 "x_c",  "y_c",  "u_c",  "v_c",  "exx",  "eyy",  "exy",  "e1",  "e2",  "gamma",  "e_vonmises",  "sigma",  "x",  "y",  "u",  "v"
-700,715,0,0,0,0,0,0,0,0,0,-1,524,309,0,0
-693,715,0,0,0,0,0,0,0,0,0,-1,531,309,0,0
-686,715,0,0,0,0,0,0,0,0,0,-1,538,309,0,0
-679,715,0,0,0,0,0,0,0,0,0,-1,545,309,0,0
-672,715,0,0,0,0,0,0,0,0,0,-1,552,309,0,0
-665,715,0,0,0,0,0,0,0,0,0,-1,559,309,0,0
-658,715,0,0,0,0,0,0,0,0,0,-1,566,309,0,0
-651,715,0,0,0,0,0,0,0,0,0,-1,573,309,0,0
-644,715,0,0,0,0,0,0,0,0,0,-1,580,309,0,0
-637,715,0,0,0,0,0,0,0,0,0,-1,587,309,0,0
-630,715,0,0,0,0,0,0,0,0,0,-1,594,309,0,0
-623,715,0,0,0,0,0,0,0,0,0,-1,601,309,0,0
-616,715,0,0,0,0,0,0,0,0,0,-1,608,309,0,0
-609,715,0,0,0,0,0,0,0,0,0,-1,615,309,0,0
-602,715,0,0,0,0,0,0,0,0,0,-1,622,309,0,0
-595,715,0,0,0,0,0,0,0,0,0,-1,629,309,0,0
-588,715,0,0,0,0,0,0,0,0,0,-1,636,309,0,0
-581,715,0,0,0,0,0,0,0,0,0,-1,643,309,0,0
-574,715,0,0,0,0,0,0,0,0,0,-1,650,309,0,0
-567,715,0,0,0,0,0,0,0,0,0,-1,657,309,0,0
-560,715,0,0,0,0,0,0,0,0,0,-1,664,309,0,0
-553,715,0,0,0,0,0,0,0,0,0,-1,671,309,0,0
-546,715,0,0,0,0,0,0,0,0,0,-1,678,309,0,0
-539,715,0,0,0,0,0,0,0,0,0,-1,685,309,0,0
-532,715,0,0,0,0,0,0,0,0,0,-1,692,309,0,0
-525,715,0,0,0,0,0,0,0,0,0,-1,699,309,0,0
-518,715,0,0,0,0,0,0,0,0,0,-1,706,309,0,0
-511,715,0,0,0,0,0,0,0,0,0,-1,713,309,0,0
-504,715,0,0,0,0,0,0,0,0,0,-1,720,309,0,0
-497,715,0,0,0,0,0,0,0,0,0,-1,727,309,0,0
-490,715,0,0,0,0,0,0,0,0,0,-1,734,309,0,0
-483,715,0,0,0,0,0,0,0,0,0,-1,741,309,0,0
-476,715,0,0,0,0,0,0,0,0,0,-1,748,309,0,0
-469,715,0,0,0,0,0,0,0,0,0,-1,755,309,0,0
-462,715,0,0,0,0,0,0,0,0,0,-1,762,309,0,0
-455,715,0,0,0,0,0,0,0,0,0,-1,769,309,0,0
-448,715,0,0,0,0,0,0,0,0,0,-1,776,309,0,0
-441,715,0,0,0,0,0,0,0,0,0,-1,783,309,0,0
-434,715,0,0,0,0,0,0,0,0,0,-1,790,309,0,0
-427,715,0,0,0,0,0,0,0,0,0,-1,797,309,0,0
-420,715,0,0,0,0,0,0,0,0,0,-1,804,309,0,0
-413,715,0,0,0,0,0,0,0,0,0,-1,811,309,0,0
-406,715,0,0,0,0,0,0,0,0,0,-1,818,309,0,0
-399,715,0,0,0,0,0,0,0,0,0,-1,825,309,0,0
-392,715,0,0,0,0,0,0,0,0,0,-1,832,309,0,0
-385,715,0,0,0,0,0,0,0,0,0,-1,839,309,0,0
-378,715,0,0,0,0,0,0,0,0,0,-1,846,309,0,0
-371,715,0,0,0,0,0,0,0,0,0,-1,853,309,0,0
-364,715,0,0,0,0,0,0,0,0,0,-1,860,309,0,0
-357,715,0,0,0,0,0,0,0,0,0,-1,867,309,0,0
-350,715,0,0,0,0,0,0,0,0,0,-1,874,309,0,0
-343,715,0,0,0,0,0,0,0,0,0,-1,881,309,0,0
-336,715,0,0,0,0,0,0,0,0,0,-1,888,309,0,0
-329,715,0,0,0,0,0,0,0,0,0,-1,895,309,0,0
-322,715,0,0,0,0,0,0,0,0,0,-1,902,309,0,0
-315,715,0,0,0,0,0,0,0,0,0,-1,909,309,0,0
-308,715,0,0,0,0,0,0,0,0,0,-1,916,309,0,0
-301,715,0,0,0,0,0,0,0,0,0,-1,923,309,0,0
-294,715,0,0,0,0,0,0,0,0,0,-1,930,309,0,0
-287,715,0,0,0,0,0,0,0,0,0,-1,937,309,0,0
-280,715,0,0,0,0,0,0,0,0,0,-1,944,309,0,0
-273,715,0,0,0,0,0,0,0,0,0,-1,951,309,0,0
-266,715,0,0,0,0,0,0,0,0,0,-1,958,309,0,0
-259,715,0,0,0,0,0,0,0,0,0,-1,965,309,0,0
-252,715,0,0,0,0,0,0,0,0,0,-1,972,309,0,0
-245,715,0,0,0,0,0,0,0,0,0,-1,979,309,0,0
-238,715,0,0,0,0,0,0,0,0,0,-1,986,309,0,0
-231,715,0,0,0,0,0,0,0,0,0,-1,993,309,0,0
-224,715,0,0,0,0,0,0,0,0,0,-1,1000,309,0,0
-217,715,0,0,0,0,0,0,0,0,0,-1,1007,309,0,0
-210,715,0,0,0,0,0,0,0,0,0,-1,1014,309,0,0
-203,715,0,0,0,0,0,0,0,0,0,-1,1021,309,0,0
-196,715,0,0,0,0,0,0,0,0,0,-1,1028,309,0,0
-189,715,0,0,0,0,0,0,0,0,0,-1,1035,309,0,0
-182,715,0,0,0,0,0,0,0,0,0,-1,1042,309,0,0
-175,715,0,0,0,0,0,0,0,0,0,-1,1049,309,0,0
-168,715,0,0,0,0,0,0,0,0,0,-1,1056,309,0,0
-161,715,0,0,0,0,0,0,0,0,0,-1,1063,309,0,0
-154,715,0,0,0,0,0,0,0,0,0,-1,1070,309,0,0
-147,715,0,0,0,0,0,0,0,0,0,-1,1077,309,0,0
-140,715,0,0,0,0,0,0,0,0,0,-1,1084,309,0,0
-133,715,0,0,0,0,0,0,0,0,0,-1,1091,309,0,0
-126,715,0,0,0,0,0,0,0,0,0,-1,1098,309,0,0
-119,715,0,0,0,0,0,0,0,0,0,-1,1105,309,0,0
-112,715,0,0,0,0,0,0,0,0,0,-1,1112,309,0,0
-105,715,0,0,0,0,0,0,0,0,0,-1,1119,309,0,0
-98,715,0,0,0,0,0,0,0,0,0,-1,1126,309,0,0
-91,715,0,0,0,0,0,0,0,0,0,-1,1133,309,0,0
-84,715,0,0,0,0,0,0,0,0,0,-1,1140,309,0,0
-77,715,0,0,0,0,0,0,0,0,0,-1,1147,309,0,0
-70,715,0,0,0,0,0,0,0,0,0,-1,1154,309,0,0
-63,715,0,0,0,0,0,0,0,0,0,-1,1161,309,0,0
-56,715,0,0,0,0,0,0,0,0,0,-1,1168,309,0,0
-49,715,0,0,0,0,0,0,0,0,0,-1,1175,309,0,0
-42,715,0,0,0,0,0,0,0,0,0,-1,1182,309,0,0
-35,715,0,0,0,0,0,0,0,0,0,-1,1189,309,0,0
-28,715,0,0,0,0,0,0,0,0,0,-1,1196,309,0,0
-21,715,0,0,0,0,0,0,0,0,0,-1,1203,309,0,0
-14,715,0,0,0,0,0,0,0,0,0,-1,1210,309,0,0
-7,715,0,0,0,0,0,0,0,0,0,-1,1217,309,0,0
0,715,0,0,0,0,0,0,0,0,0,-1,1224,309,0,0
7,715,0,0,0,0,0,0,0,0,0,-1,1231,309,0,0
14,715,0,0,0,0,0,0,0,0,0,-1,1238,309,0,0
21,715,0,0,0,0,0,0,0,0,0,-1,1245,309,0,0
28,715,0,0,0,0,0,0,0,0,0,-1,1252,309,0,0
35,715,0,0,0,0,0,0,0,0,0,-1,1259,309,0,0
42,715,0,0,0,0,0,0,0,0,0,-1,1266,309,0,0
49,715,0,0,0,0,0,0,0,0,0,-1,1273,309,0,0
56,715,0,0,0,0,0,0,0,0,0,-1,1280,309,0,0
63,715,7.22522,-68.2919,-0.0475281,0.128792,0.00400341,0.128883,-0.047619,1.54811,0.105442,0.0484622,1287,309,7.22528,68.2919
70,715,6.9967,-68.1152,-0.0649568,0.112066,0.00358159,0.112138,-0.0650292,1.55058,0.103486,0.0489995,1294,309,6.99667,68.1152
77,715,0,0,0,0,0,0,0,0,0,-1,1301,309,0,0
84,715,0,0,0,0,0,0,0,0,0,-1,1308,309,0,0
91,715,0,0,0,0,0,0,0,0,0,-1,1315,309,0,0
98,715,0,0,0,0,0,0,0,0,0,-1,1322,309,0,0
105,715,0,0,0,0,0,0,0,0,0,-1,1329,309,0,0
112,715,0,0,0,0,0,0,0,0,0,-1,1336,309,0,0
119,715,0,0,0,0,0,0,0,0,0,-1,1343,309,0,0
126,715,0,0,0,0,0,0,0,0,0,-1,1350,309,0,0
133,715,0,0,0,0,0,0,0,0,0,-1,1357,309,0,0
140,715,0,0,0,0,0,0,0,0,0,-1,1364,309,0,0
147,715,0,0,0,0,0,0,0,0,0,-1,1371,309,0,0
154,715,0,0,0,0,0,0,0,0,0,-1,1378,309,0,0
161,715,0,0,0,0,0,0,0,0,0,-1,1385,309,0,0
168,715,0,0,0,0,0,0,0,0,0,-1,1392,309,0,0
175,715,0,0,0,0,0,0,0,0,0,-1,1399,309,0,0
182,715,0,0,0,0,0,0,0,0,0,-1,1406,309,0,0
189,715,0,0,0,0,0,0,0,0,0,-1,1413,309,0,0
196,715,0,0,0,0,0,0,0,0,0,-1,1420,309,0,0
203,715,0,0,0,0,0,0,0,0,0,-1,1427,309,0,0
210,715,0,0,0,0,0,0,0,0,0,-1,1434,309,0,0
217,715,0,0,0,0,0,0,0,0,0,-1,1441,309,0,0
224,715,0,0,0,0,0,0,0,0,0,-1,1448,309,0,0
231,715,0,0,0,0,0,0,0,0,0,-1,1455,309,0,0
238,715,0,0,0,0,0,0,0,0,0,-1,1462,309,0,0
245,715,0,0,0,0,0,0,0,0,0,-1,1469,309,0,0
252,715,0,0,0,0,0,0,0,0,0,-1,1476,309,0,0
259,715,0,0,0,0,0,0,0,0,0,-1,1483,309,0,0
266,715,0,0,0,0,0,0,0,0,0,-1,1490,309,0,0
273,715,0,0,0,0,0,0,0,0,0,-1,1497,309,0,0
280,715,0,0,0,0,0,0,0,0,0,-1,1504,309,0,0
287,715,0,0,0,0,0,0,0,0,0,-1,1511,309,0,0
294,715,0,0,0,0,0,0,0,0,0,-1,1518,309,0,0
301,715,0,0,0,0,0,0,0,0,0,-1,1525,309,0,0
308,715,0,0,0,0,0,0,0,0,0,-1,1532,309,0,0
315,715,0,0,0,0,0,0,0,0,0,-1,1539,309,0,0
322,715,0,0,0,0,0,0,0,0,0,-1,1546,309,0,0
329,715,0,0,0,0,0,0,0,0,0,-1,1553,309,0,0
336,715,0,0,0,0,0,0,0,0,0,-1,1560,309,0,0
343,715,0,0,0,0,0,0,0,0,0,-1,1567,309,0,0
350,715,0,0,0,0,0,0,0,0,0,-1,1574,309,0,0
357,715,0,0,0,0,0,0,0,0,0,-1,1581,309,0,0
364,715,0,0,0,0,0,0,0,0,0,-1,1588,309,0,0
371,715,0,0,0,0,0,0,0,0,0,-1,1595,309,0,0
378,715,0,0,0,0,0,0,0,0,0,-1,1602,309,0,0
385,715,0,0,0,0,0,0,0,0,0,-1,1609,309,0,0
392,715,0,0,0,0,0,0,0,0,0,-1,1616,309,0,0
399,715,0,0,0,0,0,0,0,0,0,-1,1623,309,0,0
406,715,0,0,0,0,0,0,0,0,0,-1,1630,309,0,0
413,715,0,0,0,0,0,0,0,0,0,-1,1637,309,0,0
420,715,0,0,0,0,0,0,0,0,0,-1,1644,309,0,0
427,715,0,0,0,0,0,0,0,0,0,-1,1651,309,0,0
434,715,0,0,0,0,0,0,0,0,0,-1,1658,309,0,0
441,715,0,0,0,0,0,0,0,0,0,-1,1665,309,0,0
448,715,0,0,0,0,0,0,0,0,0,-1,1672,309,0,0
455,715,0,0,0,0,0,0,0,0,0,-1,1679,309,0,0
462,715,0,0,0,0,0,0,0,0,0,-1,1686,309,0,0
469,715,0,0,0,0,0,0,0,0,0,-1,1693,309,0,0
476,715,0,0,0,0,0,0,0,0,0,-1,1700,309,0,0
483,715,0,0,0,0,0,0,0,0,0,-1,1707,309,0,0
490,715,0,0,0,0,0,0,0,0,0,-1,1714,309,0,0
497,715,0,0,0,0,0,0,0,0,0,-1,1721,309,0,0
504,715,0,0,0,0,0,0,0,0,0,-1,1728,309,0,0
511,715,0,0,0,0,0,0,0,0,0,-1,1735,309,0,0
518,715,0,0,0,0,0,0,0,0,0,-1,1742,309,0,0
525,715,0,0,0,0,0,0,0,0,0,-1,1749,309,0,0
532,715,0,0,0,0,0,0,0,0,0,-1,1756,309,0,0
539,715,0,0,0,0,0,0,0,0,0,-1,1763,309,0,0
546,715,0,0,0,0,0,0,0,0,0,-1,1770,309,0,0
553,715,0,0,0,0,0,0,0,0,0,-1,1777,309,0,0
560,715,0,0,0,0,0,0,0,0,0,-1,1784,309,0,0
567,715,0,0,0,0,0,0,0,0,0,-1,1791,309,0,0
574,715,0,0,0,0,0,0,0,0,0,-1,1798,309,0,0
581,715,0,0,0,0,0,0,0,0,0,-1,1805,309,0,0
588,715,0,0,0,0,0,0,0,0,0,-1,1812,309,0,0
595,715,0,0,0,0,0,0,0,0,0,-1,1819,309,0,0
602,715,0,0,0,0,0,0,0,0,0,-1,1826,309,0,0
609,715,0,0,0,0,0,0,0,0,0,-1,1833,309,0,0
616,715,0,0,0,0,0,0,0,0,0,-1,1840,309,0,0
623,715,0,0,0,0,0,0,0,0,0,-1,1847,309,0,0
630,715,0,0,0,0,0,0,0,0,0,-1,1854,309,0,0
637,715,0,0,0,0,0,0,0,0,0,-1,1861,309,0,0
644,715,0,0,0,0,0,0,0,0,0,-1,1868,309,0,0
651,715,0,0,0,0,0,0,0,0,0,-1,1875,309,0,0
658,715,0,0,0,0,0,0,0,0,0,-1,1882,309,0,0
665,715,0,0,0,0,0,0,0,0,0,-1,1889,309,0,0
672,715,0,0,0,0,0,0,0,0,0,-1,1896,309,0,0
679,715,0,0,0,0,0,0,0,0,0,-1,1903,309,0,0
686,715,0,0,0,0,0,0,0,0,0,-1,1910,309,0,0
693,715,0,0,0,0,0,0,0,0,0,-1,1917,309,0,0
700,715,0,0,0,0,0,0,0,0,0,-1,1924,309,0,0
707,715,0,0,0,0,0,0,0,0,0,-1,1931,309,0,0
714,715,0,0,0,0,0,0,0,0,0,-1,1938,309,0,0
721,715,0,0,0,0,0,0,0,0,0,-1,1945,309,0,0
728,715,0,0,0,0,0,0,0,0,0,-1,1952,309,0,0
735,715,0,0,0,0,0,0,0,0,0,-1,1959,309,0,0
742,715,0,0,0,0,0,0,0,0,0,-1,1966,309,0,0
749,715,0,0,0,0,0,0,0,0,0,-1,1973,309,0,0
756,715,0,0,0,0,0,0,0,0,0,-1,1980,309,0,0
763,715,0,0,0,0,0,0,0,0,0,-1,1987,309,0,0
770,715,0,0,0,0,0,0,0,0,0,-1,1994,309,0,0
777,715,0,0,0,0,0,0,0,0,0,-1,2001,309,0,0
784,715,0,0,0,0,0,0,0,0,0,-1,2008,309,0,0
791,715,0,0,0,0,0,0,0,0,0,-1,2015,309,0,0
798,715,0,0,0,0,0,0,0,0,0,-1,2022,309,0,0
805,715,0,0,0,0,0,0,0,0,0,-1,2029,309,0,0
812,715,0,0,0,0,0,0,0,0,0,-1,2036,309,0,0
-700,708,0,0,0,0,0,0,0,0,0,-1,524,316,0,0
-693,708,0,0,0,0,0,0,0,0,0,-1,531,316,0,0
-686,708,0,0,0,0,0,0,0,0,0,-1,538,316,0,0
-679,708,0,0,0,0,0,0,0,0,0,-1,545,316,0,0
-672,708,0,0,0,0,0,0,0,0,0,-1,552,316,0,0
-665,708,0,0,0,0,0,0,0,0,0,-1,559,316,0,0
-658,708,0,0,0,0,0,0,0,0,0,-1,566,316,0,0
-651,708,0,0,0,0,0,0,0,0,0,-1,573,316,0,0
-644,708,0,0,0,0,0,0,0,0,0,-1,580,316,0,0
-637,708,0,0,0,0,0,0,0,0,0,-1,587,316,0,0
-630,708,0,0,0,0,0,0,0,0,0,-1,594,316,0,0
-623,708,0,0,0,0,0,0,0,0,0,-1,601,316,0,0
-616,708,0,0,0,0,0,0,0,0,0,-1,608,316,0,0
-609,708,0,0,0,0,0,0,0,0,0,-1,615,316,0,0
-602,708,0,0,0,0,0,0,0,0,0,-1,622,316,0,0
-595,708,0,0,0,0,0,0,0,0,0,-1,629,316,0,0
-588,708,0,0,0,0,0,0,0,0,0,-1,636,316,0,0
-581,708,0,0,0,0,0,0,0,0,0,-1,643,316,0,0
-574,708,0,0,0,0,0,0,0,0,0,-1,650,316,0,0
-567,708,0,0,0,0,0,0,0,0,0,-1,657,316,0,0
-560,708,0,0,0,0,0,0,0,0,0,-1,664,316,0,0
-553,708,0,0,0,0,0,0,0,0,0,-1,671,316,0,0
-546,708,0,0,0,0,0,0,0,0,0,-1,678,316,0,0
-539,708,0,0,0,0,0,0,0,0,0,-1,685,316,0,0
-532,708,0,0,0,0,0,0,0,0,0,-1,692,316,0,0
-525,708,0,0,0,0,0,0,0,0,0,-1,699,316,0,0
-518,708,0,0,0,0,0,0,0,0,0,-1,706,316,0,0
-511,708,0,0,0,0,0,0,0,0,0,-1,713,316,0,0
-504,708,0,0,0,0,0,0,0,0,0,-1,720,316,0,0
-497,708,0,0,0,0,0,0,0,0,0,-1,727,316,0,0
-490,708,0,0,0,0,0,0,0,0,0,-1,734,316,0,0
-483,708,0,0,0,0,0,0,0,0,0,-1,741,316,0,0
-476,708,0,0,0,0,0,0,0,0,0,-1,748,316,0,0
-469,708,0,0,0,0,0,0,0,0,0,-1,755,316,0,0
-462,708,0,0,0,0,0,0,0,0,0,-1,762,316,0,0
-455,708,0,0,0,0,0,0,0,0,0,-1,769,316,0,0
-448,708,0,0,0,0,0,0,0,0,0,-1,776,316,0,0
-441,708,0,0,0,0,0,0,0,0,0,-1,783,316,0,0
-434,708,0,0,0,0,0,0,0,0,0,-1,790,316,0,0
-427,708,0,0,0,0,0,0,0,0,0,-1,797,316,0,0
-420,708,0,0,0,0,0,0,0,0,0,-1,804,316,0,0
-413,708,0,0,0,0,0,0,0,0,0,-1,811,316,0,0
-406,708,0,0,0,0,0,0,0,0,0,-1,818,316,0,0
-399,708,0,0,0,0,0,0,0,0,0,-1,825,316,0,0
-392,708,0,0,0,0,0,0,0,0,0,-1,832,316,0,0
-385,708,0,0,0,0,0,0,0,0,0,-1,839,316,0,0
-378,708,0,0,0,0,0,0,0,0,0,-1,846,316,0,0
-371,708,0,0,0,0,0,0,0,0,0,-1,853,316,0,0
-364,708,0,0,0,0,0,0,0,0,0,-1,860,316,0,0
-357,708,0,0,0,0,0,0,0,0,0,-1,867,316,0,0
-350,708,0,0,0,0,0,0,0,0,0,-1,874,316,0,0
-343,708,0,0,0,0,0,0,0,0,0,-1,881,316,0,0
-336,708,0,0,0,0,0,0,0,0,0,-1,888,316,0,0
-329,708,0,0,0,0,0,0,0,0,0,-1,895,316,0,0
-322,708,0,0,0,0,0,0,0,0,0,-1,902,316,0,0
-315,708,0,0,0,0,0,0,0,0,0,-1,909,316,0,0
-308,708,0,0,0,0,0,0,0,0,0,-1,916,316,0,0
-301,708,0,0,0,0,0,0,0,0,0,-1,923,316,0,0
-294,708,0,0,0,0,0,0,0,0,0,-1,930,316,0,0
-287,708,0,0,0,0,0,0,0,0,0,-1,937,316,0,0
-280,708,0,0,0,0,0,0,0,0,0,-1,944,316,0,0
-273,708,0,0,0,0,0,0,0,0,0,-1,951,316,0,0
-266,708,0,0,0,0,0,0,0,0,0,-1,958,316,0,0
-259,708,0,0,0,0,0,0,0,0,0,-1,965,316,0,0
-252,708,0,0,0,0,0,0,0,0,0,-1,972,316,0,0
-245,708,0,0,0,0,0,0,0,0,0,-1,979,316,0,0
-238,708,0,0,0,0,0,0,0,0,0,-1,986,316,0,0
-231,708,0,0,0,0,0,0,0,0,0,-1,993,316,0,0
-224,708,0,0,0,0,0,0,0,0,0,-1,1000,316,0,0
-217,708,0,0,0,0,0,0,0,0,0,-1,1007,316,0,0
-210,708,0,0,0,0,0,0,0,0,0,-1,1014,316,0,0
-203,708,0,0,0,0,0,0,0,0,0,-1,1021,316,0,0
-196,708,0,0,0,0,0,0,0,0,0,-1,1028,316,0,0
-189,708,0,0,0,0,0,0,0,0,0,-1,1035,316,0,0
-182,708,0,0,0,0,0,0,0,0,0,-1,1042,316,0,0
-175,708,0,0,0,0,0,0,0,0,0,-1,1049,316,0,0
-168,708,0,0,0,0,0,0,0,0,0,-1,1056,316,0,0
-161,708,0,0,0,0,0,0,0,0,0,-1,1063,316,0,0
-154,708,0,0,0,0,0,0,0,0,0,-1,1070,316,0,0
-147,708,0,0,0,0,0,0,0,0,0,-1,1077,316,0,0
-140,708,0,0,0,0,0,0,0,0,0,-1,1084,316,0,0
-133,708,0,0,0,0,0,0,0,0,0,-1,1091,316,0,0
-126,708,0,0,0,0,0,0,0,0,0,-1,1098,316,0,0
-119,708,0,0,0,0,0,0,0,0,0,-1,1105,316,0,0
-112,708,0,0,0,0,0,0,0,0,0,-1,1112,316,0,0
-105,708,0,0,0,0,0,0,0,0,0,-1,1119,316,0,0
-98,708,0,0,0,0,0,0,0,0,0,-1,1126,316,0,0
-91,708,0,0,0,0,0,0,0,0,0,-1,1133,316,0,0
-84,708,0,0,0,0,0,0,0,0,0,-1,1140,316,0,0
-77,708,0,0,0,0,0,0,0,0,0,-1,1147,316,0,0
-70,708,0,0,0,0,0,0,0,0,0,-1,1154,316,0,0
-63,708,0,0,0,0,0,0,0,0,0,-1,1161,316,0,0
-56,708,0,0,0,0,0,0,0,0,0,-1,1168,316,0,0
-49,708,0,0,0,0,0,0,0,0,0,-1,1175,316,0,0
-42,708,0,0,0,0,0,0,0,0,0,-1,1182,316,0,0
-35,708,-2.71204,-6.31558,0,0,0,0,0,0,0,-1,1189,316,-2.712,6.3156
-28,708,-2.92371,-5.53253,0,0,0,0,0,0,0,-1,1196,316,-2.92375,5.53254
-21,708,-0.417969,-24.5911,0,0,0,0,0,0,0,-1,1203,316,-0.418022,24.5911
-14,708,14.6877,-59.836,0,0,0,0,0,0,0,-1,1210,316,14.6877,59.836
-7,708,12.0879,-66.7086,0,0,0,0,0,0,0,-1,1217,316,12.0878,66.7086
0,708,15.0627,-61.2632,0,0,0,0,0,0,0,-1,1224,316,15.0627,61.2632
7,708,15.2937,-62.5265,0,0,0,0,0,0,0,-1,1231,316,15.2937,62.5265
14,708,15.8704,-65.1229,0.107163,0.277509,-0.0144729,0.27873,0.105942,-1.48664,0.16246,0.0443164,1238,316,15.8704,65.1229
21,708,16.2505,-66.4425,0,0,0,0,0,0,0,-1,1245,316,16.2505,66.4425
28,708,16.5736,-67.8217,0,0,0,0,0,0,0,-1,1252,316,16.5736,67.8217
35,708,8.89453,-64.7283,0,0,0,0,0,0,0,-1,1259,316,8.89449,64.7283
42,708,8.65601,-69.6932,0,0,0,0,0,0,0,-1,1266,316,8.65595,69.6932
49,708,7.97375,-69.3915,0,0,0,0,0,0,0,-1,1273,316,7.97381,69.3916
56,708,7.75134,-69.125,-0.0219188,0.143041,0.00257938,0.143081,-0.0219592,1.55516,0.103487,0.0465287,1280,316,7.75137,69.125
63,708,7.50415,-68.8746,-0.0380534,0.122774,0.00393947,0.12287,-0.0381499,1.54632,0.0971595,0.0465778,1287,316,7.50413,68.8746
70,708,6.9292,-68.533,-0.0523106,0.107248,0.00343168,0.107322,-0.0523844,1.5493,0.0940074,0.0428287,1294,316,6.92922,68.533
77,708,6.82605,-67.1115,0,0,0,0,0,0,0,-1,1301,316,6.82604,67.1115
84,708,6.21533,-66.3425,-0.0558335,0.0818317,-0.00549229,0.0820505,-0.0560522,-1.53098,0.0802032,0.0470149,1308,316,6.21538,66.3425
91,708,3.86975,-65.5949,-0.0480765,0.0693703,-0.0138478,0.070981,-0.0496872,-1.455,0.0700284,0.0480975,1315,316,3.86974,65.5949
98,708,3.19141,-65.2353,-0.0330915,0.0582551,-0.0254811,0.0648822,-0.0397186,-1.31635,0.060971,0.0462305,1322,316,3.19145,65.2353
105,708,3.5,-65.2579,-0.0148241,0.0453498,-0.0381459,0.0638461,-0.0333204,-1.11931,0.0570144,0.0484981,1329,316,3.49997,65.2579
112,708,3.70374,-64.6758,0.00565436,0.0314052,-0.0517768,0.0718834,-0.0348239,-0.907262,0.0628338,0.0455128,1336,316,3.70375,64.6758
119,708,3.89172,-64.6302,0.0288,0.0173308,-0.0673115,0.0906207,-0.04449,-0.742903,0.0795073,0.0416962,1343,316,3.89167,64.6302
126,708,4.1405,-64.6296,0,0,0,0,0,0,0,-1,1350,316,4.14055,64.6296
133,708,4.88538,-64.822,0,0,0,0,0,0,0,-1,1357,316,4.88538,64.822
140,708,1.34143,-70.7776,0,0,0,0,0,0,0,-1,1364,316,1.34144,70.7776
147,708,10.6436,-66.2709,0,0,0,0,0,0,0,-1,1371,316,10.6436,66.2709
154,708,0,0,0,0,0,0,0,0,0,-1,1378,316,0,0
161,708,0,0,0,0,0,0,0,0,0,-1,1385,316,0,0
168,708,0,0,0,0,0,0,0,0,0,-1,1392,316,0,0
175,708,0,0,0,0,0,0,0,0,0,-1,1399,316,0,0
182,708,0,0,0,0,0,0,0,0,0,-1,1406,316,0,0
189,708,0,0,0,0,0,0,0,0,0,-1,1413,316,0,0
196,708,0,0,0,0,0,0,0,0,0,-1,1420,316,0,0
203,708,0,0,0,0,0,0,0,0,0,-1,1427,316,0,0
210,708,0,0,0,0,0,0,0,0,0,-1,1434,316,0,0
217,708,0,0,0,0,0,0,0,0,0,-1,1441,316,0,0
224,708,0,0,0,0,0,0,0,0,0,-1,1448,316,0,0
231,708,0,0,0,0,0,0,0,0,0,-1,1455,316,0,0
238,708,0,0,0,0,0,0,0,0,0,-1,1462,316,0,0
245,708,0,0,0,0,0,0,0,0,0,-1,1469,316,0,0
252,708,0,0,0,0,0,0,0,0,0,-1,1476,316,0,0
259,708,0,0,0,0,0,0,0,0,0,-1,1483,316,0,0
266,708,0,0,0,0,0,0,0,0,0,-1,1490,316,0,0
273,708,0,0,0,0,0,0,0,0,0,-1,1497,316,0,0
280,708,0,0,0,0,0,0,0,0,0,-1,1504,316,0,0
287,708,0,0,0,0,0,0,0,0,0,-1,1511,316,0,0
294,708,0,0,0,0,0,0,0,0,0,-1,1518,316,0,0
301,708,0,0,0,0,0,0,0,0,0,-1,1525,316,0,0
308,708,0,0,0,0,0,0,0,0,0,-1,1532,316,0,0
315,708,0,0,0,0,0,0,0,0,0,-1,1539,316,0,0
322,708,0,0,0,0,0,0,0,0,0,-1,1546,316,0,0
329,708,0,0,0,0,0,0,0,0,0,-1,1553,316,0,0
336,708,0,0,0,0,0,0,0,0,0,-1,1560,316,0,0
343,708,0,0,0,0,0,0,0,0,0,-1,1567,316,0,0
350,708,0,0,0,0,0,0,0,0,0,-1,1574,316,0,0
357,708,0,0,0,0,0,0,0,0,0,-1,1581,316,0,0
364,708,0,0,0,0,0,0,0,0,0,-1,1588,316,0,0
371,708,0,0,0,0,0,0,0,0,0,-1,1595,316,0,0
378,708,0,0,0,0,0,0,0,0,0,-1,1602,316,0,0
385,708,0,0,0,0,0,0,0,0,0,-1,1609,316,0,0
392,708,0,0,0,0,0,0,0,0,0,-1,1616,316,0,0
399,708,0,0,0,0,0,0,0,0,0,-1,1623,316,0,0
406,708,0,0,0,0,0,0,0,0,0,-1,1630,316,0,0
413,708,0,0,0,0,0,0,0,0,0,-1,1637,316,0,0
420,708,0,0,0,0,0,0,0,0,0,-1,1644,316,0,0
427,708,0,0,0,0,0,0,0,0,0,-1,1651,316,0,0
434,708,0,0,0,0,0,0,0,0,0,-1,1658,316,0,0
441,708,0,0,0,0,0,0,0,0,0,-1,1665,316,0,0
448,708,0,0,0,0,0,0,0,0,0,-1,1672,316,0,0
455,708,0,0,0,0,0,0,0,0,0,-1,1679,316,0,0
462,708,0,0,0,0,0,0,0,0,0,-1,1686,316,0,0
469,708,0,0,0,0,0,0,0,0,0,-1,1693,316,0,0
476,708,0,0,0,0,0,0,0,0,0,-1,1700,316,0,0
483,708,0,0,0,0,0,0,0,0,0,-1,1707,316,0,0
490,708,0,0,0,0,0,0,0,0,0,-1,1714,316,0,0
497,708,0,0,0,0,0,0,0,0,0,-1,1721,316,0,0
504,708,0,0,0,0,0,0,0,0,0,-1,1728,316,0,0
511,708,0,0,0,0,0,0,0,0,0,-1,1735,316,0,0
518,708,0,0,0,0,0,0,0,0,0,-1,1742,316,0,0
525,708,0,0,0,0,0,0,0,0,0,-1,1749,316,0,0
532,708,0,0,0,0,0,0,0,0,0,-1,1756,316,0,0
539,708,0,0,0,0,0,0,0,0,0,-1,1763,316,0,0
546,708,0,0,0,0,0,0,0,0,0,-1,1770,316,0,0
553,708,0,0,0,0,0,0,0,0,0,-1,1777,316,0,0
560,708,0,0,0,0,0,0,0,0,0,-1,1784,316,0,0
567,708,0,0,0,0,0,0,0,0,0,-1,1791,316,0,0
574,708,0,0,0,0,0,0,0,0,0,-1,1798,316,0,0
581,708,0,0,0,0,0,0,0,0,0,-1,1805,316,0,0
588,708,0,0,0,0,0,0,0,0,0,-1,1812,316,0,0
595,708,0,0,0,0,0,0,0,0,0,-1,1819,316,0,0
602,708,0,0,0,0,0,0,0,0,0,-1,1826,316,0,0
609,708,0,0,0,0,0,0,0,0,0,-1,1833,316,0,0
616,708,0,0,0,0,0,0,0,0,0,-1,1840,316,0,0
623,708,0,0,0,0,0,0,0,0,0,-1,1847,316,0,0
630,708,0,0,0,0,0,0,0,0,0,-1,1854,316,0,0
637,708,0,0,0,0,0,0,0,0,0,-1,1861,316,0,0
644,708,0,0,0,0,0,0,0,0,0,-1,1868,316,0,0
651,708,0,0,0,0,0,0,0,0,0,-1,1875,316,0,0
658,708,0,0,0,0,0,0,0,0,0,-1,1882,316,0,0
665,708,0,0,0,0,0,0,0,0,0,-1,1889,316,0,0
672,708,0,0,0,0,0,0,0,0,0,-1,1896,316,0,0
679,708,0,0,0,0,0,0,0,0,0,-1,1903,316,0,0
686,708,0,0,0,0,0,0,0,0,0,-1,1910,316,0,0
693,708,0,0,0,0,0,0,0,0,0,-1,1917,316,0,0
700,708,0,0,0,0,0,0,0,0,0,-1,1924,316,0,0
707,708,0,0,0,0,0,0,0,0,0,-1,1931,316,0,0
714,708,0,0,0,0,0,0,0,0,0,-1,1938,316,0,0
721,708,0,0,0,0,0,0,0,0,0,-1,1945,316,0,0
728,708,0,0,0,0,0,0,0,0,0,-1,1952,316,0,0
735,708,0,0,0,0,0,0,0,0,0,-1,1959,316,0,0
742,708,0,0,0,0,0,0,0,0,0,-1,1966,316,0,0
749,708,0,0,0,0,0,0,0,0,0,-1,1973,316,0,0
756,708,0,0,0,0,0,0,0,0,0,-1,1980,316,0,0
763,708,0,0,0,0,0,0,0,0,0,-1,1987,316,0,0
770,708,0,0,0,0,0,0,0,0,0,-1,1994,316,0,0
777,708,0,0,0,0,0,0,0,0,0,-1,2001,316,0,0
784,708,0,0,0,0,0,0,0,0,0,-1,2008,316,0,0
791,708,0,0,0,0,0,0,0,0,0,-1,2015,316,0,0
798,708,0,0,0,0,0,0,0,0,0,-1,2022,316,0,0
805,708,0,0,0,0,0,0,0,0,0,-1,2029,316,0,0
812,708,0,0,0,0,0,0,0,0,0,-1,2036,316,0,0
-700,701,0,0,0,0,0,0,0,0,0,-1,524,323,0,0
-693,701,0,0,0,0,0,0,0,0,0,-1,531,323,0,0
-686,701,0,0,0,0,0,0,0,0,0,-1,538,323,0,0
-679,701,0,0,0,0,0,0,0,0,0,-1,545,323,0,0
-672,701,0,0,0,0,0,0,0,0,0,-1,552,323,0,0
-665,701,0,0,0,0,0,0,0,0,0,-1,559,323,0,0
-658,701,0,0,0,0,0,0,0,0,0,-1,566,323,0,0
-651,701,0,0,0,0,0,0,0,0,0,-1,573,323,0,0
-644,701,0,0,0,0,0,0,0,0,0,-1,580,323,0,0
-637,701,0,0,0,0,0,0,0,0,0,-1,587,323,0,0
-630,701,0,0,0,0,0,0,0,0,0,-1,594,323,0,0
-623,701,0,0,0,0,0,0,0,0,0,-1,601,323,0,0
-616,701,0,0,0,0,0,0,0,0,0,-1,608,323,0,0
-609,701,0,0,0,0,0,0,0,0,0,-1,615,323,0,0
-602,701,0,0,0,0,0,0,0,0,0,-1,622,323,0,0
-595,701,0,0,0,0,0,0,0,0,0,-1,629,323,0,0
-588,701,0,0,0,0,0,0,0,0,0,-1,636,323,0,0
-581,701,0,0,0,0,0,0,0,0,0,-1,643,323,0,0
-574,701,0,0,0,0,0,0,0,0,0,-1,650,323,0,0
-567,701,0,0,0,0,0,0,0,0,0,-1,657,323,0,0
-560,701,0,0,0,0,0,0,0,0,0,-1,664,323,0,0
-553,701,0,0,0,0,0,0,0,0,0,-1,671,323,0,0
-546,701,0,0,0,0,0,0,0,0,0,-1,678,323,0,0
-539,701,0,0,0,0,0,0,0,0,0,-1,685,323,0,0
-532,701,0,0,0,0,0,0,0,0,0,-1,692,323,0,0
-525,701,0,0,0,0,0,0,0,0,0,-1,699,323,0,0
-518,701,0,0,0,0,0,0,0,0,0,-1,706,323,0,0
-511,701,0,0,0,0,0,0,0,0,0,-1,713,323,0,0
-504,701,0,0,0,0,0,0,0,0,0,-1,720,323,0,0
-497,701,0,0,0,0,0,0,0,0,0,-1,727,323,0,0
-490,701,0,0,0,0,0,0,0,0,0,-1,734,323,0,0
-483,701,0,0,0,0,0,0,0,0,0,-1,741,323,0,0
-476,701,0,0,0,0,0,0,0,0,0,-1,748,323,0,0
-469,701,0,0,0,0,0,0,0,0,0,-1,755,323,0,0
-462,701,0,0,0,0,0,0,0,0,0,-1,762,323,0,0
-455,701,0,0,0,0,0,0,0,0,0,-1,769,323,0,0
-448,701,0,0,0,0,0,0,0,0,0,-1,776,323,0,0
-441,701,0,0,0,0,0,0,0,0,0,-1,783,323,0,0
-434,701,0,0,0,0,0,0,0,0,0,-1,790,323,0,0
-427,701,0,0,0,0,0,0,0,0,0,-1,797,323,0,0
-420,701,0,0,0,0,0,0,0,0,0,-1,804,323,0,0
-413,701,0,0,0,0,0,0,0,0,0,-1,811,323,0,0
-406,701,0,0,0,0,0,0,0,0,0,-1,818,323,0,0
-399,701,0,0,0,0,0,0,0,0,0,-1,825,323,0,0
-392,701,0,0,0,0,0,0,0,0,0,-1,832,323,0,0
-385,701,0,0,0,0,0,0,0,0,0,-1,839,323,0,0
-378,701,0,0,0,0,0,0,0,0,0,-1,846,323,0,0
-371,701,0,0,0,0,0,0,0,0,0,-1,853,323,0,0
-364,701,0,0,0,0,0,0,0,0,0,-1,860,323,0,0
-357,701,0,0,0,0,0,0,0,0,0,-1,867,323,0,0
-350,701,0,0,0,0,0,0,0,0,0,-1,874,323,0,0
-343,701,0,0,0,0,0,0,0,0,0,-1,881,323,0,0
-336,701,0,0,0,0,0,0,0,0,0,-1,888,323,0,0
-329,701,0,0,0,0,0,0,0,0,0,-1,895,323,0,0
-322,701,0,0,0,0,0,0,0,0,0,-1,902,323,0,0
-315,701,0,0,0,0,0,0,0,0,0,-1,909,323,0,0
-308,701,0,0,0,0,0,0,0,0,0,-1,916,323,0,0
-301,701,0,0,0,0,0,0,0,0,0,-1,923,323,0,0
-294,701,0,0,0,0,0,0,0,0,0,-1,930,323,0,0
-287,701,0,0,0,0,0,0,0,0,0,-1,937,323,0,0
-280,701,0,0,0,0,0,0,0,0,0,-1,944,323,0,0
-273,701,0,0,0,0,0,0,0,0,0,-1,951,323,0,0
-266,701,0,0,0,0,0,0,0,0,0,-1,958,323,0,0
-259,701,0,0,0,0,0,0,0,0,0,-1,965,323,0,0
-252,701,0,0,0,0,0,0,0,0,0,-1,972,323,0,0
-245,701,0,0,0,0,0,0,0,0,0,-1,979,323,0,0
-238,701,0,0,0,0,0,0,0,0,0,-1,986,323,0,0
-231,701,0,0,0,0,0,0,0,0,0,-1,993,323,0,0
-224,701,0,0,0,0,0,0,0,0,0,-1,1000,323,0,0
-217,701,0,0,0,0,0,0,0,0,0,-1,1007,323,0,0
-210,701,0,0,0,0,0,0,0,0,0,-1,1014,323,0,0
-203,701,0,0,0,0,0,0,0,0,0,-1,1021,323,0,0
-196,701,0,0,0,0,0,0,0,0,0,-1,1028,323,0,0
-189,701,0,0,0,0,0,0,0,0,0,-1,1035,323,0,0
-182,701,0,0,0,0,0,0,0,0,0,-1,1042,323,0,0
-175,701,0,0,0,0,0,0,0,0,0,-1,1049,323,0,0
-168,701,0,0,0,0,0,0,0,0,0,-1,1056,323,0,0
-161,701,0,0,0,0,0,0,0,0,0,-1,1063,323,0,0
-154,701,0,0,0,0,0,0,0,0,0,-1,1070,323,0,0
-147,701,0,0,0,0,0,0,0,0,0,-1,1077,323,0,0
-140,701,0,0,0,0,0,0,0,0,0,-1,1084,323,0,0
-133,701,0,0,0,0,0,0,0,0,0,-1,1091,323,0,0
-126,701,0,0,0,0,0,0,0,0,0,-1,1098,323,0,0
-119,701,0,0,0,0,0,0,0,0,0,-1,1105,323,0,0
-112,701,0,0,0,0,0,0,0,0,0,-1,1112,323,0,0
-105,701,0,0,0,0,0,0,0,0,0,-1,1119,323,0,0
-98,701,0,0,0,0,0,0,0,0,0,-1,1126,323,0,0
-91,701,0,0,0,0,0,0,0,0,0,-1,1133,323,0,0
-84,701,0,0,0,0,0,0,0,0,0,-1,1140,323,0,0
-77,701,0,0,0,0,0,0,0,0,0,-1,1147,323,0,0
-70,701,-12.7566,-30.413,0,0,0,0,0,0,0,-1,1154,323,-12.7566,30.413
-63,701,-18.3169,-21.2322,0,0,0,0,0,0,0,-1,1161,323,-18.3169,21.2322
-56,701,-0.420166,-0.101776,0,0,0,0,0,0,0,-1,1168,323,-0.420119,0.101777
-49,701,-1.09021,-0.155762,0,0,0,0,0,0,0,-1,1175,323,-1.09024,0.155768
-42,701,-0.210327,-0.299133,0,0,0,0,0,0,0,-1,1182,323,-0.210379,0.29914
-35,701,-2.9635,-7.98676,0,0,0,0,0,0,0,-1,1189,323,-2.9635,7.98676
-28,701,-6.64417,-5.4917,0,0,0,0,0,0,0,-1,1196,323,-6.64411,5.4917
-21,701,6.90942,-60.6949,0,0,0,0,0,0,0,-1,1203,323,6.90938,60.6949
-14,701,11.092,-67.3393,0,0,0,0,0,0,0,-1,1210,323,11.092,67.3393
-7,701,13.0936,-61.7657,0,0,0,0,0,0,0,-1,1217,323,13.0936,61.7657
0,701,13.4188,-62.9868,0,0,0,0,0,0,0,-1,1224,323,13.4188,62.9869
7,701,13.6926,-64.2276,0.0992153,0.257856,-0.0126763,0.258862,0.0982088,-1.49156,0.150897,0.0435,1231,323,13.6926,64.2276
14,701,14.1107,-66.3163,0.0871771,0.242192,-0.0127779,0.243239,0.0861309,-1.4891,0.142413,0.0429492,1238,323,14.1107,66.3163
21,701,14.5374,-67.5669,0,0,0,0,0,0,0,-1,1245,323,14.5374,67.5669
28,701,13.287,-65.967,0,0,0,0,0,0,0,-1,1252,323,13.287,65.967
35,701,9.20691,-70.5811,0,0,0,0,0,0,0,-1,1259,323,9.2069,70.5812
42,701,8.91418,-70.376,0,0,0,0,0,0,0,-1,1266,323,8.9142,70.376
49,701,8.5625,-70.2219,0,0,0,0,0,0,0,-1,1273,323,8.56244,70.2219
56,701,8.26367,-69.9815,-0.0175449,0.130842,0.00246085,0.130883,-0.0175857,1.55422,0.093669,0.0483602,1280,323,8.26368,69.9815
63,701,7.80115,-69.5302,-0.0313548,0.112837,0.00359961,0.112927,-0.0314446,1.54585,0.0876665,0.0448981,1287,323,7.8011,69.5302
70,701,7.52148,-68.684,0,0,0,0,0,0,0,-1,1294,323,7.52145,68.684
77,701,6.97546,-67.8225,-0.0445627,0.0884374,0.000243133,0.0884378,-0.0445631,1.56897,0.0781684,0.046061,1301,323,6.97543,67.8225
84,701,6.43103,-67.0598,-0.0428742,0.0756625,-0.00414378,0.0758072,-0.0430189,-1.5359,0.0694694,0.0462512,1308,323,6.43097,67.0598
91,701,5.90076,-66.6797,-0.0357297,0.0640531,-0.0113063,0.0653181,-0.0369948,-1.45937,0.0598201,0.0435101,1315,323,5.90078,66.6797
98,701,4.70398,-65.8008,-0.0220708,0.054505,-0.0214971,0.0601271,-0.0276929,-1.315,0.0518428,0.0441379,1322,323,4.70397,65.8008
105,701,4.56104,-65.1987,-0.00603295,0.0436015,-0.0321167,0.0593722,-0.0218036,-1.11434,0.0485111,0.0473464,1329,323,4.56099,65.1987
112,701,4.38965,-64.5994,0.0114862,0.0323606,-0.0434396,0.0665993,-0.0227525,-0.903298,0.0536177,0.0437342,1336,323,4.38963,64.5994
119,701,4.80908,-64.325,0.0310681,0.0210236,-0.0562239,0.0824936,-0.030402,-0.740853,0.0674535,0.0422996,1343,323,4.80902,64.325
126,701,5.32544,-64.3684,0.051996,0.0106618,-0.0705836,0.104876,-0.0422182,-0.642978,0.0874555,0.0460977,1350,323,5.32548,64.3684
133,701,6.01001,-64.5526,0.0732121,0.00269831,-0.0856398,0.130568,-0.0546581,-0.590127,0.109893,0.0482012,1357,323,6.00999,64.5526
140,701,6.64929,-64.679,0,0,0,0,0,0,0,-1,1364,323,6.64934,64.679
147,701,6.93433,-64.6678,0,0,0,0,0,0,0,-1,1371,323,6.93429,64.6678
154,701,9.1189,-64.9315,0,0,0,0,0,0,0,-1,1378,323,9.11892,64.9314
161,701,-4.83057,-59.3711,0,0,0,0,0,0,0,-1,1385,323,-4.83061,59.3711
168,701,30.7272,1.76184,0,0,0,0,0,0,0,-1,1392,323,30.7272,-1.76184
175,701,31.5035,2.25711,0,0,0,0,0,0,0,-1,1399,323,31.5036,-2.25712
182,701,8.80652,5.42807,0,0,0,0,0,0,0,-1,1406,323,8.8065,-5.42808
189,701,8.58081,4.24493,0,0,0,0,0,0,0,-1,1413,323,8.58082,-4.24494
196,701,0,0,0,0,0,0,0,0,0,-1,1420,323,0,0
203,701,0,0,0,0,0,0,0,0,0,-1,1427,323,0,0
210,701,0,0,0,0,0,0,0,0,0,-1,1434,323,0,0
217,701,0,0,0,0,0,0,0,0,0,-1,1441,323,0,0
224,701,0,0,0,0,0,0,0,0,0,-1,1448,323,0,0
231,701,0,0,0,0,0,0,0,0,0,-1,1455,323,0,0
238,701,0,0,0,0,0,0,0,0,0,-1,1462,323,0,0
245,701,0,0,0,0,0,0,0,0,0,-1,1469,323,0,0
252,701,0,0,0,0,0,0,0,0,0,-1,1476,323,0,0
259,701,0,0,0,0,0,0,0,0,0,-1,1483,323,0,0
266,701,0,0,0,0,0,0,0,0,0,-1,1490,323,0,0
273,701,0,0,0,0,0,0,0,0,0,-1,1497,323,0,0
280,701,0,0,0,0,0,0,0,0,0,-1,1504,323,0,0
287,701,0,0,0,0,0,0,0,0,0,-1,1511,323,0,0
294,701,0,0,0,0,0,0,0,0,0,-1,1518,323,0,0
301,701,0,0,0,0,0,0,0,0,0,-1,1525,323,0,0
308,701,0,0,0,0,0,0,0,0,0,-1,1532,323,0,0
315,701,0,0,0,0,0,0,0,0,0,-1,1539,323,0,0
322,701,0,0,0,0,0,0,0,0,0,-1,1546,323,0,0
329,701,0,0,0,0,0,0,0,0,0,-1,1553,323,0,0
336,701,0,0,0,0,0,0,0,0,0,-1,1560,323,0,0
343,701,0,0,0,0,0,0,0,0,0,-1,1567,323,0,0
350,701,0,0,0,0,0,0,0,0,0,-1,1574,323,0,0
357,701,0,0,0,0,0,0,0,0,0,-1,1581,323,0,0
364,701,0,0,0,0,0,0,0,0,0,-1,1588,323,0,0
371,701,0,0,0,0,0,0,0,0,0,-1,1595,323,0,0
378,701,0,0,0,0,0,0,0,0,0,-1,1602,323,0,0
385,701,0,0,0,0,0,0,0,0,0,-1,1609,323,0,0
392,701,0,0,0,0,0,0,0,0,0,-1,1616,323,0,0
399,701,0,0,0,0,0,0,0,0,0,-1,1623,323,0,0
406,701,0,0,0,0,0,0,0,0,0,-1,1630,323,0,0
413,701,0,0,0,0,0,0,0,0,0,-1,1637,323,0,0
420,701,0,0,0,0,0,0,0,0,0,-1,1644,323,0,0
427,701,0,0,0,0,0,0,0,0,0,-1,1651,323,0,0
434,701,0,0,0,0,0,0,0,0,0,-1,1658,323,0,0
441,701,0,0,0,0,0,0,0,0,0,-1,1665,323,0,0
448,701,0,0,0,0,0,0,0,0,0,-1,1672,323,0,0
455,701,0,0,0,0,0,0,0,0,0,-1,1679,323,0,0
462,701,0,0,0,0,0,0,0,0,0,-1,1686,323,0,0
469,701,0,0,0,0,0,0,0,0,0,-1,1693,323,0,0
476,701,0,0,0,0,0,0,0,0,0,-1,1700,323,0,0
483,701,0,0,0,0,0,0,0,0,0,-1,1707,323,0,0
490,701,0,0,0,0,0,0,0,0,0,-1,1714,323,0,0
497,701,0,0,0,0,0,0,0,0,0,-1,1721,323,0,0
504,701,0,0,0,0,0,0,0,0,0,-1,1728,323,0,0
511,701,0,0,0,0,0,0,0,0,0,-1,1735,323,0,0
518,701,0,0,0,0,0,0,0,0,0,-1,1742,323,0,0
525,701,0,0,0,0,0,0,0,0,0,-1,1749,323,0,0
532,701,0,0,0,0,0,0,0,0,0,-1,1756,323,0,0
539,701,0,0,0,0,0,0,0,0,0,-1,1763,323,0,0
546,701,0,0,0,0,0,0,0,0,0,-1,1770,323,0,0
553,701,0,0,0,0,0,0,0,0,0,-1,1777,323,0,0
560,701,0,0,0,0,0,0,0,0,0,-1,1784,323,0,0
567,701,0,0,0,0,0,0,0,0,0,-1,1791,323,0,0
574,701,0,0,0,0,0,0,0,0,0,-1,1798,323,0,0
581,701,0,0,0,0,0,0,0,0,0,-1,1805,323,0,0
588,701,0,0,0,0,0,0,0,0,0,-1,1812,323,0,0
595,701,0,0,0,0,0,0,0,0,0,-1,1819,323,0,0
602,701,0,0,0,0,0,0,0,0,0,-1,1826,323,0,0
609,701,0,0,0,0,0,0,0,0,0,-1,1833,323,0,0
616,701,0,0,0,0,0,0,0,0,0,-1,1840,323,0,0
623,701,0,0,0,0,0,0,0,0,0,-1,1847,323,0,0
630,701,0,0,0,0,0,0,0,0,0,-1,1854,323,0,0
637,701,0,0,0,0,0,0,0,0,0,-1,1861,323,0,0
644,701,0,0,0,0,0,0,0,0,0,-1,1868,323,0,0
651,701,0,0,0,0,0,0,0,0,0,-1,1875,323,0,0
658,701,0,0,0,0,0,0,0,0,0,-1,1882,323,0,0
665,701,0,0,0,0,0,0,0,0,0,-1,1889,323,0,0
672,701,0,0,0,0,0,0,0,0,0,-1,1896,323,0,0
679,701,0,0,0,0,0,0,0,0,0,-1,1903,323,0,0
686,701,0,0,0,0,0,0,0,0,0,-1,1910,323,0,0
693,701,0,0,0,0,0,0,0,0,0,-1,1917,323,0,0
700,701,0,0,0,0,0,0,0,0,0,-1,1924,323,0,0
707,701,0,0,0,0,0,0,0,0,0,-1,1931,323,0,0
714,701,0,0,0,0,0,0,0,0,0,-1,1938,323,0,0
721,701,0,0,0,0,0,0,0,0,0,-1,1945,323,0,0
728,701,0,0,0,0,0,0,0,0,0,-1,1952,323,0,0
735,701,0,0,0,0,0,0,0,0,0,-1,1959,323,0,0
742,701,0,0,0,0,0,0,0,0,0,-1,1966,323,0,0
749,701,0,0,0,0,0,0,0,0,0,-1,1973,323,0,0
756,701,0,0,0,0,0,0,0,0,0,-1,1980,323,0,0
763,701,0,0,0,0,0,0,0,0,0,-1,1987,323,0,0
770,701,0,0,0,0,0,0,0,0,0,-1,1994,323,0,0
777,701,0,0,0,0,0,0,0,0,0,-1,2001,323,0,0
784,701,0,0,0,0,0,0,0,0,0,-1,2008,323,0,0
791,701,0,0,0,0,0,0,0,0,0,-1,2015,323,0,0
798,701,0,0,0,0,0,0,0,0,0,-1,2022,323,0,0
805,701,0,0,0,0,0,0,0,0,0,-1,2029,323,0,0
812,701,0,0,0,0,0,0,0,0,0,-1,2036,323,0,0
-700,694,0,0,0,0,0,0,0,0,0,-1,524,330,0,0
-693,694,0,0,0,0,0,0,0,0,0,-1,531,330,0,0
-686,694,0,0,0,0,0,0,0,0,0,-1,538,330,0,0
-679,694,0,0,0,0,0,0,0,0,0,-1,545,330,0,0
-672,694,0,0,0,0,0,0,0,0,0,-1,552,330,0,0
-665,694,0,0,0,0,0,0,0,0,0,-1,559,330,0,0
-658,694,0,0,0,0,0,0,0,0,0,-1,566,330,0,0
-651,694,0,0,0,0,0,0,0,0,0,-1,573,330,0,0
-644,694,0,0,0,0,0,0,0,0,0,-1,580,330,0,0
-637,694,0,0,0,0,0,0,0,0,0,-1,587,330,0,0
-630,694,0,0,0,0,0,0,0,0,0,-1,594,330,0,0
-623,694,0,0,0,0,0,0,0,0,0,-1,601,330,0,0
-616,694,0,0,0,0,0,0,0,0,0,-1,608,330,0,0
-609,694,0,0,0,0,0,0,0,0,0,-1,615,330,0,0
-602,694,0,0,0,0,0,0,0,0,0,-1,622,330,0,0
-595,694,0,0,0,0,0,0,0,0,0,-1,629,330,0,0
-588,694,0,0,0,0,0,0,0,0,0,-1,636,330,0,0
-581,694,0,0,0,0,0,0,0,0,0,-1,643,330,0,0
-574,694,0,0,0,0,0,0,0,0,0,-1,650,330,0,0
-567,694,0,0,0,0,0,0,0,0,0,-1,657,330,0,0
-560,694,0,0,0,0,0,0,0,0,0,-1,664,330,0,0
-553,694,0,0,0,0,0,0,0,0,0,-1,671,330,0,0
-546,694,0,0,0,0,0,0,0,0,0,-1,678,330,0,0
-539,694,0,0,0,0,0,0,0,0,0,-1,685,330,0,0
-532,694,0,0,0,0,0,0,0,0,0,-1,692,330,0,0
-525,694,0,0,0,0,0,0,0,0,0,-1,699,330,0,0
-518,694,0,0,0,0,0,0,0,0,0,-1,706,330,0,0
-511,694,0,0,0,0,0,0,0,0,0,-1,713,330,0,0
-504,694,0,0,0,0,0,0,0,0,0,-1,720,330,0,0
-497,694,0,0,0,0,0,0,0,0,0,-1,727,330,0,0
-490,694,0,0,0,0,0,0,0,0,0,-1,734,330,0,0
-483,694,0,0,0,0,0,0,0,0,0,-1,741,330,0,0
-476,694,0,0,0,0,0,0,0,0,0,-1,748,330,0,0
-469,694,0,0,0,0,0,0,0,0,0,-1,755,330,0,0
-462,694,0,0,0,0,0,0,0,0,0,-1,762,330,0,0
-455,694,0,0,0,0,0,0,0,0,0,-1,769,330,0,0
-448,694,0,0,0,0,0,0,0,0,0,-1,776,330,0,0
-441,694,0,0,0,0,0,0,0,0,0,-1,783,330,0,0
-434,694,0,0,0,0,0,0,0,0,0,-1,790,330,0,0
-427,694,0,0,0,0,0,0,0,0,0,-1,797,330,0,0
-420,694,0,0,0,0,0,0,0,0,0,-1,804,330,0,0
-413,694,0,0,0,0,0,0,0,0,0,-1,811,330,0,0
-406,694,0,0,0,0,0,0,0,0,0,-1,818,330,0,0
-399,694,0,0,0,0,0,0,0,0,0,-1,825,330,0,0
-392,694,0,0,0,0,0,0,0,0,0,-1,832,330,0,0
-385,694,0,0,0,0,0,0,0,0,0,-1,839,330,0,0
-378,694,0,0,0,0,0,0,0,0,0,-1,846,330,0,0
-371,694,0,0,0,0,0,0,0,0,0,-1,853,330,0,0
-364,694,0,0,0,0,0,0,0,0,0,-1,860,330,0,0
-357,694,0,0,0,0,0,0,0,0,0,-1,867,330,0,0
-350,694,0,0,0,0,0,0,0,0,0,-1,874,330,0,0
-343,694,0,0,0,0,0,0,0,0,0,-1,881,330,0,0
-336,694,0,0,0,0,0,0,0,0,0,-1,888,330,0,0
-329,694,0,0,0,0,0,0,0,0,0,-1,895,330,0,0
-322,694,0,0,0,0,0,0,0,0,0,-1,902,330,0,0
-315,694,0,0,0,0,0,0,0,0,0,-1,909,330,0,0
-308,694,0,0,0,0,0,0,0,0,0,-1,916,330,0,0
-301,694,0,0,0,0,0,0,0,0,0,-1,923,330,0,0
-294,694,0,0,0,0,0,0,0,0,0,-1,930,330,0,0
-287,694,0,0,0,0,0,0,0,0,0,-1,937,330,0,0
-280,694,0,0,0,0,0,0,0,0,0,-1,944,330,0,0
-273,694,0,0,0,0,0,0,0,0,0,-1,951,330,0,0
-266,694,0,0,0,0,0,0,0,0,0,-1,958,330,0,0
-259,694,0,0,0,0,0,0,0,0,0,-1,965,330,0,0
-252,694,0,0,0,0,0,0,0,0,0,-1,972,330,0,0
-245,694,0,0,0,0,0,0,0,0,0,-1,979,330,0,0
-238,694,0,0,0,0,0,0,0,0,0,-1,986,330,0,0
-231,694,0,0,0,0,0,0,0,0,0,-1,993,330,0,0
-224,694,0,0,0,0,0,0,0,0,0,-1,1000,330,0,0
-217,694,0,0,0,0,0,0,0,0,0,-1,1007,330,0,0
-210,694,0,0,0,0,0,0,0,0,0,-1,1014,330,0,0
-203,694,0,0,0,0,0,0,0,0,0,-1,1021,330,0,0
-196,694,0,0,0,0,0,0,0,0,0,-1,1028,330,0,0
-189,694,0,0,0,0,0,0,0,0,0,-1,1035,330,0,0
-182,694,0,0,0,0,0,0,0,0,0,-1,1042,330,0,0
-175,694,0,0,0,0,0,0,0,0,0,-1,1049,330,0,0
-168,694,0,0,0,0,0,0,0,0,0,-1,1056,330,0,0
-161,694,0,0,0,0,0,0,0,0,0,-1,1063,330,0,0
-154,694,0,0,0,0,0,0,0,0,0,-1,1070,330,0,0
-147,694,0,0,0,0,0,0,0,0,0,-1,1077,330,0,0
-140,694,0,0,0,0,0,0,0,0,0,-1,1084,330,0,0
-133,694,0,0,0,0,0,0,0,0,0,-1,1091,330,0,0
-126,694,0,0,0,0,0,0,0,0,0,-1,1098,330,0,0
-119,694,0,0,0,0,0,0,0,0,0,-1,1105,330,0,0
-112,694,0,0,0,0,0,0,0,0,0,-1,1112,330,0,0
-105,694,2.5188,-19.3963,0,0,0,0,0,0,0,-1,1119,330,2.51882,19.3963
-98,694,1.34875,-10.1051,0,0,0,0,0,0,0,-1,1126,330,1.34874,10.1051
-91,694,6.62366,-46.8039,0,0,0,0,0,0,0,-1,1133,330,6.62363,46.8039
-84,694,0.0577393,-40.8823,0,0,0,0,0,0,0,-1,1140,330,0.0577026,40.8823
-77,694,-5.51379,-31.2714,0,0,0,0,0,0,0,-1,1147,330,-5.51383,31.2714
-70,694,-11.9945,-25.5143,0,0,0,0,0,0,0,-1,1154,330,-11.9945,25.5143
-63,694,-18.4752,-19.7572,0,0,0,0,0,0,0,-1,1161,330,-18.4752,19.7572
-56,694,-6.50623,-0.649139,0,0,0,0,0,0,0,-1,1168,330,-6.5062,0.649126
-49,694,-1.11426,0.0341797,0,0,0,0,0,0,0,-1,1175,330,-1.11424,-0.0341846
-42,694,-0.346313,-0.709595,0,0,0,0,0,0,0,-1,1182,330,-0.346298,0.709581
-35,694,-0.459106,-1.24713,0,0,0,0,0,0,0,-1,1189,330,-0.459142,1.24714
-28,694,-6.48413,-3.95972,0,0,0,0,0,0,0,-1,1196,330,-6.48414,3.9597
-21,694,10.1261,-64.907,0,0,0,0,0,0,0,-1,1203,330,10.1261,64.907
-14,694,9.5332,-63.5716,0,0,0,0,0,0,0,-1,1210,330,9.53315,63.5716
-7,694,10.0334,-64.4647,0,0,0,0,0,0,0,-1,1217,330,10.0335,64.4647
0,694,11.6456,-64.6031,0,0,0,0,0,0,0,-1,1224,330,11.6456,64.6031
7,694,11.9817,-65.9452,0.0769404,0.217038,-0.0110835,0.217909,0.076069,-1.49233,0.127706,0.0426881,1231,330,11.9817,65.9452
14,694,12.342,-67.3249,0.0675823,0.204866,-0.0109555,0.205735,0.0667136,-1.49166,0.121202,0.0435777,1238,330,12.3421,67.3249
21,694,12.8463,-68.7658,0,0,0,0,0,0,0,-1,1245,330,12.8463,68.7658
28,694,12.782,-67.9424,0.0437696,0.175604,-0.00661113,0.175935,0.0434389,-1.52082,0.105825,0.0463369,1252,330,12.782,67.9424
35,694,13.8857,-69.4036,0.0283755,0.160092,-0.00333003,0.160176,0.0282914,-1.54554,0.0987146,0.0468416,1259,330,13.8858,69.4036
42,694,9.17249,-71.0587,0,0,0,0,0,0,0,-1,1266,330,9.17244,71.0587
49,694,8.57556,-70.638,0,0,0,0,0,0,0,-1,1273,330,8.57557,70.638
56,694,8.3324,-70.4034,-0.014768,0.115967,0.00212321,0.116001,-0.0148024,1.55456,0.0827109,0.0481707,1280,330,8.33237,70.4034
63,694,8.10767,-70.2131,-0.0261724,0.100648,0.0030474,0.100721,-0.0262456,1.54679,0.0773938,0.0433073,1287,330,8.10763,70.2131
70,694,7.93701,-69.9878,-0.0348273,0.0889183,0.00247606,0.0889678,-0.0348769,1.5508,0.07374,0.0417429,1294,330,7.93702,69.9878
77,694,7.17419,-68.5232,-0.0352742,0.0796544,0.000500219,0.0796566,-0.0352764,1.56644,0.0679856,0.0466126,1301,330,7.17415,68.5232
84,694,6.69299,-67.7031,-0.0330407,0.0682932,-0.0032258,0.0683958,-0.0331433,-1.53901,0.0597897,0.0463806,1308,330,6.69293,67.703
91,694,6.3092,-66.8587,-0.0267597,0.0579536,-0.00923146,0.0589479,-0.027754,-1.4635,0.0511259,0.0450264,1315,330,6.30919,66.8587
98,694,5.92505,-65.9748,-0.0149522,0.0499014,-0.0178804,0.0545045,-0.0195552,-1.31883,0.044317,0.0434307,1322,330,5.925,65.9748
105,694,5.49402,-65.2228,-0.0015457,0.0409178,-0.0265037,0.0536454,-0.0142732,-1.1231,0.0413508,0.0437659,1329,330,5.494,65.2228
112,694,5.05859,-64.446,0.0128424,0.0319981,-0.0356417,0.0593264,-0.0144859,-0.91666,0.0451608,0.0466852,1336,330,5.05861,64.446
119,694,4.68323,-63.6351,0,0,0,0,0,0,0,-1,1343,330,4.68322,63.6351
126,694,6.50354,-64.4406,0.0451828,0.0150791,-0.0571195,0.0892003,-0.0289384,-0.656569,0.0711038,0.0446721,1350,330,6.50356,64.4406
133,694,7.08594,-64.4332,0.0611471,0.00878463,-0.0686392,0.108429,-0.038497,-0.603199,0.0879722,0.0460618,1357,330,7.08598,64.4332
140,694,7.58215,-64.4616,0.0763101,0.00480063,-0.0801513,0.12832,-0.0472093,-0.575599,0.104886,0.0497703,1364,330,7.58217,64.4616
147,694,7.94055,-64.7211,0.086112,0.00268072,-0.0908258,0.144344,-0.0555512,-0.570121,0.119144,0.0490179,1371,330,7.94051,64.7211
154,694,8.43506,-65.1838,0,0,0,0,0,0,0,-1,1378,330,8.43501,65.1838
161,694,0.0187988,-38.6779,0,0,0,0,0,0,0,-1,1385,330,0.0187579,38.6779
168,694,30.451,0.196686,0,0,0,0,0,0,0,-1,1392,330,30.4511,-0.196674
175,694,31.0701,0.869873,0,0,0,0,0,0,0,-1,1399,330,31.07,-0.869874
182,694,8.29028,5.75238,0,0,0,0,0,0,0,-1,1406,330,8.29034,-5.75237
189,694,7.9801,4.46118,0,0,0,0,0,0,0,-1,1413,330,7.9801,-4.46118
196,694,7.39331,3.32632,0,0,0,0,0,0,0,-1,1420,330,7.39329,-3.32633
203,694,7.04492,2.20529,0,0,0,0,0,0,0,-1,1427,330,7.04496,-2.20529
210,694,6.44714,0.646912,0,0,0,0,0,0,0,-1,1434,330,6.44717,-0.646903
217,694,7.12061,-0.644958,0,0,0,0,0,0,0,-1,1441,330,7.12059,0.644961
224,694,6.74011,-1.70544,0,0,0,0,0,0,0,-1,1448,330,6.74013,1.70546
231,694,0,0,0,0,0,0,0,0,0,-1,1455,330,0,0
238,694,0,0,0,0,0,0,0,0,0,-1,1462,330,0,0
245,694,0,0,0,0,0,0,0,0,0,-1,1469,330,0,0
252,694,0,0,0,0,0,0,0,0,0,-1,1476,330,0,0
259,694,0,0,0,0,0,0,0,0,0,-1,1483,330,0,0
266,694,0,0,0,0,0,0,0,0,0,-1,1490,330,0,0
273,694,0,0,0,0,0,0,0,0,0,-1,1497,330,0,0
280,694,0,0,0,0,0,0,0,0,0,-1,1504,330,0,0
287,694,0,0,0,0,0,0,0,0,0,-1,1511,330,0,0
294,694,0,0,0,0,0,0,0,0,0,-1,1518,330,0,0
301,694,0,0,0,0,0,0,0,0,0,-1,1525,330,0,0
308,694,0,0,0,0,0,0,0,0,0,-1,1532,330,0,0
315,694,0,0,0,0,0,0,0,0,0,-1,1539,330,0,0
322,694,0,0,0,0,0,0,0,0,0,-1,1546,330,0,0
329,694,0,0,0,0,0,0,0,0,0,-1,1553,330,0,0
336,694,0,0,0,0,0,0,0,0,0,-1,1560,330,0,0
343,694,0,0,0,0,0,0,0,0,0,-1,1567,330,0,0
350,694,0,0,0,0,0,0,0,0,0,-1,1574,330,0,0
357,694,0,0,0,0,0,0,0,0,0,-1,1581,330,0,0
364,694,0,0,0,0,0,0,0,0,0,-1,1588,330,0,0
371,694,0,0,0,0,0,0,0,0,0,-1,1595,330,0,0
378,694,0,0,0,0,0,0,0,0,0,-1,1602,330,0,0
385,694,0,0,0,0,0,0,0,0,0,-1,1609,330,0,0
392,694,0,0,0,0,0,0,0,0,0,-1,1616,330,0,0
399,694,0,0,0,0,0,0,0,0,0,-1,1623,330,0,0
406,694,0,0,0,0,0,0,0,0,0,-1,1630,330,0,0
413,694,0,0,0,0,0,0,0,0,0,-1,1637,330,0,0
420,694,0,0,0,0,0,0,0,0,0,-1,1644,330,0,0
427,694,0,0,0,0,0,0,0,0,0,-1,1651,330,0,0
434,694,0,0,0,0,0,0,0,0,0,-1,1658,330,0,0
441,694,0,0,0,0,0,0,0,0,0,-1,1665,330,0,0
448,694,0,0,0,0,0,0,0,0,0,-1,1672,330,0,0
455,694,0,0,0,0,0,0,0,0,0,-1,1679,330,0,0
462,694,0,0,0,0,0,0,0,0,0,-1,1686,330,0,0
469,694,0,0,0,0,0,0,0,0,0,-1,1693,330,0,0
476,694,0,0,0,0,0,0,0,0,0,-1,1700,330,0,0
483,694,0,0,0,0,0,0,0,0,0,-1,1707,330,0,0
490,694,0,0,0,0,0,0,0,0,0,-1,1714,330,0,0
497,694,0,0,0,0,0,0,0,0,0,-1,1721,330,0,0
504,694,0,0,0,0,0,0,0,0,0,-1,1728,330,0,0
511,694,0,0,0,0,0,0,0,0,0,-1,1735,330,0,0
518,694,0,0,0,0,0,0,0,0,0,-1,1742,330,0,0
525,694,0,0,0,0,0,0,0,0,0,-1,1749,330,0,0
532,694,0,0,0,0,0,0,0,0,0,-1,1756,330,0,0
539,694,0,0,0,0,0,0,0,0,0,-1,1763,330,0,0
546,694,0,0,0,0,0,0,0,0,0,-1,1770,330,0,0
553,694,0,0,0,0,0,0,0,0,0,-1,1777,330,0,0
560,694,0,0,0,0,0,0,0,0,0,-1,1784,330,0,0
567,694,0,0,0,0,0,0,0,0,0,-1,1791,330,0,0
574,694,0,0,0,0,0,0,0,0,0,-1,1798,330,0,0
581,694,0,0,0,0,0,0,0,0,0,-1,1805,330,0,0
588,694,0,0,0,0,0,0,0,0,0,-1,1812,330,0,0
595,694,0,0,0,0,0,0,0,0,0,-1,1819,330,0,0
602,694,0,0,0,0,0,0,0,0,0,-1,1826,330,0,0
609,694,0,0,0,0,0,0,0,0,0,-1,1833,330,0,0
616,694,0,0,0,0,0,0,0,0,0,-1,1840,330,0,0
623,694,0,0,0,0,0,0,0,0,0,-1,1847,330,0,0
630,694,0,0,0,0,0,0,0,0,0,-1,1854,330,0,0
637,694,0,0,0,0,0,0,0,0,0,-1,1861,330,0,0
644,694,0,0,0,0,0,0,0,0,0,-1,1868,330,0,0
651,694,0,0,0,0,0,0,0,0,0,-1,1875,330,0,0
658,694,0,0,0,0,0,0,0,0,0,-1,1882,330,0,0
665,694,0,0,0,0,0,0,0,0,0,-1,1889,330,0,0
672,694,0,0,0,0,0,0,0,0,0,-1,1896,330,0,0
679,694,0,0,0,0,0,0,0,0,0,-1,1903,330,0,0
686,694,0,0,0,0,0,0,0,0,0,-1,1910,330,0,0
693,694,0,0,0,0,0,0,0,0,0,-1,1917,330,0,0
700,694,0,0,0,0,0,0,0,0,0,-1,1924,330,0,0
707,694,0,0,0,0,0,0,0,0,0,-1,1931,330,0,0
714,694,0,0,0,0,0,0,0,0,0,-1,1938,330,0,0
721,694,0,0,0,0,0,0,0,0,0,-1,1945,330,0,0
728,694,0,0,0,0,0,0,0,0,0,-1,1952,330,0,0
735,694,0,0,0,0,0,0,0,0,0,-1,1959,330,0,0
742,694,0,0,0,0,0,0,0,0,0,-1,1966,330,0,0
749,694,0,0,0,0,0,0,0,0,0,-1,1973,330,0,0
756,694,0,0,0,0,0,0,0,0,0,-1,1980,330,0,0
763,694,0,0,0,0,0,0,0,0,0,-1,1987,330,0,0
770,694,0,0,0,0,0,0,0,0,0,-1,1994,330,0,0
777,694,0,0,0,0,0,0,0,0,0,-1,2001,330,0,0
784,694,0,0,0,0,0,0,0,0,0,-1,2008,330,0,0
791,694,0,0,0,0,0,0,0,0,0,-1,2015,330,0,0
798,694,0,0,0,0,0,0,0,0,0,-1,2022,330,0,0
805,694,0,0,0,0,0,0,0,0,0,-1,2029,330,0,0
812,694,0,0,0,0,0,0,0,0,0,-1,2036,330,0,0
-700,687,0,0,0,0,0,0,0,0,0,-1,524,337,0,0
-693,687,0,0,0,0,0,0,0,0,0,-1,531,337,0,0
-686,687,0,0,0,0,0,0,0,0,0,-1,538,337,0,0
-679,687,0,0,0,0,0,0,0,0,0,-1,545,337,0,0
-672,687,0,0,0,0,0,0,0,0,0,-1,552,337,0,0
-665,687,0,0,0,0,0,0,0,0,0,-1,559,337,0,0
-658,687,0,0,0,0,0,0,0,0,0,-1,566,337,0,0
-651,687,0,0,0,0,0,0,0,0,0,-1,573,337,0,0
-644,687,0,0,0,0,0,0,0,0,0,-1,580,337,0,0
-637,687,0,0,0,0,0,0,0,0,0,-1,587,337,0,0
-630,687,0,0,0,0,0,0,0,0,0,-1,594,337,0,0
-623,687,0,0,0,0,0,0,0,0,0,-1,601,337,0,0
-616,687,0,0,0,0,0,0,0,0,0,-1,608,337,0,0
-609,687,0,0,0,0,0,0,0,0,0,-1,615,337,0,0
-602,687,0,0,0,0,0,0,0,0,0,-1,622,337,0,0
-595,687,0,0,0,0,0,0,0,0,0,-1,629,337,0,0
-588,687,0,0,0,0,0,0,0,0,0,-1,636,337,0,0
-581,687,0,0,0,0,0,0,0,0,0,-1,643,337,0,0
-574,687,0,0,0,0,0,0,0,0,0,-1,650,337,0,0
-567,687,0,0,0,0,0,0,0,0,0,-1,657,337,0,0
-560,687,0,0,0,0,0,0,0,0,0,-1,664,337,0,0
-553,687,0,0,0,0,0,0,0,0,0,-1,671,337,0,0
-546,687,0,0,0,0,0,0,0,0,0,-1,678,337,0,0
-539,687,0,0,0,0,0,0,0,0,0,-1,685,337,0,0
-532,687,0,0,0,0,0,0,0,0,0,-1,692,337,0,0
-525,687,0,0,0,0,0,0,0,0,0,-1,699,337,0,0
-518,687,0,0,0,0,0,0,0,0,0,-1,706,337,0,0
-511,687,0,0,0,0,0,0,0,0,0,-1,713,337,0,0
-504,687,0,0,0,0,0,0,0,0,0,-1,720,337,0,0
-497,687,0,0,0,0,0,0,0,0,0,-1,727,337,0,0
-490,687,0,0,0,0,0,0,0,0,0,-1,734,337,0,0
-483,687,0,0,0,0,0,0,0,0,0,-1,741,337,0,0
-476,687,0,0,0,0,0,0,0,0,0,-1,748,337,0,0
-469,687,0,0,0,0,0,0,0,0,0,-1,755,337,0,0
-462,687,0,0,0,0,0,0,0,0,0,-1,762,337,0,0
-455,687,0,0,0,0,0,0,0,0,0,-1,769,337,0,0
-448,687,0,0,0,0,0,0,0,0,0,-1,776,337,0,0
-441,687,0,0,0,0,0,0,0,0,0,-1,783,337,0,0
-434,687,0,0,0,0,0,0,0,0,0,-1,790,337,0,0
-427,687,0,0,0,0,0,0,0,0,0,-1,797,337,0,0
-420,687,0,0,0,0,0,0,0,0,0,-1,804,337,0,0
-413,687,0,0,0,0,0,0,0,0,0,-1,811,337,0,0
-406,687,0,0,0,0,0,0,0,0,0,-1,818,337,0,0
-399,687,0,0,0,0,0,0,0,0,0,-1,825,337,0,0
-392,687,0,0,0,0,0,0,0,0,0,-1,832,337,0,0
-385,687,0,0,0,0,0,0,0,0,0,-1,839,337,0,0
-378,687,0,0,0,0,0,0,0,0,0,-1,846,337,0,0
-371,687,0,0,0,0,0,0,0,0,0,-1,853,337,0,0
-364,687,0,0,0,0,0,0,0,0,0,-1,860,337,0,0
-357,687,0,0,0,0,0,0,0,0,0,-1,867,337,0,0
-350,687,0,0,0,0,0,0,0,0,0,-1,874,337,0,0
-343,687,0,0,0,0,0,0,0,0,0,-1,881,337,0,0
-336,687,0,0,0,0,0,0,0,0,0,-1,888,337,0,0
-329,687,0,0,0,0,0,0,0,0,0,-1,895,337,0,0
-322,687,0,0,0,0,0,0,0,0,0,-1,902,337,0,0
-315,687,0,0,0,0,0,0,0,0,0,-1,909,337,0,0
-308,687,0,0,0,0,0,0,0,0,0,-1,916,337,0,0
-301,687,0,0,0,0,0,0,0,0,0,-1,923,337,0,0
-294,687,0,0,0,0,0,0,0,0,0,-1,930,337,0,0
-287,687,0,0,0,0,0,0,0,0,0,-1,937,337,0,0
-280,687,0,0,0,0,0,0,0,0,0,-1,944,337,0,0
-273,687,0,0,0,0,0,0,0,0,0,-1,951,337,0,0
-266,687,0,0,0,0,0,0,0,0,0,-1,958,337,0,0
-259,687,0,0,0,0,0,0,0,0,0,-1,965,337,0,0
-252,687,0,0,0,0,0,0,0,0,0,-1,972,337,0,0
-245,687,0,0,0,0,0,0,0,0,0,-1,979,337,0,0
-238,687,0,0,0,0,0,0,0,0,0,-1,986,337,0,0
-231,687,0,0,0,0,0,0,0,0,0,-1,993,337,0,0
-224,687,0,0,0,0,0,0,0,0,0,-1,1000,337,0,0
-217,687,0,0,0,0,0,0,0,0,0,-1,1007,337,0,0
-210,687,0,0,0,0,0,0,0,0,0,-1,1014,337,0,0
-203,687,0,0,0,0,0,0,0,0,0,-1,1021,337,0,0
-196,687,0,0,0,0,0,0,0,0,0,-1,1028,337,0,0
-189,687,0,0,0,0,0,0,0,0,0,-1,1035,337,0,0
-182,687,0,0,0,0,0,0,0,0,0,-1,1042,337,0,0
-175,687,0,0,0,0,0,0,0,0,0,-1,1049,337,0,0
-168,687,0,0,0,0,0,0,0,0,0,-1,1056,337,0,0
-161,687,0,0,0,0,0,0,0,0,0,-1,1063,337,0,0
-154,687,0,0,0,0,0,0,0,0,0,-1,1070,337,0,0
-147,687,0,0,0,0,0,0,0,0,0,-1,1077,337,0,0
-140,687,0,0,0,0,0,0,0,0,0,-1,1084,337,0,0
-133,687,7.93958,-37.548,0,0,0,0,0,0,0,-1,1091,337,7.93957,37.548
-126,687,0.688477,-38.7298,0,0,0,0,0,0,0,-1,1098,337,0.688509,38.7298
-119,687,7.70825,-33.9236,0,0,0,0,0,0,0,-1,1105,337,7.70826,33.9236
-112,687,7.99866,-32.2983,0,0,0,0,0,0,0,-1,1112,337,7.99866,32.2983
-105,687,1.3208,-29.8313,0,0,0,0,0,0,0,-1,1119,337,1.3208,29.8313
-98,687,13.7111,-47.5645,0,0,0,0,0,0,0,-1,1126,337,13.711,47.5645
-91,687,7.22083,-41.1667,0,0,0,0,0,0,0,-1,1133,337,7.22079,41.1666
-84,687,0.745117,-35.0345,0,0,0,0,0,0,0,-1,1140,337,0.745155,35.0345
-77,687,-5.74353,-28.9553,0,0,0,0,0,0,0,-1,1147,337,-5.74357,28.9553
-70,687,-11.6842,-19.8473,0,0,0,0,0,0,0,-1,1154,337,-11.6842,19.8473
-63,687,-17.6757,-14.8966,0,0,0,0,0,0,0,-1,1161,337,-17.6756,14.8966
-56,687,-18.104,7.81931,0,0,0,0,0,0,0,-1,1168,337,-18.104,-7.81931
-49,687,-15.6449,-9.94391,0,0,0,0,0,0,0,-1,1175,337,-15.6449,9.94392
-42,687,-4.2019,-0.405609,0,0,0,0,0,0,0,-1,1182,337,-4.20192,0.405614
-35,687,-4.42273,-0.688171,0,0,0,0,0,0,0,-1,1189,337,-4.42276,0.688178
-28,687,-1.14038,-1.39072,0,0,0,0,0,0,0,-1,1196,337,-1.14035,1.3907
-21,687,8.05127,-64.0728,0,0,0,0,0,0,0,-1,1203,337,8.05124,64.0728
-14,687,8.6842,-64.7373,0,0,0,0,0,0,0,-1,1210,337,8.68419,64.7373
-7,687,9.20056,-65.4893,0,0,0,0,0,0,0,-1,1217,337,9.20061,65.4893
0,687,9.88367,-66.451,0,0,0,0,0,0,0,-1,1224,337,9.88366,66.451
7,687,10.3225,-67.2962,0.0565802,0.177264,-0.00936817,0.177987,0.0558573,-1.49379,0.105109,0.0486032,1231,337,10.3225,67.2962
14,687,10.6813,-68.0706,0.04971,0.168362,-0.00911585,0.169059,0.0490137,-1.49456,0.100437,0.0477058,1238,337,10.6813,68.0707
21,687,11.4224,-69.0623,0,0,0,0,0,0,0,-1,1245,337,11.4223,69.0624
28,687,12.24,-69.9722,0.0319082,0.147021,-0.00546369,0.147279,0.0316495,-1.52347,0.0895211,0.0466896,1252,337,12.24,69.9722
35,687,12.9314,-71.0014,0.0206886,0.135192,-0.0028345,0.135262,0.0206185,-1.54606,0.0841479,0.049015,1259,337,12.9314,71.0014
42,687,8.80774,-69.5683,0,0,0,0,0,0,0,-1,1266,337,8.8077,69.5683
49,687,8.6272,-67.4392,0,0,0,0,0,0,0,-1,1273,337,8.62725,67.4392
56,687,8.51428,-70.843,0,0,0,0,0,0,0,-1,1280,337,8.51426,70.8429
63,687,8.2688,-70.7392,-0.0218863,0.087581,0.00244831,0.0876357,-0.021941,1.54845,0.0669469,0.041364,1287,337,8.26884,70.7392
70,687,7.87488,-70.3055,-0.0283571,0.0779279,0.00192483,0.0779628,-0.0283919,1.55269,0.0635883,0.0396977,1294,337,7.87488,70.3055
77,687,7.3103,-69.351,-0.027874,0.0701366,0.000600308,0.0701403,-0.0278777,1.56467,0.0583178,0.04348,1301,337,7.31031,69.351
84,687,6.83374,-68.5736,0,0,0,0,0,0,0,-1,1308,337,6.83371,68.5736
91,687,7.17224,-67.1465,0,0,0,0,0,0,0,-1,1315,337,7.17221,67.1465
98,687,6.79199,-66.1515,-0.0102619,0.0448366,-0.0145811,0.0484574,-0.0138827,-1.3274,0.0377922,0.0435463,1322,337,6.79198,66.1515
105,687,6.34229,-65.4275,0.000580774,0.0375953,-0.0213989,0.0473799,-0.00920384,-1.14193,0.0350596,0.0470146,1329,337,6.34231,65.4275
112,687,5.95532,-64.6951,0.0120879,0.0306253,-0.0286035,0.0514243,-0.00871114,-0.94208,0.0375251,0.0494048,1336,337,5.95537,64.6951
119,687,5.57739,-63.9278,0.0246791,0.0235519,-0.0366284,0.0607482,-0.0125172,-0.777705,0.045252,0.0463186,1343,337,5.57741,63.9278
126,687,7.81079,-64.488,0.0373997,0.0175338,-0.0452777,0.0738211,-0.0188877,-0.67742,0.056571,0.045307,1350,337,7.81075,64.488
133,687,8.31958,-64.1698,0.0493043,0.012523,-0.05395,0.0879121,-0.0260847,-0.621133,0.0689673,0.0461992,1357,337,8.31954,64.1698
140,687,8.55261,-64.1744,0.0602274,0.00962655,-0.0623127,0.10218,-0.0323261,-0.592554,0.0810729,0.0493318,1364,337,8.55261,64.1744
147,687,9.17932,-65.0502,0.0678334,0.0080817,-0.0697669,0.113852,-0.037937,-0.583099,0.0912158,0.0479265,1371,337,9.17937,65.0502
154,687,9.74573,-65.5932,0,0,0,0,0,0,0,-1,1378,337,9.74573,65.5932
161,687,29.3895,-1.90628,0,0,0,0,0,0,0,-1,1385,337,29.3895,1.90628
168,687,29.8564,-1.19434,0,0,0,0,0,0,0,-1,1392,337,29.8564,1.19434
175,687,30.3419,-0.453583,0,0,0,0,0,0,0,-1,1399,337,30.3419,0.45357
182,687,6.67249,0.289917,0,0,0,0,0,0,0,-1,1406,337,6.67247,-0.289916
189,687,7.76062,4.53635,0,0,0,0,0,0,0,-1,1413,337,7.76064,-4.53636
196,687,6.99048,3.2966,0,0,0,0,0,0,0,-1,1420,337,6.99046,-3.2966
203,687,6.36499,2.1445,0,0,0,0,0,0,0,-1,1427,337,6.36499,-2.14451
210,687,6.68066,0.674652,0,0,0,0,0,0,0,-1,1434,337,6.68062,-0.674655
217,687,5.99683,-0.630493,0,0,0,0,0,0,0,-1,1441,337,5.99684,0.630497
224,687,5.52917,0.524902,0,0,0,0,0,0,0,-1,1448,337,5.5292,-0.524915
231,687,5.85583,-1.73651,0,0,0,0,0,0,0,-1,1455,337,5.85577,1.73651
238,687,5.96582,-2.96774,0,0,0,0,0,0,0,-1,1462,337,5.96577,2.96773
245,687,1.28259,2.32211,0,0,0,0,0,0,0,-1,1469,337,1.28258,-2.32211
252,687,1.97278,3.88422,0,0,0,0,0,0,0,-1,1476,337,1.97281,-3.88421
259,687,0,0,0,0,0,0,0,0,0,-1,1483,337,0,0
266,687,0,0,0,0,0,0,0,0,0,-1,1490,337,0,0
273,687,0,0,0,0,0,0,0,0,0,-1,1497,337,0,0
280,687,0,0,0,0,0,0,0,0,0,-1,1504,337,0,0
287,687,0,0,0,0,0,0,0,0,0,-1,1511,337,0,0
294,687,0,0,0,0,0,0,0,0,0,-1,1518,337,0,0
301,687,0,0,0,0,0,0,0,0,0,-1,1525,337,0,0
308,687,0,0,0,0,0,0,0,0,0,-1,1532,337,0,0
315,687,0,0,0,0,0,0,0,0,0,-1,1539,337,0,0
322,687,0,0,0,0,0,0,0,0,0,-1,1546,337,0,0
329,687,0,0,0,0,0,0,0,0,0,-1,1553,337,0,0
336,687,0,0,0,0,0,0,0,0,0,-1,1560,337,0,0
343,687,0,0,0,0,0,0,0,0,0,-1,1567,337,0,0
350,687,0,0,0,0,0,0,0,0,0,-1,1574,337,0,0
357,687,0,0,0,0,0,0,0,0,0,-1,1581,337,0,0
364,687,0,0,0,0,0,0,0,0,0,-1,1588,337,0,0
371,687,0,0,0,0,0,0,0,0,0,-1,1595,337,0,0
378,687,0,0,0,0,0,0,0,0,0,-1,1602,337,0,0
385,687,0,0,0,0,0,0,0,0,0,-1,1609,337,0,0
392,687,0,0,0,0,0,0,0,0,0,-1,1616,337,0,0
399,687,0,0,0,0,0,0,0,0,0,-1,1623,337,0,0
406,687,0,0,0,0,0,0,0,0,0,-1,1630,337,0,0
413,687,0,0,0,0,0,0,0,0,0,-1,1637,337,0,0
420,687,0,0,0,0,0,0,0,0,0,-1,1644,337,0,0
427,687,0,0,0,0,0,0,0,0,0,-1,1651,337,0,0
434,687,0,0,0,0,0,0,0,0,0,-1,1658,337,0,0
441,687,0,0,0,0,0,0,0,0,0,-1,1665,337,0,0
448,687,0,0,0,0,0,0,0,0,0,-1,1672,337,0,0
455,687,0,0,0,0,0,0,0,0,0,-1,1679,337,0,0
462,687,0,0,0,0,0,0,0,0,0,-1,1686,337,0,0
469,687,0,0,0,0,0,0,0,0,0,-1,1693,337,0,0
476,687,0,0,0,0,0,0,0,0,0,-1,1700,337,0,0
483,687,0,0,0,0,0,0,0,0,0,-1,1707,337,0,0
490,687,0,0,0,0,0,0,0,0,0,-1,1714,337,0,0
497,687,0,0,0,0,0,0,0,0,0,-1,1721,337,0,0
504,687,0,0,0,0,0,0,0,0,0,-1,1728,337,0,0
511,687,0,0,0,0,0,0,0,0,0,-1,1735,337,0,0
518,687,0,0,0,0,0,0,0,0,0,-1,1742,337,0,0
525,687,0,0,0,0,0,0,0,0,0,-1,1749,337,0,0
532,687,0,0,0,0,0,0,0,0,0,-1,1756,337,0,0
539,687,0,0,0,0,0,0,0,0,0,-1,1763,337,0,0
546,687,0,0,0,0,0,0,0,0,0,-1,1770,337,0,0
553,687,0,0,0,0,0,0,0,0,0,-1,1777,337,0,0
560,687,0,0,0,0,0,0,0,0,0,-1,1784,337,0,0
567,687,0,0,0,0,0,0,0,0,0,-1,1791,337,0,0
574,687,0,0,0,0,0,0,0,0,0,-1,1798,337,0,0
581,687,0,0,0,0,0,0,0,0,0,-1,1805,337,0,0
588,687,0,0,0,0,0,0,0,0,0,-1,1812,337,0,0
595,687,0,0,0,0,0,0,0,0,0,-1,1819,337,0,0
602,687,0,0,0,0,0,0,0,0,0,-1,1826,337,0,0
609,687,0,0,0,0,0,0,0,0,0,-1,1833,337,0,0
616,687,0,0,0,0,0,0,0,0,0,-1,1840,337,0,0
623,687,0,0,0,0,0,0,0,0,0,-1,1847,337,0,0
630,687,0,0,0,0,0,0,0,0,0,-1,1854,337,0,0
637,687,0,0,0,0,0,0,0,0,0,-1,1861,337,0,0
644,687,0,0,0,0,0,0,0,0,0,-1,1868,337,0,0
651,687,0,0,0,0,0,0,0,0,0,-1,1875,337,0,0
658,687,0,0,0,0,0,0,0,0,0,-1,1882,337,0,0
665,687,0,0,0,0,0,0,0,0,0,-1,1889,337,0,0
672,687,0,0,0,0,0,0,0,0,0,-1,1896,337,0,0
679,687,0,0,0,0,0,0,0,0,0,-1,1903,337,0,0
686,687,0,0,0,0,0,0,0,0,0,-1,1910,337,0,0
693,687,0,0,0,0,0,0,0,0,0,-1,1917,337,0,0
700,687,0,0,0,0,0,0,0,0,0,-1,1924,337,0,0
707,687,0,0,0,0,0,0,0,0,0,-1,1931,337,0,0
714,687,0,0,0,0,0,0,0,0,0,-1,1938,337,0,0
721,687,0,0,0,0,0,0,0,0,0,-1,1945,337,0,0
728,687,0,0,0,0,0,0,0,0,0,-1,1952,337,0,0
735,687,0,0,0,0,0,0,0,0,0,-1,1959,337,0,0
742,687,0,0,0,0,0,0,0,0,0,-1,1966,337,0,0
749,687,0,0,0,0,0,0,0,0,0,-1,1973,337,0,0
756,687,0,0,0,0,0,0,0,0,0,-1,1980,337,0,0
763,687,0,0,0,0,0,0,0,0,0,-1,1987,337,0,0
770,687,0,0,0,0,0,0,0,0,0,-1,1994,337,0,0
777,687,0,0,0,0,0,0,0,0,0,-1,2001,337,0,0
784,687,0,0,0,0,0,0,0,0,0,-1,2008,337,0,0
791,687,0,0,0,0,0,0,0,0,0,-1,2015,337,0,0
798,687,0,0,0,0,0,0,0,0,0,-1,2022,337,0,0
805,687,0,0,0,0,0,0,0,0,0,-1,2029,337,0,0
812,687,0,0,0,0,0,0,0,0,0,-1,2036,337,0,0
-700,680,0,0,0,0,0,0,0,0,0,-1,524,344,0,0
-693,680,0,0,0,0,0,0,0,0,0,-1,531,344,0,0
-686,680,0,0,0,0,0,0,0,0,0,-1,538,344,0,0
-679,680,0,0,0,0,0,0,0,0,0,-1,545,344,0,0
-672,680,0,0,0,0,0,0,0,0,0,-1,552,344,0,0
-665,680,0,0,0,0,0,0,0,0,0,-1,559,344,0,0
-658,680,0,0,0,0,0,0,0,0,0,-1,566,344,0,0
-651,680,0,0,0,0,0,0,0,0,0,-1,573,344,0,0
-644,680,0,0,0,0,0,0,0,0,0,-1,580,344,0,0
-637,680,0,0,0,0,0,0,0,0,0,-1,587,344,0,0
-630,680,0,0,0,0,0,0,0,0,0,-1,594,344,0,0
-623,680,0,0,0,0,0,0,0,0,0,-1,601,344,0,0
-616,680,0,0,0,0,0,0,0,0,0,-1,608,344,0,0
-609,680,0,0,0,0,0,0,0,0,0,-1,615,344,0,0
-602,680,0,0,0,0,0,0,0,0,0,-1,622,344,0,0
-595,680,0,0,0,0,0,0,0,0,0,-1,629,344,0,0
-588,680,0,0,0,0,0,0,0,0,0,-1,636,344,0,0
-581,680,0,0,0,0,0,0,0,0,0,-1,643,344,0,0
-574,680,0,0,0,0,0,0,0,0,0,-1,650,344,0,0
-567,680,0,0,0,0,0,0,0,0,0,-1,657,344,0,0
-560,680,0,0,0,0,0,0,0,0,0,-1,664,344,0,0
-553,680,0,0,0,0,0,0,0,0,0,-1,671,344,0,0
-546,680,0,0,0,0,0,0,0,0,0,-1,678,344,0,0
-539,680,0,0,0,0,0,0,0,0,0,-1,685,344,0,0
-532,680,0,0,0,0,0,0,0,0,0,-1,692,344,0,0
-525,680,0,0,0,0,0,0,0,0,0,-1,699,344,0,0
-518,680,0,0,0,0,0,0,0,0,0,-1,706,344,0,0
-511,680,0,0,0,0,0,0,0,0,0,-1,713,344,0,0
-504,680,0,0,0,0,0,0,0,0,0,-1,720,344,0,0
-497,680,0,0,0,0,0,0,0,0,0,-1,727,344,0,0
-490,680,0,0,0,0,0,0,0,0,0,-1,734,344,0,0
-483,680,0,0,0,0,0,0,0,0,0,-1,741,344,0,0
-476,680,0,0,0,0,0,0,0,0,0,-1,748,344,0,0
-469,680,0,0,0,0,0,0,0,0,0,-1,755,344,0,0
-462,680,0,0,0,0,0,0,0,0,0,-1,762,344,0,0
-455,680,0,0,0,0,0,0,0,0,0,-1,769,344,0,0
-448,680,0,0,0,0,0,0,0,0,0,-1,776,344,0,0
-441,680,0,0,0,0,0,0,0,0,0,-1,783,344,0,0
-434,680,0,0,0,0,0,0,0,0,0,-1,790,344,0,0
-427,680,0,0,0,0,0,0,0,0,0,-1,797,344,0,0
-420,680,0,0,0,0,0,0,0,0,0,-1,804,344,0,0
-413,680,0,0,0,0,0,0,0,0,0,-1,811,344,0,0
-406,680,0,0,0,0,0,0,0,0,0,-1,818,344,0,0
-399,680,0,0,0,0,0,0,0,0,0,-1,825,344,0,0
-392,680,0,0,0,0,0,0,0,0,0,-1,832,344,0,0
-385,680,0,0,0,0,0,0,0,0,0,-1,839,344,0,0
-378,680,0,0,0,0,0,0,0,0,0,-1,846,344,0,0
-371,680,0,0,0,0,0,0,0,0,0,-1,853,344,0,0
-364,680,0,0,0,0,0,0,0,0,0,-1,860,344,0,0
-357,680,0,0,0,0,0,0,0,0,0,-1,867,344,0,0
-350,680,0,0,0,0,0,0,0,0,0,-1,874,344,0,0
-343,680,0,0,0,0,0,0,0,0,0,-1,881,344,0,0
-336,680,0,0,0,0,0,0,0,0,0,-1,888,344,0,0
-329,680,0,0,0,0,0,0,0,0,0,-1,895,344,0,0
-322,680,0,0,0,0,0,0,0,0,0,-1,902,344,0,0
-315,680,0,0,0,0,0,0,0,0,0,-1,909,344,0,0
-308,680,0,0,0,0,0,0,0,0,0,-1,916,344,0,0
-301,680,0,0,0,0,0,0,0,0,0,-1,923,344,0,0
-294,680,0,0,0,0,0,0,0,0,0,-1,930,344,0,0
-287,680,0,0,0,0,0,0,0,0,0,-1,937,344,0,0
-280,680,0,0,0,0,0,0,0,0,0,-1,944,344,0,0
-273,680,0,0,0,0,0,0,0,0,0,-1,951,344,0,0
-266,680,0,0,0,0,0,0,0,0,0,-1,958,344,0,0
-259,680,0,0,0,0,0,0,0,0,0,-1,965,344,0,0
-252,680,0,0,0,0,0,0,0,0,0,-1,972,344,0,0
-245,680,0,0,0,0,0,0,0,0,0,-1,979,344,0,0
-238,680,0,0,0,0,0,0,0,0,0,-1,986,344,0,0
-231,680,0,0,0,0,0,0,0,0,0,-1,993,344,0,0
-224,680,0,0,0,0,0,0,0,0,0,-1,1000,344,0,0
-217,680,0,0,0,0,0,0,0,0,0,-1,1007,344,0,0
-210,680,0,0,0,0,0,0,0,0,0,-1,1014,344,0,0
-203,680,0,0,0,0,0,0,0,0,0,-1,1021,344,0,0
-196,680,0,0,0,0,0,0,0,0,0,-1,1028,344,0,0
-189,680,0,0,0,0,0,0,0,0,0,-1,1035,344,0,0
-182,680,0,0,0,0,0,0,0,0,0,-1,1042,344,0,0
-175,680,0,0,0,0,0,0,0,0,0,-1,1049,344,0,0
-168,680,0,0,0,0,0,0,0,0,0,-1,1056,344,0,0
-161,680,0,0,0,0,0,0,0,0,0,-1,1063,344,0,0
-154,680,2.25244,-29.1442,0,0,0,0,0,0,0,-1,1070,344,2.25241,29.1442
-147,680,9.29614,-33.0369,0,0,0,0,0,0,0,-1,1077,344,9.29612,33.0369
-140,680,6.98022,-36.6899,0,0,0,0,0,0,0,-1,1084,344,6.98023,36.6899
-133,680,1.85693,-39.7233,0,0,0,0,0,0,0,-1,1091,344,1.85699,39.7233
-126,680,2.30017,-38.3751,0,0,0,0,0,0,0,-1,1098,344,2.30011,38.3751
-119,680,2.74329,-37.0269,0,0,0,0,0,0,0,-1,1105,344,2.74323,37.0269
-112,680,7.7467,-32.4407,0,0,0,0,0,0,0,-1,1112,344,7.74668,32.4407
-105,680,20.6371,-48.461,0,0,0,0,0,0,0,-1,1119,344,20.6371,48.461
-98,680,14.2684,-41.9997,0,0,0,0,0,0,0,-1,1126,344,14.2685,41.9997
-91,680,7.89648,-35.5147,0,0,0,0,0,0,0,-1,1133,344,7.8965,35.5147
-84,680,1.47168,-29.471,0,0,0,0,0,0,0,-1,1140,344,1.47163,29.471
-77,680,-4.95337,-23.3355,0,0,0,0,0,0,0,-1,1147,344,-4.9534,23.3356
-70,680,-11.5099,-17.4337,0,0,0,0,0,0,0,-1,1154,344,-11.5098,17.4338
-63,680,-17.2391,-1.43134,0,0,0,0,0,0,0,-1,1161,344,-17.2392,1.43133
-56,680,-6.96912,-8.83356,0,0,0,0,0,0,0,-1,1168,344,-6.96907,8.83354
-49,680,-6.7677,-2.24063,0,0,0,0,0,0,0,-1,1175,344,-6.76772,2.24063
-42,680,-1.02368,0.618805,0,0,0,0,0,0,0,-1,1182,344,-1.0237,-0.618797
-35,680,-0.947876,-0.942719,0,0,0,0,0,0,0,-1,1189,344,-0.947842,0.942731
-28,680,-1.46118,-1.10574,0,0,0,0,0,0,0,-1,1196,344,-1.4612,1.10575
-21,680,9.21594,-69.2667,0,0,0,0,0,0,0,-1,1203,344,9.21599,69.2667
-14,680,9.7843,-68.8747,0,0,0,0,0,0,0,-1,1210,344,9.7843,68.8747
-7,680,8.35266,-66.5456,0,0,0,0,0,0,0,-1,1217,344,8.35263,66.5456
0,680,9.08008,-67.5364,0,0,0,0,0,0,0,-1,1224,344,9.08004,67.5364
7,680,9.87964,-69.1039,0,0,0,0,0,0,0,-1,1231,344,9.87958,69.1039
14,680,9.7959,-69.3481,0,0,0,0,0,0,0,-1,1238,344,9.79593,69.348
21,680,9.61035,-70.1266,0,0,0,0,0,0,0,-1,1245,344,9.6103,70.1266
28,680,9.57312,-70.3773,0,0,0,0,0,0,0,-1,1252,344,9.57317,70.3774
35,680,8.96521,-70.1885,0,0,0,0,0,0,0,-1,1259,344,8.96519,70.1885
42,680,8.82031,-70.3269,0,0,0,0,0,0,0,-1,1266,344,8.82028,70.3269
49,680,8.67542,-70.4652,0,0,0,0,0,0,0,-1,1273,344,8.67536,70.4652
56,680,8.55298,-71.0247,-0.0111361,0.084319,0.00129444,0.0843365,-0.0111536,1.55724,0.0602871,0.0433233,1280,344,8.55294,71.0247
63,680,8.43884,-70.8989,-0.018129,0.0744762,0.00187673,0.0745142,-0.018167,1.55054,0.0567102,0.0380866,1287,344,8.43879,70.8989
70,680,8.08765,-70.7241,-0.0228338,0.0668269,0.00144353,0.0668501,-0.022857,1.5547,0.0538284,0.037124,1294,344,8.0876,70.7241
77,680,7.60742,-70.6569,-0.0218549,0.0605076,0.000632179,0.0605124,-0.0218597,1.56312,0.049272,0.0442625,1301,344,7.60738,70.6569
84,680,8.69214,-70.755,-0.0194864,0.0524693,-0.00187026,0.0525179,-0.019535,-1.54483,0.0430281,0.0487567,1308,344,8.69219,70.755
91,680,8.52441,-66.9413,0,0,0,0,0,0,0,-1,1315,344,8.52445,66.9413
98,680,7.89807,-66.4348,-0.00714667,0.0396374,-0.0115724,0.0423434,-0.0098527,-1.34109,0.0320225,0.0430712,1322,344,7.89811,66.4348
105,680,7.44092,-66.014,0.00137885,0.0339318,-0.0168142,0.041057,-0.00574639,-1.16997,0.0294741,0.0457846,1329,344,7.44086,66.014
112,680,6.86548,-64.9861,0,0,0,0,0,0,0,-1,1336,344,6.86546,64.9861
119,680,6.49902,-64.3087,0.0201515,0.0230906,-0.0285217,0.0501807,-0.00693849,-0.811137,0.0359902,0.0424989,1343,344,6.49901,64.3088
126,680,6.24597,-63.7039,0.0298329,0.0185346,-0.0350525,0.0596885,-0.0113211,-0.705503,0.0440536,0.0426894,1350,344,6.24597,63.7039
133,680,9.72327,-63.5702,0.0385975,0.0145438,-0.0414665,0.069746,-0.0166048,-0.644252,0.052908,0.0428568,1357,344,9.7233,63.5702
140,680,9.5376,-63.4583,0.0463108,0.0124337,-0.047431,0.0797371,-0.0209926,-0.613897,0.0613644,0.0472607,1364,344,9.53754,63.4583
147,680,10.1725,-65.1619,0.0519811,0.0114279,-0.0524821,0.0879674,-0.0245584,-0.601055,0.0683186,0.0465166,1371,344,10.1725,65.1619
154,680,6.04077,-67.5813,0,0,0,0,0,0,0,-1,1378,344,6.04081,67.5813
161,680,5.30676,-60.3476,0,0,0,0,0,0,0,-1,1385,344,5.30681,60.3476
168,680,29.4142,-2.51651,0,0,0,0,0,0,0,-1,1392,344,29.4142,2.51652
175,680,6.66541,0.942078,0,0,0,0,0,0,0,-1,1399,344,6.66538,-0.942088
182,680,6.52917,0.532379,0,0,0,0,0,0,0,-1,1406,344,6.52922,-0.532385
189,680,7.55884,4.77695,0,0,0,0,0,0,0,-1,1413,344,7.55886,-4.77694
196,680,6.55627,3.35254,0,0,0,0,0,0,0,-1,1420,344,6.55622,-3.35255
203,680,5.7334,1.90753,0,0,0,0,0,0,0,-1,1427,344,5.73341,-1.90754
210,680,5.27515,0.493622,0,0,0,0,0,0,0,-1,1434,344,5.27514,-0.493632
217,680,6.56384,-0.374176,0,0,0,0,0,0,0,-1,1441,344,6.56379,0.374176
224,680,3.9491,-0.640228,0,0,0,0,0,0,0,-1,1448,344,3.94908,0.64024
231,680,4.24866,-1.96881,0,0,0,0,0,0,0,-1,1455,344,4.2486,1.96882
238,680,4.29333,-3.23984,0,0,0,0,0,0,0,-1,1462,344,4.29332,3.23984
245,680,2.44397,0.985382,0,0,0,0,0,0,0,-1,1469,344,2.44402,-0.985394
252,680,3.07349,2.18951,0,0,0,0,0,0,0,-1,1476,344,3.0735,-2.18952
259,680,2.82971,1.30682,0,0,0,0,0,0,0,-1,1483,344,2.82972,-1.30684
266,680,2.67554,1.44067,0,0,0,0,0,0,0,-1,1490,344,2.67551,-1.44066
273,680,2.46411,1.54666,0,0,0,0,0,0,0,-1,1497,344,2.46407,-1.54666
280,680,0,0,0,0,0,0,0,0,0,-1,1504,344,0,0
287,680,0,0,0,0,0,0,0,0,0,-1,1511,344,0,0
294,680,0,0,0,0,0,0,0,0,0,-1,1518,344,0,0
301,680,0,0,0,0,0,0,0,0,0,-1,1525,344,0,0
308,680,0,0,0,0,0,0,0,0,0,-1,1532,344,0,0
315,680,0,0,0,0,0,0,0,0,0,-1,1539,344,0,0
322,680,0,0,0,0,0,0,0,0,0,-1,1546,344,0,0
329,680,0,0,0,0,0,0,0,0,0,-1,1553,344,0,0
336,680,0,0,0,0,0,0,0,0,0,-1,1560,344,0,0
343,680,0,0,0,0,0,0,0,0,0,-1,1567,344,0,0
350,680,0,0,0,0,0,0,0,0,0,-1,1574,344,0,0
357,680,0,0,0,0,0,0,0,0,0,-1,1581,344,0,0
364,680,0,0,0,0,0,0,0,0,0,-1,1588,344,0,0
371,680,0,0,0,0,0,0,0,0,0,-1,1595,344,0,0
378,680,0,0,0,0,0,0,0,0,0,-1,1602,344,0,0
385,680,0,0,0,0,0,0,0,0,0,-1,1609,344,0,0
392,680,0,0,0,0,0,0,0,0,0,-1,1616,344,0,0
399,680,0,0,0,0,0,0,0,0,0,-1,1623,344,0,0
406,680,0,0,0,0,0,0,0,0,0,-1,1630,344,0,0
413,680,0,0,0,0,0,0,0,0,0,-1,1637,344,0,0
420,680,0,0,0,0,0,0,0,0,0,-1,1644,344,0,0
427,680,0,0,0,0,0,0,0,0,0,-1,1651,344,0,0
434,680,0,0,0,0,0,0,0,0,0,-1,1658,344,0,0
441,680,0,0,0,0,0,0,0,0,0,-1,1665,344,0,0
448,680,0,0,0,0,0,0,0,0,0,-1,1672,344,0,0
455,680,0,0,0,0,0,0,0,0,0,-1,1679,344,0,0
462,680,0,0,0,0,0,0,0,0,0,-1,1686,344,0,0
469,680,0,0,0,0,0,0,0,0,0,-1,1693,344,0,0
476,680,0,0,0,0,0,0,0,0,0,-1,1700,344,0,0
483,680,0,0,0,0,0,0,0,0,0,-1,1707,344,0,0
490,680,0,0,0,0,0,0,0,0,0,-1,1714,344,0,0
497,680,0,0,0,0,0,0,0,0,0,-1,1721,344,0,0
504,680,0,0,0,0,0,0,0,0,0,-1,1728,344,0,0
511,680,0,0,0,0,0,0,0,0,0,-1,1735,344,0,0
518,680,0,0,0,0,0,0,0,0,0,-1,1742,344,0,0
525,680,0,0,0,0,0,0,0,0,0,-1,1749,344,0,0
532,680,0,0,0,0,0,0,0,0,0,-1,1756,344,0,0
539,680,0,0,0,0,0,0,0,0,0,-1,1763,344,0,0
546,680,0,0,0,0,0,0,0,0,0,-1,1770,344,0,0
553,680,0,0,0,0,0,0,0,0,0,-1,1777,344,0,0
560,680,0,0,0,0,0,0,0,0,0,-1,1784,344,0,0
567,680,0,0,0,0,0,0,0,0,0,-1,1791,344,0,0
574,680,0,0,0,0,0,0,0,0,0,-1,1798,344,0,0
581,680,0,0,0,0,0,0,0,0,0,-1,1805,344,0,0
588,680,0,0,0,0,0,0,0,0,0,-1,1812,344,0,0
595,680,0,0,0,0,0,0,0,0,0,-1,1819,344,0,0
602,680,0,0,0,0,0,0,0,0,0,-1,1826,344,0,0
609,680,0,0,0,0,0,0,0,0,0,-1,1833,344,0,0
616,680,0,0,0,0,0,0,0,0,0,-1,1840,344,0,0
623,680,0,0,0,0,0,0,0,0,0,-1,1847,344,0,0
630,680,0,0,0,0,0,0,0,0,0,-1,1854,344,0,0
637,680,0,0,0,0,0,0,0,0,0,-1,1861,344,0,0
644,680,0,0,0,0,0,0,0,0,0,-1,1868,344,0,0
651,680,0,0,0,0,0,0,0,0,0,-1,1875,344,0,0
658,680,0,0,0,0,0,0,0,0,0,-1,1882,344,0,0
665,680,0,0,0,0,0,0,0,0,0,-1,1889,344,0,0
672,680,0,0,0,0,0,0,0,0,0,-1,1896,344,0,0
679,680,0,0,0,0,0,0,0,0,0,-1,1903,344,0,0
686,680,0,0,0,0,0,0,0,0,0,-1,1910,344,0,0
693,680,0,0,0,0,0,0,0,0,0,-1,1917,344,0,0
700,680,0,0,0,0,0,0,0,0,0,-1,1924,344,0,0
707,680,0,0,0,0,0,0,0,0,0,-1,1931,344,0,0
714,680,0,0,0,0,0,0,0,0,0,-1,1938,344,0,0
721,680,0,0,0,0,0,0,0,0,0,-1,1945,344,0,0
728,680,0,0,0,0,0,0,0,0,0,-1,1952,344,0,0
735,680,0,0,0,0,0,0,0,0,0,-1,1959,344,0,0
742,680,0,0,0,0,0,0,0,0,0,-1,1966,344,0,0
749,680,0,0,0,0,0,0,0,0,0,-1,1973,344,0,0
756,680,0,0,0,0,0,0,0,0,0,-1,1980,344,0,0
763,680,0,0,0,0,0,0,0,0,0,-1,1987,344,0,0
770,680,0,0,0,0,0,0,0,0,0,-1,1994,344,0,0
777,680,0,0,0,0,0,0,0,0,0,-1,2001,344,0,0
784,680,0,0,0,0,0,0,0,0,0,-1,2008,344,0,0
791,680,0,0,0,0,0,0,0,0,0,-1,2015,344,0,0
798,680,0,0,0,0,0,0,0,0,0,-1,2022,344,0,0
805,680,0,0,0,0,0,0,0,0,0,-1,2029,344,0,0
812,680,0,0,0,0,0,0,0,0,0,-1,2036,344,0,0
-700,673,0,0,0,0,0,0,0,0,0,-1,524,351,0,0
-693,673,0,0,0,0,0,0,0,0,0,-1,531,351,0,0
-686,673,0,0,0,0,0,0,0,0,0,-1,538,351,0,0
-679,673,0,0,0,0,0,0,0,0,0,-1,545,351,0,0
-672,673,0,0,0,0,0,0,0,0,0,-1,552,351,0,0
-665,673,0,0,0,0,0,0,0,0,0,-1,559,351,0,0
-658,673,0,0,0,0,0,0,0,0,0,-1,566,351,0,0
-651,673,0,0,0,0,0,0,0,0,0,-1,573,351,0,0
-644,673,0,0,0,0,0,0,0,0,0,-1,580,351,0,0
-637,673,0,0,0,0,0,0,0,0,0,-1,587,351,0,0
-630,673,0,0,0,0,0,0,0,0,0,-1,594,351,0,0
-623,673,0,0,0,0,0,0,0,0,0,-1,601,351,0,0
-616,673,0,0,0,0,0,0,0,0,0,-1,608,351,0,0
-609,673,0,0,0,0,0,0,0,0,0,-1,615,351,0,0
-602,673,0,0,0,0,0,0,0,0,0,-1,622,351,0,0
-595,673,0,0,0,0,0,0,0,0,0,-1,629,351,0,0
-588,673,0,0,0,0,0,0,0,0,0,-1,636,351,0,0
-581,673,0,0,0,0,0,0,0,0,0,-1,643,351,0,0
-574,673,0,0,0,0,0,0,0,0,0,-1,650,351,0,0
-567,673,0,0,0,0,0,0,0,0,0,-1,657,351,0,0
-560,673,0,0,0,0,0,0,0,0,0,-1,664,351,0,0
-553,673,0,0,0,0,0,0,0,0,0,-1,671,351,0,0
-546,673,0,0,0,0,0,0,0,0,0,-1,678,351,0,0
-539,673,0,0,0,0,0,0,0,0,0,-1,685,351,0,0
-532,673,0,0,0,0,0,0,0,0,0,-1,692,351,0,0
-525,673,0,0,0,0,0,0,0,0,0,-1,699,351,0,0
-518,673,0,0,0,0,0,0,0,0,0,-1,706,351,0,0
-511,673,0,0,0,0,0,0,0,0,0,-1,713,351,0,0
-504,673,0,0,0,0,0,0,0,0,0,-1,720,351,0,0
-497,673,0,0,0,0,0,0,0,0,0,-1,727,351,0,0
-490,673,0,0,0,0,0,0,0,0,0,-1,734,351,0,0
-483,673,0,0,0,0,0,0,0,0,0,-1,741,351,0,0
-476,673,0,0,0,0,0,0,0,0,0,-1,748,351,0,0
-469,673,0,0,0,0,0,0,0,0,0,-1,755,351,0,0
-462,673,0,0,0,0,0,0,0,0,0,-1,762,351,0,0
-455,673,0,0,0,0,0,0,0,0,0,-1,769,351,0,0
-448,673,0,0,0,0,0,0,0,0,0,-1,776,351,0,0
-441,673,0,0,0,0,0,0,0,0,0,-1,783,351,0,0
-434,673,0,0,0,0,0,0,0,0,0,-1,790,351,0,0
-427,673,0,0,0,0,0,0,0,0,0,-1,797,351,0,0
-420,673,0,0,0,0,0,0,0,0,0,-1,804,351,0,0
-413,673,0,0,0,0,0,0,0,0,0,-1,811,351,0,0
-406,673,0,0,0,0,0,0,0,0,0,-1,818,351,0,0
-399,673,0,0,0,0,0,0,0,0,0,-1,825,351,0,0
-392,673,0,0,0,0,0,0,0,0,0,-1,832,351,0,0
-385,673,0,0,0,0,0,0,0,0,0,-1,839,351,0,0
-378,673,0,0,0,0,0,0,0,0,0,-1,846,351,0,0
-371,673,0,0,0,0,0,0,0,0,0,-1,853,351,0,0
-364,673,0,0,0,0,0,0,0,0,0,-1,860,351,0,0
-357,673,0,0,0,0,0,0,0,0,0,-1,867,351,0,0
-350,673,0,0,0,0,0,0,0,0,0,-1,874,351,0,0
-343,673,0,0,0,0,0,0,0,0,0,-1,881,351,0,0
-336,673,0,0,0,0,0,0,0,0,0,-1,888,351,0,0
-329,673,0,0,0,0,0,0,0,0,0,-1,895,351,0,0
-322,673,0,0,0,0,0,0,0,0,0,-1,902,351,0,0
-315,673,0,0,0,0,0,0,0,0,0,-1,909,351,0,0
-308,673,0,0,0,0,0,0,0,0,0,-1,916,351,0,0
-301,673,0,0,0,0,0,0,0,0,0,-1,923,351,0,0
-294,673,0,0,0,0,0,0,0,0,0,-1,930,351,0,0
-287,673,0,0,0,0,0,0,0,0,0,-1,937,351,0,0
-280,673,0,0,0,0,0,0,0,0,0,-1,944,351,0,0
-273,673,0,0,0,0,0,0,0,0,0,-1,951,351,0,0
-266,673,0,0,0,0,0,0,0,0,0,-1,958,351,0,0
-259,673,0,0,0,0,0,0,0,0,0,-1,965,351,0,0
-252,673,0,0,0,0,0,0,0,0,0,-1,972,351,0,0
-245,673,0,0,0,0,0,0,0,0,0,-1,979,351,0,0
-238,673,0,0,0,0,0,0,0,0,0,-1,986,351,0,0
-231,673,0,0,0,0,0,0,0,0,0,-1,993,351,0,0
-224,673,0,0,0,0,0,0,0,0,0,-1,1000,351,0,0
-217,673,0,0,0,0,0,0,0,0,0,-1,1007,351,0,0
-210,673,0,0,0,0,0,0,0,0,0,-1,1014,351,0,0
-203,673,0,0,0,0,0,0,0,0,0,-1,1021,351,0,0
-196,673,0,0,0,0,0,0,0,0,0,-1,1028,351,0,0
-189,673,0,0,0,0,0,0,0,0,0,-1,1035,351,0,0
-182,673,0,0,0,0,0,0,0,0,0,-1,1042,351,0,0
-175,673,7.10449,-31.8279,0,0,0,0,0,0,0,-1,1049,351,7.10448,31.8279
-168,673,7.33081,-32.7122,0,0,0,0,0,0,0,-1,1056,351,7.33085,32.7122
-161,673,7.8938,-33.5352,0,0,0,0,0,0,0,-1,1063,351,7.89385,33.5352
-154,673,8.80566,-35.3518,0,0,0,0,0,0,0,-1,1070,351,8.80563,35.3518
-147,673,2.89221,-37.7351,0,0,0,0,0,0,0,-1,1077,351,2.89224,37.7351
-140,673,3.35046,-37.7151,0,0,0,0,0,0,0,-1,1084,351,3.35046,37.715
-133,673,3.35339,-39.0288,0,0,0,0,0,0,0,-1,1091,351,3.35342,39.0288
-126,673,3.7533,-38.0453,0,0,0,0,0,0,0,-1,1098,351,3.7533,38.0453
-119,673,4.1532,-37.0618,0,0,0,0,0,0,0,-1,1105,351,4.15318,37.0618
-112,673,7.27234,-32.5801,0,0,0,0,0,0,0,-1,1112,351,7.27231,32.5801
-105,673,21.1144,-43.3143,0,0,0,0,0,0,0,-1,1119,351,21.1143,43.3143
-98,673,14.8014,-36.7519,0,0,0,0,0,0,0,-1,1126,351,14.8014,36.7519
-91,673,8.54944,-29.9639,0,0,0,0,0,0,0,-1,1133,351,8.54949,29.9639
-84,673,2.17102,-24.3204,0,0,0,0,0,0,0,-1,1140,351,2.17107,24.3204
-77,673,-4.25378,-18.8346,0,0,0,0,0,0,0,-1,1147,351,-4.25381,18.8346
-70,673,-10.7933,-13.6681,0,0,0,0,0,0,0,-1,1154,351,-10.7934,13.6681
-63,673,-17.3896,-8.24469,0,0,0,0,0,0,0,-1,1161,351,-17.3896,8.2447
-56,673,-18.0282,2.79053,0,0,0,0,0,0,0,-1,1168,351,-18.0283,-2.79052
-49,673,-0.926758,-0.115448,0,0,0,0,0,0,0,-1,1175,351,-0.926732,0.115444
-42,673,-1.15015,0.289917,0,0,0,0,0,0,0,-1,1182,351,-1.15017,-0.289932
-35,673,-0.919556,-1.00711,0,0,0,0,0,0,0,-1,1189,351,-0.919514,1.00711
-28,673,5.28918,-39.2331,0,0,0,0,0,0,0,-1,1196,351,5.28924,39.2331
-21,673,10.1161,-69.1096,0,0,0,0,0,0,0,-1,1203,351,10.1161,69.1096
-14,673,9.68738,-69.3884,0,0,0,0,0,0,0,-1,1210,351,9.68742,69.3884
-7,673,9.59985,-69.8007,0,0,0,0,0,0,0,-1,1217,351,9.59987,69.8007
0,673,9.55896,-70.2706,0,0,0,0,0,0,0,-1,1224,351,9.55896,70.2706
7,673,9.60718,-69.9614,0,0,0,0,0,0,0,-1,1231,351,9.60714,69.9614
14,673,9.47302,-70.1166,0.0216948,0.103536,-0.00573349,0.103936,0.0212951,-1.50119,0.063396,0.0480138,1238,351,9.47304,70.1166
21,673,9.29675,-70.6328,0.0177735,0.0989005,-0.00474176,0.0991767,0.0174973,-1.51261,0.0611259,0.0368217,1245,351,9.29681,70.6328
28,673,9.2666,-70.8588,0.0132471,0.0943241,-0.00345675,0.0944712,0.0131,-1.52826,0.0591001,0.0358508,1252,351,9.26654,70.8588
35,673,9.27942,-70.7178,0,0,0,0,0,0,0,-1,1259,351,9.27939,70.7178
42,673,8.84167,-70.9424,0.00202602,0.0822427,-0.000589716,0.0822471,0.00202169,-1.56345,0.0541701,0.0453113,1266,351,8.84173,70.9424
49,673,8.64417,-71.1373,-0.00410425,0.0756331,0.000273144,0.075634,-0.00410518,1.56737,0.0518453,0.0293888,1273,351,8.64422,71.1373
56,673,8.60901,-71.1749,-0.0095259,0.0692691,0.000905144,0.0692795,-0.0095363,1.55931,0.0496712,0.0218551,1280,351,8.60902,71.1749
63,673,8.625,-70.9259,-0.0146807,0.0618807,0.00136357,0.061905,-0.0147049,1.55299,0.0469457,0.0248653,1287,351,8.62495,70.9259
70,673,8.50793,-70.8668,-0.0180021,0.0560556,0.00104444,0.0560704,-0.0180168,1.5567,0.0446154,0.0391377,1294,351,8.50788,70.8668
77,673,8.34668,-70.558,-0.0168476,0.0511153,0.00062565,0.0511211,-0.0168533,1.56159,0.0408736,0.0453427,1301,351,8.34671,70.558
84,673,8.4928,-71.0842,-0.0147284,0.0447027,-0.0013153,0.0447318,-0.0147575,-1.54868,0.0357699,0.0499232,1308,351,8.49283,71.0842
91,673,8.17969,-71.4259,0,0,0,0,0,0,0,-1,1315,351,8.17967,71.4259
98,673,9.34924,-66.7201,0,0,0,0,0,0,0,-1,1322,351,9.34928,66.7201
105,673,7.39673,-70.9697,0,0,0,0,0,0,0,-1,1329,351,7.39674,70.9697
112,673,3.90735,-69.3512,0,0,0,0,0,0,0,-1,1336,351,3.90739,69.3512
119,673,7.40747,-64.7328,0,0,0,0,0,0,0,-1,1343,351,7.40746,64.7328
126,673,7.22522,-64.1891,0,0,0,0,0,0,0,-1,1350,351,7.2252,64.1891
133,673,11.3988,-63.0432,0,0,0,0,0,0,0,-1,1357,351,11.3988,63.0432
140,673,6.79333,-69.4345,0,0,0,0,0,0,0,-1,1364,351,6.79334,69.4345
147,673,6.63416,-69.0004,0,0,0,0,0,0,0,-1,1371,351,6.63417,69.0004
154,673,6.49463,-68.2662,0,0,0,0,0,0,0,-1,1378,351,6.49463,68.2663
161,673,6.3551,-67.5321,0,0,0,0,0,0,0,-1,1385,351,6.35509,67.5321
168,673,6.87061,1.83954,0,0,0,0,0,0,0,-1,1392,351,6.87063,-1.83953
175,673,6.6228,1.1459,0,0,0,0,0,0,0,-1,1399,351,6.62276,-1.14591
182,673,6.37244,0.796112,0,0,0,0,0,0,0,-1,1406,351,6.3724,-0.796102
189,673,6.12097,0.265472,0,0,0,0,0,0,0,-1,1413,351,6.121,-0.265482
196,673,6.02173,3.12717,0,0,0,0,0,0,0,-1,1420,351,6.02176,-3.12717
203,673,5.04456,1.6351,0,0,0,0,0,0,0,-1,1427,351,5.04455,-1.63509
210,673,4.79224,0.447479,0,0,0,0,0,0,0,-1,1434,351,4.79229,-0.447469
217,673,2.01648,0.972687,0,0,0,0,0,0,0,-1,1441,351,2.01644,-0.972691
224,673,2.3689,-1.80539,0,0,0,0,0,0,0,-1,1448,351,2.36896,1.80539
231,673,2.65857,-2.18497,0,0,0,0,0,0,0,-1,1455,351,2.65852,2.18496
238,673,3.77844,-2.06088,0,0,0,0,0,0,0,-1,1462,351,3.77839,2.06088
245,673,3.5376,-0.190399,0,0,0,0,0,0,0,-1,1469,351,3.53759,0.1904
252,673,3.80518,0.55603,0,0,0,0,0,0,0,-1,1476,351,3.80519,-0.556022
259,673,3.88562,1.29617,0,0,0,0,0,0,0,-1,1483,351,3.88562,-1.29618
266,673,4.22424,2.04834,0,0,0,0,0,0,0,-1,1490,351,4.22429,-2.04834
273,673,6.07886,0.385895,0,0,0,0,0,0,0,-1,1497,351,6.0789,-0.385906
280,673,6.97534,-0.0820007,0,0,0,0,0,0,0,-1,1504,351,6.97536,0.0820122
287,673,7.66968,-0.348541,0,0,0,0,0,0,0,-1,1511,351,7.66969,0.348534
294,673,8.20996,0.28537,0,0,0,0,0,0,0,-1,1518,351,8.20993,-0.28536
301,673,0,0,0,0,0,0,0,0,0,-1,1525,351,0,0
308,673,0,0,0,0,0,0,0,0,0,-1,1532,351,0,0
315,673,0,0,0,0,0,0,0,0,0,-1,1539,351,0,0
322,673,0,0,0,0,0,0,0,0,0,-1,1546,351,0,0
329,673,0,0,0,0,0,0,0,0,0,-1,1553,351,0,0
336,673,0,0,0,0,0,0,0,0,0,-1,1560,351,0,0
343,673,0,0,0,0,0,0,0,0,0,-1,1567,351,0,0
350,673,0,0,0,0,0,0,0,0,0,-1,1574,351,0,0
357,673,0,0,0,0,0,0,0,0,0,-1,1581,351,0,0
364,673,0,0,0,0,0,0,0,0,0,-1,1588,351,0,0
371,673,0,0,0,0,0,0,0,0,0,-1,1595,351,0,0
378,673,0,0,0,0,0,0,0,0,0,-1,1602,351,0,0
385,673,0,0,0,0,0,0,0,0,0,-1,1609,351,0,0
392,673,0,0,0,0,0,0,0,0,0,-1,1616,351,0,0
399,673,0,0,0,0,0,0,0,0,0,-1,1623,351,0,0
406,673,0,0,0,0,0,0,0,0,0,-1,1630,351,0,0
413,673,0,0,0,0,0,0,0,0,0,-1,1637,351,0,0
420,673,0,0,0,0,0,0,0,0,0,-1,1644,351,0,0
427,673,0,0,0,0,0,0,0,0,0,-1,1651,351,0,0
434,673,0,0,0,0,0,0,0,0,0,-1,1658,351,0,0
441,673,0,0,0,0,0,0,0,0,0,-1,1665,351,0,0
448,673,0,0,0,0,0,0,0,0,0,-1,1672,351,0,0
455,673,0,0,0,0,0,0,0,0,0,-1,1679,351,0,0
462,673,0,0,0,0,0,0,0,0,0,-1,1686,351,0,0
469,673,0,0,0,0,0,0,0,0,0,-1,1693,351,0,0
476,673,0,0,0,0,0,0,0,0,0,-1,1700,351,0,0
483,673,0,0,0,0,0,0,0,0,0,-1,1707,351,0,0
490,673,0,0,0,0,0,0,0,0,0,-1,1714,351,0,0
497,673,0,0,0,0,0,0,0,0,0,-1,1721,351,0,0
504,673,0,0,0,0,0,0,0,0,0,-1,1728,351,0,0
511,673,0,0,0,0,0,0,0,0,0,-1,1735,351,0,0
518,673,0,0,0,0,0,0,0,0,0,-1,1742,351,0,0
525,673,0,0,0,0,0,0,0,0,0,-1,1749,351,0,0
532,673,0,0,0,0,0,0,0,0,0,-1,1756,351,0,0
539,673,0,0,0,0,0,0,0,0,0,-1,1763,351,0,0
546,673,0,0,0,0,0,0,0,0,0,-1,1770,351,0,0
553,673,0,0,0,0,0,0,0,0,0,-1,1777,351,0,0
560,673,0,0,0,0,0,0,0,0,0,-1,1784,351,0,0
567,673,0,0,0,0,0,0,0,0,0,-1,1791,351,0,0
574,673,0,0,0,0,0,0,0,0,0,-1,1798,351,0,0
581,673,0,0,0,0,0,0,0,0,0,-1,1805,351,0,0
588,673,0,0,0,0,0,0,0,0,0,-1,1812,351,0,0
595,673,0,0,0,0,0,0,0,0,0,-1,1819,351,0,0
602,673,0,0,0,0,0,0,0,0,0,-1,1826,351,0,0
609,673,0,0,0,0,0,0,0,0,0,-1,1833,351,0,0
616,673,0,0,0,0,0,0,0,0,0,-1,1840,351,0,0
623,673,0,0,0,0,0,0,0,0,0,-1,1847,351,0,0
630,673,0,0,0,0,0,0,0,0,0,-1,1854,351,0,0
637,673,0,0,0,0,0,0,0,0,0,-1,1861,351,0,0
644,673,0,0,0,0,0,0,0,0,0,-1,1868,351,0,0
651,673,0,0,0,0,0,0,0,0,0,-1,1875,351,0,0
658,673,0,0,0,0,0,0,0,0,0,-1,1882,351,0,0
665,673,0,0,0,0,0,0,0,0,0,-1,1889,351,0,0
672,673,0,0,0,0,0,0,0,0,0,-1,1896,351,0,0
679,673,0,0,0,0,0,0,0,0,0,-1,1903,351,0,0
686,673,0,0,0,0,0,0,0,0,0,-1,1910,351,0,0
693,673,0,0,0,0,0,0,0,0,0,-1,1917,351,0,0
700,673,0,0,0,0,0,0,0,0,0,-1,1924,351,0,0
707,673,0,0,0,0,0,0,0,0,0,-1,1931,351,0,0
714,673,0,0,0,0,0,0,0,0,0,-1,1938,351,0,0
721,673,0,0,0,0,0,0,0,0,0,-1,1945,351,0,0
728,673,0,0,0,0,0,0,0,0,0,-1,1952,351,0,0
735,673,0,0,0,0,0,0,0,0,0,-1,1959,351,0,0
742,673,0,0,0,0,0,0,0,0,0,-1,1966,351,0,0
749,673,0,0,0,0,0,0,0,0,0,-1,1973,351,0,0
756,673,0,0,0,0,0,0,0,0,0,-1,1980,351,0,0
763,673,0,0,0,0,0,0,0,0,0,-1,1987,351,0,0
770,673,0,0,0,0,0,0,0,0,0,-1,1994,351,0,0
777,673,0,0,0,0,0,0,0,0,0,-1,2001,351,0,0
784,673,0,0,0,0,0,0,0,0,0,-1,2008,351,0,0
791,673,0,0,0,0,0,0,0,0,0,-1,2015,351,0,0
798,673,0,0,0,0,0,0,0,0,0,-1,2022,351,0,0
805,673,0,0,0,0,0,0,0,0,0,-1,2029,351,0,0
812,673,0,0,0,0,0,0,0,0,0,-1,2036,351,0,0
-700,666,0,0,0,0,0,0,0,0,0,-1,524,358,0,0
-693,666,0,0,0,0,0,0,0,0,0,-1,531,358,0,0
-686,666,0,0,0,0,0,0,0,0,0,-1,538,358,0,0
-679,666,0,0,0,0,0,0,0,0,0,-1,545,358,0,0
-672,666,0,0,0,0,0,0,0,0,0,-1,552,358,0,0
-665,666,0,0,0,0,0,0,0,0,0,-1,559,358,0,0
-658,666,0,0,0,0,0,0,0,0,0,-1,566,358,0,0
-651,666,0,0,0,0,0,0,0,0,0,-1,573,358,0,0
-644,666,0,0,0,0,0,0,0,0,0,-1,580,358,0,0
-637,666,0,0,0,0,0,0,0,0,0,-1,587,358,0,0
-630,666,0,0,0,0,0,0,0,0,0,-1,594,358,0,0
-623,666,0,0,0,0,0,0,0,0,0,-1,601,358,0,0
-616,666,0,0,0,0,0,0,0,0,0,-1,608,358,0,0
-609,666,0,0,0,0,0,0,0,0,0,-1,615,358,0,0
-602,666,0,0,0,0,0,0,0,0,0,-1,622,358,0,0
-595,666,0,0,0,0,0,0,0,0,0,-1,629,358,0,0
-588,666,0,0,0,0,0,0,0,0,0,-1,636,358,0,0
-581,666,0,0,0,0,0,0,0,0,0,-1,643,358,0,0
-574,666,0,0,0,0,0,0,0,0,0,-1,650,358,0,0
-567,666,0,0,0,0,0,0,0,0,0,-1,657,358,0,0
-560,666,0,0,0,0,0,0,0,0,0,-1,664,358,0,0
-553,666,0,0,0,0,0,0,0,0,0,-1,671,358,0,0
-546,666,0,0,0,0,0,0,0,0,0,-1,678,358,0,0
-539,666,0,0,0,0,0,0,0,0,0,-1,685,358,0,0
-532,666,0,0,0,0,0,0,0,0,0,-1,692,358,0,0
-525,666,0,0,0,0,0,0,0,0,0,-1,699,358,0,0
-518,666,0,0,0,0,0,0,0,0,0,-1,706,358,0,0
-511,666,0,0,0,0,0,0,0,0,0,-1,713,358,0,0
-504,666,0,0,0,0,0,0,0,0,0,-1,720,358,0,0
-497,666,0,0,0,0,0,0,0,0,0,-1,727,358,0,0
-490,666,0,0,0,0,0,0,0,0,0,-1,734,358,0,0
-483,666,0,0,0,0,0,0,0,0,0,-1,741,358,0,0
-476,666,0,0,0,0,0,0,0,0,0,-1,748,358,0,0
-469,666,0,0,0,0,0,0,0,0,0,-1,755,358,0,0
-462,666,0,0,0,0,0,0,0,0,0,-1,762,358,0,0
-455,666,0,0,0,0,0,0,0,0,0,-1,769,358,0,0
-448,666,0,0,0,0,0,0,0,0,0,-1,776,358,0,0
-441,666,0,0,0,0,0,0,0,0,0,-1,783,358,0,0
-434,666,0,0,0,0,0,0,0,0,0,-1,790,358,0,0
-427,666,0,0,0,0,0,0,0,0,0,-1,797,358,0,0
-420,666,0,0,0,0,0,0,0,0,0,-1,804,358,0,0
-413,666,0,0,0,0,0,0,0,0,0,-1,811,358,0,0
-406,666,0,0,0,0,0,0,0,0,0,-1,818,358,0,0
-399,666,0,0,0,0,0,0,0,0,0,-1,825,358,0,0
-392,666,0,0,0,0,0,0,0,0,0,-1,832,358,0,0
-385,666,0,0,0,0,0,0,0,0,0,-1,839,358,0,0
-378,666,0,0,0,0,0,0,0,0,0,-1,846,358,0,0
-371,666,0,0,0,0,0,0,0,0,0,-1,853,358,0,0
-364,666,0,0,0,0,0,0,0,0,0,-1,860,358,0,0
-357,666,0,0,0,0,0,0,0,0,0,-1,867,358,0,0
-350,666,0,0,0,0,0,0,0,0,0,-1,874,358,0,0
-343,666,0,0,0,0,0,0,0,0,0,-1,881,358,0,0
-336,666,0,0,0,0,0,0,0,0,0,-1,888,358,0,0
-329,666,0,0,0,0,0,0,0,0,0,-1,895,358,0,0
-322,666,0,0,0,0,0,0,0,0,0,-1,902,358,0,0
-315,666,0,0,0,0,0,0,0,0,0,-1,909,358,0,0
-308,666,0,0,0,0,0,0,0,0,0,-1,916,358,0,0
-301,666,0,0,0,0,0,0,0,0,0,-1,923,358,0,0
-294,666,0,0,0,0,0,0,0,0,0,-1,930,358,0,0
-287,666,0,0,0,0,0,0,0,0,0,-1,937,358,0,0
-280,666,0,0,0,0,0,0,0,0,0,-1,944,358,0,0
-273,666,0,0,0,0,0,0,0,0,0,-1,951,358,0,0
-266,666,0,0,0,0,0,0,0,0,0,-1,958,358,0,0
-259,666,0,0,0,0,0,0,0,0,0,-1,965,358,0,0
-252,666,0,0,0,0,0,0,0,0,0,-1,972,358,0,0
-245,666,0,0,0,0,0,0,0,0,0,-1,979,358,0,0
-238,666,0,0,0,0,0,0,0,0,0,-1,986,358,0,0
-231,666,0,0,0,0,0,0,0,0,0,-1,993,358,0,0
-224,666,0,0,0,0,0,0,0,0,0,-1,1000,358,0,0
-217,666,0,0,0,0,0,0,0,0,0,-1,1007,358,0,0
-210,666,0,0,0,0,0,0,0,0,0,-1,1014,358,0,0
-203,666,0,0,0,0,0,0,0,0,0,-1,1021,358,0,0
-196,666,4.03418,-28.8724,0,0,0,0,0,0,0,-1,1028,358,4.03422,28.8724
-189,666,5.00366,-29.597,0,0,0,0,0,0,0,-1,1035,358,5.00363,29.597
-182,666,6.83252,-30.9843,0,0,0,0,0,0,0,-1,1042,358,6.83247,30.9844
-175,666,7.01611,-31.8763,0,0,0,0,0,0,0,-1,1049,358,7.01617,31.8762
-168,666,7.21545,-32.7414,0,0,0,0,0,0,0,-1,1056,358,7.2154,32.7414
-161,666,7.69116,-33.6269,0,0,0,0,0,0,0,-1,1063,358,7.69121,33.6269
-154,666,3.79041,-37.9204,0,0,0,0,0,0,0,-1,1070,358,3.79034,37.9204
-147,666,4.17908,-37.7466,0,0,0,0,0,0,0,-1,1077,358,4.17912,37.7466
-140,666,4.54309,-37.735,0,0,0,0,0,0,0,-1,1084,358,4.54304,37.735
-133,666,4.65723,-39.0643,0,0,0,0,0,0,0,-1,1091,358,4.65727,39.0643
-126,666,5.02368,-38.0699,0,0,0,0,0,0,0,-1,1098,358,5.02363,38.0698
-119,666,5.39001,-37.0754,0,0,0,0,0,0,0,-1,1105,358,5.38999,37.0754
-112,666,6.77014,-32.8165,0,0,0,0,0,0,0,-1,1112,358,6.77013,32.8165
-105,666,6.30908,-29.0855,0,0,0,0,0,0,0,-1,1119,358,6.30905,29.0855
-98,666,15.4427,-31.5168,0,0,0,0,0,0,0,-1,1126,358,15.4428,31.5168
-91,666,9.5127,-25.1347,0,0,0,0,0,0,0,-1,1133,358,9.51269,25.1347
-84,666,2.91589,-19.4071,0,0,0,0,0,0,0,-1,1140,358,2.91592,19.4071
-77,666,-3.48083,-14.0782,0,0,0,0,0,0,0,-1,1147,358,-3.48081,14.0782
-70,666,-9.99438,-8.90146,0,0,0,0,0,0,0,-1,1154,358,-9.99433,8.90146
-63,666,-11.7778,-0.975189,0,0,0,0,0,0,0,-1,1161,358,-11.7778,0.97519
-56,666,0.424683,-2.04132,0,0,0,0,0,0,0,-1,1168,358,0.424665,2.04132
-49,666,0.754395,-2.23169,0,0,0,0,0,0,0,-1,1175,358,0.754383,2.23169
-42,666,1.34473,-3.53897,0,0,0,0,0,0,0,-1,1182,358,1.34476,3.53896
-35,666,9.79175,-69.2984,0,0,0,0,0,0,0,-1,1189,358,9.79181,69.2984
-28,666,9.8999,-69.4777,0,0,0,0,0,0,0,-1,1196,358,9.89986,69.4777
-21,666,9.78833,-69.587,0.00506075,0.0649308,-0.00359022,0.0651453,0.00484622,-1.51111,0.0419083,0.0442419,1203,358,9.78831,69.587
-14,666,9.5199,-69.9108,0.00924304,0.0710119,-0.00404146,0.0712752,0.00897974,-1.50574,0.0448244,0.0424596,1210,358,9.51987,69.9108
-7,666,9.4104,-70.2427,0.0115419,0.0750177,-0.00425702,0.0753019,0.0112577,-1.50413,0.0469013,0.0281773,1217,358,9.41035,70.2427
0,666,9.39124,-70.5728,0.0135472,0.0781524,-0.0045314,0.0784687,0.0132309,-1.50111,0.0485074,0.0183413,1224,358,9.39126,70.5728
7,666,9.25623,-70.7199,0.0137813,0.0787461,-0.0045608,0.0790647,0.0134627,-1.50105,0.0488447,0.0236759,1231,358,9.25627,70.7199
14,666,9.16296,-70.8106,0.0123942,0.0772564,-0.00434095,0.0775457,0.012105,-1.50427,0.0481718,0.0220877,1238,358,9.16302,70.8106
21,666,9.07544,-71.1199,0.0100189,0.0747487,-0.003591,0.0749473,0.00982029,-1.51555,0.0470344,0.0177667,1245,358,9.0754,71.1199
28,666,8.9801,-71.3432,0.00720836,0.072142,-0.00266589,0.0722512,0.0070991,-1.52983,0.0459842,0.024484,1252,358,8.98009,71.3432
35,666,8.95471,-71.3561,0.00420077,0.0684063,-0.00156928,0.0684447,0.00416243,-1.54637,0.0443075,0.0223646,1259,358,8.95469,71.3561
42,666,8.81458,-71.4656,0.000162195,0.0642848,-0.000542718,0.0642894,0.000157598,-1.56233,0.0428072,0.019135,1266,358,8.81453,71.4656
49,666,8.66516,-71.5625,-0.0040158,0.0597399,0.000110082,0.0597401,-0.00401599,1.56907,0.0412306,0.0194152,1273,358,8.66518,71.5625
56,666,8.6073,-71.6346,-0.00776885,0.0553441,0.000573622,0.0553493,-0.00777406,1.56171,0.0397452,0.0204959,1280,358,8.60734,71.6346
63,666,8.51929,-71.7757,-0.0113981,0.0500533,0.000936977,0.0500676,-0.0114124,1.55555,0.0377618,0.0219692,1287,358,8.51933,71.7757
70,666,8.43103,-71.7598,-0.0136701,0.0457983,0.000736782,0.0458074,-0.0136792,1.55841,0.0359756,0.0206301,1294,358,8.431,71.7598
77,666,8.36951,-71.5326,-0.0125584,0.0420913,0.000600775,0.0420979,-0.012565,1.5598,0.0330594,0.0230037,1301,358,8.36951,71.5326
84,666,8.33704,-71.5197,-0.0107963,0.0371689,-0.000834294,0.0371834,-0.0108108,-1.55341,0.0290705,0.0308079,1308,358,8.33703,71.5197
91,666,8.1626,-71.5773,-0.0082042,0.0325242,-0.00311705,0.0327614,-0.00844137,-1.49485,0.0251318,0.0273566,1315,358,8.16263,71.5773
98,666,7.93921,-71.467,-0.00346208,0.0291868,-0.00652441,0.0304423,-0.00471761,-1.38068,0.0220364,0.0244029,1322,358,7.9392,71.4671
105,666,7.73865,-71.2313,0.00136555,0.0259204,-0.00933553,0.0290665,-0.00178062,-1.24574,0.0199977,0.0311154,1329,358,7.7386,71.2313
112,666,7.67664,-71.0244,0,0,0,0,0,0,0,-1,1336,358,7.67665,71.0244
119,666,7.60303,-70.8044,0,0,0,0,0,0,0,-1,1343,358,7.60305,70.8044
126,666,7.52136,-70.4643,0,0,0,0,0,0,0,-1,1350,358,7.52135,70.4643
133,666,7.37952,-70.2371,0,0,0,0,0,0,0,-1,1357,358,7.37955,70.2371
140,666,7.17688,-69.8737,0.0248803,0.0141538,-0.0249894,0.0450755,-0.00604145,-0.679692,0.0322533,0.0451148,1364,358,7.17687,69.8736
147,666,6.99744,-69.5508,0.0273949,0.014049,-0.0268936,0.0484311,-0.00698715,-0.663793,0.0348507,0.0343721,1371,358,6.99745,69.5507
154,666,6.94556,-68.8981,0.0286746,0.0145113,-0.0280925,0.0505643,-0.00737846,-0.661929,0.036419,0.030326,1378,358,6.94557,68.8981
161,666,6.93213,-68.4161,0.0286155,0.015705,-0.0286314,0.0515103,-0.00718986,-0.674522,0.0369706,0.0400188,1385,358,6.93219,68.4161
168,666,6.83301,-68.4561,0,0,0,0,0,0,0,-1,1392,358,6.83302,68.4561
175,666,6.91821,-68.1377,0,0,0,0,0,0,0,-1,1399,358,6.91822,68.1377
182,666,2.60876,-5.17068,0,0,0,0,0,0,0,-1,1406,358,2.6088,5.17068
189,666,2.46973,-5.49979,0,0,0,0,0,0,0,-1,1413,358,2.46975,5.49979
196,666,2.32458,-5.23651,0,0,0,0,0,0,0,-1,1420,358,2.32461,5.23653
203,666,2.28064,-3.88004,0,0,0,0,0,0,0,-1,1427,358,2.28059,3.88003
210,666,3.02576,-5.83548,0,0,0,0,0,0,0,-1,1434,358,3.02581,5.83547
217,666,2.30444,-5.36011,0,0,0,0,0,0,0,-1,1441,358,2.30447,5.3601
224,666,1.82324,-6.03101,0,0,0,0,0,0,0,-1,1448,358,1.82322,6.031
231,666,2.29797,-10.1093,0,0,0,0,0,0,0,-1,1455,358,2.29801,10.1093
238,666,2.52429,-6.10568,0,0,0,0,0,0,0,-1,1462,358,2.52423,6.10567
245,666,4.53345,-1.38205,0,0,0,0,0,0,0,-1,1469,358,4.53349,1.38204
252,666,4.77405,-0.246979,0,0,0,0,0,0,0,-1,1476,358,4.77405,0.246993
259,666,4.83655,1.14087,0,0,0,0,0,0,0,-1,1483,358,4.83652,-1.14087
266,666,6.14148,0.749512,0,0,0,0,0,0,0,-1,1490,358,6.14144,-0.749519
273,666,3.17737,-33.7881,0,0,0,0,0,0,0,-1,1497,358,3.17735,33.7881
280,666,3.37268,-35.2123,0,0,0,0,0,0,0,-1,1504,358,3.37266,35.2123
287,666,-7.06934,-20.3464,0,0,0,0,0,0,0,-1,1511,358,-7.06933,20.3464
294,666,-2.11157,-23.2753,0,0,0,0,0,0,0,-1,1518,358,-2.11162,23.2753
301,666,-3.16162,-22.2271,0,0,0,0,0,0,0,-1,1525,358,-3.16161,22.2271
308,666,-4.24951,-20.9112,0,0,0,0,0,0,0,-1,1532,358,-4.24948,20.9112
315,666,-5.64954,-19.5784,0,0,0,0,0,0,0,-1,1539,358,-5.64959,19.5784
322,666,0,0,0,0,0,0,0,0,0,-1,1546,358,0,0
329,666,0,0,0,0,0,0,0,0,0,-1,1553,358,0,0
336,666,0,0,0,0,0,0,0,0,0,-1,1560,358,0,0
343,666,0,0,0,0,0,0,0,0,0,-1,1567,358,0,0
350,666,0,0,0,0,0,0,0,0,0,-1,1574,358,0,0
357,666,0,0,0,0,0,0,0,0,0,-1,1581,358,0,0
364,666,0,0,0,0,0,0,0,0,0,-1,1588,358,0,0
371,666,0,0,0,0,0,0,0,0,0,-1,1595,358,0,0
378,666,0,0,0,0,0,0,0,0,0,-1,1602,358,0,0
385,666,0,0,0,0,0,0,0,0,0,-1,1609,358,0,0
392,666,0,0,0,0,0,0,0,0,0,-1,1616,358,0,0
399,666,0,0,0,0,0,0,0,0,0,-1,1623,358,0,0
406,666,0,0,0,0,0,0,0,0,0,-1,1630,358,0,0
413,666,0,0,0,0,0,0,0,0,0,-1,1637,358,0,0
420,666,0,0,0,0,0,0,0,0,0,-1,1644,358,0,0
427,666,0,0,0,0,0,0,0,0,0,-1,1651,358,0,0
434,666,0,0,0,0,0,0,0,0,0,-1,1658,358,0,0
441,666,0,0,0,0,0,0,0,0,0,-1,1665,358,0,0
448,666,0,0,0,0,0,0,0,0,0,-1,1672,358,0,0
455,666,0,0,0,0,0,0,0,0,0,-1,1679,358,0,0
462,666,0,0,0,0,0,0,0,0,0,-1,1686,358,0,0
469,666,0,0,0,0,0,0,0,0,0,-1,1693,358,0,0
476,666,0,0,0,0,0,0,0,0,0,-1,1700,358,0,0
483,666,0,0,0,0,0,0,0,0,0,-1,1707,358,0,0
490,666,0,0,0,0,0,0,0,0,0,-1,1714,358,0,0
497,666,0,0,0,0,0,0,0,0,0,-1,1721,358,0,0
504,666,0,0,0,0,0,0,0,0,0,-1,1728,358,0,0
511,666,0,0,0,0,0,0,0,0,0,-1,1735,358,0,0
518,666,0,0,0,0,0,0,0,0,0,-1,1742,358,0,0
525,666,0,0,0,0,0,0,0,0,0,-1,1749,358,0,0
532,666,0,0,0,0,0,0,0,0,0,-1,1756,358,0,0
539,666,0,0,0,0,0,0,0,0,0,-1,1763,358,0,0
546,666,0,0,0,0,0,0,0,0,0,-1,1770,358,0,0
553,666,0,0,0,0,0,0,0,0,0,-1,1777,358,0,0
560,666,0,0,0,0,0,0,0,0,0,-1,1784,358,0,0
567,666,0,0,0,0,0,0,0,0,0,-1,1791,358,0,0
574,666,0,0,0,0,0,0,0,0,0,-1,1798,358,0,0
581,666,0,0,0,0,0,0,0,0,0,-1,1805,358,0,0
588,666,0,0,0,0,0,0,0,0,0,-1,1812,358,0,0
595,666,0,0,0,0,0,0,0,0,0,-1,1819,358,0,0
602,666,0,0,0,0,0,0,0,0,0,-1,1826,358,0,0
609,666,0,0,0,0,0,0,0,0,0,-1,1833,358,0,0
616,666,0,0,0,0,0,0,0,0,0,-1,1840,358,0,0
623,666,0,0,0,0,0,0,0,0,0,-1,1847,358,0,0
630,666,0,0,0,0,0,0,0,0,0,-1,1854,358,0,0
637,666,0,0,0,0,0,0,0,0,0,-1,1861,358,0,0
644,666,0,0,0,0,0,0,0,0,0,-1,1868,358,0,0
651,666,0,0,0,0,0,0,0,0,0,-1,1875,358,0,0
658,666,0,0,0,0,0,0,0,0,0,-1,1882,358,0,0
665,666,0,0,0,0,0,0,0,0,0,-1,1889,358,0,0
672,666,0,0,0,0,0,0,0,0,0,-1,1896,358,0,0
679,666,0,0,0,0,0,0,0,0,0,-1,1903,358,0,0
686,666,0,0,0,0,0,0,0,0,0,-1,1910,358,0,0
693,666,0,0,0,0,0,0,0,0,0,-1,1917,358,0,0
700,666,0,0,0,0,0,0,0,0,0,-1,1924,358,0,0
707,666,0,0,0,0,0,0,0,0,0,-1,1931,358,0,0
714,666,0,0,0,0,0,0,0,0,0,-1,1938,358,0,0
721,666,0,0,0,0,0,0,0,0,0,-1,1945,358,0,0
728,666,0,0,0,0,0,0,0,0,0,-1,1952,358,0,0
735,666,0,0,0,0,0,0,0,0,0,-1,1959,358,0,0
742,666,0,0,0,0,0,0,0,0,0,-1,1966,358,0,0
749,666,0,0,0,0,0,0,0,0,0,-1,1973,358,0,0
756,666,0,0,0,0,0,0,0,0,0,-1,1980,358,0,0
763,666,0,0,0,0,0,0,0,0,0,-1,1987,358,0,0
770,666,0,0,0,0,0,0,0,0,0,-1,1994,358,0,0
777,666,0,0,0,0,0,0,0,0,0,-1,2001,358,0,0
784,666,0,0,0,0,0,0,0,0,0,-1,2008,358,0,0
791,666,0,0,0,0,0,0,0,0,0,-1,2015,358,0,0
798,666,0,0,0,0,0,0,0,0,0,-1,2022,358,0,0
805,666,0,0,0,0,0,0,0,0,0,-1,2029,358,0,0
812,666,0,0,0,0,0,0,0,0,0,-1,2036,358,0,0
-700,659,0,0,0,0,0,0,0,0,0,-1,524,365,0,0
-693,659,0,0,0,0,0,0,0,0,0,-1,531,365,0,0
-686,659,0,0,0,0,0,0,0,0,0,-1,538,365,0,0
-679,659,0,0,0,0,0,0,0,0,0,-1,545,365,0,0
-672,659,0,0,0,0,0,0,0,0,0,-1,552,365,0,0
-665,659,0,0,0,0,0,0,0,0,0,-1,559,365,0,0
-658,659,0,0,0,0,0,0,0,0,0,-1,566,365,0,0
-651,659,0,0,0,0,0,0,0,0,0,-1,573,365,0,0
-644,659,0,0,0,0,0,0,0,0,0,-1,580,365,0,0
-637,659,0,0,0,0,0,0,0,0,0,-1,587,365,0,0
-630,659,0,0,0,0,0,0,0,0,0,-1,594,365,0,0
-623,659,0,0,0,0,0,0,0,0,0,-1,601,365,0,0
-616,659,0,0,0,0,0,0,0,0,0,-1,608,365,0,0
-609,659,0,0,0,0,0,0,0,0,0,-1,615,365,0,0
-602,659,0,0,0,0,0,0,0,0,0,-1,622,365,0,0
-595,659,0,0,0,0,0,0,0,0,0,-1,629,365,0,0
-588,659,0,0,0,0,0,0,0,0,0,-1,636,365,0,0
-581,659,0,0,0,0,0,0,0,0,0,-1,643,365,0,0
-574,659,0,0,0,0,0,0,0,0,0,-1,650,365,0,0
-567,659,0,0,0,0,0,0,0,0,0,-1,657,365,0,0
-560,659,0,0,0,0,0,0,0,0,0,-1,664,365,0,0
-553,659,0,0,0,0,0,0,0,0,0,-1,671,365,0,0
-546,659,0,0,0,0,0,0,0,0,0,-1,678,365,0,0
-539,659,0,0,0,0,0,0,0,0,0,-1,685,365,0,0
-532,659,0,0,0,0,0,0,0,0,0,-1,692,365,0,0
-525,659,0,0,0,0,0,0,0,0,0,-1,699,365,0,0
-518,659,0,0,0,0,0,0,0,0,0,-1,706,365,0,0
-511,659,0,0,0,0,0,0,0,0,0,-1,713,365,0,0
-504,659,0,0,0,0,0,0,0,0,0,-1,720,365,0,0
-497,659,0,0,0,0,0,0,0,0,0,-1,727,365,0,0
-490,659,0,0,0,0,0,0,0,0,0,-1,734,365,0,0
-483,659,0,0,0,0,0,0,0,0,0,-1,741,365,0,0
-476,659,0,0,0,0,0,0,0,0,0,-1,748,365,0,0
-469,659,0,0,0,0,0,0,0,0,0,-1,755,365,0,0
-462,659,0,0,0,0,0,0,0,0,0,-1,762,365,0,0
-455,659,0,0,0,0,0,0,0,0,0,-1,769,365,0,0
-448,659,0,0,0,0,0,0,0,0,0,-1,776,365,0,0
-441,659,0,0,0,0,0,0,0,0,0,-1,783,365,0,0
-434,659,0,0,0,0,0,0,0,0,0,-1,790,365,0,0
-427,659,0,0,0,0,0,0,0,0,0,-1,797,365,0,0
-420,659,0,0,0,0,0,0,0,0,0,-1,804,365,0,0
-413,659,0,0,0,0,0,0,0,0,0,-1,811,365,0,0
-406,659,0,0,0,0,0,0,0,0,0,-1,818,365,0,0
-399,659,0,0,0,0,0,0,0,0,0,-1,825,365,0,0
-392,659,0,0,0,0,0,0,0,0,0,-1,832,365,0,0
-385,659,0,0,0,0,0,0,0,0,0,-1,839,365,0,0
-378,659,0,0,0,0,0,0,0,0,0,-1,846,365,0,0
-371,659,0,0,0,0,0,0,0,0,0,-1,853,365,0,0
-364,659,0,0,0,0,0,0,0,0,0,-1,860,365,0,0
-357,659,0,0,0,0,0,0,0,0,0,-1,867,365,0,0
-350,659,0,0,0,0,0,0,0,0,0,-1,874,365,0,0
-343,659,0,0,0,0,0,0,0,0,0,-1,881,365,0,0
-336,659,0,0,0,0,0,0,0,0,0,-1,888,365,0,0
-329,659,0,0,0,0,0,0,0,0,0,-1,895,365,0,0
-322,659,0,0,0,0,0,0,0,0,0,-1,902,365,0,0
-315,659,0,0,0,0,0,0,0,0,0,-1,909,365,0,0
-308,659,0,0,0,0,0,0,0,0,0,-1,916,365,0,0
-301,659,0,0,0,0,0,0,0,0,0,-1,923,365,0,0
-294,659,0,0,0,0,0,0,0,0,0,-1,930,365,0,0
-287,659,0,0,0,0,0,0,0,0,0,-1,937,365,0,0
-280,659,0,0,0,0,0,0,0,0,0,-1,944,365,0,0
-273,659,0,0,0,0,0,0,0,0,0,-1,951,365,0,0
-266,659,0,0,0,0,0,0,0,0,0,-1,958,365,0,0
-259,659,0,0,0,0,0,0,0,0,0,-1,965,365,0,0
-252,659,0,0,0,0,0,0,0,0,0,-1,972,365,0,0
-245,659,0,0,0,0,0,0,0,0,0,-1,979,365,0,0
-238,659,0,0,0,0,0,0,0,0,0,-1,986,365,0,0
-231,659,0,0,0,0,0,0,0,0,0,-1,993,365,0,0
-224,659,0,0,0,0,0,0,0,0,0,-1,1000,365,0,0
-217,659,10.1305,-25.2622,0,0,0,0,0,0,0,-1,1007,365,10.1305,25.2622
-210,659,9.65643,-25.515,0,0,0,0,0,0,0,-1,1014,365,9.65642,25.515
-203,659,8.58911,-25.7432,0,0,0,0,0,0,0,-1,1021,365,8.58916,25.7432
-196,659,2.68323,-27.8121,0,0,0,0,0,0,0,-1,1028,365,2.6832,27.8121
-189,659,6.88049,-28.9412,0,0,0,0,0,0,0,-1,1035,365,6.88045,28.9412
-182,659,6.94189,-30.6316,0,0,0,0,0,0,0,-1,1042,365,6.94189,30.6316
-175,659,6.948,-32.0092,0,0,0,0,0,0,0,-1,1049,365,6.94798,32.0093
-168,659,7.1416,-32.7405,0,0,0,0,0,0,0,-1,1056,365,7.14157,32.7405
-161,659,7.57361,-33.7099,0,0,0,0,0,0,0,-1,1063,365,7.57355,33.7099
-154,659,7.71448,-34.8995,0,0,0,0,0,0,0,-1,1070,365,7.7145,34.8995
-147,659,5.46606,-37.758,0,0,0,0,0,0,0,-1,1077,365,5.46601,37.758
-140,659,5.7356,-37.755,0,0,0,0,0,0,0,-1,1084,365,5.73562,37.755
-133,659,5.91455,-37.9017,0,0,0,0,0,0,0,-1,1091,365,5.9146,37.9017
-126,659,6.31226,-37.9904,0,0,0,0,0,0,0,-1,1098,365,6.3122,37.9904
-119,659,6.26941,-35.0837,0,0,0,0,0,0,0,-1,1105,365,6.26943,35.0837
-112,659,6.24353,-35.0562,0,0,0,0,0,0,0,-1,1112,365,6.24349,35.0562
-105,659,5.38696,-30.5854,0,0,0,0,0,0,0,-1,1119,365,5.387,30.5854
-98,659,4.68042,-26.2438,0,0,0,0,0,0,0,-1,1126,365,4.68041,26.2438
-91,659,4.20776,-20.8654,0,0,0,0,0,0,0,-1,1133,365,4.20777,20.8654
-84,659,2.8584,-17.8303,0,0,0,0,0,0,0,-1,1140,365,2.85836,17.8303
-77,659,2.80139,-15.3457,0,0,0,0,0,0,0,-1,1147,365,2.80139,15.3457
-70,659,2.9353,-12.7028,0,0,0,0,0,0,0,-1,1154,365,2.93533,12.7028
-63,659,2.11267,-9.7796,0,0,0,0,0,0,0,-1,1161,365,2.11266,9.7796
-56,659,2.11182,-9.91541,0,0,0,0,0,0,0,-1,1168,365,2.11178,9.91541
-49,659,9.78918,-68.3803,0,0,0,0,0,0,0,-1,1175,365,9.78917,68.3803
-42,659,9.75427,-68.8019,0,0,0,0,0,0,0,-1,1182,365,9.75424,68.8019
-35,659,9.63977,-69.2213,-0.00563807,0.0342484,-0.0024523,0.0343986,-0.00578827,-1.50962,0.0250854,0.0427172,1189,365,9.6398,69.2213
-28,659,9.60156,-69.5211,-0.00395267,0.0381277,-0.0023444,0.0382579,-0.00408288,-1.51531,0.0269695,0.017629,1196,365,9.60161,69.5211
-21,659,9.49573,-69.9131,-0.000514821,0.0442726,-0.00297271,0.0444691,-0.000711268,-1.50481,0.029886,0.0163249,1203,365,9.49569,69.9131
-14,659,9.35876,-70.2612,0.00268199,0.0491105,-0.00315434,0.0493238,0.00246867,-1.50327,0.0320913,0.0142335,1210,365,9.35882,70.2612
-7,659,9.24512,-70.5379,0.0045547,0.0524469,-0.00324195,0.0526654,0.00433624,-1.50351,0.0337578,0.0140337,1217,365,9.24508,70.5379
0,659,9.19702,-70.7822,0.00622633,0.0550397,-0.00338289,0.0552731,0.00599301,-1.50193,0.0350224,0.0111154,1224,365,9.19697,70.7822
7,659,9.14844,-70.984,0.00684233,0.0560439,-0.00336977,0.0562736,0.0066126,-1.50273,0.0355173,0.0104419,1231,365,9.14839,70.9841
14,659,9.05408,-71.1382,0.00641059,0.0557529,-0.00319231,0.0559586,0.00620491,-1.50646,0.035419,0.0131156,1238,365,9.05408,71.1382
21,659,8.96411,-71.3338,0.00517255,0.0547255,-0.0026646,0.0548683,0.00502968,-1.51723,0.0350229,0.0127166,1245,365,8.96409,71.3338
28,659,8.8429,-71.5253,0.00360043,0.0534503,-0.002024,0.0535324,0.00351839,-1.53028,0.0345752,0.0123049,1252,365,8.84286,71.5253
35,659,8.802,-71.6497,0.00198287,0.0512239,-0.00125486,0.0512558,0.00195091,-1.54533,0.0335392,0.0132925,1259,365,8.80201,71.6497
42,659,8.75793,-71.7573,-0.000516583,0.0486404,-0.000498411,0.0486455,-0.000521636,-1.56066,0.0326056,0.0150566,1266,365,8.75799,71.7573
49,659,8.63953,-71.8659,-0.00323508,0.0456717,-2.67649e-05,0.0456717,-0.00323509,-1.57025,0.0315814,0.0172081,1273,365,8.63954,71.8659
56,659,8.55042,-71.9203,-0.00572108,0.0427886,0.000294899,0.0427904,-0.00572287,1.56472,0.0306134,0.0206358,1280,365,8.55044,71.9203
63,659,8.50879,-71.9734,-0.00817199,0.0391704,0.000566454,0.0391771,-0.00817877,1.55883,0.0292283,0.0176266,1287,365,8.50874,71.9734
70,659,8.38672,-71.9635,-0.00968595,0.0362002,0.000455233,0.0362047,-0.00969047,1.56088,0.0279326,0.0181972,1294,365,8.38675,71.9635
77,659,8.24719,-71.9437,-0.00872788,0.0335686,0.000492228,0.0335744,-0.00873361,1.55916,0.0257918,0.0200361,1301,365,8.24723,71.9437
84,659,8.23682,-71.8361,-0.00737679,0.0299429,-0.000521596,0.0299501,-0.00738408,-1.55682,0.0228297,0.0145601,1308,365,8.23682,71.8361
91,659,8.15698,-71.7646,-0.00553902,0.0264513,-0.00216529,0.0265972,-0.00568491,-1.50352,0.019899,0.0121207,1315,365,8.15695,71.7647
98,659,8.05505,-71.6157,-0.00209434,0.0239412,-0.00464067,0.0247436,-0.00289678,-1.39958,0.0175413,0.00878873,1322,365,8.05503,71.6157
105,659,7.99963,-71.4263,0.00136513,0.0215419,-0.00659179,0.0235046,-0.00059751,-1.28141,0.0158726,0.011447,1329,365,7.99964,71.4263
112,659,7.91455,-71.2184,0.00499372,0.0194618,-0.00868215,0.0235287,0.000926829,-1.13273,0.0153862,0.0169825,1336,365,7.91461,71.2184
119,659,7.79114,-70.9797,0.00886082,0.0172477,-0.0109959,0.0248227,0.00128585,-0.967567,0.0161369,0.0189044,1343,365,7.79119,70.9797
126,659,7.71631,-70.6862,0.0124707,0.0155206,-0.0133028,0.0273856,0.000605751,-0.842466,0.0180585,0.0189481,1350,365,7.71632,70.6862
133,659,7.61707,-70.3975,0.015338,0.0138428,-0.015397,0.0300055,-0.000824689,-0.761139,0.0202841,0.0187981,1357,365,7.61711,70.3975
140,659,7.50378,-70.1911,0.0172627,0.0133353,-0.0170237,0.0324356,-0.00183756,-0.727977,0.0222616,0.0142115,1364,365,7.50376,70.1911
147,659,7.42578,-69.8956,0.0186465,0.0135832,-0.0179831,0.0342753,-0.00204557,-0.715468,0.0235617,0.0123576,1371,365,7.42577,69.8956
154,659,7.3103,-69.48,0.0191795,0.0142353,-0.0183285,0.0352018,-0.00178704,-0.718365,0.0240857,0.0139143,1378,365,7.31035,69.48
161,659,7.22913,-69.0504,0.0186327,0.0153835,-0.0180544,0.0351354,-0.00111927,-0.740527,0.0238055,0.0152085,1385,365,7.22915,69.0504
168,659,7.15857,-68.5995,0.0169442,0.0168863,-0.0173541,0.0342693,-0.000438856,-0.784564,0.0229939,0.0212929,1392,365,7.15857,68.5995
175,659,7.09326,-68.1867,0.0137943,0.0182505,-0.0154282,0.0316107,0.000434127,-0.857111,0.0209306,0.0438178,1399,365,7.09331,68.1867
182,659,6.91321,-67.8669,0,0,0,0,0,0,0,-1,1406,365,6.91325,67.8668
189,659,6.95227,-67.1298,0,0,0,0,0,0,0,-1,1413,365,6.95226,67.1298
196,659,2.41248,-13.4371,0,0,0,0,0,0,0,-1,1420,365,2.41243,13.4371
203,659,2.38623,-12.2163,0,0,0,0,0,0,0,-1,1427,365,2.38617,12.2163
210,659,2.20789,-13.9792,0,0,0,0,0,0,0,-1,1434,365,2.20794,13.9792
217,659,2.24121,-13.487,0,0,0,0,0,0,0,-1,1441,365,2.24116,13.487
224,659,2.3479,-15.2926,0,0,0,0,0,0,0,-1,1448,365,2.34793,15.2926
231,659,2.47974,-17.8629,0,0,0,0,0,0,0,-1,1455,365,2.47976,17.8628
238,659,3.57886,-21.1258,0,0,0,0,0,0,0,-1,1462,365,3.57889,21.1258
245,659,3.29883,-25.0283,0,0,0,0,0,0,0,-1,1469,365,3.29889,25.0283
252,659,2.81909,-24.1604,0,0,0,0,0,0,0,-1,1476,365,2.81905,24.1604
259,659,2.33069,-3.36703,0,0,0,0,0,0,0,-1,1483,365,2.33073,3.36702
266,659,3.40918,-35.2544,0,0,0,0,0,0,0,-1,1490,365,3.40913,35.2544
273,659,4.45557,-42.3683,0,0,0,0,0,0,0,-1,1497,365,4.45554,42.3683
280,659,4.87903,-41.4995,0,0,0,0,0,0,0,-1,1504,365,4.87898,41.4995
287,659,1.09851,-23.7787,0,0,0,0,0,0,0,-1,1511,365,1.09847,23.7787
294,659,0.115601,-24.0352,0,0,0,0,0,0,0,-1,1518,365,0.115612,24.0352
301,659,-1.21362,-22.6162,0,0,0,0,0,0,0,-1,1525,365,-1.21358,22.6162
308,659,-2.32605,-21.2737,0,0,0,0,0,0,0,-1,1532,365,-2.32606,21.2737
315,659,-3.69629,-19.8803,0,0,0,0,0,0,0,-1,1539,365,-3.69631,19.8803
322,659,-4.9646,-18.5258,0,0,0,0,0,0,0,-1,1546,365,-4.96464,18.5257
329,659,-7.67749,-23.0449,0,0,0,0,0,0,0,-1,1553,365,-7.67745,23.0449
336,659,-7.71436,-22.4188,0,0,0,0,0,0,0,-1,1560,365,-7.71432,22.4188
343,659,0,0,0,0,0,0,0,0,0,-1,1567,365,0,0
350,659,0,0,0,0,0,0,0,0,0,-1,1574,365,0,0
357,659,0,0,0,0,0,0,0,0,0,-1,1581,365,0,0
364,659,0,0,0,0,0,0,0,0,0,-1,1588,365,0,0
371,659,0,0,0,0,0,0,0,0,0,-1,1595,365,0,0
378,659,0,0,0,0,0,0,0,0,0,-1,1602,365,0,0
385,659,0,0,0,0,0,0,0,0,0,-1,1609,365,0,0
392,659,0,0,0,0,0,0,0,0,0,-1,1616,365,0,0
399,659,0,0,0,0,0,0,0,0,0,-1,1623,365,0,0
406,659,0,0,0,0,0,0,0,0,0,-1,1630,365,0,0
413,659,0,0,0,0,0,0,0,0,0,-1,1637,365,0,0
420,659,0,0,0,0,0,0,0,0,0,-1,1644,365,0,0
427,659,0,0,0,0,0,0,0,0,0,-1,1651,365,0,0
434,659,0,0,0,0,0,0,0,0,0,-1,1658,365,0,0
441,659,0,0,0,0,0,0,0,0,0,-1,1665,365,0,0
448,659,0,0,0,0,0,0,0,0,0,-1,1672,365,0,0
455,659,0,0,0,0,0,0,0,0,0,-1,1679,365,0,0
462,659,0,0,0,0,0,0,0,0,0,-1,1686,365,0,0
469,659,0,0,0,0,0,0,0,0,0,-1,1693,365,0,0
476,659,0,0,0,0,0,0,0,0,0,-1,1700,365,0,0
483,659,0,0,0,0,0,0,0,0,0,-1,1707,365,0,0
490,659,0,0,0,0,0,0,0,0,0,-1,1714,365,0,0
497,659,0,0,0,0,0,0,0,0,0,-1,1721,365,0,0
504,659,0,0,0,0,0,0,0,0,0,-1,1728,365,0,0
511,659,0,0,0,0,0,0,0,0,0,-1,1735,365,0,0
518,659,0,0,0,0,0,0,0,0,0,-1,1742,365,0,0
525,659,0,0,0,0,0,0,0,0,0,-1,1749,365,0,0
532,659,0,0,0,0,0,0,0,0,0,-1,1756,365,0,0
539,659,0,0,0,0,0,0,0,0,0,-1,1763,365,0,0
546,659,0,0,0,0,0,0,0,0,0,-1,1770,365,0,0
553,659,0,0,0,0,0,0,0,0,0,-1,1777,365,0,0
560,659,0,0,0,0,0,0,0,0,0,-1,1784,365,0,0
567,659,0,0,0,0,0,0,0,0,0,-1,1791,365,0,0
574,659,0,0,0,0,0,0,0,0,0,-1,1798,365,0,0
581,659,0,0,0,0,0,0,0,0,0,-1,1805,365,0,0
588,659,0,0,0,0,0,0,0,0,0,-1,1812,365,0,0
595,659,0,0,0,0,0,0,0,0,0,-1,1819,365,0,0
602,659,0,0,0,0,0,0,0,0,0,-1,1826,365,0,0
609,659,0,0,0,0,0,0,0,0,0,-1,1833,365,0,0
616,659,0,0,0,0,0,0,0,0,0,-1,1840,365,0,0
623,659,0,0,0,0,0,0,0,0,0,-1,1847,365,0,0
630,659,0,0,0,0,0,0,0,0,0,-1,1854,365,0,0
637,659,0,0,0,0,0,0,0,0,0,-1,1861,365,0,0
644,659,0,0,0,0,0,0,0,0,0,-1,1868,365,0,0
651,659,0,0,0,0,0,0,0,0,0,-1,1875,365,0,0
658,659,0,0,0,0,0,0,0,0,0,-1,1882,365,0,0
665,659,0,0,0,0,0,0,0,0,0,-1,1889,365,0,0
672,659,0,0,0,0,0,0,0,0,0,-1,1896,365,0,0
679,659,0,0,0,0,0,0,0,0,0,-1,1903,365,0,0
686,659,0,0,0,0,0,0,0,0,0,-1,1910,365,0,0
693,659,0,0,0,0,0,0,0,0,0,-1,1917,365,0,0
700,659,0,0,0,0,0,0,0,0,0,-1,1924,365,0,0
707,659,0,0,0,0,0,0,0,0,0,-1,1931,365,0,0
714,659,0,0,0,0,0,0,0,0,0,-1,1938,365,0,0
721,659,0,0,0,0,0,0,0,0,0,-1,1945,365,0,0
728,659,0,0,0,0,0,0,0,0,0,-1,1952,365,0,0
735,659,0,0,0,0,0,0,0,0,0,-1,1959,365,0,0
742,659,0,0,0,0,0,0,0,0,0,-1,1966,365,0,0
749,659,0,0,0,0,0,0,0,0,0,-1,1973,365,0,0
756,659,0,0,0,0,0,0,0,0,0,-1,1980,365,0,0
763,659,0,0,0,0,0,0,0,0,0,-1,1987,365,0,0
770,659,0,0,0,0,0,0,0,0,0,-1,1994,365,0,0
777,659,0,0,0,0,0,0,0,0,0,-1,2001,365,0,0
784,659,0,0,0,0,0,0,0,0,0,-1,2008,365,0,0
791,659,0,0,0,0,0,0,0,0,0,-1,2015,365,0,0
798,659,0,0,0,0,0,0,0,0,0,-1,2022,365,0,0
805,659,0,0,0,0,0,0,0,0,0,-1,2029,365,0,0
812,659,0,0,0,0,0,0,0,0,0,-1,2036,365,0,0
-700,652,0,0,0,0,0,0,0,0,0,-1,524,372,0,0
-693,652,0,0,0,0,0,0,0,0,0,-1,531,372,0,0
-686,652,0,0,0,0,0,0,0,0,0,-1,538,372,0,0
-679,652,0,0,0,0,0,0,0,0,0,-1,545,372,0,0
-672,652,0,0,0,0,0,0,0,0,0,-1,552,372,0,0
-665,652,0,0,0,0,0,0,0,0,0,-1,559,372,0,0
-658,652,0,0,0,0,0,0,0,0,0,-1,566,372,0,0
-651,652,0,0,0,0,0,0,0,0,0,-1,573,372,0,0
-644,652,0,0,0,0,0,0,0,0,0,-1,580,372,0,0
-637,652,0,0,0,0,0,0,0,0,0,-1,587,372,0,0
-630,652,0,0,0,0,0,0,0,0,0,-1,594,372,0,0
-623,652,0,0,0,0,0,0,0,0,0,-1,601,372,0,0
-616,652,0,0,0,0,0,0,0,0,0,-1,608,372,0,0
-609,652,0,0,0,0,0,0,0,0,0,-1,615,372,0,0
-602,652,0,0,0,0,0,0,0,0,0,-1,622,372,0,0
-595,652,0,0,0,0,0,0,0,0,0,-1,629,372,0,0
-588,652,0,0,0,0,0,0,0,0,0,-1,636,372,0,0
-581,652,0,0,0,0,0,0,0,0,0,-1,643,372,0,0
-574,652,0,0,0,0,0,0,0,0,0,-1,650,372,0,0
-567,652,0,0,0,0,0,0,0,0,0,-1,657,372,0,0
-560,652,0,0,0,0,0,0,0,0,0,-1,664,372,0,0
-553,652,0,0,0,0,0,0,0,0,0,-1,671,372,0,0
-546,652,0,0,0,0,0,0,0,0,0,-1,678,372,0,0
-539,652,0,0,0,0,0,0,0,0,0,-1,685,372,0,0
-532,652,0,0,0,0,0,0,0,0,0,-1,692,372,0,0
-525,652,0,0,0,0,0,0,0,0,0,-1,699,372,0,0
-518,652,0,0,0,0,0,0,0,0,0,-1,706,372,0,0
-511,652,0,0,0,0,0,0,0,0,0,-1,713,372,0,0
-504,652,0,0,0,0,0,0,0,0,0,-1,720,372,0,0
-497,652,0,0,0,0,0,0,0,0,0,-1,727,372,0,0
-490,652,0,0,0,0,0,0,0,0,0,-1,734,372,0,0
-483,652,0,0,0,0,0,0,0,0,0,-1,741,372,0,0
-476,652,0,0,0,0,0,0,0,0,0,-1,748,372,0,0
-469,652,0,0,0,0,0,0,0,0,0,-1,755,372,0,0
-462,652,0,0,0,0,0,0,0,0,0,-1,762,372,0,0
-455,652,0,0,0,0,0,0,0,0,0,-1,769,372,0,0
-448,652,0,0,0,0,0,0,0,0,0,-1,776,372,0,0
-441,652,0,0,0,0,0,0,0,0,0,-1,783,372,0,0
-434,652,0,0,0,0,0,0,0,0,0,-1,790,372,0,0
-427,652,0,0,0,0,0,0,0,0,0,-1,797,372,0,0
-420,652,0,0,0,0,0,0,0,0,0,-1,804,372,0,0
-413,652,0,0,0,0,0,0,0,0,0,-1,811,372,0,0
-406,652,0,0,0,0,0,0,0,0,0,-1,818,372,0,0
-399,652,0,0,0,0,0,0,0,0,0,-1,825,372,0,0
-392,652,0,0,0,0,0,0,0,0,0,-1,832,372,0,0
-385,652,0,0,0,0,0,0,0,0,0,-1,839,372,0,0
-378,652,0,0,0,0,0,0,0,0,0,-1,846,372,0,0
-371,652,0,0,0,0,0,0,0,0,0,-1,853,372,0,0
-364,652,0,0,0,0,0,0,0,0,0,-1,860,372,0,0
-357,652,0,0,0,0,0,0,0,0,0,-1,867,372,0,0
-350,652,0,0,0,0,0,0,0,0,0,-1,874,372,0,0
-343,652,0,0,0,0,0,0,0,0,0,-1,881,372,0,0
-336,652,0,0,0,0,0,0,0,0,0,-1,888,372,0,0
-329,652,0,0,0,0,0,0,0,0,0,-1,895,372,0,0
-322,652,0,0,0,0,0,0,0,0,0,-1,902,372,0,0
-315,652,0,0,0,0,0,0,0,0,0,-1,909,372,0,0
-308,652,0,0,0,0,0,0,0,0,0,-1,916,372,0,0
-301,652,0,0,0,0,0,0,0,0,0,-1,923,372,0,0
-294,652,0,0,0,0,0,0,0,0,0,-1,930,372,0,0
-287,652,0,0,0,0,0,0,0,0,0,-1,937,372,0,0
-280,652,0,0,0,0,0,0,0,0,0,-1,944,372,0,0
-273,652,0,0,0,0,0,0,0,0,0,-1,951,372,0,0
-266,652,0,0,0,0,0,0,0,0,0,-1,958,372,0,0
-259,652,0,0,0,0,0,0,0,0,0,-1,965,372,0,0
-252,652,0,0,0,0,0,0,0,0,0,-1,972,372,0,0
-245,652,0,0,0,0,0,0,0,0,0,-1,979,372,0,0
-238,652,0,0,0,0,0,0,0,0,0,-1,986,372,0,0
-231,652,8.79358,-27.1656,0,0,0,0,0,0,0,-1,993,372,8.79357,27.1656
-224,652,8.84552,-27.675,0,0,0,0,0,0,0,-1,1000,372,8.84555,27.675
-217,652,9.03113,-27.7474,0,0,0,0,0,0,0,-1,1007,372,9.0311,27.7474
-210,652,9.72803,-30.4624,0,0,0,0,0,0,0,-1,1014,372,9.72805,30.4624
-203,652,7.2677,-26.0732,0,0,0,0,0,0,0,-1,1021,372,7.26775,26.0732
-196,652,5.90686,-26.957,0,0,0,0,0,0,0,-1,1028,372,5.9068,26.957
-189,652,6.21326,-28.3035,0,0,0,0,0,0,0,-1,1035,372,6.21331,28.3035
-182,652,6.45068,-29.9377,0,0,0,0,0,0,0,-1,1042,372,6.45074,29.9377
-175,652,6.72559,-31.6948,0,0,0,0,0,0,0,-1,1049,372,6.72563,31.6948
-168,652,7.08533,-32.8669,0,0,0,0,0,0,0,-1,1056,372,7.08532,32.8669
-161,652,7.85291,-37.3545,0,0,0,0,0,0,0,-1,1063,372,7.85294,37.3545
-154,652,7.54639,-37.9586,0,0,0,0,0,0,0,-1,1070,372,7.54642,37.9586
-147,652,7.85571,-42.3712,0,0,0,0,0,0,0,-1,1077,372,7.8557,42.3712
-140,652,5.6842,-33.9781,0,0,0,0,0,0,0,-1,1084,372,5.68421,33.9781
-133,652,6.3009,-35.2887,0,0,0,0,0,0,0,-1,1091,372,6.30093,35.2887
-126,652,5.86841,-37.0981,0,0,0,0,0,0,0,-1,1098,372,5.86845,37.0981
-119,652,8.18018,-49.52,0,0,0,0,0,0,0,-1,1105,372,8.18015,49.52
-112,652,7.81982,-48.4793,0,0,0,0,0,0,0,-1,1112,372,7.81981,48.4793
-105,652,6.63855,-39.9965,0,0,0,0,0,0,0,-1,1119,372,6.63852,39.9965
-98,652,5.84302,-35.2455,0,0,0,0,0,0,0,-1,1126,372,5.84307,35.2455
-91,652,5.66296,-32.9003,0,0,0,0,0,0,0,-1,1133,372,5.66297,32.9003
-84,652,5.46057,-34.9186,0,0,0,0,0,0,0,-1,1140,372,5.46057,34.9186
-77,652,9.83972,-66.2632,0,0,0,0,0,0,0,-1,1147,372,9.83968,66.2632
-70,652,9.776,-66.9438,0,0,0,0,0,0,0,-1,1154,372,9.77601,66.9438
-63,652,9.6897,-67.4469,0,0,0,0,0,0,0,-1,1161,372,9.68973,67.4469
-56,652,9.53687,-67.9586,0,0,0,0,0,0,0,-1,1168,372,9.5369,67.9586
-49,652,9.45862,-68.4268,-0.0109826,0.0125584,-0.00308365,0.0129556,-0.0113798,-1.44268,0.0140599,0.0386175,1175,372,9.45865,68.4267
-42,652,9.39307,-68.8029,-0.00863372,0.0180622,-0.00261732,0.0183164,-0.0088879,-1.47398,0.0160178,0.0136909,1182,372,9.39304,68.803
-35,652,9.33411,-69.198,-0.00631217,0.0223938,-0.00233478,0.0225824,-0.00650083,-1.49017,0.0176261,0.0112017,1189,372,9.33414,69.198
-28,652,9.26062,-69.5883,-0.00515951,0.024987,-0.00217889,0.0251437,-0.00531618,-1.49902,0.0187869,0.00898277,1196,372,9.26064,69.5883
-21,652,9.17664,-69.9688,-0.00283417,0.0290756,-0.0024466,0.0292621,-0.00302066,-1.49472,0.0205889,0.00959886,1203,372,9.17667,69.9688
-14,652,9.11023,-70.2871,-0.000575856,0.0324356,-0.00247168,0.0326197,-0.000759892,-1.49648,0.0220041,0.0119453,1210,372,9.11026,70.2871
-7,652,9.02283,-70.6037,0.000844459,0.0348612,-0.00247382,0.0350401,0.000665497,-1.49858,0.0231414,0.0149728,1217,372,9.02277,70.6037
0,652,8.95593,-70.8491,0.00213853,0.0367093,-0.00253281,0.0368939,0.00195395,-1.49805,0.0239712,0.0142751,1224,372,8.95588,70.8491
7,652,8.91724,-71.0107,0.00289251,0.037657,-0.00250082,0.037836,0.00271353,-1.49935,0.0243699,0.0145227,1231,372,8.91722,71.0107
14,652,8.8833,-71.239,0.00295657,0.0377686,-0.00237132,0.0379294,0.00279579,-1.5031,0.0244078,0.0125386,1238,372,8.88326,71.239
21,652,8.79114,-71.4669,0.00244351,0.0374035,-0.00202975,0.037521,0.00232605,-1.513,0.0242758,0.0117176,1245,372,8.79111,71.4669
28,652,8.72241,-71.6623,0.00170088,0.0368176,-0.00161401,0.0368916,0.00162686,-1.52496,0.0240705,0.0109419,1252,372,8.72241,71.6623
35,652,8.67407,-71.7817,0.00118959,0.0355403,-0.00113975,0.0355781,0.00115182,-1.53767,0.0233442,0.010884,1259,372,8.67412,71.7817
42,652,8.6272,-71.8646,-2.43704e-05,0.0339398,-0.000573821,0.0339495,-3.40641e-05,-1.55391,0.0226443,0.0116109,1266,372,8.62722,71.8646
49,652,8.59961,-71.9499,-0.00153018,0.0321061,-0.000184125,0.0321072,-0.00153119,-1.56532,0.021933,0.0144144,1273,372,8.59955,71.9499
56,652,8.55396,-71.988,-0.00297089,0.0304027,9.89483e-05,0.030403,-0.00297118,1.56783,0.0213282,0.0162712,1280,372,8.5539,71.988
63,652,8.50684,-72.0317,-0.00442848,0.0281917,0.000381511,0.0281962,-0.00443294,1.5591,0.020436,0.0191535,1287,372,8.50681,72.0317
70,652,8.40112,-72.0068,-0.00528544,0.0264419,0.000464163,0.0264487,-0.00529223,1.55617,0.0196357,0.0170142,1294,372,8.40109,72.0068
77,652,8.28088,-72.0027,-0.00448292,0.0248103,0.000701023,0.0248271,-0.00449968,1.54688,0.0182373,0.0169092,1301,372,8.28091,72.0027
84,652,8.30457,-71.9271,-0.00349187,0.0224085,0.000105651,0.0224089,-0.0034923,1.56672,0.0162291,0.0150384,1308,372,8.30458,71.9271
91,652,8.23474,-71.8908,-0.00234453,0.0199873,-0.000965266,0.0200289,-0.00238618,-1.52768,0.0142149,0.0181092,1315,372,8.23469,71.8908
98,652,8.19177,-71.7474,-0.000102958,0.0183097,-0.00263963,0.0186807,-0.000473901,-1.43118,0.0126147,0.0145804,1322,372,8.19179,71.7474
105,652,8.15027,-71.5438,0.00213487,0.0167293,-0.00388424,0.0176987,0.00116549,-1.32622,0.0114305,0.0134001,1329,372,8.15026,71.5438
112,652,8.07898,-71.3314,0.00451426,0.0154017,-0.00529719,0.0175537,0.00236231,-1.18492,0.0109999,0.0114685,1336,372,8.07892,71.3314
119,652,8.00098,-71.1034,0.0070604,0.0139071,-0.00689562,0.0181824,0.00278512,-1.0158,0.0113081,0.0117887,1343,372,8.00095,71.1034
126,652,7.9397,-70.8231,0.00939507,0.0127591,-0.00848706,0.0197292,0.00242496,-0.883224,0.0124236,0.013906,1350,372,7.93967,70.8231
133,652,7.85767,-70.5309,0.0111536,0.0116153,-0.00991679,0.0213039,0.00146496,-0.797035,0.0137403,0.0137382,1357,372,7.85771,70.5309
140,652,7.78833,-70.2627,0.0119222,0.0115106,-0.0108838,0.0226021,0.000830691,-0.775943,0.014799,0.0101294,1364,372,7.7883,70.2627
147,652,7.74976,-69.9525,0.0124407,0.0121018,-0.0113813,0.0236538,0.000888671,-0.777955,0.0154815,0.0102891,1371,372,7.74975,69.9525
154,652,7.68896,-69.5803,0.0124386,0.0129223,-0.0113267,0.0240097,0.00135118,-0.796073,0.0155756,0.0101527,1378,372,7.68897,69.5803
161,652,7.58887,-69.1667,0.0116081,0.0140124,-0.0106599,0.0235377,0.00208277,-0.841546,0.0150457,0.0118762,1385,372,7.58885,69.1667
168,652,7.50732,-68.7216,0.00981422,0.0153324,-0.00956584,0.0225291,0.00261752,-0.925803,0.0142274,0.013621,1392,372,7.5073,68.7216
175,652,7.42322,-68.2851,0.00708148,0.0164079,-0.0076942,0.0207417,0.00274769,-1.05783,0.013009,0.0140337,1399,372,7.42317,68.2851
182,652,7.33142,-67.878,0.00242899,0.0181893,-0.00611776,0.0202853,0.000332979,-1.24072,0.0134139,0.0203279,1406,372,7.33137,67.878
189,652,7.30908,-67.3923,-0.00170667,0.0199882,-0.0023409,0.0202379,-0.00195638,-1.46452,0.0141891,0.0329152,1413,372,7.30904,67.3923
196,652,7.2417,-66.8379,0,0,0,0,0,0,0,-1,1420,372,7.24171,66.8379
203,652,7.12769,-66.3225,0,0,0,0,0,0,0,-1,1427,372,7.12774,66.3225
210,652,7.15918,-65.613,0,0,0,0,0,0,0,-1,1434,372,7.15924,65.613
217,652,6.58093,-61.7512,0,0,0,0,0,0,0,-1,1441,372,6.58095,61.7512
224,652,3.63794,-31.2791,0,0,0,0,0,0,0,-1,1448,372,3.63799,31.2791
231,652,3.83936,-30.4812,0,0,0,0,0,0,0,-1,1455,372,3.8393,30.4812
238,652,4.42358,-36.4103,0,0,0,0,0,0,0,-1,1462,372,4.4236,36.4103
245,652,4.53296,-41.8512,0,0,0,0,0,0,0,-1,1469,372,4.5329,41.8512
252,652,5.00793,-47.7065,0,0,0,0,0,0,0,-1,1476,372,5.00791,47.7064
259,652,3.44922,-31.2655,0,0,0,0,0,0,0,-1,1483,372,3.44921,31.2655
266,652,5.5387,-50.3915,0,0,0,0,0,0,0,-1,1490,372,5.53875,50.3915
273,652,5.76855,-57.8665,0,0,0,0,0,0,0,-1,1497,372,5.76858,57.8665
280,652,4.05066,-24.6993,0,0,0,0,0,0,0,-1,1504,372,4.05066,24.6993
287,652,3.0979,-23.6951,0,0,0,0,0,0,0,-1,1511,372,3.09796,23.6951
294,652,2.06946,-24.1711,0,0,0,0,0,0,0,-1,1518,372,2.0694,24.1711
301,652,0.770264,-23.0697,0,0,0,0,0,0,0,-1,1525,372,0.770217,23.0697
308,652,-0.706299,-22.1083,0,0,0,0,0,0,0,-1,1532,372,-0.706291,22.1083
315,652,-1.65198,-21.8662,0,0,0,0,0,0,0,-1,1539,372,-1.65204,21.8662
322,652,-2.66101,-21.728,0,0,0,0,0,0,0,-1,1546,372,-2.66097,21.728
329,652,-7.12329,-21.7065,0,0,0,0,0,0,0,-1,1553,372,-7.12334,21.7065
336,652,-3.56519,-22.3688,0,0,0,0,0,0,0,-1,1560,372,-3.56517,22.3688
343,652,-3.58069,-21.9185,0,0,0,0,0,0,0,-1,1567,372,-3.58069,21.9185
350,652,5.28394,-25.6715,0,0,0,0,0,0,0,-1,1574,372,5.28393,25.6715
357,652,0,0,0,0,0,0,0,0,0,-1,1581,372,0,0
364,652,0,0,0,0,0,0,0,0,0,-1,1588,372,0,0
371,652,0,0,0,0,0,0,0,0,0,-1,1595,372,0,0
378,652,0,0,0,0,0,0,0,0,0,-1,1602,372,0,0
385,652,0,0,0,0,0,0,0,0,0,-1,1609,372,0,0
392,652,0,0,0,0,0,0,0,0,0,-1,1616,372,0,0
399,652,0,0,0,0,0,0,0,0,0,-1,1623,372,0,0
406,652,0,0,0,0,0,0,0,0,0,-1,1630,372,0,0
413,652,0,0,0,0,0,0,0,0,0,-1,1637,372,0,0
420,652,0,0,0,0,0,0,0,0,0,-1,1644,372,0,0
427,652,0,0,0,0,0,0,0,0,0,-1,1651,372,0,0
434,652,0,0,0,0,0,0,0,0,0,-1,1658,372,0,0
441,652,0,0,0,0,0,0,0,0,0,-1,1665,372,0,0
448,652,0,0,0,0,0,0,0,0,0,-1,1672,372,0,0
455,652,0,0,0,0,0,0,0,0,0,-1,1679,372,0,0
462,652,0,0,0,0,0,0,0,0,0,-1,1686,372,0,0
469,652,0,0,0,0,0,0,0,0,0,-1,1693,372,0,0
476,652,0,0,0,0,0,0,0,0,0,-1,1700,372,0,0
483,652,0,0,0,0,0,0,0,0,0,-1,1707,372,0,0
490,652,0,0,0,0,0,0,0,0,0,-1,1714,372,0,0
497,652,0,0,0,0,0,0,0,0,0,-1,1721,372,0,0
504,652,0,0,0,0,0,0,0,0,0,-1,1728,372,0,0
511,652,0,0,0,0,0,0,0,0,0,-1,1735,372,0,0
518,652,0,0,0,0,0,0,0,0,0,-1,1742,372,0,0
525,652,0,0,0,0,0,0,0,0,0,-1,1749,372,0,0
532,652,0,0,0,0,0,0,0,0,0,-1,1756,372,0,0
539,652,0,0,0,0,0,0,0,0,0,-1,1763,372,0,0
546,652,0,0,0,0,0,0,0,0,0,-1,1770,372,0,0
553,652,0,0,0,0,0,0,0,0,0,-1,1777,372,0,0
560,652,0,0,0,0,0,0,0,0,0,-1,1784,372,0,0
567,652,0,0,0,0,0,0,0,0,0,-1,1791,372,0,0
574,652,0,0,0,0,0,0,0,0,0,-1,1798,372,0,0
581,652,0,0,0,0,0,0,0,0,0,-1,1805,372,0,0
588,652,0,0,0,0,0,0,0,0,0,-1,1812,372,0,0
595,652,0,0,0,0,0,0,0,0,0,-1,1819,372,0,0
602,652,0,0,0,0,0,0,0,0,0,-1,1826,372,0,0
609,652,0,0,0,0,0,0,0,0,0,-1,1833,372,0,0
616,652,0,0,0,0,0,0,0,0,0,-1,1840,372,0,0
623,652,0,0,0,0,0,0,0,0,0,-1,1847,372,0,0
630,652,0,0,0,0,0,0,0,0,0,-1,1854,372,0,0
637,652,0,0,0,0,0,0,0,0,0,-1,1861,372,0,0
644,652,0,0,0,0,0,0,0,0,0,-1,1868,372,0,0
651,652,0,0,0,0,0,0,0,0,0,-1,1875,372,0,0
658,652,0,0,0,0,0,0,0,0,0,-1,1882,372,0,0
665,652,0,0,0,0,0,0,0,0,0,-1,1889,372,0,0
672,652,0,0,0,0,0,0,0,0,0,-1,1896,372,0,0
679,652,0,0,0,0,0,0,0,0,0,-1,1903,372,0,0
686,652,0,0,0,0,0,0,0,0,0,-1,1910,372,0,0
693,652,0,0,0,0,0,0,0,0,0,-1,1917,372,0,0
700,652,0,0,0,0,0,0,0,0,0,-1,1924,372,0,0
707,652,0,0,0,0,0,0,0,0,0,-1,1931,372,0,0
714,652,0,0,0,0,0,0,0,0,0,-1,1938,372,0,0
721,652,0,0,0,0,0,0,0,0,0,-1,1945,372,0,0
728,652,0,0,0,0,0,0,0,0,0,-1,1952,372,0,0
735,652,0,0,0,0,0,0,0,0,0,-1,1959,372,0,0
742,652,0,0,0,0,0,0,0,0,0,-1,1966,372,0,0
749,652,0,0,0,0,0,0,0,0,0,-1,1973,372,0,0
756,652,0,0,0,0,0,0,0,0,0,-1,1980,372,0,0
763,652,0,0,0,0,0,0,0,0,0,-1,1987,372,0,0
770,652,0,0,0,0,0,0,0,0,0,-1,1994,372,0,0
777,652,0,0,0,0,0,0,0,0,0,-1,2001,372,0,0
784,652,0,0,0,0,0,0,0,0,0,-1,2008,372,0,0
791,652,0,0,0,0,0,0,0,0,0,-1,2015,372,0,0
798,652,0,0,0,0,0,0,0,0,0,-1,2022,372,0,0
805,652,0,0,0,0,0,0,0,0,0,-1,2029,372,0,0
812,652,0,0,0,0,0,0,0,0,0,-1,2036,372,0,0
-700,645,0,0,0,0,0,0,0,0,0,-1,524,379,0,0
-693,645,0,0,0,0,0,0,0,0,0,-1,531,379,0,0
-686,645,0,0,0,0,0,0,0,0,0,-1,538,379,0,0
-679,645,0,0,0,0,0,0,0,0,0,-1,545,379,0,0
-672,645,0,0,0,0,0,0,0,0,0,-1,552,379,0,0
-665,645,0,0,0,0,0,0,0,0,0,-1,559,379,0,0
-658,645,0,0,0,0,0,0,0,0,0,-1,566,379,0,0
-651,645,0,0,0,0,0,0,0,0,0,-1,573,379,0,0
-644,645,0,0,0,0,0,0,0,0,0,-1,580,379,0,0
-637,645,0,0,0,0,0,0,0,0,0,-1,587,379,0,0
-630,645,0,0,0,0,0,0,0,0,0,-1,594,379,0,0
-623,645,0,0,0,0,0,0,0,0,0,-1,601,379,0,0
-616,645,0,0,0,0,0,0,0,0,0,-1,608,379,0,0
-609,645,0,0,0,0,0,0,0,0,0,-1,615,379,0,0
-602,645,0,0,0,0,0,0,0,0,0,-1,622,379,0,0
-595,645,0,0,0,0,0,0,0,0,0,-1,629,379,0,0
-588,645,0,0,0,0,0,0,0,0,0,-1,636,379,0,0
-581,645,0,0,0,0,0,0,0,0,0,-1,643,379,0,0
-574,645,0,0,0,0,0,0,0,0,0,-1,650,379,0,0
-567,645,0,0,0,0,0,0,0,0,0,-1,657,379,0,0
-560,645,0,0,0,0,0,0,0,0,0,-1,664,379,0,0
-553,645,0,0,0,0,0,0,0,0,0,-1,671,379,0,0
-546,645,0,0,0,0,0,0,0,0,0,-1,678,379,0,0
-539,645,0,0,0,0,0,0,0,0,0,-1,685,379,0,0
-532,645,0,0,0,0,0,0,0,0,0,-1,692,379,0,0
-525,645,0,0,0,0,0,0,0,0,0,-1,699,379,0,0
-518,645,0,0,0,0,0,0,0,0,0,-1,706,379,0,0
-511,645,0,0,0,0,0,0,0,0,0,-1,713,379,0,0
-504,645,0,0,0,0,0,0,0,0,0,-1,720,379,0,0
-497,645,0,0,0,0,0,0,0,0,0,-1,727,379,0,0
-490,645,0,0,0,0,0,0,0,0,0,-1,734,379,0,0
-483,645,0,0,0,0,0,0,0,0,0,-1,741,379,0,0
-476,645,0,0,0,0,0,0,0,0,0,-1,748,379,0,0
-469,645,0,0,0,0,0,0,0,0,0,-1,755,379,0,0
-462,645,0,0,0,0,0,0,0,0,0,-1,762,379,0,0
-455,645,0,0,0,0,0,0,0,0,0,-1,769,379,0,0
-448,645,0,0,0,0,0,0,0,0,0,-1,776,379,0,0
-441,645,0,0,0,0,0,0,0,0,0,-1,783,379,0,0
-434,645,0,0,0,0,0,0,0,0,0,-1,790,379,0,0
-427,645,0,0,0,0,0,0,0,0,0,-1,797,379,0,0
-420,645,0,0,0,0,0,0,0,0,0,-1,804,379,0,0
-413,645,0,0,0,0,0,0,0,0,0,-1,811,379,0,0
-406,645,0,0,0,0,0,0,0,0,0,-1,818,379,0,0
-399,645,0,0,0,0,0,0,0,0,0,-1,825,379,0,0
-392,645,0,0,0,0,0,0,0,0,0,-1,832,379,0,0
-385,645,0,0,0,0,0,0,0,0,0,-1,839,379,0,0
-378,645,0,0,0,0,0,0,0,0,0,-1,846,379,0,0
-371,645,0,0,0,0,0,0,0,0,0,-1,853,379,0,0
-364,645,0,0,0,0,0,0,0,0,0,-1,860,379,0,0
-357,645,0,0,0,0,0,0,0,0,0,-1,867,379,0,0
-350,645,0,0,0,0,0,0,0,0,0,-1,874,379,0,0
-343,645,0,0,0,0,0,0,0,0,0,-1,881,379,0,0
-336,645,0,0,0,0,0,0,0,0,0,-1,888,379,0,0
-329,645,0,0,0,0,0,0,0,0,0,-1,895,379,0,0
-322,645,0,0,0,0,0,0,0,0,0,-1,902,379,0,0
-315,645,0,0,0,0,0,0,0,0,0,-1,909,379,0,0
-308,645,0,0,0,0,0,0,0,0,0,-1,916,379,0,0
-301,645,0,0,0,0,0,0,0,0,0,-1,923,379,0,0
-294,645,0,0,0,0,0,0,0,0,0,-1,930,379,0,0
-287,645,0,0,0,0,0,0,0,0,0,-1,937,379,0,0
-280,645,0,0,0,0,0,0,0,0,0,-1,944,379,0,0
-273,645,0,0,0,0,0,0,0,0,0,-1,951,379,0,0
-266,645,0,0,0,0,0,0,0,0,0,-1,958,379,0,0
-259,645,0,0,0,0,0,0,0,0,0,-1,965,379,0,0
-252,645,2.95691,-26.9133,0,0,0,0,0,0,0,-1,972,379,2.9569,26.9133
-245,645,2.73169,-27.0215,0,0,0,0,0,0,0,-1,979,379,2.73172,27.0215
-238,645,2.6665,-26.9464,0,0,0,0,0,0,0,-1,986,379,2.66649,26.9464
-231,645,7.26807,-29.1054,0,0,0,0,0,0,0,-1,993,379,7.26806,29.1054
-224,645,7.69073,-29.5737,0,0,0,0,0,0,0,-1,1000,379,7.69071,29.5737
-217,645,8.65485,-33.4136,0,0,0,0,0,0,0,-1,1007,379,8.65487,33.4136
-210,645,9.21594,-32.5157,0,0,0,0,0,0,0,-1,1014,379,9.21591,32.5156
-203,645,9.77698,-31.6176,0,0,0,0,0,0,0,-1,1021,379,9.77696,31.6177
-196,645,10.2664,-29.7741,0,0,0,0,0,0,0,-1,1028,379,10.2664,29.7741
-189,645,5.88062,-28.2191,0,0,0,0,0,0,0,-1,1035,379,5.88062,28.2191
-182,645,6.34167,-29.2525,0,0,0,0,0,0,0,-1,1042,379,6.3417,29.2525
-175,645,6.36462,-35.5586,0,0,0,0,0,0,0,-1,1049,379,6.3646,35.5586
-168,645,7.19116,-39.5785,0,0,0,0,0,0,0,-1,1056,379,7.19115,39.5785
-161,645,7.22083,-37.6093,0,0,0,0,0,0,0,-1,1063,379,7.22085,37.6094
-154,645,7.42102,-41.6806,0,0,0,0,0,0,0,-1,1070,379,7.42105,41.6806
-147,645,8.89526,-50.6488,0,0,0,0,0,0,0,-1,1077,379,8.89521,50.6488
-140,645,9.89453,-60.1896,0,0,0,0,0,0,0,-1,1084,379,9.89456,60.1896
-133,645,9.99402,-61.2497,0,0,0,0,0,0,0,-1,1091,379,9.99399,61.2497
-126,645,10.098,-61.7107,0,0,0,0,0,0,0,-1,1098,379,10.0981,61.7107
-119,645,9.84351,-62.4427,0,0,0,0,0,0,0,-1,1105,379,9.84356,62.4427
-112,645,9.70276,-63.394,0,0,0,0,0,0,0,-1,1112,379,9.70278,63.3941
-105,645,9.62195,-64.1785,0,0,0,0,0,0,0,-1,1119,379,9.62191,64.1785
-98,645,9.52747,-64.8004,0,0,0,0,0,0,0,-1,1126,379,9.52741,64.8004
-91,645,9.39221,-65.4291,0,0,0,0,0,0,0,-1,1133,379,9.3922,65.4291
-84,645,9.33899,-65.999,0,0,0,0,0,0,0,-1,1140,379,9.33899,65.999
-77,645,9.39209,-66.5025,-0.00822982,0.0059886,-0.00294134,0.00657305,-0.00881426,-1.37465,0.00891523,0.0446632,1147,379,9.39214,66.5025
-70,645,9.27319,-66.9991,-0.00828679,0.00659425,-0.00261634,0.00704085,-0.00873338,-1.40173,0.00912471,0.0158884,1154,379,9.27322,66.9991
-63,645,9.21899,-67.4857,-0.00822668,0.00759104,-0.00252315,0.00798377,-0.00861941,-1.41639,0.00958819,0.0123603,1161,379,9.21905,67.4857
-56,645,9.1416,-67.9345,-0.0079399,0.00856629,-0.00252223,0.0089431,-0.00831671,-1.4225,0.00996714,0.014424,1168,379,9.14162,67.9345
-49,645,9.07446,-68.4165,-0.00756106,0.00917042,-0.00236379,0.00949796,-0.00788859,-1.43311,0.0100525,0.0118684,1175,379,9.07449,68.4165
-42,645,9,-68.8307,-0.00651374,0.0113345,-0.00187814,0.01153,-0.00670923,-1.46708,0.0106523,0.0112973,1182,379,8.99997,68.8307
-35,645,8.94421,-69.2655,-0.00538652,0.0134599,-0.00154772,0.0135861,-0.00551278,-1.4894,0.0113504,0.0118226,1189,379,8.94426,69.2655
-28,645,8.8811,-69.6807,-0.00465343,0.0148184,-0.00135236,0.0149119,-0.0047469,-1.50179,0.011845,0.00993615,1196,379,8.88111,69.6807
-21,645,8.82605,-70.0144,-0.00319471,0.0170894,-0.00141382,0.0171875,-0.00329278,-1.50154,0.012699,0.0117234,1203,379,8.82609,70.0144
-14,645,8.80066,-70.3559,-0.00175126,0.0190124,-0.00135008,0.0190998,-0.00183867,-1.50614,0.0133883,0.010925,1210,379,8.8006,70.3559
-7,645,8.77832,-70.6857,-0.000771989,0.0203815,-0.00131157,0.0204625,-0.000853,-1.50911,0.0139347,0.0148647,1217,379,8.77831,70.6857
0,645,8.71948,-70.901,0.000155053,0.0214273,-0.00135417,0.0215131,6.91935e-05,-1.50748,0.0143191,0.0280822,1224,379,8.71943,70.901
7,645,8.67932,-71.0983,0.000851485,0.0220605,-0.00137556,0.0221493,0.00076264,-1.5063,0.0145187,0.0188326,1231,379,8.67933,71.0983
14,645,8.64526,-71.3065,0.00111753,0.0222349,-0.00134973,0.0223208,0.00103162,-1.50723,0.0145489,0.0176399,1238,379,8.64521,71.3065
21,645,8.59485,-71.5353,0.000957395,0.0221714,-0.00119053,0.022238,0.000890793,-1.51491,0.0145375,0.0119396,1245,379,8.59482,71.5353
28,645,8.58069,-71.7077,0.000711409,0.0220732,-0.00103746,0.0221235,0.000661142,-1.52238,0.0145336,0.0102662,1252,379,8.58063,71.7077
35,645,8.55005,-71.8433,0.00063737,0.0215057,-0.000828488,0.0215386,0.000604531,-1.53118,0.0141619,0.00955567,1259,379,8.5501,71.8433
42,645,8.52368,-71.9504,0.000141482,0.0208372,-0.000498784,0.0208492,0.000129469,-1.54671,0.0138565,0.0093603,1266,379,8.52374,71.9504
49,645,8.53662,-72.0097,-0.000538074,0.0200856,-0.000212898,0.0200878,-0.000540271,-1.56047,0.0135755,0.0129074,1273,379,8.53668,72.0097
56,645,8.52246,-72.0388,-0.00125969,0.0194193,1.29467e-06,0.0194193,-0.00125969,1.57073,0.0133859,0.0132471,1280,379,8.52245,72.0387
63,645,8.49695,-72.0869,-0.00196462,0.0184801,0.000240325,0.0184829,-0.00196745,1.55904,0.0130274,0.0124259,1287,379,8.49689,72.0869
70,645,8.42188,-72.0887,-0.00236839,0.0177387,0.00042548,0.0177477,-0.00237739,1.54965,0.0126986,0.016627,1294,379,8.42192,72.0888
77,645,8.38025,-72.0679,-0.00175753,0.0170325,0.000827559,0.0170689,-0.00179391,1.52687,0.0120219,0.0199121,1301,379,8.38027,72.0679
84,645,8.39465,-71.9739,-0.00104491,0.0157278,0.00061431,0.0157502,-0.00106738,1.53424,0.0108734,0.0151209,1308,379,8.3946,71.9739
91,645,8.3186,-71.911,-0.000311299,0.0142318,1.44006e-05,0.0142318,-0.000311313,1.56981,0.00959334,0.0173919,1315,379,8.31863,71.911
98,645,8.29639,-71.7719,0.0010948,0.013238,-0.000996015,0.0133192,0.00101364,-1.4895,0.00856159,0.0156028,1322,379,8.29633,71.7719
105,645,8.28748,-71.5745,0.00247774,0.0123145,-0.00165996,0.012587,0.00220517,-1.40805,0.00776142,0.0124122,1329,379,8.28746,71.5745
112,645,8.23865,-71.3756,0.00385239,0.0115466,-0.00248584,0.0122799,0.00311915,-1.28396,0.00737027,0.0104453,1336,379,8.23862,71.3756
119,645,8.2074,-71.1568,0.00530179,0.0106438,-0.00345484,0.0123397,0.00360585,-1.11446,0.00732652,0.00990239,1343,379,8.20741,71.1568
126,645,8.16736,-70.8876,0.00660681,0.00993368,-0.00444924,0.0130203,0.00352022,-0.964288,0.00777704,0.0123211,1350,379,8.16731,70.8876
133,645,8.12585,-70.5852,0.00740028,0.009217,-0.00528693,0.013673,0.00294425,-0.870474,0.00830967,0.013203,1357,379,8.12581,70.5852
140,645,8.08337,-70.3146,0.00748636,0.00928592,-0.00582892,0.0142841,0.00248818,-0.861976,0.00881124,0.0128039,1364,379,8.08335,70.3146
147,645,8.0564,-69.9968,0.00748976,0.00983415,-0.00610673,0.0148802,0.00244374,-0.880221,0.00921419,0.0141392,1371,379,8.05639,69.9968
154,645,8.04736,-69.6316,0.00724061,0.0105457,-0.00597697,0.0150944,0.00269193,-0.920271,0.00929643,0.0127462,1378,379,8.04731,69.6316
161,645,7.96863,-69.2214,0.00650542,0.0114213,-0.00538529,0.0148831,0.00304367,-0.999488,0.00907917,0.0151955,1385,379,7.96867,69.2214
168,645,7.89136,-68.8064,0.00515171,0.0124067,-0.00451845,0.0145736,0.0029848,-1.12363,0.00888943,0.0168672,1392,379,7.89137,68.8064
175,645,7.86951,-68.3943,0.00330531,0.0131757,-0.00322134,0.014134,0.00234702,-1.28165,0.00874591,0.0147021,1399,379,7.86947,68.3942
182,645,7.78271,-67.9444,0.000325722,0.0144535,-0.00220816,0.0147906,-1.13668e-05,-1.41931,0.0098642,0.0115731,1406,379,7.78271,67.9444
189,645,7.71313,-67.4148,-0.00211208,0.0155186,0.000134528,0.0155197,-0.00211311,1.56317,0.011118,0.0121498,1413,379,7.71309,67.4148
196,645,7.63428,-66.9502,-0.00351728,0.0166967,0.00274562,0.017063,-0.00388358,1.43817,0.0128667,0.0120807,1420,379,7.63434,66.9502
203,645,7.56812,-66.3925,-0.00581243,0.0161332,0.00631808,0.0178222,-0.0075014,1.30958,0.0150199,0.0130803,1427,379,7.56806,66.3925
210,645,7.56726,-65.7106,-0.00581742,0.0152166,0.00661449,0.0171238,-0.00772454,1.29009,0.0146843,0.0233802,1434,379,7.5672,65.7106
217,645,7.57739,-65.0494,0,0,0,0,0,0,0,-1,1441,379,7.57745,65.0494
224,645,7.35815,-64.6421,0,0,0,0,0,0,0,-1,1448,379,7.35819,64.6421
231,645,7.24402,-63.9741,0,0,0,0,0,0,0,-1,1455,379,7.24398,63.9741
238,645,7.13806,-63.3232,0,0,0,0,0,0,0,-1,1462,379,7.13809,63.3231
245,645,7.15527,-62.4582,0,0,0,0,0,0,0,-1,1469,379,7.15529,62.4582
252,645,6.27942,-52.6305,0,0,0,0,0,0,0,-1,1476,379,6.27947,52.6305
259,645,6.5321,-54.0518,0,0,0,0,0,0,0,-1,1483,379,6.53211,54.0518
266,645,6.76563,-60.6017,0,0,0,0,0,0,0,-1,1490,379,6.76566,60.6017
273,645,6.65552,-59.8811,0,0,0,0,0,0,0,-1,1497,379,6.65554,59.8811
280,645,6.9126,-58.9752,0,0,0,0,0,0,0,-1,1504,379,6.91258,58.9752
287,645,7.32349,-57.7813,0,0,0,0,0,0,0,-1,1511,379,7.32352,57.7812
294,645,3.76428,-22.9539,0,0,0,0,0,0,0,-1,1518,379,3.7643,22.9539
301,645,2.74219,-23.503,0,0,0,0,0,0,0,-1,1525,379,2.74222,23.503
308,645,1.82227,-23.9479,0,0,0,0,0,0,0,-1,1532,379,1.82227,23.9479
315,645,0.990356,-24.8735,0,0,0,0,0,0,0,-1,1539,379,0.990376,24.8735
322,645,-0.256714,-24.7577,0,0,0,0,0,0,0,-1,1546,379,-0.256653,24.7577
329,645,-4.45581,-22.707,0,0,0,0,0,0,0,-1,1553,379,-4.45579,22.707
336,645,-5.83154,-22.8404,0,0,0,0,0,0,0,-1,1560,379,-5.83149,22.8404
343,645,4.03186,-38.0623,0,0,0,0,0,0,0,-1,1567,379,4.03187,38.0623
350,645,4.76404,-22.1987,0,0,0,0,0,0,0,-1,1574,379,4.76399,22.1987
357,645,4.61316,-21.967,0,0,0,0,0,0,0,-1,1581,379,4.61316,21.967
364,645,-0.0794678,-3.22021,0,0,0,0,0,0,0,-1,1588,379,-0.0794987,3.22021
371,645,0,0,0,0,0,0,0,0,0,-1,1595,379,0,0
378,645,0,0,0,0,0,0,0,0,0,-1,1602,379,0,0
385,645,0,0,0,0,0,0,0,0,0,-1,1609,379,0,0
392,645,0,0,0,0,0,0,0,0,0,-1,1616,379,0,0
399,645,0,0,0,0,0,0,0,0,0,-1,1623,379,0,0
406,645,0,0,0,0,0,0,0,0,0,-1,1630,379,0,0
413,645,0,0,0,0,0,0,0,0,0,-1,1637,379,0,0
420,645,0,0,0,0,0,0,0,0,0,-1,1644,379,0,0
427,645,0,0,0,0,0,0,0,0,0,-1,1651,379,0,0
434,645,0,0,0,0,0,0,0,0,0,-1,1658,379,0,0
441,645,0,0,0,0,0,0,0,0,0,-1,1665,379,0,0
448,645,0,0,0,0,0,0,0,0,0,-1,1672,379,0,0
455,645,0,0,0,0,0,0,0,0,0,-1,1679,379,0,0
462,645,0,0,0,0,0,0,0,0,0,-1,1686,379,0,0
469,645,0,0,0,0,0,0,0,0,0,-1,1693,379,0,0
476,645,0,0,0,0,0,0,0,0,0,-1,1700,379,0,0
483,645,0,0,0,0,0,0,0,0,0,-1,1707,379,0,0
490,645,0,0,0,0,0,0,0,0,0,-1,1714,379,0,0
497,645,0,0,0,0,0,0,0,0,0,-1,1721,379,0,0
504,645,0,0,0,0,0,0,0,0,0,-1,1728,379,0,0
511,645,0,0,0,0,0,0,0,0,0,-1,1735,379,0,0
518,645,0,0,0,0,0,0,0,0,0,-1,1742,379,0,0
525,645,0,0,0,0,0,0,0,0,0,-1,1749,379,0,0
532,645,0,0,0,0,0,0,0,0,0,-1,1756,379,0,0
539,645,0,0,0,0,0,0,0,0,0,-1,1763,379,0,0
546,645,0,0,0,0,0,0,0,0,0,-1,1770,379,0,0
553,645,0,0,0,0,0,0,0,0,0,-1,1777,379,0,0
560,645,0,0,0,0,0,0,0,0,0,-1,1784,379,0,0
567,645,0,0,0,0,0,0,0,0,0,-1,1791,379,0,0
574,645,0,0,0,0,0,0,0,0,0,-1,1798,379,0,0
581,645,0,0,0,0,0,0,0,0,0,-1,1805,379,0,0
588,645,0,0,0,0,0,0,0,0,0,-1,1812,379,0,0
595,645,0,0,0,0,0,0,0,0,0,-1,1819,379,0,0
602,645,0,0,0,0,0,0,0,0,0,-1,1826,379,0,0
609,645,0,0,0,0,0,0,0,0,0,-1,1833,379,0,0
616,645,0,0,0,0,0,0,0,0,0,-1,1840,379,0,0
623,645,0,0,0,0,0,0,0,0,0,-1,1847,379,0,0
630,645,0,0,0,0,0,0,0,0,0,-1,1854,379,0,0
637,645,0,0,0,0,0,0,0,0,0,-1,1861,379,0,0
644,645,0,0,0,0,0,0,0,0,0,-1,1868,379,0,0
651,645,0,0,0,0,0,0,0,0,0,-1,1875,379,0,0
658,645,0,0,0,0,0,0,0,0,0,-1,1882,379,0,0
665,645,0,0,0,0,0,0,0,0,0,-1,1889,379,0,0
672,645,0,0,0,0,0,0,0,0,0,-1,1896,379,0,0
679,645,0,0,0,0,0,0,0,0,0,-1,1903,379,0,0
686,645,0,0,0,0,0,0,0,0,0,-1,1910,379,0,0
693,645,0,0,0,0,0,0,0,0,0,-1,1917,379,0,0
700,645,0,0,0,0,0,0,0,0,0,-1,1924,379,0,0
707,645,0,0,0,0,0,0,0,0,0,-1,1931,379,0,0
714,645,0,0,0,0,0,0,0,0,0,-1,1938,379,0,0
721,645,0,0,0,0,0,0,0,0,0,-1,1945,379,0,0
728,645,0,0,0,0,0,0,0,0,0,-1,1952,379,0,0
735,645,0,0,0,0,0,0,0,0,0,-1,1959,379,0,0
742,645,0,0,0,0,0,0,0,0,0,-1,1966,379,0,0
749,645,0,0,0,0,0,0,0,0,0,-1,1973,379,0,0
756,645,0,0,0,0,0,0,0,0,0,-1,1980,379,0,0
763,645,0,0,0,0,0,0,0,0,0,-1,1987,379,0,0
770,645,0,0,0,0,0,0,0,0,0,-1,1994,379,0,0
777,645,0,0,0,0,0,0,0,0,0,-1,2001,379,0,0
784,645,0,0,0,0,0,0,0,0,0,-1,2008,379,0,0
791,645,0,0,0,0,0,0,0,0,0,-1,2015,379,0,0
798,645,0,0,0,0,0,0,0,0,0,-1,2022,379,0,0
805,645,0,0,0,0,0,0,0,0,0,-1,2029,379,0,0
812,645,0,0,0,0,0,0,0,0,0,-1,2036,379,0,0
-700,638,0,0,0,0,0,0,0,0,0,-1,524,386,0,0
-693,638,0,0,0,0,0,0,0,0,0,-1,531,386,0,0
-686,638,0,0,0,0,0,0,0,0,0,-1,538,386,0,0
-679,638,0,0,0,0,0,0,0,0,0,-1,545,386,0,0
-672,638,0,0,0,0,0,0,0,0,0,-1,552,386,0,0
-665,638,0,0,0,0,0,0,0,0,0,-1,559,386,0,0
-658,638,0,0,0,0,0,0,0,0,0,-1,566,386,0,0
-651,638,0,0,0,0,0,0,0,0,0,-1,573,386,0,0
-644,638,0,0,0,0,0,0,0,0,0,-1,580,386,0,0
-637,638,0,0,0,0,0,0,0,0,0,-1,587,386,0,0
-630,638,0,0,0,0,0,0,0,0,0,-1,594,386,0,0
-623,638,0,0,0,0,0,0,0,0,0,-1,601,386,0,0
-616,638,0,0,0,0,0,0,0,0,0,-1,608,386,0,0
-609,638,0,0,0,0,0,0,0,0,0,-1,615,386,0,0
-602,638,0,0,0,0,0,0,0,0,0,-1,622,386,0,0
-595,638,0,0,0,0,0,0,0,0,0,-1,629,386,0,0
-588,638,0,0,0,0,0,0,0,0,0,-1,636,386,0,0
-581,638,0,0,0,0,0,0,0,0,0,-1,643,386,0,0
-574,638,0,0,0,0,0,0,0,0,0,-1,650,386,0,0
-567,638,0,0,0,0,0,0,0,0,0,-1,657,386,0,0
-560,638,0,0,0,0,0,0,0,0,0,-1,664,386,0,0
-553,638,0,0,0,0,0,0,0,0,0,-1,671,386,0,0
-546,638,0,0,0,0,0,0,0,0,0,-1,678,386,0,0
-539,638,0,0,0,0,0,0,0,0,0,-1,685,386,0,0
-532,638,0,0,0,0,0,0,0,0,0,-1,692,386,0,0
-525,638,0,0,0,0,0,0,0,0,0,-1,699,386,0,0
-518,638,0,0,0,0,0,0,0,0,0,-1,706,386,0,0
-511,638,0,0,0,0,0,0,0,0,0,-1,713,386,0,0
-504,638,0,0,0,0,0,0,0,0,0,-1,720,386,0,0
-497,638,0,0,0,0,0,0,0,0,0,-1,727,386,0,0
-490,638,0,0,0,0,0,0,0,0,0,-1,734,386,0,0
-483,638,0,0,0,0,0,0,0,0,0,-1,741,386,0,0
-476,638,0,0,0,0,0,0,0,0,0,-1,748,386,0,0
-469,638,0,0,0,0,0,0,0,0,0,-1,755,386,0,0
-462,638,0,0,0,0,0,0,0,0,0,-1,762,386,0,0
-455,638,0,0,0,0,0,0,0,0,0,-1,769,386,0,0
-448,638,0,0,0,0,0,0,0,0,0,-1,776,386,0,0
-441,638,0,0,0,0,0,0,0,0,0,-1,783,386,0,0
-434,638,0,0,0,0,0,0,0,0,0,-1,790,386,0,0
-427,638,0,0,0,0,0,0,0,0,0,-1,797,386,0,0
-420,638,0,0,0,0,0,0,0,0,0,-1,804,386,0,0
-413,638,0,0,0,0,0,0,0,0,0,-1,811,386,0,0
-406,638,0,0,0,0,0,0,0,0,0,-1,818,386,0,0
-399,638,0,0,0,0,0,0,0,0,0,-1,825,386,0,0
-392,638,0,0,0,0,0,0,0,0,0,-1,832,386,0,0
-385,638,0,0,0,0,0,0,0,0,0,-1,839,386,0,0
-378,638,0,0,0,0,0,0,0,0,0,-1,846,386,0,0
-371,638,0,0,0,0,0,0,0,0,0,-1,853,386,0,0
-364,638,0,0,0,0,0,0,0,0,0,-1,860,386,0,0
-357,638,0,0,0,0,0,0,0,0,0,-1,867,386,0,0
-350,638,0,0,0,0,0,0,0,0,0,-1,874,386,0,0
-343,638,0,0,0,0,0,0,0,0,0,-1,881,386,0,0
-336,638,0,0,0,0,0,0,0,0,0,-1,888,386,0,0
-329,638,0,0,0,0,0,0,0,0,0,-1,895,386,0,0
-322,638,0,0,0,0,0,0,0,0,0,-1,902,386,0,0
-315,638,0,0,0,0,0,0,0,0,0,-1,909,386,0,0
-308,638,0,0,0,0,0,0,0,0,0,-1,916,386,0,0
-301,638,0,0,0,0,0,0,0,0,0,-1,923,386,0,0
-294,638,0,0,0,0,0,0,0,0,0,-1,930,386,0,0
-287,638,0,0,0,0,0,0,0,0,0,-1,937,386,0,0
-280,638,0,0,0,0,0,0,0,0,0,-1,944,386,0,0
-273,638,0,0,0,0,0,0,0,0,0,-1,951,386,0,0
-266,638,10.1613,-36.3326,0,0,0,0,0,0,0,-1,958,386,10.1612,36.3326
-259,638,9.95282,-34.6103,0,0,0,0,0,0,0,-1,965,386,9.9528,34.6103
-252,638,9.95746,-33.6964,0,0,0,0,0,0,0,-1,972,386,9.95744,33.6965
-245,638,9.84143,-32.9009,0,0,0,0,0,0,0,-1,979,386,9.84145,32.9009
-238,638,2.93518,-26.3649,0,0,0,0,0,0,0,-1,986,386,2.93516,26.3649
-231,638,2.36829,-26.0088,0,0,0,0,0,0,0,-1,993,386,2.3683,26.0088
-224,638,6.3465,-30.9124,0,0,0,0,0,0,0,-1,1000,386,6.34648,30.9124
-217,638,7.41205,-32.7263,0,0,0,0,0,0,0,-1,1007,386,7.41204,32.7262
-210,638,8.7038,-34.5688,0,0,0,0,0,0,0,-1,1014,386,8.70378,34.5689
-203,638,4.32593,-27.5803,0,0,0,0,0,0,0,-1,1021,386,4.32594,27.5803
-196,638,6.0614,-28.4651,0,0,0,0,0,0,0,-1,1028,386,6.06143,28.4651
-189,638,11.4561,-30.1556,0,0,0,0,0,0,0,-1,1035,386,11.456,30.1556
-182,638,6.45471,-33.4271,0,0,0,0,0,0,0,-1,1042,386,6.45473,33.427
-175,638,8.39648,-48.7238,0,0,0,0,0,0,0,-1,1049,386,8.39643,48.7238
-168,638,9.83569,-58.1975,0,0,0,0,0,0,0,-1,1056,386,9.83571,58.1975
-161,638,9.81604,-58.9625,0,0,0,0,0,0,0,-1,1063,386,9.81608,58.9625
-154,638,9.63733,-59.5596,0,0,0,0,0,0,0,-1,1070,386,9.63737,59.5596
-147,638,9.60535,-60.2392,0,0,0,0,0,0,0,-1,1077,386,9.6053,60.2392
-140,638,9.46814,-60.5288,-0.00598757,0.016721,-0.00970673,0.0203046,-0.00957118,-1.21713,0.0176159,0.0454664,1084,386,9.46817,60.5288
-133,638,9.39331,-61.5131,-0.00596009,0.0151919,-0.00890281,0.0184402,-0.00920841,-1.22094,0.0162568,0.0427062,1091,386,9.39333,61.5131
-126,638,9.28284,-62.1358,-0.00609726,0.0135255,-0.0078742,0.0162945,-0.00886627,-1.23265,0.0147361,0.0465837,1098,386,9.28278,62.1358
-119,638,9.20447,-62.8663,-0.00621377,0.0116524,-0.00683151,0.0139652,-0.00852656,-1.24436,0.0131115,0.0448232,1105,386,9.20446,62.8663
-112,638,9.16394,-63.5886,-0.00611901,0.0100419,-0.00594063,0.0119907,-0.00806776,-1.25382,0.0116543,0.0285473,1112,386,9.16395,63.5886
-105,638,9.0752,-64.2174,-0.00596519,0.00869906,-0.00517376,0.0103407,-0.0076068,-1.26355,0.010402,0.0209116,1119,386,9.07525,64.2174
-98,638,9.00269,-64.8258,-0.00586597,0.00747028,-0.00441059,0.00879698,-0.00719267,-1.27861,0.0092471,0.0191398,1126,386,9.00265,64.8258
-91,638,8.91479,-65.4094,-0.00575504,0.0064478,-0.00372085,0.00749285,-0.00680009,-1.29699,0.00825526,0.0136329,1133,386,8.91474,65.4093
-84,638,8.85205,-65.9791,-0.00557503,0.00492378,-0.00291716,0.00567988,-0.00633113,-1.31719,0.00693796,0.0148824,1140,386,8.85205,65.9791
-77,638,8.78833,-66.5218,-0.00530516,0.00467026,-0.0024336,0.0052323,-0.00586719,-1.34383,0.00641178,0.0141256,1147,386,8.78836,66.5218
-70,638,8.7406,-67.0257,-0.00518148,0.00490393,-0.00212216,0.00533228,-0.00560983,-1.37163,0.00631811,0.0151886,1154,386,8.74054,67.0257
-63,638,8.73145,-67.5283,-0.00496121,0.00538915,-0.00195114,0.00574474,-0.0053168,-1.39053,0.00638798,0.013948,1161,386,8.73141,67.5283
-56,638,8.71484,-68.0039,-0.00459906,0.00582506,-0.00182521,0.00613541,-0.00490941,-1.40237,0.00638981,0.0154027,1168,386,8.71479,68.0039
-49,638,8.65833,-68.4505,-0.004177,0.0060031,-0.00160261,0.00624943,-0.00442333,-1.41828,0.00619192,0.0130146,1175,386,8.65828,68.4505
-42,638,8.60071,-68.8688,-0.00348599,0.00664151,-0.00120443,0.00678278,-0.00362726,-1.45404,0.00610158,0.0126889,1182,386,8.60066,68.8688
-35,638,8.56445,-69.2899,-0.00288263,0.00735562,-0.00100714,0.00745375,-0.00298076,-1.47367,0.00620613,0.0121106,1189,386,8.56449,69.2899
-28,638,8.52185,-69.6832,-0.00240694,0.00766084,-0.000893226,0.00773947,-0.00248557,-1.48299,0.00615772,0.0114337,1196,386,8.52182,69.6832
-21,638,8.47986,-70.0246,-0.00175764,0.00816391,-0.000877726,0.00824096,-0.00183469,-1.48324,0.00619674,0.0125953,1203,386,8.47983,70.0246
-14,638,8.46008,-70.3938,-0.00116347,0.00855308,-0.000858052,0.00862827,-0.00123866,-1.48339,0.00620641,0.012308,1210,386,8.46004,70.3938
-7,638,8.46741,-70.7368,-0.000691542,0.0086106,-0.000914309,0.00869962,-0.000780558,-1.47374,0.00607666,0.0189223,1217,386,8.4674,70.7369
0,638,8.52917,-70.8881,-0.000265959,0.00857227,-0.0010525,0.00869588,-0.000389566,-1.45389,0.00593138,0.036924,1224,386,8.52911,70.8881
7,638,8.45801,-71.1305,0.000113523,0.00845635,-0.0011549,0.00861328,-4.33978e-05,-1.43575,0.0057567,0.0276368,1231,386,8.458,71.1305
14,638,8.40247,-71.374,0.000202461,0.00819302,-0.00120125,0.00836971,2.5779e-05,-1.42476,0.00557123,0.0145569,1238,386,8.40248,71.374
21,638,8.41272,-71.5966,6.98445e-05,0.00799885,-0.00119182,0.00817412,-0.000105426,-1.42478,0.0054849,0.0124401,1245,386,8.41273,71.5966
28,638,8.43518,-71.7354,-9.26048e-05,0.00799121,-0.00118762,0.00816208,-0.000263471,-1.4279,0.0055313,0.00954418,1252,386,8.43518,71.7354
35,638,8.42737,-71.8495,-0.000113063,0.00779588,-0.00111494,0.00795005,-0.000267231,-1.43339,0.00539132,0.0109082,1259,386,8.42737,71.8495
42,638,8.43994,-71.9671,-0.000338249,0.00789745,-0.000915485,0.00799798,-0.000438787,-1.46141,0.00548411,0.0105419,1266,386,8.43999,71.9671
49,638,8.47791,-72.0425,-0.000623004,0.008145,-0.000642177,0.00819178,-0.000669788,-1.49807,0.00569759,0.00941495,1273,386,8.47786,72.0425
56,638,8.46948,-72.0791,-0.00093297,0.00846018,-0.000448295,0.00848153,-0.000954317,-1.52321,0.00599782,0.0127256,1280,386,8.46947,72.0791
63,638,8.43872,-72.1012,-0.00108388,0.00879425,-0.000145681,0.0087964,-0.00108602,-1.55605,0.00625777,0.0148854,1287,386,8.4387,72.1012
70,638,8.40735,-72.1209,-0.00117943,0.00902469,6.75881e-05,0.00902514,-0.00117988,1.56417,0.00644615,0.0202124,1294,386,8.40738,72.121
77,638,8.43164,-72.0821,-0.000662006,0.00929698,0.000494671,0.00932149,-0.000686516,1.52129,0.00645535,0.0201662,1301,386,8.43158,72.0821
84,638,8.48096,-71.9919,3.31425e-05,0.00910571,0.000469845,0.00912998,8.87504e-06,1.51919,0.0060837,0.0146509,1308,386,8.48096,71.9919
91,638,8.45178,-71.8877,0.000637431,0.00861347,0.00023932,0.00862064,0.000630256,1.54083,0.00554895,0.0162485,1315,386,8.45178,71.8877
98,638,8.43591,-71.7485,0.00152431,0.00828297,-0.00019416,0.00828854,0.00151874,-1.5421,0.00509546,0.014657,1322,386,8.43586,71.7485
105,638,8.44128,-71.6002,0.00247399,0.00780193,-0.000424726,0.00783557,0.00244034,-1.49174,0.00462985,0.0114951,1329,386,8.44129,71.6002
112,638,8.43921,-71.4048,0.00331798,0.00737178,-0.00080137,0.00752445,0.00316531,-1.38254,0.00436243,0.0103733,1336,386,8.43916,71.4048
119,638,8.43787,-71.1773,0.0041722,0.0068711,-0.00127268,0.00737657,0.00366673,-1.19273,0.00425889,0.0127512,1343,386,8.43791,71.1773
126,638,8.42456,-70.9049,0.00484859,0.00645886,-0.00174084,0.00757174,0.00373572,-1.002,0.00437167,0.0162626,1350,386,8.42456,70.9049
133,638,8.39441,-70.6399,0.00512836,0.00602257,-0.00210923,0.00773156,0.00341938,-0.88984,0.00447373,0.016577,1357,386,8.39446,70.6399
140,638,8.39197,-70.3681,0.00490866,0.00615961,-0.00233171,0.00794828,0.00311999,-0.916437,0.00462414,0.0175917,1364,386,8.39192,70.3681
147,638,8.38586,-70.0416,0.00466128,0.00648786,-0.00245323,0.00819229,0.00295685,-0.963591,0.00479042,0.0193994,1371,386,8.38591,70.0416
154,638,8.37817,-69.7035,0.0042809,0.00702552,-0.00237104,0.00839275,0.00291368,-1.04773,0.00492043,0.0170972,1378,386,8.37812,69.7035
161,638,8.33704,-69.2646,0.00365653,0.00779899,-0.00190836,0.00854411,0.00291141,-1.19855,0.00501565,0.0196732,1385,386,8.337,69.2646
168,638,8.29187,-68.8644,0.00267495,0.00861846,-0.00129935,0.00889011,0.00240331,-1.3647,0.00531013,0.0235592,1392,386,8.29191,68.8644
175,638,8.29199,-68.4716,0.00149521,0.00931525,-0.000471419,0.00934356,0.00146689,-1.5108,0.00580222,0.0188998,1399,386,8.29194,68.4716
182,638,8.21802,-67.9592,-0.000267262,0.0102912,0.000106824,0.0102923,-0.000268343,1.56068,0.00695268,0.013699,1406,386,8.21804,67.9592
189,638,8.15308,-67.4508,-0.00166608,0.0110493,0.0014524,0.0112131,-0.00182987,1.4585,0.0081541,0.012286,1413,386,8.15304,67.4508
196,638,8.11328,-66.9559,-0.00240897,0.0118002,0.00289996,0.0123693,-0.00297804,1.37703,0.00939749,0.0145528,1420,386,8.11333,66.9559
203,638,8.0907,-66.4596,-0.00359744,0.0117566,0.00462749,0.0130434,-0.00488426,1.29957,0.0107019,0.0195919,1427,386,8.09068,66.4596
210,638,8.04199,-65.9456,-0.00375368,0.0114148,0.00495857,0.0128919,-0.00523079,1.28128,0.0107703,0.0163083,1434,386,8.04197,65.9456
217,638,7.98352,-65.3367,-0.00369753,0.0109656,0.00504645,0.0125345,-0.00526644,1.26938,0.0105591,0.0134675,1441,386,7.98351,65.3367
224,638,7.91882,-64.6863,-0.00352496,0.0113128,0.00518747,0.0129465,-0.00515868,1.26569,0.0107706,0.0119652,1448,386,7.91882,64.6863
231,638,7.81567,-64.0493,-0.0029645,0.0117189,0.00570139,0.0136727,-0.00491831,1.24065,0.0111231,0.0128042,1455,386,7.81573,64.0494
238,638,7.74084,-63.4315,-0.00198419,0.0133294,0.00713529,0.0161387,-0.00479347,1.19572,0.0126631,0.0166471,1462,386,7.74082,63.4315
245,638,7.70642,-62.6835,-0.00146302,0.0147809,0.00802467,0.0180766,-0.00475865,1.18111,0.0139113,0.0380747,1469,386,7.70642,62.6835
252,638,7.70544,-61.8292,0,0,0,0,0,0,0,-1,1476,386,7.70542,61.8292
259,638,7.42078,-61.4019,0,0,0,0,0,0,0,-1,1483,386,7.42079,61.4019
266,638,7.38123,-60.6986,0.00193075,0.0210168,0.0122796,0.0270256,-0.004078,1.11572,0.0195189,0.0452721,1490,386,7.38118,60.6987
273,638,7.35071,-59.9718,0.00321568,0.0237996,0.0140902,0.0309564,-0.0039411,1.10083,0.0220689,0.0192168,1497,386,7.35071,59.9718
280,638,7.43579,-59.1564,0.00453298,0.0266863,0.0160224,0.035088,-0.00386879,1.08784,0.0247825,0.0246558,1504,386,7.43583,59.1564
287,638,7.64771,-58.0345,0.00587062,0.0300444,0.0181904,0.0397974,-0.00388246,1.07864,0.0279159,0.0432685,1511,386,7.64769,58.0345
294,638,7.66431,-57.0333,0,0,0,0,0,0,0,-1,1518,386,7.66436,57.0333
301,638,6.87695,-56.6031,0,0,0,0,0,0,0,-1,1525,386,6.8769,56.6032
308,638,7.20715,-55.4126,0,0,0,0,0,0,0,-1,1532,386,7.20715,55.4126
315,638,3.3927,-28.2032,0,0,0,0,0,0,0,-1,1539,386,3.39269,28.2032
322,638,6.1698,-44.6835,0,0,0,0,0,0,0,-1,1546,386,6.16984,44.6835
329,638,6.06885,-44.2856,0,0,0,0,0,0,0,-1,1553,386,6.06881,44.2855
336,638,5.15234,-38.1966,0,0,0,0,0,0,0,-1,1560,386,5.15238,38.1966
343,638,4.8208,-37.2159,0,0,0,0,0,0,0,-1,1567,386,4.82078,37.2159
350,638,4.35254,-37.1565,0,0,0,0,0,0,0,-1,1574,386,4.35259,37.1565
357,638,0.387329,-3.01077,0,0,0,0,0,0,0,-1,1581,386,0.387332,3.01077
364,638,3.78149,-6.45215,0,0,0,0,0,0,0,-1,1588,386,3.78155,6.45216
371,638,4.18604,-6.71164,0,0,0,0,0,0,0,-1,1595,386,4.18598,6.71164
378,638,4.59045,-6.97113,0,0,0,0,0,0,0,-1,1602,386,4.5904,6.97112
385,638,0,0,0,0,0,0,0,0,0,-1,1609,386,0,0
392,638,0,0,0,0,0,0,0,0,0,-1,1616,386,0,0
399,638,0,0,0,0,0,0,0,0,0,-1,1623,386,0,0
406,638,0,0,0,0,0,0,0,0,0,-1,1630,386,0,0
413,638,0,0,0,0,0,0,0,0,0,-1,1637,386,0,0
420,638,0,0,0,0,0,0,0,0,0,-1,1644,386,0,0
427,638,0,0,0,0,0,0,0,0,0,-1,1651,386,0,0
434,638,0,0,0,0,0,0,0,0,0,-1,1658,386,0,0
441,638,0,0,0,0,0,0,0,0,0,-1,1665,386,0,0
448,638,0,0,0,0,0,0,0,0,0,-1,1672,386,0,0
455,638,0,0,0,0,0,0,0,0,0,-1,1679,386,0,0
462,638,0,0,0,0,0,0,0,0,0,-1,1686,386,0,0
469,638,0,0,0,0,0,0,0,0,0,-1,1693,386,0,0
476,638,0,0,0,0,0,0,0,0,0,-1,1700,386,0,0
483,638,0,0,0,0,0,0,0,0,0,-1,1707,386,0,0
490,638,0,0,0,0,0,0,0,0,0,-1,1714,386,0,0
497,638,0,0,0,0,0,0,0,0,0,-1,1721,386,0,0
504,638,0,0,0,0,0,0,0,0,0,-1,1728,386,0,0
511,638,0,0,0,0,0,0,0,0,0,-1,1735,386,0,0
518,638,0,0,0,0,0,0,0,0,0,-1,1742,386,0,0
525,638,0,0,0,0,0,0,0,0,0,-1,1749,386,0,0
532,638,0,0,0,0,0,0,0,0,0,-1,1756,386,0,0
539,638,0,0,0,0,0,0,0,0,0,-1,1763,386,0,0
546,638,0,0,0,0,0,0,0,0,0,-1,1770,386,0,0
553,638,0,0,0,0,0,0,0,0,0,-1,1777,386,0,0
560,638,0,0,0,0,0,0,0,0,0,-1,1784,386,0,0
567,638,0,0,0,0,0,0,0,0,0,-1,1791,386,0,0
574,638,0,0,0,0,0,0,0,0,0,-1,1798,386,0,0
581,638,0,0,0,0,0,0,0,0,0,-1,1805,386,0,0
588,638,0,0,0,0,0,0,0,0,0,-1,1812,386,0,0
595,638,0,0,0,0,0,0,0,0,0,-1,1819,386,0,0
602,638,0,0,0,0,0,0,0,0,0,-1,1826,386,0,0
609,638,0,0,0,0,0,0,0,0,0,-1,1833,386,0,0
616,638,0,0,0,0,0,0,0,0,0,-1,1840,386,0,0
623,638,0,0,0,0,0,0,0,0,0,-1,1847,386,0,0
630,638,0,0,0,0,0,0,0,0,0,-1,1854,386,0,0
637,638,0,0,0,0,0,0,0,0,0,-1,1861,386,0,0
644,638,0,0,0,0,0,0,0,0,0,-1,1868,386,0,0
651,638,0,0,0,0,0,0,0,0,0,-1,1875,386,0,0
658,638,0,0,0,0,0,0,0,0,0,-1,1882,386,0,0
665,638,0,0,0,0,0,0,0,0,0,-1,1889,386,0,0
672,638,0,0,0,0,0,0,0,0,0,-1,1896,386,0,0
679,638,0,0,0,0,0,0,0,0,0,-1,1903,386,0,0
686,638,0,0,0,0,0,0,0,0,0,-1,1910,386,0,0
693,638,0,0,0,0,0,0,0,0,0,-1,1917,386,0,0
700,638,0,0,0,0,0,0,0,0,0,-1,1924,386,0,0
707,638,0,0,0,0,0,0,0,0,0,-1,1931,386,0,0
714,638,0,0,0,0,0,0,0,0,0,-1,1938,386,0,0
721,638,0,0,0,0,0,0,0,0,0,-1,1945,386,0,0
728,638,0,0,0,0,0,0,0,0,0,-1,1952,386,0,0
735,638,0,0,0,0,0,0,0,0,0,-1,1959,386,0,0
742,638,0,0,0,0,0,0,0,0,0,-1,1966,386,0,0
749,638,0,0,0,0,0,0,0,0,0,-1,1973,386,0,0
756,638,0,0,0,0,0,0,0,0,0,-1,1980,386,0,0
763,638,0,0,0,0,0,0,0,0,0,-1,1987,386,0,0
770,638,0,0,0,0,0,0,0,0,0,-1,1994,386,0,0
777,638,0,0,0,0,0,0,0,0,0,-1,2001,386,0,0
784,638,0,0,0,0,0,0,0,0,0,-1,2008,386,0,0
791,638,0,0,0,0,0,0,0,0,0,-1,2015,386,0,0
798,638,0,0,0,0,0,0,0,0,0,-1,2022,386,0,0
805,638,0,0,0,0,0,0,0,0,0,-1,2029,386,0,0
812,638,0,0,0,0,0,0,0,0,0,-1,2036,386,0,0
-700,631,0,0,0,0,0,0,0,0,0,-1,524,393,0,0
-693,631,0,0,0,0,0,0,0,0,0,-1,531,393,0,0
-686,631,0,0,0,0,0,0,0,0,0,-1,538,393,0,0
-679,631,0,0,0,0,0,0,0,0,0,-1,545,393,0,0
-672,631,0,0,0,0,0,0,0,0,0,-1,552,393,0,0
-665,631,0,0,0,0,0,0,0,0,0,-1,559,393,0,0
-658,631,0,0,0,0,0,0,0,0,0,-1,566,393,0,0
-651,631,0,0,0,0,0,0,0,0,0,-1,573,393,0,0
-644,631,0,0,0,0,0,0,0,0,0,-1,580,393,0,0
-637,631,0,0,0,0,0,0,0,0,0,-1,587,393,0,0
-630,631,0,0,0,0,0,0,0,0,0,-1,594,393,0,0
-623,631,0,0,0,0,0,0,0,0,0,-1,601,393,0,0
-616,631,0,0,0,0,0,0,0,0,0,-1,608,393,0,0
-609,631,0,0,0,0,0,0,0,0,0,-1,615,393,0,0
-602,631,0,0,0,0,0,0,0,0,0,-1,622,393,0,0
-595,631,0,0,0,0,0,0,0,0,0,-1,629,393,0,0
-588,631,0,0,0,0,0,0,0,0,0,-1,636,393,0,0
-581,631,0,0,0,0,0,0,0,0,0,-1,643,393,0,0
-574,631,0,0,0,0,0,0,0,0,0,-1,650,393,0,0
-567,631,0,0,0,0,0,0,0,0,0,-1,657,393,0,0
-560,631,0,0,0,0,0,0,0,0,0,-1,664,393,0,0
-553,631,0,0,0,0,0,0,0,0,0,-1,671,393,0,0
-546,631,0,0,0,0,0,0,0,0,0,-1,678,393,0,0
-539,631,0,0,0,0,0,0,0,0,0,-1,685,393,0,0
-532,631,0,0,0,0,0,0,0,0,0,-1,692,393,0,0
-525,631,0,0,0,0,0,0,0,0,0,-1,699,393,0,0
-518,631,0,0,0,0,0,0,0,0,0,-1,706,393,0,0
-511,631,0,0,0,0,0,0,0,0,0,-1,713,393,0,0
-504,631,0,0,0,0,0,0,0,0,0,-1,720,393,0,0
-497,631,0,0,0,0,0,0,0,0,0,-1,727,393,0,0
-490,631,0,0,0,0,0,0,0,0,0,-1,734,393,0,0
-483,631,0,0,0,0,0,0,0,0,0,-1,741,393,0,0
-476,631,0,0,0,0,0,0,0,0,0,-1,748,393,0,0
-469,631,0,0,0,0,0,0,0,0,0,-1,755,393,0,0
-462,631,0,0,0,0,0,0,0,0,0,-1,762,393,0,0
-455,631,0,0,0,0,0,0,0,0,0,-1,769,393,0,0
-448,631,0,0,0,0,0,0,0,0,0,-1,776,393,0,0
-441,631,0,0,0,0,0,0,0,0,0,-1,783,393,0,0
-434,631,0,0,0,0,0,0,0,0,0,-1,790,393,0,0
-427,631,0,0,0,0,0,0,0,0,0,-1,797,393,0,0
-420,631,0,0,0,0,0,0,0,0,0,-1,804,393,0,0
-413,631,0,0,0,0,0,0,0,0,0,-1,811,393,0,0
-406,631,0,0,0,0,0,0,0,0,0,-1,818,393,0,0
-399,631,0,0,0,0,0,0,0,0,0,-1,825,393,0,0
-392,631,0,0,0,0,0,0,0,0,0,-1,832,393,0,0
-385,631,0,0,0,0,0,0,0,0,0,-1,839,393,0,0
-378,631,0,0,0,0,0,0,0,0,0,-1,846,393,0,0
-371,631,0,0,0,0,0,0,0,0,0,-1,853,393,0,0
-364,631,0,0,0,0,0,0,0,0,0,-1,860,393,0,0
-357,631,0,0,0,0,0,0,0,0,0,-1,867,393,0,0
-350,631,0,0,0,0,0,0,0,0,0,-1,874,393,0,0
-343,631,0,0,0,0,0,0,0,0,0,-1,881,393,0,0
-336,631,0,0,0,0,0,0,0,0,0,-1,888,393,0,0
-329,631,0,0,0,0,0,0,0,0,0,-1,895,393,0,0
-322,631,0,0,0,0,0,0,0,0,0,-1,902,393,0,0
-315,631,0,0,0,0,0,0,0,0,0,-1,909,393,0,0
-308,631,0,0,0,0,0,0,0,0,0,-1,916,393,0,0
-301,631,0,0,0,0,0,0,0,0,0,-1,923,393,0,0
-294,631,0,0,0,0,0,0,0,0,0,-1,930,393,0,0
-287,631,0,0,0,0,0,0,0,0,0,-1,937,393,0,0
-280,631,7.71283,-34.969,0,0,0,0,0,0,0,-1,944,393,7.71282,34.969
-273,631,8.04437,-34.934,0,0,0,0,0,0,0,-1,951,393,8.04436,34.9339
-266,631,8.40277,-34.7584,0,0,0,0,0,0,0,-1,958,393,8.40275,34.7584
-259,631,8.56659,-34.037,0,0,0,0,0,0,0,-1,965,393,8.56662,34.037
-252,631,8.44446,-33.2643,0,0,0,0,0,0,0,-1,972,393,8.44445,33.2644
-245,631,8.34705,-32.527,0,0,0,0,0,0,0,-1,979,393,8.34704,32.527
-238,631,8.41888,-31.8855,0,0,0,0,0,0,0,-1,986,393,8.41887,31.8855
-231,631,2.14966,-25.2306,0,0,0,0,0,0,0,-1,993,393,2.14968,25.2306
-224,631,6.83575,-19.7909,0,0,0,0,0,0,0,-1,1000,393,6.83575,19.7909
-217,631,5.05188,-18.3867,0,0,0,0,0,0,0,-1,1007,393,5.0519,18.3866
-210,631,3.37842,-26.3769,0,0,0,0,0,0,0,-1,1014,393,3.37839,26.3769
-203,631,8.59509,-47.1953,0,0,0,0,0,0,0,-1,1021,393,8.5951,47.1954
-196,631,8.51001,-47.9163,0,0,0,0,0,0,0,-1,1028,393,8.50997,47.9163
-189,631,6.57983,-42.4494,0,0,0,0,0,0,0,-1,1035,393,6.57983,42.4494
-182,631,8.0531,-47.8031,0,0,0,0,0,0,0,-1,1042,393,8.05311,47.8031
-175,631,9.34094,-57.0844,0,0,0,0,0,0,0,-1,1049,393,9.34093,57.0844
-168,631,9.17371,-57.8686,-0.00499554,0.0180555,-0.0105842,0.0221781,-0.00911814,-1.19937,0.0185859,0.0474269,1056,393,9.17369,57.8686
-161,631,9.08826,-58.7281,-0.00493468,0.0165445,-0.00975412,0.0203129,-0.00870307,-1.20212,0.0171936,0.0254631,1063,393,9.08822,58.7281
-154,631,8.96472,-59.5371,-0.00465354,0.015097,-0.00904248,0.0186115,-0.00816809,-1.20009,0.0158483,0.0220108,1070,393,8.96472,59.5371
-147,631,8.90039,-60.2318,-0.00458037,0.0138416,-0.00821437,0.0169724,-0.00771111,-1.20666,0.0145815,0.0177778,1077,393,8.90039,60.2317
-140,631,8.83521,-60.9174,-0.00445152,0.0125704,-0.00751463,0.0154131,-0.00729425,-1.20914,0.0133865,0.0119882,1084,393,8.83525,60.9175
-133,631,8.75146,-61.602,-0.00427288,0.0113817,-0.00684836,0.0139547,-0.00684591,-1.2114,0.0122408,0.00898632,1091,393,8.75143,61.602
-126,631,8.70068,-62.3031,-0.00421819,0.0101331,-0.00605381,0.0123456,-0.00643076,-1.22039,0.0110184,0.0128172,1098,393,8.70074,62.3031
-119,631,8.63171,-62.9391,-0.00414519,0.00870132,-0.00522004,0.010555,-0.00599883,-1.22958,0.00967725,0.0174145,1105,393,8.63177,62.9392
-112,631,8.56445,-63.5865,-0.00389098,0.00747603,-0.00451822,0.00905314,-0.00546809,-1.23496,0.00846858,0.0166498,1112,393,8.56442,63.5865
-105,631,8.53381,-64.2246,-0.00359591,0.00645656,-0.00392872,0.00780981,-0.00494916,-1.23907,0.00742786,0.021844,1119,393,8.53385,64.2246
-98,631,8.48047,-64.8292,-0.00334606,0.00554179,-0.00335733,0.00666744,-0.00447171,-1.24729,0.0064727,0.0192871,1126,393,8.48053,64.8292
-91,631,8.4248,-65.3858,-0.00310473,0.00478304,-0.00283268,0.00569491,-0.00401659,-1.25936,0.00563478,0.0180668,1133,393,8.42481,65.3858
-84,631,8.36987,-65.9633,-0.00282395,0.00367714,-0.00221779,0.00436165,-0.00350845,-1.27143,0.0045527,0.0166965,1140,393,8.36987,65.9633
-77,631,8.27502,-66.5288,-0.00246443,0.00336907,-0.00181631,0.00388836,-0.00298372,-1.29232,0.00397904,0.0137818,1147,393,8.27501,66.5288
-70,631,8.24939,-67.0371,-0.00212886,0.00327933,-0.00151984,0.00367718,-0.0025267,-1.31477,0.00360229,0.0169957,1154,393,8.24936,67.0371
-63,631,8.2699,-67.5524,-0.00172294,0.00327982,-0.00128851,0.00359218,-0.00203531,-1.33296,0.00329022,0.0166406,1161,393,8.26985,67.5524
-56,631,8.25305,-68.0576,-0.00128391,0.00321232,-0.00105359,0.00344696,-0.00151855,-1.35167,0.00293802,0.016907,1168,393,8.25299,68.0576
-49,631,8.23035,-68.4523,-0.000815504,0.00298916,-0.000782274,0.00314372,-0.000970068,-1.37573,0.00248315,0.0121102,1175,393,8.23035,68.4523
-42,631,8.22766,-68.8716,-0.000430266,0.00261066,-0.000625363,0.00273424,-0.000553849,-1.37569,0.00203275,0.0103069,1182,393,8.22766,68.8717
-35,631,8.18604,-69.2747,-3.04397e-05,0.00241989,-0.00051444,0.00252352,-0.000134063,-1.37203,0.00172877,0.0114651,1189,393,8.18606,69.2747
-28,631,8.1665,-69.6715,0.000218865,0.00176357,-0.000468989,0.00189481,8.76256e-05,-1.29794,0.00123503,0.0137469,1196,393,8.16645,69.6715
-21,631,8.14014,-70.0359,0.000422029,0.000963905,-0.000516854,0.00127653,0.000109405,-1.02681,0.000816997,0.0116671,1203,393,8.14014,70.0359
-14,631,8.12805,-70.372,0.000535443,-2.69737e-06,-0.000673554,0.000991683,-0.000458937,-0.59537,0.000856136,0.0140373,1210,393,8.12801,70.372
-7,631,8.19019,-70.7041,0.000628203,-0.0014105,-0.000908992,0.000974627,-0.00175692,-0.364115,0.00159847,0.0229223,1217,393,8.19019,70.7041
0,631,8.18542,-70.9594,0.000626028,-0.00260242,-0.00120161,0.00102416,-0.00300055,-0.31995,0.00241525,0.0280225,1224,393,8.18545,70.9594
7,631,8.18054,-71.1692,0.000676042,-0.00368972,-0.00141894,0.00109669,-0.00411037,-0.288198,0.00316969,0.0217526,1231,393,8.18059,71.1692
14,631,8.22595,-71.4224,0.000492473,-0.00466684,-0.0015637,0.000929399,-0.00510377,-0.27247,0.00375089,0.0113634,1238,393,8.22589,71.4224
21,631,8.24768,-71.6076,0.00021575,-0.00534194,-0.00165926,0.000673432,-0.00579962,-0.269143,0.00410933,0.015326,1245,393,8.24774,71.6076
28,631,8.26379,-71.7303,-0.00015862,-0.00556255,-0.00170105,0.00033225,-0.00605342,-0.280936,0.0041508,0.0170607,1252,393,8.26375,71.7303
35,631,8.31787,-71.8398,-0.000396469,-0.00565018,-0.00166639,8.75015e-05,-0.00613415,-0.282654,0.00411891,0.0154879,1259,393,8.3179,71.8398
42,631,8.37341,-71.9514,-0.000606339,-0.00496425,-0.0015053,-0.00013694,-0.00543365,-0.302275,0.00357766,0.0137251,1266,393,8.37338,71.9514
49,631,8.40222,-72.052,-0.000742495,-0.00379902,-0.00117586,-0.000342485,-0.00419903,-0.327904,0.00269246,0.0119907,1273,393,8.40219,72.052
56,631,8.43799,-72.128,-0.000875083,-0.00257306,-0.00092059,-0.000471766,-0.00297637,-0.41292,0.00184719,0.0141268,1280,393,8.43796,72.128
63,631,8.43311,-72.1715,-0.000740332,-0.0010603,-0.000494365,-0.000380711,-0.00141993,-0.628907,0.000848672,0.0174345,1287,393,8.43313,72.1715
70,631,8.42444,-72.1364,-0.000729791,0.000254886,-0.000182373,0.000287578,-0.000762483,-1.39342,0.00062658,0.0185164,1294,393,8.42442,72.1364
77,631,8.48401,-72.0806,-0.000311429,0.00169737,0.00023095,0.00172358,-0.000337639,1.45779,0.00127657,0.0186024,1301,393,8.48401,72.0806
84,631,8.55176,-72.0104,0.000320179,0.00264693,0.00036016,0.0027014,0.000265705,1.42068,0.00171922,0.0159162,1308,393,8.55177,72.0104
91,631,8.5603,-71.8964,0.000787249,0.00312586,0.000384638,0.0031875,0.000725611,1.4119,0.00192917,0.0188078,1315,393,8.56032,71.8964
98,631,8.6012,-71.7563,0.00131751,0.00352989,0.000309207,0.00357229,0.0012751,1.43451,0.00209042,0.0151232,1322,393,8.60119,71.7563
105,631,8.60205,-71.6171,0.00206756,0.00337266,0.00028765,0.00343325,0.00200697,1.3632,0.00199162,0.0123896,1329,393,8.60202,71.6171
112,631,8.6416,-71.4427,0.00267666,0.00311913,9.99003e-05,0.00314064,0.00265515,1.35872,0.00195216,0.0126712,1336,393,8.64161,71.4427
119,631,8.66174,-71.2319,0.00329168,0.00282905,-0.000165653,0.00334488,0.00277585,-0.310733,0.00206652,0.0139608,1343,393,8.66179,71.2319
126,631,8.64233,-70.9398,0.00374216,0.00255814,-0.000445477,0.00389104,0.00240925,-0.322544,0.00226767,0.0194898,1350,393,8.64236,70.9398
133,631,8.6615,-70.6665,0.00395923,0.00224506,-0.000665416,0.00418722,0.00201708,-0.330083,0.00241803,0.0207023,1357,393,8.66145,70.6665
140,631,8.70227,-70.3903,0.00377785,0.00233203,-0.000796617,0.00413067,0.00197921,-0.416934,0.00238553,0.0213943,1364,393,8.70226,70.3902
147,631,8.69653,-70.053,0.00350564,0.00232775,-0.000917403,0.00400687,0.00182652,-0.500044,0.00231637,0.0237587,1371,393,8.6965,70.053
154,631,8.68652,-69.6791,0.00314951,0.00259349,-0.00100981,0.00391888,0.00182412,-0.651071,0.00226437,0.0225699,1378,393,8.6865,69.6792
161,631,8.74377,-69.251,0.0027093,0.00336926,-0.000707732,0.00382016,0.0022584,-1.00354,0.00221776,0.0249671,1385,393,8.74372,69.251
168,631,8.69946,-68.874,0.00210636,0.00417283,-0.000313678,0.00421939,0.00205979,-1.42342,0.00243629,0.0294176,1392,393,8.69952,68.874
175,631,8.68591,-68.5007,0.00150668,0.00491961,0.000152211,0.00492638,0.0014999,1.52632,0.00291585,0.0221151,1399,393,8.68596,68.5007
182,631,8.65833,-67.9963,0.000616701,0.00577785,0.000563366,0.00583863,0.000555922,1.46333,0.00372098,0.0119699,1406,393,8.65833,67.9963
189,631,8.62329,-67.4715,-0.000225908,0.00653934,0.00131926,0.0067875,-0.000474069,1.38486,0.00469101,0.0112946,1413,393,8.62329,67.4715
196,631,8.59473,-66.9736,-0.00067698,0.00729946,0.00212312,0.00782937,-0.00120689,1.3262,0.0056649,0.0122905,1420,393,8.59473,66.9736
203,631,8.6178,-66.4687,-0.00129767,0.00771668,0.0029344,0.00858773,-0.00216872,1.28224,0.00656851,0.01362,1427,393,8.61781,66.4687
210,631,8.57422,-65.9386,-0.00163253,0.00787377,0.00331609,0.00891621,-0.00267497,1.26622,0.00700809,0.015464,1434,393,8.57417,65.9386
217,631,8.52271,-65.3897,-0.00177375,0.00791984,0.00354539,0.00907814,-0.00293205,1.25502,0.0072304,0.0178246,1441,393,8.52269,65.3897
224,631,8.47913,-64.7714,-0.00179337,0.00835158,0.00379194,0.00961225,-0.00305405,1.24983,0.00763264,0.014886,1448,393,8.47914,64.7714
231,631,8.40198,-64.1339,-0.00155671,0.00879647,0.00426919,0.0103298,-0.00309004,1.22598,0.00811508,0.0119088,1455,393,8.402,64.1339
238,631,8.34326,-63.4724,-0.00101055,0.0100574,0.00535706,0.0122256,-0.00317871,1.18622,0.00939104,0.0173181,1462,393,8.34323,63.4723
245,631,8.30627,-62.8159,-0.000766913,0.011209,0.00607633,0.013752,-0.00330992,1.17444,0.0104476,0.0188207,1469,393,8.30622,62.8159
252,631,8.21802,-62.177,-0.000284741,0.012633,0.006966,0.0156737,-0.00332545,1.15922,0.011716,0.0189263,1476,393,8.21796,62.177
259,631,8.16211,-61.4797,0.000503588,0.014583,0.00824197,0.0183824,-0.00329587,1.13884,0.0134885,0.014642,1483,393,8.16215,61.4797
266,631,8.11389,-60.7828,0.00116442,0.0162091,0.00941657,0.020739,-0.00336551,1.12242,0.0150736,0.0126584,1490,393,8.11393,60.7828
273,631,8.06641,-60.0708,0.00189632,0.0183501,0.0107832,0.0236864,-0.00343998,1.11126,0.0170536,0.0155959,1497,393,8.06646,60.0708
280,631,8.01025,-59.2564,0.00266128,0.020545,0.0122512,0.0267705,-0.00356423,1.10065,0.019146,0.0158171,1504,393,8.01021,59.2564
287,631,7.92444,-58.4563,0.00347654,0.0230844,0.0138825,0.0302758,-0.00371486,1.09284,0.0215293,0.0177436,1511,393,7.92446,58.4563
294,631,7.81067,-57.5919,0.00412258,0.0255218,0.0153378,0.0335233,-0.00387889,1.08995,0.0237476,0.0224696,1518,393,7.81065,57.5919
301,631,7.6604,-56.7325,0.00476872,0.0277466,0.0167245,0.0365482,-0.00403288,1.08636,0.0258149,0.0345002,1525,393,7.66036,56.7325
308,631,7.84851,-55.707,0.0055587,0.0304817,0.018204,0.0400809,-0.00404053,1.08554,0.0281642,0.0499019,1532,393,7.84849,55.707
315,631,7.90674,-54.868,0,0,0,0,0,0,0,-1,1539,393,7.90679,54.8679
322,631,7.62439,-53.4194,0,0,0,0,0,0,0,-1,1546,393,7.62441,53.4194
329,631,5.70972,-38.2651,0,0,0,0,0,0,0,-1,1553,393,5.70967,38.2651
336,631,5.38281,-39.6306,0,0,0,0,0,0,0,-1,1560,393,5.38277,39.6306
343,631,6.21558,-38.7278,0,0,0,0,0,0,0,-1,1567,393,6.21558,38.7278
350,631,5.18359,-35.9677,0,0,0,0,0,0,0,-1,1574,393,5.18355,35.9677
357,631,2.6449,-9.60303,0,0,0,0,0,0,0,-1,1581,393,2.64491,9.60304
364,631,3.39136,-5.7594,0,0,0,0,0,0,0,-1,1588,393,3.39137,5.75939
371,631,3.72839,-6.0574,0,0,0,0,0,0,0,-1,1595,393,3.72845,6.05742
378,631,4.06555,-6.35544,0,0,0,0,0,0,0,-1,1602,393,4.06553,6.35544
385,631,3.90442,-3.58298,0,0,0,0,0,0,0,-1,1609,393,3.90437,3.58299
392,631,0.352295,-2.21301,0,0,0,0,0,0,0,-1,1616,393,0.352345,2.213
399,631,0,0,0,0,0,0,0,0,0,-1,1623,393,0,0
406,631,0,0,0,0,0,0,0,0,0,-1,1630,393,0,0
413,631,0,0,0,0,0,0,0,0,0,-1,1637,393,0,0
420,631,0,0,0,0,0,0,0,0,0,-1,1644,393,0,0
427,631,0,0,0,0,0,0,0,0,0,-1,1651,393,0,0
434,631,0,0,0,0,0,0,0,0,0,-1,1658,393,0,0
441,631,0,0,0,0,0,0,0,0,0,-1,1665,393,0,0
448,631,0,0,0,0,0,0,0,0,0,-1,1672,393,0,0
455,631,0,0,0,0,0,0,0,0,0,-1,1679,393,0,0
462,631,0,0,0,0,0,0,0,0,0,-1,1686,393,0,0
469,631,0,0,0,0,0,0,0,0,0,-1,1693,393,0,0
476,631,0,0,0,0,0,0,0,0,0,-1,1700,393,0,0
483,631,0,0,0,0,0,0,0,0,0,-1,1707,393,0,0
490,631,0,0,0,0,0,0,0,0,0,-1,1714,393,0,0
497,631,0,0,0,0,0,0,0,0,0,-1,1721,393,0,0
504,631,0,0,0,0,0,0,0,0,0,-1,1728,393,0,0
511,631,0,0,0,0,0,0,0,0,0,-1,1735,393,0,0
518,631,0,0,0,0,0,0,0,0,0,-1,1742,393,0,0
525,631,0,0,0,0,0,0,0,0,0,-1,1749,393,0,0
532,631,0,0,0,0,0,0,0,0,0,-1,1756,393,0,0
539,631,0,0,0,0,0,0,0,0,0,-1,1763,393,0,0
546,631,0,0,0,0,0,0,0,0,0,-1,1770,393,0,0
553,631,0,0,0,0,0,0,0,0,0,-1,1777,393,0,0
560,631,0,0,0,0,0,0,0,0,0,-1,1784,393,0,0
567,631,0,0,0,0,0,0,0,0,0,-1,1791,393,0,0
574,631,0,0,0,0,0,0,0,0,0,-1,1798,393,0,0
581,631,0,0,0,0,0,0,0,0,0,-1,1805,393,0,0
588,631,0,0,0,0,0,0,0,0,0,-1,1812,393,0,0
595,631,0,0,0,0,0,0,0,0,0,-1,1819,393,0,0
602,631,0,0,0,0,0,0,0,0,0,-1,1826,393,0,0
609,631,0,0,0,0,0,0,0,0,0,-1,1833,393,0,0
616,631,0,0,0,0,0,0,0,0,0,-1,1840,393,0,0
623,631,0,0,0,0,0,0,0,0,0,-1,1847,393,0,0
630,631,0,0,0,0,0,0,0,0,0,-1,1854,393,0,0
637,631,0,0,0,0,0,0,0,0,0,-1,1861,393,0,0
644,631,0,0,0,0,0,0,0,0,0,-1,1868,393,0,0
651,631,0,0,0,0,0,0,0,0,0,-1,1875,393,0,0
658,631,0,0,0,0,0,0,0,0,0,-1,1882,393,0,0
665,631,0,0,0,0,0,0,0,0,0,-1,1889,393,0,0
672,631,0,0,0,0,0,0,0,0,0,-1,1896,393,0,0
679,631,0,0,0,0,0,0,0,0,0,-1,1903,393,0,0
686,631,0,0,0,0,0,0,0,0,0,-1,1910,393,0,0
693,631,0,0,0,0,0,0,0,0,0,-1,1917,393,0,0
700,631,0,0,0,0,0,0,0,0,0,-1,1924,393,0,0
707,631,0,0,0,0,0,0,0,0,0,-1,1931,393,0,0
714,631,0,0,0,0,0,0,0,0,0,-1,1938,393,0,0
721,631,0,0,0,0,0,0,0,0,0,-1,1945,393,0,0
728,631,0,0,0,0,0,0,0,0,0,-1,1952,393,0,0
735,631,0,0,0,0,0,0,0,0,0,-1,1959,393,0,0
742,631,0,0,0,0,0,0,0,0,0,-1,1966,393,0,0
749,631,0,0,0,0,0,0,0,0,0,-1,1973,393,0,0
756,631,0,0,0,0,0,0,0,0,0,-1,1980,393,0,0
763,631,0,0,0,0,0,0,0,0,0,-1,1987,393,0,0
770,631,0,0,0,0,0,0,0,0,0,-1,1994,393,0,0
777,631,0,0,0,0,0,0,0,0,0,-1,2001,393,0,0
784,631,0,0,0,0,0,0,0,0,0,-1,2008,393,0,0
791,631,0,0,0,0,0,0,0,0,0,-1,2015,393,0,0
798,631,0,0,0,0,0,0,0,0,0,-1,2022,393,0,0
805,631,0,0,0,0,0,0,0,0,0,-1,2029,393,0,0
812,631,0,0,0,0,0,0,0,0,0,-1,2036,393,0,0
-700,624,0,0,0,0,0,0,0,0,0,-1,524,400,0,0
-693,624,0,0,0,0,0,0,0,0,0,-1,531,400,0,0
-686,624,0,0,0,0,0,0,0,0,0,-1,538,400,0,0
-679,624,0,0,0,0,0,0,0,0,0,-1,545,400,0,0
-672,624,0,0,0,0,0,0,0,0,0,-1,552,400,0,0
-665,624,0,0,0,0,0,0,0,0,0,-1,559,400,0,0
-658,624,0,0,0,0,0,0,0,0,0,-1,566,400,0,0
-651,624,0,0,0,0,0,0,0,0,0,-1,573,400,0,0
-644,624,0,0,0,0,0,0,0,0,0,-1,580,400,0,0
-637,624,0,0,0,0,0,0,0,0,0,-1,587,400,0,0
-630,624,0,0,0,0,0,0,0,0,0,-1,594,400,0,0
-623,624,0,0,0,0,0,0,0,0,0,-1,601,400,0,0
-616,624,0,0,0,0,0,0,0,0,0,-1,608,400,0,0
-609,624,0,0,0,0,0,0,0,0,0,-1,615,400,0,0
-602,624,0,0,0,0,0,0,0,0,0,-1,622,400,0,0
-595,624,0,0,0,0,0,0,0,0,0,-1,629,400,0,0
-588,624,0,0,0,0,0,0,0,0,0,-1,636,400,0,0
-581,624,0,0,0,0,0,0,0,0,0,-1,643,400,0,0
-574,624,0,0,0,0,0,0,0,0,0,-1,650,400,0,0
-567,624,0,0,0,0,0,0,0,0,0,-1,657,400,0,0
-560,624,0,0,0,0,0,0,0,0,0,-1,664,400,0,0
-553,624,0,0,0,0,0,0,0,0,0,-1,671,400,0,0
-546,624,0,0,0,0,0,0,0,0,0,-1,678,400,0,0
-539,624,0,0,0,0,0,0,0,0,0,-1,685,400,0,0
-532,624,0,0,0,0,0,0,0,0,0,-1,692,400,0,0
-525,624,0,0,0,0,0,0,0,0,0,-1,699,400,0,0
-518,624,0,0,0,0,0,0,0,0,0,-1,706,400,0,0
-511,624,0,0,0,0,0,0,0,0,0,-1,713,400,0,0
-504,624,0,0,0,0,0,0,0,0,0,-1,720,400,0,0
-497,624,0,0,0,0,0,0,0,0,0,-1,727,400,0,0
-490,624,0,0,0,0,0,0,0,0,0,-1,734,400,0,0
-483,624,0,0,0,0,0,0,0,0,0,-1,741,400,0,0
-476,624,0,0,0,0,0,0,0,0,0,-1,748,400,0,0
-469,624,0,0,0,0,0,0,0,0,0,-1,755,400,0,0
-462,624,0,0,0,0,0,0,0,0,0,-1,762,400,0,0
-455,624,0,0,0,0,0,0,0,0,0,-1,769,400,0,0
-448,624,0,0,0,0,0,0,0,0,0,-1,776,400,0,0
-441,624,0,0,0,0,0,0,0,0,0,-1,783,400,0,0
-434,624,0,0,0,0,0,0,0,0,0,-1,790,400,0,0
-427,624,0,0,0,0,0,0,0,0,0,-1,797,400,0,0
-420,624,0,0,0,0,0,0,0,0,0,-1,804,400,0,0
-413,624,0,0,0,0,0,0,0,0,0,-1,811,400,0,0
-406,624,0,0,0,0,0,0,0,0,0,-1,818,400,0,0
-399,624,0,0,0,0,0,0,0,0,0,-1,825,400,0,0
-392,624,0,0,0,0,0,0,0,0,0,-1,832,400,0,0
-385,624,0,0,0,0,0,0,0,0,0,-1,839,400,0,0
-378,624,0,0,0,0,0,0,0,0,0,-1,846,400,0,0
-371,624,0,0,0,0,0,0,0,0,0,-1,853,400,0,0
-364,624,0,0,0,0,0,0,0,0,0,-1,860,400,0,0
-357,624,0,0,0,0,0,0,0,0,0,-1,867,400,0,0
-350,624,0,0,0,0,0,0,0,0,0,-1,874,400,0,0
-343,624,0,0,0,0,0,0,0,0,0,-1,881,400,0,0
-336,624,0,0,0,0,0,0,0,0,0,-1,888,400,0,0
-329,624,0,0,0,0,0,0,0,0,0,-1,895,400,0,0
-322,624,0,0,0,0,0,0,0,0,0,-1,902,400,0,0
-315,624,0,0,0,0,0,0,0,0,0,-1,909,400,0,0
-308,624,0,0,0,0,0,0,0,0,0,-1,916,400,0,0
-301,624,0,0,0,0,0,0,0,0,0,-1,923,400,0,0
-294,624,5.08527,-28.5311,0,0,0,0,0,0,0,-1,930,400,5.08525,28.5311
-287,624,6.70825,-33.8,0,0,0,0,0,0,0,-1,937,400,6.70827,33.8
-280,624,6.92474,-33.8738,0,0,0,0,0,0,0,-1,944,400,6.92477,33.8739
-273,624,8.617,-37.3463,0,0,0,0,0,0,0,-1,951,400,8.61697,37.3463
-266,624,7.71747,-37.0599,0,0,0,0,0,0,0,-1,958,400,7.7175,37.0599
-259,624,7.33569,-33.1199,0,0,0,0,0,0,0,-1,965,400,7.33567,33.1199
-252,624,7.5528,-32.8158,0,0,0,0,0,0,0,-1,972,400,7.5528,32.8158
-245,624,6.8396,-32.02,0,0,0,0,0,0,0,-1,979,400,6.83963,32.02
-238,624,6.99402,-31.5278,0,0,0,0,0,0,0,-1,986,400,6.99404,31.5278
-231,624,3.86121,-29.6032,0,0,0,0,0,0,0,-1,993,400,3.86122,29.6032
-224,624,4.59351,-27.4048,0,0,0,0,0,0,0,-1,1000,400,4.59353,27.4048
-217,624,9.39142,-50.7224,0,0,0,0,0,0,0,-1,1007,400,9.39142,50.7224
-210,624,9.23602,-52.8063,0,0,0,0,0,0,0,-1,1014,400,9.236,52.8063
-203,624,8.76904,-53.7169,0,0,0,0,0,0,0,-1,1021,400,8.76899,53.717
-196,624,8.79944,-54.5622,0,0,0,0,0,0,0,-1,1028,400,8.79943,54.5622
-189,624,8.64502,-55.5611,0,0,0,0,0,0,0,-1,1035,400,8.64497,55.5611
-182,624,8.53589,-56.4323,0,0,0,0,0,0,0,-1,1042,400,8.53588,56.4323
-175,624,8.43384,-57.0136,-0.00390264,0.0156574,-0.00909153,0.0192305,-0.0074757,-1.19633,0.0159089,0.0347904,1049,400,8.43379,57.0137
-168,624,8.50354,-57.9628,-0.00376661,0.0139013,-0.00820314,0.0171227,-0.00698795,-1.1966,0.0143243,0.0256232,1056,400,8.50354,57.9628
-161,624,8.38013,-58.7799,-0.00362885,0.012561,-0.00751142,0.0155091,-0.00657698,-1.19678,0.0130944,0.0130702,1063,400,8.38011,58.7799
-154,624,8.30017,-59.5121,-0.00329185,0.0112846,-0.00689851,0.0140317,-0.00603895,-1.19183,0.0118901,0.0106671,1070,400,8.30023,59.5121
-147,624,8.24121,-60.2469,-0.00310705,0.0101943,-0.00619293,0.0126312,-0.00554394,-1.19591,0.0107561,0.0115207,1077,400,8.2412,60.247
-140,624,8.18542,-60.9309,-0.00287405,0.00909424,-0.00559107,0.0112997,-0.00507953,-1.19507,0.00968121,0.0104853,1084,400,8.18544,60.931
-133,624,8.09949,-61.6255,-0.00259396,0.00810853,-0.00502396,0.0100973,-0.00458275,-1.19386,0.00867258,0.011336,1091,400,8.09944,61.6255
-126,624,8.04272,-62.2888,-0.00239734,0.00712357,-0.00439521,0.00884229,-0.00411606,-1.19803,0.00764558,0.0134579,1098,400,8.04276,62.2888
-119,624,7.97949,-62.9387,-0.00216353,0.00601958,-0.00372525,0.00746141,-0.00360536,-1.20151,0.0065174,0.0167368,1105,400,7.97945,62.9387
-112,624,7.94617,-63.5852,-0.00177393,0.00509573,-0.00316886,0.0063342,-0.0030124,-1.19822,0.00550869,0.019666,1112,400,7.94616,63.5852
-105,624,7.97571,-64.2146,-0.00135546,0.00434669,-0.00271618,0.00543341,-0.00244218,-1.19021,0.00465501,0.0143682,1119,400,7.97573,64.2146
-98,624,7.92273,-64.7995,-0.000961932,0.00369628,-0.00229166,0.00463466,-0.00190031,-1.18215,0.00388149,0.014905,1126,400,7.92278,64.7995
-91,624,7.89587,-65.3578,-0.000576064,0.00318197,-0.00190323,0.00397746,-0.00137156,-1.1749,0.00320809,0.0205994,1133,400,7.8959,65.3578
-84,624,7.88586,-65.9445,-0.000151852,0.00245312,-0.00145315,0.00310207,-0.000800808,-1.15079,0.00238032,0.0184402,1140,400,7.88584,65.9445
-77,624,7.83325,-66.5052,0.000340487,0.0020731,-0.00110881,0.0026139,-0.000200311,-1.11701,0.00181306,0.0151528,1147,400,7.83324,66.5052
-70,624,7.82605,-66.993,0.000903455,0.00169296,-0.000817809,0.0022063,0.00039011,-1.01025,0.00135962,0.0176632,1154,400,7.82608,66.993
-63,624,7.85559,-67.5288,0.00134912,0.000772843,-0.000557438,0.00168848,0.000433476,-0.546862,0.00101258,0.0204816,1161,400,7.85564,67.5288
-56,624,7.80762,-68.0128,0.00161992,-0.000463099,-0.000308035,0.00166451,-0.000507697,-0.143781,0.00131207,0.0169707,1168,400,7.80767,68.0128
-49,624,7.80627,-68.4657,0.00180058,-0.00195076,-0.000187199,0.0018099,-0.00196007,-0.0497373,0.00217717,0.0123597,1175,400,7.80627,68.4657
-42,624,7.802,-68.8763,0.00151877,-0.00411456,-0.000488757,0.00156086,-0.00415665,-0.0859063,0.00341252,0.0103054,1182,400,7.80198,68.8763
-35,624,7.77747,-69.2744,0.00152493,-0.00581096,-0.00062029,0.00157701,-0.00586304,-0.083763,0.00452687,0.0161531,1189,400,7.77744,69.2744
-28,624,7.77905,-69.6935,0.00108649,-0.00827858,-0.000801459,0.00115459,-0.00834667,-0.0847582,0.00598654,0.0206577,1196,400,7.77911,69.6935
-21,624,7.80579,-70.0379,0.00060701,-0.0107057,-0.00111134,0.000715153,-0.0108139,-0.0970026,0.00745908,0.0146776,1203,400,7.80584,70.0379
-14,624,7.8667,-70.3667,0.000237328,-0.013025,-0.00157756,0.000422398,-0.0132101,-0.11678,0.00895083,0.015843,1210,400,7.86675,70.3667
-7,624,7.93103,-70.6161,-6.18356e-06,-0.0156529,-0.00205893,0.000260212,-0.0159193,-0.128671,0.0107007,0.0210253,1217,400,7.93098,70.6161
0,624,7.97729,-70.8919,-0.000324918,-0.0176019,-0.00252919,3.77195e-05,-0.0179646,-0.14241,0.011989,0.0230079,1224,400,7.97728,70.8919
7,624,7.96594,-71.1668,-0.000445929,-0.0191849,-0.00284977,-2.21282e-05,-0.0196087,-0.147632,0.0130651,0.0170011,1231,400,7.966,71.1668
14,624,8.05493,-71.424,-0.000706458,-0.0202452,-0.0029998,-0.00025627,-0.0206954,-0.148961,0.0137123,0.0134974,1238,400,8.05489,71.424
21,624,8.07361,-71.5953,-0.000968959,-0.0207774,-0.00305006,-0.000509955,-0.0212364,-0.14937,0.0139907,0.0163826,1245,400,8.07358,71.5953
28,624,8.09656,-71.7488,-0.00141534,-0.0205129,-0.00294301,-0.000972098,-0.0209562,-0.149485,0.0136583,0.015695,1252,400,8.09657,71.7488
35,624,8.16467,-71.8536,-0.00173442,-0.0199247,-0.0027626,-0.00132411,-0.020335,-0.147444,0.0131376,0.0172488,1259,400,8.16467,71.8536
42,624,8.25366,-71.9653,-0.00174662,-0.0179469,-0.00243258,-0.00138923,-0.0183043,-0.145872,0.0117671,0.0189363,1266,400,8.25365,71.9653
49,624,8.3501,-72.0259,-0.00164602,-0.0153913,-0.00179545,-0.00141536,-0.0156219,-0.127767,0.00997637,0.020436,1273,400,8.35011,72.0259
56,624,8.40588,-72.1283,-0.00161656,-0.0129889,-0.00124425,-0.00148201,-0.0131235,-0.107712,0.0082992,0.0209889,1280,400,8.40584,72.1283
63,624,8.45837,-72.1548,-0.00125951,-0.0101928,-0.00050188,-0.0012314,-0.0102209,-0.0559463,0.0064428,0.0173362,1287,400,8.45832,72.1548
70,624,8.46558,-72.1585,-0.00115015,-0.00785042,-6.30304e-05,-0.00114956,-0.00785102,-0.00940603,0.00489602,0.0160624,1294,400,8.46555,72.1585
77,624,8.53638,-72.1219,-0.000640951,-0.00519499,0.000337301,-0.000616104,-0.00521984,0.0735317,0.00329379,0.0175631,1301,400,8.53636,72.1219
84,624,8.62891,-72.0176,5.68394e-05,-0.0032214,0.000577742,0.000155678,-0.00332024,0.169437,0.00226717,0.0157501,1308,400,8.62892,72.0176
91,624,8.69214,-71.8762,0.000585174,-0.00195298,0.000718413,0.000774409,-0.00214222,0.257556,0.00174455,0.0154367,1315,400,8.69209,71.8762
98,624,8.74963,-71.7619,0.00113358,-0.000836757,0.000760156,0.00139276,-0.00109593,0.328591,0.00144025,0.0141428,1322,400,8.74958,71.7619
105,624,8.79932,-71.6543,0.00211102,-0.000788961,0.000702309,0.00227215,-0.000950092,0.225526,0.00191185,0.0153381,1329,400,8.79928,71.6543
112,624,8.85571,-71.4753,0.00294147,-0.00106214,0.0004054,0.00298211,-0.00110278,0.0999074,0.00244019,0.0161279,1336,400,8.85568,71.4753
119,624,8.88831,-71.297,0.00387861,-0.00137019,-1.57871e-07,0.00387861,-0.00137019,-3.00776e-05,0.00314363,0.0163473,1343,400,8.88834,71.297
126,624,8.86707,-70.9896,0.00463841,-0.00175686,-0.000460964,0.00467147,-0.00178992,-0.0715856,0.00385216,0.0202791,1350,400,8.86707,70.9896
133,624,8.95654,-70.6675,0.00527014,-0.00228474,-0.000896151,0.00537499,-0.00238959,-0.116466,0.004592,0.0205623,1357,400,8.95649,70.6675
140,624,8.99011,-70.4023,0.00532775,-0.00237432,-0.00116886,0.00550123,-0.0025478,-0.14734,0.00475024,0.0199952,1364,400,8.99008,70.4024
147,624,8.97583,-70.0506,0.00504293,-0.00285337,-0.00144025,0.00529742,-0.00310786,-0.174896,0.00490737,0.0236744,1371,400,8.97587,70.0506
154,624,9.05396,-69.6843,0.00466033,-0.0029345,-0.00181831,0.00507321,-0.00334738,-0.223283,0.00489555,0.0260926,1378,400,9.05395,69.6843
161,624,9.13525,-69.2821,0.00419893,-0.00203716,-0.00157852,0.00457572,-0.00241396,-0.234318,0.00409933,0.0252673,1385,400,9.13528,69.2822
168,624,9.146,-68.8746,0.00369637,-0.00106228,-0.00122973,0.00399537,-0.00136128,-0.238514,0.00321489,0.0254611,1392,400,9.14597,68.8746
175,624,9.15442,-68.4811,0.00321027,-0.000110456,-0.000872286,0.00342545,-0.000325643,-0.241864,0.00239956,0.0192546,1399,400,9.15448,68.4812
182,624,9.14185,-68.0076,0.00259716,0.000920087,-0.000441879,0.00270646,0.000810783,-0.242493,0.00160388,0.0110592,1406,400,9.1418,68.0076
189,624,9.09924,-67.5097,0.0019681,0.0019774,0.000116987,0.00208983,0.00185567,0.805263,0.0013221,0.0104237,1413,400,9.09922,67.5097
196,624,9.07373,-66.9875,0.00152413,0.00306275,0.000715228,0.00334386,0.00124301,1.1963,0.00195164,0.0118958,1420,400,9.07369,66.9875
203,624,9.1084,-66.452,0.00106108,0.00392763,0.0012259,0.00438039,0.000608325,1.21701,0.00274009,0.0145691,1427,400,9.10841,66.452
210,624,9.10107,-65.8989,0.000530495,0.00451951,0.00167719,0.00513096,-8.09592e-05,1.2212,0.00344795,0.0189575,1434,400,9.10103,65.8989
217,624,9.0282,-65.2993,0.000173415,0.00500752,0.00206787,0.00577138,-0.000590446,1.21695,0.00405874,0.0227944,1441,400,9.02824,65.2993
224,624,8.98999,-64.7246,-2.94327e-05,0.0056018,0.00244459,0.00651495,-0.000942583,1.21331,0.00468918,0.0176259,1448,400,8.98994,64.7246
231,624,8.99963,-64.1316,-6.69579e-05,0.00615421,0.00293558,0.0073207,-0.00123345,1.19257,0.00533932,0.01286,1455,400,8.99967,64.1315
238,624,8.95581,-63.4897,0.000134412,0.00718673,0.00376081,0.00881591,-0.00149477,1.162,0.00643367,0.0185573,1462,400,8.95578,63.4897
245,624,8.92432,-62.8642,0.0001799,0.00816137,0.00435864,0.0100803,-0.001739,1.15608,0.00736857,0.0183944,1469,400,8.92437,62.8642
252,624,8.86853,-62.2011,0.000351035,0.00933701,0.00507442,0.0116217,-0.00193364,1.14775,0.00846626,0.0130374,1476,400,8.86852,62.2011
259,624,8.81506,-61.5109,0.000727647,0.0108969,0.00607023,0.0137307,-0.00210612,1.13403,0.00993058,0.00978251,1483,400,8.8151,61.5109
266,624,8.81055,-60.7877,0.00103754,0.0122237,0.00699265,0.0155849,-0.00232369,1.12272,0.0112448,0.0132541,1490,400,8.81052,60.7877
273,624,8.75208,-60.0638,0.00139071,0.0139073,0.00804156,0.0178388,-0.00254084,1.11606,0.0128237,0.0161379,1497,400,8.75206,60.0638
280,624,8.65527,-59.3364,0.00178198,0.0156313,0.00918319,0.020208,-0.00279475,1.10844,0.0144937,0.0157541,1504,400,8.65522,59.3364
287,624,8.57593,-58.608,0.00225105,0.0176136,0.0104386,0.0228925,-0.00302786,1.10259,0.0163646,0.0126039,1511,400,8.57593,58.608
294,624,8.51514,-57.8289,0.00258324,0.0194547,0.0115326,0.0253076,-0.00326957,1.10117,0.0180605,0.0113904,1518,400,8.51519,57.829
301,624,8.44507,-56.9927,0.0029128,0.0211162,0.0125917,0.0275513,-0.00352226,1.09834,0.0196471,0.0133959,1525,400,8.44508,56.9927
308,624,8.41333,-56.1345,0.00337429,0.0232168,0.0137361,0.0302399,-0.0036488,1.09816,0.0214797,0.018842,1532,400,8.41332,56.1344
315,624,8.39087,-55.3237,0.00397028,0.0255379,0.0149931,0.0332226,-0.00371437,1.09716,0.0234846,0.0271408,1539,400,8.39085,55.3237
322,624,8.32141,-54.5475,0,0,0,0,0,0,0,-1,1546,400,8.32142,54.5475
329,624,8.12842,-53.8761,0,0,0,0,0,0,0,-1,1553,400,8.12842,53.8761
336,624,8.14185,-52.3585,0,0,0,0,0,0,0,-1,1560,400,8.14186,52.3585
343,624,6.53369,-39.5615,0,0,0,0,0,0,0,-1,1567,400,6.53364,39.5615
350,624,1.99194,-7.29742,0,0,0,0,0,0,0,-1,1574,400,1.99198,7.29741
357,624,2.64075,-3.13092,0,0,0,0,0,0,0,-1,1581,400,2.64076,3.13091
364,624,3.16565,-4.9458,0,0,0,0,0,0,0,-1,1588,400,3.16564,4.94579
371,624,3.37561,-5.23529,0,0,0,0,0,0,0,-1,1595,400,3.37563,5.23529
378,624,1.50439,-5.22165,0,0,0,0,0,0,0,-1,1602,400,1.50438,5.22164
385,624,1.2301,-10.5866,0,0,0,0,0,0,0,-1,1609,400,1.2301,10.5866
392,624,4.26819,-5.14236,0,0,0,0,0,0,0,-1,1616,400,4.26818,5.14236
399,624,2.22168,-9.19293,0,0,0,0,0,0,0,-1,1623,400,2.22173,9.19294
406,624,2.68213,-9.91171,0,0,0,0,0,0,0,-1,1630,400,2.68213,9.91171
413,624,0,0,0,0,0,0,0,0,0,-1,1637,400,0,0
420,624,0,0,0,0,0,0,0,0,0,-1,1644,400,0,0
427,624,0,0,0,0,0,0,0,0,0,-1,1651,400,0,0
434,624,0,0,0,0,0,0,0,0,0,-1,1658,400,0,0
441,624,0,0,0,0,0,0,0,0,0,-1,1665,400,0,0
448,624,0,0,0,0,0,0,0,0,0,-1,1672,400,0,0
455,624,0,0,0,0,0,0,0,0,0,-1,1679,400,0,0
462,624,0,0,0,0,0,0,0,0,0,-1,1686,400,0,0
469,624,0,0,0,0,0,0,0,0,0,-1,1693,400,0,0
476,624,0,0,0,0,0,0,0,0,0,-1,1700,400,0,0
483,624,0,0,0,0,0,0,0,0,0,-1,1707,400,0,0
490,624,0,0,0,0,0,0,0,0,0,-1,1714,400,0,0
497,624,0,0,0,0,0,0,0,0,0,-1,1721,400,0,0
504,624,0,0,0,0,0,0,0,0,0,-1,1728,400,0,0
511,624,0,0,0,0,0,0,0,0,0,-1,1735,400,0,0
518,624,0,0,0,0,0,0,0,0,0,-1,1742,400,0,0
525,624,0,0,0,0,0,0,0,0,0,-1,1749,400,0,0
532,624,0,0,0,0,0,0,0,0,0,-1,1756,400,0,0
539,624,0,0,0,0,0,0,0,0,0,-1,1763,400,0,0
546,624,0,0,0,0,0,0,0,0,0,-1,1770,400,0,0
553,624,0,0,0,0,0,0,0,0,0,-1,1777,400,0,0
560,624,0,0,0,0,0,0,0,0,0,-1,1784,400,0,0
567,624,0,0,0,0,0,0,0,0,0,-1,1791,400,0,0
574,624,0,0,0,0,0,0,0,0,0,-1,1798,400,0,0
581,624,0,0,0,0,0,0,0,0,0,-1,1805,400,0,0
588,624,0,0,0,0,0,0,0,0,0,-1,1812,400,0,0
595,624,0,0,0,0,0,0,0,0,0,-1,1819,400,0,0
602,624,0,0,0,0,0,0,0,0,0,-1,1826,400,0,0
609,624,0,0,0,0,0,0,0,0,0,-1,1833,400,0,0
616,624,0,0,0,0,0,0,0,0,0,-1,1840,400,0,0
623,624,0,0,0,0,0,0,0,0,0,-1,1847,400,0,0
630,624,0,0,0,0,0,0,0,0,0,-1,1854,400,0,0
637,624,0,0,0,0,0,0,0,0,0,-1,1861,400,0,0
644,624,0,0,0,0,0,0,0,0,0,-1,1868,400,0,0
651,624,0,0,0,0,0,0,0,0,0,-1,1875,400,0,0
658,624,0,0,0,0,0,0,0,0,0,-1,1882,400,0,0
665,624,0,0,0,0,0,0,0,0,0,-1,1889,400,0,0
672,624,0,0,0,0,0,0,0,0,0,-1,1896,400,0,0
679,624,0,0,0,0,0,0,0,0,0,-1,1903,400,0,0
686,624,0,0,0,0,0,0,0,0,0,-1,1910,400,0,0
693,624,0,0,0,0,0,0,0,0,0,-1,1917,400,0,0
700,624,0,0,0,0,0,0,0,0,0,-1,1924,400,0,0
707,624,0,0,0,0,0,0,0,0,0,-1,1931,400,0,0
714,624,0,0,0,0,0,0,0,0,0,-1,1938,400,0,0
721,624,0,0,0,0,0,0,0,0,0,-1,1945,400,0,0
728,624,0,0,0,0,0,0,0,0,0,-1,1952,400,0,0
735,624,0,0,0,0,0,0,0,0,0,-1,1959,400,0,0
742,624,0,0,0,0,0,0,0,0,0,-1,1966,400,0,0
749,624,0,0,0,0,0,0,0,0,0,-1,1973,400,0,0
756,624,0,0,0,0,0,0,0,0,0,-1,1980,400,0,0
763,624,0,0,0,0,0,0,0,0,0,-1,1987,400,0,0
770,624,0,0,0,0,0,0,0,0,0,-1,1994,400,0,0
777,624,0,0,0,0,0,0,0,0,0,-1,2001,400,0,0
784,624,0,0,0,0,0,0,0,0,0,-1,2008,400,0,0
791,624,0,0,0,0,0,0,0,0,0,-1,2015,400,0,0
798,624,0,0,0,0,0,0,0,0,0,-1,2022,400,0,0
805,624,0,0,0,0,0,0,0,0,0,-1,2029,400,0,0
812,624,0,0,0,0,0,0,0,0,0,-1,2036,400,0,0
-700,617,0,0,0,0,0,0,0,0,0,-1,524,407,0,0
-693,617,0,0,0,0,0,0,0,0,0,-1,531,407,0,0
-686,617,0,0,0,0,0,0,0,0,0,-1,538,407,0,0
-679,617,0,0,0,0,0,0,0,0,0,-1,545,407,0,0
-672,617,0,0,0,0,0,0,0,0,0,-1,552,407,0,0
-665,617,0,0,0,0,0,0,0,0,0,-1,559,407,0,0
-658,617,0,0,0,0,0,0,0,0,0,-1,566,407,0,0
-651,617,0,0,0,0,0,0,0,0,0,-1,573,407,0,0
-644,617,0,0,0,0,0,0,0,0,0,-1,580,407,0,0
-637,617,0,0,0,0,0,0,0,0,0,-1,587,407,0,0
-630,617,0,0,0,0,0,0,0,0,0,-1,594,407,0,0
-623,617,0,0,0,0,0,0,0,0,0,-1,601,407,0,0
-616,617,0,0,0,0,0,0,0,0,0,-1,608,407,0,0
-609,617,0,0,0,0,0,0,0,0,0,-1,615,407,0,0
-602,617,0,0,0,0,0,0,0,0,0,-1,622,407,0,0
-595,617,0,0,0,0,0,0,0,0,0,-1,629,407,0,0
-588,617,0,0,0,0,0,0,0,0,0,-1,636,407,0,0
-581,617,0,0,0,0,0,0,0,0,0,-1,643,407,0,0
-574,617,0,0,0,0,0,0,0,0,0,-1,650,407,0,0
-567,617,0,0,0,0,0,0,0,0,0,-1,657,407,0,0
-560,617,0,0,0,0,0,0,0,0,0,-1,664,407,0,0
-553,617,0,0,0,0,0,0,0,0,0,-1,671,407,0,0
-546,617,0,0,0,0,0,0,0,0,0,-1,678,407,0,0
-539,617,0,0,0,0,0,0,0,0,0,-1,685,407,0,0
-532,617,0,0,0,0,0,0,0,0,0,-1,692,407,0,0
-525,617,0,0,0,0,0,0,0,0,0,-1,699,407,0,0
-518,617,0,0,0,0,0,0,0,0,0,-1,706,407,0,0
-511,617,0,0,0,0,0,0,0,0,0,-1,713,407,0,0
-504,617,0,0,0,0,0,0,0,0,0,-1,720,407,0,0
-497,617,0,0,0,0,0,0,0,0,0,-1,727,407,0,0
-490,617,0,0,0,0,0,0,0,0,0,-1,734,407,0,0
-483,617,0,0,0,0,0,0,0,0,0,-1,741,407,0,0
-476,617,0,0,0,0,0,0,0,0,0,-1,748,407,0,0
-469,617,0,0,0,0,0,0,0,0,0,-1,755,407,0,0
-462,617,0,0,0,0,0,0,0,0,0,-1,762,407,0,0
-455,617,0,0,0,0,0,0,0,0,0,-1,769,407,0,0
-448,617,0,0,0,0,0,0,0,0,0,-1,776,407,0,0
-441,617,0,0,0,0,0,0,0,0,0,-1,783,407,0,0
-434,617,0,0,0,0,0,0,0,0,0,-1,790,407,0,0
-427,617,0,0,0,0,0,0,0,0,0,-1,797,407,0,0
-420,617,0,0,0,0,0,0,0,0,0,-1,804,407,0,0
-413,617,0,0,0,0,0,0,0,0,0,-1,811,407,0,0
-406,617,0,0,0,0,0,0,0,0,0,-1,818,407,0,0
-399,617,0,0,0,0,0,0,0,0,0,-1,825,407,0,0
-392,617,0,0,0,0,0,0,0,0,0,-1,832,407,0,0
-385,617,0,0,0,0,0,0,0,0,0,-1,839,407,0,0
-378,617,0,0,0,0,0,0,0,0,0,-1,846,407,0,0
-371,617,0,0,0,0,0,0,0,0,0,-1,853,407,0,0
-364,617,0,0,0,0,0,0,0,0,0,-1,860,407,0,0
-357,617,0,0,0,0,0,0,0,0,0,-1,867,407,0,0
-350,617,0,0,0,0,0,0,0,0,0,-1,874,407,0,0
-343,617,0,0,0,0,0,0,0,0,0,-1,881,407,0,0
-336,617,0,0,0,0,0,0,0,0,0,-1,888,407,0,0
-329,617,0,0,0,0,0,0,0,0,0,-1,895,407,0,0
-322,617,0,0,0,0,0,0,0,0,0,-1,902,407,0,0
-315,617,0,0,0,0,0,0,0,0,0,-1,909,407,0,0
-308,617,0,0,0,0,0,0,0,0,0,-1,916,407,0,0
-301,617,6.81897,-24.525,0,0,0,0,0,0,0,-1,923,407,6.81899,24.525
-294,617,6.19263,-26.917,0,0,0,0,0,0,0,-1,930,407,6.19261,26.917
-287,617,7.00409,-31.9773,0,0,0,0,0,0,0,-1,937,407,7.00406,31.9773
-280,617,9.1106,-36.5021,0,0,0,0,0,0,0,-1,944,407,9.11059,36.5021
-273,617,8.35004,-36.2751,0,0,0,0,0,0,0,-1,951,407,8.35003,36.2751
-266,617,7.61749,-36.1671,0,0,0,0,0,0,0,-1,958,407,7.61746,36.1671
-259,617,6.83643,-36.3605,0,0,0,0,0,0,0,-1,965,407,6.83643,36.3605
-252,617,6.02264,-36.5001,0,0,0,0,0,0,0,-1,972,407,6.02265,36.5001
-245,617,6.72626,-34.4465,0,0,0,0,0,0,0,-1,979,407,6.72627,34.4465
-238,617,5.6474,-34.6842,0,0,0,0,0,0,0,-1,986,407,5.64741,34.6842
-231,617,8.32153,-49.8604,0,0,0,0,0,0,0,-1,993,407,8.32156,49.8605
-224,617,7.91461,-50.8893,0,0,0,0,0,0,0,-1,1000,407,7.91461,50.8893
-217,617,8.26996,-52.0461,0,0,0,0,0,0,0,-1,1007,407,8.26998,52.0461
-210,617,8.3056,-53.0036,-0.00410049,0.0251724,-0.0116472,0.0292411,-0.0081692,-1.23472,0.0227123,0.0392926,1014,407,8.3056,53.0036
-203,617,8.07959,-53.905,-0.00391748,0.0215011,-0.0103703,0.0251952,-0.00761152,-1.2286,0.0198271,0.0318643,1021,407,8.07962,53.905
-196,617,8.07568,-54.709,-0.00370639,0.0181835,-0.00921299,0.0215449,-0.00706777,-1.22095,0.01721,0.0234692,1028,407,8.07568,54.709
-189,617,7.93262,-55.6149,-0.00340217,0.0159598,-0.00849191,0.0191565,-0.00659884,-1.21077,0.0154478,0.0197859,1035,407,7.93265,55.6149
-182,617,7.8396,-56.4247,-0.00314179,0.0138071,-0.0076794,0.016769,-0.00610367,-1.20269,0.0136757,0.0201343,1042,407,7.8396,56.4246
-175,617,7.82581,-57.2037,-0.00284324,0.0117775,-0.0068008,0.0144518,-0.00551747,-1.19615,0.0119077,0.0186648,1049,407,7.8258,57.2037
-168,617,7.75171,-58.0083,-0.00265335,0.0102154,-0.00604021,0.0126063,-0.00504423,-1.19389,0.0104977,0.0140224,1056,407,7.75172,58.0083
-161,617,7.66589,-58.7884,-0.00243418,0.00899946,-0.00545406,0.0111838,-0.00461855,-1.18986,0.00938231,0.0114203,1063,407,7.66587,58.7884
-154,617,7.59814,-59.4973,-0.00203909,0.0078577,-0.0049216,0.00988847,-0.00406985,-1.17945,0.00828895,0.0121577,1070,407,7.59814,59.4973
-147,617,7.56482,-60.2001,-0.00173752,0.00690193,-0.00432548,0.00869529,-0.00353088,-1.17776,0.00726566,0.0169489,1077,407,7.56476,60.2001
-140,617,7.52258,-60.954,-0.001396,0.00595017,-0.00381093,0.00756998,-0.00301581,-1.16889,0.00629742,0.012922,1084,407,7.52257,60.9541
-133,617,7.46069,-61.6583,-0.00101605,0.00512849,-0.00333362,0.00658963,-0.00247719,-1.15771,0.00541124,0.0151054,1091,407,7.4607,61.6583
-126,617,7.41736,-62.2933,-0.000683271,0.00435229,-0.00284181,0.00563123,-0.00196221,-1.14791,0.00455147,0.0153081,1098,407,7.41736,62.2933
-119,617,7.33911,-62.9287,-0.00028415,0.00353515,-0.00231886,0.00462948,-0.00137848,-1.12986,0.00363403,0.0153589,1105,407,7.33914,62.9287
-112,617,7.33459,-63.5757,0.00024411,0.00288926,-0.00188699,0.00387102,-0.000737646,-1.09106,0.00285847,0.0168785,1112,407,7.33461,63.5757
-105,617,7.34363,-64.2008,0.000778765,0.00239853,-0.00154536,0.00333337,-0.000156077,-1.02676,0.00227606,0.0176736,1119,407,7.3436,64.2008
-98,617,7.31592,-64.7978,0.00130723,0.00196776,-0.00123091,0.00291194,0.00036305,-0.916467,0.0018323,0.0147021,1126,407,7.31593,64.7978
-91,617,7.30334,-65.3704,0.00184921,0.00166614,-0.000952113,0.00271418,0.000801173,-0.737474,0.00161026,0.0201816,1133,407,7.30332,65.3704
-84,617,7.31958,-65.9587,0.00245388,0.00127374,-0.00064302,0.00273654,0.000991076,-0.414156,0.00159983,0.0191634,1140,407,7.31959,65.9587
-77,617,7.31213,-66.4817,0.00310686,0.000790478,-0.000324573,0.00315147,0.000745858,-0.136616,0.00190176,0.015455,1147,407,7.31216,66.4817
-70,617,7.34229,-67.0135,0.00391551,0.000131071,-2.10901e-05,0.00391562,0.000130954,-0.00557263,0.00256788,0.0187381,1154,407,7.34233,67.0135
-63,617,7.40076,-67.5481,0.00404752,-0.0031213,5.39897e-05,0.00404792,-0.00312171,0.00753062,0.00415089,0.0233633,1161,407,7.40073,67.5481
-56,617,7.34753,-68.0101,0.00387028,-0.0070079,-8.21809e-06,0.00387029,-0.00700791,-0.000755465,0.00636702,0.0175799,1168,407,7.34752,68.0101
-49,617,7.36304,-68.4728,0.00353654,-0.0109349,-0.000498641,0.00355371,-0.0109521,-0.0344025,0.00873046,0.0125523,1175,407,7.36304,68.4729
-42,617,7.4054,-68.9056,0.00230946,-0.0158771,-0.00170673,0.00246824,-0.0160359,-0.0927665,0.0116012,0.0119668,1182,407,7.40541,68.9056
-35,617,7.44238,-69.2992,0.00172868,-0.0196657,-0.00230378,0.00197394,-0.0199109,-0.106062,0.0139785,0.017864,1189,407,7.44234,69.2992
-28,617,7.42419,-69.6661,0.000516972,-0.0240748,-0.00278766,0.000829014,-0.0243868,-0.111473,0.0165411,0.0206059,1196,407,7.42417,69.6661
-21,617,7.50928,-70.0003,-0.000619577,-0.0279914,-0.00339296,-0.000205263,-0.0284057,-0.121508,0.0188691,0.0148979,1203,407,7.50923,70.0003
-14,617,7.59167,-70.3486,-0.00145028,-0.0314263,-0.00410833,-0.000897417,-0.0319791,-0.133769,0.0210267,0.0166732,1210,407,7.59162,70.3486
-7,617,7.60254,-70.5739,-0.00199135,-0.0348356,-0.00473711,-0.00132176,-0.0355052,-0.140418,0.0232421,0.0201171,1217,407,7.60257,70.5739
0,617,7.66687,-70.8261,-0.00258412,-0.0371754,-0.00525194,-0.0018043,-0.0379552,-0.147404,0.024724,0.0188418,1224,407,7.66681,70.8261
7,617,7.77954,-71.1916,-0.00287882,-0.0389347,-0.0055361,-0.00204795,-0.0397656,-0.148972,0.0258548,0.0147099,1231,407,7.77952,71.1916
14,617,7.83691,-71.4344,-0.0032205,-0.0397488,-0.00553589,-0.00239996,-0.0405693,-0.14715,0.0262828,0.0174564,1238,407,7.83686,71.4344
21,617,7.92175,-71.58,-0.00351316,-0.0398289,-0.00539014,-0.00273002,-0.040612,-0.144282,0.0262121,0.015983,1245,407,7.92172,71.5799
28,617,8.01123,-71.7747,-0.0040155,-0.0387361,-0.00500092,-0.00330956,-0.039442,-0.140237,0.0252638,0.0136439,1252,407,8.01125,71.7747
35,617,8.04297,-71.925,-0.00434446,-0.0371696,-0.00454217,-0.00372753,-0.0377866,-0.134996,0.024045,0.0153847,1259,407,8.04298,71.9251
42,617,8.19641,-71.9694,-0.00417668,-0.0335955,-0.0039178,-0.00366387,-0.0341083,-0.130152,0.0216213,0.0218434,1266,407,8.19635,71.9694
49,617,8.2937,-72.0355,-0.00386044,-0.0292323,-0.00288236,-0.00353711,-0.0295557,-0.111708,0.018637,0.0218023,1273,407,8.29365,72.0355
56,617,8.3291,-72.1111,-0.00367428,-0.0252215,-0.00195041,-0.00349916,-0.0253966,-0.0895481,0.0158936,0.0159636,1280,407,8.32907,72.1111
63,617,8.40686,-72.1351,-0.00301257,-0.0206258,-0.000804636,-0.00297589,-0.0206625,-0.045557,0.012898,0.0127442,1287,407,8.40681,72.1351
70,617,8.48901,-72.1631,-0.0027085,-0.0166955,-0.000237198,-0.00270447,-0.0166995,-0.016952,0.01035,0.0196064,1294,407,8.48901,72.1632
77,617,8.64075,-72.1081,-0.00187231,-0.0123993,0.000243522,-0.00186668,-0.012405,0.0231166,0.00772331,0.0183176,1301,407,8.6408,72.1081
84,617,8.73267,-72.0114,-0.000794084,-0.00905042,0.000594577,-0.000751486,-0.00909302,0.0715228,0.00582769,0.0136161,1308,407,8.73264,72.0114
91,617,8.80334,-71.8878,5.92926e-05,-0.00668894,0.00081381,0.000156048,-0.0067857,0.118336,0.0045767,0.011903,1315,407,8.80338,71.8878
98,617,8.89331,-71.7665,0.000925992,-0.00476917,0.000846703,0.00104921,-0.00489239,0.144508,0.00366178,0.0129986,1322,407,8.89327,71.7665
105,617,8.9906,-71.6114,0.00245065,-0.00460921,0.000668446,0.00251339,-0.00467194,0.0935746,0.00421039,0.0148354,1329,407,8.99059,71.6114
112,617,9.08301,-71.4292,0.00382715,-0.00504469,0.000160294,0.00383005,-0.00504759,0.0180599,0.00514155,0.0180419,1336,407,9.08295,71.4292
119,617,9.13245,-71.222,0.00538453,-0.00551651,-0.000474983,0.00540519,-0.00553717,-0.0434625,0.00631773,0.0205083,1343,407,9.13241,71.222
126,617,9.14014,-70.9774,0.00674618,-0.00618382,-0.00121231,0.00685886,-0.0062965,-0.0926832,0.00759756,0.0227315,1350,407,9.14018,70.9774
133,617,9.22937,-70.6817,0.00805908,-0.00712255,-0.00195067,0.00830572,-0.00736919,-0.125768,0.00905529,0.0196284,1357,407,9.22939,70.6817
140,617,9.32361,-70.4001,0.00846411,-0.00748901,-0.00245672,0.00883387,-0.00785877,-0.149387,0.00964298,0.0170569,1364,407,9.32364,70.4001
147,617,9.31201,-70.048,0.00823773,-0.00862855,-0.0029638,0.00874338,-0.0091342,-0.168982,0.0103224,0.0211941,1371,407,9.31201,70.048
154,617,9.38831,-69.7043,0.00783926,-0.00922626,-0.0037444,0.00862468,-0.0100117,-0.206761,0.0107696,0.0239044,1378,407,9.38836,69.7044
161,617,9.50146,-69.3495,0.00726626,-0.00813881,-0.00354877,0.00804446,-0.00891701,-0.21587,0.00979703,0.0250473,1385,407,9.50147,69.3495
168,617,9.56885,-68.9385,0.00667299,-0.00685023,-0.00319519,0.00738992,-0.00756717,-0.220723,0.00863568,0.0229486,1392,407,9.56887,68.9385
175,617,9.58887,-68.4981,0.00610176,-0.00557059,-0.00284448,0.00675804,-0.00622687,-0.226753,0.00749893,0.0190437,1399,407,9.58892,68.4981
182,617,9.61328,-68.0108,0.0053517,-0.0041529,-0.00238483,0.00591652,-0.00471772,-0.232554,0.00615267,0.0122872,1406,407,9.61329,68.0108
189,617,9.59033,-67.5133,0.00453986,-0.00261447,-0.001767,0.00495248,-0.0030271,-0.229405,0.0046515,0.0114298,1413,407,9.59031,67.5133
196,617,9.57666,-67.0089,0.00398348,-0.00100532,-0.00110254,0.00421628,-0.00123812,-0.208093,0.00330186,0.0160129,1420,407,9.57662,67.0089
203,617,9.60425,-66.487,0.00345319,0.000324184,-0.000506821,0.00353324,0.00024414,-0.156641,0.00227848,0.0171782,1427,407,9.60422,66.487
210,617,9.62744,-65.8992,0.00271175,0.00131157,3.75868e-05,0.00271276,0.00131056,0.0268185,0.00156651,0.0166516,1434,407,9.62747,65.8992
217,617,9.5929,-65.2772,0.00212165,0.00221042,0.000607949,0.0027756,0.00155647,0.821838,0.00160644,0.0218552,1441,407,9.59293,65.2772
224,617,9.59937,-64.7393,0.00173194,0.00302634,0.0011329,0.00368387,0.0010744,1.04491,0.00218757,0.0203894,1448,407,9.59934,64.7393
231,617,9.61658,-64.1422,0.00146408,0.00370732,0.00170046,0.00462275,0.000548645,1.07694,0.00291621,0.0151554,1455,407,9.61656,64.1423
238,617,9.58997,-63.4991,0.00138718,0.00452134,0.00233088,0.00576295,0.00014557,1.08135,0.00379438,0.0165297,1462,407,9.58992,63.4991
245,617,9.5813,-62.8766,0.00127358,0.00533566,0.00283303,0.00679047,-0.000181231,1.09639,0.00458858,0.0131028,1469,407,9.58126,62.8766
252,617,9.53662,-62.2047,0.00118991,0.00629295,0.00341295,0.0080027,-0.000519849,1.10638,0.00551659,0.0135255,1476,407,9.53667,62.2048
259,617,9.48291,-61.5093,0.00122843,0.00750829,0.00417802,0.00959474,-0.000858018,1.10764,0.00670083,0.0118682,1483,407,9.48295,61.5093
266,617,9.46118,-60.7778,0.0012689,0.00859322,0.0049003,0.0110486,-0.00118649,1.10629,0.0077914,0.0140648,1490,407,9.46114,60.7778
273,617,9.44019,-60.027,0.00134206,0.00995757,0.00571485,0.0128064,-0.00150674,1.10836,0.00908158,0.0147991,1497,407,9.44014,60.027
280,617,9.35974,-59.3175,0.00145432,0.0113842,0.00661965,0.0146939,-0.00185542,1.10716,0.0104694,0.0142391,1504,407,9.35979,59.3175
287,617,9.29175,-58.5752,0.00166459,0.0130193,0.00760257,0.0168304,-0.00214655,1.10611,0.012,0.0134201,1511,407,9.29169,58.5752
294,617,9.23547,-57.8183,0.00176636,0.01454,0.00845048,0.0187457,-0.00243936,1.109,0.0133846,0.0105286,1518,407,9.23552,57.8183
301,617,9.18091,-57.0492,0.00186332,0.0159337,0.00928868,0.0205507,-0.00275367,1.10951,0.0147046,0.00845041,1525,407,9.1809,57.0492
308,617,9.09814,-56.257,0.00208689,0.0177038,0.010209,0.0227482,-0.00295753,1.11187,0.0162413,0.00889814,1532,407,9.09811,56.257
315,617,9.026,-55.4651,0.00243508,0.0196259,0.0112266,0.0251697,-0.00310875,1.11211,0.0179062,0.0108634,1539,407,9.02605,55.4651
322,617,8.94727,-54.6309,0.00274897,0.0214656,0.0122577,0.0275291,-0.00331445,1.11143,0.0195514,0.0163878,1546,407,8.94727,54.6309
329,617,8.90515,-53.7706,0.00321459,0.0232097,0.0133596,0.0298984,-0.00347404,1.10662,0.0211854,0.0225031,1553,407,8.90517,53.7706
336,617,8.95056,-52.7319,0.00370549,0.0253823,0.0145622,0.0326968,-0.003609,1.10531,0.023095,0.0428648,1560,407,8.9505,52.7319
343,617,8.72937,-52.1705,0,0,0,0,0,0,0,-1,1567,407,8.7294,52.1705
350,617,8.62659,-51.1722,0,0,0,0,0,0,0,-1,1574,407,8.6266,51.1722
357,617,8.73645,-49.7119,0,0,0,0,0,0,0,-1,1581,407,8.73641,49.7119
364,617,8.79712,-48.9467,0,0,0,0,0,0,0,-1,1588,407,8.79709,48.9467
371,617,2.60266,-6.20667,0,0,0,0,0,0,0,-1,1595,407,2.60261,6.20668
378,617,8.75098,-47.4916,0,0,0,0,0,0,0,-1,1602,407,8.75093,47.4916
385,617,1.74146,-10.3561,0,0,0,0,0,0,0,-1,1609,407,1.7414,10.3561
392,617,1.96936,-5.10449,0,0,0,0,0,0,0,-1,1616,407,1.96931,5.10451
399,617,2.48889,-5.81256,0,0,0,0,0,0,0,-1,1623,407,2.48888,5.81255
406,617,3.01465,-6.51642,0,0,0,0,0,0,0,-1,1630,407,3.01461,6.51643
413,617,3.6427,-7.2074,0,0,0,0,0,0,0,-1,1637,407,3.64274,7.20739
420,617,3.42737,-4.47391,0,0,0,0,0,0,0,-1,1644,407,3.42737,4.47391
427,617,0,0,0,0,0,0,0,0,0,-1,1651,407,0,0
434,617,0,0,0,0,0,0,0,0,0,-1,1658,407,0,0
441,617,0,0,0,0,0,0,0,0,0,-1,1665,407,0,0
448,617,0,0,0,0,0,0,0,0,0,-1,1672,407,0,0
455,617,0,0,0,0,0,0,0,0,0,-1,1679,407,0,0
462,617,0,0,0,0,0,0,0,0,0,-1,1686,407,0,0
469,617,0,0,0,0,0,0,0,0,0,-1,1693,407,0,0
476,617,0,0,0,0,0,0,0,0,0,-1,1700,407,0,0
483,617,0,0,0,0,0,0,0,0,0,-1,1707,407,0,0
490,617,0,0,0,0,0,0,0,0,0,-1,1714,407,0,0
497,617,0,0,0,0,0,0,0,0,0,-1,1721,407,0,0
504,617,0,0,0,0,0,0,0,0,0,-1,1728,407,0,0
511,617,0,0,0,0,0,0,0,0,0,-1,1735,407,0,0
518,617,0,0,0,0,0,0,0,0,0,-1,1742,407,0,0
525,617,0,0,0,0,0,0,0,0,0,-1,1749,407,0,0
532,617,0,0,0,0,0,0,0,0,0,-1,1756,407,0,0
539,617,0,0,0,0,0,0,0,0,0,-1,1763,407,0,0
546,617,0,0,0,0,0,0,0,0,0,-1,1770,407,0,0
553,617,0,0,0,0,0,0,0,0,0,-1,1777,407,0,0
560,617,0,0,0,0,0,0,0,0,0,-1,1784,407,0,0
567,617,0,0,0,0,0,0,0,0,0,-1,1791,407,0,0
574,617,0,0,0,0,0,0,0,0,0,-1,1798,407,0,0
581,617,0,0,0,0,0,0,0,0,0,-1,1805,407,0,0
588,617,0,0,0,0,0,0,0,0,0,-1,1812,407,0,0
595,617,0,0,0,0,0,0,0,0,0,-1,1819,407,0,0
602,617,0,0,0,0,0,0,0,0,0,-1,1826,407,0,0
609,617,0,0,0,0,0,0,0,0,0,-1,1833,407,0,0
616,617,0,0,0,0,0,0,0,0,0,-1,1840,407,0,0
623,617,0,0,0,0,0,0,0,0,0,-1,1847,407,0,0
630,617,0,0,0,0,0,0,0,0,0,-1,1854,407,0,0
637,617,0,0,0,0,0,0,0,0,0,-1,1861,407,0,0
644,617,0,0,0,0,0,0,0,0,0,-1,1868,407,0,0
651,617,0,0,0,0,0,0,0,0,0,-1,1875,407,0,0
658,617,0,0,0,0,0,0,0,0,0,-1,1882,407,0,0
665,617,0,0,0,0,0,0,0,0,0,-1,1889,407,0,0
672,617,0,0,0,0,0,0,0,0,0,-1,1896,407,0,0
679,617,0,0,0,0,0,0,0,0,0,-1,1903,407,0,0
686,617,0,0,0,0,0,0,0,0,0,-1,1910,407,0,0
693,617,0,0,0,0,0,0,0,0,0,-1,1917,407,0,0
700,617,0,0,0,0,0,0,0,0,0,-1,1924,407,0,0
707,617,0,0,0,0,0,0,0,0,0,-1,1931,407,0,0
714,617,0,0,0,0,0,0,0,0,0,-1,1938,407,0,0
721,617,0,0,0,0,0,0,0,0,0,-1,1945,407,0,0
728,617,0,0,0,0,0,0,0,0,0,-1,1952,407,0,0
735,617,0,0,0,0,0,0,0,0,0,-1,1959,407,0,0
742,617,0,0,0,0,0,0,0,0,0,-1,1966,407,0,0
749,617,0,0,0,0,0,0,0,0,0,-1,1973,407,0,0
756,617,0,0,0,0,0,0,0,0,0,-1,1980,407,0,0
763,617,0,0,0,0,0,0,0,0,0,-1,1987,407,0,0
770,617,0,0,0,0,0,0,0,0,0,-1,1994,407,0,0
777,617,0,0,0,0,0,0,0,0,0,-1,2001,407,0,0
784,617,0,0,0,0,0,0,0,0,0,-1,2008,407,0,0
791,617,0,0,0,0,0,0,0,0,0,-1,2015,407,0,0
798,617,0,0,0,0,0,0,0,0,0,-1,2022,407,0,0
805,617,0,0,0,0,0,0,0,0,0,-1,2029,407,0,0
812,617,0,0,0,0,0,0,0,0,0,-1,2036,407,0,0
-700,610,0,0,0,0,0,0,0,0,0,-1,524,414,0,0
-693,610,0,0,0,0,0,0,0,0,0,-1,531,414,0,0
-686,610,0,0,0,0,0,0,0,0,0,-1,538,414,0,0
-679,610,0,0,0,0,0,0,0,0,0,-1,545,414,0,0
-672,610,0,0,0,0,0,0,0,0,0,-1,552,414,0,0
-665,610,0,0,0,0,0,0,0,0,0,-1,559,414,0,0
-658,610,0,0,0,0,0,0,0,0,0,-1,566,414,0,0
-651,610,0,0,0,0,0,0,0,0,0,-1,573,414,0,0
-644,610,0,0,0,0,0,0,0,0,0,-1,580,414,0,0
-637,610,0,0,0,0,0,0,0,0,0,-1,587,414,0,0
-630,610,0,0,0,0,0,0,0,0,0,-1,594,414,0,0
-623,610,0,0,0,0,0,0,0,0,0,-1,601,414,0,0
-616,610,0,0,0,0,0,0,0,0,0,-1,608,414,0,0
-609,610,0,0,0,0,0,0,0,0,0,-1,615,414,0,0
-602,610,0,0,0,0,0,0,0,0,0,-1,622,414,0,0
-595,610,0,0,0,0,0,0,0,0,0,-1,629,414,0,0
-588,610,0,0,0,0,0,0,0,0,0,-1,636,414,0,0
-581,610,0,0,0,0,0,0,0,0,0,-1,643,414,0,0
-574,610,0,0,0,0,0,0,0,0,0,-1,650,414,0,0
-567,610,0,0,0,0,0,0,0,0,0,-1,657,414,0,0
-560,610,0,0,0,0,0,0,0,0,0,-1,664,414,0,0
-553,610,0,0,0,0,0,0,0,0,0,-1,671,414,0,0
-546,610,0,0,0,0,0,0,0,0,0,-1,678,414,0,0
-539,610,0,0,0,0,0,0,0,0,0,-1,685,414,0,0
-532,610,0,0,0,0,0,0,0,0,0,-1,692,414,0,0
-525,610,0,0,0,0,0,0,0,0,0,-1,699,414,0,0
-518,610,0,0,0,0,0,0,0,0,0,-1,706,414,0,0
-511,610,0,0,0,0,0,0,0,0,0,-1,713,414,0,0
-504,610,0,0,0,0,0,0,0,0,0,-1,720,414,0,0
-497,610,0,0,0,0,0,0,0,0,0,-1,727,414,0,0
-490,610,0,0,0,0,0,0,0,0,0,-1,734,414,0,0
-483,610,0,0,0,0,0,0,0,0,0,-1,741,414,0,0
-476,610,0,0,0,0,0,0,0,0,0,-1,748,414,0,0
-469,610,0,0,0,0,0,0,0,0,0,-1,755,414,0,0
-462,610,0,0,0,0,0,0,0,0,0,-1,762,414,0,0
-455,610,0,0,0,0,0,0,0,0,0,-1,769,414,0,0
-448,610,0,0,0,0,0,0,0,0,0,-1,776,414,0,0
-441,610,0,0,0,0,0,0,0,0,0,-1,783,414,0,0
-434,610,0,0,0,0,0,0,0,0,0,-1,790,414,0,0
-427,610,0,0,0,0,0,0,0,0,0,-1,797,414,0,0
-420,610,0,0,0,0,0,0,0,0,0,-1,804,414,0,0
-413,610,0,0,0,0,0,0,0,0,0,-1,811,414,0,0
-406,610,0,0,0,0,0,0,0,0,0,-1,818,414,0,0
-399,610,0,0,0,0,0,0,0,0,0,-1,825,414,0,0
-392,610,0,0,0,0,0,0,0,0,0,-1,832,414,0,0
-385,610,0,0,0,0,0,0,0,0,0,-1,839,414,0,0
-378,610,0,0,0,0,0,0,0,0,0,-1,846,414,0,0
-371,610,0,0,0,0,0,0,0,0,0,-1,853,414,0,0
-364,610,0,0,0,0,0,0,0,0,0,-1,860,414,0,0
-357,610,0,0,0,0,0,0,0,0,0,-1,867,414,0,0
-350,610,0,0,0,0,0,0,0,0,0,-1,874,414,0,0
-343,610,0,0,0,0,0,0,0,0,0,-1,881,414,0,0
-336,610,0,0,0,0,0,0,0,0,0,-1,888,414,0,0
-329,610,0,0,0,0,0,0,0,0,0,-1,895,414,0,0
-322,610,0,0,0,0,0,0,0,0,0,-1,902,414,0,0
-315,610,7.68475,-21.5402,0,0,0,0,0,0,0,-1,909,414,7.68475,21.5402
-308,610,3.97211,-23.4133,0,0,0,0,0,0,0,-1,916,414,3.9721,23.4133
-301,610,7.38513,-22.4166,0,0,0,0,0,0,0,-1,923,414,7.38516,22.4166
-294,610,6.77832,-24.1945,0,0,0,0,0,0,0,-1,930,414,6.77829,24.1946
-287,610,3.39276,-28.5804,0,0,0,0,0,0,0,-1,937,414,3.39276,28.5803
-280,610,8.8728,-35.4336,0,0,0,0,0,0,0,-1,944,414,8.87283,35.4336
-273,610,8.14722,-35.5264,0,0,0,0,0,0,0,-1,951,414,8.14723,35.5264
-266,610,7.38361,-35.6366,0,0,0,0,0,0,0,-1,958,414,7.38359,35.6366
-259,610,6.47375,-35.762,0,0,0,0,0,0,0,-1,965,414,6.47373,35.762
-252,610,5.65308,-35.8931,0,0,0,0,0,0,0,-1,972,414,5.65305,35.8931
-245,610,7.94299,-48.4656,0,0,0,0,0,0,0,-1,979,414,7.94298,48.4656
-238,610,7.65601,-49.2503,0,0,0,0,0,0,0,-1,986,414,7.65601,49.2503
-231,610,7.55408,-50.1906,-0.0039561,0.0283544,-0.0123256,0.0325194,-0.00812112,-1.24493,0.0248333,0.0472912,993,414,7.55407,50.1906
-224,610,7.37482,-51.2019,-0.00349039,0.0253733,-0.0111709,0.0291916,-0.00730868,-1.24144,0.0223001,0.0292976,1000,414,7.37484,51.2019
-217,610,7.47198,-52.212,-0.00315091,0.0223447,-0.0100963,0.0258586,-0.00666475,-1.23587,0.0198374,0.021923,1007,414,7.47196,52.212
-210,610,7.41492,-53.1747,-0.00292156,0.0195221,-0.00904115,0.0227111,-0.00611056,-1.2317,0.0175362,0.0152551,1014,414,7.4149,53.1747
-203,610,7.36707,-54.0329,-0.00271305,0.0166846,-0.00799705,0.0195564,-0.00558482,-1.22603,0.0152441,0.0160122,1021,414,7.36705,54.0329
-196,610,7.29431,-54.865,-0.00248295,0.0140295,-0.00704637,0.0166276,-0.00508106,-1.21755,0.0131112,0.0161553,1028,414,7.29429,54.865
-189,610,7.19958,-55.6637,-0.00218392,0.0120105,-0.00639518,0.0144668,-0.00464018,-1.20409,0.0115074,0.0136849,1035,414,7.19953,55.6637
-182,610,7.13464,-56.4192,-0.00189865,0.0101005,-0.00569347,0.012372,-0.00417014,-1.19118,0.00993419,0.0151026,1042,414,7.13459,56.4192
-175,610,7.09277,-57.1878,-0.00158509,0.00826759,-0.00493333,0.0103131,-0.0036306,-1.17774,0.00835288,0.0167497,1049,414,7.09279,57.1878
-168,610,7.005,-57.9833,-0.00136322,0.00684338,-0.00426141,0.00865588,-0.00317572,-1.16865,0.00707101,0.0139308,1056,414,7.00503,57.9833
-161,610,6.94434,-58.7702,-0.00109808,0.00571856,-0.00373456,0.00736629,-0.00274581,-1.15528,0.00603796,0.0115706,1063,414,6.94436,58.7702
-154,610,6.90222,-59.4711,-0.000680864,0.00469345,-0.0032418,0.006217,-0.00220442,-1.13146,0.00504273,0.0155347,1070,414,6.90223,59.4711
-147,610,6.86096,-60.1708,-0.000298587,0.00386179,-0.00271501,0.0052019,-0.0016387,-1.11229,0.00412415,0.0186894,1077,414,6.861,60.1708
-140,610,6.82654,-60.9105,0.000117436,0.00305542,-0.00225229,0.00427543,-0.00110258,-1.07437,0.00328018,0.0140654,1084,414,6.82652,60.9105
-133,610,6.80676,-61.5986,0.000561168,0.0023896,-0.00182904,0.00352018,-0.000569412,-1.01715,0.0025578,0.0149677,1091,414,6.8068,61.5986
-126,610,6.78503,-62.2407,0.00100394,0.00181011,-0.00142756,0.0028904,-7.63469e-05,-0.922995,0.00195288,0.013626,1098,414,6.78509,62.2407
-119,610,6.74548,-62.889,0.00156306,0.00126182,-0.00102795,0.00245137,0.000373516,-0.712654,0.00152506,0.0114917,1105,414,6.74542,62.889
-112,610,6.74194,-63.5409,0.00221042,0.000870845,-0.000693873,0.00250504,0.000576229,-0.401529,0.00151493,0.0193638,1112,414,6.74189,63.5409
-105,610,6.71179,-64.1674,0.0028376,0.000618671,-0.000432923,0.00291907,0.000537197,-0.186019,0.00179399,0.0197512,1119,414,6.7118,64.1674
-98,610,6.73425,-64.7796,0.00347771,0.00036228,-0.000190697,0.00348934,0.000350651,-0.0609075,0.0022186,0.0146591,1126,414,6.73427,64.7796
-91,610,6.73792,-65.3733,0.00417324,0.000238736,4.97725e-06,0.00417324,0.00023873,0.00126502,0.0027061,0.0165883,1133,414,6.73788,65.3733
-84,610,6.7522,-65.9156,0.00498271,0.000138455,0.000198503,0.00499083,0.000130335,0.0408856,0.00328464,0.0163653,1140,414,6.75225,65.9156
-77,610,6.75134,-66.4983,0.00582079,-0.000479177,0.000524918,0.00586423,-0.000522614,0.082562,0.00409482,0.0136619,1147,414,6.75139,66.4983
-70,610,6.79834,-67.046,0.00687782,-0.00136991,0.000863527,0.00696726,-0.00145935,0.103208,0.0052,0.0179377,1154,414,6.79835,67.046
-63,610,6.83984,-67.5323,0.00636259,-0.00799839,0.000621779,0.00638946,-0.00802527,0.0431887,0.00834019,0.0179309,1161,414,6.83981,67.5323
-56,610,6.88062,-67.9886,0.0054555,-0.015359,7.47301e-05,0.00545577,-0.0153593,0.00359023,0.0124627,0.0152987,1168,414,6.88067,67.9886
-49,610,6.90881,-68.4257,0.00437361,-0.0222186,-0.00122271,0.00442971,-0.0222747,-0.0458509,0.0165254,0.0144195,1175,414,6.90877,68.4257
-42,610,6.95874,-68.8605,0.00190333,-0.0302911,-0.00352425,0.00228461,-0.0306724,-0.107767,0.0212508,0.017024,1182,414,6.95877,68.8605
-35,610,7.0293,-69.2704,0.000359634,-0.0362059,-0.00456034,0.0009198,-0.0367661,-0.122223,0.024823,0.0176499,1189,414,7.02928,69.2704
-28,610,7.08655,-69.6341,-0.00184168,-0.0423545,-0.00528222,-0.00116429,-0.0430318,-0.127544,0.0283078,0.0152462,1196,414,7.08653,69.6341
-21,610,7.17834,-69.9503,-0.00369938,-0.0473083,-0.00608362,-0.0028666,-0.0481411,-0.136044,0.0311825,0.0123604,1203,414,7.17832,69.9503
-14,610,7.26282,-70.2808,-0.00498253,-0.0512979,-0.00686435,-0.00398658,-0.0522938,-0.144084,0.0336126,0.0134551,1210,414,7.26279,70.2808
-7,610,7.35156,-70.5363,-0.00578576,-0.0549521,-0.00745593,-0.00467996,-0.0560579,-0.147238,0.0359137,0.016581,1217,414,7.35156,70.5363
0,610,7.41492,-70.8241,-0.00658851,-0.0572171,-0.00780605,-0.00541228,-0.0583933,-0.149557,0.0372561,0.0147208,1224,414,7.41494,70.8241
7,610,7.52039,-71.1678,-0.0070158,-0.0587301,-0.00784164,-0.00585289,-0.059893,-0.147226,0.0381278,0.0187567,1231,414,7.52037,71.1678
14,610,7.72107,-71.3107,-0.00737905,-0.0590335,-0.00749352,-0.00631392,-0.0600986,-0.141193,0.0381357,0.0266211,1238,414,7.7211,71.3107
21,610,7.81323,-71.4177,-0.00767311,-0.0585022,-0.00695187,-0.00673946,-0.0594358,-0.133504,0.0375794,0.0253956,1245,414,7.81327,71.4177
28,610,7.82544,-71.6343,-0.00815183,-0.056661,-0.00616264,-0.00738117,-0.0574316,-0.124408,0.0360799,0.0213388,1252,414,7.82544,71.6343
35,610,8.0498,-71.7802,-0.00844059,-0.0542733,-0.00531309,-0.00783274,-0.0548812,-0.113911,0.0342762,0.0232465,1259,414,8.04975,71.7802
42,610,8.09619,-71.8152,-0.00808579,-0.0493795,-0.00437477,-0.00762741,-0.0498379,-0.104399,0.0309972,0.022012,1266,414,8.09624,71.8152
49,610,8.1748,-72.0568,0,0,0,0,0,0,0,-1,1273,414,8.17479,72.0568
56,610,8.198,-71.9998,-0.00718386,-0.038164,-0.00181143,-0.00707831,-0.0382695,-0.0582062,0.0235115,0.0222891,1280,414,8.19799,71.9997
63,610,8.31348,-72.0549,-0.00629348,-0.0320638,-0.000432047,-0.00628624,-0.032071,-0.016759,0.0196238,0.0303581,1287,414,8.31345,72.0549
70,610,8.5354,-72.0844,-0.00570235,-0.0265548,0.000167982,-0.005701,-0.0265562,0.00805503,0.0161429,0.0451426,1294,414,8.53539,72.0844
77,610,8.77112,-71.8809,0,0,0,0,0,0,0,-1,1301,414,8.77108,71.8809
84,610,8.79431,-71.8529,-0.00321042,-0.0158703,0.000941057,-0.00314085,-0.0159399,0.073793,0.00974978,0.0482802,1308,414,8.79435,71.8529
91,610,8.88049,-71.9536,-0.00204216,-0.0122158,0.00100508,-0.00194382,-0.0123142,0.0975363,0.00764433,0.0336019,1315,414,8.88047,71.9536
98,610,9.10889,-71.8012,-0.000880892,-0.00928328,0.000823853,-0.000800875,-0.0093633,0.0968213,0.0059931,0.0286338,1322,414,9.10885,71.8012
105,610,9.2124,-71.5519,0.00113479,-0.00856769,0.000364246,0.00114844,-0.00858134,0.0374712,0.00613962,0.0233075,1329,414,9.21244,71.5519
112,610,9.28455,-71.3371,0.00311127,-0.00874003,-0.000425406,0.00312652,-0.00875528,-0.0358338,0.00711192,0.0159457,1336,414,9.28459,71.3371
119,610,9.37878,-71.1483,0.00536734,-0.00904304,-0.0013292,0.00548892,-0.00916462,-0.0912133,0.00854848,0.0221883,1343,414,9.37876,71.1483
126,610,9.44238,-70.9166,0.00758609,-0.00967069,-0.00236603,0.00790461,-0.00998921,-0.133818,0.0103543,0.0305216,1350,414,9.44238,70.9166
133,610,9.57483,-70.6619,0.00980936,-0.01097,-0.00332453,0.0103283,-0.011489,-0.154844,0.0126021,0.022192,1357,414,9.57477,70.6619
140,610,9.70862,-70.3934,0.0108827,-0.011572,-0.00398222,0.011568,-0.0122573,-0.170423,0.0137575,0.0198147,1364,414,9.70859,70.3934
147,610,9.69348,-70.0222,0.0111412,-0.0135489,-0.00461383,0.0119752,-0.0143829,-0.178832,0.015239,0.0213963,1371,414,9.69342,70.0223
154,610,9.75708,-69.6379,0.011078,-0.0150978,-0.0058623,0.0123309,-0.0163507,-0.210561,0.0166135,0.0239774,1378,414,9.7571,69.6379
161,610,9.93677,-69.2703,0.01041,-0.0137824,-0.00569705,0.0116845,-0.0150569,-0.220081,0.01548,0.0274794,1385,414,9.93672,69.2703
168,610,10.0167,-68.8859,0.00972418,-0.0121477,-0.00532193,0.0109504,-0.0133739,-0.226453,0.0140669,0.026766,1392,414,10.0167,68.8859
175,610,10.0392,-68.4653,0.00905735,-0.0105334,-0.00495629,0.0102399,-0.0117159,-0.234211,0.0126857,0.022607,1399,414,10.0392,68.4653
182,610,10.1045,-67.9918,0.00814732,-0.00874602,-0.00443427,0.00924051,-0.00983921,-0.241713,0.0110175,0.0169591,1406,414,10.1045,67.9918
189,610,10.1134,-67.4713,0.00713766,-0.00676415,-0.00372942,0.00807495,-0.00770144,-0.246224,0.00910936,0.0151048,1413,414,10.1134,67.4713
196,610,10.1199,-66.9908,0.00647657,-0.00469635,-0.0029622,0.00721334,-0.00543312,-0.243776,0.00732551,0.0153089,1420,414,10.1199,66.9908
203,610,10.1506,-66.4824,0.00587529,-0.00299182,-0.00225016,0.00641362,-0.00353015,-0.234827,0.00582094,0.0159191,1427,414,10.1507,66.4824
210,610,10.1521,-65.9272,0.00489665,-0.00172343,-0.00159843,0.00526239,-0.00208917,-0.224938,0.00437423,0.0114834,1434,414,10.1521,65.9272
217,610,10.1971,-65.3065,0.00405356,-0.000470703,-0.000832493,0.00420188,-0.000619024,-0.176316,0.00302875,0.0180724,1441,414,10.1972,65.3064
224,610,10.2411,-64.7291,0.00347637,0.000621394,-0.000144368,0.00348365,0.000614113,-0.0503958,0.0021472,0.0215758,1448,414,10.2411,64.7291
231,610,10.2468,-64.1375,0.00302757,0.00144576,0.000550735,0.00320043,0.0012729,0.304131,0.00186061,0.0166225,1455,414,10.2469,64.1375
238,610,10.2151,-63.483,0.00277283,0.00189677,0.00104788,0.00347055,0.00119905,0.587427,0.00203536,0.0118259,1462,414,10.2151,63.483
245,610,10.2228,-62.8196,0.00256474,0.00241508,0.00146842,0.00396024,0.00101958,0.75994,0.00237442,0.0121183,1469,414,10.2228,62.8196
252,610,10.1923,-62.166,0.00229295,0.00307031,0.00193205,0.00465238,0.000710872,0.88466,0.00289388,0.013819,1476,414,10.1922,62.1661
259,610,10.1697,-61.4688,0.00207785,0.0039029,0.00249777,0.00564962,0.000331128,0.960534,0.00366103,0.012581,1483,414,10.1697,61.4688
266,610,10.1376,-60.7483,0.001928,0.00473985,0.00305577,0.0066976,-2.97555e-05,1.001,0.00447502,0.0127271,1490,414,10.1376,60.7483
273,610,10.1179,-60.019,0.00180165,0.00585301,0.00370006,0.0080456,-0.000390938,1.03585,0.00549868,0.0109614,1497,414,10.1179,60.019
280,610,10.0695,-59.2813,0.00171124,0.00707199,0.00444034,0.00957823,-0.000795006,1.05695,0.00666631,0.0107417,1504,414,10.0695,59.2813
287,610,9.99268,-58.5424,0.00173041,0.00848348,0.00523548,0.0113368,-0.00112292,1.0718,0.00795863,0.0142288,1511,414,9.99273,58.5423
294,610,9.95825,-57.7973,0.00166247,0.00986194,0.00593674,0.012977,-0.00145255,1.08758,0.00917391,0.0119774,1518,414,9.9583,57.7973
301,610,9.94055,-57.0511,0.00158222,0.0111774,0.00665207,0.0145815,-0.00182183,1.09781,0.0103817,0.0107149,1525,414,9.9405,57.0511
308,610,9.85852,-56.2625,0.00161969,0.0128104,0.00744714,0.01653,-0.00209987,1.10758,0.0117825,0.0130719,1532,414,9.85853,56.2624
315,610,9.76294,-55.4833,0.00177187,0.0145457,0.00832419,0.0186509,-0.00233335,1.11263,0.0132802,0.0152801,1539,414,9.76295,55.4833
322,610,9.6991,-54.6615,0.00187709,0.0161435,0.00917671,0.0206333,-0.00261274,1.11578,0.014704,0.0141256,1546,414,9.69909,54.6615
329,610,9.6283,-53.8235,0.00212636,0.0175943,0.0100944,0.0225769,-0.00285624,1.11228,0.0160881,0.0127575,1553,414,9.62832,53.8235
336,610,9.5968,-52.9812,0.00241221,0.0193584,0.0111065,0.0248549,-0.00308425,1.11125,0.0176879,0.0131821,1560,414,9.59678,52.9812
343,610,9.53027,-52.1421,0.00247356,0.0209241,0.0120046,0.0268387,-0.00344107,1.11301,0.0191429,0.0184775,1567,414,9.53022,52.1421
350,610,9.44104,-51.2117,0.002622,0.0235468,0.0130375,0.0298008,-0.00363199,1.12353,0.0211819,0.0280365,1574,414,9.44099,51.2117
357,610,9.43274,-50.0247,0.0026568,0.0262218,0.0143118,0.0329772,-0.00409867,1.12978,0.0234706,0.0377317,1581,414,9.43271,50.0247
364,610,9.53198,-49.0668,0.00227717,0.0291264,0.0152602,0.0360265,-0.00462292,1.14615,0.0256976,0.0389378,1588,414,9.53197,49.0668
371,610,9.40955,-48.3518,0,0,0,0,0,0,0,-1,1595,414,9.40956,48.3518
378,610,9.46667,-47.6793,0,0,0,0,0,0,0,-1,1602,414,9.46662,47.6793
385,610,9.28003,-47.0623,0,0,0,0,0,0,0,-1,1609,414,9.28002,47.0623
392,610,1.99744,-1.83582,0,0,0,0,0,0,0,-1,1616,414,1.99741,1.8358
399,610,2.77136,-2.60333,0,0,0,0,0,0,0,-1,1623,414,2.77133,2.60332
406,610,3.54529,-3.37085,0,0,0,0,0,0,0,-1,1630,414,3.54525,3.37084
413,610,3.01929,-3.20306,0,0,0,0,0,0,0,-1,1637,414,3.01929,3.20306
420,610,4.78149,-3.64041,0,0,0,0,0,0,0,-1,1644,414,4.78152,3.64042
427,610,8.85168,-23.3853,0,0,0,0,0,0,0,-1,1651,414,8.85174,23.3853
434,610,8.73706,-22.6227,0,0,0,0,0,0,0,-1,1658,414,8.73703,22.6227
441,610,0,0,0,0,0,0,0,0,0,-1,1665,414,0,0
448,610,0,0,0,0,0,0,0,0,0,-1,1672,414,0,0
455,610,0,0,0,0,0,0,0,0,0,-1,1679,414,0,0
462,610,0,0,0,0,0,0,0,0,0,-1,1686,414,0,0
469,610,0,0,0,0,0,0,0,0,0,-1,1693,414,0,0
476,610,0,0,0,0,0,0,0,0,0,-1,1700,414,0,0
483,610,0,0,0,0,0,0,0,0,0,-1,1707,414,0,0
490,610,0,0,0,0,0,0,0,0,0,-1,1714,414,0,0
497,610,0,0,0,0,0,0,0,0,0,-1,1721,414,0,0
504,610,0,0,0,0,0,0,0,0,0,-1,1728,414,0,0
511,610,0,0,0,0,0,0,0,0,0,-1,1735,414,0,0
518,610,0,0,0,0,0,0,0,0,0,-1,1742,414,0,0
525,610,0,0,0,0,0,0,0,0,0,-1,1749,414,0,0
532,610,0,0,0,0,0,0,0,0,0,-1,1756,414,0,0
539,610,0,0,0,0,0,0,0,0,0,-1,1763,414,0,0
546,610,0,0,0,0,0,0,0,0,0,-1,1770,414,0,0
553,610,0,0,0,0,0,0,0,0,0,-1,1777,414,0,0
560,610,0,0,0,0,0,0,0,0,0,-1,1784,414,0,0
567,610,0,0,0,0,0,0,0,0,0,-1,1791,414,0,0
574,610,0,0,0,0,0,0,0,0,0,-1,1798,414,0,0
581,610,0,0,0,0,0,0,0,0,0,-1,1805,414,0,0
588,610,0,0,0,0,0,0,0,0,0,-1,1812,414,0,0
595,610,0,0,0,0,0,0,0,0,0,-1,1819,414,0,0
602,610,0,0,0,0,0,0,0,0,0,-1,1826,414,0,0
609,610,0,0,0,0,0,0,0,0,0,-1,1833,414,0,0
616,610,0,0,0,0,0,0,0,0,0,-1,1840,414,0,0
623,610,0,0,0,0,0,0,0,0,0,-1,1847,414,0,0
630,610,0,0,0,0,0,0,0,0,0,-1,1854,414,0,0
637,610,0,0,0,0,0,0,0,0,0,-1,1861,414,0,0
644,610,0,0,0,0,0,0,0,0,0,-1,1868,414,0,0
651,610,0,0,0,0,0,0,0,0,0,-1,1875,414,0,0
658,610,0,0,0,0,0,0,0,0,0,-1,1882,414,0,0
665,610,0,0,0,0,0,0,0,0,0,-1,1889,414,0,0
672,610,0,0,0,0,0,0,0,0,0,-1,1896,414,0,0
679,610,0,0,0,0,0,0,0,0,0,-1,1903,414,0,0
686,610,0,0,0,0,0,0,0,0,0,-1,1910,414,0,0
693,610,0,0,0,0,0,0,0,0,0,-1,1917,414,0,0
700,610,0,0,0,0,0,0,0,0,0,-1,1924,414,0,0
707,610,0,0,0,0,0,0,0,0,0,-1,1931,414,0,0
714,610,0,0,0,0,0,0,0,0,0,-1,1938,414,0,0
721,610,0,0,0,0,0,0,0,0,0,-1,1945,414,0,0
728,610,0,0,0,0,0,0,0,0,0,-1,1952,414,0,0
735,610,0,0,0,0,0,0,0,0,0,-1,1959,414,0,0
742,610,0,0,0,0,0,0,0,0,0,-1,1966,414,0,0
749,610,0,0,0,0,0,0,0,0,0,-1,1973,414,0,0
756,610,0,0,0,0,0,0,0,0,0,-1,1980,414,0,0
763,610,0,0,0,0,0,0,0,0,0,-1,1987,414,0,0
770,610,0,0,0,0,0,0,0,0,0,-1,1994,414,0,0
777,610,0,0,0,0,0,0,0,0,0,-1,2001,414,0,0
784,610,0,0,0,0,0,0,0,0,0,-1,2008,414,0,0
791,610,0,0,0,0,0,0,0,0,0,-1,2015,414,0,0
798,610,0,0,0,0,0,0,0,0,0,-1,2022,414,0,0
805,610,0,0,0,0,0,0,0,0,0,-1,2029,414,0,0
812,610,0,0,0,0,0,0,0,0,0,-1,2036,414,0,0
-700,603,0,0,0,0,0,0,0,0,0,-1,524,421,0,0
-693,603,0,0,0,0,0,0,0,0,0,-1,531,421,0,0
-686,603,0,0,0,0,0,0,0,0,0,-1,538,421,0,0
-679,603,0,0,0,0,0,0,0,0,0,-1,545,421,0,0
-672,603,0,0,0,0,0,0,0,0,0,-1,552,421,0,0
-665,603,0,0,0,0,0,0,0,0,0,-1,559,421,0,0
-658,603,0,0,0,0,0,0,0,0,0,-1,566,421,0,0
-651,603,0,0,0,0,0,0,0,0,0,-1,573,421,0,0
-644,603,0,0,0,0,0,0,0,0,0,-1,580,421,0,0
-637,603,0,0,0,0,0,0,0,0,0,-1,587,421,0,0
-630,603,0,0,0,0,0,0,0,0,0,-1,594,421,0,0
-623,603,0,0,0,0,0,0,0,0,0,-1,601,421,0,0
-616,603,0,0,0,0,0,0,0,0,0,-1,608,421,0,0
-609,603,0,0,0,0,0,0,0,0,0,-1,615,421,0,0
-602,603,0,0,0,0,0,0,0,0,0,-1,622,421,0,0
-595,603,0,0,0,0,0,0,0,0,0,-1,629,421,0,0
-588,603,0,0,0,0,0,0,0,0,0,-1,636,421,0,0
-581,603,0,0,0,0,0,0,0,0,0,-1,643,421,0,0
-574,603,0,0,0,0,0,0,0,0,0,-1,650,421,0,0
-567,603,0,0,0,0,0,0,0,0,0,-1,657,421,0,0
-560,603,0,0,0,0,0,0,0,0,0,-1,664,421,0,0
-553,603,0,0,0,0,0,0,0,0,0,-1,671,421,0,0
-546,603,0,0,0,0,0,0,0,0,0,-1,678,421,0,0
-539,603,0,0,0,0,0,0,0,0,0,-1,685,421,0,0
-532,603,0,0,0,0,0,0,0,0,0,-1,692,421,0,0
-525,603,0,0,0,0,0,0,0,0,0,-1,699,421,0,0
-518,603,0,0,0,0,0,0,0,0,0,-1,706,421,0,0
-511,603,0,0,0,0,0,0,0,0,0,-1,713,421,0,0
-504,603,0,0,0,0,0,0,0,0,0,-1,720,421,0,0
-497,603,0,0,0,0,0,0,0,0,0,-1,727,421,0,0
-490,603,0,0,0,0,0,0,0,0,0,-1,734,421,0,0
-483,603,0,0,0,0,0,0,0,0,0,-1,741,421,0,0
-476,603,0,0,0,0,0,0,0,0,0,-1,748,421,0,0
-469,603,0,0,0,0,0,0,0,0,0,-1,755,421,0,0
-462,603,0,0,0,0,0,0,0,0,0,-1,762,421,0,0
-455,603,0,0,0,0,0,0,0,0,0,-1,769,421,0,0
-448,603,0,0,0,0,0,0,0,0,0,-1,776,421,0,0
-441,603,0,0,0,0,0,0,0,0,0,-1,783,421,0,0
-434,603,0,0,0,0,0,0,0,0,0,-1,790,421,0,0
-427,603,0,0,0,0,0,0,0,0,0,-1,797,421,0,0
-420,603,0,0,0,0,0,0,0,0,0,-1,804,421,0,0
-413,603,0,0,0,0,0,0,0,0,0,-1,811,421,0,0
-406,603,0,0,0,0,0,0,0,0,0,-1,818,421,0,0
-399,603,0,0,0,0,0,0,0,0,0,-1,825,421,0,0
-392,603,0,0,0,0,0,0,0,0,0,-1,832,421,0,0
-385,603,0,0,0,0,0,0,0,0,0,-1,839,421,0,0
-378,603,0,0,0,0,0,0,0,0,0,-1,846,421,0,0
-371,603,0,0,0,0,0,0,0,0,0,-1,853,421,0,0
-364,603,0,0,0,0,0,0,0,0,0,-1,860,421,0,0
-357,603,0,0,0,0,0,0,0,0,0,-1,867,421,0,0
-350,603,0,0,0,0,0,0,0,0,0,-1,874,421,0,0
-343,603,0,0,0,0,0,0,0,0,0,-1,881,421,0,0
-336,603,0,0,0,0,0,0,0,0,0,-1,888,421,0,0
-329,603,4.09686,-17.9702,0,0,0,0,0,0,0,-1,895,421,4.09687,17.9702
-322,603,8.83179,-28.7376,0,0,0,0,0,0,0,-1,902,421,8.83179,28.7376
-315,603,5.99744,-20.4501,0,0,0,0,0,0,0,-1,909,421,5.99745,20.4501
-308,603,5.92249,-20.778,0,0,0,0,0,0,0,-1,916,421,5.92248,20.778
-301,603,2.72424,-20.9059,0,0,0,0,0,0,0,-1,923,421,2.72424,20.9059
-294,603,2.41553,-20.6767,0,0,0,0,0,0,0,-1,930,421,2.41554,20.6767
-287,603,1.91766,-21.2242,0,0,0,0,0,0,0,-1,937,421,1.91767,21.2242
-280,603,2.36121,-27.3314,0,0,0,0,0,0,0,-1,944,421,2.36119,27.3314
-273,603,7.96613,-34.8225,0,0,0,0,0,0,0,-1,951,421,7.96613,34.8225
-266,603,7.18787,-34.9736,0,0,0,0,0,0,0,-1,958,421,7.18788,34.9736
-259,603,5.44666,-36.8901,0,0,0,0,0,0,0,-1,965,421,5.44664,36.8901
-252,603,7.08301,-47.796,0,0,0,0,0,0,0,-1,972,421,7.083,47.796
-245,603,6.99951,-48.6116,-0.00293419,0.0269286,-0.0124336,0.0314276,-0.00743319,-1.22361,0.0238193,0.0380359,979,421,6.99951,48.6116
-238,603,6.89978,-49.5787,-0.00303063,0.0242803,-0.0110768,0.028208,-0.0069583,-1.23004,0.0215034,0.0217068,986,421,6.89978,49.5787
-231,603,6.80859,-50.5466,-0.00298015,0.0217405,-0.00969368,0.0250883,-0.00632794,-1.23826,0.0191859,0.0146232,993,421,6.8086,50.5466
-224,603,6.7337,-51.4609,-0.00258284,0.0193792,-0.00871181,0.0224152,-0.0056189,-1.23546,0.0171265,0.0147856,1000,421,6.73367,51.4609
-217,603,6.68262,-52.3038,-0.00225437,0.0169248,-0.00780561,0.0197,-0.00502957,-1.2292,0.0150918,0.0140264,1007,421,6.68261,52.3038
-210,603,6.62756,-53.1632,-0.00197775,0.01458,-0.00691191,0.017086,-0.00448379,-1.22297,0.0131427,0.0122294,1014,421,6.62757,53.1632
-203,603,6.57849,-54.0558,-0.00169752,0.0122272,-0.00601831,0.0144678,-0.00393812,-1.2144,0.0111913,0.0182406,1021,421,6.57847,54.0558
-196,603,6.52905,-54.9141,-0.00139989,0.00997759,-0.00519895,0.0119954,-0.00341769,-1.20058,0.00934682,0.0206593,1028,421,6.52904,54.9141
-189,603,6.46179,-55.6519,-0.00105601,0.00808714,-0.00458099,0.00998741,-0.00295628,-1.17758,0.00783194,0.0176228,1035,421,6.46175,55.6519
-182,603,6.38794,-56.4047,-0.000703631,0.00633313,-0.00394519,0.00810092,-0.00247142,-1.14954,0.00638587,0.0127218,1042,421,6.38799,56.4047
-175,603,6.3374,-57.1754,-0.000336374,0.00466984,-0.00326898,0.00628399,-0.00195052,-1.11214,0.0049688,0.0128461,1049,421,6.33738,57.1754
-168,603,6.27075,-57.9543,-5.08417e-05,0.00338495,-0.00266339,0.00483641,-0.0015023,-1.07183,0.00382468,0.0152834,1056,421,6.27072,57.9543
-161,603,6.22046,-58.7265,0.000279886,0.00237468,-0.00217546,0.00374175,-0.00108719,-1.00975,0.00292504,0.0147438,1063,421,6.22046,58.7265
-154,603,6.1781,-59.4314,0.000728654,0.00150798,-0.00171085,0.00287298,-0.000636342,-0.897369,0.00215892,0.0143474,1070,421,6.17813,59.4314
-147,603,6.13708,-60.1291,0.0011881,0.000858053,-0.0012445,0.00227847,-0.000232322,-0.719482,0.00160205,0.0163955,1077,421,6.1371,60.1291
-140,603,6.1543,-60.8487,0.00165631,0.000239867,-0.000824911,0.00203531,-0.000139136,-0.430681,0.00140555,0.014115,1084,421,6.15427,60.8487
-133,603,6.12927,-61.5445,0.0021305,-0.000222692,-0.000442301,0.00221088,-0.00030308,-0.179787,0.00158464,0.013287,1091,421,6.12933,61.5445
-126,603,6.12122,-62.1997,0.00265944,-0.000544819,-0.000111974,0.00266335,-0.000548727,-0.0348885,0.00198393,0.0115728,1098,421,6.1212,62.1997
-119,603,6.12146,-62.8523,0.00336921,-0.000835577,0.000174281,0.00337642,-0.000842788,0.0413536,0.00257821,0.0113647,1105,421,6.12149,62.8523
-112,603,6.1095,-63.4955,0.004121,-0.000984231,0.0004235,0.00415589,-0.00101912,0.0822053,0.00316547,0.0159224,1112,421,6.10953,63.4954
-105,603,6.10815,-64.1279,0.00481985,-0.00100884,0.000623683,0.00488584,-0.00107483,0.105412,0.00366837,0.0171104,1119,421,6.10818,64.1279
-98,603,6.13208,-64.7086,0.0055452,-0.00112948,0.00082629,0.00564597,-0.00123025,0.121354,0.00423406,0.015134,1126,421,6.13212,64.7086
-91,603,6.15393,-65.2975,0.00638664,-0.00111113,0.000963004,0.00650835,-0.00123285,0.12572,0.00480288,0.0109491,1133,421,6.15395,65.2975
-84,603,6.18176,-65.8916,0.00742848,-0.000966885,0.0010636,0.00756113,-0.00109953,0.124077,0.0054444,0.0123991,1140,421,6.18172,65.8916
-77,603,6.23621,-66.4872,0.00847986,-0.00175148,0.00144217,0.00867926,-0.00195088,0.13739,0.00653427,0.0184254,1147,421,6.2362,66.4871
-70,603,6.29309,-67.084,0,0,0,0,0,0,0,-1,1154,421,6.29306,67.084
-63,603,6.24585,-67.3662,0,0,0,0,0,0,0,-1,1161,421,6.24585,67.3662
-56,603,6.37158,-67.8937,0,0,0,0,0,0,0,-1,1168,421,6.37158,67.8937
-49,603,6.45642,-68.3698,0,0,0,0,0,0,0,-1,1175,421,6.45648,68.3698
-42,603,6.50928,-68.7801,0,0,0,0,0,0,0,-1,1182,421,6.50932,68.7801
-35,603,6.52808,-69.1046,-0.00299882,-0.0591306,-0.00817491,-0.00183248,-0.060297,-0.141717,0.0396013,0.0444482,1189,421,6.52803,69.1046
-28,603,6.62573,-69.4363,-0.0061507,-0.06631,-0.0090188,-0.00482774,-0.067633,-0.145651,0.0435687,0.0322397,1196,421,6.62567,69.4363
-21,603,6.72864,-69.7971,-0.00851853,-0.071515,-0.00986703,-0.00700924,-0.0730243,-0.151787,0.0465228,0.026982,1203,421,6.72867,69.7971
-14,603,6.85754,-70.1365,-0.0099883,-0.0749855,-0.0104139,-0.00836053,-0.0766132,-0.155052,0.0485293,0.0240317,1210,421,6.85756,70.1365
-7,603,6.95032,-70.4344,-0.0108371,-0.0778735,-0.0107216,-0.00916408,-0.0795466,-0.154795,0.0502556,0.0287276,1217,421,6.95034,70.4343
0,603,7.04651,-70.7475,-0.0116145,-0.0792498,-0.0106709,-0.00997091,-0.0808934,-0.152827,0.0509317,0.0400565,1224,421,7.04651,70.7475
7,603,7.21033,-70.9461,0,0,0,0,0,0,0,-1,1231,421,7.21035,70.9461
14,603,7.48816,-70.8322,0,0,0,0,0,0,0,-1,1238,421,7.48817,70.8322
21,603,7.59094,-70.732,-0.0123458,-0.0773509,-0.00825923,-0.0113128,-0.0783839,-0.124422,0.0489229,0.0479992,1245,421,7.59097,70.732
28,603,7.66638,-71.055,-0.0126956,-0.0744357,-0.00694103,-0.0119249,-0.0752064,-0.110584,0.0466732,0.0490657,1252,421,7.66643,71.0549
35,603,7.90588,-71.2413,0,0,0,0,0,0,0,-1,1259,421,7.90589,71.2413
42,603,8.03662,-71.0641,-0.0123329,-0.0646026,-0.00431412,-0.0119793,-0.0649563,-0.0817981,0.0399149,0.049324,1266,421,8.03664,71.0641
49,603,8.04358,-71.2529,-0.0115531,-0.0572199,-0.00274051,-0.0113893,-0.0573838,-0.0597254,0.0350812,0.0258192,1273,421,8.04353,71.2529
56,603,8.06238,-71.5685,0,0,0,0,0,0,0,-1,1280,421,8.0624,71.5684
63,603,8.17908,-71.8944,0,0,0,0,0,0,0,-1,1287,421,8.17902,71.8944
70,603,8.50195,-71.925,0,0,0,0,0,0,0,-1,1294,421,8.50195,71.925
77,603,6.44238,-70.2283,0,0,0,0,0,0,0,-1,1301,421,6.44235,70.2283
84,603,8.83044,-71.7697,0,0,0,0,0,0,0,-1,1308,421,8.83049,71.7697
91,603,8.92126,-72.1048,0,0,0,0,0,0,0,-1,1315,421,8.92127,72.1048
98,603,9.34595,-72.0679,0,0,0,0,0,0,0,-1,1322,421,9.34599,72.0679
105,603,9.47644,-71.6572,0,0,0,0,0,0,0,-1,1329,421,9.47644,71.6572
112,603,9.67053,-71.0686,0,0,0,0,0,0,0,-1,1336,421,9.67056,71.0686
119,603,9.63757,-71.0656,0,0,0,0,0,0,0,-1,1343,421,9.6376,71.0656
126,603,9.80859,-70.7696,0,0,0,0,0,0,0,-1,1350,421,9.80854,70.7696
133,603,10.1244,-70.3083,0.010229,-0.0141169,-0.00545915,0.011397,-0.015285,-0.210788,0.0154593,0.0468438,1357,421,10.1243,70.3083
140,603,10.2643,-69.8852,0.0121852,-0.0149438,-0.00619034,0.0135309,-0.0162896,-0.214067,0.0172414,0.0435883,1364,421,10.2643,69.8852
147,603,10.132,-69.6245,0.0133968,-0.0180489,-0.00675125,0.014785,-0.0194371,-0.202792,0.0198189,0.0350801,1371,421,10.1319,69.6245
154,603,10.1064,-69.5047,0.014235,-0.0214627,-0.00852239,0.0161652,-0.023393,-0.222733,0.0229657,0.0386829,1378,421,10.1064,69.5047
161,603,10.4088,-69.1317,0.0134757,-0.0197625,-0.00834007,0.0154509,-0.0217378,-0.232558,0.021573,0.0335201,1385,421,10.4089,69.1317
168,603,10.5448,-68.7097,0.012714,-0.017617,-0.00788009,0.0146391,-0.0195421,-0.239605,0.0198021,0.0364866,1392,421,10.5449,68.7097
175,603,10.7416,-68.3177,0.0119567,-0.0155418,-0.00742966,0.0138357,-0.0174208,-0.247709,0.0180855,0.0430845,1399,421,10.7416,68.3177
182,603,10.7891,-67.8459,0.0108753,-0.0132714,-0.00675398,0.012636,-0.0150321,-0.255021,0.0159942,0.0491653,1406,421,10.789,67.8459
189,603,10.7123,-67.3321,0.00967427,-0.0107733,-0.00587923,0.0112442,-0.0123432,-0.260937,0.0136231,0.0412272,1413,421,10.7123,67.3321
196,603,10.6628,-66.8432,0.0089221,-0.00820255,-0.00492827,0.0102391,-0.00951956,-0.261134,0.0114102,0.0296647,1420,421,10.6628,66.8432
203,603,10.6989,-66.3896,0.00826769,-0.00611999,-0.00403153,0.00932034,-0.00717264,-0.255402,0.0095491,0.0176328,1427,421,10.6988,66.3896
210,603,10.725,-65.9558,0.00705147,-0.00461192,-0.00323323,0.00788779,-0.00544824,-0.253116,0.00774239,0.0143331,1434,421,10.725,65.9558
217,603,10.7429,-65.3199,0.00595195,-0.0030204,-0.00224807,0.0064837,-0.00355215,-0.232268,0.00587602,0.0152333,1441,421,10.743,65.3199
224,603,10.8356,-64.7001,0.00518541,-0.0016108,-0.0013881,0.005458,-0.00188338,-0.193904,0.00440284,0.0190067,1448,421,10.8356,64.7001
231,603,10.8708,-64.1056,0.00461243,-0.000646567,-0.000513306,0.00466206,-0.0006962,-0.0963931,0.00336421,0.0158935,1455,421,10.8709,64.1056
238,603,10.8563,-63.4654,0.00426262,-0.000619826,-9.93304e-05,0.00426464,-0.000621846,-0.0203332,0.00307143,0.0113785,1462,421,10.8563,63.4654
245,603,10.865,-62.8101,0.00400599,-0.000455261,0.000250856,0.00402005,-0.000469322,0.0559947,0.00284939,0.011359,1469,421,10.865,62.8101
252,603,10.8699,-62.114,0.00359092,-0.000139397,0.000612456,0.0036889,-0.000237379,0.158637,0.00254209,0.010716,1476,421,10.8698,62.1141
259,603,10.851,-61.4312,0.00317911,0.000288825,0.00099901,0.0034908,-2.28643e-05,0.302427,0.00233486,0.0107795,1483,421,10.8509,61.4312
266,603,10.8241,-60.7264,0.00288586,0.000855256,0.00140694,0.00360558,0.000135534,0.472847,0.00235984,0.0121093,1490,421,10.8241,60.7264
273,603,10.8231,-60.0062,0.00260541,0.00172662,0.00190678,0.00412277,0.000209258,0.672155,0.00268148,0.0112654,1497,421,10.8232,60.0062
280,603,10.8025,-59.2784,0.00234602,0.00273302,0.0024958,0.0050428,3.62331e-05,0.824087,0.00334986,0.0123579,1504,421,10.8025,59.2784
287,603,10.7365,-58.5182,0.0022051,0.00393712,0.00312379,0.00631273,-0.000170504,0.920618,0.00426645,0.0120888,1511,421,10.7365,58.5181
294,603,10.6833,-57.7676,0.00200369,0.00520728,0.00370653,0.00764332,-0.00043235,0.989355,0.00524561,0.010468,1518,421,10.6833,57.7676
301,603,10.6594,-57.0077,0.00178983,0.00648135,0.00432215,0.00905327,-0.000782093,1.03402,0.00631238,0.0125266,1525,421,10.6595,57.0077
308,603,10.6163,-56.2363,0.00168767,0.00802969,0.00501674,0.0107936,-0.00107622,1.06724,0.00757996,0.01882,1532,421,10.6164,56.2363
315,603,10.5365,-55.4514,0.00169566,0.00967025,0.00579014,0.0127132,-0.00134729,1.08693,0.00895839,0.0177906,1539,421,10.5365,55.4515
322,603,10.4746,-54.6393,0.00166506,0.0111724,0.00653799,0.0145022,-0.00166475,1.09973,0.0102681,0.017521,1546,421,10.4746,54.6393
329,603,10.4149,-53.8084,0.00177066,0.0125296,0.00736051,0.0162669,-0.00196665,1.10097,0.0115561,0.0125798,1553,421,10.4149,53.8084
336,603,10.3751,-52.9875,0.00190959,0.0141297,0.0082729,0.0183043,-0.00226497,1.10347,0.0130237,0.0099881,1560,421,10.3751,52.9875
343,603,10.334,-52.1498,0.00185501,0.015674,0.00914896,0.0202294,-0.00270042,1.10882,0.0144707,0.0115967,1567,421,10.334,52.1498
350,603,10.2811,-51.2833,0.00181378,0.0179933,0.0100263,0.0227865,-0.00297942,1.12485,0.0162753,0.0131294,1574,421,10.2812,51.2833
357,603,10.1965,-50.3973,0.00172716,0.0202517,0.0110862,0.0254357,-0.00345681,1.1334,0.0182191,0.0145561,1581,421,10.1966,50.3973
364,603,10.1561,-49.4189,0.00136196,0.0226744,0.0119293,0.0280139,-0.00397751,1.14994,0.0201332,0.0186311,1588,421,10.1561,49.4189
371,603,10.1091,-48.4915,0.000971243,0.0259545,0.0128784,0.0314043,-0.00447857,1.17047,0.0225776,0.0254919,1595,421,10.1091,48.4915
378,603,10.0978,-47.6879,0.000238622,0.0295596,0.0136984,0.0349634,-0.00516521,1.19505,0.0252077,0.037873,1602,421,10.0978,47.6879
385,603,9.99866,-46.8858,0,0,0,0,0,0,0,-1,1609,421,9.99862,46.8858
392,603,9.77832,-45.5643,0,0,0,0,0,0,0,-1,1616,421,9.77827,45.5643
399,603,8.97314,-44.084,0,0,0,0,0,0,0,-1,1623,421,8.97316,44.084
406,603,8.72144,-43.4746,0,0,0,0,0,0,0,-1,1630,421,8.72145,43.4746
413,603,2.38928,-2.41275,0,0,0,0,0,0,0,-1,1637,421,2.38926,2.41274
420,603,8.22217,-23.7068,0,0,0,0,0,0,0,-1,1644,421,8.22215,23.7068
427,603,8.20386,-23.1278,0,0,0,0,0,0,0,-1,1651,421,8.2039,23.1278
434,603,8.01489,-22.5655,0,0,0,0,0,0,0,-1,1658,421,8.01493,22.5655
441,603,8.00122,-22.3072,0,0,0,0,0,0,0,-1,1665,421,8.00116,22.3071
448,603,1.14355,-4.59842,0,0,0,0,0,0,0,-1,1672,421,1.14355,4.59841
455,603,0,0,0,0,0,0,0,0,0,-1,1679,421,0,0
462,603,0,0,0,0,0,0,0,0,0,-1,1686,421,0,0
469,603,0,0,0,0,0,0,0,0,0,-1,1693,421,0,0
476,603,0,0,0,0,0,0,0,0,0,-1,1700,421,0,0
483,603,0,0,0,0,0,0,0,0,0,-1,1707,421,0,0
490,603,0,0,0,0,0,0,0,0,0,-1,1714,421,0,0
497,603,0,0,0,0,0,0,0,0,0,-1,1721,421,0,0
504,603,0,0,0,0,0,0,0,0,0,-1,1728,421,0,0
511,603,0,0,0,0,0,0,0,0,0,-1,1735,421,0,0
518,603,0,0,0,0,0,0,0,0,0,-1,1742,421,0,0
525,603,0,0,0,0,0,0,0,0,0,-1,1749,421,0,0
532,603,0,0,0,0,0,0,0,0,0,-1,1756,421,0,0
539,603,0,0,0,0,0,0,0,0,0,-1,1763,421,0,0
546,603,0,0,0,0,0,0,0,0,0,-1,1770,421,0,0
553,603,0,0,0,0,0,0,0,0,0,-1,1777,421,0,0
560,603,0,0,0,0,0,0,0,0,0,-1,1784,421,0,0
567,603,0,0,0,0,0,0,0,0,0,-1,1791,421,0,0
574,603,0,0,0,0,0,0,0,0,0,-1,1798,421,0,0
581,603,0,0,0,0,0,0,0,0,0,-1,1805,421,0,0
588,603,0,0,0,0,0,0,0,0,0,-1,1812,421,0,0
595,603,0,0,0,0,0,0,0,0,0,-1,1819,421,0,0
602,603,0,0,0,0,0,0,0,0,0,-1,1826,421,0,0
609,603,0,0,0,0,0,0,0,0,0,-1,1833,421,0,0
616,603,0,0,0,0,0,0,0,0,0,-1,1840,421,0,0
623,603,0,0,0,0,0,0,0,0,0,-1,1847,421,0,0
630,603,0,0,0,0,0,0,0,0,0,-1,1854,421,0,0
637,603,0,0,0,0,0,0,0,0,0,-1,1861,421,0,0
644,603,0,0,0,0,0,0,0,0,0,-1,1868,421,0,0
651,603,0,0,0,0,0,0,0,0,0,-1,1875,421,0,0
658,603,0,0,0,0,0,0,0,0,0,-1,1882,421,0,0
665,603,0,0,0,0,0,0,0,0,0,-1,1889,421,0,0
672,603,0,0,0,0,0,0,0,0,0,-1,1896,421,0,0
679,603,0,0,0,0,0,0,0,0,0,-1,1903,421,0,0
686,603,0,0,0,0,0,0,0,0,0,-1,1910,421,0,0
693,603,0,0,0,0,0,0,0,0,0,-1,1917,421,0,0
700,603,0,0,0,0,0,0,0,0,0,-1,1924,421,0,0
707,603,0,0,0,0,0,0,0,0,0,-1,1931,421,0,0
714,603,0,0,0,0,0,0,0,0,0,-1,1938,421,0,0
721,603,0,0,0,0,0,0,0,0,0,-1,1945,421,0,0
728,603,0,0,0,0,0,0,0,0,0,-1,1952,421,0,0
735,603,0,0,0,0,0,0,0,0,0,-1,1959,421,0,0
742,603,0,0,0,0,0,0,0,0,0,-1,1966,421,0,0
749,603,0,0,0,0,0,0,0,0,0,-1,1973,421,0,0
756,603,0,0,0,0,0,0,0,0,0,-1,1980,421,0,0
763,603,0,0,0,0,0,0,0,0,0,-1,1987,421,0,0
770,603,0,0,0,0,0,0,0,0,0,-1,1994,421,0,0
777,603,0,0,0,0,0,0,0,0,0,-1,2001,421,0,0
784,603,0,0,0,0,0,0,0,0,0,-1,2008,421,0,0
791,603,0,0,0,0,0,0,0,0,0,-1,2015,421,0,0
798,603,0,0,0,0,0,0,0,0,0,-1,2022,421,0,0
805,603,0,0,0,0,0,0,0,0,0,-1,2029,421,0,0
812,603,0,0,0,0,0,0,0,0,0,-1,2036,421,0,0
-700,596,0,0,0,0,0,0,0,0,0,-1,524,428,0,0
-693,596,0,0,0,0,0,0,0,0,0,-1,531,428,0,0
-686,596,0,0,0,0,0,0,0,0,0,-1,538,428,0,0
-679,596,0,0,0,0,0,0,0,0,0,-1,545,428,0,0
-672,596,0,0,0,0,0,0,0,0,0,-1,552,428,0,0
-665,596,0,0,0,0,0,0,0,0,0,-1,559,428,0,0
-658,596,0,0,0,0,0,0,0,0,0,-1,566,428,0,0
-651,596,0,0,0,0,0,0,0,0,0,-1,573,428,0,0
-644,596,0,0,0,0,0,0,0,0,0,-1,580,428,0,0
-637,596,0,0,0,0,0,0,0,0,0,-1,587,428,0,0
-630,596,0,0,0,0,0,0,0,0,0,-1,594,428,0,0
-623,596,0,0,0,0,0,0,0,0,0,-1,601,428,0,0
-616,596,0,0,0,0,0,0,0,0,0,-1,608,428,0,0
-609,596,0,0,0,0,0,0,0,0,0,-1,615,428,0,0
-602,596,0,0,0,0,0,0,0,0,0,-1,622,428,0,0
-595,596,0,0,0,0,0,0,0,0,0,-1,629,428,0,0
-588,596,0,0,0,0,0,0,0,0,0,-1,636,428,0,0
-581,596,0,0,0,0,0,0,0,0,0,-1,643,428,0,0
-574,596,0,0,0,0,0,0,0,0,0,-1,650,428,0,0
-567,596,0,0,0,0,0,0,0,0,0,-1,657,428,0,0
-560,596,0,0,0,0,0,0,0,0,0,-1,664,428,0,0
-553,596,0,0,0,0,0,0,0,0,0,-1,671,428,0,0
-546,596,0,0,0,0,0,0,0,0,0,-1,678,428,0,0
-539,596,0,0,0,0,0,0,0,0,0,-1,685,428,0,0
-532,596,0,0,0,0,0,0,0,0,0,-1,692,428,0,0
-525,596,0,0,0,0,0,0,0,0,0,-1,699,428,0,0
-518,596,0,0,0,0,0,0,0,0,0,-1,706,428,0,0
-511,596,0,0,0,0,0,0,0,0,0,-1,713,428,0,0
-504,596,0,0,0,0,0,0,0,0,0,-1,720,428,0,0
-497,596,0,0,0,0,0,0,0,0,0,-1,727,428,0,0
-490,596,0,0,0,0,0,0,0,0,0,-1,734,428,0,0
-483,596,0,0,0,0,0,0,0,0,0,-1,741,428,0,0
-476,596,0,0,0,0,0,0,0,0,0,-1,748,428,0,0
-469,596,0,0,0,0,0,0,0,0,0,-1,755,428,0,0
-462,596,0,0,0,0,0,0,0,0,0,-1,762,428,0,0
-455,596,0,0,0,0,0,0,0,0,0,-1,769,428,0,0
-448,596,0,0,0,0,0,0,0,0,0,-1,776,428,0,0
-441,596,0,0,0,0,0,0,0,0,0,-1,783,428,0,0
-434,596,0,0,0,0,0,0,0,0,0,-1,790,428,0,0
-427,596,0,0,0,0,0,0,0,0,0,-1,797,428,0,0
-420,596,0,0,0,0,0,0,0,0,0,-1,804,428,0,0
-413,596,0,0,0,0,0,0,0,0,0,-1,811,428,0,0
-406,596,0,0,0,0,0,0,0,0,0,-1,818,428,0,0
-399,596,0,0,0,0,0,0,0,0,0,-1,825,428,0,0
-392,596,0,0,0,0,0,0,0,0,0,-1,832,428,0,0
-385,596,0,0,0,0,0,0,0,0,0,-1,839,428,0,0
-378,596,0,0,0,0,0,0,0,0,0,-1,846,428,0,0
-371,596,0,0,0,0,0,0,0,0,0,-1,853,428,0,0
-364,596,0,0,0,0,0,0,0,0,0,-1,860,428,0,0
-357,596,0,0,0,0,0,0,0,0,0,-1,867,428,0,0
-350,596,0,0,0,0,0,0,0,0,0,-1,874,428,0,0
-343,596,0,0,0,0,0,0,0,0,0,-1,881,428,0,0
-336,596,6.81445,-30.5258,0,0,0,0,0,0,0,-1,888,428,6.81446,30.5258
-329,596,6.84772,-28.9253,0,0,0,0,0,0,0,-1,895,428,6.84773,28.9253
-322,596,6.97449,-27.9047,0,0,0,0,0,0,0,-1,902,428,6.97451,27.9047
-315,596,7.10132,-26.8841,0,0,0,0,0,0,0,-1,909,428,7.10129,26.8841
-308,596,0.254761,-20.841,0,0,0,0,0,0,0,-1,916,428,0.254731,20.841
-301,596,3.43213,-26.756,0,0,0,0,0,0,0,-1,923,428,3.43214,26.756
-294,596,4.1767,-27.6454,0,0,0,0,0,0,0,-1,930,428,4.17667,27.6454
-287,596,4.36041,-27.6119,0,0,0,0,0,0,0,-1,937,428,4.3604,27.6119
-280,596,5.96619,-42.5634,0,0,0,0,0,0,0,-1,944,428,5.96616,42.5634
-273,596,6.54364,-44.9351,0,0,0,0,0,0,0,-1,951,428,6.54361,44.9351
-266,596,6.35229,-45.8971,0,0,0,0,0,0,0,-1,958,428,6.35231,45.8971
-259,596,6.29065,-46.8055,0,0,0,0,0,0,0,-1,965,428,6.29066,46.8055
-252,596,6.16907,-47.8544,-0.00226445,0.0227561,-0.0111204,0.0269841,-0.00649249,-1.20747,0.0204992,0.0228299,972,428,6.16904,47.8544
-245,596,6.11865,-48.8349,-0.0021544,0.0204167,-0.00998381,0.024199,-0.0059367,-1.20866,0.018433,0.0142044,979,428,6.11863,48.8349
-238,596,6.06354,-49.7248,-0.00208132,0.0182179,-0.00885088,0.021535,-0.00539843,-1.21222,0.016454,0.0121111,986,428,6.06354,49.7247
-231,596,5.97711,-50.621,-0.00192806,0.0160449,-0.00765211,0.0188614,-0.00474462,-1.21811,0.0144184,0.0136238,993,428,5.97709,50.621
-224,596,5.92688,-51.494,-0.00154797,0.0139854,-0.00673382,0.0164981,-0.00406067,-1.21365,0.0125728,0.0143683,1000,428,5.92691,51.494
-217,596,5.86469,-52.3289,-0.00120314,0.0118148,-0.00588356,0.0140798,-0.00346816,-1.20331,0.0107311,0.0153005,1007,428,5.86469,52.3289
-210,596,5.82617,-53.1747,-0.000879492,0.00970818,-0.00504535,0.0117274,-0.00289868,-1.19011,0.00894247,0.0137029,1014,428,5.82617,53.1747
-203,596,5.77747,-54.0126,-0.000538384,0.00763912,-0.00421541,0.00942299,-0.00232225,-1.17047,0.00718232,0.0176685,1021,428,5.77746,54.0126
-196,596,5.72632,-54.8198,-0.000186504,0.00566883,-0.00345836,0.00727233,-0.00179,-1.13664,0.0055421,0.017742,1028,428,5.72634,54.8198
-189,596,5.65552,-55.6014,0.000186367,0.00391237,-0.00284116,0.00544687,-0.00134813,-1.07559,0.00415419,0.0144697,1035,428,5.65549,55.6014
-182,596,5.61328,-56.3564,0.000584159,0.00232522,-0.00224643,0.00386389,-0.000954512,-0.970248,0.0029461,0.0125045,1042,428,5.61334,56.3564
-175,596,5.58228,-57.1403,0.000987064,0.00087846,-0.00164696,0.00258061,-0.000715088,-0.768919,0.00200181,0.015117,1049,428,5.58224,57.1403
-168,596,5.55237,-57.9376,0.00132097,-0.000207915,-0.00111582,0.00190909,-0.000796039,-0.485073,0.00160527,0.0180367,1056,428,5.55236,57.9376
-161,596,5.51245,-58.6843,0.00170347,-0.00103337,-0.000681448,0.00186376,-0.00119366,-0.231015,0.00177928,0.0161231,1063,428,5.51249,58.6843
-154,596,5.45227,-59.4032,0.00217342,-0.0016675,-0.000271633,0.00219253,-0.00168661,-0.0702549,0.00224597,0.0133125,1070,428,5.45221,59.4032
-147,596,5.47034,-60.0846,0.00269719,-0.00206593,0.000102632,0.0026994,-0.00206814,0.0215339,0.00276057,0.0143206,1077,428,5.47033,60.0846
-140,596,5.48523,-60.7859,0.00320285,-0.00246645,0.000484256,0.00324391,-0.00250752,0.0846006,0.00332965,0.016662,1084,428,5.48522,60.7859
-133,596,5.46826,-61.52,0.00368771,-0.00270278,0.000836845,0.00379548,-0.00281055,0.128075,0.0038281,0.0162806,1091,428,5.4683,61.52
-126,596,5.46387,-62.183,0.00428741,-0.00275056,0.00111458,0.00445971,-0.00292286,0.153369,0.004293,0.0120119,1098,428,5.46385,62.183
-119,596,5.45239,-62.8465,0.0051425,-0.00278481,0.00129436,0.00534849,-0.0029908,0.157819,0.00487841,0.0146286,1105,428,5.45234,62.8465
-112,596,5.44067,-63.4947,0.00598301,-0.00269628,0.00146773,0.0062245,-0.00293776,0.163069,0.0054021,0.0159602,1112,428,5.44063,63.4947
-105,596,5.46497,-64.1184,0.00672944,-0.00249709,0.00162449,0.0070071,-0.00277475,0.169287,0.0058211,0.0252557,1119,428,5.46499,64.1184
-98,596,5.55042,-64.7296,0.00750359,-0.0025238,0.00182313,0.00782477,-0.00284498,0.174382,0.00637991,0.0358598,1126,428,5.55038,64.7296
-91,596,5.48303,-65.431,0,0,0,0,0,0,0,-1,1133,428,5.48299,65.431
-84,596,5.59167,-65.8921,0,0,0,0,0,0,0,-1,1140,428,5.59172,65.8921
-77,596,5.69971,-66.5089,0,0,0,0,0,0,0,-1,1147,428,5.69968,66.5089
-70,596,3.50696,-32.137,0,0,0,0,0,0,0,-1,1154,428,3.50696,32.137
-63,596,1.95569,-12.2758,0,0,0,0,0,0,0,-1,1161,428,1.95563,12.2759
-56,596,1.60107,-10.5827,0,0,0,0,0,0,0,-1,1168,428,1.60108,10.5827
-49,596,1.59473,-10.0393,0,0,0,0,0,0,0,-1,1175,428,1.59472,10.0393
-42,596,1.99585,-6.6246,0,0,0,0,0,0,0,-1,1182,428,1.99586,6.62459
-35,596,5.8877,-68.7178,0,0,0,0,0,0,0,-1,1189,428,5.88775,68.7178
-28,596,6.18701,-69.1721,0,0,0,0,0,0,0,-1,1196,428,6.18699,69.1722
-21,596,6.24707,-69.5766,0,0,0,0,0,0,0,-1,1203,428,6.24702,69.5766
-14,596,6.42603,-69.9565,0,0,0,0,0,0,0,-1,1210,428,6.42604,69.9564
-7,596,6.49854,-70.2729,0,0,0,0,0,0,0,-1,1217,428,6.49847,70.273
0,596,6.64038,-70.628,0,0,0,0,0,0,0,-1,1224,428,6.6404,70.628
7,596,2.54419,-83.8163,0,0,0,0,0,0,0,-1,1231,428,2.54417,83.8163
14,596,1.44055,-83.7331,0,0,0,0,0,0,0,-1,1238,428,1.44052,83.7331
21,596,7.35144,-69.6822,0,0,0,0,0,0,0,-1,1245,428,7.35139,69.6822
28,596,7.42688,-70.2818,0,0,0,0,0,0,0,-1,1252,428,7.42692,70.2818
35,596,5.02551,-78.2238,0,0,0,0,0,0,0,-1,1259,428,5.02556,78.2238
42,596,7.91772,-70.3799,0,0,0,0,0,0,0,-1,1266,428,7.91778,70.3799
49,596,8.23376,-70.8137,-0.0162183,-0.0719477,-0.00283762,-0.0160742,-0.0720918,-0.0507428,0.0437,0.0435861,1273,428,8.23379,70.8137
56,596,7.88538,-70.6967,0,0,0,0,0,0,0,-1,1280,428,7.88538,70.6968
63,596,7.75867,-70.421,-0.0142551,-0.0542518,0.000729041,-0.0142418,-0.0542651,0.0182194,0.0324873,0.0452642,1287,428,7.75872,70.421
70,596,7.38354,-70.3286,-0.0132346,-0.045577,0.00124759,-0.0131865,-0.0456251,0.0384982,0.0271121,0.047128,1294,428,7.38353,70.3285
77,596,6.71338,-69.8613,-0.0116512,-0.0366053,0.00150427,-0.0115608,-0.0366956,0.0599918,0.021664,0.0465549,1301,428,6.71338,69.8613
84,596,6.53674,-70.0764,0,0,0,0,0,0,0,-1,1308,428,6.53674,70.0764
91,596,6.52356,-69.5792,-0.00810193,-0.0233606,0.000703689,-0.00806955,-0.023393,0.0459871,0.0137207,0.0440967,1315,428,6.52362,69.5792
98,596,7.14844,-69.6653,-0.00650893,-0.0189228,-0.000300021,-0.00650168,-0.0189301,-0.0241494,0.0111064,0.0483629,1322,428,7.14842,69.6653
105,596,7.94446,-69.5726,0,0,0,0,0,0,0,-1,1329,428,7.94444,69.5726
112,596,10.0446,-70.7676,0,0,0,0,0,0,0,-1,1336,428,10.0446,70.7676
119,596,10.4675,-69.7487,0,0,0,0,0,0,0,-1,1343,428,10.4675,69.7487
126,596,9.96643,-68.5894,0,0,0,0,0,0,0,-1,1350,428,9.96646,68.5894
133,596,10.7823,-69.8409,0,0,0,0,0,0,0,-1,1357,428,10.7824,69.8409
140,596,10.9169,-69.0737,0,0,0,0,0,0,0,-1,1364,428,10.9169,69.0737
147,596,10.5278,-68.76,0,0,0,0,0,0,0,-1,1371,428,10.5278,68.76
154,596,10.2089,-69.0928,0,0,0,0,0,0,0,-1,1378,428,10.2088,69.0928
161,596,10.9171,-68.7787,0,0,0,0,0,0,0,-1,1385,428,10.9172,68.7787
168,596,11.0962,-68.142,0,0,0,0,0,0,0,-1,1392,428,11.0962,68.142
175,596,11.2594,-67.7787,0,0,0,0,0,0,0,-1,1399,428,11.2594,67.7787
182,596,11.4246,-67.5745,0,0,0,0,0,0,0,-1,1406,428,11.4246,67.5745
189,596,11.3151,-67.1283,0,0,0,0,0,0,0,-1,1413,428,11.3151,67.1283
196,596,11.2695,-66.4864,0,0,0,0,0,0,0,-1,1420,428,11.2696,66.4864
203,596,11.2212,-66.2724,0,0,0,0,0,0,0,-1,1427,428,11.2211,66.2724
210,596,11.2731,-65.9558,0,0,0,0,0,0,0,-1,1434,428,11.273,65.9558
217,596,11.291,-65.327,0,0,0,0,0,0,0,-1,1441,428,11.291,65.327
224,596,11.4257,-64.6936,0,0,0,0,0,0,0,-1,1448,428,11.4257,64.6936
231,596,11.5292,-64.0943,0.00621956,-0.00259894,-0.0014892,0.00646426,-0.00284364,-0.162857,0.00550777,0.0284673,1455,428,11.5292,64.0943
238,596,11.4946,-63.4204,0.00586928,-0.00317146,-0.00111383,0.00600449,-0.00330667,-0.120795,0.0054505,0.0167195,1462,428,11.4947,63.4204
245,596,11.5184,-62.7842,0.00560747,-0.00346748,-0.000834028,0.00568348,-0.0035435,-0.0908899,0.00537474,0.0135918,1469,428,11.5184,62.7842
252,596,11.5422,-62.0935,0.0050865,-0.00353324,-0.000568436,0.00512382,-0.00357057,-0.0655674,0.00504634,0.0106408,1476,428,11.5423,62.0935
259,596,11.5435,-61.3919,0.00452782,-0.00350997,-0.000344703,0.00454258,-0.00352473,-0.0427806,0.00467,0.00903503,1483,428,11.5434,61.3919
266,596,11.516,-60.6959,0.00412512,-0.00320647,-7.46621e-05,0.00412588,-0.00320723,-0.0101822,0.00424484,0.0102448,1490,428,11.516,60.6959
273,596,11.5188,-59.9938,0.00371782,-0.00254136,0.000300715,0.00373224,-0.00255577,0.0478969,0.0036515,0.0127093,1497,428,11.5188,59.9938
280,596,11.5122,-59.2776,0.00330788,-0.00170474,0.00075394,0.00341882,-0.00181568,0.146103,0.00306902,0.0136609,1504,428,11.5122,59.2776
287,596,11.4814,-58.5203,0.00301409,-0.000648211,0.00123083,0.0033893,-0.00102343,0.295899,0.00266696,0.0122657,1511,428,11.4814,58.5203
294,596,11.4211,-57.756,0.00267875,0.000591514,0.00171002,0.00363846,-0.000368188,0.51142,0.00255722,0.0102155,1518,428,11.4212,57.756
301,596,11.3899,-56.9854,0.00232649,0.00192763,0.00224209,0.004378,-0.00012388,0.74104,0.00296082,0.0118785,1525,428,11.3899,56.9854
308,596,11.3826,-56.1972,0.00207526,0.00348461,0.00284827,0.00571409,-0.00015421,0.906665,0.00386182,0.0181628,1532,428,11.3826,56.1972
315,596,11.2981,-55.3979,0.00192848,0.00513258,0.00353609,0.00741261,-0.000351544,0.998094,0.00506299,0.0170384,1539,428,11.2981,55.3979
322,596,11.2675,-54.5966,0.00175944,0.0066521,0.00421268,0.00907724,-0.000665697,1.04845,0.00628515,0.0140757,1546,428,11.2675,54.5966
329,596,11.2085,-53.7874,0.00171918,0.00804145,0.00497464,0.0107744,-0.00101373,1.06844,0.00754356,0.0105766,1553,428,11.2085,53.7874
336,596,11.1471,-52.9792,0.00170737,0.00960836,0.00581092,0.0126845,-0.00136874,1.08393,0.00894753,0.00904144,1560,428,11.1471,52.9793
343,596,11.1317,-52.1434,0.00154455,0.0112127,0.00665829,0.0146067,-0.00184943,1.09939,0.0104092,0.0116045,1567,428,11.1317,52.1434
350,596,11.0945,-51.2648,0.00138772,0.013338,0.00745428,0.0169164,-0.0021906,1.12325,0.0120742,0.0120357,1574,428,11.0945,51.2648
357,596,11.0022,-50.3958,0.00123535,0.0153114,0.00838728,0.0192223,-0.00267562,1.13447,0.0137935,0.00961301,1581,428,11.0022,50.3959
364,596,10.9227,-49.5054,0.000888343,0.0173654,0.00916401,0.0214497,-0.00319597,1.15153,0.0154755,0.0109831,1588,428,10.9227,49.5054
371,596,10.8406,-48.63,0.000472119,0.0199221,0.00996573,0.0241216,-0.00372737,1.17198,0.0174567,0.0121246,1595,428,10.8406,48.63
378,596,10.7627,-47.7291,-0.000183285,0.0226697,0.0106181,0.0268416,-0.00435517,1.19642,0.0195088,0.0174061,1602,428,10.7626,47.7291
385,596,10.7878,-46.5871,-0.0011031,0.0250712,0.010789,0.0289451,-0.00497697,1.22608,0.0211518,0.0352568,1609,428,10.7879,46.5871
392,596,10.6528,-45.4919,-0.00193206,0.0272129,0.0108853,0.0308296,-0.0055488,1.25001,0.0226306,0.0433354,1616,428,10.6529,45.4919
399,596,10.2535,-44.3436,-0.00223674,0.029608,0.0114443,0.0332942,-0.00592289,1.25919,0.0244111,0.0454307,1623,428,10.2535,44.3436
406,596,10.1237,-43.6446,0,0,0,0,0,0,0,-1,1630,428,10.1237,43.6446
413,596,10.0659,-42.8499,0,0,0,0,0,0,0,-1,1637,428,10.0659,42.8499
420,596,2.6344,-3.06308,0,0,0,0,0,0,0,-1,1644,428,2.63439,3.06308
427,596,7.61975,-22.7222,0,0,0,0,0,0,0,-1,1651,428,7.61974,22.7222
434,596,5.09753,-22.5213,0,0,0,0,0,0,0,-1,1658,428,5.09755,22.5213
441,596,7.19043,-22.087,0,0,0,0,0,0,0,-1,1665,428,7.19046,22.087
448,596,1.0769,0.0083313,0,0,0,0,0,0,0,-1,1672,428,1.07684,-0.00832231
455,596,2.00769,-1.43329,0,0,0,0,0,0,0,-1,1679,428,2.00765,1.4333
462,596,0,0,0,0,0,0,0,0,0,-1,1686,428,0,0
469,596,0,0,0,0,0,0,0,0,0,-1,1693,428,0,0
476,596,0,0,0,0,0,0,0,0,0,-1,1700,428,0,0
483,596,0,0,0,0,0,0,0,0,0,-1,1707,428,0,0
490,596,0,0,0,0,0,0,0,0,0,-1,1714,428,0,0
497,596,0,0,0,0,0,0,0,0,0,-1,1721,428,0,0
504,596,0,0,0,0,0,0,0,0,0,-1,1728,428,0,0
511,596,0,0,0,0,0,0,0,0,0,-1,1735,428,0,0
518,596,0,0,0,0,0,0,0,0,0,-1,1742,428,0,0
525,596,0,0,0,0,0,0,0,0,0,-1,1749,428,0,0
532,596,0,0,0,0,0,0,0,0,0,-1,1756,428,0,0
539,596,0,0,0,0,0,0,0,0,0,-1,1763,428,0,0
546,596,0,0,0,0,0,0,0,0,0,-1,1770,428,0,0
553,596,0,0,0,0,0,0,0,0,0,-1,1777,428,0,0
560,596,0,0,0,0,0,0,0,0,0,-1,1784,428,0,0
567,596,0,0,0,0,0,0,0,0,0,-1,1791,428,0,0
574,596,0,0,0,0,0,0,0,0,0,-1,1798,428,0,0
581,596,0,0,0,0,0,0,0,0,0,-1,1805,428,0,0
588,596,0,0,0,0,0,0,0,0,0,-1,1812,428,0,0
595,596,0,0,0,0,0,0,0,0,0,-1,1819,428,0,0
602,596,0,0,0,0,0,0,0,0,0,-1,1826,428,0,0
609,596,0,0,0,0,0,0,0,0,0,-1,1833,428,0,0
616,596,0,0,0,0,0,0,0,0,0,-1,1840,428,0,0
623,596,0,0,0,0,0,0,0,0,0,-1,1847,428,0,0
630,596,0,0,0,0,0,0,0,0,0,-1,1854,428,0,0
637,596,0,0,0,0,0,0,0,0,0,-1,1861,428,0,0
644,596,0,0,0,0,0,0,0,0,0,-1,1868,428,0,0
651,596,0,0,0,0,0,0,0,0,0,-1,1875,428,0,0
658,596,0,0,0,0,0,0,0,0,0,-1,1882,428,0,0
665,596,0,0,0,0,0,0,0,0,0,-1,1889,428,0,0
672,596,0,0,0,0,0,0,0,0,0,-1,1896,428,0,0
679,596,0,0,0,0,0,0,0,0,0,-1,1903,428,0,0
686,596,0,0,0,0,0,0,0,0,0,-1,1910,428,0,0
693,596,0,0,0,0,0,0,0,0,0,-1,1917,428,0,0
700,596,0,0,0,0,0,0,0,0,0,-1,1924,428,0,0
707,596,0,0,0,0,0,0,0,0,0,-1,1931,428,0,0
714,596,0,0,0,0,0,0,0,0,0,-1,1938,428,0,0
721,596,0,0,0,0,0,0,0,0,0,-1,1945,428,0,0
728,596,0,0,0,0,0,0,0,0,0,-1,1952,428,0,0
735,596,0,0,0,0,0,0,0,0,0,-1,1959,428,0,0
742,596,0,0,0,0,0,0,0,0,0,-1,1966,428,0,0
749,596,0,0,0,0,0,0,0,0,0,-1,1973,428,0,0
756,596,0,0,0,0,0,0,0,0,0,-1,1980,428,0,0
763,596,0,0,0,0,0,0,0,0,0,-1,1987,428,0,0
770,596,0,0,0,0,0,0,0,0,0,-1,1994,428,0,0
777,596,0,0,0,0,0,0,0,0,0,-1,2001,428,0,0
784,596,0,0,0,0,0,0,0,0,0,-1,2008,428,0,0
791,596,0,0,0,0,0,0,0,0,0,-1,2015,428,0,0
798,596,0,0,0,0,0,0,0,0,0,-1,2022,428,0,0
805,596,0,0,0,0,0,0,0,0,0,-1,2029,428,0,0
812,596,0,0,0,0,0,0,0,0,0,-1,2036,428,0,0
-700,589,0,0,0,0,0,0,0,0,0,-1,524,435,0,0
-693,589,0,0,0,0,0,0,0,0,0,-1,531,435,0,0
-686,589,0,0,0,0,0,0,0,0,0,-1,538,435,0,0
-679,589,0,0,0,0,0,0,0,0,0,-1,545,435,0,0
-672,589,0,0,0,0,0,0,0,0,0,-1,552,435,0,0
-665,589,0,0,0,0,0,0,0,0,0,-1,559,435,0,0
-658,589,0,0,0,0,0,0,0,0,0,-1,566,435,0,0
-651,589,0,0,0,0,0,0,0,0,0,-1,573,435,0,0
-644,589,0,0,0,0,0,0,0,0,0,-1,580,435,0,0
-637,589,0,0,0,0,0,0,0,0,0,-1,587,435,0,0
-630,589,0,0,0,0,0,0,0,0,0,-1,594,435,0,0
-623,589,0,0,0,0,0,0,0,0,0,-1,601,435,0,0
-616,589,0,0,0,0,0,0,0,0,0,-1,608,435,0,0
-609,589,0,0,0,0,0,0,0,0,0,-1,615,435,0,0
-602,589,0,0,0,0,0,0,0,0,0,-1,622,435,0,0
-595,589,0,0,0,0,0,0,0,0,0,-1,629,435,0,0
-588,589,0,0,0,0,0,0,0,0,0,-1,636,435,0,0
-581,589,0,0,0,0,0,0,0,0,0,-1,643,435,0,0
-574,589,0,0,0,0,0,0,0,0,0,-1,650,435,0,0
-567,589,0,0,0,0,0,0,0,0,0,-1,657,435,0,0
-560,589,0,0,0,0,0,0,0,0,0,-1,664,435,0,0
-553,589,0,0,0,0,0,0,0,0,0,-1,671,435,0,0
-546,589,0,0,0,0,0,0,0,0,0,-1,678,435,0,0
-539,589,0,0,0,0,0,0,0,0,0,-1,685,435,0,0
-532,589,0,0,0,0,0,0,0,0,0,-1,692,435,0,0
-525,589,0,0,0,0,0,0,0,0,0,-1,699,435,0,0
-518,589,0,0,0,0,0,0,0,0,0,-1,706,435,0,0
-511,589,0,0,0,0,0,0,0,0,0,-1,713,435,0,0
-504,589,0,0,0,0,0,0,0,0,0,-1,720,435,0,0
-497,589,0,0,0,0,0,0,0,0,0,-1,727,435,0,0
-490,589,0,0,0,0,0,0,0,0,0,-1,734,435,0,0
-483,589,0,0,0,0,0,0,0,0,0,-1,741,435,0,0
-476,589,0,0,0,0,0,0,0,0,0,-1,748,435,0,0
-469,589,0,0,0,0,0,0,0,0,0,-1,755,435,0,0
-462,589,0,0,0,0,0,0,0,0,0,-1,762,435,0,0
-455,589,0,0,0,0,0,0,0,0,0,-1,769,435,0,0
-448,589,0,0,0,0,0,0,0,0,0,-1,776,435,0,0
-441,589,0,0,0,0,0,0,0,0,0,-1,783,435,0,0
-434,589,0,0,0,0,0,0,0,0,0,-1,790,435,0,0
-427,589,0,0,0,0,0,0,0,0,0,-1,797,435,0,0
-420,589,0,0,0,0,0,0,0,0,0,-1,804,435,0,0
-413,589,0,0,0,0,0,0,0,0,0,-1,811,435,0,0
-406,589,0,0,0,0,0,0,0,0,0,-1,818,435,0,0
-399,589,0,0,0,0,0,0,0,0,0,-1,825,435,0,0
-392,589,0,0,0,0,0,0,0,0,0,-1,832,435,0,0
-385,589,0,0,0,0,0,0,0,0,0,-1,839,435,0,0
-378,589,0,0,0,0,0,0,0,0,0,-1,846,435,0,0
-371,589,0,0,0,0,0,0,0,0,0,-1,853,435,0,0
-364,589,0,0,0,0,0,0,0,0,0,-1,860,435,0,0
-357,589,0,0,0,0,0,0,0,0,0,-1,867,435,0,0
-350,589,-0.799927,-20.664,0,0,0,0,0,0,0,-1,874,435,-0.799952,20.664
-343,589,5.15289,-30.4847,0,0,0,0,0,0,0,-1,881,435,5.15291,30.4847
-336,589,5.07684,-29.2368,0,0,0,0,0,0,0,-1,888,435,5.07687,29.2368
-329,589,4.9624,-28.1366,0,0,0,0,0,0,0,-1,895,435,4.96242,28.1366
-322,589,5.10156,-27.065,0,0,0,0,0,0,0,-1,902,435,5.10155,27.065
-315,589,4.22705,-27.9655,0,0,0,0,0,0,0,-1,909,435,4.22705,27.9655
-308,589,4.46698,-29.037,0,0,0,0,0,0,0,-1,916,435,4.46696,29.037
-301,589,4.94867,-33.7458,0,0,0,0,0,0,0,-1,923,435,4.94869,33.7458
-294,589,4.1037,-31.2976,0,0,0,0,0,0,0,-1,930,435,4.10371,31.2976
-287,589,5.69995,-42.9534,0,0,0,0,0,0,0,-1,937,435,5.69992,42.9534
-280,589,5.71454,-43.9109,0,0,0,0,0,0,0,-1,944,435,5.71455,43.9109
-273,589,5.63263,-44.9751,-0.0017137,0.0247772,-0.0119095,0.029344,-0.00628053,-1.20463,0.0219577,0.0316765,951,435,5.63264,44.9751
-266,589,5.53912,-46.0131,-0.00162644,0.0219728,-0.0107981,0.0261678,-0.00582149,-1.20024,0.0196749,0.0282167,958,435,5.53914,46.0131
-259,589,5.41107,-46.9954,-0.00162902,0.0193551,-0.00972218,0.023167,-0.00544095,-1.19713,0.0175419,0.0220356,965,435,5.41107,46.9953
-252,589,5.35779,-47.9949,-0.00145428,0.0171517,-0.00877385,0.0206364,-0.00493903,-1.19273,0.0156657,0.0117436,972,435,5.35779,47.9949
-245,589,5.31738,-48.8896,-0.00125736,0.0150607,-0.00778313,0.0181776,-0.00437427,-1.18988,0.0138094,0.011031,979,435,5.31739,48.8895
-238,589,5.22479,-49.734,-0.001076,0.0130263,-0.00676043,0.0157435,-0.00379328,-1.18862,0.0119623,0.0142417,986,435,5.22479,49.734
-231,589,5.16467,-50.6022,-0.000867706,0.0109511,-0.00565117,0.0132183,-0.00313491,-1.18926,0.0100219,0.0151246,993,435,5.16465,50.6022
-224,589,5.11169,-51.4558,-0.000525832,0.00896936,-0.00473181,0.0109247,-0.00248119,-1.17893,0.00823576,0.015314,1000,435,5.1117,51.4558
-217,589,5.04626,-52.3024,-0.000195436,0.00688272,-0.00387968,0.00859502,-0.00190773,-1.15516,0.00646051,0.0161829,1007,435,5.04625,52.3024
-210,589,5.00055,-53.1325,0.000139782,0.00484734,-0.00305224,0.00634797,-0.00136084,-1.11385,0.00475101,0.0159109,1014,435,5.00056,53.1325
-203,589,4.96997,-53.9496,0.000515666,0.00291857,-0.0022606,0.00427716,-0.000842923,-1.02965,0.00316999,0.0120109,1021,435,4.96994,53.9497
-196,589,4.92505,-54.7569,0.000910554,0.0011289,-0.00155798,0.00258152,-0.000542071,-0.820377,0.00192728,0.0141156,1028,435,4.92502,54.7569
-189,589,4.8833,-55.6085,0.00131341,-0.00051414,-0.000959866,0.0017249,-0.00092563,-0.404997,0.0015533,0.018328,1035,435,4.88326,55.6085
-182,589,4.83325,-56.3265,0.00176458,-0.00194286,-0.000426749,0.00181307,-0.00199134,-0.113135,0.00219728,0.0137164,1042,435,4.83325,56.3265
-175,589,4.83557,-57.0963,0.00222163,-0.00314742,6.57908e-05,0.00222243,-0.00314823,0.0122513,0.00311607,0.0177543,1049,435,4.83554,57.0963
-168,589,4.83142,-57.9107,0.00262977,-0.00399152,0.000476112,0.00266383,-0.00402558,0.0714167,0.00388871,0.0149023,1056,435,4.83145,57.9107
-161,589,4.79016,-58.633,0.00309416,-0.00458665,0.000807914,0.00317822,-0.00467071,0.103674,0.00455881,0.0131089,1063,435,4.79013,58.633
-154,589,4.74048,-59.3579,0.00362512,-0.0049219,0.00111214,0.00376746,-0.00506424,0.127297,0.00511727,0.0135181,1070,435,4.74046,59.3579
-147,589,4.76367,-60.0458,0.0042518,-0.00502216,0.00133745,0.00444083,-0.00521118,0.140404,0.00557851,0.013845,1077,435,4.76367,60.0458
-140,589,4.8031,-60.7193,0.00477696,-0.00516832,0.00168358,0.00505423,-0.00544559,0.163227,0.00606348,0.015864,1084,435,4.80314,60.7193
-133,589,4.79163,-61.4576,0.00524517,-0.00513239,0.00201651,0.00562323,-0.00551045,0.185333,0.00642814,0.0158396,1091,435,4.7916,61.4576
-126,589,4.80261,-62.1366,0.00589665,-0.00484285,0.00225773,0.00635198,-0.00529818,0.199006,0.00673539,0.0133317,1098,435,4.80264,62.1366
-119,589,4.71069,-62.8233,0.00689008,-0.00461467,0.00234054,0.00734802,-0.00507261,0.193213,0.00721105,0.037757,1105,435,4.71068,62.8233
-112,589,4.78247,-63.4685,0,0,0,0,0,0,0,-1,1112,435,4.78248,63.4685
-105,589,4.8501,-64.1871,0,0,0,0,0,0,0,-1,1119,435,4.85014,64.1871
-98,589,4.90027,-65.0069,0,0,0,0,0,0,0,-1,1126,435,4.90024,65.0069
-91,589,3.39563,-37.8231,0,0,0,0,0,0,0,-1,1133,435,3.39565,37.8231
-84,589,2.76538,-22.6013,0,0,0,0,0,0,0,-1,1140,435,2.76539,22.6014
-77,589,2.18152,-14.8023,0,0,0,0,0,0,0,-1,1147,435,2.18155,14.8023
-70,589,1.48267,-9.90961,0,0,0,0,0,0,0,-1,1154,435,1.48264,9.9096
-63,589,0.880127,-5.50586,0,0,0,0,0,0,0,-1,1161,435,0.880186,5.50587
-56,589,-2.78052,-7.28082,0,0,0,0,0,0,0,-1,1168,435,-2.78053,7.28082
-49,589,-0.525757,-2.76703,0,0,0,0,0,0,0,-1,1175,435,-0.525771,2.76702
-42,589,-2.7738,-2.87921,0,0,0,0,0,0,0,-1,1182,435,-2.77383,2.87922
-35,589,-2.55225,-3.27551,0,0,0,0,0,0,0,-1,1189,435,-2.55223,3.27552
-28,589,-0.0632324,-3.42938,0,0,0,0,0,0,0,-1,1196,435,-0.063241,3.42938
-21,589,5.95618,-82.6556,0,0,0,0,0,0,0,-1,1203,435,5.95622,82.6556
-14,589,5.73242,-82.7194,0,0,0,0,0,0,0,-1,1210,435,5.73241,82.7194
-7,589,6.63806,-81.6895,0,0,0,0,0,0,0,-1,1217,435,6.63812,81.6895
0,589,5.31519,-81.7922,0,0,0,0,0,0,0,-1,1224,435,5.31517,81.7922
7,589,4.09094,-81.9316,-0.0247868,-0.129232,-0.0170973,-0.0220593,-0.13196,-0.158197,0.0816197,0.042305,1231,435,4.09089,81.9316
14,589,3.02673,-81.9575,0,0,0,0,0,0,0,-1,1238,435,3.02672,81.9575
21,589,6.58472,-77.7872,0,0,0,0,0,0,0,-1,1245,435,6.58472,77.7872
28,589,6.28662,-77.3357,0,0,0,0,0,0,0,-1,1252,435,6.28662,77.3357
35,589,5.91321,-76.8523,-0.0237582,-0.108017,-0.00696891,-0.0231857,-0.10859,-0.081966,0.0660355,0.0456991,1259,435,5.91325,76.8523
42,589,5.98828,-76.6048,-0.0226288,-0.0980129,-0.00482403,-0.0223214,-0.0983204,-0.0636466,0.0595184,0.0484599,1266,435,5.98823,76.6048
49,589,8.33569,-70.3945,0,0,0,0,0,0,0,-1,1273,435,8.33575,70.3945
56,589,7.92126,-70.3865,0,0,0,0,0,0,0,-1,1280,435,7.92126,70.3865
63,589,7.80225,-70.0413,-0.018806,-0.0655942,0.00146092,-0.0187604,-0.0656398,0.0311836,0.0390391,0.0434655,1287,435,7.8023,70.0413
70,589,7.44006,-69.9995,-0.0174957,-0.0551627,0.00189073,-0.017401,-0.0552574,0.0500284,0.0326234,0.0470346,1294,435,7.44012,69.9994
77,589,7.04419,-69.9559,-0.0156199,-0.0444975,0.00194353,-0.0154896,-0.0446277,0.0669004,0.0261644,0.0469271,1301,435,7.04413,69.9559
84,589,6.63257,-69.8492,-0.013417,-0.0357238,0.00143423,-0.0133252,-0.0358156,0.0639447,0.0209026,0.0422928,1308,435,6.63262,69.8492
91,589,6.18457,-69.7813,-0.011452,-0.0287246,0.000198559,-0.0114497,-0.0287269,0.0114936,0.0166989,0.04225,1315,435,6.18455,69.7813
98,589,5.89282,-69.6902,-0.00957963,-0.0238602,-0.00147999,-0.00942786,-0.024012,-0.102189,0.0139695,0.0466379,1322,435,5.89277,69.6901
105,589,5.4093,-69.5563,0,0,0,0,0,0,0,-1,1329,435,5.40932,69.5563
112,589,-6.03564,-80.8644,0,0,0,0,0,0,0,-1,1336,435,-6.03569,80.8644
119,589,-8.23901,-82.183,0,0,0,0,0,0,0,-1,1343,435,-8.23899,82.183
126,589,-10.4412,-83.1826,0,0,0,0,0,0,0,-1,1350,435,-10.4412,83.1826
133,589,-4.98535,-78.3274,0,0,0,0,0,0,0,-1,1357,435,-4.9853,78.3274
140,589,-6.44958,-80.1381,0,0,0,0,0,0,0,-1,1364,435,-6.44963,80.1381
147,589,-7.98096,-81.8212,0,0,0,0,0,0,0,-1,1371,435,-7.98102,81.8212
154,589,4.68567,-73.8365,0,0,0,0,0,0,0,-1,1378,435,4.68563,73.8365
161,589,-5.66907,-75.1069,0,0,0,0,0,0,0,-1,1385,435,-5.66909,75.1069
168,589,20.0441,-47.9614,0,0,0,0,0,0,0,-1,1392,435,20.044,47.9613
175,589,8.66992,-7.65527,0,0,0,0,0,0,0,-1,1399,435,8.66994,7.65528
182,589,3.8136,-2.45389,0,0,0,0,0,0,0,-1,1406,435,3.81363,2.4539
189,589,3.69983,-3.68149,0,0,0,0,0,0,0,-1,1413,435,3.69987,3.68147
196,589,3.31055,-5.31677,0,0,0,0,0,0,0,-1,1420,435,3.31059,5.31678
203,589,2.72559,-8.84338,0,0,0,0,0,0,0,-1,1427,435,2.72558,8.84338
210,589,3.62378,-14.4032,0,0,0,0,0,0,0,-1,1434,435,3.62378,14.4032
217,589,4.65601,-22.3745,0,0,0,0,0,0,0,-1,1441,435,4.65607,22.3745
224,589,6.79028,-33.9412,0,0,0,0,0,0,0,-1,1448,435,6.79028,33.9412
231,589,12.1921,-64.1152,0,0,0,0,0,0,0,-1,1455,435,12.1921,64.1152
238,589,12.1216,-63.3852,0,0,0,0,0,0,0,-1,1462,435,12.1216,63.3852
245,589,12.2808,-62.6765,0,0,0,0,0,0,0,-1,1469,435,12.2808,62.6765
252,589,12.2253,-62.0273,0.00678451,-0.00728246,-0.00162606,0.00697003,-0.00746797,-0.113598,0.00833744,0.0411559,1476,435,12.2253,62.0273
259,589,12.2374,-61.3812,0.00612032,-0.00767028,-0.0015582,0.00629419,-0.00784415,-0.111123,0.00817911,0.0146049,1483,435,12.2374,61.3812
266,589,12.2225,-60.6537,0.00563562,-0.00762042,-0.0014175,0.00578551,-0.0077703,-0.105346,0.00785436,0.0105326,1490,435,12.2225,60.6537
273,589,12.2214,-59.9853,0.00511878,-0.00713218,-0.00115565,0.00522684,-0.00724024,-0.0932356,0.0072291,0.0136597,1497,435,12.2214,59.9853
280,589,12.2233,-59.2576,0.0045637,-0.00642667,-0.000834898,0.00462676,-0.00648973,-0.0753898,0.00644808,0.0145594,1504,435,12.2232,59.2576
287,589,12.2244,-58.5108,0.0041128,-0.00544831,-0.000500593,0.00413894,-0.00547445,-0.0521671,0.00556812,0.0121817,1511,435,12.2244,58.5108
294,589,12.1985,-57.7278,0.00363444,-0.00414931,-0.000114744,0.00363614,-0.004151,-0.0147372,0.00449918,0.0110154,1518,435,12.1985,57.7278
301,589,12.1743,-56.9437,0.00313398,-0.0026572,0.000340963,0.00315398,-0.0026772,0.0586064,0.00337039,0.0114006,1525,435,12.1743,56.9437
308,589,12.1438,-56.152,0.00269511,-0.00100017,0.000856128,0.00288382,-0.00118888,0.216956,0.0024183,0.0110297,1532,435,12.1438,56.152
315,589,12.1027,-55.3619,0.00236349,0.000754425,0.0014602,0.00322613,-0.000108211,0.533602,0.00218772,0.0109545,1539,435,12.1027,55.3619
322,589,12.0735,-54.5767,0.00204463,0.0023964,0.00209116,0.00431906,0.000121974,0.827354,0.00283959,0.0114657,1546,435,12.0735,54.5767
329,589,12.0245,-53.7531,0.00185308,0.00392321,0.00281959,0.00589172,-0.000115422,0.961311,0.00396685,0.00986523,1553,435,12.0245,53.7531
336,589,11.9761,-52.945,0.00168868,0.00555789,0.00360184,0.00771181,-0.00046523,1.03185,0.00530309,0.00925894,1560,435,11.9761,52.945
343,589,11.9507,-52.1426,0.00143063,0.0073023,0.00443229,0.00968288,-0.000949949,1.07791,0.00679408,0.0110681,1567,435,11.9507,52.1426
350,589,11.8929,-51.2816,0.00121714,0.00932385,0.00521329,0.0118741,-0.00133315,1.11583,0.00839583,0.0166707,1574,435,11.8929,51.2817
357,589,11.8271,-50.3678,0.00105293,0.0111187,0.00609783,0.0139924,-0.00182073,1.1304,0.0099906,0.0134538,1581,435,11.8272,50.3678
364,589,11.7754,-49.4947,0.000758147,0.012911,0.00686875,0.0160053,-0.00233618,1.14753,0.0115281,0.0112953,1588,435,11.7754,49.4947
371,589,11.6984,-48.6335,0.000387177,0.0149691,0.00761671,0.018222,-0.00286569,1.16717,0.0132073,0.0120338,1595,435,11.6983,48.6336
378,589,11.6331,-47.729,-0.000153183,0.0171308,0.00820348,0.0204044,-0.00342678,1.19111,0.0148773,0.0136384,1602,435,11.633,47.729
385,589,11.5922,-46.8047,-0.000867133,0.0189593,0.00838558,0.0220303,-0.00393813,1.21974,0.0161603,0.0218804,1609,435,11.5922,46.8047
392,589,11.5005,-45.7424,-0.00144242,0.0204943,0.0085501,0.0234331,-0.00438122,1.23973,0.0172687,0.0296543,1616,435,11.5005,45.7424
399,589,11.4418,-44.6497,-0.00157055,0.0221766,0.00910647,0.0252667,-0.00466058,1.24367,0.0185937,0.0388488,1623,435,11.4418,44.6497
406,589,11.3519,-43.9147,0,0,0,0,0,0,0,-1,1630,435,11.3519,43.9147
413,589,5.61377,-19.0606,0,0,0,0,0,0,0,-1,1637,435,5.61372,19.0606
420,589,2.79724,-5.79956,0,0,0,0,0,0,0,-1,1644,435,2.7973,5.79955
427,589,10.5424,-41.1841,0,0,0,0,0,0,0,-1,1651,435,10.5424,41.1841
434,589,9.14709,-34.4435,0,0,0,0,0,0,0,-1,1658,435,9.1471,34.4435
441,589,7.85901,-29.8665,0,0,0,0,0,0,0,-1,1665,435,7.85898,29.8666
448,589,0.453735,-3.2868,0,0,0,0,0,0,0,-1,1672,435,0.453701,3.28681
455,589,0.664307,-3.46848,0,0,0,0,0,0,0,-1,1679,435,0.66425,3.46846
462,589,3.46716,-4.41891,0,0,0,0,0,0,0,-1,1686,435,3.4672,4.41891
469,589,0.0238037,-3.81497,0,0,0,0,0,0,0,-1,1693,435,0.0237965,3.81498
476,589,0,0,0,0,0,0,0,0,0,-1,1700,435,0,0
483,589,0,0,0,0,0,0,0,0,0,-1,1707,435,0,0
490,589,0,0,0,0,0,0,0,0,0,-1,1714,435,0,0
497,589,0,0,0,0,0,0,0,0,0,-1,1721,435,0,0
504,589,0,0,0,0,0,0,0,0,0,-1,1728,435,0,0
511,589,0,0,0,0,0,0,0,0,0,-1,1735,435,0,0
518,589,0,0,0,0,0,0,0,0,0,-1,1742,435,0,0
525,589,0,0,0,0,0,0,0,0,0,-1,1749,435,0,0
532,589,0,0,0,0,0,0,0,0,0,-1,1756,435,0,0
539,589,0,0,0,0,0,0,0,0,0,-1,1763,435,0,0
546,589,0,0,0,0,0,0,0,0,0,-1,1770,435,0,0
553,589,0,0,0,0,0,0,0,0,0,-1,1777,435,0,0
560,589,0,0,0,0,0,0,0,0,0,-1,1784,435,0,0
567,589,0,0,0,0,0,0,0,0,0,-1,1791,435,0,0
574,589,0,0,0,0,0,0,0,0,0,-1,1798,435,0,0
581,589,0,0,0,0,0,0,0,0,0,-1,1805,435,0,0
588,589,0,0,0,0,0,0,0,0,0,-1,1812,435,0,0
595,589,0,0,0,0,0,0,0,0,0,-1,1819,435,0,0
602,589,0,0,0,0,0,0,0,0,0,-1,1826,435,0,0
609,589,0,0,0,0,0,0,0,0,0,-1,1833,435,0,0
616,589,0,0,0,0,0,0,0,0,0,-1,1840,435,0,0
623,589,0,0,0,0,0,0,0,0,0,-1,1847,435,0,0
630,589,0,0,0,0,0,0,0,0,0,-1,1854,435,0,0
637,589,0,0,0,0,0,0,0,0,0,-1,1861,435,0,0
644,589,0,0,0,0,0,0,0,0,0,-1,1868,435,0,0
651,589,0,0,0,0,0,0,0,0,0,-1,1875,435,0,0
658,589,0,0,0,0,0,0,0,0,0,-1,1882,435,0,0
665,589,0,0,0,0,0,0,0,0,0,-1,1889,435,0,0
672,589,0,0,0,0,0,0,0,0,0,-1,1896,435,0,0
679,589,0,0,0,0,0,0,0,0,0,-1,1903,435,0,0
686,589,0,0,0,0,0,0,0,0,0,-1,1910,435,0,0
693,589,0,0,0,0,0,0,0,0,0,-1,1917,435,0,0
700,589,0,0,0,0,0,0,0,0,0,-1,1924,435,0,0
707,589,0,0,0,0,0,0,0,0,0,-1,1931,435,0,0
714,589,0,0,0,0,0,0,0,0,0,-1,1938,435,0,0
721,589,0,0,0,0,0,0,0,0,0,-1,1945,435,0,0
728,589,0,0,0,0,0,0,0,0,0,-1,1952,435,0,0
735,589,0,0,0,0,0,0,0,0,0,-1,1959,435,0,0
742,589,0,0,0,0,0,0,0,0,0,-1,1966,435,0,0
749,589,0,0,0,0,0,0,0,0,0,-1,1973,435,0,0
756,589,0,0,0,0,0,0,0,0,0,-1,1980,435,0,0
763,589,0,0,0,0,0,0,0,0,0,-1,1987,435,0,0
770,589,0,0,0,0,0,0,0,0,0,-1,1994,435,0,0
777,589,0,0,0,0,0,0,0,0,0,-1,2001,435,0,0
784,589,0,0,0,0,0,0,0,0,0,-1,2008,435,0,0
791,589,0,0,0,0,0,0,0,0,0,-1,2015,435,0,0
798,589,0,0,0,0,0,0,0,0,0,-1,2022,435,0,0
805,589,0,0,0,0,0,0,0,0,0,-1,2029,435,0,0
812,589,0,0,0,0,0,0,0,0,0,-1,2036,435,0,0
-700,582,0,0,0,0,0,0,0,0,0,-1,524,442,0,0
-693,582,0,0,0,0,0,0,0,0,0,-1,531,442,0,0
-686,582,0,0,0,0,0,0,0,0,0,-1,538,442,0,0
-679,582,0,0,0,0,0,0,0,0,0,-1,545,442,0,0
-672,582,0,0,0,0,0,0,0,0,0,-1,552,442,0,0
-665,582,0,0,0,0,0,0,0,0,0,-1,559,442,0,0
-658,582,0,0,0,0,0,0,0,0,0,-1,566,442,0,0
-651,582,0,0,0,0,0,0,0,0,0,-1,573,442,0,0
-644,582,0,0,0,0,0,0,0,0,0,-1,580,442,0,0
-637,582,0,0,0,0,0,0,0,0,0,-1,587,442,0,0
-630,582,0,0,0,0,0,0,0,0,0,-1,594,442,0,0
-623,582,0,0,0,0,0,0,0,0,0,-1,601,442,0,0
-616,582,0,0,0,0,0,0,0,0,0,-1,608,442,0,0
-609,582,0,0,0,0,0,0,0,0,0,-1,615,442,0,0
-602,582,0,0,0,0,0,0,0,0,0,-1,622,442,0,0
-595,582,0,0,0,0,0,0,0,0,0,-1,629,442,0,0
-588,582,0,0,0,0,0,0,0,0,0,-1,636,442,0,0
-581,582,0,0,0,0,0,0,0,0,0,-1,643,442,0,0
-574,582,0,0,0,0,0,0,0,0,0,-1,650,442,0,0
-567,582,0,0,0,0,0,0,0,0,0,-1,657,442,0,0
-560,582,0,0,0,0,0,0,0,0,0,-1,664,442,0,0
-553,582,0,0,0,0,0,0,0,0,0,-1,671,442,0,0
-546,582,0,0,0,0,0,0,0,0,0,-1,678,442,0,0
-539,582,0,0,0,0,0,0,0,0,0,-1,685,442,0,0
-532,582,0,0,0,0,0,0,0,0,0,-1,692,442,0,0
-525,582,0,0,0,0,0,0,0,0,0,-1,699,442,0,0
-518,582,0,0,0,0,0,0,0,0,0,-1,706,442,0,0
-511,582,0,0,0,0,0,0,0,0,0,-1,713,442,0,0
-504,582,0,0,0,0,0,0,0,0,0,-1,720,442,0,0
-497,582,0,0,0,0,0,0,0,0,0,-1,727,442,0,0
-490,582,0,0,0,0,0,0,0,0,0,-1,734,442,0,0
-483,582,0,0,0,0,0,0,0,0,0,-1,741,442,0,0
-476,582,0,0,0,0,0,0,0,0,0,-1,748,442,0,0
-469,582,0,0,0,0,0,0,0,0,0,-1,755,442,0,0
-462,582,0,0,0,0,0,0,0,0,0,-1,762,442,0,0
-455,582,0,0,0,0,0,0,0,0,0,-1,769,442,0,0
-448,582,0,0,0,0,0,0,0,0,0,-1,776,442,0,0
-441,582,0,0,0,0,0,0,0,0,0,-1,783,442,0,0
-434,582,0,0,0,0,0,0,0,0,0,-1,790,442,0,0
-427,582,0,0,0,0,0,0,0,0,0,-1,797,442,0,0
-420,582,0,0,0,0,0,0,0,0,0,-1,804,442,0,0
-413,582,0,0,0,0,0,0,0,0,0,-1,811,442,0,0
-406,582,0,0,0,0,0,0,0,0,0,-1,818,442,0,0
-399,582,0,0,0,0,0,0,0,0,0,-1,825,442,0,0
-392,582,0,0,0,0,0,0,0,0,0,-1,832,442,0,0
-385,582,0,0,0,0,0,0,0,0,0,-1,839,442,0,0
-378,582,0,0,0,0,0,0,0,0,0,-1,846,442,0,0
-371,582,0,0,0,0,0,0,0,0,0,-1,853,442,0,0
-364,582,0,0,0,0,0,0,0,0,0,-1,860,442,0,0
-357,582,-1.4903,-21.5295,0,0,0,0,0,0,0,-1,867,442,-1.49031,21.5295
-350,582,-0.880859,-19.7966,0,0,0,0,0,0,0,-1,874,442,-0.880885,19.7966
-343,582,0.939941,-19.1705,0,0,0,0,0,0,0,-1,881,442,0.939935,19.1705
-336,582,3.33929,-27.9479,0,0,0,0,0,0,0,-1,888,442,3.33928,27.9479
-329,582,3.63544,-26.4736,0,0,0,0,0,0,0,-1,895,442,3.63546,26.4736
-322,582,3.67145,-27.1796,0,0,0,0,0,0,0,-1,902,442,3.67143,27.1796
-315,582,3.90686,-27.6446,0,0,0,0,0,0,0,-1,909,442,3.90689,27.6446
-308,582,4.07587,-33.1895,0,0,0,0,0,0,0,-1,916,442,4.07588,33.1895
-301,582,5.22949,-40.9799,0,0,0,0,0,0,0,-1,923,442,5.22948,40.9799
-294,582,5.08795,-42.0024,0,0,0,0,0,0,0,-1,930,442,5.08793,42.0024
-287,582,4.79504,-43.0221,-0.00192697,0.0234774,-0.0109849,0.0275684,-0.00601806,-1.21428,0.020679,0.0433134,937,442,4.79507,43.0221
-280,582,4.78253,-44.1041,-0.00163086,0.0214093,-0.0101087,0.0252156,-0.00543715,-1.21068,0.0188855,0.0208242,944,442,4.78255,44.1041
-273,582,4.771,-45.177,-0.00133053,0.0191547,-0.00933364,0.0227695,-0.00494533,-1.2013,0.0170686,0.0142445,951,442,4.77102,45.177
-266,582,4.68854,-46.1202,-0.00115395,0.0167823,-0.00838681,0.0200928,-0.0044645,-1.19484,0.0151049,0.0119643,958,442,4.68851,46.1202
-259,582,4.5932,-47.049,-0.00102791,0.0143825,-0.00744041,0.0173885,-0.0040339,-1.18684,0.0131449,0.00928842,965,442,4.5932,47.0489
-252,582,4.51898,-47.9755,-0.000819675,0.0122754,-0.00652085,0.0149686,-0.0035129,-1.17912,0.011333,0.00840197,972,442,4.51896,47.9755
-245,582,4.47516,-48.8335,-0.000581411,0.0102471,-0.00557892,0.0126071,-0.00294138,-1.17061,0.00953757,0.0122754,979,442,4.47519,48.8335
-238,582,4.40179,-49.6604,-0.000334184,0.00819636,-0.00459714,0.0102021,-0.00233997,-1.15938,0.00770085,0.0163849,986,442,4.40179,49.6604
-231,582,4.34662,-50.5313,-8.41371e-05,0.00605089,-0.00353442,0.00766331,-0.00169656,-1.14279,0.00575831,0.0131422,993,442,4.34661,50.5313
-224,582,4.29333,-51.409,0.000240807,0.00400193,-0.00260435,0.00533371,-0.00109098,-1.0981,0.00396976,0.0111317,1000,442,4.29333,51.409
-217,582,4.22577,-52.2498,0.000579999,0.00186891,-0.0017488,0.00308822,-0.000639309,-0.961934,0.0023017,0.0129779,1007,442,4.22579,52.2498
-210,582,4.19623,-53.0604,0.000952541,-0.000204482,-0.000940128,0.00147789,-0.000729835,-0.509582,0.00129879,0.0134481,1014,442,4.19625,53.0604
-203,582,4.18469,-53.8872,0.00139761,-0.00208696,-0.000202752,0.00140937,-0.00209871,-0.0579251,0.00203838,0.0104704,1021,442,4.18466,53.8872
-196,582,4.13379,-54.7491,0.00188045,-0.00376085,0.000424175,0.00191217,-0.00379256,0.0746318,0.00335274,0.0159643,1028,442,4.1338,54.749
-189,582,4.10144,-55.5649,0.00235471,-0.00532445,0.0009737,0.00247625,-0.00544598,0.12418,0.0046798,0.0237217,1035,442,4.1015,55.5649
-182,582,4.09473,-56.3479,0.00289691,-0.00658751,0.00141357,0.0031031,-0.00679371,0.144849,0.00584486,0.0166873,1042,442,4.09468,56.3479
-175,582,4.05249,-57.0703,0.00346183,-0.0074794,0.00177665,0.0037431,-0.00776066,0.157008,0.00677536,0.0152186,1049,442,4.05254,57.0703
-168,582,4.03015,-57.8479,0.00400153,-0.00800778,0.00202254,0.00433301,-0.00833925,0.162446,0.00743721,0.01232,1056,442,4.03011,57.8479
-161,582,4.00427,-58.5795,0.00455221,-0.00833434,0.00222602,0.0049259,-0.00870803,0.166321,0.00797187,0.0137037,1063,442,4.00424,58.5795
-154,582,4.00354,-59.2953,0.00514971,-0.00829973,0.00238419,0.00555985,-0.00870987,0.170357,0.00830527,0.0135749,1070,442,4.00356,59.2953
-147,582,4.03516,-60.0151,0.00587523,-0.00798361,0.00240156,0.00627959,-0.00838798,0.16681,0.00849744,0.012757,1077,442,4.03521,60.0151
-140,582,4.04089,-60.6907,0.0064045,-0.0077426,0.00265887,0.00688772,-0.00822582,0.179775,0.0087372,0.0145358,1084,442,4.04091,60.6907
-133,582,4.10278,-61.3601,0.00682147,-0.00725211,0.00291148,0.00740001,-0.00783064,0.196152,0.00879459,0.0192152,1091,442,4.10281,61.3601
-126,582,4.09851,-62.0394,0.00749276,-0.00637772,0.0030496,0.00813364,-0.0070186,0.207138,0.00875604,0.0357369,1098,442,4.0985,62.0394
-119,582,4.18591,-63.0374,0,0,0,0,0,0,0,-1,1105,442,4.18597,63.0374
-112,582,3.47888,-53.7394,0,0,0,0,0,0,0,-1,1112,442,3.47883,53.7394
-105,582,2.87219,-43.073,0,0,0,0,0,0,0,-1,1119,442,2.87217,43.073
-98,582,2.61938,-32.8673,0,0,0,0,0,0,0,-1,1126,442,2.61944,32.8673
-91,582,2.16492,-24.1119,0,0,0,0,0,0,0,-1,1133,442,2.16496,24.1119
-84,582,2.10278,-16.7533,0,0,0,0,0,0,0,-1,1140,442,2.10279,16.7533
-77,582,2.30212,-11.4907,0,0,0,0,0,0,0,-1,1147,442,2.30207,11.4907
-70,582,1.49255,-6.36548,0,0,0,0,0,0,0,-1,1154,442,1.49251,6.36549
-63,582,-4.62915,-4.0347,0,0,0,0,0,0,0,-1,1161,442,-4.6292,4.03471
-56,582,-5.81714,-5.24149,0,0,0,0,0,0,0,-1,1168,442,-5.81718,5.24149
-49,582,-3.88672,-10.1064,0,0,0,0,0,0,0,-1,1175,442,-3.88678,10.1064
-42,582,-0.948975,1.13968,0,0,0,0,0,0,0,-1,1182,442,-0.949003,-1.13969
-35,582,-2.58435,-3.86911,0,0,0,0,0,0,0,-1,1189,442,-2.58437,3.86912
-28,582,-0.825317,-3.45941,0,0,0,0,0,0,0,-1,1196,442,-0.825377,3.45942
-21,582,7.69849,-80.8943,0,0,0,0,0,0,0,-1,1203,442,7.69846,80.8943
-14,582,7.38611,-80.7114,0,0,0,0,0,0,0,-1,1210,442,7.38615,80.7114
-7,582,7.1698,-80.6975,0,0,0,0,0,0,0,-1,1217,442,7.16986,80.6975
0,582,6.67053,-80.3596,0,0,0,0,0,0,0,-1,1224,442,6.67053,80.3595
7,582,5.81982,-79.9426,0,0,0,0,0,0,0,-1,1231,442,5.81978,79.9426
14,582,8.71277,-77.123,0,0,0,0,0,0,0,-1,1238,442,8.71271,77.123
21,582,7.70313,-76.6219,-0.0307829,-0.143239,-0.0144911,-0.0289456,-0.145076,-0.126116,0.0886581,0.046245,1245,442,7.70318,76.6219
28,582,6.92664,-75.9819,-0.0302168,-0.135209,-0.0107577,-0.0291259,-0.1363,-0.101062,0.0828817,0.0495287,1252,442,6.92668,75.9819
35,582,6.63147,-75.3829,-0.0296811,-0.126599,-0.00705513,-0.0291702,-0.12711,-0.072287,0.0768837,0.0478301,1259,442,6.63143,75.3829
42,582,6.69043,-74.892,-0.0281756,-0.114633,-0.00439037,-0.0279532,-0.114855,-0.0506072,0.0691618,0.0475526,1266,442,6.69037,74.892
49,582,8.52795,-69.8087,0,0,0,0,0,0,0,-1,1273,442,8.52791,69.8087
56,582,8.18079,-69.7514,0,0,0,0,0,0,0,-1,1280,442,8.18075,69.7514
63,582,7.84924,-69.7158,0,0,0,0,0,0,0,-1,1287,442,7.84929,69.7158
70,582,7.50024,-69.6861,0,0,0,0,0,0,0,-1,1294,442,7.50027,69.6861
77,582,7.01843,-69.5676,-0.0194269,-0.052159,0.00239176,-0.0192531,-0.0523328,0.0725574,0.0305639,0.0443643,1301,442,7.01846,69.5676
84,582,6.69507,-69.4052,-0.016846,-0.041844,0.00127641,-0.016781,-0.041909,0.0508842,0.0243556,0.0453461,1308,442,6.69513,69.4052
91,582,6.44128,-69.8203,-0.0143868,-0.0337686,-0.000821817,-0.0143521,-0.0338033,-0.0423005,0.0195902,0.0441155,1315,442,6.44134,69.8203
98,582,6.31604,-69.9318,-0.0120128,-0.0287185,-0.00348508,-0.0113149,-0.0294164,-0.197637,0.0171336,0.0452359,1322,442,6.31602,69.9318
105,582,6.14453,-70.039,0,0,0,0,0,0,0,-1,1329,442,6.14457,70.039
112,582,-6.25073,-80.575,0,0,0,0,0,0,0,-1,1336,442,-6.25077,80.5749
119,582,-8.51416,-81.557,0,0,0,0,0,0,0,-1,1343,442,-8.5141,81.557
126,582,-10.8135,-82.5406,0,0,0,0,0,0,0,-1,1350,442,-10.8134,82.5406
133,582,-13.1096,-83.6196,0,0,0,0,0,0,0,-1,1357,442,-13.1096,83.6196
140,582,-14.9344,-85.4432,0,0,0,0,0,0,0,-1,1364,442,-14.9345,85.4432
147,582,-16.9924,-86.9681,0,0,0,0,0,0,0,-1,1371,442,-16.9925,86.9681
154,582,3.1864,-73.1868,0,0,0,0,0,0,0,-1,1378,442,3.18645,73.1868
161,582,3.44678,-73.7075,0,0,0,0,0,0,0,-1,1385,442,3.44676,73.7075
168,582,0.081665,-40.4535,0,0,0,0,0,0,0,-1,1392,442,0.0816215,40.4535
175,582,6.50549,-2.00424,0,0,0,0,0,0,0,-1,1399,442,6.50546,2.00425
182,582,5.18958,-2.18652,0,0,0,0,0,0,0,-1,1406,442,5.1896,2.18652
189,582,6.19751,-0.880951,0,0,0,0,0,0,0,-1,1413,442,6.19754,0.88096
196,582,4.87354,-2.22327,0,0,0,0,0,0,0,-1,1420,442,4.87348,2.22325
203,582,3.11401,-4.48257,0,0,0,0,0,0,0,-1,1427,442,3.11404,4.48259
210,582,2.93115,-11.0731,0,0,0,0,0,0,0,-1,1434,442,2.93113,11.0731
217,582,4.94092,-16.5476,0,0,0,0,0,0,0,-1,1441,442,4.94087,16.5476
224,582,5.21008,-20.9908,0,0,0,0,0,0,0,-1,1448,442,5.21006,20.9908
231,582,5.70032,-25.622,0,0,0,0,0,0,0,-1,1455,442,5.70026,25.6221
238,582,6.44189,-30.7028,0,0,0,0,0,0,0,-1,1462,442,6.44195,30.7028
245,582,10.0378,-45.1569,0,0,0,0,0,0,0,-1,1469,442,10.0379,45.1568
252,582,12.9683,-62.1618,0,0,0,0,0,0,0,-1,1476,442,12.9682,62.1618
259,582,12.9261,-61.3872,0,0,0,0,0,0,0,-1,1483,442,12.9262,61.3872
266,582,12.9294,-60.6977,0.00794922,-0.0125069,-0.00232717,0.00821063,-0.0127683,-0.11186,0.0122071,0.0238002,1490,442,12.9295,60.6977
273,582,12.9838,-59.9321,0.00716835,-0.0121927,-0.00226377,0.00742951,-0.0124539,-0.11486,0.0116012,0.0135725,1497,442,12.9837,59.9321
280,582,12.9827,-59.2351,0.00631778,-0.0115918,-0.00216407,0.00657556,-0.0118495,-0.11856,0.010782,0.0128965,1504,442,12.9826,59.2351
287,582,12.9905,-58.4755,0.00558566,-0.0106216,-0.00203729,0.00583783,-0.0108737,-0.12315,0.00979336,0.0112515,1511,442,12.9905,58.4755
294,582,12.9832,-57.6828,0.00487519,-0.00917142,-0.00178715,0.005099,-0.00939523,-0.124586,0.0084899,0.00902085,1518,442,12.9832,57.6828
301,582,12.9674,-56.8911,0.00416631,-0.00740851,-0.00143056,0.00434049,-0.00758269,-0.121164,0.00696817,0.00988082,1525,442,12.9675,56.8911
308,582,12.9449,-56.1074,0.00349926,-0.00554073,-0.00101691,0.00361224,-0.00565371,-0.110648,0.00539281,0.0126125,1532,442,12.9449,56.1074
315,582,12.9109,-55.3268,0.00295603,-0.0035709,-0.000491966,0.0029929,-0.00360777,-0.0748116,0.00381641,0.0136962,1539,442,12.9109,55.3269
322,582,12.8745,-54.5223,0.00247142,-0.00170834,0.00010652,0.00247413,-0.00171105,0.0254627,0.00242967,0.0107457,1546,442,12.8745,54.5223
329,582,12.8322,-53.7107,0.00212026,4.19232e-05,0.000814505,0.00240143,-0.000239245,0.332393,0.00168637,0.0103273,1553,442,12.8321,53.7107
336,582,12.8018,-52.9115,0.0017997,0.00181879,0.00155745,0.00336673,0.000251763,0.788462,0.00216545,0.0105361,1560,442,12.8017,52.9115
343,582,12.7623,-52.0631,0.00145,0.00378073,0.00238712,0.00527175,-4.10241e-05,1.01247,0.00352826,0.013599,1567,442,12.7623,52.0631
350,582,12.707,-51.2112,0.00118496,0.00574517,0.00317229,0.00737177,-0.000441632,1.097,0.00506814,0.01747,1574,442,12.707,51.2112
357,582,12.6713,-50.3255,0.00100272,0.00740754,0.00402717,0.00935037,-0.000940121,1.1213,0.00656942,0.0139561,1581,442,12.6713,50.3255
364,582,12.6157,-49.4649,0.0007356,0.0089896,0.00479632,0.0111901,-0.00146486,1.14066,0.0079932,0.0103688,1588,442,12.6157,49.4649
371,582,12.5614,-48.6093,0.000402419,0.0106862,0.00551453,0.0130842,-0.00199552,1.16062,0.00945839,0.0157756,1595,442,12.5615,48.6093
378,582,12.5083,-47.7182,-5.03254e-05,0.0124467,0.00606764,0.014908,-0.00251158,1.18544,0.010873,0.0176873,1602,442,12.5083,47.7182
385,582,12.4364,-46.8052,-0.000613634,0.0139356,0.00628799,0.0162765,-0.00295457,1.21441,0.0119582,0.0125883,1609,442,12.4363,46.8052
392,582,12.3414,-45.9062,-0.00102212,0.0151151,0.0065127,0.0174156,-0.00332258,1.23125,0.0128618,0.0110947,1616,442,12.3414,45.9062
399,582,12.2535,-45.0297,-0.00104991,0.0163759,0.00706624,0.0188811,-0.00355514,1.23009,0.0139246,0.0190856,1623,442,12.2536,45.0297
406,582,12.2153,-44.0037,-0.00131227,0.0175798,0.0073232,0.020086,-0.00381851,1.24106,0.0148283,0.0338478,1630,442,12.2154,44.0037
413,582,12.1028,-43.1695,0,0,0,0,0,0,0,-1,1637,442,12.1028,43.1695
420,582,11.9375,-42.1074,0,0,0,0,0,0,0,-1,1644,442,11.9375,42.1074
427,582,11.6857,-41.1336,0,0,0,0,0,0,0,-1,1651,442,11.6857,41.1336
434,582,11.434,-40.1598,0,0,0,0,0,0,0,-1,1658,442,11.434,40.1598
441,582,10.8484,-36.2891,0,0,0,0,0,0,0,-1,1665,442,10.8484,36.2891
448,582,11.2651,-32.8669,0,0,0,0,0,0,0,-1,1672,442,11.2651,32.8668
455,582,6.4585,-19.4734,0,0,0,0,0,0,0,-1,1679,442,6.45854,19.4734
462,582,5.35022,-19.2616,0,0,0,0,0,0,0,-1,1686,442,5.35025,19.2616
469,582,6.28601,-21.5695,0,0,0,0,0,0,0,-1,1693,442,6.28597,21.5695
476,582,1.93579,-8.53891,0,0,0,0,0,0,0,-1,1700,442,1.93579,8.53892
483,582,0,0,0,0,0,0,0,0,0,-1,1707,442,0,0
490,582,0,0,0,0,0,0,0,0,0,-1,1714,442,0,0
497,582,0,0,0,0,0,0,0,0,0,-1,1721,442,0,0
504,582,0,0,0,0,0,0,0,0,0,-1,1728,442,0,0
511,582,0,0,0,0,0,0,0,0,0,-1,1735,442,0,0
518,582,0,0,0,0,0,0,0,0,0,-1,1742,442,0,0
525,582,0,0,0,0,0,0,0,0,0,-1,1749,442,0,0
532,582,0,0,0,0,0,0,0,0,0,-1,1756,442,0,0
539,582,0,0,0,0,0,0,0,0,0,-1,1763,442,0,0
546,582,0,0,0,0,0,0,0,0,0,-1,1770,442,0,0
553,582,0,0,0,0,0,0,0,0,0,-1,1777,442,0,0
560,582,0,0,0,0,0,0,0,0,0,-1,1784,442,0,0
567,582,0,0,0,0,0,0,0,0,0,-1,1791,442,0,0
574,582,0,0,0,0,0,0,0,0,0,-1,1798,442,0,0
581,582,0,0,0,0,0,0,0,0,0,-1,1805,442,0,0
588,582,0,0,0,0,0,0,0,0,0,-1,1812,442,0,0
595,582,0,0,0,0,0,0,0,0,0,-1,1819,442,0,0
602,582,0,0,0,0,0,0,0,0,0,-1,1826,442,0,0
609,582,0,0,0,0,0,0,0,0,0,-1,1833,442,0,0
616,582,0,0,0,0,0,0,0,0,0,-1,1840,442,0,0
623,582,0,0,0,0,0,0,0,0,0,-1,1847,442,0,0
630,582,0,0,0,0,0,0,0,0,0,-1,1854,442,0,0
637,582,0,0,0,0,0,0,0,0,0,-1,1861,442,0,0
644,582,0,0,0,0,0,0,0,0,0,-1,1868,442,0,0
651,582,0,0,0,0,0,0,0,0,0,-1,1875,442,0,0
658,582,0,0,0,0,0,0,0,0,0,-1,1882,442,0,0
665,582,0,0,0,0,0,0,0,0,0,-1,1889,442,0,0
672,582,0,0,0,0,0,0,0,0,0,-1,1896,442,0,0
679,582,0,0,0,0,0,0,0,0,0,-1,1903,442,0,0
686,582,0,0,0,0,0,0,0,0,0,-1,1910,442,0,0
693,582,0,0,0,0,0,0,0,0,0,-1,1917,442,0,0
700,582,0,0,0,0,0,0,0,0,0,-1,1924,442,0,0
707,582,0,0,0,0,0,0,0,0,0,-1,1931,442,0,0
714,582,0,0,0,0,0,0,0,0,0,-1,1938,442,0,0
721,582,0,0,0,0,0,0,0,0,0,-1,1945,442,0,0
728,582,0,0,0,0,0,0,0,0,0,-1,1952,442,0,0
735,582,0,0,0,0,0,0,0,0,0,-1,1959,442,0,0
742,582,0,0,0,0,0,0,0,0,0,-1,1966,442,0,0
749,582,0,0,0,0,0,0,0,0,0,-1,1973,442,0,0
756,582,0,0,0,0,0,0,0,0,0,-1,1980,442,0,0
763,582,0,0,0,0,0,0,0,0,0,-1,1987,442,0,0
770,582,0,0,0,0,0,0,0,0,0,-1,1994,442,0,0
777,582,0,0,0,0,0,0,0,0,0,-1,2001,442,0,0
784,582,0,0,0,0,0,0,0,0,0,-1,2008,442,0,0
791,582,0,0,0,0,0,0,0,0,0,-1,2015,442,0,0
798,582,0,0,0,0,0,0,0,0,0,-1,2022,442,0,0
805,582,0,0,0,0,0,0,0,0,0,-1,2029,442,0,0
812,582,0,0,0,0,0,0,0,0,0,-1,2036,442,0,0
-700,575,0,0,0,0,0,0,0,0,0,-1,524,449,0,0
-693,575,0,0,0,0,0,0,0,0,0,-1,531,449,0,0
-686,575,0,0,0,0,0,0,0,0,0,-1,538,449,0,0
-679,575,0,0,0,0,0,0,0,0,0,-1,545,449,0,0
-672,575,0,0,0,0,0,0,0,0,0,-1,552,449,0,0
-665,575,0,0,0,0,0,0,0,0,0,-1,559,449,0,0
-658,575,0,0,0,0,0,0,0,0,0,-1,566,449,0,0
-651,575,0,0,0,0,0,0,0,0,0,-1,573,449,0,0
-644,575,0,0,0,0,0,0,0,0,0,-1,580,449,0,0
-637,575,0,0,0,0,0,0,0,0,0,-1,587,449,0,0
-630,575,0,0,0,0,0,0,0,0,0,-1,594,449,0,0
-623,575,0,0,0,0,0,0,0,0,0,-1,601,449,0,0
-616,575,0,0,0,0,0,0,0,0,0,-1,608,449,0,0
-609,575,0,0,0,0,0,0,0,0,0,-1,615,449,0,0
-602,575,0,0,0,0,0,0,0,0,0,-1,622,449,0,0
-595,575,0,0,0,0,0,0,0,0,0,-1,629,449,0,0
-588,575,0,0,0,0,0,0,0,0,0,-1,636,449,0,0
-581,575,0,0,0,0,0,0,0,0,0,-1,643,449,0,0
-574,575,0,0,0,0,0,0,0,0,0,-1,650,449,0,0
-567,575,0,0,0,0,0,0,0,0,0,-1,657,449,0,0
-560,575,0,0,0,0,0,0,0,0,0,-1,664,449,0,0
-553,575,0,0,0,0,0,0,0,0,0,-1,671,449,0,0
-546,575,0,0,0,0,0,0,0,0,0,-1,678,449,0,0
-539,575,0,0,0,0,0,0,0,0,0,-1,685,449,0,0
-532,575,0,0,0,0,0,0,0,0,0,-1,692,449,0,0
-525,575,0,0,0,0,0,0,0,0,0,-1,699,449,0,0
-518,575,0,0,0,0,0,0,0,0,0,-1,706,449,0,0
-511,575,0,0,0,0,0,0,0,0,0,-1,713,449,0,0
-504,575,0,0,0,0,0,0,0,0,0,-1,720,449,0,0
-497,575,0,0,0,0,0,0,0,0,0,-1,727,449,0,0
-490,575,0,0,0,0,0,0,0,0,0,-1,734,449,0,0
-483,575,0,0,0,0,0,0,0,0,0,-1,741,449,0,0
-476,575,0,0,0,0,0,0,0,0,0,-1,748,449,0,0
-469,575,0,0,0,0,0,0,0,0,0,-1,755,449,0,0
-462,575,0,0,0,0,0,0,0,0,0,-1,762,449,0,0
-455,575,0,0,0,0,0,0,0,0,0,-1,769,449,0,0
-448,575,0,0,0,0,0,0,0,0,0,-1,776,449,0,0
-441,575,0,0,0,0,0,0,0,0,0,-1,783,449,0,0
-434,575,0,0,0,0,0,0,0,0,0,-1,790,449,0,0
-427,575,0,0,0,0,0,0,0,0,0,-1,797,449,0,0
-420,575,0,0,0,0,0,0,0,0,0,-1,804,449,0,0
-413,575,0,0,0,0,0,0,0,0,0,-1,811,449,0,0
-406,575,0,0,0,0,0,0,0,0,0,-1,818,449,0,0
-399,575,0,0,0,0,0,0,0,0,0,-1,825,449,0,0
-392,575,0,0,0,0,0,0,0,0,0,-1,832,449,0,0
-385,575,0,0,0,0,0,0,0,0,0,-1,839,449,0,0
-378,575,0,0,0,0,0,0,0,0,0,-1,846,449,0,0
-371,575,0.56897,-3.52304,0,0,0,0,0,0,0,-1,853,449,0.568955,3.52306
-364,575,1.49805,-4.67191,0,0,0,0,0,0,0,-1,860,449,1.49803,4.6719
-357,575,3.15521,-8.29892,0,0,0,0,0,0,0,-1,867,449,3.15521,8.29891
-350,575,-0.825928,-18.5347,0,0,0,0,0,0,0,-1,874,449,-0.825948,18.5347
-343,575,0.465393,-16.3569,0,0,0,0,0,0,0,-1,881,449,0.465397,16.3569
-336,575,3.1994,-17.5725,0,0,0,0,0,0,0,-1,888,449,3.19941,17.5725
-329,575,2.81946,-29.1576,0,0,0,0,0,0,0,-1,895,449,2.81945,29.1576
-322,575,4.28943,-27.9487,0,0,0,0,0,0,0,-1,902,449,4.28944,27.9487
-315,575,6.13507,-35.9424,0,0,0,0,0,0,0,-1,909,449,6.13508,35.9424
-308,575,4.1886,-40.2381,0,0,0,0,0,0,0,-1,916,449,4.18858,40.2381
-301,575,4.25531,-41.2137,-0.00246942,0.0232796,-0.010446,0.0269843,-0.00617415,-1.22998,0.020362,0.0423605,923,449,4.25534,41.2137
-294,575,4.14905,-42.1832,-0.0020827,0.0204581,-0.00943221,0.0238842,-0.00550886,-1.22238,0.0180417,0.0263892,930,449,4.14905,42.1832
-287,575,4.02899,-43.2139,-0.00181039,0.0179476,-0.00844149,0.021063,-0.00492574,-1.21725,0.0159397,0.0184207,937,449,4.02897,43.2139
-280,575,3.96588,-44.2249,-0.00141225,0.016215,-0.00772451,0.0191209,-0.00431819,-1.21098,0.0144041,0.0146489,944,449,3.96587,44.2248
-273,575,3.90656,-45.1778,-0.00105483,0.014252,-0.0070379,0.016996,-0.00379886,-1.19903,0.0127865,0.0136589,951,449,3.90658,45.1778
-266,575,3.84741,-46.0865,-0.000811796,0.0121305,-0.00619232,0.0146159,-0.00329724,-1.1891,0.0110089,0.0150548,958,449,3.84744,46.0866
-259,575,3.75281,-46.9886,-0.000597184,0.00983508,-0.00531441,0.0120655,-0.00282759,-1.17343,0.00913328,0.0136128,965,449,3.75283,46.9886
-252,575,3.64093,-47.8882,-0.000354263,0.0077356,-0.00438517,0.0096565,-0.00227517,-1.15793,0.00731497,0.0119532,972,449,3.64093,47.8882
-245,575,3.5683,-48.7686,-6.7477e-05,0.00570003,-0.00345166,0.00731405,-0.0016815,-1.1334,0.00552254,0.0154538,979,449,3.56831,48.7685
-238,575,3.54358,-49.618,0.000253864,0.00357638,-0.00247322,0.00489449,-0.00106424,-1.08114,0.00366955,0.0154718,986,449,3.54356,49.618
-231,575,3.50031,-50.481,0.000566616,0.00129809,-0.00142333,0.00240193,-0.000537221,-0.911156,0.00180717,0.0134009,993,449,3.5003,50.481
-224,575,3.43738,-51.3263,0.000903499,-0.00087822,-0.000454129,0.00101257,-0.000987292,-0.235715,0.00115465,0.0135677,1000,449,3.43736,51.3263
-217,575,3.39771,-52.1817,0.00127383,-0.0031285,0.000440634,0.0013175,-0.00317217,0.0987852,0.00266482,0.0113848,1007,449,3.3977,52.1817
-210,575,3.41382,-53.0249,0.00169968,-0.00531596,0.0012619,0.00191976,-0.00553604,0.172663,0.0044702,0.00966752,1014,449,3.41382,53.0249
-203,575,3.3949,-53.8445,0.00222536,-0.00723387,0.00196964,0.0026191,-0.0076276,0.197302,0.00614699,0.0124279,1021,449,3.39493,53.8445
-196,575,3.33521,-54.685,0.00280974,-0.00884943,0.00252596,0.00333346,-0.00937316,0.20444,0.0076074,0.016401,1028,449,3.33524,54.685
-189,575,3.30151,-55.4952,0.00337138,-0.0103573,0.00300948,0.00400212,-0.010988,0.206593,0.00896235,0.0180136,1035,449,3.3015,55.4952
-182,575,3.28174,-56.2559,0.00401358,-0.0115039,0.00334284,0.00470307,-0.0121934,0.203407,0.0100696,0.0160888,1042,449,3.28176,56.2559
-175,575,3.26868,-57.003,0.00469039,-0.0121339,0.0035588,0.0054122,-0.0128558,0.200111,0.0108349,0.013328,1049,449,3.26873,57.003
-168,575,3.21533,-57.7522,0.00537014,-0.0123873,0.00360818,0.00607529,-0.0130925,0.192999,0.011311,0.0116701,1056,449,3.21536,57.7522
-161,575,3.20532,-58.4965,0.00602445,-0.0124583,0.00363843,0.0067149,-0.0131488,0.187536,0.0116671,0.0159954,1063,449,3.20529,58.4965
-154,575,3.25183,-59.2279,0.00671289,-0.0120278,0.00359542,0.00737899,-0.012694,0.183188,0.0117238,0.0165521,1070,449,3.25183,59.2279
-147,575,3.29614,-59.8802,0.00756391,-0.0112447,0.00332844,0.00813555,-0.0118163,0.170085,0.0115844,0.0146999,1077,449,3.29617,59.8802
-140,575,3.25549,-60.503,0.0080623,-0.0105744,0.00352192,0.00870566,-0.0112178,0.180679,0.0115332,0.0239817,1084,449,3.25547,60.503
-133,575,3.33215,-61.1445,0,0,0,0,0,0,0,-1,1091,449,3.33221,61.1445
-126,575,3.49292,-61.9723,0,0,0,0,0,0,0,-1,1098,449,3.49295,61.9723
-119,575,3.00208,-52.3971,0,0,0,0,0,0,0,-1,1105,449,3.00204,52.3971
-112,575,2.70337,-43.3701,0,0,0,0,0,0,0,-1,1112,449,2.70333,43.3701
-105,575,2.18347,-36.5414,0,0,0,0,0,0,0,-1,1119,449,2.18351,36.5414
-98,575,1.521,-25.6961,0,0,0,0,0,0,0,-1,1126,449,1.52105,25.6961
-91,575,1.60803,-16.4247,0,0,0,0,0,0,0,-1,1133,449,1.60802,16.4247
-84,575,1.16553,-11.9056,0,0,0,0,0,0,0,-1,1140,449,1.16558,11.9056
-77,575,0.205078,-11.2584,0,0,0,0,0,0,0,-1,1147,449,0.205117,11.2584
-70,575,-4.2467,-1.78738,0,0,0,0,0,0,0,-1,1154,449,-4.24674,1.78739
-63,575,-4.52209,-3.48798,0,0,0,0,0,0,0,-1,1161,449,-4.5221,3.48796
-56,575,-5.5968,-5.4928,0,0,0,0,0,0,0,-1,1168,449,-5.59683,5.49281
-49,575,-5.96863,-7.17612,0,0,0,0,0,0,0,-1,1175,449,-5.96868,7.1761
-42,575,-0.830322,0.773499,0,0,0,0,0,0,0,-1,1182,449,-0.83038,-0.77351
-35,575,-0.62085,0.205139,0,0,0,0,0,0,0,-1,1189,449,-0.620855,-0.205126
-28,575,0.49292,-3.87988,0,0,0,0,0,0,0,-1,1196,449,0.492941,3.87989
-21,575,9.63037,-78.8977,0,0,0,0,0,0,0,-1,1203,449,9.63041,78.8977
-14,575,9.32629,-78.6948,-0.0385568,-0.208044,-0.0332951,-0.0322508,-0.21435,-0.187182,0.133455,0.0488313,1210,449,9.32631,78.6948
-7,575,8.74744,-78.4022,-0.0398908,-0.20012,-0.0315067,-0.0339182,-0.206093,-0.187346,0.127601,0.0471233,1217,449,8.74741,78.4022
0,575,8.23352,-78.0217,-0.040165,-0.192837,-0.0288708,-0.0348878,-0.198114,-0.18079,0.122119,0.0459075,1224,449,8.23355,78.0217
7,575,7.75647,-77.5959,-0.0399959,-0.184603,-0.0254758,-0.0356391,-0.18896,-0.169381,0.115934,0.0463029,1231,449,7.75645,77.5959
14,575,8.80151,-76.04,0,0,0,0,0,0,0,-1,1238,449,8.80156,76.04
21,575,8.13123,-75.2698,-0.0377446,-0.165907,-0.0164,-0.0356793,-0.167972,-0.125274,0.102186,0.0442721,1245,449,8.13118,75.2698
28,575,7.52258,-74.6234,-0.0366171,-0.155438,-0.0114015,-0.0355329,-0.156522,-0.0948029,0.0947513,0.0445943,1252,449,7.52263,74.6234
35,575,7.38013,-74.0229,0,0,0,0,0,0,0,-1,1259,449,7.38014,74.0229
42,575,10.1106,-72.0891,0,0,0,0,0,0,0,-1,1266,449,10.1106,72.0891
49,575,9.33801,-72.1833,0,0,0,0,0,0,0,-1,1273,449,9.33796,72.1833
56,575,8.15344,-69.4758,0,0,0,0,0,0,0,-1,1280,449,8.15346,69.4758
63,575,7.85278,-69.4001,0,0,0,0,0,0,0,-1,1287,449,7.85281,69.4001
70,575,7.35425,-69.7139,0,0,0,0,0,0,0,-1,1294,449,7.35429,69.7139
77,575,7.04675,-69.0978,0,0,0,0,0,0,0,-1,1301,449,7.04675,69.0978
84,575,6.73926,-68.4818,0,0,0,0,0,0,0,-1,1308,449,6.73921,68.4817
91,575,6.75061,-69.783,0,0,0,0,0,0,0,-1,1315,449,6.7506,69.783
98,575,6.66992,-69.8958,0,0,0,0,0,0,0,-1,1322,449,6.66991,69.8958
105,575,-4.34216,-79.0718,0,0,0,0,0,0,0,-1,1329,449,-4.34213,79.0718
112,575,-6.56555,-80.2267,0,0,0,0,0,0,0,-1,1336,449,-6.56551,80.2267
119,575,-8.80505,-81.2375,0,0,0,0,0,0,0,-1,1343,449,-8.80504,81.2375
126,575,-11.0724,-82.3594,0,0,0,0,0,0,0,-1,1350,449,-11.0724,82.3594
133,575,-13.2667,-83.7709,0,0,0,0,0,0,0,-1,1357,449,-13.2667,83.771
140,575,-15.291,-85.3813,0,0,0,0,0,0,0,-1,1364,449,-15.291,85.3813
147,575,-17.3267,-86.9359,0,0,0,0,0,0,0,-1,1371,449,-17.3266,86.9359
154,575,-19.3818,-88.4959,0,0,0,0,0,0,0,-1,1378,449,-19.3819,88.4959
161,575,1.87256,-73.1411,0,0,0,0,0,0,0,-1,1385,449,1.8726,73.1411
168,575,-4.97888,-77.9566,0,0,0,0,0,0,0,-1,1392,449,-4.97891,77.9566
175,575,4.32617,1.93634,0,0,0,0,0,0,0,-1,1399,449,4.32612,-1.93634
182,575,6.3147,-2.88345,0,0,0,0,0,0,0,-1,1406,449,6.31466,2.88346
189,575,6.10449,-1.30817,0,0,0,0,0,0,0,-1,1413,449,6.10455,1.30817
196,575,5.79895,0.818359,0,0,0,0,0,0,0,-1,1420,449,5.79895,-0.81837
203,575,3.29724,-1.46378,0,0,0,0,0,0,0,-1,1427,449,3.29722,1.46377
210,575,2.32739,-7.74503,0,0,0,0,0,0,0,-1,1434,449,2.32741,7.74502
217,575,3.33618,-11.5521,0,0,0,0,0,0,0,-1,1441,449,3.3362,11.5521
224,575,5.51709,-16.3903,0,0,0,0,0,0,0,-1,1448,449,5.51713,16.3903
231,575,5.48572,-20.4595,0,0,0,0,0,0,0,-1,1455,449,5.48571,20.4595
238,575,5.33484,-22.3575,0,0,0,0,0,0,0,-1,1462,449,5.33478,22.3575
245,575,5.59741,-23.513,0,0,0,0,0,0,0,-1,1469,449,5.5974,23.513
252,575,10.5602,-44.9309,0,0,0,0,0,0,0,-1,1476,449,10.5602,44.9309
259,575,12.6493,-57.551,0,0,0,0,0,0,0,-1,1483,449,12.6493,57.551
266,575,13.6937,-60.6511,0,0,0,0,0,0,0,-1,1490,449,13.6937,60.6511
273,575,13.7814,-59.8667,0.00958474,-0.0178503,-0.00313267,0.0099379,-0.0182034,-0.11226,0.0164794,0.0252614,1497,449,13.7814,59.8667
280,575,13.7604,-59.1067,0.00848979,-0.0172848,-0.003268,0.00889769,-0.0176927,-0.124174,0.0156294,0.0175837,1504,449,13.7604,59.1067
287,575,13.7428,-58.4072,0.00748398,-0.0162133,-0.00335774,0.00795056,-0.0166799,-0.138073,0.014515,0.0147712,1511,449,13.7428,58.4072
294,575,13.7524,-57.6389,0.00652204,-0.0144808,-0.00324798,0.00701286,-0.0149716,-0.149979,0.012967,0.0116411,1518,449,13.7524,57.6389
301,575,13.7588,-56.8686,0.00556861,-0.0123029,-0.00299421,0.00605692,-0.0127912,-0.161662,0.0111111,0.0106323,1525,449,13.7587,56.8686
308,575,13.7552,-56.0767,0.00460838,-0.0101127,-0.00269763,0.00508715,-0.0105915,-0.175649,0.00923613,0.0114175,1532,449,13.7553,56.0767
315,575,13.7156,-55.294,0.00379238,-0.00783067,-0.00226188,0.00421703,-0.00825532,-0.185584,0.00732565,0.0112237,1539,449,13.7156,55.294
322,575,13.6954,-54.4906,0.0030965,-0.00567027,-0.00169205,0.00341174,-0.00598551,-0.184196,0.00549292,0.0103681,1546,449,13.6954,54.4906
329,575,13.6642,-53.6812,0.00254408,-0.00363991,-0.00100823,0.00270431,-0.00380013,-0.157603,0.00377306,0.0111488,1553,449,13.6642,53.6812
336,575,13.627,-52.8628,0.00202297,-0.0016812,-0.000323689,0.00205104,-0.00170927,-0.0865112,0.002174,0.0121646,1560,449,13.6269,52.8628
343,575,13.6038,-51.983,0.00153963,0.000516108,0.000468224,0.0017215,0.000334231,0.370501,0.00105407,0.0136374,1567,449,13.6038,51.983
350,575,13.5491,-51.1331,0.00124445,0.00248795,0.00129281,0.00330075,0.000431652,1.00954,0.00207166,0.0133574,1574,449,13.5491,51.1331
357,575,13.5006,-50.2875,0.00106695,0.00407889,0.00214823,0.00519644,-5.05955e-05,1.09111,0.00348128,0.0115498,1581,449,13.5007,50.2875
364,575,13.4553,-49.4319,0.000846882,0.00552769,0.00294308,0.0069475,-0.00057293,1.12131,0.00483397,0.0105796,1588,449,13.4554,49.4319
371,575,13.4406,-48.5672,0.000560729,0.00695821,0.0036553,0.00861675,-0.00109781,1.14484,0.00614322,0.0207663,1595,449,13.4406,48.5672
378,575,13.3837,-47.6947,0.000189964,0.00843816,0.00420144,0.0102014,-0.00157324,1.17345,0.00738142,0.0205441,1602,449,13.3836,47.6947
385,575,13.295,-46.772,-0.000251462,0.00974161,0.0044874,0.0114609,-0.00197074,1.20491,0.00837515,0.0125008,1609,449,13.295,46.772
392,575,13.2097,-45.8939,-0.000555536,0.0107277,0.00477068,0.0124744,-0.00230223,1.21982,0.00918043,0.0104073,1616,449,13.2097,45.8939
399,575,13.1237,-45.044,-0.000557512,0.0117522,0.00531003,0.0137262,-0.00253154,1.21487,0.0101009,0.0109334,1623,449,13.1236,45.044
406,575,13.0789,-44.088,-0.000769299,0.0127222,0.00560454,0.0147466,-0.00279372,1.22417,0.0108825,0.0123299,1630,449,13.0788,44.0881
413,575,13.014,-43.1414,-0.00124085,0.0131627,0.0056525,0.015116,-0.00319421,1.23807,0.0112937,0.0146474,1637,449,13.0141,43.1414
420,575,12.9211,-42.1771,-0.00160389,0.0131897,0.00568836,0.0151241,-0.00353822,1.24301,0.0114459,0.014833,1644,449,12.9211,42.1771
427,575,12.7738,-41.1902,-0.00142478,0.0130432,0.0061864,0.0153277,-0.00370931,1.21705,0.0116534,0.0196892,1651,449,12.7738,41.1902
434,575,12.6255,-40.3787,-0.00133904,0.0130855,0.00656053,0.0156229,-0.00387651,1.20174,0.0119195,0.0361953,1658,449,12.6255,40.3787
441,575,12.5897,-39.7172,0,0,0,0,0,0,0,-1,1665,449,12.5898,39.7172
448,575,13.2499,-38.1095,0,0,0,0,0,0,0,-1,1672,449,13.2498,38.1095
455,575,11.7931,-31.6917,0,0,0,0,0,0,0,-1,1679,449,11.793,31.6917
462,575,7.12781,-21.7179,0,0,0,0,0,0,0,-1,1686,449,7.12778,21.7178
469,575,11.8929,-35.4142,0,0,0,0,0,0,0,-1,1693,449,11.8929,35.4142
476,575,10.3063,-31.0265,0,0,0,0,0,0,0,-1,1700,449,10.3063,31.0265
483,575,8.44177,-29.4231,0,0,0,0,0,0,0,-1,1707,449,8.44173,29.4231
490,575,7.42871,-25.5027,0,0,0,0,0,0,0,-1,1714,449,7.42869,25.5027
497,575,0,0,0,0,0,0,0,0,0,-1,1721,449,0,0
504,575,0,0,0,0,0,0,0,0,0,-1,1728,449,0,0
511,575,0,0,0,0,0,0,0,0,0,-1,1735,449,0,0
518,575,0,0,0,0,0,0,0,0,0,-1,1742,449,0,0
525,575,0,0,0,0,0,0,0,0,0,-1,1749,449,0,0
532,575,0,0,0,0,0,0,0,0,0,-1,1756,449,0,0
539,575,0,0,0,0,0,0,0,0,0,-1,1763,449,0,0
546,575,0,0,0,0,0,0,0,0,0,-1,1770,449,0,0
553,575,0,0,0,0,0,0,0,0,0,-1,1777,449,0,0
560,575,0,0,0,0,0,0,0,0,0,-1,1784,449,0,0
567,575,0,0,0,0,0,0,0,0,0,-1,1791,449,0,0
574,575,0,0,0,0,0,0,0,0,0,-1,1798,449,0,0
581,575,0,0,0,0,0,0,0,0,0,-1,1805,449,0,0
588,575,0,0,0,0,0,0,0,0,0,-1,1812,449,0,0
595,575,0,0,0,0,0,0,0,0,0,-1,1819,449,0,0
602,575,0,0,0,0,0,0,0,0,0,-1,1826,449,0,0
609,575,0,0,0,0,0,0,0,0,0,-1,1833,449,0,0
616,575,0,0,0,0,0,0,0,0,0,-1,1840,449,0,0
623,575,0,0,0,0,0,0,0,0,0,-1,1847,449,0,0
630,575,0,0,0,0,0,0,0,0,0,-1,1854,449,0,0
637,575,0,0,0,0,0,0,0,0,0,-1,1861,449,0,0
644,575,0,0,0,0,0,0,0,0,0,-1,1868,449,0,0
651,575,0,0,0,0,0,0,0,0,0,-1,1875,449,0,0
658,575,0,0,0,0,0,0,0,0,0,-1,1882,449,0,0
665,575,0,0,0,0,0,0,0,0,0,-1,1889,449,0,0
672,575,0,0,0,0,0,0,0,0,0,-1,1896,449,0,0
679,575,0,0,0,0,0,0,0,0,0,-1,1903,449,0,0
686,575,0,0,0,0,0,0,0,0,0,-1,1910,449,0,0
693,575,0,0,0,0,0,0,0,0,0,-1,1917,449,0,0
700,575,0,0,0,0,0,0,0,0,0,-1,1924,449,0,0
707,575,0,0,0,0,0,0,0,0,0,-1,1931,449,0,0
714,575,0,0,0,0,0,0,0,0,0,-1,1938,449,0,0
721,575,0,0,0,0,0,0,0,0,0,-1,1945,449,0,0
728,575,0,0,0,0,0,0,0,0,0,-1,1952,449,0,0
735,575,0,0,0,0,0,0,0,0,0,-1,1959,449,0,0
742,575,0,0,0,0,0,0,0,0,0,-1,1966,449,0,0
749,575,0,0,0,0,0,0,0,0,0,-1,1973,449,0,0
756,575,0,0,0,0,0,0,0,0,0,-1,1980,449,0,0
763,575,0,0,0,0,0,0,0,0,0,-1,1987,449,0,0
770,575,0,0,0,0,0,0,0,0,0,-1,1994,449,0,0
777,575,0,0,0,0,0,0,0,0,0,-1,2001,449,0,0
784,575,0,0,0,0,0,0,0,0,0,-1,2008,449,0,0
791,575,0,0,0,0,0,0,0,0,0,-1,2015,449,0,0
798,575,0,0,0,0,0,0,0,0,0,-1,2022,449,0,0
805,575,0,0,0,0,0,0,0,0,0,-1,2029,449,0,0
812,575,0,0,0,0,0,0,0,0,0,-1,2036,449,0,0
-700,568,0,0,0,0,0,0,0,0,0,-1,524,456,0,0
-693,568,0,0,0,0,0,0,0,0,0,-1,531,456,0,0
-686,568,0,0,0,0,0,0,0,0,0,-1,538,456,0,0
-679,568,0,0,0,0,0,0,0,0,0,-1,545,456,0,0
-672,568,0,0,0,0,0,0,0,0,0,-1,552,456,0,0
-665,568,0,0,0,0,0,0,0,0,0,-1,559,456,0,0
-658,568,0,0,0,0,0,0,0,0,0,-1,566,456,0,0
-651,568,0,0,0,0,0,0,0,0,0,-1,573,456,0,0
-644,568,0,0,0,0,0,0,0,0,0,-1,580,456,0,0
-637,568,0,0,0,0,0,0,0,0,0,-1,587,456,0,0
-630,568,0,0,0,0,0,0,0,0,0,-1,594,456,0,0
-623,568,0,0,0,0,0,0,0,0,0,-1,601,456,0,0
-616,568,0,0,0,0,0,0,0,0,0,-1,608,456,0,0
-609,568,0,0,0,0,0,0,0,0,0,-1,615,456,0,0
-602,568,0,0,0,0,0,0,0,0,0,-1,622,456,0,0
-595,568,0,0,0,0,0,0,0,0,0,-1,629,456,0,0
-588,568,0,0,0,0,0,0,0,0,0,-1,636,456,0,0
-581,568,0,0,0,0,0,0,0,0,0,-1,643,456,0,0
-574,568,0,0,0,0,0,0,0,0,0,-1,650,456,0,0
-567,568,0,0,0,0,0,0,0,0,0,-1,657,456,0,0
-560,568,0,0,0,0,0,0,0,0,0,-1,664,456,0,0
-553,568,0,0,0,0,0,0,0,0,0,-1,671,456,0,0
-546,568,0,0,0,0,0,0,0,0,0,-1,678,456,0,0
-539,568,0,0,0,0,0,0,0,0,0,-1,685,456,0,0
-532,568,0,0,0,0,0,0,0,0,0,-1,692,456,0,0
-525,568,0,0,0,0,0,0,0,0,0,-1,699,456,0,0
-518,568,0,0,0,0,0,0,0,0,0,-1,706,456,0,0
-511,568,0,0,0,0,0,0,0,0,0,-1,713,456,0,0
-504,568,0,0,0,0,0,0,0,0,0,-1,720,456,0,0
-497,568,0,0,0,0,0,0,0,0,0,-1,727,456,0,0
-490,568,0,0,0,0,0,0,0,0,0,-1,734,456,0,0
-483,568,0,0,0,0,0,0,0,0,0,-1,741,456,0,0
-476,568,0,0,0,0,0,0,0,0,0,-1,748,456,0,0
-469,568,0,0,0,0,0,0,0,0,0,-1,755,456,0,0
-462,568,0,0,0,0,0,0,0,0,0,-1,762,456,0,0
-455,568,0,0,0,0,0,0,0,0,0,-1,769,456,0,0
-448,568,0,0,0,0,0,0,0,0,0,-1,776,456,0,0
-441,568,0,0,0,0,0,0,0,0,0,-1,783,456,0,0
-434,568,0,0,0,0,0,0,0,0,0,-1,790,456,0,0
-427,568,0,0,0,0,0,0,0,0,0,-1,797,456,0,0
-420,568,0,0,0,0,0,0,0,0,0,-1,804,456,0,0
-413,568,0,0,0,0,0,0,0,0,0,-1,811,456,0,0
-406,568,0,0,0,0,0,0,0,0,0,-1,818,456,0,0
-399,568,0,0,0,0,0,0,0,0,0,-1,825,456,0,0
-392,568,0,0,0,0,0,0,0,0,0,-1,832,456,0,0
-385,568,0,0,0,0,0,0,0,0,0,-1,839,456,0,0
-378,568,0.321777,-7.29929,0,0,0,0,0,0,0,-1,846,456,0.321806,7.29927
-371,568,1.09595,-7.46707,0,0,0,0,0,0,0,-1,853,456,1.09597,7.46707
-364,568,2.70746,-23.4782,0,0,0,0,0,0,0,-1,860,456,2.70746,23.4782
-357,568,2.14166,-7.67645,0,0,0,0,0,0,0,-1,867,456,2.14167,7.67646
-350,568,2.7467,-11.2507,0,0,0,0,0,0,0,-1,874,456,2.7467,11.2507
-343,568,2.16516,-11.3762,0,0,0,0,0,0,0,-1,881,456,2.16514,11.3762
-336,568,1.14984,-29.3232,0,0,0,0,0,0,0,-1,888,456,1.14984,29.3231
-329,568,2.80359,-32.459,0,0,0,0,0,0,0,-1,895,456,2.80357,32.4591
-322,568,4.67688,-35.653,0,0,0,0,0,0,0,-1,902,456,4.67686,35.653
-315,568,3.91913,-38.4725,0,0,0,0,0,0,0,-1,909,456,3.91913,38.4725
-308,568,3.29596,-40.4507,0,0,0,0,0,0,0,-1,916,456,3.29594,40.4507
-301,568,3.31879,-41.4196,-0.00214755,0.0179895,-0.00811309,0.0208515,-0.00500951,-1.23167,0.0158372,0.0250154,923,456,3.31876,41.4196
-294,568,3.22589,-42.3286,-0.00176347,0.0156441,-0.00721513,0.0182458,-0.00436517,-1.22472,0.0138502,0.014689,930,456,3.2259,42.3286
-287,568,3.15143,-43.2904,-0.00145766,0.0135573,-0.00635053,0.015883,-0.00378336,-1.21974,0.0120494,0.012488,937,456,3.15146,43.2904
-280,568,3.09955,-44.2499,-0.0010383,0.0119865,-0.00571552,0.0141389,-0.00319069,-1.21064,0.01065,0.0124168,944,456,3.09955,44.2499
-273,568,3.0271,-45.1678,-0.000682608,0.0101441,-0.00505464,0.0121371,-0.00267558,-1.19523,0.00911512,0.0142796,951,456,3.02713,45.1678
-266,568,2.94666,-46.0573,-0.000415195,0.00812217,-0.00424448,0.00987323,-0.00216625,-1.17952,0.00741054,0.0135924,958,456,2.94665,46.0573
-259,568,2.87268,-46.9465,-0.00016863,0.00580795,-0.00336499,0.00732,-0.00168068,-1.14849,0.00552608,0.0133884,965,456,2.87269,46.9465
-252,568,2.7782,-47.8226,7.12399e-05,0.0035895,-0.00236517,0.00477801,-0.00111727,-1.10515,0.00361576,0.0134889,972,456,2.77819,47.8226
-245,568,2.72693,-48.6706,0.000374901,0.00142753,-0.00138442,0.0023823,-0.000579872,-0.967046,0.00181268,0.0158524,979,456,2.72691,48.6706
-238,568,2.70575,-49.5618,0.000738032,-0.000883646,-0.000353841,0.000811876,-0.00095749,-0.205739,0.0010227,0.0153833,986,456,2.70578,49.5618
-231,568,2.64661,-50.4239,0.00109436,-0.0034065,0.000734251,0.00121111,-0.00352325,0.157691,0.00283996,0.013301,993,456,2.6466,50.4239
-224,568,2.5719,-51.2516,0.00142929,-0.00582808,0.00179752,0.00185011,-0.00624889,0.229966,0.00490046,0.0141535,1000,456,2.57188,51.2516
-217,568,2.56012,-52.1039,0.00181854,-0.00829259,0.00277315,0.00252918,-0.00900323,0.250859,0.00699923,0.012053,1007,456,2.56014,52.1039
-210,568,2.56982,-52.9699,0.00228995,-0.0106876,0.00364347,0.00324289,-0.0116405,0.255817,0.00903738,0.0118786,1014,456,2.56984,52.9699
-203,568,2.55573,-53.7906,0.00289361,-0.0127407,0.00434889,0.00402189,-0.0138689,0.253844,0.0108383,0.0107669,1021,456,2.55571,53.7906
-196,568,2.52478,-54.5735,0.0035917,-0.0143892,0.00485123,0.00481705,-0.0156146,0.247411,0.0123331,0.0151997,1028,456,2.52477,54.5734
-189,568,2.50342,-55.3541,0.00426677,-0.0159054,0.00526685,0.00555913,-0.0171977,0.240621,0.0136995,0.0154004,1035,456,2.50345,55.3541
-182,568,2.4978,-56.159,0.00504894,-0.0169837,0.00547827,0.00633591,-0.0182707,0.230737,0.0147531,0.0161315,1042,456,2.49777,56.159
-175,568,2.49353,-56.9185,0.00590451,-0.0173592,0.00552054,0.00714807,-0.0186028,0.221563,0.0153497,0.016718,1049,456,2.49356,56.9185
-168,568,2.47717,-57.5537,0.00681898,-0.0173351,0.0053055,0.00793297,-0.0184491,0.206962,0.0156299,0.0228531,1056,456,2.47715,57.5537
-161,568,2.44043,-58.2797,0.00765823,-0.0171636,0.00507779,0.00865681,-0.0181622,0.19418,0.0158048,0.0329054,1063,456,2.44044,58.2797
-154,568,2.55835,-59.1903,0.00854211,-0.0163018,0.00471419,0.00940656,-0.0171662,0.181357,0.0155583,0.0373424,1070,456,2.55834,59.1903
-147,568,2.65527,-59.8718,0.00963349,-0.0150061,0.00398001,0.0102604,-0.015633,0.156237,0.0150565,0.0431054,1077,456,2.65523,59.8718
-140,568,2.65613,-60.4948,0,0,0,0,0,0,0,-1,1084,456,2.65618,60.4947
-133,568,2.48999,-60.2435,0,0,0,0,0,0,0,-1,1091,456,2.49001,60.2435
-126,568,2.47339,-55.9059,0,0,0,0,0,0,0,-1,1098,456,2.47343,55.9059
-119,568,1.89978,-50.8443,0,0,0,0,0,0,0,-1,1105,456,1.89978,50.8443
-112,568,1.98242,-35.0942,0,0,0,0,0,0,0,-1,1112,456,1.98247,35.0942
-105,568,2.02454,-25.038,0,0,0,0,0,0,0,-1,1119,456,2.02459,25.038
-98,568,1.58618,-14.7874,0,0,0,0,0,0,0,-1,1126,456,1.58617,14.7874
-91,568,1.11621,-11.1853,0,0,0,0,0,0,0,-1,1133,456,1.11626,11.1853
-84,568,0.461792,-9.7959,0,0,0,0,0,0,0,-1,1140,456,0.461793,9.7959
-77,568,-1.13806,-8.57822,0,0,0,0,0,0,0,-1,1147,456,-1.13807,8.57821
-70,568,-4.09766,-1.42911,0,0,0,0,0,0,0,-1,1154,456,-4.09767,1.4291
-63,568,-5.92273,-3.70752,0,0,0,0,0,0,0,-1,1161,456,-5.92272,3.70751
-56,568,-5.24158,-6.01385,0,0,0,0,0,0,0,-1,1168,456,-5.24161,6.01386
-49,568,-5.24365,-8.33557,0,0,0,0,0,0,0,-1,1175,456,-5.24371,8.33557
-42,568,-0.664795,0.521973,0,0,0,0,0,0,0,-1,1182,456,-0.664829,-0.521984
-35,568,-0.153076,-1.67731,0,0,0,0,0,0,0,-1,1189,456,-0.153068,1.67731
-28,568,1.25439,-4.48798,0,0,0,0,0,0,0,-1,1196,456,1.2544,4.48797
-21,568,9.85217,-75.9526,0,0,0,0,0,0,0,-1,1203,456,9.85213,75.9526
-14,568,9.66882,-75.739,-0.0451017,-0.250126,-0.041479,-0.0370279,-0.2582,-0.192243,0.161215,0.0443635,1210,456,9.66885,75.7389
-7,568,9.50916,-75.7017,-0.0475062,-0.236613,-0.0387225,-0.0398844,-0.244235,-0.194347,0.151291,0.0449978,1217,456,9.50917,75.7017
0,568,9.68201,-75.6111,-0.0479394,-0.225332,-0.0349324,-0.0413084,-0.231964,-0.187593,0.142877,0.0473454,1224,456,9.68205,75.6111
7,568,9.38733,-75.209,-0.0478066,-0.21324,-0.0302206,-0.0424589,-0.218588,-0.175142,0.133836,0.0447206,1231,456,9.3873,75.2091
14,568,9.00696,-74.4413,-0.0464652,-0.20048,-0.0243213,-0.0427158,-0.20423,-0.152958,0.124384,0.0450316,1238,456,9.007,74.4413
21,568,8.53674,-73.7862,-0.0446062,-0.187534,-0.0179451,-0.0423876,-0.189753,-0.12301,0.115006,0.0406581,1245,456,8.53678,73.7862
28,568,8.18994,-73.2932,-0.0427411,-0.17423,-0.0113751,-0.0417643,-0.175207,-0.0856615,0.105671,0.0423643,1252,456,8.18993,73.2932
35,568,7.9696,-72.8164,-0.0410986,-0.160713,-0.00502599,-0.0408878,-0.160923,-0.0419199,0.0965823,0.043185,1259,456,7.96965,72.8164
42,568,9.00964,-71.4681,0,0,0,0,0,0,0,-1,1266,456,9.0096,71.4682
49,568,8.47424,-71.0629,0,0,0,0,0,0,0,-1,1273,456,8.47422,71.063
56,568,8.04004,-70.0046,0,0,0,0,0,0,0,-1,1280,456,8.04006,70.0046
63,568,7.62427,-69.6377,0,0,0,0,0,0,0,-1,1287,456,7.62425,69.6377
70,568,7.37537,-69.1895,0,0,0,0,0,0,0,-1,1294,456,7.37538,69.1895
77,568,7.0874,-68.626,0,0,0,0,0,0,0,-1,1301,456,7.08736,68.626
84,568,6.79932,-68.0624,0,0,0,0,0,0,0,-1,1308,456,6.79935,68.0625
91,568,7.09583,-69.7274,0,0,0,0,0,0,0,-1,1315,456,7.09579,69.7274
98,568,7.05151,-69.8334,0,0,0,0,0,0,0,-1,1322,456,7.05152,69.8334
105,568,-4.75415,-78.8304,0,0,0,0,0,0,0,-1,1329,456,-4.75412,78.8304
112,568,-6.94165,-79.9745,0,0,0,0,0,0,0,-1,1336,456,-6.94168,79.9745
119,568,-9.12671,-81.1449,0,0,0,0,0,0,0,-1,1343,456,-9.12665,81.1449
126,568,-11.6761,-81.9826,0,0,0,0,0,0,0,-1,1350,456,-11.6761,81.9826
133,568,-13.6705,-83.6563,0,0,0,0,0,0,0,-1,1357,456,-13.6706,83.6563
140,568,-15.6096,-85.4297,0,0,0,0,0,0,0,-1,1364,456,-15.6097,85.4297
147,568,-17.6147,-87.0657,0,0,0,0,0,0,0,-1,1371,456,-17.6148,87.0657
154,568,-19.5862,-88.8057,0,0,0,0,0,0,0,-1,1378,456,-19.5862,88.8057
161,568,-21.5596,-90.6748,0,0,0,0,0,0,0,-1,1385,456,-21.5595,90.6748
168,568,-11.53,-55.4321,0,0,0,0,0,0,0,-1,1392,456,-11.53,55.4321
175,568,10.5151,0.747498,0,0,0,0,0,0,0,-1,1399,456,10.5152,-0.747501
182,568,6.35095,-3.63361,0,0,0,0,0,0,0,-1,1406,456,6.35093,3.63359
189,568,6.17493,-1.70911,0,0,0,0,0,0,0,-1,1413,456,6.17497,1.70911
196,568,6.04724,0.200836,0,0,0,0,0,0,0,-1,1420,456,6.04724,-0.200835
203,568,5.9281,2.08649,0,0,0,0,0,0,0,-1,1427,456,5.92812,-2.08648
210,568,1.46216,-2.50446,0,0,0,0,0,0,0,-1,1434,456,1.46219,2.50446
217,568,2.62366,-7.86703,0,0,0,0,0,0,0,-1,1441,456,2.62365,7.86704
224,568,3.43494,-12.1555,0,0,0,0,0,0,0,-1,1448,456,3.43492,12.1555
231,568,4.38245,-9.3205,0,0,0,0,0,0,0,-1,1455,456,4.38244,9.32048
238,568,5.88879,-20.7448,0,0,0,0,0,0,0,-1,1462,456,5.88876,20.7449
245,568,3.34387,-10.6774,0,0,0,0,0,0,0,-1,1469,456,3.34389,10.6774
252,568,3.56946,-9.28928,0,0,0,0,0,0,0,-1,1476,456,3.56948,9.28928
259,568,3.38843,-8.73068,0,0,0,0,0,0,0,-1,1483,456,3.38842,8.73068
266,568,14.0127,-59.903,0,0,0,0,0,0,0,-1,1490,456,14.0127,59.9029
273,568,14.5264,-59.8458,0,0,0,0,0,0,0,-1,1497,456,14.5264,59.8457
280,568,14.391,-58.9648,0.0108744,-0.0246275,-0.0045366,0.0114449,-0.025198,-0.125107,0.0216468,0.0397733,1504,456,14.391,58.9648
287,568,14.5344,-58.1194,0.00954757,-0.0230558,-0.00480458,0.0102409,-0.0237491,-0.143307,0.0201341,0.0296203,1511,456,14.5345,58.1194
294,568,14.5979,-57.4559,0.00830496,-0.0206585,-0.00478444,0.00907483,-0.0214284,-0.159544,0.0180861,0.0250673,1518,456,14.5979,57.4558
301,568,14.5549,-56.7658,0.00709466,-0.0176888,-0.00457213,0.00791124,-0.0185054,-0.176735,0.0156551,0.0210533,1525,456,14.555,56.7658
308,568,14.5344,-56.0164,0.00580148,-0.0148929,-0.00435543,0.00668078,-0.0157722,-0.199209,0.0133127,0.0141273,1532,456,14.5345,56.0164
315,568,14.5342,-55.2657,0.00469116,-0.0120826,-0.00397181,0.0055841,-0.0129755,-0.221143,0.010995,0.00823131,1539,456,14.5342,55.2657
322,568,14.5099,-54.4575,0.00378563,-0.00946936,-0.00338873,0.00460174,-0.0102855,-0.236329,0.00880146,0.0102202,1546,456,14.5099,54.4575
329,568,14.483,-53.6155,0.00303786,-0.00706126,-0.00270526,0.00371686,-0.00774027,-0.245915,0.00674936,0.0112269,1553,456,14.483,53.6156
336,568,14.4661,-52.7722,0.0023266,-0.00487068,-0.00206652,0.00287774,-0.00542182,-0.260635,0.00486622,0.0114843,1560,456,14.4661,52.7722
343,568,14.4603,-51.919,0.00172174,-0.00240585,-0.00130866,0.00210168,-0.00278579,-0.282559,0.00283098,0.0125677,1567,456,14.4604,51.919
350,568,14.4072,-51.1035,0.00140519,-0.000410373,-0.00043627,0.00150458,-0.000509766,-0.224,0.00120933,0.0117349,1574,456,14.4072,51.1034
357,568,14.3538,-50.2538,0.00122126,0.00112251,0.000427783,0.00160251,0.000741265,0.727945,0.000926074,0.0103187,1581,456,14.3538,50.2538
364,568,14.3477,-49.3934,0.00101074,0.00246532,0.00124765,0.00318218,0.000293879,1.04928,0.0020306,0.0122542,1588,456,14.3477,49.3934
371,568,14.3018,-48.496,0.000773983,0.00371916,0.00197842,0.00471288,-0.000219733,1.10533,0.00321767,0.0220869,1595,456,14.3017,48.496
378,568,14.2272,-47.6101,0.000481987,0.0050122,0.00254514,0.00615421,-0.000660027,1.14902,0.00433958,0.0203659,1602,456,14.2272,47.6101
385,568,14.1581,-46.745,0.000152585,0.0062423,0.00293125,0.00742396,-0.00102907,1.1876,0.00532557,0.0107031,1609,456,14.1581,46.745
392,568,14.0667,-45.8823,-6.70507e-05,0.00714903,0.00329269,0.00842564,-0.00134366,1.20093,0.00611439,0.0121033,1616,456,14.0667,45.8823
399,568,13.9756,-45.0552,-5.83943e-05,0.00805902,0.00383468,0.00958403,-0.0015834,1.19228,0.0069773,0.019177,1623,456,13.9756,45.0552
406,568,13.9702,-44.0919,-0.000224089,0.00891802,0.00418742,0.0105461,-0.00185215,1.19998,0.0077225,0.0163711,1630,456,13.9702,44.0919
413,568,13.9196,-43.0934,-0.000589981,0.00941058,0.00436664,0.0110488,-0.00222825,1.21187,0.00821007,0.0126975,1637,456,13.9196,43.0934
420,568,13.8245,-42.1542,-0.000872628,0.00954176,0.0045312,0.0112372,-0.00256809,1.21275,0.00847816,0.0118637,1644,456,13.8244,42.1542
427,568,13.739,-41.2074,-0.000761295,0.0095229,0.00503796,0.0115796,-0.00281796,1.18321,0.00881055,0.0155408,1651,456,13.7391,41.2074
434,568,13.7025,-40.2807,-0.000711273,0.00963791,0.00547539,0.011997,-0.00307036,1.16398,0.00919396,0.0253424,1658,456,13.7026,40.2807
441,568,13.6801,-39.4082,-0.000629712,0.00939693,0.00596258,0.0121737,-0.0034065,1.13496,0.00945805,0.0352461,1665,456,13.6801,39.4082
448,568,13.8667,-38.1564,-0.000369967,0.00890786,0.00653522,0.0122832,-0.00374533,1.09405,0.00968182,0.0494047,1672,456,13.8667,38.1564
455,568,13.6459,-36.8746,0,0,0,0,0,0,0,-1,1679,456,13.6459,36.8746
462,568,13.3224,-36.1084,0,0,0,0,0,0,0,-1,1686,456,13.3224,36.1084
469,568,12.975,-35.478,0,0,0,0,0,0,0,-1,1693,456,12.975,35.478
476,568,13.1266,-34.5083,0,0,0,0,0,0,0,-1,1700,456,13.1266,34.5083
483,568,10.9017,-29.747,0,0,0,0,0,0,0,-1,1707,456,10.9018,29.747
490,568,9.21021,-25.4427,0,0,0,0,0,0,0,-1,1714,456,9.21025,25.4427
497,568,9.19275,-22.8114,0,0,0,0,0,0,0,-1,1721,456,9.19273,22.8114
504,568,0,0,0,0,0,0,0,0,0,-1,1728,456,0,0
511,568,0,0,0,0,0,0,0,0,0,-1,1735,456,0,0
518,568,0,0,0,0,0,0,0,0,0,-1,1742,456,0,0
525,568,0,0,0,0,0,0,0,0,0,-1,1749,456,0,0
532,568,0,0,0,0,0,0,0,0,0,-1,1756,456,0,0
539,568,0,0,0,0,0,0,0,0,0,-1,1763,456,0,0
546,568,0,0,0,0,0,0,0,0,0,-1,1770,456,0,0
553,568,0,0,0,0,0,0,0,0,0,-1,1777,456,0,0
560,568,0,0,0,0,0,0,0,0,0,-1,1784,456,0,0
567,568,0,0,0,0,0,0,0,0,0,-1,1791,456,0,0
574,568,0,0,0,0,0,0,0,0,0,-1,1798,456,0,0
581,568,0,0,0,0,0,0,0,0,0,-1,1805,456,0,0
588,568,0,0,0,0,0,0,0,0,0,-1,1812,456,0,0
595,568,0,0,0,0,0,0,0,0,0,-1,1819,456,0,0
602,568,0,0,0,0,0,0,0,0,0,-1,1826,456,0,0
609,568,0,0,0,0,0,0,0,0,0,-1,1833,456,0,0
616,568,0,0,0,0,0,0,0,0,0,-1,1840,456,0,0
623,568,0,0,0,0,0,0,0,0,0,-1,1847,456,0,0
630,568,0,0,0,0,0,0,0,0,0,-1,1854,456,0,0
637,568,0,0,0,0,0,0,0,0,0,-1,1861,456,0,0
644,568,0,0,0,0,0,0,0,0,0,-1,1868,456,0,0
651,568,0,0,0,0,0,0,0,0,0,-1,1875,456,0,0
658,568,0,0,0,0,0,0,0,0,0,-1,1882,456,0,0
665,568,0,0,0,0,0,0,0,0,0,-1,1889,456,0,0
672,568,0,0,0,0,0,0,0,0,0,-1,1896,456,0,0
679,568,0,0,0,0,0,0,0,0,0,-1,1903,456,0,0
686,568,0,0,0,0,0,0,0,0,0,-1,1910,456,0,0
693,568,0,0,0,0,0,0,0,0,0,-1,1917,456,0,0
700,568,0,0,0,0,0,0,0,0,0,-1,1924,456,0,0
707,568,0,0,0,0,0,0,0,0,0,-1,1931,456,0,0
714,568,0,0,0,0,0,0,0,0,0,-1,1938,456,0,0
721,568,0,0,0,0,0,0,0,0,0,-1,1945,456,0,0
728,568,0,0,0,0,0,0,0,0,0,-1,1952,456,0,0
735,568,0,0,0,0,0,0,0,0,0,-1,1959,456,0,0
742,568,0,0,0,0,0,0,0,0,0,-1,1966,456,0,0
749,568,0,0,0,0,0,0,0,0,0,-1,1973,456,0,0
756,568,0,0,0,0,0,0,0,0,0,-1,1980,456,0,0
763,568,0,0,0,0,0,0,0,0,0,-1,1987,456,0,0
770,568,0,0,0,0,0,0,0,0,0,-1,1994,456,0,0
777,568,0,0,0,0,0,0,0,0,0,-1,2001,456,0,0
784,568,0,0,0,0,0,0,0,0,0,-1,2008,456,0,0
791,568,0,0,0,0,0,0,0,0,0,-1,2015,456,0,0
798,568,0,0,0,0,0,0,0,0,0,-1,2022,456,0,0
805,568,0,0,0,0,0,0,0,0,0,-1,2029,456,0,0
812,568,0,0,0,0,0,0,0,0,0,-1,2036,456,0,0
-700,561,0,0,0,0,0,0,0,0,0,-1,524,463,0,0
-693,561,0,0,0,0,0,0,0,0,0,-1,531,463,0,0
-686,561,0,0,0,0,0,0,0,0,0,-1,538,463,0,0
-679,561,0,0,0,0,0,0,0,0,0,-1,545,463,0,0
-672,561,0,0,0,0,0,0,0,0,0,-1,552,463,0,0
-665,561,0,0,0,0,0,0,0,0,0,-1,559,463,0,0
-658,561,0,0,0,0,0,0,0,0,0,-1,566,463,0,0
-651,561,0,0,0,0,0,0,0,0,0,-1,573,463,0,0
-644,561,0,0,0,0,0,0,0,0,0,-1,580,463,0,0
-637,561,0,0,0,0,0,0,0,0,0,-1,587,463,0,0
-630,561,0,0,0,0,0,0,0,0,0,-1,594,463,0,0
-623,561,0,0,0,0,0,0,0,0,0,-1,601,463,0,0
-616,561,0,0,0,0,0,0,0,0,0,-1,608,463,0,0
-609,561,0,0,0,0,0,0,0,0,0,-1,615,463,0,0
-602,561,0,0,0,0,0,0,0,0,0,-1,622,463,0,0
-595,561,0,0,0,0,0,0,0,0,0,-1,629,463,0,0
-588,561,0,0,0,0,0,0,0,0,0,-1,636,463,0,0
-581,561,0,0,0,0,0,0,0,0,0,-1,643,463,0,0
-574,561,0,0,0,0,0,0,0,0,0,-1,650,463,0,0
-567,561,0,0,0,0,0,0,0,0,0,-1,657,463,0,0
-560,561,0,0,0,0,0,0,0,0,0,-1,664,463,0,0
-553,561,0,0,0,0,0,0,0,0,0,-1,671,463,0,0
-546,561,0,0,0,0,0,0,0,0,0,-1,678,463,0,0
-539,561,0,0,0,0,0,0,0,0,0,-1,685,463,0,0
-532,561,0,0,0,0,0,0,0,0,0,-1,692,463,0,0
-525,561,0,0,0,0,0,0,0,0,0,-1,699,463,0,0
-518,561,0,0,0,0,0,0,0,0,0,-1,706,463,0,0
-511,561,0,0,0,0,0,0,0,0,0,-1,713,463,0,0
-504,561,0,0,0,0,0,0,0,0,0,-1,720,463,0,0
-497,561,0,0,0,0,0,0,0,0,0,-1,727,463,0,0
-490,561,0,0,0,0,0,0,0,0,0,-1,734,463,0,0
-483,561,0,0,0,0,0,0,0,0,0,-1,741,463,0,0
-476,561,0,0,0,0,0,0,0,0,0,-1,748,463,0,0
-469,561,0,0,0,0,0,0,0,0,0,-1,755,463,0,0
-462,561,0,0,0,0,0,0,0,0,0,-1,762,463,0,0
-455,561,0,0,0,0,0,0,0,0,0,-1,769,463,0,0
-448,561,0,0,0,0,0,0,0,0,0,-1,776,463,0,0
-441,561,0,0,0,0,0,0,0,0,0,-1,783,463,0,0
-434,561,0,0,0,0,0,0,0,0,0,-1,790,463,0,0
-427,561,0,0,0,0,0,0,0,0,0,-1,797,463,0,0
-420,561,0,0,0,0,0,0,0,0,0,-1,804,463,0,0
-413,561,0,0,0,0,0,0,0,0,0,-1,811,463,0,0
-406,561,0,0,0,0,0,0,0,0,0,-1,818,463,0,0
-399,561,0,0,0,0,0,0,0,0,0,-1,825,463,0,0
-392,561,4.92407,-2.54578,0,0,0,0,0,0,0,-1,832,463,4.92408,2.54576
-385,561,5.55634,-1.02338,0,0,0,0,0,0,0,-1,839,463,5.55634,1.02338
-378,561,0.160522,-4.51785,0,0,0,0,0,0,0,-1,846,463,0.160542,4.51785
-371,561,2.62524,-27.795,0,0,0,0,0,0,0,-1,853,463,2.62525,27.7949
-364,561,3.72833,-30.5013,0,0,0,0,0,0,0,-1,860,463,3.72835,30.5013
-357,561,2.16742,-23.5582,0,0,0,0,0,0,0,-1,867,463,2.1674,23.5582
-350,561,1.33124,-11.9406,0,0,0,0,0,0,0,-1,874,463,1.33127,11.9406
-343,561,1.13214,-14.1837,0,0,0,0,0,0,0,-1,881,463,1.13217,14.1837
-336,561,2.91016,-36.595,0,0,0,0,0,0,0,-1,888,463,2.91014,36.595
-329,561,2.60461,-37.6592,0,0,0,0,0,0,0,-1,895,463,2.60463,37.6592
-322,561,2.88916,-38.0665,0,0,0,0,0,0,0,-1,902,463,2.88914,38.0665
-315,561,2.66229,-39.0863,-0.00227144,0.017453,-0.00798109,0.0202778,-0.00509627,-1.23062,0.0154991,0.0432605,909,463,2.66229,39.0863
-308,561,2.52991,-40.2181,-0.00199438,0.0155253,-0.00702108,0.0179918,-0.00446087,-1.23297,0.0137253,0.0312043,916,463,2.52992,40.2181
-301,561,2.43689,-41.3946,-0.00162891,0.0136089,-0.00620602,0.0158166,-0.00383663,-1.22902,0.012029,0.0177167,923,463,2.4369,41.3945
-294,561,2.33557,-42.3428,-0.0013031,0.0116191,-0.00535571,0.0135502,-0.00323422,-1.22473,0.0102825,0.0123998,930,463,2.33557,42.3428
-287,561,2.26758,-43.2642,-0.00101599,0.00983007,-0.00454988,0.0114859,-0.00267185,-1.22176,0.00868598,0.010693,937,463,2.26756,43.2642
-280,561,2.19641,-44.188,-0.000638836,0.00832691,-0.00394122,0.00981307,-0.00212499,-1.2102,0.00735344,0.0130484,944,463,2.19638,44.188
-273,561,2.09296,-45.0845,-0.000328303,0.00651435,-0.0032599,0.00781874,-0.0016327,-1.19018,0.00583339,0.0158064,951,463,2.09293,45.0845
-266,561,2.04248,-45.9597,-5.86318e-05,0.00451392,-0.00244086,0.00557202,-0.00111673,-1.16175,0.00413747,0.0102513,958,463,2.04247,45.9597
-259,561,1.99432,-46.8908,0.000202751,0.00210809,-0.00151571,0.00294566,-0.000634821,-1.06596,0.00220604,0.0104542,965,463,1.99435,46.8908
-252,561,1.94647,-47.7734,0.000426392,-0.000311561,-0.00040197,0.000603057,-0.000488225,-0.414084,0.000631213,0.0149042,972,463,1.94647,47.7734
-245,561,1.89276,-48.6231,0.00072919,-0.00269968,0.00066982,0.000855393,-0.00282588,0.186229,0.00222457,0.0174155,979,463,1.89276,48.6232
-238,561,1.86249,-49.5061,0.00111978,-0.00529883,0.00180078,0.00159048,-0.00576953,0.255668,0.00447181,0.0145796,986,463,1.86251,49.5061
-231,561,1.79553,-50.3813,0.00151619,-0.00815963,0.00296913,0.00235464,-0.00899809,0.275224,0.00691848,0.0123173,993,463,1.79552,50.3813
-224,561,1.74463,-51.2266,0.00183958,-0.0109104,0.00416483,0.00307947,-0.0121503,0.289348,0.00929825,0.0117734,1000,463,1.74463,51.2266
-217,561,1.74054,-52.0662,0.00222868,-0.0136887,0.00527333,0.00381718,-0.0152772,0.292587,0.0116672,0.0122313,1007,463,1.74051,52.0662
-210,561,1.7345,-52.9101,0.00271415,-0.0163944,0.00625086,0.00457729,-0.0182575,0.289678,0.01395,0.0132032,1014,463,1.73453,52.9101
-203,561,1.71936,-53.718,0.00335842,-0.0187045,0.0070148,0.00539985,-0.0207459,0.283196,0.0159384,0.0148544,1021,463,1.71936,53.718
-196,561,1.62427,-54.4498,0.00413913,-0.0205063,0.00751334,0.006249,-0.0226162,0.273766,0.0175356,0.0178058,1028,463,1.62432,54.4499
-189,561,1.69617,-55.21,0.00489903,-0.0221594,0.00790127,0.00703729,-0.0242977,0.264291,0.0189841,0.0238562,1035,463,1.69611,55.21
-182,561,1.79309,-55.9623,0.00579763,-0.0232771,0.00801896,0.00786263,-0.0253421,0.25204,0.0200366,0.027148,1042,463,1.79306,55.9623
-175,561,1.66797,-56.6926,0.00683608,-0.0234409,0.00790551,0.00877597,-0.0253808,0.240629,0.0204825,0.0445502,1049,463,1.66795,56.6926
-168,561,1.52588,-57.4033,0,0,0,0,0,0,0,-1,1056,463,1.5259,57.4033
-161,561,1.72034,-58.0637,0,0,0,0,0,0,0,-1,1063,463,1.72034,58.0637
-154,561,1.94568,-59.2461,0,0,0,0,0,0,0,-1,1070,463,1.94564,59.2461
-147,561,2.01428,-59.9201,0,0,0,0,0,0,0,-1,1077,463,2.01428,59.9201
-140,561,2.1239,-59.8181,0,0,0,0,0,0,0,-1,1084,463,2.12391,59.818
-133,561,1.37939,-55.0099,0,0,0,0,0,0,0,-1,1091,463,1.37945,55.01
-126,561,1.77014,-49.4318,0,0,0,0,0,0,0,-1,1098,463,1.7702,49.4318
-119,561,-0.336304,-35.422,0,0,0,0,0,0,0,-1,1105,463,-0.336245,35.422
-112,561,1.24365,-29.1982,0,0,0,0,0,0,0,-1,1112,463,1.2437,29.1981
-105,561,0.530518,-13.5379,0,0,0,0,0,0,0,-1,1119,463,0.530477,13.5379
-98,561,1.5387,-7.54352,0,0,0,0,0,0,0,-1,1126,463,1.53871,7.54351
-91,561,1.29553,-6.57968,0,0,0,0,0,0,0,-1,1133,463,1.29549,6.5797
-84,561,1.23364,-5.84555,0,0,0,0,0,0,0,-1,1140,463,1.23363,5.84556
-77,561,-2.36023,1.00204,0,0,0,0,0,0,0,-1,1147,463,-2.3602,-1.00205
-70,561,-3.90015,-1.41541,0,0,0,0,0,0,0,-1,1154,463,-3.90009,1.4154
-63,561,-6.95691,-4.02756,0,0,0,0,0,0,0,-1,1161,463,-6.95696,4.02756
-56,561,-5.37988,-6.66855,0,0,0,0,0,0,0,-1,1168,463,-5.37988,6.66854
-49,561,-5.7439,-9.11029,0,0,0,0,0,0,0,-1,1175,463,-5.74387,9.1103
-42,561,-1.72644,-5.63065,0,0,0,0,0,0,0,-1,1182,463,-1.72648,5.63064
-35,561,-1.65674,-4.87994,0,0,0,0,0,0,0,-1,1189,463,-1.6567,4.87993
-28,561,-1.91418,-3.86896,0,0,0,0,0,0,0,-1,1196,463,-1.91414,3.86895
-21,561,10.5345,-74.36,0,0,0,0,0,0,0,-1,1203,463,10.5346,74.36
-14,561,10.616,-74.0719,0,0,0,0,0,0,0,-1,1210,463,10.6159,74.0719
-7,561,10.7513,-73.9673,0,0,0,0,0,0,0,-1,1217,463,10.7513,73.9673
0,561,10.9772,-73.5152,0,0,0,0,0,0,0,-1,1224,463,10.9772,73.5152
7,561,10.255,-73.465,0,0,0,0,0,0,0,-1,1231,463,10.255,73.465
14,561,9.73608,-72.7886,-0.0527712,-0.221984,-0.0269085,-0.0485952,-0.22616,-0.153964,0.137468,0.0436869,1238,463,9.73612,72.7886
21,561,9.02979,-72.2013,-0.0502747,-0.205171,-0.0185273,-0.0480895,-0.207356,-0.117404,0.125322,0.0436405,1245,463,9.02977,72.2013
28,561,8.93347,-72.0625,-0.0474762,-0.188842,-0.0100648,-0.0467632,-0.189555,-0.0707216,0.114025,0.0447379,1252,463,8.93348,72.0625
35,561,8.45996,-71.6495,-0.0450482,-0.172732,-0.00200542,-0.0450167,-0.172764,-0.015701,0.103487,0.0419247,1259,463,8.45993,71.6495
42,561,8.12061,-70.8815,-0.0419622,-0.155472,0.00254321,-0.0419053,-0.155529,0.0223902,0.0929227,0.0453278,1266,463,8.12058,70.8815
49,561,7.99866,-70.046,-0.0387128,-0.137884,0.00507963,-0.0384533,-0.138143,0.051043,0.0823276,0.0433964,1273,463,7.99869,70.046
56,561,7.7135,-69.2693,-0.035773,-0.121337,0.00761649,-0.0351003,-0.12201,0.0880921,0.0725284,0.0432003,1280,463,7.71354,69.2693
63,561,7.55688,-68.7824,-0.0327479,-0.104849,0.007926,-0.0318869,-0.10571,0.108208,0.062612,0.0474637,1287,463,7.55686,68.7824
70,561,7.32434,-68.424,-0.0292384,-0.0886105,0.00637394,-0.0285619,-0.0892871,0.10575,0.052653,0.0478333,1294,463,7.3244,68.424
77,561,6.99963,-68.0548,0,0,0,0,0,0,0,-1,1301,463,6.99959,68.0548
84,561,6.64136,-67.6375,0,0,0,0,0,0,0,-1,1308,463,6.64135,67.6375
91,561,7.39001,-69.6011,-0.0155146,-0.0423305,-0.00994977,-0.0122261,-0.045619,-0.319207,0.0272668,0.0437445,1315,463,7.39004,69.6011
98,561,7.35767,-69.6968,-0.00843403,-0.0360096,-0.01906,0.00130234,-0.045746,-0.472272,0.0309406,0.046164,1322,463,7.35771,69.6968
105,561,7.34192,-69.8331,0,0,0,0,0,0,0,-1,1329,463,7.3419,69.8331
112,561,-7.36194,-79.7737,0,0,0,0,0,0,0,-1,1336,463,-7.36198,79.7737
119,561,-10.1672,-80.0145,0,0,0,0,0,0,0,-1,1343,463,-10.1673,80.0145
126,561,-12.4307,-81.4574,0,0,0,0,0,0,0,-1,1350,463,-12.4306,81.4574
133,561,-14.1589,-83.581,0,0,0,0,0,0,0,-1,1357,463,-14.1589,83.581
140,561,-15.8652,-85.5569,0,0,0,0,0,0,0,-1,1364,463,-15.8652,85.5569
147,561,-17.8779,-87.2964,0,0,0,0,0,0,0,-1,1371,463,-17.8779,87.2965
154,561,-19.9762,-89.0762,0,0,0,0,0,0,0,-1,1378,463,-19.9762,89.0763
161,561,-20.5601,-89.8615,0,0,0,0,0,0,0,-1,1385,463,-20.5601,89.8615
168,561,-22.2305,-91.5089,0,0,0,0,0,0,0,-1,1392,463,-22.2305,91.5088
175,561,10.4185,0.276398,0,0,0,0,0,0,0,-1,1399,463,10.4185,-0.276394
182,561,6.45703,-4.02127,0,0,0,0,0,0,0,-1,1406,463,6.45704,4.02127
189,561,6.50854,-2.08685,0,0,0,0,0,0,0,-1,1413,463,6.50851,2.08686
196,561,6.44775,-0.27182,0,0,0,0,0,0,0,-1,1420,463,6.44773,0.271814
203,561,6.18591,1.1301,0,0,0,0,0,0,0,-1,1427,463,6.18592,-1.13009
210,561,5.68713,2.68427,0,0,0,0,0,0,0,-1,1434,463,5.6871,-2.68425
217,561,3.61743,-7.33582,0,0,0,0,0,0,0,-1,1441,463,3.61738,7.33581
224,561,4.27466,-8.59171,0,0,0,0,0,0,0,-1,1448,463,4.27466,8.59171
231,561,4.93188,-9.8476,0,0,0,0,0,0,0,-1,1455,463,4.93193,9.84761
238,561,2.18018,-5.18359,0,0,0,0,0,0,0,-1,1462,463,2.18023,5.18359
245,561,3.07568,-3.50238,0,0,0,0,0,0,0,-1,1469,463,3.0757,3.50238
252,561,3.47412,-3.71109,0,0,0,0,0,0,0,-1,1476,463,3.47413,3.71109
259,561,3.42212,-3.2334,0,0,0,0,0,0,0,-1,1483,463,3.42214,3.2334
266,561,4.44373,-5.90027,0,0,0,0,0,0,0,-1,1490,463,4.44372,5.90026
273,561,15.1434,-59.8598,0,0,0,0,0,0,0,-1,1497,463,15.1434,59.8598
280,561,15.0184,-58.8116,0,0,0,0,0,0,0,-1,1504,463,15.0184,58.8116
287,561,15.1506,-57.4555,0.011987,-0.0325161,-0.00636977,0.0128807,-0.0334099,-0.139403,0.027588,0.0494406,1511,463,15.1506,57.4555
294,561,15.2726,-56.8469,0.0103746,-0.0288036,-0.00640892,0.0113964,-0.0298254,-0.158096,0.0245794,0.0410741,1518,463,15.2726,56.8469
301,561,15.2893,-56.3737,0.00884694,-0.0243803,-0.00617667,0.00995798,-0.0254914,-0.177974,0.0211115,0.0388074,1525,463,15.2893,56.3736
308,561,15.3513,-55.8054,0.00711195,-0.0204748,-0.00601419,0.00836609,-0.0217289,-0.205584,0.0179372,0.0319556,1532,463,15.3513,55.8054
315,561,15.3926,-55.22,0.00563817,-0.0167445,-0.00565023,0.00698363,-0.01809,-0.23377,0.0149421,0.0214683,1539,463,15.3925,55.22
322,561,15.3586,-54.4602,0.00449937,-0.0133872,-0.00501104,0.00580756,-0.0146954,-0.255364,0.0122025,0.0217871,1546,463,15.3586,54.4602
329,561,15.3124,-53.5692,0.00354579,-0.0104084,-0.00430633,0.00476774,-0.0116303,-0.27649,0.00973986,0.0143411,1553,463,15.3123,53.5692
336,561,15.3165,-52.7234,0.00264555,-0.00788102,-0.00370281,0.00381756,-0.00905302,-0.306541,0.00763301,0.0117239,1560,463,15.3165,52.7234
343,561,15.2938,-51.9067,0.00192477,-0.00507216,-0.0029723,0.00301693,-0.00616432,-0.352132,0.00540362,0.0109592,1567,463,15.2938,51.9067
350,561,15.244,-51.0545,0.00159733,-0.00300905,-0.00204442,0.0023738,-0.00378553,-0.362974,0.00358709,0.010836,1574,463,15.244,51.0545
357,561,15.212,-50.1765,0.001411,-0.00150532,-0.00116726,0.00182066,-0.00191497,-0.337523,0.002157,0.010879,1581,463,15.212,50.1765
364,561,15.1976,-49.3458,0.00121134,-0.000237749,-0.000320548,0.00127908,-0.000305489,-0.208263,0.000970709,0.00985041,1588,463,15.1977,49.3458
371,561,15.1359,-48.4521,0.00102491,0.000927052,0.000448492,0.00142713,0.000524829,0.731064,0.000833508,0.0159861,1595,463,15.1359,48.4521
378,561,15.0632,-47.5779,0.000805665,0.00213388,0.0010629,0.00272308,0.000216461,1.06463,0.00174771,0.0123491,1602,463,15.0633,47.5779
385,561,15.0179,-46.686,0.000571936,0.0033889,0.00157577,0.00409392,-0.000133083,1.1501,0.00277471,0.0113142,1609,463,15.0179,46.6861
392,561,14.9443,-45.7959,0.000406221,0.0043142,0.0020277,0.00517618,-0.000455754,1.16884,0.0036123,0.0155276,1616,463,14.9443,45.7959
399,561,14.8899,-44.937,0.00038267,0.00519016,0.00256761,0.0063036,-0.000730773,1.16162,0.00446597,0.0217289,1623,463,14.8898,44.937
406,561,14.8726,-44.0066,0.000222437,0.00600365,0.00297115,0.00725832,-0.00103224,1.17123,0.00521711,0.0199473,1630,463,14.8725,44.0066
413,561,14.8285,-43.0386,-7.57437e-05,0.00658327,0.0032652,0.00791715,-0.00140962,1.18297,0.0058053,0.0176629,1637,463,14.8285,43.0386
420,561,14.7158,-42.1311,-0.000327344,0.00683111,0.00352478,0.00827533,-0.00177156,1.18193,0.00619246,0.0140877,1644,463,14.7158,42.1311
427,561,14.6707,-41.1835,-0.000299423,0.00694204,0.00402223,0.00873316,-0.00209053,1.15186,0.00662974,0.0111067,1651,463,14.6707,41.1835
434,561,14.6295,-40.226,-0.000297184,0.00712844,0.00448949,0.00924148,-0.00241022,1.13089,0.00710205,0.0146181,1658,463,14.6295,40.226
441,561,14.5725,-39.2859,-0.000296837,0.00715652,0.00503225,0.00969177,-0.00283208,1.10411,0.00758358,0.0182504,1665,463,14.5725,39.2859
448,561,14.5402,-38.2433,-0.000219966,0.00704324,0.00565239,0.0101301,-0.00330685,1.07094,0.00808438,0.0238636,1672,463,14.5402,38.2433
455,561,14.4785,-37.141,-0.000199845,0.0066718,0.00654847,0.0106311,-0.00415911,1.02699,0.00880741,0.0434725,1679,463,14.4785,37.141
462,561,14.2664,-36.3238,-0.000302012,0.00685429,0.00736083,0.0114606,-0.00490829,1.01163,0.00969966,0.0377759,1686,463,14.2664,36.3238
469,561,14.0304,-35.5282,-0.000299434,0.00704829,0.00833603,0.0124841,-0.00573527,0.992953,0.0107568,0.0246462,1693,463,14.0304,35.5282
476,561,14.0447,-34.4947,-0.000154885,0.00696264,0.00937529,0.0134319,-0.00662413,0.966792,0.0117996,0.043692,1700,463,14.0447,34.4947
483,561,14.0736,-33.4306,0,0,0,0,0,0,0,-1,1707,463,14.0736,33.4306
490,561,10.2549,-20.4551,0,0,0,0,0,0,0,-1,1714,463,10.2548,20.4551
497,561,11.7618,-20.3894,0,0,0,0,0,0,0,-1,1721,463,11.7618,20.3894
504,561,12.9351,-20.1285,0,0,0,0,0,0,0,-1,1728,463,12.935,20.1285
511,561,0,0,0,0,0,0,0,0,0,-1,1735,463,0,0
518,561,0,0,0,0,0,0,0,0,0,-1,1742,463,0,0
525,561,0,0,0,0,0,0,0,0,0,-1,1749,463,0,0
532,561,0,0,0,0,0,0,0,0,0,-1,1756,463,0,0
539,561,0,0,0,0,0,0,0,0,0,-1,1763,463,0,0
546,561,0,0,0,0,0,0,0,0,0,-1,1770,463,0,0
553,561,0,0,0,0,0,0,0,0,0,-1,1777,463,0,0
560,561,0,0,0,0,0,0,0,0,0,-1,1784,463,0,0
567,561,0,0,0,0,0,0,0,0,0,-1,1791,463,0,0
574,561,0,0,0,0,0,0,0,0,0,-1,1798,463,0,0
581,561,0,0,0,0,0,0,0,0,0,-1,1805,463,0,0
588,561,0,0,0,0,0,0,0,0,0,-1,1812,463,0,0
595,561,0,0,0,0,0,0,0,0,0,-1,1819,463,0,0
602,561,0,0,0,0,0,0,0,0,0,-1,1826,463,0,0
609,561,0,0,0,0,0,0,0,0,0,-1,1833,463,0,0
616,561,0,0,0,0,0,0,0,0,0,-1,1840,463,0,0
623,561,0,0,0,0,0,0,0,0,0,-1,1847,463,0,0
630,561,0,0,0,0,0,0,0,0,0,-1,1854,463,0,0
637,561,0,0,0,0,0,0,0,0,0,-1,1861,463,0,0
644,561,0,0,0,0,0,0,0,0,0,-1,1868,463,0,0
651,561,0,0,0,0,0,0,0,0,0,-1,1875,463,0,0
658,561,0,0,0,0,0,0,0,0,0,-1,1882,463,0,0
665,561,0,0,0,0,0,0,0,0,0,-1,1889,463,0,0
672,561,0,0,0,0,0,0,0,0,0,-1,1896,463,0,0
679,561,0,0,0,0,0,0,0,0,0,-1,1903,463,0,0
686,561,0,0,0,0,0,0,0,0,0,-1,1910,463,0,0
693,561,0,0,0,0,0,0,0,0,0,-1,1917,463,0,0
700,561,0,0,0,0,0,0,0,0,0,-1,1924,463,0,0
707,561,0,0,0,0,0,0,0,0,0,-1,1931,463,0,0
714,561,0,0,0,0,0,0,0,0,0,-1,1938,463,0,0
721,561,0,0,0,0,0,0,0,0,0,-1,1945,463,0,0
728,561,0,0,0,0,0,0,0,0,0,-1,1952,463,0,0
735,561,0,0,0,0,0,0,0,0,0,-1,1959,463,0,0
742,561,0,0,0,0,0,0,0,0,0,-1,1966,463,0,0
749,561,0,0,0,0,0,0,0,0,0,-1,1973,463,0,0
756,561,0,0,0,0,0,0,0,0,0,-1,1980,463,0,0
763,561,0,0,0,0,0,0,0,0,0,-1,1987,463,0,0
770,561,0,0,0,0,0,0,0,0,0,-1,1994,463,0,0
777,561,0,0,0,0,0,0,0,0,0,-1,2001,463,0,0
784,561,0,0,0,0,0,0,0,0,0,-1,2008,463,0,0
791,561,0,0,0,0,0,0,0,0,0,-1,2015,463,0,0
798,561,0,0,0,0,0,0,0,0,0,-1,2022,463,0,0
805,561,0,0,0,0,0,0,0,0,0,-1,2029,463,0,0
812,561,0,0,0,0,0,0,0,0,0,-1,2036,463,0,0
-700,554,0,0,0,0,0,0,0,0,0,-1,524,470,0,0
-693,554,0,0,0,0,0,0,0,0,0,-1,531,470,0,0
-686,554,0,0,0,0,0,0,0,0,0,-1,538,470,0,0
-679,554,0,0,0,0,0,0,0,0,0,-1,545,470,0,0
-672,554,0,0,0,0,0,0,0,0,0,-1,552,470,0,0
-665,554,0,0,0,0,0,0,0,0,0,-1,559,470,0,0
-658,554,0,0,0,0,0,0,0,0,0,-1,566,470,0,0
-651,554,0,0,0,0,0,0,0,0,0,-1,573,470,0,0
-644,554,0,0,0,0,0,0,0,0,0,-1,580,470,0,0
-637,554,0,0,0,0,0,0,0,0,0,-1,587,470,0,0
-630,554,0,0,0,0,0,0,0,0,0,-1,594,470,0,0
-623,554,0,0,0,0,0,0,0,0,0,-1,601,470,0,0
-616,554,0,0,0,0,0,0,0,0,0,-1,608,470,0,0
-609,554,0,0,0,0,0,0,0,0,0,-1,615,470,0,0
-602,554,0,0,0,0,0,0,0,0,0,-1,622,470,0,0
-595,554,0,0,0,0,0,0,0,0,0,-1,629,470,0,0
-588,554,0,0,0,0,0,0,0,0,0,-1,636,470,0,0
-581,554,0,0,0,0,0,0,0,0,0,-1,643,470,0,0
-574,554,0,0,0,0,0,0,0,0,0,-1,650,470,0,0
-567,554,0,0,0,0,0,0,0,0,0,-1,657,470,0,0
-560,554,0,0,0,0,0,0,0,0,0,-1,664,470,0,0
-553,554,0,0,0,0,0,0,0,0,0,-1,671,470,0,0
-546,554,0,0,0,0,0,0,0,0,0,-1,678,470,0,0
-539,554,0,0,0,0,0,0,0,0,0,-1,685,470,0,0
-532,554,0,0,0,0,0,0,0,0,0,-1,692,470,0,0
-525,554,0,0,0,0,0,0,0,0,0,-1,699,470,0,0
-518,554,0,0,0,0,0,0,0,0,0,-1,706,470,0,0
-511,554,0,0,0,0,0,0,0,0,0,-1,713,470,0,0
-504,554,0,0,0,0,0,0,0,0,0,-1,720,470,0,0
-497,554,0,0,0,0,0,0,0,0,0,-1,727,470,0,0
-490,554,0,0,0,0,0,0,0,0,0,-1,734,470,0,0
-483,554,0,0,0,0,0,0,0,0,0,-1,741,470,0,0
-476,554,0,0,0,0,0,0,0,0,0,-1,748,470,0,0
-469,554,0,0,0,0,0,0,0,0,0,-1,755,470,0,0
-462,554,0,0,0,0,0,0,0,0,0,-1,762,470,0,0
-455,554,0,0,0,0,0,0,0,0,0,-1,769,470,0,0
-448,554,0,0,0,0,0,0,0,0,0,-1,776,470,0,0
-441,554,0,0,0,0,0,0,0,0,0,-1,783,470,0,0
-434,554,0,0,0,0,0,0,0,0,0,-1,790,470,0,0
-427,554,0,0,0,0,0,0,0,0,0,-1,797,470,0,0
-420,554,0,0,0,0,0,0,0,0,0,-1,804,470,0,0
-413,554,0,0,0,0,0,0,0,0,0,-1,811,470,0,0
-406,554,0,0,0,0,0,0,0,0,0,-1,818,470,0,0
-399,554,-1.32275,-3.95142,0,0,0,0,0,0,0,-1,825,470,-1.32275,3.95141
-392,554,-1.35632,-3.7406,0,0,0,0,0,0,0,-1,832,470,-1.35632,3.7406
-385,554,1.54614,-28.7236,0,0,0,0,0,0,0,-1,839,470,1.54616,28.7236
-378,554,1.92175,-29.1808,0,0,0,0,0,0,0,-1,846,470,1.92174,29.1808
-371,554,2.90704,-29.4795,0,0,0,0,0,0,0,-1,853,470,2.90703,29.4795
-364,554,2.69928,-30.6884,0,0,0,0,0,0,0,-1,860,470,2.69926,30.6884
-357,554,2.43024,-31.9178,0,0,0,0,0,0,0,-1,867,470,2.43024,31.9178
-350,554,1.17157,-18.1341,0,0,0,0,0,0,0,-1,874,470,1.17156,18.1341
-343,554,2.11151,-35.9517,0,0,0,0,0,0,0,-1,881,470,2.11152,35.9517
-336,554,1.96191,-36.6271,-0.00203652,0.0187464,-0.010095,0.0228426,-0.00613271,-1.18533,0.0176318,0.0489682,888,470,1.96194,36.6271
-329,554,1.75513,-37.5604,-0.00195221,0.0167825,-0.00863117,0.0201527,-0.00532238,-1.19854,0.0155166,0.0272467,895,470,1.75514,37.5604
-322,554,1.62689,-38.5049,-0.00192311,0.0148569,-0.00725767,0.0175604,-0.00462661,-1.21422,0.0135157,0.0202827,902,470,1.62692,38.5049
-315,554,1.60425,-39.4394,-0.00175165,0.0132063,-0.00619791,0.0154407,-0.00398603,-1.22479,0.0118481,0.0177773,909,470,1.60422,39.4394
-308,554,1.5567,-40.3896,-0.00153046,0.0115747,-0.00528645,0.0134413,-0.00339707,-1.23137,0.010282,0.0152808,916,470,1.5567,40.3896
-301,554,1.50494,-41.3665,-0.00121815,0.00993837,-0.00451377,0.0115358,-0.00281561,-1.23064,0.00878088,0.0148931,923,470,1.50495,41.3665
-294,554,1.41626,-42.2947,-0.0008946,0.00822492,-0.00371496,0.00954669,-0.00221637,-1.22897,0.00721759,0.0129478,930,470,1.41627,42.2948
-287,554,1.34949,-43.2153,-0.000583308,0.0066484,-0.00296147,0.00770638,-0.00164128,-1.22768,0.00576312,0.0126849,937,470,1.34949,43.2154
-280,554,1.26996,-44.1418,-0.000223189,0.00510727,-0.00235609,0.00599938,-0.00111529,-1.20884,0.00441852,0.0117289,944,470,1.26993,44.1419
-273,554,1.18292,-45.0462,4.28993e-05,0.00322465,-0.00161852,0.00390325,-0.000635697,-1.17379,0.0028379,0.0158761,951,470,1.18292,45.0462
-266,554,1.13141,-45.9361,0.000309282,0.00116878,-0.00075406,0.00160695,-0.000128893,-1.0444,0.00111675,0.0132829,958,470,1.13138,45.9361
-259,554,1.09106,-46.7933,0.000545242,-0.0013713,0.000260659,0.000580061,-0.00140612,0.132792,0.00117932,0.0129696,965,470,1.09105,46.7933
-252,554,1.05548,-47.6722,0.000713339,-0.00404823,0.00152755,0.00116125,-0.00449615,0.28523,0.00345028,0.0146763,972,470,1.0555,47.6723
-245,554,1.00592,-48.5649,0.000968866,-0.00673861,0.0027377,0.00184232,-0.00761206,0.308837,0.0057874,0.0159858,979,470,1.00594,48.565
-238,554,0.976196,-49.4647,0.0013316,-0.0096955,0.00401169,0.00263662,-0.0110005,0.314507,0.00835244,0.0123992,986,470,0.976209,49.4647
-231,554,0.944458,-50.3444,0.00172284,-0.01298,0.00531263,0.00344156,-0.0146987,0.312888,0.0111252,0.0110362,993,470,0.944481,50.3444
-224,554,0.924988,-51.1696,0.00200487,-0.016173,0.00669933,0.00420707,-0.0183752,0.317593,0.0138669,0.0104833,1000,470,0.924999,51.1696
-217,554,0.920898,-51.9926,0.00236993,-0.0193938,0.00800983,0.005,-0.0220239,0.317264,0.0166021,0.010893,1007,470,0.920887,51.9926
-210,554,0.902405,-52.8045,0.0028571,-0.0225558,0.00916969,0.00582027,-0.025519,0.312557,0.0192483,0.0156941,1014,470,0.902388,52.8045
-203,554,0.874451,-53.5429,0.00354221,-0.0252961,0.0100711,0.00671106,-0.028465,0.304842,0.0215646,0.0251356,1021,470,0.874429,53.5429
-196,554,0.876099,-54.2504,0.00443321,-0.0274167,0.0106263,0.00765302,-0.0306365,0.294211,0.0233963,0.0337211,1028,470,0.876068,54.2504
-189,554,1.07483,-54.8903,0.00531827,-0.0293833,0.0110363,0.00853081,-0.0325959,0.28326,0.0250629,0.0392145,1035,470,1.07485,54.8903
-182,554,1.17908,-55.4487,0.00637757,-0.0306985,0.0111013,0.00944733,-0.0337683,0.269782,0.0262346,0.0481837,1042,470,1.17903,55.4487
-175,554,0.857422,-56.416,0,0,0,0,0,0,0,-1,1049,470,0.857468,56.416
-168,554,1.8866,-48.7592,0,0,0,0,0,0,0,-1,1056,470,1.88665,48.7591
-161,554,1.09583,-42.015,0,0,0,0,0,0,0,-1,1063,470,1.09577,42.015
-154,554,1.03186,-42.7216,0,0,0,0,0,0,0,-1,1070,470,1.03187,42.7216
-147,554,1.4552,-41.5187,0,0,0,0,0,0,0,-1,1077,470,1.45525,41.5187
-140,554,0.428101,-38.9893,0,0,0,0,0,0,0,-1,1084,470,0.428152,38.9893
-133,554,2.67163,-32.8187,0,0,0,0,0,0,0,-1,1091,470,2.67161,32.8187
-126,554,0.851929,-33.5393,0,0,0,0,0,0,0,-1,1098,470,0.851942,33.5393
-119,554,-1.03479,-32.1628,0,0,0,0,0,0,0,-1,1105,470,-1.03476,32.1628
-112,554,1.03162,-24.5784,0,0,0,0,0,0,0,-1,1112,470,1.03156,24.5784
-105,554,0.608765,-21.0475,0,0,0,0,0,0,0,-1,1119,470,0.608728,21.0475
-98,554,1.51929,-7.3624,0,0,0,0,0,0,0,-1,1126,470,1.51928,7.36241
-91,554,1.41089,-6.5864,0,0,0,0,0,0,0,-1,1133,470,1.41093,6.58638
-84,554,1.62305,-5.87186,0,0,0,0,0,0,0,-1,1140,470,1.62299,5.87186
-77,554,-2.56958,1.33258,0,0,0,0,0,0,0,-1,1147,470,-2.56959,-1.33257
-70,554,-3.68164,-1.18332,0,0,0,0,0,0,0,-1,1154,470,-3.68158,1.18331
-63,554,-4.86853,-3.88708,0,0,0,0,0,0,0,-1,1161,470,-4.86853,3.88708
-56,554,-5.69958,-6.45422,0,0,0,0,0,0,0,-1,1168,470,-5.69955,6.45422
-49,554,-6.23645,-8.8569,0,0,0,0,0,0,0,-1,1175,470,-6.23643,8.85689
-42,554,-6.62524,-11.5382,0,0,0,0,0,0,0,-1,1182,470,-6.62522,11.5382
-35,554,-2.40173,-4.59482,0,0,0,0,0,0,0,-1,1189,470,-2.40169,4.59481
-28,554,-0.760132,-1.65555,0,0,0,0,0,0,0,-1,1196,470,-0.760095,1.65556
-21,554,6.35388,-60.5687,0,0,0,0,0,0,0,-1,1203,470,6.35392,60.5687
-14,554,11.4586,-72.4536,0,0,0,0,0,0,0,-1,1210,470,11.4586,72.4536
-7,554,3.01025,-66.8904,0,0,0,0,0,0,0,-1,1217,470,3.01025,66.8905
0,554,12.298,-71.5027,0,0,0,0,0,0,0,-1,1224,470,12.298,71.5027
7,554,10.9368,-71.9915,0,0,0,0,0,0,0,-1,1231,470,10.9367,71.9915
14,554,10.6067,-71.2595,-0.0536878,-0.23101,-0.0259885,-0.0499574,-0.234741,-0.142567,0.142785,0.0460049,1238,470,10.6067,71.2594
21,554,10.2546,-70.4781,-0.0507909,-0.210988,-0.0156425,-0.0492778,-0.212501,-0.0964322,0.128432,0.0435274,1245,470,10.2547,70.4781
28,554,9.49255,-71.0259,0,0,0,0,0,0,0,-1,1252,470,9.49257,71.0259
35,554,8.73645,-70.5064,-0.044177,-0.175384,0.00442384,-0.044028,-0.175533,0.0336654,0.105456,0.0405945,1259,470,8.73651,70.5064
42,554,8.42725,-69.7403,-0.040794,-0.15857,0.00933322,-0.040059,-0.159305,0.0785921,0.0956872,0.0428042,1266,470,8.42721,69.7403
49,554,8.19031,-68.9405,-0.0371818,-0.141768,0.0109899,-0.0360394,-0.142911,0.103572,0.0858213,0.0447244,1273,470,8.19025,68.9405
56,554,7.77759,-68.366,-0.0336141,-0.12576,0.0126566,-0.0319073,-0.127467,0.134047,0.0765907,0.0442998,1280,470,7.77755,68.366
63,554,7.43835,-67.9148,-0.0303494,-0.11026,0.0112659,-0.0287915,-0.111818,0.137414,0.0670416,0.0446631,1287,470,7.43832,67.9148
70,554,7.2207,-67.5688,-0.0262293,-0.0946829,0.00843659,-0.0252049,-0.0957073,0.120837,0.0572825,0.0450252,1294,470,7.22073,67.5688
77,554,6.87256,-67.316,0,0,0,0,0,0,0,-1,1301,470,6.87259,67.316
84,554,7.73645,-69.1174,0,0,0,0,0,0,0,-1,1308,470,7.73643,69.1174
91,554,7.7207,-69.3546,-0.0102298,-0.0440347,-0.0157006,-0.00406274,-0.0502018,-0.374276,0.0321991,0.0415645,1315,470,7.72076,69.3546
98,554,7.71118,-69.5825,-0.000421422,-0.0339129,-0.0289262,0.0162565,-0.0505909,-0.523013,0.0402555,0.0423578,1322,470,7.71114,69.5825
105,554,7.67725,-69.851,0,0,0,0,0,0,0,-1,1329,470,7.67728,69.851
112,554,-8.53491,-78.2095,0,0,0,0,0,0,0,-1,1336,470,-8.53495,78.2095
119,554,-10.8547,-79.6141,0,0,0,0,0,0,0,-1,1343,470,-10.8547,79.6141
126,554,-13.2241,-81.0525,0,0,0,0,0,0,0,-1,1350,470,-13.2241,81.0525
133,554,-14.6184,-83.5648,0,0,0,0,0,0,0,-1,1357,470,-14.6184,83.5647
140,554,-16.1553,-85.2966,0,0,0,0,0,0,0,-1,1364,470,-16.1553,85.2966
147,554,-17.9628,-86.8549,0,0,0,0,0,0,0,-1,1371,470,-17.9628,86.8549
154,554,-19.7194,-88.3168,0,0,0,0,0,0,0,-1,1378,470,-19.7193,88.3168
161,554,-21.4796,-89.8413,0,0,0,0,0,0,0,-1,1385,470,-21.4796,89.8413
168,554,-23.2494,-91.3702,0,0,0,0,0,0,0,-1,1392,470,-23.2494,91.3702
175,554,10.663,0.286957,0,0,0,0,0,0,0,-1,1399,470,10.663,-0.286966
182,554,6.71106,-4.50217,0,0,0,0,0,0,0,-1,1406,470,6.71107,4.50215
189,554,6.90479,-2.50348,0,0,0,0,0,0,0,-1,1413,470,6.90477,2.50348
196,554,6.96216,-0.740906,0,0,0,0,0,0,0,-1,1420,470,6.96214,0.740912
203,554,6.43518,0.414154,0,0,0,0,0,0,0,-1,1427,470,6.43523,-0.414141
210,554,6.21167,1.96707,0,0,0,0,0,0,0,-1,1434,470,6.21165,-1.96706
217,554,5.64551,3.4989,0,0,0,0,0,0,0,-1,1441,470,5.64555,-3.49891
224,554,4.85144,-8.85172,0,0,0,0,0,0,0,-1,1448,470,4.85146,8.85173
231,554,3.25073,-5.29642,0,0,0,0,0,0,0,-1,1455,470,3.25078,5.29642
238,554,4.28625,-3.25253,0,0,0,0,0,0,0,-1,1462,470,4.28622,3.25252
245,554,4.0752,-2.90033,0,0,0,0,0,0,0,-1,1469,470,4.07515,2.90032
252,554,3.52112,-0.934998,0,0,0,0,0,0,0,-1,1476,470,3.52113,0.934996
259,554,3.96448,-2.16425,0,0,0,0,0,0,0,-1,1483,470,3.96446,2.16424
266,554,3.0592,-2.71716,0,0,0,0,0,0,0,-1,1490,470,3.05923,2.71718
273,554,2.58521,-3.06876,0,0,0,0,0,0,0,-1,1497,470,2.58524,3.06874
280,554,16.0126,-58.3292,0,0,0,0,0,0,0,-1,1504,470,16.0126,58.3292
287,554,15.8918,-56.7317,0,0,0,0,0,0,0,-1,1511,470,15.8918,56.7317
294,554,15.9781,-56.0596,0,0,0,0,0,0,0,-1,1518,470,15.9782,56.0596
301,554,15.9296,-55.8134,0,0,0,0,0,0,0,-1,1525,470,15.9296,55.8133
308,554,16.2018,-55.6135,0,0,0,0,0,0,0,-1,1532,470,16.2017,55.6134
315,554,16.2596,-55.1743,0,0,0,0,0,0,0,-1,1539,470,16.2596,55.1743
322,554,16.2084,-54.506,0,0,0,0,0,0,0,-1,1546,470,16.2084,54.5061
329,554,16.1918,-53.2839,0.00406855,-0.0136406,-0.0058526,0.00582794,-0.0154,-0.292023,0.0126645,0.0379223,1553,470,16.1918,53.2839
336,554,16.125,-52.6453,0.003011,-0.0105702,-0.00522567,0.00478894,-0.0123481,-0.327946,0.0102099,0.0228857,1560,470,16.125,52.6452
343,554,16.0944,-51.8716,0.00220964,-0.007277,-0.00447819,0.00398961,-0.00905696,-0.378327,0.00771951,0.0150312,1567,470,16.0944,51.8716
350,554,16.098,-50.9832,0.00190233,-0.00510987,-0.00345765,0.00332046,-0.00652801,-0.38922,0.00578567,0.0113196,1574,470,16.098,50.9832
357,554,16.0889,-50.1058,0.00171699,-0.00364297,-0.00256264,0.00274504,-0.00467101,-0.38151,0.00432952,0.0112476,1581,470,16.0889,50.1058
364,554,16.046,-49.2917,0.00150986,-0.00245376,-0.00169396,0.00213517,-0.00307907,-0.353623,0.00302684,0.00887968,1588,470,16.046,49.2917
371,554,15.9907,-48.4218,0.00134485,-0.00138392,-0.000900755,0.00161537,-0.00165444,-0.291753,0.00188787,0.00885107,1595,470,15.9907,48.4218
378,554,15.9387,-47.504,0.00116168,-0.000198173,-0.000221252,0.00119677,-0.000233266,-0.1573,0.000885898,0.0109644,1602,470,15.9387,47.5039
385,554,15.9064,-46.6156,0.000982683,0.00113152,0.00042869,0.0014922,0.000621999,0.871338,0.000865487,0.0108423,1609,470,15.9064,46.6156
392,554,15.8629,-45.6894,0.000821178,0.00211841,0.000959015,0.00262756,0.000312032,1.08273,0.00165751,0.0142813,1616,470,15.863,45.6894
399,554,15.8096,-44.7993,0.000736155,0.00301342,0.00149101,0.00375084,-1.27056e-06,1.11149,0.00250099,0.0198227,1623,470,15.8096,44.7993
406,554,15.751,-43.8969,0.000568408,0.00383075,0.00194106,0.00473502,-0.000335854,1.13483,0.00327438,0.0184493,1630,470,15.751,43.8968
413,554,15.7139,-42.9559,0.000341067,0.0045478,0.0023421,0.00559238,-0.000703511,1.15127,0.00398352,0.0162694,1637,470,15.7139,42.9559
420,554,15.6471,-42.0687,0.00011987,0.00494179,0.00267414,0.00613135,-0.00106969,1.15224,0.00448684,0.0161797,1644,470,15.6471,42.0687
427,554,15.6,-41.1498,6.52855e-05,0.00516605,0.00313236,0.00665499,-0.00142366,1.12707,0.00497952,0.0118914,1651,470,15.6,41.1498
434,554,15.5217,-40.2218,2.08838e-05,0.00540093,0.00358766,0.00719505,-0.00177323,1.10708,0.00548418,0.0103826,1658,470,15.5217,40.2218
441,554,15.4659,-39.2681,-3.02873e-05,0.00558346,0.00412905,0.00776934,-0.00221617,1.08391,0.00605502,0.0119025,1665,470,15.4659,39.2681
448,554,15.4146,-38.2846,-4.88145e-05,0.00566059,0.00473177,0.0083321,-0.00272032,1.05682,0.00664964,0.0173855,1672,470,15.4146,38.2846
455,554,15.3281,-37.332,-0.000103049,0.00560876,0.00550034,0.00895043,-0.00344472,1.02485,0.00738792,0.0182215,1679,470,15.3281,37.332
462,554,15.1854,-36.4057,-0.000141111,0.00586394,0.00623262,0.00977956,-0.00405672,1.00987,0.00821299,0.0199118,1686,470,15.1855,36.4057
469,554,14.9816,-35.4575,-7.05192e-05,0.00612397,0.00709228,0.0107658,-0.00471235,0.99127,0.0091613,0.0275886,1693,470,14.9816,35.4575
476,554,14.9087,-34.357,0.000156428,0.00625819,0.00803163,0.0117989,-0.00538426,0.96691,0.0101485,0.0468548,1700,470,14.9087,34.357
483,554,14.8864,-33.2364,0,0,0,0,0,0,0,-1,1707,470,14.8863,33.2364
490,554,12.5504,-17.9805,0,0,0,0,0,0,0,-1,1714,470,12.5505,17.9805
497,554,14.3204,-17.9055,0,0,0,0,0,0,0,-1,1721,470,14.3204,17.9055
504,554,2.13257,-3.81628,0,0,0,0,0,0,0,-1,1728,470,2.1326,3.8163
511,554,1.31396,-4.02713,0,0,0,0,0,0,0,-1,1735,470,1.31398,4.02712
518,554,5.04236,-5.9472,0,0,0,0,0,0,0,-1,1742,470,5.04231,5.94721
525,554,0,0,0,0,0,0,0,0,0,-1,1749,470,0,0
532,554,0,0,0,0,0,0,0,0,0,-1,1756,470,0,0
539,554,0,0,0,0,0,0,0,0,0,-1,1763,470,0,0
546,554,0,0,0,0,0,0,0,0,0,-1,1770,470,0,0
553,554,0,0,0,0,0,0,0,0,0,-1,1777,470,0,0
560,554,0,0,0,0,0,0,0,0,0,-1,1784,470,0,0
567,554,0,0,0,0,0,0,0,0,0,-1,1791,470,0,0
574,554,0,0,0,0,0,0,0,0,0,-1,1798,470,0,0
581,554,0,0,0,0,0,0,0,0,0,-1,1805,470,0,0
588,554,0,0,0,0,0,0,0,0,0,-1,1812,470,0,0
595,554,0,0,0,0,0,0,0,0,0,-1,1819,470,0,0
602,554,0,0,0,0,0,0,0,0,0,-1,1826,470,0,0
609,554,0,0,0,0,0,0,0,0,0,-1,1833,470,0,0
616,554,0,0,0,0,0,0,0,0,0,-1,1840,470,0,0
623,554,0,0,0,0,0,0,0,0,0,-1,1847,470,0,0
630,554,0,0,0,0,0,0,0,0,0,-1,1854,470,0,0
637,554,0,0,0,0,0,0,0,0,0,-1,1861,470,0,0
644,554,0,0,0,0,0,0,0,0,0,-1,1868,470,0,0
651,554,0,0,0,0,0,0,0,0,0,-1,1875,470,0,0
658,554,0,0,0,0,0,0,0,0,0,-1,1882,470,0,0
665,554,0,0,0,0,0,0,0,0,0,-1,1889,470,0,0
672,554,0,0,0,0,0,0,0,0,0,-1,1896,470,0,0
679,554,0,0,0,0,0,0,0,0,0,-1,1903,470,0,0
686,554,0,0,0,0,0,0,0,0,0,-1,1910,470,0,0
693,554,0,0,0,0,0,0,0,0,0,-1,1917,470,0,0
700,554,0,0,0,0,0,0,0,0,0,-1,1924,470,0,0
707,554,0,0,0,0,0,0,0,0,0,-1,1931,470,0,0
714,554,0,0,0,0,0,0,0,0,0,-1,1938,470,0,0
721,554,0,0,0,0,0,0,0,0,0,-1,1945,470,0,0
728,554,0,0,0,0,0,0,0,0,0,-1,1952,470,0,0
735,554,0,0,0,0,0,0,0,0,0,-1,1959,470,0,0
742,554,0,0,0,0,0,0,0,0,0,-1,1966,470,0,0
749,554,0,0,0,0,0,0,0,0,0,-1,1973,470,0,0
756,554,0,0,0,0,0,0,0,0,0,-1,1980,470,0,0
763,554,0,0,0,0,0,0,0,0,0,-1,1987,470,0,0
770,554,0,0,0,0,0,0,0,0,0,-1,1994,470,0,0
777,554,0,0,0,0,0,0,0,0,0,-1,2001,470,0,0
784,554,0,0,0,0,0,0,0,0,0,-1,2008,470,0,0
791,554,0,0,0,0,0,0,0,0,0,-1,2015,470,0,0
798,554,0,0,0,0,0,0,0,0,0,-1,2022,470,0,0
805,554,0,0,0,0,0,0,0,0,0,-1,2029,470,0,0
812,554,0,0,0,0,0,0,0,0,0,-1,2036,470,0,0
-700,547,0,0,0,0,0,0,0,0,0,-1,524,477,0,0
-693,547,0,0,0,0,0,0,0,0,0,-1,531,477,0,0
-686,547,0,0,0,0,0,0,0,0,0,-1,538,477,0,0
-679,547,0,0,0,0,0,0,0,0,0,-1,545,477,0,0
-672,547,0,0,0,0,0,0,0,0,0,-1,552,477,0,0
-665,547,0,0,0,0,0,0,0,0,0,-1,559,477,0,0
-658,547,0,0,0,0,0,0,0,0,0,-1,566,477,0,0
-651,547,0,0,0,0,0,0,0,0,0,-1,573,477,0,0
-644,547,0,0,0,0,0,0,0,0,0,-1,580,477,0,0
-637,547,0,0,0,0,0,0,0,0,0,-1,587,477,0,0
-630,547,0,0,0,0,0,0,0,0,0,-1,594,477,0,0
-623,547,0,0,0,0,0,0,0,0,0,-1,601,477,0,0
-616,547,0,0,0,0,0,0,0,0,0,-1,608,477,0,0
-609,547,0,0,0,0,0,0,0,0,0,-1,615,477,0,0
-602,547,0,0,0,0,0,0,0,0,0,-1,622,477,0,0
-595,547,0,0,0,0,0,0,0,0,0,-1,629,477,0,0
-588,547,0,0,0,0,0,0,0,0,0,-1,636,477,0,0
-581,547,0,0,0,0,0,0,0,0,0,-1,643,477,0,0
-574,547,0,0,0,0,0,0,0,0,0,-1,650,477,0,0
-567,547,0,0,0,0,0,0,0,0,0,-1,657,477,0,0
-560,547,0,0,0,0,0,0,0,0,0,-1,664,477,0,0
-553,547,0,0,0,0,0,0,0,0,0,-1,671,477,0,0
-546,547,0,0,0,0,0,0,0,0,0,-1,678,477,0,0
-539,547,0,0,0,0,0,0,0,0,0,-1,685,477,0,0
-532,547,0,0,0,0,0,0,0,0,0,-1,692,477,0,0
-525,547,0,0,0,0,0,0,0,0,0,-1,699,477,0,0
-518,547,0,0,0,0,0,0,0,0,0,-1,706,477,0,0
-511,547,0,0,0,0,0,0,0,0,0,-1,713,477,0,0
-504,547,0,0,0,0,0,0,0,0,0,-1,720,477,0,0
-497,547,0,0,0,0,0,0,0,0,0,-1,727,477,0,0
-490,547,0,0,0,0,0,0,0,0,0,-1,734,477,0,0
-483,547,0,0,0,0,0,0,0,0,0,-1,741,477,0,0
-476,547,0,0,0,0,0,0,0,0,0,-1,748,477,0,0
-469,547,0,0,0,0,0,0,0,0,0,-1,755,477,0,0
-462,547,0,0,0,0,0,0,0,0,0,-1,762,477,0,0
-455,547,0,0,0,0,0,0,0,0,0,-1,769,477,0,0
-448,547,0,0,0,0,0,0,0,0,0,-1,776,477,0,0
-441,547,0,0,0,0,0,0,0,0,0,-1,783,477,0,0
-434,547,0,0,0,0,0,0,0,0,0,-1,790,477,0,0
-427,547,0,0,0,0,0,0,0,0,0,-1,797,477,0,0
-420,547,0,0,0,0,0,0,0,0,0,-1,804,477,0,0
-413,547,0,0,0,0,0,0,0,0,0,-1,811,477,0,0
-406,547,0.144592,-11.0292,0,0,0,0,0,0,0,-1,818,477,0.144583,11.0292
-399,547,0.775513,-10.0294,0,0,0,0,0,0,0,-1,825,477,0.775482,10.0295
-392,547,0.219055,-28.7913,0,0,0,0,0,0,0,-1,832,477,0.219056,28.7913
-385,547,0.564331,-29.2501,0,0,0,0,0,0,0,-1,839,477,0.564342,29.2501
-378,547,0.934631,-29.7303,0,0,0,0,0,0,0,-1,846,477,0.934644,29.7303
-371,547,1.85028,-29.6768,0,0,0,0,0,0,0,-1,853,477,1.85026,29.6768
-364,547,1.65063,-30.9048,0,0,0,0,0,0,0,-1,860,477,1.65062,30.9048
-357,547,1.38422,-32.116,0,0,0,0,0,0,0,-1,867,477,1.3842,32.116
-350,547,1.13409,-34.0778,0,0,0,0,0,0,0,-1,874,477,1.1341,34.0778
-343,547,1.02704,-35.2727,-0.000968119,0.0170465,-0.00999553,0.0214944,-0.00541601,-1.15212,0.0164351,0.0464834,881,477,1.02707,35.2727
-336,547,0.984131,-36.5157,-0.00112499,0.0150163,-0.00846774,0.0186435,-0.00475211,-1.1661,0.0142791,0.0204281,888,477,0.984121,36.5157
-329,547,0.831848,-37.4789,-0.00119628,0.0131486,-0.00708598,0.0160586,-0.00410624,-1.18113,0.012305,0.0125036,895,477,0.831855,37.479
-322,547,0.760315,-38.4445,-0.00129609,0.0112687,-0.00573879,0.0134953,-0.00352264,-1.20069,0.0103724,0.0123959,902,477,0.760289,38.4445
-315,547,0.684509,-39.447,-0.00121089,0.00975304,-0.0047038,0.0114945,-0.00295234,-1.21622,0.0088135,0.0105097,909,477,0.684485,39.447
-308,547,0.639709,-40.3678,-0.00104138,0.00830946,-0.0038193,0.00967114,-0.00240306,-1.22832,0.00738004,0.0119817,916,477,0.639716,40.3678
-301,547,0.578125,-41.3003,-0.000781201,0.00686703,-0.0030665,0.00794467,-0.00185885,-1.23285,0.00601262,0.0126054,923,477,0.578116,41.3003
-294,547,0.492798,-42.2245,-0.000465724,0.00535443,-0.00229292,0.00614922,-0.00126051,-1.23713,0.00457787,0.0108898,930,477,0.49278,42.2246
-287,547,0.421692,-43.1499,-0.000136956,0.00391176,-0.00156239,0.00444456,-0.00066976,-1.24214,0.00320967,0.0121738,937,477,0.421665,43.1499
-280,547,0.361389,-44.0645,0.000173966,0.00228375,-0.000946494,0.00264613,-0.00018841,-1.20515,0.00183012,0.0130578,944,477,0.361363,44.0644
-273,547,0.306702,-44.982,0.000380771,0.000281751,-0.000142706,0.000482312,0.00018021,-0.618425,0.000281411,0.0130409,951,477,0.306703,44.982
-266,547,0.239624,-45.8713,0.00064546,-0.00186468,0.000785283,0.000870886,-0.00209011,0.279547,0.00175717,0.0135167,958,477,0.239621,45.8713
-259,547,0.181885,-46.735,0.000841942,-0.00455378,0.00191685,0.00145358,-0.00516541,0.308871,0.00401678,0.0123925,965,477,0.181882,46.7351
-252,547,0.175781,-47.6205,0.000931556,-0.00752771,0.00337115,0.00211066,-0.00870682,0.336464,0.0066212,0.0119578,972,477,0.175789,47.6205
-245,547,0.156006,-48.5081,0.00110104,-0.0105932,0.00476246,0.00279512,-0.0122873,0.341759,0.00926486,0.0128527,979,477,0.156033,48.508
-238,547,0.121643,-49.4071,0.00138176,-0.0140234,0.00625267,0.00360015,-0.0162418,0.340936,0.0122062,0.00924186,986,477,0.121647,49.4071
-231,547,0.0775757,-50.2802,0.00171912,-0.0178808,0.00778128,0.00443265,-0.0205944,0.335539,0.015421,0.00880338,993,477,0.0775906,50.2802
-224,547,0.0484619,-51.0759,0.00189599,-0.021736,0.00949208,0.00523642,-0.0250765,0.338382,0.018709,0.0106653,1000,477,0.0484777,51.0759
-217,547,0.0432129,-51.8383,0.00216661,-0.0256501,0.0111617,0.00609156,-0.0295751,0.338138,0.0220298,0.0160605,1007,477,0.0431863,51.8383
-210,547,0.0655518,-52.5116,0.00258318,-0.0295521,0.0126815,0.00698479,-0.0339537,0.334079,0.0252877,0.0272266,1014,477,0.0655631,52.5116
-203,547,0.121887,-52.9803,0.00323864,-0.0330409,0.0139066,0.00795593,-0.0377582,0.327032,0.0282007,0.041129,1021,477,0.121866,52.9803
-196,547,0.16687,-53.8748,0,0,0,0,0,0,0,-1,1028,477,0.166882,53.8748
-189,547,0.480347,-54.3423,0,0,0,0,0,0,0,-1,1035,477,0.480321,54.3423
-182,547,0.588379,-54.8077,0,0,0,0,0,0,0,-1,1042,477,0.588426,54.8077
-175,547,1.37634,-47.526,0,0,0,0,0,0,0,-1,1049,477,1.3763,47.526
-168,547,0.761719,-32.9387,0,0,0,0,0,0,0,-1,1056,477,0.761738,32.9387
-161,547,0.0430908,-34.6016,0,0,0,0,0,0,0,-1,1063,477,0.0431231,34.6016
-154,547,-0.284424,-31.1176,0,0,0,0,0,0,0,-1,1070,477,-0.284395,31.1176
-147,547,3.69434,-26.413,0,0,0,0,0,0,0,-1,1077,477,3.69437,26.413
-140,547,1.55676,-22.5229,0,0,0,0,0,0,0,-1,1084,477,1.5568,22.5229
-133,547,2.31665,-17.9421,0,0,0,0,0,0,0,-1,1091,477,2.31667,17.9421
-126,547,-1.15271,-30.6984,0,0,0,0,0,0,0,-1,1098,477,-1.15267,30.6984
-119,547,0.967651,-24.9351,0,0,0,0,0,0,0,-1,1105,477,0.967657,24.9351
-112,547,1.15674,-22.2276,0,0,0,0,0,0,0,-1,1112,477,1.15677,22.2276
-105,547,0.966797,-20.5777,0,0,0,0,0,0,0,-1,1119,477,0.966804,20.5777
-98,547,0.70166,-18.9755,0,0,0,0,0,0,0,-1,1126,477,0.701713,18.9755
-91,547,1.37805,-7.12024,0,0,0,0,0,0,0,-1,1133,477,1.37804,7.12025
-84,547,1.94202,-6.66241,0,0,0,0,0,0,0,-1,1140,477,1.94201,6.66241
-77,547,-2.28357,1.8588,0,0,0,0,0,0,0,-1,1147,477,-2.28356,-1.85879
-70,547,-3.70178,-0.874908,0,0,0,0,0,0,0,-1,1154,477,-3.70182,0.874918
-63,547,-5.12012,-3.60861,0,0,0,0,0,0,0,-1,1161,477,-5.12009,3.60862
-56,547,-6.01917,-6.2399,0,0,0,0,0,0,0,-1,1168,477,-6.01921,6.23991
-49,547,-6.729,-8.60349,0,0,0,0,0,0,0,-1,1175,477,-6.72899,8.60348
-42,547,-2.41736,-5.53012,0,0,0,0,0,0,0,-1,1182,477,-2.41734,5.53011
-35,547,-2.96838,-4.45734,0,0,0,0,0,0,0,-1,1189,477,-2.96839,4.45734
-28,547,-0.869141,-1.29901,0,0,0,0,0,0,0,-1,1196,477,-0.869135,1.29901
-21,547,6.88403,-58.9171,0,0,0,0,0,0,0,-1,1203,477,6.88409,58.9171
-14,547,1.84644,-67.0497,0,0,0,0,0,0,0,-1,1210,477,1.8465,67.0497
-7,547,2.71216,-66.8472,0,0,0,0,0,0,0,-1,1217,477,2.7121,66.8472
0,547,18.082,-61.5468,0,0,0,0,0,0,0,-1,1224,477,18.082,61.5468
7,547,16.4626,-61.9104,0,0,0,0,0,0,0,-1,1231,477,16.4627,61.9104
14,547,0,0,0,0,0,0,0,0,0,-1,1238,477,0,0
21,547,0,0,0,0,0,0,0,0,0,-1,1245,477,0,0
28,547,0,0,0,0,0,0,0,0,0,-1,1252,477,0,0
35,547,0,0,0,0,0,0,0,0,0,-1,1259,477,0,0
42,547,0,0,0,0,0,0,0,0,0,-1,1266,477,0,0
49,547,0,0,0,0,0,0,0,0,0,-1,1273,477,0,0
56,547,0,0,0,0,0,0,0,0,0,-1,1280,477,0,0
63,547,0,0,0,0,0,0,0,0,0,-1,1287,477,0,0
70,547,0,0,0,0,0,0,0,0,0,-1,1294,477,0,0
77,547,0,0,0,0,0,0,0,0,0,-1,1301,477,0,0
84,547,0,0,0,0,0,0,0,0,0,-1,1308,477,0,0
91,547,0,0,0,0,0,0,0,0,0,-1,1315,477,0,0
98,547,0,0,0,0,0,0,0,0,0,-1,1322,477,0,0
105,547,-7.03076,-76.4238,0,0,0,0,0,0,0,-1,1329,477,-7.03081,76.4238
112,547,-9.21021,-77.8784,0,0,0,0,0,0,0,-1,1336,477,-9.21016,77.8784
119,547,-11.4219,-79.7443,0,0,0,0,0,0,0,-1,1343,477,-11.4218,79.7443
126,547,-13.8901,-80.8195,0,0,0,0,0,0,0,-1,1350,477,-13.8902,80.8195
133,547,-14.985,-83.6054,0,0,0,0,0,0,0,-1,1357,477,-14.985,83.6054
140,547,-16.4507,-84.9928,0,0,0,0,0,0,0,-1,1364,477,-16.4506,84.9928
147,547,-18.1633,-86.8712,0,0,0,0,0,0,0,-1,1371,477,-18.1633,86.8712
154,547,-20.3656,-88.5992,0,0,0,0,0,0,0,-1,1378,477,-20.3656,88.5993
161,547,-22.1659,-90.1003,0,0,0,0,0,0,0,-1,1385,477,-22.1659,90.1004
168,547,-4.8114,-85.34,0,0,0,0,0,0,0,-1,1392,477,-4.81144,85.3399
175,547,3.35034,-0.26532,0,0,0,0,0,0,0,-1,1399,477,3.3503,0.265306
182,547,4.26038,3.72672,0,0,0,0,0,0,0,-1,1406,477,4.26039,-3.7267
189,547,3.40454,1.28671,0,0,0,0,0,0,0,-1,1413,477,3.40457,-1.28673
196,547,3.53931,1.87793,0,0,0,0,0,0,0,-1,1420,477,3.53928,-1.87794
203,547,6.49414,-0.425842,0,0,0,0,0,0,0,-1,1427,477,6.4941,0.425844
210,547,4.82092,0.53595,0,0,0,0,0,0,0,-1,1434,477,4.82096,-0.535942
217,547,4.68579,0.480072,0,0,0,0,0,0,0,-1,1441,477,4.68577,-0.480069
224,547,4.55615,0.739807,0,0,0,0,0,0,0,-1,1448,477,4.55613,-0.73981
231,547,5.90869,-3.57721,0,0,0,0,0,0,0,-1,1455,477,5.90871,3.57722
238,547,5.50049,-3.15356,0,0,0,0,0,0,0,-1,1462,477,5.50045,3.15356
245,547,5.13708,-2.65213,0,0,0,0,0,0,0,-1,1469,477,5.13708,2.65212
252,547,3.73511,-0.645233,0,0,0,0,0,0,0,-1,1476,477,3.73515,0.645237
259,547,5.86816,-3.20816,0,0,0,0,0,0,0,-1,1483,477,5.86815,3.20816
266,547,5.40222,-2.45731,0,0,0,0,0,0,0,-1,1490,477,5.40221,2.45732
273,547,3.05737,0.495789,0,0,0,0,0,0,0,-1,1497,477,3.05742,-0.49578
280,547,2.0885,1.47797,0,0,0,0,0,0,0,-1,1504,477,2.08848,-1.47795
287,547,16.7034,-52.6257,0,0,0,0,0,0,0,-1,1511,477,16.7033,52.6258
294,547,16.8954,-51.6904,0,0,0,0,0,0,0,-1,1518,477,16.8954,51.6904
301,547,16.5122,-48.5859,0,0,0,0,0,0,0,-1,1525,477,16.5122,48.5859
308,547,14.5352,-46.2472,0,0,0,0,0,0,0,-1,1532,477,14.5351,46.2472
315,547,16.3188,-48.3778,0,0,0,0,0,0,0,-1,1539,477,16.3188,48.3778
322,547,17.0029,-52.4161,0,0,0,0,0,0,0,-1,1546,477,17.0029,52.4161
329,547,16.9775,-53.0914,0,0,0,0,0,0,0,-1,1553,477,16.9776,53.0914
336,547,16.9607,-52.7252,0,0,0,0,0,0,0,-1,1560,477,16.9607,52.7252
343,547,16.8677,-51.9413,0,0,0,0,0,0,0,-1,1567,477,16.8677,51.9413
350,547,16.9736,-50.9949,0.00207867,-0.00699912,-0.00488127,0.00420523,-0.00912568,-0.410863,0.00786943,0.0344453,1574,477,16.9736,50.9949
357,547,16.9506,-50.1132,0.00196681,-0.00546256,-0.0038973,0.00363617,-0.00713192,-0.404692,0.00632521,0.016786,1581,477,16.9506,50.1131
364,547,16.9006,-49.2521,0.00180628,-0.00424295,-0.00294473,0.00300301,-0.00543968,-0.386008,0.0049416,0.0113396,1588,477,16.9006,49.2522
371,547,16.8835,-48.36,0.00170345,-0.00316248,-0.00207794,0.00247005,-0.00392907,-0.353428,0.00372641,0.0105562,1595,477,16.8835,48.36
378,547,16.8562,-47.4685,0.00157428,-0.00192965,-0.001304,0.0020063,-0.00236167,-0.319924,0.00252462,0.0112854,1602,477,16.8562,47.4685
385,547,16.7946,-46.5587,0.0014453,-0.000495194,-0.000508926,0.00157067,-0.000620568,-0.24154,0.00130415,0.0117757,1609,477,16.7946,46.5587
392,547,16.7421,-45.6276,0.00127263,0.000545399,9.49306e-05,0.00128482,0.000533211,0.127686,0.000745355,0.0125788,1616,477,16.7421,45.6276
399,547,16.6761,-44.7398,0.00110542,0.00146968,0.000606334,0.00192065,0.000654457,0.9313,0.00112748,0.0148952,1623,477,16.6761,44.7398
406,547,16.6373,-43.8651,0.000907296,0.00227968,0.00107973,0.00287281,0.000314165,1.06846,0.00181955,0.0147722,1630,477,16.6374,43.865
413,547,16.6213,-42.9485,0.000728218,0.00309213,0.00156042,0.0038677,-4.73553e-05,1.10953,0.0025944,0.0141291,1637,477,16.6214,42.9485
420,547,16.6027,-42.0369,0.000509447,0.0035969,0.00194105,0.00453325,-0.000426896,1.12133,0.00317405,0.0164633,1644,477,16.6026,42.0369
427,547,16.5441,-41.1093,0.000383858,0.00393541,0.00236372,0.00511608,-0.000796807,1.10755,0.00370499,0.0173192,1651,477,16.5441,41.1093
434,547,16.4203,-40.1984,0.000301835,0.00422196,0.00280736,0.00568581,-0.00116201,1.09015,0.0042314,0.0115033,1658,477,16.4203,40.1984
441,547,16.3442,-39.2771,0.000219801,0.00451356,0.00333602,0.00633381,-0.00160045,1.07131,0.00484496,0.0112003,1665,477,16.3442,39.2771
448,547,16.2766,-38.3018,0.000154594,0.00470926,0.00390981,0.00695662,-0.00209276,1.04911,0.00547044,0.0122028,1672,477,16.2766,38.3018
455,547,16.2114,-37.3467,7.2258e-05,0.00484211,0.00458603,0.00762628,-0.00271191,1.02517,0.00618947,0.0117595,1679,477,16.2114,37.3467
462,547,16.1227,-36.3808,9.60471e-05,0.00515871,0.00525851,0.00846344,-0.00320868,1.00972,0.00696282,0.0119172,1686,477,16.1227,36.3808
469,547,15.9746,-35.3998,0.000249374,0.00549029,0.00605363,0.00946629,-0.00372662,0.989659,0.00785353,0.0237821,1693,477,15.9746,35.3998
476,547,15.8412,-34.1434,0.000558873,0.00579283,0.0069365,0.0105896,-0.00423789,0.965781,0.00881859,0.0396659,1700,477,15.8411,34.1434
483,547,15.7385,-32.7729,0,0,0,0,0,0,0,-1,1707,477,15.7386,32.7729
490,547,3.65271,-3.71707,0,0,0,0,0,0,0,-1,1714,477,3.65277,3.71708
497,547,2.55481,-3.81421,0,0,0,0,0,0,0,-1,1721,477,2.55476,3.8142
504,547,4.01953,-2.22714,0,0,0,0,0,0,0,-1,1728,477,4.0195,2.22713
511,547,5.2146,-6.9552,0,0,0,0,0,0,0,-1,1735,477,5.21464,6.95521
518,547,5.24243,-6.56122,0,0,0,0,0,0,0,-1,1742,477,5.24241,6.56121
525,547,5.89368,-5.49866,0,0,0,0,0,0,0,-1,1749,477,5.89372,5.49866
532,547,0,0,0,0,0,0,0,0,0,-1,1756,477,0,0
539,547,0,0,0,0,0,0,0,0,0,-1,1763,477,0,0
546,547,0,0,0,0,0,0,0,0,0,-1,1770,477,0,0
553,547,0,0,0,0,0,0,0,0,0,-1,1777,477,0,0
560,547,0,0,0,0,0,0,0,0,0,-1,1784,477,0,0
567,547,0,0,0,0,0,0,0,0,0,-1,1791,477,0,0
574,547,0,0,0,0,0,0,0,0,0,-1,1798,477,0,0
581,547,0,0,0,0,0,0,0,0,0,-1,1805,477,0,0
588,547,0,0,0,0,0,0,0,0,0,-1,1812,477,0,0
595,547,0,0,0,0,0,0,0,0,0,-1,1819,477,0,0
602,547,0,0,0,0,0,0,0,0,0,-1,1826,477,0,0
609,547,0,0,0,0,0,0,0,0,0,-1,1833,477,0,0
616,547,0,0,0,0,0,0,0,0,0,-1,1840,477,0,0
623,547,0,0,0,0,0,0,0,0,0,-1,1847,477,0,0
630,547,0,0,0,0,0,0,0,0,0,-1,1854,477,0,0
637,547,0,0,0,0,0,0,0,0,0,-1,1861,477,0,0
644,547,0,0,0,0,0,0,0,0,0,-1,1868,477,0,0
651,547,0,0,0,0,0,0,0,0,0,-1,1875,477,0,0
658,547,0,0,0,0,0,0,0,0,0,-1,1882,477,0,0
665,547,0,0,0,0,0,0,0,0,0,-1,1889,477,0,0
672,547,0,0,0,0,0,0,0,0,0,-1,1896,477,0,0
679,547,0,0,0,0,0,0,0,0,0,-1,1903,477,0,0
686,547,0,0,0,0,0,0,0,0,0,-1,1910,477,0,0
693,547,0,0,0,0,0,0,0,0,0,-1,1917,477,0,0
700,547,0,0,0,0,0,0,0,0,0,-1,1924,477,0,0
707,547,0,0,0,0,0,0,0,0,0,-1,1931,477,0,0
714,547,0,0,0,0,0,0,0,0,0,-1,1938,477,0,0
721,547,0,0,0,0,0,0,0,0,0,-1,1945,477,0,0
728,547,0,0,0,0,0,0,0,0,0,-1,1952,477,0,0
735,547,0,0,0,0,0,0,0,0,0,-1,1959,477,0,0
742,547,0,0,0,0,0,0,0,0,0,-1,1966,477,0,0
749,547,0,0,0,0,0,0,0,0,0,-1,1973,477,0,0
756,547,0,0,0,0,0,0,0,0,0,-1,1980,477,0,0
763,547,0,0,0,0,0,0,0,0,0,-1,1987,477,0,0
770,547,0,0,0,0,0,0,0,0,0,-1,1994,477,0,0
777,547,0,0,0,0,0,0,0,0,0,-1,2001,477,0,0
784,547,0,0,0,0,0,0,0,0,0,-1,2008,477,0,0
791,547,0,0,0,0,0,0,0,0,0,-1,2015,477,0,0
798,547,0,0,0,0,0,0,0,0,0,-1,2022,477,0,0
805,547,0,0,0,0,0,0,0,0,0,-1,2029,477,0,0
812,547,0,0,0,0,0,0,0,0,0,-1,2036,477,0,0
-700,540,0,0,0,0,0,0,0,0,0,-1,524,484,0,0
-693,540,0,0,0,0,0,0,0,0,0,-1,531,484,0,0
-686,540,0,0,0,0,0,0,0,0,0,-1,538,484,0,0
-679,540,0,0,0,0,0,0,0,0,0,-1,545,484,0,0
-672,540,0,0,0,0,0,0,0,0,0,-1,552,484,0,0
-665,540,0,0,0,0,0,0,0,0,0,-1,559,484,0,0
-658,540,0,0,0,0,0,0,0,0,0,-1,566,484,0,0
-651,540,0,0,0,0,0,0,0,0,0,-1,573,484,0,0
-644,540,0,0,0,0,0,0,0,0,0,-1,580,484,0,0
-637,540,0,0,0,0,0,0,0,0,0,-1,587,484,0,0
-630,540,0,0,0,0,0,0,0,0,0,-1,594,484,0,0
-623,540,0,0,0,0,0,0,0,0,0,-1,601,484,0,0
-616,540,0,0,0,0,0,0,0,0,0,-1,608,484,0,0
-609,540,0,0,0,0,0,0,0,0,0,-1,615,484,0,0
-602,540,0,0,0,0,0,0,0,0,0,-1,622,484,0,0
-595,540,0,0,0,0,0,0,0,0,0,-1,629,484,0,0
-588,540,0,0,0,0,0,0,0,0,0,-1,636,484,0,0
-581,540,0,0,0,0,0,0,0,0,0,-1,643,484,0,0
-574,540,0,0,0,0,0,0,0,0,0,-1,650,484,0,0
-567,540,0,0,0,0,0,0,0,0,0,-1,657,484,0,0
-560,540,0,0,0,0,0,0,0,0,0,-1,664,484,0,0
-553,540,0,0,0,0,0,0,0,0,0,-1,671,484,0,0
-546,540,0,0,0,0,0,0,0,0,0,-1,678,484,0,0
-539,540,0,0,0,0,0,0,0,0,0,-1,685,484,0,0
-532,540,0,0,0,0,0,0,0,0,0,-1,692,484,0,0
-525,540,0,0,0,0,0,0,0,0,0,-1,699,484,0,0
-518,540,0,0,0,0,0,0,0,0,0,-1,706,484,0,0
-511,540,0,0,0,0,0,0,0,0,0,-1,713,484,0,0
-504,540,0,0,0,0,0,0,0,0,0,-1,720,484,0,0
-497,540,0,0,0,0,0,0,0,0,0,-1,727,484,0,0
-490,540,0,0,0,0,0,0,0,0,0,-1,734,484,0,0
-483,540,0,0,0,0,0,0,0,0,0,-1,741,484,0,0
-476,540,0,0,0,0,0,0,0,0,0,-1,748,484,0,0
-469,540,0,0,0,0,0,0,0,0,0,-1,755,484,0,0
-462,540,0,0,0,0,0,0,0,0,0,-1,762,484,0,0
-455,540,0,0,0,0,0,0,0,0,0,-1,769,484,0,0
-448,540,0,0,0,0,0,0,0,0,0,-1,776,484,0,0
-441,540,0,0,0,0,0,0,0,0,0,-1,783,484,0,0
-434,540,0,0,0,0,0,0,0,0,0,-1,790,484,0,0
-427,540,0,0,0,0,0,0,0,0,0,-1,797,484,0,0
-420,540,0.227051,-10.0402,0,0,0,0,0,0,0,-1,804,484,0.227063,10.0402
-413,540,-0.0393677,-10.3862,0,0,0,0,0,0,0,-1,811,484,-0.0393683,10.3862
-406,540,-0.518372,-11.5288,0,0,0,0,0,0,0,-1,818,484,-0.518402,11.5288
-399,540,0.0863037,-11.3801,0,0,0,0,0,0,0,-1,825,484,0.0863201,11.3801
-392,540,-0.517395,-10.6735,0,0,0,0,0,0,0,-1,832,484,-0.517377,10.6735
-385,540,-0.41748,-29.7767,0,0,0,0,0,0,0,-1,839,484,-0.417475,29.7767
-378,540,-0.0524292,-30.2798,0,0,0,0,0,0,0,-1,846,484,-0.0524504,30.2798
-371,540,0.825806,-28.765,0,0,0,0,0,0,0,-1,853,484,0.8258,28.765
-364,540,0.631714,-31.1377,0,0,0,0,0,0,0,-1,860,484,0.631715,31.1377
-357,540,0.307861,-33.2554,0,0,0,0,0,0,0,-1,867,484,0.307877,33.2554
-350,540,0.153748,-34.1474,0.000449617,0.0166453,-0.0103423,0.0216829,-0.00458794,-1.11754,0.0162026,0.0368504,874,484,0.15375,34.1474
-343,540,0.0800781,-35.3862,-0.00014338,0.0140077,-0.00849117,0.0179849,-0.00412058,-1.13275,0.0135736,0.0174674,881,484,0.0800751,35.3862
-336,540,-0.0299072,-36.5337,-0.000392658,0.0119851,-0.00703394,0.0151652,-0.0035728,-1.14619,0.0114878,0.012876,888,484,-0.0299183,36.5337
-329,540,-0.116577,-37.4681,-0.000563823,0.010168,-0.00571593,0.0126421,-0.00303786,-1.16231,0.00960221,0.0106487,895,484,-0.11659,37.4681
-322,540,-0.194092,-38.4081,-0.000751901,0.00830879,-0.00439181,0.0100881,-0.00253123,-1.18586,0.00770894,0.0152043,902,484,-0.194077,38.4081
-315,540,-0.252075,-39.385,-0.000736052,0.00686655,-0.00337039,0.00814555,-0.00201505,-1.2081,0.00621196,0.0135191,909,484,-0.252078,39.385
-308,540,-0.263245,-40.3195,-0.000609165,0.00554367,-0.00250525,0.0064347,-0.00150019,-1.22908,0.00486754,0.0127705,916,484,-0.263239,40.3195
-301,540,-0.36377,-41.2026,-0.000395185,0.00423485,-0.00176088,0.00482844,-0.000988777,-1.24566,0.00359418,0.0138735,923,484,-0.363768,41.2026
-294,540,-0.430969,-42.1172,-9.1811e-05,0.00290927,-0.00100554,0.00321503,-0.000397575,-1.2756,0.00228743,0.0128319,930,484,-0.430963,42.1173
-287,540,-0.467407,-43.0795,0.000252387,0.00157762,-0.00029004,0.00163832,0.00019169,-1.3645,0.00103426,0.00899338,937,484,-0.467425,43.0795
-280,540,-0.543823,-43.9991,0.000511943,-0.000168269,0.000342968,0.000654847,-0.000311174,0.394794,0.000569376,0.0100182,944,484,-0.543829,43.9992
-273,540,-0.569824,-44.9048,0.000648412,-0.00233564,0.00122206,0.00108501,-0.00277223,0.343129,0.0022969,0.0119673,951,484,-0.569806,44.9048
-266,540,-0.610718,-45.7976,0.00091197,-0.00461104,0.00223579,0.00170359,-0.00540266,0.340292,0.00428407,0.0136322,958,484,-0.610748,45.7976
-259,540,-0.678528,-46.6826,0.00107495,-0.00747723,0.0035127,0.00233276,-0.00873504,0.34385,0.00673694,0.0136701,965,484,-0.678551,46.6825
-252,540,-0.705566,-47.5479,0.0010675,-0.0108131,0.00519415,0.0030181,-0.0127637,0.359241,0.00967343,0.0132279,972,484,-0.705555,47.5478
-245,540,-0.723938,-48.4194,0.00110519,-0.0144072,0.00683606,0.00368777,-0.0169898,0.361213,0.012735,0.0135191,979,484,-0.723939,48.4194
-238,540,-0.776794,-49.2842,0.00124229,-0.0185124,0.00864157,0.00448892,-0.021759,0.359384,0.0162108,0.0112983,986,484,-0.776781,49.2842
-231,540,-0.811951,-50.132,0.00146706,-0.0231901,0.0105253,0.00534884,-0.0270719,0.353328,0.0200699,0.0148339,993,484,-0.811934,50.132
-224,540,-0.860291,-50.9159,0.00144941,-0.0280519,0.0127444,0.00619239,-0.0327949,0.35628,0.024193,0.0218951,1000,484,-0.860273,50.9159
-217,540,-0.901428,-51.496,0.00152471,-0.0330366,0.0149909,0.00712083,-0.0386328,0.357281,0.0284276,0.033871,1007,484,-0.901429,51.496
-210,540,-0.944031,-52.0446,0.00176214,-0.0380916,0.0171245,0.00810936,-0.0444389,0.354953,0.0326663,0.0434228,1014,484,-0.94404,52.0446
-203,540,-1.09393,-52.6511,0.00227931,-0.0427756,0.0189535,0.00919198,-0.0496882,0.349726,0.0365765,0.0444063,1021,484,-1.09395,52.6511
-196,540,-1.20435,-53.1036,0,0,0,0,0,0,0,-1,1028,484,-1.20429,53.1036
-189,540,-1.2511,-49.0358,0,0,0,0,0,0,0,-1,1035,484,-1.25113,49.0358
-182,540,-0.826782,-43.3494,0,0,0,0,0,0,0,-1,1042,484,-0.826777,43.3494
-175,540,1.73413,-10.728,0,0,0,0,0,0,0,-1,1049,484,1.73414,10.728
-168,540,1.18164,-7.65347,0,0,0,0,0,0,0,-1,1056,484,1.18163,7.65347
-161,540,-0.405884,-9.86481,0,0,0,0,0,0,0,-1,1063,484,-0.405886,9.8648
-154,540,1.96863,-22.0727,0,0,0,0,0,0,0,-1,1070,484,1.96859,22.0727
-147,540,1.32764,-21.9952,0,0,0,0,0,0,0,-1,1077,484,1.32762,21.9952
-140,540,1.40735,-15.6289,0,0,0,0,0,0,0,-1,1084,484,1.4073,15.6289
-133,540,2.28345,-17.6413,0,0,0,0,0,0,0,-1,1091,484,2.2835,17.6413
-126,540,1.25293,-23.9108,0,0,0,0,0,0,0,-1,1098,484,1.25288,23.9108
-119,540,1.55969,-23.0125,0,0,0,0,0,0,0,-1,1105,484,1.55968,23.0125
-112,540,1.4801,-21.6515,0,0,0,0,0,0,0,-1,1112,484,1.4801,21.6515
-105,540,1.30078,-19.8938,0,0,0,0,0,0,0,-1,1119,484,1.30077,19.8938
-98,540,1.08105,-18.1304,0,0,0,0,0,0,0,-1,1126,484,1.08101,18.1304
-91,540,1.56519,-7.48666,0,0,0,0,0,0,0,-1,1133,484,1.56514,7.48667
-84,540,-0.945923,4.43073,0,0,0,0,0,0,0,-1,1140,484,-0.945891,-4.43074
-77,540,-2.28894,2.14368,0,0,0,0,0,0,0,-1,1147,484,-2.28894,-2.14368
-70,540,-3.75244,-0.452576,0,0,0,0,0,0,0,-1,1154,484,-3.75244,0.452576
-63,540,-5.26257,-3.04767,0,0,0,0,0,0,0,-1,1161,484,-5.26262,3.04766
-56,540,-5.19055,-6.12595,0,0,0,0,0,0,0,-1,1168,484,-5.19057,6.12595
-49,540,-5.63867,-8.52298,0,0,0,0,0,0,0,-1,1175,484,-5.63871,8.52298
-42,540,0,0,0,0,0,0,0,0,0,-1,1182,484,0,0
-35,540,0,0,0,0,0,0,0,0,0,-1,1189,484,0,0
-28,540,0,0,0,0,0,0,0,0,0,-1,1196,484,0,0
-21,540,0,0,0,0,0,0,0,0,0,-1,1203,484,0,0
-14,540,0,0,0,0,0,0,0,0,0,-1,1210,484,0,0
-7,540,0,0,0,0,0,0,0,0,0,-1,1217,484,0,0
0,540,0,0,0,0,0,0,0,0,0,-1,1224,484,0,0
7,540,0,0,0,0,0,0,0,0,0,-1,1231,484,0,0
14,540,0,0,0,0,0,0,0,0,0,-1,1238,484,0,0
21,540,0,0,0,0,0,0,0,0,0,-1,1245,484,0,0
28,540,0,0,0,0,0,0,0,0,0,-1,1252,484,0,0
35,540,0,0,0,0,0,0,0,0,0,-1,1259,484,0,0
42,540,0,0,0,0,0,0,0,0,0,-1,1266,484,0,0
49,540,0,0,0,0,0,0,0,0,0,-1,1273,484,0,0
56,540,0,0,0,0,0,0,0,0,0,-1,1280,484,0,0
63,540,0,0,0,0,0,0,0,0,0,-1,1287,484,0,0
70,540,0,0,0,0,0,0,0,0,0,-1,1294,484,0,0
77,540,0,0,0,0,0,0,0,0,0,-1,1301,484,0,0
84,540,0,0,0,0,0,0,0,0,0,-1,1308,484,0,0
91,540,0,0,0,0,0,0,0,0,0,-1,1315,484,0,0
98,540,0,0,0,0,0,0,0,0,0,-1,1322,484,0,0
105,540,0,0,0,0,0,0,0,0,0,-1,1329,484,0,0
112,540,0,0,0,0,0,0,0,0,0,-1,1336,484,0,0
119,540,0,0,0,0,0,0,0,0,0,-1,1343,484,0,0
126,540,0,0,0,0,0,0,0,0,0,-1,1350,484,0,0
133,540,0,0,0,0,0,0,0,0,0,-1,1357,484,0,0
140,540,0,0,0,0,0,0,0,0,0,-1,1364,484,0,0
147,540,0,0,0,0,0,0,0,0,0,-1,1371,484,0,0
154,540,0,0,0,0,0,0,0,0,0,-1,1378,484,0,0
161,540,0,0,0,0,0,0,0,0,0,-1,1385,484,0,0
168,540,3.05078,-0.0010376,0,0,0,0,0,0,0,-1,1392,484,3.05084,0.00102554
175,540,3.37708,0.617035,0,0,0,0,0,0,0,-1,1399,484,3.37707,-0.617046
182,540,3.32678,1.23267,0,0,0,0,0,0,0,-1,1406,484,3.32678,-1.23266
189,540,3.5813,2.15619,0,0,0,0,0,0,0,-1,1413,484,3.58129,-2.1562
196,540,1.84448,-0.801483,0,0,0,0,0,0,0,-1,1420,484,1.84446,0.80148
203,540,4.14648,0.702087,0,0,0,0,0,0,0,-1,1427,484,4.14645,-0.702089
210,540,4.50671,-0.56076,0,0,0,0,0,0,0,-1,1434,484,4.50667,0.560771
217,540,5.00452,-0.278717,0,0,0,0,0,0,0,-1,1441,484,5.00452,0.278709
224,540,6.44458,-2.83527,0,0,0,0,0,0,0,-1,1448,484,6.44457,2.83525
231,540,6.9231,-3.10504,0,0,0,0,0,0,0,-1,1455,484,6.92307,3.10505
238,540,6.4823,-2.58365,0,0,0,0,0,0,0,-1,1462,484,6.48225,2.58363
245,540,6.02087,-1.97916,0,0,0,0,0,0,0,-1,1469,484,6.02088,1.97915
252,540,6.50647,-3.56006,0,0,0,0,0,0,0,-1,1476,484,6.50649,3.56006
259,540,6.01941,-2.798,0,0,0,0,0,0,0,-1,1483,484,6.01941,2.79801
266,540,5.5332,-2.02853,0,0,0,0,0,0,0,-1,1490,484,5.53323,2.02855
273,540,5.06787,-1.28137,0,0,0,0,0,0,0,-1,1497,484,5.06786,1.28136
280,540,1.62903,-2.14609,0,0,0,0,0,0,0,-1,1504,484,1.62906,2.1461
287,540,1.97156,-2.45053,0,0,0,0,0,0,0,-1,1511,484,1.97159,2.45053
294,540,2.44165,-2.6185,0,0,0,0,0,0,0,-1,1518,484,2.44167,2.6185
301,540,4.36169,-2.54272,0,0,0,0,0,0,0,-1,1525,484,4.36165,2.54272
308,540,4.2019,-4.30469,0,0,0,0,0,0,0,-1,1532,484,4.20193,4.3047
315,540,4.45923,-5.32101,0,0,0,0,0,0,0,-1,1539,484,4.45923,5.32103
322,540,4.71655,-6.33737,0,0,0,0,0,0,0,-1,1546,484,4.71653,6.33736
329,540,15.0289,-44.3801,0,0,0,0,0,0,0,-1,1553,484,15.0289,44.3801
336,540,17.1764,-48.0145,0,0,0,0,0,0,0,-1,1560,484,17.1764,48.0145
343,540,17.5421,-50.0817,0,0,0,0,0,0,0,-1,1567,484,17.5421,50.0817
350,540,17.7679,-51.0904,0,0,0,0,0,0,0,-1,1574,484,17.7679,51.0904
357,540,17.9397,-49.851,0.00176207,-0.00671995,-0.00513135,0.00417815,-0.00913603,-0.440055,0.00786259,0.0391108,1581,484,17.9396,49.851
364,540,17.7542,-49.135,0.0017016,-0.00528601,-0.00402642,0.00353872,-0.00712312,-0.428052,0.0062705,0.0211073,1588,484,17.7541,49.135
371,540,17.7417,-48.2811,0.00173476,-0.00406068,-0.00303951,0.0030365,-0.00536241,-0.404638,0.0049107,0.0163737,1595,484,17.7417,48.2811
378,540,17.7401,-47.4025,0.00173216,-0.00269834,-0.00213281,0.00259201,-0.00355819,-0.383221,0.00356539,0.0134386,1602,484,17.7401,47.4025
385,540,17.6919,-46.5137,0.00171338,-0.00118402,-0.00118613,0.00213702,-0.00160766,-0.343037,0.00216918,0.0143885,1609,484,17.6919,46.5137
392,540,17.6273,-45.5911,0.00156024,-0.000270055,-0.000597721,0.00173815,-0.000447961,-0.28929,0.00133341,0.0134867,1616,484,17.6274,45.5911
399,540,17.5778,-44.7274,0.00135416,0.000558848,-0.000169444,0.00138875,0.000524252,-0.201405,0.000809778,0.0184312,1623,484,17.5778,44.7274
406,540,17.5619,-43.8391,0.00118177,0.00122077,0.000287818,0.00148975,0.000912791,0.819215,0.00086736,0.0202195,1630,484,17.5619,43.8391
413,540,17.5287,-42.923,0.00109392,0.0019954,0.000808355,0.00247019,0.000619128,1.03973,0.00148411,0.0161408,1637,484,17.5287,42.923
420,540,17.498,-41.9594,0.000898319,0.00250451,0.00120488,0.00314941,0.000253418,1.07935,0.00202044,0.0150215,1644,484,17.498,41.9594
427,540,17.4053,-41.0494,0.000714788,0.00287736,0.00158564,0.0037153,-0.00012315,1.08464,0.00251892,0.0160657,1651,484,17.4053,41.0494
434,540,17.317,-40.1501,0.000599661,0.00318502,0.00202198,0.00429222,-0.000507539,1.06981,0.00304479,0.0187856,1658,484,17.317,40.1501
441,540,17.302,-39.1852,0.00050083,0.00355622,0.00254965,0.00500082,-0.000943774,1.05531,0.00368894,0.0209069,1665,484,17.302,39.1852
448,540,17.2236,-38.2427,0.000400638,0.00384351,0.00311444,0.00568059,-0.00143645,1.03787,0.00434575,0.0130935,1672,484,17.2236,38.2427
455,540,17.1539,-37.287,0.000294713,0.00411423,0.0037253,0.00639076,-0.00198182,1.02225,0.00505238,0.0117884,1679,484,17.1539,37.287
462,540,17.0598,-36.3276,0.000361682,0.00448286,0.0043713,0.00725491,-0.00241036,1.00565,0.0058092,0.0112674,1686,484,17.0598,36.3276
469,540,16.9674,-35.3619,0.000554236,0.00488271,0.00513704,0.0082928,-0.00285585,0.984765,0.00668695,0.016998,1693,484,16.9674,35.3619
476,540,16.8939,-34.4314,0.000879078,0.00532493,0.00598546,0.00948692,-0.00328291,0.963198,0.0076572,0.0245454,1700,484,16.8939,34.4314
483,540,16.897,-33.3779,0.00136852,0.00594406,0.00698676,0.0110081,-0.0036955,0.943618,0.00883213,0.0385851,1707,484,16.8969,33.3779
490,540,17.0292,-32.2554,0,0,0,0,0,0,0,-1,1714,484,17.0291,32.2554
497,540,10.3452,-16.9359,0,0,0,0,0,0,0,-1,1721,484,10.3453,16.9359
504,540,12.519,-18.0764,0,0,0,0,0,0,0,-1,1728,484,12.519,18.0765
511,540,5.82471,-6.83521,0,0,0,0,0,0,0,-1,1735,484,5.82465,6.83522
518,540,9.98181,-12.4608,0,0,0,0,0,0,0,-1,1742,484,9.98187,12.4608
525,540,12.4843,-16.3481,0,0,0,0,0,0,0,-1,1749,484,12.4842,16.3481
532,540,2.84265,-1.07925,0,0,0,0,0,0,0,-1,1756,484,2.84269,1.07927
539,540,0,0,0,0,0,0,0,0,0,-1,1763,484,0,0
546,540,0,0,0,0,0,0,0,0,0,-1,1770,484,0,0
553,540,0,0,0,0,0,0,0,0,0,-1,1777,484,0,0
560,540,0,0,0,0,0,0,0,0,0,-1,1784,484,0,0
567,540,0,0,0,0,0,0,0,0,0,-1,1791,484,0,0
574,540,0,0,0,0,0,0,0,0,0,-1,1798,484,0,0
581,540,0,0,0,0,0,0,0,0,0,-1,1805,484,0,0
588,540,0,0,0,0,0,0,0,0,0,-1,1812,484,0,0
595,540,0,0,0,0,0,0,0,0,0,-1,1819,484,0,0
602,540,0,0,0,0,0,0,0,0,0,-1,1826,484,0,0
609,540,0,0,0,0,0,0,0,0,0,-1,1833,484,0,0
616,540,0,0,0,0,0,0,0,0,0,-1,1840,484,0,0
623,540,0,0,0,0,0,0,0,0,0,-1,1847,484,0,0
630,540,0,0,0,0,0,0,0,0,0,-1,1854,484,0,0
637,540,0,0,0,0,0,0,0,0,0,-1,1861,484,0,0
644,540,0,0,0,0,0,0,0,0,0,-1,1868,484,0,0
651,540,0,0,0,0,0,0,0,0,0,-1,1875,484,0,0
658,540,0,0,0,0,0,0,0,0,0,-1,1882,484,0,0
665,540,0,0,0,0,0,0,0,0,0,-1,1889,484,0,0
672,540,0,0,0,0,0,0,0,0,0,-1,1896,484,0,0
679,540,0,0,0,0,0,0,0,0,0,-1,1903,484,0,0
686,540,0,0,0,0,0,0,0,0,0,-1,1910,484,0,0
693,540,0,0,0,0,0,0,0,0,0,-1,1917,484,0,0
700,540,0,0,0,0,0,0,0,0,0,-1,1924,484,0,0
707,540,0,0,0,0,0,0,0,0,0,-1,1931,484,0,0
714,540,0,0,0,0,0,0,0,0,0,-1,1938,484,0,0
721,540,0,0,0,0,0,0,0,0,0,-1,1945,484,0,0
728,540,0,0,0,0,0,0,0,0,0,-1,1952,484,0,0
735,540,0,0,0,0,0,0,0,0,0,-1,1959,484,0,0
742,540,0,0,0,0,0,0,0,0,0,-1,1966,484,0,0
749,540,0,0,0,0,0,0,0,0,0,-1,1973,484,0,0
756,540,0,0,0,0,0,0,0,0,0,-1,1980,484,0,0
763,540,0,0,0,0,0,0,0,0,0,-1,1987,484,0,0
770,540,0,0,0,0,0,0,0,0,0,-1,1994,484,0,0
777,540,0,0,0,0,0,0,0,0,0,-1,2001,484,0,0
784,540,0,0,0,0,0,0,0,0,0,-1,2008,484,0,0
791,540,0,0,0,0,0,0,0,0,0,-1,2015,484,0,0
798,540,0,0,0,0,0,0,0,0,0,-1,2022,484,0,0
805,540,0,0,0,0,0,0,0,0,0,-1,2029,484,0,0
812,540,0,0,0,0,0,0,0,0,0,-1,2036,484,0,0
-700,533,0,0,0,0,0,0,0,0,0,-1,524,491,0,0
-693,533,0,0,0,0,0,0,0,0,0,-1,531,491,0,0
-686,533,0,0,0,0,0,0,0,0,0,-1,538,491,0,0
-679,533,0,0,0,0,0,0,0,0,0,-1,545,491,0,0
-672,533,0,0,0,0,0,0,0,0,0,-1,552,491,0,0
-665,533,0,0,0,0,0,0,0,0,0,-1,559,491,0,0
-658,533,0,0,0,0,0,0,0,0,0,-1,566,491,0,0
-651,533,0,0,0,0,0,0,0,0,0,-1,573,491,0,0
-644,533,0,0,0,0,0,0,0,0,0,-1,580,491,0,0
-637,533,0,0,0,0,0,0,0,0,0,-1,587,491,0,0
-630,533,0,0,0,0,0,0,0,0,0,-1,594,491,0,0
-623,533,0,0,0,0,0,0,0,0,0,-1,601,491,0,0
-616,533,0,0,0,0,0,0,0,0,0,-1,608,491,0,0
-609,533,0,0,0,0,0,0,0,0,0,-1,615,491,0,0
-602,533,0,0,0,0,0,0,0,0,0,-1,622,491,0,0
-595,533,0,0,0,0,0,0,0,0,0,-1,629,491,0,0
-588,533,0,0,0,0,0,0,0,0,0,-1,636,491,0,0
-581,533,0,0,0,0,0,0,0,0,0,-1,643,491,0,0
-574,533,0,0,0,0,0,0,0,0,0,-1,650,491,0,0
-567,533,0,0,0,0,0,0,0,0,0,-1,657,491,0,0
-560,533,0,0,0,0,0,0,0,0,0,-1,664,491,0,0
-553,533,0,0,0,0,0,0,0,0,0,-1,671,491,0,0
-546,533,0,0,0,0,0,0,0,0,0,-1,678,491,0,0
-539,533,0,0,0,0,0,0,0,0,0,-1,685,491,0,0
-532,533,0,0,0,0,0,0,0,0,0,-1,692,491,0,0
-525,533,0,0,0,0,0,0,0,0,0,-1,699,491,0,0
-518,533,0,0,0,0,0,0,0,0,0,-1,706,491,0,0
-511,533,0,0,0,0,0,0,0,0,0,-1,713,491,0,0
-504,533,0,0,0,0,0,0,0,0,0,-1,720,491,0,0
-497,533,0,0,0,0,0,0,0,0,0,-1,727,491,0,0
-490,533,0,0,0,0,0,0,0,0,0,-1,734,491,0,0
-483,533,0,0,0,0,0,0,0,0,0,-1,741,491,0,0
-476,533,0,0,0,0,0,0,0,0,0,-1,748,491,0,0
-469,533,0,0,0,0,0,0,0,0,0,-1,755,491,0,0
-462,533,0,0,0,0,0,0,0,0,0,-1,762,491,0,0
-455,533,0,0,0,0,0,0,0,0,0,-1,769,491,0,0
-448,533,0,0,0,0,0,0,0,0,0,-1,776,491,0,0
-441,533,0,0,0,0,0,0,0,0,0,-1,783,491,0,0
-434,533,0,0,0,0,0,0,0,0,0,-1,790,491,0,0
-427,533,0.559814,-4.40222,0,0,0,0,0,0,0,-1,797,491,0.559816,4.40222
-420,533,-1.11127,-10.9054,0,0,0,0,0,0,0,-1,804,491,-1.11124,10.9054
-413,533,-0.704773,-11.0942,0,0,0,0,0,0,0,-1,811,491,-0.704742,11.0942
-406,533,-0.670898,-12.0899,0,0,0,0,0,0,0,-1,818,491,-0.670908,12.0899
-399,533,-0.455017,-12.4423,0,0,0,0,0,0,0,-1,825,491,-0.455032,12.4423
-392,533,-1.89661,-10.3905,0,0,0,0,0,0,0,-1,832,491,-1.89661,10.3905
-385,533,0.797729,-17.0485,0,0,0,0,0,0,0,-1,839,491,0.797746,17.0485
-378,533,-1.89435,-19.6771,0,0,0,0,0,0,0,-1,846,491,-1.89433,19.6771
-371,533,-0.712585,-30.4664,0,0,0,0,0,0,0,-1,853,491,-0.712577,30.4663
-364,533,-0.646057,-32.2195,0,0,0,0,0,0,0,-1,860,491,-0.646043,32.2195
-357,533,-0.6922,-33.317,0.00159226,0.0163661,-0.0104625,0.0217866,-0.00382824,-1.09278,0.0159543,0.0253732,867,491,-0.69217,33.317
-350,533,-0.789856,-34.3978,0.000844897,0.0136321,-0.00860783,0.017961,-0.00348404,-1.10483,0.0132885,0.0130883,874,491,-0.789877,34.3978
-343,533,-0.866821,-35.455,0.000356477,0.0112049,-0.00697882,0.0146196,-0.0030582,-1.11575,0.0109096,0.0120236,881,491,-0.866817,35.455
-336,533,-0.960022,-36.4669,7.9734e-05,0.00926834,-0.00561582,0.0119297,-0.00258165,-1.12824,0.00893885,0.0164243,888,491,-0.960008,36.4669
-329,533,-1.0235,-37.4183,-0.00012669,0.00754026,-0.0043813,0.00952841,-0.00211484,-1.1448,0.00716206,0.0154027,895,491,-1.02348,37.4183
-322,533,-1.11951,-38.35,-0.000342459,0.00573249,-0.00310763,0.00704055,-0.00165051,-1.17239,0.00532975,0.0126341,902,491,-1.11953,38.35
-315,533,-1.17554,-39.3139,-0.000351645,0.0043591,-0.00211434,0.00516889,-0.00116143,-1.20503,0.00389128,0.0132099,909,491,-1.17553,39.3139
-308,533,-1.21655,-40.2633,-0.000236972,0.00313903,-0.00127827,0.00356842,-0.000666354,-1.24673,0.00262936,0.0122873,916,491,-1.21653,40.2633
-301,533,-1.30359,-41.1652,-4.56232e-05,0.00195723,-0.00055615,0.00210129,-0.000189691,-1.31732,0.00146818,0.0138418,923,491,-1.30357,41.1651
-294,533,-1.34497,-42.0717,0.000256531,0.000827731,0.000169754,0.000874372,0.00020989,1.30266,0.000527071,0.0129078,930,491,-1.34497,42.0717
-287,533,-1.37128,-43.0196,0.000618675,-0.000391618,0.000864995,0.00111522,-0.000888164,0.521117,0.00115913,0.0100586,937,491,-1.3713,43.0196
-280,533,-1.42896,-43.9586,0.000822131,-0.00227416,0.00151603,0.0014408,-0.00289283,0.387459,0.00254841,0.00967308,944,491,-1.42894,43.9586
-273,533,-1.48389,-44.8524,0.000863992,-0.00464772,0.00246815,0.00180766,-0.00559139,0.36519,0.00445414,0.0131742,951,491,-1.48387,44.8523
-266,533,-1.52063,-45.7363,0.00110355,-0.00710307,0.0035769,0.00244371,-0.00844323,0.358482,0.00659605,0.0126983,958,491,-1.52063,45.7363
-259,533,-1.55835,-46.6262,0.00120367,-0.010207,0.00502349,0.00310007,-0.0121034,0.360966,0.00927658,0.013698,965,491,-1.55833,46.6262
-252,533,-1.60565,-47.5076,0.00104886,-0.0140364,0.00698668,0.00378752,-0.0167751,0.373576,0.0126365,0.0182042,972,491,-1.60565,47.5076
-245,533,-1.69336,-48.3596,0.000862606,-0.0184183,0.00897424,0.00439315,-0.0219489,0.374811,0.0162956,0.0263129,979,491,-1.69333,48.3596
-238,533,-1.60876,-49.0306,0.000749947,-0.0235357,0.0112267,0.00514456,-0.0279303,0.373109,0.0205508,0.0286908,986,491,-1.60878,49.0306
-231,533,-1.63806,-49.6055,0.000762493,-0.0294292,0.0136278,0.00600388,-0.0346706,0.367168,0.0253531,0.0381678,993,491,-1.63805,49.6055
-224,533,-1.85535,-50.2435,0.00039477,-0.0358129,0.0166064,0.00685759,-0.0422757,0.371142,0.0307258,0.0480013,1000,491,-1.85532,50.2434
-217,533,-1.79688,-51.2914,0,0,0,0,0,0,0,-1,1007,491,-1.79685,51.2914
-210,533,-1.89685,-51.7101,0,0,0,0,0,0,0,-1,1014,491,-1.89687,51.7102
-203,533,-2.19104,-52.4152,0,0,0,0,0,0,0,-1,1021,491,-2.19106,52.4152
-196,533,-2.22546,-48.6072,0,0,0,0,0,0,0,-1,1028,491,-2.22546,48.6072
-189,533,-1.75317,-43.4744,0,0,0,0,0,0,0,-1,1035,491,-1.75312,43.4744
-182,533,1.26123,-11.4969,0,0,0,0,0,0,0,-1,1042,491,1.26128,11.4969
-175,533,0.937744,-7.36966,0,0,0,0,0,0,0,-1,1049,491,0.937769,7.36965
-168,533,2.64807,-2.7543,0,0,0,0,0,0,0,-1,1056,491,2.64812,2.7543
-161,533,1.91833,-1.76553,0,0,0,0,0,0,0,-1,1063,491,1.91836,1.76554
-154,533,0.376709,-11.0633,0,0,0,0,0,0,0,-1,1070,491,0.376715,11.0632
-147,533,0.383789,-12.1586,0,0,0,0,0,0,0,-1,1077,491,0.383829,12.1586
-140,533,1.14001,-15.4608,0,0,0,0,0,0,0,-1,1084,491,1.14005,15.4608
-133,533,0.189941,-16.0795,0,0,0,0,0,0,0,-1,1091,491,0.18994,16.0795
-126,533,2.89612,-2.59003,0,0,0,0,0,0,0,-1,1098,491,2.89608,2.59003
-119,533,1.78284,-22.5394,0,0,0,0,0,0,0,-1,1105,491,1.78279,22.5394
-112,533,1.83862,-21.2401,0,0,0,0,0,0,0,-1,1112,491,1.83859,21.24
-105,533,1.67554,-19.4018,0,0,0,0,0,0,0,-1,1119,491,1.6755,19.4018
-98,533,-1.39392,-5.16367,0,0,0,0,0,0,0,-1,1126,491,-1.39394,5.16367
-91,533,0.367432,4.49753,0,0,0,0,0,0,0,-1,1133,491,0.367468,-4.49754
-84,533,-0.88623,3.03604,0,0,0,0,0,0,0,-1,1140,491,-0.886288,-3.03605
-77,533,0,0,0,0,0,0,0,0,0,-1,1147,491,0,0
-70,533,0,0,0,0,0,0,0,0,0,-1,1154,491,0,0
-63,533,0,0,0,0,0,0,0,0,0,-1,1161,491,0,0
-56,533,0,0,0,0,0,0,0,0,0,-1,1168,491,0,0
-49,533,0,0,0,0,0,0,0,0,0,-1,1175,491,0,0
-42,533,0,0,0,0,0,0,0,0,0,-1,1182,491,0,0
-35,533,0,0,0,0,0,0,0,0,0,-1,1189,491,0,0
-28,533,0,0,0,0,0,0,0,0,0,-1,1196,491,0,0
-21,533,0,0,0,0,0,0,0,0,0,-1,1203,491,0,0
-14,533,0,0,0,0,0,0,0,0,0,-1,1210,491,0,0
-7,533,0,0,0,0,0,0,0,0,0,-1,1217,491,0,0
0,533,0,0,0,0,0,0,0,0,0,-1,1224,491,0,0
7,533,0,0,0,0,0,0,0,0,0,-1,1231,491,0,0
14,533,0,0,0,0,0,0,0,0,0,-1,1238,491,0,0
21,533,0,0,0,0,0,0,0,0,0,-1,1245,491,0,0
28,533,0,0,0,0,0,0,0,0,0,-1,1252,491,0,0
35,533,0,0,0,0,0,0,0,0,0,-1,1259,491,0,0
42,533,0,0,0,0,0,0,0,0,0,-1,1266,491,0,0
49,533,0,0,0,0,0,0,0,0,0,-1,1273,491,0,0
56,533,0,0,0,0,0,0,0,0,0,-1,1280,491,0,0
63,533,0,0,0,0,0,0,0,0,0,-1,1287,491,0,0
70,533,0,0,0,0,0,0,0,0,0,-1,1294,491,0,0
77,533,0,0,0,0,0,0,0,0,0,-1,1301,491,0,0
84,533,0,0,0,0,0,0,0,0,0,-1,1308,491,0,0
91,533,0,0,0,0,0,0,0,0,0,-1,1315,491,0,0
98,533,0,0,0,0,0,0,0,0,0,-1,1322,491,0,0
105,533,0,0,0,0,0,0,0,0,0,-1,1329,491,0,0
112,533,0,0,0,0,0,0,0,0,0,-1,1336,491,0,0
119,533,0,0,0,0,0,0,0,0,0,-1,1343,491,0,0
126,533,0,0,0,0,0,0,0,0,0,-1,1350,491,0,0
133,533,0,0,0,0,0,0,0,0,0,-1,1357,491,0,0
140,533,0,0,0,0,0,0,0,0,0,-1,1364,491,0,0
147,533,0,0,0,0,0,0,0,0,0,-1,1371,491,0,0
154,533,0,0,0,0,0,0,0,0,0,-1,1378,491,0,0
161,533,0,0,0,0,0,0,0,0,0,-1,1385,491,0,0
168,533,0,0,0,0,0,0,0,0,0,-1,1392,491,0,0
175,533,0,0,0,0,0,0,0,0,0,-1,1399,491,0,0
182,533,0,0,0,0,0,0,0,0,0,-1,1406,491,0,0
189,533,0,0,0,0,0,0,0,0,0,-1,1413,491,0,0
196,533,0,0,0,0,0,0,0,0,0,-1,1420,491,0,0
203,533,3.7887,1.16193,0,0,0,0,0,0,0,-1,1427,491,3.78872,-1.16193
210,533,5.09558,-0.216034,0,0,0,0,0,0,0,-1,1434,491,5.09559,0.216028
217,533,6.91614,-2.46814,0,0,0,0,0,0,0,-1,1441,491,6.91618,2.46814
224,533,7.23621,-2.1857,0,0,0,0,0,0,0,-1,1448,491,7.23621,2.1857
231,533,7.23474,-1.92282,0,0,0,0,0,0,0,-1,1455,491,7.2347,1.92282
238,533,7.23535,-1.67258,0,0,0,0,0,0,0,-1,1462,491,7.23539,1.67258
245,533,6.86682,-1.2301,0,0,0,0,0,0,0,-1,1469,491,6.86686,1.23011
252,533,6.63354,-3.07825,0,0,0,0,0,0,0,-1,1476,491,6.6335,3.07824
259,533,6.16431,-2.35037,0,0,0,0,0,0,0,-1,1483,491,6.1643,2.35037
266,533,5.68884,-1.6214,0,0,0,0,0,0,0,-1,1490,491,5.68885,1.6214
273,533,5.21399,-0.864227,0,0,0,0,0,0,0,-1,1497,491,5.21403,0.864227
280,533,1.41089,-1.97946,0,0,0,0,0,0,0,-1,1504,491,1.41087,1.97946
287,533,1.6814,-2.44443,0,0,0,0,0,0,0,-1,1511,491,1.6814,2.44444
294,533,2.2384,-2.57626,0,0,0,0,0,0,0,-1,1518,491,2.23839,2.57625
301,533,3.39941,-4.0817,0,0,0,0,0,0,0,-1,1525,491,3.3994,4.08171
308,533,4.13733,-4.14752,0,0,0,0,0,0,0,-1,1532,491,4.13727,4.14752
315,533,4.80762,-5.29349,0,0,0,0,0,0,0,-1,1539,491,4.80762,5.29347
322,533,5.47803,-6.43942,0,0,0,0,0,0,0,-1,1546,491,5.47798,6.43943
329,533,3.88477,-3.86301,0,0,0,0,0,0,0,-1,1553,491,3.88475,3.86299
336,533,14.5214,-40.908,0,0,0,0,0,0,0,-1,1560,491,14.5214,40.908
343,533,16.3387,-44.9998,0,0,0,0,0,0,0,-1,1567,491,16.3387,44.9998
350,533,17.6749,-47.6289,0,0,0,0,0,0,0,-1,1574,491,17.6749,47.6289
357,533,18.9136,-49.5609,0,0,0,0,0,0,0,-1,1581,491,18.9136,49.5609
364,533,18.9104,-48.8959,0,0,0,0,0,0,0,-1,1588,491,18.9104,48.896
371,533,18.6028,-48.2126,0,0,0,0,0,0,0,-1,1595,491,18.6028,48.2126
378,533,18.6329,-47.2899,0,0,0,0,0,0,0,-1,1602,491,18.6329,47.2899
385,533,18.6016,-46.4183,0.00205344,-0.000978436,-0.00158653,0.00273184,-0.00165684,-0.404073,0.00255902,0.0394064,1609,491,18.6016,46.4183
392,533,18.5563,-45.5666,0.00185857,-0.000258148,-0.00102683,0.00227483,-0.000674411,-0.38514,0.00178436,0.0175459,1616,491,18.5562,45.5666
399,533,18.5374,-44.6931,0.00155886,0.000405186,-0.000711373,0.00189788,6.61667e-05,-0.444728,0.00124378,0.0144206,1623,491,18.5373,44.6931
406,533,18.5046,-43.7823,0.00137678,0.000844606,-0.000304137,0.0015148,0.000706588,-0.426012,0.000875227,0.0179629,1630,491,18.5047,43.7824
413,533,18.4567,-42.8355,0.00136192,0.00150717,0.000217994,0.00166432,0.00120477,0.946196,0.000992484,0.0157963,1637,491,18.4566,42.8355
420,533,18.3794,-41.9059,0.00117458,0.00193776,0.000593569,0.00226182,0.000850528,1.07107,0.00131917,0.0148498,1644,491,18.3793,41.9059
427,533,18.2988,-40.9659,0.000932506,0.0022483,0.000901685,0.00270659,0.000474221,1.10057,0.00166893,0.015004,1651,491,18.2988,40.9659
434,533,18.2405,-40.0734,0.000786344,0.00249919,0.00129029,0.00319142,9.41163e-05,1.07839,0.00209694,0.013301,1658,491,18.2405,40.0733
441,533,18.2402,-39.1354,0.000685391,0.00284087,0.00177585,0.00384043,-0.000314166,1.05813,0.00267117,0.0161507,1665,491,18.2402,39.1354
448,533,18.1785,-38.1962,0.000597179,0.00311646,0.00230535,0.00448386,-0.000770216,1.03544,0.00327629,0.0182273,1672,491,18.1784,38.1963
455,533,18.0907,-37.2252,0.000505663,0.00341051,0.00286819,0.00517306,-0.00125688,1.01977,0.00393515,0.0181909,1679,491,18.0907,37.2251
462,533,17.9944,-36.242,0.000596246,0.00378429,0.00347099,0.00600977,-0.00162924,1.00065,0.00464582,0.0152585,1686,491,17.9944,36.242
469,533,17.9359,-35.3212,0.000805124,0.00420067,0.00418536,0.00701949,-0.0020137,0.97808,0.00547574,0.00976454,1693,491,17.9359,35.3212
476,533,17.9001,-34.3244,0.00111917,0.00469073,0.00497247,0.00818836,-0.00237846,0.957792,0.00640076,0.0127346,1700,491,17.9002,34.3244
483,533,17.8795,-33.3006,0.00156335,0.00536572,0.00589824,0.00966161,-0.00273254,0.941306,0.00751928,0.0228466,1707,491,17.8795,33.3006
490,533,17.9263,-32.1411,0,0,0,0,0,0,0,-1,1714,491,17.9263,32.141
497,533,17.558,-30.4831,0,0,0,0,0,0,0,-1,1721,491,17.5579,30.4831
504,533,14.6896,-22.6455,0,0,0,0,0,0,0,-1,1728,491,14.6895,22.6455
511,533,13.6221,-19.2798,0,0,0,0,0,0,0,-1,1735,491,13.6221,19.2798
518,533,14.1954,-19.4995,0,0,0,0,0,0,0,-1,1742,491,14.1955,19.4995
525,533,13.7935,-19.6901,0,0,0,0,0,0,0,-1,1749,491,13.7934,19.6901
532,533,15.4377,-17.9016,0,0,0,0,0,0,0,-1,1756,491,15.4377,17.9015
539,533,12.8733,-18.2556,0,0,0,0,0,0,0,-1,1763,491,12.8733,18.2556
546,533,3.59607,1.65799,0,0,0,0,0,0,0,-1,1770,491,3.59605,-1.658
553,533,0,0,0,0,0,0,0,0,0,-1,1777,491,0,0
560,533,0,0,0,0,0,0,0,0,0,-1,1784,491,0,0
567,533,0,0,0,0,0,0,0,0,0,-1,1791,491,0,0
574,533,0,0,0,0,0,0,0,0,0,-1,1798,491,0,0
581,533,0,0,0,0,0,0,0,0,0,-1,1805,491,0,0
588,533,0,0,0,0,0,0,0,0,0,-1,1812,491,0,0
595,533,0,0,0,0,0,0,0,0,0,-1,1819,491,0,0
602,533,0,0,0,0,0,0,0,0,0,-1,1826,491,0,0
609,533,0,0,0,0,0,0,0,0,0,-1,1833,491,0,0
616,533,0,0,0,0,0,0,0,0,0,-1,1840,491,0,0
623,533,0,0,0,0,0,0,0,0,0,-1,1847,491,0,0
630,533,0,0,0,0,0,0,0,0,0,-1,1854,491,0,0
637,533,0,0,0,0,0,0,0,0,0,-1,1861,491,0,0
644,533,0,0,0,0,0,0,0,0,0,-1,1868,491,0,0
651,533,0,0,0,0,0,0,0,0,0,-1,1875,491,0,0
658,533,0,0,0,0,0,0,0,0,0,-1,1882,491,0,0
665,533,0,0,0,0,0,0,0,0,0,-1,1889,491,0,0
672,533,0,0,0,0,0,0,0,0,0,-1,1896,491,0,0
679,533,0,0,0,0,0,0,0,0,0,-1,1903,491,0,0
686,533,0,0,0,0,0,0,0,0,0,-1,1910,491,0,0
693,533,0,0,0,0,0,0,0,0,0,-1,1917,491,0,0
700,533,0,0,0,0,0,0,0,0,0,-1,1924,491,0,0
707,533,0,0,0,0,0,0,0,0,0,-1,1931,491,0,0
714,533,0,0,0,0,0,0,0,0,0,-1,1938,491,0,0
721,533,0,0,0,0,0,0,0,0,0,-1,1945,491,0,0
728,533,0,0,0,0,0,0,0,0,0,-1,1952,491,0,0
735,533,0,0,0,0,0,0,0,0,0,-1,1959,491,0,0
742,533,0,0,0,0,0,0,0,0,0,-1,1966,491,0,0
749,533,0,0,0,0,0,0,0,0,0,-1,1973,491,0,0
756,533,0,0,0,0,0,0,0,0,0,-1,1980,491,0,0
763,533,0,0,0,0,0,0,0,0,0,-1,1987,491,0,0
770,533,0,0,0,0,0,0,0,0,0,-1,1994,491,0,0
777,533,0,0,0,0,0,0,0,0,0,-1,2001,491,0,0
784,533,0,0,0,0,0,0,0,0,0,-1,2008,491,0,0
791,533,0,0,0,0,0,0,0,0,0,-1,2015,491,0,0
798,533,0,0,0,0,0,0,0,0,0,-1,2022,491,0,0
805,533,0,0,0,0,0,0,0,0,0,-1,2029,491,0,0
812,533,0,0,0,0,0,0,0,0,0,-1,2036,491,0,0
-700,526,0,0,0,0,0,0,0,0,0,-1,524,498,0,0
-693,526,0,0,0,0,0,0,0,0,0,-1,531,498,0,0
-686,526,0,0,0,0,0,0,0,0,0,-1,538,498,0,0
-679,526,0,0,0,0,0,0,0,0,0,-1,545,498,0,0
-672,526,0,0,0,0,0,0,0,0,0,-1,552,498,0,0
-665,526,0,0,0,0,0,0,0,0,0,-1,559,498,0,0
-658,526,0,0,0,0,0,0,0,0,0,-1,566,498,0,0
-651,526,0,0,0,0,0,0,0,0,0,-1,573,498,0,0
-644,526,0,0,0,0,0,0,0,0,0,-1,580,498,0,0
-637,526,0,0,0,0,0,0,0,0,0,-1,587,498,0,0
-630,526,0,0,0,0,0,0,0,0,0,-1,594,498,0,0
-623,526,0,0,0,0,0,0,0,0,0,-1,601,498,0,0
-616,526,0,0,0,0,0,0,0,0,0,-1,608,498,0,0
-609,526,0,0,0,0,0,0,0,0,0,-1,615,498,0,0
-602,526,0,0,0,0,0,0,0,0,0,-1,622,498,0,0
-595,526,0,0,0,0,0,0,0,0,0,-1,629,498,0,0
-588,526,0,0,0,0,0,0,0,0,0,-1,636,498,0,0
-581,526,0,0,0,0,0,0,0,0,0,-1,643,498,0,0
-574,526,0,0,0,0,0,0,0,0,0,-1,650,498,0,0
-567,526,0,0,0,0,0,0,0,0,0,-1,657,498,0,0
-560,526,0,0,0,0,0,0,0,0,0,-1,664,498,0,0
-553,526,0,0,0,0,0,0,0,0,0,-1,671,498,0,0
-546,526,0,0,0,0,0,0,0,0,0,-1,678,498,0,0
-539,526,0,0,0,0,0,0,0,0,0,-1,685,498,0,0
-532,526,0,0,0,0,0,0,0,0,0,-1,692,498,0,0
-525,526,0,0,0,0,0,0,0,0,0,-1,699,498,0,0
-518,526,0,0,0,0,0,0,0,0,0,-1,706,498,0,0
-511,526,0,0,0,0,0,0,0,0,0,-1,713,498,0,0
-504,526,0,0,0,0,0,0,0,0,0,-1,720,498,0,0
-497,526,0,0,0,0,0,0,0,0,0,-1,727,498,0,0
-490,526,0,0,0,0,0,0,0,0,0,-1,734,498,0,0
-483,526,0,0,0,0,0,0,0,0,0,-1,741,498,0,0
-476,526,0,0,0,0,0,0,0,0,0,-1,748,498,0,0
-469,526,0,0,0,0,0,0,0,0,0,-1,755,498,0,0
-462,526,0,0,0,0,0,0,0,0,0,-1,762,498,0,0
-455,526,0,0,0,0,0,0,0,0,0,-1,769,498,0,0
-448,526,0,0,0,0,0,0,0,0,0,-1,776,498,0,0
-441,526,0,0,0,0,0,0,0,0,0,-1,783,498,0,0
-434,526,-0.153564,-5.96649,0,0,0,0,0,0,0,-1,790,498,-0.153589,5.9665
-427,526,1.23206,-4.59808,0,0,0,0,0,0,0,-1,797,498,1.23208,4.59809
-420,526,-1.76373,-11.6241,0,0,0,0,0,0,0,-1,804,498,-1.76373,11.6241
-413,526,-1.38965,-11.7916,0,0,0,0,0,0,0,-1,811,498,-1.38963,11.7916
-406,526,-1.35187,-12.5182,0,0,0,0,0,0,0,-1,818,498,-1.35185,12.5181
-399,526,-1.32715,-13.2116,0,0,0,0,0,0,0,-1,825,498,-1.32713,13.2116
-392,526,0.197571,-15.303,0,0,0,0,0,0,0,-1,832,498,0.197598,15.303
-385,526,-2.69397,-19.6176,0,0,0,0,0,0,0,-1,839,498,-2.69399,19.6176
-378,526,-1.92737,-29.3869,0,0,0,0,0,0,0,-1,846,498,-1.92738,29.3869
-371,526,-1.58289,-30.9488,0,0,0,0,0,0,0,-1,853,498,-1.58286,30.9488
-364,526,-1.65656,-32.2825,0.00204518,0.0157014,-0.0100626,0.0210338,-0.00328721,-1.0835,0.015237,0.0233155,860,498,-1.65653,32.2826
-357,526,-1.68811,-33.394,0.00151178,0.013096,-0.00843167,0.0175334,-0.00292555,-1.08635,0.0127762,0.0133531,867,498,-1.6881,33.394
-350,526,-1.73376,-34.4183,0.000988415,0.010761,-0.00688153,0.0143145,-0.00256517,-1.09412,0.010503,0.0124664,874,498,-1.73378,34.4183
-343,526,-1.83368,-35.386,0.000644892,0.008596,-0.00548519,0.0113948,-0.00215395,-1.09898,0.00840703,0.0166065,881,498,-1.8337,35.3861
-336,526,-1.90875,-36.3578,0.000392412,0.00678822,-0.00423476,0.0088969,-0.00171626,-1.10879,0.00657841,0.0172775,888,498,-1.90875,36.3578
-329,526,-1.95782,-37.345,0.000189484,0.00517644,-0.00309502,0.00665745,-0.00129153,-1.12448,0.00492558,0.0176351,895,498,-1.95781,37.345
-322,526,-2.03009,-38.2804,-1.45305e-05,0.00349324,-0.00190996,0.00433243,-0.000853728,-1.15681,0.00321092,0.0112071,902,498,-2.03011,38.2804
-315,526,-2.10114,-39.2502,-2.81341e-05,0.00221453,-0.000967992,0.00257455,-0.00038815,-1.21473,0.0018593,0.00968144,909,498,-2.10113,39.2503
-308,526,-2.16431,-40.2233,8.7177e-05,0.00110565,-0.00018124,0.00113694,5.58865e-05,-1.39983,0.000740038,0.0091764,916,498,-2.16429,40.2232
-301,526,-2.24127,-41.129,0.000268707,6.38187e-05,0.00049861,0.000675288,-0.000342762,0.684078,0.000598131,0.0102571,923,498,-2.24128,41.1289
-294,526,-2.26941,-42.0254,0.000572395,-0.000857993,0.00117156,0.00122981,-0.0015154,0.511359,0.0015878,0.0102705,930,498,-2.2694,42.0254
-287,526,-2.31519,-42.9316,0.000953664,-0.00196145,0.00182777,0.00183389,-0.00284167,0.448806,0.00272026,0.0107919,937,498,-2.31516,42.9316
-280,526,-2.38293,-43.8615,0.00110813,-0.00401378,0.00249513,0.00212267,-0.00502832,0.38619,0.00424071,0.0142838,944,498,-2.38295,43.8614
-273,526,-2.4209,-44.7945,0.00106641,-0.00666595,0.00350915,0.00242148,-0.00802102,0.368513,0.0063113,0.0124442,951,498,-2.42093,44.7945
-266,526,-2.44873,-45.6884,0.00129649,-0.00940908,0.00473131,0.00308776,-0.0112004,0.361924,0.00868117,0.0189488,958,498,-2.44876,45.6884
-259,526,-2.43982,-46.5866,0.00133772,-0.0128692,0.00640128,0.00379645,-0.0153279,0.366725,0.0116914,0.049054,965,498,-2.4398,46.5866
-252,526,-2.4967,-47.5128,0,0,0,0,0,0,0,-1,972,498,-2.49672,47.5128
-245,526,-2.5976,-48.3376,0,0,0,0,0,0,0,-1,979,498,-2.59762,48.3376
-238,526,-1.8446,-48.0565,0,0,0,0,0,0,0,-1,986,498,-1.84458,48.0564
-231,526,-2.1416,-48.6826,0,0,0,0,0,0,0,-1,993,498,-2.14159,48.6826
-224,526,-2.71191,-49.6318,0,0,0,0,0,0,0,-1,1000,498,-2.71189,49.6318
-217,526,-2.39459,-50.3551,0,0,0,0,0,0,0,-1,1007,498,-2.39458,50.3551
-210,526,-1.77289,-44.7313,0,0,0,0,0,0,0,-1,1014,498,-1.77289,44.7313
-203,526,-0.659302,-18.8818,0,0,0,0,0,0,0,-1,1021,498,-0.659273,18.8818
-196,526,-0.328247,-12.179,0,0,0,0,0,0,0,-1,1028,498,-0.328238,12.179
-189,526,0.401245,-5.96826,0,0,0,0,0,0,0,-1,1035,498,0.401197,5.96826
-182,526,1.7323,-2.99405,0,0,0,0,0,0,0,-1,1042,498,1.73226,2.99404
-175,526,2.27637,-2.07983,0,0,0,0,0,0,0,-1,1049,498,2.27639,2.07984
-168,526,2.12036,-1.66049,0,0,0,0,0,0,0,-1,1056,498,2.12035,1.66048
-161,526,2.09082,-1.20572,0,0,0,0,0,0,0,-1,1063,498,2.09086,1.2057
-154,526,-1.3446,-5.37799,0,0,0,0,0,0,0,-1,1070,498,-1.34457,5.37799
-147,526,-0.472656,-6.64996,0,0,0,0,0,0,0,-1,1077,498,-0.472659,6.64997
-140,526,0.422852,-8.03339,0,0,0,0,0,0,0,-1,1084,498,0.422844,8.0334
-133,526,1.09583,-9.2215,0,0,0,0,0,0,0,-1,1091,498,1.09581,9.2215
-126,526,3.42529,-2.36053,0,0,0,0,0,0,0,-1,1098,498,3.42523,2.36052
-119,526,2.7771,-0.764099,0,0,0,0,0,0,0,-1,1105,498,2.7771,0.764107
-112,526,2.57715,-1.1893,0,0,0,0,0,0,0,-1,1112,498,2.57718,1.1893
-105,526,0,0,0,0,0,0,0,0,0,-1,1119,498,0,0
-98,526,0,0,0,0,0,0,0,0,0,-1,1126,498,0,0
-91,526,0,0,0,0,0,0,0,0,0,-1,1133,498,0,0
-84,526,0,0,0,0,0,0,0,0,0,-1,1140,498,0,0
-77,526,0,0,0,0,0,0,0,0,0,-1,1147,498,0,0
-70,526,0,0,0,0,0,0,0,0,0,-1,1154,498,0,0
-63,526,0,0,0,0,0,0,0,0,0,-1,1161,498,0,0
-56,526,0,0,0,0,0,0,0,0,0,-1,1168,498,0,0
-49,526,0,0,0,0,0,0,0,0,0,-1,1175,498,0,0
-42,526,0,0,0,0,0,0,0,0,0,-1,1182,498,0,0
-35,526,0,0,0,0,0,0,0,0,0,-1,1189,498,0,0
-28,526,0,0,0,0,0,0,0,0,0,-1,1196,498,0,0
-21,526,0,0,0,0,0,0,0,0,0,-1,1203,498,0,0
-14,526,0,0,0,0,0,0,0,0,0,-1,1210,498,0,0
-7,526,0,0,0,0,0,0,0,0,0,-1,1217,498,0,0
0,526,0,0,0,0,0,0,0,0,0,-1,1224,498,0,0
7,526,0,0,0,0,0,0,0,0,0,-1,1231,498,0,0
14,526,0,0,0,0,0,0,0,0,0,-1,1238,498,0,0
21,526,0,0,0,0,0,0,0,0,0,-1,1245,498,0,0
28,526,0,0,0,0,0,0,0,0,0,-1,1252,498,0,0
35,526,0,0,0,0,0,0,0,0,0,-1,1259,498,0,0
42,526,0,0,0,0,0,0,0,0,0,-1,1266,498,0,0
49,526,0,0,0,0,0,0,0,0,0,-1,1273,498,0,0
56,526,0,0,0,0,0,0,0,0,0,-1,1280,498,0,0
63,526,0,0,0,0,0,0,0,0,0,-1,1287,498,0,0
70,526,0,0,0,0,0,0,0,0,0,-1,1294,498,0,0
77,526,0,0,0,0,0,0,0,0,0,-1,1301,498,0,0
84,526,0,0,0,0,0,0,0,0,0,-1,1308,498,0,0
91,526,0,0,0,0,0,0,0,0,0,-1,1315,498,0,0
98,526,0,0,0,0,0,0,0,0,0,-1,1322,498,0,0
105,526,0,0,0,0,0,0,0,0,0,-1,1329,498,0,0
112,526,0,0,0,0,0,0,0,0,0,-1,1336,498,0,0
119,526,0,0,0,0,0,0,0,0,0,-1,1343,498,0,0
126,526,0,0,0,0,0,0,0,0,0,-1,1350,498,0,0
133,526,0,0,0,0,0,0,0,0,0,-1,1357,498,0,0
140,526,0,0,0,0,0,0,0,0,0,-1,1364,498,0,0
147,526,0,0,0,0,0,0,0,0,0,-1,1371,498,0,0
154,526,0,0,0,0,0,0,0,0,0,-1,1378,498,0,0
161,526,0,0,0,0,0,0,0,0,0,-1,1385,498,0,0
168,526,0,0,0,0,0,0,0,0,0,-1,1392,498,0,0
175,526,0,0,0,0,0,0,0,0,0,-1,1399,498,0,0
182,526,0,0,0,0,0,0,0,0,0,-1,1406,498,0,0
189,526,0,0,0,0,0,0,0,0,0,-1,1413,498,0,0
196,526,0,0,0,0,0,0,0,0,0,-1,1420,498,0,0
203,526,0,0,0,0,0,0,0,0,0,-1,1427,498,0,0
210,526,0,0,0,0,0,0,0,0,0,-1,1434,498,0,0
217,526,0,0,0,0,0,0,0,0,0,-1,1441,498,0,0
224,526,0,0,0,0,0,0,0,0,0,-1,1448,498,0,0
231,526,7.93237,-1.30618,0,0,0,0,0,0,0,-1,1455,498,7.93238,1.30618
238,526,7.97717,-1.08197,0,0,0,0,0,0,0,-1,1462,498,7.97723,1.08196
245,526,7.2793,-0.792938,0,0,0,0,0,0,0,-1,1469,498,7.27931,0.792926
252,526,6.73523,-2.23608,0,0,0,0,0,0,0,-1,1476,498,6.73525,2.23608
259,526,6.22949,-1.84967,0,0,0,0,0,0,0,-1,1483,498,6.22953,1.84968
266,526,5.72375,-1.46329,0,0,0,0,0,0,0,-1,1490,498,5.72381,1.46328
273,526,4.33984,0.49173,0,0,0,0,0,0,0,-1,1497,498,4.33979,-0.491727
280,526,1.4585,-1.59897,0,0,0,0,0,0,0,-1,1504,498,1.45846,1.59895
287,526,1.46411,-2.40134,0,0,0,0,0,0,0,-1,1511,498,1.46406,2.40133
294,526,5.57471,-4.59085,0,0,0,0,0,0,0,-1,1518,498,5.57466,4.59084
301,526,4.42786,-3.99677,0,0,0,0,0,0,0,-1,1525,498,4.42788,3.99676
308,526,5.79529,-4.19366,0,0,0,0,0,0,0,-1,1532,498,5.79528,4.19368
315,526,5.09851,-5.20068,0,0,0,0,0,0,0,-1,1539,498,5.09851,5.20068
322,526,5.50708,-4.72348,0,0,0,0,0,0,0,-1,1546,498,5.50713,4.72347
329,526,3.88672,-4.345,0,0,0,0,0,0,0,-1,1553,498,3.88674,4.34501
336,526,4.97876,-2.23828,0,0,0,0,0,0,0,-1,1560,498,4.97877,2.23828
343,526,3.31665,-2.69696,0,0,0,0,0,0,0,-1,1567,498,3.31667,2.69696
350,526,6.06287,-6.12015,0,0,0,0,0,0,0,-1,1574,498,6.06286,6.12014
357,526,18.325,-47.38,0,0,0,0,0,0,0,-1,1581,498,18.325,47.38
364,526,20.1177,-48.8608,0,0,0,0,0,0,0,-1,1588,498,20.1177,48.8608
371,526,12.4481,-29.0131,0,0,0,0,0,0,0,-1,1595,498,12.4481,29.0131
378,526,18.8525,-47.0636,0,0,0,0,0,0,0,-1,1602,498,18.8525,47.0636
385,526,19.3768,-46.5762,0,0,0,0,0,0,0,-1,1609,498,19.3768,46.5762
392,526,19.4526,-45.563,0,0,0,0,0,0,0,-1,1616,498,19.4527,45.563
399,526,19.3745,-44.6604,0.00170611,0.000724742,-0.00112847,0.00244596,-1.51076e-05,-0.580317,0.0016357,0.0356072,1623,498,19.3745,44.6604
406,526,19.4128,-43.6954,0.00155048,0.000899746,-0.00078172,0.00207184,0.000378385,-0.588192,0.00127397,0.014199,1630,498,19.4128,43.6954
413,526,19.3702,-42.7914,0.00162788,0.00140486,-0.000275981,0.00181403,0.00121871,-0.593407,0.00106774,0.0135761,1637,498,19.3702,42.7914
420,526,19.2909,-41.8721,0.00145221,0.00170736,6.10065e-05,0.00172119,0.00143837,1.34777,0.00106577,0.0148632,1644,498,19.2909,41.8721
427,526,19.2329,-40.9478,0.00115643,0.00190201,0.000286834,0.00199958,0.00105885,1.24289,0.00115513,0.0150474,1651,498,19.233,40.9478
434,526,19.1725,-40.0042,0.000973861,0.00205473,0.000613403,0.00233181,0.000696779,1.14652,0.00138212,0.0130942,1658,498,19.1725,40.0042
441,526,19.115,-39.0543,0.000865656,0.0023068,0.00103762,0.00284951,0.000322948,1.08889,0.0018017,0.0118342,1665,498,19.115,39.0543
448,526,19.0963,-38.1382,0.000784706,0.00252054,0.0015213,0.00340409,-9.88407e-05,1.04463,0.00230305,0.0111257,1672,498,19.0963,38.1382
455,526,19.0281,-37.1874,0.000699343,0.00278623,0.00203717,0.00403164,-0.000546063,1.02208,0.00288704,0.0150244,1679,498,19.0281,37.1875
462,526,18.9524,-36.2239,0.000798873,0.00315661,0.00260414,0.00483629,-0.000880803,0.997943,0.00355436,0.0113683,1686,498,18.9524,36.2239
469,526,18.912,-35.2805,0.00100501,0.0035666,0.0032747,0.00580206,-0.00123046,0.971811,0.00433678,0.00834605,1693,498,18.912,35.2805
476,526,18.8601,-34.2935,0.00127999,0.00405137,0.00400479,0.00690342,-0.00157206,0.951955,0.00520603,0.00992,1700,498,18.8601,34.2935
483,526,18.8027,-33.2623,0.00165688,0.00468282,0.00485511,0.00825524,-0.00191554,0.936441,0.00624078,0.0138971,1707,498,18.8027,33.2623
490,526,18.7975,-32.1491,0.00212638,0.00531032,0.0057685,0.0097025,-0.0022658,0.920035,0.00734109,0.037381,1714,498,18.7975,32.1491
497,526,18.8285,-31.1245,0,0,0,0,0,0,0,-1,1721,498,18.8285,31.1245
504,526,17.8074,-28.809,0,0,0,0,0,0,0,-1,1728,498,17.8073,28.809
511,526,16.8915,-24.8813,0,0,0,0,0,0,0,-1,1735,498,16.8914,24.8813
518,526,14.7889,-20.4046,0,0,0,0,0,0,0,-1,1742,498,14.7889,20.4046
525,526,14.7009,-19.7487,0,0,0,0,0,0,0,-1,1749,498,14.7009,19.7486
532,526,15.7457,-17.9624,0,0,0,0,0,0,0,-1,1756,498,15.7458,17.9624
539,526,16.1064,-16.42,0,0,0,0,0,0,0,-1,1763,498,16.1065,16.42
546,526,12.4675,-17.1617,0,0,0,0,0,0,0,-1,1770,498,12.4675,17.1617
553,526,3.40796,1.37137,0,0,0,0,0,0,0,-1,1777,498,3.40792,-1.37138
560,526,0,0,0,0,0,0,0,0,0,-1,1784,498,0,0
567,526,0,0,0,0,0,0,0,0,0,-1,1791,498,0,0
574,526,0,0,0,0,0,0,0,0,0,-1,1798,498,0,0
581,526,0,0,0,0,0,0,0,0,0,-1,1805,498,0,0
588,526,0,0,0,0,0,0,0,0,0,-1,1812,498,0,0
595,526,0,0,0,0,0,0,0,0,0,-1,1819,498,0,0
602,526,0,0,0,0,0,0,0,0,0,-1,1826,498,0,0
609,526,0,0,0,0,0,0,0,0,0,-1,1833,498,0,0
616,526,0,0,0,0,0,0,0,0,0,-1,1840,498,0,0
623,526,0,0,0,0,0,0,0,0,0,-1,1847,498,0,0
630,526,0,0,0,0,0,0,0,0,0,-1,1854,498,0,0
637,526,0,0,0,0,0,0,0,0,0,-1,1861,498,0,0
644,526,0,0,0,0,0,0,0,0,0,-1,1868,498,0,0
651,526,0,0,0,0,0,0,0,0,0,-1,1875,498,0,0
658,526,0,0,0,0,0,0,0,0,0,-1,1882,498,0,0
665,526,0,0,0,0,0,0,0,0,0,-1,1889,498,0,0
672,526,0,0,0,0,0,0,0,0,0,-1,1896,498,0,0
679,526,0,0,0,0,0,0,0,0,0,-1,1903,498,0,0
686,526,0,0,0,0,0,0,0,0,0,-1,1910,498,0,0
693,526,0,0,0,0,0,0,0,0,0,-1,1917,498,0,0
700,526,0,0,0,0,0,0,0,0,0,-1,1924,498,0,0
707,526,0,0,0,0,0,0,0,0,0,-1,1931,498,0,0
714,526,0,0,0,0,0,0,0,0,0,-1,1938,498,0,0
721,526,0,0,0,0,0,0,0,0,0,-1,1945,498,0,0
728,526,0,0,0,0,0,0,0,0,0,-1,1952,498,0,0
735,526,0,0,0,0,0,0,0,0,0,-1,1959,498,0,0
742,526,0,0,0,0,0,0,0,0,0,-1,1966,498,0,0
749,526,0,0,0,0,0,0,0,0,0,-1,1973,498,0,0
756,526,0,0,0,0,0,0,0,0,0,-1,1980,498,0,0
763,526,0,0,0,0,0,0,0,0,0,-1,1987,498,0,0
770,526,0,0,0,0,0,0,0,0,0,-1,1994,498,0,0
777,526,0,0,0,0,0,0,0,0,0,-1,2001,498,0,0
784,526,0,0,0,0,0,0,0,0,0,-1,2008,498,0,0
791,526,0,0,0,0,0,0,0,0,0,-1,2015,498,0,0
798,526,0,0,0,0,0,0,0,0,0,-1,2022,498,0,0
805,526,0,0,0,0,0,0,0,0,0,-1,2029,498,0,0
812,526,0,0,0,0,0,0,0,0,0,-1,2036,498,0,0
-700,519,0,0,0,0,0,0,0,0,0,-1,524,505,0,0
-693,519,0,0,0,0,0,0,0,0,0,-1,531,505,0,0
-686,519,0,0,0,0,0,0,0,0,0,-1,538,505,0,0
-679,519,0,0,0,0,0,0,0,0,0,-1,545,505,0,0
-672,519,0,0,0,0,0,0,0,0,0,-1,552,505,0,0
-665,519,0,0,0,0,0,0,0,0,0,-1,559,505,0,0
-658,519,0,0,0,0,0,0,0,0,0,-1,566,505,0,0
-651,519,0,0,0,0,0,0,0,0,0,-1,573,505,0,0
-644,519,0,0,0,0,0,0,0,0,0,-1,580,505,0,0
-637,519,0,0,0,0,0,0,0,0,0,-1,587,505,0,0
-630,519,0,0,0,0,0,0,0,0,0,-1,594,505,0,0
-623,519,0,0,0,0,0,0,0,0,0,-1,601,505,0,0
-616,519,0,0,0,0,0,0,0,0,0,-1,608,505,0,0
-609,519,0,0,0,0,0,0,0,0,0,-1,615,505,0,0
-602,519,0,0,0,0,0,0,0,0,0,-1,622,505,0,0
-595,519,0,0,0,0,0,0,0,0,0,-1,629,505,0,0
-588,519,0,0,0,0,0,0,0,0,0,-1,636,505,0,0
-581,519,0,0,0,0,0,0,0,0,0,-1,643,505,0,0
-574,519,0,0,0,0,0,0,0,0,0,-1,650,505,0,0
-567,519,0,0,0,0,0,0,0,0,0,-1,657,505,0,0
-560,519,0,0,0,0,0,0,0,0,0,-1,664,505,0,0
-553,519,0,0,0,0,0,0,0,0,0,-1,671,505,0,0
-546,519,0,0,0,0,0,0,0,0,0,-1,678,505,0,0
-539,519,0,0,0,0,0,0,0,0,0,-1,685,505,0,0
-532,519,0,0,0,0,0,0,0,0,0,-1,692,505,0,0
-525,519,0,0,0,0,0,0,0,0,0,-1,699,505,0,0
-518,519,0,0,0,0,0,0,0,0,0,-1,706,505,0,0
-511,519,0,0,0,0,0,0,0,0,0,-1,713,505,0,0
-504,519,0,0,0,0,0,0,0,0,0,-1,720,505,0,0
-497,519,0,0,0,0,0,0,0,0,0,-1,727,505,0,0
-490,519,0,0,0,0,0,0,0,0,0,-1,734,505,0,0
-483,519,0,0,0,0,0,0,0,0,0,-1,741,505,0,0
-476,519,0,0,0,0,0,0,0,0,0,-1,748,505,0,0
-469,519,0,0,0,0,0,0,0,0,0,-1,755,505,0,0
-462,519,0,0,0,0,0,0,0,0,0,-1,762,505,0,0
-455,519,0,0,0,0,0,0,0,0,0,-1,769,505,0,0
-448,519,0,0,0,0,0,0,0,0,0,-1,776,505,0,0
-441,519,1.34839,-5.29346,0,0,0,0,0,0,0,-1,783,505,1.3484,5.29347
-434,519,0.949585,-5.77313,0,0,0,0,0,0,0,-1,790,505,0.949598,5.77315
-427,519,-0.0523682,-9.31567,0,0,0,0,0,0,0,-1,797,505,-0.0523854,9.31568
-420,519,-2.38867,-12.1938,0,0,0,0,0,0,0,-1,804,505,-2.38867,12.1938
-413,519,-2.2298,-12.4998,0,0,0,0,0,0,0,-1,811,505,-2.22979,12.4998
-406,519,-1.44373,-12.3475,0,0,0,0,0,0,0,-1,818,505,-1.44376,12.3475
-399,519,-1.60516,-15.0849,0,0,0,0,0,0,0,-1,825,505,-1.60518,15.0849
-392,519,-1.94183,-24.8959,0,0,0,0,0,0,0,-1,832,505,-1.94183,24.8958
-385,519,-2.85767,-28.5845,0,0,0,0,0,0,0,-1,839,505,-2.85764,28.5845
-378,519,-2.66785,-29.8452,0.0024446,0.0176236,-0.0108035,0.023237,-0.00316875,-1.0916,0.0166484,0.0442657,846,505,-2.66786,29.8452
-371,519,-2.53918,-31.1559,0.00213829,0.0147777,-0.00944795,0.0198247,-0.00290872,-1.08017,0.0142851,0.0221148,853,505,-2.53921,31.156
-364,519,-2.58887,-32.3063,0.00180499,0.0123513,-0.00801968,0.0166762,-0.00251984,-1.07622,0.0120456,0.0131017,860,505,-2.58885,32.3063
-357,519,-2.62347,-33.3832,0.00145022,0.010148,-0.00665074,0.0137455,-0.00214728,-1.07495,0.00995692,0.010531,867,505,-2.62347,33.3832
-350,519,-2.68121,-34.385,0.00109029,0.00812734,-0.00533169,0.0109968,-0.00177922,-1.07706,0.00799061,0.0129244,874,505,-2.68121,34.385
-343,519,-2.80328,-35.3127,0.000852325,0.00618239,-0.00411198,0.00841743,-0.00138272,-1.07292,0.00612478,0.0165394,881,505,-2.80331,35.3128
-336,519,-2.90515,-36.2667,0.000631258,0.00450783,-0.00296422,0.00611123,-0.000972141,-1.07495,0.00443387,0.0175197,888,505,-2.90516,36.2667
-329,519,-2.92371,-37.2609,0.000446707,0.00301364,-0.00191445,0.00403504,-0.000574692,-1.08069,0.00290063,0.0159773,895,505,-2.9237,37.2609
-322,519,-2.9668,-38.2163,0.000273728,0.00149506,-0.000830517,0.00191526,-0.000146465,-1.10241,0.00132835,0.0127363,902,505,-2.9668,38.2163
-315,519,-3.03192,-39.1918,0.000263503,0.000334467,5.48134e-05,0.00036428,0.000233689,1.07264,0.000213106,0.0101478,909,505,-3.03193,39.1918
-308,519,-3.10474,-40.1674,0.000378888,-0.000635137,0.00078929,0.00080998,-0.00106623,0.499903,0.00108659,0.00860546,916,505,-3.10474,40.1674
-301,519,-3.19824,-41.0786,0.000535138,-0.00149507,0.00143353,0.00127658,-0.00223652,0.477323,0.00205337,0.0126908,923,505,-3.19823,41.0786
-294,519,-3.21344,-41.9307,0.000795415,-0.00216324,0.00207067,0.0018609,-0.00322873,0.475229,0.00297366,0.0160398,930,505,-3.21347,41.9307
-287,519,-3.2644,-42.8624,0.00114003,-0.00309115,0.00269652,0.00245182,-0.00440295,0.45277,0.00401068,0.0123345,937,505,-3.26442,42.8624
-280,519,-3.32343,-43.8014,0.00118078,-0.0053135,0.00339944,0.00263472,-0.00676743,0.404154,0.0056004,0.0269533,944,505,-3.32343,43.8014
-273,519,-3.36981,-44.7562,0,0,0,0,0,0,0,-1,951,505,-3.36983,44.7563
-266,519,-3.38104,-45.7654,0,0,0,0,0,0,0,-1,958,505,-3.38106,45.7654
-259,519,-3.25763,-46.8633,0,0,0,0,0,0,0,-1,965,505,-3.2576,46.8633
-252,519,-1.84009,-26.8372,0,0,0,0,0,0,0,-1,972,505,-1.8401,26.8372
-245,519,-1.23254,-23.2696,0,0,0,0,0,0,0,-1,979,505,-1.23256,23.2696
-238,519,-2.46851,-46.6841,0,0,0,0,0,0,0,-1,986,505,-2.4685,46.6841
-231,519,-2.64227,-47.9461,0,0,0,0,0,0,0,-1,993,505,-2.64226,47.9461
-224,519,-3.33752,-42.7635,0,0,0,0,0,0,0,-1,1000,505,-3.33753,42.7635
-217,519,-2.87396,-38.149,0,0,0,0,0,0,0,-1,1007,505,-2.87394,38.149
-210,519,-0.883362,-34.799,0,0,0,0,0,0,0,-1,1014,505,-0.883379,34.799
-203,519,-0.513611,-5.39017,0,0,0,0,0,0,0,-1,1021,505,-0.513585,5.39017
-196,519,-0.374023,-5.41635,0,0,0,0,0,0,0,-1,1028,505,-0.374047,5.41635
-189,519,-0.234497,-5.44254,0,0,0,0,0,0,0,-1,1035,505,-0.234508,5.44253
-182,519,2.76697,-1.19659,0,0,0,0,0,0,0,-1,1042,505,2.76696,1.19661
-175,519,2.31323,-0.960938,0,0,0,0,0,0,0,-1,1049,505,2.31319,0.960941
-168,519,2.01074,-0.721405,0,0,0,0,0,0,0,-1,1056,505,2.01072,0.721407
-161,519,2.32056,-0.522339,0,0,0,0,0,0,0,-1,1063,505,2.32057,0.522328
-154,519,2.55566,0.116669,0,0,0,0,0,0,0,-1,1070,505,2.55563,-0.116661
-147,519,-0.55127,-6.14001,0,0,0,0,0,0,0,-1,1077,505,-0.551252,6.14001
-140,519,0.240601,-7.53503,0,0,0,0,0,0,0,-1,1084,505,0.240653,7.53501
-133,519,2.70911,-4.4516,0,0,0,0,0,0,0,-1,1091,505,2.70915,4.45161
-126,519,0,0,0,0,0,0,0,0,0,-1,1098,505,0,0
-119,519,0,0,0,0,0,0,0,0,0,-1,1105,505,0,0
-112,519,0,0,0,0,0,0,0,0,0,-1,1112,505,0,0
-105,519,0,0,0,0,0,0,0,0,0,-1,1119,505,0,0
-98,519,0,0,0,0,0,0,0,0,0,-1,1126,505,0,0
-91,519,0,0,0,0,0,0,0,0,0,-1,1133,505,0,0
-84,519,0,0,0,0,0,0,0,0,0,-1,1140,505,0,0
-77,519,0,0,0,0,0,0,0,0,0,-1,1147,505,0,0
-70,519,0,0,0,0,0,0,0,0,0,-1,1154,505,0,0
-63,519,0,0,0,0,0,0,0,0,0,-1,1161,505,0,0
-56,519,0,0,0,0,0,0,0,0,0,-1,1168,505,0,0
-49,519,0,0,0,0,0,0,0,0,0,-1,1175,505,0,0
-42,519,0,0,0,0,0,0,0,0,0,-1,1182,505,0,0
-35,519,0,0,0,0,0,0,0,0,0,-1,1189,505,0,0
-28,519,0,0,0,0,0,0,0,0,0,-1,1196,505,0,0
-21,519,0,0,0,0,0,0,0,0,0,-1,1203,505,0,0
-14,519,0,0,0,0,0,0,0,0,0,-1,1210,505,0,0
-7,519,0,0,0,0,0,0,0,0,0,-1,1217,505,0,0
0,519,0,0,0,0,0,0,0,0,0,-1,1224,505,0,0
7,519,0,0,0,0,0,0,0,0,0,-1,1231,505,0,0
14,519,0,0,0,0,0,0,0,0,0,-1,1238,505,0,0
21,519,0,0,0,0,0,0,0,0,0,-1,1245,505,0,0
28,519,0,0,0,0,0,0,0,0,0,-1,1252,505,0,0
35,519,0,0,0,0,0,0,0,0,0,-1,1259,505,0,0
42,519,0,0,0,0,0,0,0,0,0,-1,1266,505,0,0
49,519,0,0,0,0,0,0,0,0,0,-1,1273,505,0,0
56,519,0,0,0,0,0,0,0,0,0,-1,1280,505,0,0
63,519,0,0,0,0,0,0,0,0,0,-1,1287,505,0,0
70,519,0,0,0,0,0,0,0,0,0,-1,1294,505,0,0
77,519,0,0,0,0,0,0,0,0,0,-1,1301,505,0,0
84,519,0,0,0,0,0,0,0,0,0,-1,1308,505,0,0
91,519,0,0,0,0,0,0,0,0,0,-1,1315,505,0,0
98,519,0,0,0,0,0,0,0,0,0,-1,1322,505,0,0
105,519,0,0,0,0,0,0,0,0,0,-1,1329,505,0,0
112,519,0,0,0,0,0,0,0,0,0,-1,1336,505,0,0
119,519,0,0,0,0,0,0,0,0,0,-1,1343,505,0,0
126,519,0,0,0,0,0,0,0,0,0,-1,1350,505,0,0
133,519,0,0,0,0,0,0,0,0,0,-1,1357,505,0,0
140,519,0,0,0,0,0,0,0,0,0,-1,1364,505,0,0
147,519,0,0,0,0,0,0,0,0,0,-1,1371,505,0,0
154,519,0,0,0,0,0,0,0,0,0,-1,1378,505,0,0
161,519,0,0,0,0,0,0,0,0,0,-1,1385,505,0,0
168,519,0,0,0,0,0,0,0,0,0,-1,1392,505,0,0
175,519,0,0,0,0,0,0,0,0,0,-1,1399,505,0,0
182,519,0,0,0,0,0,0,0,0,0,-1,1406,505,0,0
189,519,0,0,0,0,0,0,0,0,0,-1,1413,505,0,0
196,519,0,0,0,0,0,0,0,0,0,-1,1420,505,0,0
203,519,0,0,0,0,0,0,0,0,0,-1,1427,505,0,0
210,519,0,0,0,0,0,0,0,0,0,-1,1434,505,0,0
217,519,0,0,0,0,0,0,0,0,0,-1,1441,505,0,0
224,519,0,0,0,0,0,0,0,0,0,-1,1448,505,0,0
231,519,0,0,0,0,0,0,0,0,0,-1,1455,505,0,0
238,519,0,0,0,0,0,0,0,0,0,-1,1462,505,0,0
245,519,0,0,0,0,0,0,0,0,0,-1,1469,505,0,0
252,519,5.26208,0.0938416,0,0,0,0,0,0,0,-1,1476,505,5.26207,-0.0938493
259,519,6.14246,-1.36441,0,0,0,0,0,0,0,-1,1483,505,6.14241,1.36441
266,519,5.31909,-0.400787,0,0,0,0,0,0,0,-1,1490,505,5.31912,0.400773
273,519,4.02393,0.325531,0,0,0,0,0,0,0,-1,1497,505,4.0239,-0.325522
280,519,4.68848,0.53006,0,0,0,0,0,0,0,-1,1504,505,4.68842,-0.530073
287,519,7.9519,-3.80801,0,0,0,0,0,0,0,-1,1511,505,7.95193,3.808
294,519,6.92273,-3.38889,0,0,0,0,0,0,0,-1,1518,505,6.92268,3.38888
301,519,5.35669,-2.92661,0,0,0,0,0,0,0,-1,1525,505,5.35675,2.9266
308,519,7.37549,-5.64529,0,0,0,0,0,0,0,-1,1532,505,7.3755,5.64529
315,519,6.30029,-4.53754,0,0,0,0,0,0,0,-1,1539,505,6.30024,4.53753
322,519,5.84302,-5.45117,0,0,0,0,0,0,0,-1,1546,505,5.84303,5.45116
329,519,4.92407,0.62384,0,0,0,0,0,0,0,-1,1553,505,4.92403,-0.623832
336,519,3.10095,-0.329285,0,0,0,0,0,0,0,-1,1560,505,3.1009,0.329283
343,519,2.49146,-2.31119,0,0,0,0,0,0,0,-1,1567,505,2.49145,2.31119
350,519,3.47729,-2.22516,0,0,0,0,0,0,0,-1,1574,505,3.47726,2.22515
357,519,13.271,-29.6344,0,0,0,0,0,0,0,-1,1581,505,13.271,29.6344
364,519,12.8292,-28.3627,0,0,0,0,0,0,0,-1,1588,505,12.8292,28.3627
371,519,12.3875,-27.0911,0,0,0,0,0,0,0,-1,1595,505,12.3874,27.091
378,519,6.36597,-10.0967,0,0,0,0,0,0,0,-1,1602,505,6.36597,10.0967
385,519,6.24756,-9.72186,0,0,0,0,0,0,0,-1,1609,505,6.24752,9.72183
392,519,16.8391,-37.6736,0,0,0,0,0,0,0,-1,1616,505,16.8391,37.6737
399,519,20.0872,-44.7119,0,0,0,0,0,0,0,-1,1623,505,20.0871,44.7119
406,519,20.4287,-43.764,0,0,0,0,0,0,0,-1,1630,505,20.4287,43.764
413,519,20.3347,-42.7698,0.0016931,0.00150652,-0.000884995,0.00248971,0.000709909,-0.732884,0.00148101,0.0189174,1637,505,20.3347,42.7698
420,519,20.2246,-41.8055,0.00159901,0.00166544,-0.000542049,0.00217529,0.00108916,-0.815998,0.00125591,0.0170006,1644,505,20.2246,41.8055
427,519,20.1713,-40.907,0.00130792,0.00170671,-0.000353148,0.00191287,0.00110177,-1.0424,0.00110864,0.0160415,1651,505,20.1712,40.9071
434,519,20.0979,-39.9518,0.00112116,0.00174218,-5.72571e-05,0.00174742,0.00111593,-1.47962,0.00102171,0.0144487,1658,505,20.0979,39.9518
441,519,20.024,-38.9855,0.00102801,0.00188473,0.000324641,0.00199385,0.000918889,1.24654,0.00115232,0.013325,1665,505,20.0241,38.9855
448,519,20.014,-38.0541,0.000967634,0.00201738,0.000779864,0.00243255,0.000552464,1.0816,0.0014725,0.00964768,1672,505,20.0141,38.0541
455,519,19.9565,-37.1316,0.000887782,0.00223022,0.00125604,0.00298314,0.000134859,1.03079,0.00194537,0.0115837,1679,505,19.9566,37.1316
462,519,19.8942,-36.1841,0.000974644,0.00257654,0.0017903,0.00373689,-0.000185708,0.995735,0.00255541,0.0121802,1686,505,19.8941,36.1842
469,519,19.8674,-35.2115,0.00116509,0.00295927,0.00242267,0.00464561,-0.000521254,0.962715,0.00328464,0.0120136,1693,505,19.8674,35.2115
476,519,19.8315,-34.2313,0.00139202,0.00341543,0.00310822,0.00567246,-0.000865008,0.942737,0.0041005,0.0135787,1700,505,19.8315,34.2313
483,519,19.77,-33.2551,0.00168823,0.00397758,0.00388322,0.00688132,-0.00121551,0.928727,0.0050418,0.0144508,1707,505,19.77,33.2551
490,519,19.6674,-32.2204,0.00203046,0.00454169,0.00469296,0.0081441,-0.00157195,0.916113,0.00602217,0.0136622,1714,505,19.6674,32.2204
497,519,19.5688,-31.1863,0,0,0,0,0,0,0,-1,1721,505,19.5688,31.1863
504,519,19.621,-30.1644,0,0,0,0,0,0,0,-1,1728,505,19.6209,30.1644
511,519,19.6913,-28.9341,0,0,0,0,0,0,0,-1,1735,505,19.6913,28.9341
518,519,19.7688,-27.8615,0,0,0,0,0,0,0,-1,1742,505,19.7687,27.8615
525,519,15.9647,-20.5714,0,0,0,0,0,0,0,-1,1749,505,15.9648,20.5714
532,519,15.825,-19.0025,0,0,0,0,0,0,0,-1,1756,505,15.8249,19.0025
539,519,16.5902,-16.8075,0,0,0,0,0,0,0,-1,1763,505,16.5903,16.8075
546,519,12.4001,-16.5616,0,0,0,0,0,0,0,-1,1770,505,12.4002,16.5616
553,519,4.14136,0.0667419,0,0,0,0,0,0,0,-1,1777,505,4.14141,-0.0667503
560,519,3.77856,0.279724,0,0,0,0,0,0,0,-1,1784,505,3.77861,-0.279731
567,519,0,0,0,0,0,0,0,0,0,-1,1791,505,0,0
574,519,0,0,0,0,0,0,0,0,0,-1,1798,505,0,0
581,519,0,0,0,0,0,0,0,0,0,-1,1805,505,0,0
588,519,0,0,0,0,0,0,0,0,0,-1,1812,505,0,0
595,519,0,0,0,0,0,0,0,0,0,-1,1819,505,0,0
602,519,0,0,0,0,0,0,0,0,0,-1,1826,505,0,0
609,519,0,0,0,0,0,0,0,0,0,-1,1833,505,0,0
616,519,0,0,0,0,0,0,0,0,0,-1,1840,505,0,0
623,519,0,0,0,0,0,0,0,0,0,-1,1847,505,0,0
630,519,0,0,0,0,0,0,0,0,0,-1,1854,505,0,0
637,519,0,0,0,0,0,0,0,0,0,-1,1861,505,0,0
644,519,0,0,0,0,0,0,0,0,0,-1,1868,505,0,0
651,519,0,0,0,0,0,0,0,0,0,-1,1875,505,0,0
658,519,0,0,0,0,0,0,0,0,0,-1,1882,505,0,0
665,519,0,0,0,0,0,0,0,0,0,-1,1889,505,0,0
672,519,0,0,0,0,0,0,0,0,0,-1,1896,505,0,0
679,519,0,0,0,0,0,0,0,0,0,-1,1903,505,0,0
686,519,0,0,0,0,0,0,0,0,0,-1,1910,505,0,0
693,519,0,0,0,0,0,0,0,0,0,-1,1917,505,0,0
700,519,0,0,0,0,0,0,0,0,0,-1,1924,505,0,0
707,519,0,0,0,0,0,0,0,0,0,-1,1931,505,0,0
714,519,0,0,0,0,0,0,0,0,0,-1,1938,505,0,0
721,519,0,0,0,0,0,0,0,0,0,-1,1945,505,0,0
728,519,0,0,0,0,0,0,0,0,0,-1,1952,505,0,0
735,519,0,0,0,0,0,0,0,0,0,-1,1959,505,0,0
742,519,0,0,0,0,0,0,0,0,0,-1,1966,505,0,0
749,519,0,0,0,0,0,0,0,0,0,-1,1973,505,0,0
756,519,0,0,0,0,0,0,0,0,0,-1,1980,505,0,0
763,519,0,0,0,0,0,0,0,0,0,-1,1987,505,0,0
770,519,0,0,0,0,0,0,0,0,0,-1,1994,505,0,0
777,519,0,0,0,0,0,0,0,0,0,-1,2001,505,0,0
784,519,0,0,0,0,0,0,0,0,0,-1,2008,505,0,0
791,519,0,0,0,0,0,0,0,0,0,-1,2015,505,0,0
798,519,0,0,0,0,0,0,0,0,0,-1,2022,505,0,0
805,519,0,0,0,0,0,0,0,0,0,-1,2029,505,0,0
812,519,0,0,0,0,0,0,0,0,0,-1,2036,505,0,0
-700,512,0,0,0,0,0,0,0,0,0,-1,524,512,0,0
-693,512,0,0,0,0,0,0,0,0,0,-1,531,512,0,0
-686,512,0,0,0,0,0,0,0,0,0,-1,538,512,0,0
-679,512,0,0,0,0,0,0,0,0,0,-1,545,512,0,0
-672,512,0,0,0,0,0,0,0,0,0,-1,552,512,0,0
-665,512,0,0,0,0,0,0,0,0,0,-1,559,512,0,0
-658,512,0,0,0,0,0,0,0,0,0,-1,566,512,0,0
-651,512,0,0,0,0,0,0,0,0,0,-1,573,512,0,0
-644,512,0,0,0,0,0,0,0,0,0,-1,580,512,0,0
-637,512,0,0,0,0,0,0,0,0,0,-1,587,512,0,0
-630,512,0,0,0,0,0,0,0,0,0,-1,594,512,0,0
-623,512,0,0,0,0,0,0,0,0,0,-1,601,512,0,0
-616,512,0,0,0,0,0,0,0,0,0,-1,608,512,0,0
-609,512,0,0,0,0,0,0,0,0,0,-1,615,512,0,0
-602,512,0,0,0,0,0,0,0,0,0,-1,622,512,0,0
-595,512,0,0,0,0,0,0,0,0,0,-1,629,512,0,0
-588,512,0,0,0,0,0,0,0,0,0,-1,636,512,0,0
-581,512,0,0,0,0,0,0,0,0,0,-1,643,512,0,0
-574,512,0,0,0,0,0,0,0,0,0,-1,650,512,0,0
-567,512,0,0,0,0,0,0,0,0,0,-1,657,512,0,0
-560,512,0,0,0,0,0,0,0,0,0,-1,664,512,0,0
-553,512,0,0,0,0,0,0,0,0,0,-1,671,512,0,0
-546,512,0,0,0,0,0,0,0,0,0,-1,678,512,0,0
-539,512,0,0,0,0,0,0,0,0,0,-1,685,512,0,0
-532,512,0,0,0,0,0,0,0,0,0,-1,692,512,0,0
-525,512,0,0,0,0,0,0,0,0,0,-1,699,512,0,0
-518,512,0,0,0,0,0,0,0,0,0,-1,706,512,0,0
-511,512,0,0,0,0,0,0,0,0,0,-1,713,512,0,0
-504,512,0,0,0,0,0,0,0,0,0,-1,720,512,0,0
-497,512,0,0,0,0,0,0,0,0,0,-1,727,512,0,0
-490,512,0,0,0,0,0,0,0,0,0,-1,734,512,0,0
-483,512,0,0,0,0,0,0,0,0,0,-1,741,512,0,0
-476,512,0,0,0,0,0,0,0,0,0,-1,748,512,0,0
-469,512,0,0,0,0,0,0,0,0,0,-1,755,512,0,0
-462,512,0,0,0,0,0,0,0,0,0,-1,762,512,0,0
-455,512,0,0,0,0,0,0,0,0,0,-1,769,512,0,0
-448,512,1.96283,-4.15674,0,0,0,0,0,0,0,-1,776,512,1.96285,4.15677
-441,512,1.78198,-4.88824,0,0,0,0,0,0,0,-1,783,512,1.78201,4.88826
-434,512,0.0726929,-9.85822,0,0,0,0,0,0,0,-1,790,512,0.0727008,9.85819
-427,512,-0.384583,-9.94824,0,0,0,0,0,0,0,-1,797,512,-0.384552,9.94823
-420,512,-2.93219,-12.4855,0,0,0,0,0,0,0,-1,804,512,-2.93219,12.4855
-413,512,-2.22711,-11.4485,0,0,0,0,0,0,0,-1,811,512,-2.22712,11.4485
-406,512,-2.38037,-13.5743,0,0,0,0,0,0,0,-1,818,512,-2.38034,13.5743
-399,512,-3.13367,-23.934,0,0,0,0,0,0,0,-1,825,512,-3.13368,23.934
-392,512,-3.23279,-28.3083,0,0,0,0,0,0,0,-1,832,512,-3.2328,28.3083
-385,512,-3.32758,-29.2808,0.00192363,0.0161176,-0.00944557,0.0208353,-0.00279404,-1.10758,0.0149091,0.0254345,839,512,-3.32757,29.2808
-378,512,-3.41467,-30.2363,0.00177246,0.0136737,-0.00840672,0.0180227,-0.00257658,-1.09338,0.0129597,0.0210964,846,512,-3.41464,30.2363
-371,512,-3.50061,-31.2543,0.00165712,0.0113767,-0.00733918,0.0153192,-0.00228544,-1.07784,0.0110537,0.0158393,853,512,-3.50062,31.2543
-364,512,-3.55115,-32.3431,0.00150974,0.00929555,-0.00617945,0.0127061,-0.0019008,-1.06648,0.00917023,0.0107001,860,512,-3.55115,32.3431
-357,512,-3.59698,-33.3379,0.00133371,0.00744661,-0.00503475,0.01028,-0.00149971,-1.0582,0.00740406,0.0114721,867,512,-3.59699,33.3379
-350,512,-3.66333,-34.3215,0.00113751,0.00573725,-0.00392084,0.00798297,-0.00110821,-1.05064,0.00572723,0.0117535,874,512,-3.66335,34.3215
-343,512,-3.77271,-35.2716,0.00100343,0.00403028,-0.00286254,0.00575485,-0.000721131,-1.02857,0.00409815,0.0142383,881,512,-3.77268,35.2716
-336,512,-3.85364,-36.2457,0.000819957,0.00250941,-0.00181589,0.00366743,-0.000338066,-1.0031,0.00256508,0.0161219,888,512,-3.85365,36.2457
-329,512,-3.85907,-37.2121,0.000659464,0.00114434,-0.00084994,0.00178574,1.80632e-05,-0.92433,0.00118452,0.0184231,895,512,-3.85907,37.2121
-322,512,-3.92297,-38.1578,0.000528569,-0.000182092,0.000124065,0.000549605,-0.000203128,0.167961,0.000449675,0.0151049,902,512,-3.923,38.1578
-315,512,-3.99164,-39.141,0.000524149,-0.00123006,0.000954502,0.000943341,-0.00164925,0.413814,0.00151522,0.0125547,909,512,-3.99164,39.141
-308,512,-4.06183,-40.0787,0.000637028,-0.00209157,0.00164815,0.00141229,-0.00286683,0.439674,0.00251768,0.0118156,916,512,-4.0618,40.0787
-301,512,-4.12256,-40.9965,0.000747664,-0.00281303,0.00229056,0.0018684,-0.00393377,0.45504,0.0034199,0.015739,923,512,-4.12254,40.9965
-294,512,-4.12561,-41.8717,0.000897152,-0.00330207,0.00296553,0.0024311,-0.00483602,0.477359,0.00427157,0.0177622,930,512,-4.12558,41.8717
-287,512,-4.31061,-42.6751,0.00115984,-0.00411555,0.0036176,0.00299924,-0.00595496,0.470393,0.00526276,0.0423394,937,512,-4.31064,42.6751
-280,512,-4.25403,-43.8282,0,0,0,0,0,0,0,-1,944,512,-4.25402,43.8282
-273,512,-2.90118,-34.7153,0,0,0,0,0,0,0,-1,951,512,-2.90121,34.7153
-266,512,-2.33594,-25.9839,0,0,0,0,0,0,0,-1,958,512,-2.33592,25.9839
-259,512,-0.525452,-14.0815,0,0,0,0,0,0,0,-1,965,512,-0.525475,14.0815
-252,512,1.45941,-3.43475,0,0,0,0,0,0,0,-1,972,512,1.45938,3.43475
-245,512,-1.6731,-22.8959,0,0,0,0,0,0,0,-1,979,512,-1.67312,22.8959
-238,512,0.227051,-8.92969,0,0,0,0,0,0,0,-1,986,512,0.227073,8.92968
-231,512,-1.90576,-38.0918,0,0,0,0,0,0,0,-1,993,512,-1.90575,38.0918
-224,512,-1.29974,-33.6304,0,0,0,0,0,0,0,-1,1000,512,-1.29974,33.6304
-217,512,-0.963196,-34.1697,0,0,0,0,0,0,0,-1,1007,512,-0.963226,34.1697
-210,512,-3.76642,-1.94702,0,0,0,0,0,0,0,-1,1014,512,-3.76641,1.94702
-203,512,-2.48328,-5.19061,0,0,0,0,0,0,0,-1,1021,512,-2.48328,5.19059
-196,512,-1.14929,-4.63202,0,0,0,0,0,0,0,-1,1028,512,-1.14934,4.632
-189,512,0.197998,4.55505,0,0,0,0,0,0,0,-1,1035,512,0.197996,-4.55506
-182,512,2.73938,0.0778503,0,0,0,0,0,0,0,-1,1042,512,2.73944,-0.077852
-175,512,2.29565,0.209808,0,0,0,0,0,0,0,-1,1049,512,2.29565,-0.209813
-168,512,2.09399,-0.302856,0,0,0,0,0,0,0,-1,1056,512,2.09403,0.302826
-161,512,2.76636,0.0921021,0,0,0,0,0,0,0,-1,1063,512,2.76633,-0.0921104
-154,512,3.41382,0.466187,0,0,0,0,0,0,0,-1,1070,512,3.41382,-0.466178
-147,512,0,0,0,0,0,0,0,0,0,-1,1077,512,0,0
-140,512,0,0,0,0,0,0,0,0,0,-1,1084,512,0,0
-133,512,0,0,0,0,0,0,0,0,0,-1,1091,512,0,0
-126,512,0,0,0,0,0,0,0,0,0,-1,1098,512,0,0
-119,512,0,0,0,0,0,0,0,0,0,-1,1105,512,0,0
-112,512,0,0,0,0,0,0,0,0,0,-1,1112,512,0,0
-105,512,0,0,0,0,0,0,0,0,0,-1,1119,512,0,0
-98,512,0,0,0,0,0,0,0,0,0,-1,1126,512,0,0
-91,512,0,0,0,0,0,0,0,0,0,-1,1133,512,0,0
-84,512,0,0,0,0,0,0,0,0,0,-1,1140,512,0,0
-77,512,0,0,0,0,0,0,0,0,0,-1,1147,512,0,0
-70,512,0,0,0,0,0,0,0,0,0,-1,1154,512,0,0
-63,512,0,0,0,0,0,0,0,0,0,-1,1161,512,0,0
-56,512,0,0,0,0,0,0,0,0,0,-1,1168,512,0,0
-49,512,0,0,0,0,0,0,0,0,0,-1,1175,512,0,0
-42,512,0,0,0,0,0,0,0,0,0,-1,1182,512,0,0
-35,512,0,0,0,0,0,0,0,0,0,-1,1189,512,0,0
-28,512,0,0,0,0,0,0,0,0,0,-1,1196,512,0,0
-21,512,0,0,0,0,0,0,0,0,0,-1,1203,512,0,0
-14,512,0,0,0,0,0,0,0,0,0,-1,1210,512,0,0
-7,512,0,0,0,0,0,0,0,0,0,-1,1217,512,0,0
0,512,0,0,0,0,0,0,0,0,0,-1,1224,512,0,0
7,512,0,0,0,0,0,0,0,0,0,-1,1231,512,0,0
14,512,0,0,0,0,0,0,0,0,0,-1,1238,512,0,0
21,512,0,0,0,0,0,0,0,0,0,-1,1245,512,0,0
28,512,0,0,0,0,0,0,0,0,0,-1,1252,512,0,0
35,512,0,0,0,0,0,0,0,0,0,-1,1259,512,0,0
42,512,0,0,0,0,0,0,0,0,0,-1,1266,512,0,0
49,512,0,0,0,0,0,0,0,0,0,-1,1273,512,0,0
56,512,0,0,0,0,0,0,0,0,0,-1,1280,512,0,0
63,512,0,0,0,0,0,0,0,0,0,-1,1287,512,0,0
70,512,0,0,0,0,0,0,0,0,0,-1,1294,512,0,0
77,512,0,0,0,0,0,0,0,0,0,-1,1301,512,0,0
84,512,0,0,0,0,0,0,0,0,0,-1,1308,512,0,0
91,512,0,0,0,0,0,0,0,0,0,-1,1315,512,0,0
98,512,0,0,0,0,0,0,0,0,0,-1,1322,512,0,0
105,512,0,0,0,0,0,0,0,0,0,-1,1329,512,0,0
112,512,0,0,0,0,0,0,0,0,0,-1,1336,512,0,0
119,512,0,0,0,0,0,0,0,0,0,-1,1343,512,0,0
126,512,0,0,0,0,0,0,0,0,0,-1,1350,512,0,0
133,512,0,0,0,0,0,0,0,0,0,-1,1357,512,0,0
140,512,0,0,0,0,0,0,0,0,0,-1,1364,512,0,0
147,512,0,0,0,0,0,0,0,0,0,-1,1371,512,0,0
154,512,0,0,0,0,0,0,0,0,0,-1,1378,512,0,0
161,512,0,0,0,0,0,0,0,0,0,-1,1385,512,0,0
168,512,0,0,0,0,0,0,0,0,0,-1,1392,512,0,0
175,512,0,0,0,0,0,0,0,0,0,-1,1399,512,0,0
182,512,0,0,0,0,0,0,0,0,0,-1,1406,512,0,0
189,512,0,0,0,0,0,0,0,0,0,-1,1413,512,0,0
196,512,0,0,0,0,0,0,0,0,0,-1,1420,512,0,0
203,512,0,0,0,0,0,0,0,0,0,-1,1427,512,0,0
210,512,0,0,0,0,0,0,0,0,0,-1,1434,512,0,0
217,512,0,0,0,0,0,0,0,0,0,-1,1441,512,0,0
224,512,0,0,0,0,0,0,0,0,0,-1,1448,512,0,0
231,512,0,0,0,0,0,0,0,0,0,-1,1455,512,0,0
238,512,0,0,0,0,0,0,0,0,0,-1,1462,512,0,0
245,512,0,0,0,0,0,0,0,0,0,-1,1469,512,0,0
252,512,0,0,0,0,0,0,0,0,0,-1,1476,512,0,0
259,512,0,0,0,0,0,0,0,0,0,-1,1483,512,0,0
266,512,0,0,0,0,0,0,0,0,0,-1,1490,512,0,0
273,512,4.00745,0.618622,0,0,0,0,0,0,0,-1,1497,512,4.00747,-0.618611
280,512,4.49609,0.649841,0,0,0,0,0,0,0,-1,1504,512,4.49612,-0.649834
287,512,4.77234,0.458069,0,0,0,0,0,0,0,-1,1511,512,4.77233,-0.458083
294,512,8.54956,-2.36273,0,0,0,0,0,0,0,-1,1518,512,8.54952,2.36274
301,512,6.302,-1.69092,0,0,0,0,0,0,0,-1,1525,512,6.30196,1.69093
308,512,8.2439,-6.22754,0,0,0,0,0,0,0,-1,1532,512,8.24394,6.22757
315,512,7.53687,-6.04211,0,0,0,0,0,0,0,-1,1539,512,7.53691,6.04211
322,512,6.82983,-5.85663,0,0,0,0,0,0,0,-1,1546,512,6.82988,5.85666
329,512,4.38147,-0.329651,0,0,0,0,0,0,0,-1,1553,512,4.38144,0.329662
336,512,4.41467,-0.741455,0,0,0,0,0,0,0,-1,1560,512,4.41467,0.741442
343,512,4.44727,-1.21667,0,0,0,0,0,0,0,-1,1567,512,4.44732,1.21666
350,512,4.55469,-1.65082,0,0,0,0,0,0,0,-1,1574,512,4.5547,1.65083
357,512,5.79993,-2.67456,0,0,0,0,0,0,0,-1,1581,512,5.79991,2.67454
364,512,13.118,-28.5485,0,0,0,0,0,0,0,-1,1588,512,13.1181,28.5485
371,512,5.28467,-7.69269,0,0,0,0,0,0,0,-1,1595,512,5.28464,7.69269
378,512,6.29407,-9.88055,0,0,0,0,0,0,0,-1,1602,512,6.29412,9.88057
385,512,6.45569,-9.32233,0,0,0,0,0,0,0,-1,1609,512,6.45565,9.3223
392,512,6.35522,-8.98425,0,0,0,0,0,0,0,-1,1616,512,6.35526,8.98422
399,512,16.9089,-33.7311,0,0,0,0,0,0,0,-1,1623,512,16.9089,33.7311
406,512,21.3325,-43.5074,0,0,0,0,0,0,0,-1,1630,512,21.3325,43.5074
413,512,21.3069,-42.7965,0,0,0,0,0,0,0,-1,1637,512,21.3068,42.7965
420,512,21.209,-41.8284,0.00216948,0.00167806,-0.000948614,0.00290369,0.000943852,-0.658673,0.00171031,0.0346281,1644,512,21.209,41.8284
427,512,21.1564,-40.8399,0.00170701,0.0015609,-0.000866607,0.00250363,0.000764269,-0.743348,0.00148157,0.0175845,1651,512,21.1564,40.8399
434,512,21.0781,-39.9031,0.00137424,0.00147756,-0.00067266,0.00210054,0.000751256,-0.823723,0.00122902,0.0128067,1658,512,21.0781,39.9031
441,512,20.9895,-38.948,0.00118042,0.00152031,-0.000380408,0.00176701,0.000933722,-0.995473,0.00102073,0.0139396,1665,512,20.9894,38.948
448,512,20.9424,-38.0127,0.00105654,0.00157457,1.96655e-05,0.00157532,0.0010558,1.53291,0.000926912,0.00991447,1672,512,20.9424,38.0127
455,512,20.8807,-37.062,0.000928769,0.00173274,0.000439717,0.00192653,0.000734983,1.1557,0.00112264,0.00958074,1679,512,20.8808,37.0619
462,512,20.8318,-36.1082,0.000961433,0.00204043,0.000936068,0.00258134,0.000420522,1.04682,0.00159925,0.0106394,1686,512,20.8318,36.1082
469,512,20.7915,-35.1216,0.00111309,0.00238635,0.00152894,0.00340591,9.35299e-05,0.982675,0.00224008,0.0121015,1693,512,20.7915,35.1216
476,512,20.7526,-34.1546,0.00129655,0.00279748,0.00217307,0.00434602,-0.000251998,0.951661,0.0029849,0.0155677,1700,512,20.7526,34.1546
483,512,20.6886,-33.1791,0.0015409,0.00327259,0.0028825,0.00541648,-0.000602986,0.931301,0.00382784,0.0148953,1707,512,20.6886,33.1791
490,512,20.629,-32.1981,0.00180159,0.00376905,0.00360414,0.0065213,-0.000950665,0.918625,0.0046966,0.0115839,1714,512,20.629,32.1981
497,512,20.549,-31.2115,0.00212429,0.00402099,0.00417742,0.00735635,-0.00121108,0.897015,0.00535378,0.0124274,1721,512,20.549,31.2115
504,512,20.4532,-30.2014,0.00262647,0.00439895,0.00476037,0.00835487,-0.00132945,0.87743,0.00606186,0.020485,1728,512,20.4532,30.2014
511,512,20.3839,-29.146,0.00316688,0.00462472,0.00537224,0.00931726,-0.00152566,0.852827,0.00677755,0.0333484,1735,512,20.3839,29.146
518,512,20.6095,-28.1337,0,0,0,0,0,0,0,-1,1742,512,20.6095,28.1337
525,512,21.009,-27.1151,0,0,0,0,0,0,0,-1,1749,512,21.009,27.1151
532,512,16.6807,-19.0635,0,0,0,0,0,0,0,-1,1756,512,16.6807,19.0635
539,512,12.6367,-16.4022,0,0,0,0,0,0,0,-1,1763,512,12.6367,16.4021
546,512,2.77551,-0.66449,0,0,0,0,0,0,0,-1,1770,512,2.77548,0.664503
553,512,3.927,-0.448853,0,0,0,0,0,0,0,-1,1777,512,3.92704,0.448843
560,512,3.55762,-0.201233,0,0,0,0,0,0,0,-1,1784,512,3.55768,0.201259
567,512,3.09045,0.191193,0,0,0,0,0,0,0,-1,1791,512,3.09045,-0.191203
574,512,0,0,0,0,0,0,0,0,0,-1,1798,512,0,0
581,512,0,0,0,0,0,0,0,0,0,-1,1805,512,0,0
588,512,0,0,0,0,0,0,0,0,0,-1,1812,512,0,0
595,512,0,0,0,0,0,0,0,0,0,-1,1819,512,0,0
602,512,0,0,0,0,0,0,0,0,0,-1,1826,512,0,0
609,512,0,0,0,0,0,0,0,0,0,-1,1833,512,0,0
616,512,0,0,0,0,0,0,0,0,0,-1,1840,512,0,0
623,512,0,0,0,0,0,0,0,0,0,-1,1847,512,0,0
630,512,0,0,0,0,0,0,0,0,0,-1,1854,512,0,0
637,512,0,0,0,0,0,0,0,0,0,-1,1861,512,0,0
644,512,0,0,0,0,0,0,0,0,0,-1,1868,512,0,0
651,512,0,0,0,0,0,0,0,0,0,-1,1875,512,0,0
658,512,0,0,0,0,0,0,0,0,0,-1,1882,512,0,0
665,512,0,0,0,0,0,0,0,0,0,-1,1889,512,0,0
672,512,0,0,0,0,0,0,0,0,0,-1,1896,512,0,0
679,512,0,0,0,0,0,0,0,0,0,-1,1903,512,0,0
686,512,0,0,0,0,0,0,0,0,0,-1,1910,512,0,0
693,512,0,0,0,0,0,0,0,0,0,-1,1917,512,0,0
700,512,0,0,0,0,0,0,0,0,0,-1,1924,512,0,0
707,512,0,0,0,0,0,0,0,0,0,-1,1931,512,0,0
714,512,0,0,0,0,0,0,0,0,0,-1,1938,512,0,0
721,512,0,0,0,0,0,0,0,0,0,-1,1945,512,0,0
728,512,0,0,0,0,0,0,0,0,0,-1,1952,512,0,0
735,512,0,0,0,0,0,0,0,0,0,-1,1959,512,0,0
742,512,0,0,0,0,0,0,0,0,0,-1,1966,512,0,0
749,512,0,0,0,0,0,0,0,0,0,-1,1973,512,0,0
756,512,0,0,0,0,0,0,0,0,0,-1,1980,512,0,0
763,512,0,0,0,0,0,0,0,0,0,-1,1987,512,0,0
770,512,0,0,0,0,0,0,0,0,0,-1,1994,512,0,0
777,512,0,0,0,0,0,0,0,0,0,-1,2001,512,0,0
784,512,0,0,0,0,0,0,0,0,0,-1,2008,512,0,0
791,512,0,0,0,0,0,0,0,0,0,-1,2015,512,0,0
798,512,0,0,0,0,0,0,0,0,0,-1,2022,512,0,0
805,512,0,0,0,0,0,0,0,0,0,-1,2029,512,0,0
812,512,0,0,0,0,0,0,0,0,0,-1,2036,512,0,0
-700,505,0,0,0,0,0,0,0,0,0,-1,524,519,0,0
-693,505,0,0,0,0,0,0,0,0,0,-1,531,519,0,0
-686,505,0,0,0,0,0,0,0,0,0,-1,538,519,0,0
-679,505,0,0,0,0,0,0,0,0,0,-1,545,519,0,0
-672,505,0,0,0,0,0,0,0,0,0,-1,552,519,0,0
-665,505,0,0,0,0,0,0,0,0,0,-1,559,519,0,0
-658,505,0,0,0,0,0,0,0,0,0,-1,566,519,0,0
-651,505,0,0,0,0,0,0,0,0,0,-1,573,519,0,0
-644,505,0,0,0,0,0,0,0,0,0,-1,580,519,0,0
-637,505,0,0,0,0,0,0,0,0,0,-1,587,519,0,0
-630,505,0,0,0,0,0,0,0,0,0,-1,594,519,0,0
-623,505,0,0,0,0,0,0,0,0,0,-1,601,519,0,0
-616,505,0,0,0,0,0,0,0,0,0,-1,608,519,0,0
-609,505,0,0,0,0,0,0,0,0,0,-1,615,519,0,0
-602,505,0,0,0,0,0,0,0,0,0,-1,622,519,0,0
-595,505,0,0,0,0,0,0,0,0,0,-1,629,519,0,0
-588,505,0,0,0,0,0,0,0,0,0,-1,636,519,0,0
-581,505,0,0,0,0,0,0,0,0,0,-1,643,519,0,0
-574,505,0,0,0,0,0,0,0,0,0,-1,650,519,0,0
-567,505,0,0,0,0,0,0,0,0,0,-1,657,519,0,0
-560,505,0,0,0,0,0,0,0,0,0,-1,664,519,0,0
-553,505,0,0,0,0,0,0,0,0,0,-1,671,519,0,0
-546,505,0,0,0,0,0,0,0,0,0,-1,678,519,0,0
-539,505,0,0,0,0,0,0,0,0,0,-1,685,519,0,0
-532,505,0,0,0,0,0,0,0,0,0,-1,692,519,0,0
-525,505,0,0,0,0,0,0,0,0,0,-1,699,519,0,0
-518,505,0,0,0,0,0,0,0,0,0,-1,706,519,0,0
-511,505,0,0,0,0,0,0,0,0,0,-1,713,519,0,0
-504,505,0,0,0,0,0,0,0,0,0,-1,720,519,0,0
-497,505,0,0,0,0,0,0,0,0,0,-1,727,519,0,0
-490,505,0,0,0,0,0,0,0,0,0,-1,734,519,0,0
-483,505,0,0,0,0,0,0,0,0,0,-1,741,519,0,0
-476,505,0,0,0,0,0,0,0,0,0,-1,748,519,0,0
-469,505,0,0,0,0,0,0,0,0,0,-1,755,519,0,0
-462,505,0,0,0,0,0,0,0,0,0,-1,762,519,0,0
-455,505,2.72137,-3.26379,0,0,0,0,0,0,0,-1,769,519,2.72135,3.26377
-448,505,2.51111,-3.94989,0,0,0,0,0,0,0,-1,776,519,2.51112,3.94986
-441,505,2.80212,-6.8902,0,0,0,0,0,0,0,-1,783,519,2.80209,6.89019
-434,505,-0.155212,-10.6374,0,0,0,0,0,0,0,-1,790,519,-0.155194,10.6374
-427,505,-0.474426,-10.4702,0,0,0,0,0,0,0,-1,797,519,-0.474433,10.4702
-420,505,-0.922546,-10.1928,0,0,0,0,0,0,0,-1,804,519,-0.92257,10.1928
-413,505,-3.33948,-13.6183,0,0,0,0,0,0,0,-1,811,519,-3.33949,13.6184
-406,505,-3.2439,-18.3408,0,0,0,0,0,0,0,-1,818,519,-3.24389,18.3408
-399,505,-4.17493,-27.1527,0,0,0,0,0,0,0,-1,825,519,-4.17495,27.1527
-392,505,-4.19263,-28.2123,0.00136152,0.0146793,-0.00829351,0.0186564,-0.00261553,-1.12365,0.0133948,0.0287514,832,519,-4.19264,28.2124
-385,505,-4.31445,-29.228,0.00133428,0.0124043,-0.00733994,0.0160623,-0.0023237,-1.10846,0.0115609,0.0122131,839,519,-4.31445,29.228
-378,505,-4.40576,-30.2491,0.00134605,0.0103841,-0.00646635,0.013754,-0.00202385,-1.09038,0.00991308,0.0120118,846,519,-4.40573,30.2492
-371,505,-4.47522,-31.2864,0.00134123,0.00845431,-0.00557948,0.0115144,-0.00171884,-1.06914,0.00830867,0.0145321,853,519,-4.4752,31.2864
-364,505,-4.54706,-32.3008,0.00131464,0.00657341,-0.00459028,0.00923405,-0.00134599,-1.04549,0.00665026,0.0164129,860,519,-4.54708,32.3009
-357,505,-4.57629,-33.2997,0.00126528,0.00495643,-0.00359406,0.00715107,-0.000929365,-1.0226,0.00510545,0.0137467,867,519,-4.57631,33.2997
-350,505,-4.64252,-34.2642,0.00118757,0.00347872,-0.00262077,0.00519335,-0.000527056,-0.991441,0.00365062,0.012436,874,519,-4.64249,34.2642
-343,505,-4.71411,-35.2323,0.00112341,0.001979,-0.00168005,0.00328487,-0.000182461,-0.910065,0.0022532,0.012206,881,519,-4.7141,35.2323
-336,505,-4.78094,-36.2048,0.00096055,0.00060255,-0.000709378,0.00151316,4.99367e-05,-0.661811,0.000992549,0.0154613,888,519,-4.78095,36.2048
-329,505,-4.81323,-37.1407,0.000816305,-0.000618739,0.000187957,0.000840515,-0.000642949,0.128098,0.000859006,0.020201,895,519,-4.81326,37.1408
-322,505,-4.87604,-38.1083,0.000727322,-0.00168485,0.00103792,0.00111244,-0.00206997,0.355299,0.00186488,0.0234253,902,519,-4.87603,38.1083
-315,505,-4.95294,-39.0794,0.000719069,-0.00254586,0.00178977,0.00150904,-0.00333583,0.415666,0.0028627,0.0172741,909,519,-4.95296,39.0794
-308,505,-5.01233,-39.9839,0.000807752,-0.00321437,0.00240683,0.00193312,-0.00433973,0.437371,0.00370942,0.0131335,916,519,-5.01236,39.984
-301,505,-5.02917,-40.9453,0.000843912,-0.00369064,0.00300934,0.00234448,-0.00519121,0.462557,0.00445302,0.0214521,923,519,-5.02915,40.9453
-294,505,-5.03265,-41.7989,0,0,0,0,0,0,0,-1,930,519,-5.03268,41.7989
-287,505,-5.24274,-42.84,0,0,0,0,0,0,0,-1,937,519,-5.24277,42.84
-280,505,-2.79846,-27.7252,0,0,0,0,0,0,0,-1,944,519,-2.79845,27.7252
-273,505,-0.0680542,-9.44867,0,0,0,0,0,0,0,-1,951,519,-0.0680462,9.44866
-266,505,-0.036377,-9.07922,0,0,0,0,0,0,0,-1,958,519,-0.0364055,9.0792
-259,505,0.10321,-6.69824,0,0,0,0,0,0,0,-1,965,519,0.103235,6.69826
-252,505,6.82312,-15.6972,0,0,0,0,0,0,0,-1,972,519,6.82314,15.6972
-245,505,4.26727,-12.9861,0,0,0,0,0,0,0,-1,979,519,4.2673,12.9861
-238,505,1.67432,-11.2307,0,0,0,0,0,0,0,-1,986,519,1.67429,11.2307
-231,505,-0.958435,-8.3075,0,0,0,0,0,0,0,-1,993,519,-0.958421,8.30751
-224,505,-1.46399,-33.4399,0,0,0,0,0,0,0,-1,1000,519,-1.46397,33.4399
-217,505,-6.34302,-1.65533,0,0,0,0,0,0,0,-1,1007,519,-6.34299,1.65535
-210,505,-3.06128,-0.396301,0,0,0,0,0,0,0,-1,1014,519,-3.06129,0.396294
-203,505,-4.26465,2.03607,0,0,0,0,0,0,0,-1,1021,519,-4.26462,-2.03606
-196,505,-5.47595,4.27295,0,0,0,0,0,0,0,-1,1028,519,-5.47597,-4.27292
-189,505,1.51526,5.56207,0,0,0,0,0,0,0,-1,1035,519,1.51523,-5.56209
-182,505,2.97815,7.5097,0,0,0,0,0,0,0,-1,1042,519,2.97812,-7.5097
-175,505,-2.38416,-2.17548,0,0,0,0,0,0,0,-1,1049,519,-2.38411,2.1755
-168,505,0,0,0,0,0,0,0,0,0,-1,1056,519,0,0
-161,505,0,0,0,0,0,0,0,0,0,-1,1063,519,0,0
-154,505,0,0,0,0,0,0,0,0,0,-1,1070,519,0,0
-147,505,0,0,0,0,0,0,0,0,0,-1,1077,519,0,0
-140,505,0,0,0,0,0,0,0,0,0,-1,1084,519,0,0
-133,505,0,0,0,0,0,0,0,0,0,-1,1091,519,0,0
-126,505,0,0,0,0,0,0,0,0,0,-1,1098,519,0,0
-119,505,0,0,0,0,0,0,0,0,0,-1,1105,519,0,0
-112,505,0,0,0,0,0,0,0,0,0,-1,1112,519,0,0
-105,505,0,0,0,0,0,0,0,0,0,-1,1119,519,0,0
-98,505,0,0,0,0,0,0,0,0,0,-1,1126,519,0,0
-91,505,0,0,0,0,0,0,0,0,0,-1,1133,519,0,0
-84,505,0,0,0,0,0,0,0,0,0,-1,1140,519,0,0
-77,505,0,0,0,0,0,0,0,0,0,-1,1147,519,0,0
-70,505,0,0,0,0,0,0,0,0,0,-1,1154,519,0,0
-63,505,0,0,0,0,0,0,0,0,0,-1,1161,519,0,0
-56,505,0,0,0,0,0,0,0,0,0,-1,1168,519,0,0
-49,505,0,0,0,0,0,0,0,0,0,-1,1175,519,0,0
-42,505,0,0,0,0,0,0,0,0,0,-1,1182,519,0,0
-35,505,0,0,0,0,0,0,0,0,0,-1,1189,519,0,0
-28,505,0,0,0,0,0,0,0,0,0,-1,1196,519,0,0
-21,505,0,0,0,0,0,0,0,0,0,-1,1203,519,0,0
-14,505,0,0,0,0,0,0,0,0,0,-1,1210,519,0,0
-7,505,0,0,0,0,0,0,0,0,0,-1,1217,519,0,0
0,505,0,0,0,0,0,0,0,0,0,-1,1224,519,0,0
7,505,0,0,0,0,0,0,0,0,0,-1,1231,519,0,0
14,505,0,0,0,0,0,0,0,0,0,-1,1238,519,0,0
21,505,0,0,0,0,0,0,0,0,0,-1,1245,519,0,0
28,505,0,0,0,0,0,0,0,0,0,-1,1252,519,0,0
35,505,0,0,0,0,0,0,0,0,0,-1,1259,519,0,0
42,505,0,0,0,0,0,0,0,0,0,-1,1266,519,0,0
49,505,0,0,0,0,0,0,0,0,0,-1,1273,519,0,0
56,505,0,0,0,0,0,0,0,0,0,-1,1280,519,0,0
63,505,0,0,0,0,0,0,0,0,0,-1,1287,519,0,0
70,505,0,0,0,0,0,0,0,0,0,-1,1294,519,0,0
77,505,0,0,0,0,0,0,0,0,0,-1,1301,519,0,0
84,505,0,0,0,0,0,0,0,0,0,-1,1308,519,0,0
91,505,0,0,0,0,0,0,0,0,0,-1,1315,519,0,0
98,505,0,0,0,0,0,0,0,0,0,-1,1322,519,0,0
105,505,0,0,0,0,0,0,0,0,0,-1,1329,519,0,0
112,505,0,0,0,0,0,0,0,0,0,-1,1336,519,0,0
119,505,0,0,0,0,0,0,0,0,0,-1,1343,519,0,0
126,505,0,0,0,0,0,0,0,0,0,-1,1350,519,0,0
133,505,0,0,0,0,0,0,0,0,0,-1,1357,519,0,0
140,505,0,0,0,0,0,0,0,0,0,-1,1364,519,0,0
147,505,0,0,0,0,0,0,0,0,0,-1,1371,519,0,0
154,505,0,0,0,0,0,0,0,0,0,-1,1378,519,0,0
161,505,0,0,0,0,0,0,0,0,0,-1,1385,519,0,0
168,505,0,0,0,0,0,0,0,0,0,-1,1392,519,0,0
175,505,0,0,0,0,0,0,0,0,0,-1,1399,519,0,0
182,505,0,0,0,0,0,0,0,0,0,-1,1406,519,0,0
189,505,0,0,0,0,0,0,0,0,0,-1,1413,519,0,0
196,505,0,0,0,0,0,0,0,0,0,-1,1420,519,0,0
203,505,0,0,0,0,0,0,0,0,0,-1,1427,519,0,0
210,505,0,0,0,0,0,0,0,0,0,-1,1434,519,0,0
217,505,0,0,0,0,0,0,0,0,0,-1,1441,519,0,0
224,505,0,0,0,0,0,0,0,0,0,-1,1448,519,0,0
231,505,0,0,0,0,0,0,0,0,0,-1,1455,519,0,0
238,505,0,0,0,0,0,0,0,0,0,-1,1462,519,0,0
245,505,0,0,0,0,0,0,0,0,0,-1,1469,519,0,0
252,505,0,0,0,0,0,0,0,0,0,-1,1476,519,0,0
259,505,0,0,0,0,0,0,0,0,0,-1,1483,519,0,0
266,505,0,0,0,0,0,0,0,0,0,-1,1490,519,0,0
273,505,0,0,0,0,0,0,0,0,0,-1,1497,519,0,0
280,505,0,0,0,0,0,0,0,0,0,-1,1504,519,0,0
287,505,4.39478,0.499512,0,0,0,0,0,0,0,-1,1511,519,4.39476,-0.499506
294,505,4.88867,0.0822754,0,0,0,0,0,0,0,-1,1518,519,4.88871,-0.0822748
301,505,4.82153,-0.0704346,0,0,0,0,0,0,0,-1,1525,519,4.82156,0.0704312
308,505,4.67761,-0.29187,0,0,0,0,0,0,0,-1,1532,519,4.67762,0.291845
315,505,8.44055,-6.54352,0,0,0,0,0,0,0,-1,1539,519,8.44059,6.54349
322,505,4.78955,-0.594116,0,0,0,0,0,0,0,-1,1546,519,4.78957,0.594096
329,505,5.16321,0.434631,0,0,0,0,0,0,0,-1,1553,519,5.16316,-0.434614
336,505,4.94495,-0.920471,0,0,0,0,0,0,0,-1,1560,519,4.945,0.920495
343,505,5.01855,-1.4823,0,0,0,0,0,0,0,-1,1567,519,5.01851,1.48227
350,505,5.33154,-1.77838,0,0,0,0,0,0,0,-1,1574,519,5.33152,1.77838
357,505,5.56567,-1.9425,0,0,0,0,0,0,0,-1,1581,519,5.56562,1.94248
364,505,5.85205,-2.6579,0,0,0,0,0,0,0,-1,1588,519,5.85211,2.65788
371,505,5.88477,-7.00922,0,0,0,0,0,0,0,-1,1595,519,5.88473,7.00924
378,505,5.44104,-7.10162,0,0,0,0,0,0,0,-1,1602,519,5.44099,7.10162
385,505,6.64661,-8.65015,0,0,0,0,0,0,0,-1,1609,519,6.64662,8.65014
392,505,6.34558,-8.3429,0,0,0,0,0,0,0,-1,1616,519,6.34554,8.34288
399,505,7.45898,-9.70386,0,0,0,0,0,0,0,-1,1623,519,7.45899,9.70388
406,505,7.08679,-9.4928,0,0,0,0,0,0,0,-1,1630,519,7.08678,9.49278
413,505,8.4032,-14.0308,0,0,0,0,0,0,0,-1,1637,519,8.4032,14.0308
420,505,22.1066,-42.0477,0,0,0,0,0,0,0,-1,1644,519,22.1066,42.0478
427,505,22.1055,-40.96,0.00176953,0.00163433,-0.00141123,0.00311478,0.000289085,-0.761466,0.00198718,0.0395382,1651,519,22.1054,40.9599
434,505,22.0313,-39.8921,0.00138456,0.00138149,-0.00132325,0.00270628,5.97716e-05,-0.784819,0.00178459,0.0151304,1658,519,22.0313,39.8921
441,505,21.989,-38.8702,0.00119439,0.00125416,-0.00111792,0.00234259,0.000105954,-0.798761,0.00152764,0.0113518,1665,519,21.989,38.8703
448,505,21.9219,-37.9325,0.0011093,0.00118755,-0.000747636,0.00189708,0.000399765,-0.811539,0.00115477,0.011864,1672,519,21.9219,37.9325
455,505,21.8617,-36.9946,0.00102661,0.00125963,-0.00035272,0.00151458,0.000771654,-0.944913,0.000874497,0.0125363,1679,519,21.8617,36.9946
462,505,21.7925,-36.0439,0.00105991,0.00150128,0.000135516,0.00153957,0.00102162,1.29545,0.000904586,0.0118037,1686,519,21.7925,36.044
469,505,21.7378,-35.0645,0.00120605,0.00180186,0.000715239,0.00227876,0.000729155,0.982728,0.00134376,0.0118512,1693,519,21.7378,35.0644
476,505,21.6915,-34.0998,0.00136755,0.00216745,0.00134671,0.00317235,0.000362655,0.929742,0.00200498,0.0128394,1700,519,21.6915,34.0998
483,505,21.6394,-33.1467,0.00156842,0.00257142,0.00202621,0.00415727,-1.74255e-05,0.906713,0.00277734,0.0140128,1707,519,21.6394,33.1467
490,505,21.5836,-32.1625,0.00174443,0.00304674,0.00271368,0.0051863,-0.000395131,0.903149,0.00359648,0.0126653,1714,519,21.5836,32.1625
497,505,21.504,-31.1719,0.00192938,0.00335157,0.00327467,0.00599146,-0.000710511,0.892313,0.00425098,0.0120759,1721,519,21.504,31.1719
504,505,21.4104,-30.1628,0.00226825,0.00368499,0.00384723,0.00688852,-0.000935276,0.876441,0.00493374,0.0133066,1728,519,21.4104,30.1628
511,505,21.3568,-29.1642,0.00258009,0.00400105,0.00441663,0.00776398,-0.00118284,0.865147,0.00561197,0.0162748,1735,519,21.3568,29.1642
518,505,21.4993,-28.1308,0,0,0,0,0,0,0,-1,1742,519,21.4993,28.1308
525,505,20.7158,-26.4478,0,0,0,0,0,0,0,-1,1749,519,20.7158,26.4477
532,505,20.189,-24.8809,0,0,0,0,0,0,0,-1,1756,519,20.189,24.8808
539,505,13.9879,-13.9018,0,0,0,0,0,0,0,-1,1763,519,13.988,13.9018
546,505,7.94946,-6.64539,0,0,0,0,0,0,0,-1,1770,519,7.94947,6.64539
553,505,2.82837,0.162659,0,0,0,0,0,0,0,-1,1777,519,2.82841,-0.162672
560,505,3.66223,-0.479797,0,0,0,0,0,0,0,-1,1784,519,3.66219,0.47982
567,505,4.65271,-0.950256,0,0,0,0,0,0,0,-1,1791,519,4.65274,0.95028
574,505,5.54443,-1.19977,0,0,0,0,0,0,0,-1,1798,519,5.54443,1.19974
581,505,0,0,0,0,0,0,0,0,0,-1,1805,519,0,0
588,505,0,0,0,0,0,0,0,0,0,-1,1812,519,0,0
595,505,0,0,0,0,0,0,0,0,0,-1,1819,519,0,0
602,505,0,0,0,0,0,0,0,0,0,-1,1826,519,0,0
609,505,0,0,0,0,0,0,0,0,0,-1,1833,519,0,0
616,505,0,0,0,0,0,0,0,0,0,-1,1840,519,0,0
623,505,0,0,0,0,0,0,0,0,0,-1,1847,519,0,0
630,505,0,0,0,0,0,0,0,0,0,-1,1854,519,0,0
637,505,0,0,0,0,0,0,0,0,0,-1,1861,519,0,0
644,505,0,0,0,0,0,0,0,0,0,-1,1868,519,0,0
651,505,0,0,0,0,0,0,0,0,0,-1,1875,519,0,0
658,505,0,0,0,0,0,0,0,0,0,-1,1882,519,0,0
665,505,0,0,0,0,0,0,0,0,0,-1,1889,519,0,0
672,505,0,0,0,0,0,0,0,0,0,-1,1896,519,0,0
679,505,0,0,0,0,0,0,0,0,0,-1,1903,519,0,0
686,505,0,0,0,0,0,0,0,0,0,-1,1910,519,0,0
693,505,0,0,0,0,0,0,0,0,0,-1,1917,519,0,0
700,505,0,0,0,0,0,0,0,0,0,-1,1924,519,0,0
707,505,0,0,0,0,0,0,0,0,0,-1,1931,519,0,0
714,505,0,0,0,0,0,0,0,0,0,-1,1938,519,0,0
721,505,0,0,0,0,0,0,0,0,0,-1,1945,519,0,0
728,505,0,0,0,0,0,0,0,0,0,-1,1952,519,0,0
735,505,0,0,0,0,0,0,0,0,0,-1,1959,519,0,0
742,505,0,0,0,0,0,0,0,0,0,-1,1966,519,0,0
749,505,0,0,0,0,0,0,0,0,0,-1,1973,519,0,0
756,505,0,0,0,0,0,0,0,0,0,-1,1980,519,0,0
763,505,0,0,0,0,0,0,0,0,0,-1,1987,519,0,0
770,505,0,0,0,0,0,0,0,0,0,-1,1994,519,0,0
777,505,0,0,0,0,0,0,0,0,0,-1,2001,519,0,0
784,505,0,0,0,0,0,0,0,0,0,-1,2008,519,0,0
791,505,0,0,0,0,0,0,0,0,0,-1,2015,519,0,0
798,505,0,0,0,0,0,0,0,0,0,-1,2022,519,0,0
805,505,0,0,0,0,0,0,0,0,0,-1,2029,519,0,0
812,505,0,0,0,0,0,0,0,0,0,-1,2036,519,0,0
-700,498,0,0,0,0,0,0,0,0,0,-1,524,526,0,0
-693,498,0,0,0,0,0,0,0,0,0,-1,531,526,0,0
-686,498,0,0,0,0,0,0,0,0,0,-1,538,526,0,0
-679,498,0,0,0,0,0,0,0,0,0,-1,545,526,0,0
-672,498,0,0,0,0,0,0,0,0,0,-1,552,526,0,0
-665,498,0,0,0,0,0,0,0,0,0,-1,559,526,0,0
-658,498,0,0,0,0,0,0,0,0,0,-1,566,526,0,0
-651,498,0,0,0,0,0,0,0,0,0,-1,573,526,0,0
-644,498,0,0,0,0,0,0,0,0,0,-1,580,526,0,0
-637,498,0,0,0,0,0,0,0,0,0,-1,587,526,0,0
-630,498,0,0,0,0,0,0,0,0,0,-1,594,526,0,0
-623,498,0,0,0,0,0,0,0,0,0,-1,601,526,0,0
-616,498,0,0,0,0,0,0,0,0,0,-1,608,526,0,0
-609,498,0,0,0,0,0,0,0,0,0,-1,615,526,0,0
-602,498,0,0,0,0,0,0,0,0,0,-1,622,526,0,0
-595,498,0,0,0,0,0,0,0,0,0,-1,629,526,0,0
-588,498,0,0,0,0,0,0,0,0,0,-1,636,526,0,0
-581,498,0,0,0,0,0,0,0,0,0,-1,643,526,0,0
-574,498,0,0,0,0,0,0,0,0,0,-1,650,526,0,0
-567,498,0,0,0,0,0,0,0,0,0,-1,657,526,0,0
-560,498,0,0,0,0,0,0,0,0,0,-1,664,526,0,0
-553,498,0,0,0,0,0,0,0,0,0,-1,671,526,0,0
-546,498,0,0,0,0,0,0,0,0,0,-1,678,526,0,0
-539,498,0,0,0,0,0,0,0,0,0,-1,685,526,0,0
-532,498,0,0,0,0,0,0,0,0,0,-1,692,526,0,0
-525,498,0,0,0,0,0,0,0,0,0,-1,699,526,0,0
-518,498,0,0,0,0,0,0,0,0,0,-1,706,526,0,0
-511,498,0,0,0,0,0,0,0,0,0,-1,713,526,0,0
-504,498,0,0,0,0,0,0,0,0,0,-1,720,526,0,0
-497,498,0,0,0,0,0,0,0,0,0,-1,727,526,0,0
-490,498,0,0,0,0,0,0,0,0,0,-1,734,526,0,0
-483,498,0,0,0,0,0,0,0,0,0,-1,741,526,0,0
-476,498,0,0,0,0,0,0,0,0,0,-1,748,526,0,0
-469,498,0,0,0,0,0,0,0,0,0,-1,755,526,0,0
-462,498,6.81024,1.15515,0,0,0,0,0,0,0,-1,762,526,6.81026,-1.15514
-455,498,3.25757,-3.0592,0,0,0,0,0,0,0,-1,769,526,3.25754,3.05921
-448,498,3.05939,-3.74298,0,0,0,0,0,0,0,-1,776,526,3.05939,3.74296
-441,498,2.77191,-6.08209,0,0,0,0,0,0,0,-1,783,526,2.77189,6.08207
-434,498,2.10681,-6.95929,0,0,0,0,0,0,0,-1,790,526,2.10682,6.9593
-427,498,-0.368042,-10.7726,0,0,0,0,0,0,0,-1,797,526,-0.36807,10.7726
-420,498,-1.05035,-10.5142,0,0,0,0,0,0,0,-1,804,526,-1.05034,10.5142
-413,498,-4.52112,-18.8354,0,0,0,0,0,0,0,-1,811,526,-4.52111,18.8354
-406,498,-4.98633,-25.8831,0,0,0,0,0,0,0,-1,818,526,-4.98632,25.8831
-399,498,-5.04071,-27.0476,0.000751588,0.0130663,-0.00696735,0.0162071,-0.00238929,-1.14728,0.0116829,0.0357382,825,526,-5.04072,27.0476
-392,498,-5.19934,-28.1511,0.000837346,0.0111426,-0.00629855,0.0141276,-0.00214768,-1.12823,0.0102099,0.0195765,832,526,-5.19936,28.1511
-385,498,-5.28131,-29.1861,0.000987298,0.00932113,-0.00557105,0.0121112,-0.00180278,-1.10649,0.00873728,0.0107371,839,526,-5.28131,29.1861
-378,498,-5.35974,-30.2198,0.00112936,0.00763781,-0.00483843,0.0102146,-0.0014474,-1.08144,0.00733991,0.0112541,846,526,-5.35977,30.2199
-371,498,-5.40747,-31.2393,0.00120868,0.00600081,-0.00409838,0.00835215,-0.00114266,-1.04992,0.00598545,0.0169186,853,526,-5.40746,31.2393
-364,498,-5.48846,-32.2285,0.00126059,0.00432588,-0.00325293,0.00638914,-0.000802675,-1.00555,0.00455065,0.0166305,860,526,-5.48846,32.2285
-357,498,-5.54517,-33.2272,0.00130044,0.00290923,-0.00239021,0.00462677,-0.000417093,-0.947714,0.00323253,0.0118474,867,526,-5.54516,33.2272
-350,498,-5.61078,-34.1949,0.00130509,0.00160164,-0.00154017,0.00300065,-9.39234e-05,-0.833385,0.00203247,0.0118505,874,526,-5.61075,34.1949
-343,498,-5.6792,-35.2178,0.00126878,0.00026106,-0.000692249,0.00162112,-9.12834e-05,-0.470809,0.00111242,0.0164624,881,526,-5.67921,35.2178
-336,498,-5.69196,-36.2049,0.00108632,-0.00103658,0.000231402,0.00111125,-0.00106151,0.107323,0.00125455,0.0214603,888,526,-5.69198,36.2049
-329,498,-5.71893,-37.0901,0.000917088,-0.00220257,0.00110491,0.00126877,-0.00255425,0.308155,0.00224843,0.0259001,895,526,-5.71892,37.0901
-322,498,-5.82538,-38.0381,0.000831948,-0.00308637,0.00187849,0.00158702,-0.00384144,0.38219,0.00322295,0.027268,902,526,-5.8254,38.0381
-315,498,-5.91315,-38.9877,0.000778095,-0.00386988,0.00262105,0.00195708,-0.00504886,0.4227,0.00417411,0.0201425,909,526,-5.91314,38.9878
-308,498,-5.95599,-39.9124,0.000812985,-0.00446727,0.00324051,0.00235271,-0.00600699,0.44357,0.00497781,0.0250016,916,526,-5.956,39.9124
-301,498,-5.94238,-40.9413,0,0,0,0,0,0,0,-1,923,526,-5.94236,40.9413
-294,498,-5.49982,-39.5652,0,0,0,0,0,0,0,-1,930,526,-5.49979,39.5653
-287,498,-0.91394,-13.4327,0,0,0,0,0,0,0,-1,937,526,-0.913935,13.4327
-280,498,-0.341614,-8.66608,0,0,0,0,0,0,0,-1,944,526,-0.341589,8.66606
-273,498,-0.988892,-8.62921,0,0,0,0,0,0,0,-1,951,526,-0.988906,8.62922
-266,498,0.362488,-6.33545,0,0,0,0,0,0,0,-1,958,526,0.362478,6.33547
-259,498,10.9454,-17.3615,0,0,0,0,0,0,0,-1,965,526,10.9454,17.3614
-252,498,8.56586,-14.6886,0,0,0,0,0,0,0,-1,972,526,8.56584,14.6886
-245,498,5.97382,-11.928,0,0,0,0,0,0,0,-1,979,526,5.97381,11.928
-238,498,2.24841,-13.8145,0,0,0,0,0,0,0,-1,986,526,2.24838,13.8145
-231,498,0.665894,-10.4898,0,0,0,0,0,0,0,-1,993,526,0.665863,10.4898
-224,498,-2.11243,-4.76312,0,0,0,0,0,0,0,-1,1000,526,-2.11245,4.76314
-217,498,-3.82239,-1.42841,0,0,0,0,0,0,0,-1,1007,526,-3.82241,1.42843
-210,498,-1.80591,-0.358215,0,0,0,0,0,0,0,-1,1014,526,-1.8059,0.3582
-203,498,-3.17316,1.06641,0,0,0,0,0,0,0,-1,1021,526,-3.17313,-1.0664
-196,498,-0.103271,5.40527,0,0,0,0,0,0,0,-1,1028,526,-0.103285,-5.40528
-189,498,3.00256,6.47137,0,0,0,0,0,0,0,-1,1035,526,3.00256,-6.47139
-182,498,0,0,0,0,0,0,0,0,0,-1,1042,526,0,0
-175,498,0,0,0,0,0,0,0,0,0,-1,1049,526,0,0
-168,498,0,0,0,0,0,0,0,0,0,-1,1056,526,0,0
-161,498,0,0,0,0,0,0,0,0,0,-1,1063,526,0,0
-154,498,0,0,0,0,0,0,0,0,0,-1,1070,526,0,0
-147,498,0,0,0,0,0,0,0,0,0,-1,1077,526,0,0
-140,498,0,0,0,0,0,0,0,0,0,-1,1084,526,0,0
-133,498,0,0,0,0,0,0,0,0,0,-1,1091,526,0,0
-126,498,0,0,0,0,0,0,0,0,0,-1,1098,526,0,0
-119,498,0,0,0,0,0,0,0,0,0,-1,1105,526,0,0
-112,498,0,0,0,0,0,0,0,0,0,-1,1112,526,0,0
-105,498,0,0,0,0,0,0,0,0,0,-1,1119,526,0,0
-98,498,0,0,0,0,0,0,0,0,0,-1,1126,526,0,0
-91,498,0,0,0,0,0,0,0,0,0,-1,1133,526,0,0
-84,498,0,0,0,0,0,0,0,0,0,-1,1140,526,0,0
-77,498,0,0,0,0,0,0,0,0,0,-1,1147,526,0,0
-70,498,0,0,0,0,0,0,0,0,0,-1,1154,526,0,0
-63,498,0,0,0,0,0,0,0,0,0,-1,1161,526,0,0
-56,498,0,0,0,0,0,0,0,0,0,-1,1168,526,0,0
-49,498,0,0,0,0,0,0,0,0,0,-1,1175,526,0,0
-42,498,0,0,0,0,0,0,0,0,0,-1,1182,526,0,0
-35,498,0,0,0,0,0,0,0,0,0,-1,1189,526,0,0
-28,498,0,0,0,0,0,0,0,0,0,-1,1196,526,0,0
-21,498,0,0,0,0,0,0,0,0,0,-1,1203,526,0,0
-14,498,0,0,0,0,0,0,0,0,0,-1,1210,526,0,0
-7,498,0,0,0,0,0,0,0,0,0,-1,1217,526,0,0
0,498,0,0,0,0,0,0,0,0,0,-1,1224,526,0,0
7,498,0,0,0,0,0,0,0,0,0,-1,1231,526,0,0
14,498,0,0,0,0,0,0,0,0,0,-1,1238,526,0,0
21,498,0,0,0,0,0,0,0,0,0,-1,1245,526,0,0
28,498,0,0,0,0,0,0,0,0,0,-1,1252,526,0,0
35,498,0,0,0,0,0,0,0,0,0,-1,1259,526,0,0
42,498,0,0,0,0,0,0,0,0,0,-1,1266,526,0,0
49,498,0,0,0,0,0,0,0,0,0,-1,1273,526,0,0
56,498,0,0,0,0,0,0,0,0,0,-1,1280,526,0,0
63,498,0,0,0,0,0,0,0,0,0,-1,1287,526,0,0
70,498,0,0,0,0,0,0,0,0,0,-1,1294,526,0,0
77,498,0,0,0,0,0,0,0,0,0,-1,1301,526,0,0
84,498,0,0,0,0,0,0,0,0,0,-1,1308,526,0,0
91,498,0,0,0,0,0,0,0,0,0,-1,1315,526,0,0
98,498,0,0,0,0,0,0,0,0,0,-1,1322,526,0,0
105,498,0,0,0,0,0,0,0,0,0,-1,1329,526,0,0
112,498,0,0,0,0,0,0,0,0,0,-1,1336,526,0,0
119,498,0,0,0,0,0,0,0,0,0,-1,1343,526,0,0
126,498,0,0,0,0,0,0,0,0,0,-1,1350,526,0,0
133,498,0,0,0,0,0,0,0,0,0,-1,1357,526,0,0
140,498,0,0,0,0,0,0,0,0,0,-1,1364,526,0,0
147,498,0,0,0,0,0,0,0,0,0,-1,1371,526,0,0
154,498,0,0,0,0,0,0,0,0,0,-1,1378,526,0,0
161,498,0,0,0,0,0,0,0,0,0,-1,1385,526,0,0
168,498,0,0,0,0,0,0,0,0,0,-1,1392,526,0,0
175,498,0,0,0,0,0,0,0,0,0,-1,1399,526,0,0
182,498,0,0,0,0,0,0,0,0,0,-1,1406,526,0,0
189,498,0,0,0,0,0,0,0,0,0,-1,1413,526,0,0
196,498,0,0,0,0,0,0,0,0,0,-1,1420,526,0,0
203,498,0,0,0,0,0,0,0,0,0,-1,1427,526,0,0
210,498,0,0,0,0,0,0,0,0,0,-1,1434,526,0,0
217,498,0,0,0,0,0,0,0,0,0,-1,1441,526,0,0
224,498,0,0,0,0,0,0,0,0,0,-1,1448,526,0,0
231,498,0,0,0,0,0,0,0,0,0,-1,1455,526,0,0
238,498,0,0,0,0,0,0,0,0,0,-1,1462,526,0,0
245,498,0,0,0,0,0,0,0,0,0,-1,1469,526,0,0
252,498,0,0,0,0,0,0,0,0,0,-1,1476,526,0,0
259,498,0,0,0,0,0,0,0,0,0,-1,1483,526,0,0
266,498,0,0,0,0,0,0,0,0,0,-1,1490,526,0,0
273,498,0,0,0,0,0,0,0,0,0,-1,1497,526,0,0
280,498,0,0,0,0,0,0,0,0,0,-1,1504,526,0,0
287,498,0,0,0,0,0,0,0,0,0,-1,1511,526,0,0
294,498,0,0,0,0,0,0,0,0,0,-1,1518,526,0,0
301,498,0,0,0,0,0,0,0,0,0,-1,1525,526,0,0
308,498,4.77942,-0.293884,0,0,0,0,0,0,0,-1,1532,526,4.77939,0.293899
315,498,4.56091,-0.564148,0,0,0,0,0,0,0,-1,1539,526,4.56097,0.564142
322,498,4.52344,-0.447266,0,0,0,0,0,0,0,-1,1546,526,4.52341,0.447295
329,498,4.63232,-0.156982,0,0,0,0,0,0,0,-1,1553,526,4.63238,0.156991
336,498,5.22644,0.0925903,0,0,0,0,0,0,0,-1,1560,526,5.22648,-0.0926188
343,498,6.22607,-1.67615,0,0,0,0,0,0,0,-1,1567,526,6.22605,1.67617
350,498,6.19373,-1.59906,0,0,0,0,0,0,0,-1,1574,526,6.19367,1.59906
357,498,6.21472,-1.58929,0,0,0,0,0,0,0,-1,1581,526,6.21476,1.58927
364,498,5.73547,-1.2019,0,0,0,0,0,0,0,-1,1588,526,5.73547,1.20192
371,498,3.27087,-4.55334,0,0,0,0,0,0,0,-1,1595,526,3.27089,4.55332
378,498,8.42944,-4.70624,0,0,0,0,0,0,0,-1,1602,526,8.42942,4.70624
385,498,4.7793,-5.15314,0,0,0,0,0,0,0,-1,1609,526,4.77935,5.15311
392,498,9.12439,-8.57953,0,0,0,0,0,0,0,-1,1616,526,9.12443,8.57955
399,498,7.98938,-9.46021,0,0,0,0,0,0,0,-1,1623,526,7.98936,9.4602
406,498,7.58081,-9.26819,0,0,0,0,0,0,0,-1,1630,526,7.58085,9.26817
413,498,7.17236,-9.07611,0,0,0,0,0,0,0,-1,1637,526,7.17234,9.07614
420,498,11.4314,-16.1147,0,0,0,0,0,0,0,-1,1644,526,11.4313,16.1147
427,498,22.8246,-41.0287,0,0,0,0,0,0,0,-1,1651,526,22.8245,41.0288
434,498,22.8884,-39.9038,0,0,0,0,0,0,0,-1,1658,526,22.8885,39.9038
441,498,22.9403,-38.8518,0.000972349,0.000978848,-0.00188604,0.00286164,-0.000910446,-0.78626,0.00227286,0.0166524,1665,526,22.9403,38.8518
448,498,22.9103,-37.8622,0.000953608,0.00082056,-0.00151679,0.00240533,-0.000631162,-0.763483,0.00185018,0.0120389,1672,526,22.9103,37.8622
455,498,22.8384,-36.9274,0.000946132,0.000837594,-0.00113083,0.002024,-0.000240271,-0.761421,0.00143614,0.015678,1679,526,22.8384,36.9274
462,498,22.7755,-35.9952,0.000992664,0.0010223,-0.000639142,0.0016468,0.00036817,-0.79699,0.000998041,0.0171634,1686,526,22.7755,35.9952
469,498,22.7172,-35.0518,0.00114739,0.0012754,-7.57693e-05,0.00131058,0.00111221,-1.13612,0.000815678,0.0145341,1693,526,22.7171,35.0518
476,498,22.6669,-34.078,0.00130574,0.00159237,0.000538522,0.00200632,0.000891787,0.915447,0.00116073,0.0108724,1700,526,22.6669,34.078
483,498,22.6003,-33.0991,0.00147973,0.0019246,0.00117913,0.00290209,0.000502244,0.878625,0.00179094,0.00901705,1707,526,22.6003,33.099
490,498,22.527,-32.1147,0.00160528,0.00237707,0.0018318,0.00386318,0.000119167,0.889213,0.00253666,0.0112823,1714,526,22.527,32.1148
497,498,22.463,-31.114,0.00170999,0.00274823,0.00238684,0.00467174,-0.000213527,0.892476,0.00318806,0.0132486,1721,526,22.463,31.1139
504,498,22.3989,-30.1129,0.00194155,0.00302253,0.00291742,0.00544911,-0.000485028,0.876991,0.00380473,0.0151863,1728,526,22.399,30.1129
511,498,22.3164,-29.1106,0.00211406,0.00334869,0.00342734,0.00621386,-0.000751119,0.8745,0.0044143,0.0175365,1735,526,22.3164,29.1106
518,498,22.3563,-28.0828,0.00215534,0.00371654,0.00376945,0.00678536,-0.000913492,0.887498,0.00485679,0.0296625,1742,526,22.3564,28.0828
525,498,22.3085,-27.0515,0,0,0,0,0,0,0,-1,1749,526,22.3085,27.0515
532,498,22.1599,-26.0499,0,0,0,0,0,0,0,-1,1756,526,22.16,26.0499
539,498,20.0029,-23.3469,0,0,0,0,0,0,0,-1,1763,526,20.003,23.3469
546,498,10.2014,-8.47589,0,0,0,0,0,0,0,-1,1770,526,10.2014,8.47589
553,498,5.93958,-1.71448,0,0,0,0,0,0,0,-1,1777,526,5.93956,1.71447
560,498,3.69385,-0.615112,0,0,0,0,0,0,0,-1,1784,526,3.69381,0.615118
567,498,5.12695,-0.581604,0,0,0,0,0,0,0,-1,1791,526,5.12699,0.58159
574,498,3.88,0.0286255,0,0,0,0,0,0,0,-1,1798,526,3.87999,-0.0286535
581,498,10.8722,2.58551,0,0,0,0,0,0,0,-1,1805,526,10.8723,-2.58551
588,498,0,0,0,0,0,0,0,0,0,-1,1812,526,0,0
595,498,0,0,0,0,0,0,0,0,0,-1,1819,526,0,0
602,498,0,0,0,0,0,0,0,0,0,-1,1826,526,0,0
609,498,0,0,0,0,0,0,0,0,0,-1,1833,526,0,0
616,498,0,0,0,0,0,0,0,0,0,-1,1840,526,0,0
623,498,0,0,0,0,0,0,0,0,0,-1,1847,526,0,0
630,498,0,0,0,0,0,0,0,0,0,-1,1854,526,0,0
637,498,0,0,0,0,0,0,0,0,0,-1,1861,526,0,0
644,498,0,0,0,0,0,0,0,0,0,-1,1868,526,0,0
651,498,0,0,0,0,0,0,0,0,0,-1,1875,526,0,0
658,498,0,0,0,0,0,0,0,0,0,-1,1882,526,0,0
665,498,0,0,0,0,0,0,0,0,0,-1,1889,526,0,0
672,498,0,0,0,0,0,0,0,0,0,-1,1896,526,0,0
679,498,0,0,0,0,0,0,0,0,0,-1,1903,526,0,0
686,498,0,0,0,0,0,0,0,0,0,-1,1910,526,0,0
693,498,0,0,0,0,0,0,0,0,0,-1,1917,526,0,0
700,498,0,0,0,0,0,0,0,0,0,-1,1924,526,0,0
707,498,0,0,0,0,0,0,0,0,0,-1,1931,526,0,0
714,498,0,0,0,0,0,0,0,0,0,-1,1938,526,0,0
721,498,0,0,0,0,0,0,0,0,0,-1,1945,526,0,0
728,498,0,0,0,0,0,0,0,0,0,-1,1952,526,0,0
735,498,0,0,0,0,0,0,0,0,0,-1,1959,526,0,0
742,498,0,0,0,0,0,0,0,0,0,-1,1966,526,0,0
749,498,0,0,0,0,0,0,0,0,0,-1,1973,526,0,0
756,498,0,0,0,0,0,0,0,0,0,-1,1980,526,0,0
763,498,0,0,0,0,0,0,0,0,0,-1,1987,526,0,0
770,498,0,0,0,0,0,0,0,0,0,-1,1994,526,0,0
777,498,0,0,0,0,0,0,0,0,0,-1,2001,526,0,0
784,498,0,0,0,0,0,0,0,0,0,-1,2008,526,0,0
791,498,0,0,0,0,0,0,0,0,0,-1,2015,526,0,0
798,498,0,0,0,0,0,0,0,0,0,-1,2022,526,0,0
805,498,0,0,0,0,0,0,0,0,0,-1,2029,526,0,0
812,498,0,0,0,0,0,0,0,0,0,-1,2036,526,0,0
-700,491,0,0,0,0,0,0,0,0,0,-1,524,533,0,0
-693,491,0,0,0,0,0,0,0,0,0,-1,531,533,0,0
-686,491,0,0,0,0,0,0,0,0,0,-1,538,533,0,0
-679,491,0,0,0,0,0,0,0,0,0,-1,545,533,0,0
-672,491,0,0,0,0,0,0,0,0,0,-1,552,533,0,0
-665,491,0,0,0,0,0,0,0,0,0,-1,559,533,0,0
-658,491,0,0,0,0,0,0,0,0,0,-1,566,533,0,0
-651,491,0,0,0,0,0,0,0,0,0,-1,573,533,0,0
-644,491,0,0,0,0,0,0,0,0,0,-1,580,533,0,0
-637,491,0,0,0,0,0,0,0,0,0,-1,587,533,0,0
-630,491,0,0,0,0,0,0,0,0,0,-1,594,533,0,0
-623,491,0,0,0,0,0,0,0,0,0,-1,601,533,0,0
-616,491,0,0,0,0,0,0,0,0,0,-1,608,533,0,0
-609,491,0,0,0,0,0,0,0,0,0,-1,615,533,0,0
-602,491,0,0,0,0,0,0,0,0,0,-1,622,533,0,0
-595,491,0,0,0,0,0,0,0,0,0,-1,629,533,0,0
-588,491,0,0,0,0,0,0,0,0,0,-1,636,533,0,0
-581,491,0,0,0,0,0,0,0,0,0,-1,643,533,0,0
-574,491,0,0,0,0,0,0,0,0,0,-1,650,533,0,0
-567,491,0,0,0,0,0,0,0,0,0,-1,657,533,0,0
-560,491,0,0,0,0,0,0,0,0,0,-1,664,533,0,0
-553,491,0,0,0,0,0,0,0,0,0,-1,671,533,0,0
-546,491,0,0,0,0,0,0,0,0,0,-1,678,533,0,0
-539,491,0,0,0,0,0,0,0,0,0,-1,685,533,0,0
-532,491,0,0,0,0,0,0,0,0,0,-1,692,533,0,0
-525,491,0,0,0,0,0,0,0,0,0,-1,699,533,0,0
-518,491,0,0,0,0,0,0,0,0,0,-1,706,533,0,0
-511,491,0,0,0,0,0,0,0,0,0,-1,713,533,0,0
-504,491,0,0,0,0,0,0,0,0,0,-1,720,533,0,0
-497,491,0,0,0,0,0,0,0,0,0,-1,727,533,0,0
-490,491,0,0,0,0,0,0,0,0,0,-1,734,533,0,0
-483,491,0,0,0,0,0,0,0,0,0,-1,741,533,0,0
-476,491,0,0,0,0,0,0,0,0,0,-1,748,533,0,0
-469,491,-5.85913,4.55011,0,0,0,0,0,0,0,-1,755,533,-5.8591,-4.55009
-462,491,-9.93713,4.90381,0,0,0,0,0,0,0,-1,762,533,-9.93716,-4.9038
-455,491,1.9494,-0.27887,0,0,0,0,0,0,0,-1,769,533,1.94941,0.27885
-448,491,2.68909,-1.8999,0,0,0,0,0,0,0,-1,776,533,2.6891,1.89988
-441,491,3.46069,-3.51855,0,0,0,0,0,0,0,-1,783,533,3.46071,3.51854
-434,491,2.67145,-7.44061,0,0,0,0,0,0,0,-1,790,533,2.67146,7.44061
-427,491,2.27136,-8.34546,0,0,0,0,0,0,0,-1,797,533,2.27136,8.34546
-420,491,-6.41321,-22.5922,0,0,0,0,0,0,0,-1,804,533,-6.41323,22.5922
-413,491,-6.08368,-24.8972,0,0,0,0,0,0,0,-1,811,533,-6.08368,24.8971
-406,491,-6.03363,-26.1288,0.000476269,0.0118275,-0.00588561,0.0143282,-0.00202449,-1.16902,0.0102936,0.0334711,818,533,-6.03366,26.1289
-399,491,-6.06989,-27.1876,0.00046522,0.00993172,-0.00526722,0.0122799,-0.001883,-1.15143,0.00888109,0.0166847,825,533,-6.0699,27.1876
-392,491,-6.20294,-28.1822,0.000574549,0.00825744,-0.00467524,0.010467,-0.001635,-1.1293,0.00758199,0.0126614,832,533,-6.20297,28.1822
-385,491,-6.25702,-29.1563,0.000780869,0.00672715,-0.00407072,0.00879487,-0.00128685,-1.10081,0.00633591,0.0103116,839,533,-6.257,29.1563
-378,491,-6.31427,-30.1518,0.000975692,0.00527204,-0.00342195,0.00716422,-0.000916482,-1.06569,0.00510911,0.014971,846,533,-6.31426,30.1518
-371,491,-6.37677,-31.1626,0.00110375,0.00384132,-0.00278136,0.00557246,-0.000627391,-1.01406,0.00394078,0.0157816,853,533,-6.37679,31.1626
-364,491,-6.44562,-32.1674,0.00121038,0.00235406,-0.00204268,0.00390343,-0.000338992,-0.921878,0.00272233,0.0142322,860,533,-6.44559,32.1674
-357,491,-6.50586,-33.1418,0.00132407,0.00110651,-0.00129515,0.002515,-8.44224e-05,-0.743501,0.00170551,0.0125382,867,533,-6.50588,33.1418
-350,491,-6.586,-34.0947,0.00141157,-6.63717e-05,-0.00056342,0.00160186,-0.000256658,-0.325707,0.00116294,0.0160012,874,533,-6.58598,34.0947
-343,491,-6.61566,-35.1122,0.00141752,-0.00125557,0.000182876,0.00142997,-0.00126802,0.0679917,0.00155862,0.028364,881,533,-6.61563,35.1123
-336,491,-6.67377,-36.1691,0.00124595,-0.0024872,0.00103361,0.00151302,-0.00275428,0.252857,0.00249822,0.029188,888,533,-6.67378,36.1691
-329,491,-6.71936,-37.0291,0.00108886,-0.00362784,0.00185346,0.00173004,-0.00426901,0.333047,0.00356546,0.0280814,895,533,-6.71936,37.0291
-322,491,-6.78082,-37.927,0.00105722,-0.00435293,0.0025026,0.00203731,-0.00533302,0.373269,0.00439478,0.0242135,902,533,-6.78083,37.927
-315,491,-6.89008,-38.8204,0.00100783,-0.00511195,0.00317758,0.00235928,-0.0064634,0.402132,0.00527429,0.0232455,909,533,-6.89009,38.8204
-308,491,-6.89197,-39.9763,0,0,0,0,0,0,0,-1,916,533,-6.89194,39.9763
-301,491,-6.54926,-39.0012,0,0,0,0,0,0,0,-1,923,533,-6.54927,39.0012
-294,491,-0.777283,-8.60913,0,0,0,0,0,0,0,-1,930,533,-0.777288,8.6091
-287,491,-0.26123,-8.69055,0,0,0,0,0,0,0,-1,937,533,-0.261204,8.69053
-280,491,0.2948,-5.99219,0,0,0,0,0,0,0,-1,944,533,0.294811,5.99221
-273,491,0.369995,-5.33691,0,0,0,0,0,0,0,-1,951,533,0.369985,5.33693
-266,491,1.1167,-5.0321,0,0,0,0,0,0,0,-1,958,533,1.11668,5.0321
-259,491,12.0862,-16.9615,0,0,0,0,0,0,0,-1,965,533,12.0862,16.9615
-252,491,9.72443,-13.8417,0,0,0,0,0,0,0,-1,972,533,9.72444,13.8418
-245,491,5.27258,-14.3619,0,0,0,0,0,0,0,-1,979,533,5.27255,14.3619
-238,491,3.65381,-11.1472,0,0,0,0,0,0,0,-1,986,533,3.6538,11.1472
-231,491,2.17719,-7.86835,0,0,0,0,0,0,0,-1,993,533,2.17719,7.86832
-224,491,0.554626,-4.61725,0,0,0,0,0,0,0,-1,1000,533,0.554608,4.61727
-217,491,-2.92743,-1.0766,0,0,0,0,0,0,0,-1,1007,533,-2.92743,1.07659
-210,491,-0.92395,0.374512,0,0,0,0,0,0,0,-1,1014,533,-0.923959,-0.374531
-203,491,0.417419,4.77161,0,0,0,0,0,0,0,-1,1021,533,0.417446,-4.77162
-196,491,0,0,0,0,0,0,0,0,0,-1,1028,533,0,0
-189,491,0,0,0,0,0,0,0,0,0,-1,1035,533,0,0
-182,491,0,0,0,0,0,0,0,0,0,-1,1042,533,0,0
-175,491,0,0,0,0,0,0,0,0,0,-1,1049,533,0,0
-168,491,0,0,0,0,0,0,0,0,0,-1,1056,533,0,0
-161,491,0,0,0,0,0,0,0,0,0,-1,1063,533,0,0
-154,491,0,0,0,0,0,0,0,0,0,-1,1070,533,0,0
-147,491,0,0,0,0,0,0,0,0,0,-1,1077,533,0,0
-140,491,0,0,0,0,0,0,0,0,0,-1,1084,533,0,0
-133,491,0,0,0,0,0,0,0,0,0,-1,1091,533,0,0
-126,491,0,0,0,0,0,0,0,0,0,-1,1098,533,0,0
-119,491,0,0,0,0,0,0,0,0,0,-1,1105,533,0,0
-112,491,0,0,0,0,0,0,0,0,0,-1,1112,533,0,0
-105,491,0,0,0,0,0,0,0,0,0,-1,1119,533,0,0
-98,491,0,0,0,0,0,0,0,0,0,-1,1126,533,0,0
-91,491,0,0,0,0,0,0,0,0,0,-1,1133,533,0,0
-84,491,0,0,0,0,0,0,0,0,0,-1,1140,533,0,0
-77,491,0,0,0,0,0,0,0,0,0,-1,1147,533,0,0
-70,491,0,0,0,0,0,0,0,0,0,-1,1154,533,0,0
-63,491,0,0,0,0,0,0,0,0,0,-1,1161,533,0,0
-56,491,0,0,0,0,0,0,0,0,0,-1,1168,533,0,0
-49,491,0,0,0,0,0,0,0,0,0,-1,1175,533,0,0
-42,491,0,0,0,0,0,0,0,0,0,-1,1182,533,0,0
-35,491,0,0,0,0,0,0,0,0,0,-1,1189,533,0,0
-28,491,0,0,0,0,0,0,0,0,0,-1,1196,533,0,0
-21,491,0,0,0,0,0,0,0,0,0,-1,1203,533,0,0
-14,491,0,0,0,0,0,0,0,0,0,-1,1210,533,0,0
-7,491,0,0,0,0,0,0,0,0,0,-1,1217,533,0,0
0,491,0,0,0,0,0,0,0,0,0,-1,1224,533,0,0
7,491,0,0,0,0,0,0,0,0,0,-1,1231,533,0,0
14,491,0,0,0,0,0,0,0,0,0,-1,1238,533,0,0
21,491,0,0,0,0,0,0,0,0,0,-1,1245,533,0,0
28,491,0,0,0,0,0,0,0,0,0,-1,1252,533,0,0
35,491,0,0,0,0,0,0,0,0,0,-1,1259,533,0,0
42,491,0,0,0,0,0,0,0,0,0,-1,1266,533,0,0
49,491,0,0,0,0,0,0,0,0,0,-1,1273,533,0,0
56,491,0,0,0,0,0,0,0,0,0,-1,1280,533,0,0
63,491,0,0,0,0,0,0,0,0,0,-1,1287,533,0,0
70,491,0,0,0,0,0,0,0,0,0,-1,1294,533,0,0
77,491,0,0,0,0,0,0,0,0,0,-1,1301,533,0,0
84,491,0,0,0,0,0,0,0,0,0,-1,1308,533,0,0
91,491,0,0,0,0,0,0,0,0,0,-1,1315,533,0,0
98,491,0,0,0,0,0,0,0,0,0,-1,1322,533,0,0
105,491,0,0,0,0,0,0,0,0,0,-1,1329,533,0,0
112,491,0,0,0,0,0,0,0,0,0,-1,1336,533,0,0
119,491,0,0,0,0,0,0,0,0,0,-1,1343,533,0,0
126,491,0,0,0,0,0,0,0,0,0,-1,1350,533,0,0
133,491,0,0,0,0,0,0,0,0,0,-1,1357,533,0,0
140,491,0,0,0,0,0,0,0,0,0,-1,1364,533,0,0
147,491,0,0,0,0,0,0,0,0,0,-1,1371,533,0,0
154,491,0,0,0,0,0,0,0,0,0,-1,1378,533,0,0
161,491,0,0,0,0,0,0,0,0,0,-1,1385,533,0,0
168,491,0,0,0,0,0,0,0,0,0,-1,1392,533,0,0
175,491,0,0,0,0,0,0,0,0,0,-1,1399,533,0,0
182,491,0,0,0,0,0,0,0,0,0,-1,1406,533,0,0
189,491,0,0,0,0,0,0,0,0,0,-1,1413,533,0,0
196,491,0,0,0,0,0,0,0,0,0,-1,1420,533,0,0
203,491,0,0,0,0,0,0,0,0,0,-1,1427,533,0,0
210,491,0,0,0,0,0,0,0,0,0,-1,1434,533,0,0
217,491,0,0,0,0,0,0,0,0,0,-1,1441,533,0,0
224,491,0,0,0,0,0,0,0,0,0,-1,1448,533,0,0
231,491,0,0,0,0,0,0,0,0,0,-1,1455,533,0,0
238,491,0,0,0,0,0,0,0,0,0,-1,1462,533,0,0
245,491,0,0,0,0,0,0,0,0,0,-1,1469,533,0,0
252,491,0,0,0,0,0,0,0,0,0,-1,1476,533,0,0
259,491,0,0,0,0,0,0,0,0,0,-1,1483,533,0,0
266,491,0,0,0,0,0,0,0,0,0,-1,1490,533,0,0
273,491,0,0,0,0,0,0,0,0,0,-1,1497,533,0,0
280,491,0,0,0,0,0,0,0,0,0,-1,1504,533,0,0
287,491,0,0,0,0,0,0,0,0,0,-1,1511,533,0,0
294,491,0,0,0,0,0,0,0,0,0,-1,1518,533,0,0
301,491,0,0,0,0,0,0,0,0,0,-1,1525,533,0,0
308,491,0,0,0,0,0,0,0,0,0,-1,1532,533,0,0
315,491,0,0,0,0,0,0,0,0,0,-1,1539,533,0,0
322,491,4.26331,-0.734314,0,0,0,0,0,0,0,-1,1546,533,4.26326,0.734324
329,491,4.25354,-0.783752,0,0,0,0,0,0,0,-1,1553,533,4.25359,0.783734
336,491,4.81604,-0.722107,0,0,0,0,0,0,0,-1,1560,533,4.81605,0.722115
343,491,6.14478,-1.44281,0,0,0,0,0,0,0,-1,1567,533,6.14474,1.44281
350,491,6.36353,-1.30792,0,0,0,0,0,0,0,-1,1574,533,6.36352,1.3079
357,491,6.69482,-1.06018,0,0,0,0,0,0,0,-1,1581,533,6.69489,1.06018
364,491,8.01086,-1.69604,0,0,0,0,0,0,0,-1,1588,533,8.01087,1.69607
371,491,8.2135,-0.539307,0,0,0,0,0,0,0,-1,1595,533,8.21348,0.53929
378,491,13.3589,2.17267,0,0,0,0,0,0,0,-1,1602,533,13.3589,-2.17264
385,491,8.08228,-4.95471,0,0,0,0,0,0,0,-1,1609,533,8.08227,4.95474
392,491,2.88721,-4.30988,0,0,0,0,0,0,0,-1,1616,533,2.88716,4.30986
399,491,8.95862,-8.55518,0,0,0,0,0,0,0,-1,1623,533,8.95864,8.55516
406,491,8.16541,-9.00806,0,0,0,0,0,0,0,-1,1630,533,8.16535,9.00807
413,491,5.31848,-3.7124,0,0,0,0,0,0,0,-1,1637,533,5.31849,3.7124
420,491,4.86389,-3.95892,0,0,0,0,0,0,0,-1,1644,533,4.86387,3.95893
427,491,11.5096,-15.2742,0,0,0,0,0,0,0,-1,1651,533,11.5096,15.2742
434,491,23.9385,-39.3824,0,0,0,0,0,0,0,-1,1658,533,23.9384,39.3824
441,491,23.8909,-38.5246,0.000519647,0.000646666,-0.00264728,0.0032312,-0.00206489,-0.797391,0.00308232,0.0491565,1665,533,23.8909,38.5246
448,491,23.8356,-37.8718,0.000596313,0.000490357,-0.00224176,0.00278572,-0.00169905,-0.773584,0.0026145,0.0292389,1672,533,23.8356,37.8718
455,491,23.795,-36.8619,0.000705676,0.000515758,-0.00184195,0.00245512,-0.00123368,-0.759644,0.0021683,0.017328,1679,533,23.795,36.8619
462,491,23.7687,-35.9142,0.000780858,0.000655789,-0.00133668,0.00205647,-0.000619819,-0.762023,0.00161766,0.0158794,1686,533,23.7687,35.9142
469,491,23.692,-34.9902,0.000943221,0.000831074,-0.000794258,0.00168338,9.09123e-05,-0.750157,0.00109321,0.0152367,1693,533,23.692,34.9902
476,491,23.631,-34.0233,0.00111244,0.00107107,-0.000199432,0.00129226,0.000891254,-0.733728,0.000763772,0.0111119,1700,533,23.631,34.0233
483,491,23.5554,-33.0247,0.00127765,0.00130133,0.000396421,0.00168609,0.000892894,0.800324,0.000974031,0.0126063,1707,533,23.5555,33.0247
490,491,23.4901,-32.057,0.00138138,0.00169256,0.00101131,0.00256018,0.000513762,0.861725,0.00156392,0.0112339,1714,533,23.4901,32.057
497,491,23.4342,-31.0613,0.00144577,0.00209978,0.0015711,0.00337755,0.000168007,0.888002,0.00219784,0.012721,1721,533,23.4342,31.0613
504,491,23.3947,-30.0461,0.00160397,0.00228563,0.00206927,0.00404195,-0.000152346,0.86702,0.00274682,0.0143961,1728,533,23.3947,30.0461
511,491,23.2914,-29.0532,0.00169052,0.00257617,0.00254502,0.0047166,-0.000449913,0.871534,0.00330459,0.0141381,1735,533,23.2914,29.0532
518,491,23.2106,-28.0816,0.00162535,0.00291506,0.00287783,0.00521939,-0.000678988,0.895616,0.0037266,0.0117694,1742,533,23.2106,28.0816
525,491,23.162,-27.0709,0.00156757,0.0032413,0.00321193,0.00572359,-0.000914727,0.912839,0.00415434,0.0123885,1749,533,23.162,27.0709
532,491,23.056,-26.0443,0,0,0,0,0,0,0,-1,1756,533,23.056,26.0443
539,491,23.0331,-24.9694,0,0,0,0,0,0,0,-1,1763,533,23.033,24.9694
546,491,21.6814,-23.2498,0,0,0,0,0,0,0,-1,1770,533,21.6814,23.2498
553,491,10.5021,-7.77869,0,0,0,0,0,0,0,-1,1777,533,10.502,7.77871
560,491,6.28455,-1.43585,0,0,0,0,0,0,0,-1,1784,533,6.28458,1.43586
567,491,5.67651,-1.3562,0,0,0,0,0,0,0,-1,1791,533,5.67649,1.3562
574,491,8.0719,1.58325,0,0,0,0,0,0,0,-1,1798,533,8.07195,-1.58326
581,491,9.44812,1.60931,0,0,0,0,0,0,0,-1,1805,533,9.44808,-1.60933
588,491,11.0497,1.54962,0,0,0,0,0,0,0,-1,1812,533,11.0496,-1.54963
595,491,0,0,0,0,0,0,0,0,0,-1,1819,533,0,0
602,491,0,0,0,0,0,0,0,0,0,-1,1826,533,0,0
609,491,0,0,0,0,0,0,0,0,0,-1,1833,533,0,0
616,491,0,0,0,0,0,0,0,0,0,-1,1840,533,0,0
623,491,0,0,0,0,0,0,0,0,0,-1,1847,533,0,0
630,491,0,0,0,0,0,0,0,0,0,-1,1854,533,0,0
637,491,0,0,0,0,0,0,0,0,0,-1,1861,533,0,0
644,491,0,0,0,0,0,0,0,0,0,-1,1868,533,0,0
651,491,0,0,0,0,0,0,0,0,0,-1,1875,533,0,0
658,491,0,0,0,0,0,0,0,0,0,-1,1882,533,0,0
665,491,0,0,0,0,0,0,0,0,0,-1,1889,533,0,0
672,491,0,0,0,0,0,0,0,0,0,-1,1896,533,0,0
679,491,0,0,0,0,0,0,0,0,0,-1,1903,533,0,0
686,491,0,0,0,0,0,0,0,0,0,-1,1910,533,0,0
693,491,0,0,0,0,0,0,0,0,0,-1,1917,533,0,0
700,491,0,0,0,0,0,0,0,0,0,-1,1924,533,0,0
707,491,0,0,0,0,0,0,0,0,0,-1,1931,533,0,0
714,491,0,0,0,0,0,0,0,0,0,-1,1938,533,0,0
721,491,0,0,0,0,0,0,0,0,0,-1,1945,533,0,0
728,491,0,0,0,0,0,0,0,0,0,-1,1952,533,0,0
735,491,0,0,0,0,0,0,0,0,0,-1,1959,533,0,0
742,491,0,0,0,0,0,0,0,0,0,-1,1966,533,0,0
749,491,0,0,0,0,0,0,0,0,0,-1,1973,533,0,0
756,491,0,0,0,0,0,0,0,0,0,-1,1980,533,0,0
763,491,0,0,0,0,0,0,0,0,0,-1,1987,533,0,0
770,491,0,0,0,0,0,0,0,0,0,-1,1994,533,0,0
777,491,0,0,0,0,0,0,0,0,0,-1,2001,533,0,0
784,491,0,0,0,0,0,0,0,0,0,-1,2008,533,0,0
791,491,0,0,0,0,0,0,0,0,0,-1,2015,533,0,0
798,491,0,0,0,0,0,0,0,0,0,-1,2022,533,0,0
805,491,0,0,0,0,0,0,0,0,0,-1,2029,533,0,0
812,491,0,0,0,0,0,0,0,0,0,-1,2036,533,0,0
-700,484,0,0,0,0,0,0,0,0,0,-1,524,540,0,0
-693,484,0,0,0,0,0,0,0,0,0,-1,531,540,0,0
-686,484,0,0,0,0,0,0,0,0,0,-1,538,540,0,0
-679,484,0,0,0,0,0,0,0,0,0,-1,545,540,0,0
-672,484,0,0,0,0,0,0,0,0,0,-1,552,540,0,0
-665,484,0,0,0,0,0,0,0,0,0,-1,559,540,0,0
-658,484,0,0,0,0,0,0,0,0,0,-1,566,540,0,0
-651,484,0,0,0,0,0,0,0,0,0,-1,573,540,0,0
-644,484,0,0,0,0,0,0,0,0,0,-1,580,540,0,0
-637,484,0,0,0,0,0,0,0,0,0,-1,587,540,0,0
-630,484,0,0,0,0,0,0,0,0,0,-1,594,540,0,0
-623,484,0,0,0,0,0,0,0,0,0,-1,601,540,0,0
-616,484,0,0,0,0,0,0,0,0,0,-1,608,540,0,0
-609,484,0,0,0,0,0,0,0,0,0,-1,615,540,0,0
-602,484,0,0,0,0,0,0,0,0,0,-1,622,540,0,0
-595,484,0,0,0,0,0,0,0,0,0,-1,629,540,0,0
-588,484,0,0,0,0,0,0,0,0,0,-1,636,540,0,0
-581,484,0,0,0,0,0,0,0,0,0,-1,643,540,0,0
-574,484,0,0,0,0,0,0,0,0,0,-1,650,540,0,0
-567,484,0,0,0,0,0,0,0,0,0,-1,657,540,0,0
-560,484,0,0,0,0,0,0,0,0,0,-1,664,540,0,0
-553,484,0,0,0,0,0,0,0,0,0,-1,671,540,0,0
-546,484,0,0,0,0,0,0,0,0,0,-1,678,540,0,0
-539,484,0,0,0,0,0,0,0,0,0,-1,685,540,0,0
-532,484,0,0,0,0,0,0,0,0,0,-1,692,540,0,0
-525,484,0,0,0,0,0,0,0,0,0,-1,699,540,0,0
-518,484,0,0,0,0,0,0,0,0,0,-1,706,540,0,0
-511,484,0,0,0,0,0,0,0,0,0,-1,713,540,0,0
-504,484,0,0,0,0,0,0,0,0,0,-1,720,540,0,0
-497,484,0,0,0,0,0,0,0,0,0,-1,727,540,0,0
-490,484,0,0,0,0,0,0,0,0,0,-1,734,540,0,0
-483,484,0,0,0,0,0,0,0,0,0,-1,741,540,0,0
-476,484,-8.46552,1.44702,0,0,0,0,0,0,0,-1,748,540,-8.46554,-1.44702
-469,484,-7.82343,1.70355,0,0,0,0,0,0,0,-1,755,540,-7.82345,-1.70355
-462,484,-8.36987,3.08612,0,0,0,0,0,0,0,-1,762,540,-8.36988,-3.0861
-455,484,-6.77197,2.07092,0,0,0,0,0,0,0,-1,769,540,-6.77197,-2.07094
-448,484,3.54895,-1.40106,0,0,0,0,0,0,0,-1,776,540,3.54897,1.40106
-441,484,4.28906,-3.05884,0,0,0,0,0,0,0,-1,783,540,4.28905,3.05883
-434,484,-2.17548,-5.07245,0,0,0,0,0,0,0,-1,790,540,-2.17546,5.07243
-427,484,-6.90723,-22.4186,0,0,0,0,0,0,0,-1,797,540,-6.90721,22.4187
-420,484,-6.72754,-23.7159,0,0,0,0,0,0,0,-1,804,540,-6.72755,23.7159
-413,484,-6.82654,-24.8969,0.000387598,0.0107128,-0.00485523,0.0126372,-0.00153681,-1.19343,0.00898103,0.0372665,811,540,-6.82652,24.8969
-406,484,-6.95966,-26.0439,0.000398443,0.00901091,-0.00443727,0.010888,-0.00147861,-1.1706,0.00779837,0.0217425,818,540,-6.95968,26.0439
-399,484,-7.09583,-27.0687,0.000378437,0.00736697,-0.00387756,0.00909242,-0.00134701,-1.15212,0.0065569,0.0185022,825,540,-7.09581,27.0687
-392,484,-7.17004,-28.0719,0.000504405,0.00590075,-0.00335311,0.00750647,-0.00110131,-1.12419,0.00540892,0.0199923,832,540,-7.17002,28.0719
-385,484,-7.22473,-29.0861,0.000745473,0.00457784,-0.00283971,0.0060874,-0.000764091,-1.0822,0.00433547,0.0140241,839,540,-7.22474,29.0861
-378,484,-7.29309,-30.0958,0.000970528,0.00329067,-0.00225267,0.00466443,-0.000403233,-1.02318,0.00325237,0.0157464,846,540,-7.29311,30.0958
-371,484,-7.37219,-31.082,0.00113941,0.00202467,-0.00169012,0.00332916,-0.000165084,-0.913468,0.00227646,0.017181,853,540,-7.37217,31.082
-364,484,-7.45337,-32.071,0.00129101,0.000718358,-0.00105005,0.00209307,-8.37052e-05,-0.652295,0.0014241,0.0125814,860,540,-7.45336,32.071
-357,484,-7.5083,-33.0479,0.00146607,-0.00037425,-0.000418986,0.00155698,-0.00046515,-0.213643,0.00122289,0.0136829,867,540,-7.50833,33.0479
-350,484,-7.59204,-33.994,0.00162913,-0.00142465,0.000185921,0.0016404,-0.00143593,0.0605839,0.00177743,0.0162344,874,540,-7.59206,33.994
-343,484,-7.61719,-34.9875,0.00167023,-0.00244425,0.000817541,0.00182672,-0.00260075,0.18913,0.00256919,0.023103,881,540,-7.61716,34.9876
-336,484,-7.70807,-35.9842,0.00150509,-0.00359145,0.00157899,0.00195463,-0.00404099,0.277366,0.00353075,0.0258705,888,540,-7.70808,35.9842
-329,484,-7.75964,-36.899,0.0013599,-0.00468974,0.0023272,0.00215155,-0.00548139,0.327891,0.00454451,0.0389574,895,540,-7.75967,36.899
-322,484,-7.68512,-37.8016,0,0,0,0,0,0,0,-1,902,540,-7.68511,37.8016
-315,484,-7.62927,-38.8224,0,0,0,0,0,0,0,-1,909,540,-7.62926,38.8225
-308,484,-1.32623,-8.9317,0,0,0,0,0,0,0,-1,916,540,-1.32626,8.93173
-301,484,-1.33453,-6.52667,0,0,0,0,0,0,0,-1,923,540,-1.33454,6.5267
-294,484,-1.61224,-8.17059,0,0,0,0,0,0,0,-1,930,540,-1.61227,8.17058
-287,484,-0.715759,-5.62103,0,0,0,0,0,0,0,-1,937,540,-0.715772,5.62105
-280,484,2.66742,-1.6795,0,0,0,0,0,0,0,-1,944,540,2.6674,1.67949
-273,484,2.53125,-2.22296,0,0,0,0,0,0,0,-1,951,540,2.53128,2.22295
-266,484,2.6778,-2.72058,0,0,0,0,0,0,0,-1,958,540,2.6778,2.72061
-259,484,2.41718,-2.59894,0,0,0,0,0,0,0,-1,965,540,2.41717,2.59892
-252,484,10.6069,-11.696,0,0,0,0,0,0,0,-1,972,540,10.6069,11.696
-245,484,6.34106,-11.6107,0,0,0,0,0,0,0,-1,979,540,6.34104,11.6107
-238,484,4.89319,-8.54059,0,0,0,0,0,0,0,-1,986,540,4.89321,8.5406
-231,484,3.47675,-5.22064,0,0,0,0,0,0,0,-1,993,540,3.47676,5.22067
-224,484,1.71344,-2.03473,0,0,0,0,0,0,0,-1,1000,540,1.71342,2.03472
-217,484,-0.745056,1.17358,0,0,0,0,0,0,0,-1,1007,540,-0.745043,-1.17359
-210,484,0,0,0,0,0,0,0,0,0,-1,1014,540,0,0
-203,484,0,0,0,0,0,0,0,0,0,-1,1021,540,0,0
-196,484,0,0,0,0,0,0,0,0,0,-1,1028,540,0,0
-189,484,0,0,0,0,0,0,0,0,0,-1,1035,540,0,0
-182,484,0,0,0,0,0,0,0,0,0,-1,1042,540,0,0
-175,484,0,0,0,0,0,0,0,0,0,-1,1049,540,0,0
-168,484,0,0,0,0,0,0,0,0,0,-1,1056,540,0,0
-161,484,0,0,0,0,0,0,0,0,0,-1,1063,540,0,0
-154,484,0,0,0,0,0,0,0,0,0,-1,1070,540,0,0
-147,484,0,0,0,0,0,0,0,0,0,-1,1077,540,0,0
-140,484,0,0,0,0,0,0,0,0,0,-1,1084,540,0,0
-133,484,0,0,0,0,0,0,0,0,0,-1,1091,540,0,0
-126,484,0,0,0,0,0,0,0,0,0,-1,1098,540,0,0
-119,484,0,0,0,0,0,0,0,0,0,-1,1105,540,0,0
-112,484,0,0,0,0,0,0,0,0,0,-1,1112,540,0,0
-105,484,0,0,0,0,0,0,0,0,0,-1,1119,540,0,0
-98,484,0,0,0,0,0,0,0,0,0,-1,1126,540,0,0
-91,484,0,0,0,0,0,0,0,0,0,-1,1133,540,0,0
-84,484,0,0,0,0,0,0,0,0,0,-1,1140,540,0,0
-77,484,0,0,0,0,0,0,0,0,0,-1,1147,540,0,0
-70,484,0,0,0,0,0,0,0,0,0,-1,1154,540,0,0
-63,484,0,0,0,0,0,0,0,0,0,-1,1161,540,0,0
-56,484,0,0,0,0,0,0,0,0,0,-1,1168,540,0,0
-49,484,0,0,0,0,0,0,0,0,0,-1,1175,540,0,0
-42,484,0,0,0,0,0,0,0,0,0,-1,1182,540,0,0
-35,484,0,0,0,0,0,0,0,0,0,-1,1189,540,0,0
-28,484,0,0,0,0,0,0,0,0,0,-1,1196,540,0,0
-21,484,0,0,0,0,0,0,0,0,0,-1,1203,540,0,0
-14,484,0,0,0,0,0,0,0,0,0,-1,1210,540,0,0
-7,484,0,0,0,0,0,0,0,0,0,-1,1217,540,0,0
0,484,0,0,0,0,0,0,0,0,0,-1,1224,540,0,0
7,484,0,0,0,0,0,0,0,0,0,-1,1231,540,0,0
14,484,0,0,0,0,0,0,0,0,0,-1,1238,540,0,0
21,484,0,0,0,0,0,0,0,0,0,-1,1245,540,0,0
28,484,0,0,0,0,0,0,0,0,0,-1,1252,540,0,0
35,484,0,0,0,0,0,0,0,0,0,-1,1259,540,0,0
42,484,0,0,0,0,0,0,0,0,0,-1,1266,540,0,0
49,484,0,0,0,0,0,0,0,0,0,-1,1273,540,0,0
56,484,0,0,0,0,0,0,0,0,0,-1,1280,540,0,0
63,484,0,0,0,0,0,0,0,0,0,-1,1287,540,0,0
70,484,0,0,0,0,0,0,0,0,0,-1,1294,540,0,0
77,484,0,0,0,0,0,0,0,0,0,-1,1301,540,0,0
84,484,0,0,0,0,0,0,0,0,0,-1,1308,540,0,0
91,484,0,0,0,0,0,0,0,0,0,-1,1315,540,0,0
98,484,0,0,0,0,0,0,0,0,0,-1,1322,540,0,0
105,484,0,0,0,0,0,0,0,0,0,-1,1329,540,0,0
112,484,0,0,0,0,0,0,0,0,0,-1,1336,540,0,0
119,484,0,0,0,0,0,0,0,0,0,-1,1343,540,0,0
126,484,0,0,0,0,0,0,0,0,0,-1,1350,540,0,0
133,484,0,0,0,0,0,0,0,0,0,-1,1357,540,0,0
140,484,0,0,0,0,0,0,0,0,0,-1,1364,540,0,0
147,484,0,0,0,0,0,0,0,0,0,-1,1371,540,0,0
154,484,0,0,0,0,0,0,0,0,0,-1,1378,540,0,0
161,484,0,0,0,0,0,0,0,0,0,-1,1385,540,0,0
168,484,0,0,0,0,0,0,0,0,0,-1,1392,540,0,0
175,484,0,0,0,0,0,0,0,0,0,-1,1399,540,0,0
182,484,0,0,0,0,0,0,0,0,0,-1,1406,540,0,0
189,484,0,0,0,0,0,0,0,0,0,-1,1413,540,0,0
196,484,0,0,0,0,0,0,0,0,0,-1,1420,540,0,0
203,484,0,0,0,0,0,0,0,0,0,-1,1427,540,0,0
210,484,0,0,0,0,0,0,0,0,0,-1,1434,540,0,0
217,484,0,0,0,0,0,0,0,0,0,-1,1441,540,0,0
224,484,0,0,0,0,0,0,0,0,0,-1,1448,540,0,0
231,484,0,0,0,0,0,0,0,0,0,-1,1455,540,0,0
238,484,0,0,0,0,0,0,0,0,0,-1,1462,540,0,0
245,484,0,0,0,0,0,0,0,0,0,-1,1469,540,0,0
252,484,0,0,0,0,0,0,0,0,0,-1,1476,540,0,0
259,484,0,0,0,0,0,0,0,0,0,-1,1483,540,0,0
266,484,0,0,0,0,0,0,0,0,0,-1,1490,540,0,0
273,484,0,0,0,0,0,0,0,0,0,-1,1497,540,0,0
280,484,0,0,0,0,0,0,0,0,0,-1,1504,540,0,0
287,484,0,0,0,0,0,0,0,0,0,-1,1511,540,0,0
294,484,0,0,0,0,0,0,0,0,0,-1,1518,540,0,0
301,484,0,0,0,0,0,0,0,0,0,-1,1525,540,0,0
308,484,0,0,0,0,0,0,0,0,0,-1,1532,540,0,0
315,484,0,0,0,0,0,0,0,0,0,-1,1539,540,0,0
322,484,0,0,0,0,0,0,0,0,0,-1,1546,540,0,0
329,484,0,0,0,0,0,0,0,0,0,-1,1553,540,0,0
336,484,4.38708,-1.64136,0,0,0,0,0,0,0,-1,1560,540,4.38704,1.64138
343,484,7.57996,-1.05457,0,0,0,0,0,0,0,-1,1567,540,7.57995,1.05454
350,484,8.10425,-1.18878,0,0,0,0,0,0,0,-1,1574,540,8.1043,1.18877
357,484,7.74902,-3.80286,0,0,0,0,0,0,0,-1,1581,540,7.74901,3.80287
364,484,6.31262,-3.87213,0,0,0,0,0,0,0,-1,1588,540,6.31263,3.87215
371,484,7.21008,0.973511,0,0,0,0,0,0,0,-1,1595,540,7.21014,-0.973541
378,484,11.0563,1.5014,0,0,0,0,0,0,0,-1,1602,540,11.0563,-1.5014
385,484,14.3469,2.5545,0,0,0,0,0,0,0,-1,1609,540,14.3469,-2.55453
392,484,7.39453,-4.95026,0,0,0,0,0,0,0,-1,1616,540,7.39448,4.95023
399,484,7.14417,-2.5639,0,0,0,0,0,0,0,-1,1623,540,7.14417,2.56391
406,484,7.88953,-2.47321,0,0,0,0,0,0,0,-1,1630,540,7.88954,2.47323
413,484,4.4895,-1.08673,0,0,0,0,0,0,0,-1,1637,540,4.48952,1.08674
420,484,4.50012,-2.11255,0,0,0,0,0,0,0,-1,1644,540,4.50012,2.11256
427,484,5.28601,-3.54053,0,0,0,0,0,0,0,-1,1651,540,5.28599,3.54051
434,484,11.1488,-13.5359,0,0,0,0,0,0,0,-1,1658,540,11.1489,13.5359
441,484,24.7291,-38.1167,0,0,0,0,0,0,0,-1,1665,540,24.7292,38.1167
448,484,24.7161,-38.0309,0,0,0,0,0,0,0,-1,1672,540,24.716,38.0309
455,484,24.7734,-36.8584,0,0,0,0,0,0,0,-1,1679,540,24.7734,36.8584
462,484,24.7452,-35.8572,0.000619623,0.000356824,-0.00220308,0.00269522,-0.00171877,-0.755612,0.00256912,0.0323885,1686,540,24.7453,35.8572
469,484,24.6956,-34.9171,0.000760955,0.000467558,-0.00158148,0.00220253,-0.000974015,-0.73915,0.00187914,0.0192351,1693,540,24.6955,34.9171
476,484,24.5809,-33.8887,0.000936111,0.000649155,-0.000911722,0.00171558,-0.00013031,-0.707353,0.00118953,0.0181746,1700,540,24.581,33.8887
483,484,24.5068,-32.915,0.00109002,0.000802563,-0.000284447,0.00126499,0.000627594,-0.551465,0.000730347,0.0154084,1707,540,24.5069,32.915
490,484,24.4612,-31.9907,0.00117713,0.00114418,0.00035101,0.00151205,0.000809257,0.76195,0.000873703,0.0146251,1714,540,24.4612,31.9907
497,484,24.4059,-31.0024,0.00121298,0.00159057,0.00096145,0.00238159,0.000421962,0.882349,0.00146743,0.0146669,1721,540,24.4059,31.0024
504,484,24.365,-29.9749,0.00129867,0.00169282,0.00144549,0.00295461,3.68779e-05,0.853149,0.00195756,0.0165444,1728,540,24.365,29.9748
511,484,24.3099,-28.9927,0.001315,0.00193135,0.00189384,0.00354192,-0.000295569,0.866054,0.00246572,0.0195528,1735,540,24.3099,28.9927
518,484,24.2178,-28.0473,0.00118885,0.002222,0.00222139,0.00398608,-0.000575235,0.899641,0.00286843,0.0172697,1742,540,24.2177,28.0473
525,484,24.1233,-27.0454,0.00107822,0.00251987,0.00252878,0.00442855,-0.000830465,0.924241,0.00326459,0.0147461,1749,540,24.1232,27.0454
532,484,24.0604,-26.0151,0.000966135,0.00296741,0.00284319,0.00498091,-0.00104736,0.9546,0.00371921,0.0163231,1756,540,24.0604,26.0151
539,484,23.9576,-24.955,0.000811986,0.00348972,0.00302451,0.00545846,-0.00115675,0.99377,0.00407959,0.0465306,1763,540,23.9577,24.9549
546,484,23.8497,-23.7642,0,0,0,0,0,0,0,-1,1770,540,23.8497,23.7642
553,484,12.4246,-8.96423,0,0,0,0,0,0,0,-1,1777,540,12.4246,8.96422
560,484,10.0549,-5.47931,0,0,0,0,0,0,0,-1,1784,540,10.055,5.47928
567,484,7.78223,-1.38312,0,0,0,0,0,0,0,-1,1791,540,7.78224,1.38311
574,484,5.74463,1.50922,0,0,0,0,0,0,0,-1,1798,540,5.74463,-1.50924
581,484,10.34,2.9491,0,0,0,0,0,0,0,-1,1805,540,10.34,-2.94912
588,484,10.6669,2.88568,0,0,0,0,0,0,0,-1,1812,540,10.6669,-2.88567
595,484,10.7233,1.04767,0,0,0,0,0,0,0,-1,1819,540,10.7233,-1.04766
602,484,0,0,0,0,0,0,0,0,0,-1,1826,540,0,0
609,484,0,0,0,0,0,0,0,0,0,-1,1833,540,0,0
616,484,0,0,0,0,0,0,0,0,0,-1,1840,540,0,0
623,484,0,0,0,0,0,0,0,0,0,-1,1847,540,0,0
630,484,0,0,0,0,0,0,0,0,0,-1,1854,540,0,0
637,484,0,0,0,0,0,0,0,0,0,-1,1861,540,0,0
644,484,0,0,0,0,0,0,0,0,0,-1,1868,540,0,0
651,484,0,0,0,0,0,0,0,0,0,-1,1875,540,0,0
658,484,0,0,0,0,0,0,0,0,0,-1,1882,540,0,0
665,484,0,0,0,0,0,0,0,0,0,-1,1889,540,0,0
672,484,0,0,0,0,0,0,0,0,0,-1,1896,540,0,0
679,484,0,0,0,0,0,0,0,0,0,-1,1903,540,0,0
686,484,0,0,0,0,0,0,0,0,0,-1,1910,540,0,0
693,484,0,0,0,0,0,0,0,0,0,-1,1917,540,0,0
700,484,0,0,0,0,0,0,0,0,0,-1,1924,540,0,0
707,484,0,0,0,0,0,0,0,0,0,-1,1931,540,0,0
714,484,0,0,0,0,0,0,0,0,0,-1,1938,540,0,0
721,484,0,0,0,0,0,0,0,0,0,-1,1945,540,0,0
728,484,0,0,0,0,0,0,0,0,0,-1,1952,540,0,0
735,484,0,0,0,0,0,0,0,0,0,-1,1959,540,0,0
742,484,0,0,0,0,0,0,0,0,0,-1,1966,540,0,0
749,484,0,0,0,0,0,0,0,0,0,-1,1973,540,0,0
756,484,0,0,0,0,0,0,0,0,0,-1,1980,540,0,0
763,484,0,0,0,0,0,0,0,0,0,-1,1987,540,0,0
770,484,0,0,0,0,0,0,0,0,0,-1,1994,540,0,0
777,484,0,0,0,0,0,0,0,0,0,-1,2001,540,0,0
784,484,0,0,0,0,0,0,0,0,0,-1,2008,540,0,0
791,484,0,0,0,0,0,0,0,0,0,-1,2015,540,0,0
798,484,0,0,0,0,0,0,0,0,0,-1,2022,540,0,0
805,484,0,0,0,0,0,0,0,0,0,-1,2029,540,0,0
812,484,0,0,0,0,0,0,0,0,0,-1,2036,540,0,0
-700,477,0,0,0,0,0,0,0,0,0,-1,524,547,0,0
-693,477,0,0,0,0,0,0,0,0,0,-1,531,547,0,0
-686,477,0,0,0,0,0,0,0,0,0,-1,538,547,0,0
-679,477,0,0,0,0,0,0,0,0,0,-1,545,547,0,0
-672,477,0,0,0,0,0,0,0,0,0,-1,552,547,0,0
-665,477,0,0,0,0,0,0,0,0,0,-1,559,547,0,0
-658,477,0,0,0,0,0,0,0,0,0,-1,566,547,0,0
-651,477,0,0,0,0,0,0,0,0,0,-1,573,547,0,0
-644,477,0,0,0,0,0,0,0,0,0,-1,580,547,0,0
-637,477,0,0,0,0,0,0,0,0,0,-1,587,547,0,0
-630,477,0,0,0,0,0,0,0,0,0,-1,594,547,0,0
-623,477,0,0,0,0,0,0,0,0,0,-1,601,547,0,0
-616,477,0,0,0,0,0,0,0,0,0,-1,608,547,0,0
-609,477,0,0,0,0,0,0,0,0,0,-1,615,547,0,0
-602,477,0,0,0,0,0,0,0,0,0,-1,622,547,0,0
-595,477,0,0,0,0,0,0,0,0,0,-1,629,547,0,0
-588,477,0,0,0,0,0,0,0,0,0,-1,636,547,0,0
-581,477,0,0,0,0,0,0,0,0,0,-1,643,547,0,0
-574,477,0,0,0,0,0,0,0,0,0,-1,650,547,0,0
-567,477,0,0,0,0,0,0,0,0,0,-1,657,547,0,0
-560,477,0,0,0,0,0,0,0,0,0,-1,664,547,0,0
-553,477,0,0,0,0,0,0,0,0,0,-1,671,547,0,0
-546,477,0,0,0,0,0,0,0,0,0,-1,678,547,0,0
-539,477,0,0,0,0,0,0,0,0,0,-1,685,547,0,0
-532,477,0,0,0,0,0,0,0,0,0,-1,692,547,0,0
-525,477,0,0,0,0,0,0,0,0,0,-1,699,547,0,0
-518,477,0,0,0,0,0,0,0,0,0,-1,706,547,0,0
-511,477,0,0,0,0,0,0,0,0,0,-1,713,547,0,0
-504,477,0,0,0,0,0,0,0,0,0,-1,720,547,0,0
-497,477,0,0,0,0,0,0,0,0,0,-1,727,547,0,0
-490,477,0,0,0,0,0,0,0,0,0,-1,734,547,0,0
-483,477,-7.73151,-0.224182,0,0,0,0,0,0,0,-1,741,547,-7.73152,0.224176
-476,477,-6.25806,-0.310547,0,0,0,0,0,0,0,-1,748,547,-6.25804,0.310549
-469,477,-7.26617,0.525085,0,0,0,0,0,0,0,-1,755,547,-7.2662,-0.525111
-462,477,-6.65143,1.06042,0,0,0,0,0,0,0,-1,762,547,-6.65143,-1.06043
-455,477,-5.31757,0.429016,0,0,0,0,0,0,0,-1,769,547,-5.31756,-0.42902
-448,477,-4.0697,0.273376,0,0,0,0,0,0,0,-1,776,547,-4.06971,-0.273363
-441,477,-2.47504,-4.76971,0,0,0,0,0,0,0,-1,783,547,-2.47505,4.76973
-434,477,-7.57147,-22.0883,0,0,0,0,0,0,0,-1,790,547,-7.57145,22.0882
-427,477,-7.80499,-22.7145,0.0001635,0.011343,-0.00380429,0.0125147,-0.00100826,-1.27201,0.00869873,0.0498318,797,547,-7.805,22.7146
-420,477,-7.84412,-23.5673,0.000201737,0.00972983,-0.00376412,0.0110374,-0.00110585,-1.23646,0.00775323,0.0394918,804,547,-7.8441,23.5673
-413,477,-7.87549,-24.8734,0.000331277,0.00820094,-0.00362396,0.00961551,-0.00108328,-1.19865,0.00680025,0.0220082,811,547,-7.87548,24.8734
-406,477,-8.00922,-25.9882,0.000392982,0.00671586,-0.00325475,0.00809183,-0.000982987,-1.17083,0.00575029,0.0124125,818,547,-8.0092,25.9882
-399,477,-8.05975,-26.988,0.00042658,0.00532434,-0.00278262,0.0065822,-0.000831286,-1.14624,0.00468985,0.0213022,825,547,-8.05974,26.988
-392,477,-8.15521,-28.014,0.00059144,0.00406153,-0.0023437,0.00524253,-0.000589562,-1.10403,0.0037072,0.0193893,832,547,-8.15521,28.014
-385,477,-8.20819,-29.0159,0.000869748,0.00292305,-0.00191823,0.00407209,-0.00027929,-1.03111,0.00281245,0.015786,839,547,-8.20819,29.0159
-378,477,-8.26917,-30.0196,0.00112662,0.00178721,-0.00139209,0.00288766,2.61769e-05,-0.901876,0.00191644,0.0141273,846,547,-8.26918,30.0196
-371,477,-8.35925,-30.9818,0.00134171,0.000676953,-0.000895009,0.00196406,5.45969e-05,-0.607608,0.00129156,0.0139187,853,547,-8.35928,30.9818
-364,477,-8.43225,-31.9629,0.00153904,-0.000443048,-0.000341596,0.00159626,-0.000500267,-0.165965,0.00126436,0.0138515,860,547,-8.43227,31.9629
-357,477,-8.51477,-32.9609,0.00176447,-0.00140598,0.000192408,0.00177611,-0.00141761,0.0603925,0.00184776,0.0120969,867,547,-8.51479,32.9609
-350,477,-8.57788,-33.9197,0.00198682,-0.00238802,0.000697975,0.00209548,-0.00249667,0.154437,0.00265465,0.0114128,874,547,-8.57791,33.9197
-343,477,-8.56903,-34.941,0.00203389,-0.00329333,0.00125571,0.00231505,-0.00357449,0.220267,0.00342614,0.0202152,881,547,-8.56905,34.941
-336,477,-8.56848,-35.9293,0.0018334,-0.00445107,0.00198085,0.00240565,-0.00502333,0.281235,0.00437698,0.0413535,888,547,-8.56846,35.9293
-329,477,-8.68787,-36.9083,0,0,0,0,0,0,0,-1,895,547,-8.68788,36.9083
-322,477,-5.91638,-27.4468,0,0,0,0,0,0,0,-1,902,547,-5.91639,27.4468
-315,477,-1.67358,-9.15253,0,0,0,0,0,0,0,-1,909,547,-1.67356,9.15253
-308,477,-1.30127,-6.55188,0,0,0,0,0,0,0,-1,916,547,-1.30128,6.55185
-301,477,-1.21185,-6.28351,0,0,0,0,0,0,0,-1,923,547,-1.21184,6.28352
-294,477,-0.352905,3.27142,0,0,0,0,0,0,0,-1,930,547,-0.35292,-3.27144
-287,477,3.54364,2.15399,0,0,0,0,0,0,0,-1,937,547,3.54362,-2.15396
-280,477,1.97308,-0.954163,0,0,0,0,0,0,0,-1,944,547,1.9731,0.954178
-273,477,2.11621,-3.76709,0,0,0,0,0,0,0,-1,951,547,2.11619,3.76706
-266,477,2.04669,-3.42389,0,0,0,0,0,0,0,-1,958,547,2.04671,3.42391
-259,477,-1.33478,-3.41205,0,0,0,0,0,0,0,-1,965,547,-1.3348,3.41206
-252,477,0.597168,-5.32922,0,0,0,0,0,0,0,-1,972,547,0.597144,5.32924
-245,477,8.2309,-8.48492,0,0,0,0,0,0,0,-1,979,547,8.23091,8.48494
-238,477,6.60938,-5.64063,0,0,0,0,0,0,0,-1,986,547,6.60938,5.64063
-231,477,4.71716,-2.52484,0,0,0,0,0,0,0,-1,993,547,4.71716,2.52483
-224,477,0,0,0,0,0,0,0,0,0,-1,1000,547,0,0
-217,477,0,0,0,0,0,0,0,0,0,-1,1007,547,0,0
-210,477,0,0,0,0,0,0,0,0,0,-1,1014,547,0,0
-203,477,0,0,0,0,0,0,0,0,0,-1,1021,547,0,0
-196,477,0,0,0,0,0,0,0,0,0,-1,1028,547,0,0
-189,477,0,0,0,0,0,0,0,0,0,-1,1035,547,0,0
-182,477,0,0,0,0,0,0,0,0,0,-1,1042,547,0,0
-175,477,0,0,0,0,0,0,0,0,0,-1,1049,547,0,0
-168,477,0,0,0,0,0,0,0,0,0,-1,1056,547,0,0
-161,477,0,0,0,0,0,0,0,0,0,-1,1063,547,0,0
-154,477,0,0,0,0,0,0,0,0,0,-1,1070,547,0,0
-147,477,0,0,0,0,0,0,0,0,0,-1,1077,547,0,0
-140,477,0,0,0,0,0,0,0,0,0,-1,1084,547,0,0
-133,477,0,0,0,0,0,0,0,0,0,-1,1091,547,0,0
-126,477,0,0,0,0,0,0,0,0,0,-1,1098,547,0,0
-119,477,0,0,0,0,0,0,0,0,0,-1,1105,547,0,0
-112,477,0,0,0,0,0,0,0,0,0,-1,1112,547,0,0
-105,477,0,0,0,0,0,0,0,0,0,-1,1119,547,0,0
-98,477,0,0,0,0,0,0,0,0,0,-1,1126,547,0,0
-91,477,0,0,0,0,0,0,0,0,0,-1,1133,547,0,0
-84,477,0,0,0,0,0,0,0,0,0,-1,1140,547,0,0
-77,477,0,0,0,0,0,0,0,0,0,-1,1147,547,0,0
-70,477,0,0,0,0,0,0,0,0,0,-1,1154,547,0,0
-63,477,0,0,0,0,0,0,0,0,0,-1,1161,547,0,0
-56,477,0,0,0,0,0,0,0,0,0,-1,1168,547,0,0
-49,477,0,0,0,0,0,0,0,0,0,-1,1175,547,0,0
-42,477,0,0,0,0,0,0,0,0,0,-1,1182,547,0,0
-35,477,0,0,0,0,0,0,0,0,0,-1,1189,547,0,0
-28,477,0,0,0,0,0,0,0,0,0,-1,1196,547,0,0
-21,477,0,0,0,0,0,0,0,0,0,-1,1203,547,0,0
-14,477,0,0,0,0,0,0,0,0,0,-1,1210,547,0,0
-7,477,0,0,0,0,0,0,0,0,0,-1,1217,547,0,0
0,477,0,0,0,0,0,0,0,0,0,-1,1224,547,0,0
7,477,0,0,0,0,0,0,0,0,0,-1,1231,547,0,0
14,477,0,0,0,0,0,0,0,0,0,-1,1238,547,0,0
21,477,0,0,0,0,0,0,0,0,0,-1,1245,547,0,0
28,477,0,0,0,0,0,0,0,0,0,-1,1252,547,0,0
35,477,0,0,0,0,0,0,0,0,0,-1,1259,547,0,0
42,477,0,0,0,0,0,0,0,0,0,-1,1266,547,0,0
49,477,0,0,0,0,0,0,0,0,0,-1,1273,547,0,0
56,477,0,0,0,0,0,0,0,0,0,-1,1280,547,0,0
63,477,0,0,0,0,0,0,0,0,0,-1,1287,547,0,0
70,477,0,0,0,0,0,0,0,0,0,-1,1294,547,0,0
77,477,0,0,0,0,0,0,0,0,0,-1,1301,547,0,0
84,477,0,0,0,0,0,0,0,0,0,-1,1308,547,0,0
91,477,0,0,0,0,0,0,0,0,0,-1,1315,547,0,0
98,477,0,0,0,0,0,0,0,0,0,-1,1322,547,0,0
105,477,0,0,0,0,0,0,0,0,0,-1,1329,547,0,0
112,477,0,0,0,0,0,0,0,0,0,-1,1336,547,0,0
119,477,0,0,0,0,0,0,0,0,0,-1,1343,547,0,0
126,477,0,0,0,0,0,0,0,0,0,-1,1350,547,0,0
133,477,0,0,0,0,0,0,0,0,0,-1,1357,547,0,0
140,477,0,0,0,0,0,0,0,0,0,-1,1364,547,0,0
147,477,0,0,0,0,0,0,0,0,0,-1,1371,547,0,0
154,477,0,0,0,0,0,0,0,0,0,-1,1378,547,0,0
161,477,0,0,0,0,0,0,0,0,0,-1,1385,547,0,0
168,477,0,0,0,0,0,0,0,0,0,-1,1392,547,0,0
175,477,0,0,0,0,0,0,0,0,0,-1,1399,547,0,0
182,477,0,0,0,0,0,0,0,0,0,-1,1406,547,0,0
189,477,0,0,0,0,0,0,0,0,0,-1,1413,547,0,0
196,477,0,0,0,0,0,0,0,0,0,-1,1420,547,0,0
203,477,0,0,0,0,0,0,0,0,0,-1,1427,547,0,0
210,477,0,0,0,0,0,0,0,0,0,-1,1434,547,0,0
217,477,0,0,0,0,0,0,0,0,0,-1,1441,547,0,0
224,477,0,0,0,0,0,0,0,0,0,-1,1448,547,0,0
231,477,0,0,0,0,0,0,0,0,0,-1,1455,547,0,0
238,477,0,0,0,0,0,0,0,0,0,-1,1462,547,0,0
245,477,0,0,0,0,0,0,0,0,0,-1,1469,547,0,0
252,477,0,0,0,0,0,0,0,0,0,-1,1476,547,0,0
259,477,0,0,0,0,0,0,0,0,0,-1,1483,547,0,0
266,477,0,0,0,0,0,0,0,0,0,-1,1490,547,0,0
273,477,0,0,0,0,0,0,0,0,0,-1,1497,547,0,0
280,477,0,0,0,0,0,0,0,0,0,-1,1504,547,0,0
287,477,0,0,0,0,0,0,0,0,0,-1,1511,547,0,0
294,477,0,0,0,0,0,0,0,0,0,-1,1518,547,0,0
301,477,0,0,0,0,0,0,0,0,0,-1,1525,547,0,0
308,477,0,0,0,0,0,0,0,0,0,-1,1532,547,0,0
315,477,0,0,0,0,0,0,0,0,0,-1,1539,547,0,0
322,477,0,0,0,0,0,0,0,0,0,-1,1546,547,0,0
329,477,0,0,0,0,0,0,0,0,0,-1,1553,547,0,0
336,477,0,0,0,0,0,0,0,0,0,-1,1560,547,0,0
343,477,0,0,0,0,0,0,0,0,0,-1,1567,547,0,0
350,477,1.7699,-3.32275,0,0,0,0,0,0,0,-1,1574,547,1.7699,3.32272
357,477,3.073,-4.83313,0,0,0,0,0,0,0,-1,1581,547,3.07303,4.83316
364,477,4.30127,-4.22864,0,0,0,0,0,0,0,-1,1588,547,4.30125,4.22865
371,477,4.57703,0.283264,0,0,0,0,0,0,0,-1,1595,547,4.57706,-0.283262
378,477,8.57947,1.05969,0,0,0,0,0,0,0,-1,1602,547,8.5795,-1.05972
385,477,12.3726,2.02356,0,0,0,0,0,0,0,-1,1609,547,12.3725,-2.02355
392,477,16.4678,2.76843,0,0,0,0,0,0,0,-1,1616,547,16.4678,-2.76845
399,477,8.00037,-2.29523,0,0,0,0,0,0,0,-1,1623,547,8.00031,2.2952
406,477,4.82495,2.7475,0,0,0,0,0,0,0,-1,1630,547,4.825,-2.74752
413,477,4.88171,-0.336426,0,0,0,0,0,0,0,-1,1637,547,4.88169,0.336398
420,477,3.34875,0.102722,0,0,0,0,0,0,0,-1,1644,547,3.34871,-0.1027
427,477,1.66772,-0.373108,0,0,0,0,0,0,0,-1,1651,547,1.66768,0.373104
434,477,3.76978,-2.30798,0,0,0,0,0,0,0,-1,1658,547,3.76974,2.30801
441,477,4.05444,-2.80402,0,0,0,0,0,0,0,-1,1665,547,4.05444,2.804
448,477,10.4247,-11.7421,0,0,0,0,0,0,0,-1,1672,547,10.4247,11.7421
455,477,13.3054,-16.8109,0,0,0,0,0,0,0,-1,1679,547,13.3054,16.8109
462,477,25.6875,-35.8753,0,0,0,0,0,0,0,-1,1686,547,25.6875,35.8753
469,477,25.6125,-35.0171,0,0,0,0,0,0,0,-1,1693,547,25.6126,35.0171
476,477,25.5688,-33.8818,0.000831322,0.000195848,-0.00157371,0.00211905,-0.00109188,-0.685786,0.00188519,0.0311235,1700,547,25.5688,33.8818
483,477,25.5039,-32.8735,0.00100293,0.000338519,-0.000897119,0.00162738,-0.000285928,-0.608075,0.00119172,0.0164048,1707,547,25.5039,32.8735
490,477,25.4448,-31.9406,0.00110452,0.000673146,-0.000234069,0.00120713,0.000570543,-0.413121,0.000697283,0.0155178,1714,547,25.4449,31.9405
497,477,25.3883,-30.9276,0.00113819,0.00118312,0.000436594,0.00159782,0.000723481,0.811103,0.000923874,0.0142633,1721,547,25.3883,30.9276
504,477,25.3403,-29.9132,0.00116273,0.00122544,0.000907461,0.00210209,0.000286083,0.802669,0.00131643,0.0188802,1728,547,25.3404,29.9132
511,477,25.3184,-28.9766,0.00113397,0.00141101,0.00132981,0.00260949,-6.45074e-05,0.837293,0.00176156,0.0238682,1735,547,25.3184,28.9765
518,477,25.2471,-28.0139,0.000986307,0.00165889,0.00165602,0.00301242,-0.000367222,0.885572,0.00214121,0.0219469,1742,547,25.2471,28.0139
525,477,25.1301,-26.9611,0.000854707,0.00194225,0.00194556,0.0034186,-0.000621644,0.921668,0.00251205,0.0192006,1749,547,25.1302,26.9611
532,477,25.0088,-25.9658,0.000733358,0.00237612,0.00223553,0.00393639,-0.000826912,0.961453,0.00293893,0.020227,1756,547,25.0088,25.9658
539,477,24.9603,-24.8617,0.000590227,0.00292321,0.0024535,0.0044734,-0.000959961,1.0073,0.00334844,0.0186332,1763,547,24.9603,24.8617
546,477,24.8253,-23.9374,0.000475393,0.00372768,0.00266717,0.00522534,-0.00102226,1.05916,0.00386959,0.045907,1770,547,24.8254,23.9374
553,477,24.8215,-22.5866,0,0,0,0,0,0,0,-1,1777,547,24.8216,22.5866
560,477,19.4597,-16.1135,0,0,0,0,0,0,0,-1,1784,547,19.4597,16.1135
567,477,13.9529,-8.70972,0,0,0,0,0,0,0,-1,1791,547,13.9529,8.7097
574,477,6.82593,-0.916992,0,0,0,0,0,0,0,-1,1798,547,6.82598,0.916977
581,477,9.29321,-0.557007,0,0,0,0,0,0,0,-1,1805,547,9.29324,0.55703
588,477,9.75195,0.422729,0,0,0,0,0,0,0,-1,1812,547,9.75198,-0.42273
595,477,9.89172,1.21326,0,0,0,0,0,0,0,-1,1819,547,9.89174,-1.21328
602,477,6.5271,-0.964417,0,0,0,0,0,0,0,-1,1826,547,6.52706,0.964427
609,477,0,0,0,0,0,0,0,0,0,-1,1833,547,0,0
616,477,0,0,0,0,0,0,0,0,0,-1,1840,547,0,0
623,477,0,0,0,0,0,0,0,0,0,-1,1847,547,0,0
630,477,0,0,0,0,0,0,0,0,0,-1,1854,547,0,0
637,477,0,0,0,0,0,0,0,0,0,-1,1861,547,0,0
644,477,0,0,0,0,0,0,0,0,0,-1,1868,547,0,0
651,477,0,0,0,0,0,0,0,0,0,-1,1875,547,0,0
658,477,0,0,0,0,0,0,0,0,0,-1,1882,547,0,0
665,477,0,0,0,0,0,0,0,0,0,-1,1889,547,0,0
672,477,0,0,0,0,0,0,0,0,0,-1,1896,547,0,0
679,477,0,0,0,0,0,0,0,0,0,-1,1903,547,0,0
686,477,0,0,0,0,0,0,0,0,0,-1,1910,547,0,0
693,477,0,0,0,0,0,0,0,0,0,-1,1917,547,0,0
700,477,0,0,0,0,0,0,0,0,0,-1,1924,547,0,0
707,477,0,0,0,0,0,0,0,0,0,-1,1931,547,0,0
714,477,0,0,0,0,0,0,0,0,0,-1,1938,547,0,0
721,477,0,0,0,0,0,0,0,0,0,-1,1945,547,0,0
728,477,0,0,0,0,0,0,0,0,0,-1,1952,547,0,0
735,477,0,0,0,0,0,0,0,0,0,-1,1959,547,0,0
742,477,0,0,0,0,0,0,0,0,0,-1,1966,547,0,0
749,477,0,0,0,0,0,0,0,0,0,-1,1973,547,0,0
756,477,0,0,0,0,0,0,0,0,0,-1,1980,547,0,0
763,477,0,0,0,0,0,0,0,0,0,-1,1987,547,0,0
770,477,0,0,0,0,0,0,0,0,0,-1,1994,547,0,0
777,477,0,0,0,0,0,0,0,0,0,-1,2001,547,0,0
784,477,0,0,0,0,0,0,0,0,0,-1,2008,547,0,0
791,477,0,0,0,0,0,0,0,0,0,-1,2015,547,0,0
798,477,0,0,0,0,0,0,0,0,0,-1,2022,547,0,0
805,477,0,0,0,0,0,0,0,0,0,-1,2029,547,0,0
812,477,0,0,0,0,0,0,0,0,0,-1,2036,547,0,0
-700,470,0,0,0,0,0,0,0,0,0,-1,524,554,0,0
-693,470,0,0,0,0,0,0,0,0,0,-1,531,554,0,0
-686,470,0,0,0,0,0,0,0,0,0,-1,538,554,0,0
-679,470,0,0,0,0,0,0,0,0,0,-1,545,554,0,0
-672,470,0,0,0,0,0,0,0,0,0,-1,552,554,0,0
-665,470,0,0,0,0,0,0,0,0,0,-1,559,554,0,0
-658,470,0,0,0,0,0,0,0,0,0,-1,566,554,0,0
-651,470,0,0,0,0,0,0,0,0,0,-1,573,554,0,0
-644,470,0,0,0,0,0,0,0,0,0,-1,580,554,0,0
-637,470,0,0,0,0,0,0,0,0,0,-1,587,554,0,0
-630,470,0,0,0,0,0,0,0,0,0,-1,594,554,0,0
-623,470,0,0,0,0,0,0,0,0,0,-1,601,554,0,0
-616,470,0,0,0,0,0,0,0,0,0,-1,608,554,0,0
-609,470,0,0,0,0,0,0,0,0,0,-1,615,554,0,0
-602,470,0,0,0,0,0,0,0,0,0,-1,622,554,0,0
-595,470,0,0,0,0,0,0,0,0,0,-1,629,554,0,0
-588,470,0,0,0,0,0,0,0,0,0,-1,636,554,0,0
-581,470,0,0,0,0,0,0,0,0,0,-1,643,554,0,0
-574,470,0,0,0,0,0,0,0,0,0,-1,650,554,0,0
-567,470,0,0,0,0,0,0,0,0,0,-1,657,554,0,0
-560,470,0,0,0,0,0,0,0,0,0,-1,664,554,0,0
-553,470,0,0,0,0,0,0,0,0,0,-1,671,554,0,0
-546,470,0,0,0,0,0,0,0,0,0,-1,678,554,0,0
-539,470,0,0,0,0,0,0,0,0,0,-1,685,554,0,0
-532,470,0,0,0,0,0,0,0,0,0,-1,692,554,0,0
-525,470,0,0,0,0,0,0,0,0,0,-1,699,554,0,0
-518,470,0,0,0,0,0,0,0,0,0,-1,706,554,0,0
-511,470,0,0,0,0,0,0,0,0,0,-1,713,554,0,0
-504,470,0,0,0,0,0,0,0,0,0,-1,720,554,0,0
-497,470,0,0,0,0,0,0,0,0,0,-1,727,554,0,0
-490,470,-9.13263,-1.03125,0,0,0,0,0,0,0,-1,734,554,-9.1326,1.03127
-483,470,-7.68677,-1.03955,0,0,0,0,0,0,0,-1,741,554,-7.68678,1.03958
-476,470,-6.17969,-1.03394,0,0,0,0,0,0,0,-1,748,554,-6.17971,1.03395
-469,470,-6.23016,-0.651855,0,0,0,0,0,0,0,-1,755,554,-6.23014,0.651829
-462,470,-4.87915,-1.03705,0,0,0,0,0,0,0,-1,762,554,-4.87914,1.03702
-455,470,-4.14777,-1.37079,0,0,0,0,0,0,0,-1,769,554,-4.14779,1.37078
-448,470,-2.9314,-5.74518,0,0,0,0,0,0,0,-1,776,554,-2.93137,5.74518
-441,470,-8.03943,-19.0135,0,0,0,0,0,0,0,-1,783,554,-8.03942,19.0135
-434,470,-8.73346,-21.6536,0,0,0,0,0,0,0,-1,790,554,-8.73344,21.6536
-427,470,-8.82471,-22.7649,6.47717e-05,0.00862119,-0.00271819,0.00941166,-0.000725708,-1.28779,0.0065298,0.0292689,797,554,-8.82473,22.7649
-420,470,-8.84442,-23.8527,0.000274782,0.00740524,-0.00279645,0.00837113,-0.000691104,-1.23823,0.0058248,0.0189658,804,554,-8.84445,23.8527
-413,470,-8.9353,-24.9142,0.000427672,0.00617454,-0.00267943,0.00722997,-0.000627755,-1.19556,0.00504227,0.0145859,811,554,-8.93532,24.9142
-406,470,-9.00073,-25.9314,0.00047329,0.00490301,-0.00232507,0.00589931,-0.000523011,-1.16596,0.00411829,0.0134601,818,554,-9.00075,25.9314
-399,470,-9.0564,-26.9554,0.000528075,0.0037517,-0.00192037,0.00464703,-0.000367257,-1.13453,0.00322741,0.0171291,825,554,-9.05639,26.9555
-392,470,-9.13153,-27.9595,0.000707526,0.00267643,-0.00154125,0.00352079,-0.000136843,-1.06961,0.00239412,0.0161576,832,554,-9.13152,27.9594
-385,470,-9.19666,-28.9376,0.00100586,0.00169502,-0.00118031,0.00258002,0.000120867,-0.927422,0.00168117,0.0122177,839,554,-9.19667,28.9376
-378,470,-9.25372,-29.9408,0.00129591,0.000692923,-0.000709444,0.00176527,0.000223568,-0.584474,0.00110985,0.0166076,846,554,-9.25373,29.9408
-371,470,-9.3313,-30.9088,0.00157773,-0.000274263,-0.000274513,0.00161756,-0.000314096,-0.144099,0.00119689,0.014772,853,554,-9.3313,30.9088
-364,470,-9.40686,-31.8657,0.00185681,-0.00120733,0.000183972,0.00186782,-0.00121834,0.059754,0.0017949,0.0154341,860,554,-9.40689,31.8657
-357,470,-9.50433,-32.8545,0.00217758,-0.00207544,0.000611994,0.00226389,-0.00216175,0.14011,0.00255537,0.0155354,867,554,-9.5043,32.8545
-350,470,-9.54938,-33.8837,0.00252552,-0.00307942,0.00102024,0.00270546,-0.00325935,0.174567,0.00344873,0.0136447,874,554,-9.54939,33.8837
-343,470,-9.5484,-35.0009,0,0,0,0,0,0,0,-1,881,554,-9.5484,35.0009
-336,470,-9.31488,-35.9008,0,0,0,0,0,0,0,-1,888,554,-9.31487,35.9008
-329,470,-2.78516,-12.3594,0,0,0,0,0,0,0,-1,895,554,-2.78517,12.3594
-322,470,-2.30829,-11.4527,0,0,0,0,0,0,0,-1,902,554,-2.30827,11.4527
-315,470,-1.04797,-8.29529,0,0,0,0,0,0,0,-1,909,554,-1.04797,8.29526
-308,470,-1.39368,-6.68152,0,0,0,0,0,0,0,-1,916,554,-1.39369,6.68149
-301,470,-0.0340576,3.34888,0,0,0,0,0,0,0,-1,923,554,-0.0340496,-3.3489
-294,470,-1.18378,3.22266,0,0,0,0,0,0,0,-1,930,554,-1.18376,-3.22268
-287,470,-2.15454,3.2204,0,0,0,0,0,0,0,-1,937,554,-2.15452,-3.22037
-280,470,-3.00537,3.099,0,0,0,0,0,0,0,-1,944,554,-3.00536,-3.09898
-273,470,-12.3932,3.65009,0,0,0,0,0,0,0,-1,951,554,-12.3932,-3.65011
-266,470,-11.5706,1.16028,0,0,0,0,0,0,0,-1,958,554,-11.5706,-1.16031
-259,470,-7.50415,-2.77167,0,0,0,0,0,0,0,-1,965,554,-7.50413,2.7717
-252,470,-0.371155,-5.87823,0,0,0,0,0,0,0,-1,972,554,-0.37114,5.87821
-245,470,1.33221,-6.81122,0,0,0,0,0,0,0,-1,979,554,1.33223,6.8112
-238,470,0,0,0,0,0,0,0,0,0,-1,986,554,0,0
-231,470,0,0,0,0,0,0,0,0,0,-1,993,554,0,0
-224,470,0,0,0,0,0,0,0,0,0,-1,1000,554,0,0
-217,470,0,0,0,0,0,0,0,0,0,-1,1007,554,0,0
-210,470,0,0,0,0,0,0,0,0,0,-1,1014,554,0,0
-203,470,0,0,0,0,0,0,0,0,0,-1,1021,554,0,0
-196,470,0,0,0,0,0,0,0,0,0,-1,1028,554,0,0
-189,470,0,0,0,0,0,0,0,0,0,-1,1035,554,0,0
-182,470,0,0,0,0,0,0,0,0,0,-1,1042,554,0,0
-175,470,0,0,0,0,0,0,0,0,0,-1,1049,554,0,0
-168,470,0,0,0,0,0,0,0,0,0,-1,1056,554,0,0
-161,470,0,0,0,0,0,0,0,0,0,-1,1063,554,0,0
-154,470,0,0,0,0,0,0,0,0,0,-1,1070,554,0,0
-147,470,0,0,0,0,0,0,0,0,0,-1,1077,554,0,0
-140,470,0,0,0,0,0,0,0,0,0,-1,1084,554,0,0
-133,470,0,0,0,0,0,0,0,0,0,-1,1091,554,0,0
-126,470,0,0,0,0,0,0,0,0,0,-1,1098,554,0,0
-119,470,0,0,0,0,0,0,0,0,0,-1,1105,554,0,0
-112,470,0,0,0,0,0,0,0,0,0,-1,1112,554,0,0
-105,470,0,0,0,0,0,0,0,0,0,-1,1119,554,0,0
-98,470,0,0,0,0,0,0,0,0,0,-1,1126,554,0,0
-91,470,0,0,0,0,0,0,0,0,0,-1,1133,554,0,0
-84,470,0,0,0,0,0,0,0,0,0,-1,1140,554,0,0
-77,470,0,0,0,0,0,0,0,0,0,-1,1147,554,0,0
-70,470,0,0,0,0,0,0,0,0,0,-1,1154,554,0,0
-63,470,0,0,0,0,0,0,0,0,0,-1,1161,554,0,0
-56,470,0,0,0,0,0,0,0,0,0,-1,1168,554,0,0
-49,470,0,0,0,0,0,0,0,0,0,-1,1175,554,0,0
-42,470,0,0,0,0,0,0,0,0,0,-1,1182,554,0,0
-35,470,0,0,0,0,0,0,0,0,0,-1,1189,554,0,0
-28,470,0,0,0,0,0,0,0,0,0,-1,1196,554,0,0
-21,470,0,0,0,0,0,0,0,0,0,-1,1203,554,0,0
-14,470,0,0,0,0,0,0,0,0,0,-1,1210,554,0,0
-7,470,0,0,0,0,0,0,0,0,0,-1,1217,554,0,0
0,470,0,0,0,0,0,0,0,0,0,-1,1224,554,0,0
7,470,0,0,0,0,0,0,0,0,0,-1,1231,554,0,0
14,470,0,0,0,0,0,0,0,0,0,-1,1238,554,0,0
21,470,0,0,0,0,0,0,0,0,0,-1,1245,554,0,0
28,470,0,0,0,0,0,0,0,0,0,-1,1252,554,0,0
35,470,0,0,0,0,0,0,0,0,0,-1,1259,554,0,0
42,470,0,0,0,0,0,0,0,0,0,-1,1266,554,0,0
49,470,0,0,0,0,0,0,0,0,0,-1,1273,554,0,0
56,470,0,0,0,0,0,0,0,0,0,-1,1280,554,0,0
63,470,0,0,0,0,0,0,0,0,0,-1,1287,554,0,0
70,470,0,0,0,0,0,0,0,0,0,-1,1294,554,0,0
77,470,0,0,0,0,0,0,0,0,0,-1,1301,554,0,0
84,470,0,0,0,0,0,0,0,0,0,-1,1308,554,0,0
91,470,0,0,0,0,0,0,0,0,0,-1,1315,554,0,0
98,470,0,0,0,0,0,0,0,0,0,-1,1322,554,0,0
105,470,0,0,0,0,0,0,0,0,0,-1,1329,554,0,0
112,470,0,0,0,0,0,0,0,0,0,-1,1336,554,0,0
119,470,0,0,0,0,0,0,0,0,0,-1,1343,554,0,0
126,470,0,0,0,0,0,0,0,0,0,-1,1350,554,0,0
133,470,0,0,0,0,0,0,0,0,0,-1,1357,554,0,0
140,470,0,0,0,0,0,0,0,0,0,-1,1364,554,0,0
147,470,0,0,0,0,0,0,0,0,0,-1,1371,554,0,0
154,470,0,0,0,0,0,0,0,0,0,-1,1378,554,0,0
161,470,0,0,0,0,0,0,0,0,0,-1,1385,554,0,0
168,470,0,0,0,0,0,0,0,0,0,-1,1392,554,0,0
175,470,0,0,0,0,0,0,0,0,0,-1,1399,554,0,0
182,470,0,0,0,0,0,0,0,0,0,-1,1406,554,0,0
189,470,0,0,0,0,0,0,0,0,0,-1,1413,554,0,0
196,470,0,0,0,0,0,0,0,0,0,-1,1420,554,0,0
203,470,0,0,0,0,0,0,0,0,0,-1,1427,554,0,0
210,470,0,0,0,0,0,0,0,0,0,-1,1434,554,0,0
217,470,0,0,0,0,0,0,0,0,0,-1,1441,554,0,0
224,470,0,0,0,0,0,0,0,0,0,-1,1448,554,0,0
231,470,0,0,0,0,0,0,0,0,0,-1,1455,554,0,0
238,470,0,0,0,0,0,0,0,0,0,-1,1462,554,0,0
245,470,0,0,0,0,0,0,0,0,0,-1,1469,554,0,0
252,470,0,0,0,0,0,0,0,0,0,-1,1476,554,0,0
259,470,0,0,0,0,0,0,0,0,0,-1,1483,554,0,0
266,470,0,0,0,0,0,0,0,0,0,-1,1490,554,0,0
273,470,0,0,0,0,0,0,0,0,0,-1,1497,554,0,0
280,470,0,0,0,0,0,0,0,0,0,-1,1504,554,0,0
287,470,0,0,0,0,0,0,0,0,0,-1,1511,554,0,0
294,470,0,0,0,0,0,0,0,0,0,-1,1518,554,0,0
301,470,0,0,0,0,0,0,0,0,0,-1,1525,554,0,0
308,470,0,0,0,0,0,0,0,0,0,-1,1532,554,0,0
315,470,0,0,0,0,0,0,0,0,0,-1,1539,554,0,0
322,470,0,0,0,0,0,0,0,0,0,-1,1546,554,0,0
329,470,0,0,0,0,0,0,0,0,0,-1,1553,554,0,0
336,470,0,0,0,0,0,0,0,0,0,-1,1560,554,0,0
343,470,0,0,0,0,0,0,0,0,0,-1,1567,554,0,0
350,470,0,0,0,0,0,0,0,0,0,-1,1574,554,0,0
357,470,0,0,0,0,0,0,0,0,0,-1,1581,554,0,0
364,470,1.33423,0.293335,0,0,0,0,0,0,0,-1,1588,554,1.33422,-0.293348
371,470,2.22498,-0.0305176,0,0,0,0,0,0,0,-1,1595,554,2.22494,0.0305046
378,470,6.27051,0.710083,0,0,0,0,0,0,0,-1,1602,554,6.27054,-0.710093
385,470,10.3657,1.47296,0,0,0,0,0,0,0,-1,1609,554,10.3657,-1.47299
392,470,15.3881,3.01935,0,0,0,0,0,0,0,-1,1616,554,15.388,-3.01937
399,470,18.4479,2.93793,0,0,0,0,0,0,0,-1,1623,554,18.4479,-2.93792
406,470,15.1896,1.36676,0,0,0,0,0,0,0,-1,1630,554,15.1896,-1.36679
413,470,6.55383,1.99207,0,0,0,0,0,0,0,-1,1637,554,6.5538,-1.99208
420,470,4.47095,0.845703,0,0,0,0,0,0,0,-1,1644,554,4.47098,-0.845718
427,470,3.51038,1.19684,0,0,0,0,0,0,0,-1,1651,554,3.51039,-1.19684
434,470,3.31775,-1.37427,0,0,0,0,0,0,0,-1,1658,554,3.31781,1.37426
441,470,2.55457,-2.05902,0,0,0,0,0,0,0,-1,1665,554,2.55461,2.05904
448,470,3.27258,-2.64032,0,0,0,0,0,0,0,-1,1672,554,3.27257,2.64029
455,470,10.3658,-9.82233,0,0,0,0,0,0,0,-1,1679,554,10.3659,9.82233
462,470,11.0651,-11.9958,0,0,0,0,0,0,0,-1,1686,554,11.0651,11.9958
469,470,15.4242,-19.0521,0,0,0,0,0,0,0,-1,1693,554,15.4242,19.0521
476,470,26.5104,-33.9562,0,0,0,0,0,0,0,-1,1700,554,26.5103,33.9562
483,470,26.5129,-32.8326,0.00109663,5.11873e-05,-0.00127126,0.00194844,-0.000800622,-0.590343,0.00163264,0.022324,1707,554,26.5129,32.8326
490,470,26.4347,-31.8604,0.00120195,0.000333635,-0.000646026,0.00154615,-1.05668e-05,-0.489541,0.00103431,0.0141309,1714,554,26.4347,31.8603
497,470,26.3846,-30.8679,0.00122471,0.000863049,4.38178e-05,0.00122995,0.000857816,0.118865,0.000728331,0.013489,1721,554,26.3846,30.8679
504,470,26.3435,-29.8923,0.00116533,0.000825559,0.000462567,0.00148822,0.000502667,0.609412,0.000874172,0.0219692,1728,554,26.3435,29.8923
511,470,26.2993,-28.9329,0.00109294,0.000931613,0.000832904,0.00184908,0.000175477,0.737125,0.00117859,0.0296839,1735,554,26.2993,28.9329
518,470,26.2332,-27.9537,0.000944417,0.00112376,0.00115425,0.00219181,-0.00012364,0.824164,0.00150412,0.0279343,1742,554,26.2331,27.9537
525,470,26.1624,-26.8775,0.000806156,0.00139154,0.00143585,0.00256422,-0.000366527,0.885943,0.00184384,0.0172928,1749,554,26.1624,26.8775
532,470,26.0305,-25.7965,0.000689657,0.00181973,0.0017204,0.00306551,-0.000556117,0.944066,0.00225205,0.015114,1756,554,26.0306,25.7965
539,470,25.9172,-24.7874,0.000582643,0.00239067,0.00197851,0.00366191,-0.000688604,0.999693,0.00270024,0.0172601,1763,554,25.9173,24.7874
546,470,25.8511,-23.8109,0.000542368,0.00323722,0.00225709,0.00451848,-0.000738897,1.05449,0.00328642,0.0170428,1770,554,25.8511,23.8109
553,470,25.8812,-22.7918,0.000586313,0.00426853,0.00259739,0.00561115,-0.000756301,1.09371,0.00401667,0.0277323,1777,554,25.8813,22.7918
560,470,25.9286,-21.5644,0,0,0,0,0,0,0,-1,1784,554,25.9286,21.5644
567,470,25.7672,-20.3884,0,0,0,0,0,0,0,-1,1791,554,25.7672,20.3885
574,470,14.2793,-8.07147,0,0,0,0,0,0,0,-1,1798,554,14.2793,8.07147
581,470,8.24646,-4.06317,0,0,0,0,0,0,0,-1,1805,554,8.24648,4.06318
588,470,11.1803,1.74927,0,0,0,0,0,0,0,-1,1812,554,11.1803,-1.74926
595,470,4.72192,3.44116,0,0,0,0,0,0,0,-1,1819,554,4.72191,-3.44116
602,470,14.4307,2.76141,0,0,0,0,0,0,0,-1,1826,554,14.4306,-2.76139
609,470,20.9181,4.41058,0,0,0,0,0,0,0,-1,1833,554,20.9181,-4.4106
616,470,0,0,0,0,0,0,0,0,0,-1,1840,554,0,0
623,470,0,0,0,0,0,0,0,0,0,-1,1847,554,0,0
630,470,0,0,0,0,0,0,0,0,0,-1,1854,554,0,0
637,470,0,0,0,0,0,0,0,0,0,-1,1861,554,0,0
644,470,0,0,0,0,0,0,0,0,0,-1,1868,554,0,0
651,470,0,0,0,0,0,0,0,0,0,-1,1875,554,0,0
658,470,0,0,0,0,0,0,0,0,0,-1,1882,554,0,0
665,470,0,0,0,0,0,0,0,0,0,-1,1889,554,0,0
672,470,0,0,0,0,0,0,0,0,0,-1,1896,554,0,0
679,470,0,0,0,0,0,0,0,0,0,-1,1903,554,0,0
686,470,0,0,0,0,0,0,0,0,0,-1,1910,554,0,0
693,470,0,0,0,0,0,0,0,0,0,-1,1917,554,0,0
700,470,0,0,0,0,0,0,0,0,0,-1,1924,554,0,0
707,470,0,0,0,0,0,0,0,0,0,-1,1931,554,0,0
714,470,0,0,0,0,0,0,0,0,0,-1,1938,554,0,0
721,470,0,0,0,0,0,0,0,0,0,-1,1945,554,0,0
728,470,0,0,0,0,0,0,0,0,0,-1,1952,554,0,0
735,470,0,0,0,0,0,0,0,0,0,-1,1959,554,0,0
742,470,0,0,0,0,0,0,0,0,0,-1,1966,554,0,0
749,470,0,0,0,0,0,0,0,0,0,-1,1973,554,0,0
756,470,0,0,0,0,0,0,0,0,0,-1,1980,554,0,0
763,470,0,0,0,0,0,0,0,0,0,-1,1987,554,0,0
770,470,0,0,0,0,0,0,0,0,0,-1,1994,554,0,0
777,470,0,0,0,0,0,0,0,0,0,-1,2001,554,0,0
784,470,0,0,0,0,0,0,0,0,0,-1,2008,554,0,0
791,470,0,0,0,0,0,0,0,0,0,-1,2015,554,0,0
798,470,0,0,0,0,0,0,0,0,0,-1,2022,554,0,0
805,470,0,0,0,0,0,0,0,0,0,-1,2029,554,0,0
812,470,0,0,0,0,0,0,0,0,0,-1,2036,554,0,0
-700,463,0,0,0,0,0,0,0,0,0,-1,524,561,0,0
-693,463,0,0,0,0,0,0,0,0,0,-1,531,561,0,0
-686,463,0,0,0,0,0,0,0,0,0,-1,538,561,0,0
-679,463,0,0,0,0,0,0,0,0,0,-1,545,561,0,0
-672,463,0,0,0,0,0,0,0,0,0,-1,552,561,0,0
-665,463,0,0,0,0,0,0,0,0,0,-1,559,561,0,0
-658,463,0,0,0,0,0,0,0,0,0,-1,566,561,0,0
-651,463,0,0,0,0,0,0,0,0,0,-1,573,561,0,0
-644,463,0,0,0,0,0,0,0,0,0,-1,580,561,0,0
-637,463,0,0,0,0,0,0,0,0,0,-1,587,561,0,0
-630,463,0,0,0,0,0,0,0,0,0,-1,594,561,0,0
-623,463,0,0,0,0,0,0,0,0,0,-1,601,561,0,0
-616,463,0,0,0,0,0,0,0,0,0,-1,608,561,0,0
-609,463,0,0,0,0,0,0,0,0,0,-1,615,561,0,0
-602,463,0,0,0,0,0,0,0,0,0,-1,622,561,0,0
-595,463,0,0,0,0,0,0,0,0,0,-1,629,561,0,0
-588,463,0,0,0,0,0,0,0,0,0,-1,636,561,0,0
-581,463,0,0,0,0,0,0,0,0,0,-1,643,561,0,0
-574,463,0,0,0,0,0,0,0,0,0,-1,650,561,0,0
-567,463,0,0,0,0,0,0,0,0,0,-1,657,561,0,0
-560,463,0,0,0,0,0,0,0,0,0,-1,664,561,0,0
-553,463,0,0,0,0,0,0,0,0,0,-1,671,561,0,0
-546,463,0,0,0,0,0,0,0,0,0,-1,678,561,0,0
-539,463,0,0,0,0,0,0,0,0,0,-1,685,561,0,0
-532,463,0,0,0,0,0,0,0,0,0,-1,692,561,0,0
-525,463,0,0,0,0,0,0,0,0,0,-1,699,561,0,0
-518,463,0,0,0,0,0,0,0,0,0,-1,706,561,0,0
-511,463,0,0,0,0,0,0,0,0,0,-1,713,561,0,0
-504,463,0,0,0,0,0,0,0,0,0,-1,720,561,0,0
-497,463,-9.81451,-1.67126,0,0,0,0,0,0,0,-1,727,561,-9.81452,1.67127
-490,463,-8.57043,-1.58942,0,0,0,0,0,0,0,-1,734,561,-8.57045,1.58944
-483,463,-7.29224,-1.7226,0,0,0,0,0,0,0,-1,741,561,-7.29226,1.72261
-476,463,-5.77704,-1.7312,0,0,0,0,0,0,0,-1,748,561,-5.77703,1.73121
-469,463,-5.14545,-2.138,0,0,0,0,0,0,0,-1,755,561,-5.14546,2.13799
-462,463,-3.13672,-3.07977,0,0,0,0,0,0,0,-1,762,561,-3.13672,3.07974
-455,463,-2.91406,-5.61798,0,0,0,0,0,0,0,-1,769,561,-2.91406,5.61801
-448,463,-4.00177,-8.54681,0,0,0,0,0,0,0,-1,776,561,-4.00175,8.54683
-441,463,-9.84393,-20.3174,0,0,0,0,0,0,0,-1,783,561,-9.84391,20.3175
-434,463,-9.72412,-21.7137,-0.000468985,0.00701428,-0.00146588,0.00729118,-0.000745885,-1.3841,0.00512753,0.0442507,790,561,-9.72414,21.7137
-427,463,-9.7901,-22.7943,-7.89351e-05,0.00616861,-0.0017394,0.00662024,-0.000530561,-1.31676,0.00460056,0.0128415,797,561,-9.7901,22.7943
-420,463,-9.84991,-23.8353,0.000213962,0.00531255,-0.00189626,0.00594047,-0.000413962,-1.25102,0.00410526,0.0104169,804,561,-9.84994,23.8353
-413,463,-9.93872,-24.8458,0.000420336,0.00437508,-0.00183698,0.00509669,-0.000301276,-1.19649,0.00350254,0.0105186,811,561,-9.93871,24.8458
-406,463,-10.0123,-25.8506,0.000504489,0.00335489,-0.00154697,0.0040331,-0.000173718,-1.15762,0.00274847,0.0111137,818,561,-10.0123,25.8506
-399,463,-10.0709,-26.858,0.000625097,0.00246255,-0.00124343,0.00308984,-2.19897e-06,-1.10357,0.00206063,0.011968,825,561,-10.0709,26.8579
-392,463,-10.1416,-27.8615,0.000865326,0.00160622,-0.000957522,0.00226246,0.000209089,-0.969971,0.00144366,0.0121704,832,561,-10.1416,27.8615
-385,463,-10.2152,-28.8765,0.00123688,0.000823937,-0.000700804,0.00176099,0.000299821,-0.642142,0.00108792,0.0131927,839,561,-10.2152,28.8765
-378,463,-10.2775,-29.8814,0.00163159,2.71349e-05,-0.000345875,0.00170297,-4.42498e-05,-0.203531,0.00115035,0.0137321,846,561,-10.2775,29.8814
-371,463,-10.3445,-30.8812,0.00207364,-0.00069438,-4.55794e-05,0.00207439,-0.00069513,-0.0164605,0.00166377,0.0132416,853,561,-10.3445,30.8812
-364,463,-10.402,-31.8073,0.00254444,-0.00129068,0.000225852,0.00255769,-0.00130393,0.0586203,0.00226834,0.0150087,860,561,-10.402,31.8072
-357,463,-10.5117,-32.7436,0.00306812,-0.00191992,0.000457081,0.00310966,-0.00196146,0.0906296,0.00295272,0.0219298,867,561,-10.5117,32.7436
-350,463,-10.4879,-33.842,0.00365067,-0.00288852,0.000712237,0.00372734,-0.0029652,0.107243,0.00387228,0.0455399,874,561,-10.4879,33.842
-343,463,-10.1763,-34.9771,0,0,0,0,0,0,0,-1,881,561,-10.1764,34.9771
-336,463,-2.94928,-12.2127,0,0,0,0,0,0,0,-1,888,561,-2.94925,12.2127
-329,463,-2.64307,-12.7037,0,0,0,0,0,0,0,-1,895,561,-2.64307,12.7038
-322,463,-1.82898,-9.11957,0,0,0,0,0,0,0,-1,902,561,-1.829,9.11957
-315,463,-0.944763,-5.96234,0,0,0,0,0,0,0,-1,909,561,-0.94479,5.96237
-308,463,-1.1535,-3.17889,0,0,0,0,0,0,0,-1,916,561,-1.15352,3.17889
-301,463,-1.50366,-3.15338,0,0,0,0,0,0,0,-1,923,561,-1.50364,3.15341
-294,463,-2.35889,-3.93463,0,0,0,0,0,0,0,-1,930,561,-2.35886,3.93465
-287,463,-2.80322,2.73999,0,0,0,0,0,0,0,-1,937,561,-2.80322,-2.74
-280,463,-12.864,5.25146,0,0,0,0,0,0,0,-1,944,561,-12.864,-5.25149
-273,463,-12.4598,3.39178,0,0,0,0,0,0,0,-1,951,561,-12.4598,-3.3918
-266,463,-8.78101,-3.7356,0,0,0,0,0,0,0,-1,958,561,-8.78098,3.73562
-259,463,-6.23285,-5.68842,0,0,0,0,0,0,0,-1,965,561,-6.23288,5.68843
-252,463,0,0,0,0,0,0,0,0,0,-1,972,561,0,0
-245,463,0,0,0,0,0,0,0,0,0,-1,979,561,0,0
-238,463,0,0,0,0,0,0,0,0,0,-1,986,561,0,0
-231,463,0,0,0,0,0,0,0,0,0,-1,993,561,0,0
-224,463,0,0,0,0,0,0,0,0,0,-1,1000,561,0,0
-217,463,0,0,0,0,0,0,0,0,0,-1,1007,561,0,0
-210,463,0,0,0,0,0,0,0,0,0,-1,1014,561,0,0
-203,463,0,0,0,0,0,0,0,0,0,-1,1021,561,0,0
-196,463,0,0,0,0,0,0,0,0,0,-1,1028,561,0,0
-189,463,0,0,0,0,0,0,0,0,0,-1,1035,561,0,0
-182,463,0,0,0,0,0,0,0,0,0,-1,1042,561,0,0
-175,463,0,0,0,0,0,0,0,0,0,-1,1049,561,0,0
-168,463,0,0,0,0,0,0,0,0,0,-1,1056,561,0,0
-161,463,0,0,0,0,0,0,0,0,0,-1,1063,561,0,0
-154,463,0,0,0,0,0,0,0,0,0,-1,1070,561,0,0
-147,463,0,0,0,0,0,0,0,0,0,-1,1077,561,0,0
-140,463,0,0,0,0,0,0,0,0,0,-1,1084,561,0,0
-133,463,0,0,0,0,0,0,0,0,0,-1,1091,561,0,0
-126,463,0,0,0,0,0,0,0,0,0,-1,1098,561,0,0
-119,463,0,0,0,0,0,0,0,0,0,-1,1105,561,0,0
-112,463,0,0,0,0,0,0,0,0,0,-1,1112,561,0,0
-105,463,0,0,0,0,0,0,0,0,0,-1,1119,561,0,0
-98,463,0,0,0,0,0,0,0,0,0,-1,1126,561,0,0
-91,463,0,0,0,0,0,0,0,0,0,-1,1133,561,0,0
-84,463,0,0,0,0,0,0,0,0,0,-1,1140,561,0,0
-77,463,0,0,0,0,0,0,0,0,0,-1,1147,561,0,0
-70,463,0,0,0,0,0,0,0,0,0,-1,1154,561,0,0
-63,463,0,0,0,0,0,0,0,0,0,-1,1161,561,0,0
-56,463,0,0,0,0,0,0,0,0,0,-1,1168,561,0,0
-49,463,0,0,0,0,0,0,0,0,0,-1,1175,561,0,0
-42,463,0,0,0,0,0,0,0,0,0,-1,1182,561,0,0
-35,463,0,0,0,0,0,0,0,0,0,-1,1189,561,0,0
-28,463,0,0,0,0,0,0,0,0,0,-1,1196,561,0,0
-21,463,0,0,0,0,0,0,0,0,0,-1,1203,561,0,0
-14,463,0,0,0,0,0,0,0,0,0,-1,1210,561,0,0
-7,463,0,0,0,0,0,0,0,0,0,-1,1217,561,0,0
0,463,0,0,0,0,0,0,0,0,0,-1,1224,561,0,0
7,463,0,0,0,0,0,0,0,0,0,-1,1231,561,0,0
14,463,0,0,0,0,0,0,0,0,0,-1,1238,561,0,0
21,463,0,0,0,0,0,0,0,0,0,-1,1245,561,0,0
28,463,0,0,0,0,0,0,0,0,0,-1,1252,561,0,0
35,463,0,0,0,0,0,0,0,0,0,-1,1259,561,0,0
42,463,0,0,0,0,0,0,0,0,0,-1,1266,561,0,0
49,463,0,0,0,0,0,0,0,0,0,-1,1273,561,0,0
56,463,0,0,0,0,0,0,0,0,0,-1,1280,561,0,0
63,463,0,0,0,0,0,0,0,0,0,-1,1287,561,0,0
70,463,0,0,0,0,0,0,0,0,0,-1,1294,561,0,0
77,463,0,0,0,0,0,0,0,0,0,-1,1301,561,0,0
84,463,0,0,0,0,0,0,0,0,0,-1,1308,561,0,0
91,463,0,0,0,0,0,0,0,0,0,-1,1315,561,0,0
98,463,0,0,0,0,0,0,0,0,0,-1,1322,561,0,0
105,463,0,0,0,0,0,0,0,0,0,-1,1329,561,0,0
112,463,0,0,0,0,0,0,0,0,0,-1,1336,561,0,0
119,463,0,0,0,0,0,0,0,0,0,-1,1343,561,0,0
126,463,0,0,0,0,0,0,0,0,0,-1,1350,561,0,0
133,463,0,0,0,0,0,0,0,0,0,-1,1357,561,0,0
140,463,0,0,0,0,0,0,0,0,0,-1,1364,561,0,0
147,463,0,0,0,0,0,0,0,0,0,-1,1371,561,0,0
154,463,0,0,0,0,0,0,0,0,0,-1,1378,561,0,0
161,463,0,0,0,0,0,0,0,0,0,-1,1385,561,0,0
168,463,0,0,0,0,0,0,0,0,0,-1,1392,561,0,0
175,463,0,0,0,0,0,0,0,0,0,-1,1399,561,0,0
182,463,0,0,0,0,0,0,0,0,0,-1,1406,561,0,0
189,463,0,0,0,0,0,0,0,0,0,-1,1413,561,0,0
196,463,0,0,0,0,0,0,0,0,0,-1,1420,561,0,0
203,463,0,0,0,0,0,0,0,0,0,-1,1427,561,0,0
210,463,0,0,0,0,0,0,0,0,0,-1,1434,561,0,0
217,463,0,0,0,0,0,0,0,0,0,-1,1441,561,0,0
224,463,0,0,0,0,0,0,0,0,0,-1,1448,561,0,0
231,463,0,0,0,0,0,0,0,0,0,-1,1455,561,0,0
238,463,0,0,0,0,0,0,0,0,0,-1,1462,561,0,0
245,463,0,0,0,0,0,0,0,0,0,-1,1469,561,0,0
252,463,0,0,0,0,0,0,0,0,0,-1,1476,561,0,0
259,463,0,0,0,0,0,0,0,0,0,-1,1483,561,0,0
266,463,0,0,0,0,0,0,0,0,0,-1,1490,561,0,0
273,463,0,0,0,0,0,0,0,0,0,-1,1497,561,0,0
280,463,0,0,0,0,0,0,0,0,0,-1,1504,561,0,0
287,463,0,0,0,0,0,0,0,0,0,-1,1511,561,0,0
294,463,0,0,0,0,0,0,0,0,0,-1,1518,561,0,0
301,463,0,0,0,0,0,0,0,0,0,-1,1525,561,0,0
308,463,0,0,0,0,0,0,0,0,0,-1,1532,561,0,0
315,463,0,0,0,0,0,0,0,0,0,-1,1539,561,0,0
322,463,0,0,0,0,0,0,0,0,0,-1,1546,561,0,0
329,463,0,0,0,0,0,0,0,0,0,-1,1553,561,0,0
336,463,0,0,0,0,0,0,0,0,0,-1,1560,561,0,0
343,463,0,0,0,0,0,0,0,0,0,-1,1567,561,0,0
350,463,0,0,0,0,0,0,0,0,0,-1,1574,561,0,0
357,463,0,0,0,0,0,0,0,0,0,-1,1581,561,0,0
364,463,0,0,0,0,0,0,0,0,0,-1,1588,561,0,0
371,463,1.75842,0.152588,0,0,0,0,0,0,0,-1,1595,561,1.75844,-0.152558
378,463,4.58813,-0.0444336,0,0,0,0,0,0,0,-1,1602,561,4.58809,0.0444505
385,463,8.88574,1.65057,0,0,0,0,0,0,0,-1,1609,561,8.88575,-1.65055
392,463,14.0912,2.50513,0,0,0,0,0,0,0,-1,1616,561,14.0912,-2.5051
399,463,21.4769,2.7002,0,0,0,0,0,0,0,-1,1623,561,21.477,-2.70017
406,463,26.2987,4.32318,0,0,0,0,0,0,0,-1,1630,561,26.2987,-4.3232
413,463,26.5011,2.65222,0,0,0,0,0,0,0,-1,1637,561,26.5011,-2.65224
420,463,8.849,2.26611,0,0,0,0,0,0,0,-1,1644,561,8.84899,-2.26613
427,463,5.12207,1.69183,0,0,0,0,0,0,0,-1,1651,561,5.12206,-1.69184
434,463,4.59814,1.81995,0,0,0,0,0,0,0,-1,1658,561,4.59812,-1.81994
441,463,1.76392,-5.99225,0,0,0,0,0,0,0,-1,1665,561,1.7639,5.99225
448,463,2.49939,-4.30536,0,0,0,0,0,0,0,-1,1672,561,2.49941,4.30536
455,463,4.40295,-3.02557,0,0,0,0,0,0,0,-1,1679,561,4.40299,3.02558
462,463,5.38293,-4.06445,0,0,0,0,0,0,0,-1,1686,561,5.38289,4.06444
469,463,5.94373,-4.50647,0,0,0,0,0,0,0,-1,1693,561,5.94368,4.50646
476,463,15.2559,-17.3189,0,0,0,0,0,0,0,-1,1700,561,15.2558,17.3189
483,463,27.5042,-32.8768,0,0,0,0,0,0,0,-1,1707,561,27.5042,32.8768
490,463,27.4642,-31.8732,0.0013451,3.27521e-05,-0.000943064,0.00183781,-0.000459958,-0.481451,0.00140387,0.0352384,1714,561,27.4643,31.8732
497,463,27.3702,-30.7859,0.001437,0.0006239,-0.000215399,0.00149054,0.000570364,-0.243609,0.000868426,0.015638,1721,561,27.3703,30.786
504,463,27.3265,-29.798,0.00132589,0.000547981,0.000158348,0.00135689,0.000516984,0.19331,0.000790761,0.0184818,1728,561,27.3265,29.7981
511,463,27.2856,-28.831,0.0012383,0.000572174,0.000476189,0.00148635,0.000324129,0.480225,0.00090247,0.0256807,1735,561,27.2857,28.831
518,463,27.229,-27.8275,0.00110575,0.000700981,0.000794141,0.00172289,8.38423e-05,0.66063,0.00112169,0.0249469,1742,561,27.229,27.8275
525,463,27.1409,-26.85,0.000952299,0.000952549,0.00105772,0.00201015,-0.0001053,0.785457,0.00137654,0.0200372,1749,561,27.1409,26.85
532,463,27.1106,-25.7789,0.000821134,0.00136098,0.00131789,0.00243631,-0.00025419,0.886409,0.00171522,0.0187573,1756,561,27.1106,25.779
539,463,26.9668,-24.6943,0.000707111,0.00191951,0.00157976,0.00300539,-0.000378767,0.968599,0.00214105,0.0220262,1763,561,26.9668,24.6943
546,463,26.8718,-23.7759,0.000658679,0.00272505,0.00185999,0.00381955,-0.000435819,1.03892,0.00270337,0.0185119,1770,561,26.8718,23.776
553,463,26.8593,-22.7499,0.00067902,0.00369161,0.00217788,0.00483336,-0.000462721,1.08794,0.00338703,0.0127591,1777,561,26.8593,22.7499
560,463,26.8422,-21.576,0.000832363,0.00490782,0.00255636,0.00613923,-0.000399054,1.12189,0.00423212,0.0245759,1784,561,26.8421,21.576
567,463,26.6285,-20.5711,0.000989943,0.00633944,0.00304202,0.00771539,-0.000386008,1.14602,0.00527697,0.0414753,1791,561,26.6286,20.5711
574,463,26.7545,-19.5265,0,0,0,0,0,0,0,-1,1798,561,26.7545,19.5265
581,463,9.4939,-3.88245,0,0,0,0,0,0,0,-1,1805,561,9.49392,3.88245
588,463,1.97424,2.16016,0,0,0,0,0,0,0,-1,1812,561,1.97422,-2.16013
595,463,9.98657,2.99854,0,0,0,0,0,0,0,-1,1819,561,9.98662,-2.99856
602,463,17.2202,4.91302,0,0,0,0,0,0,0,-1,1826,561,17.2202,-4.91305
609,463,17.96,4.03131,0,0,0,0,0,0,0,-1,1833,561,17.96,-4.03132
616,463,20.8352,3.15131,0,0,0,0,0,0,0,-1,1840,561,20.8352,-3.1513
623,463,0,0,0,0,0,0,0,0,0,-1,1847,561,0,0
630,463,0,0,0,0,0,0,0,0,0,-1,1854,561,0,0
637,463,0,0,0,0,0,0,0,0,0,-1,1861,561,0,0
644,463,0,0,0,0,0,0,0,0,0,-1,1868,561,0,0
651,463,0,0,0,0,0,0,0,0,0,-1,1875,561,0,0
658,463,0,0,0,0,0,0,0,0,0,-1,1882,561,0,0
665,463,0,0,0,0,0,0,0,0,0,-1,1889,561,0,0
672,463,0,0,0,0,0,0,0,0,0,-1,1896,561,0,0
679,463,0,0,0,0,0,0,0,0,0,-1,1903,561,0,0
686,463,0,0,0,0,0,0,0,0,0,-1,1910,561,0,0
693,463,0,0,0,0,0,0,0,0,0,-1,1917,561,0,0
700,463,0,0,0,0,0,0,0,0,0,-1,1924,561,0,0
707,463,0,0,0,0,0,0,0,0,0,-1,1931,561,0,0
714,463,0,0,0,0,0,0,0,0,0,-1,1938,561,0,0
721,463,0,0,0,0,0,0,0,0,0,-1,1945,561,0,0
728,463,0,0,0,0,0,0,0,0,0,-1,1952,561,0,0
735,463,0,0,0,0,0,0,0,0,0,-1,1959,561,0,0
742,463,0,0,0,0,0,0,0,0,0,-1,1966,561,0,0
749,463,0,0,0,0,0,0,0,0,0,-1,1973,561,0,0
756,463,0,0,0,0,0,0,0,0,0,-1,1980,561,0,0
763,463,0,0,0,0,0,0,0,0,0,-1,1987,561,0,0
770,463,0,0,0,0,0,0,0,0,0,-1,1994,561,0,0
777,463,0,0,0,0,0,0,0,0,0,-1,2001,561,0,0
784,463,0,0,0,0,0,0,0,0,0,-1,2008,561,0,0
791,463,0,0,0,0,0,0,0,0,0,-1,2015,561,0,0
798,463,0,0,0,0,0,0,0,0,0,-1,2022,561,0,0
805,463,0,0,0,0,0,0,0,0,0,-1,2029,561,0,0
812,463,0,0,0,0,0,0,0,0,0,-1,2036,561,0,0
-700,456,0,0,0,0,0,0,0,0,0,-1,524,568,0,0
-693,456,0,0,0,0,0,0,0,0,0,-1,531,568,0,0
-686,456,0,0,0,0,0,0,0,0,0,-1,538,568,0,0
-679,456,0,0,0,0,0,0,0,0,0,-1,545,568,0,0
-672,456,0,0,0,0,0,0,0,0,0,-1,552,568,0,0
-665,456,0,0,0,0,0,0,0,0,0,-1,559,568,0,0
-658,456,0,0,0,0,0,0,0,0,0,-1,566,568,0,0
-651,456,0,0,0,0,0,0,0,0,0,-1,573,568,0,0
-644,456,0,0,0,0,0,0,0,0,0,-1,580,568,0,0
-637,456,0,0,0,0,0,0,0,0,0,-1,587,568,0,0
-630,456,0,0,0,0,0,0,0,0,0,-1,594,568,0,0
-623,456,0,0,0,0,0,0,0,0,0,-1,601,568,0,0
-616,456,0,0,0,0,0,0,0,0,0,-1,608,568,0,0
-609,456,0,0,0,0,0,0,0,0,0,-1,615,568,0,0
-602,456,0,0,0,0,0,0,0,0,0,-1,622,568,0,0
-595,456,0,0,0,0,0,0,0,0,0,-1,629,568,0,0
-588,456,0,0,0,0,0,0,0,0,0,-1,636,568,0,0
-581,456,0,0,0,0,0,0,0,0,0,-1,643,568,0,0
-574,456,0,0,0,0,0,0,0,0,0,-1,650,568,0,0
-567,456,0,0,0,0,0,0,0,0,0,-1,657,568,0,0
-560,456,0,0,0,0,0,0,0,0,0,-1,664,568,0,0
-553,456,0,0,0,0,0,0,0,0,0,-1,671,568,0,0
-546,456,0,0,0,0,0,0,0,0,0,-1,678,568,0,0
-539,456,0,0,0,0,0,0,0,0,0,-1,685,568,0,0
-532,456,0,0,0,0,0,0,0,0,0,-1,692,568,0,0
-525,456,0,0,0,0,0,0,0,0,0,-1,699,568,0,0
-518,456,0,0,0,0,0,0,0,0,0,-1,706,568,0,0
-511,456,0,0,0,0,0,0,0,0,0,-1,713,568,0,0
-504,456,-10.3994,-2.34839,0,0,0,0,0,0,0,-1,720,568,-10.3994,2.3484
-497,456,-9.21375,-2.38068,0,0,0,0,0,0,0,-1,727,568,-9.21372,2.38069
-490,456,-8.09058,-2.31824,0,0,0,0,0,0,0,-1,734,568,-8.09057,2.31821
-483,456,-6.66119,-2.24329,0,0,0,0,0,0,0,-1,741,568,-6.66121,2.24331
-476,456,-5.1499,-2.21185,0,0,0,0,0,0,0,-1,748,568,-5.14992,2.21184
-469,456,-2.81238,-3.51501,0,0,0,0,0,0,0,-1,755,568,-2.81237,3.51501
-462,456,-4.2431,-5.27478,0,0,0,0,0,0,0,-1,762,568,-4.24312,5.27476
-455,456,-5.98364,-8.72119,0,0,0,0,0,0,0,-1,769,568,-5.98364,8.72122
-448,456,-10.723,-19.1761,0,0,0,0,0,0,0,-1,776,568,-10.723,19.1761
-441,456,-10.8709,-20.404,0,0,0,0,0,0,0,-1,783,568,-10.8709,20.404
-434,456,-10.7581,-21.6708,-0.000523711,0.00509616,-0.00096024,0.0052557,-0.000683253,-1.40615,0.00375235,0.0267586,790,568,-10.7581,21.6708
-427,456,-10.7966,-22.7236,-2.80457e-05,0.00445113,-0.00123862,0.00477082,-0.000347741,-1.3182,0.00330257,0.0104398,797,568,-10.7966,22.7236
-420,456,-10.8749,-23.7525,0.000362444,0.0038267,-0.00142294,0.00433623,-0.000147083,-1.22694,0.00294107,0.00997044,804,568,-10.875,23.7525
-413,456,-10.9595,-24.7651,0.000631426,0.00310446,-0.00139285,0.00373047,5.41529e-06,-1.1484,0.00248518,0.00937802,811,568,-10.9595,24.7651
-406,456,-11.0516,-25.7614,0.000764019,0.00228332,-0.001147,0.00289942,0.000147921,-1.07788,0.00188558,0.00990551,818,568,-11.0516,25.7614
-399,456,-11.1074,-26.7568,0.000941434,0.00160243,-0.000914118,0.00224396,0.000299902,-0.958861,0.0014067,0.0117152,825,568,-11.1074,26.7569
-392,456,-11.1487,-27.7581,0.00122124,0.000931926,-0.000686825,0.00177847,0.000374688,-0.681608,0.00108259,0.0116973,832,568,-11.1487,27.7581
-385,456,-11.2043,-28.7632,0.00162576,0.000313257,-0.000484128,0.00178501,0.000154005,-0.317797,0.00114214,0.0115293,839,568,-11.2043,28.7632
-378,456,-11.2928,-29.7894,0.00207326,-0.000299672,-0.000192112,0.00208872,-0.000315125,-0.0802632,0.00150853,0.0120613,846,568,-11.2928,29.7894
-371,456,-11.3591,-30.7902,0.00260952,-0.000778027,4.00462e-05,0.00260999,-0.000778501,0.0118194,0.00204939,0.0124763,853,568,-11.3591,30.7902
-364,456,-11.4014,-31.7256,0.00318976,-0.00100286,0.000199831,0.00319926,-0.00101236,0.0475189,0.0025385,0.0224041,860,568,-11.4014,31.7256
-357,456,-11.4517,-32.7462,0,0,0,0,0,0,0,-1,867,568,-11.4517,32.7461
-350,456,-11.3602,-34.043,0,0,0,0,0,0,0,-1,874,568,-11.3602,34.0431
-343,456,-3.39081,-12.0217,0,0,0,0,0,0,0,-1,881,568,-3.39078,12.0217
-336,456,-3.04517,-12.4623,0,0,0,0,0,0,0,-1,888,568,-3.04519,12.4624
-329,456,-1.06183,-10.7184,0,0,0,0,0,0,0,-1,895,568,-1.06184,10.7184
-322,456,-0.662537,-7.66632,0,0,0,0,0,0,0,-1,902,568,-0.662564,7.66633
-315,456,-0.675476,-3.38397,0,0,0,0,0,0,0,-1,909,568,-0.675473,3.38399
-308,456,-1.1618,-3.15314,0,0,0,0,0,0,0,-1,916,568,-1.16178,3.15314
-301,456,-1.83551,-3.26447,0,0,0,0,0,0,0,-1,923,568,-1.8355,3.26449
-294,456,-2.93414,-3.35449,0,0,0,0,0,0,0,-1,930,568,-2.93413,3.35451
-287,456,-3.7569,-3.53101,0,0,0,0,0,0,0,-1,937,568,-3.75692,3.53101
-280,456,-13.072,4.52856,0,0,0,0,0,0,0,-1,944,568,-13.072,-4.52855
-273,456,-8.26538,-6.66748,0,0,0,0,0,0,0,-1,951,568,-8.26536,6.66745
-266,456,-5.71527,-9.36884,0,0,0,0,0,0,0,-1,958,568,-5.71529,9.36885
-259,456,0,0,0,0,0,0,0,0,0,-1,965,568,0,0
-252,456,0,0,0,0,0,0,0,0,0,-1,972,568,0,0
-245,456,0,0,0,0,0,0,0,0,0,-1,979,568,0,0
-238,456,0,0,0,0,0,0,0,0,0,-1,986,568,0,0
-231,456,0,0,0,0,0,0,0,0,0,-1,993,568,0,0
-224,456,0,0,0,0,0,0,0,0,0,-1,1000,568,0,0
-217,456,0,0,0,0,0,0,0,0,0,-1,1007,568,0,0
-210,456,0,0,0,0,0,0,0,0,0,-1,1014,568,0,0
-203,456,0,0,0,0,0,0,0,0,0,-1,1021,568,0,0
-196,456,0,0,0,0,0,0,0,0,0,-1,1028,568,0,0
-189,456,0,0,0,0,0,0,0,0,0,-1,1035,568,0,0
-182,456,0,0,0,0,0,0,0,0,0,-1,1042,568,0,0
-175,456,0,0,0,0,0,0,0,0,0,-1,1049,568,0,0
-168,456,0,0,0,0,0,0,0,0,0,-1,1056,568,0,0
-161,456,0,0,0,0,0,0,0,0,0,-1,1063,568,0,0
-154,456,0,0,0,0,0,0,0,0,0,-1,1070,568,0,0
-147,456,0,0,0,0,0,0,0,0,0,-1,1077,568,0,0
-140,456,0,0,0,0,0,0,0,0,0,-1,1084,568,0,0
-133,456,0,0,0,0,0,0,0,0,0,-1,1091,568,0,0
-126,456,0,0,0,0,0,0,0,0,0,-1,1098,568,0,0
-119,456,0,0,0,0,0,0,0,0,0,-1,1105,568,0,0
-112,456,0,0,0,0,0,0,0,0,0,-1,1112,568,0,0
-105,456,0,0,0,0,0,0,0,0,0,-1,1119,568,0,0
-98,456,0,0,0,0,0,0,0,0,0,-1,1126,568,0,0
-91,456,0,0,0,0,0,0,0,0,0,-1,1133,568,0,0
-84,456,0,0,0,0,0,0,0,0,0,-1,1140,568,0,0
-77,456,0,0,0,0,0,0,0,0,0,-1,1147,568,0,0
-70,456,0,0,0,0,0,0,0,0,0,-1,1154,568,0,0
-63,456,0,0,0,0,0,0,0,0,0,-1,1161,568,0,0
-56,456,0,0,0,0,0,0,0,0,0,-1,1168,568,0,0
-49,456,0,0,0,0,0,0,0,0,0,-1,1175,568,0,0
-42,456,0,0,0,0,0,0,0,0,0,-1,1182,568,0,0
-35,456,0,0,0,0,0,0,0,0,0,-1,1189,568,0,0
-28,456,0,0,0,0,0,0,0,0,0,-1,1196,568,0,0
-21,456,0,0,0,0,0,0,0,0,0,-1,1203,568,0,0
-14,456,0,0,0,0,0,0,0,0,0,-1,1210,568,0,0
-7,456,0,0,0,0,0,0,0,0,0,-1,1217,568,0,0
0,456,0,0,0,0,0,0,0,0,0,-1,1224,568,0,0
7,456,0,0,0,0,0,0,0,0,0,-1,1231,568,0,0
14,456,0,0,0,0,0,0,0,0,0,-1,1238,568,0,0
21,456,0,0,0,0,0,0,0,0,0,-1,1245,568,0,0
28,456,0,0,0,0,0,0,0,0,0,-1,1252,568,0,0
35,456,0,0,0,0,0,0,0,0,0,-1,1259,568,0,0
42,456,0,0,0,0,0,0,0,0,0,-1,1266,568,0,0
49,456,0,0,0,0,0,0,0,0,0,-1,1273,568,0,0
56,456,0,0,0,0,0,0,0,0,0,-1,1280,568,0,0
63,456,0,0,0,0,0,0,0,0,0,-1,1287,568,0,0
70,456,0,0,0,0,0,0,0,0,0,-1,1294,568,0,0
77,456,0,0,0,0,0,0,0,0,0,-1,1301,568,0,0
84,456,0,0,0,0,0,0,0,0,0,-1,1308,568,0,0
91,456,0,0,0,0,0,0,0,0,0,-1,1315,568,0,0
98,456,0,0,0,0,0,0,0,0,0,-1,1322,568,0,0
105,456,0,0,0,0,0,0,0,0,0,-1,1329,568,0,0
112,456,0,0,0,0,0,0,0,0,0,-1,1336,568,0,0
119,456,0,0,0,0,0,0,0,0,0,-1,1343,568,0,0
126,456,0,0,0,0,0,0,0,0,0,-1,1350,568,0,0
133,456,0,0,0,0,0,0,0,0,0,-1,1357,568,0,0
140,456,0,0,0,0,0,0,0,0,0,-1,1364,568,0,0
147,456,0,0,0,0,0,0,0,0,0,-1,1371,568,0,0
154,456,0,0,0,0,0,0,0,0,0,-1,1378,568,0,0
161,456,0,0,0,0,0,0,0,0,0,-1,1385,568,0,0
168,456,0,0,0,0,0,0,0,0,0,-1,1392,568,0,0
175,456,0,0,0,0,0,0,0,0,0,-1,1399,568,0,0
182,456,0,0,0,0,0,0,0,0,0,-1,1406,568,0,0
189,456,0,0,0,0,0,0,0,0,0,-1,1413,568,0,0
196,456,0,0,0,0,0,0,0,0,0,-1,1420,568,0,0
203,456,0,0,0,0,0,0,0,0,0,-1,1427,568,0,0
210,456,0,0,0,0,0,0,0,0,0,-1,1434,568,0,0
217,456,0,0,0,0,0,0,0,0,0,-1,1441,568,0,0
224,456,0,0,0,0,0,0,0,0,0,-1,1448,568,0,0
231,456,0,0,0,0,0,0,0,0,0,-1,1455,568,0,0
238,456,0,0,0,0,0,0,0,0,0,-1,1462,568,0,0
245,456,0,0,0,0,0,0,0,0,0,-1,1469,568,0,0
252,456,0,0,0,0,0,0,0,0,0,-1,1476,568,0,0
259,456,0,0,0,0,0,0,0,0,0,-1,1483,568,0,0
266,456,0,0,0,0,0,0,0,0,0,-1,1490,568,0,0
273,456,0,0,0,0,0,0,0,0,0,-1,1497,568,0,0
280,456,0,0,0,0,0,0,0,0,0,-1,1504,568,0,0
287,456,0,0,0,0,0,0,0,0,0,-1,1511,568,0,0
294,456,0,0,0,0,0,0,0,0,0,-1,1518,568,0,0
301,456,0,0,0,0,0,0,0,0,0,-1,1525,568,0,0
308,456,0,0,0,0,0,0,0,0,0,-1,1532,568,0,0
315,456,0,0,0,0,0,0,0,0,0,-1,1539,568,0,0
322,456,0,0,0,0,0,0,0,0,0,-1,1546,568,0,0
329,456,0,0,0,0,0,0,0,0,0,-1,1553,568,0,0
336,456,0,0,0,0,0,0,0,0,0,-1,1560,568,0,0
343,456,0,0,0,0,0,0,0,0,0,-1,1567,568,0,0
350,456,0,0,0,0,0,0,0,0,0,-1,1574,568,0,0
357,456,0,0,0,0,0,0,0,0,0,-1,1581,568,0,0
364,456,0,0,0,0,0,0,0,0,0,-1,1588,568,0,0
371,456,0,0,0,0,0,0,0,0,0,-1,1595,568,0,0
378,456,0,0,0,0,0,0,0,0,0,-1,1602,568,0,0
385,456,5.66284,0.660645,0,0,0,0,0,0,0,-1,1609,568,5.66285,-0.660615
392,456,17.5027,4.32971,0,0,0,0,0,0,0,-1,1616,568,17.5026,-4.32971
399,456,24.1917,5.99652,0,0,0,0,0,0,0,-1,1623,568,24.1916,-5.99651
406,456,24.446,4.53003,0,0,0,0,0,0,0,-1,1630,568,24.446,-4.53005
413,456,24.9418,2.90521,0,0,0,0,0,0,0,-1,1637,568,24.9418,-2.90524
420,456,25.3048,1.04712,0,0,0,0,0,0,0,-1,1644,568,25.3048,-1.04713
427,456,6.21375,2.02905,0,0,0,0,0,0,0,-1,1651,568,6.21372,-2.02904
434,456,3.0719,-4.86285,0,0,0,0,0,0,0,-1,1658,568,3.07184,4.86287
441,456,2.90344,-4.70459,0,0,0,0,0,0,0,-1,1665,568,2.90346,4.7046
448,456,3.06995,-4.93689,0,0,0,0,0,0,0,-1,1672,568,3.06991,4.93687
455,456,3.46582,-3.43701,0,0,0,0,0,0,0,-1,1679,568,3.46585,3.43698
462,456,4.68445,-4.45831,0,0,0,0,0,0,0,-1,1686,568,4.68439,4.45833
469,456,4.93201,-2.289,0,0,0,0,0,0,0,-1,1693,568,4.93197,2.28903
476,456,4.8363,-2.79364,0,0,0,0,0,0,0,-1,1700,568,4.83636,2.79363
483,456,12.8522,-13.692,0,0,0,0,0,0,0,-1,1707,568,12.8522,13.6919
490,456,28.3317,-32.1389,0,0,0,0,0,0,0,-1,1714,568,28.3317,32.1389
497,456,28.3501,-30.7235,0,0,0,0,0,0,0,-1,1721,568,28.3501,30.7235
504,456,28.292,-29.7227,0.00174632,0.000430165,-3.0287e-05,0.00174702,0.000429469,-0.0229954,0.00105119,0.0183078,1728,568,28.292,29.7226
511,456,28.277,-28.7578,0.00157798,0.00033125,0.000223313,0.00161677,0.000292458,0.171997,0.000994798,0.015564,1735,568,28.277,28.7578
518,456,28.2418,-27.7673,0.00140889,0.000371453,0.000528263,0.00163053,0.000149812,0.397258,0.00104068,0.0176553,1742,568,28.2418,27.7673
525,456,28.1429,-26.7693,0.00119123,0.000588778,0.000760978,0.00170843,7.15766e-05,0.59694,0.00111586,0.0172227,1749,568,28.1429,26.7693
532,456,28.1237,-25.6872,0.00100629,0.000953553,0.000986819,0.00196709,-7.24907e-06,0.77204,0.00131382,0.0174836,1756,568,28.1237,25.6872
539,456,28.0116,-24.6031,0.000865806,0.00146775,0.00123538,0.00243829,-0.000104731,0.904885,0.00166154,0.0282013,1763,568,28.0116,24.6031
546,456,27.859,-23.6254,0.000804016,0.00218674,0.00149123,0.00313908,-0.000148317,1.00246,0.00214387,0.0324733,1770,568,27.859,23.6254
553,456,27.786,-22.6214,0.000789747,0.00306101,0.00178265,0.00403902,-0.000188264,1.06901,0.00275758,0.0164016,1777,568,27.786,22.6214
560,456,27.7776,-21.6407,0.000894138,0.0041183,0.00215877,0.00520049,-0.000188048,1.10611,0.00353135,0.011544,1784,568,27.7776,21.6407
567,456,27.7435,-20.5805,0.00113803,0.00540131,0.00269145,0.00670301,-0.000163662,1.12032,0.00452421,0.0240838,1791,568,27.7436,20.5805
574,456,27.7041,-19.5492,0,0,0,0,0,0,0,-1,1798,568,27.7041,19.5492
581,456,16.2228,-9.08563,0,0,0,0,0,0,0,-1,1805,568,16.2228,9.08562
588,456,5.23901,-0.0901489,0,0,0,0,0,0,0,-1,1812,568,5.23906,0.0901656
595,456,6.90063,3.14886,0,0,0,0,0,0,0,-1,1819,568,6.90066,-3.14887
602,456,16.894,4.10938,0,0,0,0,0,0,0,-1,1826,568,16.8941,-4.1094
609,456,14.9966,3.5708,0,0,0,0,0,0,0,-1,1833,568,14.9966,-3.57083
616,456,17.7407,2.6579,0,0,0,0,0,0,0,-1,1840,568,17.7408,-2.6579
623,456,20.6838,1.7121,0,0,0,0,0,0,0,-1,1847,568,20.6838,-1.71208
630,456,0,0,0,0,0,0,0,0,0,-1,1854,568,0,0
637,456,0,0,0,0,0,0,0,0,0,-1,1861,568,0,0
644,456,0,0,0,0,0,0,0,0,0,-1,1868,568,0,0
651,456,0,0,0,0,0,0,0,0,0,-1,1875,568,0,0
658,456,0,0,0,0,0,0,0,0,0,-1,1882,568,0,0
665,456,0,0,0,0,0,0,0,0,0,-1,1889,568,0,0
672,456,0,0,0,0,0,0,0,0,0,-1,1896,568,0,0
679,456,0,0,0,0,0,0,0,0,0,-1,1903,568,0,0
686,456,0,0,0,0,0,0,0,0,0,-1,1910,568,0,0
693,456,0,0,0,0,0,0,0,0,0,-1,1917,568,0,0
700,456,0,0,0,0,0,0,0,0,0,-1,1924,568,0,0
707,456,0,0,0,0,0,0,0,0,0,-1,1931,568,0,0
714,456,0,0,0,0,0,0,0,0,0,-1,1938,568,0,0
721,456,0,0,0,0,0,0,0,0,0,-1,1945,568,0,0
728,456,0,0,0,0,0,0,0,0,0,-1,1952,568,0,0
735,456,0,0,0,0,0,0,0,0,0,-1,1959,568,0,0
742,456,0,0,0,0,0,0,0,0,0,-1,1966,568,0,0
749,456,0,0,0,0,0,0,0,0,0,-1,1973,568,0,0
756,456,0,0,0,0,0,0,0,0,0,-1,1980,568,0,0
763,456,0,0,0,0,0,0,0,0,0,-1,1987,568,0,0
770,456,0,0,0,0,0,0,0,0,0,-1,1994,568,0,0
777,456,0,0,0,0,0,0,0,0,0,-1,2001,568,0,0
784,456,0,0,0,0,0,0,0,0,0,-1,2008,568,0,0
791,456,0,0,0,0,0,0,0,0,0,-1,2015,568,0,0
798,456,0,0,0,0,0,0,0,0,0,-1,2022,568,0,0
805,456,0,0,0,0,0,0,0,0,0,-1,2029,568,0,0
812,456,0,0,0,0,0,0,0,0,0,-1,2036,568,0,0
-700,449,0,0,0,0,0,0,0,0,0,-1,524,575,0,0
-693,449,0,0,0,0,0,0,0,0,0,-1,531,575,0,0
-686,449,0,0,0,0,0,0,0,0,0,-1,538,575,0,0
-679,449,0,0,0,0,0,0,0,0,0,-1,545,575,0,0
-672,449,0,0,0,0,0,0,0,0,0,-1,552,575,0,0
-665,449,0,0,0,0,0,0,0,0,0,-1,559,575,0,0
-658,449,0,0,0,0,0,0,0,0,0,-1,566,575,0,0
-651,449,0,0,0,0,0,0,0,0,0,-1,573,575,0,0
-644,449,0,0,0,0,0,0,0,0,0,-1,580,575,0,0
-637,449,0,0,0,0,0,0,0,0,0,-1,587,575,0,0
-630,449,0,0,0,0,0,0,0,0,0,-1,594,575,0,0
-623,449,0,0,0,0,0,0,0,0,0,-1,601,575,0,0
-616,449,0,0,0,0,0,0,0,0,0,-1,608,575,0,0
-609,449,0,0,0,0,0,0,0,0,0,-1,615,575,0,0
-602,449,0,0,0,0,0,0,0,0,0,-1,622,575,0,0
-595,449,0,0,0,0,0,0,0,0,0,-1,629,575,0,0
-588,449,0,0,0,0,0,0,0,0,0,-1,636,575,0,0
-581,449,0,0,0,0,0,0,0,0,0,-1,643,575,0,0
-574,449,0,0,0,0,0,0,0,0,0,-1,650,575,0,0
-567,449,0,0,0,0,0,0,0,0,0,-1,657,575,0,0
-560,449,0,0,0,0,0,0,0,0,0,-1,664,575,0,0
-553,449,0,0,0,0,0,0,0,0,0,-1,671,575,0,0
-546,449,0,0,0,0,0,0,0,0,0,-1,678,575,0,0
-539,449,0,0,0,0,0,0,0,0,0,-1,685,575,0,0
-532,449,0,0,0,0,0,0,0,0,0,-1,692,575,0,0
-525,449,0,0,0,0,0,0,0,0,0,-1,699,575,0,0
-518,449,0,0,0,0,0,0,0,0,0,-1,706,575,0,0
-511,449,-0.941345,-4.4519,0,0,0,0,0,0,0,-1,713,575,-0.941356,4.45191
-504,449,-14.1078,0.318237,0,0,0,0,0,0,0,-1,720,575,-14.1078,-0.318231
-497,449,-8.61292,-3.09009,0,0,0,0,0,0,0,-1,727,575,-8.61291,3.09011
-490,449,-7.50995,-2.96252,0,0,0,0,0,0,0,-1,734,575,-7.50995,2.96251
-483,449,-5.77789,-2.50061,0,0,0,0,0,0,0,-1,741,575,-5.77792,2.50059
-476,449,-4.1723,-2.07739,0,0,0,0,0,0,0,-1,748,575,-4.17228,2.0774
-469,449,-5.0976,-5.78448,0,0,0,0,0,0,0,-1,755,575,-5.09758,5.78451
-462,449,-6.54181,-9.54535,0,0,0,0,0,0,0,-1,762,575,-6.54178,9.54536
-455,449,-10.5233,-17.2827,0,0,0,0,0,0,0,-1,769,575,-10.5232,17.2827
-448,449,-11.5496,-19.4222,0,0,0,0,0,0,0,-1,776,575,-11.5496,19.4222
-441,449,-11.6241,-20.6796,-0.00130275,0.00409615,-9.48688e-05,0.00409782,-0.00130442,-1.55323,0.00325501,0.0291714,783,575,-11.6242,20.6795
-434,449,-11.7676,-21.628,-0.000484997,0.0036203,-0.000590128,0.00370345,-0.000568142,-1.43082,0.00267851,0.0156231,790,575,-11.7676,21.628
-427,449,-11.8126,-22.6293,9.24026e-05,0.00318037,-0.000883845,0.00341545,-0.000142677,-1.31084,0.00232599,0.0142022,797,575,-11.8126,22.6294
-420,449,-11.8864,-23.6586,0.000574412,0.0027606,-0.00110939,0.00322495,0.000110069,-1.1744,0.00211423,0.0133707,804,575,-11.8864,23.6586
-413,449,-11.957,-24.6751,0.000906968,0.00224049,-0.00112113,0.00287815,0.000269309,-1.05366,0.00183559,0.0111963,811,575,-11.957,24.6751
-406,449,-12.0602,-25.6924,0.0010924,0.00161879,-0.000937226,0.00232907,0.000382115,-0.922283,0.00144232,0.0113679,818,575,-12.0602,25.6924
-399,449,-12.1402,-26.6958,0.0013278,0.00113229,-0.000785939,0.00202204,0.000438052,-0.723526,0.00122833,0.0103318,825,575,-12.1402,26.6958
-392,449,-12.1661,-27.6924,0.00164392,0.000631193,-0.00062924,0.00194523,0.000329876,-0.446592,0.00120205,0.0107356,832,575,-12.1661,27.6924
-385,449,-12.2198,-28.6904,0.00207155,0.00013724,-0.00048391,0.00218586,2.29345e-05,-0.231961,0.00144965,0.0112745,839,575,-12.2198,28.6904
-378,449,-12.3109,-29.6776,0.00257518,-0.000324879,-0.000266046,0.00259939,-0.000349084,-0.090729,0.00186024,0.0104834,846,575,-12.3109,29.6776
-371,449,-12.3516,-30.6985,0.00320876,-0.00059632,-0.000110322,0.00321195,-0.000599516,-0.0289608,0.00236659,0.0177934,853,575,-12.3516,30.6985
-364,449,-12.3801,-31.7498,0,0,0,0,0,0,0,-1,860,575,-12.3801,31.7498
-357,449,-5.88049,-15.8704,0,0,0,0,0,0,0,-1,867,575,-5.88051,15.8704
-350,449,-2.8764,-9.90204,0,0,0,0,0,0,0,-1,874,575,-2.87638,9.90203
-343,449,-2.98492,-9.2254,0,0,0,0,0,0,0,-1,881,575,-2.98491,9.22541
-336,449,-1.29523,-9.54626,0,0,0,0,0,0,0,-1,888,575,-1.29525,9.54626
-329,449,-0.733398,-7.78937,0,0,0,0,0,0,0,-1,895,575,-0.733398,7.78937
-322,449,-0.628845,-3.16669,0,0,0,0,0,0,0,-1,902,575,-0.628861,3.16667
-315,449,-0.540344,-3.21918,0,0,0,0,0,0,0,-1,909,575,-0.540336,3.21917
-308,449,-1.04413,-2.99341,0,0,0,0,0,0,0,-1,916,575,-1.04415,2.99338
-301,449,-1.58691,-2.80725,0,0,0,0,0,0,0,-1,923,575,-1.58692,2.80728
-294,449,-3.71118,-2.76086,0,0,0,0,0,0,0,-1,930,575,-3.71119,2.76087
-287,449,-4.4082,-2.69525,0,0,0,0,0,0,0,-1,937,575,-4.40822,2.69526
-280,449,0.723999,-14.2697,0,0,0,0,0,0,0,-1,944,575,0.723977,14.2696
-273,449,0,0,0,0,0,0,0,0,0,-1,951,575,0,0
-266,449,0,0,0,0,0,0,0,0,0,-1,958,575,0,0
-259,449,0,0,0,0,0,0,0,0,0,-1,965,575,0,0
-252,449,0,0,0,0,0,0,0,0,0,-1,972,575,0,0
-245,449,0,0,0,0,0,0,0,0,0,-1,979,575,0,0
-238,449,0,0,0,0,0,0,0,0,0,-1,986,575,0,0
-231,449,0,0,0,0,0,0,0,0,0,-1,993,575,0,0
-224,449,0,0,0,0,0,0,0,0,0,-1,1000,575,0,0
-217,449,0,0,0,0,0,0,0,0,0,-1,1007,575,0,0
-210,449,0,0,0,0,0,0,0,0,0,-1,1014,575,0,0
-203,449,0,0,0,0,0,0,0,0,0,-1,1021,575,0,0
-196,449,0,0,0,0,0,0,0,0,0,-1,1028,575,0,0
-189,449,0,0,0,0,0,0,0,0,0,-1,1035,575,0,0
-182,449,0,0,0,0,0,0,0,0,0,-1,1042,575,0,0
-175,449,0,0,0,0,0,0,0,0,0,-1,1049,575,0,0
-168,449,0,0,0,0,0,0,0,0,0,-1,1056,575,0,0
-161,449,0,0,0,0,0,0,0,0,0,-1,1063,575,0,0
-154,449,0,0,0,0,0,0,0,0,0,-1,1070,575,0,0
-147,449,0,0,0,0,0,0,0,0,0,-1,1077,575,0,0
-140,449,0,0,0,0,0,0,0,0,0,-1,1084,575,0,0
-133,449,0,0,0,0,0,0,0,0,0,-1,1091,575,0,0
-126,449,0,0,0,0,0,0,0,0,0,-1,1098,575,0,0
-119,449,0,0,0,0,0,0,0,0,0,-1,1105,575,0,0
-112,449,0,0,0,0,0,0,0,0,0,-1,1112,575,0,0
-105,449,0,0,0,0,0,0,0,0,0,-1,1119,575,0,0
-98,449,0,0,0,0,0,0,0,0,0,-1,1126,575,0,0
-91,449,0,0,0,0,0,0,0,0,0,-1,1133,575,0,0
-84,449,0,0,0,0,0,0,0,0,0,-1,1140,575,0,0
-77,449,0,0,0,0,0,0,0,0,0,-1,1147,575,0,0
-70,449,0,0,0,0,0,0,0,0,0,-1,1154,575,0,0
-63,449,0,0,0,0,0,0,0,0,0,-1,1161,575,0,0
-56,449,0,0,0,0,0,0,0,0,0,-1,1168,575,0,0
-49,449,0,0,0,0,0,0,0,0,0,-1,1175,575,0,0
-42,449,0,0,0,0,0,0,0,0,0,-1,1182,575,0,0
-35,449,0,0,0,0,0,0,0,0,0,-1,1189,575,0,0
-28,449,0,0,0,0,0,0,0,0,0,-1,1196,575,0,0
-21,449,0,0,0,0,0,0,0,0,0,-1,1203,575,0,0
-14,449,0,0,0,0,0,0,0,0,0,-1,1210,575,0,0
-7,449,0,0,0,0,0,0,0,0,0,-1,1217,575,0,0
0,449,0,0,0,0,0,0,0,0,0,-1,1224,575,0,0
7,449,0,0,0,0,0,0,0,0,0,-1,1231,575,0,0
14,449,0,0,0,0,0,0,0,0,0,-1,1238,575,0,0
21,449,0,0,0,0,0,0,0,0,0,-1,1245,575,0,0
28,449,0,0,0,0,0,0,0,0,0,-1,1252,575,0,0
35,449,0,0,0,0,0,0,0,0,0,-1,1259,575,0,0
42,449,0,0,0,0,0,0,0,0,0,-1,1266,575,0,0
49,449,0,0,0,0,0,0,0,0,0,-1,1273,575,0,0
56,449,0,0,0,0,0,0,0,0,0,-1,1280,575,0,0
63,449,0,0,0,0,0,0,0,0,0,-1,1287,575,0,0
70,449,0,0,0,0,0,0,0,0,0,-1,1294,575,0,0
77,449,0,0,0,0,0,0,0,0,0,-1,1301,575,0,0
84,449,0,0,0,0,0,0,0,0,0,-1,1308,575,0,0
91,449,0,0,0,0,0,0,0,0,0,-1,1315,575,0,0
98,449,0,0,0,0,0,0,0,0,0,-1,1322,575,0,0
105,449,0,0,0,0,0,0,0,0,0,-1,1329,575,0,0
112,449,0,0,0,0,0,0,0,0,0,-1,1336,575,0,0
119,449,0,0,0,0,0,0,0,0,0,-1,1343,575,0,0
126,449,0,0,0,0,0,0,0,0,0,-1,1350,575,0,0
133,449,0,0,0,0,0,0,0,0,0,-1,1357,575,0,0
140,449,0,0,0,0,0,0,0,0,0,-1,1364,575,0,0
147,449,0,0,0,0,0,0,0,0,0,-1,1371,575,0,0
154,449,0,0,0,0,0,0,0,0,0,-1,1378,575,0,0
161,449,0,0,0,0,0,0,0,0,0,-1,1385,575,0,0
168,449,0,0,0,0,0,0,0,0,0,-1,1392,575,0,0
175,449,0,0,0,0,0,0,0,0,0,-1,1399,575,0,0
182,449,0,0,0,0,0,0,0,0,0,-1,1406,575,0,0
189,449,0,0,0,0,0,0,0,0,0,-1,1413,575,0,0
196,449,0,0,0,0,0,0,0,0,0,-1,1420,575,0,0
203,449,0,0,0,0,0,0,0,0,0,-1,1427,575,0,0
210,449,0,0,0,0,0,0,0,0,0,-1,1434,575,0,0
217,449,0,0,0,0,0,0,0,0,0,-1,1441,575,0,0
224,449,0,0,0,0,0,0,0,0,0,-1,1448,575,0,0
231,449,0,0,0,0,0,0,0,0,0,-1,1455,575,0,0
238,449,0,0,0,0,0,0,0,0,0,-1,1462,575,0,0
245,449,0,0,0,0,0,0,0,0,0,-1,1469,575,0,0
252,449,0,0,0,0,0,0,0,0,0,-1,1476,575,0,0
259,449,0,0,0,0,0,0,0,0,0,-1,1483,575,0,0
266,449,0,0,0,0,0,0,0,0,0,-1,1490,575,0,0
273,449,0,0,0,0,0,0,0,0,0,-1,1497,575,0,0
280,449,0,0,0,0,0,0,0,0,0,-1,1504,575,0,0
287,449,0,0,0,0,0,0,0,0,0,-1,1511,575,0,0
294,449,0,0,0,0,0,0,0,0,0,-1,1518,575,0,0
301,449,0,0,0,0,0,0,0,0,0,-1,1525,575,0,0
308,449,0,0,0,0,0,0,0,0,0,-1,1532,575,0,0
315,449,0,0,0,0,0,0,0,0,0,-1,1539,575,0,0
322,449,0,0,0,0,0,0,0,0,0,-1,1546,575,0,0
329,449,0,0,0,0,0,0,0,0,0,-1,1553,575,0,0
336,449,0,0,0,0,0,0,0,0,0,-1,1560,575,0,0
343,449,0,0,0,0,0,0,0,0,0,-1,1567,575,0,0
350,449,0,0,0,0,0,0,0,0,0,-1,1574,575,0,0
357,449,0,0,0,0,0,0,0,0,0,-1,1581,575,0,0
364,449,0,0,0,0,0,0,0,0,0,-1,1588,575,0,0
371,449,0,0,0,0,0,0,0,0,0,-1,1595,575,0,0
378,449,0,0,0,0,0,0,0,0,0,-1,1602,575,0,0
385,449,0,0,0,0,0,0,0,0,0,-1,1609,575,0,0
392,449,7.95471,3.66217,0,0,0,0,0,0,0,-1,1616,575,7.95471,-3.66218
399,449,19.9791,5.565,0,0,0,0,0,0,0,-1,1623,575,19.9791,-5.56499
406,449,24.9847,4.55969,0,0,0,0,0,0,0,-1,1630,575,24.9848,-4.55968
413,449,30.4159,3.15027,0,0,0,0,0,0,0,-1,1637,575,30.4159,-3.15028
420,449,23.9675,1.29718,0,0,0,0,0,0,0,-1,1644,575,23.9675,-1.29721
427,449,24.4276,-0.596558,0,0,0,0,0,0,0,-1,1651,575,24.4277,0.596569
434,449,25.61,-2.96594,0,0,0,0,0,0,0,-1,1658,575,25.61,2.96595
441,449,3.89856,-6.06458,0,0,0,0,0,0,0,-1,1665,575,3.89855,6.06459
448,449,4.03198,-5.18207,0,0,0,0,0,0,0,-1,1672,575,4.03197,5.18207
455,449,4.21948,-4.09467,0,0,0,0,0,0,0,-1,1679,575,4.21952,4.09465
462,449,4.23181,-2.96924,0,0,0,0,0,0,0,-1,1686,575,4.23185,2.96926
469,449,4.51672,-2.95135,0,0,0,0,0,0,0,-1,1693,575,4.51672,2.95135
476,449,4.71838,-1.86688,0,0,0,0,0,0,0,-1,1700,575,4.71842,1.86689
483,449,4.87878,-1.73126,0,0,0,0,0,0,0,-1,1707,575,4.87875,1.73128
490,449,5.73279,-2.74573,0,0,0,0,0,0,0,-1,1714,575,5.73282,2.74575
497,449,17.2095,-16.4381,0,0,0,0,0,0,0,-1,1721,575,17.2094,16.4381
504,449,29.2509,-29.6855,0,0,0,0,0,0,0,-1,1728,575,29.2509,29.6856
511,449,29.2491,-28.6743,0.00206965,0.000125901,9.53775e-05,0.00207432,0.000121232,0.0489122,0.00134429,0.0179556,1735,575,29.2492,28.6742
518,449,29.2012,-27.6788,0.00190096,8.47328e-05,0.000391091,0.00198159,4.09863e-06,0.203329,0.0013197,0.0136296,1742,575,29.2012,27.6788
525,449,29.1173,-26.6642,0.00163113,0.000276511,0.000588487,0.00185107,5.65669e-05,0.357671,0.00121563,0.0140378,1749,575,29.1173,26.6642
532,449,29.0381,-25.6643,0.00139103,0.000597816,0.000770876,0.00186134,0.000127505,0.547813,0.00120065,0.0124029,1756,575,29.038,25.6643
539,449,28.9363,-24.6365,0.00121334,0.00106688,0.000991196,0.00213401,0.000146212,0.748525,0.00137652,0.0195756,1763,575,28.9363,24.6365
546,449,28.855,-23.5451,0.00110983,0.00169708,0.00120309,0.00264186,0.000165053,0.905088,0.00170888,0.0352361,1770,575,28.855,23.5451
553,449,28.7767,-22.568,0.00102123,0.0024809,0.0014408,0.00336617,0.000135955,1.01983,0.0022002,0.0228392,1777,575,28.7767,22.568
560,449,28.7716,-21.6057,0.00101014,0.00339878,0.00175659,0.00432861,8.03031e-05,1.08395,0.00285935,0.0155502,1784,575,28.7716,21.6056
567,449,28.7024,-20.5723,0.00114036,0.00453396,0.00222356,0.00563419,4.01363e-05,1.11131,0.00374282,0.0107262,1791,575,28.7025,20.5723
574,449,28.6549,-19.4991,0.00123116,0.00571116,0.00272254,0.00699676,-5.44381e-05,1.12963,0.00468276,0.030526,1798,575,28.655,19.4992
581,449,28.6223,-18.3294,0,0,0,0,0,0,0,-1,1805,575,28.6223,18.3294
588,449,12.3274,-4.5672,0,0,0,0,0,0,0,-1,1812,575,12.3274,4.5672
595,449,15.9352,-5.65479,0,0,0,0,0,0,0,-1,1819,575,15.9352,5.65478
602,449,9.46167,4.17444,0,0,0,0,0,0,0,-1,1826,575,9.46164,-4.17442
609,449,12.2028,3.18652,0,0,0,0,0,0,0,-1,1833,575,12.2027,-3.18655
616,449,14.9438,2.19867,0,0,0,0,0,0,0,-1,1840,575,14.9438,-2.19867
623,449,9.83789,-0.0820313,0,0,0,0,0,0,0,-1,1847,575,9.83794,0.0820443
630,449,8.90686,4.99329,0,0,0,0,0,0,0,-1,1854,575,8.90685,-4.99327
637,449,0,0,0,0,0,0,0,0,0,-1,1861,575,0,0
644,449,0,0,0,0,0,0,0,0,0,-1,1868,575,0,0
651,449,0,0,0,0,0,0,0,0,0,-1,1875,575,0,0
658,449,0,0,0,0,0,0,0,0,0,-1,1882,575,0,0
665,449,0,0,0,0,0,0,0,0,0,-1,1889,575,0,0
672,449,0,0,0,0,0,0,0,0,0,-1,1896,575,0,0
679,449,0,0,0,0,0,0,0,0,0,-1,1903,575,0,0
686,449,0,0,0,0,0,0,0,0,0,-1,1910,575,0,0
693,449,0,0,0,0,0,0,0,0,0,-1,1917,575,0,0
700,449,0,0,0,0,0,0,0,0,0,-1,1924,575,0,0
707,449,0,0,0,0,0,0,0,0,0,-1,1931,575,0,0
714,449,0,0,0,0,0,0,0,0,0,-1,1938,575,0,0
721,449,0,0,0,0,0,0,0,0,0,-1,1945,575,0,0
728,449,0,0,0,0,0,0,0,0,0,-1,1952,575,0,0
735,449,0,0,0,0,0,0,0,0,0,-1,1959,575,0,0
742,449,0,0,0,0,0,0,0,0,0,-1,1966,575,0,0
749,449,0,0,0,0,0,0,0,0,0,-1,1973,575,0,0
756,449,0,0,0,0,0,0,0,0,0,-1,1980,575,0,0
763,449,0,0,0,0,0,0,0,0,0,-1,1987,575,0,0
770,449,0,0,0,0,0,0,0,0,0,-1,1994,575,0,0
777,449,0,0,0,0,0,0,0,0,0,-1,2001,575,0,0
784,449,0,0,0,0,0,0,0,0,0,-1,2008,575,0,0
791,449,0,0,0,0,0,0,0,0,0,-1,2015,575,0,0
798,449,0,0,0,0,0,0,0,0,0,-1,2022,575,0,0
805,449,0,0,0,0,0,0,0,0,0,-1,2029,575,0,0
812,449,0,0,0,0,0,0,0,0,0,-1,2036,575,0,0
-700,442,0,0,0,0,0,0,0,0,0,-1,524,582,0,0
-693,442,0,0,0,0,0,0,0,0,0,-1,531,582,0,0
-686,442,0,0,0,0,0,0,0,0,0,-1,538,582,0,0
-679,442,0,0,0,0,0,0,0,0,0,-1,545,582,0,0
-672,442,0,0,0,0,0,0,0,0,0,-1,552,582,0,0
-665,442,0,0,0,0,0,0,0,0,0,-1,559,582,0,0
-658,442,0,0,0,0,0,0,0,0,0,-1,566,582,0,0
-651,442,0,0,0,0,0,0,0,0,0,-1,573,582,0,0
-644,442,0,0,0,0,0,0,0,0,0,-1,580,582,0,0
-637,442,0,0,0,0,0,0,0,0,0,-1,587,582,0,0
-630,442,0,0,0,0,0,0,0,0,0,-1,594,582,0,0
-623,442,0,0,0,0,0,0,0,0,0,-1,601,582,0,0
-616,442,0,0,0,0,0,0,0,0,0,-1,608,582,0,0
-609,442,0,0,0,0,0,0,0,0,0,-1,615,582,0,0
-602,442,0,0,0,0,0,0,0,0,0,-1,622,582,0,0
-595,442,0,0,0,0,0,0,0,0,0,-1,629,582,0,0
-588,442,0,0,0,0,0,0,0,0,0,-1,636,582,0,0
-581,442,0,0,0,0,0,0,0,0,0,-1,643,582,0,0
-574,442,0,0,0,0,0,0,0,0,0,-1,650,582,0,0
-567,442,0,0,0,0,0,0,0,0,0,-1,657,582,0,0
-560,442,0,0,0,0,0,0,0,0,0,-1,664,582,0,0
-553,442,0,0,0,0,0,0,0,0,0,-1,671,582,0,0
-546,442,0,0,0,0,0,0,0,0,0,-1,678,582,0,0
-539,442,0,0,0,0,0,0,0,0,0,-1,685,582,0,0
-532,442,0,0,0,0,0,0,0,0,0,-1,692,582,0,0
-525,442,0,0,0,0,0,0,0,0,0,-1,699,582,0,0
-518,442,-0.493774,-5.72943,0,0,0,0,0,0,0,-1,706,582,-0.493791,5.72946
-511,442,-1.33008,-6.18512,0,0,0,0,0,0,0,-1,713,582,-1.33006,6.18511
-504,442,-3.20807,-6.34082,0,0,0,0,0,0,0,-1,720,582,-3.2081,6.34083
-497,442,-13.6886,-0.250122,0,0,0,0,0,0,0,-1,727,582,-13.6886,0.250143
-490,442,-9.09039,-3.64862,0,0,0,0,0,0,0,-1,734,582,-9.09037,3.64861
-483,442,-7.36499,-1.01892,0,0,0,0,0,0,0,-1,741,582,-7.365,1.01895
-476,442,-4.84784,-4.44141,0,0,0,0,0,0,0,-1,748,582,-4.84787,4.44138
-469,442,-12.5662,-15.0365,0,0,0,0,0,0,0,-1,755,582,-12.5662,15.0365
-462,442,-11.9753,-16.9217,0,0,0,0,0,0,0,-1,762,582,-11.9753,16.9217
-455,442,-12.573,-18.3286,0,0,0,0,0,0,0,-1,769,582,-12.573,18.3285
-448,442,-12.5824,-19.4723,-0.00222966,0.00323227,0.00074932,0.0033332,-0.0023306,1.4369,0.00328703,0.0259685,776,582,-12.5824,19.4723
-441,442,-12.6826,-20.5248,-0.00111757,0.00283499,8.69953e-05,0.00283691,-0.00111948,1.5488,0.00235487,0.0147458,783,582,-12.6826,20.5249
-434,442,-12.7708,-21.5592,-0.000288338,0.00248665,-0.000366404,0.00253421,-0.000335902,-1.44171,0.00181185,0.0137869,790,582,-12.7708,21.5592
-427,442,-12.8461,-22.5764,0.000339543,0.00221197,-0.000680212,0.00243299,0.000118526,-1.25663,0.00158396,0.0134868,797,582,-12.8461,22.5763
-420,442,-12.9066,-23.6031,0.000881605,0.00197021,-0.000944978,0.00251643,0.000335381,-1.04669,0.00157776,0.0142556,804,582,-12.9066,23.6031
-413,442,-12.9558,-24.6121,0.00125436,0.00164542,-0.00100258,0.00247136,0.000428425,-0.881704,0.00152496,0.0120679,811,582,-12.9558,24.6121
-406,442,-13.0447,-25.6318,0.00147972,0.00125131,-0.000901369,0.00227409,0.000456939,-0.722381,0.00138903,0.0110997,818,582,-13.0447,25.6318
-399,442,-13.1343,-26.6328,0.00176685,0.000984978,-0.000856629,0.00231753,0.000434297,-0.57133,0.00142253,0.00953572,825,582,-13.1343,26.6328
-392,442,-13.1864,-27.6229,0.00211286,0.000704281,-0.000805404,0.00247848,0.000338665,-0.426137,0.0015518,0.0109198,832,582,-13.1864,27.6228
-385,442,-13.2413,-28.6222,0.00254638,0.000382868,-0.000762418,0.00278806,0.000141191,-0.306968,0.00181348,0.013203,839,582,-13.2413,28.6222
-378,442,-13.2845,-29.6359,0.00310049,0.000144191,-0.000685856,0.00325185,-7.17596e-06,-0.217216,0.0021703,0.0201313,846,582,-13.2845,29.6359
-371,442,-13.3734,-30.7428,0,0,0,0,0,0,0,-1,853,582,-13.3734,30.7428
-364,442,-6.89764,-17.5333,0,0,0,0,0,0,0,-1,860,582,-6.89765,17.5333
-357,442,-4.9115,-11.2649,0,0,0,0,0,0,0,-1,867,582,-4.91147,11.2649
-350,442,-1.75372,-6.27618,0,0,0,0,0,0,0,-1,874,582,-1.75371,6.27618
-343,442,-1.4599,-4.63605,0,0,0,0,0,0,0,-1,881,582,-1.4599,4.63607
-336,442,-1.4054,-2.64313,0,0,0,0,0,0,0,-1,888,582,-1.40539,2.64315
-329,442,-0.952576,-2.76923,0,0,0,0,0,0,0,-1,895,582,-0.952571,2.7692
-322,442,-0.972534,-2.63208,0,0,0,0,0,0,0,-1,902,582,-0.972512,2.6321
-315,442,-0.445557,-2.89764,0,0,0,0,0,0,0,-1,909,582,-0.445582,2.89765
-308,442,-0.654175,-3.07831,0,0,0,0,0,0,0,-1,916,582,-0.654145,3.07832
-301,442,-1.37427,-2.41455,0,0,0,0,0,0,0,-1,923,582,-1.37425,2.41453
-294,442,-2.99963,-2.07855,0,0,0,0,0,0,0,-1,930,582,-2.99964,2.07857
-287,442,3.91034,-10.1913,0,0,0,0,0,0,0,-1,937,582,3.91034,10.1913
-280,442,0,0,0,0,0,0,0,0,0,-1,944,582,0,0
-273,442,0,0,0,0,0,0,0,0,0,-1,951,582,0,0
-266,442,0,0,0,0,0,0,0,0,0,-1,958,582,0,0
-259,442,0,0,0,0,0,0,0,0,0,-1,965,582,0,0
-252,442,0,0,0,0,0,0,0,0,0,-1,972,582,0,0
-245,442,0,0,0,0,0,0,0,0,0,-1,979,582,0,0
-238,442,0,0,0,0,0,0,0,0,0,-1,986,582,0,0
-231,442,0,0,0,0,0,0,0,0,0,-1,993,582,0,0
-224,442,0,0,0,0,0,0,0,0,0,-1,1000,582,0,0
-217,442,0,0,0,0,0,0,0,0,0,-1,1007,582,0,0
-210,442,0,0,0,0,0,0,0,0,0,-1,1014,582,0,0
-203,442,0,0,0,0,0,0,0,0,0,-1,1021,582,0,0
-196,442,0,0,0,0,0,0,0,0,0,-1,1028,582,0,0
-189,442,0,0,0,0,0,0,0,0,0,-1,1035,582,0,0
-182,442,0,0,0,0,0,0,0,0,0,-1,1042,582,0,0
-175,442,0,0,0,0,0,0,0,0,0,-1,1049,582,0,0
-168,442,0,0,0,0,0,0,0,0,0,-1,1056,582,0,0
-161,442,0,0,0,0,0,0,0,0,0,-1,1063,582,0,0
-154,442,0,0,0,0,0,0,0,0,0,-1,1070,582,0,0
-147,442,0,0,0,0,0,0,0,0,0,-1,1077,582,0,0
-140,442,0,0,0,0,0,0,0,0,0,-1,1084,582,0,0
-133,442,0,0,0,0,0,0,0,0,0,-1,1091,582,0,0
-126,442,0,0,0,0,0,0,0,0,0,-1,1098,582,0,0
-119,442,0,0,0,0,0,0,0,0,0,-1,1105,582,0,0
-112,442,0,0,0,0,0,0,0,0,0,-1,1112,582,0,0
-105,442,0,0,0,0,0,0,0,0,0,-1,1119,582,0,0
-98,442,0,0,0,0,0,0,0,0,0,-1,1126,582,0,0
-91,442,0,0,0,0,0,0,0,0,0,-1,1133,582,0,0
-84,442,0,0,0,0,0,0,0,0,0,-1,1140,582,0,0
-77,442,0,0,0,0,0,0,0,0,0,-1,1147,582,0,0
-70,442,0,0,0,0,0,0,0,0,0,-1,1154,582,0,0
-63,442,0,0,0,0,0,0,0,0,0,-1,1161,582,0,0
-56,442,0,0,0,0,0,0,0,0,0,-1,1168,582,0,0
-49,442,0,0,0,0,0,0,0,0,0,-1,1175,582,0,0
-42,442,0,0,0,0,0,0,0,0,0,-1,1182,582,0,0
-35,442,0,0,0,0,0,0,0,0,0,-1,1189,582,0,0
-28,442,0,0,0,0,0,0,0,0,0,-1,1196,582,0,0
-21,442,0,0,0,0,0,0,0,0,0,-1,1203,582,0,0
-14,442,0,0,0,0,0,0,0,0,0,-1,1210,582,0,0
-7,442,0,0,0,0,0,0,0,0,0,-1,1217,582,0,0
0,442,0,0,0,0,0,0,0,0,0,-1,1224,582,0,0
7,442,0,0,0,0,0,0,0,0,0,-1,1231,582,0,0
14,442,0,0,0,0,0,0,0,0,0,-1,1238,582,0,0
21,442,0,0,0,0,0,0,0,0,0,-1,1245,582,0,0
28,442,0,0,0,0,0,0,0,0,0,-1,1252,582,0,0
35,442,0,0,0,0,0,0,0,0,0,-1,1259,582,0,0
42,442,0,0,0,0,0,0,0,0,0,-1,1266,582,0,0
49,442,0,0,0,0,0,0,0,0,0,-1,1273,582,0,0
56,442,0,0,0,0,0,0,0,0,0,-1,1280,582,0,0
63,442,0,0,0,0,0,0,0,0,0,-1,1287,582,0,0
70,442,0,0,0,0,0,0,0,0,0,-1,1294,582,0,0
77,442,0,0,0,0,0,0,0,0,0,-1,1301,582,0,0
84,442,0,0,0,0,0,0,0,0,0,-1,1308,582,0,0
91,442,0,0,0,0,0,0,0,0,0,-1,1315,582,0,0
98,442,0,0,0,0,0,0,0,0,0,-1,1322,582,0,0
105,442,0,0,0,0,0,0,0,0,0,-1,1329,582,0,0
112,442,0,0,0,0,0,0,0,0,0,-1,1336,582,0,0
119,442,0,0,0,0,0,0,0,0,0,-1,1343,582,0,0
126,442,0,0,0,0,0,0,0,0,0,-1,1350,582,0,0
133,442,0,0,0,0,0,0,0,0,0,-1,1357,582,0,0
140,442,0,0,0,0,0,0,0,0,0,-1,1364,582,0,0
147,442,0,0,0,0,0,0,0,0,0,-1,1371,582,0,0
154,442,0,0,0,0,0,0,0,0,0,-1,1378,582,0,0
161,442,0,0,0,0,0,0,0,0,0,-1,1385,582,0,0
168,442,0,0,0,0,0,0,0,0,0,-1,1392,582,0,0
175,442,0,0,0,0,0,0,0,0,0,-1,1399,582,0,0
182,442,0,0,0,0,0,0,0,0,0,-1,1406,582,0,0
189,442,0,0,0,0,0,0,0,0,0,-1,1413,582,0,0
196,442,0,0,0,0,0,0,0,0,0,-1,1420,582,0,0
203,442,0,0,0,0,0,0,0,0,0,-1,1427,582,0,0
210,442,0,0,0,0,0,0,0,0,0,-1,1434,582,0,0
217,442,0,0,0,0,0,0,0,0,0,-1,1441,582,0,0
224,442,0,0,0,0,0,0,0,0,0,-1,1448,582,0,0
231,442,0,0,0,0,0,0,0,0,0,-1,1455,582,0,0
238,442,0,0,0,0,0,0,0,0,0,-1,1462,582,0,0
245,442,0,0,0,0,0,0,0,0,0,-1,1469,582,0,0
252,442,0,0,0,0,0,0,0,0,0,-1,1476,582,0,0
259,442,0,0,0,0,0,0,0,0,0,-1,1483,582,0,0
266,442,0,0,0,0,0,0,0,0,0,-1,1490,582,0,0
273,442,0,0,0,0,0,0,0,0,0,-1,1497,582,0,0
280,442,0,0,0,0,0,0,0,0,0,-1,1504,582,0,0
287,442,0,0,0,0,0,0,0,0,0,-1,1511,582,0,0
294,442,0,0,0,0,0,0,0,0,0,-1,1518,582,0,0
301,442,0,0,0,0,0,0,0,0,0,-1,1525,582,0,0
308,442,0,0,0,0,0,0,0,0,0,-1,1532,582,0,0
315,442,0,0,0,0,0,0,0,0,0,-1,1539,582,0,0
322,442,0,0,0,0,0,0,0,0,0,-1,1546,582,0,0
329,442,0,0,0,0,0,0,0,0,0,-1,1553,582,0,0
336,442,0,0,0,0,0,0,0,0,0,-1,1560,582,0,0
343,442,0,0,0,0,0,0,0,0,0,-1,1567,582,0,0
350,442,0,0,0,0,0,0,0,0,0,-1,1574,582,0,0
357,442,0,0,0,0,0,0,0,0,0,-1,1581,582,0,0
364,442,0,0,0,0,0,0,0,0,0,-1,1588,582,0,0
371,442,0,0,0,0,0,0,0,0,0,-1,1595,582,0,0
378,442,0,0,0,0,0,0,0,0,0,-1,1602,582,0,0
385,442,0,0,0,0,0,0,0,0,0,-1,1609,582,0,0
392,442,0,0,0,0,0,0,0,0,0,-1,1616,582,0,0
399,442,0,0,0,0,0,0,0,0,0,-1,1623,582,0,0
406,442,17.6321,4.08295,0,0,0,0,0,0,0,-1,1630,582,17.6321,-4.08293
413,442,25.4768,2.74445,0,0,0,0,0,0,0,-1,1637,582,25.4768,-2.74444
420,442,22.7478,1.55011,0,0,0,0,0,0,0,-1,1644,582,22.7478,-1.55009
427,442,23.2969,-0.456787,0,0,0,0,0,0,0,-1,1651,582,23.2968,0.456769
434,442,23.9512,-2.49365,0,0,0,0,0,0,0,-1,1658,582,23.9512,2.49366
441,442,24.8251,-4.43958,0,0,0,0,0,0,0,-1,1665,582,24.8251,4.43956
448,442,4.7749,-5.88562,0,0,0,0,0,0,0,-1,1672,582,4.7749,5.8856
455,442,4.87024,-4.60687,0,0,0,0,0,0,0,-1,1679,582,4.87019,4.60686
462,442,5.02307,-3.72821,0,0,0,0,0,0,0,-1,1686,582,5.02311,3.7282
469,442,5.12976,-2.98834,0,0,0,0,0,0,0,-1,1693,582,5.12971,2.98834
476,442,5.4624,1.76947,0,0,0,0,0,0,0,-1,1700,582,5.46234,-1.76944
483,442,5.98486,1.87042,0,0,0,0,0,0,0,-1,1707,582,5.98492,-1.87045
490,442,5.04407,-2.35834,0,0,0,0,0,0,0,-1,1714,582,5.04411,2.35837
497,442,6.20984,-3.07831,0,0,0,0,0,0,0,-1,1721,582,6.2098,3.07833
504,442,20.9276,-19.7709,0,0,0,0,0,0,0,-1,1728,582,20.9276,19.771
511,442,30.2286,-28.6606,0,0,0,0,0,0,0,-1,1735,582,30.2286,28.6606
518,442,30.1932,-27.5524,0.00257611,-0.000146344,0.000382965,0.00262895,-0.00019919,0.137125,0.00182266,0.01799,1742,582,30.1932,27.5524
525,442,30.1064,-26.5731,0.00217671,1.7091e-05,0.00052095,0.00229581,-0.000102006,0.224753,0.00156565,0.0114565,1749,582,30.1064,26.5731
532,442,30.0474,-25.5838,0.00183774,0.000288009,0.000645093,0.00207112,5.46279e-05,0.34713,0.0013629,0.0128967,1756,582,30.0473,25.5838
539,442,29.9728,-24.5631,0.00160602,0.000717736,0.000826424,0.00210009,0.000223666,0.53883,0.00133178,0.0163556,1763,582,29.9728,24.5631
546,442,29.9403,-23.4959,0.00145082,0.00126958,0.000989845,0.00235419,0.000366218,0.73975,0.00146275,0.0220226,1770,582,29.9404,23.4959
553,442,29.8293,-22.5141,0.00129578,0.0019717,0.00117597,0.00285731,0.000410165,0.925322,0.00178394,0.0221219,1777,582,29.8293,22.5141
560,442,29.7808,-21.5306,0.00118868,0.00276765,0.0014282,0.00361004,0.000346285,1.03789,0.00229997,0.0168805,1784,582,29.7807,21.5306
567,442,29.7133,-20.5164,0.0012335,0.0037528,0.00182523,0.00471085,0.000275455,1.08743,0.00305289,0.0115188,1791,582,29.7133,20.5163
574,442,29.6403,-19.499,0.0012966,0.00481046,0.00227813,0.00593045,0.000176605,1.11387,0.0038961,0.0128143,1798,582,29.6403,19.499
581,442,29.6511,-18.3524,0.00143063,0.00605701,0.00284421,0.00740993,7.77072e-05,1.1268,0.00491425,0.0345839,1805,582,29.6511,18.3523
588,442,29.7343,-17.1638,0,0,0,0,0,0,0,-1,1812,582,29.7342,17.1638
595,442,16.27,-6.47083,0,0,0,0,0,0,0,-1,1819,582,16.27,6.47082
602,442,16.2213,-4.49225,0,0,0,0,0,0,0,-1,1826,582,16.2213,4.49223
609,442,12.761,2.97223,0,0,0,0,0,0,0,-1,1833,582,12.761,-2.97221
616,442,9.78345,-0.103394,0,0,0,0,0,0,0,-1,1840,582,9.78341,0.103424
623,442,9.23828,0.326721,0,0,0,0,0,0,0,-1,1847,582,9.23829,-0.326727
630,442,7.74304,2.3924,0,0,0,0,0,0,0,-1,1854,582,7.7431,-2.39238
637,442,5.87805,1.84027,0,0,0,0,0,0,0,-1,1861,582,5.87807,-1.84025
644,442,0,0,0,0,0,0,0,0,0,-1,1868,582,0,0
651,442,0,0,0,0,0,0,0,0,0,-1,1875,582,0,0
658,442,0,0,0,0,0,0,0,0,0,-1,1882,582,0,0
665,442,0,0,0,0,0,0,0,0,0,-1,1889,582,0,0
672,442,0,0,0,0,0,0,0,0,0,-1,1896,582,0,0
679,442,0,0,0,0,0,0,0,0,0,-1,1903,582,0,0
686,442,0,0,0,0,0,0,0,0,0,-1,1910,582,0,0
693,442,0,0,0,0,0,0,0,0,0,-1,1917,582,0,0
700,442,0,0,0,0,0,0,0,0,0,-1,1924,582,0,0
707,442,0,0,0,0,0,0,0,0,0,-1,1931,582,0,0
714,442,0,0,0,0,0,0,0,0,0,-1,1938,582,0,0
721,442,0,0,0,0,0,0,0,0,0,-1,1945,582,0,0
728,442,0,0,0,0,0,0,0,0,0,-1,1952,582,0,0
735,442,0,0,0,0,0,0,0,0,0,-1,1959,582,0,0
742,442,0,0,0,0,0,0,0,0,0,-1,1966,582,0,0
749,442,0,0,0,0,0,0,0,0,0,-1,1973,582,0,0
756,442,0,0,0,0,0,0,0,0,0,-1,1980,582,0,0
763,442,0,0,0,0,0,0,0,0,0,-1,1987,582,0,0
770,442,0,0,0,0,0,0,0,0,0,-1,1994,582,0,0
777,442,0,0,0,0,0,0,0,0,0,-1,2001,582,0,0
784,442,0,0,0,0,0,0,0,0,0,-1,2008,582,0,0
791,442,0,0,0,0,0,0,0,0,0,-1,2015,582,0,0
798,442,0,0,0,0,0,0,0,0,0,-1,2022,582,0,0
805,442,0,0,0,0,0,0,0,0,0,-1,2029,582,0,0
812,442,0,0,0,0,0,0,0,0,0,-1,2036,582,0,0
-700,435,0,0,0,0,0,0,0,0,0,-1,524,589,0,0
-693,435,0,0,0,0,0,0,0,0,0,-1,531,589,0,0
-686,435,0,0,0,0,0,0,0,0,0,-1,538,589,0,0
-679,435,0,0,0,0,0,0,0,0,0,-1,545,589,0,0
-672,435,0,0,0,0,0,0,0,0,0,-1,552,589,0,0
-665,435,0,0,0,0,0,0,0,0,0,-1,559,589,0,0
-658,435,0,0,0,0,0,0,0,0,0,-1,566,589,0,0
-651,435,0,0,0,0,0,0,0,0,0,-1,573,589,0,0
-644,435,0,0,0,0,0,0,0,0,0,-1,580,589,0,0
-637,435,0,0,0,0,0,0,0,0,0,-1,587,589,0,0
-630,435,0,0,0,0,0,0,0,0,0,-1,594,589,0,0
-623,435,0,0,0,0,0,0,0,0,0,-1,601,589,0,0
-616,435,0,0,0,0,0,0,0,0,0,-1,608,589,0,0
-609,435,0,0,0,0,0,0,0,0,0,-1,615,589,0,0
-602,435,0,0,0,0,0,0,0,0,0,-1,622,589,0,0
-595,435,0,0,0,0,0,0,0,0,0,-1,629,589,0,0
-588,435,0,0,0,0,0,0,0,0,0,-1,636,589,0,0
-581,435,0,0,0,0,0,0,0,0,0,-1,643,589,0,0
-574,435,0,0,0,0,0,0,0,0,0,-1,650,589,0,0
-567,435,0,0,0,0,0,0,0,0,0,-1,657,589,0,0
-560,435,0,0,0,0,0,0,0,0,0,-1,664,589,0,0
-553,435,0,0,0,0,0,0,0,0,0,-1,671,589,0,0
-546,435,0,0,0,0,0,0,0,0,0,-1,678,589,0,0
-539,435,0,0,0,0,0,0,0,0,0,-1,685,589,0,0
-532,435,0,0,0,0,0,0,0,0,0,-1,692,589,0,0
-525,435,-10.0776,10.0547,0,0,0,0,0,0,0,-1,699,589,-10.0776,-10.0547
-518,435,-1.83093,-5.82367,0,0,0,0,0,0,0,-1,706,589,-1.83093,5.8237
-511,435,-2.45154,-5.33118,0,0,0,0,0,0,0,-1,713,589,-2.45151,5.33115
-504,435,-3.07208,-4.83862,0,0,0,0,0,0,0,-1,720,589,-3.0721,4.8386
-497,435,-6.31012,-5.84698,0,0,0,0,0,0,0,-1,727,589,-6.31012,5.84697
-490,435,-5.81903,-0.458679,0,0,0,0,0,0,0,-1,734,589,-5.81902,0.458684
-483,435,-6.96503,-3.01624,0,0,0,0,0,0,0,-1,741,589,-6.96505,3.01623
-476,435,-13.7272,-14.1022,0,0,0,0,0,0,0,-1,748,589,-13.7272,14.1022
-469,435,-13.3448,-16.0353,0,0,0,0,0,0,0,-1,755,589,-13.3448,16.0353
-462,435,-13.5123,-17.0302,0,0,0,0,0,0,0,-1,762,589,-13.5123,17.0301
-455,435,-13.5958,-18.3291,-0.00327599,0.00260125,0.00158062,0.00299937,-0.00367411,1.32405,0.0038595,0.0322162,769,589,-13.5958,18.3291
-448,435,-13.5986,-19.4134,-0.00189408,0.00231547,0.00073403,0.0024398,-0.0020184,1.40302,0.00257777,0.0151631,776,589,-13.5986,19.4134
-441,435,-13.6807,-20.4382,-0.000808664,0.00204223,0.000107272,0.00204627,-0.000812695,1.53324,0.00170107,0.0127288,783,589,-13.6807,20.4382
-434,435,-13.7747,-21.4797,1.27789e-05,0.00180406,-0.000336161,0.00186506,-4.82289e-05,-1.39127,0.00125976,0.0132384,790,589,-13.7746,21.4797
-427,435,-13.8619,-22.5333,0.000671973,0.00166784,-0.00068633,0.00201784,0.000321976,-1.09922,0.00125178,0.0103359,797,589,-13.8619,22.5333
-420,435,-13.9175,-23.5418,0.00125312,0.00157304,-0.000992743,0.00241862,0.000407528,-0.865276,0.0014952,0.0114181,804,589,-13.9175,23.5418
-413,435,-13.9674,-24.5538,0.00165628,0.00141982,-0.00110293,0.0026473,0.000428802,-0.732003,0.00164072,0.0121991,811,589,-13.9674,24.5538
-406,435,-14.0414,-25.5717,0.00193366,0.00124506,-0.00110361,0.00274543,0.000433287,-0.634196,0.00170432,0.0126163,818,589,-14.0414,25.5717
-399,435,-14.1385,-26.5638,0.00230568,0.00117153,-0.00118356,0.003051,0.000426208,-0.561993,0.00190787,0.0107414,825,589,-14.1386,26.5638
-392,435,-14.2096,-27.5595,0.00273014,0.00109069,-0.00125346,0.00340812,0.000412712,-0.495818,0.00214777,0.0112349,832,589,-14.2096,27.5595
-385,435,-14.2505,-28.5789,0.00321118,0.000910923,-0.00132019,0.00381197,0.000310137,-0.427066,0.0024445,0.0249518,839,589,-14.2505,28.5789
-378,435,-14.2175,-29.68,0,0,0,0,0,0,0,-1,846,589,-14.2175,29.68
-371,435,-10.247,-21.7153,0,0,0,0,0,0,0,-1,853,589,-10.247,21.7153
-364,435,-5.62848,-11.5937,0,0,0,0,0,0,0,-1,860,589,-5.62847,11.5937
-357,435,-5.57343,-10.9666,0,0,0,0,0,0,0,-1,867,589,-5.57342,10.9666
-350,435,-0.86676,-3.69836,0,0,0,0,0,0,0,-1,874,589,-0.866784,3.69834
-343,435,-1.60706,-2.36835,0,0,0,0,0,0,0,-1,881,589,-1.60706,2.36838
-336,435,-2.07263,-1.94012,0,0,0,0,0,0,0,-1,888,589,-2.07265,1.94014
-329,435,-2.55963,-1.5517,0,0,0,0,0,0,0,-1,895,589,-2.5596,1.55168
-322,435,-3.08545,-1.55255,0,0,0,0,0,0,0,-1,902,589,-3.08544,1.55254
-315,435,-0.404297,-2.63763,0,0,0,0,0,0,0,-1,909,589,-0.404276,2.63761
-308,435,-1.70056,-1.90369,0,0,0,0,0,0,0,-1,916,589,-1.70056,1.90367
-301,435,-1.19391,-2.41632,0,0,0,0,0,0,0,-1,923,589,-1.1939,2.41635
-294,435,3.78278,-10.3275,0,0,0,0,0,0,0,-1,930,589,3.78281,10.3275
-287,435,0,0,0,0,0,0,0,0,0,-1,937,589,0,0
-280,435,0,0,0,0,0,0,0,0,0,-1,944,589,0,0
-273,435,0,0,0,0,0,0,0,0,0,-1,951,589,0,0
-266,435,0,0,0,0,0,0,0,0,0,-1,958,589,0,0
-259,435,0,0,0,0,0,0,0,0,0,-1,965,589,0,0
-252,435,0,0,0,0,0,0,0,0,0,-1,972,589,0,0
-245,435,0,0,0,0,0,0,0,0,0,-1,979,589,0,0
-238,435,0,0,0,0,0,0,0,0,0,-1,986,589,0,0
-231,435,0,0,0,0,0,0,0,0,0,-1,993,589,0,0
-224,435,0,0,0,0,0,0,0,0,0,-1,1000,589,0,0
-217,435,0,0,0,0,0,0,0,0,0,-1,1007,589,0,0
-210,435,0,0,0,0,0,0,0,0,0,-1,1014,589,0,0
-203,435,0,0,0,0,0,0,0,0,0,-1,1021,589,0,0
-196,435,0,0,0,0,0,0,0,0,0,-1,1028,589,0,0
-189,435,0,0,0,0,0,0,0,0,0,-1,1035,589,0,0
-182,435,0,0,0,0,0,0,0,0,0,-1,1042,589,0,0
-175,435,0,0,0,0,0,0,0,0,0,-1,1049,589,0,0
-168,435,0,0,0,0,0,0,0,0,0,-1,1056,589,0,0
-161,435,0,0,0,0,0,0,0,0,0,-1,1063,589,0,0
-154,435,0,0,0,0,0,0,0,0,0,-1,1070,589,0,0
-147,435,0,0,0,0,0,0,0,0,0,-1,1077,589,0,0
-140,435,0,0,0,0,0,0,0,0,0,-1,1084,589,0,0
-133,435,0,0,0,0,0,0,0,0,0,-1,1091,589,0,0
-126,435,0,0,0,0,0,0,0,0,0,-1,1098,589,0,0
-119,435,0,0,0,0,0,0,0,0,0,-1,1105,589,0,0
-112,435,0,0,0,0,0,0,0,0,0,-1,1112,589,0,0
-105,435,0,0,0,0,0,0,0,0,0,-1,1119,589,0,0
-98,435,0,0,0,0,0,0,0,0,0,-1,1126,589,0,0
-91,435,0,0,0,0,0,0,0,0,0,-1,1133,589,0,0
-84,435,0,0,0,0,0,0,0,0,0,-1,1140,589,0,0
-77,435,0,0,0,0,0,0,0,0,0,-1,1147,589,0,0
-70,435,0,0,0,0,0,0,0,0,0,-1,1154,589,0,0
-63,435,0,0,0,0,0,0,0,0,0,-1,1161,589,0,0
-56,435,0,0,0,0,0,0,0,0,0,-1,1168,589,0,0
-49,435,0,0,0,0,0,0,0,0,0,-1,1175,589,0,0
-42,435,0,0,0,0,0,0,0,0,0,-1,1182,589,0,0
-35,435,0,0,0,0,0,0,0,0,0,-1,1189,589,0,0
-28,435,0,0,0,0,0,0,0,0,0,-1,1196,589,0,0
-21,435,0,0,0,0,0,0,0,0,0,-1,1203,589,0,0
-14,435,0,0,0,0,0,0,0,0,0,-1,1210,589,0,0
-7,435,0,0,0,0,0,0,0,0,0,-1,1217,589,0,0
0,435,0,0,0,0,0,0,0,0,0,-1,1224,589,0,0
7,435,0,0,0,0,0,0,0,0,0,-1,1231,589,0,0
14,435,0,0,0,0,0,0,0,0,0,-1,1238,589,0,0
21,435,0,0,0,0,0,0,0,0,0,-1,1245,589,0,0
28,435,0,0,0,0,0,0,0,0,0,-1,1252,589,0,0
35,435,0,0,0,0,0,0,0,0,0,-1,1259,589,0,0
42,435,0,0,0,0,0,0,0,0,0,-1,1266,589,0,0
49,435,0,0,0,0,0,0,0,0,0,-1,1273,589,0,0
56,435,0,0,0,0,0,0,0,0,0,-1,1280,589,0,0
63,435,0,0,0,0,0,0,0,0,0,-1,1287,589,0,0
70,435,0,0,0,0,0,0,0,0,0,-1,1294,589,0,0
77,435,0,0,0,0,0,0,0,0,0,-1,1301,589,0,0
84,435,0,0,0,0,0,0,0,0,0,-1,1308,589,0,0
91,435,0,0,0,0,0,0,0,0,0,-1,1315,589,0,0
98,435,0,0,0,0,0,0,0,0,0,-1,1322,589,0,0
105,435,0,0,0,0,0,0,0,0,0,-1,1329,589,0,0
112,435,0,0,0,0,0,0,0,0,0,-1,1336,589,0,0
119,435,0,0,0,0,0,0,0,0,0,-1,1343,589,0,0
126,435,0,0,0,0,0,0,0,0,0,-1,1350,589,0,0
133,435,0,0,0,0,0,0,0,0,0,-1,1357,589,0,0
140,435,0,0,0,0,0,0,0,0,0,-1,1364,589,0,0
147,435,0,0,0,0,0,0,0,0,0,-1,1371,589,0,0
154,435,0,0,0,0,0,0,0,0,0,-1,1378,589,0,0
161,435,0,0,0,0,0,0,0,0,0,-1,1385,589,0,0
168,435,0,0,0,0,0,0,0,0,0,-1,1392,589,0,0
175,435,0,0,0,0,0,0,0,0,0,-1,1399,589,0,0
182,435,0,0,0,0,0,0,0,0,0,-1,1406,589,0,0
189,435,0,0,0,0,0,0,0,0,0,-1,1413,589,0,0
196,435,0,0,0,0,0,0,0,0,0,-1,1420,589,0,0
203,435,0,0,0,0,0,0,0,0,0,-1,1427,589,0,0
210,435,0,0,0,0,0,0,0,0,0,-1,1434,589,0,0
217,435,0,0,0,0,0,0,0,0,0,-1,1441,589,0,0
224,435,0,0,0,0,0,0,0,0,0,-1,1448,589,0,0
231,435,0,0,0,0,0,0,0,0,0,-1,1455,589,0,0
238,435,0,0,0,0,0,0,0,0,0,-1,1462,589,0,0
245,435,0,0,0,0,0,0,0,0,0,-1,1469,589,0,0
252,435,0,0,0,0,0,0,0,0,0,-1,1476,589,0,0
259,435,0,0,0,0,0,0,0,0,0,-1,1483,589,0,0
266,435,0,0,0,0,0,0,0,0,0,-1,1490,589,0,0
273,435,0,0,0,0,0,0,0,0,0,-1,1497,589,0,0
280,435,0,0,0,0,0,0,0,0,0,-1,1504,589,0,0
287,435,0,0,0,0,0,0,0,0,0,-1,1511,589,0,0
294,435,0,0,0,0,0,0,0,0,0,-1,1518,589,0,0
301,435,0,0,0,0,0,0,0,0,0,-1,1525,589,0,0
308,435,0,0,0,0,0,0,0,0,0,-1,1532,589,0,0
315,435,0,0,0,0,0,0,0,0,0,-1,1539,589,0,0
322,435,0,0,0,0,0,0,0,0,0,-1,1546,589,0,0
329,435,0,0,0,0,0,0,0,0,0,-1,1553,589,0,0
336,435,0,0,0,0,0,0,0,0,0,-1,1560,589,0,0
343,435,0,0,0,0,0,0,0,0,0,-1,1567,589,0,0
350,435,0,0,0,0,0,0,0,0,0,-1,1574,589,0,0
357,435,0,0,0,0,0,0,0,0,0,-1,1581,589,0,0
364,435,0,0,0,0,0,0,0,0,0,-1,1588,589,0,0
371,435,0,0,0,0,0,0,0,0,0,-1,1595,589,0,0
378,435,0,0,0,0,0,0,0,0,0,-1,1602,589,0,0
385,435,0,0,0,0,0,0,0,0,0,-1,1609,589,0,0
392,435,0,0,0,0,0,0,0,0,0,-1,1616,589,0,0
399,435,0,0,0,0,0,0,0,0,0,-1,1623,589,0,0
406,435,0,0,0,0,0,0,0,0,0,-1,1630,589,0,0
413,435,20.4565,3.49835,0,0,0,0,0,0,0,-1,1637,589,20.4565,-3.49836
420,435,21.4015,1.49609,0,0,0,0,0,0,0,-1,1644,589,21.4015,-1.49609
427,435,22.0464,-0.373962,0,0,0,0,0,0,0,-1,1651,589,22.0464,0.373972
434,435,22.1863,-1.54407,0,0,0,0,0,0,0,-1,1658,589,22.1862,1.54405
441,435,22.3992,-2.38287,0,0,0,0,0,0,0,-1,1665,589,22.3992,2.38289
448,435,7.4585,-0.00292969,0,0,0,0,0,0,0,-1,1672,589,7.45848,0.00294131
455,435,5.49915,-5.047,0,0,0,0,0,0,0,-1,1679,589,5.49914,5.04703
462,435,5.60669,-4.71466,0,0,0,0,0,0,0,-1,1686,589,5.60675,4.71469
469,435,5.87708,1.22351,0,0,0,0,0,0,0,-1,1693,589,5.87703,-1.22351
476,435,6.14136,1.37714,0,0,0,0,0,0,0,-1,1700,589,6.14138,-1.37712
483,435,6.49243,1.36169,0,0,0,0,0,0,0,-1,1707,589,6.49242,-1.36171
490,435,4.38391,-1.36218,0,0,0,0,0,0,0,-1,1714,589,4.38389,1.3622
497,435,7.23499,-3.64551,0,0,0,0,0,0,0,-1,1721,589,7.23495,3.64551
504,435,7.31189,-3.75909,0,0,0,0,0,0,0,-1,1728,589,7.31184,3.75911
511,435,28.9622,-27.0995,0,0,0,0,0,0,0,-1,1735,589,28.9621,27.0995
518,435,31.1659,-27.5091,0,0,0,0,0,0,0,-1,1742,589,31.1659,27.5091
525,435,31.1182,-26.507,0.00276976,-0.000176716,0.000512533,0.00285637,-0.000263324,0.167399,0.00199781,0.0149316,1749,589,31.1182,26.507
532,435,31.0757,-25.4997,0.00235365,2.31088e-05,0.000576407,0.00248842,-0.000111659,0.229681,0.00169739,0.0166869,1756,589,31.0757,25.4997
539,435,31.0095,-24.4846,0.00207755,0.000418661,0.000720627,0.00234687,0.000149342,0.357656,0.00151725,0.0178769,1763,589,31.0095,24.4846
546,435,30.9473,-23.4805,0.00186009,0.000895029,0.000841158,0.00234729,0.000407825,0.52499,0.00144819,0.0173508,1770,589,30.9473,23.4805
553,435,30.8722,-22.486,0.00163977,0.00152066,0.000986311,0.00256832,0.00059211,0.755244,0.00155294,0.0120855,1777,589,30.8722,22.486
560,435,30.802,-21.4877,0.00144901,0.00220527,0.00119125,0.00307697,0.000577318,0.939079,0.00188852,0.0101049,1784,589,30.802,21.4877
567,435,30.7571,-20.4377,0.00140581,0.00305943,0.00153727,0.00397813,0.000487103,1.03213,0.00250556,0.0097729,1791,589,30.7571,20.4377
574,435,30.6843,-19.4114,0.00143118,0.00399991,0.00195279,0.00505285,0.00037824,1.07629,0.00324983,0.0109343,1798,589,30.6843,19.4114
581,435,30.5917,-18.4079,0.00158822,0.00507386,0.00250049,0.00637897,0.000283104,1.08975,0.00416149,0.0182346,1805,589,30.5917,18.4079
588,435,30.4894,-17.3688,0,0,0,0,0,0,0,-1,1812,589,30.4894,17.3688
595,435,30.2985,-15.9581,0,0,0,0,0,0,0,-1,1819,589,30.2985,15.958
602,435,16.8671,-6.39026,0,0,0,0,0,0,0,-1,1826,589,16.867,6.39024
609,435,15.2611,-3.42242,0,0,0,0,0,0,0,-1,1833,589,15.2611,3.42242
616,435,5.05151,-2.75269,0,0,0,0,0,0,0,-1,1840,589,5.05157,2.7527
623,435,11.7588,3.9704,0,0,0,0,0,0,0,-1,1847,589,11.7587,-3.97043
630,435,4.72742,-0.87561,0,0,0,0,0,0,0,-1,1854,589,4.7274,0.875636
637,435,5.05286,1.48792,0,0,0,0,0,0,0,-1,1861,589,5.05291,-1.48792
644,435,0,0,0,0,0,0,0,0,0,-1,1868,589,0,0
651,435,0,0,0,0,0,0,0,0,0,-1,1875,589,0,0
658,435,0,0,0,0,0,0,0,0,0,-1,1882,589,0,0
665,435,0,0,0,0,0,0,0,0,0,-1,1889,589,0,0
672,435,0,0,0,0,0,0,0,0,0,-1,1896,589,0,0
679,435,0,0,0,0,0,0,0,0,0,-1,1903,589,0,0
686,435,0,0,0,0,0,0,0,0,0,-1,1910,589,0,0
693,435,0,0,0,0,0,0,0,0,0,-1,1917,589,0,0
700,435,0,0,0,0,0,0,0,0,0,-1,1924,589,0,0
707,435,0,0,0,0,0,0,0,0,0,-1,1931,589,0,0
714,435,0,0,0,0,0,0,0,0,0,-1,1938,589,0,0
721,435,0,0,0,0,0,0,0,0,0,-1,1945,589,0,0
728,435,0,0,0,0,0,0,0,0,0,-1,1952,589,0,0
735,435,0,0,0,0,0,0,0,0,0,-1,1959,589,0,0
742,435,0,0,0,0,0,0,0,0,0,-1,1966,589,0,0
749,435,0,0,0,0,0,0,0,0,0,-1,1973,589,0,0
756,435,0,0,0,0,0,0,0,0,0,-1,1980,589,0,0
763,435,0,0,0,0,0,0,0,0,0,-1,1987,589,0,0
770,435,0,0,0,0,0,0,0,0,0,-1,1994,589,0,0
777,435,0,0,0,0,0,0,0,0,0,-1,2001,589,0,0
784,435,0,0,0,0,0,0,0,0,0,-1,2008,589,0,0
791,435,0,0,0,0,0,0,0,0,0,-1,2015,589,0,0
798,435,0,0,0,0,0,0,0,0,0,-1,2022,589,0,0
805,435,0,0,0,0,0,0,0,0,0,-1,2029,589,0,0
812,435,0,0,0,0,0,0,0,0,0,-1,2036,589,0,0
-700,428,0,0,0,0,0,0,0,0,0,-1,524,596,0,0
-693,428,0,0,0,0,0,0,0,0,0,-1,531,596,0,0
-686,428,0,0,0,0,0,0,0,0,0,-1,538,596,0,0
-679,428,0,0,0,0,0,0,0,0,0,-1,545,596,0,0
-672,428,0,0,0,0,0,0,0,0,0,-1,552,596,0,0
-665,428,0,0,0,0,0,0,0,0,0,-1,559,596,0,0
-658,428,0,0,0,0,0,0,0,0,0,-1,566,596,0,0
-651,428,0,0,0,0,0,0,0,0,0,-1,573,596,0,0
-644,428,0,0,0,0,0,0,0,0,0,-1,580,596,0,0
-637,428,0,0,0,0,0,0,0,0,0,-1,587,596,0,0
-630,428,0,0,0,0,0,0,0,0,0,-1,594,596,0,0
-623,428,0,0,0,0,0,0,0,0,0,-1,601,596,0,0
-616,428,0,0,0,0,0,0,0,0,0,-1,608,596,0,0
-609,428,0,0,0,0,0,0,0,0,0,-1,615,596,0,0
-602,428,0,0,0,0,0,0,0,0,0,-1,622,596,0,0
-595,428,0,0,0,0,0,0,0,0,0,-1,629,596,0,0
-588,428,0,0,0,0,0,0,0,0,0,-1,636,596,0,0
-581,428,0,0,0,0,0,0,0,0,0,-1,643,596,0,0
-574,428,0,0,0,0,0,0,0,0,0,-1,650,596,0,0
-567,428,0,0,0,0,0,0,0,0,0,-1,657,596,0,0
-560,428,0,0,0,0,0,0,0,0,0,-1,664,596,0,0
-553,428,0,0,0,0,0,0,0,0,0,-1,671,596,0,0
-546,428,0,0,0,0,0,0,0,0,0,-1,678,596,0,0
-539,428,0,0,0,0,0,0,0,0,0,-1,685,596,0,0
-532,428,0,0,0,0,0,0,0,0,0,-1,692,596,0,0
-525,428,-9.59918,7.58618,0,0,0,0,0,0,0,-1,699,596,-9.59918,-7.5862
-518,428,-2.92285,-4.81854,0,0,0,0,0,0,0,-1,706,596,-2.92285,4.81856
-511,428,-3.68811,-4.79474,0,0,0,0,0,0,0,-1,713,596,-3.68811,4.79474
-504,428,-4.45337,-4.77094,0,0,0,0,0,0,0,-1,720,596,-4.45337,4.77092
-497,428,-2.98108,-3.77502,0,0,0,0,0,0,0,-1,727,596,-2.98106,3.77505
-490,428,-6.39044,-2.80481,0,0,0,0,0,0,0,-1,734,596,-6.39047,2.80483
-483,428,-10.8474,-9.11322,0,0,0,0,0,0,0,-1,741,596,-10.8473,9.11321
-476,428,-14.2005,-15.084,0,0,0,0,0,0,0,-1,748,596,-14.2005,15.084
-469,428,-14.2159,-16.1597,-0.00589685,0.00276415,0.00323142,0.00383692,-0.00696962,1.25026,0.00632594,0.0403644,755,596,-14.2159,16.1597
-462,428,-14.4659,-17.0953,-0.00408989,0.00246059,0.00210755,0.00308009,-0.00470938,1.28491,0.00452992,0.0417383,762,596,-14.466,17.0953
-455,428,-14.6024,-18.238,-0.00256277,0.00191303,0.00130748,0.00226698,-0.00291672,1.30642,0.00300064,0.0187645,769,596,-14.6024,18.238
-448,428,-14.6452,-19.2925,-0.00131276,0.0016718,0.000573284,0.00177813,-0.00141909,1.38741,0.00184979,0.0126795,776,596,-14.6452,19.2925
-441,428,-14.7166,-20.3253,-0.000279749,0.00149459,-8.73604e-06,0.00149463,-0.000279792,-1.56587,0.00110159,0.01523,783,596,-14.7166,20.3253
-434,428,-14.7977,-21.4001,0.000524957,0.00135444,-0.000448309,0.00155043,0.000328969,-1.15866,0.000943285,0.011075,790,596,-14.7976,21.4001
-427,428,-14.8596,-22.4562,0.00120198,0.00134221,-0.000842369,0.00211738,0.000426815,-0.82692,0.00129301,0.0111535,797,596,-14.8596,22.4562
-420,428,-14.9104,-23.4405,0.00179572,0.00138128,-0.00119327,0.00279963,0.00037737,-0.699426,0.00175422,0.0122925,804,596,-14.9104,23.4405
-413,428,-14.9674,-24.4557,0.00219858,0.00140511,-0.00137215,0.0032302,0.000373494,-0.644668,0.0020404,0.0150336,811,596,-14.9674,24.4557
-406,428,-15.061,-25.4846,0.00250248,0.00147723,-0.00151791,0.00359199,0.00038772,-0.622553,0.00227645,0.0181898,818,596,-15.061,25.4846
-399,428,-15.1314,-26.5048,0.00294503,0.00160726,-0.00178065,0.00417828,0.000374008,-0.605731,0.0026696,0.0184826,825,596,-15.1314,26.5049
-392,428,-15.1415,-27.5683,0.00343121,0.00173179,-0.002042,0.00479323,0.000369767,-0.588237,0.00307964,0.0372768,832,596,-15.1415,27.5683
-385,428,-15.2319,-28.5567,0,0,0,0,0,0,0,-1,839,596,-15.2319,28.5567
-378,428,-10.8172,-20.952,0,0,0,0,0,0,0,-1,846,596,-10.8172,20.952
-371,428,-5.96155,-11.0703,0,0,0,0,0,0,0,-1,853,596,-5.96154,11.0702
-364,428,-6.33643,-10.7223,0,0,0,0,0,0,0,-1,860,596,-6.33645,10.7223
-357,428,-3.20996,-4.70966,0,0,0,0,0,0,0,-1,867,596,-3.20997,4.70965
-350,428,-1.62793,-3.94055,0,0,0,0,0,0,0,-1,874,596,-1.62794,3.94055
-343,428,-0.0567017,-4.80994,0,0,0,0,0,0,0,-1,881,596,-0.0567096,4.80996
-336,428,-3.29175,-1.39569,0,0,0,0,0,0,0,-1,888,596,-3.29172,1.39568
-329,428,-3.71564,-0.791321,0,0,0,0,0,0,0,-1,895,596,-3.71564,0.791299
-322,428,-5.52863,-3.59827,0,0,0,0,0,0,0,-1,902,596,-5.52865,3.59829
-315,428,-4.57172,-1.22052,0,0,0,0,0,0,0,-1,909,596,-4.57171,1.22052
-308,428,-5.60742,-3.40961,0,0,0,0,0,0,0,-1,916,596,-5.60744,3.40959
-301,428,0,0,0,0,0,0,0,0,0,-1,923,596,0,0
-294,428,0,0,0,0,0,0,0,0,0,-1,930,596,0,0
-287,428,0,0,0,0,0,0,0,0,0,-1,937,596,0,0
-280,428,0,0,0,0,0,0,0,0,0,-1,944,596,0,0
-273,428,0,0,0,0,0,0,0,0,0,-1,951,596,0,0
-266,428,0,0,0,0,0,0,0,0,0,-1,958,596,0,0
-259,428,0,0,0,0,0,0,0,0,0,-1,965,596,0,0
-252,428,0,0,0,0,0,0,0,0,0,-1,972,596,0,0
-245,428,0,0,0,0,0,0,0,0,0,-1,979,596,0,0
-238,428,0,0,0,0,0,0,0,0,0,-1,986,596,0,0
-231,428,0,0,0,0,0,0,0,0,0,-1,993,596,0,0
-224,428,0,0,0,0,0,0,0,0,0,-1,1000,596,0,0
-217,428,0,0,0,0,0,0,0,0,0,-1,1007,596,0,0
-210,428,0,0,0,0,0,0,0,0,0,-1,1014,596,0,0
-203,428,0,0,0,0,0,0,0,0,0,-1,1021,596,0,0
-196,428,0,0,0,0,0,0,0,0,0,-1,1028,596,0,0
-189,428,0,0,0,0,0,0,0,0,0,-1,1035,596,0,0
-182,428,0,0,0,0,0,0,0,0,0,-1,1042,596,0,0
-175,428,0,0,0,0,0,0,0,0,0,-1,1049,596,0,0
-168,428,0,0,0,0,0,0,0,0,0,-1,1056,596,0,0
-161,428,0,0,0,0,0,0,0,0,0,-1,1063,596,0,0
-154,428,0,0,0,0,0,0,0,0,0,-1,1070,596,0,0
-147,428,0,0,0,0,0,0,0,0,0,-1,1077,596,0,0
-140,428,0,0,0,0,0,0,0,0,0,-1,1084,596,0,0
-133,428,0,0,0,0,0,0,0,0,0,-1,1091,596,0,0
-126,428,0,0,0,0,0,0,0,0,0,-1,1098,596,0,0
-119,428,0,0,0,0,0,0,0,0,0,-1,1105,596,0,0
-112,428,0,0,0,0,0,0,0,0,0,-1,1112,596,0,0
-105,428,0,0,0,0,0,0,0,0,0,-1,1119,596,0,0
-98,428,0,0,0,0,0,0,0,0,0,-1,1126,596,0,0
-91,428,0,0,0,0,0,0,0,0,0,-1,1133,596,0,0
-84,428,0,0,0,0,0,0,0,0,0,-1,1140,596,0,0
-77,428,0,0,0,0,0,0,0,0,0,-1,1147,596,0,0
-70,428,0,0,0,0,0,0,0,0,0,-1,1154,596,0,0
-63,428,0,0,0,0,0,0,0,0,0,-1,1161,596,0,0
-56,428,0,0,0,0,0,0,0,0,0,-1,1168,596,0,0
-49,428,0,0,0,0,0,0,0,0,0,-1,1175,596,0,0
-42,428,0,0,0,0,0,0,0,0,0,-1,1182,596,0,0
-35,428,0,0,0,0,0,0,0,0,0,-1,1189,596,0,0
-28,428,0,0,0,0,0,0,0,0,0,-1,1196,596,0,0
-21,428,0,0,0,0,0,0,0,0,0,-1,1203,596,0,0
-14,428,0,0,0,0,0,0,0,0,0,-1,1210,596,0,0
-7,428,0,0,0,0,0,0,0,0,0,-1,1217,596,0,0
0,428,0,0,0,0,0,0,0,0,0,-1,1224,596,0,0
7,428,0,0,0,0,0,0,0,0,0,-1,1231,596,0,0
14,428,0,0,0,0,0,0,0,0,0,-1,1238,596,0,0
21,428,0,0,0,0,0,0,0,0,0,-1,1245,596,0,0
28,428,0,0,0,0,0,0,0,0,0,-1,1252,596,0,0
35,428,0,0,0,0,0,0,0,0,0,-1,1259,596,0,0
42,428,0,0,0,0,0,0,0,0,0,-1,1266,596,0,0
49,428,0,0,0,0,0,0,0,0,0,-1,1273,596,0,0
56,428,0,0,0,0,0,0,0,0,0,-1,1280,596,0,0
63,428,0,0,0,0,0,0,0,0,0,-1,1287,596,0,0
70,428,0,0,0,0,0,0,0,0,0,-1,1294,596,0,0
77,428,0,0,0,0,0,0,0,0,0,-1,1301,596,0,0
84,428,0,0,0,0,0,0,0,0,0,-1,1308,596,0,0
91,428,0,0,0,0,0,0,0,0,0,-1,1315,596,0,0
98,428,0,0,0,0,0,0,0,0,0,-1,1322,596,0,0
105,428,0,0,0,0,0,0,0,0,0,-1,1329,596,0,0
112,428,0,0,0,0,0,0,0,0,0,-1,1336,596,0,0
119,428,0,0,0,0,0,0,0,0,0,-1,1343,596,0,0
126,428,0,0,0,0,0,0,0,0,0,-1,1350,596,0,0
133,428,0,0,0,0,0,0,0,0,0,-1,1357,596,0,0
140,428,0,0,0,0,0,0,0,0,0,-1,1364,596,0,0
147,428,0,0,0,0,0,0,0,0,0,-1,1371,596,0,0
154,428,0,0,0,0,0,0,0,0,0,-1,1378,596,0,0
161,428,0,0,0,0,0,0,0,0,0,-1,1385,596,0,0
168,428,0,0,0,0,0,0,0,0,0,-1,1392,596,0,0
175,428,0,0,0,0,0,0,0,0,0,-1,1399,596,0,0
182,428,0,0,0,0,0,0,0,0,0,-1,1406,596,0,0
189,428,0,0,0,0,0,0,0,0,0,-1,1413,596,0,0
196,428,0,0,0,0,0,0,0,0,0,-1,1420,596,0,0
203,428,0,0,0,0,0,0,0,0,0,-1,1427,596,0,0
210,428,0,0,0,0,0,0,0,0,0,-1,1434,596,0,0
217,428,0,0,0,0,0,0,0,0,0,-1,1441,596,0,0
224,428,0,0,0,0,0,0,0,0,0,-1,1448,596,0,0
231,428,0,0,0,0,0,0,0,0,0,-1,1455,596,0,0
238,428,0,0,0,0,0,0,0,0,0,-1,1462,596,0,0
245,428,0,0,0,0,0,0,0,0,0,-1,1469,596,0,0
252,428,0,0,0,0,0,0,0,0,0,-1,1476,596,0,0
259,428,0,0,0,0,0,0,0,0,0,-1,1483,596,0,0
266,428,0,0,0,0,0,0,0,0,0,-1,1490,596,0,0
273,428,0,0,0,0,0,0,0,0,0,-1,1497,596,0,0
280,428,0,0,0,0,0,0,0,0,0,-1,1504,596,0,0
287,428,0,0,0,0,0,0,0,0,0,-1,1511,596,0,0
294,428,0,0,0,0,0,0,0,0,0,-1,1518,596,0,0
301,428,0,0,0,0,0,0,0,0,0,-1,1525,596,0,0
308,428,0,0,0,0,0,0,0,0,0,-1,1532,596,0,0
315,428,0,0,0,0,0,0,0,0,0,-1,1539,596,0,0
322,428,0,0,0,0,0,0,0,0,0,-1,1546,596,0,0
329,428,0,0,0,0,0,0,0,0,0,-1,1553,596,0,0
336,428,0,0,0,0,0,0,0,0,0,-1,1560,596,0,0
343,428,0,0,0,0,0,0,0,0,0,-1,1567,596,0,0
350,428,0,0,0,0,0,0,0,0,0,-1,1574,596,0,0
357,428,0,0,0,0,0,0,0,0,0,-1,1581,596,0,0
364,428,0,0,0,0,0,0,0,0,0,-1,1588,596,0,0
371,428,0,0,0,0,0,0,0,0,0,-1,1595,596,0,0
378,428,0,0,0,0,0,0,0,0,0,-1,1602,596,0,0
385,428,0,0,0,0,0,0,0,0,0,-1,1609,596,0,0
392,428,0,0,0,0,0,0,0,0,0,-1,1616,596,0,0
399,428,0,0,0,0,0,0,0,0,0,-1,1623,596,0,0
406,428,0,0,0,0,0,0,0,0,0,-1,1630,596,0,0
413,428,0,0,0,0,0,0,0,0,0,-1,1637,596,0,0
420,428,19.8469,1.3399,0,0,0,0,0,0,0,-1,1644,596,19.8469,-1.33992
427,428,20.7299,-0.225281,0,0,0,0,0,0,0,-1,1651,596,20.7299,0.225262
434,428,19.8915,-0.583069,0,0,0,0,0,0,0,-1,1658,596,19.8915,0.583075
441,428,8.17993,0.607483,0,0,0,0,0,0,0,-1,1665,596,8.17997,-0.607513
448,428,7.84338,-0.385986,0,0,0,0,0,0,0,-1,1672,596,7.84336,0.385978
455,428,6.64038,2.1123,0,0,0,0,0,0,0,-1,1679,596,6.64037,-2.11229
462,428,4.84106,4.12341,0,0,0,0,0,0,0,-1,1686,596,4.84107,-4.12339
469,428,7.83789,3.10083,0,0,0,0,0,0,0,-1,1693,596,7.83785,-3.10086
476,428,7.61255,1.73956,0,0,0,0,0,0,0,-1,1700,596,7.61252,-1.73958
483,428,7.22766,1.05121,0,0,0,0,0,0,0,-1,1707,596,7.2277,-1.05121
490,428,5.4071,-3.2793,0,0,0,0,0,0,0,-1,1714,596,5.40707,3.27929
497,428,7.84106,-3.65491,0,0,0,0,0,0,0,-1,1721,596,7.84107,3.65491
504,428,6.92139,-2.83356,0,0,0,0,0,0,0,-1,1728,596,6.92137,2.83353
511,428,7.88501,-3.78723,0,0,0,0,0,0,0,-1,1735,596,7.88502,3.78722
518,428,29.993,-26.0385,0,0,0,0,0,0,0,-1,1742,596,29.993,26.0384
525,428,32.1104,-26.4482,0,0,0,0,0,0,0,-1,1749,596,32.1103,26.4482
532,428,32.0511,-25.4377,0.00294483,-0.000236807,0.000626299,0.00306368,-0.000355653,0.18753,0.00217074,0.0249343,1756,596,32.0511,25.4378
539,428,32.0125,-24.3896,0.00262539,0.000150886,0.000706521,0.0028129,-3.66303e-05,0.259427,0.0018876,0.023252,1763,596,32.0124,24.3896
546,428,31.9457,-23.4174,0.002331,0.00055978,0.000764905,0.0026156,0.000275183,0.356198,0.00165963,0.0170689,1770,596,31.9457,23.4174
553,428,31.8822,-22.4382,0.00203954,0.0011206,0.00085488,0.00255061,0.000609543,0.538813,0.00153803,0.0119319,1777,596,31.8822,22.4382
560,428,31.8301,-21.396,0.0017571,0.00170667,0.00100179,0.00273399,0.000729783,0.772816,0.00163464,0.0128418,1784,596,31.83,21.396
567,428,31.7805,-20.3445,0.00161134,0.00244232,0.00128877,0.00338092,0.00067274,0.941335,0.00206653,0.012154,1791,596,31.7806,20.3445
574,428,31.7228,-19.3422,0.00156422,0.00327452,0.0016627,0.00428909,0.000549652,1.02292,0.00269493,0.0150205,1798,596,31.7228,19.3422
581,428,31.6097,-18.3429,0.00166525,0.00420889,0.00218926,0.00546894,0.000405201,1.04854,0.00351868,0.0133182,1805,596,31.6098,18.3429
588,428,31.5077,-17.3008,0.00193841,0.00539384,0.00291964,0.00705866,0.00027359,1.05257,0.00461728,0.0201394,1812,596,31.5077,17.3008
595,428,31.4232,-16.1879,0.0024569,0.00682701,0.00387081,0.00908691,0.000197004,1.04235,0.00599335,0.0333546,1819,596,31.4233,16.1879
602,428,31.4973,-15.0423,0,0,0,0,0,0,0,-1,1826,596,31.4973,15.0423
609,428,17.2073,-4.82446,0,0,0,0,0,0,0,-1,1833,596,17.2073,4.82447
616,428,15.7817,-3.09558,0,0,0,0,0,0,0,-1,1840,596,15.7817,3.09556
623,428,9.53577,1.12518,0,0,0,0,0,0,0,-1,1847,596,9.5358,-1.1252
630,428,7.07996,6.88562,0,0,0,0,0,0,0,-1,1854,596,7.0799,-6.88565
637,428,3.95435,1.90857,0,0,0,0,0,0,0,-1,1861,596,3.95439,-1.90858
644,428,5.75476,0.888977,0,0,0,0,0,0,0,-1,1868,596,5.75472,-0.888955
651,428,0,0,0,0,0,0,0,0,0,-1,1875,596,0,0
658,428,0,0,0,0,0,0,0,0,0,-1,1882,596,0,0
665,428,0,0,0,0,0,0,0,0,0,-1,1889,596,0,0
672,428,0,0,0,0,0,0,0,0,0,-1,1896,596,0,0
679,428,0,0,0,0,0,0,0,0,0,-1,1903,596,0,0
686,428,0,0,0,0,0,0,0,0,0,-1,1910,596,0,0
693,428,0,0,0,0,0,0,0,0,0,-1,1917,596,0,0
700,428,0,0,0,0,0,0,0,0,0,-1,1924,596,0,0
707,428,0,0,0,0,0,0,0,0,0,-1,1931,596,0,0
714,428,0,0,0,0,0,0,0,0,0,-1,1938,596,0,0
721,428,0,0,0,0,0,0,0,0,0,-1,1945,596,0,0
728,428,0,0,0,0,0,0,0,0,0,-1,1952,596,0,0
735,428,0,0,0,0,0,0,0,0,0,-1,1959,596,0,0
742,428,0,0,0,0,0,0,0,0,0,-1,1966,596,0,0
749,428,0,0,0,0,0,0,0,0,0,-1,1973,596,0,0
756,428,0,0,0,0,0,0,0,0,0,-1,1980,596,0,0
763,428,0,0,0,0,0,0,0,0,0,-1,1987,596,0,0
770,428,0,0,0,0,0,0,0,0,0,-1,1994,596,0,0
777,428,0,0,0,0,0,0,0,0,0,-1,2001,596,0,0
784,428,0,0,0,0,0,0,0,0,0,-1,2008,596,0,0
791,428,0,0,0,0,0,0,0,0,0,-1,2015,596,0,0
798,428,0,0,0,0,0,0,0,0,0,-1,2022,596,0,0
805,428,0,0,0,0,0,0,0,0,0,-1,2029,596,0,0
812,428,0,0,0,0,0,0,0,0,0,-1,2036,596,0,0
-700,421,0,0,0,0,0,0,0,0,0,-1,524,603,0,0
-693,421,0,0,0,0,0,0,0,0,0,-1,531,603,0,0
-686,421,0,0,0,0,0,0,0,0,0,-1,538,603,0,0
-679,421,0,0,0,0,0,0,0,0,0,-1,545,603,0,0
-672,421,0,0,0,0,0,0,0,0,0,-1,552,603,0,0
-665,421,0,0,0,0,0,0,0,0,0,-1,559,603,0,0
-658,421,0,0,0,0,0,0,0,0,0,-1,566,603,0,0
-651,421,0,0,0,0,0,0,0,0,0,-1,573,603,0,0
-644,421,0,0,0,0,0,0,0,0,0,-1,580,603,0,0
-637,421,0,0,0,0,0,0,0,0,0,-1,587,603,0,0
-630,421,0,0,0,0,0,0,0,0,0,-1,594,603,0,0
-623,421,0,0,0,0,0,0,0,0,0,-1,601,603,0,0
-616,421,0,0,0,0,0,0,0,0,0,-1,608,603,0,0
-609,421,0,0,0,0,0,0,0,0,0,-1,615,603,0,0
-602,421,0,0,0,0,0,0,0,0,0,-1,622,603,0,0
-595,421,0,0,0,0,0,0,0,0,0,-1,629,603,0,0
-588,421,0,0,0,0,0,0,0,0,0,-1,636,603,0,0
-581,421,0,0,0,0,0,0,0,0,0,-1,643,603,0,0
-574,421,0,0,0,0,0,0,0,0,0,-1,650,603,0,0
-567,421,0,0,0,0,0,0,0,0,0,-1,657,603,0,0
-560,421,0,0,0,0,0,0,0,0,0,-1,664,603,0,0
-553,421,0,0,0,0,0,0,0,0,0,-1,671,603,0,0
-546,421,0,0,0,0,0,0,0,0,0,-1,678,603,0,0
-539,421,0,0,0,0,0,0,0,0,0,-1,685,603,0,0
-532,421,-8.97382,6.95636,0,0,0,0,0,0,0,-1,692,603,-8.97384,-6.95634
-525,421,-2.11481,-8.04272,0,0,0,0,0,0,0,-1,699,603,-2.11483,8.0427
-518,421,-3.05908,-5.07233,0,0,0,0,0,0,0,-1,706,603,-3.0591,5.07235
-511,421,-4.63525,-4.08447,0,0,0,0,0,0,0,-1,713,603,-4.63524,4.08449
-504,421,-5.17029,-4.94458,0,0,0,0,0,0,0,-1,720,603,-5.17029,4.9446
-497,421,-6.63141,-2.32501,0,0,0,0,0,0,0,-1,727,603,-6.6314,2.32498
-490,421,-6.7616,-4.14783,0,0,0,0,0,0,0,-1,734,603,-6.76159,4.1478
-483,421,-15.0144,-14.3138,0,0,0,0,0,0,0,-1,741,603,-15.0144,14.3138
-476,421,-15.2069,-15.2153,-0.00583277,0.00240157,0.00344693,0.00365398,-0.00708518,1.22229,0.00630487,0.0492012,748,603,-15.2069,15.2153
-469,421,-15.4653,-16.022,-0.00447316,0.00203031,0.00239933,0.00281968,-0.00526253,1.25295,0.00473678,0.0402048,755,603,-15.4653,16.022
-462,421,-15.5625,-17.1895,-0.0030693,0.00166267,0.0015708,0.00213663,-0.00354326,1.27775,0.00331264,0.0245476,762,603,-15.5625,17.1895
-455,421,-15.6584,-18.2316,-0.00181097,0.00123629,0.000901758,0.00148314,-0.00205783,1.30359,0.00205334,0.0211629,769,603,-15.6584,18.2316
-448,421,-15.7184,-19.2185,-0.000701625,0.00102267,0.00028359,0.00106812,-0.000747068,1.4119,0.00105345,0.0206132,776,603,-15.7185,19.2185
-441,421,-15.7493,-20.2679,0.000280331,0.000935684,-0.000250249,0.00102031,0.000195701,-1.24469,0.000625269,0.0161126,783,603,-15.7493,20.268
-434,421,-15.8268,-21.3394,0.00108539,0.00092384,-0.00068725,0.00169659,0.000312633,-0.726901,0.00104259,0.0113897,790,603,-15.8268,21.3394
-427,421,-15.8753,-22.3668,0.001805,0.00109439,-0.00112761,0.00263196,0.000267431,-0.632775,0.00167264,0.0103053,797,603,-15.8753,22.3668
-420,421,-15.9229,-23.3513,0.00243762,0.00135555,-0.00151918,0.00350924,0.000283937,-0.614333,0.00225082,0.0117459,804,603,-15.9229,23.3512
-413,421,-15.9987,-24.3515,0.00287945,0.00170328,-0.00177804,0.00416414,0.000418589,-0.625686,0.00264762,0.0155115,811,603,-15.9987,24.3515
-406,421,-16.131,-25.4164,0.00327722,0.0022437,-0.00211591,0.00493855,0.000582363,-0.665629,0.00311644,0.0246836,818,603,-16.131,25.4164
-399,421,-16.1086,-26.4109,0,0,0,0,0,0,0,-1,825,603,-16.1086,26.4109
-392,421,-15.9491,-27.6483,0,0,0,0,0,0,0,-1,832,603,-15.9491,27.6482
-385,421,-11.5825,-18.8583,0,0,0,0,0,0,0,-1,839,603,-11.5825,18.8583
-378,421,-4.94733,-8.87909,0,0,0,0,0,0,0,-1,846,603,-4.94731,8.87906
-371,421,-5.65082,-7.01849,0,0,0,0,0,0,0,-1,853,603,-5.65082,7.0185
-364,421,-5.94189,-7.09875,0,0,0,0,0,0,0,-1,860,603,-5.94192,7.09878
-357,421,-7.62531,-8.26337,0,0,0,0,0,0,0,-1,867,603,-7.62532,8.26337
-350,421,-5.38019,-3.75024,0,0,0,0,0,0,0,-1,874,603,-5.38017,3.75026
-343,421,-6.22797,-2.57123,0,0,0,0,0,0,0,-1,881,603,-6.22798,2.57121
-336,421,-6.22882,-2.59369,0,0,0,0,0,0,0,-1,888,603,-6.22883,2.5937
-329,421,-4.50134,-1.49469,0,0,0,0,0,0,0,-1,895,603,-4.50137,1.49468
-322,421,-7.55817,1.13263,0,0,0,0,0,0,0,-1,902,603,-7.55818,-1.13263
-315,421,-4.16144,-1.96649,0,0,0,0,0,0,0,-1,909,603,-4.16146,1.9665
-308,421,0,0,0,0,0,0,0,0,0,-1,916,603,0,0
-301,421,0,0,0,0,0,0,0,0,0,-1,923,603,0,0
-294,421,0,0,0,0,0,0,0,0,0,-1,930,603,0,0
-287,421,0,0,0,0,0,0,0,0,0,-1,937,603,0,0
-280,421,0,0,0,0,0,0,0,0,0,-1,944,603,0,0
-273,421,0,0,0,0,0,0,0,0,0,-1,951,603,0,0
-266,421,0,0,0,0,0,0,0,0,0,-1,958,603,0,0
-259,421,0,0,0,0,0,0,0,0,0,-1,965,603,0,0
-252,421,0,0,0,0,0,0,0,0,0,-1,972,603,0,0
-245,421,0,0,0,0,0,0,0,0,0,-1,979,603,0,0
-238,421,0,0,0,0,0,0,0,0,0,-1,986,603,0,0
-231,421,0,0,0,0,0,0,0,0,0,-1,993,603,0,0
-224,421,0,0,0,0,0,0,0,0,0,-1,1000,603,0,0
-217,421,0,0,0,0,0,0,0,0,0,-1,1007,603,0,0
-210,421,0,0,0,0,0,0,0,0,0,-1,1014,603,0,0
-203,421,0,0,0,0,0,0,0,0,0,-1,1021,603,0,0
-196,421,0,0,0,0,0,0,0,0,0,-1,1028,603,0,0
-189,421,0,0,0,0,0,0,0,0,0,-1,1035,603,0,0
-182,421,0,0,0,0,0,0,0,0,0,-1,1042,603,0,0
-175,421,0,0,0,0,0,0,0,0,0,-1,1049,603,0,0
-168,421,0,0,0,0,0,0,0,0,0,-1,1056,603,0,0
-161,421,0,0,0,0,0,0,0,0,0,-1,1063,603,0,0
-154,421,0,0,0,0,0,0,0,0,0,-1,1070,603,0,0
-147,421,0,0,0,0,0,0,0,0,0,-1,1077,603,0,0
-140,421,0,0,0,0,0,0,0,0,0,-1,1084,603,0,0
-133,421,0,0,0,0,0,0,0,0,0,-1,1091,603,0,0
-126,421,0,0,0,0,0,0,0,0,0,-1,1098,603,0,0
-119,421,0,0,0,0,0,0,0,0,0,-1,1105,603,0,0
-112,421,0,0,0,0,0,0,0,0,0,-1,1112,603,0,0
-105,421,0,0,0,0,0,0,0,0,0,-1,1119,603,0,0
-98,421,0,0,0,0,0,0,0,0,0,-1,1126,603,0,0
-91,421,0,0,0,0,0,0,0,0,0,-1,1133,603,0,0
-84,421,0,0,0,0,0,0,0,0,0,-1,1140,603,0,0
-77,421,0,0,0,0,0,0,0,0,0,-1,1147,603,0,0
-70,421,0,0,0,0,0,0,0,0,0,-1,1154,603,0,0
-63,421,0,0,0,0,0,0,0,0,0,-1,1161,603,0,0
-56,421,0,0,0,0,0,0,0,0,0,-1,1168,603,0,0
-49,421,0,0,0,0,0,0,0,0,0,-1,1175,603,0,0
-42,421,0,0,0,0,0,0,0,0,0,-1,1182,603,0,0
-35,421,0,0,0,0,0,0,0,0,0,-1,1189,603,0,0
-28,421,0,0,0,0,0,0,0,0,0,-1,1196,603,0,0
-21,421,0,0,0,0,0,0,0,0,0,-1,1203,603,0,0
-14,421,0,0,0,0,0,0,0,0,0,-1,1210,603,0,0
-7,421,0,0,0,0,0,0,0,0,0,-1,1217,603,0,0
0,421,0,0,0,0,0,0,0,0,0,-1,1224,603,0,0
7,421,0,0,0,0,0,0,0,0,0,-1,1231,603,0,0
14,421,0,0,0,0,0,0,0,0,0,-1,1238,603,0,0
21,421,0,0,0,0,0,0,0,0,0,-1,1245,603,0,0
28,421,0,0,0,0,0,0,0,0,0,-1,1252,603,0,0
35,421,0,0,0,0,0,0,0,0,0,-1,1259,603,0,0
42,421,0,0,0,0,0,0,0,0,0,-1,1266,603,0,0
49,421,0,0,0,0,0,0,0,0,0,-1,1273,603,0,0
56,421,0,0,0,0,0,0,0,0,0,-1,1280,603,0,0
63,421,0,0,0,0,0,0,0,0,0,-1,1287,603,0,0
70,421,0,0,0,0,0,0,0,0,0,-1,1294,603,0,0
77,421,0,0,0,0,0,0,0,0,0,-1,1301,603,0,0
84,421,0,0,0,0,0,0,0,0,0,-1,1308,603,0,0
91,421,0,0,0,0,0,0,0,0,0,-1,1315,603,0,0
98,421,0,0,0,0,0,0,0,0,0,-1,1322,603,0,0
105,421,0,0,0,0,0,0,0,0,0,-1,1329,603,0,0
112,421,0,0,0,0,0,0,0,0,0,-1,1336,603,0,0
119,421,0,0,0,0,0,0,0,0,0,-1,1343,603,0,0
126,421,0,0,0,0,0,0,0,0,0,-1,1350,603,0,0
133,421,0,0,0,0,0,0,0,0,0,-1,1357,603,0,0
140,421,0,0,0,0,0,0,0,0,0,-1,1364,603,0,0
147,421,0,0,0,0,0,0,0,0,0,-1,1371,603,0,0
154,421,0,0,0,0,0,0,0,0,0,-1,1378,603,0,0
161,421,0,0,0,0,0,0,0,0,0,-1,1385,603,0,0
168,421,0,0,0,0,0,0,0,0,0,-1,1392,603,0,0
175,421,0,0,0,0,0,0,0,0,0,-1,1399,603,0,0
182,421,0,0,0,0,0,0,0,0,0,-1,1406,603,0,0
189,421,0,0,0,0,0,0,0,0,0,-1,1413,603,0,0
196,421,0,0,0,0,0,0,0,0,0,-1,1420,603,0,0
203,421,0,0,0,0,0,0,0,0,0,-1,1427,603,0,0
210,421,0,0,0,0,0,0,0,0,0,-1,1434,603,0,0
217,421,0,0,0,0,0,0,0,0,0,-1,1441,603,0,0
224,421,0,0,0,0,0,0,0,0,0,-1,1448,603,0,0
231,421,0,0,0,0,0,0,0,0,0,-1,1455,603,0,0
238,421,0,0,0,0,0,0,0,0,0,-1,1462,603,0,0
245,421,0,0,0,0,0,0,0,0,0,-1,1469,603,0,0
252,421,0,0,0,0,0,0,0,0,0,-1,1476,603,0,0
259,421,0,0,0,0,0,0,0,0,0,-1,1483,603,0,0
266,421,0,0,0,0,0,0,0,0,0,-1,1490,603,0,0
273,421,0,0,0,0,0,0,0,0,0,-1,1497,603,0,0
280,421,0,0,0,0,0,0,0,0,0,-1,1504,603,0,0
287,421,0,0,0,0,0,0,0,0,0,-1,1511,603,0,0
294,421,0,0,0,0,0,0,0,0,0,-1,1518,603,0,0
301,421,0,0,0,0,0,0,0,0,0,-1,1525,603,0,0
308,421,0,0,0,0,0,0,0,0,0,-1,1532,603,0,0
315,421,0,0,0,0,0,0,0,0,0,-1,1539,603,0,0
322,421,0,0,0,0,0,0,0,0,0,-1,1546,603,0,0
329,421,0,0,0,0,0,0,0,0,0,-1,1553,603,0,0
336,421,0,0,0,0,0,0,0,0,0,-1,1560,603,0,0
343,421,0,0,0,0,0,0,0,0,0,-1,1567,603,0,0
350,421,0,0,0,0,0,0,0,0,0,-1,1574,603,0,0
357,421,0,0,0,0,0,0,0,0,0,-1,1581,603,0,0
364,421,0,0,0,0,0,0,0,0,0,-1,1588,603,0,0
371,421,0,0,0,0,0,0,0,0,0,-1,1595,603,0,0
378,421,0,0,0,0,0,0,0,0,0,-1,1602,603,0,0
385,421,0,0,0,0,0,0,0,0,0,-1,1609,603,0,0
392,421,0,0,0,0,0,0,0,0,0,-1,1616,603,0,0
399,421,0,0,0,0,0,0,0,0,0,-1,1623,603,0,0
406,421,0,0,0,0,0,0,0,0,0,-1,1630,603,0,0
413,421,0,0,0,0,0,0,0,0,0,-1,1637,603,0,0
420,421,0,0,0,0,0,0,0,0,0,-1,1644,603,0,0
427,421,0,0,0,0,0,0,0,0,0,-1,1651,603,0,0
434,421,3.68176,-0.0327759,0,0,0,0,0,0,0,-1,1658,603,3.6818,0.0328037
441,421,8.06689,0.527832,0,0,0,0,0,0,0,-1,1665,603,8.06693,-0.527851
448,421,6.93921,0.802246,0,0,0,0,0,0,0,-1,1672,603,6.93923,-0.802251
455,421,7.29456,2.14825,0,0,0,0,0,0,0,-1,1679,603,7.29461,-2.14827
462,421,7.86902,3.53174,0,0,0,0,0,0,0,-1,1686,603,7.869,-3.53173
469,421,8.06604,2.81213,0,0,0,0,0,0,0,-1,1693,603,8.06606,-2.81212
476,421,8.26306,2.09253,0,0,0,0,0,0,0,-1,1700,603,8.26312,-2.09251
483,421,8.05322,0.798096,0,0,0,0,0,0,0,-1,1707,603,8.05323,-0.7981
490,421,7.51233,0.213074,0,0,0,0,0,0,0,-1,1714,603,7.51235,-0.213043
497,421,7.49634,-2.86688,0,0,0,0,0,0,0,-1,1721,603,7.4963,2.86688
504,421,6.90491,-2.18671,0,0,0,0,0,0,0,-1,1728,603,6.90491,2.18669
511,421,6.31348,-1.50653,0,0,0,0,0,0,0,-1,1735,603,6.31353,1.5065
518,421,6.27588,-2.49878,0,0,0,0,0,0,0,-1,1742,603,6.2759,2.4988
525,421,30.6759,-25.1779,0,0,0,0,0,0,0,-1,1749,603,30.6759,25.1779
532,421,32.9978,-25.4057,0,0,0,0,0,0,0,-1,1756,603,32.9978,25.4057
539,421,33.0316,-24.3201,0.0031427,-0.000134182,0.000666411,0.00327304,-0.000264524,0.193149,0.00227533,0.02668,1763,603,33.0316,24.32
546,421,32.9652,-23.3414,0.00276818,0.000246963,0.000679474,0.00293964,7.55044e-05,0.247181,0.00193509,0.0142833,1770,603,32.9652,23.3414
553,421,32.9025,-22.3242,0.0024175,0.000775673,0.000730113,0.0026952,0.000497967,0.363462,0.00165596,0.0143937,1777,603,32.9025,22.3241
560,421,32.8254,-21.2948,0.00205281,0.00128045,0.000831446,0.00258338,0.000749876,0.567988,0.00153463,0.0169832,1784,603,32.8254,21.2948
567,421,32.7844,-20.2771,0.00181237,0.00189536,0.0010674,0.00292207,0.000785655,0.804826,0.00174611,0.0184596,1791,603,32.7844,20.2771
574,421,32.7329,-19.2763,0.00170865,0.00262532,0.00141975,0.00365888,0.000675085,0.941532,0.00224827,0.0220673,1798,603,32.7329,19.2763
581,421,32.6478,-18.2459,0.00177133,0.00343707,0.00192946,0.00470574,0.000502651,0.989147,0.00298376,0.0242052,1805,603,32.6478,18.2459
588,421,32.5505,-17.274,0.00202019,0.00449049,0.00261966,0.00615158,0.000359104,1.00569,0.00398674,0.0158405,1812,603,32.5505,17.274
595,421,32.5322,-16.2177,0.00251981,0.00576175,0.00353325,0.00802811,0.000253448,1.00046,0.00526963,0.021366,1819,603,32.5322,16.2177
602,421,32.4996,-15.1096,0,0,0,0,0,0,0,-1,1826,603,32.4996,15.1096
609,421,22.8762,-8.37524,0,0,0,0,0,0,0,-1,1833,603,22.8762,8.37525
616,421,17.7633,-4.72491,0,0,0,0,0,0,0,-1,1840,603,17.7633,4.7249
623,421,6.19885,0.376648,0,0,0,0,0,0,0,-1,1847,603,6.19881,-0.376624
630,421,6.54993,0.778748,0,0,0,0,0,0,0,-1,1854,603,6.54991,-0.778744
637,421,3.74512,1.65405,0,0,0,0,0,0,0,-1,1861,603,3.74517,-1.65407
644,421,3.58081,0.354675,0,0,0,0,0,0,0,-1,1868,603,3.58082,-0.354704
651,421,3.28687,3.66351,0,0,0,0,0,0,0,-1,1875,603,3.28688,-3.66353
658,421,0,0,0,0,0,0,0,0,0,-1,1882,603,0,0
665,421,0,0,0,0,0,0,0,0,0,-1,1889,603,0,0
672,421,0,0,0,0,0,0,0,0,0,-1,1896,603,0,0
679,421,0,0,0,0,0,0,0,0,0,-1,1903,603,0,0
686,421,0,0,0,0,0,0,0,0,0,-1,1910,603,0,0
693,421,0,0,0,0,0,0,0,0,0,-1,1917,603,0,0
700,421,0,0,0,0,0,0,0,0,0,-1,1924,603,0,0
707,421,0,0,0,0,0,0,0,0,0,-1,1931,603,0,0
714,421,0,0,0,0,0,0,0,0,0,-1,1938,603,0,0
721,421,0,0,0,0,0,0,0,0,0,-1,1945,603,0,0
728,421,0,0,0,0,0,0,0,0,0,-1,1952,603,0,0
735,421,0,0,0,0,0,0,0,0,0,-1,1959,603,0,0
742,421,0,0,0,0,0,0,0,0,0,-1,1966,603,0,0
749,421,0,0,0,0,0,0,0,0,0,-1,1973,603,0,0
756,421,0,0,0,0,0,0,0,0,0,-1,1980,603,0,0
763,421,0,0,0,0,0,0,0,0,0,-1,1987,603,0,0
770,421,0,0,0,0,0,0,0,0,0,-1,1994,603,0,0
777,421,0,0,0,0,0,0,0,0,0,-1,2001,603,0,0
784,421,0,0,0,0,0,0,0,0,0,-1,2008,603,0,0
791,421,0,0,0,0,0,0,0,0,0,-1,2015,603,0,0
798,421,0,0,0,0,0,0,0,0,0,-1,2022,603,0,0
805,421,0,0,0,0,0,0,0,0,0,-1,2029,603,0,0
812,421,0,0,0,0,0,0,0,0,0,-1,2036,603,0,0
-700,414,0,0,0,0,0,0,0,0,0,-1,524,610,0,0
-693,414,0,0,0,0,0,0,0,0,0,-1,531,610,0,0
-686,414,0,0,0,0,0,0,0,0,0,-1,538,610,0,0
-679,414,0,0,0,0,0,0,0,0,0,-1,545,610,0,0
-672,414,0,0,0,0,0,0,0,0,0,-1,552,610,0,0
-665,414,0,0,0,0,0,0,0,0,0,-1,559,610,0,0
-658,414,0,0,0,0,0,0,0,0,0,-1,566,610,0,0
-651,414,0,0,0,0,0,0,0,0,0,-1,573,610,0,0
-644,414,0,0,0,0,0,0,0,0,0,-1,580,610,0,0
-637,414,0,0,0,0,0,0,0,0,0,-1,587,610,0,0
-630,414,0,0,0,0,0,0,0,0,0,-1,594,610,0,0
-623,414,0,0,0,0,0,0,0,0,0,-1,601,610,0,0
-616,414,0,0,0,0,0,0,0,0,0,-1,608,610,0,0
-609,414,0,0,0,0,0,0,0,0,0,-1,615,610,0,0
-602,414,0,0,0,0,0,0,0,0,0,-1,622,610,0,0
-595,414,0,0,0,0,0,0,0,0,0,-1,629,610,0,0
-588,414,0,0,0,0,0,0,0,0,0,-1,636,610,0,0
-581,414,0,0,0,0,0,0,0,0,0,-1,643,610,0,0
-574,414,0,0,0,0,0,0,0,0,0,-1,650,610,0,0
-567,414,0,0,0,0,0,0,0,0,0,-1,657,610,0,0
-560,414,0,0,0,0,0,0,0,0,0,-1,664,610,0,0
-553,414,0,0,0,0,0,0,0,0,0,-1,671,610,0,0
-546,414,0,0,0,0,0,0,0,0,0,-1,678,610,0,0
-539,414,-7.50146,5.65619,0,0,0,0,0,0,0,-1,685,610,-7.50149,-5.65617
-532,414,-8.15204,4.01605,0,0,0,0,0,0,0,-1,692,610,-8.15206,-4.01606
-525,414,-3.47137,-3.27924,0,0,0,0,0,0,0,-1,699,610,-3.47136,3.27922
-518,414,-4.12909,-4.36908,0,0,0,0,0,0,0,-1,706,610,-4.12909,4.36909
-511,414,-3.92542,-4.97021,0,0,0,0,0,0,0,-1,713,610,-3.92542,4.97023
-504,414,-9.35394,-5.49896,0,0,0,0,0,0,0,-1,720,610,-9.35394,5.49898
-497,414,-9.67627,-6.54761,0,0,0,0,0,0,0,-1,727,610,-9.6763,6.5476
-490,414,-15.2787,-11.9947,0,0,0,0,0,0,0,-1,734,610,-15.2787,11.9947
-483,414,-16.2332,-14.0799,0,0,0,0,0,0,0,-1,741,610,-16.2332,14.0799
-476,414,-16.437,-15.0735,-0.00403934,0.00194641,0.00237179,0.00277227,-0.00486519,1.23573,0.00446434,0.0276212,748,610,-16.437,15.0736
-469,414,-16.527,-16.0546,-0.00308842,0.00153809,0.00167786,0.00208253,-0.00363286,1.25704,0.00334,0.0167635,755,610,-16.527,16.0546
-462,414,-16.6008,-17.1161,-0.00200786,0.0011688,0.00106774,0.00149433,-0.00233339,1.27487,0.00222756,0.0249178,762,610,-16.6008,17.1161
-455,414,-16.6891,-18.1709,-0.000981641,0.00086822,0.000503785,0.000996521,-0.00110994,1.32142,0.00121675,0.026954,769,610,-16.6892,18.1709
-448,414,-16.7193,-19.1985,5.74277e-06,0.00070061,-3.17311e-05,0.000702056,4.29677e-06,-1.52526,0.000466612,0.0259462,776,610,-16.7193,19.1985
-441,414,-16.7612,-20.2391,0.000947854,0.000699263,-0.00054621,0.00138373,0.000263384,-0.673523,0.000848432,0.0188677,783,610,-16.7612,20.2391
-434,414,-16.8521,-21.2667,0.00177612,0.000805288,-0.00101666,0.00241731,0.000164105,-0.56267,0.00155972,0.0105554,790,610,-16.8521,21.2667
-427,414,-16.9183,-22.2785,0.00255546,0.00112859,-0.00153662,0.00353619,0.000147863,-0.568063,0.00230975,0.0108363,797,610,-16.9184,22.2785
-420,414,-16.9735,-23.2758,0.00323427,0.00157052,-0.00199097,0.00456017,0.000244626,-0.58751,0.00296194,0.010833,804,610,-16.9735,23.2757
-413,414,-17.0562,-24.3044,0.00374194,0.00221948,-0.00237228,0.00547213,0.00048929,-0.630146,0.00349642,0.0125281,811,610,-17.0562,24.3044
-406,414,-17.0837,-25.5636,0.00428349,0.00324817,-0.0029724,0.00678297,0.00074869,-0.699185,0.00429423,0.0496549,818,610,-17.0838,25.5636
-399,414,-16.9542,-26.8501,0,0,0,0,0,0,0,-1,825,610,-16.9541,26.8501
-392,414,-9.43781,-14.5624,0,0,0,0,0,0,0,-1,832,610,-9.43779,14.5624
-385,414,-8.14691,-13.0653,0,0,0,0,0,0,0,-1,839,610,-8.14692,13.0653
-378,414,-8.04907,-11.3331,0,0,0,0,0,0,0,-1,846,610,-8.04905,11.3331
-371,414,-5.20886,-8.05151,0,0,0,0,0,0,0,-1,853,610,-5.20887,8.05153
-364,414,-6.76282,-6.58759,0,0,0,0,0,0,0,-1,860,610,-6.7628,6.58756
-357,414,-9.08685,-8.86188,0,0,0,0,0,0,0,-1,867,610,-9.08688,8.86187
-350,414,-6.4502,-2.41821,0,0,0,0,0,0,0,-1,874,610,-6.45021,2.41822
-343,414,-6.80249,-2.32117,0,0,0,0,0,0,0,-1,881,610,-6.80252,2.32116
-336,414,-7.11017,-2.52026,0,0,0,0,0,0,0,-1,888,610,-7.11016,2.52026
-329,414,-7.59747,-2.70313,0,0,0,0,0,0,0,-1,895,610,-7.59747,2.70315
-322,414,-4.42236,-1.29163,0,0,0,0,0,0,0,-1,902,610,-4.42238,1.2916
-315,414,0,0,0,0,0,0,0,0,0,-1,909,610,0,0
-308,414,0,0,0,0,0,0,0,0,0,-1,916,610,0,0
-301,414,0,0,0,0,0,0,0,0,0,-1,923,610,0,0
-294,414,0,0,0,0,0,0,0,0,0,-1,930,610,0,0
-287,414,0,0,0,0,0,0,0,0,0,-1,937,610,0,0
-280,414,0,0,0,0,0,0,0,0,0,-1,944,610,0,0
-273,414,0,0,0,0,0,0,0,0,0,-1,951,610,0,0
-266,414,0,0,0,0,0,0,0,0,0,-1,958,610,0,0
-259,414,0,0,0,0,0,0,0,0,0,-1,965,610,0,0
-252,414,0,0,0,0,0,0,0,0,0,-1,972,610,0,0
-245,414,0,0,0,0,0,0,0,0,0,-1,979,610,0,0
-238,414,0,0,0,0,0,0,0,0,0,-1,986,610,0,0
-231,414,0,0,0,0,0,0,0,0,0,-1,993,610,0,0
-224,414,0,0,0,0,0,0,0,0,0,-1,1000,610,0,0
-217,414,0,0,0,0,0,0,0,0,0,-1,1007,610,0,0
-210,414,0,0,0,0,0,0,0,0,0,-1,1014,610,0,0
-203,414,0,0,0,0,0,0,0,0,0,-1,1021,610,0,0
-196,414,0,0,0,0,0,0,0,0,0,-1,1028,610,0,0
-189,414,0,0,0,0,0,0,0,0,0,-1,1035,610,0,0
-182,414,0,0,0,0,0,0,0,0,0,-1,1042,610,0,0
-175,414,0,0,0,0,0,0,0,0,0,-1,1049,610,0,0
-168,414,0,0,0,0,0,0,0,0,0,-1,1056,610,0,0
-161,414,0,0,0,0,0,0,0,0,0,-1,1063,610,0,0
-154,414,0,0,0,0,0,0,0,0,0,-1,1070,610,0,0
-147,414,0,0,0,0,0,0,0,0,0,-1,1077,610,0,0
-140,414,0,0,0,0,0,0,0,0,0,-1,1084,610,0,0
-133,414,0,0,0,0,0,0,0,0,0,-1,1091,610,0,0
-126,414,0,0,0,0,0,0,0,0,0,-1,1098,610,0,0
-119,414,0,0,0,0,0,0,0,0,0,-1,1105,610,0,0
-112,414,0,0,0,0,0,0,0,0,0,-1,1112,610,0,0
-105,414,0,0,0,0,0,0,0,0,0,-1,1119,610,0,0
-98,414,0,0,0,0,0,0,0,0,0,-1,1126,610,0,0
-91,414,0,0,0,0,0,0,0,0,0,-1,1133,610,0,0
-84,414,0,0,0,0,0,0,0,0,0,-1,1140,610,0,0
-77,414,0,0,0,0,0,0,0,0,0,-1,1147,610,0,0
-70,414,0,0,0,0,0,0,0,0,0,-1,1154,610,0,0
-63,414,0,0,0,0,0,0,0,0,0,-1,1161,610,0,0
-56,414,0,0,0,0,0,0,0,0,0,-1,1168,610,0,0
-49,414,0,0,0,0,0,0,0,0,0,-1,1175,610,0,0
-42,414,0,0,0,0,0,0,0,0,0,-1,1182,610,0,0
-35,414,0,0,0,0,0,0,0,0,0,-1,1189,610,0,0
-28,414,0,0,0,0,0,0,0,0,0,-1,1196,610,0,0
-21,414,0,0,0,0,0,0,0,0,0,-1,1203,610,0,0
-14,414,0,0,0,0,0,0,0,0,0,-1,1210,610,0,0
-7,414,0,0,0,0,0,0,0,0,0,-1,1217,610,0,0
0,414,0,0,0,0,0,0,0,0,0,-1,1224,610,0,0
7,414,0,0,0,0,0,0,0,0,0,-1,1231,610,0,0
14,414,0,0,0,0,0,0,0,0,0,-1,1238,610,0,0
21,414,0,0,0,0,0,0,0,0,0,-1,1245,610,0,0
28,414,0,0,0,0,0,0,0,0,0,-1,1252,610,0,0
35,414,0,0,0,0,0,0,0,0,0,-1,1259,610,0,0
42,414,0,0,0,0,0,0,0,0,0,-1,1266,610,0,0
49,414,0,0,0,0,0,0,0,0,0,-1,1273,610,0,0
56,414,0,0,0,0,0,0,0,0,0,-1,1280,610,0,0
63,414,0,0,0,0,0,0,0,0,0,-1,1287,610,0,0
70,414,0,0,0,0,0,0,0,0,0,-1,1294,610,0,0
77,414,0,0,0,0,0,0,0,0,0,-1,1301,610,0,0
84,414,0,0,0,0,0,0,0,0,0,-1,1308,610,0,0
91,414,0,0,0,0,0,0,0,0,0,-1,1315,610,0,0
98,414,0,0,0,0,0,0,0,0,0,-1,1322,610,0,0
105,414,0,0,0,0,0,0,0,0,0,-1,1329,610,0,0
112,414,0,0,0,0,0,0,0,0,0,-1,1336,610,0,0
119,414,0,0,0,0,0,0,0,0,0,-1,1343,610,0,0
126,414,0,0,0,0,0,0,0,0,0,-1,1350,610,0,0
133,414,0,0,0,0,0,0,0,0,0,-1,1357,610,0,0
140,414,0,0,0,0,0,0,0,0,0,-1,1364,610,0,0
147,414,0,0,0,0,0,0,0,0,0,-1,1371,610,0,0
154,414,0,0,0,0,0,0,0,0,0,-1,1378,610,0,0
161,414,0,0,0,0,0,0,0,0,0,-1,1385,610,0,0
168,414,0,0,0,0,0,0,0,0,0,-1,1392,610,0,0
175,414,0,0,0,0,0,0,0,0,0,-1,1399,610,0,0
182,414,0,0,0,0,0,0,0,0,0,-1,1406,610,0,0
189,414,0,0,0,0,0,0,0,0,0,-1,1413,610,0,0
196,414,0,0,0,0,0,0,0,0,0,-1,1420,610,0,0
203,414,0,0,0,0,0,0,0,0,0,-1,1427,610,0,0
210,414,0,0,0,0,0,0,0,0,0,-1,1434,610,0,0
217,414,0,0,0,0,0,0,0,0,0,-1,1441,610,0,0
224,414,0,0,0,0,0,0,0,0,0,-1,1448,610,0,0
231,414,0,0,0,0,0,0,0,0,0,-1,1455,610,0,0
238,414,0,0,0,0,0,0,0,0,0,-1,1462,610,0,0
245,414,0,0,0,0,0,0,0,0,0,-1,1469,610,0,0
252,414,0,0,0,0,0,0,0,0,0,-1,1476,610,0,0
259,414,0,0,0,0,0,0,0,0,0,-1,1483,610,0,0
266,414,0,0,0,0,0,0,0,0,0,-1,1490,610,0,0
273,414,0,0,0,0,0,0,0,0,0,-1,1497,610,0,0
280,414,0,0,0,0,0,0,0,0,0,-1,1504,610,0,0
287,414,0,0,0,0,0,0,0,0,0,-1,1511,610,0,0
294,414,0,0,0,0,0,0,0,0,0,-1,1518,610,0,0
301,414,0,0,0,0,0,0,0,0,0,-1,1525,610,0,0
308,414,0,0,0,0,0,0,0,0,0,-1,1532,610,0,0
315,414,0,0,0,0,0,0,0,0,0,-1,1539,610,0,0
322,414,0,0,0,0,0,0,0,0,0,-1,1546,610,0,0
329,414,0,0,0,0,0,0,0,0,0,-1,1553,610,0,0
336,414,0,0,0,0,0,0,0,0,0,-1,1560,610,0,0
343,414,0,0,0,0,0,0,0,0,0,-1,1567,610,0,0
350,414,0,0,0,0,0,0,0,0,0,-1,1574,610,0,0
357,414,0,0,0,0,0,0,0,0,0,-1,1581,610,0,0
364,414,0,0,0,0,0,0,0,0,0,-1,1588,610,0,0
371,414,0,0,0,0,0,0,0,0,0,-1,1595,610,0,0
378,414,0,0,0,0,0,0,0,0,0,-1,1602,610,0,0
385,414,0,0,0,0,0,0,0,0,0,-1,1609,610,0,0
392,414,0,0,0,0,0,0,0,0,0,-1,1616,610,0,0
399,414,0,0,0,0,0,0,0,0,0,-1,1623,610,0,0
406,414,0,0,0,0,0,0,0,0,0,-1,1630,610,0,0
413,414,0,0,0,0,0,0,0,0,0,-1,1637,610,0,0
420,414,0,0,0,0,0,0,0,0,0,-1,1644,610,0,0
427,414,0,0,0,0,0,0,0,0,0,-1,1651,610,0,0
434,414,0,0,0,0,0,0,0,0,0,-1,1658,610,0,0
441,414,7.84375,0.584412,0,0,0,0,0,0,0,-1,1665,610,7.84379,-0.584394
448,414,7.40808,1.25446,0,0,0,0,0,0,0,-1,1672,610,7.40807,-1.25446
455,414,6.3512,1.73846,0,0,0,0,0,0,0,-1,1679,610,6.3512,-1.73847
462,414,8.18103,3.22113,0,0,0,0,0,0,0,-1,1686,610,8.18108,-3.22112
469,414,8.38513,2.49579,0,0,0,0,0,0,0,-1,1693,610,8.38516,-2.49576
476,414,8.64099,1.71161,0,0,0,0,0,0,0,-1,1700,610,8.64097,-1.71164
483,414,8.62744,0.687622,0,0,0,0,0,0,0,-1,1707,610,8.62749,-0.687615
490,414,8.38831,-0.0302734,0,0,0,0,0,0,0,-1,1714,610,8.38835,0.0302913
497,414,4.71094,-0.110046,0,0,0,0,0,0,0,-1,1721,610,4.71089,0.110024
504,414,7.19568,-1.43835,0,0,0,0,0,0,0,-1,1728,610,7.19563,1.43836
511,414,5.94153,-1.28772,0,0,0,0,0,0,0,-1,1735,610,5.94151,1.28769
518,414,4.53381,-0.0996704,0,0,0,0,0,0,0,-1,1742,610,4.53378,0.0996819
525,414,6.18811,-1.64056,0,0,0,0,0,0,0,-1,1749,610,6.18814,1.64055
532,414,32.4541,-24.196,0,0,0,0,0,0,0,-1,1756,610,32.4541,24.196
539,414,34.0615,-24.2913,0,0,0,0,0,0,0,-1,1763,610,34.0615,24.2913
546,414,33.9513,-23.2701,0.00341957,0.00010725,0.000757674,0.00358466,-5.78354e-05,0.214532,0.00240928,0.0189724,1770,610,33.9513,23.2701
553,414,33.9241,-22.2607,0.00291516,0.000558633,0.000752357,0.00313488,0.000338918,0.284135,0.00198661,0.0152043,1777,610,33.924,22.2607
560,414,33.8704,-21.2343,0.00239774,0.00093642,0.000783443,0.00273836,0.000595797,0.410123,0.00166294,0.0174447,1784,610,33.8704,21.2343
567,414,33.8127,-20.1833,0.00199766,0.0013867,0.000926831,0.00266806,0.000716307,0.626207,0.0015945,0.026169,1791,610,33.8128,20.1833
574,414,33.7183,-19.1884,0.00178888,0.00199345,0.00121364,0.00310911,0.000673221,0.827438,0.00188876,0.0245868,1798,610,33.7182,19.1884
581,414,33.6628,-18.1706,0.00177074,0.00269081,0.00165668,0.00395014,0.00051141,0.92083,0.00248059,0.0226342,1805,610,33.6628,18.1706
588,414,33.6025,-17.2056,0.00194823,0.00362376,0.00225257,0.00518931,0.000382682,0.963429,0.0033393,0.0204909,1812,610,33.6026,17.2056
595,414,33.511,-16.1263,0.00238273,0.00477307,0.00305686,0.0068601,0.000295696,0.971751,0.00447809,0.020529,1819,610,33.511,16.1263
602,414,33.434,-15.0972,0.00316102,0.00628677,0.00412317,0.00913334,0.000314459,0.966555,0.00598682,0.0301459,1826,610,33.4339,15.0973
609,414,33.365,-14.0331,0,0,0,0,0,0,0,-1,1833,610,33.3649,14.0331
616,414,33.6805,-12.6179,0,0,0,0,0,0,0,-1,1840,610,33.6806,12.6179
623,414,9.6969,0.0378418,0,0,0,0,0,0,0,-1,1847,610,9.69685,-0.0378644
630,414,5.47144,0.499329,0,0,0,0,0,0,0,-1,1854,610,5.47142,-0.499303
637,414,8.36707,4.16278,0,0,0,0,0,0,0,-1,1861,610,8.36709,-4.16278
644,414,5.87073,1.51422,0,0,0,0,0,0,0,-1,1868,610,5.87076,-1.51424
651,414,3.6377,0.820557,0,0,0,0,0,0,0,-1,1875,610,3.6377,-0.820543
658,414,2.29761,3.87323,0,0,0,0,0,0,0,-1,1882,610,2.29758,-3.87325
665,414,0,0,0,0,0,0,0,0,0,-1,1889,610,0,0
672,414,0,0,0,0,0,0,0,0,0,-1,1896,610,0,0
679,414,0,0,0,0,0,0,0,0,0,-1,1903,610,0,0
686,414,0,0,0,0,0,0,0,0,0,-1,1910,610,0,0
693,414,0,0,0,0,0,0,0,0,0,-1,1917,610,0,0
700,414,0,0,0,0,0,0,0,0,0,-1,1924,610,0,0
707,414,0,0,0,0,0,0,0,0,0,-1,1931,610,0,0
714,414,0,0,0,0,0,0,0,0,0,-1,1938,610,0,0
721,414,0,0,0,0,0,0,0,0,0,-1,1945,610,0,0
728,414,0,0,0,0,0,0,0,0,0,-1,1952,610,0,0
735,414,0,0,0,0,0,0,0,0,0,-1,1959,610,0,0
742,414,0,0,0,0,0,0,0,0,0,-1,1966,610,0,0
749,414,0,0,0,0,0,0,0,0,0,-1,1973,610,0,0
756,414,0,0,0,0,0,0,0,0,0,-1,1980,610,0,0
763,414,0,0,0,0,0,0,0,0,0,-1,1987,610,0,0
770,414,0,0,0,0,0,0,0,0,0,-1,1994,610,0,0
777,414,0,0,0,0,0,0,0,0,0,-1,2001,610,0,0
784,414,0,0,0,0,0,0,0,0,0,-1,2008,610,0,0
791,414,0,0,0,0,0,0,0,0,0,-1,2015,610,0,0
798,414,0,0,0,0,0,0,0,0,0,-1,2022,610,0,0
805,414,0,0,0,0,0,0,0,0,0,-1,2029,610,0,0
812,414,0,0,0,0,0,0,0,0,0,-1,2036,610,0,0
-700,407,0,0,0,0,0,0,0,0,0,-1,524,617,0,0
-693,407,0,0,0,0,0,0,0,0,0,-1,531,617,0,0
-686,407,0,0,0,0,0,0,0,0,0,-1,538,617,0,0
-679,407,0,0,0,0,0,0,0,0,0,-1,545,617,0,0
-672,407,0,0,0,0,0,0,0,0,0,-1,552,617,0,0
-665,407,0,0,0,0,0,0,0,0,0,-1,559,617,0,0
-658,407,0,0,0,0,0,0,0,0,0,-1,566,617,0,0
-651,407,0,0,0,0,0,0,0,0,0,-1,573,617,0,0
-644,407,0,0,0,0,0,0,0,0,0,-1,580,617,0,0
-637,407,0,0,0,0,0,0,0,0,0,-1,587,617,0,0
-630,407,0,0,0,0,0,0,0,0,0,-1,594,617,0,0
-623,407,0,0,0,0,0,0,0,0,0,-1,601,617,0,0
-616,407,0,0,0,0,0,0,0,0,0,-1,608,617,0,0
-609,407,0,0,0,0,0,0,0,0,0,-1,615,617,0,0
-602,407,0,0,0,0,0,0,0,0,0,-1,622,617,0,0
-595,407,0,0,0,0,0,0,0,0,0,-1,629,617,0,0
-588,407,0,0,0,0,0,0,0,0,0,-1,636,617,0,0
-581,407,0,0,0,0,0,0,0,0,0,-1,643,617,0,0
-574,407,0,0,0,0,0,0,0,0,0,-1,650,617,0,0
-567,407,0,0,0,0,0,0,0,0,0,-1,657,617,0,0
-560,407,0,0,0,0,0,0,0,0,0,-1,664,617,0,0
-553,407,0,0,0,0,0,0,0,0,0,-1,671,617,0,0
-546,407,-8.54517,-0.658142,0,0,0,0,0,0,0,-1,678,617,-8.54515,0.658112
-539,407,-6.09442,-1.01154,0,0,0,0,0,0,0,-1,685,617,-6.09441,1.01155
-532,407,-7.75665,1.62152,0,0,0,0,0,0,0,-1,692,617,-7.75667,-1.62154
-525,407,-3.78247,-2.67639,0,0,0,0,0,0,0,-1,699,617,-3.78246,2.67638
-518,407,-5.013,-5.87323,0,0,0,0,0,0,0,-1,706,617,-5.013,5.87324
-511,407,-9.42743,-4.94189,0,0,0,0,0,0,0,-1,713,617,-9.42745,4.94191
-504,407,-10.8291,-8.05927,0,0,0,0,0,0,0,-1,720,617,-10.8291,8.05927
-497,407,-9.84467,-6.81641,0,0,0,0,0,0,0,-1,727,617,-9.84468,6.8164
-490,407,-17.5557,-12.8553,0,0,0,0,0,0,0,-1,734,617,-17.5556,12.8553
-483,407,-17.3232,-13.8942,0,0,0,0,0,0,0,-1,741,617,-17.3232,13.8942
-476,407,-17.4315,-14.9337,-0.002542,0.00148526,0.00153333,0.0020026,-0.00305934,1.24539,0.00294366,0.017337,748,617,-17.4315,14.9337
-469,407,-17.5219,-15.9466,-0.00186807,0.00112051,0.0010637,0.00146044,-0.002208,1.26148,0.00213258,0.0142008,755,617,-17.5219,15.9466
-462,407,-17.6332,-16.9908,-0.00102406,0.000794921,0.000598697,0.000974288,-0.00120343,1.27971,0.00125962,0.0210837,762,617,-17.6332,16.9908
-455,407,-17.6903,-18.0961,-0.000161174,0.000621558,9.86123e-05,0.00063379,-0.000173407,1.44738,0.000490652,0.022074,769,617,-17.6903,18.0961
-448,407,-17.686,-19.1514,0.000737417,0.000523309,-0.000390578,0.00103535,0.00022538,-0.651638,0.000628717,0.0189959,776,617,-17.686,19.1514
-441,407,-17.7914,-20.1334,0.00165732,0.000611117,-0.000907816,0.00218196,8.6475e-05,-0.524023,0.00142669,0.0148071,783,617,-17.7914,20.1334
-434,407,-17.9063,-21.1532,0.00253841,0.000838073,-0.00143569,0.00335678,1.97106e-05,-0.518078,0.00223131,0.0116457,790,617,-17.9062,21.1532
-427,407,-17.9692,-22.1734,0.00340198,0.0012844,-0.00204837,0.00464902,3.7356e-05,-0.546862,0.00308697,0.0119472,797,617,-17.9692,22.1734
-420,407,-17.9999,-23.1813,0.00414105,0.00185738,-0.00257389,0.00581501,0.00018342,-0.576629,0.003817,0.0115722,804,617,-17.9999,23.1813
-413,407,-18.0427,-24.2134,0.00473896,0.00276425,-0.00310709,0.0070118,0.000491406,-0.631556,0.00451964,0.0214779,811,617,-18.0427,24.2134
-406,407,-17.8946,-25.468,0,0,0,0,0,0,0,-1,818,617,-17.8946,25.468
-399,407,-16.5686,-23.1791,0,0,0,0,0,0,0,-1,825,617,-16.5686,23.1791
-392,407,-8.33612,-12.195,0,0,0,0,0,0,0,-1,832,617,-8.33611,12.195
-385,407,-7.65765,-10.7744,0,0,0,0,0,0,0,-1,839,617,-7.65767,10.7744
-378,407,-6.08655,-7.42291,0,0,0,0,0,0,0,-1,846,617,-6.08652,7.42292
-371,407,-7.4007,-5.79449,0,0,0,0,0,0,0,-1,853,617,-7.40072,5.79447
-364,407,-10.0638,-6.6228,0,0,0,0,0,0,0,-1,860,617,-10.0639,6.62279
-357,407,-6.64447,-1.83337,0,0,0,0,0,0,0,-1,867,617,-6.64446,1.8334
-350,407,-7.03351,-1.77551,0,0,0,0,0,0,0,-1,874,617,-7.03349,1.77551
-343,407,-7.40967,-1.95026,0,0,0,0,0,0,0,-1,881,617,-7.40969,1.95026
-336,407,-8.10229,-2.40662,0,0,0,0,0,0,0,-1,888,617,-8.10229,2.40664
-329,407,-8.81232,-2.76331,0,0,0,0,0,0,0,-1,895,617,-8.81235,2.76331
-322,407,0,0,0,0,0,0,0,0,0,-1,902,617,0,0
-315,407,0,0,0,0,0,0,0,0,0,-1,909,617,0,0
-308,407,0,0,0,0,0,0,0,0,0,-1,916,617,0,0
-301,407,0,0,0,0,0,0,0,0,0,-1,923,617,0,0
-294,407,0,0,0,0,0,0,0,0,0,-1,930,617,0,0
-287,407,0,0,0,0,0,0,0,0,0,-1,937,617,0,0
-280,407,0,0,0,0,0,0,0,0,0,-1,944,617,0,0
-273,407,0,0,0,0,0,0,0,0,0,-1,951,617,0,0
-266,407,0,0,0,0,0,0,0,0,0,-1,958,617,0,0
-259,407,0,0,0,0,0,0,0,0,0,-1,965,617,0,0
-252,407,0,0,0,0,0,0,0,0,0,-1,972,617,0,0
-245,407,0,0,0,0,0,0,0,0,0,-1,979,617,0,0
-238,407,0,0,0,0,0,0,0,0,0,-1,986,617,0,0
-231,407,0,0,0,0,0,0,0,0,0,-1,993,617,0,0
-224,407,0,0,0,0,0,0,0,0,0,-1,1000,617,0,0
-217,407,0,0,0,0,0,0,0,0,0,-1,1007,617,0,0
-210,407,0,0,0,0,0,0,0,0,0,-1,1014,617,0,0
-203,407,0,0,0,0,0,0,0,0,0,-1,1021,617,0,0
-196,407,0,0,0,0,0,0,0,0,0,-1,1028,617,0,0
-189,407,0,0,0,0,0,0,0,0,0,-1,1035,617,0,0
-182,407,0,0,0,0,0,0,0,0,0,-1,1042,617,0,0
-175,407,0,0,0,0,0,0,0,0,0,-1,1049,617,0,0
-168,407,0,0,0,0,0,0,0,0,0,-1,1056,617,0,0
-161,407,0,0,0,0,0,0,0,0,0,-1,1063,617,0,0
-154,407,0,0,0,0,0,0,0,0,0,-1,1070,617,0,0
-147,407,0,0,0,0,0,0,0,0,0,-1,1077,617,0,0
-140,407,0,0,0,0,0,0,0,0,0,-1,1084,617,0,0
-133,407,0,0,0,0,0,0,0,0,0,-1,1091,617,0,0
-126,407,0,0,0,0,0,0,0,0,0,-1,1098,617,0,0
-119,407,0,0,0,0,0,0,0,0,0,-1,1105,617,0,0
-112,407,0,0,0,0,0,0,0,0,0,-1,1112,617,0,0
-105,407,0,0,0,0,0,0,0,0,0,-1,1119,617,0,0
-98,407,0,0,0,0,0,0,0,0,0,-1,1126,617,0,0
-91,407,0,0,0,0,0,0,0,0,0,-1,1133,617,0,0
-84,407,0,0,0,0,0,0,0,0,0,-1,1140,617,0,0
-77,407,0,0,0,0,0,0,0,0,0,-1,1147,617,0,0
-70,407,0,0,0,0,0,0,0,0,0,-1,1154,617,0,0
-63,407,0,0,0,0,0,0,0,0,0,-1,1161,617,0,0
-56,407,0,0,0,0,0,0,0,0,0,-1,1168,617,0,0
-49,407,0,0,0,0,0,0,0,0,0,-1,1175,617,0,0
-42,407,0,0,0,0,0,0,0,0,0,-1,1182,617,0,0
-35,407,0,0,0,0,0,0,0,0,0,-1,1189,617,0,0
-28,407,0,0,0,0,0,0,0,0,0,-1,1196,617,0,0
-21,407,0,0,0,0,0,0,0,0,0,-1,1203,617,0,0
-14,407,0,0,0,0,0,0,0,0,0,-1,1210,617,0,0
-7,407,0,0,0,0,0,0,0,0,0,-1,1217,617,0,0
0,407,0,0,0,0,0,0,0,0,0,-1,1224,617,0,0
7,407,0,0,0,0,0,0,0,0,0,-1,1231,617,0,0
14,407,0,0,0,0,0,0,0,0,0,-1,1238,617,0,0
21,407,0,0,0,0,0,0,0,0,0,-1,1245,617,0,0
28,407,0,0,0,0,0,0,0,0,0,-1,1252,617,0,0
35,407,0,0,0,0,0,0,0,0,0,-1,1259,617,0,0
42,407,0,0,0,0,0,0,0,0,0,-1,1266,617,0,0
49,407,0,0,0,0,0,0,0,0,0,-1,1273,617,0,0
56,407,0,0,0,0,0,0,0,0,0,-1,1280,617,0,0
63,407,0,0,0,0,0,0,0,0,0,-1,1287,617,0,0
70,407,0,0,0,0,0,0,0,0,0,-1,1294,617,0,0
77,407,0,0,0,0,0,0,0,0,0,-1,1301,617,0,0
84,407,0,0,0,0,0,0,0,0,0,-1,1308,617,0,0
91,407,0,0,0,0,0,0,0,0,0,-1,1315,617,0,0
98,407,0,0,0,0,0,0,0,0,0,-1,1322,617,0,0
105,407,0,0,0,0,0,0,0,0,0,-1,1329,617,0,0
112,407,0,0,0,0,0,0,0,0,0,-1,1336,617,0,0
119,407,0,0,0,0,0,0,0,0,0,-1,1343,617,0,0
126,407,0,0,0,0,0,0,0,0,0,-1,1350,617,0,0
133,407,0,0,0,0,0,0,0,0,0,-1,1357,617,0,0
140,407,0,0,0,0,0,0,0,0,0,-1,1364,617,0,0
147,407,0,0,0,0,0,0,0,0,0,-1,1371,617,0,0
154,407,0,0,0,0,0,0,0,0,0,-1,1378,617,0,0
161,407,0,0,0,0,0,0,0,0,0,-1,1385,617,0,0
168,407,0,0,0,0,0,0,0,0,0,-1,1392,617,0,0
175,407,0,0,0,0,0,0,0,0,0,-1,1399,617,0,0
182,407,0,0,0,0,0,0,0,0,0,-1,1406,617,0,0
189,407,0,0,0,0,0,0,0,0,0,-1,1413,617,0,0
196,407,0,0,0,0,0,0,0,0,0,-1,1420,617,0,0
203,407,0,0,0,0,0,0,0,0,0,-1,1427,617,0,0
210,407,0,0,0,0,0,0,0,0,0,-1,1434,617,0,0
217,407,0,0,0,0,0,0,0,0,0,-1,1441,617,0,0
224,407,0,0,0,0,0,0,0,0,0,-1,1448,617,0,0
231,407,0,0,0,0,0,0,0,0,0,-1,1455,617,0,0
238,407,0,0,0,0,0,0,0,0,0,-1,1462,617,0,0
245,407,0,0,0,0,0,0,0,0,0,-1,1469,617,0,0
252,407,0,0,0,0,0,0,0,0,0,-1,1476,617,0,0
259,407,0,0,0,0,0,0,0,0,0,-1,1483,617,0,0
266,407,0,0,0,0,0,0,0,0,0,-1,1490,617,0,0
273,407,0,0,0,0,0,0,0,0,0,-1,1497,617,0,0
280,407,0,0,0,0,0,0,0,0,0,-1,1504,617,0,0
287,407,0,0,0,0,0,0,0,0,0,-1,1511,617,0,0
294,407,0,0,0,0,0,0,0,0,0,-1,1518,617,0,0
301,407,0,0,0,0,0,0,0,0,0,-1,1525,617,0,0
308,407,0,0,0,0,0,0,0,0,0,-1,1532,617,0,0
315,407,0,0,0,0,0,0,0,0,0,-1,1539,617,0,0
322,407,0,0,0,0,0,0,0,0,0,-1,1546,617,0,0
329,407,0,0,0,0,0,0,0,0,0,-1,1553,617,0,0
336,407,0,0,0,0,0,0,0,0,0,-1,1560,617,0,0
343,407,0,0,0,0,0,0,0,0,0,-1,1567,617,0,0
350,407,0,0,0,0,0,0,0,0,0,-1,1574,617,0,0
357,407,0,0,0,0,0,0,0,0,0,-1,1581,617,0,0
364,407,0,0,0,0,0,0,0,0,0,-1,1588,617,0,0
371,407,0,0,0,0,0,0,0,0,0,-1,1595,617,0,0
378,407,0,0,0,0,0,0,0,0,0,-1,1602,617,0,0
385,407,0,0,0,0,0,0,0,0,0,-1,1609,617,0,0
392,407,0,0,0,0,0,0,0,0,0,-1,1616,617,0,0
399,407,0,0,0,0,0,0,0,0,0,-1,1623,617,0,0
406,407,0,0,0,0,0,0,0,0,0,-1,1630,617,0,0
413,407,0,0,0,0,0,0,0,0,0,-1,1637,617,0,0
420,407,0,0,0,0,0,0,0,0,0,-1,1644,617,0,0
427,407,0,0,0,0,0,0,0,0,0,-1,1651,617,0,0
434,407,0,0,0,0,0,0,0,0,0,-1,1658,617,0,0
441,407,0,0,0,0,0,0,0,0,0,-1,1665,617,0,0
448,407,7.02893,2.13843,0,0,0,0,0,0,0,-1,1672,617,7.02899,-2.13844
455,407,7.55237,2.29242,0,0,0,0,0,0,0,-1,1679,617,7.55236,-2.29244
462,407,8.2926,2.46173,0,0,0,0,0,0,0,-1,1686,617,8.29261,-2.46174
469,407,8.71509,2.22681,0,0,0,0,0,0,0,-1,1693,617,8.71511,-2.22681
476,407,8.89917,1.47766,0,0,0,0,0,0,0,-1,1700,617,8.89914,-1.47768
483,407,9.02612,0.682983,0,0,0,0,0,0,0,-1,1707,617,9.02608,-0.683004
490,407,9.12659,0.000671387,0,0,0,0,0,0,0,-1,1714,617,9.12653,-0.000675931
497,407,7.76819,0.855835,0,0,0,0,0,0,0,-1,1721,617,7.7682,-0.855865
504,407,4.69336,0.160706,0,0,0,0,0,0,0,-1,1728,617,4.69337,-0.1607
511,407,4.07104,-0.00140381,0,0,0,0,0,0,0,-1,1735,617,4.07109,0.00141425
518,407,6.09534,1.9411,0,0,0,0,0,0,0,-1,1742,617,6.09532,-1.94113
525,407,5.72534,-1.35986,0,0,0,0,0,0,0,-1,1749,617,5.72529,1.35988
532,407,18.5767,-10.6388,0,0,0,0,0,0,0,-1,1756,617,18.5766,10.6388
539,407,34.9211,-24.2762,0,0,0,0,0,0,0,-1,1763,617,34.9212,24.2762
546,407,34.9469,-23.2282,0.00393481,0.000228768,0.000958805,0.00416818,-4.59352e-06,0.238746,0.00278032,0.0307911,1770,617,34.9469,23.2282
553,407,34.9197,-22.2264,0.00332489,0.000526117,0.000853727,0.00356475,0.000286256,0.273897,0.00228706,0.0180713,1777,617,34.9197,22.2264
560,407,34.8923,-21.1733,0.00270952,0.000721644,0.000768464,0.00297195,0.000459218,0.329076,0.00184735,0.0191217,1784,617,34.8924,21.1733
567,407,34.8193,-20.1488,0.0021889,0.000964434,0.000778016,0.00256668,0.000586647,0.452043,0.00155296,0.0333991,1791,617,34.8194,20.1488
574,407,34.7396,-19.1877,0.00191248,0.00143341,0.000981574,0.00268332,0.000662563,0.665721,0.00161401,0.0288574,1798,617,34.7397,19.1877
581,407,34.6635,-18.1136,0.00184481,0.00202199,0.00135623,0.00329253,0.00057428,0.818012,0.00203084,0.0200142,1805,617,34.6635,18.1136
588,407,34.5525,-17.1,0.00198126,0.00284384,0.00187661,0.00433808,0.000487014,0.898348,0.00274416,0.015065,1812,617,34.5525,17.1
595,407,34.5422,-16.0889,0.00236614,0.00386846,0.00259128,0.00581526,0.000419341,0.926471,0.00374489,0.0296953,1819,617,34.5422,16.0889
602,407,34.4813,-14.9739,0.00305704,0.00518811,0.00352812,0.00780808,0.000437069,0.932049,0.00506599,0.0252966,1826,617,34.4814,14.9738
609,407,34.3361,-13.9153,0.00416865,0.00688394,0.00478549,0.0105006,0.00055195,0.923617,0.00682389,0.0237063,1833,617,34.336,13.9153
616,407,34.3766,-12.7285,0.00573534,0.0090184,0.00635512,0.0139406,0.000813163,0.911786,0.00903487,0.0429613,1840,617,34.3766,12.7285
623,407,34.7107,-11.37,0,0,0,0,0,0,0,-1,1847,617,34.7107,11.37
630,407,7.06177,0.814575,0,0,0,0,0,0,0,-1,1854,617,7.06178,-0.814579
637,407,11.1063,0.391846,0,0,0,0,0,0,0,-1,1861,617,11.1063,-0.391862
644,407,5.09766,2.27747,0,0,0,0,0,0,0,-1,1868,617,5.09764,-2.27746
651,407,7.37524,0.0513916,0,0,0,0,0,0,0,-1,1875,617,7.3752,-0.0513923
658,407,3.76685,0.594177,0,0,0,0,0,0,0,-1,1882,617,3.76683,-0.594184
665,407,5.76123,0.375061,0,0,0,0,0,0,0,-1,1889,617,5.76118,-0.37509
672,407,0,0,0,0,0,0,0,0,0,-1,1896,617,0,0
679,407,0,0,0,0,0,0,0,0,0,-1,1903,617,0,0
686,407,0,0,0,0,0,0,0,0,0,-1,1910,617,0,0
693,407,0,0,0,0,0,0,0,0,0,-1,1917,617,0,0
700,407,0,0,0,0,0,0,0,0,0,-1,1924,617,0,0
707,407,0,0,0,0,0,0,0,0,0,-1,1931,617,0,0
714,407,0,0,0,0,0,0,0,0,0,-1,1938,617,0,0
721,407,0,0,0,0,0,0,0,0,0,-1,1945,617,0,0
728,407,0,0,0,0,0,0,0,0,0,-1,1952,617,0,0
735,407,0,0,0,0,0,0,0,0,0,-1,1959,617,0,0
742,407,0,0,0,0,0,0,0,0,0,-1,1966,617,0,0
749,407,0,0,0,0,0,0,0,0,0,-1,1973,617,0,0
756,407,0,0,0,0,0,0,0,0,0,-1,1980,617,0,0
763,407,0,0,0,0,0,0,0,0,0,-1,1987,617,0,0
770,407,0,0,0,0,0,0,0,0,0,-1,1994,617,0,0
777,407,0,0,0,0,0,0,0,0,0,-1,2001,617,0,0
784,407,0,0,0,0,0,0,0,0,0,-1,2008,617,0,0
791,407,0,0,0,0,0,0,0,0,0,-1,2015,617,0,0
798,407,0,0,0,0,0,0,0,0,0,-1,2022,617,0,0
805,407,0,0,0,0,0,0,0,0,0,-1,2029,617,0,0
812,407,0,0,0,0,0,0,0,0,0,-1,2036,617,0,0
-700,400,0,0,0,0,0,0,0,0,0,-1,524,624,0,0
-693,400,0,0,0,0,0,0,0,0,0,-1,531,624,0,0
-686,400,0,0,0,0,0,0,0,0,0,-1,538,624,0,0
-679,400,0,0,0,0,0,0,0,0,0,-1,545,624,0,0
-672,400,0,0,0,0,0,0,0,0,0,-1,552,624,0,0
-665,400,0,0,0,0,0,0,0,0,0,-1,559,624,0,0
-658,400,0,0,0,0,0,0,0,0,0,-1,566,624,0,0
-651,400,0,0,0,0,0,0,0,0,0,-1,573,624,0,0
-644,400,0,0,0,0,0,0,0,0,0,-1,580,624,0,0
-637,400,0,0,0,0,0,0,0,0,0,-1,587,624,0,0
-630,400,0,0,0,0,0,0,0,0,0,-1,594,624,0,0
-623,400,0,0,0,0,0,0,0,0,0,-1,601,624,0,0
-616,400,0,0,0,0,0,0,0,0,0,-1,608,624,0,0
-609,400,0,0,0,0,0,0,0,0,0,-1,615,624,0,0
-602,400,0,0,0,0,0,0,0,0,0,-1,622,624,0,0
-595,400,0,0,0,0,0,0,0,0,0,-1,629,624,0,0
-588,400,0,0,0,0,0,0,0,0,0,-1,636,624,0,0
-581,400,0,0,0,0,0,0,0,0,0,-1,643,624,0,0
-574,400,0,0,0,0,0,0,0,0,0,-1,650,624,0,0
-567,400,0,0,0,0,0,0,0,0,0,-1,657,624,0,0
-560,400,0,0,0,0,0,0,0,0,0,-1,664,624,0,0
-553,400,0,0,0,0,0,0,0,0,0,-1,671,624,0,0
-546,400,-8.41174,-1.4599,0,0,0,0,0,0,0,-1,678,624,-8.41173,1.45989
-539,400,-5.69104,-1.7337,0,0,0,0,0,0,0,-1,685,624,-5.69103,1.7337
-532,400,-3.03632,-2.03912,0,0,0,0,0,0,0,-1,692,624,-3.03632,2.03909
-525,400,-6.20813,-7.04071,0,0,0,0,0,0,0,-1,699,624,-6.20814,7.04071
-518,400,-5.26544,-1.58661,0,0,0,0,0,0,0,-1,706,624,-5.26544,1.58658
-511,400,-10.6307,-6.7121,0,0,0,0,0,0,0,-1,713,624,-10.6307,6.71209
-504,400,-10.2663,-6.55109,0,0,0,0,0,0,0,-1,720,624,-10.2663,6.55106
-497,400,-18.5311,-11.4564,0,0,0,0,0,0,0,-1,727,624,-18.5311,11.4564
-490,400,-18.3318,-12.6501,-0.00166627,0.00181198,0.0013372,0.00226664,-0.00212092,1.24305,0.00253362,0.043852,734,624,-18.3318,12.6501
-483,400,-18.3835,-13.8223,-0.00163144,0.00136472,0.00116228,0.00176273,-0.00202944,1.24088,0.00219122,0.0180067,741,624,-18.3835,13.8223
-476,400,-18.4571,-14.8441,-0.00137926,0.00105863,0.000881515,0.00134397,-0.00166461,1.25774,0.00174029,0.0150676,748,624,-18.4571,14.8441
-469,400,-18.5443,-15.8803,-0.000857737,0.000766065,0.000535336,0.00092667,-0.00101834,1.27933,0.00112337,0.0165342,755,624,-18.5443,15.8803
-462,400,-18.6313,-16.9532,-0.000162296,0.000499324,0.000153317,0.000533125,-0.000196097,1.3538,0.000435747,0.0200255,762,624,-18.6314,16.9532
-455,400,-18.6857,-18.0044,0.000609909,0.000439077,-0.000321083,0.000856743,0.000192243,-0.655396,0.000519086,0.019818,769,624,-18.6857,18.0044
-448,400,-18.7299,-19.0418,0.00146743,0.000408719,-0.000794747,0.00189298,-1.68296e-05,-0.491605,0.00126763,0.0146456,776,624,-18.7299,19.0418
-441,400,-18.8265,-20.0126,0.00239381,0.00057063,-0.00133274,0.0030969,-0.000132463,-0.485447,0.00211014,0.0138997,783,624,-18.8265,20.0127
-434,400,-18.9263,-21.0447,0.00336552,0.000917075,-0.00193812,0.00443368,-0.000151085,-0.503713,0.00300741,0.0122865,790,624,-18.9263,21.0447
-427,400,-19.0068,-22.0652,0.00435326,0.00146654,-0.00264651,0.00592441,-0.000104611,-0.535753,0.00398494,0.011518,797,624,-19.0068,22.0653
-420,400,-18.9702,-23.1327,0.00518631,0.00214688,-0.00324323,0.00724823,8.49671e-05,-0.566299,0.00480408,0.0257466,804,624,-18.9701,23.1327
-413,400,-18.9103,-24.2962,0,0,0,0,0,0,0,-1,811,624,-18.9104,24.2962
-406,400,-19.3999,-24.606,0,0,0,0,0,0,0,-1,818,624,-19.3999,24.606
-399,400,-11.0176,-13.2944,0,0,0,0,0,0,0,-1,825,624,-11.0176,13.2944
-392,400,-4.92285,-6.63354,0,0,0,0,0,0,0,-1,832,624,-4.92285,6.63354
-385,400,-3.68738,-5.04205,0,0,0,0,0,0,0,-1,839,624,-3.68736,5.04207
-378,400,-6.84064,-1.28662,0,0,0,0,0,0,0,-1,846,624,-6.84062,1.28662
-371,400,-6.98865,-1.2572,0,0,0,0,0,0,0,-1,853,624,-6.98865,1.25721
-364,400,-6.97247,-1.24133,0,0,0,0,0,0,0,-1,860,624,-6.97249,1.24135
-357,400,-7.18329,-1.23218,0,0,0,0,0,0,0,-1,867,624,-7.18327,1.2322
-350,400,-7.40186,-1.19409,0,0,0,0,0,0,0,-1,874,624,-7.40187,1.19407
-343,400,-8.09357,-1.51147,0,0,0,0,0,0,0,-1,881,624,-8.09355,1.51148
-336,400,0,0,0,0,0,0,0,0,0,-1,888,624,0,0
-329,400,0,0,0,0,0,0,0,0,0,-1,895,624,0,0
-322,400,0,0,0,0,0,0,0,0,0,-1,902,624,0,0
-315,400,0,0,0,0,0,0,0,0,0,-1,909,624,0,0
-308,400,0,0,0,0,0,0,0,0,0,-1,916,624,0,0
-301,400,0,0,0,0,0,0,0,0,0,-1,923,624,0,0
-294,400,0,0,0,0,0,0,0,0,0,-1,930,624,0,0
-287,400,0,0,0,0,0,0,0,0,0,-1,937,624,0,0
-280,400,0,0,0,0,0,0,0,0,0,-1,944,624,0,0
-273,400,0,0,0,0,0,0,0,0,0,-1,951,624,0,0
-266,400,0,0,0,0,0,0,0,0,0,-1,958,624,0,0
-259,400,0,0,0,0,0,0,0,0,0,-1,965,624,0,0
-252,400,0,0,0,0,0,0,0,0,0,-1,972,624,0,0
-245,400,0,0,0,0,0,0,0,0,0,-1,979,624,0,0
-238,400,0,0,0,0,0,0,0,0,0,-1,986,624,0,0
-231,400,0,0,0,0,0,0,0,0,0,-1,993,624,0,0
-224,400,0,0,0,0,0,0,0,0,0,-1,1000,624,0,0
-217,400,0,0,0,0,0,0,0,0,0,-1,1007,624,0,0
-210,400,0,0,0,0,0,0,0,0,0,-1,1014,624,0,0
-203,400,0,0,0,0,0,0,0,0,0,-1,1021,624,0,0
-196,400,0,0,0,0,0,0,0,0,0,-1,1028,624,0,0
-189,400,0,0,0,0,0,0,0,0,0,-1,1035,624,0,0
-182,400,0,0,0,0,0,0,0,0,0,-1,1042,624,0,0
-175,400,0,0,0,0,0,0,0,0,0,-1,1049,624,0,0
-168,400,0,0,0,0,0,0,0,0,0,-1,1056,624,0,0
-161,400,0,0,0,0,0,0,0,0,0,-1,1063,624,0,0
-154,400,0,0,0,0,0,0,0,0,0,-1,1070,624,0,0
-147,400,0,0,0,0,0,0,0,0,0,-1,1077,624,0,0
-140,400,0,0,0,0,0,0,0,0,0,-1,1084,624,0,0
-133,400,0,0,0,0,0,0,0,0,0,-1,1091,624,0,0
-126,400,0,0,0,0,0,0,0,0,0,-1,1098,624,0,0
-119,400,0,0,0,0,0,0,0,0,0,-1,1105,624,0,0
-112,400,0,0,0,0,0,0,0,0,0,-1,1112,624,0,0
-105,400,0,0,0,0,0,0,0,0,0,-1,1119,624,0,0
-98,400,0,0,0,0,0,0,0,0,0,-1,1126,624,0,0
-91,400,0,0,0,0,0,0,0,0,0,-1,1133,624,0,0
-84,400,0,0,0,0,0,0,0,0,0,-1,1140,624,0,0
-77,400,0,0,0,0,0,0,0,0,0,-1,1147,624,0,0
-70,400,0,0,0,0,0,0,0,0,0,-1,1154,624,0,0
-63,400,0,0,0,0,0,0,0,0,0,-1,1161,624,0,0
-56,400,0,0,0,0,0,0,0,0,0,-1,1168,624,0,0
-49,400,0,0,0,0,0,0,0,0,0,-1,1175,624,0,0
-42,400,0,0,0,0,0,0,0,0,0,-1,1182,624,0,0
-35,400,0,0,0,0,0,0,0,0,0,-1,1189,624,0,0
-28,400,0,0,0,0,0,0,0,0,0,-1,1196,624,0,0
-21,400,0,0,0,0,0,0,0,0,0,-1,1203,624,0,0
-14,400,0,0,0,0,0,0,0,0,0,-1,1210,624,0,0
-7,400,0,0,0,0,0,0,0,0,0,-1,1217,624,0,0
0,400,0,0,0,0,0,0,0,0,0,-1,1224,624,0,0
7,400,0,0,0,0,0,0,0,0,0,-1,1231,624,0,0
14,400,0,0,0,0,0,0,0,0,0,-1,1238,624,0,0
21,400,0,0,0,0,0,0,0,0,0,-1,1245,624,0,0
28,400,0,0,0,0,0,0,0,0,0,-1,1252,624,0,0
35,400,0,0,0,0,0,0,0,0,0,-1,1259,624,0,0
42,400,0,0,0,0,0,0,0,0,0,-1,1266,624,0,0
49,400,0,0,0,0,0,0,0,0,0,-1,1273,624,0,0
56,400,0,0,0,0,0,0,0,0,0,-1,1280,624,0,0
63,400,0,0,0,0,0,0,0,0,0,-1,1287,624,0,0
70,400,0,0,0,0,0,0,0,0,0,-1,1294,624,0,0
77,400,0,0,0,0,0,0,0,0,0,-1,1301,624,0,0
84,400,0,0,0,0,0,0,0,0,0,-1,1308,624,0,0
91,400,0,0,0,0,0,0,0,0,0,-1,1315,624,0,0
98,400,0,0,0,0,0,0,0,0,0,-1,1322,624,0,0
105,400,0,0,0,0,0,0,0,0,0,-1,1329,624,0,0
112,400,0,0,0,0,0,0,0,0,0,-1,1336,624,0,0
119,400,0,0,0,0,0,0,0,0,0,-1,1343,624,0,0
126,400,0,0,0,0,0,0,0,0,0,-1,1350,624,0,0
133,400,0,0,0,0,0,0,0,0,0,-1,1357,624,0,0
140,400,0,0,0,0,0,0,0,0,0,-1,1364,624,0,0
147,400,0,0,0,0,0,0,0,0,0,-1,1371,624,0,0
154,400,0,0,0,0,0,0,0,0,0,-1,1378,624,0,0
161,400,0,0,0,0,0,0,0,0,0,-1,1385,624,0,0
168,400,0,0,0,0,0,0,0,0,0,-1,1392,624,0,0
175,400,0,0,0,0,0,0,0,0,0,-1,1399,624,0,0
182,400,0,0,0,0,0,0,0,0,0,-1,1406,624,0,0
189,400,0,0,0,0,0,0,0,0,0,-1,1413,624,0,0
196,400,0,0,0,0,0,0,0,0,0,-1,1420,624,0,0
203,400,0,0,0,0,0,0,0,0,0,-1,1427,624,0,0
210,400,0,0,0,0,0,0,0,0,0,-1,1434,624,0,0
217,400,0,0,0,0,0,0,0,0,0,-1,1441,624,0,0
224,400,0,0,0,0,0,0,0,0,0,-1,1448,624,0,0
231,400,0,0,0,0,0,0,0,0,0,-1,1455,624,0,0
238,400,0,0,0,0,0,0,0,0,0,-1,1462,624,0,0
245,400,0,0,0,0,0,0,0,0,0,-1,1469,624,0,0
252,400,0,0,0,0,0,0,0,0,0,-1,1476,624,0,0
259,400,0,0,0,0,0,0,0,0,0,-1,1483,624,0,0
266,400,0,0,0,0,0,0,0,0,0,-1,1490,624,0,0
273,400,0,0,0,0,0,0,0,0,0,-1,1497,624,0,0
280,400,0,0,0,0,0,0,0,0,0,-1,1504,624,0,0
287,400,0,0,0,0,0,0,0,0,0,-1,1511,624,0,0
294,400,0,0,0,0,0,0,0,0,0,-1,1518,624,0,0
301,400,0,0,0,0,0,0,0,0,0,-1,1525,624,0,0
308,400,0,0,0,0,0,0,0,0,0,-1,1532,624,0,0
315,400,0,0,0,0,0,0,0,0,0,-1,1539,624,0,0
322,400,0,0,0,0,0,0,0,0,0,-1,1546,624,0,0
329,400,0,0,0,0,0,0,0,0,0,-1,1553,624,0,0
336,400,0,0,0,0,0,0,0,0,0,-1,1560,624,0,0
343,400,0,0,0,0,0,0,0,0,0,-1,1567,624,0,0
350,400,0,0,0,0,0,0,0,0,0,-1,1574,624,0,0
357,400,0,0,0,0,0,0,0,0,0,-1,1581,624,0,0
364,400,0,0,0,0,0,0,0,0,0,-1,1588,624,0,0
371,400,0,0,0,0,0,0,0,0,0,-1,1595,624,0,0
378,400,0,0,0,0,0,0,0,0,0,-1,1602,624,0,0
385,400,0,0,0,0,0,0,0,0,0,-1,1609,624,0,0
392,400,0,0,0,0,0,0,0,0,0,-1,1616,624,0,0
399,400,0,0,0,0,0,0,0,0,0,-1,1623,624,0,0
406,400,0,0,0,0,0,0,0,0,0,-1,1630,624,0,0
413,400,0,0,0,0,0,0,0,0,0,-1,1637,624,0,0
420,400,0,0,0,0,0,0,0,0,0,-1,1644,624,0,0
427,400,0,0,0,0,0,0,0,0,0,-1,1651,624,0,0
434,400,0,0,0,0,0,0,0,0,0,-1,1658,624,0,0
441,400,0,0,0,0,0,0,0,0,0,-1,1665,624,0,0
448,400,0,0,0,0,0,0,0,0,0,-1,1672,624,0,0
455,400,8.91309,2.75885,0,0,0,0,0,0,0,-1,1679,624,8.91312,-2.75885
462,400,8.90356,2.37878,0,0,0,0,0,0,0,-1,1686,624,8.90353,-2.37878
469,400,9.14429,1.76849,0,0,0,0,0,0,0,-1,1693,624,9.14432,-1.76847
476,400,9.23254,1.25995,0,0,0,0,0,0,0,-1,1700,624,9.23252,-1.25994
483,400,9.59766,0.562439,0,0,0,0,0,0,0,-1,1707,624,9.59771,-0.56242
490,400,9.92578,-0.213745,0,0,0,0,0,0,0,-1,1714,624,9.92579,0.21376
497,400,9.19141,0.175232,0,0,0,0,0,0,0,-1,1721,624,9.19138,-0.175209
504,400,9.23438,0.00823975,0,0,0,0,0,0,0,-1,1728,624,9.23436,-0.00823766
511,400,6.16687,3.3501,0,0,0,0,0,0,0,-1,1735,624,6.16682,-3.35007
518,400,6.55237,1.74994,0,0,0,0,0,0,0,-1,1742,624,6.55236,-1.74993
525,400,6.99731,1.08783,0,0,0,0,0,0,0,-1,1749,624,6.99736,-1.08785
532,400,6.96582,-1.74982,0,0,0,0,0,0,0,-1,1756,624,6.96585,1.74983
539,400,21.2305,-10.5841,0,0,0,0,0,0,0,-1,1763,624,21.2304,10.5841
546,400,35.9454,-23.1703,0,0,0,0,0,0,0,-1,1770,624,35.9454,23.1703
553,400,35.8569,-22.1993,0.00395806,0.000605492,0.000952434,0.00420975,0.000353809,0.258347,0.00269631,0.0447813,1777,624,35.857,22.1993
560,400,35.8905,-21.1015,0.00316002,0.00063991,0.000733174,0.0033578,0.00044213,0.263487,0.00210668,0.0182463,1784,624,35.8906,21.1015
567,400,35.8557,-20.0939,0.0024245,0.000680698,0.000590591,0.00260569,0.000499503,0.297685,0.00159688,0.0212314,1791,624,35.8557,20.0939
574,400,35.769,-19.0789,0.00200271,0.00102078,0.00070983,0.00237483,0.000648666,0.482841,0.00141737,0.0233563,1798,624,35.7691,19.0789
581,400,35.6466,-18.0483,0.00181948,0.00150959,0.0010188,0.00269505,0.000634018,0.709934,0.00162707,0.0237593,1805,624,35.6466,18.0483
588,400,35.5302,-16.9579,0.00186573,0.00221709,0.00147911,0.00353092,0.000551901,0.844509,0.00219325,0.0209156,1812,624,35.5301,16.9579
595,400,35.5199,-15.9184,0.00215844,0.00311065,0.00212285,0.00481014,0.000458957,0.895711,0.00306525,0.0202616,1819,624,35.5199,15.9184
602,400,35.4978,-14.9019,0.00271706,0.00422512,0.00295806,0.00652374,0.000418437,0.910194,0.00421661,0.0196569,1826,624,35.4978,14.9019
609,400,35.3301,-13.8726,0.00359238,0.0055943,0.00402658,0.00874247,0.00044421,0.907223,0.00568603,0.0178761,1833,624,35.3301,13.8726
616,400,35.2635,-12.8458,0.00482624,0.00730652,0.00534354,0.0115519,0.00058082,0.89942,0.00751517,0.0210678,1840,624,35.2635,12.8459
623,400,35.2954,-11.7556,0,0,0,0,0,0,0,-1,1847,624,35.2954,11.7556
630,400,11.9432,0.09021,0,0,0,0,0,0,0,-1,1854,624,11.9432,-0.0902007
637,400,6.92896,1.01917,0,0,0,0,0,0,0,-1,1861,624,6.92899,-1.01918
644,400,8.65381,1.4599,0,0,0,0,0,0,0,-1,1868,624,8.65379,-1.45991
651,400,7.90601,0.424072,0,0,0,0,0,0,0,-1,1875,624,7.90598,-0.424097
658,400,8.69031,1.0484,0,0,0,0,0,0,0,-1,1882,624,8.6903,-1.0484
665,400,5.98438,0.522522,0,0,0,0,0,0,0,-1,1889,624,5.98442,-0.522552
672,400,0,0,0,0,0,0,0,0,0,-1,1896,624,0,0
679,400,0,0,0,0,0,0,0,0,0,-1,1903,624,0,0
686,400,0,0,0,0,0,0,0,0,0,-1,1910,624,0,0
693,400,0,0,0,0,0,0,0,0,0,-1,1917,624,0,0
700,400,0,0,0,0,0,0,0,0,0,-1,1924,624,0,0
707,400,0,0,0,0,0,0,0,0,0,-1,1931,624,0,0
714,400,0,0,0,0,0,0,0,0,0,-1,1938,624,0,0
721,400,0,0,0,0,0,0,0,0,0,-1,1945,624,0,0
728,400,0,0,0,0,0,0,0,0,0,-1,1952,624,0,0
735,400,0,0,0,0,0,0,0,0,0,-1,1959,624,0,0
742,400,0,0,0,0,0,0,0,0,0,-1,1966,624,0,0
749,400,0,0,0,0,0,0,0,0,0,-1,1973,624,0,0
756,400,0,0,0,0,0,0,0,0,0,-1,1980,624,0,0
763,400,0,0,0,0,0,0,0,0,0,-1,1987,624,0,0
770,400,0,0,0,0,0,0,0,0,0,-1,1994,624,0,0
777,400,0,0,0,0,0,0,0,0,0,-1,2001,624,0,0
784,400,0,0,0,0,0,0,0,0,0,-1,2008,624,0,0
791,400,0,0,0,0,0,0,0,0,0,-1,2015,624,0,0
798,400,0,0,0,0,0,0,0,0,0,-1,2022,624,0,0
805,400,0,0,0,0,0,0,0,0,0,-1,2029,624,0,0
812,400,0,0,0,0,0,0,0,0,0,-1,2036,624,0,0
-700,393,0,0,0,0,0,0,0,0,0,-1,524,631,0,0
-693,393,0,0,0,0,0,0,0,0,0,-1,531,631,0,0
-686,393,0,0,0,0,0,0,0,0,0,-1,538,631,0,0
-679,393,0,0,0,0,0,0,0,0,0,-1,545,631,0,0
-672,393,0,0,0,0,0,0,0,0,0,-1,552,631,0,0
-665,393,0,0,0,0,0,0,0,0,0,-1,559,631,0,0
-658,393,0,0,0,0,0,0,0,0,0,-1,566,631,0,0
-651,393,0,0,0,0,0,0,0,0,0,-1,573,631,0,0
-644,393,0,0,0,0,0,0,0,0,0,-1,580,631,0,0
-637,393,0,0,0,0,0,0,0,0,0,-1,587,631,0,0
-630,393,0,0,0,0,0,0,0,0,0,-1,594,631,0,0
-623,393,0,0,0,0,0,0,0,0,0,-1,601,631,0,0
-616,393,0,0,0,0,0,0,0,0,0,-1,608,631,0,0
-609,393,0,0,0,0,0,0,0,0,0,-1,615,631,0,0
-602,393,0,0,0,0,0,0,0,0,0,-1,622,631,0,0
-595,393,0,0,0,0,0,0,0,0,0,-1,629,631,0,0
-588,393,0,0,0,0,0,0,0,0,0,-1,636,631,0,0
-581,393,0,0,0,0,0,0,0,0,0,-1,643,631,0,0
-574,393,0,0,0,0,0,0,0,0,0,-1,650,631,0,0
-567,393,0,0,0,0,0,0,0,0,0,-1,657,631,0,0
-560,393,0,0,0,0,0,0,0,0,0,-1,664,631,0,0
-553,393,-2.35107,3.92633,0,0,0,0,0,0,0,-1,671,631,-2.35108,-3.92634
-546,393,-1.78778,2.4856,0,0,0,0,0,0,0,-1,678,631,-1.78778,-2.48557
-539,393,-5.2113,-2.20245,0,0,0,0,0,0,0,-1,685,631,-5.21128,2.20247
-532,393,-2.83643,-2.01624,0,0,0,0,0,0,0,-1,692,631,-2.83642,2.01626
-525,393,-5.9505,-0.952698,0,0,0,0,0,0,0,-1,699,631,-5.95053,0.95268
-518,393,-5.80219,-1.57739,0,0,0,0,0,0,0,-1,706,631,-5.80219,1.57738
-511,393,-6.15527,-2.09906,0,0,0,0,0,0,0,-1,713,631,-6.15526,2.09903
-504,393,-13.6063,-6.95947,0,0,0,0,0,0,0,-1,720,631,-13.6063,6.95946
-497,393,-19.4344,-11.5074,0,0,0,0,0,0,0,-1,727,631,-19.4344,11.5074
-490,393,-19.3771,-12.6466,-0.000584888,0.00126221,0.000655129,0.00147097,-0.000793654,1.26231,0.00132683,0.0272412,734,631,-19.3772,12.6466
-483,393,-19.4052,-13.7284,-0.000616889,0.000969176,0.000555457,0.00114435,-0.000792068,1.26529,0.00112414,0.0199948,741,631,-19.4052,13.7284
-476,393,-19.4766,-14.748,-0.000435827,0.00075651,0.000352051,0.000852697,-0.000532014,1.30409,0.000806578,0.0177994,748,631,-19.4766,14.748
-469,393,-19.5695,-15.7876,-4.30282e-06,0.000546573,7.56632e-05,0.000556777,-1.45062e-05,1.43675,0.000376113,0.0142954,755,631,-19.5695,15.7876
-462,393,-19.6677,-16.8839,0.000593973,0.000340508,-0.000255192,0.000752169,0.000182313,-0.554929,0.000453072,0.0160453,762,631,-19.6677,16.8839
-455,393,-19.7427,-17.9589,0.00130337,0.000359508,-0.000709623,0.00168366,-2.07835e-05,-0.491958,0.00112943,0.0151104,769,631,-19.7428,17.9589
-448,393,-19.8165,-18.9727,0.00212929,0.000374326,-0.00117068,0.00271484,-0.000211225,-0.463792,0.00188425,0.014103,776,631,-19.8165,18.9727
-441,393,-19.8867,-19.9571,0.00306094,0.000575785,-0.00172455,0.00394394,-0.000307216,-0.473215,0.00273745,0.0133953,783,631,-19.8867,19.9571
-434,393,-19.9563,-20.9613,0.0041275,0.00102058,-0.00241135,0.00544247,-0.000294388,-0.499245,0.00373031,0.0129007,790,631,-19.9563,20.9613
-427,393,-19.9452,-22.0293,0.00523649,0.00163184,-0.00321079,0.00711622,-0.000247896,-0.529647,0.0048289,0.0276013,797,631,-19.9452,22.0293
-420,393,-19.817,-23.1895,0,0,0,0,0,0,0,-1,804,631,-19.817,23.1895
-413,393,-15.0913,-18.3777,0,0,0,0,0,0,0,-1,811,631,-15.0913,18.3777
-406,393,-11.826,-12.7987,0,0,0,0,0,0,0,-1,818,631,-11.8261,12.7987
-399,393,-5.07343,-5.92365,0,0,0,0,0,0,0,-1,825,631,-5.07344,5.92364
-392,393,-2.08063,-3.02386,0,0,0,0,0,0,0,-1,832,631,-2.08063,3.02384
-385,393,-3.16931,-0.624756,0,0,0,0,0,0,0,-1,839,631,-3.16928,0.624764
-378,393,-7.33081,-0.872314,0,0,0,0,0,0,0,-1,846,631,-7.33081,0.872325
-371,393,-7.47858,-0.811096,0,0,0,0,0,0,0,-1,853,631,-7.47859,0.811075
-364,393,-7.64917,-0.662415,0,0,0,0,0,0,0,-1,860,631,-7.64917,0.662406
-357,393,-8.09686,-0.726013,0,0,0,0,0,0,0,-1,867,631,-8.09689,0.726029
-350,393,-8.38788,-0.511841,0,0,0,0,0,0,0,-1,874,631,-8.38785,0.511811
-343,393,0,0,0,0,0,0,0,0,0,-1,881,631,0,0
-336,393,0,0,0,0,0,0,0,0,0,-1,888,631,0,0
-329,393,0,0,0,0,0,0,0,0,0,-1,895,631,0,0
-322,393,0,0,0,0,0,0,0,0,0,-1,902,631,0,0
-315,393,0,0,0,0,0,0,0,0,0,-1,909,631,0,0
-308,393,0,0,0,0,0,0,0,0,0,-1,916,631,0,0
-301,393,0,0,0,0,0,0,0,0,0,-1,923,631,0,0
-294,393,0,0,0,0,0,0,0,0,0,-1,930,631,0,0
-287,393,0,0,0,0,0,0,0,0,0,-1,937,631,0,0
-280,393,0,0,0,0,0,0,0,0,0,-1,944,631,0,0
-273,393,0,0,0,0,0,0,0,0,0,-1,951,631,0,0
-266,393,0,0,0,0,0,0,0,0,0,-1,958,631,0,0
-259,393,0,0,0,0,0,0,0,0,0,-1,965,631,0,0
-252,393,0,0,0,0,0,0,0,0,0,-1,972,631,0,0
-245,393,0,0,0,0,0,0,0,0,0,-1,979,631,0,0
-238,393,0,0,0,0,0,0,0,0,0,-1,986,631,0,0
-231,393,0,0,0,0,0,0,0,0,0,-1,993,631,0,0
-224,393,0,0,0,0,0,0,0,0,0,-1,1000,631,0,0
-217,393,0,0,0,0,0,0,0,0,0,-1,1007,631,0,0
-210,393,0,0,0,0,0,0,0,0,0,-1,1014,631,0,0
-203,393,0,0,0,0,0,0,0,0,0,-1,1021,631,0,0
-196,393,0,0,0,0,0,0,0,0,0,-1,1028,631,0,0
-189,393,0,0,0,0,0,0,0,0,0,-1,1035,631,0,0
-182,393,0,0,0,0,0,0,0,0,0,-1,1042,631,0,0
-175,393,0,0,0,0,0,0,0,0,0,-1,1049,631,0,0
-168,393,0,0,0,0,0,0,0,0,0,-1,1056,631,0,0
-161,393,0,0,0,0,0,0,0,0,0,-1,1063,631,0,0
-154,393,0,0,0,0,0,0,0,0,0,-1,1070,631,0,0
-147,393,0,0,0,0,0,0,0,0,0,-1,1077,631,0,0
-140,393,0,0,0,0,0,0,0,0,0,-1,1084,631,0,0
-133,393,0,0,0,0,0,0,0,0,0,-1,1091,631,0,0
-126,393,0,0,0,0,0,0,0,0,0,-1,1098,631,0,0
-119,393,0,0,0,0,0,0,0,0,0,-1,1105,631,0,0
-112,393,0,0,0,0,0,0,0,0,0,-1,1112,631,0,0
-105,393,0,0,0,0,0,0,0,0,0,-1,1119,631,0,0
-98,393,0,0,0,0,0,0,0,0,0,-1,1126,631,0,0
-91,393,0,0,0,0,0,0,0,0,0,-1,1133,631,0,0
-84,393,0,0,0,0,0,0,0,0,0,-1,1140,631,0,0
-77,393,0,0,0,0,0,0,0,0,0,-1,1147,631,0,0
-70,393,0,0,0,0,0,0,0,0,0,-1,1154,631,0,0
-63,393,0,0,0,0,0,0,0,0,0,-1,1161,631,0,0
-56,393,0,0,0,0,0,0,0,0,0,-1,1168,631,0,0
-49,393,0,0,0,0,0,0,0,0,0,-1,1175,631,0,0
-42,393,0,0,0,0,0,0,0,0,0,-1,1182,631,0,0
-35,393,0,0,0,0,0,0,0,0,0,-1,1189,631,0,0
-28,393,0,0,0,0,0,0,0,0,0,-1,1196,631,0,0
-21,393,0,0,0,0,0,0,0,0,0,-1,1203,631,0,0
-14,393,0,0,0,0,0,0,0,0,0,-1,1210,631,0,0
-7,393,0,0,0,0,0,0,0,0,0,-1,1217,631,0,0
0,393,0,0,0,0,0,0,0,0,0,-1,1224,631,0,0
7,393,0,0,0,0,0,0,0,0,0,-1,1231,631,0,0
14,393,0,0,0,0,0,0,0,0,0,-1,1238,631,0,0
21,393,0,0,0,0,0,0,0,0,0,-1,1245,631,0,0
28,393,0,0,0,0,0,0,0,0,0,-1,1252,631,0,0
35,393,0,0,0,0,0,0,0,0,0,-1,1259,631,0,0
42,393,0,0,0,0,0,0,0,0,0,-1,1266,631,0,0
49,393,0,0,0,0,0,0,0,0,0,-1,1273,631,0,0
56,393,0,0,0,0,0,0,0,0,0,-1,1280,631,0,0
63,393,0,0,0,0,0,0,0,0,0,-1,1287,631,0,0
70,393,0,0,0,0,0,0,0,0,0,-1,1294,631,0,0
77,393,0,0,0,0,0,0,0,0,0,-1,1301,631,0,0
84,393,0,0,0,0,0,0,0,0,0,-1,1308,631,0,0
91,393,0,0,0,0,0,0,0,0,0,-1,1315,631,0,0
98,393,0,0,0,0,0,0,0,0,0,-1,1322,631,0,0
105,393,0,0,0,0,0,0,0,0,0,-1,1329,631,0,0
112,393,0,0,0,0,0,0,0,0,0,-1,1336,631,0,0
119,393,0,0,0,0,0,0,0,0,0,-1,1343,631,0,0
126,393,0,0,0,0,0,0,0,0,0,-1,1350,631,0,0
133,393,0,0,0,0,0,0,0,0,0,-1,1357,631,0,0
140,393,0,0,0,0,0,0,0,0,0,-1,1364,631,0,0
147,393,0,0,0,0,0,0,0,0,0,-1,1371,631,0,0
154,393,0,0,0,0,0,0,0,0,0,-1,1378,631,0,0
161,393,0,0,0,0,0,0,0,0,0,-1,1385,631,0,0
168,393,0,0,0,0,0,0,0,0,0,-1,1392,631,0,0
175,393,0,0,0,0,0,0,0,0,0,-1,1399,631,0,0
182,393,0,0,0,0,0,0,0,0,0,-1,1406,631,0,0
189,393,0,0,0,0,0,0,0,0,0,-1,1413,631,0,0
196,393,0,0,0,0,0,0,0,0,0,-1,1420,631,0,0
203,393,0,0,0,0,0,0,0,0,0,-1,1427,631,0,0
210,393,0,0,0,0,0,0,0,0,0,-1,1434,631,0,0
217,393,0,0,0,0,0,0,0,0,0,-1,1441,631,0,0
224,393,0,0,0,0,0,0,0,0,0,-1,1448,631,0,0
231,393,0,0,0,0,0,0,0,0,0,-1,1455,631,0,0
238,393,0,0,0,0,0,0,0,0,0,-1,1462,631,0,0
245,393,0,0,0,0,0,0,0,0,0,-1,1469,631,0,0
252,393,0,0,0,0,0,0,0,0,0,-1,1476,631,0,0
259,393,0,0,0,0,0,0,0,0,0,-1,1483,631,0,0
266,393,0,0,0,0,0,0,0,0,0,-1,1490,631,0,0
273,393,0,0,0,0,0,0,0,0,0,-1,1497,631,0,0
280,393,0,0,0,0,0,0,0,0,0,-1,1504,631,0,0
287,393,0,0,0,0,0,0,0,0,0,-1,1511,631,0,0
294,393,0,0,0,0,0,0,0,0,0,-1,1518,631,0,0
301,393,0,0,0,0,0,0,0,0,0,-1,1525,631,0,0
308,393,0,0,0,0,0,0,0,0,0,-1,1532,631,0,0
315,393,0,0,0,0,0,0,0,0,0,-1,1539,631,0,0
322,393,0,0,0,0,0,0,0,0,0,-1,1546,631,0,0
329,393,0,0,0,0,0,0,0,0,0,-1,1553,631,0,0
336,393,0,0,0,0,0,0,0,0,0,-1,1560,631,0,0
343,393,0,0,0,0,0,0,0,0,0,-1,1567,631,0,0
350,393,0,0,0,0,0,0,0,0,0,-1,1574,631,0,0
357,393,0,0,0,0,0,0,0,0,0,-1,1581,631,0,0
364,393,0,0,0,0,0,0,0,0,0,-1,1588,631,0,0
371,393,0,0,0,0,0,0,0,0,0,-1,1595,631,0,0
378,393,0,0,0,0,0,0,0,0,0,-1,1602,631,0,0
385,393,0,0,0,0,0,0,0,0,0,-1,1609,631,0,0
392,393,0,0,0,0,0,0,0,0,0,-1,1616,631,0,0
399,393,0,0,0,0,0,0,0,0,0,-1,1623,631,0,0
406,393,0,0,0,0,0,0,0,0,0,-1,1630,631,0,0
413,393,0,0,0,0,0,0,0,0,0,-1,1637,631,0,0
420,393,0,0,0,0,0,0,0,0,0,-1,1644,631,0,0
427,393,0,0,0,0,0,0,0,0,0,-1,1651,631,0,0
434,393,0,0,0,0,0,0,0,0,0,-1,1658,631,0,0
441,393,0,0,0,0,0,0,0,0,0,-1,1665,631,0,0
448,393,0,0,0,0,0,0,0,0,0,-1,1672,631,0,0
455,393,0,0,0,0,0,0,0,0,0,-1,1679,631,0,0
462,393,8.51099,1.89502,0,0,0,0,0,0,0,-1,1686,631,8.51103,-1.89504
469,393,9.39465,1.51703,0,0,0,0,0,0,0,-1,1693,631,9.39465,-1.51703
476,393,9.95569,1.185,0,0,0,0,0,0,0,-1,1700,631,9.95575,-1.18497
483,393,10.5267,0.887329,0,0,0,0,0,0,0,-1,1707,631,10.5267,-0.887321
490,393,10.9303,0.761414,0,0,0,0,0,0,0,-1,1714,631,10.9303,-0.761386
497,393,8.32153,1.88104,0,0,0,0,0,0,0,-1,1721,631,8.32148,-1.88103
504,393,9.46985,1.78711,0,0,0,0,0,0,0,-1,1728,631,9.46986,-1.78713
511,393,9.66565,-0.375977,0,0,0,0,0,0,0,-1,1735,631,9.66571,0.375949
518,393,7.01599,1.62482,0,0,0,0,0,0,0,-1,1742,631,7.01597,-1.62483
525,393,7.88245,-1.13422,0,0,0,0,0,0,0,-1,1749,631,7.88246,1.13423
532,393,7.06335,-1.18103,0,0,0,0,0,0,0,-1,1756,631,7.06332,1.18101
539,393,9.91626,-2.46301,0,0,0,0,0,0,0,-1,1763,631,9.91625,2.46302
546,393,16.4094,-8.04651,0,0,0,0,0,0,0,-1,1770,631,16.4094,8.04649
553,393,36.725,-22.2242,0,0,0,0,0,0,0,-1,1777,631,36.7249,22.2242
560,393,36.854,-21.0955,0.00352685,0.000585591,0.000669935,0.00367225,0.000440187,0.213727,0.00231543,0.0445054,1784,631,36.854,21.0955
567,393,36.8518,-20.0033,0.00251081,0.000381736,0.000348963,0.00256654,0.000325999,0.158385,0.00161338,0.0181331,1791,631,36.8518,20.0033
574,393,36.7976,-18.9848,0.0019217,0.000573949,0.000374782,0.0020189,0.000476741,0.25378,0.00121852,0.0173983,1798,631,36.7976,18.9848
581,393,36.6591,-17.9316,0.00162444,0.000973941,0.00061458,0.00199453,0.00060385,0.542024,0.00118103,0.019511,1805,631,36.659,17.9317
588,393,36.5916,-16.8347,0.00161566,0.0015854,0.00102239,0.00262303,0.00057803,0.777997,0.0015914,0.0233366,1812,631,36.5916,16.8347
595,393,36.5824,-15.8677,0.00187646,0.00238266,0.00160783,0.00375719,0.000501937,0.863467,0.00235538,0.0200664,1819,631,36.5824,15.8677
602,393,36.5095,-14.8916,0.00238788,0.00335792,0.00236479,0.00528691,0.000458883,0.886546,0.00338204,0.0210493,1826,631,36.5095,14.8916
609,393,36.3824,-13.8569,0.0031402,0.00452793,0.0032876,0.00719409,0.00047404,0.889399,0.00464611,0.0181379,1833,631,36.3825,13.8569
616,393,36.308,-12.8149,0.00412304,0.00597906,0.00435565,0.00950447,0.000597638,0.890358,0.00614679,0.0166675,1840,631,36.308,12.8149
623,393,36.2859,-11.6278,0.00524298,0.00754337,0.00552208,0.0120338,0.000752579,0.888075,0.00778379,0.0382893,1847,631,36.2859,11.6278
630,393,36.314,-10.3262,0,0,0,0,0,0,0,-1,1854,631,36.314,10.3262
637,393,11.4626,0.608887,0,0,0,0,0,0,0,-1,1861,631,11.4627,-0.608904
644,393,8.97583,1.30585,0,0,0,0,0,0,0,-1,1868,631,8.97586,-1.30584
651,393,11.348,0.53302,0,0,0,0,0,0,0,-1,1875,631,11.348,-0.53305
658,393,9.21338,1.50836,0,0,0,0,0,0,0,-1,1882,631,9.21338,-1.50834
665,393,6.1001,2.32129,0,0,0,0,0,0,0,-1,1889,631,6.10012,-2.3213
672,393,7.14575,2.43225,0,0,0,0,0,0,0,-1,1896,631,7.14572,-2.43222
679,393,0,0,0,0,0,0,0,0,0,-1,1903,631,0,0
686,393,0,0,0,0,0,0,0,0,0,-1,1910,631,0,0
693,393,0,0,0,0,0,0,0,0,0,-1,1917,631,0,0
700,393,0,0,0,0,0,0,0,0,0,-1,1924,631,0,0
707,393,0,0,0,0,0,0,0,0,0,-1,1931,631,0,0
714,393,0,0,0,0,0,0,0,0,0,-1,1938,631,0,0
721,393,0,0,0,0,0,0,0,0,0,-1,1945,631,0,0
728,393,0,0,0,0,0,0,0,0,0,-1,1952,631,0,0
735,393,0,0,0,0,0,0,0,0,0,-1,1959,631,0,0
742,393,0,0,0,0,0,0,0,0,0,-1,1966,631,0,0
749,393,0,0,0,0,0,0,0,0,0,-1,1973,631,0,0
756,393,0,0,0,0,0,0,0,0,0,-1,1980,631,0,0
763,393,0,0,0,0,0,0,0,0,0,-1,1987,631,0,0
770,393,0,0,0,0,0,0,0,0,0,-1,1994,631,0,0
777,393,0,0,0,0,0,0,0,0,0,-1,2001,631,0,0
784,393,0,0,0,0,0,0,0,0,0,-1,2008,631,0,0
791,393,0,0,0,0,0,0,0,0,0,-1,2015,631,0,0
798,393,0,0,0,0,0,0,0,0,0,-1,2022,631,0,0
805,393,0,0,0,0,0,0,0,0,0,-1,2029,631,0,0
812,393,0,0,0,0,0,0,0,0,0,-1,2036,631,0,0
-700,386,0,0,0,0,0,0,0,0,0,-1,524,638,0,0
-693,386,0,0,0,0,0,0,0,0,0,-1,531,638,0,0
-686,386,0,0,0,0,0,0,0,0,0,-1,538,638,0,0
-679,386,0,0,0,0,0,0,0,0,0,-1,545,638,0,0
-672,386,0,0,0,0,0,0,0,0,0,-1,552,638,0,0
-665,386,0,0,0,0,0,0,0,0,0,-1,559,638,0,0
-658,386,0,0,0,0,0,0,0,0,0,-1,566,638,0,0
-651,386,0,0,0,0,0,0,0,0,0,-1,573,638,0,0
-644,386,0,0,0,0,0,0,0,0,0,-1,580,638,0,0
-637,386,0,0,0,0,0,0,0,0,0,-1,587,638,0,0
-630,386,0,0,0,0,0,0,0,0,0,-1,594,638,0,0
-623,386,0,0,0,0,0,0,0,0,0,-1,601,638,0,0
-616,386,0,0,0,0,0,0,0,0,0,-1,608,638,0,0
-609,386,0,0,0,0,0,0,0,0,0,-1,615,638,0,0
-602,386,0,0,0,0,0,0,0,0,0,-1,622,638,0,0
-595,386,0,0,0,0,0,0,0,0,0,-1,629,638,0,0
-588,386,0,0,0,0,0,0,0,0,0,-1,636,638,0,0
-581,386,0,0,0,0,0,0,0,0,0,-1,643,638,0,0
-574,386,0,0,0,0,0,0,0,0,0,-1,650,638,0,0
-567,386,0,0,0,0,0,0,0,0,0,-1,657,638,0,0
-560,386,-3.97229,-5.13898,0,0,0,0,0,0,0,-1,664,638,-3.97232,5.13897
-553,386,-4.94244,-5.54309,0,0,0,0,0,0,0,-1,671,638,-4.94242,5.5431
-546,386,-1.78668,1.72827,0,0,0,0,0,0,0,-1,678,638,-1.78668,-1.72829
-539,386,-0.879456,-2.90009,0,0,0,0,0,0,0,-1,685,638,-0.879442,2.90008
-532,386,-5.4884,1.73328,0,0,0,0,0,0,0,-1,692,638,-5.4884,-1.73325
-525,386,-6.64148,-1.50604,0,0,0,0,0,0,0,-1,699,638,-6.64149,1.50603
-518,386,-11.1217,-4.10382,0,0,0,0,0,0,0,-1,706,638,-11.1217,4.1038
-511,386,-13.0612,-5.05151,0,0,0,0,0,0,0,-1,713,638,-13.0612,5.05149
-504,386,-20.1487,-10.2998,0,0,0,0,0,0,0,-1,720,638,-20.1487,10.2998
-497,386,-20.3234,-11.6601,0,0,0,0,0,0,0,-1,727,638,-20.3234,11.6601
-490,386,-20.3933,-12.6768,0.000215063,0.000881504,0.000190682,0.000932205,0.000164362,1.31092,0.000574573,0.0142087,734,638,-20.3933,12.6767
-483,386,-20.4534,-13.7022,0.000142192,0.00068972,0.000146019,0.000726227,0.000105684,1.3258,0.000453051,0.0169203,741,638,-20.4534,13.7022
-476,386,-20.5188,-14.7188,0.000277462,0.00053877,-6.43712e-06,0.000538928,0.000277304,-1.54618,0.000311194,0.0160647,748,638,-20.5188,14.7188
-469,386,-20.6194,-15.7345,0.000636886,0.0003843,-0.000237135,0.000779261,0.000241924,-0.540714,0.000460557,0.0126067,755,638,-20.6194,15.7345
-462,386,-20.7081,-16.8118,0.00116635,0.000232491,-0.000546078,0.00141791,-1.90675e-05,-0.431687,0.00095169,0.0121651,762,638,-20.7081,16.8118
-455,386,-20.7825,-17.8852,0.00184479,0.000304769,-0.00100238,0.00233877,-0.000189213,-0.45788,0.00162592,0.0144013,769,638,-20.7826,17.8852
-448,386,-20.8549,-18.8901,0.00267114,0.000365464,-0.00148912,0.00340152,-0.000364916,-0.456001,0.00239859,0.0142197,776,638,-20.8549,18.8901
-441,386,-20.9235,-19.8911,0.00364766,0.000611504,-0.00210885,0.00472801,-0.000468844,-0.473433,0.00331934,0.014763,783,638,-20.9235,19.8911
-434,386,-20.9373,-20.9816,0.004872,0.00118797,-0.00294485,0.00650348,-0.00044351,-0.505917,0.0044908,0.0333386,790,638,-20.9373,20.9817
-427,386,-20.8975,-22.1771,0,0,0,0,0,0,0,-1,797,638,-20.8975,22.177
-420,386,-14.5338,-16.0451,0,0,0,0,0,0,0,-1,804,638,-14.5338,16.0451
-413,386,-5.45691,-5.35785,0,0,0,0,0,0,0,-1,811,638,-5.45691,5.35783
-406,386,-4.51135,-4.10999,0,0,0,0,0,0,0,-1,818,638,-4.51135,4.10996
-399,386,-3.57117,-3.42126,0,0,0,0,0,0,0,-1,825,638,-3.57116,3.42129
-392,386,-4.00977,0.403625,0,0,0,0,0,0,0,-1,832,638,-4.0098,-0.403616
-385,386,-3.2406,-0.118469,0,0,0,0,0,0,0,-1,839,638,-3.24058,0.118485
-378,386,-2.55243,-1.22748,0,0,0,0,0,0,0,-1,846,638,-2.55243,1.22748
-371,386,-7.95807,-0.330261,0,0,0,0,0,0,0,-1,853,638,-7.95806,0.330284
-364,386,-8.90637,-0.665955,0,0,0,0,0,0,0,-1,860,638,-8.90635,0.665951
-357,386,-9.10364,-0.388733,0,0,0,0,0,0,0,-1,867,638,-9.10364,0.388744
-350,386,0,0,0,0,0,0,0,0,0,-1,874,638,0,0
-343,386,0,0,0,0,0,0,0,0,0,-1,881,638,0,0
-336,386,0,0,0,0,0,0,0,0,0,-1,888,638,0,0
-329,386,0,0,0,0,0,0,0,0,0,-1,895,638,0,0
-322,386,0,0,0,0,0,0,0,0,0,-1,902,638,0,0
-315,386,0,0,0,0,0,0,0,0,0,-1,909,638,0,0
-308,386,0,0,0,0,0,0,0,0,0,-1,916,638,0,0
-301,386,0,0,0,0,0,0,0,0,0,-1,923,638,0,0
-294,386,0,0,0,0,0,0,0,0,0,-1,930,638,0,0
-287,386,0,0,0,0,0,0,0,0,0,-1,937,638,0,0
-280,386,0,0,0,0,0,0,0,0,0,-1,944,638,0,0
-273,386,0,0,0,0,0,0,0,0,0,-1,951,638,0,0
-266,386,0,0,0,0,0,0,0,0,0,-1,958,638,0,0
-259,386,0,0,0,0,0,0,0,0,0,-1,965,638,0,0
-252,386,0,0,0,0,0,0,0,0,0,-1,972,638,0,0
-245,386,0,0,0,0,0,0,0,0,0,-1,979,638,0,0
-238,386,0,0,0,0,0,0,0,0,0,-1,986,638,0,0
-231,386,0,0,0,0,0,0,0,0,0,-1,993,638,0,0
-224,386,0,0,0,0,0,0,0,0,0,-1,1000,638,0,0
-217,386,0,0,0,0,0,0,0,0,0,-1,1007,638,0,0
-210,386,0,0,0,0,0,0,0,0,0,-1,1014,638,0,0
-203,386,0,0,0,0,0,0,0,0,0,-1,1021,638,0,0
-196,386,0,0,0,0,0,0,0,0,0,-1,1028,638,0,0
-189,386,0,0,0,0,0,0,0,0,0,-1,1035,638,0,0
-182,386,0,0,0,0,0,0,0,0,0,-1,1042,638,0,0
-175,386,0,0,0,0,0,0,0,0,0,-1,1049,638,0,0
-168,386,0,0,0,0,0,0,0,0,0,-1,1056,638,0,0
-161,386,0,0,0,0,0,0,0,0,0,-1,1063,638,0,0
-154,386,0,0,0,0,0,0,0,0,0,-1,1070,638,0,0
-147,386,0,0,0,0,0,0,0,0,0,-1,1077,638,0,0
-140,386,0,0,0,0,0,0,0,0,0,-1,1084,638,0,0
-133,386,0,0,0,0,0,0,0,0,0,-1,1091,638,0,0
-126,386,0,0,0,0,0,0,0,0,0,-1,1098,638,0,0
-119,386,0,0,0,0,0,0,0,0,0,-1,1105,638,0,0
-112,386,0,0,0,0,0,0,0,0,0,-1,1112,638,0,0
-105,386,0,0,0,0,0,0,0,0,0,-1,1119,638,0,0
-98,386,0,0,0,0,0,0,0,0,0,-1,1126,638,0,0
-91,386,0,0,0,0,0,0,0,0,0,-1,1133,638,0,0
-84,386,0,0,0,0,0,0,0,0,0,-1,1140,638,0,0
-77,386,0,0,0,0,0,0,0,0,0,-1,1147,638,0,0
-70,386,0,0,0,0,0,0,0,0,0,-1,1154,638,0,0
-63,386,0,0,0,0,0,0,0,0,0,-1,1161,638,0,0
-56,386,0,0,0,0,0,0,0,0,0,-1,1168,638,0,0
-49,386,0,0,0,0,0,0,0,0,0,-1,1175,638,0,0
-42,386,0,0,0,0,0,0,0,0,0,-1,1182,638,0,0
-35,386,0,0,0,0,0,0,0,0,0,-1,1189,638,0,0
-28,386,0,0,0,0,0,0,0,0,0,-1,1196,638,0,0
-21,386,0,0,0,0,0,0,0,0,0,-1,1203,638,0,0
-14,386,0,0,0,0,0,0,0,0,0,-1,1210,638,0,0
-7,386,0,0,0,0,0,0,0,0,0,-1,1217,638,0,0
0,386,0,0,0,0,0,0,0,0,0,-1,1224,638,0,0
7,386,0,0,0,0,0,0,0,0,0,-1,1231,638,0,0
14,386,0,0,0,0,0,0,0,0,0,-1,1238,638,0,0
21,386,0,0,0,0,0,0,0,0,0,-1,1245,638,0,0
28,386,0,0,0,0,0,0,0,0,0,-1,1252,638,0,0
35,386,0,0,0,0,0,0,0,0,0,-1,1259,638,0,0
42,386,0,0,0,0,0,0,0,0,0,-1,1266,638,0,0
49,386,0,0,0,0,0,0,0,0,0,-1,1273,638,0,0
56,386,0,0,0,0,0,0,0,0,0,-1,1280,638,0,0
63,386,0,0,0,0,0,0,0,0,0,-1,1287,638,0,0
70,386,0,0,0,0,0,0,0,0,0,-1,1294,638,0,0
77,386,0,0,0,0,0,0,0,0,0,-1,1301,638,0,0
84,386,0,0,0,0,0,0,0,0,0,-1,1308,638,0,0
91,386,0,0,0,0,0,0,0,0,0,-1,1315,638,0,0
98,386,0,0,0,0,0,0,0,0,0,-1,1322,638,0,0
105,386,0,0,0,0,0,0,0,0,0,-1,1329,638,0,0
112,386,0,0,0,0,0,0,0,0,0,-1,1336,638,0,0
119,386,0,0,0,0,0,0,0,0,0,-1,1343,638,0,0
126,386,0,0,0,0,0,0,0,0,0,-1,1350,638,0,0
133,386,0,0,0,0,0,0,0,0,0,-1,1357,638,0,0
140,386,0,0,0,0,0,0,0,0,0,-1,1364,638,0,0
147,386,0,0,0,0,0,0,0,0,0,-1,1371,638,0,0
154,386,0,0,0,0,0,0,0,0,0,-1,1378,638,0,0
161,386,0,0,0,0,0,0,0,0,0,-1,1385,638,0,0
168,386,0,0,0,0,0,0,0,0,0,-1,1392,638,0,0
175,386,0,0,0,0,0,0,0,0,0,-1,1399,638,0,0
182,386,0,0,0,0,0,0,0,0,0,-1,1406,638,0,0
189,386,0,0,0,0,0,0,0,0,0,-1,1413,638,0,0
196,386,0,0,0,0,0,0,0,0,0,-1,1420,638,0,0
203,386,0,0,0,0,0,0,0,0,0,-1,1427,638,0,0
210,386,0,0,0,0,0,0,0,0,0,-1,1434,638,0,0
217,386,0,0,0,0,0,0,0,0,0,-1,1441,638,0,0
224,386,0,0,0,0,0,0,0,0,0,-1,1448,638,0,0
231,386,0,0,0,0,0,0,0,0,0,-1,1455,638,0,0
238,386,0,0,0,0,0,0,0,0,0,-1,1462,638,0,0
245,386,0,0,0,0,0,0,0,0,0,-1,1469,638,0,0
252,386,0,0,0,0,0,0,0,0,0,-1,1476,638,0,0
259,386,0,0,0,0,0,0,0,0,0,-1,1483,638,0,0
266,386,0,0,0,0,0,0,0,0,0,-1,1490,638,0,0
273,386,0,0,0,0,0,0,0,0,0,-1,1497,638,0,0
280,386,0,0,0,0,0,0,0,0,0,-1,1504,638,0,0
287,386,0,0,0,0,0,0,0,0,0,-1,1511,638,0,0
294,386,0,0,0,0,0,0,0,0,0,-1,1518,638,0,0
301,386,0,0,0,0,0,0,0,0,0,-1,1525,638,0,0
308,386,0,0,0,0,0,0,0,0,0,-1,1532,638,0,0
315,386,0,0,0,0,0,0,0,0,0,-1,1539,638,0,0
322,386,0,0,0,0,0,0,0,0,0,-1,1546,638,0,0
329,386,0,0,0,0,0,0,0,0,0,-1,1553,638,0,0
336,386,0,0,0,0,0,0,0,0,0,-1,1560,638,0,0
343,386,0,0,0,0,0,0,0,0,0,-1,1567,638,0,0
350,386,0,0,0,0,0,0,0,0,0,-1,1574,638,0,0
357,386,0,0,0,0,0,0,0,0,0,-1,1581,638,0,0
364,386,0,0,0,0,0,0,0,0,0,-1,1588,638,0,0
371,386,0,0,0,0,0,0,0,0,0,-1,1595,638,0,0
378,386,0,0,0,0,0,0,0,0,0,-1,1602,638,0,0
385,386,0,0,0,0,0,0,0,0,0,-1,1609,638,0,0
392,386,0,0,0,0,0,0,0,0,0,-1,1616,638,0,0
399,386,0,0,0,0,0,0,0,0,0,-1,1623,638,0,0
406,386,0,0,0,0,0,0,0,0,0,-1,1630,638,0,0
413,386,0,0,0,0,0,0,0,0,0,-1,1637,638,0,0
420,386,0,0,0,0,0,0,0,0,0,-1,1644,638,0,0
427,386,0,0,0,0,0,0,0,0,0,-1,1651,638,0,0
434,386,0,0,0,0,0,0,0,0,0,-1,1658,638,0,0
441,386,0,0,0,0,0,0,0,0,0,-1,1665,638,0,0
448,386,0,0,0,0,0,0,0,0,0,-1,1672,638,0,0
455,386,0,0,0,0,0,0,0,0,0,-1,1679,638,0,0
462,386,0,0,0,0,0,0,0,0,0,-1,1686,638,0,0
469,386,9.84692,1.55804,0,0,0,0,0,0,0,-1,1693,638,9.84691,-1.55807
476,386,10.6145,0.986511,0,0,0,0,0,0,0,-1,1700,638,10.6145,-0.986529
483,386,11.4113,0.732971,0,0,0,0,0,0,0,-1,1707,638,11.4112,-0.732958
490,386,7.79785,1.79572,0,0,0,0,0,0,0,-1,1714,638,7.79788,-1.7957
497,386,8.96362,1.77081,0,0,0,0,0,0,0,-1,1721,638,8.96357,-1.77081
504,386,10.0555,1.69427,0,0,0,0,0,0,0,-1,1728,638,10.0555,-1.69426
511,386,11.2172,1.534,0,0,0,0,0,0,0,-1,1735,638,11.2172,-1.53398
518,386,7.41553,1.75238,0,0,0,0,0,0,0,-1,1742,638,7.41547,-1.75238
525,386,8.82422,-1.1449,0,0,0,0,0,0,0,-1,1749,638,8.82426,1.14492
532,386,10.6432,0.617371,0,0,0,0,0,0,0,-1,1756,638,10.6432,-0.617359
539,386,9.62061,-0.393616,0,0,0,0,0,0,0,-1,1763,638,9.62059,0.393634
546,386,10.7963,-2.854,0,0,0,0,0,0,0,-1,1770,638,10.7962,2.854
553,386,16.9939,-7.27942,0,0,0,0,0,0,0,-1,1777,638,16.9939,7.27944
560,386,37.7618,-21.2165,0,0,0,0,0,0,0,-1,1784,638,37.7618,21.2165
567,386,37.8118,-19.975,0,0,0,0,0,0,0,-1,1791,638,37.8118,19.975
574,386,37.7986,-18.9024,0.0018517,0.000181884,0.000115971,0.00185972,0.000173868,0.0690094,0.00118611,0.0159239,1798,638,37.7986,18.9024
581,386,37.6925,-17.8958,0.00140549,0.000489167,0.000259959,0.0014741,0.000420555,0.25805,0.000876838,0.0167115,1805,638,37.6926,17.8958
588,386,37.6794,-16.8716,0.00132354,0.000988705,0.000595657,0.00177486,0.000537384,0.648402,0.00105095,0.0154266,1812,638,37.6794,16.8716
595,386,37.603,-15.8776,0.00152918,0.00168196,0.00110072,0.00270893,0.000502205,0.820044,0.00166401,0.0169631,1819,638,37.603,15.8776
602,386,37.5096,-14.8701,0.00196768,0.00252428,0.00175297,0.0040209,0.000471057,0.86412,0.00253819,0.0175878,1826,638,37.5096,14.8701
609,386,37.4604,-13.83,0.00259391,0.00351625,0.00251391,0.00561094,0.000499216,0.876113,0.00358583,0.0161018,1833,638,37.4604,13.8299
616,386,37.392,-12.7527,0.00338788,0.00472471,0.00334285,0.00746532,0.000647271,0.884074,0.00477577,0.0128942,1840,638,37.3919,12.7527
623,386,37.2881,-11.6935,0.00430454,0.00596292,0.00421127,0.00942586,0.000841606,0.882604,0.006023,0.0118311,1847,638,37.288,11.6935
630,386,37.3582,-10.5914,0.00516111,0.00719285,0.00499609,0.0112753,0.00107866,0.885698,0.00718436,0.0383537,1854,638,37.3582,10.5914
637,386,37.5105,-9.48187,0,0,0,0,0,0,0,-1,1861,638,37.5105,9.48184
644,386,11.6521,0.723328,0,0,0,0,0,0,0,-1,1868,638,11.6521,-0.723355
651,386,9.3866,1.31097,0,0,0,0,0,0,0,-1,1875,638,9.3866,-1.31095
658,386,12.0731,-0.00415039,0,0,0,0,0,0,0,-1,1882,638,12.0731,0.00412803
665,386,6.33167,1.78601,0,0,0,0,0,0,0,-1,1889,638,6.33171,-1.78601
672,386,7.23352,2.14435,0,0,0,0,0,0,0,-1,1896,638,7.23353,-2.14433
679,386,8.07764,2.57104,0,0,0,0,0,0,0,-1,1903,638,8.07758,-2.57103
686,386,0,0,0,0,0,0,0,0,0,-1,1910,638,0,0
693,386,0,0,0,0,0,0,0,0,0,-1,1917,638,0,0
700,386,0,0,0,0,0,0,0,0,0,-1,1924,638,0,0
707,386,0,0,0,0,0,0,0,0,0,-1,1931,638,0,0
714,386,0,0,0,0,0,0,0,0,0,-1,1938,638,0,0
721,386,0,0,0,0,0,0,0,0,0,-1,1945,638,0,0
728,386,0,0,0,0,0,0,0,0,0,-1,1952,638,0,0
735,386,0,0,0,0,0,0,0,0,0,-1,1959,638,0,0
742,386,0,0,0,0,0,0,0,0,0,-1,1966,638,0,0
749,386,0,0,0,0,0,0,0,0,0,-1,1973,638,0,0
756,386,0,0,0,0,0,0,0,0,0,-1,1980,638,0,0
763,386,0,0,0,0,0,0,0,0,0,-1,1987,638,0,0
770,386,0,0,0,0,0,0,0,0,0,-1,1994,638,0,0
777,386,0,0,0,0,0,0,0,0,0,-1,2001,638,0,0
784,386,0,0,0,0,0,0,0,0,0,-1,2008,638,0,0
791,386,0,0,0,0,0,0,0,0,0,-1,2015,638,0,0
798,386,0,0,0,0,0,0,0,0,0,-1,2022,638,0,0
805,386,0,0,0,0,0,0,0,0,0,-1,2029,638,0,0
812,386,0,0,0,0,0,0,0,0,0,-1,2036,638,0,0
-700,379,0,0,0,0,0,0,0,0,0,-1,524,645,0,0
-693,379,0,0,0,0,0,0,0,0,0,-1,531,645,0,0
-686,379,0,0,0,0,0,0,0,0,0,-1,538,645,0,0
-679,379,0,0,0,0,0,0,0,0,0,-1,545,645,0,0
-672,379,0,0,0,0,0,0,0,0,0,-1,552,645,0,0
-665,379,0,0,0,0,0,0,0,0,0,-1,559,645,0,0
-658,379,0,0,0,0,0,0,0,0,0,-1,566,645,0,0
-651,379,0,0,0,0,0,0,0,0,0,-1,573,645,0,0
-644,379,0,0,0,0,0,0,0,0,0,-1,580,645,0,0
-637,379,0,0,0,0,0,0,0,0,0,-1,587,645,0,0
-630,379,0,0,0,0,0,0,0,0,0,-1,594,645,0,0
-623,379,0,0,0,0,0,0,0,0,0,-1,601,645,0,0
-616,379,0,0,0,0,0,0,0,0,0,-1,608,645,0,0
-609,379,0,0,0,0,0,0,0,0,0,-1,615,645,0,0
-602,379,0,0,0,0,0,0,0,0,0,-1,622,645,0,0
-595,379,0,0,0,0,0,0,0,0,0,-1,629,645,0,0
-588,379,0,0,0,0,0,0,0,0,0,-1,636,645,0,0
-581,379,0,0,0,0,0,0,0,0,0,-1,643,645,0,0
-574,379,0,0,0,0,0,0,0,0,0,-1,650,645,0,0
-567,379,-8.78058,0.59668,0,0,0,0,0,0,0,-1,657,645,-8.7806,-0.596692
-560,379,-9.53485,-0.211304,0,0,0,0,0,0,0,-1,664,645,-9.53487,0.211282
-553,379,-5.17108,-4.53119,0,0,0,0,0,0,0,-1,671,645,-5.17106,4.53117
-546,379,-6.23053,-4.92102,0,0,0,0,0,0,0,-1,678,645,-6.23054,4.92105
-539,379,-0.71698,-2.19427,0,0,0,0,0,0,0,-1,685,645,-0.716959,2.19427
-532,379,-7.69611,0.217224,0,0,0,0,0,0,0,-1,692,645,-7.69614,-0.217204
-525,379,-7.09833,-1.13043,0,0,0,0,0,0,0,-1,699,645,-7.0983,1.13041
-518,379,-13.126,-5.33893,0,0,0,0,0,0,0,-1,706,645,-13.126,5.33895
-511,379,-21.151,-9.54205,0,0,0,0,0,0,0,-1,713,645,-21.151,9.54205
-504,379,-21.3479,-10.437,0,0,0,0,0,0,0,-1,720,645,-21.3479,10.437
-497,379,-21.3806,-11.54,0.000983746,0.000766935,-0.000240804,0.00113942,0.000611261,-0.573896,0.000658428,0.016925,727,645,-21.3806,11.54
-490,379,-21.4478,-12.5921,0.000738661,0.000637814,-0.000116896,0.000815545,0.00056093,-0.581778,0.000481799,0.0119462,734,645,-21.4478,12.5921
-483,379,-21.4979,-13.6232,0.000648722,0.000508116,-0.00012347,0.000720501,0.000436337,-0.526594,0.000419063,0.0135276,741,645,-21.4978,13.6232
-476,379,-21.5382,-14.6306,0.000752101,0.000397978,-0.000238256,0.000871884,0.000278194,-0.465845,0.000514251,0.0134965,748,645,-21.5382,14.6306
-469,379,-21.6392,-15.6514,0.00107833,0.000292051,-0.000457975,0.00128876,8.16178e-05,-0.430715,0.0008333,0.0131834,755,645,-21.6392,15.6514
-462,379,-21.7275,-16.7139,0.00158528,0.00019151,-0.000775603,0.00193109,-0.000154297,-0.419402,0.00134179,0.0106067,762,645,-21.7275,16.7139
-455,379,-21.8121,-17.752,0.00228103,0.000294672,-0.00125578,0.00288891,-0.00031321,-0.450819,0.00203838,0.0110393,769,645,-21.8121,17.752
-448,379,-21.8662,-18.7715,0.00316862,0.000400885,-0.00180416,0.00405853,-0.00048903,-0.458239,0.00288256,0.0135971,776,645,-21.8662,18.7715
-441,379,-21.8908,-19.853,0.00426207,0.000676705,-0.00252672,0.00556746,-0.000628683,-0.476865,0.00393796,0.0248048,783,645,-21.8908,19.853
-434,379,-21.8333,-21.0316,0,0,0,0,0,0,0,-1,790,645,-21.8332,21.0315
-427,379,-4.16113,-4.13452,0,0,0,0,0,0,0,-1,797,645,-4.16116,4.1345
-420,379,-4.63953,-3.46869,0,0,0,0,0,0,0,-1,804,645,-4.63953,3.46872
-413,379,-4.62543,-3.7912,0,0,0,0,0,0,0,-1,811,645,-4.62541,3.79123
-406,379,-4.64063,-4.38489,0,0,0,0,0,0,0,-1,818,645,-4.64065,4.3849
-399,379,-2.93536,-1.40118,0,0,0,0,0,0,0,-1,825,645,-2.93534,1.40119
-392,379,-4.16711,-0.466003,0,0,0,0,0,0,0,-1,832,645,-4.16714,0.465992
-385,379,-3.51862,0.441101,0,0,0,0,0,0,0,-1,839,645,-3.51859,-0.441072
-378,379,-5.3504,0.212219,0,0,0,0,0,0,0,-1,846,645,-5.35038,-0.212241
-371,379,-4.32092,-0.186707,0,0,0,0,0,0,0,-1,853,645,-4.3209,0.186707
-364,379,-3.40887,-0.549805,0,0,0,0,0,0,0,-1,860,645,-3.4089,0.549802
-357,379,0,0,0,0,0,0,0,0,0,-1,867,645,0,0
-350,379,0,0,0,0,0,0,0,0,0,-1,874,645,0,0
-343,379,0,0,0,0,0,0,0,0,0,-1,881,645,0,0
-336,379,0,0,0,0,0,0,0,0,0,-1,888,645,0,0
-329,379,0,0,0,0,0,0,0,0,0,-1,895,645,0,0
-322,379,0,0,0,0,0,0,0,0,0,-1,902,645,0,0
-315,379,0,0,0,0,0,0,0,0,0,-1,909,645,0,0
-308,379,0,0,0,0,0,0,0,0,0,-1,916,645,0,0
-301,379,0,0,0,0,0,0,0,0,0,-1,923,645,0,0
-294,379,0,0,0,0,0,0,0,0,0,-1,930,645,0,0
-287,379,0,0,0,0,0,0,0,0,0,-1,937,645,0,0
-280,379,0,0,0,0,0,0,0,0,0,-1,944,645,0,0
-273,379,0,0,0,0,0,0,0,0,0,-1,951,645,0,0
-266,379,0,0,0,0,0,0,0,0,0,-1,958,645,0,0
-259,379,0,0,0,0,0,0,0,0,0,-1,965,645,0,0
-252,379,0,0,0,0,0,0,0,0,0,-1,972,645,0,0
-245,379,0,0,0,0,0,0,0,0,0,-1,979,645,0,0
-238,379,0,0,0,0,0,0,0,0,0,-1,986,645,0,0
-231,379,0,0,0,0,0,0,0,0,0,-1,993,645,0,0
-224,379,0,0,0,0,0,0,0,0,0,-1,1000,645,0,0
-217,379,0,0,0,0,0,0,0,0,0,-1,1007,645,0,0
-210,379,0,0,0,0,0,0,0,0,0,-1,1014,645,0,0
-203,379,0,0,0,0,0,0,0,0,0,-1,1021,645,0,0
-196,379,0,0,0,0,0,0,0,0,0,-1,1028,645,0,0
-189,379,0,0,0,0,0,0,0,0,0,-1,1035,645,0,0
-182,379,0,0,0,0,0,0,0,0,0,-1,1042,645,0,0
-175,379,0,0,0,0,0,0,0,0,0,-1,1049,645,0,0
-168,379,0,0,0,0,0,0,0,0,0,-1,1056,645,0,0
-161,379,0,0,0,0,0,0,0,0,0,-1,1063,645,0,0
-154,379,0,0,0,0,0,0,0,0,0,-1,1070,645,0,0
-147,379,0,0,0,0,0,0,0,0,0,-1,1077,645,0,0
-140,379,0,0,0,0,0,0,0,0,0,-1,1084,645,0,0
-133,379,0,0,0,0,0,0,0,0,0,-1,1091,645,0,0
-126,379,0,0,0,0,0,0,0,0,0,-1,1098,645,0,0
-119,379,0,0,0,0,0,0,0,0,0,-1,1105,645,0,0
-112,379,0,0,0,0,0,0,0,0,0,-1,1112,645,0,0
-105,379,0,0,0,0,0,0,0,0,0,-1,1119,645,0,0
-98,379,0,0,0,0,0,0,0,0,0,-1,1126,645,0,0
-91,379,0,0,0,0,0,0,0,0,0,-1,1133,645,0,0
-84,379,0,0,0,0,0,0,0,0,0,-1,1140,645,0,0
-77,379,0,0,0,0,0,0,0,0,0,-1,1147,645,0,0
-70,379,0,0,0,0,0,0,0,0,0,-1,1154,645,0,0
-63,379,0,0,0,0,0,0,0,0,0,-1,1161,645,0,0
-56,379,0,0,0,0,0,0,0,0,0,-1,1168,645,0,0
-49,379,0,0,0,0,0,0,0,0,0,-1,1175,645,0,0
-42,379,0,0,0,0,0,0,0,0,0,-1,1182,645,0,0
-35,379,0,0,0,0,0,0,0,0,0,-1,1189,645,0,0
-28,379,0,0,0,0,0,0,0,0,0,-1,1196,645,0,0
-21,379,0,0,0,0,0,0,0,0,0,-1,1203,645,0,0
-14,379,0,0,0,0,0,0,0,0,0,-1,1210,645,0,0
-7,379,0,0,0,0,0,0,0,0,0,-1,1217,645,0,0
0,379,0,0,0,0,0,0,0,0,0,-1,1224,645,0,0
7,379,0,0,0,0,0,0,0,0,0,-1,1231,645,0,0
14,379,0,0,0,0,0,0,0,0,0,-1,1238,645,0,0
21,379,0,0,0,0,0,0,0,0,0,-1,1245,645,0,0
28,379,0,0,0,0,0,0,0,0,0,-1,1252,645,0,0
35,379,0,0,0,0,0,0,0,0,0,-1,1259,645,0,0
42,379,0,0,0,0,0,0,0,0,0,-1,1266,645,0,0
49,379,0,0,0,0,0,0,0,0,0,-1,1273,645,0,0
56,379,0,0,0,0,0,0,0,0,0,-1,1280,645,0,0
63,379,0,0,0,0,0,0,0,0,0,-1,1287,645,0,0
70,379,0,0,0,0,0,0,0,0,0,-1,1294,645,0,0
77,379,0,0,0,0,0,0,0,0,0,-1,1301,645,0,0
84,379,0,0,0,0,0,0,0,0,0,-1,1308,645,0,0
91,379,0,0,0,0,0,0,0,0,0,-1,1315,645,0,0
98,379,0,0,0,0,0,0,0,0,0,-1,1322,645,0,0
105,379,0,0,0,0,0,0,0,0,0,-1,1329,645,0,0
112,379,0,0,0,0,0,0,0,0,0,-1,1336,645,0,0
119,379,0,0,0,0,0,0,0,0,0,-1,1343,645,0,0
126,379,0,0,0,0,0,0,0,0,0,-1,1350,645,0,0
133,379,0,0,0,0,0,0,0,0,0,-1,1357,645,0,0
140,379,0,0,0,0,0,0,0,0,0,-1,1364,645,0,0
147,379,0,0,0,0,0,0,0,0,0,-1,1371,645,0,0
154,379,0,0,0,0,0,0,0,0,0,-1,1378,645,0,0
161,379,0,0,0,0,0,0,0,0,0,-1,1385,645,0,0
168,379,0,0,0,0,0,0,0,0,0,-1,1392,645,0,0
175,379,0,0,0,0,0,0,0,0,0,-1,1399,645,0,0
182,379,0,0,0,0,0,0,0,0,0,-1,1406,645,0,0
189,379,0,0,0,0,0,0,0,0,0,-1,1413,645,0,0
196,379,0,0,0,0,0,0,0,0,0,-1,1420,645,0,0
203,379,0,0,0,0,0,0,0,0,0,-1,1427,645,0,0
210,379,0,0,0,0,0,0,0,0,0,-1,1434,645,0,0
217,379,0,0,0,0,0,0,0,0,0,-1,1441,645,0,0
224,379,0,0,0,0,0,0,0,0,0,-1,1448,645,0,0
231,379,0,0,0,0,0,0,0,0,0,-1,1455,645,0,0
238,379,0,0,0,0,0,0,0,0,0,-1,1462,645,0,0
245,379,0,0,0,0,0,0,0,0,0,-1,1469,645,0,0
252,379,0,0,0,0,0,0,0,0,0,-1,1476,645,0,0
259,379,0,0,0,0,0,0,0,0,0,-1,1483,645,0,0
266,379,0,0,0,0,0,0,0,0,0,-1,1490,645,0,0
273,379,0,0,0,0,0,0,0,0,0,-1,1497,645,0,0
280,379,0,0,0,0,0,0,0,0,0,-1,1504,645,0,0
287,379,0,0,0,0,0,0,0,0,0,-1,1511,645,0,0
294,379,0,0,0,0,0,0,0,0,0,-1,1518,645,0,0
301,379,0,0,0,0,0,0,0,0,0,-1,1525,645,0,0
308,379,0,0,0,0,0,0,0,0,0,-1,1532,645,0,0
315,379,0,0,0,0,0,0,0,0,0,-1,1539,645,0,0
322,379,0,0,0,0,0,0,0,0,0,-1,1546,645,0,0
329,379,0,0,0,0,0,0,0,0,0,-1,1553,645,0,0
336,379,0,0,0,0,0,0,0,0,0,-1,1560,645,0,0
343,379,0,0,0,0,0,0,0,0,0,-1,1567,645,0,0
350,379,0,0,0,0,0,0,0,0,0,-1,1574,645,0,0
357,379,0,0,0,0,0,0,0,0,0,-1,1581,645,0,0
364,379,0,0,0,0,0,0,0,0,0,-1,1588,645,0,0
371,379,0,0,0,0,0,0,0,0,0,-1,1595,645,0,0
378,379,0,0,0,0,0,0,0,0,0,-1,1602,645,0,0
385,379,0,0,0,0,0,0,0,0,0,-1,1609,645,0,0
392,379,0,0,0,0,0,0,0,0,0,-1,1616,645,0,0
399,379,0,0,0,0,0,0,0,0,0,-1,1623,645,0,0
406,379,0,0,0,0,0,0,0,0,0,-1,1630,645,0,0
413,379,0,0,0,0,0,0,0,0,0,-1,1637,645,0,0
420,379,0,0,0,0,0,0,0,0,0,-1,1644,645,0,0
427,379,0,0,0,0,0,0,0,0,0,-1,1651,645,0,0
434,379,0,0,0,0,0,0,0,0,0,-1,1658,645,0,0
441,379,0,0,0,0,0,0,0,0,0,-1,1665,645,0,0
448,379,0,0,0,0,0,0,0,0,0,-1,1672,645,0,0
455,379,0,0,0,0,0,0,0,0,0,-1,1679,645,0,0
462,379,0,0,0,0,0,0,0,0,0,-1,1686,645,0,0
469,379,0,0,0,0,0,0,0,0,0,-1,1693,645,0,0
476,379,11.1787,0.830383,0,0,0,0,0,0,0,-1,1700,645,11.1787,-0.830365
483,379,7.4231,1.54321,0,0,0,0,0,0,0,-1,1707,645,7.42314,-1.54324
490,379,8.52881,1.56677,0,0,0,0,0,0,0,-1,1714,645,8.52878,-1.56677
497,379,9.63599,1.49573,0,0,0,0,0,0,0,-1,1721,645,9.63604,-1.4957
504,379,10.0833,1.35229,0,0,0,0,0,0,0,-1,1728,645,10.0832,-1.35227
511,379,8.14343,1.59912,0,0,0,0,0,0,0,-1,1735,645,8.14347,-1.59912
518,379,12.7955,-0.324097,0,0,0,0,0,0,0,-1,1742,645,12.7955,0.324101
525,379,6.03711,1.10352,0,0,0,0,0,0,0,-1,1749,645,6.03711,-1.10351
532,379,8.70947,0.887817,0,0,0,0,0,0,0,-1,1756,645,8.70953,-0.887808
539,379,9.87097,0.111389,0,0,0,0,0,0,0,-1,1763,645,9.87095,-0.111395
546,379,8.42383,-0.730652,0,0,0,0,0,0,0,-1,1770,645,8.42378,0.730638
553,379,19.2905,-7.67834,0,0,0,0,0,0,0,-1,1777,645,19.2905,7.67837
560,379,22.5734,-10.4749,0,0,0,0,0,0,0,-1,1784,645,22.5734,10.4749
567,379,38.8627,-19.9169,0,0,0,0,0,0,0,-1,1791,645,38.8627,19.917
574,379,38.8167,-18.8167,0.00169694,-0.00023125,-0.000211159,0.0017198,-0.000254103,-0.107809,0.00123994,0.0188769,1798,645,38.8167,18.8167
581,379,38.7587,-17.8155,0.0011651,3.29236e-05,-0.000107297,0.00117518,2.28446e-05,-0.0936597,0.00077595,0.0174189,1805,645,38.7587,17.8155
588,379,38.7024,-16.8123,0.00106218,0.000442761,0.000205424,0.00112412,0.000380827,0.292825,0.00066016,0.0192556,1812,645,38.7024,16.8123
595,379,38.6217,-15.7958,0.0012426,0.00105519,0.000662548,0.00181804,0.000479753,0.715149,0.00108796,0.0158334,1819,645,38.6217,15.7959
602,379,38.5442,-14.7759,0.00162398,0.00178963,0.001233,0.00294259,0.00047102,0.818935,0.00182509,0.018683,1826,645,38.5443,14.7759
609,379,38.4677,-13.7773,0.00213438,0.00262805,0.00186518,0.00426266,0.000499772,0.851186,0.0026907,0.0214455,1833,645,38.4677,13.7774
616,379,38.3811,-12.7352,0.00276152,0.00362164,0.00251494,0.00574303,0.00064013,0.870081,0.00363415,0.0162007,1840,645,38.3812,12.7352
623,379,38.322,-11.6237,0.00353131,0.00459045,0.00318007,0.00728474,0.000837016,0.867904,0.00460293,0.0132471,1847,645,38.322,11.6237
630,379,38.2583,-10.5895,0.00421044,0.00554938,0.00375063,0.00868982,0.00107,0.873715,0.00547153,0.0150308,1854,645,38.2582,10.5895
637,379,38.2196,-9.43878,0.00477839,0.00659901,0.00420145,0.00998763,0.00138977,0.892082,0.00624691,0.045515,1861,645,38.2196,9.43879
644,379,38.4556,-8.11462,0,0,0,0,0,0,0,-1,1868,645,38.4556,8.11461
651,379,12.9515,0.220825,0,0,0,0,0,0,0,-1,1875,645,12.9515,-0.220814
658,379,13.7498,0.37439,0,0,0,0,0,0,0,-1,1882,645,13.7498,-0.374371
665,379,11.9719,0.353333,0,0,0,0,0,0,0,-1,1889,645,11.9719,-0.353321
672,379,7.57605,2.15326,0,0,0,0,0,0,0,-1,1896,645,7.57599,-2.15326
679,379,8.55078,2.50409,0,0,0,0,0,0,0,-1,1903,645,8.55073,-2.50406
686,379,0,0,0,0,0,0,0,0,0,-1,1910,645,0,0
693,379,0,0,0,0,0,0,0,0,0,-1,1917,645,0,0
700,379,0,0,0,0,0,0,0,0,0,-1,1924,645,0,0
707,379,0,0,0,0,0,0,0,0,0,-1,1931,645,0,0
714,379,0,0,0,0,0,0,0,0,0,-1,1938,645,0,0
721,379,0,0,0,0,0,0,0,0,0,-1,1945,645,0,0
728,379,0,0,0,0,0,0,0,0,0,-1,1952,645,0,0
735,379,0,0,0,0,0,0,0,0,0,-1,1959,645,0,0
742,379,0,0,0,0,0,0,0,0,0,-1,1966,645,0,0
749,379,0,0,0,0,0,0,0,0,0,-1,1973,645,0,0
756,379,0,0,0,0,0,0,0,0,0,-1,1980,645,0,0
763,379,0,0,0,0,0,0,0,0,0,-1,1987,645,0,0
770,379,0,0,0,0,0,0,0,0,0,-1,1994,645,0,0
777,379,0,0,0,0,0,0,0,0,0,-1,2001,645,0,0
784,379,0,0,0,0,0,0,0,0,0,-1,2008,645,0,0
791,379,0,0,0,0,0,0,0,0,0,-1,2015,645,0,0
798,379,0,0,0,0,0,0,0,0,0,-1,2022,645,0,0
805,379,0,0,0,0,0,0,0,0,0,-1,2029,645,0,0
812,379,0,0,0,0,0,0,0,0,0,-1,2036,645,0,0
-700,372,0,0,0,0,0,0,0,0,0,-1,524,652,0,0
-693,372,0,0,0,0,0,0,0,0,0,-1,531,652,0,0
-686,372,0,0,0,0,0,0,0,0,0,-1,538,652,0,0
-679,372,0,0,0,0,0,0,0,0,0,-1,545,652,0,0
-672,372,0,0,0,0,0,0,0,0,0,-1,552,652,0,0
-665,372,0,0,0,0,0,0,0,0,0,-1,559,652,0,0
-658,372,0,0,0,0,0,0,0,0,0,-1,566,652,0,0
-651,372,0,0,0,0,0,0,0,0,0,-1,573,652,0,0
-644,372,0,0,0,0,0,0,0,0,0,-1,580,652,0,0
-637,372,0,0,0,0,0,0,0,0,0,-1,587,652,0,0
-630,372,0,0,0,0,0,0,0,0,0,-1,594,652,0,0
-623,372,0,0,0,0,0,0,0,0,0,-1,601,652,0,0
-616,372,0,0,0,0,0,0,0,0,0,-1,608,652,0,0
-609,372,0,0,0,0,0,0,0,0,0,-1,615,652,0,0
-602,372,0,0,0,0,0,0,0,0,0,-1,622,652,0,0
-595,372,0,0,0,0,0,0,0,0,0,-1,629,652,0,0
-588,372,0,0,0,0,0,0,0,0,0,-1,636,652,0,0
-581,372,0,0,0,0,0,0,0,0,0,-1,643,652,0,0
-574,372,0,0,0,0,0,0,0,0,0,-1,650,652,0,0
-567,372,-7.93744,0.73407,0,0,0,0,0,0,0,-1,657,652,-7.93741,-0.734076
-560,372,-8.78552,-0.158203,0,0,0,0,0,0,0,-1,664,652,-8.78552,0.158216
-553,372,-7.95551,1.61694,0,0,0,0,0,0,0,-1,671,652,-7.95552,-1.61697
-546,372,-4.2403,-3.75372,0,0,0,0,0,0,0,-1,678,652,-4.24028,3.75369
-539,372,-7.92285,-0.0650024,0,0,0,0,0,0,0,-1,685,652,-7.92287,0.0649772
-532,372,-8.59589,-0.419556,0,0,0,0,0,0,0,-1,692,652,-8.59591,0.419539
-525,372,-8.03674,-1.36804,0,0,0,0,0,0,0,-1,699,652,-8.03676,1.36806
-518,372,-22.2321,-8.21008,0,0,0,0,0,0,0,-1,706,652,-22.2321,8.21011
-511,372,-22.2521,-9.39612,0.00192385,0.000586863,-0.00118744,0.00261803,-0.00010732,-0.529025,0.0017822,0.0420316,713,652,-22.252,9.39611
-504,372,-22.3375,-10.3804,0.00163753,0.000607828,-0.000794289,0.00206923,0.000176124,-0.497847,0.00132469,0.0198964,720,652,-22.3374,10.3804
-497,372,-22.3738,-11.4595,0.00137997,0.000536309,-0.000552709,0.00165343,0.00026285,-0.459448,0.00102596,0.0132842,727,652,-22.3738,11.4595
-490,372,-22.4755,-12.481,0.001204,0.00041067,-0.000395631,0.00136757,0.000247096,-0.392047,0.000841529,0.0135905,734,652,-22.4754,12.4809
-483,372,-22.5383,-13.5145,0.00114077,0.000315884,-0.000369231,0.0012819,0.000174756,-0.365086,0.000802713,0.0133083,741,652,-22.5383,13.5145
-476,372,-22.5919,-14.5214,0.00121618,0.000264466,-0.000452414,0.00139692,8.3728e-05,-0.380074,0.000904664,0.0146873,748,652,-22.5918,14.5214
-469,372,-22.6891,-15.5422,0.00147123,0.000243727,-0.000652926,0.00175358,-3.86261e-05,-0.408158,0.00118214,0.0123926,755,652,-22.6891,15.5423
-462,372,-22.7638,-16.6066,0.00189004,0.000249691,-0.000961483,0.00233365,-0.000193913,-0.432272,0.00162426,0.0108039,762,652,-22.7638,16.6066
-455,372,-22.8579,-17.6415,0.00251456,0.000436136,-0.00143803,0.00324957,-0.00029888,-0.47251,0.00227257,0.0115006,769,652,-22.8579,17.6416
-448,372,-22.8998,-18.6765,0.00335393,0.00067806,-0.0020238,0.00444207,-0.000410081,-0.493329,0.0031071,0.0184081,776,652,-22.8998,18.6765
-441,372,-22.8622,-19.8427,0,0,0,0,0,0,0,-1,783,652,-22.8622,19.8427
-434,372,-9.86865,-9.68494,0,0,0,0,0,0,0,-1,790,652,-9.86863,9.68492
-427,372,-4.54248,-3.56268,0,0,0,0,0,0,0,-1,797,652,-4.54247,3.56266
-420,372,-4.66168,-2.93597,0,0,0,0,0,0,0,-1,804,652,-4.66166,2.93599
-413,372,-4.74762,-3.29541,0,0,0,0,0,0,0,-1,811,652,-4.74763,3.29542
-406,372,-0.885437,-0.583923,0,0,0,0,0,0,0,-1,818,652,-0.885437,0.5839
-399,372,-3.97357,-0.825012,0,0,0,0,0,0,0,-1,825,652,-3.97359,0.825037
-392,372,-7.64337,0.173035,0,0,0,0,0,0,0,-1,832,652,-7.64337,-0.173019
-385,372,-6.48871,-0.0271606,0,0,0,0,0,0,0,-1,839,652,-6.48874,0.0271353
-378,372,-5.33044,-0.242432,0,0,0,0,0,0,0,-1,846,652,-5.33042,0.242457
-371,372,-4.40802,-0.495667,0,0,0,0,0,0,0,-1,853,652,-4.40802,0.495661
-364,372,0,0,0,0,0,0,0,0,0,-1,860,652,0,0
-357,372,0,0,0,0,0,0,0,0,0,-1,867,652,0,0
-350,372,0,0,0,0,0,0,0,0,0,-1,874,652,0,0
-343,372,0,0,0,0,0,0,0,0,0,-1,881,652,0,0
-336,372,0,0,0,0,0,0,0,0,0,-1,888,652,0,0
-329,372,0,0,0,0,0,0,0,0,0,-1,895,652,0,0
-322,372,0,0,0,0,0,0,0,0,0,-1,902,652,0,0
-315,372,0,0,0,0,0,0,0,0,0,-1,909,652,0,0
-308,372,0,0,0,0,0,0,0,0,0,-1,916,652,0,0
-301,372,0,0,0,0,0,0,0,0,0,-1,923,652,0,0
-294,372,0,0,0,0,0,0,0,0,0,-1,930,652,0,0
-287,372,0,0,0,0,0,0,0,0,0,-1,937,652,0,0
-280,372,0,0,0,0,0,0,0,0,0,-1,944,652,0,0
-273,372,0,0,0,0,0,0,0,0,0,-1,951,652,0,0
-266,372,0,0,0,0,0,0,0,0,0,-1,958,652,0,0
-259,372,0,0,0,0,0,0,0,0,0,-1,965,652,0,0
-252,372,0,0,0,0,0,0,0,0,0,-1,972,652,0,0
-245,372,0,0,0,0,0,0,0,0,0,-1,979,652,0,0
-238,372,0,0,0,0,0,0,0,0,0,-1,986,652,0,0
-231,372,0,0,0,0,0,0,0,0,0,-1,993,652,0,0
-224,372,0,0,0,0,0,0,0,0,0,-1,1000,652,0,0
-217,372,0,0,0,0,0,0,0,0,0,-1,1007,652,0,0
-210,372,0,0,0,0,0,0,0,0,0,-1,1014,652,0,0
-203,372,0,0,0,0,0,0,0,0,0,-1,1021,652,0,0
-196,372,0,0,0,0,0,0,0,0,0,-1,1028,652,0,0
-189,372,0,0,0,0,0,0,0,0,0,-1,1035,652,0,0
-182,372,0,0,0,0,0,0,0,0,0,-1,1042,652,0,0
-175,372,0,0,0,0,0,0,0,0,0,-1,1049,652,0,0
-168,372,0,0,0,0,0,0,0,0,0,-1,1056,652,0,0
-161,372,0,0,0,0,0,0,0,0,0,-1,1063,652,0,0
-154,372,0,0,0,0,0,0,0,0,0,-1,1070,652,0,0
-147,372,0,0,0,0,0,0,0,0,0,-1,1077,652,0,0
-140,372,0,0,0,0,0,0,0,0,0,-1,1084,652,0,0
-133,372,0,0,0,0,0,0,0,0,0,-1,1091,652,0,0
-126,372,0,0,0,0,0,0,0,0,0,-1,1098,652,0,0
-119,372,0,0,0,0,0,0,0,0,0,-1,1105,652,0,0
-112,372,0,0,0,0,0,0,0,0,0,-1,1112,652,0,0
-105,372,0,0,0,0,0,0,0,0,0,-1,1119,652,0,0
-98,372,0,0,0,0,0,0,0,0,0,-1,1126,652,0,0
-91,372,0,0,0,0,0,0,0,0,0,-1,1133,652,0,0
-84,372,0,0,0,0,0,0,0,0,0,-1,1140,652,0,0
-77,372,0,0,0,0,0,0,0,0,0,-1,1147,652,0,0
-70,372,0,0,0,0,0,0,0,0,0,-1,1154,652,0,0
-63,372,0,0,0,0,0,0,0,0,0,-1,1161,652,0,0
-56,372,0,0,0,0,0,0,0,0,0,-1,1168,652,0,0
-49,372,0,0,0,0,0,0,0,0,0,-1,1175,652,0,0
-42,372,0,0,0,0,0,0,0,0,0,-1,1182,652,0,0
-35,372,0,0,0,0,0,0,0,0,0,-1,1189,652,0,0
-28,372,0,0,0,0,0,0,0,0,0,-1,1196,652,0,0
-21,372,0,0,0,0,0,0,0,0,0,-1,1203,652,0,0
-14,372,0,0,0,0,0,0,0,0,0,-1,1210,652,0,0
-7,372,0,0,0,0,0,0,0,0,0,-1,1217,652,0,0
0,372,0,0,0,0,0,0,0,0,0,-1,1224,652,0,0
7,372,0,0,0,0,0,0,0,0,0,-1,1231,652,0,0
14,372,0,0,0,0,0,0,0,0,0,-1,1238,652,0,0
21,372,0,0,0,0,0,0,0,0,0,-1,1245,652,0,0
28,372,0,0,0,0,0,0,0,0,0,-1,1252,652,0,0
35,372,0,0,0,0,0,0,0,0,0,-1,1259,652,0,0
42,372,0,0,0,0,0,0,0,0,0,-1,1266,652,0,0
49,372,0,0,0,0,0,0,0,0,0,-1,1273,652,0,0
56,372,0,0,0,0,0,0,0,0,0,-1,1280,652,0,0
63,372,0,0,0,0,0,0,0,0,0,-1,1287,652,0,0
70,372,0,0,0,0,0,0,0,0,0,-1,1294,652,0,0
77,372,0,0,0,0,0,0,0,0,0,-1,1301,652,0,0
84,372,0,0,0,0,0,0,0,0,0,-1,1308,652,0,0
91,372,0,0,0,0,0,0,0,0,0,-1,1315,652,0,0
98,372,0,0,0,0,0,0,0,0,0,-1,1322,652,0,0
105,372,0,0,0,0,0,0,0,0,0,-1,1329,652,0,0
112,372,0,0,0,0,0,0,0,0,0,-1,1336,652,0,0
119,372,0,0,0,0,0,0,0,0,0,-1,1343,652,0,0
126,372,0,0,0,0,0,0,0,0,0,-1,1350,652,0,0
133,372,0,0,0,0,0,0,0,0,0,-1,1357,652,0,0
140,372,0,0,0,0,0,0,0,0,0,-1,1364,652,0,0
147,372,0,0,0,0,0,0,0,0,0,-1,1371,652,0,0
154,372,0,0,0,0,0,0,0,0,0,-1,1378,652,0,0
161,372,0,0,0,0,0,0,0,0,0,-1,1385,652,0,0
168,372,0,0,0,0,0,0,0,0,0,-1,1392,652,0,0
175,372,0,0,0,0,0,0,0,0,0,-1,1399,652,0,0
182,372,0,0,0,0,0,0,0,0,0,-1,1406,652,0,0
189,372,0,0,0,0,0,0,0,0,0,-1,1413,652,0,0
196,372,0,0,0,0,0,0,0,0,0,-1,1420,652,0,0
203,372,0,0,0,0,0,0,0,0,0,-1,1427,652,0,0
210,372,0,0,0,0,0,0,0,0,0,-1,1434,652,0,0
217,372,0,0,0,0,0,0,0,0,0,-1,1441,652,0,0
224,372,0,0,0,0,0,0,0,0,0,-1,1448,652,0,0
231,372,0,0,0,0,0,0,0,0,0,-1,1455,652,0,0
238,372,0,0,0,0,0,0,0,0,0,-1,1462,652,0,0
245,372,0,0,0,0,0,0,0,0,0,-1,1469,652,0,0
252,372,0,0,0,0,0,0,0,0,0,-1,1476,652,0,0
259,372,0,0,0,0,0,0,0,0,0,-1,1483,652,0,0
266,372,0,0,0,0,0,0,0,0,0,-1,1490,652,0,0
273,372,0,0,0,0,0,0,0,0,0,-1,1497,652,0,0
280,372,0,0,0,0,0,0,0,0,0,-1,1504,652,0,0
287,372,0,0,0,0,0,0,0,0,0,-1,1511,652,0,0
294,372,0,0,0,0,0,0,0,0,0,-1,1518,652,0,0
301,372,0,0,0,0,0,0,0,0,0,-1,1525,652,0,0
308,372,0,0,0,0,0,0,0,0,0,-1,1532,652,0,0
315,372,0,0,0,0,0,0,0,0,0,-1,1539,652,0,0
322,372,0,0,0,0,0,0,0,0,0,-1,1546,652,0,0
329,372,0,0,0,0,0,0,0,0,0,-1,1553,652,0,0
336,372,0,0,0,0,0,0,0,0,0,-1,1560,652,0,0
343,372,0,0,0,0,0,0,0,0,0,-1,1567,652,0,0
350,372,0,0,0,0,0,0,0,0,0,-1,1574,652,0,0
357,372,0,0,0,0,0,0,0,0,0,-1,1581,652,0,0
364,372,0,0,0,0,0,0,0,0,0,-1,1588,652,0,0
371,372,0,0,0,0,0,0,0,0,0,-1,1595,652,0,0
378,372,0,0,0,0,0,0,0,0,0,-1,1602,652,0,0
385,372,0,0,0,0,0,0,0,0,0,-1,1609,652,0,0
392,372,0,0,0,0,0,0,0,0,0,-1,1616,652,0,0
399,372,0,0,0,0,0,0,0,0,0,-1,1623,652,0,0
406,372,0,0,0,0,0,0,0,0,0,-1,1630,652,0,0
413,372,0,0,0,0,0,0,0,0,0,-1,1637,652,0,0
420,372,0,0,0,0,0,0,0,0,0,-1,1644,652,0,0
427,372,0,0,0,0,0,0,0,0,0,-1,1651,652,0,0
434,372,0,0,0,0,0,0,0,0,0,-1,1658,652,0,0
441,372,0,0,0,0,0,0,0,0,0,-1,1665,652,0,0
448,372,0,0,0,0,0,0,0,0,0,-1,1672,652,0,0
455,372,0,0,0,0,0,0,0,0,0,-1,1679,652,0,0
462,372,0,0,0,0,0,0,0,0,0,-1,1686,652,0,0
469,372,0,0,0,0,0,0,0,0,0,-1,1693,652,0,0
476,372,0,0,0,0,0,0,0,0,0,-1,1700,652,0,0
483,372,8.74182,1.53125,0,0,0,0,0,0,0,-1,1707,652,8.74186,-1.53126
490,372,9.78455,1.67096,0,0,0,0,0,0,0,-1,1714,652,9.7846,-1.67093
497,372,9.97644,1.46069,0,0,0,0,0,0,0,-1,1721,652,9.97647,-1.46071
504,372,10.1216,1.28375,0,0,0,0,0,0,0,-1,1728,652,10.1216,-1.28376
511,372,11.7367,-0.0272217,0,0,0,0,0,0,0,-1,1735,652,11.7367,0.0272326
518,372,12.0657,-0.0995483,0,0,0,0,0,0,0,-1,1742,652,12.0657,0.0995285
525,372,12.3947,-0.171814,0,0,0,0,0,0,0,-1,1749,652,12.3946,0.171824
532,372,9.36597,1.72034,0,0,0,0,0,0,0,-1,1756,652,9.36597,-1.72036
539,372,7.82886,-0.0865479,0,0,0,0,0,0,0,-1,1763,652,7.82882,0.0865771
546,372,10.953,-0.187195,0,0,0,0,0,0,0,-1,1770,652,10.953,0.187181
553,372,14.1201,-4.83234,0,0,0,0,0,0,0,-1,1777,652,14.1201,4.83235
560,372,20.1057,-8.06934,0,0,0,0,0,0,0,-1,1784,652,20.1058,8.06936
567,372,39.9696,-19.9622,0,0,0,0,0,0,0,-1,1791,652,39.9696,19.9622
574,372,39.8815,-18.6539,0.00161942,-0.000557668,-0.000528865,0.0017411,-0.000679342,-0.22613,0.00144156,0.0442569,1798,652,39.8815,18.6538
581,372,39.7999,-17.7501,0.00101733,-0.000352173,-0.000438571,0.00114573,-0.000480582,-0.284828,0.000964777,0.0237163,1805,652,39.7999,17.7501
588,372,39.712,-16.7592,0.000927923,-5.13927e-05,-0.000119156,0.000942213,-6.56822e-05,-0.119353,0.000651141,0.0185531,1812,652,39.712,16.7592
595,372,39.6305,-15.7146,0.00109667,0.000474683,0.00030426,0.00122075,0.0003506,0.387227,0.000725768,0.0157883,1819,652,39.6305,15.7146
602,372,39.6024,-14.7026,0.00141677,0.00110471,0.000803088,0.00207885,0.000442634,0.689448,0.00126445,0.0199696,1826,652,39.6024,14.7026
609,372,39.4574,-13.7264,0.00180745,0.0018067,0.00133284,0.00313991,0.000474232,0.785258,0.00195447,0.022403,1833,652,39.4574,13.7264
616,372,39.3699,-12.6527,0.00225692,0.00261593,0.00184413,0.00428928,0.000583576,0.833914,0.00268621,0.0196789,1840,652,39.3699,12.6527
623,372,39.3544,-11.5405,0.00283679,0.00338293,0.00235532,0.00548095,0.000738763,0.84311,0.0034343,0.0134954,1847,652,39.3544,11.5405
630,372,39.3148,-10.5104,0.00330203,0.00414969,0.00277831,0.00653631,0.000915413,0.86109,0.00408672,0.0183414,1854,652,39.3148,10.5104
637,372,39.2729,-9.50354,0.00364983,0.00491622,0.00306782,0.00741551,0.00115054,0.887169,0.00460829,0.0293417,1861,652,39.2729,9.50354
644,372,39.376,-8.43726,0,0,0,0,0,0,0,-1,1868,652,39.376,8.43726
651,372,21.3998,-0.888,0,0,0,0,0,0,0,-1,1875,652,21.3998,0.887992
658,372,14.157,0.280273,0,0,0,0,0,0,0,-1,1882,652,14.157,-0.280264
665,372,15.2286,0.463867,0,0,0,0,0,0,0,-1,1889,652,15.2287,-0.463854
672,372,9.34106,1.48444,0,0,0,0,0,0,0,-1,1896,652,9.34109,-1.48444
679,372,10.7308,2.32391,0,0,0,0,0,0,0,-1,1903,652,10.7309,-2.3239
686,372,11.6295,2.52997,0,0,0,0,0,0,0,-1,1910,652,11.6296,-2.52996
693,372,0,0,0,0,0,0,0,0,0,-1,1917,652,0,0
700,372,0,0,0,0,0,0,0,0,0,-1,1924,652,0,0
707,372,0,0,0,0,0,0,0,0,0,-1,1931,652,0,0
714,372,0,0,0,0,0,0,0,0,0,-1,1938,652,0,0
721,372,0,0,0,0,0,0,0,0,0,-1,1945,652,0,0
728,372,0,0,0,0,0,0,0,0,0,-1,1952,652,0,0
735,372,0,0,0,0,0,0,0,0,0,-1,1959,652,0,0
742,372,0,0,0,0,0,0,0,0,0,-1,1966,652,0,0
749,372,0,0,0,0,0,0,0,0,0,-1,1973,652,0,0
756,372,0,0,0,0,0,0,0,0,0,-1,1980,652,0,0
763,372,0,0,0,0,0,0,0,0,0,-1,1987,652,0,0
770,372,0,0,0,0,0,0,0,0,0,-1,1994,652,0,0
777,372,0,0,0,0,0,0,0,0,0,-1,2001,652,0,0
784,372,0,0,0,0,0,0,0,0,0,-1,2008,652,0,0
791,372,0,0,0,0,0,0,0,0,0,-1,2015,652,0,0
798,372,0,0,0,0,0,0,0,0,0,-1,2022,652,0,0
805,372,0,0,0,0,0,0,0,0,0,-1,2029,652,0,0
812,372,0,0,0,0,0,0,0,0,0,-1,2036,652,0,0
-700,365,0,0,0,0,0,0,0,0,0,-1,524,659,0,0
-693,365,0,0,0,0,0,0,0,0,0,-1,531,659,0,0
-686,365,0,0,0,0,0,0,0,0,0,-1,538,659,0,0
-679,365,0,0,0,0,0,0,0,0,0,-1,545,659,0,0
-672,365,0,0,0,0,0,0,0,0,0,-1,552,659,0,0
-665,365,0,0,0,0,0,0,0,0,0,-1,559,659,0,0
-658,365,0,0,0,0,0,0,0,0,0,-1,566,659,0,0
-651,365,0,0,0,0,0,0,0,0,0,-1,573,659,0,0
-644,365,0,0,0,0,0,0,0,0,0,-1,580,659,0,0
-637,365,0,0,0,0,0,0,0,0,0,-1,587,659,0,0
-630,365,0,0,0,0,0,0,0,0,0,-1,594,659,0,0
-623,365,0,0,0,0,0,0,0,0,0,-1,601,659,0,0
-616,365,0,0,0,0,0,0,0,0,0,-1,608,659,0,0
-609,365,0,0,0,0,0,0,0,0,0,-1,615,659,0,0
-602,365,0,0,0,0,0,0,0,0,0,-1,622,659,0,0
-595,365,0,0,0,0,0,0,0,0,0,-1,629,659,0,0
-588,365,0,0,0,0,0,0,0,0,0,-1,636,659,0,0
-581,365,0,0,0,0,0,0,0,0,0,-1,643,659,0,0
-574,365,-7.69281,1.59015,0,0,0,0,0,0,0,-1,650,659,-7.69282,-1.59018
-567,365,-8.2583,1.72638,0,0,0,0,0,0,0,-1,657,659,-8.25827,-1.72637
-560,365,-7.17767,0.275757,0,0,0,0,0,0,0,-1,664,659,-7.17768,-0.27577
-553,365,-10.0349,-0.169617,0,0,0,0,0,0,0,-1,671,659,-10.0349,0.169593
-546,365,-10.6303,-1.51642,0,0,0,0,0,0,0,-1,678,659,-10.6303,1.5164
-539,365,-8.38599,1.52936,0,0,0,0,0,0,0,-1,685,659,-8.38598,-1.52935
-532,365,-8.52863,0.166504,0,0,0,0,0,0,0,-1,692,659,-8.52863,-0.166501
-525,365,-9.28229,-2.62726,0,0,0,0,0,0,0,-1,699,659,-9.28227,2.62724
-518,365,-23.2378,-8.09772,0,0,0,0,0,0,0,-1,706,659,-23.2378,8.09773
-511,365,-23.3136,-9.25543,0.00202774,0.000754933,-0.00143311,0.0029594,-0.000176721,-0.576441,0.0020344,0.038675,713,659,-23.3136,9.25541
-504,365,-23.3425,-10.3144,0.00184183,0.000596259,-0.00104231,0.00243324,4.84695e-06,-0.516108,0.00162055,0.014057,720,659,-23.3425,10.3144
-497,365,-23.4003,-11.3937,0.00166017,0.000436276,-0.000775847,0.00203636,6.00839e-05,-0.451478,0.00133799,0.0149248,727,659,-23.4003,11.3937
-490,365,-23.5009,-12.439,0.0015189,0.000301144,-0.000605281,0.00176856,5.14773e-05,-0.391218,0.00116226,0.0161773,734,659,-23.5009,12.439
-483,365,-23.61,-13.4291,0.00145684,0.000231436,-0.000555123,0.00167092,1.73579e-05,-0.368067,0.0011082,0.0142061,741,659,-23.61,13.4291
-476,365,-23.6029,-14.4694,0.00148708,0.000233157,-0.000607982,0.00173346,-1.32211e-05,-0.385015,0.00116007,0.0204796,748,659,-23.6029,14.4694
-469,365,-23.6771,-15.5074,0.00166378,0.000294752,-0.00077948,0.00201664,-5.81089e-05,-0.425087,0.00136421,0.0208474,755,659,-23.6771,15.5075
-462,365,-23.8022,-16.5092,0.00199554,0.000416303,-0.00106534,0.00253199,-0.00012014,-0.466478,0.00172943,0.0163824,762,659,-23.8022,16.5092
-455,365,-23.8712,-17.5352,0.00255986,0.000665213,-0.00150085,0.00338736,-0.000162283,-0.503879,0.00231423,0.0204551,769,659,-23.8711,17.5352
-448,365,-23.942,-18.6061,0,0,0,0,0,0,0,-1,776,659,-23.9419,18.6062
-441,365,-16.9571,-15.1896,0,0,0,0,0,0,0,-1,783,659,-16.9571,15.1896
-434,365,-5.45056,-3.98041,0,0,0,0,0,0,0,-1,790,659,-5.45055,3.98042
-427,365,-5.05377,-4.74689,0,0,0,0,0,0,0,-1,797,659,-5.05376,4.7469
-420,365,-4.58813,-3.16376,0,0,0,0,0,0,0,-1,804,659,-4.58816,3.16374
-413,365,0.141357,0.672729,0,0,0,0,0,0,0,-1,811,659,0.141365,-0.672714
-406,365,-1.75067,-0.934448,0,0,0,0,0,0,0,-1,818,659,-1.7507,0.934424
-399,365,-4.10242,-1.25439,0,0,0,0,0,0,0,-1,825,659,-4.10244,1.25438
-392,365,-7.46545,-0.779724,0,0,0,0,0,0,0,-1,832,659,-7.46543,0.779744
-385,365,-6.27875,-0.887573,0,0,0,0,0,0,0,-1,839,659,-6.27874,0.887545
-378,365,-5.34503,-0.263306,0,0,0,0,0,0,0,-1,846,659,-5.34504,0.263275
-371,365,0,0,0,0,0,0,0,0,0,-1,853,659,0,0
-364,365,0,0,0,0,0,0,0,0,0,-1,860,659,0,0
-357,365,0,0,0,0,0,0,0,0,0,-1,867,659,0,0
-350,365,0,0,0,0,0,0,0,0,0,-1,874,659,0,0
-343,365,0,0,0,0,0,0,0,0,0,-1,881,659,0,0
-336,365,0,0,0,0,0,0,0,0,0,-1,888,659,0,0
-329,365,0,0,0,0,0,0,0,0,0,-1,895,659,0,0
-322,365,0,0,0,0,0,0,0,0,0,-1,902,659,0,0
-315,365,0,0,0,0,0,0,0,0,0,-1,909,659,0,0
-308,365,0,0,0,0,0,0,0,0,0,-1,916,659,0,0
-301,365,0,0,0,0,0,0,0,0,0,-1,923,659,0,0
-294,365,0,0,0,0,0,0,0,0,0,-1,930,659,0,0
-287,365,0,0,0,0,0,0,0,0,0,-1,937,659,0,0
-280,365,0,0,0,0,0,0,0,0,0,-1,944,659,0,0
-273,365,0,0,0,0,0,0,0,0,0,-1,951,659,0,0
-266,365,0,0,0,0,0,0,0,0,0,-1,958,659,0,0
-259,365,0,0,0,0,0,0,0,0,0,-1,965,659,0,0
-252,365,0,0,0,0,0,0,0,0,0,-1,972,659,0,0
-245,365,0,0,0,0,0,0,0,0,0,-1,979,659,0,0
-238,365,0,0,0,0,0,0,0,0,0,-1,986,659,0,0
-231,365,0,0,0,0,0,0,0,0,0,-1,993,659,0,0
-224,365,0,0,0,0,0,0,0,0,0,-1,1000,659,0,0
-217,365,0,0,0,0,0,0,0,0,0,-1,1007,659,0,0
-210,365,0,0,0,0,0,0,0,0,0,-1,1014,659,0,0
-203,365,0,0,0,0,0,0,0,0,0,-1,1021,659,0,0
-196,365,0,0,0,0,0,0,0,0,0,-1,1028,659,0,0
-189,365,0,0,0,0,0,0,0,0,0,-1,1035,659,0,0
-182,365,0,0,0,0,0,0,0,0,0,-1,1042,659,0,0
-175,365,0,0,0,0,0,0,0,0,0,-1,1049,659,0,0
-168,365,0,0,0,0,0,0,0,0,0,-1,1056,659,0,0
-161,365,0,0,0,0,0,0,0,0,0,-1,1063,659,0,0
-154,365,0,0,0,0,0,0,0,0,0,-1,1070,659,0,0
-147,365,0,0,0,0,0,0,0,0,0,-1,1077,659,0,0
-140,365,0,0,0,0,0,0,0,0,0,-1,1084,659,0,0
-133,365,0,0,0,0,0,0,0,0,0,-1,1091,659,0,0
-126,365,0,0,0,0,0,0,0,0,0,-1,1098,659,0,0
-119,365,0,0,0,0,0,0,0,0,0,-1,1105,659,0,0
-112,365,0,0,0,0,0,0,0,0,0,-1,1112,659,0,0
-105,365,0,0,0,0,0,0,0,0,0,-1,1119,659,0,0
-98,365,0,0,0,0,0,0,0,0,0,-1,1126,659,0,0
-91,365,0,0,0,0,0,0,0,0,0,-1,1133,659,0,0
-84,365,0,0,0,0,0,0,0,0,0,-1,1140,659,0,0
-77,365,0,0,0,0,0,0,0,0,0,-1,1147,659,0,0
-70,365,0,0,0,0,0,0,0,0,0,-1,1154,659,0,0
-63,365,0,0,0,0,0,0,0,0,0,-1,1161,659,0,0
-56,365,0,0,0,0,0,0,0,0,0,-1,1168,659,0,0
-49,365,0,0,0,0,0,0,0,0,0,-1,1175,659,0,0
-42,365,0,0,0,0,0,0,0,0,0,-1,1182,659,0,0
-35,365,0,0,0,0,0,0,0,0,0,-1,1189,659,0,0
-28,365,0,0,0,0,0,0,0,0,0,-1,1196,659,0,0
-21,365,0,0,0,0,0,0,0,0,0,-1,1203,659,0,0
-14,365,0,0,0,0,0,0,0,0,0,-1,1210,659,0,0
-7,365,0,0,0,0,0,0,0,0,0,-1,1217,659,0,0
0,365,0,0,0,0,0,0,0,0,0,-1,1224,659,0,0
7,365,0,0,0,0,0,0,0,0,0,-1,1231,659,0,0
14,365,0,0,0,0,0,0,0,0,0,-1,1238,659,0,0
21,365,0,0,0,0,0,0,0,0,0,-1,1245,659,0,0
28,365,0,0,0,0,0,0,0,0,0,-1,1252,659,0,0
35,365,0,0,0,0,0,0,0,0,0,-1,1259,659,0,0
42,365,0,0,0,0,0,0,0,0,0,-1,1266,659,0,0
49,365,0,0,0,0,0,0,0,0,0,-1,1273,659,0,0
56,365,0,0,0,0,0,0,0,0,0,-1,1280,659,0,0
63,365,0,0,0,0,0,0,0,0,0,-1,1287,659,0,0
70,365,0,0,0,0,0,0,0,0,0,-1,1294,659,0,0
77,365,0,0,0,0,0,0,0,0,0,-1,1301,659,0,0
84,365,0,0,0,0,0,0,0,0,0,-1,1308,659,0,0
91,365,0,0,0,0,0,0,0,0,0,-1,1315,659,0,0
98,365,0,0,0,0,0,0,0,0,0,-1,1322,659,0,0
105,365,0,0,0,0,0,0,0,0,0,-1,1329,659,0,0
112,365,0,0,0,0,0,0,0,0,0,-1,1336,659,0,0
119,365,0,0,0,0,0,0,0,0,0,-1,1343,659,0,0
126,365,0,0,0,0,0,0,0,0,0,-1,1350,659,0,0
133,365,0,0,0,0,0,0,0,0,0,-1,1357,659,0,0
140,365,0,0,0,0,0,0,0,0,0,-1,1364,659,0,0
147,365,0,0,0,0,0,0,0,0,0,-1,1371,659,0,0
154,365,0,0,0,0,0,0,0,0,0,-1,1378,659,0,0
161,365,0,0,0,0,0,0,0,0,0,-1,1385,659,0,0
168,365,0,0,0,0,0,0,0,0,0,-1,1392,659,0,0
175,365,0,0,0,0,0,0,0,0,0,-1,1399,659,0,0
182,365,0,0,0,0,0,0,0,0,0,-1,1406,659,0,0
189,365,0,0,0,0,0,0,0,0,0,-1,1413,659,0,0
196,365,0,0,0,0,0,0,0,0,0,-1,1420,659,0,0
203,365,0,0,0,0,0,0,0,0,0,-1,1427,659,0,0
210,365,0,0,0,0,0,0,0,0,0,-1,1434,659,0,0
217,365,0,0,0,0,0,0,0,0,0,-1,1441,659,0,0
224,365,0,0,0,0,0,0,0,0,0,-1,1448,659,0,0
231,365,0,0,0,0,0,0,0,0,0,-1,1455,659,0,0
238,365,0,0,0,0,0,0,0,0,0,-1,1462,659,0,0
245,365,0,0,0,0,0,0,0,0,0,-1,1469,659,0,0
252,365,0,0,0,0,0,0,0,0,0,-1,1476,659,0,0
259,365,0,0,0,0,0,0,0,0,0,-1,1483,659,0,0
266,365,0,0,0,0,0,0,0,0,0,-1,1490,659,0,0
273,365,0,0,0,0,0,0,0,0,0,-1,1497,659,0,0
280,365,0,0,0,0,0,0,0,0,0,-1,1504,659,0,0
287,365,0,0,0,0,0,0,0,0,0,-1,1511,659,0,0
294,365,0,0,0,0,0,0,0,0,0,-1,1518,659,0,0
301,365,0,0,0,0,0,0,0,0,0,-1,1525,659,0,0
308,365,0,0,0,0,0,0,0,0,0,-1,1532,659,0,0
315,365,0,0,0,0,0,0,0,0,0,-1,1539,659,0,0
322,365,0,0,0,0,0,0,0,0,0,-1,1546,659,0,0
329,365,0,0,0,0,0,0,0,0,0,-1,1553,659,0,0
336,365,0,0,0,0,0,0,0,0,0,-1,1560,659,0,0
343,365,0,0,0,0,0,0,0,0,0,-1,1567,659,0,0
350,365,0,0,0,0,0,0,0,0,0,-1,1574,659,0,0
357,365,0,0,0,0,0,0,0,0,0,-1,1581,659,0,0
364,365,0,0,0,0,0,0,0,0,0,-1,1588,659,0,0
371,365,0,0,0,0,0,0,0,0,0,-1,1595,659,0,0
378,365,0,0,0,0,0,0,0,0,0,-1,1602,659,0,0
385,365,0,0,0,0,0,0,0,0,0,-1,1609,659,0,0
392,365,0,0,0,0,0,0,0,0,0,-1,1616,659,0,0
399,365,0,0,0,0,0,0,0,0,0,-1,1623,659,0,0
406,365,0,0,0,0,0,0,0,0,0,-1,1630,659,0,0
413,365,0,0,0,0,0,0,0,0,0,-1,1637,659,0,0
420,365,0,0,0,0,0,0,0,0,0,-1,1644,659,0,0
427,365,0,0,0,0,0,0,0,0,0,-1,1651,659,0,0
434,365,0,0,0,0,0,0,0,0,0,-1,1658,659,0,0
441,365,0,0,0,0,0,0,0,0,0,-1,1665,659,0,0
448,365,0,0,0,0,0,0,0,0,0,-1,1672,659,0,0
455,365,0,0,0,0,0,0,0,0,0,-1,1679,659,0,0
462,365,0,0,0,0,0,0,0,0,0,-1,1686,659,0,0
469,365,0,0,0,0,0,0,0,0,0,-1,1693,659,0,0
476,365,0,0,0,0,0,0,0,0,0,-1,1700,659,0,0
483,365,0,0,0,0,0,0,0,0,0,-1,1707,659,0,0
490,365,8.39551,0.471252,0,0,0,0,0,0,0,-1,1714,659,8.39551,-0.471241
497,365,9.89233,1.35394,0,0,0,0,0,0,0,-1,1721,659,9.89237,-1.35396
504,365,10.1414,1.18005,0,0,0,0,0,0,0,-1,1728,659,10.1413,-1.18004
511,365,10.5151,0.993896,0,0,0,0,0,0,0,-1,1735,659,10.5152,-0.993894
518,365,11.2029,0.398132,0,0,0,0,0,0,0,-1,1742,659,11.2029,-0.398136
525,365,15.5748,3.85303,0,0,0,0,0,0,0,-1,1749,659,15.5748,-3.85303
532,365,11.2446,1.00629,0,0,0,0,0,0,0,-1,1756,659,11.2446,-1.00631
539,365,12.6301,1.03204,0,0,0,0,0,0,0,-1,1763,659,12.6302,-1.03204
546,365,11.647,0.84198,0,0,0,0,0,0,0,-1,1770,659,11.6469,-0.841955
553,365,12.028,-0.558899,0,0,0,0,0,0,0,-1,1777,659,12.028,0.558873
560,365,14.5372,-4.55548,0,0,0,0,0,0,0,-1,1784,659,14.5373,4.55547
567,365,20.5676,-7.53888,0,0,0,0,0,0,0,-1,1791,659,20.5676,7.53887
574,365,41.1901,-18.5125,0,0,0,0,0,0,0,-1,1798,659,41.19,18.5124
581,365,40.7115,-17.8178,0,0,0,0,0,0,0,-1,1805,659,40.7115,17.8178
588,365,40.6943,-16.7416,0.000683838,-0.000407967,-0.000429106,0.0008323,-0.000556428,-0.333088,0.000807039,0.0225238,1812,659,40.6943,16.7417
595,365,40.6481,-15.6353,0.000843053,6.52445e-05,-1.79159e-05,0.000843465,6.48321e-05,-0.0230175,0.000541993,0.0150138,1819,659,40.6481,15.6353
602,365,40.5734,-14.5817,0.00112539,0.000609764,0.000432731,0.00137128,0.000363867,0.516744,0.000820258,0.0196374,1826,659,40.5733,14.5817
609,365,40.4355,-13.5717,0.00145204,0.00119458,0.000897949,0.00223044,0.000416181,0.714205,0.00136948,0.0217422,1833,659,40.4356,13.5716
616,365,40.3956,-12.5156,0.00180408,0.00183858,0.00131965,0.00314109,0.000501571,0.791932,0.00194851,0.0212304,1840,659,40.3956,12.5155
623,365,40.3699,-11.4667,0.00228438,0.00242543,0.00171665,0.00407301,0.000636808,0.805928,0.00252993,0.0122511,1847,659,40.3699,11.4667
630,365,40.3339,-10.4377,0.00265294,0.00301382,0.00204055,0.00488189,0.00078486,0.829497,0.00302708,0.0163513,1854,659,40.3339,10.4377
637,365,40.2585,-9.4248,0.00291928,0.00354006,0.00221644,0.00546773,0.000991602,0.854966,0.0033637,0.0234922,1861,659,40.2586,9.42482
644,365,40.202,-8.39453,0.00312125,0.00406921,0.00230396,0.00594744,0.00124303,0.886845,0.00362242,0.0268358,1868,659,40.2021,8.39454
651,365,40.2025,-7.31659,0,0,0,0,0,0,0,-1,1875,659,40.2025,7.31658
658,365,24.745,-2.13275,0,0,0,0,0,0,0,-1,1882,659,24.745,2.13277
665,365,14.0961,0.769043,0,0,0,0,0,0,0,-1,1889,659,14.0961,-0.769063
672,365,10.0579,2.15088,0,0,0,0,0,0,0,-1,1896,659,10.0579,-2.15088
679,365,10.9718,2.19208,0,0,0,0,0,0,0,-1,1903,659,10.9718,-2.19211
686,365,12.2134,2.17108,0,0,0,0,0,0,0,-1,1910,659,12.2134,-2.17109
693,365,13.7141,1.98279,0,0,0,0,0,0,0,-1,1917,659,13.7141,-1.98278
700,365,0,0,0,0,0,0,0,0,0,-1,1924,659,0,0
707,365,0,0,0,0,0,0,0,0,0,-1,1931,659,0,0
714,365,0,0,0,0,0,0,0,0,0,-1,1938,659,0,0
721,365,0,0,0,0,0,0,0,0,0,-1,1945,659,0,0
728,365,0,0,0,0,0,0,0,0,0,-1,1952,659,0,0
735,365,0,0,0,0,0,0,0,0,0,-1,1959,659,0,0
742,365,0,0,0,0,0,0,0,0,0,-1,1966,659,0,0
749,365,0,0,0,0,0,0,0,0,0,-1,1973,659,0,0
756,365,0,0,0,0,0,0,0,0,0,-1,1980,659,0,0
763,365,0,0,0,0,0,0,0,0,0,-1,1987,659,0,0
770,365,0,0,0,0,0,0,0,0,0,-1,1994,659,0,0
777,365,0,0,0,0,0,0,0,0,0,-1,2001,659,0,0
784,365,0,0,0,0,0,0,0,0,0,-1,2008,659,0,0
791,365,0,0,0,0,0,0,0,0,0,-1,2015,659,0,0
798,365,0,0,0,0,0,0,0,0,0,-1,2022,659,0,0
805,365,0,0,0,0,0,0,0,0,0,-1,2029,659,0,0
812,365,0,0,0,0,0,0,0,0,0,-1,2036,659,0,0
-700,358,0,0,0,0,0,0,0,0,0,-1,524,666,0,0
-693,358,0,0,0,0,0,0,0,0,0,-1,531,666,0,0
-686,358,0,0,0,0,0,0,0,0,0,-1,538,666,0,0
-679,358,0,0,0,0,0,0,0,0,0,-1,545,666,0,0
-672,358,0,0,0,0,0,0,0,0,0,-1,552,666,0,0
-665,358,0,0,0,0,0,0,0,0,0,-1,559,666,0,0
-658,358,0,0,0,0,0,0,0,0,0,-1,566,666,0,0
-651,358,0,0,0,0,0,0,0,0,0,-1,573,666,0,0
-644,358,0,0,0,0,0,0,0,0,0,-1,580,666,0,0
-637,358,0,0,0,0,0,0,0,0,0,-1,587,666,0,0
-630,358,0,0,0,0,0,0,0,0,0,-1,594,666,0,0
-623,358,0,0,0,0,0,0,0,0,0,-1,601,666,0,0
-616,358,0,0,0,0,0,0,0,0,0,-1,608,666,0,0
-609,358,0,0,0,0,0,0,0,0,0,-1,615,666,0,0
-602,358,0,0,0,0,0,0,0,0,0,-1,622,666,0,0
-595,358,0,0,0,0,0,0,0,0,0,-1,629,666,0,0
-588,358,0,0,0,0,0,0,0,0,0,-1,636,666,0,0
-581,358,-8.31616,1.61993,0,0,0,0,0,0,0,-1,643,666,-8.31614,-1.61993
-574,358,-8.22406,1.75385,0,0,0,0,0,0,0,-1,650,666,-8.22408,-1.75383
-567,358,-8.14215,1.91577,0,0,0,0,0,0,0,-1,657,666,-8.14214,-1.91579
-560,358,-10.6086,2.18872,0,0,0,0,0,0,0,-1,664,666,-10.6086,-2.18873
-553,358,-13.4767,1.09552,0,0,0,0,0,0,0,-1,671,666,-13.4767,-1.09551
-546,358,-13.3743,-0.185059,0,0,0,0,0,0,0,-1,678,666,-13.3743,0.185037
-539,358,-9.43884,-2.04785,0,0,0,0,0,0,0,-1,685,666,-9.43884,2.04785
-532,358,-12.4141,-2.36572,0,0,0,0,0,0,0,-1,692,666,-12.4141,2.3657
-525,358,-12.731,-3.88031,0,0,0,0,0,0,0,-1,699,666,-12.731,3.88029
-518,358,-24.246,-8.13049,0,0,0,0,0,0,0,-1,706,666,-24.2461,8.13047
-511,358,-24.3309,-9.16888,0.00213432,0.000925711,-0.00151728,0.00316321,-0.000103177,-0.595886,0.00214402,0.0184368,713,666,-24.3308,9.1689
-504,358,-24.4146,-10.2159,0.00189183,0.000658424,-0.00107332,0.002513,3.72535e-05,-0.52464,0.00166305,0.012755,720,666,-24.4146,10.216
-497,358,-24.4618,-11.3049,0.00170565,0.000448328,-0.000765145,0.00206727,8.67059e-05,-0.441504,0.00135021,0.0129261,727,666,-24.4618,11.3048
-490,358,-24.5197,-12.3572,0.00156552,0.000315143,-0.000578015,0.00179178,8.88847e-05,-0.373106,0.00116602,0.0129193,734,666,-24.5197,12.3572
-483,358,-24.6173,-13.3571,0.00153332,0.000284224,-0.000543023,0.00173638,8.11644e-05,-0.357844,0.0011315,0.0114553,741,666,-24.6173,13.3571
-476,358,-24.6199,-14.3703,0.00159328,0.00033913,-0.000628823,0.00185426,7.81511e-05,-0.393394,0.00121097,0.0157367,748,666,-24.6198,14.3703
-469,358,-24.7324,-15.3935,0.0017934,0.000469437,-0.000848633,0.00220771,5.51294e-05,-0.454168,0.00145378,0.0203279,755,666,-24.7324,15.3935
-462,358,-24.8534,-16.4434,0.00213225,0.000687976,-0.00119189,0.0028037,1.65218e-05,-0.513035,0.00186365,0.0202352,762,666,-24.8534,16.4434
-455,358,-24.8731,-17.4969,0,0,0,0,0,0,0,-1,769,666,-24.8731,17.4969
-448,358,-17.7847,-14.434,0,0,0,0,0,0,0,-1,776,666,-17.7847,14.434
-441,358,-5.56293,-3.98041,0,0,0,0,0,0,0,-1,783,666,-5.56291,3.98043
-434,358,-5.21558,-4.43127,0,0,0,0,0,0,0,-1,790,666,-5.21559,4.43125
-427,358,-3.56189,-3.15729,0,0,0,0,0,0,0,-1,797,666,-3.56192,3.15729
-420,358,0.200195,1.08234,0,0,0,0,0,0,0,-1,804,666,0.200174,-1.08231
-413,358,0.0325317,0.161072,0,0,0,0,0,0,0,-1,811,666,0.0325501,-0.161098
-406,358,-3.85846,0.753113,0,0,0,0,0,0,0,-1,818,666,-3.85846,-0.753129
-399,358,-1.31213,0.190735,0,0,0,0,0,0,0,-1,825,666,-1.31215,-0.190763
-392,358,-3.73914,-0.832214,0,0,0,0,0,0,0,-1,832,666,-3.73915,0.832202
-385,358,-5.95178,-1.69141,0,0,0,0,0,0,0,-1,839,666,-5.9518,1.69143
-378,358,0,0,0,0,0,0,0,0,0,-1,846,666,0,0
-371,358,0,0,0,0,0,0,0,0,0,-1,853,666,0,0
-364,358,0,0,0,0,0,0,0,0,0,-1,860,666,0,0
-357,358,0,0,0,0,0,0,0,0,0,-1,867,666,0,0
-350,358,0,0,0,0,0,0,0,0,0,-1,874,666,0,0
-343,358,0,0,0,0,0,0,0,0,0,-1,881,666,0,0
-336,358,0,0,0,0,0,0,0,0,0,-1,888,666,0,0
-329,358,0,0,0,0,0,0,0,0,0,-1,895,666,0,0
-322,358,0,0,0,0,0,0,0,0,0,-1,902,666,0,0
-315,358,0,0,0,0,0,0,0,0,0,-1,909,666,0,0
-308,358,0,0,0,0,0,0,0,0,0,-1,916,666,0,0
-301,358,0,0,0,0,0,0,0,0,0,-1,923,666,0,0
-294,358,0,0,0,0,0,0,0,0,0,-1,930,666,0,0
-287,358,0,0,0,0,0,0,0,0,0,-1,937,666,0,0
-280,358,0,0,0,0,0,0,0,0,0,-1,944,666,0,0
-273,358,0,0,0,0,0,0,0,0,0,-1,951,666,0,0
-266,358,0,0,0,0,0,0,0,0,0,-1,958,666,0,0
-259,358,0,0,0,0,0,0,0,0,0,-1,965,666,0,0
-252,358,0,0,0,0,0,0,0,0,0,-1,972,666,0,0
-245,358,0,0,0,0,0,0,0,0,0,-1,979,666,0,0
-238,358,0,0,0,0,0,0,0,0,0,-1,986,666,0,0
-231,358,0,0,0,0,0,0,0,0,0,-1,993,666,0,0
-224,358,0,0,0,0,0,0,0,0,0,-1,1000,666,0,0
-217,358,0,0,0,0,0,0,0,0,0,-1,1007,666,0,0
-210,358,0,0,0,0,0,0,0,0,0,-1,1014,666,0,0
-203,358,0,0,0,0,0,0,0,0,0,-1,1021,666,0,0
-196,358,0,0,0,0,0,0,0,0,0,-1,1028,666,0,0
-189,358,0,0,0,0,0,0,0,0,0,-1,1035,666,0,0
-182,358,0,0,0,0,0,0,0,0,0,-1,1042,666,0,0
-175,358,0,0,0,0,0,0,0,0,0,-1,1049,666,0,0
-168,358,0,0,0,0,0,0,0,0,0,-1,1056,666,0,0
-161,358,0,0,0,0,0,0,0,0,0,-1,1063,666,0,0
-154,358,0,0,0,0,0,0,0,0,0,-1,1070,666,0,0
-147,358,0,0,0,0,0,0,0,0,0,-1,1077,666,0,0
-140,358,0,0,0,0,0,0,0,0,0,-1,1084,666,0,0
-133,358,0,0,0,0,0,0,0,0,0,-1,1091,666,0,0
-126,358,0,0,0,0,0,0,0,0,0,-1,1098,666,0,0
-119,358,0,0,0,0,0,0,0,0,0,-1,1105,666,0,0
-112,358,0,0,0,0,0,0,0,0,0,-1,1112,666,0,0
-105,358,0,0,0,0,0,0,0,0,0,-1,1119,666,0,0
-98,358,0,0,0,0,0,0,0,0,0,-1,1126,666,0,0
-91,358,0,0,0,0,0,0,0,0,0,-1,1133,666,0,0
-84,358,0,0,0,0,0,0,0,0,0,-1,1140,666,0,0
-77,358,0,0,0,0,0,0,0,0,0,-1,1147,666,0,0
-70,358,0,0,0,0,0,0,0,0,0,-1,1154,666,0,0
-63,358,0,0,0,0,0,0,0,0,0,-1,1161,666,0,0
-56,358,0,0,0,0,0,0,0,0,0,-1,1168,666,0,0
-49,358,0,0,0,0,0,0,0,0,0,-1,1175,666,0,0
-42,358,0,0,0,0,0,0,0,0,0,-1,1182,666,0,0
-35,358,0,0,0,0,0,0,0,0,0,-1,1189,666,0,0
-28,358,0,0,0,0,0,0,0,0,0,-1,1196,666,0,0
-21,358,0,0,0,0,0,0,0,0,0,-1,1203,666,0,0
-14,358,0,0,0,0,0,0,0,0,0,-1,1210,666,0,0
-7,358,0,0,0,0,0,0,0,0,0,-1,1217,666,0,0
0,358,0,0,0,0,0,0,0,0,0,-1,1224,666,0,0
7,358,0,0,0,0,0,0,0,0,0,-1,1231,666,0,0
14,358,0,0,0,0,0,0,0,0,0,-1,1238,666,0,0
21,358,0,0,0,0,0,0,0,0,0,-1,1245,666,0,0
28,358,0,0,0,0,0,0,0,0,0,-1,1252,666,0,0
35,358,0,0,0,0,0,0,0,0,0,-1,1259,666,0,0
42,358,0,0,0,0,0,0,0,0,0,-1,1266,666,0,0
49,358,0,0,0,0,0,0,0,0,0,-1,1273,666,0,0
56,358,0,0,0,0,0,0,0,0,0,-1,1280,666,0,0
63,358,0,0,0,0,0,0,0,0,0,-1,1287,666,0,0
70,358,0,0,0,0,0,0,0,0,0,-1,1294,666,0,0
77,358,0,0,0,0,0,0,0,0,0,-1,1301,666,0,0
84,358,0,0,0,0,0,0,0,0,0,-1,1308,666,0,0
91,358,0,0,0,0,0,0,0,0,0,-1,1315,666,0,0
98,358,0,0,0,0,0,0,0,0,0,-1,1322,666,0,0
105,358,0,0,0,0,0,0,0,0,0,-1,1329,666,0,0
112,358,0,0,0,0,0,0,0,0,0,-1,1336,666,0,0
119,358,0,0,0,0,0,0,0,0,0,-1,1343,666,0,0
126,358,0,0,0,0,0,0,0,0,0,-1,1350,666,0,0
133,358,0,0,0,0,0,0,0,0,0,-1,1357,666,0,0
140,358,0,0,0,0,0,0,0,0,0,-1,1364,666,0,0
147,358,0,0,0,0,0,0,0,0,0,-1,1371,666,0,0
154,358,0,0,0,0,0,0,0,0,0,-1,1378,666,0,0
161,358,0,0,0,0,0,0,0,0,0,-1,1385,666,0,0
168,358,0,0,0,0,0,0,0,0,0,-1,1392,666,0,0
175,358,0,0,0,0,0,0,0,0,0,-1,1399,666,0,0
182,358,0,0,0,0,0,0,0,0,0,-1,1406,666,0,0
189,358,0,0,0,0,0,0,0,0,0,-1,1413,666,0,0
196,358,0,0,0,0,0,0,0,0,0,-1,1420,666,0,0
203,358,0,0,0,0,0,0,0,0,0,-1,1427,666,0,0
210,358,0,0,0,0,0,0,0,0,0,-1,1434,666,0,0
217,358,0,0,0,0,0,0,0,0,0,-1,1441,666,0,0
224,358,0,0,0,0,0,0,0,0,0,-1,1448,666,0,0
231,358,0,0,0,0,0,0,0,0,0,-1,1455,666,0,0
238,358,0,0,0,0,0,0,0,0,0,-1,1462,666,0,0
245,358,0,0,0,0,0,0,0,0,0,-1,1469,666,0,0
252,358,0,0,0,0,0,0,0,0,0,-1,1476,666,0,0
259,358,0,0,0,0,0,0,0,0,0,-1,1483,666,0,0
266,358,0,0,0,0,0,0,0,0,0,-1,1490,666,0,0
273,358,0,0,0,0,0,0,0,0,0,-1,1497,666,0,0
280,358,0,0,0,0,0,0,0,0,0,-1,1504,666,0,0
287,358,0,0,0,0,0,0,0,0,0,-1,1511,666,0,0
294,358,0,0,0,0,0,0,0,0,0,-1,1518,666,0,0
301,358,0,0,0,0,0,0,0,0,0,-1,1525,666,0,0
308,358,0,0,0,0,0,0,0,0,0,-1,1532,666,0,0
315,358,0,0,0,0,0,0,0,0,0,-1,1539,666,0,0
322,358,0,0,0,0,0,0,0,0,0,-1,1546,666,0,0
329,358,0,0,0,0,0,0,0,0,0,-1,1553,666,0,0
336,358,0,0,0,0,0,0,0,0,0,-1,1560,666,0,0
343,358,0,0,0,0,0,0,0,0,0,-1,1567,666,0,0
350,358,0,0,0,0,0,0,0,0,0,-1,1574,666,0,0
357,358,0,0,0,0,0,0,0,0,0,-1,1581,666,0,0
364,358,0,0,0,0,0,0,0,0,0,-1,1588,666,0,0
371,358,0,0,0,0,0,0,0,0,0,-1,1595,666,0,0
378,358,0,0,0,0,0,0,0,0,0,-1,1602,666,0,0
385,358,0,0,0,0,0,0,0,0,0,-1,1609,666,0,0
392,358,0,0,0,0,0,0,0,0,0,-1,1616,666,0,0
399,358,0,0,0,0,0,0,0,0,0,-1,1623,666,0,0
406,358,0,0,0,0,0,0,0,0,0,-1,1630,666,0,0
413,358,0,0,0,0,0,0,0,0,0,-1,1637,666,0,0
420,358,0,0,0,0,0,0,0,0,0,-1,1644,666,0,0
427,358,0,0,0,0,0,0,0,0,0,-1,1651,666,0,0
434,358,0,0,0,0,0,0,0,0,0,-1,1658,666,0,0
441,358,0,0,0,0,0,0,0,0,0,-1,1665,666,0,0
448,358,0,0,0,0,0,0,0,0,0,-1,1672,666,0,0
455,358,0,0,0,0,0,0,0,0,0,-1,1679,666,0,0
462,358,0,0,0,0,0,0,0,0,0,-1,1686,666,0,0
469,358,0,0,0,0,0,0,0,0,0,-1,1693,666,0,0
476,358,0,0,0,0,0,0,0,0,0,-1,1700,666,0,0
483,358,0,0,0,0,0,0,0,0,0,-1,1707,666,0,0
490,358,0,0,0,0,0,0,0,0,0,-1,1714,666,0,0
497,358,8.57239,1.1322,0,0,0,0,0,0,0,-1,1721,666,8.57234,-1.13219
504,358,10.5972,0.832947,0,0,0,0,0,0,0,-1,1728,666,10.5972,-0.832968
511,358,10.6873,0.868469,0,0,0,0,0,0,0,-1,1735,666,10.6872,-0.868484
518,358,16.5884,2.34894,0,0,0,0,0,0,0,-1,1742,666,16.5884,-2.34894
525,358,15.7626,3.65344,0,0,0,0,0,0,0,-1,1749,666,15.7626,-3.65342
532,358,14.9368,4.95789,0,0,0,0,0,0,0,-1,1756,666,14.9367,-4.9579
539,358,15.1597,3.42694,0,0,0,0,0,0,0,-1,1763,666,15.1597,-3.42692
546,358,12.3792,1.53558,0,0,0,0,0,0,0,-1,1770,666,12.3792,-1.5356
553,358,11.6584,1.26172,0,0,0,0,0,0,0,-1,1777,666,11.6585,-1.26175
560,358,10.8234,1.43042,0,0,0,0,0,0,0,-1,1784,666,10.8233,-1.43041
567,358,10.1333,-0.955139,0,0,0,0,0,0,0,-1,1791,666,10.1333,0.955132
574,358,14.7886,-2.69293,0,0,0,0,0,0,0,-1,1798,666,14.7885,2.6929
581,358,20.1738,-6.76135,0,0,0,0,0,0,0,-1,1805,666,20.1738,6.76137
588,358,41.6545,-16.7259,0,0,0,0,0,0,0,-1,1812,666,41.6545,16.7259
595,358,41.6598,-15.543,0.000517702,-0.000161633,-0.000154955,0.000551377,-0.000195309,-0.213997,0.00044714,0.0166106,1819,666,41.6598,15.5429
602,358,41.557,-14.4603,0.000819768,0.000333694,0.00023279,0.00091327,0.000240192,0.381934,0.000546664,0.0158035,1826,666,41.557,14.4604
609,358,41.4445,-13.4339,0.00114344,0.000832682,0.000628619,0.0016356,0.000340525,0.664238,0.000996479,0.0206411,1833,666,41.4445,13.4339
616,358,41.3975,-12.4312,0.00145104,0.00133376,0.000971336,0.0023655,0.000419293,0.755248,0.00145748,0.0176266,1840,666,41.3975,12.4311
623,358,41.408,-11.4142,0.00186303,0.00176658,0.00126678,0.00308251,0.000547106,0.766372,0.00189909,0.0149695,1847,666,41.408,11.4142
630,358,41.3632,-10.3852,0.0021941,0.00221158,0.00151247,0.00371533,0.000690348,0.788288,0.00228185,0.0183557,1854,666,41.3632,10.3852
637,358,41.2498,-9.37616,0.00244702,0.00255353,0.00160886,0.00411001,0.000890531,0.801942,0.00249668,0.026041,1861,666,41.2498,9.37619
644,358,41.1848,-8.39117,0.00266043,0.00286249,0.0016036,0.00436824,0.00115468,0.816857,0.00261372,0.0218016,1868,666,41.1848,8.39116
651,358,41.2087,-7.33398,0,0,0,0,0,0,0,-1,1875,666,41.2087,7.334
658,358,40.9656,-5.96014,0,0,0,0,0,0,0,-1,1882,666,40.9656,5.96017
665,358,28.0272,-2.07764,0,0,0,0,0,0,0,-1,1889,666,28.0272,2.07764
672,358,12.4299,1.47272,0,0,0,0,0,0,0,-1,1896,666,12.4299,-1.4727
679,358,12.1294,2.19702,0,0,0,0,0,0,0,-1,1903,666,12.1294,-2.19703
686,358,11.9557,2.2002,0,0,0,0,0,0,0,-1,1910,666,11.9557,-2.20021
693,358,13.188,2.52203,0,0,0,0,0,0,0,-1,1917,666,13.188,-2.52202
700,358,0,0,0,0,0,0,0,0,0,-1,1924,666,0,0
707,358,0,0,0,0,0,0,0,0,0,-1,1931,666,0,0
714,358,0,0,0,0,0,0,0,0,0,-1,1938,666,0,0
721,358,0,0,0,0,0,0,0,0,0,-1,1945,666,0,0
728,358,0,0,0,0,0,0,0,0,0,-1,1952,666,0,0
735,358,0,0,0,0,0,0,0,0,0,-1,1959,666,0,0
742,358,0,0,0,0,0,0,0,0,0,-1,1966,666,0,0
749,358,0,0,0,0,0,0,0,0,0,-1,1973,666,0,0
756,358,0,0,0,0,0,0,0,0,0,-1,1980,666,0,0
763,358,0,0,0,0,0,0,0,0,0,-1,1987,666,0,0
770,358,0,0,0,0,0,0,0,0,0,-1,1994,666,0,0
777,358,0,0,0,0,0,0,0,0,0,-1,2001,666,0,0
784,358,0,0,0,0,0,0,0,0,0,-1,2008,666,0,0
791,358,0,0,0,0,0,0,0,0,0,-1,2015,666,0,0
798,358,0,0,0,0,0,0,0,0,0,-1,2022,666,0,0
805,358,0,0,0,0,0,0,0,0,0,-1,2029,666,0,0
812,358,0,0,0,0,0,0,0,0,0,-1,2036,666,0,0
-700,351,0,0,0,0,0,0,0,0,0,-1,524,673,0,0
-693,351,0,0,0,0,0,0,0,0,0,-1,531,673,0,0
-686,351,0,0,0,0,0,0,0,0,0,-1,538,673,0,0
-679,351,0,0,0,0,0,0,0,0,0,-1,545,673,0,0
-672,351,0,0,0,0,0,0,0,0,0,-1,552,673,0,0
-665,351,0,0,0,0,0,0,0,0,0,-1,559,673,0,0
-658,351,0,0,0,0,0,0,0,0,0,-1,566,673,0,0
-651,351,0,0,0,0,0,0,0,0,0,-1,573,673,0,0
-644,351,0,0,0,0,0,0,0,0,0,-1,580,673,0,0
-637,351,0,0,0,0,0,0,0,0,0,-1,587,673,0,0
-630,351,0,0,0,0,0,0,0,0,0,-1,594,673,0,0
-623,351,0,0,0,0,0,0,0,0,0,-1,601,673,0,0
-616,351,0,0,0,0,0,0,0,0,0,-1,608,673,0,0
-609,351,0,0,0,0,0,0,0,0,0,-1,615,673,0,0
-602,351,0,0,0,0,0,0,0,0,0,-1,622,673,0,0
-595,351,0,0,0,0,0,0,0,0,0,-1,629,673,0,0
-588,351,0,0,0,0,0,0,0,0,0,-1,636,673,0,0
-581,351,-9.0647,1.71906,0,0,0,0,0,0,0,-1,643,673,-9.06472,-1.71908
-574,351,-8.23584,2.64764,0,0,0,0,0,0,0,-1,650,673,-8.23584,-2.64764
-567,351,-10.8027,4.56836,0,0,0,0,0,0,0,-1,657,673,-10.8027,-4.56839
-560,351,-14.2001,2.17084,0,0,0,0,0,0,0,-1,664,673,-14.2002,-2.17086
-553,351,-13.4979,0.779541,0,0,0,0,0,0,0,-1,671,673,-13.4978,-0.779519
-546,351,-14.0065,0.73645,0,0,0,0,0,0,0,-1,678,673,-14.0065,-0.736473
-539,351,-12.8123,-1.46393,0,0,0,0,0,0,0,-1,685,673,-12.8123,1.46395
-532,351,-16.0198,-4.03937,0,0,0,0,0,0,0,-1,692,673,-16.0198,4.03936
-525,351,-25.3322,-6.98981,0,0,0,0,0,0,0,-1,699,673,-25.3322,6.98983
-518,351,-25.2932,-8.01068,0.00261956,0.00167359,-0.00230003,0.00449474,-0.00020159,-0.683991,0.0030659,0.0222799,706,673,-25.2932,8.01066
-511,351,-25.3503,-9.09723,0.00221071,0.00105233,-0.00150504,0.00324416,1.88791e-05,-0.601716,0.00215651,0.0130515,713,673,-25.3504,9.09721
-504,351,-25.4708,-10.1383,0.00191027,0.000688583,-0.00101526,0.00248428,0.000114568,-0.514579,0.00161935,0.0123781,720,673,-25.4708,10.1383
-497,351,-25.541,-11.1951,0.00169915,0.000424283,-0.000668835,0.00198566,0.000137778,-0.404716,0.00128032,0.0119082,727,673,-25.541,11.1951
-490,351,-25.5899,-12.2383,0.00157431,0.000302504,-0.00049101,0.00174181,0.000134999,-0.328763,0.00111893,0.0118057,734,673,-25.5899,12.2384
-483,351,-25.6455,-13.258,0.00156894,0.000317362,-0.000490867,0.00173849,0.000147813,-0.332577,0.001113,0.0137767,741,673,-25.6455,13.258
-476,351,-25.7171,-14.2758,0.00165275,0.00043454,-0.000644226,0.00193023,0.000157058,-0.406707,0.00123779,0.0124234,748,673,-25.7171,14.2757
-469,351,-25.7682,-15.2875,0.00187369,0.000647793,-0.000953124,0.00239395,0.000127538,-0.499645,0.0015552,0.0140278,755,673,-25.7682,15.2875
-462,351,-25.8248,-16.4188,0.00221473,0.000997395,-0.00142926,0.00315953,5.25956e-05,-0.584098,0.00208904,0.0423536,762,673,-25.8248,16.4188
-455,351,-25.8158,-17.5787,0,0,0,0,0,0,0,-1,769,673,-25.8158,17.5787
-448,351,-6.61456,-4.38654,0,0,0,0,0,0,0,-1,776,673,-6.61456,4.38654
-441,351,-4.31567,-2.3009,0,0,0,0,0,0,0,-1,783,673,-4.31565,2.30089
-434,351,-3.81708,-2.28003,0,0,0,0,0,0,0,-1,790,673,-3.81706,2.28006
-427,351,-2.05157,-2.7785,0,0,0,0,0,0,0,-1,797,673,-2.05157,2.77848
-420,351,-1.06989,-2.43665,0,0,0,0,0,0,0,-1,804,673,-1.06991,2.43663
-413,351,-0.392334,-2.06671,0,0,0,0,0,0,0,-1,811,673,-0.392363,2.06672
-406,351,-1.86316,-2.58105,0,0,0,0,0,0,0,-1,818,673,-1.86313,2.58106
-399,351,1.00952,-1.53455,0,0,0,0,0,0,0,-1,825,673,1.00954,1.53457
-392,351,-1.02197,0.877136,0,0,0,0,0,0,0,-1,832,673,-1.02195,-0.877143
-385,351,-1.47205,1.04437,0,0,0,0,0,0,0,-1,839,673,-1.47207,-1.04435
-378,351,0,0,0,0,0,0,0,0,0,-1,846,673,0,0
-371,351,0,0,0,0,0,0,0,0,0,-1,853,673,0,0
-364,351,0,0,0,0,0,0,0,0,0,-1,860,673,0,0
-357,351,0,0,0,0,0,0,0,0,0,-1,867,673,0,0
-350,351,0,0,0,0,0,0,0,0,0,-1,874,673,0,0
-343,351,0,0,0,0,0,0,0,0,0,-1,881,673,0,0
-336,351,0,0,0,0,0,0,0,0,0,-1,888,673,0,0
-329,351,0,0,0,0,0,0,0,0,0,-1,895,673,0,0
-322,351,0,0,0,0,0,0,0,0,0,-1,902,673,0,0
-315,351,0,0,0,0,0,0,0,0,0,-1,909,673,0,0
-308,351,0,0,0,0,0,0,0,0,0,-1,916,673,0,0
-301,351,0,0,0,0,0,0,0,0,0,-1,923,673,0,0
-294,351,0,0,0,0,0,0,0,0,0,-1,930,673,0,0
-287,351,0,0,0,0,0,0,0,0,0,-1,937,673,0,0
-280,351,0,0,0,0,0,0,0,0,0,-1,944,673,0,0
-273,351,0,0,0,0,0,0,0,0,0,-1,951,673,0,0
-266,351,0,0,0,0,0,0,0,0,0,-1,958,673,0,0
-259,351,0,0,0,0,0,0,0,0,0,-1,965,673,0,0
-252,351,0,0,0,0,0,0,0,0,0,-1,972,673,0,0
-245,351,0,0,0,0,0,0,0,0,0,-1,979,673,0,0
-238,351,0,0,0,0,0,0,0,0,0,-1,986,673,0,0
-231,351,0,0,0,0,0,0,0,0,0,-1,993,673,0,0
-224,351,0,0,0,0,0,0,0,0,0,-1,1000,673,0,0
-217,351,0,0,0,0,0,0,0,0,0,-1,1007,673,0,0
-210,351,0,0,0,0,0,0,0,0,0,-1,1014,673,0,0
-203,351,0,0,0,0,0,0,0,0,0,-1,1021,673,0,0
-196,351,0,0,0,0,0,0,0,0,0,-1,1028,673,0,0
-189,351,0,0,0,0,0,0,0,0,0,-1,1035,673,0,0
-182,351,0,0,0,0,0,0,0,0,0,-1,1042,673,0,0
-175,351,0,0,0,0,0,0,0,0,0,-1,1049,673,0,0
-168,351,0,0,0,0,0,0,0,0,0,-1,1056,673,0,0
-161,351,0,0,0,0,0,0,0,0,0,-1,1063,673,0,0
-154,351,0,0,0,0,0,0,0,0,0,-1,1070,673,0,0
-147,351,0,0,0,0,0,0,0,0,0,-1,1077,673,0,0
-140,351,0,0,0,0,0,0,0,0,0,-1,1084,673,0,0
-133,351,0,0,0,0,0,0,0,0,0,-1,1091,673,0,0
-126,351,0,0,0,0,0,0,0,0,0,-1,1098,673,0,0
-119,351,0,0,0,0,0,0,0,0,0,-1,1105,673,0,0
-112,351,0,0,0,0,0,0,0,0,0,-1,1112,673,0,0
-105,351,0,0,0,0,0,0,0,0,0,-1,1119,673,0,0
-98,351,0,0,0,0,0,0,0,0,0,-1,1126,673,0,0
-91,351,0,0,0,0,0,0,0,0,0,-1,1133,673,0,0
-84,351,0,0,0,0,0,0,0,0,0,-1,1140,673,0,0
-77,351,0,0,0,0,0,0,0,0,0,-1,1147,673,0,0
-70,351,0,0,0,0,0,0,0,0,0,-1,1154,673,0,0
-63,351,0,0,0,0,0,0,0,0,0,-1,1161,673,0,0
-56,351,0,0,0,0,0,0,0,0,0,-1,1168,673,0,0
-49,351,0,0,0,0,0,0,0,0,0,-1,1175,673,0,0
-42,351,0,0,0,0,0,0,0,0,0,-1,1182,673,0,0
-35,351,0,0,0,0,0,0,0,0,0,-1,1189,673,0,0
-28,351,0,0,0,0,0,0,0,0,0,-1,1196,673,0,0
-21,351,0,0,0,0,0,0,0,0,0,-1,1203,673,0,0
-14,351,0,0,0,0,0,0,0,0,0,-1,1210,673,0,0
-7,351,0,0,0,0,0,0,0,0,0,-1,1217,673,0,0
0,351,0,0,0,0,0,0,0,0,0,-1,1224,673,0,0
7,351,0,0,0,0,0,0,0,0,0,-1,1231,673,0,0
14,351,0,0,0,0,0,0,0,0,0,-1,1238,673,0,0
21,351,0,0,0,0,0,0,0,0,0,-1,1245,673,0,0
28,351,0,0,0,0,0,0,0,0,0,-1,1252,673,0,0
35,351,0,0,0,0,0,0,0,0,0,-1,1259,673,0,0
42,351,0,0,0,0,0,0,0,0,0,-1,1266,673,0,0
49,351,0,0,0,0,0,0,0,0,0,-1,1273,673,0,0
56,351,0,0,0,0,0,0,0,0,0,-1,1280,673,0,0
63,351,0,0,0,0,0,0,0,0,0,-1,1287,673,0,0
70,351,0,0,0,0,0,0,0,0,0,-1,1294,673,0,0
77,351,0,0,0,0,0,0,0,0,0,-1,1301,673,0,0
84,351,0,0,0,0,0,0,0,0,0,-1,1308,673,0,0
91,351,0,0,0,0,0,0,0,0,0,-1,1315,673,0,0
98,351,0,0,0,0,0,0,0,0,0,-1,1322,673,0,0
105,351,0,0,0,0,0,0,0,0,0,-1,1329,673,0,0
112,351,0,0,0,0,0,0,0,0,0,-1,1336,673,0,0
119,351,0,0,0,0,0,0,0,0,0,-1,1343,673,0,0
126,351,0,0,0,0,0,0,0,0,0,-1,1350,673,0,0
133,351,0,0,0,0,0,0,0,0,0,-1,1357,673,0,0
140,351,0,0,0,0,0,0,0,0,0,-1,1364,673,0,0
147,351,0,0,0,0,0,0,0,0,0,-1,1371,673,0,0
154,351,0,0,0,0,0,0,0,0,0,-1,1378,673,0,0
161,351,0,0,0,0,0,0,0,0,0,-1,1385,673,0,0
168,351,0,0,0,0,0,0,0,0,0,-1,1392,673,0,0
175,351,0,0,0,0,0,0,0,0,0,-1,1399,673,0,0
182,351,0,0,0,0,0,0,0,0,0,-1,1406,673,0,0
189,351,0,0,0,0,0,0,0,0,0,-1,1413,673,0,0
196,351,0,0,0,0,0,0,0,0,0,-1,1420,673,0,0
203,351,0,0,0,0,0,0,0,0,0,-1,1427,673,0,0
210,351,0,0,0,0,0,0,0,0,0,-1,1434,673,0,0
217,351,0,0,0,0,0,0,0,0,0,-1,1441,673,0,0
224,351,0,0,0,0,0,0,0,0,0,-1,1448,673,0,0
231,351,0,0,0,0,0,0,0,0,0,-1,1455,673,0,0
238,351,0,0,0,0,0,0,0,0,0,-1,1462,673,0,0
245,351,0,0,0,0,0,0,0,0,0,-1,1469,673,0,0
252,351,0,0,0,0,0,0,0,0,0,-1,1476,673,0,0
259,351,0,0,0,0,0,0,0,0,0,-1,1483,673,0,0
266,351,0,0,0,0,0,0,0,0,0,-1,1490,673,0,0
273,351,0,0,0,0,0,0,0,0,0,-1,1497,673,0,0
280,351,0,0,0,0,0,0,0,0,0,-1,1504,673,0,0
287,351,0,0,0,0,0,0,0,0,0,-1,1511,673,0,0
294,351,0,0,0,0,0,0,0,0,0,-1,1518,673,0,0
301,351,0,0,0,0,0,0,0,0,0,-1,1525,673,0,0
308,351,0,0,0,0,0,0,0,0,0,-1,1532,673,0,0
315,351,0,0,0,0,0,0,0,0,0,-1,1539,673,0,0
322,351,0,0,0,0,0,0,0,0,0,-1,1546,673,0,0
329,351,0,0,0,0,0,0,0,0,0,-1,1553,673,0,0
336,351,0,0,0,0,0,0,0,0,0,-1,1560,673,0,0
343,351,0,0,0,0,0,0,0,0,0,-1,1567,673,0,0
350,351,0,0,0,0,0,0,0,0,0,-1,1574,673,0,0
357,351,0,0,0,0,0,0,0,0,0,-1,1581,673,0,0
364,351,0,0,0,0,0,0,0,0,0,-1,1588,673,0,0
371,351,0,0,0,0,0,0,0,0,0,-1,1595,673,0,0
378,351,0,0,0,0,0,0,0,0,0,-1,1602,673,0,0
385,351,0,0,0,0,0,0,0,0,0,-1,1609,673,0,0
392,351,0,0,0,0,0,0,0,0,0,-1,1616,673,0,0
399,351,0,0,0,0,0,0,0,0,0,-1,1623,673,0,0
406,351,0,0,0,0,0,0,0,0,0,-1,1630,673,0,0
413,351,0,0,0,0,0,0,0,0,0,-1,1637,673,0,0
420,351,0,0,0,0,0,0,0,0,0,-1,1644,673,0,0
427,351,0,0,0,0,0,0,0,0,0,-1,1651,673,0,0
434,351,0,0,0,0,0,0,0,0,0,-1,1658,673,0,0
441,351,0,0,0,0,0,0,0,0,0,-1,1665,673,0,0
448,351,0,0,0,0,0,0,0,0,0,-1,1672,673,0,0
455,351,0,0,0,0,0,0,0,0,0,-1,1679,673,0,0
462,351,0,0,0,0,0,0,0,0,0,-1,1686,673,0,0
469,351,0,0,0,0,0,0,0,0,0,-1,1693,673,0,0
476,351,0,0,0,0,0,0,0,0,0,-1,1700,673,0,0
483,351,0,0,0,0,0,0,0,0,0,-1,1707,673,0,0
490,351,0,0,0,0,0,0,0,0,0,-1,1714,673,0,0
497,351,0,0,0,0,0,0,0,0,0,-1,1721,673,0,0
504,351,10.8842,1.61615,0,0,0,0,0,0,0,-1,1728,673,10.8842,-1.61618
511,351,15.4548,0.0236816,0,0,0,0,0,0,0,-1,1735,673,15.4549,-0.0236664
518,351,16.7448,2.49268,0,0,0,0,0,0,0,-1,1742,673,16.7448,-2.49269
525,351,16.0701,3.43225,0,0,0,0,0,0,0,-1,1749,673,16.07,-3.43227
532,351,32.3822,3.03021,0,0,0,0,0,0,0,-1,1756,673,32.3822,-3.03019
539,351,15.3387,3.54486,0,0,0,0,0,0,0,-1,1763,673,15.3387,-3.54485
546,351,13.9387,4.59357,0,0,0,0,0,0,0,-1,1770,673,13.9388,-4.59359
553,351,12.0682,2.02832,0,0,0,0,0,0,0,-1,1777,673,12.0683,-2.02831
560,351,12.0173,0.55304,0,0,0,0,0,0,0,-1,1784,673,12.0174,-0.553028
567,351,10.7827,0.130188,0,0,0,0,0,0,0,-1,1791,673,10.7827,-0.130183
574,351,13.405,-1.09204,0,0,0,0,0,0,0,-1,1798,673,13.405,1.09207
581,351,15.2351,-3.06049,0,0,0,0,0,0,0,-1,1805,673,15.2351,3.06046
588,351,42.6353,-16.6115,0,0,0,0,0,0,0,-1,1812,673,42.6352,16.6115
595,351,42.6576,-15.5037,0.000352473,-0.00029599,-0.000105309,0.000369146,-0.000312663,-0.157024,0.000394093,0.039236,1819,673,42.6576,15.5037
602,351,42.634,-14.4216,0.000632601,0.000126361,0.000137916,0.000667735,9.12266e-05,0.249446,0.000418079,0.0208158,1826,673,42.634,14.4216
609,351,42.5582,-13.4686,0.000923996,0.000522404,0.000421382,0.00118998,0.000256422,0.563055,0.000723161,0.0197478,1833,673,42.5583,13.4686
616,351,42.4637,-12.4221,0.00115704,0.000881421,0.000679831,0.00171289,0.000325573,0.685397,0.00105036,0.015027,1840,673,42.4638,12.422
623,351,42.4708,-11.3851,0.00146634,0.00120129,0.000880581,0.00222431,0.000443318,0.71071,0.00135941,0.0158615,1847,673,42.4708,11.3851
630,351,42.4231,-10.3298,0.00174453,0.00154537,0.00106325,0.00271285,0.000577041,0.738706,0.0016502,0.0256332,1854,673,42.4231,10.3298
637,351,42.335,-9.26044,0.00198567,0.00181222,0.00113184,0.0030341,0.000763794,0.747162,0.0018223,0.0290322,1861,673,42.335,9.26045
644,351,42.2169,-8.26752,0.00222129,0.00203957,0.00110781,0.00324196,0.0010189,0.744481,0.0019143,0.0210045,1868,673,42.2169,8.2675
651,351,42.1818,-7.18591,0.00253167,0.00223799,0.00101384,0.00340925,0.00136041,0.71348,0.00198166,0.0179243,1875,673,42.1818,7.18591
658,351,42.0669,-6.09869,0.00280903,0.0023365,0.000674033,0.003287,0.00185852,0.616827,0.00190316,0.046566,1882,673,42.0669,6.09868
665,351,41.6606,-4.97479,0,0,0,0,0,0,0,-1,1889,673,41.6607,4.97479
672,351,34.9646,-3.1748,0,0,0,0,0,0,0,-1,1896,673,34.9646,3.17482
679,351,14.1252,1.85681,0,0,0,0,0,0,0,-1,1903,673,14.1253,-1.85682
686,351,13.0294,2.1189,0,0,0,0,0,0,0,-1,1910,673,13.0294,-2.11892
693,351,13.5187,2.34595,0,0,0,0,0,0,0,-1,1917,673,13.5187,-2.34596
700,351,14.5629,-2.40173,0,0,0,0,0,0,0,-1,1924,673,14.5629,2.40172
707,351,0,0,0,0,0,0,0,0,0,-1,1931,673,0,0
714,351,0,0,0,0,0,0,0,0,0,-1,1938,673,0,0
721,351,0,0,0,0,0,0,0,0,0,-1,1945,673,0,0
728,351,0,0,0,0,0,0,0,0,0,-1,1952,673,0,0
735,351,0,0,0,0,0,0,0,0,0,-1,1959,673,0,0
742,351,0,0,0,0,0,0,0,0,0,-1,1966,673,0,0
749,351,0,0,0,0,0,0,0,0,0,-1,1973,673,0,0
756,351,0,0,0,0,0,0,0,0,0,-1,1980,673,0,0
763,351,0,0,0,0,0,0,0,0,0,-1,1987,673,0,0
770,351,0,0,0,0,0,0,0,0,0,-1,1994,673,0,0
777,351,0,0,0,0,0,0,0,0,0,-1,2001,673,0,0
784,351,0,0,0,0,0,0,0,0,0,-1,2008,673,0,0
791,351,0,0,0,0,0,0,0,0,0,-1,2015,673,0,0
798,351,0,0,0,0,0,0,0,0,0,-1,2022,673,0,0
805,351,0,0,0,0,0,0,0,0,0,-1,2029,673,0,0
812,351,0,0,0,0,0,0,0,0,0,-1,2036,673,0,0
-700,344,0,0,0,0,0,0,0,0,0,-1,524,680,0,0
-693,344,0,0,0,0,0,0,0,0,0,-1,531,680,0,0
-686,344,0,0,0,0,0,0,0,0,0,-1,538,680,0,0
-679,344,0,0,0,0,0,0,0,0,0,-1,545,680,0,0
-672,344,0,0,0,0,0,0,0,0,0,-1,552,680,0,0
-665,344,0,0,0,0,0,0,0,0,0,-1,559,680,0,0
-658,344,0,0,0,0,0,0,0,0,0,-1,566,680,0,0
-651,344,0,0,0,0,0,0,0,0,0,-1,573,680,0,0
-644,344,0,0,0,0,0,0,0,0,0,-1,580,680,0,0
-637,344,0,0,0,0,0,0,0,0,0,-1,587,680,0,0
-630,344,0,0,0,0,0,0,0,0,0,-1,594,680,0,0
-623,344,0,0,0,0,0,0,0,0,0,-1,601,680,0,0
-616,344,0,0,0,0,0,0,0,0,0,-1,608,680,0,0
-609,344,0,0,0,0,0,0,0,0,0,-1,615,680,0,0
-602,344,0,0,0,0,0,0,0,0,0,-1,622,680,0,0
-595,344,0,0,0,0,0,0,0,0,0,-1,629,680,0,0
-588,344,-9.27826,1.47302,0,0,0,0,0,0,0,-1,636,680,-9.27829,-1.473
-581,344,-10.0098,1.71753,0,0,0,0,0,0,0,-1,643,680,-10.0098,-1.7175
-574,344,-10.2208,3.04871,0,0,0,0,0,0,0,-1,650,680,-10.2208,-3.04869
-567,344,-14.3779,2.29016,0,0,0,0,0,0,0,-1,657,680,-14.3779,-2.29014
-560,344,-14.1238,1.8374,0,0,0,0,0,0,0,-1,664,680,-14.1238,-1.83743
-553,344,-14.7884,2.00116,0,0,0,0,0,0,0,-1,671,680,-14.7884,-2.00115
-546,344,-17.4192,0.157654,0,0,0,0,0,0,0,-1,678,680,-17.4192,-0.157635
-539,344,-17.2671,-2.75714,0,0,0,0,0,0,0,-1,685,680,-17.2671,2.75712
-532,344,-18.4417,-4.38605,0,0,0,0,0,0,0,-1,692,680,-18.4417,4.38603
-525,344,-26.2731,-6.94464,0,0,0,0,0,0,0,-1,699,680,-26.2731,6.94465
-518,344,-26.3288,-7.97296,0.00256054,0.00180783,-0.00211559,0.00433299,3.53793e-05,-0.697371,0.00287694,0.0201101,706,680,-26.3288,7.97296
-511,344,-26.4277,-9.03546,0.00212146,0.00106377,-0.00135566,0.00304777,0.000137455,-0.599425,0.00198762,0.0179575,713,680,-26.4276,9.03548
-504,344,-26.5013,-10.0884,0.00181398,0.000550644,-0.000846534,0.00223855,0.000126082,-0.464871,0.00145216,0.0195772,720,680,-26.5013,10.0884
-497,344,-26.5621,-11.1404,0.00161606,0.000206115,-0.00048961,0.0017694,5.27723e-05,-0.303516,0.00116241,0.0172005,727,680,-26.562,11.1404
-490,344,-26.6456,-12.1796,0.00152345,5.55072e-05,-0.000336907,0.00159708,-1.81232e-05,-0.215165,0.00107081,0.0162414,734,680,-26.6456,12.1796
-483,344,-26.6534,-13.2013,0.00155182,9.06555e-05,-0.000383653,0.00164643,-3.95294e-06,-0.241775,0.00109894,0.0158757,741,680,-26.6534,13.2013
-476,344,-26.7205,-14.2208,0.00167838,0.000262363,-0.00063259,0.00191982,2.09266e-05,-0.3646,0.00127296,0.0158215,748,680,-26.7205,14.2209
-469,344,-26.7925,-15.3022,0.00192221,0.000586226,-0.00106397,0.00251051,-2.06626e-06,-0.505082,0.00167436,0.0244543,755,680,-26.7925,15.3022
-462,344,-26.8044,-16.3913,0,0,0,0,0,0,0,-1,762,680,-26.8044,16.3913
-455,344,-12.1653,-7.99176,0,0,0,0,0,0,0,-1,769,680,-12.1653,7.99174
-448,344,-5.67657,-2.72864,0,0,0,0,0,0,0,-1,776,680,-5.6766,2.72863
-441,344,-5.09229,-2.34167,0,0,0,0,0,0,0,-1,783,680,-5.09229,2.34168
-434,344,-4.28778,-2.08807,0,0,0,0,0,0,0,-1,790,680,-4.28778,2.08809
-427,344,-3.06506,-1.45404,0,0,0,0,0,0,0,-1,797,680,-3.06505,1.45402
-420,344,-1.96582,-1.57574,0,0,0,0,0,0,0,-1,804,680,-1.96579,1.57574
-413,344,-0.817993,-1.4751,0,0,0,0,0,0,0,-1,811,680,-0.818017,1.47511
-406,344,-0.00714111,-1.25189,0,0,0,0,0,0,0,-1,818,680,-0.00714956,1.25191
-399,344,0.240051,-1.75769,0,0,0,0,0,0,0,-1,825,680,0.240079,1.75767
-392,344,1.11353,-2.05615,0,0,0,0,0,0,0,-1,832,680,1.11351,2.05616
-385,344,0,0,0,0,0,0,0,0,0,-1,839,680,0,0
-378,344,0,0,0,0,0,0,0,0,0,-1,846,680,0,0
-371,344,0,0,0,0,0,0,0,0,0,-1,853,680,0,0
-364,344,0,0,0,0,0,0,0,0,0,-1,860,680,0,0
-357,344,0,0,0,0,0,0,0,0,0,-1,867,680,0,0
-350,344,0,0,0,0,0,0,0,0,0,-1,874,680,0,0
-343,344,0,0,0,0,0,0,0,0,0,-1,881,680,0,0
-336,344,0,0,0,0,0,0,0,0,0,-1,888,680,0,0
-329,344,0,0,0,0,0,0,0,0,0,-1,895,680,0,0
-322,344,0,0,0,0,0,0,0,0,0,-1,902,680,0,0
-315,344,0,0,0,0,0,0,0,0,0,-1,909,680,0,0
-308,344,0,0,0,0,0,0,0,0,0,-1,916,680,0,0
-301,344,0,0,0,0,0,0,0,0,0,-1,923,680,0,0
-294,344,0,0,0,0,0,0,0,0,0,-1,930,680,0,0
-287,344,0,0,0,0,0,0,0,0,0,-1,937,680,0,0
-280,344,0,0,0,0,0,0,0,0,0,-1,944,680,0,0
-273,344,0,0,0,0,0,0,0,0,0,-1,951,680,0,0
-266,344,0,0,0,0,0,0,0,0,0,-1,958,680,0,0
-259,344,0,0,0,0,0,0,0,0,0,-1,965,680,0,0
-252,344,0,0,0,0,0,0,0,0,0,-1,972,680,0,0
-245,344,0,0,0,0,0,0,0,0,0,-1,979,680,0,0
-238,344,0,0,0,0,0,0,0,0,0,-1,986,680,0,0
-231,344,0,0,0,0,0,0,0,0,0,-1,993,680,0,0
-224,344,0,0,0,0,0,0,0,0,0,-1,1000,680,0,0
-217,344,0,0,0,0,0,0,0,0,0,-1,1007,680,0,0
-210,344,0,0,0,0,0,0,0,0,0,-1,1014,680,0,0
-203,344,0,0,0,0,0,0,0,0,0,-1,1021,680,0,0
-196,344,0,0,0,0,0,0,0,0,0,-1,1028,680,0,0
-189,344,0,0,0,0,0,0,0,0,0,-1,1035,680,0,0
-182,344,0,0,0,0,0,0,0,0,0,-1,1042,680,0,0
-175,344,0,0,0,0,0,0,0,0,0,-1,1049,680,0,0
-168,344,0,0,0,0,0,0,0,0,0,-1,1056,680,0,0
-161,344,0,0,0,0,0,0,0,0,0,-1,1063,680,0,0
-154,344,0,0,0,0,0,0,0,0,0,-1,1070,680,0,0
-147,344,0,0,0,0,0,0,0,0,0,-1,1077,680,0,0
-140,344,0,0,0,0,0,0,0,0,0,-1,1084,680,0,0
-133,344,0,0,0,0,0,0,0,0,0,-1,1091,680,0,0
-126,344,0,0,0,0,0,0,0,0,0,-1,1098,680,0,0
-119,344,0,0,0,0,0,0,0,0,0,-1,1105,680,0,0
-112,344,0,0,0,0,0,0,0,0,0,-1,1112,680,0,0
-105,344,0,0,0,0,0,0,0,0,0,-1,1119,680,0,0
-98,344,0,0,0,0,0,0,0,0,0,-1,1126,680,0,0
-91,344,0,0,0,0,0,0,0,0,0,-1,1133,680,0,0
-84,344,0,0,0,0,0,0,0,0,0,-1,1140,680,0,0
-77,344,0,0,0,0,0,0,0,0,0,-1,1147,680,0,0
-70,344,0,0,0,0,0,0,0,0,0,-1,1154,680,0,0
-63,344,0,0,0,0,0,0,0,0,0,-1,1161,680,0,0
-56,344,0,0,0,0,0,0,0,0,0,-1,1168,680,0,0
-49,344,0,0,0,0,0,0,0,0,0,-1,1175,680,0,0
-42,344,0,0,0,0,0,0,0,0,0,-1,1182,680,0,0
-35,344,0,0,0,0,0,0,0,0,0,-1,1189,680,0,0
-28,344,0,0,0,0,0,0,0,0,0,-1,1196,680,0,0
-21,344,0,0,0,0,0,0,0,0,0,-1,1203,680,0,0
-14,344,0,0,0,0,0,0,0,0,0,-1,1210,680,0,0
-7,344,0,0,0,0,0,0,0,0,0,-1,1217,680,0,0
0,344,0,0,0,0,0,0,0,0,0,-1,1224,680,0,0
7,344,0,0,0,0,0,0,0,0,0,-1,1231,680,0,0
14,344,0,0,0,0,0,0,0,0,0,-1,1238,680,0,0
21,344,0,0,0,0,0,0,0,0,0,-1,1245,680,0,0
28,344,0,0,0,0,0,0,0,0,0,-1,1252,680,0,0
35,344,0,0,0,0,0,0,0,0,0,-1,1259,680,0,0
42,344,0,0,0,0,0,0,0,0,0,-1,1266,680,0,0
49,344,0,0,0,0,0,0,0,0,0,-1,1273,680,0,0
56,344,0,0,0,0,0,0,0,0,0,-1,1280,680,0,0
63,344,0,0,0,0,0,0,0,0,0,-1,1287,680,0,0
70,344,0,0,0,0,0,0,0,0,0,-1,1294,680,0,0
77,344,0,0,0,0,0,0,0,0,0,-1,1301,680,0,0
84,344,0,0,0,0,0,0,0,0,0,-1,1308,680,0,0
91,344,0,0,0,0,0,0,0,0,0,-1,1315,680,0,0
98,344,0,0,0,0,0,0,0,0,0,-1,1322,680,0,0
105,344,0,0,0,0,0,0,0,0,0,-1,1329,680,0,0
112,344,0,0,0,0,0,0,0,0,0,-1,1336,680,0,0
119,344,0,0,0,0,0,0,0,0,0,-1,1343,680,0,0
126,344,0,0,0,0,0,0,0,0,0,-1,1350,680,0,0
133,344,0,0,0,0,0,0,0,0,0,-1,1357,680,0,0
140,344,0,0,0,0,0,0,0,0,0,-1,1364,680,0,0
147,344,0,0,0,0,0,0,0,0,0,-1,1371,680,0,0
154,344,0,0,0,0,0,0,0,0,0,-1,1378,680,0,0
161,344,0,0,0,0,0,0,0,0,0,-1,1385,680,0,0
168,344,0,0,0,0,0,0,0,0,0,-1,1392,680,0,0
175,344,0,0,0,0,0,0,0,0,0,-1,1399,680,0,0
182,344,0,0,0,0,0,0,0,0,0,-1,1406,680,0,0
189,344,0,0,0,0,0,0,0,0,0,-1,1413,680,0,0
196,344,0,0,0,0,0,0,0,0,0,-1,1420,680,0,0
203,344,0,0,0,0,0,0,0,0,0,-1,1427,680,0,0
210,344,0,0,0,0,0,0,0,0,0,-1,1434,680,0,0
217,344,0,0,0,0,0,0,0,0,0,-1,1441,680,0,0
224,344,0,0,0,0,0,0,0,0,0,-1,1448,680,0,0
231,344,0,0,0,0,0,0,0,0,0,-1,1455,680,0,0
238,344,0,0,0,0,0,0,0,0,0,-1,1462,680,0,0
245,344,0,0,0,0,0,0,0,0,0,-1,1469,680,0,0
252,344,0,0,0,0,0,0,0,0,0,-1,1476,680,0,0
259,344,0,0,0,0,0,0,0,0,0,-1,1483,680,0,0
266,344,0,0,0,0,0,0,0,0,0,-1,1490,680,0,0
273,344,0,0,0,0,0,0,0,0,0,-1,1497,680,0,0
280,344,0,0,0,0,0,0,0,0,0,-1,1504,680,0,0
287,344,0,0,0,0,0,0,0,0,0,-1,1511,680,0,0
294,344,0,0,0,0,0,0,0,0,0,-1,1518,680,0,0
301,344,0,0,0,0,0,0,0,0,0,-1,1525,680,0,0
308,344,0,0,0,0,0,0,0,0,0,-1,1532,680,0,0
315,344,0,0,0,0,0,0,0,0,0,-1,1539,680,0,0
322,344,0,0,0,0,0,0,0,0,0,-1,1546,680,0,0
329,344,0,0,0,0,0,0,0,0,0,-1,1553,680,0,0
336,344,0,0,0,0,0,0,0,0,0,-1,1560,680,0,0
343,344,0,0,0,0,0,0,0,0,0,-1,1567,680,0,0
350,344,0,0,0,0,0,0,0,0,0,-1,1574,680,0,0
357,344,0,0,0,0,0,0,0,0,0,-1,1581,680,0,0
364,344,0,0,0,0,0,0,0,0,0,-1,1588,680,0,0
371,344,0,0,0,0,0,0,0,0,0,-1,1595,680,0,0
378,344,0,0,0,0,0,0,0,0,0,-1,1602,680,0,0
385,344,0,0,0,0,0,0,0,0,0,-1,1609,680,0,0
392,344,0,0,0,0,0,0,0,0,0,-1,1616,680,0,0
399,344,0,0,0,0,0,0,0,0,0,-1,1623,680,0,0
406,344,0,0,0,0,0,0,0,0,0,-1,1630,680,0,0
413,344,0,0,0,0,0,0,0,0,0,-1,1637,680,0,0
420,344,0,0,0,0,0,0,0,0,0,-1,1644,680,0,0
427,344,0,0,0,0,0,0,0,0,0,-1,1651,680,0,0
434,344,0,0,0,0,0,0,0,0,0,-1,1658,680,0,0
441,344,0,0,0,0,0,0,0,0,0,-1,1665,680,0,0
448,344,0,0,0,0,0,0,0,0,0,-1,1672,680,0,0
455,344,0,0,0,0,0,0,0,0,0,-1,1679,680,0,0
462,344,0,0,0,0,0,0,0,0,0,-1,1686,680,0,0
469,344,0,0,0,0,0,0,0,0,0,-1,1693,680,0,0
476,344,0,0,0,0,0,0,0,0,0,-1,1700,680,0,0
483,344,0,0,0,0,0,0,0,0,0,-1,1707,680,0,0
490,344,0,0,0,0,0,0,0,0,0,-1,1714,680,0,0
497,344,0,0,0,0,0,0,0,0,0,-1,1721,680,0,0
504,344,0,0,0,0,0,0,0,0,0,-1,1728,680,0,0
511,344,15.4819,0.452637,0,0,0,0,0,0,0,-1,1735,680,15.4819,-0.452656
518,344,17.1357,2.31207,0,0,0,0,0,0,0,-1,1742,680,17.1358,-2.31207
525,344,31.5201,2.6217,0,0,0,0,0,0,0,-1,1749,680,31.5201,-2.62168
532,344,31.9766,2.61047,0,0,0,0,0,0,0,-1,1756,680,31.9765,-2.6105
539,344,32.4379,2.65314,0,0,0,0,0,0,0,-1,1763,680,32.4378,-2.65316
546,344,14.6722,4.30243,0,0,0,0,0,0,0,-1,1770,680,14.6722,-4.30241
553,344,14.8136,4.35681,0,0,0,0,0,0,0,-1,1777,680,14.8136,-4.35679
560,344,11.9363,2.14185,0,0,0,0,0,0,0,-1,1784,680,11.9362,-2.14182
567,344,11.397,0.925842,0,0,0,0,0,0,0,-1,1791,680,11.397,-0.92583
574,344,10.0004,0.504639,0,0,0,0,0,0,0,-1,1798,680,10.0004,-0.504645
581,344,13.6709,-0.969604,0,0,0,0,0,0,0,-1,1805,680,13.6709,0.969629
588,344,16.1447,-3.15948,0,0,0,0,0,0,0,-1,1812,680,16.1447,3.15946
595,344,43.6385,-15.4387,0,0,0,0,0,0,0,-1,1819,680,43.6385,15.4387
602,344,43.807,-14.3221,0.000499393,7.4203e-05,0.000107576,0.000525061,4.8535e-05,0.234223,0.000335036,0.0327044,1826,680,43.807,14.3221
609,344,43.6346,-13.3851,0.000854111,0.000342758,0.000359595,0.00103966,0.00015721,0.476359,0.0006471,0.0167317,1833,680,43.6346,13.3851
616,344,43.5247,-12.3325,0.00105331,0.000558396,0.000596775,0.0014519,0.000159806,0.58886,0.000919305,0.0221993,1840,680,43.5246,12.3325
623,344,43.4851,-11.3006,0.00126593,0.000786839,0.000744173,0.00180816,0.000244608,0.629687,0.00113274,0.0201527,1847,680,43.4851,11.3006
630,344,43.4474,-10.2631,0.00149982,0.00104437,0.000881085,0.00218213,0.000362057,0.658938,0.00135035,0.0252923,1854,680,43.4473,10.263
637,344,43.3669,-9.19781,0.00173046,0.00126669,0.000929131,0.0024562,0.000540945,0.66311,0.00149025,0.0243209,1861,680,43.367,9.1978
644,344,43.2893,-8.18903,0.00198463,0.0014641,0.000893915,0.0026554,0.00079333,0.643738,0.00157394,0.0173053,1868,680,43.2893,8.18903
651,344,43.1906,-7.13324,0.00234271,0.00168182,0.000808824,0.00288599,0.00113854,0.591469,0.00167854,0.012447,1875,680,43.1905,7.13322
658,344,43.1179,-5.97467,0.0027627,0.00187925,0.000582476,0.003052,0.00158995,0.460983,0.00176259,0.0280244,1882,680,43.1179,5.97464
665,344,42.9059,-5.00958,0.00360641,0.00200134,0.000285643,0.00365572,0.00195202,0.170973,0.00211226,0.0474528,1889,680,42.9058,5.00956
672,344,43.0846,-4.45465,0,0,0,0,0,0,0,-1,1896,680,43.0846,4.45465
679,344,36.7468,-2.59857,0,0,0,0,0,0,0,-1,1903,680,36.7468,2.59857
686,344,15.024,1.82709,0,0,0,0,0,0,0,-1,1910,680,15.024,-1.82706
693,344,12.4362,-1.42346,0,0,0,0,0,0,0,-1,1917,680,12.4361,1.42348
700,344,17.5396,2.61206,0,0,0,0,0,0,0,-1,1924,680,17.5396,-2.61204
707,344,18.5829,3.29352,0,0,0,0,0,0,0,-1,1931,680,18.5828,-3.2935
714,344,0,0,0,0,0,0,0,0,0,-1,1938,680,0,0
721,344,0,0,0,0,0,0,0,0,0,-1,1945,680,0,0
728,344,0,0,0,0,0,0,0,0,0,-1,1952,680,0,0
735,344,0,0,0,0,0,0,0,0,0,-1,1959,680,0,0
742,344,0,0,0,0,0,0,0,0,0,-1,1966,680,0,0
749,344,0,0,0,0,0,0,0,0,0,-1,1973,680,0,0
756,344,0,0,0,0,0,0,0,0,0,-1,1980,680,0,0
763,344,0,0,0,0,0,0,0,0,0,-1,1987,680,0,0
770,344,0,0,0,0,0,0,0,0,0,-1,1994,680,0,0
777,344,0,0,0,0,0,0,0,0,0,-1,2001,680,0,0
784,344,0,0,0,0,0,0,0,0,0,-1,2008,680,0,0
791,344,0,0,0,0,0,0,0,0,0,-1,2015,680,0,0
798,344,0,0,0,0,0,0,0,0,0,-1,2022,680,0,0
805,344,0,0,0,0,0,0,0,0,0,-1,2029,680,0,0
812,344,0,0,0,0,0,0,0,0,0,-1,2036,680,0,0
-700,337,0,0,0,0,0,0,0,0,0,-1,524,687,0,0
-693,337,0,0,0,0,0,0,0,0,0,-1,531,687,0,0
-686,337,0,0,0,0,0,0,0,0,0,-1,538,687,0,0
-679,337,0,0,0,0,0,0,0,0,0,-1,545,687,0,0
-672,337,0,0,0,0,0,0,0,0,0,-1,552,687,0,0
-665,337,0,0,0,0,0,0,0,0,0,-1,559,687,0,0
-658,337,0,0,0,0,0,0,0,0,0,-1,566,687,0,0
-651,337,0,0,0,0,0,0,0,0,0,-1,573,687,0,0
-644,337,0,0,0,0,0,0,0,0,0,-1,580,687,0,0
-637,337,0,0,0,0,0,0,0,0,0,-1,587,687,0,0
-630,337,0,0,0,0,0,0,0,0,0,-1,594,687,0,0
-623,337,0,0,0,0,0,0,0,0,0,-1,601,687,0,0
-616,337,0,0,0,0,0,0,0,0,0,-1,608,687,0,0
-609,337,0,0,0,0,0,0,0,0,0,-1,615,687,0,0
-602,337,0,0,0,0,0,0,0,0,0,-1,622,687,0,0
-595,337,0,0,0,0,0,0,0,0,0,-1,629,687,0,0
-588,337,-10.8413,1.27863,0,0,0,0,0,0,0,-1,636,687,-10.8413,-1.27861
-581,337,-11.2157,1.31567,0,0,0,0,0,0,0,-1,643,687,-11.2157,-1.3157
-574,337,-6.03339,2.0321,0,0,0,0,0,0,0,-1,650,687,-6.03337,-2.03213
-567,337,-13.8102,1.56787,0,0,0,0,0,0,0,-1,657,687,-13.8102,-1.56789
-560,337,-15.5435,2.34247,0,0,0,0,0,0,0,-1,664,687,-15.5435,-2.34247
-553,337,-18.0128,1.12927,0,0,0,0,0,0,0,-1,671,687,-18.0128,-1.12926
-546,337,-18.0244,-2.03845,0,0,0,0,0,0,0,-1,678,687,-18.0244,2.03846
-539,337,-19.2426,-3.53815,0,0,0,0,0,0,0,-1,685,687,-19.2426,3.53813
-532,337,-27.3427,-5.79547,0,0,0,0,0,0,0,-1,692,687,-27.3426,5.79545
-525,337,-27.3707,-6.84961,0.0027696,0.002874,-0.00292119,0.00574345,-9.98573e-05,-0.794332,0.00386268,0.0236193,699,687,-27.3707,6.8496
-518,337,-27.3842,-7.91272,0.00229197,0.00172173,-0.00195369,0.00398124,3.24636e-05,-0.71294,0.0026434,0.0223043,706,687,-27.3842,7.9127
-511,337,-27.4881,-8.97662,0.00196589,0.000854321,-0.00118416,0.0027182,0.000102004,-0.565985,0.00177911,0.0243638,713,687,-27.4881,8.97665
-504,337,-27.551,-10.0401,0.00170237,0.000190683,-0.000589295,0.00190494,-1.1893e-05,-0.331105,0.00127395,0.0251697,720,687,-27.551,10.0401
-497,337,-27.5815,-11.0823,0.00153969,-0.0002719,-0.000151342,0.00155225,-0.000284456,-0.0827763,0.00114152,0.0179488,727,687,-27.5815,11.0823
-490,337,-27.6686,-12.1221,0.00150518,-0.000511073,6.26846e-05,0.00150713,-0.00051302,0.0310496,0.00121249,0.0164641,734,687,-27.6687,12.1221
-483,337,-27.7056,-13.1531,0.00157017,-0.000516604,5.87621e-05,0.00157183,-0.000518257,0.0281296,0.00125678,0.0168045,741,687,-27.7056,13.1531
-476,337,-27.7661,-14.2137,0.00174042,-0.000349796,-0.000212275,0.00176176,-0.000371136,-0.100194,0.00131578,0.0196813,748,687,-27.7661,14.2137
-469,337,-27.832,-15.3444,0,0,0,0,0,0,0,-1,755,687,-27.832,15.3444
-462,337,-14.186,-8.89264,0,0,0,0,0,0,0,-1,762,687,-14.186,8.89266
-455,337,-6.00574,-3.12933,0,0,0,0,0,0,0,-1,769,687,-6.00576,3.12934
-448,337,-5.30627,-2.07202,0,0,0,0,0,0,0,-1,776,687,-5.30628,2.07205
-441,337,-4.24762,-1.49597,0,0,0,0,0,0,0,-1,783,687,-4.24762,1.49598
-434,337,-6.86908,1.37531,0,0,0,0,0,0,0,-1,790,687,-6.86908,-1.3753
-427,337,-9.92004,2.487,0,0,0,0,0,0,0,-1,797,687,-9.92002,-2.48701
-420,337,-2.95996,-1.76697,0,0,0,0,0,0,0,-1,804,687,-2.95998,1.76696
-413,337,-1.29169,-1.99487,0,0,0,0,0,0,0,-1,811,687,-1.29171,1.9949
-406,337,-1.02356,-1.89563,0,0,0,0,0,0,0,-1,818,687,-1.02357,1.89564
-399,337,-0.472839,-2.21338,0,0,0,0,0,0,0,-1,825,687,-0.472837,2.2134
-392,337,0,0,0,0,0,0,0,0,0,-1,832,687,0,0
-385,337,0,0,0,0,0,0,0,0,0,-1,839,687,0,0
-378,337,0,0,0,0,0,0,0,0,0,-1,846,687,0,0
-371,337,0,0,0,0,0,0,0,0,0,-1,853,687,0,0
-364,337,0,0,0,0,0,0,0,0,0,-1,860,687,0,0
-357,337,0,0,0,0,0,0,0,0,0,-1,867,687,0,0
-350,337,0,0,0,0,0,0,0,0,0,-1,874,687,0,0
-343,337,0,0,0,0,0,0,0,0,0,-1,881,687,0,0
-336,337,0,0,0,0,0,0,0,0,0,-1,888,687,0,0
-329,337,0,0,0,0,0,0,0,0,0,-1,895,687,0,0
-322,337,0,0,0,0,0,0,0,0,0,-1,902,687,0,0
-315,337,0,0,0,0,0,0,0,0,0,-1,909,687,0,0
-308,337,0,0,0,0,0,0,0,0,0,-1,916,687,0,0
-301,337,0,0,0,0,0,0,0,0,0,-1,923,687,0,0
-294,337,0,0,0,0,0,0,0,0,0,-1,930,687,0,0
-287,337,0,0,0,0,0,0,0,0,0,-1,937,687,0,0
-280,337,0,0,0,0,0,0,0,0,0,-1,944,687,0,0
-273,337,0,0,0,0,0,0,0,0,0,-1,951,687,0,0
-266,337,0,0,0,0,0,0,0,0,0,-1,958,687,0,0
-259,337,0,0,0,0,0,0,0,0,0,-1,965,687,0,0
-252,337,0,0,0,0,0,0,0,0,0,-1,972,687,0,0
-245,337,0,0,0,0,0,0,0,0,0,-1,979,687,0,0
-238,337,0,0,0,0,0,0,0,0,0,-1,986,687,0,0
-231,337,0,0,0,0,0,0,0,0,0,-1,993,687,0,0
-224,337,0,0,0,0,0,0,0,0,0,-1,1000,687,0,0
-217,337,0,0,0,0,0,0,0,0,0,-1,1007,687,0,0
-210,337,0,0,0,0,0,0,0,0,0,-1,1014,687,0,0
-203,337,0,0,0,0,0,0,0,0,0,-1,1021,687,0,0
-196,337,0,0,0,0,0,0,0,0,0,-1,1028,687,0,0
-189,337,0,0,0,0,0,0,0,0,0,-1,1035,687,0,0
-182,337,0,0,0,0,0,0,0,0,0,-1,1042,687,0,0
-175,337,0,0,0,0,0,0,0,0,0,-1,1049,687,0,0
-168,337,0,0,0,0,0,0,0,0,0,-1,1056,687,0,0
-161,337,0,0,0,0,0,0,0,0,0,-1,1063,687,0,0
-154,337,0,0,0,0,0,0,0,0,0,-1,1070,687,0,0
-147,337,0,0,0,0,0,0,0,0,0,-1,1077,687,0,0
-140,337,0,0,0,0,0,0,0,0,0,-1,1084,687,0,0
-133,337,0,0,0,0,0,0,0,0,0,-1,1091,687,0,0
-126,337,0,0,0,0,0,0,0,0,0,-1,1098,687,0,0
-119,337,0,0,0,0,0,0,0,0,0,-1,1105,687,0,0
-112,337,0,0,0,0,0,0,0,0,0,-1,1112,687,0,0
-105,337,0,0,0,0,0,0,0,0,0,-1,1119,687,0,0
-98,337,0,0,0,0,0,0,0,0,0,-1,1126,687,0,0
-91,337,0,0,0,0,0,0,0,0,0,-1,1133,687,0,0
-84,337,0,0,0,0,0,0,0,0,0,-1,1140,687,0,0
-77,337,0,0,0,0,0,0,0,0,0,-1,1147,687,0,0
-70,337,0,0,0,0,0,0,0,0,0,-1,1154,687,0,0
-63,337,0,0,0,0,0,0,0,0,0,-1,1161,687,0,0
-56,337,0,0,0,0,0,0,0,0,0,-1,1168,687,0,0
-49,337,0,0,0,0,0,0,0,0,0,-1,1175,687,0,0
-42,337,0,0,0,0,0,0,0,0,0,-1,1182,687,0,0
-35,337,0,0,0,0,0,0,0,0,0,-1,1189,687,0,0
-28,337,0,0,0,0,0,0,0,0,0,-1,1196,687,0,0
-21,337,0,0,0,0,0,0,0,0,0,-1,1203,687,0,0
-14,337,0,0,0,0,0,0,0,0,0,-1,1210,687,0,0
-7,337,0,0,0,0,0,0,0,0,0,-1,1217,687,0,0
0,337,0,0,0,0,0,0,0,0,0,-1,1224,687,0,0
7,337,0,0,0,0,0,0,0,0,0,-1,1231,687,0,0
14,337,0,0,0,0,0,0,0,0,0,-1,1238,687,0,0
21,337,0,0,0,0,0,0,0,0,0,-1,1245,687,0,0
28,337,0,0,0,0,0,0,0,0,0,-1,1252,687,0,0
35,337,0,0,0,0,0,0,0,0,0,-1,1259,687,0,0
42,337,0,0,0,0,0,0,0,0,0,-1,1266,687,0,0
49,337,0,0,0,0,0,0,0,0,0,-1,1273,687,0,0
56,337,0,0,0,0,0,0,0,0,0,-1,1280,687,0,0
63,337,0,0,0,0,0,0,0,0,0,-1,1287,687,0,0
70,337,0,0,0,0,0,0,0,0,0,-1,1294,687,0,0
77,337,0,0,0,0,0,0,0,0,0,-1,1301,687,0,0
84,337,0,0,0,0,0,0,0,0,0,-1,1308,687,0,0
91,337,0,0,0,0,0,0,0,0,0,-1,1315,687,0,0
98,337,0,0,0,0,0,0,0,0,0,-1,1322,687,0,0
105,337,0,0,0,0,0,0,0,0,0,-1,1329,687,0,0
112,337,0,0,0,0,0,0,0,0,0,-1,1336,687,0,0
119,337,0,0,0,0,0,0,0,0,0,-1,1343,687,0,0
126,337,0,0,0,0,0,0,0,0,0,-1,1350,687,0,0
133,337,0,0,0,0,0,0,0,0,0,-1,1357,687,0,0
140,337,0,0,0,0,0,0,0,0,0,-1,1364,687,0,0
147,337,0,0,0,0,0,0,0,0,0,-1,1371,687,0,0
154,337,0,0,0,0,0,0,0,0,0,-1,1378,687,0,0
161,337,0,0,0,0,0,0,0,0,0,-1,1385,687,0,0
168,337,0,0,0,0,0,0,0,0,0,-1,1392,687,0,0
175,337,0,0,0,0,0,0,0,0,0,-1,1399,687,0,0
182,337,0,0,0,0,0,0,0,0,0,-1,1406,687,0,0
189,337,0,0,0,0,0,0,0,0,0,-1,1413,687,0,0
196,337,0,0,0,0,0,0,0,0,0,-1,1420,687,0,0
203,337,0,0,0,0,0,0,0,0,0,-1,1427,687,0,0
210,337,0,0,0,0,0,0,0,0,0,-1,1434,687,0,0
217,337,0,0,0,0,0,0,0,0,0,-1,1441,687,0,0
224,337,0,0,0,0,0,0,0,0,0,-1,1448,687,0,0
231,337,0,0,0,0,0,0,0,0,0,-1,1455,687,0,0
238,337,0,0,0,0,0,0,0,0,0,-1,1462,687,0,0
245,337,0,0,0,0,0,0,0,0,0,-1,1469,687,0,0
252,337,0,0,0,0,0,0,0,0,0,-1,1476,687,0,0
259,337,0,0,0,0,0,0,0,0,0,-1,1483,687,0,0
266,337,0,0,0,0,0,0,0,0,0,-1,1490,687,0,0
273,337,0,0,0,0,0,0,0,0,0,-1,1497,687,0,0
280,337,0,0,0,0,0,0,0,0,0,-1,1504,687,0,0
287,337,0,0,0,0,0,0,0,0,0,-1,1511,687,0,0
294,337,0,0,0,0,0,0,0,0,0,-1,1518,687,0,0
301,337,0,0,0,0,0,0,0,0,0,-1,1525,687,0,0
308,337,0,0,0,0,0,0,0,0,0,-1,1532,687,0,0
315,337,0,0,0,0,0,0,0,0,0,-1,1539,687,0,0
322,337,0,0,0,0,0,0,0,0,0,-1,1546,687,0,0
329,337,0,0,0,0,0,0,0,0,0,-1,1553,687,0,0
336,337,0,0,0,0,0,0,0,0,0,-1,1560,687,0,0
343,337,0,0,0,0,0,0,0,0,0,-1,1567,687,0,0
350,337,0,0,0,0,0,0,0,0,0,-1,1574,687,0,0
357,337,0,0,0,0,0,0,0,0,0,-1,1581,687,0,0
364,337,0,0,0,0,0,0,0,0,0,-1,1588,687,0,0
371,337,0,0,0,0,0,0,0,0,0,-1,1595,687,0,0
378,337,0,0,0,0,0,0,0,0,0,-1,1602,687,0,0
385,337,0,0,0,0,0,0,0,0,0,-1,1609,687,0,0
392,337,0,0,0,0,0,0,0,0,0,-1,1616,687,0,0
399,337,0,0,0,0,0,0,0,0,0,-1,1623,687,0,0
406,337,0,0,0,0,0,0,0,0,0,-1,1630,687,0,0
413,337,0,0,0,0,0,0,0,0,0,-1,1637,687,0,0
420,337,0,0,0,0,0,0,0,0,0,-1,1644,687,0,0
427,337,0,0,0,0,0,0,0,0,0,-1,1651,687,0,0
434,337,0,0,0,0,0,0,0,0,0,-1,1658,687,0,0
441,337,0,0,0,0,0,0,0,0,0,-1,1665,687,0,0
448,337,0,0,0,0,0,0,0,0,0,-1,1672,687,0,0
455,337,0,0,0,0,0,0,0,0,0,-1,1679,687,0,0
462,337,0,0,0,0,0,0,0,0,0,-1,1686,687,0,0
469,337,0,0,0,0,0,0,0,0,0,-1,1693,687,0,0
476,337,0,0,0,0,0,0,0,0,0,-1,1700,687,0,0
483,337,0,0,0,0,0,0,0,0,0,-1,1707,687,0,0
490,337,0,0,0,0,0,0,0,0,0,-1,1714,687,0,0
497,337,0,0,0,0,0,0,0,0,0,-1,1721,687,0,0
504,337,0,0,0,0,0,0,0,0,0,-1,1728,687,0,0
511,337,0,0,0,0,0,0,0,0,0,-1,1735,687,0,0
518,337,18.0369,1.64581,0,0,0,0,0,0,0,-1,1742,687,18.0368,-1.64581
525,337,31.0717,2.13745,0,0,0,0,0,0,0,-1,1749,687,31.0717,-2.13747
532,337,31.5126,2.13904,0,0,0,0,0,0,0,-1,1756,687,31.5125,-2.13905
539,337,31.9684,2.15594,0,0,0,0,0,0,0,-1,1763,687,31.9684,-2.15596
546,337,32.3584,1.43719,0,0,0,0,0,0,0,-1,1770,687,32.3585,-1.43722
553,337,32.1809,1.36395,0,0,0,0,0,0,0,-1,1777,687,32.181,-1.36396
560,337,18.4053,3.62793,0,0,0,0,0,0,0,-1,1784,687,18.4052,-3.6279
567,337,11.9288,1.38776,0,0,0,0,0,0,0,-1,1791,687,11.9288,-1.38777
574,337,10.704,1.19476,0,0,0,0,0,0,0,-1,1798,687,10.704,-1.19478
581,337,8.50427,0.561768,0,0,0,0,0,0,0,-1,1805,687,8.5043,-0.561754
588,337,8.5885,-0.0536499,0,0,0,0,0,0,0,-1,1812,687,8.58844,0.0536788
595,337,44.5549,-15.4647,0,0,0,0,0,0,0,-1,1819,687,44.555,15.4647
602,337,44.7494,-14.2646,0.000618817,9.47188e-05,0.000240369,0.000712361,1.17428e-06,0.371136,0.000474517,0.0437132,1826,687,44.7494,14.2647
609,337,44.6801,-13.259,0.00096642,0.000194035,0.000417971,0.0011493,1.11547e-05,0.412448,0.000762509,0.0227778,1833,687,44.68,13.259
616,337,44.5785,-12.2247,0.00109251,0.000269841,0.000635593,0.00143826,-7.59085e-05,0.498209,0.000985115,0.0186679,1840,687,44.5785,12.2247
623,337,44.5037,-11.199,0.00116396,0.000424476,0.000719109,0.00160282,-1.4377e-05,0.547939,0.00107337,0.0162477,1847,687,44.5037,11.199
630,337,44.4375,-10.163,0.00132429,0.000611133,0.000793444,0.0018376,9.78254e-05,0.574218,0.00119379,0.0201535,1854,687,44.4375,10.163
637,337,44.3932,-9.14722,0.00151904,0.000809874,0.000813783,0.00205214,0.000276781,0.579939,0.0012858,0.0183947,1861,687,44.3932,9.14725
644,337,44.2982,-8.09998,0.00178063,0.00103122,0.000787493,0.00227802,0.000533833,0.563341,0.0013757,0.0128272,1868,687,44.2982,8.09997
651,337,44.1991,-7.02942,0.00216132,0.00130406,0.000734896,0.00258345,0.000881927,0.52139,0.00151637,0.0117381,1875,687,44.1991,7.02942
658,337,44.1434,-5.99652,0.00267702,0.00161917,0.000637002,0.00297607,0.00132013,0.438914,0.00172188,0.0132805,1882,687,44.1435,5.99653
665,337,44.1068,-4.99475,0.00359031,0.00195144,0.000540388,0.00375245,0.0017893,0.2915,0.00216725,0.0176061,1889,687,44.1068,4.99476
672,337,44.0814,-4.03375,0.00484764,0.00265034,0.00033622,0.00489794,0.00260004,0.14849,0.00282962,0.0451571,1896,687,44.0814,4.03372
679,337,44.5842,-3.05896,0,0,0,0,0,0,0,-1,1903,687,44.5842,3.05898
686,337,18.5614,1.68597,0,0,0,0,0,0,0,-1,1910,687,18.5614,-1.68598
693,337,16.5415,2.21411,0,0,0,0,0,0,0,-1,1917,687,16.5415,-2.2141
700,337,17.2661,2.44379,0,0,0,0,0,0,0,-1,1924,687,17.2661,-2.44378
707,337,17.3544,5.61853,0,0,0,0,0,0,0,-1,1931,687,17.3543,-5.61851
714,337,0,0,0,0,0,0,0,0,0,-1,1938,687,0,0
721,337,0,0,0,0,0,0,0,0,0,-1,1945,687,0,0
728,337,0,0,0,0,0,0,0,0,0,-1,1952,687,0,0
735,337,0,0,0,0,0,0,0,0,0,-1,1959,687,0,0
742,337,0,0,0,0,0,0,0,0,0,-1,1966,687,0,0
749,337,0,0,0,0,0,0,0,0,0,-1,1973,687,0,0
756,337,0,0,0,0,0,0,0,0,0,-1,1980,687,0,0
763,337,0,0,0,0,0,0,0,0,0,-1,1987,687,0,0
770,337,0,0,0,0,0,0,0,0,0,-1,1994,687,0,0
777,337,0,0,0,0,0,0,0,0,0,-1,2001,687,0,0
784,337,0,0,0,0,0,0,0,0,0,-1,2008,687,0,0
791,337,0,0,0,0,0,0,0,0,0,-1,2015,687,0,0
798,337,0,0,0,0,0,0,0,0,0,-1,2022,687,0,0
805,337,0,0,0,0,0,0,0,0,0,-1,2029,687,0,0
812,337,0,0,0,0,0,0,0,0,0,-1,2036,687,0,0
-700,330,0,0,0,0,0,0,0,0,0,-1,524,694,0,0
-693,330,0,0,0,0,0,0,0,0,0,-1,531,694,0,0
-686,330,0,0,0,0,0,0,0,0,0,-1,538,694,0,0
-679,330,0,0,0,0,0,0,0,0,0,-1,545,694,0,0
-672,330,0,0,0,0,0,0,0,0,0,-1,552,694,0,0
-665,330,0,0,0,0,0,0,0,0,0,-1,559,694,0,0
-658,330,0,0,0,0,0,0,0,0,0,-1,566,694,0,0
-651,330,0,0,0,0,0,0,0,0,0,-1,573,694,0,0
-644,330,0,0,0,0,0,0,0,0,0,-1,580,694,0,0
-637,330,0,0,0,0,0,0,0,0,0,-1,587,694,0,0
-630,330,0,0,0,0,0,0,0,0,0,-1,594,694,0,0
-623,330,0,0,0,0,0,0,0,0,0,-1,601,694,0,0
-616,330,0,0,0,0,0,0,0,0,0,-1,608,694,0,0
-609,330,0,0,0,0,0,0,0,0,0,-1,615,694,0,0
-602,330,0,0,0,0,0,0,0,0,0,-1,622,694,0,0
-595,330,-4.67883,1.65515,0,0,0,0,0,0,0,-1,629,694,-4.67881,-1.65515
-588,330,-8.5047,2.67346,0,0,0,0,0,0,0,-1,636,694,-8.50469,-2.67348
-581,330,-12.4227,0.947083,0,0,0,0,0,0,0,-1,643,694,-12.4227,-0.947109
-574,330,-9.02118,1.87952,0,0,0,0,0,0,0,-1,650,694,-9.02115,-1.87953
-567,330,-8.35577,0.909973,0,0,0,0,0,0,0,-1,657,694,-8.35575,-0.909945
-560,330,-13.1036,-0.584656,0,0,0,0,0,0,0,-1,664,694,-13.1035,0.584658
-553,330,-17.5484,-1.21545,0,0,0,0,0,0,0,-1,671,694,-17.5484,1.21547
-546,330,-27.9821,-3.31293,0,0,0,0,0,0,0,-1,678,694,-27.9821,3.31296
-539,330,-28.4164,-4.56207,0,0,0,0,0,0,0,-1,685,694,-28.4164,4.5621
-532,330,-28.3748,-5.70691,0.00296491,0.00377788,-0.00341973,0.0068152,-7.24117e-05,-0.844553,0.00456779,0.0313534,692,694,-28.3748,5.70689
-525,330,-28.3596,-6.836,0.00250827,0.00243841,-0.00246343,0.00493702,9.6662e-06,-0.778309,0.00328813,0.0111376,699,694,-28.3596,6.83601
-518,330,-28.407,-7.84375,0.0021155,0.00133611,-0.00158795,0.00336087,9.07416e-05,-0.665072,0.00221096,0.0149403,706,694,-28.407,7.84375
-511,330,-28.5239,-8.9032,0.00179326,0.000459533,-0.000867976,0.00222097,3.18249e-05,-0.457843,0.00147016,0.0210386,713,694,-28.5239,8.90317
-504,330,-28.5925,-9.96027,0.00149926,-0.000237094,-0.000248619,0.00153415,-0.000271991,-0.139453,0.00112445,0.0194581,720,694,-28.5925,9.96029
-497,330,-28.6546,-10.9688,0.00131623,-0.000733152,0.000224703,0.00134058,-0.0007575,0.107936,0.00122682,0.0141994,727,694,-28.6546,10.9688
-490,330,-28.7127,-12.0246,0.00129004,-0.00100203,0.000480182,0.00138657,-0.00109856,0.198387,0.001438,0.01566,734,694,-28.7127,12.0246
-483,330,-28.7603,-13.0857,0.0013316,-0.0010133,0.00054113,0.00145045,-0.00113215,0.216204,0.00149484,0.0157687,741,694,-28.7603,13.0857
-476,330,-28.8585,-14.1555,0,0,0,0,0,0,0,-1,748,694,-28.8585,14.1555
-469,330,-16.1478,-9.23303,0,0,0,0,0,0,0,-1,755,694,-16.1478,9.23301
-462,330,-7.26733,-3.84833,0,0,0,0,0,0,0,-1,762,694,-7.26731,3.84832
-455,330,-5.04254,-1.79303,0,0,0,0,0,0,0,-1,769,694,-5.04252,1.79305
-448,330,-4.89886,-1.66156,0,0,0,0,0,0,0,-1,776,694,-4.89886,1.66157
-441,330,-5.30676,-2.34045,0,0,0,0,0,0,0,-1,783,694,-5.30679,2.34048
-434,330,-7.20428,1.00024,0,0,0,0,0,0,0,-1,790,694,-7.20431,-1.00027
-427,330,-16.0428,2.89258,0,0,0,0,0,0,0,-1,797,694,-16.0428,-2.89259
-420,330,-29.0331,0.271606,0,0,0,0,0,0,0,-1,804,694,-29.0331,-0.27158
-413,330,-29.0896,0.56366,0,0,0,0,0,0,0,-1,811,694,-29.0896,-0.563671
-406,330,-1.65375,-1.74371,0,0,0,0,0,0,0,-1,818,694,-1.65375,1.74371
-399,330,0,0,0,0,0,0,0,0,0,-1,825,694,0,0
-392,330,0,0,0,0,0,0,0,0,0,-1,832,694,0,0
-385,330,0,0,0,0,0,0,0,0,0,-1,839,694,0,0
-378,330,0,0,0,0,0,0,0,0,0,-1,846,694,0,0
-371,330,0,0,0,0,0,0,0,0,0,-1,853,694,0,0
-364,330,0,0,0,0,0,0,0,0,0,-1,860,694,0,0
-357,330,0,0,0,0,0,0,0,0,0,-1,867,694,0,0
-350,330,0,0,0,0,0,0,0,0,0,-1,874,694,0,0
-343,330,0,0,0,0,0,0,0,0,0,-1,881,694,0,0
-336,330,0,0,0,0,0,0,0,0,0,-1,888,694,0,0
-329,330,0,0,0,0,0,0,0,0,0,-1,895,694,0,0
-322,330,0,0,0,0,0,0,0,0,0,-1,902,694,0,0
-315,330,0,0,0,0,0,0,0,0,0,-1,909,694,0,0
-308,330,0,0,0,0,0,0,0,0,0,-1,916,694,0,0
-301,330,0,0,0,0,0,0,0,0,0,-1,923,694,0,0
-294,330,0,0,0,0,0,0,0,0,0,-1,930,694,0,0
-287,330,0,0,0,0,0,0,0,0,0,-1,937,694,0,0
-280,330,0,0,0,0,0,0,0,0,0,-1,944,694,0,0
-273,330,0,0,0,0,0,0,0,0,0,-1,951,694,0,0
-266,330,0,0,0,0,0,0,0,0,0,-1,958,694,0,0
-259,330,0,0,0,0,0,0,0,0,0,-1,965,694,0,0
-252,330,0,0,0,0,0,0,0,0,0,-1,972,694,0,0
-245,330,0,0,0,0,0,0,0,0,0,-1,979,694,0,0
-238,330,0,0,0,0,0,0,0,0,0,-1,986,694,0,0
-231,330,0,0,0,0,0,0,0,0,0,-1,993,694,0,0
-224,330,0,0,0,0,0,0,0,0,0,-1,1000,694,0,0
-217,330,0,0,0,0,0,0,0,0,0,-1,1007,694,0,0
-210,330,0,0,0,0,0,0,0,0,0,-1,1014,694,0,0
-203,330,0,0,0,0,0,0,0,0,0,-1,1021,694,0,0
-196,330,0,0,0,0,0,0,0,0,0,-1,1028,694,0,0
-189,330,0,0,0,0,0,0,0,0,0,-1,1035,694,0,0
-182,330,0,0,0,0,0,0,0,0,0,-1,1042,694,0,0
-175,330,0,0,0,0,0,0,0,0,0,-1,1049,694,0,0
-168,330,0,0,0,0,0,0,0,0,0,-1,1056,694,0,0
-161,330,0,0,0,0,0,0,0,0,0,-1,1063,694,0,0
-154,330,0,0,0,0,0,0,0,0,0,-1,1070,694,0,0
-147,330,0,0,0,0,0,0,0,0,0,-1,1077,694,0,0
-140,330,0,0,0,0,0,0,0,0,0,-1,1084,694,0,0
-133,330,0,0,0,0,0,0,0,0,0,-1,1091,694,0,0
-126,330,0,0,0,0,0,0,0,0,0,-1,1098,694,0,0
-119,330,0,0,0,0,0,0,0,0,0,-1,1105,694,0,0
-112,330,0,0,0,0,0,0,0,0,0,-1,1112,694,0,0
-105,330,0,0,0,0,0,0,0,0,0,-1,1119,694,0,0
-98,330,0,0,0,0,0,0,0,0,0,-1,1126,694,0,0
-91,330,0,0,0,0,0,0,0,0,0,-1,1133,694,0,0
-84,330,0,0,0,0,0,0,0,0,0,-1,1140,694,0,0
-77,330,0,0,0,0,0,0,0,0,0,-1,1147,694,0,0
-70,330,0,0,0,0,0,0,0,0,0,-1,1154,694,0,0
-63,330,0,0,0,0,0,0,0,0,0,-1,1161,694,0,0
-56,330,0,0,0,0,0,0,0,0,0,-1,1168,694,0,0
-49,330,0,0,0,0,0,0,0,0,0,-1,1175,694,0,0
-42,330,0,0,0,0,0,0,0,0,0,-1,1182,694,0,0
-35,330,0,0,0,0,0,0,0,0,0,-1,1189,694,0,0
-28,330,0,0,0,0,0,0,0,0,0,-1,1196,694,0,0
-21,330,0,0,0,0,0,0,0,0,0,-1,1203,694,0,0
-14,330,0,0,0,0,0,0,0,0,0,-1,1210,694,0,0
-7,330,0,0,0,0,0,0,0,0,0,-1,1217,694,0,0
0,330,0,0,0,0,0,0,0,0,0,-1,1224,694,0,0
7,330,0,0,0,0,0,0,0,0,0,-1,1231,694,0,0
14,330,0,0,0,0,0,0,0,0,0,-1,1238,694,0,0
21,330,0,0,0,0,0,0,0,0,0,-1,1245,694,0,0
28,330,0,0,0,0,0,0,0,0,0,-1,1252,694,0,0
35,330,0,0,0,0,0,0,0,0,0,-1,1259,694,0,0
42,330,0,0,0,0,0,0,0,0,0,-1,1266,694,0,0
49,330,0,0,0,0,0,0,0,0,0,-1,1273,694,0,0
56,330,0,0,0,0,0,0,0,0,0,-1,1280,694,0,0
63,330,0,0,0,0,0,0,0,0,0,-1,1287,694,0,0
70,330,0,0,0,0,0,0,0,0,0,-1,1294,694,0,0
77,330,0,0,0,0,0,0,0,0,0,-1,1301,694,0,0
84,330,0,0,0,0,0,0,0,0,0,-1,1308,694,0,0
91,330,0,0,0,0,0,0,0,0,0,-1,1315,694,0,0
98,330,0,0,0,0,0,0,0,0,0,-1,1322,694,0,0
105,330,0,0,0,0,0,0,0,0,0,-1,1329,694,0,0
112,330,0,0,0,0,0,0,0,0,0,-1,1336,694,0,0
119,330,0,0,0,0,0,0,0,0,0,-1,1343,694,0,0
126,330,0,0,0,0,0,0,0,0,0,-1,1350,694,0,0
133,330,0,0,0,0,0,0,0,0,0,-1,1357,694,0,0
140,330,0,0,0,0,0,0,0,0,0,-1,1364,694,0,0
147,330,0,0,0,0,0,0,0,0,0,-1,1371,694,0,0
154,330,0,0,0,0,0,0,0,0,0,-1,1378,694,0,0
161,330,0,0,0,0,0,0,0,0,0,-1,1385,694,0,0
168,330,0,0,0,0,0,0,0,0,0,-1,1392,694,0,0
175,330,0,0,0,0,0,0,0,0,0,-1,1399,694,0,0
182,330,0,0,0,0,0,0,0,0,0,-1,1406,694,0,0
189,330,0,0,0,0,0,0,0,0,0,-1,1413,694,0,0
196,330,0,0,0,0,0,0,0,0,0,-1,1420,694,0,0
203,330,0,0,0,0,0,0,0,0,0,-1,1427,694,0,0
210,330,0,0,0,0,0,0,0,0,0,-1,1434,694,0,0
217,330,0,0,0,0,0,0,0,0,0,-1,1441,694,0,0
224,330,0,0,0,0,0,0,0,0,0,-1,1448,694,0,0
231,330,0,0,0,0,0,0,0,0,0,-1,1455,694,0,0
238,330,0,0,0,0,0,0,0,0,0,-1,1462,694,0,0
245,330,0,0,0,0,0,0,0,0,0,-1,1469,694,0,0
252,330,0,0,0,0,0,0,0,0,0,-1,1476,694,0,0
259,330,0,0,0,0,0,0,0,0,0,-1,1483,694,0,0
266,330,0,0,0,0,0,0,0,0,0,-1,1490,694,0,0
273,330,0,0,0,0,0,0,0,0,0,-1,1497,694,0,0
280,330,0,0,0,0,0,0,0,0,0,-1,1504,694,0,0
287,330,0,0,0,0,0,0,0,0,0,-1,1511,694,0,0
294,330,0,0,0,0,0,0,0,0,0,-1,1518,694,0,0
301,330,0,0,0,0,0,0,0,0,0,-1,1525,694,0,0
308,330,0,0,0,0,0,0,0,0,0,-1,1532,694,0,0
315,330,0,0,0,0,0,0,0,0,0,-1,1539,694,0,0
322,330,0,0,0,0,0,0,0,0,0,-1,1546,694,0,0
329,330,0,0,0,0,0,0,0,0,0,-1,1553,694,0,0
336,330,0,0,0,0,0,0,0,0,0,-1,1560,694,0,0
343,330,0,0,0,0,0,0,0,0,0,-1,1567,694,0,0
350,330,0,0,0,0,0,0,0,0,0,-1,1574,694,0,0
357,330,0,0,0,0,0,0,0,0,0,-1,1581,694,0,0
364,330,0,0,0,0,0,0,0,0,0,-1,1588,694,0,0
371,330,0,0,0,0,0,0,0,0,0,-1,1595,694,0,0
378,330,0,0,0,0,0,0,0,0,0,-1,1602,694,0,0
385,330,0,0,0,0,0,0,0,0,0,-1,1609,694,0,0
392,330,0,0,0,0,0,0,0,0,0,-1,1616,694,0,0
399,330,0,0,0,0,0,0,0,0,0,-1,1623,694,0,0
406,330,0,0,0,0,0,0,0,0,0,-1,1630,694,0,0
413,330,0,0,0,0,0,0,0,0,0,-1,1637,694,0,0
420,330,0,0,0,0,0,0,0,0,0,-1,1644,694,0,0
427,330,0,0,0,0,0,0,0,0,0,-1,1651,694,0,0
434,330,0,0,0,0,0,0,0,0,0,-1,1658,694,0,0
441,330,0,0,0,0,0,0,0,0,0,-1,1665,694,0,0
448,330,0,0,0,0,0,0,0,0,0,-1,1672,694,0,0
455,330,0,0,0,0,0,0,0,0,0,-1,1679,694,0,0
462,330,0,0,0,0,0,0,0,0,0,-1,1686,694,0,0
469,330,0,0,0,0,0,0,0,0,0,-1,1693,694,0,0
476,330,0,0,0,0,0,0,0,0,0,-1,1700,694,0,0
483,330,0,0,0,0,0,0,0,0,0,-1,1707,694,0,0
490,330,0,0,0,0,0,0,0,0,0,-1,1714,694,0,0
497,330,0,0,0,0,0,0,0,0,0,-1,1721,694,0,0
504,330,0,0,0,0,0,0,0,0,0,-1,1728,694,0,0
511,330,0,0,0,0,0,0,0,0,0,-1,1735,694,0,0
518,330,0,0,0,0,0,0,0,0,0,-1,1742,694,0,0
525,330,30.6694,0.69519,0,0,0,0,0,0,0,-1,1749,694,30.6694,-0.695206
532,330,30.9469,1.32501,0,0,0,0,0,0,0,-1,1756,694,30.9469,-1.32501
539,330,31.5155,1.62506,0,0,0,0,0,0,0,-1,1763,694,31.5155,-1.62507
546,330,31.4187,1.85651,0,0,0,0,0,0,0,-1,1770,694,31.4187,-1.85651
553,330,31.8452,1.81476,0,0,0,0,0,0,0,-1,1777,694,31.8452,-1.81475
560,330,32.2401,2.43225,0,0,0,0,0,0,0,-1,1784,694,32.2401,-2.43227
567,330,18.0321,3.98578,0,0,0,0,0,0,0,-1,1791,694,18.0321,-3.98576
574,330,12.0454,2.1662,0,0,0,0,0,0,0,-1,1798,694,12.0455,-2.16618
581,330,11.4215,4.50836,0,0,0,0,0,0,0,-1,1805,694,11.4215,-4.50837
588,330,6.45667,-0.0630493,0,0,0,0,0,0,0,-1,1812,694,6.45661,0.0630695
595,330,8.23193,-0.258484,0,0,0,0,0,0,0,-1,1819,694,8.23188,0.258459
602,330,45.4902,-14.4437,0,0,0,0,0,0,0,-1,1826,694,45.4903,14.4437
609,330,45.6371,-13.2188,0.00137504,0.000239181,0.000652999,0.00167253,-5.83098e-05,0.427482,0.00113495,0.0275306,1833,694,45.6371,13.2188
616,330,45.6274,-12.1678,0.00133538,0.000176128,0.000802247,0.00174549,-0.000233976,0.472563,0.00124898,0.0122982,1840,694,45.6274,12.1678
623,330,45.5397,-11.1266,0.00120635,0.000278055,0.000802928,0.00166963,-0.000185227,0.523329,0.00117969,0.0141086,1847,694,45.5396,11.1266
630,330,45.4708,-10.085,0.00126266,0.000391068,0.00080172,0.00173937,-8.56452e-05,0.53645,0.00118916,0.0147304,1854,694,45.4708,10.0849
637,330,45.4036,-9.06415,0.00138928,0.000556963,0.000780054,0.00185724,8.89988e-05,0.540355,0.00120959,0.0137222,1861,694,45.4035,9.06413
644,330,45.3241,-8.03033,0.0016101,0.000778696,0.000749777,0.00205171,0.000337092,0.532277,0.00127044,0.00897995,1868,694,45.3241,8.03036
651,330,45.2528,-6.95428,0.00195537,0.00106093,0.000717211,0.00235337,0.000662931,0.506618,0.00140123,0.0127071,1875,694,45.2528,6.95431
658,330,45.1683,-5.93121,0.00247263,0.00141816,0.0006982,0.0028203,0.00107049,0.462008,0.00164397,0.0138283,1882,694,45.1683,5.9312
665,330,45.0848,-4.91949,0.00332467,0.00183632,0.000721741,0.00361718,0.00154382,0.385048,0.00209582,0.0121713,1889,694,45.0849,4.91951
672,330,45.1918,-3.83533,0.00445983,0.0025986,0.000742982,0.00472004,0.00233839,0.336875,0.00272516,0.0412288,1896,694,45.1918,3.83531
679,330,45.4402,-2.63123,0,0,0,0,0,0,0,-1,1903,694,45.4402,2.6312
686,330,30.6691,0.582825,0,0,0,0,0,0,0,-1,1910,694,30.6691,-0.582798
693,330,17.3999,2.5976,0,0,0,0,0,0,0,-1,1917,694,17.4,-2.59759
700,330,17.1072,4.13,0,0,0,0,0,0,0,-1,1924,694,17.1071,-4.13002
707,330,16.663,4.88672,0,0,0,0,0,0,0,-1,1931,694,16.6629,-4.88673
714,330,16.5454,5.80896,0,0,0,0,0,0,0,-1,1938,694,16.5454,-5.80899
721,330,0,0,0,0,0,0,0,0,0,-1,1945,694,0,0
728,330,0,0,0,0,0,0,0,0,0,-1,1952,694,0,0
735,330,0,0,0,0,0,0,0,0,0,-1,1959,694,0,0
742,330,0,0,0,0,0,0,0,0,0,-1,1966,694,0,0
749,330,0,0,0,0,0,0,0,0,0,-1,1973,694,0,0
756,330,0,0,0,0,0,0,0,0,0,-1,1980,694,0,0
763,330,0,0,0,0,0,0,0,0,0,-1,1987,694,0,0
770,330,0,0,0,0,0,0,0,0,0,-1,1994,694,0,0
777,330,0,0,0,0,0,0,0,0,0,-1,2001,694,0,0
784,330,0,0,0,0,0,0,0,0,0,-1,2008,694,0,0
791,330,0,0,0,0,0,0,0,0,0,-1,2015,694,0,0
798,330,0,0,0,0,0,0,0,0,0,-1,2022,694,0,0
805,330,0,0,0,0,0,0,0,0,0,-1,2029,694,0,0
812,330,0,0,0,0,0,0,0,0,0,-1,2036,694,0,0
-700,323,0,0,0,0,0,0,0,0,0,-1,524,701,0,0
-693,323,0,0,0,0,0,0,0,0,0,-1,531,701,0,0
-686,323,0,0,0,0,0,0,0,0,0,-1,538,701,0,0
-679,323,0,0,0,0,0,0,0,0,0,-1,545,701,0,0
-672,323,0,0,0,0,0,0,0,0,0,-1,552,701,0,0
-665,323,0,0,0,0,0,0,0,0,0,-1,559,701,0,0
-658,323,0,0,0,0,0,0,0,0,0,-1,566,701,0,0
-651,323,0,0,0,0,0,0,0,0,0,-1,573,701,0,0
-644,323,0,0,0,0,0,0,0,0,0,-1,580,701,0,0
-637,323,0,0,0,0,0,0,0,0,0,-1,587,701,0,0
-630,323,0,0,0,0,0,0,0,0,0,-1,594,701,0,0
-623,323,0,0,0,0,0,0,0,0,0,-1,601,701,0,0
-616,323,0,0,0,0,0,0,0,0,0,-1,608,701,0,0
-609,323,0,0,0,0,0,0,0,0,0,-1,615,701,0,0
-602,323,-4.15833,2.12256,0,0,0,0,0,0,0,-1,622,701,-4.1583,-2.12257
-595,323,-4.052,1.79156,0,0,0,0,0,0,0,-1,629,701,-4.05198,-1.79158
-588,323,-4.07019,1.94543,0,0,0,0,0,0,0,-1,636,701,-4.07019,-1.94542
-581,323,-6.63727,0.562805,0,0,0,0,0,0,0,-1,643,701,-6.63728,-0.56279
-574,323,-6.15887,0.426697,0,0,0,0,0,0,0,-1,650,701,-6.15887,-0.426727
-567,323,-10.0015,0.0371094,0,0,0,0,0,0,0,-1,657,701,-10.0015,-0.037126
-560,323,-16.3503,-1.16956,0,0,0,0,0,0,0,-1,664,701,-16.3503,1.16957
-553,323,-29.3052,-2.75037,0,0,0,0,0,0,0,-1,671,701,-29.3052,2.75035
-546,323,-29.2222,-3.61658,0,0,0,0,0,0,0,-1,678,701,-29.2222,3.61655
-539,323,-29.1989,-4.55005,0.00265242,0.00427083,-0.00347699,0.00703154,-0.000108288,-0.899729,0.0047242,0.0335703,685,701,-29.1988,4.55006
-532,323,-29.3148,-5.66565,0.00241395,0.00300027,-0.00267808,0.00540119,1.30318e-05,-0.839915,0.00359646,0.0133556,692,701,-29.3148,5.66563
-525,323,-29.4015,-6.74707,0.00210401,0.00187183,-0.00189041,0.0038819,9.39457e-05,-0.754731,0.00255719,0.00821266,699,701,-29.4015,6.74707
-518,323,-29.4607,-7.77338,0.00180898,0.000905302,-0.00114437,0.00258749,0.000126797,-0.597374,0.00168432,0.0104968,706,701,-29.4607,7.77339
-511,323,-29.5674,-8.82428,0.00147906,8.43202e-05,-0.000501186,0.00164048,-7.70948e-05,-0.311576,0.00112023,0.0149403,713,701,-29.5674,8.82427
-504,323,-29.6653,-9.84479,0.00113389,-0.000596129,0.000100008,0.00113965,-0.000601891,0.0575517,0.00102133,0.0163169,720,701,-29.6653,9.84478
-497,323,-29.7062,-10.8741,0.00090755,-0.0010979,0.00057866,0.00106254,-0.00125289,0.261701,0.00133832,0.0134967,727,701,-29.7062,10.8742
-490,323,-29.7843,-11.926,0.000870929,-0.00140143,0.000865531,0.00116305,-0.00169355,0.325503,0.00165871,0.015039,734,701,-29.7843,11.926
-483,323,-29.8187,-12.9916,0.000890215,-0.00140315,0.000983181,0.001254,-0.00176694,0.354391,0.0017525,0.0353416,741,701,-29.8187,12.9916
-476,323,-29.8297,-14.0332,0,0,0,0,0,0,0,-1,748,701,-29.8297,14.0332
-469,323,-8.33301,-3.64001,0,0,0,0,0,0,0,-1,755,701,-8.33298,3.64
-462,323,-5.29431,-1.45697,0,0,0,0,0,0,0,-1,762,701,-5.29431,1.45699
-455,323,-5.0658,-1.36639,0,0,0,0,0,0,0,-1,769,701,-5.06578,1.3664
-448,323,-4.91608,-1.59601,0,0,0,0,0,0,0,-1,776,701,-4.91606,1.59604
-441,323,-14.4006,0.535217,0,0,0,0,0,0,0,-1,783,701,-14.4006,-0.535203
-434,323,-15.3158,2.479,0,0,0,0,0,0,0,-1,790,701,-15.3158,-2.47898
-427,323,-28.3923,1.16797,0,0,0,0,0,0,0,-1,797,701,-28.3923,-1.16796
-420,323,-28.7292,1.09302,0,0,0,0,0,0,0,-1,804,701,-28.7292,-1.09304
-413,323,-28.7955,1.22418,0,0,0,0,0,0,0,-1,811,701,-28.7956,-1.22419
-406,323,0,0,0,0,0,0,0,0,0,-1,818,701,0,0
-399,323,0,0,0,0,0,0,0,0,0,-1,825,701,0,0
-392,323,0,0,0,0,0,0,0,0,0,-1,832,701,0,0
-385,323,0,0,0,0,0,0,0,0,0,-1,839,701,0,0
-378,323,0,0,0,0,0,0,0,0,0,-1,846,701,0,0
-371,323,0,0,0,0,0,0,0,0,0,-1,853,701,0,0
-364,323,0,0,0,0,0,0,0,0,0,-1,860,701,0,0
-357,323,0,0,0,0,0,0,0,0,0,-1,867,701,0,0
-350,323,0,0,0,0,0,0,0,0,0,-1,874,701,0,0
-343,323,0,0,0,0,0,0,0,0,0,-1,881,701,0,0
-336,323,0,0,0,0,0,0,0,0,0,-1,888,701,0,0
-329,323,0,0,0,0,0,0,0,0,0,-1,895,701,0,0
-322,323,0,0,0,0,0,0,0,0,0,-1,902,701,0,0
-315,323,0,0,0,0,0,0,0,0,0,-1,909,701,0,0
-308,323,0,0,0,0,0,0,0,0,0,-1,916,701,0,0
-301,323,0,0,0,0,0,0,0,0,0,-1,923,701,0,0
-294,323,0,0,0,0,0,0,0,0,0,-1,930,701,0,0
-287,323,0,0,0,0,0,0,0,0,0,-1,937,701,0,0
-280,323,0,0,0,0,0,0,0,0,0,-1,944,701,0,0
-273,323,0,0,0,0,0,0,0,0,0,-1,951,701,0,0
-266,323,0,0,0,0,0,0,0,0,0,-1,958,701,0,0
-259,323,0,0,0,0,0,0,0,0,0,-1,965,701,0,0
-252,323,0,0,0,0,0,0,0,0,0,-1,972,701,0,0
-245,323,0,0,0,0,0,0,0,0,0,-1,979,701,0,0
-238,323,0,0,0,0,0,0,0,0,0,-1,986,701,0,0
-231,323,0,0,0,0,0,0,0,0,0,-1,993,701,0,0
-224,323,0,0,0,0,0,0,0,0,0,-1,1000,701,0,0
-217,323,0,0,0,0,0,0,0,0,0,-1,1007,701,0,0
-210,323,0,0,0,0,0,0,0,0,0,-1,1014,701,0,0
-203,323,0,0,0,0,0,0,0,0,0,-1,1021,701,0,0
-196,323,0,0,0,0,0,0,0,0,0,-1,1028,701,0,0
-189,323,0,0,0,0,0,0,0,0,0,-1,1035,701,0,0
-182,323,0,0,0,0,0,0,0,0,0,-1,1042,701,0,0
-175,323,0,0,0,0,0,0,0,0,0,-1,1049,701,0,0
-168,323,0,0,0,0,0,0,0,0,0,-1,1056,701,0,0
-161,323,0,0,0,0,0,0,0,0,0,-1,1063,701,0,0
-154,323,0,0,0,0,0,0,0,0,0,-1,1070,701,0,0
-147,323,0,0,0,0,0,0,0,0,0,-1,1077,701,0,0
-140,323,0,0,0,0,0,0,0,0,0,-1,1084,701,0,0
-133,323,0,0,0,0,0,0,0,0,0,-1,1091,701,0,0
-126,323,0,0,0,0,0,0,0,0,0,-1,1098,701,0,0
-119,323,0,0,0,0,0,0,0,0,0,-1,1105,701,0,0
-112,323,0,0,0,0,0,0,0,0,0,-1,1112,701,0,0
-105,323,0,0,0,0,0,0,0,0,0,-1,1119,701,0,0
-98,323,0,0,0,0,0,0,0,0,0,-1,1126,701,0,0
-91,323,0,0,0,0,0,0,0,0,0,-1,1133,701,0,0
-84,323,0,0,0,0,0,0,0,0,0,-1,1140,701,0,0
-77,323,0,0,0,0,0,0,0,0,0,-1,1147,701,0,0
-70,323,0,0,0,0,0,0,0,0,0,-1,1154,701,0,0
-63,323,0,0,0,0,0,0,0,0,0,-1,1161,701,0,0
-56,323,0,0,0,0,0,0,0,0,0,-1,1168,701,0,0
-49,323,0,0,0,0,0,0,0,0,0,-1,1175,701,0,0
-42,323,0,0,0,0,0,0,0,0,0,-1,1182,701,0,0
-35,323,0,0,0,0,0,0,0,0,0,-1,1189,701,0,0
-28,323,0,0,0,0,0,0,0,0,0,-1,1196,701,0,0
-21,323,0,0,0,0,0,0,0,0,0,-1,1203,701,0,0
-14,323,0,0,0,0,0,0,0,0,0,-1,1210,701,0,0
-7,323,0,0,0,0,0,0,0,0,0,-1,1217,701,0,0
0,323,0,0,0,0,0,0,0,0,0,-1,1224,701,0,0
7,323,0,0,0,0,0,0,0,0,0,-1,1231,701,0,0
14,323,0,0,0,0,0,0,0,0,0,-1,1238,701,0,0
21,323,0,0,0,0,0,0,0,0,0,-1,1245,701,0,0
28,323,0,0,0,0,0,0,0,0,0,-1,1252,701,0,0
35,323,0,0,0,0,0,0,0,0,0,-1,1259,701,0,0
42,323,0,0,0,0,0,0,0,0,0,-1,1266,701,0,0
49,323,0,0,0,0,0,0,0,0,0,-1,1273,701,0,0
56,323,0,0,0,0,0,0,0,0,0,-1,1280,701,0,0
63,323,0,0,0,0,0,0,0,0,0,-1,1287,701,0,0
70,323,0,0,0,0,0,0,0,0,0,-1,1294,701,0,0
77,323,0,0,0,0,0,0,0,0,0,-1,1301,701,0,0
84,323,0,0,0,0,0,0,0,0,0,-1,1308,701,0,0
91,323,0,0,0,0,0,0,0,0,0,-1,1315,701,0,0
98,323,0,0,0,0,0,0,0,0,0,-1,1322,701,0,0
105,323,0,0,0,0,0,0,0,0,0,-1,1329,701,0,0
112,323,0,0,0,0,0,0,0,0,0,-1,1336,701,0,0
119,323,0,0,0,0,0,0,0,0,0,-1,1343,701,0,0
126,323,0,0,0,0,0,0,0,0,0,-1,1350,701,0,0
133,323,0,0,0,0,0,0,0,0,0,-1,1357,701,0,0
140,323,0,0,0,0,0,0,0,0,0,-1,1364,701,0,0
147,323,0,0,0,0,0,0,0,0,0,-1,1371,701,0,0
154,323,0,0,0,0,0,0,0,0,0,-1,1378,701,0,0
161,323,0,0,0,0,0,0,0,0,0,-1,1385,701,0,0
168,323,0,0,0,0,0,0,0,0,0,-1,1392,701,0,0
175,323,0,0,0,0,0,0,0,0,0,-1,1399,701,0,0
182,323,0,0,0,0,0,0,0,0,0,-1,1406,701,0,0
189,323,0,0,0,0,0,0,0,0,0,-1,1413,701,0,0
196,323,0,0,0,0,0,0,0,0,0,-1,1420,701,0,0
203,323,0,0,0,0,0,0,0,0,0,-1,1427,701,0,0
210,323,0,0,0,0,0,0,0,0,0,-1,1434,701,0,0
217,323,0,0,0,0,0,0,0,0,0,-1,1441,701,0,0
224,323,0,0,0,0,0,0,0,0,0,-1,1448,701,0,0
231,323,0,0,0,0,0,0,0,0,0,-1,1455,701,0,0
238,323,0,0,0,0,0,0,0,0,0,-1,1462,701,0,0
245,323,0,0,0,0,0,0,0,0,0,-1,1469,701,0,0
252,323,0,0,0,0,0,0,0,0,0,-1,1476,701,0,0
259,323,0,0,0,0,0,0,0,0,0,-1,1483,701,0,0
266,323,0,0,0,0,0,0,0,0,0,-1,1490,701,0,0
273,323,0,0,0,0,0,0,0,0,0,-1,1497,701,0,0
280,323,0,0,0,0,0,0,0,0,0,-1,1504,701,0,0
287,323,0,0,0,0,0,0,0,0,0,-1,1511,701,0,0
294,323,0,0,0,0,0,0,0,0,0,-1,1518,701,0,0
301,323,0,0,0,0,0,0,0,0,0,-1,1525,701,0,0
308,323,0,0,0,0,0,0,0,0,0,-1,1532,701,0,0
315,323,0,0,0,0,0,0,0,0,0,-1,1539,701,0,0
322,323,0,0,0,0,0,0,0,0,0,-1,1546,701,0,0
329,323,0,0,0,0,0,0,0,0,0,-1,1553,701,0,0
336,323,0,0,0,0,0,0,0,0,0,-1,1560,701,0,0
343,323,0,0,0,0,0,0,0,0,0,-1,1567,701,0,0
350,323,0,0,0,0,0,0,0,0,0,-1,1574,701,0,0
357,323,0,0,0,0,0,0,0,0,0,-1,1581,701,0,0
364,323,0,0,0,0,0,0,0,0,0,-1,1588,701,0,0
371,323,0,0,0,0,0,0,0,0,0,-1,1595,701,0,0
378,323,0,0,0,0,0,0,0,0,0,-1,1602,701,0,0
385,323,0,0,0,0,0,0,0,0,0,-1,1609,701,0,0
392,323,0,0,0,0,0,0,0,0,0,-1,1616,701,0,0
399,323,0,0,0,0,0,0,0,0,0,-1,1623,701,0,0
406,323,0,0,0,0,0,0,0,0,0,-1,1630,701,0,0
413,323,0,0,0,0,0,0,0,0,0,-1,1637,701,0,0
420,323,0,0,0,0,0,0,0,0,0,-1,1644,701,0,0
427,323,0,0,0,0,0,0,0,0,0,-1,1651,701,0,0
434,323,0,0,0,0,0,0,0,0,0,-1,1658,701,0,0
441,323,0,0,0,0,0,0,0,0,0,-1,1665,701,0,0
448,323,0,0,0,0,0,0,0,0,0,-1,1672,701,0,0
455,323,0,0,0,0,0,0,0,0,0,-1,1679,701,0,0
462,323,0,0,0,0,0,0,0,0,0,-1,1686,701,0,0
469,323,0,0,0,0,0,0,0,0,0,-1,1693,701,0,0
476,323,0,0,0,0,0,0,0,0,0,-1,1700,701,0,0
483,323,0,0,0,0,0,0,0,0,0,-1,1707,701,0,0
490,323,0,0,0,0,0,0,0,0,0,-1,1714,701,0,0
497,323,0,0,0,0,0,0,0,0,0,-1,1721,701,0,0
504,323,0,0,0,0,0,0,0,0,0,-1,1728,701,0,0
511,323,0,0,0,0,0,0,0,0,0,-1,1735,701,0,0
518,323,0,0,0,0,0,0,0,0,0,-1,1742,701,0,0
525,323,0,0,0,0,0,0,0,0,0,-1,1749,701,0,0
532,323,33.6193,1.69446,0,0,0,0,0,0,0,-1,1756,701,33.6193,-1.69444
539,323,32.2698,2.44037,0,0,0,0,0,0,0,-1,1763,701,32.2697,-2.44036
546,323,31.1644,3.9444,0,0,0,0,0,0,0,-1,1770,701,31.1644,-3.94438
553,323,30.2488,5.8775,0,0,0,0,0,0,0,-1,1777,701,30.2487,-5.87752
560,323,40.6711,1.25153,0,0,0,0,0,0,0,-1,1784,701,40.6711,-1.25154
567,323,42.1637,2.01208,0,0,0,0,0,0,0,-1,1791,701,42.1637,-2.01207
574,323,12.514,5.89685,0,0,0,0,0,0,0,-1,1798,701,12.5141,-5.89683
581,323,11.821,5.3476,0,0,0,0,0,0,0,-1,1805,701,11.821,-5.34762
588,323,11.7933,7.00818,0,0,0,0,0,0,0,-1,1812,701,11.7933,-7.00819
595,323,6.67847,0.06604,0,0,0,0,0,0,0,-1,1819,701,6.67841,-0.0660418
602,323,46.3357,-14.23,0,0,0,0,0,0,0,-1,1826,701,46.3357,14.2301
609,323,46.5681,-13.1301,0.00192275,0.000652751,0.00104703,0.00251229,6.32079e-05,0.512815,0.00165419,0.041001,1833,701,46.5681,13.1301
616,323,46.6509,-12.0752,0.0017468,0.000390456,0.00111364,0.00237251,-0.000235251,0.511903,0.00166564,0.0134674,1840,701,46.6509,12.0752
623,323,46.5657,-11.0398,0.00142682,0.000394915,0.00101675,0.00205104,-0.000229301,0.550601,0.00144985,0.013534,1847,701,46.5657,11.0398
630,323,46.4806,-9.9931,0.0014009,0.000388525,0.000923926,0.00194822,-0.000158788,0.534796,0.00135485,0.0143405,1854,701,46.4806,9.99309
637,323,46.4235,-8.97034,0.00145701,0.000480954,0.000846288,0.0019459,-7.93923e-06,0.523854,0.00129992,0.0116963,1861,701,46.4235,8.97033
644,323,46.3481,-7.97015,0.00162058,0.000661631,0.000794132,0.00206876,0.000213452,0.513804,0.00131381,0.00873837,1868,701,46.3482,7.97018
651,323,46.3043,-6.90704,0.00191195,0.000920008,0.000758131,0.00232193,0.000510026,0.495737,0.00140906,0.0139501,1875,701,46.3043,6.90703
658,323,46.167,-5.84552,0.0023817,0.00127667,0.000769325,0.00277636,0.00088201,0.473985,0.00163806,0.0251069,1882,701,46.167,5.84553
665,323,46.069,-4.82977,0.00311879,0.00172553,0.000844306,0.00351676,0.00132756,0.44047,0.00205062,0.0196524,1889,701,46.069,4.82979
672,323,46.0999,-3.75159,0.00409951,0.00247788,0.000979473,0.00456023,0.00201716,0.439663,0.00263868,0.0233087,1896,701,46.0998,3.75162
679,323,46.1704,-2.55438,0,0,0,0,0,0,0,-1,1903,701,46.1704,2.55437
686,323,30.4916,0.378235,0,0,0,0,0,0,0,-1,1910,701,30.4916,-0.37825
693,323,23.8806,1.08844,0,0,0,0,0,0,0,-1,1917,701,23.8806,-1.08845
700,323,10.7705,0.828613,0,0,0,0,0,0,0,-1,1924,701,10.7705,-0.828591
707,323,16.9005,4.79193,0,0,0,0,0,0,0,-1,1931,701,16.9005,-4.7919
714,323,16.2346,6.25958,0,0,0,0,0,0,0,-1,1938,701,16.2346,-6.25956
721,323,0,0,0,0,0,0,0,0,0,-1,1945,701,0,0
728,323,0,0,0,0,0,0,0,0,0,-1,1952,701,0,0
735,323,0,0,0,0,0,0,0,0,0,-1,1959,701,0,0
742,323,0,0,0,0,0,0,0,0,0,-1,1966,701,0,0
749,323,0,0,0,0,0,0,0,0,0,-1,1973,701,0,0
756,323,0,0,0,0,0,0,0,0,0,-1,1980,701,0,0
763,323,0,0,0,0,0,0,0,0,0,-1,1987,701,0,0
770,323,0,0,0,0,0,0,0,0,0,-1,1994,701,0,0
777,323,0,0,0,0,0,0,0,0,0,-1,2001,701,0,0
784,323,0,0,0,0,0,0,0,0,0,-1,2008,701,0,0
791,323,0,0,0,0,0,0,0,0,0,-1,2015,701,0,0
798,323,0,0,0,0,0,0,0,0,0,-1,2022,701,0,0
805,323,0,0,0,0,0,0,0,0,0,-1,2029,701,0,0
812,323,0,0,0,0,0,0,0,0,0,-1,2036,701,0,0
-700,316,0,0,0,0,0,0,0,0,0,-1,524,708,0,0
-693,316,0,0,0,0,0,0,0,0,0,-1,531,708,0,0
-686,316,0,0,0,0,0,0,0,0,0,-1,538,708,0,0
-679,316,0,0,0,0,0,0,0,0,0,-1,545,708,0,0
-672,316,0,0,0,0,0,0,0,0,0,-1,552,708,0,0
-665,316,0,0,0,0,0,0,0,0,0,-1,559,708,0,0
-658,316,0,0,0,0,0,0,0,0,0,-1,566,708,0,0
-651,316,0,0,0,0,0,0,0,0,0,-1,573,708,0,0
-644,316,0,0,0,0,0,0,0,0,0,-1,580,708,0,0
-637,316,0,0,0,0,0,0,0,0,0,-1,587,708,0,0
-630,316,0,0,0,0,0,0,0,0,0,-1,594,708,0,0
-623,316,0,0,0,0,0,0,0,0,0,-1,601,708,0,0
-616,316,0,0,0,0,0,0,0,0,0,-1,608,708,0,0
-609,316,0,0,0,0,0,0,0,0,0,-1,615,708,0,0
-602,316,-0.451782,-0.0494995,0,0,0,0,0,0,0,-1,622,708,-0.451768,0.0495022
-595,316,-3.3761,2.17188,0,0,0,0,0,0,0,-1,629,708,-3.37609,-2.17189
-588,316,-5.00177,2.60675,0,0,0,0,0,0,0,-1,636,708,-5.00175,-2.60676
-581,316,-3.94653,0.393433,0,0,0,0,0,0,0,-1,643,708,-3.94655,-0.39342
-574,316,-9.67395,1.06067,0,0,0,0,0,0,0,-1,650,708,-9.67396,-1.06065
-567,316,-10.1962,0.448425,0,0,0,0,0,0,0,-1,657,708,-10.1962,-0.448411
-560,316,-18.9941,-1.75067,0,0,0,0,0,0,0,-1,664,708,-18.9941,1.75068
-553,316,-25.6896,-2.78827,0,0,0,0,0,0,0,-1,671,708,-25.6896,2.78827
-546,316,-30.4624,-3.92017,0,0,0,0,0,0,0,-1,678,708,-30.4624,3.92015
-539,316,-30.2558,-4.55554,0.00193397,0.00363018,-0.00275963,0.00566909,-0.00010494,-0.93448,0.00381485,0.0148994,685,708,-30.2558,4.55555
-532,316,-30.3505,-5.60242,0.00189388,0.00243998,-0.00210138,0.00428597,4.78884e-05,-0.850006,0.00284149,0.0120464,692,708,-30.3505,5.60242
-525,316,-30.4138,-6.62738,0.00169728,0.00133095,-0.00141645,0.00294236,8.58733e-05,-0.721098,0.00193359,0.0105795,699,708,-30.4138,6.62736
-518,316,-30.4739,-7.67517,0.00147975,0.000426242,-0.000735916,0.00185801,4.79862e-05,-0.474779,0.00122299,0.0105632,706,708,-30.4739,7.67517
-511,316,-30.5811,-8.73492,0.00116168,-0.000390371,-0.000112038,0.00116973,-0.000398417,-0.0716914,0.000941168,0.0122293,713,708,-30.5811,8.73493
-504,316,-30.6788,-9.76941,0.00078837,-0.00111088,0.0005184,0.000920653,-0.00124317,0.249844,0.0012539,0.01646,720,708,-30.6789,9.76944
-497,316,-30.7306,-10.7748,0.000535417,-0.0016804,0.00104856,0.000952936,-0.00209792,0.378941,0.00180229,0.0148571,727,708,-30.7306,10.7749
-490,316,-30.7764,-11.8162,0.000521675,-0.00207385,0.00139487,0.00112913,-0.00268131,0.410724,0.00225998,0.0199093,734,708,-30.7763,11.8162
-483,316,-30.795,-12.92,0,0,0,0,0,0,0,-1,741,708,-30.795,12.92
-476,316,-8.90894,-3.31207,0,0,0,0,0,0,0,-1,748,708,-8.90896,3.31206
-469,316,-6.24194,-1.42725,0,0,0,0,0,0,0,-1,755,708,-6.24192,1.42725
-462,316,-5.74237,-1.40039,0,0,0,0,0,0,0,-1,762,708,-5.74238,1.40039
-455,316,-5.44745,-1.21899,0,0,0,0,0,0,0,-1,769,708,-5.44746,1.21898
-448,316,-14.8945,0.655396,0,0,0,0,0,0,0,-1,776,708,-14.8946,-0.655396
-441,316,-14.9626,0.576111,0,0,0,0,0,0,0,-1,783,708,-14.9626,-0.576115
-434,316,-27.7723,1.15576,0,0,0,0,0,0,0,-1,790,708,-27.7723,-1.15579
-427,316,-28.0504,1.31427,0,0,0,0,0,0,0,-1,797,708,-28.0504,-1.31427
-420,316,-28.198,1.62891,0,0,0,0,0,0,0,-1,804,708,-28.198,-1.62889
-413,316,0,0,0,0,0,0,0,0,0,-1,811,708,0,0
-406,316,0,0,0,0,0,0,0,0,0,-1,818,708,0,0
-399,316,0,0,0,0,0,0,0,0,0,-1,825,708,0,0
-392,316,0,0,0,0,0,0,0,0,0,-1,832,708,0,0
-385,316,0,0,0,0,0,0,0,0,0,-1,839,708,0,0
-378,316,0,0,0,0,0,0,0,0,0,-1,846,708,0,0
-371,316,0,0,0,0,0,0,0,0,0,-1,853,708,0,0
-364,316,0,0,0,0,0,0,0,0,0,-1,860,708,0,0
-357,316,0,0,0,0,0,0,0,0,0,-1,867,708,0,0
-350,316,0,0,0,0,0,0,0,0,0,-1,874,708,0,0
-343,316,0,0,0,0,0,0,0,0,0,-1,881,708,0,0
-336,316,0,0,0,0,0,0,0,0,0,-1,888,708,0,0
-329,316,0,0,0,0,0,0,0,0,0,-1,895,708,0,0
-322,316,0,0,0,0,0,0,0,0,0,-1,902,708,0,0
-315,316,0,0,0,0,0,0,0,0,0,-1,909,708,0,0
-308,316,0,0,0,0,0,0,0,0,0,-1,916,708,0,0
-301,316,0,0,0,0,0,0,0,0,0,-1,923,708,0,0
-294,316,0,0,0,0,0,0,0,0,0,-1,930,708,0,0
-287,316,0,0,0,0,0,0,0,0,0,-1,937,708,0,0
-280,316,0,0,0,0,0,0,0,0,0,-1,944,708,0,0
-273,316,0,0,0,0,0,0,0,0,0,-1,951,708,0,0
-266,316,0,0,0,0,0,0,0,0,0,-1,958,708,0,0
-259,316,0,0,0,0,0,0,0,0,0,-1,965,708,0,0
-252,316,0,0,0,0,0,0,0,0,0,-1,972,708,0,0
-245,316,0,0,0,0,0,0,0,0,0,-1,979,708,0,0
-238,316,0,0,0,0,0,0,0,0,0,-1,986,708,0,0
-231,316,0,0,0,0,0,0,0,0,0,-1,993,708,0,0
-224,316,0,0,0,0,0,0,0,0,0,-1,1000,708,0,0
-217,316,0,0,0,0,0,0,0,0,0,-1,1007,708,0,0
-210,316,0,0,0,0,0,0,0,0,0,-1,1014,708,0,0
-203,316,0,0,0,0,0,0,0,0,0,-1,1021,708,0,0
-196,316,0,0,0,0,0,0,0,0,0,-1,1028,708,0,0
-189,316,0,0,0,0,0,0,0,0,0,-1,1035,708,0,0
-182,316,0,0,0,0,0,0,0,0,0,-1,1042,708,0,0
-175,316,0,0,0,0,0,0,0,0,0,-1,1049,708,0,0
-168,316,0,0,0,0,0,0,0,0,0,-1,1056,708,0,0
-161,316,0,0,0,0,0,0,0,0,0,-1,1063,708,0,0
-154,316,0,0,0,0,0,0,0,0,0,-1,1070,708,0,0
-147,316,0,0,0,0,0,0,0,0,0,-1,1077,708,0,0
-140,316,0,0,0,0,0,0,0,0,0,-1,1084,708,0,0
-133,316,0,0,0,0,0,0,0,0,0,-1,1091,708,0,0
-126,316,0,0,0,0,0,0,0,0,0,-1,1098,708,0,0
-119,316,0,0,0,0,0,0,0,0,0,-1,1105,708,0,0
-112,316,0,0,0,0,0,0,0,0,0,-1,1112,708,0,0
-105,316,0,0,0,0,0,0,0,0,0,-1,1119,708,0,0
-98,316,0,0,0,0,0,0,0,0,0,-1,1126,708,0,0
-91,316,0,0,0,0,0,0,0,0,0,-1,1133,708,0,0
-84,316,0,0,0,0,0,0,0,0,0,-1,1140,708,0,0
-77,316,0,0,0,0,0,0,0,0,0,-1,1147,708,0,0
-70,316,0,0,0,0,0,0,0,0,0,-1,1154,708,0,0
-63,316,0,0,0,0,0,0,0,0,0,-1,1161,708,0,0
-56,316,0,0,0,0,0,0,0,0,0,-1,1168,708,0,0
-49,316,0,0,0,0,0,0,0,0,0,-1,1175,708,0,0
-42,316,0,0,0,0,0,0,0,0,0,-1,1182,708,0,0
-35,316,0,0,0,0,0,0,0,0,0,-1,1189,708,0,0
-28,316,0,0,0,0,0,0,0,0,0,-1,1196,708,0,0
-21,316,0,0,0,0,0,0,0,0,0,-1,1203,708,0,0
-14,316,0,0,0,0,0,0,0,0,0,-1,1210,708,0,0
-7,316,0,0,0,0,0,0,0,0,0,-1,1217,708,0,0
0,316,0,0,0,0,0,0,0,0,0,-1,1224,708,0,0
7,316,0,0,0,0,0,0,0,0,0,-1,1231,708,0,0
14,316,0,0,0,0,0,0,0,0,0,-1,1238,708,0,0
21,316,0,0,0,0,0,0,0,0,0,-1,1245,708,0,0
28,316,0,0,0,0,0,0,0,0,0,-1,1252,708,0,0
35,316,0,0,0,0,0,0,0,0,0,-1,1259,708,0,0
42,316,0,0,0,0,0,0,0,0,0,-1,1266,708,0,0
49,316,0,0,0,0,0,0,0,0,0,-1,1273,708,0,0
56,316,0,0,0,0,0,0,0,0,0,-1,1280,708,0,0
63,316,0,0,0,0,0,0,0,0,0,-1,1287,708,0,0
70,316,0,0,0,0,0,0,0,0,0,-1,1294,708,0,0
77,316,0,0,0,0,0,0,0,0,0,-1,1301,708,0,0
84,316,0,0,0,0,0,0,0,0,0,-1,1308,708,0,0
91,316,0,0,0,0,0,0,0,0,0,-1,1315,708,0,0
98,316,0,0,0,0,0,0,0,0,0,-1,1322,708,0,0
105,316,0,0,0,0,0,0,0,0,0,-1,1329,708,0,0
112,316,0,0,0,0,0,0,0,0,0,-1,1336,708,0,0
119,316,0,0,0,0,0,0,0,0,0,-1,1343,708,0,0
126,316,0,0,0,0,0,0,0,0,0,-1,1350,708,0,0
133,316,0,0,0,0,0,0,0,0,0,-1,1357,708,0,0
140,316,0,0,0,0,0,0,0,0,0,-1,1364,708,0,0
147,316,0,0,0,0,0,0,0,0,0,-1,1371,708,0,0
154,316,0,0,0,0,0,0,0,0,0,-1,1378,708,0,0
161,316,0,0,0,0,0,0,0,0,0,-1,1385,708,0,0
168,316,0,0,0,0,0,0,0,0,0,-1,1392,708,0,0
175,316,0,0,0,0,0,0,0,0,0,-1,1399,708,0,0
182,316,0,0,0,0,0,0,0,0,0,-1,1406,708,0,0
189,316,0,0,0,0,0,0,0,0,0,-1,1413,708,0,0
196,316,0,0,0,0,0,0,0,0,0,-1,1420,708,0,0
203,316,0,0,0,0,0,0,0,0,0,-1,1427,708,0,0
210,316,0,0,0,0,0,0,0,0,0,-1,1434,708,0,0
217,316,0,0,0,0,0,0,0,0,0,-1,1441,708,0,0
224,316,0,0,0,0,0,0,0,0,0,-1,1448,708,0,0
231,316,0,0,0,0,0,0,0,0,0,-1,1455,708,0,0
238,316,0,0,0,0,0,0,0,0,0,-1,1462,708,0,0
245,316,0,0,0,0,0,0,0,0,0,-1,1469,708,0,0
252,316,0,0,0,0,0,0,0,0,0,-1,1476,708,0,0
259,316,0,0,0,0,0,0,0,0,0,-1,1483,708,0,0
266,316,0,0,0,0,0,0,0,0,0,-1,1490,708,0,0
273,316,0,0,0,0,0,0,0,0,0,-1,1497,708,0,0
280,316,0,0,0,0,0,0,0,0,0,-1,1504,708,0,0
287,316,0,0,0,0,0,0,0,0,0,-1,1511,708,0,0
294,316,0,0,0,0,0,0,0,0,0,-1,1518,708,0,0
301,316,0,0,0,0,0,0,0,0,0,-1,1525,708,0,0
308,316,0,0,0,0,0,0,0,0,0,-1,1532,708,0,0
315,316,0,0,0,0,0,0,0,0,0,-1,1539,708,0,0
322,316,0,0,0,0,0,0,0,0,0,-1,1546,708,0,0
329,316,0,0,0,0,0,0,0,0,0,-1,1553,708,0,0
336,316,0,0,0,0,0,0,0,0,0,-1,1560,708,0,0
343,316,0,0,0,0,0,0,0,0,0,-1,1567,708,0,0
350,316,0,0,0,0,0,0,0,0,0,-1,1574,708,0,0
357,316,0,0,0,0,0,0,0,0,0,-1,1581,708,0,0
364,316,0,0,0,0,0,0,0,0,0,-1,1588,708,0,0
371,316,0,0,0,0,0,0,0,0,0,-1,1595,708,0,0
378,316,0,0,0,0,0,0,0,0,0,-1,1602,708,0,0
385,316,0,0,0,0,0,0,0,0,0,-1,1609,708,0,0
392,316,0,0,0,0,0,0,0,0,0,-1,1616,708,0,0
399,316,0,0,0,0,0,0,0,0,0,-1,1623,708,0,0
406,316,0,0,0,0,0,0,0,0,0,-1,1630,708,0,0
413,316,0,0,0,0,0,0,0,0,0,-1,1637,708,0,0
420,316,0,0,0,0,0,0,0,0,0,-1,1644,708,0,0
427,316,0,0,0,0,0,0,0,0,0,-1,1651,708,0,0
434,316,0,0,0,0,0,0,0,0,0,-1,1658,708,0,0
441,316,0,0,0,0,0,0,0,0,0,-1,1665,708,0,0
448,316,0,0,0,0,0,0,0,0,0,-1,1672,708,0,0
455,316,0,0,0,0,0,0,0,0,0,-1,1679,708,0,0
462,316,0,0,0,0,0,0,0,0,0,-1,1686,708,0,0
469,316,0,0,0,0,0,0,0,0,0,-1,1693,708,0,0
476,316,0,0,0,0,0,0,0,0,0,-1,1700,708,0,0
483,316,0,0,0,0,0,0,0,0,0,-1,1707,708,0,0
490,316,0,0,0,0,0,0,0,0,0,-1,1714,708,0,0
497,316,0,0,0,0,0,0,0,0,0,-1,1721,708,0,0
504,316,0,0,0,0,0,0,0,0,0,-1,1728,708,0,0
511,316,0,0,0,0,0,0,0,0,0,-1,1735,708,0,0
518,316,0,0,0,0,0,0,0,0,0,-1,1742,708,0,0
525,316,0,0,0,0,0,0,0,0,0,-1,1749,708,0,0
532,316,33.8604,0.531128,0,0,0,0,0,0,0,-1,1756,708,33.8604,-0.531151
539,316,44.4543,2.73468,0,0,0,0,0,0,0,-1,1763,708,44.4543,-2.7347
546,316,44.713,3.35498,0,0,0,0,0,0,0,-1,1770,708,44.7131,-3.35501
553,316,39.9031,6.57275,0,0,0,0,0,0,0,-1,1777,708,39.9031,-6.57274
560,316,39.1196,1.10046,0,0,0,0,0,0,0,-1,1784,708,39.1197,-1.10048
567,316,47.3683,6.04919,0,0,0,0,0,0,0,-1,1791,708,47.3683,-6.04918
574,316,45.9872,6.7655,0,0,0,0,0,0,0,-1,1798,708,45.9871,-6.76552
581,316,24.6815,7.77496,0,0,0,0,0,0,0,-1,1805,708,24.6815,-7.77499
588,316,19.7659,2.90198,0,0,0,0,0,0,0,-1,1812,708,19.7659,-2.902
595,316,12.5363,1.50702,0,0,0,0,0,0,0,-1,1819,708,12.5363,-1.50701
602,316,7.79919,0.0422363,0,0,0,0,0,0,0,-1,1826,708,7.79923,-0.0422066
609,316,47.5446,-13.0181,0,0,0,0,0,0,0,-1,1833,708,47.5446,13.0181
616,316,47.6681,-11.9861,0.00228617,0.000653742,0.0014775,0.00315792,-0.000218005,0.533045,0.00218158,0.0162047,1840,708,47.6681,11.9862
623,316,47.5863,-10.9672,0.00174283,0.000583051,0.00128624,0.00257386,-0.000247978,0.573622,0.00180425,0.0115809,1847,708,47.5863,10.9671
630,316,47.5048,-9.96198,0.00162343,0.000473622,0.00110017,0.00228985,-0.000192801,0.544632,0.00159473,0.0133071,1854,708,47.5047,9.96197
637,316,47.433,-8.88867,0.00160103,0.000512452,0.000976005,0.00217425,-6.07728e-05,0.531042,0.00147018,0.013107,1861,708,47.433,8.88866
644,316,47.3762,-7.867,0.00169688,0.000675333,0.00090697,0.00222701,0.000145201,0.528951,0.00143872,0.0124775,1868,708,47.3763,7.86702
651,316,47.2839,-6.83673,0.00192243,0.000930228,0.000869631,0.00242752,0.000425142,0.526186,0.00149689,0.0194566,1875,708,47.2839,6.8367
658,316,47.1697,-5.73724,0.00232262,0.00129766,0.000897298,0.00284347,0.000776809,0.525936,0.00169705,0.0422677,1882,708,47.1697,5.73726
665,316,47.0393,-4.70673,0.00292346,0.00177793,0.00100007,0.00350317,0.00119822,0.525337,0.00205593,0.0283264,1889,708,47.0393,4.70672
672,316,47.083,-3.7265,0.00374258,0.00251946,0.00120175,0.00447943,0.00178261,0.550032,0.00260409,0.0138985,1896,708,47.083,3.72651
679,316,47.0906,-2.70508,0,0,0,0,0,0,0,-1,1903,708,47.0905,2.70506
686,316,34.0828,0.223206,0,0,0,0,0,0,0,-1,1910,708,34.0828,-0.223183
693,316,26.4315,1.80652,0,0,0,0,0,0,0,-1,1917,708,26.4315,-1.80651
700,316,12.8749,2.89136,0,0,0,0,0,0,0,-1,1924,708,12.8748,-2.89137
707,316,15.7089,5.41486,0,0,0,0,0,0,0,-1,1931,708,15.7088,-5.41487
714,316,16.1727,5.52045,0,0,0,0,0,0,0,-1,1938,708,16.1728,-5.52042
721,316,16.7094,6.53351,0,0,0,0,0,0,0,-1,1945,708,16.7094,-6.5335
728,316,0,0,0,0,0,0,0,0,0,-1,1952,708,0,0
735,316,0,0,0,0,0,0,0,0,0,-1,1959,708,0,0
742,316,0,0,0,0,0,0,0,0,0,-1,1966,708,0,0
749,316,0,0,0,0,0,0,0,0,0,-1,1973,708,0,0
756,316,0,0,0,0,0,0,0,0,0,-1,1980,708,0,0
763,316,0,0,0,0,0,0,0,0,0,-1,1987,708,0,0
770,316,0,0,0,0,0,0,0,0,0,-1,1994,708,0,0
777,316,0,0,0,0,0,0,0,0,0,-1,2001,708,0,0
784,316,0,0,0,0,0,0,0,0,0,-1,2008,708,0,0
791,316,0,0,0,0,0,0,0,0,0,-1,2015,708,0,0
798,316,0,0,0,0,0,0,0,0,0,-1,2022,708,0,0
805,316,0,0,0,0,0,0,0,0,0,-1,2029,708,0,0
812,316,0,0,0,0,0,0,0,0,0,-1,2036,708,0,0
-700,309,0,0,0,0,0,0,0,0,0,-1,524,715,0,0
-693,309,0,0,0,0,0,0,0,0,0,-1,531,715,0,0
-686,309,0,0,0,0,0,0,0,0,0,-1,538,715,0,0
-679,309,0,0,0,0,0,0,0,0,0,-1,545,715,0,0
-672,309,0,0,0,0,0,0,0,0,0,-1,552,715,0,0
-665,309,0,0,0,0,0,0,0,0,0,-1,559,715,0,0
-658,309,0,0,0,0,0,0,0,0,0,-1,566,715,0,0
-651,309,0,0,0,0,0,0,0,0,0,-1,573,715,0,0
-644,309,0,0,0,0,0,0,0,0,0,-1,580,715,0,0
-637,309,0,0,0,0,0,0,0,0,0,-1,587,715,0,0
-630,309,0,0,0,0,0,0,0,0,0,-1,594,715,0,0
-623,309,0,0,0,0,0,0,0,0,0,-1,601,715,0,0
-616,309,0,0,0,0,0,0,0,0,0,-1,608,715,0,0
-609,309,-5.95392,-3.93689,0,0,0,0,0,0,0,-1,615,715,-5.95392,3.93686
-602,309,-4.99786,-3.31287,0,0,0,0,0,0,0,-1,622,715,-4.99786,3.31284
-595,309,-6.80847,2.4046,0,0,0,0,0,0,0,-1,629,715,-6.80845,-2.40458
-588,309,-6.08795,2.19324,0,0,0,0,0,0,0,-1,636,715,-6.08793,-2.19325
-581,309,-5.97552,1.3277,0,0,0,0,0,0,0,-1,643,715,-5.97552,-1.32769
-574,309,-8.73602,0.208435,0,0,0,0,0,0,0,-1,650,715,-8.73604,-0.208437
-567,309,-10.3909,0.85968,0,0,0,0,0,0,0,-1,657,715,-10.3909,-0.859696
-560,309,-18.6088,-1.73389,0,0,0,0,0,0,0,-1,664,715,-18.6088,1.73389
-553,309,-31.5483,-2.31,0,0,0,0,0,0,0,-1,671,715,-31.5483,2.31003
-546,309,-31.3976,-3.39691,0.00231072,0.00416973,-0.0026658,0.00606343,0.000417022,-0.953146,0.0039107,0.0448417,678,715,-31.3976,3.39693
-539,309,-31.3209,-4.49377,0.00205942,0.00292881,-0.00208619,0.00462511,0.000363122,-0.888112,0.00296977,0.0159558,685,715,-31.3209,4.49377
-532,309,-31.3867,-5.52411,0.00154484,0.0018284,-0.00143618,0.00312978,0.000243455,-0.834597,0.00201029,0.0132162,692,715,-31.3867,5.52414
-525,309,-31.447,-6.5896,0.00117495,0.000738958,-0.000859288,0.00184346,7.04429e-05,-0.661173,0.00120618,0.0176142,699,715,-31.447,6.58957
-518,309,-31.5219,-7.62482,0.000898857,-0.000134104,-0.000246153,0.000954516,-0.000189763,-0.222375,0.000708125,0.0179186,706,715,-31.5219,7.62484
-511,309,-31.623,-8.63721,0.000490184,-0.000953087,0.000360239,0.000575103,-0.00103801,0.231503,0.000944024,0.0131049,713,715,-31.623,8.6372
-504,309,-31.6876,-9.66187,2.4589e-05,-0.00170464,0.00101432,0.000492794,-0.00217284,0.432453,0.00163773,0.0111396,720,715,-31.6876,9.66189
-497,309,-31.7679,-10.6611,-0.000280231,-0.00233898,0.00158216,0.000577946,-0.00319715,0.496996,0.00234792,0.0168486,727,715,-31.7679,10.6611
-490,309,-31.8533,-11.6799,0,0,0,0,0,0,0,-1,734,715,-31.8533,11.6799
-483,309,-17.7261,-7.75836,0,0,0,0,0,0,0,-1,741,715,-17.7261,7.75839
-476,309,-5.29486,-1.2262,0,0,0,0,0,0,0,-1,748,715,-5.29484,1.22622
-469,309,-4.22717,-0.592896,0,0,0,0,0,0,0,-1,755,715,-4.2272,0.592905
-462,309,-10.428,2.46948,0,0,0,0,0,0,0,-1,762,715,-10.428,-2.46947
-455,309,-15.8216,0.00915527,0,0,0,0,0,0,0,-1,769,715,-15.8216,-0.00913359
-448,309,-37.3543,-1.02441,0,0,0,0,0,0,0,-1,776,715,-37.3543,1.02444
-441,309,-19.8181,1.4425,0,0,0,0,0,0,0,-1,783,715,-19.8181,-1.44249
-434,309,-46.7953,1.72064,0,0,0,0,0,0,0,-1,790,715,-46.7953,-1.72067
-427,309,-27.8553,1.40332,0,0,0,0,0,0,0,-1,797,715,-27.8553,-1.40334
-420,309,-27.3148,1.90747,0,0,0,0,0,0,0,-1,804,715,-27.3148,-1.90745
-413,309,0,0,0,0,0,0,0,0,0,-1,811,715,0,0
-406,309,0,0,0,0,0,0,0,0,0,-1,818,715,0,0
-399,309,0,0,0,0,0,0,0,0,0,-1,825,715,0,0
-392,309,0,0,0,0,0,0,0,0,0,-1,832,715,0,0
-385,309,0,0,0,0,0,0,0,0,0,-1,839,715,0,0
-378,309,0,0,0,0,0,0,0,0,0,-1,846,715,0,0
-371,309,0,0,0,0,0,0,0,0,0,-1,853,715,0,0
-364,309,0,0,0,0,0,0,0,0,0,-1,860,715,0,0
-357,309,0,0,0,0,0,0,0,0,0,-1,867,715,0,0
-350,309,0,0,0,0,0,0,0,0,0,-1,874,715,0,0
-343,309,0,0,0,0,0,0,0,0,0,-1,881,715,0,0
-336,309,0,0,0,0,0,0,0,0,0,-1,888,715,0,0
-329,309,0,0,0,0,0,0,0,0,0,-1,895,715,0,0
-322,309,0,0,0,0,0,0,0,0,0,-1,902,715,0,0
-315,309,0,0,0,0,0,0,0,0,0,-1,909,715,0,0
-308,309,0,0,0,0,0,0,0,0,0,-1,916,715,0,0
-301,309,0,0,0,0,0,0,0,0,0,-1,923,715,0,0
-294,309,0,0,0,0,0,0,0,0,0,-1,930,715,0,0
-287,309,0,0,0,0,0,0,0,0,0,-1,937,715,0,0
-280,309,0,0,0,0,0,0,0,0,0,-1,944,715,0,0
-273,309,0,0,0,0,0,0,0,0,0,-1,951,715,0,0
-266,309,0,0,0,0,0,0,0,0,0,-1,958,715,0,0
-259,309,0,0,0,0,0,0,0,0,0,-1,965,715,0,0
-252,309,0,0,0,0,0,0,0,0,0,-1,972,715,0,0
-245,309,0,0,0,0,0,0,0,0,0,-1,979,715,0,0
-238,309,0,0,0,0,0,0,0,0,0,-1,986,715,0,0
-231,309,0,0,0,0,0,0,0,0,0,-1,993,715,0,0
-224,309,0,0,0,0,0,0,0,0,0,-1,1000,715,0,0
-217,309,0,0,0,0,0,0,0,0,0,-1,1007,715,0,0
-210,309,0,0,0,0,0,0,0,0,0,-1,1014,715,0,0
-203,309,0,0,0,0,0,0,0,0,0,-1,1021,715,0,0
-196,309,0,0,0,0,0,0,0,0,0,-1,1028,715,0,0
-189,309,0,0,0,0,0,0,0,0,0,-1,1035,715,0,0
-182,309,0,0,0,0,0,0,0,0,0,-1,1042,715,0,0
-175,309,0,0,0,0,0,0,0,0,0,-1,1049,715,0,0
-168,309,0,0,0,0,0,0,0,0,0,-1,1056,715,0,0
-161,309,0,0,0,0,0,0,0,0,0,-1,1063,715,0,0
-154,309,0,0,0,0,0,0,0,0,0,-1,1070,715,0,0
-147,309,0,0,0,0,0,0,0,0,0,-1,1077,715,0,0
-140,309,0,0,0,0,0,0,0,0,0,-1,1084,715,0,0
-133,309,0,0,0,0,0,0,0,0,0,-1,1091,715,0,0
-126,309,0,0,0,0,0,0,0,0,0,-1,1098,715,0,0
-119,309,0,0,0,0,0,0,0,0,0,-1,1105,715,0,0
-112,309,0,0,0,0,0,0,0,0,0,-1,1112,715,0,0
-105,309,0,0,0,0,0,0,0,0,0,-1,1119,715,0,0
-98,309,0,0,0,0,0,0,0,0,0,-1,1126,715,0,0
-91,309,0,0,0,0,0,0,0,0,0,-1,1133,715,0,0
-84,309,0,0,0,0,0,0,0,0,0,-1,1140,715,0,0
-77,309,0,0,0,0,0,0,0,0,0,-1,1147,715,0,0
-70,309,0,0,0,0,0,0,0,0,0,-1,1154,715,0,0
-63,309,0,0,0,0,0,0,0,0,0,-1,1161,715,0,0
-56,309,0,0,0,0,0,0,0,0,0,-1,1168,715,0,0
-49,309,0,0,0,0,0,0,0,0,0,-1,1175,715,0,0
-42,309,0,0,0,0,0,0,0,0,0,-1,1182,715,0,0
-35,309,0,0,0,0,0,0,0,0,0,-1,1189,715,0,0
-28,309,0,0,0,0,0,0,0,0,0,-1,1196,715,0,0
-21,309,0,0,0,0,0,0,0,0,0,-1,1203,715,0,0
-14,309,0,0,0,0,0,0,0,0,0,-1,1210,715,0,0
-7,309,0,0,0,0,0,0,0,0,0,-1,1217,715,0,0
0,309,0,0,0,0,0,0,0,0,0,-1,1224,715,0,0
7,309,0,0,0,0,0,0,0,0,0,-1,1231,715,0,0
14,309,0,0,0,0,0,0,0,0,0,-1,1238,715,0,0
21,309,0,0,0,0,0,0,0,0,0,-1,1245,715,0,0
28,309,0,0,0,0,0,0,0,0,0,-1,1252,715,0,0
35,309,0,0,0,0,0,0,0,0,0,-1,1259,715,0,0
42,309,0,0,0,0,0,0,0,0,0,-1,1266,715,0,0
49,309,0,0,0,0,0,0,0,0,0,-1,1273,715,0,0
56,309,0,0,0,0,0,0,0,0,0,-1,1280,715,0,0
63,309,0,0,0,0,0,0,0,0,0,-1,1287,715,0,0
70,309,0,0,0,0,0,0,0,0,0,-1,1294,715,0,0
77,309,0,0,0,0,0,0,0,0,0,-1,1301,715,0,0
84,309,0,0,0,0,0,0,0,0,0,-1,1308,715,0,0
91,309,0,0,0,0,0,0,0,0,0,-1,1315,715,0,0
98,309,0,0,0,0,0,0,0,0,0,-1,1322,715,0,0
105,309,0,0,0,0,0,0,0,0,0,-1,1329,715,0,0
112,309,0,0,0,0,0,0,0,0,0,-1,1336,715,0,0
119,309,0,0,0,0,0,0,0,0,0,-1,1343,715,0,0
126,309,0,0,0,0,0,0,0,0,0,-1,1350,715,0,0
133,309,0,0,0,0,0,0,0,0,0,-1,1357,715,0,0
140,309,0,0,0,0,0,0,0,0,0,-1,1364,715,0,0
147,309,0,0,0,0,0,0,0,0,0,-1,1371,715,0,0
154,309,0,0,0,0,0,0,0,0,0,-1,1378,715,0,0
161,309,0,0,0,0,0,0,0,0,0,-1,1385,715,0,0
168,309,0,0,0,0,0,0,0,0,0,-1,1392,715,0,0
175,309,0,0,0,0,0,0,0,0,0,-1,1399,715,0,0
182,309,0,0,0,0,0,0,0,0,0,-1,1406,715,0,0
189,309,0,0,0,0,0,0,0,0,0,-1,1413,715,0,0
196,309,0,0,0,0,0,0,0,0,0,-1,1420,715,0,0
203,309,0,0,0,0,0,0,0,0,0,-1,1427,715,0,0
210,309,0,0,0,0,0,0,0,0,0,-1,1434,715,0,0
217,309,0,0,0,0,0,0,0,0,0,-1,1441,715,0,0
224,309,0,0,0,0,0,0,0,0,0,-1,1448,715,0,0
231,309,0,0,0,0,0,0,0,0,0,-1,1455,715,0,0
238,309,0,0,0,0,0,0,0,0,0,-1,1462,715,0,0
245,309,0,0,0,0,0,0,0,0,0,-1,1469,715,0,0
252,309,0,0,0,0,0,0,0,0,0,-1,1476,715,0,0
259,309,0,0,0,0,0,0,0,0,0,-1,1483,715,0,0
266,309,0,0,0,0,0,0,0,0,0,-1,1490,715,0,0
273,309,0,0,0,0,0,0,0,0,0,-1,1497,715,0,0
280,309,0,0,0,0,0,0,0,0,0,-1,1504,715,0,0
287,309,0,0,0,0,0,0,0,0,0,-1,1511,715,0,0
294,309,0,0,0,0,0,0,0,0,0,-1,1518,715,0,0
301,309,0,0,0,0,0,0,0,0,0,-1,1525,715,0,0
308,309,0,0,0,0,0,0,0,0,0,-1,1532,715,0,0
315,309,0,0,0,0,0,0,0,0,0,-1,1539,715,0,0
322,309,0,0,0,0,0,0,0,0,0,-1,1546,715,0,0
329,309,0,0,0,0,0,0,0,0,0,-1,1553,715,0,0
336,309,0,0,0,0,0,0,0,0,0,-1,1560,715,0,0
343,309,0,0,0,0,0,0,0,0,0,-1,1567,715,0,0
350,309,0,0,0,0,0,0,0,0,0,-1,1574,715,0,0
357,309,0,0,0,0,0,0,0,0,0,-1,1581,715,0,0
364,309,0,0,0,0,0,0,0,0,0,-1,1588,715,0,0
371,309,0,0,0,0,0,0,0,0,0,-1,1595,715,0,0
378,309,0,0,0,0,0,0,0,0,0,-1,1602,715,0,0
385,309,0,0,0,0,0,0,0,0,0,-1,1609,715,0,0
392,309,0,0,0,0,0,0,0,0,0,-1,1616,715,0,0
399,309,0,0,0,0,0,0,0,0,0,-1,1623,715,0,0
406,309,0,0,0,0,0,0,0,0,0,-1,1630,715,0,0
413,309,0,0,0,0,0,0,0,0,0,-1,1637,715,0,0
420,309,0,0,0,0,0,0,0,0,0,-1,1644,715,0,0
427,309,0,0,0,0,0,0,0,0,0,-1,1651,715,0,0
434,309,0,0,0,0,0,0,0,0,0,-1,1658,715,0,0
441,309,0,0,0,0,0,0,0,0,0,-1,1665,715,0,0
448,309,0,0,0,0,0,0,0,0,0,-1,1672,715,0,0
455,309,0,0,0,0,0,0,0,0,0,-1,1679,715,0,0
462,309,0,0,0,0,0,0,0,0,0,-1,1686,715,0,0
469,309,0,0,0,0,0,0,0,0,0,-1,1693,715,0,0
476,309,0,0,0,0,0,0,0,0,0,-1,1700,715,0,0
483,309,0,0,0,0,0,0,0,0,0,-1,1707,715,0,0
490,309,0,0,0,0,0,0,0,0,0,-1,1714,715,0,0
497,309,0,0,0,0,0,0,0,0,0,-1,1721,715,0,0
504,309,0,0,0,0,0,0,0,0,0,-1,1728,715,0,0
511,309,0,0,0,0,0,0,0,0,0,-1,1735,715,0,0
518,309,0,0,0,0,0,0,0,0,0,-1,1742,715,0,0
525,309,0,0,0,0,0,0,0,0,0,-1,1749,715,0,0
532,309,0,0,0,0,0,0,0,0,0,-1,1756,715,0,0
539,309,44.2073,2.66235,0,0,0,0,0,0,0,-1,1763,715,44.2073,-2.66238
546,309,44.4976,3.25531,0,0,0,0,0,0,0,-1,1770,715,44.4976,-3.25533
553,309,47.9611,4.06433,0,0,0,0,0,0,0,-1,1777,715,47.9611,-4.06434
560,309,47.9784,4.64801,0,0,0,0,0,0,0,-1,1784,715,47.9784,-4.64799
567,309,47.0073,5.43121,0,0,0,0,0,0,0,-1,1791,715,47.0073,-5.43121
574,309,45.8746,6.53271,0,0,0,0,0,0,0,-1,1798,715,45.8747,-6.53269
581,309,45.0629,7.73468,0,0,0,0,0,0,0,-1,1805,715,45.0629,-7.73471
588,309,26.2064,7.76422,0,0,0,0,0,0,0,-1,1812,715,26.2064,-7.7642
595,309,19.585,3.71558,0,0,0,0,0,0,0,-1,1819,715,19.5849,-3.71555
602,309,11.0811,3.47772,0,0,0,0,0,0,0,-1,1826,715,11.0811,-3.47772
609,309,48.9159,-13.1766,0,0,0,0,0,0,0,-1,1833,715,48.9159,13.1766
616,309,48.774,-12.0315,0.00257299,0.000930517,0.00156926,0.00352291,-1.94053e-05,0.544331,0.0023551,0.0385457,1840,715,48.7741,12.0315
623,309,48.6235,-10.887,0.00181202,0.000774423,0.00133589,0.00272631,-0.000139867,0.600184,0.00186591,0.0120894,1847,715,48.6236,10.887
630,309,48.5214,-9.87952,0.00160456,0.000563841,0.00109857,0.00229977,-0.000131373,0.564217,0.0015788,0.0120157,1854,715,48.5214,9.87952
637,309,48.4366,-8.85266,0.00150748,0.000525924,0.000945135,0.00208167,-4.82587e-05,0.545926,0.00140414,0.0151962,1861,715,48.4367,8.85263
644,309,48.3451,-7.80615,0.00155119,0.000659349,0.000872829,0.00208541,0.00012513,0.549237,0.0013505,0.0154228,1868,715,48.345,7.80618
651,309,48.272,-6.76849,0.00174466,0.000900467,0.000855109,0.00227618,0.000368952,0.556134,0.00141064,0.0158611,1875,715,48.272,6.76852
658,309,48.1907,-5.69763,0.00212726,0.00126474,0.000922268,0.00271412,0.000677882,0.566699,0.0016311,0.0235053,1882,715,48.1907,5.69763
665,309,48.1771,-4.6637,0.00268542,0.00175676,0.00107548,0.00339252,0.00104965,0.581614,0.00200555,0.0186218,1889,715,48.1771,4.66367
672,309,48.1012,-3.66406,0.00347917,0.0024649,0.00135791,0.00442156,0.00152251,0.606686,0.0025937,0.0159468,1896,715,48.1012,3.66407
679,309,48.0695,-2.55585,0.00447343,0.00329702,0.00179042,0.00576979,0.00200066,0.626688,0.00338295,0.0330071,1903,715,48.0695,2.55584
686,309,48.0023,-1.39246,0,0,0,0,0,0,0,-1,1910,715,48.0023,1.39243
693,309,32.7026,1.51727,0,0,0,0,0,0,0,-1,1917,715,32.7026,-1.51727
700,309,23.0179,3.08337,0,0,0,0,0,0,0,-1,1924,715,23.018,-3.08336
707,309,15.6318,4.58655,0,0,0,0,0,0,0,-1,1931,715,15.6318,-4.58657
714,309,16.7573,6.68286,0,0,0,0,0,0,0,-1,1938,715,16.7574,-6.68284
721,309,16.8337,5.4458,0,0,0,0,0,0,0,-1,1945,715,16.8338,-5.44582
728,309,0,0,0,0,0,0,0,0,0,-1,1952,715,0,0
735,309,0,0,0,0,0,0,0,0,0,-1,1959,715,0,0
742,309,0,0,0,0,0,0,0,0,0,-1,1966,715,0,0
749,309,0,0,0,0,0,0,0,0,0,-1,1973,715,0,0
756,309,0,0,0,0,0,0,0,0,0,-1,1980,715,0,0
763,309,0,0,0,0,0,0,0,0,0,-1,1987,715,0,0
770,309,0,0,0,0,0,0,0,0,0,-1,1994,715,0,0
777,309,0,0,0,0,0,0,0,0,0,-1,2001,715,0,0
784,309,0,0,0,0,0,0,0,0,0,-1,2008,715,0,0
791,309,0,0,0,0,0,0,0,0,0,-1,2015,715,0,0
798,309,0,0,0,0,0,0,0,0,0,-1,2022,715,0,0
805,309,0,0,0,0,0,0,0,0,0,-1,2029,715,0,0
812,309,0,0,0,0,0,0,0,0,0,-1,2036,715,0,0
-700,302,0,0,0,0,0,0,0,0,0,-1,524,722,0,0
-693,302,0,0,0,0,0,0,0,0,0,-1,531,722,0,0
-686,302,0,0,0,0,0,0,0,0,0,-1,538,722,0,0
-679,302,0,0,0,0,0,0,0,0,0,-1,545,722,0,0
-672,302,0,0,0,0,0,0,0,0,0,-1,552,722,0,0
-665,302,0,0,0,0,0,0,0,0,0,-1,559,722,0,0
-658,302,0,0,0,0,0,0,0,0,0,-1,566,722,0,0
-651,302,0,0,0,0,0,0,0,0,0,-1,573,722,0,0
-644,302,0,0,0,0,0,0,0,0,0,-1,580,722,0,0
-637,302,0,0,0,0,0,0,0,0,0,-1,587,722,0,0
-630,302,0,0,0,0,0,0,0,0,0,-1,594,722,0,0
-623,302,0,0,0,0,0,0,0,0,0,-1,601,722,0,0
-616,302,0,0,0,0,0,0,0,0,0,-1,608,722,0,0
-609,302,-7.79266,-3.71649,0,0,0,0,0,0,0,-1,615,722,-7.79267,3.7165
-602,302,0.92865,-1.99158,0,0,0,0,0,0,0,-1,622,722,0.928637,1.99157
-595,302,-7.89941,2.13641,0,0,0,0,0,0,0,-1,629,722,-7.89939,-2.13639
-588,302,-7.10895,1.79163,0,0,0,0,0,0,0,-1,636,722,-7.10896,-1.79163
-581,302,-9.17566,1.09448,0,0,0,0,0,0,0,-1,643,722,-9.17569,-1.09445
-574,302,-11.5183,-0.344543,0,0,0,0,0,0,0,-1,650,722,-11.5183,0.344557
-567,302,-12.1534,-0.672241,0,0,0,0,0,0,0,-1,657,722,-12.1535,0.672246
-560,302,-32.3898,-1.23883,0,0,0,0,0,0,0,-1,664,722,-32.3897,1.23885
-553,302,-32.3165,-2.29169,0.00262617,0.00423548,-0.00239539,0.00595775,0.000903892,-0.947435,0.00370745,0.0466802,671,722,-32.3165,2.29169
-546,302,-32.3008,-3.38867,0.00216937,0.00325817,-0.00196928,0.00475691,0.000670632,-0.920253,0.00297305,0.0198011,678,722,-32.3009,3.38868
-539,302,-32.375,-4.38892,0.00173176,0.00215521,-0.0014571,0.00341588,0.000471078,-0.857546,0.0021376,0.0154688,685,722,-32.375,4.38892
-532,302,-32.4471,-5.42065,0.00101124,0.00119806,-0.000846151,0.00195594,0.000253358,-0.840375,0.00122825,0.0147633,692,722,-32.4471,5.42068
-525,302,-32.449,-6.54865,0.000540939,0.000211999,-0.000386863,0.000796842,-4.39038e-05,-0.584405,0.000546451,0.0219331,699,722,-32.4491,6.54866
-518,302,-32.516,-7.56262,0.000186992,-0.000577492,0.000132838,0.000209416,-0.000599916,0.167234,0.00048506,0.0247845,706,722,-32.516,7.56264
-511,302,-32.6301,-8.54846,-0.000347216,-0.00135093,0.000697869,1.05099e-05,-0.00170865,0.473674,0.00114262,0.0118774,713,722,-32.6301,8.54846
-504,302,-32.7198,-9.58185,-0.000934051,-0.00209165,0.00134409,-4.94295e-05,-0.00297627,0.582087,0.00196791,0.0103647,720,722,-32.7198,9.58183
-497,302,-32.8218,-10.5932,-0.00131698,-0.00276447,0.00193368,2.39627e-05,-0.00410541,0.606328,0.00274496,0.0182246,727,722,-32.8218,10.5932
-490,302,-32.9301,-11.6068,0,0,0,0,0,0,0,-1,734,722,-32.9301,11.6068
-483,302,-9.53412,-3.1673,0,0,0,0,0,0,0,-1,741,722,-9.53411,3.1673
-476,302,-4.29749,-0.203491,0,0,0,0,0,0,0,-1,748,722,-4.29751,0.203464
-469,302,-12.369,1.42859,0,0,0,0,0,0,0,-1,755,722,-12.3689,-1.42857
-462,302,-17.4766,0.310791,0,0,0,0,0,0,0,-1,762,722,-17.4766,-0.310788
-455,302,-36.7368,-2.97418,0,0,0,0,0,0,0,-1,769,722,-36.7368,2.97416
-448,302,-42.1174,-1.44232,0,0,0,0,0,0,0,-1,776,722,-42.1174,1.44229
-441,302,-46.7637,0.580078,0,0,0,0,0,0,0,-1,783,722,-46.7636,-0.58007
-434,302,-46.574,1.30511,0,0,0,0,0,0,0,-1,790,722,-46.574,-1.30509
-427,302,-46.7514,1.51532,0,0,0,0,0,0,0,-1,797,722,-46.7514,-1.51532
-420,302,0,0,0,0,0,0,0,0,0,-1,804,722,0,0
-413,302,0,0,0,0,0,0,0,0,0,-1,811,722,0,0
-406,302,0,0,0,0,0,0,0,0,0,-1,818,722,0,0
-399,302,0,0,0,0,0,0,0,0,0,-1,825,722,0,0
-392,302,0,0,0,0,0,0,0,0,0,-1,832,722,0,0
-385,302,0,0,0,0,0,0,0,0,0,-1,839,722,0,0
-378,302,0,0,0,0,0,0,0,0,0,-1,846,722,0,0
-371,302,0,0,0,0,0,0,0,0,0,-1,853,722,0,0
-364,302,0,0,0,0,0,0,0,0,0,-1,860,722,0,0
-357,302,0,0,0,0,0,0,0,0,0,-1,867,722,0,0
-350,302,0,0,0,0,0,0,0,0,0,-1,874,722,0,0
-343,302,0,0,0,0,0,0,0,0,0,-1,881,722,0,0
-336,302,0,0,0,0,0,0,0,0,0,-1,888,722,0,0
-329,302,0,0,0,0,0,0,0,0,0,-1,895,722,0,0
-322,302,0,0,0,0,0,0,0,0,0,-1,902,722,0,0
-315,302,0,0,0,0,0,0,0,0,0,-1,909,722,0,0
-308,302,0,0,0,0,0,0,0,0,0,-1,916,722,0,0
-301,302,0,0,0,0,0,0,0,0,0,-1,923,722,0,0
-294,302,0,0,0,0,0,0,0,0,0,-1,930,722,0,0
-287,302,0,0,0,0,0,0,0,0,0,-1,937,722,0,0
-280,302,0,0,0,0,0,0,0,0,0,-1,944,722,0,0
-273,302,0,0,0,0,0,0,0,0,0,-1,951,722,0,0
-266,302,0,0,0,0,0,0,0,0,0,-1,958,722,0,0
-259,302,0,0,0,0,0,0,0,0,0,-1,965,722,0,0
-252,302,0,0,0,0,0,0,0,0,0,-1,972,722,0,0
-245,302,0,0,0,0,0,0,0,0,0,-1,979,722,0,0
-238,302,0,0,0,0,0,0,0,0,0,-1,986,722,0,0
-231,302,0,0,0,0,0,0,0,0,0,-1,993,722,0,0
-224,302,0,0,0,0,0,0,0,0,0,-1,1000,722,0,0
-217,302,0,0,0,0,0,0,0,0,0,-1,1007,722,0,0
-210,302,0,0,0,0,0,0,0,0,0,-1,1014,722,0,0
-203,302,0,0,0,0,0,0,0,0,0,-1,1021,722,0,0
-196,302,0,0,0,0,0,0,0,0,0,-1,1028,722,0,0
-189,302,0,0,0,0,0,0,0,0,0,-1,1035,722,0,0
-182,302,0,0,0,0,0,0,0,0,0,-1,1042,722,0,0
-175,302,0,0,0,0,0,0,0,0,0,-1,1049,722,0,0
-168,302,0,0,0,0,0,0,0,0,0,-1,1056,722,0,0
-161,302,0,0,0,0,0,0,0,0,0,-1,1063,722,0,0
-154,302,0,0,0,0,0,0,0,0,0,-1,1070,722,0,0
-147,302,0,0,0,0,0,0,0,0,0,-1,1077,722,0,0
-140,302,0,0,0,0,0,0,0,0,0,-1,1084,722,0,0
-133,302,0,0,0,0,0,0,0,0,0,-1,1091,722,0,0
-126,302,0,0,0,0,0,0,0,0,0,-1,1098,722,0,0
-119,302,0,0,0,0,0,0,0,0,0,-1,1105,722,0,0
-112,302,0,0,0,0,0,0,0,0,0,-1,1112,722,0,0
-105,302,0,0,0,0,0,0,0,0,0,-1,1119,722,0,0
-98,302,0,0,0,0,0,0,0,0,0,-1,1126,722,0,0
-91,302,0,0,0,0,0,0,0,0,0,-1,1133,722,0,0
-84,302,0,0,0,0,0,0,0,0,0,-1,1140,722,0,0
-77,302,0,0,0,0,0,0,0,0,0,-1,1147,722,0,0
-70,302,0,0,0,0,0,0,0,0,0,-1,1154,722,0,0
-63,302,0,0,0,0,0,0,0,0,0,-1,1161,722,0,0
-56,302,0,0,0,0,0,0,0,0,0,-1,1168,722,0,0
-49,302,0,0,0,0,0,0,0,0,0,-1,1175,722,0,0
-42,302,0,0,0,0,0,0,0,0,0,-1,1182,722,0,0
-35,302,0,0,0,0,0,0,0,0,0,-1,1189,722,0,0
-28,302,0,0,0,0,0,0,0,0,0,-1,1196,722,0,0
-21,302,0,0,0,0,0,0,0,0,0,-1,1203,722,0,0
-14,302,0,0,0,0,0,0,0,0,0,-1,1210,722,0,0
-7,302,0,0,0,0,0,0,0,0,0,-1,1217,722,0,0
0,302,0,0,0,0,0,0,0,0,0,-1,1224,722,0,0
7,302,0,0,0,0,0,0,0,0,0,-1,1231,722,0,0
14,302,0,0,0,0,0,0,0,0,0,-1,1238,722,0,0
21,302,0,0,0,0,0,0,0,0,0,-1,1245,722,0,0
28,302,0,0,0,0,0,0,0,0,0,-1,1252,722,0,0
35,302,0,0,0,0,0,0,0,0,0,-1,1259,722,0,0
42,302,0,0,0,0,0,0,0,0,0,-1,1266,722,0,0
49,302,0,0,0,0,0,0,0,0,0,-1,1273,722,0,0
56,302,0,0,0,0,0,0,0,0,0,-1,1280,722,0,0
63,302,0,0,0,0,0,0,0,0,0,-1,1287,722,0,0
70,302,0,0,0,0,0,0,0,0,0,-1,1294,722,0,0
77,302,0,0,0,0,0,0,0,0,0,-1,1301,722,0,0
84,302,0,0,0,0,0,0,0,0,0,-1,1308,722,0,0
91,302,0,0,0,0,0,0,0,0,0,-1,1315,722,0,0
98,302,0,0,0,0,0,0,0,0,0,-1,1322,722,0,0
105,302,0,0,0,0,0,0,0,0,0,-1,1329,722,0,0
112,302,0,0,0,0,0,0,0,0,0,-1,1336,722,0,0
119,302,0,0,0,0,0,0,0,0,0,-1,1343,722,0,0
126,302,0,0,0,0,0,0,0,0,0,-1,1350,722,0,0
133,302,0,0,0,0,0,0,0,0,0,-1,1357,722,0,0
140,302,0,0,0,0,0,0,0,0,0,-1,1364,722,0,0
147,302,0,0,0,0,0,0,0,0,0,-1,1371,722,0,0
154,302,0,0,0,0,0,0,0,0,0,-1,1378,722,0,0
161,302,0,0,0,0,0,0,0,0,0,-1,1385,722,0,0
168,302,0,0,0,0,0,0,0,0,0,-1,1392,722,0,0
175,302,0,0,0,0,0,0,0,0,0,-1,1399,722,0,0
182,302,0,0,0,0,0,0,0,0,0,-1,1406,722,0,0
189,302,0,0,0,0,0,0,0,0,0,-1,1413,722,0,0
196,302,0,0,0,0,0,0,0,0,0,-1,1420,722,0,0
203,302,0,0,0,0,0,0,0,0,0,-1,1427,722,0,0
210,302,0,0,0,0,0,0,0,0,0,-1,1434,722,0,0
217,302,0,0,0,0,0,0,0,0,0,-1,1441,722,0,0
224,302,0,0,0,0,0,0,0,0,0,-1,1448,722,0,0
231,302,0,0,0,0,0,0,0,0,0,-1,1455,722,0,0
238,302,0,0,0,0,0,0,0,0,0,-1,1462,722,0,0
245,302,0,0,0,0,0,0,0,0,0,-1,1469,722,0,0
252,302,0,0,0,0,0,0,0,0,0,-1,1476,722,0,0
259,302,0,0,0,0,0,0,0,0,0,-1,1483,722,0,0
266,302,0,0,0,0,0,0,0,0,0,-1,1490,722,0,0
273,302,0,0,0,0,0,0,0,0,0,-1,1497,722,0,0
280,302,0,0,0,0,0,0,0,0,0,-1,1504,722,0,0
287,302,0,0,0,0,0,0,0,0,0,-1,1511,722,0,0
294,302,0,0,0,0,0,0,0,0,0,-1,1518,722,0,0
301,302,0,0,0,0,0,0,0,0,0,-1,1525,722,0,0
308,302,0,0,0,0,0,0,0,0,0,-1,1532,722,0,0
315,302,0,0,0,0,0,0,0,0,0,-1,1539,722,0,0
322,302,0,0,0,0,0,0,0,0,0,-1,1546,722,0,0
329,302,0,0,0,0,0,0,0,0,0,-1,1553,722,0,0
336,302,0,0,0,0,0,0,0,0,0,-1,1560,722,0,0
343,302,0,0,0,0,0,0,0,0,0,-1,1567,722,0,0
350,302,0,0,0,0,0,0,0,0,0,-1,1574,722,0,0
357,302,0,0,0,0,0,0,0,0,0,-1,1581,722,0,0
364,302,0,0,0,0,0,0,0,0,0,-1,1588,722,0,0
371,302,0,0,0,0,0,0,0,0,0,-1,1595,722,0,0
378,302,0,0,0,0,0,0,0,0,0,-1,1602,722,0,0
385,302,0,0,0,0,0,0,0,0,0,-1,1609,722,0,0
392,302,0,0,0,0,0,0,0,0,0,-1,1616,722,0,0
399,302,0,0,0,0,0,0,0,0,0,-1,1623,722,0,0
406,302,0,0,0,0,0,0,0,0,0,-1,1630,722,0,0
413,302,0,0,0,0,0,0,0,0,0,-1,1637,722,0,0
420,302,0,0,0,0,0,0,0,0,0,-1,1644,722,0,0
427,302,0,0,0,0,0,0,0,0,0,-1,1651,722,0,0
434,302,0,0,0,0,0,0,0,0,0,-1,1658,722,0,0
441,302,0,0,0,0,0,0,0,0,0,-1,1665,722,0,0
448,302,0,0,0,0,0,0,0,0,0,-1,1672,722,0,0
455,302,0,0,0,0,0,0,0,0,0,-1,1679,722,0,0
462,302,0,0,0,0,0,0,0,0,0,-1,1686,722,0,0
469,302,0,0,0,0,0,0,0,0,0,-1,1693,722,0,0
476,302,0,0,0,0,0,0,0,0,0,-1,1700,722,0,0
483,302,0,0,0,0,0,0,0,0,0,-1,1707,722,0,0
490,302,0,0,0,0,0,0,0,0,0,-1,1714,722,0,0
497,302,0,0,0,0,0,0,0,0,0,-1,1721,722,0,0
504,302,0,0,0,0,0,0,0,0,0,-1,1728,722,0,0
511,302,0,0,0,0,0,0,0,0,0,-1,1735,722,0,0
518,302,0,0,0,0,0,0,0,0,0,-1,1742,722,0,0
525,302,0,0,0,0,0,0,0,0,0,-1,1749,722,0,0
532,302,0,0,0,0,0,0,0,0,0,-1,1756,722,0,0
539,302,0,0,0,0,0,0,0,0,0,-1,1763,722,0,0
546,302,48.9873,1.50562,0,0,0,0,0,0,0,-1,1770,722,48.9873,-1.50562
553,302,56.7844,3.46533,0,0,0,0,0,0,0,-1,1777,722,56.7844,-3.4653
560,302,56.7115,3.84808,0,0,0,0,0,0,0,-1,1784,722,56.7116,-3.84806
567,302,55.9475,4.24542,0,0,0,0,0,0,0,-1,1791,722,55.9475,-4.24542
574,302,45.9537,6.00867,0,0,0,0,0,0,0,-1,1798,722,45.9537,-6.00864
581,302,45.137,7.38043,0,0,0,0,0,0,0,-1,1805,722,45.1369,-7.38044
588,302,26.9731,7.19983,0,0,0,0,0,0,0,-1,1812,722,26.9732,-7.19981
595,302,27.3826,8.13104,0,0,0,0,0,0,0,-1,1819,722,27.3825,-8.13102
602,302,14.7349,5.21246,0,0,0,0,0,0,0,-1,1826,722,14.7349,-5.21247
609,302,31.1039,-6.34253,0,0,0,0,0,0,0,-1,1833,722,31.1039,6.34254
616,302,49.8562,-12.022,0,0,0,0,0,0,0,-1,1840,722,49.8562,12.022
623,302,49.6592,-10.8046,0.00200741,0.000857639,0.00144509,0.00298777,-0.000122715,0.596084,0.00203399,0.0200451,1847,722,49.6592,10.8046
630,302,49.5432,-9.78064,0.00166626,0.00055407,0.00113206,0.00237144,-0.000151102,0.557096,0.00163366,0.0117092,1854,722,49.5432,9.78061
637,302,49.4561,-8.76886,0.0014471,0.000451756,0.000922103,0.00199726,-9.84045e-05,0.537943,0.00136549,0.0157657,1861,722,49.456,8.76884
644,302,49.3899,-7.72894,0.00138915,0.000564502,0.000807267,0.0018833,7.03544e-05,0.549286,0.00123275,0.0176029,1868,722,49.3899,7.72893
651,302,49.323,-6.67847,0.00150858,0.00081121,0.000781146,0.00201533,0.000304458,0.575481,0.00125444,0.0180785,1875,722,49.323,6.67849
658,302,49.2676,-5.67657,0.00183722,0.00118221,0.000852361,0.00242283,0.000596604,0.601978,0.00145764,0.0195592,1882,722,49.2676,5.67661
665,302,49.2053,-4.63422,0.00232874,0.00167721,0.00101462,0.00306861,0.000937341,0.630061,0.00181581,0.0175175,1889,722,49.2053,4.63424
672,302,49.1134,-3.62079,0.00305849,0.00231396,0.00131984,0.00405756,0.00131489,0.647941,0.00239049,0.0129256,1896,722,49.1134,3.6208
679,302,49.0386,-2.57056,0.00400557,0.0030918,0.00176997,0.00537667,0.00172069,0.659089,0.00317054,0.0104878,1903,722,49.0385,2.57055
686,302,49.0033,-1.45471,0.00534206,0.00387225,0.00242028,0.00713655,0.00207777,0.638,0.00423841,0.0283525,1910,722,49.0032,1.45473
693,302,48.8951,-0.354675,0,0,0,0,0,0,0,-1,1917,722,48.8951,0.35465
700,302,25.4069,1.97308,0,0,0,0,0,0,0,-1,1924,722,25.4068,-1.97311
707,302,16.7321,4.76685,0,0,0,0,0,0,0,-1,1931,722,16.7321,-4.76687
714,302,17.2,5.77594,0,0,0,0,0,0,0,-1,1938,722,17.2,-5.77595
721,302,17.7914,6.60394,0,0,0,0,0,0,0,-1,1945,722,17.7914,-6.60395
728,302,17.2798,4.81702,0,0,0,0,0,0,0,-1,1952,722,17.2798,-4.81703
735,302,0,0,0,0,0,0,0,0,0,-1,1959,722,0,0
742,302,0,0,0,0,0,0,0,0,0,-1,1966,722,0,0
749,302,0,0,0,0,0,0,0,0,0,-1,1973,722,0,0
756,302,0,0,0,0,0,0,0,0,0,-1,1980,722,0,0
763,302,0,0,0,0,0,0,0,0,0,-1,1987,722,0,0
770,302,0,0,0,0,0,0,0,0,0,-1,1994,722,0,0
777,302,0,0,0,0,0,0,0,0,0,-1,2001,722,0,0
784,302,0,0,0,0,0,0,0,0,0,-1,2008,722,0,0
791,302,0,0,0,0,0,0,0,0,0,-1,2015,722,0,0
798,302,0,0,0,0,0,0,0,0,0,-1,2022,722,0,0
805,302,0,0,0,0,0,0,0,0,0,-1,2029,722,0,0
812,302,0,0,0,0,0,0,0,0,0,-1,2036,722,0,0
-700,295,0,0,0,0,0,0,0,0,0,-1,524,729,0,0
-693,295,0,0,0,0,0,0,0,0,0,-1,531,729,0,0
-686,295,0,0,0,0,0,0,0,0,0,-1,538,729,0,0
-679,295,0,0,0,0,0,0,0,0,0,-1,545,729,0,0
-672,295,0,0,0,0,0,0,0,0,0,-1,552,729,0,0
-665,295,0,0,0,0,0,0,0,0,0,-1,559,729,0,0
-658,295,0,0,0,0,0,0,0,0,0,-1,566,729,0,0
-651,295,0,0,0,0,0,0,0,0,0,-1,573,729,0,0
-644,295,0,0,0,0,0,0,0,0,0,-1,580,729,0,0
-637,295,0,0,0,0,0,0,0,0,0,-1,587,729,0,0
-630,295,0,0,0,0,0,0,0,0,0,-1,594,729,0,0
-623,295,0,0,0,0,0,0,0,0,0,-1,601,729,0,0
-616,295,-13.4911,1.31738,0,0,0,0,0,0,0,-1,608,729,-13.4911,-1.3174
-609,295,-10.2864,0.832031,0,0,0,0,0,0,0,-1,615,729,-10.2863,-0.832034
-602,295,-8.19006,3.01587,0,0,0,0,0,0,0,-1,622,729,-8.19005,-3.01588
-595,295,-0.615479,-1.95447,0,0,0,0,0,0,0,-1,629,729,-0.615481,1.95445
-588,295,-7.98999,1.56903,0,0,0,0,0,0,0,-1,636,729,-7.98997,-1.56905
-581,295,-12.0404,0.150574,0,0,0,0,0,0,0,-1,643,729,-12.0404,-0.150604
-574,295,-12.1605,-0.0739746,0,0,0,0,0,0,0,-1,650,729,-12.1605,0.0739856
-567,295,-32.8004,-0.0215454,0,0,0,0,0,0,0,-1,657,729,-32.8004,0.0215233
-560,295,-33.1578,-1.24115,0.00313502,0.00473534,-0.00251058,0.00657019,0.00130018,-0.939667,0.00401749,0.043492,664,729,-33.1578,1.24116
-553,295,-33.2278,-2.32086,0.00243354,0.00332363,-0.001895,0.00482514,0.000932027,-0.900734,0.00295548,0.0224962,671,729,-33.2278,2.32087
-546,295,-33.3514,-3.29352,0.0017872,0.00241903,-0.0014217,0.00355949,0.000646743,-0.894726,0.00218949,0.0205502,678,729,-33.3514,3.2935
-539,295,-33.4265,-4.28436,0.00121516,0.00147737,-0.000938444,0.00229382,0.000398704,-0.854801,0.00141516,0.0190043,685,729,-33.4265,4.28439
-532,295,-33.5109,-5.3363,0.000385647,0.000651704,-0.000360898,0.00090331,0.00013404,-0.961974,0.000562872,0.0164078,692,729,-33.5109,5.3363
-525,295,-33.5394,-6.43463,-0.000144373,-0.000234157,2.15779e-05,-0.000139456,-0.000239073,0.224029,0.000138666,0.0164802,699,729,-33.5394,6.43466
-518,295,-33.5629,-7.46844,-0.000586278,-0.000950865,0.000483798,-0.000251569,-0.00128557,0.605226,0.000786717,0.0127548,706,729,-33.5629,7.46844
-511,295,-33.6672,-8.46185,-0.00127448,-0.00168438,0.00105282,-0.000406841,-0.00255202,0.689268,0.00158325,0.010497,713,729,-33.6672,8.46185
-504,295,-33.7463,-9.48865,-0.00202041,-0.00243303,0.00173106,-0.000483406,-0.00397004,0.726087,0.00250118,0.0116457,720,729,-33.7463,9.48864
-497,295,-33.8472,-10.44,-0.00255925,-0.00318309,0.00239861,-0.000452359,-0.00528998,0.72074,0.00338595,0.0282314,727,729,-33.8472,10.44
-490,295,-33.9643,-11.3504,0,0,0,0,0,0,0,-1,734,729,-33.9643,11.3504
-483,295,-6.84503,-0.454651,0,0,0,0,0,0,0,-1,741,729,-6.84505,0.454639
-476,295,-13.1738,-0.836243,0,0,0,0,0,0,0,-1,748,729,-13.1738,0.836223
-469,295,-26.5608,-0.466187,0,0,0,0,0,0,0,-1,755,729,-26.5608,0.466162
-462,295,-29.7701,-0.792664,0,0,0,0,0,0,0,-1,762,729,-29.7701,0.792642
-455,295,-45.11,-2.79272,0,0,0,0,0,0,0,-1,769,729,-45.11,2.79272
-448,295,-48.0288,1.41229,0,0,0,0,0,0,0,-1,776,729,-48.0288,-1.41227
-441,295,-47.1089,1.03058,0,0,0,0,0,0,0,-1,783,729,-47.109,-1.0306
-434,295,-46.2319,1.10614,0,0,0,0,0,0,0,-1,790,729,-46.2319,-1.10612
-427,295,0,0,0,0,0,0,0,0,0,-1,797,729,0,0
-420,295,0,0,0,0,0,0,0,0,0,-1,804,729,0,0
-413,295,0,0,0,0,0,0,0,0,0,-1,811,729,0,0
-406,295,0,0,0,0,0,0,0,0,0,-1,818,729,0,0
-399,295,0,0,0,0,0,0,0,0,0,-1,825,729,0,0
-392,295,0,0,0,0,0,0,0,0,0,-1,832,729,0,0
-385,295,0,0,0,0,0,0,0,0,0,-1,839,729,0,0
-378,295,0,0,0,0,0,0,0,0,0,-1,846,729,0,0
-371,295,0,0,0,0,0,0,0,0,0,-1,853,729,0,0
-364,295,0,0,0,0,0,0,0,0,0,-1,860,729,0,0
-357,295,0,0,0,0,0,0,0,0,0,-1,867,729,0,0
-350,295,0,0,0,0,0,0,0,0,0,-1,874,729,0,0
-343,295,0,0,0,0,0,0,0,0,0,-1,881,729,0,0
-336,295,0,0,0,0,0,0,0,0,0,-1,888,729,0,0
-329,295,0,0,0,0,0,0,0,0,0,-1,895,729,0,0
-322,295,0,0,0,0,0,0,0,0,0,-1,902,729,0,0
-315,295,0,0,0,0,0,0,0,0,0,-1,909,729,0,0
-308,295,0,0,0,0,0,0,0,0,0,-1,916,729,0,0
-301,295,0,0,0,0,0,0,0,0,0,-1,923,729,0,0
-294,295,0,0,0,0,0,0,0,0,0,-1,930,729,0,0
-287,295,0,0,0,0,0,0,0,0,0,-1,937,729,0,0
-280,295,0,0,0,0,0,0,0,0,0,-1,944,729,0,0
-273,295,0,0,0,0,0,0,0,0,0,-1,951,729,0,0
-266,295,0,0,0,0,0,0,0,0,0,-1,958,729,0,0
-259,295,0,0,0,0,0,0,0,0,0,-1,965,729,0,0
-252,295,0,0,0,0,0,0,0,0,0,-1,972,729,0,0
-245,295,0,0,0,0,0,0,0,0,0,-1,979,729,0,0
-238,295,0,0,0,0,0,0,0,0,0,-1,986,729,0,0
-231,295,0,0,0,0,0,0,0,0,0,-1,993,729,0,0
-224,295,0,0,0,0,0,0,0,0,0,-1,1000,729,0,0
-217,295,0,0,0,0,0,0,0,0,0,-1,1007,729,0,0
-210,295,0,0,0,0,0,0,0,0,0,-1,1014,729,0,0
-203,295,0,0,0,0,0,0,0,0,0,-1,1021,729,0,0
-196,295,0,0,0,0,0,0,0,0,0,-1,1028,729,0,0
-189,295,0,0,0,0,0,0,0,0,0,-1,1035,729,0,0
-182,295,0,0,0,0,0,0,0,0,0,-1,1042,729,0,0
-175,295,0,0,0,0,0,0,0,0,0,-1,1049,729,0,0
-168,295,0,0,0,0,0,0,0,0,0,-1,1056,729,0,0
-161,295,0,0,0,0,0,0,0,0,0,-1,1063,729,0,0
-154,295,0,0,0,0,0,0,0,0,0,-1,1070,729,0,0
-147,295,0,0,0,0,0,0,0,0,0,-1,1077,729,0,0
-140,295,0,0,0,0,0,0,0,0,0,-1,1084,729,0,0
-133,295,0,0,0,0,0,0,0,0,0,-1,1091,729,0,0
-126,295,0,0,0,0,0,0,0,0,0,-1,1098,729,0,0
-119,295,0,0,0,0,0,0,0,0,0,-1,1105,729,0,0
-112,295,0,0,0,0,0,0,0,0,0,-1,1112,729,0,0
-105,295,0,0,0,0,0,0,0,0,0,-1,1119,729,0,0
-98,295,0,0,0,0,0,0,0,0,0,-1,1126,729,0,0
-91,295,0,0,0,0,0,0,0,0,0,-1,1133,729,0,0
-84,295,0,0,0,0,0,0,0,0,0,-1,1140,729,0,0
-77,295,0,0,0,0,0,0,0,0,0,-1,1147,729,0,0
-70,295,0,0,0,0,0,0,0,0,0,-1,1154,729,0,0
-63,295,0,0,0,0,0,0,0,0,0,-1,1161,729,0,0
-56,295,0,0,0,0,0,0,0,0,0,-1,1168,729,0,0
-49,295,0,0,0,0,0,0,0,0,0,-1,1175,729,0,0
-42,295,0,0,0,0,0,0,0,0,0,-1,1182,729,0,0
-35,295,0,0,0,0,0,0,0,0,0,-1,1189,729,0,0
-28,295,0,0,0,0,0,0,0,0,0,-1,1196,729,0,0
-21,295,0,0,0,0,0,0,0,0,0,-1,1203,729,0,0
-14,295,0,0,0,0,0,0,0,0,0,-1,1210,729,0,0
-7,295,0,0,0,0,0,0,0,0,0,-1,1217,729,0,0
0,295,0,0,0,0,0,0,0,0,0,-1,1224,729,0,0
7,295,0,0,0,0,0,0,0,0,0,-1,1231,729,0,0
14,295,0,0,0,0,0,0,0,0,0,-1,1238,729,0,0
21,295,0,0,0,0,0,0,0,0,0,-1,1245,729,0,0
28,295,0,0,0,0,0,0,0,0,0,-1,1252,729,0,0
35,295,0,0,0,0,0,0,0,0,0,-1,1259,729,0,0
42,295,0,0,0,0,0,0,0,0,0,-1,1266,729,0,0
49,295,0,0,0,0,0,0,0,0,0,-1,1273,729,0,0
56,295,0,0,0,0,0,0,0,0,0,-1,1280,729,0,0
63,295,0,0,0,0,0,0,0,0,0,-1,1287,729,0,0
70,295,0,0,0,0,0,0,0,0,0,-1,1294,729,0,0
77,295,0,0,0,0,0,0,0,0,0,-1,1301,729,0,0
84,295,0,0,0,0,0,0,0,0,0,-1,1308,729,0,0
91,295,0,0,0,0,0,0,0,0,0,-1,1315,729,0,0
98,295,0,0,0,0,0,0,0,0,0,-1,1322,729,0,0
105,295,0,0,0,0,0,0,0,0,0,-1,1329,729,0,0
112,295,0,0,0,0,0,0,0,0,0,-1,1336,729,0,0
119,295,0,0,0,0,0,0,0,0,0,-1,1343,729,0,0
126,295,0,0,0,0,0,0,0,0,0,-1,1350,729,0,0
133,295,0,0,0,0,0,0,0,0,0,-1,1357,729,0,0
140,295,0,0,0,0,0,0,0,0,0,-1,1364,729,0,0
147,295,0,0,0,0,0,0,0,0,0,-1,1371,729,0,0
154,295,0,0,0,0,0,0,0,0,0,-1,1378,729,0,0
161,295,0,0,0,0,0,0,0,0,0,-1,1385,729,0,0
168,295,0,0,0,0,0,0,0,0,0,-1,1392,729,0,0
175,295,0,0,0,0,0,0,0,0,0,-1,1399,729,0,0
182,295,0,0,0,0,0,0,0,0,0,-1,1406,729,0,0
189,295,0,0,0,0,0,0,0,0,0,-1,1413,729,0,0
196,295,0,0,0,0,0,0,0,0,0,-1,1420,729,0,0
203,295,0,0,0,0,0,0,0,0,0,-1,1427,729,0,0
210,295,0,0,0,0,0,0,0,0,0,-1,1434,729,0,0
217,295,0,0,0,0,0,0,0,0,0,-1,1441,729,0,0
224,295,0,0,0,0,0,0,0,0,0,-1,1448,729,0,0
231,295,0,0,0,0,0,0,0,0,0,-1,1455,729,0,0
238,295,0,0,0,0,0,0,0,0,0,-1,1462,729,0,0
245,295,0,0,0,0,0,0,0,0,0,-1,1469,729,0,0
252,295,0,0,0,0,0,0,0,0,0,-1,1476,729,0,0
259,295,0,0,0,0,0,0,0,0,0,-1,1483,729,0,0
266,295,0,0,0,0,0,0,0,0,0,-1,1490,729,0,0
273,295,0,0,0,0,0,0,0,0,0,-1,1497,729,0,0
280,295,0,0,0,0,0,0,0,0,0,-1,1504,729,0,0
287,295,0,0,0,0,0,0,0,0,0,-1,1511,729,0,0
294,295,0,0,0,0,0,0,0,0,0,-1,1518,729,0,0
301,295,0,0,0,0,0,0,0,0,0,-1,1525,729,0,0
308,295,0,0,0,0,0,0,0,0,0,-1,1532,729,0,0
315,295,0,0,0,0,0,0,0,0,0,-1,1539,729,0,0
322,295,0,0,0,0,0,0,0,0,0,-1,1546,729,0,0
329,295,0,0,0,0,0,0,0,0,0,-1,1553,729,0,0
336,295,0,0,0,0,0,0,0,0,0,-1,1560,729,0,0
343,295,0,0,0,0,0,0,0,0,0,-1,1567,729,0,0
350,295,0,0,0,0,0,0,0,0,0,-1,1574,729,0,0
357,295,0,0,0,0,0,0,0,0,0,-1,1581,729,0,0
364,295,0,0,0,0,0,0,0,0,0,-1,1588,729,0,0
371,295,0,0,0,0,0,0,0,0,0,-1,1595,729,0,0
378,295,0,0,0,0,0,0,0,0,0,-1,1602,729,0,0
385,295,0,0,0,0,0,0,0,0,0,-1,1609,729,0,0
392,295,0,0,0,0,0,0,0,0,0,-1,1616,729,0,0
399,295,0,0,0,0,0,0,0,0,0,-1,1623,729,0,0
406,295,0,0,0,0,0,0,0,0,0,-1,1630,729,0,0
413,295,0,0,0,0,0,0,0,0,0,-1,1637,729,0,0
420,295,0,0,0,0,0,0,0,0,0,-1,1644,729,0,0
427,295,0,0,0,0,0,0,0,0,0,-1,1651,729,0,0
434,295,0,0,0,0,0,0,0,0,0,-1,1658,729,0,0
441,295,0,0,0,0,0,0,0,0,0,-1,1665,729,0,0
448,295,0,0,0,0,0,0,0,0,0,-1,1672,729,0,0
455,295,0,0,0,0,0,0,0,0,0,-1,1679,729,0,0
462,295,0,0,0,0,0,0,0,0,0,-1,1686,729,0,0
469,295,0,0,0,0,0,0,0,0,0,-1,1693,729,0,0
476,295,0,0,0,0,0,0,0,0,0,-1,1700,729,0,0
483,295,0,0,0,0,0,0,0,0,0,-1,1707,729,0,0
490,295,0,0,0,0,0,0,0,0,0,-1,1714,729,0,0
497,295,0,0,0,0,0,0,0,0,0,-1,1721,729,0,0
504,295,0,0,0,0,0,0,0,0,0,-1,1728,729,0,0
511,295,0,0,0,0,0,0,0,0,0,-1,1735,729,0,0
518,295,0,0,0,0,0,0,0,0,0,-1,1742,729,0,0
525,295,0,0,0,0,0,0,0,0,0,-1,1749,729,0,0
532,295,0,0,0,0,0,0,0,0,0,-1,1756,729,0,0
539,295,0,0,0,0,0,0,0,0,0,-1,1763,729,0,0
546,295,57.4674,2.36884,0,0,0,0,0,0,0,-1,1770,729,57.4674,-2.36883
553,295,57.1969,2.73846,0,0,0,0,0,0,0,-1,1777,729,57.197,-2.73843
560,295,57.0291,3.27454,0,0,0,0,0,0,0,-1,1784,729,57.029,-3.27454
567,295,56.6243,3.88239,0,0,0,0,0,0,0,-1,1791,729,56.6242,-3.8824
574,295,56.5275,4.755,0,0,0,0,0,0,0,-1,1798,729,56.5274,-4.75501
581,295,37.8191,2.19592,0,0,0,0,0,0,0,-1,1805,729,37.8191,-2.19594
588,295,39.0542,2.45679,0,0,0,0,0,0,0,-1,1812,729,39.0542,-2.45676
595,295,27.2102,6.99121,0,0,0,0,0,0,0,-1,1819,729,27.2103,-6.99121
602,295,26.9065,7.82141,0,0,0,0,0,0,0,-1,1826,729,26.9064,-7.8214
609,295,11.7737,2.19989,0,0,0,0,0,0,0,-1,1833,729,11.7736,-2.19988
616,295,45.2537,-10.4867,0,0,0,0,0,0,0,-1,1840,729,45.2537,10.4867
623,295,50.6768,-10.7224,0,0,0,0,0,0,0,-1,1847,729,50.6768,10.7224
630,295,50.5522,-9.67566,0.00258836,0.000189121,0.00155963,0.00335636,-0.000578882,0.45757,0.0024534,0.0148941,1854,729,50.5523,9.67563
637,295,50.4924,-8.6535,0.00185625,0.000260857,0.00113332,0.00244446,-0.000327355,0.478744,0.001749,0.0154221,1861,729,50.4924,8.65353
644,295,50.4381,-7.61926,0.00144681,0.000484458,0.000797796,0.00189731,3.39652e-05,0.514038,0.0012537,0.0152811,1868,729,50.4382,7.61927
651,295,50.3633,-6.5863,0.00135739,0.000727927,0.000635262,0.00175161,0.000333705,0.555404,0.00107393,0.0163845,1875,729,50.3633,6.5863
658,295,50.3137,-5.58832,0.00159805,0.00107999,0.000678563,0.00206534,0.000612698,0.603069,0.00122486,0.0165088,1882,729,50.3137,5.58834
665,295,50.217,-4.58661,0.00198313,0.00154727,0.000825339,0.00261883,0.000911577,0.656319,0.00153507,0.0142626,1889,729,50.2171,4.58658
672,295,50.1289,-3.57074,0.0026014,0.00209803,0.00114126,0.0035184,0.00118104,0.676869,0.00206759,0.0153723,1896,729,50.1289,3.57074
679,295,50.0635,-2.54187,0.00344164,0.00280244,0.0016495,0.00480222,0.00144186,0.689707,0.00284536,0.0120209,1903,729,50.0634,2.54186
686,295,50.0424,-1.50586,0.0045731,0.00351471,0.00233391,0.00643706,0.00165076,0.673912,0.00386061,0.013872,1910,729,50.0423,1.50586
693,295,50.0898,-0.263062,0,0,0,0,0,0,0,-1,1917,729,50.0899,0.263084
700,295,31.3757,2.06982,0,0,0,0,0,0,0,-1,1924,729,31.3758,-2.0698
707,295,22.2661,3.05206,0,0,0,0,0,0,0,-1,1931,729,22.2662,-3.05207
714,295,17.4906,4.63068,0,0,0,0,0,0,0,-1,1938,729,17.4906,-4.63066
721,295,18.3792,5.32281,0,0,0,0,0,0,0,-1,1945,729,18.3791,-5.32283
728,295,17.379,3.74866,0,0,0,0,0,0,0,-1,1952,729,17.379,-3.74863
735,295,0,0,0,0,0,0,0,0,0,-1,1959,729,0,0
742,295,0,0,0,0,0,0,0,0,0,-1,1966,729,0,0
749,295,0,0,0,0,0,0,0,0,0,-1,1973,729,0,0
756,295,0,0,0,0,0,0,0,0,0,-1,1980,729,0,0
763,295,0,0,0,0,0,0,0,0,0,-1,1987,729,0,0
770,295,0,0,0,0,0,0,0,0,0,-1,1994,729,0,0
777,295,0,0,0,0,0,0,0,0,0,-1,2001,729,0,0
784,295,0,0,0,0,0,0,0,0,0,-1,2008,729,0,0
791,295,0,0,0,0,0,0,0,0,0,-1,2015,729,0,0
798,295,0,0,0,0,0,0,0,0,0,-1,2022,729,0,0
805,295,0,0,0,0,0,0,0,0,0,-1,2029,729,0,0
812,295,0,0,0,0,0,0,0,0,0,-1,2036,729,0,0
-700,288,0,0,0,0,0,0,0,0,0,-1,524,736,0,0
-693,288,0,0,0,0,0,0,0,0,0,-1,531,736,0,0
-686,288,0,0,0,0,0,0,0,0,0,-1,538,736,0,0
-679,288,0,0,0,0,0,0,0,0,0,-1,545,736,0,0
-672,288,0,0,0,0,0,0,0,0,0,-1,552,736,0,0
-665,288,0,0,0,0,0,0,0,0,0,-1,559,736,0,0
-658,288,0,0,0,0,0,0,0,0,0,-1,566,736,0,0
-651,288,0,0,0,0,0,0,0,0,0,-1,573,736,0,0
-644,288,0,0,0,0,0,0,0,0,0,-1,580,736,0,0
-637,288,0,0,0,0,0,0,0,0,0,-1,587,736,0,0
-630,288,0,0,0,0,0,0,0,0,0,-1,594,736,0,0
-623,288,0,0,0,0,0,0,0,0,0,-1,601,736,0,0
-616,288,-11.7584,2.4425,0,0,0,0,0,0,0,-1,608,736,-11.7584,-2.44251
-609,288,-10.3007,2.32178,0,0,0,0,0,0,0,-1,615,736,-10.3007,-2.32178
-602,288,-10.1458,-1.85559,0,0,0,0,0,0,0,-1,622,736,-10.1458,1.85556
-595,288,-7.63208,1.81769,0,0,0,0,0,0,0,-1,629,736,-7.63205,-1.81766
-588,288,-8.19269,1.50598,0,0,0,0,0,0,0,-1,636,736,-8.19268,-1.50601
-581,288,-13.1915,0.659241,0,0,0,0,0,0,0,-1,643,736,-13.1915,-0.659228
-574,288,-33.7709,0.924011,0,0,0,0,0,0,0,-1,650,736,-33.7709,-0.924025
-567,288,-33.9529,-0.151794,0.00510255,0.0049818,-0.00319942,0.00824216,0.00184218,-0.775964,0.00499526,0.0380726,657,736,-33.9529,0.151802
-560,288,-34.2352,-1.25177,0.00338635,0.00368294,-0.00213768,0.00567746,0.00139182,-0.820029,0.00341687,0.0177411,664,736,-34.2353,1.25176
-553,288,-34.2816,-2.19769,0.00229739,0.00256472,-0.00147514,0.00391223,0.000949872,-0.83058,0.00235624,0.0185992,671,736,-34.2816,2.19771
-546,288,-34.3702,-3.19678,0.00141113,0.0017328,-0.000968734,0.00255396,0.00058997,-0.86766,0.00154402,0.0210645,678,736,-34.3702,3.19681
-539,288,-34.4467,-4.24683,0.000645571,0.000941015,-0.000513834,0.00132794,0.000258646,-0.925368,0.000812911,0.0181574,685,736,-34.4467,4.2468
-532,288,-34.4772,-5.29376,-0.000328156,0.000232785,1.37214e-05,0.00023312,-0.000328492,1.54635,0.000325801,0.0157466,692,736,-34.4772,5.29376
-525,288,-34.5533,-6.33923,-0.000913534,-0.000527291,0.000337991,-0.00033114,-0.00110969,1.04495,0.000657806,0.0143095,699,736,-34.5533,6.33925
-518,288,-34.6372,-7.36578,-0.00139966,-0.00105626,0.000778628,-0.000430627,-0.00202529,0.893918,0.001232,0.012356,706,736,-34.6372,7.36579
-511,288,-34.7249,-8.36646,-0.00210481,-0.00157943,0.00137372,-0.000443511,-0.00324073,0.87987,0.00202887,0.00963688,713,736,-34.7249,8.36644
-504,288,-34.8154,-9.39221,-0.00273365,-0.00205764,0.00214002,-0.000229098,-0.00456219,0.863724,0.00296805,0.0113277,720,736,-34.8154,9.39222
-497,288,-34.8086,-10.1251,-0.00298534,-0.00242186,0.00299352,0.000303144,-0.00571035,0.832318,0.00391186,0.0381489,727,736,-34.8086,10.125
-490,288,-34.6044,-10.7405,0,0,0,0,0,0,0,-1,734,736,-34.6044,10.7405
-483,288,-17.3287,0.564758,0,0,0,0,0,0,0,-1,741,736,-17.3287,-0.56477
-476,288,-26.136,0.452148,0,0,0,0,0,0,0,-1,748,736,-26.136,-0.452177
-469,288,-27.7904,0.649841,0,0,0,0,0,0,0,-1,755,736,-27.7904,-0.649854
-462,288,-44.999,-2.65112,0,0,0,0,0,0,0,-1,762,736,-44.999,2.65111
-455,288,-49.1631,1.86432,0,0,0,0,0,0,0,-1,769,736,-49.1632,-1.8643
-448,288,-55.5283,0.0455933,0,0,0,0,0,0,0,-1,776,736,-55.5284,-0.0456
-441,288,-55.0096,0.39325,0,0,0,0,0,0,0,-1,783,736,-55.0096,-0.393269
-434,288,-46.7119,1.66388,0,0,0,0,0,0,0,-1,790,736,-46.7119,-1.66385
-427,288,0,0,0,0,0,0,0,0,0,-1,797,736,0,0
-420,288,0,0,0,0,0,0,0,0,0,-1,804,736,0,0
-413,288,0,0,0,0,0,0,0,0,0,-1,811,736,0,0
-406,288,0,0,0,0,0,0,0,0,0,-1,818,736,0,0
-399,288,0,0,0,0,0,0,0,0,0,-1,825,736,0,0
-392,288,0,0,0,0,0,0,0,0,0,-1,832,736,0,0
-385,288,0,0,0,0,0,0,0,0,0,-1,839,736,0,0
-378,288,0,0,0,0,0,0,0,0,0,-1,846,736,0,0
-371,288,0,0,0,0,0,0,0,0,0,-1,853,736,0,0
-364,288,0,0,0,0,0,0,0,0,0,-1,860,736,0,0
-357,288,0,0,0,0,0,0,0,0,0,-1,867,736,0,0
-350,288,0,0,0,0,0,0,0,0,0,-1,874,736,0,0
-343,288,0,0,0,0,0,0,0,0,0,-1,881,736,0,0
-336,288,0,0,0,0,0,0,0,0,0,-1,888,736,0,0
-329,288,0,0,0,0,0,0,0,0,0,-1,895,736,0,0
-322,288,0,0,0,0,0,0,0,0,0,-1,902,736,0,0
-315,288,0,0,0,0,0,0,0,0,0,-1,909,736,0,0
-308,288,0,0,0,0,0,0,0,0,0,-1,916,736,0,0
-301,288,0,0,0,0,0,0,0,0,0,-1,923,736,0,0
-294,288,0,0,0,0,0,0,0,0,0,-1,930,736,0,0
-287,288,0,0,0,0,0,0,0,0,0,-1,937,736,0,0
-280,288,0,0,0,0,0,0,0,0,0,-1,944,736,0,0
-273,288,0,0,0,0,0,0,0,0,0,-1,951,736,0,0
-266,288,0,0,0,0,0,0,0,0,0,-1,958,736,0,0
-259,288,0,0,0,0,0,0,0,0,0,-1,965,736,0,0
-252,288,0,0,0,0,0,0,0,0,0,-1,972,736,0,0
-245,288,0,0,0,0,0,0,0,0,0,-1,979,736,0,0
-238,288,0,0,0,0,0,0,0,0,0,-1,986,736,0,0
-231,288,0,0,0,0,0,0,0,0,0,-1,993,736,0,0
-224,288,0,0,0,0,0,0,0,0,0,-1,1000,736,0,0
-217,288,0,0,0,0,0,0,0,0,0,-1,1007,736,0,0
-210,288,0,0,0,0,0,0,0,0,0,-1,1014,736,0,0
-203,288,0,0,0,0,0,0,0,0,0,-1,1021,736,0,0
-196,288,0,0,0,0,0,0,0,0,0,-1,1028,736,0,0
-189,288,0,0,0,0,0,0,0,0,0,-1,1035,736,0,0
-182,288,0,0,0,0,0,0,0,0,0,-1,1042,736,0,0
-175,288,0,0,0,0,0,0,0,0,0,-1,1049,736,0,0
-168,288,0,0,0,0,0,0,0,0,0,-1,1056,736,0,0
-161,288,0,0,0,0,0,0,0,0,0,-1,1063,736,0,0
-154,288,0,0,0,0,0,0,0,0,0,-1,1070,736,0,0
-147,288,0,0,0,0,0,0,0,0,0,-1,1077,736,0,0
-140,288,0,0,0,0,0,0,0,0,0,-1,1084,736,0,0
-133,288,0,0,0,0,0,0,0,0,0,-1,1091,736,0,0
-126,288,0,0,0,0,0,0,0,0,0,-1,1098,736,0,0
-119,288,0,0,0,0,0,0,0,0,0,-1,1105,736,0,0
-112,288,0,0,0,0,0,0,0,0,0,-1,1112,736,0,0
-105,288,0,0,0,0,0,0,0,0,0,-1,1119,736,0,0
-98,288,0,0,0,0,0,0,0,0,0,-1,1126,736,0,0
-91,288,0,0,0,0,0,0,0,0,0,-1,1133,736,0,0
-84,288,0,0,0,0,0,0,0,0,0,-1,1140,736,0,0
-77,288,0,0,0,0,0,0,0,0,0,-1,1147,736,0,0
-70,288,0,0,0,0,0,0,0,0,0,-1,1154,736,0,0
-63,288,0,0,0,0,0,0,0,0,0,-1,1161,736,0,0
-56,288,0,0,0,0,0,0,0,0,0,-1,1168,736,0,0
-49,288,0,0,0,0,0,0,0,0,0,-1,1175,736,0,0
-42,288,0,0,0,0,0,0,0,0,0,-1,1182,736,0,0
-35,288,0,0,0,0,0,0,0,0,0,-1,1189,736,0,0
-28,288,0,0,0,0,0,0,0,0,0,-1,1196,736,0,0
-21,288,0,0,0,0,0,0,0,0,0,-1,1203,736,0,0
-14,288,0,0,0,0,0,0,0,0,0,-1,1210,736,0,0
-7,288,0,0,0,0,0,0,0,0,0,-1,1217,736,0,0
0,288,0,0,0,0,0,0,0,0,0,-1,1224,736,0,0
7,288,0,0,0,0,0,0,0,0,0,-1,1231,736,0,0
14,288,0,0,0,0,0,0,0,0,0,-1,1238,736,0,0
21,288,0,0,0,0,0,0,0,0,0,-1,1245,736,0,0
28,288,0,0,0,0,0,0,0,0,0,-1,1252,736,0,0
35,288,0,0,0,0,0,0,0,0,0,-1,1259,736,0,0
42,288,0,0,0,0,0,0,0,0,0,-1,1266,736,0,0
49,288,0,0,0,0,0,0,0,0,0,-1,1273,736,0,0
56,288,0,0,0,0,0,0,0,0,0,-1,1280,736,0,0
63,288,0,0,0,0,0,0,0,0,0,-1,1287,736,0,0
70,288,0,0,0,0,0,0,0,0,0,-1,1294,736,0,0
77,288,0,0,0,0,0,0,0,0,0,-1,1301,736,0,0
84,288,0,0,0,0,0,0,0,0,0,-1,1308,736,0,0
91,288,0,0,0,0,0,0,0,0,0,-1,1315,736,0,0
98,288,0,0,0,0,0,0,0,0,0,-1,1322,736,0,0
105,288,0,0,0,0,0,0,0,0,0,-1,1329,736,0,0
112,288,0,0,0,0,0,0,0,0,0,-1,1336,736,0,0
119,288,0,0,0,0,0,0,0,0,0,-1,1343,736,0,0
126,288,0,0,0,0,0,0,0,0,0,-1,1350,736,0,0
133,288,0,0,0,0,0,0,0,0,0,-1,1357,736,0,0
140,288,0,0,0,0,0,0,0,0,0,-1,1364,736,0,0
147,288,0,0,0,0,0,0,0,0,0,-1,1371,736,0,0
154,288,0,0,0,0,0,0,0,0,0,-1,1378,736,0,0
161,288,0,0,0,0,0,0,0,0,0,-1,1385,736,0,0
168,288,0,0,0,0,0,0,0,0,0,-1,1392,736,0,0
175,288,0,0,0,0,0,0,0,0,0,-1,1399,736,0,0
182,288,0,0,0,0,0,0,0,0,0,-1,1406,736,0,0
189,288,0,0,0,0,0,0,0,0,0,-1,1413,736,0,0
196,288,0,0,0,0,0,0,0,0,0,-1,1420,736,0,0
203,288,0,0,0,0,0,0,0,0,0,-1,1427,736,0,0
210,288,0,0,0,0,0,0,0,0,0,-1,1434,736,0,0
217,288,0,0,0,0,0,0,0,0,0,-1,1441,736,0,0
224,288,0,0,0,0,0,0,0,0,0,-1,1448,736,0,0
231,288,0,0,0,0,0,0,0,0,0,-1,1455,736,0,0
238,288,0,0,0,0,0,0,0,0,0,-1,1462,736,0,0
245,288,0,0,0,0,0,0,0,0,0,-1,1469,736,0,0
252,288,0,0,0,0,0,0,0,0,0,-1,1476,736,0,0
259,288,0,0,0,0,0,0,0,0,0,-1,1483,736,0,0
266,288,0,0,0,0,0,0,0,0,0,-1,1490,736,0,0
273,288,0,0,0,0,0,0,0,0,0,-1,1497,736,0,0
280,288,0,0,0,0,0,0,0,0,0,-1,1504,736,0,0
287,288,0,0,0,0,0,0,0,0,0,-1,1511,736,0,0
294,288,0,0,0,0,0,0,0,0,0,-1,1518,736,0,0
301,288,0,0,0,0,0,0,0,0,0,-1,1525,736,0,0
308,288,0,0,0,0,0,0,0,0,0,-1,1532,736,0,0
315,288,0,0,0,0,0,0,0,0,0,-1,1539,736,0,0
322,288,0,0,0,0,0,0,0,0,0,-1,1546,736,0,0
329,288,0,0,0,0,0,0,0,0,0,-1,1553,736,0,0
336,288,0,0,0,0,0,0,0,0,0,-1,1560,736,0,0
343,288,0,0,0,0,0,0,0,0,0,-1,1567,736,0,0
350,288,0,0,0,0,0,0,0,0,0,-1,1574,736,0,0
357,288,0,0,0,0,0,0,0,0,0,-1,1581,736,0,0
364,288,0,0,0,0,0,0,0,0,0,-1,1588,736,0,0
371,288,0,0,0,0,0,0,0,0,0,-1,1595,736,0,0
378,288,0,0,0,0,0,0,0,0,0,-1,1602,736,0,0
385,288,0,0,0,0,0,0,0,0,0,-1,1609,736,0,0
392,288,0,0,0,0,0,0,0,0,0,-1,1616,736,0,0
399,288,0,0,0,0,0,0,0,0,0,-1,1623,736,0,0
406,288,0,0,0,0,0,0,0,0,0,-1,1630,736,0,0
413,288,0,0,0,0,0,0,0,0,0,-1,1637,736,0,0
420,288,0,0,0,0,0,0,0,0,0,-1,1644,736,0,0
427,288,0,0,0,0,0,0,0,0,0,-1,1651,736,0,0
434,288,0,0,0,0,0,0,0,0,0,-1,1658,736,0,0
441,288,0,0,0,0,0,0,0,0,0,-1,1665,736,0,0
448,288,0,0,0,0,0,0,0,0,0,-1,1672,736,0,0
455,288,0,0,0,0,0,0,0,0,0,-1,1679,736,0,0
462,288,0,0,0,0,0,0,0,0,0,-1,1686,736,0,0
469,288,0,0,0,0,0,0,0,0,0,-1,1693,736,0,0
476,288,0,0,0,0,0,0,0,0,0,-1,1700,736,0,0
483,288,0,0,0,0,0,0,0,0,0,-1,1707,736,0,0
490,288,0,0,0,0,0,0,0,0,0,-1,1714,736,0,0
497,288,0,0,0,0,0,0,0,0,0,-1,1721,736,0,0
504,288,0,0,0,0,0,0,0,0,0,-1,1728,736,0,0
511,288,0,0,0,0,0,0,0,0,0,-1,1735,736,0,0
518,288,0,0,0,0,0,0,0,0,0,-1,1742,736,0,0
525,288,0,0,0,0,0,0,0,0,0,-1,1749,736,0,0
532,288,0,0,0,0,0,0,0,0,0,-1,1756,736,0,0
539,288,0,0,0,0,0,0,0,0,0,-1,1763,736,0,0
546,288,0,0,0,0,0,0,0,0,0,-1,1770,736,0,0
553,288,57.4934,2.28064,0,0,0,0,0,0,0,-1,1777,736,57.4934,-2.28064
560,288,57.3807,3.02881,0,0,0,0,0,0,0,-1,1784,736,57.3808,-3.0288
567,288,57.2081,3.74274,0,0,0,0,0,0,0,-1,1791,736,57.2081,-3.74273
574,288,56.9817,4.36981,0,0,0,0,0,0,0,-1,1798,736,56.9816,-4.36984
581,288,53.4904,5.33215,0,0,0,0,0,0,0,-1,1805,736,53.4904,-5.33218
588,288,54.9313,3.29852,0,0,0,0,0,0,0,-1,1812,736,54.9313,-3.29849
595,288,47.035,3.35156,0,0,0,0,0,0,0,-1,1819,736,47.035,-3.35157
602,288,26.7634,7.61279,0,0,0,0,0,0,0,-1,1826,736,26.7635,-7.61279
609,288,17.5223,4.86414,0,0,0,0,0,0,0,-1,1833,736,17.5223,-4.86412
616,288,13.4886,0.801331,0,0,0,0,0,0,0,-1,1840,736,13.4886,-0.80132
623,288,51.5353,-10.5415,0,0,0,0,0,0,0,-1,1847,736,51.5353,10.5415
630,288,51.5043,-9.54791,0.0032873,6.50511e-05,0.0023344,0.00451257,-0.00116022,0.483351,0.00346057,0.0414281,1854,736,51.5043,9.54789
637,288,51.5095,-8.56335,0.00226849,0.000251746,0.00160989,0.00315974,-0.000639502,0.505609,0.00234886,0.0137545,1861,736,51.5095,8.56338
644,288,51.4653,-7.54065,0.00153618,0.000538183,0.000962954,0.00212174,-4.73834e-05,0.54635,0.00143055,0.011543,1868,736,51.4653,7.54063
651,288,51.3909,-6.51703,0.00121933,0.000671547,0.000539481,0.00155046,0.000340412,0.550507,0.000940926,0.0125823,1875,736,51.3908,6.51704
658,288,51.3317,-5.46906,0.00136892,0.00088783,0.000495592,0.00167926,0.00057749,0.559462,0.000985144,0.0188759,1882,736,51.3316,5.46907
665,288,51.2535,-4.48535,0.00168259,0.00127921,0.000636535,0.00214862,0.000813177,0.631974,0.00125267,0.0194105,1889,736,51.2536,4.48533
672,288,51.1494,-3.50171,0.00222713,0.00173314,0.000955564,0.0029671,0.000993163,0.658926,0.00174397,0.0183786,1896,736,51.1494,3.5017
679,288,51.0908,-2.47601,0.00299258,0.00242317,0.00150406,0.00423865,0.0011771,0.691859,0.00252651,0.0156517,1903,736,51.0908,2.47601
686,288,51.024,-1.47565,0.00396477,0.0031429,0.0021843,0.00577646,0.00133121,0.692419,0.00349285,0.0129732,1910,736,51.024,1.47563
693,288,51.0255,-0.362549,0.00540697,0.00411775,0.00317545,0.00800257,0.00152214,0.68526,0.004907,0.029541,1917,736,51.0255,0.362576
700,288,51.0215,0.816223,0,0,0,0,0,0,0,-1,1924,736,51.0215,-0.816241
707,288,30.9496,3.07977,0,0,0,0,0,0,0,-1,1931,736,30.9496,-3.07975
714,288,23.0149,3.82544,0,0,0,0,0,0,0,-1,1938,736,23.0149,-3.82541
721,288,18.0732,3.69385,0,0,0,0,0,0,0,-1,1945,736,18.0732,-3.69387
728,288,19.3208,3.91455,0,0,0,0,0,0,0,-1,1952,736,19.3209,-3.91455
735,288,18.7712,3.51312,0,0,0,0,0,0,0,-1,1959,736,18.7713,-3.51309
742,288,0,0,0,0,0,0,0,0,0,-1,1966,736,0,0
749,288,0,0,0,0,0,0,0,0,0,-1,1973,736,0,0
756,288,0,0,0,0,0,0,0,0,0,-1,1980,736,0,0
763,288,0,0,0,0,0,0,0,0,0,-1,1987,736,0,0
770,288,0,0,0,0,0,0,0,0,0,-1,1994,736,0,0
777,288,0,0,0,0,0,0,0,0,0,-1,2001,736,0,0
784,288,0,0,0,0,0,0,0,0,0,-1,2008,736,0,0
791,288,0,0,0,0,0,0,0,0,0,-1,2015,736,0,0
798,288,0,0,0,0,0,0,0,0,0,-1,2022,736,0,0
805,288,0,0,0,0,0,0,0,0,0,-1,2029,736,0,0
812,288,0,0,0,0,0,0,0,0,0,-1,2036,736,0,0
-700,281,0,0,0,0,0,0,0,0,0,-1,524,743,0,0
-693,281,0,0,0,0,0,0,0,0,0,-1,531,743,0,0
-686,281,0,0,0,0,0,0,0,0,0,-1,538,743,0,0
-679,281,0,0,0,0,0,0,0,0,0,-1,545,743,0,0
-672,281,0,0,0,0,0,0,0,0,0,-1,552,743,0,0
-665,281,0,0,0,0,0,0,0,0,0,-1,559,743,0,0
-658,281,0,0,0,0,0,0,0,0,0,-1,566,743,0,0
-651,281,0,0,0,0,0,0,0,0,0,-1,573,743,0,0
-644,281,0,0,0,0,0,0,0,0,0,-1,580,743,0,0
-637,281,0,0,0,0,0,0,0,0,0,-1,587,743,0,0
-630,281,0,0,0,0,0,0,0,0,0,-1,594,743,0,0
-623,281,-19.1697,5.67017,0,0,0,0,0,0,0,-1,601,743,-19.1697,-5.67019
-616,281,-11.5906,2.6853,0,0,0,0,0,0,0,-1,608,743,-11.5906,-2.68529
-609,281,-16.1972,4.14838,0,0,0,0,0,0,0,-1,615,743,-16.1972,-4.14837
-602,281,-21.9772,6.77417,0,0,0,0,0,0,0,-1,622,743,-21.9771,-6.77415
-595,281,-10.4797,-1.07404,0,0,0,0,0,0,0,-1,629,743,-10.4798,1.07402
-588,281,-13.277,1.49817,0,0,0,0,0,0,0,-1,636,743,-13.2771,-1.49817
-581,281,-35.0592,1.94421,0,0,0,0,0,0,0,-1,643,743,-35.0592,-1.9442
-574,281,-34.9594,0.898193,0.00812028,0.0053536,-0.00467412,0.0116115,0.00186242,-0.641526,0.00720091,0.048138,650,743,-34.9593,-0.898207
-567,281,-35.1674,-0.0966187,0.00545337,0.00400759,-0.0029399,0.00775795,0.00170301,-0.664845,0.00470811,0.0221798,657,743,-35.1674,0.0966001
-560,281,-35.2804,-1.12677,0.00342381,0.00290913,-0.00183684,0.00502125,0.00131169,-0.7158,0.00300719,0.00890939,664,743,-35.2804,1.12676
-553,281,-35.3397,-2.12897,0.00205605,0.00197602,-0.00112515,0.0031419,0.000890172,-0.767622,0.00186989,0.0148196,671,743,-35.3397,2.12896
-546,281,-35.408,-3.12646,0.000987343,0.00118404,-0.000588867,0.00168271,0.000488666,-0.86814,0.000999562,0.0168627,678,743,-35.408,3.12644
-539,281,-35.4754,-4.18164,6.58498e-05,0.000498978,-0.000157969,0.00055047,1.43576e-05,-1.25569,0.000362289,0.0149388,685,743,-35.4754,4.18165
-532,281,-35.5019,-5.18176,-0.00098537,-7.96493e-05,0.0002829,1.45211e-06,-0.00106647,1.29161,0.000711465,0.0155123,692,743,-35.5019,5.18179
-525,281,-35.6212,-6.23627,-0.00156397,-0.000632394,0.000494798,-0.000418636,-0.00177773,1.163,0.00107318,0.0182388,699,743,-35.6212,6.23624
-518,281,-35.6887,-7.28241,-0.00202174,-0.000842683,0.000815425,-0.000425999,-0.00243842,1.09839,0.00150386,0.0137916,706,743,-35.6886,7.28238
-511,281,-35.746,-8.30511,-0.00261332,-0.00101737,0.00125315,-0.000329699,-0.003301,1.06891,0.00209941,0.0141001,713,743,-35.746,8.30509
-504,281,-35.8996,-9.31366,-0.00295986,-0.00108286,0.00181626,2.30472e-05,-0.00406577,1.02387,0.00271823,0.0190489,720,743,-35.8996,9.31367
-497,281,-36.043,-10.298,0,0,0,0,0,0,0,-1,727,743,-36.043,10.298
-490,281,-27.6985,-9.63165,0,0,0,0,0,0,0,-1,734,743,-27.6986,9.63165
-483,281,-22.1078,-2.34973,0,0,0,0,0,0,0,-1,741,743,-22.1078,2.3497
-476,281,-28.0016,2.17786,0,0,0,0,0,0,0,-1,748,743,-28.0016,-2.17786
-469,281,-34.6448,0.171692,0,0,0,0,0,0,0,-1,755,743,-34.6448,-0.171685
-462,281,-46.6214,0.0193481,0,0,0,0,0,0,0,-1,762,743,-46.6214,-0.0193665
-455,281,-56.0239,-0.1521,0,0,0,0,0,0,0,-1,769,743,-56.024,0.152123
-448,281,-55.8145,0.304321,0,0,0,0,0,0,0,-1,776,743,-55.8145,-0.304294
-441,281,-55.4486,0.766052,0,0,0,0,0,0,0,-1,783,743,-55.4486,-0.766078
-434,281,0,0,0,0,0,0,0,0,0,-1,790,743,0,0
-427,281,0,0,0,0,0,0,0,0,0,-1,797,743,0,0
-420,281,0,0,0,0,0,0,0,0,0,-1,804,743,0,0
-413,281,0,0,0,0,0,0,0,0,0,-1,811,743,0,0
-406,281,0,0,0,0,0,0,0,0,0,-1,818,743,0,0
-399,281,0,0,0,0,0,0,0,0,0,-1,825,743,0,0
-392,281,0,0,0,0,0,0,0,0,0,-1,832,743,0,0
-385,281,0,0,0,0,0,0,0,0,0,-1,839,743,0,0
-378,281,0,0,0,0,0,0,0,0,0,-1,846,743,0,0
-371,281,0,0,0,0,0,0,0,0,0,-1,853,743,0,0
-364,281,0,0,0,0,0,0,0,0,0,-1,860,743,0,0
-357,281,0,0,0,0,0,0,0,0,0,-1,867,743,0,0
-350,281,0,0,0,0,0,0,0,0,0,-1,874,743,0,0
-343,281,0,0,0,0,0,0,0,0,0,-1,881,743,0,0
-336,281,0,0,0,0,0,0,0,0,0,-1,888,743,0,0
-329,281,0,0,0,0,0,0,0,0,0,-1,895,743,0,0
-322,281,0,0,0,0,0,0,0,0,0,-1,902,743,0,0
-315,281,0,0,0,0,0,0,0,0,0,-1,909,743,0,0
-308,281,0,0,0,0,0,0,0,0,0,-1,916,743,0,0
-301,281,0,0,0,0,0,0,0,0,0,-1,923,743,0,0
-294,281,0,0,0,0,0,0,0,0,0,-1,930,743,0,0
-287,281,0,0,0,0,0,0,0,0,0,-1,937,743,0,0
-280,281,0,0,0,0,0,0,0,0,0,-1,944,743,0,0
-273,281,0,0,0,0,0,0,0,0,0,-1,951,743,0,0
-266,281,0,0,0,0,0,0,0,0,0,-1,958,743,0,0
-259,281,0,0,0,0,0,0,0,0,0,-1,965,743,0,0
-252,281,0,0,0,0,0,0,0,0,0,-1,972,743,0,0
-245,281,0,0,0,0,0,0,0,0,0,-1,979,743,0,0
-238,281,0,0,0,0,0,0,0,0,0,-1,986,743,0,0
-231,281,0,0,0,0,0,0,0,0,0,-1,993,743,0,0
-224,281,0,0,0,0,0,0,0,0,0,-1,1000,743,0,0
-217,281,0,0,0,0,0,0,0,0,0,-1,1007,743,0,0
-210,281,0,0,0,0,0,0,0,0,0,-1,1014,743,0,0
-203,281,0,0,0,0,0,0,0,0,0,-1,1021,743,0,0
-196,281,0,0,0,0,0,0,0,0,0,-1,1028,743,0,0
-189,281,0,0,0,0,0,0,0,0,0,-1,1035,743,0,0
-182,281,0,0,0,0,0,0,0,0,0,-1,1042,743,0,0
-175,281,0,0,0,0,0,0,0,0,0,-1,1049,743,0,0
-168,281,0,0,0,0,0,0,0,0,0,-1,1056,743,0,0
-161,281,0,0,0,0,0,0,0,0,0,-1,1063,743,0,0
-154,281,0,0,0,0,0,0,0,0,0,-1,1070,743,0,0
-147,281,0,0,0,0,0,0,0,0,0,-1,1077,743,0,0
-140,281,0,0,0,0,0,0,0,0,0,-1,1084,743,0,0
-133,281,0,0,0,0,0,0,0,0,0,-1,1091,743,0,0
-126,281,0,0,0,0,0,0,0,0,0,-1,1098,743,0,0
-119,281,0,0,0,0,0,0,0,0,0,-1,1105,743,0,0
-112,281,0,0,0,0,0,0,0,0,0,-1,1112,743,0,0
-105,281,0,0,0,0,0,0,0,0,0,-1,1119,743,0,0
-98,281,0,0,0,0,0,0,0,0,0,-1,1126,743,0,0
-91,281,0,0,0,0,0,0,0,0,0,-1,1133,743,0,0
-84,281,0,0,0,0,0,0,0,0,0,-1,1140,743,0,0
-77,281,0,0,0,0,0,0,0,0,0,-1,1147,743,0,0
-70,281,0,0,0,0,0,0,0,0,0,-1,1154,743,0,0
-63,281,0,0,0,0,0,0,0,0,0,-1,1161,743,0,0
-56,281,0,0,0,0,0,0,0,0,0,-1,1168,743,0,0
-49,281,0,0,0,0,0,0,0,0,0,-1,1175,743,0,0
-42,281,0,0,0,0,0,0,0,0,0,-1,1182,743,0,0
-35,281,0,0,0,0,0,0,0,0,0,-1,1189,743,0,0
-28,281,0,0,0,0,0,0,0,0,0,-1,1196,743,0,0
-21,281,0,0,0,0,0,0,0,0,0,-1,1203,743,0,0
-14,281,0,0,0,0,0,0,0,0,0,-1,1210,743,0,0
-7,281,0,0,0,0,0,0,0,0,0,-1,1217,743,0,0
0,281,0,0,0,0,0,0,0,0,0,-1,1224,743,0,0
7,281,0,0,0,0,0,0,0,0,0,-1,1231,743,0,0
14,281,0,0,0,0,0,0,0,0,0,-1,1238,743,0,0
21,281,0,0,0,0,0,0,0,0,0,-1,1245,743,0,0
28,281,0,0,0,0,0,0,0,0,0,-1,1252,743,0,0
35,281,0,0,0,0,0,0,0,0,0,-1,1259,743,0,0
42,281,0,0,0,0,0,0,0,0,0,-1,1266,743,0,0
49,281,0,0,0,0,0,0,0,0,0,-1,1273,743,0,0
56,281,0,0,0,0,0,0,0,0,0,-1,1280,743,0,0
63,281,0,0,0,0,0,0,0,0,0,-1,1287,743,0,0
70,281,0,0,0,0,0,0,0,0,0,-1,1294,743,0,0
77,281,0,0,0,0,0,0,0,0,0,-1,1301,743,0,0
84,281,0,0,0,0,0,0,0,0,0,-1,1308,743,0,0
91,281,0,0,0,0,0,0,0,0,0,-1,1315,743,0,0
98,281,0,0,0,0,0,0,0,0,0,-1,1322,743,0,0
105,281,0,0,0,0,0,0,0,0,0,-1,1329,743,0,0
112,281,0,0,0,0,0,0,0,0,0,-1,1336,743,0,0
119,281,0,0,0,0,0,0,0,0,0,-1,1343,743,0,0
126,281,0,0,0,0,0,0,0,0,0,-1,1350,743,0,0
133,281,0,0,0,0,0,0,0,0,0,-1,1357,743,0,0
140,281,0,0,0,0,0,0,0,0,0,-1,1364,743,0,0
147,281,0,0,0,0,0,0,0,0,0,-1,1371,743,0,0
154,281,0,0,0,0,0,0,0,0,0,-1,1378,743,0,0
161,281,0,0,0,0,0,0,0,0,0,-1,1385,743,0,0
168,281,0,0,0,0,0,0,0,0,0,-1,1392,743,0,0
175,281,0,0,0,0,0,0,0,0,0,-1,1399,743,0,0
182,281,0,0,0,0,0,0,0,0,0,-1,1406,743,0,0
189,281,0,0,0,0,0,0,0,0,0,-1,1413,743,0,0
196,281,0,0,0,0,0,0,0,0,0,-1,1420,743,0,0
203,281,0,0,0,0,0,0,0,0,0,-1,1427,743,0,0
210,281,0,0,0,0,0,0,0,0,0,-1,1434,743,0,0
217,281,0,0,0,0,0,0,0,0,0,-1,1441,743,0,0
224,281,0,0,0,0,0,0,0,0,0,-1,1448,743,0,0
231,281,0,0,0,0,0,0,0,0,0,-1,1455,743,0,0
238,281,0,0,0,0,0,0,0,0,0,-1,1462,743,0,0
245,281,0,0,0,0,0,0,0,0,0,-1,1469,743,0,0
252,281,0,0,0,0,0,0,0,0,0,-1,1476,743,0,0
259,281,0,0,0,0,0,0,0,0,0,-1,1483,743,0,0
266,281,0,0,0,0,0,0,0,0,0,-1,1490,743,0,0
273,281,0,0,0,0,0,0,0,0,0,-1,1497,743,0,0
280,281,0,0,0,0,0,0,0,0,0,-1,1504,743,0,0
287,281,0,0,0,0,0,0,0,0,0,-1,1511,743,0,0
294,281,0,0,0,0,0,0,0,0,0,-1,1518,743,0,0
301,281,0,0,0,0,0,0,0,0,0,-1,1525,743,0,0
308,281,0,0,0,0,0,0,0,0,0,-1,1532,743,0,0
315,281,0,0,0,0,0,0,0,0,0,-1,1539,743,0,0
322,281,0,0,0,0,0,0,0,0,0,-1,1546,743,0,0
329,281,0,0,0,0,0,0,0,0,0,-1,1553,743,0,0
336,281,0,0,0,0,0,0,0,0,0,-1,1560,743,0,0
343,281,0,0,0,0,0,0,0,0,0,-1,1567,743,0,0
350,281,0,0,0,0,0,0,0,0,0,-1,1574,743,0,0
357,281,0,0,0,0,0,0,0,0,0,-1,1581,743,0,0
364,281,0,0,0,0,0,0,0,0,0,-1,1588,743,0,0
371,281,0,0,0,0,0,0,0,0,0,-1,1595,743,0,0
378,281,0,0,0,0,0,0,0,0,0,-1,1602,743,0,0
385,281,0,0,0,0,0,0,0,0,0,-1,1609,743,0,0
392,281,0,0,0,0,0,0,0,0,0,-1,1616,743,0,0
399,281,0,0,0,0,0,0,0,0,0,-1,1623,743,0,0
406,281,0,0,0,0,0,0,0,0,0,-1,1630,743,0,0
413,281,0,0,0,0,0,0,0,0,0,-1,1637,743,0,0
420,281,0,0,0,0,0,0,0,0,0,-1,1644,743,0,0
427,281,0,0,0,0,0,0,0,0,0,-1,1651,743,0,0
434,281,0,0,0,0,0,0,0,0,0,-1,1658,743,0,0
441,281,0,0,0,0,0,0,0,0,0,-1,1665,743,0,0
448,281,0,0,0,0,0,0,0,0,0,-1,1672,743,0,0
455,281,0,0,0,0,0,0,0,0,0,-1,1679,743,0,0
462,281,0,0,0,0,0,0,0,0,0,-1,1686,743,0,0
469,281,0,0,0,0,0,0,0,0,0,-1,1693,743,0,0
476,281,0,0,0,0,0,0,0,0,0,-1,1700,743,0,0
483,281,0,0,0,0,0,0,0,0,0,-1,1707,743,0,0
490,281,0,0,0,0,0,0,0,0,0,-1,1714,743,0,0
497,281,0,0,0,0,0,0,0,0,0,-1,1721,743,0,0
504,281,0,0,0,0,0,0,0,0,0,-1,1728,743,0,0
511,281,0,0,0,0,0,0,0,0,0,-1,1735,743,0,0
518,281,0,0,0,0,0,0,0,0,0,-1,1742,743,0,0
525,281,0,0,0,0,0,0,0,0,0,-1,1749,743,0,0
532,281,0,0,0,0,0,0,0,0,0,-1,1756,743,0,0
539,281,0,0,0,0,0,0,0,0,0,-1,1763,743,0,0
546,281,0,0,0,0,0,0,0,0,0,-1,1770,743,0,0
553,281,0,0,0,0,0,0,0,0,0,-1,1777,743,0,0
560,281,57.8354,3.06482,0,0,0,0,0,0,0,-1,1784,743,57.8354,-3.06479
567,281,57.6156,3.64508,0,0,0,0,0,0,0,-1,1791,743,57.6156,-3.64511
574,281,57.3431,4.17767,0,0,0,0,0,0,0,-1,1798,743,57.3431,-4.17769
581,281,57.0648,4.53906,0,0,0,0,0,0,0,-1,1805,743,57.0648,-4.53908
588,281,53.5422,6.00092,0,0,0,0,0,0,0,-1,1812,743,53.5422,-6.00092
595,281,54.8569,3.32269,0,0,0,0,0,0,0,-1,1819,743,54.857,-3.32269
602,281,45.9985,3.98254,0,0,0,0,0,0,0,-1,1826,743,45.9985,-3.98254
609,281,32.7925,1.28723,0,0,0,0,0,0,0,-1,1833,743,32.7925,-1.28722
616,281,21.3191,-0.253906,0,0,0,0,0,0,0,-1,1840,743,21.3191,0.253931
623,281,31.8741,-4.74182,0,0,0,0,0,0,0,-1,1847,743,31.8741,4.74184
630,281,52.3628,-9.45654,0,0,0,0,0,0,0,-1,1854,743,52.3627,9.45652
637,281,52.4161,-8.49103,0.00262074,0.000373931,0.00168663,0.00352386,-0.000529181,0.491605,0.00254404,0.0284981,1861,743,52.4161,8.49103
644,281,52.4647,-7.47461,0.00166984,0.000680083,0.000985735,0.00227795,7.19751e-05,0.552759,0.00149522,0.0116422,1868,743,52.4647,7.4746
651,281,52.426,-6.43359,0.00105565,0.000694783,0.000344591,0.00126419,0.000486244,0.544218,0.000736328,0.0118408,1875,743,52.426,6.43357
658,281,52.3805,-5.38586,0.00102571,0.0007273,0.000220871,0.00114305,0.000609959,0.488345,0.000660435,0.022232,1882,743,52.3805,5.38588
665,281,52.267,-4.41315,0.00120687,0.0010436,0.000373098,0.00150716,0.000743312,0.677699,0.000870186,0.0237282,1889,743,52.267,4.41318
672,281,52.1746,-3.41656,0.00164818,0.00144185,0.000692731,0.00224539,0.000844646,0.711481,0.00130956,0.0151605,1896,743,52.1745,3.41656
679,281,52.1122,-2.42352,0.00229249,0.00218749,0.0012412,0.0034823,0.00099768,0.76426,0.0020707,0.0239183,1903,743,52.1122,2.42351
686,281,51.9712,-1.4278,0.00309232,0.00295846,0.00188399,0.00491057,0.00114022,0.767642,0.00296758,0.0185849,1910,743,51.9711,1.42779
693,281,51.9399,-0.405457,0.00421097,0.00396199,0.00277138,0.00686065,0.00131231,0.762954,0.00420515,0.0137196,1917,743,51.9399,0.405478
700,281,51.8805,0.682434,0.00560847,0.00529076,0.0040637,0.00951641,0.00138281,0.765862,0.00593726,0.0492522,1924,743,51.8805,-0.682423
707,281,51.9894,1.76056,0,0,0,0,0,0,0,-1,1931,743,51.9893,-1.76056
714,281,25.0125,2.5105,0,0,0,0,0,0,0,-1,1938,743,25.0124,-2.51053
721,281,16.9656,3.22174,0,0,0,0,0,0,0,-1,1945,743,16.9656,-3.22172
728,281,19.0251,3.63934,0,0,0,0,0,0,0,-1,1952,743,19.0252,-3.63932
735,281,19.0869,2.50311,0,0,0,0,0,0,0,-1,1959,743,19.0869,-2.5031
742,281,0,0,0,0,0,0,0,0,0,-1,1966,743,0,0
749,281,0,0,0,0,0,0,0,0,0,-1,1973,743,0,0
756,281,0,0,0,0,0,0,0,0,0,-1,1980,743,0,0
763,281,0,0,0,0,0,0,0,0,0,-1,1987,743,0,0
770,281,0,0,0,0,0,0,0,0,0,-1,1994,743,0,0
777,281,0,0,0,0,0,0,0,0,0,-1,2001,743,0,0
784,281,0,0,0,0,0,0,0,0,0,-1,2008,743,0,0
791,281,0,0,0,0,0,0,0,0,0,-1,2015,743,0,0
798,281,0,0,0,0,0,0,0,0,0,-1,2022,743,0,0
805,281,0,0,0,0,0,0,0,0,0,-1,2029,743,0,0
812,281,0,0,0,0,0,0,0,0,0,-1,2036,743,0,0
-700,274,0,0,0,0,0,0,0,0,0,-1,524,750,0,0
-693,274,0,0,0,0,0,0,0,0,0,-1,531,750,0,0
-686,274,0,0,0,0,0,0,0,0,0,-1,538,750,0,0
-679,274,0,0,0,0,0,0,0,0,0,-1,545,750,0,0
-672,274,0,0,0,0,0,0,0,0,0,-1,552,750,0,0
-665,274,0,0,0,0,0,0,0,0,0,-1,559,750,0,0
-658,274,0,0,0,0,0,0,0,0,0,-1,566,750,0,0
-651,274,0,0,0,0,0,0,0,0,0,-1,573,750,0,0
-644,274,0,0,0,0,0,0,0,0,0,-1,580,750,0,0
-637,274,0,0,0,0,0,0,0,0,0,-1,587,750,0,0
-630,274,0,0,0,0,0,0,0,0,0,-1,594,750,0,0
-623,274,-19.6909,5.12701,0,0,0,0,0,0,0,-1,601,750,-19.6908,-5.12703
-616,274,-17.9133,3.9024,0,0,0,0,0,0,0,-1,608,750,-17.9133,-3.90239
-609,274,-26.0861,5.57306,0,0,0,0,0,0,0,-1,615,750,-26.0861,-5.57307
-602,274,-25.7372,3.73846,0,0,0,0,0,0,0,-1,622,750,-25.7372,-3.73849
-595,274,-25.258,2.53473,0,0,0,0,0,0,0,-1,629,750,-25.258,-2.53474
-588,274,-24.9805,2.2334,0,0,0,0,0,0,0,-1,636,750,-24.9805,-2.23341
-581,274,-36.0247,1.9751,0,0,0,0,0,0,0,-1,643,750,-36.0247,-1.97508
-574,274,-35.9242,0.906921,0.00745212,0.00399465,-0.00398861,0.0100705,0.00137625,-0.580909,0.0063052,0.0320585,650,750,-35.9242,-0.90694
-567,274,-36.2222,-0.083313,0.00496862,0.00303187,-0.00242268,0.00660929,0.0013912,-0.595269,0.00402345,0.0301663,657,750,-36.2222,0.0833178
-560,274,-36.2689,-1.04474,0.00301794,0.00221534,-0.00140166,0.00407462,0.00115866,-0.645976,0.00242431,0.0149222,664,750,-36.2689,1.04473
-553,274,-36.3484,-2.07269,0.00160851,0.00153222,-0.000714229,0.00228561,0.00085512,-0.75872,0.00133346,0.00978684,671,750,-36.3485,2.07269
-546,274,-36.447,-3.09167,0.000555144,0.000874241,-0.000232015,0.000996271,0.000433114,-1.0866,0.000576828,0.0116144,678,750,-36.447,3.09168
-539,274,-36.5153,-4.11469,-0.000451092,0.00035338,0.000163503,0.000385341,-0.000483053,1.37775,0.000502424,0.0124775,685,750,-36.5153,4.1147
-532,274,-36.5573,-5.10529,-0.00151134,8.44647e-06,0.000479361,0.00014701,-0.00164991,1.28941,0.00115207,0.0139071,692,750,-36.5573,5.10528
-525,274,-36.6389,-6.1059,-0.00204256,-0.000238712,0.000582784,-6.68084e-05,-0.00221446,1.28396,0.00145455,0.0152246,699,750,-36.6388,6.10588
-518,274,-36.71,-7.18317,-0.00245592,-0.000135178,0.000812813,0.000121183,-0.00271228,1.26527,0.0018499,0.0152966,706,750,-36.7101,7.18315
-511,274,-36.774,-8.25531,-0.00290044,-2.2266e-06,0.00111355,0.000376207,-0.00327887,1.2432,0.0023215,0.0258505,713,750,-36.774,8.25531
-504,274,-36.9581,-9.36578,-0.00302456,0.000194454,0.00153862,0.000811574,-0.00364168,1.18935,0.00273869,0.0468736,720,750,-36.9581,9.36576
-497,274,-37.2413,-10.4939,0,0,0,0,0,0,0,-1,727,750,-37.2413,10.4939
-490,274,-13.6545,-3.58826,0,0,0,0,0,0,0,-1,734,750,-13.6546,3.58825
-483,274,-27.8608,1.30981,0,0,0,0,0,0,0,-1,741,750,-27.8608,-1.30979
-476,274,-33.7561,-0.508606,0,0,0,0,0,0,0,-1,748,750,-33.7561,0.508636
-469,274,-41.1387,0.907715,0,0,0,0,0,0,0,-1,755,750,-41.1387,-0.907744
-462,274,-56.4362,0.240723,0,0,0,0,0,0,0,-1,762,750,-56.4362,-0.240732
-455,274,-63.8356,0.142822,0,0,0,0,0,0,0,-1,769,750,-63.8357,-0.142803
-448,274,-56.1052,0.421143,0,0,0,0,0,0,0,-1,776,750,-56.1052,-0.421134
-441,274,0,0,0,0,0,0,0,0,0,-1,783,750,0,0
-434,274,0,0,0,0,0,0,0,0,0,-1,790,750,0,0
-427,274,0,0,0,0,0,0,0,0,0,-1,797,750,0,0
-420,274,0,0,0,0,0,0,0,0,0,-1,804,750,0,0
-413,274,0,0,0,0,0,0,0,0,0,-1,811,750,0,0
-406,274,0,0,0,0,0,0,0,0,0,-1,818,750,0,0
-399,274,0,0,0,0,0,0,0,0,0,-1,825,750,0,0
-392,274,0,0,0,0,0,0,0,0,0,-1,832,750,0,0
-385,274,0,0,0,0,0,0,0,0,0,-1,839,750,0,0
-378,274,0,0,0,0,0,0,0,0,0,-1,846,750,0,0
-371,274,0,0,0,0,0,0,0,0,0,-1,853,750,0,0
-364,274,0,0,0,0,0,0,0,0,0,-1,860,750,0,0
-357,274,0,0,0,0,0,0,0,0,0,-1,867,750,0,0
-350,274,0,0,0,0,0,0,0,0,0,-1,874,750,0,0
-343,274,0,0,0,0,0,0,0,0,0,-1,881,750,0,0
-336,274,0,0,0,0,0,0,0,0,0,-1,888,750,0,0
-329,274,0,0,0,0,0,0,0,0,0,-1,895,750,0,0
-322,274,0,0,0,0,0,0,0,0,0,-1,902,750,0,0
-315,274,0,0,0,0,0,0,0,0,0,-1,909,750,0,0
-308,274,0,0,0,0,0,0,0,0,0,-1,916,750,0,0
-301,274,0,0,0,0,0,0,0,0,0,-1,923,750,0,0
-294,274,0,0,0,0,0,0,0,0,0,-1,930,750,0,0
-287,274,0,0,0,0,0,0,0,0,0,-1,937,750,0,0
-280,274,0,0,0,0,0,0,0,0,0,-1,944,750,0,0
-273,274,0,0,0,0,0,0,0,0,0,-1,951,750,0,0
-266,274,0,0,0,0,0,0,0,0,0,-1,958,750,0,0
-259,274,0,0,0,0,0,0,0,0,0,-1,965,750,0,0
-252,274,0,0,0,0,0,0,0,0,0,-1,972,750,0,0
-245,274,0,0,0,0,0,0,0,0,0,-1,979,750,0,0
-238,274,0,0,0,0,0,0,0,0,0,-1,986,750,0,0
-231,274,0,0,0,0,0,0,0,0,0,-1,993,750,0,0
-224,274,0,0,0,0,0,0,0,0,0,-1,1000,750,0,0
-217,274,0,0,0,0,0,0,0,0,0,-1,1007,750,0,0
-210,274,0,0,0,0,0,0,0,0,0,-1,1014,750,0,0
-203,274,0,0,0,0,0,0,0,0,0,-1,1021,750,0,0
-196,274,0,0,0,0,0,0,0,0,0,-1,1028,750,0,0
-189,274,0,0,0,0,0,0,0,0,0,-1,1035,750,0,0
-182,274,0,0,0,0,0,0,0,0,0,-1,1042,750,0,0
-175,274,0,0,0,0,0,0,0,0,0,-1,1049,750,0,0
-168,274,0,0,0,0,0,0,0,0,0,-1,1056,750,0,0
-161,274,0,0,0,0,0,0,0,0,0,-1,1063,750,0,0
-154,274,0,0,0,0,0,0,0,0,0,-1,1070,750,0,0
-147,274,0,0,0,0,0,0,0,0,0,-1,1077,750,0,0
-140,274,0,0,0,0,0,0,0,0,0,-1,1084,750,0,0
-133,274,0,0,0,0,0,0,0,0,0,-1,1091,750,0,0
-126,274,0,0,0,0,0,0,0,0,0,-1,1098,750,0,0
-119,274,0,0,0,0,0,0,0,0,0,-1,1105,750,0,0
-112,274,0,0,0,0,0,0,0,0,0,-1,1112,750,0,0
-105,274,0,0,0,0,0,0,0,0,0,-1,1119,750,0,0
-98,274,0,0,0,0,0,0,0,0,0,-1,1126,750,0,0
-91,274,0,0,0,0,0,0,0,0,0,-1,1133,750,0,0
-84,274,0,0,0,0,0,0,0,0,0,-1,1140,750,0,0
-77,274,0,0,0,0,0,0,0,0,0,-1,1147,750,0,0
-70,274,0,0,0,0,0,0,0,0,0,-1,1154,750,0,0
-63,274,0,0,0,0,0,0,0,0,0,-1,1161,750,0,0
-56,274,0,0,0,0,0,0,0,0,0,-1,1168,750,0,0
-49,274,0,0,0,0,0,0,0,0,0,-1,1175,750,0,0
-42,274,0,0,0,0,0,0,0,0,0,-1,1182,750,0,0
-35,274,0,0,0,0,0,0,0,0,0,-1,1189,750,0,0
-28,274,0,0,0,0,0,0,0,0,0,-1,1196,750,0,0
-21,274,0,0,0,0,0,0,0,0,0,-1,1203,750,0,0
-14,274,0,0,0,0,0,0,0,0,0,-1,1210,750,0,0
-7,274,0,0,0,0,0,0,0,0,0,-1,1217,750,0,0
0,274,0,0,0,0,0,0,0,0,0,-1,1224,750,0,0
7,274,0,0,0,0,0,0,0,0,0,-1,1231,750,0,0
14,274,0,0,0,0,0,0,0,0,0,-1,1238,750,0,0
21,274,0,0,0,0,0,0,0,0,0,-1,1245,750,0,0
28,274,0,0,0,0,0,0,0,0,0,-1,1252,750,0,0
35,274,0,0,0,0,0,0,0,0,0,-1,1259,750,0,0
42,274,0,0,0,0,0,0,0,0,0,-1,1266,750,0,0
49,274,0,0,0,0,0,0,0,0,0,-1,1273,750,0,0
56,274,0,0,0,0,0,0,0,0,0,-1,1280,750,0,0
63,274,0,0,0,0,0,0,0,0,0,-1,1287,750,0,0
70,274,0,0,0,0,0,0,0,0,0,-1,1294,750,0,0
77,274,0,0,0,0,0,0,0,0,0,-1,1301,750,0,0
84,274,0,0,0,0,0,0,0,0,0,-1,1308,750,0,0
91,274,0,0,0,0,0,0,0,0,0,-1,1315,750,0,0
98,274,0,0,0,0,0,0,0,0,0,-1,1322,750,0,0
105,274,0,0,0,0,0,0,0,0,0,-1,1329,750,0,0
112,274,0,0,0,0,0,0,0,0,0,-1,1336,750,0,0
119,274,0,0,0,0,0,0,0,0,0,-1,1343,750,0,0
126,274,0,0,0,0,0,0,0,0,0,-1,1350,750,0,0
133,274,0,0,0,0,0,0,0,0,0,-1,1357,750,0,0
140,274,0,0,0,0,0,0,0,0,0,-1,1364,750,0,0
147,274,0,0,0,0,0,0,0,0,0,-1,1371,750,0,0
154,274,0,0,0,0,0,0,0,0,0,-1,1378,750,0,0
161,274,0,0,0,0,0,0,0,0,0,-1,1385,750,0,0
168,274,0,0,0,0,0,0,0,0,0,-1,1392,750,0,0
175,274,0,0,0,0,0,0,0,0,0,-1,1399,750,0,0
182,274,0,0,0,0,0,0,0,0,0,-1,1406,750,0,0
189,274,0,0,0,0,0,0,0,0,0,-1,1413,750,0,0
196,274,0,0,0,0,0,0,0,0,0,-1,1420,750,0,0
203,274,0,0,0,0,0,0,0,0,0,-1,1427,750,0,0
210,274,0,0,0,0,0,0,0,0,0,-1,1434,750,0,0
217,274,0,0,0,0,0,0,0,0,0,-1,1441,750,0,0
224,274,0,0,0,0,0,0,0,0,0,-1,1448,750,0,0
231,274,0,0,0,0,0,0,0,0,0,-1,1455,750,0,0
238,274,0,0,0,0,0,0,0,0,0,-1,1462,750,0,0
245,274,0,0,0,0,0,0,0,0,0,-1,1469,750,0,0
252,274,0,0,0,0,0,0,0,0,0,-1,1476,750,0,0
259,274,0,0,0,0,0,0,0,0,0,-1,1483,750,0,0
266,274,0,0,0,0,0,0,0,0,0,-1,1490,750,0,0
273,274,0,0,0,0,0,0,0,0,0,-1,1497,750,0,0
280,274,0,0,0,0,0,0,0,0,0,-1,1504,750,0,0
287,274,0,0,0,0,0,0,0,0,0,-1,1511,750,0,0
294,274,0,0,0,0,0,0,0,0,0,-1,1518,750,0,0
301,274,0,0,0,0,0,0,0,0,0,-1,1525,750,0,0
308,274,0,0,0,0,0,0,0,0,0,-1,1532,750,0,0
315,274,0,0,0,0,0,0,0,0,0,-1,1539,750,0,0
322,274,0,0,0,0,0,0,0,0,0,-1,1546,750,0,0
329,274,0,0,0,0,0,0,0,0,0,-1,1553,750,0,0
336,274,0,0,0,0,0,0,0,0,0,-1,1560,750,0,0
343,274,0,0,0,0,0,0,0,0,0,-1,1567,750,0,0
350,274,0,0,0,0,0,0,0,0,0,-1,1574,750,0,0
357,274,0,0,0,0,0,0,0,0,0,-1,1581,750,0,0
364,274,0,0,0,0,0,0,0,0,0,-1,1588,750,0,0
371,274,0,0,0,0,0,0,0,0,0,-1,1595,750,0,0
378,274,0,0,0,0,0,0,0,0,0,-1,1602,750,0,0
385,274,0,0,0,0,0,0,0,0,0,-1,1609,750,0,0
392,274,0,0,0,0,0,0,0,0,0,-1,1616,750,0,0
399,274,0,0,0,0,0,0,0,0,0,-1,1623,750,0,0
406,274,0,0,0,0,0,0,0,0,0,-1,1630,750,0,0
413,274,0,0,0,0,0,0,0,0,0,-1,1637,750,0,0
420,274,0,0,0,0,0,0,0,0,0,-1,1644,750,0,0
427,274,0,0,0,0,0,0,0,0,0,-1,1651,750,0,0
434,274,0,0,0,0,0,0,0,0,0,-1,1658,750,0,0
441,274,0,0,0,0,0,0,0,0,0,-1,1665,750,0,0
448,274,0,0,0,0,0,0,0,0,0,-1,1672,750,0,0
455,274,0,0,0,0,0,0,0,0,0,-1,1679,750,0,0
462,274,0,0,0,0,0,0,0,0,0,-1,1686,750,0,0
469,274,0,0,0,0,0,0,0,0,0,-1,1693,750,0,0
476,274,0,0,0,0,0,0,0,0,0,-1,1700,750,0,0
483,274,0,0,0,0,0,0,0,0,0,-1,1707,750,0,0
490,274,0,0,0,0,0,0,0,0,0,-1,1714,750,0,0
497,274,0,0,0,0,0,0,0,0,0,-1,1721,750,0,0
504,274,0,0,0,0,0,0,0,0,0,-1,1728,750,0,0
511,274,0,0,0,0,0,0,0,0,0,-1,1735,750,0,0
518,274,0,0,0,0,0,0,0,0,0,-1,1742,750,0,0
525,274,0,0,0,0,0,0,0,0,0,-1,1749,750,0,0
532,274,0,0,0,0,0,0,0,0,0,-1,1756,750,0,0
539,274,0,0,0,0,0,0,0,0,0,-1,1763,750,0,0
546,274,0,0,0,0,0,0,0,0,0,-1,1770,750,0,0
553,274,0,0,0,0,0,0,0,0,0,-1,1777,750,0,0
560,274,57.9182,3.24518,0,0,0,0,0,0,0,-1,1784,750,57.9182,-3.24516
567,274,57.8315,3.4137,0,0,0,0,0,0,0,-1,1791,750,57.8315,-3.41368
574,274,58.2571,3.11115,0,0,0,0,0,0,0,-1,1798,750,58.2571,-3.11114
581,274,54.4941,4.68127,0,0,0,0,0,0,0,-1,1805,750,54.4941,-4.68125
588,274,53.9908,5.6676,0,0,0,0,0,0,0,-1,1812,750,53.9908,-5.66763
595,274,66.2316,2.66986,0,0,0,0,0,0,0,-1,1819,750,66.2315,-2.66988
602,274,55.6321,2.56519,0,0,0,0,0,0,0,-1,1826,750,55.6321,-2.56521
609,274,44.6676,3.10461,0,0,0,0,0,0,0,-1,1833,750,44.6676,-3.1046
616,274,32.7869,1.78436,0,0,0,0,0,0,0,-1,1840,750,32.7868,-1.78437
623,274,24.8231,-1.80353,0,0,0,0,0,0,0,-1,1847,750,24.8232,1.80351
630,274,53.5875,-9.41852,0,0,0,0,0,0,0,-1,1854,750,53.5875,9.41853
637,274,53.4087,-8.5177,0.00251055,0.000360577,0.00166683,0.00341897,-0.000547848,0.498998,0.00248217,0.0381182,1861,750,53.4086,8.51769
644,274,53.4269,-7.44214,0.00166144,0.000681608,0.00103568,0.00231724,2.58117e-05,0.564475,0.0015363,0.0171967,1868,750,53.4269,7.44213
651,274,53.4133,-6.37744,0.000904396,0.000644715,0.000190136,0.0010048,0.000544315,0.485826,0.000580791,0.0140727,1875,750,53.4134,6.37744
658,274,53.3597,-5.3562,0.000691131,0.000509494,-9.38473e-05,0.000730909,0.000469717,-0.400899,0.000427677,0.0180659,1882,750,53.3597,5.35618
665,274,53.2814,-4.35236,0.000716868,0.000749339,-1.04728e-06,0.000749372,0.000716835,-1.53859,0.000489097,0.0179589,1889,750,53.2814,4.35238
672,274,53.1929,-3.35431,0.00105259,0.00110225,0.00025786,0.00133647,0.000818366,0.83339,0.000778076,0.0147757,1896,750,53.1929,3.35432
679,274,53.1193,-2.3338,0.00158173,0.00180794,0.00077008,0.00247318,0.000916495,0.858315,0.00144375,0.0168033,1903,750,53.1192,2.3338
686,274,53.0254,-1.32111,0.00223672,0.00254112,0.00135941,0.00375682,0.00102102,0.841145,0.00224305,0.0180226,1910,750,53.0254,1.3211
693,274,52.9371,-0.284851,0.00311118,0.00344561,0.00215055,0.00543543,0.00112135,0.824198,0.00331369,0.0129692,1917,750,52.9371,0.284828
700,274,52.9225,0.774658,0.00420484,0.00463723,0.00328243,0.00771058,0.00113149,0.818283,0.00480781,0.0212324,1924,750,52.9225,-0.774653
707,274,52.9254,1.83063,0,0,0,0,0,0,0,-1,1931,750,52.9254,-1.83063
714,274,49.125,2.56622,0,0,0,0,0,0,0,-1,1938,750,49.1251,-2.5662
721,274,25.6215,3.91144,0,0,0,0,0,0,0,-1,1945,750,25.6214,-3.91141
728,274,19.2209,3.95154,0,0,0,0,0,0,0,-1,1952,750,19.221,-3.95151
735,274,20.6608,4.10931,0,0,0,0,0,0,0,-1,1959,750,20.6607,-4.10932
742,274,11.7815,-0.740234,0,0,0,0,0,0,0,-1,1966,750,11.7815,0.740253
749,274,0,0,0,0,0,0,0,0,0,-1,1973,750,0,0
756,274,0,0,0,0,0,0,0,0,0,-1,1980,750,0,0
763,274,0,0,0,0,0,0,0,0,0,-1,1987,750,0,0
770,274,0,0,0,0,0,0,0,0,0,-1,1994,750,0,0
777,274,0,0,0,0,0,0,0,0,0,-1,2001,750,0,0
784,274,0,0,0,0,0,0,0,0,0,-1,2008,750,0,0
791,274,0,0,0,0,0,0,0,0,0,-1,2015,750,0,0
798,274,0,0,0,0,0,0,0,0,0,-1,2022,750,0,0
805,274,0,0,0,0,0,0,0,0,0,-1,2029,750,0,0
812,274,0,0,0,0,0,0,0,0,0,-1,2036,750,0,0
-700,267,0,0,0,0,0,0,0,0,0,-1,524,757,0,0
-693,267,0,0,0,0,0,0,0,0,0,-1,531,757,0,0
-686,267,0,0,0,0,0,0,0,0,0,-1,538,757,0,0
-679,267,0,0,0,0,0,0,0,0,0,-1,545,757,0,0
-672,267,0,0,0,0,0,0,0,0,0,-1,552,757,0,0
-665,267,0,0,0,0,0,0,0,0,0,-1,559,757,0,0
-658,267,0,0,0,0,0,0,0,0,0,-1,566,757,0,0
-651,267,0,0,0,0,0,0,0,0,0,-1,573,757,0,0
-644,267,0,0,0,0,0,0,0,0,0,-1,580,757,0,0
-637,267,0,0,0,0,0,0,0,0,0,-1,587,757,0,0
-630,267,-21.3979,5.17529,0,0,0,0,0,0,0,-1,594,757,-21.3979,-5.17529
-623,267,-20.043,4.43115,0,0,0,0,0,0,0,-1,601,757,-20.043,-4.43116
-616,267,-27.1628,5.9325,0,0,0,0,0,0,0,-1,608,757,-27.1629,-5.93249
-609,267,-26.9868,4.99658,0,0,0,0,0,0,0,-1,615,757,-26.9868,-4.99656
-602,267,-26.6637,3.74072,0,0,0,0,0,0,0,-1,622,757,-26.6637,-3.74075
-595,267,-32.7299,2.1203,0,0,0,0,0,0,0,-1,629,757,-32.7299,-2.12028
-588,267,-36.8777,3.63196,0,0,0,0,0,0,0,-1,636,757,-36.8777,-3.63199
-581,267,-36.9351,2.3338,0.0103187,0.00300926,-0.00504389,0.0128928,0.000435203,-0.47188,0.00845386,0.0488196,643,757,-36.935,-2.3338
-574,267,-37.0181,1.08026,0.00719658,0.00277391,-0.00329138,0.00895049,0.00102,-0.489605,0.00565772,0.0286873,650,757,-37.0181,-1.08027
-567,267,-37.219,0.0245972,0.00478073,0.00221667,-0.00194361,0.00582705,0.00117035,-0.493846,0.00355931,0.0316689,657,757,-37.219,-0.0245782
-560,267,-37.2829,-0.932556,0.00280757,0.00172051,-0.00103519,0.00343325,0.00109483,-0.543656,0.00202507,0.0239815,664,757,-37.2829,0.932577
-553,267,-37.3705,-1.96777,0.0012581,0.00132352,-0.000398124,0.00169028,0.00089135,-0.826386,0.00097637,0.0176451,671,757,-37.3705,1.96778
-546,267,-37.4681,-3.02698,7.59828e-05,0.000868759,2.90726e-05,0.000869824,7.49181e-05,1.53419,0.000556593,0.0116979,678,757,-37.4681,3.02695
-539,267,-37.5023,-4.05951,-0.0011008,0.000588168,0.000384137,0.00067143,-0.00118406,1.35734,0.00108481,0.012461,685,757,-37.5022,4.05954
-532,267,-37.52,-5.07336,-0.00214988,0.000531399,0.00056328,0.000644926,-0.0022634,1.37192,0.00176367,0.0145149,692,757,-37.52,5.07338
-525,267,-37.6404,-6.06183,-0.002575,0.000588033,0.000626017,0.000707426,-0.0026944,1.38234,0.00207271,0.0138096,699,757,-37.6404,6.06183
-518,267,-37.7651,-7.12579,-0.00290482,0.000927189,0.000845938,0.00110563,-0.00308325,1.36291,0.00250668,0.0193724,706,757,-37.7651,7.12581
-511,267,-37.7797,-8.21576,-0.00315333,0.00126515,0.00109726,0.00152263,-0.00341081,1.34031,0.00291703,0.0417889,713,757,-37.7797,8.21574
-504,267,-37.7492,-9.28375,0,0,0,0,0,0,0,-1,720,757,-37.7492,9.28373
-497,267,-31.5913,-8.72119,0,0,0,0,0,0,0,-1,727,757,-31.5913,8.72117
-490,267,-23.4949,-0.494995,0,0,0,0,0,0,0,-1,734,757,-23.4949,0.494981
-483,267,-33.2785,-0.448425,0,0,0,0,0,0,0,-1,741,757,-33.2785,0.448407
-476,267,-40.2954,0.52002,0,0,0,0,0,0,0,-1,748,757,-40.2954,-0.520037
-469,267,-52.9857,0.187744,0,0,0,0,0,0,0,-1,755,757,-52.9857,-0.187726
-462,267,-65.1766,0.392029,0,0,0,0,0,0,0,-1,762,757,-65.1766,-0.39203
-455,267,-65.1984,0.625916,0,0,0,0,0,0,0,-1,769,757,-65.1983,-0.625933
-448,267,-63.1012,0.806885,0,0,0,0,0,0,0,-1,776,757,-63.1012,-0.806906
-441,267,0,0,0,0,0,0,0,0,0,-1,783,757,0,0
-434,267,0,0,0,0,0,0,0,0,0,-1,790,757,0,0
-427,267,0,0,0,0,0,0,0,0,0,-1,797,757,0,0
-420,267,0,0,0,0,0,0,0,0,0,-1,804,757,0,0
-413,267,0,0,0,0,0,0,0,0,0,-1,811,757,0,0
-406,267,0,0,0,0,0,0,0,0,0,-1,818,757,0,0
-399,267,0,0,0,0,0,0,0,0,0,-1,825,757,0,0
-392,267,0,0,0,0,0,0,0,0,0,-1,832,757,0,0
-385,267,0,0,0,0,0,0,0,0,0,-1,839,757,0,0
-378,267,0,0,0,0,0,0,0,0,0,-1,846,757,0,0
-371,267,0,0,0,0,0,0,0,0,0,-1,853,757,0,0
-364,267,0,0,0,0,0,0,0,0,0,-1,860,757,0,0
-357,267,0,0,0,0,0,0,0,0,0,-1,867,757,0,0
-350,267,0,0,0,0,0,0,0,0,0,-1,874,757,0,0
-343,267,0,0,0,0,0,0,0,0,0,-1,881,757,0,0
-336,267,0,0,0,0,0,0,0,0,0,-1,888,757,0,0
-329,267,0,0,0,0,0,0,0,0,0,-1,895,757,0,0
-322,267,0,0,0,0,0,0,0,0,0,-1,902,757,0,0
-315,267,0,0,0,0,0,0,0,0,0,-1,909,757,0,0
-308,267,0,0,0,0,0,0,0,0,0,-1,916,757,0,0
-301,267,0,0,0,0,0,0,0,0,0,-1,923,757,0,0
-294,267,0,0,0,0,0,0,0,0,0,-1,930,757,0,0
-287,267,0,0,0,0,0,0,0,0,0,-1,937,757,0,0
-280,267,0,0,0,0,0,0,0,0,0,-1,944,757,0,0
-273,267,0,0,0,0,0,0,0,0,0,-1,951,757,0,0
-266,267,0,0,0,0,0,0,0,0,0,-1,958,757,0,0
-259,267,0,0,0,0,0,0,0,0,0,-1,965,757,0,0
-252,267,0,0,0,0,0,0,0,0,0,-1,972,757,0,0
-245,267,0,0,0,0,0,0,0,0,0,-1,979,757,0,0
-238,267,0,0,0,0,0,0,0,0,0,-1,986,757,0,0
-231,267,0,0,0,0,0,0,0,0,0,-1,993,757,0,0
-224,267,0,0,0,0,0,0,0,0,0,-1,1000,757,0,0
-217,267,0,0,0,0,0,0,0,0,0,-1,1007,757,0,0
-210,267,0,0,0,0,0,0,0,0,0,-1,1014,757,0,0
-203,267,0,0,0,0,0,0,0,0,0,-1,1021,757,0,0
-196,267,0,0,0,0,0,0,0,0,0,-1,1028,757,0,0
-189,267,0,0,0,0,0,0,0,0,0,-1,1035,757,0,0
-182,267,0,0,0,0,0,0,0,0,0,-1,1042,757,0,0
-175,267,0,0,0,0,0,0,0,0,0,-1,1049,757,0,0
-168,267,0,0,0,0,0,0,0,0,0,-1,1056,757,0,0
-161,267,0,0,0,0,0,0,0,0,0,-1,1063,757,0,0
-154,267,0,0,0,0,0,0,0,0,0,-1,1070,757,0,0
-147,267,0,0,0,0,0,0,0,0,0,-1,1077,757,0,0
-140,267,0,0,0,0,0,0,0,0,0,-1,1084,757,0,0
-133,267,0,0,0,0,0,0,0,0,0,-1,1091,757,0,0
-126,267,0,0,0,0,0,0,0,0,0,-1,1098,757,0,0
-119,267,0,0,0,0,0,0,0,0,0,-1,1105,757,0,0
-112,267,0,0,0,0,0,0,0,0,0,-1,1112,757,0,0
-105,267,0,0,0,0,0,0,0,0,0,-1,1119,757,0,0
-98,267,0,0,0,0,0,0,0,0,0,-1,1126,757,0,0
-91,267,0,0,0,0,0,0,0,0,0,-1,1133,757,0,0
-84,267,0,0,0,0,0,0,0,0,0,-1,1140,757,0,0
-77,267,0,0,0,0,0,0,0,0,0,-1,1147,757,0,0
-70,267,0,0,0,0,0,0,0,0,0,-1,1154,757,0,0
-63,267,0,0,0,0,0,0,0,0,0,-1,1161,757,0,0
-56,267,0,0,0,0,0,0,0,0,0,-1,1168,757,0,0
-49,267,0,0,0,0,0,0,0,0,0,-1,1175,757,0,0
-42,267,0,0,0,0,0,0,0,0,0,-1,1182,757,0,0
-35,267,0,0,0,0,0,0,0,0,0,-1,1189,757,0,0
-28,267,0,0,0,0,0,0,0,0,0,-1,1196,757,0,0
-21,267,0,0,0,0,0,0,0,0,0,-1,1203,757,0,0
-14,267,0,0,0,0,0,0,0,0,0,-1,1210,757,0,0
-7,267,0,0,0,0,0,0,0,0,0,-1,1217,757,0,0
0,267,0,0,0,0,0,0,0,0,0,-1,1224,757,0,0
7,267,0,0,0,0,0,0,0,0,0,-1,1231,757,0,0
14,267,0,0,0,0,0,0,0,0,0,-1,1238,757,0,0
21,267,0,0,0,0,0,0,0,0,0,-1,1245,757,0,0
28,267,0,0,0,0,0,0,0,0,0,-1,1252,757,0,0
35,267,0,0,0,0,0,0,0,0,0,-1,1259,757,0,0
42,267,0,0,0,0,0,0,0,0,0,-1,1266,757,0,0
49,267,0,0,0,0,0,0,0,0,0,-1,1273,757,0,0
56,267,0,0,0,0,0,0,0,0,0,-1,1280,757,0,0
63,267,0,0,0,0,0,0,0,0,0,-1,1287,757,0,0
70,267,0,0,0,0,0,0,0,0,0,-1,1294,757,0,0
77,267,0,0,0,0,0,0,0,0,0,-1,1301,757,0,0
84,267,0,0,0,0,0,0,0,0,0,-1,1308,757,0,0
91,267,0,0,0,0,0,0,0,0,0,-1,1315,757,0,0
98,267,0,0,0,0,0,0,0,0,0,-1,1322,757,0,0
105,267,0,0,0,0,0,0,0,0,0,-1,1329,757,0,0
112,267,0,0,0,0,0,0,0,0,0,-1,1336,757,0,0
119,267,0,0,0,0,0,0,0,0,0,-1,1343,757,0,0
126,267,0,0,0,0,0,0,0,0,0,-1,1350,757,0,0
133,267,0,0,0,0,0,0,0,0,0,-1,1357,757,0,0
140,267,0,0,0,0,0,0,0,0,0,-1,1364,757,0,0
147,267,0,0,0,0,0,0,0,0,0,-1,1371,757,0,0
154,267,0,0,0,0,0,0,0,0,0,-1,1378,757,0,0
161,267,0,0,0,0,0,0,0,0,0,-1,1385,757,0,0
168,267,0,0,0,0,0,0,0,0,0,-1,1392,757,0,0
175,267,0,0,0,0,0,0,0,0,0,-1,1399,757,0,0
182,267,0,0,0,0,0,0,0,0,0,-1,1406,757,0,0
189,267,0,0,0,0,0,0,0,0,0,-1,1413,757,0,0
196,267,0,0,0,0,0,0,0,0,0,-1,1420,757,0,0
203,267,0,0,0,0,0,0,0,0,0,-1,1427,757,0,0
210,267,0,0,0,0,0,0,0,0,0,-1,1434,757,0,0
217,267,0,0,0,0,0,0,0,0,0,-1,1441,757,0,0
224,267,0,0,0,0,0,0,0,0,0,-1,1448,757,0,0
231,267,0,0,0,0,0,0,0,0,0,-1,1455,757,0,0
238,267,0,0,0,0,0,0,0,0,0,-1,1462,757,0,0
245,267,0,0,0,0,0,0,0,0,0,-1,1469,757,0,0
252,267,0,0,0,0,0,0,0,0,0,-1,1476,757,0,0
259,267,0,0,0,0,0,0,0,0,0,-1,1483,757,0,0
266,267,0,0,0,0,0,0,0,0,0,-1,1490,757,0,0
273,267,0,0,0,0,0,0,0,0,0,-1,1497,757,0,0
280,267,0,0,0,0,0,0,0,0,0,-1,1504,757,0,0
287,267,0,0,0,0,0,0,0,0,0,-1,1511,757,0,0
294,267,0,0,0,0,0,0,0,0,0,-1,1518,757,0,0
301,267,0,0,0,0,0,0,0,0,0,-1,1525,757,0,0
308,267,0,0,0,0,0,0,0,0,0,-1,1532,757,0,0
315,267,0,0,0,0,0,0,0,0,0,-1,1539,757,0,0
322,267,0,0,0,0,0,0,0,0,0,-1,1546,757,0,0
329,267,0,0,0,0,0,0,0,0,0,-1,1553,757,0,0
336,267,0,0,0,0,0,0,0,0,0,-1,1560,757,0,0
343,267,0,0,0,0,0,0,0,0,0,-1,1567,757,0,0
350,267,0,0,0,0,0,0,0,0,0,-1,1574,757,0,0
357,267,0,0,0,0,0,0,0,0,0,-1,1581,757,0,0
364,267,0,0,0,0,0,0,0,0,0,-1,1588,757,0,0
371,267,0,0,0,0,0,0,0,0,0,-1,1595,757,0,0
378,267,0,0,0,0,0,0,0,0,0,-1,1602,757,0,0
385,267,0,0,0,0,0,0,0,0,0,-1,1609,757,0,0
392,267,0,0,0,0,0,0,0,0,0,-1,1616,757,0,0
399,267,0,0,0,0,0,0,0,0,0,-1,1623,757,0,0
406,267,0,0,0,0,0,0,0,0,0,-1,1630,757,0,0
413,267,0,0,0,0,0,0,0,0,0,-1,1637,757,0,0
420,267,0,0,0,0,0,0,0,0,0,-1,1644,757,0,0
427,267,0,0,0,0,0,0,0,0,0,-1,1651,757,0,0
434,267,0,0,0,0,0,0,0,0,0,-1,1658,757,0,0
441,267,0,0,0,0,0,0,0,0,0,-1,1665,757,0,0
448,267,0,0,0,0,0,0,0,0,0,-1,1672,757,0,0
455,267,0,0,0,0,0,0,0,0,0,-1,1679,757,0,0
462,267,0,0,0,0,0,0,0,0,0,-1,1686,757,0,0
469,267,0,0,0,0,0,0,0,0,0,-1,1693,757,0,0
476,267,0,0,0,0,0,0,0,0,0,-1,1700,757,0,0
483,267,0,0,0,0,0,0,0,0,0,-1,1707,757,0,0
490,267,0,0,0,0,0,0,0,0,0,-1,1714,757,0,0
497,267,0,0,0,0,0,0,0,0,0,-1,1721,757,0,0
504,267,0,0,0,0,0,0,0,0,0,-1,1728,757,0,0
511,267,0,0,0,0,0,0,0,0,0,-1,1735,757,0,0
518,267,0,0,0,0,0,0,0,0,0,-1,1742,757,0,0
525,267,0,0,0,0,0,0,0,0,0,-1,1749,757,0,0
532,267,0,0,0,0,0,0,0,0,0,-1,1756,757,0,0
539,267,0,0,0,0,0,0,0,0,0,-1,1763,757,0,0
546,267,0,0,0,0,0,0,0,0,0,-1,1770,757,0,0
553,267,0,0,0,0,0,0,0,0,0,-1,1777,757,0,0
560,267,0,0,0,0,0,0,0,0,0,-1,1784,757,0,0
567,267,58.0104,3.24304,0,0,0,0,0,0,0,-1,1791,757,58.0104,-3.24306
574,267,64.5414,2.91858,0,0,0,0,0,0,0,-1,1798,757,64.5414,-2.91855
581,267,58.374,2.95636,0,0,0,0,0,0,0,-1,1805,757,58.3741,-2.95639
588,267,65.9681,2.6438,0,0,0,0,0,0,0,-1,1812,757,65.9682,-2.64382
595,267,66.191,2.60791,0,0,0,0,0,0,0,-1,1819,757,66.191,-2.60792
602,267,66.4139,2.57202,0,0,0,0,0,0,0,-1,1826,757,66.4139,-2.57203
609,267,54.5498,3.24054,0,0,0,0,0,0,0,-1,1833,757,54.5498,-3.24052
616,267,44.2543,3.28918,0,0,0,0,0,0,0,-1,1840,757,44.2542,-3.28918
623,267,24.1475,-1.1391,0,0,0,0,0,0,0,-1,1847,757,24.1475,1.13913
630,267,40.7198,-5.42108,0,0,0,0,0,0,0,-1,1854,757,40.7198,5.4211
637,267,54.3229,-8.27087,0,0,0,0,0,0,0,-1,1861,757,54.3229,8.27087
644,267,54.4165,-7.46735,0.0014014,0.000679253,0.000997985,0.00210162,-2.09688e-05,0.611823,0.00140812,0.0311454,1868,757,54.4165,7.46736
651,267,54.3688,-6.26862,0.000666251,0.000617574,7.29993e-05,0.000718862,0.000564963,0.624487,0.000437069,0.0211492,1875,757,54.3688,6.26864
658,267,54.3546,-5.29761,0.000396301,0.000337036,-0.00035014,0.000718059,1.5277e-05,-0.743184,0.000473696,0.0170858,1882,757,54.3546,5.29763
665,267,54.2841,-4.29144,0.000368443,0.000471081,-0.00033454,0.000758215,8.13092e-05,-0.861505,0.000480671,0.017341,1889,757,54.284,4.29145
672,267,54.2198,-3.28918,0.000663529,0.000776173,-0.000166322,0.000895451,0.000544251,-0.948653,0.000520978,0.0151655,1896,757,54.2199,3.28918
679,267,54.1714,-2.26563,0.00110478,0.00141205,0.000288798,0.00158553,0.000931291,1.02985,0.000920054,0.0138123,1903,757,54.1713,2.26562
686,267,54.08,-1.22839,0.00164741,0.00210217,0.000823327,0.00272894,0.00102064,0.920126,0.00159214,0.0184755,1910,757,54.0799,1.22838
693,267,53.9612,-0.244568,0.00231909,0.00292182,0.00152517,0.00417511,0.00106579,0.882938,0.0025049,0.0178714,1917,757,53.9612,0.244567
700,267,53.9113,0.765015,0.00315202,0.00400389,0.0025123,0.00612611,0.0010298,0.869369,0.00378776,0.0157936,1924,757,53.9112,-0.765037
707,267,53.912,1.77795,0.00383587,0.00528627,0.00357371,0.00820762,0.000914522,0.885502,0.00519382,0.0281924,1931,757,53.9119,-1.77796
714,267,53.9324,2.86713,0,0,0,0,0,0,0,-1,1938,757,53.9324,-2.86715
721,267,47.0829,3.73804,0,0,0,0,0,0,0,-1,1945,757,47.0828,-3.73803
728,267,26.7886,3.90027,0,0,0,0,0,0,0,-1,1952,757,26.7886,-3.90028
735,267,24.6713,2.82483,0,0,0,0,0,0,0,-1,1959,757,24.6713,-2.82483
742,267,18.1177,3.56561,0,0,0,0,0,0,0,-1,1966,757,18.1176,-3.56564
749,267,0,0,0,0,0,0,0,0,0,-1,1973,757,0,0
756,267,0,0,0,0,0,0,0,0,0,-1,1980,757,0,0
763,267,0,0,0,0,0,0,0,0,0,-1,1987,757,0,0
770,267,0,0,0,0,0,0,0,0,0,-1,1994,757,0,0
777,267,0,0,0,0,0,0,0,0,0,-1,2001,757,0,0
784,267,0,0,0,0,0,0,0,0,0,-1,2008,757,0,0
791,267,0,0,0,0,0,0,0,0,0,-1,2015,757,0,0
798,267,0,0,0,0,0,0,0,0,0,-1,2022,757,0,0
805,267,0,0,0,0,0,0,0,0,0,-1,2029,757,0,0
812,267,0,0,0,0,0,0,0,0,0,-1,2036,757,0,0
-700,260,0,0,0,0,0,0,0,0,0,-1,524,764,0,0
-693,260,0,0,0,0,0,0,0,0,0,-1,531,764,0,0
-686,260,0,0,0,0,0,0,0,0,0,-1,538,764,0,0
-679,260,0,0,0,0,0,0,0,0,0,-1,545,764,0,0
-672,260,0,0,0,0,0,0,0,0,0,-1,552,764,0,0
-665,260,0,0,0,0,0,0,0,0,0,-1,559,764,0,0
-658,260,0,0,0,0,0,0,0,0,0,-1,566,764,0,0
-651,260,0,0,0,0,0,0,0,0,0,-1,573,764,0,0
-644,260,0,0,0,0,0,0,0,0,0,-1,580,764,0,0
-637,260,0,0,0,0,0,0,0,0,0,-1,587,764,0,0
-630,260,-21.8905,4.49341,0,0,0,0,0,0,0,-1,594,764,-21.8905,-4.49342
-623,260,-20.3127,3.53546,0,0,0,0,0,0,0,-1,601,764,-20.3127,-3.53544
-616,260,-23.4346,3.65009,0,0,0,0,0,0,0,-1,608,764,-23.4345,-3.65008
-609,260,-27.8874,4.42004,0,0,0,0,0,0,0,-1,615,764,-27.8874,-4.42005
-602,260,-32.8671,3.61243,0,0,0,0,0,0,0,-1,622,764,-32.867,-3.61241
-595,260,-39.9661,4.29895,0,0,0,0,0,0,0,-1,629,764,-39.9661,-4.29895
-588,260,-39.1042,3.16492,0.0119796,0.0022614,-0.00529559,0.0143076,-6.65826e-05,-0.414178,0.00956067,0.0478424,636,764,-39.1042,-3.16494
-581,260,-38.1981,2.12067,0.00875108,0.00228785,-0.00391362,0.0105949,0.000444057,-0.440279,0.00691998,0.0356334,643,764,-38.1981,-2.12064
-574,260,-38.1741,1.11456,0.00624434,0.0021648,-0.00256617,0.00748266,0.00092648,-0.449595,0.00471009,0.0234964,650,764,-38.1741,-1.11457
-567,260,-38.232,0.162964,0.00413739,0.00179097,-0.00144966,0.0048291,0.00109925,-0.445206,0.00292272,0.0202269,657,764,-38.232,-0.162992
-560,260,-38.3154,-0.857056,0.00234391,0.00143943,-0.000638089,0.00267377,0.00110957,-0.477114,0.00155112,0.0228242,664,764,-38.3154,0.857049
-553,260,-38.4053,-1.89288,0.000841526,0.00118098,-4.00838e-05,0.00118565,0.000836857,-1.45484,0.0007036,0.0178555,671,764,-38.4052,1.89291
-546,260,-38.4803,-2.95593,-0.000343131,0.000822695,0.000391701,0.000942076,-0.000462512,1.27496,0.000826545,0.0119198,678,764,-38.4803,2.95594
-539,260,-38.5089,-3.96509,-0.00156741,0.000695246,0.000752286,0.000922534,-0.00179469,1.27739,0.0015955,0.014826,685,764,-38.5089,3.96509
-532,260,-38.532,-4.91559,-0.00241098,0.000858305,0.000782883,0.00103611,-0.00258878,1.34747,0.00215588,0.0202103,692,764,-38.5321,4.91561
-525,260,-38.6572,-5.88873,-0.00264549,0.00118639,0.000815622,0.00135277,-0.00281187,1.36956,0.00245315,0.0229326,699,764,-38.6572,5.88876
-518,260,-38.9769,-6.98871,-0.00290516,0.00171055,0.00101114,0.00192234,-0.00311694,1.36433,0.00293655,0.0325164,706,764,-38.9769,6.98869
-511,260,-39.4425,-8.25775,0,0,0,0,0,0,0,-1,713,764,-39.4425,8.25773
-504,260,-34.7117,-8.67163,0,0,0,0,0,0,0,-1,720,764,-34.7117,8.6716
-497,260,-16.6542,-3.67334,0,0,0,0,0,0,0,-1,727,764,-16.6542,3.67331
-490,260,-29.4557,0.921387,0,0,0,0,0,0,0,-1,734,764,-29.4557,-0.921369
-483,260,-40.8972,1.04193,0,0,0,0,0,0,0,-1,741,764,-40.8972,-1.04193
-476,260,-53.8282,0.00378418,0,0,0,0,0,0,0,-1,748,764,-53.8283,-0.00378825
-469,260,-65.2218,0.239441,0,0,0,0,0,0,0,-1,755,764,-65.2218,-0.239451
-462,260,-65.2094,0.439453,0,0,0,0,0,0,0,-1,762,764,-65.2094,-0.439468
-455,260,-65.1989,0.667786,0,0,0,0,0,0,0,-1,769,764,-65.1989,-0.667759
-448,260,0,0,0,0,0,0,0,0,0,-1,776,764,0,0
-441,260,0,0,0,0,0,0,0,0,0,-1,783,764,0,0
-434,260,0,0,0,0,0,0,0,0,0,-1,790,764,0,0
-427,260,0,0,0,0,0,0,0,0,0,-1,797,764,0,0
-420,260,0,0,0,0,0,0,0,0,0,-1,804,764,0,0
-413,260,0,0,0,0,0,0,0,0,0,-1,811,764,0,0
-406,260,0,0,0,0,0,0,0,0,0,-1,818,764,0,0
-399,260,0,0,0,0,0,0,0,0,0,-1,825,764,0,0
-392,260,0,0,0,0,0,0,0,0,0,-1,832,764,0,0
-385,260,0,0,0,0,0,0,0,0,0,-1,839,764,0,0
-378,260,0,0,0,0,0,0,0,0,0,-1,846,764,0,0
-371,260,0,0,0,0,0,0,0,0,0,-1,853,764,0,0
-364,260,0,0,0,0,0,0,0,0,0,-1,860,764,0,0
-357,260,0,0,0,0,0,0,0,0,0,-1,867,764,0,0
-350,260,0,0,0,0,0,0,0,0,0,-1,874,764,0,0
-343,260,0,0,0,0,0,0,0,0,0,-1,881,764,0,0
-336,260,0,0,0,0,0,0,0,0,0,-1,888,764,0,0
-329,260,0,0,0,0,0,0,0,0,0,-1,895,764,0,0
-322,260,0,0,0,0,0,0,0,0,0,-1,902,764,0,0
-315,260,0,0,0,0,0,0,0,0,0,-1,909,764,0,0
-308,260,0,0,0,0,0,0,0,0,0,-1,916,764,0,0
-301,260,0,0,0,0,0,0,0,0,0,-1,923,764,0,0
-294,260,0,0,0,0,0,0,0,0,0,-1,930,764,0,0
-287,260,0,0,0,0,0,0,0,0,0,-1,937,764,0,0
-280,260,0,0,0,0,0,0,0,0,0,-1,944,764,0,0
-273,260,0,0,0,0,0,0,0,0,0,-1,951,764,0,0
-266,260,0,0,0,0,0,0,0,0,0,-1,958,764,0,0
-259,260,0,0,0,0,0,0,0,0,0,-1,965,764,0,0
-252,260,0,0,0,0,0,0,0,0,0,-1,972,764,0,0
-245,260,0,0,0,0,0,0,0,0,0,-1,979,764,0,0
-238,260,0,0,0,0,0,0,0,0,0,-1,986,764,0,0
-231,260,0,0,0,0,0,0,0,0,0,-1,993,764,0,0
-224,260,0,0,0,0,0,0,0,0,0,-1,1000,764,0,0
-217,260,0,0,0,0,0,0,0,0,0,-1,1007,764,0,0
-210,260,0,0,0,0,0,0,0,0,0,-1,1014,764,0,0
-203,260,0,0,0,0,0,0,0,0,0,-1,1021,764,0,0
-196,260,0,0,0,0,0,0,0,0,0,-1,1028,764,0,0
-189,260,0,0,0,0,0,0,0,0,0,-1,1035,764,0,0
-182,260,0,0,0,0,0,0,0,0,0,-1,1042,764,0,0
-175,260,0,0,0,0,0,0,0,0,0,-1,1049,764,0,0
-168,260,0,0,0,0,0,0,0,0,0,-1,1056,764,0,0
-161,260,0,0,0,0,0,0,0,0,0,-1,1063,764,0,0
-154,260,0,0,0,0,0,0,0,0,0,-1,1070,764,0,0
-147,260,0,0,0,0,0,0,0,0,0,-1,1077,764,0,0
-140,260,0,0,0,0,0,0,0,0,0,-1,1084,764,0,0
-133,260,0,0,0,0,0,0,0,0,0,-1,1091,764,0,0
-126,260,0,0,0,0,0,0,0,0,0,-1,1098,764,0,0
-119,260,0,0,0,0,0,0,0,0,0,-1,1105,764,0,0
-112,260,0,0,0,0,0,0,0,0,0,-1,1112,764,0,0
-105,260,0,0,0,0,0,0,0,0,0,-1,1119,764,0,0
-98,260,0,0,0,0,0,0,0,0,0,-1,1126,764,0,0
-91,260,0,0,0,0,0,0,0,0,0,-1,1133,764,0,0
-84,260,0,0,0,0,0,0,0,0,0,-1,1140,764,0,0
-77,260,0,0,0,0,0,0,0,0,0,-1,1147,764,0,0
-70,260,0,0,0,0,0,0,0,0,0,-1,1154,764,0,0
-63,260,0,0,0,0,0,0,0,0,0,-1,1161,764,0,0
-56,260,0,0,0,0,0,0,0,0,0,-1,1168,764,0,0
-49,260,0,0,0,0,0,0,0,0,0,-1,1175,764,0,0
-42,260,0,0,0,0,0,0,0,0,0,-1,1182,764,0,0
-35,260,0,0,0,0,0,0,0,0,0,-1,1189,764,0,0
-28,260,0,0,0,0,0,0,0,0,0,-1,1196,764,0,0
-21,260,0,0,0,0,0,0,0,0,0,-1,1203,764,0,0
-14,260,0,0,0,0,0,0,0,0,0,-1,1210,764,0,0
-7,260,0,0,0,0,0,0,0,0,0,-1,1217,764,0,0
0,260,0,0,0,0,0,0,0,0,0,-1,1224,764,0,0
7,260,0,0,0,0,0,0,0,0,0,-1,1231,764,0,0
14,260,0,0,0,0,0,0,0,0,0,-1,1238,764,0,0
21,260,0,0,0,0,0,0,0,0,0,-1,1245,764,0,0
28,260,0,0,0,0,0,0,0,0,0,-1,1252,764,0,0
35,260,0,0,0,0,0,0,0,0,0,-1,1259,764,0,0
42,260,0,0,0,0,0,0,0,0,0,-1,1266,764,0,0
49,260,0,0,0,0,0,0,0,0,0,-1,1273,764,0,0
56,260,0,0,0,0,0,0,0,0,0,-1,1280,764,0,0
63,260,0,0,0,0,0,0,0,0,0,-1,1287,764,0,0
70,260,0,0,0,0,0,0,0,0,0,-1,1294,764,0,0
77,260,0,0,0,0,0,0,0,0,0,-1,1301,764,0,0
84,260,0,0,0,0,0,0,0,0,0,-1,1308,764,0,0
91,260,0,0,0,0,0,0,0,0,0,-1,1315,764,0,0
98,260,0,0,0,0,0,0,0,0,0,-1,1322,764,0,0
105,260,0,0,0,0,0,0,0,0,0,-1,1329,764,0,0
112,260,0,0,0,0,0,0,0,0,0,-1,1336,764,0,0
119,260,0,0,0,0,0,0,0,0,0,-1,1343,764,0,0
126,260,0,0,0,0,0,0,0,0,0,-1,1350,764,0,0
133,260,0,0,0,0,0,0,0,0,0,-1,1357,764,0,0
140,260,0,0,0,0,0,0,0,0,0,-1,1364,764,0,0
147,260,0,0,0,0,0,0,0,0,0,-1,1371,764,0,0
154,260,0,0,0,0,0,0,0,0,0,-1,1378,764,0,0
161,260,0,0,0,0,0,0,0,0,0,-1,1385,764,0,0
168,260,0,0,0,0,0,0,0,0,0,-1,1392,764,0,0
175,260,0,0,0,0,0,0,0,0,0,-1,1399,764,0,0
182,260,0,0,0,0,0,0,0,0,0,-1,1406,764,0,0
189,260,0,0,0,0,0,0,0,0,0,-1,1413,764,0,0
196,260,0,0,0,0,0,0,0,0,0,-1,1420,764,0,0
203,260,0,0,0,0,0,0,0,0,0,-1,1427,764,0,0
210,260,0,0,0,0,0,0,0,0,0,-1,1434,764,0,0
217,260,0,0,0,0,0,0,0,0,0,-1,1441,764,0,0
224,260,0,0,0,0,0,0,0,0,0,-1,1448,764,0,0
231,260,0,0,0,0,0,0,0,0,0,-1,1455,764,0,0
238,260,0,0,0,0,0,0,0,0,0,-1,1462,764,0,0
245,260,0,0,0,0,0,0,0,0,0,-1,1469,764,0,0
252,260,0,0,0,0,0,0,0,0,0,-1,1476,764,0,0
259,260,0,0,0,0,0,0,0,0,0,-1,1483,764,0,0
266,260,0,0,0,0,0,0,0,0,0,-1,1490,764,0,0
273,260,0,0,0,0,0,0,0,0,0,-1,1497,764,0,0
280,260,0,0,0,0,0,0,0,0,0,-1,1504,764,0,0
287,260,0,0,0,0,0,0,0,0,0,-1,1511,764,0,0
294,260,0,0,0,0,0,0,0,0,0,-1,1518,764,0,0
301,260,0,0,0,0,0,0,0,0,0,-1,1525,764,0,0
308,260,0,0,0,0,0,0,0,0,0,-1,1532,764,0,0
315,260,0,0,0,0,0,0,0,0,0,-1,1539,764,0,0
322,260,0,0,0,0,0,0,0,0,0,-1,1546,764,0,0
329,260,0,0,0,0,0,0,0,0,0,-1,1553,764,0,0
336,260,0,0,0,0,0,0,0,0,0,-1,1560,764,0,0
343,260,0,0,0,0,0,0,0,0,0,-1,1567,764,0,0
350,260,0,0,0,0,0,0,0,0,0,-1,1574,764,0,0
357,260,0,0,0,0,0,0,0,0,0,-1,1581,764,0,0
364,260,0,0,0,0,0,0,0,0,0,-1,1588,764,0,0
371,260,0,0,0,0,0,0,0,0,0,-1,1595,764,0,0
378,260,0,0,0,0,0,0,0,0,0,-1,1602,764,0,0
385,260,0,0,0,0,0,0,0,0,0,-1,1609,764,0,0
392,260,0,0,0,0,0,0,0,0,0,-1,1616,764,0,0
399,260,0,0,0,0,0,0,0,0,0,-1,1623,764,0,0
406,260,0,0,0,0,0,0,0,0,0,-1,1630,764,0,0
413,260,0,0,0,0,0,0,0,0,0,-1,1637,764,0,0
420,260,0,0,0,0,0,0,0,0,0,-1,1644,764,0,0
427,260,0,0,0,0,0,0,0,0,0,-1,1651,764,0,0
434,260,0,0,0,0,0,0,0,0,0,-1,1658,764,0,0
441,260,0,0,0,0,0,0,0,0,0,-1,1665,764,0,0
448,260,0,0,0,0,0,0,0,0,0,-1,1672,764,0,0
455,260,0,0,0,0,0,0,0,0,0,-1,1679,764,0,0
462,260,0,0,0,0,0,0,0,0,0,-1,1686,764,0,0
469,260,0,0,0,0,0,0,0,0,0,-1,1693,764,0,0
476,260,0,0,0,0,0,0,0,0,0,-1,1700,764,0,0
483,260,0,0,0,0,0,0,0,0,0,-1,1707,764,0,0
490,260,0,0,0,0,0,0,0,0,0,-1,1714,764,0,0
497,260,0,0,0,0,0,0,0,0,0,-1,1721,764,0,0
504,260,0,0,0,0,0,0,0,0,0,-1,1728,764,0,0
511,260,0,0,0,0,0,0,0,0,0,-1,1735,764,0,0
518,260,0,0,0,0,0,0,0,0,0,-1,1742,764,0,0
525,260,0,0,0,0,0,0,0,0,0,-1,1749,764,0,0
532,260,0,0,0,0,0,0,0,0,0,-1,1756,764,0,0
539,260,0,0,0,0,0,0,0,0,0,-1,1763,764,0,0
546,260,0,0,0,0,0,0,0,0,0,-1,1770,764,0,0
553,260,0,0,0,0,0,0,0,0,0,-1,1777,764,0,0
560,260,0,0,0,0,0,0,0,0,0,-1,1784,764,0,0
567,260,0,0,0,0,0,0,0,0,0,-1,1791,764,0,0
574,260,82.5137,2.30786,0,0,0,0,0,0,0,-1,1798,764,82.5136,-2.30789
581,260,82.5044,2.39569,0,0,0,0,0,0,0,-1,1805,764,82.5044,-2.39572
588,260,78.047,2.81091,0,0,0,0,0,0,0,-1,1812,764,78.047,-2.81091
595,260,66.1678,2.56989,0,0,0,0,0,0,0,-1,1819,764,66.1678,-2.56989
602,260,65.9274,2.69824,0,0,0,0,0,0,0,-1,1826,764,65.9274,-2.69825
609,260,65.4674,3.08105,0,0,0,0,0,0,0,-1,1833,764,65.4673,-3.08107
616,260,46.0709,2.74542,0,0,0,0,0,0,0,-1,1840,764,46.0709,-2.74545
623,260,32.2268,3.25836,0,0,0,0,0,0,0,-1,1847,764,32.2268,-3.25833
630,260,24.3739,-0.536316,0,0,0,0,0,0,0,-1,1854,764,24.3739,0.536343
637,260,42.7155,-5.35486,0,0,0,0,0,0,0,-1,1861,764,42.7154,5.35488
644,260,55.9694,-7.53021,0,0,0,0,0,0,0,-1,1868,764,55.9693,7.53021
651,260,55.7113,-6.17908,0.000614022,0.00074168,-0.000170594,0.000859994,0.000495707,-0.964414,0.000498447,0.0331354,1875,764,55.7113,6.17908
658,260,55.4232,-5.16187,0.000292366,0.000355096,-0.000645553,0.000970045,-0.000322583,-0.809672,0.000776879,0.0221116,1882,764,55.4232,5.16189
665,260,55.2521,-4.22491,0.000173925,0.000343329,-0.000659676,0.000923719,-0.000406465,-0.849248,0.000787099,0.017422,1889,764,55.2521,4.22489
672,260,55.2283,-3.20905,0.000416595,0.000560104,-0.000533335,0.00102649,-4.97911e-05,-0.852266,0.000701513,0.0148612,1896,764,55.2282,3.20903
679,260,55.1566,-2.17902,0.000762799,0.00105297,-0.000113014,0.00109179,0.000723977,-1.23991,0.000641427,0.0132352,1903,764,55.1566,2.17901
686,260,55.0616,-1.14716,0.00123787,0.00167883,0.000408782,0.0019228,0.000993899,1.03272,0.00111034,0.0241575,1910,764,55.0617,1.14714
693,260,54.9419,-0.202454,0.00179274,0.00243559,0.00106295,0.00322465,0.00100367,0.93222,0.00190546,0.0236817,1917,764,54.9419,0.202473
700,260,54.8704,0.789673,0.00247592,0.0034432,0.00195462,0.00497313,0.000945987,0.90668,0.0030494,0.0167863,1924,764,54.8703,-0.789648
707,260,54.9044,1.81232,0.00307199,0.00469984,0.00299327,0.00698787,0.000783953,0.918147,0.0044205,0.0198269,1931,764,54.9044,-1.8123
714,260,54.8727,2.79865,0.00331363,0.00605523,0.00425289,0.00915278,0.000216076,0.941302,0.00603112,0.044177,1938,764,54.8727,-2.79862
721,260,54.8303,3.72839,0,0,0,0,0,0,0,-1,1945,764,54.8304,-3.72842
728,260,33.4344,5.75409,0,0,0,0,0,0,0,-1,1952,764,33.4345,-5.75408
735,260,26.9788,4.85681,0,0,0,0,0,0,0,-1,1959,764,26.9787,-4.85678
742,260,32.1443,1.73688,0,0,0,0,0,0,0,-1,1966,764,32.1442,-1.73688
749,260,33.6013,2.94733,0,0,0,0,0,0,0,-1,1973,764,33.6013,-2.9473
756,260,0,0,0,0,0,0,0,0,0,-1,1980,764,0,0
763,260,0,0,0,0,0,0,0,0,0,-1,1987,764,0,0
770,260,0,0,0,0,0,0,0,0,0,-1,1994,764,0,0
777,260,0,0,0,0,0,0,0,0,0,-1,2001,764,0,0
784,260,0,0,0,0,0,0,0,0,0,-1,2008,764,0,0
791,260,0,0,0,0,0,0,0,0,0,-1,2015,764,0,0
798,260,0,0,0,0,0,0,0,0,0,-1,2022,764,0,0
805,260,0,0,0,0,0,0,0,0,0,-1,2029,764,0,0
812,260,0,0,0,0,0,0,0,0,0,-1,2036,764,0,0
-700,253,0,0,0,0,0,0,0,0,0,-1,524,771,0,0
-693,253,0,0,0,0,0,0,0,0,0,-1,531,771,0,0
-686,253,0,0,0,0,0,0,0,0,0,-1,538,771,0,0
-679,253,0,0,0,0,0,0,0,0,0,-1,545,771,0,0
-672,253,0,0,0,0,0,0,0,0,0,-1,552,771,0,0
-665,253,0,0,0,0,0,0,0,0,0,-1,559,771,0,0
-658,253,0,0,0,0,0,0,0,0,0,-1,566,771,0,0
-651,253,0,0,0,0,0,0,0,0,0,-1,573,771,0,0
-644,253,0,0,0,0,0,0,0,0,0,-1,580,771,0,0
-637,253,-24.7979,-0.491394,0,0,0,0,0,0,0,-1,587,771,-24.7978,0.491371
-630,253,-25.156,0.540405,0,0,0,0,0,0,0,-1,594,771,-25.156,-0.540421
-623,253,-20.808,2.84314,0,0,0,0,0,0,0,-1,601,771,-20.8081,-2.84312
-616,253,-25.0877,2.96875,0,0,0,0,0,0,0,-1,608,771,-25.0877,-2.96876
-609,253,-24.28,2.08228,0,0,0,0,0,0,0,-1,615,771,-24.2801,-2.08227
-602,253,-38.9942,5.19183,0,0,0,0,0,0,0,-1,622,771,-38.9942,-5.19181
-595,253,-39.5932,4.33081,0,0,0,0,0,0,0,-1,629,771,-39.5932,-4.33082
-588,253,-39.3891,3.25049,0.00909828,0.00157768,-0.00346645,0.0104523,0.000223667,-0.37238,0.00689484,0.0429892,636,771,-39.3891,-3.25047
-581,253,-39.1372,2.18176,0.00695511,0.00173311,-0.00265812,0.00807009,0.000618126,-0.39717,0.00518631,0.0317669,643,771,-39.1372,-2.18174
-574,253,-39.2052,1.15814,0.00510219,0.00171427,-0.00172564,0.00582636,0.000990101,-0.397331,0.00359988,0.0253662,650,771,-39.2052,-1.15817
-567,253,-39.3113,0.132385,0.00338765,0.00150651,-0.000888261,0.00374079,0.00115338,-0.378403,0.00221201,0.0185554,657,771,-39.3113,-0.132368
-560,253,-39.3291,-0.786194,0.00185385,0.00129676,-0.000231617,0.00193757,0.00121304,-0.346837,0.00113044,0.0146869,664,771,-39.3291,0.786201
-553,253,-39.4088,-1.81775,0.000469013,0.0011798,0.000271441,0.0012716,0.00037721,1.24467,0.000754129,0.0126454,671,771,-39.4088,1.81773
-546,253,-39.5002,-2.84387,-0.000676564,0.00093923,0.000661038,0.0011752,-0.000912539,1.22792,0.00120854,0.0112827,678,771,-39.5003,2.84388
-539,253,-39.5874,-3.85876,-0.00189444,0.00100086,0.000970205,0.00129591,-0.00218948,1.27558,0.00203422,0.0138798,685,771,-39.5874,3.85879
-532,253,-39.632,-4.80914,-0.00247105,0.00140749,0.000802612,0.00156701,-0.00263058,1.37459,0.00244928,0.0208558,692,771,-39.632,4.80916
-525,253,-39.7319,-5.77057,-0.0025391,0.00194591,0.000839936,0.00209805,-0.00269124,1.39161,0.00277216,0.0334731,699,771,-39.7319,5.7706
-518,253,-40.0223,-7.00061,-0.00279856,0.00257798,0.0010627,0.00278041,-0.00300099,1.38257,0.0033387,0.0473607,706,771,-40.0223,7.0006
-511,253,-40.5872,-8.16364,0,0,0,0,0,0,0,-1,713,771,-40.5872,8.16365
-504,253,-19.317,-4.1723,0,0,0,0,0,0,0,-1,720,771,-19.317,4.1723
-497,253,-21.7737,-1.76837,0,0,0,0,0,0,0,-1,727,771,-21.7738,1.7684
-490,253,-29.7674,0.438354,0,0,0,0,0,0,0,-1,734,771,-29.7674,-0.438339
-483,253,-45.4489,1.59302,0,0,0,0,0,0,0,-1,741,771,-45.4489,-1.59303
-476,253,-64.2688,0.0551758,0,0,0,0,0,0,0,-1,748,771,-64.2688,-0.0552001
-469,253,-65.4258,0.992126,0,0,0,0,0,0,0,-1,755,771,-65.4258,-0.992114
-462,253,-65.2802,0.511719,0,0,0,0,0,0,0,-1,762,771,-65.2802,-0.511743
-455,253,-65.2367,0.700317,0,0,0,0,0,0,0,-1,769,771,-65.2367,-0.700296
-448,253,0,0,0,0,0,0,0,0,0,-1,776,771,0,0
-441,253,0,0,0,0,0,0,0,0,0,-1,783,771,0,0
-434,253,0,0,0,0,0,0,0,0,0,-1,790,771,0,0
-427,253,0,0,0,0,0,0,0,0,0,-1,797,771,0,0
-420,253,0,0,0,0,0,0,0,0,0,-1,804,771,0,0
-413,253,0,0,0,0,0,0,0,0,0,-1,811,771,0,0
-406,253,0,0,0,0,0,0,0,0,0,-1,818,771,0,0
-399,253,0,0,0,0,0,0,0,0,0,-1,825,771,0,0
-392,253,0,0,0,0,0,0,0,0,0,-1,832,771,0,0
-385,253,0,0,0,0,0,0,0,0,0,-1,839,771,0,0
-378,253,0,0,0,0,0,0,0,0,0,-1,846,771,0,0
-371,253,0,0,0,0,0,0,0,0,0,-1,853,771,0,0
-364,253,0,0,0,0,0,0,0,0,0,-1,860,771,0,0
-357,253,0,0,0,0,0,0,0,0,0,-1,867,771,0,0
-350,253,0,0,0,0,0,0,0,0,0,-1,874,771,0,0
-343,253,0,0,0,0,0,0,0,0,0,-1,881,771,0,0
-336,253,0,0,0,0,0,0,0,0,0,-1,888,771,0,0
-329,253,0,0,0,0,0,0,0,0,0,-1,895,771,0,0
-322,253,0,0,0,0,0,0,0,0,0,-1,902,771,0,0
-315,253,0,0,0,0,0,0,0,0,0,-1,909,771,0,0
-308,253,0,0,0,0,0,0,0,0,0,-1,916,771,0,0
-301,253,0,0,0,0,0,0,0,0,0,-1,923,771,0,0
-294,253,0,0,0,0,0,0,0,0,0,-1,930,771,0,0
-287,253,0,0,0,0,0,0,0,0,0,-1,937,771,0,0
-280,253,0,0,0,0,0,0,0,0,0,-1,944,771,0,0
-273,253,0,0,0,0,0,0,0,0,0,-1,951,771,0,0
-266,253,0,0,0,0,0,0,0,0,0,-1,958,771,0,0
-259,253,0,0,0,0,0,0,0,0,0,-1,965,771,0,0
-252,253,0,0,0,0,0,0,0,0,0,-1,972,771,0,0
-245,253,0,0,0,0,0,0,0,0,0,-1,979,771,0,0
-238,253,0,0,0,0,0,0,0,0,0,-1,986,771,0,0
-231,253,0,0,0,0,0,0,0,0,0,-1,993,771,0,0
-224,253,0,0,0,0,0,0,0,0,0,-1,1000,771,0,0
-217,253,0,0,0,0,0,0,0,0,0,-1,1007,771,0,0
-210,253,0,0,0,0,0,0,0,0,0,-1,1014,771,0,0
-203,253,0,0,0,0,0,0,0,0,0,-1,1021,771,0,0
-196,253,0,0,0,0,0,0,0,0,0,-1,1028,771,0,0
-189,253,0,0,0,0,0,0,0,0,0,-1,1035,771,0,0
-182,253,0,0,0,0,0,0,0,0,0,-1,1042,771,0,0
-175,253,0,0,0,0,0,0,0,0,0,-1,1049,771,0,0
-168,253,0,0,0,0,0,0,0,0,0,-1,1056,771,0,0
-161,253,0,0,0,0,0,0,0,0,0,-1,1063,771,0,0
-154,253,0,0,0,0,0,0,0,0,0,-1,1070,771,0,0
-147,253,0,0,0,0,0,0,0,0,0,-1,1077,771,0,0
-140,253,0,0,0,0,0,0,0,0,0,-1,1084,771,0,0
-133,253,0,0,0,0,0,0,0,0,0,-1,1091,771,0,0
-126,253,0,0,0,0,0,0,0,0,0,-1,1098,771,0,0
-119,253,0,0,0,0,0,0,0,0,0,-1,1105,771,0,0
-112,253,0,0,0,0,0,0,0,0,0,-1,1112,771,0,0
-105,253,0,0,0,0,0,0,0,0,0,-1,1119,771,0,0
-98,253,0,0,0,0,0,0,0,0,0,-1,1126,771,0,0
-91,253,0,0,0,0,0,0,0,0,0,-1,1133,771,0,0
-84,253,0,0,0,0,0,0,0,0,0,-1,1140,771,0,0
-77,253,0,0,0,0,0,0,0,0,0,-1,1147,771,0,0
-70,253,0,0,0,0,0,0,0,0,0,-1,1154,771,0,0
-63,253,0,0,0,0,0,0,0,0,0,-1,1161,771,0,0
-56,253,0,0,0,0,0,0,0,0,0,-1,1168,771,0,0
-49,253,0,0,0,0,0,0,0,0,0,-1,1175,771,0,0
-42,253,0,0,0,0,0,0,0,0,0,-1,1182,771,0,0
-35,253,0,0,0,0,0,0,0,0,0,-1,1189,771,0,0
-28,253,0,0,0,0,0,0,0,0,0,-1,1196,771,0,0
-21,253,0,0,0,0,0,0,0,0,0,-1,1203,771,0,0
-14,253,0,0,0,0,0,0,0,0,0,-1,1210,771,0,0
-7,253,0,0,0,0,0,0,0,0,0,-1,1217,771,0,0
0,253,0,0,0,0,0,0,0,0,0,-1,1224,771,0,0
7,253,0,0,0,0,0,0,0,0,0,-1,1231,771,0,0
14,253,0,0,0,0,0,0,0,0,0,-1,1238,771,0,0
21,253,0,0,0,0,0,0,0,0,0,-1,1245,771,0,0
28,253,0,0,0,0,0,0,0,0,0,-1,1252,771,0,0
35,253,0,0,0,0,0,0,0,0,0,-1,1259,771,0,0
42,253,0,0,0,0,0,0,0,0,0,-1,1266,771,0,0
49,253,0,0,0,0,0,0,0,0,0,-1,1273,771,0,0
56,253,0,0,0,0,0,0,0,0,0,-1,1280,771,0,0
63,253,0,0,0,0,0,0,0,0,0,-1,1287,771,0,0
70,253,0,0,0,0,0,0,0,0,0,-1,1294,771,0,0
77,253,0,0,0,0,0,0,0,0,0,-1,1301,771,0,0
84,253,0,0,0,0,0,0,0,0,0,-1,1308,771,0,0
91,253,0,0,0,0,0,0,0,0,0,-1,1315,771,0,0
98,253,0,0,0,0,0,0,0,0,0,-1,1322,771,0,0
105,253,0,0,0,0,0,0,0,0,0,-1,1329,771,0,0
112,253,0,0,0,0,0,0,0,0,0,-1,1336,771,0,0
119,253,0,0,0,0,0,0,0,0,0,-1,1343,771,0,0
126,253,0,0,0,0,0,0,0,0,0,-1,1350,771,0,0
133,253,0,0,0,0,0,0,0,0,0,-1,1357,771,0,0
140,253,0,0,0,0,0,0,0,0,0,-1,1364,771,0,0
147,253,0,0,0,0,0,0,0,0,0,-1,1371,771,0,0
154,253,0,0,0,0,0,0,0,0,0,-1,1378,771,0,0
161,253,0,0,0,0,0,0,0,0,0,-1,1385,771,0,0
168,253,0,0,0,0,0,0,0,0,0,-1,1392,771,0,0
175,253,0,0,0,0,0,0,0,0,0,-1,1399,771,0,0
182,253,0,0,0,0,0,0,0,0,0,-1,1406,771,0,0
189,253,0,0,0,0,0,0,0,0,0,-1,1413,771,0,0
196,253,0,0,0,0,0,0,0,0,0,-1,1420,771,0,0
203,253,0,0,0,0,0,0,0,0,0,-1,1427,771,0,0
210,253,0,0,0,0,0,0,0,0,0,-1,1434,771,0,0
217,253,0,0,0,0,0,0,0,0,0,-1,1441,771,0,0
224,253,0,0,0,0,0,0,0,0,0,-1,1448,771,0,0
231,253,0,0,0,0,0,0,0,0,0,-1,1455,771,0,0
238,253,0,0,0,0,0,0,0,0,0,-1,1462,771,0,0
245,253,0,0,0,0,0,0,0,0,0,-1,1469,771,0,0
252,253,0,0,0,0,0,0,0,0,0,-1,1476,771,0,0
259,253,0,0,0,0,0,0,0,0,0,-1,1483,771,0,0
266,253,0,0,0,0,0,0,0,0,0,-1,1490,771,0,0
273,253,0,0,0,0,0,0,0,0,0,-1,1497,771,0,0
280,253,0,0,0,0,0,0,0,0,0,-1,1504,771,0,0
287,253,0,0,0,0,0,0,0,0,0,-1,1511,771,0,0
294,253,0,0,0,0,0,0,0,0,0,-1,1518,771,0,0
301,253,0,0,0,0,0,0,0,0,0,-1,1525,771,0,0
308,253,0,0,0,0,0,0,0,0,0,-1,1532,771,0,0
315,253,0,0,0,0,0,0,0,0,0,-1,1539,771,0,0
322,253,0,0,0,0,0,0,0,0,0,-1,1546,771,0,0
329,253,0,0,0,0,0,0,0,0,0,-1,1553,771,0,0
336,253,0,0,0,0,0,0,0,0,0,-1,1560,771,0,0
343,253,0,0,0,0,0,0,0,0,0,-1,1567,771,0,0
350,253,0,0,0,0,0,0,0,0,0,-1,1574,771,0,0
357,253,0,0,0,0,0,0,0,0,0,-1,1581,771,0,0
364,253,0,0,0,0,0,0,0,0,0,-1,1588,771,0,0
371,253,0,0,0,0,0,0,0,0,0,-1,1595,771,0,0
378,253,0,0,0,0,0,0,0,0,0,-1,1602,771,0,0
385,253,0,0,0,0,0,0,0,0,0,-1,1609,771,0,0
392,253,0,0,0,0,0,0,0,0,0,-1,1616,771,0,0
399,253,0,0,0,0,0,0,0,0,0,-1,1623,771,0,0
406,253,0,0,0,0,0,0,0,0,0,-1,1630,771,0,0
413,253,0,0,0,0,0,0,0,0,0,-1,1637,771,0,0
420,253,0,0,0,0,0,0,0,0,0,-1,1644,771,0,0
427,253,0,0,0,0,0,0,0,0,0,-1,1651,771,0,0
434,253,0,0,0,0,0,0,0,0,0,-1,1658,771,0,0
441,253,0,0,0,0,0,0,0,0,0,-1,1665,771,0,0
448,253,0,0,0,0,0,0,0,0,0,-1,1672,771,0,0
455,253,0,0,0,0,0,0,0,0,0,-1,1679,771,0,0
462,253,0,0,0,0,0,0,0,0,0,-1,1686,771,0,0
469,253,0,0,0,0,0,0,0,0,0,-1,1693,771,0,0
476,253,0,0,0,0,0,0,0,0,0,-1,1700,771,0,0
483,253,0,0,0,0,0,0,0,0,0,-1,1707,771,0,0
490,253,0,0,0,0,0,0,0,0,0,-1,1714,771,0,0
497,253,0,0,0,0,0,0,0,0,0,-1,1721,771,0,0
504,253,0,0,0,0,0,0,0,0,0,-1,1728,771,0,0
511,253,0,0,0,0,0,0,0,0,0,-1,1735,771,0,0
518,253,0,0,0,0,0,0,0,0,0,-1,1742,771,0,0
525,253,0,0,0,0,0,0,0,0,0,-1,1749,771,0,0
532,253,0,0,0,0,0,0,0,0,0,-1,1756,771,0,0
539,253,0,0,0,0,0,0,0,0,0,-1,1763,771,0,0
546,253,0,0,0,0,0,0,0,0,0,-1,1770,771,0,0
553,253,0,0,0,0,0,0,0,0,0,-1,1777,771,0,0
560,253,0,0,0,0,0,0,0,0,0,-1,1784,771,0,0
567,253,0,0,0,0,0,0,0,0,0,-1,1791,771,0,0
574,253,82.4137,2.25098,0,0,0,0,0,0,0,-1,1798,771,82.4137,-2.25096
581,253,82.4049,2.35815,0,0,0,0,0,0,0,-1,1805,771,82.4049,-2.35818
588,253,82.6655,2.24176,0,0,0,0,0,0,0,-1,1812,771,82.6655,-2.24175
595,253,83.0232,2.31323,0,0,0,0,0,0,0,-1,1819,771,83.0232,-2.31321
602,253,66.4502,2.6098,0,0,0,0,0,0,0,-1,1826,771,66.4502,-2.60979
609,253,65.2542,3.18195,0,0,0,0,0,0,0,-1,1833,771,65.2541,-3.18193
616,253,58.416,2.69031,0,0,0,0,0,0,0,-1,1840,771,58.4161,-2.69031
623,253,48.8328,3.01001,0,0,0,0,0,0,0,-1,1847,771,48.8328,-3.01002
630,253,33.561,2.96838,0,0,0,0,0,0,0,-1,1854,771,33.561,-2.96836
637,253,22.3192,-0.604004,0,0,0,0,0,0,0,-1,1861,771,22.3192,0.603986
644,253,48.2843,-5.22784,0,0,0,0,0,0,0,-1,1868,771,48.2843,5.22783
651,253,57.1976,-6.11847,0,0,0,0,0,0,0,-1,1875,771,57.1976,6.11847
658,253,56.4944,-4.98999,0.000105236,0.000623786,-0.000920426,0.00132076,-0.000591735,-0.922686,0.0011306,0.0337395,1882,771,56.4944,4.98999
665,253,56.249,-4.11816,-0.000101893,0.000451004,-0.000990069,0.0012025,-0.000853385,-0.921541,0.00119265,0.0225249,1889,771,56.2491,4.11815
672,253,56.1866,-3.17926,0.00012201,0.000506815,-0.000907016,0.00124161,-0.000612786,-0.889912,0.00109096,0.0164574,1896,771,56.1866,3.17926
679,253,56.1653,-2.10864,0.000420323,0.000715954,-0.000531308,0.00111963,1.66513e-05,-0.921072,0.000740929,0.0137319,1903,771,56.1653,2.10865
686,253,56.0411,-1.06317,0.000852446,0.00122869,-2.99463e-05,0.00123106,0.000850077,-1.49187,0.000727747,0.0272904,1910,771,56.0412,1.0632
693,253,55.9363,-0.116333,0.00134382,0.00191898,0.000573905,0.00227333,0.000989472,1.01766,0.00131617,0.025512,1917,771,55.9363,0.116341
700,253,55.8832,0.857239,0.00191617,0.00272161,0.0013463,0.00372413,0.000913653,0.930729,0.00224117,0.017239,1924,771,55.8831,-0.857223
707,253,55.8772,1.87109,0.0024519,0.0037976,0.00230101,0.00552212,0.000727384,0.92764,0.0034645,0.0169935,1931,771,55.8772,-1.8711
714,253,55.847,2.83289,0.00271577,0.00491269,0.00340846,0.00739533,0.000233137,0.941281,0.00485437,0.0289078,1938,771,55.847,-2.83289
721,253,55.7581,3.79803,0.00309524,0.00641041,0.00490374,0.00992914,-0.000423494,0.948381,0.00676501,0.0472732,1945,771,55.7581,-3.79805
728,253,55.7224,4.81866,0,0,0,0,0,0,0,-1,1952,771,55.7224,-4.81867
735,253,34.5735,6.15118,0,0,0,0,0,0,0,-1,1959,771,34.5734,-6.1512
742,253,31.0571,5.7337,0,0,0,0,0,0,0,-1,1966,771,31.0571,-5.73373
749,253,33.7754,3.21533,0,0,0,0,0,0,0,-1,1973,771,33.7754,-3.21533
756,253,0,0,0,0,0,0,0,0,0,-1,1980,771,0,0
763,253,0,0,0,0,0,0,0,0,0,-1,1987,771,0,0
770,253,0,0,0,0,0,0,0,0,0,-1,1994,771,0,0
777,253,0,0,0,0,0,0,0,0,0,-1,2001,771,0,0
784,253,0,0,0,0,0,0,0,0,0,-1,2008,771,0,0
791,253,0,0,0,0,0,0,0,0,0,-1,2015,771,0,0
798,253,0,0,0,0,0,0,0,0,0,-1,2022,771,0,0
805,253,0,0,0,0,0,0,0,0,0,-1,2029,771,0,0
812,253,0,0,0,0,0,0,0,0,0,-1,2036,771,0,0
-700,246,0,0,0,0,0,0,0,0,0,-1,524,778,0,0
-693,246,0,0,0,0,0,0,0,0,0,-1,531,778,0,0
-686,246,0,0,0,0,0,0,0,0,0,-1,538,778,0,0
-679,246,0,0,0,0,0,0,0,0,0,-1,545,778,0,0
-672,246,0,0,0,0,0,0,0,0,0,-1,552,778,0,0
-665,246,0,0,0,0,0,0,0,0,0,-1,559,778,0,0
-658,246,0,0,0,0,0,0,0,0,0,-1,566,778,0,0
-651,246,0,0,0,0,0,0,0,0,0,-1,573,778,0,0
-644,246,0,0,0,0,0,0,0,0,0,-1,580,778,0,0
-637,246,-24.1234,0.130432,0,0,0,0,0,0,0,-1,587,778,-24.1234,-0.130438
-630,246,-24.0781,1.38916,0,0,0,0,0,0,0,-1,594,778,-24.0781,-1.38913
-623,246,-23.9183,2.49573,0,0,0,0,0,0,0,-1,601,778,-23.9183,-2.49575
-616,246,-26.8182,2.0705,0,0,0,0,0,0,0,-1,608,778,-26.8182,-2.07052
-609,246,-26.0615,1.16388,0,0,0,0,0,0,0,-1,615,778,-26.0615,-1.16388
-602,246,-40.0359,5.48029,0,0,0,0,0,0,0,-1,622,778,-40.0359,-5.48028
-595,246,-40.0532,4.42163,0.00725692,0.000573405,-0.00199802,0.00780868,2.16532e-05,-0.269435,0.00519858,0.0454165,629,778,-40.0531,-4.42165
-588,246,-40.0803,3.31415,0.00630926,0.0011068,-0.00195469,0.00696183,0.000454225,-0.322214,0.00449747,0.0334676,636,778,-40.0803,-3.31415
-581,246,-40.181,2.33038,0.00512171,0.00137153,-0.00156211,0.00568714,0.000806098,-0.347296,0.00355334,0.0206783,643,778,-40.181,-2.33038
-574,246,-40.1557,1.20782,0.00390723,0.00145996,-0.000950288,0.00423289,0.00113429,-0.330157,0.00253006,0.0201968,650,778,-40.1557,-1.20784
-567,246,-40.2443,0.213501,0.00261352,0.00141477,-0.000336033,0.00270129,0.001327,-0.255488,0.00155967,0.0254955,657,778,-40.2443,-0.213522
-560,246,-40.3622,-0.736023,0.00137795,0.00135126,0.000200621,0.00156567,0.00116354,0.752192,0.000938894,0.0202239,664,778,-40.3622,0.736009
-553,246,-40.4255,-1.71649,7.7059e-05,0.00136966,0.000606633,0.00160976,-0.000163041,1.19392,0.00113145,0.0135397,671,778,-40.4255,1.71649
-546,246,-40.5073,-2.7218,-0.00118684,0.00115392,0.00088518,0.00145096,-0.00148388,1.24703,0.00169447,0.0116741,678,778,-40.5073,2.72179
-539,246,-40.5848,-3.77667,-0.00256724,0.00131047,0.00104947,0.00157628,-0.00283305,1.32273,0.00257997,0.0146466,685,778,-40.5848,3.77667
-532,246,-40.6987,-4.76208,-0.00308434,0.00179133,0.000629816,0.00187137,-0.00316438,1.44439,0.00293917,0.0328812,692,778,-40.6986,4.76206
-525,246,-40.9252,-5.84344,0,0,0,0,0,0,0,-1,699,778,-40.9252,5.84342
-518,246,-41.101,-7.33972,0,0,0,0,0,0,0,-1,706,778,-41.101,7.33972
-511,246,-28.5886,-5.38635,0,0,0,0,0,0,0,-1,713,778,-28.5886,5.38633
-504,246,-20.0047,-2.88214,0,0,0,0,0,0,0,-1,720,778,-20.0047,2.88216
-497,246,-29.4669,1.82684,0,0,0,0,0,0,0,-1,727,778,-29.4669,-1.82687
-490,246,-40.4299,1.04309,0,0,0,0,0,0,0,-1,734,778,-40.4299,-1.04308
-483,246,-55.5514,-0.0795898,0,0,0,0,0,0,0,-1,741,778,-55.5514,0.0795595
-476,246,-65.7348,0.67572,0,0,0,0,0,0,0,-1,748,778,-65.7348,-0.675727
-469,246,-65.5509,0.923218,0,0,0,0,0,0,0,-1,755,778,-65.5509,-0.923236
-462,246,-65.6207,1.01447,0,0,0,0,0,0,0,-1,762,778,-65.6207,-1.01449
-455,246,0,0,0,0,0,0,0,0,0,-1,769,778,0,0
-448,246,0,0,0,0,0,0,0,0,0,-1,776,778,0,0
-441,246,0,0,0,0,0,0,0,0,0,-1,783,778,0,0
-434,246,0,0,0,0,0,0,0,0,0,-1,790,778,0,0
-427,246,0,0,0,0,0,0,0,0,0,-1,797,778,0,0
-420,246,0,0,0,0,0,0,0,0,0,-1,804,778,0,0
-413,246,0,0,0,0,0,0,0,0,0,-1,811,778,0,0
-406,246,0,0,0,0,0,0,0,0,0,-1,818,778,0,0
-399,246,0,0,0,0,0,0,0,0,0,-1,825,778,0,0
-392,246,0,0,0,0,0,0,0,0,0,-1,832,778,0,0
-385,246,0,0,0,0,0,0,0,0,0,-1,839,778,0,0
-378,246,0,0,0,0,0,0,0,0,0,-1,846,778,0,0
-371,246,0,0,0,0,0,0,0,0,0,-1,853,778,0,0
-364,246,0,0,0,0,0,0,0,0,0,-1,860,778,0,0
-357,246,0,0,0,0,0,0,0,0,0,-1,867,778,0,0
-350,246,0,0,0,0,0,0,0,0,0,-1,874,778,0,0
-343,246,0,0,0,0,0,0,0,0,0,-1,881,778,0,0
-336,246,0,0,0,0,0,0,0,0,0,-1,888,778,0,0
-329,246,0,0,0,0,0,0,0,0,0,-1,895,778,0,0
-322,246,0,0,0,0,0,0,0,0,0,-1,902,778,0,0
-315,246,0,0,0,0,0,0,0,0,0,-1,909,778,0,0
-308,246,0,0,0,0,0,0,0,0,0,-1,916,778,0,0
-301,246,0,0,0,0,0,0,0,0,0,-1,923,778,0,0
-294,246,0,0,0,0,0,0,0,0,0,-1,930,778,0,0
-287,246,0,0,0,0,0,0,0,0,0,-1,937,778,0,0
-280,246,0,0,0,0,0,0,0,0,0,-1,944,778,0,0
-273,246,0,0,0,0,0,0,0,0,0,-1,951,778,0,0
-266,246,0,0,0,0,0,0,0,0,0,-1,958,778,0,0
-259,246,0,0,0,0,0,0,0,0,0,-1,965,778,0,0
-252,246,0,0,0,0,0,0,0,0,0,-1,972,778,0,0
-245,246,0,0,0,0,0,0,0,0,0,-1,979,778,0,0
-238,246,0,0,0,0,0,0,0,0,0,-1,986,778,0,0
-231,246,0,0,0,0,0,0,0,0,0,-1,993,778,0,0
-224,246,0,0,0,0,0,0,0,0,0,-1,1000,778,0,0
-217,246,0,0,0,0,0,0,0,0,0,-1,1007,778,0,0
-210,246,0,0,0,0,0,0,0,0,0,-1,1014,778,0,0
-203,246,0,0,0,0,0,0,0,0,0,-1,1021,778,0,0
-196,246,0,0,0,0,0,0,0,0,0,-1,1028,778,0,0
-189,246,0,0,0,0,0,0,0,0,0,-1,1035,778,0,0
-182,246,0,0,0,0,0,0,0,0,0,-1,1042,778,0,0
-175,246,0,0,0,0,0,0,0,0,0,-1,1049,778,0,0
-168,246,0,0,0,0,0,0,0,0,0,-1,1056,778,0,0
-161,246,0,0,0,0,0,0,0,0,0,-1,1063,778,0,0
-154,246,0,0,0,0,0,0,0,0,0,-1,1070,778,0,0
-147,246,0,0,0,0,0,0,0,0,0,-1,1077,778,0,0
-140,246,0,0,0,0,0,0,0,0,0,-1,1084,778,0,0
-133,246,0,0,0,0,0,0,0,0,0,-1,1091,778,0,0
-126,246,0,0,0,0,0,0,0,0,0,-1,1098,778,0,0
-119,246,0,0,0,0,0,0,0,0,0,-1,1105,778,0,0
-112,246,0,0,0,0,0,0,0,0,0,-1,1112,778,0,0
-105,246,0,0,0,0,0,0,0,0,0,-1,1119,778,0,0
-98,246,0,0,0,0,0,0,0,0,0,-1,1126,778,0,0
-91,246,0,0,0,0,0,0,0,0,0,-1,1133,778,0,0
-84,246,0,0,0,0,0,0,0,0,0,-1,1140,778,0,0
-77,246,0,0,0,0,0,0,0,0,0,-1,1147,778,0,0
-70,246,0,0,0,0,0,0,0,0,0,-1,1154,778,0,0
-63,246,0,0,0,0,0,0,0,0,0,-1,1161,778,0,0
-56,246,0,0,0,0,0,0,0,0,0,-1,1168,778,0,0
-49,246,0,0,0,0,0,0,0,0,0,-1,1175,778,0,0
-42,246,0,0,0,0,0,0,0,0,0,-1,1182,778,0,0
-35,246,0,0,0,0,0,0,0,0,0,-1,1189,778,0,0
-28,246,0,0,0,0,0,0,0,0,0,-1,1196,778,0,0
-21,246,0,0,0,0,0,0,0,0,0,-1,1203,778,0,0
-14,246,0,0,0,0,0,0,0,0,0,-1,1210,778,0,0
-7,246,0,0,0,0,0,0,0,0,0,-1,1217,778,0,0
0,246,0,0,0,0,0,0,0,0,0,-1,1224,778,0,0
7,246,0,0,0,0,0,0,0,0,0,-1,1231,778,0,0
14,246,0,0,0,0,0,0,0,0,0,-1,1238,778,0,0
21,246,0,0,0,0,0,0,0,0,0,-1,1245,778,0,0
28,246,0,0,0,0,0,0,0,0,0,-1,1252,778,0,0
35,246,0,0,0,0,0,0,0,0,0,-1,1259,778,0,0
42,246,0,0,0,0,0,0,0,0,0,-1,1266,778,0,0
49,246,0,0,0,0,0,0,0,0,0,-1,1273,778,0,0
56,246,0,0,0,0,0,0,0,0,0,-1,1280,778,0,0
63,246,0,0,0,0,0,0,0,0,0,-1,1287,778,0,0
70,246,0,0,0,0,0,0,0,0,0,-1,1294,778,0,0
77,246,0,0,0,0,0,0,0,0,0,-1,1301,778,0,0
84,246,0,0,0,0,0,0,0,0,0,-1,1308,778,0,0
91,246,0,0,0,0,0,0,0,0,0,-1,1315,778,0,0
98,246,0,0,0,0,0,0,0,0,0,-1,1322,778,0,0
105,246,0,0,0,0,0,0,0,0,0,-1,1329,778,0,0
112,246,0,0,0,0,0,0,0,0,0,-1,1336,778,0,0
119,246,0,0,0,0,0,0,0,0,0,-1,1343,778,0,0
126,246,0,0,0,0,0,0,0,0,0,-1,1350,778,0,0
133,246,0,0,0,0,0,0,0,0,0,-1,1357,778,0,0
140,246,0,0,0,0,0,0,0,0,0,-1,1364,778,0,0
147,246,0,0,0,0,0,0,0,0,0,-1,1371,778,0,0
154,246,0,0,0,0,0,0,0,0,0,-1,1378,778,0,0
161,246,0,0,0,0,0,0,0,0,0,-1,1385,778,0,0
168,246,0,0,0,0,0,0,0,0,0,-1,1392,778,0,0
175,246,0,0,0,0,0,0,0,0,0,-1,1399,778,0,0
182,246,0,0,0,0,0,0,0,0,0,-1,1406,778,0,0
189,246,0,0,0,0,0,0,0,0,0,-1,1413,778,0,0
196,246,0,0,0,0,0,0,0,0,0,-1,1420,778,0,0
203,246,0,0,0,0,0,0,0,0,0,-1,1427,778,0,0
210,246,0,0,0,0,0,0,0,0,0,-1,1434,778,0,0
217,246,0,0,0,0,0,0,0,0,0,-1,1441,778,0,0
224,246,0,0,0,0,0,0,0,0,0,-1,1448,778,0,0
231,246,0,0,0,0,0,0,0,0,0,-1,1455,778,0,0
238,246,0,0,0,0,0,0,0,0,0,-1,1462,778,0,0
245,246,0,0,0,0,0,0,0,0,0,-1,1469,778,0,0
252,246,0,0,0,0,0,0,0,0,0,-1,1476,778,0,0
259,246,0,0,0,0,0,0,0,0,0,-1,1483,778,0,0
266,246,0,0,0,0,0,0,0,0,0,-1,1490,778,0,0
273,246,0,0,0,0,0,0,0,0,0,-1,1497,778,0,0
280,246,0,0,0,0,0,0,0,0,0,-1,1504,778,0,0
287,246,0,0,0,0,0,0,0,0,0,-1,1511,778,0,0
294,246,0,0,0,0,0,0,0,0,0,-1,1518,778,0,0
301,246,0,0,0,0,0,0,0,0,0,-1,1525,778,0,0
308,246,0,0,0,0,0,0,0,0,0,-1,1532,778,0,0
315,246,0,0,0,0,0,0,0,0,0,-1,1539,778,0,0
322,246,0,0,0,0,0,0,0,0,0,-1,1546,778,0,0
329,246,0,0,0,0,0,0,0,0,0,-1,1553,778,0,0
336,246,0,0,0,0,0,0,0,0,0,-1,1560,778,0,0
343,246,0,0,0,0,0,0,0,0,0,-1,1567,778,0,0
350,246,0,0,0,0,0,0,0,0,0,-1,1574,778,0,0
357,246,0,0,0,0,0,0,0,0,0,-1,1581,778,0,0
364,246,0,0,0,0,0,0,0,0,0,-1,1588,778,0,0
371,246,0,0,0,0,0,0,0,0,0,-1,1595,778,0,0
378,246,0,0,0,0,0,0,0,0,0,-1,1602,778,0,0
385,246,0,0,0,0,0,0,0,0,0,-1,1609,778,0,0
392,246,0,0,0,0,0,0,0,0,0,-1,1616,778,0,0
399,246,0,0,0,0,0,0,0,0,0,-1,1623,778,0,0
406,246,0,0,0,0,0,0,0,0,0,-1,1630,778,0,0
413,246,0,0,0,0,0,0,0,0,0,-1,1637,778,0,0
420,246,0,0,0,0,0,0,0,0,0,-1,1644,778,0,0
427,246,0,0,0,0,0,0,0,0,0,-1,1651,778,0,0
434,246,0,0,0,0,0,0,0,0,0,-1,1658,778,0,0
441,246,0,0,0,0,0,0,0,0,0,-1,1665,778,0,0
448,246,0,0,0,0,0,0,0,0,0,-1,1672,778,0,0
455,246,0,0,0,0,0,0,0,0,0,-1,1679,778,0,0
462,246,0,0,0,0,0,0,0,0,0,-1,1686,778,0,0
469,246,0,0,0,0,0,0,0,0,0,-1,1693,778,0,0
476,246,0,0,0,0,0,0,0,0,0,-1,1700,778,0,0
483,246,0,0,0,0,0,0,0,0,0,-1,1707,778,0,0
490,246,0,0,0,0,0,0,0,0,0,-1,1714,778,0,0
497,246,0,0,0,0,0,0,0,0,0,-1,1721,778,0,0
504,246,0,0,0,0,0,0,0,0,0,-1,1728,778,0,0
511,246,0,0,0,0,0,0,0,0,0,-1,1735,778,0,0
518,246,0,0,0,0,0,0,0,0,0,-1,1742,778,0,0
525,246,0,0,0,0,0,0,0,0,0,-1,1749,778,0,0
532,246,0,0,0,0,0,0,0,0,0,-1,1756,778,0,0
539,246,0,0,0,0,0,0,0,0,0,-1,1763,778,0,0
546,246,0,0,0,0,0,0,0,0,0,-1,1770,778,0,0
553,246,0,0,0,0,0,0,0,0,0,-1,1777,778,0,0
560,246,0,0,0,0,0,0,0,0,0,-1,1784,778,0,0
567,246,0,0,0,0,0,0,0,0,0,-1,1791,778,0,0
574,246,0,0,0,0,0,0,0,0,0,-1,1798,778,0,0
581,246,82.3463,2.44092,0.0110446,-0.00837442,0.00444922,0.0120155,-0.00934527,0.214839,0.0123647,0.039236,1805,778,82.3463,-2.44091
588,246,82.4681,2.26019,0.010304,-0.00641318,0.00514025,0.0117581,-0.00786724,0.275675,0.0114047,0.0461403,1812,778,82.4682,-2.26021
595,246,82.699,2.33411,0.00913559,-0.00447334,0.00508692,0.0108269,-0.00616461,0.320977,0.00993236,0.0476382,1819,778,82.699,-2.33411
602,246,82.5846,2.70502,0,0,0,0,0,0,0,-1,1826,778,82.5846,-2.70499
609,246,65.04,3.03278,0,0,0,0,0,0,0,-1,1833,778,65.04,-3.03277
616,246,60.4568,3.98492,0,0,0,0,0,0,0,-1,1840,778,60.4568,-3.98491
623,246,55.8947,3.95953,0,0,0,0,0,0,0,-1,1847,778,55.8947,-3.95952
630,246,49.5938,1.99902,0,0,0,0,0,0,0,-1,1854,778,49.5937,-1.999
637,246,29.5785,0.837585,0,0,0,0,0,0,0,-1,1861,778,29.5785,-0.837606
644,246,28.1232,-1.43188,0,0,0,0,0,0,0,-1,1868,778,28.1232,1.43188
651,246,48.5865,-4.32922,0,0,0,0,0,0,0,-1,1875,778,48.5865,4.32921
658,246,57.511,-4.83441,0,0,0,0,0,0,0,-1,1882,778,57.511,4.8344
665,246,57.2655,-4.07825,-0.000307345,0.000563619,-0.000975122,0.00119608,-0.000939808,-0.995406,0.00123611,0.0335248,1889,778,57.2655,4.07827
672,246,57.2532,-3.09808,-0.000143218,0.000512725,-0.000973519,0.00121203,-0.000842526,-0.947873,0.00119258,0.0217159,1896,778,57.2531,3.09809
679,246,57.1913,-2.0415,0.000110094,0.000428806,-0.000726417,0.00101314,-0.000474241,-0.893374,0.000877327,0.0224623,1903,778,57.1913,2.04151
686,246,57.1257,-0.989136,0.000507264,0.000800161,-0.000349941,0.00103306,0.000274363,-0.983573,0.000617902,0.0233559,1910,778,57.1257,0.989153
693,246,57.0378,-0.0488281,0.000961657,0.00144081,0.000159207,0.00148888,0.000913582,1.27753,0.000866971,0.0178508,1917,778,57.0379,0.048816
700,246,56.9639,0.908142,0.00144586,0.00211345,0.000840062,0.00268361,0.000875709,0.974506,0.00158023,0.0147648,1924,778,56.9639,-0.908138
707,246,56.8921,1.94531,0.00192572,0.0030696,0.00173023,0.00431997,0.000675349,0.945023,0.00268334,0.0144782,1931,778,56.8921,-1.9453
714,246,56.8278,2.97125,0.0021865,0.00404353,0.00275118,0.00601866,0.00021137,0.948145,0.00394387,0.0154522,1938,778,56.8278,-2.97125
721,246,56.7029,3.9054,0.00245507,0.00515817,0.00405581,0.0080817,-0.000468459,0.94623,0.00555055,0.0213105,1945,778,56.7029,-3.90541
728,246,56.6328,5.26379,0.00272076,0.00600748,0.00564808,0.0102464,-0.00151818,0.926969,0.00738918,0.0426155,1952,778,56.6328,-5.26377
735,246,56.6824,6.71783,0,0,0,0,0,0,0,-1,1959,778,56.6823,-6.71782
742,246,31.7356,6.70013,0,0,0,0,0,0,0,-1,1966,778,31.7356,-6.70011
749,246,32.3883,7.69324,0,0,0,0,0,0,0,-1,1973,778,32.3883,-7.69322
756,246,33.6919,3.45264,0,0,0,0,0,0,0,-1,1980,778,33.6919,-3.45262
763,246,0,0,0,0,0,0,0,0,0,-1,1987,778,0,0
770,246,0,0,0,0,0,0,0,0,0,-1,1994,778,0,0
777,246,0,0,0,0,0,0,0,0,0,-1,2001,778,0,0
784,246,0,0,0,0,0,0,0,0,0,-1,2008,778,0,0
791,246,0,0,0,0,0,0,0,0,0,-1,2015,778,0,0
798,246,0,0,0,0,0,0,0,0,0,-1,2022,778,0,0
805,246,0,0,0,0,0,0,0,0,0,-1,2029,778,0,0
812,246,0,0,0,0,0,0,0,0,0,-1,2036,778,0,0
-700,239,0,0,0,0,0,0,0,0,0,-1,524,785,0,0
-693,239,0,0,0,0,0,0,0,0,0,-1,531,785,0,0
-686,239,0,0,0,0,0,0,0,0,0,-1,538,785,0,0
-679,239,0,0,0,0,0,0,0,0,0,-1,545,785,0,0
-672,239,0,0,0,0,0,0,0,0,0,-1,552,785,0,0
-665,239,0,0,0,0,0,0,0,0,0,-1,559,785,0,0
-658,239,0,0,0,0,0,0,0,0,0,-1,566,785,0,0
-651,239,0,0,0,0,0,0,0,0,0,-1,573,785,0,0
-644,239,0,0,0,0,0,0,0,0,0,-1,580,785,0,0
-637,239,-23.2709,0.465088,0,0,0,0,0,0,0,-1,587,785,-23.271,-0.465116
-630,239,-23.4006,0.956299,0,0,0,0,0,0,0,-1,594,785,-23.4005,-0.956285
-623,239,-30.6328,2.52185,0,0,0,0,0,0,0,-1,601,785,-30.6328,-2.52183
-616,239,-29.1425,1.42139,0,0,0,0,0,0,0,-1,608,785,-29.1425,-1.42139
-609,239,-27.8569,0.322937,0,0,0,0,0,0,0,-1,615,785,-27.857,-0.322963
-602,239,-41.0253,5.64032,0,0,0,0,0,0,0,-1,622,785,-41.0254,-5.64031
-595,239,-41.0128,4.56995,0.00406646,0.000124486,0.000172714,0.00407401,0.000116933,0.0437025,0.00267788,0.0466198,629,785,-41.0128,-4.56993
-588,239,-41.0431,3.49231,0.00407903,0.00079578,-0.000434797,0.00413563,0.000739176,-0.129456,0.00254671,0.0221252,636,785,-41.0431,-3.49233
-581,239,-41.2036,2.3656,0.00365941,0.00119014,-0.000508808,0.00376015,0.00108941,-0.195452,0.002234,0.0114468,643,785,-41.2036,-2.3656
-574,239,-41.2186,1.29541,0.00302928,0.00140874,-0.000267931,0.00307243,0.00136559,-0.159675,0.00177751,0.0126485,650,785,-41.2186,-1.29538
-567,239,-41.2604,0.311218,0.00216145,0.00153278,8.61693e-05,0.00217305,0.00152118,0.13378,0.00128764,0.018659,657,785,-41.2604,-0.311204
-560,239,-41.3765,-0.649841,0.00125539,0.00171604,0.00054086,0.00207357,0.000897853,0.986695,0.00120076,0.0197775,664,785,-41.3765,0.649862
-553,239,-41.4578,-1.66187,6.00282e-05,0.00199571,0.000958199,0.0023898,-0.000334064,1.1806,0.00171543,0.0157278,671,785,-41.4578,1.66186
-546,239,-41.475,-2.68445,-0.00143665,0.0019508,0.00129789,0.0023909,-0.00187675,1.24387,0.00246988,0.0190353,678,785,-41.475,2.68443
-539,239,-41.6925,-3.74506,-0.00302087,0.00238696,0.00156076,0.00280508,-0.00343899,1.30905,0.00361121,0.0442957,685,785,-41.6925,3.74504
-532,239,-41.7113,-4.81372,0,0,0,0,0,0,0,-1,692,785,-41.7113,4.81372
-525,239,-40.6288,-5.58417,0,0,0,0,0,0,0,-1,699,785,-40.6288,5.58416
-518,239,-40.5128,-6.22827,0,0,0,0,0,0,0,-1,706,785,-40.5128,6.22828
-511,239,-20.9849,-2.09235,0,0,0,0,0,0,0,-1,713,785,-20.9848,2.09234
-504,239,-25.5015,2.00421,0,0,0,0,0,0,0,-1,720,785,-25.5015,-2.00422
-497,239,-40.2453,1.4447,0,0,0,0,0,0,0,-1,727,785,-40.2453,-1.4447
-490,239,-55.7633,-0.30426,0,0,0,0,0,0,0,-1,734,785,-55.7633,0.304271
-483,239,-65.8531,0.840759,0,0,0,0,0,0,0,-1,741,785,-65.8531,-0.840775
-476,239,-65.7748,0.67688,0.00351645,0.00714396,0.00439461,0.0100844,0.000576019,0.981112,0.00653938,0.0445712,748,785,-65.7748,-0.676891
-469,239,-65.6976,0.837769,0.00676315,0.00720054,0.00641046,0.013396,0.000567651,0.802449,0.00874762,0.0419716,755,785,-65.6976,-0.837742
-462,239,-65.788,0.863403,0,0,0,0,0,0,0,-1,762,785,-65.788,-0.863434
-455,239,0,0,0,0,0,0,0,0,0,-1,769,785,0,0
-448,239,0,0,0,0,0,0,0,0,0,-1,776,785,0,0
-441,239,0,0,0,0,0,0,0,0,0,-1,783,785,0,0
-434,239,0,0,0,0,0,0,0,0,0,-1,790,785,0,0
-427,239,0,0,0,0,0,0,0,0,0,-1,797,785,0,0
-420,239,0,0,0,0,0,0,0,0,0,-1,804,785,0,0
-413,239,0,0,0,0,0,0,0,0,0,-1,811,785,0,0
-406,239,0,0,0,0,0,0,0,0,0,-1,818,785,0,0
-399,239,0,0,0,0,0,0,0,0,0,-1,825,785,0,0
-392,239,0,0,0,0,0,0,0,0,0,-1,832,785,0,0
-385,239,0,0,0,0,0,0,0,0,0,-1,839,785,0,0
-378,239,0,0,0,0,0,0,0,0,0,-1,846,785,0,0
-371,239,0,0,0,0,0,0,0,0,0,-1,853,785,0,0
-364,239,0,0,0,0,0,0,0,0,0,-1,860,785,0,0
-357,239,0,0,0,0,0,0,0,0,0,-1,867,785,0,0
-350,239,0,0,0,0,0,0,0,0,0,-1,874,785,0,0
-343,239,0,0,0,0,0,0,0,0,0,-1,881,785,0,0
-336,239,0,0,0,0,0,0,0,0,0,-1,888,785,0,0
-329,239,0,0,0,0,0,0,0,0,0,-1,895,785,0,0
-322,239,0,0,0,0,0,0,0,0,0,-1,902,785,0,0
-315,239,0,0,0,0,0,0,0,0,0,-1,909,785,0,0
-308,239,0,0,0,0,0,0,0,0,0,-1,916,785,0,0
-301,239,0,0,0,0,0,0,0,0,0,-1,923,785,0,0
-294,239,0,0,0,0,0,0,0,0,0,-1,930,785,0,0
-287,239,0,0,0,0,0,0,0,0,0,-1,937,785,0,0
-280,239,0,0,0,0,0,0,0,0,0,-1,944,785,0,0
-273,239,0,0,0,0,0,0,0,0,0,-1,951,785,0,0
-266,239,0,0,0,0,0,0,0,0,0,-1,958,785,0,0
-259,239,0,0,0,0,0,0,0,0,0,-1,965,785,0,0
-252,239,0,0,0,0,0,0,0,0,0,-1,972,785,0,0
-245,239,0,0,0,0,0,0,0,0,0,-1,979,785,0,0
-238,239,0,0,0,0,0,0,0,0,0,-1,986,785,0,0
-231,239,0,0,0,0,0,0,0,0,0,-1,993,785,0,0
-224,239,0,0,0,0,0,0,0,0,0,-1,1000,785,0,0
-217,239,0,0,0,0,0,0,0,0,0,-1,1007,785,0,0
-210,239,0,0,0,0,0,0,0,0,0,-1,1014,785,0,0
-203,239,0,0,0,0,0,0,0,0,0,-1,1021,785,0,0
-196,239,0,0,0,0,0,0,0,0,0,-1,1028,785,0,0
-189,239,0,0,0,0,0,0,0,0,0,-1,1035,785,0,0
-182,239,0,0,0,0,0,0,0,0,0,-1,1042,785,0,0
-175,239,0,0,0,0,0,0,0,0,0,-1,1049,785,0,0
-168,239,0,0,0,0,0,0,0,0,0,-1,1056,785,0,0
-161,239,0,0,0,0,0,0,0,0,0,-1,1063,785,0,0
-154,239,0,0,0,0,0,0,0,0,0,-1,1070,785,0,0
-147,239,0,0,0,0,0,0,0,0,0,-1,1077,785,0,0
-140,239,0,0,0,0,0,0,0,0,0,-1,1084,785,0,0
-133,239,0,0,0,0,0,0,0,0,0,-1,1091,785,0,0
-126,239,0,0,0,0,0,0,0,0,0,-1,1098,785,0,0
-119,239,0,0,0,0,0,0,0,0,0,-1,1105,785,0,0
-112,239,0,0,0,0,0,0,0,0,0,-1,1112,785,0,0
-105,239,0,0,0,0,0,0,0,0,0,-1,1119,785,0,0
-98,239,0,0,0,0,0,0,0,0,0,-1,1126,785,0,0
-91,239,0,0,0,0,0,0,0,0,0,-1,1133,785,0,0
-84,239,0,0,0,0,0,0,0,0,0,-1,1140,785,0,0
-77,239,0,0,0,0,0,0,0,0,0,-1,1147,785,0,0
-70,239,0,0,0,0,0,0,0,0,0,-1,1154,785,0,0
-63,239,0,0,0,0,0,0,0,0,0,-1,1161,785,0,0
-56,239,0,0,0,0,0,0,0,0,0,-1,1168,785,0,0
-49,239,0,0,0,0,0,0,0,0,0,-1,1175,785,0,0
-42,239,0,0,0,0,0,0,0,0,0,-1,1182,785,0,0
-35,239,0,0,0,0,0,0,0,0,0,-1,1189,785,0,0
-28,239,0,0,0,0,0,0,0,0,0,-1,1196,785,0,0
-21,239,0,0,0,0,0,0,0,0,0,-1,1203,785,0,0
-14,239,0,0,0,0,0,0,0,0,0,-1,1210,785,0,0
-7,239,0,0,0,0,0,0,0,0,0,-1,1217,785,0,0
0,239,0,0,0,0,0,0,0,0,0,-1,1224,785,0,0
7,239,0,0,0,0,0,0,0,0,0,-1,1231,785,0,0
14,239,0,0,0,0,0,0,0,0,0,-1,1238,785,0,0
21,239,0,0,0,0,0,0,0,0,0,-1,1245,785,0,0
28,239,0,0,0,0,0,0,0,0,0,-1,1252,785,0,0
35,239,0,0,0,0,0,0,0,0,0,-1,1259,785,0,0
42,239,0,0,0,0,0,0,0,0,0,-1,1266,785,0,0
49,239,0,0,0,0,0,0,0,0,0,-1,1273,785,0,0
56,239,0,0,0,0,0,0,0,0,0,-1,1280,785,0,0
63,239,0,0,0,0,0,0,0,0,0,-1,1287,785,0,0
70,239,0,0,0,0,0,0,0,0,0,-1,1294,785,0,0
77,239,0,0,0,0,0,0,0,0,0,-1,1301,785,0,0
84,239,0,0,0,0,0,0,0,0,0,-1,1308,785,0,0
91,239,0,0,0,0,0,0,0,0,0,-1,1315,785,0,0
98,239,0,0,0,0,0,0,0,0,0,-1,1322,785,0,0
105,239,0,0,0,0,0,0,0,0,0,-1,1329,785,0,0
112,239,0,0,0,0,0,0,0,0,0,-1,1336,785,0,0
119,239,0,0,0,0,0,0,0,0,0,-1,1343,785,0,0
126,239,0,0,0,0,0,0,0,0,0,-1,1350,785,0,0
133,239,0,0,0,0,0,0,0,0,0,-1,1357,785,0,0
140,239,0,0,0,0,0,0,0,0,0,-1,1364,785,0,0
147,239,0,0,0,0,0,0,0,0,0,-1,1371,785,0,0
154,239,0,0,0,0,0,0,0,0,0,-1,1378,785,0,0
161,239,0,0,0,0,0,0,0,0,0,-1,1385,785,0,0
168,239,0,0,0,0,0,0,0,0,0,-1,1392,785,0,0
175,239,0,0,0,0,0,0,0,0,0,-1,1399,785,0,0
182,239,0,0,0,0,0,0,0,0,0,-1,1406,785,0,0
189,239,0,0,0,0,0,0,0,0,0,-1,1413,785,0,0
196,239,0,0,0,0,0,0,0,0,0,-1,1420,785,0,0
203,239,0,0,0,0,0,0,0,0,0,-1,1427,785,0,0
210,239,0,0,0,0,0,0,0,0,0,-1,1434,785,0,0
217,239,0,0,0,0,0,0,0,0,0,-1,1441,785,0,0
224,239,0,0,0,0,0,0,0,0,0,-1,1448,785,0,0
231,239,0,0,0,0,0,0,0,0,0,-1,1455,785,0,0
238,239,0,0,0,0,0,0,0,0,0,-1,1462,785,0,0
245,239,0,0,0,0,0,0,0,0,0,-1,1469,785,0,0
252,239,0,0,0,0,0,0,0,0,0,-1,1476,785,0,0
259,239,0,0,0,0,0,0,0,0,0,-1,1483,785,0,0
266,239,0,0,0,0,0,0,0,0,0,-1,1490,785,0,0
273,239,0,0,0,0,0,0,0,0,0,-1,1497,785,0,0
280,239,0,0,0,0,0,0,0,0,0,-1,1504,785,0,0
287,239,0,0,0,0,0,0,0,0,0,-1,1511,785,0,0
294,239,0,0,0,0,0,0,0,0,0,-1,1518,785,0,0
301,239,0,0,0,0,0,0,0,0,0,-1,1525,785,0,0
308,239,0,0,0,0,0,0,0,0,0,-1,1532,785,0,0
315,239,0,0,0,0,0,0,0,0,0,-1,1539,785,0,0
322,239,0,0,0,0,0,0,0,0,0,-1,1546,785,0,0
329,239,0,0,0,0,0,0,0,0,0,-1,1553,785,0,0
336,239,0,0,0,0,0,0,0,0,0,-1,1560,785,0,0
343,239,0,0,0,0,0,0,0,0,0,-1,1567,785,0,0
350,239,0,0,0,0,0,0,0,0,0,-1,1574,785,0,0
357,239,0,0,0,0,0,0,0,0,0,-1,1581,785,0,0
364,239,0,0,0,0,0,0,0,0,0,-1,1588,785,0,0
371,239,0,0,0,0,0,0,0,0,0,-1,1595,785,0,0
378,239,0,0,0,0,0,0,0,0,0,-1,1602,785,0,0
385,239,0,0,0,0,0,0,0,0,0,-1,1609,785,0,0
392,239,0,0,0,0,0,0,0,0,0,-1,1616,785,0,0
399,239,0,0,0,0,0,0,0,0,0,-1,1623,785,0,0
406,239,0,0,0,0,0,0,0,0,0,-1,1630,785,0,0
413,239,0,0,0,0,0,0,0,0,0,-1,1637,785,0,0
420,239,0,0,0,0,0,0,0,0,0,-1,1644,785,0,0
427,239,0,0,0,0,0,0,0,0,0,-1,1651,785,0,0
434,239,0,0,0,0,0,0,0,0,0,-1,1658,785,0,0
441,239,0,0,0,0,0,0,0,0,0,-1,1665,785,0,0
448,239,0,0,0,0,0,0,0,0,0,-1,1672,785,0,0
455,239,0,0,0,0,0,0,0,0,0,-1,1679,785,0,0
462,239,0,0,0,0,0,0,0,0,0,-1,1686,785,0,0
469,239,0,0,0,0,0,0,0,0,0,-1,1693,785,0,0
476,239,0,0,0,0,0,0,0,0,0,-1,1700,785,0,0
483,239,0,0,0,0,0,0,0,0,0,-1,1707,785,0,0
490,239,0,0,0,0,0,0,0,0,0,-1,1714,785,0,0
497,239,0,0,0,0,0,0,0,0,0,-1,1721,785,0,0
504,239,0,0,0,0,0,0,0,0,0,-1,1728,785,0,0
511,239,0,0,0,0,0,0,0,0,0,-1,1735,785,0,0
518,239,0,0,0,0,0,0,0,0,0,-1,1742,785,0,0
525,239,0,0,0,0,0,0,0,0,0,-1,1749,785,0,0
532,239,0,0,0,0,0,0,0,0,0,-1,1756,785,0,0
539,239,0,0,0,0,0,0,0,0,0,-1,1763,785,0,0
546,239,0,0,0,0,0,0,0,0,0,-1,1770,785,0,0
553,239,0,0,0,0,0,0,0,0,0,-1,1777,785,0,0
560,239,0,0,0,0,0,0,0,0,0,-1,1784,785,0,0
567,239,0,0,0,0,0,0,0,0,0,-1,1791,785,0,0
574,239,0,0,0,0,0,0,0,0,0,-1,1798,785,0,0
581,239,82.2601,2.48669,0.00731351,-0.00643012,0.00220419,0.00765837,-0.00677497,0.155195,0.00833829,0.0376395,1805,785,82.2601,-2.48671
588,239,82.2965,2.43671,0.00756959,-0.00466654,0.00375774,0.00863145,-0.0057284,0.275399,0.00834695,0.0387768,1812,785,82.2965,-2.43669
595,239,82.4067,2.36646,0.00719748,-0.00296981,0.00411807,0.00865615,-0.00442848,0.340423,0.00768473,0.0348411,1819,785,82.4067,-2.36643
602,239,82.3992,2.55188,0.00619821,-0.00164723,0.00368766,0.00765941,-0.00310842,0.37726,0.00639922,0.0454812,1826,785,82.3991,-2.55189
609,239,82.4017,2.64154,0,0,0,0,0,0,0,-1,1833,785,82.4018,-2.64155
616,239,55.8469,3.72443,0,0,0,0,0,0,0,-1,1840,785,55.8469,-3.72445
623,239,65.0618,2.66516,0,0,0,0,0,0,0,-1,1847,785,65.0617,-2.66519
630,239,54.5767,3.64667,0,0,0,0,0,0,0,-1,1854,785,54.5766,-3.64667
637,239,39.5542,2.54114,0,0,0,0,0,0,0,-1,1861,785,39.5543,-2.54114
644,239,18.3466,0.735413,0,0,0,0,0,0,0,-1,1868,785,18.3465,-0.735414
651,239,34.2471,-2.15778,0,0,0,0,0,0,0,-1,1875,785,34.2471,2.1578
658,239,58.0137,-5.22473,0,0,0,0,0,0,0,-1,1882,785,58.0136,5.22473
665,239,58.2882,-4.04926,-0.000568548,0.000463398,-0.000708118,0.000823586,-0.000928737,-1.10025,0.00101231,0.0441536,1889,785,58.2883,4.04925
672,239,58.2887,-2.98047,-0.000509827,0.000442879,-0.00076756,0.000869887,-0.000936836,-1.06312,0.00104335,0.0246316,1896,785,58.2887,2.98049
679,239,58.183,-1.91077,-0.000261781,0.00021065,-0.00068952,0.000703293,-0.000754424,-0.950423,0.000841786,0.0241884,1903,785,58.1829,1.91074
686,239,58.0867,-0.871338,0.000134176,0.000472886,-0.000514362,0.000845057,-0.000237994,-0.944435,0.000657227,0.0253512,1910,785,58.0867,0.871341
693,239,58.0548,0.019043,0.000604884,0.00108274,-0.000164726,0.00113402,0.000553603,-1.269,0.000654787,0.016916,1917,785,58.0548,-0.0190448
700,239,57.9883,1.00543,0.00105297,0.00167611,0.000405556,0.00187596,0.000853117,1.11294,0.00108456,0.0122966,1924,785,57.9883,-1.00544
707,239,57.9191,2.02325,0.00150414,0.0025326,0.00121486,0.00333758,0.000699161,0.985606,0.00203249,0.011956,1931,785,57.919,-2.02325
714,239,57.8516,3.00439,0.00178086,0.00338854,0.00212069,0.00485263,0.000316774,0.966556,0.00313483,0.0107286,1938,785,57.8516,-3.00438
721,239,57.7374,3.98206,0.00199955,0.00423665,0.00321207,0.00651936,-0.000283159,0.952948,0.00444364,0.0215613,1945,785,57.7374,-3.98204
728,239,57.6598,5.30212,0.00216877,0.00476285,0.00448691,0.00813643,-0.00120481,0.926099,0.00586727,0.0419715,1952,785,57.6598,-5.30213
735,239,57.8131,6.88257,0,0,0,0,0,0,0,-1,1959,785,57.8132,-6.88258
742,239,32.4141,7.6665,0,0,0,0,0,0,0,-1,1966,785,32.4141,-7.6665
749,239,32.1489,3.4411,0,0,0,0,0,0,0,-1,1973,785,32.149,-3.44109
756,239,32.9064,3.6687,0,0,0,0,0,0,0,-1,1980,785,32.9063,-3.66873
763,239,0,0,0,0,0,0,0,0,0,-1,1987,785,0,0
770,239,0,0,0,0,0,0,0,0,0,-1,1994,785,0,0
777,239,0,0,0,0,0,0,0,0,0,-1,2001,785,0,0
784,239,0,0,0,0,0,0,0,0,0,-1,2008,785,0,0
791,239,0,0,0,0,0,0,0,0,0,-1,2015,785,0,0
798,239,0,0,0,0,0,0,0,0,0,-1,2022,785,0,0
805,239,0,0,0,0,0,0,0,0,0,-1,2029,785,0,0
812,239,0,0,0,0,0,0,0,0,0,-1,2036,785,0,0
-700,232,0,0,0,0,0,0,0,0,0,-1,524,792,0,0
-693,232,0,0,0,0,0,0,0,0,0,-1,531,792,0,0
-686,232,0,0,0,0,0,0,0,0,0,-1,538,792,0,0
-679,232,0,0,0,0,0,0,0,0,0,-1,545,792,0,0
-672,232,0,0,0,0,0,0,0,0,0,-1,552,792,0,0
-665,232,0,0,0,0,0,0,0,0,0,-1,559,792,0,0
-658,232,0,0,0,0,0,0,0,0,0,-1,566,792,0,0
-651,232,0,0,0,0,0,0,0,0,0,-1,573,792,0,0
-644,232,-41.2348,4.28168,0,0,0,0,0,0,0,-1,580,792,-41.2348,-4.28166
-637,232,-42.1427,3.51453,0,0,0,0,0,0,0,-1,587,792,-42.1427,-3.51452
-630,232,-32.2345,1.80212,0,0,0,0,0,0,0,-1,594,792,-32.2345,-1.80211
-623,232,-31.5665,1.05115,0,0,0,0,0,0,0,-1,601,792,-31.5664,-1.05112
-616,232,-30.6812,0.432861,0,0,0,0,0,0,0,-1,608,792,-30.6812,-0.432881
-609,232,-29.7142,-0.478943,0,0,0,0,0,0,0,-1,615,792,-29.7142,0.478965
-602,232,-41.1376,4.97833,0,0,0,0,0,0,0,-1,622,792,-41.1377,-4.97834
-595,232,-41.8357,4.55933,0,0,0,0,0,0,0,-1,629,792,-41.8357,-4.55931
-588,232,-42.1216,3.51294,0.00226184,0.000569994,0.000901502,0.00265216,0.000179675,0.408597,0.00171136,0.0148413,636,792,-42.1216,-3.51296
-581,232,-42.1974,2.41632,0.00247183,0.00109838,0.0004266,0.00259355,0.000976662,0.277934,0.00151252,0.00908122,643,792,-42.1975,-2.41631
-574,232,-42.2475,1.40717,0.00234845,0.00143774,0.000347813,0.00246609,0.0013201,0.326148,0.00142498,0.00868833,650,792,-42.2475,-1.40716
-567,232,-42.3254,0.420837,0.00187712,0.00171746,0.000462001,0.00226614,0.00132845,0.699846,0.00131482,0.0105919,657,792,-42.3254,-0.420808
-560,232,-42.4238,-0.574158,0.00137495,0.00219469,0.000992948,0.00285904,0.000710605,0.981136,0.00171884,0.0156754,664,792,-42.4238,0.574187
-553,232,-42.5483,-1.59808,0.000372587,0.00285127,0.00162318,0.00365415,-0.000430294,1.11145,0.00259147,0.015949,671,792,-42.5483,1.59807
-546,232,-42.4737,-2.57117,-0.00116345,0.00317768,0.00210549,0.00403109,-0.00201686,1.18571,0.00355575,0.0429003,678,792,-42.4737,2.57115
-539,232,-42.7913,-3.70819,0,0,0,0,0,0,0,-1,685,792,-42.7913,3.70818
-532,232,-42.0667,-4.5351,0,0,0,0,0,0,0,-1,692,792,-42.0667,4.53507
-525,232,-41.7694,-5.81165,0,0,0,0,0,0,0,-1,699,792,-41.7694,5.81167
-518,232,-20.8098,-3.08154,0,0,0,0,0,0,0,-1,706,792,-20.8098,3.08155
-511,232,-21.6708,-0.962708,0,0,0,0,0,0,0,-1,713,792,-21.6708,0.962731
-504,232,-34.2155,0.346985,0,0,0,0,0,0,0,-1,720,792,-34.2155,-0.346955
-497,232,-52.7195,0.518677,0,0,0,0,0,0,0,-1,727,792,-52.7195,-0.518678
-490,232,-65.8304,0.883667,0,0,0,0,0,0,0,-1,734,792,-65.8304,-0.883662
-483,232,-65.8055,0.785583,-0.00154725,0.00756069,0.00173257,0.00787914,-0.0018657,1.38902,0.00597259,0.0445793,741,792,-65.8055,-0.785555
-476,232,-65.7774,0.650024,0.000910128,0.00723635,0.00253082,0.0081242,2.2273e-05,1.23339,0.00540873,0.0362527,748,792,-65.7774,-0.650015
-469,232,-65.7901,0.684082,0.00346763,0.00620234,0.00390202,0.00896965,0.000700326,0.953923,0.00576053,0.033718,755,792,-65.7901,-0.684059
-462,232,0,0,0,0,0,0,0,0,0,-1,762,792,0,0
-455,232,0,0,0,0,0,0,0,0,0,-1,769,792,0,0
-448,232,0,0,0,0,0,0,0,0,0,-1,776,792,0,0
-441,232,0,0,0,0,0,0,0,0,0,-1,783,792,0,0
-434,232,0,0,0,0,0,0,0,0,0,-1,790,792,0,0
-427,232,0,0,0,0,0,0,0,0,0,-1,797,792,0,0
-420,232,0,0,0,0,0,0,0,0,0,-1,804,792,0,0
-413,232,0,0,0,0,0,0,0,0,0,-1,811,792,0,0
-406,232,0,0,0,0,0,0,0,0,0,-1,818,792,0,0
-399,232,0,0,0,0,0,0,0,0,0,-1,825,792,0,0
-392,232,0,0,0,0,0,0,0,0,0,-1,832,792,0,0
-385,232,0,0,0,0,0,0,0,0,0,-1,839,792,0,0
-378,232,0,0,0,0,0,0,0,0,0,-1,846,792,0,0
-371,232,0,0,0,0,0,0,0,0,0,-1,853,792,0,0
-364,232,0,0,0,0,0,0,0,0,0,-1,860,792,0,0
-357,232,0,0,0,0,0,0,0,0,0,-1,867,792,0,0
-350,232,0,0,0,0,0,0,0,0,0,-1,874,792,0,0
-343,232,0,0,0,0,0,0,0,0,0,-1,881,792,0,0
-336,232,0,0,0,0,0,0,0,0,0,-1,888,792,0,0
-329,232,0,0,0,0,0,0,0,0,0,-1,895,792,0,0
-322,232,0,0,0,0,0,0,0,0,0,-1,902,792,0,0
-315,232,0,0,0,0,0,0,0,0,0,-1,909,792,0,0
-308,232,0,0,0,0,0,0,0,0,0,-1,916,792,0,0
-301,232,0,0,0,0,0,0,0,0,0,-1,923,792,0,0
-294,232,0,0,0,0,0,0,0,0,0,-1,930,792,0,0
-287,232,0,0,0,0,0,0,0,0,0,-1,937,792,0,0
-280,232,0,0,0,0,0,0,0,0,0,-1,944,792,0,0
-273,232,0,0,0,0,0,0,0,0,0,-1,951,792,0,0
-266,232,0,0,0,0,0,0,0,0,0,-1,958,792,0,0
-259,232,0,0,0,0,0,0,0,0,0,-1,965,792,0,0
-252,232,0,0,0,0,0,0,0,0,0,-1,972,792,0,0
-245,232,0,0,0,0,0,0,0,0,0,-1,979,792,0,0
-238,232,0,0,0,0,0,0,0,0,0,-1,986,792,0,0
-231,232,0,0,0,0,0,0,0,0,0,-1,993,792,0,0
-224,232,0,0,0,0,0,0,0,0,0,-1,1000,792,0,0
-217,232,0,0,0,0,0,0,0,0,0,-1,1007,792,0,0
-210,232,0,0,0,0,0,0,0,0,0,-1,1014,792,0,0
-203,232,0,0,0,0,0,0,0,0,0,-1,1021,792,0,0
-196,232,0,0,0,0,0,0,0,0,0,-1,1028,792,0,0
-189,232,0,0,0,0,0,0,0,0,0,-1,1035,792,0,0
-182,232,0,0,0,0,0,0,0,0,0,-1,1042,792,0,0
-175,232,0,0,0,0,0,0,0,0,0,-1,1049,792,0,0
-168,232,0,0,0,0,0,0,0,0,0,-1,1056,792,0,0
-161,232,0,0,0,0,0,0,0,0,0,-1,1063,792,0,0
-154,232,0,0,0,0,0,0,0,0,0,-1,1070,792,0,0
-147,232,0,0,0,0,0,0,0,0,0,-1,1077,792,0,0
-140,232,0,0,0,0,0,0,0,0,0,-1,1084,792,0,0
-133,232,0,0,0,0,0,0,0,0,0,-1,1091,792,0,0
-126,232,0,0,0,0,0,0,0,0,0,-1,1098,792,0,0
-119,232,0,0,0,0,0,0,0,0,0,-1,1105,792,0,0
-112,232,0,0,0,0,0,0,0,0,0,-1,1112,792,0,0
-105,232,0,0,0,0,0,0,0,0,0,-1,1119,792,0,0
-98,232,0,0,0,0,0,0,0,0,0,-1,1126,792,0,0
-91,232,0,0,0,0,0,0,0,0,0,-1,1133,792,0,0
-84,232,0,0,0,0,0,0,0,0,0,-1,1140,792,0,0
-77,232,0,0,0,0,0,0,0,0,0,-1,1147,792,0,0
-70,232,0,0,0,0,0,0,0,0,0,-1,1154,792,0,0
-63,232,0,0,0,0,0,0,0,0,0,-1,1161,792,0,0
-56,232,0,0,0,0,0,0,0,0,0,-1,1168,792,0,0
-49,232,0,0,0,0,0,0,0,0,0,-1,1175,792,0,0
-42,232,0,0,0,0,0,0,0,0,0,-1,1182,792,0,0
-35,232,0,0,0,0,0,0,0,0,0,-1,1189,792,0,0
-28,232,0,0,0,0,0,0,0,0,0,-1,1196,792,0,0
-21,232,0,0,0,0,0,0,0,0,0,-1,1203,792,0,0
-14,232,0,0,0,0,0,0,0,0,0,-1,1210,792,0,0
-7,232,0,0,0,0,0,0,0,0,0,-1,1217,792,0,0
0,232,0,0,0,0,0,0,0,0,0,-1,1224,792,0,0
7,232,0,0,0,0,0,0,0,0,0,-1,1231,792,0,0
14,232,0,0,0,0,0,0,0,0,0,-1,1238,792,0,0
21,232,0,0,0,0,0,0,0,0,0,-1,1245,792,0,0
28,232,0,0,0,0,0,0,0,0,0,-1,1252,792,0,0
35,232,0,0,0,0,0,0,0,0,0,-1,1259,792,0,0
42,232,0,0,0,0,0,0,0,0,0,-1,1266,792,0,0
49,232,0,0,0,0,0,0,0,0,0,-1,1273,792,0,0
56,232,0,0,0,0,0,0,0,0,0,-1,1280,792,0,0
63,232,0,0,0,0,0,0,0,0,0,-1,1287,792,0,0
70,232,0,0,0,0,0,0,0,0,0,-1,1294,792,0,0
77,232,0,0,0,0,0,0,0,0,0,-1,1301,792,0,0
84,232,0,0,0,0,0,0,0,0,0,-1,1308,792,0,0
91,232,0,0,0,0,0,0,0,0,0,-1,1315,792,0,0
98,232,0,0,0,0,0,0,0,0,0,-1,1322,792,0,0
105,232,0,0,0,0,0,0,0,0,0,-1,1329,792,0,0
112,232,0,0,0,0,0,0,0,0,0,-1,1336,792,0,0
119,232,0,0,0,0,0,0,0,0,0,-1,1343,792,0,0
126,232,0,0,0,0,0,0,0,0,0,-1,1350,792,0,0
133,232,0,0,0,0,0,0,0,0,0,-1,1357,792,0,0
140,232,0,0,0,0,0,0,0,0,0,-1,1364,792,0,0
147,232,0,0,0,0,0,0,0,0,0,-1,1371,792,0,0
154,232,0,0,0,0,0,0,0,0,0,-1,1378,792,0,0
161,232,0,0,0,0,0,0,0,0,0,-1,1385,792,0,0
168,232,0,0,0,0,0,0,0,0,0,-1,1392,792,0,0
175,232,0,0,0,0,0,0,0,0,0,-1,1399,792,0,0
182,232,0,0,0,0,0,0,0,0,0,-1,1406,792,0,0
189,232,0,0,0,0,0,0,0,0,0,-1,1413,792,0,0
196,232,0,0,0,0,0,0,0,0,0,-1,1420,792,0,0
203,232,0,0,0,0,0,0,0,0,0,-1,1427,792,0,0
210,232,0,0,0,0,0,0,0,0,0,-1,1434,792,0,0
217,232,0,0,0,0,0,0,0,0,0,-1,1441,792,0,0
224,232,0,0,0,0,0,0,0,0,0,-1,1448,792,0,0
231,232,0,0,0,0,0,0,0,0,0,-1,1455,792,0,0
238,232,0,0,0,0,0,0,0,0,0,-1,1462,792,0,0
245,232,0,0,0,0,0,0,0,0,0,-1,1469,792,0,0
252,232,0,0,0,0,0,0,0,0,0,-1,1476,792,0,0
259,232,0,0,0,0,0,0,0,0,0,-1,1483,792,0,0
266,232,0,0,0,0,0,0,0,0,0,-1,1490,792,0,0
273,232,0,0,0,0,0,0,0,0,0,-1,1497,792,0,0
280,232,0,0,0,0,0,0,0,0,0,-1,1504,792,0,0
287,232,0,0,0,0,0,0,0,0,0,-1,1511,792,0,0
294,232,0,0,0,0,0,0,0,0,0,-1,1518,792,0,0
301,232,0,0,0,0,0,0,0,0,0,-1,1525,792,0,0
308,232,0,0,0,0,0,0,0,0,0,-1,1532,792,0,0
315,232,0,0,0,0,0,0,0,0,0,-1,1539,792,0,0
322,232,0,0,0,0,0,0,0,0,0,-1,1546,792,0,0
329,232,0,0,0,0,0,0,0,0,0,-1,1553,792,0,0
336,232,0,0,0,0,0,0,0,0,0,-1,1560,792,0,0
343,232,0,0,0,0,0,0,0,0,0,-1,1567,792,0,0
350,232,0,0,0,0,0,0,0,0,0,-1,1574,792,0,0
357,232,0,0,0,0,0,0,0,0,0,-1,1581,792,0,0
364,232,0,0,0,0,0,0,0,0,0,-1,1588,792,0,0
371,232,0,0,0,0,0,0,0,0,0,-1,1595,792,0,0
378,232,0,0,0,0,0,0,0,0,0,-1,1602,792,0,0
385,232,0,0,0,0,0,0,0,0,0,-1,1609,792,0,0
392,232,0,0,0,0,0,0,0,0,0,-1,1616,792,0,0
399,232,0,0,0,0,0,0,0,0,0,-1,1623,792,0,0
406,232,0,0,0,0,0,0,0,0,0,-1,1630,792,0,0
413,232,0,0,0,0,0,0,0,0,0,-1,1637,792,0,0
420,232,0,0,0,0,0,0,0,0,0,-1,1644,792,0,0
427,232,0,0,0,0,0,0,0,0,0,-1,1651,792,0,0
434,232,0,0,0,0,0,0,0,0,0,-1,1658,792,0,0
441,232,0,0,0,0,0,0,0,0,0,-1,1665,792,0,0
448,232,0,0,0,0,0,0,0,0,0,-1,1672,792,0,0
455,232,0,0,0,0,0,0,0,0,0,-1,1679,792,0,0
462,232,0,0,0,0,0,0,0,0,0,-1,1686,792,0,0
469,232,0,0,0,0,0,0,0,0,0,-1,1693,792,0,0
476,232,0,0,0,0,0,0,0,0,0,-1,1700,792,0,0
483,232,0,0,0,0,0,0,0,0,0,-1,1707,792,0,0
490,232,0,0,0,0,0,0,0,0,0,-1,1714,792,0,0
497,232,0,0,0,0,0,0,0,0,0,-1,1721,792,0,0
504,232,0,0,0,0,0,0,0,0,0,-1,1728,792,0,0
511,232,0,0,0,0,0,0,0,0,0,-1,1735,792,0,0
518,232,0,0,0,0,0,0,0,0,0,-1,1742,792,0,0
525,232,0,0,0,0,0,0,0,0,0,-1,1749,792,0,0
532,232,0,0,0,0,0,0,0,0,0,-1,1756,792,0,0
539,232,0,0,0,0,0,0,0,0,0,-1,1763,792,0,0
546,232,0,0,0,0,0,0,0,0,0,-1,1770,792,0,0
553,232,0,0,0,0,0,0,0,0,0,-1,1777,792,0,0
560,232,0,0,0,0,0,0,0,0,0,-1,1784,792,0,0
567,232,0,0,0,0,0,0,0,0,0,-1,1791,792,0,0
574,232,0,0,0,0,0,0,0,0,0,-1,1798,792,0,0
581,232,0,0,0,0,0,0,0,0,0,-1,1805,792,0,0
588,232,82.3218,2.55426,0.00566278,-0.00413315,0.00204077,0.00607092,-0.00454129,0.197391,0.00614815,0.0373084,1812,792,82.3217,-2.55425
595,232,82.2776,2.4433,0.00552851,-0.00240778,0.00295373,0.00650715,-0.00338642,0.319941,0.005806,0.0357633,1819,792,82.2776,-2.44328
602,232,82.2612,2.4519,0.00483459,-0.00105964,0.00296581,0.00606856,-0.00229362,0.394279,0.00498919,0.0385505,1826,792,82.2612,-2.45188
609,232,82.3342,2.43951,0.00354319,-0.000407114,0.00233782,0.00462854,-0.00149246,0.434645,0.00368533,0.0471191,1833,792,82.3342,-2.43952
616,232,82.4629,2.51129,0,0,0,0,0,0,0,-1,1840,792,82.4629,-2.51131
623,232,74.9668,2.53278,0,0,0,0,0,0,0,-1,1847,792,74.9667,-2.5328
630,232,64.9034,2.97992,0,0,0,0,0,0,0,-1,1854,792,64.9035,-2.9799
637,232,47.0471,4.04309,0,0,0,0,0,0,0,-1,1861,792,47.0471,-4.04309
644,232,30.7756,4.24139,0,0,0,0,0,0,0,-1,1868,792,30.7757,-4.24141
651,232,31.6797,-0.564087,0,0,0,0,0,0,0,-1,1875,792,31.6797,0.564059
658,232,46.7423,-3.10736,0,0,0,0,0,0,0,-1,1882,792,46.7423,3.10735
665,232,59.0991,-3.93237,0,0,0,0,0,0,0,-1,1889,792,59.0991,3.93236
672,232,59.1407,-2.92102,0,0,0,0,0,0,0,-1,1896,792,59.1408,2.92104
679,232,59.115,-1.83008,-0.000542083,6.35268e-05,-0.000623891,0.000454214,-0.00093277,-1.01133,0.000816509,0.0224061,1903,792,59.115,1.83006
686,232,59.0603,-0.809692,-0.000170849,0.000167476,-0.000639168,0.000659488,-0.000662861,-0.914762,0.00076346,0.0209966,1910,792,59.0603,0.809668
693,232,59.0393,0.0986328,0.000310962,0.000698576,-0.000472111,0.00101511,-5.57321e-06,-0.980166,0.000678607,0.0125175,1917,792,59.0393,-0.0986093
700,232,58.9822,1.08118,0.000727203,0.0012006,-2.96389e-05,0.00120245,0.000725354,-1.50851,0.000699151,0.0137381,1924,792,58.9822,-1.08117
707,232,58.9207,2.08405,0.00115709,0.00195187,0.000694833,0.00235493,0.00075404,1.04516,0.00138861,0.0131513,1931,792,58.9207,-2.08407
714,232,58.8696,3.03442,0.00146818,0.00269418,0.00150305,0.00370442,0.00045793,0.97902,0.00233201,0.0139079,1938,792,58.8696,-3.03443
721,232,58.7694,4.03381,0.0016893,0.00331655,0.00243283,0.0050682,-6.23544e-05,0.946769,0.00339977,0.019741,1945,792,58.7694,-4.03378
728,232,58.6248,4.9126,0.00184876,0.00358381,0.00348317,0.00630586,-0.000873291,0.907446,0.00452319,0.0480925,1952,792,58.6247,-4.9126
735,232,58.6923,6.00519,0,0,0,0,0,0,0,-1,1959,792,58.6922,-6.00516
742,232,25.6461,6.00684,0,0,0,0,0,0,0,-1,1966,792,25.6461,-6.00684
749,232,31.2874,3.74713,0,0,0,0,0,0,0,-1,1973,792,31.2874,-3.74713
756,232,34.9586,15.3984,0,0,0,0,0,0,0,-1,1980,792,34.9586,-15.3984
763,232,35.741,16.6099,0,0,0,0,0,0,0,-1,1987,792,35.741,-16.6099
770,232,0,0,0,0,0,0,0,0,0,-1,1994,792,0,0
777,232,0,0,0,0,0,0,0,0,0,-1,2001,792,0,0
784,232,0,0,0,0,0,0,0,0,0,-1,2008,792,0,0
791,232,0,0,0,0,0,0,0,0,0,-1,2015,792,0,0
798,232,0,0,0,0,0,0,0,0,0,-1,2022,792,0,0
805,232,0,0,0,0,0,0,0,0,0,-1,2029,792,0,0
812,232,0,0,0,0,0,0,0,0,0,-1,2036,792,0,0
-700,225,0,0,0,0,0,0,0,0,0,-1,524,799,0,0
-693,225,0,0,0,0,0,0,0,0,0,-1,531,799,0,0
-686,225,0,0,0,0,0,0,0,0,0,-1,538,799,0,0
-679,225,0,0,0,0,0,0,0,0,0,-1,545,799,0,0
-672,225,0,0,0,0,0,0,0,0,0,-1,552,799,0,0
-665,225,0,0,0,0,0,0,0,0,0,-1,559,799,0,0
-658,225,0,0,0,0,0,0,0,0,0,-1,566,799,0,0
-651,225,0,0,0,0,0,0,0,0,0,-1,573,799,0,0
-644,225,-40.8898,4.14661,0,0,0,0,0,0,0,-1,580,799,-40.8898,-4.14661
-637,225,-41.61,3.36749,0,0,0,0,0,0,0,-1,587,799,-41.61,-3.36751
-630,225,-30.244,4.82196,0,0,0,0,0,0,0,-1,594,799,-30.244,-4.82193
-623,225,-32.8276,-0.00836182,0,0,0,0,0,0,0,-1,601,799,-32.8276,0.00837668
-616,225,-32.0569,-0.549255,0,0,0,0,0,0,0,-1,608,799,-32.0569,0.549265
-609,225,-41.7502,6.30548,0,0,0,0,0,0,0,-1,615,799,-41.7502,-6.30549
-602,225,-42.3386,5.27991,-0.00141199,-0.00201511,0.00597333,0.00426738,-0.00769449,0.760177,0.00700003,0.0474949,622,799,-42.3386,-5.27991
-595,225,-43.0439,4.66199,-2.96699e-06,-0.000613971,0.00329266,0.00299833,-0.00361527,0.739139,0.0038239,0.0297737,629,799,-43.0439,-4.66201
-588,225,-43.1712,3.46991,0.00117227,0.000400337,0.00191423,0.00273906,-0.00116645,0.685917,0.00231498,0.0134929,636,799,-43.1712,-3.46991
-581,225,-43.2255,2.47723,0.00186578,0.00109737,0.00122663,0.00276697,0.000196183,0.633628,0.00178285,0.0117644,643,799,-43.2255,-2.4772
-574,225,-43.2813,1.48108,0.00221596,0.0015984,0.000971244,0.00292632,0.000888032,0.63149,0.00173248,0.00930694,650,799,-43.2812,-1.48108
-567,225,-43.353,0.478699,0.00212235,0.00199629,0.00092813,0.00298959,0.00112905,0.751495,0.00174318,0.0121378,657,799,-43.3531,-0.478707
-560,225,-43.4333,-0.499695,0.00202121,0.00268039,0.00156565,0.00395076,0.000750838,0.889139,0.00242266,0.0141503,664,799,-43.4333,0.499677
-553,225,-43.5422,-1.51105,0.00122695,0.00358701,0.0023942,0.00507619,-0.000262226,1.01436,0.00347483,0.0132951,671,799,-43.5422,1.51105
-546,225,-43.4396,-2.37,-0.000289138,0.00405597,0.00288317,0.0054935,-0.00172666,1.10828,0.00435356,0.0446186,678,799,-43.4396,2.37002
-539,225,-43.2355,-2.97107,0,0,0,0,0,0,0,-1,685,799,-43.2355,2.97104
-532,225,-43.303,-4.36078,0,0,0,0,0,0,0,-1,692,799,-43.303,4.36081
-525,225,-29.1705,-3.88239,0,0,0,0,0,0,0,-1,699,799,-29.1705,3.88237
-518,225,-21.963,0.171326,0,0,0,0,0,0,0,-1,706,799,-21.9629,-0.171319
-511,225,-33.0002,0.660217,0,0,0,0,0,0,0,-1,713,799,-33.0002,-0.660239
-504,225,-50.4542,0.524109,0,0,0,0,0,0,0,-1,720,799,-50.4542,-0.524105
-497,225,-65.7436,0.658936,0,0,0,0,0,0,0,-1,727,799,-65.7436,-0.658913
-490,225,-65.7303,0.717102,-0.00342295,0.00892748,0.00196749,0.00923333,-0.00372881,1.41658,0.00770534,0.0412114,734,799,-65.7304,-0.717112
-483,225,-65.7817,0.668579,-0.00207349,0.00880755,0.00191489,0.0091347,-0.00240065,1.40158,0.00702804,0.0331063,741,799,-65.7817,-0.668584
-476,225,-65.7575,0.657593,-1.77104e-05,0.00827656,0.00239659,0.00891924,-0.000660397,1.30879,0.00617807,0.0311977,748,799,-65.7575,-0.657609
-469,225,-65.7972,0.737061,0.00229234,0.00694789,0.00337077,0.00871653,0.000523695,1.08758,0.00564456,0.035912,755,799,-65.7972,-0.737067
-462,225,0,0,0,0,0,0,0,0,0,-1,762,799,0,0
-455,225,0,0,0,0,0,0,0,0,0,-1,769,799,0,0
-448,225,0,0,0,0,0,0,0,0,0,-1,776,799,0,0
-441,225,0,0,0,0,0,0,0,0,0,-1,783,799,0,0
-434,225,0,0,0,0,0,0,0,0,0,-1,790,799,0,0
-427,225,0,0,0,0,0,0,0,0,0,-1,797,799,0,0
-420,225,0,0,0,0,0,0,0,0,0,-1,804,799,0,0
-413,225,0,0,0,0,0,0,0,0,0,-1,811,799,0,0
-406,225,0,0,0,0,0,0,0,0,0,-1,818,799,0,0
-399,225,0,0,0,0,0,0,0,0,0,-1,825,799,0,0
-392,225,0,0,0,0,0,0,0,0,0,-1,832,799,0,0
-385,225,0,0,0,0,0,0,0,0,0,-1,839,799,0,0
-378,225,0,0,0,0,0,0,0,0,0,-1,846,799,0,0
-371,225,0,0,0,0,0,0,0,0,0,-1,853,799,0,0
-364,225,0,0,0,0,0,0,0,0,0,-1,860,799,0,0
-357,225,0,0,0,0,0,0,0,0,0,-1,867,799,0,0
-350,225,0,0,0,0,0,0,0,0,0,-1,874,799,0,0
-343,225,0,0,0,0,0,0,0,0,0,-1,881,799,0,0
-336,225,0,0,0,0,0,0,0,0,0,-1,888,799,0,0
-329,225,0,0,0,0,0,0,0,0,0,-1,895,799,0,0
-322,225,0,0,0,0,0,0,0,0,0,-1,902,799,0,0
-315,225,0,0,0,0,0,0,0,0,0,-1,909,799,0,0
-308,225,0,0,0,0,0,0,0,0,0,-1,916,799,0,0
-301,225,0,0,0,0,0,0,0,0,0,-1,923,799,0,0
-294,225,0,0,0,0,0,0,0,0,0,-1,930,799,0,0
-287,225,0,0,0,0,0,0,0,0,0,-1,937,799,0,0
-280,225,0,0,0,0,0,0,0,0,0,-1,944,799,0,0
-273,225,0,0,0,0,0,0,0,0,0,-1,951,799,0,0
-266,225,0,0,0,0,0,0,0,0,0,-1,958,799,0,0
-259,225,0,0,0,0,0,0,0,0,0,-1,965,799,0,0
-252,225,0,0,0,0,0,0,0,0,0,-1,972,799,0,0
-245,225,0,0,0,0,0,0,0,0,0,-1,979,799,0,0
-238,225,0,0,0,0,0,0,0,0,0,-1,986,799,0,0
-231,225,0,0,0,0,0,0,0,0,0,-1,993,799,0,0
-224,225,0,0,0,0,0,0,0,0,0,-1,1000,799,0,0
-217,225,0,0,0,0,0,0,0,0,0,-1,1007,799,0,0
-210,225,0,0,0,0,0,0,0,0,0,-1,1014,799,0,0
-203,225,0,0,0,0,0,0,0,0,0,-1,1021,799,0,0
-196,225,0,0,0,0,0,0,0,0,0,-1,1028,799,0,0
-189,225,0,0,0,0,0,0,0,0,0,-1,1035,799,0,0
-182,225,0,0,0,0,0,0,0,0,0,-1,1042,799,0,0
-175,225,0,0,0,0,0,0,0,0,0,-1,1049,799,0,0
-168,225,0,0,0,0,0,0,0,0,0,-1,1056,799,0,0
-161,225,0,0,0,0,0,0,0,0,0,-1,1063,799,0,0
-154,225,0,0,0,0,0,0,0,0,0,-1,1070,799,0,0
-147,225,0,0,0,0,0,0,0,0,0,-1,1077,799,0,0
-140,225,0,0,0,0,0,0,0,0,0,-1,1084,799,0,0
-133,225,0,0,0,0,0,0,0,0,0,-1,1091,799,0,0
-126,225,0,0,0,0,0,0,0,0,0,-1,1098,799,0,0
-119,225,0,0,0,0,0,0,0,0,0,-1,1105,799,0,0
-112,225,0,0,0,0,0,0,0,0,0,-1,1112,799,0,0
-105,225,0,0,0,0,0,0,0,0,0,-1,1119,799,0,0
-98,225,0,0,0,0,0,0,0,0,0,-1,1126,799,0,0
-91,225,0,0,0,0,0,0,0,0,0,-1,1133,799,0,0
-84,225,0,0,0,0,0,0,0,0,0,-1,1140,799,0,0
-77,225,0,0,0,0,0,0,0,0,0,-1,1147,799,0,0
-70,225,0,0,0,0,0,0,0,0,0,-1,1154,799,0,0
-63,225,0,0,0,0,0,0,0,0,0,-1,1161,799,0,0
-56,225,0,0,0,0,0,0,0,0,0,-1,1168,799,0,0
-49,225,0,0,0,0,0,0,0,0,0,-1,1175,799,0,0
-42,225,0,0,0,0,0,0,0,0,0,-1,1182,799,0,0
-35,225,0,0,0,0,0,0,0,0,0,-1,1189,799,0,0
-28,225,0,0,0,0,0,0,0,0,0,-1,1196,799,0,0
-21,225,0,0,0,0,0,0,0,0,0,-1,1203,799,0,0
-14,225,0,0,0,0,0,0,0,0,0,-1,1210,799,0,0
-7,225,0,0,0,0,0,0,0,0,0,-1,1217,799,0,0
0,225,0,0,0,0,0,0,0,0,0,-1,1224,799,0,0
7,225,0,0,0,0,0,0,0,0,0,-1,1231,799,0,0
14,225,0,0,0,0,0,0,0,0,0,-1,1238,799,0,0
21,225,0,0,0,0,0,0,0,0,0,-1,1245,799,0,0
28,225,0,0,0,0,0,0,0,0,0,-1,1252,799,0,0
35,225,0,0,0,0,0,0,0,0,0,-1,1259,799,0,0
42,225,0,0,0,0,0,0,0,0,0,-1,1266,799,0,0
49,225,0,0,0,0,0,0,0,0,0,-1,1273,799,0,0
56,225,0,0,0,0,0,0,0,0,0,-1,1280,799,0,0
63,225,0,0,0,0,0,0,0,0,0,-1,1287,799,0,0
70,225,0,0,0,0,0,0,0,0,0,-1,1294,799,0,0
77,225,0,0,0,0,0,0,0,0,0,-1,1301,799,0,0
84,225,0,0,0,0,0,0,0,0,0,-1,1308,799,0,0
91,225,0,0,0,0,0,0,0,0,0,-1,1315,799,0,0
98,225,0,0,0,0,0,0,0,0,0,-1,1322,799,0,0
105,225,0,0,0,0,0,0,0,0,0,-1,1329,799,0,0
112,225,0,0,0,0,0,0,0,0,0,-1,1336,799,0,0
119,225,0,0,0,0,0,0,0,0,0,-1,1343,799,0,0
126,225,0,0,0,0,0,0,0,0,0,-1,1350,799,0,0
133,225,0,0,0,0,0,0,0,0,0,-1,1357,799,0,0
140,225,0,0,0,0,0,0,0,0,0,-1,1364,799,0,0
147,225,0,0,0,0,0,0,0,0,0,-1,1371,799,0,0
154,225,0,0,0,0,0,0,0,0,0,-1,1378,799,0,0
161,225,0,0,0,0,0,0,0,0,0,-1,1385,799,0,0
168,225,0,0,0,0,0,0,0,0,0,-1,1392,799,0,0
175,225,0,0,0,0,0,0,0,0,0,-1,1399,799,0,0
182,225,0,0,0,0,0,0,0,0,0,-1,1406,799,0,0
189,225,0,0,0,0,0,0,0,0,0,-1,1413,799,0,0
196,225,0,0,0,0,0,0,0,0,0,-1,1420,799,0,0
203,225,0,0,0,0,0,0,0,0,0,-1,1427,799,0,0
210,225,0,0,0,0,0,0,0,0,0,-1,1434,799,0,0
217,225,0,0,0,0,0,0,0,0,0,-1,1441,799,0,0
224,225,0,0,0,0,0,0,0,0,0,-1,1448,799,0,0
231,225,0,0,0,0,0,0,0,0,0,-1,1455,799,0,0
238,225,0,0,0,0,0,0,0,0,0,-1,1462,799,0,0
245,225,0,0,0,0,0,0,0,0,0,-1,1469,799,0,0
252,225,0,0,0,0,0,0,0,0,0,-1,1476,799,0,0
259,225,0,0,0,0,0,0,0,0,0,-1,1483,799,0,0
266,225,0,0,0,0,0,0,0,0,0,-1,1490,799,0,0
273,225,0,0,0,0,0,0,0,0,0,-1,1497,799,0,0
280,225,0,0,0,0,0,0,0,0,0,-1,1504,799,0,0
287,225,0,0,0,0,0,0,0,0,0,-1,1511,799,0,0
294,225,0,0,0,0,0,0,0,0,0,-1,1518,799,0,0
301,225,0,0,0,0,0,0,0,0,0,-1,1525,799,0,0
308,225,0,0,0,0,0,0,0,0,0,-1,1532,799,0,0
315,225,0,0,0,0,0,0,0,0,0,-1,1539,799,0,0
322,225,0,0,0,0,0,0,0,0,0,-1,1546,799,0,0
329,225,0,0,0,0,0,0,0,0,0,-1,1553,799,0,0
336,225,0,0,0,0,0,0,0,0,0,-1,1560,799,0,0
343,225,0,0,0,0,0,0,0,0,0,-1,1567,799,0,0
350,225,0,0,0,0,0,0,0,0,0,-1,1574,799,0,0
357,225,0,0,0,0,0,0,0,0,0,-1,1581,799,0,0
364,225,0,0,0,0,0,0,0,0,0,-1,1588,799,0,0
371,225,0,0,0,0,0,0,0,0,0,-1,1595,799,0,0
378,225,0,0,0,0,0,0,0,0,0,-1,1602,799,0,0
385,225,0,0,0,0,0,0,0,0,0,-1,1609,799,0,0
392,225,0,0,0,0,0,0,0,0,0,-1,1616,799,0,0
399,225,0,0,0,0,0,0,0,0,0,-1,1623,799,0,0
406,225,0,0,0,0,0,0,0,0,0,-1,1630,799,0,0
413,225,0,0,0,0,0,0,0,0,0,-1,1637,799,0,0
420,225,0,0,0,0,0,0,0,0,0,-1,1644,799,0,0
427,225,0,0,0,0,0,0,0,0,0,-1,1651,799,0,0
434,225,0,0,0,0,0,0,0,0,0,-1,1658,799,0,0
441,225,0,0,0,0,0,0,0,0,0,-1,1665,799,0,0
448,225,0,0,0,0,0,0,0,0,0,-1,1672,799,0,0
455,225,0,0,0,0,0,0,0,0,0,-1,1679,799,0,0
462,225,0,0,0,0,0,0,0,0,0,-1,1686,799,0,0
469,225,0,0,0,0,0,0,0,0,0,-1,1693,799,0,0
476,225,0,0,0,0,0,0,0,0,0,-1,1700,799,0,0
483,225,0,0,0,0,0,0,0,0,0,-1,1707,799,0,0
490,225,0,0,0,0,0,0,0,0,0,-1,1714,799,0,0
497,225,0,0,0,0,0,0,0,0,0,-1,1721,799,0,0
504,225,0,0,0,0,0,0,0,0,0,-1,1728,799,0,0
511,225,0,0,0,0,0,0,0,0,0,-1,1735,799,0,0
518,225,0,0,0,0,0,0,0,0,0,-1,1742,799,0,0
525,225,0,0,0,0,0,0,0,0,0,-1,1749,799,0,0
532,225,0,0,0,0,0,0,0,0,0,-1,1756,799,0,0
539,225,0,0,0,0,0,0,0,0,0,-1,1763,799,0,0
546,225,0,0,0,0,0,0,0,0,0,-1,1770,799,0,0
553,225,0,0,0,0,0,0,0,0,0,-1,1777,799,0,0
560,225,0,0,0,0,0,0,0,0,0,-1,1784,799,0,0
567,225,0,0,0,0,0,0,0,0,0,-1,1791,799,0,0
574,225,0,0,0,0,0,0,0,0,0,-1,1798,799,0,0
581,225,0,0,0,0,0,0,0,0,0,-1,1805,799,0,0
588,225,82.4183,2.46472,0.00501552,-0.00427889,0.000560748,0.00504923,-0.00431259,0.0600414,0.00541063,0.0363174,1812,799,82.4184,-2.46474
595,225,82.297,2.44098,0.00464013,-0.0026481,0.00157921,0.0049676,-0.00297557,0.204464,0.00463382,0.0349123,1819,799,82.297,-2.44096
602,225,82.2482,2.38153,0.0038923,-0.00117021,0.00210598,0.00465383,-0.00193174,0.346972,0.00390895,0.0341249,1826,799,82.2482,-2.38153
609,225,82.3525,2.39252,0.002654,-0.00038376,0.0017902,0.00348284,-0.0012126,0.433604,0.00281456,0.033556,1833,799,82.3525,-2.39254
616,225,82.3318,2.38995,0.00183706,9.73881e-05,0.00127426,0.00251006,-0.000575619,0.485916,0.00189462,0.0393446,1840,799,82.3317,-2.38995
623,225,82.2805,2.51813,0,0,0,0,0,0,0,-1,1847,799,82.2806,-2.51815
630,225,75.2485,2.28778,0,0,0,0,0,0,0,-1,1854,799,75.2485,-2.28778
637,225,55.6359,2.8064,0,0,0,0,0,0,0,-1,1861,799,55.6359,-2.80637
644,225,42.0298,2.46411,0,0,0,0,0,0,0,-1,1868,799,42.0298,-2.4641
651,225,27.9657,0.579529,0,0,0,0,0,0,0,-1,1875,799,27.9657,-0.579541
658,225,47.9047,-1.92926,0,0,0,0,0,0,0,-1,1882,799,47.9047,1.92927
665,225,47.541,-2.27985,0,0,0,0,0,0,0,-1,1889,799,47.5411,2.27983
672,225,60.0996,-3.40033,0,0,0,0,0,0,0,-1,1896,799,60.0996,3.40031
679,225,60.0851,-1.79694,0,0,0,0,0,0,0,-1,1903,799,60.0851,1.79691
686,225,60.0697,-0.804321,-0.000549132,-0.000170889,-0.000821142,0.000482629,-0.00120265,-0.898582,0.00100216,0.0151004,1910,799,60.0697,0.804317
693,225,60.0331,0.155457,1.31064e-05,0.000300799,-0.00078506,0.000955082,-0.000641177,-0.876008,0.000927522,0.011227,1917,799,60.033,-0.15548
700,225,59.9683,1.14728,0.000465755,0.000759101,-0.000430359,0.00106709,0.000157762,-0.949633,0.000665076,0.0124097,1924,799,59.9682,-1.14729
707,225,59.8834,2.13989,0.000904402,0.00143272,0.000233024,0.00152081,0.000816311,1.20937,0.00087883,0.0121839,1931,799,59.8834,-2.13992
714,225,59.8353,3.13495,0.00129406,0.00211412,0.000982377,0.0027686,0.000639575,0.983101,0.00167378,0.0136358,1938,799,59.8354,-3.13495
721,225,59.8037,4.12354,0.00159932,0.00260278,0.00181654,0.00398561,0.000216491,0.920139,0.00258793,0.01752,1945,799,59.8037,-4.12356
728,225,59.7582,5.1272,0,0,0,0,0,0,0,-1,1952,799,59.7581,-5.12721
735,225,58.9915,6.13818,0,0,0,0,0,0,0,-1,1959,799,58.9914,-6.13817
742,225,55.3708,6.5321,0,0,0,0,0,0,0,-1,1966,799,55.3709,-6.53213
749,225,29.9529,4.45538,0,0,0,0,0,0,0,-1,1973,799,29.9529,-4.45537
756,225,42.6417,11.3672,0,0,0,0,0,0,0,-1,1980,799,42.6417,-11.3672
763,225,42.6943,10.949,0,0,0,0,0,0,0,-1,1987,799,42.6943,-10.9489
770,225,0,0,0,0,0,0,0,0,0,-1,1994,799,0,0
777,225,0,0,0,0,0,0,0,0,0,-1,2001,799,0,0
784,225,0,0,0,0,0,0,0,0,0,-1,2008,799,0,0
791,225,0,0,0,0,0,0,0,0,0,-1,2015,799,0,0
798,225,0,0,0,0,0,0,0,0,0,-1,2022,799,0,0
805,225,0,0,0,0,0,0,0,0,0,-1,2029,799,0,0
812,225,0,0,0,0,0,0,0,0,0,-1,2036,799,0,0
-700,218,0,0,0,0,0,0,0,0,0,-1,524,806,0,0
-693,218,0,0,0,0,0,0,0,0,0,-1,531,806,0,0
-686,218,0,0,0,0,0,0,0,0,0,-1,538,806,0,0
-679,218,0,0,0,0,0,0,0,0,0,-1,545,806,0,0
-672,218,0,0,0,0,0,0,0,0,0,-1,552,806,0,0
-665,218,0,0,0,0,0,0,0,0,0,-1,559,806,0,0
-658,218,0,0,0,0,0,0,0,0,0,-1,566,806,0,0
-651,218,-40.3778,5.1792,0,0,0,0,0,0,0,-1,573,806,-40.3778,-5.1792
-644,218,-40.7704,4.19714,0,0,0,0,0,0,0,-1,580,806,-40.7704,-4.19714
-637,218,-41.541,3.36328,0,0,0,0,0,0,0,-1,587,806,-41.541,-3.36326
-630,218,-42.1423,2.85565,0,0,0,0,0,0,0,-1,594,806,-42.1423,-2.85567
-623,218,-42.7292,2.59015,0,0,0,0,0,0,0,-1,601,806,-42.7292,-2.59015
-616,218,-20.0258,1.87585,0,0,0,0,0,0,0,-1,608,806,-20.0258,-1.87585
-609,218,-43.6346,6.54236,0,0,0,0,0,0,0,-1,615,806,-43.6346,-6.54235
-602,218,-43.874,5.52875,-0.00210261,-0.00221764,0.00654267,0.00438279,-0.00870304,0.781003,0.00769114,0.0449951,622,806,-43.8739,-5.52876
-595,218,-44.1206,4.57355,-0.000629902,-0.000677143,0.00400658,0.00335312,-0.00466017,0.78245,0.00464695,0.0182795,629,806,-44.1206,-4.57352
-588,218,-44.1929,3.52222,0.000704568,0.000471394,0.00258371,0.00317432,-0.00199836,0.762852,0.00301206,0.012392,636,806,-44.1929,-3.52221
-581,218,-44.2375,2.54688,0.00170124,0.00131292,0.00180645,0.00332394,-0.000309776,0.731862,0.0023261,0.0119298,643,806,-44.2375,-2.5469
-574,218,-44.303,1.56842,0.00240656,0.00195836,0.00146934,0.00366879,0.000696128,0.709723,0.00225,0.0112182,650,806,-44.303,-1.5684
-567,218,-44.3416,0.542358,0.0025908,0.00239693,0.0013333,0.00383068,0.00115704,0.74911,0.00226869,0.0190627,657,806,-44.3416,-0.542351
-560,218,-44.4257,-0.428223,0.00275765,0.00317863,0.00208459,0.00506333,0.000872951,0.835715,0.00312547,0.0194595,664,806,-44.4257,0.428245
-553,218,-44.3878,-1.68103,0.00200754,0.0041335,0.00301839,0.00627061,-0.000129572,0.954701,0.00422426,0.0234962,671,806,-44.3878,1.68104
-546,218,-44.6297,-2.68958,0.000511388,0.00447369,0.00342408,0.00644845,-0.00146338,1.04766,0.00486075,0.0325515,678,806,-44.6297,2.68955
-539,218,-44.8209,-3.4743,-0.000647741,0.00579187,0.00351317,0.00733752,-0.00219339,1.15633,0.00576365,0.0351965,685,806,-44.8209,3.47432
-532,218,-44.7157,-4.22723,0,0,0,0,0,0,0,-1,692,806,-44.7157,4.22724
-525,218,-29.3521,-3.64417,0,0,0,0,0,0,0,-1,699,806,-29.3521,3.64414
-518,218,-23.61,2.54181,0,0,0,0,0,0,0,-1,706,806,-23.61,-2.54183
-511,218,-41.0953,1.06879,0,0,0,0,0,0,0,-1,713,806,-41.0953,-1.06876
-504,218,-59.1388,0.682068,0,0,0,0,0,0,0,-1,720,806,-59.1388,-0.682072
-497,218,-65.2582,1.03827,0,0,0,0,0,0,0,-1,727,806,-65.2582,-1.03825
-490,218,-65.7726,0.602661,-0.00335424,0.00959732,0.00254612,0.0100799,-0.00383679,1.38349,0.00829992,0.0380602,734,806,-65.7726,-0.602683
-483,218,-65.8202,0.610535,-0.00199035,0.00982457,0.00232452,0.0102654,-0.00243124,1.38336,0.00778169,0.0341419,741,806,-65.8202,-0.610548
-476,218,-65.7827,0.651672,0.00040848,0.00972467,0.00251184,0.0103588,-0.000225607,1.32352,0.00698225,0.0371,748,806,-65.7827,-0.651683
-469,218,0,0,0,0,0,0,0,0,0,-1,755,806,0,0
-462,218,0,0,0,0,0,0,0,0,0,-1,762,806,0,0
-455,218,0,0,0,0,0,0,0,0,0,-1,769,806,0,0
-448,218,0,0,0,0,0,0,0,0,0,-1,776,806,0,0
-441,218,0,0,0,0,0,0,0,0,0,-1,783,806,0,0
-434,218,0,0,0,0,0,0,0,0,0,-1,790,806,0,0
-427,218,0,0,0,0,0,0,0,0,0,-1,797,806,0,0
-420,218,0,0,0,0,0,0,0,0,0,-1,804,806,0,0
-413,218,0,0,0,0,0,0,0,0,0,-1,811,806,0,0
-406,218,0,0,0,0,0,0,0,0,0,-1,818,806,0,0
-399,218,0,0,0,0,0,0,0,0,0,-1,825,806,0,0
-392,218,0,0,0,0,0,0,0,0,0,-1,832,806,0,0
-385,218,0,0,0,0,0,0,0,0,0,-1,839,806,0,0
-378,218,0,0,0,0,0,0,0,0,0,-1,846,806,0,0
-371,218,0,0,0,0,0,0,0,0,0,-1,853,806,0,0
-364,218,0,0,0,0,0,0,0,0,0,-1,860,806,0,0
-357,218,0,0,0,0,0,0,0,0,0,-1,867,806,0,0
-350,218,0,0,0,0,0,0,0,0,0,-1,874,806,0,0
-343,218,0,0,0,0,0,0,0,0,0,-1,881,806,0,0
-336,218,0,0,0,0,0,0,0,0,0,-1,888,806,0,0
-329,218,0,0,0,0,0,0,0,0,0,-1,895,806,0,0
-322,218,0,0,0,0,0,0,0,0,0,-1,902,806,0,0
-315,218,0,0,0,0,0,0,0,0,0,-1,909,806,0,0
-308,218,0,0,0,0,0,0,0,0,0,-1,916,806,0,0
-301,218,0,0,0,0,0,0,0,0,0,-1,923,806,0,0
-294,218,0,0,0,0,0,0,0,0,0,-1,930,806,0,0
-287,218,0,0,0,0,0,0,0,0,0,-1,937,806,0,0
-280,218,0,0,0,0,0,0,0,0,0,-1,944,806,0,0
-273,218,0,0,0,0,0,0,0,0,0,-1,951,806,0,0
-266,218,0,0,0,0,0,0,0,0,0,-1,958,806,0,0
-259,218,0,0,0,0,0,0,0,0,0,-1,965,806,0,0
-252,218,0,0,0,0,0,0,0,0,0,-1,972,806,0,0
-245,218,0,0,0,0,0,0,0,0,0,-1,979,806,0,0
-238,218,0,0,0,0,0,0,0,0,0,-1,986,806,0,0
-231,218,0,0,0,0,0,0,0,0,0,-1,993,806,0,0
-224,218,0,0,0,0,0,0,0,0,0,-1,1000,806,0,0
-217,218,0,0,0,0,0,0,0,0,0,-1,1007,806,0,0
-210,218,0,0,0,0,0,0,0,0,0,-1,1014,806,0,0
-203,218,0,0,0,0,0,0,0,0,0,-1,1021,806,0,0
-196,218,0,0,0,0,0,0,0,0,0,-1,1028,806,0,0
-189,218,0,0,0,0,0,0,0,0,0,-1,1035,806,0,0
-182,218,0,0,0,0,0,0,0,0,0,-1,1042,806,0,0
-175,218,0,0,0,0,0,0,0,0,0,-1,1049,806,0,0
-168,218,0,0,0,0,0,0,0,0,0,-1,1056,806,0,0
-161,218,0,0,0,0,0,0,0,0,0,-1,1063,806,0,0
-154,218,0,0,0,0,0,0,0,0,0,-1,1070,806,0,0
-147,218,0,0,0,0,0,0,0,0,0,-1,1077,806,0,0
-140,218,0,0,0,0,0,0,0,0,0,-1,1084,806,0,0
-133,218,0,0,0,0,0,0,0,0,0,-1,1091,806,0,0
-126,218,0,0,0,0,0,0,0,0,0,-1,1098,806,0,0
-119,218,0,0,0,0,0,0,0,0,0,-1,1105,806,0,0
-112,218,0,0,0,0,0,0,0,0,0,-1,1112,806,0,0
-105,218,0,0,0,0,0,0,0,0,0,-1,1119,806,0,0
-98,218,0,0,0,0,0,0,0,0,0,-1,1126,806,0,0
-91,218,0,0,0,0,0,0,0,0,0,-1,1133,806,0,0
-84,218,0,0,0,0,0,0,0,0,0,-1,1140,806,0,0
-77,218,0,0,0,0,0,0,0,0,0,-1,1147,806,0,0
-70,218,0,0,0,0,0,0,0,0,0,-1,1154,806,0,0
-63,218,0,0,0,0,0,0,0,0,0,-1,1161,806,0,0
-56,218,0,0,0,0,0,0,0,0,0,-1,1168,806,0,0
-49,218,0,0,0,0,0,0,0,0,0,-1,1175,806,0,0
-42,218,0,0,0,0,0,0,0,0,0,-1,1182,806,0,0
-35,218,0,0,0,0,0,0,0,0,0,-1,1189,806,0,0
-28,218,0,0,0,0,0,0,0,0,0,-1,1196,806,0,0
-21,218,0,0,0,0,0,0,0,0,0,-1,1203,806,0,0
-14,218,0,0,0,0,0,0,0,0,0,-1,1210,806,0,0
-7,218,0,0,0,0,0,0,0,0,0,-1,1217,806,0,0
0,218,0,0,0,0,0,0,0,0,0,-1,1224,806,0,0
7,218,0,0,0,0,0,0,0,0,0,-1,1231,806,0,0
14,218,0,0,0,0,0,0,0,0,0,-1,1238,806,0,0
21,218,0,0,0,0,0,0,0,0,0,-1,1245,806,0,0
28,218,0,0,0,0,0,0,0,0,0,-1,1252,806,0,0
35,218,0,0,0,0,0,0,0,0,0,-1,1259,806,0,0
42,218,0,0,0,0,0,0,0,0,0,-1,1266,806,0,0
49,218,0,0,0,0,0,0,0,0,0,-1,1273,806,0,0
56,218,0,0,0,0,0,0,0,0,0,-1,1280,806,0,0
63,218,0,0,0,0,0,0,0,0,0,-1,1287,806,0,0
70,218,0,0,0,0,0,0,0,0,0,-1,1294,806,0,0
77,218,0,0,0,0,0,0,0,0,0,-1,1301,806,0,0
84,218,0,0,0,0,0,0,0,0,0,-1,1308,806,0,0
91,218,0,0,0,0,0,0,0,0,0,-1,1315,806,0,0
98,218,0,0,0,0,0,0,0,0,0,-1,1322,806,0,0
105,218,0,0,0,0,0,0,0,0,0,-1,1329,806,0,0
112,218,0,0,0,0,0,0,0,0,0,-1,1336,806,0,0
119,218,0,0,0,0,0,0,0,0,0,-1,1343,806,0,0
126,218,0,0,0,0,0,0,0,0,0,-1,1350,806,0,0
133,218,0,0,0,0,0,0,0,0,0,-1,1357,806,0,0
140,218,0,0,0,0,0,0,0,0,0,-1,1364,806,0,0
147,218,0,0,0,0,0,0,0,0,0,-1,1371,806,0,0
154,218,0,0,0,0,0,0,0,0,0,-1,1378,806,0,0
161,218,0,0,0,0,0,0,0,0,0,-1,1385,806,0,0
168,218,0,0,0,0,0,0,0,0,0,-1,1392,806,0,0
175,218,0,0,0,0,0,0,0,0,0,-1,1399,806,0,0
182,218,0,0,0,0,0,0,0,0,0,-1,1406,806,0,0
189,218,0,0,0,0,0,0,0,0,0,-1,1413,806,0,0
196,218,0,0,0,0,0,0,0,0,0,-1,1420,806,0,0
203,218,0,0,0,0,0,0,0,0,0,-1,1427,806,0,0
210,218,0,0,0,0,0,0,0,0,0,-1,1434,806,0,0
217,218,0,0,0,0,0,0,0,0,0,-1,1441,806,0,0
224,218,0,0,0,0,0,0,0,0,0,-1,1448,806,0,0
231,218,0,0,0,0,0,0,0,0,0,-1,1455,806,0,0
238,218,0,0,0,0,0,0,0,0,0,-1,1462,806,0,0
245,218,0,0,0,0,0,0,0,0,0,-1,1469,806,0,0
252,218,0,0,0,0,0,0,0,0,0,-1,1476,806,0,0
259,218,0,0,0,0,0,0,0,0,0,-1,1483,806,0,0
266,218,0,0,0,0,0,0,0,0,0,-1,1490,806,0,0
273,218,0,0,0,0,0,0,0,0,0,-1,1497,806,0,0
280,218,0,0,0,0,0,0,0,0,0,-1,1504,806,0,0
287,218,0,0,0,0,0,0,0,0,0,-1,1511,806,0,0
294,218,0,0,0,0,0,0,0,0,0,-1,1518,806,0,0
301,218,0,0,0,0,0,0,0,0,0,-1,1525,806,0,0
308,218,0,0,0,0,0,0,0,0,0,-1,1532,806,0,0
315,218,0,0,0,0,0,0,0,0,0,-1,1539,806,0,0
322,218,0,0,0,0,0,0,0,0,0,-1,1546,806,0,0
329,218,0,0,0,0,0,0,0,0,0,-1,1553,806,0,0
336,218,0,0,0,0,0,0,0,0,0,-1,1560,806,0,0
343,218,0,0,0,0,0,0,0,0,0,-1,1567,806,0,0
350,218,0,0,0,0,0,0,0,0,0,-1,1574,806,0,0
357,218,0,0,0,0,0,0,0,0,0,-1,1581,806,0,0
364,218,0,0,0,0,0,0,0,0,0,-1,1588,806,0,0
371,218,0,0,0,0,0,0,0,0,0,-1,1595,806,0,0
378,218,0,0,0,0,0,0,0,0,0,-1,1602,806,0,0
385,218,0,0,0,0,0,0,0,0,0,-1,1609,806,0,0
392,218,0,0,0,0,0,0,0,0,0,-1,1616,806,0,0
399,218,0,0,0,0,0,0,0,0,0,-1,1623,806,0,0
406,218,0,0,0,0,0,0,0,0,0,-1,1630,806,0,0
413,218,0,0,0,0,0,0,0,0,0,-1,1637,806,0,0
420,218,0,0,0,0,0,0,0,0,0,-1,1644,806,0,0
427,218,0,0,0,0,0,0,0,0,0,-1,1651,806,0,0
434,218,0,0,0,0,0,0,0,0,0,-1,1658,806,0,0
441,218,0,0,0,0,0,0,0,0,0,-1,1665,806,0,0
448,218,0,0,0,0,0,0,0,0,0,-1,1672,806,0,0
455,218,0,0,0,0,0,0,0,0,0,-1,1679,806,0,0
462,218,0,0,0,0,0,0,0,0,0,-1,1686,806,0,0
469,218,0,0,0,0,0,0,0,0,0,-1,1693,806,0,0
476,218,0,0,0,0,0,0,0,0,0,-1,1700,806,0,0
483,218,0,0,0,0,0,0,0,0,0,-1,1707,806,0,0
490,218,0,0,0,0,0,0,0,0,0,-1,1714,806,0,0
497,218,0,0,0,0,0,0,0,0,0,-1,1721,806,0,0
504,218,0,0,0,0,0,0,0,0,0,-1,1728,806,0,0
511,218,0,0,0,0,0,0,0,0,0,-1,1735,806,0,0
518,218,0,0,0,0,0,0,0,0,0,-1,1742,806,0,0
525,218,0,0,0,0,0,0,0,0,0,-1,1749,806,0,0
532,218,0,0,0,0,0,0,0,0,0,-1,1756,806,0,0
539,218,0,0,0,0,0,0,0,0,0,-1,1763,806,0,0
546,218,0,0,0,0,0,0,0,0,0,-1,1770,806,0,0
553,218,0,0,0,0,0,0,0,0,0,-1,1777,806,0,0
560,218,0,0,0,0,0,0,0,0,0,-1,1784,806,0,0
567,218,0,0,0,0,0,0,0,0,0,-1,1791,806,0,0
574,218,0,0,0,0,0,0,0,0,0,-1,1798,806,0,0
581,218,0,0,0,0,0,0,0,0,0,-1,1805,806,0,0
588,218,0,0,0,0,0,0,0,0,0,-1,1812,806,0,0
595,218,82.3025,2.41089,0.00573975,-0.00301592,0.000373882,0.00575568,-0.00303186,0.0425984,0.00515409,0.0376283,1819,806,82.3025,-2.41091
602,218,82.3075,2.42108,0.00427569,-0.00162849,0.00124464,0.00452734,-0.00188014,0.199499,0.00380314,0.0323811,1826,806,82.3075,-2.4211
609,218,82.3575,2.45343,0.00250433,-0.000619425,0.00126728,0.00295378,-0.00106888,0.340822,0.00240597,0.0289352,1833,806,82.3576,-2.45344
616,218,82.2496,2.46478,0.00137666,-5.58516e-05,0.000904503,0.00181416,-0.00049335,0.450514,0.0014031,0.0310342,1840,806,82.2497,-2.46477
623,218,82.2507,2.49017,0.000802702,0.000113441,0.000524361,0.00108555,-0.000169404,0.494674,0.000786272,0.0370114,1847,806,82.2508,-2.49016
630,218,82.3088,2.37701,0,0,0,0,0,0,0,-1,1854,806,82.3089,-2.37699
637,218,75.0532,2.44513,0,0,0,0,0,0,0,-1,1861,806,75.0532,-2.44515
644,218,52.4042,2.47949,0,0,0,0,0,0,0,-1,1868,806,52.4041,-2.47949
651,218,41.7338,1.99164,0,0,0,0,0,0,0,-1,1875,806,41.7338,-1.99162
658,218,28.41,0.514954,0,0,0,0,0,0,0,-1,1882,806,28.41,-0.514983
665,218,52.1176,-2.84406,0,0,0,0,0,0,0,-1,1889,806,52.1176,2.84404
672,218,52.8506,-2.1853,0,0,0,0,0,0,0,-1,1896,806,52.8506,2.18533
679,218,60.9423,-1.81122,0,0,0,0,0,0,0,-1,1903,806,60.9422,1.81122
686,218,61.03,-0.759583,-0.0010366,-0.000385249,-0.00100561,0.000346105,-0.00176796,-0.941999,0.00130934,0.0325926,1910,806,61.03,0.75958
693,218,61.042,0.22522,-0.000410453,-1.31976e-05,-0.00111371,0.000919459,-0.00134311,-0.873644,0.00131391,0.012697,1917,806,61.042,-0.225203
700,218,60.9618,1.20697,4.92219e-05,0.000358776,-0.000846202,0.00106424,-0.000656242,-0.875852,0.00100259,0.0108582,1924,806,60.9618,-1.20694
707,218,60.8763,2.18768,0.000458268,0.000906233,-0.000242648,0.00101247,0.000352029,-1.15811,0.000593522,0.00885857,1931,806,60.8763,-2.18766
714,218,60.8151,3.19159,0.000891973,0.00150595,0.0004496,0.00174337,0.00065455,1.08494,0.00101689,0.011023,1938,806,60.8151,-3.19162
721,218,60.7843,4.16022,0.00124963,0.00187077,0.00119329,0.00279324,0.000327158,0.912705,0.00176325,0.0155958,1945,806,60.7843,-4.16019
728,218,60.7418,5.17975,0.00158197,0.00187534,0.00198951,0.00372357,-0.00026626,0.822197,0.00257572,0.0303889,1952,806,60.7419,-5.17972
735,218,60.9036,6.3114,0,0,0,0,0,0,0,-1,1959,806,60.9036,-6.31139
742,218,47.8733,6.84155,0,0,0,0,0,0,0,-1,1966,806,47.8733,-6.84158
749,218,42.0249,6.64703,0,0,0,0,0,0,0,-1,1973,806,42.0249,-6.64703
756,218,49.6786,6.78687,0,0,0,0,0,0,0,-1,1980,806,49.6786,-6.78687
763,218,46.811,8.81281,0,0,0,0,0,0,0,-1,1987,806,46.8111,-8.81281
770,218,0,0,0,0,0,0,0,0,0,-1,1994,806,0,0
777,218,0,0,0,0,0,0,0,0,0,-1,2001,806,0,0
784,218,0,0,0,0,0,0,0,0,0,-1,2008,806,0,0
791,218,0,0,0,0,0,0,0,0,0,-1,2015,806,0,0
798,218,0,0,0,0,0,0,0,0,0,-1,2022,806,0,0
805,218,0,0,0,0,0,0,0,0,0,-1,2029,806,0,0
812,218,0,0,0,0,0,0,0,0,0,-1,2036,806,0,0
-700,211,0,0,0,0,0,0,0,0,0,-1,524,813,0,0
-693,211,0,0,0,0,0,0,0,0,0,-1,531,813,0,0
-686,211,0,0,0,0,0,0,0,0,0,-1,538,813,0,0
-679,211,0,0,0,0,0,0,0,0,0,-1,545,813,0,0
-672,211,0,0,0,0,0,0,0,0,0,-1,552,813,0,0
-665,211,0,0,0,0,0,0,0,0,0,-1,559,813,0,0
-658,211,0,0,0,0,0,0,0,0,0,-1,566,813,0,0
-651,211,-40.2495,5.20386,0,0,0,0,0,0,0,-1,573,813,-40.2494,-5.20384
-644,211,-40.6288,4.32092,0,0,0,0,0,0,0,-1,580,813,-40.6288,-4.3209
-637,211,-41.3664,3.51849,0,0,0,0,0,0,0,-1,587,813,-41.3664,-3.51847
-630,211,-41.9262,2.94977,0,0,0,0,0,0,0,-1,594,813,-41.9262,-2.94975
-623,211,-42.5012,2.62903,0,0,0,0,0,0,0,-1,601,813,-42.5011,-2.629
-616,211,-45.0612,7.15515,0,0,0,0,0,0,0,-1,608,813,-45.0612,-7.15518
-609,211,-44.9167,6.3576,-0.00333626,-0.00410508,0.00925124,0.00553855,-0.0129799,0.764634,0.0109756,0.0442232,615,813,-44.9167,-6.35761
-602,211,-44.9689,5.57611,-0.00209562,-0.00236189,0.00668995,0.00446252,-0.00892003,0.775449,0.00786799,0.0244352,622,813,-44.9689,-5.57613
-595,211,-45.1179,4.61316,-0.000667455,-0.000754174,0.00438319,0.00367259,-0.00509421,0.780452,0.00508365,0.0119441,629,813,-45.1179,-4.61315
-588,211,-45.1895,3.60321,0.000736363,0.000493284,0.00300166,0.00361894,-0.0023893,0.765164,0.00349299,0.0118385,636,813,-45.1895,-3.60323
-581,211,-45.2422,2.61389,0.00197349,0.00148163,0.00219536,0.00393666,-0.000481535,0.729619,0.00279879,0.0123437,643,813,-45.2423,-2.61387
-574,211,-45.302,1.62305,0.0029758,0.0022502,0.00180544,0.00445453,0.000771471,0.686244,0.00274885,0.0140953,650,813,-45.302,-1.62306
-567,211,-45.404,0.63916,0.00331591,0.00261341,0.00156386,0.00456749,0.00136184,0.674929,0.00270771,0.0214988,657,813,-45.404,-0.639186
-560,211,-45.4736,-0.420532,0.00356236,0.00342183,0.00242559,0.0059187,0.00106549,0.770918,0.00364296,0.0427366,664,813,-45.4736,0.420535
-553,211,-45.1922,-1.94513,0,0,0,0,0,0,0,-1,671,813,-45.1922,1.94512
-546,211,-45.7611,-2.61945,0.00115732,0.00460045,0.0036253,0.00689218,-0.00113442,1.00707,0.00501587,0.047373,678,813,-45.7611,2.61946
-539,211,-45.7184,-3.40247,5.59369e-05,0.00588882,0.00366024,0.00765244,-0.00170768,1.12179,0.00575593,0.0308884,685,813,-45.7185,3.40249
-532,211,-45.6501,-4.16382,0,0,0,0,0,0,0,-1,692,813,-45.6502,4.16379
-525,211,-14.3009,2.3233,0,0,0,0,0,0,0,-1,699,813,-14.3009,-2.3233
-518,211,-34.952,1.93011,0,0,0,0,0,0,0,-1,706,813,-34.952,-1.9301
-511,211,-53.0876,0.677734,0,0,0,0,0,0,0,-1,713,813,-53.0876,-0.677737
-504,211,-65.004,1.4035,0,0,0,0,0,0,0,-1,720,813,-65.004,-1.40353
-497,211,-65.4202,0.983154,0,0,0,0,0,0,0,-1,727,813,-65.4203,-0.983146
-490,211,-65.8365,0.562744,0,0,0,0,0,0,0,-1,734,813,-65.8365,-0.562765
-483,211,-65.8324,0.529724,-0.0013209,0.0108263,0.00244178,0.0112988,-0.00179335,1.37967,0.00819599,0.03449,741,813,-65.8324,-0.529738
-476,211,-65.8146,0.542175,0.00242313,0.0110301,0.00219584,0.0115579,0.00189529,1.33489,0.00715767,0.0385345,748,813,-65.8146,-0.542173
-469,211,0,0,0,0,0,0,0,0,0,-1,755,813,0,0
-462,211,0,0,0,0,0,0,0,0,0,-1,762,813,0,0
-455,211,0,0,0,0,0,0,0,0,0,-1,769,813,0,0
-448,211,0,0,0,0,0,0,0,0,0,-1,776,813,0,0
-441,211,0,0,0,0,0,0,0,0,0,-1,783,813,0,0
-434,211,0,0,0,0,0,0,0,0,0,-1,790,813,0,0
-427,211,0,0,0,0,0,0,0,0,0,-1,797,813,0,0
-420,211,0,0,0,0,0,0,0,0,0,-1,804,813,0,0
-413,211,0,0,0,0,0,0,0,0,0,-1,811,813,0,0
-406,211,0,0,0,0,0,0,0,0,0,-1,818,813,0,0
-399,211,0,0,0,0,0,0,0,0,0,-1,825,813,0,0
-392,211,0,0,0,0,0,0,0,0,0,-1,832,813,0,0
-385,211,0,0,0,0,0,0,0,0,0,-1,839,813,0,0
-378,211,0,0,0,0,0,0,0,0,0,-1,846,813,0,0
-371,211,0,0,0,0,0,0,0,0,0,-1,853,813,0,0
-364,211,0,0,0,0,0,0,0,0,0,-1,860,813,0,0
-357,211,0,0,0,0,0,0,0,0,0,-1,867,813,0,0
-350,211,0,0,0,0,0,0,0,0,0,-1,874,813,0,0
-343,211,0,0,0,0,0,0,0,0,0,-1,881,813,0,0
-336,211,0,0,0,0,0,0,0,0,0,-1,888,813,0,0
-329,211,0,0,0,0,0,0,0,0,0,-1,895,813,0,0
-322,211,0,0,0,0,0,0,0,0,0,-1,902,813,0,0
-315,211,0,0,0,0,0,0,0,0,0,-1,909,813,0,0
-308,211,0,0,0,0,0,0,0,0,0,-1,916,813,0,0
-301,211,0,0,0,0,0,0,0,0,0,-1,923,813,0,0
-294,211,0,0,0,0,0,0,0,0,0,-1,930,813,0,0
-287,211,0,0,0,0,0,0,0,0,0,-1,937,813,0,0
-280,211,0,0,0,0,0,0,0,0,0,-1,944,813,0,0
-273,211,0,0,0,0,0,0,0,0,0,-1,951,813,0,0
-266,211,0,0,0,0,0,0,0,0,0,-1,958,813,0,0
-259,211,0,0,0,0,0,0,0,0,0,-1,965,813,0,0
-252,211,0,0,0,0,0,0,0,0,0,-1,972,813,0,0
-245,211,0,0,0,0,0,0,0,0,0,-1,979,813,0,0
-238,211,0,0,0,0,0,0,0,0,0,-1,986,813,0,0
-231,211,0,0,0,0,0,0,0,0,0,-1,993,813,0,0
-224,211,0,0,0,0,0,0,0,0,0,-1,1000,813,0,0
-217,211,0,0,0,0,0,0,0,0,0,-1,1007,813,0,0
-210,211,0,0,0,0,0,0,0,0,0,-1,1014,813,0,0
-203,211,0,0,0,0,0,0,0,0,0,-1,1021,813,0,0
-196,211,0,0,0,0,0,0,0,0,0,-1,1028,813,0,0
-189,211,0,0,0,0,0,0,0,0,0,-1,1035,813,0,0
-182,211,0,0,0,0,0,0,0,0,0,-1,1042,813,0,0
-175,211,0,0,0,0,0,0,0,0,0,-1,1049,813,0,0
-168,211,0,0,0,0,0,0,0,0,0,-1,1056,813,0,0
-161,211,0,0,0,0,0,0,0,0,0,-1,1063,813,0,0
-154,211,0,0,0,0,0,0,0,0,0,-1,1070,813,0,0
-147,211,0,0,0,0,0,0,0,0,0,-1,1077,813,0,0
-140,211,0,0,0,0,0,0,0,0,0,-1,1084,813,0,0
-133,211,0,0,0,0,0,0,0,0,0,-1,1091,813,0,0
-126,211,0,0,0,0,0,0,0,0,0,-1,1098,813,0,0
-119,211,0,0,0,0,0,0,0,0,0,-1,1105,813,0,0
-112,211,0,0,0,0,0,0,0,0,0,-1,1112,813,0,0
-105,211,0,0,0,0,0,0,0,0,0,-1,1119,813,0,0
-98,211,0,0,0,0,0,0,0,0,0,-1,1126,813,0,0
-91,211,0,0,0,0,0,0,0,0,0,-1,1133,813,0,0
-84,211,0,0,0,0,0,0,0,0,0,-1,1140,813,0,0
-77,211,0,0,0,0,0,0,0,0,0,-1,1147,813,0,0
-70,211,0,0,0,0,0,0,0,0,0,-1,1154,813,0,0
-63,211,0,0,0,0,0,0,0,0,0,-1,1161,813,0,0
-56,211,0,0,0,0,0,0,0,0,0,-1,1168,813,0,0
-49,211,0,0,0,0,0,0,0,0,0,-1,1175,813,0,0
-42,211,0,0,0,0,0,0,0,0,0,-1,1182,813,0,0
-35,211,0,0,0,0,0,0,0,0,0,-1,1189,813,0,0
-28,211,0,0,0,0,0,0,0,0,0,-1,1196,813,0,0
-21,211,0,0,0,0,0,0,0,0,0,-1,1203,813,0,0
-14,211,0,0,0,0,0,0,0,0,0,-1,1210,813,0,0
-7,211,0,0,0,0,0,0,0,0,0,-1,1217,813,0,0
0,211,0,0,0,0,0,0,0,0,0,-1,1224,813,0,0
7,211,0,0,0,0,0,0,0,0,0,-1,1231,813,0,0
14,211,0,0,0,0,0,0,0,0,0,-1,1238,813,0,0
21,211,0,0,0,0,0,0,0,0,0,-1,1245,813,0,0
28,211,0,0,0,0,0,0,0,0,0,-1,1252,813,0,0
35,211,0,0,0,0,0,0,0,0,0,-1,1259,813,0,0
42,211,0,0,0,0,0,0,0,0,0,-1,1266,813,0,0
49,211,0,0,0,0,0,0,0,0,0,-1,1273,813,0,0
56,211,0,0,0,0,0,0,0,0,0,-1,1280,813,0,0
63,211,0,0,0,0,0,0,0,0,0,-1,1287,813,0,0
70,211,0,0,0,0,0,0,0,0,0,-1,1294,813,0,0
77,211,0,0,0,0,0,0,0,0,0,-1,1301,813,0,0
84,211,0,0,0,0,0,0,0,0,0,-1,1308,813,0,0
91,211,0,0,0,0,0,0,0,0,0,-1,1315,813,0,0
98,211,0,0,0,0,0,0,0,0,0,-1,1322,813,0,0
105,211,0,0,0,0,0,0,0,0,0,-1,1329,813,0,0
112,211,0,0,0,0,0,0,0,0,0,-1,1336,813,0,0
119,211,0,0,0,0,0,0,0,0,0,-1,1343,813,0,0
126,211,0,0,0,0,0,0,0,0,0,-1,1350,813,0,0
133,211,0,0,0,0,0,0,0,0,0,-1,1357,813,0,0
140,211,0,0,0,0,0,0,0,0,0,-1,1364,813,0,0
147,211,0,0,0,0,0,0,0,0,0,-1,1371,813,0,0
154,211,0,0,0,0,0,0,0,0,0,-1,1378,813,0,0
161,211,0,0,0,0,0,0,0,0,0,-1,1385,813,0,0
168,211,0,0,0,0,0,0,0,0,0,-1,1392,813,0,0
175,211,0,0,0,0,0,0,0,0,0,-1,1399,813,0,0
182,211,0,0,0,0,0,0,0,0,0,-1,1406,813,0,0
189,211,0,0,0,0,0,0,0,0,0,-1,1413,813,0,0
196,211,0,0,0,0,0,0,0,0,0,-1,1420,813,0,0
203,211,0,0,0,0,0,0,0,0,0,-1,1427,813,0,0
210,211,0,0,0,0,0,0,0,0,0,-1,1434,813,0,0
217,211,0,0,0,0,0,0,0,0,0,-1,1441,813,0,0
224,211,0,0,0,0,0,0,0,0,0,-1,1448,813,0,0
231,211,0,0,0,0,0,0,0,0,0,-1,1455,813,0,0
238,211,0,0,0,0,0,0,0,0,0,-1,1462,813,0,0
245,211,0,0,0,0,0,0,0,0,0,-1,1469,813,0,0
252,211,0,0,0,0,0,0,0,0,0,-1,1476,813,0,0
259,211,0,0,0,0,0,0,0,0,0,-1,1483,813,0,0
266,211,0,0,0,0,0,0,0,0,0,-1,1490,813,0,0
273,211,0,0,0,0,0,0,0,0,0,-1,1497,813,0,0
280,211,0,0,0,0,0,0,0,0,0,-1,1504,813,0,0
287,211,0,0,0,0,0,0,0,0,0,-1,1511,813,0,0
294,211,0,0,0,0,0,0,0,0,0,-1,1518,813,0,0
301,211,0,0,0,0,0,0,0,0,0,-1,1525,813,0,0
308,211,0,0,0,0,0,0,0,0,0,-1,1532,813,0,0
315,211,0,0,0,0,0,0,0,0,0,-1,1539,813,0,0
322,211,0,0,0,0,0,0,0,0,0,-1,1546,813,0,0
329,211,0,0,0,0,0,0,0,0,0,-1,1553,813,0,0
336,211,0,0,0,0,0,0,0,0,0,-1,1560,813,0,0
343,211,0,0,0,0,0,0,0,0,0,-1,1567,813,0,0
350,211,0,0,0,0,0,0,0,0,0,-1,1574,813,0,0
357,211,0,0,0,0,0,0,0,0,0,-1,1581,813,0,0
364,211,0,0,0,0,0,0,0,0,0,-1,1588,813,0,0
371,211,0,0,0,0,0,0,0,0,0,-1,1595,813,0,0
378,211,0,0,0,0,0,0,0,0,0,-1,1602,813,0,0
385,211,0,0,0,0,0,0,0,0,0,-1,1609,813,0,0
392,211,0,0,0,0,0,0,0,0,0,-1,1616,813,0,0
399,211,0,0,0,0,0,0,0,0,0,-1,1623,813,0,0
406,211,0,0,0,0,0,0,0,0,0,-1,1630,813,0,0
413,211,0,0,0,0,0,0,0,0,0,-1,1637,813,0,0
420,211,0,0,0,0,0,0,0,0,0,-1,1644,813,0,0
427,211,0,0,0,0,0,0,0,0,0,-1,1651,813,0,0
434,211,0,0,0,0,0,0,0,0,0,-1,1658,813,0,0
441,211,0,0,0,0,0,0,0,0,0,-1,1665,813,0,0
448,211,0,0,0,0,0,0,0,0,0,-1,1672,813,0,0
455,211,0,0,0,0,0,0,0,0,0,-1,1679,813,0,0
462,211,0,0,0,0,0,0,0,0,0,-1,1686,813,0,0
469,211,0,0,0,0,0,0,0,0,0,-1,1693,813,0,0
476,211,0,0,0,0,0,0,0,0,0,-1,1700,813,0,0
483,211,0,0,0,0,0,0,0,0,0,-1,1707,813,0,0
490,211,0,0,0,0,0,0,0,0,0,-1,1714,813,0,0
497,211,0,0,0,0,0,0,0,0,0,-1,1721,813,0,0
504,211,0,0,0,0,0,0,0,0,0,-1,1728,813,0,0
511,211,0,0,0,0,0,0,0,0,0,-1,1735,813,0,0
518,211,0,0,0,0,0,0,0,0,0,-1,1742,813,0,0
525,211,0,0,0,0,0,0,0,0,0,-1,1749,813,0,0
532,211,0,0,0,0,0,0,0,0,0,-1,1756,813,0,0
539,211,0,0,0,0,0,0,0,0,0,-1,1763,813,0,0
546,211,0,0,0,0,0,0,0,0,0,-1,1770,813,0,0
553,211,0,0,0,0,0,0,0,0,0,-1,1777,813,0,0
560,211,0,0,0,0,0,0,0,0,0,-1,1784,813,0,0
567,211,0,0,0,0,0,0,0,0,0,-1,1791,813,0,0
574,211,0,0,0,0,0,0,0,0,0,-1,1798,813,0,0
581,211,0,0,0,0,0,0,0,0,0,-1,1805,813,0,0
588,211,0,0,0,0,0,0,0,0,0,-1,1812,813,0,0
595,211,82.326,2.36322,0.00817822,-0.00313626,-2.70697e-05,0.00817829,-0.00313632,-0.00239246,0.00674523,0.0401993,1819,813,82.326,-2.36324
602,211,82.3616,2.44244,0.00618966,-0.00202069,0.000719846,0.00625229,-0.00208332,0.0867931,0.00500919,0.0372655,1826,813,82.3616,-2.44247
609,211,82.4048,2.43433,0.00370749,-0.000858828,0.000931575,0.00389023,-0.00104157,0.193701,0.00300153,0.0378651,1833,813,82.4048,-2.4343
616,211,82.3151,2.50403,0.00166486,-0.000109393,0.000757674,0.00194438,-0.000388913,0.353427,0.00144346,0.032506,1840,813,82.3151,-2.50405
623,211,82.3118,2.47583,0.000546016,0.000240788,0.000501087,0.000917214,-0.00013041,0.637578,0.000659259,0.0321435,1847,813,82.3117,-2.47583
630,211,82.3599,2.41058,0.000336906,0.000454033,0.00050677,0.000905612,-0.000114673,0.842924,0.000645371,0.0382579,1854,813,82.3599,-2.41061
637,211,82.3838,2.33026,0,0,0,0,0,0,0,-1,1861,813,82.3837,-2.33029
644,211,66.401,2.3595,0,0,0,0,0,0,0,-1,1868,813,66.401,-2.35952
651,211,48.5043,2.95557,0,0,0,0,0,0,0,-1,1875,813,48.5043,-2.95558
658,211,27.7909,1.52234,0,0,0,0,0,0,0,-1,1882,813,27.7909,-1.52234
665,211,42.2053,-0.745605,0,0,0,0,0,0,0,-1,1889,813,42.2054,0.745605
672,211,53.189,-1.99603,0,0,0,0,0,0,0,-1,1896,813,53.189,1.99603
679,211,61.9188,-1.5484,0,0,0,0,0,0,0,-1,1903,813,61.9188,1.54842
686,211,62.0604,-0.71991,-0.00152977,-0.000303764,-0.00106321,0.0003105,-0.00214403,-1.0469,0.0015433,0.0382786,1910,813,62.0604,0.719895
693,211,61.9955,0.248047,-0.000971375,-0.000164036,-0.00135252,0.000843768,-0.00197918,-0.930419,0.00167319,0.0168375,1917,813,61.9954,-0.248041
700,211,61.8712,1.23248,-0.00055969,7.90595e-06,-0.0012119,0.000968792,-0.00152058,-0.900414,0.00144896,0.0150623,1924,813,61.8713,-1.23247
707,211,61.8875,2.26086,-0.000175855,0.000357849,-0.000707917,0.00084754,-0.000665546,-0.965639,0.000875684,0.0229387,1931,813,61.8875,-2.26088
714,211,61.8502,3.25354,0.000344723,0.000862444,-7.6561e-05,0.000873529,0.000333638,-1.42701,0.000508997,0.0235457,1938,813,61.8503,-3.25354
721,211,61.7604,4.18408,0.000809589,0.00114131,0.000599008,0.001597,0.000353904,0.920462,0.000968497,0.0197465,1945,813,61.7604,-4.18409
728,211,61.7255,5.18298,0.00126019,0.00107491,0.00130064,0.00247148,-0.000136389,0.749845,0.00169495,0.0209692,1952,813,61.7255,-5.18299
735,211,61.8044,6.19629,0.00172773,0.000575463,0.00207775,0.00330775,-0.00100456,0.650153,0.00260539,0.0400332,1959,813,61.8044,-6.19631
742,211,61.7847,6.81219,0,0,0,0,0,0,0,-1,1966,813,61.7847,-6.81222
749,211,61.8851,7.1543,0,0,0,0,0,0,0,-1,1973,813,61.8852,-7.15429
756,211,60.7869,7.56036,0,0,0,0,0,0,0,-1,1980,813,60.7869,-7.56037
763,211,60.4938,7.99585,0,0,0,0,0,0,0,-1,1987,813,60.4937,-7.99584
770,211,46.2148,12.9099,0,0,0,0,0,0,0,-1,1994,813,46.2148,-12.9099
777,211,0,0,0,0,0,0,0,0,0,-1,2001,813,0,0
784,211,0,0,0,0,0,0,0,0,0,-1,2008,813,0,0
791,211,0,0,0,0,0,0,0,0,0,-1,2015,813,0,0
798,211,0,0,0,0,0,0,0,0,0,-1,2022,813,0,0
805,211,0,0,0,0,0,0,0,0,0,-1,2029,813,0,0
812,211,0,0,0,0,0,0,0,0,0,-1,2036,813,0,0
-700,204,0,0,0,0,0,0,0,0,0,-1,524,820,0,0
-693,204,0,0,0,0,0,0,0,0,0,-1,531,820,0,0
-686,204,0,0,0,0,0,0,0,0,0,-1,538,820,0,0
-679,204,0,0,0,0,0,0,0,0,0,-1,545,820,0,0
-672,204,0,0,0,0,0,0,0,0,0,-1,552,820,0,0
-665,204,0,0,0,0,0,0,0,0,0,-1,559,820,0,0
-658,204,0,0,0,0,0,0,0,0,0,-1,566,820,0,0
-651,204,-40.064,5.25806,0,0,0,0,0,0,0,-1,573,820,-40.064,-5.25806
-644,204,-40.4117,4.54321,0,0,0,0,0,0,0,-1,580,820,-40.4117,-4.54323
-637,204,-40.8671,3.93817,0,0,0,0,0,0,0,-1,587,820,-40.8671,-3.93819
-630,204,-41.7101,3.04382,0,0,0,0,0,0,0,-1,594,820,-41.7101,-3.04383
-623,204,-41.8597,2.11951,0,0,0,0,0,0,0,-1,601,820,-41.8597,-2.11951
-616,204,-46.3548,7.33405,0,0,0,0,0,0,0,-1,608,820,-46.3548,-7.33407
-609,204,-46.072,6.50378,-0.00430427,-0.00403109,0.00904773,0.00488108,-0.0132164,0.792946,0.0108117,0.0413154,615,820,-46.0719,-6.50381
-602,204,-46.014,5.65051,-0.00305703,-0.00219148,0.00669846,0.00408817,-0.00933667,0.817657,0.00794583,0.0203171,622,820,-46.014,-5.65052
-595,204,-46.1287,4.64917,-0.00142081,-0.000544708,0.00463813,0.00367601,-0.00564153,0.832481,0.00541924,0.0161853,629,820,-46.1287,-4.64916
-588,204,-46.1846,3.66492,0.000349699,0.000761299,0.00332436,0.00388622,-0.00277522,0.816312,0.00386377,0.013547,636,820,-46.1847,-3.66495
-581,204,-46.2424,2.66425,0.00216092,0.00185648,0.00250724,0.00452055,-0.000503151,0.755079,0.00319465,0.0135866,643,820,-46.2424,-2.66422
-574,204,-46.2916,1.68091,0.00372548,0.00265957,0.00207984,0.00533956,0.00104549,0.659973,0.00326745,0.014878,650,820,-46.2915,-1.68092
-567,204,-46.3736,0.725525,0.00431976,0.00273701,0.00172211,0.00542362,0.00163314,0.57002,0.00321284,0.0158683,657,820,-46.3736,-0.725546
-560,204,-46.1985,-0.343384,0.00451968,0.00343767,0.00259462,0.0066291,0.00132825,0.682615,0.00404992,0.0404685,664,820,-46.1986,0.343364
-553,204,-47.133,-1.19452,0,0,0,0,0,0,0,-1,671,820,-47.133,1.19455
-546,204,-46.9066,-2.18158,0,0,0,0,0,0,0,-1,678,820,-46.9066,2.18156
-539,204,-46.6802,-3.16858,0,0,0,0,0,0,0,-1,685,820,-46.6802,3.16857
-532,204,-30.0565,-3.29065,0,0,0,0,0,0,0,-1,692,820,-30.0565,3.29063
-525,204,-25.7137,1.52496,0,0,0,0,0,0,0,-1,699,820,-25.7137,-1.52496
-518,204,-43.4591,0.383972,0,0,0,0,0,0,0,-1,706,820,-43.4591,-0.383942
-511,204,-64.1096,0.325378,0,0,0,0,0,0,0,-1,713,820,-64.1096,-0.325363
-504,204,-65.1582,1.26294,0,0,0,0,0,0,0,-1,720,820,-65.1582,-1.26293
-497,204,-65.5326,0.948975,0,0,0,0,0,0,0,-1,727,820,-65.5326,-0.948995
-490,204,-65.9777,0.444702,0,0,0,0,0,0,0,-1,734,820,-65.9776,-0.444677
-483,204,-65.8135,0.601257,0,0,0,0,0,0,0,-1,741,820,-65.8135,-0.601261
-476,204,0,0,0,0,0,0,0,0,0,-1,748,820,0,0
-469,204,0,0,0,0,0,0,0,0,0,-1,755,820,0,0
-462,204,0,0,0,0,0,0,0,0,0,-1,762,820,0,0
-455,204,0,0,0,0,0,0,0,0,0,-1,769,820,0,0
-448,204,0,0,0,0,0,0,0,0,0,-1,776,820,0,0
-441,204,0,0,0,0,0,0,0,0,0,-1,783,820,0,0
-434,204,0,0,0,0,0,0,0,0,0,-1,790,820,0,0
-427,204,0,0,0,0,0,0,0,0,0,-1,797,820,0,0
-420,204,0,0,0,0,0,0,0,0,0,-1,804,820,0,0
-413,204,0,0,0,0,0,0,0,0,0,-1,811,820,0,0
-406,204,0,0,0,0,0,0,0,0,0,-1,818,820,0,0
-399,204,0,0,0,0,0,0,0,0,0,-1,825,820,0,0
-392,204,0,0,0,0,0,0,0,0,0,-1,832,820,0,0
-385,204,0,0,0,0,0,0,0,0,0,-1,839,820,0,0
-378,204,0,0,0,0,0,0,0,0,0,-1,846,820,0,0
-371,204,0,0,0,0,0,0,0,0,0,-1,853,820,0,0
-364,204,0,0,0,0,0,0,0,0,0,-1,860,820,0,0
-357,204,0,0,0,0,0,0,0,0,0,-1,867,820,0,0
-350,204,0,0,0,0,0,0,0,0,0,-1,874,820,0,0
-343,204,0,0,0,0,0,0,0,0,0,-1,881,820,0,0
-336,204,0,0,0,0,0,0,0,0,0,-1,888,820,0,0
-329,204,0,0,0,0,0,0,0,0,0,-1,895,820,0,0
-322,204,0,0,0,0,0,0,0,0,0,-1,902,820,0,0
-315,204,0,0,0,0,0,0,0,0,0,-1,909,820,0,0
-308,204,0,0,0,0,0,0,0,0,0,-1,916,820,0,0
-301,204,0,0,0,0,0,0,0,0,0,-1,923,820,0,0
-294,204,0,0,0,0,0,0,0,0,0,-1,930,820,0,0
-287,204,0,0,0,0,0,0,0,0,0,-1,937,820,0,0
-280,204,0,0,0,0,0,0,0,0,0,-1,944,820,0,0
-273,204,0,0,0,0,0,0,0,0,0,-1,951,820,0,0
-266,204,0,0,0,0,0,0,0,0,0,-1,958,820,0,0
-259,204,0,0,0,0,0,0,0,0,0,-1,965,820,0,0
-252,204,0,0,0,0,0,0,0,0,0,-1,972,820,0,0
-245,204,0,0,0,0,0,0,0,0,0,-1,979,820,0,0
-238,204,0,0,0,0,0,0,0,0,0,-1,986,820,0,0
-231,204,0,0,0,0,0,0,0,0,0,-1,993,820,0,0
-224,204,0,0,0,0,0,0,0,0,0,-1,1000,820,0,0
-217,204,0,0,0,0,0,0,0,0,0,-1,1007,820,0,0
-210,204,0,0,0,0,0,0,0,0,0,-1,1014,820,0,0
-203,204,0,0,0,0,0,0,0,0,0,-1,1021,820,0,0
-196,204,0,0,0,0,0,0,0,0,0,-1,1028,820,0,0
-189,204,0,0,0,0,0,0,0,0,0,-1,1035,820,0,0
-182,204,0,0,0,0,0,0,0,0,0,-1,1042,820,0,0
-175,204,0,0,0,0,0,0,0,0,0,-1,1049,820,0,0
-168,204,0,0,0,0,0,0,0,0,0,-1,1056,820,0,0
-161,204,0,0,0,0,0,0,0,0,0,-1,1063,820,0,0
-154,204,0,0,0,0,0,0,0,0,0,-1,1070,820,0,0
-147,204,0,0,0,0,0,0,0,0,0,-1,1077,820,0,0
-140,204,0,0,0,0,0,0,0,0,0,-1,1084,820,0,0
-133,204,0,0,0,0,0,0,0,0,0,-1,1091,820,0,0
-126,204,0,0,0,0,0,0,0,0,0,-1,1098,820,0,0
-119,204,0,0,0,0,0,0,0,0,0,-1,1105,820,0,0
-112,204,0,0,0,0,0,0,0,0,0,-1,1112,820,0,0
-105,204,0,0,0,0,0,0,0,0,0,-1,1119,820,0,0
-98,204,0,0,0,0,0,0,0,0,0,-1,1126,820,0,0
-91,204,0,0,0,0,0,0,0,0,0,-1,1133,820,0,0
-84,204,0,0,0,0,0,0,0,0,0,-1,1140,820,0,0
-77,204,0,0,0,0,0,0,0,0,0,-1,1147,820,0,0
-70,204,0,0,0,0,0,0,0,0,0,-1,1154,820,0,0
-63,204,0,0,0,0,0,0,0,0,0,-1,1161,820,0,0
-56,204,0,0,0,0,0,0,0,0,0,-1,1168,820,0,0
-49,204,0,0,0,0,0,0,0,0,0,-1,1175,820,0,0
-42,204,0,0,0,0,0,0,0,0,0,-1,1182,820,0,0
-35,204,0,0,0,0,0,0,0,0,0,-1,1189,820,0,0
-28,204,0,0,0,0,0,0,0,0,0,-1,1196,820,0,0
-21,204,0,0,0,0,0,0,0,0,0,-1,1203,820,0,0
-14,204,0,0,0,0,0,0,0,0,0,-1,1210,820,0,0
-7,204,0,0,0,0,0,0,0,0,0,-1,1217,820,0,0
0,204,0,0,0,0,0,0,0,0,0,-1,1224,820,0,0
7,204,0,0,0,0,0,0,0,0,0,-1,1231,820,0,0
14,204,0,0,0,0,0,0,0,0,0,-1,1238,820,0,0
21,204,0,0,0,0,0,0,0,0,0,-1,1245,820,0,0
28,204,0,0,0,0,0,0,0,0,0,-1,1252,820,0,0
35,204,0,0,0,0,0,0,0,0,0,-1,1259,820,0,0
42,204,0,0,0,0,0,0,0,0,0,-1,1266,820,0,0
49,204,0,0,0,0,0,0,0,0,0,-1,1273,820,0,0
56,204,0,0,0,0,0,0,0,0,0,-1,1280,820,0,0
63,204,0,0,0,0,0,0,0,0,0,-1,1287,820,0,0
70,204,0,0,0,0,0,0,0,0,0,-1,1294,820,0,0
77,204,0,0,0,0,0,0,0,0,0,-1,1301,820,0,0
84,204,0,0,0,0,0,0,0,0,0,-1,1308,820,0,0
91,204,0,0,0,0,0,0,0,0,0,-1,1315,820,0,0
98,204,0,0,0,0,0,0,0,0,0,-1,1322,820,0,0
105,204,0,0,0,0,0,0,0,0,0,-1,1329,820,0,0
112,204,0,0,0,0,0,0,0,0,0,-1,1336,820,0,0
119,204,0,0,0,0,0,0,0,0,0,-1,1343,820,0,0
126,204,0,0,0,0,0,0,0,0,0,-1,1350,820,0,0
133,204,0,0,0,0,0,0,0,0,0,-1,1357,820,0,0
140,204,0,0,0,0,0,0,0,0,0,-1,1364,820,0,0
147,204,0,0,0,0,0,0,0,0,0,-1,1371,820,0,0
154,204,0,0,0,0,0,0,0,0,0,-1,1378,820,0,0
161,204,0,0,0,0,0,0,0,0,0,-1,1385,820,0,0
168,204,0,0,0,0,0,0,0,0,0,-1,1392,820,0,0
175,204,0,0,0,0,0,0,0,0,0,-1,1399,820,0,0
182,204,0,0,0,0,0,0,0,0,0,-1,1406,820,0,0
189,204,0,0,0,0,0,0,0,0,0,-1,1413,820,0,0
196,204,0,0,0,0,0,0,0,0,0,-1,1420,820,0,0
203,204,0,0,0,0,0,0,0,0,0,-1,1427,820,0,0
210,204,0,0,0,0,0,0,0,0,0,-1,1434,820,0,0
217,204,0,0,0,0,0,0,0,0,0,-1,1441,820,0,0
224,204,0,0,0,0,0,0,0,0,0,-1,1448,820,0,0
231,204,0,0,0,0,0,0,0,0,0,-1,1455,820,0,0
238,204,0,0,0,0,0,0,0,0,0,-1,1462,820,0,0
245,204,0,0,0,0,0,0,0,0,0,-1,1469,820,0,0
252,204,0,0,0,0,0,0,0,0,0,-1,1476,820,0,0
259,204,0,0,0,0,0,0,0,0,0,-1,1483,820,0,0
266,204,0,0,0,0,0,0,0,0,0,-1,1490,820,0,0
273,204,0,0,0,0,0,0,0,0,0,-1,1497,820,0,0
280,204,0,0,0,0,0,0,0,0,0,-1,1504,820,0,0
287,204,0,0,0,0,0,0,0,0,0,-1,1511,820,0,0
294,204,0,0,0,0,0,0,0,0,0,-1,1518,820,0,0
301,204,0,0,0,0,0,0,0,0,0,-1,1525,820,0,0
308,204,0,0,0,0,0,0,0,0,0,-1,1532,820,0,0
315,204,0,0,0,0,0,0,0,0,0,-1,1539,820,0,0
322,204,0,0,0,0,0,0,0,0,0,-1,1546,820,0,0
329,204,0,0,0,0,0,0,0,0,0,-1,1553,820,0,0
336,204,0,0,0,0,0,0,0,0,0,-1,1560,820,0,0
343,204,0,0,0,0,0,0,0,0,0,-1,1567,820,0,0
350,204,0,0,0,0,0,0,0,0,0,-1,1574,820,0,0
357,204,0,0,0,0,0,0,0,0,0,-1,1581,820,0,0
364,204,0,0,0,0,0,0,0,0,0,-1,1588,820,0,0
371,204,0,0,0,0,0,0,0,0,0,-1,1595,820,0,0
378,204,0,0,0,0,0,0,0,0,0,-1,1602,820,0,0
385,204,0,0,0,0,0,0,0,0,0,-1,1609,820,0,0
392,204,0,0,0,0,0,0,0,0,0,-1,1616,820,0,0
399,204,0,0,0,0,0,0,0,0,0,-1,1623,820,0,0
406,204,0,0,0,0,0,0,0,0,0,-1,1630,820,0,0
413,204,0,0,0,0,0,0,0,0,0,-1,1637,820,0,0
420,204,0,0,0,0,0,0,0,0,0,-1,1644,820,0,0
427,204,0,0,0,0,0,0,0,0,0,-1,1651,820,0,0
434,204,0,0,0,0,0,0,0,0,0,-1,1658,820,0,0
441,204,0,0,0,0,0,0,0,0,0,-1,1665,820,0,0
448,204,0,0,0,0,0,0,0,0,0,-1,1672,820,0,0
455,204,0,0,0,0,0,0,0,0,0,-1,1679,820,0,0
462,204,0,0,0,0,0,0,0,0,0,-1,1686,820,0,0
469,204,0,0,0,0,0,0,0,0,0,-1,1693,820,0,0
476,204,0,0,0,0,0,0,0,0,0,-1,1700,820,0,0
483,204,0,0,0,0,0,0,0,0,0,-1,1707,820,0,0
490,204,0,0,0,0,0,0,0,0,0,-1,1714,820,0,0
497,204,0,0,0,0,0,0,0,0,0,-1,1721,820,0,0
504,204,0,0,0,0,0,0,0,0,0,-1,1728,820,0,0
511,204,0,0,0,0,0,0,0,0,0,-1,1735,820,0,0
518,204,0,0,0,0,0,0,0,0,0,-1,1742,820,0,0
525,204,0,0,0,0,0,0,0,0,0,-1,1749,820,0,0
532,204,0,0,0,0,0,0,0,0,0,-1,1756,820,0,0
539,204,0,0,0,0,0,0,0,0,0,-1,1763,820,0,0
546,204,0,0,0,0,0,0,0,0,0,-1,1770,820,0,0
553,204,0,0,0,0,0,0,0,0,0,-1,1777,820,0,0
560,204,0,0,0,0,0,0,0,0,0,-1,1784,820,0,0
567,204,0,0,0,0,0,0,0,0,0,-1,1791,820,0,0
574,204,0,0,0,0,0,0,0,0,0,-1,1798,820,0,0
581,204,0,0,0,0,0,0,0,0,0,-1,1805,820,0,0
588,204,0,0,0,0,0,0,0,0,0,-1,1812,820,0,0
595,204,0,0,0,0,0,0,0,0,0,-1,1819,820,0,0
602,204,82.3403,2.44623,0.00841579,-0.00219191,0.000119102,0.00841713,-0.00219325,0.011226,0.00646767,0.0408253,1826,820,82.3403,-2.44621
609,204,82.3798,2.43945,0.00576662,-0.00105687,0.000565395,0.00581315,-0.0011034,0.0821138,0.00429079,0.0458765,1833,820,82.3797,-2.43946
616,204,82.4553,2.43958,0.00304263,-0.000160365,0.000767223,0.00321692,-0.000334656,0.22338,0.00226443,0.0423709,1840,820,82.4553,-2.43957
623,204,82.3857,2.43036,0.00119908,0.000418833,0.000789637,0.0016897,-7.17956e-05,0.555959,0.00115115,0.0291298,1847,820,82.3858,-2.43038
630,204,82.3539,2.37042,0.000688747,0.000814545,0.000864409,0.00161834,-0.000115048,0.821717,0.00111922,0.0276587,1854,820,82.3538,-2.37045
637,204,82.3087,2.45093,0,0,0,0,0,0,0,-1,1861,820,82.3087,-2.45096
644,204,80.9747,2.19354,0,0,0,0,0,0,0,-1,1868,820,80.9747,-2.19357
651,204,53.7611,2.32251,0,0,0,0,0,0,0,-1,1875,820,53.7611,-2.32249
658,204,34.9631,1.64844,0,0,0,0,0,0,0,-1,1882,820,34.9631,-1.64842
665,204,21.8292,1.51099,0,0,0,0,0,0,0,-1,1889,820,21.8292,-1.51099
672,204,63.2554,-2.43964,0,0,0,0,0,0,0,-1,1896,820,63.2554,2.43966
679,204,63.2562,-1.51123,-0.00149073,0.000113793,-0.000524213,0.000269875,-0.00164681,-1.28141,0.00119801,0.0464004,1903,820,63.2562,1.51125
686,204,63.2395,-0.620667,-0.00166906,-0.000178265,-0.00100681,0.000329053,-0.00217637,-1.10405,0.00157212,0.0316214,1910,820,63.2395,0.620687
693,204,62.7959,0.297546,-0.0012587,-0.000245927,-0.00146842,0.00080097,-0.0023056,-0.951439,0.00186238,0.0341566,1917,820,62.7959,-0.297536
700,204,62.8718,1.30444,-0.000998082,-0.000304499,-0.00152573,0.000913351,-0.00221593,-0.897147,0.00185813,0.0179873,1924,820,62.8718,-1.30447
707,204,62.8561,2.33057,-0.000760242,-0.000136108,-0.00118879,0.00078089,-0.00167724,-0.913756,0.00145031,0.0156472,1931,820,62.8561,-2.33057
714,204,62.8195,3.33441,-0.000223409,0.000312641,-0.000642958,0.000741203,-0.00065197,-0.982877,0.000804899,0.0264913,1938,820,62.8195,-3.33441
721,204,62.7314,4.2699,0.000300998,0.000587522,-1.79971e-05,0.000588648,0.000299872,-1.50831,0.000339876,0.0255959,1945,820,62.7315,-4.26987
728,204,62.6591,5.21918,0.000809668,0.000543679,0.000630132,0.00132069,3.26594e-05,0.681396,0.000869776,0.0158396,1952,820,62.6591,-5.21916
735,204,62.5608,6.20953,0.00131514,9.92464e-05,0.00131836,0.00215897,-0.000744587,0.569359,0.00174141,0.019447,1959,820,62.5608,-6.20955
742,204,62.5698,7.0163,0.00164856,-0.00128398,0.00199597,0.00265895,-0.00229437,0.468608,0.00286238,0.0342779,1966,820,62.5698,-7.01628
749,204,62.4984,7.65057,0.00154007,-0.00415791,0.00253674,0.00250576,-0.0051236,0.363743,0.00449042,0.0469564,1973,820,62.4985,-7.65059
756,204,62.2932,8.42212,0,0,0,0,0,0,0,-1,1980,820,62.2932,-8.42212
763,204,61.6978,8.64154,0,0,0,0,0,0,0,-1,1987,820,61.6977,-8.64151
770,204,61.479,9.13977,0,0,0,0,0,0,0,-1,1994,820,61.4791,-9.13977
777,204,0,0,0,0,0,0,0,0,0,-1,2001,820,0,0
784,204,0,0,0,0,0,0,0,0,0,-1,2008,820,0,0
791,204,0,0,0,0,0,0,0,0,0,-1,2015,820,0,0
798,204,0,0,0,0,0,0,0,0,0,-1,2022,820,0,0
805,204,0,0,0,0,0,0,0,0,0,-1,2029,820,0,0
812,204,0,0,0,0,0,0,0,0,0,-1,2036,820,0,0
-700,197,0,0,0,0,0,0,0,0,0,-1,524,827,0,0
-693,197,0,0,0,0,0,0,0,0,0,-1,531,827,0,0
-686,197,0,0,0,0,0,0,0,0,0,-1,538,827,0,0
-679,197,0,0,0,0,0,0,0,0,0,-1,545,827,0,0
-672,197,0,0,0,0,0,0,0,0,0,-1,552,827,0,0
-665,197,0,0,0,0,0,0,0,0,0,-1,559,827,0,0
-658,197,-39.9774,5.66638,0,0,0,0,0,0,0,-1,566,827,-39.9774,-5.66637
-651,197,-39.9665,5.23578,0,0,0,0,0,0,0,-1,573,827,-39.9665,-5.23575
-644,197,-38.9225,4.75665,0,0,0,0,0,0,0,-1,580,827,-38.9225,-4.75665
-637,197,-45.2572,7.41498,0,0,0,0,0,0,0,-1,587,827,-45.2572,-7.415
-630,197,-40.4908,2.45648,0,0,0,0,0,0,0,-1,594,827,-40.4908,-2.45649
-623,197,-45.8096,8.30988,0,0,0,0,0,0,0,-1,601,827,-45.8096,-8.3099
-616,197,-47.3329,7.32288,0,0,0,0,0,0,0,-1,608,827,-47.3329,-7.32288
-609,197,-46.9434,6.64447,-0.00322265,-0.00373975,0.00825503,0.00477788,-0.0117403,0.769743,0.00981509,0.0380118,615,827,-46.9434,-6.64448
-602,197,-46.9775,5.67224,-0.00215544,-0.00179965,0.00623369,0.00425868,-0.00821377,0.799663,0.00732066,0.0231639,622,827,-46.9775,-5.67223
-595,197,-47.1274,4.72748,-0.000602361,-0.0001039,0.00452116,0.0041749,-0.00488116,0.812933,0.00523381,0.0188657,629,827,-47.1274,-4.72749
-588,197,-47.174,3.72168,0.00117756,0.00124193,0.00339957,0.00460946,-0.00218997,0.790132,0.00400764,0.0212218,636,827,-47.174,-3.72169
-581,197,-47.2612,2.73352,0.00307332,0.0023699,0.00271878,0.00546304,-1.98209e-05,0.721074,0.00364865,0.0132491,643,827,-47.2612,-2.73351
-574,197,-47.3171,1.7356,0.00458006,0.00308412,0.00239454,0.00634073,0.00132345,0.634017,0.00386234,0.0149972,650,827,-47.3171,-1.7356
-567,197,-47.2761,0.809021,0.00490714,0.00280699,0.00204065,0.00615204,0.00156209,0.547777,0.0036925,0.0235434,657,827,-47.2761,-0.809011
-560,197,-47.1447,-0.313232,0,0,0,0,0,0,0,-1,664,827,-47.1447,0.313232
-553,197,-33.1771,-1.4881,0,0,0,0,0,0,0,-1,671,827,-33.1771,1.4881
-546,197,-48.0551,-1.90784,0,0,0,0,0,0,0,-1,678,827,-48.0551,1.90784
-539,197,-32.8993,-2.61737,0,0,0,0,0,0,0,-1,685,827,-32.8993,2.61737
-532,197,-16.0519,0.0410156,0,0,0,0,0,0,0,-1,692,827,-16.0519,-0.0410415
-525,197,-35.3785,2.11829,0,0,0,0,0,0,0,-1,699,827,-35.3785,-2.11826
-518,197,-57.6698,0.308533,0,0,0,0,0,0,0,-1,706,827,-57.6698,-0.308561
-511,197,-65.3038,1.10022,0,0,0,0,0,0,0,-1,713,827,-65.3038,-1.10021
-504,197,-65.3799,1.25281,-0.00240545,0.0104107,0.00443498,0.0117957,-0.00379048,1.2681,0.00938601,0.0407176,720,827,-65.3799,-1.2528
-497,197,-65.7429,1.02271,-0.00245662,0.0112472,0.00381761,0.0122389,-0.00344836,1.31663,0.00951924,0.0400613,727,827,-65.7429,-1.02273
-490,197,-65.8555,0.683716,0,0,0,0,0,0,0,-1,734,827,-65.8555,-0.683712
-483,197,-65.7561,0.69812,0,0,0,0,0,0,0,-1,741,827,-65.7561,-0.698129
-476,197,0,0,0,0,0,0,0,0,0,-1,748,827,0,0
-469,197,0,0,0,0,0,0,0,0,0,-1,755,827,0,0
-462,197,0,0,0,0,0,0,0,0,0,-1,762,827,0,0
-455,197,0,0,0,0,0,0,0,0,0,-1,769,827,0,0
-448,197,0,0,0,0,0,0,0,0,0,-1,776,827,0,0
-441,197,0,0,0,0,0,0,0,0,0,-1,783,827,0,0
-434,197,0,0,0,0,0,0,0,0,0,-1,790,827,0,0
-427,197,0,0,0,0,0,0,0,0,0,-1,797,827,0,0
-420,197,0,0,0,0,0,0,0,0,0,-1,804,827,0,0
-413,197,0,0,0,0,0,0,0,0,0,-1,811,827,0,0
-406,197,0,0,0,0,0,0,0,0,0,-1,818,827,0,0
-399,197,0,0,0,0,0,0,0,0,0,-1,825,827,0,0
-392,197,0,0,0,0,0,0,0,0,0,-1,832,827,0,0
-385,197,0,0,0,0,0,0,0,0,0,-1,839,827,0,0
-378,197,0,0,0,0,0,0,0,0,0,-1,846,827,0,0
-371,197,0,0,0,0,0,0,0,0,0,-1,853,827,0,0
-364,197,0,0,0,0,0,0,0,0,0,-1,860,827,0,0
-357,197,0,0,0,0,0,0,0,0,0,-1,867,827,0,0
-350,197,0,0,0,0,0,0,0,0,0,-1,874,827,0,0
-343,197,0,0,0,0,0,0,0,0,0,-1,881,827,0,0
-336,197,0,0,0,0,0,0,0,0,0,-1,888,827,0,0
-329,197,0,0,0,0,0,0,0,0,0,-1,895,827,0,0
-322,197,0,0,0,0,0,0,0,0,0,-1,902,827,0,0
-315,197,0,0,0,0,0,0,0,0,0,-1,909,827,0,0
-308,197,0,0,0,0,0,0,0,0,0,-1,916,827,0,0
-301,197,0,0,0,0,0,0,0,0,0,-1,923,827,0,0
-294,197,0,0,0,0,0,0,0,0,0,-1,930,827,0,0
-287,197,0,0,0,0,0,0,0,0,0,-1,937,827,0,0
-280,197,0,0,0,0,0,0,0,0,0,-1,944,827,0,0
-273,197,0,0,0,0,0,0,0,0,0,-1,951,827,0,0
-266,197,0,0,0,0,0,0,0,0,0,-1,958,827,0,0
-259,197,0,0,0,0,0,0,0,0,0,-1,965,827,0,0
-252,197,0,0,0,0,0,0,0,0,0,-1,972,827,0,0
-245,197,0,0,0,0,0,0,0,0,0,-1,979,827,0,0
-238,197,0,0,0,0,0,0,0,0,0,-1,986,827,0,0
-231,197,0,0,0,0,0,0,0,0,0,-1,993,827,0,0
-224,197,0,0,0,0,0,0,0,0,0,-1,1000,827,0,0
-217,197,0,0,0,0,0,0,0,0,0,-1,1007,827,0,0
-210,197,0,0,0,0,0,0,0,0,0,-1,1014,827,0,0
-203,197,0,0,0,0,0,0,0,0,0,-1,1021,827,0,0
-196,197,0,0,0,0,0,0,0,0,0,-1,1028,827,0,0
-189,197,0,0,0,0,0,0,0,0,0,-1,1035,827,0,0
-182,197,0,0,0,0,0,0,0,0,0,-1,1042,827,0,0
-175,197,0,0,0,0,0,0,0,0,0,-1,1049,827,0,0
-168,197,0,0,0,0,0,0,0,0,0,-1,1056,827,0,0
-161,197,0,0,0,0,0,0,0,0,0,-1,1063,827,0,0
-154,197,0,0,0,0,0,0,0,0,0,-1,1070,827,0,0
-147,197,0,0,0,0,0,0,0,0,0,-1,1077,827,0,0
-140,197,0,0,0,0,0,0,0,0,0,-1,1084,827,0,0
-133,197,0,0,0,0,0,0,0,0,0,-1,1091,827,0,0
-126,197,0,0,0,0,0,0,0,0,0,-1,1098,827,0,0
-119,197,0,0,0,0,0,0,0,0,0,-1,1105,827,0,0
-112,197,0,0,0,0,0,0,0,0,0,-1,1112,827,0,0
-105,197,0,0,0,0,0,0,0,0,0,-1,1119,827,0,0
-98,197,0,0,0,0,0,0,0,0,0,-1,1126,827,0,0
-91,197,0,0,0,0,0,0,0,0,0,-1,1133,827,0,0
-84,197,0,0,0,0,0,0,0,0,0,-1,1140,827,0,0
-77,197,0,0,0,0,0,0,0,0,0,-1,1147,827,0,0
-70,197,0,0,0,0,0,0,0,0,0,-1,1154,827,0,0
-63,197,0,0,0,0,0,0,0,0,0,-1,1161,827,0,0
-56,197,0,0,0,0,0,0,0,0,0,-1,1168,827,0,0
-49,197,0,0,0,0,0,0,0,0,0,-1,1175,827,0,0
-42,197,0,0,0,0,0,0,0,0,0,-1,1182,827,0,0
-35,197,0,0,0,0,0,0,0,0,0,-1,1189,827,0,0
-28,197,0,0,0,0,0,0,0,0,0,-1,1196,827,0,0
-21,197,0,0,0,0,0,0,0,0,0,-1,1203,827,0,0
-14,197,0,0,0,0,0,0,0,0,0,-1,1210,827,0,0
-7,197,0,0,0,0,0,0,0,0,0,-1,1217,827,0,0
0,197,0,0,0,0,0,0,0,0,0,-1,1224,827,0,0
7,197,0,0,0,0,0,0,0,0,0,-1,1231,827,0,0
14,197,0,0,0,0,0,0,0,0,0,-1,1238,827,0,0
21,197,0,0,0,0,0,0,0,0,0,-1,1245,827,0,0
28,197,0,0,0,0,0,0,0,0,0,-1,1252,827,0,0
35,197,0,0,0,0,0,0,0,0,0,-1,1259,827,0,0
42,197,0,0,0,0,0,0,0,0,0,-1,1266,827,0,0
49,197,0,0,0,0,0,0,0,0,0,-1,1273,827,0,0
56,197,0,0,0,0,0,0,0,0,0,-1,1280,827,0,0
63,197,0,0,0,0,0,0,0,0,0,-1,1287,827,0,0
70,197,0,0,0,0,0,0,0,0,0,-1,1294,827,0,0
77,197,0,0,0,0,0,0,0,0,0,-1,1301,827,0,0
84,197,0,0,0,0,0,0,0,0,0,-1,1308,827,0,0
91,197,0,0,0,0,0,0,0,0,0,-1,1315,827,0,0
98,197,0,0,0,0,0,0,0,0,0,-1,1322,827,0,0
105,197,0,0,0,0,0,0,0,0,0,-1,1329,827,0,0
112,197,0,0,0,0,0,0,0,0,0,-1,1336,827,0,0
119,197,0,0,0,0,0,0,0,0,0,-1,1343,827,0,0
126,197,0,0,0,0,0,0,0,0,0,-1,1350,827,0,0
133,197,0,0,0,0,0,0,0,0,0,-1,1357,827,0,0
140,197,0,0,0,0,0,0,0,0,0,-1,1364,827,0,0
147,197,0,0,0,0,0,0,0,0,0,-1,1371,827,0,0
154,197,0,0,0,0,0,0,0,0,0,-1,1378,827,0,0
161,197,0,0,0,0,0,0,0,0,0,-1,1385,827,0,0
168,197,0,0,0,0,0,0,0,0,0,-1,1392,827,0,0
175,197,0,0,0,0,0,0,0,0,0,-1,1399,827,0,0
182,197,0,0,0,0,0,0,0,0,0,-1,1406,827,0,0
189,197,0,0,0,0,0,0,0,0,0,-1,1413,827,0,0
196,197,0,0,0,0,0,0,0,0,0,-1,1420,827,0,0
203,197,0,0,0,0,0,0,0,0,0,-1,1427,827,0,0
210,197,0,0,0,0,0,0,0,0,0,-1,1434,827,0,0
217,197,0,0,0,0,0,0,0,0,0,-1,1441,827,0,0
224,197,0,0,0,0,0,0,0,0,0,-1,1448,827,0,0
231,197,0,0,0,0,0,0,0,0,0,-1,1455,827,0,0
238,197,0,0,0,0,0,0,0,0,0,-1,1462,827,0,0
245,197,0,0,0,0,0,0,0,0,0,-1,1469,827,0,0
252,197,0,0,0,0,0,0,0,0,0,-1,1476,827,0,0
259,197,0,0,0,0,0,0,0,0,0,-1,1483,827,0,0
266,197,0,0,0,0,0,0,0,0,0,-1,1490,827,0,0
273,197,0,0,0,0,0,0,0,0,0,-1,1497,827,0,0
280,197,0,0,0,0,0,0,0,0,0,-1,1504,827,0,0
287,197,0,0,0,0,0,0,0,0,0,-1,1511,827,0,0
294,197,0,0,0,0,0,0,0,0,0,-1,1518,827,0,0
301,197,0,0,0,0,0,0,0,0,0,-1,1525,827,0,0
308,197,0,0,0,0,0,0,0,0,0,-1,1532,827,0,0
315,197,0,0,0,0,0,0,0,0,0,-1,1539,827,0,0
322,197,0,0,0,0,0,0,0,0,0,-1,1546,827,0,0
329,197,0,0,0,0,0,0,0,0,0,-1,1553,827,0,0
336,197,0,0,0,0,0,0,0,0,0,-1,1560,827,0,0
343,197,0,0,0,0,0,0,0,0,0,-1,1567,827,0,0
350,197,0,0,0,0,0,0,0,0,0,-1,1574,827,0,0
357,197,0,0,0,0,0,0,0,0,0,-1,1581,827,0,0
364,197,0,0,0,0,0,0,0,0,0,-1,1588,827,0,0
371,197,0,0,0,0,0,0,0,0,0,-1,1595,827,0,0
378,197,0,0,0,0,0,0,0,0,0,-1,1602,827,0,0
385,197,0,0,0,0,0,0,0,0,0,-1,1609,827,0,0
392,197,0,0,0,0,0,0,0,0,0,-1,1616,827,0,0
399,197,0,0,0,0,0,0,0,0,0,-1,1623,827,0,0
406,197,0,0,0,0,0,0,0,0,0,-1,1630,827,0,0
413,197,0,0,0,0,0,0,0,0,0,-1,1637,827,0,0
420,197,0,0,0,0,0,0,0,0,0,-1,1644,827,0,0
427,197,0,0,0,0,0,0,0,0,0,-1,1651,827,0,0
434,197,0,0,0,0,0,0,0,0,0,-1,1658,827,0,0
441,197,0,0,0,0,0,0,0,0,0,-1,1665,827,0,0
448,197,0,0,0,0,0,0,0,0,0,-1,1672,827,0,0
455,197,0,0,0,0,0,0,0,0,0,-1,1679,827,0,0
462,197,0,0,0,0,0,0,0,0,0,-1,1686,827,0,0
469,197,0,0,0,0,0,0,0,0,0,-1,1693,827,0,0
476,197,0,0,0,0,0,0,0,0,0,-1,1700,827,0,0
483,197,0,0,0,0,0,0,0,0,0,-1,1707,827,0,0
490,197,0,0,0,0,0,0,0,0,0,-1,1714,827,0,0
497,197,0,0,0,0,0,0,0,0,0,-1,1721,827,0,0
504,197,0,0,0,0,0,0,0,0,0,-1,1728,827,0,0
511,197,0,0,0,0,0,0,0,0,0,-1,1735,827,0,0
518,197,0,0,0,0,0,0,0,0,0,-1,1742,827,0,0
525,197,0,0,0,0,0,0,0,0,0,-1,1749,827,0,0
532,197,0,0,0,0,0,0,0,0,0,-1,1756,827,0,0
539,197,0,0,0,0,0,0,0,0,0,-1,1763,827,0,0
546,197,0,0,0,0,0,0,0,0,0,-1,1770,827,0,0
553,197,0,0,0,0,0,0,0,0,0,-1,1777,827,0,0
560,197,0,0,0,0,0,0,0,0,0,-1,1784,827,0,0
567,197,0,0,0,0,0,0,0,0,0,-1,1791,827,0,0
574,197,0,0,0,0,0,0,0,0,0,-1,1798,827,0,0
581,197,0,0,0,0,0,0,0,0,0,-1,1805,827,0,0
588,197,0,0,0,0,0,0,0,0,0,-1,1812,827,0,0
595,197,0,0,0,0,0,0,0,0,0,-1,1819,827,0,0
602,197,82.2212,2.48041,0.0110694,-0.00190162,0.000219278,0.0110731,-0.00190532,0.0168988,0.0080923,0.0429798,1826,827,82.2213,-2.48042
609,197,82.2262,2.41516,0.00819784,-0.000946461,0.000513574,0.00822659,-0.000975214,0.0559288,0.00583669,0.0440334,1833,827,82.2262,-2.41519
616,197,82.3959,2.40302,0.00490107,-8.86832e-05,0.000755359,0.00501291,-0.000200524,0.146995,0.00341075,0.042473,1840,827,82.3959,-2.403
623,197,82.3907,2.23608,0.00217516,0.000585202,0.000922885,0.00259826,0.000162105,0.429859,0.00168074,0.0377212,1847,827,82.3907,-2.2361
630,197,82.3635,2.23871,0.000942548,0.00113477,0.00108202,0.00212494,-4.76242e-05,0.829695,0.00143277,0.0311141,1854,827,82.3636,-2.23873
637,197,82.326,2.37585,0.000778937,0.00102994,0.000855322,0.00176892,3.99601e-05,0.858244,0.00116619,0.0294661,1861,827,82.326,-2.37585
644,197,82.272,2.47467,0,0,0,0,0,0,0,-1,1868,827,82.2719,-2.47465
651,197,73.8147,2.2644,0,0,0,0,0,0,0,-1,1875,827,73.8147,-2.26442
658,197,40.4694,3.05927,0,0,0,0,0,0,0,-1,1882,827,40.4694,-3.05926
665,197,14.0618,1.80304,0,0,0,0,0,0,0,-1,1889,827,14.0617,-1.80303
672,197,64.3607,-2.84784,0,0,0,0,0,0,0,-1,1896,827,64.3607,2.84783
679,197,64.2456,-1.51385,-0.00170982,0.000281165,-0.000420931,0.0003665,-0.00179516,-1.37078,0.0013358,0.0361396,1903,827,64.2456,1.51387
686,197,64.1818,-0.421997,-0.00199182,-5.97045e-05,-0.000962322,0.00033781,-0.00238934,-1.17907,0.00171661,0.0298258,1910,827,64.1818,0.42201
693,197,63.9214,0.606995,-0.00168995,-0.000311392,-0.00151791,0.000666406,-0.00266775,-0.998527,0.00203729,0.0433884,1917,827,63.9214,-0.60702
700,197,63.8558,1.34637,-0.00154692,-0.00056264,-0.00174476,0.000758061,-0.00286762,-0.922861,0.00220824,0.0383032,1924,827,63.8559,-1.34637
707,197,63.8284,2.41003,-0.00141479,-0.000543926,-0.00158471,0.000664086,-0.0026228,-0.919474,0.00200686,0.0102897,1931,827,63.8284,-2.41002
714,197,63.7601,3.3631,-0.000824429,-7.83157e-05,-0.00116473,0.000771646,-0.00167439,-0.940383,0.00144392,0.0137209,1938,827,63.7601,-3.36308
721,197,63.6866,4.32294,-0.000179999,0.000308233,-0.000596702,0.000708823,-0.000580589,-0.979565,0.000745669,0.0142276,1945,827,63.6866,-4.32291
728,197,63.6125,5.28369,0.000474021,0.000420736,1.6164e-05,0.000478541,0.000416216,0.272666,0.000300415,0.0118368,1952,827,63.6125,-5.28367
735,197,63.519,6.2558,0.00113155,0.000194952,0.000638553,0.00145512,-0.000128617,0.469011,0.00101567,0.0129479,1959,827,63.5191,-6.25583
742,197,63.4498,7.22888,0.00170088,-0.000744844,0.00125124,0.00222758,-0.00127155,0.398433,0.00204521,0.0236986,1966,827,63.4499,-7.22887
749,197,63.278,8.25299,0.00202694,-0.0028218,0.00175413,0.00259499,-0.00338984,0.313176,0.00346548,0.0462846,1973,827,63.2779,-8.25296
756,197,63.0751,9.26459,0,0,0,0,0,0,0,-1,1980,827,63.0751,-9.26456
763,197,63.0398,9.16394,0,0,0,0,0,0,0,-1,1987,827,63.0398,-9.16395
770,197,63.0874,9.76306,0,0,0,0,0,0,0,-1,1994,827,63.0873,-9.76305
777,197,0,0,0,0,0,0,0,0,0,-1,2001,827,0,0
784,197,0,0,0,0,0,0,0,0,0,-1,2008,827,0,0
791,197,0,0,0,0,0,0,0,0,0,-1,2015,827,0,0
798,197,0,0,0,0,0,0,0,0,0,-1,2022,827,0,0
805,197,0,0,0,0,0,0,0,0,0,-1,2029,827,0,0
812,197,0,0,0,0,0,0,0,0,0,-1,2036,827,0,0
-700,190,0,0,0,0,0,0,0,0,0,-1,524,834,0,0
-693,190,0,0,0,0,0,0,0,0,0,-1,531,834,0,0
-686,190,0,0,0,0,0,0,0,0,0,-1,538,834,0,0
-679,190,0,0,0,0,0,0,0,0,0,-1,545,834,0,0
-672,190,0,0,0,0,0,0,0,0,0,-1,552,834,0,0
-665,190,0,0,0,0,0,0,0,0,0,-1,559,834,0,0
-658,190,-41.9736,5.50092,0,0,0,0,0,0,0,-1,566,834,-41.9736,-5.50089
-651,190,-40.1895,4.99677,0,0,0,0,0,0,0,-1,573,834,-40.1894,-4.99677
-644,190,-43.4772,11.1134,0,0,0,0,0,0,0,-1,580,834,-43.4771,-11.1134
-637,190,-43.1797,9.53918,0,0,0,0,0,0,0,-1,587,834,-43.1797,-9.53917
-630,190,-43.3638,9.78387,0,0,0,0,0,0,0,-1,594,834,-43.3638,-9.78386
-623,190,-48.1807,8.11371,0,0,0,0,0,0,0,-1,601,834,-48.1807,-8.11368
-616,190,-48.0894,7.36877,-0.00183133,-0.00556277,0.00881271,0.00531099,-0.0127051,0.681085,0.0106896,0.0492026,608,834,-48.0894,-7.36878
-609,190,-47.9017,6.6554,-0.00192986,-0.003063,0.00710454,0.00463066,-0.00962353,0.745609,0.00839626,0.0292278,615,834,-47.9017,-6.6554
-602,190,-48.0183,5.77258,-0.00119797,-0.00114129,0.00548958,0.00432002,-0.00665929,0.787979,0.00638668,0.01999,622,834,-48.0183,-5.77258
-595,190,-48.1224,4.78217,8.1304e-05,0.000524015,0.00418527,0.00449378,-0.00388846,0.811818,0.00484369,0.0194507,629,834,-48.1225,-4.78219
-588,190,-48.1883,3.78027,0.00163649,0.00181575,0.00336006,0.00508737,-0.00163514,0.798732,0.00404824,0.020781,636,834,-48.1883,-3.78026
-581,190,-48.2272,2.79559,0.00333798,0.00286806,0.00292251,0.00603496,0.000171081,0.745286,0.00396751,0.0158118,643,834,-48.2271,-2.79559
-574,190,-48.2803,1.81812,0.00453579,0.00337102,0.00275406,0.00676837,0.00113844,0.681202,0.00418471,0.0159947,650,834,-48.2803,-1.8181
-567,190,-48.1762,0.686035,0.00455824,0.00280183,0.00238391,0.00622056,0.00113951,0.608917,0.00382422,0.0346905,657,834,-48.1762,-0.686006
-560,190,-47.9691,-0.462097,0,0,0,0,0,0,0,-1,664,834,-47.9691,0.462118
-553,190,-33.9625,-1.6355,0,0,0,0,0,0,0,-1,671,834,-33.9625,1.63552
-546,190,-33.7621,-2.04889,0,0,0,0,0,0,0,-1,678,834,-33.7621,2.04886
-539,190,-16.4624,-0.542542,0,0,0,0,0,0,0,-1,685,834,-16.4624,0.542527
-532,190,-21.6292,2.06122,0,0,0,0,0,0,0,-1,692,834,-21.6292,-2.06123
-525,190,-38.9377,1.03369,0,0,0,0,0,0,0,-1,699,834,-38.9377,-1.0337
-518,190,-65.6691,0.549255,0,0,0,0,0,0,0,-1,706,834,-65.6691,-0.549265
-511,190,-65.4815,0.905579,-0.00123893,0.00944255,0.00429246,0.0109537,-0.00275011,1.23229,0.00837114,0.043591,713,834,-65.4815,-0.905553
-504,190,-65.4448,1.2522,-0.00196194,0.0107845,0.00442717,0.0121713,-0.00334873,1.26723,0.00943072,0.0421197,720,834,-65.4448,-1.25219
-497,190,-65.8149,1.24017,-0.00167476,0.0121908,0.00336067,0.0129624,-0.00244637,1.34511,0.00956196,0.0448613,727,834,-65.8149,-1.2402
-490,190,-65.9449,1.11615,0,0,0,0,0,0,0,-1,734,834,-65.9449,-1.11617
-483,190,0,0,0,0,0,0,0,0,0,-1,741,834,0,0
-476,190,0,0,0,0,0,0,0,0,0,-1,748,834,0,0
-469,190,0,0,0,0,0,0,0,0,0,-1,755,834,0,0
-462,190,0,0,0,0,0,0,0,0,0,-1,762,834,0,0
-455,190,0,0,0,0,0,0,0,0,0,-1,769,834,0,0
-448,190,0,0,0,0,0,0,0,0,0,-1,776,834,0,0
-441,190,0,0,0,0,0,0,0,0,0,-1,783,834,0,0
-434,190,0,0,0,0,0,0,0,0,0,-1,790,834,0,0
-427,190,0,0,0,0,0,0,0,0,0,-1,797,834,0,0
-420,190,0,0,0,0,0,0,0,0,0,-1,804,834,0,0
-413,190,0,0,0,0,0,0,0,0,0,-1,811,834,0,0
-406,190,0,0,0,0,0,0,0,0,0,-1,818,834,0,0
-399,190,0,0,0,0,0,0,0,0,0,-1,825,834,0,0
-392,190,0,0,0,0,0,0,0,0,0,-1,832,834,0,0
-385,190,0,0,0,0,0,0,0,0,0,-1,839,834,0,0
-378,190,0,0,0,0,0,0,0,0,0,-1,846,834,0,0
-371,190,0,0,0,0,0,0,0,0,0,-1,853,834,0,0
-364,190,0,0,0,0,0,0,0,0,0,-1,860,834,0,0
-357,190,0,0,0,0,0,0,0,0,0,-1,867,834,0,0
-350,190,0,0,0,0,0,0,0,0,0,-1,874,834,0,0
-343,190,0,0,0,0,0,0,0,0,0,-1,881,834,0,0
-336,190,0,0,0,0,0,0,0,0,0,-1,888,834,0,0
-329,190,0,0,0,0,0,0,0,0,0,-1,895,834,0,0
-322,190,0,0,0,0,0,0,0,0,0,-1,902,834,0,0
-315,190,0,0,0,0,0,0,0,0,0,-1,909,834,0,0
-308,190,0,0,0,0,0,0,0,0,0,-1,916,834,0,0
-301,190,0,0,0,0,0,0,0,0,0,-1,923,834,0,0
-294,190,0,0,0,0,0,0,0,0,0,-1,930,834,0,0
-287,190,0,0,0,0,0,0,0,0,0,-1,937,834,0,0
-280,190,0,0,0,0,0,0,0,0,0,-1,944,834,0,0
-273,190,0,0,0,0,0,0,0,0,0,-1,951,834,0,0
-266,190,0,0,0,0,0,0,0,0,0,-1,958,834,0,0
-259,190,0,0,0,0,0,0,0,0,0,-1,965,834,0,0
-252,190,0,0,0,0,0,0,0,0,0,-1,972,834,0,0
-245,190,0,0,0,0,0,0,0,0,0,-1,979,834,0,0
-238,190,0,0,0,0,0,0,0,0,0,-1,986,834,0,0
-231,190,0,0,0,0,0,0,0,0,0,-1,993,834,0,0
-224,190,0,0,0,0,0,0,0,0,0,-1,1000,834,0,0
-217,190,0,0,0,0,0,0,0,0,0,-1,1007,834,0,0
-210,190,0,0,0,0,0,0,0,0,0,-1,1014,834,0,0
-203,190,0,0,0,0,0,0,0,0,0,-1,1021,834,0,0
-196,190,0,0,0,0,0,0,0,0,0,-1,1028,834,0,0
-189,190,0,0,0,0,0,0,0,0,0,-1,1035,834,0,0
-182,190,0,0,0,0,0,0,0,0,0,-1,1042,834,0,0
-175,190,0,0,0,0,0,0,0,0,0,-1,1049,834,0,0
-168,190,0,0,0,0,0,0,0,0,0,-1,1056,834,0,0
-161,190,0,0,0,0,0,0,0,0,0,-1,1063,834,0,0
-154,190,0,0,0,0,0,0,0,0,0,-1,1070,834,0,0
-147,190,0,0,0,0,0,0,0,0,0,-1,1077,834,0,0
-140,190,0,0,0,0,0,0,0,0,0,-1,1084,834,0,0
-133,190,0,0,0,0,0,0,0,0,0,-1,1091,834,0,0
-126,190,0,0,0,0,0,0,0,0,0,-1,1098,834,0,0
-119,190,0,0,0,0,0,0,0,0,0,-1,1105,834,0,0
-112,190,0,0,0,0,0,0,0,0,0,-1,1112,834,0,0
-105,190,0,0,0,0,0,0,0,0,0,-1,1119,834,0,0
-98,190,0,0,0,0,0,0,0,0,0,-1,1126,834,0,0
-91,190,0,0,0,0,0,0,0,0,0,-1,1133,834,0,0
-84,190,0,0,0,0,0,0,0,0,0,-1,1140,834,0,0
-77,190,0,0,0,0,0,0,0,0,0,-1,1147,834,0,0
-70,190,0,0,0,0,0,0,0,0,0,-1,1154,834,0,0
-63,190,0,0,0,0,0,0,0,0,0,-1,1161,834,0,0
-56,190,0,0,0,0,0,0,0,0,0,-1,1168,834,0,0
-49,190,0,0,0,0,0,0,0,0,0,-1,1175,834,0,0
-42,190,0,0,0,0,0,0,0,0,0,-1,1182,834,0,0
-35,190,0,0,0,0,0,0,0,0,0,-1,1189,834,0,0
-28,190,0,0,0,0,0,0,0,0,0,-1,1196,834,0,0
-21,190,0,0,0,0,0,0,0,0,0,-1,1203,834,0,0
-14,190,0,0,0,0,0,0,0,0,0,-1,1210,834,0,0
-7,190,0,0,0,0,0,0,0,0,0,-1,1217,834,0,0
0,190,0,0,0,0,0,0,0,0,0,-1,1224,834,0,0
7,190,0,0,0,0,0,0,0,0,0,-1,1231,834,0,0
14,190,0,0,0,0,0,0,0,0,0,-1,1238,834,0,0
21,190,0,0,0,0,0,0,0,0,0,-1,1245,834,0,0
28,190,0,0,0,0,0,0,0,0,0,-1,1252,834,0,0
35,190,0,0,0,0,0,0,0,0,0,-1,1259,834,0,0
42,190,0,0,0,0,0,0,0,0,0,-1,1266,834,0,0
49,190,0,0,0,0,0,0,0,0,0,-1,1273,834,0,0
56,190,0,0,0,0,0,0,0,0,0,-1,1280,834,0,0
63,190,0,0,0,0,0,0,0,0,0,-1,1287,834,0,0
70,190,0,0,0,0,0,0,0,0,0,-1,1294,834,0,0
77,190,0,0,0,0,0,0,0,0,0,-1,1301,834,0,0
84,190,0,0,0,0,0,0,0,0,0,-1,1308,834,0,0
91,190,0,0,0,0,0,0,0,0,0,-1,1315,834,0,0
98,190,0,0,0,0,0,0,0,0,0,-1,1322,834,0,0
105,190,0,0,0,0,0,0,0,0,0,-1,1329,834,0,0
112,190,0,0,0,0,0,0,0,0,0,-1,1336,834,0,0
119,190,0,0,0,0,0,0,0,0,0,-1,1343,834,0,0
126,190,0,0,0,0,0,0,0,0,0,-1,1350,834,0,0
133,190,0,0,0,0,0,0,0,0,0,-1,1357,834,0,0
140,190,0,0,0,0,0,0,0,0,0,-1,1364,834,0,0
147,190,0,0,0,0,0,0,0,0,0,-1,1371,834,0,0
154,190,0,0,0,0,0,0,0,0,0,-1,1378,834,0,0
161,190,0,0,0,0,0,0,0,0,0,-1,1385,834,0,0
168,190,0,0,0,0,0,0,0,0,0,-1,1392,834,0,0
175,190,0,0,0,0,0,0,0,0,0,-1,1399,834,0,0
182,190,0,0,0,0,0,0,0,0,0,-1,1406,834,0,0
189,190,0,0,0,0,0,0,0,0,0,-1,1413,834,0,0
196,190,0,0,0,0,0,0,0,0,0,-1,1420,834,0,0
203,190,0,0,0,0,0,0,0,0,0,-1,1427,834,0,0
210,190,0,0,0,0,0,0,0,0,0,-1,1434,834,0,0
217,190,0,0,0,0,0,0,0,0,0,-1,1441,834,0,0
224,190,0,0,0,0,0,0,0,0,0,-1,1448,834,0,0
231,190,0,0,0,0,0,0,0,0,0,-1,1455,834,0,0
238,190,0,0,0,0,0,0,0,0,0,-1,1462,834,0,0
245,190,0,0,0,0,0,0,0,0,0,-1,1469,834,0,0
252,190,0,0,0,0,0,0,0,0,0,-1,1476,834,0,0
259,190,0,0,0,0,0,0,0,0,0,-1,1483,834,0,0
266,190,0,0,0,0,0,0,0,0,0,-1,1490,834,0,0
273,190,0,0,0,0,0,0,0,0,0,-1,1497,834,0,0
280,190,0,0,0,0,0,0,0,0,0,-1,1504,834,0,0
287,190,0,0,0,0,0,0,0,0,0,-1,1511,834,0,0
294,190,0,0,0,0,0,0,0,0,0,-1,1518,834,0,0
301,190,0,0,0,0,0,0,0,0,0,-1,1525,834,0,0
308,190,0,0,0,0,0,0,0,0,0,-1,1532,834,0,0
315,190,0,0,0,0,0,0,0,0,0,-1,1539,834,0,0
322,190,0,0,0,0,0,0,0,0,0,-1,1546,834,0,0
329,190,0,0,0,0,0,0,0,0,0,-1,1553,834,0,0
336,190,0,0,0,0,0,0,0,0,0,-1,1560,834,0,0
343,190,0,0,0,0,0,0,0,0,0,-1,1567,834,0,0
350,190,0,0,0,0,0,0,0,0,0,-1,1574,834,0,0
357,190,0,0,0,0,0,0,0,0,0,-1,1581,834,0,0
364,190,0,0,0,0,0,0,0,0,0,-1,1588,834,0,0
371,190,0,0,0,0,0,0,0,0,0,-1,1595,834,0,0
378,190,0,0,0,0,0,0,0,0,0,-1,1602,834,0,0
385,190,0,0,0,0,0,0,0,0,0,-1,1609,834,0,0
392,190,0,0,0,0,0,0,0,0,0,-1,1616,834,0,0
399,190,0,0,0,0,0,0,0,0,0,-1,1623,834,0,0
406,190,0,0,0,0,0,0,0,0,0,-1,1630,834,0,0
413,190,0,0,0,0,0,0,0,0,0,-1,1637,834,0,0
420,190,0,0,0,0,0,0,0,0,0,-1,1644,834,0,0
427,190,0,0,0,0,0,0,0,0,0,-1,1651,834,0,0
434,190,0,0,0,0,0,0,0,0,0,-1,1658,834,0,0
441,190,0,0,0,0,0,0,0,0,0,-1,1665,834,0,0
448,190,0,0,0,0,0,0,0,0,0,-1,1672,834,0,0
455,190,0,0,0,0,0,0,0,0,0,-1,1679,834,0,0
462,190,0,0,0,0,0,0,0,0,0,-1,1686,834,0,0
469,190,0,0,0,0,0,0,0,0,0,-1,1693,834,0,0
476,190,0,0,0,0,0,0,0,0,0,-1,1700,834,0,0
483,190,0,0,0,0,0,0,0,0,0,-1,1707,834,0,0
490,190,0,0,0,0,0,0,0,0,0,-1,1714,834,0,0
497,190,0,0,0,0,0,0,0,0,0,-1,1721,834,0,0
504,190,0,0,0,0,0,0,0,0,0,-1,1728,834,0,0
511,190,0,0,0,0,0,0,0,0,0,-1,1735,834,0,0
518,190,0,0,0,0,0,0,0,0,0,-1,1742,834,0,0
525,190,0,0,0,0,0,0,0,0,0,-1,1749,834,0,0
532,190,0,0,0,0,0,0,0,0,0,-1,1756,834,0,0
539,190,0,0,0,0,0,0,0,0,0,-1,1763,834,0,0
546,190,0,0,0,0,0,0,0,0,0,-1,1770,834,0,0
553,190,0,0,0,0,0,0,0,0,0,-1,1777,834,0,0
560,190,0,0,0,0,0,0,0,0,0,-1,1784,834,0,0
567,190,0,0,0,0,0,0,0,0,0,-1,1791,834,0,0
574,190,0,0,0,0,0,0,0,0,0,-1,1798,834,0,0
581,190,0,0,0,0,0,0,0,0,0,-1,1805,834,0,0
588,190,0,0,0,0,0,0,0,0,0,-1,1812,834,0,0
595,190,0,0,0,0,0,0,0,0,0,-1,1819,834,0,0
602,190,82.0757,2.57635,0.0137197,-0.00168915,0.000149466,0.0137211,-0.0016906,0.00969879,0.00975989,0.0451053,1826,834,82.0756,-2.57638
609,190,82.0698,2.54413,0.0106617,-0.000789921,0.000427187,0.0106777,-0.000805835,0.0372345,0.00740168,0.0416779,1833,834,82.0698,-2.54412
616,190,82.3995,2.37817,0.00708239,3.34974e-05,0.000660967,0.00714383,-2.79453e-05,0.0926923,0.00477189,0.0393371,1840,834,82.3995,-2.37816
623,190,82.3899,2.3042,0.00359657,0.000706233,0.000880809,0.00384384,0.000458967,0.273682,0.0024241,0.0412039,1847,834,82.3899,-2.30423
630,190,82.3782,2.30804,0.00124824,0.00135377,0.00108149,0.00238378,0.000218227,0.809775,0.00152167,0.0420117,1854,834,82.3781,-2.30803
637,190,82.3335,2.43231,0.000581421,0.00135877,0.00096312,0.00200868,-6.84945e-05,0.977182,0.00136253,0.0332617,1861,834,82.3335,-2.43234
644,190,82.2448,2.55353,0.000225461,0.00110653,0.000732804,0.00152102,-0.000189033,1.05603,0.00108254,0.0340372,1868,834,82.2448,-2.55351
651,190,82.1305,2.8045,0,0,0,0,0,0,0,-1,1875,834,82.1305,-2.80453
658,190,54.0599,3.0943,0,0,0,0,0,0,0,-1,1882,834,54.0599,-3.09428
665,190,25.9916,3.05157,0,0,0,0,0,0,0,-1,1889,834,25.9916,-3.05156
672,190,27.2662,1.70862,0,0,0,0,0,0,0,-1,1896,834,27.2662,-1.70861
679,190,65.0929,-1.34094,0,0,0,0,0,0,0,-1,1903,834,65.0928,1.34096
686,190,65.1378,-0.354675,-0.00250705,0.000378784,-0.00101739,0.000701398,-0.00282966,-1.26373,0.00215856,0.0303744,1910,834,65.1378,0.354679
693,190,65.1069,0.646179,-0.00222797,0.000185976,-0.00160569,0.000987741,-0.00302974,-1.10769,0.0024173,0.0382381,1917,834,65.1069,-0.646156
700,190,64.8287,1.53064,-0.00210684,-7.86911e-05,-0.00196018,0.00111419,-0.00329972,-1.02411,0.00265046,0.0285366,1924,834,64.8287,-1.53067
707,190,64.7737,2.49811,-0.00202075,-0.00016154,-0.00199559,0.00111034,-0.00329263,-1.00337,0.00264409,0.0157987,1931,834,64.7736,-2.49811
714,190,64.741,3.42834,-0.00136427,0.000196889,-0.00177302,0.00135355,-0.00252093,-0.992758,0.00227053,0.0142764,1938,834,64.7409,-3.42836
721,190,64.681,4.37262,-0.000630577,0.000528021,-0.0013365,0.00140537,-0.00150793,-0.989899,0.00168234,0.0120573,1945,834,64.6811,-4.37259
728,190,64.609,5.33771,0.000109089,0.000633697,-0.000795239,0.00120878,-0.000465989,-0.944701,0.000998123,0.0136988,1952,834,64.609,-5.33769
735,190,64.5369,6.2796,0.000830763,0.000490372,-0.000240307,0.000955039,0.000366095,-0.47728,0.000556373,0.0139604,1959,834,64.5369,-6.27959
742,190,64.4561,7.23804,0.00149665,-0.000194904,0.000298009,0.00154761,-0.00024587,0.169383,0.00112271,0.0197794,1966,834,64.456,-7.23805
749,190,64.3358,8.27948,0.00202602,-0.00173797,0.000752006,0.0021707,-0.00188265,0.190072,0.00234218,0.042914,1973,834,64.3358,-8.27949
756,190,64.1688,9.31549,0,0,0,0,0,0,0,-1,1980,834,64.1688,-9.3155
763,190,64.4695,9.78687,0,0,0,0,0,0,0,-1,1987,834,64.4694,-9.78689
770,190,54.7947,10.1494,0,0,0,0,0,0,0,-1,1994,834,54.7947,-10.1494
777,190,51.4365,10.3331,0,0,0,0,0,0,0,-1,2001,834,51.4366,-10.3331
784,190,0,0,0,0,0,0,0,0,0,-1,2008,834,0,0
791,190,0,0,0,0,0,0,0,0,0,-1,2015,834,0,0
798,190,0,0,0,0,0,0,0,0,0,-1,2022,834,0,0
805,190,0,0,0,0,0,0,0,0,0,-1,2029,834,0,0
812,190,0,0,0,0,0,0,0,0,0,-1,2036,834,0,0
-700,183,0,0,0,0,0,0,0,0,0,-1,524,841,0,0
-693,183,0,0,0,0,0,0,0,0,0,-1,531,841,0,0
-686,183,0,0,0,0,0,0,0,0,0,-1,538,841,0,0
-679,183,0,0,0,0,0,0,0,0,0,-1,545,841,0,0
-672,183,0,0,0,0,0,0,0,0,0,-1,552,841,0,0
-665,183,0,0,0,0,0,0,0,0,0,-1,559,841,0,0
-658,183,-56.7401,1.32843,0,0,0,0,0,0,0,-1,566,841,-56.7401,-1.32844
-651,183,-44.3059,12.2423,0,0,0,0,0,0,0,-1,573,841,-44.3059,-12.2423
-644,183,-48.9297,11.5898,0,0,0,0,0,0,0,-1,580,841,-48.9298,-11.5898
-637,183,-48.8072,10.7016,0,0,0,0,0,0,0,-1,587,841,-48.8072,-10.7016
-630,183,-48.555,8.91791,0,0,0,0,0,0,0,-1,594,841,-48.555,-8.91789
-623,183,-48.7132,8.21503,0.000752709,-0.00659403,0.00939267,0.00716477,-0.0130061,0.598998,0.0118073,0.0479512,601,841,-48.7132,-8.21503
-616,183,-48.8494,7.48315,-0.00143306,-0.00443228,0.00721023,0.00443186,-0.0102972,0.682868,0.00872568,0.0419745,608,841,-48.8494,-7.48318
-609,183,-48.9717,6.76135,-0.0014166,-0.00219241,0.00596066,0.00416876,-0.00777777,0.752906,0.00700146,0.0204218,615,841,-48.9717,-6.76137
-602,183,-49.0305,5.80493,-0.000680502,-0.000383688,0.00477401,0.00424422,-0.00530841,0.800936,0.00552661,0.0119411,622,841,-49.0305,-5.80492
-595,183,-49.1007,4.81702,0.000582611,0.00118188,0.0038875,0.00478128,-0.00301678,0.82386,0.00454047,0.0124407,629,841,-49.1007,-4.81701
-588,183,-49.126,3.83246,0.00206077,0.00229875,0.00339687,0.00557871,-0.00121918,0.802906,0.00418516,0.0157629,636,841,-49.126,-3.83243
-581,183,-49.2167,2.85925,0.00358362,0.00313198,0.00320995,0.00657569,0.000139917,0.750281,0.0043379,0.017519,643,841,-49.2167,-2.85922
-574,183,-49.2707,1.88892,0.00449748,0.00331942,0.00311479,0.00707845,0.000738452,0.691948,0.00449309,0.0258431,650,841,-49.2707,-1.88889
-567,183,-49.1115,0.67749,0,0,0,0,0,0,0,-1,657,841,-49.1115,-0.677498
-560,183,-47.8532,-0.483398,0,0,0,0,0,0,0,-1,664,841,-47.8532,0.483385
-553,183,-47.9464,-1.70038,0,0,0,0,0,0,0,-1,671,841,-47.9464,1.7004
-546,183,-27.8053,-1.91199,0,0,0,0,0,0,0,-1,678,841,-27.8053,1.91201
-539,183,-16.8032,-0.417297,0,0,0,0,0,0,0,-1,685,841,-16.8032,0.41732
-532,183,-29.9686,0.953613,0,0,0,0,0,0,0,-1,692,841,-29.9686,-0.953627
-525,183,-55.6847,0.842468,0,0,0,0,0,0,0,-1,699,841,-55.6847,-0.842446
-518,183,-65.9058,0.250183,0,0,0,0,0,0,0,-1,706,841,-65.9057,-0.250163
-511,183,-65.7263,0.535767,-0.000699046,0.0092903,0.00403509,0.0107166,-0.00212533,1.23103,0.00794813,0.0409251,713,841,-65.7263,-0.535777
-504,183,-65.5043,0.998047,-0.00125684,0.0110888,0.00386008,0.0121964,-0.0023644,1.29138,0.0090229,0.0396664,720,841,-65.5043,-0.998043
-497,183,-65.5507,1.26587,-0.000587209,0.0133924,0.00217824,0.0137239,-0.000918749,1.41975,0.00947042,0.042489,727,841,-65.5507,-1.26587
-490,183,-65.5272,1.00366,0.00239162,0.0169409,-0.0004541,0.0169551,0.00237746,-1.53963,0.0106001,0.0417507,734,841,-65.5271,-1.00369
-483,183,0,0,0,0,0,0,0,0,0,-1,741,841,0,0
-476,183,0,0,0,0,0,0,0,0,0,-1,748,841,0,0
-469,183,0,0,0,0,0,0,0,0,0,-1,755,841,0,0
-462,183,0,0,0,0,0,0,0,0,0,-1,762,841,0,0
-455,183,0,0,0,0,0,0,0,0,0,-1,769,841,0,0
-448,183,0,0,0,0,0,0,0,0,0,-1,776,841,0,0
-441,183,0,0,0,0,0,0,0,0,0,-1,783,841,0,0
-434,183,0,0,0,0,0,0,0,0,0,-1,790,841,0,0
-427,183,0,0,0,0,0,0,0,0,0,-1,797,841,0,0
-420,183,0,0,0,0,0,0,0,0,0,-1,804,841,0,0
-413,183,0,0,0,0,0,0,0,0,0,-1,811,841,0,0
-406,183,0,0,0,0,0,0,0,0,0,-1,818,841,0,0
-399,183,0,0,0,0,0,0,0,0,0,-1,825,841,0,0
-392,183,0,0,0,0,0,0,0,0,0,-1,832,841,0,0
-385,183,0,0,0,0,0,0,0,0,0,-1,839,841,0,0
-378,183,0,0,0,0,0,0,0,0,0,-1,846,841,0,0
-371,183,0,0,0,0,0,0,0,0,0,-1,853,841,0,0
-364,183,0,0,0,0,0,0,0,0,0,-1,860,841,0,0
-357,183,0,0,0,0,0,0,0,0,0,-1,867,841,0,0
-350,183,0,0,0,0,0,0,0,0,0,-1,874,841,0,0
-343,183,0,0,0,0,0,0,0,0,0,-1,881,841,0,0
-336,183,0,0,0,0,0,0,0,0,0,-1,888,841,0,0
-329,183,0,0,0,0,0,0,0,0,0,-1,895,841,0,0
-322,183,0,0,0,0,0,0,0,0,0,-1,902,841,0,0
-315,183,0,0,0,0,0,0,0,0,0,-1,909,841,0,0
-308,183,0,0,0,0,0,0,0,0,0,-1,916,841,0,0
-301,183,0,0,0,0,0,0,0,0,0,-1,923,841,0,0
-294,183,0,0,0,0,0,0,0,0,0,-1,930,841,0,0
-287,183,0,0,0,0,0,0,0,0,0,-1,937,841,0,0
-280,183,0,0,0,0,0,0,0,0,0,-1,944,841,0,0
-273,183,0,0,0,0,0,0,0,0,0,-1,951,841,0,0
-266,183,0,0,0,0,0,0,0,0,0,-1,958,841,0,0
-259,183,0,0,0,0,0,0,0,0,0,-1,965,841,0,0
-252,183,0,0,0,0,0,0,0,0,0,-1,972,841,0,0
-245,183,0,0,0,0,0,0,0,0,0,-1,979,841,0,0
-238,183,0,0,0,0,0,0,0,0,0,-1,986,841,0,0
-231,183,0,0,0,0,0,0,0,0,0,-1,993,841,0,0
-224,183,0,0,0,0,0,0,0,0,0,-1,1000,841,0,0
-217,183,0,0,0,0,0,0,0,0,0,-1,1007,841,0,0
-210,183,0,0,0,0,0,0,0,0,0,-1,1014,841,0,0
-203,183,0,0,0,0,0,0,0,0,0,-1,1021,841,0,0
-196,183,0,0,0,0,0,0,0,0,0,-1,1028,841,0,0
-189,183,0,0,0,0,0,0,0,0,0,-1,1035,841,0,0
-182,183,0,0,0,0,0,0,0,0,0,-1,1042,841,0,0
-175,183,0,0,0,0,0,0,0,0,0,-1,1049,841,0,0
-168,183,0,0,0,0,0,0,0,0,0,-1,1056,841,0,0
-161,183,0,0,0,0,0,0,0,0,0,-1,1063,841,0,0
-154,183,0,0,0,0,0,0,0,0,0,-1,1070,841,0,0
-147,183,0,0,0,0,0,0,0,0,0,-1,1077,841,0,0
-140,183,0,0,0,0,0,0,0,0,0,-1,1084,841,0,0
-133,183,0,0,0,0,0,0,0,0,0,-1,1091,841,0,0
-126,183,0,0,0,0,0,0,0,0,0,-1,1098,841,0,0
-119,183,0,0,0,0,0,0,0,0,0,-1,1105,841,0,0
-112,183,0,0,0,0,0,0,0,0,0,-1,1112,841,0,0
-105,183,0,0,0,0,0,0,0,0,0,-1,1119,841,0,0
-98,183,0,0,0,0,0,0,0,0,0,-1,1126,841,0,0
-91,183,0,0,0,0,0,0,0,0,0,-1,1133,841,0,0
-84,183,0,0,0,0,0,0,0,0,0,-1,1140,841,0,0
-77,183,0,0,0,0,0,0,0,0,0,-1,1147,841,0,0
-70,183,0,0,0,0,0,0,0,0,0,-1,1154,841,0,0
-63,183,0,0,0,0,0,0,0,0,0,-1,1161,841,0,0
-56,183,0,0,0,0,0,0,0,0,0,-1,1168,841,0,0
-49,183,0,0,0,0,0,0,0,0,0,-1,1175,841,0,0
-42,183,0,0,0,0,0,0,0,0,0,-1,1182,841,0,0
-35,183,0,0,0,0,0,0,0,0,0,-1,1189,841,0,0
-28,183,0,0,0,0,0,0,0,0,0,-1,1196,841,0,0
-21,183,0,0,0,0,0,0,0,0,0,-1,1203,841,0,0
-14,183,0,0,0,0,0,0,0,0,0,-1,1210,841,0,0
-7,183,0,0,0,0,0,0,0,0,0,-1,1217,841,0,0
0,183,0,0,0,0,0,0,0,0,0,-1,1224,841,0,0
7,183,0,0,0,0,0,0,0,0,0,-1,1231,841,0,0
14,183,0,0,0,0,0,0,0,0,0,-1,1238,841,0,0
21,183,0,0,0,0,0,0,0,0,0,-1,1245,841,0,0
28,183,0,0,0,0,0,0,0,0,0,-1,1252,841,0,0
35,183,0,0,0,0,0,0,0,0,0,-1,1259,841,0,0
42,183,0,0,0,0,0,0,0,0,0,-1,1266,841,0,0
49,183,0,0,0,0,0,0,0,0,0,-1,1273,841,0,0
56,183,0,0,0,0,0,0,0,0,0,-1,1280,841,0,0
63,183,0,0,0,0,0,0,0,0,0,-1,1287,841,0,0
70,183,0,0,0,0,0,0,0,0,0,-1,1294,841,0,0
77,183,0,0,0,0,0,0,0,0,0,-1,1301,841,0,0
84,183,0,0,0,0,0,0,0,0,0,-1,1308,841,0,0
91,183,0,0,0,0,0,0,0,0,0,-1,1315,841,0,0
98,183,0,0,0,0,0,0,0,0,0,-1,1322,841,0,0
105,183,0,0,0,0,0,0,0,0,0,-1,1329,841,0,0
112,183,0,0,0,0,0,0,0,0,0,-1,1336,841,0,0
119,183,0,0,0,0,0,0,0,0,0,-1,1343,841,0,0
126,183,0,0,0,0,0,0,0,0,0,-1,1350,841,0,0
133,183,0,0,0,0,0,0,0,0,0,-1,1357,841,0,0
140,183,0,0,0,0,0,0,0,0,0,-1,1364,841,0,0
147,183,0,0,0,0,0,0,0,0,0,-1,1371,841,0,0
154,183,0,0,0,0,0,0,0,0,0,-1,1378,841,0,0
161,183,0,0,0,0,0,0,0,0,0,-1,1385,841,0,0
168,183,0,0,0,0,0,0,0,0,0,-1,1392,841,0,0
175,183,0,0,0,0,0,0,0,0,0,-1,1399,841,0,0
182,183,0,0,0,0,0,0,0,0,0,-1,1406,841,0,0
189,183,0,0,0,0,0,0,0,0,0,-1,1413,841,0,0
196,183,0,0,0,0,0,0,0,0,0,-1,1420,841,0,0
203,183,0,0,0,0,0,0,0,0,0,-1,1427,841,0,0
210,183,0,0,0,0,0,0,0,0,0,-1,1434,841,0,0
217,183,0,0,0,0,0,0,0,0,0,-1,1441,841,0,0
224,183,0,0,0,0,0,0,0,0,0,-1,1448,841,0,0
231,183,0,0,0,0,0,0,0,0,0,-1,1455,841,0,0
238,183,0,0,0,0,0,0,0,0,0,-1,1462,841,0,0
245,183,0,0,0,0,0,0,0,0,0,-1,1469,841,0,0
252,183,0,0,0,0,0,0,0,0,0,-1,1476,841,0,0
259,183,0,0,0,0,0,0,0,0,0,-1,1483,841,0,0
266,183,0,0,0,0,0,0,0,0,0,-1,1490,841,0,0
273,183,0,0,0,0,0,0,0,0,0,-1,1497,841,0,0
280,183,0,0,0,0,0,0,0,0,0,-1,1504,841,0,0
287,183,0,0,0,0,0,0,0,0,0,-1,1511,841,0,0
294,183,0,0,0,0,0,0,0,0,0,-1,1518,841,0,0
301,183,0,0,0,0,0,0,0,0,0,-1,1525,841,0,0
308,183,0,0,0,0,0,0,0,0,0,-1,1532,841,0,0
315,183,0,0,0,0,0,0,0,0,0,-1,1539,841,0,0
322,183,0,0,0,0,0,0,0,0,0,-1,1546,841,0,0
329,183,0,0,0,0,0,0,0,0,0,-1,1553,841,0,0
336,183,0,0,0,0,0,0,0,0,0,-1,1560,841,0,0
343,183,0,0,0,0,0,0,0,0,0,-1,1567,841,0,0
350,183,0,0,0,0,0,0,0,0,0,-1,1574,841,0,0
357,183,0,0,0,0,0,0,0,0,0,-1,1581,841,0,0
364,183,0,0,0,0,0,0,0,0,0,-1,1588,841,0,0
371,183,0,0,0,0,0,0,0,0,0,-1,1595,841,0,0
378,183,0,0,0,0,0,0,0,0,0,-1,1602,841,0,0
385,183,0,0,0,0,0,0,0,0,0,-1,1609,841,0,0
392,183,0,0,0,0,0,0,0,0,0,-1,1616,841,0,0
399,183,0,0,0,0,0,0,0,0,0,-1,1623,841,0,0
406,183,0,0,0,0,0,0,0,0,0,-1,1630,841,0,0
413,183,0,0,0,0,0,0,0,0,0,-1,1637,841,0,0
420,183,0,0,0,0,0,0,0,0,0,-1,1644,841,0,0
427,183,0,0,0,0,0,0,0,0,0,-1,1651,841,0,0
434,183,0,0,0,0,0,0,0,0,0,-1,1658,841,0,0
441,183,0,0,0,0,0,0,0,0,0,-1,1665,841,0,0
448,183,0,0,0,0,0,0,0,0,0,-1,1672,841,0,0
455,183,0,0,0,0,0,0,0,0,0,-1,1679,841,0,0
462,183,0,0,0,0,0,0,0,0,0,-1,1686,841,0,0
469,183,0,0,0,0,0,0,0,0,0,-1,1693,841,0,0
476,183,0,0,0,0,0,0,0,0,0,-1,1700,841,0,0
483,183,0,0,0,0,0,0,0,0,0,-1,1707,841,0,0
490,183,0,0,0,0,0,0,0,0,0,-1,1714,841,0,0
497,183,0,0,0,0,0,0,0,0,0,-1,1721,841,0,0
504,183,0,0,0,0,0,0,0,0,0,-1,1728,841,0,0
511,183,0,0,0,0,0,0,0,0,0,-1,1735,841,0,0
518,183,0,0,0,0,0,0,0,0,0,-1,1742,841,0,0
525,183,0,0,0,0,0,0,0,0,0,-1,1749,841,0,0
532,183,0,0,0,0,0,0,0,0,0,-1,1756,841,0,0
539,183,0,0,0,0,0,0,0,0,0,-1,1763,841,0,0
546,183,0,0,0,0,0,0,0,0,0,-1,1770,841,0,0
553,183,0,0,0,0,0,0,0,0,0,-1,1777,841,0,0
560,183,0,0,0,0,0,0,0,0,0,-1,1784,841,0,0
567,183,0,0,0,0,0,0,0,0,0,-1,1791,841,0,0
574,183,0,0,0,0,0,0,0,0,0,-1,1798,841,0,0
581,183,0,0,0,0,0,0,0,0,0,-1,1805,841,0,0
588,183,0,0,0,0,0,0,0,0,0,-1,1812,841,0,0
595,183,0,0,0,0,0,0,0,0,0,-1,1819,841,0,0
602,183,0,0,0,0,0,0,0,0,0,-1,1826,841,0,0
609,183,82.1722,2.68378,0.0131273,-0.00166776,-7.71286e-06,0.0131273,-0.00166776,-0.000521314,0.00935712,0.0416051,1833,841,82.1722,-2.68376
616,183,82.3057,2.45221,0.00949133,-0.000630771,0.000364923,0.00950447,-0.000643911,0.0359898,0.00656149,0.0393203,1840,841,82.3057,-2.45223
623,183,82.323,2.37012,0.00562516,0.000280282,0.000702416,0.00571593,0.000189513,0.128512,0.00374905,0.0434312,1847,841,82.323,-2.37009
630,183,82.3424,2.39502,0.00230496,0.00123793,0.000968202,0.00287691,0.00066598,0.533578,0.00173899,0.0423319,1854,841,82.3424,-2.39501
637,183,82.255,2.48462,0.000789448,0.00150807,0.000956426,0.00217045,0.000127068,0.965083,0.00140653,0.0363037,1861,841,82.255,-2.48465
644,183,82.135,2.55469,0.000105668,0.00129978,0.000758627,0.00166812,-0.000262673,1.11879,0.00120919,0.029489,1868,841,82.1351,-2.55469
651,183,82.2021,2.60657,-0.000208072,0.000925513,0.000406151,0.00105601,-0.000338569,1.25991,0.000839926,0.0461233,1875,841,82.2021,-2.60656
658,183,82.2888,2.58807,0,0,0,0,0,0,0,-1,1882,841,82.2888,-2.58808
665,183,38.4337,2.66992,0,0,0,0,0,0,0,-1,1889,841,38.4337,-2.6699
672,183,29.168,1.54572,0,0,0,0,0,0,0,-1,1896,841,29.168,-1.54574
679,183,65.9874,-1.20148,0,0,0,0,0,0,0,-1,1903,841,65.9874,1.20145
686,183,66.0466,-0.255676,-0.00281564,0.000690199,-0.00122446,0.00107551,-0.00320095,-1.26593,0.00256865,0.0394329,1910,841,66.0466,0.255707
693,183,66.0012,0.615112,-0.00253173,0.000638697,-0.00178278,0.00143911,-0.00333214,-1.1488,0.00282603,0.0343296,1917,841,66.0013,-0.615085
700,183,65.8717,1.64233,-0.00239689,0.000462277,-0.00217268,0.00163351,-0.00356813,-1.07638,0.00307162,0.0419686,1924,841,65.8717,-1.64231
707,183,65.7198,2.58868,-0.00232084,0.000373751,-0.00234922,0.0017346,-0.00368169,-1.04575,0.00319374,0.0157734,1931,841,65.7198,-2.58868
714,183,65.7322,3.49561,-0.00167989,0.000643967,-0.00230348,0.00206198,-0.00309791,-1.01899,0.00299901,0.017716,1938,841,65.7322,-3.49559
721,183,65.671,4.44916,-0.000966818,0.000909662,-0.00198714,0.00216892,-0.00222608,-1.00596,0.00253753,0.0157376,1945,841,65.671,-4.44918
728,183,65.5743,5.41125,-0.000254295,0.000986643,-0.00150053,0.00198993,-0.00125758,-0.981443,0.00189078,0.0145925,1952,841,65.5743,-5.41127
735,183,65.5327,6.32605,0.000433139,0.000925148,-0.000985262,0.00169465,-0.000336366,-0.907739,0.00125698,0.013765,1959,841,65.5327,-6.32603
742,183,65.483,7.25659,0.00107294,0.000537743,-0.000492948,0.00136624,0.000244444,-0.536728,0.000841269,0.0135352,1966,841,65.483,-7.25662
749,183,65.424,8.37067,0.00162184,-0.00040174,-7.19411e-05,0.00162439,-0.000404295,-0.0354917,0.00123986,0.0364098,1973,841,65.4239,-8.37069
756,183,65.3959,9.55225,0,0,0,0,0,0,0,-1,1980,841,65.3959,-9.55222
763,183,65.3206,10.6119,0,0,0,0,0,0,0,-1,1987,841,65.3206,-10.6119
770,183,51.5659,9.50665,0,0,0,0,0,0,0,-1,1994,841,51.5659,-9.50663
777,183,42.1948,7.22906,0,0,0,0,0,0,0,-1,2001,841,42.1948,-7.22905
784,183,0,0,0,0,0,0,0,0,0,-1,2008,841,0,0
791,183,0,0,0,0,0,0,0,0,0,-1,2015,841,0,0
798,183,0,0,0,0,0,0,0,0,0,-1,2022,841,0,0
805,183,0,0,0,0,0,0,0,0,0,-1,2029,841,0,0
812,183,0,0,0,0,0,0,0,0,0,-1,2036,841,0,0
-700,176,0,0,0,0,0,0,0,0,0,-1,524,848,0,0
-693,176,0,0,0,0,0,0,0,0,0,-1,531,848,0,0
-686,176,0,0,0,0,0,0,0,0,0,-1,538,848,0,0
-679,176,0,0,0,0,0,0,0,0,0,-1,545,848,0,0
-672,176,0,0,0,0,0,0,0,0,0,-1,552,848,0,0
-665,176,-59.6962,8.75854,0,0,0,0,0,0,0,-1,559,848,-59.6962,-8.75853
-658,176,-59.6349,7.95142,0,0,0,0,0,0,0,-1,566,848,-59.6349,-7.95144
-651,176,-50.3386,12.2672,0,0,0,0,0,0,0,-1,573,848,-50.3386,-12.2672
-644,176,-50.0466,11.4407,0,0,0,0,0,0,0,-1,580,848,-50.0466,-11.4406
-637,176,-49.761,10.3766,0,0,0,0,0,0,0,-1,587,848,-49.7611,-10.3766
-630,176,-50.0354,9.26398,0,0,0,0,0,0,0,-1,594,848,-50.0354,-9.26397
-623,176,-49.9822,8.50916,0.00013543,-0.00481661,0.00712201,0.00519954,-0.00988073,0.618105,0.00884532,0.0414484,601,848,-49.9822,-8.50917
-616,176,-49.8069,7.77618,-0.00149597,-0.00311094,0.00564937,0.00340334,-0.00801024,0.714412,0.0067662,0.0288493,608,848,-49.8069,-7.77619
-609,176,-49.9676,6.8125,-0.00127162,-0.00119189,0.00488397,0.00365238,-0.00611589,0.789479,0.00569918,0.0133242,615,848,-49.9676,-6.81247
-602,176,-50.0104,5.83228,-0.000449171,0.000437721,0.00417188,0.00418965,-0.0042011,0.838346,0.00484441,0.0131448,622,848,-50.0105,-5.83228
-595,176,-50.0736,4.84509,0.000823258,0.00184143,0.00372488,0.00509185,-0.00242716,0.853314,0.00443104,0.0133853,629,848,-50.0736,-4.84509
-588,176,-50.1087,3.88971,0.0021808,0.00269398,0.00355217,0.00599882,-0.00112403,0.821453,0.00442177,0.0157725,636,848,-50.1087,-3.88969
-581,176,-50.2233,2.97015,0.00346556,0.00324972,0.00353977,0.00689905,-0.000183776,0.770159,0.00466183,0.0170419,643,848,-50.2233,-2.97012
-574,176,-50.4001,2.05975,0.0041298,0.00314706,0.00339573,0.00706952,0.000207337,0.713546,0.00464545,0.0336627,650,848,-50.4001,-2.05976
-567,176,-50.1251,1.13733,0.00401552,0.00234754,0.0027768,0.00608087,0.0002822,0.639513,0.0039632,0.0480073,657,848,-50.1251,-1.1373
-560,176,-50.0436,0.046936,0,0,0,0,0,0,0,-1,664,848,-50.0436,-0.0469489
-553,176,-48.7212,-1.62811,0,0,0,0,0,0,0,-1,671,848,-48.7212,1.6281
-546,176,-16.657,-0.403198,0,0,0,0,0,0,0,-1,678,848,-16.657,0.403182
-539,176,-22.7061,1.48657,0,0,0,0,0,0,0,-1,685,848,-22.7061,-1.48657
-532,176,-38.8326,1.29749,0,0,0,0,0,0,0,-1,692,848,-38.8326,-1.29747
-525,176,-65.7276,0.50946,0,0,0,0,0,0,0,-1,699,848,-65.7276,-0.509446
-518,176,-65.8372,0.43866,0.00155084,0.00806702,0.00362195,0.00968065,-6.27958e-05,1.15168,0.0064748,0.0461959,706,848,-65.8371,-0.438674
-511,176,-65.9462,0.336426,-0.000188894,0.0090031,0.00365087,0.0102767,-0.00146248,1.23515,0.00738703,0.0401686,713,848,-65.9461,-0.336396
-504,176,-65.7752,0.585632,-0.000136621,0.0113999,0.00310143,0.0121808,-0.000917539,1.32413,0.00844302,0.0401363,720,848,-65.7752,-0.585628
-497,176,-65.5245,0.801697,0.00122666,0.0145592,0.00105541,0.0146423,0.00114363,1.49229,0.00940351,0.0427639,727,848,-65.5245,-0.801686
-490,176,-65.5012,0.692383,0.00458995,0.0188869,-0.00170677,0.0190878,0.00438902,-1.45361,0.0115438,0.0411152,734,848,-65.5012,-0.692367
-483,176,0,0,0,0,0,0,0,0,0,-1,741,848,0,0
-476,176,0,0,0,0,0,0,0,0,0,-1,748,848,0,0
-469,176,0,0,0,0,0,0,0,0,0,-1,755,848,0,0
-462,176,0,0,0,0,0,0,0,0,0,-1,762,848,0,0
-455,176,0,0,0,0,0,0,0,0,0,-1,769,848,0,0
-448,176,0,0,0,0,0,0,0,0,0,-1,776,848,0,0
-441,176,0,0,0,0,0,0,0,0,0,-1,783,848,0,0
-434,176,0,0,0,0,0,0,0,0,0,-1,790,848,0,0
-427,176,0,0,0,0,0,0,0,0,0,-1,797,848,0,0
-420,176,0,0,0,0,0,0,0,0,0,-1,804,848,0,0
-413,176,0,0,0,0,0,0,0,0,0,-1,811,848,0,0
-406,176,0,0,0,0,0,0,0,0,0,-1,818,848,0,0
-399,176,0,0,0,0,0,0,0,0,0,-1,825,848,0,0
-392,176,0,0,0,0,0,0,0,0,0,-1,832,848,0,0
-385,176,0,0,0,0,0,0,0,0,0,-1,839,848,0,0
-378,176,0,0,0,0,0,0,0,0,0,-1,846,848,0,0
-371,176,0,0,0,0,0,0,0,0,0,-1,853,848,0,0
-364,176,0,0,0,0,0,0,0,0,0,-1,860,848,0,0
-357,176,0,0,0,0,0,0,0,0,0,-1,867,848,0,0
-350,176,0,0,0,0,0,0,0,0,0,-1,874,848,0,0
-343,176,0,0,0,0,0,0,0,0,0,-1,881,848,0,0
-336,176,0,0,0,0,0,0,0,0,0,-1,888,848,0,0
-329,176,0,0,0,0,0,0,0,0,0,-1,895,848,0,0
-322,176,0,0,0,0,0,0,0,0,0,-1,902,848,0,0
-315,176,0,0,0,0,0,0,0,0,0,-1,909,848,0,0
-308,176,0,0,0,0,0,0,0,0,0,-1,916,848,0,0
-301,176,0,0,0,0,0,0,0,0,0,-1,923,848,0,0
-294,176,0,0,0,0,0,0,0,0,0,-1,930,848,0,0
-287,176,0,0,0,0,0,0,0,0,0,-1,937,848,0,0
-280,176,0,0,0,0,0,0,0,0,0,-1,944,848,0,0
-273,176,0,0,0,0,0,0,0,0,0,-1,951,848,0,0
-266,176,0,0,0,0,0,0,0,0,0,-1,958,848,0,0
-259,176,0,0,0,0,0,0,0,0,0,-1,965,848,0,0
-252,176,0,0,0,0,0,0,0,0,0,-1,972,848,0,0
-245,176,0,0,0,0,0,0,0,0,0,-1,979,848,0,0
-238,176,0,0,0,0,0,0,0,0,0,-1,986,848,0,0
-231,176,0,0,0,0,0,0,0,0,0,-1,993,848,0,0
-224,176,0,0,0,0,0,0,0,0,0,-1,1000,848,0,0
-217,176,0,0,0,0,0,0,0,0,0,-1,1007,848,0,0
-210,176,0,0,0,0,0,0,0,0,0,-1,1014,848,0,0
-203,176,0,0,0,0,0,0,0,0,0,-1,1021,848,0,0
-196,176,0,0,0,0,0,0,0,0,0,-1,1028,848,0,0
-189,176,0,0,0,0,0,0,0,0,0,-1,1035,848,0,0
-182,176,0,0,0,0,0,0,0,0,0,-1,1042,848,0,0
-175,176,0,0,0,0,0,0,0,0,0,-1,1049,848,0,0
-168,176,0,0,0,0,0,0,0,0,0,-1,1056,848,0,0
-161,176,0,0,0,0,0,0,0,0,0,-1,1063,848,0,0
-154,176,0,0,0,0,0,0,0,0,0,-1,1070,848,0,0
-147,176,0,0,0,0,0,0,0,0,0,-1,1077,848,0,0
-140,176,0,0,0,0,0,0,0,0,0,-1,1084,848,0,0
-133,176,0,0,0,0,0,0,0,0,0,-1,1091,848,0,0
-126,176,0,0,0,0,0,0,0,0,0,-1,1098,848,0,0
-119,176,0,0,0,0,0,0,0,0,0,-1,1105,848,0,0
-112,176,0,0,0,0,0,0,0,0,0,-1,1112,848,0,0
-105,176,0,0,0,0,0,0,0,0,0,-1,1119,848,0,0
-98,176,0,0,0,0,0,0,0,0,0,-1,1126,848,0,0
-91,176,0,0,0,0,0,0,0,0,0,-1,1133,848,0,0
-84,176,0,0,0,0,0,0,0,0,0,-1,1140,848,0,0
-77,176,0,0,0,0,0,0,0,0,0,-1,1147,848,0,0
-70,176,0,0,0,0,0,0,0,0,0,-1,1154,848,0,0
-63,176,0,0,0,0,0,0,0,0,0,-1,1161,848,0,0
-56,176,0,0,0,0,0,0,0,0,0,-1,1168,848,0,0
-49,176,0,0,0,0,0,0,0,0,0,-1,1175,848,0,0
-42,176,0,0,0,0,0,0,0,0,0,-1,1182,848,0,0
-35,176,0,0,0,0,0,0,0,0,0,-1,1189,848,0,0
-28,176,0,0,0,0,0,0,0,0,0,-1,1196,848,0,0
-21,176,0,0,0,0,0,0,0,0,0,-1,1203,848,0,0
-14,176,0,0,0,0,0,0,0,0,0,-1,1210,848,0,0
-7,176,0,0,0,0,0,0,0,0,0,-1,1217,848,0,0
0,176,0,0,0,0,0,0,0,0,0,-1,1224,848,0,0
7,176,0,0,0,0,0,0,0,0,0,-1,1231,848,0,0
14,176,0,0,0,0,0,0,0,0,0,-1,1238,848,0,0
21,176,0,0,0,0,0,0,0,0,0,-1,1245,848,0,0
28,176,0,0,0,0,0,0,0,0,0,-1,1252,848,0,0
35,176,0,0,0,0,0,0,0,0,0,-1,1259,848,0,0
42,176,0,0,0,0,0,0,0,0,0,-1,1266,848,0,0
49,176,0,0,0,0,0,0,0,0,0,-1,1273,848,0,0
56,176,0,0,0,0,0,0,0,0,0,-1,1280,848,0,0
63,176,0,0,0,0,0,0,0,0,0,-1,1287,848,0,0
70,176,0,0,0,0,0,0,0,0,0,-1,1294,848,0,0
77,176,0,0,0,0,0,0,0,0,0,-1,1301,848,0,0
84,176,0,0,0,0,0,0,0,0,0,-1,1308,848,0,0
91,176,0,0,0,0,0,0,0,0,0,-1,1315,848,0,0
98,176,0,0,0,0,0,0,0,0,0,-1,1322,848,0,0
105,176,0,0,0,0,0,0,0,0,0,-1,1329,848,0,0
112,176,0,0,0,0,0,0,0,0,0,-1,1336,848,0,0
119,176,0,0,0,0,0,0,0,0,0,-1,1343,848,0,0
126,176,0,0,0,0,0,0,0,0,0,-1,1350,848,0,0
133,176,0,0,0,0,0,0,0,0,0,-1,1357,848,0,0
140,176,0,0,0,0,0,0,0,0,0,-1,1364,848,0,0
147,176,0,0,0,0,0,0,0,0,0,-1,1371,848,0,0
154,176,0,0,0,0,0,0,0,0,0,-1,1378,848,0,0
161,176,0,0,0,0,0,0,0,0,0,-1,1385,848,0,0
168,176,0,0,0,0,0,0,0,0,0,-1,1392,848,0,0
175,176,0,0,0,0,0,0,0,0,0,-1,1399,848,0,0
182,176,0,0,0,0,0,0,0,0,0,-1,1406,848,0,0
189,176,0,0,0,0,0,0,0,0,0,-1,1413,848,0,0
196,176,0,0,0,0,0,0,0,0,0,-1,1420,848,0,0
203,176,0,0,0,0,0,0,0,0,0,-1,1427,848,0,0
210,176,0,0,0,0,0,0,0,0,0,-1,1434,848,0,0
217,176,0,0,0,0,0,0,0,0,0,-1,1441,848,0,0
224,176,0,0,0,0,0,0,0,0,0,-1,1448,848,0,0
231,176,0,0,0,0,0,0,0,0,0,-1,1455,848,0,0
238,176,0,0,0,0,0,0,0,0,0,-1,1462,848,0,0
245,176,0,0,0,0,0,0,0,0,0,-1,1469,848,0,0
252,176,0,0,0,0,0,0,0,0,0,-1,1476,848,0,0
259,176,0,0,0,0,0,0,0,0,0,-1,1483,848,0,0
266,176,0,0,0,0,0,0,0,0,0,-1,1490,848,0,0
273,176,0,0,0,0,0,0,0,0,0,-1,1497,848,0,0
280,176,0,0,0,0,0,0,0,0,0,-1,1504,848,0,0
287,176,0,0,0,0,0,0,0,0,0,-1,1511,848,0,0
294,176,0,0,0,0,0,0,0,0,0,-1,1518,848,0,0
301,176,0,0,0,0,0,0,0,0,0,-1,1525,848,0,0
308,176,0,0,0,0,0,0,0,0,0,-1,1532,848,0,0
315,176,0,0,0,0,0,0,0,0,0,-1,1539,848,0,0
322,176,0,0,0,0,0,0,0,0,0,-1,1546,848,0,0
329,176,0,0,0,0,0,0,0,0,0,-1,1553,848,0,0
336,176,0,0,0,0,0,0,0,0,0,-1,1560,848,0,0
343,176,0,0,0,0,0,0,0,0,0,-1,1567,848,0,0
350,176,0,0,0,0,0,0,0,0,0,-1,1574,848,0,0
357,176,0,0,0,0,0,0,0,0,0,-1,1581,848,0,0
364,176,0,0,0,0,0,0,0,0,0,-1,1588,848,0,0
371,176,0,0,0,0,0,0,0,0,0,-1,1595,848,0,0
378,176,0,0,0,0,0,0,0,0,0,-1,1602,848,0,0
385,176,0,0,0,0,0,0,0,0,0,-1,1609,848,0,0
392,176,0,0,0,0,0,0,0,0,0,-1,1616,848,0,0
399,176,0,0,0,0,0,0,0,0,0,-1,1623,848,0,0
406,176,0,0,0,0,0,0,0,0,0,-1,1630,848,0,0
413,176,0,0,0,0,0,0,0,0,0,-1,1637,848,0,0
420,176,0,0,0,0,0,0,0,0,0,-1,1644,848,0,0
427,176,0,0,0,0,0,0,0,0,0,-1,1651,848,0,0
434,176,0,0,0,0,0,0,0,0,0,-1,1658,848,0,0
441,176,0,0,0,0,0,0,0,0,0,-1,1665,848,0,0
448,176,0,0,0,0,0,0,0,0,0,-1,1672,848,0,0
455,176,0,0,0,0,0,0,0,0,0,-1,1679,848,0,0
462,176,0,0,0,0,0,0,0,0,0,-1,1686,848,0,0
469,176,0,0,0,0,0,0,0,0,0,-1,1693,848,0,0
476,176,0,0,0,0,0,0,0,0,0,-1,1700,848,0,0
483,176,0,0,0,0,0,0,0,0,0,-1,1707,848,0,0
490,176,0,0,0,0,0,0,0,0,0,-1,1714,848,0,0
497,176,0,0,0,0,0,0,0,0,0,-1,1721,848,0,0
504,176,0,0,0,0,0,0,0,0,0,-1,1728,848,0,0
511,176,0,0,0,0,0,0,0,0,0,-1,1735,848,0,0
518,176,0,0,0,0,0,0,0,0,0,-1,1742,848,0,0
525,176,0,0,0,0,0,0,0,0,0,-1,1749,848,0,0
532,176,0,0,0,0,0,0,0,0,0,-1,1756,848,0,0
539,176,0,0,0,0,0,0,0,0,0,-1,1763,848,0,0
546,176,0,0,0,0,0,0,0,0,0,-1,1770,848,0,0
553,176,0,0,0,0,0,0,0,0,0,-1,1777,848,0,0
560,176,0,0,0,0,0,0,0,0,0,-1,1784,848,0,0
567,176,0,0,0,0,0,0,0,0,0,-1,1791,848,0,0
574,176,0,0,0,0,0,0,0,0,0,-1,1798,848,0,0
581,176,0,0,0,0,0,0,0,0,0,-1,1805,848,0,0
588,176,0,0,0,0,0,0,0,0,0,-1,1812,848,0,0
595,176,0,0,0,0,0,0,0,0,0,-1,1819,848,0,0
602,176,0,0,0,0,0,0,0,0,0,-1,1826,848,0,0
609,176,82.1803,2.73621,0,0,0,0,0,0,0,-1,1833,848,82.1803,-2.73623
616,176,82.0134,2.16986,0,0,0,0,0,0,0,-1,1840,848,82.0135,-2.16987
623,176,82.1215,2.25153,0.00774297,-0.00069675,0.000550593,0.00777874,-0.000732518,0.0648718,0.00544645,0.0444988,1847,848,82.1214,-2.2515
630,176,82.4308,2.45746,0.00388202,0.000568109,0.000884276,0.00410321,0.000346915,0.245112,0.00262748,0.0411765,1854,848,82.4307,-2.45746
637,176,82.3707,2.51532,0.0014822,0.00127454,0.000978436,0.0023623,0.000394443,0.732537,0.00146124,0.0346541,1861,848,82.3708,-2.5153
644,176,82.2065,2.51331,0.000272266,0.00128014,0.000819263,0.00173805,-0.000185642,1.06113,0.00122527,0.0330442,1868,848,82.2066,-2.51328
651,176,82.2253,2.49335,-0.00034949,0.000942726,0.000432078,0.00107389,-0.000480651,1.27608,0.000919039,0.03608,1875,848,82.2254,-2.49336
658,176,82.2797,2.43787,0,0,0,0,0,0,0,-1,1882,848,82.2796,-2.43786
665,176,54.3333,2.34277,0,0,0,0,0,0,0,-1,1889,848,54.3333,-2.34279
672,176,16.9304,2.80719,0,0,0,0,0,0,0,-1,1896,848,16.9305,-2.80719
679,176,50.9341,0.315979,0,0,0,0,0,0,0,-1,1903,848,50.9341,-0.315984
686,176,67.189,-0.106445,0,0,0,0,0,0,0,-1,1910,848,67.189,0.106426
693,176,66.9951,0.777344,-0.00275319,0.000813092,-0.00192367,0.00165295,-0.00359304,-1.15915,0.00309705,0.0360964,1917,848,66.9951,-0.777329
700,176,66.9242,1.89014,-0.00261277,0.00073837,-0.0023113,0.00191755,-0.00379196,-1.09904,0.00335508,0.0441125,1924,848,66.9242,-1.89015
707,176,66.8567,2.74792,-0.00253523,0.00070566,-0.00258315,0.00213456,-0.00396413,-1.06553,0.0035735,0.037066,1931,848,66.8567,-2.74793
714,176,66.6669,3.55945,-0.00195203,0.000949231,-0.00268104,0.00254693,-0.00354973,-1.03338,0.00353574,0.0165859,1938,848,66.6669,-3.55948
721,176,66.6223,4.48468,-0.00130493,0.00122696,-0.00247756,0.00274326,-0.00282124,-1.02159,0.00321277,0.0146303,1945,848,66.6224,-4.48467
728,176,66.5271,5.45544,-0.000630805,0.00135915,-0.00202991,0.00262482,-0.00189647,-1.01327,0.00262163,0.0179471,1952,848,66.5271,-5.45546
735,176,66.4728,6.37445,6.299e-05,0.00147428,-0.00152061,0.002445,-0.000907721,-1.00264,0.00200237,0.0157951,1959,848,66.4728,-6.37447
742,176,66.4165,7.31372,0.000725189,0.00149311,-0.00104256,0.00222016,-1.86323e-06,-0.961834,0.00148073,0.022801,1966,848,66.4165,-7.3137
749,176,66.5399,8.39136,0.00133525,0.00126758,-0.000648848,0.00195114,0.000651684,-0.759351,0.001147,0.035664,1973,848,66.5399,-8.39134
756,176,66.579,9.71606,0,0,0,0,0,0,0,-1,1980,848,66.5789,-9.71607
763,176,44.4343,7.70581,0,0,0,0,0,0,0,-1,1987,848,44.4343,-7.70578
770,176,36.4186,4.25641,0,0,0,0,0,0,0,-1,1994,848,36.4186,-4.25639
777,176,43.8328,7.50177,0,0,0,0,0,0,0,-1,2001,848,43.8328,-7.50178
784,176,0,0,0,0,0,0,0,0,0,-1,2008,848,0,0
791,176,0,0,0,0,0,0,0,0,0,-1,2015,848,0,0
798,176,0,0,0,0,0,0,0,0,0,-1,2022,848,0,0
805,176,0,0,0,0,0,0,0,0,0,-1,2029,848,0,0
812,176,0,0,0,0,0,0,0,0,0,-1,2036,848,0,0
-700,169,0,0,0,0,0,0,0,0,0,-1,524,855,0,0
-693,169,0,0,0,0,0,0,0,0,0,-1,531,855,0,0
-686,169,0,0,0,0,0,0,0,0,0,-1,538,855,0,0
-679,169,0,0,0,0,0,0,0,0,0,-1,545,855,0,0
-672,169,0,0,0,0,0,0,0,0,0,-1,552,855,0,0
-665,169,-50.4697,8.3269,0,0,0,0,0,0,0,-1,559,855,-50.4697,-8.32688
-658,169,-58.8608,8.22839,0,0,0,0,0,0,0,-1,566,855,-58.8608,-8.2284
-651,169,-51.5437,12.0944,0,0,0,0,0,0,0,-1,573,855,-51.5437,-12.0943
-644,169,-51.1926,11.3176,0,0,0,0,0,0,0,-1,580,855,-51.1926,-11.3176
-637,169,-50.715,10.0516,0,0,0,0,0,0,0,-1,587,855,-50.715,-10.0516
-630,169,-50.9475,9.77808,0,0,0,0,0,0,0,-1,594,855,-50.9475,-9.7781
-623,169,-50.8962,8.80298,-0.000678708,-0.00278807,0.00512827,0.00350221,-0.00696898,0.683982,0.006155,0.0400772,601,855,-50.8963,-8.803
-616,169,-50.8591,7.81677,-0.00155993,-0.00161179,0.00422363,0.00263784,-0.00580957,0.782329,0.00499039,0.0232101,608,855,-50.859,-7.81677
-609,169,-50.9421,6.87518,-0.0010695,-8.70752e-05,0.00391705,0.00336944,-0.00452602,0.847775,0.00457472,0.014446,615,855,-50.9422,-6.87519
-602,169,-50.9923,5.88983,-0.000179633,0.00128071,0.00370746,0.00432922,-0.00322814,0.882627,0.00437865,0.0143672,622,855,-50.9923,-5.88983
-595,169,-51.0483,4.89545,0.00102788,0.00238393,0.00370816,0.00547554,-0.00206373,0.875822,0.00449892,0.0132121,629,855,-51.0483,-4.89545
-588,169,-51.0983,3.96466,0.00221285,0.00284322,0.00377423,0.0063154,-0.00125933,0.827056,0.00468678,0.0119035,636,855,-51.0983,-3.96464
-581,169,-51.2076,3.0672,0.00327921,0.0030815,0.00381521,0.00699685,-0.000636131,0.772446,0.00489042,0.0299217,643,855,-51.2077,-3.06721
-574,169,-51.5868,2.09308,0.00380024,0.00279017,0.00355426,0.00688516,-0.000294755,0.714824,0.00469145,0.0451093,650,855,-51.5868,-2.0931
-567,169,-51.4417,1.09656,0.00377404,0.00196329,0.00282925,0.00583925,-0.00010192,0.630544,0.00392725,0.0391474,657,855,-51.4416,-1.09657
-560,169,-51.4999,0.248901,0,0,0,0,0,0,0,-1,664,855,-51.4999,-0.248918
-553,169,-32.1944,-0.787964,0,0,0,0,0,0,0,-1,671,855,-32.1944,0.787959
-546,169,-19.0852,-1.05609,0,0,0,0,0,0,0,-1,678,855,-19.0852,1.05612
-539,169,-33.2307,1.10706,0,0,0,0,0,0,0,-1,685,855,-33.2307,-1.10708
-532,169,-63.9528,-0.102661,0,0,0,0,0,0,0,-1,692,855,-63.9528,0.102655
-525,169,-65.6872,0.60907,0,0,0,0,0,0,0,-1,699,855,-65.6872,-0.60906
-518,169,-65.7549,0.62262,0.0019165,0.00710722,0.00313939,0.00858514,0.000438571,1.13081,0.00558298,0.0410225,706,855,-65.7549,-0.622634
-511,169,-65.7971,0.552063,0.000572231,0.0084651,0.00298996,0.00946985,-0.00043252,1.24661,0.00646223,0.0399724,713,855,-65.797,-0.552076
-504,169,-65.8546,0.461365,0.00150013,0.0115372,0.00203556,0.0119343,0.00110302,1.37813,0.00761523,0.0422424,720,855,-65.8546,-0.46135
-497,169,-65.6745,0.670349,0.00338558,0.015307,-2.47557e-05,0.015307,0.00338553,-1.56872,0.00928427,0.0438737,727,855,-65.6745,-0.670347
-490,169,0,0,0,0,0,0,0,0,0,-1,734,855,0,0
-483,169,0,0,0,0,0,0,0,0,0,-1,741,855,0,0
-476,169,0,0,0,0,0,0,0,0,0,-1,748,855,0,0
-469,169,0,0,0,0,0,0,0,0,0,-1,755,855,0,0
-462,169,0,0,0,0,0,0,0,0,0,-1,762,855,0,0
-455,169,0,0,0,0,0,0,0,0,0,-1,769,855,0,0
-448,169,0,0,0,0,0,0,0,0,0,-1,776,855,0,0
-441,169,0,0,0,0,0,0,0,0,0,-1,783,855,0,0
-434,169,0,0,0,0,0,0,0,0,0,-1,790,855,0,0
-427,169,0,0,0,0,0,0,0,0,0,-1,797,855,0,0
-420,169,0,0,0,0,0,0,0,0,0,-1,804,855,0,0
-413,169,0,0,0,0,0,0,0,0,0,-1,811,855,0,0
-406,169,0,0,0,0,0,0,0,0,0,-1,818,855,0,0
-399,169,0,0,0,0,0,0,0,0,0,-1,825,855,0,0
-392,169,0,0,0,0,0,0,0,0,0,-1,832,855,0,0
-385,169,0,0,0,0,0,0,0,0,0,-1,839,855,0,0
-378,169,0,0,0,0,0,0,0,0,0,-1,846,855,0,0
-371,169,0,0,0,0,0,0,0,0,0,-1,853,855,0,0
-364,169,0,0,0,0,0,0,0,0,0,-1,860,855,0,0
-357,169,0,0,0,0,0,0,0,0,0,-1,867,855,0,0
-350,169,0,0,0,0,0,0,0,0,0,-1,874,855,0,0
-343,169,0,0,0,0,0,0,0,0,0,-1,881,855,0,0
-336,169,0,0,0,0,0,0,0,0,0,-1,888,855,0,0
-329,169,0,0,0,0,0,0,0,0,0,-1,895,855,0,0
-322,169,0,0,0,0,0,0,0,0,0,-1,902,855,0,0
-315,169,0,0,0,0,0,0,0,0,0,-1,909,855,0,0
-308,169,0,0,0,0,0,0,0,0,0,-1,916,855,0,0
-301,169,0,0,0,0,0,0,0,0,0,-1,923,855,0,0
-294,169,0,0,0,0,0,0,0,0,0,-1,930,855,0,0
-287,169,0,0,0,0,0,0,0,0,0,-1,937,855,0,0
-280,169,0,0,0,0,0,0,0,0,0,-1,944,855,0,0
-273,169,0,0,0,0,0,0,0,0,0,-1,951,855,0,0
-266,169,0,0,0,0,0,0,0,0,0,-1,958,855,0,0
-259,169,0,0,0,0,0,0,0,0,0,-1,965,855,0,0
-252,169,0,0,0,0,0,0,0,0,0,-1,972,855,0,0
-245,169,0,0,0,0,0,0,0,0,0,-1,979,855,0,0
-238,169,0,0,0,0,0,0,0,0,0,-1,986,855,0,0
-231,169,0,0,0,0,0,0,0,0,0,-1,993,855,0,0
-224,169,0,0,0,0,0,0,0,0,0,-1,1000,855,0,0
-217,169,0,0,0,0,0,0,0,0,0,-1,1007,855,0,0
-210,169,0,0,0,0,0,0,0,0,0,-1,1014,855,0,0
-203,169,0,0,0,0,0,0,0,0,0,-1,1021,855,0,0
-196,169,0,0,0,0,0,0,0,0,0,-1,1028,855,0,0
-189,169,0,0,0,0,0,0,0,0,0,-1,1035,855,0,0
-182,169,0,0,0,0,0,0,0,0,0,-1,1042,855,0,0
-175,169,0,0,0,0,0,0,0,0,0,-1,1049,855,0,0
-168,169,0,0,0,0,0,0,0,0,0,-1,1056,855,0,0
-161,169,0,0,0,0,0,0,0,0,0,-1,1063,855,0,0
-154,169,0,0,0,0,0,0,0,0,0,-1,1070,855,0,0
-147,169,0,0,0,0,0,0,0,0,0,-1,1077,855,0,0
-140,169,0,0,0,0,0,0,0,0,0,-1,1084,855,0,0
-133,169,0,0,0,0,0,0,0,0,0,-1,1091,855,0,0
-126,169,0,0,0,0,0,0,0,0,0,-1,1098,855,0,0
-119,169,0,0,0,0,0,0,0,0,0,-1,1105,855,0,0
-112,169,0,0,0,0,0,0,0,0,0,-1,1112,855,0,0
-105,169,0,0,0,0,0,0,0,0,0,-1,1119,855,0,0
-98,169,0,0,0,0,0,0,0,0,0,-1,1126,855,0,0
-91,169,0,0,0,0,0,0,0,0,0,-1,1133,855,0,0
-84,169,0,0,0,0,0,0,0,0,0,-1,1140,855,0,0
-77,169,0,0,0,0,0,0,0,0,0,-1,1147,855,0,0
-70,169,0,0,0,0,0,0,0,0,0,-1,1154,855,0,0
-63,169,0,0,0,0,0,0,0,0,0,-1,1161,855,0,0
-56,169,0,0,0,0,0,0,0,0,0,-1,1168,855,0,0
-49,169,0,0,0,0,0,0,0,0,0,-1,1175,855,0,0
-42,169,0,0,0,0,0,0,0,0,0,-1,1182,855,0,0
-35,169,0,0,0,0,0,0,0,0,0,-1,1189,855,0,0
-28,169,0,0,0,0,0,0,0,0,0,-1,1196,855,0,0
-21,169,0,0,0,0,0,0,0,0,0,-1,1203,855,0,0
-14,169,0,0,0,0,0,0,0,0,0,-1,1210,855,0,0
-7,169,0,0,0,0,0,0,0,0,0,-1,1217,855,0,0
0,169,0,0,0,0,0,0,0,0,0,-1,1224,855,0,0
7,169,0,0,0,0,0,0,0,0,0,-1,1231,855,0,0
14,169,0,0,0,0,0,0,0,0,0,-1,1238,855,0,0
21,169,0,0,0,0,0,0,0,0,0,-1,1245,855,0,0
28,169,0,0,0,0,0,0,0,0,0,-1,1252,855,0,0
35,169,0,0,0,0,0,0,0,0,0,-1,1259,855,0,0
42,169,0,0,0,0,0,0,0,0,0,-1,1266,855,0,0
49,169,0,0,0,0,0,0,0,0,0,-1,1273,855,0,0
56,169,0,0,0,0,0,0,0,0,0,-1,1280,855,0,0
63,169,0,0,0,0,0,0,0,0,0,-1,1287,855,0,0
70,169,0,0,0,0,0,0,0,0,0,-1,1294,855,0,0
77,169,0,0,0,0,0,0,0,0,0,-1,1301,855,0,0
84,169,0,0,0,0,0,0,0,0,0,-1,1308,855,0,0
91,169,0,0,0,0,0,0,0,0,0,-1,1315,855,0,0
98,169,0,0,0,0,0,0,0,0,0,-1,1322,855,0,0
105,169,0,0,0,0,0,0,0,0,0,-1,1329,855,0,0
112,169,0,0,0,0,0,0,0,0,0,-1,1336,855,0,0
119,169,0,0,0,0,0,0,0,0,0,-1,1343,855,0,0
126,169,0,0,0,0,0,0,0,0,0,-1,1350,855,0,0
133,169,0,0,0,0,0,0,0,0,0,-1,1357,855,0,0
140,169,0,0,0,0,0,0,0,0,0,-1,1364,855,0,0
147,169,0,0,0,0,0,0,0,0,0,-1,1371,855,0,0
154,169,0,0,0,0,0,0,0,0,0,-1,1378,855,0,0
161,169,0,0,0,0,0,0,0,0,0,-1,1385,855,0,0
168,169,0,0,0,0,0,0,0,0,0,-1,1392,855,0,0
175,169,0,0,0,0,0,0,0,0,0,-1,1399,855,0,0
182,169,0,0,0,0,0,0,0,0,0,-1,1406,855,0,0
189,169,0,0,0,0,0,0,0,0,0,-1,1413,855,0,0
196,169,0,0,0,0,0,0,0,0,0,-1,1420,855,0,0
203,169,0,0,0,0,0,0,0,0,0,-1,1427,855,0,0
210,169,0,0,0,0,0,0,0,0,0,-1,1434,855,0,0
217,169,0,0,0,0,0,0,0,0,0,-1,1441,855,0,0
224,169,0,0,0,0,0,0,0,0,0,-1,1448,855,0,0
231,169,0,0,0,0,0,0,0,0,0,-1,1455,855,0,0
238,169,0,0,0,0,0,0,0,0,0,-1,1462,855,0,0
245,169,0,0,0,0,0,0,0,0,0,-1,1469,855,0,0
252,169,0,0,0,0,0,0,0,0,0,-1,1476,855,0,0
259,169,0,0,0,0,0,0,0,0,0,-1,1483,855,0,0
266,169,0,0,0,0,0,0,0,0,0,-1,1490,855,0,0
273,169,0,0,0,0,0,0,0,0,0,-1,1497,855,0,0
280,169,0,0,0,0,0,0,0,0,0,-1,1504,855,0,0
287,169,0,0,0,0,0,0,0,0,0,-1,1511,855,0,0
294,169,0,0,0,0,0,0,0,0,0,-1,1518,855,0,0
301,169,0,0,0,0,0,0,0,0,0,-1,1525,855,0,0
308,169,0,0,0,0,0,0,0,0,0,-1,1532,855,0,0
315,169,0,0,0,0,0,0,0,0,0,-1,1539,855,0,0
322,169,0,0,0,0,0,0,0,0,0,-1,1546,855,0,0
329,169,0,0,0,0,0,0,0,0,0,-1,1553,855,0,0
336,169,0,0,0,0,0,0,0,0,0,-1,1560,855,0,0
343,169,0,0,0,0,0,0,0,0,0,-1,1567,855,0,0
350,169,0,0,0,0,0,0,0,0,0,-1,1574,855,0,0
357,169,0,0,0,0,0,0,0,0,0,-1,1581,855,0,0
364,169,0,0,0,0,0,0,0,0,0,-1,1588,855,0,0
371,169,0,0,0,0,0,0,0,0,0,-1,1595,855,0,0
378,169,0,0,0,0,0,0,0,0,0,-1,1602,855,0,0
385,169,0,0,0,0,0,0,0,0,0,-1,1609,855,0,0
392,169,0,0,0,0,0,0,0,0,0,-1,1616,855,0,0
399,169,0,0,0,0,0,0,0,0,0,-1,1623,855,0,0
406,169,0,0,0,0,0,0,0,0,0,-1,1630,855,0,0
413,169,0,0,0,0,0,0,0,0,0,-1,1637,855,0,0
420,169,0,0,0,0,0,0,0,0,0,-1,1644,855,0,0
427,169,0,0,0,0,0,0,0,0,0,-1,1651,855,0,0
434,169,0,0,0,0,0,0,0,0,0,-1,1658,855,0,0
441,169,0,0,0,0,0,0,0,0,0,-1,1665,855,0,0
448,169,0,0,0,0,0,0,0,0,0,-1,1672,855,0,0
455,169,0,0,0,0,0,0,0,0,0,-1,1679,855,0,0
462,169,0,0,0,0,0,0,0,0,0,-1,1686,855,0,0
469,169,0,0,0,0,0,0,0,0,0,-1,1693,855,0,0
476,169,0,0,0,0,0,0,0,0,0,-1,1700,855,0,0
483,169,0,0,0,0,0,0,0,0,0,-1,1707,855,0,0
490,169,0,0,0,0,0,0,0,0,0,-1,1714,855,0,0
497,169,0,0,0,0,0,0,0,0,0,-1,1721,855,0,0
504,169,0,0,0,0,0,0,0,0,0,-1,1728,855,0,0
511,169,0,0,0,0,0,0,0,0,0,-1,1735,855,0,0
518,169,0,0,0,0,0,0,0,0,0,-1,1742,855,0,0
525,169,0,0,0,0,0,0,0,0,0,-1,1749,855,0,0
532,169,0,0,0,0,0,0,0,0,0,-1,1756,855,0,0
539,169,0,0,0,0,0,0,0,0,0,-1,1763,855,0,0
546,169,0,0,0,0,0,0,0,0,0,-1,1770,855,0,0
553,169,0,0,0,0,0,0,0,0,0,-1,1777,855,0,0
560,169,0,0,0,0,0,0,0,0,0,-1,1784,855,0,0
567,169,0,0,0,0,0,0,0,0,0,-1,1791,855,0,0
574,169,0,0,0,0,0,0,0,0,0,-1,1798,855,0,0
581,169,0,0,0,0,0,0,0,0,0,-1,1805,855,0,0
588,169,0,0,0,0,0,0,0,0,0,-1,1812,855,0,0
595,169,0,0,0,0,0,0,0,0,0,-1,1819,855,0,0
602,169,0,0,0,0,0,0,0,0,0,-1,1826,855,0,0
609,169,0,0,0,0,0,0,0,0,0,-1,1833,855,0,0
616,169,82.0208,2.49255,0.0143506,-0.00288132,7.05502e-05,0.0143509,-0.0028816,0.00409406,0.0106584,0.044928,1840,855,82.0207,-2.49254
623,169,82.3223,2.48004,0.00987864,-0.00156525,0.000473166,0.00989817,-0.00158478,0.0412528,0.00718553,0.045491,1847,855,82.3223,-2.48004
630,169,82.5691,2.50537,0.0056292,-0.000187652,0.00079921,0.00573701,-0.000295462,0.134086,0.00392687,0.0421527,1854,855,82.5691,-2.50539
637,169,82.4524,2.54761,0.00252278,0.000862458,0.000953117,0.00295658,0.000428657,0.427119,0.00184484,0.0369787,1861,855,82.4524,-2.54758
644,169,82.2953,2.52734,0.000715459,0.00114005,0.000853465,0.00180723,4.82841e-05,0.907298,0.00118905,0.0365346,1868,855,82.2953,-2.52734
651,169,82.2913,2.50177,-0.000298079,0.000915335,0.000475791,0.00107965,-0.000462391,1.23827,0.000913762,0.0370423,1875,855,82.2913,-2.5018
658,169,82.2874,2.48169,0,0,0,0,0,0,0,-1,1882,855,82.2873,-2.48169
665,169,74.1068,1.9809,0,0,0,0,0,0,0,-1,1889,855,74.1069,-1.98093
672,169,31.2465,2.96387,0,0,0,0,0,0,0,-1,1896,855,31.2464,-2.9639
679,169,38.4297,1.08197,0,0,0,0,0,0,0,-1,1903,855,38.4296,-1.08194
686,169,67.903,-0.0999756,0,0,0,0,0,0,0,-1,1910,855,67.9029,0.0999663
693,169,68.0839,0.933228,-0.00290434,0.000909538,-0.00206081,0.00181033,-0.00380514,-1.15872,0.00330958,0.0429978,1917,855,68.0839,-0.933211
700,169,68.0771,1.98132,-0.00278652,0.000902816,-0.00243603,0.00211381,-0.00399751,-1.10946,0.00358381,0.0372336,1924,855,68.0771,-1.9813
707,169,67.9423,2.89673,-0.00272829,0.000933488,-0.00277318,0.00242565,-0.00422045,-1.07716,0.00388348,0.0433612,1931,855,67.9423,-2.8967
714,169,67.5717,3.58008,-0.00223869,0.00122271,-0.00300348,0.00295845,-0.00397444,-1.04678,0.00401701,0.0246816,1938,855,67.5717,-3.58008
721,169,67.5725,4.53003,-0.00173516,0.00163727,-0.00295494,0.00335326,-0.00345115,-1.04468,0.00392866,0.0204859,1945,855,67.5726,-4.53003
728,169,67.4949,5.49353,-0.00117613,0.00194295,-0.0026186,0.00343123,-0.00266441,-1.05397,0.00352859,0.016916,1952,855,67.4948,-5.49351
735,169,67.4124,6.43347,-0.000538322,0.0023019,-0.00217795,0.00348182,-0.00171824,-1.0743,0.00305927,0.0207441,1959,855,67.4124,-6.43349
742,169,67.3859,7.35828,9.43743e-05,0.00272474,-0.00173096,0.00358348,-0.000764366,-1.11027,0.00268036,0.0179536,1966,855,67.3858,-7.35829
749,169,67.2855,8.14819,0.000699975,0.00308739,-0.00138415,0.00372147,6.58968e-05,-1.14123,0.00245931,0.0292332,1973,855,67.2855,-8.14816
756,169,67.3726,8.87976,0,0,0,0,0,0,0,-1,1980,855,67.3726,-8.87974
763,169,61.2976,7.40009,0,0,0,0,0,0,0,-1,1987,855,61.2975,-7.40007
770,169,37.2059,3.97021,0,0,0,0,0,0,0,-1,1994,855,37.2059,-3.97022
777,169,41.7505,8.7085,0,0,0,0,0,0,0,-1,2001,855,41.7505,-8.70852
784,169,40.7385,9.24359,0,0,0,0,0,0,0,-1,2008,855,40.7384,-9.24361
791,169,0,0,0,0,0,0,0,0,0,-1,2015,855,0,0
798,169,0,0,0,0,0,0,0,0,0,-1,2022,855,0,0
805,169,0,0,0,0,0,0,0,0,0,-1,2029,855,0,0
812,169,0,0,0,0,0,0,0,0,0,-1,2036,855,0,0
-700,162,0,0,0,0,0,0,0,0,0,-1,524,862,0,0
-693,162,0,0,0,0,0,0,0,0,0,-1,531,862,0,0
-686,162,0,0,0,0,0,0,0,0,0,-1,538,862,0,0
-679,162,0,0,0,0,0,0,0,0,0,-1,545,862,0,0
-672,162,0,0,0,0,0,0,0,0,0,-1,552,862,0,0
-665,162,-50.6751,7.18884,0,0,0,0,0,0,0,-1,559,862,-50.6751,-7.18885
-658,162,-50.7888,6.02673,0,0,0,0,0,0,0,-1,566,862,-50.7888,-6.02673
-651,162,-53.0629,7.56506,0,0,0,0,0,0,0,-1,573,862,-53.0628,-7.56505
-644,162,-52.2357,11.2145,0,0,0,0,0,0,0,-1,580,862,-52.2356,-11.2145
-637,162,-51.0726,10.2426,0,0,0,0,0,0,0,-1,587,862,-51.0726,-10.2426
-630,162,-52.0038,10.0499,0,0,0,0,0,0,0,-1,594,862,-52.0038,-10.0499
-623,162,-51.8691,8.9248,-0.00263991,-0.000640108,0.00384915,0.0023369,-0.00561691,0.912475,0.0047205,0.0353196,601,862,-51.8691,-8.92479
-616,162,-51.7949,7.84753,-0.00270597,3.305e-05,0.0034359,0.00236232,-0.00503524,0.975043,0.00436293,0.0214209,608,862,-51.7948,-7.84754
-609,162,-51.9265,6.89551,-0.00177283,0.00114001,0.00352407,0.00349675,-0.00412958,0.981348,0.00440811,0.0143151,615,862,-51.9265,-6.89552
-602,162,-52.0025,5.93689,-0.000589497,0.00214914,0.00375298,0.0047748,-0.00321516,0.960325,0.00464221,0.0123663,622,862,-52.0025,-5.93689
-595,162,-52.0455,4.98492,0.00081007,0.00280471,0.00406846,0.0059963,-0.00238152,0.905596,0.00498476,0.0120002,629,862,-52.0455,-4.9849
-588,162,-52.0428,4.0484,0.00206043,0.00284922,0.00417127,0.0066447,-0.00173505,0.832533,0.00510735,0.0193939,636,862,-52.0428,-4.04838
-581,162,-52.1483,2.89514,0,0,0,0,0,0,0,-1,643,862,-52.1483,-2.89511
-574,162,-52.9349,1.74756,0,0,0,0,0,0,0,-1,650,862,-52.9349,-1.74753
-567,162,-52.906,0.991089,0,0,0,0,0,0,0,-1,657,862,-52.906,-0.991084
-560,162,-36.5075,-0.831665,0,0,0,0,0,0,0,-1,664,862,-36.5075,0.831657
-553,162,-35.9823,-1.60956,0,0,0,0,0,0,0,-1,671,862,-35.9823,1.60954
-546,162,-22.8181,-1.51154,0,0,0,0,0,0,0,-1,678,862,-22.8181,1.51155
-539,162,-53.0229,0.9328,0,0,0,0,0,0,0,-1,685,862,-53.0229,-0.932798
-532,162,-65.6372,0.644348,0,0,0,0,0,0,0,-1,692,862,-65.6372,-0.64437
-525,162,-65.6817,0.604248,0.003583,0.00488751,0.00293871,0.00724548,0.00122503,0.894604,0.00447818,0.0441838,699,862,-65.6817,-0.604277
-518,162,-65.7246,0.553772,0.00249975,0.00605236,0.0027256,0.00752938,0.00102272,1.07419,0.00471579,0.0412605,706,862,-65.7246,-0.553755
-511,162,-65.7242,0.603455,0.00153837,0.00775395,0.00226215,0.00849007,0.000802252,1.25619,0.00541249,0.0429077,713,862,-65.7242,-0.60348
-504,162,-65.76,0.616394,0.00272765,0.0109635,0.00103728,0.0110921,0.00259902,1.44742,0.00669864,0.0437706,720,862,-65.76,-0.616369
-497,162,-65.7443,0.760498,0.00435376,0.0144387,-0.000506336,0.014464,0.00432841,-1.52076,0.00857223,0.0440982,727,862,-65.7443,-0.760527
-490,162,0,0,0,0,0,0,0,0,0,-1,734,862,0,0
-483,162,0,0,0,0,0,0,0,0,0,-1,741,862,0,0
-476,162,0,0,0,0,0,0,0,0,0,-1,748,862,0,0
-469,162,0,0,0,0,0,0,0,0,0,-1,755,862,0,0
-462,162,0,0,0,0,0,0,0,0,0,-1,762,862,0,0
-455,162,0,0,0,0,0,0,0,0,0,-1,769,862,0,0
-448,162,0,0,0,0,0,0,0,0,0,-1,776,862,0,0
-441,162,0,0,0,0,0,0,0,0,0,-1,783,862,0,0
-434,162,0,0,0,0,0,0,0,0,0,-1,790,862,0,0
-427,162,0,0,0,0,0,0,0,0,0,-1,797,862,0,0
-420,162,0,0,0,0,0,0,0,0,0,-1,804,862,0,0
-413,162,0,0,0,0,0,0,0,0,0,-1,811,862,0,0
-406,162,0,0,0,0,0,0,0,0,0,-1,818,862,0,0
-399,162,0,0,0,0,0,0,0,0,0,-1,825,862,0,0
-392,162,0,0,0,0,0,0,0,0,0,-1,832,862,0,0
-385,162,0,0,0,0,0,0,0,0,0,-1,839,862,0,0
-378,162,0,0,0,0,0,0,0,0,0,-1,846,862,0,0
-371,162,0,0,0,0,0,0,0,0,0,-1,853,862,0,0
-364,162,0,0,0,0,0,0,0,0,0,-1,860,862,0,0
-357,162,0,0,0,0,0,0,0,0,0,-1,867,862,0,0
-350,162,0,0,0,0,0,0,0,0,0,-1,874,862,0,0
-343,162,0,0,0,0,0,0,0,0,0,-1,881,862,0,0
-336,162,0,0,0,0,0,0,0,0,0,-1,888,862,0,0
-329,162,0,0,0,0,0,0,0,0,0,-1,895,862,0,0
-322,162,0,0,0,0,0,0,0,0,0,-1,902,862,0,0
-315,162,0,0,0,0,0,0,0,0,0,-1,909,862,0,0
-308,162,0,0,0,0,0,0,0,0,0,-1,916,862,0,0
-301,162,0,0,0,0,0,0,0,0,0,-1,923,862,0,0
-294,162,0,0,0,0,0,0,0,0,0,-1,930,862,0,0
-287,162,0,0,0,0,0,0,0,0,0,-1,937,862,0,0
-280,162,0,0,0,0,0,0,0,0,0,-1,944,862,0,0
-273,162,0,0,0,0,0,0,0,0,0,-1,951,862,0,0
-266,162,0,0,0,0,0,0,0,0,0,-1,958,862,0,0
-259,162,0,0,0,0,0,0,0,0,0,-1,965,862,0,0
-252,162,0,0,0,0,0,0,0,0,0,-1,972,862,0,0
-245,162,0,0,0,0,0,0,0,0,0,-1,979,862,0,0
-238,162,0,0,0,0,0,0,0,0,0,-1,986,862,0,0
-231,162,0,0,0,0,0,0,0,0,0,-1,993,862,0,0
-224,162,0,0,0,0,0,0,0,0,0,-1,1000,862,0,0
-217,162,0,0,0,0,0,0,0,0,0,-1,1007,862,0,0
-210,162,0,0,0,0,0,0,0,0,0,-1,1014,862,0,0
-203,162,0,0,0,0,0,0,0,0,0,-1,1021,862,0,0
-196,162,0,0,0,0,0,0,0,0,0,-1,1028,862,0,0
-189,162,0,0,0,0,0,0,0,0,0,-1,1035,862,0,0
-182,162,0,0,0,0,0,0,0,0,0,-1,1042,862,0,0
-175,162,0,0,0,0,0,0,0,0,0,-1,1049,862,0,0
-168,162,0,0,0,0,0,0,0,0,0,-1,1056,862,0,0
-161,162,0,0,0,0,0,0,0,0,0,-1,1063,862,0,0
-154,162,0,0,0,0,0,0,0,0,0,-1,1070,862,0,0
-147,162,0,0,0,0,0,0,0,0,0,-1,1077,862,0,0
-140,162,0,0,0,0,0,0,0,0,0,-1,1084,862,0,0
-133,162,0,0,0,0,0,0,0,0,0,-1,1091,862,0,0
-126,162,0,0,0,0,0,0,0,0,0,-1,1098,862,0,0
-119,162,0,0,0,0,0,0,0,0,0,-1,1105,862,0,0
-112,162,0,0,0,0,0,0,0,0,0,-1,1112,862,0,0
-105,162,0,0,0,0,0,0,0,0,0,-1,1119,862,0,0
-98,162,0,0,0,0,0,0,0,0,0,-1,1126,862,0,0
-91,162,0,0,0,0,0,0,0,0,0,-1,1133,862,0,0
-84,162,0,0,0,0,0,0,0,0,0,-1,1140,862,0,0
-77,162,0,0,0,0,0,0,0,0,0,-1,1147,862,0,0
-70,162,0,0,0,0,0,0,0,0,0,-1,1154,862,0,0
-63,162,0,0,0,0,0,0,0,0,0,-1,1161,862,0,0
-56,162,0,0,0,0,0,0,0,0,0,-1,1168,862,0,0
-49,162,0,0,0,0,0,0,0,0,0,-1,1175,862,0,0
-42,162,0,0,0,0,0,0,0,0,0,-1,1182,862,0,0
-35,162,0,0,0,0,0,0,0,0,0,-1,1189,862,0,0
-28,162,0,0,0,0,0,0,0,0,0,-1,1196,862,0,0
-21,162,0,0,0,0,0,0,0,0,0,-1,1203,862,0,0
-14,162,0,0,0,0,0,0,0,0,0,-1,1210,862,0,0
-7,162,0,0,0,0,0,0,0,0,0,-1,1217,862,0,0
0,162,0,0,0,0,0,0,0,0,0,-1,1224,862,0,0
7,162,0,0,0,0,0,0,0,0,0,-1,1231,862,0,0
14,162,0,0,0,0,0,0,0,0,0,-1,1238,862,0,0
21,162,0,0,0,0,0,0,0,0,0,-1,1245,862,0,0
28,162,0,0,0,0,0,0,0,0,0,-1,1252,862,0,0
35,162,0,0,0,0,0,0,0,0,0,-1,1259,862,0,0
42,162,0,0,0,0,0,0,0,0,0,-1,1266,862,0,0
49,162,0,0,0,0,0,0,0,0,0,-1,1273,862,0,0
56,162,0,0,0,0,0,0,0,0,0,-1,1280,862,0,0
63,162,0,0,0,0,0,0,0,0,0,-1,1287,862,0,0
70,162,0,0,0,0,0,0,0,0,0,-1,1294,862,0,0
77,162,0,0,0,0,0,0,0,0,0,-1,1301,862,0,0
84,162,0,0,0,0,0,0,0,0,0,-1,1308,862,0,0
91,162,0,0,0,0,0,0,0,0,0,-1,1315,862,0,0
98,162,0,0,0,0,0,0,0,0,0,-1,1322,862,0,0
105,162,0,0,0,0,0,0,0,0,0,-1,1329,862,0,0
112,162,0,0,0,0,0,0,0,0,0,-1,1336,862,0,0
119,162,0,0,0,0,0,0,0,0,0,-1,1343,862,0,0
126,162,0,0,0,0,0,0,0,0,0,-1,1350,862,0,0
133,162,0,0,0,0,0,0,0,0,0,-1,1357,862,0,0
140,162,0,0,0,0,0,0,0,0,0,-1,1364,862,0,0
147,162,0,0,0,0,0,0,0,0,0,-1,1371,862,0,0
154,162,0,0,0,0,0,0,0,0,0,-1,1378,862,0,0
161,162,0,0,0,0,0,0,0,0,0,-1,1385,862,0,0
168,162,0,0,0,0,0,0,0,0,0,-1,1392,862,0,0
175,162,0,0,0,0,0,0,0,0,0,-1,1399,862,0,0
182,162,0,0,0,0,0,0,0,0,0,-1,1406,862,0,0
189,162,0,0,0,0,0,0,0,0,0,-1,1413,862,0,0
196,162,0,0,0,0,0,0,0,0,0,-1,1420,862,0,0
203,162,0,0,0,0,0,0,0,0,0,-1,1427,862,0,0
210,162,0,0,0,0,0,0,0,0,0,-1,1434,862,0,0
217,162,0,0,0,0,0,0,0,0,0,-1,1441,862,0,0
224,162,0,0,0,0,0,0,0,0,0,-1,1448,862,0,0
231,162,0,0,0,0,0,0,0,0,0,-1,1455,862,0,0
238,162,0,0,0,0,0,0,0,0,0,-1,1462,862,0,0
245,162,0,0,0,0,0,0,0,0,0,-1,1469,862,0,0
252,162,0,0,0,0,0,0,0,0,0,-1,1476,862,0,0
259,162,0,0,0,0,0,0,0,0,0,-1,1483,862,0,0
266,162,0,0,0,0,0,0,0,0,0,-1,1490,862,0,0
273,162,0,0,0,0,0,0,0,0,0,-1,1497,862,0,0
280,162,0,0,0,0,0,0,0,0,0,-1,1504,862,0,0
287,162,0,0,0,0,0,0,0,0,0,-1,1511,862,0,0
294,162,0,0,0,0,0,0,0,0,0,-1,1518,862,0,0
301,162,0,0,0,0,0,0,0,0,0,-1,1525,862,0,0
308,162,0,0,0,0,0,0,0,0,0,-1,1532,862,0,0
315,162,0,0,0,0,0,0,0,0,0,-1,1539,862,0,0
322,162,0,0,0,0,0,0,0,0,0,-1,1546,862,0,0
329,162,0,0,0,0,0,0,0,0,0,-1,1553,862,0,0
336,162,0,0,0,0,0,0,0,0,0,-1,1560,862,0,0
343,162,0,0,0,0,0,0,0,0,0,-1,1567,862,0,0
350,162,0,0,0,0,0,0,0,0,0,-1,1574,862,0,0
357,162,0,0,0,0,0,0,0,0,0,-1,1581,862,0,0
364,162,0,0,0,0,0,0,0,0,0,-1,1588,862,0,0
371,162,0,0,0,0,0,0,0,0,0,-1,1595,862,0,0
378,162,0,0,0,0,0,0,0,0,0,-1,1602,862,0,0
385,162,0,0,0,0,0,0,0,0,0,-1,1609,862,0,0
392,162,0,0,0,0,0,0,0,0,0,-1,1616,862,0,0
399,162,0,0,0,0,0,0,0,0,0,-1,1623,862,0,0
406,162,0,0,0,0,0,0,0,0,0,-1,1630,862,0,0
413,162,0,0,0,0,0,0,0,0,0,-1,1637,862,0,0
420,162,0,0,0,0,0,0,0,0,0,-1,1644,862,0,0
427,162,0,0,0,0,0,0,0,0,0,-1,1651,862,0,0
434,162,0,0,0,0,0,0,0,0,0,-1,1658,862,0,0
441,162,0,0,0,0,0,0,0,0,0,-1,1665,862,0,0
448,162,0,0,0,0,0,0,0,0,0,-1,1672,862,0,0
455,162,0,0,0,0,0,0,0,0,0,-1,1679,862,0,0
462,162,0,0,0,0,0,0,0,0,0,-1,1686,862,0,0
469,162,0,0,0,0,0,0,0,0,0,-1,1693,862,0,0
476,162,0,0,0,0,0,0,0,0,0,-1,1700,862,0,0
483,162,0,0,0,0,0,0,0,0,0,-1,1707,862,0,0
490,162,0,0,0,0,0,0,0,0,0,-1,1714,862,0,0
497,162,0,0,0,0,0,0,0,0,0,-1,1721,862,0,0
504,162,0,0,0,0,0,0,0,0,0,-1,1728,862,0,0
511,162,0,0,0,0,0,0,0,0,0,-1,1735,862,0,0
518,162,0,0,0,0,0,0,0,0,0,-1,1742,862,0,0
525,162,0,0,0,0,0,0,0,0,0,-1,1749,862,0,0
532,162,0,0,0,0,0,0,0,0,0,-1,1756,862,0,0
539,162,0,0,0,0,0,0,0,0,0,-1,1763,862,0,0
546,162,0,0,0,0,0,0,0,0,0,-1,1770,862,0,0
553,162,0,0,0,0,0,0,0,0,0,-1,1777,862,0,0
560,162,0,0,0,0,0,0,0,0,0,-1,1784,862,0,0
567,162,0,0,0,0,0,0,0,0,0,-1,1791,862,0,0
574,162,0,0,0,0,0,0,0,0,0,-1,1798,862,0,0
581,162,0,0,0,0,0,0,0,0,0,-1,1805,862,0,0
588,162,0,0,0,0,0,0,0,0,0,-1,1812,862,0,0
595,162,0,0,0,0,0,0,0,0,0,-1,1819,862,0,0
602,162,0,0,0,0,0,0,0,0,0,-1,1826,862,0,0
609,162,0,0,0,0,0,0,0,0,0,-1,1833,862,0,0
616,162,82.1128,2.25885,0.0155222,-0.00253131,-0.000286463,0.0155268,-0.00253585,-0.0158621,0.0112918,0.0454724,1840,862,82.1128,-2.25884
623,162,82.2866,2.43982,0.011044,-0.00117748,6.43273e-05,0.0110443,-0.00117782,0.00526327,0.00778525,0.0449805,1847,862,82.2866,-2.43982
630,162,82.3871,2.53839,0.00681799,7.00468e-05,0.000368454,0.00683805,4.99878e-05,0.0543869,0.00454213,0.0405709,1854,862,82.3871,-2.53838
637,162,82.3129,2.5069,0.00345305,0.00115851,0.000567145,0.00358558,0.00102598,0.229556,0.00213232,0.0384485,1861,862,82.3128,-2.50687
644,162,82.3104,2.4621,0.00120923,0.00158844,0.000543971,0.0019749,0.000822765,0.953092,0.00114548,0.0374971,1868,862,82.3105,-2.46207
651,162,82.3561,2.44025,-0.000168113,0.00149087,0.000208104,0.00151657,-0.000193819,1.44789,0.00108146,0.0356465,1875,862,82.3561,-2.44026
658,162,82.3232,2.44507,-0.00134288,0.00122214,-0.000431381,0.00129275,-0.00141349,-1.40856,0.00156296,0.036356,1882,862,82.3232,-2.44508
665,162,82.2922,2.4024,0,0,0,0,0,0,0,-1,1889,862,82.2923,-2.40243
672,162,56.9712,3.04034,0,0,0,0,0,0,0,-1,1896,862,56.9711,-3.04034
679,162,26.5077,2.54785,0,0,0,0,0,0,0,-1,1903,862,26.5077,-2.54787
686,162,68.5996,-0.297241,0,0,0,0,0,0,0,-1,1910,862,68.5996,0.297223
693,162,69.1027,1.08026,0,0,0,0,0,0,0,-1,1917,862,69.1026,-1.08027
700,162,69.0381,1.95764,0,0,0,0,0,0,0,-1,1924,862,69.0381,-1.95762
707,162,68.8328,2.8869,-0.00277375,0.00132748,-0.002982,0.0028959,-0.00434216,-1.0866,0.00420661,0.0348843,1931,862,68.8328,-2.88687
714,162,68.5491,3.58661,-0.00238924,0.00155856,-0.00327762,0.00341077,-0.00424144,-1.05643,0.00442667,0.0400183,1938,862,68.549,-3.58664
721,162,68.3416,4.66327,-0.00204095,0.00203456,-0.00337289,0.00393747,-0.00394386,-1.05713,0.00455029,0.0352837,1945,862,68.3416,-4.66329
728,162,68.3408,5.57037,-0.00167929,0.00248055,-0.00315183,0.00417689,-0.00337563,-1.07705,0.00436862,0.0281826,1952,862,68.3409,-5.5704
735,162,68.3706,6.495,-0.00118281,0.00297513,-0.00277352,0.00436236,-0.00257003,-1.10701,0.00404676,0.012013,1959,862,68.3707,-6.49497
742,162,68.3247,7.37457,-0.000654906,0.0036579,-0.00233837,0.00468239,-0.00167939,-1.15787,0.00380693,0.013863,1966,862,68.3247,-7.37459
749,162,68.172,8.23096,-0.000158413,0.00439859,-0.00200065,0.00515228,-0.000912099,-1.21052,0.00377579,0.020783,1973,862,68.172,-8.23097
756,162,68.0012,9.03027,0,0,0,0,0,0,0,-1,1980,862,68.0011,-9.03025
763,162,68.0881,9.68689,0,0,0,0,0,0,0,-1,1987,862,68.0882,-9.68691
770,162,54.8257,9.36987,0,0,0,0,0,0,0,-1,1994,862,54.8256,-9.36988
777,162,66.324,10.5801,0,0,0,0,0,0,0,-1,2001,862,66.3239,-10.5802
784,162,55.6492,10.6049,0,0,0,0,0,0,0,-1,2008,862,55.6491,-10.6049
791,162,0,0,0,0,0,0,0,0,0,-1,2015,862,0,0
798,162,0,0,0,0,0,0,0,0,0,-1,2022,862,0,0
805,162,0,0,0,0,0,0,0,0,0,-1,2029,862,0,0
812,162,0,0,0,0,0,0,0,0,0,-1,2036,862,0,0
-700,155,0,0,0,0,0,0,0,0,0,-1,524,869,0,0
-693,155,0,0,0,0,0,0,0,0,0,-1,531,869,0,0
-686,155,0,0,0,0,0,0,0,0,0,-1,538,869,0,0
-679,155,0,0,0,0,0,0,0,0,0,-1,545,869,0,0
-672,155,0,0,0,0,0,0,0,0,0,-1,552,869,0,0
-665,155,-50.9639,6.01917,0,0,0,0,0,0,0,-1,559,869,-50.9639,-6.01917
-658,155,-51.2028,4.90723,0,0,0,0,0,0,0,-1,566,869,-51.2028,-4.90722
-651,155,-51.22,3.81226,0,0,0,0,0,0,0,-1,573,869,-51.2201,-3.81228
-644,155,-53.655,7.95532,0,0,0,0,0,0,0,-1,580,869,-53.655,-7.95531
-637,155,-52.8632,8.54626,0,0,0,0,0,0,0,-1,587,869,-52.8632,-8.54625
-630,155,-52.5188,9.82257,0,0,0,0,0,0,0,-1,594,869,-52.5188,-9.8226
-623,155,-52.6173,8.87,-0.00617946,0.00167736,0.00326973,0.00286007,-0.00736217,1.22372,0.00608962,0.0318002,601,869,-52.6173,-8.86999
-616,155,-52.7624,7.90979,-0.00491007,0.00177944,0.00312558,0.00301252,-0.00614316,1.19503,0.00538806,0.017612,608,869,-52.7624,-7.90981
-609,155,-52.8976,6.93201,-0.00317661,0.0023587,0.00348221,0.00403916,-0.00485707,1.12118,0.00514347,0.0153908,615,869,-52.8976,-6.93199
-602,155,-53.0014,5.98688,-0.00144958,0.00288184,0.00400536,0.0052695,-0.00383724,1.03324,0.00527941,0.0143261,622,869,-53.0014,-5.98686
-595,155,-53.0655,5.0639,0.000240089,0.00313114,0.0043502,0.00626969,-0.00289846,0.945803,0.00541121,0.013986,629,869,-53.0655,-5.06389
-588,155,-53.0386,4.20123,0.00152572,0.00292029,0.00429392,0.00657317,-0.00212717,0.86589,0.0052372,0.0272408,636,869,-53.0386,-4.20123
-581,155,-52.7982,3.37915,0,0,0,0,0,0,0,-1,643,869,-52.7981,-3.37916
-574,155,-50.6295,2.30585,0,0,0,0,0,0,0,-1,650,869,-50.6295,-2.30585
-567,155,-38.0134,0.582214,0,0,0,0,0,0,0,-1,657,869,-38.0134,-0.582192
-560,155,-37.1416,-0.708008,0,0,0,0,0,0,0,-1,664,869,-37.1416,0.70801
-553,155,-36.7729,-1.71521,0,0,0,0,0,0,0,-1,671,869,-36.7729,1.71523
-546,155,-22.7988,0.873657,0,0,0,0,0,0,0,-1,678,869,-22.7988,-0.873645
-539,155,-65.7608,0.366943,0,0,0,0,0,0,0,-1,685,869,-65.7608,-0.366959
-532,155,-65.6877,0.663757,0,0,0,0,0,0,0,-1,692,869,-65.6877,-0.66375
-525,155,-65.672,0.694153,0.00349268,0.00445005,0.00233859,0.00635844,0.00158429,0.886349,0.00382193,0.0430911,699,869,-65.672,-0.694151
-518,155,-65.6996,0.688721,0.00255206,0.00541774,0.00197135,0.00642196,0.00154784,1.09965,0.00386995,0.0423087,706,869,-65.6996,-0.688744
-511,155,-65.6355,0.655396,0.00259638,0.00715695,0.0016343,0.00768213,0.0020712,1.25987,0.00458954,0.041457,713,869,-65.6355,-0.655404
-504,155,-65.6657,0.443298,0.00432004,0.009863,0.000912929,0.0100095,0.00417355,1.41169,0.00580549,0.0415659,720,869,-65.6657,-0.44331
-497,155,0,0,0,0,0,0,0,0,0,-1,727,869,0,0
-490,155,0,0,0,0,0,0,0,0,0,-1,734,869,0,0
-483,155,0,0,0,0,0,0,0,0,0,-1,741,869,0,0
-476,155,0,0,0,0,0,0,0,0,0,-1,748,869,0,0
-469,155,0,0,0,0,0,0,0,0,0,-1,755,869,0,0
-462,155,0,0,0,0,0,0,0,0,0,-1,762,869,0,0
-455,155,0,0,0,0,0,0,0,0,0,-1,769,869,0,0
-448,155,0,0,0,0,0,0,0,0,0,-1,776,869,0,0
-441,155,0,0,0,0,0,0,0,0,0,-1,783,869,0,0
-434,155,0,0,0,0,0,0,0,0,0,-1,790,869,0,0
-427,155,0,0,0,0,0,0,0,0,0,-1,797,869,0,0
-420,155,0,0,0,0,0,0,0,0,0,-1,804,869,0,0
-413,155,0,0,0,0,0,0,0,0,0,-1,811,869,0,0
-406,155,0,0,0,0,0,0,0,0,0,-1,818,869,0,0
-399,155,0,0,0,0,0,0,0,0,0,-1,825,869,0,0
-392,155,0,0,0,0,0,0,0,0,0,-1,832,869,0,0
-385,155,0,0,0,0,0,0,0,0,0,-1,839,869,0,0
-378,155,0,0,0,0,0,0,0,0,0,-1,846,869,0,0
-371,155,0,0,0,0,0,0,0,0,0,-1,853,869,0,0
-364,155,0,0,0,0,0,0,0,0,0,-1,860,869,0,0
-357,155,0,0,0,0,0,0,0,0,0,-1,867,869,0,0
-350,155,0,0,0,0,0,0,0,0,0,-1,874,869,0,0
-343,155,0,0,0,0,0,0,0,0,0,-1,881,869,0,0
-336,155,0,0,0,0,0,0,0,0,0,-1,888,869,0,0
-329,155,0,0,0,0,0,0,0,0,0,-1,895,869,0,0
-322,155,0,0,0,0,0,0,0,0,0,-1,902,869,0,0
-315,155,0,0,0,0,0,0,0,0,0,-1,909,869,0,0
-308,155,0,0,0,0,0,0,0,0,0,-1,916,869,0,0
-301,155,0,0,0,0,0,0,0,0,0,-1,923,869,0,0
-294,155,0,0,0,0,0,0,0,0,0,-1,930,869,0,0
-287,155,0,0,0,0,0,0,0,0,0,-1,937,869,0,0
-280,155,0,0,0,0,0,0,0,0,0,-1,944,869,0,0
-273,155,0,0,0,0,0,0,0,0,0,-1,951,869,0,0
-266,155,0,0,0,0,0,0,0,0,0,-1,958,869,0,0
-259,155,0,0,0,0,0,0,0,0,0,-1,965,869,0,0
-252,155,0,0,0,0,0,0,0,0,0,-1,972,869,0,0
-245,155,0,0,0,0,0,0,0,0,0,-1,979,869,0,0
-238,155,0,0,0,0,0,0,0,0,0,-1,986,869,0,0
-231,155,0,0,0,0,0,0,0,0,0,-1,993,869,0,0
-224,155,0,0,0,0,0,0,0,0,0,-1,1000,869,0,0
-217,155,0,0,0,0,0,0,0,0,0,-1,1007,869,0,0
-210,155,0,0,0,0,0,0,0,0,0,-1,1014,869,0,0
-203,155,0,0,0,0,0,0,0,0,0,-1,1021,869,0,0
-196,155,0,0,0,0,0,0,0,0,0,-1,1028,869,0,0
-189,155,0,0,0,0,0,0,0,0,0,-1,1035,869,0,0
-182,155,0,0,0,0,0,0,0,0,0,-1,1042,869,0,0
-175,155,0,0,0,0,0,0,0,0,0,-1,1049,869,0,0
-168,155,0,0,0,0,0,0,0,0,0,-1,1056,869,0,0
-161,155,0,0,0,0,0,0,0,0,0,-1,1063,869,0,0
-154,155,0,0,0,0,0,0,0,0,0,-1,1070,869,0,0
-147,155,0,0,0,0,0,0,0,0,0,-1,1077,869,0,0
-140,155,0,0,0,0,0,0,0,0,0,-1,1084,869,0,0
-133,155,0,0,0,0,0,0,0,0,0,-1,1091,869,0,0
-126,155,0,0,0,0,0,0,0,0,0,-1,1098,869,0,0
-119,155,0,0,0,0,0,0,0,0,0,-1,1105,869,0,0
-112,155,0,0,0,0,0,0,0,0,0,-1,1112,869,0,0
-105,155,0,0,0,0,0,0,0,0,0,-1,1119,869,0,0
-98,155,0,0,0,0,0,0,0,0,0,-1,1126,869,0,0
-91,155,0,0,0,0,0,0,0,0,0,-1,1133,869,0,0
-84,155,0,0,0,0,0,0,0,0,0,-1,1140,869,0,0
-77,155,0,0,0,0,0,0,0,0,0,-1,1147,869,0,0
-70,155,0,0,0,0,0,0,0,0,0,-1,1154,869,0,0
-63,155,0,0,0,0,0,0,0,0,0,-1,1161,869,0,0
-56,155,0,0,0,0,0,0,0,0,0,-1,1168,869,0,0
-49,155,0,0,0,0,0,0,0,0,0,-1,1175,869,0,0
-42,155,0,0,0,0,0,0,0,0,0,-1,1182,869,0,0
-35,155,0,0,0,0,0,0,0,0,0,-1,1189,869,0,0
-28,155,0,0,0,0,0,0,0,0,0,-1,1196,869,0,0
-21,155,0,0,0,0,0,0,0,0,0,-1,1203,869,0,0
-14,155,0,0,0,0,0,0,0,0,0,-1,1210,869,0,0
-7,155,0,0,0,0,0,0,0,0,0,-1,1217,869,0,0
0,155,0,0,0,0,0,0,0,0,0,-1,1224,869,0,0
7,155,0,0,0,0,0,0,0,0,0,-1,1231,869,0,0
14,155,0,0,0,0,0,0,0,0,0,-1,1238,869,0,0
21,155,0,0,0,0,0,0,0,0,0,-1,1245,869,0,0
28,155,0,0,0,0,0,0,0,0,0,-1,1252,869,0,0
35,155,0,0,0,0,0,0,0,0,0,-1,1259,869,0,0
42,155,0,0,0,0,0,0,0,0,0,-1,1266,869,0,0
49,155,0,0,0,0,0,0,0,0,0,-1,1273,869,0,0
56,155,0,0,0,0,0,0,0,0,0,-1,1280,869,0,0
63,155,0,0,0,0,0,0,0,0,0,-1,1287,869,0,0
70,155,0,0,0,0,0,0,0,0,0,-1,1294,869,0,0
77,155,0,0,0,0,0,0,0,0,0,-1,1301,869,0,0
84,155,0,0,0,0,0,0,0,0,0,-1,1308,869,0,0
91,155,0,0,0,0,0,0,0,0,0,-1,1315,869,0,0
98,155,0,0,0,0,0,0,0,0,0,-1,1322,869,0,0
105,155,0,0,0,0,0,0,0,0,0,-1,1329,869,0,0
112,155,0,0,0,0,0,0,0,0,0,-1,1336,869,0,0
119,155,0,0,0,0,0,0,0,0,0,-1,1343,869,0,0
126,155,0,0,0,0,0,0,0,0,0,-1,1350,869,0,0
133,155,0,0,0,0,0,0,0,0,0,-1,1357,869,0,0
140,155,0,0,0,0,0,0,0,0,0,-1,1364,869,0,0
147,155,0,0,0,0,0,0,0,0,0,-1,1371,869,0,0
154,155,0,0,0,0,0,0,0,0,0,-1,1378,869,0,0
161,155,0,0,0,0,0,0,0,0,0,-1,1385,869,0,0
168,155,0,0,0,0,0,0,0,0,0,-1,1392,869,0,0
175,155,0,0,0,0,0,0,0,0,0,-1,1399,869,0,0
182,155,0,0,0,0,0,0,0,0,0,-1,1406,869,0,0
189,155,0,0,0,0,0,0,0,0,0,-1,1413,869,0,0
196,155,0,0,0,0,0,0,0,0,0,-1,1420,869,0,0
203,155,0,0,0,0,0,0,0,0,0,-1,1427,869,0,0
210,155,0,0,0,0,0,0,0,0,0,-1,1434,869,0,0
217,155,0,0,0,0,0,0,0,0,0,-1,1441,869,0,0
224,155,0,0,0,0,0,0,0,0,0,-1,1448,869,0,0
231,155,0,0,0,0,0,0,0,0,0,-1,1455,869,0,0
238,155,0,0,0,0,0,0,0,0,0,-1,1462,869,0,0
245,155,0,0,0,0,0,0,0,0,0,-1,1469,869,0,0
252,155,0,0,0,0,0,0,0,0,0,-1,1476,869,0,0
259,155,0,0,0,0,0,0,0,0,0,-1,1483,869,0,0
266,155,0,0,0,0,0,0,0,0,0,-1,1490,869,0,0
273,155,0,0,0,0,0,0,0,0,0,-1,1497,869,0,0
280,155,0,0,0,0,0,0,0,0,0,-1,1504,869,0,0
287,155,0,0,0,0,0,0,0,0,0,-1,1511,869,0,0
294,155,0,0,0,0,0,0,0,0,0,-1,1518,869,0,0
301,155,0,0,0,0,0,0,0,0,0,-1,1525,869,0,0
308,155,0,0,0,0,0,0,0,0,0,-1,1532,869,0,0
315,155,0,0,0,0,0,0,0,0,0,-1,1539,869,0,0
322,155,0,0,0,0,0,0,0,0,0,-1,1546,869,0,0
329,155,0,0,0,0,0,0,0,0,0,-1,1553,869,0,0
336,155,0,0,0,0,0,0,0,0,0,-1,1560,869,0,0
343,155,0,0,0,0,0,0,0,0,0,-1,1567,869,0,0
350,155,0,0,0,0,0,0,0,0,0,-1,1574,869,0,0
357,155,0,0,0,0,0,0,0,0,0,-1,1581,869,0,0
364,155,0,0,0,0,0,0,0,0,0,-1,1588,869,0,0
371,155,0,0,0,0,0,0,0,0,0,-1,1595,869,0,0
378,155,0,0,0,0,0,0,0,0,0,-1,1602,869,0,0
385,155,0,0,0,0,0,0,0,0,0,-1,1609,869,0,0
392,155,0,0,0,0,0,0,0,0,0,-1,1616,869,0,0
399,155,0,0,0,0,0,0,0,0,0,-1,1623,869,0,0
406,155,0,0,0,0,0,0,0,0,0,-1,1630,869,0,0
413,155,0,0,0,0,0,0,0,0,0,-1,1637,869,0,0
420,155,0,0,0,0,0,0,0,0,0,-1,1644,869,0,0
427,155,0,0,0,0,0,0,0,0,0,-1,1651,869,0,0
434,155,0,0,0,0,0,0,0,0,0,-1,1658,869,0,0
441,155,0,0,0,0,0,0,0,0,0,-1,1665,869,0,0
448,155,0,0,0,0,0,0,0,0,0,-1,1672,869,0,0
455,155,0,0,0,0,0,0,0,0,0,-1,1679,869,0,0
462,155,0,0,0,0,0,0,0,0,0,-1,1686,869,0,0
469,155,0,0,0,0,0,0,0,0,0,-1,1693,869,0,0
476,155,0,0,0,0,0,0,0,0,0,-1,1700,869,0,0
483,155,0,0,0,0,0,0,0,0,0,-1,1707,869,0,0
490,155,0,0,0,0,0,0,0,0,0,-1,1714,869,0,0
497,155,0,0,0,0,0,0,0,0,0,-1,1721,869,0,0
504,155,0,0,0,0,0,0,0,0,0,-1,1728,869,0,0
511,155,0,0,0,0,0,0,0,0,0,-1,1735,869,0,0
518,155,0,0,0,0,0,0,0,0,0,-1,1742,869,0,0
525,155,0,0,0,0,0,0,0,0,0,-1,1749,869,0,0
532,155,0,0,0,0,0,0,0,0,0,-1,1756,869,0,0
539,155,0,0,0,0,0,0,0,0,0,-1,1763,869,0,0
546,155,0,0,0,0,0,0,0,0,0,-1,1770,869,0,0
553,155,0,0,0,0,0,0,0,0,0,-1,1777,869,0,0
560,155,0,0,0,0,0,0,0,0,0,-1,1784,869,0,0
567,155,0,0,0,0,0,0,0,0,0,-1,1791,869,0,0
574,155,0,0,0,0,0,0,0,0,0,-1,1798,869,0,0
581,155,0,0,0,0,0,0,0,0,0,-1,1805,869,0,0
588,155,0,0,0,0,0,0,0,0,0,-1,1812,869,0,0
595,155,0,0,0,0,0,0,0,0,0,-1,1819,869,0,0
602,155,0,0,0,0,0,0,0,0,0,-1,1826,869,0,0
609,155,0,0,0,0,0,0,0,0,0,-1,1833,869,0,0
616,155,82.2439,2.3183,0.0169497,-0.00290488,-0.00117374,0.0170189,-0.00297403,-0.0588437,0.0124562,0.0445278,1840,869,82.244,-2.31832
623,155,82.295,2.25415,0.0122709,-0.00132539,-0.00076865,0.0123142,-0.0013687,-0.0562949,0.00870164,0.0461292,1847,869,82.295,-2.25418
630,155,82.3224,2.41864,0.00794464,-5.31589e-06,-0.00035337,0.00796031,-2.0992e-05,-0.0443328,0.00531389,0.0434623,1854,869,82.3223,-2.41863
637,155,82.2926,2.41559,0.00439465,0.001209,4.69327e-06,0.00439466,0.001209,0.00147325,0.00262142,0.0385224,1861,869,82.2926,-2.4156
644,155,82.307,2.37292,0.00177333,0.00183229,0.000173866,0.00197916,0.00162646,0.869381,0.001219,0.0365255,1868,869,82.307,-2.37293
651,155,82.3271,2.36694,3.2348e-05,0.00191033,3.39824e-06,0.00191033,3.23418e-05,1.56899,0.00126291,0.0347852,1875,869,82.3271,-2.36694
658,155,82.3099,2.38544,-0.00139642,0.00171522,-0.000552608,0.00181044,-0.00149164,-1.40015,0.00190942,0.0284364,1882,869,82.31,-2.38546
665,155,82.2539,2.36902,-0.00217549,0.00209353,-0.00115009,0.00238365,-0.00246561,-1.32369,0.00279986,0.0382519,1889,869,82.2539,-2.36901
672,155,82.2412,2.40741,0,0,0,0,0,0,0,-1,1896,869,82.2413,-2.4074
679,155,35.1565,2.78528,0,0,0,0,0,0,0,-1,1903,869,35.1565,-2.7853
686,155,43.6101,1.63361,0,0,0,0,0,0,0,-1,1910,869,43.6101,-1.63362
693,155,70.2913,1.28052,0,0,0,0,0,0,0,-1,1917,869,70.2913,-1.28049
700,155,69.4902,2.14453,0,0,0,0,0,0,0,-1,1924,869,69.4902,-2.14456
707,155,69.8572,3.01825,0,0,0,0,0,0,0,-1,1931,869,69.8572,-3.01822
714,155,70.2241,3.89191,0,0,0,0,0,0,0,-1,1938,869,70.2241,-3.89189
721,155,69.3304,4.76477,0,0,0,0,0,0,0,-1,1945,869,69.3305,-4.76479
728,155,69.3207,5.64221,-0.00211961,0.00300181,-0.00357827,0.00484124,-0.00395904,-1.09597,0.00508935,0.0204905,1952,869,69.3206,-5.64223
735,155,69.3168,6.54388,-0.00184053,0.00362333,-0.0033219,0.00519238,-0.00340958,-1.12952,0.00500177,0.0171313,1959,869,69.3168,-6.54387
742,155,69.2878,7.45764,-0.00149788,0.00456371,-0.00296416,0.00577225,-0.00270643,-1.18365,0.0050007,0.0195588,1966,869,69.2878,-7.45761
749,155,69.1238,8.28955,-0.00121189,0.00564144,-0.00266962,0.00655861,-0.00212906,-1.23987,0.00522864,0.0183732,1973,869,69.1238,-8.28956
756,155,69.0208,9.18994,-0.000972501,0.00691416,-0.00265895,0.00772687,-0.00178521,-1.27417,0.00583802,0.0322584,1980,869,69.0209,-9.18995
763,155,68.9578,10.1469,0,0,0,0,0,0,0,-1,1987,869,68.9579,-10.1468
770,155,66.4995,11.4908,0,0,0,0,0,0,0,-1,1994,869,66.4996,-11.4908
777,155,67.8357,10.6007,0,0,0,0,0,0,0,-1,2001,869,67.8357,-10.6007
784,155,69.9526,8.4718,0,0,0,0,0,0,0,-1,2008,869,69.9525,-8.47183
791,155,0,0,0,0,0,0,0,0,0,-1,2015,869,0,0
798,155,0,0,0,0,0,0,0,0,0,-1,2022,869,0,0
805,155,0,0,0,0,0,0,0,0,0,-1,2029,869,0,0
812,155,0,0,0,0,0,0,0,0,0,-1,2036,869,0,0
-700,148,0,0,0,0,0,0,0,0,0,-1,524,876,0,0
-693,148,0,0,0,0,0,0,0,0,0,-1,531,876,0,0
-686,148,0,0,0,0,0,0,0,0,0,-1,538,876,0,0
-679,148,0,0,0,0,0,0,0,0,0,-1,545,876,0,0
-672,148,-48.1407,-0.726746,0,0,0,0,0,0,0,-1,552,876,-48.1407,0.726755
-665,148,-48.2041,-3.97095,0,0,0,0,0,0,0,-1,559,876,-48.2041,3.97096
-658,148,-51.7661,3.82794,0,0,0,0,0,0,0,-1,566,876,-51.7661,-3.82797
-651,148,-52.0392,2.79663,0,0,0,0,0,0,0,-1,573,876,-52.0392,-2.79661
-644,148,-52.2687,1.81482,0,0,0,0,0,0,0,-1,580,876,-52.2687,-1.81482
-637,148,-52.5708,0.881165,0,0,0,0,0,0,0,-1,587,876,-52.5708,-0.88117
-630,148,-53.2303,10.1163,0,0,0,0,0,0,0,-1,594,876,-53.2304,-10.1163
-623,148,-53.4865,8.98816,-0.00975349,0.00412125,0.00376445,0.0050768,-0.010709,1.32221,0.00930532,0.032784,601,876,-53.4864,-8.98814
-616,148,-53.7125,7.91803,-0.0071029,0.00351812,0.00352548,0.00458182,-0.0081666,1.27776,0.00745667,0.01598,608,876,-53.7125,-7.91805
-609,148,-53.8531,6.94775,-0.004445,0.00340914,0.00381798,0.00495919,-0.00599505,1.18514,0.00633385,0.0144681,615,876,-53.8531,-6.94773
-602,148,-53.975,6.02417,-0.00213093,0.00330753,0.00425898,0.00564133,-0.00446474,1.06951,0.0058479,0.0170408,622,876,-53.975,-6.02414
-595,148,-54.0234,5.1178,-0.000280128,0.0031122,0.00437516,0.00610847,-0.0032764,0.970319,0.00549999,0.0154456,629,876,-54.0234,-5.11782
-588,148,-54.0295,4.1236,0.000869296,0.00271072,0.00418005,0.00607026,-0.00249024,0.893799,0.00508443,0.0366549,636,876,-54.0295,-4.12357
-581,148,-53.947,3.16693,0,0,0,0,0,0,0,-1,643,876,-53.947,-3.16695
-574,148,-51.1478,2.54205,0,0,0,0,0,0,0,-1,650,876,-51.1478,-2.54208
-567,148,-35.6293,0.615784,0,0,0,0,0,0,0,-1,657,876,-35.6293,-0.615792
-560,148,-37.7973,-0.588135,0,0,0,0,0,0,0,-1,664,876,-37.7973,0.588143
-553,148,-18.3896,-0.00280762,0,0,0,0,0,0,0,-1,671,876,-18.3897,0.00278524
-546,148,-65.7059,0.382935,0,0,0,0,0,0,0,-1,678,876,-65.7059,-0.382919
-539,148,-65.6689,0.462097,0.00313994,0.00249253,0.00262336,0.00545949,0.000172977,0.724012,0.00358339,0.0464637,685,876,-65.6689,-0.462127
-532,148,-65.6667,0.565796,0.00340334,0.00270684,0.00220468,0.0052871,0.000823078,0.707065,0.00328493,0.0388976,692,876,-65.6667,-0.565823
-525,148,-65.6464,0.686462,0.0031968,0.00337923,0.00188154,0.00517177,0.00140427,0.809619,0.00308808,0.0403144,699,876,-65.6464,-0.686451
-518,148,-65.6006,0.746643,0.00267739,0.00410437,0.00139273,0.00495573,0.00182603,1.02212,0.002894,0.0431499,706,876,-65.6006,-0.746655
-511,148,-65.4869,0.966858,0,0,0,0,0,0,0,-1,713,876,-65.4869,-0.966862
-504,148,-65.5382,1.59998,0,0,0,0,0,0,0,-1,720,876,-65.5382,-1.6
-497,148,0,0,0,0,0,0,0,0,0,-1,727,876,0,0
-490,148,0,0,0,0,0,0,0,0,0,-1,734,876,0,0
-483,148,0,0,0,0,0,0,0,0,0,-1,741,876,0,0
-476,148,0,0,0,0,0,0,0,0,0,-1,748,876,0,0
-469,148,0,0,0,0,0,0,0,0,0,-1,755,876,0,0
-462,148,0,0,0,0,0,0,0,0,0,-1,762,876,0,0
-455,148,0,0,0,0,0,0,0,0,0,-1,769,876,0,0
-448,148,0,0,0,0,0,0,0,0,0,-1,776,876,0,0
-441,148,0,0,0,0,0,0,0,0,0,-1,783,876,0,0
-434,148,0,0,0,0,0,0,0,0,0,-1,790,876,0,0
-427,148,0,0,0,0,0,0,0,0,0,-1,797,876,0,0
-420,148,0,0,0,0,0,0,0,0,0,-1,804,876,0,0
-413,148,0,0,0,0,0,0,0,0,0,-1,811,876,0,0
-406,148,0,0,0,0,0,0,0,0,0,-1,818,876,0,0
-399,148,0,0,0,0,0,0,0,0,0,-1,825,876,0,0
-392,148,0,0,0,0,0,0,0,0,0,-1,832,876,0,0
-385,148,0,0,0,0,0,0,0,0,0,-1,839,876,0,0
-378,148,0,0,0,0,0,0,0,0,0,-1,846,876,0,0
-371,148,0,0,0,0,0,0,0,0,0,-1,853,876,0,0
-364,148,0,0,0,0,0,0,0,0,0,-1,860,876,0,0
-357,148,0,0,0,0,0,0,0,0,0,-1,867,876,0,0
-350,148,0,0,0,0,0,0,0,0,0,-1,874,876,0,0
-343,148,0,0,0,0,0,0,0,0,0,-1,881,876,0,0
-336,148,0,0,0,0,0,0,0,0,0,-1,888,876,0,0
-329,148,0,0,0,0,0,0,0,0,0,-1,895,876,0,0
-322,148,0,0,0,0,0,0,0,0,0,-1,902,876,0,0
-315,148,0,0,0,0,0,0,0,0,0,-1,909,876,0,0
-308,148,0,0,0,0,0,0,0,0,0,-1,916,876,0,0
-301,148,0,0,0,0,0,0,0,0,0,-1,923,876,0,0
-294,148,0,0,0,0,0,0,0,0,0,-1,930,876,0,0
-287,148,0,0,0,0,0,0,0,0,0,-1,937,876,0,0
-280,148,0,0,0,0,0,0,0,0,0,-1,944,876,0,0
-273,148,0,0,0,0,0,0,0,0,0,-1,951,876,0,0
-266,148,0,0,0,0,0,0,0,0,0,-1,958,876,0,0
-259,148,0,0,0,0,0,0,0,0,0,-1,965,876,0,0
-252,148,0,0,0,0,0,0,0,0,0,-1,972,876,0,0
-245,148,0,0,0,0,0,0,0,0,0,-1,979,876,0,0
-238,148,0,0,0,0,0,0,0,0,0,-1,986,876,0,0
-231,148,0,0,0,0,0,0,0,0,0,-1,993,876,0,0
-224,148,0,0,0,0,0,0,0,0,0,-1,1000,876,0,0
-217,148,0,0,0,0,0,0,0,0,0,-1,1007,876,0,0
-210,148,0,0,0,0,0,0,0,0,0,-1,1014,876,0,0
-203,148,0,0,0,0,0,0,0,0,0,-1,1021,876,0,0
-196,148,0,0,0,0,0,0,0,0,0,-1,1028,876,0,0
-189,148,0,0,0,0,0,0,0,0,0,-1,1035,876,0,0
-182,148,0,0,0,0,0,0,0,0,0,-1,1042,876,0,0
-175,148,0,0,0,0,0,0,0,0,0,-1,1049,876,0,0
-168,148,0,0,0,0,0,0,0,0,0,-1,1056,876,0,0
-161,148,0,0,0,0,0,0,0,0,0,-1,1063,876,0,0
-154,148,0,0,0,0,0,0,0,0,0,-1,1070,876,0,0
-147,148,0,0,0,0,0,0,0,0,0,-1,1077,876,0,0
-140,148,0,0,0,0,0,0,0,0,0,-1,1084,876,0,0
-133,148,0,0,0,0,0,0,0,0,0,-1,1091,876,0,0
-126,148,0,0,0,0,0,0,0,0,0,-1,1098,876,0,0
-119,148,0,0,0,0,0,0,0,0,0,-1,1105,876,0,0
-112,148,0,0,0,0,0,0,0,0,0,-1,1112,876,0,0
-105,148,0,0,0,0,0,0,0,0,0,-1,1119,876,0,0
-98,148,0,0,0,0,0,0,0,0,0,-1,1126,876,0,0
-91,148,0,0,0,0,0,0,0,0,0,-1,1133,876,0,0
-84,148,0,0,0,0,0,0,0,0,0,-1,1140,876,0,0
-77,148,0,0,0,0,0,0,0,0,0,-1,1147,876,0,0
-70,148,0,0,0,0,0,0,0,0,0,-1,1154,876,0,0
-63,148,0,0,0,0,0,0,0,0,0,-1,1161,876,0,0
-56,148,0,0,0,0,0,0,0,0,0,-1,1168,876,0,0
-49,148,0,0,0,0,0,0,0,0,0,-1,1175,876,0,0
-42,148,0,0,0,0,0,0,0,0,0,-1,1182,876,0,0
-35,148,0,0,0,0,0,0,0,0,0,-1,1189,876,0,0
-28,148,0,0,0,0,0,0,0,0,0,-1,1196,876,0,0
-21,148,0,0,0,0,0,0,0,0,0,-1,1203,876,0,0
-14,148,0,0,0,0,0,0,0,0,0,-1,1210,876,0,0
-7,148,0,0,0,0,0,0,0,0,0,-1,1217,876,0,0
0,148,0,0,0,0,0,0,0,0,0,-1,1224,876,0,0
7,148,0,0,0,0,0,0,0,0,0,-1,1231,876,0,0
14,148,0,0,0,0,0,0,0,0,0,-1,1238,876,0,0
21,148,0,0,0,0,0,0,0,0,0,-1,1245,876,0,0
28,148,0,0,0,0,0,0,0,0,0,-1,1252,876,0,0
35,148,0,0,0,0,0,0,0,0,0,-1,1259,876,0,0
42,148,0,0,0,0,0,0,0,0,0,-1,1266,876,0,0
49,148,0,0,0,0,0,0,0,0,0,-1,1273,876,0,0
56,148,0,0,0,0,0,0,0,0,0,-1,1280,876,0,0
63,148,0,0,0,0,0,0,0,0,0,-1,1287,876,0,0
70,148,0,0,0,0,0,0,0,0,0,-1,1294,876,0,0
77,148,0,0,0,0,0,0,0,0,0,-1,1301,876,0,0
84,148,0,0,0,0,0,0,0,0,0,-1,1308,876,0,0
91,148,0,0,0,0,0,0,0,0,0,-1,1315,876,0,0
98,148,0,0,0,0,0,0,0,0,0,-1,1322,876,0,0
105,148,0,0,0,0,0,0,0,0,0,-1,1329,876,0,0
112,148,0,0,0,0,0,0,0,0,0,-1,1336,876,0,0
119,148,0,0,0,0,0,0,0,0,0,-1,1343,876,0,0
126,148,0,0,0,0,0,0,0,0,0,-1,1350,876,0,0
133,148,0,0,0,0,0,0,0,0,0,-1,1357,876,0,0
140,148,0,0,0,0,0,0,0,0,0,-1,1364,876,0,0
147,148,0,0,0,0,0,0,0,0,0,-1,1371,876,0,0
154,148,0,0,0,0,0,0,0,0,0,-1,1378,876,0,0
161,148,0,0,0,0,0,0,0,0,0,-1,1385,876,0,0
168,148,0,0,0,0,0,0,0,0,0,-1,1392,876,0,0
175,148,0,0,0,0,0,0,0,0,0,-1,1399,876,0,0
182,148,0,0,0,0,0,0,0,0,0,-1,1406,876,0,0
189,148,0,0,0,0,0,0,0,0,0,-1,1413,876,0,0
196,148,0,0,0,0,0,0,0,0,0,-1,1420,876,0,0
203,148,0,0,0,0,0,0,0,0,0,-1,1427,876,0,0
210,148,0,0,0,0,0,0,0,0,0,-1,1434,876,0,0
217,148,0,0,0,0,0,0,0,0,0,-1,1441,876,0,0
224,148,0,0,0,0,0,0,0,0,0,-1,1448,876,0,0
231,148,0,0,0,0,0,0,0,0,0,-1,1455,876,0,0
238,148,0,0,0,0,0,0,0,0,0,-1,1462,876,0,0
245,148,0,0,0,0,0,0,0,0,0,-1,1469,876,0,0
252,148,0,0,0,0,0,0,0,0,0,-1,1476,876,0,0
259,148,0,0,0,0,0,0,0,0,0,-1,1483,876,0,0
266,148,0,0,0,0,0,0,0,0,0,-1,1490,876,0,0
273,148,0,0,0,0,0,0,0,0,0,-1,1497,876,0,0
280,148,0,0,0,0,0,0,0,0,0,-1,1504,876,0,0
287,148,0,0,0,0,0,0,0,0,0,-1,1511,876,0,0
294,148,0,0,0,0,0,0,0,0,0,-1,1518,876,0,0
301,148,0,0,0,0,0,0,0,0,0,-1,1525,876,0,0
308,148,0,0,0,0,0,0,0,0,0,-1,1532,876,0,0
315,148,0,0,0,0,0,0,0,0,0,-1,1539,876,0,0
322,148,0,0,0,0,0,0,0,0,0,-1,1546,876,0,0
329,148,0,0,0,0,0,0,0,0,0,-1,1553,876,0,0
336,148,0,0,0,0,0,0,0,0,0,-1,1560,876,0,0
343,148,0,0,0,0,0,0,0,0,0,-1,1567,876,0,0
350,148,0,0,0,0,0,0,0,0,0,-1,1574,876,0,0
357,148,0,0,0,0,0,0,0,0,0,-1,1581,876,0,0
364,148,0,0,0,0,0,0,0,0,0,-1,1588,876,0,0
371,148,0,0,0,0,0,0,0,0,0,-1,1595,876,0,0
378,148,0,0,0,0,0,0,0,0,0,-1,1602,876,0,0
385,148,0,0,0,0,0,0,0,0,0,-1,1609,876,0,0
392,148,0,0,0,0,0,0,0,0,0,-1,1616,876,0,0
399,148,0,0,0,0,0,0,0,0,0,-1,1623,876,0,0
406,148,0,0,0,0,0,0,0,0,0,-1,1630,876,0,0
413,148,0,0,0,0,0,0,0,0,0,-1,1637,876,0,0
420,148,0,0,0,0,0,0,0,0,0,-1,1644,876,0,0
427,148,0,0,0,0,0,0,0,0,0,-1,1651,876,0,0
434,148,0,0,0,0,0,0,0,0,0,-1,1658,876,0,0
441,148,0,0,0,0,0,0,0,0,0,-1,1665,876,0,0
448,148,0,0,0,0,0,0,0,0,0,-1,1672,876,0,0
455,148,0,0,0,0,0,0,0,0,0,-1,1679,876,0,0
462,148,0,0,0,0,0,0,0,0,0,-1,1686,876,0,0
469,148,0,0,0,0,0,0,0,0,0,-1,1693,876,0,0
476,148,0,0,0,0,0,0,0,0,0,-1,1700,876,0,0
483,148,0,0,0,0,0,0,0,0,0,-1,1707,876,0,0
490,148,0,0,0,0,0,0,0,0,0,-1,1714,876,0,0
497,148,0,0,0,0,0,0,0,0,0,-1,1721,876,0,0
504,148,0,0,0,0,0,0,0,0,0,-1,1728,876,0,0
511,148,0,0,0,0,0,0,0,0,0,-1,1735,876,0,0
518,148,0,0,0,0,0,0,0,0,0,-1,1742,876,0,0
525,148,0,0,0,0,0,0,0,0,0,-1,1749,876,0,0
532,148,0,0,0,0,0,0,0,0,0,-1,1756,876,0,0
539,148,0,0,0,0,0,0,0,0,0,-1,1763,876,0,0
546,148,0,0,0,0,0,0,0,0,0,-1,1770,876,0,0
553,148,0,0,0,0,0,0,0,0,0,-1,1777,876,0,0
560,148,0,0,0,0,0,0,0,0,0,-1,1784,876,0,0
567,148,0,0,0,0,0,0,0,0,0,-1,1791,876,0,0
574,148,0,0,0,0,0,0,0,0,0,-1,1798,876,0,0
581,148,0,0,0,0,0,0,0,0,0,-1,1805,876,0,0
588,148,0,0,0,0,0,0,0,0,0,-1,1812,876,0,0
595,148,0,0,0,0,0,0,0,0,0,-1,1819,876,0,0
602,148,0,0,0,0,0,0,0,0,0,-1,1826,876,0,0
609,148,0,0,0,0,0,0,0,0,0,-1,1833,876,0,0
616,148,0,0,0,0,0,0,0,0,0,-1,1840,876,0,0
623,148,82.2363,2.1333,0.0130558,-0.00188007,-0.00171519,0.0132503,-0.00207451,-0.11288,0.00960001,0.0460603,1847,876,82.2363,-2.13328
630,148,82.2813,2.33618,0.00883653,-0.000464425,-0.00125325,0.00900244,-0.000630334,-0.131617,0.00622239,0.043909,1854,876,82.2813,-2.33619
637,148,82.3232,2.3772,0.0052554,0.000874826,-0.000757529,0.0053827,0.000747527,-0.16649,0.00336706,0.0375025,1861,876,82.3233,-2.37721
644,148,82.3207,2.31049,0.00242271,0.00172064,-0.000342593,0.00256218,0.00158117,-0.386614,0.00149274,0.0367187,1868,876,82.3207,-2.31049
651,148,82.2974,2.33661,0.000400135,0.00202927,-0.000236233,0.00206283,0.000366571,-1.42966,0.00127078,0.0373343,1875,876,82.2974,-2.33659
658,148,82.2822,2.37616,-0.00123864,0.00197134,-0.000580095,0.00207296,-0.00134026,-1.39738,0.0019857,0.0312487,1882,876,82.2822,-2.37615
665,148,82.2079,2.45007,-0.00207762,0.00244734,-0.00113512,0.00271612,-0.00234641,-1.33829,0.00292545,0.0240285,1889,876,82.2079,-2.45009
672,148,82.1506,2.51617,0,0,0,0,0,0,0,-1,1896,876,82.1506,-2.5162
679,148,82.0276,2.6875,0,0,0,0,0,0,0,-1,1903,876,82.0276,-2.68751
686,148,21.6195,2.40845,0,0,0,0,0,0,0,-1,1910,876,21.6196,-2.40846
693,148,48.1387,1.97351,0,0,0,0,0,0,0,-1,1917,876,48.1387,-1.97351
700,148,70.8271,2.61066,0,0,0,0,0,0,0,-1,1924,876,70.8271,-2.61066
707,148,70.8159,3.28735,0,0,0,0,0,0,0,-1,1931,876,70.8159,-3.28734
714,148,70.697,4.01849,0,0,0,0,0,0,0,-1,1938,876,70.697,-4.01849
721,148,70.4822,4.79901,0,0,0,0,0,0,0,-1,1945,876,70.4822,-4.79901
728,148,70.3235,5.685,-0.00222944,0.00358995,-0.00371997,0.00540302,-0.00404251,-1.11729,0.0054722,0.0222306,1952,876,70.3235,-5.685
735,148,70.3066,6.62207,-0.00207971,0.004533,-0.00344729,0.00600324,-0.00354994,-1.16766,0.00557583,0.0221259,1959,876,70.3066,-6.62205
742,148,70.1855,7.51575,-0.00180805,0.00608964,-0.00292687,0.00705607,-0.00277449,-1.25187,0.00585237,0.0232917,1966,876,70.1855,-7.51574
749,148,70.0377,8.32922,-0.00149328,0.00801603,-0.00221574,0.00850697,-0.00198422,-1.35275,0.0064355,0.0230846,1973,876,70.0377,-8.32923
756,148,69.968,9.23914,-0.00112396,0.0103572,-0.00143554,0.0105339,-0.00130073,-1.44827,0.00749392,0.0281455,1980,876,69.968,-9.23912
763,148,70.085,10.1264,-0.00113176,0.0132914,-0.000553946,0.0133126,-0.001153,-1.53246,0.00928333,0.0474385,1987,876,70.085,-10.1264
770,148,70.1589,10.9922,0,0,0,0,0,0,0,-1,1994,876,70.1589,-10.9923
777,148,67.353,12.5724,0,0,0,0,0,0,0,-1,2001,876,67.353,-12.5724
784,148,71.5566,9.01587,0,0,0,0,0,0,0,-1,2008,876,71.5567,-9.01584
791,148,71.4524,10.6003,0,0,0,0,0,0,0,-1,2015,876,71.4523,-10.6003
798,148,0,0,0,0,0,0,0,0,0,-1,2022,876,0,0
805,148,0,0,0,0,0,0,0,0,0,-1,2029,876,0,0
812,148,0,0,0,0,0,0,0,0,0,-1,2036,876,0,0
-700,141,0,0,0,0,0,0,0,0,0,-1,524,883,0,0
-693,141,0,0,0,0,0,0,0,0,0,-1,531,883,0,0
-686,141,0,0,0,0,0,0,0,0,0,-1,538,883,0,0
-679,141,0,0,0,0,0,0,0,0,0,-1,545,883,0,0
-672,141,-48.7804,-0.600891,0,0,0,0,0,0,0,-1,552,883,-48.7804,0.600898
-665,141,-48.764,-3.67065,0,0,0,0,0,0,0,-1,559,883,-48.764,3.67066
-658,141,-52.3438,3.12531,0,0,0,0,0,0,0,-1,566,883,-52.3438,-3.1253
-651,141,-53.1779,1.50293,0,0,0,0,0,0,0,-1,573,883,-53.1778,-1.50292
-644,141,-52.4205,-0.191956,0,0,0,0,0,0,0,-1,580,883,-52.4205,0.191941
-637,141,-52.859,0.400024,0,0,0,0,0,0,0,-1,587,883,-52.859,-0.400006
-630,141,-54.0591,10.1675,0,0,0,0,0,0,0,-1,594,883,-54.0591,-10.1675
-623,141,-54.3622,8.94495,-0.0116527,0.00647077,0.00504707,0.0077815,-0.0129634,1.31671,0.012101,0.0373162,601,883,-54.3623,-8.94496
-616,141,-54.6703,7.88397,-0.0081873,0.00512999,0.004439,0.00647398,-0.00953129,1.2768,0.00929668,0.0160908,608,883,-54.6704,-7.88399
-609,141,-54.8023,6.96521,-0.00498225,0.00424457,0.00438347,0.00599499,-0.00673267,1.19087,0.00735243,0.0149754,615,883,-54.8023,-6.96521
-602,141,-54.889,6.07233,-0.00251238,0.00344867,0.0044246,0.00580299,-0.00486671,1.0818,0.00616806,0.0171421,622,883,-54.889,-6.07231
-595,141,-54.8727,5.15118,-0.000835373,0.00287245,0.0042011,0.00561051,-0.00357344,0.993192,0.00534566,0.021882,629,883,-54.8727,-5.15117
-588,141,-55.3469,4.17914,8.62791e-05,0.00236254,0.00390326,0.00529021,-0.0028414,0.927257,0.00476522,0.0416729,636,883,-55.3469,-4.17913
-581,141,-55.7406,3.16583,0,0,0,0,0,0,0,-1,643,883,-55.7406,-3.16586
-574,141,-42.7302,0.864685,0,0,0,0,0,0,0,-1,650,883,-42.7301,-0.864692
-567,141,-30.5335,0.480103,0,0,0,0,0,0,0,-1,657,883,-30.5335,-0.480081
-560,141,-30.5542,0.23175,0,0,0,0,0,0,0,-1,664,883,-30.5542,-0.231742
-553,141,-32.0876,1.39459,0,0,0,0,0,0,0,-1,671,883,-32.0876,-1.3946
-546,141,-65.6313,0.527649,0,0,0,0,0,0,0,-1,678,883,-65.6313,-0.527649
-539,141,-65.6526,0.509583,0.00265719,0.00176402,0.00227476,0.00452878,-0.000107575,0.688469,0.00305568,0.0311239,685,883,-65.6526,-0.509595
-532,141,-65.6857,0.504333,0.00324895,0.00189701,0.00179711,0.00449302,0.000652939,0.605512,0.00280316,0.0308523,692,883,-65.6857,-0.504342
-525,141,-65.6404,0.563782,0.00330849,0.0024229,0.00144085,0.00437305,0.00135834,0.636322,0.00258445,0.0381748,699,883,-65.6405,-0.563762
-518,141,-65.5746,0.647766,0.00328987,0.00297272,0.00111277,0.0042553,0.00200729,0.714622,0.00245811,0.0434477,706,883,-65.5746,-0.647759
-511,141,-65.647,0.795776,0.00450696,0.0041996,0.00119311,0.00555625,0.00315031,0.721347,0.00321748,0.042348,713,883,-65.647,-0.795748
-504,141,-65.7395,0.957825,0,0,0,0,0,0,0,-1,720,883,-65.7395,-0.957812
-497,141,0,0,0,0,0,0,0,0,0,-1,727,883,0,0
-490,141,0,0,0,0,0,0,0,0,0,-1,734,883,0,0
-483,141,0,0,0,0,0,0,0,0,0,-1,741,883,0,0
-476,141,0,0,0,0,0,0,0,0,0,-1,748,883,0,0
-469,141,0,0,0,0,0,0,0,0,0,-1,755,883,0,0
-462,141,0,0,0,0,0,0,0,0,0,-1,762,883,0,0
-455,141,0,0,0,0,0,0,0,0,0,-1,769,883,0,0
-448,141,0,0,0,0,0,0,0,0,0,-1,776,883,0,0
-441,141,0,0,0,0,0,0,0,0,0,-1,783,883,0,0
-434,141,0,0,0,0,0,0,0,0,0,-1,790,883,0,0
-427,141,0,0,0,0,0,0,0,0,0,-1,797,883,0,0
-420,141,0,0,0,0,0,0,0,0,0,-1,804,883,0,0
-413,141,0,0,0,0,0,0,0,0,0,-1,811,883,0,0
-406,141,0,0,0,0,0,0,0,0,0,-1,818,883,0,0
-399,141,0,0,0,0,0,0,0,0,0,-1,825,883,0,0
-392,141,0,0,0,0,0,0,0,0,0,-1,832,883,0,0
-385,141,0,0,0,0,0,0,0,0,0,-1,839,883,0,0
-378,141,0,0,0,0,0,0,0,0,0,-1,846,883,0,0
-371,141,0,0,0,0,0,0,0,0,0,-1,853,883,0,0
-364,141,0,0,0,0,0,0,0,0,0,-1,860,883,0,0
-357,141,0,0,0,0,0,0,0,0,0,-1,867,883,0,0
-350,141,0,0,0,0,0,0,0,0,0,-1,874,883,0,0
-343,141,0,0,0,0,0,0,0,0,0,-1,881,883,0,0
-336,141,0,0,0,0,0,0,0,0,0,-1,888,883,0,0
-329,141,0,0,0,0,0,0,0,0,0,-1,895,883,0,0
-322,141,0,0,0,0,0,0,0,0,0,-1,902,883,0,0
-315,141,0,0,0,0,0,0,0,0,0,-1,909,883,0,0
-308,141,0,0,0,0,0,0,0,0,0,-1,916,883,0,0
-301,141,0,0,0,0,0,0,0,0,0,-1,923,883,0,0
-294,141,0,0,0,0,0,0,0,0,0,-1,930,883,0,0
-287,141,0,0,0,0,0,0,0,0,0,-1,937,883,0,0
-280,141,0,0,0,0,0,0,0,0,0,-1,944,883,0,0
-273,141,0,0,0,0,0,0,0,0,0,-1,951,883,0,0
-266,141,0,0,0,0,0,0,0,0,0,-1,958,883,0,0
-259,141,0,0,0,0,0,0,0,0,0,-1,965,883,0,0
-252,141,0,0,0,0,0,0,0,0,0,-1,972,883,0,0
-245,141,0,0,0,0,0,0,0,0,0,-1,979,883,0,0
-238,141,0,0,0,0,0,0,0,0,0,-1,986,883,0,0
-231,141,0,0,0,0,0,0,0,0,0,-1,993,883,0,0
-224,141,0,0,0,0,0,0,0,0,0,-1,1000,883,0,0
-217,141,0,0,0,0,0,0,0,0,0,-1,1007,883,0,0
-210,141,0,0,0,0,0,0,0,0,0,-1,1014,883,0,0
-203,141,0,0,0,0,0,0,0,0,0,-1,1021,883,0,0
-196,141,0,0,0,0,0,0,0,0,0,-1,1028,883,0,0
-189,141,0,0,0,0,0,0,0,0,0,-1,1035,883,0,0
-182,141,0,0,0,0,0,0,0,0,0,-1,1042,883,0,0
-175,141,0,0,0,0,0,0,0,0,0,-1,1049,883,0,0
-168,141,0,0,0,0,0,0,0,0,0,-1,1056,883,0,0
-161,141,0,0,0,0,0,0,0,0,0,-1,1063,883,0,0
-154,141,0,0,0,0,0,0,0,0,0,-1,1070,883,0,0
-147,141,0,0,0,0,0,0,0,0,0,-1,1077,883,0,0
-140,141,0,0,0,0,0,0,0,0,0,-1,1084,883,0,0
-133,141,0,0,0,0,0,0,0,0,0,-1,1091,883,0,0
-126,141,0,0,0,0,0,0,0,0,0,-1,1098,883,0,0
-119,141,0,0,0,0,0,0,0,0,0,-1,1105,883,0,0
-112,141,0,0,0,0,0,0,0,0,0,-1,1112,883,0,0
-105,141,0,0,0,0,0,0,0,0,0,-1,1119,883,0,0
-98,141,0,0,0,0,0,0,0,0,0,-1,1126,883,0,0
-91,141,0,0,0,0,0,0,0,0,0,-1,1133,883,0,0
-84,141,0,0,0,0,0,0,0,0,0,-1,1140,883,0,0
-77,141,0,0,0,0,0,0,0,0,0,-1,1147,883,0,0
-70,141,0,0,0,0,0,0,0,0,0,-1,1154,883,0,0
-63,141,0,0,0,0,0,0,0,0,0,-1,1161,883,0,0
-56,141,0,0,0,0,0,0,0,0,0,-1,1168,883,0,0
-49,141,0,0,0,0,0,0,0,0,0,-1,1175,883,0,0
-42,141,0,0,0,0,0,0,0,0,0,-1,1182,883,0,0
-35,141,0,0,0,0,0,0,0,0,0,-1,1189,883,0,0
-28,141,0,0,0,0,0,0,0,0,0,-1,1196,883,0,0
-21,141,0,0,0,0,0,0,0,0,0,-1,1203,883,0,0
-14,141,0,0,0,0,0,0,0,0,0,-1,1210,883,0,0
-7,141,0,0,0,0,0,0,0,0,0,-1,1217,883,0,0
0,141,0,0,0,0,0,0,0,0,0,-1,1224,883,0,0
7,141,0,0,0,0,0,0,0,0,0,-1,1231,883,0,0
14,141,0,0,0,0,0,0,0,0,0,-1,1238,883,0,0
21,141,0,0,0,0,0,0,0,0,0,-1,1245,883,0,0
28,141,0,0,0,0,0,0,0,0,0,-1,1252,883,0,0
35,141,0,0,0,0,0,0,0,0,0,-1,1259,883,0,0
42,141,0,0,0,0,0,0,0,0,0,-1,1266,883,0,0
49,141,0,0,0,0,0,0,0,0,0,-1,1273,883,0,0
56,141,0,0,0,0,0,0,0,0,0,-1,1280,883,0,0
63,141,0,0,0,0,0,0,0,0,0,-1,1287,883,0,0
70,141,0,0,0,0,0,0,0,0,0,-1,1294,883,0,0
77,141,0,0,0,0,0,0,0,0,0,-1,1301,883,0,0
84,141,0,0,0,0,0,0,0,0,0,-1,1308,883,0,0
91,141,0,0,0,0,0,0,0,0,0,-1,1315,883,0,0
98,141,0,0,0,0,0,0,0,0,0,-1,1322,883,0,0
105,141,0,0,0,0,0,0,0,0,0,-1,1329,883,0,0
112,141,0,0,0,0,0,0,0,0,0,-1,1336,883,0,0
119,141,0,0,0,0,0,0,0,0,0,-1,1343,883,0,0
126,141,0,0,0,0,0,0,0,0,0,-1,1350,883,0,0
133,141,0,0,0,0,0,0,0,0,0,-1,1357,883,0,0
140,141,0,0,0,0,0,0,0,0,0,-1,1364,883,0,0
147,141,0,0,0,0,0,0,0,0,0,-1,1371,883,0,0
154,141,0,0,0,0,0,0,0,0,0,-1,1378,883,0,0
161,141,0,0,0,0,0,0,0,0,0,-1,1385,883,0,0
168,141,0,0,0,0,0,0,0,0,0,-1,1392,883,0,0
175,141,0,0,0,0,0,0,0,0,0,-1,1399,883,0,0
182,141,0,0,0,0,0,0,0,0,0,-1,1406,883,0,0
189,141,0,0,0,0,0,0,0,0,0,-1,1413,883,0,0
196,141,0,0,0,0,0,0,0,0,0,-1,1420,883,0,0
203,141,0,0,0,0,0,0,0,0,0,-1,1427,883,0,0
210,141,0,0,0,0,0,0,0,0,0,-1,1434,883,0,0
217,141,0,0,0,0,0,0,0,0,0,-1,1441,883,0,0
224,141,0,0,0,0,0,0,0,0,0,-1,1448,883,0,0
231,141,0,0,0,0,0,0,0,0,0,-1,1455,883,0,0
238,141,0,0,0,0,0,0,0,0,0,-1,1462,883,0,0
245,141,0,0,0,0,0,0,0,0,0,-1,1469,883,0,0
252,141,0,0,0,0,0,0,0,0,0,-1,1476,883,0,0
259,141,0,0,0,0,0,0,0,0,0,-1,1483,883,0,0
266,141,0,0,0,0,0,0,0,0,0,-1,1490,883,0,0
273,141,0,0,0,0,0,0,0,0,0,-1,1497,883,0,0
280,141,0,0,0,0,0,0,0,0,0,-1,1504,883,0,0
287,141,0,0,0,0,0,0,0,0,0,-1,1511,883,0,0
294,141,0,0,0,0,0,0,0,0,0,-1,1518,883,0,0
301,141,0,0,0,0,0,0,0,0,0,-1,1525,883,0,0
308,141,0,0,0,0,0,0,0,0,0,-1,1532,883,0,0
315,141,0,0,0,0,0,0,0,0,0,-1,1539,883,0,0
322,141,0,0,0,0,0,0,0,0,0,-1,1546,883,0,0
329,141,0,0,0,0,0,0,0,0,0,-1,1553,883,0,0
336,141,0,0,0,0,0,0,0,0,0,-1,1560,883,0,0
343,141,0,0,0,0,0,0,0,0,0,-1,1567,883,0,0
350,141,0,0,0,0,0,0,0,0,0,-1,1574,883,0,0
357,141,0,0,0,0,0,0,0,0,0,-1,1581,883,0,0
364,141,0,0,0,0,0,0,0,0,0,-1,1588,883,0,0
371,141,0,0,0,0,0,0,0,0,0,-1,1595,883,0,0
378,141,0,0,0,0,0,0,0,0,0,-1,1602,883,0,0
385,141,0,0,0,0,0,0,0,0,0,-1,1609,883,0,0
392,141,0,0,0,0,0,0,0,0,0,-1,1616,883,0,0
399,141,0,0,0,0,0,0,0,0,0,-1,1623,883,0,0
406,141,0,0,0,0,0,0,0,0,0,-1,1630,883,0,0
413,141,0,0,0,0,0,0,0,0,0,-1,1637,883,0,0
420,141,0,0,0,0,0,0,0,0,0,-1,1644,883,0,0
427,141,0,0,0,0,0,0,0,0,0,-1,1651,883,0,0
434,141,0,0,0,0,0,0,0,0,0,-1,1658,883,0,0
441,141,0,0,0,0,0,0,0,0,0,-1,1665,883,0,0
448,141,0,0,0,0,0,0,0,0,0,-1,1672,883,0,0
455,141,0,0,0,0,0,0,0,0,0,-1,1679,883,0,0
462,141,0,0,0,0,0,0,0,0,0,-1,1686,883,0,0
469,141,0,0,0,0,0,0,0,0,0,-1,1693,883,0,0
476,141,0,0,0,0,0,0,0,0,0,-1,1700,883,0,0
483,141,0,0,0,0,0,0,0,0,0,-1,1707,883,0,0
490,141,0,0,0,0,0,0,0,0,0,-1,1714,883,0,0
497,141,0,0,0,0,0,0,0,0,0,-1,1721,883,0,0
504,141,0,0,0,0,0,0,0,0,0,-1,1728,883,0,0
511,141,0,0,0,0,0,0,0,0,0,-1,1735,883,0,0
518,141,0,0,0,0,0,0,0,0,0,-1,1742,883,0,0
525,141,0,0,0,0,0,0,0,0,0,-1,1749,883,0,0
532,141,0,0,0,0,0,0,0,0,0,-1,1756,883,0,0
539,141,0,0,0,0,0,0,0,0,0,-1,1763,883,0,0
546,141,0,0,0,0,0,0,0,0,0,-1,1770,883,0,0
553,141,0,0,0,0,0,0,0,0,0,-1,1777,883,0,0
560,141,0,0,0,0,0,0,0,0,0,-1,1784,883,0,0
567,141,0,0,0,0,0,0,0,0,0,-1,1791,883,0,0
574,141,0,0,0,0,0,0,0,0,0,-1,1798,883,0,0
581,141,0,0,0,0,0,0,0,0,0,-1,1805,883,0,0
588,141,0,0,0,0,0,0,0,0,0,-1,1812,883,0,0
595,141,0,0,0,0,0,0,0,0,0,-1,1819,883,0,0
602,141,0,0,0,0,0,0,0,0,0,-1,1826,883,0,0
609,141,0,0,0,0,0,0,0,0,0,-1,1833,883,0,0
616,141,0,0,0,0,0,0,0,0,0,-1,1840,883,0,0
623,141,82.099,2.16516,0.0139827,-0.0018681,-0.00277402,0.0144541,-0.00233956,-0.168345,0.0105032,0.0476611,1847,883,82.099,-2.16513
630,141,82.2313,2.11334,0.00977582,-0.00037351,-0.00225401,0.0102539,-0.000851572,-0.208997,0.00713674,0.0464054,1854,883,82.2313,-2.11332
637,141,82.3779,2.1264,0.00619076,0.000966413,-0.00166557,0.00667658,0.000480592,-0.283811,0.00429982,0.0432533,1861,883,82.3779,-2.12639
644,141,82.3198,2.28864,0.00318977,0.0018611,-0.00107345,0.00378783,0.00126304,-0.508307,0.00222698,0.0400778,1868,883,82.3199,-2.28865
651,141,82.3505,2.38794,0.000913193,0.00227616,-0.000672214,0.00255191,0.000637446,-1.18152,0.00153361,0.0385071,1875,883,82.3505,-2.38792
658,141,82.3462,2.36285,-0.000938321,0.00229874,-0.000702778,0.00244473,-0.00108431,-1.36597,0.00208735,0.0350664,1882,883,82.3462,-2.36284
665,141,82.1992,2.42224,-0.00187103,0.00281324,-0.00111463,0.00306495,-0.00212274,-1.3487,0.00301153,0.0272427,1889,883,82.1992,-2.42223
672,141,82.2129,2.43286,-0.00218288,0.00253987,-0.00150182,0.00297699,-0.00261999,-1.28756,0.00323361,0.0234429,1896,883,82.2129,-2.43285
679,141,82.131,2.5238,-0.00227493,0.00239308,-0.00184611,0.00303493,-0.00291678,-1.23619,0.00343644,0.0389672,1903,883,82.131,-2.52383
686,141,81.9723,2.77399,0,0,0,0,0,0,0,-1,1910,883,81.9723,-2.77397
693,141,51.7202,1.76593,0,0,0,0,0,0,0,-1,1917,883,51.7202,-1.76595
700,141,62.7651,1.95361,0,0,0,0,0,0,0,-1,1924,883,62.7651,-1.95364
707,141,71.526,3.35883,0,0,0,0,0,0,0,-1,1931,883,71.526,-3.35884
714,141,71.1785,4.112,-0.00246015,0.00257604,-0.00322279,0.00414783,-0.00403195,-1.11703,0.00472275,0.0428971,1938,883,71.1785,-4.11199
721,141,71.1371,4.86316,-0.00230015,0.00297347,-0.00370117,0.00488104,-0.00420772,-1.09491,0.0052522,0.0249769,1945,883,71.1371,-4.86315
728,141,71.2948,5.70679,-0.00242239,0.00366679,-0.00386535,0.00554261,-0.00429821,-1.11898,0.00569673,0.0191741,1952,883,71.2948,-5.70677
735,141,71.1982,6.7207,-0.00244854,0.00475523,-0.00357992,0.00623167,-0.00392498,-1.17963,0.00591414,0.0221921,1959,883,71.1983,-6.72068
742,141,71.0646,7.55457,-0.00231605,0.00671321,-0.00288087,0.00755407,-0.00315692,-1.28681,0.00635532,0.0223525,1966,883,71.0646,-7.55458
749,141,71.0192,8.34161,-0.00210607,0.00921796,-0.00166031,0.00945637,-0.00234448,-1.42818,0.00721387,0.0157995,1973,883,71.0191,-8.3416
756,141,71.0115,9.23065,-0.00186356,0.012205,3.92539e-05,0.0122051,-0.00186367,1.56801,0.00882381,0.0222744,1980,883,71.0115,-9.23064
763,141,71.0129,9.98846,-0.0018923,0.0157644,0.00240125,0.0160851,-0.00221304,1.43801,0.0115321,0.044318,1987,883,71.0128,-9.98849
770,141,70.9734,10.7257,0,0,0,0,0,0,0,-1,1994,883,70.9735,-10.7257
777,141,73.0037,8.44788,0,0,0,0,0,0,0,-1,2001,883,73.0038,-8.44787
784,141,73.3435,9.80182,0,0,0,0,0,0,0,-1,2008,883,73.3434,-9.80183
791,141,73.7993,11.1595,0,0,0,0,0,0,0,-1,2015,883,73.7994,-11.1595
798,141,0,0,0,0,0,0,0,0,0,-1,2022,883,0,0
805,141,0,0,0,0,0,0,0,0,0,-1,2029,883,0,0
812,141,0,0,0,0,0,0,0,0,0,-1,2036,883,0,0
-700,134,0,0,0,0,0,0,0,0,0,-1,524,890,0,0
-693,134,0,0,0,0,0,0,0,0,0,-1,531,890,0,0
-686,134,0,0,0,0,0,0,0,0,0,-1,538,890,0,0
-679,134,0,0,0,0,0,0,0,0,0,-1,545,890,0,0
-672,134,-49.3306,-0.500671,0,0,0,0,0,0,0,-1,552,890,-49.3306,0.500651
-665,134,-49.3356,-3.00098,0,0,0,0,0,0,0,-1,559,890,-49.3356,3.00096
-658,134,-49.3368,-5.46246,0,0,0,0,0,0,0,-1,566,890,-49.3368,5.46248
-651,134,-53.0905,0.530762,0,0,0,0,0,0,0,-1,573,890,-53.0905,-0.530792
-644,134,-51.8253,-1.26782,0,0,0,0,0,0,0,-1,580,890,-51.8253,1.26783
-637,134,-50.5067,-2.83545,0,0,0,0,0,0,0,-1,587,890,-50.5066,2.83545
-630,134,-55.0549,9.43121,0,0,0,0,0,0,0,-1,594,890,-55.0549,-9.43124
-623,134,-55.2878,8.73096,-0.0125754,0.00843874,0.00643089,0.0102506,-0.0143872,1.29618,0.0142913,0.0367157,601,890,-55.2878,-8.73098
-616,134,-55.6375,7.89838,-0.00859243,0.00640191,0.00538752,0.00813691,-0.0103274,1.25924,0.0106854,0.0161953,608,890,-55.6375,-7.89837
-609,134,-55.773,7.00793,-0.00500875,0.00470469,0.00491692,0.00675911,-0.00706317,1.17502,0.00798094,0.0123158,615,890,-55.773,-7.00794
-602,134,-55.8073,6.10944,-0.00260394,0.00327818,0.00457016,0.00577184,-0.0050976,1.07131,0.0062795,0.013741,622,890,-55.8073,-6.10946
-595,134,-55.7103,5.271,-0.00120131,0.00245155,0.00412424,0.00513568,-0.00388545,0.993845,0.005225,0.0331682,629,890,-55.7103,-5.271
-588,134,-55.6887,4.40869,0,0,0,0,0,0,0,-1,636,890,-55.6887,-4.40867
-581,134,-55.6422,3.07727,0,0,0,0,0,0,0,-1,643,890,-55.6422,-3.07728
-574,134,-31.1517,0.757751,0,0,0,0,0,0,0,-1,650,890,-31.1517,-0.757758
-567,134,-30.9003,0.296326,0,0,0,0,0,0,0,-1,657,890,-30.9002,-0.296302
-560,134,-22.9123,0.106567,0,0,0,0,0,0,0,-1,664,890,-22.9123,-0.106594
-553,134,-65.6898,0.459412,0,0,0,0,0,0,0,-1,671,890,-65.6898,-0.459412
-546,134,-65.6784,0.481689,0.00212279,0.00059214,0.00216156,0.00365051,-0.00093558,0.615254,0.00279816,0.0322515,678,890,-65.6784,-0.481703
-539,134,-65.652,0.487122,0.00198033,0.000887484,0.00177318,0.00328938,-0.00042156,0.635935,0.0023461,0.0185376,685,890,-65.652,-0.487141
-532,134,-65.6457,0.525085,0.00280611,0.000895694,0.00118341,0.00337172,0.000330084,0.445851,0.00214627,0.0226982,692,890,-65.6457,-0.525067
-525,134,-65.6376,0.546448,0.00317729,0.00127806,0.000732168,0.00342677,0.00102857,0.328408,0.00203044,0.0341058,699,890,-65.6377,-0.54645
-518,134,-65.5505,0.565308,0.00355298,0.00177825,0.000478822,0.00367392,0.00165731,0.247412,0.00212452,0.0431877,706,890,-65.5505,-0.565306
-511,134,-65.5159,0.527954,0.00479467,0.00283688,0.000743005,0.00504472,0.00258684,0.324625,0.00291289,0.0438878,713,890,-65.5159,-0.527956
-504,134,0,0,0,0,0,0,0,0,0,-1,720,890,0,0
-497,134,0,0,0,0,0,0,0,0,0,-1,727,890,0,0
-490,134,0,0,0,0,0,0,0,0,0,-1,734,890,0,0
-483,134,0,0,0,0,0,0,0,0,0,-1,741,890,0,0
-476,134,0,0,0,0,0,0,0,0,0,-1,748,890,0,0
-469,134,0,0,0,0,0,0,0,0,0,-1,755,890,0,0
-462,134,0,0,0,0,0,0,0,0,0,-1,762,890,0,0
-455,134,0,0,0,0,0,0,0,0,0,-1,769,890,0,0
-448,134,0,0,0,0,0,0,0,0,0,-1,776,890,0,0
-441,134,0,0,0,0,0,0,0,0,0,-1,783,890,0,0
-434,134,0,0,0,0,0,0,0,0,0,-1,790,890,0,0
-427,134,0,0,0,0,0,0,0,0,0,-1,797,890,0,0
-420,134,0,0,0,0,0,0,0,0,0,-1,804,890,0,0
-413,134,0,0,0,0,0,0,0,0,0,-1,811,890,0,0
-406,134,0,0,0,0,0,0,0,0,0,-1,818,890,0,0
-399,134,0,0,0,0,0,0,0,0,0,-1,825,890,0,0
-392,134,0,0,0,0,0,0,0,0,0,-1,832,890,0,0
-385,134,0,0,0,0,0,0,0,0,0,-1,839,890,0,0
-378,134,0,0,0,0,0,0,0,0,0,-1,846,890,0,0
-371,134,0,0,0,0,0,0,0,0,0,-1,853,890,0,0
-364,134,0,0,0,0,0,0,0,0,0,-1,860,890,0,0
-357,134,0,0,0,0,0,0,0,0,0,-1,867,890,0,0
-350,134,0,0,0,0,0,0,0,0,0,-1,874,890,0,0
-343,134,0,0,0,0,0,0,0,0,0,-1,881,890,0,0
-336,134,0,0,0,0,0,0,0,0,0,-1,888,890,0,0
-329,134,0,0,0,0,0,0,0,0,0,-1,895,890,0,0
-322,134,0,0,0,0,0,0,0,0,0,-1,902,890,0,0
-315,134,0,0,0,0,0,0,0,0,0,-1,909,890,0,0
-308,134,0,0,0,0,0,0,0,0,0,-1,916,890,0,0
-301,134,0,0,0,0,0,0,0,0,0,-1,923,890,0,0
-294,134,0,0,0,0,0,0,0,0,0,-1,930,890,0,0
-287,134,0,0,0,0,0,0,0,0,0,-1,937,890,0,0
-280,134,0,0,0,0,0,0,0,0,0,-1,944,890,0,0
-273,134,0,0,0,0,0,0,0,0,0,-1,951,890,0,0
-266,134,0,0,0,0,0,0,0,0,0,-1,958,890,0,0
-259,134,0,0,0,0,0,0,0,0,0,-1,965,890,0,0
-252,134,0,0,0,0,0,0,0,0,0,-1,972,890,0,0
-245,134,0,0,0,0,0,0,0,0,0,-1,979,890,0,0
-238,134,0,0,0,0,0,0,0,0,0,-1,986,890,0,0
-231,134,0,0,0,0,0,0,0,0,0,-1,993,890,0,0
-224,134,0,0,0,0,0,0,0,0,0,-1,1000,890,0,0
-217,134,0,0,0,0,0,0,0,0,0,-1,1007,890,0,0
-210,134,0,0,0,0,0,0,0,0,0,-1,1014,890,0,0
-203,134,0,0,0,0,0,0,0,0,0,-1,1021,890,0,0
-196,134,0,0,0,0,0,0,0,0,0,-1,1028,890,0,0
-189,134,0,0,0,0,0,0,0,0,0,-1,1035,890,0,0
-182,134,0,0,0,0,0,0,0,0,0,-1,1042,890,0,0
-175,134,0,0,0,0,0,0,0,0,0,-1,1049,890,0,0
-168,134,0,0,0,0,0,0,0,0,0,-1,1056,890,0,0
-161,134,0,0,0,0,0,0,0,0,0,-1,1063,890,0,0
-154,134,0,0,0,0,0,0,0,0,0,-1,1070,890,0,0
-147,134,0,0,0,0,0,0,0,0,0,-1,1077,890,0,0
-140,134,0,0,0,0,0,0,0,0,0,-1,1084,890,0,0
-133,134,0,0,0,0,0,0,0,0,0,-1,1091,890,0,0
-126,134,0,0,0,0,0,0,0,0,0,-1,1098,890,0,0
-119,134,0,0,0,0,0,0,0,0,0,-1,1105,890,0,0
-112,134,0,0,0,0,0,0,0,0,0,-1,1112,890,0,0
-105,134,0,0,0,0,0,0,0,0,0,-1,1119,890,0,0
-98,134,0,0,0,0,0,0,0,0,0,-1,1126,890,0,0
-91,134,0,0,0,0,0,0,0,0,0,-1,1133,890,0,0
-84,134,0,0,0,0,0,0,0,0,0,-1,1140,890,0,0
-77,134,0,0,0,0,0,0,0,0,0,-1,1147,890,0,0
-70,134,0,0,0,0,0,0,0,0,0,-1,1154,890,0,0
-63,134,0,0,0,0,0,0,0,0,0,-1,1161,890,0,0
-56,134,0,0,0,0,0,0,0,0,0,-1,1168,890,0,0
-49,134,0,0,0,0,0,0,0,0,0,-1,1175,890,0,0
-42,134,0,0,0,0,0,0,0,0,0,-1,1182,890,0,0
-35,134,0,0,0,0,0,0,0,0,0,-1,1189,890,0,0
-28,134,0,0,0,0,0,0,0,0,0,-1,1196,890,0,0
-21,134,0,0,0,0,0,0,0,0,0,-1,1203,890,0,0
-14,134,0,0,0,0,0,0,0,0,0,-1,1210,890,0,0
-7,134,0,0,0,0,0,0,0,0,0,-1,1217,890,0,0
0,134,0,0,0,0,0,0,0,0,0,-1,1224,890,0,0
7,134,0,0,0,0,0,0,0,0,0,-1,1231,890,0,0
14,134,0,0,0,0,0,0,0,0,0,-1,1238,890,0,0
21,134,0,0,0,0,0,0,0,0,0,-1,1245,890,0,0
28,134,0,0,0,0,0,0,0,0,0,-1,1252,890,0,0
35,134,0,0,0,0,0,0,0,0,0,-1,1259,890,0,0
42,134,0,0,0,0,0,0,0,0,0,-1,1266,890,0,0
49,134,0,0,0,0,0,0,0,0,0,-1,1273,890,0,0
56,134,0,0,0,0,0,0,0,0,0,-1,1280,890,0,0
63,134,0,0,0,0,0,0,0,0,0,-1,1287,890,0,0
70,134,0,0,0,0,0,0,0,0,0,-1,1294,890,0,0
77,134,0,0,0,0,0,0,0,0,0,-1,1301,890,0,0
84,134,0,0,0,0,0,0,0,0,0,-1,1308,890,0,0
91,134,0,0,0,0,0,0,0,0,0,-1,1315,890,0,0
98,134,0,0,0,0,0,0,0,0,0,-1,1322,890,0,0
105,134,0,0,0,0,0,0,0,0,0,-1,1329,890,0,0
112,134,0,0,0,0,0,0,0,0,0,-1,1336,890,0,0
119,134,0,0,0,0,0,0,0,0,0,-1,1343,890,0,0
126,134,0,0,0,0,0,0,0,0,0,-1,1350,890,0,0
133,134,0,0,0,0,0,0,0,0,0,-1,1357,890,0,0
140,134,0,0,0,0,0,0,0,0,0,-1,1364,890,0,0
147,134,0,0,0,0,0,0,0,0,0,-1,1371,890,0,0
154,134,0,0,0,0,0,0,0,0,0,-1,1378,890,0,0
161,134,0,0,0,0,0,0,0,0,0,-1,1385,890,0,0
168,134,0,0,0,0,0,0,0,0,0,-1,1392,890,0,0
175,134,0,0,0,0,0,0,0,0,0,-1,1399,890,0,0
182,134,0,0,0,0,0,0,0,0,0,-1,1406,890,0,0
189,134,0,0,0,0,0,0,0,0,0,-1,1413,890,0,0
196,134,0,0,0,0,0,0,0,0,0,-1,1420,890,0,0
203,134,0,0,0,0,0,0,0,0,0,-1,1427,890,0,0
210,134,0,0,0,0,0,0,0,0,0,-1,1434,890,0,0
217,134,0,0,0,0,0,0,0,0,0,-1,1441,890,0,0
224,134,0,0,0,0,0,0,0,0,0,-1,1448,890,0,0
231,134,0,0,0,0,0,0,0,0,0,-1,1455,890,0,0
238,134,0,0,0,0,0,0,0,0,0,-1,1462,890,0,0
245,134,0,0,0,0,0,0,0,0,0,-1,1469,890,0,0
252,134,0,0,0,0,0,0,0,0,0,-1,1476,890,0,0
259,134,0,0,0,0,0,0,0,0,0,-1,1483,890,0,0
266,134,0,0,0,0,0,0,0,0,0,-1,1490,890,0,0
273,134,0,0,0,0,0,0,0,0,0,-1,1497,890,0,0
280,134,0,0,0,0,0,0,0,0,0,-1,1504,890,0,0
287,134,0,0,0,0,0,0,0,0,0,-1,1511,890,0,0
294,134,0,0,0,0,0,0,0,0,0,-1,1518,890,0,0
301,134,0,0,0,0,0,0,0,0,0,-1,1525,890,0,0
308,134,0,0,0,0,0,0,0,0,0,-1,1532,890,0,0
315,134,0,0,0,0,0,0,0,0,0,-1,1539,890,0,0
322,134,0,0,0,0,0,0,0,0,0,-1,1546,890,0,0
329,134,0,0,0,0,0,0,0,0,0,-1,1553,890,0,0
336,134,0,0,0,0,0,0,0,0,0,-1,1560,890,0,0
343,134,0,0,0,0,0,0,0,0,0,-1,1567,890,0,0
350,134,0,0,0,0,0,0,0,0,0,-1,1574,890,0,0
357,134,0,0,0,0,0,0,0,0,0,-1,1581,890,0,0
364,134,0,0,0,0,0,0,0,0,0,-1,1588,890,0,0
371,134,0,0,0,0,0,0,0,0,0,-1,1595,890,0,0
378,134,0,0,0,0,0,0,0,0,0,-1,1602,890,0,0
385,134,0,0,0,0,0,0,0,0,0,-1,1609,890,0,0
392,134,0,0,0,0,0,0,0,0,0,-1,1616,890,0,0
399,134,0,0,0,0,0,0,0,0,0,-1,1623,890,0,0
406,134,0,0,0,0,0,0,0,0,0,-1,1630,890,0,0
413,134,0,0,0,0,0,0,0,0,0,-1,1637,890,0,0
420,134,0,0,0,0,0,0,0,0,0,-1,1644,890,0,0
427,134,0,0,0,0,0,0,0,0,0,-1,1651,890,0,0
434,134,0,0,0,0,0,0,0,0,0,-1,1658,890,0,0
441,134,0,0,0,0,0,0,0,0,0,-1,1665,890,0,0
448,134,0,0,0,0,0,0,0,0,0,-1,1672,890,0,0
455,134,0,0,0,0,0,0,0,0,0,-1,1679,890,0,0
462,134,0,0,0,0,0,0,0,0,0,-1,1686,890,0,0
469,134,0,0,0,0,0,0,0,0,0,-1,1693,890,0,0
476,134,0,0,0,0,0,0,0,0,0,-1,1700,890,0,0
483,134,0,0,0,0,0,0,0,0,0,-1,1707,890,0,0
490,134,0,0,0,0,0,0,0,0,0,-1,1714,890,0,0
497,134,0,0,0,0,0,0,0,0,0,-1,1721,890,0,0
504,134,0,0,0,0,0,0,0,0,0,-1,1728,890,0,0
511,134,0,0,0,0,0,0,0,0,0,-1,1735,890,0,0
518,134,0,0,0,0,0,0,0,0,0,-1,1742,890,0,0
525,134,0,0,0,0,0,0,0,0,0,-1,1749,890,0,0
532,134,0,0,0,0,0,0,0,0,0,-1,1756,890,0,0
539,134,0,0,0,0,0,0,0,0,0,-1,1763,890,0,0
546,134,0,0,0,0,0,0,0,0,0,-1,1770,890,0,0
553,134,0,0,0,0,0,0,0,0,0,-1,1777,890,0,0
560,134,0,0,0,0,0,0,0,0,0,-1,1784,890,0,0
567,134,0,0,0,0,0,0,0,0,0,-1,1791,890,0,0
574,134,0,0,0,0,0,0,0,0,0,-1,1798,890,0,0
581,134,0,0,0,0,0,0,0,0,0,-1,1805,890,0,0
588,134,0,0,0,0,0,0,0,0,0,-1,1812,890,0,0
595,134,0,0,0,0,0,0,0,0,0,-1,1819,890,0,0
602,134,0,0,0,0,0,0,0,0,0,-1,1826,890,0,0
609,134,0,0,0,0,0,0,0,0,0,-1,1833,890,0,0
616,134,0,0,0,0,0,0,0,0,0,-1,1840,890,0,0
623,134,82.1876,2.40558,0.0146841,-0.00159178,-0.00344218,0.0153822,-0.00228983,-0.200079,0.0110971,0.0467454,1847,890,82.1876,-2.40557
630,134,82.2192,2.24384,0.010404,-5.09868e-05,-0.00294461,0.0111763,-0.000823278,-0.256496,0.00773988,0.0464888,1854,890,82.2192,-2.24386
637,134,82.2975,2.31152,0.00692456,0.00124083,-0.00236789,0.00778176,0.000383626,-0.347335,0.00506481,0.0444984,1861,890,82.2974,-2.31153
644,134,82.4011,2.36945,0.00389292,0.00209236,-0.00171484,0.00492944,0.00105585,-0.543677,0.00299699,0.0382753,1868,890,82.4012,-2.36942
651,134,82.3474,2.38232,0.00148887,0.00250375,-0.00110986,0.00321667,0.000775954,-0.999816,0.00193828,0.0387933,1875,890,82.3475,-2.38229
658,134,82.2441,2.39392,-0.000506709,0.0025427,-0.000809375,0.00274421,-0.000708218,-1.32679,0.00210563,0.0368175,1882,890,82.2442,-2.39393
665,134,82.1869,2.34155,-0.00156782,0.00302252,-0.000986567,0.00322558,-0.00177087,-1.36781,0.00292517,0.0311508,1889,890,82.1869,-2.34155
672,134,82.2333,2.32202,-0.00196526,0.00271619,-0.00129043,0.00304833,-0.0022974,-1.31888,0.00309649,0.0239439,1896,890,82.2332,-2.32201
679,134,82.2115,2.3551,-0.00208256,0.00246032,-0.00161493,0.00297589,-0.00259813,-1.26177,0.00322062,0.023938,1903,890,82.2116,-2.35508
686,134,82.1595,2.47882,0,0,0,0,0,0,0,-1,1910,890,82.1596,-2.4788
693,134,34.5778,2.48096,0,0,0,0,0,0,0,-1,1917,890,34.5777,-2.48099
700,134,72.0385,1.83533,0,0,0,0,0,0,0,-1,1924,890,72.0385,-1.83534
707,134,72.0123,2.78247,0,0,0,0,0,0,0,-1,1931,890,72.0123,-2.78247
714,134,72.0935,3.83051,-0.00252742,0.00259151,-0.00297443,0.00395608,-0.003892,-1.14067,0.00453114,0.0317343,1938,890,72.0936,-3.83053
721,134,72.1929,4.73187,-0.00243643,0.00294698,-0.00351052,0.00467896,-0.00416842,-1.11247,0.00511087,0.0302325,1945,890,72.1928,-4.73189
728,134,72.2106,5.61694,-0.00272492,0.00358949,-0.0037914,0.00536611,-0.00450155,-1.13259,0.00570438,0.0266581,1952,890,72.2106,-5.61695
735,134,72.1202,6.71362,-0.00296686,0.00467945,-0.00361766,0.00611976,-0.00440717,-1.1919,0.00610447,0.0319791,1959,890,72.1202,-6.71363
742,134,71.9974,7.60443,-0.00306219,0.00681829,-0.00289871,0.00760592,-0.00384981,-1.30548,0.00673144,0.0199201,1966,890,71.9975,-7.60442
749,134,71.9739,8.36987,-0.00306204,0.00968175,-0.00142438,0.00983901,-0.0032193,-1.46083,0.00785549,0.013123,1973,890,71.9739,-8.36988
756,134,71.9241,9.16168,-0.0029903,0.0131246,0.000804279,0.0131646,-0.00303034,1.52105,0.00994168,0.0179712,1980,890,71.9242,-9.1617
763,134,71.824,9.92383,-0.00310857,0.0170319,0.00389843,0.0177602,-0.00383682,1.38612,0.0133047,0.039355,1987,890,71.8239,-9.92383
770,134,71.7129,10.6782,0,0,0,0,0,0,0,-1,1994,890,71.7128,-10.6782
777,134,74.8572,9.58441,0,0,0,0,0,0,0,-1,2001,890,74.8572,-9.58442
784,134,75.1489,10.8398,0,0,0,0,0,0,0,-1,2008,890,75.1489,-10.8398
791,134,75.4202,12.0895,0,0,0,0,0,0,0,-1,2015,890,75.4202,-12.0896
798,134,0,0,0,0,0,0,0,0,0,-1,2022,890,0,0
805,134,0,0,0,0,0,0,0,0,0,-1,2029,890,0,0
812,134,0,0,0,0,0,0,0,0,0,-1,2036,890,0,0
-700,127,0,0,0,0,0,0,0,0,0,-1,524,897,0,0
-693,127,0,0,0,0,0,0,0,0,0,-1,531,897,0,0
-686,127,0,0,0,0,0,0,0,0,0,-1,538,897,0,0
-679,127,-52.0821,4.30957,0,0,0,0,0,0,0,-1,545,897,-52.0821,-4.30955
-672,127,-50.373,4.8219,0,0,0,0,0,0,0,-1,552,897,-50.373,-4.8219
-665,127,-49.6271,-2.44153,0,0,0,0,0,0,0,-1,559,897,-49.6271,2.44154
-658,127,-48.965,-4.18744,0,0,0,0,0,0,0,-1,566,897,-48.965,4.18745
-651,127,-52.9149,-0.455505,0,0,0,0,0,0,0,-1,573,897,-52.9149,0.455524
-644,127,-51.6913,-2.33765,0,0,0,0,0,0,0,-1,580,897,-51.6914,2.33763
-637,127,-50.3104,-4.18658,0,0,0,0,0,0,0,-1,587,897,-50.3104,4.18656
-630,127,-56.3958,9.29761,0,0,0,0,0,0,0,-1,594,897,-56.3957,-9.2976
-623,127,-56.4982,8.66351,-0.0116599,0.0102888,0.00709758,0.0123839,-0.0137551,1.28376,0.0150983,0.0248139,601,897,-56.4982,-8.66353
-616,127,-56.6127,7.91602,-0.00775316,0.00748517,0.00585237,0.0094734,-0.00974139,1.2433,0.011094,0.0137963,608,897,-56.6127,-7.91604
-609,127,-56.7115,7.02594,-0.00440925,0.00504721,0.00505661,0.0072418,-0.00660384,1.16132,0.00799661,0.0153501,615,897,-56.7115,-7.02591
-602,127,-56.7289,6.17285,-0.00247945,0.00317921,0.0044113,0.00559056,-0.00489079,1.07054,0.0060559,0.0177943,622,897,-56.7289,-6.17283
-595,127,-56.6575,5.36774,-0.0013541,0.00222521,0.00385483,0.00468556,-0.00381445,1.00272,0.00491607,0.0382168,629,897,-56.6576,-5.36775
-588,127,-56.5309,4.92859,0,0,0,0,0,0,0,-1,636,897,-56.5309,-4.92859
-581,127,-55.4916,2.76971,0,0,0,0,0,0,0,-1,643,897,-55.4916,-2.7697
-574,127,-25.2603,0.511169,0,0,0,0,0,0,0,-1,650,897,-25.2603,-0.51117
-567,127,-24.5417,-0.0447388,0,0,0,0,0,0,0,-1,657,897,-24.5417,0.0447226
-560,127,-18.9678,1.21667,0,0,0,0,0,0,0,-1,664,897,-18.9677,-1.2167
-553,127,-65.6822,0.551453,0,0,0,0,0,0,0,-1,671,897,-65.6822,-0.551471
-546,127,-65.6504,0.518799,0.00168582,-7.04863e-05,0.0015661,0.00260317,-0.000987835,0.529878,0.00214204,0.0241858,678,897,-65.6504,-0.518818
-539,127,-65.6112,0.496216,0.0015032,0.000134575,0.00108894,0.00210499,-0.000467221,0.504871,0.00158223,0.0206962,685,897,-65.6112,-0.49619
-532,127,-65.567,0.534912,0.0023493,-4.67423e-06,0.000517572,0.00245808,-0.000113448,0.207146,0.00167781,0.0171245,692,897,-65.567,-0.534924
-525,127,-65.5798,0.601135,0.00267815,-1.39151e-06,0.000123479,0.00268383,-7.06955e-06,0.0459525,0.00179158,0.0343652,699,897,-65.5798,-0.601105
-518,127,-65.5137,0.478516,0.00303777,0.000106656,-5.2091e-05,0.00303869,0.000105731,-0.0177643,0.00199149,0.0439308,706,897,-65.5137,-0.478503
-511,127,-65.3477,0.403809,0.00401335,0.000617762,0.000191217,0.00402408,0.000607028,0.0560772,0.00250501,0.044071,713,897,-65.3477,-0.403794
-504,127,0,0,0,0,0,0,0,0,0,-1,720,897,0,0
-497,127,0,0,0,0,0,0,0,0,0,-1,727,897,0,0
-490,127,0,0,0,0,0,0,0,0,0,-1,734,897,0,0
-483,127,0,0,0,0,0,0,0,0,0,-1,741,897,0,0
-476,127,0,0,0,0,0,0,0,0,0,-1,748,897,0,0
-469,127,0,0,0,0,0,0,0,0,0,-1,755,897,0,0
-462,127,0,0,0,0,0,0,0,0,0,-1,762,897,0,0
-455,127,0,0,0,0,0,0,0,0,0,-1,769,897,0,0
-448,127,0,0,0,0,0,0,0,0,0,-1,776,897,0,0
-441,127,0,0,0,0,0,0,0,0,0,-1,783,897,0,0
-434,127,0,0,0,0,0,0,0,0,0,-1,790,897,0,0
-427,127,0,0,0,0,0,0,0,0,0,-1,797,897,0,0
-420,127,0,0,0,0,0,0,0,0,0,-1,804,897,0,0
-413,127,0,0,0,0,0,0,0,0,0,-1,811,897,0,0
-406,127,0,0,0,0,0,0,0,0,0,-1,818,897,0,0
-399,127,0,0,0,0,0,0,0,0,0,-1,825,897,0,0
-392,127,0,0,0,0,0,0,0,0,0,-1,832,897,0,0
-385,127,0,0,0,0,0,0,0,0,0,-1,839,897,0,0
-378,127,0,0,0,0,0,0,0,0,0,-1,846,897,0,0
-371,127,0,0,0,0,0,0,0,0,0,-1,853,897,0,0
-364,127,0,0,0,0,0,0,0,0,0,-1,860,897,0,0
-357,127,0,0,0,0,0,0,0,0,0,-1,867,897,0,0
-350,127,0,0,0,0,0,0,0,0,0,-1,874,897,0,0
-343,127,0,0,0,0,0,0,0,0,0,-1,881,897,0,0
-336,127,0,0,0,0,0,0,0,0,0,-1,888,897,0,0
-329,127,0,0,0,0,0,0,0,0,0,-1,895,897,0,0
-322,127,0,0,0,0,0,0,0,0,0,-1,902,897,0,0
-315,127,0,0,0,0,0,0,0,0,0,-1,909,897,0,0
-308,127,0,0,0,0,0,0,0,0,0,-1,916,897,0,0
-301,127,0,0,0,0,0,0,0,0,0,-1,923,897,0,0
-294,127,0,0,0,0,0,0,0,0,0,-1,930,897,0,0
-287,127,0,0,0,0,0,0,0,0,0,-1,937,897,0,0
-280,127,0,0,0,0,0,0,0,0,0,-1,944,897,0,0
-273,127,0,0,0,0,0,0,0,0,0,-1,951,897,0,0
-266,127,0,0,0,0,0,0,0,0,0,-1,958,897,0,0
-259,127,0,0,0,0,0,0,0,0,0,-1,965,897,0,0
-252,127,0,0,0,0,0,0,0,0,0,-1,972,897,0,0
-245,127,0,0,0,0,0,0,0,0,0,-1,979,897,0,0
-238,127,0,0,0,0,0,0,0,0,0,-1,986,897,0,0
-231,127,0,0,0,0,0,0,0,0,0,-1,993,897,0,0
-224,127,0,0,0,0,0,0,0,0,0,-1,1000,897,0,0
-217,127,0,0,0,0,0,0,0,0,0,-1,1007,897,0,0
-210,127,0,0,0,0,0,0,0,0,0,-1,1014,897,0,0
-203,127,0,0,0,0,0,0,0,0,0,-1,1021,897,0,0
-196,127,0,0,0,0,0,0,0,0,0,-1,1028,897,0,0
-189,127,0,0,0,0,0,0,0,0,0,-1,1035,897,0,0
-182,127,0,0,0,0,0,0,0,0,0,-1,1042,897,0,0
-175,127,0,0,0,0,0,0,0,0,0,-1,1049,897,0,0
-168,127,0,0,0,0,0,0,0,0,0,-1,1056,897,0,0
-161,127,0,0,0,0,0,0,0,0,0,-1,1063,897,0,0
-154,127,0,0,0,0,0,0,0,0,0,-1,1070,897,0,0
-147,127,0,0,0,0,0,0,0,0,0,-1,1077,897,0,0
-140,127,0,0,0,0,0,0,0,0,0,-1,1084,897,0,0
-133,127,0,0,0,0,0,0,0,0,0,-1,1091,897,0,0
-126,127,0,0,0,0,0,0,0,0,0,-1,1098,897,0,0
-119,127,0,0,0,0,0,0,0,0,0,-1,1105,897,0,0
-112,127,0,0,0,0,0,0,0,0,0,-1,1112,897,0,0
-105,127,0,0,0,0,0,0,0,0,0,-1,1119,897,0,0
-98,127,0,0,0,0,0,0,0,0,0,-1,1126,897,0,0
-91,127,0,0,0,0,0,0,0,0,0,-1,1133,897,0,0
-84,127,0,0,0,0,0,0,0,0,0,-1,1140,897,0,0
-77,127,0,0,0,0,0,0,0,0,0,-1,1147,897,0,0
-70,127,0,0,0,0,0,0,0,0,0,-1,1154,897,0,0
-63,127,0,0,0,0,0,0,0,0,0,-1,1161,897,0,0
-56,127,0,0,0,0,0,0,0,0,0,-1,1168,897,0,0
-49,127,0,0,0,0,0,0,0,0,0,-1,1175,897,0,0
-42,127,0,0,0,0,0,0,0,0,0,-1,1182,897,0,0
-35,127,0,0,0,0,0,0,0,0,0,-1,1189,897,0,0
-28,127,0,0,0,0,0,0,0,0,0,-1,1196,897,0,0
-21,127,0,0,0,0,0,0,0,0,0,-1,1203,897,0,0
-14,127,0,0,0,0,0,0,0,0,0,-1,1210,897,0,0
-7,127,0,0,0,0,0,0,0,0,0,-1,1217,897,0,0
0,127,0,0,0,0,0,0,0,0,0,-1,1224,897,0,0
7,127,0,0,0,0,0,0,0,0,0,-1,1231,897,0,0
14,127,0,0,0,0,0,0,0,0,0,-1,1238,897,0,0
21,127,0,0,0,0,0,0,0,0,0,-1,1245,897,0,0
28,127,0,0,0,0,0,0,0,0,0,-1,1252,897,0,0
35,127,0,0,0,0,0,0,0,0,0,-1,1259,897,0,0
42,127,0,0,0,0,0,0,0,0,0,-1,1266,897,0,0
49,127,0,0,0,0,0,0,0,0,0,-1,1273,897,0,0
56,127,0,0,0,0,0,0,0,0,0,-1,1280,897,0,0
63,127,0,0,0,0,0,0,0,0,0,-1,1287,897,0,0
70,127,0,0,0,0,0,0,0,0,0,-1,1294,897,0,0
77,127,0,0,0,0,0,0,0,0,0,-1,1301,897,0,0
84,127,0,0,0,0,0,0,0,0,0,-1,1308,897,0,0
91,127,0,0,0,0,0,0,0,0,0,-1,1315,897,0,0
98,127,0,0,0,0,0,0,0,0,0,-1,1322,897,0,0
105,127,0,0,0,0,0,0,0,0,0,-1,1329,897,0,0
112,127,0,0,0,0,0,0,0,0,0,-1,1336,897,0,0
119,127,0,0,0,0,0,0,0,0,0,-1,1343,897,0,0
126,127,0,0,0,0,0,0,0,0,0,-1,1350,897,0,0
133,127,0,0,0,0,0,0,0,0,0,-1,1357,897,0,0
140,127,0,0,0,0,0,0,0,0,0,-1,1364,897,0,0
147,127,0,0,0,0,0,0,0,0,0,-1,1371,897,0,0
154,127,0,0,0,0,0,0,0,0,0,-1,1378,897,0,0
161,127,0,0,0,0,0,0,0,0,0,-1,1385,897,0,0
168,127,0,0,0,0,0,0,0,0,0,-1,1392,897,0,0
175,127,0,0,0,0,0,0,0,0,0,-1,1399,897,0,0
182,127,0,0,0,0,0,0,0,0,0,-1,1406,897,0,0
189,127,0,0,0,0,0,0,0,0,0,-1,1413,897,0,0
196,127,0,0,0,0,0,0,0,0,0,-1,1420,897,0,0
203,127,0,0,0,0,0,0,0,0,0,-1,1427,897,0,0
210,127,0,0,0,0,0,0,0,0,0,-1,1434,897,0,0
217,127,0,0,0,0,0,0,0,0,0,-1,1441,897,0,0
224,127,0,0,0,0,0,0,0,0,0,-1,1448,897,0,0
231,127,0,0,0,0,0,0,0,0,0,-1,1455,897,0,0
238,127,0,0,0,0,0,0,0,0,0,-1,1462,897,0,0
245,127,0,0,0,0,0,0,0,0,0,-1,1469,897,0,0
252,127,0,0,0,0,0,0,0,0,0,-1,1476,897,0,0
259,127,0,0,0,0,0,0,0,0,0,-1,1483,897,0,0
266,127,0,0,0,0,0,0,0,0,0,-1,1490,897,0,0
273,127,0,0,0,0,0,0,0,0,0,-1,1497,897,0,0
280,127,0,0,0,0,0,0,0,0,0,-1,1504,897,0,0
287,127,0,0,0,0,0,0,0,0,0,-1,1511,897,0,0
294,127,0,0,0,0,0,0,0,0,0,-1,1518,897,0,0
301,127,0,0,0,0,0,0,0,0,0,-1,1525,897,0,0
308,127,0,0,0,0,0,0,0,0,0,-1,1532,897,0,0
315,127,0,0,0,0,0,0,0,0,0,-1,1539,897,0,0
322,127,0,0,0,0,0,0,0,0,0,-1,1546,897,0,0
329,127,0,0,0,0,0,0,0,0,0,-1,1553,897,0,0
336,127,0,0,0,0,0,0,0,0,0,-1,1560,897,0,0
343,127,0,0,0,0,0,0,0,0,0,-1,1567,897,0,0
350,127,0,0,0,0,0,0,0,0,0,-1,1574,897,0,0
357,127,0,0,0,0,0,0,0,0,0,-1,1581,897,0,0
364,127,0,0,0,0,0,0,0,0,0,-1,1588,897,0,0
371,127,0,0,0,0,0,0,0,0,0,-1,1595,897,0,0
378,127,0,0,0,0,0,0,0,0,0,-1,1602,897,0,0
385,127,0,0,0,0,0,0,0,0,0,-1,1609,897,0,0
392,127,0,0,0,0,0,0,0,0,0,-1,1616,897,0,0
399,127,0,0,0,0,0,0,0,0,0,-1,1623,897,0,0
406,127,0,0,0,0,0,0,0,0,0,-1,1630,897,0,0
413,127,0,0,0,0,0,0,0,0,0,-1,1637,897,0,0
420,127,0,0,0,0,0,0,0,0,0,-1,1644,897,0,0
427,127,0,0,0,0,0,0,0,0,0,-1,1651,897,0,0
434,127,0,0,0,0,0,0,0,0,0,-1,1658,897,0,0
441,127,0,0,0,0,0,0,0,0,0,-1,1665,897,0,0
448,127,0,0,0,0,0,0,0,0,0,-1,1672,897,0,0
455,127,0,0,0,0,0,0,0,0,0,-1,1679,897,0,0
462,127,0,0,0,0,0,0,0,0,0,-1,1686,897,0,0
469,127,0,0,0,0,0,0,0,0,0,-1,1693,897,0,0
476,127,0,0,0,0,0,0,0,0,0,-1,1700,897,0,0
483,127,0,0,0,0,0,0,0,0,0,-1,1707,897,0,0
490,127,0,0,0,0,0,0,0,0,0,-1,1714,897,0,0
497,127,0,0,0,0,0,0,0,0,0,-1,1721,897,0,0
504,127,0,0,0,0,0,0,0,0,0,-1,1728,897,0,0
511,127,0,0,0,0,0,0,0,0,0,-1,1735,897,0,0
518,127,0,0,0,0,0,0,0,0,0,-1,1742,897,0,0
525,127,0,0,0,0,0,0,0,0,0,-1,1749,897,0,0
532,127,0,0,0,0,0,0,0,0,0,-1,1756,897,0,0
539,127,0,0,0,0,0,0,0,0,0,-1,1763,897,0,0
546,127,0,0,0,0,0,0,0,0,0,-1,1770,897,0,0
553,127,0,0,0,0,0,0,0,0,0,-1,1777,897,0,0
560,127,0,0,0,0,0,0,0,0,0,-1,1784,897,0,0
567,127,0,0,0,0,0,0,0,0,0,-1,1791,897,0,0
574,127,0,0,0,0,0,0,0,0,0,-1,1798,897,0,0
581,127,0,0,0,0,0,0,0,0,0,-1,1805,897,0,0
588,127,0,0,0,0,0,0,0,0,0,-1,1812,897,0,0
595,127,0,0,0,0,0,0,0,0,0,-1,1819,897,0,0
602,127,0,0,0,0,0,0,0,0,0,-1,1826,897,0,0
609,127,0,0,0,0,0,0,0,0,0,-1,1833,897,0,0
616,127,0,0,0,0,0,0,0,0,0,-1,1840,897,0,0
623,127,0,0,0,0,0,0,0,0,0,-1,1847,897,0,0
630,127,82.2655,2.70929,0.0106063,0.000543564,-0.0033544,0.011622,-0.000472105,-0.294012,0.00791004,0.0434366,1854,897,82.2655,-2.70927
637,127,82.3899,2.49652,0.00725521,0.0016829,-0.0028336,0.00844296,0.000495146,-0.39692,0.00547106,0.0398974,1861,897,82.3899,-2.49652
644,127,82.4537,2.49017,0.00431484,0.00236743,-0.00217664,0.00572565,0.000956629,-0.575077,0.00354155,0.0374712,1868,897,82.4537,-2.49015
651,127,82.3096,2.48132,0.00190542,0.00267623,-0.0014772,0.00381748,0.000764178,-0.913006,0.00233237,0.0398484,1875,897,82.3096,-2.48135
658,127,82.1892,2.38617,-0.000125734,0.00270497,-0.00093711,0.00298709,-0.000407849,-1.27838,0.00214033,0.0401245,1882,897,82.1892,-2.38618
665,127,82.1609,2.30042,-0.00130669,0.00313369,-0.000876164,0.00330032,-0.00147332,-1.38286,0.00282255,0.0361648,1889,897,82.1609,-2.30042
672,127,82.172,2.2511,-0.00179466,0.00284213,-0.00109208,0.00308647,-0.00203899,-1.35069,0.00297971,0.0324832,1896,897,82.172,-2.25113
679,127,82.2242,2.2912,-0.00195267,0.00253649,-0.00139069,0.0029324,-0.00234857,-1.29345,0.00305517,0.0269856,1903,897,82.2243,-2.29118
686,127,82.2019,2.42041,0,0,0,0,0,0,0,-1,1910,897,82.2019,-2.42043
693,127,59.2523,2.33673,0,0,0,0,0,0,0,-1,1917,897,59.2524,-2.33674
700,127,58.717,1.80957,0,0,0,0,0,0,0,-1,1924,897,58.717,-1.80956
707,127,72.5381,2.31226,0,0,0,0,0,0,0,-1,1931,897,72.5381,-2.31226
714,127,73.3201,3.91168,-0.00270062,0.0027075,-0.00286211,0.0039409,-0.00393403,-1.1639,0.00454659,0.0305083,1938,897,73.3201,-3.91167
721,127,73.2887,4.96399,-0.00267107,0.00305472,-0.00342744,0.00465764,-0.00427399,-1.13334,0.00515826,0.0298159,1945,897,73.2887,-4.96397
728,127,73.1139,5.79333,-0.00311099,0.00369393,-0.00377382,0.00537266,-0.00478972,-1.15225,0.00587047,0.0276421,1952,897,73.1139,-5.79331
735,127,73.0271,6.73602,-0.0035803,0.0047538,-0.00367346,0.00614181,-0.0049683,-1.20953,0.00642634,0.0221384,1959,897,73.027,-6.736
742,127,72.9368,7.59839,-0.0039419,0.00695907,-0.00293236,0.00769781,-0.00468064,-1.324,0.00721712,0.0200832,1966,897,72.9367,-7.59838
749,127,72.8629,8.37714,-0.00419389,0.0101215,-0.00120921,0.0102229,-0.00429532,-1.48712,0.00861182,0.0138717,1973,897,72.8629,-8.37715
756,127,72.7634,9.13489,-0.004343,0.014032,0.00154285,0.0141606,-0.00447164,1.48761,0.0112317,0.0165926,1980,897,72.7634,-9.13488
763,127,72.6453,9.88721,-0.00460944,0.0183279,0.00532408,0.0195034,-0.00578499,1.35348,0.0152996,0.0269907,1987,897,72.6453,-9.88721
770,127,72.606,10.6173,0,0,0,0,0,0,0,-1,1994,897,72.6059,-10.6173
777,127,76.3003,10.8735,0,0,0,0,0,0,0,-1,2001,897,76.3003,-10.8735
784,127,76.6069,11.9427,0,0,0,0,0,0,0,-1,2008,897,76.6069,-11.9427
791,127,76.7629,12.9143,0,0,0,0,0,0,0,-1,2015,897,76.763,-12.9143
798,127,0,0,0,0,0,0,0,0,0,-1,2022,897,0,0
805,127,0,0,0,0,0,0,0,0,0,-1,2029,897,0,0
812,127,0,0,0,0,0,0,0,0,0,-1,2036,897,0,0
-700,120,0,0,0,0,0,0,0,0,0,-1,524,904,0,0
-693,120,0,0,0,0,0,0,0,0,0,-1,531,904,0,0
-686,120,0,0,0,0,0,0,0,0,0,-1,538,904,0,0
-679,120,-52.0888,4.76025,0,0,0,0,0,0,0,-1,545,904,-52.0888,-4.76024
-672,120,-51.1454,5.42755,0,0,0,0,0,0,0,-1,552,904,-51.1454,-5.42753
-665,120,-50.2376,-2.67987,0,0,0,0,0,0,0,-1,559,904,-50.2376,2.67988
-658,120,-54.6443,7.5307,0,0,0,0,0,0,0,-1,566,904,-54.6443,-7.53071
-651,120,-52.9452,-1.22644,0,0,0,0,0,0,0,-1,573,904,-52.9452,1.22647
-644,120,-51.6526,-3.15863,0,0,0,0,0,0,0,-1,580,904,-51.6526,3.15864
-637,120,-57.213,10.0184,0,0,0,0,0,0,0,-1,587,904,-57.213,-10.0184
-630,120,-57.3012,9.38959,-0.0153221,0.0154612,0.00948902,0.0181511,-0.0180121,1.29456,0.0208789,0.0469183,594,904,-57.3012,-9.38957
-623,120,-57.4673,8.66583,-0.011083,0.0118362,0.00767153,0.014167,-0.0134137,1.27584,0.0159257,0.016578,601,904,-57.4673,-8.66583
-616,120,-57.549,7.87573,-0.00720561,0.00824377,0.00621569,0.010434,-0.00939584,1.23201,0.011454,0.0123066,608,904,-57.549,-7.87573
-609,120,-57.6058,7.05286,-0.00421103,0.00511351,0.00508857,0.00735272,-0.00645023,1.15625,0.00797481,0.015631,615,904,-57.6059,-7.05283
-602,120,-57.647,6.22717,-0.00279942,0.00290471,0.0042031,0.00513205,-0.00502675,1.08349,0.00586529,0.0187778,622,904,-57.647,-6.22719
-595,120,-57.5549,5.41699,-0.00188468,0.00191354,0.00355539,0.00404524,-0.00401638,1.03069,0.00465439,0.0370709,629,904,-57.5549,-5.41697
-588,120,-57.2884,4.65198,0,0,0,0,0,0,0,-1,636,904,-57.2884,-4.65196
-581,120,-57.7145,3.992,0,0,0,0,0,0,0,-1,643,904,-57.7145,-3.99201
-574,120,-27.5438,0.505066,0,0,0,0,0,0,0,-1,650,904,-27.5438,-0.505085
-567,120,-25.2822,-0.410645,0,0,0,0,0,0,0,-1,657,904,-25.2821,0.410629
-560,120,-27.3358,1.10327,0,0,0,0,0,0,0,-1,664,904,-27.3358,-1.10324
-553,120,-65.6561,0.549377,0,0,0,0,0,0,0,-1,671,904,-65.6561,-0.549361
-546,120,-65.64,0.535217,0.00111323,-0.000601867,0.00105933,0.0016186,-0.00110724,0.445138,0.00158297,0.0321794,678,904,-65.64,-0.535248
-539,120,-65.5909,0.538879,0.000951102,-0.000378271,0.000581796,0.00116976,-0.000596928,0.359498,0.00103771,0.0258068,685,904,-65.5909,-0.538907
-532,120,-65.5049,0.525146,0.00194527,-0.000500549,0.000275777,0.00197598,-0.000531259,0.1109,0.00152556,0.0272044,692,904,-65.5049,-0.525117
-525,120,-65.5245,0.632813,0.00247624,-0.00078304,0.000110443,0.00247998,-0.000786778,0.0338339,0.0019687,0.0362716,699,904,-65.5245,-0.632825
-518,120,-65.5768,0.634827,0.00290851,-0.00113436,4.95918e-06,0.00290852,-0.00113437,0.00122664,0.00240791,0.0418369,706,904,-65.5769,-0.634853
-511,120,-65.4672,0.58551,0.0034707,-0.00145757,1.53623e-05,0.00347075,-0.00145762,0.00311714,0.00292345,0.0401288,713,904,-65.4672,-0.58549
-504,120,0,0,0,0,0,0,0,0,0,-1,720,904,0,0
-497,120,0,0,0,0,0,0,0,0,0,-1,727,904,0,0
-490,120,0,0,0,0,0,0,0,0,0,-1,734,904,0,0
-483,120,0,0,0,0,0,0,0,0,0,-1,741,904,0,0
-476,120,0,0,0,0,0,0,0,0,0,-1,748,904,0,0
-469,120,0,0,0,0,0,0,0,0,0,-1,755,904,0,0
-462,120,0,0,0,0,0,0,0,0,0,-1,762,904,0,0
-455,120,0,0,0,0,0,0,0,0,0,-1,769,904,0,0
-448,120,0,0,0,0,0,0,0,0,0,-1,776,904,0,0
-441,120,0,0,0,0,0,0,0,0,0,-1,783,904,0,0
-434,120,0,0,0,0,0,0,0,0,0,-1,790,904,0,0
-427,120,0,0,0,0,0,0,0,0,0,-1,797,904,0,0
-420,120,0,0,0,0,0,0,0,0,0,-1,804,904,0,0
-413,120,0,0,0,0,0,0,0,0,0,-1,811,904,0,0
-406,120,0,0,0,0,0,0,0,0,0,-1,818,904,0,0
-399,120,0,0,0,0,0,0,0,0,0,-1,825,904,0,0
-392,120,0,0,0,0,0,0,0,0,0,-1,832,904,0,0
-385,120,0,0,0,0,0,0,0,0,0,-1,839,904,0,0
-378,120,0,0,0,0,0,0,0,0,0,-1,846,904,0,0
-371,120,0,0,0,0,0,0,0,0,0,-1,853,904,0,0
-364,120,0,0,0,0,0,0,0,0,0,-1,860,904,0,0
-357,120,0,0,0,0,0,0,0,0,0,-1,867,904,0,0
-350,120,0,0,0,0,0,0,0,0,0,-1,874,904,0,0
-343,120,0,0,0,0,0,0,0,0,0,-1,881,904,0,0
-336,120,0,0,0,0,0,0,0,0,0,-1,888,904,0,0
-329,120,0,0,0,0,0,0,0,0,0,-1,895,904,0,0
-322,120,0,0,0,0,0,0,0,0,0,-1,902,904,0,0
-315,120,0,0,0,0,0,0,0,0,0,-1,909,904,0,0
-308,120,0,0,0,0,0,0,0,0,0,-1,916,904,0,0
-301,120,0,0,0,0,0,0,0,0,0,-1,923,904,0,0
-294,120,0,0,0,0,0,0,0,0,0,-1,930,904,0,0
-287,120,0,0,0,0,0,0,0,0,0,-1,937,904,0,0
-280,120,0,0,0,0,0,0,0,0,0,-1,944,904,0,0
-273,120,0,0,0,0,0,0,0,0,0,-1,951,904,0,0
-266,120,0,0,0,0,0,0,0,0,0,-1,958,904,0,0
-259,120,0,0,0,0,0,0,0,0,0,-1,965,904,0,0
-252,120,0,0,0,0,0,0,0,0,0,-1,972,904,0,0
-245,120,0,0,0,0,0,0,0,0,0,-1,979,904,0,0
-238,120,0,0,0,0,0,0,0,0,0,-1,986,904,0,0
-231,120,0,0,0,0,0,0,0,0,0,-1,993,904,0,0
-224,120,0,0,0,0,0,0,0,0,0,-1,1000,904,0,0
-217,120,0,0,0,0,0,0,0,0,0,-1,1007,904,0,0
-210,120,0,0,0,0,0,0,0,0,0,-1,1014,904,0,0
-203,120,0,0,0,0,0,0,0,0,0,-1,1021,904,0,0
-196,120,0,0,0,0,0,0,0,0,0,-1,1028,904,0,0
-189,120,0,0,0,0,0,0,0,0,0,-1,1035,904,0,0
-182,120,0,0,0,0,0,0,0,0,0,-1,1042,904,0,0
-175,120,0,0,0,0,0,0,0,0,0,-1,1049,904,0,0
-168,120,0,0,0,0,0,0,0,0,0,-1,1056,904,0,0
-161,120,0,0,0,0,0,0,0,0,0,-1,1063,904,0,0
-154,120,0,0,0,0,0,0,0,0,0,-1,1070,904,0,0
-147,120,0,0,0,0,0,0,0,0,0,-1,1077,904,0,0
-140,120,0,0,0,0,0,0,0,0,0,-1,1084,904,0,0
-133,120,0,0,0,0,0,0,0,0,0,-1,1091,904,0,0
-126,120,0,0,0,0,0,0,0,0,0,-1,1098,904,0,0
-119,120,0,0,0,0,0,0,0,0,0,-1,1105,904,0,0
-112,120,0,0,0,0,0,0,0,0,0,-1,1112,904,0,0
-105,120,0,0,0,0,0,0,0,0,0,-1,1119,904,0,0
-98,120,0,0,0,0,0,0,0,0,0,-1,1126,904,0,0
-91,120,0,0,0,0,0,0,0,0,0,-1,1133,904,0,0
-84,120,0,0,0,0,0,0,0,0,0,-1,1140,904,0,0
-77,120,0,0,0,0,0,0,0,0,0,-1,1147,904,0,0
-70,120,0,0,0,0,0,0,0,0,0,-1,1154,904,0,0
-63,120,0,0,0,0,0,0,0,0,0,-1,1161,904,0,0
-56,120,0,0,0,0,0,0,0,0,0,-1,1168,904,0,0
-49,120,0,0,0,0,0,0,0,0,0,-1,1175,904,0,0
-42,120,0,0,0,0,0,0,0,0,0,-1,1182,904,0,0
-35,120,0,0,0,0,0,0,0,0,0,-1,1189,904,0,0
-28,120,0,0,0,0,0,0,0,0,0,-1,1196,904,0,0
-21,120,0,0,0,0,0,0,0,0,0,-1,1203,904,0,0
-14,120,0,0,0,0,0,0,0,0,0,-1,1210,904,0,0
-7,120,0,0,0,0,0,0,0,0,0,-1,1217,904,0,0
0,120,0,0,0,0,0,0,0,0,0,-1,1224,904,0,0
7,120,0,0,0,0,0,0,0,0,0,-1,1231,904,0,0
14,120,0,0,0,0,0,0,0,0,0,-1,1238,904,0,0
21,120,0,0,0,0,0,0,0,0,0,-1,1245,904,0,0
28,120,0,0,0,0,0,0,0,0,0,-1,1252,904,0,0
35,120,0,0,0,0,0,0,0,0,0,-1,1259,904,0,0
42,120,0,0,0,0,0,0,0,0,0,-1,1266,904,0,0
49,120,0,0,0,0,0,0,0,0,0,-1,1273,904,0,0
56,120,0,0,0,0,0,0,0,0,0,-1,1280,904,0,0
63,120,0,0,0,0,0,0,0,0,0,-1,1287,904,0,0
70,120,0,0,0,0,0,0,0,0,0,-1,1294,904,0,0
77,120,0,0,0,0,0,0,0,0,0,-1,1301,904,0,0
84,120,0,0,0,0,0,0,0,0,0,-1,1308,904,0,0
91,120,0,0,0,0,0,0,0,0,0,-1,1315,904,0,0
98,120,0,0,0,0,0,0,0,0,0,-1,1322,904,0,0
105,120,0,0,0,0,0,0,0,0,0,-1,1329,904,0,0
112,120,0,0,0,0,0,0,0,0,0,-1,1336,904,0,0
119,120,0,0,0,0,0,0,0,0,0,-1,1343,904,0,0
126,120,0,0,0,0,0,0,0,0,0,-1,1350,904,0,0
133,120,0,0,0,0,0,0,0,0,0,-1,1357,904,0,0
140,120,0,0,0,0,0,0,0,0,0,-1,1364,904,0,0
147,120,0,0,0,0,0,0,0,0,0,-1,1371,904,0,0
154,120,0,0,0,0,0,0,0,0,0,-1,1378,904,0,0
161,120,0,0,0,0,0,0,0,0,0,-1,1385,904,0,0
168,120,0,0,0,0,0,0,0,0,0,-1,1392,904,0,0
175,120,0,0,0,0,0,0,0,0,0,-1,1399,904,0,0
182,120,0,0,0,0,0,0,0,0,0,-1,1406,904,0,0
189,120,0,0,0,0,0,0,0,0,0,-1,1413,904,0,0
196,120,0,0,0,0,0,0,0,0,0,-1,1420,904,0,0
203,120,0,0,0,0,0,0,0,0,0,-1,1427,904,0,0
210,120,0,0,0,0,0,0,0,0,0,-1,1434,904,0,0
217,120,0,0,0,0,0,0,0,0,0,-1,1441,904,0,0
224,120,0,0,0,0,0,0,0,0,0,-1,1448,904,0,0
231,120,0,0,0,0,0,0,0,0,0,-1,1455,904,0,0
238,120,0,0,0,0,0,0,0,0,0,-1,1462,904,0,0
245,120,0,0,0,0,0,0,0,0,0,-1,1469,904,0,0
252,120,0,0,0,0,0,0,0,0,0,-1,1476,904,0,0
259,120,0,0,0,0,0,0,0,0,0,-1,1483,904,0,0
266,120,0,0,0,0,0,0,0,0,0,-1,1490,904,0,0
273,120,0,0,0,0,0,0,0,0,0,-1,1497,904,0,0
280,120,0,0,0,0,0,0,0,0,0,-1,1504,904,0,0
287,120,0,0,0,0,0,0,0,0,0,-1,1511,904,0,0
294,120,0,0,0,0,0,0,0,0,0,-1,1518,904,0,0
301,120,0,0,0,0,0,0,0,0,0,-1,1525,904,0,0
308,120,0,0,0,0,0,0,0,0,0,-1,1532,904,0,0
315,120,0,0,0,0,0,0,0,0,0,-1,1539,904,0,0
322,120,0,0,0,0,0,0,0,0,0,-1,1546,904,0,0
329,120,0,0,0,0,0,0,0,0,0,-1,1553,904,0,0
336,120,0,0,0,0,0,0,0,0,0,-1,1560,904,0,0
343,120,0,0,0,0,0,0,0,0,0,-1,1567,904,0,0
350,120,0,0,0,0,0,0,0,0,0,-1,1574,904,0,0
357,120,0,0,0,0,0,0,0,0,0,-1,1581,904,0,0
364,120,0,0,0,0,0,0,0,0,0,-1,1588,904,0,0
371,120,0,0,0,0,0,0,0,0,0,-1,1595,904,0,0
378,120,0,0,0,0,0,0,0,0,0,-1,1602,904,0,0
385,120,0,0,0,0,0,0,0,0,0,-1,1609,904,0,0
392,120,0,0,0,0,0,0,0,0,0,-1,1616,904,0,0
399,120,0,0,0,0,0,0,0,0,0,-1,1623,904,0,0
406,120,0,0,0,0,0,0,0,0,0,-1,1630,904,0,0
413,120,0,0,0,0,0,0,0,0,0,-1,1637,904,0,0
420,120,0,0,0,0,0,0,0,0,0,-1,1644,904,0,0
427,120,0,0,0,0,0,0,0,0,0,-1,1651,904,0,0
434,120,0,0,0,0,0,0,0,0,0,-1,1658,904,0,0
441,120,0,0,0,0,0,0,0,0,0,-1,1665,904,0,0
448,120,0,0,0,0,0,0,0,0,0,-1,1672,904,0,0
455,120,0,0,0,0,0,0,0,0,0,-1,1679,904,0,0
462,120,0,0,0,0,0,0,0,0,0,-1,1686,904,0,0
469,120,0,0,0,0,0,0,0,0,0,-1,1693,904,0,0
476,120,0,0,0,0,0,0,0,0,0,-1,1700,904,0,0
483,120,0,0,0,0,0,0,0,0,0,-1,1707,904,0,0
490,120,0,0,0,0,0,0,0,0,0,-1,1714,904,0,0
497,120,0,0,0,0,0,0,0,0,0,-1,1721,904,0,0
504,120,0,0,0,0,0,0,0,0,0,-1,1728,904,0,0
511,120,0,0,0,0,0,0,0,0,0,-1,1735,904,0,0
518,120,0,0,0,0,0,0,0,0,0,-1,1742,904,0,0
525,120,0,0,0,0,0,0,0,0,0,-1,1749,904,0,0
532,120,0,0,0,0,0,0,0,0,0,-1,1756,904,0,0
539,120,0,0,0,0,0,0,0,0,0,-1,1763,904,0,0
546,120,0,0,0,0,0,0,0,0,0,-1,1770,904,0,0
553,120,0,0,0,0,0,0,0,0,0,-1,1777,904,0,0
560,120,0,0,0,0,0,0,0,0,0,-1,1784,904,0,0
567,120,0,0,0,0,0,0,0,0,0,-1,1791,904,0,0
574,120,0,0,0,0,0,0,0,0,0,-1,1798,904,0,0
581,120,0,0,0,0,0,0,0,0,0,-1,1805,904,0,0
588,120,0,0,0,0,0,0,0,0,0,-1,1812,904,0,0
595,120,0,0,0,0,0,0,0,0,0,-1,1819,904,0,0
602,120,0,0,0,0,0,0,0,0,0,-1,1826,904,0,0
609,120,0,0,0,0,0,0,0,0,0,-1,1833,904,0,0
616,120,0,0,0,0,0,0,0,0,0,-1,1840,904,0,0
623,120,0,0,0,0,0,0,0,0,0,-1,1847,904,0,0
630,120,82.3945,3.14221,0,0,0,0,0,0,0,-1,1854,904,82.3945,-3.1422
637,120,82.702,2.32166,0,0,0,0,0,0,0,-1,1861,904,82.702,-2.32164
644,120,82.4423,2.59418,0,0,0,0,0,0,0,-1,1868,904,82.4423,-2.59416
651,120,82.0564,3.1167,0,0,0,0,0,0,0,-1,1875,904,82.0564,-3.11671
658,120,82.0254,2.85876,0,0,0,0,0,0,0,-1,1882,904,82.0254,-2.85874
665,120,82.1693,2.36597,-0.00100449,0.00329565,-0.000707778,0.00340915,-0.00111799,-1.41179,0.00272304,0.0367843,1889,904,82.1693,-2.36597
672,120,82.2358,2.31122,-0.0016147,0.00298055,-0.000783497,0.00311047,-0.00174461,-1.40648,0.00283982,0.0336666,1896,904,82.2358,-2.31123
679,120,82.2506,2.2674,-0.00185916,0.00258807,-0.00100033,0.00280272,-0.00207381,-1.35942,0.00282593,0.0316281,1903,904,82.2506,-2.26741
686,120,82.1886,2.37482,-0.00207578,0.00246798,-0.00133166,0.00282949,-0.00243729,-1.30571,0.00304359,0.034333,1910,904,82.1886,-2.3748
693,120,82.2861,2.46527,0,0,0,0,0,0,0,-1,1917,904,82.2862,-2.46526
700,120,42.2007,3.00946,0,0,0,0,0,0,0,-1,1924,904,42.2007,-3.00944
707,120,74.0537,3.46405,0,0,0,0,0,0,0,-1,1931,904,74.0537,-3.46404
714,120,74.7174,4.01526,0,0,0,0,0,0,0,-1,1938,904,74.7174,-4.01527
721,120,74.1261,5.22156,-0.003126,0.00302926,-0.00320299,0.00439358,-0.00449033,-1.16812,0.00512923,0.0281221,1945,904,74.1261,-5.22157
728,120,73.9669,6.02332,-0.00368282,0.00368393,-0.00356496,0.00512659,-0.00512547,-1.18627,0.00591903,0.0183484,1952,904,73.9669,-6.02332
735,120,73.8998,6.75928,-0.00432633,0.00470412,-0.00350958,0.00590767,-0.00552988,-1.24043,0.00660468,0.0147288,1959,904,73.8998,-6.75931
742,120,73.809,7.6098,-0.004916,0.00694286,-0.00284917,0.00759187,-0.00556501,-1.34683,0.00762612,0.0155618,1966,904,73.8089,-7.60977
749,120,73.7432,8.37848,-0.00541344,0.0103827,-0.00107448,0.0104555,-0.00548619,-1.50319,0.00935179,0.0124865,1973,904,73.7432,-8.37847
756,120,73.6101,9.13397,-0.00580996,0.0147686,0.00196857,0.0149552,-0.00599658,1.47628,0.0124597,0.0161228,1980,904,73.61,-9.13399
763,120,73.4536,9.85199,-0.00628452,0.0195024,0.00619487,0.0209134,-0.00769553,1.34685,0.0170949,0.0349953,1987,904,73.4537,-9.85198
770,120,73.322,10.5829,0,0,0,0,0,0,0,-1,1994,904,73.322,-10.5829
777,120,77.7629,11.9034,0,0,0,0,0,0,0,-1,2001,904,77.763,-11.9034
784,120,78.0063,12.8853,0,0,0,0,0,0,0,-1,2008,904,78.0063,-12.8852
791,120,78.2561,13.8319,0,0,0,0,0,0,0,-1,2015,904,78.2561,-13.8319
798,120,78.5127,14.8143,0,0,0,0,0,0,0,-1,2022,904,78.5128,-14.8143
805,120,0,0,0,0,0,0,0,0,0,-1,2029,904,0,0
812,120,0,0,0,0,0,0,0,0,0,-1,2036,904,0,0
-700,113,0,0,0,0,0,0,0,0,0,-1,524,911,0,0
-693,113,0,0,0,0,0,0,0,0,0,-1,531,911,0,0
-686,113,0,0,0,0,0,0,0,0,0,-1,538,911,0,0
-679,113,-55.9637,4.78546,0,0,0,0,0,0,0,-1,545,911,-55.9637,-4.78548
-672,113,-52.5881,5.49811,0,0,0,0,0,0,0,-1,552,911,-52.5881,-5.49808
-665,113,-56.8114,7.23682,0,0,0,0,0,0,0,-1,559,911,-56.8114,-7.23679
-658,113,-54.1535,7.58624,0,0,0,0,0,0,0,-1,566,911,-54.1535,-7.58627
-651,113,-53.3762,7.8313,0,0,0,0,0,0,0,-1,573,911,-53.3762,-7.8313
-644,113,-48.5211,7.83691,0,0,0,0,0,0,0,-1,580,911,-48.5211,-7.83694
-637,113,-58.2047,10.2446,0,0,0,0,0,0,0,-1,587,911,-58.2047,-10.2446
-630,113,-58.2613,9.43951,-0.0136362,0.0175366,0.0104401,0.02071,-0.0168096,1.27571,0.0217009,0.0281745,594,911,-58.2613,-9.43953
-623,113,-58.3997,8.66522,-0.00980986,0.0131045,0.00843633,0.0158754,-0.0125808,1.25345,0.0164659,0.0147893,601,911,-58.3997,-8.66524
-616,113,-58.4461,7.87616,-0.00621822,0.00870218,0.00670621,0.0112733,-0.00878936,1.20468,0.0116127,0.0131112,608,911,-58.4461,-7.87614
-609,113,-58.4711,7.12183,-0.00375345,0.00500368,0.00530268,0.0075019,-0.00625168,1.13051,0.00795156,0.0130663,615,911,-58.4711,-7.1218
-602,113,-58.5127,6.26196,-0.00280237,0.00263831,0.00423721,0.00495326,-0.00511732,1.07077,0.00581451,0.0225469,622,911,-58.5127,-6.26195
-595,113,-58.5703,5.58252,-0.00200996,0.00169568,0.00351117,0.0038129,-0.00412718,1.02818,0.0045854,0.0292297,629,911,-58.5703,-5.58253
-588,113,-58.5042,4.68414,0,0,0,0,0,0,0,-1,636,911,-58.5042,-4.68412
-581,113,-58.5559,3.88147,0,0,0,0,0,0,0,-1,643,911,-58.5559,-3.88148
-574,113,-58.5677,2.83691,0,0,0,0,0,0,0,-1,650,911,-58.5678,-2.83692
-567,113,-21.8396,0.437378,0,0,0,0,0,0,0,-1,657,911,-21.8396,-0.437351
-560,113,-65.5599,0.608398,0,0,0,0,0,0,0,-1,664,911,-65.5599,-0.608421
-553,113,-65.5773,0.436707,0.00098241,-0.000893638,0.00120377,0.00157048,-0.00148171,0.454423,0.00176243,0.0455519,671,911,-65.5774,-0.436716
-546,113,-65.6218,0.489075,0.000854261,-0.000867215,0.000791205,0.00116266,-0.00117561,0.371666,0.00135001,0.0338578,678,911,-65.6218,-0.489066
-539,113,-65.4955,0.523804,0.00071792,-0.000534514,0.000393966,0.000831538,-0.000648132,0.280779,0.000856473,0.0353362,685,911,-65.4955,-0.523793
-532,113,-65.4557,0.431702,0.00169414,-0.000399967,0.00038717,0.00176343,-0.000469256,0.177089,0.00135931,0.0366207,692,911,-65.4557,-0.431677
-525,113,-65.493,0.500732,0.00233216,-0.000571589,0.000394827,0.00238489,-0.000624317,0.132761,0.00183381,0.0369147,699,911,-65.493,-0.500728
-518,113,-65.4916,0.805542,0.00281086,-0.000895578,0.0003131,0.00283712,-0.000921841,0.0836845,0.0022622,0.0395854,706,911,-65.4917,-0.805565
-511,113,-65.5519,0.909302,0.00304505,-0.00132193,0.000123821,0.00304856,-0.00132544,0.0283236,0.00258982,0.0401798,713,911,-65.5519,-0.909283
-504,113,0,0,0,0,0,0,0,0,0,-1,720,911,0,0
-497,113,0,0,0,0,0,0,0,0,0,-1,727,911,0,0
-490,113,0,0,0,0,0,0,0,0,0,-1,734,911,0,0
-483,113,0,0,0,0,0,0,0,0,0,-1,741,911,0,0
-476,113,0,0,0,0,0,0,0,0,0,-1,748,911,0,0
-469,113,0,0,0,0,0,0,0,0,0,-1,755,911,0,0
-462,113,0,0,0,0,0,0,0,0,0,-1,762,911,0,0
-455,113,0,0,0,0,0,0,0,0,0,-1,769,911,0,0
-448,113,0,0,0,0,0,0,0,0,0,-1,776,911,0,0
-441,113,0,0,0,0,0,0,0,0,0,-1,783,911,0,0
-434,113,0,0,0,0,0,0,0,0,0,-1,790,911,0,0
-427,113,0,0,0,0,0,0,0,0,0,-1,797,911,0,0
-420,113,0,0,0,0,0,0,0,0,0,-1,804,911,0,0
-413,113,0,0,0,0,0,0,0,0,0,-1,811,911,0,0
-406,113,0,0,0,0,0,0,0,0,0,-1,818,911,0,0
-399,113,0,0,0,0,0,0,0,0,0,-1,825,911,0,0
-392,113,0,0,0,0,0,0,0,0,0,-1,832,911,0,0
-385,113,0,0,0,0,0,0,0,0,0,-1,839,911,0,0
-378,113,0,0,0,0,0,0,0,0,0,-1,846,911,0,0
-371,113,0,0,0,0,0,0,0,0,0,-1,853,911,0,0
-364,113,0,0,0,0,0,0,0,0,0,-1,860,911,0,0
-357,113,0,0,0,0,0,0,0,0,0,-1,867,911,0,0
-350,113,0,0,0,0,0,0,0,0,0,-1,874,911,0,0
-343,113,0,0,0,0,0,0,0,0,0,-1,881,911,0,0
-336,113,0,0,0,0,0,0,0,0,0,-1,888,911,0,0
-329,113,0,0,0,0,0,0,0,0,0,-1,895,911,0,0
-322,113,0,0,0,0,0,0,0,0,0,-1,902,911,0,0
-315,113,0,0,0,0,0,0,0,0,0,-1,909,911,0,0
-308,113,0,0,0,0,0,0,0,0,0,-1,916,911,0,0
-301,113,0,0,0,0,0,0,0,0,0,-1,923,911,0,0
-294,113,0,0,0,0,0,0,0,0,0,-1,930,911,0,0
-287,113,0,0,0,0,0,0,0,0,0,-1,937,911,0,0
-280,113,0,0,0,0,0,0,0,0,0,-1,944,911,0,0
-273,113,0,0,0,0,0,0,0,0,0,-1,951,911,0,0
-266,113,0,0,0,0,0,0,0,0,0,-1,958,911,0,0
-259,113,0,0,0,0,0,0,0,0,0,-1,965,911,0,0
-252,113,0,0,0,0,0,0,0,0,0,-1,972,911,0,0
-245,113,0,0,0,0,0,0,0,0,0,-1,979,911,0,0
-238,113,0,0,0,0,0,0,0,0,0,-1,986,911,0,0
-231,113,0,0,0,0,0,0,0,0,0,-1,993,911,0,0
-224,113,0,0,0,0,0,0,0,0,0,-1,1000,911,0,0
-217,113,0,0,0,0,0,0,0,0,0,-1,1007,911,0,0
-210,113,0,0,0,0,0,0,0,0,0,-1,1014,911,0,0
-203,113,0,0,0,0,0,0,0,0,0,-1,1021,911,0,0
-196,113,0,0,0,0,0,0,0,0,0,-1,1028,911,0,0
-189,113,0,0,0,0,0,0,0,0,0,-1,1035,911,0,0
-182,113,0,0,0,0,0,0,0,0,0,-1,1042,911,0,0
-175,113,0,0,0,0,0,0,0,0,0,-1,1049,911,0,0
-168,113,0,0,0,0,0,0,0,0,0,-1,1056,911,0,0
-161,113,0,0,0,0,0,0,0,0,0,-1,1063,911,0,0
-154,113,0,0,0,0,0,0,0,0,0,-1,1070,911,0,0
-147,113,0,0,0,0,0,0,0,0,0,-1,1077,911,0,0
-140,113,0,0,0,0,0,0,0,0,0,-1,1084,911,0,0
-133,113,0,0,0,0,0,0,0,0,0,-1,1091,911,0,0
-126,113,0,0,0,0,0,0,0,0,0,-1,1098,911,0,0
-119,113,0,0,0,0,0,0,0,0,0,-1,1105,911,0,0
-112,113,0,0,0,0,0,0,0,0,0,-1,1112,911,0,0
-105,113,0,0,0,0,0,0,0,0,0,-1,1119,911,0,0
-98,113,0,0,0,0,0,0,0,0,0,-1,1126,911,0,0
-91,113,0,0,0,0,0,0,0,0,0,-1,1133,911,0,0
-84,113,0,0,0,0,0,0,0,0,0,-1,1140,911,0,0
-77,113,0,0,0,0,0,0,0,0,0,-1,1147,911,0,0
-70,113,0,0,0,0,0,0,0,0,0,-1,1154,911,0,0
-63,113,0,0,0,0,0,0,0,0,0,-1,1161,911,0,0
-56,113,0,0,0,0,0,0,0,0,0,-1,1168,911,0,0
-49,113,0,0,0,0,0,0,0,0,0,-1,1175,911,0,0
-42,113,0,0,0,0,0,0,0,0,0,-1,1182,911,0,0
-35,113,0,0,0,0,0,0,0,0,0,-1,1189,911,0,0
-28,113,0,0,0,0,0,0,0,0,0,-1,1196,911,0,0
-21,113,0,0,0,0,0,0,0,0,0,-1,1203,911,0,0
-14,113,0,0,0,0,0,0,0,0,0,-1,1210,911,0,0
-7,113,0,0,0,0,0,0,0,0,0,-1,1217,911,0,0
0,113,0,0,0,0,0,0,0,0,0,-1,1224,911,0,0
7,113,0,0,0,0,0,0,0,0,0,-1,1231,911,0,0
14,113,0,0,0,0,0,0,0,0,0,-1,1238,911,0,0
21,113,0,0,0,0,0,0,0,0,0,-1,1245,911,0,0
28,113,0,0,0,0,0,0,0,0,0,-1,1252,911,0,0
35,113,0,0,0,0,0,0,0,0,0,-1,1259,911,0,0
42,113,0,0,0,0,0,0,0,0,0,-1,1266,911,0,0
49,113,0,0,0,0,0,0,0,0,0,-1,1273,911,0,0
56,113,0,0,0,0,0,0,0,0,0,-1,1280,911,0,0
63,113,0,0,0,0,0,0,0,0,0,-1,1287,911,0,0
70,113,0,0,0,0,0,0,0,0,0,-1,1294,911,0,0
77,113,0,0,0,0,0,0,0,0,0,-1,1301,911,0,0
84,113,0,0,0,0,0,0,0,0,0,-1,1308,911,0,0
91,113,0,0,0,0,0,0,0,0,0,-1,1315,911,0,0
98,113,0,0,0,0,0,0,0,0,0,-1,1322,911,0,0
105,113,0,0,0,0,0,0,0,0,0,-1,1329,911,0,0
112,113,0,0,0,0,0,0,0,0,0,-1,1336,911,0,0
119,113,0,0,0,0,0,0,0,0,0,-1,1343,911,0,0
126,113,0,0,0,0,0,0,0,0,0,-1,1350,911,0,0
133,113,0,0,0,0,0,0,0,0,0,-1,1357,911,0,0
140,113,0,0,0,0,0,0,0,0,0,-1,1364,911,0,0
147,113,0,0,0,0,0,0,0,0,0,-1,1371,911,0,0
154,113,0,0,0,0,0,0,0,0,0,-1,1378,911,0,0
161,113,0,0,0,0,0,0,0,0,0,-1,1385,911,0,0
168,113,0,0,0,0,0,0,0,0,0,-1,1392,911,0,0
175,113,0,0,0,0,0,0,0,0,0,-1,1399,911,0,0
182,113,0,0,0,0,0,0,0,0,0,-1,1406,911,0,0
189,113,0,0,0,0,0,0,0,0,0,-1,1413,911,0,0
196,113,0,0,0,0,0,0,0,0,0,-1,1420,911,0,0
203,113,0,0,0,0,0,0,0,0,0,-1,1427,911,0,0
210,113,0,0,0,0,0,0,0,0,0,-1,1434,911,0,0
217,113,0,0,0,0,0,0,0,0,0,-1,1441,911,0,0
224,113,0,0,0,0,0,0,0,0,0,-1,1448,911,0,0
231,113,0,0,0,0,0,0,0,0,0,-1,1455,911,0,0
238,113,0,0,0,0,0,0,0,0,0,-1,1462,911,0,0
245,113,0,0,0,0,0,0,0,0,0,-1,1469,911,0,0
252,113,0,0,0,0,0,0,0,0,0,-1,1476,911,0,0
259,113,0,0,0,0,0,0,0,0,0,-1,1483,911,0,0
266,113,0,0,0,0,0,0,0,0,0,-1,1490,911,0,0
273,113,0,0,0,0,0,0,0,0,0,-1,1497,911,0,0
280,113,0,0,0,0,0,0,0,0,0,-1,1504,911,0,0
287,113,0,0,0,0,0,0,0,0,0,-1,1511,911,0,0
294,113,0,0,0,0,0,0,0,0,0,-1,1518,911,0,0
301,113,0,0,0,0,0,0,0,0,0,-1,1525,911,0,0
308,113,0,0,0,0,0,0,0,0,0,-1,1532,911,0,0
315,113,0,0,0,0,0,0,0,0,0,-1,1539,911,0,0
322,113,0,0,0,0,0,0,0,0,0,-1,1546,911,0,0
329,113,0,0,0,0,0,0,0,0,0,-1,1553,911,0,0
336,113,0,0,0,0,0,0,0,0,0,-1,1560,911,0,0
343,113,0,0,0,0,0,0,0,0,0,-1,1567,911,0,0
350,113,0,0,0,0,0,0,0,0,0,-1,1574,911,0,0
357,113,0,0,0,0,0,0,0,0,0,-1,1581,911,0,0
364,113,0,0,0,0,0,0,0,0,0,-1,1588,911,0,0
371,113,0,0,0,0,0,0,0,0,0,-1,1595,911,0,0
378,113,0,0,0,0,0,0,0,0,0,-1,1602,911,0,0
385,113,0,0,0,0,0,0,0,0,0,-1,1609,911,0,0
392,113,0,0,0,0,0,0,0,0,0,-1,1616,911,0,0
399,113,0,0,0,0,0,0,0,0,0,-1,1623,911,0,0
406,113,0,0,0,0,0,0,0,0,0,-1,1630,911,0,0
413,113,0,0,0,0,0,0,0,0,0,-1,1637,911,0,0
420,113,0,0,0,0,0,0,0,0,0,-1,1644,911,0,0
427,113,0,0,0,0,0,0,0,0,0,-1,1651,911,0,0
434,113,0,0,0,0,0,0,0,0,0,-1,1658,911,0,0
441,113,0,0,0,0,0,0,0,0,0,-1,1665,911,0,0
448,113,0,0,0,0,0,0,0,0,0,-1,1672,911,0,0
455,113,0,0,0,0,0,0,0,0,0,-1,1679,911,0,0
462,113,0,0,0,0,0,0,0,0,0,-1,1686,911,0,0
469,113,0,0,0,0,0,0,0,0,0,-1,1693,911,0,0
476,113,0,0,0,0,0,0,0,0,0,-1,1700,911,0,0
483,113,0,0,0,0,0,0,0,0,0,-1,1707,911,0,0
490,113,0,0,0,0,0,0,0,0,0,-1,1714,911,0,0
497,113,0,0,0,0,0,0,0,0,0,-1,1721,911,0,0
504,113,0,0,0,0,0,0,0,0,0,-1,1728,911,0,0
511,113,0,0,0,0,0,0,0,0,0,-1,1735,911,0,0
518,113,0,0,0,0,0,0,0,0,0,-1,1742,911,0,0
525,113,0,0,0,0,0,0,0,0,0,-1,1749,911,0,0
532,113,0,0,0,0,0,0,0,0,0,-1,1756,911,0,0
539,113,0,0,0,0,0,0,0,0,0,-1,1763,911,0,0
546,113,0,0,0,0,0,0,0,0,0,-1,1770,911,0,0
553,113,0,0,0,0,0,0,0,0,0,-1,1777,911,0,0
560,113,0,0,0,0,0,0,0,0,0,-1,1784,911,0,0
567,113,0,0,0,0,0,0,0,0,0,-1,1791,911,0,0
574,113,0,0,0,0,0,0,0,0,0,-1,1798,911,0,0
581,113,0,0,0,0,0,0,0,0,0,-1,1805,911,0,0
588,113,0,0,0,0,0,0,0,0,0,-1,1812,911,0,0
595,113,0,0,0,0,0,0,0,0,0,-1,1819,911,0,0
602,113,0,0,0,0,0,0,0,0,0,-1,1826,911,0,0
609,113,0,0,0,0,0,0,0,0,0,-1,1833,911,0,0
616,113,0,0,0,0,0,0,0,0,0,-1,1840,911,0,0
623,113,0,0,0,0,0,0,0,0,0,-1,1847,911,0,0
630,113,82.2129,2.75702,0.00972479,0.00153011,-0.00385924,0.0112561,-1.22003e-06,-0.377741,0.00750449,0.0395956,1854,911,82.2129,-2.757
637,113,81.9686,3.13,0,0,0,0,0,0,0,-1,1861,911,81.9686,-3.13001
644,113,82.1246,2.85498,0.00439121,0.00300526,-0.00254915,0.0063399,0.00105657,-0.652682,0.00392214,0.0386469,1868,911,82.1247,-2.85497
651,113,82.2444,2.58832,0.00232706,0.00313835,-0.0018065,0.00458418,0.000881221,-0.89584,0.00280884,0.0410189,1875,911,82.2444,-2.58829
658,113,82.3151,2.26984,0.000569175,0.00312797,-0.00104606,0.00350118,0.000195966,-1.2281,0.00227161,0.0421079,1882,911,82.3151,-2.26982
665,113,82.251,2.51025,-0.000610026,0.00333667,-0.000553963,0.00341295,-0.000686306,-1.43396,0.00253522,0.0386617,1889,911,82.2509,-2.51022
672,113,82.2294,2.51135,-0.00135734,0.00299011,-0.000457302,0.00303769,-0.00140493,-1.46712,0.00262205,0.0352411,1896,911,82.2293,-2.51136
679,113,82.296,2.40497,-0.00174038,0.00247268,-0.000576987,0.00255027,-0.00181797,-1.43712,0.00253379,0.0305732,1903,911,82.296,-2.40495
686,113,82.28,2.37915,-0.00200302,0.00224075,-0.000907023,0.00242648,-0.00218875,-1.36882,0.00266578,0.0280656,1910,911,82.2801,-2.37912
693,113,82.1182,2.53558,0,0,0,0,0,0,0,-1,1917,911,82.1182,-2.53556
700,113,43.897,2.79669,0,0,0,0,0,0,0,-1,1924,911,43.897,-2.79671
707,113,73.4672,3.34088,0,0,0,0,0,0,0,-1,1931,911,73.4672,-3.3409
714,113,74.7596,4.41302,0,0,0,0,0,0,0,-1,1938,911,74.7597,-4.41302
721,113,74.8341,5.28735,0,0,0,0,0,0,0,-1,1945,911,74.8341,-5.28738
728,113,74.8916,6.02576,-0.00412992,0.00356706,-0.00326646,0.0047664,-0.00532926,-1.21891,0.00583175,0.0272023,1952,911,74.8917,-6.02577
735,113,74.7733,6.81482,-0.00489181,0.00462906,-0.00322601,0.00561918,-0.00588193,-1.27301,0.00664075,0.0230215,1959,911,74.7733,-6.81483
742,113,74.6539,7.57947,-0.00566216,0.00696224,-0.00268434,0.00750931,-0.00620922,-1.36975,0.00793225,0.014083,1966,911,74.6539,-7.57945
749,113,74.6268,8.36206,-0.00637231,0.0107182,-0.000970768,0.0107732,-0.00642727,-1.51424,0.0100358,0.0118209,1973,911,74.6268,-8.36204
756,113,74.4919,9.15833,-0.00698062,0.0156238,0.00219819,0.0158356,-0.0071924,1.47475,0.0136038,0.0172778,1980,911,74.4918,-9.15833
763,113,74.2744,10.0582,-0.00767407,0.0208992,0.00663398,0.0223643,-0.00913919,1.35344,0.0187152,0.039265,1987,911,74.2744,-10.0583
770,113,74.1323,10.9653,0,0,0,0,0,0,0,-1,1994,911,74.1324,-10.9652
777,113,58.1719,9.65338,0,0,0,0,0,0,0,-1,2001,911,58.172,-9.6534
784,113,79.3757,13.6559,0,0,0,0,0,0,0,-1,2008,911,79.3756,-13.6559
791,113,74.5583,10.0654,0,0,0,0,0,0,0,-1,2015,911,74.5583,-10.0654
798,113,74.8208,11.6051,0,0,0,0,0,0,0,-1,2022,911,74.8207,-11.6051
805,113,0,0,0,0,0,0,0,0,0,-1,2029,911,0,0
812,113,0,0,0,0,0,0,0,0,0,-1,2036,911,0,0
-700,106,0,0,0,0,0,0,0,0,0,-1,524,918,0,0
-693,106,0,0,0,0,0,0,0,0,0,-1,531,918,0,0
-686,106,0,0,0,0,0,0,0,0,0,-1,538,918,0,0
-679,106,-60.4137,10.3801,0,0,0,0,0,0,0,-1,545,918,-60.4137,-10.3802
-672,106,-59.9378,11.2709,0,0,0,0,0,0,0,-1,552,918,-59.9378,-11.271
-665,106,-53.5263,9.70886,0,0,0,0,0,0,0,-1,559,918,-53.5263,-9.70888
-658,106,-53.7712,10.2163,0,0,0,0,0,0,0,-1,566,918,-53.7712,-10.2163
-651,106,-52.8008,8.01733,0,0,0,0,0,0,0,-1,573,918,-52.8008,-8.01734
-644,106,-57.9232,10.7945,0,0,0,0,0,0,0,-1,580,918,-57.9232,-10.7945
-637,106,-58.4611,10.1113,-0.0144756,0.0239322,0.0133503,0.0281168,-0.0186601,1.26705,0.02719,0.0456678,587,918,-58.4611,-10.1113
-630,106,-59.0458,9.53516,-0.0111315,0.0188083,0.0109695,0.0223972,-0.0147204,1.2546,0.0215821,0.0214019,594,918,-59.0458,-9.53515
-623,106,-59.3091,8.62701,-0.00789621,0.0137438,0.00891333,0.0169424,-0.0110948,1.22626,0.0163042,0.0214626,601,918,-59.3091,-8.62701
-616,106,-59.3962,7.83478,-0.00492155,0.00889171,0.00707748,0.0118741,-0.00790392,1.17199,0.0114953,0.0213578,608,918,-59.3962,-7.83477
-609,106,-59.3719,7.12769,-0.00314374,0.00504854,0.00558731,0.00788034,-0.00597554,1.1017,0.00802485,0.0144919,615,918,-59.3719,-7.12767
-602,106,-59.4048,6.30341,-0.00260595,0.00276491,0.0044513,0.00527809,-0.00511914,1.05682,0.00600308,0.0239166,622,918,-59.4048,-6.30339
-595,106,-59.585,5.52618,-0.00195252,0.00181412,0.00367692,0.00406197,-0.00420038,1.02208,0.0047705,0.0281186,629,918,-59.585,-5.52619
-588,106,-59.7153,4.72363,0,0,0,0,0,0,0,-1,636,918,-59.7152,-4.72365
-581,106,-59.4811,3.82007,0,0,0,0,0,0,0,-1,643,918,-59.4811,-3.82007
-574,106,-59.8318,2.9762,0,0,0,0,0,0,0,-1,650,918,-59.8319,-2.9762
-567,106,-41.3706,0.420776,0,0,0,0,0,0,0,-1,657,918,-41.3706,-0.420794
-560,106,-65.5323,0.59845,0,0,0,0,0,0,0,-1,664,918,-65.5324,-0.59843
-553,106,-65.6146,0.504333,0.000733935,-0.000806816,0.00108154,0.00129142,-0.0013643,0.475933,0.00153347,0.0350201,671,918,-65.6146,-0.504337
-546,106,-65.6421,0.319946,0.000630029,-0.000624584,0.00070944,0.000949727,-0.000944283,0.423382,0.00109351,0.0374034,678,918,-65.6421,-0.319921
-539,106,-65.4617,0.410034,0.000635734,-0.00018659,0.000412964,0.000807318,-0.000358175,0.393793,0.000689352,0.0394417,685,918,-65.4617,-0.410013
-532,106,-65.5168,0.471191,0.00165375,3.18872e-05,0.000460953,0.0017756,-8.99664e-05,0.258439,0.00121483,0.0389674,692,918,-65.5169,-0.471181
-525,106,-65.5886,0.455933,0.0025208,-0.000134237,0.000420719,0.00258587,-0.00019931,0.153454,0.00179405,0.0376166,699,918,-65.5887,-0.455958
-518,106,-65.4899,0.683899,0.00318273,-0.000421337,0.000223886,0.00319659,-0.000435191,0.0618038,0.00228995,0.0382445,706,918,-65.4899,-0.68388
-511,106,0,0,0,0,0,0,0,0,0,-1,713,918,0,0
-504,106,0,0,0,0,0,0,0,0,0,-1,720,918,0,0
-497,106,0,0,0,0,0,0,0,0,0,-1,727,918,0,0
-490,106,0,0,0,0,0,0,0,0,0,-1,734,918,0,0
-483,106,0,0,0,0,0,0,0,0,0,-1,741,918,0,0
-476,106,0,0,0,0,0,0,0,0,0,-1,748,918,0,0
-469,106,0,0,0,0,0,0,0,0,0,-1,755,918,0,0
-462,106,0,0,0,0,0,0,0,0,0,-1,762,918,0,0
-455,106,0,0,0,0,0,0,0,0,0,-1,769,918,0,0
-448,106,0,0,0,0,0,0,0,0,0,-1,776,918,0,0
-441,106,0,0,0,0,0,0,0,0,0,-1,783,918,0,0
-434,106,0,0,0,0,0,0,0,0,0,-1,790,918,0,0
-427,106,0,0,0,0,0,0,0,0,0,-1,797,918,0,0
-420,106,0,0,0,0,0,0,0,0,0,-1,804,918,0,0
-413,106,0,0,0,0,0,0,0,0,0,-1,811,918,0,0
-406,106,0,0,0,0,0,0,0,0,0,-1,818,918,0,0
-399,106,0,0,0,0,0,0,0,0,0,-1,825,918,0,0
-392,106,0,0,0,0,0,0,0,0,0,-1,832,918,0,0
-385,106,0,0,0,0,0,0,0,0,0,-1,839,918,0,0
-378,106,0,0,0,0,0,0,0,0,0,-1,846,918,0,0
-371,106,0,0,0,0,0,0,0,0,0,-1,853,918,0,0
-364,106,0,0,0,0,0,0,0,0,0,-1,860,918,0,0
-357,106,0,0,0,0,0,0,0,0,0,-1,867,918,0,0
-350,106,0,0,0,0,0,0,0,0,0,-1,874,918,0,0
-343,106,0,0,0,0,0,0,0,0,0,-1,881,918,0,0
-336,106,0,0,0,0,0,0,0,0,0,-1,888,918,0,0
-329,106,0,0,0,0,0,0,0,0,0,-1,895,918,0,0
-322,106,0,0,0,0,0,0,0,0,0,-1,902,918,0,0
-315,106,0,0,0,0,0,0,0,0,0,-1,909,918,0,0
-308,106,0,0,0,0,0,0,0,0,0,-1,916,918,0,0
-301,106,0,0,0,0,0,0,0,0,0,-1,923,918,0,0
-294,106,0,0,0,0,0,0,0,0,0,-1,930,918,0,0
-287,106,0,0,0,0,0,0,0,0,0,-1,937,918,0,0
-280,106,0,0,0,0,0,0,0,0,0,-1,944,918,0,0
-273,106,0,0,0,0,0,0,0,0,0,-1,951,918,0,0
-266,106,0,0,0,0,0,0,0,0,0,-1,958,918,0,0
-259,106,0,0,0,0,0,0,0,0,0,-1,965,918,0,0
-252,106,0,0,0,0,0,0,0,0,0,-1,972,918,0,0
-245,106,0,0,0,0,0,0,0,0,0,-1,979,918,0,0
-238,106,0,0,0,0,0,0,0,0,0,-1,986,918,0,0
-231,106,0,0,0,0,0,0,0,0,0,-1,993,918,0,0
-224,106,0,0,0,0,0,0,0,0,0,-1,1000,918,0,0
-217,106,0,0,0,0,0,0,0,0,0,-1,1007,918,0,0
-210,106,0,0,0,0,0,0,0,0,0,-1,1014,918,0,0
-203,106,0,0,0,0,0,0,0,0,0,-1,1021,918,0,0
-196,106,0,0,0,0,0,0,0,0,0,-1,1028,918,0,0
-189,106,0,0,0,0,0,0,0,0,0,-1,1035,918,0,0
-182,106,0,0,0,0,0,0,0,0,0,-1,1042,918,0,0
-175,106,0,0,0,0,0,0,0,0,0,-1,1049,918,0,0
-168,106,0,0,0,0,0,0,0,0,0,-1,1056,918,0,0
-161,106,0,0,0,0,0,0,0,0,0,-1,1063,918,0,0
-154,106,0,0,0,0,0,0,0,0,0,-1,1070,918,0,0
-147,106,0,0,0,0,0,0,0,0,0,-1,1077,918,0,0
-140,106,0,0,0,0,0,0,0,0,0,-1,1084,918,0,0
-133,106,0,0,0,0,0,0,0,0,0,-1,1091,918,0,0
-126,106,0,0,0,0,0,0,0,0,0,-1,1098,918,0,0
-119,106,0,0,0,0,0,0,0,0,0,-1,1105,918,0,0
-112,106,0,0,0,0,0,0,0,0,0,-1,1112,918,0,0
-105,106,0,0,0,0,0,0,0,0,0,-1,1119,918,0,0
-98,106,0,0,0,0,0,0,0,0,0,-1,1126,918,0,0
-91,106,0,0,0,0,0,0,0,0,0,-1,1133,918,0,0
-84,106,0,0,0,0,0,0,0,0,0,-1,1140,918,0,0
-77,106,0,0,0,0,0,0,0,0,0,-1,1147,918,0,0
-70,106,0,0,0,0,0,0,0,0,0,-1,1154,918,0,0
-63,106,0,0,0,0,0,0,0,0,0,-1,1161,918,0,0
-56,106,0,0,0,0,0,0,0,0,0,-1,1168,918,0,0
-49,106,0,0,0,0,0,0,0,0,0,-1,1175,918,0,0
-42,106,0,0,0,0,0,0,0,0,0,-1,1182,918,0,0
-35,106,0,0,0,0,0,0,0,0,0,-1,1189,918,0,0
-28,106,0,0,0,0,0,0,0,0,0,-1,1196,918,0,0
-21,106,0,0,0,0,0,0,0,0,0,-1,1203,918,0,0
-14,106,0,0,0,0,0,0,0,0,0,-1,1210,918,0,0
-7,106,0,0,0,0,0,0,0,0,0,-1,1217,918,0,0
0,106,0,0,0,0,0,0,0,0,0,-1,1224,918,0,0
7,106,0,0,0,0,0,0,0,0,0,-1,1231,918,0,0
14,106,0,0,0,0,0,0,0,0,0,-1,1238,918,0,0
21,106,0,0,0,0,0,0,0,0,0,-1,1245,918,0,0
28,106,0,0,0,0,0,0,0,0,0,-1,1252,918,0,0
35,106,0,0,0,0,0,0,0,0,0,-1,1259,918,0,0
42,106,0,0,0,0,0,0,0,0,0,-1,1266,918,0,0
49,106,0,0,0,0,0,0,0,0,0,-1,1273,918,0,0
56,106,0,0,0,0,0,0,0,0,0,-1,1280,918,0,0
63,106,0,0,0,0,0,0,0,0,0,-1,1287,918,0,0
70,106,0,0,0,0,0,0,0,0,0,-1,1294,918,0,0
77,106,0,0,0,0,0,0,0,0,0,-1,1301,918,0,0
84,106,0,0,0,0,0,0,0,0,0,-1,1308,918,0,0
91,106,0,0,0,0,0,0,0,0,0,-1,1315,918,0,0
98,106,0,0,0,0,0,0,0,0,0,-1,1322,918,0,0
105,106,0,0,0,0,0,0,0,0,0,-1,1329,918,0,0
112,106,0,0,0,0,0,0,0,0,0,-1,1336,918,0,0
119,106,0,0,0,0,0,0,0,0,0,-1,1343,918,0,0
126,106,0,0,0,0,0,0,0,0,0,-1,1350,918,0,0
133,106,0,0,0,0,0,0,0,0,0,-1,1357,918,0,0
140,106,0,0,0,0,0,0,0,0,0,-1,1364,918,0,0
147,106,0,0,0,0,0,0,0,0,0,-1,1371,918,0,0
154,106,0,0,0,0,0,0,0,0,0,-1,1378,918,0,0
161,106,0,0,0,0,0,0,0,0,0,-1,1385,918,0,0
168,106,0,0,0,0,0,0,0,0,0,-1,1392,918,0,0
175,106,0,0,0,0,0,0,0,0,0,-1,1399,918,0,0
182,106,0,0,0,0,0,0,0,0,0,-1,1406,918,0,0
189,106,0,0,0,0,0,0,0,0,0,-1,1413,918,0,0
196,106,0,0,0,0,0,0,0,0,0,-1,1420,918,0,0
203,106,0,0,0,0,0,0,0,0,0,-1,1427,918,0,0
210,106,0,0,0,0,0,0,0,0,0,-1,1434,918,0,0
217,106,0,0,0,0,0,0,0,0,0,-1,1441,918,0,0
224,106,0,0,0,0,0,0,0,0,0,-1,1448,918,0,0
231,106,0,0,0,0,0,0,0,0,0,-1,1455,918,0,0
238,106,0,0,0,0,0,0,0,0,0,-1,1462,918,0,0
245,106,0,0,0,0,0,0,0,0,0,-1,1469,918,0,0
252,106,0,0,0,0,0,0,0,0,0,-1,1476,918,0,0
259,106,0,0,0,0,0,0,0,0,0,-1,1483,918,0,0
266,106,0,0,0,0,0,0,0,0,0,-1,1490,918,0,0
273,106,0,0,0,0,0,0,0,0,0,-1,1497,918,0,0
280,106,0,0,0,0,0,0,0,0,0,-1,1504,918,0,0
287,106,0,0,0,0,0,0,0,0,0,-1,1511,918,0,0
294,106,0,0,0,0,0,0,0,0,0,-1,1518,918,0,0
301,106,0,0,0,0,0,0,0,0,0,-1,1525,918,0,0
308,106,0,0,0,0,0,0,0,0,0,-1,1532,918,0,0
315,106,0,0,0,0,0,0,0,0,0,-1,1539,918,0,0
322,106,0,0,0,0,0,0,0,0,0,-1,1546,918,0,0
329,106,0,0,0,0,0,0,0,0,0,-1,1553,918,0,0
336,106,0,0,0,0,0,0,0,0,0,-1,1560,918,0,0
343,106,0,0,0,0,0,0,0,0,0,-1,1567,918,0,0
350,106,0,0,0,0,0,0,0,0,0,-1,1574,918,0,0
357,106,0,0,0,0,0,0,0,0,0,-1,1581,918,0,0
364,106,0,0,0,0,0,0,0,0,0,-1,1588,918,0,0
371,106,0,0,0,0,0,0,0,0,0,-1,1595,918,0,0
378,106,0,0,0,0,0,0,0,0,0,-1,1602,918,0,0
385,106,0,0,0,0,0,0,0,0,0,-1,1609,918,0,0
392,106,0,0,0,0,0,0,0,0,0,-1,1616,918,0,0
399,106,0,0,0,0,0,0,0,0,0,-1,1623,918,0,0
406,106,0,0,0,0,0,0,0,0,0,-1,1630,918,0,0
413,106,0,0,0,0,0,0,0,0,0,-1,1637,918,0,0
420,106,0,0,0,0,0,0,0,0,0,-1,1644,918,0,0
427,106,0,0,0,0,0,0,0,0,0,-1,1651,918,0,0
434,106,0,0,0,0,0,0,0,0,0,-1,1658,918,0,0
441,106,0,0,0,0,0,0,0,0,0,-1,1665,918,0,0
448,106,0,0,0,0,0,0,0,0,0,-1,1672,918,0,0
455,106,0,0,0,0,0,0,0,0,0,-1,1679,918,0,0
462,106,0,0,0,0,0,0,0,0,0,-1,1686,918,0,0
469,106,0,0,0,0,0,0,0,0,0,-1,1693,918,0,0
476,106,0,0,0,0,0,0,0,0,0,-1,1700,918,0,0
483,106,0,0,0,0,0,0,0,0,0,-1,1707,918,0,0
490,106,0,0,0,0,0,0,0,0,0,-1,1714,918,0,0
497,106,0,0,0,0,0,0,0,0,0,-1,1721,918,0,0
504,106,0,0,0,0,0,0,0,0,0,-1,1728,918,0,0
511,106,0,0,0,0,0,0,0,0,0,-1,1735,918,0,0
518,106,0,0,0,0,0,0,0,0,0,-1,1742,918,0,0
525,106,0,0,0,0,0,0,0,0,0,-1,1749,918,0,0
532,106,0,0,0,0,0,0,0,0,0,-1,1756,918,0,0
539,106,0,0,0,0,0,0,0,0,0,-1,1763,918,0,0
546,106,0,0,0,0,0,0,0,0,0,-1,1770,918,0,0
553,106,0,0,0,0,0,0,0,0,0,-1,1777,918,0,0
560,106,0,0,0,0,0,0,0,0,0,-1,1784,918,0,0
567,106,0,0,0,0,0,0,0,0,0,-1,1791,918,0,0
574,106,0,0,0,0,0,0,0,0,0,-1,1798,918,0,0
581,106,0,0,0,0,0,0,0,0,0,-1,1805,918,0,0
588,106,0,0,0,0,0,0,0,0,0,-1,1812,918,0,0
595,106,0,0,0,0,0,0,0,0,0,-1,1819,918,0,0
602,106,0,0,0,0,0,0,0,0,0,-1,1826,918,0,0
609,106,0,0,0,0,0,0,0,0,0,-1,1833,918,0,0
616,106,0,0,0,0,0,0,0,0,0,-1,1840,918,0,0
623,106,0,0,0,0,0,0,0,0,0,-1,1847,918,0,0
630,106,82.3628,2.45428,0,0,0,0,0,0,0,-1,1854,918,82.3628,-2.45431
637,106,81.986,2.78888,0,0,0,0,0,0,0,-1,1861,918,81.986,-2.7889
644,106,82.318,2.39343,0.00455446,0.00344283,-0.00302635,0.00707561,0.000921675,-0.694581,0.00444184,0.0369539,1868,918,82.318,-2.39344
651,106,82.4937,2.00165,0.00253018,0.00343613,-0.00212482,0.00515572,0.000810589,-0.890417,0.00320134,0.0408546,1875,918,82.4936,-2.00163
658,106,82.4922,1.97034,0.000872632,0.00332734,-0.00121201,0.00382491,0.000375064,-1.18124,0.00243457,0.0433772,1882,918,82.4921,-1.97036
665,106,82.3885,2.1662,-0.000252299,0.00334501,-0.000490744,0.00341076,-0.000318045,-1.43762,0.00238693,0.0432379,1889,918,82.3886,-2.16621
672,106,82.1223,2.7132,-0.00105077,0.00293178,-0.000182933,0.00294017,-0.00105915,-1.52499,0.00239263,0.0412211,1896,918,82.1223,-2.71321
679,106,82.2423,2.48126,-0.00154723,0.00230077,-0.000163569,0.00230771,-0.00155417,-1.52839,0.00224376,0.0332537,1903,918,82.2423,-2.48126
686,106,82.3113,2.40417,-0.00185219,0.00194035,-0.000477988,0.00199967,-0.0019115,-1.44733,0.00225831,0.0300793,1910,918,82.3113,-2.40418
693,106,82.1639,2.4364,-0.00232438,0.00183423,-0.000903798,0.00202217,-0.00251231,-1.36578,0.00262308,0.040867,1917,918,82.164,-2.43642
700,106,82.1882,2.54681,0,0,0,0,0,0,0,-1,1924,918,82.1882,-2.54683
707,106,59.4137,3.22595,0,0,0,0,0,0,0,-1,1931,918,59.4136,-3.22598
714,106,75.4178,4.34265,0,0,0,0,0,0,0,-1,1938,918,75.4179,-4.34264
721,106,75.7799,5.31604,-0.00378192,0.00272867,-0.00265999,0.00367724,-0.00473049,-1.22825,0.00486689,0.0351027,1945,918,75.7799,-5.31605
728,106,75.7968,6.12152,-0.00448977,0.00351321,-0.00298753,0.00450544,-0.005482,-1.25013,0.00577543,0.0325716,1952,918,75.7968,-6.12155
735,106,75.67,6.87439,-0.00534089,0.00467861,-0.00296379,0.00548965,-0.00615193,-1.30368,0.00672489,0.0284717,1959,918,75.67,-6.87439
742,106,75.5322,7.58423,-0.00628751,0.00705193,-0.0025814,0.00753405,-0.00676963,-1.38616,0.00826217,0.0147922,1966,918,75.5323,-7.58421
749,106,75.4646,8.33252,-0.00725305,0.0109685,-0.00107464,0.0110316,-0.0073162,-1.51209,0.0106653,0.0120073,1973,918,75.4645,-8.33255
756,106,75.3481,9.0896,-0.00811467,0.0162502,0.00201383,0.0164155,-0.00828,1.48888,0.0145135,0.0147635,1980,918,75.3483,-9.08962
763,106,75.2034,9.99017,-0.00905197,0.0219767,0.00642673,0.0232551,-0.0103304,1.37443,0.0198635,0.0323222,1987,918,75.2035,-9.99016
770,106,75.1072,10.9298,0,0,0,0,0,0,0,-1,1994,918,75.1072,-10.9298
777,106,76.4253,11.8154,0,0,0,0,0,0,0,-1,2001,918,76.4254,-11.8154
784,106,76.1711,12.978,0,0,0,0,0,0,0,-1,2008,918,76.171,-12.978
791,106,75.1431,10.694,0,0,0,0,0,0,0,-1,2015,918,75.143,-10.6939
798,106,74.9373,11.025,0,0,0,0,0,0,0,-1,2022,918,74.9373,-11.0249
805,106,0,0,0,0,0,0,0,0,0,-1,2029,918,0,0
812,106,0,0,0,0,0,0,0,0,0,-1,2036,918,0,0
-700,99,0,0,0,0,0,0,0,0,0,-1,524,925,0,0
-693,99,0,0,0,0,0,0,0,0,0,-1,531,925,0,0
-686,99,0,0,0,0,0,0,0,0,0,-1,538,925,0,0
-679,99,-60.0285,9.58405,0,0,0,0,0,0,0,-1,545,925,-60.0285,-9.58402
-672,99,-59.5222,10.1797,0,0,0,0,0,0,0,-1,552,925,-59.5222,-10.1797
-665,99,-58.8331,10.9661,0,0,0,0,0,0,0,-1,559,925,-58.8331,-10.9661
-658,99,-58.6227,11.3068,0,0,0,0,0,0,0,-1,566,925,-58.6227,-11.3068
-651,99,-58.2084,11.0227,0,0,0,0,0,0,0,-1,573,925,-58.2084,-11.0227
-644,99,-59.1351,10.5931,0,0,0,0,0,0,0,-1,580,925,-59.1351,-10.5932
-637,99,-59.5065,10.0623,-0.00650442,0.0278359,0.0113649,0.0312564,-0.00992492,1.27845,0.0248165,0.038323,587,925,-59.5065,-10.0623
-630,99,-59.9167,9.48822,-0.0071331,0.0202336,0.010656,0.0238933,-0.0107929,1.23997,0.0204967,0.0215986,594,925,-59.9168,-9.4882
-623,99,-60.2186,8.65442,-0.0057331,0.0142539,0.00890576,0.0176463,-0.00912551,1.20684,0.0157155,0.0150861,601,925,-60.2186,-8.65445
-616,99,-60.2499,7.86505,-0.00344665,0.00907547,0.00710107,0.0122815,-0.0066527,1.14671,0.0110915,0.0174462,608,925,-60.2499,-7.86506
-609,99,-60.2397,7.15906,-0.00231578,0.0051518,0.00561598,0.00816192,-0.00532591,1.07877,0.00784437,0.0130843,615,925,-60.2397,-7.15905
-602,99,-60.2402,6.44055,-0.00210646,0.0028756,0.00446665,0.00549888,-0.00472974,1.03976,0.00591106,0.0196835,622,925,-60.2402,-6.44055
-595,99,-60.3846,5.68866,-0.00160847,0.00182982,0.00368274,0.00417491,-0.00395356,1.00377,0.00469356,0.0261987,629,925,-60.3846,-5.68867
-588,99,-60.4009,4.87775,-0.00121255,0.00127128,0.00316474,0.00342906,-0.00337032,0.972377,0.00392568,0.0304559,636,925,-60.4009,-4.87776
-581,99,-60.1147,4.11725,0,0,0,0,0,0,0,-1,643,925,-60.1147,-4.11724
-574,99,-58.6707,2.4903,0,0,0,0,0,0,0,-1,650,925,-58.6707,-2.49027
-567,99,-50.5977,0.659485,0,0,0,0,0,0,0,-1,657,925,-50.5977,-0.659461
-560,99,-65.4818,0.430725,0,0,0,0,0,0,0,-1,664,925,-65.4818,-0.430727
-553,99,-65.5941,0.501526,0.000359889,-0.000706563,0.000942996,0.000909978,-0.00125665,0.528081,0.00125623,0.0394665,671,925,-65.5941,-0.501536
-546,99,-65.6231,0.349304,0.000280101,-0.000364191,0.000663259,0.000695308,-0.000779399,0.559326,0.000851884,0.0412809,678,925,-65.6231,-0.349319
-539,99,-65.5493,0.429199,0.000433484,0.000176618,0.000518191,0.000838921,-0.000228818,0.663922,0.000649138,0.0392966,685,925,-65.5492,-0.429211
-532,99,-65.6498,0.642639,0.00146055,0.000382941,0.000675631,0.00178591,5.7576e-05,0.448797,0.00117189,0.0436396,692,925,-65.6498,-0.64265
-525,99,-65.6055,0.629822,0.00242435,0.000180669,0.000724767,0.00263811,-3.30852e-05,0.286797,0.00176987,0.0420761,699,925,-65.6056,-0.629833
-518,99,-65.6027,0.426147,0.00315611,-0.000132507,0.000582934,0.00325638,-0.000232779,0.170346,0.00225253,0.0404023,706,925,-65.6026,-0.426127
-511,99,0,0,0,0,0,0,0,0,0,-1,713,925,0,0
-504,99,0,0,0,0,0,0,0,0,0,-1,720,925,0,0
-497,99,0,0,0,0,0,0,0,0,0,-1,727,925,0,0
-490,99,0,0,0,0,0,0,0,0,0,-1,734,925,0,0
-483,99,0,0,0,0,0,0,0,0,0,-1,741,925,0,0
-476,99,0,0,0,0,0,0,0,0,0,-1,748,925,0,0
-469,99,0,0,0,0,0,0,0,0,0,-1,755,925,0,0
-462,99,0,0,0,0,0,0,0,0,0,-1,762,925,0,0
-455,99,0,0,0,0,0,0,0,0,0,-1,769,925,0,0
-448,99,0,0,0,0,0,0,0,0,0,-1,776,925,0,0
-441,99,0,0,0,0,0,0,0,0,0,-1,783,925,0,0
-434,99,0,0,0,0,0,0,0,0,0,-1,790,925,0,0
-427,99,0,0,0,0,0,0,0,0,0,-1,797,925,0,0
-420,99,0,0,0,0,0,0,0,0,0,-1,804,925,0,0
-413,99,0,0,0,0,0,0,0,0,0,-1,811,925,0,0
-406,99,0,0,0,0,0,0,0,0,0,-1,818,925,0,0
-399,99,0,0,0,0,0,0,0,0,0,-1,825,925,0,0
-392,99,0,0,0,0,0,0,0,0,0,-1,832,925,0,0
-385,99,0,0,0,0,0,0,0,0,0,-1,839,925,0,0
-378,99,0,0,0,0,0,0,0,0,0,-1,846,925,0,0
-371,99,0,0,0,0,0,0,0,0,0,-1,853,925,0,0
-364,99,0,0,0,0,0,0,0,0,0,-1,860,925,0,0
-357,99,0,0,0,0,0,0,0,0,0,-1,867,925,0,0
-350,99,0,0,0,0,0,0,0,0,0,-1,874,925,0,0
-343,99,0,0,0,0,0,0,0,0,0,-1,881,925,0,0
-336,99,0,0,0,0,0,0,0,0,0,-1,888,925,0,0
-329,99,0,0,0,0,0,0,0,0,0,-1,895,925,0,0
-322,99,0,0,0,0,0,0,0,0,0,-1,902,925,0,0
-315,99,0,0,0,0,0,0,0,0,0,-1,909,925,0,0
-308,99,0,0,0,0,0,0,0,0,0,-1,916,925,0,0
-301,99,0,0,0,0,0,0,0,0,0,-1,923,925,0,0
-294,99,0,0,0,0,0,0,0,0,0,-1,930,925,0,0
-287,99,0,0,0,0,0,0,0,0,0,-1,937,925,0,0
-280,99,0,0,0,0,0,0,0,0,0,-1,944,925,0,0
-273,99,0,0,0,0,0,0,0,0,0,-1,951,925,0,0
-266,99,0,0,0,0,0,0,0,0,0,-1,958,925,0,0
-259,99,0,0,0,0,0,0,0,0,0,-1,965,925,0,0
-252,99,0,0,0,0,0,0,0,0,0,-1,972,925,0,0
-245,99,0,0,0,0,0,0,0,0,0,-1,979,925,0,0
-238,99,0,0,0,0,0,0,0,0,0,-1,986,925,0,0
-231,99,0,0,0,0,0,0,0,0,0,-1,993,925,0,0
-224,99,0,0,0,0,0,0,0,0,0,-1,1000,925,0,0
-217,99,0,0,0,0,0,0,0,0,0,-1,1007,925,0,0
-210,99,0,0,0,0,0,0,0,0,0,-1,1014,925,0,0
-203,99,0,0,0,0,0,0,0,0,0,-1,1021,925,0,0
-196,99,0,0,0,0,0,0,0,0,0,-1,1028,925,0,0
-189,99,0,0,0,0,0,0,0,0,0,-1,1035,925,0,0
-182,99,0,0,0,0,0,0,0,0,0,-1,1042,925,0,0
-175,99,0,0,0,0,0,0,0,0,0,-1,1049,925,0,0
-168,99,0,0,0,0,0,0,0,0,0,-1,1056,925,0,0
-161,99,0,0,0,0,0,0,0,0,0,-1,1063,925,0,0
-154,99,0,0,0,0,0,0,0,0,0,-1,1070,925,0,0
-147,99,0,0,0,0,0,0,0,0,0,-1,1077,925,0,0
-140,99,0,0,0,0,0,0,0,0,0,-1,1084,925,0,0
-133,99,0,0,0,0,0,0,0,0,0,-1,1091,925,0,0
-126,99,0,0,0,0,0,0,0,0,0,-1,1098,925,0,0
-119,99,0,0,0,0,0,0,0,0,0,-1,1105,925,0,0
-112,99,0,0,0,0,0,0,0,0,0,-1,1112,925,0,0
-105,99,0,0,0,0,0,0,0,0,0,-1,1119,925,0,0
-98,99,0,0,0,0,0,0,0,0,0,-1,1126,925,0,0
-91,99,0,0,0,0,0,0,0,0,0,-1,1133,925,0,0
-84,99,0,0,0,0,0,0,0,0,0,-1,1140,925,0,0
-77,99,0,0,0,0,0,0,0,0,0,-1,1147,925,0,0
-70,99,0,0,0,0,0,0,0,0,0,-1,1154,925,0,0
-63,99,0,0,0,0,0,0,0,0,0,-1,1161,925,0,0
-56,99,0,0,0,0,0,0,0,0,0,-1,1168,925,0,0
-49,99,0,0,0,0,0,0,0,0,0,-1,1175,925,0,0
-42,99,0,0,0,0,0,0,0,0,0,-1,1182,925,0,0
-35,99,0,0,0,0,0,0,0,0,0,-1,1189,925,0,0
-28,99,0,0,0,0,0,0,0,0,0,-1,1196,925,0,0
-21,99,0,0,0,0,0,0,0,0,0,-1,1203,925,0,0
-14,99,0,0,0,0,0,0,0,0,0,-1,1210,925,0,0
-7,99,0,0,0,0,0,0,0,0,0,-1,1217,925,0,0
0,99,0,0,0,0,0,0,0,0,0,-1,1224,925,0,0
7,99,0,0,0,0,0,0,0,0,0,-1,1231,925,0,0
14,99,0,0,0,0,0,0,0,0,0,-1,1238,925,0,0
21,99,0,0,0,0,0,0,0,0,0,-1,1245,925,0,0
28,99,0,0,0,0,0,0,0,0,0,-1,1252,925,0,0
35,99,0,0,0,0,0,0,0,0,0,-1,1259,925,0,0
42,99,0,0,0,0,0,0,0,0,0,-1,1266,925,0,0
49,99,0,0,0,0,0,0,0,0,0,-1,1273,925,0,0
56,99,0,0,0,0,0,0,0,0,0,-1,1280,925,0,0
63,99,0,0,0,0,0,0,0,0,0,-1,1287,925,0,0
70,99,0,0,0,0,0,0,0,0,0,-1,1294,925,0,0
77,99,0,0,0,0,0,0,0,0,0,-1,1301,925,0,0
84,99,0,0,0,0,0,0,0,0,0,-1,1308,925,0,0
91,99,0,0,0,0,0,0,0,0,0,-1,1315,925,0,0
98,99,0,0,0,0,0,0,0,0,0,-1,1322,925,0,0
105,99,0,0,0,0,0,0,0,0,0,-1,1329,925,0,0
112,99,0,0,0,0,0,0,0,0,0,-1,1336,925,0,0
119,99,0,0,0,0,0,0,0,0,0,-1,1343,925,0,0
126,99,0,0,0,0,0,0,0,0,0,-1,1350,925,0,0
133,99,0,0,0,0,0,0,0,0,0,-1,1357,925,0,0
140,99,0,0,0,0,0,0,0,0,0,-1,1364,925,0,0
147,99,0,0,0,0,0,0,0,0,0,-1,1371,925,0,0
154,99,0,0,0,0,0,0,0,0,0,-1,1378,925,0,0
161,99,0,0,0,0,0,0,0,0,0,-1,1385,925,0,0
168,99,0,0,0,0,0,0,0,0,0,-1,1392,925,0,0
175,99,0,0,0,0,0,0,0,0,0,-1,1399,925,0,0
182,99,0,0,0,0,0,0,0,0,0,-1,1406,925,0,0
189,99,0,0,0,0,0,0,0,0,0,-1,1413,925,0,0
196,99,0,0,0,0,0,0,0,0,0,-1,1420,925,0,0
203,99,0,0,0,0,0,0,0,0,0,-1,1427,925,0,0
210,99,0,0,0,0,0,0,0,0,0,-1,1434,925,0,0
217,99,0,0,0,0,0,0,0,0,0,-1,1441,925,0,0
224,99,0,0,0,0,0,0,0,0,0,-1,1448,925,0,0
231,99,0,0,0,0,0,0,0,0,0,-1,1455,925,0,0
238,99,0,0,0,0,0,0,0,0,0,-1,1462,925,0,0
245,99,0,0,0,0,0,0,0,0,0,-1,1469,925,0,0
252,99,0,0,0,0,0,0,0,0,0,-1,1476,925,0,0
259,99,0,0,0,0,0,0,0,0,0,-1,1483,925,0,0
266,99,0,0,0,0,0,0,0,0,0,-1,1490,925,0,0
273,99,0,0,0,0,0,0,0,0,0,-1,1497,925,0,0
280,99,0,0,0,0,0,0,0,0,0,-1,1504,925,0,0
287,99,0,0,0,0,0,0,0,0,0,-1,1511,925,0,0
294,99,0,0,0,0,0,0,0,0,0,-1,1518,925,0,0
301,99,0,0,0,0,0,0,0,0,0,-1,1525,925,0,0
308,99,0,0,0,0,0,0,0,0,0,-1,1532,925,0,0
315,99,0,0,0,0,0,0,0,0,0,-1,1539,925,0,0
322,99,0,0,0,0,0,0,0,0,0,-1,1546,925,0,0
329,99,0,0,0,0,0,0,0,0,0,-1,1553,925,0,0
336,99,0,0,0,0,0,0,0,0,0,-1,1560,925,0,0
343,99,0,0,0,0,0,0,0,0,0,-1,1567,925,0,0
350,99,0,0,0,0,0,0,0,0,0,-1,1574,925,0,0
357,99,0,0,0,0,0,0,0,0,0,-1,1581,925,0,0
364,99,0,0,0,0,0,0,0,0,0,-1,1588,925,0,0
371,99,0,0,0,0,0,0,0,0,0,-1,1595,925,0,0
378,99,0,0,0,0,0,0,0,0,0,-1,1602,925,0,0
385,99,0,0,0,0,0,0,0,0,0,-1,1609,925,0,0
392,99,0,0,0,0,0,0,0,0,0,-1,1616,925,0,0
399,99,0,0,0,0,0,0,0,0,0,-1,1623,925,0,0
406,99,0,0,0,0,0,0,0,0,0,-1,1630,925,0,0
413,99,0,0,0,0,0,0,0,0,0,-1,1637,925,0,0
420,99,0,0,0,0,0,0,0,0,0,-1,1644,925,0,0
427,99,0,0,0,0,0,0,0,0,0,-1,1651,925,0,0
434,99,0,0,0,0,0,0,0,0,0,-1,1658,925,0,0
441,99,0,0,0,0,0,0,0,0,0,-1,1665,925,0,0
448,99,0,0,0,0,0,0,0,0,0,-1,1672,925,0,0
455,99,0,0,0,0,0,0,0,0,0,-1,1679,925,0,0
462,99,0,0,0,0,0,0,0,0,0,-1,1686,925,0,0
469,99,0,0,0,0,0,0,0,0,0,-1,1693,925,0,0
476,99,0,0,0,0,0,0,0,0,0,-1,1700,925,0,0
483,99,0,0,0,0,0,0,0,0,0,-1,1707,925,0,0
490,99,0,0,0,0,0,0,0,0,0,-1,1714,925,0,0
497,99,0,0,0,0,0,0,0,0,0,-1,1721,925,0,0
504,99,0,0,0,0,0,0,0,0,0,-1,1728,925,0,0
511,99,0,0,0,0,0,0,0,0,0,-1,1735,925,0,0
518,99,0,0,0,0,0,0,0,0,0,-1,1742,925,0,0
525,99,0,0,0,0,0,0,0,0,0,-1,1749,925,0,0
532,99,0,0,0,0,0,0,0,0,0,-1,1756,925,0,0
539,99,0,0,0,0,0,0,0,0,0,-1,1763,925,0,0
546,99,0,0,0,0,0,0,0,0,0,-1,1770,925,0,0
553,99,0,0,0,0,0,0,0,0,0,-1,1777,925,0,0
560,99,0,0,0,0,0,0,0,0,0,-1,1784,925,0,0
567,99,0,0,0,0,0,0,0,0,0,-1,1791,925,0,0
574,99,0,0,0,0,0,0,0,0,0,-1,1798,925,0,0
581,99,0,0,0,0,0,0,0,0,0,-1,1805,925,0,0
588,99,0,0,0,0,0,0,0,0,0,-1,1812,925,0,0
595,99,0,0,0,0,0,0,0,0,0,-1,1819,925,0,0
602,99,0,0,0,0,0,0,0,0,0,-1,1826,925,0,0
609,99,0,0,0,0,0,0,0,0,0,-1,1833,925,0,0
616,99,0,0,0,0,0,0,0,0,0,-1,1840,925,0,0
623,99,0,0,0,0,0,0,0,0,0,-1,1847,925,0,0
630,99,0,0,0,0,0,0,0,0,0,-1,1854,925,0,0
637,99,82.0713,2.58746,0,0,0,0,0,0,0,-1,1861,925,82.0712,-2.58748
644,99,82.2844,2.26117,0.00461174,0.00398258,-0.00302668,0.00734015,0.00125418,-0.733616,0.00453357,0.0370602,1868,925,82.2844,-2.26115
651,99,82.4675,2.07037,0.00257259,0.00379794,-0.0020735,0.00534739,0.00102315,-0.92905,0.00327755,0.0385144,1875,925,82.4676,-2.07035
658,99,82.4122,2.26233,0.00100046,0.00360038,-0.001128,0.00402155,0.000579294,-1.21345,0.00251031,0.0413565,1882,925,82.4122,-2.26232
665,99,82.1796,2.43225,-8.01253e-05,0.00350391,-0.000332256,0.00353445,-0.000110667,-1.47913,0.00239404,0.0428954,1889,925,82.1795,-2.43223
672,99,82.2594,2.36859,-0.00093428,0.00305572,0.000120032,0.00305933,-0.000937888,1.54075,0.0024137,0.0426957,1896,925,82.2594,-2.36857
679,99,82.2505,2.37292,-0.00154126,0.00235201,0.000279769,0.00237201,-0.00156126,1.49943,0.0022869,0.0364971,1903,925,82.2505,-2.37293
686,99,82.1954,2.39453,-0.00189879,0.00186087,1.59174e-05,0.00186094,-0.00189886,1.56656,0.00217076,0.0296914,1910,925,82.1954,-2.39455
693,99,82.2183,2.46375,-0.00242681,0.00163345,-0.000399329,0.00167236,-0.00246571,-1.47369,0.0024037,0.0354837,1917,925,82.2183,-2.46372
700,99,82.1993,2.52338,0,0,0,0,0,0,0,-1,1924,925,82.1993,-2.5234
707,99,47.9915,3.27429,0,0,0,0,0,0,0,-1,1931,925,47.9914,-3.27427
714,99,76.386,4.30835,0,0,0,0,0,0,0,-1,1938,925,76.3859,-4.30838
721,99,76.5923,5.29395,-0.00429744,0.00268154,-0.00230139,0.00337212,-0.00498801,-1.27928,0.00485668,0.0384511,1945,925,76.5922,-5.29392
728,99,76.5681,6.10602,-0.0050455,0.00359691,-0.0026174,0.00432779,-0.00577638,-1.29849,0.0058536,0.0314084,1952,925,76.5681,-6.106
735,99,76.4642,6.88251,-0.00594757,0.00486969,-0.00261374,0.00546814,-0.00654602,-1.34572,0.00694567,0.025257,1959,925,76.4643,-6.88252
742,99,76.3527,7.60736,-0.00699565,0.00722532,-0.00239688,0.00761843,-0.00738876,-1.40823,0.00866475,0.0181643,1966,925,76.3527,-7.60737
749,99,76.2673,8.30408,-0.00812357,0.0111271,-0.00121618,0.0112036,-0.0082001,-1.50795,0.0112474,0.0150974,1973,925,76.2673,-8.30409
756,99,76.175,9.00519,-0.00917236,0.0165606,0.00154051,0.0166525,-0.00926426,1.51121,0.0151644,0.0142693,1980,925,76.175,-9.00517
763,99,76.1497,9.74414,-0.0102842,0.022622,0.0056972,0.0235804,-0.0112427,1.40412,0.0205215,0.0183398,1987,925,76.1496,-9.74414
770,99,76.3845,10.4721,-0.0115265,0.0290384,0.0112523,0.0319506,-0.0144387,1.31754,0.0274116,0.0343623,1994,925,76.3846,-10.4721
777,99,76.4932,11.4553,-0.0136421,0.0358387,0.0199079,0.0428538,-0.0206572,1.232,0.0374071,0.0459355,2001,925,76.4931,-11.4553
784,99,76.3362,12.7025,-0.0159403,0.0424625,0.0328626,0.0572232,-0.0307011,1.14864,0.0515272,0.0456358,2008,925,76.3362,-12.7025
791,99,76.1858,13.9862,0,0,0,0,0,0,0,-1,2015,925,76.1859,-13.9862
798,99,75.6328,11.8039,0,0,0,0,0,0,0,-1,2022,925,75.6327,-11.8039
805,99,0,0,0,0,0,0,0,0,0,-1,2029,925,0,0
812,99,0,0,0,0,0,0,0,0,0,-1,2036,925,0,0
-700,92,0,0,0,0,0,0,0,0,0,-1,524,932,0,0
-693,92,0,0,0,0,0,0,0,0,0,-1,531,932,0,0
-686,92,-71.6475,-3.3797,0,0,0,0,0,0,0,-1,538,932,-71.6475,3.3797
-679,92,-69.8624,-2.1322,0,0,0,0,0,0,0,-1,545,932,-69.8624,2.1322
-672,92,-59.2169,9.25281,0,0,0,0,0,0,0,-1,552,932,-59.2169,-9.25281
-665,92,-58.6809,9.84479,0,0,0,0,0,0,0,-1,559,932,-58.6809,-9.8448
-658,92,-58.4986,10.1044,0,0,0,0,0,0,0,-1,566,932,-58.4986,-10.1044
-651,92,-58.3638,10.0627,0,0,0,0,0,0,0,-1,573,932,-58.3637,-10.0627
-644,92,-61.1059,10.3257,0,0,0,0,0,0,0,-1,580,932,-61.1059,-10.3257
-637,92,-60.8494,9.9444,-0.00240647,0.0317575,0.010031,0.034485,-0.00513393,1.30531,0.0248785,0.035053,587,932,-60.8493,-9.94441
-630,92,-60.7939,9.36395,-0.00431416,0.0218185,0.0102522,0.0253605,-0.00785616,1.23815,0.0200456,0.0170702,594,932,-60.7939,-9.36397
-623,92,-60.9796,8.64667,-0.00382102,0.0148018,0.00869668,0.0182314,-0.00725068,1.19516,0.0151606,0.0117119,601,932,-60.9796,-8.64665
-616,92,-61.0285,7.92609,-0.00210653,0.00927236,0.00701339,0.0126138,-0.005448,1.12617,0.0106981,0.0108435,608,932,-61.0285,-7.92612
-609,92,-61.0704,7.20813,-0.00144017,0.00519832,0.00561405,0.00840096,-0.00464281,1.05237,0.00763431,0.00934353,615,932,-61.0704,-7.20812
-602,92,-61.0591,6.46521,-0.00143841,0.00282685,0.00449532,0.00566976,-0.00428132,1.00688,0.00576387,0.012604,622,932,-61.0591,-6.4652
-595,92,-60.9858,5.63055,-0.00108069,0.00165768,0.00369945,0.00423319,-0.00365619,0.962634,0.004559,0.026451,629,932,-60.9858,-5.63055
-588,92,-60.9471,4.8866,-0.000826105,0.00103296,0.00313469,0.00337303,-0.00316617,0.929534,0.00377604,0.0371355,636,932,-60.9472,-4.88662
-581,92,-61.7637,4.08655,0,0,0,0,0,0,0,-1,643,932,-61.7637,-4.08655
-574,92,-62.7846,3.14624,0,0,0,0,0,0,0,-1,650,932,-62.7846,-3.14624
-567,92,-65.4809,0.559814,0,0,0,0,0,0,0,-1,657,932,-65.4809,-0.559843
-560,92,-65.4411,0.512085,0.000143419,-0.000806106,0.00109788,0.000864791,-0.00152748,0.581322,0.00139873,0.0399724,664,932,-65.4411,-0.512067
-553,92,-65.5458,0.493958,2.66438e-05,-0.000631645,0.000741093,0.000508397,-0.0011134,0.576416,0.000957815,0.0395696,671,932,-65.5459,-0.493973
-546,92,-65.5775,0.443481,2.22178e-06,-9.38202e-05,0.000507484,0.000463952,-0.00055555,0.738226,0.000589401,0.0392644,678,932,-65.5774,-0.443464
-539,92,-65.5943,0.540405,0.000316996,0.000629063,0.0004314,0.000931781,1.42779e-05,0.958924,0.000616483,0.0375774,685,932,-65.5943,-0.5404
-532,92,-65.7374,0.777222,0.001374,0.000987733,0.000607763,0.00181858,0.000543155,0.631554,0.00107796,0.0450248,692,932,-65.7374,-0.777197
-525,92,-65.7355,0.779114,0.0023857,0.00102253,0.000653405,0.00264831,0.000759923,0.382145,0.00157459,0.0414431,699,932,-65.7355,-0.779134
-518,92,-65.6559,0.595581,0.00315063,0.000986298,0.000442402,0.00323756,0.00089936,0.19404,0.00192976,0.0392162,706,932,-65.6559,-0.595607
-511,92,0,0,0,0,0,0,0,0,0,-1,713,932,0,0
-504,92,0,0,0,0,0,0,0,0,0,-1,720,932,0,0
-497,92,0,0,0,0,0,0,0,0,0,-1,727,932,0,0
-490,92,0,0,0,0,0,0,0,0,0,-1,734,932,0,0
-483,92,0,0,0,0,0,0,0,0,0,-1,741,932,0,0
-476,92,0,0,0,0,0,0,0,0,0,-1,748,932,0,0
-469,92,0,0,0,0,0,0,0,0,0,-1,755,932,0,0
-462,92,0,0,0,0,0,0,0,0,0,-1,762,932,0,0
-455,92,0,0,0,0,0,0,0,0,0,-1,769,932,0,0
-448,92,0,0,0,0,0,0,0,0,0,-1,776,932,0,0
-441,92,0,0,0,0,0,0,0,0,0,-1,783,932,0,0
-434,92,0,0,0,0,0,0,0,0,0,-1,790,932,0,0
-427,92,0,0,0,0,0,0,0,0,0,-1,797,932,0,0
-420,92,0,0,0,0,0,0,0,0,0,-1,804,932,0,0
-413,92,0,0,0,0,0,0,0,0,0,-1,811,932,0,0
-406,92,0,0,0,0,0,0,0,0,0,-1,818,932,0,0
-399,92,0,0,0,0,0,0,0,0,0,-1,825,932,0,0
-392,92,0,0,0,0,0,0,0,0,0,-1,832,932,0,0
-385,92,0,0,0,0,0,0,0,0,0,-1,839,932,0,0
-378,92,0,0,0,0,0,0,0,0,0,-1,846,932,0,0
-371,92,0,0,0,0,0,0,0,0,0,-1,853,932,0,0
-364,92,0,0,0,0,0,0,0,0,0,-1,860,932,0,0
-357,92,0,0,0,0,0,0,0,0,0,-1,867,932,0,0
-350,92,0,0,0,0,0,0,0,0,0,-1,874,932,0,0
-343,92,0,0,0,0,0,0,0,0,0,-1,881,932,0,0
-336,92,0,0,0,0,0,0,0,0,0,-1,888,932,0,0
-329,92,0,0,0,0,0,0,0,0,0,-1,895,932,0,0
-322,92,0,0,0,0,0,0,0,0,0,-1,902,932,0,0
-315,92,0,0,0,0,0,0,0,0,0,-1,909,932,0,0
-308,92,0,0,0,0,0,0,0,0,0,-1,916,932,0,0
-301,92,0,0,0,0,0,0,0,0,0,-1,923,932,0,0
-294,92,0,0,0,0,0,0,0,0,0,-1,930,932,0,0
-287,92,0,0,0,0,0,0,0,0,0,-1,937,932,0,0
-280,92,0,0,0,0,0,0,0,0,0,-1,944,932,0,0
-273,92,0,0,0,0,0,0,0,0,0,-1,951,932,0,0
-266,92,0,0,0,0,0,0,0,0,0,-1,958,932,0,0
-259,92,0,0,0,0,0,0,0,0,0,-1,965,932,0,0
-252,92,0,0,0,0,0,0,0,0,0,-1,972,932,0,0
-245,92,0,0,0,0,0,0,0,0,0,-1,979,932,0,0
-238,92,0,0,0,0,0,0,0,0,0,-1,986,932,0,0
-231,92,0,0,0,0,0,0,0,0,0,-1,993,932,0,0
-224,92,0,0,0,0,0,0,0,0,0,-1,1000,932,0,0
-217,92,0,0,0,0,0,0,0,0,0,-1,1007,932,0,0
-210,92,0,0,0,0,0,0,0,0,0,-1,1014,932,0,0
-203,92,0,0,0,0,0,0,0,0,0,-1,1021,932,0,0
-196,92,0,0,0,0,0,0,0,0,0,-1,1028,932,0,0
-189,92,0,0,0,0,0,0,0,0,0,-1,1035,932,0,0
-182,92,0,0,0,0,0,0,0,0,0,-1,1042,932,0,0
-175,92,0,0,0,0,0,0,0,0,0,-1,1049,932,0,0
-168,92,0,0,0,0,0,0,0,0,0,-1,1056,932,0,0
-161,92,0,0,0,0,0,0,0,0,0,-1,1063,932,0,0
-154,92,0,0,0,0,0,0,0,0,0,-1,1070,932,0,0
-147,92,0,0,0,0,0,0,0,0,0,-1,1077,932,0,0
-140,92,0,0,0,0,0,0,0,0,0,-1,1084,932,0,0
-133,92,0,0,0,0,0,0,0,0,0,-1,1091,932,0,0
-126,92,0,0,0,0,0,0,0,0,0,-1,1098,932,0,0
-119,92,0,0,0,0,0,0,0,0,0,-1,1105,932,0,0
-112,92,0,0,0,0,0,0,0,0,0,-1,1112,932,0,0
-105,92,0,0,0,0,0,0,0,0,0,-1,1119,932,0,0
-98,92,0,0,0,0,0,0,0,0,0,-1,1126,932,0,0
-91,92,0,0,0,0,0,0,0,0,0,-1,1133,932,0,0
-84,92,0,0,0,0,0,0,0,0,0,-1,1140,932,0,0
-77,92,0,0,0,0,0,0,0,0,0,-1,1147,932,0,0
-70,92,0,0,0,0,0,0,0,0,0,-1,1154,932,0,0
-63,92,0,0,0,0,0,0,0,0,0,-1,1161,932,0,0
-56,92,0,0,0,0,0,0,0,0,0,-1,1168,932,0,0
-49,92,0,0,0,0,0,0,0,0,0,-1,1175,932,0,0
-42,92,0,0,0,0,0,0,0,0,0,-1,1182,932,0,0
-35,92,0,0,0,0,0,0,0,0,0,-1,1189,932,0,0
-28,92,0,0,0,0,0,0,0,0,0,-1,1196,932,0,0
-21,92,0,0,0,0,0,0,0,0,0,-1,1203,932,0,0
-14,92,0,0,0,0,0,0,0,0,0,-1,1210,932,0,0
-7,92,0,0,0,0,0,0,0,0,0,-1,1217,932,0,0
0,92,0,0,0,0,0,0,0,0,0,-1,1224,932,0,0
7,92,0,0,0,0,0,0,0,0,0,-1,1231,932,0,0
14,92,0,0,0,0,0,0,0,0,0,-1,1238,932,0,0
21,92,0,0,0,0,0,0,0,0,0,-1,1245,932,0,0
28,92,0,0,0,0,0,0,0,0,0,-1,1252,932,0,0
35,92,0,0,0,0,0,0,0,0,0,-1,1259,932,0,0
42,92,0,0,0,0,0,0,0,0,0,-1,1266,932,0,0
49,92,0,0,0,0,0,0,0,0,0,-1,1273,932,0,0
56,92,0,0,0,0,0,0,0,0,0,-1,1280,932,0,0
63,92,0,0,0,0,0,0,0,0,0,-1,1287,932,0,0
70,92,0,0,0,0,0,0,0,0,0,-1,1294,932,0,0
77,92,0,0,0,0,0,0,0,0,0,-1,1301,932,0,0
84,92,0,0,0,0,0,0,0,0,0,-1,1308,932,0,0
91,92,0,0,0,0,0,0,0,0,0,-1,1315,932,0,0
98,92,0,0,0,0,0,0,0,0,0,-1,1322,932,0,0
105,92,0,0,0,0,0,0,0,0,0,-1,1329,932,0,0
112,92,0,0,0,0,0,0,0,0,0,-1,1336,932,0,0
119,92,0,0,0,0,0,0,0,0,0,-1,1343,932,0,0
126,92,0,0,0,0,0,0,0,0,0,-1,1350,932,0,0
133,92,0,0,0,0,0,0,0,0,0,-1,1357,932,0,0
140,92,0,0,0,0,0,0,0,0,0,-1,1364,932,0,0
147,92,0,0,0,0,0,0,0,0,0,-1,1371,932,0,0
154,92,0,0,0,0,0,0,0,0,0,-1,1378,932,0,0
161,92,0,0,0,0,0,0,0,0,0,-1,1385,932,0,0
168,92,0,0,0,0,0,0,0,0,0,-1,1392,932,0,0
175,92,0,0,0,0,0,0,0,0,0,-1,1399,932,0,0
182,92,0,0,0,0,0,0,0,0,0,-1,1406,932,0,0
189,92,0,0,0,0,0,0,0,0,0,-1,1413,932,0,0
196,92,0,0,0,0,0,0,0,0,0,-1,1420,932,0,0
203,92,0,0,0,0,0,0,0,0,0,-1,1427,932,0,0
210,92,0,0,0,0,0,0,0,0,0,-1,1434,932,0,0
217,92,0,0,0,0,0,0,0,0,0,-1,1441,932,0,0
224,92,0,0,0,0,0,0,0,0,0,-1,1448,932,0,0
231,92,0,0,0,0,0,0,0,0,0,-1,1455,932,0,0
238,92,0,0,0,0,0,0,0,0,0,-1,1462,932,0,0
245,92,0,0,0,0,0,0,0,0,0,-1,1469,932,0,0
252,92,0,0,0,0,0,0,0,0,0,-1,1476,932,0,0
259,92,0,0,0,0,0,0,0,0,0,-1,1483,932,0,0
266,92,0,0,0,0,0,0,0,0,0,-1,1490,932,0,0
273,92,0,0,0,0,0,0,0,0,0,-1,1497,932,0,0
280,92,0,0,0,0,0,0,0,0,0,-1,1504,932,0,0
287,92,0,0,0,0,0,0,0,0,0,-1,1511,932,0,0
294,92,0,0,0,0,0,0,0,0,0,-1,1518,932,0,0
301,92,0,0,0,0,0,0,0,0,0,-1,1525,932,0,0
308,92,0,0,0,0,0,0,0,0,0,-1,1532,932,0,0
315,92,0,0,0,0,0,0,0,0,0,-1,1539,932,0,0
322,92,0,0,0,0,0,0,0,0,0,-1,1546,932,0,0
329,92,0,0,0,0,0,0,0,0,0,-1,1553,932,0,0
336,92,0,0,0,0,0,0,0,0,0,-1,1560,932,0,0
343,92,0,0,0,0,0,0,0,0,0,-1,1567,932,0,0
350,92,0,0,0,0,0,0,0,0,0,-1,1574,932,0,0
357,92,0,0,0,0,0,0,0,0,0,-1,1581,932,0,0
364,92,0,0,0,0,0,0,0,0,0,-1,1588,932,0,0
371,92,0,0,0,0,0,0,0,0,0,-1,1595,932,0,0
378,92,0,0,0,0,0,0,0,0,0,-1,1602,932,0,0
385,92,0,0,0,0,0,0,0,0,0,-1,1609,932,0,0
392,92,0,0,0,0,0,0,0,0,0,-1,1616,932,0,0
399,92,0,0,0,0,0,0,0,0,0,-1,1623,932,0,0
406,92,0,0,0,0,0,0,0,0,0,-1,1630,932,0,0
413,92,0,0,0,0,0,0,0,0,0,-1,1637,932,0,0
420,92,0,0,0,0,0,0,0,0,0,-1,1644,932,0,0
427,92,0,0,0,0,0,0,0,0,0,-1,1651,932,0,0
434,92,0,0,0,0,0,0,0,0,0,-1,1658,932,0,0
441,92,0,0,0,0,0,0,0,0,0,-1,1665,932,0,0
448,92,0,0,0,0,0,0,0,0,0,-1,1672,932,0,0
455,92,0,0,0,0,0,0,0,0,0,-1,1679,932,0,0
462,92,0,0,0,0,0,0,0,0,0,-1,1686,932,0,0
469,92,0,0,0,0,0,0,0,0,0,-1,1693,932,0,0
476,92,0,0,0,0,0,0,0,0,0,-1,1700,932,0,0
483,92,0,0,0,0,0,0,0,0,0,-1,1707,932,0,0
490,92,0,0,0,0,0,0,0,0,0,-1,1714,932,0,0
497,92,0,0,0,0,0,0,0,0,0,-1,1721,932,0,0
504,92,0,0,0,0,0,0,0,0,0,-1,1728,932,0,0
511,92,0,0,0,0,0,0,0,0,0,-1,1735,932,0,0
518,92,0,0,0,0,0,0,0,0,0,-1,1742,932,0,0
525,92,0,0,0,0,0,0,0,0,0,-1,1749,932,0,0
532,92,0,0,0,0,0,0,0,0,0,-1,1756,932,0,0
539,92,0,0,0,0,0,0,0,0,0,-1,1763,932,0,0
546,92,0,0,0,0,0,0,0,0,0,-1,1770,932,0,0
553,92,0,0,0,0,0,0,0,0,0,-1,1777,932,0,0
560,92,0,0,0,0,0,0,0,0,0,-1,1784,932,0,0
567,92,0,0,0,0,0,0,0,0,0,-1,1791,932,0,0
574,92,0,0,0,0,0,0,0,0,0,-1,1798,932,0,0
581,92,0,0,0,0,0,0,0,0,0,-1,1805,932,0,0
588,92,0,0,0,0,0,0,0,0,0,-1,1812,932,0,0
595,92,0,0,0,0,0,0,0,0,0,-1,1819,932,0,0
602,92,0,0,0,0,0,0,0,0,0,-1,1826,932,0,0
609,92,0,0,0,0,0,0,0,0,0,-1,1833,932,0,0
616,92,0,0,0,0,0,0,0,0,0,-1,1840,932,0,0
623,92,0,0,0,0,0,0,0,0,0,-1,1847,932,0,0
630,92,0,0,0,0,0,0,0,0,0,-1,1854,932,0,0
637,92,82.1124,2.32245,0.00751715,0.0042005,-0.00411259,0.0102932,0.00142447,-0.593753,0.00644002,0.0474388,1861,932,82.1124,-2.32243
644,92,82.3059,2.29163,0.00462792,0.00401367,-0.00295661,0.00729332,0.00134827,-0.733645,0.00448092,0.0373301,1868,932,82.3059,-2.2916
651,92,82.5189,2.27832,0.00255877,0.00367441,-0.00194433,0.00513936,0.00109383,-0.925094,0.00312609,0.0392833,1875,932,82.5189,-2.27831
658,92,82.3983,2.37463,0.00106466,0.00344413,-0.00099366,0.0038045,0.000704287,-1.22288,0.00233721,0.044007,1882,932,82.3983,-2.37462
665,92,82.3383,2.1828,5.34953e-05,0.00333545,-0.000191191,0.00334655,4.23949e-05,-1.5128,0.00221704,0.0425976,1889,932,82.3383,-2.18282
672,92,82.2603,2.36621,-0.000805575,0.00294911,0.000343727,0.00298031,-0.000836782,1.48025,0.00231674,0.0405899,1896,932,82.2602,-2.36621
679,92,82.1826,2.39661,-0.00144757,0.00224247,0.000612591,0.00234151,-0.00154661,1.41051,0.00226039,0.0373556,1903,932,82.1826,-2.39658
686,92,82.1598,2.40485,-0.00180318,0.0016864,0.000398675,0.00173137,-0.00184815,1.45848,0.00206701,0.0301537,1910,932,82.1599,-2.40486
693,92,82.2452,2.47314,-0.00234397,0.00138272,3.17296e-06,0.00138272,-0.00234397,1.56994,0.00217533,0.0279617,1917,932,82.2452,-2.47317
700,92,82.2902,2.58588,0,0,0,0,0,0,0,-1,1924,932,82.2901,-2.58585
707,92,32.9893,3.26874,0,0,0,0,0,0,0,-1,1931,932,32.9893,-3.26874
714,92,77.7365,4.67102,0,0,0,0,0,0,0,-1,1938,932,77.7365,-4.67105
721,92,77.514,5.53381,-0.00460152,0.00261748,-0.0020057,0.00313731,-0.00512135,-1.3172,0.00481378,0.0384553,1945,932,77.514,-5.53379
728,92,77.2798,6.2655,-0.00540208,0.00366269,-0.00229634,0.00421122,-0.0059506,-1.33632,0.00589551,0.03124,1952,932,77.2798,-6.2655
735,92,77.2258,6.95166,-0.00636497,0.00501423,-0.00230618,0.00546385,-0.00681459,-1.37825,0.00710325,0.0253676,1959,932,77.2258,-6.95167
742,92,77.2262,7.60626,-0.00754994,0.00732397,-0.00221765,0.00764757,-0.00787354,-1.4259,0.00896144,0.0264797,1966,932,77.2262,-7.60628
749,92,77.1221,8.3031,-0.00888534,0.0111308,-0.00136443,0.0112233,-0.00897792,-1.50305,0.0116872,0.022264,1973,932,77.1221,-8.3031
756,92,76.9795,8.96588,-0.0101863,0.0165664,0.000940966,0.0165994,-0.0102194,1.53568,0.0156292,0.0164783,1980,932,76.9795,-8.96586
763,92,76.9653,9.64362,-0.0115419,0.0228318,0.00467268,0.0234557,-0.0121658,1.43807,0.0209075,0.0183508,1987,932,76.9654,-9.64362
770,92,76.9653,10.1995,-0.0130509,0.0293396,0.00965746,0.0314361,-0.0151474,1.35703,0.0274376,0.0279722,1994,932,76.9654,-10.1995
777,92,77.1848,10.8585,-0.0154405,0.0362145,0.0172391,0.0414393,-0.0206654,1.27652,0.0365187,0.0466277,2001,932,77.1848,-10.8585
784,92,76.562,12.6027,-0.0179165,0.0429588,0.0286059,0.0542913,-0.029249,1.1936,0.048949,0.046899,2008,932,76.562,-12.6027
791,92,76.6748,14.3865,0,0,0,0,0,0,0,-1,2015,932,76.6749,-14.3865
798,92,78.9453,11.4465,0,0,0,0,0,0,0,-1,2022,932,78.9453,-11.4465
805,92,0,0,0,0,0,0,0,0,0,-1,2029,932,0,0
812,92,0,0,0,0,0,0,0,0,0,-1,2036,932,0,0
-700,85,0,0,0,0,0,0,0,0,0,-1,524,939,0,0
-693,85,0,0,0,0,0,0,0,0,0,-1,531,939,0,0
-686,85,-71.3799,-3.12042,0,0,0,0,0,0,0,-1,538,939,-71.3799,3.1204
-679,85,-70.2184,-2.08044,0,0,0,0,0,0,0,-1,545,939,-70.2184,2.08043
-672,85,-58.9819,8.30292,0,0,0,0,0,0,0,-1,552,939,-58.9819,-8.30292
-665,85,-58.5912,8.72552,0,0,0,0,0,0,0,-1,559,939,-58.5912,-8.7255
-658,85,-58.3745,8.90198,0,0,0,0,0,0,0,-1,566,939,-58.3745,-8.90199
-651,85,-58.5191,9.10278,0,0,0,0,0,0,0,-1,573,939,-58.5191,-9.1028
-644,85,-62.7455,10.2778,0,0,0,0,0,0,0,-1,580,939,-62.7455,-10.2778
-637,85,-62.0435,9.78461,0.00102689,0.0339782,0.00876169,0.0361631,-0.00115795,1.32642,0.0245038,0.039903,587,939,-62.0435,-9.78461
-630,85,-61.6538,9.24243,-0.00197007,0.0229642,0.00956859,0.0262129,-0.00521877,1.24349,0.0194496,0.0172197,594,939,-61.6538,-9.24243
-623,85,-61.7682,8.57892,-0.00221099,0.0152942,0.00825018,0.0185697,-0.00548642,1.19287,0.0145574,0.0113878,601,939,-61.7682,-8.57889
-616,85,-61.8244,7.91547,-0.000899373,0.00948262,0.00673419,0.0127943,-0.00421107,1.11375,0.0102264,0.0113125,608,939,-61.8244,-7.91545
-609,85,-61.8578,7.23279,-0.000475126,0.00530763,0.00545456,0.00858977,-0.00375726,1.02911,0.00730829,0.0131553,615,939,-61.8578,-7.23277
-602,85,-61.8768,6.51996,-0.000518108,0.0028659,0.00438645,0.00587537,-0.00352757,0.969473,0.00548491,0.0179414,622,939,-61.8768,-6.51993
-595,85,-61.789,5.77478,-0.000255957,0.00159147,0.00359116,0.00437582,-0.0030403,0.911279,0.00430478,0.0222058,629,939,-61.789,-5.77475
-588,85,-61.7275,5.01788,-0.000137842,0.00087655,0.00300431,0.00341617,-0.00267747,0.869021,0.00352677,0.0284596,636,939,-61.7275,-5.0179
-581,85,-62.9973,4.30066,0,0,0,0,0,0,0,-1,643,939,-62.9973,-4.30066
-574,85,-57.1787,1.97198,0,0,0,0,0,0,0,-1,650,939,-57.1787,-1.97196
-567,85,-65.4211,0.577698,0,0,0,0,0,0,0,-1,657,939,-65.4211,-0.577689
-560,85,-65.4292,0.513977,0.000118548,-0.000796498,0.000871859,0.00064564,-0.00132359,0.543766,0.00115918,0.0338559,664,939,-65.4292,-0.513954
-553,85,-65.6055,0.539429,-4.94206e-05,-0.000458922,0.000532222,0.000316077,-0.00082442,0.60177,0.00067992,0.0394832,671,939,-65.6055,-0.539439
-546,85,-65.5693,0.531921,-1.17555e-05,0.000189,0.000302662,0.000407495,-0.00023025,0.945516,0.000372913,0.0393274,678,939,-65.5694,-0.531899
-539,85,-65.4748,0.602966,0.000415472,0.000870046,0.000194944,0.000942196,0.000343322,1.21632,0.000550606,0.0383415,685,939,-65.4748,-0.602945
-532,85,-65.5159,0.679382,0.00156786,0.000959122,0.000210089,0.00163333,0.000893656,0.302074,0.000944397,0.0414506,692,939,-65.5159,-0.679398
-525,85,-65.6405,0.577576,0.00268367,0.000788631,7.42887e-05,0.00268658,0.000785723,0.0391216,0.00159502,0.0397635,699,939,-65.6405,-0.577549
-518,85,-65.691,0.589905,0.00358298,0.000540522,-0.000393214,0.00363298,0.000490523,-0.126474,0.00227616,0.0390013,706,939,-65.691,-0.589877
-511,85,0,0,0,0,0,0,0,0,0,-1,713,939,0,0
-504,85,0,0,0,0,0,0,0,0,0,-1,720,939,0,0
-497,85,0,0,0,0,0,0,0,0,0,-1,727,939,0,0
-490,85,0,0,0,0,0,0,0,0,0,-1,734,939,0,0
-483,85,0,0,0,0,0,0,0,0,0,-1,741,939,0,0
-476,85,0,0,0,0,0,0,0,0,0,-1,748,939,0,0
-469,85,0,0,0,0,0,0,0,0,0,-1,755,939,0,0
-462,85,0,0,0,0,0,0,0,0,0,-1,762,939,0,0
-455,85,0,0,0,0,0,0,0,0,0,-1,769,939,0,0
-448,85,0,0,0,0,0,0,0,0,0,-1,776,939,0,0
-441,85,0,0,0,0,0,0,0,0,0,-1,783,939,0,0
-434,85,0,0,0,0,0,0,0,0,0,-1,790,939,0,0
-427,85,0,0,0,0,0,0,0,0,0,-1,797,939,0,0
-420,85,0,0,0,0,0,0,0,0,0,-1,804,939,0,0
-413,85,0,0,0,0,0,0,0,0,0,-1,811,939,0,0
-406,85,0,0,0,0,0,0,0,0,0,-1,818,939,0,0
-399,85,0,0,0,0,0,0,0,0,0,-1,825,939,0,0
-392,85,0,0,0,0,0,0,0,0,0,-1,832,939,0,0
-385,85,0,0,0,0,0,0,0,0,0,-1,839,939,0,0
-378,85,0,0,0,0,0,0,0,0,0,-1,846,939,0,0
-371,85,0,0,0,0,0,0,0,0,0,-1,853,939,0,0
-364,85,0,0,0,0,0,0,0,0,0,-1,860,939,0,0
-357,85,0,0,0,0,0,0,0,0,0,-1,867,939,0,0
-350,85,0,0,0,0,0,0,0,0,0,-1,874,939,0,0
-343,85,0,0,0,0,0,0,0,0,0,-1,881,939,0,0
-336,85,0,0,0,0,0,0,0,0,0,-1,888,939,0,0
-329,85,0,0,0,0,0,0,0,0,0,-1,895,939,0,0
-322,85,0,0,0,0,0,0,0,0,0,-1,902,939,0,0
-315,85,0,0,0,0,0,0,0,0,0,-1,909,939,0,0
-308,85,0,0,0,0,0,0,0,0,0,-1,916,939,0,0
-301,85,0,0,0,0,0,0,0,0,0,-1,923,939,0,0
-294,85,0,0,0,0,0,0,0,0,0,-1,930,939,0,0
-287,85,0,0,0,0,0,0,0,0,0,-1,937,939,0,0
-280,85,0,0,0,0,0,0,0,0,0,-1,944,939,0,0
-273,85,0,0,0,0,0,0,0,0,0,-1,951,939,0,0
-266,85,0,0,0,0,0,0,0,0,0,-1,958,939,0,0
-259,85,0,0,0,0,0,0,0,0,0,-1,965,939,0,0
-252,85,0,0,0,0,0,0,0,0,0,-1,972,939,0,0
-245,85,0,0,0,0,0,0,0,0,0,-1,979,939,0,0
-238,85,0,0,0,0,0,0,0,0,0,-1,986,939,0,0
-231,85,0,0,0,0,0,0,0,0,0,-1,993,939,0,0
-224,85,0,0,0,0,0,0,0,0,0,-1,1000,939,0,0
-217,85,0,0,0,0,0,0,0,0,0,-1,1007,939,0,0
-210,85,0,0,0,0,0,0,0,0,0,-1,1014,939,0,0
-203,85,0,0,0,0,0,0,0,0,0,-1,1021,939,0,0
-196,85,0,0,0,0,0,0,0,0,0,-1,1028,939,0,0
-189,85,0,0,0,0,0,0,0,0,0,-1,1035,939,0,0
-182,85,0,0,0,0,0,0,0,0,0,-1,1042,939,0,0
-175,85,0,0,0,0,0,0,0,0,0,-1,1049,939,0,0
-168,85,0,0,0,0,0,0,0,0,0,-1,1056,939,0,0
-161,85,0,0,0,0,0,0,0,0,0,-1,1063,939,0,0
-154,85,0,0,0,0,0,0,0,0,0,-1,1070,939,0,0
-147,85,0,0,0,0,0,0,0,0,0,-1,1077,939,0,0
-140,85,0,0,0,0,0,0,0,0,0,-1,1084,939,0,0
-133,85,0,0,0,0,0,0,0,0,0,-1,1091,939,0,0
-126,85,0,0,0,0,0,0,0,0,0,-1,1098,939,0,0
-119,85,0,0,0,0,0,0,0,0,0,-1,1105,939,0,0
-112,85,0,0,0,0,0,0,0,0,0,-1,1112,939,0,0
-105,85,0,0,0,0,0,0,0,0,0,-1,1119,939,0,0
-98,85,0,0,0,0,0,0,0,0,0,-1,1126,939,0,0
-91,85,0,0,0,0,0,0,0,0,0,-1,1133,939,0,0
-84,85,0,0,0,0,0,0,0,0,0,-1,1140,939,0,0
-77,85,0,0,0,0,0,0,0,0,0,-1,1147,939,0,0
-70,85,0,0,0,0,0,0,0,0,0,-1,1154,939,0,0
-63,85,0,0,0,0,0,0,0,0,0,-1,1161,939,0,0
-56,85,0,0,0,0,0,0,0,0,0,-1,1168,939,0,0
-49,85,0,0,0,0,0,0,0,0,0,-1,1175,939,0,0
-42,85,0,0,0,0,0,0,0,0,0,-1,1182,939,0,0
-35,85,0,0,0,0,0,0,0,0,0,-1,1189,939,0,0
-28,85,0,0,0,0,0,0,0,0,0,-1,1196,939,0,0
-21,85,0,0,0,0,0,0,0,0,0,-1,1203,939,0,0
-14,85,0,0,0,0,0,0,0,0,0,-1,1210,939,0,0
-7,85,0,0,0,0,0,0,0,0,0,-1,1217,939,0,0
0,85,0,0,0,0,0,0,0,0,0,-1,1224,939,0,0
7,85,0,0,0,0,0,0,0,0,0,-1,1231,939,0,0
14,85,0,0,0,0,0,0,0,0,0,-1,1238,939,0,0
21,85,0,0,0,0,0,0,0,0,0,-1,1245,939,0,0
28,85,0,0,0,0,0,0,0,0,0,-1,1252,939,0,0
35,85,0,0,0,0,0,0,0,0,0,-1,1259,939,0,0
42,85,0,0,0,0,0,0,0,0,0,-1,1266,939,0,0
49,85,0,0,0,0,0,0,0,0,0,-1,1273,939,0,0
56,85,0,0,0,0,0,0,0,0,0,-1,1280,939,0,0
63,85,0,0,0,0,0,0,0,0,0,-1,1287,939,0,0
70,85,0,0,0,0,0,0,0,0,0,-1,1294,939,0,0
77,85,0,0,0,0,0,0,0,0,0,-1,1301,939,0,0
84,85,0,0,0,0,0,0,0,0,0,-1,1308,939,0,0
91,85,0,0,0,0,0,0,0,0,0,-1,1315,939,0,0
98,85,0,0,0,0,0,0,0,0,0,-1,1322,939,0,0
105,85,0,0,0,0,0,0,0,0,0,-1,1329,939,0,0
112,85,0,0,0,0,0,0,0,0,0,-1,1336,939,0,0
119,85,0,0,0,0,0,0,0,0,0,-1,1343,939,0,0
126,85,0,0,0,0,0,0,0,0,0,-1,1350,939,0,0
133,85,0,0,0,0,0,0,0,0,0,-1,1357,939,0,0
140,85,0,0,0,0,0,0,0,0,0,-1,1364,939,0,0
147,85,0,0,0,0,0,0,0,0,0,-1,1371,939,0,0
154,85,0,0,0,0,0,0,0,0,0,-1,1378,939,0,0
161,85,0,0,0,0,0,0,0,0,0,-1,1385,939,0,0
168,85,0,0,0,0,0,0,0,0,0,-1,1392,939,0,0
175,85,0,0,0,0,0,0,0,0,0,-1,1399,939,0,0
182,85,0,0,0,0,0,0,0,0,0,-1,1406,939,0,0
189,85,0,0,0,0,0,0,0,0,0,-1,1413,939,0,0
196,85,0,0,0,0,0,0,0,0,0,-1,1420,939,0,0
203,85,0,0,0,0,0,0,0,0,0,-1,1427,939,0,0
210,85,0,0,0,0,0,0,0,0,0,-1,1434,939,0,0
217,85,0,0,0,0,0,0,0,0,0,-1,1441,939,0,0
224,85,0,0,0,0,0,0,0,0,0,-1,1448,939,0,0
231,85,0,0,0,0,0,0,0,0,0,-1,1455,939,0,0
238,85,0,0,0,0,0,0,0,0,0,-1,1462,939,0,0
245,85,0,0,0,0,0,0,0,0,0,-1,1469,939,0,0
252,85,0,0,0,0,0,0,0,0,0,-1,1476,939,0,0
259,85,0,0,0,0,0,0,0,0,0,-1,1483,939,0,0
266,85,0,0,0,0,0,0,0,0,0,-1,1490,939,0,0
273,85,0,0,0,0,0,0,0,0,0,-1,1497,939,0,0
280,85,0,0,0,0,0,0,0,0,0,-1,1504,939,0,0
287,85,0,0,0,0,0,0,0,0,0,-1,1511,939,0,0
294,85,0,0,0,0,0,0,0,0,0,-1,1518,939,0,0
301,85,0,0,0,0,0,0,0,0,0,-1,1525,939,0,0
308,85,0,0,0,0,0,0,0,0,0,-1,1532,939,0,0
315,85,0,0,0,0,0,0,0,0,0,-1,1539,939,0,0
322,85,0,0,0,0,0,0,0,0,0,-1,1546,939,0,0
329,85,0,0,0,0,0,0,0,0,0,-1,1553,939,0,0
336,85,0,0,0,0,0,0,0,0,0,-1,1560,939,0,0
343,85,0,0,0,0,0,0,0,0,0,-1,1567,939,0,0
350,85,0,0,0,0,0,0,0,0,0,-1,1574,939,0,0
357,85,0,0,0,0,0,0,0,0,0,-1,1581,939,0,0
364,85,0,0,0,0,0,0,0,0,0,-1,1588,939,0,0
371,85,0,0,0,0,0,0,0,0,0,-1,1595,939,0,0
378,85,0,0,0,0,0,0,0,0,0,-1,1602,939,0,0
385,85,0,0,0,0,0,0,0,0,0,-1,1609,939,0,0
392,85,0,0,0,0,0,0,0,0,0,-1,1616,939,0,0
399,85,0,0,0,0,0,0,0,0,0,-1,1623,939,0,0
406,85,0,0,0,0,0,0,0,0,0,-1,1630,939,0,0
413,85,0,0,0,0,0,0,0,0,0,-1,1637,939,0,0
420,85,0,0,0,0,0,0,0,0,0,-1,1644,939,0,0
427,85,0,0,0,0,0,0,0,0,0,-1,1651,939,0,0
434,85,0,0,0,0,0,0,0,0,0,-1,1658,939,0,0
441,85,0,0,0,0,0,0,0,0,0,-1,1665,939,0,0
448,85,0,0,0,0,0,0,0,0,0,-1,1672,939,0,0
455,85,0,0,0,0,0,0,0,0,0,-1,1679,939,0,0
462,85,0,0,0,0,0,0,0,0,0,-1,1686,939,0,0
469,85,0,0,0,0,0,0,0,0,0,-1,1693,939,0,0
476,85,0,0,0,0,0,0,0,0,0,-1,1700,939,0,0
483,85,0,0,0,0,0,0,0,0,0,-1,1707,939,0,0
490,85,0,0,0,0,0,0,0,0,0,-1,1714,939,0,0
497,85,0,0,0,0,0,0,0,0,0,-1,1721,939,0,0
504,85,0,0,0,0,0,0,0,0,0,-1,1728,939,0,0
511,85,0,0,0,0,0,0,0,0,0,-1,1735,939,0,0
518,85,0,0,0,0,0,0,0,0,0,-1,1742,939,0,0
525,85,0,0,0,0,0,0,0,0,0,-1,1749,939,0,0
532,85,0,0,0,0,0,0,0,0,0,-1,1756,939,0,0
539,85,0,0,0,0,0,0,0,0,0,-1,1763,939,0,0
546,85,0,0,0,0,0,0,0,0,0,-1,1770,939,0,0
553,85,0,0,0,0,0,0,0,0,0,-1,1777,939,0,0
560,85,0,0,0,0,0,0,0,0,0,-1,1784,939,0,0
567,85,0,0,0,0,0,0,0,0,0,-1,1791,939,0,0
574,85,0,0,0,0,0,0,0,0,0,-1,1798,939,0,0
581,85,0,0,0,0,0,0,0,0,0,-1,1805,939,0,0
588,85,0,0,0,0,0,0,0,0,0,-1,1812,939,0,0
595,85,0,0,0,0,0,0,0,0,0,-1,1819,939,0,0
602,85,0,0,0,0,0,0,0,0,0,-1,1826,939,0,0
609,85,0,0,0,0,0,0,0,0,0,-1,1833,939,0,0
616,85,0,0,0,0,0,0,0,0,0,-1,1840,939,0,0
623,85,0,0,0,0,0,0,0,0,0,-1,1847,939,0,0
630,85,0,0,0,0,0,0,0,0,0,-1,1854,939,0,0
637,85,82.1918,2.17072,0.00727827,0.00495385,-0.00365181,0.00994835,0.00228377,-0.631338,0.00601722,0.0494708,1861,939,82.1918,-2.17074
644,85,82.3795,2.20782,0.0043068,0.00416764,-0.00251154,0.00674973,0.00172471,-0.77155,0.00404926,0.038976,1868,939,82.3795,-2.20784
651,85,82.4674,2.34607,0.00231648,0.00347554,-0.00157482,0.00457408,0.00121794,-0.961707,0.00273533,0.0399331,1875,939,82.4674,-2.34609
658,85,82.3456,2.37329,0.00098024,0.00307846,-0.000720115,0.00330183,0.000756873,-1.27002,0.00199732,0.0421432,1882,939,82.3456,-2.37326
665,85,82.1732,2.23871,0.00011771,0.00285903,-4.49352e-06,0.00285903,0.000117703,-1.56916,0.00186802,0.0418054,1889,939,82.1732,-2.23869
672,85,82.1471,2.26923,-0.000682158,0.0024364,0.00054667,0.00252946,-0.00077521,1.4022,0.00199555,0.0403612,1896,939,82.1471,-2.2692
679,85,82.0922,2.34973,-0.00129454,0.00168225,0.000880915,0.0019234,-0.00153569,1.30359,0.00200128,0.0394157,1903,939,82.0921,-2.34972
686,85,82.1165,2.43939,-0.00161455,0.00105879,0.000716482,0.00123871,-0.00179447,1.32477,0.00176098,0.0340097,1910,939,82.1164,-2.43942
693,85,82.1764,2.48352,-0.0021608,0.000691469,0.000365505,0.000737562,-0.0022069,1.44535,0.00176913,0.0300964,1917,939,82.1764,-2.48353
700,85,82.2072,2.56177,-0.00302174,0.000536528,1.39684e-05,0.000536583,-0.0030218,1.56687,0.00221516,0.0441959,1924,939,82.2071,-2.56175
707,85,82.3201,2.64417,0,0,0,0,0,0,0,-1,1931,939,82.3201,-2.64413
714,85,78.5934,4.85754,0,0,0,0,0,0,0,-1,1938,939,78.5934,-4.85752
721,85,78.2761,5.65692,-0.00473186,0.00215835,-0.0016439,0.00253046,-0.00510397,-1.34819,0.00449044,0.0351465,1945,939,78.2761,-5.65692
728,85,77.9928,6.53253,-0.00557762,0.0033514,-0.00190005,0.0037389,-0.00596512,-1.36961,0.00565155,0.0422492,1952,939,77.9928,-6.53256
735,85,77.9879,7.05084,-0.00658657,0.00484929,-0.0019203,0.00516313,-0.00690041,-1.40879,0.00698892,0.040351,1959,939,77.9879,-7.05086
742,85,78.042,7.65295,-0.00786323,0.00720661,-0.00191941,0.00744724,-0.00810386,-1.44608,0.0089811,0.0261886,1966,939,78.042,-7.65296
749,85,77.9055,8.31464,-0.00932627,0.0110148,-0.00136838,0.0111064,-0.00941791,-1.50393,0.0118631,0.0176106,1973,939,77.9055,-8.31462
756,85,77.7202,8.92938,-0.0107652,0.0165538,0.000438209,0.0165608,-0.0107722,1.55476,0.0158983,0.0149851,1980,939,77.7203,-8.92937
763,85,77.6538,9.50269,-0.0122348,0.0231712,0.00364381,0.0235423,-0.0126059,1.4693,0.0211862,0.0147318,1987,939,77.6538,-9.50268
770,85,77.5378,10.0077,-0.0138238,0.0300031,0.00796593,0.0314061,-0.0152268,1.39646,0.0274583,0.0218516,1994,939,77.5379,-10.0077
777,85,77.2388,10.8193,-0.0161701,0.0372145,0.0143768,0.0408401,-0.0197956,1.32377,0.0357039,0.045969,2001,939,77.2387,-10.8193
784,85,77.0117,11.7697,0,0,0,0,0,0,0,-1,2008,939,77.0117,-11.7697
791,85,78.5566,11.372,0,0,0,0,0,0,0,-1,2015,939,78.5565,-11.372
798,85,75.4956,11.9659,0,0,0,0,0,0,0,-1,2022,939,75.4955,-11.966
805,85,67.4045,8.44751,0,0,0,0,0,0,0,-1,2029,939,67.4046,-8.4475
812,85,0,0,0,0,0,0,0,0,0,-1,2036,939,0,0
-700,78,0,0,0,0,0,0,0,0,0,-1,524,946,0,0
-693,78,0,0,0,0,0,0,0,0,0,-1,531,946,0,0
-686,78,-71.3092,-3.06555,0,0,0,0,0,0,0,-1,538,946,-71.3092,3.06553
-679,78,-70.2859,-2.42047,0,0,0,0,0,0,0,-1,545,946,-70.2859,2.42045
-672,78,-68.8298,-1.27698,0,0,0,0,0,0,0,-1,552,946,-68.8298,1.27699
-665,78,-58.3835,7.82446,0,0,0,0,0,0,0,-1,559,946,-58.3835,-7.82444
-658,78,-58.2188,7.96997,0,0,0,0,0,0,0,-1,566,946,-58.2188,-7.96998
-651,78,-57.2355,9.40192,0,0,0,0,0,0,0,-1,573,946,-57.2355,-9.40191
-644,78,-63.8397,10.6483,0,0,0,0,0,0,0,-1,580,946,-63.8397,-10.6483
-637,78,-63.0005,9.91473,0.00382483,0.0368149,0.00763267,0.0384952,0.0021445,1.3541,0.0249794,0.0396815,587,946,-63.0005,-9.9147
-630,78,-62.4723,9.14142,-0.000307717,0.0244893,0.00880491,0.0272977,-0.0031161,1.26204,0.0193211,0.0225847,594,946,-62.4723,-9.1414
-623,78,-62.5172,8.48688,-0.00141285,0.01594,0.00768139,0.0188517,-0.00432454,1.20847,0.01423,0.0144819,601,946,-62.5172,-8.48689
-616,78,-62.5624,7.84479,-0.000494017,0.00991915,0.00631733,0.012899,-0.00347383,1.13005,0.00996125,0.0131865,608,946,-62.5624,-7.84478
-609,78,-62.5687,7.26416,-0.000294888,0.00567215,0.005128,0.0086214,-0.00324414,1.04887,0.00708118,0.0131062,615,946,-62.5687,-7.26415
-602,78,-62.5856,6.59894,-0.00038454,0.00314741,0.00411155,0.0058562,-0.00309333,0.988243,0.00524844,0.0190548,622,946,-62.5856,-6.59896
-595,78,-62.489,5.86548,-0.000209104,0.0017359,0.00334412,0.00424606,-0.00271925,0.926901,0.0040535,0.0184256,629,946,-62.4889,-5.86549
-588,78,-62.5069,5.21558,-0.000187464,0.000887015,0.0027679,0.00316933,-0.00246978,0.881255,0.00326408,0.0156569,636,946,-62.5069,-5.21556
-581,78,-62.498,4.45801,0,0,0,0,0,0,0,-1,643,946,-62.498,-4.45801
-574,78,-65.4404,0.525757,0,0,0,0,0,0,0,-1,650,946,-65.4404,-0.525766
-567,78,-65.4465,0.538635,-0.000193981,-0.000579123,0.00111889,0.000748784,-0.00152189,0.700178,0.00133606,0.0338567,657,946,-65.4465,-0.538607
-560,78,-65.4977,0.470276,-0.000319993,-0.00057989,0.000731026,0.000292544,-0.00119243,0.697436,0.000908308,0.0316763,664,946,-65.4977,-0.470272
-553,78,-65.6167,0.477844,-0.000409491,-0.000121057,0.000434311,0.000192356,-0.000722903,0.9457,0.000557233,0.0422606,671,946,-65.6167,-0.47783
-546,78,-65.5236,0.68396,-0.000187657,0.000539778,0.000252074,0.000618589,-0.000266468,1.26777,0.000524295,0.0425923,678,946,-65.5236,-0.683963
-539,78,-65.3362,0.736938,0.000441453,0.00100099,0.000193901,0.00106162,0.000380829,1.26777,0.000621028,0.0401377,685,946,-65.3362,-0.736962
-532,78,-65.2759,0.543274,0.00173313,0.000611519,0.000221482,0.00177528,0.000569368,0.188066,0.00104669,0.0401661,692,946,-65.2759,-0.543245
-525,78,-65.3115,0.438599,0.00292465,1.65643e-05,8.35439e-05,0.00292705,1.41661e-05,0.0286965,0.00194666,0.0405004,699,946,-65.3115,-0.438593
-518,78,-65.4596,0.537231,0.00395027,-0.000712519,-0.00049431,0.00400209,-0.000764345,-0.104465,0.00295597,0.044448,706,946,-65.4596,-0.537207
-511,78,0,0,0,0,0,0,0,0,0,-1,713,946,0,0
-504,78,0,0,0,0,0,0,0,0,0,-1,720,946,0,0
-497,78,0,0,0,0,0,0,0,0,0,-1,727,946,0,0
-490,78,0,0,0,0,0,0,0,0,0,-1,734,946,0,0
-483,78,0,0,0,0,0,0,0,0,0,-1,741,946,0,0
-476,78,0,0,0,0,0,0,0,0,0,-1,748,946,0,0
-469,78,0,0,0,0,0,0,0,0,0,-1,755,946,0,0
-462,78,0,0,0,0,0,0,0,0,0,-1,762,946,0,0
-455,78,0,0,0,0,0,0,0,0,0,-1,769,946,0,0
-448,78,0,0,0,0,0,0,0,0,0,-1,776,946,0,0
-441,78,0,0,0,0,0,0,0,0,0,-1,783,946,0,0
-434,78,0,0,0,0,0,0,0,0,0,-1,790,946,0,0
-427,78,0,0,0,0,0,0,0,0,0,-1,797,946,0,0
-420,78,0,0,0,0,0,0,0,0,0,-1,804,946,0,0
-413,78,0,0,0,0,0,0,0,0,0,-1,811,946,0,0
-406,78,0,0,0,0,0,0,0,0,0,-1,818,946,0,0
-399,78,0,0,0,0,0,0,0,0,0,-1,825,946,0,0
-392,78,0,0,0,0,0,0,0,0,0,-1,832,946,0,0
-385,78,0,0,0,0,0,0,0,0,0,-1,839,946,0,0
-378,78,0,0,0,0,0,0,0,0,0,-1,846,946,0,0
-371,78,0,0,0,0,0,0,0,0,0,-1,853,946,0,0
-364,78,0,0,0,0,0,0,0,0,0,-1,860,946,0,0
-357,78,0,0,0,0,0,0,0,0,0,-1,867,946,0,0
-350,78,0,0,0,0,0,0,0,0,0,-1,874,946,0,0
-343,78,0,0,0,0,0,0,0,0,0,-1,881,946,0,0
-336,78,0,0,0,0,0,0,0,0,0,-1,888,946,0,0
-329,78,0,0,0,0,0,0,0,0,0,-1,895,946,0,0
-322,78,0,0,0,0,0,0,0,0,0,-1,902,946,0,0
-315,78,0,0,0,0,0,0,0,0,0,-1,909,946,0,0
-308,78,0,0,0,0,0,0,0,0,0,-1,916,946,0,0
-301,78,0,0,0,0,0,0,0,0,0,-1,923,946,0,0
-294,78,0,0,0,0,0,0,0,0,0,-1,930,946,0,0
-287,78,0,0,0,0,0,0,0,0,0,-1,937,946,0,0
-280,78,0,0,0,0,0,0,0,0,0,-1,944,946,0,0
-273,78,0,0,0,0,0,0,0,0,0,-1,951,946,0,0
-266,78,0,0,0,0,0,0,0,0,0,-1,958,946,0,0
-259,78,0,0,0,0,0,0,0,0,0,-1,965,946,0,0
-252,78,0,0,0,0,0,0,0,0,0,-1,972,946,0,0
-245,78,0,0,0,0,0,0,0,0,0,-1,979,946,0,0
-238,78,0,0,0,0,0,0,0,0,0,-1,986,946,0,0
-231,78,0,0,0,0,0,0,0,0,0,-1,993,946,0,0
-224,78,0,0,0,0,0,0,0,0,0,-1,1000,946,0,0
-217,78,0,0,0,0,0,0,0,0,0,-1,1007,946,0,0
-210,78,0,0,0,0,0,0,0,0,0,-1,1014,946,0,0
-203,78,0,0,0,0,0,0,0,0,0,-1,1021,946,0,0
-196,78,0,0,0,0,0,0,0,0,0,-1,1028,946,0,0
-189,78,0,0,0,0,0,0,0,0,0,-1,1035,946,0,0
-182,78,0,0,0,0,0,0,0,0,0,-1,1042,946,0,0
-175,78,0,0,0,0,0,0,0,0,0,-1,1049,946,0,0
-168,78,0,0,0,0,0,0,0,0,0,-1,1056,946,0,0
-161,78,0,0,0,0,0,0,0,0,0,-1,1063,946,0,0
-154,78,0,0,0,0,0,0,0,0,0,-1,1070,946,0,0
-147,78,0,0,0,0,0,0,0,0,0,-1,1077,946,0,0
-140,78,0,0,0,0,0,0,0,0,0,-1,1084,946,0,0
-133,78,0,0,0,0,0,0,0,0,0,-1,1091,946,0,0
-126,78,0,0,0,0,0,0,0,0,0,-1,1098,946,0,0
-119,78,0,0,0,0,0,0,0,0,0,-1,1105,946,0,0
-112,78,0,0,0,0,0,0,0,0,0,-1,1112,946,0,0
-105,78,0,0,0,0,0,0,0,0,0,-1,1119,946,0,0
-98,78,0,0,0,0,0,0,0,0,0,-1,1126,946,0,0
-91,78,0,0,0,0,0,0,0,0,0,-1,1133,946,0,0
-84,78,0,0,0,0,0,0,0,0,0,-1,1140,946,0,0
-77,78,0,0,0,0,0,0,0,0,0,-1,1147,946,0,0
-70,78,0,0,0,0,0,0,0,0,0,-1,1154,946,0,0
-63,78,0,0,0,0,0,0,0,0,0,-1,1161,946,0,0
-56,78,0,0,0,0,0,0,0,0,0,-1,1168,946,0,0
-49,78,0,0,0,0,0,0,0,0,0,-1,1175,946,0,0
-42,78,0,0,0,0,0,0,0,0,0,-1,1182,946,0,0
-35,78,0,0,0,0,0,0,0,0,0,-1,1189,946,0,0
-28,78,0,0,0,0,0,0,0,0,0,-1,1196,946,0,0
-21,78,0,0,0,0,0,0,0,0,0,-1,1203,946,0,0
-14,78,0,0,0,0,0,0,0,0,0,-1,1210,946,0,0
-7,78,0,0,0,0,0,0,0,0,0,-1,1217,946,0,0
0,78,0,0,0,0,0,0,0,0,0,-1,1224,946,0,0
7,78,0,0,0,0,0,0,0,0,0,-1,1231,946,0,0
14,78,0,0,0,0,0,0,0,0,0,-1,1238,946,0,0
21,78,0,0,0,0,0,0,0,0,0,-1,1245,946,0,0
28,78,0,0,0,0,0,0,0,0,0,-1,1252,946,0,0
35,78,0,0,0,0,0,0,0,0,0,-1,1259,946,0,0
42,78,0,0,0,0,0,0,0,0,0,-1,1266,946,0,0
49,78,0,0,0,0,0,0,0,0,0,-1,1273,946,0,0
56,78,0,0,0,0,0,0,0,0,0,-1,1280,946,0,0
63,78,0,0,0,0,0,0,0,0,0,-1,1287,946,0,0
70,78,0,0,0,0,0,0,0,0,0,-1,1294,946,0,0
77,78,0,0,0,0,0,0,0,0,0,-1,1301,946,0,0
84,78,0,0,0,0,0,0,0,0,0,-1,1308,946,0,0
91,78,0,0,0,0,0,0,0,0,0,-1,1315,946,0,0
98,78,0,0,0,0,0,0,0,0,0,-1,1322,946,0,0
105,78,0,0,0,0,0,0,0,0,0,-1,1329,946,0,0
112,78,0,0,0,0,0,0,0,0,0,-1,1336,946,0,0
119,78,0,0,0,0,0,0,0,0,0,-1,1343,946,0,0
126,78,0,0,0,0,0,0,0,0,0,-1,1350,946,0,0
133,78,0,0,0,0,0,0,0,0,0,-1,1357,946,0,0
140,78,0,0,0,0,0,0,0,0,0,-1,1364,946,0,0
147,78,0,0,0,0,0,0,0,0,0,-1,1371,946,0,0
154,78,0,0,0,0,0,0,0,0,0,-1,1378,946,0,0
161,78,0,0,0,0,0,0,0,0,0,-1,1385,946,0,0
168,78,0,0,0,0,0,0,0,0,0,-1,1392,946,0,0
175,78,0,0,0,0,0,0,0,0,0,-1,1399,946,0,0
182,78,0,0,0,0,0,0,0,0,0,-1,1406,946,0,0
189,78,0,0,0,0,0,0,0,0,0,-1,1413,946,0,0
196,78,0,0,0,0,0,0,0,0,0,-1,1420,946,0,0
203,78,0,0,0,0,0,0,0,0,0,-1,1427,946,0,0
210,78,0,0,0,0,0,0,0,0,0,-1,1434,946,0,0
217,78,0,0,0,0,0,0,0,0,0,-1,1441,946,0,0
224,78,0,0,0,0,0,0,0,0,0,-1,1448,946,0,0
231,78,0,0,0,0,0,0,0,0,0,-1,1455,946,0,0
238,78,0,0,0,0,0,0,0,0,0,-1,1462,946,0,0
245,78,0,0,0,0,0,0,0,0,0,-1,1469,946,0,0
252,78,0,0,0,0,0,0,0,0,0,-1,1476,946,0,0
259,78,0,0,0,0,0,0,0,0,0,-1,1483,946,0,0
266,78,0,0,0,0,0,0,0,0,0,-1,1490,946,0,0
273,78,0,0,0,0,0,0,0,0,0,-1,1497,946,0,0
280,78,0,0,0,0,0,0,0,0,0,-1,1504,946,0,0
287,78,0,0,0,0,0,0,0,0,0,-1,1511,946,0,0
294,78,0,0,0,0,0,0,0,0,0,-1,1518,946,0,0
301,78,0,0,0,0,0,0,0,0,0,-1,1525,946,0,0
308,78,0,0,0,0,0,0,0,0,0,-1,1532,946,0,0
315,78,0,0,0,0,0,0,0,0,0,-1,1539,946,0,0
322,78,0,0,0,0,0,0,0,0,0,-1,1546,946,0,0
329,78,0,0,0,0,0,0,0,0,0,-1,1553,946,0,0
336,78,0,0,0,0,0,0,0,0,0,-1,1560,946,0,0
343,78,0,0,0,0,0,0,0,0,0,-1,1567,946,0,0
350,78,0,0,0,0,0,0,0,0,0,-1,1574,946,0,0
357,78,0,0,0,0,0,0,0,0,0,-1,1581,946,0,0
364,78,0,0,0,0,0,0,0,0,0,-1,1588,946,0,0
371,78,0,0,0,0,0,0,0,0,0,-1,1595,946,0,0
378,78,0,0,0,0,0,0,0,0,0,-1,1602,946,0,0
385,78,0,0,0,0,0,0,0,0,0,-1,1609,946,0,0
392,78,0,0,0,0,0,0,0,0,0,-1,1616,946,0,0
399,78,0,0,0,0,0,0,0,0,0,-1,1623,946,0,0
406,78,0,0,0,0,0,0,0,0,0,-1,1630,946,0,0
413,78,0,0,0,0,0,0,0,0,0,-1,1637,946,0,0
420,78,0,0,0,0,0,0,0,0,0,-1,1644,946,0,0
427,78,0,0,0,0,0,0,0,0,0,-1,1651,946,0,0
434,78,0,0,0,0,0,0,0,0,0,-1,1658,946,0,0
441,78,0,0,0,0,0,0,0,0,0,-1,1665,946,0,0
448,78,0,0,0,0,0,0,0,0,0,-1,1672,946,0,0
455,78,0,0,0,0,0,0,0,0,0,-1,1679,946,0,0
462,78,0,0,0,0,0,0,0,0,0,-1,1686,946,0,0
469,78,0,0,0,0,0,0,0,0,0,-1,1693,946,0,0
476,78,0,0,0,0,0,0,0,0,0,-1,1700,946,0,0
483,78,0,0,0,0,0,0,0,0,0,-1,1707,946,0,0
490,78,0,0,0,0,0,0,0,0,0,-1,1714,946,0,0
497,78,0,0,0,0,0,0,0,0,0,-1,1721,946,0,0
504,78,0,0,0,0,0,0,0,0,0,-1,1728,946,0,0
511,78,0,0,0,0,0,0,0,0,0,-1,1735,946,0,0
518,78,0,0,0,0,0,0,0,0,0,-1,1742,946,0,0
525,78,0,0,0,0,0,0,0,0,0,-1,1749,946,0,0
532,78,0,0,0,0,0,0,0,0,0,-1,1756,946,0,0
539,78,0,0,0,0,0,0,0,0,0,-1,1763,946,0,0
546,78,0,0,0,0,0,0,0,0,0,-1,1770,946,0,0
553,78,0,0,0,0,0,0,0,0,0,-1,1777,946,0,0
560,78,0,0,0,0,0,0,0,0,0,-1,1784,946,0,0
567,78,0,0,0,0,0,0,0,0,0,-1,1791,946,0,0
574,78,0,0,0,0,0,0,0,0,0,-1,1798,946,0,0
581,78,0,0,0,0,0,0,0,0,0,-1,1805,946,0,0
588,78,0,0,0,0,0,0,0,0,0,-1,1812,946,0,0
595,78,0,0,0,0,0,0,0,0,0,-1,1819,946,0,0
602,78,0,0,0,0,0,0,0,0,0,-1,1826,946,0,0
609,78,0,0,0,0,0,0,0,0,0,-1,1833,946,0,0
616,78,0,0,0,0,0,0,0,0,0,-1,1840,946,0,0
623,78,0,0,0,0,0,0,0,0,0,-1,1847,946,0,0
630,78,0,0,0,0,0,0,0,0,0,-1,1854,946,0,0
637,78,82.3073,2.30518,0.00732067,0.00680545,-0.00279684,0.00987173,0.00425438,-0.739474,0.00571753,0.0468114,1861,946,82.3072,-2.30518
644,78,82.3519,2.27625,0.00410769,0.00516433,-0.00182992,0.00654067,0.00273135,-0.925933,0.00379331,0.0412947,1868,946,82.3519,-2.27626
651,78,82.3291,2.32794,0.00211231,0.00396009,-0.00107532,0.0044539,0.0016185,-1.1403,0.00260326,0.0398744,1875,946,82.3291,-2.32793
658,78,82.2511,2.41431,0.000872928,0.00327225,-0.000373399,0.00332902,0.000816161,-1.41992,0.0020035,0.0389408,1882,946,82.2511,-2.4143
665,78,82.1744,2.43103,0.000112134,0.00286608,0.000212955,0.00288245,9.57638e-05,1.49408,0.00189052,0.0406315,1889,946,82.1744,-2.43103
672,78,82.0778,2.37335,-0.00062075,0.00237701,0.000722356,0.00254199,-0.000785733,1.34625,0.00200847,0.0402998,1896,946,82.0778,-2.37336
679,78,82.1016,2.52899,-0.00118246,0.00158991,0.00107275,0.00195653,-0.00154907,1.24149,0.00202851,0.0394695,1903,946,82.1016,-2.52896
686,78,82.1364,2.41644,-0.0014656,0.000893139,0.000943801,0.00122429,-0.00179675,1.23335,0.00175461,0.0381738,1910,946,82.1363,-2.41647
693,78,82.1912,2.32581,-0.00199328,0.000456521,0.000631905,0.000609911,-0.00214667,1.33266,0.00167192,0.0311978,1917,946,82.1912,-2.32583
700,78,82.1698,2.40039,-0.00285293,0.000311519,0.000279619,0.000336037,-0.00287745,1.48334,0.00203956,0.0270382,1924,946,82.1698,-2.40037
707,78,82.1891,2.67865,0,0,0,0,0,0,0,-1,1931,946,82.189,-2.67867
714,78,79.1652,4.94348,0,0,0,0,0,0,0,-1,1938,946,79.1652,-4.94348
721,78,78.933,5.68134,0,0,0,0,0,0,0,-1,1945,946,78.933,-5.68133
728,78,78.699,6.724,0,0,0,0,0,0,0,-1,1952,946,78.699,-6.72402
735,78,78.7941,7.12762,-0.00669567,0.00498241,-0.00168654,0.00522111,-0.00693436,-1.4302,0.00704116,0.036092,1959,946,78.7941,-7.12764
742,78,78.7435,7.66467,-0.00805604,0.00737162,-0.00175156,0.00756799,-0.0082524,-1.45916,0.00913675,0.0259587,1966,946,78.7435,-7.66468
749,78,78.5618,8.28656,-0.00962226,0.0111373,-0.00147155,0.0112411,-0.00972605,-1.50038,0.0121159,0.0177104,1973,946,78.5617,-8.28658
756,78,78.4634,8.8382,-0.0111434,0.0167104,-0.000154968,0.0167112,-0.0111442,-1.56523,0.0161891,0.0168345,1980,946,78.4634,-8.83822
763,78,78.3572,9.33484,-0.0126731,0.0236517,0.00249122,0.0238218,-0.0128432,1.50264,0.0214825,0.018755,1987,946,78.3571,-9.33482
770,78,78.2014,9.82086,-0.0142898,0.0308824,0.00613229,0.0317001,-0.0151074,1.43824,0.0275845,0.0253349,1994,946,78.2015,-9.82087
777,78,77.8848,10.7738,-0.0165179,0.0385389,0.0114314,0.040818,-0.018797,1.374,0.0351928,0.045799,2001,946,77.8847,-10.7738
784,78,77.6001,11.7872,0,0,0,0,0,0,0,-1,2008,946,77.6002,-11.7872
791,78,75.637,12.0598,0,0,0,0,0,0,0,-1,2015,946,75.6369,-12.0598
798,78,67.9287,7.90448,0,0,0,0,0,0,0,-1,2022,946,67.9287,-7.90446
805,78,68.5852,7.34106,0,0,0,0,0,0,0,-1,2029,946,68.5853,-7.34105
812,78,0,0,0,0,0,0,0,0,0,-1,2036,946,0,0
-700,71,0,0,0,0,0,0,0,0,0,-1,524,953,0,0
-693,71,0,0,0,0,0,0,0,0,0,-1,531,953,0,0
-686,71,-71.189,-2.98248,0,0,0,0,0,0,0,-1,538,953,-71.189,2.98245
-679,71,-70.2738,-2.17017,0,0,0,0,0,0,0,-1,545,953,-70.2738,2.17015
-672,71,-69.1418,-1.21301,0,0,0,0,0,0,0,-1,552,953,-69.1418,1.21302
-665,71,-68.0175,-0.329956,0,0,0,0,0,0,0,-1,559,953,-68.0175,0.329976
-658,71,-57.7852,6.99481,0,0,0,0,0,0,0,-1,566,953,-57.7852,-6.99479
-651,71,-62.8938,11.2073,0,0,0,0,0,0,0,-1,573,953,-62.8938,-11.2073
-644,71,-62.9383,10.2099,0,0,0,0,0,0,0,-1,580,953,-62.9383,-10.2099
-637,71,-63.2521,9.76746,0.00574985,0.0392887,0.00652008,0.0405117,0.00452692,1.38539,0.0256324,0.0303293,587,953,-63.2521,-9.76748
-630,71,-63.1533,9.01514,0.000663292,0.0258715,0.00803957,0.0282172,-0.00168246,1.2869,0.0193967,0.0194234,594,953,-63.1533,-9.01514
-623,71,-63.2032,8.41248,-0.00129782,0.0165125,0.00712561,0.0190124,-0.00379776,1.23338,0.0141123,0.0158032,601,953,-63.2033,-8.41248
-616,71,-63.2467,7.76422,-0.000690765,0.0103623,0.00587916,0.0129047,-0.00323313,1.16264,0.00985914,0.0154234,608,953,-63.2467,-7.76422
-609,71,-63.2273,7.1969,-0.000625316,0.00606254,0.0047496,0.00852728,-0.00309005,1.09212,0.00694783,0.0172004,615,953,-63.2273,-7.19687
-602,71,-63.2184,6.65356,-0.000700515,0.00344544,0.00376611,0.0056714,-0.00292647,1.03698,0.0050476,0.019931,622,953,-63.2184,-6.65359
-595,71,-63.2089,6.08728,-0.000538485,0.0018913,0.00302325,0.00393463,-0.00258181,0.976448,0.0037892,0.0242505,629,953,-63.2089,-6.0873
-588,71,-63.198,5.46698,-0.000532972,0.0008856,0.0024625,0.00273893,-0.0023863,0.92562,0.00296138,0.031023,636,953,-63.198,-5.46696
-581,71,-62.9825,4.716,0,0,0,0,0,0,0,-1,643,953,-62.9826,-4.71599
-574,71,-65.4826,0.471252,0,0,0,0,0,0,0,-1,650,953,-65.4826,-0.471249
-567,71,-65.4831,0.46875,-0.000652937,-0.000593584,0.000888288,0.000265523,-0.00151204,0.802096,0.0011072,0.019892,657,953,-65.4831,-0.468749
-560,71,-65.5696,0.472412,-0.000769553,-0.000424187,0.000546261,-2.39646e-05,-0.00116978,0.938487,0.000771986,0.027507,664,953,-65.5696,-0.472407
-553,71,-65.6955,0.636047,-0.000763469,0.000131864,0.000309681,0.000228539,-0.000860144,1.26821,0.000662874,0.0408043,671,953,-65.6955,-0.636033
-546,71,-65.5369,0.798706,-0.000412864,0.000784284,0.00021531,0.00082183,-0.000450411,1.39815,0.000744889,0.0420746,678,953,-65.5369,-0.798717
-539,71,-65.3395,0.662964,0.000274756,0.00103283,0.000274303,0.00112167,0.000185913,1.25757,0.000694157,0.040804,685,953,-65.3395,-0.662989
-532,71,-65.3909,0.477661,0.00157117,0.000279454,0.0004365,0.00170484,0.000145783,0.297166,0.00109121,0.0439614,692,953,-65.3909,-0.477652
-525,71,-65.315,0.568848,0.00267433,-0.000577844,0.000382486,0.0027187,-0.000622222,0.11551,0.00205157,0.0435662,699,953,-65.315,-0.568843
-518,71,0,0,0,0,0,0,0,0,0,-1,706,953,0,0
-511,71,0,0,0,0,0,0,0,0,0,-1,713,953,0,0
-504,71,0,0,0,0,0,0,0,0,0,-1,720,953,0,0
-497,71,0,0,0,0,0,0,0,0,0,-1,727,953,0,0
-490,71,0,0,0,0,0,0,0,0,0,-1,734,953,0,0
-483,71,0,0,0,0,0,0,0,0,0,-1,741,953,0,0
-476,71,0,0,0,0,0,0,0,0,0,-1,748,953,0,0
-469,71,0,0,0,0,0,0,0,0,0,-1,755,953,0,0
-462,71,0,0,0,0,0,0,0,0,0,-1,762,953,0,0
-455,71,0,0,0,0,0,0,0,0,0,-1,769,953,0,0
-448,71,0,0,0,0,0,0,0,0,0,-1,776,953,0,0
-441,71,0,0,0,0,0,0,0,0,0,-1,783,953,0,0
-434,71,0,0,0,0,0,0,0,0,0,-1,790,953,0,0
-427,71,0,0,0,0,0,0,0,0,0,-1,797,953,0,0
-420,71,0,0,0,0,0,0,0,0,0,-1,804,953,0,0
-413,71,0,0,0,0,0,0,0,0,0,-1,811,953,0,0
-406,71,0,0,0,0,0,0,0,0,0,-1,818,953,0,0
-399,71,0,0,0,0,0,0,0,0,0,-1,825,953,0,0
-392,71,0,0,0,0,0,0,0,0,0,-1,832,953,0,0
-385,71,0,0,0,0,0,0,0,0,0,-1,839,953,0,0
-378,71,0,0,0,0,0,0,0,0,0,-1,846,953,0,0
-371,71,0,0,0,0,0,0,0,0,0,-1,853,953,0,0
-364,71,0,0,0,0,0,0,0,0,0,-1,860,953,0,0
-357,71,0,0,0,0,0,0,0,0,0,-1,867,953,0,0
-350,71,0,0,0,0,0,0,0,0,0,-1,874,953,0,0
-343,71,0,0,0,0,0,0,0,0,0,-1,881,953,0,0
-336,71,0,0,0,0,0,0,0,0,0,-1,888,953,0,0
-329,71,0,0,0,0,0,0,0,0,0,-1,895,953,0,0
-322,71,0,0,0,0,0,0,0,0,0,-1,902,953,0,0
-315,71,0,0,0,0,0,0,0,0,0,-1,909,953,0,0
-308,71,0,0,0,0,0,0,0,0,0,-1,916,953,0,0
-301,71,0,0,0,0,0,0,0,0,0,-1,923,953,0,0
-294,71,0,0,0,0,0,0,0,0,0,-1,930,953,0,0
-287,71,0,0,0,0,0,0,0,0,0,-1,937,953,0,0
-280,71,0,0,0,0,0,0,0,0,0,-1,944,953,0,0
-273,71,0,0,0,0,0,0,0,0,0,-1,951,953,0,0
-266,71,0,0,0,0,0,0,0,0,0,-1,958,953,0,0
-259,71,0,0,0,0,0,0,0,0,0,-1,965,953,0,0
-252,71,0,0,0,0,0,0,0,0,0,-1,972,953,0,0
-245,71,0,0,0,0,0,0,0,0,0,-1,979,953,0,0
-238,71,0,0,0,0,0,0,0,0,0,-1,986,953,0,0
-231,71,0,0,0,0,0,0,0,0,0,-1,993,953,0,0
-224,71,0,0,0,0,0,0,0,0,0,-1,1000,953,0,0
-217,71,0,0,0,0,0,0,0,0,0,-1,1007,953,0,0
-210,71,0,0,0,0,0,0,0,0,0,-1,1014,953,0,0
-203,71,0,0,0,0,0,0,0,0,0,-1,1021,953,0,0
-196,71,0,0,0,0,0,0,0,0,0,-1,1028,953,0,0
-189,71,0,0,0,0,0,0,0,0,0,-1,1035,953,0,0
-182,71,0,0,0,0,0,0,0,0,0,-1,1042,953,0,0
-175,71,0,0,0,0,0,0,0,0,0,-1,1049,953,0,0
-168,71,0,0,0,0,0,0,0,0,0,-1,1056,953,0,0
-161,71,0,0,0,0,0,0,0,0,0,-1,1063,953,0,0
-154,71,0,0,0,0,0,0,0,0,0,-1,1070,953,0,0
-147,71,0,0,0,0,0,0,0,0,0,-1,1077,953,0,0
-140,71,0,0,0,0,0,0,0,0,0,-1,1084,953,0,0
-133,71,0,0,0,0,0,0,0,0,0,-1,1091,953,0,0
-126,71,0,0,0,0,0,0,0,0,0,-1,1098,953,0,0
-119,71,0,0,0,0,0,0,0,0,0,-1,1105,953,0,0
-112,71,0,0,0,0,0,0,0,0,0,-1,1112,953,0,0
-105,71,0,0,0,0,0,0,0,0,0,-1,1119,953,0,0
-98,71,0,0,0,0,0,0,0,0,0,-1,1126,953,0,0
-91,71,0,0,0,0,0,0,0,0,0,-1,1133,953,0,0
-84,71,0,0,0,0,0,0,0,0,0,-1,1140,953,0,0
-77,71,0,0,0,0,0,0,0,0,0,-1,1147,953,0,0
-70,71,0,0,0,0,0,0,0,0,0,-1,1154,953,0,0
-63,71,0,0,0,0,0,0,0,0,0,-1,1161,953,0,0
-56,71,0,0,0,0,0,0,0,0,0,-1,1168,953,0,0
-49,71,0,0,0,0,0,0,0,0,0,-1,1175,953,0,0
-42,71,0,0,0,0,0,0,0,0,0,-1,1182,953,0,0
-35,71,0,0,0,0,0,0,0,0,0,-1,1189,953,0,0
-28,71,0,0,0,0,0,0,0,0,0,-1,1196,953,0,0
-21,71,0,0,0,0,0,0,0,0,0,-1,1203,953,0,0
-14,71,0,0,0,0,0,0,0,0,0,-1,1210,953,0,0
-7,71,0,0,0,0,0,0,0,0,0,-1,1217,953,0,0
0,71,0,0,0,0,0,0,0,0,0,-1,1224,953,0,0
7,71,0,0,0,0,0,0,0,0,0,-1,1231,953,0,0
14,71,0,0,0,0,0,0,0,0,0,-1,1238,953,0,0
21,71,0,0,0,0,0,0,0,0,0,-1,1245,953,0,0
28,71,0,0,0,0,0,0,0,0,0,-1,1252,953,0,0
35,71,0,0,0,0,0,0,0,0,0,-1,1259,953,0,0
42,71,0,0,0,0,0,0,0,0,0,-1,1266,953,0,0
49,71,0,0,0,0,0,0,0,0,0,-1,1273,953,0,0
56,71,0,0,0,0,0,0,0,0,0,-1,1280,953,0,0
63,71,0,0,0,0,0,0,0,0,0,-1,1287,953,0,0
70,71,0,0,0,0,0,0,0,0,0,-1,1294,953,0,0
77,71,0,0,0,0,0,0,0,0,0,-1,1301,953,0,0
84,71,0,0,0,0,0,0,0,0,0,-1,1308,953,0,0
91,71,0,0,0,0,0,0,0,0,0,-1,1315,953,0,0
98,71,0,0,0,0,0,0,0,0,0,-1,1322,953,0,0
105,71,0,0,0,0,0,0,0,0,0,-1,1329,953,0,0
112,71,0,0,0,0,0,0,0,0,0,-1,1336,953,0,0
119,71,0,0,0,0,0,0,0,0,0,-1,1343,953,0,0
126,71,0,0,0,0,0,0,0,0,0,-1,1350,953,0,0
133,71,0,0,0,0,0,0,0,0,0,-1,1357,953,0,0
140,71,0,0,0,0,0,0,0,0,0,-1,1364,953,0,0
147,71,0,0,0,0,0,0,0,0,0,-1,1371,953,0,0
154,71,0,0,0,0,0,0,0,0,0,-1,1378,953,0,0
161,71,0,0,0,0,0,0,0,0,0,-1,1385,953,0,0
168,71,0,0,0,0,0,0,0,0,0,-1,1392,953,0,0
175,71,0,0,0,0,0,0,0,0,0,-1,1399,953,0,0
182,71,0,0,0,0,0,0,0,0,0,-1,1406,953,0,0
189,71,0,0,0,0,0,0,0,0,0,-1,1413,953,0,0
196,71,0,0,0,0,0,0,0,0,0,-1,1420,953,0,0
203,71,0,0,0,0,0,0,0,0,0,-1,1427,953,0,0
210,71,0,0,0,0,0,0,0,0,0,-1,1434,953,0,0
217,71,0,0,0,0,0,0,0,0,0,-1,1441,953,0,0
224,71,0,0,0,0,0,0,0,0,0,-1,1448,953,0,0
231,71,0,0,0,0,0,0,0,0,0,-1,1455,953,0,0
238,71,0,0,0,0,0,0,0,0,0,-1,1462,953,0,0
245,71,0,0,0,0,0,0,0,0,0,-1,1469,953,0,0
252,71,0,0,0,0,0,0,0,0,0,-1,1476,953,0,0
259,71,0,0,0,0,0,0,0,0,0,-1,1483,953,0,0
266,71,0,0,0,0,0,0,0,0,0,-1,1490,953,0,0
273,71,0,0,0,0,0,0,0,0,0,-1,1497,953,0,0
280,71,0,0,0,0,0,0,0,0,0,-1,1504,953,0,0
287,71,0,0,0,0,0,0,0,0,0,-1,1511,953,0,0
294,71,0,0,0,0,0,0,0,0,0,-1,1518,953,0,0
301,71,0,0,0,0,0,0,0,0,0,-1,1525,953,0,0
308,71,0,0,0,0,0,0,0,0,0,-1,1532,953,0,0
315,71,0,0,0,0,0,0,0,0,0,-1,1539,953,0,0
322,71,0,0,0,0,0,0,0,0,0,-1,1546,953,0,0
329,71,0,0,0,0,0,0,0,0,0,-1,1553,953,0,0
336,71,0,0,0,0,0,0,0,0,0,-1,1560,953,0,0
343,71,0,0,0,0,0,0,0,0,0,-1,1567,953,0,0
350,71,0,0,0,0,0,0,0,0,0,-1,1574,953,0,0
357,71,0,0,0,0,0,0,0,0,0,-1,1581,953,0,0
364,71,0,0,0,0,0,0,0,0,0,-1,1588,953,0,0
371,71,0,0,0,0,0,0,0,0,0,-1,1595,953,0,0
378,71,0,0,0,0,0,0,0,0,0,-1,1602,953,0,0
385,71,0,0,0,0,0,0,0,0,0,-1,1609,953,0,0
392,71,0,0,0,0,0,0,0,0,0,-1,1616,953,0,0
399,71,0,0,0,0,0,0,0,0,0,-1,1623,953,0,0
406,71,0,0,0,0,0,0,0,0,0,-1,1630,953,0,0
413,71,0,0,0,0,0,0,0,0,0,-1,1637,953,0,0
420,71,0,0,0,0,0,0,0,0,0,-1,1644,953,0,0
427,71,0,0,0,0,0,0,0,0,0,-1,1651,953,0,0
434,71,0,0,0,0,0,0,0,0,0,-1,1658,953,0,0
441,71,0,0,0,0,0,0,0,0,0,-1,1665,953,0,0
448,71,0,0,0,0,0,0,0,0,0,-1,1672,953,0,0
455,71,0,0,0,0,0,0,0,0,0,-1,1679,953,0,0
462,71,0,0,0,0,0,0,0,0,0,-1,1686,953,0,0
469,71,0,0,0,0,0,0,0,0,0,-1,1693,953,0,0
476,71,0,0,0,0,0,0,0,0,0,-1,1700,953,0,0
483,71,0,0,0,0,0,0,0,0,0,-1,1707,953,0,0
490,71,0,0,0,0,0,0,0,0,0,-1,1714,953,0,0
497,71,0,0,0,0,0,0,0,0,0,-1,1721,953,0,0
504,71,0,0,0,0,0,0,0,0,0,-1,1728,953,0,0
511,71,0,0,0,0,0,0,0,0,0,-1,1735,953,0,0
518,71,0,0,0,0,0,0,0,0,0,-1,1742,953,0,0
525,71,0,0,0,0,0,0,0,0,0,-1,1749,953,0,0
532,71,0,0,0,0,0,0,0,0,0,-1,1756,953,0,0
539,71,0,0,0,0,0,0,0,0,0,-1,1763,953,0,0
546,71,0,0,0,0,0,0,0,0,0,-1,1770,953,0,0
553,71,0,0,0,0,0,0,0,0,0,-1,1777,953,0,0
560,71,0,0,0,0,0,0,0,0,0,-1,1784,953,0,0
567,71,0,0,0,0,0,0,0,0,0,-1,1791,953,0,0
574,71,0,0,0,0,0,0,0,0,0,-1,1798,953,0,0
581,71,0,0,0,0,0,0,0,0,0,-1,1805,953,0,0
588,71,0,0,0,0,0,0,0,0,0,-1,1812,953,0,0
595,71,0,0,0,0,0,0,0,0,0,-1,1819,953,0,0
602,71,0,0,0,0,0,0,0,0,0,-1,1826,953,0,0
609,71,0,0,0,0,0,0,0,0,0,-1,1833,953,0,0
616,71,0,0,0,0,0,0,0,0,0,-1,1840,953,0,0
623,71,0,0,0,0,0,0,0,0,0,-1,1847,953,0,0
630,71,0,0,0,0,0,0,0,0,0,-1,1854,953,0,0
637,71,82.3605,2.14471,0.0074901,0.00801085,-0.00187957,0.00964799,0.00585296,-0.854224,0.00561235,0.0439836,1861,953,82.3604,-2.1447
644,71,82.2745,2.1499,0.00406215,0.00594564,-0.00111604,0.00646418,0.00354362,-1.13585,0.00373787,0.0440526,1868,953,82.2745,-2.14988
651,71,82.1017,2.30469,0.00203151,0.00449544,-0.000561412,0.00461733,0.00190962,-1.357,0.00267906,0.0409026,1875,953,82.1017,-2.30466
658,71,82.1456,2.33368,0.000835739,0.00365851,-1.45091e-05,0.00365858,0.000835664,-1.56566,0.00221372,0.0399581,1882,953,82.1456,-2.33367
665,71,82.2699,2.36035,0.000135799,0.00316119,0.0004441,0.00322504,7.19568e-05,1.42802,0.00212645,0.0395087,1889,953,82.2699,-2.36033
672,71,82.2189,2.61353,-0.000505168,0.0026732,0.000879426,0.0029003,-0.00073227,1.31808,0.00221828,0.0374396,1896,953,82.2188,-2.61351
679,71,82.1813,2.60675,-0.00095248,0.00192975,0.00122822,0.00238214,-0.00140487,1.21789,0.00221056,0.0387923,1903,953,82.1813,-2.60674
686,71,82.1422,2.32904,-0.00113878,0.0011816,0.00113386,0.00164365,-0.00160083,1.18384,0.00187326,0.0389114,1910,953,82.1422,-2.32905
693,71,82.2144,2.16882,-0.00159555,0.000687034,0.000853887,0.000971108,-0.00187963,1.24963,0.0016735,0.0331816,1917,953,82.2143,-2.16883
700,71,82.1697,2.21576,-0.00240935,0.000526328,0.00051575,0.000614301,-0.00249733,1.40185,0.00190299,0.0317266,1924,953,82.1697,-2.21576
707,71,82.1647,2.54663,0,0,0,0,0,0,0,-1,1931,953,82.1646,-2.54664
714,71,79.9944,5.12903,0,0,0,0,0,0,0,-1,1938,953,79.9943,-5.12903
721,71,79.6294,5.83081,-0.00453065,0.00235075,-0.00112564,0.0025302,-0.0047101,-1.41271,0.00424287,0.0362421,1945,953,79.6294,-5.83083
728,71,79.3835,6.6228,-0.00543866,0.00370252,-0.00138434,0.00390756,-0.00564371,-1.42375,0.00554471,0.0430285,1952,953,79.3835,-6.62283
735,71,79.3669,7.24017,-0.00649005,0.00533575,-0.00151246,0.00552612,-0.00668042,-1.44559,0.00705795,0.0290898,1959,953,79.367,-7.2402
742,71,79.3558,7.76007,-0.00798299,0.00769537,-0.00164539,0.00786619,-0.00815381,-1.46735,0.00924965,0.0279041,1966,953,79.3558,-7.76009
749,71,79.269,8.27716,-0.00973477,0.0113416,-0.00162447,0.0114661,-0.00985924,-1.49432,0.0123238,0.0225544,1973,953,79.2691,-8.27717
756,71,79.1831,8.75128,-0.0114537,0.016803,-0.000805283,0.016826,-0.0114766,-1.54233,0.0164375,0.0196488,1980,953,79.183,-8.75128
763,71,79.0808,9.26031,-0.0131615,0.0238833,0.00120913,0.0239227,-0.0132009,1.5382,0.0217292,0.0231759,1987,953,79.0808,-9.26031
770,71,78.8013,9.68005,-0.0148935,0.0313762,0.00409847,0.0317364,-0.0152538,1.48313,0.0276805,0.0275708,1994,953,78.8014,-9.68004
777,71,78.5505,10.3874,-0.0170754,0.0393157,0.00827614,0.0405053,-0.0182649,1.42804,0.0347314,0.0471443,2001,953,78.5505,-10.3874
784,71,78.3623,11.1694,0,0,0,0,0,0,0,-1,2008,953,78.3623,-11.1694
791,71,77.98,10.2501,0,0,0,0,0,0,0,-1,2015,953,77.9801,-10.2501
798,71,74.6741,11.5202,0,0,0,0,0,0,0,-1,2022,953,74.6741,-11.5202
805,71,59.978,6.41992,0,0,0,0,0,0,0,-1,2029,953,59.9781,-6.41992
812,71,0,0,0,0,0,0,0,0,0,-1,2036,953,0,0
-700,64,0,0,0,0,0,0,0,0,0,-1,524,960,0,0
-693,64,0,0,0,0,0,0,0,0,0,-1,531,960,0,0
-686,64,-70.6114,-2.48975,0,0,0,0,0,0,0,-1,538,960,-70.6114,2.48978
-679,64,-70.2534,-2.01489,0,0,0,0,0,0,0,-1,545,960,-70.2534,2.01489
-672,64,-69.9682,-1.46234,0,0,0,0,0,0,0,-1,552,960,-69.9682,1.46231
-665,64,-57.8604,5.71631,0,0,0,0,0,0,0,-1,559,960,-57.8604,-5.71629
-658,64,-64.0605,11.0615,0,0,0,0,0,0,0,-1,566,960,-64.0605,-11.0615
-651,64,-63.598,10.5246,0,0,0,0,0,0,0,-1,573,960,-63.598,-10.5246
-644,64,-63.6548,9.92029,0.0135852,0.0563817,0.00423581,0.0567969,0.0131699,1.47308,0.0343273,0.0414926,580,960,-63.6549,-9.92027
-637,64,-63.6949,9.32727,0.00642692,0.041205,0.00569268,0.0421131,0.00551882,1.41261,0.0264285,0.0212369,587,960,-63.6949,-9.32725
-630,64,-63.7717,8.84589,0.000759995,0.0269295,0.00744754,0.0289005,-0.00121103,1.31207,0.0196831,0.0158814,594,960,-63.7717,-8.8459
-623,64,-63.8268,8.36627,-0.00173726,0.0170059,0.00663956,0.0191196,-0.0038509,1.2626,0.0142051,0.0149763,601,960,-63.8268,-8.36629
-616,64,-63.8774,7.82251,-0.00128299,0.0108058,0.00545983,0.0129066,-0.0033838,1.20348,0.0099265,0.0181511,608,960,-63.8774,-7.82251
-609,64,-63.864,7.28125,-0.00123125,0.00649121,0.00436237,0.00845573,-0.00319577,1.14767,0.00695173,0.0187441,615,960,-63.864,-7.28126
-602,64,-63.8667,6.72119,-0.00123711,0.00378574,0.00339607,0.00549813,-0.0029495,1.10377,0.00495067,0.0195015,622,960,-63.8667,-6.72121
-595,64,-63.908,6.22485,-0.00104914,0.00207975,0.00266961,0.00360954,-0.00257894,1.05044,0.0035894,0.0327038,629,960,-63.9079,-6.22484
-588,64,-63.7039,5.68878,-0.00100974,0.000880752,0.00211691,0.00225386,-0.00238286,0.995378,0.00267736,0.0495179,636,960,-63.7038,-5.68876
-581,64,-63.322,4.96783,0,0,0,0,0,0,0,-1,643,960,-63.322,-4.96785
-574,64,-65.427,0.480713,0,0,0,0,0,0,0,-1,650,960,-65.427,-0.480703
-567,64,-65.438,0.435425,-0.00108115,-0.000777723,0.00057823,-0.000331636,-0.00152724,0.913695,0.000927591,0.0257031,657,960,-65.438,-0.435446
-560,64,-65.6376,0.510986,-0.00113573,-0.000520859,0.000272971,-0.000417162,-0.00123942,1.20775,0.00072821,0.0329556,664,960,-65.6377,-0.510987
-553,64,-65.7269,0.564026,-0.00102505,1.97892e-05,0.000102455,2.9741e-05,-0.001035,1.47397,0.000700125,0.0377204,671,960,-65.7269,-0.563996
-546,64,-65.5285,0.484558,-0.000590093,0.000536375,0.000102943,0.000545705,-0.000599423,1.48041,0.000661383,0.0392617,678,960,-65.5285,-0.484587
-539,64,-65.4844,0.486328,5.96309e-05,0.000444594,0.000286245,0.000597054,-9.28298e-05,1.08139,0.000432315,0.0412595,685,960,-65.4845,-0.486311
-532,64,-65.6516,0.471375,0.00131895,-0.0007176,0.000593874,0.00147947,-0.000878126,0.263993,0.00137584,0.0421097,692,960,-65.6515,-0.471348
-525,64,-65.5525,0.604797,0.00231775,-0.00181994,0.000597174,0.00240221,-0.00190441,0.140506,0.00249196,0.0421163,699,960,-65.5525,-0.604806
-518,64,0,0,0,0,0,0,0,0,0,-1,706,960,0,0
-511,64,0,0,0,0,0,0,0,0,0,-1,713,960,0,0
-504,64,0,0,0,0,0,0,0,0,0,-1,720,960,0,0
-497,64,0,0,0,0,0,0,0,0,0,-1,727,960,0,0
-490,64,0,0,0,0,0,0,0,0,0,-1,734,960,0,0
-483,64,0,0,0,0,0,0,0,0,0,-1,741,960,0,0
-476,64,0,0,0,0,0,0,0,0,0,-1,748,960,0,0
-469,64,0,0,0,0,0,0,0,0,0,-1,755,960,0,0
-462,64,0,0,0,0,0,0,0,0,0,-1,762,960,0,0
-455,64,0,0,0,0,0,0,0,0,0,-1,769,960,0,0
-448,64,0,0,0,0,0,0,0,0,0,-1,776,960,0,0
-441,64,0,0,0,0,0,0,0,0,0,-1,783,960,0,0
-434,64,0,0,0,0,0,0,0,0,0,-1,790,960,0,0
-427,64,0,0,0,0,0,0,0,0,0,-1,797,960,0,0
-420,64,0,0,0,0,0,0,0,0,0,-1,804,960,0,0
-413,64,0,0,0,0,0,0,0,0,0,-1,811,960,0,0
-406,64,0,0,0,0,0,0,0,0,0,-1,818,960,0,0
-399,64,0,0,0,0,0,0,0,0,0,-1,825,960,0,0
-392,64,0,0,0,0,0,0,0,0,0,-1,832,960,0,0
-385,64,0,0,0,0,0,0,0,0,0,-1,839,960,0,0
-378,64,0,0,0,0,0,0,0,0,0,-1,846,960,0,0
-371,64,0,0,0,0,0,0,0,0,0,-1,853,960,0,0
-364,64,0,0,0,0,0,0,0,0,0,-1,860,960,0,0
-357,64,0,0,0,0,0,0,0,0,0,-1,867,960,0,0
-350,64,0,0,0,0,0,0,0,0,0,-1,874,960,0,0
-343,64,0,0,0,0,0,0,0,0,0,-1,881,960,0,0
-336,64,0,0,0,0,0,0,0,0,0,-1,888,960,0,0
-329,64,0,0,0,0,0,0,0,0,0,-1,895,960,0,0
-322,64,0,0,0,0,0,0,0,0,0,-1,902,960,0,0
-315,64,0,0,0,0,0,0,0,0,0,-1,909,960,0,0
-308,64,0,0,0,0,0,0,0,0,0,-1,916,960,0,0
-301,64,0,0,0,0,0,0,0,0,0,-1,923,960,0,0
-294,64,0,0,0,0,0,0,0,0,0,-1,930,960,0,0
-287,64,0,0,0,0,0,0,0,0,0,-1,937,960,0,0
-280,64,0,0,0,0,0,0,0,0,0,-1,944,960,0,0
-273,64,0,0,0,0,0,0,0,0,0,-1,951,960,0,0
-266,64,0,0,0,0,0,0,0,0,0,-1,958,960,0,0
-259,64,0,0,0,0,0,0,0,0,0,-1,965,960,0,0
-252,64,0,0,0,0,0,0,0,0,0,-1,972,960,0,0
-245,64,0,0,0,0,0,0,0,0,0,-1,979,960,0,0
-238,64,0,0,0,0,0,0,0,0,0,-1,986,960,0,0
-231,64,0,0,0,0,0,0,0,0,0,-1,993,960,0,0
-224,64,0,0,0,0,0,0,0,0,0,-1,1000,960,0,0
-217,64,0,0,0,0,0,0,0,0,0,-1,1007,960,0,0
-210,64,0,0,0,0,0,0,0,0,0,-1,1014,960,0,0
-203,64,0,0,0,0,0,0,0,0,0,-1,1021,960,0,0
-196,64,0,0,0,0,0,0,0,0,0,-1,1028,960,0,0
-189,64,0,0,0,0,0,0,0,0,0,-1,1035,960,0,0
-182,64,0,0,0,0,0,0,0,0,0,-1,1042,960,0,0
-175,64,0,0,0,0,0,0,0,0,0,-1,1049,960,0,0
-168,64,0,0,0,0,0,0,0,0,0,-1,1056,960,0,0
-161,64,0,0,0,0,0,0,0,0,0,-1,1063,960,0,0
-154,64,0,0,0,0,0,0,0,0,0,-1,1070,960,0,0
-147,64,0,0,0,0,0,0,0,0,0,-1,1077,960,0,0
-140,64,0,0,0,0,0,0,0,0,0,-1,1084,960,0,0
-133,64,0,0,0,0,0,0,0,0,0,-1,1091,960,0,0
-126,64,0,0,0,0,0,0,0,0,0,-1,1098,960,0,0
-119,64,0,0,0,0,0,0,0,0,0,-1,1105,960,0,0
-112,64,0,0,0,0,0,0,0,0,0,-1,1112,960,0,0
-105,64,0,0,0,0,0,0,0,0,0,-1,1119,960,0,0
-98,64,0,0,0,0,0,0,0,0,0,-1,1126,960,0,0
-91,64,0,0,0,0,0,0,0,0,0,-1,1133,960,0,0
-84,64,0,0,0,0,0,0,0,0,0,-1,1140,960,0,0
-77,64,0,0,0,0,0,0,0,0,0,-1,1147,960,0,0
-70,64,0,0,0,0,0,0,0,0,0,-1,1154,960,0,0
-63,64,0,0,0,0,0,0,0,0,0,-1,1161,960,0,0
-56,64,0,0,0,0,0,0,0,0,0,-1,1168,960,0,0
-49,64,0,0,0,0,0,0,0,0,0,-1,1175,960,0,0
-42,64,0,0,0,0,0,0,0,0,0,-1,1182,960,0,0
-35,64,0,0,0,0,0,0,0,0,0,-1,1189,960,0,0
-28,64,0,0,0,0,0,0,0,0,0,-1,1196,960,0,0
-21,64,0,0,0,0,0,0,0,0,0,-1,1203,960,0,0
-14,64,0,0,0,0,0,0,0,0,0,-1,1210,960,0,0
-7,64,0,0,0,0,0,0,0,0,0,-1,1217,960,0,0
0,64,0,0,0,0,0,0,0,0,0,-1,1224,960,0,0
7,64,0,0,0,0,0,0,0,0,0,-1,1231,960,0,0
14,64,0,0,0,0,0,0,0,0,0,-1,1238,960,0,0
21,64,0,0,0,0,0,0,0,0,0,-1,1245,960,0,0
28,64,0,0,0,0,0,0,0,0,0,-1,1252,960,0,0
35,64,0,0,0,0,0,0,0,0,0,-1,1259,960,0,0
42,64,0,0,0,0,0,0,0,0,0,-1,1266,960,0,0
49,64,0,0,0,0,0,0,0,0,0,-1,1273,960,0,0
56,64,0,0,0,0,0,0,0,0,0,-1,1280,960,0,0
63,64,0,0,0,0,0,0,0,0,0,-1,1287,960,0,0
70,64,0,0,0,0,0,0,0,0,0,-1,1294,960,0,0
77,64,0,0,0,0,0,0,0,0,0,-1,1301,960,0,0
84,64,0,0,0,0,0,0,0,0,0,-1,1308,960,0,0
91,64,0,0,0,0,0,0,0,0,0,-1,1315,960,0,0
98,64,0,0,0,0,0,0,0,0,0,-1,1322,960,0,0
105,64,0,0,0,0,0,0,0,0,0,-1,1329,960,0,0
112,64,0,0,0,0,0,0,0,0,0,-1,1336,960,0,0
119,64,0,0,0,0,0,0,0,0,0,-1,1343,960,0,0
126,64,0,0,0,0,0,0,0,0,0,-1,1350,960,0,0
133,64,0,0,0,0,0,0,0,0,0,-1,1357,960,0,0
140,64,0,0,0,0,0,0,0,0,0,-1,1364,960,0,0
147,64,0,0,0,0,0,0,0,0,0,-1,1371,960,0,0
154,64,0,0,0,0,0,0,0,0,0,-1,1378,960,0,0
161,64,0,0,0,0,0,0,0,0,0,-1,1385,960,0,0
168,64,0,0,0,0,0,0,0,0,0,-1,1392,960,0,0
175,64,0,0,0,0,0,0,0,0,0,-1,1399,960,0,0
182,64,0,0,0,0,0,0,0,0,0,-1,1406,960,0,0
189,64,0,0,0,0,0,0,0,0,0,-1,1413,960,0,0
196,64,0,0,0,0,0,0,0,0,0,-1,1420,960,0,0
203,64,0,0,0,0,0,0,0,0,0,-1,1427,960,0,0
210,64,0,0,0,0,0,0,0,0,0,-1,1434,960,0,0
217,64,0,0,0,0,0,0,0,0,0,-1,1441,960,0,0
224,64,0,0,0,0,0,0,0,0,0,-1,1448,960,0,0
231,64,0,0,0,0,0,0,0,0,0,-1,1455,960,0,0
238,64,0,0,0,0,0,0,0,0,0,-1,1462,960,0,0
245,64,0,0,0,0,0,0,0,0,0,-1,1469,960,0,0
252,64,0,0,0,0,0,0,0,0,0,-1,1476,960,0,0
259,64,0,0,0,0,0,0,0,0,0,-1,1483,960,0,0
266,64,0,0,0,0,0,0,0,0,0,-1,1490,960,0,0
273,64,0,0,0,0,0,0,0,0,0,-1,1497,960,0,0
280,64,0,0,0,0,0,0,0,0,0,-1,1504,960,0,0
287,64,0,0,0,0,0,0,0,0,0,-1,1511,960,0,0
294,64,0,0,0,0,0,0,0,0,0,-1,1518,960,0,0
301,64,0,0,0,0,0,0,0,0,0,-1,1525,960,0,0
308,64,0,0,0,0,0,0,0,0,0,-1,1532,960,0,0
315,64,0,0,0,0,0,0,0,0,0,-1,1539,960,0,0
322,64,0,0,0,0,0,0,0,0,0,-1,1546,960,0,0
329,64,0,0,0,0,0,0,0,0,0,-1,1553,960,0,0
336,64,0,0,0,0,0,0,0,0,0,-1,1560,960,0,0
343,64,0,0,0,0,0,0,0,0,0,-1,1567,960,0,0
350,64,0,0,0,0,0,0,0,0,0,-1,1574,960,0,0
357,64,0,0,0,0,0,0,0,0,0,-1,1581,960,0,0
364,64,0,0,0,0,0,0,0,0,0,-1,1588,960,0,0
371,64,0,0,0,0,0,0,0,0,0,-1,1595,960,0,0
378,64,0,0,0,0,0,0,0,0,0,-1,1602,960,0,0
385,64,0,0,0,0,0,0,0,0,0,-1,1609,960,0,0
392,64,0,0,0,0,0,0,0,0,0,-1,1616,960,0,0
399,64,0,0,0,0,0,0,0,0,0,-1,1623,960,0,0
406,64,0,0,0,0,0,0,0,0,0,-1,1630,960,0,0
413,64,0,0,0,0,0,0,0,0,0,-1,1637,960,0,0
420,64,0,0,0,0,0,0,0,0,0,-1,1644,960,0,0
427,64,0,0,0,0,0,0,0,0,0,-1,1651,960,0,0
434,64,0,0,0,0,0,0,0,0,0,-1,1658,960,0,0
441,64,0,0,0,0,0,0,0,0,0,-1,1665,960,0,0
448,64,0,0,0,0,0,0,0,0,0,-1,1672,960,0,0
455,64,0,0,0,0,0,0,0,0,0,-1,1679,960,0,0
462,64,0,0,0,0,0,0,0,0,0,-1,1686,960,0,0
469,64,0,0,0,0,0,0,0,0,0,-1,1693,960,0,0
476,64,0,0,0,0,0,0,0,0,0,-1,1700,960,0,0
483,64,0,0,0,0,0,0,0,0,0,-1,1707,960,0,0
490,64,0,0,0,0,0,0,0,0,0,-1,1714,960,0,0
497,64,0,0,0,0,0,0,0,0,0,-1,1721,960,0,0
504,64,0,0,0,0,0,0,0,0,0,-1,1728,960,0,0
511,64,0,0,0,0,0,0,0,0,0,-1,1735,960,0,0
518,64,0,0,0,0,0,0,0,0,0,-1,1742,960,0,0
525,64,0,0,0,0,0,0,0,0,0,-1,1749,960,0,0
532,64,0,0,0,0,0,0,0,0,0,-1,1756,960,0,0
539,64,0,0,0,0,0,0,0,0,0,-1,1763,960,0,0
546,64,0,0,0,0,0,0,0,0,0,-1,1770,960,0,0
553,64,0,0,0,0,0,0,0,0,0,-1,1777,960,0,0
560,64,0,0,0,0,0,0,0,0,0,-1,1784,960,0,0
567,64,0,0,0,0,0,0,0,0,0,-1,1791,960,0,0
574,64,0,0,0,0,0,0,0,0,0,-1,1798,960,0,0
581,64,0,0,0,0,0,0,0,0,0,-1,1805,960,0,0
588,64,0,0,0,0,0,0,0,0,0,-1,1812,960,0,0
595,64,0,0,0,0,0,0,0,0,0,-1,1819,960,0,0
602,64,0,0,0,0,0,0,0,0,0,-1,1826,960,0,0
609,64,0,0,0,0,0,0,0,0,0,-1,1833,960,0,0
616,64,0,0,0,0,0,0,0,0,0,-1,1840,960,0,0
623,64,0,0,0,0,0,0,0,0,0,-1,1847,960,0,0
630,64,0,0,0,0,0,0,0,0,0,-1,1854,960,0,0
637,64,0,0,0,0,0,0,0,0,0,-1,1861,960,0,0
644,64,82.0742,2.448,0.0036004,0.00502878,-0.0003655,0.00511688,0.00351231,-1.33429,0.0030219,0.0443085,1868,960,82.0742,-2.44803
651,64,82.1423,2.39703,0.00165744,0.00389425,2.37693e-06,0.00389425,0.00165744,1.56973,0.00225662,0.0394996,1875,960,82.1423,-2.39704
658,64,82.1272,2.2818,0.000599322,0.00327845,0.000389593,0.00333395,0.000543818,1.42928,0.00206537,0.0378479,1882,960,82.1273,-2.28183
665,64,82.2098,2.46509,4.37623e-05,0.00296538,0.000706789,0.00312738,-0.000118239,1.34548,0.00212543,0.0406232,1889,960,82.2098,-2.46511
672,64,82.2899,2.61517,-0.000418651,0.00266801,0.00103948,0.00298543,-0.000736067,1.27443,0.00227567,0.0426536,1896,960,82.29,-2.61518
679,64,82.1868,2.33325,-0.000682585,0.0020799,0.00136075,0.00263759,-0.00124028,1.18183,0.00228683,0.0408855,1903,960,82.1868,-2.33328
686,64,82.0657,2.13922,-0.000741279,0.00139697,0.00130783,0.00201706,-0.00136137,1.12805,0.00196274,0.0376337,1910,960,82.0657,-2.13923
693,64,82.1227,2.12402,-0.00109582,0.000898655,0.00107289,0.00136619,-0.00156336,1.15983,0.00169265,0.0334007,1917,960,82.1227,-2.12401
700,64,82.1925,2.22882,-0.00182102,0.000723511,0.000738052,0.000922089,-0.0020196,1.30796,0.00173734,0.0308559,1924,960,82.1925,-2.22882
707,64,82.1993,2.53717,0,0,0,0,0,0,0,-1,1931,960,82.1994,-2.53717
714,64,80.8047,5.39294,0,0,0,0,0,0,0,-1,1938,960,80.8047,-5.39294
721,64,80.1945,5.96552,-0.00410004,0.00267879,-0.000880353,0.00279125,-0.00421251,-1.44374,0.00407128,0.0370417,1945,960,80.1945,-5.9655
728,64,79.8708,6.64142,-0.0050783,0.00409745,-0.00117038,0.00424438,-0.00522523,-1.44591,0.00547705,0.0299952,1952,960,79.8708,-6.6414
735,64,79.8336,7.29395,-0.00618542,0.00576575,-0.00137226,0.00592129,-0.00634096,-1.45793,0.007081,0.0383248,1959,960,79.8336,-7.29397
742,64,79.9519,7.72302,-0.00781619,0.00816865,-0.00156827,0.00832106,-0.0079686,-1.47392,0.00940557,0.0317906,1966,960,79.9519,-7.723
749,64,79.8792,8.21667,-0.00974889,0.0117125,-0.00177309,0.011858,-0.0098944,-1.48892,0.0125758,0.0185541,1973,960,79.8792,-8.2167
756,64,79.802,8.68945,-0.0116669,0.0170107,-0.00139406,0.0170783,-0.0117345,-1.52234,0.0167302,0.0169623,1980,960,79.802,-8.68944
763,64,79.7478,9.18982,-0.013551,0.0241211,3.72084e-05,0.0241211,-0.013551,1.56981,0.0220336,0.0201994,1987,960,79.7477,-9.18981
770,64,79.4661,9.5401,-0.0153877,0.0318757,0.00229136,0.0319866,-0.0154985,1.52247,0.027961,0.0210333,1994,960,79.4659,-9.54011
777,64,79.1221,10.0282,-0.017509,0.0400934,0.00557277,0.0406276,-0.0180432,1.47523,0.0347001,0.0372638,2001,960,79.122,-10.0282
784,64,78.9441,10.649,-0.0190757,0.0489049,0.0105806,0.0505136,-0.0206844,1.41991,0.0422916,0.0425764,2008,960,78.9441,-10.649
791,64,78.7263,11.1742,0,0,0,0,0,0,0,-1,2015,960,78.7263,-11.1742
798,64,76.1096,9.16791,0,0,0,0,0,0,0,-1,2022,960,76.1096,-9.16789
805,64,71.8018,7.16925,0,0,0,0,0,0,0,-1,2029,960,71.8016,-7.16926
812,64,0,0,0,0,0,0,0,0,0,-1,2036,960,0,0
-700,57,0,0,0,0,0,0,0,0,0,-1,524,967,0,0
-693,57,0,0,0,0,0,0,0,0,0,-1,531,967,0,0
-686,57,-68.1213,10.9506,0,0,0,0,0,0,0,-1,538,967,-68.1213,-10.9506
-679,57,-66.8411,11.1078,0,0,0,0,0,0,0,-1,545,967,-66.8411,-11.1078
-672,57,-68.8421,-1.19049,0,0,0,0,0,0,0,-1,552,967,-68.8421,1.19049
-665,57,-68.175,-0.653992,0,0,0,0,0,0,0,-1,559,967,-68.1751,0.653966
-658,57,-65.6603,1.69305,0,0,0,0,0,0,0,-1,566,967,-65.6603,-1.69307
-651,57,-64.5036,9.97455,0,0,0,0,0,0,0,-1,573,967,-64.5036,-9.97455
-644,57,-64.3785,9.51294,0.0128495,0.0578848,0.00393829,0.0582266,0.0125077,1.48422,0.035393,0.0429717,580,967,-64.3785,-9.51296
-637,57,-64.3013,9.10193,0.00579376,0.0424055,0.00534596,0.0431701,0.00502913,1.42873,0.0272588,0.024119,587,967,-64.3013,-9.10191
-630,57,-64.3796,8.70123,-0.000126917,0.0275325,0.00715083,0.0292718,-0.00186626,1.33219,0.0201654,0.0152543,594,967,-64.3796,-8.70126
-623,57,-64.4345,8.28583,-0.00285034,0.017215,0.00634543,0.0190532,-0.0046886,1.28882,0.0145196,0.0138864,601,967,-64.4345,-8.28584
-616,57,-64.4359,7.84497,-0.00233421,0.0110936,0.00515005,0.0128414,-0.00408196,1.24363,0.0101976,0.0157196,608,967,-64.4359,-7.84499
-609,57,-64.4598,7.32922,-0.00215451,0.00687553,0.00403464,0.00841557,-0.00369455,1.20616,0.00716669,0.0163313,615,967,-64.4598,-7.32924
-602,57,-64.4648,6.76581,-0.00200183,0.00415908,0.00305602,0.0054178,-0.00326055,1.18009,0.00506178,0.0120705,622,967,-64.4648,-6.76579
-595,57,-64.4733,6.26093,-0.00171357,0.00235994,0.00232764,0.00341612,-0.00276976,1.14482,0.00357791,0.0240218,629,967,-64.4733,-6.26095
-588,57,-64.1835,5.8847,-0.00155742,0.0010231,0.00177148,0.00192439,-0.00245872,1.10015,0.00253685,0.0416973,636,967,-64.1834,-5.8847
-581,57,-63.8516,5.36957,0,0,0,0,0,0,0,-1,643,967,-63.8517,-5.3696
-574,57,-65.363,0.625183,-0.00146134,-0.000746934,0.000638235,-0.000372744,-0.00183554,1.04052,0.00112031,0.0379391,650,967,-65.363,-0.62521
-567,57,-65.4301,0.403564,-0.00135939,-0.000839291,0.000229364,-0.000752593,-0.00144609,1.20941,0.000835131,0.0338608,657,967,-65.4301,-0.40355
-560,57,-65.5738,0.399536,-0.00129386,-0.000570376,-3.88804e-05,-0.000568292,-0.00129594,-1.51726,0.000750094,0.040804,664,967,-65.5738,-0.399521
-553,57,-65.586,0.284302,-0.00105478,-0.00011351,-0.000145371,-9.15703e-05,-0.00107672,-1.421,0.000689319,0.0400713,671,967,-65.586,-0.28432
-546,57,-65.5809,0.275696,-0.000527433,0.00018496,-5.94268e-05,0.000189883,-0.000532356,-1.48814,0.000432329,0.0417954,678,967,-65.5809,-0.275688
-539,57,-65.6682,0.441345,0.000121081,-0.00034319,0.000223515,0.000211197,-0.000433306,0.38324,0.000379397,0.0439006,685,967,-65.6682,-0.441322
-532,57,-65.7257,0.456299,0.00145689,-0.00199072,0.000635409,0.00157027,-0.0021041,0.176578,0.00212885,0.0407006,692,967,-65.7257,-0.456287
-525,57,-65.5117,0.340759,0.00252198,-0.00342613,0.000640601,0.00259019,-0.00349434,0.106078,0.00352581,0.0401574,699,967,-65.5116,-0.34078
-518,57,0,0,0,0,0,0,0,0,0,-1,706,967,0,0
-511,57,0,0,0,0,0,0,0,0,0,-1,713,967,0,0
-504,57,0,0,0,0,0,0,0,0,0,-1,720,967,0,0
-497,57,0,0,0,0,0,0,0,0,0,-1,727,967,0,0
-490,57,0,0,0,0,0,0,0,0,0,-1,734,967,0,0
-483,57,0,0,0,0,0,0,0,0,0,-1,741,967,0,0
-476,57,0,0,0,0,0,0,0,0,0,-1,748,967,0,0
-469,57,0,0,0,0,0,0,0,0,0,-1,755,967,0,0
-462,57,0,0,0,0,0,0,0,0,0,-1,762,967,0,0
-455,57,0,0,0,0,0,0,0,0,0,-1,769,967,0,0
-448,57,0,0,0,0,0,0,0,0,0,-1,776,967,0,0
-441,57,0,0,0,0,0,0,0,0,0,-1,783,967,0,0
-434,57,0,0,0,0,0,0,0,0,0,-1,790,967,0,0
-427,57,0,0,0,0,0,0,0,0,0,-1,797,967,0,0
-420,57,0,0,0,0,0,0,0,0,0,-1,804,967,0,0
-413,57,0,0,0,0,0,0,0,0,0,-1,811,967,0,0
-406,57,0,0,0,0,0,0,0,0,0,-1,818,967,0,0
-399,57,0,0,0,0,0,0,0,0,0,-1,825,967,0,0
-392,57,0,0,0,0,0,0,0,0,0,-1,832,967,0,0
-385,57,0,0,0,0,0,0,0,0,0,-1,839,967,0,0
-378,57,0,0,0,0,0,0,0,0,0,-1,846,967,0,0
-371,57,0,0,0,0,0,0,0,0,0,-1,853,967,0,0
-364,57,0,0,0,0,0,0,0,0,0,-1,860,967,0,0
-357,57,0,0,0,0,0,0,0,0,0,-1,867,967,0,0
-350,57,0,0,0,0,0,0,0,0,0,-1,874,967,0,0
-343,57,0,0,0,0,0,0,0,0,0,-1,881,967,0,0
-336,57,0,0,0,0,0,0,0,0,0,-1,888,967,0,0
-329,57,0,0,0,0,0,0,0,0,0,-1,895,967,0,0
-322,57,0,0,0,0,0,0,0,0,0,-1,902,967,0,0
-315,57,0,0,0,0,0,0,0,0,0,-1,909,967,0,0
-308,57,0,0,0,0,0,0,0,0,0,-1,916,967,0,0
-301,57,0,0,0,0,0,0,0,0,0,-1,923,967,0,0
-294,57,0,0,0,0,0,0,0,0,0,-1,930,967,0,0
-287,57,0,0,0,0,0,0,0,0,0,-1,937,967,0,0
-280,57,0,0,0,0,0,0,0,0,0,-1,944,967,0,0
-273,57,0,0,0,0,0,0,0,0,0,-1,951,967,0,0
-266,57,0,0,0,0,0,0,0,0,0,-1,958,967,0,0
-259,57,0,0,0,0,0,0,0,0,0,-1,965,967,0,0
-252,57,0,0,0,0,0,0,0,0,0,-1,972,967,0,0
-245,57,0,0,0,0,0,0,0,0,0,-1,979,967,0,0
-238,57,0,0,0,0,0,0,0,0,0,-1,986,967,0,0
-231,57,0,0,0,0,0,0,0,0,0,-1,993,967,0,0
-224,57,0,0,0,0,0,0,0,0,0,-1,1000,967,0,0
-217,57,0,0,0,0,0,0,0,0,0,-1,1007,967,0,0
-210,57,0,0,0,0,0,0,0,0,0,-1,1014,967,0,0
-203,57,0,0,0,0,0,0,0,0,0,-1,1021,967,0,0
-196,57,0,0,0,0,0,0,0,0,0,-1,1028,967,0,0
-189,57,0,0,0,0,0,0,0,0,0,-1,1035,967,0,0
-182,57,0,0,0,0,0,0,0,0,0,-1,1042,967,0,0
-175,57,0,0,0,0,0,0,0,0,0,-1,1049,967,0,0
-168,57,0,0,0,0,0,0,0,0,0,-1,1056,967,0,0
-161,57,0,0,0,0,0,0,0,0,0,-1,1063,967,0,0
-154,57,0,0,0,0,0,0,0,0,0,-1,1070,967,0,0
-147,57,0,0,0,0,0,0,0,0,0,-1,1077,967,0,0
-140,57,0,0,0,0,0,0,0,0,0,-1,1084,967,0,0
-133,57,0,0,0,0,0,0,0,0,0,-1,1091,967,0,0
-126,57,0,0,0,0,0,0,0,0,0,-1,1098,967,0,0
-119,57,0,0,0,0,0,0,0,0,0,-1,1105,967,0,0
-112,57,0,0,0,0,0,0,0,0,0,-1,1112,967,0,0
-105,57,0,0,0,0,0,0,0,0,0,-1,1119,967,0,0
-98,57,0,0,0,0,0,0,0,0,0,-1,1126,967,0,0
-91,57,0,0,0,0,0,0,0,0,0,-1,1133,967,0,0
-84,57,0,0,0,0,0,0,0,0,0,-1,1140,967,0,0
-77,57,0,0,0,0,0,0,0,0,0,-1,1147,967,0,0
-70,57,0,0,0,0,0,0,0,0,0,-1,1154,967,0,0
-63,57,0,0,0,0,0,0,0,0,0,-1,1161,967,0,0
-56,57,0,0,0,0,0,0,0,0,0,-1,1168,967,0,0
-49,57,0,0,0,0,0,0,0,0,0,-1,1175,967,0,0
-42,57,0,0,0,0,0,0,0,0,0,-1,1182,967,0,0
-35,57,0,0,0,0,0,0,0,0,0,-1,1189,967,0,0
-28,57,0,0,0,0,0,0,0,0,0,-1,1196,967,0,0
-21,57,0,0,0,0,0,0,0,0,0,-1,1203,967,0,0
-14,57,0,0,0,0,0,0,0,0,0,-1,1210,967,0,0
-7,57,0,0,0,0,0,0,0,0,0,-1,1217,967,0,0
0,57,0,0,0,0,0,0,0,0,0,-1,1224,967,0,0
7,57,0,0,0,0,0,0,0,0,0,-1,1231,967,0,0
14,57,0,0,0,0,0,0,0,0,0,-1,1238,967,0,0
21,57,0,0,0,0,0,0,0,0,0,-1,1245,967,0,0
28,57,0,0,0,0,0,0,0,0,0,-1,1252,967,0,0
35,57,0,0,0,0,0,0,0,0,0,-1,1259,967,0,0
42,57,0,0,0,0,0,0,0,0,0,-1,1266,967,0,0
49,57,0,0,0,0,0,0,0,0,0,-1,1273,967,0,0
56,57,0,0,0,0,0,0,0,0,0,-1,1280,967,0,0
63,57,0,0,0,0,0,0,0,0,0,-1,1287,967,0,0
70,57,0,0,0,0,0,0,0,0,0,-1,1294,967,0,0
77,57,0,0,0,0,0,0,0,0,0,-1,1301,967,0,0
84,57,0,0,0,0,0,0,0,0,0,-1,1308,967,0,0
91,57,0,0,0,0,0,0,0,0,0,-1,1315,967,0,0
98,57,0,0,0,0,0,0,0,0,0,-1,1322,967,0,0
105,57,0,0,0,0,0,0,0,0,0,-1,1329,967,0,0
112,57,0,0,0,0,0,0,0,0,0,-1,1336,967,0,0
119,57,0,0,0,0,0,0,0,0,0,-1,1343,967,0,0
126,57,0,0,0,0,0,0,0,0,0,-1,1350,967,0,0
133,57,0,0,0,0,0,0,0,0,0,-1,1357,967,0,0
140,57,0,0,0,0,0,0,0,0,0,-1,1364,967,0,0
147,57,0,0,0,0,0,0,0,0,0,-1,1371,967,0,0
154,57,0,0,0,0,0,0,0,0,0,-1,1378,967,0,0
161,57,0,0,0,0,0,0,0,0,0,-1,1385,967,0,0
168,57,0,0,0,0,0,0,0,0,0,-1,1392,967,0,0
175,57,0,0,0,0,0,0,0,0,0,-1,1399,967,0,0
182,57,0,0,0,0,0,0,0,0,0,-1,1406,967,0,0
189,57,0,0,0,0,0,0,0,0,0,-1,1413,967,0,0
196,57,0,0,0,0,0,0,0,0,0,-1,1420,967,0,0
203,57,0,0,0,0,0,0,0,0,0,-1,1427,967,0,0
210,57,0,0,0,0,0,0,0,0,0,-1,1434,967,0,0
217,57,0,0,0,0,0,0,0,0,0,-1,1441,967,0,0
224,57,0,0,0,0,0,0,0,0,0,-1,1448,967,0,0
231,57,0,0,0,0,0,0,0,0,0,-1,1455,967,0,0
238,57,0,0,0,0,0,0,0,0,0,-1,1462,967,0,0
245,57,0,0,0,0,0,0,0,0,0,-1,1469,967,0,0
252,57,0,0,0,0,0,0,0,0,0,-1,1476,967,0,0
259,57,0,0,0,0,0,0,0,0,0,-1,1483,967,0,0
266,57,0,0,0,0,0,0,0,0,0,-1,1490,967,0,0
273,57,0,0,0,0,0,0,0,0,0,-1,1497,967,0,0
280,57,0,0,0,0,0,0,0,0,0,-1,1504,967,0,0
287,57,0,0,0,0,0,0,0,0,0,-1,1511,967,0,0
294,57,0,0,0,0,0,0,0,0,0,-1,1518,967,0,0
301,57,0,0,0,0,0,0,0,0,0,-1,1525,967,0,0
308,57,0,0,0,0,0,0,0,0,0,-1,1532,967,0,0
315,57,0,0,0,0,0,0,0,0,0,-1,1539,967,0,0
322,57,0,0,0,0,0,0,0,0,0,-1,1546,967,0,0
329,57,0,0,0,0,0,0,0,0,0,-1,1553,967,0,0
336,57,0,0,0,0,0,0,0,0,0,-1,1560,967,0,0
343,57,0,0,0,0,0,0,0,0,0,-1,1567,967,0,0
350,57,0,0,0,0,0,0,0,0,0,-1,1574,967,0,0
357,57,0,0,0,0,0,0,0,0,0,-1,1581,967,0,0
364,57,0,0,0,0,0,0,0,0,0,-1,1588,967,0,0
371,57,0,0,0,0,0,0,0,0,0,-1,1595,967,0,0
378,57,0,0,0,0,0,0,0,0,0,-1,1602,967,0,0
385,57,0,0,0,0,0,0,0,0,0,-1,1609,967,0,0
392,57,0,0,0,0,0,0,0,0,0,-1,1616,967,0,0
399,57,0,0,0,0,0,0,0,0,0,-1,1623,967,0,0
406,57,0,0,0,0,0,0,0,0,0,-1,1630,967,0,0
413,57,0,0,0,0,0,0,0,0,0,-1,1637,967,0,0
420,57,0,0,0,0,0,0,0,0,0,-1,1644,967,0,0
427,57,0,0,0,0,0,0,0,0,0,-1,1651,967,0,0
434,57,0,0,0,0,0,0,0,0,0,-1,1658,967,0,0
441,57,0,0,0,0,0,0,0,0,0,-1,1665,967,0,0
448,57,0,0,0,0,0,0,0,0,0,-1,1672,967,0,0
455,57,0,0,0,0,0,0,0,0,0,-1,1679,967,0,0
462,57,0,0,0,0,0,0,0,0,0,-1,1686,967,0,0
469,57,0,0,0,0,0,0,0,0,0,-1,1693,967,0,0
476,57,0,0,0,0,0,0,0,0,0,-1,1700,967,0,0
483,57,0,0,0,0,0,0,0,0,0,-1,1707,967,0,0
490,57,0,0,0,0,0,0,0,0,0,-1,1714,967,0,0
497,57,0,0,0,0,0,0,0,0,0,-1,1721,967,0,0
504,57,0,0,0,0,0,0,0,0,0,-1,1728,967,0,0
511,57,0,0,0,0,0,0,0,0,0,-1,1735,967,0,0
518,57,0,0,0,0,0,0,0,0,0,-1,1742,967,0,0
525,57,0,0,0,0,0,0,0,0,0,-1,1749,967,0,0
532,57,0,0,0,0,0,0,0,0,0,-1,1756,967,0,0
539,57,0,0,0,0,0,0,0,0,0,-1,1763,967,0,0
546,57,0,0,0,0,0,0,0,0,0,-1,1770,967,0,0
553,57,0,0,0,0,0,0,0,0,0,-1,1777,967,0,0
560,57,0,0,0,0,0,0,0,0,0,-1,1784,967,0,0
567,57,0,0,0,0,0,0,0,0,0,-1,1791,967,0,0
574,57,0,0,0,0,0,0,0,0,0,-1,1798,967,0,0
581,57,0,0,0,0,0,0,0,0,0,-1,1805,967,0,0
588,57,0,0,0,0,0,0,0,0,0,-1,1812,967,0,0
595,57,0,0,0,0,0,0,0,0,0,-1,1819,967,0,0
602,57,0,0,0,0,0,0,0,0,0,-1,1826,967,0,0
609,57,0,0,0,0,0,0,0,0,0,-1,1833,967,0,0
616,57,0,0,0,0,0,0,0,0,0,-1,1840,967,0,0
623,57,0,0,0,0,0,0,0,0,0,-1,1847,967,0,0
630,57,0,0,0,0,0,0,0,0,0,-1,1854,967,0,0
637,57,0,0,0,0,0,0,0,0,0,-1,1861,967,0,0
644,57,82.1602,2.54193,0.00313899,0.00276161,0.000695085,0.00367054,0.00223006,0.652862,0.00213547,0.041937,1868,967,82.1602,-2.54196
651,57,82.2516,2.4184,0.00123048,0.00212893,0.000833898,0.0026269,0.000732505,1.03246,0.00156531,0.0327345,1875,967,82.2515,-2.4184
658,57,82.2236,2.28906,0.000300051,0.00189503,0.00101266,0.00238652,-0.000191439,1.11894,0.00165851,0.032478,1882,967,82.2236,-2.28908
665,57,82.1937,2.21906,-0.000107307,0.0019159,0.00113851,0.00242731,-0.000618712,1.14862,0.00185908,0.0434523,1889,967,82.1937,-2.21904
672,57,82.2743,2.27484,-0.00037969,0.00193822,0.0012997,0.00252064,-0.000962111,1.14951,0.0020768,0.0469958,1896,967,82.2743,-2.27486
679,57,82.1621,2.31488,-0.000450197,0.00162693,0.00152075,0.00242991,-0.00125318,1.08499,0.00216231,0.0417833,1903,967,82.1621,-2.31486
686,57,82.0061,2.15863,-0.000378062,0.00112123,0.00146905,0.00202085,-0.00127768,1.02132,0.00192046,0.0375644,1910,967,82.006,-2.1586
693,57,82.0441,2.24207,-0.000613341,0.000692285,0.00125865,0.00145734,-0.0013784,1.02463,0.00163743,0.0321158,1917,967,82.0441,-2.24207
700,57,82.1713,2.33264,-0.00122286,0.000557784,0.000920852,0.000948337,-0.00161341,1.16967,0.00149555,0.0258615,1924,967,82.1712,-2.33264
707,57,82.2577,2.42902,0,0,0,0,0,0,0,-1,1931,967,82.2577,-2.429
714,57,76.8607,2.55151,0,0,0,0,0,0,0,-1,1938,967,76.8607,-2.55154
721,57,80.6512,6.25525,0,0,0,0,0,0,0,-1,1945,967,80.6512,-6.25525
728,57,80.4817,6.79071,-0.00476414,0.00431473,-0.000983603,0.00442007,-0.00486948,-1.46411,0.00536541,0.0259842,1952,967,80.4817,-6.79073
735,57,80.5144,7.30328,-0.00594066,0.00605828,-0.0012562,0.00618838,-0.00607076,-1.46759,0.00707793,0.0337454,1959,967,80.5144,-7.30329
742,57,80.556,7.63647,-0.007694,0.00853135,-0.00148021,0.00866529,-0.00782793,-1.48056,0.00952645,0.0250868,1966,967,80.556,-7.63646
749,57,80.4299,8.15125,-0.00979619,0.0120236,-0.00183894,0.0121775,-0.00995009,-1.4873,0.0127969,0.0164476,1973,967,80.4298,-8.15127
756,57,80.3474,8.60364,-0.0118634,0.0172821,-0.00189326,0.0174046,-0.0119859,-1.5062,0.0170644,0.0133915,1980,967,80.3474,-8.60361
763,57,80.2241,9.05487,-0.0138147,0.024641,-0.00122974,0.0246803,-0.013854,-1.53886,0.0225386,0.0144651,1987,967,80.2242,-9.05489
770,57,80.0386,9.42853,-0.0156181,0.033006,0.000103527,0.0330062,-0.0156183,1.56867,0.0286654,0.0144689,1994,967,80.0386,-9.42855
777,57,79.8291,9.8244,-0.0174465,0.0421157,0.00198337,0.0421817,-0.0175125,1.53755,0.0354319,0.0302137,2001,967,79.829,-9.8244
784,57,79.731,10.0686,-0.0184271,0.0523779,0.0046737,0.0526851,-0.0187342,1.50517,0.0427588,0.0464554,2008,967,79.731,-10.0686
791,57,79.6392,10.4451,0,0,0,0,0,0,0,-1,2015,967,79.6391,-10.4451
798,57,77.2507,10.8243,0,0,0,0,0,0,0,-1,2022,967,77.2508,-10.8243
805,57,79.8223,8.00629,0,0,0,0,0,0,0,-1,2029,967,79.8223,-8.00626
812,57,0,0,0,0,0,0,0,0,0,-1,2036,967,0,0
-700,50,0,0,0,0,0,0,0,0,0,-1,524,974,0,0
-693,50,-69.0667,9.67914,0,0,0,0,0,0,0,-1,531,974,-69.0666,-9.67911
-686,50,-67.6961,9.75562,0.117872,0.197439,-0.0378802,0.212588,0.102722,-1.19035,0.122761,0.0461247,538,974,-67.6961,-9.75562
-679,50,-66.3728,9.99097,0.0885483,0.168176,-0.0197614,0.17281,0.0839137,-1.34044,0.0997858,0.0477997,545,974,-66.3728,-9.99094
-672,50,-64.8589,9.98047,0,0,0,0,0,0,0,-1,552,974,-64.8589,-9.98048
-665,50,-66.1696,0.16217,0,0,0,0,0,0,0,-1,559,974,-66.1696,-0.162174
-658,50,-62.2433,8.87628,0,0,0,0,0,0,0,-1,566,974,-62.2433,-8.87625
-651,50,-64.401,9.51904,0,0,0,0,0,0,0,-1,573,974,-64.401,-9.51903
-644,50,-64.6284,9.23199,0.0119507,0.0587847,0.00506021,0.0593252,0.0114102,1.46439,0.0363487,0.037356,580,974,-64.6283,-9.23201
-637,50,-64.807,8.89124,0.00508794,0.0431514,0.00579298,0.0440135,0.00422582,1.42306,0.0280401,0.0208578,587,974,-64.807,-8.89126
-630,50,-64.9282,8.54315,-0.00104494,0.0278273,0.00683988,0.0293657,-0.00258334,1.34956,0.0204926,0.0125574,594,974,-64.9282,-8.54314
-623,50,-64.9698,8.19769,-0.00386211,0.017225,0.00600958,0.0188175,-0.00545452,1.31177,0.0147043,0.0136766,601,974,-64.9698,-8.1977
-616,50,-64.9638,7.83673,-0.00323826,0.0112538,0.00479819,0.0126984,-0.00468289,1.27835,0.0103847,0.0135487,608,974,-64.9638,-7.83672
-609,50,-64.9673,7.34412,-0.0029126,0.00723472,0.00366942,0.00842258,-0.00410046,1.25772,0.00737233,0.0121091,615,974,-64.9673,-7.34409
-602,50,-64.9752,6.84778,-0.00261153,0.00461031,0.00271604,0.00551775,-0.00351898,1.24835,0.00525972,0.012876,622,974,-64.9752,-6.84776
-595,50,-65.0333,6.40863,-0.00222437,0.00283089,0.00200446,0.00352921,-0.00292269,1.23556,0.00373049,0.0203971,629,974,-65.0333,-6.40865
-588,50,-65.0175,5.72272,-0.00194657,0.00145446,0.00145119,0.0019895,-0.00248161,1.21757,0.0025866,0.0397753,636,974,-65.0175,-5.72271
-581,50,-64.9266,4.69897,0,0,0,0,0,0,0,-1,643,974,-64.9266,-4.69899
-574,50,-65.3833,0.531921,-0.0016637,-0.000353757,0.000350574,-0.000265835,-0.00175162,1.32507,0.00108999,0.0296963,650,974,-65.3833,-0.531937
-567,50,-65.4166,0.309021,-0.00151916,-0.000449844,-2.13159e-05,-0.000449419,-0.00151958,-1.55087,0.000901401,0.0380623,657,974,-65.4165,-0.309048
-560,50,-65.5136,0.227112,-0.00137277,-0.000206416,-0.000217922,-0.000167029,-0.00141216,-1.39199,0.000890996,0.044652,664,974,-65.5136,-0.227135
-553,50,-65.5168,0.0740967,-0.00108123,0.00015332,-0.000230278,0.000194875,-0.00112278,-1.39226,0.000821225,0.0426387,671,974,-65.5168,-0.0741
-546,50,-65.602,0.435303,-0.00057828,0.000182873,-2.05872e-05,0.00018343,-0.000578836,-1.54378,0.000459407,0.0401191,678,974,-65.602,-0.435273
-539,50,-65.6177,0.850647,0,0,0,0,0,0,0,-1,685,974,-65.6177,-0.850654
-532,50,-65.2282,0.124817,0,0,0,0,0,0,0,-1,692,974,-65.2282,-0.124799
-525,50,-65.3649,0.296509,0,0,0,0,0,0,0,-1,699,974,-65.3648,-0.296516
-518,50,0,0,0,0,0,0,0,0,0,-1,706,974,0,0
-511,50,0,0,0,0,0,0,0,0,0,-1,713,974,0,0
-504,50,0,0,0,0,0,0,0,0,0,-1,720,974,0,0
-497,50,0,0,0,0,0,0,0,0,0,-1,727,974,0,0
-490,50,0,0,0,0,0,0,0,0,0,-1,734,974,0,0
-483,50,0,0,0,0,0,0,0,0,0,-1,741,974,0,0
-476,50,0,0,0,0,0,0,0,0,0,-1,748,974,0,0
-469,50,0,0,0,0,0,0,0,0,0,-1,755,974,0,0
-462,50,0,0,0,0,0,0,0,0,0,-1,762,974,0,0
-455,50,0,0,0,0,0,0,0,0,0,-1,769,974,0,0
-448,50,0,0,0,0,0,0,0,0,0,-1,776,974,0,0
-441,50,0,0,0,0,0,0,0,0,0,-1,783,974,0,0
-434,50,0,0,0,0,0,0,0,0,0,-1,790,974,0,0
-427,50,0,0,0,0,0,0,0,0,0,-1,797,974,0,0
-420,50,0,0,0,0,0,0,0,0,0,-1,804,974,0,0
-413,50,0,0,0,0,0,0,0,0,0,-1,811,974,0,0
-406,50,0,0,0,0,0,0,0,0,0,-1,818,974,0,0
-399,50,0,0,0,0,0,0,0,0,0,-1,825,974,0,0
-392,50,0,0,0,0,0,0,0,0,0,-1,832,974,0,0
-385,50,0,0,0,0,0,0,0,0,0,-1,839,974,0,0
-378,50,0,0,0,0,0,0,0,0,0,-1,846,974,0,0
-371,50,0,0,0,0,0,0,0,0,0,-1,853,974,0,0
-364,50,0,0,0,0,0,0,0,0,0,-1,860,974,0,0
-357,50,0,0,0,0,0,0,0,0,0,-1,867,974,0,0
-350,50,0,0,0,0,0,0,0,0,0,-1,874,974,0,0
-343,50,0,0,0,0,0,0,0,0,0,-1,881,974,0,0
-336,50,0,0,0,0,0,0,0,0,0,-1,888,974,0,0
-329,50,0,0,0,0,0,0,0,0,0,-1,895,974,0,0
-322,50,0,0,0,0,0,0,0,0,0,-1,902,974,0,0
-315,50,0,0,0,0,0,0,0,0,0,-1,909,974,0,0
-308,50,0,0,0,0,0,0,0,0,0,-1,916,974,0,0
-301,50,0,0,0,0,0,0,0,0,0,-1,923,974,0,0
-294,50,0,0,0,0,0,0,0,0,0,-1,930,974,0,0
-287,50,0,0,0,0,0,0,0,0,0,-1,937,974,0,0
-280,50,0,0,0,0,0,0,0,0,0,-1,944,974,0,0
-273,50,0,0,0,0,0,0,0,0,0,-1,951,974,0,0
-266,50,0,0,0,0,0,0,0,0,0,-1,958,974,0,0
-259,50,0,0,0,0,0,0,0,0,0,-1,965,974,0,0
-252,50,0,0,0,0,0,0,0,0,0,-1,972,974,0,0
-245,50,0,0,0,0,0,0,0,0,0,-1,979,974,0,0
-238,50,0,0,0,0,0,0,0,0,0,-1,986,974,0,0
-231,50,0,0,0,0,0,0,0,0,0,-1,993,974,0,0
-224,50,0,0,0,0,0,0,0,0,0,-1,1000,974,0,0
-217,50,0,0,0,0,0,0,0,0,0,-1,1007,974,0,0
-210,50,0,0,0,0,0,0,0,0,0,-1,1014,974,0,0
-203,50,0,0,0,0,0,0,0,0,0,-1,1021,974,0,0
-196,50,0,0,0,0,0,0,0,0,0,-1,1028,974,0,0
-189,50,0,0,0,0,0,0,0,0,0,-1,1035,974,0,0
-182,50,0,0,0,0,0,0,0,0,0,-1,1042,974,0,0
-175,50,0,0,0,0,0,0,0,0,0,-1,1049,974,0,0
-168,50,0,0,0,0,0,0,0,0,0,-1,1056,974,0,0
-161,50,0,0,0,0,0,0,0,0,0,-1,1063,974,0,0
-154,50,0,0,0,0,0,0,0,0,0,-1,1070,974,0,0
-147,50,0,0,0,0,0,0,0,0,0,-1,1077,974,0,0
-140,50,0,0,0,0,0,0,0,0,0,-1,1084,974,0,0
-133,50,0,0,0,0,0,0,0,0,0,-1,1091,974,0,0
-126,50,0,0,0,0,0,0,0,0,0,-1,1098,974,0,0
-119,50,0,0,0,0,0,0,0,0,0,-1,1105,974,0,0
-112,50,0,0,0,0,0,0,0,0,0,-1,1112,974,0,0
-105,50,0,0,0,0,0,0,0,0,0,-1,1119,974,0,0
-98,50,0,0,0,0,0,0,0,0,0,-1,1126,974,0,0
-91,50,0,0,0,0,0,0,0,0,0,-1,1133,974,0,0
-84,50,0,0,0,0,0,0,0,0,0,-1,1140,974,0,0
-77,50,0,0,0,0,0,0,0,0,0,-1,1147,974,0,0
-70,50,0,0,0,0,0,0,0,0,0,-1,1154,974,0,0
-63,50,0,0,0,0,0,0,0,0,0,-1,1161,974,0,0
-56,50,0,0,0,0,0,0,0,0,0,-1,1168,974,0,0
-49,50,0,0,0,0,0,0,0,0,0,-1,1175,974,0,0
-42,50,0,0,0,0,0,0,0,0,0,-1,1182,974,0,0
-35,50,0,0,0,0,0,0,0,0,0,-1,1189,974,0,0
-28,50,0,0,0,0,0,0,0,0,0,-1,1196,974,0,0
-21,50,0,0,0,0,0,0,0,0,0,-1,1203,974,0,0
-14,50,0,0,0,0,0,0,0,0,0,-1,1210,974,0,0
-7,50,0,0,0,0,0,0,0,0,0,-1,1217,974,0,0
0,50,0,0,0,0,0,0,0,0,0,-1,1224,974,0,0
7,50,0,0,0,0,0,0,0,0,0,-1,1231,974,0,0
14,50,0,0,0,0,0,0,0,0,0,-1,1238,974,0,0
21,50,0,0,0,0,0,0,0,0,0,-1,1245,974,0,0
28,50,0,0,0,0,0,0,0,0,0,-1,1252,974,0,0
35,50,0,0,0,0,0,0,0,0,0,-1,1259,974,0,0
42,50,0,0,0,0,0,0,0,0,0,-1,1266,974,0,0
49,50,0,0,0,0,0,0,0,0,0,-1,1273,974,0,0
56,50,0,0,0,0,0,0,0,0,0,-1,1280,974,0,0
63,50,0,0,0,0,0,0,0,0,0,-1,1287,974,0,0
70,50,0,0,0,0,0,0,0,0,0,-1,1294,974,0,0
77,50,0,0,0,0,0,0,0,0,0,-1,1301,974,0,0
84,50,0,0,0,0,0,0,0,0,0,-1,1308,974,0,0
91,50,0,0,0,0,0,0,0,0,0,-1,1315,974,0,0
98,50,0,0,0,0,0,0,0,0,0,-1,1322,974,0,0
105,50,0,0,0,0,0,0,0,0,0,-1,1329,974,0,0
112,50,0,0,0,0,0,0,0,0,0,-1,1336,974,0,0
119,50,0,0,0,0,0,0,0,0,0,-1,1343,974,0,0
126,50,0,0,0,0,0,0,0,0,0,-1,1350,974,0,0
133,50,0,0,0,0,0,0,0,0,0,-1,1357,974,0,0
140,50,0,0,0,0,0,0,0,0,0,-1,1364,974,0,0
147,50,0,0,0,0,0,0,0,0,0,-1,1371,974,0,0
154,50,0,0,0,0,0,0,0,0,0,-1,1378,974,0,0
161,50,0,0,0,0,0,0,0,0,0,-1,1385,974,0,0
168,50,0,0,0,0,0,0,0,0,0,-1,1392,974,0,0
175,50,0,0,0,0,0,0,0,0,0,-1,1399,974,0,0
182,50,0,0,0,0,0,0,0,0,0,-1,1406,974,0,0
189,50,0,0,0,0,0,0,0,0,0,-1,1413,974,0,0
196,50,0,0,0,0,0,0,0,0,0,-1,1420,974,0,0
203,50,0,0,0,0,0,0,0,0,0,-1,1427,974,0,0
210,50,0,0,0,0,0,0,0,0,0,-1,1434,974,0,0
217,50,0,0,0,0,0,0,0,0,0,-1,1441,974,0,0
224,50,0,0,0,0,0,0,0,0,0,-1,1448,974,0,0
231,50,0,0,0,0,0,0,0,0,0,-1,1455,974,0,0
238,50,0,0,0,0,0,0,0,0,0,-1,1462,974,0,0
245,50,0,0,0,0,0,0,0,0,0,-1,1469,974,0,0
252,50,0,0,0,0,0,0,0,0,0,-1,1476,974,0,0
259,50,0,0,0,0,0,0,0,0,0,-1,1483,974,0,0
266,50,0,0,0,0,0,0,0,0,0,-1,1490,974,0,0
273,50,0,0,0,0,0,0,0,0,0,-1,1497,974,0,0
280,50,0,0,0,0,0,0,0,0,0,-1,1504,974,0,0
287,50,0,0,0,0,0,0,0,0,0,-1,1511,974,0,0
294,50,0,0,0,0,0,0,0,0,0,-1,1518,974,0,0
301,50,0,0,0,0,0,0,0,0,0,-1,1525,974,0,0
308,50,0,0,0,0,0,0,0,0,0,-1,1532,974,0,0
315,50,0,0,0,0,0,0,0,0,0,-1,1539,974,0,0
322,50,0,0,0,0,0,0,0,0,0,-1,1546,974,0,0
329,50,0,0,0,0,0,0,0,0,0,-1,1553,974,0,0
336,50,0,0,0,0,0,0,0,0,0,-1,1560,974,0,0
343,50,0,0,0,0,0,0,0,0,0,-1,1567,974,0,0
350,50,0,0,0,0,0,0,0,0,0,-1,1574,974,0,0
357,50,0,0,0,0,0,0,0,0,0,-1,1581,974,0,0
364,50,0,0,0,0,0,0,0,0,0,-1,1588,974,0,0
371,50,0,0,0,0,0,0,0,0,0,-1,1595,974,0,0
378,50,0,0,0,0,0,0,0,0,0,-1,1602,974,0,0
385,50,0,0,0,0,0,0,0,0,0,-1,1609,974,0,0
392,50,0,0,0,0,0,0,0,0,0,-1,1616,974,0,0
399,50,0,0,0,0,0,0,0,0,0,-1,1623,974,0,0
406,50,0,0,0,0,0,0,0,0,0,-1,1630,974,0,0
413,50,0,0,0,0,0,0,0,0,0,-1,1637,974,0,0
420,50,0,0,0,0,0,0,0,0,0,-1,1644,974,0,0
427,50,0,0,0,0,0,0,0,0,0,-1,1651,974,0,0
434,50,0,0,0,0,0,0,0,0,0,-1,1658,974,0,0
441,50,0,0,0,0,0,0,0,0,0,-1,1665,974,0,0
448,50,0,0,0,0,0,0,0,0,0,-1,1672,974,0,0
455,50,0,0,0,0,0,0,0,0,0,-1,1679,974,0,0
462,50,0,0,0,0,0,0,0,0,0,-1,1686,974,0,0
469,50,0,0,0,0,0,0,0,0,0,-1,1693,974,0,0
476,50,0,0,0,0,0,0,0,0,0,-1,1700,974,0,0
483,50,0,0,0,0,0,0,0,0,0,-1,1707,974,0,0
490,50,0,0,0,0,0,0,0,0,0,-1,1714,974,0,0
497,50,0,0,0,0,0,0,0,0,0,-1,1721,974,0,0
504,50,0,0,0,0,0,0,0,0,0,-1,1728,974,0,0
511,50,0,0,0,0,0,0,0,0,0,-1,1735,974,0,0
518,50,0,0,0,0,0,0,0,0,0,-1,1742,974,0,0
525,50,0,0,0,0,0,0,0,0,0,-1,1749,974,0,0
532,50,0,0,0,0,0,0,0,0,0,-1,1756,974,0,0
539,50,0,0,0,0,0,0,0,0,0,-1,1763,974,0,0
546,50,0,0,0,0,0,0,0,0,0,-1,1770,974,0,0
553,50,0,0,0,0,0,0,0,0,0,-1,1777,974,0,0
560,50,0,0,0,0,0,0,0,0,0,-1,1784,974,0,0
567,50,0,0,0,0,0,0,0,0,0,-1,1791,974,0,0
574,50,0,0,0,0,0,0,0,0,0,-1,1798,974,0,0
581,50,0,0,0,0,0,0,0,0,0,-1,1805,974,0,0
588,50,0,0,0,0,0,0,0,0,0,-1,1812,974,0,0
595,50,0,0,0,0,0,0,0,0,0,-1,1819,974,0,0
602,50,0,0,0,0,0,0,0,0,0,-1,1826,974,0,0
609,50,0,0,0,0,0,0,0,0,0,-1,1833,974,0,0
616,50,0,0,0,0,0,0,0,0,0,-1,1840,974,0,0
623,50,0,0,0,0,0,0,0,0,0,-1,1847,974,0,0
630,50,0,0,0,0,0,0,0,0,0,-1,1854,974,0,0
637,50,0,0,0,0,0,0,0,0,0,-1,1861,974,0,0
644,50,82.2723,2.27258,0.00231193,0.00185575,0.00145726,0.00355884,0.00060884,0.707768,0.0021979,0.0394222,1868,974,82.2724,-2.27258
651,50,82.2646,2.31958,0.000711371,0.00140673,0.00129439,0.00239933,-0.000281224,0.916603,0.00170106,0.030934,1875,974,82.2646,-2.3196
658,50,82.2537,2.2937,5.33479e-05,0.00128893,0.00126591,0.00207976,-0.000737475,1.01241,0.00168695,0.0361714,1882,974,82.2537,-2.29369
665,50,82.2001,1.99158,-0.000136671,0.00141176,0.00124568,0.00210422,-0.000829131,1.06344,0.00174609,0.042434,1889,974,82.2001,-1.99157
672,50,82.0917,1.97375,-0.000194987,0.00155436,0.00130112,0.00224748,-0.000888101,1.08133,0.00186617,0.0413012,1896,974,82.0917,-1.97376
679,50,81.967,2.38062,-8.9197e-05,0.00138286,0.00147736,0.00229738,-0.00100373,1.0165,0.00195407,0.0380661,1903,974,81.967,-2.38063
686,50,81.9918,2.23352,9.15751e-05,0.000959938,0.00146651,0.00205519,-0.00100367,0.929319,0.00180048,0.0392189,1910,974,81.9919,-2.23349
693,50,82.0276,2.23364,-5.7255e-05,0.000571513,0.00131845,0.00161254,-0.00109828,0.902438,0.00157445,0.0377338,1917,974,82.0276,-2.23367
700,50,82.1136,2.37885,-0.000584015,0.000433661,0.00101436,0.00105965,-0.00121001,1.01788,0.00131135,0.0223153,1924,974,82.1137,-2.37885
707,50,82.1534,2.44305,-0.00126276,0.000834144,0.000507325,0.000950437,-0.00137905,1.34546,0.0013525,0.0323842,1931,974,82.1535,-2.44304
714,50,82.0817,2.52533,0,0,0,0,0,0,0,-1,1938,974,82.0817,-2.52531
721,50,80.9529,6.37738,0,0,0,0,0,0,0,-1,1945,974,80.9529,-6.37737
728,50,81.042,6.83673,-0.00464252,0.00455742,-0.00079955,0.0046264,-0.00471149,-1.48475,0.0053913,0.0213942,1952,974,81.042,-6.8367
735,50,81.0721,7.31323,-0.0059179,0.00637411,-0.00113411,0.00647788,-0.00602166,-1.47956,0.00721821,0.0232038,1959,974,81.0722,-7.31325
742,50,81.0542,7.77313,-0.00779245,0.00888077,-0.00139253,0.00899627,-0.00790795,-1.48804,0.0097664,0.018381,1966,974,81.0542,-7.77313
749,50,80.9783,8.1239,-0.0100815,0.0123281,-0.00186409,0.0124821,-0.0102355,-1.48837,0.0131373,0.0184951,1973,974,80.9782,-8.1239
756,50,80.8486,8.5061,-0.0122815,0.0175686,-0.00228569,0.0177426,-0.0124555,-1.49481,0.0175238,0.0159971,1980,974,80.8486,-8.50613
763,50,80.698,8.91925,-0.014255,0.0251352,-0.00233531,0.0252731,-0.0143929,-1.51179,0.0231866,0.0158981,1987,974,80.6981,-8.91926
770,50,80.5549,9.26941,-0.015968,0.0341235,-0.00187841,0.0341938,-0.0160383,-1.53337,0.0296262,0.0149871,1994,974,80.555,-9.2694
777,50,80.4768,9.60181,-0.0174344,0.0441411,-0.00130388,0.0441687,-0.017462,-1.54963,0.0366792,0.0257171,2001,974,80.4767,-9.60182
784,50,80.4231,9.9126,-0.0177888,0.0557481,-0.000710553,0.055755,-0.0177957,-1.56114,0.0443096,0.041181,2008,974,80.423,-9.91257
791,50,80.3723,10.2393,0,0,0,0,0,0,0,-1,2015,974,80.3723,-10.2393
798,50,82.1772,12.8138,0,0,0,0,0,0,0,-1,2022,974,82.1774,-12.8138
805,50,83.3923,13.9974,0,0,0,0,0,0,0,-1,2029,974,83.3923,-13.9974
812,50,0,0,0,0,0,0,0,0,0,-1,2036,974,0,0
-700,43,0,0,0,0,0,0,0,0,0,-1,524,981,0,0
-693,43,-66.3734,7.41064,0,0,0,0,0,0,0,-1,531,981,-66.3734,-7.41068
-686,43,-66.0093,8.38934,0.102758,0.191113,-0.022317,0.19643,0.0974409,-1.33691,0.11341,0.0467972,538,981,-66.0093,-8.38937
-679,43,-65.9407,9.16077,0.0784725,0.162708,-0.00597179,0.163129,0.0780512,-1.50037,0.0942118,0.0476264,545,981,-65.9407,-9.16075
-672,43,-65.4492,9.65234,0,0,0,0,0,0,0,-1,552,981,-65.4492,-9.65233
-665,43,-62.4393,6.80096,0,0,0,0,0,0,0,-1,559,981,-62.4393,-6.80097
-658,43,-64.804,9.38934,0,0,0,0,0,0,0,-1,566,981,-64.804,-9.38933
-651,43,-64.9528,9.1701,0.0194276,0.0764589,0.00759616,0.0774533,0.0184332,1.44063,0.0467195,0.048321,573,981,-64.9528,-9.17014
-644,43,-65.0944,8.95392,0.0106038,0.0588204,0.00741814,0.0599359,0.0094883,1.42154,0.0372001,0.0286037,580,981,-65.0944,-8.95393
-637,43,-65.3037,8.67535,0.00383411,0.0433918,0.00650447,0.0444339,0.00279203,1.41194,0.0287372,0.0198321,587,981,-65.3037,-8.67533
-630,43,-65.3724,8.40521,-0.00237416,0.0278236,0.0064694,0.0291512,-0.00370176,1.36839,0.0207782,0.0149795,594,981,-65.3724,-8.40522
-623,43,-65.3911,8.0899,-0.00508565,0.0170133,0.00559393,0.0183486,-0.00642097,1.33647,0.0148431,0.0136574,601,981,-65.3911,-8.08993
-616,43,-65.3948,7.72583,-0.00428336,0.0111985,0.00438273,0.0123531,-0.00543796,1.31321,0.0105271,0.0129548,608,981,-65.3949,-7.72583
-609,43,-65.3986,7.31201,-0.00378568,0.00733324,0.00326152,0.00821932,-0.00467177,1.30552,0.00753603,0.0149032,615,981,-65.3986,-7.31199
-602,43,-65.3935,6.92505,-0.00331618,0.00481576,0.00235662,0.00544935,-0.00394976,1.30816,0.00544955,0.0192212,622,981,-65.3935,-6.92506
-595,43,-65.6075,6.57855,-0.0028053,0.00309909,0.00169084,0.00354901,-0.00325522,1.31073,0.00392964,0.0216135,629,981,-65.6075,-6.57856
-588,43,-65.9567,6.36578,0,0,0,0,0,0,0,-1,636,981,-65.9567,-6.36581
-581,43,-65.4481,0.575073,0,0,0,0,0,0,0,-1,643,981,-65.4481,-0.575063
-574,43,-65.4183,0.444397,-0.00189418,-5.9836e-05,0.000159653,-4.60442e-05,-0.00190797,1.48462,0.00125692,0.0293608,650,981,-65.4183,-0.444402
-567,43,-65.3643,0.341248,-0.00167745,-0.000150826,-0.000129224,-0.000139965,-0.00168831,-1.48694,0.00108191,0.0382974,657,981,-65.3643,-0.341263
-560,43,-65.3163,0.247864,-0.00144606,8.46363e-05,-0.000223969,0.000116734,-0.00147816,-1.42845,0.00102656,0.0429868,664,981,-65.3164,-0.247875
-553,43,-65.3793,0.340515,-0.00111859,0.000384395,-0.00010219,0.000391311,-0.00112551,-1.50322,0.000909289,0.042971,671,981,-65.3793,-0.340504
-546,43,-65.4832,0.544312,-0.000681739,0.000219233,0.000290795,0.000304937,-0.000767443,1.28419,0.000638045,0.0413625,678,981,-65.4832,-0.544283
-539,43,-65.4125,0.669983,-0.000463728,-0.00118387,0.000987766,0.000227548,-0.00187515,0.610617,0.00133244,0.0444788,685,981,-65.4126,-0.669996
-532,43,-65.3575,0.797058,0,0,0,0,0,0,0,-1,692,981,-65.3575,-0.797035
-525,43,-65.3287,0.0897217,0,0,0,0,0,0,0,-1,699,981,-65.3287,-0.0897446
-518,43,0,0,0,0,0,0,0,0,0,-1,706,981,0,0
-511,43,0,0,0,0,0,0,0,0,0,-1,713,981,0,0
-504,43,0,0,0,0,0,0,0,0,0,-1,720,981,0,0
-497,43,0,0,0,0,0,0,0,0,0,-1,727,981,0,0
-490,43,0,0,0,0,0,0,0,0,0,-1,734,981,0,0
-483,43,0,0,0,0,0,0,0,0,0,-1,741,981,0,0
-476,43,0,0,0,0,0,0,0,0,0,-1,748,981,0,0
-469,43,0,0,0,0,0,0,0,0,0,-1,755,981,0,0
-462,43,0,0,0,0,0,0,0,0,0,-1,762,981,0,0
-455,43,0,0,0,0,0,0,0,0,0,-1,769,981,0,0
-448,43,0,0,0,0,0,0,0,0,0,-1,776,981,0,0
-441,43,0,0,0,0,0,0,0,0,0,-1,783,981,0,0
-434,43,0,0,0,0,0,0,0,0,0,-1,790,981,0,0
-427,43,0,0,0,0,0,0,0,0,0,-1,797,981,0,0
-420,43,0,0,0,0,0,0,0,0,0,-1,804,981,0,0
-413,43,0,0,0,0,0,0,0,0,0,-1,811,981,0,0
-406,43,0,0,0,0,0,0,0,0,0,-1,818,981,0,0
-399,43,0,0,0,0,0,0,0,0,0,-1,825,981,0,0
-392,43,0,0,0,0,0,0,0,0,0,-1,832,981,0,0
-385,43,0,0,0,0,0,0,0,0,0,-1,839,981,0,0
-378,43,0,0,0,0,0,0,0,0,0,-1,846,981,0,0
-371,43,0,0,0,0,0,0,0,0,0,-1,853,981,0,0
-364,43,0,0,0,0,0,0,0,0,0,-1,860,981,0,0
-357,43,0,0,0,0,0,0,0,0,0,-1,867,981,0,0
-350,43,0,0,0,0,0,0,0,0,0,-1,874,981,0,0
-343,43,0,0,0,0,0,0,0,0,0,-1,881,981,0,0
-336,43,0,0,0,0,0,0,0,0,0,-1,888,981,0,0
-329,43,0,0,0,0,0,0,0,0,0,-1,895,981,0,0
-322,43,0,0,0,0,0,0,0,0,0,-1,902,981,0,0
-315,43,0,0,0,0,0,0,0,0,0,-1,909,981,0,0
-308,43,0,0,0,0,0,0,0,0,0,-1,916,981,0,0
-301,43,0,0,0,0,0,0,0,0,0,-1,923,981,0,0
-294,43,0,0,0,0,0,0,0,0,0,-1,930,981,0,0
-287,43,0,0,0,0,0,0,0,0,0,-1,937,981,0,0
-280,43,0,0,0,0,0,0,0,0,0,-1,944,981,0,0
-273,43,0,0,0,0,0,0,0,0,0,-1,951,981,0,0
-266,43,0,0,0,0,0,0,0,0,0,-1,958,981,0,0
-259,43,0,0,0,0,0,0,0,0,0,-1,965,981,0,0
-252,43,0,0,0,0,0,0,0,0,0,-1,972,981,0,0
-245,43,0,0,0,0,0,0,0,0,0,-1,979,981,0,0
-238,43,0,0,0,0,0,0,0,0,0,-1,986,981,0,0
-231,43,0,0,0,0,0,0,0,0,0,-1,993,981,0,0
-224,43,0,0,0,0,0,0,0,0,0,-1,1000,981,0,0
-217,43,0,0,0,0,0,0,0,0,0,-1,1007,981,0,0
-210,43,0,0,0,0,0,0,0,0,0,-1,1014,981,0,0
-203,43,0,0,0,0,0,0,0,0,0,-1,1021,981,0,0
-196,43,0,0,0,0,0,0,0,0,0,-1,1028,981,0,0
-189,43,0,0,0,0,0,0,0,0,0,-1,1035,981,0,0
-182,43,0,0,0,0,0,0,0,0,0,-1,1042,981,0,0
-175,43,0,0,0,0,0,0,0,0,0,-1,1049,981,0,0
-168,43,0,0,0,0,0,0,0,0,0,-1,1056,981,0,0
-161,43,0,0,0,0,0,0,0,0,0,-1,1063,981,0,0
-154,43,0,0,0,0,0,0,0,0,0,-1,1070,981,0,0
-147,43,0,0,0,0,0,0,0,0,0,-1,1077,981,0,0
-140,43,0,0,0,0,0,0,0,0,0,-1,1084,981,0,0
-133,43,0,0,0,0,0,0,0,0,0,-1,1091,981,0,0
-126,43,0,0,0,0,0,0,0,0,0,-1,1098,981,0,0
-119,43,0,0,0,0,0,0,0,0,0,-1,1105,981,0,0
-112,43,0,0,0,0,0,0,0,0,0,-1,1112,981,0,0
-105,43,0,0,0,0,0,0,0,0,0,-1,1119,981,0,0
-98,43,0,0,0,0,0,0,0,0,0,-1,1126,981,0,0
-91,43,0,0,0,0,0,0,0,0,0,-1,1133,981,0,0
-84,43,0,0,0,0,0,0,0,0,0,-1,1140,981,0,0
-77,43,0,0,0,0,0,0,0,0,0,-1,1147,981,0,0
-70,43,0,0,0,0,0,0,0,0,0,-1,1154,981,0,0
-63,43,0,0,0,0,0,0,0,0,0,-1,1161,981,0,0
-56,43,0,0,0,0,0,0,0,0,0,-1,1168,981,0,0
-49,43,0,0,0,0,0,0,0,0,0,-1,1175,981,0,0
-42,43,0,0,0,0,0,0,0,0,0,-1,1182,981,0,0
-35,43,0,0,0,0,0,0,0,0,0,-1,1189,981,0,0
-28,43,0,0,0,0,0,0,0,0,0,-1,1196,981,0,0
-21,43,0,0,0,0,0,0,0,0,0,-1,1203,981,0,0
-14,43,0,0,0,0,0,0,0,0,0,-1,1210,981,0,0
-7,43,0,0,0,0,0,0,0,0,0,-1,1217,981,0,0
0,43,0,0,0,0,0,0,0,0,0,-1,1224,981,0,0
7,43,0,0,0,0,0,0,0,0,0,-1,1231,981,0,0
14,43,0,0,0,0,0,0,0,0,0,-1,1238,981,0,0
21,43,0,0,0,0,0,0,0,0,0,-1,1245,981,0,0
28,43,0,0,0,0,0,0,0,0,0,-1,1252,981,0,0
35,43,0,0,0,0,0,0,0,0,0,-1,1259,981,0,0
42,43,0,0,0,0,0,0,0,0,0,-1,1266,981,0,0
49,43,0,0,0,0,0,0,0,0,0,-1,1273,981,0,0
56,43,0,0,0,0,0,0,0,0,0,-1,1280,981,0,0
63,43,0,0,0,0,0,0,0,0,0,-1,1287,981,0,0
70,43,0,0,0,0,0,0,0,0,0,-1,1294,981,0,0
77,43,0,0,0,0,0,0,0,0,0,-1,1301,981,0,0
84,43,0,0,0,0,0,0,0,0,0,-1,1308,981,0,0
91,43,0,0,0,0,0,0,0,0,0,-1,1315,981,0,0
98,43,0,0,0,0,0,0,0,0,0,-1,1322,981,0,0
105,43,0,0,0,0,0,0,0,0,0,-1,1329,981,0,0
112,43,0,0,0,0,0,0,0,0,0,-1,1336,981,0,0
119,43,0,0,0,0,0,0,0,0,0,-1,1343,981,0,0
126,43,0,0,0,0,0,0,0,0,0,-1,1350,981,0,0
133,43,0,0,0,0,0,0,0,0,0,-1,1357,981,0,0
140,43,0,0,0,0,0,0,0,0,0,-1,1364,981,0,0
147,43,0,0,0,0,0,0,0,0,0,-1,1371,981,0,0
154,43,0,0,0,0,0,0,0,0,0,-1,1378,981,0,0
161,43,0,0,0,0,0,0,0,0,0,-1,1385,981,0,0
168,43,0,0,0,0,0,0,0,0,0,-1,1392,981,0,0
175,43,0,0,0,0,0,0,0,0,0,-1,1399,981,0,0
182,43,0,0,0,0,0,0,0,0,0,-1,1406,981,0,0
189,43,0,0,0,0,0,0,0,0,0,-1,1413,981,0,0
196,43,0,0,0,0,0,0,0,0,0,-1,1420,981,0,0
203,43,0,0,0,0,0,0,0,0,0,-1,1427,981,0,0
210,43,0,0,0,0,0,0,0,0,0,-1,1434,981,0,0
217,43,0,0,0,0,0,0,0,0,0,-1,1441,981,0,0
224,43,0,0,0,0,0,0,0,0,0,-1,1448,981,0,0
231,43,0,0,0,0,0,0,0,0,0,-1,1455,981,0,0
238,43,0,0,0,0,0,0,0,0,0,-1,1462,981,0,0
245,43,0,0,0,0,0,0,0,0,0,-1,1469,981,0,0
252,43,0,0,0,0,0,0,0,0,0,-1,1476,981,0,0
259,43,0,0,0,0,0,0,0,0,0,-1,1483,981,0,0
266,43,0,0,0,0,0,0,0,0,0,-1,1490,981,0,0
273,43,0,0,0,0,0,0,0,0,0,-1,1497,981,0,0
280,43,0,0,0,0,0,0,0,0,0,-1,1504,981,0,0
287,43,0,0,0,0,0,0,0,0,0,-1,1511,981,0,0
294,43,0,0,0,0,0,0,0,0,0,-1,1518,981,0,0
301,43,0,0,0,0,0,0,0,0,0,-1,1525,981,0,0
308,43,0,0,0,0,0,0,0,0,0,-1,1532,981,0,0
315,43,0,0,0,0,0,0,0,0,0,-1,1539,981,0,0
322,43,0,0,0,0,0,0,0,0,0,-1,1546,981,0,0
329,43,0,0,0,0,0,0,0,0,0,-1,1553,981,0,0
336,43,0,0,0,0,0,0,0,0,0,-1,1560,981,0,0
343,43,0,0,0,0,0,0,0,0,0,-1,1567,981,0,0
350,43,0,0,0,0,0,0,0,0,0,-1,1574,981,0,0
357,43,0,0,0,0,0,0,0,0,0,-1,1581,981,0,0
364,43,0,0,0,0,0,0,0,0,0,-1,1588,981,0,0
371,43,0,0,0,0,0,0,0,0,0,-1,1595,981,0,0
378,43,0,0,0,0,0,0,0,0,0,-1,1602,981,0,0
385,43,0,0,0,0,0,0,0,0,0,-1,1609,981,0,0
392,43,0,0,0,0,0,0,0,0,0,-1,1616,981,0,0
399,43,0,0,0,0,0,0,0,0,0,-1,1623,981,0,0
406,43,0,0,0,0,0,0,0,0,0,-1,1630,981,0,0
413,43,0,0,0,0,0,0,0,0,0,-1,1637,981,0,0
420,43,0,0,0,0,0,0,0,0,0,-1,1644,981,0,0
427,43,0,0,0,0,0,0,0,0,0,-1,1651,981,0,0
434,43,0,0,0,0,0,0,0,0,0,-1,1658,981,0,0
441,43,0,0,0,0,0,0,0,0,0,-1,1665,981,0,0
448,43,0,0,0,0,0,0,0,0,0,-1,1672,981,0,0
455,43,0,0,0,0,0,0,0,0,0,-1,1679,981,0,0
462,43,0,0,0,0,0,0,0,0,0,-1,1686,981,0,0
469,43,0,0,0,0,0,0,0,0,0,-1,1693,981,0,0
476,43,0,0,0,0,0,0,0,0,0,-1,1700,981,0,0
483,43,0,0,0,0,0,0,0,0,0,-1,1707,981,0,0
490,43,0,0,0,0,0,0,0,0,0,-1,1714,981,0,0
497,43,0,0,0,0,0,0,0,0,0,-1,1721,981,0,0
504,43,0,0,0,0,0,0,0,0,0,-1,1728,981,0,0
511,43,0,0,0,0,0,0,0,0,0,-1,1735,981,0,0
518,43,0,0,0,0,0,0,0,0,0,-1,1742,981,0,0
525,43,0,0,0,0,0,0,0,0,0,-1,1749,981,0,0
532,43,0,0,0,0,0,0,0,0,0,-1,1756,981,0,0
539,43,0,0,0,0,0,0,0,0,0,-1,1763,981,0,0
546,43,0,0,0,0,0,0,0,0,0,-1,1770,981,0,0
553,43,0,0,0,0,0,0,0,0,0,-1,1777,981,0,0
560,43,0,0,0,0,0,0,0,0,0,-1,1784,981,0,0
567,43,0,0,0,0,0,0,0,0,0,-1,1791,981,0,0
574,43,0,0,0,0,0,0,0,0,0,-1,1798,981,0,0
581,43,0,0,0,0,0,0,0,0,0,-1,1805,981,0,0
588,43,0,0,0,0,0,0,0,0,0,-1,1812,981,0,0
595,43,0,0,0,0,0,0,0,0,0,-1,1819,981,0,0
602,43,0,0,0,0,0,0,0,0,0,-1,1826,981,0,0
609,43,0,0,0,0,0,0,0,0,0,-1,1833,981,0,0
616,43,0,0,0,0,0,0,0,0,0,-1,1840,981,0,0
623,43,0,0,0,0,0,0,0,0,0,-1,1847,981,0,0
630,43,0,0,0,0,0,0,0,0,0,-1,1854,981,0,0
637,43,0,0,0,0,0,0,0,0,0,-1,1861,981,0,0
644,43,82.1356,2.20374,0.00169368,0.00157714,0.00144178,0.00307837,0.000192457,0.765201,0.0019912,0.0393379,1868,981,82.1357,-2.20374
651,43,82.2028,2.21417,0.000304582,0.00108708,0.0011603,0.00192032,-0.000528657,0.94801,0.00148807,0.0382959,1875,981,82.2027,-2.21419
658,43,82.2094,2.28314,-0.000165316,0.000880207,0.00107511,0.00155291,-0.000838024,1.01169,0.00140083,0.0385231,1882,981,82.2094,-2.28311
665,43,82.2096,2.14508,-0.00022021,0.000929904,0.00104093,0.00154406,-0.000834361,1.03776,0.00139341,0.0385964,1889,981,82.2097,-2.14508
672,43,82.0903,2.09125,-0.000131186,0.00104032,0.00109508,0.00169647,-0.000787334,1.03098,0.00146569,0.0375567,1896,981,82.0903,-2.09122
679,43,81.9598,2.2381,0.000109888,0.000907959,0.00128233,0.00185191,-0.000834061,0.936239,0.00158743,0.0382558,1903,981,81.9598,-2.23807
686,43,81.9758,2.23358,0.000380273,0.000525894,0.0013356,0.00179066,-0.000884496,0.812629,0.00157376,0.0417495,1910,981,81.9759,-2.2336
693,43,82.0776,2.19586,0.000321509,0.000169575,0.00126206,0.00150989,-0.00101881,0.755338,0.00146909,0.0387348,1917,981,82.0776,-2.19583
700,43,82.1688,2.27521,-0.000114523,1.79634e-05,0.00100784,0.000961738,-0.0010583,0.818215,0.00116671,0.0338495,1924,981,82.1688,-2.27523
707,43,82.214,2.30249,-0.000843828,0.000507266,0.000549567,0.000702574,-0.00103914,1.22933,0.00101181,0.031032,1931,981,82.2141,-2.30251
714,43,82.1389,2.40674,0,0,0,0,0,0,0,-1,1938,981,82.1389,-2.40674
721,43,81.361,6.45703,0,0,0,0,0,0,0,-1,1945,981,81.361,-6.45701
728,43,81.4596,6.91577,-0.00478442,0.00466952,-0.000705834,0.00472192,-0.00483682,-1.49668,0.00551888,0.0186865,1952,981,81.4596,-6.91578
735,43,81.5195,7.3512,-0.00617566,0.00668459,-0.00110198,0.00677833,-0.00626941,-1.48593,0.00753503,0.0152248,1959,981,81.5196,-7.35118
742,43,81.4581,7.74878,-0.0081594,0.00928318,-0.00139973,0.00939479,-0.00827101,-1.49123,0.0102062,0.0172663,1966,981,81.4582,-7.74877
749,43,81.3909,8.11255,-0.0106442,0.012697,-0.00195916,0.0128603,-0.0108075,-1.48764,0.0136817,0.0205262,1973,981,81.3909,-8.11258
756,43,81.3396,8.41852,-0.0129712,0.0179359,-0.002723,0.018174,-0.0132092,-1.48359,0.0181945,0.0239167,1980,981,81.3396,-8.41855
763,43,81.248,8.70563,-0.0149465,0.0256138,-0.00349335,0.0259125,-0.0152451,-1.48551,0.0240269,0.0268595,1987,981,81.2479,-8.70561
770,43,81.084,9.10962,-0.0165597,0.0351436,-0.00400378,0.0354518,-0.0168679,-1.49397,0.0308354,0.0229048,1994,981,81.0839,-9.10959
777,43,81.0813,9.4729,-0.0175989,0.0459782,-0.00477499,0.0463348,-0.0179555,-1.49625,0.0383045,0.0270396,2001,981,81.0812,-9.47289
784,43,81.0713,9.86981,-0.0172488,0.0586702,-0.00613877,0.0591634,-0.0177419,-1.49063,0.0464985,0.0436458,2008,981,81.0713,-9.86983
791,43,81.0725,10.261,0,0,0,0,0,0,0,-1,2015,981,81.0726,-10.261
798,43,82.03,12.1609,0,0,0,0,0,0,0,-1,2022,981,82.0299,-12.1609
805,43,83.0676,13.1567,0,0,0,0,0,0,0,-1,2029,981,83.0677,-13.1567
812,43,84.0735,14.22,0,0,0,0,0,0,0,-1,2036,981,84.0734,-14.2199
-700,36,0,0,0,0,0,0,0,0,0,-1,524,988,0,0
-693,36,-65.3615,6.21539,0,0,0,0,0,0,0,-1,531,988,-65.3615,-6.21541
-686,36,-65.0446,6.88306,0,0,0,0,0,0,0,-1,538,988,-65.0446,-6.88304
-679,36,-65.1032,8.02161,0,0,0,0,0,0,0,-1,545,988,-65.1032,-8.02159
-672,36,-64.6888,8.62866,0,0,0,0,0,0,0,-1,552,988,-64.6889,-8.62865
-665,36,-64.0911,10.0649,0,0,0,0,0,0,0,-1,559,988,-64.0911,-10.0649
-658,36,-65.2659,9.16205,0,0,0,0,0,0,0,-1,566,988,-65.2659,-9.16205
-651,36,-65.3862,8.89679,0.0176871,0.0750242,0.0124446,0.0776088,0.0151026,1.36603,0.047512,0.0489756,573,988,-65.3862,-8.89682
-644,36,-65.5059,8.62939,0.00913797,0.0581196,0.0102587,0.0601813,0.00707619,1.37246,0.0379825,0.0314773,580,988,-65.5059,-8.6294
-637,36,-65.7167,8.41376,0.00222088,0.0431753,0.00739175,0.0444685,0.000927603,1.39759,0.0293414,0.0226582,587,988,-65.7167,-8.41377
-630,36,-65.7709,8.26239,-0.00404941,0.0276669,0.00596146,0.0287504,-0.00513292,1.39101,0.0210872,0.0163269,594,988,-65.771,-8.26241
-623,36,-65.8149,7.99225,-0.00643971,0.016836,0.00503807,0.0178797,-0.00748341,1.36652,0.0150479,0.0141037,601,988,-65.8149,-7.99228
-616,36,-65.8081,7.71765,-0.00541351,0.0111635,0.00385062,0.0120143,-0.00626429,1.35334,0.0107258,0.012258,608,988,-65.8081,-7.71768
-609,36,-65.6818,7.44611,-0.00465651,0.00746424,0.00273375,0.00805229,-0.00524456,1.35892,0.00773378,0.0198942,615,988,-65.6818,-7.44611
-602,36,-65.7772,7.06195,-0.00395612,0.00506691,0.00186491,0.00543716,-0.00432638,1.37481,0.00564913,0.024179,622,988,-65.7772,-7.06194
-595,36,-66.1421,6.65399,-0.00328447,0.00341515,0.00124857,0.00364027,-0.0035096,1.39241,0.00412821,0.0283883,629,988,-66.1421,-6.654
-588,36,-66.4851,6.43134,0,0,0,0,0,0,0,-1,636,988,-66.4851,-6.43131
-581,36,-65.4112,0.600647,0,0,0,0,0,0,0,-1,643,988,-65.4112,-0.600644
-574,36,-65.3941,0.462463,-0.00189886,0.000289653,-0.000116017,0.000295786,-0.00190499,-1.51798,0.0013792,0.0301746,650,988,-65.3941,-0.462471
-567,36,-65.3701,0.404358,-0.00161871,0.000216731,-0.000318688,0.00027049,-0.00167247,-1.40368,0.00121522,0.0359393,657,988,-65.37,-0.404374
-560,36,-65.3409,0.577393,-0.0013348,0.000437555,-0.000304918,0.000488547,-0.00138579,-1.4051,0.00112272,0.0411031,664,988,-65.3409,-0.577395
-553,36,-65.1548,0.531799,-0.00103034,0.000653376,-3.34906e-05,0.000654041,-0.00103101,-1.55092,0.000980944,0.0457038,671,988,-65.1548,-0.531827
-546,36,-65.2261,0.523132,-0.00075687,0.000255432,0.000576148,0.000516181,-0.00101762,1.14581,0.000901177,0.0447559,678,988,-65.2262,-0.523146
-539,36,-65.3341,0.442871,-0.00097375,-0.0015028,0.00156271,0.000346663,-0.00282321,0.701556,0.0020077,0.0437893,685,988,-65.3341,-0.442883
-532,36,-65.3824,0.320618,-0.00055794,-0.00412333,0.00272736,0.000917659,-0.00559893,0.495935,0.00407311,0.044847,692,988,-65.3824,-0.320636
-525,36,-65.3061,0.0550537,-0.000289298,-0.00672929,0.00339604,0.00117061,-0.0081892,0.406,0.00588858,0.0454576,699,988,-65.3061,-0.055052
-518,36,0,0,0,0,0,0,0,0,0,-1,706,988,0,0
-511,36,0,0,0,0,0,0,0,0,0,-1,713,988,0,0
-504,36,0,0,0,0,0,0,0,0,0,-1,720,988,0,0
-497,36,0,0,0,0,0,0,0,0,0,-1,727,988,0,0
-490,36,0,0,0,0,0,0,0,0,0,-1,734,988,0,0
-483,36,0,0,0,0,0,0,0,0,0,-1,741,988,0,0
-476,36,0,0,0,0,0,0,0,0,0,-1,748,988,0,0
-469,36,0,0,0,0,0,0,0,0,0,-1,755,988,0,0
-462,36,0,0,0,0,0,0,0,0,0,-1,762,988,0,0
-455,36,0,0,0,0,0,0,0,0,0,-1,769,988,0,0
-448,36,0,0,0,0,0,0,0,0,0,-1,776,988,0,0
-441,36,0,0,0,0,0,0,0,0,0,-1,783,988,0,0
-434,36,0,0,0,0,0,0,0,0,0,-1,790,988,0,0
-427,36,0,0,0,0,0,0,0,0,0,-1,797,988,0,0
-420,36,0,0,0,0,0,0,0,0,0,-1,804,988,0,0
-413,36,0,0,0,0,0,0,0,0,0,-1,811,988,0,0
-406,36,0,0,0,0,0,0,0,0,0,-1,818,988,0,0
-399,36,0,0,0,0,0,0,0,0,0,-1,825,988,0,0
-392,36,0,0,0,0,0,0,0,0,0,-1,832,988,0,0
-385,36,0,0,0,0,0,0,0,0,0,-1,839,988,0,0
-378,36,0,0,0,0,0,0,0,0,0,-1,846,988,0,0
-371,36,0,0,0,0,0,0,0,0,0,-1,853,988,0,0
-364,36,0,0,0,0,0,0,0,0,0,-1,860,988,0,0
-357,36,0,0,0,0,0,0,0,0,0,-1,867,988,0,0
-350,36,0,0,0,0,0,0,0,0,0,-1,874,988,0,0
-343,36,0,0,0,0,0,0,0,0,0,-1,881,988,0,0
-336,36,0,0,0,0,0,0,0,0,0,-1,888,988,0,0
-329,36,0,0,0,0,0,0,0,0,0,-1,895,988,0,0
-322,36,0,0,0,0,0,0,0,0,0,-1,902,988,0,0
-315,36,0,0,0,0,0,0,0,0,0,-1,909,988,0,0
-308,36,0,0,0,0,0,0,0,0,0,-1,916,988,0,0
-301,36,0,0,0,0,0,0,0,0,0,-1,923,988,0,0
-294,36,0,0,0,0,0,0,0,0,0,-1,930,988,0,0
-287,36,0,0,0,0,0,0,0,0,0,-1,937,988,0,0
-280,36,0,0,0,0,0,0,0,0,0,-1,944,988,0,0
-273,36,0,0,0,0,0,0,0,0,0,-1,951,988,0,0
-266,36,0,0,0,0,0,0,0,0,0,-1,958,988,0,0
-259,36,0,0,0,0,0,0,0,0,0,-1,965,988,0,0
-252,36,0,0,0,0,0,0,0,0,0,-1,972,988,0,0
-245,36,0,0,0,0,0,0,0,0,0,-1,979,988,0,0
-238,36,0,0,0,0,0,0,0,0,0,-1,986,988,0,0
-231,36,0,0,0,0,0,0,0,0,0,-1,993,988,0,0
-224,36,0,0,0,0,0,0,0,0,0,-1,1000,988,0,0
-217,36,0,0,0,0,0,0,0,0,0,-1,1007,988,0,0
-210,36,0,0,0,0,0,0,0,0,0,-1,1014,988,0,0
-203,36,0,0,0,0,0,0,0,0,0,-1,1021,988,0,0
-196,36,0,0,0,0,0,0,0,0,0,-1,1028,988,0,0
-189,36,0,0,0,0,0,0,0,0,0,-1,1035,988,0,0
-182,36,0,0,0,0,0,0,0,0,0,-1,1042,988,0,0
-175,36,0,0,0,0,0,0,0,0,0,-1,1049,988,0,0
-168,36,0,0,0,0,0,0,0,0,0,-1,1056,988,0,0
-161,36,0,0,0,0,0,0,0,0,0,-1,1063,988,0,0
-154,36,0,0,0,0,0,0,0,0,0,-1,1070,988,0,0
-147,36,0,0,0,0,0,0,0,0,0,-1,1077,988,0,0
-140,36,0,0,0,0,0,0,0,0,0,-1,1084,988,0,0
-133,36,0,0,0,0,0,0,0,0,0,-1,1091,988,0,0
-126,36,0,0,0,0,0,0,0,0,0,-1,1098,988,0,0
-119,36,0,0,0,0,0,0,0,0,0,-1,1105,988,0,0
-112,36,0,0,0,0,0,0,0,0,0,-1,1112,988,0,0
-105,36,0,0,0,0,0,0,0,0,0,-1,1119,988,0,0
-98,36,0,0,0,0,0,0,0,0,0,-1,1126,988,0,0
-91,36,0,0,0,0,0,0,0,0,0,-1,1133,988,0,0
-84,36,0,0,0,0,0,0,0,0,0,-1,1140,988,0,0
-77,36,0,0,0,0,0,0,0,0,0,-1,1147,988,0,0
-70,36,0,0,0,0,0,0,0,0,0,-1,1154,988,0,0
-63,36,0,0,0,0,0,0,0,0,0,-1,1161,988,0,0
-56,36,0,0,0,0,0,0,0,0,0,-1,1168,988,0,0
-49,36,0,0,0,0,0,0,0,0,0,-1,1175,988,0,0
-42,36,0,0,0,0,0,0,0,0,0,-1,1182,988,0,0
-35,36,0,0,0,0,0,0,0,0,0,-1,1189,988,0,0
-28,36,0,0,0,0,0,0,0,0,0,-1,1196,988,0,0
-21,36,0,0,0,0,0,0,0,0,0,-1,1203,988,0,0
-14,36,0,0,0,0,0,0,0,0,0,-1,1210,988,0,0
-7,36,0,0,0,0,0,0,0,0,0,-1,1217,988,0,0
0,36,0,0,0,0,0,0,0,0,0,-1,1224,988,0,0
7,36,0,0,0,0,0,0,0,0,0,-1,1231,988,0,0
14,36,0,0,0,0,0,0,0,0,0,-1,1238,988,0,0
21,36,0,0,0,0,0,0,0,0,0,-1,1245,988,0,0
28,36,0,0,0,0,0,0,0,0,0,-1,1252,988,0,0
35,36,0,0,0,0,0,0,0,0,0,-1,1259,988,0,0
42,36,0,0,0,0,0,0,0,0,0,-1,1266,988,0,0
49,36,0,0,0,0,0,0,0,0,0,-1,1273,988,0,0
56,36,0,0,0,0,0,0,0,0,0,-1,1280,988,0,0
63,36,0,0,0,0,0,0,0,0,0,-1,1287,988,0,0
70,36,0,0,0,0,0,0,0,0,0,-1,1294,988,0,0
77,36,0,0,0,0,0,0,0,0,0,-1,1301,988,0,0
84,36,0,0,0,0,0,0,0,0,0,-1,1308,988,0,0
91,36,0,0,0,0,0,0,0,0,0,-1,1315,988,0,0
98,36,0,0,0,0,0,0,0,0,0,-1,1322,988,0,0
105,36,0,0,0,0,0,0,0,0,0,-1,1329,988,0,0
112,36,0,0,0,0,0,0,0,0,0,-1,1336,988,0,0
119,36,0,0,0,0,0,0,0,0,0,-1,1343,988,0,0
126,36,0,0,0,0,0,0,0,0,0,-1,1350,988,0,0
133,36,0,0,0,0,0,0,0,0,0,-1,1357,988,0,0
140,36,0,0,0,0,0,0,0,0,0,-1,1364,988,0,0
147,36,0,0,0,0,0,0,0,0,0,-1,1371,988,0,0
154,36,0,0,0,0,0,0,0,0,0,-1,1378,988,0,0
161,36,0,0,0,0,0,0,0,0,0,-1,1385,988,0,0
168,36,0,0,0,0,0,0,0,0,0,-1,1392,988,0,0
175,36,0,0,0,0,0,0,0,0,0,-1,1399,988,0,0
182,36,0,0,0,0,0,0,0,0,0,-1,1406,988,0,0
189,36,0,0,0,0,0,0,0,0,0,-1,1413,988,0,0
196,36,0,0,0,0,0,0,0,0,0,-1,1420,988,0,0
203,36,0,0,0,0,0,0,0,0,0,-1,1427,988,0,0
210,36,0,0,0,0,0,0,0,0,0,-1,1434,988,0,0
217,36,0,0,0,0,0,0,0,0,0,-1,1441,988,0,0
224,36,0,0,0,0,0,0,0,0,0,-1,1448,988,0,0
231,36,0,0,0,0,0,0,0,0,0,-1,1455,988,0,0
238,36,0,0,0,0,0,0,0,0,0,-1,1462,988,0,0
245,36,0,0,0,0,0,0,0,0,0,-1,1469,988,0,0
252,36,0,0,0,0,0,0,0,0,0,-1,1476,988,0,0
259,36,0,0,0,0,0,0,0,0,0,-1,1483,988,0,0
266,36,0,0,0,0,0,0,0,0,0,-1,1490,988,0,0
273,36,0,0,0,0,0,0,0,0,0,-1,1497,988,0,0
280,36,0,0,0,0,0,0,0,0,0,-1,1504,988,0,0
287,36,0,0,0,0,0,0,0,0,0,-1,1511,988,0,0
294,36,0,0,0,0,0,0,0,0,0,-1,1518,988,0,0
301,36,0,0,0,0,0,0,0,0,0,-1,1525,988,0,0
308,36,0,0,0,0,0,0,0,0,0,-1,1532,988,0,0
315,36,0,0,0,0,0,0,0,0,0,-1,1539,988,0,0
322,36,0,0,0,0,0,0,0,0,0,-1,1546,988,0,0
329,36,0,0,0,0,0,0,0,0,0,-1,1553,988,0,0
336,36,0,0,0,0,0,0,0,0,0,-1,1560,988,0,0
343,36,0,0,0,0,0,0,0,0,0,-1,1567,988,0,0
350,36,0,0,0,0,0,0,0,0,0,-1,1574,988,0,0
357,36,0,0,0,0,0,0,0,0,0,-1,1581,988,0,0
364,36,0,0,0,0,0,0,0,0,0,-1,1588,988,0,0
371,36,0,0,0,0,0,0,0,0,0,-1,1595,988,0,0
378,36,0,0,0,0,0,0,0,0,0,-1,1602,988,0,0
385,36,0,0,0,0,0,0,0,0,0,-1,1609,988,0,0
392,36,0,0,0,0,0,0,0,0,0,-1,1616,988,0,0
399,36,0,0,0,0,0,0,0,0,0,-1,1623,988,0,0
406,36,0,0,0,0,0,0,0,0,0,-1,1630,988,0,0
413,36,0,0,0,0,0,0,0,0,0,-1,1637,988,0,0
420,36,0,0,0,0,0,0,0,0,0,-1,1644,988,0,0
427,36,0,0,0,0,0,0,0,0,0,-1,1651,988,0,0
434,36,0,0,0,0,0,0,0,0,0,-1,1658,988,0,0
441,36,0,0,0,0,0,0,0,0,0,-1,1665,988,0,0
448,36,0,0,0,0,0,0,0,0,0,-1,1672,988,0,0
455,36,0,0,0,0,0,0,0,0,0,-1,1679,988,0,0
462,36,0,0,0,0,0,0,0,0,0,-1,1686,988,0,0
469,36,0,0,0,0,0,0,0,0,0,-1,1693,988,0,0
476,36,0,0,0,0,0,0,0,0,0,-1,1700,988,0,0
483,36,0,0,0,0,0,0,0,0,0,-1,1707,988,0,0
490,36,0,0,0,0,0,0,0,0,0,-1,1714,988,0,0
497,36,0,0,0,0,0,0,0,0,0,-1,1721,988,0,0
504,36,0,0,0,0,0,0,0,0,0,-1,1728,988,0,0
511,36,0,0,0,0,0,0,0,0,0,-1,1735,988,0,0
518,36,0,0,0,0,0,0,0,0,0,-1,1742,988,0,0
525,36,0,0,0,0,0,0,0,0,0,-1,1749,988,0,0
532,36,0,0,0,0,0,0,0,0,0,-1,1756,988,0,0
539,36,0,0,0,0,0,0,0,0,0,-1,1763,988,0,0
546,36,0,0,0,0,0,0,0,0,0,-1,1770,988,0,0
553,36,0,0,0,0,0,0,0,0,0,-1,1777,988,0,0
560,36,0,0,0,0,0,0,0,0,0,-1,1784,988,0,0
567,36,0,0,0,0,0,0,0,0,0,-1,1791,988,0,0
574,36,0,0,0,0,0,0,0,0,0,-1,1798,988,0,0
581,36,0,0,0,0,0,0,0,0,0,-1,1805,988,0,0
588,36,0,0,0,0,0,0,0,0,0,-1,1812,988,0,0
595,36,0,0,0,0,0,0,0,0,0,-1,1819,988,0,0
602,36,0,0,0,0,0,0,0,0,0,-1,1826,988,0,0
609,36,0,0,0,0,0,0,0,0,0,-1,1833,988,0,0
616,36,0,0,0,0,0,0,0,0,0,-1,1840,988,0,0
623,36,0,0,0,0,0,0,0,0,0,-1,1847,988,0,0
630,36,0,0,0,0,0,0,0,0,0,-1,1854,988,0,0
637,36,0,0,0,0,0,0,0,0,0,-1,1861,988,0,0
644,36,82.1267,2.19617,0.000835742,0.000787271,0.00147957,0.00229127,-0.000668262,0.777209,0.00179229,0.0397103,1868,988,82.1267,-2.19617
651,36,82.1648,2.19055,-0.000289844,0.000318554,0.0010646,0.00112157,-0.00109286,0.92456,0.00127853,0.039056,1875,988,82.1648,-2.19056
658,36,82.184,2.51495,-0.000531553,9.80484e-05,0.000894242,0.000731281,-0.00116479,0.95464,0.00110419,0.0371499,1882,988,82.184,-2.51496
665,36,82.2001,2.45575,-0.00042741,0.000150692,0.000833033,0.000743397,-0.00102012,0.952392,0.00102233,0.0374448,1889,988,82.2001,-2.45574
672,36,82.1198,2.3855,-0.000173253,0.000307064,0.000881556,0.000980589,-0.000846778,0.918384,0.00105597,0.0385793,1896,988,82.1198,-2.3855
679,36,82.0583,2.33124,0.000225438,0.000292597,0.00107982,0.00133936,-0.000821324,0.800942,0.00125937,0.0385881,1903,988,82.0584,-2.33123
686,36,82.0852,2.28644,0.000600603,1.9616e-05,0.00120427,0.00154892,-0.000928701,0.667049,0.00144532,0.0392751,1910,988,82.0852,-2.28646
693,36,82.2317,2.26575,0.000677856,-0.000215607,0.00122264,0.00153282,-0.00107057,0.610242,0.00151095,0.0408122,1917,988,82.2317,-2.26577
700,36,82.2373,2.2876,0.000365334,-0.000318289,0.00104193,0.00112008,-0.00107304,0.626901,0.0012663,0.0386471,1924,988,82.2373,-2.28758
707,36,82.2556,2.2879,-0.000386979,0.000286842,0.000644372,0.000677065,-0.000777202,1.02628,0.000840285,0.0318555,1931,988,82.2556,-2.2879
714,36,82.1866,2.323,0,0,0,0,0,0,0,-1,1938,988,82.1867,-2.32297
721,36,81.5765,6.53076,0,0,0,0,0,0,0,-1,1945,988,81.5765,-6.53074
728,36,81.7213,6.99902,-0.00472959,0.00493538,-0.00050978,0.00496219,-0.0047564,-1.51825,0.00561145,0.026292,1952,988,81.7213,-6.99901
735,36,81.8248,7.44098,-0.0061606,0.00711538,-0.000955202,0.00718376,-0.00622898,-1.49934,0.00775038,0.0210609,1959,988,81.8249,-7.44101
742,36,81.7277,7.70258,-0.00816455,0.00976434,-0.00129221,0.009857,-0.00825721,-1.49922,0.0104718,0.0166209,1966,988,81.7277,-7.70255
749,36,81.6895,8.047,-0.0107437,0.0131087,-0.00190339,0.0132596,-0.0108947,-1.49167,0.0139677,0.018025,1973,988,81.6894,-8.047
756,36,81.6687,8.37952,-0.0131499,0.0182421,-0.00290768,0.0185092,-0.0134169,-1.47921,0.0185105,0.0187055,1980,988,81.6686,-8.37954
763,36,81.5232,8.59229,-0.0151501,0.0258184,-0.00423597,0.0262518,-0.0155835,-1.46884,0.024414,0.0217215,1987,988,81.5233,-8.59228
770,36,81.4165,8.90289,-0.0167162,0.0356514,-0.00560313,0.0362442,-0.017309,-1.46539,0.0315566,0.0182271,1994,988,81.4166,-8.90288
777,36,81.4531,9.3313,-0.0174642,0.0470454,-0.00751305,0.0479088,-0.0183277,-1.45637,0.0394924,0.0273706,2001,988,81.4532,-9.33132
784,36,81.5327,9.75989,-0.0167357,0.0603921,-0.0103766,0.0617637,-0.0181073,-1.43937,0.0483552,0.0471992,2008,988,81.5326,-9.75988
791,36,81.509,10.1336,-0.0139724,0.076198,-0.0150636,0.0786479,-0.0164223,-1.40957,0.0586772,0.048578,2015,988,81.509,-10.1336
798,36,81.7085,10.674,0,0,0,0,0,0,0,-1,2022,988,81.7084,-10.674
805,36,81.5737,13.2142,0,0,0,0,0,0,0,-1,2029,988,81.5738,-13.2142
812,36,80.2622,5.14569,0,0,0,0,0,0,0,-1,2036,988,80.2621,-5.1457
-700,29,0,0,0,0,0,0,0,0,0,-1,524,995,0,0
-693,29,-64.8631,5.34387,0,0,0,0,0,0,0,-1,531,995,-64.8631,-5.34387
-686,29,-64.47,6.00818,0.0809674,0.168627,0.0307236,0.178322,0.0712716,1.26511,0.103643,0.0434416,538,995,-64.47,-6.00819
-679,29,-64.2502,6.92328,0.0632846,0.145984,0.0294957,0.155426,0.0538426,1.26099,0.0911352,0.0452209,545,995,-64.2502,-6.92329
-672,29,-63.8424,7.54297,0,0,0,0,0,0,0,-1,552,995,-63.8424,-7.543
-665,29,-63.3135,8.70117,0,0,0,0,0,0,0,-1,559,995,-63.3135,-8.70119
-658,29,-62.6463,9.41785,0,0,0,0,0,0,0,-1,566,995,-62.6463,-9.41787
-651,29,-65.7548,8.52972,0,0,0,0,0,0,0,-1,573,995,-65.7548,-8.52971
-644,29,-65.7382,8.16199,0.00625789,0.0554048,0.0123395,0.058329,0.00333374,1.33811,0.0378237,0.0494116,580,995,-65.7382,-8.16196
-637,29,-66.0541,8.19,-0.000137275,0.0413894,0.0081929,0.0429474,-0.00169522,1.38288,0.0292131,0.0281171,587,995,-66.0541,-8.19
-630,29,-66.0949,8.07446,-0.00590974,0.0265818,0.00561959,0.0275263,-0.00685423,1.40428,0.0210116,0.0153492,594,995,-66.0949,-8.07445
-623,29,-66.0821,7.91779,-0.00773105,0.0163166,0.00454284,0.0171461,-0.00856062,1.39018,0.0151152,0.0145297,601,995,-66.0821,-7.91779
-616,29,-66.1264,7.703,-0.00646074,0.0110565,0.00328466,0.0116522,-0.00705639,1.3914,0.0109095,0.0178518,608,995,-66.1264,-7.70301
-609,29,-66.0168,7.54321,-0.00542808,0.00763072,0.0021042,0.0079614,-0.00575877,1.41492,0.0079553,0.0304009,615,995,-66.0168,-7.54321
-602,29,-66.2012,7.23413,-0.0045054,0.00536952,0.00123705,0.00552213,-0.00465801,1.44805,0.00588456,0.0287823,622,995,-66.2012,-7.23411
-595,29,-66.5862,6.81897,-0.00370422,0.0038081,0.00067972,0.00386911,-0.00376523,1.48128,0.00440782,0.0279163,629,995,-66.5863,-6.81897
-588,29,-66.9474,6.44281,0,0,0,0,0,0,0,-1,636,995,-66.9475,-6.44279
-581,29,-65.3473,0.582153,0,0,0,0,0,0,0,-1,643,995,-65.3473,-0.582174
-574,29,-65.3639,0.525452,-0.00194816,0.000781603,-0.000460112,0.00085707,-0.00202363,-1.40822,0.00170803,0.0363221,650,995,-65.3639,-0.525424
-567,29,-65.3538,0.406982,-0.00162307,0.000710652,-0.000540158,0.000829611,-0.00174203,-1.35403,0.00151557,0.0358811,657,995,-65.3537,-0.40697
-560,29,-65.3632,0.451599,-0.00132171,0.000878077,-0.000365892,0.000937339,-0.00138097,-1.41022,0.00134662,0.0396504,664,995,-65.3632,-0.451569
-553,29,-65.2672,0.530457,-0.00108477,0.000928663,0.000126925,0.000936632,-0.00109274,1.50809,0.00117281,0.042933,671,995,-65.2672,-0.530475
-546,29,-65.1572,0.439514,-0.00100603,0.000169523,0.00104902,0.000784212,-0.00162072,1.04076,0.00141621,0.0437582,678,995,-65.1572,-0.439535
-539,29,-65.2959,0.432678,-0.00164191,-0.00205542,0.00241035,0.000570541,-0.00426787,0.742614,0.00305325,0.0432662,685,995,-65.2959,-0.432662
-532,29,-65.4304,0.438965,-0.00175122,-0.004962,0.00388602,0.000847964,-0.00756119,0.589516,0.00534591,0.045148,692,995,-65.4304,-0.438988
-525,29,-65.3428,0.423889,-0.00193984,-0.00813444,0.00499017,0.000836108,-0.0109104,0.507655,0.00756771,0.0440677,699,995,-65.3428,-0.423882
-518,29,0,0,0,0,0,0,0,0,0,-1,706,995,0,0
-511,29,0,0,0,0,0,0,0,0,0,-1,713,995,0,0
-504,29,0,0,0,0,0,0,0,0,0,-1,720,995,0,0
-497,29,0,0,0,0,0,0,0,0,0,-1,727,995,0,0
-490,29,0,0,0,0,0,0,0,0,0,-1,734,995,0,0
-483,29,0,0,0,0,0,0,0,0,0,-1,741,995,0,0
-476,29,0,0,0,0,0,0,0,0,0,-1,748,995,0,0
-469,29,0,0,0,0,0,0,0,0,0,-1,755,995,0,0
-462,29,0,0,0,0,0,0,0,0,0,-1,762,995,0,0
-455,29,0,0,0,0,0,0,0,0,0,-1,769,995,0,0
-448,29,0,0,0,0,0,0,0,0,0,-1,776,995,0,0
-441,29,0,0,0,0,0,0,0,0,0,-1,783,995,0,0
-434,29,0,0,0,0,0,0,0,0,0,-1,790,995,0,0
-427,29,0,0,0,0,0,0,0,0,0,-1,797,995,0,0
-420,29,0,0,0,0,0,0,0,0,0,-1,804,995,0,0
-413,29,0,0,0,0,0,0,0,0,0,-1,811,995,0,0
-406,29,0,0,0,0,0,0,0,0,0,-1,818,995,0,0
-399,29,0,0,0,0,0,0,0,0,0,-1,825,995,0,0
-392,29,0,0,0,0,0,0,0,0,0,-1,832,995,0,0
-385,29,0,0,0,0,0,0,0,0,0,-1,839,995,0,0
-378,29,0,0,0,0,0,0,0,0,0,-1,846,995,0,0
-371,29,0,0,0,0,0,0,0,0,0,-1,853,995,0,0
-364,29,0,0,0,0,0,0,0,0,0,-1,860,995,0,0
-357,29,0,0,0,0,0,0,0,0,0,-1,867,995,0,0
-350,29,0,0,0,0,0,0,0,0,0,-1,874,995,0,0
-343,29,0,0,0,0,0,0,0,0,0,-1,881,995,0,0
-336,29,0,0,0,0,0,0,0,0,0,-1,888,995,0,0
-329,29,0,0,0,0,0,0,0,0,0,-1,895,995,0,0
-322,29,0,0,0,0,0,0,0,0,0,-1,902,995,0,0
-315,29,0,0,0,0,0,0,0,0,0,-1,909,995,0,0
-308,29,0,0,0,0,0,0,0,0,0,-1,916,995,0,0
-301,29,0,0,0,0,0,0,0,0,0,-1,923,995,0,0
-294,29,0,0,0,0,0,0,0,0,0,-1,930,995,0,0
-287,29,0,0,0,0,0,0,0,0,0,-1,937,995,0,0
-280,29,0,0,0,0,0,0,0,0,0,-1,944,995,0,0
-273,29,0,0,0,0,0,0,0,0,0,-1,951,995,0,0
-266,29,0,0,0,0,0,0,0,0,0,-1,958,995,0,0
-259,29,0,0,0,0,0,0,0,0,0,-1,965,995,0,0
-252,29,0,0,0,0,0,0,0,0,0,-1,972,995,0,0
-245,29,0,0,0,0,0,0,0,0,0,-1,979,995,0,0
-238,29,0,0,0,0,0,0,0,0,0,-1,986,995,0,0
-231,29,0,0,0,0,0,0,0,0,0,-1,993,995,0,0
-224,29,0,0,0,0,0,0,0,0,0,-1,1000,995,0,0
-217,29,0,0,0,0,0,0,0,0,0,-1,1007,995,0,0
-210,29,0,0,0,0,0,0,0,0,0,-1,1014,995,0,0
-203,29,0,0,0,0,0,0,0,0,0,-1,1021,995,0,0
-196,29,0,0,0,0,0,0,0,0,0,-1,1028,995,0,0
-189,29,0,0,0,0,0,0,0,0,0,-1,1035,995,0,0
-182,29,0,0,0,0,0,0,0,0,0,-1,1042,995,0,0
-175,29,0,0,0,0,0,0,0,0,0,-1,1049,995,0,0
-168,29,0,0,0,0,0,0,0,0,0,-1,1056,995,0,0
-161,29,0,0,0,0,0,0,0,0,0,-1,1063,995,0,0
-154,29,0,0,0,0,0,0,0,0,0,-1,1070,995,0,0
-147,29,0,0,0,0,0,0,0,0,0,-1,1077,995,0,0
-140,29,0,0,0,0,0,0,0,0,0,-1,1084,995,0,0
-133,29,0,0,0,0,0,0,0,0,0,-1,1091,995,0,0
-126,29,0,0,0,0,0,0,0,0,0,-1,1098,995,0,0
-119,29,0,0,0,0,0,0,0,0,0,-1,1105,995,0,0
-112,29,0,0,0,0,0,0,0,0,0,-1,1112,995,0,0
-105,29,0,0,0,0,0,0,0,0,0,-1,1119,995,0,0
-98,29,0,0,0,0,0,0,0,0,0,-1,1126,995,0,0
-91,29,0,0,0,0,0,0,0,0,0,-1,1133,995,0,0
-84,29,0,0,0,0,0,0,0,0,0,-1,1140,995,0,0
-77,29,0,0,0,0,0,0,0,0,0,-1,1147,995,0,0
-70,29,0,0,0,0,0,0,0,0,0,-1,1154,995,0,0
-63,29,0,0,0,0,0,0,0,0,0,-1,1161,995,0,0
-56,29,0,0,0,0,0,0,0,0,0,-1,1168,995,0,0
-49,29,0,0,0,0,0,0,0,0,0,-1,1175,995,0,0
-42,29,0,0,0,0,0,0,0,0,0,-1,1182,995,0,0
-35,29,0,0,0,0,0,0,0,0,0,-1,1189,995,0,0
-28,29,0,0,0,0,0,0,0,0,0,-1,1196,995,0,0
-21,29,0,0,0,0,0,0,0,0,0,-1,1203,995,0,0
-14,29,0,0,0,0,0,0,0,0,0,-1,1210,995,0,0
-7,29,0,0,0,0,0,0,0,0,0,-1,1217,995,0,0
0,29,0,0,0,0,0,0,0,0,0,-1,1224,995,0,0
7,29,0,0,0,0,0,0,0,0,0,-1,1231,995,0,0
14,29,0,0,0,0,0,0,0,0,0,-1,1238,995,0,0
21,29,0,0,0,0,0,0,0,0,0,-1,1245,995,0,0
28,29,0,0,0,0,0,0,0,0,0,-1,1252,995,0,0
35,29,0,0,0,0,0,0,0,0,0,-1,1259,995,0,0
42,29,0,0,0,0,0,0,0,0,0,-1,1266,995,0,0
49,29,0,0,0,0,0,0,0,0,0,-1,1273,995,0,0
56,29,0,0,0,0,0,0,0,0,0,-1,1280,995,0,0
63,29,0,0,0,0,0,0,0,0,0,-1,1287,995,0,0
70,29,0,0,0,0,0,0,0,0,0,-1,1294,995,0,0
77,29,0,0,0,0,0,0,0,0,0,-1,1301,995,0,0
84,29,0,0,0,0,0,0,0,0,0,-1,1308,995,0,0
91,29,0,0,0,0,0,0,0,0,0,-1,1315,995,0,0
98,29,0,0,0,0,0,0,0,0,0,-1,1322,995,0,0
105,29,0,0,0,0,0,0,0,0,0,-1,1329,995,0,0
112,29,0,0,0,0,0,0,0,0,0,-1,1336,995,0,0
119,29,0,0,0,0,0,0,0,0,0,-1,1343,995,0,0
126,29,0,0,0,0,0,0,0,0,0,-1,1350,995,0,0
133,29,0,0,0,0,0,0,0,0,0,-1,1357,995,0,0
140,29,0,0,0,0,0,0,0,0,0,-1,1364,995,0,0
147,29,0,0,0,0,0,0,0,0,0,-1,1371,995,0,0
154,29,0,0,0,0,0,0,0,0,0,-1,1378,995,0,0
161,29,0,0,0,0,0,0,0,0,0,-1,1385,995,0,0
168,29,0,0,0,0,0,0,0,0,0,-1,1392,995,0,0
175,29,0,0,0,0,0,0,0,0,0,-1,1399,995,0,0
182,29,0,0,0,0,0,0,0,0,0,-1,1406,995,0,0
189,29,0,0,0,0,0,0,0,0,0,-1,1413,995,0,0
196,29,0,0,0,0,0,0,0,0,0,-1,1420,995,0,0
203,29,0,0,0,0,0,0,0,0,0,-1,1427,995,0,0
210,29,0,0,0,0,0,0,0,0,0,-1,1434,995,0,0
217,29,0,0,0,0,0,0,0,0,0,-1,1441,995,0,0
224,29,0,0,0,0,0,0,0,0,0,-1,1448,995,0,0
231,29,0,0,0,0,0,0,0,0,0,-1,1455,995,0,0
238,29,0,0,0,0,0,0,0,0,0,-1,1462,995,0,0
245,29,0,0,0,0,0,0,0,0,0,-1,1469,995,0,0
252,29,0,0,0,0,0,0,0,0,0,-1,1476,995,0,0
259,29,0,0,0,0,0,0,0,0,0,-1,1483,995,0,0
266,29,0,0,0,0,0,0,0,0,0,-1,1490,995,0,0
273,29,0,0,0,0,0,0,0,0,0,-1,1497,995,0,0
280,29,0,0,0,0,0,0,0,0,0,-1,1504,995,0,0
287,29,0,0,0,0,0,0,0,0,0,-1,1511,995,0,0
294,29,0,0,0,0,0,0,0,0,0,-1,1518,995,0,0
301,29,0,0,0,0,0,0,0,0,0,-1,1525,995,0,0
308,29,0,0,0,0,0,0,0,0,0,-1,1532,995,0,0
315,29,0,0,0,0,0,0,0,0,0,-1,1539,995,0,0
322,29,0,0,0,0,0,0,0,0,0,-1,1546,995,0,0
329,29,0,0,0,0,0,0,0,0,0,-1,1553,995,0,0
336,29,0,0,0,0,0,0,0,0,0,-1,1560,995,0,0
343,29,0,0,0,0,0,0,0,0,0,-1,1567,995,0,0
350,29,0,0,0,0,0,0,0,0,0,-1,1574,995,0,0
357,29,0,0,0,0,0,0,0,0,0,-1,1581,995,0,0
364,29,0,0,0,0,0,0,0,0,0,-1,1588,995,0,0
371,29,0,0,0,0,0,0,0,0,0,-1,1595,995,0,0
378,29,0,0,0,0,0,0,0,0,0,-1,1602,995,0,0
385,29,0,0,0,0,0,0,0,0,0,-1,1609,995,0,0
392,29,0,0,0,0,0,0,0,0,0,-1,1616,995,0,0
399,29,0,0,0,0,0,0,0,0,0,-1,1623,995,0,0
406,29,0,0,0,0,0,0,0,0,0,-1,1630,995,0,0
413,29,0,0,0,0,0,0,0,0,0,-1,1637,995,0,0
420,29,0,0,0,0,0,0,0,0,0,-1,1644,995,0,0
427,29,0,0,0,0,0,0,0,0,0,-1,1651,995,0,0
434,29,0,0,0,0,0,0,0,0,0,-1,1658,995,0,0
441,29,0,0,0,0,0,0,0,0,0,-1,1665,995,0,0
448,29,0,0,0,0,0,0,0,0,0,-1,1672,995,0,0
455,29,0,0,0,0,0,0,0,0,0,-1,1679,995,0,0
462,29,0,0,0,0,0,0,0,0,0,-1,1686,995,0,0
469,29,0,0,0,0,0,0,0,0,0,-1,1693,995,0,0
476,29,0,0,0,0,0,0,0,0,0,-1,1700,995,0,0
483,29,0,0,0,0,0,0,0,0,0,-1,1707,995,0,0
490,29,0,0,0,0,0,0,0,0,0,-1,1714,995,0,0
497,29,0,0,0,0,0,0,0,0,0,-1,1721,995,0,0
504,29,0,0,0,0,0,0,0,0,0,-1,1728,995,0,0
511,29,0,0,0,0,0,0,0,0,0,-1,1735,995,0,0
518,29,0,0,0,0,0,0,0,0,0,-1,1742,995,0,0
525,29,0,0,0,0,0,0,0,0,0,-1,1749,995,0,0
532,29,0,0,0,0,0,0,0,0,0,-1,1756,995,0,0
539,29,0,0,0,0,0,0,0,0,0,-1,1763,995,0,0
546,29,0,0,0,0,0,0,0,0,0,-1,1770,995,0,0
553,29,0,0,0,0,0,0,0,0,0,-1,1777,995,0,0
560,29,0,0,0,0,0,0,0,0,0,-1,1784,995,0,0
567,29,0,0,0,0,0,0,0,0,0,-1,1791,995,0,0
574,29,0,0,0,0,0,0,0,0,0,-1,1798,995,0,0
581,29,0,0,0,0,0,0,0,0,0,-1,1805,995,0,0
588,29,0,0,0,0,0,0,0,0,0,-1,1812,995,0,0
595,29,0,0,0,0,0,0,0,0,0,-1,1819,995,0,0
602,29,0,0,0,0,0,0,0,0,0,-1,1826,995,0,0
609,29,0,0,0,0,0,0,0,0,0,-1,1833,995,0,0
616,29,0,0,0,0,0,0,0,0,0,-1,1840,995,0,0
623,29,0,0,0,0,0,0,0,0,0,-1,1847,995,0,0
630,29,0,0,0,0,0,0,0,0,0,-1,1854,995,0,0
637,29,0,0,0,0,0,0,0,0,0,-1,1861,995,0,0
644,29,82.1156,2.31219,5.08734e-05,0.000428201,0.00143822,0.00169008,-0.001211,0.850615,0.00168253,0.0394879,1868,995,82.1157,-2.3122
651,29,82.1343,2.25696,-0.000814385,-4.90909e-06,0.000905382,0.000582083,-0.00140138,0.995591,0.00117727,0.0419362,1875,995,82.1343,-2.25696
658,29,82.2572,2.42603,-0.000848071,-0.000249318,0.000654971,0.000171453,-0.00126884,0.999763,0.000908455,0.0410263,1882,995,82.2572,-2.42602
665,29,82.1969,2.56207,-0.000610693,-0.000222918,0.000575765,0.000190729,-0.00102434,0.947808,0.000754548,0.0402681,1889,995,82.1968,-2.56205
672,29,82.1195,2.56824,-0.000234831,-6.65657e-05,0.000625281,0.000480217,-0.000781614,0.852273,0.000735413,0.0405057,1896,995,82.1195,-2.56821
679,29,82.0553,2.53442,0.00027576,-1.48119e-05,0.000834062,0.000977095,-0.000716147,0.699168,0.000981456,0.0399571,1903,995,82.0553,-2.53443
686,29,82.0428,2.46759,0.000667199,-0.000228592,0.0010102,0.00132434,-0.000885737,0.576733,0.00128434,0.0385495,1910,995,82.0429,-2.46762
693,29,82.2113,2.26282,0.000792348,-0.000402058,0.00109566,0.00144299,-0.0010527,0.535876,0.00144675,0.03934,1917,995,82.2113,-2.26282
700,29,82.248,2.27734,0.000559812,-0.000481106,0.000981481,0.00115029,-0.00107158,0.54161,0.00128307,0.0364572,1924,995,82.2481,-2.27733
707,29,82.2183,2.32251,-0.000247517,0.000195715,0.000640314,0.000651679,-0.000703481,0.951999,0.000782593,0.0249329,1931,995,82.2183,-2.32253
714,29,82.12,2.3573,0,0,0,0,0,0,0,-1,1938,995,82.1199,-2.35728
721,29,78.8949,6.53455,0,0,0,0,0,0,0,-1,1945,995,78.8949,-6.53457
728,29,82.165,7.22784,0,0,0,0,0,0,0,-1,1952,995,82.1651,-7.22783
735,29,82.0889,7.50128,-0.00640007,0.00736674,-0.000794092,0.00741239,-0.00644573,-1.51337,0.00800748,0.018698,1959,995,82.0889,-7.50127
742,29,82.0137,7.73834,-0.00837095,0.00995596,-0.00114076,0.0100267,-0.00844169,-1.50887,0.0106758,0.0155106,1966,995,82.0136,-7.73836
749,29,81.9844,8.034,-0.0109754,0.0131043,-0.00174429,0.01323,-0.0111011,-1.49886,0.0140655,0.0166024,1973,995,81.9845,-8.03403
756,29,81.9561,8.31201,-0.0133598,0.0178716,-0.00291021,0.0181405,-0.0136287,-1.47867,0.0184035,0.0157235,1980,995,81.956,-8.31201
763,29,81.8691,8.45953,-0.0152789,0.024672,-0.00474246,0.0252273,-0.0158341,-1.45425,0.0239127,0.0134402,1987,995,81.8691,-8.45955
770,29,81.7334,8.61719,-0.016743,0.0338097,-0.00688207,0.0347299,-0.0176632,-1.43788,0.0307795,0.0199599,1994,995,81.7335,-8.61716
777,29,81.5884,8.9502,-0.0172829,0.0444032,-0.00992252,0.04596,-0.0188397,-1.41517,0.0384888,0.0343689,2001,995,81.5883,-8.95017
784,29,81.4985,9.25232,-0.0164922,0.0563455,-0.0142648,0.0590395,-0.0191862,-1.38414,0.0470769,0.0490053,2008,995,81.4987,-9.25231
791,29,81.4409,9.50781,-0.0140749,0.0699865,-0.0206844,0.0748005,-0.0188889,-1.34213,0.0572123,0.0489856,2015,995,81.4408,-9.50781
798,29,81.4053,9.79315,0,0,0,0,0,0,0,-1,2022,995,81.4054,-9.79318
805,29,74.3672,11.113,0,0,0,0,0,0,0,-1,2029,995,74.3672,-11.113
812,29,74.3464,11.3901,0,0,0,0,0,0,0,-1,2036,995,74.3464,-11.3901
-700,22,0,0,0,0,0,0,0,0,0,-1,524,1002,0,0
-693,22,-64.1387,1.95026,0,0,0,0,0,0,0,-1,531,1002,-64.1387,-1.95025
-686,22,-63.888,5.10138,0.0722507,0.159519,0.0532694,0.184744,0.0470258,1.12854,0.110863,0.0437584,538,1002,-63.888,-5.10136
-679,22,-63.6181,5.81915,0.0557896,0.138164,0.0459983,0.15872,0.0352336,1.15053,0.0962433,0.0462082,545,1002,-63.6181,-5.81917
-672,22,-63.1216,6.43365,0,0,0,0,0,0,0,-1,552,1002,-63.1216,-6.43365
-665,22,-62.6777,7.04553,0,0,0,0,0,0,0,-1,559,1002,-62.6777,-7.04554
-658,22,-62.1954,7.73608,0,0,0,0,0,0,0,-1,566,1002,-62.1954,-7.73611
-651,22,-64.5434,7.54523,0,0,0,0,0,0,0,-1,573,1002,-64.5434,-7.54522
-644,22,-65.9572,7.79059,0,0,0,0,0,0,0,-1,580,1002,-65.9571,-7.79059
-637,22,-66.3762,7.9585,-0.00226801,0.0392223,0.00933742,0.0412269,-0.00427255,1.35933,0.0290138,0.0332866,587,1002,-66.3762,-7.95847
-630,22,-66.3479,7.90002,-0.00751691,0.0251509,0.00528896,0.0259859,-0.00835186,1.41422,0.0206779,0.0190455,594,1002,-66.3479,-7.90001
-623,22,-66.3596,7.76294,-0.00862319,0.0156454,0.00408018,0.016313,-0.0092908,1.40861,0.0149665,0.0139249,601,1002,-66.3596,-7.76297
-616,22,-66.3584,7.55475,-0.00703692,0.0107856,0.00274764,0.0111996,-0.0074509,1.42125,0.0108401,0.0232468,608,1002,-66.3584,-7.55475
-609,22,-66.4163,7.45483,-0.00572181,0.00759977,0.00150792,0.00776833,-0.00589036,1.45948,0.00791066,0.0385134,615,1002,-66.4163,-7.45483
-602,22,-66.6499,7.31964,-0.00462866,0.00542989,0.000655679,0.00547245,-0.00467122,1.50598,0.00586253,0.0330057,622,1002,-66.6499,-7.31966
-595,22,-66.9781,6.9314,-0.00376857,0.00394525,0.000159629,0.00394855,-0.00377187,1.55011,0.00445778,0.0392922,629,1002,-66.9781,-6.9314
-588,22,-67.1514,6.43298,0,0,0,0,0,0,0,-1,636,1002,-67.1514,-6.43298
-581,22,-65.3491,0.767761,0,0,0,0,0,0,0,-1,643,1002,-65.3491,-0.767788
-574,22,-65.3715,0.652222,-0.00187167,0.00110005,-0.000785363,0.00129484,-0.00206645,-1.32768,0.00195761,0.0379215,650,1002,-65.3715,-0.652236
-567,22,-65.326,0.43811,-0.00159243,0.00105384,-0.000734275,0.00124392,-0.00178252,-1.31748,0.00175652,0.034174,657,1002,-65.3261,-0.438112
-560,22,-65.311,0.408264,-0.00139564,0.0012103,-0.000394241,0.00126864,-0.00145398,-1.42389,0.00157312,0.037137,664,1002,-65.311,-0.408273
-553,22,-65.3316,0.444336,-0.00137202,0.00115511,0.000310103,0.00119261,-0.00140952,1.45047,0.00150408,0.0397421,671,1002,-65.3316,-0.444349
-546,22,-65.2698,0.400269,-0.0016359,0.000125115,0.00151262,0.000994838,-0.00250563,1.04898,0.00208279,0.0409935,678,1002,-65.2699,-0.400239
-539,22,-65.3411,0.471008,-0.00277214,-0.0024185,0.00318217,0.000591754,-0.0057824,0.813152,0.00406656,0.0415032,685,1002,-65.3411,-0.471021
-532,22,-65.4788,0.631897,-0.00343925,-0.00549483,0.00487514,0.000515257,-0.00944934,0.681508,0.00647815,0.040641,692,1002,-65.4788,-0.631914
-525,22,0,0,0,0,0,0,0,0,0,-1,699,1002,0,0
-518,22,0,0,0,0,0,0,0,0,0,-1,706,1002,0,0
-511,22,0,0,0,0,0,0,0,0,0,-1,713,1002,0,0
-504,22,0,0,0,0,0,0,0,0,0,-1,720,1002,0,0
-497,22,0,0,0,0,0,0,0,0,0,-1,727,1002,0,0
-490,22,0,0,0,0,0,0,0,0,0,-1,734,1002,0,0
-483,22,0,0,0,0,0,0,0,0,0,-1,741,1002,0,0
-476,22,0,0,0,0,0,0,0,0,0,-1,748,1002,0,0
-469,22,0,0,0,0,0,0,0,0,0,-1,755,1002,0,0
-462,22,0,0,0,0,0,0,0,0,0,-1,762,1002,0,0
-455,22,0,0,0,0,0,0,0,0,0,-1,769,1002,0,0
-448,22,0,0,0,0,0,0,0,0,0,-1,776,1002,0,0
-441,22,0,0,0,0,0,0,0,0,0,-1,783,1002,0,0
-434,22,0,0,0,0,0,0,0,0,0,-1,790,1002,0,0
-427,22,0,0,0,0,0,0,0,0,0,-1,797,1002,0,0
-420,22,0,0,0,0,0,0,0,0,0,-1,804,1002,0,0
-413,22,0,0,0,0,0,0,0,0,0,-1,811,1002,0,0
-406,22,0,0,0,0,0,0,0,0,0,-1,818,1002,0,0
-399,22,0,0,0,0,0,0,0,0,0,-1,825,1002,0,0
-392,22,0,0,0,0,0,0,0,0,0,-1,832,1002,0,0
-385,22,0,0,0,0,0,0,0,0,0,-1,839,1002,0,0
-378,22,0,0,0,0,0,0,0,0,0,-1,846,1002,0,0
-371,22,0,0,0,0,0,0,0,0,0,-1,853,1002,0,0
-364,22,0,0,0,0,0,0,0,0,0,-1,860,1002,0,0
-357,22,0,0,0,0,0,0,0,0,0,-1,867,1002,0,0
-350,22,0,0,0,0,0,0,0,0,0,-1,874,1002,0,0
-343,22,0,0,0,0,0,0,0,0,0,-1,881,1002,0,0
-336,22,0,0,0,0,0,0,0,0,0,-1,888,1002,0,0
-329,22,0,0,0,0,0,0,0,0,0,-1,895,1002,0,0
-322,22,0,0,0,0,0,0,0,0,0,-1,902,1002,0,0
-315,22,0,0,0,0,0,0,0,0,0,-1,909,1002,0,0
-308,22,0,0,0,0,0,0,0,0,0,-1,916,1002,0,0
-301,22,0,0,0,0,0,0,0,0,0,-1,923,1002,0,0
-294,22,0,0,0,0,0,0,0,0,0,-1,930,1002,0,0
-287,22,0,0,0,0,0,0,0,0,0,-1,937,1002,0,0
-280,22,0,0,0,0,0,0,0,0,0,-1,944,1002,0,0
-273,22,0,0,0,0,0,0,0,0,0,-1,951,1002,0,0
-266,22,0,0,0,0,0,0,0,0,0,-1,958,1002,0,0
-259,22,0,0,0,0,0,0,0,0,0,-1,965,1002,0,0
-252,22,0,0,0,0,0,0,0,0,0,-1,972,1002,0,0
-245,22,0,0,0,0,0,0,0,0,0,-1,979,1002,0,0
-238,22,0,0,0,0,0,0,0,0,0,-1,986,1002,0,0
-231,22,0,0,0,0,0,0,0,0,0,-1,993,1002,0,0
-224,22,0,0,0,0,0,0,0,0,0,-1,1000,1002,0,0
-217,22,0,0,0,0,0,0,0,0,0,-1,1007,1002,0,0
-210,22,0,0,0,0,0,0,0,0,0,-1,1014,1002,0,0
-203,22,0,0,0,0,0,0,0,0,0,-1,1021,1002,0,0
-196,22,0,0,0,0,0,0,0,0,0,-1,1028,1002,0,0
-189,22,0,0,0,0,0,0,0,0,0,-1,1035,1002,0,0
-182,22,0,0,0,0,0,0,0,0,0,-1,1042,1002,0,0
-175,22,0,0,0,0,0,0,0,0,0,-1,1049,1002,0,0
-168,22,0,0,0,0,0,0,0,0,0,-1,1056,1002,0,0
-161,22,0,0,0,0,0,0,0,0,0,-1,1063,1002,0,0
-154,22,0,0,0,0,0,0,0,0,0,-1,1070,1002,0,0
-147,22,0,0,0,0,0,0,0,0,0,-1,1077,1002,0,0
-140,22,0,0,0,0,0,0,0,0,0,-1,1084,1002,0,0
-133,22,0,0,0,0,0,0,0,0,0,-1,1091,1002,0,0
-126,22,0,0,0,0,0,0,0,0,0,-1,1098,1002,0,0
-119,22,0,0,0,0,0,0,0,0,0,-1,1105,1002,0,0
-112,22,0,0,0,0,0,0,0,0,0,-1,1112,1002,0,0
-105,22,0,0,0,0,0,0,0,0,0,-1,1119,1002,0,0
-98,22,0,0,0,0,0,0,0,0,0,-1,1126,1002,0,0
-91,22,0,0,0,0,0,0,0,0,0,-1,1133,1002,0,0
-84,22,0,0,0,0,0,0,0,0,0,-1,1140,1002,0,0
-77,22,0,0,0,0,0,0,0,0,0,-1,1147,1002,0,0
-70,22,0,0,0,0,0,0,0,0,0,-1,1154,1002,0,0
-63,22,0,0,0,0,0,0,0,0,0,-1,1161,1002,0,0
-56,22,0,0,0,0,0,0,0,0,0,-1,1168,1002,0,0
-49,22,0,0,0,0,0,0,0,0,0,-1,1175,1002,0,0
-42,22,0,0,0,0,0,0,0,0,0,-1,1182,1002,0,0
-35,22,0,0,0,0,0,0,0,0,0,-1,1189,1002,0,0
-28,22,0,0,0,0,0,0,0,0,0,-1,1196,1002,0,0
-21,22,0,0,0,0,0,0,0,0,0,-1,1203,1002,0,0
-14,22,0,0,0,0,0,0,0,0,0,-1,1210,1002,0,0
-7,22,0,0,0,0,0,0,0,0,0,-1,1217,1002,0,0
0,22,0,0,0,0,0,0,0,0,0,-1,1224,1002,0,0
7,22,0,0,0,0,0,0,0,0,0,-1,1231,1002,0,0
14,22,0,0,0,0,0,0,0,0,0,-1,1238,1002,0,0
21,22,0,0,0,0,0,0,0,0,0,-1,1245,1002,0,0
28,22,0,0,0,0,0,0,0,0,0,-1,1252,1002,0,0
35,22,0,0,0,0,0,0,0,0,0,-1,1259,1002,0,0
42,22,0,0,0,0,0,0,0,0,0,-1,1266,1002,0,0
49,22,0,0,0,0,0,0,0,0,0,-1,1273,1002,0,0
56,22,0,0,0,0,0,0,0,0,0,-1,1280,1002,0,0
63,22,0,0,0,0,0,0,0,0,0,-1,1287,1002,0,0
70,22,0,0,0,0,0,0,0,0,0,-1,1294,1002,0,0
77,22,0,0,0,0,0,0,0,0,0,-1,1301,1002,0,0
84,22,0,0,0,0,0,0,0,0,0,-1,1308,1002,0,0
91,22,0,0,0,0,0,0,0,0,0,-1,1315,1002,0,0
98,22,0,0,0,0,0,0,0,0,0,-1,1322,1002,0,0
105,22,0,0,0,0,0,0,0,0,0,-1,1329,1002,0,0
112,22,0,0,0,0,0,0,0,0,0,-1,1336,1002,0,0
119,22,0,0,0,0,0,0,0,0,0,-1,1343,1002,0,0
126,22,0,0,0,0,0,0,0,0,0,-1,1350,1002,0,0
133,22,0,0,0,0,0,0,0,0,0,-1,1357,1002,0,0
140,22,0,0,0,0,0,0,0,0,0,-1,1364,1002,0,0
147,22,0,0,0,0,0,0,0,0,0,-1,1371,1002,0,0
154,22,0,0,0,0,0,0,0,0,0,-1,1378,1002,0,0
161,22,0,0,0,0,0,0,0,0,0,-1,1385,1002,0,0
168,22,0,0,0,0,0,0,0,0,0,-1,1392,1002,0,0
175,22,0,0,0,0,0,0,0,0,0,-1,1399,1002,0,0
182,22,0,0,0,0,0,0,0,0,0,-1,1406,1002,0,0
189,22,0,0,0,0,0,0,0,0,0,-1,1413,1002,0,0
196,22,0,0,0,0,0,0,0,0,0,-1,1420,1002,0,0
203,22,0,0,0,0,0,0,0,0,0,-1,1427,1002,0,0
210,22,0,0,0,0,0,0,0,0,0,-1,1434,1002,0,0
217,22,0,0,0,0,0,0,0,0,0,-1,1441,1002,0,0
224,22,0,0,0,0,0,0,0,0,0,-1,1448,1002,0,0
231,22,0,0,0,0,0,0,0,0,0,-1,1455,1002,0,0
238,22,0,0,0,0,0,0,0,0,0,-1,1462,1002,0,0
245,22,0,0,0,0,0,0,0,0,0,-1,1469,1002,0,0
252,22,0,0,0,0,0,0,0,0,0,-1,1476,1002,0,0
259,22,0,0,0,0,0,0,0,0,0,-1,1483,1002,0,0
266,22,0,0,0,0,0,0,0,0,0,-1,1490,1002,0,0
273,22,0,0,0,0,0,0,0,0,0,-1,1497,1002,0,0
280,22,0,0,0,0,0,0,0,0,0,-1,1504,1002,0,0
287,22,0,0,0,0,0,0,0,0,0,-1,1511,1002,0,0
294,22,0,0,0,0,0,0,0,0,0,-1,1518,1002,0,0
301,22,0,0,0,0,0,0,0,0,0,-1,1525,1002,0,0
308,22,0,0,0,0,0,0,0,0,0,-1,1532,1002,0,0
315,22,0,0,0,0,0,0,0,0,0,-1,1539,1002,0,0
322,22,0,0,0,0,0,0,0,0,0,-1,1546,1002,0,0
329,22,0,0,0,0,0,0,0,0,0,-1,1553,1002,0,0
336,22,0,0,0,0,0,0,0,0,0,-1,1560,1002,0,0
343,22,0,0,0,0,0,0,0,0,0,-1,1567,1002,0,0
350,22,0,0,0,0,0,0,0,0,0,-1,1574,1002,0,0
357,22,0,0,0,0,0,0,0,0,0,-1,1581,1002,0,0
364,22,0,0,0,0,0,0,0,0,0,-1,1588,1002,0,0
371,22,0,0,0,0,0,0,0,0,0,-1,1595,1002,0,0
378,22,0,0,0,0,0,0,0,0,0,-1,1602,1002,0,0
385,22,0,0,0,0,0,0,0,0,0,-1,1609,1002,0,0
392,22,0,0,0,0,0,0,0,0,0,-1,1616,1002,0,0
399,22,0,0,0,0,0,0,0,0,0,-1,1623,1002,0,0
406,22,0,0,0,0,0,0,0,0,0,-1,1630,1002,0,0
413,22,0,0,0,0,0,0,0,0,0,-1,1637,1002,0,0
420,22,0,0,0,0,0,0,0,0,0,-1,1644,1002,0,0
427,22,0,0,0,0,0,0,0,0,0,-1,1651,1002,0,0
434,22,0,0,0,0,0,0,0,0,0,-1,1658,1002,0,0
441,22,0,0,0,0,0,0,0,0,0,-1,1665,1002,0,0
448,22,0,0,0,0,0,0,0,0,0,-1,1672,1002,0,0
455,22,0,0,0,0,0,0,0,0,0,-1,1679,1002,0,0
462,22,0,0,0,0,0,0,0,0,0,-1,1686,1002,0,0
469,22,0,0,0,0,0,0,0,0,0,-1,1693,1002,0,0
476,22,0,0,0,0,0,0,0,0,0,-1,1700,1002,0,0
483,22,0,0,0,0,0,0,0,0,0,-1,1707,1002,0,0
490,22,0,0,0,0,0,0,0,0,0,-1,1714,1002,0,0
497,22,0,0,0,0,0,0,0,0,0,-1,1721,1002,0,0
504,22,0,0,0,0,0,0,0,0,0,-1,1728,1002,0,0
511,22,0,0,0,0,0,0,0,0,0,-1,1735,1002,0,0
518,22,0,0,0,0,0,0,0,0,0,-1,1742,1002,0,0
525,22,0,0,0,0,0,0,0,0,0,-1,1749,1002,0,0
532,22,0,0,0,0,0,0,0,0,0,-1,1756,1002,0,0
539,22,0,0,0,0,0,0,0,0,0,-1,1763,1002,0,0
546,22,0,0,0,0,0,0,0,0,0,-1,1770,1002,0,0
553,22,0,0,0,0,0,0,0,0,0,-1,1777,1002,0,0
560,22,0,0,0,0,0,0,0,0,0,-1,1784,1002,0,0
567,22,0,0,0,0,0,0,0,0,0,-1,1791,1002,0,0
574,22,0,0,0,0,0,0,0,0,0,-1,1798,1002,0,0
581,22,0,0,0,0,0,0,0,0,0,-1,1805,1002,0,0
588,22,0,0,0,0,0,0,0,0,0,-1,1812,1002,0,0
595,22,0,0,0,0,0,0,0,0,0,-1,1819,1002,0,0
602,22,0,0,0,0,0,0,0,0,0,-1,1826,1002,0,0
609,22,0,0,0,0,0,0,0,0,0,-1,1833,1002,0,0
616,22,0,0,0,0,0,0,0,0,0,-1,1840,1002,0,0
623,22,0,0,0,0,0,0,0,0,0,-1,1847,1002,0,0
630,22,0,0,0,0,0,0,0,0,0,-1,1854,1002,0,0
637,22,0,0,0,0,0,0,0,0,0,-1,1861,1002,0,0
644,22,82.1261,2.26837,-0.000855499,0.000184934,0.00107468,0.000858687,-0.00152925,1.01081,0.00139668,0.0402532,1868,1002,82.1261,-2.26834
651,22,82.3102,2.09894,-0.00146022,-0.000203265,0.000535464,-6.08724e-06,-0.0016574,1.21797,0.00110291,0.0445895,1875,1002,82.3102,-2.09896
658,22,82.3738,2.17938,-0.00127473,-0.00046398,0.000293262,-0.000369024,-0.00136969,1.25766,0.000818339,0.0426226,1882,1002,82.3737,-2.17938
665,22,82.2928,2.29468,-0.000890037,-0.0004801,0.000269963,-0.000346111,-0.00102403,1.11009,0.000601478,0.0394318,1889,1002,82.2928,-2.29465
672,22,82.1375,2.39923,-0.000398435,-0.00036259,0.000396981,1.68731e-05,-0.000777898,0.807957,0.000524314,0.0409615,1896,1002,82.1375,-2.39925
679,22,82.0436,2.34808,0.000190636,-0.00031579,0.000670858,0.000654477,-0.000779631,0.604941,0.000829033,0.0426006,1903,1002,82.0436,-2.34806
686,22,82.0981,2.36841,0.000578388,-0.00051624,0.0009308,0.00111086,-0.00104871,0.519622,0.001247,0.0413888,1910,1002,82.0982,-2.36844
693,22,82.1406,2.28607,0.000731106,-0.000672391,0.00108628,0.00132259,-0.00126388,0.498615,0.00149343,0.0379312,1917,1002,82.1406,-2.28607
700,22,82.1995,2.25293,0.000559141,-0.000755105,0.00103379,0.00112698,-0.00132295,0.50229,0.00141597,0.0340505,1924,1002,82.1995,-2.25294
707,22,82.1846,2.36951,-0.000296805,-3.61079e-05,0.000752484,0.000597234,-0.000930147,0.871159,0.000888789,0.0295134,1931,1002,82.1846,-2.36949
714,22,82.0846,2.58655,0,0,0,0,0,0,0,-1,1938,1002,82.0846,-2.58653
721,22,76.814,2.41211,0,0,0,0,0,0,0,-1,1945,1002,76.814,-2.41212
728,22,82.3107,7.43585,0,0,0,0,0,0,0,-1,1952,1002,82.3107,-7.43585
735,22,82.2885,7.62341,-0.00676701,0.0073583,-0.000506624,0.00737645,-0.00678516,-1.53499,0.00817858,0.0186499,1959,1002,82.2884,-7.62343
742,22,82.2878,7.80615,-0.00865382,0.00985551,-0.000826689,0.00989236,-0.00869067,-1.52625,0.0107364,0.0192649,1966,1002,82.2878,-7.80616
749,22,82.2119,8.00848,-0.01114,0.0127726,-0.0013574,0.0128494,-0.0112168,-1.51427,0.0139053,0.0149882,1973,1002,82.2119,-8.00849
756,22,82.2078,8.16492,-0.0132989,0.017144,-0.00252203,0.0173515,-0.0135065,-1.4887,0.0178619,0.0200806,1980,1002,82.2078,-8.16495
763,22,82.124,8.33698,-0.0148336,0.0230465,-0.00462845,0.0236038,-0.0153909,-1.45096,0.0226795,0.0203701,1987,1002,82.1241,-8.337
770,22,81.8811,8.47095,-0.0157824,0.0311333,-0.00721185,0.0322169,-0.0168659,-1.42166,0.0287963,0.0226429,1994,1002,81.8812,-8.47093
777,22,81.4192,8.51935,-0.0156073,0.0405976,-0.0109868,0.0426689,-0.0176786,-1.38445,0.0358237,0.045716,2001,1002,81.4192,-8.51934
784,22,80.999,8.61377,0,0,0,0,0,0,0,-1,2008,1002,80.9991,-8.6138
791,22,81.1365,8.87616,0,0,0,0,0,0,0,-1,2015,1002,81.1364,-8.87619
798,22,75.3267,9.01569,0,0,0,0,0,0,0,-1,2022,1002,75.3266,-9.01571
805,22,75.3247,9.49249,0,0,0,0,0,0,0,-1,2029,1002,75.3248,-9.49248
812,22,75.3965,9.88782,0,0,0,0,0,0,0,-1,2036,1002,75.3966,-9.88781
-700,15,0,0,0,0,0,0,0,0,0,-1,524,1009,0,0
-693,15,-64.3082,1.03607,0,0,0,0,0,0,0,-1,531,1009,-64.3082,-1.03607
-686,15,-63.9231,4.78137,0,0,0,0,0,0,0,-1,538,1009,-63.9231,-4.78136
-679,15,-63.2324,4.75891,0,0,0,0,0,0,0,-1,545,1009,-63.2324,-4.75894
-672,15,-62.4885,5.21826,0,0,0,0,0,0,0,-1,552,1009,-62.4885,-5.21827
-665,15,-62.0263,5.41602,0,0,0,0,0,0,0,-1,559,1009,-62.0263,-5.416
-658,15,-67.7799,6.4903,0,0,0,0,0,0,0,-1,566,1009,-67.7799,-6.49027
-651,15,-51.4943,3.62128,0,0,0,0,0,0,0,-1,573,1009,-51.4943,-3.62128
-644,15,-65.9106,7.91174,0,0,0,0,0,0,0,-1,580,1009,-65.9106,-7.91174
-637,15,-66.2957,7.49463,0,0,0,0,0,0,0,-1,587,1009,-66.2957,-7.49461
-630,15,-66.4803,7.7962,-0.00812384,0.0242052,0.0048981,0.024931,-0.00884965,1.42369,0.0202265,0.0210439,594,1009,-66.4803,-7.7962
-623,15,-66.5267,7.67371,-0.00869067,0.0152592,0.00357039,0.0157801,-0.0092116,1.42591,0.0145942,0.0116462,601,1009,-66.5267,-7.67373
-616,15,-66.5158,7.55505,-0.00699568,0.0105664,0.0021812,0.0108332,-0.00726253,1.44906,0.0105152,0.0193286,608,1009,-66.5158,-7.55504
-609,15,-66.6191,7.48468,-0.00555818,0.00749812,0.000910881,0.00756136,-0.00562142,1.50148,0.0076385,0.0257982,615,1009,-66.6191,-7.48469
-602,15,-66.7516,7.42072,-0.00440657,0.00530224,9.38558e-05,0.00530315,-0.00440748,1.56113,0.00561438,0.0251448,622,1009,-66.7517,-7.42073
-595,15,-67.3321,6.93317,0,0,0,0,0,0,0,-1,629,1009,-67.3321,-6.93317
-588,15,-65.2474,0.760681,0,0,0,0,0,0,0,-1,636,1009,-65.2474,-0.760705
-581,15,-65.3401,0.765625,-0.00220308,0.00179774,-0.000901211,0.00199137,-0.00239671,-1.35916,0.00253706,0.0410861,643,1009,-65.3402,-0.765616
-574,15,-65.3769,0.737244,-0.00166937,0.00119169,-0.00107254,0.00154911,-0.00202678,-1.24913,0.00207067,0.0348499,650,1009,-65.3769,-0.737233
-567,15,-65.3463,0.470581,-0.0014683,0.0011756,-0.000910975,0.00145909,-0.00175179,-1.2691,0.00185637,0.0331261,657,1009,-65.3462,-0.470564
-560,15,-65.2616,0.433228,-0.00140317,0.00134817,-0.000443848,0.001418,-0.001473,-1.41475,0.00166922,0.0357166,664,1009,-65.2616,-0.433227
-553,15,-65.278,0.407654,-0.00163508,0.00126311,0.000397266,0.00131658,-0.00168855,1.43701,0.00173943,0.0395087,671,1009,-65.278,-0.407635
-546,15,-65.3157,0.410034,-0.00230119,0.000124493,0.00173363,0.00102742,-0.00320412,1.09063,0.00254854,0.0405749,678,1009,-65.3158,-0.410042
-539,15,-65.3506,0.683716,-0.00397117,-0.0024697,0.00347198,0.000331781,-0.00677265,0.891872,0.00462966,0.0409103,685,1009,-65.3506,-0.683698
-532,15,-65.4971,0.760254,-0.00529369,-0.00544241,0.00512743,-0.000240079,-0.010496,0.778147,0.00691871,0.0401006,692,1009,-65.4971,-0.760268
-525,15,0,0,0,0,0,0,0,0,0,-1,699,1009,0,0
-518,15,0,0,0,0,0,0,0,0,0,-1,706,1009,0,0
-511,15,0,0,0,0,0,0,0,0,0,-1,713,1009,0,0
-504,15,0,0,0,0,0,0,0,0,0,-1,720,1009,0,0
-497,15,0,0,0,0,0,0,0,0,0,-1,727,1009,0,0
-490,15,0,0,0,0,0,0,0,0,0,-1,734,1009,0,0
-483,15,0,0,0,0,0,0,0,0,0,-1,741,1009,0,0
-476,15,0,0,0,0,0,0,0,0,0,-1,748,1009,0,0
-469,15,0,0,0,0,0,0,0,0,0,-1,755,1009,0,0
-462,15,0,0,0,0,0,0,0,0,0,-1,762,1009,0,0
-455,15,0,0,0,0,0,0,0,0,0,-1,769,1009,0,0
-448,15,0,0,0,0,0,0,0,0,0,-1,776,1009,0,0
-441,15,0,0,0,0,0,0,0,0,0,-1,783,1009,0,0
-434,15,0,0,0,0,0,0,0,0,0,-1,790,1009,0,0
-427,15,0,0,0,0,0,0,0,0,0,-1,797,1009,0,0
-420,15,0,0,0,0,0,0,0,0,0,-1,804,1009,0,0
-413,15,0,0,0,0,0,0,0,0,0,-1,811,1009,0,0
-406,15,0,0,0,0,0,0,0,0,0,-1,818,1009,0,0
-399,15,0,0,0,0,0,0,0,0,0,-1,825,1009,0,0
-392,15,0,0,0,0,0,0,0,0,0,-1,832,1009,0,0
-385,15,0,0,0,0,0,0,0,0,0,-1,839,1009,0,0
-378,15,0,0,0,0,0,0,0,0,0,-1,846,1009,0,0
-371,15,0,0,0,0,0,0,0,0,0,-1,853,1009,0,0
-364,15,0,0,0,0,0,0,0,0,0,-1,860,1009,0,0
-357,15,0,0,0,0,0,0,0,0,0,-1,867,1009,0,0
-350,15,0,0,0,0,0,0,0,0,0,-1,874,1009,0,0
-343,15,0,0,0,0,0,0,0,0,0,-1,881,1009,0,0
-336,15,0,0,0,0,0,0,0,0,0,-1,888,1009,0,0
-329,15,0,0,0,0,0,0,0,0,0,-1,895,1009,0,0
-322,15,0,0,0,0,0,0,0,0,0,-1,902,1009,0,0
-315,15,0,0,0,0,0,0,0,0,0,-1,909,1009,0,0
-308,15,0,0,0,0,0,0,0,0,0,-1,916,1009,0,0
-301,15,0,0,0,0,0,0,0,0,0,-1,923,1009,0,0
-294,15,0,0,0,0,0,0,0,0,0,-1,930,1009,0,0
-287,15,0,0,0,0,0,0,0,0,0,-1,937,1009,0,0
-280,15,0,0,0,0,0,0,0,0,0,-1,944,1009,0,0
-273,15,0,0,0,0,0,0,0,0,0,-1,951,1009,0,0
-266,15,0,0,0,0,0,0,0,0,0,-1,958,1009,0,0
-259,15,0,0,0,0,0,0,0,0,0,-1,965,1009,0,0
-252,15,0,0,0,0,0,0,0,0,0,-1,972,1009,0,0
-245,15,0,0,0,0,0,0,0,0,0,-1,979,1009,0,0
-238,15,0,0,0,0,0,0,0,0,0,-1,986,1009,0,0
-231,15,0,0,0,0,0,0,0,0,0,-1,993,1009,0,0
-224,15,0,0,0,0,0,0,0,0,0,-1,1000,1009,0,0
-217,15,0,0,0,0,0,0,0,0,0,-1,1007,1009,0,0
-210,15,0,0,0,0,0,0,0,0,0,-1,1014,1009,0,0
-203,15,0,0,0,0,0,0,0,0,0,-1,1021,1009,0,0
-196,15,0,0,0,0,0,0,0,0,0,-1,1028,1009,0,0
-189,15,0,0,0,0,0,0,0,0,0,-1,1035,1009,0,0
-182,15,0,0,0,0,0,0,0,0,0,-1,1042,1009,0,0
-175,15,0,0,0,0,0,0,0,0,0,-1,1049,1009,0,0
-168,15,0,0,0,0,0,0,0,0,0,-1,1056,1009,0,0
-161,15,0,0,0,0,0,0,0,0,0,-1,1063,1009,0,0
-154,15,0,0,0,0,0,0,0,0,0,-1,1070,1009,0,0
-147,15,0,0,0,0,0,0,0,0,0,-1,1077,1009,0,0
-140,15,0,0,0,0,0,0,0,0,0,-1,1084,1009,0,0
-133,15,0,0,0,0,0,0,0,0,0,-1,1091,1009,0,0
-126,15,0,0,0,0,0,0,0,0,0,-1,1098,1009,0,0
-119,15,0,0,0,0,0,0,0,0,0,-1,1105,1009,0,0
-112,15,0,0,0,0,0,0,0,0,0,-1,1112,1009,0,0
-105,15,0,0,0,0,0,0,0,0,0,-1,1119,1009,0,0
-98,15,0,0,0,0,0,0,0,0,0,-1,1126,1009,0,0
-91,15,0,0,0,0,0,0,0,0,0,-1,1133,1009,0,0
-84,15,0,0,0,0,0,0,0,0,0,-1,1140,1009,0,0
-77,15,0,0,0,0,0,0,0,0,0,-1,1147,1009,0,0
-70,15,0,0,0,0,0,0,0,0,0,-1,1154,1009,0,0
-63,15,0,0,0,0,0,0,0,0,0,-1,1161,1009,0,0
-56,15,0,0,0,0,0,0,0,0,0,-1,1168,1009,0,0
-49,15,0,0,0,0,0,0,0,0,0,-1,1175,1009,0,0
-42,15,0,0,0,0,0,0,0,0,0,-1,1182,1009,0,0
-35,15,0,0,0,0,0,0,0,0,0,-1,1189,1009,0,0
-28,15,0,0,0,0,0,0,0,0,0,-1,1196,1009,0,0
-21,15,0,0,0,0,0,0,0,0,0,-1,1203,1009,0,0
-14,15,0,0,0,0,0,0,0,0,0,-1,1210,1009,0,0
-7,15,0,0,0,0,0,0,0,0,0,-1,1217,1009,0,0
0,15,0,0,0,0,0,0,0,0,0,-1,1224,1009,0,0
7,15,0,0,0,0,0,0,0,0,0,-1,1231,1009,0,0
14,15,0,0,0,0,0,0,0,0,0,-1,1238,1009,0,0
21,15,0,0,0,0,0,0,0,0,0,-1,1245,1009,0,0
28,15,0,0,0,0,0,0,0,0,0,-1,1252,1009,0,0
35,15,0,0,0,0,0,0,0,0,0,-1,1259,1009,0,0
42,15,0,0,0,0,0,0,0,0,0,-1,1266,1009,0,0
49,15,0,0,0,0,0,0,0,0,0,-1,1273,1009,0,0
56,15,0,0,0,0,0,0,0,0,0,-1,1280,1009,0,0
63,15,0,0,0,0,0,0,0,0,0,-1,1287,1009,0,0
70,15,0,0,0,0,0,0,0,0,0,-1,1294,1009,0,0
77,15,0,0,0,0,0,0,0,0,0,-1,1301,1009,0,0
84,15,0,0,0,0,0,0,0,0,0,-1,1308,1009,0,0
91,15,0,0,0,0,0,0,0,0,0,-1,1315,1009,0,0
98,15,0,0,0,0,0,0,0,0,0,-1,1322,1009,0,0
105,15,0,0,0,0,0,0,0,0,0,-1,1329,1009,0,0
112,15,0,0,0,0,0,0,0,0,0,-1,1336,1009,0,0
119,15,0,0,0,0,0,0,0,0,0,-1,1343,1009,0,0
126,15,0,0,0,0,0,0,0,0,0,-1,1350,1009,0,0
133,15,0,0,0,0,0,0,0,0,0,-1,1357,1009,0,0
140,15,0,0,0,0,0,0,0,0,0,-1,1364,1009,0,0
147,15,0,0,0,0,0,0,0,0,0,-1,1371,1009,0,0
154,15,0,0,0,0,0,0,0,0,0,-1,1378,1009,0,0
161,15,0,0,0,0,0,0,0,0,0,-1,1385,1009,0,0
168,15,0,0,0,0,0,0,0,0,0,-1,1392,1009,0,0
175,15,0,0,0,0,0,0,0,0,0,-1,1399,1009,0,0
182,15,0,0,0,0,0,0,0,0,0,-1,1406,1009,0,0
189,15,0,0,0,0,0,0,0,0,0,-1,1413,1009,0,0
196,15,0,0,0,0,0,0,0,0,0,-1,1420,1009,0,0
203,15,0,0,0,0,0,0,0,0,0,-1,1427,1009,0,0
210,15,0,0,0,0,0,0,0,0,0,-1,1434,1009,0,0
217,15,0,0,0,0,0,0,0,0,0,-1,1441,1009,0,0
224,15,0,0,0,0,0,0,0,0,0,-1,1448,1009,0,0
231,15,0,0,0,0,0,0,0,0,0,-1,1455,1009,0,0
238,15,0,0,0,0,0,0,0,0,0,-1,1462,1009,0,0
245,15,0,0,0,0,0,0,0,0,0,-1,1469,1009,0,0
252,15,0,0,0,0,0,0,0,0,0,-1,1476,1009,0,0
259,15,0,0,0,0,0,0,0,0,0,-1,1483,1009,0,0
266,15,0,0,0,0,0,0,0,0,0,-1,1490,1009,0,0
273,15,0,0,0,0,0,0,0,0,0,-1,1497,1009,0,0
280,15,0,0,0,0,0,0,0,0,0,-1,1504,1009,0,0
287,15,0,0,0,0,0,0,0,0,0,-1,1511,1009,0,0
294,15,0,0,0,0,0,0,0,0,0,-1,1518,1009,0,0
301,15,0,0,0,0,0,0,0,0,0,-1,1525,1009,0,0
308,15,0,0,0,0,0,0,0,0,0,-1,1532,1009,0,0
315,15,0,0,0,0,0,0,0,0,0,-1,1539,1009,0,0
322,15,0,0,0,0,0,0,0,0,0,-1,1546,1009,0,0
329,15,0,0,0,0,0,0,0,0,0,-1,1553,1009,0,0
336,15,0,0,0,0,0,0,0,0,0,-1,1560,1009,0,0
343,15,0,0,0,0,0,0,0,0,0,-1,1567,1009,0,0
350,15,0,0,0,0,0,0,0,0,0,-1,1574,1009,0,0
357,15,0,0,0,0,0,0,0,0,0,-1,1581,1009,0,0
364,15,0,0,0,0,0,0,0,0,0,-1,1588,1009,0,0
371,15,0,0,0,0,0,0,0,0,0,-1,1595,1009,0,0
378,15,0,0,0,0,0,0,0,0,0,-1,1602,1009,0,0
385,15,0,0,0,0,0,0,0,0,0,-1,1609,1009,0,0
392,15,0,0,0,0,0,0,0,0,0,-1,1616,1009,0,0
399,15,0,0,0,0,0,0,0,0,0,-1,1623,1009,0,0
406,15,0,0,0,0,0,0,0,0,0,-1,1630,1009,0,0
413,15,0,0,0,0,0,0,0,0,0,-1,1637,1009,0,0
420,15,0,0,0,0,0,0,0,0,0,-1,1644,1009,0,0
427,15,0,0,0,0,0,0,0,0,0,-1,1651,1009,0,0
434,15,0,0,0,0,0,0,0,0,0,-1,1658,1009,0,0
441,15,0,0,0,0,0,0,0,0,0,-1,1665,1009,0,0
448,15,0,0,0,0,0,0,0,0,0,-1,1672,1009,0,0
455,15,0,0,0,0,0,0,0,0,0,-1,1679,1009,0,0
462,15,0,0,0,0,0,0,0,0,0,-1,1686,1009,0,0
469,15,0,0,0,0,0,0,0,0,0,-1,1693,1009,0,0
476,15,0,0,0,0,0,0,0,0,0,-1,1700,1009,0,0
483,15,0,0,0,0,0,0,0,0,0,-1,1707,1009,0,0
490,15,0,0,0,0,0,0,0,0,0,-1,1714,1009,0,0
497,15,0,0,0,0,0,0,0,0,0,-1,1721,1009,0,0
504,15,0,0,0,0,0,0,0,0,0,-1,1728,1009,0,0
511,15,0,0,0,0,0,0,0,0,0,-1,1735,1009,0,0
518,15,0,0,0,0,0,0,0,0,0,-1,1742,1009,0,0
525,15,0,0,0,0,0,0,0,0,0,-1,1749,1009,0,0
532,15,0,0,0,0,0,0,0,0,0,-1,1756,1009,0,0
539,15,0,0,0,0,0,0,0,0,0,-1,1763,1009,0,0
546,15,0,0,0,0,0,0,0,0,0,-1,1770,1009,0,0
553,15,0,0,0,0,0,0,0,0,0,-1,1777,1009,0,0
560,15,0,0,0,0,0,0,0,0,0,-1,1784,1009,0,0
567,15,0,0,0,0,0,0,0,0,0,-1,1791,1009,0,0
574,15,0,0,0,0,0,0,0,0,0,-1,1798,1009,0,0
581,15,0,0,0,0,0,0,0,0,0,-1,1805,1009,0,0
588,15,0,0,0,0,0,0,0,0,0,-1,1812,1009,0,0
595,15,0,0,0,0,0,0,0,0,0,-1,1819,1009,0,0
602,15,0,0,0,0,0,0,0,0,0,-1,1826,1009,0,0
609,15,0,0,0,0,0,0,0,0,0,-1,1833,1009,0,0
616,15,0,0,0,0,0,0,0,0,0,-1,1840,1009,0,0
623,15,0,0,0,0,0,0,0,0,0,-1,1847,1009,0,0
630,15,0,0,0,0,0,0,0,0,0,-1,1854,1009,0,0
637,15,0,0,0,0,0,0,0,0,0,-1,1861,1009,0,0
644,15,82.2405,1.95703,-0.00155324,0.000160308,0.000435124,0.000264468,-0.0016574,1.33584,0.00120282,0.0435258,1868,1009,82.2405,-1.95701
651,15,82.215,2.13885,-0.00196861,-0.000289836,-5.31849e-05,-0.000288152,-0.00197029,-1.53916,0.00122879,0.0415651,1875,1009,82.2149,-2.13883
658,15,82.1752,2.14459,-0.0016185,-0.000623859,-0.000231548,-0.000572598,-0.00166976,-1.35292,0.000979764,0.0396945,1882,1009,82.1752,-2.14458
665,15,82.1422,2.24353,-0.00113714,-0.00072047,-0.000156258,-0.000668382,-0.00118923,-1.24903,0.000688359,0.0387344,1889,1009,82.1422,-2.24351
672,15,82.0573,2.38788,-0.000574302,-0.000667246,8.92533e-05,-0.000520147,-0.000721401,0.545374,0.000429852,0.0380426,1896,1009,82.0572,-2.38785
679,15,82.0989,2.17133,7.7197e-05,-0.000626888,0.000460168,0.000304541,-0.000854232,0.458872,0.000693656,0.0400506,1903,1009,82.0988,-2.1713
686,15,82.1409,2.1814,0.000461056,-0.000790973,0.000809448,0.000858321,-0.00118824,0.456248,0.00118669,0.0449965,1910,1009,82.1409,-2.1814
693,15,82.0875,2.16309,0.000633151,-0.000871364,0.00104077,0.00116507,-0.00140328,0.47247,0.00148496,0.039726,1917,1009,82.0875,-2.16312
700,15,82.1459,2.18878,0.000511747,-0.000908357,0.00105947,0.0010771,-0.00147371,0.490178,0.00147863,0.0311742,1924,1009,82.1459,-2.18878
707,15,82.1738,2.31293,-0.000389692,-0.000140099,0.000827517,0.000571979,-0.00110177,0.860238,0.000982343,0.0291234,1931,1009,82.1738,-2.3129
714,15,82.1539,2.45319,-0.0016965,0.00118392,0.00058559,0.00129842,-0.001811,1.3777,0.00180333,0.0364909,1938,1009,82.1539,-2.45318
721,15,82.0255,2.58331,0,0,0,0,0,0,0,-1,1945,1009,82.0255,-2.5833
728,15,82.4425,7.55322,0,0,0,0,0,0,0,-1,1952,1009,82.4425,-7.55321
735,15,82.3679,7.76184,0,0,0,0,0,0,0,-1,1959,1009,82.3679,-7.76183
742,15,82.5723,7.85358,0,0,0,0,0,0,0,-1,1966,1009,82.5723,-7.85355
749,15,82.4248,8.08307,-0.0113721,0.0126203,-0.0009617,0.0126588,-0.0114106,-1.5308,0.0139027,0.0325243,1973,1009,82.4248,-8.08306
756,15,82.4055,7.97992,-0.01347,0.016649,-0.00201602,0.0167834,-0.0136044,-1.50426,0.0175763,0.0217822,1980,1009,82.4055,-7.97989
763,15,82.2888,8.15906,-0.014937,0.0218932,-0.00413235,0.0223512,-0.0153949,-1.46042,0.0219157,0.016187,1987,1009,82.2888,-8.15908
770,15,82.0769,8.18634,-0.0157846,0.0290273,-0.0068318,0.0300457,-0.016803,-1.42282,0.0274059,0.0228257,1994,1009,82.0768,-8.18635
777,15,81.594,8.258,-0.0154108,0.0375209,-0.0109317,0.0396897,-0.0175796,-1.37494,0.0338759,0.0484598,2001,1009,81.594,-8.25798
784,15,81.1738,8.37354,0,0,0,0,0,0,0,-1,2008,1009,81.1739,-8.37356
791,15,77.2153,5.6933,0,0,0,0,0,0,0,-1,2015,1009,77.2154,-5.69328
798,15,76.228,7.3385,0,0,0,0,0,0,0,-1,2022,1009,76.228,-7.33848
805,15,76.9458,7.88257,0,0,0,0,0,0,0,-1,2029,1009,76.9457,-7.88254
812,15,76.5835,8.25714,0,0,0,0,0,0,0,-1,2036,1009,76.5836,-8.25712
-700,8,0,0,0,0,0,0,0,0,0,-1,524,1016,0,0
-693,8,-64.7491,0.138306,0,0,0,0,0,0,0,-1,531,1016,-64.7491,-0.138334
-686,8,-64.2523,3.81439,0,0,0,0,0,0,0,-1,538,1016,-64.2524,-3.81441
-679,8,-63.5828,7.08685,0,0,0,0,0,0,0,-1,545,1016,-63.5828,-7.08684
-672,8,-63.5015,5.07123,0,0,0,0,0,0,0,-1,552,1016,-63.5015,-5.07124
-665,8,-67.5996,6.2381,0,0,0,0,0,0,0,-1,559,1016,-67.5996,-6.23807
-658,8,-67.093,6.67358,0,0,0,0,0,0,0,-1,566,1016,-67.093,-6.67358
-651,8,-66.0091,7.37134,0,0,0,0,0,0,0,-1,573,1016,-66.0091,-7.37133
-644,8,-66.187,7.27594,0,0,0,0,0,0,0,-1,580,1016,-66.187,-7.27593
-637,8,-66.2455,7.46875,-0.00388462,0.0367163,0.011719,0.039856,-0.00702438,1.30902,0.0291952,0.0477487,587,1016,-66.2455,-7.46874
-630,8,-66.5776,7.63885,-0.00827535,0.0236203,0.00476962,0.0243183,-0.00897331,1.42549,0.0198899,0.0301962,594,1016,-66.5776,-7.63886
-623,8,-66.5372,7.66162,-0.00840246,0.0151373,0.00319093,0.0155622,-0.00882734,1.43842,0.0142591,0.0185877,601,1016,-66.5372,-7.66159
-616,8,-66.5815,7.58942,-0.00668866,0.0104901,0.00167327,0.0106515,-0.00685012,1.4746,0.0101837,0.0213587,608,1016,-66.5815,-7.58942
-609,8,-66.7151,7.48083,-0.00520481,0.00743007,0.000341623,0.0074393,-0.00521404,1.54378,0.00734296,0.0247554,615,1016,-66.7151,-7.48082
-602,8,-66.6207,7.50665,-0.00406376,0.00505691,-0.000487351,0.00508287,-0.00408973,-1.51756,0.00530614,0.0292337,622,1016,-66.6207,-7.50668
-595,8,-66.6784,7.39288,0,0,0,0,0,0,0,-1,629,1016,-66.6784,-7.39288
-588,8,-65.1998,0.541382,0,0,0,0,0,0,0,-1,636,1016,-65.1997,-0.541355
-581,8,-65.3117,0.604065,-0.00186851,0.00162936,-0.00119645,0.00199945,-0.0022386,-1.27081,0.00244814,0.0326325,643,1016,-65.3117,-0.604081
-574,8,-65.3287,0.65802,-0.00137066,0.00105978,-0.0012456,0.00158476,-0.00189564,-1.17192,0.00201208,0.0370679,650,1016,-65.3287,-0.65799
-567,8,-65.2403,0.491272,-0.00122399,0.0010699,-0.000950804,0.00141276,-0.00156685,-1.22471,0.00172104,0.0374813,657,1016,-65.2403,-0.491247
-560,8,-65.2827,0.496582,-0.00125789,0.00127205,-0.00033565,0.00131582,-0.00130167,-1.44111,0.00151121,0.0387055,664,1016,-65.2827,-0.496601
-553,8,-65.3418,0.556824,-0.00169429,0.001216,0.000662058,0.00135953,-0.00183783,1.3573,0.00185287,0.0406478,671,1016,-65.3418,-0.556817
-546,8,-65.4224,0.657837,-0.00268342,0.000101512,0.00213723,0.00125987,-0.00384178,1.07412,0.0030686,0.0399174,678,1016,-65.4223,-0.657857
-539,8,-65.2748,0.893494,-0.00477108,-0.00237658,0.0039215,0.000526359,-0.00767402,0.933556,0.00530018,0.042005,685,1016,-65.2748,-0.893474
-532,8,-65.2415,0.914185,-0.00667938,-0.00511508,0.00553775,-0.000304511,-0.0114899,0.855554,0.0075605,0.0422504,692,1016,-65.2415,-0.914207
-525,8,0,0,0,0,0,0,0,0,0,-1,699,1016,0,0
-518,8,0,0,0,0,0,0,0,0,0,-1,706,1016,0,0
-511,8,0,0,0,0,0,0,0,0,0,-1,713,1016,0,0
-504,8,0,0,0,0,0,0,0,0,0,-1,720,1016,0,0
-497,8,0,0,0,0,0,0,0,0,0,-1,727,1016,0,0
-490,8,0,0,0,0,0,0,0,0,0,-1,734,1016,0,0
-483,8,0,0,0,0,0,0,0,0,0,-1,741,1016,0,0
-476,8,0,0,0,0,0,0,0,0,0,-1,748,1016,0,0
-469,8,0,0,0,0,0,0,0,0,0,-1,755,1016,0,0
-462,8,0,0,0,0,0,0,0,0,0,-1,762,1016,0,0
-455,8,0,0,0,0,0,0,0,0,0,-1,769,1016,0,0
-448,8,0,0,0,0,0,0,0,0,0,-1,776,1016,0,0
-441,8,0,0,0,0,0,0,0,0,0,-1,783,1016,0,0
-434,8,0,0,0,0,0,0,0,0,0,-1,790,1016,0,0
-427,8,0,0,0,0,0,0,0,0,0,-1,797,1016,0,0
-420,8,0,0,0,0,0,0,0,0,0,-1,804,1016,0,0
-413,8,0,0,0,0,0,0,0,0,0,-1,811,1016,0,0
-406,8,0,0,0,0,0,0,0,0,0,-1,818,1016,0,0
-399,8,0,0,0,0,0,0,0,0,0,-1,825,1016,0,0
-392,8,0,0,0,0,0,0,0,0,0,-1,832,1016,0,0
-385,8,0,0,0,0,0,0,0,0,0,-1,839,1016,0,0
-378,8,0,0,0,0,0,0,0,0,0,-1,846,1016,0,0
-371,8,0,0,0,0,0,0,0,0,0,-1,853,1016,0,0
-364,8,0,0,0,0,0,0,0,0,0,-1,860,1016,0,0
-357,8,0,0,0,0,0,0,0,0,0,-1,867,1016,0,0
-350,8,0,0,0,0,0,0,0,0,0,-1,874,1016,0,0
-343,8,0,0,0,0,0,0,0,0,0,-1,881,1016,0,0
-336,8,0,0,0,0,0,0,0,0,0,-1,888,1016,0,0
-329,8,0,0,0,0,0,0,0,0,0,-1,895,1016,0,0
-322,8,0,0,0,0,0,0,0,0,0,-1,902,1016,0,0
-315,8,0,0,0,0,0,0,0,0,0,-1,909,1016,0,0
-308,8,0,0,0,0,0,0,0,0,0,-1,916,1016,0,0
-301,8,0,0,0,0,0,0,0,0,0,-1,923,1016,0,0
-294,8,0,0,0,0,0,0,0,0,0,-1,930,1016,0,0
-287,8,0,0,0,0,0,0,0,0,0,-1,937,1016,0,0
-280,8,0,0,0,0,0,0,0,0,0,-1,944,1016,0,0
-273,8,0,0,0,0,0,0,0,0,0,-1,951,1016,0,0
-266,8,0,0,0,0,0,0,0,0,0,-1,958,1016,0,0
-259,8,0,0,0,0,0,0,0,0,0,-1,965,1016,0,0
-252,8,0,0,0,0,0,0,0,0,0,-1,972,1016,0,0
-245,8,0,0,0,0,0,0,0,0,0,-1,979,1016,0,0
-238,8,0,0,0,0,0,0,0,0,0,-1,986,1016,0,0
-231,8,0,0,0,0,0,0,0,0,0,-1,993,1016,0,0
-224,8,0,0,0,0,0,0,0,0,0,-1,1000,1016,0,0
-217,8,0,0,0,0,0,0,0,0,0,-1,1007,1016,0,0
-210,8,0,0,0,0,0,0,0,0,0,-1,1014,1016,0,0
-203,8,0,0,0,0,0,0,0,0,0,-1,1021,1016,0,0
-196,8,0,0,0,0,0,0,0,0,0,-1,1028,1016,0,0
-189,8,0,0,0,0,0,0,0,0,0,-1,1035,1016,0,0
-182,8,0,0,0,0,0,0,0,0,0,-1,1042,1016,0,0
-175,8,0,0,0,0,0,0,0,0,0,-1,1049,1016,0,0
-168,8,0,0,0,0,0,0,0,0,0,-1,1056,1016,0,0
-161,8,0,0,0,0,0,0,0,0,0,-1,1063,1016,0,0
-154,8,0,0,0,0,0,0,0,0,0,-1,1070,1016,0,0
-147,8,0,0,0,0,0,0,0,0,0,-1,1077,1016,0,0
-140,8,0,0,0,0,0,0,0,0,0,-1,1084,1016,0,0
-133,8,0,0,0,0,0,0,0,0,0,-1,1091,1016,0,0
-126,8,0,0,0,0,0,0,0,0,0,-1,1098,1016,0,0
-119,8,0,0,0,0,0,0,0,0,0,-1,1105,1016,0,0
-112,8,0,0,0,0,0,0,0,0,0,-1,1112,1016,0,0
-105,8,0,0,0,0,0,0,0,0,0,-1,1119,1016,0,0
-98,8,0,0,0,0,0,0,0,0,0,-1,1126,1016,0,0
-91,8,0,0,0,0,0,0,0,0,0,-1,1133,1016,0,0
-84,8,0,0,0,0,0,0,0,0,0,-1,1140,1016,0,0
-77,8,0,0,0,0,0,0,0,0,0,-1,1147,1016,0,0
-70,8,0,0,0,0,0,0,0,0,0,-1,1154,1016,0,0
-63,8,0,0,0,0,0,0,0,0,0,-1,1161,1016,0,0
-56,8,0,0,0,0,0,0,0,0,0,-1,1168,1016,0,0
-49,8,0,0,0,0,0,0,0,0,0,-1,1175,1016,0,0
-42,8,0,0,0,0,0,0,0,0,0,-1,1182,1016,0,0
-35,8,0,0,0,0,0,0,0,0,0,-1,1189,1016,0,0
-28,8,0,0,0,0,0,0,0,0,0,-1,1196,1016,0,0
-21,8,0,0,0,0,0,0,0,0,0,-1,1203,1016,0,0
-14,8,0,0,0,0,0,0,0,0,0,-1,1210,1016,0,0
-7,8,0,0,0,0,0,0,0,0,0,-1,1217,1016,0,0
0,8,0,0,0,0,0,0,0,0,0,-1,1224,1016,0,0
7,8,0,0,0,0,0,0,0,0,0,-1,1231,1016,0,0
14,8,0,0,0,0,0,0,0,0,0,-1,1238,1016,0,0
21,8,0,0,0,0,0,0,0,0,0,-1,1245,1016,0,0
28,8,0,0,0,0,0,0,0,0,0,-1,1252,1016,0,0
35,8,0,0,0,0,0,0,0,0,0,-1,1259,1016,0,0
42,8,0,0,0,0,0,0,0,0,0,-1,1266,1016,0,0
49,8,0,0,0,0,0,0,0,0,0,-1,1273,1016,0,0
56,8,0,0,0,0,0,0,0,0,0,-1,1280,1016,0,0
63,8,0,0,0,0,0,0,0,0,0,-1,1287,1016,0,0
70,8,0,0,0,0,0,0,0,0,0,-1,1294,1016,0,0
77,8,0,0,0,0,0,0,0,0,0,-1,1301,1016,0,0
84,8,0,0,0,0,0,0,0,0,0,-1,1308,1016,0,0
91,8,0,0,0,0,0,0,0,0,0,-1,1315,1016,0,0
98,8,0,0,0,0,0,0,0,0,0,-1,1322,1016,0,0
105,8,0,0,0,0,0,0,0,0,0,-1,1329,1016,0,0
112,8,0,0,0,0,0,0,0,0,0,-1,1336,1016,0,0
119,8,0,0,0,0,0,0,0,0,0,-1,1343,1016,0,0
126,8,0,0,0,0,0,0,0,0,0,-1,1350,1016,0,0
133,8,0,0,0,0,0,0,0,0,0,-1,1357,1016,0,0
140,8,0,0,0,0,0,0,0,0,0,-1,1364,1016,0,0
147,8,0,0,0,0,0,0,0,0,0,-1,1371,1016,0,0
154,8,0,0,0,0,0,0,0,0,0,-1,1378,1016,0,0
161,8,0,0,0,0,0,0,0,0,0,-1,1385,1016,0,0
168,8,0,0,0,0,0,0,0,0,0,-1,1392,1016,0,0
175,8,0,0,0,0,0,0,0,0,0,-1,1399,1016,0,0
182,8,0,0,0,0,0,0,0,0,0,-1,1406,1016,0,0
189,8,0,0,0,0,0,0,0,0,0,-1,1413,1016,0,0
196,8,0,0,0,0,0,0,0,0,0,-1,1420,1016,0,0
203,8,0,0,0,0,0,0,0,0,0,-1,1427,1016,0,0
210,8,0,0,0,0,0,0,0,0,0,-1,1434,1016,0,0
217,8,0,0,0,0,0,0,0,0,0,-1,1441,1016,0,0
224,8,0,0,0,0,0,0,0,0,0,-1,1448,1016,0,0
231,8,0,0,0,0,0,0,0,0,0,-1,1455,1016,0,0
238,8,0,0,0,0,0,0,0,0,0,-1,1462,1016,0,0
245,8,0,0,0,0,0,0,0,0,0,-1,1469,1016,0,0
252,8,0,0,0,0,0,0,0,0,0,-1,1476,1016,0,0
259,8,0,0,0,0,0,0,0,0,0,-1,1483,1016,0,0
266,8,0,0,0,0,0,0,0,0,0,-1,1490,1016,0,0
273,8,0,0,0,0,0,0,0,0,0,-1,1497,1016,0,0
280,8,0,0,0,0,0,0,0,0,0,-1,1504,1016,0,0
287,8,0,0,0,0,0,0,0,0,0,-1,1511,1016,0,0
294,8,0,0,0,0,0,0,0,0,0,-1,1518,1016,0,0
301,8,0,0,0,0,0,0,0,0,0,-1,1525,1016,0,0
308,8,0,0,0,0,0,0,0,0,0,-1,1532,1016,0,0
315,8,0,0,0,0,0,0,0,0,0,-1,1539,1016,0,0
322,8,0,0,0,0,0,0,0,0,0,-1,1546,1016,0,0
329,8,0,0,0,0,0,0,0,0,0,-1,1553,1016,0,0
336,8,0,0,0,0,0,0,0,0,0,-1,1560,1016,0,0
343,8,0,0,0,0,0,0,0,0,0,-1,1567,1016,0,0
350,8,0,0,0,0,0,0,0,0,0,-1,1574,1016,0,0
357,8,0,0,0,0,0,0,0,0,0,-1,1581,1016,0,0
364,8,0,0,0,0,0,0,0,0,0,-1,1588,1016,0,0
371,8,0,0,0,0,0,0,0,0,0,-1,1595,1016,0,0
378,8,0,0,0,0,0,0,0,0,0,-1,1602,1016,0,0
385,8,0,0,0,0,0,0,0,0,0,-1,1609,1016,0,0
392,8,0,0,0,0,0,0,0,0,0,-1,1616,1016,0,0
399,8,0,0,0,0,0,0,0,0,0,-1,1623,1016,0,0
406,8,0,0,0,0,0,0,0,0,0,-1,1630,1016,0,0
413,8,0,0,0,0,0,0,0,0,0,-1,1637,1016,0,0
420,8,0,0,0,0,0,0,0,0,0,-1,1644,1016,0,0
427,8,0,0,0,0,0,0,0,0,0,-1,1651,1016,0,0
434,8,0,0,0,0,0,0,0,0,0,-1,1658,1016,0,0
441,8,0,0,0,0,0,0,0,0,0,-1,1665,1016,0,0
448,8,0,0,0,0,0,0,0,0,0,-1,1672,1016,0,0
455,8,0,0,0,0,0,0,0,0,0,-1,1679,1016,0,0
462,8,0,0,0,0,0,0,0,0,0,-1,1686,1016,0,0
469,8,0,0,0,0,0,0,0,0,0,-1,1693,1016,0,0
476,8,0,0,0,0,0,0,0,0,0,-1,1700,1016,0,0
483,8,0,0,0,0,0,0,0,0,0,-1,1707,1016,0,0
490,8,0,0,0,0,0,0,0,0,0,-1,1714,1016,0,0
497,8,0,0,0,0,0,0,0,0,0,-1,1721,1016,0,0
504,8,0,0,0,0,0,0,0,0,0,-1,1728,1016,0,0
511,8,0,0,0,0,0,0,0,0,0,-1,1735,1016,0,0
518,8,0,0,0,0,0,0,0,0,0,-1,1742,1016,0,0
525,8,0,0,0,0,0,0,0,0,0,-1,1749,1016,0,0
532,8,0,0,0,0,0,0,0,0,0,-1,1756,1016,0,0
539,8,0,0,0,0,0,0,0,0,0,-1,1763,1016,0,0
546,8,0,0,0,0,0,0,0,0,0,-1,1770,1016,0,0
553,8,0,0,0,0,0,0,0,0,0,-1,1777,1016,0,0
560,8,0,0,0,0,0,0,0,0,0,-1,1784,1016,0,0
567,8,0,0,0,0,0,0,0,0,0,-1,1791,1016,0,0
574,8,0,0,0,0,0,0,0,0,0,-1,1798,1016,0,0
581,8,0,0,0,0,0,0,0,0,0,-1,1805,1016,0,0
588,8,0,0,0,0,0,0,0,0,0,-1,1812,1016,0,0
595,8,0,0,0,0,0,0,0,0,0,-1,1819,1016,0,0
602,8,0,0,0,0,0,0,0,0,0,-1,1826,1016,0,0
609,8,0,0,0,0,0,0,0,0,0,-1,1833,1016,0,0
616,8,0,0,0,0,0,0,0,0,0,-1,1840,1016,0,0
623,8,0,0,0,0,0,0,0,0,0,-1,1847,1016,0,0
630,8,0,0,0,0,0,0,0,0,0,-1,1854,1016,0,0
637,8,0,0,0,0,0,0,0,0,0,-1,1861,1016,0,0
644,8,82.2629,1.99933,-0.00248573,0.00100537,-4.60551e-05,0.00100598,-0.00248633,-1.55761,0.00207579,0.0443409,1868,1016,82.2629,-1.99934
651,8,82.1791,2.28491,-0.00254137,0.000183849,-0.000446578,0.000255163,-0.00261268,-1.41244,0.00183277,0.0396129,1875,1016,82.1791,-2.28489
658,8,81.9911,2.4281,-0.00197461,-0.000395812,-0.000564807,-0.000214563,-0.00215586,-1.26027,0.00137133,0.0391563,1882,1016,81.9911,-2.42808
665,8,81.9688,2.17377,-0.00138415,-0.000668398,-0.000424827,-0.000470799,-0.00158175,-1.13543,0.000937824,0.0422179,1889,1016,81.9688,-2.17376
672,8,82.0245,2.36652,-0.000770247,-0.000739278,-0.000104155,-0.000649463,-0.000860062,-0.859191,0.000517657,0.0389488,1896,1016,82.0245,-2.36649
679,8,82.1385,2.29077,0,0,0,0,0,0,0,-1,1903,1016,82.1386,-2.29076
686,8,82.0516,2.30701,0.00026517,-0.000896442,0.000744925,0.000628953,-0.00126023,0.454283,0.00111083,0.0430084,1910,1016,82.0517,-2.30701
693,8,82.0364,2.25446,0.000429934,-0.000942827,0.00105034,0.000998275,-0.00151117,0.495987,0.00145888,0.0388516,1917,1016,82.0364,-2.25445
700,8,82.1461,2.24176,0.000357996,-0.000953168,0.00115477,0.0010303,-0.00162547,0.527226,0.00154609,0.0292819,1924,1016,82.1461,-2.24175
707,8,82.1643,2.31732,-0.000569087,-0.000178382,0.000983745,0.00062922,-0.00137669,0.883413,0.00118461,0.0236087,1931,1016,82.1643,-2.31731
714,8,82.1555,2.31567,-0.00190261,0.00114591,0.000807331,0.00134651,-0.00210321,1.32725,0.00200761,0.0301059,1938,1016,82.1555,-2.31567
721,8,82.1401,2.36273,0,0,0,0,0,0,0,-1,1945,1016,82.1402,-2.36273
728,8,52.1681,5.36774,0,0,0,0,0,0,0,-1,1952,1016,52.168,-5.36773
735,8,82.4408,7.93134,0,0,0,0,0,0,0,-1,1959,1016,82.4408,-7.93136
742,8,81.3546,8.25195,0,0,0,0,0,0,0,-1,1966,1016,81.3546,-8.25195
749,8,82.6814,8.16248,0,0,0,0,0,0,0,-1,1973,1016,82.6815,-8.16248
756,8,82.5273,7.84357,-0.0134811,0.016074,-0.00149538,0.0161495,-0.0135566,-1.52037,0.0171726,0.0460142,1980,1016,82.5274,-7.84359
763,8,82.4104,7.95844,-0.0148558,0.0207637,-0.00365983,0.0211358,-0.015228,-1.46946,0.0210868,0.0179728,1987,1016,82.4104,-7.95845
770,8,82.2263,7.90741,-0.015571,0.0269588,-0.00652609,0.0279377,-0.0165498,-1.42191,0.0259639,0.0238392,1994,1016,82.2263,-7.90741
777,8,81.8313,7.96051,-0.0149836,0.0343646,-0.0110319,0.0367185,-0.0173375,-1.36058,0.0318709,0.0387789,2001,1016,81.8314,-7.96048
784,8,81.429,7.99878,0,0,0,0,0,0,0,-1,2008,1016,81.429,-7.99878
791,8,75.5461,6.04517,0,0,0,0,0,0,0,-1,2015,1016,75.5462,-6.04517
798,8,77.8828,7.07562,0,0,0,0,0,0,0,-1,2022,1016,77.8828,-7.07562
805,8,77.8403,6.89795,0.00030077,0.0721111,-0.049771,0.0975764,-0.0251645,-1.09787,0.0748625,0.0468023,2029,1016,77.8404,-6.89794
812,8,77.835,7.00372,0.00760093,0.0869297,-0.0680656,0.126045,-0.0315141,-1.04921,0.0962695,0.0448406,2036,1016,77.835,-7.00375
-700,1,0,0,0,0,0,0,0,0,0,-1,524,1023,0,0
-693,1,-64.7999,0.317383,0,0,0,0,0,0,0,-1,531,1023,-64.7999,-0.317397
-686,1,-64.6177,2.70496,0.0536611,0.137919,0.106848,0.210644,-0.0190638,0.973185,0.147196,0.0467127,538,1023,-64.6177,-2.70493
-679,1,-64.7328,5.33777,0,0,0,0,0,0,0,-1,545,1023,-64.7328,-5.33775
-672,1,-67.6211,6.46521,0,0,0,0,0,0,0,-1,552,1023,-67.6211,-6.46518
-665,1,-66.9445,6.54993,0,0,0,0,0,0,0,-1,559,1023,-66.9445,-6.54995
-658,1,-66.4612,6.88458,0,0,0,0,0,0,0,-1,566,1023,-66.4612,-6.88459
-651,1,-66.2375,7.28052,0,0,0,0,0,0,0,-1,573,1023,-66.2375,-7.28049
-644,1,-66.0825,7.63812,0,0,0,0,0,0,0,-1,580,1023,-66.0825,-7.63815
-637,1,-66.2831,7.46942,-0.00355287,0.0359874,0.0134666,0.0401381,-0.00770357,1.27181,0.0296619,0.0457133,587,1023,-66.2831,-7.4694
-630,1,-66.6464,7.50812,-0.00757845,0.0233754,0.00530976,0.0242609,-0.00846394,1.40555,0.0196138,0.0413687,594,1023,-66.6464,-7.50815
-623,1,-66.5126,7.55609,-0.00752003,0.0152152,0.00324017,0.015668,-0.00797279,1.43196,0.0138879,0.0197349,601,1023,-66.5126,-7.5561
-616,1,-66.693,7.42133,-0.0059651,0.0104668,0.00143216,0.0105907,-0.00608899,1.48451,0.0097462,0.0270725,608,1023,-66.693,-7.42135
-609,1,-66.72,7.45923,-0.00462841,0.00727136,-0.000128448,0.00727274,-0.00462979,-1.56,0.00692817,0.029477,615,1023,-66.72,-7.45923
-602,1,-66.4921,7.61102,-0.00358804,0.00466458,-0.00103367,0.00479208,-0.00371554,-1.44807,0.00492497,0.019851,622,1023,-66.4921,-7.61103
-595,1,-66.6019,7.60205,0,0,0,0,0,0,0,-1,629,1023,-66.6019,-7.60207
-588,1,-65.2446,0.468689,0,0,0,0,0,0,0,-1,636,1023,-65.2446,-0.468674
-581,1,-65.319,0.49646,-0.00147581,0.00126125,-0.00148051,0.00190886,-0.00212341,-1.15845,0.00232913,0.0310935,643,1023,-65.319,-0.496488
-574,1,-65.259,0.525574,-0.00103107,0.000760513,-0.00138331,0.00151275,-0.0017833,-1.07273,0.00190511,0.0368431,650,1023,-65.2589,-0.525554
-567,1,-65.1669,0.228271,-0.000952113,0.000850351,-0.000945697,0.00125547,-0.00135724,-1.16606,0.00150883,0.0424699,657,1023,-65.1669,-0.228285
-560,1,-65.179,-0.0731812,-0.00110155,0.00117029,-0.000167962,0.00118264,-0.0011139,-1.4974,0.00132611,0.0437778,664,1023,-65.1789,0.0731821
-553,1,-65.3419,0.354065,-0.0017347,0.00128653,0.00100986,0.00159299,-0.00204116,1.27616,0.00210349,0.0393259,671,1023,-65.3419,-0.354068
-546,1,-65.3525,0.709595,-0.00300382,0.000414465,0.00266574,0.00187192,-0.00446128,1.07046,0.00375697,0.0401912,678,1023,-65.3525,-0.709603
-539,1,-65.2242,0.774231,-0.0054345,-0.00172746,0.00455112,0.00133311,-0.00849507,0.978776,0.00615605,0.0431384,685,1023,-65.2242,-0.77426
-532,1,-65.2598,0.898621,-0.00787193,-0.00408424,0.00619346,0.000498455,-0.0124546,0.933774,0.00847412,0.0425693,692,1023,-65.2598,-0.898603
-525,1,0,0,0,0,0,0,0,0,0,-1,699,1023,0,0
-518,1,0,0,0,0,0,0,0,0,0,-1,706,1023,0,0
-511,1,0,0,0,0,0,0,0,0,0,-1,713,1023,0,0
-504,1,0,0,0,0,0,0,0,0,0,-1,720,1023,0,0
-497,1,0,0,0,0,0,0,0,0,0,-1,727,1023,0,0
-490,1,0,0,0,0,0,0,0,0,0,-1,734,1023,0,0
-483,1,0,0,0,0,0,0,0,0,0,-1,741,1023,0,0
-476,1,0,0,0,0,0,0,0,0,0,-1,748,1023,0,0
-469,1,0,0,0,0,0,0,0,0,0,-1,755,1023,0,0
-462,1,0,0,0,0,0,0,0,0,0,-1,762,1023,0,0
-455,1,0,0,0,0,0,0,0,0,0,-1,769,1023,0,0
-448,1,0,0,0,0,0,0,0,0,0,-1,776,1023,0,0
-441,1,0,0,0,0,0,0,0,0,0,-1,783,1023,0,0
-434,1,0,0,0,0,0,0,0,0,0,-1,790,1023,0,0
-427,1,0,0,0,0,0,0,0,0,0,-1,797,1023,0,0
-420,1,0,0,0,0,0,0,0,0,0,-1,804,1023,0,0
-413,1,0,0,0,0,0,0,0,0,0,-1,811,1023,0,0
-406,1,0,0,0,0,0,0,0,0,0,-1,818,1023,0,0
-399,1,0,0,0,0,0,0,0,0,0,-1,825,1023,0,0
-392,1,0,0,0,0,0,0,0,0,0,-1,832,1023,0,0
-385,1,0,0,0,0,0,0,0,0,0,-1,839,1023,0,0
-378,1,0,0,0,0,0,0,0,0,0,-1,846,1023,0,0
-371,1,0,0,0,0,0,0,0,0,0,-1,853,1023,0,0
-364,1,0,0,0,0,0,0,0,0,0,-1,860,1023,0,0
-357,1,0,0,0,0,0,0,0,0,0,-1,867,1023,0,0
-350,1,0,0,0,0,0,0,0,0,0,-1,874,1023,0,0
-343,1,0,0,0,0,0,0,0,0,0,-1,881,1023,0,0
-336,1,0,0,0,0,0,0,0,0,0,-1,888,1023,0,0
-329,1,0,0,0,0,0,0,0,0,0,-1,895,1023,0,0
-322,1,0,0,0,0,0,0,0,0,0,-1,902,1023,0,0
-315,1,0,0,0,0,0,0,0,0,0,-1,909,1023,0,0
-308,1,0,0,0,0,0,0,0,0,0,-1,916,1023,0,0
-301,1,0,0,0,0,0,0,0,0,0,-1,923,1023,0,0
-294,1,0,0,0,0,0,0,0,0,0,-1,930,1023,0,0
-287,1,0,0,0,0,0,0,0,0,0,-1,937,1023,0,0
-280,1,0,0,0,0,0,0,0,0,0,-1,944,1023,0,0
-273,1,0,0,0,0,0,0,0,0,0,-1,951,1023,0,0
-266,1,0,0,0,0,0,0,0,0,0,-1,958,1023,0,0
-259,1,0,0,0,0,0,0,0,0,0,-1,965,1023,0,0
-252,1,0,0,0,0,0,0,0,0,0,-1,972,1023,0,0
-245,1,0,0,0,0,0,0,0,0,0,-1,979,1023,0,0
-238,1,0,0,0,0,0,0,0,0,0,-1,986,1023,0,0
-231,1,0,0,0,0,0,0,0,0,0,-1,993,1023,0,0
-224,1,0,0,0,0,0,0,0,0,0,-1,1000,1023,0,0
-217,1,0,0,0,0,0,0,0,0,0,-1,1007,1023,0,0
-210,1,0,0,0,0,0,0,0,0,0,-1,1014,1023,0,0
-203,1,0,0,0,0,0,0,0,0,0,-1,1021,1023,0,0
-196,1,0,0,0,0,0,0,0,0,0,-1,1028,1023,0,0
-189,1,0,0,0,0,0,0,0,0,0,-1,1035,1023,0,0
-182,1,0,0,0,0,0,0,0,0,0,-1,1042,1023,0,0
-175,1,0,0,0,0,0,0,0,0,0,-1,1049,1023,0,0
-168,1,0,0,0,0,0,0,0,0,0,-1,1056,1023,0,0
-161,1,0,0,0,0,0,0,0,0,0,-1,1063,1023,0,0
-154,1,0,0,0,0,0,0,0,0,0,-1,1070,1023,0,0
-147,1,0,0,0,0,0,0,0,0,0,-1,1077,1023,0,0
-140,1,0,0,0,0,0,0,0,0,0,-1,1084,1023,0,0
-133,1,0,0,0,0,0,0,0,0,0,-1,1091,1023,0,0
-126,1,0,0,0,0,0,0,0,0,0,-1,1098,1023,0,0
-119,1,0,0,0,0,0,0,0,0,0,-1,1105,1023,0,0
-112,1,0,0,0,0,0,0,0,0,0,-1,1112,1023,0,0
-105,1,0,0,0,0,0,0,0,0,0,-1,1119,1023,0,0
-98,1,0,0,0,0,0,0,0,0,0,-1,1126,1023,0,0
-91,1,0,0,0,0,0,0,0,0,0,-1,1133,1023,0,0
-84,1,0,0,0,0,0,0,0,0,0,-1,1140,1023,0,0
-77,1,0,0,0,0,0,0,0,0,0,-1,1147,1023,0,0
-70,1,0,0,0,0,0,0,0,0,0,-1,1154,1023,0,0
-63,1,0,0,0,0,0,0,0,0,0,-1,1161,1023,0,0
-56,1,0,0,0,0,0,0,0,0,0,-1,1168,1023,0,0
-49,1,0,0,0,0,0,0,0,0,0,-1,1175,1023,0,0
-42,1,0,0,0,0,0,0,0,0,0,-1,1182,1023,0,0
-35,1,0,0,0,0,0,0,0,0,0,-1,1189,1023,0,0
-28,1,0,0,0,0,0,0,0,0,0,-1,1196,1023,0,0
-21,1,0,0,0,0,0,0,0,0,0,-1,1203,1023,0,0
-14,1,0,0,0,0,0,0,0,0,0,-1,1210,1023,0,0
-7,1,0,0,0,0,0,0,0,0,0,-1,1217,1023,0,0
0,1,0,0,0,0,0,0,0,0,0,-1,1224,1023,0,0
7,1,0,0,0,0,0,0,0,0,0,-1,1231,1023,0,0
14,1,0,0,0,0,0,0,0,0,0,-1,1238,1023,0,0
21,1,0,0,0,0,0,0,0,0,0,-1,1245,1023,0,0
28,1,0,0,0,0,0,0,0,0,0,-1,1252,1023,0,0
35,1,0,0,0,0,0,0,0,0,0,-1,1259,1023,0,0
42,1,0,0,0,0,0,0,0,0,0,-1,1266,1023,0,0
49,1,0,0,0,0,0,0,0,0,0,-1,1273,1023,0,0
56,1,0,0,0,0,0,0,0,0,0,-1,1280,1023,0,0
63,1,0,0,0,0,0,0,0,0,0,-1,1287,1023,0,0
70,1,0,0,0,0,0,0,0,0,0,-1,1294,1023,0,0
77,1,0,0,0,0,0,0,0,0,0,-1,1301,1023,0,0
84,1,0,0,0,0,0,0,0,0,0,-1,1308,1023,0,0
91,1,0,0,0,0,0,0,0,0,0,-1,1315,1023,0,0
98,1,0,0,0,0,0,0,0,0,0,-1,1322,1023,0,0
105,1,0,0,0,0,0,0,0,0,0,-1,1329,1023,0,0
112,1,0,0,0,0,0,0,0,0,0,-1,1336,1023,0,0
119,1,0,0,0,0,0,0,0,0,0,-1,1343,1023,0,0
126,1,0,0,0,0,0,0,0,0,0,-1,1350,1023,0,0
133,1,0,0,0,0,0,0,0,0,0,-1,1357,1023,0,0
140,1,0,0,0,0,0,0,0,0,0,-1,1364,1023,0,0
147,1,0,0,0,0,0,0,0,0,0,-1,1371,1023,0,0
154,1,0,0,0,0,0,0,0,0,0,-1,1378,1023,0,0
161,1,0,0,0,0,0,0,0,0,0,-1,1385,1023,0,0
168,1,0,0,0,0,0,0,0,0,0,-1,1392,1023,0,0
175,1,0,0,0,0,0,0,0,0,0,-1,1399,1023,0,0
182,1,0,0,0,0,0,0,0,0,0,-1,1406,1023,0,0
189,1,0,0,0,0,0,0,0,0,0,-1,1413,1023,0,0
196,1,0,0,0,0,0,0,0,0,0,-1,1420,1023,0,0
203,1,0,0,0,0,0,0,0,0,0,-1,1427,1023,0,0
210,1,0,0,0,0,0,0,0,0,0,-1,1434,1023,0,0
217,1,0,0,0,0,0,0,0,0,0,-1,1441,1023,0,0
224,1,0,0,0,0,0,0,0,0,0,-1,1448,1023,0,0
231,1,0,0,0,0,0,0,0,0,0,-1,1455,1023,0,0
238,1,0,0,0,0,0,0,0,0,0,-1,1462,1023,0,0
245,1,0,0,0,0,0,0,0,0,0,-1,1469,1023,0,0
252,1,0,0,0,0,0,0,0,0,0,-1,1476,1023,0,0
259,1,0,0,0,0,0,0,0,0,0,-1,1483,1023,0,0
266,1,0,0,0,0,0,0,0,0,0,-1,1490,1023,0,0
273,1,0,0,0,0,0,0,0,0,0,-1,1497,1023,0,0
280,1,0,0,0,0,0,0,0,0,0,-1,1504,1023,0,0
287,1,0,0,0,0,0,0,0,0,0,-1,1511,1023,0,0
294,1,0,0,0,0,0,0,0,0,0,-1,1518,1023,0,0
301,1,0,0,0,0,0,0,0,0,0,-1,1525,1023,0,0
308,1,0,0,0,0,0,0,0,0,0,-1,1532,1023,0,0
315,1,0,0,0,0,0,0,0,0,0,-1,1539,1023,0,0
322,1,0,0,0,0,0,0,0,0,0,-1,1546,1023,0,0
329,1,0,0,0,0,0,0,0,0,0,-1,1553,1023,0,0
336,1,0,0,0,0,0,0,0,0,0,-1,1560,1023,0,0
343,1,0,0,0,0,0,0,0,0,0,-1,1567,1023,0,0
350,1,0,0,0,0,0,0,0,0,0,-1,1574,1023,0,0
357,1,0,0,0,0,0,0,0,0,0,-1,1581,1023,0,0
364,1,0,0,0,0,0,0,0,0,0,-1,1588,1023,0,0
371,1,0,0,0,0,0,0,0,0,0,-1,1595,1023,0,0
378,1,0,0,0,0,0,0,0,0,0,-1,1602,1023,0,0
385,1,0,0,0,0,0,0,0,0,0,-1,1609,1023,0,0
392,1,0,0,0,0,0,0,0,0,0,-1,1616,1023,0,0
399,1,0,0,0,0,0,0,0,0,0,-1,1623,1023,0,0
406,1,0,0,0,0,0,0,0,0,0,-1,1630,1023,0,0
413,1,0,0,0,0,0,0,0,0,0,-1,1637,1023,0,0
420,1,0,0,0,0,0,0,0,0,0,-1,1644,1023,0,0
427,1,0,0,0,0,0,0,0,0,0,-1,1651,1023,0,0
434,1,0,0,0,0,0,0,0,0,0,-1,1658,1023,0,0
441,1,0,0,0,0,0,0,0,0,0,-1,1665,1023,0,0
448,1,0,0,0,0,0,0,0,0,0,-1,1672,1023,0,0
455,1,0,0,0,0,0,0,0,0,0,-1,1679,1023,0,0
462,1,0,0,0,0,0,0,0,0,0,-1,1686,1023,0,0
469,1,0,0,0,0,0,0,0,0,0,-1,1693,1023,0,0
476,1,0,0,0,0,0,0,0,0,0,-1,1700,1023,0,0
483,1,0,0,0,0,0,0,0,0,0,-1,1707,1023,0,0
490,1,0,0,0,0,0,0,0,0,0,-1,1714,1023,0,0
497,1,0,0,0,0,0,0,0,0,0,-1,1721,1023,0,0
504,1,0,0,0,0,0,0,0,0,0,-1,1728,1023,0,0
511,1,0,0,0,0,0,0,0,0,0,-1,1735,1023,0,0
518,1,0,0,0,0,0,0,0,0,0,-1,1742,1023,0,0
525,1,0,0,0,0,0,0,0,0,0,-1,1749,1023,0,0
532,1,0,0,0,0,0,0,0,0,0,-1,1756,1023,0,0
539,1,0,0,0,0,0,0,0,0,0,-1,1763,1023,0,0
546,1,0,0,0,0,0,0,0,0,0,-1,1770,1023,0,0
553,1,0,0,0,0,0,0,0,0,0,-1,1777,1023,0,0
560,1,0,0,0,0,0,0,0,0,0,-1,1784,1023,0,0
567,1,0,0,0,0,0,0,0,0,0,-1,1791,1023,0,0
574,1,0,0,0,0,0,0,0,0,0,-1,1798,1023,0,0
581,1,0,0,0,0,0,0,0,0,0,-1,1805,1023,0,0
588,1,0,0,0,0,0,0,0,0,0,-1,1812,1023,0,0
595,1,0,0,0,0,0,0,0,0,0,-1,1819,1023,0,0
602,1,0,0,0,0,0,0,0,0,0,-1,1826,1023,0,0
609,1,0,0,0,0,0,0,0,0,0,-1,1833,1023,0,0
616,1,0,0,0,0,0,0,0,0,0,-1,1840,1023,0,0
623,1,0,0,0,0,0,0,0,0,0,-1,1847,1023,0,0
630,1,0,0,0,0,0,0,0,0,0,-1,1854,1023,0,0
637,1,0,0,0,0,0,0,0,0,0,-1,1861,1023,0,0
644,1,0,0,0,0,0,0,0,0,0,-1,1868,1023,0,0
651,1,82.1787,2.41333,-0.00306001,0.00032459,-0.000760806,0.000487743,-0.00322316,-1.35955,0.00232845,0.0391936,1875,1023,82.1787,-2.41335
658,1,81.9972,2.59369,-0.00228122,-0.000407705,-0.000830445,-9.26028e-05,-0.00259633,-1.20814,0.00170086,0.0415124,1882,1023,81.9972,-2.5937
665,1,81.9775,2.6012,-0.0015842,-0.000773036,-0.000650234,-0.000412263,-0.00194497,-1.06425,0.00118341,0.0451756,1889,1023,81.9776,-2.60121
672,1,82.2426,2.37238,-0.000938813,-0.000902304,-0.000281661,-0.000638306,-0.00120281,-0.817758,0.000694879,0.0424284,1896,1023,82.2426,-2.37235
679,1,82.358,1.62817,0,0,0,0,0,0,0,-1,1903,1023,82.3581,-1.62816
686,1,82.0925,2.00891,-3.49443e-05,-0.00106627,0.000680679,0.000303345,-0.00140455,0.461235,0.00105216,0.0416223,1910,1023,82.0926,-2.00891
693,1,82.0043,2.26959,5.20226e-05,-0.00110274,0.00105969,0.000681419,-0.00173214,0.535954,0.00143681,0.039044,1917,1023,82.0043,-2.2696
700,1,82.1289,2.31201,-2.09764e-05,-0.00110419,0.00125899,0.000807965,-0.00193313,0.582269,0.00162641,0.0306428,1924,1023,82.1289,-2.31199
707,1,82.1487,2.31512,-0.000952046,-0.00035575,0.00117647,0.000559763,-0.00186756,0.909498,0.00146765,0.023683,1931,1023,82.1487,-2.31515
714,1,82.1285,2.27991,-0.00227924,0.000933579,0.00107652,0.00126093,-0.00260659,1.2756,0.00227752,0.0261048,1938,1023,82.1285,-2.27988
721,1,82.1875,2.35071,0,0,0,0,0,0,0,-1,1945,1023,82.1875,-2.35073
728,1,52.4639,5.59277,0,0,0,0,0,0,0,-1,1952,1023,52.4639,-5.59276
735,1,53.3617,6.10699,0,0,0,0,0,0,0,-1,1959,1023,53.3617,-6.10698
742,1,52.4393,5.81525,0,0,0,0,0,0,0,-1,1966,1023,52.4393,-5.81527
749,1,82.8113,7.83478,0,0,0,0,0,0,0,-1,1973,1023,82.8112,-7.8348
756,1,82.6438,7.94312,-0.0135253,0.0153213,-0.000891924,0.0153488,-0.0135529,-1.53992,0.0166971,0.0499735,1980,1023,82.6438,-7.94312
763,1,82.3682,7.81909,-0.0147511,0.0195345,-0.00306208,0.0198058,-0.0150225,-1.48242,0.0201712,0.0191848,1987,1023,82.3682,-7.81907
770,1,82.2866,7.71649,-0.0152425,0.0248171,-0.00595608,0.0256839,-0.0161093,-1.42628,0.0243395,0.0207486,1994,1023,82.2866,-7.71652
777,1,81.9304,7.59753,-0.0143274,0.0310196,-0.0106441,0.0333937,-0.0167015,-1.35134,0.0294528,0.0284854,2001,1023,81.9305,-7.59754
784,1,81.5811,7.45007,0,0,0,0,0,0,0,-1,2008,1023,81.5812,-7.45008
791,1,79.1045,5.78381,0,0,0,0,0,0,0,-1,2015,1023,79.1046,-5.78381
798,1,79.1194,5.88855,0,0,0,0,0,0,0,-1,2022,1023,79.1193,-5.88857
805,1,79.1067,5.979,0.00154459,0.0601604,-0.0497761,0.088616,-0.026911,-1.05147,0.0697988,0.0467114,2029,1023,79.1068,-5.97897
812,1,79.0979,6.03876,0.00887673,0.0706963,-0.0678575,0.114352,-0.0347793,-0.999111,0.0900941,0.0452247,2036,1023,79.098,-6.03874
-700,-6,0,0,0,0,0,0,0,0,0,-1,524,1030,0,0
-693,-6,-64.8591,-0.483398,0.0549026,0.147303,0.147513,0.255682,-0.0534757,0.937157,0.190794,0.0423148,531,1030,-64.8591,0.48345
-686,-6,-64.6687,1.76709,0.0441068,0.131009,0.122977,0.217985,-0.0428697,0.955216,0.161521,0.0453327,538,1030,-64.6687,-1.76708
-679,-6,-64.4364,3.95764,0,0,0,0,0,0,0,-1,545,1030,-64.4364,-3.95767
-672,-6,-63.6079,4.43958,0,0,0,0,0,0,0,-1,552,1030,-63.6079,-4.43955
-665,-6,-65.2781,6.10516,0,0,0,0,0,0,0,-1,559,1030,-65.2781,-6.10517
-658,-6,-66.5536,6.54388,0,0,0,0,0,0,0,-1,566,1030,-66.5536,-6.5439
-651,-6,-66.271,6.89154,0,0,0,0,0,0,0,-1,573,1030,-66.271,-6.89152
-644,-6,-66.0692,7.48773,0,0,0,0,0,0,0,-1,580,1030,-66.0691,-7.48773
-637,-6,-66.564,7.55371,0,0,0,0,0,0,0,-1,587,1030,-66.564,-7.55371
-630,-6,-66.4833,7.38983,-0.00653459,0.0229419,0.00575303,0.0240249,-0.00761764,1.38472,0.0190699,0.0293718,594,1030,-66.4833,-7.3898
-623,-6,-66.4443,7.44885,-0.00608128,0.015109,0.00323838,0.0155928,-0.00656514,1.42248,0.0131421,0.0214155,601,1030,-66.4444,-7.44882
-616,-6,-66.5436,7.42004,-0.0047355,0.0102641,0.0012225,0.0103631,-0.00483448,1.49,0.00896578,0.0258288,608,1030,-66.5436,-7.42003
-609,-6,-66.5413,7.55188,-0.00362214,0.00692868,-0.000534067,0.00695564,-0.00364911,-1.52035,0.00622107,0.0256087,615,1030,-66.5413,-7.55189
-602,-6,-66.389,7.69629,-0.0027519,0.00413175,-0.00153504,0.00445855,-0.0030787,-1.36104,0.00437587,0.0158078,622,1030,-66.389,-7.69628
-595,-6,-66.4373,7.80945,0,0,0,0,0,0,0,-1,629,1030,-66.4373,-7.80942
-588,-6,-65.267,0.525513,0,0,0,0,0,0,0,-1,636,1030,-65.267,-0.52547
-581,-6,-65.3095,0.438354,-0.000849383,0.000880932,-0.00176157,0.00197833,-0.00194678,-1.01366,0.00226619,0.0259297,643,1030,-65.3095,-0.438401
-574,-6,-65.338,0.44104,-0.000475909,0.000519082,-0.00157749,0.00167567,-0.0016325,-0.938147,0.00191002,0.0321398,650,1030,-65.338,-0.441002
-567,-6,-65.2728,0.175903,-0.000500019,0.000756044,-0.00105379,0.00135475,-0.00109873,-1.05413,0.00141908,0.0438256,657,1030,-65.2728,-0.175933
-560,-6,-65.2569,-0.125977,0,0,0,0,0,0,0,-1,664,1030,-65.2569,0.125949
-553,-6,-65.2379,0.157959,-0.00162071,0.00166054,0.00110287,0.00199677,-0.00195695,1.27488,0.00228272,0.0423163,671,1030,-65.2379,-0.157943
-546,-6,-65.1857,0.46582,-0.00307385,0.00118085,0.00284288,0.00260422,-0.00449721,1.10661,0.00414829,0.0414719,678,1030,-65.1856,-0.465794
-539,-6,-65.2073,0.669067,-0.00558824,-0.000439456,0.00474656,0.0023859,-0.0084136,1.03388,0.00655083,0.0431929,685,1030,-65.2073,-0.669054
-532,-6,-65.3446,0.801147,-0.00818087,-0.00225893,0.00637664,0.00181067,-0.0122505,1.00276,0.00883261,0.0426773,692,1030,-65.3446,-0.801089
-525,-6,0,0,0,0,0,0,0,0,0,-1,699,1030,0,0
-518,-6,0,0,0,0,0,0,0,0,0,-1,706,1030,0,0
-511,-6,0,0,0,0,0,0,0,0,0,-1,713,1030,0,0
-504,-6,0,0,0,0,0,0,0,0,0,-1,720,1030,0,0
-497,-6,0,0,0,0,0,0,0,0,0,-1,727,1030,0,0
-490,-6,0,0,0,0,0,0,0,0,0,-1,734,1030,0,0
-483,-6,0,0,0,0,0,0,0,0,0,-1,741,1030,0,0
-476,-6,0,0,0,0,0,0,0,0,0,-1,748,1030,0,0
-469,-6,0,0,0,0,0,0,0,0,0,-1,755,1030,0,0
-462,-6,0,0,0,0,0,0,0,0,0,-1,762,1030,0,0
-455,-6,0,0,0,0,0,0,0,0,0,-1,769,1030,0,0
-448,-6,0,0,0,0,0,0,0,0,0,-1,776,1030,0,0
-441,-6,0,0,0,0,0,0,0,0,0,-1,783,1030,0,0
-434,-6,0,0,0,0,0,0,0,0,0,-1,790,1030,0,0
-427,-6,0,0,0,0,0,0,0,0,0,-1,797,1030,0,0
-420,-6,0,0,0,0,0,0,0,0,0,-1,804,1030,0,0
-413,-6,0,0,0,0,0,0,0,0,0,-1,811,1030,0,0
-406,-6,0,0,0,0,0,0,0,0,0,-1,818,1030,0,0
-399,-6,0,0,0,0,0,0,0,0,0,-1,825,1030,0,0
-392,-6,0,0,0,0,0,0,0,0,0,-1,832,1030,0,0
-385,-6,0,0,0,0,0,0,0,0,0,-1,839,1030,0,0
-378,-6,0,0,0,0,0,0,0,0,0,-1,846,1030,0,0
-371,-6,0,0,0,0,0,0,0,0,0,-1,853,1030,0,0
-364,-6,0,0,0,0,0,0,0,0,0,-1,860,1030,0,0
-357,-6,0,0,0,0,0,0,0,0,0,-1,867,1030,0,0
-350,-6,0,0,0,0,0,0,0,0,0,-1,874,1030,0,0
-343,-6,0,0,0,0,0,0,0,0,0,-1,881,1030,0,0
-336,-6,0,0,0,0,0,0,0,0,0,-1,888,1030,0,0
-329,-6,0,0,0,0,0,0,0,0,0,-1,895,1030,0,0
-322,-6,0,0,0,0,0,0,0,0,0,-1,902,1030,0,0
-315,-6,0,0,0,0,0,0,0,0,0,-1,909,1030,0,0
-308,-6,0,0,0,0,0,0,0,0,0,-1,916,1030,0,0
-301,-6,0,0,0,0,0,0,0,0,0,-1,923,1030,0,0
-294,-6,0,0,0,0,0,0,0,0,0,-1,930,1030,0,0
-287,-6,0,0,0,0,0,0,0,0,0,-1,937,1030,0,0
-280,-6,0,0,0,0,0,0,0,0,0,-1,944,1030,0,0
-273,-6,0,0,0,0,0,0,0,0,0,-1,951,1030,0,0
-266,-6,0,0,0,0,0,0,0,0,0,-1,958,1030,0,0
-259,-6,0,0,0,0,0,0,0,0,0,-1,965,1030,0,0
-252,-6,0,0,0,0,0,0,0,0,0,-1,972,1030,0,0
-245,-6,0,0,0,0,0,0,0,0,0,-1,979,1030,0,0
-238,-6,0,0,0,0,0,0,0,0,0,-1,986,1030,0,0
-231,-6,0,0,0,0,0,0,0,0,0,-1,993,1030,0,0
-224,-6,0,0,0,0,0,0,0,0,0,-1,1000,1030,0,0
-217,-6,0,0,0,0,0,0,0,0,0,-1,1007,1030,0,0
-210,-6,0,0,0,0,0,0,0,0,0,-1,1014,1030,0,0
-203,-6,0,0,0,0,0,0,0,0,0,-1,1021,1030,0,0
-196,-6,0,0,0,0,0,0,0,0,0,-1,1028,1030,0,0
-189,-6,0,0,0,0,0,0,0,0,0,-1,1035,1030,0,0
-182,-6,0,0,0,0,0,0,0,0,0,-1,1042,1030,0,0
-175,-6,0,0,0,0,0,0,0,0,0,-1,1049,1030,0,0
-168,-6,0,0,0,0,0,0,0,0,0,-1,1056,1030,0,0
-161,-6,0,0,0,0,0,0,0,0,0,-1,1063,1030,0,0
-154,-6,0,0,0,0,0,0,0,0,0,-1,1070,1030,0,0
-147,-6,0,0,0,0,0,0,0,0,0,-1,1077,1030,0,0
-140,-6,0,0,0,0,0,0,0,0,0,-1,1084,1030,0,0
-133,-6,0,0,0,0,0,0,0,0,0,-1,1091,1030,0,0
-126,-6,0,0,0,0,0,0,0,0,0,-1,1098,1030,0,0
-119,-6,0,0,0,0,0,0,0,0,0,-1,1105,1030,0,0
-112,-6,0,0,0,0,0,0,0,0,0,-1,1112,1030,0,0
-105,-6,0,0,0,0,0,0,0,0,0,-1,1119,1030,0,0
-98,-6,0,0,0,0,0,0,0,0,0,-1,1126,1030,0,0
-91,-6,0,0,0,0,0,0,0,0,0,-1,1133,1030,0,0
-84,-6,0,0,0,0,0,0,0,0,0,-1,1140,1030,0,0
-77,-6,0,0,0,0,0,0,0,0,0,-1,1147,1030,0,0
-70,-6,0,0,0,0,0,0,0,0,0,-1,1154,1030,0,0
-63,-6,0,0,0,0,0,0,0,0,0,-1,1161,1030,0,0
-56,-6,0,0,0,0,0,0,0,0,0,-1,1168,1030,0,0
-49,-6,0,0,0,0,0,0,0,0,0,-1,1175,1030,0,0
-42,-6,0,0,0,0,0,0,0,0,0,-1,1182,1030,0,0
-35,-6,0,0,0,0,0,0,0,0,0,-1,1189,1030,0,0
-28,-6,0,0,0,0,0,0,0,0,0,-1,1196,1030,0,0
-21,-6,0,0,0,0,0,0,0,0,0,-1,1203,1030,0,0
-14,-6,0,0,0,0,0,0,0,0,0,-1,1210,1030,0,0
-7,-6,0,0,0,0,0,0,0,0,0,-1,1217,1030,0,0
0,-6,0,0,0,0,0,0,0,0,0,-1,1224,1030,0,0
7,-6,0,0,0,0,0,0,0,0,0,-1,1231,1030,0,0
14,-6,0,0,0,0,0,0,0,0,0,-1,1238,1030,0,0
21,-6,0,0,0,0,0,0,0,0,0,-1,1245,1030,0,0
28,-6,0,0,0,0,0,0,0,0,0,-1,1252,1030,0,0
35,-6,0,0,0,0,0,0,0,0,0,-1,1259,1030,0,0
42,-6,0,0,0,0,0,0,0,0,0,-1,1266,1030,0,0
49,-6,0,0,0,0,0,0,0,0,0,-1,1273,1030,0,0
56,-6,0,0,0,0,0,0,0,0,0,-1,1280,1030,0,0
63,-6,0,0,0,0,0,0,0,0,0,-1,1287,1030,0,0
70,-6,0,0,0,0,0,0,0,0,0,-1,1294,1030,0,0
77,-6,0,0,0,0,0,0,0,0,0,-1,1301,1030,0,0
84,-6,0,0,0,0,0,0,0,0,0,-1,1308,1030,0,0
91,-6,0,0,0,0,0,0,0,0,0,-1,1315,1030,0,0
98,-6,0,0,0,0,0,0,0,0,0,-1,1322,1030,0,0
105,-6,0,0,0,0,0,0,0,0,0,-1,1329,1030,0,0
112,-6,0,0,0,0,0,0,0,0,0,-1,1336,1030,0,0
119,-6,0,0,0,0,0,0,0,0,0,-1,1343,1030,0,0
126,-6,0,0,0,0,0,0,0,0,0,-1,1350,1030,0,0
133,-6,0,0,0,0,0,0,0,0,0,-1,1357,1030,0,0
140,-6,0,0,0,0,0,0,0,0,0,-1,1364,1030,0,0
147,-6,0,0,0,0,0,0,0,0,0,-1,1371,1030,0,0
154,-6,0,0,0,0,0,0,0,0,0,-1,1378,1030,0,0
161,-6,0,0,0,0,0,0,0,0,0,-1,1385,1030,0,0
168,-6,0,0,0,0,0,0,0,0,0,-1,1392,1030,0,0
175,-6,0,0,0,0,0,0,0,0,0,-1,1399,1030,0,0
182,-6,0,0,0,0,0,0,0,0,0,-1,1406,1030,0,0
189,-6,0,0,0,0,0,0,0,0,0,-1,1413,1030,0,0
196,-6,0,0,0,0,0,0,0,0,0,-1,1420,1030,0,0
203,-6,0,0,0,0,0,0,0,0,0,-1,1427,1030,0,0
210,-6,0,0,0,0,0,0,0,0,0,-1,1434,1030,0,0
217,-6,0,0,0,0,0,0,0,0,0,-1,1441,1030,0,0
224,-6,0,0,0,0,0,0,0,0,0,-1,1448,1030,0,0
231,-6,0,0,0,0,0,0,0,0,0,-1,1455,1030,0,0
238,-6,0,0,0,0,0,0,0,0,0,-1,1462,1030,0,0
245,-6,0,0,0,0,0,0,0,0,0,-1,1469,1030,0,0
252,-6,0,0,0,0,0,0,0,0,0,-1,1476,1030,0,0
259,-6,0,0,0,0,0,0,0,0,0,-1,1483,1030,0,0
266,-6,0,0,0,0,0,0,0,0,0,-1,1490,1030,0,0
273,-6,0,0,0,0,0,0,0,0,0,-1,1497,1030,0,0
280,-6,0,0,0,0,0,0,0,0,0,-1,1504,1030,0,0
287,-6,0,0,0,0,0,0,0,0,0,-1,1511,1030,0,0
294,-6,0,0,0,0,0,0,0,0,0,-1,1518,1030,0,0
301,-6,0,0,0,0,0,0,0,0,0,-1,1525,1030,0,0
308,-6,0,0,0,0,0,0,0,0,0,-1,1532,1030,0,0
315,-6,0,0,0,0,0,0,0,0,0,-1,1539,1030,0,0
322,-6,0,0,0,0,0,0,0,0,0,-1,1546,1030,0,0
329,-6,0,0,0,0,0,0,0,0,0,-1,1553,1030,0,0
336,-6,0,0,0,0,0,0,0,0,0,-1,1560,1030,0,0
343,-6,0,0,0,0,0,0,0,0,0,-1,1567,1030,0,0
350,-6,0,0,0,0,0,0,0,0,0,-1,1574,1030,0,0
357,-6,0,0,0,0,0,0,0,0,0,-1,1581,1030,0,0
364,-6,0,0,0,0,0,0,0,0,0,-1,1588,1030,0,0
371,-6,0,0,0,0,0,0,0,0,0,-1,1595,1030,0,0
378,-6,0,0,0,0,0,0,0,0,0,-1,1602,1030,0,0
385,-6,0,0,0,0,0,0,0,0,0,-1,1609,1030,0,0
392,-6,0,0,0,0,0,0,0,0,0,-1,1616,1030,0,0
399,-6,0,0,0,0,0,0,0,0,0,-1,1623,1030,0,0
406,-6,0,0,0,0,0,0,0,0,0,-1,1630,1030,0,0
413,-6,0,0,0,0,0,0,0,0,0,-1,1637,1030,0,0
420,-6,0,0,0,0,0,0,0,0,0,-1,1644,1030,0,0
427,-6,0,0,0,0,0,0,0,0,0,-1,1651,1030,0,0
434,-6,0,0,0,0,0,0,0,0,0,-1,1658,1030,0,0
441,-6,0,0,0,0,0,0,0,0,0,-1,1665,1030,0,0
448,-6,0,0,0,0,0,0,0,0,0,-1,1672,1030,0,0
455,-6,0,0,0,0,0,0,0,0,0,-1,1679,1030,0,0
462,-6,0,0,0,0,0,0,0,0,0,-1,1686,1030,0,0
469,-6,0,0,0,0,0,0,0,0,0,-1,1693,1030,0,0
476,-6,0,0,0,0,0,0,0,0,0,-1,1700,1030,0,0
483,-6,0,0,0,0,0,0,0,0,0,-1,1707,1030,0,0
490,-6,0,0,0,0,0,0,0,0,0,-1,1714,1030,0,0
497,-6,0,0,0,0,0,0,0,0,0,-1,1721,1030,0,0
504,-6,0,0,0,0,0,0,0,0,0,-1,1728,1030,0,0
511,-6,0,0,0,0,0,0,0,0,0,-1,1735,1030,0,0
518,-6,0,0,0,0,0,0,0,0,0,-1,1742,1030,0,0
525,-6,0,0,0,0,0,0,0,0,0,-1,1749,1030,0,0
532,-6,0,0,0,0,0,0,0,0,0,-1,1756,1030,0,0
539,-6,0,0,0,0,0,0,0,0,0,-1,1763,1030,0,0
546,-6,0,0,0,0,0,0,0,0,0,-1,1770,1030,0,0
553,-6,0,0,0,0,0,0,0,0,0,-1,1777,1030,0,0
560,-6,0,0,0,0,0,0,0,0,0,-1,1784,1030,0,0
567,-6,0,0,0,0,0,0,0,0,0,-1,1791,1030,0,0
574,-6,0,0,0,0,0,0,0,0,0,-1,1798,1030,0,0
581,-6,0,0,0,0,0,0,0,0,0,-1,1805,1030,0,0
588,-6,0,0,0,0,0,0,0,0,0,-1,1812,1030,0,0
595,-6,0,0,0,0,0,0,0,0,0,-1,1819,1030,0,0
602,-6,0,0,0,0,0,0,0,0,0,-1,1826,1030,0,0
609,-6,0,0,0,0,0,0,0,0,0,-1,1833,1030,0,0
616,-6,0,0,0,0,0,0,0,0,0,-1,1840,1030,0,0
623,-6,0,0,0,0,0,0,0,0,0,-1,1847,1030,0,0
630,-6,0,0,0,0,0,0,0,0,0,-1,1854,1030,0,0
637,-6,0,0,0,0,0,0,0,0,0,-1,1861,1030,0,0
644,-6,0,0,0,0,0,0,0,0,0,-1,1868,1030,0,0
651,-6,82.1808,2.74731,-0.00369321,0.000973284,-0.00142458,0.0013738,-0.00409373,-1.29672,0.0032843,0.0413473,1875,1030,82.1808,-2.74734
658,-6,82.1343,2.59033,-0.00267199,5.69926e-05,-0.00136296,0.000621103,-0.0032361,-1.17838,0.00239147,0.043786,1882,1030,82.1343,-2.59029
665,-6,82.0358,2.16296,-0.00184223,-0.00047419,-0.00108022,0.000120364,-0.00243678,-1.06764,0.00166609,0.0466415,1889,1030,82.0358,-2.16298
672,-6,82.3545,2.28931,-0.0011395,-0.000739592,-0.000615535,-0.000292348,-0.00158674,-0.942444,0.000975098,0.045302,1896,1030,82.3544,-2.28934
679,-6,82.3075,1.75195,-0.000473834,-0.000856428,-4.82027e-05,-0.000467854,-0.000862407,-0.12342,0.00049851,0.0449772,1903,1030,82.3075,-1.75193
686,-6,81.9673,1.98352,-0.000292778,-0.00110334,0.000503928,-5.13794e-05,-0.00134474,0.446735,0.000879868,0.0411049,1910,1030,81.9673,-1.98355
693,-6,82.0026,2.41321,-0.000251922,-0.00121035,0.000949153,0.000332131,-0.00179441,0.551624,0.00132097,0.0392176,1917,1030,82.0025,-2.41324
700,-6,82.1262,2.3988,-0.000323146,-0.00124622,0.0012436,0.000541803,-0.00211117,0.607712,0.00161856,0.0322965,1924,1030,82.1262,-2.39882
707,-6,82.1226,2.26453,-0.00122788,-0.000551083,0.00125775,0.000413,-0.00219196,0.916811,0.00161666,0.0273894,1931,1030,82.1225,-2.26457
714,-6,82.1106,2.17212,-0.00251414,0.000669317,0.00125032,0.00110167,-0.00294649,1.23787,0.00241675,0.0334338,1938,1030,82.1106,-2.17218
721,-6,82.1262,2.33545,0,0,0,0,0,0,0,-1,1945,1030,82.1262,-2.33547
728,-6,53.1713,6.25494,0,0,0,0,0,0,0,-1,1952,1030,53.1713,-6.25495
735,-6,78.4772,7.47345,0,0,0,0,0,0,0,-1,1959,1030,78.4772,-7.47343
742,-6,82.5068,8.29004,0,0,0,0,0,0,0,-1,1966,1030,82.5069,-8.29004
749,-6,82.4832,7.63696,0,0,0,0,0,0,0,-1,1973,1030,82.4833,-7.63694
756,-6,82.5066,7.74237,-0.0135501,0.0146011,-0.000365731,0.0146058,-0.0135549,-1.55781,0.0162624,0.043163,1980,1030,82.5067,-7.74234
763,-6,82.2922,7.60278,-0.0147146,0.0184275,-0.00250509,0.0186158,-0.0149028,-1.49578,0.0193915,0.025126,1987,1030,82.2921,-7.60276
770,-6,82.1873,7.48199,-0.0151776,0.0229262,-0.00533481,0.023659,-0.0159104,-1.43429,0.022991,0.0217197,1994,1030,82.1871,-7.48201
777,-6,81.9922,7.38672,-0.0141741,0.0279773,-0.0100437,0.0302482,-0.016445,-1.34844,0.0273481,0.021904,2001,1030,81.9922,-7.38674
784,-6,81.7891,7.1618,-0.0121486,0.0328413,-0.0162505,0.0380971,-0.0174044,-1.25799,0.0327778,0.0482609,2008,1030,81.7891,-7.16182
791,-6,81.6035,6.92841,0,0,0,0,0,0,0,-1,2015,1030,81.6036,-6.92842
798,-6,81.6091,6.92401,0,0,0,0,0,0,0,-1,2022,1030,81.609,-6.92399
805,-6,80.0867,5.05151,0.00207055,0.0479306,-0.0487458,0.0788703,-0.0288691,-1.00524,0.0643976,0.0444995,2029,1030,80.0866,-5.05156
812,-6,80.2112,5.27527,0.00986466,0.0535615,-0.0664463,0.101659,-0.0382331,-0.944237,0.0834881,0.0442271,2036,1030,80.2112,-5.27523
-700,-13,0,0,0,0,0,0,0,0,0,-1,524,1037,0,0
-693,-13,-65.1174,-1.12244,0.0534511,0.140443,0.159667,0.262433,-0.0685388,0.918379,0.201721,0.0490421,531,1037,-65.1174,1.12246
-686,-13,-64.6696,0.924072,0.0433305,0.125119,0.134003,0.224329,-0.0558796,0.933496,0.171246,0.0460303,538,1037,-64.6696,-0.924132
-679,-13,-64.4668,3.11487,0,0,0,0,0,0,0,-1,545,1037,-64.4668,-3.1149
-672,-13,-65.3631,5.49707,0,0,0,0,0,0,0,-1,552,1037,-65.3631,-5.49708
-665,-13,-65.2671,5.85938,0,0,0,0,0,0,0,-1,559,1037,-65.2671,-5.85939
-658,-13,-65.8689,6.52686,0,0,0,0,0,0,0,-1,566,1037,-65.8689,-6.52683
-651,-13,-65.9336,6.69214,0.00655966,0.057734,0.0425934,0.0818349,-0.0175412,1.05588,0.0612468,0.0457911,573,1037,-65.9336,-6.69215
-644,-13,-65.9288,6.99463,0.00199248,0.0453146,0.0285638,0.0595017,-0.0121946,1.10981,0.0442958,0.040178,580,1037,-65.9288,-6.99463
-637,-13,-66.0932,7.10999,-0.00229063,0.0339254,0.0157267,0.0398013,-0.00816659,1.21323,0.0296339,0.0330077,587,1037,-66.0932,-7.10996
-630,-13,-66.2929,7.13367,-0.00521576,0.0225655,0.00578355,0.0237214,-0.00637169,1.37353,0.0183115,0.0198837,594,1037,-66.2929,-7.13365
-623,-13,-66.3264,7.33301,-0.00467525,0.0150432,0.00302368,0.0154964,-0.00512849,1.42201,0.0123992,0.0166688,601,1037,-66.3264,-7.33295
-616,-13,-66.3351,7.51233,-0.00343297,0.0101452,0.000886032,0.0102028,-0.00349054,1.50591,0.00821635,0.0147163,608,1037,-66.3351,-7.51227
-609,-13,-66.3414,7.66467,-0.00244862,0.00672119,-0.000988531,0.00682655,-0.00255398,-1.46462,0.00559998,0.0175314,615,1037,-66.3414,-7.66463
-602,-13,-66.264,7.78711,-0.00171211,0.00375281,-0.00204087,0.00443084,-0.00239014,-1.25004,0.00399641,0.0138596,622,1037,-66.264,-7.78706
-595,-13,-66.2571,7.88672,0,0,0,0,0,0,0,-1,629,1037,-66.2572,-7.88669
-588,-13,-65.2526,0.628052,0,0,0,0,0,0,0,-1,636,1037,-65.2526,-0.628097
-581,-13,-65.3271,0.405518,-0.000143099,0.000557815,-0.00201905,0.0022566,-0.00184188,-0.87133,0.0023703,0.0251059,643,1037,-65.3271,-0.405518
-574,-13,-65.342,0.364014,0.00010888,0.000292954,-0.00173644,0.00193979,-0.00153796,-0.811875,0.00201234,0.0350671,650,1037,-65.342,-0.363987
-567,-13,-65.4288,0.582886,-7.67938e-05,0.000604057,-0.00111723,0.00143158,-0.000904315,-0.933281,0.00136003,0.0409117,657,1037,-65.4288,-0.582851
-560,-13,-65.3225,0.40271,-0.000588885,0.00122051,-0.000135855,0.00123065,-0.000599029,-1.49627,0.00107714,0.0432552,664,1037,-65.3225,-0.402654
-553,-13,-65.0988,-0.0292969,-0.00163107,0.00173394,0.00124611,0.00214514,-0.00204227,1.25206,0.00241785,0.0435767,671,1037,-65.0988,0.0292979
-546,-13,-65.1529,0.378174,-0.00326974,0.00148336,0.00305216,0.0029751,-0.00476148,1.11619,0.00450623,0.0389221,678,1037,-65.1529,-0.378221
-539,-13,-65.1939,0.568237,-0.00580672,0.000195487,0.00495811,0.00299003,-0.00860126,1.05755,0.0069487,0.0401854,685,1037,-65.1939,-0.568283
-532,-13,-65.323,0.596191,-0.00848907,-0.00123284,0.00659992,0.00267045,-0.0123924,1.03671,0.00928069,0.04163,692,1037,-65.323,-0.596252
-525,-13,0,0,0,0,0,0,0,0,0,-1,699,1037,0,0
-518,-13,0,0,0,0,0,0,0,0,0,-1,706,1037,0,0
-511,-13,0,0,0,0,0,0,0,0,0,-1,713,1037,0,0
-504,-13,0,0,0,0,0,0,0,0,0,-1,720,1037,0,0
-497,-13,0,0,0,0,0,0,0,0,0,-1,727,1037,0,0
-490,-13,0,0,0,0,0,0,0,0,0,-1,734,1037,0,0
-483,-13,0,0,0,0,0,0,0,0,0,-1,741,1037,0,0
-476,-13,0,0,0,0,0,0,0,0,0,-1,748,1037,0,0
-469,-13,0,0,0,0,0,0,0,0,0,-1,755,1037,0,0
-462,-13,0,0,0,0,0,0,0,0,0,-1,762,1037,0,0
-455,-13,0,0,0,0,0,0,0,0,0,-1,769,1037,0,0
-448,-13,0,0,0,0,0,0,0,0,0,-1,776,1037,0,0
-441,-13,0,0,0,0,0,0,0,0,0,-1,783,1037,0,0
-434,-13,0,0,0,0,0,0,0,0,0,-1,790,1037,0,0
-427,-13,0,0,0,0,0,0,0,0,0,-1,797,1037,0,0
-420,-13,0,0,0,0,0,0,0,0,0,-1,804,1037,0,0
-413,-13,0,0,0,0,0,0,0,0,0,-1,811,1037,0,0
-406,-13,0,0,0,0,0,0,0,0,0,-1,818,1037,0,0
-399,-13,0,0,0,0,0,0,0,0,0,-1,825,1037,0,0
-392,-13,0,0,0,0,0,0,0,0,0,-1,832,1037,0,0
-385,-13,0,0,0,0,0,0,0,0,0,-1,839,1037,0,0
-378,-13,0,0,0,0,0,0,0,0,0,-1,846,1037,0,0
-371,-13,0,0,0,0,0,0,0,0,0,-1,853,1037,0,0
-364,-13,0,0,0,0,0,0,0,0,0,-1,860,1037,0,0
-357,-13,0,0,0,0,0,0,0,0,0,-1,867,1037,0,0
-350,-13,0,0,0,0,0,0,0,0,0,-1,874,1037,0,0
-343,-13,0,0,0,0,0,0,0,0,0,-1,881,1037,0,0
-336,-13,0,0,0,0,0,0,0,0,0,-1,888,1037,0,0
-329,-13,0,0,0,0,0,0,0,0,0,-1,895,1037,0,0
-322,-13,0,0,0,0,0,0,0,0,0,-1,902,1037,0,0
-315,-13,0,0,0,0,0,0,0,0,0,-1,909,1037,0,0
-308,-13,0,0,0,0,0,0,0,0,0,-1,916,1037,0,0
-301,-13,0,0,0,0,0,0,0,0,0,-1,923,1037,0,0
-294,-13,0,0,0,0,0,0,0,0,0,-1,930,1037,0,0
-287,-13,0,0,0,0,0,0,0,0,0,-1,937,1037,0,0
-280,-13,0,0,0,0,0,0,0,0,0,-1,944,1037,0,0
-273,-13,0,0,0,0,0,0,0,0,0,-1,951,1037,0,0
-266,-13,0,0,0,0,0,0,0,0,0,-1,958,1037,0,0
-259,-13,0,0,0,0,0,0,0,0,0,-1,965,1037,0,0
-252,-13,0,0,0,0,0,0,0,0,0,-1,972,1037,0,0
-245,-13,0,0,0,0,0,0,0,0,0,-1,979,1037,0,0
-238,-13,0,0,0,0,0,0,0,0,0,-1,986,1037,0,0
-231,-13,0,0,0,0,0,0,0,0,0,-1,993,1037,0,0
-224,-13,0,0,0,0,0,0,0,0,0,-1,1000,1037,0,0
-217,-13,0,0,0,0,0,0,0,0,0,-1,1007,1037,0,0
-210,-13,0,0,0,0,0,0,0,0,0,-1,1014,1037,0,0
-203,-13,0,0,0,0,0,0,0,0,0,-1,1021,1037,0,0
-196,-13,0,0,0,0,0,0,0,0,0,-1,1028,1037,0,0
-189,-13,0,0,0,0,0,0,0,0,0,-1,1035,1037,0,0
-182,-13,0,0,0,0,0,0,0,0,0,-1,1042,1037,0,0
-175,-13,0,0,0,0,0,0,0,0,0,-1,1049,1037,0,0
-168,-13,0,0,0,0,0,0,0,0,0,-1,1056,1037,0,0
-161,-13,0,0,0,0,0,0,0,0,0,-1,1063,1037,0,0
-154,-13,0,0,0,0,0,0,0,0,0,-1,1070,1037,0,0
-147,-13,0,0,0,0,0,0,0,0,0,-1,1077,1037,0,0
-140,-13,0,0,0,0,0,0,0,0,0,-1,1084,1037,0,0
-133,-13,0,0,0,0,0,0,0,0,0,-1,1091,1037,0,0
-126,-13,0,0,0,0,0,0,0,0,0,-1,1098,1037,0,0
-119,-13,0,0,0,0,0,0,0,0,0,-1,1105,1037,0,0
-112,-13,0,0,0,0,0,0,0,0,0,-1,1112,1037,0,0
-105,-13,0,0,0,0,0,0,0,0,0,-1,1119,1037,0,0
-98,-13,0,0,0,0,0,0,0,0,0,-1,1126,1037,0,0
-91,-13,0,0,0,0,0,0,0,0,0,-1,1133,1037,0,0
-84,-13,0,0,0,0,0,0,0,0,0,-1,1140,1037,0,0
-77,-13,0,0,0,0,0,0,0,0,0,-1,1147,1037,0,0
-70,-13,0,0,0,0,0,0,0,0,0,-1,1154,1037,0,0
-63,-13,0,0,0,0,0,0,0,0,0,-1,1161,1037,0,0
-56,-13,0,0,0,0,0,0,0,0,0,-1,1168,1037,0,0
-49,-13,0,0,0,0,0,0,0,0,0,-1,1175,1037,0,0
-42,-13,0,0,0,0,0,0,0,0,0,-1,1182,1037,0,0
-35,-13,0,0,0,0,0,0,0,0,0,-1,1189,1037,0,0
-28,-13,0,0,0,0,0,0,0,0,0,-1,1196,1037,0,0
-21,-13,0,0,0,0,0,0,0,0,0,-1,1203,1037,0,0
-14,-13,0,0,0,0,0,0,0,0,0,-1,1210,1037,0,0
-7,-13,0,0,0,0,0,0,0,0,0,-1,1217,1037,0,0
0,-13,0,0,0,0,0,0,0,0,0,-1,1224,1037,0,0
7,-13,0,0,0,0,0,0,0,0,0,-1,1231,1037,0,0
14,-13,0,0,0,0,0,0,0,0,0,-1,1238,1037,0,0
21,-13,0,0,0,0,0,0,0,0,0,-1,1245,1037,0,0
28,-13,0,0,0,0,0,0,0,0,0,-1,1252,1037,0,0
35,-13,0,0,0,0,0,0,0,0,0,-1,1259,1037,0,0
42,-13,0,0,0,0,0,0,0,0,0,-1,1266,1037,0,0
49,-13,0,0,0,0,0,0,0,0,0,-1,1273,1037,0,0
56,-13,0,0,0,0,0,0,0,0,0,-1,1280,1037,0,0
63,-13,0,0,0,0,0,0,0,0,0,-1,1287,1037,0,0
70,-13,0,0,0,0,0,0,0,0,0,-1,1294,1037,0,0
77,-13,0,0,0,0,0,0,0,0,0,-1,1301,1037,0,0
84,-13,0,0,0,0,0,0,0,0,0,-1,1308,1037,0,0
91,-13,0,0,0,0,0,0,0,0,0,-1,1315,1037,0,0
98,-13,0,0,0,0,0,0,0,0,0,-1,1322,1037,0,0
105,-13,0,0,0,0,0,0,0,0,0,-1,1329,1037,0,0
112,-13,0,0,0,0,0,0,0,0,0,-1,1336,1037,0,0
119,-13,0,0,0,0,0,0,0,0,0,-1,1343,1037,0,0
126,-13,0,0,0,0,0,0,0,0,0,-1,1350,1037,0,0
133,-13,0,0,0,0,0,0,0,0,0,-1,1357,1037,0,0
140,-13,0,0,0,0,0,0,0,0,0,-1,1364,1037,0,0
147,-13,0,0,0,0,0,0,0,0,0,-1,1371,1037,0,0
154,-13,0,0,0,0,0,0,0,0,0,-1,1378,1037,0,0
161,-13,0,0,0,0,0,0,0,0,0,-1,1385,1037,0,0
168,-13,0,0,0,0,0,0,0,0,0,-1,1392,1037,0,0
175,-13,0,0,0,0,0,0,0,0,0,-1,1399,1037,0,0
182,-13,0,0,0,0,0,0,0,0,0,-1,1406,1037,0,0
189,-13,0,0,0,0,0,0,0,0,0,-1,1413,1037,0,0
196,-13,0,0,0,0,0,0,0,0,0,-1,1420,1037,0,0
203,-13,0,0,0,0,0,0,0,0,0,-1,1427,1037,0,0
210,-13,0,0,0,0,0,0,0,0,0,-1,1434,1037,0,0
217,-13,0,0,0,0,0,0,0,0,0,-1,1441,1037,0,0
224,-13,0,0,0,0,0,0,0,0,0,-1,1448,1037,0,0
231,-13,0,0,0,0,0,0,0,0,0,-1,1455,1037,0,0
238,-13,0,0,0,0,0,0,0,0,0,-1,1462,1037,0,0
245,-13,0,0,0,0,0,0,0,0,0,-1,1469,1037,0,0
252,-13,0,0,0,0,0,0,0,0,0,-1,1476,1037,0,0
259,-13,0,0,0,0,0,0,0,0,0,-1,1483,1037,0,0
266,-13,0,0,0,0,0,0,0,0,0,-1,1490,1037,0,0
273,-13,0,0,0,0,0,0,0,0,0,-1,1497,1037,0,0
280,-13,0,0,0,0,0,0,0,0,0,-1,1504,1037,0,0
287,-13,0,0,0,0,0,0,0,0,0,-1,1511,1037,0,0
294,-13,0,0,0,0,0,0,0,0,0,-1,1518,1037,0,0
301,-13,0,0,0,0,0,0,0,0,0,-1,1525,1037,0,0
308,-13,0,0,0,0,0,0,0,0,0,-1,1532,1037,0,0
315,-13,0,0,0,0,0,0,0,0,0,-1,1539,1037,0,0
322,-13,0,0,0,0,0,0,0,0,0,-1,1546,1037,0,0
329,-13,0,0,0,0,0,0,0,0,0,-1,1553,1037,0,0
336,-13,0,0,0,0,0,0,0,0,0,-1,1560,1037,0,0
343,-13,0,0,0,0,0,0,0,0,0,-1,1567,1037,0,0
350,-13,0,0,0,0,0,0,0,0,0,-1,1574,1037,0,0
357,-13,0,0,0,0,0,0,0,0,0,-1,1581,1037,0,0
364,-13,0,0,0,0,0,0,0,0,0,-1,1588,1037,0,0
371,-13,0,0,0,0,0,0,0,0,0,-1,1595,1037,0,0
378,-13,0,0,0,0,0,0,0,0,0,-1,1602,1037,0,0
385,-13,0,0,0,0,0,0,0,0,0,-1,1609,1037,0,0
392,-13,0,0,0,0,0,0,0,0,0,-1,1616,1037,0,0
399,-13,0,0,0,0,0,0,0,0,0,-1,1623,1037,0,0
406,-13,0,0,0,0,0,0,0,0,0,-1,1630,1037,0,0
413,-13,0,0,0,0,0,0,0,0,0,-1,1637,1037,0,0
420,-13,0,0,0,0,0,0,0,0,0,-1,1644,1037,0,0
427,-13,0,0,0,0,0,0,0,0,0,-1,1651,1037,0,0
434,-13,0,0,0,0,0,0,0,0,0,-1,1658,1037,0,0
441,-13,0,0,0,0,0,0,0,0,0,-1,1665,1037,0,0
448,-13,0,0,0,0,0,0,0,0,0,-1,1672,1037,0,0
455,-13,0,0,0,0,0,0,0,0,0,-1,1679,1037,0,0
462,-13,0,0,0,0,0,0,0,0,0,-1,1686,1037,0,0
469,-13,0,0,0,0,0,0,0,0,0,-1,1693,1037,0,0
476,-13,0,0,0,0,0,0,0,0,0,-1,1700,1037,0,0
483,-13,0,0,0,0,0,0,0,0,0,-1,1707,1037,0,0
490,-13,0,0,0,0,0,0,0,0,0,-1,1714,1037,0,0
497,-13,0,0,0,0,0,0,0,0,0,-1,1721,1037,0,0
504,-13,0,0,0,0,0,0,0,0,0,-1,1728,1037,0,0
511,-13,0,0,0,0,0,0,0,0,0,-1,1735,1037,0,0
518,-13,0,0,0,0,0,0,0,0,0,-1,1742,1037,0,0
525,-13,0,0,0,0,0,0,0,0,0,-1,1749,1037,0,0
532,-13,0,0,0,0,0,0,0,0,0,-1,1756,1037,0,0
539,-13,0,0,0,0,0,0,0,0,0,-1,1763,1037,0,0
546,-13,0,0,0,0,0,0,0,0,0,-1,1770,1037,0,0
553,-13,0,0,0,0,0,0,0,0,0,-1,1777,1037,0,0
560,-13,0,0,0,0,0,0,0,0,0,-1,1784,1037,0,0
567,-13,0,0,0,0,0,0,0,0,0,-1,1791,1037,0,0
574,-13,0,0,0,0,0,0,0,0,0,-1,1798,1037,0,0
581,-13,0,0,0,0,0,0,0,0,0,-1,1805,1037,0,0
588,-13,0,0,0,0,0,0,0,0,0,-1,1812,1037,0,0
595,-13,0,0,0,0,0,0,0,0,0,-1,1819,1037,0,0
602,-13,0,0,0,0,0,0,0,0,0,-1,1826,1037,0,0
609,-13,0,0,0,0,0,0,0,0,0,-1,1833,1037,0,0
616,-13,0,0,0,0,0,0,0,0,0,-1,1840,1037,0,0
623,-13,0,0,0,0,0,0,0,0,0,-1,1847,1037,0,0
630,-13,0,0,0,0,0,0,0,0,0,-1,1854,1037,0,0
637,-13,0,0,0,0,0,0,0,0,0,-1,1861,1037,0,0
644,-13,0,0,0,0,0,0,0,0,0,-1,1868,1037,0,0
651,-13,82.2571,2.79504,-0.00437941,0.00254301,-0.00188092,0.00302107,-0.00485747,-1.3219,0.00458968,0.0413392,1875,1037,82.2571,-2.795
658,-13,82.2714,2.81128,-0.00310005,0.00135004,-0.00166851,0.00190614,-0.00365615,-1.24909,0.00326394,0.0487973,1882,1037,82.2714,-2.81129
665,-13,82.1924,2.38843,-0.00212838,0.000569255,-0.00128364,0.00108244,-0.00264156,-1.19047,0.00221197,0.0481442,1889,1037,82.1924,-2.38844
672,-13,82.2556,2.2074,-0.00136363,9.72132e-05,-0.000738707,0.000405639,-0.00167205,-1.17528,0.00127167,0.039319,1896,1037,82.2556,-2.20743
679,-13,82.1549,2.23474,-0.000689786,-0.000202036,-0.000114858,-0.000176342,-0.00071548,-1.35072,0.00043042,0.0402793,1903,1037,82.155,-2.23475
686,-13,82.0269,2.36133,-0.000571856,-0.000615042,0.000472424,-0.000120532,-0.00106637,0.762561,0.000674333,0.0415419,1910,1037,82.0268,-2.36132
693,-13,82.0367,2.59021,-0.000594758,-0.000893194,0.000945566,0.000213291,-0.00170124,0.707139,0.00121153,0.0400013,1917,1037,82.0367,-2.59022
700,-13,82.1149,2.47424,-0.000696493,-0.00105285,0.00131171,0.000449091,-0.00219843,0.717894,0.00163599,0.0358056,1924,1037,82.1149,-2.47423
707,-13,82.179,2.26013,-0.00157587,-0.000491372,0.00141571,0.000482384,-0.00254963,0.968291,0.00188128,0.0327099,1931,1037,82.1789,-2.26017
714,-13,82.1437,2.47876,-0.00281314,0.000579739,0.00148645,0.00113883,-0.00337224,1.21104,0.00270878,0.0329257,1938,1037,82.1437,-2.47879
721,-13,81.9281,2.69458,0,0,0,0,0,0,0,-1,1945,1037,81.9281,-2.69461
728,-13,78.576,7.60706,0,0,0,0,0,0,0,-1,1952,1037,78.5761,-7.60708
735,-13,82.0376,8.11841,0,0,0,0,0,0,0,-1,1959,1037,82.0375,-8.11835
742,-13,82.1982,7.98877,-0.00980649,0.00853365,0.0011375,0.00860393,-0.00987677,1.50909,0.0106783,0.0360123,1966,1037,82.1983,-7.98876
749,-13,82.3701,7.81396,-0.0118867,0.0106925,0.000920459,0.01073,-0.0119241,1.53012,0.0130854,0.0492202,1973,1037,82.37,-7.81399
756,-13,82.3293,7.6615,-0.0134746,0.0137604,6.79427e-05,0.0137606,-0.0134748,1.5683,0.0157246,0.0257802,1980,1037,82.3293,-7.66152
763,-13,82.2317,7.49609,-0.0145125,0.0171939,-0.0020456,0.0173253,-0.014644,-1.50663,0.0184791,0.0343837,1987,1037,82.2318,-7.49615
770,-13,82.1113,7.37146,-0.0148676,0.0210334,-0.00478333,0.0216598,-0.0154939,-1.44059,0.021549,0.0283157,1994,1037,82.1114,-7.3715
777,-13,81.8657,7.14465,-0.0136841,0.0250502,-0.00941904,0.0272191,-0.0158531,-1.34447,0.0251547,0.0188141,2001,1037,81.8656,-7.14468
784,-13,81.8137,6.88513,-0.0115044,0.0285753,-0.015486,0.0338616,-0.0167907,-1.24184,0.0297926,0.0386744,2008,1037,81.8137,-6.88515
791,-13,81.8091,6.60596,-0.00824526,0.031596,-0.0234775,0.0424654,-0.0191147,-1.13721,0.0363953,0.0486206,2015,1037,81.8091,-6.606
798,-13,81.5664,6.48413,-0.00343243,0.0341659,-0.0338883,0.0541202,-0.0233867,-1.03864,0.0459063,0.0454973,2022,1037,81.5665,-6.48412
805,-13,81.3687,6.30066,0,0,0,0,0,0,0,-1,2029,1037,81.3688,-6.30071
812,-13,80.9541,5.79407,0,0,0,0,0,0,0,-1,2036,1037,80.9541,-5.79409
-700,-20,-65.4676,-3.9325,0,0,0,0,0,0,0,-1,524,1044,-65.4676,3.93249
-693,-20,-65.3737,-1.73792,0,0,0,0,0,0,0,-1,531,1044,-65.3737,1.73796
-686,-20,-65.2567,0.564087,0,0,0,0,0,0,0,-1,538,1044,-65.2567,-0.564031
-679,-20,-64.9108,5.0835,0,0,0,0,0,0,0,-1,545,1044,-64.9108,-5.08344
-672,-20,-65.096,5.42029,0.0260886,0.0960809,0.0949984,0.162324,-0.0401547,0.961878,0.123791,0.0474501,552,1044,-65.096,-5.42032
-665,-20,-65.3206,5.72803,0.019136,0.0828064,0.0760562,0.133421,-0.0314789,0.983606,0.101088,0.045434,559,1044,-65.3206,-5.72805
-658,-20,-65.5867,6.21448,0.0130918,0.0699807,0.0589524,0.106992,-0.0239197,1.01017,0.0804948,0.0484236,566,1044,-65.5867,-6.21447
-651,-20,-65.8062,6.44141,0.00801864,0.0575983,0.0437349,0.0830805,-0.0174636,1.04323,0.0620331,0.0452945,573,1044,-65.8062,-6.44137
-644,-20,-65.7649,6.56311,0.00358891,0.0452455,0.029226,0.0603056,-0.0114712,1.09499,0.0445228,0.0303814,580,1044,-65.7649,-6.56314
-637,-20,-65.8785,6.68579,-0.000732294,0.0337649,0.016052,0.0400786,-0.007046,1.19606,0.029351,0.0237556,587,1044,-65.8785,-6.68579
-630,-20,-66.0063,6.99512,-0.00350411,0.0225349,0.0059518,0.0238308,-0.00480003,1.35641,0.0177054,0.0190148,594,1044,-66.0063,-6.99518
-623,-20,-66.1001,7.27283,-0.00309563,0.0150786,0.00290478,0.0155316,-0.00354861,1.4161,0.0117177,0.0164026,601,1044,-66.1001,-7.2728
-616,-20,-66.1179,7.5,-0.00204463,0.0100851,0.000608441,0.0101156,-0.00207507,1.5208,0.0075313,0.0154402,608,1044,-66.1179,-7.5
-609,-20,-66.1518,7.72827,-0.00128064,0.00651538,-0.00139279,0.00675674,-0.00152199,-1.39921,0.00508827,0.0165109,615,1044,-66.1518,-7.72822
-602,-20,-66.0953,7.87622,-0.000740064,0.00332004,-0.00249683,0.00450795,-0.00192797,-1.12672,0.003814,0.0153205,622,1044,-66.0954,-7.87625
-595,-20,-65.8848,8.18738,0,0,0,0,0,0,0,-1,629,1044,-65.8848,-8.18732
-588,-20,-65.2811,0.50061,0,0,0,0,0,0,0,-1,636,1044,-65.2811,-0.500607
-581,-20,-65.3022,0.373413,0.00051417,7.28535e-05,-0.00220041,0.00250496,-0.00191794,-0.735425,0.00256105,0.0320978,643,1044,-65.3022,-0.373376
-574,-20,-65.3694,0.435791,0.00064224,-0.000119665,-0.00179449,0.00209577,-0.00157319,-0.680806,0.00212542,0.0384912,650,1044,-65.3694,-0.435833
-567,-20,-65.3329,0.422119,0.000319771,0.000224818,-0.00106279,0.00133615,-0.00079156,-0.763077,0.00124177,0.0420594,657,1044,-65.3329,-0.422164
-560,-20,-65.118,0.265991,-0.000358488,0.00091561,4.33151e-05,0.000917081,-0.000359959,1.53685,0.000760327,0.0428016,664,1044,-65.118,-0.266016
-553,-20,-64.9675,-0.0256348,-0.00156503,0.00158911,0.00155628,0.0022277,-0.00220363,1.18141,0.00255844,0.0424521,671,1044,-64.9675,0.0255738
-546,-20,-65.0717,0.327026,-0.00332577,0.00166855,0.00348006,0.00345469,-0.00511191,1.09661,0.00497668,0.0384015,678,1044,-65.0716,-0.327053
-539,-20,-65.233,0.518799,-0.00585913,0.00089099,0.00548334,0.00395472,-0.00892286,1.06127,0.00761708,0.0417947,685,1044,-65.233,-0.518751
-532,-20,-65.3981,0.483643,-0.00860184,9.76577e-05,0.00723043,0.00418589,-0.0126901,1.05619,0.0101473,0.0420026,692,1044,-65.3981,-0.483585
-525,-20,0,0,0,0,0,0,0,0,0,-1,699,1044,0,0
-518,-20,0,0,0,0,0,0,0,0,0,-1,706,1044,0,0
-511,-20,0,0,0,0,0,0,0,0,0,-1,713,1044,0,0
-504,-20,0,0,0,0,0,0,0,0,0,-1,720,1044,0,0
-497,-20,0,0,0,0,0,0,0,0,0,-1,727,1044,0,0
-490,-20,0,0,0,0,0,0,0,0,0,-1,734,1044,0,0
-483,-20,0,0,0,0,0,0,0,0,0,-1,741,1044,0,0
-476,-20,0,0,0,0,0,0,0,0,0,-1,748,1044,0,0
-469,-20,0,0,0,0,0,0,0,0,0,-1,755,1044,0,0
-462,-20,0,0,0,0,0,0,0,0,0,-1,762,1044,0,0
-455,-20,0,0,0,0,0,0,0,0,0,-1,769,1044,0,0
-448,-20,0,0,0,0,0,0,0,0,0,-1,776,1044,0,0
-441,-20,0,0,0,0,0,0,0,0,0,-1,783,1044,0,0
-434,-20,0,0,0,0,0,0,0,0,0,-1,790,1044,0,0
-427,-20,0,0,0,0,0,0,0,0,0,-1,797,1044,0,0
-420,-20,0,0,0,0,0,0,0,0,0,-1,804,1044,0,0
-413,-20,0,0,0,0,0,0,0,0,0,-1,811,1044,0,0
-406,-20,0,0,0,0,0,0,0,0,0,-1,818,1044,0,0
-399,-20,0,0,0,0,0,0,0,0,0,-1,825,1044,0,0
-392,-20,0,0,0,0,0,0,0,0,0,-1,832,1044,0,0
-385,-20,0,0,0,0,0,0,0,0,0,-1,839,1044,0,0
-378,-20,0,0,0,0,0,0,0,0,0,-1,846,1044,0,0
-371,-20,0,0,0,0,0,0,0,0,0,-1,853,1044,0,0
-364,-20,0,0,0,0,0,0,0,0,0,-1,860,1044,0,0
-357,-20,0,0,0,0,0,0,0,0,0,-1,867,1044,0,0
-350,-20,0,0,0,0,0,0,0,0,0,-1,874,1044,0,0
-343,-20,0,0,0,0,0,0,0,0,0,-1,881,1044,0,0
-336,-20,0,0,0,0,0,0,0,0,0,-1,888,1044,0,0
-329,-20,0,0,0,0,0,0,0,0,0,-1,895,1044,0,0
-322,-20,0,0,0,0,0,0,0,0,0,-1,902,1044,0,0
-315,-20,0,0,0,0,0,0,0,0,0,-1,909,1044,0,0
-308,-20,0,0,0,0,0,0,0,0,0,-1,916,1044,0,0
-301,-20,0,0,0,0,0,0,0,0,0,-1,923,1044,0,0
-294,-20,0,0,0,0,0,0,0,0,0,-1,930,1044,0,0
-287,-20,0,0,0,0,0,0,0,0,0,-1,937,1044,0,0
-280,-20,0,0,0,0,0,0,0,0,0,-1,944,1044,0,0
-273,-20,0,0,0,0,0,0,0,0,0,-1,951,1044,0,0
-266,-20,0,0,0,0,0,0,0,0,0,-1,958,1044,0,0
-259,-20,0,0,0,0,0,0,0,0,0,-1,965,1044,0,0
-252,-20,0,0,0,0,0,0,0,0,0,-1,972,1044,0,0
-245,-20,0,0,0,0,0,0,0,0,0,-1,979,1044,0,0
-238,-20,0,0,0,0,0,0,0,0,0,-1,986,1044,0,0
-231,-20,0,0,0,0,0,0,0,0,0,-1,993,1044,0,0
-224,-20,0,0,0,0,0,0,0,0,0,-1,1000,1044,0,0
-217,-20,0,0,0,0,0,0,0,0,0,-1,1007,1044,0,0
-210,-20,0,0,0,0,0,0,0,0,0,-1,1014,1044,0,0
-203,-20,0,0,0,0,0,0,0,0,0,-1,1021,1044,0,0
-196,-20,0,0,0,0,0,0,0,0,0,-1,1028,1044,0,0
-189,-20,0,0,0,0,0,0,0,0,0,-1,1035,1044,0,0
-182,-20,0,0,0,0,0,0,0,0,0,-1,1042,1044,0,0
-175,-20,0,0,0,0,0,0,0,0,0,-1,1049,1044,0,0
-168,-20,0,0,0,0,0,0,0,0,0,-1,1056,1044,0,0
-161,-20,0,0,0,0,0,0,0,0,0,-1,1063,1044,0,0
-154,-20,0,0,0,0,0,0,0,0,0,-1,1070,1044,0,0
-147,-20,0,0,0,0,0,0,0,0,0,-1,1077,1044,0,0
-140,-20,0,0,0,0,0,0,0,0,0,-1,1084,1044,0,0
-133,-20,0,0,0,0,0,0,0,0,0,-1,1091,1044,0,0
-126,-20,0,0,0,0,0,0,0,0,0,-1,1098,1044,0,0
-119,-20,0,0,0,0,0,0,0,0,0,-1,1105,1044,0,0
-112,-20,0,0,0,0,0,0,0,0,0,-1,1112,1044,0,0
-105,-20,0,0,0,0,0,0,0,0,0,-1,1119,1044,0,0
-98,-20,0,0,0,0,0,0,0,0,0,-1,1126,1044,0,0
-91,-20,0,0,0,0,0,0,0,0,0,-1,1133,1044,0,0
-84,-20,0,0,0,0,0,0,0,0,0,-1,1140,1044,0,0
-77,-20,0,0,0,0,0,0,0,0,0,-1,1147,1044,0,0
-70,-20,0,0,0,0,0,0,0,0,0,-1,1154,1044,0,0
-63,-20,0,0,0,0,0,0,0,0,0,-1,1161,1044,0,0
-56,-20,0,0,0,0,0,0,0,0,0,-1,1168,1044,0,0
-49,-20,0,0,0,0,0,0,0,0,0,-1,1175,1044,0,0
-42,-20,0,0,0,0,0,0,0,0,0,-1,1182,1044,0,0
-35,-20,0,0,0,0,0,0,0,0,0,-1,1189,1044,0,0
-28,-20,0,0,0,0,0,0,0,0,0,-1,1196,1044,0,0
-21,-20,0,0,0,0,0,0,0,0,0,-1,1203,1044,0,0
-14,-20,0,0,0,0,0,0,0,0,0,-1,1210,1044,0,0
-7,-20,0,0,0,0,0,0,0,0,0,-1,1217,1044,0,0
0,-20,0,0,0,0,0,0,0,0,0,-1,1224,1044,0,0
7,-20,0,0,0,0,0,0,0,0,0,-1,1231,1044,0,0
14,-20,0,0,0,0,0,0,0,0,0,-1,1238,1044,0,0
21,-20,0,0,0,0,0,0,0,0,0,-1,1245,1044,0,0
28,-20,0,0,0,0,0,0,0,0,0,-1,1252,1044,0,0
35,-20,0,0,0,0,0,0,0,0,0,-1,1259,1044,0,0
42,-20,0,0,0,0,0,0,0,0,0,-1,1266,1044,0,0
49,-20,0,0,0,0,0,0,0,0,0,-1,1273,1044,0,0
56,-20,0,0,0,0,0,0,0,0,0,-1,1280,1044,0,0
63,-20,0,0,0,0,0,0,0,0,0,-1,1287,1044,0,0
70,-20,0,0,0,0,0,0,0,0,0,-1,1294,1044,0,0
77,-20,0,0,0,0,0,0,0,0,0,-1,1301,1044,0,0
84,-20,0,0,0,0,0,0,0,0,0,-1,1308,1044,0,0
91,-20,0,0,0,0,0,0,0,0,0,-1,1315,1044,0,0
98,-20,0,0,0,0,0,0,0,0,0,-1,1322,1044,0,0
105,-20,0,0,0,0,0,0,0,0,0,-1,1329,1044,0,0
112,-20,0,0,0,0,0,0,0,0,0,-1,1336,1044,0,0
119,-20,0,0,0,0,0,0,0,0,0,-1,1343,1044,0,0
126,-20,0,0,0,0,0,0,0,0,0,-1,1350,1044,0,0
133,-20,0,0,0,0,0,0,0,0,0,-1,1357,1044,0,0
140,-20,0,0,0,0,0,0,0,0,0,-1,1364,1044,0,0
147,-20,0,0,0,0,0,0,0,0,0,-1,1371,1044,0,0
154,-20,0,0,0,0,0,0,0,0,0,-1,1378,1044,0,0
161,-20,0,0,0,0,0,0,0,0,0,-1,1385,1044,0,0
168,-20,0,0,0,0,0,0,0,0,0,-1,1392,1044,0,0
175,-20,0,0,0,0,0,0,0,0,0,-1,1399,1044,0,0
182,-20,0,0,0,0,0,0,0,0,0,-1,1406,1044,0,0
189,-20,0,0,0,0,0,0,0,0,0,-1,1413,1044,0,0
196,-20,0,0,0,0,0,0,0,0,0,-1,1420,1044,0,0
203,-20,0,0,0,0,0,0,0,0,0,-1,1427,1044,0,0
210,-20,0,0,0,0,0,0,0,0,0,-1,1434,1044,0,0
217,-20,0,0,0,0,0,0,0,0,0,-1,1441,1044,0,0
224,-20,0,0,0,0,0,0,0,0,0,-1,1448,1044,0,0
231,-20,0,0,0,0,0,0,0,0,0,-1,1455,1044,0,0
238,-20,0,0,0,0,0,0,0,0,0,-1,1462,1044,0,0
245,-20,0,0,0,0,0,0,0,0,0,-1,1469,1044,0,0
252,-20,0,0,0,0,0,0,0,0,0,-1,1476,1044,0,0
259,-20,0,0,0,0,0,0,0,0,0,-1,1483,1044,0,0
266,-20,0,0,0,0,0,0,0,0,0,-1,1490,1044,0,0
273,-20,0,0,0,0,0,0,0,0,0,-1,1497,1044,0,0
280,-20,0,0,0,0,0,0,0,0,0,-1,1504,1044,0,0
287,-20,0,0,0,0,0,0,0,0,0,-1,1511,1044,0,0
294,-20,0,0,0,0,0,0,0,0,0,-1,1518,1044,0,0
301,-20,0,0,0,0,0,0,0,0,0,-1,1525,1044,0,0
308,-20,0,0,0,0,0,0,0,0,0,-1,1532,1044,0,0
315,-20,0,0,0,0,0,0,0,0,0,-1,1539,1044,0,0
322,-20,0,0,0,0,0,0,0,0,0,-1,1546,1044,0,0
329,-20,0,0,0,0,0,0,0,0,0,-1,1553,1044,0,0
336,-20,0,0,0,0,0,0,0,0,0,-1,1560,1044,0,0
343,-20,0,0,0,0,0,0,0,0,0,-1,1567,1044,0,0
350,-20,0,0,0,0,0,0,0,0,0,-1,1574,1044,0,0
357,-20,0,0,0,0,0,0,0,0,0,-1,1581,1044,0,0
364,-20,0,0,0,0,0,0,0,0,0,-1,1588,1044,0,0
371,-20,0,0,0,0,0,0,0,0,0,-1,1595,1044,0,0
378,-20,0,0,0,0,0,0,0,0,0,-1,1602,1044,0,0
385,-20,0,0,0,0,0,0,0,0,0,-1,1609,1044,0,0
392,-20,0,0,0,0,0,0,0,0,0,-1,1616,1044,0,0
399,-20,0,0,0,0,0,0,0,0,0,-1,1623,1044,0,0
406,-20,0,0,0,0,0,0,0,0,0,-1,1630,1044,0,0
413,-20,0,0,0,0,0,0,0,0,0,-1,1637,1044,0,0
420,-20,0,0,0,0,0,0,0,0,0,-1,1644,1044,0,0
427,-20,0,0,0,0,0,0,0,0,0,-1,1651,1044,0,0
434,-20,0,0,0,0,0,0,0,0,0,-1,1658,1044,0,0
441,-20,0,0,0,0,0,0,0,0,0,-1,1665,1044,0,0
448,-20,0,0,0,0,0,0,0,0,0,-1,1672,1044,0,0
455,-20,0,0,0,0,0,0,0,0,0,-1,1679,1044,0,0
462,-20,0,0,0,0,0,0,0,0,0,-1,1686,1044,0,0
469,-20,0,0,0,0,0,0,0,0,0,-1,1693,1044,0,0
476,-20,0,0,0,0,0,0,0,0,0,-1,1700,1044,0,0
483,-20,0,0,0,0,0,0,0,0,0,-1,1707,1044,0,0
490,-20,0,0,0,0,0,0,0,0,0,-1,1714,1044,0,0
497,-20,0,0,0,0,0,0,0,0,0,-1,1721,1044,0,0
504,-20,0,0,0,0,0,0,0,0,0,-1,1728,1044,0,0
511,-20,0,0,0,0,0,0,0,0,0,-1,1735,1044,0,0
518,-20,0,0,0,0,0,0,0,0,0,-1,1742,1044,0,0
525,-20,0,0,0,0,0,0,0,0,0,-1,1749,1044,0,0
532,-20,0,0,0,0,0,0,0,0,0,-1,1756,1044,0,0
539,-20,0,0,0,0,0,0,0,0,0,-1,1763,1044,0,0
546,-20,0,0,0,0,0,0,0,0,0,-1,1770,1044,0,0
553,-20,0,0,0,0,0,0,0,0,0,-1,1777,1044,0,0
560,-20,0,0,0,0,0,0,0,0,0,-1,1784,1044,0,0
567,-20,0,0,0,0,0,0,0,0,0,-1,1791,1044,0,0
574,-20,0,0,0,0,0,0,0,0,0,-1,1798,1044,0,0
581,-20,0,0,0,0,0,0,0,0,0,-1,1805,1044,0,0
588,-20,0,0,0,0,0,0,0,0,0,-1,1812,1044,0,0
595,-20,0,0,0,0,0,0,0,0,0,-1,1819,1044,0,0
602,-20,0,0,0,0,0,0,0,0,0,-1,1826,1044,0,0
609,-20,0,0,0,0,0,0,0,0,0,-1,1833,1044,0,0
616,-20,0,0,0,0,0,0,0,0,0,-1,1840,1044,0,0
623,-20,0,0,0,0,0,0,0,0,0,-1,1847,1044,0,0
630,-20,0,0,0,0,0,0,0,0,0,-1,1854,1044,0,0
637,-20,0,0,0,0,0,0,0,0,0,-1,1861,1044,0,0
644,-20,0,0,0,0,0,0,0,0,0,-1,1868,1044,0,0
651,-20,82.3102,2.71094,-0.0049794,0.00399124,-0.0021847,0.00449501,-0.00548316,-1.34417,0.00577031,0.0393635,1875,1044,82.3102,-2.71099
658,-20,82.2952,2.91223,-0.00348814,0.00255833,-0.00184068,0.00307459,-0.0040044,-1.29735,0.00409879,0.0451399,1882,1044,82.2952,-2.91224
665,-20,82.2024,2.4707,-0.00239198,0.00157985,-0.00138148,0.0020131,-0.00282523,-1.2669,0.00280649,0.0413888,1889,1044,82.2024,-2.47069
672,-20,82.2157,2.27368,-0.00156878,0.000965329,-0.000789429,0.00119113,-0.00179459,-1.2922,0.0017355,0.0255735,1896,1044,82.2158,-2.27365
679,-20,82.1809,2.28894,-0.000879596,0.000547282,-0.000146631,0.000562194,-0.000894508,-1.46944,0.000848291,0.0277477,1903,1044,82.1809,-2.28898
686,-20,82.0975,2.33374,-0.000815122,1.21051e-05,0.000444071,0.000205348,-0.00100837,1.16035,0.000750121,0.0376819,1910,1044,82.0976,-2.33375
693,-20,82.1165,2.37781,-0.000924842,-0.000411495,0.000926417,0.000293148,-0.00162949,0.920539,0.00119607,0.0434307,1917,1044,82.1165,-2.37783
700,-20,82.2026,2.4054,-0.00108658,-0.000694969,0.00134451,0.000467914,-0.00224947,0.857707,0.00167751,0.0395808,1924,1044,82.2027,-2.40537
707,-20,82.1749,2.31555,-0.00191756,-0.000306653,0.00153432,0.00062078,-0.00284499,1.0271,0.0021339,0.032729,1931,1044,82.1749,-2.31549
714,-20,82.1643,2.44641,-0.00309679,0.000590127,0.00168993,0.00124751,-0.00375417,1.19981,0.00300617,0.0302727,1938,1044,82.1643,-2.44636
721,-20,81.9646,2.51709,0,0,0,0,0,0,0,-1,1945,1044,81.9646,-2.51712
728,-20,82.6117,8.3656,0,0,0,0,0,0,0,-1,1952,1044,82.6117,-8.36558
735,-20,82.2766,8.18494,-0.00838443,0.00604535,0.00163837,0.00622904,-0.00856811,1.45915,0.00857865,0.0370438,1959,1044,82.2766,-8.18489
742,-20,81.947,7.8147,-0.00989444,0.00789287,0.0013902,0.00800087,-0.0100024,1.49327,0.0104156,0.0414794,1966,1044,81.947,-7.8147
749,-20,82.1343,7.74182,-0.011846,0.00984623,0.00119064,0.00991138,-0.0119112,1.51613,0.0126169,0.0417298,1973,1044,82.1344,-7.74183
756,-20,82.1321,7.62195,-0.0132691,0.0125897,0.000358524,0.0125946,-0.0132741,1.55694,0.014937,0.0239697,1980,1044,82.1321,-7.62201
763,-20,82.0256,7.44055,-0.0141381,0.015574,-0.00176896,0.015679,-0.014243,-1.51154,0.0172821,0.0351996,1987,1044,82.0256,-7.44056
770,-20,81.8918,7.3335,-0.0143309,0.0188188,-0.00445797,0.0194078,-0.0149199,-1.43943,0.0198755,0.0294099,1994,1044,81.8918,-7.33354
777,-20,81.6567,7.00647,-0.0129302,0.0219248,-0.00899915,0.0241112,-0.0151166,-1.33247,0.0228457,0.0185342,2001,1044,81.6567,-7.0065
784,-20,81.6511,6.77222,-0.0105647,0.0242775,-0.0148766,0.0297651,-0.0160522,-1.21741,0.0268447,0.0235179,2008,1044,81.6512,-6.77217
791,-20,81.8494,6.39685,-0.00715045,0.025739,-0.0225471,0.0372013,-0.0186127,-1.10047,0.0328145,0.0397558,2015,1044,81.8494,-6.39684
798,-20,81.5146,6.05615,-0.00217415,0.0261823,-0.0325146,0.0474755,-0.0234673,-0.990998,0.0417334,0.0455454,2022,1044,81.5147,-6.05616
805,-20,81.1833,5.7467,0.00481543,0.0254376,-0.0450476,0.0613391,-0.0310861,-0.897907,0.0543063,0.0417143,2029,1044,81.1834,-5.7467
812,-20,80.9741,5.20349,0.0137006,0.0227394,-0.0613848,0.079771,-0.043331,-0.822144,0.0721034,0.0414614,2036,1044,80.9742,-5.20346
-700,-27,-65.2666,-4.33008,0.0567591,0.151949,0.198042,0.308034,-0.0993266,0.903325,0.245264,0.0483974,524,1051,-65.2666,4.33004
-693,-27,-65.4191,-2.54846,0.0501431,0.138094,0.171556,0.27122,-0.0829836,0.910863,0.213909,0.0462214,531,1051,-65.4191,2.54852
-686,-27,-65.3723,-0.291504,0.0424096,0.123829,0.145503,0.23421,-0.0679711,0.921804,0.183053,0.0455597,538,1051,-65.3723,0.291546
-679,-27,-64.7381,5.10791,0,0,0,0,0,0,0,-1,545,1051,-64.7381,-5.10795
-672,-27,-64.9413,5.49377,0.0272847,0.0960445,0.099402,0.166844,-0.043515,0.951892,0.12822,0.0441546,552,1051,-64.9414,-5.49382
-665,-27,-65.2955,5.68298,0.020641,0.0827837,0.0793164,0.136898,-0.0334729,0.97208,0.10423,0.0434343,559,1051,-65.2955,-5.68296
-658,-27,-65.7023,5.89746,0.0147656,0.069927,0.0611803,0.109456,-0.0247635,0.997162,0.0824739,0.0455689,566,1051,-65.7023,-5.89747
-651,-27,-65.6287,6.07434,0.00978247,0.0575022,0.0451476,0.084707,-0.0174223,1.02849,0.0630858,0.0388296,573,1051,-65.6287,-6.07434
-644,-27,-65.566,6.2948,0.00539794,0.04516,0.0300245,0.0612891,-0.0107311,1.07784,0.0448663,0.0193689,580,1051,-65.566,-6.29479
-637,-27,-65.6479,6.50574,0.00105537,0.0335212,0.0164692,0.0404127,-0.00583619,1.17448,0.0290831,0.0172918,587,1051,-65.6479,-6.5057
-630,-27,-65.7662,6.92017,-0.00158422,0.0223381,0.00619172,0.0238457,-0.00309179,1.33196,0.0170216,0.0220297,594,1051,-65.7662,-6.92022
-623,-27,-65.845,7.24756,-0.00140881,0.0149305,0.00282611,0.0154055,-0.00188382,1.40427,0.0109524,0.0185618,601,1051,-65.845,-7.24762
-616,-27,-65.8186,7.51709,-0.000667441,0.00980212,0.000370503,0.00981522,-0.000680536,1.53547,0.00678171,0.0156624,608,1051,-65.8186,-7.51712
-609,-27,-65.7929,7.75415,-0.000205015,0.00605959,-0.00173583,0.00650841,-0.000653832,-1.31778,0.00457249,0.01591,615,1051,-65.7929,-7.75411
-602,-27,-65.7779,7.99524,0.00010244,0.00266642,-0.00289576,0.00455128,-0.00178242,-0.993787,0.00377144,0.0144894,622,1051,-65.7779,-7.9952
-595,-27,-65.7484,8.27026,0.000496882,0.000892069,-0.00295503,0.00365611,-0.00226716,-0.818782,0.003451,0.0310938,629,1051,-65.7484,-8.27023
-588,-27,-65.8614,8.57056,0,0,0,0,0,0,0,-1,636,1051,-65.8614,-8.57055
-581,-27,-65.2214,0.427856,0.00106993,-0.000578595,-0.00237136,0.0027562,-0.00226486,-0.618135,0.00290354,0.024784,643,1051,-65.2214,-0.427825
-574,-27,-65.2538,0.380127,0.00111947,-0.000710191,-0.0018767,0.00229244,-0.00188317,-0.558613,0.00241464,0.0351447,650,1051,-65.2538,-0.380135
-567,-27,-65.1652,0.196411,0.000735719,-0.000330931,-0.00106856,0.00139665,-0.000991866,-0.553932,0.0013856,0.0438445,657,1051,-65.1652,-0.196422
-560,-27,-65.0073,0.100098,2.6507e-06,0.000438635,0.000117022,0.000468059,-2.67731e-05,1.32446,0.000321336,0.0458187,664,1051,-65.0073,-0.100147
-553,-27,-64.9503,0.164185,-0.00119486,0.00128389,0.00171427,0.00215988,-0.00207085,1.09839,0.00244279,0.0426099,671,1051,-64.9503,-0.164146
-546,-27,-65.1158,0.34021,-0.00282584,0.00171572,0.00369999,0.00378617,-0.0048963,1.06062,0.00502647,0.0414971,678,1051,-65.1158,-0.340169
-539,-27,-65.278,0.55127,-0.00507481,0.00145888,0.00575286,0.00480775,-0.00842368,1.04363,0.00773367,0.0449688,685,1051,-65.278,-0.551235
-532,-27,-65.4554,0.490601,-0.00756857,0.00131456,0.00757746,0.00565624,-0.0119102,1.05049,0.010354,0.0436059,692,1051,-65.4554,-0.490593
-525,-27,0,0,0,0,0,0,0,0,0,-1,699,1051,0,0
-518,-27,0,0,0,0,0,0,0,0,0,-1,706,1051,0,0
-511,-27,0,0,0,0,0,0,0,0,0,-1,713,1051,0,0
-504,-27,0,0,0,0,0,0,0,0,0,-1,720,1051,0,0
-497,-27,0,0,0,0,0,0,0,0,0,-1,727,1051,0,0
-490,-27,0,0,0,0,0,0,0,0,0,-1,734,1051,0,0
-483,-27,0,0,0,0,0,0,0,0,0,-1,741,1051,0,0
-476,-27,0,0,0,0,0,0,0,0,0,-1,748,1051,0,0
-469,-27,0,0,0,0,0,0,0,0,0,-1,755,1051,0,0
-462,-27,0,0,0,0,0,0,0,0,0,-1,762,1051,0,0
-455,-27,0,0,0,0,0,0,0,0,0,-1,769,1051,0,0
-448,-27,0,0,0,0,0,0,0,0,0,-1,776,1051,0,0
-441,-27,0,0,0,0,0,0,0,0,0,-1,783,1051,0,0
-434,-27,0,0,0,0,0,0,0,0,0,-1,790,1051,0,0
-427,-27,0,0,0,0,0,0,0,0,0,-1,797,1051,0,0
-420,-27,0,0,0,0,0,0,0,0,0,-1,804,1051,0,0
-413,-27,0,0,0,0,0,0,0,0,0,-1,811,1051,0,0
-406,-27,0,0,0,0,0,0,0,0,0,-1,818,1051,0,0
-399,-27,0,0,0,0,0,0,0,0,0,-1,825,1051,0,0
-392,-27,0,0,0,0,0,0,0,0,0,-1,832,1051,0,0
-385,-27,0,0,0,0,0,0,0,0,0,-1,839,1051,0,0
-378,-27,0,0,0,0,0,0,0,0,0,-1,846,1051,0,0
-371,-27,0,0,0,0,0,0,0,0,0,-1,853,1051,0,0
-364,-27,0,0,0,0,0,0,0,0,0,-1,860,1051,0,0
-357,-27,0,0,0,0,0,0,0,0,0,-1,867,1051,0,0
-350,-27,0,0,0,0,0,0,0,0,0,-1,874,1051,0,0
-343,-27,0,0,0,0,0,0,0,0,0,-1,881,1051,0,0
-336,-27,0,0,0,0,0,0,0,0,0,-1,888,1051,0,0
-329,-27,0,0,0,0,0,0,0,0,0,-1,895,1051,0,0
-322,-27,0,0,0,0,0,0,0,0,0,-1,902,1051,0,0
-315,-27,0,0,0,0,0,0,0,0,0,-1,909,1051,0,0
-308,-27,0,0,0,0,0,0,0,0,0,-1,916,1051,0,0
-301,-27,0,0,0,0,0,0,0,0,0,-1,923,1051,0,0
-294,-27,0,0,0,0,0,0,0,0,0,-1,930,1051,0,0
-287,-27,0,0,0,0,0,0,0,0,0,-1,937,1051,0,0
-280,-27,0,0,0,0,0,0,0,0,0,-1,944,1051,0,0
-273,-27,0,0,0,0,0,0,0,0,0,-1,951,1051,0,0
-266,-27,0,0,0,0,0,0,0,0,0,-1,958,1051,0,0
-259,-27,0,0,0,0,0,0,0,0,0,-1,965,1051,0,0
-252,-27,0,0,0,0,0,0,0,0,0,-1,972,1051,0,0
-245,-27,0,0,0,0,0,0,0,0,0,-1,979,1051,0,0
-238,-27,0,0,0,0,0,0,0,0,0,-1,986,1051,0,0
-231,-27,0,0,0,0,0,0,0,0,0,-1,993,1051,0,0
-224,-27,0,0,0,0,0,0,0,0,0,-1,1000,1051,0,0
-217,-27,0,0,0,0,0,0,0,0,0,-1,1007,1051,0,0
-210,-27,0,0,0,0,0,0,0,0,0,-1,1014,1051,0,0
-203,-27,0,0,0,0,0,0,0,0,0,-1,1021,1051,0,0
-196,-27,0,0,0,0,0,0,0,0,0,-1,1028,1051,0,0
-189,-27,0,0,0,0,0,0,0,0,0,-1,1035,1051,0,0
-182,-27,0,0,0,0,0,0,0,0,0,-1,1042,1051,0,0
-175,-27,0,0,0,0,0,0,0,0,0,-1,1049,1051,0,0
-168,-27,0,0,0,0,0,0,0,0,0,-1,1056,1051,0,0
-161,-27,0,0,0,0,0,0,0,0,0,-1,1063,1051,0,0
-154,-27,0,0,0,0,0,0,0,0,0,-1,1070,1051,0,0
-147,-27,0,0,0,0,0,0,0,0,0,-1,1077,1051,0,0
-140,-27,0,0,0,0,0,0,0,0,0,-1,1084,1051,0,0
-133,-27,0,0,0,0,0,0,0,0,0,-1,1091,1051,0,0
-126,-27,0,0,0,0,0,0,0,0,0,-1,1098,1051,0,0
-119,-27,0,0,0,0,0,0,0,0,0,-1,1105,1051,0,0
-112,-27,0,0,0,0,0,0,0,0,0,-1,1112,1051,0,0
-105,-27,0,0,0,0,0,0,0,0,0,-1,1119,1051,0,0
-98,-27,0,0,0,0,0,0,0,0,0,-1,1126,1051,0,0
-91,-27,0,0,0,0,0,0,0,0,0,-1,1133,1051,0,0
-84,-27,0,0,0,0,0,0,0,0,0,-1,1140,1051,0,0
-77,-27,0,0,0,0,0,0,0,0,0,-1,1147,1051,0,0
-70,-27,0,0,0,0,0,0,0,0,0,-1,1154,1051,0,0
-63,-27,0,0,0,0,0,0,0,0,0,-1,1161,1051,0,0
-56,-27,0,0,0,0,0,0,0,0,0,-1,1168,1051,0,0
-49,-27,0,0,0,0,0,0,0,0,0,-1,1175,1051,0,0
-42,-27,0,0,0,0,0,0,0,0,0,-1,1182,1051,0,0
-35,-27,0,0,0,0,0,0,0,0,0,-1,1189,1051,0,0
-28,-27,0,0,0,0,0,0,0,0,0,-1,1196,1051,0,0
-21,-27,0,0,0,0,0,0,0,0,0,-1,1203,1051,0,0
-14,-27,0,0,0,0,0,0,0,0,0,-1,1210,1051,0,0
-7,-27,0,0,0,0,0,0,0,0,0,-1,1217,1051,0,0
0,-27,0,0,0,0,0,0,0,0,0,-1,1224,1051,0,0
7,-27,0,0,0,0,0,0,0,0,0,-1,1231,1051,0,0
14,-27,0,0,0,0,0,0,0,0,0,-1,1238,1051,0,0
21,-27,0,0,0,0,0,0,0,0,0,-1,1245,1051,0,0
28,-27,0,0,0,0,0,0,0,0,0,-1,1252,1051,0,0
35,-27,0,0,0,0,0,0,0,0,0,-1,1259,1051,0,0
42,-27,0,0,0,0,0,0,0,0,0,-1,1266,1051,0,0
49,-27,0,0,0,0,0,0,0,0,0,-1,1273,1051,0,0
56,-27,0,0,0,0,0,0,0,0,0,-1,1280,1051,0,0
63,-27,0,0,0,0,0,0,0,0,0,-1,1287,1051,0,0
70,-27,0,0,0,0,0,0,0,0,0,-1,1294,1051,0,0
77,-27,0,0,0,0,0,0,0,0,0,-1,1301,1051,0,0
84,-27,0,0,0,0,0,0,0,0,0,-1,1308,1051,0,0
91,-27,0,0,0,0,0,0,0,0,0,-1,1315,1051,0,0
98,-27,0,0,0,0,0,0,0,0,0,-1,1322,1051,0,0
105,-27,0,0,0,0,0,0,0,0,0,-1,1329,1051,0,0
112,-27,0,0,0,0,0,0,0,0,0,-1,1336,1051,0,0
119,-27,0,0,0,0,0,0,0,0,0,-1,1343,1051,0,0
126,-27,0,0,0,0,0,0,0,0,0,-1,1350,1051,0,0
133,-27,0,0,0,0,0,0,0,0,0,-1,1357,1051,0,0
140,-27,0,0,0,0,0,0,0,0,0,-1,1364,1051,0,0
147,-27,0,0,0,0,0,0,0,0,0,-1,1371,1051,0,0
154,-27,0,0,0,0,0,0,0,0,0,-1,1378,1051,0,0
161,-27,0,0,0,0,0,0,0,0,0,-1,1385,1051,0,0
168,-27,0,0,0,0,0,0,0,0,0,-1,1392,1051,0,0
175,-27,0,0,0,0,0,0,0,0,0,-1,1399,1051,0,0
182,-27,0,0,0,0,0,0,0,0,0,-1,1406,1051,0,0
189,-27,0,0,0,0,0,0,0,0,0,-1,1413,1051,0,0
196,-27,0,0,0,0,0,0,0,0,0,-1,1420,1051,0,0
203,-27,0,0,0,0,0,0,0,0,0,-1,1427,1051,0,0
210,-27,0,0,0,0,0,0,0,0,0,-1,1434,1051,0,0
217,-27,0,0,0,0,0,0,0,0,0,-1,1441,1051,0,0
224,-27,0,0,0,0,0,0,0,0,0,-1,1448,1051,0,0
231,-27,0,0,0,0,0,0,0,0,0,-1,1455,1051,0,0
238,-27,0,0,0,0,0,0,0,0,0,-1,1462,1051,0,0
245,-27,0,0,0,0,0,0,0,0,0,-1,1469,1051,0,0
252,-27,0,0,0,0,0,0,0,0,0,-1,1476,1051,0,0
259,-27,0,0,0,0,0,0,0,0,0,-1,1483,1051,0,0
266,-27,0,0,0,0,0,0,0,0,0,-1,1490,1051,0,0
273,-27,0,0,0,0,0,0,0,0,0,-1,1497,1051,0,0
280,-27,0,0,0,0,0,0,0,0,0,-1,1504,1051,0,0
287,-27,0,0,0,0,0,0,0,0,0,-1,1511,1051,0,0
294,-27,0,0,0,0,0,0,0,0,0,-1,1518,1051,0,0
301,-27,0,0,0,0,0,0,0,0,0,-1,1525,1051,0,0
308,-27,0,0,0,0,0,0,0,0,0,-1,1532,1051,0,0
315,-27,0,0,0,0,0,0,0,0,0,-1,1539,1051,0,0
322,-27,0,0,0,0,0,0,0,0,0,-1,1546,1051,0,0
329,-27,0,0,0,0,0,0,0,0,0,-1,1553,1051,0,0
336,-27,0,0,0,0,0,0,0,0,0,-1,1560,1051,0,0
343,-27,0,0,0,0,0,0,0,0,0,-1,1567,1051,0,0
350,-27,0,0,0,0,0,0,0,0,0,-1,1574,1051,0,0
357,-27,0,0,0,0,0,0,0,0,0,-1,1581,1051,0,0
364,-27,0,0,0,0,0,0,0,0,0,-1,1588,1051,0,0
371,-27,0,0,0,0,0,0,0,0,0,-1,1595,1051,0,0
378,-27,0,0,0,0,0,0,0,0,0,-1,1602,1051,0,0
385,-27,0,0,0,0,0,0,0,0,0,-1,1609,1051,0,0
392,-27,0,0,0,0,0,0,0,0,0,-1,1616,1051,0,0
399,-27,0,0,0,0,0,0,0,0,0,-1,1623,1051,0,0
406,-27,0,0,0,0,0,0,0,0,0,-1,1630,1051,0,0
413,-27,0,0,0,0,0,0,0,0,0,-1,1637,1051,0,0
420,-27,0,0,0,0,0,0,0,0,0,-1,1644,1051,0,0
427,-27,0,0,0,0,0,0,0,0,0,-1,1651,1051,0,0
434,-27,0,0,0,0,0,0,0,0,0,-1,1658,1051,0,0
441,-27,0,0,0,0,0,0,0,0,0,-1,1665,1051,0,0
448,-27,0,0,0,0,0,0,0,0,0,-1,1672,1051,0,0
455,-27,0,0,0,0,0,0,0,0,0,-1,1679,1051,0,0
462,-27,0,0,0,0,0,0,0,0,0,-1,1686,1051,0,0
469,-27,0,0,0,0,0,0,0,0,0,-1,1693,1051,0,0
476,-27,0,0,0,0,0,0,0,0,0,-1,1700,1051,0,0
483,-27,0,0,0,0,0,0,0,0,0,-1,1707,1051,0,0
490,-27,0,0,0,0,0,0,0,0,0,-1,1714,1051,0,0
497,-27,0,0,0,0,0,0,0,0,0,-1,1721,1051,0,0
504,-27,0,0,0,0,0,0,0,0,0,-1,1728,1051,0,0
511,-27,0,0,0,0,0,0,0,0,0,-1,1735,1051,0,0
518,-27,0,0,0,0,0,0,0,0,0,-1,1742,1051,0,0
525,-27,0,0,0,0,0,0,0,0,0,-1,1749,1051,0,0
532,-27,0,0,0,0,0,0,0,0,0,-1,1756,1051,0,0
539,-27,0,0,0,0,0,0,0,0,0,-1,1763,1051,0,0
546,-27,0,0,0,0,0,0,0,0,0,-1,1770,1051,0,0
553,-27,0,0,0,0,0,0,0,0,0,-1,1777,1051,0,0
560,-27,0,0,0,0,0,0,0,0,0,-1,1784,1051,0,0
567,-27,0,0,0,0,0,0,0,0,0,-1,1791,1051,0,0
574,-27,0,0,0,0,0,0,0,0,0,-1,1798,1051,0,0
581,-27,0,0,0,0,0,0,0,0,0,-1,1805,1051,0,0
588,-27,0,0,0,0,0,0,0,0,0,-1,1812,1051,0,0
595,-27,0,0,0,0,0,0,0,0,0,-1,1819,1051,0,0
602,-27,0,0,0,0,0,0,0,0,0,-1,1826,1051,0,0
609,-27,0,0,0,0,0,0,0,0,0,-1,1833,1051,0,0
616,-27,0,0,0,0,0,0,0,0,0,-1,1840,1051,0,0
623,-27,0,0,0,0,0,0,0,0,0,-1,1847,1051,0,0
630,-27,0,0,0,0,0,0,0,0,0,-1,1854,1051,0,0
637,-27,0,0,0,0,0,0,0,0,0,-1,1861,1051,0,0
644,-27,0,0,0,0,0,0,0,0,0,-1,1868,1051,0,0
651,-27,82.3513,2.60986,-0.00543752,0.00492724,-0.00242695,0.00546737,-0.00597765,-1.35181,0.00660998,0.0400992,1875,1051,82.3513,-2.60991
658,-27,82.1649,2.47144,-0.00376965,0.00326968,-0.00195258,0.00377502,-0.00427498,-1.31755,0.00465066,0.0417689,1882,1051,82.1649,-2.47147
665,-27,82.1285,2.34009,-0.00256862,0.00213391,-0.00143723,0.00253838,-0.00297309,-1.29647,0.00318535,0.0385752,1889,1051,82.1285,-2.34015
672,-27,82.163,2.30164,-0.00169851,0.00143281,-0.000821419,0.00163521,-0.00190091,-1.32921,0.0020435,0.0296913,1896,1051,82.1629,-2.30168
679,-27,82.1272,2.33875,-0.000996194,0.000956893,-0.000181306,0.000973582,-0.00101288,-1.47901,0.00114696,0.0288003,1903,1051,82.1272,-2.33879
686,-27,82.129,2.35364,-0.000950287,0.000370229,0.000400717,0.000482315,-0.00106237,1.29805,0.000912545,0.0400169,1910,1051,82.129,-2.35365
693,-27,82.2012,2.30017,-0.00112639,-0.000130999,0.000888108,0.000389361,-0.00164675,1.04079,0.00124803,0.0447284,1917,1051,82.2012,-2.30013
700,-27,82.198,2.31592,-0.00132964,-0.000483893,0.00134578,0.000503887,-0.00231742,0.937625,0.00173744,0.0408325,1924,1051,82.198,-2.31597
707,-27,82.1178,2.28467,-0.0020885,-0.000259981,0.0016226,0.000688202,-0.00303668,1.04196,0.00228861,0.026473,1931,1051,82.1178,-2.28466
714,-27,82.1611,2.3877,-0.00318505,0.000473055,0.00187792,0.00126546,-0.00397745,1.17151,0.0031591,0.0242463,1938,1051,82.1611,-2.38772
721,-27,82.074,2.58594,0,0,0,0,0,0,0,-1,1945,1051,82.074,-2.58596
728,-27,82.5363,8.47046,0,0,0,0,0,0,0,-1,1952,1051,82.5362,-8.47044
735,-27,82.0812,8.31274,-0.00816195,0.00539762,0.00197171,0.00567851,-0.00844283,1.42929,0.00820487,0.0293755,1959,1051,82.0812,-8.31275
742,-27,81.8612,8.09119,-0.00957731,0.00706589,0.00175522,0.00724899,-0.00976041,1.46686,0.009856,0.0223531,1966,1051,81.8613,-8.09113
749,-27,81.8975,7.76929,-0.0113426,0.00883359,0.00159798,0.00895937,-0.0114684,1.49225,0.0118236,0.0181057,1973,1051,81.8974,-7.7693
756,-27,81.8508,7.5304,-0.0125677,0.0112581,0.000816111,0.011286,-0.0125956,1.5366,0.013795,0.0186758,1980,1051,81.8507,-7.53045
763,-27,81.7231,7.26965,-0.0132817,0.0138358,-0.00127591,0.0138957,-0.0133416,-1.52388,0.0157265,0.0171841,1987,1051,81.7232,-7.26963
770,-27,81.5928,6.99768,-0.0133317,0.0166444,-0.00390971,0.0171459,-0.0138333,-1.44321,0.0179199,0.0174853,1994,1051,81.5929,-6.99774
777,-27,81.4238,6.87732,-0.0118023,0.0191163,-0.00826839,0.0211886,-0.0138746,-1.32523,0.02039,0.0213629,2001,1051,81.4239,-6.87733
784,-27,81.3464,6.77295,-0.00933179,0.0206622,-0.0138461,0.0260766,-0.0147462,-1.19804,0.0238697,0.0327907,2008,1051,81.3465,-6.77296
791,-27,81.4138,6.63257,-0.00580853,0.0210284,-0.0210682,0.0325884,-0.0173685,-1.06896,0.0292854,0.0454251,2015,1051,81.4138,-6.63257
798,-27,81.7578,6.88672,-0.000684595,0.0199649,-0.0304651,0.0418073,-0.022527,-0.948776,0.0376953,0.0466576,2022,1051,81.7578,-6.88669
805,-27,82.2004,6.68518,0.00659403,0.0171921,-0.0423217,0.0545452,-0.0307592,-0.847678,0.0498846,0.0473019,2029,1051,82.2005,-6.68519
812,-27,82.739,6.44641,0.0159935,0.0118027,-0.0578127,0.0717488,-0.0439526,-0.767283,0.0674397,0.0451469,2036,1051,82.7389,-6.44637
-700,-34,-65.3334,-5.60303,0.0576241,0.150536,0.199766,0.309177,-0.101016,0.899644,0.246781,0.0456224,524,1058,-65.3334,5.60298
-693,-34,-65.352,-3.49426,0.0538068,0.136975,0.17471,0.274981,-0.0841995,0.902233,0.216905,0.0444399,531,1058,-65.352,3.49429
-686,-34,-65.4683,-1.38538,0.0473812,0.123101,0.149349,0.239315,-0.0688319,0.909534,0.186764,0.0470448,538,1058,-65.4683,1.3854
-679,-34,-65.6086,0.739868,0,0,0,0,0,0,0,-1,545,1058,-65.6086,-0.7399
-672,-34,-64.8396,5.4884,0,0,0,0,0,0,0,-1,552,1058,-64.8396,-5.48839
-665,-34,-65.3365,4.67017,0,0,0,0,0,0,0,-1,559,1058,-65.3365,-4.67021
-658,-34,-65.3406,5.33862,0.0190278,0.0695333,0.0631798,0.11232,-0.023759,0.97552,0.0839283,0.0474092,566,1058,-65.3406,-5.33861
-651,-34,-65.3018,5.77393,0.0134147,0.0571111,0.0465624,0.0866964,-0.0161706,1.00476,0.0638738,0.0334932,573,1058,-65.3018,-5.77397
-644,-34,-65.355,6.07849,0.00853811,0.0448615,0.0310581,0.0626783,-0.00927874,1.04997,0.0451971,0.0160078,580,1058,-65.355,-6.07846
-637,-34,-65.4155,6.40442,0.00370494,0.033152,0.0172843,0.0411337,-0.0042768,1.13818,0.0289535,0.0175542,587,1058,-65.4155,-6.40436
-630,-34,-65.4604,6.82178,0.000752662,0.022054,0.0068729,0.024079,-0.00127237,1.28426,0.0164932,0.0199863,594,1058,-65.4604,-6.82181
-623,-34,-65.4546,7.16467,0.000235135,0.0147169,0.00300453,0.0153155,-0.000363471,1.37414,0.0103336,0.0156629,601,1058,-65.4546,-7.16467
-616,-34,-65.387,7.55725,0.00049385,0.00945739,0.000297531,0.00946725,0.000483985,1.53765,0.00615652,0.02266,608,1058,-65.3869,-7.55731
-609,-34,-65.3922,7.86621,0.000596322,0.0055345,-0.00194757,0.00621016,-7.93317e-05,-1.23687,0.0041668,0.022476,615,1058,-65.3922,-7.86626
-602,-34,-65.4228,8.10132,0.00074916,0.00200953,-0.00313888,0.00458086,-0.00182217,-0.884465,0.00380944,0.0173143,622,1058,-65.4228,-8.10132
-595,-34,-65.5199,8.37744,0.00109614,0.000214074,-0.00317809,0.00386366,-0.00255344,-0.716452,0.00373057,0.0219178,629,1058,-65.5199,-8.37743
-588,-34,-65.8196,8.63208,0,0,0,0,0,0,0,-1,636,1058,-65.8196,-8.63208
-581,-34,-65.2236,0.504272,0.0016295,-0.00122905,-0.00247851,0.00306131,-0.00266087,-0.523855,0.0033064,0.0269927,643,1058,-65.2236,-0.504286
-574,-34,-65.2449,0.483643,0.00163483,-0.00133757,-0.00192851,0.00258337,-0.0022861,-0.457107,0.00281314,0.0373653,650,1058,-65.2449,-0.483687
-567,-34,-65.1661,0.308228,0.00123076,-0.000942586,-0.0010871,0.00168118,-0.00139301,-0.392799,0.00177748,0.0443033,657,1058,-65.1661,-0.308242
-560,-34,-65.1318,0.214722,0.00048606,-0.000147762,0.000111612,0.00050514,-0.000166842,0.169312,0.000404024,0.04562,664,1058,-65.1318,-0.214663
-553,-34,-65.0927,0.297607,-0.000638627,0.000771987,0.00169773,0.00190508,-0.00177173,0.982272,0.00212327,0.0450927,671,1058,-65.0926,-0.297622
-546,-34,-65.1414,0.414063,-0.00204929,0.00137663,0.00361585,0.00366474,-0.0043374,1.00661,0.00462548,0.0455346,678,1058,-65.1414,-0.41408
-539,-34,-65.1823,0.637817,-0.00388972,0.00134796,0.00555561,0.00487103,-0.00741279,1.00565,0.0071425,0.0442626,685,1058,-65.1822,-0.637759
-532,-34,-65.2399,0.640015,-0.00597566,0.00149237,0.00727975,0.0059399,-0.0104232,1.02237,0.0095647,0.0427098,692,1058,-65.2399,-0.640062
-525,-34,0,0,0,0,0,0,0,0,0,-1,699,1058,0,0
-518,-34,0,0,0,0,0,0,0,0,0,-1,706,1058,0,0
-511,-34,0,0,0,0,0,0,0,0,0,-1,713,1058,0,0
-504,-34,0,0,0,0,0,0,0,0,0,-1,720,1058,0,0
-497,-34,0,0,0,0,0,0,0,0,0,-1,727,1058,0,0
-490,-34,0,0,0,0,0,0,0,0,0,-1,734,1058,0,0
-483,-34,0,0,0,0,0,0,0,0,0,-1,741,1058,0,0
-476,-34,0,0,0,0,0,0,0,0,0,-1,748,1058,0,0
-469,-34,0,0,0,0,0,0,0,0,0,-1,755,1058,0,0
-462,-34,0,0,0,0,0,0,0,0,0,-1,762,1058,0,0
-455,-34,0,0,0,0,0,0,0,0,0,-1,769,1058,0,0
-448,-34,0,0,0,0,0,0,0,0,0,-1,776,1058,0,0
-441,-34,0,0,0,0,0,0,0,0,0,-1,783,1058,0,0
-434,-34,0,0,0,0,0,0,0,0,0,-1,790,1058,0,0
-427,-34,0,0,0,0,0,0,0,0,0,-1,797,1058,0,0
-420,-34,0,0,0,0,0,0,0,0,0,-1,804,1058,0,0
-413,-34,0,0,0,0,0,0,0,0,0,-1,811,1058,0,0
-406,-34,0,0,0,0,0,0,0,0,0,-1,818,1058,0,0
-399,-34,0,0,0,0,0,0,0,0,0,-1,825,1058,0,0
-392,-34,0,0,0,0,0,0,0,0,0,-1,832,1058,0,0
-385,-34,0,0,0,0,0,0,0,0,0,-1,839,1058,0,0
-378,-34,0,0,0,0,0,0,0,0,0,-1,846,1058,0,0
-371,-34,0,0,0,0,0,0,0,0,0,-1,853,1058,0,0
-364,-34,0,0,0,0,0,0,0,0,0,-1,860,1058,0,0
-357,-34,0,0,0,0,0,0,0,0,0,-1,867,1058,0,0
-350,-34,0,0,0,0,0,0,0,0,0,-1,874,1058,0,0
-343,-34,0,0,0,0,0,0,0,0,0,-1,881,1058,0,0
-336,-34,0,0,0,0,0,0,0,0,0,-1,888,1058,0,0
-329,-34,0,0,0,0,0,0,0,0,0,-1,895,1058,0,0
-322,-34,0,0,0,0,0,0,0,0,0,-1,902,1058,0,0
-315,-34,0,0,0,0,0,0,0,0,0,-1,909,1058,0,0
-308,-34,0,0,0,0,0,0,0,0,0,-1,916,1058,0,0
-301,-34,0,0,0,0,0,0,0,0,0,-1,923,1058,0,0
-294,-34,0,0,0,0,0,0,0,0,0,-1,930,1058,0,0
-287,-34,0,0,0,0,0,0,0,0,0,-1,937,1058,0,0
-280,-34,0,0,0,0,0,0,0,0,0,-1,944,1058,0,0
-273,-34,0,0,0,0,0,0,0,0,0,-1,951,1058,0,0
-266,-34,0,0,0,0,0,0,0,0,0,-1,958,1058,0,0
-259,-34,0,0,0,0,0,0,0,0,0,-1,965,1058,0,0
-252,-34,0,0,0,0,0,0,0,0,0,-1,972,1058,0,0
-245,-34,0,0,0,0,0,0,0,0,0,-1,979,1058,0,0
-238,-34,0,0,0,0,0,0,0,0,0,-1,986,1058,0,0
-231,-34,0,0,0,0,0,0,0,0,0,-1,993,1058,0,0
-224,-34,0,0,0,0,0,0,0,0,0,-1,1000,1058,0,0
-217,-34,0,0,0,0,0,0,0,0,0,-1,1007,1058,0,0
-210,-34,0,0,0,0,0,0,0,0,0,-1,1014,1058,0,0
-203,-34,0,0,0,0,0,0,0,0,0,-1,1021,1058,0,0
-196,-34,0,0,0,0,0,0,0,0,0,-1,1028,1058,0,0
-189,-34,0,0,0,0,0,0,0,0,0,-1,1035,1058,0,0
-182,-34,0,0,0,0,0,0,0,0,0,-1,1042,1058,0,0
-175,-34,0,0,0,0,0,0,0,0,0,-1,1049,1058,0,0
-168,-34,0,0,0,0,0,0,0,0,0,-1,1056,1058,0,0
-161,-34,0,0,0,0,0,0,0,0,0,-1,1063,1058,0,0
-154,-34,0,0,0,0,0,0,0,0,0,-1,1070,1058,0,0
-147,-34,0,0,0,0,0,0,0,0,0,-1,1077,1058,0,0
-140,-34,0,0,0,0,0,0,0,0,0,-1,1084,1058,0,0
-133,-34,0,0,0,0,0,0,0,0,0,-1,1091,1058,0,0
-126,-34,0,0,0,0,0,0,0,0,0,-1,1098,1058,0,0
-119,-34,0,0,0,0,0,0,0,0,0,-1,1105,1058,0,0
-112,-34,0,0,0,0,0,0,0,0,0,-1,1112,1058,0,0
-105,-34,0,0,0,0,0,0,0,0,0,-1,1119,1058,0,0
-98,-34,0,0,0,0,0,0,0,0,0,-1,1126,1058,0,0
-91,-34,0,0,0,0,0,0,0,0,0,-1,1133,1058,0,0
-84,-34,0,0,0,0,0,0,0,0,0,-1,1140,1058,0,0
-77,-34,0,0,0,0,0,0,0,0,0,-1,1147,1058,0,0
-70,-34,0,0,0,0,0,0,0,0,0,-1,1154,1058,0,0
-63,-34,0,0,0,0,0,0,0,0,0,-1,1161,1058,0,0
-56,-34,0,0,0,0,0,0,0,0,0,-1,1168,1058,0,0
-49,-34,0,0,0,0,0,0,0,0,0,-1,1175,1058,0,0
-42,-34,0,0,0,0,0,0,0,0,0,-1,1182,1058,0,0
-35,-34,0,0,0,0,0,0,0,0,0,-1,1189,1058,0,0
-28,-34,0,0,0,0,0,0,0,0,0,-1,1196,1058,0,0
-21,-34,0,0,0,0,0,0,0,0,0,-1,1203,1058,0,0
-14,-34,0,0,0,0,0,0,0,0,0,-1,1210,1058,0,0
-7,-34,0,0,0,0,0,0,0,0,0,-1,1217,1058,0,0
0,-34,0,0,0,0,0,0,0,0,0,-1,1224,1058,0,0
7,-34,0,0,0,0,0,0,0,0,0,-1,1231,1058,0,0
14,-34,0,0,0,0,0,0,0,0,0,-1,1238,1058,0,0
21,-34,0,0,0,0,0,0,0,0,0,-1,1245,1058,0,0
28,-34,0,0,0,0,0,0,0,0,0,-1,1252,1058,0,0
35,-34,0,0,0,0,0,0,0,0,0,-1,1259,1058,0,0
42,-34,0,0,0,0,0,0,0,0,0,-1,1266,1058,0,0
49,-34,0,0,0,0,0,0,0,0,0,-1,1273,1058,0,0
56,-34,0,0,0,0,0,0,0,0,0,-1,1280,1058,0,0
63,-34,0,0,0,0,0,0,0,0,0,-1,1287,1058,0,0
70,-34,0,0,0,0,0,0,0,0,0,-1,1294,1058,0,0
77,-34,0,0,0,0,0,0,0,0,0,-1,1301,1058,0,0
84,-34,0,0,0,0,0,0,0,0,0,-1,1308,1058,0,0
91,-34,0,0,0,0,0,0,0,0,0,-1,1315,1058,0,0
98,-34,0,0,0,0,0,0,0,0,0,-1,1322,1058,0,0
105,-34,0,0,0,0,0,0,0,0,0,-1,1329,1058,0,0
112,-34,0,0,0,0,0,0,0,0,0,-1,1336,1058,0,0
119,-34,0,0,0,0,0,0,0,0,0,-1,1343,1058,0,0
126,-34,0,0,0,0,0,0,0,0,0,-1,1350,1058,0,0
133,-34,0,0,0,0,0,0,0,0,0,-1,1357,1058,0,0
140,-34,0,0,0,0,0,0,0,0,0,-1,1364,1058,0,0
147,-34,0,0,0,0,0,0,0,0,0,-1,1371,1058,0,0
154,-34,0,0,0,0,0,0,0,0,0,-1,1378,1058,0,0
161,-34,0,0,0,0,0,0,0,0,0,-1,1385,1058,0,0
168,-34,0,0,0,0,0,0,0,0,0,-1,1392,1058,0,0
175,-34,0,0,0,0,0,0,0,0,0,-1,1399,1058,0,0
182,-34,0,0,0,0,0,0,0,0,0,-1,1406,1058,0,0
189,-34,0,0,0,0,0,0,0,0,0,-1,1413,1058,0,0
196,-34,0,0,0,0,0,0,0,0,0,-1,1420,1058,0,0
203,-34,0,0,0,0,0,0,0,0,0,-1,1427,1058,0,0
210,-34,0,0,0,0,0,0,0,0,0,-1,1434,1058,0,0
217,-34,0,0,0,0,0,0,0,0,0,-1,1441,1058,0,0
224,-34,0,0,0,0,0,0,0,0,0,-1,1448,1058,0,0
231,-34,0,0,0,0,0,0,0,0,0,-1,1455,1058,0,0
238,-34,0,0,0,0,0,0,0,0,0,-1,1462,1058,0,0
245,-34,0,0,0,0,0,0,0,0,0,-1,1469,1058,0,0
252,-34,0,0,0,0,0,0,0,0,0,-1,1476,1058,0,0
259,-34,0,0,0,0,0,0,0,0,0,-1,1483,1058,0,0
266,-34,0,0,0,0,0,0,0,0,0,-1,1490,1058,0,0
273,-34,0,0,0,0,0,0,0,0,0,-1,1497,1058,0,0
280,-34,0,0,0,0,0,0,0,0,0,-1,1504,1058,0,0
287,-34,0,0,0,0,0,0,0,0,0,-1,1511,1058,0,0
294,-34,0,0,0,0,0,0,0,0,0,-1,1518,1058,0,0
301,-34,0,0,0,0,0,0,0,0,0,-1,1525,1058,0,0
308,-34,0,0,0,0,0,0,0,0,0,-1,1532,1058,0,0
315,-34,0,0,0,0,0,0,0,0,0,-1,1539,1058,0,0
322,-34,0,0,0,0,0,0,0,0,0,-1,1546,1058,0,0
329,-34,0,0,0,0,0,0,0,0,0,-1,1553,1058,0,0
336,-34,0,0,0,0,0,0,0,0,0,-1,1560,1058,0,0
343,-34,0,0,0,0,0,0,0,0,0,-1,1567,1058,0,0
350,-34,0,0,0,0,0,0,0,0,0,-1,1574,1058,0,0
357,-34,0,0,0,0,0,0,0,0,0,-1,1581,1058,0,0
364,-34,0,0,0,0,0,0,0,0,0,-1,1588,1058,0,0
371,-34,0,0,0,0,0,0,0,0,0,-1,1595,1058,0,0
378,-34,0,0,0,0,0,0,0,0,0,-1,1602,1058,0,0
385,-34,0,0,0,0,0,0,0,0,0,-1,1609,1058,0,0
392,-34,0,0,0,0,0,0,0,0,0,-1,1616,1058,0,0
399,-34,0,0,0,0,0,0,0,0,0,-1,1623,1058,0,0
406,-34,0,0,0,0,0,0,0,0,0,-1,1630,1058,0,0
413,-34,0,0,0,0,0,0,0,0,0,-1,1637,1058,0,0
420,-34,0,0,0,0,0,0,0,0,0,-1,1644,1058,0,0
427,-34,0,0,0,0,0,0,0,0,0,-1,1651,1058,0,0
434,-34,0,0,0,0,0,0,0,0,0,-1,1658,1058,0,0
441,-34,0,0,0,0,0,0,0,0,0,-1,1665,1058,0,0
448,-34,0,0,0,0,0,0,0,0,0,-1,1672,1058,0,0
455,-34,0,0,0,0,0,0,0,0,0,-1,1679,1058,0,0
462,-34,0,0,0,0,0,0,0,0,0,-1,1686,1058,0,0
469,-34,0,0,0,0,0,0,0,0,0,-1,1693,1058,0,0
476,-34,0,0,0,0,0,0,0,0,0,-1,1700,1058,0,0
483,-34,0,0,0,0,0,0,0,0,0,-1,1707,1058,0,0
490,-34,0,0,0,0,0,0,0,0,0,-1,1714,1058,0,0
497,-34,0,0,0,0,0,0,0,0,0,-1,1721,1058,0,0
504,-34,0,0,0,0,0,0,0,0,0,-1,1728,1058,0,0
511,-34,0,0,0,0,0,0,0,0,0,-1,1735,1058,0,0
518,-34,0,0,0,0,0,0,0,0,0,-1,1742,1058,0,0
525,-34,0,0,0,0,0,0,0,0,0,-1,1749,1058,0,0
532,-34,0,0,0,0,0,0,0,0,0,-1,1756,1058,0,0
539,-34,0,0,0,0,0,0,0,0,0,-1,1763,1058,0,0
546,-34,0,0,0,0,0,0,0,0,0,-1,1770,1058,0,0
553,-34,0,0,0,0,0,0,0,0,0,-1,1777,1058,0,0
560,-34,0,0,0,0,0,0,0,0,0,-1,1784,1058,0,0
567,-34,0,0,0,0,0,0,0,0,0,-1,1791,1058,0,0
574,-34,0,0,0,0,0,0,0,0,0,-1,1798,1058,0,0
581,-34,0,0,0,0,0,0,0,0,0,-1,1805,1058,0,0
588,-34,0,0,0,0,0,0,0,0,0,-1,1812,1058,0,0
595,-34,0,0,0,0,0,0,0,0,0,-1,1819,1058,0,0
602,-34,0,0,0,0,0,0,0,0,0,-1,1826,1058,0,0
609,-34,0,0,0,0,0,0,0,0,0,-1,1833,1058,0,0
616,-34,0,0,0,0,0,0,0,0,0,-1,1840,1058,0,0
623,-34,0,0,0,0,0,0,0,0,0,-1,1847,1058,0,0
630,-34,0,0,0,0,0,0,0,0,0,-1,1854,1058,0,0
637,-34,0,0,0,0,0,0,0,0,0,-1,1861,1058,0,0
644,-34,0,0,0,0,0,0,0,0,0,-1,1868,1058,0,0
651,-34,82.2191,2.54504,-0.00564582,0.00549039,-0.00205358,0.00585701,-0.00601244,-1.39413,0.00685303,0.0399951,1875,1058,82.2191,-2.54509
658,-34,82.0935,2.42346,-0.00388625,0.00369842,-0.00162384,0.00403145,-0.00421928,-1.36851,0.00476398,0.0421587,1882,1058,82.0935,-2.42351
665,-34,82.1813,2.27637,-0.00262822,0.00244134,-0.00118284,0.00270374,-0.00289062,-1.35249,0.0032305,0.041568,1889,1058,82.1813,-2.27637
672,-34,82.2693,2.16113,-0.00172962,0.00167635,-0.000645049,0.00179442,-0.0018477,-1.38976,0.00210285,0.0396338,1896,1058,82.2693,-2.16108
679,-34,82.2451,2.31372,-0.00102292,0.00115838,-9.26761e-05,0.00116231,-0.00102685,-1.52841,0.00126472,0.0380725,1903,1058,82.2451,-2.31374
686,-34,82.192,2.39624,-0.00099958,0.000544218,0.000417881,0.000650074,-0.00110544,1.3227,0.00102485,0.0426524,1910,1058,82.192,-2.39619
693,-34,82.2028,2.3114,-0.00121578,-2.72573e-06,0.000879174,0.000458839,-0.00167735,1.08735,0.00129849,0.0457073,1917,1058,82.2028,-2.31145
700,-34,82.1538,2.25525,-0.0014446,-0.000368402,0.00133754,0.000535221,-0.00234823,0.976644,0.00177106,0.0398037,1924,1058,82.1537,-2.25529
707,-34,82.0787,2.33398,-0.0021427,-0.000275263,0.00167448,0.00070823,-0.00312619,1.03973,0.00235596,0.0249512,1931,1058,82.0788,-2.33398
714,-34,82.0909,2.4491,-0.0031442,0.00031271,0.00199882,0.00122676,-0.00405825,1.14189,0.00319394,0.0222777,1938,1058,82.0909,-2.44906
721,-34,82.0459,2.56982,0,0,0,0,0,0,0,-1,1945,1058,82.0459,-2.56981
728,-34,81.8221,8.64734,0,0,0,0,0,0,0,-1,1952,1058,81.8222,-8.6473
735,-34,81.6873,8.39783,-0.00766312,0.00478892,0.00228976,0.00519662,-0.00807082,1.39459,0.00771965,0.0232183,1959,1058,81.6872,-8.39781
742,-34,81.6003,8.0686,-0.0088781,0.00634887,0.00213822,0.00664342,-0.00917266,1.4339,0.00917026,0.0214111,1966,1058,81.6004,-8.06859
749,-34,81.5654,7.78479,-0.010386,0.00802326,0.00204315,0.0082473,-0.0106101,1.46158,0.0109158,0.0182328,1973,1058,81.5655,-7.78479
756,-34,81.5239,7.45923,-0.0113538,0.01022,0.00135216,0.0103044,-0.0114382,1.50845,0.0125588,0.0137499,1980,1058,81.5238,-7.45917
763,-34,81.4048,7.15918,-0.0118563,0.0125396,-0.000601618,0.0125544,-0.0118711,-1.54616,0.0141039,0.0140075,1987,1058,81.4048,-7.15917
770,-34,81.2268,6.87952,-0.0116711,0.0150985,-0.00315229,0.0154647,-0.0120373,-1.45515,0.0159194,0.0196442,1994,1058,81.2268,-6.87952
777,-34,81.0002,6.69763,-0.00996434,0.0172297,-0.00731398,0.019072,-0.0118067,-1.32404,0.0179915,0.0239388,2001,1058,81.0001,-6.69759
784,-34,80.8076,6.53491,-0.0073633,0.0183331,-0.0125926,0.0234752,-0.0125053,-1.18312,0.0210927,0.0447639,2008,1058,80.8077,-6.53486
791,-34,80.6404,6.36145,0,0,0,0,0,0,0,-1,2015,1058,80.6404,-6.36146
798,-34,81.1643,7.02856,0.00153311,0.0160567,-0.028346,0.0380563,-0.0204665,-0.910793,0.0342931,0.0489384,2022,1058,81.1643,-7.02855
805,-34,81.0115,6.90491,0.00907388,0.0119512,-0.039721,0.0502596,-0.0292344,-0.8035,0.0464279,0.0495854,2029,1058,81.0115,-6.90486
812,-34,80.8159,6.70081,0,0,0,0,0,0,0,-1,2036,1058,80.8158,-6.70085
-700,-41,-65.4989,-6.96155,0.0669452,0.144759,0.194875,0.304573,-0.0928689,0.883928,0.240069,0.0439662,524,1065,-65.4989,6.96156
-693,-41,-65.499,-4.64771,0.0647213,0.132077,0.171249,0.272929,-0.0761303,0.88249,0.211937,0.0421963,531,1065,-65.499,4.6477
-686,-41,-65.6744,-2.41052,0.0584577,0.119133,0.147094,0.238986,-0.0613947,0.887096,0.18325,0.0439166,538,1065,-65.6744,2.41047
-679,-41,-65.9793,-1.03442,0,0,0,0,0,0,0,-1,545,1065,-65.9793,1.03444
-672,-41,-65.5931,0.412354,0,0,0,0,0,0,0,-1,552,1065,-65.5931,-0.412394
-665,-41,-65.0744,2.67419,0,0,0,0,0,0,0,-1,559,1065,-65.0744,-2.6742
-658,-41,-64.8764,3.98169,0.0258867,0.0679586,0.0631826,0.113515,-0.0196698,0.946096,0.0830138,0.0432782,566,1065,-64.8764,-3.9817
-651,-41,-64.7129,5.41479,0.0189,0.0558587,0.0467397,0.0876396,-0.0128808,0.973651,0.0631593,0.0334428,573,1065,-64.7129,-5.41478
-644,-41,-64.952,5.94495,0.0129796,0.0439557,0.0314435,0.0635187,-0.00658333,1.01424,0.0447021,0.017401,580,1065,-64.952,-5.94492
-637,-41,-65.0447,6.30945,0.00719056,0.0323979,0.0179109,0.0416952,-0.00210677,1.092,0.028525,0.0193958,587,1065,-65.0447,-6.3095
-630,-41,-65.0527,6.71082,0.00329766,0.021527,0.00763696,0.0243035,0.000521135,1.22209,0.0160314,0.0178667,594,1065,-65.0527,-6.71087
-623,-41,-65.0341,7.11511,0.00176031,0.0142407,0.00334374,0.0150801,0.000920909,1.32484,0.00976089,0.0137427,601,1065,-65.034,-7.1151
-616,-41,-65.0192,7.57117,0.00141057,0.0089208,0.000398334,0.00894187,0.0013895,1.51796,0.0055563,0.0182417,608,1065,-65.0193,-7.57114
-609,-41,-65.0248,7.95679,0.00109723,0.00486043,-0.00195772,0.00569417,0.000263487,-1.16819,0.0037114,0.0252549,615,1065,-65.0248,-7.95676
-602,-41,-65.063,8.24573,0.00112322,0.00132449,-0.00315135,0.00437681,-0.0019291,-0.80136,0.00373102,0.0154573,622,1065,-65.063,-8.24577
-595,-41,-65.1719,8.4834,0.00144395,-0.000407078,-0.00320174,0.00385125,-0.00281439,-0.644701,0.0038639,0.0263125,629,1065,-65.1719,-8.4834
-588,-41,-65.5789,8.56055,0,0,0,0,0,0,0,-1,636,1065,-65.5789,-8.56055
-581,-41,-65.2261,0.538818,0.00191916,-0.00176129,-0.00240683,0.00310866,-0.0029508,-0.459013,0.00349883,0.0393607,643,1065,-65.2262,-0.538858
-574,-41,-65.2726,0.603271,0.00189408,-0.00181909,-0.00181093,0.00263102,-0.00255603,-0.386475,0.00299485,0.0402443,650,1065,-65.2726,-0.603281
-567,-41,-65.2527,0.435059,0.00149591,-0.00137198,-0.000938987,0.00177599,-0.00165206,-0.289881,0.00197962,0.0444808,657,1065,-65.2527,-0.435109
-560,-41,-65.2907,0.291504,0.000771233,-0.000484253,0.000279264,0.000830549,-0.000543569,0.20929,0.000799094,0.0450007,664,1065,-65.2907,-0.29149
-553,-41,-65.1722,0.306274,-0.000260899,0.000620476,0.00187829,0.00210909,-0.00174951,0.900625,0.00223098,0.0447572,671,1065,-65.1722,-0.306234
-546,-41,-65.0953,0.450928,-0.00147807,0.00155766,0.00380783,0.004139,-0.00405941,0.975054,0.00473343,0.0439959,678,1065,-65.0953,-0.450962
-539,-41,-65.1114,0.641968,-0.00300437,0.00192481,0.00580462,0.0057664,-0.00684595,0.98616,0.00729063,0.0413737,685,1065,-65.1114,-0.642018
-532,-41,-65.1462,0.785522,-0.00477936,0.00251003,0.00762112,0.00731313,-0.00958246,1.00844,0.00978396,0.0382532,692,1065,-65.1462,-0.785555
-525,-41,0,0,0,0,0,0,0,0,0,-1,699,1065,0,0
-518,-41,0,0,0,0,0,0,0,0,0,-1,706,1065,0,0
-511,-41,0,0,0,0,0,0,0,0,0,-1,713,1065,0,0
-504,-41,0,0,0,0,0,0,0,0,0,-1,720,1065,0,0
-497,-41,0,0,0,0,0,0,0,0,0,-1,727,1065,0,0
-490,-41,0,0,0,0,0,0,0,0,0,-1,734,1065,0,0
-483,-41,0,0,0,0,0,0,0,0,0,-1,741,1065,0,0
-476,-41,0,0,0,0,0,0,0,0,0,-1,748,1065,0,0
-469,-41,0,0,0,0,0,0,0,0,0,-1,755,1065,0,0
-462,-41,0,0,0,0,0,0,0,0,0,-1,762,1065,0,0
-455,-41,0,0,0,0,0,0,0,0,0,-1,769,1065,0,0
-448,-41,0,0,0,0,0,0,0,0,0,-1,776,1065,0,0
-441,-41,0,0,0,0,0,0,0,0,0,-1,783,1065,0,0
-434,-41,0,0,0,0,0,0,0,0,0,-1,790,1065,0,0
-427,-41,0,0,0,0,0,0,0,0,0,-1,797,1065,0,0
-420,-41,0,0,0,0,0,0,0,0,0,-1,804,1065,0,0
-413,-41,0,0,0,0,0,0,0,0,0,-1,811,1065,0,0
-406,-41,0,0,0,0,0,0,0,0,0,-1,818,1065,0,0
-399,-41,0,0,0,0,0,0,0,0,0,-1,825,1065,0,0
-392,-41,0,0,0,0,0,0,0,0,0,-1,832,1065,0,0
-385,-41,0,0,0,0,0,0,0,0,0,-1,839,1065,0,0
-378,-41,0,0,0,0,0,0,0,0,0,-1,846,1065,0,0
-371,-41,0,0,0,0,0,0,0,0,0,-1,853,1065,0,0
-364,-41,0,0,0,0,0,0,0,0,0,-1,860,1065,0,0
-357,-41,0,0,0,0,0,0,0,0,0,-1,867,1065,0,0
-350,-41,0,0,0,0,0,0,0,0,0,-1,874,1065,0,0
-343,-41,0,0,0,0,0,0,0,0,0,-1,881,1065,0,0
-336,-41,0,0,0,0,0,0,0,0,0,-1,888,1065,0,0
-329,-41,0,0,0,0,0,0,0,0,0,-1,895,1065,0,0
-322,-41,0,0,0,0,0,0,0,0,0,-1,902,1065,0,0
-315,-41,0,0,0,0,0,0,0,0,0,-1,909,1065,0,0
-308,-41,0,0,0,0,0,0,0,0,0,-1,916,1065,0,0
-301,-41,0,0,0,0,0,0,0,0,0,-1,923,1065,0,0
-294,-41,0,0,0,0,0,0,0,0,0,-1,930,1065,0,0
-287,-41,0,0,0,0,0,0,0,0,0,-1,937,1065,0,0
-280,-41,0,0,0,0,0,0,0,0,0,-1,944,1065,0,0
-273,-41,0,0,0,0,0,0,0,0,0,-1,951,1065,0,0
-266,-41,0,0,0,0,0,0,0,0,0,-1,958,1065,0,0
-259,-41,0,0,0,0,0,0,0,0,0,-1,965,1065,0,0
-252,-41,0,0,0,0,0,0,0,0,0,-1,972,1065,0,0
-245,-41,0,0,0,0,0,0,0,0,0,-1,979,1065,0,0
-238,-41,0,0,0,0,0,0,0,0,0,-1,986,1065,0,0
-231,-41,0,0,0,0,0,0,0,0,0,-1,993,1065,0,0
-224,-41,0,0,0,0,0,0,0,0,0,-1,1000,1065,0,0
-217,-41,0,0,0,0,0,0,0,0,0,-1,1007,1065,0,0
-210,-41,0,0,0,0,0,0,0,0,0,-1,1014,1065,0,0
-203,-41,0,0,0,0,0,0,0,0,0,-1,1021,1065,0,0
-196,-41,0,0,0,0,0,0,0,0,0,-1,1028,1065,0,0
-189,-41,0,0,0,0,0,0,0,0,0,-1,1035,1065,0,0
-182,-41,0,0,0,0,0,0,0,0,0,-1,1042,1065,0,0
-175,-41,0,0,0,0,0,0,0,0,0,-1,1049,1065,0,0
-168,-41,0,0,0,0,0,0,0,0,0,-1,1056,1065,0,0
-161,-41,0,0,0,0,0,0,0,0,0,-1,1063,1065,0,0
-154,-41,0,0,0,0,0,0,0,0,0,-1,1070,1065,0,0
-147,-41,0,0,0,0,0,0,0,0,0,-1,1077,1065,0,0
-140,-41,0,0,0,0,0,0,0,0,0,-1,1084,1065,0,0
-133,-41,0,0,0,0,0,0,0,0,0,-1,1091,1065,0,0
-126,-41,0,0,0,0,0,0,0,0,0,-1,1098,1065,0,0
-119,-41,0,0,0,0,0,0,0,0,0,-1,1105,1065,0,0
-112,-41,0,0,0,0,0,0,0,0,0,-1,1112,1065,0,0
-105,-41,0,0,0,0,0,0,0,0,0,-1,1119,1065,0,0
-98,-41,0,0,0,0,0,0,0,0,0,-1,1126,1065,0,0
-91,-41,0,0,0,0,0,0,0,0,0,-1,1133,1065,0,0
-84,-41,0,0,0,0,0,0,0,0,0,-1,1140,1065,0,0
-77,-41,0,0,0,0,0,0,0,0,0,-1,1147,1065,0,0
-70,-41,0,0,0,0,0,0,0,0,0,-1,1154,1065,0,0
-63,-41,0,0,0,0,0,0,0,0,0,-1,1161,1065,0,0
-56,-41,0,0,0,0,0,0,0,0,0,-1,1168,1065,0,0
-49,-41,0,0,0,0,0,0,0,0,0,-1,1175,1065,0,0
-42,-41,0,0,0,0,0,0,0,0,0,-1,1182,1065,0,0
-35,-41,0,0,0,0,0,0,0,0,0,-1,1189,1065,0,0
-28,-41,0,0,0,0,0,0,0,0,0,-1,1196,1065,0,0
-21,-41,0,0,0,0,0,0,0,0,0,-1,1203,1065,0,0
-14,-41,0,0,0,0,0,0,0,0,0,-1,1210,1065,0,0
-7,-41,0,0,0,0,0,0,0,0,0,-1,1217,1065,0,0
0,-41,0,0,0,0,0,0,0,0,0,-1,1224,1065,0,0
7,-41,0,0,0,0,0,0,0,0,0,-1,1231,1065,0,0
14,-41,0,0,0,0,0,0,0,0,0,-1,1238,1065,0,0
21,-41,0,0,0,0,0,0,0,0,0,-1,1245,1065,0,0
28,-41,0,0,0,0,0,0,0,0,0,-1,1252,1065,0,0
35,-41,0,0,0,0,0,0,0,0,0,-1,1259,1065,0,0
42,-41,0,0,0,0,0,0,0,0,0,-1,1266,1065,0,0
49,-41,0,0,0,0,0,0,0,0,0,-1,1273,1065,0,0
56,-41,0,0,0,0,0,0,0,0,0,-1,1280,1065,0,0
63,-41,0,0,0,0,0,0,0,0,0,-1,1287,1065,0,0
70,-41,0,0,0,0,0,0,0,0,0,-1,1294,1065,0,0
77,-41,0,0,0,0,0,0,0,0,0,-1,1301,1065,0,0
84,-41,0,0,0,0,0,0,0,0,0,-1,1308,1065,0,0
91,-41,0,0,0,0,0,0,0,0,0,-1,1315,1065,0,0
98,-41,0,0,0,0,0,0,0,0,0,-1,1322,1065,0,0
105,-41,0,0,0,0,0,0,0,0,0,-1,1329,1065,0,0
112,-41,0,0,0,0,0,0,0,0,0,-1,1336,1065,0,0
119,-41,0,0,0,0,0,0,0,0,0,-1,1343,1065,0,0
126,-41,0,0,0,0,0,0,0,0,0,-1,1350,1065,0,0
133,-41,0,0,0,0,0,0,0,0,0,-1,1357,1065,0,0
140,-41,0,0,0,0,0,0,0,0,0,-1,1364,1065,0,0
147,-41,0,0,0,0,0,0,0,0,0,-1,1371,1065,0,0
154,-41,0,0,0,0,0,0,0,0,0,-1,1378,1065,0,0
161,-41,0,0,0,0,0,0,0,0,0,-1,1385,1065,0,0
168,-41,0,0,0,0,0,0,0,0,0,-1,1392,1065,0,0
175,-41,0,0,0,0,0,0,0,0,0,-1,1399,1065,0,0
182,-41,0,0,0,0,0,0,0,0,0,-1,1406,1065,0,0
189,-41,0,0,0,0,0,0,0,0,0,-1,1413,1065,0,0
196,-41,0,0,0,0,0,0,0,0,0,-1,1420,1065,0,0
203,-41,0,0,0,0,0,0,0,0,0,-1,1427,1065,0,0
210,-41,0,0,0,0,0,0,0,0,0,-1,1434,1065,0,0
217,-41,0,0,0,0,0,0,0,0,0,-1,1441,1065,0,0
224,-41,0,0,0,0,0,0,0,0,0,-1,1448,1065,0,0
231,-41,0,0,0,0,0,0,0,0,0,-1,1455,1065,0,0
238,-41,0,0,0,0,0,0,0,0,0,-1,1462,1065,0,0
245,-41,0,0,0,0,0,0,0,0,0,-1,1469,1065,0,0
252,-41,0,0,0,0,0,0,0,0,0,-1,1476,1065,0,0
259,-41,0,0,0,0,0,0,0,0,0,-1,1483,1065,0,0
266,-41,0,0,0,0,0,0,0,0,0,-1,1490,1065,0,0
273,-41,0,0,0,0,0,0,0,0,0,-1,1497,1065,0,0
280,-41,0,0,0,0,0,0,0,0,0,-1,1504,1065,0,0
287,-41,0,0,0,0,0,0,0,0,0,-1,1511,1065,0,0
294,-41,0,0,0,0,0,0,0,0,0,-1,1518,1065,0,0
301,-41,0,0,0,0,0,0,0,0,0,-1,1525,1065,0,0
308,-41,0,0,0,0,0,0,0,0,0,-1,1532,1065,0,0
315,-41,0,0,0,0,0,0,0,0,0,-1,1539,1065,0,0
322,-41,0,0,0,0,0,0,0,0,0,-1,1546,1065,0,0
329,-41,0,0,0,0,0,0,0,0,0,-1,1553,1065,0,0
336,-41,0,0,0,0,0,0,0,0,0,-1,1560,1065,0,0
343,-41,0,0,0,0,0,0,0,0,0,-1,1567,1065,0,0
350,-41,0,0,0,0,0,0,0,0,0,-1,1574,1065,0,0
357,-41,0,0,0,0,0,0,0,0,0,-1,1581,1065,0,0
364,-41,0,0,0,0,0,0,0,0,0,-1,1588,1065,0,0
371,-41,0,0,0,0,0,0,0,0,0,-1,1595,1065,0,0
378,-41,0,0,0,0,0,0,0,0,0,-1,1602,1065,0,0
385,-41,0,0,0,0,0,0,0,0,0,-1,1609,1065,0,0
392,-41,0,0,0,0,0,0,0,0,0,-1,1616,1065,0,0
399,-41,0,0,0,0,0,0,0,0,0,-1,1623,1065,0,0
406,-41,0,0,0,0,0,0,0,0,0,-1,1630,1065,0,0
413,-41,0,0,0,0,0,0,0,0,0,-1,1637,1065,0,0
420,-41,0,0,0,0,0,0,0,0,0,-1,1644,1065,0,0
427,-41,0,0,0,0,0,0,0,0,0,-1,1651,1065,0,0
434,-41,0,0,0,0,0,0,0,0,0,-1,1658,1065,0,0
441,-41,0,0,0,0,0,0,0,0,0,-1,1665,1065,0,0
448,-41,0,0,0,0,0,0,0,0,0,-1,1672,1065,0,0
455,-41,0,0,0,0,0,0,0,0,0,-1,1679,1065,0,0
462,-41,0,0,0,0,0,0,0,0,0,-1,1686,1065,0,0
469,-41,0,0,0,0,0,0,0,0,0,-1,1693,1065,0,0
476,-41,0,0,0,0,0,0,0,0,0,-1,1700,1065,0,0
483,-41,0,0,0,0,0,0,0,0,0,-1,1707,1065,0,0
490,-41,0,0,0,0,0,0,0,0,0,-1,1714,1065,0,0
497,-41,0,0,0,0,0,0,0,0,0,-1,1721,1065,0,0
504,-41,0,0,0,0,0,0,0,0,0,-1,1728,1065,0,0
511,-41,0,0,0,0,0,0,0,0,0,-1,1735,1065,0,0
518,-41,0,0,0,0,0,0,0,0,0,-1,1742,1065,0,0
525,-41,0,0,0,0,0,0,0,0,0,-1,1749,1065,0,0
532,-41,0,0,0,0,0,0,0,0,0,-1,1756,1065,0,0
539,-41,0,0,0,0,0,0,0,0,0,-1,1763,1065,0,0
546,-41,0,0,0,0,0,0,0,0,0,-1,1770,1065,0,0
553,-41,0,0,0,0,0,0,0,0,0,-1,1777,1065,0,0
560,-41,0,0,0,0,0,0,0,0,0,-1,1784,1065,0,0
567,-41,0,0,0,0,0,0,0,0,0,-1,1791,1065,0,0
574,-41,0,0,0,0,0,0,0,0,0,-1,1798,1065,0,0
581,-41,0,0,0,0,0,0,0,0,0,-1,1805,1065,0,0
588,-41,0,0,0,0,0,0,0,0,0,-1,1812,1065,0,0
595,-41,0,0,0,0,0,0,0,0,0,-1,1819,1065,0,0
602,-41,0,0,0,0,0,0,0,0,0,-1,1826,1065,0,0
609,-41,0,0,0,0,0,0,0,0,0,-1,1833,1065,0,0
616,-41,0,0,0,0,0,0,0,0,0,-1,1840,1065,0,0
623,-41,0,0,0,0,0,0,0,0,0,-1,1847,1065,0,0
630,-41,0,0,0,0,0,0,0,0,0,-1,1854,1065,0,0
637,-41,0,0,0,0,0,0,0,0,0,-1,1861,1065,0,0
644,-41,0,0,0,0,0,0,0,0,0,-1,1868,1065,0,0
651,-41,82.0239,2.32092,-0.0053674,0.00622438,-0.00191384,0.00653218,-0.00567521,-1.41133,0.00705373,0.0356928,1875,1065,82.024,-2.32088
658,-41,82.0266,2.22766,-0.00368454,0.0043356,-0.00141191,0.0045769,-0.00392584,-1.40153,0.00491385,0.0397958,1882,1065,82.0266,-2.22763
665,-41,82.2167,2.22021,-0.00247872,0.00296517,-0.000977639,0.00313542,-0.00264897,-1.39839,0.00334355,0.0409316,1889,1065,82.2166,-2.22017
672,-41,82.261,2.24573,-0.00161423,0.00209456,-0.000491352,0.00215855,-0.00167822,-1.44129,0.00222094,0.0426233,1896,1065,82.261,-2.24578
679,-41,82.3029,2.31006,-0.000943983,0.00147878,-2.02228e-05,0.00147895,-0.000944151,-1.56245,0.00141029,0.0402836,1903,1065,82.3029,-2.31002
686,-41,82.2156,2.26587,-0.000932193,0.000810537,0.000384616,0.000891646,-0.0010133,1.36296,0.00110057,0.0396196,1910,1065,82.2156,-2.26583
693,-41,82.1283,2.3197,-0.00113501,0.000209933,0.000771534,0.000560928,-0.001486,1.14385,0.00122136,0.0454045,1917,1065,82.1283,-2.3197
700,-41,82.0948,2.32263,-0.00133934,-0.000163236,0.00120639,0.00059079,-0.00209337,1.01218,0.00162863,0.0397395,1924,1065,82.0949,-2.32257
707,-41,82.099,2.28699,-0.00194877,-0.000183116,0.00157511,0.000739706,-0.00287159,1.04083,0.00220276,0.0270103,1931,1065,82.099,-2.28699
714,-41,82.1143,2.35303,-0.0028164,0.000253071,0.00193329,0.00118674,-0.00375008,1.12089,0.00297559,0.0286284,1938,1065,82.1142,-2.35306
721,-41,82.116,2.44934,0,0,0,0,0,0,0,-1,1945,1065,82.116,-2.44939
728,-41,81.3878,8.74805,0,0,0,0,0,0,0,-1,1952,1065,81.3878,-8.74806
735,-41,81.2791,8.37366,-0.00684237,0.00417258,0.00239429,0.00467051,-0.0073403,1.36575,0.00699131,0.025868,1959,1065,81.279,-8.37361
742,-41,81.2009,7.98413,-0.00782348,0.0056207,0.00232902,0.00601273,-0.00821552,1.40403,0.00824743,0.023288,1966,1065,81.2009,-7.98412
749,-41,81.1628,7.75269,-0.0090716,0.00723657,0.00230544,0.00755622,-0.00939124,1.43303,0.00980372,0.0195234,1973,1065,81.1629,-7.75269
756,-41,81.1665,7.46167,-0.00980826,0.00934625,0.00165666,0.00948848,-0.00995049,1.48515,0.0112241,0.016009,1980,1065,81.1665,-7.46172
763,-41,81.0264,7.07739,-0.0101273,0.0116125,-0.000153295,0.0116136,-0.0101284,-1.56375,0.0125625,0.0135029,1987,1065,81.0264,-7.07743
770,-41,80.8381,6.7478,-0.00971999,0.0142203,-0.00268032,0.0145167,-0.0100164,-1.46065,0.0142434,0.0155394,1994,1065,80.8381,-6.74775
777,-41,80.6135,6.41492,-0.00790497,0.0165004,-0.00673798,0.0182371,-0.00964165,-1.31854,0.0163488,0.0198255,2001,1065,80.6135,-6.41497
784,-41,80.498,6.00964,-0.00522133,0.0178234,-0.0118741,0.0228467,-0.0102446,-1.17058,0.0195616,0.032283,2008,1065,80.498,-6.00964
791,-41,80.7996,6.12219,0,0,0,0,0,0,0,-1,2015,1065,80.7995,-6.12214
798,-41,80.3193,7.06323,0,0,0,0,0,0,0,-1,2022,1065,80.3193,-7.06328
805,-41,79.8994,6.87415,0,0,0,0,0,0,0,-1,2029,1065,79.8994,-6.87416
812,-41,80.1431,4.48511,0,0,0,0,0,0,0,-1,2036,1065,80.1429,-4.48512
-700,-48,-65.9241,-7.32068,0.0792194,0.135554,0.187252,0.296745,-0.0819714,0.860051,0.230074,0.0492749,524,1072,-65.9241,7.32066
-693,-48,-65.7946,-5.35681,0.0776743,0.124335,0.165333,0.267975,-0.0659664,0.855491,0.204222,0.0437861,531,1072,-65.7945,5.35685
-686,-48,-65.8603,-3.42004,0.0709077,0.11256,0.142662,0.235908,-0.0524408,0.857877,0.177356,0.0468327,538,1072,-65.8603,3.42001
-679,-48,-65.9149,-1.67249,0,0,0,0,0,0,0,-1,545,1072,-65.9149,1.67246
-672,-48,-65.6738,-0.31665,0,0,0,0,0,0,0,-1,552,1072,-65.6738,0.316685
-665,-48,-65.282,1.25745,0.0421004,0.0768264,0.0802464,0.141567,-0.02264,0.891942,0.102759,0.0451368,559,1072,-65.282,-1.25742
-658,-48,-64.7623,2.85193,0.0327218,0.0651409,0.0623177,0.113323,-0.01546,0.912634,0.0811939,0.0445133,566,1072,-64.7623,-2.85191
-651,-48,-64.2709,4.69397,0.0241753,0.0536754,0.046279,0.0874981,-0.00964739,0.939669,0.0617994,0.0443096,573,1072,-64.2709,-4.694
-644,-48,-64.3998,5.90137,0.017056,0.0423447,0.0313267,0.0634826,-0.00408188,0.977214,0.0437459,0.0261497,580,1072,-64.3999,-5.90135
-637,-48,-64.4861,6.1676,0.0102124,0.0311617,0.0181533,0.0416455,-0.000271492,1.04707,0.0278546,0.0277076,587,1072,-64.4861,-6.16766
-630,-48,-64.5497,6.61389,0.00525277,0.0207105,0.00808481,0.0241664,0.00179685,1.16684,0.0155466,0.0327766,594,1072,-64.5498,-6.61394
-623,-48,-64.6531,7.04041,0.00273014,0.0135592,0.00349212,0.0145877,0.00170168,1.28439,0.00921044,0.0143993,601,1072,-64.6531,-7.04038
-616,-48,-64.655,7.47729,0.00189444,0.00822839,0.000420909,0.00825624,0.00186659,1.50473,0.0049995,0.0127438,608,1072,-64.655,-7.47724
-609,-48,-64.6119,7.953,0.00125919,0.00409775,-0.00194382,0.00508529,0.000271654,-1.10074,0.00330337,0.0148271,615,1072,-64.6119,-7.95304
-602,-48,-64.5908,8.34082,0.00119749,0.000669333,-0.00310218,0.00404681,-0.00217998,-0.742937,0.0036485,0.015102,622,1072,-64.5908,-8.34079
-595,-48,-64.5948,8.65112,0.00151006,-0.000946095,-0.00316605,0.00367787,-0.0031139,-0.600387,0.00392573,0.0364388,629,1072,-64.5948,-8.65113
-588,-48,-64.8448,8.86816,0,0,0,0,0,0,0,-1,636,1072,-64.8448,-8.86818
-581,-48,-65.2429,0.572998,0,0,0,0,0,0,0,-1,643,1072,-65.2428,-0.572992
-574,-48,-65.2109,0.56189,0,0,0,0,0,0,0,-1,650,1072,-65.2109,-0.561884
-567,-48,-65.2599,0.499146,0.00153106,-0.00174819,-0.000805796,0.00171836,-0.00193549,-0.228393,0.0021108,0.0405643,657,1072,-65.26,-0.499151
-560,-48,-65.3971,0.386963,0.00086699,-0.000781404,0.000381916,0.000951177,-0.000865591,0.216962,0.0010493,0.0403373,664,1072,-65.3971,-0.387007
-553,-48,-65.4008,0.424072,-4.39012e-05,0.000481101,0.00196123,0.00219732,-0.00176012,0.851925,0.00228948,0.042068,671,1072,-65.4008,-0.424037
-546,-48,-65.2045,0.51001,-0.00106926,0.0017273,0.00390752,0.00447919,-0.00382115,0.957221,0.00479722,0.0427339,678,1072,-65.2045,-0.509974
-539,-48,-65.1019,0.673706,-0.00229206,0.00246886,0.00600314,0.00654629,-0.00636948,0.974156,0.00745716,0.0417265,685,1072,-65.1019,-0.673727
-532,-48,-65.1365,0.632202,-0.00377043,0.00347282,0.00796719,0.00860289,-0.0089005,0.998721,0.0101061,0.0374543,692,1072,-65.1365,-0.632188
-525,-48,0,0,0,0,0,0,0,0,0,-1,699,1072,0,0
-518,-48,0,0,0,0,0,0,0,0,0,-1,706,1072,0,0
-511,-48,0,0,0,0,0,0,0,0,0,-1,713,1072,0,0
-504,-48,0,0,0,0,0,0,0,0,0,-1,720,1072,0,0
-497,-48,0,0,0,0,0,0,0,0,0,-1,727,1072,0,0
-490,-48,0,0,0,0,0,0,0,0,0,-1,734,1072,0,0
-483,-48,0,0,0,0,0,0,0,0,0,-1,741,1072,0,0
-476,-48,0,0,0,0,0,0,0,0,0,-1,748,1072,0,0
-469,-48,0,0,0,0,0,0,0,0,0,-1,755,1072,0,0
-462,-48,0,0,0,0,0,0,0,0,0,-1,762,1072,0,0
-455,-48,0,0,0,0,0,0,0,0,0,-1,769,1072,0,0
-448,-48,0,0,0,0,0,0,0,0,0,-1,776,1072,0,0
-441,-48,0,0,0,0,0,0,0,0,0,-1,783,1072,0,0
-434,-48,0,0,0,0,0,0,0,0,0,-1,790,1072,0,0
-427,-48,0,0,0,0,0,0,0,0,0,-1,797,1072,0,0
-420,-48,0,0,0,0,0,0,0,0,0,-1,804,1072,0,0
-413,-48,0,0,0,0,0,0,0,0,0,-1,811,1072,0,0
-406,-48,0,0,0,0,0,0,0,0,0,-1,818,1072,0,0
-399,-48,0,0,0,0,0,0,0,0,0,-1,825,1072,0,0
-392,-48,0,0,0,0,0,0,0,0,0,-1,832,1072,0,0
-385,-48,0,0,0,0,0,0,0,0,0,-1,839,1072,0,0
-378,-48,0,0,0,0,0,0,0,0,0,-1,846,1072,0,0
-371,-48,0,0,0,0,0,0,0,0,0,-1,853,1072,0,0
-364,-48,0,0,0,0,0,0,0,0,0,-1,860,1072,0,0
-357,-48,0,0,0,0,0,0,0,0,0,-1,867,1072,0,0
-350,-48,0,0,0,0,0,0,0,0,0,-1,874,1072,0,0
-343,-48,0,0,0,0,0,0,0,0,0,-1,881,1072,0,0
-336,-48,0,0,0,0,0,0,0,0,0,-1,888,1072,0,0
-329,-48,0,0,0,0,0,0,0,0,0,-1,895,1072,0,0
-322,-48,0,0,0,0,0,0,0,0,0,-1,902,1072,0,0
-315,-48,0,0,0,0,0,0,0,0,0,-1,909,1072,0,0
-308,-48,0,0,0,0,0,0,0,0,0,-1,916,1072,0,0
-301,-48,0,0,0,0,0,0,0,0,0,-1,923,1072,0,0
-294,-48,0,0,0,0,0,0,0,0,0,-1,930,1072,0,0
-287,-48,0,0,0,0,0,0,0,0,0,-1,937,1072,0,0
-280,-48,0,0,0,0,0,0,0,0,0,-1,944,1072,0,0
-273,-48,0,0,0,0,0,0,0,0,0,-1,951,1072,0,0
-266,-48,0,0,0,0,0,0,0,0,0,-1,958,1072,0,0
-259,-48,0,0,0,0,0,0,0,0,0,-1,965,1072,0,0
-252,-48,0,0,0,0,0,0,0,0,0,-1,972,1072,0,0
-245,-48,0,0,0,0,0,0,0,0,0,-1,979,1072,0,0
-238,-48,0,0,0,0,0,0,0,0,0,-1,986,1072,0,0
-231,-48,0,0,0,0,0,0,0,0,0,-1,993,1072,0,0
-224,-48,0,0,0,0,0,0,0,0,0,-1,1000,1072,0,0
-217,-48,0,0,0,0,0,0,0,0,0,-1,1007,1072,0,0
-210,-48,0,0,0,0,0,0,0,0,0,-1,1014,1072,0,0
-203,-48,0,0,0,0,0,0,0,0,0,-1,1021,1072,0,0
-196,-48,0,0,0,0,0,0,0,0,0,-1,1028,1072,0,0
-189,-48,0,0,0,0,0,0,0,0,0,-1,1035,1072,0,0
-182,-48,0,0,0,0,0,0,0,0,0,-1,1042,1072,0,0
-175,-48,0,0,0,0,0,0,0,0,0,-1,1049,1072,0,0
-168,-48,0,0,0,0,0,0,0,0,0,-1,1056,1072,0,0
-161,-48,0,0,0,0,0,0,0,0,0,-1,1063,1072,0,0
-154,-48,0,0,0,0,0,0,0,0,0,-1,1070,1072,0,0
-147,-48,0,0,0,0,0,0,0,0,0,-1,1077,1072,0,0
-140,-48,0,0,0,0,0,0,0,0,0,-1,1084,1072,0,0
-133,-48,0,0,0,0,0,0,0,0,0,-1,1091,1072,0,0
-126,-48,0,0,0,0,0,0,0,0,0,-1,1098,1072,0,0
-119,-48,0,0,0,0,0,0,0,0,0,-1,1105,1072,0,0
-112,-48,0,0,0,0,0,0,0,0,0,-1,1112,1072,0,0
-105,-48,0,0,0,0,0,0,0,0,0,-1,1119,1072,0,0
-98,-48,0,0,0,0,0,0,0,0,0,-1,1126,1072,0,0
-91,-48,0,0,0,0,0,0,0,0,0,-1,1133,1072,0,0
-84,-48,0,0,0,0,0,0,0,0,0,-1,1140,1072,0,0
-77,-48,0,0,0,0,0,0,0,0,0,-1,1147,1072,0,0
-70,-48,0,0,0,0,0,0,0,0,0,-1,1154,1072,0,0
-63,-48,0,0,0,0,0,0,0,0,0,-1,1161,1072,0,0
-56,-48,0,0,0,0,0,0,0,0,0,-1,1168,1072,0,0
-49,-48,0,0,0,0,0,0,0,0,0,-1,1175,1072,0,0
-42,-48,0,0,0,0,0,0,0,0,0,-1,1182,1072,0,0
-35,-48,0,0,0,0,0,0,0,0,0,-1,1189,1072,0,0
-28,-48,0,0,0,0,0,0,0,0,0,-1,1196,1072,0,0
-21,-48,0,0,0,0,0,0,0,0,0,-1,1203,1072,0,0
-14,-48,0,0,0,0,0,0,0,0,0,-1,1210,1072,0,0
-7,-48,0,0,0,0,0,0,0,0,0,-1,1217,1072,0,0
0,-48,0,0,0,0,0,0,0,0,0,-1,1224,1072,0,0
7,-48,0,0,0,0,0,0,0,0,0,-1,1231,1072,0,0
14,-48,0,0,0,0,0,0,0,0,0,-1,1238,1072,0,0
21,-48,0,0,0,0,0,0,0,0,0,-1,1245,1072,0,0
28,-48,0,0,0,0,0,0,0,0,0,-1,1252,1072,0,0
35,-48,0,0,0,0,0,0,0,0,0,-1,1259,1072,0,0
42,-48,0,0,0,0,0,0,0,0,0,-1,1266,1072,0,0
49,-48,0,0,0,0,0,0,0,0,0,-1,1273,1072,0,0
56,-48,0,0,0,0,0,0,0,0,0,-1,1280,1072,0,0
63,-48,0,0,0,0,0,0,0,0,0,-1,1287,1072,0,0
70,-48,0,0,0,0,0,0,0,0,0,-1,1294,1072,0,0
77,-48,0,0,0,0,0,0,0,0,0,-1,1301,1072,0,0
84,-48,0,0,0,0,0,0,0,0,0,-1,1308,1072,0,0
91,-48,0,0,0,0,0,0,0,0,0,-1,1315,1072,0,0
98,-48,0,0,0,0,0,0,0,0,0,-1,1322,1072,0,0
105,-48,0,0,0,0,0,0,0,0,0,-1,1329,1072,0,0
112,-48,0,0,0,0,0,0,0,0,0,-1,1336,1072,0,0
119,-48,0,0,0,0,0,0,0,0,0,-1,1343,1072,0,0
126,-48,0,0,0,0,0,0,0,0,0,-1,1350,1072,0,0
133,-48,0,0,0,0,0,0,0,0,0,-1,1357,1072,0,0
140,-48,0,0,0,0,0,0,0,0,0,-1,1364,1072,0,0
147,-48,0,0,0,0,0,0,0,0,0,-1,1371,1072,0,0
154,-48,0,0,0,0,0,0,0,0,0,-1,1378,1072,0,0
161,-48,0,0,0,0,0,0,0,0,0,-1,1385,1072,0,0
168,-48,0,0,0,0,0,0,0,0,0,-1,1392,1072,0,0
175,-48,0,0,0,0,0,0,0,0,0,-1,1399,1072,0,0
182,-48,0,0,0,0,0,0,0,0,0,-1,1406,1072,0,0
189,-48,0,0,0,0,0,0,0,0,0,-1,1413,1072,0,0
196,-48,0,0,0,0,0,0,0,0,0,-1,1420,1072,0,0
203,-48,0,0,0,0,0,0,0,0,0,-1,1427,1072,0,0
210,-48,0,0,0,0,0,0,0,0,0,-1,1434,1072,0,0
217,-48,0,0,0,0,0,0,0,0,0,-1,1441,1072,0,0
224,-48,0,0,0,0,0,0,0,0,0,-1,1448,1072,0,0
231,-48,0,0,0,0,0,0,0,0,0,-1,1455,1072,0,0
238,-48,0,0,0,0,0,0,0,0,0,-1,1462,1072,0,0
245,-48,0,0,0,0,0,0,0,0,0,-1,1469,1072,0,0
252,-48,0,0,0,0,0,0,0,0,0,-1,1476,1072,0,0
259,-48,0,0,0,0,0,0,0,0,0,-1,1483,1072,0,0
266,-48,0,0,0,0,0,0,0,0,0,-1,1490,1072,0,0
273,-48,0,0,0,0,0,0,0,0,0,-1,1497,1072,0,0
280,-48,0,0,0,0,0,0,0,0,0,-1,1504,1072,0,0
287,-48,0,0,0,0,0,0,0,0,0,-1,1511,1072,0,0
294,-48,0,0,0,0,0,0,0,0,0,-1,1518,1072,0,0
301,-48,0,0,0,0,0,0,0,0,0,-1,1525,1072,0,0
308,-48,0,0,0,0,0,0,0,0,0,-1,1532,1072,0,0
315,-48,0,0,0,0,0,0,0,0,0,-1,1539,1072,0,0
322,-48,0,0,0,0,0,0,0,0,0,-1,1546,1072,0,0
329,-48,0,0,0,0,0,0,0,0,0,-1,1553,1072,0,0
336,-48,0,0,0,0,0,0,0,0,0,-1,1560,1072,0,0
343,-48,0,0,0,0,0,0,0,0,0,-1,1567,1072,0,0
350,-48,0,0,0,0,0,0,0,0,0,-1,1574,1072,0,0
357,-48,0,0,0,0,0,0,0,0,0,-1,1581,1072,0,0
364,-48,0,0,0,0,0,0,0,0,0,-1,1588,1072,0,0
371,-48,0,0,0,0,0,0,0,0,0,-1,1595,1072,0,0
378,-48,0,0,0,0,0,0,0,0,0,-1,1602,1072,0,0
385,-48,0,0,0,0,0,0,0,0,0,-1,1609,1072,0,0
392,-48,0,0,0,0,0,0,0,0,0,-1,1616,1072,0,0
399,-48,0,0,0,0,0,0,0,0,0,-1,1623,1072,0,0
406,-48,0,0,0,0,0,0,0,0,0,-1,1630,1072,0,0
413,-48,0,0,0,0,0,0,0,0,0,-1,1637,1072,0,0
420,-48,0,0,0,0,0,0,0,0,0,-1,1644,1072,0,0
427,-48,0,0,0,0,0,0,0,0,0,-1,1651,1072,0,0
434,-48,0,0,0,0,0,0,0,0,0,-1,1658,1072,0,0
441,-48,0,0,0,0,0,0,0,0,0,-1,1665,1072,0,0
448,-48,0,0,0,0,0,0,0,0,0,-1,1672,1072,0,0
455,-48,0,0,0,0,0,0,0,0,0,-1,1679,1072,0,0
462,-48,0,0,0,0,0,0,0,0,0,-1,1686,1072,0,0
469,-48,0,0,0,0,0,0,0,0,0,-1,1693,1072,0,0
476,-48,0,0,0,0,0,0,0,0,0,-1,1700,1072,0,0
483,-48,0,0,0,0,0,0,0,0,0,-1,1707,1072,0,0
490,-48,0,0,0,0,0,0,0,0,0,-1,1714,1072,0,0
497,-48,0,0,0,0,0,0,0,0,0,-1,1721,1072,0,0
504,-48,0,0,0,0,0,0,0,0,0,-1,1728,1072,0,0
511,-48,0,0,0,0,0,0,0,0,0,-1,1735,1072,0,0
518,-48,0,0,0,0,0,0,0,0,0,-1,1742,1072,0,0
525,-48,0,0,0,0,0,0,0,0,0,-1,1749,1072,0,0
532,-48,0,0,0,0,0,0,0,0,0,-1,1756,1072,0,0
539,-48,0,0,0,0,0,0,0,0,0,-1,1763,1072,0,0
546,-48,0,0,0,0,0,0,0,0,0,-1,1770,1072,0,0
553,-48,0,0,0,0,0,0,0,0,0,-1,1777,1072,0,0
560,-48,0,0,0,0,0,0,0,0,0,-1,1784,1072,0,0
567,-48,0,0,0,0,0,0,0,0,0,-1,1791,1072,0,0
574,-48,0,0,0,0,0,0,0,0,0,-1,1798,1072,0,0
581,-48,0,0,0,0,0,0,0,0,0,-1,1805,1072,0,0
588,-48,0,0,0,0,0,0,0,0,0,-1,1812,1072,0,0
595,-48,0,0,0,0,0,0,0,0,0,-1,1819,1072,0,0
602,-48,0,0,0,0,0,0,0,0,0,-1,1826,1072,0,0
609,-48,0,0,0,0,0,0,0,0,0,-1,1833,1072,0,0
616,-48,0,0,0,0,0,0,0,0,0,-1,1840,1072,0,0
623,-48,0,0,0,0,0,0,0,0,0,-1,1847,1072,0,0
630,-48,0,0,0,0,0,0,0,0,0,-1,1854,1072,0,0
637,-48,0,0,0,0,0,0,0,0,0,-1,1861,1072,0,0
644,-48,0,0,0,0,0,0,0,0,0,-1,1868,1072,0,0
651,-48,82.0721,2.19824,-0.00479036,0.00676486,-0.00192325,0.00707656,-0.00510206,-1.41013,0.00706206,0.0343008,1875,1072,82.0721,-2.19829
658,-48,82.0925,2.1145,-0.00330839,0.00494305,-0.00126963,0.00513398,-0.00349932,-1.42153,0.00501414,0.0395232,1882,1072,82.0926,-2.11455
665,-48,82.0446,2.28552,-0.00222203,0.00356488,-0.000792647,0.00367149,-0.00232864,-1.4371,0.00349297,0.0423022,1889,1072,82.0446,-2.28551
672,-48,82.1636,2.24658,-0.00143077,0.00264465,-0.000330117,0.00267121,-0.00145734,-1.49049,0.00241772,0.0407217,1896,1072,82.1635,-2.24657
679,-48,82.1189,2.22778,-0.000820072,0.00196065,7.6489e-05,0.00196275,-0.000822175,1.54332,0.00165222,0.0380253,1903,1072,82.1189,-2.22782
686,-48,82.0815,2.21204,-0.000841889,0.00125896,0.000383063,0.00132662,-0.000909556,1.39595,0.00129852,0.0376597,1910,1072,82.0816,-2.21205
693,-48,82.0321,2.26599,-0.00105146,0.000614722,0.000701189,0.000870532,-0.00130727,1.22098,0.00126576,0.0408722,1917,1072,82.0322,-2.26595
700,-48,82.0662,2.32886,-0.00123545,0.000226001,0.00108247,0.000801304,-0.00181075,1.08229,0.00154516,0.0347714,1924,1072,82.0662,-2.3289
707,-48,82.1472,2.27124,-0.00176143,0.000141108,0.00144555,0.000920312,-0.00254063,1.07641,0.00206989,0.0270528,1931,1072,82.1472,-2.27122
714,-48,82.1301,2.28296,-0.00250621,0.000463582,0.00179968,0.00131187,-0.00335451,1.13032,0.00277884,0.0440392,1938,1072,82.1301,-2.28298
721,-48,82.2054,2.2627,0,0,0,0,0,0,0,-1,1945,1072,82.2054,-2.26267
728,-48,80.9224,8.98059,0,0,0,0,0,0,0,-1,1952,1072,80.9224,-8.98058
735,-48,80.829,8.58521,-0.00609084,0.00378581,0.0023108,0.00429972,-0.00660475,1.35196,0.00634241,0.0265461,1959,1072,80.829,-8.58514
742,-48,80.6918,8.15942,-0.00686416,0.00511459,0.00229282,0.00553846,-0.00728802,1.38799,0.0074283,0.0200937,1966,1072,80.6918,-8.15945
749,-48,80.6716,7.78687,-0.00787289,0.00666354,0.0023162,0.00702367,-0.00823303,1.41655,0.00881768,0.0173518,1973,1072,80.6717,-7.78687
756,-48,80.6689,7.41309,-0.00844861,0.00865338,0.00173558,0.00882774,-0.00862297,1.47067,0.0100754,0.0147133,1980,1072,80.6689,-7.41314
763,-48,80.564,7.01587,-0.00866107,0.0108146,0.000145332,0.0108156,-0.00866216,1.56333,0.0112684,0.013598,1987,1072,80.564,-7.01587
770,-48,80.4597,6.61108,-0.00810331,0.0133592,-0.00226304,0.0135952,-0.00833934,-1.46688,0.0127845,0.015973,1994,1072,80.4598,-6.61105
777,-48,80.2566,6.1864,-0.00626337,0.0155864,-0.0060453,0.0171475,-0.00782443,-1.31809,0.0147487,0.0153674,2001,1072,80.2566,-6.18634
784,-48,80.0706,5.74902,-0.00356706,0.0168785,-0.0108463,0.0215603,-0.00824888,-1.1633,0.0177731,0.0274522,2008,1072,80.0705,-5.74899
791,-48,79.4653,5.2854,0,0,0,0,0,0,0,-1,2015,1072,79.4653,-5.28537
798,-48,78.5828,5.03284,0,0,0,0,0,0,0,-1,2022,1072,78.5827,-5.0328
805,-48,78.9521,4.44617,0.0138921,0.010779,-0.0368142,0.0491826,-0.0245115,-0.76427,0.0433348,0.0434119,2029,1072,78.9521,-4.44611
812,-48,79.5759,3.78552,0,0,0,0,0,0,0,-1,2036,1072,79.5759,-3.78558
-700,-55,-65.9867,-8.03796,0,0,0,0,0,0,0,-1,524,1079,-65.9867,8.038
-693,-55,-65.8375,-6.34204,0,0,0,0,0,0,0,-1,531,1079,-65.8375,6.34202
-686,-55,-65.9096,0.26001,0,0,0,0,0,0,0,-1,538,1079,-65.9096,-0.260043
-679,-55,-66.0896,-2.6449,0,0,0,0,0,0,0,-1,545,1079,-66.0896,2.64491
-672,-55,-65.7296,-1.01611,0,0,0,0,0,0,0,-1,552,1079,-65.7296,1.01616
-665,-55,-65.2776,0.550171,0.0510162,0.0717762,0.076585,0.138681,-0.0158891,0.852755,0.0981801,0.048143,559,1079,-65.2776,-0.55017
-658,-55,-64.5989,2.16565,0.0399427,0.0609927,0.0596965,0.111085,-0.0101495,0.872656,0.0776612,0.0477818,566,1079,-64.5989,-2.16568
-651,-55,-63.8169,4.3446,0,0,0,0,0,0,0,-1,573,1079,-63.8169,-4.34462
-644,-55,-63.9596,5.73779,0.0211956,0.0397672,0.0302628,0.0621368,-0.00117394,0.934258,0.0418213,0.0344074,580,1079,-63.9596,-5.73781
-637,-55,-64.0398,6.05054,0.0131137,0.0291979,0.0177836,0.0406733,0.00163835,0.997748,0.0265862,0.026316,587,1079,-64.0398,-6.05055
-630,-55,-64.1116,6.54309,0.00685966,0.019471,0.00829461,0.0235846,0.00274602,1.1104,0.0148924,0.0282404,594,1079,-64.1116,-6.54309
-623,-55,-64.2877,7.08081,0.00324365,0.0126029,0.00350753,0.0137714,0.00207505,1.24919,0.0085734,0.0205029,601,1079,-64.2877,-7.08078
-616,-55,-64.2905,7.50684,0.00184479,0.00742269,0.000344632,0.0074439,0.00182357,1.50932,0.00448021,0.01908,608,1079,-64.2905,-7.50687
-609,-55,-64.1993,8.026,0.000972315,0.00336597,-0.00196847,0.00447289,-0.000134613,-1.05854,0.0030278,0.0202141,615,1079,-64.1994,-8.02598
-602,-55,-64.1085,8.45935,0.000913161,0.000214275,-0.00306387,0.00364745,-0.00252002,-0.728617,0.00358057,0.0165822,622,1079,-64.1085,-8.45938
-595,-55,-63.936,8.87231,0.00126593,-0.00123644,-0.00315461,0.00340842,-0.00337892,-0.596603,0.00391869,0.0346022,629,1079,-63.9361,-8.87232
-588,-55,-63.9353,9.29395,0,0,0,0,0,0,0,-1,636,1079,-63.9353,-9.29398
-581,-55,-65.2082,0.618652,0,0,0,0,0,0,0,-1,643,1079,-65.2082,-0.618703
-574,-55,-65.0776,0.706299,0.00174967,-0.002469,-0.00169083,0.0023437,-0.00306303,-0.337856,0.00313077,0.0417867,650,1079,-65.0776,-0.706311
-567,-55,-65.0895,0.51416,0.00151209,-0.0020111,-0.000898378,0.00172795,-0.00222695,-0.235799,0.00228941,0.0384798,657,1079,-65.0895,-0.514184
-560,-55,-65.2776,0.4198,0.000976965,-0.00107146,0.000201304,0.00099656,-0.00109105,0.0970356,0.0012057,0.0403522,664,1079,-65.2776,-0.419759
-553,-55,-65.2684,0.390625,0.000234276,0.00019242,0.00171207,0.00192554,-0.00149885,0.779287,0.00198218,0.0417086,671,1079,-65.2684,-0.390636
-546,-55,-65.2648,0.635254,-0.000551803,0.00152496,0.00363407,0.00426609,-0.00329293,0.924558,0.00437624,0.0401121,678,1079,-65.2648,-0.635268
-539,-55,-65.1492,0.555176,-0.00134643,0.0023664,0.00580867,0.00660809,-0.00558812,0.940065,0.00704969,0.0397387,685,1079,-65.1492,-0.555133
-532,-55,-65.1701,0.477295,-0.00242212,0.0035145,0.00790474,0.00898987,-0.00789748,0.965007,0.00975672,0.0383783,692,1079,-65.1701,-0.477339
-525,-55,0,0,0,0,0,0,0,0,0,-1,699,1079,0,0
-518,-55,0,0,0,0,0,0,0,0,0,-1,706,1079,0,0
-511,-55,0,0,0,0,0,0,0,0,0,-1,713,1079,0,0
-504,-55,0,0,0,0,0,0,0,0,0,-1,720,1079,0,0
-497,-55,0,0,0,0,0,0,0,0,0,-1,727,1079,0,0
-490,-55,0,0,0,0,0,0,0,0,0,-1,734,1079,0,0
-483,-55,0,0,0,0,0,0,0,0,0,-1,741,1079,0,0
-476,-55,0,0,0,0,0,0,0,0,0,-1,748,1079,0,0
-469,-55,0,0,0,0,0,0,0,0,0,-1,755,1079,0,0
-462,-55,0,0,0,0,0,0,0,0,0,-1,762,1079,0,0
-455,-55,0,0,0,0,0,0,0,0,0,-1,769,1079,0,0
-448,-55,0,0,0,0,0,0,0,0,0,-1,776,1079,0,0
-441,-55,0,0,0,0,0,0,0,0,0,-1,783,1079,0,0
-434,-55,0,0,0,0,0,0,0,0,0,-1,790,1079,0,0
-427,-55,0,0,0,0,0,0,0,0,0,-1,797,1079,0,0
-420,-55,0,0,0,0,0,0,0,0,0,-1,804,1079,0,0
-413,-55,0,0,0,0,0,0,0,0,0,-1,811,1079,0,0
-406,-55,0,0,0,0,0,0,0,0,0,-1,818,1079,0,0
-399,-55,0,0,0,0,0,0,0,0,0,-1,825,1079,0,0
-392,-55,0,0,0,0,0,0,0,0,0,-1,832,1079,0,0
-385,-55,0,0,0,0,0,0,0,0,0,-1,839,1079,0,0
-378,-55,0,0,0,0,0,0,0,0,0,-1,846,1079,0,0
-371,-55,0,0,0,0,0,0,0,0,0,-1,853,1079,0,0
-364,-55,0,0,0,0,0,0,0,0,0,-1,860,1079,0,0
-357,-55,0,0,0,0,0,0,0,0,0,-1,867,1079,0,0
-350,-55,0,0,0,0,0,0,0,0,0,-1,874,1079,0,0
-343,-55,0,0,0,0,0,0,0,0,0,-1,881,1079,0,0
-336,-55,0,0,0,0,0,0,0,0,0,-1,888,1079,0,0
-329,-55,0,0,0,0,0,0,0,0,0,-1,895,1079,0,0
-322,-55,0,0,0,0,0,0,0,0,0,-1,902,1079,0,0
-315,-55,0,0,0,0,0,0,0,0,0,-1,909,1079,0,0
-308,-55,0,0,0,0,0,0,0,0,0,-1,916,1079,0,0
-301,-55,0,0,0,0,0,0,0,0,0,-1,923,1079,0,0
-294,-55,0,0,0,0,0,0,0,0,0,-1,930,1079,0,0
-287,-55,0,0,0,0,0,0,0,0,0,-1,937,1079,0,0
-280,-55,0,0,0,0,0,0,0,0,0,-1,944,1079,0,0
-273,-55,0,0,0,0,0,0,0,0,0,-1,951,1079,0,0
-266,-55,0,0,0,0,0,0,0,0,0,-1,958,1079,0,0
-259,-55,0,0,0,0,0,0,0,0,0,-1,965,1079,0,0
-252,-55,0,0,0,0,0,0,0,0,0,-1,972,1079,0,0
-245,-55,0,0,0,0,0,0,0,0,0,-1,979,1079,0,0
-238,-55,0,0,0,0,0,0,0,0,0,-1,986,1079,0,0
-231,-55,0,0,0,0,0,0,0,0,0,-1,993,1079,0,0
-224,-55,0,0,0,0,0,0,0,0,0,-1,1000,1079,0,0
-217,-55,0,0,0,0,0,0,0,0,0,-1,1007,1079,0,0
-210,-55,0,0,0,0,0,0,0,0,0,-1,1014,1079,0,0
-203,-55,0,0,0,0,0,0,0,0,0,-1,1021,1079,0,0
-196,-55,0,0,0,0,0,0,0,0,0,-1,1028,1079,0,0
-189,-55,0,0,0,0,0,0,0,0,0,-1,1035,1079,0,0
-182,-55,0,0,0,0,0,0,0,0,0,-1,1042,1079,0,0
-175,-55,0,0,0,0,0,0,0,0,0,-1,1049,1079,0,0
-168,-55,0,0,0,0,0,0,0,0,0,-1,1056,1079,0,0
-161,-55,0,0,0,0,0,0,0,0,0,-1,1063,1079,0,0
-154,-55,0,0,0,0,0,0,0,0,0,-1,1070,1079,0,0
-147,-55,0,0,0,0,0,0,0,0,0,-1,1077,1079,0,0
-140,-55,0,0,0,0,0,0,0,0,0,-1,1084,1079,0,0
-133,-55,0,0,0,0,0,0,0,0,0,-1,1091,1079,0,0
-126,-55,0,0,0,0,0,0,0,0,0,-1,1098,1079,0,0
-119,-55,0,0,0,0,0,0,0,0,0,-1,1105,1079,0,0
-112,-55,0,0,0,0,0,0,0,0,0,-1,1112,1079,0,0
-105,-55,0,0,0,0,0,0,0,0,0,-1,1119,1079,0,0
-98,-55,0,0,0,0,0,0,0,0,0,-1,1126,1079,0,0
-91,-55,0,0,0,0,0,0,0,0,0,-1,1133,1079,0,0
-84,-55,0,0,0,0,0,0,0,0,0,-1,1140,1079,0,0
-77,-55,0,0,0,0,0,0,0,0,0,-1,1147,1079,0,0
-70,-55,0,0,0,0,0,0,0,0,0,-1,1154,1079,0,0
-63,-55,0,0,0,0,0,0,0,0,0,-1,1161,1079,0,0
-56,-55,0,0,0,0,0,0,0,0,0,-1,1168,1079,0,0
-49,-55,0,0,0,0,0,0,0,0,0,-1,1175,1079,0,0
-42,-55,0,0,0,0,0,0,0,0,0,-1,1182,1079,0,0
-35,-55,0,0,0,0,0,0,0,0,0,-1,1189,1079,0,0
-28,-55,0,0,0,0,0,0,0,0,0,-1,1196,1079,0,0
-21,-55,0,0,0,0,0,0,0,0,0,-1,1203,1079,0,0
-14,-55,0,0,0,0,0,0,0,0,0,-1,1210,1079,0,0
-7,-55,0,0,0,0,0,0,0,0,0,-1,1217,1079,0,0
0,-55,0,0,0,0,0,0,0,0,0,-1,1224,1079,0,0
7,-55,0,0,0,0,0,0,0,0,0,-1,1231,1079,0,0
14,-55,0,0,0,0,0,0,0,0,0,-1,1238,1079,0,0
21,-55,0,0,0,0,0,0,0,0,0,-1,1245,1079,0,0
28,-55,0,0,0,0,0,0,0,0,0,-1,1252,1079,0,0
35,-55,0,0,0,0,0,0,0,0,0,-1,1259,1079,0,0
42,-55,0,0,0,0,0,0,0,0,0,-1,1266,1079,0,0
49,-55,0,0,0,0,0,0,0,0,0,-1,1273,1079,0,0
56,-55,0,0,0,0,0,0,0,0,0,-1,1280,1079,0,0
63,-55,0,0,0,0,0,0,0,0,0,-1,1287,1079,0,0
70,-55,0,0,0,0,0,0,0,0,0,-1,1294,1079,0,0
77,-55,0,0,0,0,0,0,0,0,0,-1,1301,1079,0,0
84,-55,0,0,0,0,0,0,0,0,0,-1,1308,1079,0,0
91,-55,0,0,0,0,0,0,0,0,0,-1,1315,1079,0,0
98,-55,0,0,0,0,0,0,0,0,0,-1,1322,1079,0,0
105,-55,0,0,0,0,0,0,0,0,0,-1,1329,1079,0,0
112,-55,0,0,0,0,0,0,0,0,0,-1,1336,1079,0,0
119,-55,0,0,0,0,0,0,0,0,0,-1,1343,1079,0,0
126,-55,0,0,0,0,0,0,0,0,0,-1,1350,1079,0,0
133,-55,0,0,0,0,0,0,0,0,0,-1,1357,1079,0,0
140,-55,0,0,0,0,0,0,0,0,0,-1,1364,1079,0,0
147,-55,0,0,0,0,0,0,0,0,0,-1,1371,1079,0,0
154,-55,0,0,0,0,0,0,0,0,0,-1,1378,1079,0,0
161,-55,0,0,0,0,0,0,0,0,0,-1,1385,1079,0,0
168,-55,0,0,0,0,0,0,0,0,0,-1,1392,1079,0,0
175,-55,0,0,0,0,0,0,0,0,0,-1,1399,1079,0,0
182,-55,0,0,0,0,0,0,0,0,0,-1,1406,1079,0,0
189,-55,0,0,0,0,0,0,0,0,0,-1,1413,1079,0,0
196,-55,0,0,0,0,0,0,0,0,0,-1,1420,1079,0,0
203,-55,0,0,0,0,0,0,0,0,0,-1,1427,1079,0,0
210,-55,0,0,0,0,0,0,0,0,0,-1,1434,1079,0,0
217,-55,0,0,0,0,0,0,0,0,0,-1,1441,1079,0,0
224,-55,0,0,0,0,0,0,0,0,0,-1,1448,1079,0,0
231,-55,0,0,0,0,0,0,0,0,0,-1,1455,1079,0,0
238,-55,0,0,0,0,0,0,0,0,0,-1,1462,1079,0,0
245,-55,0,0,0,0,0,0,0,0,0,-1,1469,1079,0,0
252,-55,0,0,0,0,0,0,0,0,0,-1,1476,1079,0,0
259,-55,0,0,0,0,0,0,0,0,0,-1,1483,1079,0,0
266,-55,0,0,0,0,0,0,0,0,0,-1,1490,1079,0,0
273,-55,0,0,0,0,0,0,0,0,0,-1,1497,1079,0,0
280,-55,0,0,0,0,0,0,0,0,0,-1,1504,1079,0,0
287,-55,0,0,0,0,0,0,0,0,0,-1,1511,1079,0,0
294,-55,0,0,0,0,0,0,0,0,0,-1,1518,1079,0,0
301,-55,0,0,0,0,0,0,0,0,0,-1,1525,1079,0,0
308,-55,0,0,0,0,0,0,0,0,0,-1,1532,1079,0,0
315,-55,0,0,0,0,0,0,0,0,0,-1,1539,1079,0,0
322,-55,0,0,0,0,0,0,0,0,0,-1,1546,1079,0,0
329,-55,0,0,0,0,0,0,0,0,0,-1,1553,1079,0,0
336,-55,0,0,0,0,0,0,0,0,0,-1,1560,1079,0,0
343,-55,0,0,0,0,0,0,0,0,0,-1,1567,1079,0,0
350,-55,0,0,0,0,0,0,0,0,0,-1,1574,1079,0,0
357,-55,0,0,0,0,0,0,0,0,0,-1,1581,1079,0,0
364,-55,0,0,0,0,0,0,0,0,0,-1,1588,1079,0,0
371,-55,0,0,0,0,0,0,0,0,0,-1,1595,1079,0,0
378,-55,0,0,0,0,0,0,0,0,0,-1,1602,1079,0,0
385,-55,0,0,0,0,0,0,0,0,0,-1,1609,1079,0,0
392,-55,0,0,0,0,0,0,0,0,0,-1,1616,1079,0,0
399,-55,0,0,0,0,0,0,0,0,0,-1,1623,1079,0,0
406,-55,0,0,0,0,0,0,0,0,0,-1,1630,1079,0,0
413,-55,0,0,0,0,0,0,0,0,0,-1,1637,1079,0,0
420,-55,0,0,0,0,0,0,0,0,0,-1,1644,1079,0,0
427,-55,0,0,0,0,0,0,0,0,0,-1,1651,1079,0,0
434,-55,0,0,0,0,0,0,0,0,0,-1,1658,1079,0,0
441,-55,0,0,0,0,0,0,0,0,0,-1,1665,1079,0,0
448,-55,0,0,0,0,0,0,0,0,0,-1,1672,1079,0,0
455,-55,0,0,0,0,0,0,0,0,0,-1,1679,1079,0,0
462,-55,0,0,0,0,0,0,0,0,0,-1,1686,1079,0,0
469,-55,0,0,0,0,0,0,0,0,0,-1,1693,1079,0,0
476,-55,0,0,0,0,0,0,0,0,0,-1,1700,1079,0,0
483,-55,0,0,0,0,0,0,0,0,0,-1,1707,1079,0,0
490,-55,0,0,0,0,0,0,0,0,0,-1,1714,1079,0,0
497,-55,0,0,0,0,0,0,0,0,0,-1,1721,1079,0,0
504,-55,0,0,0,0,0,0,0,0,0,-1,1728,1079,0,0
511,-55,0,0,0,0,0,0,0,0,0,-1,1735,1079,0,0
518,-55,0,0,0,0,0,0,0,0,0,-1,1742,1079,0,0
525,-55,0,0,0,0,0,0,0,0,0,-1,1749,1079,0,0
532,-55,0,0,0,0,0,0,0,0,0,-1,1756,1079,0,0
539,-55,0,0,0,0,0,0,0,0,0,-1,1763,1079,0,0
546,-55,0,0,0,0,0,0,0,0,0,-1,1770,1079,0,0
553,-55,0,0,0,0,0,0,0,0,0,-1,1777,1079,0,0
560,-55,0,0,0,0,0,0,0,0,0,-1,1784,1079,0,0
567,-55,0,0,0,0,0,0,0,0,0,-1,1791,1079,0,0
574,-55,0,0,0,0,0,0,0,0,0,-1,1798,1079,0,0
581,-55,0,0,0,0,0,0,0,0,0,-1,1805,1079,0,0
588,-55,0,0,0,0,0,0,0,0,0,-1,1812,1079,0,0
595,-55,0,0,0,0,0,0,0,0,0,-1,1819,1079,0,0
602,-55,0,0,0,0,0,0,0,0,0,-1,1826,1079,0,0
609,-55,0,0,0,0,0,0,0,0,0,-1,1833,1079,0,0
616,-55,0,0,0,0,0,0,0,0,0,-1,1840,1079,0,0
623,-55,0,0,0,0,0,0,0,0,0,-1,1847,1079,0,0
630,-55,0,0,0,0,0,0,0,0,0,-1,1854,1079,0,0
637,-55,0,0,0,0,0,0,0,0,0,-1,1861,1079,0,0
644,-55,0,0,0,0,0,0,0,0,0,-1,1868,1079,0,0
651,-55,82.2499,2.45386,0,0,0,0,0,0,0,-1,1875,1079,82.2499,-2.45385
658,-55,82.1772,2.34924,-0.00288851,0.00458581,-0.000862757,0.0046841,-0.0029868,-1.45735,0.00446479,0.0348262,1882,1079,82.1773,-2.3493
665,-55,81.946,2.28247,-0.001978,0.00346101,-0.000447801,0.00349763,-0.00201462,-1.4892,0.00322066,0.0391787,1889,1079,81.9461,-2.28253
672,-55,81.975,2.3053,-0.00127885,0.0026915,-8.16314e-05,0.00269318,-0.00128052,-1.55025,0.00234204,0.0382499,1896,1079,81.9749,-2.30531
679,-55,82.0675,2.33606,-0.000724543,0.00210896,0.000208866,0.00212427,-0.000739856,1.49761,0.00171679,0.0364583,1903,1079,82.0675,-2.33608
686,-55,82.0579,2.28247,-0.000749667,0.00148255,0.000391963,0.00154938,-0.000816493,1.40193,0.00138761,0.0392812,1910,1079,82.0579,-2.28242
693,-55,82.0559,2.34338,-0.000927988,0.000863008,0.000625736,0.00105997,-0.00112495,1.26585,0.00126165,0.0391521,1917,1079,82.0559,-2.34338
700,-55,82.1069,2.35291,-0.00105851,0.000516165,0.000933979,0.000950391,-0.00149274,1.1356,0.00142208,0.0321935,1924,1079,82.1069,-2.35291
707,-55,82.177,2.28955,-0.00148015,0.000426998,0.00128454,0.00107322,-0.00212637,1.10469,0.00188034,0.0242549,1931,1079,82.177,-2.28952
714,-55,82.1481,2.28723,-0.00209849,0.000707189,0.00163768,0.00146073,-0.00285202,1.13956,0.00253279,0.0452819,1938,1079,82.148,-2.28721
721,-55,82.1818,2.24048,0,0,0,0,0,0,0,-1,1945,1079,82.1818,-2.24053
728,-55,80.3625,9.21033,0,0,0,0,0,0,0,-1,1952,1079,80.3626,-9.21029
735,-55,80.2592,8.72156,-0.00520106,0.00353183,0.00214548,0.00403046,-0.00569969,1.34244,0.00564519,0.0253937,1959,1079,80.2592,-8.7215
742,-55,80.2542,8.27563,-0.00574752,0.0047072,0.0021711,0.00514014,-0.00618046,1.37397,0.00654514,0.0245681,1966,1079,80.2541,-8.27567
749,-55,80.2627,7.8385,-0.00650518,0.00628753,0.00221908,0.00666153,-0.00687918,1.40383,0.00781807,0.0163325,1973,1079,80.2628,-7.83855
756,-55,80.158,7.38843,-0.0069082,0.00837923,0.00162717,0.0085505,-0.00707947,1.46592,0.00903728,0.0140679,1980,1079,80.158,-7.38845
763,-55,80.0649,6.95886,-0.00697285,0.0107464,0.000162885,0.0107479,-0.00697434,1.5616,0.010309,0.0157172,1987,1079,80.0649,-6.95892
770,-55,79.9541,6.50134,-0.00618782,0.0136975,-0.00227872,0.0139553,-0.0064456,-1.45815,0.0120415,0.0179093,1994,1079,79.954,-6.50129
777,-55,79.8254,6.05737,-0.0041697,0.0166376,-0.00605311,0.0182704,-0.00580249,-1.30732,0.0145066,0.0157327,2001,1079,79.8256,-6.05741
784,-55,79.644,5.5437,-0.00129031,0.0189136,-0.0108402,0.0236292,-0.00600591,-1.16048,0.0180902,0.0316932,2008,1079,79.6439,-5.54375
791,-55,79.1865,5.02026,0.00269102,0.0202158,-0.0172467,0.0307984,-0.0078916,-1.02044,0.0236067,0.0423399,2015,1079,79.1866,-5.02028
798,-55,78.8164,4.73059,0.00859468,0.0201433,-0.0258719,0.0408774,-0.0121394,-0.895194,0.0320732,0.0436276,2022,1079,78.8163,-4.73064
805,-55,78.7222,4.17432,0.0171768,0.0184827,-0.037201,0.0550365,-0.019377,-0.794174,0.0445766,0.0457172,2029,1079,78.7222,-4.1743
812,-55,78.6289,3.59753,0,0,0,0,0,0,0,-1,2036,1079,78.629,-3.59749
-700,-62,-63.6259,-4.21094,0,0,0,0,0,0,0,-1,524,1086,-63.6259,4.21096
-693,-62,-67.1958,-1.54614,0,0,0,0,0,0,0,-1,531,1086,-67.1958,1.54609
-686,-62,-66.2403,-0.454712,0,0,0,0,0,0,0,-1,538,1086,-66.2403,0.45469
-679,-62,-65.2395,0.621826,0,0,0,0,0,0,0,-1,545,1086,-65.2395,-0.621801
-672,-62,-65.6049,-2.04346,0,0,0,0,0,0,0,-1,552,1086,-65.605,2.04343
-665,-62,-64.9529,-0.280273,0,0,0,0,0,0,0,-1,559,1086,-64.9529,0.280262
-658,-62,-64.456,1.55566,0,0,0,0,0,0,0,-1,566,1086,-64.456,-1.55565
-651,-62,-63.3444,4.72083,0,0,0,0,0,0,0,-1,573,1086,-63.3444,-4.72088
-644,-62,-63.5088,5.51624,0.0244073,0.0368132,0.0289579,0.060225,0.000995433,0.890906,0.0398224,0.04107,580,1086,-63.5088,-5.5162
-637,-62,-63.5896,6.05603,0.0151449,0.0268821,0.017237,0.0392222,0.0028048,0.949475,0.0252651,0.0180464,587,1086,-63.5896,-6.05605
-630,-62,-63.6985,6.54504,0.00769607,0.017916,0.0082191,0.0224841,0.00312795,1.06352,0.0140632,0.0177731,594,1086,-63.6985,-6.54509
-623,-62,-63.7825,7.11047,0.00310119,0.0114204,0.00325307,0.0125414,0.00198019,1.23894,0.00778527,0.0195932,601,1086,-63.7826,-7.11052
-616,-62,-63.7654,7.65295,0.00122903,0.00655607,4.29687e-05,0.00655641,0.00122868,1.56273,0.0040244,0.0203494,608,1086,-63.7654,-7.65291
-609,-62,-63.713,8.10474,0.000249071,0.00282768,-0.00213833,0.00403533,-0.000958571,-1.05669,0.0030602,0.0206593,615,1086,-63.713,-8.10471
-602,-62,-63.5593,8.53381,0.000309865,0.000111751,-0.0031073,0.00331969,-0.00289807,-0.769464,0.00359257,0.0173487,622,1086,-63.5593,-8.53383
-595,-62,-63.3471,8.9978,0.000763657,-0.00109076,-0.00321317,0.00318073,-0.00350783,-0.644932,0.00386318,0.041827,629,1086,-63.3471,-8.99774
-588,-62,-63.1682,9.37695,0,0,0,0,0,0,0,-1,636,1086,-63.1681,-9.37696
-581,-62,-65.2209,0.550537,0,0,0,0,0,0,0,-1,643,1086,-65.2209,-0.550544
-574,-62,-65.1382,0.549194,0.00152108,-0.00227703,-0.00179929,0.0022381,-0.00299405,-0.379215,0.00303128,0.0350128,650,1086,-65.1382,-0.549247
-567,-62,-65.1078,0.490356,0.00143914,-0.00189166,-0.00107375,0.00175528,-0.0022078,-0.286335,0.00229305,0.0373928,657,1086,-65.1078,-0.490395
-560,-62,-65.0752,0.382568,0.00107231,-0.00109265,-5.11279e-05,0.00107352,-0.00109386,-0.0235985,0.00125135,0.0408706,664,1086,-65.0752,-0.382524
-553,-62,-65.0829,0.300415,0.000498334,-1.70193e-05,0.00140461,0.00166871,-0.00118739,0.694682,0.00165676,0.0377623,671,1086,-65.083,-0.300441
-546,-62,-65.1802,0.46106,-5.73471e-05,0.0010749,0.00334523,0.00390157,-0.00288402,0.86922,0.00393232,0.0320676,678,1086,-65.1802,-0.461103
-539,-62,-65.2433,0.490356,-0.000421709,0.00152126,0.00569604,0.00632806,-0.00522851,0.869863,0.00668225,0.0388764,685,1086,-65.2434,-0.49036
-532,-62,-65.2407,0.509277,-0.0010938,0.00228211,0.00802963,0.00879929,-0.00761098,0.888998,0.00948275,0.0406631,692,1086,-65.2407,-0.509217
-525,-62,0,0,0,0,0,0,0,0,0,-1,699,1086,0,0
-518,-62,0,0,0,0,0,0,0,0,0,-1,706,1086,0,0
-511,-62,0,0,0,0,0,0,0,0,0,-1,713,1086,0,0
-504,-62,0,0,0,0,0,0,0,0,0,-1,720,1086,0,0
-497,-62,0,0,0,0,0,0,0,0,0,-1,727,1086,0,0
-490,-62,0,0,0,0,0,0,0,0,0,-1,734,1086,0,0
-483,-62,0,0,0,0,0,0,0,0,0,-1,741,1086,0,0
-476,-62,0,0,0,0,0,0,0,0,0,-1,748,1086,0,0
-469,-62,0,0,0,0,0,0,0,0,0,-1,755,1086,0,0
-462,-62,0,0,0,0,0,0,0,0,0,-1,762,1086,0,0
-455,-62,0,0,0,0,0,0,0,0,0,-1,769,1086,0,0
-448,-62,0,0,0,0,0,0,0,0,0,-1,776,1086,0,0
-441,-62,0,0,0,0,0,0,0,0,0,-1,783,1086,0,0
-434,-62,0,0,0,0,0,0,0,0,0,-1,790,1086,0,0
-427,-62,0,0,0,0,0,0,0,0,0,-1,797,1086,0,0
-420,-62,0,0,0,0,0,0,0,0,0,-1,804,1086,0,0
-413,-62,0,0,0,0,0,0,0,0,0,-1,811,1086,0,0
-406,-62,0,0,0,0,0,0,0,0,0,-1,818,1086,0,0
-399,-62,0,0,0,0,0,0,0,0,0,-1,825,1086,0,0
-392,-62,0,0,0,0,0,0,0,0,0,-1,832,1086,0,0
-385,-62,0,0,0,0,0,0,0,0,0,-1,839,1086,0,0
-378,-62,0,0,0,0,0,0,0,0,0,-1,846,1086,0,0
-371,-62,0,0,0,0,0,0,0,0,0,-1,853,1086,0,0
-364,-62,0,0,0,0,0,0,0,0,0,-1,860,1086,0,0
-357,-62,0,0,0,0,0,0,0,0,0,-1,867,1086,0,0
-350,-62,0,0,0,0,0,0,0,0,0,-1,874,1086,0,0
-343,-62,0,0,0,0,0,0,0,0,0,-1,881,1086,0,0
-336,-62,0,0,0,0,0,0,0,0,0,-1,888,1086,0,0
-329,-62,0,0,0,0,0,0,0,0,0,-1,895,1086,0,0
-322,-62,0,0,0,0,0,0,0,0,0,-1,902,1086,0,0
-315,-62,0,0,0,0,0,0,0,0,0,-1,909,1086,0,0
-308,-62,0,0,0,0,0,0,0,0,0,-1,916,1086,0,0
-301,-62,0,0,0,0,0,0,0,0,0,-1,923,1086,0,0
-294,-62,0,0,0,0,0,0,0,0,0,-1,930,1086,0,0
-287,-62,0,0,0,0,0,0,0,0,0,-1,937,1086,0,0
-280,-62,0,0,0,0,0,0,0,0,0,-1,944,1086,0,0
-273,-62,0,0,0,0,0,0,0,0,0,-1,951,1086,0,0
-266,-62,0,0,0,0,0,0,0,0,0,-1,958,1086,0,0
-259,-62,0,0,0,0,0,0,0,0,0,-1,965,1086,0,0
-252,-62,0,0,0,0,0,0,0,0,0,-1,972,1086,0,0
-245,-62,0,0,0,0,0,0,0,0,0,-1,979,1086,0,0
-238,-62,0,0,0,0,0,0,0,0,0,-1,986,1086,0,0
-231,-62,0,0,0,0,0,0,0,0,0,-1,993,1086,0,0
-224,-62,0,0,0,0,0,0,0,0,0,-1,1000,1086,0,0
-217,-62,0,0,0,0,0,0,0,0,0,-1,1007,1086,0,0
-210,-62,0,0,0,0,0,0,0,0,0,-1,1014,1086,0,0
-203,-62,0,0,0,0,0,0,0,0,0,-1,1021,1086,0,0
-196,-62,0,0,0,0,0,0,0,0,0,-1,1028,1086,0,0
-189,-62,0,0,0,0,0,0,0,0,0,-1,1035,1086,0,0
-182,-62,0,0,0,0,0,0,0,0,0,-1,1042,1086,0,0
-175,-62,0,0,0,0,0,0,0,0,0,-1,1049,1086,0,0
-168,-62,0,0,0,0,0,0,0,0,0,-1,1056,1086,0,0
-161,-62,0,0,0,0,0,0,0,0,0,-1,1063,1086,0,0
-154,-62,0,0,0,0,0,0,0,0,0,-1,1070,1086,0,0
-147,-62,0,0,0,0,0,0,0,0,0,-1,1077,1086,0,0
-140,-62,0,0,0,0,0,0,0,0,0,-1,1084,1086,0,0
-133,-62,0,0,0,0,0,0,0,0,0,-1,1091,1086,0,0
-126,-62,0,0,0,0,0,0,0,0,0,-1,1098,1086,0,0
-119,-62,0,0,0,0,0,0,0,0,0,-1,1105,1086,0,0
-112,-62,0,0,0,0,0,0,0,0,0,-1,1112,1086,0,0
-105,-62,0,0,0,0,0,0,0,0,0,-1,1119,1086,0,0
-98,-62,0,0,0,0,0,0,0,0,0,-1,1126,1086,0,0
-91,-62,0,0,0,0,0,0,0,0,0,-1,1133,1086,0,0
-84,-62,0,0,0,0,0,0,0,0,0,-1,1140,1086,0,0
-77,-62,0,0,0,0,0,0,0,0,0,-1,1147,1086,0,0
-70,-62,0,0,0,0,0,0,0,0,0,-1,1154,1086,0,0
-63,-62,0,0,0,0,0,0,0,0,0,-1,1161,1086,0,0
-56,-62,0,0,0,0,0,0,0,0,0,-1,1168,1086,0,0
-49,-62,0,0,0,0,0,0,0,0,0,-1,1175,1086,0,0
-42,-62,0,0,0,0,0,0,0,0,0,-1,1182,1086,0,0
-35,-62,0,0,0,0,0,0,0,0,0,-1,1189,1086,0,0
-28,-62,0,0,0,0,0,0,0,0,0,-1,1196,1086,0,0
-21,-62,0,0,0,0,0,0,0,0,0,-1,1203,1086,0,0
-14,-62,0,0,0,0,0,0,0,0,0,-1,1210,1086,0,0
-7,-62,0,0,0,0,0,0,0,0,0,-1,1217,1086,0,0
0,-62,0,0,0,0,0,0,0,0,0,-1,1224,1086,0,0
7,-62,0,0,0,0,0,0,0,0,0,-1,1231,1086,0,0
14,-62,0,0,0,0,0,0,0,0,0,-1,1238,1086,0,0
21,-62,0,0,0,0,0,0,0,0,0,-1,1245,1086,0,0
28,-62,0,0,0,0,0,0,0,0,0,-1,1252,1086,0,0
35,-62,0,0,0,0,0,0,0,0,0,-1,1259,1086,0,0
42,-62,0,0,0,0,0,0,0,0,0,-1,1266,1086,0,0
49,-62,0,0,0,0,0,0,0,0,0,-1,1273,1086,0,0
56,-62,0,0,0,0,0,0,0,0,0,-1,1280,1086,0,0
63,-62,0,0,0,0,0,0,0,0,0,-1,1287,1086,0,0
70,-62,0,0,0,0,0,0,0,0,0,-1,1294,1086,0,0
77,-62,0,0,0,0,0,0,0,0,0,-1,1301,1086,0,0
84,-62,0,0,0,0,0,0,0,0,0,-1,1308,1086,0,0
91,-62,0,0,0,0,0,0,0,0,0,-1,1315,1086,0,0
98,-62,0,0,0,0,0,0,0,0,0,-1,1322,1086,0,0
105,-62,0,0,0,0,0,0,0,0,0,-1,1329,1086,0,0
112,-62,0,0,0,0,0,0,0,0,0,-1,1336,1086,0,0
119,-62,0,0,0,0,0,0,0,0,0,-1,1343,1086,0,0
126,-62,0,0,0,0,0,0,0,0,0,-1,1350,1086,0,0
133,-62,0,0,0,0,0,0,0,0,0,-1,1357,1086,0,0
140,-62,0,0,0,0,0,0,0,0,0,-1,1364,1086,0,0
147,-62,0,0,0,0,0,0,0,0,0,-1,1371,1086,0,0
154,-62,0,0,0,0,0,0,0,0,0,-1,1378,1086,0,0
161,-62,0,0,0,0,0,0,0,0,0,-1,1385,1086,0,0
168,-62,0,0,0,0,0,0,0,0,0,-1,1392,1086,0,0
175,-62,0,0,0,0,0,0,0,0,0,-1,1399,1086,0,0
182,-62,0,0,0,0,0,0,0,0,0,-1,1406,1086,0,0
189,-62,0,0,0,0,0,0,0,0,0,-1,1413,1086,0,0
196,-62,0,0,0,0,0,0,0,0,0,-1,1420,1086,0,0
203,-62,0,0,0,0,0,0,0,0,0,-1,1427,1086,0,0
210,-62,0,0,0,0,0,0,0,0,0,-1,1434,1086,0,0
217,-62,0,0,0,0,0,0,0,0,0,-1,1441,1086,0,0
224,-62,0,0,0,0,0,0,0,0,0,-1,1448,1086,0,0
231,-62,0,0,0,0,0,0,0,0,0,-1,1455,1086,0,0
238,-62,0,0,0,0,0,0,0,0,0,-1,1462,1086,0,0
245,-62,0,0,0,0,0,0,0,0,0,-1,1469,1086,0,0
252,-62,0,0,0,0,0,0,0,0,0,-1,1476,1086,0,0
259,-62,0,0,0,0,0,0,0,0,0,-1,1483,1086,0,0
266,-62,0,0,0,0,0,0,0,0,0,-1,1490,1086,0,0
273,-62,0,0,0,0,0,0,0,0,0,-1,1497,1086,0,0
280,-62,0,0,0,0,0,0,0,0,0,-1,1504,1086,0,0
287,-62,0,0,0,0,0,0,0,0,0,-1,1511,1086,0,0
294,-62,0,0,0,0,0,0,0,0,0,-1,1518,1086,0,0
301,-62,0,0,0,0,0,0,0,0,0,-1,1525,1086,0,0
308,-62,0,0,0,0,0,0,0,0,0,-1,1532,1086,0,0
315,-62,0,0,0,0,0,0,0,0,0,-1,1539,1086,0,0
322,-62,0,0,0,0,0,0,0,0,0,-1,1546,1086,0,0
329,-62,0,0,0,0,0,0,0,0,0,-1,1553,1086,0,0
336,-62,0,0,0,0,0,0,0,0,0,-1,1560,1086,0,0
343,-62,0,0,0,0,0,0,0,0,0,-1,1567,1086,0,0
350,-62,0,0,0,0,0,0,0,0,0,-1,1574,1086,0,0
357,-62,0,0,0,0,0,0,0,0,0,-1,1581,1086,0,0
364,-62,0,0,0,0,0,0,0,0,0,-1,1588,1086,0,0
371,-62,0,0,0,0,0,0,0,0,0,-1,1595,1086,0,0
378,-62,0,0,0,0,0,0,0,0,0,-1,1602,1086,0,0
385,-62,0,0,0,0,0,0,0,0,0,-1,1609,1086,0,0
392,-62,0,0,0,0,0,0,0,0,0,-1,1616,1086,0,0
399,-62,0,0,0,0,0,0,0,0,0,-1,1623,1086,0,0
406,-62,0,0,0,0,0,0,0,0,0,-1,1630,1086,0,0
413,-62,0,0,0,0,0,0,0,0,0,-1,1637,1086,0,0
420,-62,0,0,0,0,0,0,0,0,0,-1,1644,1086,0,0
427,-62,0,0,0,0,0,0,0,0,0,-1,1651,1086,0,0
434,-62,0,0,0,0,0,0,0,0,0,-1,1658,1086,0,0
441,-62,0,0,0,0,0,0,0,0,0,-1,1665,1086,0,0
448,-62,0,0,0,0,0,0,0,0,0,-1,1672,1086,0,0
455,-62,0,0,0,0,0,0,0,0,0,-1,1679,1086,0,0
462,-62,0,0,0,0,0,0,0,0,0,-1,1686,1086,0,0
469,-62,0,0,0,0,0,0,0,0,0,-1,1693,1086,0,0
476,-62,0,0,0,0,0,0,0,0,0,-1,1700,1086,0,0
483,-62,0,0,0,0,0,0,0,0,0,-1,1707,1086,0,0
490,-62,0,0,0,0,0,0,0,0,0,-1,1714,1086,0,0
497,-62,0,0,0,0,0,0,0,0,0,-1,1721,1086,0,0
504,-62,0,0,0,0,0,0,0,0,0,-1,1728,1086,0,0
511,-62,0,0,0,0,0,0,0,0,0,-1,1735,1086,0,0
518,-62,0,0,0,0,0,0,0,0,0,-1,1742,1086,0,0
525,-62,0,0,0,0,0,0,0,0,0,-1,1749,1086,0,0
532,-62,0,0,0,0,0,0,0,0,0,-1,1756,1086,0,0
539,-62,0,0,0,0,0,0,0,0,0,-1,1763,1086,0,0
546,-62,0,0,0,0,0,0,0,0,0,-1,1770,1086,0,0
553,-62,0,0,0,0,0,0,0,0,0,-1,1777,1086,0,0
560,-62,0,0,0,0,0,0,0,0,0,-1,1784,1086,0,0
567,-62,0,0,0,0,0,0,0,0,0,-1,1791,1086,0,0
574,-62,0,0,0,0,0,0,0,0,0,-1,1798,1086,0,0
581,-62,0,0,0,0,0,0,0,0,0,-1,1805,1086,0,0
588,-62,0,0,0,0,0,0,0,0,0,-1,1812,1086,0,0
595,-62,0,0,0,0,0,0,0,0,0,-1,1819,1086,0,0
602,-62,0,0,0,0,0,0,0,0,0,-1,1826,1086,0,0
609,-62,0,0,0,0,0,0,0,0,0,-1,1833,1086,0,0
616,-62,0,0,0,0,0,0,0,0,0,-1,1840,1086,0,0
623,-62,0,0,0,0,0,0,0,0,0,-1,1847,1086,0,0
630,-62,0,0,0,0,0,0,0,0,0,-1,1854,1086,0,0
637,-62,0,0,0,0,0,0,0,0,0,-1,1861,1086,0,0
644,-62,0,0,0,0,0,0,0,0,0,-1,1868,1086,0,0
651,-62,82.1317,2.0719,0,0,0,0,0,0,0,-1,1875,1086,82.1317,-2.07187
658,-62,82.1346,2.00623,-0.00224148,0.00355006,-0.000270865,0.0035627,-0.00225412,-1.52416,0.00338655,0.0392115,1882,1086,82.1346,-2.00622
665,-62,81.9803,2.16321,-0.00151495,0.00280763,2.84903e-07,0.00280763,-0.00151495,1.57073,0.00253257,0.0402108,1889,1086,81.9803,-2.16316
672,-62,81.9417,2.27722,-0.000929127,0.00230783,0.00022385,0.00232324,-0.000944534,1.50208,0.00194182,0.0386067,1896,1086,81.9416,-2.27721
679,-62,82.0454,2.35071,-0.000452649,0.00193457,0.000381468,0.00199405,-0.000512124,1.41613,0.00152893,0.0386587,1903,1086,82.0454,-2.35065
686,-62,82.2061,2.23584,-0.000492175,0.00145675,0.000443842,0.00155307,-0.000588494,1.3571,0.00127755,0.0415191,1910,1086,82.206,-2.23585
693,-62,82.1561,2.28137,-0.000647553,0.000913234,0.000602061,0.00111848,-0.000852802,1.24224,0.00114156,0.0383123,1917,1086,82.1561,-2.28138
700,-62,82.1477,2.24805,-0.000735893,0.000633216,0.000840072,0.00103233,-0.00113501,1.12727,0.00125178,0.0302285,1924,1086,82.1478,-2.24808
707,-62,82.1241,2.27014,-0.00108212,0.000572797,0.00116161,0.00117153,-0.00168085,1.09488,0.00165555,0.0197171,1931,1086,82.1241,-2.27009
714,-62,82.1128,2.21436,-0.00161086,0.000851913,0.001511,0.00156974,-0.00232868,1.12729,0.00226493,0.0359186,1938,1086,82.1128,-2.21435
721,-62,82.1012,2.12756,0,0,0,0,0,0,0,-1,1945,1086,82.1012,-2.12761
728,-62,79.9576,9.37817,0,0,0,0,0,0,0,-1,1952,1086,79.9576,-9.37823
735,-62,79.8015,8.75879,-0.00433064,0.00330026,0.0019693,0.0037785,-0.00480888,1.33256,0.00496981,0.0336714,1959,1086,79.8015,-8.75882
742,-62,79.7079,8.35046,-0.00470395,0.00430925,0.0020205,0.00474146,-0.00513616,1.36006,0.00570436,0.0349425,1966,1086,79.7079,-8.35042
749,-62,79.7202,7.86816,-0.00523,0.00598947,0.00203577,0.00634744,-0.00558797,1.39674,0.00689556,0.02611,1973,1086,79.7203,-7.86817
756,-62,79.5964,7.42383,-0.00546468,0.00829372,0.00136055,0.00842697,-0.00559793,1.47317,0.00815201,0.0160731,1980,1086,79.5964,-7.42387
763,-62,79.5105,6.91284,-0.00533895,0.0110184,-0.000111613,0.0110191,-0.00533972,-1.56397,0.00963264,0.020551,1987,1086,79.5104,-6.91286
770,-62,79.4292,6.37683,-0.0042568,0.0146462,-0.00272089,0.0150301,-0.00464065,-1.43065,0.0118732,0.019944,1994,1086,79.4291,-6.37681
777,-62,79.2334,5.84888,-0.00196369,0.0187058,-0.0066689,0.0206707,-0.00392858,-1.28427,0.0152595,0.0194639,2001,1086,79.2335,-5.84885
784,-62,79.1816,5.276,0.00120411,0.0225131,-0.0116754,0.0276647,-0.00394747,-1.15525,0.01989,0.0291495,2008,1086,79.1816,-5.27606
791,-62,78.9827,4.7135,0.00553438,0.0259994,-0.0184161,0.0368348,-0.00530105,-1.03898,0.0265009,0.043229,2015,1086,78.9827,-4.71347
798,-62,78.6428,4.328,0.0118408,0.0289262,-0.0275119,0.0491912,-0.00842426,-0.935933,0.0359329,0.0423952,2022,1086,78.6428,-4.32796
805,-62,78.9834,3.88928,0.0209042,0.0313118,-0.0395364,0.0659854,-0.0137694,-0.850832,0.0492262,0.0439941,2029,1086,78.9835,-3.88931
812,-62,78.8342,3.18799,0,0,0,0,0,0,0,-1,2036,1086,78.8343,-3.188
-700,-69,-68.38,-3.27625,0,0,0,0,0,0,0,-1,524,1093,-68.38,3.27631
-693,-69,-67.5475,-2.38184,0.114507,0.0994035,0.136779,0.243943,-0.0300324,0.757821,0.173508,0.0483264,531,1093,-67.5475,2.38186
-686,-69,-66.6814,-1.38953,0,0,0,0,0,0,0,-1,538,1093,-66.6814,1.38953
-679,-69,-65.6699,-0.273071,0,0,0,0,0,0,0,-1,545,1093,-65.6699,0.273106
-672,-69,-66.052,-1.55908,0,0,0,0,0,0,0,-1,552,1093,-66.052,1.55913
-665,-69,-64.7987,-0.251465,0,0,0,0,0,0,0,-1,559,1093,-64.7987,0.251501
-658,-69,-63.5455,1.05615,0,0,0,0,0,0,0,-1,566,1093,-63.5455,-1.05613
-651,-69,-61.4142,4.71887,0,0,0,0,0,0,0,-1,573,1093,-61.4142,-4.71888
-644,-69,-62.9778,5.4353,0,0,0,0,0,0,0,-1,580,1093,-62.9778,-5.43532
-637,-69,-62.983,6.0105,0.0170097,0.0242991,0.0165184,0.0375701,0.00373874,0.893981,0.0238982,0.0213242,587,1093,-62.983,-6.01055
-630,-69,-63.0372,6.50903,0.00821061,0.0161301,0.00787917,0.0209886,0.00335215,1.01825,0.0130197,0.0171156,594,1093,-63.0372,-6.509
-623,-69,-63.0222,7.04248,0.0025669,0.010032,0.00273683,0.0109279,0.00167103,1.25445,0.00679704,0.0213452,601,1093,-63.0222,-7.04251
-616,-69,-63.0717,7.56787,0.000319669,0.00556991,-0.000463596,0.00561053,0.000279048,-1.4834,0.0036509,0.0274002,608,1093,-63.0716,-7.56786
-609,-69,-63.1029,8.0354,-0.000687184,0.00222378,-0.0024433,0.00361226,-0.00207567,-1.05403,0.00332363,0.0236997,615,1093,-63.1029,-8.03538
-602,-69,-63.0389,8.59375,-0.000460766,-2.56071e-05,-0.00320149,0.00296568,-0.00345206,-0.819327,0.00370883,0.0208802,622,1093,-63.0389,-8.59374
-595,-69,-62.9357,8.99377,0.00010885,-0.000964687,-0.00326315,0.00287908,-0.00373492,-0.703881,0.00382924,0.048559,629,1093,-62.9357,-8.99383
-588,-69,-62.9577,9.22156,0,0,0,0,0,0,0,-1,636,1093,-62.9577,-9.22155
-581,-69,-65.2012,0.522461,0,0,0,0,0,0,0,-1,643,1093,-65.2012,-0.522442
-574,-69,-65.2123,0.487183,0.00111481,-0.00205965,-0.00178004,0.0019125,-0.00285733,-0.421297,0.00277182,0.0310902,650,1093,-65.2123,-0.487203
-567,-69,-65.0755,0.497803,0.00118774,-0.0017477,-0.00106809,0.00153523,-0.0020952,-0.314544,0.00210433,0.0371861,657,1093,-65.0755,-0.49784
-560,-69,-65.1597,0.407227,0.000981434,-0.00105713,-6.64219e-05,0.000983596,-0.00105929,-0.0325366,0.00117973,0.041396,664,1093,-65.1597,-0.407182
-553,-69,-65.2827,0.485596,0.000504936,-8.94987e-05,0.00136571,0.0016054,-0.00118996,0.678255,0.00161983,0.0394178,671,1093,-65.2827,-0.485579
-546,-69,-65.2453,0.476074,6.83333e-06,0.00094757,0.00331381,0.00382422,-0.00286982,0.855898,0.00387788,0.0361603,678,1093,-65.2453,-0.476117
-539,-69,-65.1783,0.603149,-0.000220211,0.00136441,0.00575598,0.00638236,-0.00523815,0.853794,0.00671993,0.040496,685,1093,-65.1783,-0.603184
-532,-69,-64.7845,0.9823,0,0,0,0,0,0,0,-1,692,1093,-64.7845,-0.982242
-525,-69,0,0,0,0,0,0,0,0,0,-1,699,1093,0,0
-518,-69,0,0,0,0,0,0,0,0,0,-1,706,1093,0,0
-511,-69,0,0,0,0,0,0,0,0,0,-1,713,1093,0,0
-504,-69,0,0,0,0,0,0,0,0,0,-1,720,1093,0,0
-497,-69,0,0,0,0,0,0,0,0,0,-1,727,1093,0,0
-490,-69,0,0,0,0,0,0,0,0,0,-1,734,1093,0,0
-483,-69,0,0,0,0,0,0,0,0,0,-1,741,1093,0,0
-476,-69,0,0,0,0,0,0,0,0,0,-1,748,1093,0,0
-469,-69,0,0,0,0,0,0,0,0,0,-1,755,1093,0,0
-462,-69,0,0,0,0,0,0,0,0,0,-1,762,1093,0,0
-455,-69,0,0,0,0,0,0,0,0,0,-1,769,1093,0,0
-448,-69,0,0,0,0,0,0,0,0,0,-1,776,1093,0,0
-441,-69,0,0,0,0,0,0,0,0,0,-1,783,1093,0,0
-434,-69,0,0,0,0,0,0,0,0,0,-1,790,1093,0,0
-427,-69,0,0,0,0,0,0,0,0,0,-1,797,1093,0,0
-420,-69,0,0,0,0,0,0,0,0,0,-1,804,1093,0,0
-413,-69,0,0,0,0,0,0,0,0,0,-1,811,1093,0,0
-406,-69,0,0,0,0,0,0,0,0,0,-1,818,1093,0,0
-399,-69,0,0,0,0,0,0,0,0,0,-1,825,1093,0,0
-392,-69,0,0,0,0,0,0,0,0,0,-1,832,1093,0,0
-385,-69,0,0,0,0,0,0,0,0,0,-1,839,1093,0,0
-378,-69,0,0,0,0,0,0,0,0,0,-1,846,1093,0,0
-371,-69,0,0,0,0,0,0,0,0,0,-1,853,1093,0,0
-364,-69,0,0,0,0,0,0,0,0,0,-1,860,1093,0,0
-357,-69,0,0,0,0,0,0,0,0,0,-1,867,1093,0,0
-350,-69,0,0,0,0,0,0,0,0,0,-1,874,1093,0,0
-343,-69,0,0,0,0,0,0,0,0,0,-1,881,1093,0,0
-336,-69,0,0,0,0,0,0,0,0,0,-1,888,1093,0,0
-329,-69,0,0,0,0,0,0,0,0,0,-1,895,1093,0,0
-322,-69,0,0,0,0,0,0,0,0,0,-1,902,1093,0,0
-315,-69,0,0,0,0,0,0,0,0,0,-1,909,1093,0,0
-308,-69,0,0,0,0,0,0,0,0,0,-1,916,1093,0,0
-301,-69,0,0,0,0,0,0,0,0,0,-1,923,1093,0,0
-294,-69,0,0,0,0,0,0,0,0,0,-1,930,1093,0,0
-287,-69,0,0,0,0,0,0,0,0,0,-1,937,1093,0,0
-280,-69,0,0,0,0,0,0,0,0,0,-1,944,1093,0,0
-273,-69,0,0,0,0,0,0,0,0,0,-1,951,1093,0,0
-266,-69,0,0,0,0,0,0,0,0,0,-1,958,1093,0,0
-259,-69,0,0,0,0,0,0,0,0,0,-1,965,1093,0,0
-252,-69,0,0,0,0,0,0,0,0,0,-1,972,1093,0,0
-245,-69,0,0,0,0,0,0,0,0,0,-1,979,1093,0,0
-238,-69,0,0,0,0,0,0,0,0,0,-1,986,1093,0,0
-231,-69,0,0,0,0,0,0,0,0,0,-1,993,1093,0,0
-224,-69,0,0,0,0,0,0,0,0,0,-1,1000,1093,0,0
-217,-69,0,0,0,0,0,0,0,0,0,-1,1007,1093,0,0
-210,-69,0,0,0,0,0,0,0,0,0,-1,1014,1093,0,0
-203,-69,0,0,0,0,0,0,0,0,0,-1,1021,1093,0,0
-196,-69,0,0,0,0,0,0,0,0,0,-1,1028,1093,0,0
-189,-69,0,0,0,0,0,0,0,0,0,-1,1035,1093,0,0
-182,-69,0,0,0,0,0,0,0,0,0,-1,1042,1093,0,0
-175,-69,0,0,0,0,0,0,0,0,0,-1,1049,1093,0,0
-168,-69,0,0,0,0,0,0,0,0,0,-1,1056,1093,0,0
-161,-69,0,0,0,0,0,0,0,0,0,-1,1063,1093,0,0
-154,-69,0,0,0,0,0,0,0,0,0,-1,1070,1093,0,0
-147,-69,0,0,0,0,0,0,0,0,0,-1,1077,1093,0,0
-140,-69,0,0,0,0,0,0,0,0,0,-1,1084,1093,0,0
-133,-69,0,0,0,0,0,0,0,0,0,-1,1091,1093,0,0
-126,-69,0,0,0,0,0,0,0,0,0,-1,1098,1093,0,0
-119,-69,0,0,0,0,0,0,0,0,0,-1,1105,1093,0,0
-112,-69,0,0,0,0,0,0,0,0,0,-1,1112,1093,0,0
-105,-69,0,0,0,0,0,0,0,0,0,-1,1119,1093,0,0
-98,-69,0,0,0,0,0,0,0,0,0,-1,1126,1093,0,0
-91,-69,0,0,0,0,0,0,0,0,0,-1,1133,1093,0,0
-84,-69,0,0,0,0,0,0,0,0,0,-1,1140,1093,0,0
-77,-69,0,0,0,0,0,0,0,0,0,-1,1147,1093,0,0
-70,-69,0,0,0,0,0,0,0,0,0,-1,1154,1093,0,0
-63,-69,0,0,0,0,0,0,0,0,0,-1,1161,1093,0,0
-56,-69,0,0,0,0,0,0,0,0,0,-1,1168,1093,0,0
-49,-69,0,0,0,0,0,0,0,0,0,-1,1175,1093,0,0
-42,-69,0,0,0,0,0,0,0,0,0,-1,1182,1093,0,0
-35,-69,0,0,0,0,0,0,0,0,0,-1,1189,1093,0,0
-28,-69,0,0,0,0,0,0,0,0,0,-1,1196,1093,0,0
-21,-69,0,0,0,0,0,0,0,0,0,-1,1203,1093,0,0
-14,-69,0,0,0,0,0,0,0,0,0,-1,1210,1093,0,0
-7,-69,0,0,0,0,0,0,0,0,0,-1,1217,1093,0,0
0,-69,0,0,0,0,0,0,0,0,0,-1,1224,1093,0,0
7,-69,0,0,0,0,0,0,0,0,0,-1,1231,1093,0,0
14,-69,0,0,0,0,0,0,0,0,0,-1,1238,1093,0,0
21,-69,0,0,0,0,0,0,0,0,0,-1,1245,1093,0,0
28,-69,0,0,0,0,0,0,0,0,0,-1,1252,1093,0,0
35,-69,0,0,0,0,0,0,0,0,0,-1,1259,1093,0,0
42,-69,0,0,0,0,0,0,0,0,0,-1,1266,1093,0,0
49,-69,0,0,0,0,0,0,0,0,0,-1,1273,1093,0,0
56,-69,0,0,0,0,0,0,0,0,0,-1,1280,1093,0,0
63,-69,0,0,0,0,0,0,0,0,0,-1,1287,1093,0,0
70,-69,0,0,0,0,0,0,0,0,0,-1,1294,1093,0,0
77,-69,0,0,0,0,0,0,0,0,0,-1,1301,1093,0,0
84,-69,0,0,0,0,0,0,0,0,0,-1,1308,1093,0,0
91,-69,0,0,0,0,0,0,0,0,0,-1,1315,1093,0,0
98,-69,0,0,0,0,0,0,0,0,0,-1,1322,1093,0,0
105,-69,0,0,0,0,0,0,0,0,0,-1,1329,1093,0,0
112,-69,0,0,0,0,0,0,0,0,0,-1,1336,1093,0,0
119,-69,0,0,0,0,0,0,0,0,0,-1,1343,1093,0,0
126,-69,0,0,0,0,0,0,0,0,0,-1,1350,1093,0,0
133,-69,0,0,0,0,0,0,0,0,0,-1,1357,1093,0,0
140,-69,0,0,0,0,0,0,0,0,0,-1,1364,1093,0,0
147,-69,0,0,0,0,0,0,0,0,0,-1,1371,1093,0,0
154,-69,0,0,0,0,0,0,0,0,0,-1,1378,1093,0,0
161,-69,0,0,0,0,0,0,0,0,0,-1,1385,1093,0,0
168,-69,0,0,0,0,0,0,0,0,0,-1,1392,1093,0,0
175,-69,0,0,0,0,0,0,0,0,0,-1,1399,1093,0,0
182,-69,0,0,0,0,0,0,0,0,0,-1,1406,1093,0,0
189,-69,0,0,0,0,0,0,0,0,0,-1,1413,1093,0,0
196,-69,0,0,0,0,0,0,0,0,0,-1,1420,1093,0,0
203,-69,0,0,0,0,0,0,0,0,0,-1,1427,1093,0,0
210,-69,0,0,0,0,0,0,0,0,0,-1,1434,1093,0,0
217,-69,0,0,0,0,0,0,0,0,0,-1,1441,1093,0,0
224,-69,0,0,0,0,0,0,0,0,0,-1,1448,1093,0,0
231,-69,0,0,0,0,0,0,0,0,0,-1,1455,1093,0,0
238,-69,0,0,0,0,0,0,0,0,0,-1,1462,1093,0,0
245,-69,0,0,0,0,0,0,0,0,0,-1,1469,1093,0,0
252,-69,0,0,0,0,0,0,0,0,0,-1,1476,1093,0,0
259,-69,0,0,0,0,0,0,0,0,0,-1,1483,1093,0,0
266,-69,0,0,0,0,0,0,0,0,0,-1,1490,1093,0,0
273,-69,0,0,0,0,0,0,0,0,0,-1,1497,1093,0,0
280,-69,0,0,0,0,0,0,0,0,0,-1,1504,1093,0,0
287,-69,0,0,0,0,0,0,0,0,0,-1,1511,1093,0,0
294,-69,0,0,0,0,0,0,0,0,0,-1,1518,1093,0,0
301,-69,0,0,0,0,0,0,0,0,0,-1,1525,1093,0,0
308,-69,0,0,0,0,0,0,0,0,0,-1,1532,1093,0,0
315,-69,0,0,0,0,0,0,0,0,0,-1,1539,1093,0,0
322,-69,0,0,0,0,0,0,0,0,0,-1,1546,1093,0,0
329,-69,0,0,0,0,0,0,0,0,0,-1,1553,1093,0,0
336,-69,0,0,0,0,0,0,0,0,0,-1,1560,1093,0,0
343,-69,0,0,0,0,0,0,0,0,0,-1,1567,1093,0,0
350,-69,0,0,0,0,0,0,0,0,0,-1,1574,1093,0,0
357,-69,0,0,0,0,0,0,0,0,0,-1,1581,1093,0,0
364,-69,0,0,0,0,0,0,0,0,0,-1,1588,1093,0,0
371,-69,0,0,0,0,0,0,0,0,0,-1,1595,1093,0,0
378,-69,0,0,0,0,0,0,0,0,0,-1,1602,1093,0,0
385,-69,0,0,0,0,0,0,0,0,0,-1,1609,1093,0,0
392,-69,0,0,0,0,0,0,0,0,0,-1,1616,1093,0,0
399,-69,0,0,0,0,0,0,0,0,0,-1,1623,1093,0,0
406,-69,0,0,0,0,0,0,0,0,0,-1,1630,1093,0,0
413,-69,0,0,0,0,0,0,0,0,0,-1,1637,1093,0,0
420,-69,0,0,0,0,0,0,0,0,0,-1,1644,1093,0,0
427,-69,0,0,0,0,0,0,0,0,0,-1,1651,1093,0,0
434,-69,0,0,0,0,0,0,0,0,0,-1,1658,1093,0,0
441,-69,0,0,0,0,0,0,0,0,0,-1,1665,1093,0,0
448,-69,0,0,0,0,0,0,0,0,0,-1,1672,1093,0,0
455,-69,0,0,0,0,0,0,0,0,0,-1,1679,1093,0,0
462,-69,0,0,0,0,0,0,0,0,0,-1,1686,1093,0,0
469,-69,0,0,0,0,0,0,0,0,0,-1,1693,1093,0,0
476,-69,0,0,0,0,0,0,0,0,0,-1,1700,1093,0,0
483,-69,0,0,0,0,0,0,0,0,0,-1,1707,1093,0,0
490,-69,0,0,0,0,0,0,0,0,0,-1,1714,1093,0,0
497,-69,0,0,0,0,0,0,0,0,0,-1,1721,1093,0,0
504,-69,0,0,0,0,0,0,0,0,0,-1,1728,1093,0,0
511,-69,0,0,0,0,0,0,0,0,0,-1,1735,1093,0,0
518,-69,0,0,0,0,0,0,0,0,0,-1,1742,1093,0,0
525,-69,0,0,0,0,0,0,0,0,0,-1,1749,1093,0,0
532,-69,0,0,0,0,0,0,0,0,0,-1,1756,1093,0,0
539,-69,0,0,0,0,0,0,0,0,0,-1,1763,1093,0,0
546,-69,0,0,0,0,0,0,0,0,0,-1,1770,1093,0,0
553,-69,0,0,0,0,0,0,0,0,0,-1,1777,1093,0,0
560,-69,0,0,0,0,0,0,0,0,0,-1,1784,1093,0,0
567,-69,0,0,0,0,0,0,0,0,0,-1,1791,1093,0,0
574,-69,0,0,0,0,0,0,0,0,0,-1,1798,1093,0,0
581,-69,0,0,0,0,0,0,0,0,0,-1,1805,1093,0,0
588,-69,0,0,0,0,0,0,0,0,0,-1,1812,1093,0,0
595,-69,0,0,0,0,0,0,0,0,0,-1,1819,1093,0,0
602,-69,0,0,0,0,0,0,0,0,0,-1,1826,1093,0,0
609,-69,0,0,0,0,0,0,0,0,0,-1,1833,1093,0,0
616,-69,0,0,0,0,0,0,0,0,0,-1,1840,1093,0,0
623,-69,0,0,0,0,0,0,0,0,0,-1,1847,1093,0,0
630,-69,0,0,0,0,0,0,0,0,0,-1,1854,1093,0,0
637,-69,0,0,0,0,0,0,0,0,0,-1,1861,1093,0,0
644,-69,0,0,0,0,0,0,0,0,0,-1,1868,1093,0,0
651,-69,82.1091,2.3208,0,0,0,0,0,0,0,-1,1875,1093,82.1091,-2.32081
658,-69,82.0946,2.06335,-0.00128865,0.00232147,-0.000176361,0.00233007,-0.00129725,-1.5221,0.00212234,0.0448752,1882,1093,82.0946,-2.06339
665,-69,81.9567,2.15405,-0.00081743,0.00181926,5.69638e-05,0.00182049,-0.00081866,1.54921,0.00155988,0.0454299,1889,1093,81.9567,-2.15409
672,-69,81.9146,2.24023,-0.000413736,0.00149075,0.000224582,0.00151688,-0.000439861,1.45499,0.00118539,0.0384235,1896,1093,81.9146,-2.24021
679,-69,82.0723,2.3186,-8.2769e-05,0.00125616,0.00033462,0.00133513,-0.000161738,1.33904,0.000948607,0.0389244,1903,1093,82.0723,-2.31854
686,-69,82.233,2.31677,-0.000175817,0.000911398,0.000337553,0.00100767,-0.000272093,1.29296,0.000778496,0.0418221,1910,1093,82.233,-2.31678
693,-69,82.1257,2.23767,-0.000347146,0.000452188,0.000460066,0.000661942,-0.0005569,1.14303,0.00070457,0.0372573,1917,1093,82.1257,-2.23766
700,-69,82.0784,2.10107,-0.000431843,0.000253594,0.000661758,0.000656114,-0.000834362,1.02433,0.000862576,0.0285139,1924,1093,82.0783,-2.10107
707,-69,82.08,2.1853,-0.000740844,0.000278614,0.000970641,0.000865227,-0.00132746,1.02718,0.00127529,0.021636,1931,1093,82.08,-2.18534
714,-69,82.0859,2.12146,-0.00121461,0.000604331,0.00132616,0.00130292,-0.00191319,1.08596,0.00186793,0.0360848,1938,1093,82.0859,-2.12148
721,-69,82.072,1.98889,0,0,0,0,0,0,0,-1,1945,1093,82.0721,-1.98884
728,-69,78.9836,9.56604,0,0,0,0,0,0,0,-1,1952,1093,78.9836,-9.56609
735,-69,79.2748,8.94128,-0.00364188,0.00292115,0.00176929,0.00336774,-0.00408847,1.32355,0.00431154,0.0489495,1959,1093,79.2748,-8.94131
742,-69,79.1017,8.53418,-0.00387163,0.00380796,0.00184351,0.00422758,-0.00429124,1.34699,0.00491838,0.0361108,1966,1093,79.1017,-8.53413
749,-69,78.9016,7.94312,-0.00423624,0.00550968,0.00186326,0.00585376,-0.00458031,1.38819,0.00603905,0.0378715,1973,1093,78.9017,-7.94314
756,-69,79.0049,7.39844,-0.00433041,0.00795861,0.00114686,0.00806472,-0.00443653,1.47853,0.00731822,0.0178506,1980,1093,79.0048,-7.39844
763,-69,78.9541,6.85974,-0.00396111,0.0110154,-0.000348414,0.0110235,-0.00396921,-1.54755,0.00896974,0.021653,1987,1093,78.9542,-6.85975
770,-69,78.7969,6.34839,-0.00249048,0.0152982,-0.00311459,0.0158278,-0.00302004,-1.40238,0.0116893,0.0252068,1994,1093,78.7969,-6.34838
777,-69,78.6021,5.90515,0.000206064,0.0204001,-0.00724016,0.0227276,-0.00212148,-1.25975,0.0159061,0.0314139,2001,1093,78.6021,-5.90514
784,-69,78.5977,5.11633,0.00380508,0.0257084,-0.0124941,0.0313712,-0.00185779,-1.14525,0.0215601,0.0349214,2008,1093,78.5976,-5.11632
791,-69,78.7302,4.26599,0.00865532,0.0314587,-0.0196293,0.0427574,-0.00264342,-1.04851,0.0294257,0.0465549,2015,1093,78.7302,-4.26598
798,-69,78.8628,3.45996,0,0,0,0,0,0,0,-1,2022,1093,78.8627,-3.46
805,-69,79.2529,3.83167,0,0,0,0,0,0,0,-1,2029,1093,79.2529,-3.83165
812,-69,79.1013,3.21411,0,0,0,0,0,0,0,-1,2036,1093,79.1013,-3.21417
-700,-76,0,0,0,0,0,0,0,0,0,-1,524,1100,0,0
-693,-76,-67.8616,-3.22864,0,0,0,0,0,0,0,-1,531,1100,-67.8616,3.22865
-686,-76,-66.9087,-2.18384,0,0,0,0,0,0,0,-1,538,1100,-66.9087,2.18378
-679,-76,-66.0137,-1.19739,0,0,0,0,0,0,0,-1,545,1100,-66.0137,1.19738
-672,-76,-66.0634,-1.73511,0,0,0,0,0,0,0,-1,552,1100,-66.0633,1.73507
-665,-76,-64.7664,-0.422485,0,0,0,0,0,0,0,-1,559,1100,-64.7664,0.422442
-658,-76,-63.4695,0.890137,0,0,0,0,0,0,0,-1,566,1100,-63.4695,-0.890184
-651,-76,-60.5158,4.98511,0,0,0,0,0,0,0,-1,573,1100,-60.5158,-4.98512
-644,-76,-62.1619,5.33643,0,0,0,0,0,0,0,-1,580,1100,-62.1619,-5.33644
-637,-76,-62.3153,5.9126,0.0193633,0.022451,0.0159604,0.0369421,0.00487223,0.833612,0.0231753,0.0257783,587,1100,-62.3153,-5.9126
-630,-76,-62.3641,6.43811,0.00888943,0.0147588,0.00749662,0.0198747,0.00377354,0.971962,0.0121882,0.0169943,594,1100,-62.3642,-6.43817
-623,-76,-62.4027,6.98511,0.00200482,0.00881109,0.00217802,0.00944839,0.00136752,1.28614,0.00589619,0.0230294,601,1100,-62.4027,-6.98507
-616,-76,-62.4953,7.59424,-0.000788146,0.00457176,-0.000996976,0.00475119,-0.000967582,-1.39272,0.00353442,0.0244074,608,1100,-62.4953,-7.59426
-609,-76,-62.5153,8.10986,-0.00178033,0.00164222,-0.00264644,0.00308247,-0.00322058,-1.0724,0.00363936,0.0231029,615,1100,-62.5153,-8.10988
-602,-76,-62.4211,8.68469,-0.00139316,-4.63287e-05,-0.00314686,0.00249836,-0.00393785,-0.890806,0.0037468,0.021619,622,1100,-62.4211,-8.68472
-595,-76,-62.4297,9.15088,-0.000707614,-0.000678428,-0.00317248,0.00247949,-0.00386553,-0.787698,0.00369232,0.0417083,629,1100,-62.4297,-9.15091
-588,-76,-62.5635,9.5376,0,0,0,0,0,0,0,-1,636,1100,-62.5635,-9.53757
-581,-76,-65.1777,0.444458,0,0,0,0,0,0,0,-1,643,1100,-65.1777,-0.444494
-574,-76,-65.1658,0.431885,0.000596649,-0.00161046,-0.00170482,0.00152392,-0.00253773,-0.498156,0.00236922,0.0357919,650,1100,-65.1657,-0.431886
-567,-76,-65.1589,0.411255,0.000859022,-0.00131415,-0.00105765,0.00128878,-0.00174391,-0.385952,0.00175748,0.0413238,657,1100,-65.1589,-0.411266
-560,-76,-65.3362,0.365112,0.000867222,-0.00064787,-0.000143873,0.000880763,-0.000661411,-0.0938422,0.000893372,0.0433945,664,1100,-65.3362,-0.365126
-553,-76,-65.3417,0.544312,0.000556963,0.000347955,0.00118741,0.00164445,-0.000739537,0.741506,0.00140906,0.0448378,671,1100,-65.3417,-0.544279
-546,-76,-65.2164,0.488159,0.000224192,0.00150516,0.00304532,0.00397662,-0.00224727,0.889046,0.00363931,0.0429508,678,1100,-65.2164,-0.488152
-539,-76,-65.0995,0.565918,0.000244686,0.00213349,0.00542889,0.00669951,-0.00432133,0.871516,0.00641208,0.0412395,685,1100,-65.0995,-0.565962
-532,-76,-64.9141,0.883789,-6.02999e-05,0.0030941,0.00780605,0.00948069,-0.00644689,0.88508,0.00925123,0.0434151,692,1100,-64.9141,-0.883796
-525,-76,0,0,0,0,0,0,0,0,0,-1,699,1100,0,0
-518,-76,0,0,0,0,0,0,0,0,0,-1,706,1100,0,0
-511,-76,0,0,0,0,0,0,0,0,0,-1,713,1100,0,0
-504,-76,0,0,0,0,0,0,0,0,0,-1,720,1100,0,0
-497,-76,0,0,0,0,0,0,0,0,0,-1,727,1100,0,0
-490,-76,0,0,0,0,0,0,0,0,0,-1,734,1100,0,0
-483,-76,0,0,0,0,0,0,0,0,0,-1,741,1100,0,0
-476,-76,0,0,0,0,0,0,0,0,0,-1,748,1100,0,0
-469,-76,0,0,0,0,0,0,0,0,0,-1,755,1100,0,0
-462,-76,0,0,0,0,0,0,0,0,0,-1,762,1100,0,0
-455,-76,0,0,0,0,0,0,0,0,0,-1,769,1100,0,0
-448,-76,0,0,0,0,0,0,0,0,0,-1,776,1100,0,0
-441,-76,0,0,0,0,0,0,0,0,0,-1,783,1100,0,0
-434,-76,0,0,0,0,0,0,0,0,0,-1,790,1100,0,0
-427,-76,0,0,0,0,0,0,0,0,0,-1,797,1100,0,0
-420,-76,0,0,0,0,0,0,0,0,0,-1,804,1100,0,0
-413,-76,0,0,0,0,0,0,0,0,0,-1,811,1100,0,0
-406,-76,0,0,0,0,0,0,0,0,0,-1,818,1100,0,0
-399,-76,0,0,0,0,0,0,0,0,0,-1,825,1100,0,0
-392,-76,0,0,0,0,0,0,0,0,0,-1,832,1100,0,0
-385,-76,0,0,0,0,0,0,0,0,0,-1,839,1100,0,0
-378,-76,0,0,0,0,0,0,0,0,0,-1,846,1100,0,0
-371,-76,0,0,0,0,0,0,0,0,0,-1,853,1100,0,0
-364,-76,0,0,0,0,0,0,0,0,0,-1,860,1100,0,0
-357,-76,0,0,0,0,0,0,0,0,0,-1,867,1100,0,0
-350,-76,0,0,0,0,0,0,0,0,0,-1,874,1100,0,0
-343,-76,0,0,0,0,0,0,0,0,0,-1,881,1100,0,0
-336,-76,0,0,0,0,0,0,0,0,0,-1,888,1100,0,0
-329,-76,0,0,0,0,0,0,0,0,0,-1,895,1100,0,0
-322,-76,0,0,0,0,0,0,0,0,0,-1,902,1100,0,0
-315,-76,0,0,0,0,0,0,0,0,0,-1,909,1100,0,0
-308,-76,0,0,0,0,0,0,0,0,0,-1,916,1100,0,0
-301,-76,0,0,0,0,0,0,0,0,0,-1,923,1100,0,0
-294,-76,0,0,0,0,0,0,0,0,0,-1,930,1100,0,0
-287,-76,0,0,0,0,0,0,0,0,0,-1,937,1100,0,0
-280,-76,0,0,0,0,0,0,0,0,0,-1,944,1100,0,0
-273,-76,0,0,0,0,0,0,0,0,0,-1,951,1100,0,0
-266,-76,0,0,0,0,0,0,0,0,0,-1,958,1100,0,0
-259,-76,0,0,0,0,0,0,0,0,0,-1,965,1100,0,0
-252,-76,0,0,0,0,0,0,0,0,0,-1,972,1100,0,0
-245,-76,0,0,0,0,0,0,0,0,0,-1,979,1100,0,0
-238,-76,0,0,0,0,0,0,0,0,0,-1,986,1100,0,0
-231,-76,0,0,0,0,0,0,0,0,0,-1,993,1100,0,0
-224,-76,0,0,0,0,0,0,0,0,0,-1,1000,1100,0,0
-217,-76,0,0,0,0,0,0,0,0,0,-1,1007,1100,0,0
-210,-76,0,0,0,0,0,0,0,0,0,-1,1014,1100,0,0
-203,-76,0,0,0,0,0,0,0,0,0,-1,1021,1100,0,0
-196,-76,0,0,0,0,0,0,0,0,0,-1,1028,1100,0,0
-189,-76,0,0,0,0,0,0,0,0,0,-1,1035,1100,0,0
-182,-76,0,0,0,0,0,0,0,0,0,-1,1042,1100,0,0
-175,-76,0,0,0,0,0,0,0,0,0,-1,1049,1100,0,0
-168,-76,0,0,0,0,0,0,0,0,0,-1,1056,1100,0,0
-161,-76,0,0,0,0,0,0,0,0,0,-1,1063,1100,0,0
-154,-76,0,0,0,0,0,0,0,0,0,-1,1070,1100,0,0
-147,-76,0,0,0,0,0,0,0,0,0,-1,1077,1100,0,0
-140,-76,0,0,0,0,0,0,0,0,0,-1,1084,1100,0,0
-133,-76,0,0,0,0,0,0,0,0,0,-1,1091,1100,0,0
-126,-76,0,0,0,0,0,0,0,0,0,-1,1098,1100,0,0
-119,-76,0,0,0,0,0,0,0,0,0,-1,1105,1100,0,0
-112,-76,0,0,0,0,0,0,0,0,0,-1,1112,1100,0,0
-105,-76,0,0,0,0,0,0,0,0,0,-1,1119,1100,0,0
-98,-76,0,0,0,0,0,0,0,0,0,-1,1126,1100,0,0
-91,-76,0,0,0,0,0,0,0,0,0,-1,1133,1100,0,0
-84,-76,0,0,0,0,0,0,0,0,0,-1,1140,1100,0,0
-77,-76,0,0,0,0,0,0,0,0,0,-1,1147,1100,0,0
-70,-76,0,0,0,0,0,0,0,0,0,-1,1154,1100,0,0
-63,-76,0,0,0,0,0,0,0,0,0,-1,1161,1100,0,0
-56,-76,0,0,0,0,0,0,0,0,0,-1,1168,1100,0,0
-49,-76,0,0,0,0,0,0,0,0,0,-1,1175,1100,0,0
-42,-76,0,0,0,0,0,0,0,0,0,-1,1182,1100,0,0
-35,-76,0,0,0,0,0,0,0,0,0,-1,1189,1100,0,0
-28,-76,0,0,0,0,0,0,0,0,0,-1,1196,1100,0,0
-21,-76,0,0,0,0,0,0,0,0,0,-1,1203,1100,0,0
-14,-76,0,0,0,0,0,0,0,0,0,-1,1210,1100,0,0
-7,-76,0,0,0,0,0,0,0,0,0,-1,1217,1100,0,0
0,-76,0,0,0,0,0,0,0,0,0,-1,1224,1100,0,0
7,-76,0,0,0,0,0,0,0,0,0,-1,1231,1100,0,0
14,-76,0,0,0,0,0,0,0,0,0,-1,1238,1100,0,0
21,-76,0,0,0,0,0,0,0,0,0,-1,1245,1100,0,0
28,-76,0,0,0,0,0,0,0,0,0,-1,1252,1100,0,0
35,-76,0,0,0,0,0,0,0,0,0,-1,1259,1100,0,0
42,-76,0,0,0,0,0,0,0,0,0,-1,1266,1100,0,0
49,-76,0,0,0,0,0,0,0,0,0,-1,1273,1100,0,0
56,-76,0,0,0,0,0,0,0,0,0,-1,1280,1100,0,0
63,-76,0,0,0,0,0,0,0,0,0,-1,1287,1100,0,0
70,-76,0,0,0,0,0,0,0,0,0,-1,1294,1100,0,0
77,-76,0,0,0,0,0,0,0,0,0,-1,1301,1100,0,0
84,-76,0,0,0,0,0,0,0,0,0,-1,1308,1100,0,0
91,-76,0,0,0,0,0,0,0,0,0,-1,1315,1100,0,0
98,-76,0,0,0,0,0,0,0,0,0,-1,1322,1100,0,0
105,-76,0,0,0,0,0,0,0,0,0,-1,1329,1100,0,0
112,-76,0,0,0,0,0,0,0,0,0,-1,1336,1100,0,0
119,-76,0,0,0,0,0,0,0,0,0,-1,1343,1100,0,0
126,-76,0,0,0,0,0,0,0,0,0,-1,1350,1100,0,0
133,-76,0,0,0,0,0,0,0,0,0,-1,1357,1100,0,0
140,-76,0,0,0,0,0,0,0,0,0,-1,1364,1100,0,0
147,-76,0,0,0,0,0,0,0,0,0,-1,1371,1100,0,0
154,-76,0,0,0,0,0,0,0,0,0,-1,1378,1100,0,0
161,-76,0,0,0,0,0,0,0,0,0,-1,1385,1100,0,0
168,-76,0,0,0,0,0,0,0,0,0,-1,1392,1100,0,0
175,-76,0,0,0,0,0,0,0,0,0,-1,1399,1100,0,0
182,-76,0,0,0,0,0,0,0,0,0,-1,1406,1100,0,0
189,-76,0,0,0,0,0,0,0,0,0,-1,1413,1100,0,0
196,-76,0,0,0,0,0,0,0,0,0,-1,1420,1100,0,0
203,-76,0,0,0,0,0,0,0,0,0,-1,1427,1100,0,0
210,-76,0,0,0,0,0,0,0,0,0,-1,1434,1100,0,0
217,-76,0,0,0,0,0,0,0,0,0,-1,1441,1100,0,0
224,-76,0,0,0,0,0,0,0,0,0,-1,1448,1100,0,0
231,-76,0,0,0,0,0,0,0,0,0,-1,1455,1100,0,0
238,-76,0,0,0,0,0,0,0,0,0,-1,1462,1100,0,0
245,-76,0,0,0,0,0,0,0,0,0,-1,1469,1100,0,0
252,-76,0,0,0,0,0,0,0,0,0,-1,1476,1100,0,0
259,-76,0,0,0,0,0,0,0,0,0,-1,1483,1100,0,0
266,-76,0,0,0,0,0,0,0,0,0,-1,1490,1100,0,0
273,-76,0,0,0,0,0,0,0,0,0,-1,1497,1100,0,0
280,-76,0,0,0,0,0,0,0,0,0,-1,1504,1100,0,0
287,-76,0,0,0,0,0,0,0,0,0,-1,1511,1100,0,0
294,-76,0,0,0,0,0,0,0,0,0,-1,1518,1100,0,0
301,-76,0,0,0,0,0,0,0,0,0,-1,1525,1100,0,0
308,-76,0,0,0,0,0,0,0,0,0,-1,1532,1100,0,0
315,-76,0,0,0,0,0,0,0,0,0,-1,1539,1100,0,0
322,-76,0,0,0,0,0,0,0,0,0,-1,1546,1100,0,0
329,-76,0,0,0,0,0,0,0,0,0,-1,1553,1100,0,0
336,-76,0,0,0,0,0,0,0,0,0,-1,1560,1100,0,0
343,-76,0,0,0,0,0,0,0,0,0,-1,1567,1100,0,0
350,-76,0,0,0,0,0,0,0,0,0,-1,1574,1100,0,0
357,-76,0,0,0,0,0,0,0,0,0,-1,1581,1100,0,0
364,-76,0,0,0,0,0,0,0,0,0,-1,1588,1100,0,0
371,-76,0,0,0,0,0,0,0,0,0,-1,1595,1100,0,0
378,-76,0,0,0,0,0,0,0,0,0,-1,1602,1100,0,0
385,-76,0,0,0,0,0,0,0,0,0,-1,1609,1100,0,0
392,-76,0,0,0,0,0,0,0,0,0,-1,1616,1100,0,0
399,-76,0,0,0,0,0,0,0,0,0,-1,1623,1100,0,0
406,-76,0,0,0,0,0,0,0,0,0,-1,1630,1100,0,0
413,-76,0,0,0,0,0,0,0,0,0,-1,1637,1100,0,0
420,-76,0,0,0,0,0,0,0,0,0,-1,1644,1100,0,0
427,-76,0,0,0,0,0,0,0,0,0,-1,1651,1100,0,0
434,-76,0,0,0,0,0,0,0,0,0,-1,1658,1100,0,0
441,-76,0,0,0,0,0,0,0,0,0,-1,1665,1100,0,0
448,-76,0,0,0,0,0,0,0,0,0,-1,1672,1100,0,0
455,-76,0,0,0,0,0,0,0,0,0,-1,1679,1100,0,0
462,-76,0,0,0,0,0,0,0,0,0,-1,1686,1100,0,0
469,-76,0,0,0,0,0,0,0,0,0,-1,1693,1100,0,0
476,-76,0,0,0,0,0,0,0,0,0,-1,1700,1100,0,0
483,-76,0,0,0,0,0,0,0,0,0,-1,1707,1100,0,0
490,-76,0,0,0,0,0,0,0,0,0,-1,1714,1100,0,0
497,-76,0,0,0,0,0,0,0,0,0,-1,1721,1100,0,0
504,-76,0,0,0,0,0,0,0,0,0,-1,1728,1100,0,0
511,-76,0,0,0,0,0,0,0,0,0,-1,1735,1100,0,0
518,-76,0,0,0,0,0,0,0,0,0,-1,1742,1100,0,0
525,-76,0,0,0,0,0,0,0,0,0,-1,1749,1100,0,0
532,-76,0,0,0,0,0,0,0,0,0,-1,1756,1100,0,0
539,-76,0,0,0,0,0,0,0,0,0,-1,1763,1100,0,0
546,-76,0,0,0,0,0,0,0,0,0,-1,1770,1100,0,0
553,-76,0,0,0,0,0,0,0,0,0,-1,1777,1100,0,0
560,-76,0,0,0,0,0,0,0,0,0,-1,1784,1100,0,0
567,-76,0,0,0,0,0,0,0,0,0,-1,1791,1100,0,0
574,-76,0,0,0,0,0,0,0,0,0,-1,1798,1100,0,0
581,-76,0,0,0,0,0,0,0,0,0,-1,1805,1100,0,0
588,-76,0,0,0,0,0,0,0,0,0,-1,1812,1100,0,0
595,-76,0,0,0,0,0,0,0,0,0,-1,1819,1100,0,0
602,-76,0,0,0,0,0,0,0,0,0,-1,1826,1100,0,0
609,-76,0,0,0,0,0,0,0,0,0,-1,1833,1100,0,0
616,-76,0,0,0,0,0,0,0,0,0,-1,1840,1100,0,0
623,-76,0,0,0,0,0,0,0,0,0,-1,1847,1100,0,0
630,-76,0,0,0,0,0,0,0,0,0,-1,1854,1100,0,0
637,-76,0,0,0,0,0,0,0,0,0,-1,1861,1100,0,0
644,-76,0,0,0,0,0,0,0,0,0,-1,1868,1100,0,0
651,-76,82.1605,2.36292,-0.000406922,0.00116535,-0.000957423,0.00161803,-0.000859604,-1.12913,0.00145263,0.0392758,1875,1100,82.1606,-2.36297
658,-76,82.1075,2.26514,-0.000306751,0.000819493,-0.000570267,0.00105781,-0.000545072,-1.17495,0.000941077,0.0441963,1882,1100,82.1075,-2.26515
665,-76,81.9561,2.1626,-0.000135534,0.000531343,-0.000290557,0.000640177,-0.000244367,-1.2124,0.000527459,0.0402203,1889,1100,81.9561,-2.16266
672,-76,82.0575,2.19568,4.20119e-05,0.000362599,-9.53396e-05,0.00038881,1.58017e-05,-1.30251,0.000254103,0.0358352,1896,1100,82.0575,-2.19569
679,-76,82.1661,2.31836,0.000208575,0.000247894,5.37019e-05,0.000285422,0.000171047,0.960863,0.000165868,0.0371924,1903,1100,82.1662,-2.31832
686,-76,82.2479,2.38147,0.000107825,6.97019e-05,7.96985e-05,0.00017071,6.81706e-06,0.668019,0.000111603,0.0376672,1910,1100,82.2479,-2.38141
693,-76,82.1345,2.13306,-1.12816e-05,-0.000236657,0.000234105,0.000135845,-0.000383784,0.561088,0.000311183,0.0374269,1917,1100,82.1345,-2.13303
700,-76,82.0748,2.1134,-4.75735e-05,-0.000302857,0.000442852,0.000285665,-0.000636095,0.645088,0.000544848,0.0314755,1924,1100,82.0749,-2.11338
707,-76,82.0649,2.18188,-0.000285027,-0.000157312,0.000766582,0.000548068,-0.000990407,0.826953,0.000900394,0.0237959,1931,1100,82.0649,-2.18194
714,-76,82.1171,2.21387,0,0,0,0,0,0,0,-1,1938,1100,82.1171,-2.21389
721,-76,45.1713,3.04919,0,0,0,0,0,0,0,-1,1945,1100,45.1713,-3.04915
728,-76,60.937,8.08447,0,0,0,0,0,0,0,-1,1952,1100,60.937,-8.08446
735,-76,78.4242,9.25989,0,0,0,0,0,0,0,-1,1959,1100,78.4242,-9.25994
742,-76,78.4435,8.61108,-0.00290044,0.00340174,0.00173104,0.0038459,-0.00334461,1.31963,0.00415481,0.0382309,1966,1100,78.4434,-8.6111
749,-76,78.2957,7.97375,-0.00313387,0.00519752,0.00175843,0.00555345,-0.0034898,1.37108,0.00526624,0.0345349,1973,1100,78.2955,-7.97373
756,-76,78.385,7.41846,-0.00312373,0.00786969,0.00103905,0.00796703,-0.00322108,1.47738,0.00665036,0.0180239,1980,1100,78.3851,-7.41851
763,-76,78.3174,6.81177,-0.00251438,0.0115039,-0.000432787,0.0115173,-0.00252773,-1.53996,0.00864483,0.0193147,1987,1100,78.3174,-6.81177
770,-76,78.1614,6.2926,-0.000644679,0.0168349,-0.00325485,0.0174213,-0.00123109,-1.39254,0.0120456,0.0220947,1994,1100,78.1614,-6.29265
777,-76,77.9778,5.90344,0.00248935,0.0234893,-0.00736886,0.025817,0.000161643,-1.26483,0.0171577,0.0259145,2001,1100,77.9778,-5.9034
784,-76,78.0034,4.96094,0.00663195,0.0310195,-0.0126118,0.0363684,0.00128302,-1.16967,0.0238294,0.0349532,2008,1100,78.0034,-4.96093
791,-76,78.0833,4.21265,0,0,0,0,0,0,0,-1,2015,1100,78.0833,-4.21266
798,-76,78.4534,3.81396,0,0,0,0,0,0,0,-1,2022,1100,78.4534,-3.814
805,-76,79.4072,3.64246,0,0,0,0,0,0,0,-1,2029,1100,79.4072,-3.6424
812,-76,78.313,4.11133,0,0,0,0,0,0,0,-1,2036,1100,78.313,-4.11133
-700,-83,0,0,0,0,0,0,0,0,0,-1,524,1107,0,0
-693,-83,-68.3753,-3.79004,0,0,0,0,0,0,0,-1,531,1107,-68.3753,3.79001
-686,-83,-67.8115,-3.10645,0,0,0,0,0,0,0,-1,538,1107,-67.8115,3.10642
-679,-83,-66.819,-2.91992,0.1212,0.0729463,0.0913308,0.191537,0.00260928,0.656263,0.12683,0.04946,545,1107,-66.819,2.91988
-672,-83,-65.7103,-1.99353,0.103692,0.0642218,0.0766908,0.163146,0.00476743,0.659465,0.10721,0.0459561,552,1107,-65.7103,1.99357
-665,-83,-64.7467,-0.62793,0.0855414,0.0553948,0.0626492,0.134905,0.0060311,0.667343,0.0879953,0.0419163,559,1107,-64.7467,0.627933
-658,-83,-63.4718,0.554443,0,0,0,0,0,0,0,-1,566,1107,-63.4718,-0.554447
-651,-83,-60.9243,4.97607,0,0,0,0,0,0,0,-1,573,1107,-60.9243,-4.97608
-644,-83,-61.3755,5.35632,0.0354108,0.0296021,0.0256745,0.0583447,0.00666825,0.729076,0.0368752,0.0338731,580,1107,-61.3755,-5.35635
-637,-83,-61.6487,5.8313,0.0214286,0.0210991,0.0155433,0.036808,0.0057196,0.780098,0.0228718,0.0168901,587,1107,-61.6487,-5.83125
-630,-83,-61.7025,6.41687,0.00929254,0.0137868,0.00723503,0.0191156,0.0039637,0.93597,0.0116495,0.0185286,594,1107,-61.7024,-6.41693
-623,-83,-61.7847,6.96851,0.00117907,0.00780649,0.00164351,0.00819167,0.000793889,1.34059,0.00521666,0.0224377,601,1107,-61.7847,-6.9685
-616,-83,-61.8936,7.58582,-0.00218121,0.00377202,-0.00153551,0.00414474,-0.00255393,-1.33267,0.00390366,0.0190263,608,1107,-61.8936,-7.58588
-609,-83,-61.853,8.14063,-0.00319494,0.00125995,-0.00297798,0.00275136,-0.00468635,-1.1065,0.00434233,0.0238596,615,1107,-61.853,-8.14065
-602,-83,-61.8348,8.78406,-0.00257309,0.000198507,-0.00332147,0.00241168,-0.00478626,-0.983032,0.00423044,0.0209557,622,1107,-61.8348,-8.78411
-595,-83,-61.7568,9.36096,-0.0017306,-5.84519e-05,-0.0033542,0.0025623,-0.00435135,-0.90754,0.0040359,0.0302493,629,1107,-61.7568,-9.36095
-588,-83,-61.8431,9.65942,0,0,0,0,0,0,0,-1,636,1107,-61.8432,-9.65946
-581,-83,-65.1792,0.428589,0,0,0,0,0,0,0,-1,643,1107,-65.1792,-0.428552
-574,-83,-65.1649,0.345703,-3.41569e-05,-0.000781546,-0.00196186,0.00158928,-0.00240498,-0.691286,0.00232206,0.0388977,650,1107,-65.1649,-0.345708
-567,-83,-65.1632,0.379272,0.000489798,-0.000470751,-0.00139295,0.00148294,-0.00146389,-0.619385,0.00170137,0.0423946,657,1107,-65.1632,-0.379219
-560,-83,-65.2238,0.367065,0.000791177,0.000187512,-0.000547655,0.00111467,-0.000135979,-0.533541,0.000792337,0.0432271,664,1107,-65.2238,-0.367078
-553,-83,-65.2009,0.559692,0.000654572,0.00118297,0.00075675,0.00172031,0.000117226,0.953344,0.00110986,0.0445595,671,1107,-65.2009,-0.559668
-546,-83,-65.0161,0.539795,0.000406405,0.00236923,0.00270659,0.00426685,-0.00149121,0.959326,0.00345076,0.0439683,678,1107,-65.0161,-0.539764
-539,-83,-64.9575,0.692505,0,0,0,0,0,0,0,-1,685,1107,-64.9575,-0.692555
-532,-83,-65.1851,0.859253,0,0,0,0,0,0,0,-1,692,1107,-65.1851,-0.859235
-525,-83,0,0,0,0,0,0,0,0,0,-1,699,1107,0,0
-518,-83,0,0,0,0,0,0,0,0,0,-1,706,1107,0,0
-511,-83,0,0,0,0,0,0,0,0,0,-1,713,1107,0,0
-504,-83,0,0,0,0,0,0,0,0,0,-1,720,1107,0,0
-497,-83,0,0,0,0,0,0,0,0,0,-1,727,1107,0,0
-490,-83,0,0,0,0,0,0,0,0,0,-1,734,1107,0,0
-483,-83,0,0,0,0,0,0,0,0,0,-1,741,1107,0,0
-476,-83,0,0,0,0,0,0,0,0,0,-1,748,1107,0,0
-469,-83,0,0,0,0,0,0,0,0,0,-1,755,1107,0,0
-462,-83,0,0,0,0,0,0,0,0,0,-1,762,1107,0,0
-455,-83,0,0,0,0,0,0,0,0,0,-1,769,1107,0,0
-448,-83,0,0,0,0,0,0,0,0,0,-1,776,1107,0,0
-441,-83,0,0,0,0,0,0,0,0,0,-1,783,1107,0,0
-434,-83,0,0,0,0,0,0,0,0,0,-1,790,1107,0,0
-427,-83,0,0,0,0,0,0,0,0,0,-1,797,1107,0,0
-420,-83,0,0,0,0,0,0,0,0,0,-1,804,1107,0,0
-413,-83,0,0,0,0,0,0,0,0,0,-1,811,1107,0,0
-406,-83,0,0,0,0,0,0,0,0,0,-1,818,1107,0,0
-399,-83,0,0,0,0,0,0,0,0,0,-1,825,1107,0,0
-392,-83,0,0,0,0,0,0,0,0,0,-1,832,1107,0,0
-385,-83,0,0,0,0,0,0,0,0,0,-1,839,1107,0,0
-378,-83,0,0,0,0,0,0,0,0,0,-1,846,1107,0,0
-371,-83,0,0,0,0,0,0,0,0,0,-1,853,1107,0,0
-364,-83,0,0,0,0,0,0,0,0,0,-1,860,1107,0,0
-357,-83,0,0,0,0,0,0,0,0,0,-1,867,1107,0,0
-350,-83,0,0,0,0,0,0,0,0,0,-1,874,1107,0,0
-343,-83,0,0,0,0,0,0,0,0,0,-1,881,1107,0,0
-336,-83,0,0,0,0,0,0,0,0,0,-1,888,1107,0,0
-329,-83,0,0,0,0,0,0,0,0,0,-1,895,1107,0,0
-322,-83,0,0,0,0,0,0,0,0,0,-1,902,1107,0,0
-315,-83,0,0,0,0,0,0,0,0,0,-1,909,1107,0,0
-308,-83,0,0,0,0,0,0,0,0,0,-1,916,1107,0,0
-301,-83,0,0,0,0,0,0,0,0,0,-1,923,1107,0,0
-294,-83,0,0,0,0,0,0,0,0,0,-1,930,1107,0,0
-287,-83,0,0,0,0,0,0,0,0,0,-1,937,1107,0,0
-280,-83,0,0,0,0,0,0,0,0,0,-1,944,1107,0,0
-273,-83,0,0,0,0,0,0,0,0,0,-1,951,1107,0,0
-266,-83,0,0,0,0,0,0,0,0,0,-1,958,1107,0,0
-259,-83,0,0,0,0,0,0,0,0,0,-1,965,1107,0,0
-252,-83,0,0,0,0,0,0,0,0,0,-1,972,1107,0,0
-245,-83,0,0,0,0,0,0,0,0,0,-1,979,1107,0,0
-238,-83,0,0,0,0,0,0,0,0,0,-1,986,1107,0,0
-231,-83,0,0,0,0,0,0,0,0,0,-1,993,1107,0,0
-224,-83,0,0,0,0,0,0,0,0,0,-1,1000,1107,0,0
-217,-83,0,0,0,0,0,0,0,0,0,-1,1007,1107,0,0
-210,-83,0,0,0,0,0,0,0,0,0,-1,1014,1107,0,0
-203,-83,0,0,0,0,0,0,0,0,0,-1,1021,1107,0,0
-196,-83,0,0,0,0,0,0,0,0,0,-1,1028,1107,0,0
-189,-83,0,0,0,0,0,0,0,0,0,-1,1035,1107,0,0
-182,-83,0,0,0,0,0,0,0,0,0,-1,1042,1107,0,0
-175,-83,0,0,0,0,0,0,0,0,0,-1,1049,1107,0,0
-168,-83,0,0,0,0,0,0,0,0,0,-1,1056,1107,0,0
-161,-83,0,0,0,0,0,0,0,0,0,-1,1063,1107,0,0
-154,-83,0,0,0,0,0,0,0,0,0,-1,1070,1107,0,0
-147,-83,0,0,0,0,0,0,0,0,0,-1,1077,1107,0,0
-140,-83,0,0,0,0,0,0,0,0,0,-1,1084,1107,0,0
-133,-83,0,0,0,0,0,0,0,0,0,-1,1091,1107,0,0
-126,-83,0,0,0,0,0,0,0,0,0,-1,1098,1107,0,0
-119,-83,0,0,0,0,0,0,0,0,0,-1,1105,1107,0,0
-112,-83,0,0,0,0,0,0,0,0,0,-1,1112,1107,0,0
-105,-83,0,0,0,0,0,0,0,0,0,-1,1119,1107,0,0
-98,-83,0,0,0,0,0,0,0,0,0,-1,1126,1107,0,0
-91,-83,0,0,0,0,0,0,0,0,0,-1,1133,1107,0,0
-84,-83,0,0,0,0,0,0,0,0,0,-1,1140,1107,0,0
-77,-83,0,0,0,0,0,0,0,0,0,-1,1147,1107,0,0
-70,-83,0,0,0,0,0,0,0,0,0,-1,1154,1107,0,0
-63,-83,0,0,0,0,0,0,0,0,0,-1,1161,1107,0,0
-56,-83,0,0,0,0,0,0,0,0,0,-1,1168,1107,0,0
-49,-83,0,0,0,0,0,0,0,0,0,-1,1175,1107,0,0
-42,-83,0,0,0,0,0,0,0,0,0,-1,1182,1107,0,0
-35,-83,0,0,0,0,0,0,0,0,0,-1,1189,1107,0,0
-28,-83,0,0,0,0,0,0,0,0,0,-1,1196,1107,0,0
-21,-83,0,0,0,0,0,0,0,0,0,-1,1203,1107,0,0
-14,-83,0,0,0,0,0,0,0,0,0,-1,1210,1107,0,0
-7,-83,0,0,0,0,0,0,0,0,0,-1,1217,1107,0,0
0,-83,0,0,0,0,0,0,0,0,0,-1,1224,1107,0,0
7,-83,0,0,0,0,0,0,0,0,0,-1,1231,1107,0,0
14,-83,0,0,0,0,0,0,0,0,0,-1,1238,1107,0,0
21,-83,0,0,0,0,0,0,0,0,0,-1,1245,1107,0,0
28,-83,0,0,0,0,0,0,0,0,0,-1,1252,1107,0,0
35,-83,0,0,0,0,0,0,0,0,0,-1,1259,1107,0,0
42,-83,0,0,0,0,0,0,0,0,0,-1,1266,1107,0,0
49,-83,0,0,0,0,0,0,0,0,0,-1,1273,1107,0,0
56,-83,0,0,0,0,0,0,0,0,0,-1,1280,1107,0,0
63,-83,0,0,0,0,0,0,0,0,0,-1,1287,1107,0,0
70,-83,0,0,0,0,0,0,0,0,0,-1,1294,1107,0,0
77,-83,0,0,0,0,0,0,0,0,0,-1,1301,1107,0,0
84,-83,0,0,0,0,0,0,0,0,0,-1,1308,1107,0,0
91,-83,0,0,0,0,0,0,0,0,0,-1,1315,1107,0,0
98,-83,0,0,0,0,0,0,0,0,0,-1,1322,1107,0,0
105,-83,0,0,0,0,0,0,0,0,0,-1,1329,1107,0,0
112,-83,0,0,0,0,0,0,0,0,0,-1,1336,1107,0,0
119,-83,0,0,0,0,0,0,0,0,0,-1,1343,1107,0,0
126,-83,0,0,0,0,0,0,0,0,0,-1,1350,1107,0,0
133,-83,0,0,0,0,0,0,0,0,0,-1,1357,1107,0,0
140,-83,0,0,0,0,0,0,0,0,0,-1,1364,1107,0,0
147,-83,0,0,0,0,0,0,0,0,0,-1,1371,1107,0,0
154,-83,0,0,0,0,0,0,0,0,0,-1,1378,1107,0,0
161,-83,0,0,0,0,0,0,0,0,0,-1,1385,1107,0,0
168,-83,0,0,0,0,0,0,0,0,0,-1,1392,1107,0,0
175,-83,0,0,0,0,0,0,0,0,0,-1,1399,1107,0,0
182,-83,0,0,0,0,0,0,0,0,0,-1,1406,1107,0,0
189,-83,0,0,0,0,0,0,0,0,0,-1,1413,1107,0,0
196,-83,0,0,0,0,0,0,0,0,0,-1,1420,1107,0,0
203,-83,0,0,0,0,0,0,0,0,0,-1,1427,1107,0,0
210,-83,0,0,0,0,0,0,0,0,0,-1,1434,1107,0,0
217,-83,0,0,0,0,0,0,0,0,0,-1,1441,1107,0,0
224,-83,0,0,0,0,0,0,0,0,0,-1,1448,1107,0,0
231,-83,0,0,0,0,0,0,0,0,0,-1,1455,1107,0,0
238,-83,0,0,0,0,0,0,0,0,0,-1,1462,1107,0,0
245,-83,0,0,0,0,0,0,0,0,0,-1,1469,1107,0,0
252,-83,0,0,0,0,0,0,0,0,0,-1,1476,1107,0,0
259,-83,0,0,0,0,0,0,0,0,0,-1,1483,1107,0,0
266,-83,0,0,0,0,0,0,0,0,0,-1,1490,1107,0,0
273,-83,0,0,0,0,0,0,0,0,0,-1,1497,1107,0,0
280,-83,0,0,0,0,0,0,0,0,0,-1,1504,1107,0,0
287,-83,0,0,0,0,0,0,0,0,0,-1,1511,1107,0,0
294,-83,0,0,0,0,0,0,0,0,0,-1,1518,1107,0,0
301,-83,0,0,0,0,0,0,0,0,0,-1,1525,1107,0,0
308,-83,0,0,0,0,0,0,0,0,0,-1,1532,1107,0,0
315,-83,0,0,0,0,0,0,0,0,0,-1,1539,1107,0,0
322,-83,0,0,0,0,0,0,0,0,0,-1,1546,1107,0,0
329,-83,0,0,0,0,0,0,0,0,0,-1,1553,1107,0,0
336,-83,0,0,0,0,0,0,0,0,0,-1,1560,1107,0,0
343,-83,0,0,0,0,0,0,0,0,0,-1,1567,1107,0,0
350,-83,0,0,0,0,0,0,0,0,0,-1,1574,1107,0,0
357,-83,0,0,0,0,0,0,0,0,0,-1,1581,1107,0,0
364,-83,0,0,0,0,0,0,0,0,0,-1,1588,1107,0,0
371,-83,0,0,0,0,0,0,0,0,0,-1,1595,1107,0,0
378,-83,0,0,0,0,0,0,0,0,0,-1,1602,1107,0,0
385,-83,0,0,0,0,0,0,0,0,0,-1,1609,1107,0,0
392,-83,0,0,0,0,0,0,0,0,0,-1,1616,1107,0,0
399,-83,0,0,0,0,0,0,0,0,0,-1,1623,1107,0,0
406,-83,0,0,0,0,0,0,0,0,0,-1,1630,1107,0,0
413,-83,0,0,0,0,0,0,0,0,0,-1,1637,1107,0,0
420,-83,0,0,0,0,0,0,0,0,0,-1,1644,1107,0,0
427,-83,0,0,0,0,0,0,0,0,0,-1,1651,1107,0,0
434,-83,0,0,0,0,0,0,0,0,0,-1,1658,1107,0,0
441,-83,0,0,0,0,0,0,0,0,0,-1,1665,1107,0,0
448,-83,0,0,0,0,0,0,0,0,0,-1,1672,1107,0,0
455,-83,0,0,0,0,0,0,0,0,0,-1,1679,1107,0,0
462,-83,0,0,0,0,0,0,0,0,0,-1,1686,1107,0,0
469,-83,0,0,0,0,0,0,0,0,0,-1,1693,1107,0,0
476,-83,0,0,0,0,0,0,0,0,0,-1,1700,1107,0,0
483,-83,0,0,0,0,0,0,0,0,0,-1,1707,1107,0,0
490,-83,0,0,0,0,0,0,0,0,0,-1,1714,1107,0,0
497,-83,0,0,0,0,0,0,0,0,0,-1,1721,1107,0,0
504,-83,0,0,0,0,0,0,0,0,0,-1,1728,1107,0,0
511,-83,0,0,0,0,0,0,0,0,0,-1,1735,1107,0,0
518,-83,0,0,0,0,0,0,0,0,0,-1,1742,1107,0,0
525,-83,0,0,0,0,0,0,0,0,0,-1,1749,1107,0,0
532,-83,0,0,0,0,0,0,0,0,0,-1,1756,1107,0,0
539,-83,0,0,0,0,0,0,0,0,0,-1,1763,1107,0,0
546,-83,0,0,0,0,0,0,0,0,0,-1,1770,1107,0,0
553,-83,0,0,0,0,0,0,0,0,0,-1,1777,1107,0,0
560,-83,0,0,0,0,0,0,0,0,0,-1,1784,1107,0,0
567,-83,0,0,0,0,0,0,0,0,0,-1,1791,1107,0,0
574,-83,0,0,0,0,0,0,0,0,0,-1,1798,1107,0,0
581,-83,0,0,0,0,0,0,0,0,0,-1,1805,1107,0,0
588,-83,0,0,0,0,0,0,0,0,0,-1,1812,1107,0,0
595,-83,0,0,0,0,0,0,0,0,0,-1,1819,1107,0,0
602,-83,0,0,0,0,0,0,0,0,0,-1,1826,1107,0,0
609,-83,0,0,0,0,0,0,0,0,0,-1,1833,1107,0,0
616,-83,0,0,0,0,0,0,0,0,0,-1,1840,1107,0,0
623,-83,0,0,0,0,0,0,0,0,0,-1,1847,1107,0,0
630,-83,0,0,0,0,0,0,0,0,0,-1,1854,1107,0,0
637,-83,0,0,0,0,0,0,0,0,0,-1,1861,1107,0,0
644,-83,82.1104,2.25281,0.00139947,0.000139239,-0.00184562,0.00271957,-0.00118086,-0.620896,0.00230959,0.0357258,1868,1107,82.1103,-2.25277
651,-83,82.1891,2.30566,0.000817528,6.12396e-06,-0.00131869,0.00179151,-0.000967857,-0.636165,0.00161661,0.0416618,1875,1107,82.1891,-2.30572
658,-83,82.2594,2.35278,0.000554406,-0.000120938,-0.000936736,0.00121247,-0.000779005,-0.612409,0.00115882,0.0465224,1882,1107,82.2594,-2.35277
665,-83,81.9554,2.16016,0.000449951,-0.000249272,-0.000648628,0.000837188,-0.00063651,-0.538218,0.000853466,0.0406467,1889,1107,81.9554,-2.16021
672,-83,82.0441,2.14648,0.00040375,-0.000308985,-0.000440472,0.000613963,-0.000519198,-0.445278,0.000654993,0.0364954,1896,1107,82.044,-2.1465
679,-83,82.1281,2.20081,0.00040941,-0.000379868,-0.000249971,0.000481917,-0.000452375,-0.282315,0.000539504,0.038708,1903,1107,82.1281,-2.20081
686,-83,82.1548,2.14954,0.000285835,-0.000468555,-0.000201183,0.000336133,-0.000518854,-0.244991,0.00049737,0.0366331,1910,1107,82.1548,-2.1496
693,-83,82.113,2.21033,0.000218989,-0.000666286,-1.98743e-05,0.000219435,-0.000666732,-0.0224348,0.000532911,0.0372271,1917,1107,82.1131,-2.21027
700,-83,82.1031,2.23901,0.000251244,-0.000639518,0.000200818,0.000294425,-0.000682698,0.211797,0.000578798,0.0337597,1924,1107,82.1031,-2.239
707,-83,82.0858,2.21631,8.48745e-05,-0.000422234,0.000539538,0.000427467,-0.000764826,0.565739,0.000697496,0.0248049,1931,1107,82.0858,-2.21626
714,-83,82.0978,2.16687,0,0,0,0,0,0,0,-1,1938,1107,82.0978,-2.16688
721,-83,49.1162,7.36719,0,0,0,0,0,0,0,-1,1945,1107,49.1162,-7.36721
728,-83,66.6315,8.32141,0,0,0,0,0,0,0,-1,1952,1107,66.6314,-8.32147
735,-83,77.5898,9.23364,0,0,0,0,0,0,0,-1,1959,1107,77.5898,-9.2337
742,-83,77.7213,8.60718,-0.00201112,0.00307825,0.00157189,0.00352459,-0.00245746,1.29412,0.00347201,0.0339594,1966,1107,77.7214,-8.60719
749,-83,77.8313,7.98633,-0.00214501,0.00493746,0.00159658,0.00528073,-0.00248829,1.35901,0.00458101,0.0219398,1973,1107,77.8313,-7.98638
756,-83,77.8018,7.39307,-0.00209495,0.0078099,0.000814659,0.00787645,-0.00216151,1.48928,0.00610048,0.0185099,1980,1107,77.8017,-7.39305
763,-83,77.729,6.78149,-0.00137857,0.0120024,-0.000794736,0.0120494,-0.00142561,-1.51168,0.00854789,0.0139647,1987,1107,77.7291,-6.7815
770,-83,77.594,6.25024,0.000627325,0.0183006,-0.00387802,0.0191141,-0.000186176,-1.36402,0.0128053,0.0166605,1994,1107,77.5941,-6.25022
777,-83,77.4045,5.69092,0.00380052,0.0263681,-0.00826133,0.0290691,0.00109955,-1.25481,0.0190235,0.0176387,2001,1107,77.4046,-5.69095
784,-83,77.3992,5.00159,0.00796561,0.0360139,-0.0138768,0.041719,0.00226055,-1.18074,0.0270906,0.0274891,2008,1107,77.3991,-5.00155
791,-83,77.8792,3.8313,0.0135426,0.0482783,-0.021565,0.0585996,0.0032213,-1.1244,0.0380382,0.0434283,2015,1107,77.8791,-3.83124
798,-83,78.2664,2.74695,0,0,0,0,0,0,0,-1,2022,1107,78.2664,-2.74696
805,-83,77.4207,5.02905,0,0,0,0,0,0,0,-1,2029,1107,77.4206,-5.029
812,-83,77.314,3.25183,0,0,0,0,0,0,0,-1,2036,1107,77.314,-3.25187
-700,-90,0,0,0,0,0,0,0,0,0,-1,524,1114,0,0
-693,-90,-68.7197,-4.11853,0,0,0,0,0,0,0,-1,531,1114,-68.7197,4.1185
-686,-90,-67.98,-3.42517,0.152781,0.0737356,0.0974213,0.218391,0.00812514,0.592699,0.142963,0.0442132,538,1114,-67.98,3.42517
-679,-90,-66.9203,-2.68982,0.133937,0.0668001,0.0847607,0.191534,0.00920273,0.596855,0.124735,0.0452254,545,1114,-66.9204,2.68979
-672,-90,-65.7932,-2.12341,0.113651,0.059176,0.0716534,0.163069,0.00975788,0.603768,0.105611,0.0437842,552,1114,-65.7932,2.12343
-665,-90,-64.8176,-1.07654,0.0931165,0.0512751,0.0588912,0.134693,0.00969896,0.614729,0.086743,0.0444881,559,1114,-64.8176,1.07659
-658,-90,-63.7795,-0.365234,0,0,0,0,0,0,0,-1,566,1114,-63.7795,0.365255
-651,-90,-60.7151,4.24609,0.0542331,0.0353568,0.0352534,0.0812899,0.00829997,0.654604,0.0516494,0.0424933,573,1114,-60.7151,-4.2461
-644,-90,-60.8607,5.04639,0.0375406,0.0275468,0.0245104,0.0575583,0.00752906,0.684842,0.036125,0.0244461,580,1114,-60.8607,-5.04635
-637,-90,-60.9655,5.77124,0.0221711,0.0195888,0.014867,0.0358029,0.005957,0.742083,0.0221516,0.0178458,587,1114,-60.9655,-5.77123
-630,-90,-61.0347,6.42065,0.00882317,0.0127246,0.00674911,0.0177992,0.00374852,0.926081,0.010835,0.0139296,594,1114,-61.0347,-6.42063
-623,-90,-61.0752,7.05676,-6.22789e-06,0.00684186,0.00101991,0.00699053,-0.000154898,1.42605,0.00471284,0.0149309,601,1114,-61.0752,-7.05679
-616,-90,-61.1497,7.68188,-0.00368836,0.00309592,-0.00209438,0.00369039,-0.00428282,-1.29423,0.00460757,0.0159626,608,1114,-61.1497,-7.68192
-609,-90,-61.1203,8.28882,-0.00459158,0.00103319,-0.0033936,0.00262831,-0.00618669,-1.13141,0.00522574,0.0252771,615,1114,-61.1203,-8.28878
-602,-90,-61.2163,8.89551,-0.00369618,0.000491751,-0.00370877,0.00265686,-0.00586129,-1.04239,0.00503261,0.0240186,622,1114,-61.2163,-8.89551
-595,-90,-61.2084,9.53918,-0.0027276,0.000496209,-0.00378736,0.00300041,-0.0052318,-0.986588,0.00481072,0.027507,629,1114,-61.2084,-9.53916
-588,-90,-61.4242,9.7605,0,0,0,0,0,0,0,-1,636,1114,-61.4242,-9.7605
-581,-90,-65.2357,0.654663,0,0,0,0,0,0,0,-1,643,1114,-65.2357,-0.654724
-574,-90,-65.1674,0.449585,-0.000736051,-0.000152195,-0.0025651,0.00213754,-0.00302579,-0.842058,0.00299572,0.0393293,650,1114,-65.1673,-0.44962
-567,-90,-65.1584,0.310425,3.3391e-05,0.000127805,-0.00211034,0.00219147,-0.00203027,-0.796581,0.00243801,0.0361242,657,1114,-65.1584,-0.310379
-560,-90,-65.1693,0.422485,0.000609762,0.000743654,-0.00133953,0.00201791,-0.000664498,-0.810366,0.00161306,0.0400787,664,1114,-65.1692,-0.422447
-553,-90,-65.1227,0.610596,0.000547328,0.00171048,-7.47405e-06,0.00171053,0.00054728,-1.56437,0.00100869,0.0416156,671,1114,-65.1227,-0.61062
-546,-90,-65.0329,0.421875,0.000138322,0.00293514,0.00215111,0.00410244,-0.00102897,1.07362,0.00313476,0.044915,678,1114,-65.0329,-0.421867
-539,-90,-65.0648,0.181885,-0.000139533,0.00366186,0.00523601,0.00733148,-0.00380915,0.959505,0.00653833,0.0442728,685,1114,-65.0648,-0.181898
-532,-90,-65.2874,0.525513,-0.000727729,0.00459211,0.00845285,0.0107937,-0.00692929,0.937832,0.0103131,0.0417407,692,1114,-65.2874,-0.525496
-525,-90,0,0,0,0,0,0,0,0,0,-1,699,1114,0,0
-518,-90,0,0,0,0,0,0,0,0,0,-1,706,1114,0,0
-511,-90,0,0,0,0,0,0,0,0,0,-1,713,1114,0,0
-504,-90,0,0,0,0,0,0,0,0,0,-1,720,1114,0,0
-497,-90,0,0,0,0,0,0,0,0,0,-1,727,1114,0,0
-490,-90,0,0,0,0,0,0,0,0,0,-1,734,1114,0,0
-483,-90,0,0,0,0,0,0,0,0,0,-1,741,1114,0,0
-476,-90,0,0,0,0,0,0,0,0,0,-1,748,1114,0,0
-469,-90,0,0,0,0,0,0,0,0,0,-1,755,1114,0,0
-462,-90,0,0,0,0,0,0,0,0,0,-1,762,1114,0,0
-455,-90,0,0,0,0,0,0,0,0,0,-1,769,1114,0,0
-448,-90,0,0,0,0,0,0,0,0,0,-1,776,1114,0,0
-441,-90,0,0,0,0,0,0,0,0,0,-1,783,1114,0,0
-434,-90,0,0,0,0,0,0,0,0,0,-1,790,1114,0,0
-427,-90,0,0,0,0,0,0,0,0,0,-1,797,1114,0,0
-420,-90,0,0,0,0,0,0,0,0,0,-1,804,1114,0,0
-413,-90,0,0,0,0,0,0,0,0,0,-1,811,1114,0,0
-406,-90,0,0,0,0,0,0,0,0,0,-1,818,1114,0,0
-399,-90,0,0,0,0,0,0,0,0,0,-1,825,1114,0,0
-392,-90,0,0,0,0,0,0,0,0,0,-1,832,1114,0,0
-385,-90,0,0,0,0,0,0,0,0,0,-1,839,1114,0,0
-378,-90,0,0,0,0,0,0,0,0,0,-1,846,1114,0,0
-371,-90,0,0,0,0,0,0,0,0,0,-1,853,1114,0,0
-364,-90,0,0,0,0,0,0,0,0,0,-1,860,1114,0,0
-357,-90,0,0,0,0,0,0,0,0,0,-1,867,1114,0,0
-350,-90,0,0,0,0,0,0,0,0,0,-1,874,1114,0,0
-343,-90,0,0,0,0,0,0,0,0,0,-1,881,1114,0,0
-336,-90,0,0,0,0,0,0,0,0,0,-1,888,1114,0,0
-329,-90,0,0,0,0,0,0,0,0,0,-1,895,1114,0,0
-322,-90,0,0,0,0,0,0,0,0,0,-1,902,1114,0,0
-315,-90,0,0,0,0,0,0,0,0,0,-1,909,1114,0,0
-308,-90,0,0,0,0,0,0,0,0,0,-1,916,1114,0,0
-301,-90,0,0,0,0,0,0,0,0,0,-1,923,1114,0,0
-294,-90,0,0,0,0,0,0,0,0,0,-1,930,1114,0,0
-287,-90,0,0,0,0,0,0,0,0,0,-1,937,1114,0,0
-280,-90,0,0,0,0,0,0,0,0,0,-1,944,1114,0,0
-273,-90,0,0,0,0,0,0,0,0,0,-1,951,1114,0,0
-266,-90,0,0,0,0,0,0,0,0,0,-1,958,1114,0,0
-259,-90,0,0,0,0,0,0,0,0,0,-1,965,1114,0,0
-252,-90,0,0,0,0,0,0,0,0,0,-1,972,1114,0,0
-245,-90,0,0,0,0,0,0,0,0,0,-1,979,1114,0,0
-238,-90,0,0,0,0,0,0,0,0,0,-1,986,1114,0,0
-231,-90,0,0,0,0,0,0,0,0,0,-1,993,1114,0,0
-224,-90,0,0,0,0,0,0,0,0,0,-1,1000,1114,0,0
-217,-90,0,0,0,0,0,0,0,0,0,-1,1007,1114,0,0
-210,-90,0,0,0,0,0,0,0,0,0,-1,1014,1114,0,0
-203,-90,0,0,0,0,0,0,0,0,0,-1,1021,1114,0,0
-196,-90,0,0,0,0,0,0,0,0,0,-1,1028,1114,0,0
-189,-90,0,0,0,0,0,0,0,0,0,-1,1035,1114,0,0
-182,-90,0,0,0,0,0,0,0,0,0,-1,1042,1114,0,0
-175,-90,0,0,0,0,0,0,0,0,0,-1,1049,1114,0,0
-168,-90,0,0,0,0,0,0,0,0,0,-1,1056,1114,0,0
-161,-90,0,0,0,0,0,0,0,0,0,-1,1063,1114,0,0
-154,-90,0,0,0,0,0,0,0,0,0,-1,1070,1114,0,0
-147,-90,0,0,0,0,0,0,0,0,0,-1,1077,1114,0,0
-140,-90,0,0,0,0,0,0,0,0,0,-1,1084,1114,0,0
-133,-90,0,0,0,0,0,0,0,0,0,-1,1091,1114,0,0
-126,-90,0,0,0,0,0,0,0,0,0,-1,1098,1114,0,0
-119,-90,0,0,0,0,0,0,0,0,0,-1,1105,1114,0,0
-112,-90,0,0,0,0,0,0,0,0,0,-1,1112,1114,0,0
-105,-90,0,0,0,0,0,0,0,0,0,-1,1119,1114,0,0
-98,-90,0,0,0,0,0,0,0,0,0,-1,1126,1114,0,0
-91,-90,0,0,0,0,0,0,0,0,0,-1,1133,1114,0,0
-84,-90,0,0,0,0,0,0,0,0,0,-1,1140,1114,0,0
-77,-90,0,0,0,0,0,0,0,0,0,-1,1147,1114,0,0
-70,-90,0,0,0,0,0,0,0,0,0,-1,1154,1114,0,0
-63,-90,0,0,0,0,0,0,0,0,0,-1,1161,1114,0,0
-56,-90,0,0,0,0,0,0,0,0,0,-1,1168,1114,0,0
-49,-90,0,0,0,0,0,0,0,0,0,-1,1175,1114,0,0
-42,-90,0,0,0,0,0,0,0,0,0,-1,1182,1114,0,0
-35,-90,0,0,0,0,0,0,0,0,0,-1,1189,1114,0,0
-28,-90,0,0,0,0,0,0,0,0,0,-1,1196,1114,0,0
-21,-90,0,0,0,0,0,0,0,0,0,-1,1203,1114,0,0
-14,-90,0,0,0,0,0,0,0,0,0,-1,1210,1114,0,0
-7,-90,0,0,0,0,0,0,0,0,0,-1,1217,1114,0,0
0,-90,0,0,0,0,0,0,0,0,0,-1,1224,1114,0,0
7,-90,0,0,0,0,0,0,0,0,0,-1,1231,1114,0,0
14,-90,0,0,0,0,0,0,0,0,0,-1,1238,1114,0,0
21,-90,0,0,0,0,0,0,0,0,0,-1,1245,1114,0,0
28,-90,0,0,0,0,0,0,0,0,0,-1,1252,1114,0,0
35,-90,0,0,0,0,0,0,0,0,0,-1,1259,1114,0,0
42,-90,0,0,0,0,0,0,0,0,0,-1,1266,1114,0,0
49,-90,0,0,0,0,0,0,0,0,0,-1,1273,1114,0,0
56,-90,0,0,0,0,0,0,0,0,0,-1,1280,1114,0,0
63,-90,0,0,0,0,0,0,0,0,0,-1,1287,1114,0,0
70,-90,0,0,0,0,0,0,0,0,0,-1,1294,1114,0,0
77,-90,0,0,0,0,0,0,0,0,0,-1,1301,1114,0,0
84,-90,0,0,0,0,0,0,0,0,0,-1,1308,1114,0,0
91,-90,0,0,0,0,0,0,0,0,0,-1,1315,1114,0,0
98,-90,0,0,0,0,0,0,0,0,0,-1,1322,1114,0,0
105,-90,0,0,0,0,0,0,0,0,0,-1,1329,1114,0,0
112,-90,0,0,0,0,0,0,0,0,0,-1,1336,1114,0,0
119,-90,0,0,0,0,0,0,0,0,0,-1,1343,1114,0,0
126,-90,0,0,0,0,0,0,0,0,0,-1,1350,1114,0,0
133,-90,0,0,0,0,0,0,0,0,0,-1,1357,1114,0,0
140,-90,0,0,0,0,0,0,0,0,0,-1,1364,1114,0,0
147,-90,0,0,0,0,0,0,0,0,0,-1,1371,1114,0,0
154,-90,0,0,0,0,0,0,0,0,0,-1,1378,1114,0,0
161,-90,0,0,0,0,0,0,0,0,0,-1,1385,1114,0,0
168,-90,0,0,0,0,0,0,0,0,0,-1,1392,1114,0,0
175,-90,0,0,0,0,0,0,0,0,0,-1,1399,1114,0,0
182,-90,0,0,0,0,0,0,0,0,0,-1,1406,1114,0,0
189,-90,0,0,0,0,0,0,0,0,0,-1,1413,1114,0,0
196,-90,0,0,0,0,0,0,0,0,0,-1,1420,1114,0,0
203,-90,0,0,0,0,0,0,0,0,0,-1,1427,1114,0,0
210,-90,0,0,0,0,0,0,0,0,0,-1,1434,1114,0,0
217,-90,0,0,0,0,0,0,0,0,0,-1,1441,1114,0,0
224,-90,0,0,0,0,0,0,0,0,0,-1,1448,1114,0,0
231,-90,0,0,0,0,0,0,0,0,0,-1,1455,1114,0,0
238,-90,0,0,0,0,0,0,0,0,0,-1,1462,1114,0,0
245,-90,0,0,0,0,0,0,0,0,0,-1,1469,1114,0,0
252,-90,0,0,0,0,0,0,0,0,0,-1,1476,1114,0,0
259,-90,0,0,0,0,0,0,0,0,0,-1,1483,1114,0,0
266,-90,0,0,0,0,0,0,0,0,0,-1,1490,1114,0,0
273,-90,0,0,0,0,0,0,0,0,0,-1,1497,1114,0,0
280,-90,0,0,0,0,0,0,0,0,0,-1,1504,1114,0,0
287,-90,0,0,0,0,0,0,0,0,0,-1,1511,1114,0,0
294,-90,0,0,0,0,0,0,0,0,0,-1,1518,1114,0,0
301,-90,0,0,0,0,0,0,0,0,0,-1,1525,1114,0,0
308,-90,0,0,0,0,0,0,0,0,0,-1,1532,1114,0,0
315,-90,0,0,0,0,0,0,0,0,0,-1,1539,1114,0,0
322,-90,0,0,0,0,0,0,0,0,0,-1,1546,1114,0,0
329,-90,0,0,0,0,0,0,0,0,0,-1,1553,1114,0,0
336,-90,0,0,0,0,0,0,0,0,0,-1,1560,1114,0,0
343,-90,0,0,0,0,0,0,0,0,0,-1,1567,1114,0,0
350,-90,0,0,0,0,0,0,0,0,0,-1,1574,1114,0,0
357,-90,0,0,0,0,0,0,0,0,0,-1,1581,1114,0,0
364,-90,0,0,0,0,0,0,0,0,0,-1,1588,1114,0,0
371,-90,0,0,0,0,0,0,0,0,0,-1,1595,1114,0,0
378,-90,0,0,0,0,0,0,0,0,0,-1,1602,1114,0,0
385,-90,0,0,0,0,0,0,0,0,0,-1,1609,1114,0,0
392,-90,0,0,0,0,0,0,0,0,0,-1,1616,1114,0,0
399,-90,0,0,0,0,0,0,0,0,0,-1,1623,1114,0,0
406,-90,0,0,0,0,0,0,0,0,0,-1,1630,1114,0,0
413,-90,0,0,0,0,0,0,0,0,0,-1,1637,1114,0,0
420,-90,0,0,0,0,0,0,0,0,0,-1,1644,1114,0,0
427,-90,0,0,0,0,0,0,0,0,0,-1,1651,1114,0,0
434,-90,0,0,0,0,0,0,0,0,0,-1,1658,1114,0,0
441,-90,0,0,0,0,0,0,0,0,0,-1,1665,1114,0,0
448,-90,0,0,0,0,0,0,0,0,0,-1,1672,1114,0,0
455,-90,0,0,0,0,0,0,0,0,0,-1,1679,1114,0,0
462,-90,0,0,0,0,0,0,0,0,0,-1,1686,1114,0,0
469,-90,0,0,0,0,0,0,0,0,0,-1,1693,1114,0,0
476,-90,0,0,0,0,0,0,0,0,0,-1,1700,1114,0,0
483,-90,0,0,0,0,0,0,0,0,0,-1,1707,1114,0,0
490,-90,0,0,0,0,0,0,0,0,0,-1,1714,1114,0,0
497,-90,0,0,0,0,0,0,0,0,0,-1,1721,1114,0,0
504,-90,0,0,0,0,0,0,0,0,0,-1,1728,1114,0,0
511,-90,0,0,0,0,0,0,0,0,0,-1,1735,1114,0,0
518,-90,0,0,0,0,0,0,0,0,0,-1,1742,1114,0,0
525,-90,0,0,0,0,0,0,0,0,0,-1,1749,1114,0,0
532,-90,0,0,0,0,0,0,0,0,0,-1,1756,1114,0,0
539,-90,0,0,0,0,0,0,0,0,0,-1,1763,1114,0,0
546,-90,0,0,0,0,0,0,0,0,0,-1,1770,1114,0,0
553,-90,0,0,0,0,0,0,0,0,0,-1,1777,1114,0,0
560,-90,0,0,0,0,0,0,0,0,0,-1,1784,1114,0,0
567,-90,0,0,0,0,0,0,0,0,0,-1,1791,1114,0,0
574,-90,0,0,0,0,0,0,0,0,0,-1,1798,1114,0,0
581,-90,0,0,0,0,0,0,0,0,0,-1,1805,1114,0,0
588,-90,0,0,0,0,0,0,0,0,0,-1,1812,1114,0,0
595,-90,0,0,0,0,0,0,0,0,0,-1,1819,1114,0,0
602,-90,0,0,0,0,0,0,0,0,0,-1,1826,1114,0,0
609,-90,0,0,0,0,0,0,0,0,0,-1,1833,1114,0,0
616,-90,0,0,0,0,0,0,0,0,0,-1,1840,1114,0,0
623,-90,0,0,0,0,0,0,0,0,0,-1,1847,1114,0,0
630,-90,0,0,0,0,0,0,0,0,0,-1,1854,1114,0,0
637,-90,0,0,0,0,0,0,0,0,0,-1,1861,1114,0,0
644,-90,82.0768,2.17456,0.00238794,-0.000994114,-0.00241447,0.00364467,-0.00225084,-0.47991,0.00343533,0.0342703,1868,1114,82.0767,-2.17452
651,-90,82.1049,2.22693,0.00149748,-0.000806381,-0.00183739,0.00251418,-0.00182308,-0.505402,0.00251469,0.0409066,1875,1114,82.1048,-2.22687
658,-90,82.021,2.31152,0.00103713,-0.000742209,-0.00140374,0.00180939,-0.00151447,-0.502952,0.00192155,0.0450791,1882,1114,82.021,-2.31157
665,-90,81.9205,2.20142,0.000771197,-0.000717643,-0.00106904,0.00132947,-0.00127591,-0.481263,0.00150432,0.044661,1889,1114,81.9205,-2.20137
672,-90,82.0095,2.10693,0.000594389,-0.000665635,-0.000816406,0.000995607,-0.00106685,-0.456779,0.001191,0.0452765,1896,1114,82.0095,-2.1069
679,-90,82.064,2.23376,0.000526747,-0.000713212,-0.000558915,0.00074149,-0.000927954,-0.366823,0.000965856,0.0421525,1903,1114,82.064,-2.23379
686,-90,82.1472,2.35767,0.00043244,-0.000738519,-0.000474599,0.000600638,-0.000906717,-0.34059,0.000876232,0.0356506,1910,1114,82.1472,-2.35771
693,-90,82.0963,2.30615,0.000433279,-0.000882683,-0.000291707,0.000495042,-0.000944447,-0.20865,0.000844482,0.0368236,1917,1114,82.0963,-2.30616
700,-90,82.0645,2.245,0.000528995,-0.000827879,-6.40769e-05,0.000532014,-0.000830899,-0.0470842,0.00079316,0.0347121,1924,1114,82.0644,-2.24498
707,-90,82.0785,2.17249,0.000417029,-0.00059148,0.000287095,0.00049303,-0.00066748,0.258787,0.00067254,0.0252677,1931,1114,82.0785,-2.17249
714,-90,82.0906,2.00732,0,0,0,0,0,0,0,-1,1938,1114,82.0906,-2.00733
721,-90,63.521,8.76965,0,0,0,0,0,0,0,-1,1945,1114,63.521,-8.7697
728,-90,76.9768,9.922,0,0,0,0,0,0,0,-1,1952,1114,76.9769,-9.92197
735,-90,76.8159,9.34521,-0.00126896,0.00186697,0.00124109,0.00229871,-0.0017007,1.23602,0.00231765,0.0449209,1959,1114,76.8159,-9.34519
742,-90,76.9534,8.62695,-0.00119369,0.00259015,0.00140089,0.00305234,-0.00165589,1.25211,0.00275787,0.0406159,1966,1114,76.9533,-8.62692
749,-90,77.3149,7.84082,-0.00123757,0.0043822,0.00145921,0.00473851,-0.00159387,1.33131,0.0038033,0.0235401,1973,1114,77.3149,-7.84084
756,-90,77.2356,7.29871,-0.00106727,0.00731772,0.000644032,0.0073669,-0.00111645,1.49458,0.00532259,0.0193057,1980,1114,77.2357,-7.29869
763,-90,77.1357,6.71619,-2.91399e-05,0.011752,-0.00114521,0.0118623,-0.00013943,-1.47479,0.00795506,0.0138771,1987,1114,77.1357,-6.71618
770,-90,77.0276,6.10498,0.00238429,0.0184694,-0.00449581,0.0196407,0.001213,-1.31593,0.0127088,0.0178245,1994,1114,77.0277,-6.10496
777,-90,76.854,5.53723,0.00597947,0.0271748,-0.00923165,0.0306318,0.00252247,-1.21249,0.0196345,0.0179729,2001,1114,76.854,-5.53721
784,-90,76.8184,4.97278,0.0107035,0.0379635,-0.0154425,0.0449308,0.00373627,-1.14697,0.0287894,0.0316146,2008,1114,76.8184,-4.97282
791,-90,77.3762,4.44299,0.0170083,0.0521795,-0.0240962,0.0644248,0.00476301,-1.10062,0.0414535,0.0448245,2015,1114,77.3762,-4.44295
798,-90,78.3123,3.42517,0,0,0,0,0,0,0,-1,2022,1114,78.3124,-3.42512
805,-90,76.8562,4.14514,0.0370794,0.0965589,-0.051914,0.126648,0.00699012,-1.04551,0.0822013,0.0457809,2029,1114,76.8561,-4.14518
812,-90,76.582,2.45313,0,0,0,0,0,0,0,-1,2036,1114,76.5821,-2.45311
-700,-97,0,0,0,0,0,0,0,0,0,-1,524,1121,0,0
-693,-97,-68.8681,-4.2594,0,0,0,0,0,0,0,-1,531,1121,-68.8681,4.25936
-686,-97,-68.1446,-3.68152,0.166495,0.0685,0.0873268,0.217631,0.0173639,0.529743,0.13966,0.0466595,538,1121,-68.1445,3.68155
-679,-97,-67.0478,-3.02148,0.14403,0.0625119,0.0769456,0.190345,0.0161965,0.541832,0.121857,0.0467587,545,1121,-67.0478,3.0215
-672,-97,-66.0663,-2.44934,0,0,0,0,0,0,0,-1,552,1121,-66.0664,2.44935
-665,-97,-65.0597,-1.76257,0,0,0,0,0,0,0,-1,559,1121,-65.0597,1.76251
-658,-97,-64.053,-1.07568,0,0,0,0,0,0,0,-1,566,1121,-64.053,1.07568
-651,-97,-60.0762,4.34058,0.0562696,0.0331459,0.0326589,0.0793528,0.0100628,0.615273,0.049887,0.0418642,573,1121,-60.0763,-4.34057
-644,-97,-60.2182,5.02527,0.0381464,0.0257017,0.0227106,0.0554716,0.00837645,0.651687,0.0345293,0.0182188,580,1121,-60.2182,-5.02529
-637,-97,-60.2631,5.74292,0.0216948,0.018169,0.0136144,0.03366,0.00620385,0.721013,0.0206845,0.0168853,587,1121,-60.2631,-5.74295
-630,-97,-60.3245,6.39587,0.00746224,0.0116464,0.00575577,0.0156785,0.00343013,0.959713,0.00951729,0.0120615,594,1121,-60.3244,-6.39587
-623,-97,-60.3864,6.96167,-0.00180743,0.00586736,4.86012e-05,0.00586767,-0.00180774,1.56446,0.00463344,0.0165368,601,1121,-60.3864,-6.96164
-616,-97,-60.521,7.68323,-0.0053808,0.0025254,-0.00276067,0.00339395,-0.00624935,-1.26599,0.00564833,0.0213808,608,1121,-60.521,-7.68327
-609,-97,-60.597,8.36267,-0.00596074,0.000948882,-0.00379683,0.00262746,-0.00763931,-1.15453,0.00615845,0.0306041,615,1121,-60.5971,-8.36263
-602,-97,-60.6701,8.94092,-0.00483944,0.000742227,-0.00408307,0.00289713,-0.00699433,-1.08519,0.00587187,0.0325985,622,1121,-60.6701,-8.94095
-595,-97,-60.7841,9.5658,-0.00377965,0.000915777,-0.00415709,0.00334228,-0.00620615,-1.04245,0.00559484,0.0333617,629,1121,-60.7841,-9.56577
-588,-97,-61.3292,9.88611,0,0,0,0,0,0,0,-1,636,1121,-61.3292,-9.88607
-581,-97,-51.2355,3.23926,0,0,0,0,0,0,0,-1,643,1121,-51.2355,-3.23926
-574,-97,-65.1581,0.516968,0,0,0,0,0,0,0,-1,650,1121,-65.1582,-0.517023
-567,-97,-65.1452,0.496094,-0.000684734,0.000430857,-0.00265995,0.00259086,-0.00284474,-0.888751,0.00313939,0.0362007,657,1121,-65.1452,-0.496072
-560,-97,-65.216,0.543457,0.000209523,0.000944633,-0.00198317,0.00259402,-0.00143987,-0.877027,0.00236053,0.0409179,664,1121,-65.216,-0.543461
-553,-97,-65.232,0.568848,0.000242355,0.00185634,-0.000685941,0.00210848,-9.77982e-06,-1.21855,0.00140892,0.0449868,671,1121,-65.232,-0.568888
-546,-97,-65.2333,0.191772,-0.000376665,0.00311573,0.00153663,0.00369557,-0.000956502,1.20997,0.00283682,0.0438941,678,1121,-65.2333,-0.191763
-539,-97,-65.2432,0.0870361,-0.00104084,0.00394758,0.00479125,0.00685496,-0.00394822,1.02538,0.00631203,0.042659,685,1121,-65.2431,-0.0870802
-532,-97,-65.3148,0.342285,-0.00198429,0.00492011,0.00822498,0.010388,-0.00745218,0.984094,0.0103464,0.0408696,692,1121,-65.3148,-0.342255
-525,-97,0,0,0,0,0,0,0,0,0,-1,699,1121,0,0
-518,-97,0,0,0,0,0,0,0,0,0,-1,706,1121,0,0
-511,-97,0,0,0,0,0,0,0,0,0,-1,713,1121,0,0
-504,-97,0,0,0,0,0,0,0,0,0,-1,720,1121,0,0
-497,-97,0,0,0,0,0,0,0,0,0,-1,727,1121,0,0
-490,-97,0,0,0,0,0,0,0,0,0,-1,734,1121,0,0
-483,-97,0,0,0,0,0,0,0,0,0,-1,741,1121,0,0
-476,-97,0,0,0,0,0,0,0,0,0,-1,748,1121,0,0
-469,-97,0,0,0,0,0,0,0,0,0,-1,755,1121,0,0
-462,-97,0,0,0,0,0,0,0,0,0,-1,762,1121,0,0
-455,-97,0,0,0,0,0,0,0,0,0,-1,769,1121,0,0
-448,-97,0,0,0,0,0,0,0,0,0,-1,776,1121,0,0
-441,-97,0,0,0,0,0,0,0,0,0,-1,783,1121,0,0
-434,-97,0,0,0,0,0,0,0,0,0,-1,790,1121,0,0
-427,-97,0,0,0,0,0,0,0,0,0,-1,797,1121,0,0
-420,-97,0,0,0,0,0,0,0,0,0,-1,804,1121,0,0
-413,-97,0,0,0,0,0,0,0,0,0,-1,811,1121,0,0
-406,-97,0,0,0,0,0,0,0,0,0,-1,818,1121,0,0
-399,-97,0,0,0,0,0,0,0,0,0,-1,825,1121,0,0
-392,-97,0,0,0,0,0,0,0,0,0,-1,832,1121,0,0
-385,-97,0,0,0,0,0,0,0,0,0,-1,839,1121,0,0
-378,-97,0,0,0,0,0,0,0,0,0,-1,846,1121,0,0
-371,-97,0,0,0,0,0,0,0,0,0,-1,853,1121,0,0
-364,-97,0,0,0,0,0,0,0,0,0,-1,860,1121,0,0
-357,-97,0,0,0,0,0,0,0,0,0,-1,867,1121,0,0
-350,-97,0,0,0,0,0,0,0,0,0,-1,874,1121,0,0
-343,-97,0,0,0,0,0,0,0,0,0,-1,881,1121,0,0
-336,-97,0,0,0,0,0,0,0,0,0,-1,888,1121,0,0
-329,-97,0,0,0,0,0,0,0,0,0,-1,895,1121,0,0
-322,-97,0,0,0,0,0,0,0,0,0,-1,902,1121,0,0
-315,-97,0,0,0,0,0,0,0,0,0,-1,909,1121,0,0
-308,-97,0,0,0,0,0,0,0,0,0,-1,916,1121,0,0
-301,-97,0,0,0,0,0,0,0,0,0,-1,923,1121,0,0
-294,-97,0,0,0,0,0,0,0,0,0,-1,930,1121,0,0
-287,-97,0,0,0,0,0,0,0,0,0,-1,937,1121,0,0
-280,-97,0,0,0,0,0,0,0,0,0,-1,944,1121,0,0
-273,-97,0,0,0,0,0,0,0,0,0,-1,951,1121,0,0
-266,-97,0,0,0,0,0,0,0,0,0,-1,958,1121,0,0
-259,-97,0,0,0,0,0,0,0,0,0,-1,965,1121,0,0
-252,-97,0,0,0,0,0,0,0,0,0,-1,972,1121,0,0
-245,-97,0,0,0,0,0,0,0,0,0,-1,979,1121,0,0
-238,-97,0,0,0,0,0,0,0,0,0,-1,986,1121,0,0
-231,-97,0,0,0,0,0,0,0,0,0,-1,993,1121,0,0
-224,-97,0,0,0,0,0,0,0,0,0,-1,1000,1121,0,0
-217,-97,0,0,0,0,0,0,0,0,0,-1,1007,1121,0,0
-210,-97,0,0,0,0,0,0,0,0,0,-1,1014,1121,0,0
-203,-97,0,0,0,0,0,0,0,0,0,-1,1021,1121,0,0
-196,-97,0,0,0,0,0,0,0,0,0,-1,1028,1121,0,0
-189,-97,0,0,0,0,0,0,0,0,0,-1,1035,1121,0,0
-182,-97,0,0,0,0,0,0,0,0,0,-1,1042,1121,0,0
-175,-97,0,0,0,0,0,0,0,0,0,-1,1049,1121,0,0
-168,-97,0,0,0,0,0,0,0,0,0,-1,1056,1121,0,0
-161,-97,0,0,0,0,0,0,0,0,0,-1,1063,1121,0,0
-154,-97,0,0,0,0,0,0,0,0,0,-1,1070,1121,0,0
-147,-97,0,0,0,0,0,0,0,0,0,-1,1077,1121,0,0
-140,-97,0,0,0,0,0,0,0,0,0,-1,1084,1121,0,0
-133,-97,0,0,0,0,0,0,0,0,0,-1,1091,1121,0,0
-126,-97,0,0,0,0,0,0,0,0,0,-1,1098,1121,0,0
-119,-97,0,0,0,0,0,0,0,0,0,-1,1105,1121,0,0
-112,-97,0,0,0,0,0,0,0,0,0,-1,1112,1121,0,0
-105,-97,0,0,0,0,0,0,0,0,0,-1,1119,1121,0,0
-98,-97,0,0,0,0,0,0,0,0,0,-1,1126,1121,0,0
-91,-97,0,0,0,0,0,0,0,0,0,-1,1133,1121,0,0
-84,-97,0,0,0,0,0,0,0,0,0,-1,1140,1121,0,0
-77,-97,0,0,0,0,0,0,0,0,0,-1,1147,1121,0,0
-70,-97,0,0,0,0,0,0,0,0,0,-1,1154,1121,0,0
-63,-97,0,0,0,0,0,0,0,0,0,-1,1161,1121,0,0
-56,-97,0,0,0,0,0,0,0,0,0,-1,1168,1121,0,0
-49,-97,0,0,0,0,0,0,0,0,0,-1,1175,1121,0,0
-42,-97,0,0,0,0,0,0,0,0,0,-1,1182,1121,0,0
-35,-97,0,0,0,0,0,0,0,0,0,-1,1189,1121,0,0
-28,-97,0,0,0,0,0,0,0,0,0,-1,1196,1121,0,0
-21,-97,0,0,0,0,0,0,0,0,0,-1,1203,1121,0,0
-14,-97,0,0,0,0,0,0,0,0,0,-1,1210,1121,0,0
-7,-97,0,0,0,0,0,0,0,0,0,-1,1217,1121,0,0
0,-97,0,0,0,0,0,0,0,0,0,-1,1224,1121,0,0
7,-97,0,0,0,0,0,0,0,0,0,-1,1231,1121,0,0
14,-97,0,0,0,0,0,0,0,0,0,-1,1238,1121,0,0
21,-97,0,0,0,0,0,0,0,0,0,-1,1245,1121,0,0
28,-97,0,0,0,0,0,0,0,0,0,-1,1252,1121,0,0
35,-97,0,0,0,0,0,0,0,0,0,-1,1259,1121,0,0
42,-97,0,0,0,0,0,0,0,0,0,-1,1266,1121,0,0
49,-97,0,0,0,0,0,0,0,0,0,-1,1273,1121,0,0
56,-97,0,0,0,0,0,0,0,0,0,-1,1280,1121,0,0
63,-97,0,0,0,0,0,0,0,0,0,-1,1287,1121,0,0
70,-97,0,0,0,0,0,0,0,0,0,-1,1294,1121,0,0
77,-97,0,0,0,0,0,0,0,0,0,-1,1301,1121,0,0
84,-97,0,0,0,0,0,0,0,0,0,-1,1308,1121,0,0
91,-97,0,0,0,0,0,0,0,0,0,-1,1315,1121,0,0
98,-97,0,0,0,0,0,0,0,0,0,-1,1322,1121,0,0
105,-97,0,0,0,0,0,0,0,0,0,-1,1329,1121,0,0
112,-97,0,0,0,0,0,0,0,0,0,-1,1336,1121,0,0
119,-97,0,0,0,0,0,0,0,0,0,-1,1343,1121,0,0
126,-97,0,0,0,0,0,0,0,0,0,-1,1350,1121,0,0
133,-97,0,0,0,0,0,0,0,0,0,-1,1357,1121,0,0
140,-97,0,0,0,0,0,0,0,0,0,-1,1364,1121,0,0
147,-97,0,0,0,0,0,0,0,0,0,-1,1371,1121,0,0
154,-97,0,0,0,0,0,0,0,0,0,-1,1378,1121,0,0
161,-97,0,0,0,0,0,0,0,0,0,-1,1385,1121,0,0
168,-97,0,0,0,0,0,0,0,0,0,-1,1392,1121,0,0
175,-97,0,0,0,0,0,0,0,0,0,-1,1399,1121,0,0
182,-97,0,0,0,0,0,0,0,0,0,-1,1406,1121,0,0
189,-97,0,0,0,0,0,0,0,0,0,-1,1413,1121,0,0
196,-97,0,0,0,0,0,0,0,0,0,-1,1420,1121,0,0
203,-97,0,0,0,0,0,0,0,0,0,-1,1427,1121,0,0
210,-97,0,0,0,0,0,0,0,0,0,-1,1434,1121,0,0
217,-97,0,0,0,0,0,0,0,0,0,-1,1441,1121,0,0
224,-97,0,0,0,0,0,0,0,0,0,-1,1448,1121,0,0
231,-97,0,0,0,0,0,0,0,0,0,-1,1455,1121,0,0
238,-97,0,0,0,0,0,0,0,0,0,-1,1462,1121,0,0
245,-97,0,0,0,0,0,0,0,0,0,-1,1469,1121,0,0
252,-97,0,0,0,0,0,0,0,0,0,-1,1476,1121,0,0
259,-97,0,0,0,0,0,0,0,0,0,-1,1483,1121,0,0
266,-97,0,0,0,0,0,0,0,0,0,-1,1490,1121,0,0
273,-97,0,0,0,0,0,0,0,0,0,-1,1497,1121,0,0
280,-97,0,0,0,0,0,0,0,0,0,-1,1504,1121,0,0
287,-97,0,0,0,0,0,0,0,0,0,-1,1511,1121,0,0
294,-97,0,0,0,0,0,0,0,0,0,-1,1518,1121,0,0
301,-97,0,0,0,0,0,0,0,0,0,-1,1525,1121,0,0
308,-97,0,0,0,0,0,0,0,0,0,-1,1532,1121,0,0
315,-97,0,0,0,0,0,0,0,0,0,-1,1539,1121,0,0
322,-97,0,0,0,0,0,0,0,0,0,-1,1546,1121,0,0
329,-97,0,0,0,0,0,0,0,0,0,-1,1553,1121,0,0
336,-97,0,0,0,0,0,0,0,0,0,-1,1560,1121,0,0
343,-97,0,0,0,0,0,0,0,0,0,-1,1567,1121,0,0
350,-97,0,0,0,0,0,0,0,0,0,-1,1574,1121,0,0
357,-97,0,0,0,0,0,0,0,0,0,-1,1581,1121,0,0
364,-97,0,0,0,0,0,0,0,0,0,-1,1588,1121,0,0
371,-97,0,0,0,0,0,0,0,0,0,-1,1595,1121,0,0
378,-97,0,0,0,0,0,0,0,0,0,-1,1602,1121,0,0
385,-97,0,0,0,0,0,0,0,0,0,-1,1609,1121,0,0
392,-97,0,0,0,0,0,0,0,0,0,-1,1616,1121,0,0
399,-97,0,0,0,0,0,0,0,0,0,-1,1623,1121,0,0
406,-97,0,0,0,0,0,0,0,0,0,-1,1630,1121,0,0
413,-97,0,0,0,0,0,0,0,0,0,-1,1637,1121,0,0
420,-97,0,0,0,0,0,0,0,0,0,-1,1644,1121,0,0
427,-97,0,0,0,0,0,0,0,0,0,-1,1651,1121,0,0
434,-97,0,0,0,0,0,0,0,0,0,-1,1658,1121,0,0
441,-97,0,0,0,0,0,0,0,0,0,-1,1665,1121,0,0
448,-97,0,0,0,0,0,0,0,0,0,-1,1672,1121,0,0
455,-97,0,0,0,0,0,0,0,0,0,-1,1679,1121,0,0
462,-97,0,0,0,0,0,0,0,0,0,-1,1686,1121,0,0
469,-97,0,0,0,0,0,0,0,0,0,-1,1693,1121,0,0
476,-97,0,0,0,0,0,0,0,0,0,-1,1700,1121,0,0
483,-97,0,0,0,0,0,0,0,0,0,-1,1707,1121,0,0
490,-97,0,0,0,0,0,0,0,0,0,-1,1714,1121,0,0
497,-97,0,0,0,0,0,0,0,0,0,-1,1721,1121,0,0
504,-97,0,0,0,0,0,0,0,0,0,-1,1728,1121,0,0
511,-97,0,0,0,0,0,0,0,0,0,-1,1735,1121,0,0
518,-97,0,0,0,0,0,0,0,0,0,-1,1742,1121,0,0
525,-97,0,0,0,0,0,0,0,0,0,-1,1749,1121,0,0
532,-97,0,0,0,0,0,0,0,0,0,-1,1756,1121,0,0
539,-97,0,0,0,0,0,0,0,0,0,-1,1763,1121,0,0
546,-97,0,0,0,0,0,0,0,0,0,-1,1770,1121,0,0
553,-97,0,0,0,0,0,0,0,0,0,-1,1777,1121,0,0
560,-97,0,0,0,0,0,0,0,0,0,-1,1784,1121,0,0
567,-97,0,0,0,0,0,0,0,0,0,-1,1791,1121,0,0
574,-97,0,0,0,0,0,0,0,0,0,-1,1798,1121,0,0
581,-97,0,0,0,0,0,0,0,0,0,-1,1805,1121,0,0
588,-97,0,0,0,0,0,0,0,0,0,-1,1812,1121,0,0
595,-97,0,0,0,0,0,0,0,0,0,-1,1819,1121,0,0
602,-97,0,0,0,0,0,0,0,0,0,-1,1826,1121,0,0
609,-97,0,0,0,0,0,0,0,0,0,-1,1833,1121,0,0
616,-97,0,0,0,0,0,0,0,0,0,-1,1840,1121,0,0
623,-97,0,0,0,0,0,0,0,0,0,-1,1847,1121,0,0
630,-97,0,0,0,0,0,0,0,0,0,-1,1854,1121,0,0
637,-97,0,0,0,0,0,0,0,0,0,-1,1861,1121,0,0
644,-97,82.0618,2.25391,0.00287732,-0.00185648,-0.00296484,0.00430416,-0.00328332,-0.44854,0.00439383,0.0370886,1868,1121,82.0617,-2.25387
651,-97,82.0913,2.21997,0.00185324,-0.00145964,-0.00237677,0.00309384,-0.00270024,-0.481066,0.00334778,0.0379122,1875,1121,82.0913,-2.22
658,-97,82.0017,2.24121,0.00129209,-0.00123857,-0.00191663,0.00232339,-0.00226987,-0.493647,0.00265198,0.0388973,1882,1121,82.0016,-2.24122
665,-97,82.0339,2.12842,0.000921679,-0.00106888,-0.00153363,0.00175468,-0.00190187,-0.497573,0.00211168,0.0433134,1889,1121,82.0339,-2.12843
672,-97,82.0349,2.02222,0.000654476,-0.00090115,-0.00121968,0.00132325,-0.00156992,-0.501551,0.00167239,0.0474836,1896,1121,82.0349,-2.02227
679,-97,82.043,2.35413,0.000547875,-0.000930206,-0.000875455,0.000954523,-0.00133685,-0.434846,0.00132905,0.0434197,1903,1121,82.043,-2.35415
686,-97,82.0715,2.55127,0.000541076,-0.000868812,-0.000722814,0.000845788,-0.00117352,-0.398957,0.00117096,0.0353927,1910,1121,82.0716,-2.55132
693,-97,82.0834,2.37756,0.000619175,-0.000958194,-0.000510724,0.000770099,-0.00110912,-0.287331,0.00109083,0.0344374,1917,1121,82.0834,-2.37755
700,-97,82.0313,2.26245,0.000749415,-0.000893502,-0.000259214,0.000789342,-0.00093343,-0.152832,0.000995802,0.0294736,1924,1121,82.0312,-2.26245
707,-97,82.0792,2.2019,0.000687401,-0.000651044,0.00010897,0.000696215,-0.000659858,0.0807068,0.000783023,0.0293078,1931,1121,82.0793,-2.20186
714,-97,82.1273,2.10291,0,0,0,0,0,0,0,-1,1938,1121,82.1273,-2.10294
721,-97,76.7086,10.08,0,0,0,0,0,0,0,-1,1945,1121,76.7086,-10.0799
728,-97,76.6379,9.78186,0,0,0,0,0,0,0,-1,1952,1121,76.6379,-9.78183
735,-97,76.5139,9.15503,-0.000600303,0.00155852,0.00118254,0.00208021,-0.001122,1.15532,0.00187618,0.0340338,1959,1121,76.514,-9.15506
742,-97,76.402,8.59692,-0.000495266,0.00218335,0.00141153,0.00278985,-0.00110177,1.16497,0.00231621,0.0291742,1966,1121,76.402,-8.59691
749,-97,76.5251,7.92456,-0.000519691,0.00384177,0.00154353,0.00433275,-0.00101067,1.26282,0.00327775,0.0258722,1973,1121,76.5252,-7.92456
756,-97,76.5527,7.27893,-0.000294057,0.00677603,0.00078264,0.00686163,-0.000379657,1.46186,0.00470608,0.0183938,1980,1121,76.5528,-7.27895
763,-97,76.4236,6.70813,0.000940554,0.0113587,-0.00102286,0.0114581,0.000841079,-1.47385,0.0073744,0.0149557,1987,1121,76.4235,-6.70819
770,-97,76.3149,6.13538,0.00354403,0.0182636,-0.00432375,0.0194397,0.00236793,-1.30521,0.012247,0.0143595,1994,1121,76.3148,-6.1354
777,-97,76.2119,5.51379,0.00732056,0.0272863,-0.00899481,0.0307408,0.003866,-1.20411,0.0193345,0.0201896,2001,1121,76.2119,-5.51377
784,-97,76.1948,4.88818,0.0123385,0.038793,-0.0152606,0.0457609,0.00537057,-1.14247,0.028884,0.0406461,2008,1121,76.1948,-4.8882
791,-97,76.2595,4.30176,0.0190905,0.0544024,-0.0241567,0.0666677,0.00682525,-1.10098,0.0423538,0.0463285,2015,1121,76.2596,-4.30172
798,-97,76.3181,3.72083,0,0,0,0,0,0,0,-1,2022,1121,76.3181,-3.72087
805,-97,76.3135,3.2439,0,0,0,0,0,0,0,-1,2029,1121,76.3135,-3.24384
812,-97,76.0908,1.68494,0,0,0,0,0,0,0,-1,2036,1121,76.0908,-1.68497
-700,-104,0,0,0,0,0,0,0,0,0,-1,524,1128,0,0
-693,-104,-69.3378,-4.16479,0,0,0,0,0,0,0,-1,531,1128,-69.3378,4.16476
-686,-104,-68.2593,-3.76648,0.176727,0.067711,0.080339,0.219304,0.0251341,0.487332,0.138586,0.0485566,538,1128,-68.2593,3.76647
-679,-104,-67.1294,-3.3783,0.150886,0.0620477,0.0716003,0.190726,0.0222072,0.507766,0.120433,0.0458697,545,1128,-67.1294,3.37833
-672,-104,-66.1136,-2.93799,0.125589,0.0551189,0.0614444,0.161184,0.0195237,0.525065,0.101576,0.0480685,552,1128,-66.1136,2.93803
-665,-104,-65.2884,-2.49597,0,0,0,0,0,0,0,-1,559,1128,-65.2884,2.49594
-658,-104,-64.4512,-2.03882,0,0,0,0,0,0,0,-1,566,1128,-64.4512,2.03886
-651,-104,-59.3862,4.30957,0.0570542,0.0323468,0.0305332,0.0776382,0.0117628,0.593166,0.0483175,0.0497927,573,1128,-59.3863,-4.30951
-644,-104,-59.4766,5.03027,0.0378047,0.0248104,0.0210597,0.0533467,0.00926839,0.635775,0.0329129,0.0189376,580,1128,-59.4766,-5.0303
-637,-104,-59.5402,5.70801,0.020547,0.0173818,0.0123152,0.0313808,0.00654787,0.721494,0.0191155,0.0142295,587,1128,-59.5402,-5.708
-630,-104,-59.5864,6.276,0.00572176,0.0109299,0.00465227,0.0136573,0.00299435,1.04054,0.00828905,0.0205198,594,1128,-59.5865,-6.27601
-623,-104,-59.7342,6.96313,-0.00376521,0.00515217,-0.000923796,0.00524687,-0.00385991,-1.46865,0.00527809,0.0233377,601,1128,-59.7342,-6.96317
-616,-104,-60.1138,7.75867,-0.00692816,0.00220503,-0.00327792,0.00325969,-0.00798282,-1.25951,0.00667907,0.0327267,608,1128,-60.1139,-7.75861
-609,-104,-60.2518,8.32983,-0.00706735,0.00102884,-0.00412058,0.0027571,-0.00879561,-1.17366,0.00696706,0.0447523,615,1128,-60.2518,-8.32984
-602,-104,-60.3585,8.99878,0,0,0,0,0,0,0,-1,622,1128,-60.3585,-8.99878
-595,-104,-59.9266,9.80786,0,0,0,0,0,0,0,-1,629,1128,-59.9266,-9.80791
-588,-104,-60.2822,10.547,0,0,0,0,0,0,0,-1,636,1128,-60.2822,-10.547
-581,-104,-23.9373,2.85864,0,0,0,0,0,0,0,-1,643,1128,-23.9373,-2.85861
-574,-104,-65.1233,0.547607,0,0,0,0,0,0,0,-1,650,1128,-65.1233,-0.547603
-567,-104,-65.1237,0.593384,-0.0013996,0.000438086,-0.00329496,0.00293992,-0.00390144,-0.921375,0.00396284,0.0357179,657,1128,-65.1237,-0.59333
-560,-104,-65.2286,0.51355,-0.000130098,0.000785246,-0.00271657,0.00308243,-0.00242728,-0.868852,0.00318852,0.0412493,664,1128,-65.2287,-0.513519
-553,-104,-65.1582,0.109619,1.98506e-05,0.00159134,-0.00138535,0.00239827,-0.000787072,-1.04337,0.00191587,0.048734,671,1128,-65.1582,-0.109646
-546,-104,-65.1976,0.0904541,-0.000922578,0.00284261,0.000993606,0.00308872,-0.0011687,1.32798,0.00253998,0.0453354,678,1128,-65.1977,-0.0904321
-539,-104,-65.2131,0.17749,-0.00217137,0.00372934,0.00447341,0.00613771,-0.00457975,1.07692,0.00620949,0.0405327,685,1128,-65.2131,-0.177522
-532,-104,-65.1846,0.207886,-0.00371975,0.00467555,0.00819489,0.00968531,-0.00872951,1.02209,0.0106366,0.0423671,692,1128,-65.1846,-0.207898
-525,-104,-65.228,0.517456,0,0,0,0,0,0,0,-1,699,1128,-65.228,-0.517436
-518,-104,0,0,0,0,0,0,0,0,0,-1,706,1128,0,0
-511,-104,0,0,0,0,0,0,0,0,0,-1,713,1128,0,0
-504,-104,0,0,0,0,0,0,0,0,0,-1,720,1128,0,0
-497,-104,0,0,0,0,0,0,0,0,0,-1,727,1128,0,0
-490,-104,0,0,0,0,0,0,0,0,0,-1,734,1128,0,0
-483,-104,0,0,0,0,0,0,0,0,0,-1,741,1128,0,0
-476,-104,0,0,0,0,0,0,0,0,0,-1,748,1128,0,0
-469,-104,0,0,0,0,0,0,0,0,0,-1,755,1128,0,0
-462,-104,0,0,0,0,0,0,0,0,0,-1,762,1128,0,0
-455,-104,0,0,0,0,0,0,0,0,0,-1,769,1128,0,0
-448,-104,0,0,0,0,0,0,0,0,0,-1,776,1128,0,0
-441,-104,0,0,0,0,0,0,0,0,0,-1,783,1128,0,0
-434,-104,0,0,0,0,0,0,0,0,0,-1,790,1128,0,0
-427,-104,0,0,0,0,0,0,0,0,0,-1,797,1128,0,0
-420,-104,0,0,0,0,0,0,0,0,0,-1,804,1128,0,0
-413,-104,0,0,0,0,0,0,0,0,0,-1,811,1128,0,0
-406,-104,0,0,0,0,0,0,0,0,0,-1,818,1128,0,0
-399,-104,0,0,0,0,0,0,0,0,0,-1,825,1128,0,0
-392,-104,0,0,0,0,0,0,0,0,0,-1,832,1128,0,0
-385,-104,0,0,0,0,0,0,0,0,0,-1,839,1128,0,0
-378,-104,0,0,0,0,0,0,0,0,0,-1,846,1128,0,0
-371,-104,0,0,0,0,0,0,0,0,0,-1,853,1128,0,0
-364,-104,0,0,0,0,0,0,0,0,0,-1,860,1128,0,0
-357,-104,0,0,0,0,0,0,0,0,0,-1,867,1128,0,0
-350,-104,0,0,0,0,0,0,0,0,0,-1,874,1128,0,0
-343,-104,0,0,0,0,0,0,0,0,0,-1,881,1128,0,0
-336,-104,0,0,0,0,0,0,0,0,0,-1,888,1128,0,0
-329,-104,0,0,0,0,0,0,0,0,0,-1,895,1128,0,0
-322,-104,0,0,0,0,0,0,0,0,0,-1,902,1128,0,0
-315,-104,0,0,0,0,0,0,0,0,0,-1,909,1128,0,0
-308,-104,0,0,0,0,0,0,0,0,0,-1,916,1128,0,0
-301,-104,0,0,0,0,0,0,0,0,0,-1,923,1128,0,0
-294,-104,0,0,0,0,0,0,0,0,0,-1,930,1128,0,0
-287,-104,0,0,0,0,0,0,0,0,0,-1,937,1128,0,0
-280,-104,0,0,0,0,0,0,0,0,0,-1,944,1128,0,0
-273,-104,0,0,0,0,0,0,0,0,0,-1,951,1128,0,0
-266,-104,0,0,0,0,0,0,0,0,0,-1,958,1128,0,0
-259,-104,0,0,0,0,0,0,0,0,0,-1,965,1128,0,0
-252,-104,0,0,0,0,0,0,0,0,0,-1,972,1128,0,0
-245,-104,0,0,0,0,0,0,0,0,0,-1,979,1128,0,0
-238,-104,0,0,0,0,0,0,0,0,0,-1,986,1128,0,0
-231,-104,0,0,0,0,0,0,0,0,0,-1,993,1128,0,0
-224,-104,0,0,0,0,0,0,0,0,0,-1,1000,1128,0,0
-217,-104,0,0,0,0,0,0,0,0,0,-1,1007,1128,0,0
-210,-104,0,0,0,0,0,0,0,0,0,-1,1014,1128,0,0
-203,-104,0,0,0,0,0,0,0,0,0,-1,1021,1128,0,0
-196,-104,0,0,0,0,0,0,0,0,0,-1,1028,1128,0,0
-189,-104,0,0,0,0,0,0,0,0,0,-1,1035,1128,0,0
-182,-104,0,0,0,0,0,0,0,0,0,-1,1042,1128,0,0
-175,-104,0,0,0,0,0,0,0,0,0,-1,1049,1128,0,0
-168,-104,0,0,0,0,0,0,0,0,0,-1,1056,1128,0,0
-161,-104,0,0,0,0,0,0,0,0,0,-1,1063,1128,0,0
-154,-104,0,0,0,0,0,0,0,0,0,-1,1070,1128,0,0
-147,-104,0,0,0,0,0,0,0,0,0,-1,1077,1128,0,0
-140,-104,0,0,0,0,0,0,0,0,0,-1,1084,1128,0,0
-133,-104,0,0,0,0,0,0,0,0,0,-1,1091,1128,0,0
-126,-104,0,0,0,0,0,0,0,0,0,-1,1098,1128,0,0
-119,-104,0,0,0,0,0,0,0,0,0,-1,1105,1128,0,0
-112,-104,0,0,0,0,0,0,0,0,0,-1,1112,1128,0,0
-105,-104,0,0,0,0,0,0,0,0,0,-1,1119,1128,0,0
-98,-104,0,0,0,0,0,0,0,0,0,-1,1126,1128,0,0
-91,-104,0,0,0,0,0,0,0,0,0,-1,1133,1128,0,0
-84,-104,0,0,0,0,0,0,0,0,0,-1,1140,1128,0,0
-77,-104,0,0,0,0,0,0,0,0,0,-1,1147,1128,0,0
-70,-104,0,0,0,0,0,0,0,0,0,-1,1154,1128,0,0
-63,-104,0,0,0,0,0,0,0,0,0,-1,1161,1128,0,0
-56,-104,0,0,0,0,0,0,0,0,0,-1,1168,1128,0,0
-49,-104,0,0,0,0,0,0,0,0,0,-1,1175,1128,0,0
-42,-104,0,0,0,0,0,0,0,0,0,-1,1182,1128,0,0
-35,-104,0,0,0,0,0,0,0,0,0,-1,1189,1128,0,0
-28,-104,0,0,0,0,0,0,0,0,0,-1,1196,1128,0,0
-21,-104,0,0,0,0,0,0,0,0,0,-1,1203,1128,0,0
-14,-104,0,0,0,0,0,0,0,0,0,-1,1210,1128,0,0
-7,-104,0,0,0,0,0,0,0,0,0,-1,1217,1128,0,0
0,-104,0,0,0,0,0,0,0,0,0,-1,1224,1128,0,0
7,-104,0,0,0,0,0,0,0,0,0,-1,1231,1128,0,0
14,-104,0,0,0,0,0,0,0,0,0,-1,1238,1128,0,0
21,-104,0,0,0,0,0,0,0,0,0,-1,1245,1128,0,0
28,-104,0,0,0,0,0,0,0,0,0,-1,1252,1128,0,0
35,-104,0,0,0,0,0,0,0,0,0,-1,1259,1128,0,0
42,-104,0,0,0,0,0,0,0,0,0,-1,1266,1128,0,0
49,-104,0,0,0,0,0,0,0,0,0,-1,1273,1128,0,0
56,-104,0,0,0,0,0,0,0,0,0,-1,1280,1128,0,0
63,-104,0,0,0,0,0,0,0,0,0,-1,1287,1128,0,0
70,-104,0,0,0,0,0,0,0,0,0,-1,1294,1128,0,0
77,-104,0,0,0,0,0,0,0,0,0,-1,1301,1128,0,0
84,-104,0,0,0,0,0,0,0,0,0,-1,1308,1128,0,0
91,-104,0,0,0,0,0,0,0,0,0,-1,1315,1128,0,0
98,-104,0,0,0,0,0,0,0,0,0,-1,1322,1128,0,0
105,-104,0,0,0,0,0,0,0,0,0,-1,1329,1128,0,0
112,-104,0,0,0,0,0,0,0,0,0,-1,1336,1128,0,0
119,-104,0,0,0,0,0,0,0,0,0,-1,1343,1128,0,0
126,-104,0,0,0,0,0,0,0,0,0,-1,1350,1128,0,0
133,-104,0,0,0,0,0,0,0,0,0,-1,1357,1128,0,0
140,-104,0,0,0,0,0,0,0,0,0,-1,1364,1128,0,0
147,-104,0,0,0,0,0,0,0,0,0,-1,1371,1128,0,0
154,-104,0,0,0,0,0,0,0,0,0,-1,1378,1128,0,0
161,-104,0,0,0,0,0,0,0,0,0,-1,1385,1128,0,0
168,-104,0,0,0,0,0,0,0,0,0,-1,1392,1128,0,0
175,-104,0,0,0,0,0,0,0,0,0,-1,1399,1128,0,0
182,-104,0,0,0,0,0,0,0,0,0,-1,1406,1128,0,0
189,-104,0,0,0,0,0,0,0,0,0,-1,1413,1128,0,0
196,-104,0,0,0,0,0,0,0,0,0,-1,1420,1128,0,0
203,-104,0,0,0,0,0,0,0,0,0,-1,1427,1128,0,0
210,-104,0,0,0,0,0,0,0,0,0,-1,1434,1128,0,0
217,-104,0,0,0,0,0,0,0,0,0,-1,1441,1128,0,0
224,-104,0,0,0,0,0,0,0,0,0,-1,1448,1128,0,0
231,-104,0,0,0,0,0,0,0,0,0,-1,1455,1128,0,0
238,-104,0,0,0,0,0,0,0,0,0,-1,1462,1128,0,0
245,-104,0,0,0,0,0,0,0,0,0,-1,1469,1128,0,0
252,-104,0,0,0,0,0,0,0,0,0,-1,1476,1128,0,0
259,-104,0,0,0,0,0,0,0,0,0,-1,1483,1128,0,0
266,-104,0,0,0,0,0,0,0,0,0,-1,1490,1128,0,0
273,-104,0,0,0,0,0,0,0,0,0,-1,1497,1128,0,0
280,-104,0,0,0,0,0,0,0,0,0,-1,1504,1128,0,0
287,-104,0,0,0,0,0,0,0,0,0,-1,1511,1128,0,0
294,-104,0,0,0,0,0,0,0,0,0,-1,1518,1128,0,0
301,-104,0,0,0,0,0,0,0,0,0,-1,1525,1128,0,0
308,-104,0,0,0,0,0,0,0,0,0,-1,1532,1128,0,0
315,-104,0,0,0,0,0,0,0,0,0,-1,1539,1128,0,0
322,-104,0,0,0,0,0,0,0,0,0,-1,1546,1128,0,0
329,-104,0,0,0,0,0,0,0,0,0,-1,1553,1128,0,0
336,-104,0,0,0,0,0,0,0,0,0,-1,1560,1128,0,0
343,-104,0,0,0,0,0,0,0,0,0,-1,1567,1128,0,0
350,-104,0,0,0,0,0,0,0,0,0,-1,1574,1128,0,0
357,-104,0,0,0,0,0,0,0,0,0,-1,1581,1128,0,0
364,-104,0,0,0,0,0,0,0,0,0,-1,1588,1128,0,0
371,-104,0,0,0,0,0,0,0,0,0,-1,1595,1128,0,0
378,-104,0,0,0,0,0,0,0,0,0,-1,1602,1128,0,0
385,-104,0,0,0,0,0,0,0,0,0,-1,1609,1128,0,0
392,-104,0,0,0,0,0,0,0,0,0,-1,1616,1128,0,0
399,-104,0,0,0,0,0,0,0,0,0,-1,1623,1128,0,0
406,-104,0,0,0,0,0,0,0,0,0,-1,1630,1128,0,0
413,-104,0,0,0,0,0,0,0,0,0,-1,1637,1128,0,0
420,-104,0,0,0,0,0,0,0,0,0,-1,1644,1128,0,0
427,-104,0,0,0,0,0,0,0,0,0,-1,1651,1128,0,0
434,-104,0,0,0,0,0,0,0,0,0,-1,1658,1128,0,0
441,-104,0,0,0,0,0,0,0,0,0,-1,1665,1128,0,0
448,-104,0,0,0,0,0,0,0,0,0,-1,1672,1128,0,0
455,-104,0,0,0,0,0,0,0,0,0,-1,1679,1128,0,0
462,-104,0,0,0,0,0,0,0,0,0,-1,1686,1128,0,0
469,-104,0,0,0,0,0,0,0,0,0,-1,1693,1128,0,0
476,-104,0,0,0,0,0,0,0,0,0,-1,1700,1128,0,0
483,-104,0,0,0,0,0,0,0,0,0,-1,1707,1128,0,0
490,-104,0,0,0,0,0,0,0,0,0,-1,1714,1128,0,0
497,-104,0,0,0,0,0,0,0,0,0,-1,1721,1128,0,0
504,-104,0,0,0,0,0,0,0,0,0,-1,1728,1128,0,0
511,-104,0,0,0,0,0,0,0,0,0,-1,1735,1128,0,0
518,-104,0,0,0,0,0,0,0,0,0,-1,1742,1128,0,0
525,-104,0,0,0,0,0,0,0,0,0,-1,1749,1128,0,0
532,-104,0,0,0,0,0,0,0,0,0,-1,1756,1128,0,0
539,-104,0,0,0,0,0,0,0,0,0,-1,1763,1128,0,0
546,-104,0,0,0,0,0,0,0,0,0,-1,1770,1128,0,0
553,-104,0,0,0,0,0,0,0,0,0,-1,1777,1128,0,0
560,-104,0,0,0,0,0,0,0,0,0,-1,1784,1128,0,0
567,-104,0,0,0,0,0,0,0,0,0,-1,1791,1128,0,0
574,-104,0,0,0,0,0,0,0,0,0,-1,1798,1128,0,0
581,-104,0,0,0,0,0,0,0,0,0,-1,1805,1128,0,0
588,-104,0,0,0,0,0,0,0,0,0,-1,1812,1128,0,0
595,-104,0,0,0,0,0,0,0,0,0,-1,1819,1128,0,0
602,-104,0,0,0,0,0,0,0,0,0,-1,1826,1128,0,0
609,-104,0,0,0,0,0,0,0,0,0,-1,1833,1128,0,0
616,-104,0,0,0,0,0,0,0,0,0,-1,1840,1128,0,0
623,-104,0,0,0,0,0,0,0,0,0,-1,1847,1128,0,0
630,-104,0,0,0,0,0,0,0,0,0,-1,1854,1128,0,0
637,-104,0,0,0,0,0,0,0,0,0,-1,1861,1128,0,0
644,-104,82.0094,2.44385,0.00341645,-0.00210059,-0.00350542,0.00511858,-0.00380272,-0.452038,0.00516936,0.0359048,1868,1128,82.0094,-2.44382
651,-104,82.0919,2.40906,0.00225128,-0.00164262,-0.00286605,0.00376914,-0.00316047,-0.487044,0.00400595,0.0364296,1875,1128,82.092,-2.40908
658,-104,82.137,2.2218,0.00156025,-0.00136895,-0.00235502,0.00286894,-0.00267765,-0.507213,0.00320296,0.039976,1882,1128,82.1369,-2.22183
665,-104,82.223,1.94067,0.00104898,-0.00114848,-0.00190863,0.00215254,-0.00225204,-0.524232,0.0025432,0.0444592,1889,1128,82.223,-1.94068
672,-104,82.156,1.92236,0.000654362,-0.00094663,-0.0015277,0.00157858,-0.00187085,-0.544071,0.00199391,0.0439228,1896,1128,82.156,-1.92232
679,-104,82.0049,2.25842,0.00048912,-0.00102994,-0.00109981,0.00106618,-0.00160699,-0.483204,0.00155385,0.0400705,1903,1128,82.0048,-2.25848
686,-104,81.9973,2.41943,0.000549086,-0.000954427,-0.000881994,0.000956231,-0.00136157,-0.432473,0.00134499,0.0372579,1910,1128,81.9973,-2.41943
693,-104,82.0642,2.34509,0.000681746,-0.00100729,-0.000626358,0.000888672,-0.00121421,-0.319076,0.00121894,0.0342368,1917,1128,82.0642,-2.34512
700,-104,82.0858,2.28125,0.000839235,-0.000950221,-0.000338591,0.000901159,-0.00101214,-0.180887,0.00110527,0.0256801,1924,1128,82.0858,-2.28131
707,-104,82.0828,2.29407,0,0,0,0,0,0,0,-1,1931,1128,82.0828,-2.29407
714,-104,45.5221,2.32166,0,0,0,0,0,0,0,-1,1938,1128,45.5221,-2.3216
721,-104,73.8613,10.292,0,0,0,0,0,0,0,-1,1945,1128,73.8613,-10.292
728,-104,75.9552,9.96411,0,0,0,0,0,0,0,-1,1952,1128,75.9552,-9.96416
735,-104,76.0896,9.27881,0,0,0,0,0,0,0,-1,1959,1128,76.0897,-9.27878
742,-104,75.819,8.61438,3.80751e-05,0.00184104,0.00158775,0.00276538,-0.000886262,1.04359,0.00219936,0.0294138,1966,1128,75.819,-8.61443
749,-104,75.7712,7.93384,1.52899e-05,0.00338435,0.00181007,0.00417247,-0.000772832,1.16014,0.00307184,0.026391,1973,1128,75.7713,-7.93386
756,-104,75.7803,7.28711,0.000252026,0.00634706,0.00113694,0.00655224,4.68539e-05,1.39226,0.00435262,0.0189076,1980,1128,75.7803,-7.28708
763,-104,75.6919,6.69348,0.00158191,0.0111101,-0.000614798,0.0111496,0.00154241,-1.50663,0.00697602,0.0202685,1987,1128,75.6918,-6.69345
770,-104,75.5881,6.11194,0.00419687,0.0181769,-0.00375374,0.0191211,0.00325273,-1.32439,0.0118134,0.0184807,1994,1128,75.588,-6.11193
777,-104,75.4619,5.42761,0.00794812,0.0274719,-0.00824388,0.0304872,0.00493283,-1.22015,0.0188963,0.0279628,2001,1128,75.4618,-5.42762
784,-104,75.5708,4.94067,0.0130231,0.0396275,-0.0144477,0.0459641,0.00668649,-1.15747,0.028675,0.0443322,2008,1128,75.5708,-4.94061
791,-104,75.7234,4.32397,0.0199242,0.0565205,-0.0234679,0.0679808,0.00846389,-1.11652,0.0427792,0.0467456,2015,1128,75.7233,-4.32395
798,-104,75.8315,3.42578,0.0294041,0.0801116,-0.0363549,0.0990805,0.0104353,-1.08989,0.0628646,0.0469244,2022,1128,75.8316,-3.42574
805,-104,76.0342,1.94348,0.0418342,0.112673,-0.0541484,0.141958,0.0125498,-1.07503,0.0907449,0.0494192,2029,1128,76.0343,-1.94352
812,-104,76.1682,0.538452,0,0,0,0,0,0,0,-1,2036,1128,76.1681,-0.538449
-700,-111,0,0,0,0,0,0,0,0,0,-1,524,1135,0,0
-693,-111,-68.9089,-4.61951,0,0,0,0,0,0,0,-1,531,1135,-68.9089,4.61952
-686,-111,-68.5141,-4.11853,0,0,0,0,0,0,0,-1,538,1135,-68.5141,4.11858
-679,-111,-67.1428,-3.98389,0.150674,0.0681183,0.0724348,0.192767,0.0260255,0.526417,0.120774,0.0461089,545,1135,-67.1428,3.98387
-672,-111,-66.6032,-3.32715,0.12555,0.0594798,0.0619553,0.162727,0.0223024,0.54047,0.101868,0.0486847,552,1135,-66.6032,3.32717
-665,-111,-65.7956,-3.19263,0,0,0,0,0,0,0,-1,559,1135,-65.7956,3.19267
-658,-111,-59.8354,3.6532,0,0,0,0,0,0,0,-1,566,1135,-59.8354,-3.65317
-651,-111,-58.5382,4.24194,0,0,0,0,0,0,0,-1,573,1135,-58.5382,-4.24197
-644,-111,-58.6732,4.98877,0.0368337,0.0253107,0.0205832,0.0524465,0.00969779,0.648934,0.032222,0.0298785,580,1135,-58.6731,-4.98874
-637,-111,-58.8076,5.70593,0.0191835,0.0174754,0.011706,0.0300665,0.00659235,0.748984,0.0182483,0.0151757,587,1135,-58.8076,-5.70599
-630,-111,-58.8715,6.28503,0.00397993,0.0106728,0.0038761,0.0124472,0.00220554,1.14149,0.00766938,0.0323674,594,1135,-58.8714,-6.28502
-623,-111,-58.923,7.03955,-0.00578598,0.00464153,-0.00182425,0.00495146,-0.00609592,-1.40251,0.0063896,0.0283988,601,1135,-58.923,-7.03953
-616,-111,-59.3341,7.72217,-0.00840178,0.00199568,-0.00379043,0.00323078,-0.00963688,-1.2558,0.00772995,0.0352449,608,1135,-59.3341,-7.72222
-609,-111,-59.5306,8.3418,-0.00797806,0.00112288,-0.00449833,0.00297099,-0.00982617,-1.18098,0.00773373,0.0423834,615,1135,-59.5306,-8.34179
-602,-111,-59.4415,9.18677,0,0,0,0,0,0,0,-1,622,1135,-59.4415,-9.18673
-595,-111,-59.0958,9.8866,0,0,0,0,0,0,0,-1,629,1135,-59.0957,-9.8866
-588,-111,-58.7677,10.8127,0,0,0,0,0,0,0,-1,636,1135,-58.7677,-10.8128
-581,-111,-21.0555,3.14551,0,0,0,0,0,0,0,-1,643,1135,-21.0555,-3.14548
-574,-111,-65.0685,0.424438,0,0,0,0,0,0,0,-1,650,1135,-65.0685,-0.424488
-567,-111,-65.0471,0.443848,-0.00207238,0.000295118,-0.00403847,0.00331976,-0.00509702,-0.927964,0.00489541,0.0378165,657,1135,-65.047,-0.443843
-560,-111,-65.1784,0.484009,-0.000297285,0.000390369,-0.00364068,0.00370342,-0.00361033,-0.832479,0.00422271,0.0399821,664,1135,-65.1784,-0.48402
-553,-111,-64.9965,-0.0339355,0.000237857,0.00102054,-0.00225673,0.00291961,-0.00166122,-0.87125,0.0026778,0.0461748,671,1135,-64.9965,0.0338918
-546,-111,-64.9401,0.15686,-0.000862487,0.00225281,0.000304086,0.00228222,-0.000891891,1.4744,0.00189026,0.0414141,678,1135,-64.9401,-0.156805
-539,-111,-65.0945,0.302734,-0.00241625,0.00321968,0.00390498,0.00521729,-0.00441386,1.09795,0.00556699,0.0393057,685,1135,-65.0946,-0.30276
-532,-111,-65.0943,0.462646,-0.0042447,0.00418884,0.00774611,0.00879156,-0.00884741,1.03465,0.0101839,0.0411504,692,1135,-65.0943,-0.462597
-525,-111,-65.0001,0.24939,0,0,0,0,0,0,0,-1,699,1135,-65.0001,-0.249379
-518,-111,0,0,0,0,0,0,0,0,0,-1,706,1135,0,0
-511,-111,0,0,0,0,0,0,0,0,0,-1,713,1135,0,0
-504,-111,0,0,0,0,0,0,0,0,0,-1,720,1135,0,0
-497,-111,0,0,0,0,0,0,0,0,0,-1,727,1135,0,0
-490,-111,0,0,0,0,0,0,0,0,0,-1,734,1135,0,0
-483,-111,0,0,0,0,0,0,0,0,0,-1,741,1135,0,0
-476,-111,0,0,0,0,0,0,0,0,0,-1,748,1135,0,0
-469,-111,0,0,0,0,0,0,0,0,0,-1,755,1135,0,0
-462,-111,0,0,0,0,0,0,0,0,0,-1,762,1135,0,0
-455,-111,0,0,0,0,0,0,0,0,0,-1,769,1135,0,0
-448,-111,0,0,0,0,0,0,0,0,0,-1,776,1135,0,0
-441,-111,0,0,0,0,0,0,0,0,0,-1,783,1135,0,0
-434,-111,0,0,0,0,0,0,0,0,0,-1,790,1135,0,0
-427,-111,0,0,0,0,0,0,0,0,0,-1,797,1135,0,0
-420,-111,0,0,0,0,0,0,0,0,0,-1,804,1135,0,0
-413,-111,0,0,0,0,0,0,0,0,0,-1,811,1135,0,0
-406,-111,0,0,0,0,0,0,0,0,0,-1,818,1135,0,0
-399,-111,0,0,0,0,0,0,0,0,0,-1,825,1135,0,0
-392,-111,0,0,0,0,0,0,0,0,0,-1,832,1135,0,0
-385,-111,0,0,0,0,0,0,0,0,0,-1,839,1135,0,0
-378,-111,0,0,0,0,0,0,0,0,0,-1,846,1135,0,0
-371,-111,0,0,0,0,0,0,0,0,0,-1,853,1135,0,0
-364,-111,0,0,0,0,0,0,0,0,0,-1,860,1135,0,0
-357,-111,0,0,0,0,0,0,0,0,0,-1,867,1135,0,0
-350,-111,0,0,0,0,0,0,0,0,0,-1,874,1135,0,0
-343,-111,0,0,0,0,0,0,0,0,0,-1,881,1135,0,0
-336,-111,0,0,0,0,0,0,0,0,0,-1,888,1135,0,0
-329,-111,0,0,0,0,0,0,0,0,0,-1,895,1135,0,0
-322,-111,0,0,0,0,0,0,0,0,0,-1,902,1135,0,0
-315,-111,0,0,0,0,0,0,0,0,0,-1,909,1135,0,0
-308,-111,0,0,0,0,0,0,0,0,0,-1,916,1135,0,0
-301,-111,0,0,0,0,0,0,0,0,0,-1,923,1135,0,0
-294,-111,0,0,0,0,0,0,0,0,0,-1,930,1135,0,0
-287,-111,0,0,0,0,0,0,0,0,0,-1,937,1135,0,0
-280,-111,0,0,0,0,0,0,0,0,0,-1,944,1135,0,0
-273,-111,0,0,0,0,0,0,0,0,0,-1,951,1135,0,0
-266,-111,0,0,0,0,0,0,0,0,0,-1,958,1135,0,0
-259,-111,0,0,0,0,0,0,0,0,0,-1,965,1135,0,0
-252,-111,0,0,0,0,0,0,0,0,0,-1,972,1135,0,0
-245,-111,0,0,0,0,0,0,0,0,0,-1,979,1135,0,0
-238,-111,0,0,0,0,0,0,0,0,0,-1,986,1135,0,0
-231,-111,0,0,0,0,0,0,0,0,0,-1,993,1135,0,0
-224,-111,0,0,0,0,0,0,0,0,0,-1,1000,1135,0,0
-217,-111,0,0,0,0,0,0,0,0,0,-1,1007,1135,0,0
-210,-111,0,0,0,0,0,0,0,0,0,-1,1014,1135,0,0
-203,-111,0,0,0,0,0,0,0,0,0,-1,1021,1135,0,0
-196,-111,0,0,0,0,0,0,0,0,0,-1,1028,1135,0,0
-189,-111,0,0,0,0,0,0,0,0,0,-1,1035,1135,0,0
-182,-111,0,0,0,0,0,0,0,0,0,-1,1042,1135,0,0
-175,-111,0,0,0,0,0,0,0,0,0,-1,1049,1135,0,0
-168,-111,0,0,0,0,0,0,0,0,0,-1,1056,1135,0,0
-161,-111,0,0,0,0,0,0,0,0,0,-1,1063,1135,0,0
-154,-111,0,0,0,0,0,0,0,0,0,-1,1070,1135,0,0
-147,-111,0,0,0,0,0,0,0,0,0,-1,1077,1135,0,0
-140,-111,0,0,0,0,0,0,0,0,0,-1,1084,1135,0,0
-133,-111,0,0,0,0,0,0,0,0,0,-1,1091,1135,0,0
-126,-111,0,0,0,0,0,0,0,0,0,-1,1098,1135,0,0
-119,-111,0,0,0,0,0,0,0,0,0,-1,1105,1135,0,0
-112,-111,0,0,0,0,0,0,0,0,0,-1,1112,1135,0,0
-105,-111,0,0,0,0,0,0,0,0,0,-1,1119,1135,0,0
-98,-111,0,0,0,0,0,0,0,0,0,-1,1126,1135,0,0
-91,-111,0,0,0,0,0,0,0,0,0,-1,1133,1135,0,0
-84,-111,0,0,0,0,0,0,0,0,0,-1,1140,1135,0,0
-77,-111,0,0,0,0,0,0,0,0,0,-1,1147,1135,0,0
-70,-111,0,0,0,0,0,0,0,0,0,-1,1154,1135,0,0
-63,-111,0,0,0,0,0,0,0,0,0,-1,1161,1135,0,0
-56,-111,0,0,0,0,0,0,0,0,0,-1,1168,1135,0,0
-49,-111,0,0,0,0,0,0,0,0,0,-1,1175,1135,0,0
-42,-111,0,0,0,0,0,0,0,0,0,-1,1182,1135,0,0
-35,-111,0,0,0,0,0,0,0,0,0,-1,1189,1135,0,0
-28,-111,0,0,0,0,0,0,0,0,0,-1,1196,1135,0,0
-21,-111,0,0,0,0,0,0,0,0,0,-1,1203,1135,0,0
-14,-111,0,0,0,0,0,0,0,0,0,-1,1210,1135,0,0
-7,-111,0,0,0,0,0,0,0,0,0,-1,1217,1135,0,0
0,-111,0,0,0,0,0,0,0,0,0,-1,1224,1135,0,0
7,-111,0,0,0,0,0,0,0,0,0,-1,1231,1135,0,0
14,-111,0,0,0,0,0,0,0,0,0,-1,1238,1135,0,0
21,-111,0,0,0,0,0,0,0,0,0,-1,1245,1135,0,0
28,-111,0,0,0,0,0,0,0,0,0,-1,1252,1135,0,0
35,-111,0,0,0,0,0,0,0,0,0,-1,1259,1135,0,0
42,-111,0,0,0,0,0,0,0,0,0,-1,1266,1135,0,0
49,-111,0,0,0,0,0,0,0,0,0,-1,1273,1135,0,0
56,-111,0,0,0,0,0,0,0,0,0,-1,1280,1135,0,0
63,-111,0,0,0,0,0,0,0,0,0,-1,1287,1135,0,0
70,-111,0,0,0,0,0,0,0,0,0,-1,1294,1135,0,0
77,-111,0,0,0,0,0,0,0,0,0,-1,1301,1135,0,0
84,-111,0,0,0,0,0,0,0,0,0,-1,1308,1135,0,0
91,-111,0,0,0,0,0,0,0,0,0,-1,1315,1135,0,0
98,-111,0,0,0,0,0,0,0,0,0,-1,1322,1135,0,0
105,-111,0,0,0,0,0,0,0,0,0,-1,1329,1135,0,0
112,-111,0,0,0,0,0,0,0,0,0,-1,1336,1135,0,0
119,-111,0,0,0,0,0,0,0,0,0,-1,1343,1135,0,0
126,-111,0,0,0,0,0,0,0,0,0,-1,1350,1135,0,0
133,-111,0,0,0,0,0,0,0,0,0,-1,1357,1135,0,0
140,-111,0,0,0,0,0,0,0,0,0,-1,1364,1135,0,0
147,-111,0,0,0,0,0,0,0,0,0,-1,1371,1135,0,0
154,-111,0,0,0,0,0,0,0,0,0,-1,1378,1135,0,0
161,-111,0,0,0,0,0,0,0,0,0,-1,1385,1135,0,0
168,-111,0,0,0,0,0,0,0,0,0,-1,1392,1135,0,0
175,-111,0,0,0,0,0,0,0,0,0,-1,1399,1135,0,0
182,-111,0,0,0,0,0,0,0,0,0,-1,1406,1135,0,0
189,-111,0,0,0,0,0,0,0,0,0,-1,1413,1135,0,0
196,-111,0,0,0,0,0,0,0,0,0,-1,1420,1135,0,0
203,-111,0,0,0,0,0,0,0,0,0,-1,1427,1135,0,0
210,-111,0,0,0,0,0,0,0,0,0,-1,1434,1135,0,0
217,-111,0,0,0,0,0,0,0,0,0,-1,1441,1135,0,0
224,-111,0,0,0,0,0,0,0,0,0,-1,1448,1135,0,0
231,-111,0,0,0,0,0,0,0,0,0,-1,1455,1135,0,0
238,-111,0,0,0,0,0,0,0,0,0,-1,1462,1135,0,0
245,-111,0,0,0,0,0,0,0,0,0,-1,1469,1135,0,0
252,-111,0,0,0,0,0,0,0,0,0,-1,1476,1135,0,0
259,-111,0,0,0,0,0,0,0,0,0,-1,1483,1135,0,0
266,-111,0,0,0,0,0,0,0,0,0,-1,1490,1135,0,0
273,-111,0,0,0,0,0,0,0,0,0,-1,1497,1135,0,0
280,-111,0,0,0,0,0,0,0,0,0,-1,1504,1135,0,0
287,-111,0,0,0,0,0,0,0,0,0,-1,1511,1135,0,0
294,-111,0,0,0,0,0,0,0,0,0,-1,1518,1135,0,0
301,-111,0,0,0,0,0,0,0,0,0,-1,1525,1135,0,0
308,-111,0,0,0,0,0,0,0,0,0,-1,1532,1135,0,0
315,-111,0,0,0,0,0,0,0,0,0,-1,1539,1135,0,0
322,-111,0,0,0,0,0,0,0,0,0,-1,1546,1135,0,0
329,-111,0,0,0,0,0,0,0,0,0,-1,1553,1135,0,0
336,-111,0,0,0,0,0,0,0,0,0,-1,1560,1135,0,0
343,-111,0,0,0,0,0,0,0,0,0,-1,1567,1135,0,0
350,-111,0,0,0,0,0,0,0,0,0,-1,1574,1135,0,0
357,-111,0,0,0,0,0,0,0,0,0,-1,1581,1135,0,0
364,-111,0,0,0,0,0,0,0,0,0,-1,1588,1135,0,0
371,-111,0,0,0,0,0,0,0,0,0,-1,1595,1135,0,0
378,-111,0,0,0,0,0,0,0,0,0,-1,1602,1135,0,0
385,-111,0,0,0,0,0,0,0,0,0,-1,1609,1135,0,0
392,-111,0,0,0,0,0,0,0,0,0,-1,1616,1135,0,0
399,-111,0,0,0,0,0,0,0,0,0,-1,1623,1135,0,0
406,-111,0,0,0,0,0,0,0,0,0,-1,1630,1135,0,0
413,-111,0,0,0,0,0,0,0,0,0,-1,1637,1135,0,0
420,-111,0,0,0,0,0,0,0,0,0,-1,1644,1135,0,0
427,-111,0,0,0,0,0,0,0,0,0,-1,1651,1135,0,0
434,-111,0,0,0,0,0,0,0,0,0,-1,1658,1135,0,0
441,-111,0,0,0,0,0,0,0,0,0,-1,1665,1135,0,0
448,-111,0,0,0,0,0,0,0,0,0,-1,1672,1135,0,0
455,-111,0,0,0,0,0,0,0,0,0,-1,1679,1135,0,0
462,-111,0,0,0,0,0,0,0,0,0,-1,1686,1135,0,0
469,-111,0,0,0,0,0,0,0,0,0,-1,1693,1135,0,0
476,-111,0,0,0,0,0,0,0,0,0,-1,1700,1135,0,0
483,-111,0,0,0,0,0,0,0,0,0,-1,1707,1135,0,0
490,-111,0,0,0,0,0,0,0,0,0,-1,1714,1135,0,0
497,-111,0,0,0,0,0,0,0,0,0,-1,1721,1135,0,0
504,-111,0,0,0,0,0,0,0,0,0,-1,1728,1135,0,0
511,-111,0,0,0,0,0,0,0,0,0,-1,1735,1135,0,0
518,-111,0,0,0,0,0,0,0,0,0,-1,1742,1135,0,0
525,-111,0,0,0,0,0,0,0,0,0,-1,1749,1135,0,0
532,-111,0,0,0,0,0,0,0,0,0,-1,1756,1135,0,0
539,-111,0,0,0,0,0,0,0,0,0,-1,1763,1135,0,0
546,-111,0,0,0,0,0,0,0,0,0,-1,1770,1135,0,0
553,-111,0,0,0,0,0,0,0,0,0,-1,1777,1135,0,0
560,-111,0,0,0,0,0,0,0,0,0,-1,1784,1135,0,0
567,-111,0,0,0,0,0,0,0,0,0,-1,1791,1135,0,0
574,-111,0,0,0,0,0,0,0,0,0,-1,1798,1135,0,0
581,-111,0,0,0,0,0,0,0,0,0,-1,1805,1135,0,0
588,-111,0,0,0,0,0,0,0,0,0,-1,1812,1135,0,0
595,-111,0,0,0,0,0,0,0,0,0,-1,1819,1135,0,0
602,-111,0,0,0,0,0,0,0,0,0,-1,1826,1135,0,0
609,-111,0,0,0,0,0,0,0,0,0,-1,1833,1135,0,0
616,-111,0,0,0,0,0,0,0,0,0,-1,1840,1135,0,0
623,-111,0,0,0,0,0,0,0,0,0,-1,1847,1135,0,0
630,-111,0,0,0,0,0,0,0,0,0,-1,1854,1135,0,0
637,-111,0,0,0,0,0,0,0,0,0,-1,1861,1135,0,0
644,-111,81.9014,2.60815,0.00368706,-0.00163925,-0.00409722,0.00591058,-0.00386277,-0.497213,0.00568378,0.035799,1868,1135,81.9013,-2.60817
651,-111,81.9882,2.62512,0.00248542,-0.00136587,-0.00330205,0.00438229,-0.00326275,-0.521424,0.00442961,0.0376966,1875,1135,81.9881,-2.6251
658,-111,82.1688,2.33496,0.00171542,-0.00118828,-0.0026755,0.00330761,-0.00278047,-0.536808,0.00351935,0.0436979,1882,1135,82.1688,-2.3349
665,-111,82.3274,1.86951,0.00109453,-0.00101005,-0.00213741,0.00242465,-0.00234016,-0.556656,0.00275111,0.0458843,1889,1135,82.3274,-1.8695
672,-111,82.2083,1.91211,0.000590093,-0.000820543,-0.00168795,0.00171416,-0.00194461,-0.587497,0.00211379,0.0444368,1896,1135,82.2083,-1.91208
679,-111,82.0088,2.19006,0.000383699,-0.0009785,-0.00119459,0.00107771,-0.00167252,-0.526306,0.00160018,0.0402664,1903,1135,82.0088,-2.1901
686,-111,81.9991,2.31042,0.000506833,-0.000909871,-0.000928636,0.00096644,-0.00136948,-0.459581,0.00135532,0.0370648,1910,1135,81.9991,-2.3104
693,-111,82.0414,2.34229,0.000683548,-0.000960217,-0.000639785,0.00090321,-0.00117988,-0.330727,0.0012062,0.0345539,1917,1135,82.0414,-2.34227
700,-111,82.1198,2.28113,0.000870966,-0.000937875,-0.000316411,0.000924717,-0.000991626,-0.16827,0.00110663,0.0252154,1924,1135,82.1198,-2.2811
707,-111,82.1064,2.27161,0,0,0,0,0,0,0,-1,1931,1135,82.1064,-2.27166
714,-111,45.1654,7.39746,0,0,0,0,0,0,0,-1,1938,1135,45.1654,-7.39745
721,-111,75.2588,10.7753,0,0,0,0,0,0,0,-1,1945,1135,75.2588,-10.7753
728,-111,75.261,9.98804,9.56701e-06,0.000639459,0.00132785,0.00168921,-0.00104018,0.901839,0.00159059,0.034992,1952,1135,75.261,-9.98803
735,-111,75.299,9.33203,0.000269137,0.00104122,0.00140634,0.00211354,-0.000803189,0.919348,0.0017397,0.0335189,1959,1135,75.2989,-9.33199
742,-111,75.1718,8.69641,0.000380162,0.00149848,0.00180373,0.00282773,-0.000949093,0.935701,0.00226869,0.0222966,1966,1135,75.1717,-8.69641
749,-111,75.0513,7.98132,0.000330704,0.00289143,0.00211117,0.00408015,-0.000858013,1.05798,0.00304664,0.0224817,1973,1135,75.0513,-7.98131
756,-111,75.0227,7.30103,0.000619284,0.00589923,0.00151493,0.00630302,0.000215496,1.31031,0.00413205,0.0180453,1980,1135,75.0226,-7.30104
763,-111,74.9739,6.68506,0.00209282,0.0108196,-0.000161312,0.0108226,0.00208984,-1.55232,0.00662918,0.0169844,1987,1135,74.9739,-6.68504
770,-111,74.9182,6.04578,0.00481188,0.0179688,-0.00311347,0.0186684,0.00411231,-1.34977,0.0113265,0.0154808,1994,1135,74.9182,-6.04581
777,-111,74.6736,5.33228,0.0087015,0.0274286,-0.00739953,0.0299994,0.00613068,-1.23641,0.0183016,0.0303704,2001,1135,74.6737,-5.3323
784,-111,74.8037,4.76501,0.014104,0.0400927,-0.0135061,0.0458405,0.00835625,-1.16844,0.0281908,0.0460149,2008,1135,74.8037,-4.76496
791,-111,75.2324,4.14307,0,0,0,0,0,0,0,-1,2015,1135,75.2324,-4.14305
798,-111,75.2485,2.12549,0.0317356,0.0836331,-0.0358507,0.101941,0.0134281,-1.09866,0.063956,0.0454868,2022,1135,75.2485,-2.12546
805,-111,75.521,0.70752,0.0451523,0.119347,-0.0544191,0.14811,0.0163887,-1.08457,0.0937559,0.0471771,2029,1135,75.521,-0.707484
812,-111,75.7627,-0.665771,0,0,0,0,0,0,0,-1,2036,1135,75.7627,0.665734
-700,-118,0,0,0,0,0,0,0,0,0,-1,524,1142,0,0
-693,-118,-69.2759,-5.2428,0.198502,0.092665,0.0894159,0.249485,0.0416817,0.518206,0.154317,0.04756,531,1142,-69.2759,5.24274
-686,-118,-68.2574,-5.07556,0.177361,0.0864002,0.0849071,0.228201,0.0355598,0.539519,0.141775,0.0499495,538,1142,-68.2574,5.07561
-679,-118,-67.4449,-4.46802,0.151886,0.0764408,0.0751939,0.198289,0.0300378,0.552906,0.123405,0.0464158,545,1142,-67.4449,4.46806
-672,-118,-67.1836,-3.6864,0,0,0,0,0,0,0,-1,552,1142,-67.1836,3.68637
-665,-118,-64.8722,-1.55542,0,0,0,0,0,0,0,-1,559,1142,-64.8722,1.55544
-658,-118,-55.0958,-1.94812,0,0,0,0,0,0,0,-1,566,1142,-55.0958,1.94813
-651,-118,-57.627,4.09485,0,0,0,0,0,0,0,-1,573,1142,-57.627,-4.09486
-644,-118,-57.8777,4.92554,0.0362499,0.0264321,0.0206632,0.0525793,0.0101027,0.668777,0.0322177,0.0397207,580,1142,-57.8777,-4.92557
-637,-118,-58.0556,5.73022,0.0181716,0.0179179,0.0114658,0.0295113,0.00657827,0.779868,0.0178892,0.0216432,587,1142,-58.0556,-5.7302
-630,-118,-58.1277,6.3905,0.00257474,0.0104977,0.00330653,0.0116963,0.00137614,1.22303,0.00738171,0.0317272,594,1142,-58.1277,-6.39056
-623,-118,-58.0871,7.12073,-0.00762311,0.00402149,-0.00272015,0.00462557,-0.0082272,-1.35227,0.00751704,0.0258357,601,1142,-58.0871,-7.12078
-616,-118,-58.2678,7.79822,-0.00975343,0.00162472,-0.00441621,0.00313762,-0.0112663,-1.24075,0.00874641,0.0421307,608,1142,-58.2678,-7.79826
-609,-118,-58.6033,8.30103,-0.00851922,0.00116907,-0.00490385,0.00321793,-0.0105681,-1.17503,0.00832791,0.0470386,615,1142,-58.6033,-8.30108
-602,-118,-58.3101,9.203,0,0,0,0,0,0,0,-1,622,1142,-58.3101,-9.20294
-595,-118,-58.4903,9.84216,0,0,0,0,0,0,0,-1,629,1142,-58.4903,-9.84213
-588,-118,-57.8294,10.9458,0,0,0,0,0,0,0,-1,636,1142,-57.8294,-10.9458
-581,-118,-24.6116,3.89648,0,0,0,0,0,0,0,-1,643,1142,-24.6116,-3.89645
-574,-118,-65.0461,0.417969,0,0,0,0,0,0,0,-1,650,1142,-65.0461,-0.417942
-567,-118,-65.017,0.357422,-0.00247983,2.71396e-05,-0.00465441,0.0035939,-0.00604659,-0.916933,0.00562566,0.0435353,657,1142,-65.017,-0.357386
-560,-118,-64.944,0.247559,-0.000266211,-0.000156782,-0.00460062,0.00438945,-0.00481244,-0.791344,0.00531459,0.0375539,664,1142,-64.944,-0.247505
-553,-118,-64.8564,0.328857,0.000711747,0.000327815,-0.0033211,0.00384642,-0.00280686,-0.756529,0.00385687,0.0399869,671,1142,-64.8564,-0.328872
-546,-118,-64.866,0.406616,-0.000525996,0.00167132,-0.000561251,0.00180638,-0.000661053,-1.33465,0.00147484,0.0403752,678,1142,-64.866,-0.406626
-539,-118,-64.9934,0.65564,-0.002319,0.00282935,0.00315605,0.00432789,-0.00381754,1.1275,0.00470584,0.038791,685,1142,-64.9934,-0.655591
-532,-118,-65.1845,0.820557,-0.00439012,0.00394814,0.00708839,0.00800257,-0.00844454,1.05123,0.00949689,0.0404844,692,1142,-65.1845,-0.820519
-525,-118,-65.2374,0.843994,-0.00659748,0.00518997,0.0109437,0.0117261,-0.0131336,1.0324,0.0143604,0.0448415,699,1142,-65.2375,-0.844016
-518,-118,0,0,0,0,0,0,0,0,0,-1,706,1142,0,0
-511,-118,0,0,0,0,0,0,0,0,0,-1,713,1142,0,0
-504,-118,0,0,0,0,0,0,0,0,0,-1,720,1142,0,0
-497,-118,0,0,0,0,0,0,0,0,0,-1,727,1142,0,0
-490,-118,0,0,0,0,0,0,0,0,0,-1,734,1142,0,0
-483,-118,0,0,0,0,0,0,0,0,0,-1,741,1142,0,0
-476,-118,0,0,0,0,0,0,0,0,0,-1,748,1142,0,0
-469,-118,0,0,0,0,0,0,0,0,0,-1,755,1142,0,0
-462,-118,0,0,0,0,0,0,0,0,0,-1,762,1142,0,0
-455,-118,0,0,0,0,0,0,0,0,0,-1,769,1142,0,0
-448,-118,0,0,0,0,0,0,0,0,0,-1,776,1142,0,0
-441,-118,0,0,0,0,0,0,0,0,0,-1,783,1142,0,0
-434,-118,0,0,0,0,0,0,0,0,0,-1,790,1142,0,0
-427,-118,0,0,0,0,0,0,0,0,0,-1,797,1142,0,0
-420,-118,0,0,0,0,0,0,0,0,0,-1,804,1142,0,0
-413,-118,0,0,0,0,0,0,0,0,0,-1,811,1142,0,0
-406,-118,0,0,0,0,0,0,0,0,0,-1,818,1142,0,0
-399,-118,0,0,0,0,0,0,0,0,0,-1,825,1142,0,0
-392,-118,0,0,0,0,0,0,0,0,0,-1,832,1142,0,0
-385,-118,0,0,0,0,0,0,0,0,0,-1,839,1142,0,0
-378,-118,0,0,0,0,0,0,0,0,0,-1,846,1142,0,0
-371,-118,0,0,0,0,0,0,0,0,0,-1,853,1142,0,0
-364,-118,0,0,0,0,0,0,0,0,0,-1,860,1142,0,0
-357,-118,0,0,0,0,0,0,0,0,0,-1,867,1142,0,0
-350,-118,0,0,0,0,0,0,0,0,0,-1,874,1142,0,0
-343,-118,0,0,0,0,0,0,0,0,0,-1,881,1142,0,0
-336,-118,0,0,0,0,0,0,0,0,0,-1,888,1142,0,0
-329,-118,0,0,0,0,0,0,0,0,0,-1,895,1142,0,0
-322,-118,0,0,0,0,0,0,0,0,0,-1,902,1142,0,0
-315,-118,0,0,0,0,0,0,0,0,0,-1,909,1142,0,0
-308,-118,0,0,0,0,0,0,0,0,0,-1,916,1142,0,0
-301,-118,0,0,0,0,0,0,0,0,0,-1,923,1142,0,0
-294,-118,0,0,0,0,0,0,0,0,0,-1,930,1142,0,0
-287,-118,0,0,0,0,0,0,0,0,0,-1,937,1142,0,0
-280,-118,0,0,0,0,0,0,0,0,0,-1,944,1142,0,0
-273,-118,0,0,0,0,0,0,0,0,0,-1,951,1142,0,0
-266,-118,0,0,0,0,0,0,0,0,0,-1,958,1142,0,0
-259,-118,0,0,0,0,0,0,0,0,0,-1,965,1142,0,0
-252,-118,0,0,0,0,0,0,0,0,0,-1,972,1142,0,0
-245,-118,0,0,0,0,0,0,0,0,0,-1,979,1142,0,0
-238,-118,0,0,0,0,0,0,0,0,0,-1,986,1142,0,0
-231,-118,0,0,0,0,0,0,0,0,0,-1,993,1142,0,0
-224,-118,0,0,0,0,0,0,0,0,0,-1,1000,1142,0,0
-217,-118,0,0,0,0,0,0,0,0,0,-1,1007,1142,0,0
-210,-118,0,0,0,0,0,0,0,0,0,-1,1014,1142,0,0
-203,-118,0,0,0,0,0,0,0,0,0,-1,1021,1142,0,0
-196,-118,0,0,0,0,0,0,0,0,0,-1,1028,1142,0,0
-189,-118,0,0,0,0,0,0,0,0,0,-1,1035,1142,0,0
-182,-118,0,0,0,0,0,0,0,0,0,-1,1042,1142,0,0
-175,-118,0,0,0,0,0,0,0,0,0,-1,1049,1142,0,0
-168,-118,0,0,0,0,0,0,0,0,0,-1,1056,1142,0,0
-161,-118,0,0,0,0,0,0,0,0,0,-1,1063,1142,0,0
-154,-118,0,0,0,0,0,0,0,0,0,-1,1070,1142,0,0
-147,-118,0,0,0,0,0,0,0,0,0,-1,1077,1142,0,0
-140,-118,0,0,0,0,0,0,0,0,0,-1,1084,1142,0,0
-133,-118,0,0,0,0,0,0,0,0,0,-1,1091,1142,0,0
-126,-118,0,0,0,0,0,0,0,0,0,-1,1098,1142,0,0
-119,-118,0,0,0,0,0,0,0,0,0,-1,1105,1142,0,0
-112,-118,0,0,0,0,0,0,0,0,0,-1,1112,1142,0,0
-105,-118,0,0,0,0,0,0,0,0,0,-1,1119,1142,0,0
-98,-118,0,0,0,0,0,0,0,0,0,-1,1126,1142,0,0
-91,-118,0,0,0,0,0,0,0,0,0,-1,1133,1142,0,0
-84,-118,0,0,0,0,0,0,0,0,0,-1,1140,1142,0,0
-77,-118,0,0,0,0,0,0,0,0,0,-1,1147,1142,0,0
-70,-118,0,0,0,0,0,0,0,0,0,-1,1154,1142,0,0
-63,-118,0,0,0,0,0,0,0,0,0,-1,1161,1142,0,0
-56,-118,0,0,0,0,0,0,0,0,0,-1,1168,1142,0,0
-49,-118,0,0,0,0,0,0,0,0,0,-1,1175,1142,0,0
-42,-118,0,0,0,0,0,0,0,0,0,-1,1182,1142,0,0
-35,-118,0,0,0,0,0,0,0,0,0,-1,1189,1142,0,0
-28,-118,0,0,0,0,0,0,0,0,0,-1,1196,1142,0,0
-21,-118,0,0,0,0,0,0,0,0,0,-1,1203,1142,0,0
-14,-118,0,0,0,0,0,0,0,0,0,-1,1210,1142,0,0
-7,-118,0,0,0,0,0,0,0,0,0,-1,1217,1142,0,0
0,-118,0,0,0,0,0,0,0,0,0,-1,1224,1142,0,0
7,-118,0,0,0,0,0,0,0,0,0,-1,1231,1142,0,0
14,-118,0,0,0,0,0,0,0,0,0,-1,1238,1142,0,0
21,-118,0,0,0,0,0,0,0,0,0,-1,1245,1142,0,0
28,-118,0,0,0,0,0,0,0,0,0,-1,1252,1142,0,0
35,-118,0,0,0,0,0,0,0,0,0,-1,1259,1142,0,0
42,-118,0,0,0,0,0,0,0,0,0,-1,1266,1142,0,0
49,-118,0,0,0,0,0,0,0,0,0,-1,1273,1142,0,0
56,-118,0,0,0,0,0,0,0,0,0,-1,1280,1142,0,0
63,-118,0,0,0,0,0,0,0,0,0,-1,1287,1142,0,0
70,-118,0,0,0,0,0,0,0,0,0,-1,1294,1142,0,0
77,-118,0,0,0,0,0,0,0,0,0,-1,1301,1142,0,0
84,-118,0,0,0,0,0,0,0,0,0,-1,1308,1142,0,0
91,-118,0,0,0,0,0,0,0,0,0,-1,1315,1142,0,0
98,-118,0,0,0,0,0,0,0,0,0,-1,1322,1142,0,0
105,-118,0,0,0,0,0,0,0,0,0,-1,1329,1142,0,0
112,-118,0,0,0,0,0,0,0,0,0,-1,1336,1142,0,0
119,-118,0,0,0,0,0,0,0,0,0,-1,1343,1142,0,0
126,-118,0,0,0,0,0,0,0,0,0,-1,1350,1142,0,0
133,-118,0,0,0,0,0,0,0,0,0,-1,1357,1142,0,0
140,-118,0,0,0,0,0,0,0,0,0,-1,1364,1142,0,0
147,-118,0,0,0,0,0,0,0,0,0,-1,1371,1142,0,0
154,-118,0,0,0,0,0,0,0,0,0,-1,1378,1142,0,0
161,-118,0,0,0,0,0,0,0,0,0,-1,1385,1142,0,0
168,-118,0,0,0,0,0,0,0,0,0,-1,1392,1142,0,0
175,-118,0,0,0,0,0,0,0,0,0,-1,1399,1142,0,0
182,-118,0,0,0,0,0,0,0,0,0,-1,1406,1142,0,0
189,-118,0,0,0,0,0,0,0,0,0,-1,1413,1142,0,0
196,-118,0,0,0,0,0,0,0,0,0,-1,1420,1142,0,0
203,-118,0,0,0,0,0,0,0,0,0,-1,1427,1142,0,0
210,-118,0,0,0,0,0,0,0,0,0,-1,1434,1142,0,0
217,-118,0,0,0,0,0,0,0,0,0,-1,1441,1142,0,0
224,-118,0,0,0,0,0,0,0,0,0,-1,1448,1142,0,0
231,-118,0,0,0,0,0,0,0,0,0,-1,1455,1142,0,0
238,-118,0,0,0,0,0,0,0,0,0,-1,1462,1142,0,0
245,-118,0,0,0,0,0,0,0,0,0,-1,1469,1142,0,0
252,-118,0,0,0,0,0,0,0,0,0,-1,1476,1142,0,0
259,-118,0,0,0,0,0,0,0,0,0,-1,1483,1142,0,0
266,-118,0,0,0,0,0,0,0,0,0,-1,1490,1142,0,0
273,-118,0,0,0,0,0,0,0,0,0,-1,1497,1142,0,0
280,-118,0,0,0,0,0,0,0,0,0,-1,1504,1142,0,0
287,-118,0,0,0,0,0,0,0,0,0,-1,1511,1142,0,0
294,-118,0,0,0,0,0,0,0,0,0,-1,1518,1142,0,0
301,-118,0,0,0,0,0,0,0,0,0,-1,1525,1142,0,0
308,-118,0,0,0,0,0,0,0,0,0,-1,1532,1142,0,0
315,-118,0,0,0,0,0,0,0,0,0,-1,1539,1142,0,0
322,-118,0,0,0,0,0,0,0,0,0,-1,1546,1142,0,0
329,-118,0,0,0,0,0,0,0,0,0,-1,1553,1142,0,0
336,-118,0,0,0,0,0,0,0,0,0,-1,1560,1142,0,0
343,-118,0,0,0,0,0,0,0,0,0,-1,1567,1142,0,0
350,-118,0,0,0,0,0,0,0,0,0,-1,1574,1142,0,0
357,-118,0,0,0,0,0,0,0,0,0,-1,1581,1142,0,0
364,-118,0,0,0,0,0,0,0,0,0,-1,1588,1142,0,0
371,-118,0,0,0,0,0,0,0,0,0,-1,1595,1142,0,0
378,-118,0,0,0,0,0,0,0,0,0,-1,1602,1142,0,0
385,-118,0,0,0,0,0,0,0,0,0,-1,1609,1142,0,0
392,-118,0,0,0,0,0,0,0,0,0,-1,1616,1142,0,0
399,-118,0,0,0,0,0,0,0,0,0,-1,1623,1142,0,0
406,-118,0,0,0,0,0,0,0,0,0,-1,1630,1142,0,0
413,-118,0,0,0,0,0,0,0,0,0,-1,1637,1142,0,0
420,-118,0,0,0,0,0,0,0,0,0,-1,1644,1142,0,0
427,-118,0,0,0,0,0,0,0,0,0,-1,1651,1142,0,0
434,-118,0,0,0,0,0,0,0,0,0,-1,1658,1142,0,0
441,-118,0,0,0,0,0,0,0,0,0,-1,1665,1142,0,0
448,-118,0,0,0,0,0,0,0,0,0,-1,1672,1142,0,0
455,-118,0,0,0,0,0,0,0,0,0,-1,1679,1142,0,0
462,-118,0,0,0,0,0,0,0,0,0,-1,1686,1142,0,0
469,-118,0,0,0,0,0,0,0,0,0,-1,1693,1142,0,0
476,-118,0,0,0,0,0,0,0,0,0,-1,1700,1142,0,0
483,-118,0,0,0,0,0,0,0,0,0,-1,1707,1142,0,0
490,-118,0,0,0,0,0,0,0,0,0,-1,1714,1142,0,0
497,-118,0,0,0,0,0,0,0,0,0,-1,1721,1142,0,0
504,-118,0,0,0,0,0,0,0,0,0,-1,1728,1142,0,0
511,-118,0,0,0,0,0,0,0,0,0,-1,1735,1142,0,0
518,-118,0,0,0,0,0,0,0,0,0,-1,1742,1142,0,0
525,-118,0,0,0,0,0,0,0,0,0,-1,1749,1142,0,0
532,-118,0,0,0,0,0,0,0,0,0,-1,1756,1142,0,0
539,-118,0,0,0,0,0,0,0,0,0,-1,1763,1142,0,0
546,-118,0,0,0,0,0,0,0,0,0,-1,1770,1142,0,0
553,-118,0,0,0,0,0,0,0,0,0,-1,1777,1142,0,0
560,-118,0,0,0,0,0,0,0,0,0,-1,1784,1142,0,0
567,-118,0,0,0,0,0,0,0,0,0,-1,1791,1142,0,0
574,-118,0,0,0,0,0,0,0,0,0,-1,1798,1142,0,0
581,-118,0,0,0,0,0,0,0,0,0,-1,1805,1142,0,0
588,-118,0,0,0,0,0,0,0,0,0,-1,1812,1142,0,0
595,-118,0,0,0,0,0,0,0,0,0,-1,1819,1142,0,0
602,-118,0,0,0,0,0,0,0,0,0,-1,1826,1142,0,0
609,-118,0,0,0,0,0,0,0,0,0,-1,1833,1142,0,0
616,-118,0,0,0,0,0,0,0,0,0,-1,1840,1142,0,0
623,-118,0,0,0,0,0,0,0,0,0,-1,1847,1142,0,0
630,-118,0,0,0,0,0,0,0,0,0,-1,1854,1142,0,0
637,-118,0,0,0,0,0,0,0,0,0,-1,1861,1142,0,0
644,-118,81.8359,2.80615,0.00318273,-0.000748983,-0.00407336,0.0057398,-0.00330606,-0.560578,0.00528526,0.0413077,1868,1142,81.8359,-2.80621
651,-118,81.9948,2.68396,0.00212982,-0.000705266,-0.00331018,0.00431321,-0.00288865,-0.583093,0.00418503,0.0415868,1875,1142,81.9947,-2.68394
658,-118,82.1261,2.44666,0,0,0,0,0,0,0,-1,1882,1142,82.1261,-2.44667
665,-118,82.1021,2.52319,0.000822461,-0.00055972,-0.00217714,0.00241556,-0.00215282,-0.631713,0.00263901,0.0459026,1889,1142,82.102,-2.52318
672,-118,82.2301,2.18982,0.000316229,-0.000405534,-0.00174995,0.00174212,-0.00183142,-0.683711,0.0020634,0.0494461,1896,1142,82.2301,-2.18983
679,-118,82.0801,2.44116,0.000144095,-0.000650343,-0.00126045,0.00106844,-0.00157469,-0.632754,0.00153531,0.0402908,1903,1142,82.08,-2.4412
686,-118,81.9966,2.36829,0.000392491,-0.000593543,-0.000980852,0.000997261,-0.00119831,-0.552519,0.00126939,0.0344043,1910,1142,81.9965,-2.36828
693,-118,81.9828,2.34045,0.00063658,-0.000681057,-0.000692666,0.000933705,-0.000978182,-0.405219,0.00110393,0.0325685,1917,1142,81.9828,-2.34051
700,-118,82.0717,2.30554,0.000864416,-0.000731023,-0.000369734,0.000945934,-0.000812542,-0.217007,0.00101623,0.0214376,1924,1142,82.0717,-2.30551
707,-118,82.1184,2.33423,0,0,0,0,0,0,0,-1,1931,1142,82.1184,-2.33423
714,-118,50.4819,8.53809,0,0,0,0,0,0,0,-1,1938,1142,50.4819,-8.53809
721,-118,74.6227,10.7958,0,0,0,0,0,0,0,-1,1945,1142,74.6227,-10.7957
728,-118,74.5424,10.0927,0.000203695,0.00053582,0.00130917,0.00168942,-0.000949905,0.848484,0.00154362,0.0245376,1952,1142,74.5424,-10.0926
735,-118,74.4955,9.45142,0.000570938,0.00076578,0.00146687,0.00213846,-0.000801745,0.818557,0.00175503,0.0249998,1959,1142,74.4955,-9.45139
742,-118,74.485,8.79578,0.000668894,0.00109016,0.00194485,0.00283575,-0.00107669,0.83934,0.00233371,0.0373214,1966,1142,74.485,-8.79574
749,-118,74.3119,8.10474,0.000525296,0.00230099,0.00234653,0.00392203,-0.00109574,0.966257,0.00304634,0.0276133,1973,1142,74.312,-8.10475
756,-118,74.3042,7.35144,0.000752062,0.00533426,0.00186028,0.00599439,9.19302e-05,1.2298,0.00396597,0.0205367,1980,1142,74.3043,-7.35145
763,-118,74.3193,6.66638,0.00216692,0.0103043,0.000345764,0.0103189,0.00215225,1.52841,0.00628592,0.0116098,1987,1142,74.3194,-6.66638
770,-118,74.1995,6.06433,0.00474985,0.0173526,-0.0023092,0.0177624,0.00434007,-1.39517,0.0106926,0.015322,1994,1142,74.1995,-6.06438
777,-118,73.9719,5.4386,0.00850639,0.0267463,-0.00625244,0.0286838,0.00656892,-1.27031,0.0173524,0.0340085,2001,1142,73.972,-5.43865
784,-118,74.0874,4.76636,0.0139094,0.0396106,-0.0120615,0.0443843,0.00913565,-1.19393,0.0270633,0.0479821,2008,1142,74.0874,-4.7664
791,-118,74.2861,4.1554,0,0,0,0,0,0,0,-1,2015,1142,74.2862,-4.15541
798,-118,75.178,0.342285,0,0,0,0,0,0,0,-1,2022,1142,75.1781,-0.342245
805,-118,75.2646,-0.769165,0,0,0,0,0,0,0,-1,2029,1142,75.2646,0.769222
812,-118,74.6331,-3.01611,0,0,0,0,0,0,0,-1,2036,1142,74.633,3.01615
-700,-125,0,0,0,0,0,0,0,0,0,-1,524,1149,0,0
-693,-125,-69.8268,-5.75146,0.201036,0.104249,0.0938838,0.258265,0.0470204,0.547428,0.15884,0.0481827,531,1149,-69.8268,5.75148
-686,-125,-68.8475,-5.47803,0.179811,0.0960741,0.088666,0.235997,0.0398884,0.564815,0.145865,0.0474488,538,1149,-68.8475,5.47808
-679,-125,-67.7697,-5.05603,0.153999,0.0840593,0.078264,0.20475,0.0333076,0.575297,0.126863,0.0450983,545,1149,-67.7698,5.05603
-672,-125,-66.7506,-4.63745,0.128389,0.0716524,0.0665216,0.172338,0.0277027,0.583849,0.106862,0.0476982,552,1149,-66.7506,4.6375
-665,-125,-65.6962,-4.198,0,0,0,0,0,0,0,-1,559,1149,-65.6962,4.19797
-658,-125,-60.2678,1.99365,0,0,0,0,0,0,0,-1,566,1149,-60.2678,-1.99367
-651,-125,-56.8069,4.20422,0,0,0,0,0,0,0,-1,573,1149,-56.8069,-4.20425
-644,-125,-57.152,4.9823,0.0357305,0.0273359,0.0209062,0.0528566,0.0102098,0.686331,0.0323756,0.0392381,580,1149,-57.152,-4.98229
-637,-125,-57.3343,5.71021,0.017255,0.0181716,0.0114046,0.0291272,0.0062995,0.80548,0.0176961,0.0164206,587,1149,-57.3343,-5.71019
-630,-125,-57.3409,6.42126,0.00136917,0.0101251,0.00293157,0.0110159,0.000478297,1.27577,0.00718984,0.0158879,594,1149,-57.341,-6.42122
-623,-125,-57.3394,7.15454,-0.0092477,0.00322097,-0.00343404,0.00410419,-0.0101309,-1.31906,0.0084606,0.0150449,601,1149,-57.3394,-7.1546
-616,-125,-57.4078,7.80505,-0.0109597,0.00106876,-0.00493598,0.00283494,-0.0127259,-1.22717,0.00956993,0.0394479,608,1149,-57.4078,-7.80508
-609,-125,-57.7048,8.36328,0,0,0,0,0,0,0,-1,615,1149,-57.7048,-8.36333
-602,-125,-58.7514,9.11047,0,0,0,0,0,0,0,-1,622,1149,-58.7514,-9.11048
-595,-125,-57.7827,10.0151,0,0,0,0,0,0,0,-1,629,1149,-57.7827,-10.0151
-588,-125,-56.8141,10.9197,0,0,0,0,0,0,0,-1,636,1149,-56.8141,-10.9197
-581,-125,-26.4055,4.83203,0,0,0,0,0,0,0,-1,643,1149,-26.4055,-4.83204
-574,-125,-37.674,0.655151,0,0,0,0,0,0,0,-1,650,1149,-37.674,-0.655195
-567,-125,-65.0402,0.377075,0,0,0,0,0,0,0,-1,657,1149,-65.0402,-0.377072
-560,-125,-65.1013,0.500977,-0.000173443,-0.000753743,-0.00548125,0.00502533,-0.00595252,-0.758955,0.00634559,0.038219,664,1149,-65.1012,-0.500976
-553,-125,-65.2305,0.622437,0.00132551,-0.000480328,-0.00449402,0.00500642,-0.00416123,-0.68626,0.00530044,0.0396581,671,1149,-65.2305,-0.62242
-546,-125,-65.1732,0.494507,-0.000119965,0.000980592,-0.00155698,0.00208167,-0.00122105,-0.955261,0.00192828,0.040231,678,1149,-65.1732,-0.494537
-539,-125,-64.9914,0.46936,-0.00212093,0.00229475,0.00222606,0.00322218,-0.00304836,1.17604,0.00362076,0.0390976,685,1149,-64.9914,-0.469346
-532,-125,-65.0142,0.576904,-0.00436234,0.00351913,0.0061766,0.00690504,-0.00774825,1.06935,0.00846475,0.0383139,692,1149,-65.0141,-0.576956
-525,-125,-65.0508,0.553955,-0.00664473,0.00482386,0.00995356,0.0105768,-0.0123976,1.04673,0.0132781,0.0426349,699,1149,-65.0508,-0.553901
-518,-125,0,0,0,0,0,0,0,0,0,-1,706,1149,0,0
-511,-125,0,0,0,0,0,0,0,0,0,-1,713,1149,0,0
-504,-125,0,0,0,0,0,0,0,0,0,-1,720,1149,0,0
-497,-125,0,0,0,0,0,0,0,0,0,-1,727,1149,0,0
-490,-125,0,0,0,0,0,0,0,0,0,-1,734,1149,0,0
-483,-125,0,0,0,0,0,0,0,0,0,-1,741,1149,0,0
-476,-125,0,0,0,0,0,0,0,0,0,-1,748,1149,0,0
-469,-125,0,0,0,0,0,0,0,0,0,-1,755,1149,0,0
-462,-125,0,0,0,0,0,0,0,0,0,-1,762,1149,0,0
-455,-125,0,0,0,0,0,0,0,0,0,-1,769,1149,0,0
-448,-125,0,0,0,0,0,0,0,0,0,-1,776,1149,0,0
-441,-125,0,0,0,0,0,0,0,0,0,-1,783,1149,0,0
-434,-125,0,0,0,0,0,0,0,0,0,-1,790,1149,0,0
-427,-125,0,0,0,0,0,0,0,0,0,-1,797,1149,0,0
-420,-125,0,0,0,0,0,0,0,0,0,-1,804,1149,0,0
-413,-125,0,0,0,0,0,0,0,0,0,-1,811,1149,0,0
-406,-125,0,0,0,0,0,0,0,0,0,-1,818,1149,0,0
-399,-125,0,0,0,0,0,0,0,0,0,-1,825,1149,0,0
-392,-125,0,0,0,0,0,0,0,0,0,-1,832,1149,0,0
-385,-125,0,0,0,0,0,0,0,0,0,-1,839,1149,0,0
-378,-125,0,0,0,0,0,0,0,0,0,-1,846,1149,0,0
-371,-125,0,0,0,0,0,0,0,0,0,-1,853,1149,0,0
-364,-125,0,0,0,0,0,0,0,0,0,-1,860,1149,0,0
-357,-125,0,0,0,0,0,0,0,0,0,-1,867,1149,0,0
-350,-125,0,0,0,0,0,0,0,0,0,-1,874,1149,0,0
-343,-125,0,0,0,0,0,0,0,0,0,-1,881,1149,0,0
-336,-125,0,0,0,0,0,0,0,0,0,-1,888,1149,0,0
-329,-125,0,0,0,0,0,0,0,0,0,-1,895,1149,0,0
-322,-125,0,0,0,0,0,0,0,0,0,-1,902,1149,0,0
-315,-125,0,0,0,0,0,0,0,0,0,-1,909,1149,0,0
-308,-125,0,0,0,0,0,0,0,0,0,-1,916,1149,0,0
-301,-125,0,0,0,0,0,0,0,0,0,-1,923,1149,0,0
-294,-125,0,0,0,0,0,0,0,0,0,-1,930,1149,0,0
-287,-125,0,0,0,0,0,0,0,0,0,-1,937,1149,0,0
-280,-125,0,0,0,0,0,0,0,0,0,-1,944,1149,0,0
-273,-125,0,0,0,0,0,0,0,0,0,-1,951,1149,0,0
-266,-125,0,0,0,0,0,0,0,0,0,-1,958,1149,0,0
-259,-125,0,0,0,0,0,0,0,0,0,-1,965,1149,0,0
-252,-125,0,0,0,0,0,0,0,0,0,-1,972,1149,0,0
-245,-125,0,0,0,0,0,0,0,0,0,-1,979,1149,0,0
-238,-125,0,0,0,0,0,0,0,0,0,-1,986,1149,0,0
-231,-125,0,0,0,0,0,0,0,0,0,-1,993,1149,0,0
-224,-125,0,0,0,0,0,0,0,0,0,-1,1000,1149,0,0
-217,-125,0,0,0,0,0,0,0,0,0,-1,1007,1149,0,0
-210,-125,0,0,0,0,0,0,0,0,0,-1,1014,1149,0,0
-203,-125,0,0,0,0,0,0,0,0,0,-1,1021,1149,0,0
-196,-125,0,0,0,0,0,0,0,0,0,-1,1028,1149,0,0
-189,-125,0,0,0,0,0,0,0,0,0,-1,1035,1149,0,0
-182,-125,0,0,0,0,0,0,0,0,0,-1,1042,1149,0,0
-175,-125,0,0,0,0,0,0,0,0,0,-1,1049,1149,0,0
-168,-125,0,0,0,0,0,0,0,0,0,-1,1056,1149,0,0
-161,-125,0,0,0,0,0,0,0,0,0,-1,1063,1149,0,0
-154,-125,0,0,0,0,0,0,0,0,0,-1,1070,1149,0,0
-147,-125,0,0,0,0,0,0,0,0,0,-1,1077,1149,0,0
-140,-125,0,0,0,0,0,0,0,0,0,-1,1084,1149,0,0
-133,-125,0,0,0,0,0,0,0,0,0,-1,1091,1149,0,0
-126,-125,0,0,0,0,0,0,0,0,0,-1,1098,1149,0,0
-119,-125,0,0,0,0,0,0,0,0,0,-1,1105,1149,0,0
-112,-125,0,0,0,0,0,0,0,0,0,-1,1112,1149,0,0
-105,-125,0,0,0,0,0,0,0,0,0,-1,1119,1149,0,0
-98,-125,0,0,0,0,0,0,0,0,0,-1,1126,1149,0,0
-91,-125,0,0,0,0,0,0,0,0,0,-1,1133,1149,0,0
-84,-125,0,0,0,0,0,0,0,0,0,-1,1140,1149,0,0
-77,-125,0,0,0,0,0,0,0,0,0,-1,1147,1149,0,0
-70,-125,0,0,0,0,0,0,0,0,0,-1,1154,1149,0,0
-63,-125,0,0,0,0,0,0,0,0,0,-1,1161,1149,0,0
-56,-125,0,0,0,0,0,0,0,0,0,-1,1168,1149,0,0
-49,-125,0,0,0,0,0,0,0,0,0,-1,1175,1149,0,0
-42,-125,0,0,0,0,0,0,0,0,0,-1,1182,1149,0,0
-35,-125,0,0,0,0,0,0,0,0,0,-1,1189,1149,0,0
-28,-125,0,0,0,0,0,0,0,0,0,-1,1196,1149,0,0
-21,-125,0,0,0,0,0,0,0,0,0,-1,1203,1149,0,0
-14,-125,0,0,0,0,0,0,0,0,0,-1,1210,1149,0,0
-7,-125,0,0,0,0,0,0,0,0,0,-1,1217,1149,0,0
0,-125,0,0,0,0,0,0,0,0,0,-1,1224,1149,0,0
7,-125,0,0,0,0,0,0,0,0,0,-1,1231,1149,0,0
14,-125,0,0,0,0,0,0,0,0,0,-1,1238,1149,0,0
21,-125,0,0,0,0,0,0,0,0,0,-1,1245,1149,0,0
28,-125,0,0,0,0,0,0,0,0,0,-1,1252,1149,0,0
35,-125,0,0,0,0,0,0,0,0,0,-1,1259,1149,0,0
42,-125,0,0,0,0,0,0,0,0,0,-1,1266,1149,0,0
49,-125,0,0,0,0,0,0,0,0,0,-1,1273,1149,0,0
56,-125,0,0,0,0,0,0,0,0,0,-1,1280,1149,0,0
63,-125,0,0,0,0,0,0,0,0,0,-1,1287,1149,0,0
70,-125,0,0,0,0,0,0,0,0,0,-1,1294,1149,0,0
77,-125,0,0,0,0,0,0,0,0,0,-1,1301,1149,0,0
84,-125,0,0,0,0,0,0,0,0,0,-1,1308,1149,0,0
91,-125,0,0,0,0,0,0,0,0,0,-1,1315,1149,0,0
98,-125,0,0,0,0,0,0,0,0,0,-1,1322,1149,0,0
105,-125,0,0,0,0,0,0,0,0,0,-1,1329,1149,0,0
112,-125,0,0,0,0,0,0,0,0,0,-1,1336,1149,0,0
119,-125,0,0,0,0,0,0,0,0,0,-1,1343,1149,0,0
126,-125,0,0,0,0,0,0,0,0,0,-1,1350,1149,0,0
133,-125,0,0,0,0,0,0,0,0,0,-1,1357,1149,0,0
140,-125,0,0,0,0,0,0,0,0,0,-1,1364,1149,0,0
147,-125,0,0,0,0,0,0,0,0,0,-1,1371,1149,0,0
154,-125,0,0,0,0,0,0,0,0,0,-1,1378,1149,0,0
161,-125,0,0,0,0,0,0,0,0,0,-1,1385,1149,0,0
168,-125,0,0,0,0,0,0,0,0,0,-1,1392,1149,0,0
175,-125,0,0,0,0,0,0,0,0,0,-1,1399,1149,0,0
182,-125,0,0,0,0,0,0,0,0,0,-1,1406,1149,0,0
189,-125,0,0,0,0,0,0,0,0,0,-1,1413,1149,0,0
196,-125,0,0,0,0,0,0,0,0,0,-1,1420,1149,0,0
203,-125,0,0,0,0,0,0,0,0,0,-1,1427,1149,0,0
210,-125,0,0,0,0,0,0,0,0,0,-1,1434,1149,0,0
217,-125,0,0,0,0,0,0,0,0,0,-1,1441,1149,0,0
224,-125,0,0,0,0,0,0,0,0,0,-1,1448,1149,0,0
231,-125,0,0,0,0,0,0,0,0,0,-1,1455,1149,0,0
238,-125,0,0,0,0,0,0,0,0,0,-1,1462,1149,0,0
245,-125,0,0,0,0,0,0,0,0,0,-1,1469,1149,0,0
252,-125,0,0,0,0,0,0,0,0,0,-1,1476,1149,0,0
259,-125,0,0,0,0,0,0,0,0,0,-1,1483,1149,0,0
266,-125,0,0,0,0,0,0,0,0,0,-1,1490,1149,0,0
273,-125,0,0,0,0,0,0,0,0,0,-1,1497,1149,0,0
280,-125,0,0,0,0,0,0,0,0,0,-1,1504,1149,0,0
287,-125,0,0,0,0,0,0,0,0,0,-1,1511,1149,0,0
294,-125,0,0,0,0,0,0,0,0,0,-1,1518,1149,0,0
301,-125,0,0,0,0,0,0,0,0,0,-1,1525,1149,0,0
308,-125,0,0,0,0,0,0,0,0,0,-1,1532,1149,0,0
315,-125,0,0,0,0,0,0,0,0,0,-1,1539,1149,0,0
322,-125,0,0,0,0,0,0,0,0,0,-1,1546,1149,0,0
329,-125,0,0,0,0,0,0,0,0,0,-1,1553,1149,0,0
336,-125,0,0,0,0,0,0,0,0,0,-1,1560,1149,0,0
343,-125,0,0,0,0,0,0,0,0,0,-1,1567,1149,0,0
350,-125,0,0,0,0,0,0,0,0,0,-1,1574,1149,0,0
357,-125,0,0,0,0,0,0,0,0,0,-1,1581,1149,0,0
364,-125,0,0,0,0,0,0,0,0,0,-1,1588,1149,0,0
371,-125,0,0,0,0,0,0,0,0,0,-1,1595,1149,0,0
378,-125,0,0,0,0,0,0,0,0,0,-1,1602,1149,0,0
385,-125,0,0,0,0,0,0,0,0,0,-1,1609,1149,0,0
392,-125,0,0,0,0,0,0,0,0,0,-1,1616,1149,0,0
399,-125,0,0,0,0,0,0,0,0,0,-1,1623,1149,0,0
406,-125,0,0,0,0,0,0,0,0,0,-1,1630,1149,0,0
413,-125,0,0,0,0,0,0,0,0,0,-1,1637,1149,0,0
420,-125,0,0,0,0,0,0,0,0,0,-1,1644,1149,0,0
427,-125,0,0,0,0,0,0,0,0,0,-1,1651,1149,0,0
434,-125,0,0,0,0,0,0,0,0,0,-1,1658,1149,0,0
441,-125,0,0,0,0,0,0,0,0,0,-1,1665,1149,0,0
448,-125,0,0,0,0,0,0,0,0,0,-1,1672,1149,0,0
455,-125,0,0,0,0,0,0,0,0,0,-1,1679,1149,0,0
462,-125,0,0,0,0,0,0,0,0,0,-1,1686,1149,0,0
469,-125,0,0,0,0,0,0,0,0,0,-1,1693,1149,0,0
476,-125,0,0,0,0,0,0,0,0,0,-1,1700,1149,0,0
483,-125,0,0,0,0,0,0,0,0,0,-1,1707,1149,0,0
490,-125,0,0,0,0,0,0,0,0,0,-1,1714,1149,0,0
497,-125,0,0,0,0,0,0,0,0,0,-1,1721,1149,0,0
504,-125,0,0,0,0,0,0,0,0,0,-1,1728,1149,0,0
511,-125,0,0,0,0,0,0,0,0,0,-1,1735,1149,0,0
518,-125,0,0,0,0,0,0,0,0,0,-1,1742,1149,0,0
525,-125,0,0,0,0,0,0,0,0,0,-1,1749,1149,0,0
532,-125,0,0,0,0,0,0,0,0,0,-1,1756,1149,0,0
539,-125,0,0,0,0,0,0,0,0,0,-1,1763,1149,0,0
546,-125,0,0,0,0,0,0,0,0,0,-1,1770,1149,0,0
553,-125,0,0,0,0,0,0,0,0,0,-1,1777,1149,0,0
560,-125,0,0,0,0,0,0,0,0,0,-1,1784,1149,0,0
567,-125,0,0,0,0,0,0,0,0,0,-1,1791,1149,0,0
574,-125,0,0,0,0,0,0,0,0,0,-1,1798,1149,0,0
581,-125,0,0,0,0,0,0,0,0,0,-1,1805,1149,0,0
588,-125,0,0,0,0,0,0,0,0,0,-1,1812,1149,0,0
595,-125,0,0,0,0,0,0,0,0,0,-1,1819,1149,0,0
602,-125,0,0,0,0,0,0,0,0,0,-1,1826,1149,0,0
609,-125,0,0,0,0,0,0,0,0,0,-1,1833,1149,0,0
616,-125,0,0,0,0,0,0,0,0,0,-1,1840,1149,0,0
623,-125,0,0,0,0,0,0,0,0,0,-1,1847,1149,0,0
630,-125,0,0,0,0,0,0,0,0,0,-1,1854,1149,0,0
637,-125,0,0,0,0,0,0,0,0,0,-1,1861,1149,0,0
644,-125,81.9709,2.76917,0.00211248,-2.82573e-05,-0.00373823,0.00493057,-0.00284634,-0.645964,0.00454343,0.0424789,1868,1149,81.9709,-2.76911
651,-125,82.0527,2.61914,0.00136085,-1.31832e-06,-0.00303809,0.00379326,-0.00243373,-0.67513,0.00362361,0.041549,1875,1149,82.0527,-2.61919
658,-125,82.1202,2.29065,0,0,0,0,0,0,0,-1,1882,1149,82.1203,-2.29063
665,-125,82.0171,2.61157,0,0,0,0,0,0,0,-1,1889,1149,82.0171,-2.61152
672,-125,82.137,2.78589,0,0,0,0,0,0,0,-1,1896,1149,82.1369,-2.78594
679,-125,82.1541,2.64355,-0.000117481,-3.55475e-05,-0.00121963,0.0011438,-0.00129683,-0.802187,0.00141002,0.04172,1903,1149,82.154,-2.64351
686,-125,82.0615,2.43164,0.000369459,4.9791e-05,-0.000993291,0.00121569,-0.000796443,-0.705625,0.00117008,0.0354083,1910,1149,82.0615,-2.43167
693,-125,81.9523,2.36072,0.00076715,-6.09188e-05,-0.000727361,0.00119006,-0.00048383,-0.526655,0.00099468,0.0296091,1917,1149,81.9522,-2.36071
700,-125,82.0293,2.30554,0.00105271,-0.000174193,-0.000422797,0.00118429,-0.000305779,-0.301724,0.000908767,0.0193357,1924,1149,82.0293,-2.30555
707,-125,82.0959,2.23169,0,0,0,0,0,0,0,-1,1931,1149,82.0959,-2.23164
714,-125,54.8745,9.21375,0,0,0,0,0,0,0,-1,1938,1149,54.8746,-9.21371
721,-125,73.7328,10.9296,0,0,0,0,0,0,0,-1,1945,1149,73.7328,-10.9296
728,-125,73.7223,10.2612,0.000609469,0.000699575,0.00117553,0.00183091,-0.00052187,0.804552,0.00142674,0.0214971,1952,1149,73.7223,-10.2612
735,-125,73.7516,9.61108,0.00107187,0.000746818,0.00141124,0.00232991,-0.000511225,0.728069,0.00174877,0.0242826,1959,1149,73.7516,-9.61106
742,-125,73.7263,8.92126,0.00115176,0.000952674,0.00195276,0.00300752,-0.000903082,0.759932,0.00236425,0.0360723,1966,1149,73.7263,-8.92131
749,-125,73.5515,8.23364,0.000847304,0.00194645,0.00246573,0.00392311,-0.00112936,0.895048,0.00306209,0.0279482,1973,1149,73.5515,-8.23367
756,-125,73.5972,7.39331,0.000861207,0.00491398,0.00212959,0.00582722,-5.2029e-05,1.16568,0.00390227,0.0244771,1980,1149,73.5971,-7.3933
763,-125,73.5637,6.69922,0.00196572,0.00972871,0.000863462,0.00982359,0.00187084,1.46135,0.00602309,0.0136836,1987,1149,73.5637,-6.69921
770,-125,73.4688,6.02002,0.00414033,0.0163905,-0.00140005,0.0165484,0.00398236,-1.45844,0.00997348,0.017512,1994,1149,73.4688,-6.02007
777,-125,73.3196,5.44897,0.00745831,0.0253089,-0.00487313,0.0265526,0.00621462,-1.32092,0.0160367,0.0366047,2001,1149,73.3195,-5.44892
784,-125,73.2439,4.71411,0,0,0,0,0,0,0,-1,2008,1149,73.244,-4.71417
791,-125,70.7432,3.79858,0,0,0,0,0,0,0,-1,2015,1149,70.7432,-3.79856
798,-125,74.937,-1.16589,0,0,0,0,0,0,0,-1,2022,1149,74.937,1.16583
805,-125,73.2634,-4.34607,0,0,0,0,0,0,0,-1,2029,1149,73.2634,4.34607
812,-125,73.3831,0.178101,0,0,0,0,0,0,0,-1,2036,1149,73.383,-0.17812
-700,-132,0,0,0,0,0,0,0,0,0,-1,524,1156,0,0
-693,-132,-70.7892,-6.67578,0,0,0,0,0,0,0,-1,531,1156,-70.7893,6.67581
-686,-132,-69.5804,-6.32935,0,0,0,0,0,0,0,-1,538,1156,-69.5804,6.32934
-679,-132,-68.4381,-5.93176,0.155946,0.0909151,0.0815339,0.211209,0.0356521,0.595665,0.130555,0.0469697,545,1156,-68.4381,5.9317
-672,-132,-67.4305,-5.4801,0.129767,0.0767143,0.0689931,0.177157,0.0293239,0.601871,0.109645,0.0433536,552,1156,-67.4305,5.48009
-665,-132,-66.1763,-4.45471,0.104263,0.0631728,0.0564107,0.143753,0.0236823,0.610761,0.0889981,0.0442543,559,1156,-66.1763,4.45477
-658,-132,-57.4368,3.38306,0,0,0,0,0,0,0,-1,566,1156,-57.4368,-3.38303
-651,-132,-56.9156,4.21423,0,0,0,0,0,0,0,-1,573,1156,-56.9156,-4.21422
-644,-132,-56.4817,4.98169,0.035544,0.0279368,0.0212692,0.0533471,0.0101338,0.696918,0.0327142,0.0329334,580,1156,-56.4817,-4.98166
-637,-132,-56.5806,5.69202,0.0168843,0.0182032,0.0114777,0.0290404,0.00604712,0.814094,0.0176925,0.0157728,587,1156,-56.5806,-5.69197
-630,-132,-56.5588,6.43042,0.00092759,0.00971104,0.00275729,0.0105049,0.00013377,1.29048,0.00695908,0.0107817,594,1156,-56.5589,-6.43047
-623,-132,-56.5926,7.1825,-0.00992265,0.00253649,-0.00388094,0.00364649,-0.0110326,-1.29222,0.00882538,0.0164932,601,1156,-56.5926,-7.18248
-616,-132,-56.7822,7.71008,-0.0113602,0.000523687,-0.00533046,0.00256426,-0.0134007,-1.20519,0.0098999,0.0489711,608,1156,-56.7822,-7.7101
-609,-132,-56.803,8.78076,0,0,0,0,0,0,0,-1,615,1156,-56.803,-8.78079
-602,-132,-51.2123,7.94373,0,0,0,0,0,0,0,-1,622,1156,-51.2123,-7.94373
-595,-132,-57.0472,10.2714,0,0,0,0,0,0,0,-1,629,1156,-57.0472,-10.2714
-588,-132,-42.6534,6.92969,0,0,0,0,0,0,0,-1,636,1156,-42.6535,-6.92967
-581,-132,-35.9343,6.42957,0,0,0,0,0,0,0,-1,643,1156,-35.9342,-6.42957
-574,-132,-33.2071,2.86963,0,0,0,0,0,0,0,-1,650,1156,-33.2071,-2.86963
-567,-132,-65.0569,0.48999,0,0,0,0,0,0,0,-1,657,1156,-65.0569,-0.489974
-560,-132,-65.1766,0.553955,0.000638174,-0.00127415,-0.00599071,0.00574854,-0.00638452,-0.706262,0.00700823,0.0369965,664,1156,-65.1766,-0.553954
-553,-132,-65.1412,0.199829,0.00266017,-0.00136792,-0.00546796,0.00647322,-0.00518097,-0.608941,0.00674232,0.0412002,671,1156,-65.1412,-0.199859
-546,-132,-65.02,0.0926514,0.000752886,8.02274e-05,-0.00256416,0.00300268,-0.00216957,-0.720188,0.00299908,0.0432488,678,1156,-65.02,-0.0926178
-539,-132,-64.9557,0.347778,-0.00171729,0.00156747,0.00120653,0.00196302,-0.00211283,1.254,0.00235372,0.0409007,685,1156,-64.9557,-0.347775
-532,-132,-64.8937,0.455688,-0.00433111,0.00296378,0.00504232,0.00553958,-0.00690691,1.09852,0.00720042,0.0396404,692,1156,-64.8937,-0.455635
-525,-132,-64.9994,0.691895,-0.00686298,0.00440199,0.00860006,0.00904988,-0.0115109,1.07532,0.0118991,0.0401735,699,1156,-64.9994,-0.691853
-518,-132,0,0,0,0,0,0,0,0,0,-1,706,1156,0,0
-511,-132,0,0,0,0,0,0,0,0,0,-1,713,1156,0,0
-504,-132,0,0,0,0,0,0,0,0,0,-1,720,1156,0,0
-497,-132,0,0,0,0,0,0,0,0,0,-1,727,1156,0,0
-490,-132,0,0,0,0,0,0,0,0,0,-1,734,1156,0,0
-483,-132,0,0,0,0,0,0,0,0,0,-1,741,1156,0,0
-476,-132,0,0,0,0,0,0,0,0,0,-1,748,1156,0,0
-469,-132,0,0,0,0,0,0,0,0,0,-1,755,1156,0,0
-462,-132,0,0,0,0,0,0,0,0,0,-1,762,1156,0,0
-455,-132,0,0,0,0,0,0,0,0,0,-1,769,1156,0,0
-448,-132,0,0,0,0,0,0,0,0,0,-1,776,1156,0,0
-441,-132,0,0,0,0,0,0,0,0,0,-1,783,1156,0,0
-434,-132,0,0,0,0,0,0,0,0,0,-1,790,1156,0,0
-427,-132,0,0,0,0,0,0,0,0,0,-1,797,1156,0,0
-420,-132,0,0,0,0,0,0,0,0,0,-1,804,1156,0,0
-413,-132,0,0,0,0,0,0,0,0,0,-1,811,1156,0,0
-406,-132,0,0,0,0,0,0,0,0,0,-1,818,1156,0,0
-399,-132,0,0,0,0,0,0,0,0,0,-1,825,1156,0,0
-392,-132,0,0,0,0,0,0,0,0,0,-1,832,1156,0,0
-385,-132,0,0,0,0,0,0,0,0,0,-1,839,1156,0,0
-378,-132,0,0,0,0,0,0,0,0,0,-1,846,1156,0,0
-371,-132,0,0,0,0,0,0,0,0,0,-1,853,1156,0,0
-364,-132,0,0,0,0,0,0,0,0,0,-1,860,1156,0,0
-357,-132,0,0,0,0,0,0,0,0,0,-1,867,1156,0,0
-350,-132,0,0,0,0,0,0,0,0,0,-1,874,1156,0,0
-343,-132,0,0,0,0,0,0,0,0,0,-1,881,1156,0,0
-336,-132,0,0,0,0,0,0,0,0,0,-1,888,1156,0,0
-329,-132,0,0,0,0,0,0,0,0,0,-1,895,1156,0,0
-322,-132,0,0,0,0,0,0,0,0,0,-1,902,1156,0,0
-315,-132,0,0,0,0,0,0,0,0,0,-1,909,1156,0,0
-308,-132,0,0,0,0,0,0,0,0,0,-1,916,1156,0,0
-301,-132,0,0,0,0,0,0,0,0,0,-1,923,1156,0,0
-294,-132,0,0,0,0,0,0,0,0,0,-1,930,1156,0,0
-287,-132,0,0,0,0,0,0,0,0,0,-1,937,1156,0,0
-280,-132,0,0,0,0,0,0,0,0,0,-1,944,1156,0,0
-273,-132,0,0,0,0,0,0,0,0,0,-1,951,1156,0,0
-266,-132,0,0,0,0,0,0,0,0,0,-1,958,1156,0,0
-259,-132,0,0,0,0,0,0,0,0,0,-1,965,1156,0,0
-252,-132,0,0,0,0,0,0,0,0,0,-1,972,1156,0,0
-245,-132,0,0,0,0,0,0,0,0,0,-1,979,1156,0,0
-238,-132,0,0,0,0,0,0,0,0,0,-1,986,1156,0,0
-231,-132,0,0,0,0,0,0,0,0,0,-1,993,1156,0,0
-224,-132,0,0,0,0,0,0,0,0,0,-1,1000,1156,0,0
-217,-132,0,0,0,0,0,0,0,0,0,-1,1007,1156,0,0
-210,-132,0,0,0,0,0,0,0,0,0,-1,1014,1156,0,0
-203,-132,0,0,0,0,0,0,0,0,0,-1,1021,1156,0,0
-196,-132,0,0,0,0,0,0,0,0,0,-1,1028,1156,0,0
-189,-132,0,0,0,0,0,0,0,0,0,-1,1035,1156,0,0
-182,-132,0,0,0,0,0,0,0,0,0,-1,1042,1156,0,0
-175,-132,0,0,0,0,0,0,0,0,0,-1,1049,1156,0,0
-168,-132,0,0,0,0,0,0,0,0,0,-1,1056,1156,0,0
-161,-132,0,0,0,0,0,0,0,0,0,-1,1063,1156,0,0
-154,-132,0,0,0,0,0,0,0,0,0,-1,1070,1156,0,0
-147,-132,0,0,0,0,0,0,0,0,0,-1,1077,1156,0,0
-140,-132,0,0,0,0,0,0,0,0,0,-1,1084,1156,0,0
-133,-132,0,0,0,0,0,0,0,0,0,-1,1091,1156,0,0
-126,-132,0,0,0,0,0,0,0,0,0,-1,1098,1156,0,0
-119,-132,0,0,0,0,0,0,0,0,0,-1,1105,1156,0,0
-112,-132,0,0,0,0,0,0,0,0,0,-1,1112,1156,0,0
-105,-132,0,0,0,0,0,0,0,0,0,-1,1119,1156,0,0
-98,-132,0,0,0,0,0,0,0,0,0,-1,1126,1156,0,0
-91,-132,0,0,0,0,0,0,0,0,0,-1,1133,1156,0,0
-84,-132,0,0,0,0,0,0,0,0,0,-1,1140,1156,0,0
-77,-132,0,0,0,0,0,0,0,0,0,-1,1147,1156,0,0
-70,-132,0,0,0,0,0,0,0,0,0,-1,1154,1156,0,0
-63,-132,0,0,0,0,0,0,0,0,0,-1,1161,1156,0,0
-56,-132,0,0,0,0,0,0,0,0,0,-1,1168,1156,0,0
-49,-132,0,0,0,0,0,0,0,0,0,-1,1175,1156,0,0
-42,-132,0,0,0,0,0,0,0,0,0,-1,1182,1156,0,0
-35,-132,0,0,0,0,0,0,0,0,0,-1,1189,1156,0,0
-28,-132,0,0,0,0,0,0,0,0,0,-1,1196,1156,0,0
-21,-132,0,0,0,0,0,0,0,0,0,-1,1203,1156,0,0
-14,-132,0,0,0,0,0,0,0,0,0,-1,1210,1156,0,0
-7,-132,0,0,0,0,0,0,0,0,0,-1,1217,1156,0,0
0,-132,0,0,0,0,0,0,0,0,0,-1,1224,1156,0,0
7,-132,0,0,0,0,0,0,0,0,0,-1,1231,1156,0,0
14,-132,0,0,0,0,0,0,0,0,0,-1,1238,1156,0,0
21,-132,0,0,0,0,0,0,0,0,0,-1,1245,1156,0,0
28,-132,0,0,0,0,0,0,0,0,0,-1,1252,1156,0,0
35,-132,0,0,0,0,0,0,0,0,0,-1,1259,1156,0,0
42,-132,0,0,0,0,0,0,0,0,0,-1,1266,1156,0,0
49,-132,0,0,0,0,0,0,0,0,0,-1,1273,1156,0,0
56,-132,0,0,0,0,0,0,0,0,0,-1,1280,1156,0,0
63,-132,0,0,0,0,0,0,0,0,0,-1,1287,1156,0,0
70,-132,0,0,0,0,0,0,0,0,0,-1,1294,1156,0,0
77,-132,0,0,0,0,0,0,0,0,0,-1,1301,1156,0,0
84,-132,0,0,0,0,0,0,0,0,0,-1,1308,1156,0,0
91,-132,0,0,0,0,0,0,0,0,0,-1,1315,1156,0,0
98,-132,0,0,0,0,0,0,0,0,0,-1,1322,1156,0,0
105,-132,0,0,0,0,0,0,0,0,0,-1,1329,1156,0,0
112,-132,0,0,0,0,0,0,0,0,0,-1,1336,1156,0,0
119,-132,0,0,0,0,0,0,0,0,0,-1,1343,1156,0,0
126,-132,0,0,0,0,0,0,0,0,0,-1,1350,1156,0,0
133,-132,0,0,0,0,0,0,0,0,0,-1,1357,1156,0,0
140,-132,0,0,0,0,0,0,0,0,0,-1,1364,1156,0,0
147,-132,0,0,0,0,0,0,0,0,0,-1,1371,1156,0,0
154,-132,0,0,0,0,0,0,0,0,0,-1,1378,1156,0,0
161,-132,0,0,0,0,0,0,0,0,0,-1,1385,1156,0,0
168,-132,0,0,0,0,0,0,0,0,0,-1,1392,1156,0,0
175,-132,0,0,0,0,0,0,0,0,0,-1,1399,1156,0,0
182,-132,0,0,0,0,0,0,0,0,0,-1,1406,1156,0,0
189,-132,0,0,0,0,0,0,0,0,0,-1,1413,1156,0,0
196,-132,0,0,0,0,0,0,0,0,0,-1,1420,1156,0,0
203,-132,0,0,0,0,0,0,0,0,0,-1,1427,1156,0,0
210,-132,0,0,0,0,0,0,0,0,0,-1,1434,1156,0,0
217,-132,0,0,0,0,0,0,0,0,0,-1,1441,1156,0,0
224,-132,0,0,0,0,0,0,0,0,0,-1,1448,1156,0,0
231,-132,0,0,0,0,0,0,0,0,0,-1,1455,1156,0,0
238,-132,0,0,0,0,0,0,0,0,0,-1,1462,1156,0,0
245,-132,0,0,0,0,0,0,0,0,0,-1,1469,1156,0,0
252,-132,0,0,0,0,0,0,0,0,0,-1,1476,1156,0,0
259,-132,0,0,0,0,0,0,0,0,0,-1,1483,1156,0,0
266,-132,0,0,0,0,0,0,0,0,0,-1,1490,1156,0,0
273,-132,0,0,0,0,0,0,0,0,0,-1,1497,1156,0,0
280,-132,0,0,0,0,0,0,0,0,0,-1,1504,1156,0,0
287,-132,0,0,0,0,0,0,0,0,0,-1,1511,1156,0,0
294,-132,0,0,0,0,0,0,0,0,0,-1,1518,1156,0,0
301,-132,0,0,0,0,0,0,0,0,0,-1,1525,1156,0,0
308,-132,0,0,0,0,0,0,0,0,0,-1,1532,1156,0,0
315,-132,0,0,0,0,0,0,0,0,0,-1,1539,1156,0,0
322,-132,0,0,0,0,0,0,0,0,0,-1,1546,1156,0,0
329,-132,0,0,0,0,0,0,0,0,0,-1,1553,1156,0,0
336,-132,0,0,0,0,0,0,0,0,0,-1,1560,1156,0,0
343,-132,0,0,0,0,0,0,0,0,0,-1,1567,1156,0,0
350,-132,0,0,0,0,0,0,0,0,0,-1,1574,1156,0,0
357,-132,0,0,0,0,0,0,0,0,0,-1,1581,1156,0,0
364,-132,0,0,0,0,0,0,0,0,0,-1,1588,1156,0,0
371,-132,0,0,0,0,0,0,0,0,0,-1,1595,1156,0,0
378,-132,0,0,0,0,0,0,0,0,0,-1,1602,1156,0,0
385,-132,0,0,0,0,0,0,0,0,0,-1,1609,1156,0,0
392,-132,0,0,0,0,0,0,0,0,0,-1,1616,1156,0,0
399,-132,0,0,0,0,0,0,0,0,0,-1,1623,1156,0,0
406,-132,0,0,0,0,0,0,0,0,0,-1,1630,1156,0,0
413,-132,0,0,0,0,0,0,0,0,0,-1,1637,1156,0,0
420,-132,0,0,0,0,0,0,0,0,0,-1,1644,1156,0,0
427,-132,0,0,0,0,0,0,0,0,0,-1,1651,1156,0,0
434,-132,0,0,0,0,0,0,0,0,0,-1,1658,1156,0,0
441,-132,0,0,0,0,0,0,0,0,0,-1,1665,1156,0,0
448,-132,0,0,0,0,0,0,0,0,0,-1,1672,1156,0,0
455,-132,0,0,0,0,0,0,0,0,0,-1,1679,1156,0,0
462,-132,0,0,0,0,0,0,0,0,0,-1,1686,1156,0,0
469,-132,0,0,0,0,0,0,0,0,0,-1,1693,1156,0,0
476,-132,0,0,0,0,0,0,0,0,0,-1,1700,1156,0,0
483,-132,0,0,0,0,0,0,0,0,0,-1,1707,1156,0,0
490,-132,0,0,0,0,0,0,0,0,0,-1,1714,1156,0,0
497,-132,0,0,0,0,0,0,0,0,0,-1,1721,1156,0,0
504,-132,0,0,0,0,0,0,0,0,0,-1,1728,1156,0,0
511,-132,0,0,0,0,0,0,0,0,0,-1,1735,1156,0,0
518,-132,0,0,0,0,0,0,0,0,0,-1,1742,1156,0,0
525,-132,0,0,0,0,0,0,0,0,0,-1,1749,1156,0,0
532,-132,0,0,0,0,0,0,0,0,0,-1,1756,1156,0,0
539,-132,0,0,0,0,0,0,0,0,0,-1,1763,1156,0,0
546,-132,0,0,0,0,0,0,0,0,0,-1,1770,1156,0,0
553,-132,0,0,0,0,0,0,0,0,0,-1,1777,1156,0,0
560,-132,0,0,0,0,0,0,0,0,0,-1,1784,1156,0,0
567,-132,0,0,0,0,0,0,0,0,0,-1,1791,1156,0,0
574,-132,0,0,0,0,0,0,0,0,0,-1,1798,1156,0,0
581,-132,0,0,0,0,0,0,0,0,0,-1,1805,1156,0,0
588,-132,0,0,0,0,0,0,0,0,0,-1,1812,1156,0,0
595,-132,0,0,0,0,0,0,0,0,0,-1,1819,1156,0,0
602,-132,0,0,0,0,0,0,0,0,0,-1,1826,1156,0,0
609,-132,0,0,0,0,0,0,0,0,0,-1,1833,1156,0,0
616,-132,0,0,0,0,0,0,0,0,0,-1,1840,1156,0,0
623,-132,0,0,0,0,0,0,0,0,0,-1,1847,1156,0,0
630,-132,0,0,0,0,0,0,0,0,0,-1,1854,1156,0,0
637,-132,0,0,0,0,0,0,0,0,0,-1,1861,1156,0,0
644,-132,82.1329,2.50964,0.00112098,0.000150504,-0.00332668,0.00399762,-0.00272613,-0.712977,0.00390503,0.0406025,1868,1156,82.133,-2.50966
651,-132,82.0085,2.51697,0.000615175,0.000297807,-0.00265937,0.00312059,-0.00220761,-0.755599,0.00309125,0.0400144,1875,1156,82.0085,-2.51699
658,-132,81.9658,2.4845,0.000279808,0.000448575,-0.00216017,0.00252601,-0.00179763,-0.80492,0.00250803,0.0416542,1882,1156,81.9658,-2.48453
665,-132,82.0243,2.46741,-3.13411e-05,0.00065756,-0.00179322,0.00213911,-0.00151289,-0.880285,0.00211879,0.0445103,1889,1156,82.0243,-2.46746
672,-132,81.9807,2.49084,-0.000305122,0.000947818,-0.00156356,0.00200574,-0.00136305,-0.97594,0.00195673,0.0447025,1896,1156,81.9807,-2.49084
679,-132,82.0306,2.61389,-0.000289504,0.000700762,-0.00120505,0.00150843,-0.00109717,-0.980324,0.00151058,0.0432561,1903,1156,82.0306,-2.6139
686,-132,82.0975,2.54138,0.000369779,0.000866821,-0.00103574,0.00168344,-0.000446842,-0.903144,0.00129715,0.0384694,1910,1156,82.0976,-2.54134
693,-132,81.979,2.45166,0.000854482,0.0007242,-0.000761736,0.00155386,2.4825e-05,-0.742744,0.00102773,0.0290377,1917,1156,81.979,-2.4517
700,-132,82.0609,2.31506,0,0,0,0,0,0,0,-1,1924,1156,82.061,-2.31501
707,-132,57.9275,3.01367,0,0,0,0,0,0,0,-1,1931,1156,57.9275,-3.01369
714,-132,57.8083,9.22156,0,0,0,0,0,0,0,-1,1938,1156,57.8084,-9.22151
721,-132,73.0114,10.9708,0,0,0,0,0,0,0,-1,1945,1156,73.0113,-10.9709
728,-132,72.9124,10.4143,0.000860586,0.00103922,0.00101881,0.00197262,-7.28187e-05,0.82912,0.00134001,0.0304855,1952,1156,72.9123,-10.4143
735,-132,72.8977,9.68079,0.00137623,0.000897538,0.00134979,0.00250773,-0.000233962,0.69765,0.00175501,0.0311473,1959,1156,72.8977,-9.68074
742,-132,72.8971,8.91846,0.00144721,0.000963985,0.00196171,0.00318213,-0.000770931,0.724125,0.00241968,0.0282949,1966,1156,72.8971,-8.91846
749,-132,72.8448,8.15552,0.00098675,0.00169894,0.00259301,0.00396019,-0.0012745,0.853636,0.00315206,0.0263163,1973,1156,72.8448,-8.15555
756,-132,72.8513,7.41553,0.000814933,0.00452989,0.00240867,0.00571411,-0.000369287,1.11385,0.00393828,0.0265038,1980,1156,72.8514,-7.4155
763,-132,72.7979,6.73694,0.00164221,0.00906486,0.00139708,0.00931911,0.00138796,1.39078,0.00580566,0.016152,1987,1156,72.7979,-6.73696
770,-132,72.7639,6.05383,0.00344638,0.0152189,-0.000475297,0.0152381,0.00342723,-1.53051,0.00923087,0.0158442,1994,1156,72.7639,-6.05378
777,-132,72.6316,5.30151,0.00633075,0.0234604,-0.00344528,0.0241274,0.00566377,-1.37957,0.0145687,0.0292735,2001,1156,72.6317,-5.30157
784,-132,72.502,4.55261,0,0,0,0,0,0,0,-1,2008,1156,72.5021,-4.55263
791,-132,72.2236,4.29419,0,0,0,0,0,0,0,-1,2015,1156,72.2236,-4.29419
798,-132,73.2852,-4.60278,0,0,0,0,0,0,0,-1,2022,1156,73.285,4.60284
805,-132,73.0271,0.386841,0,0,0,0,0,0,0,-1,2029,1156,73.0272,-0.386832
812,-132,73.3503,-0.32959,0,0,0,0,0,0,0,-1,2036,1156,73.3504,0.329639
-700,-139,0,0,0,0,0,0,0,0,0,-1,524,1163,0,0
-693,-139,-59.461,4.96228,0,0,0,0,0,0,0,-1,531,1163,-59.461,-4.96222
-686,-139,-59.0247,6.0686,0,0,0,0,0,0,0,-1,538,1163,-59.0247,-6.06866
-679,-139,-69.069,-6.73938,0,0,0,0,0,0,0,-1,545,1163,-69.069,6.73941
-672,-139,-68.0754,-6.25806,0.130999,0.0813886,0.071299,0.181685,0.0307032,0.617994,0.112297,0.0475901,552,1163,-68.0754,6.25806
-665,-139,-66.8522,-5.40259,0.104596,0.0665691,0.0577669,0.146398,0.0247673,0.62641,0.0904802,0.0473014,559,1163,-66.8522,5.40256
-658,-139,-65.6352,-4.57532,0,0,0,0,0,0,0,-1,566,1163,-65.6352,4.57536
-651,-139,-55.7062,4.03101,0,0,0,0,0,0,0,-1,573,1163,-55.7062,-4.03096
-644,-139,-55.6538,4.97766,0.0354864,0.028767,0.021449,0.0538373,0.0104161,0.707712,0.0329725,0.0344677,580,1163,-55.6538,-4.97765
-637,-139,-55.7551,5.69299,0.0168763,0.0184687,0.0114863,0.0291863,0.00615862,0.820002,0.0177642,0.0193298,587,1163,-55.7551,-5.69301
-630,-139,-55.7801,6.44141,0.00111909,0.00956379,0.00267553,0.0103401,0.000342767,1.2884,0.00678204,0.0111076,594,1163,-55.7801,-6.44136
-623,-139,-55.8289,7.19556,-0.00971972,0.00219184,-0.00407436,0.00345213,-0.01098,-1.27081,0.00870204,0.0175972,601,1163,-55.8289,-7.19555
-616,-139,-55.9599,7.94958,-0.0112018,0.000273938,-0.00560677,0.00255847,-0.0134863,-1.18388,0.00995393,0.0237867,608,1163,-55.9599,-7.94958
-609,-139,-56.1781,8.8075,0,0,0,0,0,0,0,-1,615,1163,-56.1781,-8.80749
-602,-139,-50.4112,7.96228,0,0,0,0,0,0,0,-1,622,1163,-50.4112,-7.96224
-595,-139,-50.6539,8.62317,0,0,0,0,0,0,0,-1,629,1163,-50.6539,-8.62318
-588,-139,-51.0773,9.1781,0,0,0,0,0,0,0,-1,636,1163,-51.0773,-9.17806
-581,-139,-34.4892,6.72473,0,0,0,0,0,0,0,-1,643,1163,-34.4892,-6.72476
-574,-139,-23.0725,2.4043,0,0,0,0,0,0,0,-1,650,1163,-23.0725,-2.40433
-567,-139,-65.1939,0.995728,0,0,0,0,0,0,0,-1,657,1163,-65.1939,-0.995739
-560,-139,-65.0684,0.537842,0.00127863,-0.00155633,-0.00623858,0.00625873,-0.00653643,-0.673689,0.00738787,0.0378145,664,1163,-65.0684,-0.537792
-553,-139,-64.9377,0.00158691,0.00379867,-0.00210163,-0.00631878,0.00782206,-0.00612503,-0.566995,0.0080722,0.0393837,671,1163,-64.9377,-0.00155946
-546,-139,-65.0123,-0.177002,0,0,0,0,0,0,0,-1,678,1163,-65.0123,0.177016
-539,-139,-64.9608,0.379517,-0.0006887,0.000901067,0.00034156,0.000971344,-0.000758977,1.36787,0.00100151,0.0405295,685,1163,-64.9608,-0.37946
-532,-139,-64.9984,0.484253,-0.00318187,0.00263795,0.00415457,0.00480032,-0.00534424,1.0909,0.00585977,0.0379591,692,1163,-64.9984,-0.484311
-525,-139,-65.111,0.659668,-0.00542319,0.00447432,0.00758357,0.00858099,-0.00952986,1.07449,0.0104611,0.0389146,699,1163,-65.111,-0.659634
-518,-139,0,0,0,0,0,0,0,0,0,-1,706,1163,0,0
-511,-139,0,0,0,0,0,0,0,0,0,-1,713,1163,0,0
-504,-139,0,0,0,0,0,0,0,0,0,-1,720,1163,0,0
-497,-139,0,0,0,0,0,0,0,0,0,-1,727,1163,0,0
-490,-139,0,0,0,0,0,0,0,0,0,-1,734,1163,0,0
-483,-139,0,0,0,0,0,0,0,0,0,-1,741,1163,0,0
-476,-139,0,0,0,0,0,0,0,0,0,-1,748,1163,0,0
-469,-139,0,0,0,0,0,0,0,0,0,-1,755,1163,0,0
-462,-139,0,0,0,0,0,0,0,0,0,-1,762,1163,0,0
-455,-139,0,0,0,0,0,0,0,0,0,-1,769,1163,0,0
-448,-139,0,0,0,0,0,0,0,0,0,-1,776,1163,0,0
-441,-139,0,0,0,0,0,0,0,0,0,-1,783,1163,0,0
-434,-139,0,0,0,0,0,0,0,0,0,-1,790,1163,0,0
-427,-139,0,0,0,0,0,0,0,0,0,-1,797,1163,0,0
-420,-139,0,0,0,0,0,0,0,0,0,-1,804,1163,0,0
-413,-139,0,0,0,0,0,0,0,0,0,-1,811,1163,0,0
-406,-139,0,0,0,0,0,0,0,0,0,-1,818,1163,0,0
-399,-139,0,0,0,0,0,0,0,0,0,-1,825,1163,0,0
-392,-139,0,0,0,0,0,0,0,0,0,-1,832,1163,0,0
-385,-139,0,0,0,0,0,0,0,0,0,-1,839,1163,0,0
-378,-139,0,0,0,0,0,0,0,0,0,-1,846,1163,0,0
-371,-139,0,0,0,0,0,0,0,0,0,-1,853,1163,0,0
-364,-139,0,0,0,0,0,0,0,0,0,-1,860,1163,0,0
-357,-139,0,0,0,0,0,0,0,0,0,-1,867,1163,0,0
-350,-139,0,0,0,0,0,0,0,0,0,-1,874,1163,0,0
-343,-139,0,0,0,0,0,0,0,0,0,-1,881,1163,0,0
-336,-139,0,0,0,0,0,0,0,0,0,-1,888,1163,0,0
-329,-139,0,0,0,0,0,0,0,0,0,-1,895,1163,0,0
-322,-139,0,0,0,0,0,0,0,0,0,-1,902,1163,0,0
-315,-139,0,0,0,0,0,0,0,0,0,-1,909,1163,0,0
-308,-139,0,0,0,0,0,0,0,0,0,-1,916,1163,0,0
-301,-139,0,0,0,0,0,0,0,0,0,-1,923,1163,0,0
-294,-139,0,0,0,0,0,0,0,0,0,-1,930,1163,0,0
-287,-139,0,0,0,0,0,0,0,0,0,-1,937,1163,0,0
-280,-139,0,0,0,0,0,0,0,0,0,-1,944,1163,0,0
-273,-139,0,0,0,0,0,0,0,0,0,-1,951,1163,0,0
-266,-139,0,0,0,0,0,0,0,0,0,-1,958,1163,0,0
-259,-139,0,0,0,0,0,0,0,0,0,-1,965,1163,0,0
-252,-139,0,0,0,0,0,0,0,0,0,-1,972,1163,0,0
-245,-139,0,0,0,0,0,0,0,0,0,-1,979,1163,0,0
-238,-139,0,0,0,0,0,0,0,0,0,-1,986,1163,0,0
-231,-139,0,0,0,0,0,0,0,0,0,-1,993,1163,0,0
-224,-139,0,0,0,0,0,0,0,0,0,-1,1000,1163,0,0
-217,-139,0,0,0,0,0,0,0,0,0,-1,1007,1163,0,0
-210,-139,0,0,0,0,0,0,0,0,0,-1,1014,1163,0,0
-203,-139,0,0,0,0,0,0,0,0,0,-1,1021,1163,0,0
-196,-139,0,0,0,0,0,0,0,0,0,-1,1028,1163,0,0
-189,-139,0,0,0,0,0,0,0,0,0,-1,1035,1163,0,0
-182,-139,0,0,0,0,0,0,0,0,0,-1,1042,1163,0,0
-175,-139,0,0,0,0,0,0,0,0,0,-1,1049,1163,0,0
-168,-139,0,0,0,0,0,0,0,0,0,-1,1056,1163,0,0
-161,-139,0,0,0,0,0,0,0,0,0,-1,1063,1163,0,0
-154,-139,0,0,0,0,0,0,0,0,0,-1,1070,1163,0,0
-147,-139,0,0,0,0,0,0,0,0,0,-1,1077,1163,0,0
-140,-139,0,0,0,0,0,0,0,0,0,-1,1084,1163,0,0
-133,-139,0,0,0,0,0,0,0,0,0,-1,1091,1163,0,0
-126,-139,0,0,0,0,0,0,0,0,0,-1,1098,1163,0,0
-119,-139,0,0,0,0,0,0,0,0,0,-1,1105,1163,0,0
-112,-139,0,0,0,0,0,0,0,0,0,-1,1112,1163,0,0
-105,-139,0,0,0,0,0,0,0,0,0,-1,1119,1163,0,0
-98,-139,0,0,0,0,0,0,0,0,0,-1,1126,1163,0,0
-91,-139,0,0,0,0,0,0,0,0,0,-1,1133,1163,0,0
-84,-139,0,0,0,0,0,0,0,0,0,-1,1140,1163,0,0
-77,-139,0,0,0,0,0,0,0,0,0,-1,1147,1163,0,0
-70,-139,0,0,0,0,0,0,0,0,0,-1,1154,1163,0,0
-63,-139,0,0,0,0,0,0,0,0,0,-1,1161,1163,0,0
-56,-139,0,0,0,0,0,0,0,0,0,-1,1168,1163,0,0
-49,-139,0,0,0,0,0,0,0,0,0,-1,1175,1163,0,0
-42,-139,0,0,0,0,0,0,0,0,0,-1,1182,1163,0,0
-35,-139,0,0,0,0,0,0,0,0,0,-1,1189,1163,0,0
-28,-139,0,0,0,0,0,0,0,0,0,-1,1196,1163,0,0
-21,-139,0,0,0,0,0,0,0,0,0,-1,1203,1163,0,0
-14,-139,0,0,0,0,0,0,0,0,0,-1,1210,1163,0,0
-7,-139,0,0,0,0,0,0,0,0,0,-1,1217,1163,0,0
0,-139,0,0,0,0,0,0,0,0,0,-1,1224,1163,0,0
7,-139,0,0,0,0,0,0,0,0,0,-1,1231,1163,0,0
14,-139,0,0,0,0,0,0,0,0,0,-1,1238,1163,0,0
21,-139,0,0,0,0,0,0,0,0,0,-1,1245,1163,0,0
28,-139,0,0,0,0,0,0,0,0,0,-1,1252,1163,0,0
35,-139,0,0,0,0,0,0,0,0,0,-1,1259,1163,0,0
42,-139,0,0,0,0,0,0,0,0,0,-1,1266,1163,0,0
49,-139,0,0,0,0,0,0,0,0,0,-1,1273,1163,0,0
56,-139,0,0,0,0,0,0,0,0,0,-1,1280,1163,0,0
63,-139,0,0,0,0,0,0,0,0,0,-1,1287,1163,0,0
70,-139,0,0,0,0,0,0,0,0,0,-1,1294,1163,0,0
77,-139,0,0,0,0,0,0,0,0,0,-1,1301,1163,0,0
84,-139,0,0,0,0,0,0,0,0,0,-1,1308,1163,0,0
91,-139,0,0,0,0,0,0,0,0,0,-1,1315,1163,0,0
98,-139,0,0,0,0,0,0,0,0,0,-1,1322,1163,0,0
105,-139,0,0,0,0,0,0,0,0,0,-1,1329,1163,0,0
112,-139,0,0,0,0,0,0,0,0,0,-1,1336,1163,0,0
119,-139,0,0,0,0,0,0,0,0,0,-1,1343,1163,0,0
126,-139,0,0,0,0,0,0,0,0,0,-1,1350,1163,0,0
133,-139,0,0,0,0,0,0,0,0,0,-1,1357,1163,0,0
140,-139,0,0,0,0,0,0,0,0,0,-1,1364,1163,0,0
147,-139,0,0,0,0,0,0,0,0,0,-1,1371,1163,0,0
154,-139,0,0,0,0,0,0,0,0,0,-1,1378,1163,0,0
161,-139,0,0,0,0,0,0,0,0,0,-1,1385,1163,0,0
168,-139,0,0,0,0,0,0,0,0,0,-1,1392,1163,0,0
175,-139,0,0,0,0,0,0,0,0,0,-1,1399,1163,0,0
182,-139,0,0,0,0,0,0,0,0,0,-1,1406,1163,0,0
189,-139,0,0,0,0,0,0,0,0,0,-1,1413,1163,0,0
196,-139,0,0,0,0,0,0,0,0,0,-1,1420,1163,0,0
203,-139,0,0,0,0,0,0,0,0,0,-1,1427,1163,0,0
210,-139,0,0,0,0,0,0,0,0,0,-1,1434,1163,0,0
217,-139,0,0,0,0,0,0,0,0,0,-1,1441,1163,0,0
224,-139,0,0,0,0,0,0,0,0,0,-1,1448,1163,0,0
231,-139,0,0,0,0,0,0,0,0,0,-1,1455,1163,0,0
238,-139,0,0,0,0,0,0,0,0,0,-1,1462,1163,0,0
245,-139,0,0,0,0,0,0,0,0,0,-1,1469,1163,0,0
252,-139,0,0,0,0,0,0,0,0,0,-1,1476,1163,0,0
259,-139,0,0,0,0,0,0,0,0,0,-1,1483,1163,0,0
266,-139,0,0,0,0,0,0,0,0,0,-1,1490,1163,0,0
273,-139,0,0,0,0,0,0,0,0,0,-1,1497,1163,0,0
280,-139,0,0,0,0,0,0,0,0,0,-1,1504,1163,0,0
287,-139,0,0,0,0,0,0,0,0,0,-1,1511,1163,0,0
294,-139,0,0,0,0,0,0,0,0,0,-1,1518,1163,0,0
301,-139,0,0,0,0,0,0,0,0,0,-1,1525,1163,0,0
308,-139,0,0,0,0,0,0,0,0,0,-1,1532,1163,0,0
315,-139,0,0,0,0,0,0,0,0,0,-1,1539,1163,0,0
322,-139,0,0,0,0,0,0,0,0,0,-1,1546,1163,0,0
329,-139,0,0,0,0,0,0,0,0,0,-1,1553,1163,0,0
336,-139,0,0,0,0,0,0,0,0,0,-1,1560,1163,0,0
343,-139,0,0,0,0,0,0,0,0,0,-1,1567,1163,0,0
350,-139,0,0,0,0,0,0,0,0,0,-1,1574,1163,0,0
357,-139,0,0,0,0,0,0,0,0,0,-1,1581,1163,0,0
364,-139,0,0,0,0,0,0,0,0,0,-1,1588,1163,0,0
371,-139,0,0,0,0,0,0,0,0,0,-1,1595,1163,0,0
378,-139,0,0,0,0,0,0,0,0,0,-1,1602,1163,0,0
385,-139,0,0,0,0,0,0,0,0,0,-1,1609,1163,0,0
392,-139,0,0,0,0,0,0,0,0,0,-1,1616,1163,0,0
399,-139,0,0,0,0,0,0,0,0,0,-1,1623,1163,0,0
406,-139,0,0,0,0,0,0,0,0,0,-1,1630,1163,0,0
413,-139,0,0,0,0,0,0,0,0,0,-1,1637,1163,0,0
420,-139,0,0,0,0,0,0,0,0,0,-1,1644,1163,0,0
427,-139,0,0,0,0,0,0,0,0,0,-1,1651,1163,0,0
434,-139,0,0,0,0,0,0,0,0,0,-1,1658,1163,0,0
441,-139,0,0,0,0,0,0,0,0,0,-1,1665,1163,0,0
448,-139,0,0,0,0,0,0,0,0,0,-1,1672,1163,0,0
455,-139,0,0,0,0,0,0,0,0,0,-1,1679,1163,0,0
462,-139,0,0,0,0,0,0,0,0,0,-1,1686,1163,0,0
469,-139,0,0,0,0,0,0,0,0,0,-1,1693,1163,0,0
476,-139,0,0,0,0,0,0,0,0,0,-1,1700,1163,0,0
483,-139,0,0,0,0,0,0,0,0,0,-1,1707,1163,0,0
490,-139,0,0,0,0,0,0,0,0,0,-1,1714,1163,0,0
497,-139,0,0,0,0,0,0,0,0,0,-1,1721,1163,0,0
504,-139,0,0,0,0,0,0,0,0,0,-1,1728,1163,0,0
511,-139,0,0,0,0,0,0,0,0,0,-1,1735,1163,0,0
518,-139,0,0,0,0,0,0,0,0,0,-1,1742,1163,0,0
525,-139,0,0,0,0,0,0,0,0,0,-1,1749,1163,0,0
532,-139,0,0,0,0,0,0,0,0,0,-1,1756,1163,0,0
539,-139,0,0,0,0,0,0,0,0,0,-1,1763,1163,0,0
546,-139,0,0,0,0,0,0,0,0,0,-1,1770,1163,0,0
553,-139,0,0,0,0,0,0,0,0,0,-1,1777,1163,0,0
560,-139,0,0,0,0,0,0,0,0,0,-1,1784,1163,0,0
567,-139,0,0,0,0,0,0,0,0,0,-1,1791,1163,0,0
574,-139,0,0,0,0,0,0,0,0,0,-1,1798,1163,0,0
581,-139,0,0,0,0,0,0,0,0,0,-1,1805,1163,0,0
588,-139,0,0,0,0,0,0,0,0,0,-1,1812,1163,0,0
595,-139,0,0,0,0,0,0,0,0,0,-1,1819,1163,0,0
602,-139,0,0,0,0,0,0,0,0,0,-1,1826,1163,0,0
609,-139,0,0,0,0,0,0,0,0,0,-1,1833,1163,0,0
616,-139,0,0,0,0,0,0,0,0,0,-1,1840,1163,0,0
623,-139,0,0,0,0,0,0,0,0,0,-1,1847,1163,0,0
630,-139,0,0,0,0,0,0,0,0,0,-1,1854,1163,0,0
637,-139,0,0,0,0,0,0,0,0,0,-1,1861,1163,0,0
644,-139,82.1818,2.31641,-0.000114636,0.000172542,-0.00316646,0.00319867,-0.00314076,-0.808056,0.00366012,0.0408755,1868,1163,82.1818,-2.31644
651,-139,81.9437,2.24731,-0.000303434,0.000484869,-0.00249294,0.00261462,-0.00243318,-0.863803,0.00291498,0.0393855,1875,1163,81.9437,-2.24731
658,-139,81.9923,2.32507,-0.000387727,0.000810376,-0.00201835,0.0023167,-0.00189405,-0.929659,0.00243515,0.040408,1882,1163,81.9923,-2.32506
665,-139,82.1082,2.2594,-0.000475732,0.0012091,-0.00171386,0.0022764,-0.00154302,-1.01382,0.00221865,0.0404328,1889,1163,82.1082,-2.2594
672,-139,82.0873,2.38159,-0.000561472,0.00171132,-0.00157827,0.00251975,-0.0013699,-1.09742,0.00227816,0.0392657,1896,1163,82.0872,-2.3816
679,-139,82.1392,2.47986,-0.000434018,0.00158309,-0.00128295,0.00220645,-0.00105737,-1.11851,0.0019229,0.0389012,1903,1163,82.1391,-2.47991
686,-139,82.014,2.52539,0.000398387,0.00182413,-0.00116073,0.00247341,-0.0002509,-1.06078,0.00173862,0.0354465,1910,1163,82.014,-2.52536
693,-139,82.027,2.39795,0.000911949,0.00159727,-0.000867371,0.00218721,0.000322005,-0.973516,0.00136354,0.0246638,1917,1163,82.0269,-2.39798
700,-139,82.0989,2.29187,0,0,0,0,0,0,0,-1,1924,1163,82.0989,-2.29192
707,-139,32.116,6.54346,0,0,0,0,0,0,0,-1,1931,1163,32.116,-6.54343
714,-139,62.1425,10.1428,0,0,0,0,0,0,0,-1,1938,1163,62.1424,-10.1428
721,-139,72.1608,11.011,0,0,0,0,0,0,0,-1,1945,1163,72.1608,-11.0109
728,-139,72.1321,10.5658,0.00105931,0.00149908,0.000744628,0.00205561,0.000502779,0.928968,0.00123735,0.0493484,1952,1163,72.1321,-10.5658
735,-139,72.1061,9.77661,0.00162241,0.00119664,0.00113284,0.00256219,0.000256854,0.69252,0.00162927,0.0351554,1959,1163,72.1061,-9.77656
742,-139,72.1554,8.84729,0.00173756,0.00104863,0.00180239,0.0032281,-0.000441918,0.690978,0.00231349,0.0279377,1966,1163,72.1554,-8.84728
749,-139,72.1071,8.11926,0.00109637,0.00154487,0.00258309,0.00391342,-0.00127219,0.828697,0.00312068,0.0216628,1973,1163,72.107,-8.11926
756,-139,72.0442,7.44604,0.000670758,0.00426292,0.00261057,0.00563558,-0.000701909,1.08671,0.00401155,0.0129446,1980,1163,72.0443,-7.44603
763,-139,71.9971,6.72473,0.00114406,0.00854012,0.00193784,0.00901709,0.00066709,1.32946,0.00580183,0.0135373,1987,1163,71.9971,-6.72479
770,-139,71.9597,6.02527,0.00250504,0.0142522,0.000536239,0.0142767,0.00248061,1.52527,0.00880811,0.0143127,1994,1163,71.9596,-6.02521
777,-139,71.8887,5.28772,0.00487456,0.0218662,-0.00184154,0.0220635,0.00467726,-1.46407,0.0134243,0.0280264,2001,1163,71.8887,-5.28778
784,-139,71.8535,4.51111,0.00888271,0.0324966,-0.00573726,0.0338168,0.00756258,-1.34464,0.0204942,0.0475785,2008,1163,71.8536,-4.51114
791,-139,71.8687,3.72876,0,0,0,0,0,0,0,-1,2015,1163,71.8686,-3.72874
798,-139,72.2981,3.56299,0,0,0,0,0,0,0,-1,2022,1163,72.2982,-3.56294
805,-139,70.6143,4.20105,0,0,0,0,0,0,0,-1,2029,1163,70.6142,-4.20111
812,-139,0,0,0,0,0,0,0,0,0,-1,2036,1163,0,0
-700,-146,0,0,0,0,0,0,0,0,0,-1,524,1170,0,0
-693,-146,-59.6758,5.11877,0,0,0,0,0,0,0,-1,531,1170,-59.6758,-5.11879
-686,-146,-59.1423,6.23303,0,0,0,0,0,0,0,-1,538,1170,-59.1423,-6.23297
-679,-146,-58.5013,7.35107,0,0,0,0,0,0,0,-1,545,1170,-58.5013,-7.35101
-672,-146,-68.64,-7.05249,0,0,0,0,0,0,0,-1,552,1170,-68.64,7.05251
-665,-146,-67.3679,-6.26978,0,0,0,0,0,0,0,-1,559,1170,-67.3679,6.26978
-658,-146,-55.0266,6.18408,0,0,0,0,0,0,0,-1,566,1170,-55.0266,-6.18405
-651,-146,-54.6228,4.04993,0,0,0,0,0,0,0,-1,573,1170,-54.6228,-4.04994
-644,-146,-54.7947,4.90173,0.0350804,0.0294887,0.0216808,0.0541448,0.0104242,0.721275,0.0331723,0.0332364,580,1170,-54.7947,-4.90175
-637,-146,-54.9366,5.69153,0.0167089,0.0187904,0.0115494,0.0293459,0.00615346,0.830333,0.0178695,0.0155976,587,1170,-54.9366,-5.69157
-630,-146,-54.9849,6.46387,0.00146453,0.00961518,0.00268562,0.0104205,0.000659196,1.27946,0.00673804,0.0108317,594,1170,-54.9849,-6.46391
-623,-146,-55.0431,7.20837,-0.009081,0.00219757,-0.0041018,0.00353154,-0.010415,-1.25637,0.00837256,0.013953,601,1170,-55.0431,-7.20837
-616,-146,-55.1726,7.95752,-0.0107935,0.000271865,-0.005847,0.0027889,-0.0133105,-1.16429,0.00993469,0.0222194,608,1170,-55.1726,-7.95747
-609,-146,-55.3154,8.70483,0,0,0,0,0,0,0,-1,615,1170,-55.3154,-8.70481
-602,-146,-49.7178,7.99854,0,0,0,0,0,0,0,-1,622,1170,-49.7178,-7.99849
-595,-146,-49.8962,8.69519,0,0,0,0,0,0,0,-1,629,1170,-49.8963,-8.6952
-588,-146,-45.0034,7.81934,0,0,0,0,0,0,0,-1,636,1170,-45.0034,-7.81931
-581,-146,-31.7815,6.30347,0,0,0,0,0,0,0,-1,643,1170,-31.7815,-6.3035
-574,-146,-17.9915,3.79114,0,0,0,0,0,0,0,-1,650,1170,-17.9915,-3.79118
-567,-146,-44.4572,0.6604,0,0,0,0,0,0,0,-1,657,1170,-44.4572,-0.660404
-560,-146,-65.0464,0.560181,0,0,0,0,0,0,0,-1,664,1170,-65.0464,-0.560139
-553,-146,-64.9216,0.280884,0.00461419,-0.0025565,-0.00669912,0.00862706,-0.00656937,-0.539695,0.00880043,0.0373626,671,1170,-64.9217,-0.280921
-546,-146,-64.8865,0.288818,0.00293859,-0.00176442,-0.00460243,0.00575545,-0.00458127,-0.549223,0.00598073,0.0414297,678,1170,-64.8865,-0.288783
-539,-146,-64.9738,0.316284,0.000646741,0.000155161,-0.000799932,0.00123779,-0.00043589,-0.636345,0.00100259,0.0394055,685,1170,-64.9738,-0.316231
-532,-146,-65.0931,0.379639,-0.00142828,0.00220348,0.00266222,0.00361016,-0.00283495,1.0847,0.00373005,0.0397996,692,1170,-65.0931,-0.379676
-525,-146,-65.152,0.547363,-0.00308174,0.00445151,0.00561542,0.00744657,-0.00607681,1.08082,0.00782107,0.0426543,699,1170,-65.152,-0.547385
-518,-146,0,0,0,0,0,0,0,0,0,-1,706,1170,0,0
-511,-146,0,0,0,0,0,0,0,0,0,-1,713,1170,0,0
-504,-146,0,0,0,0,0,0,0,0,0,-1,720,1170,0,0
-497,-146,0,0,0,0,0,0,0,0,0,-1,727,1170,0,0
-490,-146,0,0,0,0,0,0,0,0,0,-1,734,1170,0,0
-483,-146,0,0,0,0,0,0,0,0,0,-1,741,1170,0,0
-476,-146,0,0,0,0,0,0,0,0,0,-1,748,1170,0,0
-469,-146,0,0,0,0,0,0,0,0,0,-1,755,1170,0,0
-462,-146,0,0,0,0,0,0,0,0,0,-1,762,1170,0,0
-455,-146,0,0,0,0,0,0,0,0,0,-1,769,1170,0,0
-448,-146,0,0,0,0,0,0,0,0,0,-1,776,1170,0,0
-441,-146,0,0,0,0,0,0,0,0,0,-1,783,1170,0,0
-434,-146,0,0,0,0,0,0,0,0,0,-1,790,1170,0,0
-427,-146,0,0,0,0,0,0,0,0,0,-1,797,1170,0,0
-420,-146,0,0,0,0,0,0,0,0,0,-1,804,1170,0,0
-413,-146,0,0,0,0,0,0,0,0,0,-1,811,1170,0,0
-406,-146,0,0,0,0,0,0,0,0,0,-1,818,1170,0,0
-399,-146,0,0,0,0,0,0,0,0,0,-1,825,1170,0,0
-392,-146,0,0,0,0,0,0,0,0,0,-1,832,1170,0,0
-385,-146,0,0,0,0,0,0,0,0,0,-1,839,1170,0,0
-378,-146,0,0,0,0,0,0,0,0,0,-1,846,1170,0,0
-371,-146,0,0,0,0,0,0,0,0,0,-1,853,1170,0,0
-364,-146,0,0,0,0,0,0,0,0,0,-1,860,1170,0,0
-357,-146,0,0,0,0,0,0,0,0,0,-1,867,1170,0,0
-350,-146,0,0,0,0,0,0,0,0,0,-1,874,1170,0,0
-343,-146,0,0,0,0,0,0,0,0,0,-1,881,1170,0,0
-336,-146,0,0,0,0,0,0,0,0,0,-1,888,1170,0,0
-329,-146,0,0,0,0,0,0,0,0,0,-1,895,1170,0,0
-322,-146,0,0,0,0,0,0,0,0,0,-1,902,1170,0,0
-315,-146,0,0,0,0,0,0,0,0,0,-1,909,1170,0,0
-308,-146,0,0,0,0,0,0,0,0,0,-1,916,1170,0,0
-301,-146,0,0,0,0,0,0,0,0,0,-1,923,1170,0,0
-294,-146,0,0,0,0,0,0,0,0,0,-1,930,1170,0,0
-287,-146,0,0,0,0,0,0,0,0,0,-1,937,1170,0,0
-280,-146,0,0,0,0,0,0,0,0,0,-1,944,1170,0,0
-273,-146,0,0,0,0,0,0,0,0,0,-1,951,1170,0,0
-266,-146,0,0,0,0,0,0,0,0,0,-1,958,1170,0,0
-259,-146,0,0,0,0,0,0,0,0,0,-1,965,1170,0,0
-252,-146,0,0,0,0,0,0,0,0,0,-1,972,1170,0,0
-245,-146,0,0,0,0,0,0,0,0,0,-1,979,1170,0,0
-238,-146,0,0,0,0,0,0,0,0,0,-1,986,1170,0,0
-231,-146,0,0,0,0,0,0,0,0,0,-1,993,1170,0,0
-224,-146,0,0,0,0,0,0,0,0,0,-1,1000,1170,0,0
-217,-146,0,0,0,0,0,0,0,0,0,-1,1007,1170,0,0
-210,-146,0,0,0,0,0,0,0,0,0,-1,1014,1170,0,0
-203,-146,0,0,0,0,0,0,0,0,0,-1,1021,1170,0,0
-196,-146,0,0,0,0,0,0,0,0,0,-1,1028,1170,0,0
-189,-146,0,0,0,0,0,0,0,0,0,-1,1035,1170,0,0
-182,-146,0,0,0,0,0,0,0,0,0,-1,1042,1170,0,0
-175,-146,0,0,0,0,0,0,0,0,0,-1,1049,1170,0,0
-168,-146,0,0,0,0,0,0,0,0,0,-1,1056,1170,0,0
-161,-146,0,0,0,0,0,0,0,0,0,-1,1063,1170,0,0
-154,-146,0,0,0,0,0,0,0,0,0,-1,1070,1170,0,0
-147,-146,0,0,0,0,0,0,0,0,0,-1,1077,1170,0,0
-140,-146,0,0,0,0,0,0,0,0,0,-1,1084,1170,0,0
-133,-146,0,0,0,0,0,0,0,0,0,-1,1091,1170,0,0
-126,-146,0,0,0,0,0,0,0,0,0,-1,1098,1170,0,0
-119,-146,0,0,0,0,0,0,0,0,0,-1,1105,1170,0,0
-112,-146,0,0,0,0,0,0,0,0,0,-1,1112,1170,0,0
-105,-146,0,0,0,0,0,0,0,0,0,-1,1119,1170,0,0
-98,-146,0,0,0,0,0,0,0,0,0,-1,1126,1170,0,0
-91,-146,0,0,0,0,0,0,0,0,0,-1,1133,1170,0,0
-84,-146,0,0,0,0,0,0,0,0,0,-1,1140,1170,0,0
-77,-146,0,0,0,0,0,0,0,0,0,-1,1147,1170,0,0
-70,-146,0,0,0,0,0,0,0,0,0,-1,1154,1170,0,0
-63,-146,0,0,0,0,0,0,0,0,0,-1,1161,1170,0,0
-56,-146,0,0,0,0,0,0,0,0,0,-1,1168,1170,0,0
-49,-146,0,0,0,0,0,0,0,0,0,-1,1175,1170,0,0
-42,-146,0,0,0,0,0,0,0,0,0,-1,1182,1170,0,0
-35,-146,0,0,0,0,0,0,0,0,0,-1,1189,1170,0,0
-28,-146,0,0,0,0,0,0,0,0,0,-1,1196,1170,0,0
-21,-146,0,0,0,0,0,0,0,0,0,-1,1203,1170,0,0
-14,-146,0,0,0,0,0,0,0,0,0,-1,1210,1170,0,0
-7,-146,0,0,0,0,0,0,0,0,0,-1,1217,1170,0,0
0,-146,0,0,0,0,0,0,0,0,0,-1,1224,1170,0,0
7,-146,0,0,0,0,0,0,0,0,0,-1,1231,1170,0,0
14,-146,0,0,0,0,0,0,0,0,0,-1,1238,1170,0,0
21,-146,0,0,0,0,0,0,0,0,0,-1,1245,1170,0,0
28,-146,0,0,0,0,0,0,0,0,0,-1,1252,1170,0,0
35,-146,0,0,0,0,0,0,0,0,0,-1,1259,1170,0,0
42,-146,0,0,0,0,0,0,0,0,0,-1,1266,1170,0,0
49,-146,0,0,0,0,0,0,0,0,0,-1,1273,1170,0,0
56,-146,0,0,0,0,0,0,0,0,0,-1,1280,1170,0,0
63,-146,0,0,0,0,0,0,0,0,0,-1,1287,1170,0,0
70,-146,0,0,0,0,0,0,0,0,0,-1,1294,1170,0,0
77,-146,0,0,0,0,0,0,0,0,0,-1,1301,1170,0,0
84,-146,0,0,0,0,0,0,0,0,0,-1,1308,1170,0,0
91,-146,0,0,0,0,0,0,0,0,0,-1,1315,1170,0,0
98,-146,0,0,0,0,0,0,0,0,0,-1,1322,1170,0,0
105,-146,0,0,0,0,0,0,0,0,0,-1,1329,1170,0,0
112,-146,0,0,0,0,0,0,0,0,0,-1,1336,1170,0,0
119,-146,0,0,0,0,0,0,0,0,0,-1,1343,1170,0,0
126,-146,0,0,0,0,0,0,0,0,0,-1,1350,1170,0,0
133,-146,0,0,0,0,0,0,0,0,0,-1,1357,1170,0,0
140,-146,0,0,0,0,0,0,0,0,0,-1,1364,1170,0,0
147,-146,0,0,0,0,0,0,0,0,0,-1,1371,1170,0,0
154,-146,0,0,0,0,0,0,0,0,0,-1,1378,1170,0,0
161,-146,0,0,0,0,0,0,0,0,0,-1,1385,1170,0,0
168,-146,0,0,0,0,0,0,0,0,0,-1,1392,1170,0,0
175,-146,0,0,0,0,0,0,0,0,0,-1,1399,1170,0,0
182,-146,0,0,0,0,0,0,0,0,0,-1,1406,1170,0,0
189,-146,0,0,0,0,0,0,0,0,0,-1,1413,1170,0,0
196,-146,0,0,0,0,0,0,0,0,0,-1,1420,1170,0,0
203,-146,0,0,0,0,0,0,0,0,0,-1,1427,1170,0,0
210,-146,0,0,0,0,0,0,0,0,0,-1,1434,1170,0,0
217,-146,0,0,0,0,0,0,0,0,0,-1,1441,1170,0,0
224,-146,0,0,0,0,0,0,0,0,0,-1,1448,1170,0,0
231,-146,0,0,0,0,0,0,0,0,0,-1,1455,1170,0,0
238,-146,0,0,0,0,0,0,0,0,0,-1,1462,1170,0,0
245,-146,0,0,0,0,0,0,0,0,0,-1,1469,1170,0,0
252,-146,0,0,0,0,0,0,0,0,0,-1,1476,1170,0,0
259,-146,0,0,0,0,0,0,0,0,0,-1,1483,1170,0,0
266,-146,0,0,0,0,0,0,0,0,0,-1,1490,1170,0,0
273,-146,0,0,0,0,0,0,0,0,0,-1,1497,1170,0,0
280,-146,0,0,0,0,0,0,0,0,0,-1,1504,1170,0,0
287,-146,0,0,0,0,0,0,0,0,0,-1,1511,1170,0,0
294,-146,0,0,0,0,0,0,0,0,0,-1,1518,1170,0,0
301,-146,0,0,0,0,0,0,0,0,0,-1,1525,1170,0,0
308,-146,0,0,0,0,0,0,0,0,0,-1,1532,1170,0,0
315,-146,0,0,0,0,0,0,0,0,0,-1,1539,1170,0,0
322,-146,0,0,0,0,0,0,0,0,0,-1,1546,1170,0,0
329,-146,0,0,0,0,0,0,0,0,0,-1,1553,1170,0,0
336,-146,0,0,0,0,0,0,0,0,0,-1,1560,1170,0,0
343,-146,0,0,0,0,0,0,0,0,0,-1,1567,1170,0,0
350,-146,0,0,0,0,0,0,0,0,0,-1,1574,1170,0,0
357,-146,0,0,0,0,0,0,0,0,0,-1,1581,1170,0,0
364,-146,0,0,0,0,0,0,0,0,0,-1,1588,1170,0,0
371,-146,0,0,0,0,0,0,0,0,0,-1,1595,1170,0,0
378,-146,0,0,0,0,0,0,0,0,0,-1,1602,1170,0,0
385,-146,0,0,0,0,0,0,0,0,0,-1,1609,1170,0,0
392,-146,0,0,0,0,0,0,0,0,0,-1,1616,1170,0,0
399,-146,0,0,0,0,0,0,0,0,0,-1,1623,1170,0,0
406,-146,0,0,0,0,0,0,0,0,0,-1,1630,1170,0,0
413,-146,0,0,0,0,0,0,0,0,0,-1,1637,1170,0,0
420,-146,0,0,0,0,0,0,0,0,0,-1,1644,1170,0,0
427,-146,0,0,0,0,0,0,0,0,0,-1,1651,1170,0,0
434,-146,0,0,0,0,0,0,0,0,0,-1,1658,1170,0,0
441,-146,0,0,0,0,0,0,0,0,0,-1,1665,1170,0,0
448,-146,0,0,0,0,0,0,0,0,0,-1,1672,1170,0,0
455,-146,0,0,0,0,0,0,0,0,0,-1,1679,1170,0,0
462,-146,0,0,0,0,0,0,0,0,0,-1,1686,1170,0,0
469,-146,0,0,0,0,0,0,0,0,0,-1,1693,1170,0,0
476,-146,0,0,0,0,0,0,0,0,0,-1,1700,1170,0,0
483,-146,0,0,0,0,0,0,0,0,0,-1,1707,1170,0,0
490,-146,0,0,0,0,0,0,0,0,0,-1,1714,1170,0,0
497,-146,0,0,0,0,0,0,0,0,0,-1,1721,1170,0,0
504,-146,0,0,0,0,0,0,0,0,0,-1,1728,1170,0,0
511,-146,0,0,0,0,0,0,0,0,0,-1,1735,1170,0,0
518,-146,0,0,0,0,0,0,0,0,0,-1,1742,1170,0,0
525,-146,0,0,0,0,0,0,0,0,0,-1,1749,1170,0,0
532,-146,0,0,0,0,0,0,0,0,0,-1,1756,1170,0,0
539,-146,0,0,0,0,0,0,0,0,0,-1,1763,1170,0,0
546,-146,0,0,0,0,0,0,0,0,0,-1,1770,1170,0,0
553,-146,0,0,0,0,0,0,0,0,0,-1,1777,1170,0,0
560,-146,0,0,0,0,0,0,0,0,0,-1,1784,1170,0,0
567,-146,0,0,0,0,0,0,0,0,0,-1,1791,1170,0,0
574,-146,0,0,0,0,0,0,0,0,0,-1,1798,1170,0,0
581,-146,0,0,0,0,0,0,0,0,0,-1,1805,1170,0,0
588,-146,0,0,0,0,0,0,0,0,0,-1,1812,1170,0,0
595,-146,0,0,0,0,0,0,0,0,0,-1,1819,1170,0,0
602,-146,0,0,0,0,0,0,0,0,0,-1,1826,1170,0,0
609,-146,0,0,0,0,0,0,0,0,0,-1,1833,1170,0,0
616,-146,0,0,0,0,0,0,0,0,0,-1,1840,1170,0,0
623,-146,0,0,0,0,0,0,0,0,0,-1,1847,1170,0,0
630,-146,0,0,0,0,0,0,0,0,0,-1,1854,1170,0,0
637,-146,82.1025,2.23718,-0.00115667,-2.90182e-05,-0.00410183,0.00354755,-0.00473324,-0.853699,0.00479723,0.0412762,1861,1170,82.1025,-2.23723
644,-146,82.0826,2.21777,-0.00108527,0.000221527,-0.00301847,0.00265651,-0.00352025,-0.891987,0.00357776,0.0404473,1868,1170,82.0827,-2.21775
651,-146,81.9862,2.20251,-0.00104589,0.000692474,-0.00237119,0.00234876,-0.00270218,-0.961074,0.00291854,0.0363349,1875,1170,81.9862,-2.20257
658,-146,81.995,2.22583,-0.000930404,0.00119735,-0.00194988,0.0023547,-0.00208775,-1.03513,0.0025664,0.0382338,1882,1170,81.995,-2.22578
665,-146,82.0714,2.32336,-0.000828175,0.00180027,-0.00172933,0.00265809,-0.00168599,-1.11032,0.00252891,0.0393855,1889,1170,82.0714,-2.32339
672,-146,82.1207,2.40894,-0.000744127,0.00252914,-0.0017018,0.00325358,-0.00146857,-1.16834,0.00279051,0.038502,1896,1170,82.1208,-2.40899
679,-146,82.1141,2.35303,-0.00049747,0.00250944,-0.00152101,0.00314464,-0.00113267,-1.17519,0.00255895,0.0334613,1903,1170,82.1141,-2.35307
686,-146,81.9486,2.27551,0.000467305,0.00271159,-0.0014333,0.00340976,-0.000230869,-1.11751,0.00235391,0.0246319,1910,1170,81.9487,-2.27555
693,-146,82.0011,2.229,0.000964522,0.00234834,-0.00107666,0.00293625,0.000376614,-1.07099,0.00184482,0.0205858,1917,1170,82.0011,-2.22895
700,-146,82.0396,2.17383,0,0,0,0,0,0,0,-1,1924,1170,82.0396,-2.17381
707,-146,29.9441,6.94653,0,0,0,0,0,0,0,-1,1931,1170,29.9441,-6.94652
714,-146,31.325,6.13245,0,0,0,0,0,0,0,-1,1938,1170,31.325,-6.1325
721,-146,61.3608,9.47766,0,0,0,0,0,0,0,-1,1945,1170,61.3608,-9.47767
728,-146,71.3983,10.7817,0,0,0,0,0,0,0,-1,1952,1170,71.3983,-10.7817
735,-146,71.3536,9.61743,0.00177459,0.00155394,0.000843157,0.00251461,0.000813921,0.720343,0.0014816,0.0420131,1959,1170,71.3536,-9.61741
742,-146,71.5145,8.82849,0.00194651,0.0011715,0.00158873,0.00319431,-7.62956e-05,0.665779,0.00215542,0.0217959,1966,1170,71.5145,-8.82852
749,-146,71.3241,8.19617,0.00112566,0.00154031,0.00243938,0.00378116,-0.00111518,0.827792,0.00296329,0.0177849,1973,1170,71.3241,-8.19619
756,-146,71.2612,7.4668,0.000477458,0.00406994,0.00261939,0.00544982,-0.000902415,1.08595,0.00396837,0.013035,1980,1170,71.2611,-7.46684
763,-146,71.1958,6.72131,0.00063132,0.00784303,0.00228978,0.00850862,-3.42778e-05,1.28791,0.00568388,0.0125993,1987,1170,71.1957,-6.72129
770,-146,71.1482,6.00623,0.00158861,0.0127984,0.00141381,0.0129739,0.00141304,1.44725,0.00821887,0.0137085,1994,1170,71.1483,-6.00618
777,-146,71.1653,5.43494,0.00349263,0.0193703,-0.000228324,0.0193736,0.00348935,-1.55642,0.011924,0.0254102,2001,1170,71.1652,-5.43499
784,-146,71.1665,5.00232,0.00703979,0.028493,-0.00305334,0.0289191,0.00661369,-1.43214,0.0174966,0.0458076,2008,1170,71.1664,-5.00233
791,-146,71.3291,4.3457,0,0,0,0,0,0,0,-1,2015,1170,71.3291,-4.34571
798,-146,71.3936,3.76624,0,0,0,0,0,0,0,-1,2022,1170,71.3936,-3.76619
805,-146,71.4946,3.24622,0,0,0,0,0,0,0,-1,2029,1170,71.4946,-3.24626
812,-146,0,0,0,0,0,0,0,0,0,-1,2036,1170,0,0
-700,-153,0,0,0,0,0,0,0,0,0,-1,524,1177,0,0
-693,-153,0,0,0,0,0,0,0,0,0,-1,531,1177,0,0
-686,-153,-59.5099,5.98987,0,0,0,0,0,0,0,-1,538,1177,-59.5099,-5.98992
-679,-153,-57.3829,6.16895,0,0,0,0,0,0,0,-1,545,1177,-57.3829,-6.1689
-672,-153,-57.7264,7.4939,0,0,0,0,0,0,0,-1,552,1177,-57.7264,-7.49387
-665,-153,-57.8772,8.5625,0,0,0,0,0,0,0,-1,559,1177,-57.8772,-8.56255
-658,-153,-57.9833,9.84338,0,0,0,0,0,0,0,-1,566,1177,-57.9833,-9.84335
-651,-153,-53.8453,4.08252,0,0,0,0,0,0,0,-1,573,1177,-53.8454,-4.08247
-644,-153,-53.9703,4.89502,0.0347157,0.0296782,0.0220742,0.0544144,0.00997958,0.728592,0.0334497,0.0352358,580,1177,-53.9703,-4.89502
-637,-153,-54.1113,5.70959,0.016824,0.0188229,0.0118374,0.029703,0.00594395,0.827515,0.0181481,0.0147585,587,1177,-54.1113,-5.70959
-630,-153,-54.1702,6.49805,0.00238769,0.00963413,0.00297633,0.0106999,0.00132196,1.22695,0.00673597,0.0110121,594,1177,-54.1702,-6.4981
-623,-153,-54.2209,7.27966,-0.00746889,0.00244191,-0.00376724,0.00371131,-0.00873829,-1.24579,0.00738051,0.0129399,601,1177,-54.2209,-7.27966
-616,-153,-54.3239,8.00891,-0.00948944,0.000316619,-0.00605483,0.00320466,-0.0123775,-1.12573,0.00950175,0.016615,608,1177,-54.3239,-8.00892
-609,-153,-54.7689,8.68018,0,0,0,0,0,0,0,-1,615,1177,-54.7689,-8.68018
-602,-153,-50.7079,7.54736,0,0,0,0,0,0,0,-1,622,1177,-50.7079,-7.54741
-595,-153,-43.9551,7.35718,0,0,0,0,0,0,0,-1,629,1177,-43.9551,-7.35722
-588,-153,-32.348,5.51038,0,0,0,0,0,0,0,-1,636,1177,-32.348,-5.51034
-581,-153,-33.4568,6.41492,0,0,0,0,0,0,0,-1,643,1177,-33.4568,-6.41497
-574,-153,-25.4814,5.16956,0,0,0,0,0,0,0,-1,650,1177,-25.4814,-5.16961
-567,-153,-35.3121,1.09485,0,0,0,0,0,0,0,-1,657,1177,-35.3121,-1.09482
-560,-153,-65.1465,0.748291,0,0,0,0,0,0,0,-1,664,1177,-65.1465,-0.748297
-553,-153,-64.9764,0.487671,0.00544476,-0.00314612,-0.00636126,0.00882503,-0.00652638,-0.488438,0.0088962,0.0385652,671,1177,-64.9764,-0.487722
-546,-153,-64.8695,0.369629,0.0041632,-0.00307082,-0.00532242,0.00698132,-0.00588894,-0.486953,0.00743956,0.0384956,678,1177,-64.8695,-0.36958
-539,-153,-64.8751,0.184814,0.00187489,-0.000884086,-0.00157681,0.00259047,-0.00159967,-0.426024,0.00244162,0.0393251,685,1177,-64.8751,-0.184805
-532,-153,-64.981,0.283569,3.44447e-05,0.00151571,0.00162757,0.00256324,-0.00101308,0.998923,0.00212846,0.0438296,692,1177,-64.981,-0.283592
-525,-153,-65.2126,0.646973,-0.00125607,0.00417462,0.00424266,0.00649646,-0.00357791,1.07006,0.00589724,0.0432979,699,1177,-65.2126,-0.646934
-518,-153,0,0,0,0,0,0,0,0,0,-1,706,1177,0,0
-511,-153,0,0,0,0,0,0,0,0,0,-1,713,1177,0,0
-504,-153,0,0,0,0,0,0,0,0,0,-1,720,1177,0,0
-497,-153,0,0,0,0,0,0,0,0,0,-1,727,1177,0,0
-490,-153,0,0,0,0,0,0,0,0,0,-1,734,1177,0,0
-483,-153,0,0,0,0,0,0,0,0,0,-1,741,1177,0,0
-476,-153,0,0,0,0,0,0,0,0,0,-1,748,1177,0,0
-469,-153,0,0,0,0,0,0,0,0,0,-1,755,1177,0,0
-462,-153,0,0,0,0,0,0,0,0,0,-1,762,1177,0,0
-455,-153,0,0,0,0,0,0,0,0,0,-1,769,1177,0,0
-448,-153,0,0,0,0,0,0,0,0,0,-1,776,1177,0,0
-441,-153,0,0,0,0,0,0,0,0,0,-1,783,1177,0,0
-434,-153,0,0,0,0,0,0,0,0,0,-1,790,1177,0,0
-427,-153,0,0,0,0,0,0,0,0,0,-1,797,1177,0,0
-420,-153,0,0,0,0,0,0,0,0,0,-1,804,1177,0,0
-413,-153,0,0,0,0,0,0,0,0,0,-1,811,1177,0,0
-406,-153,0,0,0,0,0,0,0,0,0,-1,818,1177,0,0
-399,-153,0,0,0,0,0,0,0,0,0,-1,825,1177,0,0
-392,-153,0,0,0,0,0,0,0,0,0,-1,832,1177,0,0
-385,-153,0,0,0,0,0,0,0,0,0,-1,839,1177,0,0
-378,-153,0,0,0,0,0,0,0,0,0,-1,846,1177,0,0
-371,-153,0,0,0,0,0,0,0,0,0,-1,853,1177,0,0
-364,-153,0,0,0,0,0,0,0,0,0,-1,860,1177,0,0
-357,-153,0,0,0,0,0,0,0,0,0,-1,867,1177,0,0
-350,-153,0,0,0,0,0,0,0,0,0,-1,874,1177,0,0
-343,-153,0,0,0,0,0,0,0,0,0,-1,881,1177,0,0
-336,-153,0,0,0,0,0,0,0,0,0,-1,888,1177,0,0
-329,-153,0,0,0,0,0,0,0,0,0,-1,895,1177,0,0
-322,-153,0,0,0,0,0,0,0,0,0,-1,902,1177,0,0
-315,-153,0,0,0,0,0,0,0,0,0,-1,909,1177,0,0
-308,-153,0,0,0,0,0,0,0,0,0,-1,916,1177,0,0
-301,-153,0,0,0,0,0,0,0,0,0,-1,923,1177,0,0
-294,-153,0,0,0,0,0,0,0,0,0,-1,930,1177,0,0
-287,-153,0,0,0,0,0,0,0,0,0,-1,937,1177,0,0
-280,-153,0,0,0,0,0,0,0,0,0,-1,944,1177,0,0
-273,-153,0,0,0,0,0,0,0,0,0,-1,951,1177,0,0
-266,-153,0,0,0,0,0,0,0,0,0,-1,958,1177,0,0
-259,-153,0,0,0,0,0,0,0,0,0,-1,965,1177,0,0
-252,-153,0,0,0,0,0,0,0,0,0,-1,972,1177,0,0
-245,-153,0,0,0,0,0,0,0,0,0,-1,979,1177,0,0
-238,-153,0,0,0,0,0,0,0,0,0,-1,986,1177,0,0
-231,-153,0,0,0,0,0,0,0,0,0,-1,993,1177,0,0
-224,-153,0,0,0,0,0,0,0,0,0,-1,1000,1177,0,0
-217,-153,0,0,0,0,0,0,0,0,0,-1,1007,1177,0,0
-210,-153,0,0,0,0,0,0,0,0,0,-1,1014,1177,0,0
-203,-153,0,0,0,0,0,0,0,0,0,-1,1021,1177,0,0
-196,-153,0,0,0,0,0,0,0,0,0,-1,1028,1177,0,0
-189,-153,0,0,0,0,0,0,0,0,0,-1,1035,1177,0,0
-182,-153,0,0,0,0,0,0,0,0,0,-1,1042,1177,0,0
-175,-153,0,0,0,0,0,0,0,0,0,-1,1049,1177,0,0
-168,-153,0,0,0,0,0,0,0,0,0,-1,1056,1177,0,0
-161,-153,0,0,0,0,0,0,0,0,0,-1,1063,1177,0,0
-154,-153,0,0,0,0,0,0,0,0,0,-1,1070,1177,0,0
-147,-153,0,0,0,0,0,0,0,0,0,-1,1077,1177,0,0
-140,-153,0,0,0,0,0,0,0,0,0,-1,1084,1177,0,0
-133,-153,0,0,0,0,0,0,0,0,0,-1,1091,1177,0,0
-126,-153,0,0,0,0,0,0,0,0,0,-1,1098,1177,0,0
-119,-153,0,0,0,0,0,0,0,0,0,-1,1105,1177,0,0
-112,-153,0,0,0,0,0,0,0,0,0,-1,1112,1177,0,0
-105,-153,0,0,0,0,0,0,0,0,0,-1,1119,1177,0,0
-98,-153,0,0,0,0,0,0,0,0,0,-1,1126,1177,0,0
-91,-153,0,0,0,0,0,0,0,0,0,-1,1133,1177,0,0
-84,-153,0,0,0,0,0,0,0,0,0,-1,1140,1177,0,0
-77,-153,0,0,0,0,0,0,0,0,0,-1,1147,1177,0,0
-70,-153,0,0,0,0,0,0,0,0,0,-1,1154,1177,0,0
-63,-153,0,0,0,0,0,0,0,0,0,-1,1161,1177,0,0
-56,-153,0,0,0,0,0,0,0,0,0,-1,1168,1177,0,0
-49,-153,0,0,0,0,0,0,0,0,0,-1,1175,1177,0,0
-42,-153,0,0,0,0,0,0,0,0,0,-1,1182,1177,0,0
-35,-153,0,0,0,0,0,0,0,0,0,-1,1189,1177,0,0
-28,-153,0,0,0,0,0,0,0,0,0,-1,1196,1177,0,0
-21,-153,0,0,0,0,0,0,0,0,0,-1,1203,1177,0,0
-14,-153,0,0,0,0,0,0,0,0,0,-1,1210,1177,0,0
-7,-153,0,0,0,0,0,0,0,0,0,-1,1217,1177,0,0
0,-153,0,0,0,0,0,0,0,0,0,-1,1224,1177,0,0
7,-153,0,0,0,0,0,0,0,0,0,-1,1231,1177,0,0
14,-153,0,0,0,0,0,0,0,0,0,-1,1238,1177,0,0
21,-153,0,0,0,0,0,0,0,0,0,-1,1245,1177,0,0
28,-153,0,0,0,0,0,0,0,0,0,-1,1252,1177,0,0
35,-153,0,0,0,0,0,0,0,0,0,-1,1259,1177,0,0
42,-153,0,0,0,0,0,0,0,0,0,-1,1266,1177,0,0
49,-153,0,0,0,0,0,0,0,0,0,-1,1273,1177,0,0
56,-153,0,0,0,0,0,0,0,0,0,-1,1280,1177,0,0
63,-153,0,0,0,0,0,0,0,0,0,-1,1287,1177,0,0
70,-153,0,0,0,0,0,0,0,0,0,-1,1294,1177,0,0
77,-153,0,0,0,0,0,0,0,0,0,-1,1301,1177,0,0
84,-153,0,0,0,0,0,0,0,0,0,-1,1308,1177,0,0
91,-153,0,0,0,0,0,0,0,0,0,-1,1315,1177,0,0
98,-153,0,0,0,0,0,0,0,0,0,-1,1322,1177,0,0
105,-153,0,0,0,0,0,0,0,0,0,-1,1329,1177,0,0
112,-153,0,0,0,0,0,0,0,0,0,-1,1336,1177,0,0
119,-153,0,0,0,0,0,0,0,0,0,-1,1343,1177,0,0
126,-153,0,0,0,0,0,0,0,0,0,-1,1350,1177,0,0
133,-153,0,0,0,0,0,0,0,0,0,-1,1357,1177,0,0
140,-153,0,0,0,0,0,0,0,0,0,-1,1364,1177,0,0
147,-153,0,0,0,0,0,0,0,0,0,-1,1371,1177,0,0
154,-153,0,0,0,0,0,0,0,0,0,-1,1378,1177,0,0
161,-153,0,0,0,0,0,0,0,0,0,-1,1385,1177,0,0
168,-153,0,0,0,0,0,0,0,0,0,-1,1392,1177,0,0
175,-153,0,0,0,0,0,0,0,0,0,-1,1399,1177,0,0
182,-153,0,0,0,0,0,0,0,0,0,-1,1406,1177,0,0
189,-153,0,0,0,0,0,0,0,0,0,-1,1413,1177,0,0
196,-153,0,0,0,0,0,0,0,0,0,-1,1420,1177,0,0
203,-153,0,0,0,0,0,0,0,0,0,-1,1427,1177,0,0
210,-153,0,0,0,0,0,0,0,0,0,-1,1434,1177,0,0
217,-153,0,0,0,0,0,0,0,0,0,-1,1441,1177,0,0
224,-153,0,0,0,0,0,0,0,0,0,-1,1448,1177,0,0
231,-153,0,0,0,0,0,0,0,0,0,-1,1455,1177,0,0
238,-153,0,0,0,0,0,0,0,0,0,-1,1462,1177,0,0
245,-153,0,0,0,0,0,0,0,0,0,-1,1469,1177,0,0
252,-153,0,0,0,0,0,0,0,0,0,-1,1476,1177,0,0
259,-153,0,0,0,0,0,0,0,0,0,-1,1483,1177,0,0
266,-153,0,0,0,0,0,0,0,0,0,-1,1490,1177,0,0
273,-153,0,0,0,0,0,0,0,0,0,-1,1497,1177,0,0
280,-153,0,0,0,0,0,0,0,0,0,-1,1504,1177,0,0
287,-153,0,0,0,0,0,0,0,0,0,-1,1511,1177,0,0
294,-153,0,0,0,0,0,0,0,0,0,-1,1518,1177,0,0
301,-153,0,0,0,0,0,0,0,0,0,-1,1525,1177,0,0
308,-153,0,0,0,0,0,0,0,0,0,-1,1532,1177,0,0
315,-153,0,0,0,0,0,0,0,0,0,-1,1539,1177,0,0
322,-153,0,0,0,0,0,0,0,0,0,-1,1546,1177,0,0
329,-153,0,0,0,0,0,0,0,0,0,-1,1553,1177,0,0
336,-153,0,0,0,0,0,0,0,0,0,-1,1560,1177,0,0
343,-153,0,0,0,0,0,0,0,0,0,-1,1567,1177,0,0
350,-153,0,0,0,0,0,0,0,0,0,-1,1574,1177,0,0
357,-153,0,0,0,0,0,0,0,0,0,-1,1581,1177,0,0
364,-153,0,0,0,0,0,0,0,0,0,-1,1588,1177,0,0
371,-153,0,0,0,0,0,0,0,0,0,-1,1595,1177,0,0
378,-153,0,0,0,0,0,0,0,0,0,-1,1602,1177,0,0
385,-153,0,0,0,0,0,0,0,0,0,-1,1609,1177,0,0
392,-153,0,0,0,0,0,0,0,0,0,-1,1616,1177,0,0
399,-153,0,0,0,0,0,0,0,0,0,-1,1623,1177,0,0
406,-153,0,0,0,0,0,0,0,0,0,-1,1630,1177,0,0
413,-153,0,0,0,0,0,0,0,0,0,-1,1637,1177,0,0
420,-153,0,0,0,0,0,0,0,0,0,-1,1644,1177,0,0
427,-153,0,0,0,0,0,0,0,0,0,-1,1651,1177,0,0
434,-153,0,0,0,0,0,0,0,0,0,-1,1658,1177,0,0
441,-153,0,0,0,0,0,0,0,0,0,-1,1665,1177,0,0
448,-153,0,0,0,0,0,0,0,0,0,-1,1672,1177,0,0
455,-153,0,0,0,0,0,0,0,0,0,-1,1679,1177,0,0
462,-153,0,0,0,0,0,0,0,0,0,-1,1686,1177,0,0
469,-153,0,0,0,0,0,0,0,0,0,-1,1693,1177,0,0
476,-153,0,0,0,0,0,0,0,0,0,-1,1700,1177,0,0
483,-153,0,0,0,0,0,0,0,0,0,-1,1707,1177,0,0
490,-153,0,0,0,0,0,0,0,0,0,-1,1714,1177,0,0
497,-153,0,0,0,0,0,0,0,0,0,-1,1721,1177,0,0
504,-153,0,0,0,0,0,0,0,0,0,-1,1728,1177,0,0
511,-153,0,0,0,0,0,0,0,0,0,-1,1735,1177,0,0
518,-153,0,0,0,0,0,0,0,0,0,-1,1742,1177,0,0
525,-153,0,0,0,0,0,0,0,0,0,-1,1749,1177,0,0
532,-153,0,0,0,0,0,0,0,0,0,-1,1756,1177,0,0
539,-153,0,0,0,0,0,0,0,0,0,-1,1763,1177,0,0
546,-153,0,0,0,0,0,0,0,0,0,-1,1770,1177,0,0
553,-153,0,0,0,0,0,0,0,0,0,-1,1777,1177,0,0
560,-153,0,0,0,0,0,0,0,0,0,-1,1784,1177,0,0
567,-153,0,0,0,0,0,0,0,0,0,-1,1791,1177,0,0
574,-153,0,0,0,0,0,0,0,0,0,-1,1798,1177,0,0
581,-153,0,0,0,0,0,0,0,0,0,-1,1805,1177,0,0
588,-153,0,0,0,0,0,0,0,0,0,-1,1812,1177,0,0
595,-153,0,0,0,0,0,0,0,0,0,-1,1819,1177,0,0
602,-153,0,0,0,0,0,0,0,0,0,-1,1826,1177,0,0
609,-153,0,0,0,0,0,0,0,0,0,-1,1833,1177,0,0
616,-153,0,0,0,0,0,0,0,0,0,-1,1840,1177,0,0
623,-153,0,0,0,0,0,0,0,0,0,-1,1847,1177,0,0
630,-153,0,0,0,0,0,0,0,0,0,-1,1854,1177,0,0
637,-153,82.0759,2.29749,-0.00189185,0.000398407,-0.00349728,0.00293326,-0.0044267,-0.943614,0.00427834,0.0406666,1861,1177,82.0759,-2.29747
644,-153,82.145,2.24756,-0.00174117,0.000597951,-0.00254392,0.00222828,-0.0033715,-1.00086,0.00325541,0.0394816,1868,1177,82.1451,-2.24759
651,-153,82.0828,2.23682,-0.00154231,0.00104761,-0.00200928,0.00214308,-0.00263778,-1.07164,0.00276515,0.0316548,1875,1177,82.0828,-2.23679
658,-153,82.0056,2.19714,-0.0012636,0.00159256,-0.00171946,0.00239964,-0.00207068,-1.13194,0.00258327,0.0363175,1882,1177,82.0056,-2.1972
665,-153,82.0193,2.35181,-0.00103042,0.00229534,-0.00159514,0.00293673,-0.00167181,-1.18849,0.00269394,0.0375941,1889,1177,82.0193,-2.35178
672,-153,82.0121,2.3811,-0.000831116,0.00322977,-0.00165355,0.0038179,-0.00141925,-1.22907,0.0031276,0.036793,1896,1177,82.0121,-2.38106
679,-153,82.0192,2.31909,-0.000527396,0.00338367,-0.0015695,0.00393561,-0.00107934,-1.23264,0.00304791,0.029871,1903,1177,82.0191,-2.31912
686,-153,81.9979,2.30017,0.000480306,0.00356828,-0.00150118,0.00417776,-0.000129182,-1.18512,0.00282922,0.0192905,1910,1177,81.998,-2.30014
693,-153,81.9918,2.13721,0,0,0,0,0,0,0,-1,1917,1177,81.9918,-2.13724
700,-153,79.9266,2.01807,0,0,0,0,0,0,0,-1,1924,1177,79.9267,-2.01805
707,-153,29.6483,6.6842,0,0,0,0,0,0,0,-1,1931,1177,29.6483,-6.68415
714,-153,36.0046,6.78418,0,0,0,0,0,0,0,-1,1938,1177,36.0046,-6.78418
721,-153,36.4866,6.47595,0,0,0,0,0,0,0,-1,1945,1177,36.4866,-6.47593
728,-153,47.7305,7.37024,0,0,0,0,0,0,0,-1,1952,1177,47.7304,-7.37022
735,-153,70.5195,9.68091,0,0,0,0,0,0,0,-1,1959,1177,70.5195,-9.68087
742,-153,70.5924,9.00452,0.00211984,0.00170176,0.00147763,0.00340314,0.000418455,0.715129,0.00214294,0.0215232,1966,1177,70.5924,-9.00448
749,-153,70.5763,8.27393,0.00133946,0.00202412,0.00221893,0.00392697,-0.000563389,0.861933,0.00282457,0.0184805,1973,1177,70.5762,-8.27397
756,-153,70.5249,7.50903,0.000670861,0.00423656,0.00244226,0.00547748,-0.000570063,1.10069,0.00385575,0.0127081,1980,1177,70.525,-7.50898
763,-153,70.4531,6.7644,0.000643306,0.00739444,0.00236195,0.00813873,-0.000100987,1.26553,0.00545979,0.0123702,1987,1177,70.453,-6.76437
770,-153,70.4219,6.03552,0.00130959,0.0116043,0.00189356,0.0119415,0.000972346,1.39454,0.00765749,0.0134082,1994,1177,70.4219,-6.03549
777,-153,70.3599,5.40979,0.00285889,0.017238,0.000794151,0.0172817,0.00281516,1.51579,0.0107069,0.027291,2001,1177,70.3598,-5.40977
784,-153,70.4407,4.95251,0.00595538,0.0249256,-0.00122211,0.025004,0.00587697,-1.50673,0.0150966,0.0491705,2008,1177,70.4407,-4.95253
791,-153,70.4514,4.6156,0,0,0,0,0,0,0,-1,2015,1177,70.4514,-4.61557
798,-153,70.489,3.96948,0,0,0,0,0,0,0,-1,2022,1177,70.4891,-3.96944
805,-153,70.0046,2.59131,0,0,0,0,0,0,0,-1,2029,1177,70.0047,-2.59136
812,-153,0,0,0,0,0,0,0,0,0,-1,2036,1177,0,0
-700,-160,0,0,0,0,0,0,0,0,0,-1,524,1184,0,0
-693,-160,0,0,0,0,0,0,0,0,0,-1,531,1184,0,0
-686,-160,-56.2603,4.36707,0,0,0,0,0,0,0,-1,538,1184,-56.2603,-4.36708
-679,-160,-56.665,5.39478,0,0,0,0,0,0,0,-1,545,1184,-56.665,-5.39481
-672,-160,-57.328,6.57703,0,0,0,0,0,0,0,-1,552,1184,-57.328,-6.57697
-665,-160,-57.8454,7.52563,0,0,0,0,0,0,0,-1,559,1184,-57.8454,-7.52563
-658,-160,-53.2408,7.34534,0,0,0,0,0,0,0,-1,566,1184,-53.2409,-7.34539
-651,-160,-53.2776,4.04919,0,0,0,0,0,0,0,-1,573,1184,-53.2777,-4.04922
-644,-160,-53.2064,4.89307,0.0323977,0.0291362,0.021861,0.0526887,0.00884517,0.748169,0.0325801,0.0420715,580,1184,-53.2064,-4.89303
-637,-160,-53.2761,5.73608,0.0157366,0.0184122,0.0118296,0.0289794,0.00516941,0.841705,0.0178478,0.0178893,587,1184,-53.276,-5.73603
-630,-160,-53.3928,6.48279,0.00308065,0.00960924,0.00344631,0.0110918,0.00159809,1.16454,0.00692359,0.0100951,594,1184,-53.3928,-6.48273
-623,-160,-53.4592,7.26624,-0.00518389,0.00300048,-0.00268855,0.00380465,-0.00598805,-1.28016,0.00570047,0.0153374,601,1184,-53.4592,-7.26621
-616,-160,-53.535,8.06128,-0.00723884,0.000526275,-0.00523759,0.00316342,-0.00987599,-1.10435,0.00785378,0.0140967,608,1184,-53.535,-8.06126
-609,-160,-53.7753,8.78162,-0.00402096,0.00114475,-0.00551471,0.00465149,-0.0075277,-1.00441,0.00709672,0.0312501,615,1184,-53.7753,-8.7816
-602,-160,-54.0884,9.51135,0,0,0,0,0,0,0,-1,622,1184,-54.0884,-9.5113
-595,-160,-33.0669,5.93445,0,0,0,0,0,0,0,-1,629,1184,-33.0669,-5.93446
-588,-160,-33.4845,5.66699,0,0,0,0,0,0,0,-1,636,1184,-33.4845,-5.66697
-581,-160,-33.1338,6.41174,0,0,0,0,0,0,0,-1,643,1184,-33.1338,-6.41176
-574,-160,-32.7831,7.15649,0,0,0,0,0,0,0,-1,650,1184,-32.7831,-7.15655
-567,-160,-29.5828,0.643921,0,0,0,0,0,0,0,-1,657,1184,-29.5828,-0.643968
-560,-160,-57.0784,0.200806,0,0,0,0,0,0,0,-1,664,1184,-57.0784,-0.200768
-553,-160,-65.0242,0.652222,0,0,0,0,0,0,0,-1,671,1184,-65.0242,-0.652206
-546,-160,-64.975,0.476807,0.00450794,-0.00416419,-0.00534898,0.00705759,-0.00671383,-0.444802,0.00795176,0.0371619,678,1184,-64.975,-0.476758
-539,-160,-64.8794,0.2948,0.00271154,-0.00192753,-0.00243491,0.0037549,-0.00297088,-0.404831,0.00389192,0.0395811,685,1184,-64.8794,-0.294809
-532,-160,-64.8987,0.343384,0.00112877,0.00112918,0.000384689,0.00151366,0.000744286,0.785661,0.000873955,0.0455731,692,1184,-64.8987,-0.343386
-525,-160,-65.1511,0.752808,0.000215083,0.00446122,0.00256612,0.00566868,-0.000992376,1.13099,0.00414966,0.0450266,699,1184,-65.1511,-0.752811
-518,-160,-64.8749,0.469971,6.01369e-05,0.00812805,0.00408439,0.00983474,-0.00164656,1.17499,0.00716866,0.0437646,706,1184,-64.8749,-0.469982
-511,-160,0,0,0,0,0,0,0,0,0,-1,713,1184,0,0
-504,-160,0,0,0,0,0,0,0,0,0,-1,720,1184,0,0
-497,-160,0,0,0,0,0,0,0,0,0,-1,727,1184,0,0
-490,-160,0,0,0,0,0,0,0,0,0,-1,734,1184,0,0
-483,-160,0,0,0,0,0,0,0,0,0,-1,741,1184,0,0
-476,-160,0,0,0,0,0,0,0,0,0,-1,748,1184,0,0
-469,-160,0,0,0,0,0,0,0,0,0,-1,755,1184,0,0
-462,-160,0,0,0,0,0,0,0,0,0,-1,762,1184,0,0
-455,-160,0,0,0,0,0,0,0,0,0,-1,769,1184,0,0
-448,-160,0,0,0,0,0,0,0,0,0,-1,776,1184,0,0
-441,-160,0,0,0,0,0,0,0,0,0,-1,783,1184,0,0
-434,-160,0,0,0,0,0,0,0,0,0,-1,790,1184,0,0
-427,-160,0,0,0,0,0,0,0,0,0,-1,797,1184,0,0
-420,-160,0,0,0,0,0,0,0,0,0,-1,804,1184,0,0
-413,-160,0,0,0,0,0,0,0,0,0,-1,811,1184,0,0
-406,-160,0,0,0,0,0,0,0,0,0,-1,818,1184,0,0
-399,-160,0,0,0,0,0,0,0,0,0,-1,825,1184,0,0
-392,-160,0,0,0,0,0,0,0,0,0,-1,832,1184,0,0
-385,-160,0,0,0,0,0,0,0,0,0,-1,839,1184,0,0
-378,-160,0,0,0,0,0,0,0,0,0,-1,846,1184,0,0
-371,-160,0,0,0,0,0,0,0,0,0,-1,853,1184,0,0
-364,-160,0,0,0,0,0,0,0,0,0,-1,860,1184,0,0
-357,-160,0,0,0,0,0,0,0,0,0,-1,867,1184,0,0
-350,-160,0,0,0,0,0,0,0,0,0,-1,874,1184,0,0
-343,-160,0,0,0,0,0,0,0,0,0,-1,881,1184,0,0
-336,-160,0,0,0,0,0,0,0,0,0,-1,888,1184,0,0
-329,-160,0,0,0,0,0,0,0,0,0,-1,895,1184,0,0
-322,-160,0,0,0,0,0,0,0,0,0,-1,902,1184,0,0
-315,-160,0,0,0,0,0,0,0,0,0,-1,909,1184,0,0
-308,-160,0,0,0,0,0,0,0,0,0,-1,916,1184,0,0
-301,-160,0,0,0,0,0,0,0,0,0,-1,923,1184,0,0
-294,-160,0,0,0,0,0,0,0,0,0,-1,930,1184,0,0
-287,-160,0,0,0,0,0,0,0,0,0,-1,937,1184,0,0
-280,-160,0,0,0,0,0,0,0,0,0,-1,944,1184,0,0
-273,-160,0,0,0,0,0,0,0,0,0,-1,951,1184,0,0
-266,-160,0,0,0,0,0,0,0,0,0,-1,958,1184,0,0
-259,-160,0,0,0,0,0,0,0,0,0,-1,965,1184,0,0
-252,-160,0,0,0,0,0,0,0,0,0,-1,972,1184,0,0
-245,-160,0,0,0,0,0,0,0,0,0,-1,979,1184,0,0
-238,-160,0,0,0,0,0,0,0,0,0,-1,986,1184,0,0
-231,-160,0,0,0,0,0,0,0,0,0,-1,993,1184,0,0
-224,-160,0,0,0,0,0,0,0,0,0,-1,1000,1184,0,0
-217,-160,0,0,0,0,0,0,0,0,0,-1,1007,1184,0,0
-210,-160,0,0,0,0,0,0,0,0,0,-1,1014,1184,0,0
-203,-160,0,0,0,0,0,0,0,0,0,-1,1021,1184,0,0
-196,-160,0,0,0,0,0,0,0,0,0,-1,1028,1184,0,0
-189,-160,0,0,0,0,0,0,0,0,0,-1,1035,1184,0,0
-182,-160,0,0,0,0,0,0,0,0,0,-1,1042,1184,0,0
-175,-160,0,0,0,0,0,0,0,0,0,-1,1049,1184,0,0
-168,-160,0,0,0,0,0,0,0,0,0,-1,1056,1184,0,0
-161,-160,0,0,0,0,0,0,0,0,0,-1,1063,1184,0,0
-154,-160,0,0,0,0,0,0,0,0,0,-1,1070,1184,0,0
-147,-160,0,0,0,0,0,0,0,0,0,-1,1077,1184,0,0
-140,-160,0,0,0,0,0,0,0,0,0,-1,1084,1184,0,0
-133,-160,0,0,0,0,0,0,0,0,0,-1,1091,1184,0,0
-126,-160,0,0,0,0,0,0,0,0,0,-1,1098,1184,0,0
-119,-160,0,0,0,0,0,0,0,0,0,-1,1105,1184,0,0
-112,-160,0,0,0,0,0,0,0,0,0,-1,1112,1184,0,0
-105,-160,0,0,0,0,0,0,0,0,0,-1,1119,1184,0,0
-98,-160,0,0,0,0,0,0,0,0,0,-1,1126,1184,0,0
-91,-160,0,0,0,0,0,0,0,0,0,-1,1133,1184,0,0
-84,-160,0,0,0,0,0,0,0,0,0,-1,1140,1184,0,0
-77,-160,0,0,0,0,0,0,0,0,0,-1,1147,1184,0,0
-70,-160,0,0,0,0,0,0,0,0,0,-1,1154,1184,0,0
-63,-160,0,0,0,0,0,0,0,0,0,-1,1161,1184,0,0
-56,-160,0,0,0,0,0,0,0,0,0,-1,1168,1184,0,0
-49,-160,0,0,0,0,0,0,0,0,0,-1,1175,1184,0,0
-42,-160,0,0,0,0,0,0,0,0,0,-1,1182,1184,0,0
-35,-160,0,0,0,0,0,0,0,0,0,-1,1189,1184,0,0
-28,-160,0,0,0,0,0,0,0,0,0,-1,1196,1184,0,0
-21,-160,0,0,0,0,0,0,0,0,0,-1,1203,1184,0,0
-14,-160,0,0,0,0,0,0,0,0,0,-1,1210,1184,0,0
-7,-160,0,0,0,0,0,0,0,0,0,-1,1217,1184,0,0
0,-160,0,0,0,0,0,0,0,0,0,-1,1224,1184,0,0
7,-160,0,0,0,0,0,0,0,0,0,-1,1231,1184,0,0
14,-160,0,0,0,0,0,0,0,0,0,-1,1238,1184,0,0
21,-160,0,0,0,0,0,0,0,0,0,-1,1245,1184,0,0
28,-160,0,0,0,0,0,0,0,0,0,-1,1252,1184,0,0
35,-160,0,0,0,0,0,0,0,0,0,-1,1259,1184,0,0
42,-160,0,0,0,0,0,0,0,0,0,-1,1266,1184,0,0
49,-160,0,0,0,0,0,0,0,0,0,-1,1273,1184,0,0
56,-160,0,0,0,0,0,0,0,0,0,-1,1280,1184,0,0
63,-160,0,0,0,0,0,0,0,0,0,-1,1287,1184,0,0
70,-160,0,0,0,0,0,0,0,0,0,-1,1294,1184,0,0
77,-160,0,0,0,0,0,0,0,0,0,-1,1301,1184,0,0
84,-160,0,0,0,0,0,0,0,0,0,-1,1308,1184,0,0
91,-160,0,0,0,0,0,0,0,0,0,-1,1315,1184,0,0
98,-160,0,0,0,0,0,0,0,0,0,-1,1322,1184,0,0
105,-160,0,0,0,0,0,0,0,0,0,-1,1329,1184,0,0
112,-160,0,0,0,0,0,0,0,0,0,-1,1336,1184,0,0
119,-160,0,0,0,0,0,0,0,0,0,-1,1343,1184,0,0
126,-160,0,0,0,0,0,0,0,0,0,-1,1350,1184,0,0
133,-160,0,0,0,0,0,0,0,0,0,-1,1357,1184,0,0
140,-160,0,0,0,0,0,0,0,0,0,-1,1364,1184,0,0
147,-160,0,0,0,0,0,0,0,0,0,-1,1371,1184,0,0
154,-160,0,0,0,0,0,0,0,0,0,-1,1378,1184,0,0
161,-160,0,0,0,0,0,0,0,0,0,-1,1385,1184,0,0
168,-160,0,0,0,0,0,0,0,0,0,-1,1392,1184,0,0
175,-160,0,0,0,0,0,0,0,0,0,-1,1399,1184,0,0
182,-160,0,0,0,0,0,0,0,0,0,-1,1406,1184,0,0
189,-160,0,0,0,0,0,0,0,0,0,-1,1413,1184,0,0
196,-160,0,0,0,0,0,0,0,0,0,-1,1420,1184,0,0
203,-160,0,0,0,0,0,0,0,0,0,-1,1427,1184,0,0
210,-160,0,0,0,0,0,0,0,0,0,-1,1434,1184,0,0
217,-160,0,0,0,0,0,0,0,0,0,-1,1441,1184,0,0
224,-160,0,0,0,0,0,0,0,0,0,-1,1448,1184,0,0
231,-160,0,0,0,0,0,0,0,0,0,-1,1455,1184,0,0
238,-160,0,0,0,0,0,0,0,0,0,-1,1462,1184,0,0
245,-160,0,0,0,0,0,0,0,0,0,-1,1469,1184,0,0
252,-160,0,0,0,0,0,0,0,0,0,-1,1476,1184,0,0
259,-160,0,0,0,0,0,0,0,0,0,-1,1483,1184,0,0
266,-160,0,0,0,0,0,0,0,0,0,-1,1490,1184,0,0
273,-160,0,0,0,0,0,0,0,0,0,-1,1497,1184,0,0
280,-160,0,0,0,0,0,0,0,0,0,-1,1504,1184,0,0
287,-160,0,0,0,0,0,0,0,0,0,-1,1511,1184,0,0
294,-160,0,0,0,0,0,0,0,0,0,-1,1518,1184,0,0
301,-160,0,0,0,0,0,0,0,0,0,-1,1525,1184,0,0
308,-160,0,0,0,0,0,0,0,0,0,-1,1532,1184,0,0
315,-160,0,0,0,0,0,0,0,0,0,-1,1539,1184,0,0
322,-160,0,0,0,0,0,0,0,0,0,-1,1546,1184,0,0
329,-160,0,0,0,0,0,0,0,0,0,-1,1553,1184,0,0
336,-160,0,0,0,0,0,0,0,0,0,-1,1560,1184,0,0
343,-160,0,0,0,0,0,0,0,0,0,-1,1567,1184,0,0
350,-160,0,0,0,0,0,0,0,0,0,-1,1574,1184,0,0
357,-160,0,0,0,0,0,0,0,0,0,-1,1581,1184,0,0
364,-160,0,0,0,0,0,0,0,0,0,-1,1588,1184,0,0
371,-160,0,0,0,0,0,0,0,0,0,-1,1595,1184,0,0
378,-160,0,0,0,0,0,0,0,0,0,-1,1602,1184,0,0
385,-160,0,0,0,0,0,0,0,0,0,-1,1609,1184,0,0
392,-160,0,0,0,0,0,0,0,0,0,-1,1616,1184,0,0
399,-160,0,0,0,0,0,0,0,0,0,-1,1623,1184,0,0
406,-160,0,0,0,0,0,0,0,0,0,-1,1630,1184,0,0
413,-160,0,0,0,0,0,0,0,0,0,-1,1637,1184,0,0
420,-160,0,0,0,0,0,0,0,0,0,-1,1644,1184,0,0
427,-160,0,0,0,0,0,0,0,0,0,-1,1651,1184,0,0
434,-160,0,0,0,0,0,0,0,0,0,-1,1658,1184,0,0
441,-160,0,0,0,0,0,0,0,0,0,-1,1665,1184,0,0
448,-160,0,0,0,0,0,0,0,0,0,-1,1672,1184,0,0
455,-160,0,0,0,0,0,0,0,0,0,-1,1679,1184,0,0
462,-160,0,0,0,0,0,0,0,0,0,-1,1686,1184,0,0
469,-160,0,0,0,0,0,0,0,0,0,-1,1693,1184,0,0
476,-160,0,0,0,0,0,0,0,0,0,-1,1700,1184,0,0
483,-160,0,0,0,0,0,0,0,0,0,-1,1707,1184,0,0
490,-160,0,0,0,0,0,0,0,0,0,-1,1714,1184,0,0
497,-160,0,0,0,0,0,0,0,0,0,-1,1721,1184,0,0
504,-160,0,0,0,0,0,0,0,0,0,-1,1728,1184,0,0
511,-160,0,0,0,0,0,0,0,0,0,-1,1735,1184,0,0
518,-160,0,0,0,0,0,0,0,0,0,-1,1742,1184,0,0
525,-160,0,0,0,0,0,0,0,0,0,-1,1749,1184,0,0
532,-160,0,0,0,0,0,0,0,0,0,-1,1756,1184,0,0
539,-160,0,0,0,0,0,0,0,0,0,-1,1763,1184,0,0
546,-160,0,0,0,0,0,0,0,0,0,-1,1770,1184,0,0
553,-160,0,0,0,0,0,0,0,0,0,-1,1777,1184,0,0
560,-160,0,0,0,0,0,0,0,0,0,-1,1784,1184,0,0
567,-160,0,0,0,0,0,0,0,0,0,-1,1791,1184,0,0
574,-160,0,0,0,0,0,0,0,0,0,-1,1798,1184,0,0
581,-160,0,0,0,0,0,0,0,0,0,-1,1805,1184,0,0
588,-160,0,0,0,0,0,0,0,0,0,-1,1812,1184,0,0
595,-160,0,0,0,0,0,0,0,0,0,-1,1819,1184,0,0
602,-160,0,0,0,0,0,0,0,0,0,-1,1826,1184,0,0
609,-160,0,0,0,0,0,0,0,0,0,-1,1833,1184,0,0
616,-160,0,0,0,0,0,0,0,0,0,-1,1840,1184,0,0
623,-160,0,0,0,0,0,0,0,0,0,-1,1847,1184,0,0
630,-160,0,0,0,0,0,0,0,0,0,-1,1854,1184,0,0
637,-160,82.1243,2.54053,-0.00267408,0.00116155,-0.00265914,0.00252231,-0.00403483,-1.09781,0.00381919,0.0408781,1861,1184,82.1243,-2.54054
644,-160,82.2201,2.2522,-0.00236378,0.00121389,-0.00192078,0.0020498,-0.0031997,-1.16032,0.00305494,0.0413174,1868,1184,82.2201,-2.25221
651,-160,82.0829,2.24792,-0.00194592,0.0015454,-0.00157449,0.00215056,-0.00255108,-1.20385,0.00271777,0.0395321,1875,1184,82.0829,-2.24796
658,-160,81.8153,2.41589,-0.00145861,0.00202939,-0.00146769,0.00256479,-0.00199401,-1.22101,0.00263889,0.0408791,1882,1184,81.8153,-2.41595
665,-160,81.9402,2.37268,-0.00104439,0.00273856,-0.00147588,0.00324623,-0.00155206,-1.2395,0.00282727,0.0392169,1889,1184,81.9402,-2.37263
672,-160,82.001,2.41589,-0.000663524,0.00375568,-0.00162475,0.00428873,-0.00119657,-1.25378,0.00333045,0.0333556,1896,1184,82.001,-2.41585
679,-160,82.0244,2.37073,-0.000272939,0.00400047,-0.0016181,0.00454402,-0.00081649,-1.24672,0.00333499,0.025026,1903,1184,82.0244,-2.37068
686,-160,82.009,2.28247,0.000649056,0.00416811,-0.00159046,0.0047804,3.67698e-05,-1.20331,0.00317474,0.0165215,1910,1184,82.009,-2.28251
693,-160,82.028,2.21997,0,0,0,0,0,0,0,-1,1917,1184,82.028,-2.21995
700,-160,42.8784,2.44617,0,0,0,0,0,0,0,-1,1924,1184,42.8785,-2.4462
707,-160,24.5115,6.27405,0,0,0,0,0,0,0,-1,1931,1184,24.5115,-6.27401
714,-160,35.6892,6.8905,0,0,0,0,0,0,0,-1,1938,1184,35.6892,-6.89048
721,-160,36.2388,6.37878,0,0,0,0,0,0,0,-1,1945,1184,36.2388,-6.37876
728,-160,52.2174,8.57385,0,0,0,0,0,0,0,-1,1952,1184,52.2174,-8.57381
735,-160,69.6486,9.77393,0,0,0,0,0,0,0,-1,1959,1184,69.6485,-9.77393
742,-160,69.767,8.97852,0.0021864,0.00222009,0.00133636,0.00353971,0.000866779,0.791699,0.00213049,0.0228499,1966,1184,69.7669,-8.97857
749,-160,69.8037,8.25281,0.00139451,0.00248061,0.00201294,0.00402246,-0.00014735,0.917151,0.00273208,0.0208816,1973,1184,69.8037,-8.25282
756,-160,69.7683,7.52258,0.000552001,0.0039286,0.00251915,0.00527287,-0.000792264,1.08062,0.00380691,0.0139026,1980,1184,69.7683,-7.52261
763,-160,69.6716,6.81458,0.000114857,0.00586944,0.00303252,0.00717246,-0.00118816,1.16497,0.00522294,0.0145665,1987,1184,69.6716,-6.81452
770,-160,69.5234,5.95313,0.000186625,0.00846993,0.00345427,0.00972136,-0.0010648,1.22322,0.00686343,0.0330556,1994,1184,69.5235,-5.95315
777,-160,69.4312,5.14893,0.000994982,0.0119508,0.00355354,0.0130025,-5.66677e-05,1.28306,0.00868726,0.0444893,2001,1184,69.4311,-5.14893
784,-160,69.8357,4.82996,0,0,0,0,0,0,0,-1,2008,1184,69.8357,-4.82998
791,-160,69.1172,3.65442,0,0,0,0,0,0,0,-1,2015,1184,69.1172,-3.65444
798,-160,68.9976,2.94873,0,0,0,0,0,0,0,-1,2022,1184,68.9976,-2.94876
805,-160,68.6709,2.14001,0,0,0,0,0,0,0,-1,2029,1184,68.671,-2.14002
812,-160,0,0,0,0,0,0,0,0,0,-1,2036,1184,0,0
-700,-167,0,0,0,0,0,0,0,0,0,-1,524,1191,0,0
-693,-167,0,0,0,0,0,0,0,0,0,-1,531,1191,0,0
-686,-167,-55.5388,3.71936,0,0,0,0,0,0,0,-1,538,1191,-55.5388,-3.71941
-679,-167,-55.5666,4.82959,0,0,0,0,0,0,0,-1,545,1191,-55.5666,-4.82955
-672,-167,-55.6679,5.81824,0,0,0,0,0,0,0,-1,552,1191,-55.6679,-5.81826
-665,-167,-55.704,6.98523,0,0,0,0,0,0,0,-1,559,1191,-55.704,-6.98527
-658,-167,-54.4078,8.56213,0,0,0,0,0,0,0,-1,566,1191,-54.4078,-8.56214
-651,-167,-52.2158,4.21875,0,0,0,0,0,0,0,-1,573,1191,-52.2158,-4.21878
-644,-167,-52.2836,5.00256,0.029333,0.0271832,0.0202296,0.0485162,0.00800001,0.758856,0.0300347,0.0443533,580,1191,-52.2836,-5.00262
-637,-167,-52.4346,5.76526,0.0141419,0.0171289,0.0109673,0.0267039,0.00456684,0.853071,0.0164925,0.0204314,587,1191,-52.4346,-5.76524
-630,-167,-52.5813,6.49438,0.00335285,0.00923813,0.00362174,0.010962,0.001629,1.12655,0.00683005,0.00994334,594,1191,-52.5813,-6.49443
-623,-167,-52.6414,7.23547,-0.00322847,0.0034529,-0.00154268,0.0037919,-0.00356747,-1.35449,0.00424959,0.0141354,601,1191,-52.6414,-7.23548
-616,-167,-52.6955,8.04675,-0.00491762,0.000804808,-0.0040266,0.00288324,-0.00699605,-1.09429,0.00586625,0.018433,608,1191,-52.6955,-8.04675
-609,-167,-52.7739,8.91418,-0.00239222,0.000766416,-0.00462623,0.00407548,-0.00570128,-0.949887,0.00567057,0.0227415,615,1191,-52.7739,-8.91415
-602,-167,-52.98,9.70251,0,0,0,0,0,0,0,-1,622,1191,-52.9801,-9.70247
-595,-167,-47.733,8.40173,0,0,0,0,0,0,0,-1,629,1191,-47.733,-8.40171
-588,-167,-42.7112,7.92004,0,0,0,0,0,0,0,-1,636,1191,-42.7112,-7.92007
-581,-167,-32.8646,6.30542,0,0,0,0,0,0,0,-1,643,1191,-32.8646,-6.30537
-574,-167,-32.4808,7.37524,0,0,0,0,0,0,0,-1,650,1191,-32.4808,-7.37525
-567,-167,-27.3643,2.55859,0,0,0,0,0,0,0,-1,657,1191,-27.3643,-2.55864
-560,-167,-48.2598,0.834839,0,0,0,0,0,0,0,-1,664,1191,-48.2598,-0.834822
-553,-167,-64.9568,0.467651,0,0,0,0,0,0,0,-1,671,1191,-64.9569,-0.467591
-546,-167,-65.0133,0.505737,0.00392841,-0.00496614,-0.0050531,0.00621256,-0.00725029,-0.42454,0.00778048,0.0339147,678,1191,-65.0133,-0.50574
-539,-167,-64.9016,0.495972,0.00291954,-0.00310906,-0.0032946,0.00437071,-0.00456023,-0.414899,0.00515667,0.0398077,685,1191,-64.9015,-0.495993
-532,-167,-64.9496,0.46106,0.00179831,0.000750153,-0.00092882,0.0023407,0.000207757,-0.528543,0.00149603,0.046968,692,1191,-64.9496,-0.461036
-525,-167,-65.0591,0.574463,0.00145602,0.0048043,0.000822002,0.00499521,0.0012651,1.34259,0.00299875,0.0471969,699,1191,-65.0591,-0.57446
-518,-167,-64.9018,0.542847,0.00196045,0.00912069,0.00196862,0.00962624,0.0014549,1.31942,0.0059917,0.0449626,706,1191,-64.9018,-0.542877
-511,-167,0,0,0,0,0,0,0,0,0,-1,713,1191,0,0
-504,-167,0,0,0,0,0,0,0,0,0,-1,720,1191,0,0
-497,-167,0,0,0,0,0,0,0,0,0,-1,727,1191,0,0
-490,-167,0,0,0,0,0,0,0,0,0,-1,734,1191,0,0
-483,-167,0,0,0,0,0,0,0,0,0,-1,741,1191,0,0
-476,-167,0,0,0,0,0,0,0,0,0,-1,748,1191,0,0
-469,-167,0,0,0,0,0,0,0,0,0,-1,755,1191,0,0
-462,-167,0,0,0,0,0,0,0,0,0,-1,762,1191,0,0
-455,-167,0,0,0,0,0,0,0,0,0,-1,769,1191,0,0
-448,-167,0,0,0,0,0,0,0,0,0,-1,776,1191,0,0
-441,-167,0,0,0,0,0,0,0,0,0,-1,783,1191,0,0
-434,-167,0,0,0,0,0,0,0,0,0,-1,790,1191,0,0
-427,-167,0,0,0,0,0,0,0,0,0,-1,797,1191,0,0
-420,-167,0,0,0,0,0,0,0,0,0,-1,804,1191,0,0
-413,-167,0,0,0,0,0,0,0,0,0,-1,811,1191,0,0
-406,-167,0,0,0,0,0,0,0,0,0,-1,818,1191,0,0
-399,-167,0,0,0,0,0,0,0,0,0,-1,825,1191,0,0
-392,-167,0,0,0,0,0,0,0,0,0,-1,832,1191,0,0
-385,-167,0,0,0,0,0,0,0,0,0,-1,839,1191,0,0
-378,-167,0,0,0,0,0,0,0,0,0,-1,846,1191,0,0
-371,-167,0,0,0,0,0,0,0,0,0,-1,853,1191,0,0
-364,-167,0,0,0,0,0,0,0,0,0,-1,860,1191,0,0
-357,-167,0,0,0,0,0,0,0,0,0,-1,867,1191,0,0
-350,-167,0,0,0,0,0,0,0,0,0,-1,874,1191,0,0
-343,-167,0,0,0,0,0,0,0,0,0,-1,881,1191,0,0
-336,-167,0,0,0,0,0,0,0,0,0,-1,888,1191,0,0
-329,-167,0,0,0,0,0,0,0,0,0,-1,895,1191,0,0
-322,-167,0,0,0,0,0,0,0,0,0,-1,902,1191,0,0
-315,-167,0,0,0,0,0,0,0,0,0,-1,909,1191,0,0
-308,-167,0,0,0,0,0,0,0,0,0,-1,916,1191,0,0
-301,-167,0,0,0,0,0,0,0,0,0,-1,923,1191,0,0
-294,-167,0,0,0,0,0,0,0,0,0,-1,930,1191,0,0
-287,-167,0,0,0,0,0,0,0,0,0,-1,937,1191,0,0
-280,-167,0,0,0,0,0,0,0,0,0,-1,944,1191,0,0
-273,-167,0,0,0,0,0,0,0,0,0,-1,951,1191,0,0
-266,-167,0,0,0,0,0,0,0,0,0,-1,958,1191,0,0
-259,-167,0,0,0,0,0,0,0,0,0,-1,965,1191,0,0
-252,-167,0,0,0,0,0,0,0,0,0,-1,972,1191,0,0
-245,-167,0,0,0,0,0,0,0,0,0,-1,979,1191,0,0
-238,-167,0,0,0,0,0,0,0,0,0,-1,986,1191,0,0
-231,-167,0,0,0,0,0,0,0,0,0,-1,993,1191,0,0
-224,-167,0,0,0,0,0,0,0,0,0,-1,1000,1191,0,0
-217,-167,0,0,0,0,0,0,0,0,0,-1,1007,1191,0,0
-210,-167,0,0,0,0,0,0,0,0,0,-1,1014,1191,0,0
-203,-167,0,0,0,0,0,0,0,0,0,-1,1021,1191,0,0
-196,-167,0,0,0,0,0,0,0,0,0,-1,1028,1191,0,0
-189,-167,0,0,0,0,0,0,0,0,0,-1,1035,1191,0,0
-182,-167,0,0,0,0,0,0,0,0,0,-1,1042,1191,0,0
-175,-167,0,0,0,0,0,0,0,0,0,-1,1049,1191,0,0
-168,-167,0,0,0,0,0,0,0,0,0,-1,1056,1191,0,0
-161,-167,0,0,0,0,0,0,0,0,0,-1,1063,1191,0,0
-154,-167,0,0,0,0,0,0,0,0,0,-1,1070,1191,0,0
-147,-167,0,0,0,0,0,0,0,0,0,-1,1077,1191,0,0
-140,-167,0,0,0,0,0,0,0,0,0,-1,1084,1191,0,0
-133,-167,0,0,0,0,0,0,0,0,0,-1,1091,1191,0,0
-126,-167,0,0,0,0,0,0,0,0,0,-1,1098,1191,0,0
-119,-167,0,0,0,0,0,0,0,0,0,-1,1105,1191,0,0
-112,-167,0,0,0,0,0,0,0,0,0,-1,1112,1191,0,0
-105,-167,0,0,0,0,0,0,0,0,0,-1,1119,1191,0,0
-98,-167,0,0,0,0,0,0,0,0,0,-1,1126,1191,0,0
-91,-167,0,0,0,0,0,0,0,0,0,-1,1133,1191,0,0
-84,-167,0,0,0,0,0,0,0,0,0,-1,1140,1191,0,0
-77,-167,0,0,0,0,0,0,0,0,0,-1,1147,1191,0,0
-70,-167,0,0,0,0,0,0,0,0,0,-1,1154,1191,0,0
-63,-167,0,0,0,0,0,0,0,0,0,-1,1161,1191,0,0
-56,-167,0,0,0,0,0,0,0,0,0,-1,1168,1191,0,0
-49,-167,0,0,0,0,0,0,0,0,0,-1,1175,1191,0,0
-42,-167,0,0,0,0,0,0,0,0,0,-1,1182,1191,0,0
-35,-167,0,0,0,0,0,0,0,0,0,-1,1189,1191,0,0
-28,-167,0,0,0,0,0,0,0,0,0,-1,1196,1191,0,0
-21,-167,0,0,0,0,0,0,0,0,0,-1,1203,1191,0,0
-14,-167,0,0,0,0,0,0,0,0,0,-1,1210,1191,0,0
-7,-167,0,0,0,0,0,0,0,0,0,-1,1217,1191,0,0
0,-167,0,0,0,0,0,0,0,0,0,-1,1224,1191,0,0
7,-167,0,0,0,0,0,0,0,0,0,-1,1231,1191,0,0
14,-167,0,0,0,0,0,0,0,0,0,-1,1238,1191,0,0
21,-167,0,0,0,0,0,0,0,0,0,-1,1245,1191,0,0
28,-167,0,0,0,0,0,0,0,0,0,-1,1252,1191,0,0
35,-167,0,0,0,0,0,0,0,0,0,-1,1259,1191,0,0
42,-167,0,0,0,0,0,0,0,0,0,-1,1266,1191,0,0
49,-167,0,0,0,0,0,0,0,0,0,-1,1273,1191,0,0
56,-167,0,0,0,0,0,0,0,0,0,-1,1280,1191,0,0
63,-167,0,0,0,0,0,0,0,0,0,-1,1287,1191,0,0
70,-167,0,0,0,0,0,0,0,0,0,-1,1294,1191,0,0
77,-167,0,0,0,0,0,0,0,0,0,-1,1301,1191,0,0
84,-167,0,0,0,0,0,0,0,0,0,-1,1308,1191,0,0
91,-167,0,0,0,0,0,0,0,0,0,-1,1315,1191,0,0
98,-167,0,0,0,0,0,0,0,0,0,-1,1322,1191,0,0
105,-167,0,0,0,0,0,0,0,0,0,-1,1329,1191,0,0
112,-167,0,0,0,0,0,0,0,0,0,-1,1336,1191,0,0
119,-167,0,0,0,0,0,0,0,0,0,-1,1343,1191,0,0
126,-167,0,0,0,0,0,0,0,0,0,-1,1350,1191,0,0
133,-167,0,0,0,0,0,0,0,0,0,-1,1357,1191,0,0
140,-167,0,0,0,0,0,0,0,0,0,-1,1364,1191,0,0
147,-167,0,0,0,0,0,0,0,0,0,-1,1371,1191,0,0
154,-167,0,0,0,0,0,0,0,0,0,-1,1378,1191,0,0
161,-167,0,0,0,0,0,0,0,0,0,-1,1385,1191,0,0
168,-167,0,0,0,0,0,0,0,0,0,-1,1392,1191,0,0
175,-167,0,0,0,0,0,0,0,0,0,-1,1399,1191,0,0
182,-167,0,0,0,0,0,0,0,0,0,-1,1406,1191,0,0
189,-167,0,0,0,0,0,0,0,0,0,-1,1413,1191,0,0
196,-167,0,0,0,0,0,0,0,0,0,-1,1420,1191,0,0
203,-167,0,0,0,0,0,0,0,0,0,-1,1427,1191,0,0
210,-167,0,0,0,0,0,0,0,0,0,-1,1434,1191,0,0
217,-167,0,0,0,0,0,0,0,0,0,-1,1441,1191,0,0
224,-167,0,0,0,0,0,0,0,0,0,-1,1448,1191,0,0
231,-167,0,0,0,0,0,0,0,0,0,-1,1455,1191,0,0
238,-167,0,0,0,0,0,0,0,0,0,-1,1462,1191,0,0
245,-167,0,0,0,0,0,0,0,0,0,-1,1469,1191,0,0
252,-167,0,0,0,0,0,0,0,0,0,-1,1476,1191,0,0
259,-167,0,0,0,0,0,0,0,0,0,-1,1483,1191,0,0
266,-167,0,0,0,0,0,0,0,0,0,-1,1490,1191,0,0
273,-167,0,0,0,0,0,0,0,0,0,-1,1497,1191,0,0
280,-167,0,0,0,0,0,0,0,0,0,-1,1504,1191,0,0
287,-167,0,0,0,0,0,0,0,0,0,-1,1511,1191,0,0
294,-167,0,0,0,0,0,0,0,0,0,-1,1518,1191,0,0
301,-167,0,0,0,0,0,0,0,0,0,-1,1525,1191,0,0
308,-167,0,0,0,0,0,0,0,0,0,-1,1532,1191,0,0
315,-167,0,0,0,0,0,0,0,0,0,-1,1539,1191,0,0
322,-167,0,0,0,0,0,0,0,0,0,-1,1546,1191,0,0
329,-167,0,0,0,0,0,0,0,0,0,-1,1553,1191,0,0
336,-167,0,0,0,0,0,0,0,0,0,-1,1560,1191,0,0
343,-167,0,0,0,0,0,0,0,0,0,-1,1567,1191,0,0
350,-167,0,0,0,0,0,0,0,0,0,-1,1574,1191,0,0
357,-167,0,0,0,0,0,0,0,0,0,-1,1581,1191,0,0
364,-167,0,0,0,0,0,0,0,0,0,-1,1588,1191,0,0
371,-167,0,0,0,0,0,0,0,0,0,-1,1595,1191,0,0
378,-167,0,0,0,0,0,0,0,0,0,-1,1602,1191,0,0
385,-167,0,0,0,0,0,0,0,0,0,-1,1609,1191,0,0
392,-167,0,0,0,0,0,0,0,0,0,-1,1616,1191,0,0
399,-167,0,0,0,0,0,0,0,0,0,-1,1623,1191,0,0
406,-167,0,0,0,0,0,0,0,0,0,-1,1630,1191,0,0
413,-167,0,0,0,0,0,0,0,0,0,-1,1637,1191,0,0
420,-167,0,0,0,0,0,0,0,0,0,-1,1644,1191,0,0
427,-167,0,0,0,0,0,0,0,0,0,-1,1651,1191,0,0
434,-167,0,0,0,0,0,0,0,0,0,-1,1658,1191,0,0
441,-167,0,0,0,0,0,0,0,0,0,-1,1665,1191,0,0
448,-167,0,0,0,0,0,0,0,0,0,-1,1672,1191,0,0
455,-167,0,0,0,0,0,0,0,0,0,-1,1679,1191,0,0
462,-167,0,0,0,0,0,0,0,0,0,-1,1686,1191,0,0
469,-167,0,0,0,0,0,0,0,0,0,-1,1693,1191,0,0
476,-167,0,0,0,0,0,0,0,0,0,-1,1700,1191,0,0
483,-167,0,0,0,0,0,0,0,0,0,-1,1707,1191,0,0
490,-167,0,0,0,0,0,0,0,0,0,-1,1714,1191,0,0
497,-167,0,0,0,0,0,0,0,0,0,-1,1721,1191,0,0
504,-167,0,0,0,0,0,0,0,0,0,-1,1728,1191,0,0
511,-167,0,0,0,0,0,0,0,0,0,-1,1735,1191,0,0
518,-167,0,0,0,0,0,0,0,0,0,-1,1742,1191,0,0
525,-167,0,0,0,0,0,0,0,0,0,-1,1749,1191,0,0
532,-167,0,0,0,0,0,0,0,0,0,-1,1756,1191,0,0
539,-167,0,0,0,0,0,0,0,0,0,-1,1763,1191,0,0
546,-167,0,0,0,0,0,0,0,0,0,-1,1770,1191,0,0
553,-167,0,0,0,0,0,0,0,0,0,-1,1777,1191,0,0
560,-167,0,0,0,0,0,0,0,0,0,-1,1784,1191,0,0
567,-167,0,0,0,0,0,0,0,0,0,-1,1791,1191,0,0
574,-167,0,0,0,0,0,0,0,0,0,-1,1798,1191,0,0
581,-167,0,0,0,0,0,0,0,0,0,-1,1805,1191,0,0
588,-167,0,0,0,0,0,0,0,0,0,-1,1812,1191,0,0
595,-167,0,0,0,0,0,0,0,0,0,-1,1819,1191,0,0
602,-167,0,0,0,0,0,0,0,0,0,-1,1826,1191,0,0
609,-167,0,0,0,0,0,0,0,0,0,-1,1833,1191,0,0
616,-167,0,0,0,0,0,0,0,0,0,-1,1840,1191,0,0
623,-167,0,0,0,0,0,0,0,0,0,-1,1847,1191,0,0
630,-167,0,0,0,0,0,0,0,0,0,-1,1854,1191,0,0
637,-167,82.1683,2.12488,-0.00330387,0.00124879,-0.0019105,0.00194428,-0.00399936,-1.22168,0.00349926,0.0423423,1861,1191,82.1684,-2.12483
644,-167,82.1907,2.14075,-0.00280349,0.00146751,-0.00140467,0.00188807,-0.00322405,-1.27989,0.00298489,0.0429682,1868,1191,82.1907,-2.14076
651,-167,81.9413,2.31567,-0.0021546,0.0018964,-0.00126361,0.00225823,-0.00251643,-1.29191,0.002758,0.0429128,1875,1191,81.9413,-2.31564
658,-167,81.743,2.66833,-0.00146965,0.00246172,-0.00132727,0.00286786,-0.00187579,-1.27384,0.00275864,0.0449426,1882,1191,81.7431,-2.66832
665,-167,81.9713,2.44958,-0.000939944,0.003273,-0.00143941,0.00371782,-0.00138477,-1.27107,0.0030469,0.0394333,1889,1191,81.9714,-2.44958
672,-167,82.0277,2.4054,-0.000491178,0.00438606,-0.00161961,0.0048749,-0.000980018,-1.27767,0.00362108,0.0282447,1896,1191,82.0277,-2.40545
679,-167,81.9966,2.33704,-0.000124644,0.0047061,-0.00165154,0.00521675,-0.000635297,-1.27092,0.00370779,0.0207024,1903,1191,81.9965,-2.33704
686,-167,81.9401,2.15247,0.000638178,0.00482725,-0.00165914,0.00540476,6.06687e-05,-1.23583,0.00358312,0.0444117,1910,1191,81.9401,-2.15249
693,-167,81.8715,1.97705,0,0,0,0,0,0,0,-1,1917,1191,81.8714,-1.97709
700,-167,28.0459,2.70508,0,0,0,0,0,0,0,-1,1924,1191,28.0459,-2.70513
707,-167,29.4708,7.10168,0,0,0,0,0,0,0,-1,1931,1191,29.4708,-7.10172
714,-167,35.9202,6.84668,0,0,0,0,0,0,0,-1,1938,1191,35.9202,-6.84664
721,-167,36.2072,6.38892,0,0,0,0,0,0,0,-1,1945,1191,36.2072,-6.38891
728,-167,63.7198,9.84265,0,0,0,0,0,0,0,-1,1952,1191,63.7199,-9.8427
735,-167,69.0787,9.88831,0,0,0,0,0,0,0,-1,1959,1191,69.0787,-9.88831
742,-167,69.0367,9.10632,0.00210488,0.00269714,0.00118241,0.00361994,0.00118209,0.908097,0.00213148,0.0183046,1966,1191,69.0367,-9.10627
749,-167,69.0104,8.31104,0.00132489,0.0027406,0.00187771,0.00403945,2.60416e-05,0.965649,0.00268433,0.0167732,1973,1191,69.0103,-8.31102
756,-167,68.988,7.56433,0.000316732,0.0032777,0.00273574,0.00490786,-0.00131342,1.03342,0.00378642,0.0132343,1980,1191,68.9881,-7.56431
763,-167,68.8792,6.80981,-0.000532041,0.00390821,0.00389221,0.00616896,-0.00279279,1.04458,0.00529505,0.0164109,1987,1191,68.879,-6.80982
770,-167,68.77,6.0614,0,0,0,0,0,0,0,-1,1994,1191,68.7701,-6.06135
777,-167,68.6694,4.94788,0,0,0,0,0,0,0,-1,2001,1191,68.6695,-4.94786
784,-167,68.4604,4.10144,0,0,0,0,0,0,0,-1,2008,1191,68.4604,-4.10139
791,-167,68.3406,3.34851,0,0,0,0,0,0,0,-1,2015,1191,68.3406,-3.34849
798,-167,68.2466,2.66895,0,0,0,0,0,0,0,-1,2022,1191,68.2465,-2.66893
805,-167,67.8298,1.62268,0,0,0,0,0,0,0,-1,2029,1191,67.8299,-1.62267
812,-167,0,0,0,0,0,0,0,0,0,-1,2036,1191,0,0
-700,-174,0,0,0,0,0,0,0,0,0,-1,524,1198,0,0
-693,-174,0,0,0,0,0,0,0,0,0,-1,531,1198,0,0
-686,-174,-54.3354,3.32715,0,0,0,0,0,0,0,-1,538,1198,-54.3355,-3.32712
-679,-174,-54.3047,4.02368,0,0,0,0,0,0,0,-1,545,1198,-54.3047,-4.02374
-672,-174,-54.533,4.802,0,0,0,0,0,0,0,-1,552,1198,-54.533,-4.80204
-665,-174,-54.3589,5.6748,0,0,0,0,0,0,0,-1,559,1198,-54.3589,-5.67477
-658,-174,-53.6221,6.91614,0,0,0,0,0,0,0,-1,566,1198,-53.6222,-6.91617
-651,-174,-51.3644,3.86621,0,0,0,0,0,0,0,-1,573,1198,-51.3644,-3.86619
-644,-174,-51.432,4.79834,0.0237803,0.0245267,0.017635,0.0417925,0.00651447,0.795978,0.025964,0.0449472,580,1198,-51.432,-4.79839
-637,-174,-51.558,5.7533,0.0111895,0.0154196,0.00942598,0.0229649,0.00364421,0.89576,0.0142514,0.0273341,587,1198,-51.558,-5.75327
-630,-174,-51.7538,6.53418,0.00295576,0.0086542,0.00344619,0.0102765,0.00133348,1.13083,0.00645258,0.0140425,594,1198,-51.7538,-6.53417
-623,-174,-51.8228,7.32117,-0.00177035,0.00374864,-0.000601546,0.00381345,-0.00183516,-1.46348,0.00332722,0.0156203,601,1198,-51.8228,-7.32111
-616,-174,-51.8521,8.12061,-0.0029472,0.00107323,-0.00262611,0.00237019,-0.00424417,-1.11206,0.00386955,0.0222902,608,1198,-51.8521,-8.12062
-609,-174,-51.9519,8.92078,-0.00100533,0.000458734,-0.00338717,0.00319207,-0.00373866,-0.891821,0.00400561,0.0253752,615,1198,-51.9519,-8.92074
-602,-174,-52.0543,9.67566,0,0,0,0,0,0,0,-1,622,1198,-52.0543,-9.67567
-595,-174,-48.6967,9.0376,0,0,0,0,0,0,0,-1,629,1198,-48.6967,-9.03761
-588,-174,-50.7786,10.7983,0,0,0,0,0,0,0,-1,636,1198,-50.7786,-10.7984
-581,-174,-51.1051,11.6198,0,0,0,0,0,0,0,-1,643,1198,-51.1051,-11.6197
-574,-174,-31.7448,7.09595,0,0,0,0,0,0,0,-1,650,1198,-31.7448,-7.09599
-567,-174,-26.6597,3.04041,0,0,0,0,0,0,0,-1,657,1198,-26.6597,-3.04039
-560,-174,-42.6953,1.07178,0,0,0,0,0,0,0,-1,664,1198,-42.6953,-1.07181
-553,-174,-64.8917,0.437378,0,0,0,0,0,0,0,-1,671,1198,-64.8917,-0.437411
-546,-174,-64.9819,0.489502,0.00276909,-0.00415686,-0.00404596,0.00463171,-0.00601949,-0.431441,0.00616685,0.0374085,678,1198,-64.9819,-0.489454
-539,-174,-65.0717,0.542358,0.00243607,-0.00361125,-0.00375083,0.00423022,-0.00540539,-0.446164,0.0055769,0.0375392,685,1198,-65.0717,-0.542345
-532,-174,-65.0632,0.585083,0.00204524,9.56436e-05,-0.00215284,0.0034337,-0.00129281,-0.57281,0.00282062,0.0471215,692,1198,-65.0633,-0.585093
-525,-174,-64.9718,0.609131,0.00241432,0.00432964,-0.000595648,0.00449977,0.00224419,-1.29258,0.00259795,0.0444399,699,1198,-64.9718,-0.609071
-518,-174,-64.9525,0.642212,0.00360812,0.00880307,0.000466089,0.00884456,0.00356664,1.48202,0.00513817,0.0428714,706,1198,-64.9525,-0.642244
-511,-174,0,0,0,0,0,0,0,0,0,-1,713,1198,0,0
-504,-174,0,0,0,0,0,0,0,0,0,-1,720,1198,0,0
-497,-174,0,0,0,0,0,0,0,0,0,-1,727,1198,0,0
-490,-174,0,0,0,0,0,0,0,0,0,-1,734,1198,0,0
-483,-174,0,0,0,0,0,0,0,0,0,-1,741,1198,0,0
-476,-174,0,0,0,0,0,0,0,0,0,-1,748,1198,0,0
-469,-174,0,0,0,0,0,0,0,0,0,-1,755,1198,0,0
-462,-174,0,0,0,0,0,0,0,0,0,-1,762,1198,0,0
-455,-174,0,0,0,0,0,0,0,0,0,-1,769,1198,0,0
-448,-174,0,0,0,0,0,0,0,0,0,-1,776,1198,0,0
-441,-174,0,0,0,0,0,0,0,0,0,-1,783,1198,0,0
-434,-174,0,0,0,0,0,0,0,0,0,-1,790,1198,0,0
-427,-174,0,0,0,0,0,0,0,0,0,-1,797,1198,0,0
-420,-174,0,0,0,0,0,0,0,0,0,-1,804,1198,0,0
-413,-174,0,0,0,0,0,0,0,0,0,-1,811,1198,0,0
-406,-174,0,0,0,0,0,0,0,0,0,-1,818,1198,0,0
-399,-174,0,0,0,0,0,0,0,0,0,-1,825,1198,0,0
-392,-174,0,0,0,0,0,0,0,0,0,-1,832,1198,0,0
-385,-174,0,0,0,0,0,0,0,0,0,-1,839,1198,0,0
-378,-174,0,0,0,0,0,0,0,0,0,-1,846,1198,0,0
-371,-174,0,0,0,0,0,0,0,0,0,-1,853,1198,0,0
-364,-174,0,0,0,0,0,0,0,0,0,-1,860,1198,0,0
-357,-174,0,0,0,0,0,0,0,0,0,-1,867,1198,0,0
-350,-174,0,0,0,0,0,0,0,0,0,-1,874,1198,0,0
-343,-174,0,0,0,0,0,0,0,0,0,-1,881,1198,0,0
-336,-174,0,0,0,0,0,0,0,0,0,-1,888,1198,0,0
-329,-174,0,0,0,0,0,0,0,0,0,-1,895,1198,0,0
-322,-174,0,0,0,0,0,0,0,0,0,-1,902,1198,0,0
-315,-174,0,0,0,0,0,0,0,0,0,-1,909,1198,0,0
-308,-174,0,0,0,0,0,0,0,0,0,-1,916,1198,0,0
-301,-174,0,0,0,0,0,0,0,0,0,-1,923,1198,0,0
-294,-174,0,0,0,0,0,0,0,0,0,-1,930,1198,0,0
-287,-174,0,0,0,0,0,0,0,0,0,-1,937,1198,0,0
-280,-174,0,0,0,0,0,0,0,0,0,-1,944,1198,0,0
-273,-174,0,0,0,0,0,0,0,0,0,-1,951,1198,0,0
-266,-174,0,0,0,0,0,0,0,0,0,-1,958,1198,0,0
-259,-174,0,0,0,0,0,0,0,0,0,-1,965,1198,0,0
-252,-174,0,0,0,0,0,0,0,0,0,-1,972,1198,0,0
-245,-174,0,0,0,0,0,0,0,0,0,-1,979,1198,0,0
-238,-174,0,0,0,0,0,0,0,0,0,-1,986,1198,0,0
-231,-174,0,0,0,0,0,0,0,0,0,-1,993,1198,0,0
-224,-174,0,0,0,0,0,0,0,0,0,-1,1000,1198,0,0
-217,-174,0,0,0,0,0,0,0,0,0,-1,1007,1198,0,0
-210,-174,0,0,0,0,0,0,0,0,0,-1,1014,1198,0,0
-203,-174,0,0,0,0,0,0,0,0,0,-1,1021,1198,0,0
-196,-174,0,0,0,0,0,0,0,0,0,-1,1028,1198,0,0
-189,-174,0,0,0,0,0,0,0,0,0,-1,1035,1198,0,0
-182,-174,0,0,0,0,0,0,0,0,0,-1,1042,1198,0,0
-175,-174,0,0,0,0,0,0,0,0,0,-1,1049,1198,0,0
-168,-174,0,0,0,0,0,0,0,0,0,-1,1056,1198,0,0
-161,-174,0,0,0,0,0,0,0,0,0,-1,1063,1198,0,0
-154,-174,0,0,0,0,0,0,0,0,0,-1,1070,1198,0,0
-147,-174,0,0,0,0,0,0,0,0,0,-1,1077,1198,0,0
-140,-174,0,0,0,0,0,0,0,0,0,-1,1084,1198,0,0
-133,-174,0,0,0,0,0,0,0,0,0,-1,1091,1198,0,0
-126,-174,0,0,0,0,0,0,0,0,0,-1,1098,1198,0,0
-119,-174,0,0,0,0,0,0,0,0,0,-1,1105,1198,0,0
-112,-174,0,0,0,0,0,0,0,0,0,-1,1112,1198,0,0
-105,-174,0,0,0,0,0,0,0,0,0,-1,1119,1198,0,0
-98,-174,0,0,0,0,0,0,0,0,0,-1,1126,1198,0,0
-91,-174,0,0,0,0,0,0,0,0,0,-1,1133,1198,0,0
-84,-174,0,0,0,0,0,0,0,0,0,-1,1140,1198,0,0
-77,-174,0,0,0,0,0,0,0,0,0,-1,1147,1198,0,0
-70,-174,0,0,0,0,0,0,0,0,0,-1,1154,1198,0,0
-63,-174,0,0,0,0,0,0,0,0,0,-1,1161,1198,0,0
-56,-174,0,0,0,0,0,0,0,0,0,-1,1168,1198,0,0
-49,-174,0,0,0,0,0,0,0,0,0,-1,1175,1198,0,0
-42,-174,0,0,0,0,0,0,0,0,0,-1,1182,1198,0,0
-35,-174,0,0,0,0,0,0,0,0,0,-1,1189,1198,0,0
-28,-174,0,0,0,0,0,0,0,0,0,-1,1196,1198,0,0
-21,-174,0,0,0,0,0,0,0,0,0,-1,1203,1198,0,0
-14,-174,0,0,0,0,0,0,0,0,0,-1,1210,1198,0,0
-7,-174,0,0,0,0,0,0,0,0,0,-1,1217,1198,0,0
0,-174,0,0,0,0,0,0,0,0,0,-1,1224,1198,0,0
7,-174,0,0,0,0,0,0,0,0,0,-1,1231,1198,0,0
14,-174,0,0,0,0,0,0,0,0,0,-1,1238,1198,0,0
21,-174,0,0,0,0,0,0,0,0,0,-1,1245,1198,0,0
28,-174,0,0,0,0,0,0,0,0,0,-1,1252,1198,0,0
35,-174,0,0,0,0,0,0,0,0,0,-1,1259,1198,0,0
42,-174,0,0,0,0,0,0,0,0,0,-1,1266,1198,0,0
49,-174,0,0,0,0,0,0,0,0,0,-1,1273,1198,0,0
56,-174,0,0,0,0,0,0,0,0,0,-1,1280,1198,0,0
63,-174,0,0,0,0,0,0,0,0,0,-1,1287,1198,0,0
70,-174,0,0,0,0,0,0,0,0,0,-1,1294,1198,0,0
77,-174,0,0,0,0,0,0,0,0,0,-1,1301,1198,0,0
84,-174,0,0,0,0,0,0,0,0,0,-1,1308,1198,0,0
91,-174,0,0,0,0,0,0,0,0,0,-1,1315,1198,0,0
98,-174,0,0,0,0,0,0,0,0,0,-1,1322,1198,0,0
105,-174,0,0,0,0,0,0,0,0,0,-1,1329,1198,0,0
112,-174,0,0,0,0,0,0,0,0,0,-1,1336,1198,0,0
119,-174,0,0,0,0,0,0,0,0,0,-1,1343,1198,0,0
126,-174,0,0,0,0,0,0,0,0,0,-1,1350,1198,0,0
133,-174,0,0,0,0,0,0,0,0,0,-1,1357,1198,0,0
140,-174,0,0,0,0,0,0,0,0,0,-1,1364,1198,0,0
147,-174,0,0,0,0,0,0,0,0,0,-1,1371,1198,0,0
154,-174,0,0,0,0,0,0,0,0,0,-1,1378,1198,0,0
161,-174,0,0,0,0,0,0,0,0,0,-1,1385,1198,0,0
168,-174,0,0,0,0,0,0,0,0,0,-1,1392,1198,0,0
175,-174,0,0,0,0,0,0,0,0,0,-1,1399,1198,0,0
182,-174,0,0,0,0,0,0,0,0,0,-1,1406,1198,0,0
189,-174,0,0,0,0,0,0,0,0,0,-1,1413,1198,0,0
196,-174,0,0,0,0,0,0,0,0,0,-1,1420,1198,0,0
203,-174,0,0,0,0,0,0,0,0,0,-1,1427,1198,0,0
210,-174,0,0,0,0,0,0,0,0,0,-1,1434,1198,0,0
217,-174,0,0,0,0,0,0,0,0,0,-1,1441,1198,0,0
224,-174,0,0,0,0,0,0,0,0,0,-1,1448,1198,0,0
231,-174,0,0,0,0,0,0,0,0,0,-1,1455,1198,0,0
238,-174,0,0,0,0,0,0,0,0,0,-1,1462,1198,0,0
245,-174,0,0,0,0,0,0,0,0,0,-1,1469,1198,0,0
252,-174,0,0,0,0,0,0,0,0,0,-1,1476,1198,0,0
259,-174,0,0,0,0,0,0,0,0,0,-1,1483,1198,0,0
266,-174,0,0,0,0,0,0,0,0,0,-1,1490,1198,0,0
273,-174,0,0,0,0,0,0,0,0,0,-1,1497,1198,0,0
280,-174,0,0,0,0,0,0,0,0,0,-1,1504,1198,0,0
287,-174,0,0,0,0,0,0,0,0,0,-1,1511,1198,0,0
294,-174,0,0,0,0,0,0,0,0,0,-1,1518,1198,0,0
301,-174,0,0,0,0,0,0,0,0,0,-1,1525,1198,0,0
308,-174,0,0,0,0,0,0,0,0,0,-1,1532,1198,0,0
315,-174,0,0,0,0,0,0,0,0,0,-1,1539,1198,0,0
322,-174,0,0,0,0,0,0,0,0,0,-1,1546,1198,0,0
329,-174,0,0,0,0,0,0,0,0,0,-1,1553,1198,0,0
336,-174,0,0,0,0,0,0,0,0,0,-1,1560,1198,0,0
343,-174,0,0,0,0,0,0,0,0,0,-1,1567,1198,0,0
350,-174,0,0,0,0,0,0,0,0,0,-1,1574,1198,0,0
357,-174,0,0,0,0,0,0,0,0,0,-1,1581,1198,0,0
364,-174,0,0,0,0,0,0,0,0,0,-1,1588,1198,0,0
371,-174,0,0,0,0,0,0,0,0,0,-1,1595,1198,0,0
378,-174,0,0,0,0,0,0,0,0,0,-1,1602,1198,0,0
385,-174,0,0,0,0,0,0,0,0,0,-1,1609,1198,0,0
392,-174,0,0,0,0,0,0,0,0,0,-1,1616,1198,0,0
399,-174,0,0,0,0,0,0,0,0,0,-1,1623,1198,0,0
406,-174,0,0,0,0,0,0,0,0,0,-1,1630,1198,0,0
413,-174,0,0,0,0,0,0,0,0,0,-1,1637,1198,0,0
420,-174,0,0,0,0,0,0,0,0,0,-1,1644,1198,0,0
427,-174,0,0,0,0,0,0,0,0,0,-1,1651,1198,0,0
434,-174,0,0,0,0,0,0,0,0,0,-1,1658,1198,0,0
441,-174,0,0,0,0,0,0,0,0,0,-1,1665,1198,0,0
448,-174,0,0,0,0,0,0,0,0,0,-1,1672,1198,0,0
455,-174,0,0,0,0,0,0,0,0,0,-1,1679,1198,0,0
462,-174,0,0,0,0,0,0,0,0,0,-1,1686,1198,0,0
469,-174,0,0,0,0,0,0,0,0,0,-1,1693,1198,0,0
476,-174,0,0,0,0,0,0,0,0,0,-1,1700,1198,0,0
483,-174,0,0,0,0,0,0,0,0,0,-1,1707,1198,0,0
490,-174,0,0,0,0,0,0,0,0,0,-1,1714,1198,0,0
497,-174,0,0,0,0,0,0,0,0,0,-1,1721,1198,0,0
504,-174,0,0,0,0,0,0,0,0,0,-1,1728,1198,0,0
511,-174,0,0,0,0,0,0,0,0,0,-1,1735,1198,0,0
518,-174,0,0,0,0,0,0,0,0,0,-1,1742,1198,0,0
525,-174,0,0,0,0,0,0,0,0,0,-1,1749,1198,0,0
532,-174,0,0,0,0,0,0,0,0,0,-1,1756,1198,0,0
539,-174,0,0,0,0,0,0,0,0,0,-1,1763,1198,0,0
546,-174,0,0,0,0,0,0,0,0,0,-1,1770,1198,0,0
553,-174,0,0,0,0,0,0,0,0,0,-1,1777,1198,0,0
560,-174,0,0,0,0,0,0,0,0,0,-1,1784,1198,0,0
567,-174,0,0,0,0,0,0,0,0,0,-1,1791,1198,0,0
574,-174,0,0,0,0,0,0,0,0,0,-1,1798,1198,0,0
581,-174,0,0,0,0,0,0,0,0,0,-1,1805,1198,0,0
588,-174,0,0,0,0,0,0,0,0,0,-1,1812,1198,0,0
595,-174,0,0,0,0,0,0,0,0,0,-1,1819,1198,0,0
602,-174,0,0,0,0,0,0,0,0,0,-1,1826,1198,0,0
609,-174,0,0,0,0,0,0,0,0,0,-1,1833,1198,0,0
616,-174,0,0,0,0,0,0,0,0,0,-1,1840,1198,0,0
623,-174,0,0,0,0,0,0,0,0,0,-1,1847,1198,0,0
630,-174,0,0,0,0,0,0,0,0,0,-1,1854,1198,0,0
637,-174,82.1649,2.1322,-0.00334748,0.000809563,-0.00149112,0.0012891,-0.00382702,-1.25964,0.00307255,0.0413779,1861,1198,82.1649,-2.13218
644,-174,82.0742,2.15979,-0.00275453,0.00130054,-0.00118979,0.00162385,-0.00307784,-1.30546,0.00275745,0.0409162,1868,1198,82.0742,-2.1598
651,-174,81.9138,2.23267,-0.00197159,0.00195766,-0.00123515,0.00231367,-0.0023276,-1.29017,0.00267964,0.0429017,1875,1198,81.9138,-2.23266
658,-174,81.807,2.4696,-0.00120495,0.00272317,-0.00139957,0.00317081,-0.00165259,-1.26123,0.0028304,0.0415201,1882,1198,81.807,-2.46962
665,-174,81.9403,2.46936,-0.000742,0.00369735,-0.00148493,0.00414825,-0.0011929,-1.27599,0.00323724,0.0367308,1889,1198,81.9404,-2.46942
672,-174,81.9713,2.33557,-0.000413804,0.00491925,-0.00155147,0.00533775,-0.000832308,-1.30732,0.00386592,0.0292354,1896,1198,81.9713,-2.33556
679,-174,81.9733,2.25488,-0.00016835,0.00531727,-0.00151454,0.00570765,-0.000558725,-1.31854,0.00400435,0.0275654,1903,1198,81.9732,-2.25492
686,-174,82.0072,2.05188,0,0,0,0,0,0,0,-1,1910,1198,82.0073,-2.05193
693,-174,51.1324,2.57349,0,0,0,0,0,0,0,-1,1917,1198,51.1325,-2.57343
700,-174,25.4004,6.11792,0,0,0,0,0,0,0,-1,1924,1198,25.4004,-6.11797
707,-174,34.7908,7.34473,0,0,0,0,0,0,0,-1,1931,1198,34.7908,-7.34475
714,-174,40.1135,7.79871,0,0,0,0,0,0,0,-1,1938,1198,40.1135,-7.79875
721,-174,40.8693,7.59863,0,0,0,0,0,0,0,-1,1945,1198,40.8693,-7.59859
728,-174,67.943,10.7119,0,0,0,0,0,0,0,-1,1952,1198,67.9429,-10.7119
735,-174,68.1099,9.99646,0.00164261,0.0037954,0.000559944,0.00393234,0.00150567,1.33096,0.002291,0.0296589,1959,1198,68.1098,-9.9965
742,-174,68.2695,9.16626,0.00187348,0.00317046,0.00112402,0.00381965,0.00122429,1.04704,0.00225213,0.0222042,1966,1198,68.2696,-9.16623
749,-174,68.2629,8.38245,0.00113155,0.00303658,0.00181452,0.00413339,3.47369e-05,1.0271,0.00274409,0.0196257,1973,1198,68.263,-8.38251
756,-174,68.1743,7.58545,0.000176058,0.00331527,0.00272679,0.00489194,-0.00140061,1.04655,0.00381485,0.0121227,1980,1198,68.1744,-7.5855
763,-174,68.1011,6.81921,-0.000739473,0.00377903,0.00402196,0.00613285,-0.00309329,1.0413,0.00542222,0.0195821,1987,1198,68.1011,-6.81927
770,-174,68.0823,6.03015,0,0,0,0,0,0,0,-1,1994,1198,68.0822,-6.03016
777,-174,72.7517,-3.92542,0,0,0,0,0,0,0,-1,2001,1198,72.7517,3.92536
784,-174,72.8079,-3.6228,0,0,0,0,0,0,0,-1,2008,1198,72.8078,3.62276
791,-174,69.3472,2.32153,0,0,0,0,0,0,0,-1,2015,1198,69.3471,-2.32154
798,-174,66.9897,2.63074,0,0,0,0,0,0,0,-1,2022,1198,66.9896,-2.6307
805,-174,66.978,0.993896,0,0,0,0,0,0,0,-1,2029,1198,66.9779,-0.993879
812,-174,0,0,0,0,0,0,0,0,0,-1,2036,1198,0,0
-700,-181,0,0,0,0,0,0,0,0,0,-1,524,1205,0,0
-693,-181,0,0,0,0,0,0,0,0,0,-1,531,1205,0,0
-686,-181,-53.0796,2.70642,0,0,0,0,0,0,0,-1,538,1205,-53.0796,-2.70645
-679,-181,-53.0724,3.26868,0,0,0,0,0,0,0,-1,545,1205,-53.0724,-3.26873
-672,-181,-53.1385,3.94397,0,0,0,0,0,0,0,-1,552,1205,-53.1385,-3.94393
-665,-181,-53.0972,4.69678,0,0,0,0,0,0,0,-1,559,1205,-53.0972,-4.69672
-658,-181,-53.1593,5.4906,0,0,0,0,0,0,0,-1,566,1205,-53.1593,-5.49066
-651,-181,-50.6578,4.03931,0,0,0,0,0,0,0,-1,573,1205,-50.6579,-4.03928
-644,-181,-50.7177,4.9021,0.0149793,0.0197325,0.0134692,0.0310332,0.00367862,0.872722,0.0195781,0.0483234,580,1205,-50.7177,-4.90209
-637,-181,-50.7659,5.78577,0.00655277,0.0125984,0.00700171,0.017202,0.00194923,0.989176,0.0108766,0.0293677,587,1205,-50.7659,-5.78578
-630,-181,-50.9597,6.5625,0.00147601,0.0075205,0.00264017,0.00851129,0.00048522,1.21178,0.00551957,0.015456,594,1205,-50.9597,-6.56252
-623,-181,-51.0342,7.37585,-0.00137832,0.00390052,-0.00030976,0.00391864,-0.00139643,-1.51238,0.00318174,0.016352,601,1205,-51.0342,-7.37583
-616,-181,-51.0507,8.18677,-0.0021326,0.00181427,-0.00195795,0.00262076,-0.0029391,-1.18007,0.00321174,0.0164355,608,1205,-51.0507,-8.18674
-609,-181,-51.0995,8.99915,-0.000716141,0.00130109,-0.00296229,0.00342177,-0.00283682,-0.949485,0.00361865,0.0156994,615,1205,-51.0995,-8.99917
-602,-181,-51.0412,9.86255,0.00103212,0.000358633,-0.00419737,0.00490624,-0.00351548,-0.74537,0.00488433,0.0353305,622,1205,-51.0412,-9.86261
-595,-181,-50.6868,10.7518,0,0,0,0,0,0,0,-1,629,1205,-50.6868,-10.7519
-588,-181,-50.0011,10.821,0,0,0,0,0,0,0,-1,636,1205,-50.0011,-10.821
-581,-181,-50.2697,11.5571,0,0,0,0,0,0,0,-1,643,1205,-50.2696,-11.5571
-574,-181,-49.6119,12.3185,0,0,0,0,0,0,0,-1,650,1205,-49.6119,-12.3185
-567,-181,-25.8839,3.34485,0,0,0,0,0,0,0,-1,657,1205,-25.8839,-3.3449
-560,-181,-31.7396,1.63306,0,0,0,0,0,0,0,-1,664,1205,-31.7396,-1.63303
-553,-181,-57.8761,0.527832,0,0,0,0,0,0,0,-1,671,1205,-57.8761,-0.527787
-546,-181,-64.9169,0.474243,0,0,0,0,0,0,0,-1,678,1205,-64.917,-0.474198
-539,-181,-65.0119,0.538086,0.00108702,-0.00136317,-0.00442071,0.00444925,-0.0047254,-0.650227,0.00529779,0.0384504,685,1205,-65.0119,-0.538072
-532,-181,-64.9595,0.656128,0.00131817,0.000493719,-0.00354079,0.00447065,-0.00265876,-0.727448,0.00416024,0.0437532,692,1205,-64.9595,-0.6561
-525,-181,-64.8997,0.537842,0.00228586,0.00370473,-0.0019491,0.00506949,0.000921099,-0.959936,0.00311831,0.0404737,699,1205,-64.8997,-0.537834
-518,-181,-64.8449,0.544189,0.00401003,0.00833139,-0.000906489,0.00851384,0.00382758,-1.37218,0.00492379,0.04085,706,1205,-64.8449,-0.544139
-511,-181,0,0,0,0,0,0,0,0,0,-1,713,1205,0,0
-504,-181,0,0,0,0,0,0,0,0,0,-1,720,1205,0,0
-497,-181,0,0,0,0,0,0,0,0,0,-1,727,1205,0,0
-490,-181,0,0,0,0,0,0,0,0,0,-1,734,1205,0,0
-483,-181,0,0,0,0,0,0,0,0,0,-1,741,1205,0,0
-476,-181,0,0,0,0,0,0,0,0,0,-1,748,1205,0,0
-469,-181,0,0,0,0,0,0,0,0,0,-1,755,1205,0,0
-462,-181,0,0,0,0,0,0,0,0,0,-1,762,1205,0,0
-455,-181,0,0,0,0,0,0,0,0,0,-1,769,1205,0,0
-448,-181,0,0,0,0,0,0,0,0,0,-1,776,1205,0,0
-441,-181,0,0,0,0,0,0,0,0,0,-1,783,1205,0,0
-434,-181,0,0,0,0,0,0,0,0,0,-1,790,1205,0,0
-427,-181,0,0,0,0,0,0,0,0,0,-1,797,1205,0,0
-420,-181,0,0,0,0,0,0,0,0,0,-1,804,1205,0,0
-413,-181,0,0,0,0,0,0,0,0,0,-1,811,1205,0,0
-406,-181,0,0,0,0,0,0,0,0,0,-1,818,1205,0,0
-399,-181,0,0,0,0,0,0,0,0,0,-1,825,1205,0,0
-392,-181,0,0,0,0,0,0,0,0,0,-1,832,1205,0,0
-385,-181,0,0,0,0,0,0,0,0,0,-1,839,1205,0,0
-378,-181,0,0,0,0,0,0,0,0,0,-1,846,1205,0,0
-371,-181,0,0,0,0,0,0,0,0,0,-1,853,1205,0,0
-364,-181,0,0,0,0,0,0,0,0,0,-1,860,1205,0,0
-357,-181,0,0,0,0,0,0,0,0,0,-1,867,1205,0,0
-350,-181,0,0,0,0,0,0,0,0,0,-1,874,1205,0,0
-343,-181,0,0,0,0,0,0,0,0,0,-1,881,1205,0,0
-336,-181,0,0,0,0,0,0,0,0,0,-1,888,1205,0,0
-329,-181,0,0,0,0,0,0,0,0,0,-1,895,1205,0,0
-322,-181,0,0,0,0,0,0,0,0,0,-1,902,1205,0,0
-315,-181,0,0,0,0,0,0,0,0,0,-1,909,1205,0,0
-308,-181,0,0,0,0,0,0,0,0,0,-1,916,1205,0,0
-301,-181,0,0,0,0,0,0,0,0,0,-1,923,1205,0,0
-294,-181,0,0,0,0,0,0,0,0,0,-1,930,1205,0,0
-287,-181,0,0,0,0,0,0,0,0,0,-1,937,1205,0,0
-280,-181,0,0,0,0,0,0,0,0,0,-1,944,1205,0,0
-273,-181,0,0,0,0,0,0,0,0,0,-1,951,1205,0,0
-266,-181,0,0,0,0,0,0,0,0,0,-1,958,1205,0,0
-259,-181,0,0,0,0,0,0,0,0,0,-1,965,1205,0,0
-252,-181,0,0,0,0,0,0,0,0,0,-1,972,1205,0,0
-245,-181,0,0,0,0,0,0,0,0,0,-1,979,1205,0,0
-238,-181,0,0,0,0,0,0,0,0,0,-1,986,1205,0,0
-231,-181,0,0,0,0,0,0,0,0,0,-1,993,1205,0,0
-224,-181,0,0,0,0,0,0,0,0,0,-1,1000,1205,0,0
-217,-181,0,0,0,0,0,0,0,0,0,-1,1007,1205,0,0
-210,-181,0,0,0,0,0,0,0,0,0,-1,1014,1205,0,0
-203,-181,0,0,0,0,0,0,0,0,0,-1,1021,1205,0,0
-196,-181,0,0,0,0,0,0,0,0,0,-1,1028,1205,0,0
-189,-181,0,0,0,0,0,0,0,0,0,-1,1035,1205,0,0
-182,-181,0,0,0,0,0,0,0,0,0,-1,1042,1205,0,0
-175,-181,0,0,0,0,0,0,0,0,0,-1,1049,1205,0,0
-168,-181,0,0,0,0,0,0,0,0,0,-1,1056,1205,0,0
-161,-181,0,0,0,0,0,0,0,0,0,-1,1063,1205,0,0
-154,-181,0,0,0,0,0,0,0,0,0,-1,1070,1205,0,0
-147,-181,0,0,0,0,0,0,0,0,0,-1,1077,1205,0,0
-140,-181,0,0,0,0,0,0,0,0,0,-1,1084,1205,0,0
-133,-181,0,0,0,0,0,0,0,0,0,-1,1091,1205,0,0
-126,-181,0,0,0,0,0,0,0,0,0,-1,1098,1205,0,0
-119,-181,0,0,0,0,0,0,0,0,0,-1,1105,1205,0,0
-112,-181,0,0,0,0,0,0,0,0,0,-1,1112,1205,0,0
-105,-181,0,0,0,0,0,0,0,0,0,-1,1119,1205,0,0
-98,-181,0,0,0,0,0,0,0,0,0,-1,1126,1205,0,0
-91,-181,0,0,0,0,0,0,0,0,0,-1,1133,1205,0,0
-84,-181,0,0,0,0,0,0,0,0,0,-1,1140,1205,0,0
-77,-181,0,0,0,0,0,0,0,0,0,-1,1147,1205,0,0
-70,-181,0,0,0,0,0,0,0,0,0,-1,1154,1205,0,0
-63,-181,0,0,0,0,0,0,0,0,0,-1,1161,1205,0,0
-56,-181,0,0,0,0,0,0,0,0,0,-1,1168,1205,0,0
-49,-181,0,0,0,0,0,0,0,0,0,-1,1175,1205,0,0
-42,-181,0,0,0,0,0,0,0,0,0,-1,1182,1205,0,0
-35,-181,0,0,0,0,0,0,0,0,0,-1,1189,1205,0,0
-28,-181,0,0,0,0,0,0,0,0,0,-1,1196,1205,0,0
-21,-181,0,0,0,0,0,0,0,0,0,-1,1203,1205,0,0
-14,-181,0,0,0,0,0,0,0,0,0,-1,1210,1205,0,0
-7,-181,0,0,0,0,0,0,0,0,0,-1,1217,1205,0,0
0,-181,0,0,0,0,0,0,0,0,0,-1,1224,1205,0,0
7,-181,0,0,0,0,0,0,0,0,0,-1,1231,1205,0,0
14,-181,0,0,0,0,0,0,0,0,0,-1,1238,1205,0,0
21,-181,0,0,0,0,0,0,0,0,0,-1,1245,1205,0,0
28,-181,0,0,0,0,0,0,0,0,0,-1,1252,1205,0,0
35,-181,0,0,0,0,0,0,0,0,0,-1,1259,1205,0,0
42,-181,0,0,0,0,0,0,0,0,0,-1,1266,1205,0,0
49,-181,0,0,0,0,0,0,0,0,0,-1,1273,1205,0,0
56,-181,0,0,0,0,0,0,0,0,0,-1,1280,1205,0,0
63,-181,0,0,0,0,0,0,0,0,0,-1,1287,1205,0,0
70,-181,0,0,0,0,0,0,0,0,0,-1,1294,1205,0,0
77,-181,0,0,0,0,0,0,0,0,0,-1,1301,1205,0,0
84,-181,0,0,0,0,0,0,0,0,0,-1,1308,1205,0,0
91,-181,0,0,0,0,0,0,0,0,0,-1,1315,1205,0,0
98,-181,0,0,0,0,0,0,0,0,0,-1,1322,1205,0,0
105,-181,0,0,0,0,0,0,0,0,0,-1,1329,1205,0,0
112,-181,0,0,0,0,0,0,0,0,0,-1,1336,1205,0,0
119,-181,0,0,0,0,0,0,0,0,0,-1,1343,1205,0,0
126,-181,0,0,0,0,0,0,0,0,0,-1,1350,1205,0,0
133,-181,0,0,0,0,0,0,0,0,0,-1,1357,1205,0,0
140,-181,0,0,0,0,0,0,0,0,0,-1,1364,1205,0,0
147,-181,0,0,0,0,0,0,0,0,0,-1,1371,1205,0,0
154,-181,0,0,0,0,0,0,0,0,0,-1,1378,1205,0,0
161,-181,0,0,0,0,0,0,0,0,0,-1,1385,1205,0,0
168,-181,0,0,0,0,0,0,0,0,0,-1,1392,1205,0,0
175,-181,0,0,0,0,0,0,0,0,0,-1,1399,1205,0,0
182,-181,0,0,0,0,0,0,0,0,0,-1,1406,1205,0,0
189,-181,0,0,0,0,0,0,0,0,0,-1,1413,1205,0,0
196,-181,0,0,0,0,0,0,0,0,0,-1,1420,1205,0,0
203,-181,0,0,0,0,0,0,0,0,0,-1,1427,1205,0,0
210,-181,0,0,0,0,0,0,0,0,0,-1,1434,1205,0,0
217,-181,0,0,0,0,0,0,0,0,0,-1,1441,1205,0,0
224,-181,0,0,0,0,0,0,0,0,0,-1,1448,1205,0,0
231,-181,0,0,0,0,0,0,0,0,0,-1,1455,1205,0,0
238,-181,0,0,0,0,0,0,0,0,0,-1,1462,1205,0,0
245,-181,0,0,0,0,0,0,0,0,0,-1,1469,1205,0,0
252,-181,0,0,0,0,0,0,0,0,0,-1,1476,1205,0,0
259,-181,0,0,0,0,0,0,0,0,0,-1,1483,1205,0,0
266,-181,0,0,0,0,0,0,0,0,0,-1,1490,1205,0,0
273,-181,0,0,0,0,0,0,0,0,0,-1,1497,1205,0,0
280,-181,0,0,0,0,0,0,0,0,0,-1,1504,1205,0,0
287,-181,0,0,0,0,0,0,0,0,0,-1,1511,1205,0,0
294,-181,0,0,0,0,0,0,0,0,0,-1,1518,1205,0,0
301,-181,0,0,0,0,0,0,0,0,0,-1,1525,1205,0,0
308,-181,0,0,0,0,0,0,0,0,0,-1,1532,1205,0,0
315,-181,0,0,0,0,0,0,0,0,0,-1,1539,1205,0,0
322,-181,0,0,0,0,0,0,0,0,0,-1,1546,1205,0,0
329,-181,0,0,0,0,0,0,0,0,0,-1,1553,1205,0,0
336,-181,0,0,0,0,0,0,0,0,0,-1,1560,1205,0,0
343,-181,0,0,0,0,0,0,0,0,0,-1,1567,1205,0,0
350,-181,0,0,0,0,0,0,0,0,0,-1,1574,1205,0,0
357,-181,0,0,0,0,0,0,0,0,0,-1,1581,1205,0,0
364,-181,0,0,0,0,0,0,0,0,0,-1,1588,1205,0,0
371,-181,0,0,0,0,0,0,0,0,0,-1,1595,1205,0,0
378,-181,0,0,0,0,0,0,0,0,0,-1,1602,1205,0,0
385,-181,0,0,0,0,0,0,0,0,0,-1,1609,1205,0,0
392,-181,0,0,0,0,0,0,0,0,0,-1,1616,1205,0,0
399,-181,0,0,0,0,0,0,0,0,0,-1,1623,1205,0,0
406,-181,0,0,0,0,0,0,0,0,0,-1,1630,1205,0,0
413,-181,0,0,0,0,0,0,0,0,0,-1,1637,1205,0,0
420,-181,0,0,0,0,0,0,0,0,0,-1,1644,1205,0,0
427,-181,0,0,0,0,0,0,0,0,0,-1,1651,1205,0,0
434,-181,0,0,0,0,0,0,0,0,0,-1,1658,1205,0,0
441,-181,0,0,0,0,0,0,0,0,0,-1,1665,1205,0,0
448,-181,0,0,0,0,0,0,0,0,0,-1,1672,1205,0,0
455,-181,0,0,0,0,0,0,0,0,0,-1,1679,1205,0,0
462,-181,0,0,0,0,0,0,0,0,0,-1,1686,1205,0,0
469,-181,0,0,0,0,0,0,0,0,0,-1,1693,1205,0,0
476,-181,0,0,0,0,0,0,0,0,0,-1,1700,1205,0,0
483,-181,0,0,0,0,0,0,0,0,0,-1,1707,1205,0,0
490,-181,0,0,0,0,0,0,0,0,0,-1,1714,1205,0,0
497,-181,0,0,0,0,0,0,0,0,0,-1,1721,1205,0,0
504,-181,0,0,0,0,0,0,0,0,0,-1,1728,1205,0,0
511,-181,0,0,0,0,0,0,0,0,0,-1,1735,1205,0,0
518,-181,0,0,0,0,0,0,0,0,0,-1,1742,1205,0,0
525,-181,0,0,0,0,0,0,0,0,0,-1,1749,1205,0,0
532,-181,0,0,0,0,0,0,0,0,0,-1,1756,1205,0,0
539,-181,0,0,0,0,0,0,0,0,0,-1,1763,1205,0,0
546,-181,0,0,0,0,0,0,0,0,0,-1,1770,1205,0,0
553,-181,0,0,0,0,0,0,0,0,0,-1,1777,1205,0,0
560,-181,0,0,0,0,0,0,0,0,0,-1,1784,1205,0,0
567,-181,0,0,0,0,0,0,0,0,0,-1,1791,1205,0,0
574,-181,0,0,0,0,0,0,0,0,0,-1,1798,1205,0,0
581,-181,0,0,0,0,0,0,0,0,0,-1,1805,1205,0,0
588,-181,0,0,0,0,0,0,0,0,0,-1,1812,1205,0,0
595,-181,0,0,0,0,0,0,0,0,0,-1,1819,1205,0,0
602,-181,0,0,0,0,0,0,0,0,0,-1,1826,1205,0,0
609,-181,0,0,0,0,0,0,0,0,0,-1,1833,1205,0,0
616,-181,0,0,0,0,0,0,0,0,0,-1,1840,1205,0,0
623,-181,0,0,0,0,0,0,0,0,0,-1,1847,1205,0,0
630,-181,82.0784,2.5542,-0.00362893,0.000380174,-0.00180247,0.00107138,-0.00432014,-1.20461,0.00329578,0.0365085,1854,1205,82.0783,-2.55425
637,-181,82.1688,2.37146,-0.00304129,0.000597522,-0.00129408,0.0010108,-0.00345457,-1.26167,0.00270371,0.0368306,1861,1205,82.1688,-2.37141
644,-181,82.0145,2.2677,-0.00235592,0.00117129,-0.00120543,0.00154389,-0.00272851,-1.27101,0.00249808,0.0393895,1868,1205,82.0145,-2.26766
651,-181,81.9214,2.31946,-0.00148563,0.00196505,-0.00143381,0.00248305,-0.00200364,-1.22411,0.00259532,0.0426681,1875,1205,81.9213,-2.31948
658,-181,81.8928,2.38989,-0.000734347,0.00287037,-0.00162412,0.00349418,-0.00135815,-1.20408,0.00289055,0.0369392,1882,1205,81.8928,-2.38995
665,-181,81.9171,2.35425,-0.000454626,0.0038785,-0.00155489,0.00437871,-0.000954839,-1.25955,0.00328402,0.0342202,1889,1205,81.9171,-2.35423
672,-181,81.9762,2.2998,-0.000283284,0.00503521,-0.00140871,0.00538529,-0.000633366,-1.32722,0.00381886,0.0268397,1896,1205,81.9762,-2.2998
679,-181,82.0162,2.21606,-0.000156438,0.005381,-0.00124829,0.00564939,-0.000424828,-1.35901,0.00391556,0.0494212,1903,1205,82.0162,-2.21604
686,-181,82.0779,2.09375,0,0,0,0,0,0,0,-1,1910,1205,82.0779,-2.0937
693,-181,36.1301,2.91016,0,0,0,0,0,0,0,-1,1917,1205,36.1302,-2.9102
700,-181,29.5845,6.58398,0,0,0,0,0,0,0,-1,1924,1205,29.5844,-6.58395
707,-181,55.4949,10.6722,0,0,0,0,0,0,0,-1,1931,1205,55.4949,-10.6722
714,-181,55.6268,10.3521,0,0,0,0,0,0,0,-1,1938,1205,55.6268,-10.3521
721,-181,51.2217,9.59631,0,0,0,0,0,0,0,-1,1945,1205,51.2217,-9.59637
728,-181,67.4883,10.722,0,0,0,0,0,0,0,-1,1952,1205,67.4883,-10.722
735,-181,67.4827,9.94617,0.00145878,0.00415396,0.000618127,0.00428896,0.00132378,1.35577,0.00253596,0.0201318,1959,1205,67.4827,-9.94615
742,-181,67.4694,9.21545,0.00160312,0.00339719,0.00109185,0.00391324,0.00108707,1.12928,0.0023325,0.0183463,1966,1205,67.4694,-9.21547
749,-181,67.4208,8.4071,0.000956576,0.00307072,0.00176973,0.00407505,-4.77484e-05,1.05462,0.00273275,0.017268,1973,1205,67.4208,-8.40706
756,-181,67.389,7.60254,0.000163512,0.00315459,0.00271126,0.00475544,-0.00143733,1.03743,0.00374256,0.0127409,1980,1205,67.389,-7.60258
763,-181,67.3381,6.82861,-0.000688332,0.00350816,0.00412411,0.00603711,-0.00321728,1.02072,0.00542507,0.0192962,1987,1205,67.3382,-6.82859
770,-181,67.3218,6.04248,0,0,0,0,0,0,0,-1,1994,1205,67.3219,-6.04254
777,-181,69.6453,-1.67188,0,0,0,0,0,0,0,-1,2001,1205,69.6452,1.6719
784,-181,72.6182,-4.63086,0,0,0,0,0,0,0,-1,2008,1205,72.6181,4.63082
791,-181,69.3733,0.442383,0,0,0,0,0,0,0,-1,2015,1205,69.3733,-0.442431
798,-181,66.1357,-1.15442,0,0,0,0,0,0,0,-1,2022,1205,66.1358,1.15445
805,-181,0,0,0,0,0,0,0,0,0,-1,2029,1205,0,0
812,-181,0,0,0,0,0,0,0,0,0,-1,2036,1205,0,0
-700,-188,0,0,0,0,0,0,0,0,0,-1,524,1212,0,0
-693,-188,0,0,0,0,0,0,0,0,0,-1,531,1212,0,0
-686,-188,0,0,0,0,0,0,0,0,0,-1,538,1212,0,0
-679,-188,-51.8474,2.43372,0,0,0,0,0,0,0,-1,545,1212,-51.8474,-2.4337
-672,-188,-51.8871,3.2561,0,0,0,0,0,0,0,-1,552,1212,-51.887,-3.25605
-665,-188,-51.8471,3.86658,0,0,0,0,0,0,0,-1,559,1212,-51.8471,-3.86661
-658,-188,-51.9416,4.32715,0,0,0,0,0,0,0,-1,566,1212,-51.9416,-4.32713
-651,-188,-48.7929,4.37415,0,0,0,0,0,0,0,-1,573,1212,-48.7929,-4.37416
-644,-188,-50.0464,5.03223,0,0,0,0,0,0,0,-1,580,1212,-50.0465,-5.03224
-637,-188,-50.1344,5.84277,2.83346e-05,0.0078901,0.00321331,0.00903634,-0.00111791,1.22815,0.00642934,0.0270448,587,1212,-50.1344,-5.84273
-630,-188,-50.1296,6.61157,-0.00147155,0.00521688,0.00100278,0.00536399,-0.00161866,1.42513,0.00422032,0.0121575,594,1212,-50.1296,-6.61154
-623,-188,-50.1771,7.42969,-0.00181583,0.00333528,-0.000442777,0.00337306,-0.00185361,-1.48567,0.00305983,0.0124692,601,1212,-50.1771,-7.42969
-616,-188,-50.2006,8.23071,-0.00151584,0.00220916,-0.00149226,0.00273323,-0.00203992,-1.23306,0.00276545,0.0122289,608,1212,-50.2006,-8.2307
-609,-188,-50.2245,9.04797,-0.000285857,0.00194746,-0.00233005,0.00341462,-0.00175301,-1.00885,0.0030345,0.0146161,615,1212,-50.2245,-9.04796
-602,-188,-50.1358,9.93616,0.00122292,0.00102212,-0.00333785,0.00446188,-0.00221684,-0.770363,0.00392791,0.0336585,622,1212,-50.1358,-9.93618
-595,-188,-50.0106,11.0923,0,0,0,0,0,0,0,-1,629,1212,-50.0106,-11.0923
-588,-188,-49.2526,10.9149,0,0,0,0,0,0,0,-1,636,1212,-49.2526,-10.9149
-581,-188,-49.3414,11.6281,0,0,0,0,0,0,0,-1,643,1212,-49.3414,-11.628
-574,-188,-49.366,12.2919,0,0,0,0,0,0,0,-1,650,1212,-49.3661,-12.2918
-567,-188,-19.5786,4.10388,0,0,0,0,0,0,0,-1,657,1212,-19.5785,-4.10383
-560,-188,-23.9507,0.416626,0,0,0,0,0,0,0,-1,664,1212,-23.9508,-0.416602
-553,-188,-49.2368,1.03101,0,0,0,0,0,0,0,-1,671,1212,-49.2367,-1.03099
-546,-188,-64.9269,0.542114,0,0,0,0,0,0,0,-1,678,1212,-64.9269,-0.542155
-539,-188,-64.9821,0.582275,0.00037315,0.000354475,-0.00436625,0.00473007,-0.00400245,-0.784329,0.00504756,0.0361233,685,1212,-64.9821,-0.582324
-532,-188,-64.9433,0.582397,0.000456289,0.00132369,-0.00443105,0.00534221,-0.00356223,-0.834181,0.00517511,0.0380613,692,1212,-64.9433,-0.582374
-525,-188,-64.9509,0.529785,0.00155314,0.00355106,-0.0033734,0.0060703,-0.000966102,-0.929349,0.00440436,0.0385835,699,1212,-64.9509,-0.529764
-518,-188,-64.9836,0.533081,0.00392247,0.00803403,-0.00274086,0.0094044,0.00255209,-1.10716,0.00561565,0.043067,706,1212,-64.9836,-0.533115
-511,-188,-64.8796,0.581543,0.00730559,0.0136683,-0.00244307,0.0144981,0.00647575,-1.24335,0.00838634,0.0412278,713,1212,-64.8796,-0.581598
-504,-188,0,0,0,0,0,0,0,0,0,-1,720,1212,0,0
-497,-188,0,0,0,0,0,0,0,0,0,-1,727,1212,0,0
-490,-188,0,0,0,0,0,0,0,0,0,-1,734,1212,0,0
-483,-188,0,0,0,0,0,0,0,0,0,-1,741,1212,0,0
-476,-188,0,0,0,0,0,0,0,0,0,-1,748,1212,0,0
-469,-188,0,0,0,0,0,0,0,0,0,-1,755,1212,0,0
-462,-188,0,0,0,0,0,0,0,0,0,-1,762,1212,0,0
-455,-188,0,0,0,0,0,0,0,0,0,-1,769,1212,0,0
-448,-188,0,0,0,0,0,0,0,0,0,-1,776,1212,0,0
-441,-188,0,0,0,0,0,0,0,0,0,-1,783,1212,0,0
-434,-188,0,0,0,0,0,0,0,0,0,-1,790,1212,0,0
-427,-188,0,0,0,0,0,0,0,0,0,-1,797,1212,0,0
-420,-188,0,0,0,0,0,0,0,0,0,-1,804,1212,0,0
-413,-188,0,0,0,0,0,0,0,0,0,-1,811,1212,0,0
-406,-188,0,0,0,0,0,0,0,0,0,-1,818,1212,0,0
-399,-188,0,0,0,0,0,0,0,0,0,-1,825,1212,0,0
-392,-188,0,0,0,0,0,0,0,0,0,-1,832,1212,0,0
-385,-188,0,0,0,0,0,0,0,0,0,-1,839,1212,0,0
-378,-188,0,0,0,0,0,0,0,0,0,-1,846,1212,0,0
-371,-188,0,0,0,0,0,0,0,0,0,-1,853,1212,0,0
-364,-188,0,0,0,0,0,0,0,0,0,-1,860,1212,0,0
-357,-188,0,0,0,0,0,0,0,0,0,-1,867,1212,0,0
-350,-188,0,0,0,0,0,0,0,0,0,-1,874,1212,0,0
-343,-188,0,0,0,0,0,0,0,0,0,-1,881,1212,0,0
-336,-188,0,0,0,0,0,0,0,0,0,-1,888,1212,0,0
-329,-188,0,0,0,0,0,0,0,0,0,-1,895,1212,0,0
-322,-188,0,0,0,0,0,0,0,0,0,-1,902,1212,0,0
-315,-188,0,0,0,0,0,0,0,0,0,-1,909,1212,0,0
-308,-188,0,0,0,0,0,0,0,0,0,-1,916,1212,0,0
-301,-188,0,0,0,0,0,0,0,0,0,-1,923,1212,0,0
-294,-188,0,0,0,0,0,0,0,0,0,-1,930,1212,0,0
-287,-188,0,0,0,0,0,0,0,0,0,-1,937,1212,0,0
-280,-188,0,0,0,0,0,0,0,0,0,-1,944,1212,0,0
-273,-188,0,0,0,0,0,0,0,0,0,-1,951,1212,0,0
-266,-188,0,0,0,0,0,0,0,0,0,-1,958,1212,0,0
-259,-188,0,0,0,0,0,0,0,0,0,-1,965,1212,0,0
-252,-188,0,0,0,0,0,0,0,0,0,-1,972,1212,0,0
-245,-188,0,0,0,0,0,0,0,0,0,-1,979,1212,0,0
-238,-188,0,0,0,0,0,0,0,0,0,-1,986,1212,0,0
-231,-188,0,0,0,0,0,0,0,0,0,-1,993,1212,0,0
-224,-188,0,0,0,0,0,0,0,0,0,-1,1000,1212,0,0
-217,-188,0,0,0,0,0,0,0,0,0,-1,1007,1212,0,0
-210,-188,0,0,0,0,0,0,0,0,0,-1,1014,1212,0,0
-203,-188,0,0,0,0,0,0,0,0,0,-1,1021,1212,0,0
-196,-188,0,0,0,0,0,0,0,0,0,-1,1028,1212,0,0
-189,-188,0,0,0,0,0,0,0,0,0,-1,1035,1212,0,0
-182,-188,0,0,0,0,0,0,0,0,0,-1,1042,1212,0,0
-175,-188,0,0,0,0,0,0,0,0,0,-1,1049,1212,0,0
-168,-188,0,0,0,0,0,0,0,0,0,-1,1056,1212,0,0
-161,-188,0,0,0,0,0,0,0,0,0,-1,1063,1212,0,0
-154,-188,0,0,0,0,0,0,0,0,0,-1,1070,1212,0,0
-147,-188,0,0,0,0,0,0,0,0,0,-1,1077,1212,0,0
-140,-188,0,0,0,0,0,0,0,0,0,-1,1084,1212,0,0
-133,-188,0,0,0,0,0,0,0,0,0,-1,1091,1212,0,0
-126,-188,0,0,0,0,0,0,0,0,0,-1,1098,1212,0,0
-119,-188,0,0,0,0,0,0,0,0,0,-1,1105,1212,0,0
-112,-188,0,0,0,0,0,0,0,0,0,-1,1112,1212,0,0
-105,-188,0,0,0,0,0,0,0,0,0,-1,1119,1212,0,0
-98,-188,0,0,0,0,0,0,0,0,0,-1,1126,1212,0,0
-91,-188,0,0,0,0,0,0,0,0,0,-1,1133,1212,0,0
-84,-188,0,0,0,0,0,0,0,0,0,-1,1140,1212,0,0
-77,-188,0,0,0,0,0,0,0,0,0,-1,1147,1212,0,0
-70,-188,0,0,0,0,0,0,0,0,0,-1,1154,1212,0,0
-63,-188,0,0,0,0,0,0,0,0,0,-1,1161,1212,0,0
-56,-188,0,0,0,0,0,0,0,0,0,-1,1168,1212,0,0
-49,-188,0,0,0,0,0,0,0,0,0,-1,1175,1212,0,0
-42,-188,0,0,0,0,0,0,0,0,0,-1,1182,1212,0,0
-35,-188,0,0,0,0,0,0,0,0,0,-1,1189,1212,0,0
-28,-188,0,0,0,0,0,0,0,0,0,-1,1196,1212,0,0
-21,-188,0,0,0,0,0,0,0,0,0,-1,1203,1212,0,0
-14,-188,0,0,0,0,0,0,0,0,0,-1,1210,1212,0,0
-7,-188,0,0,0,0,0,0,0,0,0,-1,1217,1212,0,0
0,-188,0,0,0,0,0,0,0,0,0,-1,1224,1212,0,0
7,-188,0,0,0,0,0,0,0,0,0,-1,1231,1212,0,0
14,-188,0,0,0,0,0,0,0,0,0,-1,1238,1212,0,0
21,-188,0,0,0,0,0,0,0,0,0,-1,1245,1212,0,0
28,-188,0,0,0,0,0,0,0,0,0,-1,1252,1212,0,0
35,-188,0,0,0,0,0,0,0,0,0,-1,1259,1212,0,0
42,-188,0,0,0,0,0,0,0,0,0,-1,1266,1212,0,0
49,-188,0,0,0,0,0,0,0,0,0,-1,1273,1212,0,0
56,-188,0,0,0,0,0,0,0,0,0,-1,1280,1212,0,0
63,-188,0,0,0,0,0,0,0,0,0,-1,1287,1212,0,0
70,-188,0,0,0,0,0,0,0,0,0,-1,1294,1212,0,0
77,-188,0,0,0,0,0,0,0,0,0,-1,1301,1212,0,0
84,-188,0,0,0,0,0,0,0,0,0,-1,1308,1212,0,0
91,-188,0,0,0,0,0,0,0,0,0,-1,1315,1212,0,0
98,-188,0,0,0,0,0,0,0,0,0,-1,1322,1212,0,0
105,-188,0,0,0,0,0,0,0,0,0,-1,1329,1212,0,0
112,-188,0,0,0,0,0,0,0,0,0,-1,1336,1212,0,0
119,-188,0,0,0,0,0,0,0,0,0,-1,1343,1212,0,0
126,-188,0,0,0,0,0,0,0,0,0,-1,1350,1212,0,0
133,-188,0,0,0,0,0,0,0,0,0,-1,1357,1212,0,0
140,-188,0,0,0,0,0,0,0,0,0,-1,1364,1212,0,0
147,-188,0,0,0,0,0,0,0,0,0,-1,1371,1212,0,0
154,-188,0,0,0,0,0,0,0,0,0,-1,1378,1212,0,0
161,-188,0,0,0,0,0,0,0,0,0,-1,1385,1212,0,0
168,-188,0,0,0,0,0,0,0,0,0,-1,1392,1212,0,0
175,-188,0,0,0,0,0,0,0,0,0,-1,1399,1212,0,0
182,-188,0,0,0,0,0,0,0,0,0,-1,1406,1212,0,0
189,-188,0,0,0,0,0,0,0,0,0,-1,1413,1212,0,0
196,-188,0,0,0,0,0,0,0,0,0,-1,1420,1212,0,0
203,-188,0,0,0,0,0,0,0,0,0,-1,1427,1212,0,0
210,-188,0,0,0,0,0,0,0,0,0,-1,1434,1212,0,0
217,-188,0,0,0,0,0,0,0,0,0,-1,1441,1212,0,0
224,-188,0,0,0,0,0,0,0,0,0,-1,1448,1212,0,0
231,-188,0,0,0,0,0,0,0,0,0,-1,1455,1212,0,0
238,-188,0,0,0,0,0,0,0,0,0,-1,1462,1212,0,0
245,-188,0,0,0,0,0,0,0,0,0,-1,1469,1212,0,0
252,-188,0,0,0,0,0,0,0,0,0,-1,1476,1212,0,0
259,-188,0,0,0,0,0,0,0,0,0,-1,1483,1212,0,0
266,-188,0,0,0,0,0,0,0,0,0,-1,1490,1212,0,0
273,-188,0,0,0,0,0,0,0,0,0,-1,1497,1212,0,0
280,-188,0,0,0,0,0,0,0,0,0,-1,1504,1212,0,0
287,-188,0,0,0,0,0,0,0,0,0,-1,1511,1212,0,0
294,-188,0,0,0,0,0,0,0,0,0,-1,1518,1212,0,0
301,-188,0,0,0,0,0,0,0,0,0,-1,1525,1212,0,0
308,-188,0,0,0,0,0,0,0,0,0,-1,1532,1212,0,0
315,-188,0,0,0,0,0,0,0,0,0,-1,1539,1212,0,0
322,-188,0,0,0,0,0,0,0,0,0,-1,1546,1212,0,0
329,-188,0,0,0,0,0,0,0,0,0,-1,1553,1212,0,0
336,-188,0,0,0,0,0,0,0,0,0,-1,1560,1212,0,0
343,-188,0,0,0,0,0,0,0,0,0,-1,1567,1212,0,0
350,-188,0,0,0,0,0,0,0,0,0,-1,1574,1212,0,0
357,-188,0,0,0,0,0,0,0,0,0,-1,1581,1212,0,0
364,-188,0,0,0,0,0,0,0,0,0,-1,1588,1212,0,0
371,-188,0,0,0,0,0,0,0,0,0,-1,1595,1212,0,0
378,-188,0,0,0,0,0,0,0,0,0,-1,1602,1212,0,0
385,-188,0,0,0,0,0,0,0,0,0,-1,1609,1212,0,0
392,-188,0,0,0,0,0,0,0,0,0,-1,1616,1212,0,0
399,-188,0,0,0,0,0,0,0,0,0,-1,1623,1212,0,0
406,-188,0,0,0,0,0,0,0,0,0,-1,1630,1212,0,0
413,-188,0,0,0,0,0,0,0,0,0,-1,1637,1212,0,0
420,-188,0,0,0,0,0,0,0,0,0,-1,1644,1212,0,0
427,-188,0,0,0,0,0,0,0,0,0,-1,1651,1212,0,0
434,-188,0,0,0,0,0,0,0,0,0,-1,1658,1212,0,0
441,-188,0,0,0,0,0,0,0,0,0,-1,1665,1212,0,0
448,-188,0,0,0,0,0,0,0,0,0,-1,1672,1212,0,0
455,-188,0,0,0,0,0,0,0,0,0,-1,1679,1212,0,0
462,-188,0,0,0,0,0,0,0,0,0,-1,1686,1212,0,0
469,-188,0,0,0,0,0,0,0,0,0,-1,1693,1212,0,0
476,-188,0,0,0,0,0,0,0,0,0,-1,1700,1212,0,0
483,-188,0,0,0,0,0,0,0,0,0,-1,1707,1212,0,0
490,-188,0,0,0,0,0,0,0,0,0,-1,1714,1212,0,0
497,-188,0,0,0,0,0,0,0,0,0,-1,1721,1212,0,0
504,-188,0,0,0,0,0,0,0,0,0,-1,1728,1212,0,0
511,-188,0,0,0,0,0,0,0,0,0,-1,1735,1212,0,0
518,-188,0,0,0,0,0,0,0,0,0,-1,1742,1212,0,0
525,-188,0,0,0,0,0,0,0,0,0,-1,1749,1212,0,0
532,-188,0,0,0,0,0,0,0,0,0,-1,1756,1212,0,0
539,-188,0,0,0,0,0,0,0,0,0,-1,1763,1212,0,0
546,-188,0,0,0,0,0,0,0,0,0,-1,1770,1212,0,0
553,-188,0,0,0,0,0,0,0,0,0,-1,1777,1212,0,0
560,-188,0,0,0,0,0,0,0,0,0,-1,1784,1212,0,0
567,-188,0,0,0,0,0,0,0,0,0,-1,1791,1212,0,0
574,-188,0,0,0,0,0,0,0,0,0,-1,1798,1212,0,0
581,-188,0,0,0,0,0,0,0,0,0,-1,1805,1212,0,0
588,-188,0,0,0,0,0,0,0,0,0,-1,1812,1212,0,0
595,-188,0,0,0,0,0,0,0,0,0,-1,1819,1212,0,0
602,-188,0,0,0,0,0,0,0,0,0,-1,1826,1212,0,0
609,-188,0,0,0,0,0,0,0,0,0,-1,1833,1212,0,0
616,-188,0,0,0,0,0,0,0,0,0,-1,1840,1212,0,0
623,-188,0,0,0,0,0,0,0,0,0,-1,1847,1212,0,0
630,-188,82.0607,2.58105,-0.00286676,-3.22928e-06,-0.00149291,0.000633517,-0.00350351,-1.16765,0.00257297,0.0419688,1854,1212,82.0607,-2.58101
637,-188,82.0551,2.40991,-0.00235343,0.000287645,-0.00124792,0.000784005,-0.00284979,-1.19223,0.00220809,0.0402066,1861,1212,82.055,-2.40994
644,-188,81.949,2.35815,-0.00172239,0.00097215,-0.00134618,0.00152944,-0.00227968,-1.1783,0.00221337,0.0364876,1868,1212,81.949,-2.3582
651,-188,81.8883,2.40967,-0.00093773,0.00189549,-0.00169608,0.00268874,-0.00173098,-1.13332,0.00257162,0.0340244,1875,1212,81.8883,-2.40964
658,-188,81.9528,2.33386,-0.000479879,0.00286244,-0.00173884,0.00360299,-0.00122043,-1.16817,0.00289584,0.033157,1882,1212,81.9527,-2.33385
665,-188,81.9355,2.29297,-0.000570919,0.00373498,-0.00143718,0.0041706,-0.00100654,-1.27649,0.00316964,0.0303529,1889,1212,81.9356,-2.29298
672,-188,81.9645,2.23743,-0.000578738,0.00463435,-0.00111092,0.00486121,-0.000805603,-1.36935,0.00354003,0.025935,1896,1212,81.9645,-2.2374
679,-188,81.9645,2.08728,0,0,0,0,0,0,0,-1,1903,1212,81.9645,-2.08733
686,-188,60.1007,2.41321,0,0,0,0,0,0,0,-1,1910,1212,60.1007,-2.41325
693,-188,35.9054,2.18042,0,0,0,0,0,0,0,-1,1917,1212,35.9054,-2.18038
700,-188,54.452,11.2678,0,0,0,0,0,0,0,-1,1924,1212,54.452,-11.2678
707,-188,67.2025,13.3396,0,0,0,0,0,0,0,-1,1931,1212,67.2025,-13.3395
714,-188,54.7506,10.1539,0,0,0,0,0,0,0,-1,1938,1212,54.7507,-10.1539
721,-188,61.637,10.8645,0,0,0,0,0,0,0,-1,1945,1212,61.6369,-10.8645
728,-188,66.786,10.7826,0,0,0,0,0,0,0,-1,1952,1212,66.786,-10.7826
735,-188,66.7032,10.0071,0.00111159,0.00409892,0.000833893,0.00431593,0.000894583,1.3162,0.0026303,0.0141047,1959,1212,66.7032,-10.0071
742,-188,66.6362,9.22583,0.00114216,0.0032361,0.00124203,0.00381356,0.000564693,1.13559,0.00237661,0.0154761,1966,1212,66.6363,-9.22577
749,-188,66.6049,8.4541,0.000524168,0.00277279,0.00189792,0.00385442,-0.000557457,1.0528,0.00277416,0.0151645,1973,1212,66.6048,-8.45412
756,-188,66.601,7.64368,-0.000213973,0.00270686,0.00286931,0.00446603,-0.00197315,1.0208,0.0038094,0.0135634,1980,1212,66.601,-7.64368
763,-188,66.5796,6.84607,-0.00115693,0.00297742,0.00443385,0.0058023,-0.00398181,1.00353,0.00568136,0.0201242,1987,1212,66.5796,-6.84603
770,-188,66.5903,6.03577,0,0,0,0,0,0,0,-1,1994,1212,66.5903,-6.03572
777,-188,61.4719,4.67664,0,0,0,0,0,0,0,-1,2001,1212,61.4719,-4.67659
784,-188,69.1482,-1.87268,0,0,0,0,0,0,0,-1,2008,1212,69.1481,1.87266
791,-188,68.3596,-0.192261,0,0,0,0,0,0,0,-1,2015,1212,68.3596,0.192286
798,-188,67.5286,1.23303,0,0,0,0,0,0,0,-1,2022,1212,67.5285,-1.23298
805,-188,0,0,0,0,0,0,0,0,0,-1,2029,1212,0,0
812,-188,0,0,0,0,0,0,0,0,0,-1,2036,1212,0,0
-700,-195,0,0,0,0,0,0,0,0,0,-1,524,1219,0,0
-693,-195,0,0,0,0,0,0,0,0,0,-1,531,1219,0,0
-686,-195,0,0,0,0,0,0,0,0,0,-1,538,1219,0,0
-679,-195,-50.7459,1.90869,0,0,0,0,0,0,0,-1,545,1219,-50.7459,-1.9087
-672,-195,-50.9967,2.63708,0,0,0,0,0,0,0,-1,552,1219,-50.9967,-2.63703
-665,-195,-50.7552,3.13232,0,0,0,0,0,0,0,-1,559,1219,-50.7552,-3.13237
-658,-195,-50.65,3.62805,0,0,0,0,0,0,0,-1,566,1219,-50.65,-3.628
-651,-195,-47.8704,4.61267,0,0,0,0,0,0,0,-1,573,1219,-47.8704,-4.61272
-644,-195,-49.0783,5.11377,0,0,0,0,0,0,0,-1,580,1219,-49.0783,-5.11379
-637,-195,-49.173,5.85889,-0.00496531,0.00379702,-7.82326e-05,0.00379772,-0.00496601,-1.56187,0.0050747,0.0277444,587,1219,-49.173,-5.85884
-630,-195,-49.2837,6.64355,-0.00367449,0.00307195,-0.000497795,0.00310848,-0.00371103,-1.49754,0.00394236,0.0101755,594,1219,-49.2837,-6.64358
-623,-195,-49.3297,7.45837,-0.00241506,0.00236633,-0.000820597,0.00250324,-0.00255197,-1.40547,0.00291867,0.00932733,601,1219,-49.3297,-7.45832
-616,-195,-49.3672,8.27356,-0.00133324,0.00212084,-0.00126255,0.00253312,-0.00174552,-1.25517,0.00248419,0.0108589,608,1219,-49.3672,-8.27351
-609,-195,-49.3917,9.13086,-0.000421816,0.00212307,-0.00173187,0.00299969,-0.00129844,-1.10222,0.0025455,0.019703,615,1219,-49.3917,-9.13085
-602,-195,-49.3913,9.96387,0.000477826,0.0016732,-0.00217795,0.00333399,-0.00118296,-0.919314,0.00270463,0.0267859,622,1219,-49.3913,-9.96389
-595,-195,-49.4304,10.8004,0,0,0,0,0,0,0,-1,629,1219,-49.4304,-10.8004
-588,-195,-49.6669,11.6978,0,0,0,0,0,0,0,-1,636,1219,-49.6669,-11.6977
-581,-195,-48.3543,11.682,0,0,0,0,0,0,0,-1,643,1219,-48.3543,-11.6821
-574,-195,-48.5243,12.2686,0,0,0,0,0,0,0,-1,650,1219,-48.5243,-12.2686
-567,-195,-20.6388,3.78369,0,0,0,0,0,0,0,-1,657,1219,-20.6388,-3.78369
-560,-195,-20.878,2.10388,0,0,0,0,0,0,0,-1,664,1219,-20.878,-2.10385
-553,-195,-41.595,0.613281,0,0,0,0,0,0,0,-1,671,1219,-41.595,-0.61334
-546,-195,-63.8136,0.917603,0,0,0,0,0,0,0,-1,678,1219,-63.8136,-0.917637
-539,-195,-64.9216,0.548096,0,0,0,0,0,0,0,-1,685,1219,-64.9216,-0.548102
-532,-195,-64.9129,0.498291,-0.000443217,0.00212163,-0.00424292,0.0052717,-0.00359328,-0.932158,0.00514868,0.0330606,692,1219,-64.9129,-0.498317
-525,-195,-64.936,0.562988,0.000430008,0.00379703,-0.00412215,0.0065662,-0.00233916,-0.979264,0.00533108,0.0363573,699,1219,-64.936,-0.562999
-518,-195,-64.936,0.425781,0.00274028,0.00714805,-0.00416779,0.00965879,0.000229551,-1.0286,0.00636405,0.0402222,706,1219,-64.936,-0.425821
-511,-195,-64.7209,0.195923,0.00667849,0.012762,-0.00430608,0.0149923,0.00444819,-1.0929,0.00889114,0.0422048,713,1219,-64.721,-0.195933
-504,-195,0,0,0,0,0,0,0,0,0,-1,720,1219,0,0
-497,-195,0,0,0,0,0,0,0,0,0,-1,727,1219,0,0
-490,-195,0,0,0,0,0,0,0,0,0,-1,734,1219,0,0
-483,-195,0,0,0,0,0,0,0,0,0,-1,741,1219,0,0
-476,-195,0,0,0,0,0,0,0,0,0,-1,748,1219,0,0
-469,-195,0,0,0,0,0,0,0,0,0,-1,755,1219,0,0
-462,-195,0,0,0,0,0,0,0,0,0,-1,762,1219,0,0
-455,-195,0,0,0,0,0,0,0,0,0,-1,769,1219,0,0
-448,-195,0,0,0,0,0,0,0,0,0,-1,776,1219,0,0
-441,-195,0,0,0,0,0,0,0,0,0,-1,783,1219,0,0
-434,-195,0,0,0,0,0,0,0,0,0,-1,790,1219,0,0
-427,-195,0,0,0,0,0,0,0,0,0,-1,797,1219,0,0
-420,-195,0,0,0,0,0,0,0,0,0,-1,804,1219,0,0
-413,-195,0,0,0,0,0,0,0,0,0,-1,811,1219,0,0
-406,-195,0,0,0,0,0,0,0,0,0,-1,818,1219,0,0
-399,-195,0,0,0,0,0,0,0,0,0,-1,825,1219,0,0
-392,-195,0,0,0,0,0,0,0,0,0,-1,832,1219,0,0
-385,-195,0,0,0,0,0,0,0,0,0,-1,839,1219,0,0
-378,-195,0,0,0,0,0,0,0,0,0,-1,846,1219,0,0
-371,-195,0,0,0,0,0,0,0,0,0,-1,853,1219,0,0
-364,-195,0,0,0,0,0,0,0,0,0,-1,860,1219,0,0
-357,-195,0,0,0,0,0,0,0,0,0,-1,867,1219,0,0
-350,-195,0,0,0,0,0,0,0,0,0,-1,874,1219,0,0
-343,-195,0,0,0,0,0,0,0,0,0,-1,881,1219,0,0
-336,-195,0,0,0,0,0,0,0,0,0,-1,888,1219,0,0
-329,-195,0,0,0,0,0,0,0,0,0,-1,895,1219,0,0
-322,-195,0,0,0,0,0,0,0,0,0,-1,902,1219,0,0
-315,-195,0,0,0,0,0,0,0,0,0,-1,909,1219,0,0
-308,-195,0,0,0,0,0,0,0,0,0,-1,916,1219,0,0
-301,-195,0,0,0,0,0,0,0,0,0,-1,923,1219,0,0
-294,-195,0,0,0,0,0,0,0,0,0,-1,930,1219,0,0
-287,-195,0,0,0,0,0,0,0,0,0,-1,937,1219,0,0
-280,-195,0,0,0,0,0,0,0,0,0,-1,944,1219,0,0
-273,-195,0,0,0,0,0,0,0,0,0,-1,951,1219,0,0
-266,-195,0,0,0,0,0,0,0,0,0,-1,958,1219,0,0
-259,-195,0,0,0,0,0,0,0,0,0,-1,965,1219,0,0
-252,-195,0,0,0,0,0,0,0,0,0,-1,972,1219,0,0
-245,-195,0,0,0,0,0,0,0,0,0,-1,979,1219,0,0
-238,-195,0,0,0,0,0,0,0,0,0,-1,986,1219,0,0
-231,-195,0,0,0,0,0,0,0,0,0,-1,993,1219,0,0
-224,-195,0,0,0,0,0,0,0,0,0,-1,1000,1219,0,0
-217,-195,0,0,0,0,0,0,0,0,0,-1,1007,1219,0,0
-210,-195,0,0,0,0,0,0,0,0,0,-1,1014,1219,0,0
-203,-195,0,0,0,0,0,0,0,0,0,-1,1021,1219,0,0
-196,-195,0,0,0,0,0,0,0,0,0,-1,1028,1219,0,0
-189,-195,0,0,0,0,0,0,0,0,0,-1,1035,1219,0,0
-182,-195,0,0,0,0,0,0,0,0,0,-1,1042,1219,0,0
-175,-195,0,0,0,0,0,0,0,0,0,-1,1049,1219,0,0
-168,-195,0,0,0,0,0,0,0,0,0,-1,1056,1219,0,0
-161,-195,0,0,0,0,0,0,0,0,0,-1,1063,1219,0,0
-154,-195,0,0,0,0,0,0,0,0,0,-1,1070,1219,0,0
-147,-195,0,0,0,0,0,0,0,0,0,-1,1077,1219,0,0
-140,-195,0,0,0,0,0,0,0,0,0,-1,1084,1219,0,0
-133,-195,0,0,0,0,0,0,0,0,0,-1,1091,1219,0,0
-126,-195,0,0,0,0,0,0,0,0,0,-1,1098,1219,0,0
-119,-195,0,0,0,0,0,0,0,0,0,-1,1105,1219,0,0
-112,-195,0,0,0,0,0,0,0,0,0,-1,1112,1219,0,0
-105,-195,0,0,0,0,0,0,0,0,0,-1,1119,1219,0,0
-98,-195,0,0,0,0,0,0,0,0,0,-1,1126,1219,0,0
-91,-195,0,0,0,0,0,0,0,0,0,-1,1133,1219,0,0
-84,-195,0,0,0,0,0,0,0,0,0,-1,1140,1219,0,0
-77,-195,0,0,0,0,0,0,0,0,0,-1,1147,1219,0,0
-70,-195,0,0,0,0,0,0,0,0,0,-1,1154,1219,0,0
-63,-195,0,0,0,0,0,0,0,0,0,-1,1161,1219,0,0
-56,-195,0,0,0,0,0,0,0,0,0,-1,1168,1219,0,0
-49,-195,0,0,0,0,0,0,0,0,0,-1,1175,1219,0,0
-42,-195,0,0,0,0,0,0,0,0,0,-1,1182,1219,0,0
-35,-195,0,0,0,0,0,0,0,0,0,-1,1189,1219,0,0
-28,-195,0,0,0,0,0,0,0,0,0,-1,1196,1219,0,0
-21,-195,0,0,0,0,0,0,0,0,0,-1,1203,1219,0,0
-14,-195,0,0,0,0,0,0,0,0,0,-1,1210,1219,0,0
-7,-195,0,0,0,0,0,0,0,0,0,-1,1217,1219,0,0
0,-195,0,0,0,0,0,0,0,0,0,-1,1224,1219,0,0
7,-195,0,0,0,0,0,0,0,0,0,-1,1231,1219,0,0
14,-195,0,0,0,0,0,0,0,0,0,-1,1238,1219,0,0
21,-195,0,0,0,0,0,0,0,0,0,-1,1245,1219,0,0
28,-195,0,0,0,0,0,0,0,0,0,-1,1252,1219,0,0
35,-195,0,0,0,0,0,0,0,0,0,-1,1259,1219,0,0
42,-195,0,0,0,0,0,0,0,0,0,-1,1266,1219,0,0
49,-195,0,0,0,0,0,0,0,0,0,-1,1273,1219,0,0
56,-195,0,0,0,0,0,0,0,0,0,-1,1280,1219,0,0
63,-195,0,0,0,0,0,0,0,0,0,-1,1287,1219,0,0
70,-195,0,0,0,0,0,0,0,0,0,-1,1294,1219,0,0
77,-195,0,0,0,0,0,0,0,0,0,-1,1301,1219,0,0
84,-195,0,0,0,0,0,0,0,0,0,-1,1308,1219,0,0
91,-195,0,0,0,0,0,0,0,0,0,-1,1315,1219,0,0
98,-195,0,0,0,0,0,0,0,0,0,-1,1322,1219,0,0
105,-195,0,0,0,0,0,0,0,0,0,-1,1329,1219,0,0
112,-195,0,0,0,0,0,0,0,0,0,-1,1336,1219,0,0
119,-195,0,0,0,0,0,0,0,0,0,-1,1343,1219,0,0
126,-195,0,0,0,0,0,0,0,0,0,-1,1350,1219,0,0
133,-195,0,0,0,0,0,0,0,0,0,-1,1357,1219,0,0
140,-195,0,0,0,0,0,0,0,0,0,-1,1364,1219,0,0
147,-195,0,0,0,0,0,0,0,0,0,-1,1371,1219,0,0
154,-195,0,0,0,0,0,0,0,0,0,-1,1378,1219,0,0
161,-195,0,0,0,0,0,0,0,0,0,-1,1385,1219,0,0
168,-195,0,0,0,0,0,0,0,0,0,-1,1392,1219,0,0
175,-195,0,0,0,0,0,0,0,0,0,-1,1399,1219,0,0
182,-195,0,0,0,0,0,0,0,0,0,-1,1406,1219,0,0
189,-195,0,0,0,0,0,0,0,0,0,-1,1413,1219,0,0
196,-195,0,0,0,0,0,0,0,0,0,-1,1420,1219,0,0
203,-195,0,0,0,0,0,0,0,0,0,-1,1427,1219,0,0
210,-195,0,0,0,0,0,0,0,0,0,-1,1434,1219,0,0
217,-195,0,0,0,0,0,0,0,0,0,-1,1441,1219,0,0
224,-195,0,0,0,0,0,0,0,0,0,-1,1448,1219,0,0
231,-195,0,0,0,0,0,0,0,0,0,-1,1455,1219,0,0
238,-195,0,0,0,0,0,0,0,0,0,-1,1462,1219,0,0
245,-195,0,0,0,0,0,0,0,0,0,-1,1469,1219,0,0
252,-195,0,0,0,0,0,0,0,0,0,-1,1476,1219,0,0
259,-195,0,0,0,0,0,0,0,0,0,-1,1483,1219,0,0
266,-195,0,0,0,0,0,0,0,0,0,-1,1490,1219,0,0
273,-195,0,0,0,0,0,0,0,0,0,-1,1497,1219,0,0
280,-195,0,0,0,0,0,0,0,0,0,-1,1504,1219,0,0
287,-195,0,0,0,0,0,0,0,0,0,-1,1511,1219,0,0
294,-195,0,0,0,0,0,0,0,0,0,-1,1518,1219,0,0
301,-195,0,0,0,0,0,0,0,0,0,-1,1525,1219,0,0
308,-195,0,0,0,0,0,0,0,0,0,-1,1532,1219,0,0
315,-195,0,0,0,0,0,0,0,0,0,-1,1539,1219,0,0
322,-195,0,0,0,0,0,0,0,0,0,-1,1546,1219,0,0
329,-195,0,0,0,0,0,0,0,0,0,-1,1553,1219,0,0
336,-195,0,0,0,0,0,0,0,0,0,-1,1560,1219,0,0
343,-195,0,0,0,0,0,0,0,0,0,-1,1567,1219,0,0
350,-195,0,0,0,0,0,0,0,0,0,-1,1574,1219,0,0
357,-195,0,0,0,0,0,0,0,0,0,-1,1581,1219,0,0
364,-195,0,0,0,0,0,0,0,0,0,-1,1588,1219,0,0
371,-195,0,0,0,0,0,0,0,0,0,-1,1595,1219,0,0
378,-195,0,0,0,0,0,0,0,0,0,-1,1602,1219,0,0
385,-195,0,0,0,0,0,0,0,0,0,-1,1609,1219,0,0
392,-195,0,0,0,0,0,0,0,0,0,-1,1616,1219,0,0
399,-195,0,0,0,0,0,0,0,0,0,-1,1623,1219,0,0
406,-195,0,0,0,0,0,0,0,0,0,-1,1630,1219,0,0
413,-195,0,0,0,0,0,0,0,0,0,-1,1637,1219,0,0
420,-195,0,0,0,0,0,0,0,0,0,-1,1644,1219,0,0
427,-195,0,0,0,0,0,0,0,0,0,-1,1651,1219,0,0
434,-195,0,0,0,0,0,0,0,0,0,-1,1658,1219,0,0
441,-195,0,0,0,0,0,0,0,0,0,-1,1665,1219,0,0
448,-195,0,0,0,0,0,0,0,0,0,-1,1672,1219,0,0
455,-195,0,0,0,0,0,0,0,0,0,-1,1679,1219,0,0
462,-195,0,0,0,0,0,0,0,0,0,-1,1686,1219,0,0
469,-195,0,0,0,0,0,0,0,0,0,-1,1693,1219,0,0
476,-195,0,0,0,0,0,0,0,0,0,-1,1700,1219,0,0
483,-195,0,0,0,0,0,0,0,0,0,-1,1707,1219,0,0
490,-195,0,0,0,0,0,0,0,0,0,-1,1714,1219,0,0
497,-195,0,0,0,0,0,0,0,0,0,-1,1721,1219,0,0
504,-195,0,0,0,0,0,0,0,0,0,-1,1728,1219,0,0
511,-195,0,0,0,0,0,0,0,0,0,-1,1735,1219,0,0
518,-195,0,0,0,0,0,0,0,0,0,-1,1742,1219,0,0
525,-195,0,0,0,0,0,0,0,0,0,-1,1749,1219,0,0
532,-195,0,0,0,0,0,0,0,0,0,-1,1756,1219,0,0
539,-195,0,0,0,0,0,0,0,0,0,-1,1763,1219,0,0
546,-195,0,0,0,0,0,0,0,0,0,-1,1770,1219,0,0
553,-195,0,0,0,0,0,0,0,0,0,-1,1777,1219,0,0
560,-195,0,0,0,0,0,0,0,0,0,-1,1784,1219,0,0
567,-195,0,0,0,0,0,0,0,0,0,-1,1791,1219,0,0
574,-195,0,0,0,0,0,0,0,0,0,-1,1798,1219,0,0
581,-195,0,0,0,0,0,0,0,0,0,-1,1805,1219,0,0
588,-195,0,0,0,0,0,0,0,0,0,-1,1812,1219,0,0
595,-195,0,0,0,0,0,0,0,0,0,-1,1819,1219,0,0
602,-195,0,0,0,0,0,0,0,0,0,-1,1826,1219,0,0
609,-195,0,0,0,0,0,0,0,0,0,-1,1833,1219,0,0
616,-195,0,0,0,0,0,0,0,0,0,-1,1840,1219,0,0
623,-195,0,0,0,0,0,0,0,0,0,-1,1847,1219,0,0
630,-195,82.0364,2.56335,-0.00208773,5.59509e-05,-0.00116533,0.000567411,-0.00259919,-1.15721,0.00194965,0.0420646,1854,1219,82.0363,-2.56339
637,-195,82.04,2.36914,-0.0017161,0.000442076,-0.00115034,0.000940238,-0.00221426,-1.16212,0.00187011,0.039271,1861,1219,82.04,-2.36911
644,-195,81.9916,2.3833,-0.00120229,0.00117928,-0.00141234,0.00183584,-0.00185885,-1.13565,0.00213314,0.0349501,1868,1219,81.9916,-2.38331
651,-195,81.9988,2.34595,-0.000591639,0.00202971,-0.00180898,0.00295293,-0.00151486,-1.0989,0.00262364,0.0284376,1875,1219,81.9988,-2.34593
658,-195,82.0232,2.30725,-0.000413114,0.00280462,-0.00165033,0.00350054,-0.00110903,-1.17174,0.00277817,0.0250098,1882,1219,82.0232,-2.30729
665,-195,82.0299,2.29419,-0.000709552,0.00336881,-0.00120093,0.00369617,-0.00103691,-1.30468,0.00287282,0.0223482,1889,1219,82.0299,-2.29417
672,-195,82.0056,2.17236,-0.000754334,0.00396186,-0.000836032,0.00410568,-0.00089815,-1.40044,0.00308046,0.0407907,1896,1219,82.0056,-2.17231
679,-195,81.9569,1.98279,0,0,0,0,0,0,0,-1,1903,1219,81.957,-1.9828
686,-195,51.2117,1.94312,0,0,0,0,0,0,0,-1,1910,1219,51.2117,-1.9431
693,-195,24.4368,5.68298,0,0,0,0,0,0,0,-1,1917,1219,24.4368,-5.68293
700,-195,66.1847,14.0522,0,0,0,0,0,0,0,-1,1924,1219,66.1847,-14.0523
707,-195,66.24,13.2438,0,0,0,0,0,0,0,-1,1931,1219,66.24,-13.2438
714,-195,66.1531,13.1162,0,0,0,0,0,0,0,-1,1938,1219,66.153,-13.1162
721,-195,65.8566,11.8964,0,0,0,0,0,0,0,-1,1945,1219,65.8565,-11.8963
728,-195,65.9279,10.9213,0.000417521,0.00432627,0.000806677,0.00448621,0.000257586,1.37507,0.00290875,0.0128429,1952,1219,65.9279,-10.9212
735,-195,65.8999,10.0184,0.000702433,0.00371806,0.00114118,0.00410122,0.000319268,1.24686,0.00263418,0.0127326,1959,1219,65.8999,-10.0184
742,-195,65.8418,9.24707,0.000555815,0.00290148,0.00155125,0.00367336,-0.000216065,1.10908,0.00252401,0.0152196,1966,1219,65.8419,-9.24711
749,-195,65.8082,8.49866,-8.11573e-05,0.0024185,0.00223851,0.00373245,-0.00139512,1.04001,0.00306121,0.0163601,1973,1219,65.8082,-8.49867
756,-195,65.7837,7.71936,-0.000839273,0.00232856,0.00327458,0.00438217,-0.00289289,1.01066,0.0042295,0.0154453,1980,1219,65.7837,-7.71939
763,-195,65.7705,6.84216,-0.00189456,0.00272157,0.0050132,0.00593251,-0.0051055,1.00113,0.00637875,0.0228952,1987,1219,65.7706,-6.84212
770,-195,65.5935,6.16577,0,0,0,0,0,0,0,-1,1994,1219,65.5936,-6.16582
777,-195,65.5393,5.74097,0,0,0,0,0,0,0,-1,2001,1219,65.5393,-5.74102
784,-195,69.7437,-3.15942,0,0,0,0,0,0,0,-1,2008,1219,69.7437,3.15944
791,-195,68.9104,-1.24268,0,0,0,0,0,0,0,-1,2015,1219,68.9103,1.24264
798,-195,66.05,2.49902,0,0,0,0,0,0,0,-1,2022,1219,66.0501,-2.499
805,-195,0,0,0,0,0,0,0,0,0,-1,2029,1219,0,0
812,-195,0,0,0,0,0,0,0,0,0,-1,2036,1219,0,0
-700,-202,0,0,0,0,0,0,0,0,0,-1,524,1226,0,0
-693,-202,0,0,0,0,0,0,0,0,0,-1,531,1226,0,0
-686,-202,0,0,0,0,0,0,0,0,0,-1,538,1226,0,0
-679,-202,-50.252,1.46204,0,0,0,0,0,0,0,-1,545,1226,-50.2521,-1.46206
-672,-202,-49.7662,1.78162,0,0,0,0,0,0,0,-1,552,1226,-49.7662,-1.78168
-665,-202,-49.5333,2.29883,0,0,0,0,0,0,0,-1,559,1226,-49.5332,-2.29888
-658,-202,-49.3003,2.81604,0,0,0,0,0,0,0,-1,566,1226,-49.3003,-2.81608
-651,-202,-58.2099,11.1689,0,0,0,0,0,0,0,-1,573,1226,-58.2099,-11.1689
-644,-202,-47.1954,5.28003,0,0,0,0,0,0,0,-1,580,1226,-47.1955,-5.27998
-637,-202,-48.4373,5.74329,0,0,0,0,0,0,0,-1,587,1226,-48.4373,-5.74331
-630,-202,-48.4499,6.61646,-0.00247075,0.00275986,-0.000469633,0.00280169,-0.00251258,-1.48196,0.00306971,0.0261929,594,1226,-48.4499,-6.61643
-623,-202,-48.4741,7.47534,-0.00150497,0.00206052,-0.000620799,0.00216552,-0.00160997,-1.40325,0.00218763,0.00991253,601,1226,-48.4741,-7.47539
-616,-202,-48.5189,8.30786,-0.00082641,0.00198239,-0.00103418,0.00232209,-0.0011661,-1.25343,0.00205044,0.00930693,608,1226,-48.5189,-8.30792
-609,-202,-48.5499,9.13965,-0.000400604,0.00209409,-0.00146784,0.00277299,-0.0010795,-1.13758,0.00229475,0.0239656,615,1226,-48.55,-9.13964
-602,-202,-48.586,9.95044,-5.45768e-05,0.00223941,-0.00199572,0.00339426,-0.00120943,-1.04621,0.00275591,0.0235988,622,1226,-48.586,-9.9504
-595,-202,-48.6454,10.7941,0,0,0,0,0,0,0,-1,629,1226,-48.6454,-10.794
-588,-202,-47.6164,11.0099,0,0,0,0,0,0,0,-1,636,1226,-47.6164,-11.0098
-581,-202,-47.5237,11.684,0,0,0,0,0,0,0,-1,643,1226,-47.5237,-11.6839
-574,-202,-47.6211,12.4293,0,0,0,0,0,0,0,-1,650,1226,-47.6211,-12.4293
-567,-202,-22.1768,4.56995,0,0,0,0,0,0,0,-1,657,1226,-22.1768,-4.56991
-560,-202,-10.929,2.73096,0,0,0,0,0,0,0,-1,664,1226,-10.929,-2.73092
-553,-202,-30.2701,1.474,0,0,0,0,0,0,0,-1,671,1226,-30.2701,-1.47395
-546,-202,-53.2803,0.580933,0,0,0,0,0,0,0,-1,678,1226,-53.2803,-0.580945
-539,-202,-64.8694,0.569702,0,0,0,0,0,0,0,-1,685,1226,-64.8694,-0.569679
-532,-202,-64.9031,0.519653,0,0,0,0,0,0,0,-1,692,1226,-64.9031,-0.519648
-525,-202,-65.0961,0.831299,0,0,0,0,0,0,0,-1,699,1226,-65.0961,-0.831331
-518,-202,-64.8775,0.305054,0,0,0,0,0,0,0,-1,706,1226,-64.8775,-0.30505
-511,-202,-64.4736,-0.0871582,0,0,0,0,0,0,0,-1,713,1226,-64.4736,0.0871989
-504,-202,0,0,0,0,0,0,0,0,0,-1,720,1226,0,0
-497,-202,0,0,0,0,0,0,0,0,0,-1,727,1226,0,0
-490,-202,0,0,0,0,0,0,0,0,0,-1,734,1226,0,0
-483,-202,0,0,0,0,0,0,0,0,0,-1,741,1226,0,0
-476,-202,0,0,0,0,0,0,0,0,0,-1,748,1226,0,0
-469,-202,0,0,0,0,0,0,0,0,0,-1,755,1226,0,0
-462,-202,0,0,0,0,0,0,0,0,0,-1,762,1226,0,0
-455,-202,0,0,0,0,0,0,0,0,0,-1,769,1226,0,0
-448,-202,0,0,0,0,0,0,0,0,0,-1,776,1226,0,0
-441,-202,0,0,0,0,0,0,0,0,0,-1,783,1226,0,0
-434,-202,0,0,0,0,0,0,0,0,0,-1,790,1226,0,0
-427,-202,0,0,0,0,0,0,0,0,0,-1,797,1226,0,0
-420,-202,0,0,0,0,0,0,0,0,0,-1,804,1226,0,0
-413,-202,0,0,0,0,0,0,0,0,0,-1,811,1226,0,0
-406,-202,0,0,0,0,0,0,0,0,0,-1,818,1226,0,0
-399,-202,0,0,0,0,0,0,0,0,0,-1,825,1226,0,0
-392,-202,0,0,0,0,0,0,0,0,0,-1,832,1226,0,0
-385,-202,0,0,0,0,0,0,0,0,0,-1,839,1226,0,0
-378,-202,0,0,0,0,0,0,0,0,0,-1,846,1226,0,0
-371,-202,0,0,0,0,0,0,0,0,0,-1,853,1226,0,0
-364,-202,0,0,0,0,0,0,0,0,0,-1,860,1226,0,0
-357,-202,0,0,0,0,0,0,0,0,0,-1,867,1226,0,0
-350,-202,0,0,0,0,0,0,0,0,0,-1,874,1226,0,0
-343,-202,0,0,0,0,0,0,0,0,0,-1,881,1226,0,0
-336,-202,0,0,0,0,0,0,0,0,0,-1,888,1226,0,0
-329,-202,0,0,0,0,0,0,0,0,0,-1,895,1226,0,0
-322,-202,0,0,0,0,0,0,0,0,0,-1,902,1226,0,0
-315,-202,0,0,0,0,0,0,0,0,0,-1,909,1226,0,0
-308,-202,0,0,0,0,0,0,0,0,0,-1,916,1226,0,0
-301,-202,0,0,0,0,0,0,0,0,0,-1,923,1226,0,0
-294,-202,0,0,0,0,0,0,0,0,0,-1,930,1226,0,0
-287,-202,0,0,0,0,0,0,0,0,0,-1,937,1226,0,0
-280,-202,0,0,0,0,0,0,0,0,0,-1,944,1226,0,0
-273,-202,0,0,0,0,0,0,0,0,0,-1,951,1226,0,0
-266,-202,0,0,0,0,0,0,0,0,0,-1,958,1226,0,0
-259,-202,0,0,0,0,0,0,0,0,0,-1,965,1226,0,0
-252,-202,0,0,0,0,0,0,0,0,0,-1,972,1226,0,0
-245,-202,0,0,0,0,0,0,0,0,0,-1,979,1226,0,0
-238,-202,0,0,0,0,0,0,0,0,0,-1,986,1226,0,0
-231,-202,0,0,0,0,0,0,0,0,0,-1,993,1226,0,0
-224,-202,0,0,0,0,0,0,0,0,0,-1,1000,1226,0,0
-217,-202,0,0,0,0,0,0,0,0,0,-1,1007,1226,0,0
-210,-202,0,0,0,0,0,0,0,0,0,-1,1014,1226,0,0
-203,-202,0,0,0,0,0,0,0,0,0,-1,1021,1226,0,0
-196,-202,0,0,0,0,0,0,0,0,0,-1,1028,1226,0,0
-189,-202,0,0,0,0,0,0,0,0,0,-1,1035,1226,0,0
-182,-202,0,0,0,0,0,0,0,0,0,-1,1042,1226,0,0
-175,-202,0,0,0,0,0,0,0,0,0,-1,1049,1226,0,0
-168,-202,0,0,0,0,0,0,0,0,0,-1,1056,1226,0,0
-161,-202,0,0,0,0,0,0,0,0,0,-1,1063,1226,0,0
-154,-202,0,0,0,0,0,0,0,0,0,-1,1070,1226,0,0
-147,-202,0,0,0,0,0,0,0,0,0,-1,1077,1226,0,0
-140,-202,0,0,0,0,0,0,0,0,0,-1,1084,1226,0,0
-133,-202,0,0,0,0,0,0,0,0,0,-1,1091,1226,0,0
-126,-202,0,0,0,0,0,0,0,0,0,-1,1098,1226,0,0
-119,-202,0,0,0,0,0,0,0,0,0,-1,1105,1226,0,0
-112,-202,0,0,0,0,0,0,0,0,0,-1,1112,1226,0,0
-105,-202,0,0,0,0,0,0,0,0,0,-1,1119,1226,0,0
-98,-202,0,0,0,0,0,0,0,0,0,-1,1126,1226,0,0
-91,-202,0,0,0,0,0,0,0,0,0,-1,1133,1226,0,0
-84,-202,0,0,0,0,0,0,0,0,0,-1,1140,1226,0,0
-77,-202,0,0,0,0,0,0,0,0,0,-1,1147,1226,0,0
-70,-202,0,0,0,0,0,0,0,0,0,-1,1154,1226,0,0
-63,-202,0,0,0,0,0,0,0,0,0,-1,1161,1226,0,0
-56,-202,0,0,0,0,0,0,0,0,0,-1,1168,1226,0,0
-49,-202,0,0,0,0,0,0,0,0,0,-1,1175,1226,0,0
-42,-202,0,0,0,0,0,0,0,0,0,-1,1182,1226,0,0
-35,-202,0,0,0,0,0,0,0,0,0,-1,1189,1226,0,0
-28,-202,0,0,0,0,0,0,0,0,0,-1,1196,1226,0,0
-21,-202,0,0,0,0,0,0,0,0,0,-1,1203,1226,0,0
-14,-202,0,0,0,0,0,0,0,0,0,-1,1210,1226,0,0
-7,-202,0,0,0,0,0,0,0,0,0,-1,1217,1226,0,0
0,-202,0,0,0,0,0,0,0,0,0,-1,1224,1226,0,0
7,-202,0,0,0,0,0,0,0,0,0,-1,1231,1226,0,0
14,-202,0,0,0,0,0,0,0,0,0,-1,1238,1226,0,0
21,-202,0,0,0,0,0,0,0,0,0,-1,1245,1226,0,0
28,-202,0,0,0,0,0,0,0,0,0,-1,1252,1226,0,0
35,-202,0,0,0,0,0,0,0,0,0,-1,1259,1226,0,0
42,-202,0,0,0,0,0,0,0,0,0,-1,1266,1226,0,0
49,-202,0,0,0,0,0,0,0,0,0,-1,1273,1226,0,0
56,-202,0,0,0,0,0,0,0,0,0,-1,1280,1226,0,0
63,-202,0,0,0,0,0,0,0,0,0,-1,1287,1226,0,0
70,-202,0,0,0,0,0,0,0,0,0,-1,1294,1226,0,0
77,-202,0,0,0,0,0,0,0,0,0,-1,1301,1226,0,0
84,-202,0,0,0,0,0,0,0,0,0,-1,1308,1226,0,0
91,-202,0,0,0,0,0,0,0,0,0,-1,1315,1226,0,0
98,-202,0,0,0,0,0,0,0,0,0,-1,1322,1226,0,0
105,-202,0,0,0,0,0,0,0,0,0,-1,1329,1226,0,0
112,-202,0,0,0,0,0,0,0,0,0,-1,1336,1226,0,0
119,-202,0,0,0,0,0,0,0,0,0,-1,1343,1226,0,0
126,-202,0,0,0,0,0,0,0,0,0,-1,1350,1226,0,0
133,-202,0,0,0,0,0,0,0,0,0,-1,1357,1226,0,0
140,-202,0,0,0,0,0,0,0,0,0,-1,1364,1226,0,0
147,-202,0,0,0,0,0,0,0,0,0,-1,1371,1226,0,0
154,-202,0,0,0,0,0,0,0,0,0,-1,1378,1226,0,0
161,-202,0,0,0,0,0,0,0,0,0,-1,1385,1226,0,0
168,-202,0,0,0,0,0,0,0,0,0,-1,1392,1226,0,0
175,-202,0,0,0,0,0,0,0,0,0,-1,1399,1226,0,0
182,-202,0,0,0,0,0,0,0,0,0,-1,1406,1226,0,0
189,-202,0,0,0,0,0,0,0,0,0,-1,1413,1226,0,0
196,-202,0,0,0,0,0,0,0,0,0,-1,1420,1226,0,0
203,-202,0,0,0,0,0,0,0,0,0,-1,1427,1226,0,0
210,-202,0,0,0,0,0,0,0,0,0,-1,1434,1226,0,0
217,-202,0,0,0,0,0,0,0,0,0,-1,1441,1226,0,0
224,-202,0,0,0,0,0,0,0,0,0,-1,1448,1226,0,0
231,-202,0,0,0,0,0,0,0,0,0,-1,1455,1226,0,0
238,-202,0,0,0,0,0,0,0,0,0,-1,1462,1226,0,0
245,-202,0,0,0,0,0,0,0,0,0,-1,1469,1226,0,0
252,-202,0,0,0,0,0,0,0,0,0,-1,1476,1226,0,0
259,-202,0,0,0,0,0,0,0,0,0,-1,1483,1226,0,0
266,-202,0,0,0,0,0,0,0,0,0,-1,1490,1226,0,0
273,-202,0,0,0,0,0,0,0,0,0,-1,1497,1226,0,0
280,-202,0,0,0,0,0,0,0,0,0,-1,1504,1226,0,0
287,-202,0,0,0,0,0,0,0,0,0,-1,1511,1226,0,0
294,-202,0,0,0,0,0,0,0,0,0,-1,1518,1226,0,0
301,-202,0,0,0,0,0,0,0,0,0,-1,1525,1226,0,0
308,-202,0,0,0,0,0,0,0,0,0,-1,1532,1226,0,0
315,-202,0,0,0,0,0,0,0,0,0,-1,1539,1226,0,0
322,-202,0,0,0,0,0,0,0,0,0,-1,1546,1226,0,0
329,-202,0,0,0,0,0,0,0,0,0,-1,1553,1226,0,0
336,-202,0,0,0,0,0,0,0,0,0,-1,1560,1226,0,0
343,-202,0,0,0,0,0,0,0,0,0,-1,1567,1226,0,0
350,-202,0,0,0,0,0,0,0,0,0,-1,1574,1226,0,0
357,-202,0,0,0,0,0,0,0,0,0,-1,1581,1226,0,0
364,-202,0,0,0,0,0,0,0,0,0,-1,1588,1226,0,0
371,-202,0,0,0,0,0,0,0,0,0,-1,1595,1226,0,0
378,-202,0,0,0,0,0,0,0,0,0,-1,1602,1226,0,0
385,-202,0,0,0,0,0,0,0,0,0,-1,1609,1226,0,0
392,-202,0,0,0,0,0,0,0,0,0,-1,1616,1226,0,0
399,-202,0,0,0,0,0,0,0,0,0,-1,1623,1226,0,0
406,-202,0,0,0,0,0,0,0,0,0,-1,1630,1226,0,0
413,-202,0,0,0,0,0,0,0,0,0,-1,1637,1226,0,0
420,-202,0,0,0,0,0,0,0,0,0,-1,1644,1226,0,0
427,-202,0,0,0,0,0,0,0,0,0,-1,1651,1226,0,0
434,-202,0,0,0,0,0,0,0,0,0,-1,1658,1226,0,0
441,-202,0,0,0,0,0,0,0,0,0,-1,1665,1226,0,0
448,-202,0,0,0,0,0,0,0,0,0,-1,1672,1226,0,0
455,-202,0,0,0,0,0,0,0,0,0,-1,1679,1226,0,0
462,-202,0,0,0,0,0,0,0,0,0,-1,1686,1226,0,0
469,-202,0,0,0,0,0,0,0,0,0,-1,1693,1226,0,0
476,-202,0,0,0,0,0,0,0,0,0,-1,1700,1226,0,0
483,-202,0,0,0,0,0,0,0,0,0,-1,1707,1226,0,0
490,-202,0,0,0,0,0,0,0,0,0,-1,1714,1226,0,0
497,-202,0,0,0,0,0,0,0,0,0,-1,1721,1226,0,0
504,-202,0,0,0,0,0,0,0,0,0,-1,1728,1226,0,0
511,-202,0,0,0,0,0,0,0,0,0,-1,1735,1226,0,0
518,-202,0,0,0,0,0,0,0,0,0,-1,1742,1226,0,0
525,-202,0,0,0,0,0,0,0,0,0,-1,1749,1226,0,0
532,-202,0,0,0,0,0,0,0,0,0,-1,1756,1226,0,0
539,-202,0,0,0,0,0,0,0,0,0,-1,1763,1226,0,0
546,-202,0,0,0,0,0,0,0,0,0,-1,1770,1226,0,0
553,-202,0,0,0,0,0,0,0,0,0,-1,1777,1226,0,0
560,-202,0,0,0,0,0,0,0,0,0,-1,1784,1226,0,0
567,-202,0,0,0,0,0,0,0,0,0,-1,1791,1226,0,0
574,-202,0,0,0,0,0,0,0,0,0,-1,1798,1226,0,0
581,-202,0,0,0,0,0,0,0,0,0,-1,1805,1226,0,0
588,-202,0,0,0,0,0,0,0,0,0,-1,1812,1226,0,0
595,-202,0,0,0,0,0,0,0,0,0,-1,1819,1226,0,0
602,-202,0,0,0,0,0,0,0,0,0,-1,1826,1226,0,0
609,-202,0,0,0,0,0,0,0,0,0,-1,1833,1226,0,0
616,-202,0,0,0,0,0,0,0,0,0,-1,1840,1226,0,0
623,-202,0,0,0,0,0,0,0,0,0,-1,1847,1226,0,0
630,-202,81.9496,2.53101,-0.00160938,0.000634951,-0.00103919,0.00104222,-0.00201665,-1.19728,0.00179566,0.0378857,1854,1226,81.9496,-2.53099
637,-202,82.0933,2.47156,-0.00150993,0.00108502,-0.00108867,0.00148125,-0.00190616,-1.22174,0.00196085,0.0351824,1861,1226,82.0932,-2.4716
644,-202,82.0614,2.43628,-0.00121856,0.00176929,-0.00137789,0.0023077,-0.00175697,-1.19829,0.00235391,0.0325523,1868,1226,82.0614,-2.43628
651,-202,82.0641,2.37427,-0.000835673,0.00237406,-0.0017065,0.00311178,-0.0015734,-1.16276,0.00275316,0.027521,1875,1226,82.0641,-2.37431
658,-202,82.0491,2.31067,-0.0008454,0.00283236,-0.00136061,0.003281,-0.00129403,-1.25229,0.00272317,0.0220147,1882,1226,82.049,-2.3107
665,-202,82.0706,2.29224,-0.00116522,0.00309789,-0.000875361,0.00327064,-0.00133797,-1.37596,0.00273766,0.0206067,1889,1226,82.0706,-2.29226
672,-202,82.1244,2.2522,0,0,0,0,0,0,0,-1,1896,1226,82.1244,-2.25222
679,-202,72.3511,2.32935,0,0,0,0,0,0,0,-1,1903,1226,72.3511,-2.32932
686,-202,49.1708,2.15198,0,0,0,0,0,0,0,-1,1910,1226,49.1708,-2.15195
693,-202,52.1176,12.0886,0,0,0,0,0,0,0,-1,1917,1226,52.1176,-12.0886
700,-202,65.3978,14.1362,0,0,0,0,0,0,0,-1,1924,1226,65.3979,-14.1362
707,-202,65.3156,13.266,-5.292e-05,0.00361171,0.000148622,0.00361773,-5.89376e-05,1.53033,0.0024317,0.0350588,1931,1226,65.3156,-13.266
714,-202,65.156,12.6965,-5.25112e-05,0.00394117,0.000356027,0.00397266,-8.40018e-05,1.48258,0.00267688,0.0433391,1938,1226,65.156,-12.6966
721,-202,65.1287,11.9653,-0.000202317,0.00406788,0.000729309,0.00418901,-0.000323441,1.40622,0.00290649,0.0328084,1945,1226,65.1286,-11.9654
728,-202,65.1552,10.9238,-7.14969e-06,0.0036904,0.00104263,0.00396413,-0.000280885,1.31405,0.00274118,0.0112216,1952,1226,65.1552,-10.9238
735,-202,65.1196,10.0841,5.98716e-05,0.0030982,0.00132995,0.0035981,-0.000440026,1.21126,0.00255806,0.0114574,1959,1226,65.1196,-10.0841
742,-202,65.0608,9.28528,-0.000278798,0.00241099,0.00174908,0.00327245,-0.00114026,1.11315,0.00264496,0.013899,1966,1226,65.0608,-9.28524
749,-202,64.9675,8.51294,-0.000966503,0.00200955,0.00244814,0.00338642,-0.00234337,1.05847,0.00332632,0.0152933,1973,1226,64.9676,-8.51289
756,-202,64.9569,7.73083,-0.00179145,0.00194436,0.00346157,0.00400984,-0.00385694,1.03281,0.00454217,0.0141223,1980,1226,64.9568,-7.7308
763,-202,65.0232,6.90588,-0.00299232,0.00240302,0.00519381,0.00555797,-0.00614726,1.02492,0.00676087,0.0279609,1987,1226,65.0232,-6.90583
770,-202,65.0652,6.14026,0,0,0,0,0,0,0,-1,1994,1226,65.0652,-6.14021
777,-202,67.5615,-0.236572,0,0,0,0,0,0,0,-1,2001,1226,67.5615,0.236573
784,-202,66.7117,0.754517,0,0,0,0,0,0,0,-1,2008,1226,66.7118,-0.754543
791,-202,66.512,1.74207,0,0,0,0,0,0,0,-1,2015,1226,66.512,-1.74201
798,-202,51.8999,3.58789,0,0,0,0,0,0,0,-1,2022,1226,51.9,-3.58791
805,-202,0,0,0,0,0,0,0,0,0,-1,2029,1226,0,0
812,-202,0,0,0,0,0,0,0,0,0,-1,2036,1226,0,0
-700,-209,0,0,0,0,0,0,0,0,0,-1,524,1233,0,0
-693,-209,0,0,0,0,0,0,0,0,0,-1,531,1233,0,0
-686,-209,0,0,0,0,0,0,0,0,0,-1,538,1233,0,0
-679,-209,-49.6335,0.689209,0,0,0,0,0,0,0,-1,545,1233,-49.6335,-0.689193
-672,-209,-64.1638,5.7395,0,0,0,0,0,0,0,-1,552,1233,-64.1638,-5.73952
-665,-209,-48.448,1.49963,0,0,0,0,0,0,0,-1,559,1233,-48.448,-1.49966
-658,-209,-60.2764,8.84106,0,0,0,0,0,0,0,-1,566,1233,-60.2764,-8.84111
-651,-209,-58.6279,10.6505,0,0,0,0,0,0,0,-1,573,1233,-58.6279,-10.6505
-644,-209,-43.4648,-7.04663,0,0,0,0,0,0,0,-1,580,1233,-43.4648,7.04659
-637,-209,-47.3763,5.81348,0,0,0,0,0,0,0,-1,587,1233,-47.3764,-5.81342
-630,-209,-47.4207,6.62891,-0.00127598,0.0027944,-0.000356898,0.00282546,-0.00130704,-1.484,0.00243899,0.0449329,594,1233,-47.4207,-6.62893
-623,-209,-47.5995,7.51538,-0.000584081,0.00193449,-0.000331036,0.00197727,-0.000626865,-1.44227,0.00156944,0.0189476,601,1233,-47.5995,-7.51539
-616,-209,-47.6532,8.35815,-0.000273487,0.00190006,-0.00077598,0.00214866,-0.000522086,-1.26076,0.00163451,0.0127382,608,1233,-47.6532,-8.3581
-609,-209,-47.7205,9.18384,-0.000298622,0.00202536,-0.00127029,0.00258495,-0.000858216,-1.15585,0.00206956,0.0154441,615,1233,-47.7205,-9.18388
-602,-209,-47.7909,10.005,-0.000557203,0.00240021,-0.00189105,0.00332205,-0.00147905,-1.11722,0.00283918,0.0179834,622,1233,-47.7909,-10.005
-595,-209,-47.8619,10.9083,-0.000752753,0.00270533,-0.00238851,0.00392495,-0.00197236,-1.09869,0.00346646,0.0293956,629,1233,-47.8619,-10.9083
-588,-209,-47.8729,11.7023,0,0,0,0,0,0,0,-1,636,1233,-47.8729,-11.7023
-581,-209,-46.4968,11.8457,0,0,0,0,0,0,0,-1,643,1233,-46.4967,-11.8457
-574,-209,-46.5352,12.6223,0,0,0,0,0,0,0,-1,650,1233,-46.5352,-12.6223
-567,-209,-46.5004,13.424,0,0,0,0,0,0,0,-1,657,1233,-46.5004,-13.4239
-560,-209,-13.9294,4.16626,0,0,0,0,0,0,0,-1,664,1233,-13.9294,-4.16621
-553,-209,-22.7542,0.748779,0,0,0,0,0,0,0,-1,671,1233,-22.7541,-0.748796
-546,-209,-44.691,0.142822,0,0,0,0,0,0,0,-1,678,1233,-44.6911,-0.142844
-539,-209,-64.5372,0.598511,0,0,0,0,0,0,0,-1,685,1233,-64.5372,-0.598499
-532,-209,-64.7039,0.561523,0,0,0,0,0,0,0,-1,692,1233,-64.7039,-0.561581
-525,-209,-64.905,0.610474,-0.00234495,0.00432627,-0.00506376,0.00705432,-0.00507299,-1.07664,0.00703279,0.035346,699,1233,-64.905,-0.610514
-518,-209,-65.011,0.506836,-0.00147469,0.00511011,-0.00483442,0.00766677,-0.00403135,-1.08434,0.00686177,0.0430718,706,1233,-65.011,-0.506792
-511,-209,-65.0155,0.489502,0.00170848,0.0091431,-0.0051673,0.0117913,-0.000939691,-1.09721,0.00819206,0.0428811,713,1233,-65.0155,-0.48948
-504,-209,0,0,0,0,0,0,0,0,0,-1,720,1233,0,0
-497,-209,0,0,0,0,0,0,0,0,0,-1,727,1233,0,0
-490,-209,0,0,0,0,0,0,0,0,0,-1,734,1233,0,0
-483,-209,0,0,0,0,0,0,0,0,0,-1,741,1233,0,0
-476,-209,0,0,0,0,0,0,0,0,0,-1,748,1233,0,0
-469,-209,0,0,0,0,0,0,0,0,0,-1,755,1233,0,0
-462,-209,0,0,0,0,0,0,0,0,0,-1,762,1233,0,0
-455,-209,0,0,0,0,0,0,0,0,0,-1,769,1233,0,0
-448,-209,0,0,0,0,0,0,0,0,0,-1,776,1233,0,0
-441,-209,0,0,0,0,0,0,0,0,0,-1,783,1233,0,0
-434,-209,0,0,0,0,0,0,0,0,0,-1,790,1233,0,0
-427,-209,0,0,0,0,0,0,0,0,0,-1,797,1233,0,0
-420,-209,0,0,0,0,0,0,0,0,0,-1,804,1233,0,0
-413,-209,0,0,0,0,0,0,0,0,0,-1,811,1233,0,0
-406,-209,0,0,0,0,0,0,0,0,0,-1,818,1233,0,0
-399,-209,0,0,0,0,0,0,0,0,0,-1,825,1233,0,0
-392,-209,0,0,0,0,0,0,0,0,0,-1,832,1233,0,0
-385,-209,0,0,0,0,0,0,0,0,0,-1,839,1233,0,0
-378,-209,0,0,0,0,0,0,0,0,0,-1,846,1233,0,0
-371,-209,0,0,0,0,0,0,0,0,0,-1,853,1233,0,0
-364,-209,0,0,0,0,0,0,0,0,0,-1,860,1233,0,0
-357,-209,0,0,0,0,0,0,0,0,0,-1,867,1233,0,0
-350,-209,0,0,0,0,0,0,0,0,0,-1,874,1233,0,0
-343,-209,0,0,0,0,0,0,0,0,0,-1,881,1233,0,0
-336,-209,0,0,0,0,0,0,0,0,0,-1,888,1233,0,0
-329,-209,0,0,0,0,0,0,0,0,0,-1,895,1233,0,0
-322,-209,0,0,0,0,0,0,0,0,0,-1,902,1233,0,0
-315,-209,0,0,0,0,0,0,0,0,0,-1,909,1233,0,0
-308,-209,0,0,0,0,0,0,0,0,0,-1,916,1233,0,0
-301,-209,0,0,0,0,0,0,0,0,0,-1,923,1233,0,0
-294,-209,0,0,0,0,0,0,0,0,0,-1,930,1233,0,0
-287,-209,0,0,0,0,0,0,0,0,0,-1,937,1233,0,0
-280,-209,0,0,0,0,0,0,0,0,0,-1,944,1233,0,0
-273,-209,0,0,0,0,0,0,0,0,0,-1,951,1233,0,0
-266,-209,0,0,0,0,0,0,0,0,0,-1,958,1233,0,0
-259,-209,0,0,0,0,0,0,0,0,0,-1,965,1233,0,0
-252,-209,0,0,0,0,0,0,0,0,0,-1,972,1233,0,0
-245,-209,0,0,0,0,0,0,0,0,0,-1,979,1233,0,0
-238,-209,0,0,0,0,0,0,0,0,0,-1,986,1233,0,0
-231,-209,0,0,0,0,0,0,0,0,0,-1,993,1233,0,0
-224,-209,0,0,0,0,0,0,0,0,0,-1,1000,1233,0,0
-217,-209,0,0,0,0,0,0,0,0,0,-1,1007,1233,0,0
-210,-209,0,0,0,0,0,0,0,0,0,-1,1014,1233,0,0
-203,-209,0,0,0,0,0,0,0,0,0,-1,1021,1233,0,0
-196,-209,0,0,0,0,0,0,0,0,0,-1,1028,1233,0,0
-189,-209,0,0,0,0,0,0,0,0,0,-1,1035,1233,0,0
-182,-209,0,0,0,0,0,0,0,0,0,-1,1042,1233,0,0
-175,-209,0,0,0,0,0,0,0,0,0,-1,1049,1233,0,0
-168,-209,0,0,0,0,0,0,0,0,0,-1,1056,1233,0,0
-161,-209,0,0,0,0,0,0,0,0,0,-1,1063,1233,0,0
-154,-209,0,0,0,0,0,0,0,0,0,-1,1070,1233,0,0
-147,-209,0,0,0,0,0,0,0,0,0,-1,1077,1233,0,0
-140,-209,0,0,0,0,0,0,0,0,0,-1,1084,1233,0,0
-133,-209,0,0,0,0,0,0,0,0,0,-1,1091,1233,0,0
-126,-209,0,0,0,0,0,0,0,0,0,-1,1098,1233,0,0
-119,-209,0,0,0,0,0,0,0,0,0,-1,1105,1233,0,0
-112,-209,0,0,0,0,0,0,0,0,0,-1,1112,1233,0,0
-105,-209,0,0,0,0,0,0,0,0,0,-1,1119,1233,0,0
-98,-209,0,0,0,0,0,0,0,0,0,-1,1126,1233,0,0
-91,-209,0,0,0,0,0,0,0,0,0,-1,1133,1233,0,0
-84,-209,0,0,0,0,0,0,0,0,0,-1,1140,1233,0,0
-77,-209,0,0,0,0,0,0,0,0,0,-1,1147,1233,0,0
-70,-209,0,0,0,0,0,0,0,0,0,-1,1154,1233,0,0
-63,-209,0,0,0,0,0,0,0,0,0,-1,1161,1233,0,0
-56,-209,0,0,0,0,0,0,0,0,0,-1,1168,1233,0,0
-49,-209,0,0,0,0,0,0,0,0,0,-1,1175,1233,0,0
-42,-209,0,0,0,0,0,0,0,0,0,-1,1182,1233,0,0
-35,-209,0,0,0,0,0,0,0,0,0,-1,1189,1233,0,0
-28,-209,0,0,0,0,0,0,0,0,0,-1,1196,1233,0,0
-21,-209,0,0,0,0,0,0,0,0,0,-1,1203,1233,0,0
-14,-209,0,0,0,0,0,0,0,0,0,-1,1210,1233,0,0
-7,-209,0,0,0,0,0,0,0,0,0,-1,1217,1233,0,0
0,-209,0,0,0,0,0,0,0,0,0,-1,1224,1233,0,0
7,-209,0,0,0,0,0,0,0,0,0,-1,1231,1233,0,0
14,-209,0,0,0,0,0,0,0,0,0,-1,1238,1233,0,0
21,-209,0,0,0,0,0,0,0,0,0,-1,1245,1233,0,0
28,-209,0,0,0,0,0,0,0,0,0,-1,1252,1233,0,0
35,-209,0,0,0,0,0,0,0,0,0,-1,1259,1233,0,0
42,-209,0,0,0,0,0,0,0,0,0,-1,1266,1233,0,0
49,-209,0,0,0,0,0,0,0,0,0,-1,1273,1233,0,0
56,-209,0,0,0,0,0,0,0,0,0,-1,1280,1233,0,0
63,-209,0,0,0,0,0,0,0,0,0,-1,1287,1233,0,0
70,-209,0,0,0,0,0,0,0,0,0,-1,1294,1233,0,0
77,-209,0,0,0,0,0,0,0,0,0,-1,1301,1233,0,0
84,-209,0,0,0,0,0,0,0,0,0,-1,1308,1233,0,0
91,-209,0,0,0,0,0,0,0,0,0,-1,1315,1233,0,0
98,-209,0,0,0,0,0,0,0,0,0,-1,1322,1233,0,0
105,-209,0,0,0,0,0,0,0,0,0,-1,1329,1233,0,0
112,-209,0,0,0,0,0,0,0,0,0,-1,1336,1233,0,0
119,-209,0,0,0,0,0,0,0,0,0,-1,1343,1233,0,0
126,-209,0,0,0,0,0,0,0,0,0,-1,1350,1233,0,0
133,-209,0,0,0,0,0,0,0,0,0,-1,1357,1233,0,0
140,-209,0,0,0,0,0,0,0,0,0,-1,1364,1233,0,0
147,-209,0,0,0,0,0,0,0,0,0,-1,1371,1233,0,0
154,-209,0,0,0,0,0,0,0,0,0,-1,1378,1233,0,0
161,-209,0,0,0,0,0,0,0,0,0,-1,1385,1233,0,0
168,-209,0,0,0,0,0,0,0,0,0,-1,1392,1233,0,0
175,-209,0,0,0,0,0,0,0,0,0,-1,1399,1233,0,0
182,-209,0,0,0,0,0,0,0,0,0,-1,1406,1233,0,0
189,-209,0,0,0,0,0,0,0,0,0,-1,1413,1233,0,0
196,-209,0,0,0,0,0,0,0,0,0,-1,1420,1233,0,0
203,-209,0,0,0,0,0,0,0,0,0,-1,1427,1233,0,0
210,-209,0,0,0,0,0,0,0,0,0,-1,1434,1233,0,0
217,-209,0,0,0,0,0,0,0,0,0,-1,1441,1233,0,0
224,-209,0,0,0,0,0,0,0,0,0,-1,1448,1233,0,0
231,-209,0,0,0,0,0,0,0,0,0,-1,1455,1233,0,0
238,-209,0,0,0,0,0,0,0,0,0,-1,1462,1233,0,0
245,-209,0,0,0,0,0,0,0,0,0,-1,1469,1233,0,0
252,-209,0,0,0,0,0,0,0,0,0,-1,1476,1233,0,0
259,-209,0,0,0,0,0,0,0,0,0,-1,1483,1233,0,0
266,-209,0,0,0,0,0,0,0,0,0,-1,1490,1233,0,0
273,-209,0,0,0,0,0,0,0,0,0,-1,1497,1233,0,0
280,-209,0,0,0,0,0,0,0,0,0,-1,1504,1233,0,0
287,-209,0,0,0,0,0,0,0,0,0,-1,1511,1233,0,0
294,-209,0,0,0,0,0,0,0,0,0,-1,1518,1233,0,0
301,-209,0,0,0,0,0,0,0,0,0,-1,1525,1233,0,0
308,-209,0,0,0,0,0,0,0,0,0,-1,1532,1233,0,0
315,-209,0,0,0,0,0,0,0,0,0,-1,1539,1233,0,0
322,-209,0,0,0,0,0,0,0,0,0,-1,1546,1233,0,0
329,-209,0,0,0,0,0,0,0,0,0,-1,1553,1233,0,0
336,-209,0,0,0,0,0,0,0,0,0,-1,1560,1233,0,0
343,-209,0,0,0,0,0,0,0,0,0,-1,1567,1233,0,0
350,-209,0,0,0,0,0,0,0,0,0,-1,1574,1233,0,0
357,-209,0,0,0,0,0,0,0,0,0,-1,1581,1233,0,0
364,-209,0,0,0,0,0,0,0,0,0,-1,1588,1233,0,0
371,-209,0,0,0,0,0,0,0,0,0,-1,1595,1233,0,0
378,-209,0,0,0,0,0,0,0,0,0,-1,1602,1233,0,0
385,-209,0,0,0,0,0,0,0,0,0,-1,1609,1233,0,0
392,-209,0,0,0,0,0,0,0,0,0,-1,1616,1233,0,0
399,-209,0,0,0,0,0,0,0,0,0,-1,1623,1233,0,0
406,-209,0,0,0,0,0,0,0,0,0,-1,1630,1233,0,0
413,-209,0,0,0,0,0,0,0,0,0,-1,1637,1233,0,0
420,-209,0,0,0,0,0,0,0,0,0,-1,1644,1233,0,0
427,-209,0,0,0,0,0,0,0,0,0,-1,1651,1233,0,0
434,-209,0,0,0,0,0,0,0,0,0,-1,1658,1233,0,0
441,-209,0,0,0,0,0,0,0,0,0,-1,1665,1233,0,0
448,-209,0,0,0,0,0,0,0,0,0,-1,1672,1233,0,0
455,-209,0,0,0,0,0,0,0,0,0,-1,1679,1233,0,0
462,-209,0,0,0,0,0,0,0,0,0,-1,1686,1233,0,0
469,-209,0,0,0,0,0,0,0,0,0,-1,1693,1233,0,0
476,-209,0,0,0,0,0,0,0,0,0,-1,1700,1233,0,0
483,-209,0,0,0,0,0,0,0,0,0,-1,1707,1233,0,0
490,-209,0,0,0,0,0,0,0,0,0,-1,1714,1233,0,0
497,-209,0,0,0,0,0,0,0,0,0,-1,1721,1233,0,0
504,-209,0,0,0,0,0,0,0,0,0,-1,1728,1233,0,0
511,-209,0,0,0,0,0,0,0,0,0,-1,1735,1233,0,0
518,-209,0,0,0,0,0,0,0,0,0,-1,1742,1233,0,0
525,-209,0,0,0,0,0,0,0,0,0,-1,1749,1233,0,0
532,-209,0,0,0,0,0,0,0,0,0,-1,1756,1233,0,0
539,-209,0,0,0,0,0,0,0,0,0,-1,1763,1233,0,0
546,-209,0,0,0,0,0,0,0,0,0,-1,1770,1233,0,0
553,-209,0,0,0,0,0,0,0,0,0,-1,1777,1233,0,0
560,-209,0,0,0,0,0,0,0,0,0,-1,1784,1233,0,0
567,-209,0,0,0,0,0,0,0,0,0,-1,1791,1233,0,0
574,-209,0,0,0,0,0,0,0,0,0,-1,1798,1233,0,0
581,-209,0,0,0,0,0,0,0,0,0,-1,1805,1233,0,0
588,-209,0,0,0,0,0,0,0,0,0,-1,1812,1233,0,0
595,-209,0,0,0,0,0,0,0,0,0,-1,1819,1233,0,0
602,-209,0,0,0,0,0,0,0,0,0,-1,1826,1233,0,0
609,-209,0,0,0,0,0,0,0,0,0,-1,1833,1233,0,0
616,-209,0,0,0,0,0,0,0,0,0,-1,1840,1233,0,0
623,-209,81.9609,2.22339,-0.00150583,0.00129921,-0.000950368,0.00159088,-0.0017975,-1.27303,0.00195749,0.0336338,1847,1233,81.961,-2.22338
630,-209,81.9265,2.29761,-0.00155253,0.00153449,-0.000802686,0.00173073,-0.00174877,-1.33102,0.0020089,0.0369701,1854,1233,81.9265,-2.29765
637,-209,82.0331,2.33643,-0.00143223,0.00197206,-0.000913791,0.00220184,-0.001662,-1.32445,0.00223804,0.036642,1861,1233,82.0331,-2.33639
644,-209,82.0825,2.35339,-0.00114277,0.00250345,-0.00123807,0.0028841,-0.00152341,-1.27252,0.00258478,0.0310764,1868,1233,82.0826,-2.35345
651,-209,82.0615,2.32996,-0.000852495,0.0027868,-0.00148798,0.00331773,-0.00138342,-1.22807,0.00278974,0.0244625,1875,1233,82.0615,-2.33001
658,-209,82.0426,2.32605,-0.000952153,0.00296803,-0.00103714,0.00322551,-0.00120963,-1.32746,0.00264733,0.0202819,1882,1233,82.0426,-2.32602
665,-209,82.0767,2.27979,-0.00128611,0.00303612,-0.000587293,0.00311449,-0.00136449,-1.43812,0.00265092,0.0392537,1889,1233,82.0766,-2.27981
672,-209,82.1511,2.25024,0,0,0,0,0,0,0,-1,1896,1233,82.1511,-2.25021
679,-209,55.2465,2.78674,0,0,0,0,0,0,0,-1,1903,1233,55.2464,-2.78678
686,-209,33.3711,3.89856,0,0,0,0,0,0,0,-1,1910,1233,33.3711,-3.89855
693,-209,60.7567,13.6616,0,0,0,0,0,0,0,-1,1917,1233,60.7567,-13.6616
700,-209,64.4779,14.0836,0,0,0,0,0,0,0,-1,1924,1233,64.478,-14.0836
707,-209,64.3698,13.2988,-0.000412002,0.00345512,0.000364991,0.00348927,-0.00044615,1.47751,0.00248827,0.0355979,1931,1233,64.3697,-13.2989
714,-209,64.3146,12.5869,-0.000426033,0.00372983,0.000648762,0.00382875,-0.000524955,1.41948,0.00274427,0.0240943,1938,1233,64.3146,-12.5869
721,-209,64.365,11.7654,-0.000539459,0.00372733,0.00105359,0.0039733,-0.000785438,1.34144,0.00294579,0.0136326,1945,1233,64.365,-11.7653
728,-209,64.3849,10.9711,-0.000458882,0.0032084,0.00133579,0.00364337,-0.000893847,1.256,0.00277526,0.013635,1952,1233,64.3849,-10.971
735,-209,64.3297,10.1554,-0.000637134,0.00255686,0.00158722,0.00321145,-0.00129173,1.17963,0.0026775,0.0173652,1959,1233,64.3297,-10.1554
742,-209,64.2378,9.31909,-0.00117823,0.00192125,0.00199255,0.00289579,-0.00215277,1.11592,0.00292529,0.0174544,1966,1233,64.2378,-9.31911
749,-209,64.1415,8.52393,-0.00196248,0.00150604,0.00264604,0.00293551,-0.00339195,1.07548,0.00365633,0.0156982,1973,1233,64.1415,-8.52388
756,-209,64.1278,7.74792,-0.00289618,0.00131088,0.00358477,0.00336372,-0.00494902,1.05073,0.00482837,0.0140026,1980,1233,64.1278,-7.7479
763,-209,64.0981,7.04211,-0.00424829,0.0015249,0.00521486,0.00459877,-0.00732216,1.03817,0.00694217,0.0293716,1987,1233,64.0982,-7.04207
770,-209,64.1917,6.49744,0,0,0,0,0,0,0,-1,1994,1233,64.1917,-6.49745
777,-209,68.0347,-0.36377,0,0,0,0,0,0,0,-1,2001,1233,68.0346,0.363742
784,-209,67.6289,0.771729,0,0,0,0,0,0,0,-1,2008,1233,67.6289,-0.771742
791,-209,67.1841,1.90906,0,0,0,0,0,0,0,-1,2015,1233,67.1841,-1.90909
798,-209,53.6404,3.71179,0,0,0,0,0,0,0,-1,2022,1233,53.6404,-3.71185
805,-209,0,0,0,0,0,0,0,0,0,-1,2029,1233,0,0
812,-209,0,0,0,0,0,0,0,0,0,-1,2036,1233,0,0
-700,-216,0,0,0,0,0,0,0,0,0,-1,524,1240,0,0
-693,-216,0,0,0,0,0,0,0,0,0,-1,531,1240,0,0
-686,-216,0,0,0,0,0,0,0,0,0,-1,538,1240,0,0
-679,-216,-67.3322,2.74817,0,0,0,0,0,0,0,-1,545,1240,-67.3321,-2.74816
-672,-216,-65.1939,4.52673,0,0,0,0,0,0,0,-1,552,1240,-65.1939,-4.52677
-665,-216,-62.9736,6.34985,0,0,0,0,0,0,0,-1,559,1240,-62.9736,-6.34985
-658,-216,-61.016,8.34521,0,0,0,0,0,0,0,-1,566,1240,-61.0159,-8.34516
-651,-216,-59.255,10.1135,0,0,0,0,0,0,0,-1,573,1240,-59.255,-10.1135
-644,-216,-45.6099,1.72839,0,0,0,0,0,0,0,-1,580,1240,-45.6099,-1.72843
-637,-216,-45.6299,5.53503,0,0,0,0,0,0,0,-1,587,1240,-45.63,-5.535
-630,-216,-46.4677,6.78857,0,0,0,0,0,0,0,-1,594,1240,-46.4677,-6.78862
-623,-216,-46.7529,7.56812,0,0,0,0,0,0,0,-1,601,1240,-46.7529,-7.56816
-616,-216,-46.8267,8.41699,0.000578513,0.00198864,-0.000105426,0.00199648,0.000570674,-1.49658,0.00118739,0.01414,608,1240,-46.8267,-8.41702
-609,-216,-46.8979,9.24548,0.000131907,0.0019806,-0.000826856,0.00229646,-0.000183951,-1.2059,0.00159583,0.0147929,615,1240,-46.8979,-9.24553
-602,-216,-46.9492,10.0388,-0.000590365,0.00214637,-0.00167753,0.00294285,-0.00138684,-1.12752,0.00255299,0.0146901,622,1240,-46.9491,-10.0388
-595,-216,-47.0095,10.8401,-0.00142103,0.00245155,-0.0024734,0.00365642,-0.0026259,-1.11749,0.00364333,0.0227233,629,1240,-47.0095,-10.8401
-588,-216,-47.0986,11.6615,0,0,0,0,0,0,0,-1,636,1240,-47.0986,-11.6615
-581,-216,-45.3167,11.9463,0,0,0,0,0,0,0,-1,643,1240,-45.3167,-11.9463
-574,-216,-45.8644,12.6111,0,0,0,0,0,0,0,-1,650,1240,-45.8644,-12.6111
-567,-216,-45.868,13.364,0,0,0,0,0,0,0,-1,657,1240,-45.868,-13.364
-560,-216,-16.5087,5.4574,0,0,0,0,0,0,0,-1,664,1240,-16.5087,-5.45746
-553,-216,-16.2355,1.22351,0,0,0,0,0,0,0,-1,671,1240,-16.2356,-1.22356
-546,-216,-37.1617,-0.25415,0,0,0,0,0,0,0,-1,678,1240,-37.1618,0.254161
-539,-216,-47.7817,1.47327,0,0,0,0,0,0,0,-1,685,1240,-47.7818,-1.4733
-532,-216,-64.4971,0.553345,0,0,0,0,0,0,0,-1,692,1240,-64.4971,-0.553325
-525,-216,-64.7388,0.599365,-0.00439333,0.0039602,-0.00536446,0.00658217,-0.0070153,-1.11618,0.00785183,0.0482212,699,1240,-64.7387,-0.599396
-518,-216,-64.9124,0.526978,-0.00395942,0.0040231,-0.00488524,0.00634023,-0.00627654,-1.12791,0.00728433,0.0424284,706,1240,-64.9124,-0.526943
-511,-216,-64.9205,0.451294,-0.00159686,0.0067081,-0.00481135,0.00891111,-0.00379987,-1.14141,0.00753386,0.0412265,713,1240,-64.9205,-0.451325
-504,-216,-64.8635,0.563232,0.00489855,0.0134303,-0.00350687,0.0146868,0.00364212,-1.22677,0.00883113,0.0430364,720,1240,-64.8635,-0.563283
-497,-216,0,0,0,0,0,0,0,0,0,-1,727,1240,0,0
-490,-216,0,0,0,0,0,0,0,0,0,-1,734,1240,0,0
-483,-216,0,0,0,0,0,0,0,0,0,-1,741,1240,0,0
-476,-216,0,0,0,0,0,0,0,0,0,-1,748,1240,0,0
-469,-216,0,0,0,0,0,0,0,0,0,-1,755,1240,0,0
-462,-216,0,0,0,0,0,0,0,0,0,-1,762,1240,0,0
-455,-216,0,0,0,0,0,0,0,0,0,-1,769,1240,0,0
-448,-216,0,0,0,0,0,0,0,0,0,-1,776,1240,0,0
-441,-216,0,0,0,0,0,0,0,0,0,-1,783,1240,0,0
-434,-216,0,0,0,0,0,0,0,0,0,-1,790,1240,0,0
-427,-216,0,0,0,0,0,0,0,0,0,-1,797,1240,0,0
-420,-216,0,0,0,0,0,0,0,0,0,-1,804,1240,0,0
-413,-216,0,0,0,0,0,0,0,0,0,-1,811,1240,0,0
-406,-216,0,0,0,0,0,0,0,0,0,-1,818,1240,0,0
-399,-216,0,0,0,0,0,0,0,0,0,-1,825,1240,0,0
-392,-216,0,0,0,0,0,0,0,0,0,-1,832,1240,0,0
-385,-216,0,0,0,0,0,0,0,0,0,-1,839,1240,0,0
-378,-216,0,0,0,0,0,0,0,0,0,-1,846,1240,0,0
-371,-216,0,0,0,0,0,0,0,0,0,-1,853,1240,0,0
-364,-216,0,0,0,0,0,0,0,0,0,-1,860,1240,0,0
-357,-216,0,0,0,0,0,0,0,0,0,-1,867,1240,0,0
-350,-216,0,0,0,0,0,0,0,0,0,-1,874,1240,0,0
-343,-216,0,0,0,0,0,0,0,0,0,-1,881,1240,0,0
-336,-216,0,0,0,0,0,0,0,0,0,-1,888,1240,0,0
-329,-216,0,0,0,0,0,0,0,0,0,-1,895,1240,0,0
-322,-216,0,0,0,0,0,0,0,0,0,-1,902,1240,0,0
-315,-216,0,0,0,0,0,0,0,0,0,-1,909,1240,0,0
-308,-216,0,0,0,0,0,0,0,0,0,-1,916,1240,0,0
-301,-216,0,0,0,0,0,0,0,0,0,-1,923,1240,0,0
-294,-216,0,0,0,0,0,0,0,0,0,-1,930,1240,0,0
-287,-216,0,0,0,0,0,0,0,0,0,-1,937,1240,0,0
-280,-216,0,0,0,0,0,0,0,0,0,-1,944,1240,0,0
-273,-216,0,0,0,0,0,0,0,0,0,-1,951,1240,0,0
-266,-216,0,0,0,0,0,0,0,0,0,-1,958,1240,0,0
-259,-216,0,0,0,0,0,0,0,0,0,-1,965,1240,0,0
-252,-216,0,0,0,0,0,0,0,0,0,-1,972,1240,0,0
-245,-216,0,0,0,0,0,0,0,0,0,-1,979,1240,0,0
-238,-216,0,0,0,0,0,0,0,0,0,-1,986,1240,0,0
-231,-216,0,0,0,0,0,0,0,0,0,-1,993,1240,0,0
-224,-216,0,0,0,0,0,0,0,0,0,-1,1000,1240,0,0
-217,-216,0,0,0,0,0,0,0,0,0,-1,1007,1240,0,0
-210,-216,0,0,0,0,0,0,0,0,0,-1,1014,1240,0,0
-203,-216,0,0,0,0,0,0,0,0,0,-1,1021,1240,0,0
-196,-216,0,0,0,0,0,0,0,0,0,-1,1028,1240,0,0
-189,-216,0,0,0,0,0,0,0,0,0,-1,1035,1240,0,0
-182,-216,0,0,0,0,0,0,0,0,0,-1,1042,1240,0,0
-175,-216,0,0,0,0,0,0,0,0,0,-1,1049,1240,0,0
-168,-216,0,0,0,0,0,0,0,0,0,-1,1056,1240,0,0
-161,-216,0,0,0,0,0,0,0,0,0,-1,1063,1240,0,0
-154,-216,0,0,0,0,0,0,0,0,0,-1,1070,1240,0,0
-147,-216,0,0,0,0,0,0,0,0,0,-1,1077,1240,0,0
-140,-216,0,0,0,0,0,0,0,0,0,-1,1084,1240,0,0
-133,-216,0,0,0,0,0,0,0,0,0,-1,1091,1240,0,0
-126,-216,0,0,0,0,0,0,0,0,0,-1,1098,1240,0,0
-119,-216,0,0,0,0,0,0,0,0,0,-1,1105,1240,0,0
-112,-216,0,0,0,0,0,0,0,0,0,-1,1112,1240,0,0
-105,-216,0,0,0,0,0,0,0,0,0,-1,1119,1240,0,0
-98,-216,0,0,0,0,0,0,0,0,0,-1,1126,1240,0,0
-91,-216,0,0,0,0,0,0,0,0,0,-1,1133,1240,0,0
-84,-216,0,0,0,0,0,0,0,0,0,-1,1140,1240,0,0
-77,-216,0,0,0,0,0,0,0,0,0,-1,1147,1240,0,0
-70,-216,0,0,0,0,0,0,0,0,0,-1,1154,1240,0,0
-63,-216,0,0,0,0,0,0,0,0,0,-1,1161,1240,0,0
-56,-216,0,0,0,0,0,0,0,0,0,-1,1168,1240,0,0
-49,-216,0,0,0,0,0,0,0,0,0,-1,1175,1240,0,0
-42,-216,0,0,0,0,0,0,0,0,0,-1,1182,1240,0,0
-35,-216,0,0,0,0,0,0,0,0,0,-1,1189,1240,0,0
-28,-216,0,0,0,0,0,0,0,0,0,-1,1196,1240,0,0
-21,-216,0,0,0,0,0,0,0,0,0,-1,1203,1240,0,0
-14,-216,0,0,0,0,0,0,0,0,0,-1,1210,1240,0,0
-7,-216,0,0,0,0,0,0,0,0,0,-1,1217,1240,0,0
0,-216,0,0,0,0,0,0,0,0,0,-1,1224,1240,0,0
7,-216,0,0,0,0,0,0,0,0,0,-1,1231,1240,0,0
14,-216,0,0,0,0,0,0,0,0,0,-1,1238,1240,0,0
21,-216,0,0,0,0,0,0,0,0,0,-1,1245,1240,0,0
28,-216,0,0,0,0,0,0,0,0,0,-1,1252,1240,0,0
35,-216,0,0,0,0,0,0,0,0,0,-1,1259,1240,0,0
42,-216,0,0,0,0,0,0,0,0,0,-1,1266,1240,0,0
49,-216,0,0,0,0,0,0,0,0,0,-1,1273,1240,0,0
56,-216,0,0,0,0,0,0,0,0,0,-1,1280,1240,0,0
63,-216,0,0,0,0,0,0,0,0,0,-1,1287,1240,0,0
70,-216,0,0,0,0,0,0,0,0,0,-1,1294,1240,0,0
77,-216,0,0,0,0,0,0,0,0,0,-1,1301,1240,0,0
84,-216,0,0,0,0,0,0,0,0,0,-1,1308,1240,0,0
91,-216,0,0,0,0,0,0,0,0,0,-1,1315,1240,0,0
98,-216,0,0,0,0,0,0,0,0,0,-1,1322,1240,0,0
105,-216,0,0,0,0,0,0,0,0,0,-1,1329,1240,0,0
112,-216,0,0,0,0,0,0,0,0,0,-1,1336,1240,0,0
119,-216,0,0,0,0,0,0,0,0,0,-1,1343,1240,0,0
126,-216,0,0,0,0,0,0,0,0,0,-1,1350,1240,0,0
133,-216,0,0,0,0,0,0,0,0,0,-1,1357,1240,0,0
140,-216,0,0,0,0,0,0,0,0,0,-1,1364,1240,0,0
147,-216,0,0,0,0,0,0,0,0,0,-1,1371,1240,0,0
154,-216,0,0,0,0,0,0,0,0,0,-1,1378,1240,0,0
161,-216,0,0,0,0,0,0,0,0,0,-1,1385,1240,0,0
168,-216,0,0,0,0,0,0,0,0,0,-1,1392,1240,0,0
175,-216,0,0,0,0,0,0,0,0,0,-1,1399,1240,0,0
182,-216,0,0,0,0,0,0,0,0,0,-1,1406,1240,0,0
189,-216,0,0,0,0,0,0,0,0,0,-1,1413,1240,0,0
196,-216,0,0,0,0,0,0,0,0,0,-1,1420,1240,0,0
203,-216,0,0,0,0,0,0,0,0,0,-1,1427,1240,0,0
210,-216,0,0,0,0,0,0,0,0,0,-1,1434,1240,0,0
217,-216,0,0,0,0,0,0,0,0,0,-1,1441,1240,0,0
224,-216,0,0,0,0,0,0,0,0,0,-1,1448,1240,0,0
231,-216,0,0,0,0,0,0,0,0,0,-1,1455,1240,0,0
238,-216,0,0,0,0,0,0,0,0,0,-1,1462,1240,0,0
245,-216,0,0,0,0,0,0,0,0,0,-1,1469,1240,0,0
252,-216,0,0,0,0,0,0,0,0,0,-1,1476,1240,0,0
259,-216,0,0,0,0,0,0,0,0,0,-1,1483,1240,0,0
266,-216,0,0,0,0,0,0,0,0,0,-1,1490,1240,0,0
273,-216,0,0,0,0,0,0,0,0,0,-1,1497,1240,0,0
280,-216,0,0,0,0,0,0,0,0,0,-1,1504,1240,0,0
287,-216,0,0,0,0,0,0,0,0,0,-1,1511,1240,0,0
294,-216,0,0,0,0,0,0,0,0,0,-1,1518,1240,0,0
301,-216,0,0,0,0,0,0,0,0,0,-1,1525,1240,0,0
308,-216,0,0,0,0,0,0,0,0,0,-1,1532,1240,0,0
315,-216,0,0,0,0,0,0,0,0,0,-1,1539,1240,0,0
322,-216,0,0,0,0,0,0,0,0,0,-1,1546,1240,0,0
329,-216,0,0,0,0,0,0,0,0,0,-1,1553,1240,0,0
336,-216,0,0,0,0,0,0,0,0,0,-1,1560,1240,0,0
343,-216,0,0,0,0,0,0,0,0,0,-1,1567,1240,0,0
350,-216,0,0,0,0,0,0,0,0,0,-1,1574,1240,0,0
357,-216,0,0,0,0,0,0,0,0,0,-1,1581,1240,0,0
364,-216,0,0,0,0,0,0,0,0,0,-1,1588,1240,0,0
371,-216,0,0,0,0,0,0,0,0,0,-1,1595,1240,0,0
378,-216,0,0,0,0,0,0,0,0,0,-1,1602,1240,0,0
385,-216,0,0,0,0,0,0,0,0,0,-1,1609,1240,0,0
392,-216,0,0,0,0,0,0,0,0,0,-1,1616,1240,0,0
399,-216,0,0,0,0,0,0,0,0,0,-1,1623,1240,0,0
406,-216,0,0,0,0,0,0,0,0,0,-1,1630,1240,0,0
413,-216,0,0,0,0,0,0,0,0,0,-1,1637,1240,0,0
420,-216,0,0,0,0,0,0,0,0,0,-1,1644,1240,0,0
427,-216,0,0,0,0,0,0,0,0,0,-1,1651,1240,0,0
434,-216,0,0,0,0,0,0,0,0,0,-1,1658,1240,0,0
441,-216,0,0,0,0,0,0,0,0,0,-1,1665,1240,0,0
448,-216,0,0,0,0,0,0,0,0,0,-1,1672,1240,0,0
455,-216,0,0,0,0,0,0,0,0,0,-1,1679,1240,0,0
462,-216,0,0,0,0,0,0,0,0,0,-1,1686,1240,0,0
469,-216,0,0,0,0,0,0,0,0,0,-1,1693,1240,0,0
476,-216,0,0,0,0,0,0,0,0,0,-1,1700,1240,0,0
483,-216,0,0,0,0,0,0,0,0,0,-1,1707,1240,0,0
490,-216,0,0,0,0,0,0,0,0,0,-1,1714,1240,0,0
497,-216,0,0,0,0,0,0,0,0,0,-1,1721,1240,0,0
504,-216,0,0,0,0,0,0,0,0,0,-1,1728,1240,0,0
511,-216,0,0,0,0,0,0,0,0,0,-1,1735,1240,0,0
518,-216,0,0,0,0,0,0,0,0,0,-1,1742,1240,0,0
525,-216,0,0,0,0,0,0,0,0,0,-1,1749,1240,0,0
532,-216,0,0,0,0,0,0,0,0,0,-1,1756,1240,0,0
539,-216,0,0,0,0,0,0,0,0,0,-1,1763,1240,0,0
546,-216,0,0,0,0,0,0,0,0,0,-1,1770,1240,0,0
553,-216,0,0,0,0,0,0,0,0,0,-1,1777,1240,0,0
560,-216,0,0,0,0,0,0,0,0,0,-1,1784,1240,0,0
567,-216,0,0,0,0,0,0,0,0,0,-1,1791,1240,0,0
574,-216,0,0,0,0,0,0,0,0,0,-1,1798,1240,0,0
581,-216,0,0,0,0,0,0,0,0,0,-1,1805,1240,0,0
588,-216,0,0,0,0,0,0,0,0,0,-1,1812,1240,0,0
595,-216,0,0,0,0,0,0,0,0,0,-1,1819,1240,0,0
602,-216,0,0,0,0,0,0,0,0,0,-1,1826,1240,0,0
609,-216,0,0,0,0,0,0,0,0,0,-1,1833,1240,0,0
616,-216,0,0,0,0,0,0,0,0,0,-1,1840,1240,0,0
623,-216,82.0056,2.1615,-0.00161372,0.00180795,-0.000499089,0.00187927,-0.00168503,-1.42887,0.00205887,0.0406868,1847,1240,82.0056,-2.16148
630,-216,81.9432,2.2113,-0.00174681,0.00223532,-0.000471669,0.00229043,-0.00180192,-1.45449,0.00236832,0.0378736,1854,1240,81.9433,-2.21124
637,-216,81.9823,2.27087,-0.00177724,0.00280503,-0.000653088,0.00289629,-0.0018685,-1.43195,0.0027722,0.032017,1861,1240,81.9823,-2.27084
644,-216,82.0144,2.30872,-0.00156285,0.00321962,-0.00101516,0.00342619,-0.00176941,-1.37006,0.0030501,0.0254268,1868,1240,82.0144,-2.30877
651,-216,82.0125,2.32556,-0.00131323,0.00317505,-0.00116868,0.00346112,-0.00159931,-1.33073,0.00298683,0.0216129,1875,1240,82.0125,-2.32554
658,-216,82.0497,2.34241,-0.00134582,0.00311049,-0.000686861,0.00321395,-0.00144929,-1.42129,0.00275583,0.0307807,1882,1240,82.0497,-2.34238
665,-216,82.0812,2.28906,0,0,0,0,0,0,0,-1,1889,1240,82.0812,-2.28903
672,-216,68.6339,1.33826,0,0,0,0,0,0,0,-1,1896,1240,68.6339,-1.33828
679,-216,47.3159,3.82703,0,0,0,0,0,0,0,-1,1903,1240,47.316,-3.82708
686,-216,21.5172,6.19458,0,0,0,0,0,0,0,-1,1910,1240,21.5172,-6.19453
693,-216,56.1224,12.7039,0,0,0,0,0,0,0,-1,1917,1240,56.1224,-12.7038
700,-216,63.6183,14.2124,0,0,0,0,0,0,0,-1,1924,1240,63.6183,-14.2124
707,-216,63.8123,13.1431,0,0,0,0,0,0,0,-1,1931,1240,63.8123,-13.1431
714,-216,63.6328,12.5132,-0.000819939,0.00325912,0.00101016,0.00349557,-0.00105639,1.34086,0.00275097,0.0330986,1938,1240,63.6329,-12.5131
721,-216,63.5548,11.8254,-0.000950492,0.00310336,0.00141233,0.00354688,-0.00139401,1.26651,0.00294151,0.0135019,1945,1240,63.5548,-11.8254
728,-216,63.5797,11.0256,-0.00101954,0.00253594,0.00166106,0.00319119,-0.0016748,1.19506,0.00285449,0.0136505,1952,1240,63.5797,-11.0256
735,-216,63.5653,10.2062,-0.00135403,0.00196898,0.00189842,0.00283029,-0.00221534,1.14487,0.0029203,0.0159457,1959,1240,63.5653,-10.2062
742,-216,63.439,9.38721,-0.00195196,0.00147284,0.00231499,0.00263993,-0.00311905,1.10384,0.00332879,0.0177095,1966,1240,63.4389,-9.38722
749,-216,63.3629,8.57251,-0.00271152,0.00109403,0.00297401,0.00272187,-0.00433937,1.06998,0.0041123,0.0134046,1973,1240,63.3629,-8.57245
756,-216,63.316,7.79004,-0.00361774,0.000806923,0.00394435,0.00311702,-0.00592783,1.04098,0.00530543,0.0122181,1980,1240,63.3161,-7.79004
763,-216,63.2622,7.04065,-0.00491957,0.000791188,0.00563385,0.00425193,-0.00838032,1.01994,0.00742193,0.0243808,1987,1240,63.2623,-7.04063
770,-216,63.4495,6.26343,0,0,0,0,0,0,0,-1,1994,1240,63.4496,-6.26347
777,-216,63.2207,5.97656,0,0,0,0,0,0,0,-1,2001,1240,63.2207,-5.97651
784,-216,68.2205,0.660034,0,0,0,0,0,0,0,-1,2008,1240,68.2204,-0.660033
791,-216,67.71,1.8468,0,0,0,0,0,0,0,-1,2015,1240,67.7099,-1.84686
798,-216,0,0,0,0,0,0,0,0,0,-1,2022,1240,0,0
805,-216,0,0,0,0,0,0,0,0,0,-1,2029,1240,0,0
812,-216,0,0,0,0,0,0,0,0,0,-1,2036,1240,0,0
-700,-223,0,0,0,0,0,0,0,0,0,-1,524,1247,0,0
-693,-223,0,0,0,0,0,0,0,0,0,-1,531,1247,0,0
-686,-223,0,0,0,0,0,0,0,0,0,-1,538,1247,0,0
-679,-223,0,0,0,0,0,0,0,0,0,-1,545,1247,0,0
-672,-223,-66.0346,3.11548,0,0,0,0,0,0,0,-1,552,1247,-66.0346,-3.11552
-665,-223,-64.0319,5.19934,0,0,0,0,0,0,0,-1,559,1247,-64.0319,-5.19937
-658,-223,-61.9559,7.7594,0,0,0,0,0,0,0,-1,566,1247,-61.9559,-7.75934
-651,-223,-40.2339,-7.32275,0,0,0,0,0,0,0,-1,573,1247,-40.234,7.32277
-644,-223,-45.9081,3.8446,0,0,0,0,0,0,0,-1,580,1247,-45.9081,-3.84463
-637,-223,-49.2922,0.294189,0,0,0,0,0,0,0,-1,587,1247,-49.2922,-0.294245
-630,-223,-45.5125,6.42651,0,0,0,0,0,0,0,-1,594,1247,-45.5125,-6.42646
-623,-223,-45.9698,7.56555,0,0,0,0,0,0,0,-1,601,1247,-45.9699,-7.56551
-616,-223,-46.0185,8.4397,0.00163517,0.00168146,0.00039224,0.00205124,0.00126539,0.814869,0.00119502,0.0177349,608,1247,-46.0185,-8.43967
-609,-223,-46.0522,9.28308,0.000685566,0.00173473,-0.000468556,0.00191352,0.000506777,-1.20627,0.00114478,0.0131896,615,1247,-46.0522,-9.28307
-602,-223,-46.1021,10.0748,-0.000503985,0.00182203,-0.00142689,0.00249984,-0.00118179,-1.12733,0.00217052,0.0164383,622,1247,-46.102,-10.0748
-595,-223,-46.1205,10.9219,-0.00187763,0.00204112,-0.00243042,0.00320362,-0.00304013,-1.12465,0.00360524,0.0227369,629,1247,-46.1205,-10.9219
-588,-223,-46.1339,11.7947,-0.00286186,0.00205718,-0.00306229,0.00352537,-0.00433005,-1.12373,0.00454325,0.0483963,636,1247,-46.1338,-11.7946
-581,-223,-46.1657,12.4594,0,0,0,0,0,0,0,-1,643,1247,-46.1657,-12.4594
-574,-223,-46.8217,13.9725,0,0,0,0,0,0,0,-1,650,1247,-46.8217,-13.9725
-567,-223,-46.9636,14.1105,0,0,0,0,0,0,0,-1,657,1247,-46.9636,-14.1105
-560,-223,-31.8748,9.50732,0,0,0,0,0,0,0,-1,664,1247,-31.8748,-9.50735
-553,-223,-11.4025,4.14722,0,0,0,0,0,0,0,-1,671,1247,-11.4025,-4.14719
-546,-223,-26.9034,-0.148682,0,0,0,0,0,0,0,-1,678,1247,-26.9034,0.14867
-539,-223,-36.7405,0.35376,0,0,0,0,0,0,0,-1,685,1247,-36.7405,-0.353807
-532,-223,-47.6184,1.39844,0,0,0,0,0,0,0,-1,692,1247,-47.6184,-1.3984
-525,-223,-64.6106,0.513184,0,0,0,0,0,0,0,-1,699,1247,-64.6106,-0.513137
-518,-223,-64.8121,0.464355,0,0,0,0,0,0,0,-1,706,1247,-64.8121,-0.464359
-511,-223,-64.8347,0.473999,-0.00407713,0.00404406,-0.00437564,0.00595295,-0.00598601,-1.15943,0.00689297,0.0393082,713,1247,-64.8347,-0.474021
-504,-223,-64.8805,0.574829,-0.000139266,0.00863845,-0.00281056,0.00946124,-0.000962063,-1.286,0.00665142,0.0424567,720,1247,-64.8805,-0.574842
-497,-223,0,0,0,0,0,0,0,0,0,-1,727,1247,0,0
-490,-223,0,0,0,0,0,0,0,0,0,-1,734,1247,0,0
-483,-223,0,0,0,0,0,0,0,0,0,-1,741,1247,0,0
-476,-223,0,0,0,0,0,0,0,0,0,-1,748,1247,0,0
-469,-223,0,0,0,0,0,0,0,0,0,-1,755,1247,0,0
-462,-223,0,0,0,0,0,0,0,0,0,-1,762,1247,0,0
-455,-223,0,0,0,0,0,0,0,0,0,-1,769,1247,0,0
-448,-223,0,0,0,0,0,0,0,0,0,-1,776,1247,0,0
-441,-223,0,0,0,0,0,0,0,0,0,-1,783,1247,0,0
-434,-223,0,0,0,0,0,0,0,0,0,-1,790,1247,0,0
-427,-223,0,0,0,0,0,0,0,0,0,-1,797,1247,0,0
-420,-223,0,0,0,0,0,0,0,0,0,-1,804,1247,0,0
-413,-223,0,0,0,0,0,0,0,0,0,-1,811,1247,0,0
-406,-223,0,0,0,0,0,0,0,0,0,-1,818,1247,0,0
-399,-223,0,0,0,0,0,0,0,0,0,-1,825,1247,0,0
-392,-223,0,0,0,0,0,0,0,0,0,-1,832,1247,0,0
-385,-223,0,0,0,0,0,0,0,0,0,-1,839,1247,0,0
-378,-223,0,0,0,0,0,0,0,0,0,-1,846,1247,0,0
-371,-223,0,0,0,0,0,0,0,0,0,-1,853,1247,0,0
-364,-223,0,0,0,0,0,0,0,0,0,-1,860,1247,0,0
-357,-223,0,0,0,0,0,0,0,0,0,-1,867,1247,0,0
-350,-223,0,0,0,0,0,0,0,0,0,-1,874,1247,0,0
-343,-223,0,0,0,0,0,0,0,0,0,-1,881,1247,0,0
-336,-223,0,0,0,0,0,0,0,0,0,-1,888,1247,0,0
-329,-223,0,0,0,0,0,0,0,0,0,-1,895,1247,0,0
-322,-223,0,0,0,0,0,0,0,0,0,-1,902,1247,0,0
-315,-223,0,0,0,0,0,0,0,0,0,-1,909,1247,0,0
-308,-223,0,0,0,0,0,0,0,0,0,-1,916,1247,0,0
-301,-223,0,0,0,0,0,0,0,0,0,-1,923,1247,0,0
-294,-223,0,0,0,0,0,0,0,0,0,-1,930,1247,0,0
-287,-223,0,0,0,0,0,0,0,0,0,-1,937,1247,0,0
-280,-223,0,0,0,0,0,0,0,0,0,-1,944,1247,0,0
-273,-223,0,0,0,0,0,0,0,0,0,-1,951,1247,0,0
-266,-223,0,0,0,0,0,0,0,0,0,-1,958,1247,0,0
-259,-223,0,0,0,0,0,0,0,0,0,-1,965,1247,0,0
-252,-223,0,0,0,0,0,0,0,0,0,-1,972,1247,0,0
-245,-223,0,0,0,0,0,0,0,0,0,-1,979,1247,0,0
-238,-223,0,0,0,0,0,0,0,0,0,-1,986,1247,0,0
-231,-223,0,0,0,0,0,0,0,0,0,-1,993,1247,0,0
-224,-223,0,0,0,0,0,0,0,0,0,-1,1000,1247,0,0
-217,-223,0,0,0,0,0,0,0,0,0,-1,1007,1247,0,0
-210,-223,0,0,0,0,0,0,0,0,0,-1,1014,1247,0,0
-203,-223,0,0,0,0,0,0,0,0,0,-1,1021,1247,0,0
-196,-223,0,0,0,0,0,0,0,0,0,-1,1028,1247,0,0
-189,-223,0,0,0,0,0,0,0,0,0,-1,1035,1247,0,0
-182,-223,0,0,0,0,0,0,0,0,0,-1,1042,1247,0,0
-175,-223,0,0,0,0,0,0,0,0,0,-1,1049,1247,0,0
-168,-223,0,0,0,0,0,0,0,0,0,-1,1056,1247,0,0
-161,-223,0,0,0,0,0,0,0,0,0,-1,1063,1247,0,0
-154,-223,0,0,0,0,0,0,0,0,0,-1,1070,1247,0,0
-147,-223,0,0,0,0,0,0,0,0,0,-1,1077,1247,0,0
-140,-223,0,0,0,0,0,0,0,0,0,-1,1084,1247,0,0
-133,-223,0,0,0,0,0,0,0,0,0,-1,1091,1247,0,0
-126,-223,0,0,0,0,0,0,0,0,0,-1,1098,1247,0,0
-119,-223,0,0,0,0,0,0,0,0,0,-1,1105,1247,0,0
-112,-223,0,0,0,0,0,0,0,0,0,-1,1112,1247,0,0
-105,-223,0,0,0,0,0,0,0,0,0,-1,1119,1247,0,0
-98,-223,0,0,0,0,0,0,0,0,0,-1,1126,1247,0,0
-91,-223,0,0,0,0,0,0,0,0,0,-1,1133,1247,0,0
-84,-223,0,0,0,0,0,0,0,0,0,-1,1140,1247,0,0
-77,-223,0,0,0,0,0,0,0,0,0,-1,1147,1247,0,0
-70,-223,0,0,0,0,0,0,0,0,0,-1,1154,1247,0,0
-63,-223,0,0,0,0,0,0,0,0,0,-1,1161,1247,0,0
-56,-223,0,0,0,0,0,0,0,0,0,-1,1168,1247,0,0
-49,-223,0,0,0,0,0,0,0,0,0,-1,1175,1247,0,0
-42,-223,0,0,0,0,0,0,0,0,0,-1,1182,1247,0,0
-35,-223,0,0,0,0,0,0,0,0,0,-1,1189,1247,0,0
-28,-223,0,0,0,0,0,0,0,0,0,-1,1196,1247,0,0
-21,-223,0,0,0,0,0,0,0,0,0,-1,1203,1247,0,0
-14,-223,0,0,0,0,0,0,0,0,0,-1,1210,1247,0,0
-7,-223,0,0,0,0,0,0,0,0,0,-1,1217,1247,0,0
0,-223,0,0,0,0,0,0,0,0,0,-1,1224,1247,0,0
7,-223,0,0,0,0,0,0,0,0,0,-1,1231,1247,0,0
14,-223,0,0,0,0,0,0,0,0,0,-1,1238,1247,0,0
21,-223,0,0,0,0,0,0,0,0,0,-1,1245,1247,0,0
28,-223,0,0,0,0,0,0,0,0,0,-1,1252,1247,0,0
35,-223,0,0,0,0,0,0,0,0,0,-1,1259,1247,0,0
42,-223,0,0,0,0,0,0,0,0,0,-1,1266,1247,0,0
49,-223,0,0,0,0,0,0,0,0,0,-1,1273,1247,0,0
56,-223,0,0,0,0,0,0,0,0,0,-1,1280,1247,0,0
63,-223,0,0,0,0,0,0,0,0,0,-1,1287,1247,0,0
70,-223,0,0,0,0,0,0,0,0,0,-1,1294,1247,0,0
77,-223,0,0,0,0,0,0,0,0,0,-1,1301,1247,0,0
84,-223,0,0,0,0,0,0,0,0,0,-1,1308,1247,0,0
91,-223,0,0,0,0,0,0,0,0,0,-1,1315,1247,0,0
98,-223,0,0,0,0,0,0,0,0,0,-1,1322,1247,0,0
105,-223,0,0,0,0,0,0,0,0,0,-1,1329,1247,0,0
112,-223,0,0,0,0,0,0,0,0,0,-1,1336,1247,0,0
119,-223,0,0,0,0,0,0,0,0,0,-1,1343,1247,0,0
126,-223,0,0,0,0,0,0,0,0,0,-1,1350,1247,0,0
133,-223,0,0,0,0,0,0,0,0,0,-1,1357,1247,0,0
140,-223,0,0,0,0,0,0,0,0,0,-1,1364,1247,0,0
147,-223,0,0,0,0,0,0,0,0,0,-1,1371,1247,0,0
154,-223,0,0,0,0,0,0,0,0,0,-1,1378,1247,0,0
161,-223,0,0,0,0,0,0,0,0,0,-1,1385,1247,0,0
168,-223,0,0,0,0,0,0,0,0,0,-1,1392,1247,0,0
175,-223,0,0,0,0,0,0,0,0,0,-1,1399,1247,0,0
182,-223,0,0,0,0,0,0,0,0,0,-1,1406,1247,0,0
189,-223,0,0,0,0,0,0,0,0,0,-1,1413,1247,0,0
196,-223,0,0,0,0,0,0,0,0,0,-1,1420,1247,0,0
203,-223,0,0,0,0,0,0,0,0,0,-1,1427,1247,0,0
210,-223,0,0,0,0,0,0,0,0,0,-1,1434,1247,0,0
217,-223,0,0,0,0,0,0,0,0,0,-1,1441,1247,0,0
224,-223,0,0,0,0,0,0,0,0,0,-1,1448,1247,0,0
231,-223,0,0,0,0,0,0,0,0,0,-1,1455,1247,0,0
238,-223,0,0,0,0,0,0,0,0,0,-1,1462,1247,0,0
245,-223,0,0,0,0,0,0,0,0,0,-1,1469,1247,0,0
252,-223,0,0,0,0,0,0,0,0,0,-1,1476,1247,0,0
259,-223,0,0,0,0,0,0,0,0,0,-1,1483,1247,0,0
266,-223,0,0,0,0,0,0,0,0,0,-1,1490,1247,0,0
273,-223,0,0,0,0,0,0,0,0,0,-1,1497,1247,0,0
280,-223,0,0,0,0,0,0,0,0,0,-1,1504,1247,0,0
287,-223,0,0,0,0,0,0,0,0,0,-1,1511,1247,0,0
294,-223,0,0,0,0,0,0,0,0,0,-1,1518,1247,0,0
301,-223,0,0,0,0,0,0,0,0,0,-1,1525,1247,0,0
308,-223,0,0,0,0,0,0,0,0,0,-1,1532,1247,0,0
315,-223,0,0,0,0,0,0,0,0,0,-1,1539,1247,0,0
322,-223,0,0,0,0,0,0,0,0,0,-1,1546,1247,0,0
329,-223,0,0,0,0,0,0,0,0,0,-1,1553,1247,0,0
336,-223,0,0,0,0,0,0,0,0,0,-1,1560,1247,0,0
343,-223,0,0,0,0,0,0,0,0,0,-1,1567,1247,0,0
350,-223,0,0,0,0,0,0,0,0,0,-1,1574,1247,0,0
357,-223,0,0,0,0,0,0,0,0,0,-1,1581,1247,0,0
364,-223,0,0,0,0,0,0,0,0,0,-1,1588,1247,0,0
371,-223,0,0,0,0,0,0,0,0,0,-1,1595,1247,0,0
378,-223,0,0,0,0,0,0,0,0,0,-1,1602,1247,0,0
385,-223,0,0,0,0,0,0,0,0,0,-1,1609,1247,0,0
392,-223,0,0,0,0,0,0,0,0,0,-1,1616,1247,0,0
399,-223,0,0,0,0,0,0,0,0,0,-1,1623,1247,0,0
406,-223,0,0,0,0,0,0,0,0,0,-1,1630,1247,0,0
413,-223,0,0,0,0,0,0,0,0,0,-1,1637,1247,0,0
420,-223,0,0,0,0,0,0,0,0,0,-1,1644,1247,0,0
427,-223,0,0,0,0,0,0,0,0,0,-1,1651,1247,0,0
434,-223,0,0,0,0,0,0,0,0,0,-1,1658,1247,0,0
441,-223,0,0,0,0,0,0,0,0,0,-1,1665,1247,0,0
448,-223,0,0,0,0,0,0,0,0,0,-1,1672,1247,0,0
455,-223,0,0,0,0,0,0,0,0,0,-1,1679,1247,0,0
462,-223,0,0,0,0,0,0,0,0,0,-1,1686,1247,0,0
469,-223,0,0,0,0,0,0,0,0,0,-1,1693,1247,0,0
476,-223,0,0,0,0,0,0,0,0,0,-1,1700,1247,0,0
483,-223,0,0,0,0,0,0,0,0,0,-1,1707,1247,0,0
490,-223,0,0,0,0,0,0,0,0,0,-1,1714,1247,0,0
497,-223,0,0,0,0,0,0,0,0,0,-1,1721,1247,0,0
504,-223,0,0,0,0,0,0,0,0,0,-1,1728,1247,0,0
511,-223,0,0,0,0,0,0,0,0,0,-1,1735,1247,0,0
518,-223,0,0,0,0,0,0,0,0,0,-1,1742,1247,0,0
525,-223,0,0,0,0,0,0,0,0,0,-1,1749,1247,0,0
532,-223,0,0,0,0,0,0,0,0,0,-1,1756,1247,0,0
539,-223,0,0,0,0,0,0,0,0,0,-1,1763,1247,0,0
546,-223,0,0,0,0,0,0,0,0,0,-1,1770,1247,0,0
553,-223,0,0,0,0,0,0,0,0,0,-1,1777,1247,0,0
560,-223,0,0,0,0,0,0,0,0,0,-1,1784,1247,0,0
567,-223,0,0,0,0,0,0,0,0,0,-1,1791,1247,0,0
574,-223,0,0,0,0,0,0,0,0,0,-1,1798,1247,0,0
581,-223,0,0,0,0,0,0,0,0,0,-1,1805,1247,0,0
588,-223,0,0,0,0,0,0,0,0,0,-1,1812,1247,0,0
595,-223,0,0,0,0,0,0,0,0,0,-1,1819,1247,0,0
602,-223,0,0,0,0,0,0,0,0,0,-1,1826,1247,0,0
609,-223,0,0,0,0,0,0,0,0,0,-1,1833,1247,0,0
616,-223,0,0,0,0,0,0,0,0,0,-1,1840,1247,0,0
623,-223,81.8729,2.47388,-0.00192942,0.00231901,-0.000568688,0.00239382,-0.00200422,-1.44,0.00254253,0.0422084,1847,1247,81.873,-2.4739
630,-223,81.8871,2.35535,-0.00233851,0.00289262,-0.00041155,0.0029248,-0.00237069,-1.49276,0.00306293,0.0382487,1854,1247,81.8871,-2.35531
637,-223,81.9501,2.35852,-0.0026625,0.00355944,-0.000409266,0.00358624,-0.00268931,-1.50539,0.0036355,0.0290019,1861,1247,81.9501,-2.35847
644,-223,81.978,2.3175,-0.00239714,0.00369787,-0.000651951,0.00376683,-0.0024661,-1.46542,0.00362461,0.0214324,1868,1247,81.978,-2.31756
651,-223,81.9606,2.22571,-0.00197844,0.00326232,-0.000683057,0.00334988,-0.002066,-1.4433,0.00315601,0.0290707,1875,1247,81.9606,-2.22567
658,-223,81.9989,2.19214,0,0,0,0,0,0,0,-1,1882,1247,81.9989,-2.19214
665,-223,68.7177,1.6427,0,0,0,0,0,0,0,-1,1889,1247,68.7176,-1.64275
672,-223,56.4625,2.72424,0,0,0,0,0,0,0,-1,1896,1247,56.4626,-2.72418
679,-223,43.2783,2.46973,0,0,0,0,0,0,0,-1,1903,1247,43.2784,-2.46978
686,-223,40.7926,10.0316,0,0,0,0,0,0,0,-1,1910,1247,40.7926,-10.0316
693,-223,63.207,15.2067,0,0,0,0,0,0,0,-1,1917,1247,63.207,-15.2067
700,-223,62.9611,14.3751,0,0,0,0,0,0,0,-1,1924,1247,62.9611,-14.3751
707,-223,63.1423,13.2423,0,0,0,0,0,0,0,-1,1931,1247,63.1423,-13.2423
714,-223,62.8994,12.5728,-0.00100481,0.00255669,0.00139042,0.00303522,-0.00148334,1.23933,0.00265958,0.0313696,1938,1247,62.8995,-12.5727
721,-223,62.7517,11.8607,-0.00121439,0.00236008,0.00172925,0.00305971,-0.00191402,1.18634,0.00289687,0.0150796,1945,1247,62.7517,-11.8607
728,-223,62.709,11.053,-0.00152521,0.00192769,0.00195039,0.00280598,-0.00240349,1.14768,0.00301068,0.0189091,1952,1247,62.709,-11.053
735,-223,62.6782,10.2614,-0.00209402,0.00154633,0.0022171,0.0025947,-0.00314239,1.1291,0.00331734,0.0188327,1959,1247,62.6783,-10.2614
742,-223,62.5958,9.49084,-0.0028677,0.00122492,0.00269725,0.00256425,-0.00420702,1.10991,0.00394756,0.0175877,1966,1247,62.5958,-9.49081
749,-223,62.5509,8.63025,-0.00377977,0.000965423,0.00342111,0.00275614,-0.00557049,1.08858,0.00489806,0.0134736,1973,1247,62.5509,-8.63028
756,-223,62.4636,7.81763,-0.00487508,0.000762069,0.00448413,0.00323989,-0.0073529,1.06598,0.00626754,0.0151873,1980,1247,62.4636,-7.81766
763,-223,62.3838,7.11462,-0.00640077,0.000832365,0.00627456,0.00445801,-0.0100264,1.04684,0.0085661,0.0219898,1987,1247,62.3838,-7.11468
770,-223,62.5981,6.34827,0,0,0,0,0,0,0,-1,1994,1247,62.5982,-6.34832
777,-223,53.7227,4.88562,0,0,0,0,0,0,0,-1,2001,1247,53.7227,-4.8856
784,-223,68.8677,0.507813,0,0,0,0,0,0,0,-1,2008,1247,68.8676,-0.507816
791,-223,34.7136,2.92554,0,0,0,0,0,0,0,-1,2015,1247,34.7137,-2.92555
798,-223,0,0,0,0,0,0,0,0,0,-1,2022,1247,0,0
805,-223,0,0,0,0,0,0,0,0,0,-1,2029,1247,0,0
812,-223,0,0,0,0,0,0,0,0,0,-1,2036,1247,0,0
-700,-230,0,0,0,0,0,0,0,0,0,-1,524,1254,0,0
-693,-230,0,0,0,0,0,0,0,0,0,-1,531,1254,0,0
-686,-230,0,0,0,0,0,0,0,0,0,-1,538,1254,0,0
-679,-230,0,0,0,0,0,0,0,0,0,-1,545,1254,0,0
-672,-230,-66.8678,2.11389,0,0,0,0,0,0,0,-1,552,1254,-66.8678,-2.11385
-665,-230,-64.7561,3.9519,0,0,0,0,0,0,0,-1,559,1254,-64.7561,-3.95185
-658,-230,-62.6445,5.78979,0,0,0,0,0,0,0,-1,566,1254,-62.6445,-5.78985
-651,-230,-39.3627,-7.38525,0,0,0,0,0,0,0,-1,573,1254,-39.3627,7.38529
-644,-230,-48.2715,0.872925,0,0,0,0,0,0,0,-1,580,1254,-48.2715,-0.87288
-637,-230,-49.1636,-0.158325,0,0,0,0,0,0,0,-1,587,1254,-49.1636,0.158288
-630,-230,-41.3331,5.24744,0,0,0,0,0,0,0,-1,594,1254,-41.3331,-5.24744
-623,-230,-45.1898,7.69067,0,0,0,0,0,0,0,-1,601,1254,-45.1897,-7.69066
-616,-230,-45.1248,8.46204,0.00283748,0.00168272,0.000931961,0.00335642,0.00116378,0.50807,0.00196794,0.019467,608,1254,-45.1248,-8.46199
-609,-230,-45.1552,9.32227,0.00144874,0.00169752,-4.01902e-05,0.00170385,0.00144241,-1.41454,0.00105956,0.0120626,615,1254,-45.1551,-9.32224
-602,-230,-45.2075,10.1589,-0.000116635,0.00162421,-0.00108537,0.00214507,-0.000637497,-1.12336,0.00168328,0.0131621,622,1254,-45.2075,-10.159
-595,-230,-45.2776,11.0216,-0.00179784,0.00163414,-0.00223427,0.00273535,-0.00289904,-1.11287,0.00325347,0.0220039,629,1254,-45.2776,-11.0216
-588,-230,-45.4152,11.896,-0.00325729,0.00159632,-0.00325014,0.00322572,-0.00488669,-1.10608,0.00471631,0.0344605,636,1254,-45.4152,-11.8959
-581,-230,-45.5273,12.6271,0,0,0,0,0,0,0,-1,643,1254,-45.5273,-12.627
-574,-230,-45.5339,13.7731,-0.00515238,0.00136438,-0.004543,0.0036967,-0.00748469,-1.0965,0.0065779,0.0490007,650,1254,-45.5339,-13.7731
-567,-230,-45.6618,14.2876,0,0,0,0,0,0,0,-1,657,1254,-45.6618,-14.2876
-560,-230,-46.0397,14.6844,0,0,0,0,0,0,0,-1,664,1254,-46.0398,-14.6845
-553,-230,-13.1939,4.9718,0,0,0,0,0,0,0,-1,671,1254,-13.1939,-4.97175
-546,-230,-15.23,0.453979,0,0,0,0,0,0,0,-1,678,1254,-15.23,-0.453996
-539,-230,-25.8232,0.512817,0,0,0,0,0,0,0,-1,685,1254,-25.8232,-0.512878
-532,-230,-21.1644,1.52966,0,0,0,0,0,0,0,-1,692,1254,-21.1644,-1.52969
-525,-230,-29.4775,0.731445,0,0,0,0,0,0,0,-1,699,1254,-29.4775,-0.731432
-518,-230,-64.618,0.435181,0,0,0,0,0,0,0,-1,706,1254,-64.618,-0.435144
-511,-230,-64.7934,0.439453,-0.00582721,0.00161239,-0.00351604,0.00301113,-0.00722595,-1.19217,0.00607507,0.0431231,713,1254,-64.7934,-0.439397
-504,-230,-64.8478,0.428345,-0.00405201,0.00367842,-0.00171552,0.00404202,-0.00441561,-1.36194,0.0048846,0.0394757,720,1254,-64.8478,-0.428356
-497,-230,0,0,0,0,0,0,0,0,0,-1,727,1254,0,0
-490,-230,0,0,0,0,0,0,0,0,0,-1,734,1254,0,0
-483,-230,0,0,0,0,0,0,0,0,0,-1,741,1254,0,0
-476,-230,0,0,0,0,0,0,0,0,0,-1,748,1254,0,0
-469,-230,0,0,0,0,0,0,0,0,0,-1,755,1254,0,0
-462,-230,0,0,0,0,0,0,0,0,0,-1,762,1254,0,0
-455,-230,0,0,0,0,0,0,0,0,0,-1,769,1254,0,0
-448,-230,0,0,0,0,0,0,0,0,0,-1,776,1254,0,0
-441,-230,0,0,0,0,0,0,0,0,0,-1,783,1254,0,0
-434,-230,0,0,0,0,0,0,0,0,0,-1,790,1254,0,0
-427,-230,0,0,0,0,0,0,0,0,0,-1,797,1254,0,0
-420,-230,0,0,0,0,0,0,0,0,0,-1,804,1254,0,0
-413,-230,0,0,0,0,0,0,0,0,0,-1,811,1254,0,0
-406,-230,0,0,0,0,0,0,0,0,0,-1,818,1254,0,0
-399,-230,0,0,0,0,0,0,0,0,0,-1,825,1254,0,0
-392,-230,0,0,0,0,0,0,0,0,0,-1,832,1254,0,0
-385,-230,0,0,0,0,0,0,0,0,0,-1,839,1254,0,0
-378,-230,0,0,0,0,0,0,0,0,0,-1,846,1254,0,0
-371,-230,0,0,0,0,0,0,0,0,0,-1,853,1254,0,0
-364,-230,0,0,0,0,0,0,0,0,0,-1,860,1254,0,0
-357,-230,0,0,0,0,0,0,0,0,0,-1,867,1254,0,0
-350,-230,0,0,0,0,0,0,0,0,0,-1,874,1254,0,0
-343,-230,0,0,0,0,0,0,0,0,0,-1,881,1254,0,0
-336,-230,0,0,0,0,0,0,0,0,0,-1,888,1254,0,0
-329,-230,0,0,0,0,0,0,0,0,0,-1,895,1254,0,0
-322,-230,0,0,0,0,0,0,0,0,0,-1,902,1254,0,0
-315,-230,0,0,0,0,0,0,0,0,0,-1,909,1254,0,0
-308,-230,0,0,0,0,0,0,0,0,0,-1,916,1254,0,0
-301,-230,0,0,0,0,0,0,0,0,0,-1,923,1254,0,0
-294,-230,0,0,0,0,0,0,0,0,0,-1,930,1254,0,0
-287,-230,0,0,0,0,0,0,0,0,0,-1,937,1254,0,0
-280,-230,0,0,0,0,0,0,0,0,0,-1,944,1254,0,0
-273,-230,0,0,0,0,0,0,0,0,0,-1,951,1254,0,0
-266,-230,0,0,0,0,0,0,0,0,0,-1,958,1254,0,0
-259,-230,0,0,0,0,0,0,0,0,0,-1,965,1254,0,0
-252,-230,0,0,0,0,0,0,0,0,0,-1,972,1254,0,0
-245,-230,0,0,0,0,0,0,0,0,0,-1,979,1254,0,0
-238,-230,0,0,0,0,0,0,0,0,0,-1,986,1254,0,0
-231,-230,0,0,0,0,0,0,0,0,0,-1,993,1254,0,0
-224,-230,0,0,0,0,0,0,0,0,0,-1,1000,1254,0,0
-217,-230,0,0,0,0,0,0,0,0,0,-1,1007,1254,0,0
-210,-230,0,0,0,0,0,0,0,0,0,-1,1014,1254,0,0
-203,-230,0,0,0,0,0,0,0,0,0,-1,1021,1254,0,0
-196,-230,0,0,0,0,0,0,0,0,0,-1,1028,1254,0,0
-189,-230,0,0,0,0,0,0,0,0,0,-1,1035,1254,0,0
-182,-230,0,0,0,0,0,0,0,0,0,-1,1042,1254,0,0
-175,-230,0,0,0,0,0,0,0,0,0,-1,1049,1254,0,0
-168,-230,0,0,0,0,0,0,0,0,0,-1,1056,1254,0,0
-161,-230,0,0,0,0,0,0,0,0,0,-1,1063,1254,0,0
-154,-230,0,0,0,0,0,0,0,0,0,-1,1070,1254,0,0
-147,-230,0,0,0,0,0,0,0,0,0,-1,1077,1254,0,0
-140,-230,0,0,0,0,0,0,0,0,0,-1,1084,1254,0,0
-133,-230,0,0,0,0,0,0,0,0,0,-1,1091,1254,0,0
-126,-230,0,0,0,0,0,0,0,0,0,-1,1098,1254,0,0
-119,-230,0,0,0,0,0,0,0,0,0,-1,1105,1254,0,0
-112,-230,0,0,0,0,0,0,0,0,0,-1,1112,1254,0,0
-105,-230,0,0,0,0,0,0,0,0,0,-1,1119,1254,0,0
-98,-230,0,0,0,0,0,0,0,0,0,-1,1126,1254,0,0
-91,-230,0,0,0,0,0,0,0,0,0,-1,1133,1254,0,0
-84,-230,0,0,0,0,0,0,0,0,0,-1,1140,1254,0,0
-77,-230,0,0,0,0,0,0,0,0,0,-1,1147,1254,0,0
-70,-230,0,0,0,0,0,0,0,0,0,-1,1154,1254,0,0
-63,-230,0,0,0,0,0,0,0,0,0,-1,1161,1254,0,0
-56,-230,0,0,0,0,0,0,0,0,0,-1,1168,1254,0,0
-49,-230,0,0,0,0,0,0,0,0,0,-1,1175,1254,0,0
-42,-230,0,0,0,0,0,0,0,0,0,-1,1182,1254,0,0
-35,-230,0,0,0,0,0,0,0,0,0,-1,1189,1254,0,0
-28,-230,0,0,0,0,0,0,0,0,0,-1,1196,1254,0,0
-21,-230,0,0,0,0,0,0,0,0,0,-1,1203,1254,0,0
-14,-230,0,0,0,0,0,0,0,0,0,-1,1210,1254,0,0
-7,-230,0,0,0,0,0,0,0,0,0,-1,1217,1254,0,0
0,-230,0,0,0,0,0,0,0,0,0,-1,1224,1254,0,0
7,-230,0,0,0,0,0,0,0,0,0,-1,1231,1254,0,0
14,-230,0,0,0,0,0,0,0,0,0,-1,1238,1254,0,0
21,-230,0,0,0,0,0,0,0,0,0,-1,1245,1254,0,0
28,-230,0,0,0,0,0,0,0,0,0,-1,1252,1254,0,0
35,-230,0,0,0,0,0,0,0,0,0,-1,1259,1254,0,0
42,-230,0,0,0,0,0,0,0,0,0,-1,1266,1254,0,0
49,-230,0,0,0,0,0,0,0,0,0,-1,1273,1254,0,0
56,-230,0,0,0,0,0,0,0,0,0,-1,1280,1254,0,0
63,-230,0,0,0,0,0,0,0,0,0,-1,1287,1254,0,0
70,-230,0,0,0,0,0,0,0,0,0,-1,1294,1254,0,0
77,-230,0,0,0,0,0,0,0,0,0,-1,1301,1254,0,0
84,-230,0,0,0,0,0,0,0,0,0,-1,1308,1254,0,0
91,-230,0,0,0,0,0,0,0,0,0,-1,1315,1254,0,0
98,-230,0,0,0,0,0,0,0,0,0,-1,1322,1254,0,0
105,-230,0,0,0,0,0,0,0,0,0,-1,1329,1254,0,0
112,-230,0,0,0,0,0,0,0,0,0,-1,1336,1254,0,0
119,-230,0,0,0,0,0,0,0,0,0,-1,1343,1254,0,0
126,-230,0,0,0,0,0,0,0,0,0,-1,1350,1254,0,0
133,-230,0,0,0,0,0,0,0,0,0,-1,1357,1254,0,0
140,-230,0,0,0,0,0,0,0,0,0,-1,1364,1254,0,0
147,-230,0,0,0,0,0,0,0,0,0,-1,1371,1254,0,0
154,-230,0,0,0,0,0,0,0,0,0,-1,1378,1254,0,0
161,-230,0,0,0,0,0,0,0,0,0,-1,1385,1254,0,0
168,-230,0,0,0,0,0,0,0,0,0,-1,1392,1254,0,0
175,-230,0,0,0,0,0,0,0,0,0,-1,1399,1254,0,0
182,-230,0,0,0,0,0,0,0,0,0,-1,1406,1254,0,0
189,-230,0,0,0,0,0,0,0,0,0,-1,1413,1254,0,0
196,-230,0,0,0,0,0,0,0,0,0,-1,1420,1254,0,0
203,-230,0,0,0,0,0,0,0,0,0,-1,1427,1254,0,0
210,-230,0,0,0,0,0,0,0,0,0,-1,1434,1254,0,0
217,-230,0,0,0,0,0,0,0,0,0,-1,1441,1254,0,0
224,-230,0,0,0,0,0,0,0,0,0,-1,1448,1254,0,0
231,-230,0,0,0,0,0,0,0,0,0,-1,1455,1254,0,0
238,-230,0,0,0,0,0,0,0,0,0,-1,1462,1254,0,0
245,-230,0,0,0,0,0,0,0,0,0,-1,1469,1254,0,0
252,-230,0,0,0,0,0,0,0,0,0,-1,1476,1254,0,0
259,-230,0,0,0,0,0,0,0,0,0,-1,1483,1254,0,0
266,-230,0,0,0,0,0,0,0,0,0,-1,1490,1254,0,0
273,-230,0,0,0,0,0,0,0,0,0,-1,1497,1254,0,0
280,-230,0,0,0,0,0,0,0,0,0,-1,1504,1254,0,0
287,-230,0,0,0,0,0,0,0,0,0,-1,1511,1254,0,0
294,-230,0,0,0,0,0,0,0,0,0,-1,1518,1254,0,0
301,-230,0,0,0,0,0,0,0,0,0,-1,1525,1254,0,0
308,-230,0,0,0,0,0,0,0,0,0,-1,1532,1254,0,0
315,-230,0,0,0,0,0,0,0,0,0,-1,1539,1254,0,0
322,-230,0,0,0,0,0,0,0,0,0,-1,1546,1254,0,0
329,-230,0,0,0,0,0,0,0,0,0,-1,1553,1254,0,0
336,-230,0,0,0,0,0,0,0,0,0,-1,1560,1254,0,0
343,-230,0,0,0,0,0,0,0,0,0,-1,1567,1254,0,0
350,-230,0,0,0,0,0,0,0,0,0,-1,1574,1254,0,0
357,-230,0,0,0,0,0,0,0,0,0,-1,1581,1254,0,0
364,-230,0,0,0,0,0,0,0,0,0,-1,1588,1254,0,0
371,-230,0,0,0,0,0,0,0,0,0,-1,1595,1254,0,0
378,-230,0,0,0,0,0,0,0,0,0,-1,1602,1254,0,0
385,-230,0,0,0,0,0,0,0,0,0,-1,1609,1254,0,0
392,-230,0,0,0,0,0,0,0,0,0,-1,1616,1254,0,0
399,-230,0,0,0,0,0,0,0,0,0,-1,1623,1254,0,0
406,-230,0,0,0,0,0,0,0,0,0,-1,1630,1254,0,0
413,-230,0,0,0,0,0,0,0,0,0,-1,1637,1254,0,0
420,-230,0,0,0,0,0,0,0,0,0,-1,1644,1254,0,0
427,-230,0,0,0,0,0,0,0,0,0,-1,1651,1254,0,0
434,-230,0,0,0,0,0,0,0,0,0,-1,1658,1254,0,0
441,-230,0,0,0,0,0,0,0,0,0,-1,1665,1254,0,0
448,-230,0,0,0,0,0,0,0,0,0,-1,1672,1254,0,0
455,-230,0,0,0,0,0,0,0,0,0,-1,1679,1254,0,0
462,-230,0,0,0,0,0,0,0,0,0,-1,1686,1254,0,0
469,-230,0,0,0,0,0,0,0,0,0,-1,1693,1254,0,0
476,-230,0,0,0,0,0,0,0,0,0,-1,1700,1254,0,0
483,-230,0,0,0,0,0,0,0,0,0,-1,1707,1254,0,0
490,-230,0,0,0,0,0,0,0,0,0,-1,1714,1254,0,0
497,-230,0,0,0,0,0,0,0,0,0,-1,1721,1254,0,0
504,-230,0,0,0,0,0,0,0,0,0,-1,1728,1254,0,0
511,-230,0,0,0,0,0,0,0,0,0,-1,1735,1254,0,0
518,-230,0,0,0,0,0,0,0,0,0,-1,1742,1254,0,0
525,-230,0,0,0,0,0,0,0,0,0,-1,1749,1254,0,0
532,-230,0,0,0,0,0,0,0,0,0,-1,1756,1254,0,0
539,-230,0,0,0,0,0,0,0,0,0,-1,1763,1254,0,0
546,-230,0,0,0,0,0,0,0,0,0,-1,1770,1254,0,0
553,-230,0,0,0,0,0,0,0,0,0,-1,1777,1254,0,0
560,-230,0,0,0,0,0,0,0,0,0,-1,1784,1254,0,0
567,-230,0,0,0,0,0,0,0,0,0,-1,1791,1254,0,0
574,-230,0,0,0,0,0,0,0,0,0,-1,1798,1254,0,0
581,-230,0,0,0,0,0,0,0,0,0,-1,1805,1254,0,0
588,-230,0,0,0,0,0,0,0,0,0,-1,1812,1254,0,0
595,-230,0,0,0,0,0,0,0,0,0,-1,1819,1254,0,0
602,-230,0,0,0,0,0,0,0,0,0,-1,1826,1254,0,0
609,-230,0,0,0,0,0,0,0,0,0,-1,1833,1254,0,0
616,-230,82.0842,2.38831,-0.00180766,0.002936,-0.000735755,0.0030475,-0.00191915,-1.4204,0.00289206,0.0370922,1840,1254,82.0842,-2.38836
623,-230,82.028,2.35132,-0.00253301,0.00338044,-0.000284652,0.00339411,-0.00254668,-1.52281,0.00344153,0.0378587,1847,1254,82.028,-2.35133
630,-230,81.9518,2.3468,-0.00324111,0.00391519,-1.87152e-06,0.00391519,-0.00324111,-1.57053,0.0041378,0.0339008,1854,1254,81.9518,-2.34681
637,-230,81.9752,2.36584,-0.0037815,0.00441157,0.000119751,0.00441332,-0.00378325,1.55618,0.00473695,0.0263928,1861,1254,81.9752,-2.36585
644,-230,81.97,2.26221,-0.00310924,0.00401671,-0.00017843,0.00402118,-0.00311371,-1.54578,0.00413042,0.019244,1868,1254,81.9699,-2.26216
651,-230,81.9335,2.12622,-0.00240314,0.00326121,-0.00023057,0.00327058,-0.00241251,-1.53018,0.00329358,0.0445011,1875,1254,81.9334,-2.12621
658,-230,81.8672,1.97498,0,0,0,0,0,0,0,-1,1882,1254,81.8672,-1.97498
665,-230,56.2585,2.51587,0,0,0,0,0,0,0,-1,1889,1254,56.2586,-2.51586
672,-230,43.0962,2.78699,0,0,0,0,0,0,0,-1,1896,1254,43.0962,-2.78698
679,-230,27.9967,2.37708,0,0,0,0,0,0,0,-1,1903,1254,27.9967,-2.3771
686,-230,40.8854,10.1788,0,0,0,0,0,0,0,-1,1910,1254,40.8853,-10.1788
693,-230,62.4724,15.1333,0,0,0,0,0,0,0,-1,1917,1254,62.4725,-15.1334
700,-230,62.2874,14.3224,0,0,0,0,0,0,0,-1,1924,1254,62.2874,-14.3224
707,-230,62.0872,13.5343,0,0,0,0,0,0,0,-1,1931,1254,62.0872,-13.5344
714,-230,61.9948,12.7439,-0.00118561,0.00181656,0.00159602,0.00250649,-0.00187553,1.16278,0.00253869,0.0281492,1938,1254,61.9947,-12.7439
721,-230,61.9275,11.927,-0.00157994,0.00166249,0.00189396,0.00253435,-0.0024518,1.13938,0.00287889,0.014414,1945,1254,61.9274,-11.927
728,-230,61.8518,11.1331,-0.00210508,0.00139924,0.00208772,0.00237263,-0.00307847,1.13451,0.00315598,0.0149232,1952,1254,61.8518,-11.1331
735,-230,61.8176,10.3396,-0.00283016,0.00120066,0.00236192,0.00229017,-0.00391967,1.1386,0.00362616,0.0154749,1959,1254,61.8176,-10.3396
742,-230,61.7659,9.49829,-0.00372861,0.001047,0.00284895,0.00237647,-0.00505808,1.13418,0.00438442,0.0122974,1966,1254,61.7659,-9.49826
749,-230,61.7344,8.64429,-0.00475635,0.000925887,0.00356645,0.00264454,-0.00647501,1.12174,0.00541778,0.0114865,1973,1254,61.7344,-8.64434
756,-230,61.6594,7.84497,-0.00602276,0.000840348,0.0046661,0.00320086,-0.00838327,1.10245,0.00690759,0.0159981,1980,1254,61.6594,-7.84499
763,-230,61.5833,7.04443,-0.00775552,0.00105583,0.00649992,0.00450248,-0.0112022,1.08324,0.00933805,0.0352475,1987,1254,61.5833,-7.04445
770,-230,61.7732,6.23193,0,0,0,0,0,0,0,-1,1994,1254,61.7733,-6.23189
777,-230,41.8693,3.74707,0,0,0,0,0,0,0,-1,2001,1254,41.8692,-3.74713
784,-230,35.8896,1.80334,0,0,0,0,0,0,0,-1,2008,1254,35.8897,-1.80338
791,-230,35.6028,2.20642,0,0,0,0,0,0,0,-1,2015,1254,35.6027,-2.2064
798,-230,0,0,0,0,0,0,0,0,0,-1,2022,1254,0,0
805,-230,0,0,0,0,0,0,0,0,0,-1,2029,1254,0,0
812,-230,0,0,0,0,0,0,0,0,0,-1,2036,1254,0,0
-700,-237,0,0,0,0,0,0,0,0,0,-1,524,1261,0,0
-693,-237,0,0,0,0,0,0,0,0,0,-1,531,1261,0,0
-686,-237,0,0,0,0,0,0,0,0,0,-1,538,1261,0,0
-679,-237,0,0,0,0,0,0,0,0,0,-1,545,1261,0,0
-672,-237,-36.6405,-12.5112,0,0,0,0,0,0,0,-1,552,1261,-36.6405,12.5113
-665,-237,-65.7281,2.94849,0,0,0,0,0,0,0,-1,559,1261,-65.7281,-2.94852
-658,-237,-37.8344,-8.67175,0,0,0,0,0,0,0,-1,566,1261,-37.8344,8.67179
-651,-237,-46.9487,1.65137,0,0,0,0,0,0,0,-1,573,1261,-46.9487,-1.65142
-644,-237,-47.6604,0.785034,0,0,0,0,0,0,0,-1,580,1261,-47.6604,-0.785034
-637,-237,-33.4961,2.71313,0,0,0,0,0,0,0,-1,587,1261,-33.4961,-2.71312
-630,-237,-44.3367,6.8009,0,0,0,0,0,0,0,-1,594,1261,-44.3367,-6.80086
-623,-237,-44.1664,7.54736,0.005306,0.00225805,0.00264026,0.00683055,0.000733501,0.523653,0.00432996,0.0476021,601,1261,-44.1664,-7.54742
-616,-237,-44.1923,8.4574,0.00406079,0.00204839,0.00162986,0.00497002,0.00113916,0.508857,0.00300645,0.0166635,608,1261,-44.1923,-8.45744
-609,-237,-44.2775,9.34412,0.00222675,0.00190647,0.000531501,0.00262171,0.00151151,0.639077,0.00151955,0.0148881,615,1261,-44.2775,-9.34409
-602,-237,-44.3281,10.2223,0.000302312,0.00161031,-0.000603008,0.00184588,6.67425e-05,-1.19837,0.00120896,0.0129823,622,1261,-44.3281,-10.2222
-595,-237,-44.4196,11.0828,-0.00161246,0.00137312,-0.0018065,0.0022238,-0.00246314,-1.1307,0.00270718,0.0173898,629,1261,-44.4196,-11.0828
-588,-237,-44.4863,11.921,-0.00346474,0.00114846,-0.00300708,0.00263171,-0.00494799,-1.11256,0.00444373,0.0287517,636,1261,-44.4863,-11.921
-581,-237,-44.563,12.7601,-0.00504383,0.00102576,-0.00396482,0.00298394,-0.00700201,-1.11205,0.00591892,0.0299181,643,1261,-44.563,-12.7601
-574,-237,-44.4792,13.3469,-0.00636021,0.000749443,-0.00483526,0.00319599,-0.00880676,-1.10238,0.00717774,0.0431203,650,1261,-44.4792,-13.347
-567,-237,-44.7194,13.8683,0,0,0,0,0,0,0,-1,657,1261,-44.7194,-13.8682
-560,-237,-44.7322,15.0854,0,0,0,0,0,0,0,-1,664,1261,-44.7322,-15.0855
-553,-237,-20.6102,6.92139,0,0,0,0,0,0,0,-1,671,1261,-20.6102,-6.92138
-546,-237,-11.192,1.14014,0,0,0,0,0,0,0,-1,678,1261,-11.192,-1.14011
-539,-237,-16.512,1.53455,0,0,0,0,0,0,0,-1,685,1261,-16.512,-1.53457
-532,-237,-29.7025,1.23621,0,0,0,0,0,0,0,-1,692,1261,-29.7025,-1.23618
-525,-237,-47.2925,0.590942,0,0,0,0,0,0,0,-1,699,1261,-47.2925,-0.590989
-518,-237,-48.2897,0.765869,0,0,0,0,0,0,0,-1,706,1261,-48.2897,-0.765854
-511,-237,-64.7373,0.568237,0,0,0,0,0,0,0,-1,713,1261,-64.7373,-0.568192
-504,-237,-64.8262,0.476196,-0.00419545,0.000808662,0.000345752,0.000832439,-0.00421923,1.50214,0.00312745,0.0445007,720,1261,-64.8263,-0.476223
-497,-237,-64.8365,0.459473,0,0,0,0,0,0,0,-1,727,1261,-64.8365,-0.459485
-490,-237,0,0,0,0,0,0,0,0,0,-1,734,1261,0,0
-483,-237,0,0,0,0,0,0,0,0,0,-1,741,1261,0,0
-476,-237,0,0,0,0,0,0,0,0,0,-1,748,1261,0,0
-469,-237,0,0,0,0,0,0,0,0,0,-1,755,1261,0,0
-462,-237,0,0,0,0,0,0,0,0,0,-1,762,1261,0,0
-455,-237,0,0,0,0,0,0,0,0,0,-1,769,1261,0,0
-448,-237,0,0,0,0,0,0,0,0,0,-1,776,1261,0,0
-441,-237,0,0,0,0,0,0,0,0,0,-1,783,1261,0,0
-434,-237,0,0,0,0,0,0,0,0,0,-1,790,1261,0,0
-427,-237,0,0,0,0,0,0,0,0,0,-1,797,1261,0,0
-420,-237,0,0,0,0,0,0,0,0,0,-1,804,1261,0,0
-413,-237,0,0,0,0,0,0,0,0,0,-1,811,1261,0,0
-406,-237,0,0,0,0,0,0,0,0,0,-1,818,1261,0,0
-399,-237,0,0,0,0,0,0,0,0,0,-1,825,1261,0,0
-392,-237,0,0,0,0,0,0,0,0,0,-1,832,1261,0,0
-385,-237,0,0,0,0,0,0,0,0,0,-1,839,1261,0,0
-378,-237,0,0,0,0,0,0,0,0,0,-1,846,1261,0,0
-371,-237,0,0,0,0,0,0,0,0,0,-1,853,1261,0,0
-364,-237,0,0,0,0,0,0,0,0,0,-1,860,1261,0,0
-357,-237,0,0,0,0,0,0,0,0,0,-1,867,1261,0,0
-350,-237,0,0,0,0,0,0,0,0,0,-1,874,1261,0,0
-343,-237,0,0,0,0,0,0,0,0,0,-1,881,1261,0,0
-336,-237,0,0,0,0,0,0,0,0,0,-1,888,1261,0,0
-329,-237,0,0,0,0,0,0,0,0,0,-1,895,1261,0,0
-322,-237,0,0,0,0,0,0,0,0,0,-1,902,1261,0,0
-315,-237,0,0,0,0,0,0,0,0,0,-1,909,1261,0,0
-308,-237,0,0,0,0,0,0,0,0,0,-1,916,1261,0,0
-301,-237,0,0,0,0,0,0,0,0,0,-1,923,1261,0,0
-294,-237,0,0,0,0,0,0,0,0,0,-1,930,1261,0,0
-287,-237,0,0,0,0,0,0,0,0,0,-1,937,1261,0,0
-280,-237,0,0,0,0,0,0,0,0,0,-1,944,1261,0,0
-273,-237,0,0,0,0,0,0,0,0,0,-1,951,1261,0,0
-266,-237,0,0,0,0,0,0,0,0,0,-1,958,1261,0,0
-259,-237,0,0,0,0,0,0,0,0,0,-1,965,1261,0,0
-252,-237,0,0,0,0,0,0,0,0,0,-1,972,1261,0,0
-245,-237,0,0,0,0,0,0,0,0,0,-1,979,1261,0,0
-238,-237,0,0,0,0,0,0,0,0,0,-1,986,1261,0,0
-231,-237,0,0,0,0,0,0,0,0,0,-1,993,1261,0,0
-224,-237,0,0,0,0,0,0,0,0,0,-1,1000,1261,0,0
-217,-237,0,0,0,0,0,0,0,0,0,-1,1007,1261,0,0
-210,-237,0,0,0,0,0,0,0,0,0,-1,1014,1261,0,0
-203,-237,0,0,0,0,0,0,0,0,0,-1,1021,1261,0,0
-196,-237,0,0,0,0,0,0,0,0,0,-1,1028,1261,0,0
-189,-237,0,0,0,0,0,0,0,0,0,-1,1035,1261,0,0
-182,-237,0,0,0,0,0,0,0,0,0,-1,1042,1261,0,0
-175,-237,0,0,0,0,0,0,0,0,0,-1,1049,1261,0,0
-168,-237,0,0,0,0,0,0,0,0,0,-1,1056,1261,0,0
-161,-237,0,0,0,0,0,0,0,0,0,-1,1063,1261,0,0
-154,-237,0,0,0,0,0,0,0,0,0,-1,1070,1261,0,0
-147,-237,0,0,0,0,0,0,0,0,0,-1,1077,1261,0,0
-140,-237,0,0,0,0,0,0,0,0,0,-1,1084,1261,0,0
-133,-237,0,0,0,0,0,0,0,0,0,-1,1091,1261,0,0
-126,-237,0,0,0,0,0,0,0,0,0,-1,1098,1261,0,0
-119,-237,0,0,0,0,0,0,0,0,0,-1,1105,1261,0,0
-112,-237,0,0,0,0,0,0,0,0,0,-1,1112,1261,0,0
-105,-237,0,0,0,0,0,0,0,0,0,-1,1119,1261,0,0
-98,-237,0,0,0,0,0,0,0,0,0,-1,1126,1261,0,0
-91,-237,0,0,0,0,0,0,0,0,0,-1,1133,1261,0,0
-84,-237,0,0,0,0,0,0,0,0,0,-1,1140,1261,0,0
-77,-237,0,0,0,0,0,0,0,0,0,-1,1147,1261,0,0
-70,-237,0,0,0,0,0,0,0,0,0,-1,1154,1261,0,0
-63,-237,0,0,0,0,0,0,0,0,0,-1,1161,1261,0,0
-56,-237,0,0,0,0,0,0,0,0,0,-1,1168,1261,0,0
-49,-237,0,0,0,0,0,0,0,0,0,-1,1175,1261,0,0
-42,-237,0,0,0,0,0,0,0,0,0,-1,1182,1261,0,0
-35,-237,0,0,0,0,0,0,0,0,0,-1,1189,1261,0,0
-28,-237,0,0,0,0,0,0,0,0,0,-1,1196,1261,0,0
-21,-237,0,0,0,0,0,0,0,0,0,-1,1203,1261,0,0
-14,-237,0,0,0,0,0,0,0,0,0,-1,1210,1261,0,0
-7,-237,0,0,0,0,0,0,0,0,0,-1,1217,1261,0,0
0,-237,0,0,0,0,0,0,0,0,0,-1,1224,1261,0,0
7,-237,0,0,0,0,0,0,0,0,0,-1,1231,1261,0,0
14,-237,0,0,0,0,0,0,0,0,0,-1,1238,1261,0,0
21,-237,0,0,0,0,0,0,0,0,0,-1,1245,1261,0,0
28,-237,0,0,0,0,0,0,0,0,0,-1,1252,1261,0,0
35,-237,0,0,0,0,0,0,0,0,0,-1,1259,1261,0,0
42,-237,0,0,0,0,0,0,0,0,0,-1,1266,1261,0,0
49,-237,0,0,0,0,0,0,0,0,0,-1,1273,1261,0,0
56,-237,0,0,0,0,0,0,0,0,0,-1,1280,1261,0,0
63,-237,0,0,0,0,0,0,0,0,0,-1,1287,1261,0,0
70,-237,0,0,0,0,0,0,0,0,0,-1,1294,1261,0,0
77,-237,0,0,0,0,0,0,0,0,0,-1,1301,1261,0,0
84,-237,0,0,0,0,0,0,0,0,0,-1,1308,1261,0,0
91,-237,0,0,0,0,0,0,0,0,0,-1,1315,1261,0,0
98,-237,0,0,0,0,0,0,0,0,0,-1,1322,1261,0,0
105,-237,0,0,0,0,0,0,0,0,0,-1,1329,1261,0,0
112,-237,0,0,0,0,0,0,0,0,0,-1,1336,1261,0,0
119,-237,0,0,0,0,0,0,0,0,0,-1,1343,1261,0,0
126,-237,0,0,0,0,0,0,0,0,0,-1,1350,1261,0,0
133,-237,0,0,0,0,0,0,0,0,0,-1,1357,1261,0,0
140,-237,0,0,0,0,0,0,0,0,0,-1,1364,1261,0,0
147,-237,0,0,0,0,0,0,0,0,0,-1,1371,1261,0,0
154,-237,0,0,0,0,0,0,0,0,0,-1,1378,1261,0,0
161,-237,0,0,0,0,0,0,0,0,0,-1,1385,1261,0,0
168,-237,0,0,0,0,0,0,0,0,0,-1,1392,1261,0,0
175,-237,0,0,0,0,0,0,0,0,0,-1,1399,1261,0,0
182,-237,0,0,0,0,0,0,0,0,0,-1,1406,1261,0,0
189,-237,0,0,0,0,0,0,0,0,0,-1,1413,1261,0,0
196,-237,0,0,0,0,0,0,0,0,0,-1,1420,1261,0,0
203,-237,0,0,0,0,0,0,0,0,0,-1,1427,1261,0,0
210,-237,0,0,0,0,0,0,0,0,0,-1,1434,1261,0,0
217,-237,0,0,0,0,0,0,0,0,0,-1,1441,1261,0,0
224,-237,0,0,0,0,0,0,0,0,0,-1,1448,1261,0,0
231,-237,0,0,0,0,0,0,0,0,0,-1,1455,1261,0,0
238,-237,0,0,0,0,0,0,0,0,0,-1,1462,1261,0,0
245,-237,0,0,0,0,0,0,0,0,0,-1,1469,1261,0,0
252,-237,0,0,0,0,0,0,0,0,0,-1,1476,1261,0,0
259,-237,0,0,0,0,0,0,0,0,0,-1,1483,1261,0,0
266,-237,0,0,0,0,0,0,0,0,0,-1,1490,1261,0,0
273,-237,0,0,0,0,0,0,0,0,0,-1,1497,1261,0,0
280,-237,0,0,0,0,0,0,0,0,0,-1,1504,1261,0,0
287,-237,0,0,0,0,0,0,0,0,0,-1,1511,1261,0,0
294,-237,0,0,0,0,0,0,0,0,0,-1,1518,1261,0,0
301,-237,0,0,0,0,0,0,0,0,0,-1,1525,1261,0,0
308,-237,0,0,0,0,0,0,0,0,0,-1,1532,1261,0,0
315,-237,0,0,0,0,0,0,0,0,0,-1,1539,1261,0,0
322,-237,0,0,0,0,0,0,0,0,0,-1,1546,1261,0,0
329,-237,0,0,0,0,0,0,0,0,0,-1,1553,1261,0,0
336,-237,0,0,0,0,0,0,0,0,0,-1,1560,1261,0,0
343,-237,0,0,0,0,0,0,0,0,0,-1,1567,1261,0,0
350,-237,0,0,0,0,0,0,0,0,0,-1,1574,1261,0,0
357,-237,0,0,0,0,0,0,0,0,0,-1,1581,1261,0,0
364,-237,0,0,0,0,0,0,0,0,0,-1,1588,1261,0,0
371,-237,0,0,0,0,0,0,0,0,0,-1,1595,1261,0,0
378,-237,0,0,0,0,0,0,0,0,0,-1,1602,1261,0,0
385,-237,0,0,0,0,0,0,0,0,0,-1,1609,1261,0,0
392,-237,0,0,0,0,0,0,0,0,0,-1,1616,1261,0,0
399,-237,0,0,0,0,0,0,0,0,0,-1,1623,1261,0,0
406,-237,0,0,0,0,0,0,0,0,0,-1,1630,1261,0,0
413,-237,0,0,0,0,0,0,0,0,0,-1,1637,1261,0,0
420,-237,0,0,0,0,0,0,0,0,0,-1,1644,1261,0,0
427,-237,0,0,0,0,0,0,0,0,0,-1,1651,1261,0,0
434,-237,0,0,0,0,0,0,0,0,0,-1,1658,1261,0,0
441,-237,0,0,0,0,0,0,0,0,0,-1,1665,1261,0,0
448,-237,0,0,0,0,0,0,0,0,0,-1,1672,1261,0,0
455,-237,0,0,0,0,0,0,0,0,0,-1,1679,1261,0,0
462,-237,0,0,0,0,0,0,0,0,0,-1,1686,1261,0,0
469,-237,0,0,0,0,0,0,0,0,0,-1,1693,1261,0,0
476,-237,0,0,0,0,0,0,0,0,0,-1,1700,1261,0,0
483,-237,0,0,0,0,0,0,0,0,0,-1,1707,1261,0,0
490,-237,0,0,0,0,0,0,0,0,0,-1,1714,1261,0,0
497,-237,0,0,0,0,0,0,0,0,0,-1,1721,1261,0,0
504,-237,0,0,0,0,0,0,0,0,0,-1,1728,1261,0,0
511,-237,0,0,0,0,0,0,0,0,0,-1,1735,1261,0,0
518,-237,0,0,0,0,0,0,0,0,0,-1,1742,1261,0,0
525,-237,0,0,0,0,0,0,0,0,0,-1,1749,1261,0,0
532,-237,0,0,0,0,0,0,0,0,0,-1,1756,1261,0,0
539,-237,0,0,0,0,0,0,0,0,0,-1,1763,1261,0,0
546,-237,0,0,0,0,0,0,0,0,0,-1,1770,1261,0,0
553,-237,0,0,0,0,0,0,0,0,0,-1,1777,1261,0,0
560,-237,0,0,0,0,0,0,0,0,0,-1,1784,1261,0,0
567,-237,0,0,0,0,0,0,0,0,0,-1,1791,1261,0,0
574,-237,0,0,0,0,0,0,0,0,0,-1,1798,1261,0,0
581,-237,0,0,0,0,0,0,0,0,0,-1,1805,1261,0,0
588,-237,0,0,0,0,0,0,0,0,0,-1,1812,1261,0,0
595,-237,0,0,0,0,0,0,0,0,0,-1,1819,1261,0,0
602,-237,0,0,0,0,0,0,0,0,0,-1,1826,1261,0,0
609,-237,0,0,0,0,0,0,0,0,0,-1,1833,1261,0,0
616,-237,82.1256,2.23035,-0.00287332,0.00394264,-0.000188983,0.00394788,-0.00287856,-1.5431,0.00395733,0.0373657,1840,1261,82.1256,-2.2303
623,-237,82.1071,2.24524,-0.00382932,0.00448435,0.000314041,0.0044962,-0.00384117,1.53309,0.00481853,0.0329575,1847,1261,82.107,-2.24527
630,-237,82.0282,2.31995,-0.00480447,0.00501035,0.000691414,0.00505882,-0.00485294,1.50081,0.00572297,0.0259232,1854,1261,82.0282,-2.31993
637,-237,81.9629,2.28455,-0.00529248,0.00524054,0.000785353,0.00529877,-0.00535071,1.49678,0.00614851,0.0201683,1861,1261,81.9628,-2.28455
644,-237,81.9332,2.22339,-0.00398608,0.0043508,0.000322741,0.00436327,-0.00399855,1.53216,0.00482923,0.0367244,1868,1261,81.9332,-2.22338
651,-237,81.8927,2.15344,0,0,0,0,0,0,0,-1,1875,1261,81.8927,-2.15339
658,-237,76.8235,1.29675,0,0,0,0,0,0,0,-1,1882,1261,76.8235,-1.2968
665,-237,57.9302,3.30676,0,0,0,0,0,0,0,-1,1889,1261,57.9302,-3.30671
672,-237,45.3922,1.95618,0,0,0,0,0,0,0,-1,1896,1261,45.3922,-1.95623
679,-237,23.1501,7.37488,0,0,0,0,0,0,0,-1,1903,1261,23.1502,-7.37493
686,-237,36.8348,9.99426,0,0,0,0,0,0,0,-1,1910,1261,36.8349,-9.99424
693,-237,61.6667,15.1188,0,0,0,0,0,0,0,-1,1917,1261,61.6667,-15.1188
700,-237,61.4177,14.4338,-0.000572387,0.00137356,0.000726076,0.00161462,-0.000813441,1.25025,0.00142705,0.0465068,1924,1261,61.4177,-14.4338
707,-237,61.2542,13.7043,-0.000769108,0.00111376,0.0012925,0.00177134,-0.00142669,1.10016,0.00184996,0.0342872,1931,1261,61.2542,-13.7043
714,-237,61.1042,12.8457,-0.001211,0.00120293,0.0016123,0.00200999,-0.00201805,1.1067,0.00232559,0.019971,1938,1261,61.1042,-12.8457
721,-237,61.047,12.0015,-0.00172633,0.00117318,0.00183906,0.0020652,-0.00261836,1.11918,0.00271034,0.0190252,1945,1261,61.047,-12.0015
728,-237,61.0245,11.1929,-0.00238302,0.00110302,0.00200879,0.00201958,-0.00329958,1.14274,0.00310052,0.0159712,1952,1261,61.0245,-11.1929
735,-237,60.9897,10.3663,-0.00323044,0.00108203,0.00228897,0.00207042,-0.00421884,1.16317,0.00370105,0.0190984,1959,1261,60.9898,-10.3664
742,-237,60.9366,9.53625,-0.00425947,0.00109049,0.00277212,0.00226781,-0.00543679,1.16918,0.00457195,0.0160864,1966,1261,60.9366,-9.53625
749,-237,60.845,8.72351,-0.00544154,0.00110546,0.00346984,0.00260224,-0.00693832,1.16354,0.00569472,0.0109402,1973,1261,60.845,-8.72347
756,-237,60.7847,7.90515,-0.00695645,0.00114225,0.00459329,0.00321626,-0.00903046,1.14667,0.00733145,0.0185935,1980,1261,60.7847,-7.90521
763,-237,60.5485,7.04309,-0.009008,0.0015178,0.00644722,0.00457744,-0.0120676,1.1277,0.00992908,0.0390063,1987,1261,60.5484,-7.04315
770,-237,60.6333,5.94031,0,0,0,0,0,0,0,-1,1994,1261,60.6333,-5.94028
777,-237,56.8215,4.47815,0,0,0,0,0,0,0,-1,2001,1261,56.8214,-4.47817
784,-237,36.3441,1.68591,0,0,0,0,0,0,0,-1,2008,1261,36.3441,-1.68592
791,-237,32.3025,6.03235,0,0,0,0,0,0,0,-1,2015,1261,32.3025,-6.03229
798,-237,0,0,0,0,0,0,0,0,0,-1,2022,1261,0,0
805,-237,0,0,0,0,0,0,0,0,0,-1,2029,1261,0,0
812,-237,0,0,0,0,0,0,0,0,0,-1,2036,1261,0,0
-700,-244,0,0,0,0,0,0,0,0,0,-1,524,1268,0,0
-693,-244,0,0,0,0,0,0,0,0,0,-1,531,1268,0,0
-686,-244,0,0,0,0,0,0,0,0,0,-1,538,1268,0,0
-679,-244,0,0,0,0,0,0,0,0,0,-1,545,1268,0,0
-672,-244,-44.7993,4.39575,0,0,0,0,0,0,0,-1,552,1268,-44.7992,-4.39576
-665,-244,-46.0868,3.64392,0,0,0,0,0,0,0,-1,559,1268,-46.0868,-3.64391
-658,-244,-45.9758,2.05481,0,0,0,0,0,0,0,-1,566,1268,-45.9758,-2.05486
-651,-244,-46.4749,1.28564,0,0,0,0,0,0,0,-1,573,1268,-46.4749,-1.28561
-644,-244,-32.7362,1.51355,0,0,0,0,0,0,0,-1,580,1268,-32.7362,-1.51355
-637,-244,-34.8414,3.00073,0,0,0,0,0,0,0,-1,587,1268,-34.8414,-3.00078
-630,-244,-43.6608,6.94006,0,0,0,0,0,0,0,-1,594,1268,-43.6608,-6.94007
-623,-244,-43.4694,7.73413,0.00662299,0.00277452,0.00382119,0.0089771,0.000420417,0.552149,0.00584963,0.0440393,601,1268,-43.4694,-7.73412
-616,-244,-43.3611,8.54163,0.00512294,0.00239616,0.00253821,0.00664076,0.000878345,0.538938,0.00416538,0.0188402,608,1268,-43.3611,-8.54158
-609,-244,-43.4285,9.39856,0.0029796,0.00211315,0.00124604,0.00386558,0.00122717,0.618094,0.00228083,0.0149645,615,1268,-43.4285,-9.3986
-602,-244,-43.4893,10.2653,0.000794421,0.00161164,-3.73343e-06,0.00161166,0.000794404,-1.56623,0.000930523,0.0152536,622,1268,-43.4893,-10.2652
-595,-244,-43.597,11.145,-0.00129201,0.00114577,-0.00127464,0.00169051,-0.00183675,-1.16692,0.00203705,0.0164342,629,1268,-43.597,-11.1451
-588,-244,-43.6288,11.9918,-0.00337909,0.000712066,-0.00256012,0.00194347,-0.00461049,-1.12247,0.00388696,0.0216521,636,1268,-43.6289,-11.9918
-581,-244,-43.6577,12.799,-0.0053601,0.000311017,-0.00372749,0.00215889,-0.00720798,-1.11056,0.0056638,0.021339,643,1268,-43.6576,-12.7989
-574,-244,-43.6896,13.5481,-0.00708903,-6.58529e-05,-0.00483352,0.00239702,-0.0095519,-1.09955,0.00729933,0.0387337,650,1268,-43.6896,-13.548
-567,-244,-43.8564,14.4443,-0.00793407,-0.00052288,-0.00570474,0.00257413,-0.0110311,-1.07343,0.0083455,0.039136,657,1268,-43.8564,-14.4443
-560,-244,-43.9387,15.2828,-0.0073887,4.46529e-05,-0.0056981,0.00313106,-0.0104751,-1.07438,0.00822813,0.04539,664,1268,-43.9386,-15.2828
-553,-244,-43.9726,16.0973,0,0,0,0,0,0,0,-1,671,1268,-43.9726,-16.0973
-546,-244,-11.2686,4.41772,0,0,0,0,0,0,0,-1,678,1268,-11.2686,-4.41767
-539,-244,-12.8706,0.3302,0,0,0,0,0,0,0,-1,685,1268,-12.8706,-0.330156
-532,-244,-18.1502,0.816528,0,0,0,0,0,0,0,-1,692,1268,-18.1502,-0.816514
-525,-244,-33.0835,0.693604,0,0,0,0,0,0,0,-1,699,1268,-33.0835,-0.69365
-518,-244,-47.5015,0.609131,0,0,0,0,0,0,0,-1,706,1268,-47.5015,-0.60919
-511,-244,-48.6138,1.11877,0,0,0,0,0,0,0,-1,713,1268,-48.6138,-1.11872
-504,-244,-64.8512,0.572754,0,0,0,0,0,0,0,-1,720,1268,-64.8512,-0.572789
-497,-244,-64.9213,0.505859,0,0,0,0,0,0,0,-1,727,1268,-64.9213,-0.505868
-490,-244,0,0,0,0,0,0,0,0,0,-1,734,1268,0,0
-483,-244,0,0,0,0,0,0,0,0,0,-1,741,1268,0,0
-476,-244,0,0,0,0,0,0,0,0,0,-1,748,1268,0,0
-469,-244,0,0,0,0,0,0,0,0,0,-1,755,1268,0,0
-462,-244,0,0,0,0,0,0,0,0,0,-1,762,1268,0,0
-455,-244,0,0,0,0,0,0,0,0,0,-1,769,1268,0,0
-448,-244,0,0,0,0,0,0,0,0,0,-1,776,1268,0,0
-441,-244,0,0,0,0,0,0,0,0,0,-1,783,1268,0,0
-434,-244,0,0,0,0,0,0,0,0,0,-1,790,1268,0,0
-427,-244,0,0,0,0,0,0,0,0,0,-1,797,1268,0,0
-420,-244,0,0,0,0,0,0,0,0,0,-1,804,1268,0,0
-413,-244,0,0,0,0,0,0,0,0,0,-1,811,1268,0,0
-406,-244,0,0,0,0,0,0,0,0,0,-1,818,1268,0,0
-399,-244,0,0,0,0,0,0,0,0,0,-1,825,1268,0,0
-392,-244,0,0,0,0,0,0,0,0,0,-1,832,1268,0,0
-385,-244,0,0,0,0,0,0,0,0,0,-1,839,1268,0,0
-378,-244,0,0,0,0,0,0,0,0,0,-1,846,1268,0,0
-371,-244,0,0,0,0,0,0,0,0,0,-1,853,1268,0,0
-364,-244,0,0,0,0,0,0,0,0,0,-1,860,1268,0,0
-357,-244,0,0,0,0,0,0,0,0,0,-1,867,1268,0,0
-350,-244,0,0,0,0,0,0,0,0,0,-1,874,1268,0,0
-343,-244,0,0,0,0,0,0,0,0,0,-1,881,1268,0,0
-336,-244,0,0,0,0,0,0,0,0,0,-1,888,1268,0,0
-329,-244,0,0,0,0,0,0,0,0,0,-1,895,1268,0,0
-322,-244,0,0,0,0,0,0,0,0,0,-1,902,1268,0,0
-315,-244,0,0,0,0,0,0,0,0,0,-1,909,1268,0,0
-308,-244,0,0,0,0,0,0,0,0,0,-1,916,1268,0,0
-301,-244,0,0,0,0,0,0,0,0,0,-1,923,1268,0,0
-294,-244,0,0,0,0,0,0,0,0,0,-1,930,1268,0,0
-287,-244,0,0,0,0,0,0,0,0,0,-1,937,1268,0,0
-280,-244,0,0,0,0,0,0,0,0,0,-1,944,1268,0,0
-273,-244,0,0,0,0,0,0,0,0,0,-1,951,1268,0,0
-266,-244,0,0,0,0,0,0,0,0,0,-1,958,1268,0,0
-259,-244,0,0,0,0,0,0,0,0,0,-1,965,1268,0,0
-252,-244,0,0,0,0,0,0,0,0,0,-1,972,1268,0,0
-245,-244,0,0,0,0,0,0,0,0,0,-1,979,1268,0,0
-238,-244,0,0,0,0,0,0,0,0,0,-1,986,1268,0,0
-231,-244,0,0,0,0,0,0,0,0,0,-1,993,1268,0,0
-224,-244,0,0,0,0,0,0,0,0,0,-1,1000,1268,0,0
-217,-244,0,0,0,0,0,0,0,0,0,-1,1007,1268,0,0
-210,-244,0,0,0,0,0,0,0,0,0,-1,1014,1268,0,0
-203,-244,0,0,0,0,0,0,0,0,0,-1,1021,1268,0,0
-196,-244,0,0,0,0,0,0,0,0,0,-1,1028,1268,0,0
-189,-244,0,0,0,0,0,0,0,0,0,-1,1035,1268,0,0
-182,-244,0,0,0,0,0,0,0,0,0,-1,1042,1268,0,0
-175,-244,0,0,0,0,0,0,0,0,0,-1,1049,1268,0,0
-168,-244,0,0,0,0,0,0,0,0,0,-1,1056,1268,0,0
-161,-244,0,0,0,0,0,0,0,0,0,-1,1063,1268,0,0
-154,-244,0,0,0,0,0,0,0,0,0,-1,1070,1268,0,0
-147,-244,0,0,0,0,0,0,0,0,0,-1,1077,1268,0,0
-140,-244,0,0,0,0,0,0,0,0,0,-1,1084,1268,0,0
-133,-244,0,0,0,0,0,0,0,0,0,-1,1091,1268,0,0
-126,-244,0,0,0,0,0,0,0,0,0,-1,1098,1268,0,0
-119,-244,0,0,0,0,0,0,0,0,0,-1,1105,1268,0,0
-112,-244,0,0,0,0,0,0,0,0,0,-1,1112,1268,0,0
-105,-244,0,0,0,0,0,0,0,0,0,-1,1119,1268,0,0
-98,-244,0,0,0,0,0,0,0,0,0,-1,1126,1268,0,0
-91,-244,0,0,0,0,0,0,0,0,0,-1,1133,1268,0,0
-84,-244,0,0,0,0,0,0,0,0,0,-1,1140,1268,0,0
-77,-244,0,0,0,0,0,0,0,0,0,-1,1147,1268,0,0
-70,-244,0,0,0,0,0,0,0,0,0,-1,1154,1268,0,0
-63,-244,0,0,0,0,0,0,0,0,0,-1,1161,1268,0,0
-56,-244,0,0,0,0,0,0,0,0,0,-1,1168,1268,0,0
-49,-244,0,0,0,0,0,0,0,0,0,-1,1175,1268,0,0
-42,-244,0,0,0,0,0,0,0,0,0,-1,1182,1268,0,0
-35,-244,0,0,0,0,0,0,0,0,0,-1,1189,1268,0,0
-28,-244,0,0,0,0,0,0,0,0,0,-1,1196,1268,0,0
-21,-244,0,0,0,0,0,0,0,0,0,-1,1203,1268,0,0
-14,-244,0,0,0,0,0,0,0,0,0,-1,1210,1268,0,0
-7,-244,0,0,0,0,0,0,0,0,0,-1,1217,1268,0,0
0,-244,0,0,0,0,0,0,0,0,0,-1,1224,1268,0,0
7,-244,0,0,0,0,0,0,0,0,0,-1,1231,1268,0,0
14,-244,0,0,0,0,0,0,0,0,0,-1,1238,1268,0,0
21,-244,0,0,0,0,0,0,0,0,0,-1,1245,1268,0,0
28,-244,0,0,0,0,0,0,0,0,0,-1,1252,1268,0,0
35,-244,0,0,0,0,0,0,0,0,0,-1,1259,1268,0,0
42,-244,0,0,0,0,0,0,0,0,0,-1,1266,1268,0,0
49,-244,0,0,0,0,0,0,0,0,0,-1,1273,1268,0,0
56,-244,0,0,0,0,0,0,0,0,0,-1,1280,1268,0,0
63,-244,0,0,0,0,0,0,0,0,0,-1,1287,1268,0,0
70,-244,0,0,0,0,0,0,0,0,0,-1,1294,1268,0,0
77,-244,0,0,0,0,0,0,0,0,0,-1,1301,1268,0,0
84,-244,0,0,0,0,0,0,0,0,0,-1,1308,1268,0,0
91,-244,0,0,0,0,0,0,0,0,0,-1,1315,1268,0,0
98,-244,0,0,0,0,0,0,0,0,0,-1,1322,1268,0,0
105,-244,0,0,0,0,0,0,0,0,0,-1,1329,1268,0,0
112,-244,0,0,0,0,0,0,0,0,0,-1,1336,1268,0,0
119,-244,0,0,0,0,0,0,0,0,0,-1,1343,1268,0,0
126,-244,0,0,0,0,0,0,0,0,0,-1,1350,1268,0,0
133,-244,0,0,0,0,0,0,0,0,0,-1,1357,1268,0,0
140,-244,0,0,0,0,0,0,0,0,0,-1,1364,1268,0,0
147,-244,0,0,0,0,0,0,0,0,0,-1,1371,1268,0,0
154,-244,0,0,0,0,0,0,0,0,0,-1,1378,1268,0,0
161,-244,0,0,0,0,0,0,0,0,0,-1,1385,1268,0,0
168,-244,0,0,0,0,0,0,0,0,0,-1,1392,1268,0,0
175,-244,0,0,0,0,0,0,0,0,0,-1,1399,1268,0,0
182,-244,0,0,0,0,0,0,0,0,0,-1,1406,1268,0,0
189,-244,0,0,0,0,0,0,0,0,0,-1,1413,1268,0,0
196,-244,0,0,0,0,0,0,0,0,0,-1,1420,1268,0,0
203,-244,0,0,0,0,0,0,0,0,0,-1,1427,1268,0,0
210,-244,0,0,0,0,0,0,0,0,0,-1,1434,1268,0,0
217,-244,0,0,0,0,0,0,0,0,0,-1,1441,1268,0,0
224,-244,0,0,0,0,0,0,0,0,0,-1,1448,1268,0,0
231,-244,0,0,0,0,0,0,0,0,0,-1,1455,1268,0,0
238,-244,0,0,0,0,0,0,0,0,0,-1,1462,1268,0,0
245,-244,0,0,0,0,0,0,0,0,0,-1,1469,1268,0,0
252,-244,0,0,0,0,0,0,0,0,0,-1,1476,1268,0,0
259,-244,0,0,0,0,0,0,0,0,0,-1,1483,1268,0,0
266,-244,0,0,0,0,0,0,0,0,0,-1,1490,1268,0,0
273,-244,0,0,0,0,0,0,0,0,0,-1,1497,1268,0,0
280,-244,0,0,0,0,0,0,0,0,0,-1,1504,1268,0,0
287,-244,0,0,0,0,0,0,0,0,0,-1,1511,1268,0,0
294,-244,0,0,0,0,0,0,0,0,0,-1,1518,1268,0,0
301,-244,0,0,0,0,0,0,0,0,0,-1,1525,1268,0,0
308,-244,0,0,0,0,0,0,0,0,0,-1,1532,1268,0,0
315,-244,0,0,0,0,0,0,0,0,0,-1,1539,1268,0,0
322,-244,0,0,0,0,0,0,0,0,0,-1,1546,1268,0,0
329,-244,0,0,0,0,0,0,0,0,0,-1,1553,1268,0,0
336,-244,0,0,0,0,0,0,0,0,0,-1,1560,1268,0,0
343,-244,0,0,0,0,0,0,0,0,0,-1,1567,1268,0,0
350,-244,0,0,0,0,0,0,0,0,0,-1,1574,1268,0,0
357,-244,0,0,0,0,0,0,0,0,0,-1,1581,1268,0,0
364,-244,0,0,0,0,0,0,0,0,0,-1,1588,1268,0,0
371,-244,0,0,0,0,0,0,0,0,0,-1,1595,1268,0,0
378,-244,0,0,0,0,0,0,0,0,0,-1,1602,1268,0,0
385,-244,0,0,0,0,0,0,0,0,0,-1,1609,1268,0,0
392,-244,0,0,0,0,0,0,0,0,0,-1,1616,1268,0,0
399,-244,0,0,0,0,0,0,0,0,0,-1,1623,1268,0,0
406,-244,0,0,0,0,0,0,0,0,0,-1,1630,1268,0,0
413,-244,0,0,0,0,0,0,0,0,0,-1,1637,1268,0,0
420,-244,0,0,0,0,0,0,0,0,0,-1,1644,1268,0,0
427,-244,0,0,0,0,0,0,0,0,0,-1,1651,1268,0,0
434,-244,0,0,0,0,0,0,0,0,0,-1,1658,1268,0,0
441,-244,0,0,0,0,0,0,0,0,0,-1,1665,1268,0,0
448,-244,0,0,0,0,0,0,0,0,0,-1,1672,1268,0,0
455,-244,0,0,0,0,0,0,0,0,0,-1,1679,1268,0,0
462,-244,0,0,0,0,0,0,0,0,0,-1,1686,1268,0,0
469,-244,0,0,0,0,0,0,0,0,0,-1,1693,1268,0,0
476,-244,0,0,0,0,0,0,0,0,0,-1,1700,1268,0,0
483,-244,0,0,0,0,0,0,0,0,0,-1,1707,1268,0,0
490,-244,0,0,0,0,0,0,0,0,0,-1,1714,1268,0,0
497,-244,0,0,0,0,0,0,0,0,0,-1,1721,1268,0,0
504,-244,0,0,0,0,0,0,0,0,0,-1,1728,1268,0,0
511,-244,0,0,0,0,0,0,0,0,0,-1,1735,1268,0,0
518,-244,0,0,0,0,0,0,0,0,0,-1,1742,1268,0,0
525,-244,0,0,0,0,0,0,0,0,0,-1,1749,1268,0,0
532,-244,0,0,0,0,0,0,0,0,0,-1,1756,1268,0,0
539,-244,0,0,0,0,0,0,0,0,0,-1,1763,1268,0,0
546,-244,0,0,0,0,0,0,0,0,0,-1,1770,1268,0,0
553,-244,0,0,0,0,0,0,0,0,0,-1,1777,1268,0,0
560,-244,0,0,0,0,0,0,0,0,0,-1,1784,1268,0,0
567,-244,0,0,0,0,0,0,0,0,0,-1,1791,1268,0,0
574,-244,0,0,0,0,0,0,0,0,0,-1,1798,1268,0,0
581,-244,0,0,0,0,0,0,0,0,0,-1,1805,1268,0,0
588,-244,0,0,0,0,0,0,0,0,0,-1,1812,1268,0,0
595,-244,0,0,0,0,0,0,0,0,0,-1,1819,1268,0,0
602,-244,0,0,0,0,0,0,0,0,0,-1,1826,1268,0,0
609,-244,0,0,0,0,0,0,0,0,0,-1,1833,1268,0,0
616,-244,82.0254,2.25452,-0.00429096,0.00482652,0.000322371,0.00483791,-0.00430235,1.5355,0.00528015,0.0336064,1840,1268,82.0254,-2.25452
623,-244,82.0227,2.34546,-0.00558089,0.00555118,0.000935833,0.00562931,-0.00565901,1.48751,0.00651732,0.0258258,1847,1268,82.0227,-2.34544
630,-244,81.9729,2.3457,-0.0067719,0.00609716,0.00143256,0.0062547,-0.00692944,1.46126,0.00761519,0.0228645,1854,1268,81.9729,-2.34575
637,-244,81.9673,2.29871,-0.00668561,0.00589594,0.0013953,0.00604883,-0.00683849,1.46166,0.00744515,0.0370683,1861,1268,81.9673,-2.29865
644,-244,81.8582,2.32446,-0.00475873,0.00464322,0.000802656,0.00471126,-0.00482676,1.48624,0.00550691,0.0439147,1868,1268,81.8581,-2.32442
651,-244,81.7147,2.28992,0,0,0,0,0,0,0,-1,1875,1268,81.7147,-2.2899
658,-244,71.6105,1.55334,0,0,0,0,0,0,0,-1,1882,1268,71.6104,-1.55332
665,-244,50.7988,1.09888,0,0,0,0,0,0,0,-1,1889,1268,50.7989,-1.09893
672,-244,32.224,3.6123,0,0,0,0,0,0,0,-1,1896,1268,32.224,-3.6123
679,-244,27.2593,7.90649,0,0,0,0,0,0,0,-1,1903,1268,27.2592,-7.9065
686,-244,60.5056,16.1216,0,0,0,0,0,0,0,-1,1910,1268,60.5057,-16.1216
693,-244,60.4657,15.3674,-0.00119452,0.000975984,0.000736917,0.00120253,-0.00142107,1.27254,0.00151649,0.0383792,1917,1268,60.4657,-15.3674
700,-244,60.462,14.5192,-0.000298357,0.000875769,0.000791549,0.0012742,-0.000696785,1.10447,0.00115411,0.0219658,1924,1268,60.4621,-14.5191
707,-244,60.3733,13.7007,-0.000562126,0.000618745,0.00125746,0.00141749,-0.00136087,1.00489,0.0016042,0.0169602,1931,1268,60.3733,-13.7006
714,-244,60.3965,12.861,-0.00109671,0.000789307,0.0014668,0.00159007,-0.00189748,1.07108,0.00201615,0.0161029,1938,1268,60.3965,-12.861
721,-244,60.2498,12.1127,-0.00172834,0.000918865,0.00162362,0.00169003,-0.0024995,1.12737,0.00243383,0.0235311,1945,1268,60.2497,-12.1126
728,-244,60.2131,11.2588,-0.00249487,0.00105063,0.00177828,0.00178885,-0.00323308,1.17732,0.0029391,0.0312848,1952,1268,60.2131,-11.2587
735,-244,60.1364,10.3392,-0.00344329,0.00120423,0.00205119,0.00198003,-0.00421909,1.20921,0.00365605,0.0303429,1959,1268,60.1363,-10.3393
742,-244,60.0612,9.60254,-0.00458519,0.00137562,0.00250195,0.00228656,-0.00549614,1.22162,0.00461895,0.018371,1966,1268,60.0611,-9.60254
749,-244,59.8828,8.89404,-0.00591288,0.00153407,0.00314945,0.0026874,-0.00706622,1.21976,0.00581734,0.0256751,1973,1268,59.8829,-8.89402
756,-244,59.6951,8.16406,-0.00768391,0.00170652,0.00426095,0.00335171,-0.00932911,1.20232,0.00758755,0.0364576,1980,1268,59.6951,-8.16402
763,-244,59.7987,7.01587,0,0,0,0,0,0,0,-1,1987,1268,59.7987,-7.01583
770,-244,56.2969,5.43298,0,0,0,0,0,0,0,-1,1994,1268,56.2969,-5.43297
777,-244,48.7119,2.7002,0,0,0,0,0,0,0,-1,2001,1268,48.712,-2.70019
784,-244,31.7908,5.20081,0,0,0,0,0,0,0,-1,2008,1268,31.7907,-5.20083
791,-244,0,0,0,0,0,0,0,0,0,-1,2015,1268,0,0
798,-244,0,0,0,0,0,0,0,0,0,-1,2022,1268,0,0
805,-244,0,0,0,0,0,0,0,0,0,-1,2029,1268,0,0
812,-244,0,0,0,0,0,0,0,0,0,-1,2036,1268,0,0
-700,-251,0,0,0,0,0,0,0,0,0,-1,524,1275,0,0
-693,-251,0,0,0,0,0,0,0,0,0,-1,531,1275,0,0
-686,-251,0,0,0,0,0,0,0,0,0,-1,538,1275,0,0
-679,-251,0,0,0,0,0,0,0,0,0,-1,545,1275,0,0
-672,-251,0,0,0,0,0,0,0,0,0,-1,552,1275,0,0
-665,-251,-45.2521,2.44568,0,0,0,0,0,0,0,-1,559,1275,-45.2521,-2.44573
-658,-251,-45.5222,1.44397,0,0,0,0,0,0,0,-1,566,1275,-45.5221,-1.44401
-651,-251,-45.8498,0.382935,0,0,0,0,0,0,0,-1,573,1275,-45.8498,-0.382965
-644,-251,-46.2018,-0.658325,0,0,0,0,0,0,0,-1,580,1275,-46.2019,0.658365
-637,-251,-35.2292,3.33899,0,0,0,0,0,0,0,-1,587,1275,-35.2292,-3.33904
-630,-251,-42.8043,6.93921,0,0,0,0,0,0,0,-1,594,1275,-42.8043,-6.93915
-623,-251,-42.6853,7.76379,0.00822799,0.00342098,0.00515812,0.0115151,0.000133873,0.567372,0.0076325,0.0404864,601,1275,-42.6853,-7.76382
-616,-251,-42.5326,8.59131,0.0064967,0.00285396,0.00356588,0.00867944,0.000671225,0.549282,0.00557604,0.0210887,608,1275,-42.5326,-8.59136
-609,-251,-42.579,9.42285,0.00408015,0.00242602,0.00207011,0.0054823,0.00102388,0.595349,0.00336589,0.020612,615,1275,-42.579,-9.42291
-602,-251,-42.6298,10.3038,0.00165983,0.0017284,0.000701247,0.0023962,0.000992029,0.809823,0.00139025,0.0152239,622,1275,-42.6298,-10.3038
-595,-251,-42.6957,11.1635,-0.000571916,0.00104551,-0.000646432,0.00127212,-0.000798525,-1.23363,0.00120586,0.0137446,629,1275,-42.6957,-11.1634
-588,-251,-42.7464,12.0001,-0.00269918,0.000398473,-0.00193576,0.00132877,-0.00362947,-1.1228,0.00296358,0.0169335,636,1275,-42.7464,-12.0001
-581,-251,-42.786,12.8806,-0.0047907,-0.000250736,-0.00318399,0.0013896,-0.00643104,-1.09508,0.00481783,0.0167802,643,1275,-42.786,-12.8806
-574,-251,-42.8215,13.792,-0.00671832,-0.000812781,-0.00438048,0.0015172,-0.0090483,-1.08195,0.00659635,0.0280317,650,1275,-42.8215,-13.792
-567,-251,-43.066,14.5339,-0.00804926,-0.0014828,-0.00534532,0.00150709,-0.0110391,-1.0608,0.0079098,0.0420107,657,1275,-43.066,-14.534
-560,-251,-43.1602,15.4178,-0.00795541,-0.00125997,-0.0052742,0.00163927,-0.0108546,-1.06818,0.00784018,0.0459625,664,1275,-43.1602,-15.4179
-553,-251,-42.9621,16.35,0,0,0,0,0,0,0,-1,671,1275,-42.9621,-16.3499
-546,-251,-12.995,4.5675,0,0,0,0,0,0,0,-1,678,1275,-12.995,-4.56745
-539,-251,-10.7916,0.366333,0,0,0,0,0,0,0,-1,685,1275,-10.7916,-0.366282
-532,-251,-10.7391,-0.00769043,0,0,0,0,0,0,0,-1,692,1275,-10.7391,0.00773227
-525,-251,-29.4286,-0.250244,0,0,0,0,0,0,0,-1,699,1275,-29.4286,0.250266
-518,-251,-32.6981,0.678833,0,0,0,0,0,0,0,-1,706,1275,-32.6981,-0.678787
-511,-251,-29.4731,0.637085,0,0,0,0,0,0,0,-1,713,1275,-29.4731,-0.637025
-504,-251,-30.6428,0.792358,0,0,0,0,0,0,0,-1,720,1275,-30.6427,-0.792335
-497,-251,-54.1249,0.753784,0,0,0,0,0,0,0,-1,727,1275,-54.1249,-0.753774
-490,-251,0,0,0,0,0,0,0,0,0,-1,734,1275,0,0
-483,-251,0,0,0,0,0,0,0,0,0,-1,741,1275,0,0
-476,-251,0,0,0,0,0,0,0,0,0,-1,748,1275,0,0
-469,-251,0,0,0,0,0,0,0,0,0,-1,755,1275,0,0
-462,-251,0,0,0,0,0,0,0,0,0,-1,762,1275,0,0
-455,-251,0,0,0,0,0,0,0,0,0,-1,769,1275,0,0
-448,-251,0,0,0,0,0,0,0,0,0,-1,776,1275,0,0
-441,-251,0,0,0,0,0,0,0,0,0,-1,783,1275,0,0
-434,-251,0,0,0,0,0,0,0,0,0,-1,790,1275,0,0
-427,-251,0,0,0,0,0,0,0,0,0,-1,797,1275,0,0
-420,-251,0,0,0,0,0,0,0,0,0,-1,804,1275,0,0
-413,-251,0,0,0,0,0,0,0,0,0,-1,811,1275,0,0
-406,-251,0,0,0,0,0,0,0,0,0,-1,818,1275,0,0
-399,-251,0,0,0,0,0,0,0,0,0,-1,825,1275,0,0
-392,-251,0,0,0,0,0,0,0,0,0,-1,832,1275,0,0
-385,-251,0,0,0,0,0,0,0,0,0,-1,839,1275,0,0
-378,-251,0,0,0,0,0,0,0,0,0,-1,846,1275,0,0
-371,-251,0,0,0,0,0,0,0,0,0,-1,853,1275,0,0
-364,-251,0,0,0,0,0,0,0,0,0,-1,860,1275,0,0
-357,-251,0,0,0,0,0,0,0,0,0,-1,867,1275,0,0
-350,-251,0,0,0,0,0,0,0,0,0,-1,874,1275,0,0
-343,-251,0,0,0,0,0,0,0,0,0,-1,881,1275,0,0
-336,-251,0,0,0,0,0,0,0,0,0,-1,888,1275,0,0
-329,-251,0,0,0,0,0,0,0,0,0,-1,895,1275,0,0
-322,-251,0,0,0,0,0,0,0,0,0,-1,902,1275,0,0
-315,-251,0,0,0,0,0,0,0,0,0,-1,909,1275,0,0
-308,-251,0,0,0,0,0,0,0,0,0,-1,916,1275,0,0
-301,-251,0,0,0,0,0,0,0,0,0,-1,923,1275,0,0
-294,-251,0,0,0,0,0,0,0,0,0,-1,930,1275,0,0
-287,-251,0,0,0,0,0,0,0,0,0,-1,937,1275,0,0
-280,-251,0,0,0,0,0,0,0,0,0,-1,944,1275,0,0
-273,-251,0,0,0,0,0,0,0,0,0,-1,951,1275,0,0
-266,-251,0,0,0,0,0,0,0,0,0,-1,958,1275,0,0
-259,-251,0,0,0,0,0,0,0,0,0,-1,965,1275,0,0
-252,-251,0,0,0,0,0,0,0,0,0,-1,972,1275,0,0
-245,-251,0,0,0,0,0,0,0,0,0,-1,979,1275,0,0
-238,-251,0,0,0,0,0,0,0,0,0,-1,986,1275,0,0
-231,-251,0,0,0,0,0,0,0,0,0,-1,993,1275,0,0
-224,-251,0,0,0,0,0,0,0,0,0,-1,1000,1275,0,0
-217,-251,0,0,0,0,0,0,0,0,0,-1,1007,1275,0,0
-210,-251,0,0,0,0,0,0,0,0,0,-1,1014,1275,0,0
-203,-251,0,0,0,0,0,0,0,0,0,-1,1021,1275,0,0
-196,-251,0,0,0,0,0,0,0,0,0,-1,1028,1275,0,0
-189,-251,0,0,0,0,0,0,0,0,0,-1,1035,1275,0,0
-182,-251,0,0,0,0,0,0,0,0,0,-1,1042,1275,0,0
-175,-251,0,0,0,0,0,0,0,0,0,-1,1049,1275,0,0
-168,-251,0,0,0,0,0,0,0,0,0,-1,1056,1275,0,0
-161,-251,0,0,0,0,0,0,0,0,0,-1,1063,1275,0,0
-154,-251,0,0,0,0,0,0,0,0,0,-1,1070,1275,0,0
-147,-251,0,0,0,0,0,0,0,0,0,-1,1077,1275,0,0
-140,-251,0,0,0,0,0,0,0,0,0,-1,1084,1275,0,0
-133,-251,0,0,0,0,0,0,0,0,0,-1,1091,1275,0,0
-126,-251,0,0,0,0,0,0,0,0,0,-1,1098,1275,0,0
-119,-251,0,0,0,0,0,0,0,0,0,-1,1105,1275,0,0
-112,-251,0,0,0,0,0,0,0,0,0,-1,1112,1275,0,0
-105,-251,0,0,0,0,0,0,0,0,0,-1,1119,1275,0,0
-98,-251,0,0,0,0,0,0,0,0,0,-1,1126,1275,0,0
-91,-251,0,0,0,0,0,0,0,0,0,-1,1133,1275,0,0
-84,-251,0,0,0,0,0,0,0,0,0,-1,1140,1275,0,0
-77,-251,0,0,0,0,0,0,0,0,0,-1,1147,1275,0,0
-70,-251,0,0,0,0,0,0,0,0,0,-1,1154,1275,0,0
-63,-251,0,0,0,0,0,0,0,0,0,-1,1161,1275,0,0
-56,-251,0,0,0,0,0,0,0,0,0,-1,1168,1275,0,0
-49,-251,0,0,0,0,0,0,0,0,0,-1,1175,1275,0,0
-42,-251,0,0,0,0,0,0,0,0,0,-1,1182,1275,0,0
-35,-251,0,0,0,0,0,0,0,0,0,-1,1189,1275,0,0
-28,-251,0,0,0,0,0,0,0,0,0,-1,1196,1275,0,0
-21,-251,0,0,0,0,0,0,0,0,0,-1,1203,1275,0,0
-14,-251,0,0,0,0,0,0,0,0,0,-1,1210,1275,0,0
-7,-251,0,0,0,0,0,0,0,0,0,-1,1217,1275,0,0
0,-251,0,0,0,0,0,0,0,0,0,-1,1224,1275,0,0
7,-251,0,0,0,0,0,0,0,0,0,-1,1231,1275,0,0
14,-251,0,0,0,0,0,0,0,0,0,-1,1238,1275,0,0
21,-251,0,0,0,0,0,0,0,0,0,-1,1245,1275,0,0
28,-251,0,0,0,0,0,0,0,0,0,-1,1252,1275,0,0
35,-251,0,0,0,0,0,0,0,0,0,-1,1259,1275,0,0
42,-251,0,0,0,0,0,0,0,0,0,-1,1266,1275,0,0
49,-251,0,0,0,0,0,0,0,0,0,-1,1273,1275,0,0
56,-251,0,0,0,0,0,0,0,0,0,-1,1280,1275,0,0
63,-251,0,0,0,0,0,0,0,0,0,-1,1287,1275,0,0
70,-251,0,0,0,0,0,0,0,0,0,-1,1294,1275,0,0
77,-251,0,0,0,0,0,0,0,0,0,-1,1301,1275,0,0
84,-251,0,0,0,0,0,0,0,0,0,-1,1308,1275,0,0
91,-251,0,0,0,0,0,0,0,0,0,-1,1315,1275,0,0
98,-251,0,0,0,0,0,0,0,0,0,-1,1322,1275,0,0
105,-251,0,0,0,0,0,0,0,0,0,-1,1329,1275,0,0
112,-251,0,0,0,0,0,0,0,0,0,-1,1336,1275,0,0
119,-251,0,0,0,0,0,0,0,0,0,-1,1343,1275,0,0
126,-251,0,0,0,0,0,0,0,0,0,-1,1350,1275,0,0
133,-251,0,0,0,0,0,0,0,0,0,-1,1357,1275,0,0
140,-251,0,0,0,0,0,0,0,0,0,-1,1364,1275,0,0
147,-251,0,0,0,0,0,0,0,0,0,-1,1371,1275,0,0
154,-251,0,0,0,0,0,0,0,0,0,-1,1378,1275,0,0
161,-251,0,0,0,0,0,0,0,0,0,-1,1385,1275,0,0
168,-251,0,0,0,0,0,0,0,0,0,-1,1392,1275,0,0
175,-251,0,0,0,0,0,0,0,0,0,-1,1399,1275,0,0
182,-251,0,0,0,0,0,0,0,0,0,-1,1406,1275,0,0
189,-251,0,0,0,0,0,0,0,0,0,-1,1413,1275,0,0
196,-251,0,0,0,0,0,0,0,0,0,-1,1420,1275,0,0
203,-251,0,0,0,0,0,0,0,0,0,-1,1427,1275,0,0
210,-251,0,0,0,0,0,0,0,0,0,-1,1434,1275,0,0
217,-251,0,0,0,0,0,0,0,0,0,-1,1441,1275,0,0
224,-251,0,0,0,0,0,0,0,0,0,-1,1448,1275,0,0
231,-251,0,0,0,0,0,0,0,0,0,-1,1455,1275,0,0
238,-251,0,0,0,0,0,0,0,0,0,-1,1462,1275,0,0
245,-251,0,0,0,0,0,0,0,0,0,-1,1469,1275,0,0
252,-251,0,0,0,0,0,0,0,0,0,-1,1476,1275,0,0
259,-251,0,0,0,0,0,0,0,0,0,-1,1483,1275,0,0
266,-251,0,0,0,0,0,0,0,0,0,-1,1490,1275,0,0
273,-251,0,0,0,0,0,0,0,0,0,-1,1497,1275,0,0
280,-251,0,0,0,0,0,0,0,0,0,-1,1504,1275,0,0
287,-251,0,0,0,0,0,0,0,0,0,-1,1511,1275,0,0
294,-251,0,0,0,0,0,0,0,0,0,-1,1518,1275,0,0
301,-251,0,0,0,0,0,0,0,0,0,-1,1525,1275,0,0
308,-251,0,0,0,0,0,0,0,0,0,-1,1532,1275,0,0
315,-251,0,0,0,0,0,0,0,0,0,-1,1539,1275,0,0
322,-251,0,0,0,0,0,0,0,0,0,-1,1546,1275,0,0
329,-251,0,0,0,0,0,0,0,0,0,-1,1553,1275,0,0
336,-251,0,0,0,0,0,0,0,0,0,-1,1560,1275,0,0
343,-251,0,0,0,0,0,0,0,0,0,-1,1567,1275,0,0
350,-251,0,0,0,0,0,0,0,0,0,-1,1574,1275,0,0
357,-251,0,0,0,0,0,0,0,0,0,-1,1581,1275,0,0
364,-251,0,0,0,0,0,0,0,0,0,-1,1588,1275,0,0
371,-251,0,0,0,0,0,0,0,0,0,-1,1595,1275,0,0
378,-251,0,0,0,0,0,0,0,0,0,-1,1602,1275,0,0
385,-251,0,0,0,0,0,0,0,0,0,-1,1609,1275,0,0
392,-251,0,0,0,0,0,0,0,0,0,-1,1616,1275,0,0
399,-251,0,0,0,0,0,0,0,0,0,-1,1623,1275,0,0
406,-251,0,0,0,0,0,0,0,0,0,-1,1630,1275,0,0
413,-251,0,0,0,0,0,0,0,0,0,-1,1637,1275,0,0
420,-251,0,0,0,0,0,0,0,0,0,-1,1644,1275,0,0
427,-251,0,0,0,0,0,0,0,0,0,-1,1651,1275,0,0
434,-251,0,0,0,0,0,0,0,0,0,-1,1658,1275,0,0
441,-251,0,0,0,0,0,0,0,0,0,-1,1665,1275,0,0
448,-251,0,0,0,0,0,0,0,0,0,-1,1672,1275,0,0
455,-251,0,0,0,0,0,0,0,0,0,-1,1679,1275,0,0
462,-251,0,0,0,0,0,0,0,0,0,-1,1686,1275,0,0
469,-251,0,0,0,0,0,0,0,0,0,-1,1693,1275,0,0
476,-251,0,0,0,0,0,0,0,0,0,-1,1700,1275,0,0
483,-251,0,0,0,0,0,0,0,0,0,-1,1707,1275,0,0
490,-251,0,0,0,0,0,0,0,0,0,-1,1714,1275,0,0
497,-251,0,0,0,0,0,0,0,0,0,-1,1721,1275,0,0
504,-251,0,0,0,0,0,0,0,0,0,-1,1728,1275,0,0
511,-251,0,0,0,0,0,0,0,0,0,-1,1735,1275,0,0
518,-251,0,0,0,0,0,0,0,0,0,-1,1742,1275,0,0
525,-251,0,0,0,0,0,0,0,0,0,-1,1749,1275,0,0
532,-251,0,0,0,0,0,0,0,0,0,-1,1756,1275,0,0
539,-251,0,0,0,0,0,0,0,0,0,-1,1763,1275,0,0
546,-251,0,0,0,0,0,0,0,0,0,-1,1770,1275,0,0
553,-251,0,0,0,0,0,0,0,0,0,-1,1777,1275,0,0
560,-251,0,0,0,0,0,0,0,0,0,-1,1784,1275,0,0
567,-251,0,0,0,0,0,0,0,0,0,-1,1791,1275,0,0
574,-251,0,0,0,0,0,0,0,0,0,-1,1798,1275,0,0
581,-251,0,0,0,0,0,0,0,0,0,-1,1805,1275,0,0
588,-251,0,0,0,0,0,0,0,0,0,-1,1812,1275,0,0
595,-251,0,0,0,0,0,0,0,0,0,-1,1819,1275,0,0
602,-251,0,0,0,0,0,0,0,0,0,-1,1826,1275,0,0
609,-251,81.9602,2.31445,-0.00471923,0.00501555,-1.60309e-05,0.00501557,-0.00471926,-1.56915,0.00562128,0.0300148,1833,1275,81.9601,-2.31442
616,-251,81.9469,2.27344,-0.00636748,0.00606469,0.00081654,0.00611809,-0.00642088,1.50549,0.00724008,0.0265162,1840,1275,81.9469,-2.27349
623,-251,81.9519,2.32214,-0.00786395,0.00694,0.00151176,0.0070928,-0.00801675,1.47006,0.00872894,0.0219522,1847,1275,81.9519,-2.32218
630,-251,81.929,2.2655,-0.00855635,0.00718617,0.0019306,0.00741947,-0.00878965,1.45053,0.00936948,0.0318632,1854,1275,81.9289,-2.2655
637,-251,82.0424,2.21375,-0.00740562,0.00639507,0.0016498,0.00658955,-0.0076001,1.45345,0.00819932,0.0385497,1861,1275,82.0423,-2.21374
644,-251,81.6368,2.30347,-0.00525347,0.00500943,0.00106707,0.0051192,-0.00536324,1.46828,0.00605259,0.0475426,1868,1275,81.6368,-2.30347
651,-251,81.2471,2.37646,0,0,0,0,0,0,0,-1,1875,1275,81.2471,-2.3765
658,-251,64.3931,2.57288,0,0,0,0,0,0,0,-1,1882,1275,64.393,-2.57287
665,-251,32.9579,2.60229,0,0,0,0,0,0,0,-1,1889,1275,32.9579,-2.60231
672,-251,26.0721,4.53064,0,0,0,0,0,0,0,-1,1896,1275,26.0721,-4.53063
679,-251,29.1344,8.63782,0,0,0,0,0,0,0,-1,1903,1275,29.1344,-8.63778
686,-251,59.7323,16.194,0,0,0,0,0,0,0,-1,1910,1275,59.7323,-16.194
693,-251,59.6379,15.4534,-0.000974352,0.000709454,0.000880303,0.00108564,-0.00135054,1.16695,0.00140929,0.0413881,1917,1275,59.6379,-15.4534
700,-251,59.5999,14.5709,4.64306e-05,0.000504924,0.00085769,0.00116348,-0.000612121,0.915987,0.00104148,0.0180707,1924,1275,59.5998,-14.5709
707,-251,59.5547,13.7279,-0.000297459,0.000321082,0.00117541,0.00122723,-0.00120361,0.914041,0.00140346,0.0133532,1931,1275,59.5547,-13.7279
714,-251,59.5355,12.8982,-0.000902319,0.000563971,0.00128149,0.00130722,-0.00164556,1.04523,0.00170852,0.0165124,1938,1275,59.5355,-12.8982
721,-251,59.4009,12.1317,-0.00159723,0.000806161,0.00135921,0.00141872,-0.00220979,1.14738,0.00211145,0.0262073,1945,1275,59.4009,-12.1317
728,-251,59.3645,11.3702,-0.00241066,0.0010669,0.00146756,0.00160344,-0.0029472,1.22029,0.00266522,0.0323429,1952,1275,59.3645,-11.3702
735,-251,59.2971,10.4133,-0.00339349,0.00135145,0.0016809,0.00188656,-0.0039286,1.26259,0.00342569,0.0260514,1959,1275,59.2971,-10.4133
742,-251,59.2026,9.69031,-0.00457394,0.00166324,0.002035,0.00226847,-0.00517917,1.28172,0.004408,0.0190473,1966,1275,59.2026,-9.69036
749,-251,58.92,9.07373,-0.00596595,0.00197392,0.00254904,0.00272182,-0.00671386,1.2854,0.00560786,0.0382913,1973,1275,58.9201,-9.07369
756,-251,58.6809,8.32202,0,0,0,0,0,0,0,-1,1980,1275,58.681,-8.32202
763,-251,43.3652,5.7583,0,0,0,0,0,0,0,-1,1987,1275,43.3653,-5.75827
770,-251,49.4386,3.45508,0,0,0,0,0,0,0,-1,1994,1275,49.4386,-3.4551
777,-251,31.5731,4.33252,0,0,0,0,0,0,0,-1,2001,1275,31.5731,-4.33251
784,-251,32.0776,5.78247,0,0,0,0,0,0,0,-1,2008,1275,32.0776,-5.78247
791,-251,0,0,0,0,0,0,0,0,0,-1,2015,1275,0,0
798,-251,0,0,0,0,0,0,0,0,0,-1,2022,1275,0,0
805,-251,0,0,0,0,0,0,0,0,0,-1,2029,1275,0,0
812,-251,0,0,0,0,0,0,0,0,0,-1,2036,1275,0,0
-700,-258,0,0,0,0,0,0,0,0,0,-1,524,1282,0,0
-693,-258,0,0,0,0,0,0,0,0,0,-1,531,1282,0,0
-686,-258,0,0,0,0,0,0,0,0,0,-1,538,1282,0,0
-679,-258,0,0,0,0,0,0,0,0,0,-1,545,1282,0,0
-672,-258,0,0,0,0,0,0,0,0,0,-1,552,1282,0,0
-665,-258,-44.8717,2.03601,0,0,0,0,0,0,0,-1,559,1282,-44.8717,-2.03603
-658,-258,-45.2628,1.20544,0,0,0,0,0,0,0,-1,566,1282,-45.2627,-1.20545
-651,-258,-45.5418,0.0863037,0,0,0,0,0,0,0,-1,573,1282,-45.5418,-0.0863288
-644,-258,-45.1855,0.336792,0,0,0,0,0,0,0,-1,580,1282,-45.1855,-0.336733
-637,-258,-45.329,0.234253,0,0,0,0,0,0,0,-1,587,1282,-45.329,-0.234296
-630,-258,-34.6896,4.45715,0,0,0,0,0,0,0,-1,594,1282,-34.6896,-4.45712
-623,-258,-41.6122,7.63538,0,0,0,0,0,0,0,-1,601,1282,-41.6122,-7.63543
-616,-258,-41.6765,8.56531,0.00750232,0.00351731,0.00443759,0.0103742,0.00064542,0.574385,0.00671135,0.0346213,608,1282,-41.6765,-8.56532
-609,-258,-41.6853,9.48938,0.00499072,0.00292271,0.002818,0.00695843,0.000955004,0.609561,0.00435565,0.0176944,615,1282,-41.6853,-9.4894
-602,-258,-41.7428,10.363,0.00246027,0.00204038,0.00138595,0.00365208,0.000848561,0.710229,0.00220693,0.0149785,622,1282,-41.7428,-10.363
-595,-258,-41.7935,11.2107,0.000187861,0.00116447,2.49476e-08,0.00116447,0.000187861,1.57077,0.00072189,0.0127873,629,1282,-41.7935,-11.2107
-588,-258,-41.8525,12.0842,-0.00189056,0.00034625,-0.00126235,0.000914365,-0.00245867,-1.1479,0.00201431,0.0141258,636,1282,-41.8525,-12.0842
-581,-258,-41.9183,12.9423,-0.00388382,-0.000466764,-0.00244846,0.000810341,-0.00516093,-1.09002,0.00374011,0.0160763,643,1282,-41.9183,-12.9422
-574,-258,-41.9086,13.8398,-0.00569226,-0.00119884,-0.00354459,0.000751094,-0.0076422,-1.06786,0.00536272,0.017276,650,1282,-41.9086,-13.8398
-567,-258,-42.2596,14.5326,-0.00700212,-0.00194568,-0.00443669,0.000632583,-0.00958038,-1.04437,0.00660788,0.0279411,657,1282,-42.2596,-14.5326
-560,-258,-42.7586,14.8921,0,0,0,0,0,0,0,-1,664,1282,-42.7586,-14.892
-553,-258,-32.5081,11.6642,0,0,0,0,0,0,0,-1,671,1282,-32.5081,-11.6641
-546,-258,-14.2231,5.92029,0,0,0,0,0,0,0,-1,678,1282,-14.2231,-5.92028
-539,-258,-10.2228,4.05823,0,0,0,0,0,0,0,-1,685,1282,-10.2228,-4.05823
-532,-258,-10.2173,-0.353882,0,0,0,0,0,0,0,-1,692,1282,-10.2173,0.353836
-525,-258,-21.8661,-1.5929,0,0,0,0,0,0,0,-1,699,1282,-21.8661,1.59285
-518,-258,-29.2484,0.123169,0,0,0,0,0,0,0,-1,706,1282,-29.2484,-0.123186
-511,-258,-23.5061,1.16833,0,0,0,0,0,0,0,-1,713,1282,-23.5061,-1.16833
-504,-258,-22.9178,0.484131,0,0,0,0,0,0,0,-1,720,1282,-22.9178,-0.484106
-497,-258,-17.8047,0.730469,0,0,0,0,0,0,0,-1,727,1282,-17.8048,-0.730489
-490,-258,-15.4346,0.632935,0,0,0,0,0,0,0,-1,734,1282,-15.4346,-0.632917
-483,-258,0,0,0,0,0,0,0,0,0,-1,741,1282,0,0
-476,-258,0,0,0,0,0,0,0,0,0,-1,748,1282,0,0
-469,-258,0,0,0,0,0,0,0,0,0,-1,755,1282,0,0
-462,-258,0,0,0,0,0,0,0,0,0,-1,762,1282,0,0
-455,-258,0,0,0,0,0,0,0,0,0,-1,769,1282,0,0
-448,-258,0,0,0,0,0,0,0,0,0,-1,776,1282,0,0
-441,-258,0,0,0,0,0,0,0,0,0,-1,783,1282,0,0
-434,-258,0,0,0,0,0,0,0,0,0,-1,790,1282,0,0
-427,-258,0,0,0,0,0,0,0,0,0,-1,797,1282,0,0
-420,-258,0,0,0,0,0,0,0,0,0,-1,804,1282,0,0
-413,-258,0,0,0,0,0,0,0,0,0,-1,811,1282,0,0
-406,-258,0,0,0,0,0,0,0,0,0,-1,818,1282,0,0
-399,-258,0,0,0,0,0,0,0,0,0,-1,825,1282,0,0
-392,-258,0,0,0,0,0,0,0,0,0,-1,832,1282,0,0
-385,-258,0,0,0,0,0,0,0,0,0,-1,839,1282,0,0
-378,-258,0,0,0,0,0,0,0,0,0,-1,846,1282,0,0
-371,-258,0,0,0,0,0,0,0,0,0,-1,853,1282,0,0
-364,-258,0,0,0,0,0,0,0,0,0,-1,860,1282,0,0
-357,-258,0,0,0,0,0,0,0,0,0,-1,867,1282,0,0
-350,-258,0,0,0,0,0,0,0,0,0,-1,874,1282,0,0
-343,-258,0,0,0,0,0,0,0,0,0,-1,881,1282,0,0
-336,-258,0,0,0,0,0,0,0,0,0,-1,888,1282,0,0
-329,-258,0,0,0,0,0,0,0,0,0,-1,895,1282,0,0
-322,-258,0,0,0,0,0,0,0,0,0,-1,902,1282,0,0
-315,-258,0,0,0,0,0,0,0,0,0,-1,909,1282,0,0
-308,-258,0,0,0,0,0,0,0,0,0,-1,916,1282,0,0
-301,-258,0,0,0,0,0,0,0,0,0,-1,923,1282,0,0
-294,-258,0,0,0,0,0,0,0,0,0,-1,930,1282,0,0
-287,-258,0,0,0,0,0,0,0,0,0,-1,937,1282,0,0
-280,-258,0,0,0,0,0,0,0,0,0,-1,944,1282,0,0
-273,-258,0,0,0,0,0,0,0,0,0,-1,951,1282,0,0
-266,-258,0,0,0,0,0,0,0,0,0,-1,958,1282,0,0
-259,-258,0,0,0,0,0,0,0,0,0,-1,965,1282,0,0
-252,-258,0,0,0,0,0,0,0,0,0,-1,972,1282,0,0
-245,-258,0,0,0,0,0,0,0,0,0,-1,979,1282,0,0
-238,-258,0,0,0,0,0,0,0,0,0,-1,986,1282,0,0
-231,-258,0,0,0,0,0,0,0,0,0,-1,993,1282,0,0
-224,-258,0,0,0,0,0,0,0,0,0,-1,1000,1282,0,0
-217,-258,0,0,0,0,0,0,0,0,0,-1,1007,1282,0,0
-210,-258,0,0,0,0,0,0,0,0,0,-1,1014,1282,0,0
-203,-258,0,0,0,0,0,0,0,0,0,-1,1021,1282,0,0
-196,-258,0,0,0,0,0,0,0,0,0,-1,1028,1282,0,0
-189,-258,0,0,0,0,0,0,0,0,0,-1,1035,1282,0,0
-182,-258,0,0,0,0,0,0,0,0,0,-1,1042,1282,0,0
-175,-258,0,0,0,0,0,0,0,0,0,-1,1049,1282,0,0
-168,-258,0,0,0,0,0,0,0,0,0,-1,1056,1282,0,0
-161,-258,0,0,0,0,0,0,0,0,0,-1,1063,1282,0,0
-154,-258,0,0,0,0,0,0,0,0,0,-1,1070,1282,0,0
-147,-258,0,0,0,0,0,0,0,0,0,-1,1077,1282,0,0
-140,-258,0,0,0,0,0,0,0,0,0,-1,1084,1282,0,0
-133,-258,0,0,0,0,0,0,0,0,0,-1,1091,1282,0,0
-126,-258,0,0,0,0,0,0,0,0,0,-1,1098,1282,0,0
-119,-258,0,0,0,0,0,0,0,0,0,-1,1105,1282,0,0
-112,-258,0,0,0,0,0,0,0,0,0,-1,1112,1282,0,0
-105,-258,0,0,0,0,0,0,0,0,0,-1,1119,1282,0,0
-98,-258,0,0,0,0,0,0,0,0,0,-1,1126,1282,0,0
-91,-258,0,0,0,0,0,0,0,0,0,-1,1133,1282,0,0
-84,-258,0,0,0,0,0,0,0,0,0,-1,1140,1282,0,0
-77,-258,0,0,0,0,0,0,0,0,0,-1,1147,1282,0,0
-70,-258,0,0,0,0,0,0,0,0,0,-1,1154,1282,0,0
-63,-258,0,0,0,0,0,0,0,0,0,-1,1161,1282,0,0
-56,-258,0,0,0,0,0,0,0,0,0,-1,1168,1282,0,0
-49,-258,0,0,0,0,0,0,0,0,0,-1,1175,1282,0,0
-42,-258,0,0,0,0,0,0,0,0,0,-1,1182,1282,0,0
-35,-258,0,0,0,0,0,0,0,0,0,-1,1189,1282,0,0
-28,-258,0,0,0,0,0,0,0,0,0,-1,1196,1282,0,0
-21,-258,0,0,0,0,0,0,0,0,0,-1,1203,1282,0,0
-14,-258,0,0,0,0,0,0,0,0,0,-1,1210,1282,0,0
-7,-258,0,0,0,0,0,0,0,0,0,-1,1217,1282,0,0
0,-258,0,0,0,0,0,0,0,0,0,-1,1224,1282,0,0
7,-258,0,0,0,0,0,0,0,0,0,-1,1231,1282,0,0
14,-258,0,0,0,0,0,0,0,0,0,-1,1238,1282,0,0
21,-258,0,0,0,0,0,0,0,0,0,-1,1245,1282,0,0
28,-258,0,0,0,0,0,0,0,0,0,-1,1252,1282,0,0
35,-258,0,0,0,0,0,0,0,0,0,-1,1259,1282,0,0
42,-258,0,0,0,0,0,0,0,0,0,-1,1266,1282,0,0
49,-258,0,0,0,0,0,0,0,0,0,-1,1273,1282,0,0
56,-258,0,0,0,0,0,0,0,0,0,-1,1280,1282,0,0
63,-258,0,0,0,0,0,0,0,0,0,-1,1287,1282,0,0
70,-258,0,0,0,0,0,0,0,0,0,-1,1294,1282,0,0
77,-258,0,0,0,0,0,0,0,0,0,-1,1301,1282,0,0
84,-258,0,0,0,0,0,0,0,0,0,-1,1308,1282,0,0
91,-258,0,0,0,0,0,0,0,0,0,-1,1315,1282,0,0
98,-258,0,0,0,0,0,0,0,0,0,-1,1322,1282,0,0
105,-258,0,0,0,0,0,0,0,0,0,-1,1329,1282,0,0
112,-258,0,0,0,0,0,0,0,0,0,-1,1336,1282,0,0
119,-258,0,0,0,0,0,0,0,0,0,-1,1343,1282,0,0
126,-258,0,0,0,0,0,0,0,0,0,-1,1350,1282,0,0
133,-258,0,0,0,0,0,0,0,0,0,-1,1357,1282,0,0
140,-258,0,0,0,0,0,0,0,0,0,-1,1364,1282,0,0
147,-258,0,0,0,0,0,0,0,0,0,-1,1371,1282,0,0
154,-258,0,0,0,0,0,0,0,0,0,-1,1378,1282,0,0
161,-258,0,0,0,0,0,0,0,0,0,-1,1385,1282,0,0
168,-258,0,0,0,0,0,0,0,0,0,-1,1392,1282,0,0
175,-258,0,0,0,0,0,0,0,0,0,-1,1399,1282,0,0
182,-258,0,0,0,0,0,0,0,0,0,-1,1406,1282,0,0
189,-258,0,0,0,0,0,0,0,0,0,-1,1413,1282,0,0
196,-258,0,0,0,0,0,0,0,0,0,-1,1420,1282,0,0
203,-258,0,0,0,0,0,0,0,0,0,-1,1427,1282,0,0
210,-258,0,0,0,0,0,0,0,0,0,-1,1434,1282,0,0
217,-258,0,0,0,0,0,0,0,0,0,-1,1441,1282,0,0
224,-258,0,0,0,0,0,0,0,0,0,-1,1448,1282,0,0
231,-258,0,0,0,0,0,0,0,0,0,-1,1455,1282,0,0
238,-258,0,0,0,0,0,0,0,0,0,-1,1462,1282,0,0
245,-258,0,0,0,0,0,0,0,0,0,-1,1469,1282,0,0
252,-258,0,0,0,0,0,0,0,0,0,-1,1476,1282,0,0
259,-258,0,0,0,0,0,0,0,0,0,-1,1483,1282,0,0
266,-258,0,0,0,0,0,0,0,0,0,-1,1490,1282,0,0
273,-258,0,0,0,0,0,0,0,0,0,-1,1497,1282,0,0
280,-258,0,0,0,0,0,0,0,0,0,-1,1504,1282,0,0
287,-258,0,0,0,0,0,0,0,0,0,-1,1511,1282,0,0
294,-258,0,0,0,0,0,0,0,0,0,-1,1518,1282,0,0
301,-258,0,0,0,0,0,0,0,0,0,-1,1525,1282,0,0
308,-258,0,0,0,0,0,0,0,0,0,-1,1532,1282,0,0
315,-258,0,0,0,0,0,0,0,0,0,-1,1539,1282,0,0
322,-258,0,0,0,0,0,0,0,0,0,-1,1546,1282,0,0
329,-258,0,0,0,0,0,0,0,0,0,-1,1553,1282,0,0
336,-258,0,0,0,0,0,0,0,0,0,-1,1560,1282,0,0
343,-258,0,0,0,0,0,0,0,0,0,-1,1567,1282,0,0
350,-258,0,0,0,0,0,0,0,0,0,-1,1574,1282,0,0
357,-258,0,0,0,0,0,0,0,0,0,-1,1581,1282,0,0
364,-258,0,0,0,0,0,0,0,0,0,-1,1588,1282,0,0
371,-258,0,0,0,0,0,0,0,0,0,-1,1595,1282,0,0
378,-258,0,0,0,0,0,0,0,0,0,-1,1602,1282,0,0
385,-258,0,0,0,0,0,0,0,0,0,-1,1609,1282,0,0
392,-258,0,0,0,0,0,0,0,0,0,-1,1616,1282,0,0
399,-258,0,0,0,0,0,0,0,0,0,-1,1623,1282,0,0
406,-258,0,0,0,0,0,0,0,0,0,-1,1630,1282,0,0
413,-258,0,0,0,0,0,0,0,0,0,-1,1637,1282,0,0
420,-258,0,0,0,0,0,0,0,0,0,-1,1644,1282,0,0
427,-258,0,0,0,0,0,0,0,0,0,-1,1651,1282,0,0
434,-258,0,0,0,0,0,0,0,0,0,-1,1658,1282,0,0
441,-258,0,0,0,0,0,0,0,0,0,-1,1665,1282,0,0
448,-258,0,0,0,0,0,0,0,0,0,-1,1672,1282,0,0
455,-258,0,0,0,0,0,0,0,0,0,-1,1679,1282,0,0
462,-258,0,0,0,0,0,0,0,0,0,-1,1686,1282,0,0
469,-258,0,0,0,0,0,0,0,0,0,-1,1693,1282,0,0
476,-258,0,0,0,0,0,0,0,0,0,-1,1700,1282,0,0
483,-258,0,0,0,0,0,0,0,0,0,-1,1707,1282,0,0
490,-258,0,0,0,0,0,0,0,0,0,-1,1714,1282,0,0
497,-258,0,0,0,0,0,0,0,0,0,-1,1721,1282,0,0
504,-258,0,0,0,0,0,0,0,0,0,-1,1728,1282,0,0
511,-258,0,0,0,0,0,0,0,0,0,-1,1735,1282,0,0
518,-258,0,0,0,0,0,0,0,0,0,-1,1742,1282,0,0
525,-258,0,0,0,0,0,0,0,0,0,-1,1749,1282,0,0
532,-258,0,0,0,0,0,0,0,0,0,-1,1756,1282,0,0
539,-258,0,0,0,0,0,0,0,0,0,-1,1763,1282,0,0
546,-258,0,0,0,0,0,0,0,0,0,-1,1770,1282,0,0
553,-258,0,0,0,0,0,0,0,0,0,-1,1777,1282,0,0
560,-258,0,0,0,0,0,0,0,0,0,-1,1784,1282,0,0
567,-258,0,0,0,0,0,0,0,0,0,-1,1791,1282,0,0
574,-258,0,0,0,0,0,0,0,0,0,-1,1798,1282,0,0
581,-258,0,0,0,0,0,0,0,0,0,-1,1805,1282,0,0
588,-258,0,0,0,0,0,0,0,0,0,-1,1812,1282,0,0
595,-258,0,0,0,0,0,0,0,0,0,-1,1819,1282,0,0
602,-258,0,0,0,0,0,0,0,0,0,-1,1826,1282,0,0
609,-258,81.969,2.34509,-0.00715696,0.00650926,0.00024131,0.00651352,-0.00716122,1.55315,0.00789807,0.0248964,1833,1282,81.969,-2.34509
616,-258,81.9268,2.31921,-0.00900029,0.00781615,0.00121157,0.007903,-0.00908713,1.49924,0.00981719,0.0234696,1840,1282,81.9267,-2.31927
623,-258,81.8583,2.28552,-0.0101418,0.00859582,0.00189236,0.00878502,-0.010331,1.47114,0.0110487,0.0331058,1847,1282,81.8583,-2.28551
630,-258,81.7905,2.17188,-0.00983416,0.00814882,0.00214346,0.00840078,-0.0100861,1.45379,0.0106882,0.0410169,1854,1282,81.7905,-2.17187
637,-258,81.9751,2.17737,-0.0079081,0.00678332,0.00170038,0.00697755,-0.00810234,1.45706,0.00871445,0.0431497,1861,1282,81.9751,-2.17736
644,-258,81.4825,2.04468,0,0,0,0,0,0,0,-1,1868,1282,81.4826,-2.0447
651,-258,77.8041,3.65466,0,0,0,0,0,0,0,-1,1875,1282,77.8041,-3.65469
658,-258,45.4424,3.1405,0,0,0,0,0,0,0,-1,1882,1282,45.4423,-3.14046
665,-258,35.4747,1.1864,0,0,0,0,0,0,0,-1,1889,1282,35.4747,-1.18637
672,-258,22.703,2.80957,0,0,0,0,0,0,0,-1,1896,1282,22.703,-2.80962
679,-258,26.8693,8.19543,0,0,0,0,0,0,0,-1,1903,1282,26.8692,-8.19548
686,-258,58.9111,16.4624,0,0,0,0,0,0,0,-1,1910,1282,58.9111,-16.4624
693,-258,58.7922,15.5114,-0.000705928,0.000350876,0.000720255,0.000715769,-0.00107082,1.10187,0.00103826,0.0379545,1917,1282,58.7922,-15.5114
700,-258,58.7427,14.6143,0.000368619,7.59e-05,0.000576397,0.000816947,-0.000372429,0.661065,0.000702491,0.0127759,1924,1282,58.7427,-14.6143
707,-258,58.7097,13.7837,-2.84418e-05,-3.84846e-05,0.0008296,0.000796152,-0.000863079,0.782372,0.000958217,0.0123278,1931,1282,58.7098,-13.7837
714,-258,58.6819,12.9707,-0.000665245,0.000262551,0.000967766,0.000871859,-0.00127455,1.00889,0.00124648,0.013856,1938,1282,58.6818,-12.9707
721,-258,58.6063,12.1237,-0.00138824,0.000602686,0.00108213,0.00107758,-0.00186313,1.15725,0.00171789,0.0245019,1945,1282,58.6064,-12.1236
728,-258,58.516,11.3352,-0.00222892,0.000985133,0.00120536,0.00138694,-0.00263073,1.24903,0.00235637,0.023865,1952,1282,58.516,-11.3352
735,-258,58.5087,10.4906,-0.00324589,0.00142448,0.00137826,0.00180088,-0.00362228,1.3042,0.00318939,0.0202894,1959,1282,58.5087,-10.4907
742,-258,58.4412,9.69641,-0.00446293,0.00192345,0.00162772,0.00231439,-0.00485387,1.33509,0.00422428,0.0193046,1966,1282,58.4411,-9.69646
749,-258,58.2445,8.97363,-0.00591748,0.00248436,0.00195788,0.0029182,-0.00635132,1.35273,0.00547275,0.0413264,1973,1282,58.2445,-8.97363
756,-258,58.0988,8.06958,0,0,0,0,0,0,0,-1,1980,1282,58.0988,-8.06954
763,-258,39.3638,5.09753,0,0,0,0,0,0,0,-1,1987,1282,39.3638,-5.09751
770,-258,40.3713,4.08325,0,0,0,0,0,0,0,-1,1994,1282,40.3713,-4.08323
777,-258,31.912,4.83093,0,0,0,0,0,0,0,-1,2001,1282,31.912,-4.8309
784,-258,32.6525,6.43091,0,0,0,0,0,0,0,-1,2008,1282,32.6525,-6.43091
791,-258,0,0,0,0,0,0,0,0,0,-1,2015,1282,0,0
798,-258,0,0,0,0,0,0,0,0,0,-1,2022,1282,0,0
805,-258,0,0,0,0,0,0,0,0,0,-1,2029,1282,0,0
812,-258,0,0,0,0,0,0,0,0,0,-1,2036,1282,0,0
-700,-265,0,0,0,0,0,0,0,0,0,-1,524,1289,0,0
-693,-265,0,0,0,0,0,0,0,0,0,-1,531,1289,0,0
-686,-265,0,0,0,0,0,0,0,0,0,-1,538,1289,0,0
-679,-265,0,0,0,0,0,0,0,0,0,-1,545,1289,0,0
-672,-265,0,0,0,0,0,0,0,0,0,-1,552,1289,0,0
-665,-265,-44.553,1.771,0,0,0,0,0,0,0,-1,559,1289,-44.553,-1.77096
-658,-265,-44.9351,1.32117,0,0,0,0,0,0,0,-1,566,1289,-44.9351,-1.32118
-651,-265,-44.821,1.0614,0,0,0,0,0,0,0,-1,573,1289,-44.821,-1.06141
-644,-265,-44.4684,0.304932,0,0,0,0,0,0,0,-1,580,1289,-44.4684,-0.304991
-637,-265,-44.6157,0.250122,0,0,0,0,0,0,0,-1,587,1289,-44.6157,-0.250067
-630,-265,-44.5689,0.900269,0,0,0,0,0,0,0,-1,594,1289,-44.5689,-0.900302
-623,-265,-40.7626,7.11865,0,0,0,0,0,0,0,-1,601,1289,-40.7626,-7.11865
-616,-265,-40.7695,8.27979,0.00884657,0.00450027,0.00542174,0.0125145,0.000832376,0.594791,0.00807983,0.0498989,608,1289,-40.7696,-8.27983
-609,-265,-40.8318,9.51392,0.00621302,0.0036814,0.00365318,0.00881347,0.00108094,0.618624,0.00555053,0.0202842,615,1289,-40.8318,-9.51388
-602,-265,-40.8864,10.4186,0.00352943,0.00258506,0.00213861,0.00524736,0.000867133,0.676746,0.00324801,0.0159969,622,1289,-40.8864,-10.4186
-595,-265,-40.9285,11.2926,0.0011802,0.00149903,0.000685245,0.00204316,0.00063607,0.899685,0.00120729,0.0136276,629,1289,-40.9285,-11.2926
-588,-265,-40.9882,12.1501,-0.000870208,0.000517507,-0.000574299,0.000724348,-0.00107705,-1.2251,0.00104666,0.0125307,636,1289,-40.9882,-12.1502
-581,-265,-41.0527,13.0054,-0.00277104,-0.000429987,-0.00171604,0.000476724,-0.00367775,-1.08471,0.00262521,0.0147746,643,1289,-41.0527,-13.0054
-574,-265,-41.0944,13.9059,-0.00447898,-0.00131844,-0.00272087,0.000247775,-0.0060452,-1.04849,0.00411521,0.0154543,650,1289,-41.0944,-13.9058
-567,-265,-41.2866,14.6478,-0.00580205,-0.00218444,-0.00353449,-2.2803e-05,-0.00796369,-1.0219,0.00530154,0.0296846,657,1289,-41.2866,-14.6478
-560,-265,-41.6797,15.4003,-0.00612865,-0.0023195,-0.00366082,-9.74503e-05,-0.0083507,-1.02526,0.00553493,0.04195,664,1289,-41.6797,-15.4003
-553,-265,-41.8685,16.2732,0,0,0,0,0,0,0,-1,671,1289,-41.8685,-16.2732
-546,-265,-24.2283,10.2581,0,0,0,0,0,0,0,-1,678,1289,-24.2283,-10.258
-539,-265,-13.7668,6.39917,0,0,0,0,0,0,0,-1,685,1289,-13.7668,-6.39915
-532,-265,-8.53998,3.41467,0,0,0,0,0,0,0,-1,692,1289,-8.53996,-3.41473
-525,-265,-12.1317,0.514648,0,0,0,0,0,0,0,-1,699,1289,-12.1317,-0.514634
-518,-265,-24.1604,0.712402,0,0,0,0,0,0,0,-1,706,1289,-24.1604,-0.712425
-511,-265,-23.233,0.791626,0,0,0,0,0,0,0,-1,713,1289,-23.233,-0.791617
-504,-265,-22.3056,0.87085,0,0,0,0,0,0,0,-1,720,1289,-22.3056,-0.87081
-497,-265,-18.689,-0.278442,0,0,0,0,0,0,0,-1,727,1289,-18.689,0.278423
-490,-265,-15.1696,0.492676,0,0,0,0,0,0,0,-1,734,1289,-15.1696,-0.492688
-483,-265,0,0,0,0,0,0,0,0,0,-1,741,1289,0,0
-476,-265,0,0,0,0,0,0,0,0,0,-1,748,1289,0,0
-469,-265,0,0,0,0,0,0,0,0,0,-1,755,1289,0,0
-462,-265,0,0,0,0,0,0,0,0,0,-1,762,1289,0,0
-455,-265,0,0,0,0,0,0,0,0,0,-1,769,1289,0,0
-448,-265,0,0,0,0,0,0,0,0,0,-1,776,1289,0,0
-441,-265,0,0,0,0,0,0,0,0,0,-1,783,1289,0,0
-434,-265,0,0,0,0,0,0,0,0,0,-1,790,1289,0,0
-427,-265,0,0,0,0,0,0,0,0,0,-1,797,1289,0,0
-420,-265,0,0,0,0,0,0,0,0,0,-1,804,1289,0,0
-413,-265,0,0,0,0,0,0,0,0,0,-1,811,1289,0,0
-406,-265,0,0,0,0,0,0,0,0,0,-1,818,1289,0,0
-399,-265,0,0,0,0,0,0,0,0,0,-1,825,1289,0,0
-392,-265,0,0,0,0,0,0,0,0,0,-1,832,1289,0,0
-385,-265,0,0,0,0,0,0,0,0,0,-1,839,1289,0,0
-378,-265,0,0,0,0,0,0,0,0,0,-1,846,1289,0,0
-371,-265,0,0,0,0,0,0,0,0,0,-1,853,1289,0,0
-364,-265,0,0,0,0,0,0,0,0,0,-1,860,1289,0,0
-357,-265,0,0,0,0,0,0,0,0,0,-1,867,1289,0,0
-350,-265,0,0,0,0,0,0,0,0,0,-1,874,1289,0,0
-343,-265,0,0,0,0,0,0,0,0,0,-1,881,1289,0,0
-336,-265,0,0,0,0,0,0,0,0,0,-1,888,1289,0,0
-329,-265,0,0,0,0,0,0,0,0,0,-1,895,1289,0,0
-322,-265,0,0,0,0,0,0,0,0,0,-1,902,1289,0,0
-315,-265,0,0,0,0,0,0,0,0,0,-1,909,1289,0,0
-308,-265,0,0,0,0,0,0,0,0,0,-1,916,1289,0,0
-301,-265,0,0,0,0,0,0,0,0,0,-1,923,1289,0,0
-294,-265,0,0,0,0,0,0,0,0,0,-1,930,1289,0,0
-287,-265,0,0,0,0,0,0,0,0,0,-1,937,1289,0,0
-280,-265,0,0,0,0,0,0,0,0,0,-1,944,1289,0,0
-273,-265,0,0,0,0,0,0,0,0,0,-1,951,1289,0,0
-266,-265,0,0,0,0,0,0,0,0,0,-1,958,1289,0,0
-259,-265,0,0,0,0,0,0,0,0,0,-1,965,1289,0,0
-252,-265,0,0,0,0,0,0,0,0,0,-1,972,1289,0,0
-245,-265,0,0,0,0,0,0,0,0,0,-1,979,1289,0,0
-238,-265,0,0,0,0,0,0,0,0,0,-1,986,1289,0,0
-231,-265,0,0,0,0,0,0,0,0,0,-1,993,1289,0,0
-224,-265,0,0,0,0,0,0,0,0,0,-1,1000,1289,0,0
-217,-265,0,0,0,0,0,0,0,0,0,-1,1007,1289,0,0
-210,-265,0,0,0,0,0,0,0,0,0,-1,1014,1289,0,0
-203,-265,0,0,0,0,0,0,0,0,0,-1,1021,1289,0,0
-196,-265,0,0,0,0,0,0,0,0,0,-1,1028,1289,0,0
-189,-265,0,0,0,0,0,0,0,0,0,-1,1035,1289,0,0
-182,-265,0,0,0,0,0,0,0,0,0,-1,1042,1289,0,0
-175,-265,0,0,0,0,0,0,0,0,0,-1,1049,1289,0,0
-168,-265,0,0,0,0,0,0,0,0,0,-1,1056,1289,0,0
-161,-265,0,0,0,0,0,0,0,0,0,-1,1063,1289,0,0
-154,-265,0,0,0,0,0,0,0,0,0,-1,1070,1289,0,0
-147,-265,0,0,0,0,0,0,0,0,0,-1,1077,1289,0,0
-140,-265,0,0,0,0,0,0,0,0,0,-1,1084,1289,0,0
-133,-265,0,0,0,0,0,0,0,0,0,-1,1091,1289,0,0
-126,-265,0,0,0,0,0,0,0,0,0,-1,1098,1289,0,0
-119,-265,0,0,0,0,0,0,0,0,0,-1,1105,1289,0,0
-112,-265,0,0,0,0,0,0,0,0,0,-1,1112,1289,0,0
-105,-265,0,0,0,0,0,0,0,0,0,-1,1119,1289,0,0
-98,-265,0,0,0,0,0,0,0,0,0,-1,1126,1289,0,0
-91,-265,0,0,0,0,0,0,0,0,0,-1,1133,1289,0,0
-84,-265,0,0,0,0,0,0,0,0,0,-1,1140,1289,0,0
-77,-265,0,0,0,0,0,0,0,0,0,-1,1147,1289,0,0
-70,-265,0,0,0,0,0,0,0,0,0,-1,1154,1289,0,0
-63,-265,0,0,0,0,0,0,0,0,0,-1,1161,1289,0,0
-56,-265,0,0,0,0,0,0,0,0,0,-1,1168,1289,0,0
-49,-265,0,0,0,0,0,0,0,0,0,-1,1175,1289,0,0
-42,-265,0,0,0,0,0,0,0,0,0,-1,1182,1289,0,0
-35,-265,0,0,0,0,0,0,0,0,0,-1,1189,1289,0,0
-28,-265,0,0,0,0,0,0,0,0,0,-1,1196,1289,0,0
-21,-265,0,0,0,0,0,0,0,0,0,-1,1203,1289,0,0
-14,-265,0,0,0,0,0,0,0,0,0,-1,1210,1289,0,0
-7,-265,0,0,0,0,0,0,0,0,0,-1,1217,1289,0,0
0,-265,0,0,0,0,0,0,0,0,0,-1,1224,1289,0,0
7,-265,0,0,0,0,0,0,0,0,0,-1,1231,1289,0,0
14,-265,0,0,0,0,0,0,0,0,0,-1,1238,1289,0,0
21,-265,0,0,0,0,0,0,0,0,0,-1,1245,1289,0,0
28,-265,0,0,0,0,0,0,0,0,0,-1,1252,1289,0,0
35,-265,0,0,0,0,0,0,0,0,0,-1,1259,1289,0,0
42,-265,0,0,0,0,0,0,0,0,0,-1,1266,1289,0,0
49,-265,0,0,0,0,0,0,0,0,0,-1,1273,1289,0,0
56,-265,0,0,0,0,0,0,0,0,0,-1,1280,1289,0,0
63,-265,0,0,0,0,0,0,0,0,0,-1,1287,1289,0,0
70,-265,0,0,0,0,0,0,0,0,0,-1,1294,1289,0,0
77,-265,0,0,0,0,0,0,0,0,0,-1,1301,1289,0,0
84,-265,0,0,0,0,0,0,0,0,0,-1,1308,1289,0,0
91,-265,0,0,0,0,0,0,0,0,0,-1,1315,1289,0,0
98,-265,0,0,0,0,0,0,0,0,0,-1,1322,1289,0,0
105,-265,0,0,0,0,0,0,0,0,0,-1,1329,1289,0,0
112,-265,0,0,0,0,0,0,0,0,0,-1,1336,1289,0,0
119,-265,0,0,0,0,0,0,0,0,0,-1,1343,1289,0,0
126,-265,0,0,0,0,0,0,0,0,0,-1,1350,1289,0,0
133,-265,0,0,0,0,0,0,0,0,0,-1,1357,1289,0,0
140,-265,0,0,0,0,0,0,0,0,0,-1,1364,1289,0,0
147,-265,0,0,0,0,0,0,0,0,0,-1,1371,1289,0,0
154,-265,0,0,0,0,0,0,0,0,0,-1,1378,1289,0,0
161,-265,0,0,0,0,0,0,0,0,0,-1,1385,1289,0,0
168,-265,0,0,0,0,0,0,0,0,0,-1,1392,1289,0,0
175,-265,0,0,0,0,0,0,0,0,0,-1,1399,1289,0,0
182,-265,0,0,0,0,0,0,0,0,0,-1,1406,1289,0,0
189,-265,0,0,0,0,0,0,0,0,0,-1,1413,1289,0,0
196,-265,0,0,0,0,0,0,0,0,0,-1,1420,1289,0,0
203,-265,0,0,0,0,0,0,0,0,0,-1,1427,1289,0,0
210,-265,0,0,0,0,0,0,0,0,0,-1,1434,1289,0,0
217,-265,0,0,0,0,0,0,0,0,0,-1,1441,1289,0,0
224,-265,0,0,0,0,0,0,0,0,0,-1,1448,1289,0,0
231,-265,0,0,0,0,0,0,0,0,0,-1,1455,1289,0,0
238,-265,0,0,0,0,0,0,0,0,0,-1,1462,1289,0,0
245,-265,0,0,0,0,0,0,0,0,0,-1,1469,1289,0,0
252,-265,0,0,0,0,0,0,0,0,0,-1,1476,1289,0,0
259,-265,0,0,0,0,0,0,0,0,0,-1,1483,1289,0,0
266,-265,0,0,0,0,0,0,0,0,0,-1,1490,1289,0,0
273,-265,0,0,0,0,0,0,0,0,0,-1,1497,1289,0,0
280,-265,0,0,0,0,0,0,0,0,0,-1,1504,1289,0,0
287,-265,0,0,0,0,0,0,0,0,0,-1,1511,1289,0,0
294,-265,0,0,0,0,0,0,0,0,0,-1,1518,1289,0,0
301,-265,0,0,0,0,0,0,0,0,0,-1,1525,1289,0,0
308,-265,0,0,0,0,0,0,0,0,0,-1,1532,1289,0,0
315,-265,0,0,0,0,0,0,0,0,0,-1,1539,1289,0,0
322,-265,0,0,0,0,0,0,0,0,0,-1,1546,1289,0,0
329,-265,0,0,0,0,0,0,0,0,0,-1,1553,1289,0,0
336,-265,0,0,0,0,0,0,0,0,0,-1,1560,1289,0,0
343,-265,0,0,0,0,0,0,0,0,0,-1,1567,1289,0,0
350,-265,0,0,0,0,0,0,0,0,0,-1,1574,1289,0,0
357,-265,0,0,0,0,0,0,0,0,0,-1,1581,1289,0,0
364,-265,0,0,0,0,0,0,0,0,0,-1,1588,1289,0,0
371,-265,0,0,0,0,0,0,0,0,0,-1,1595,1289,0,0
378,-265,0,0,0,0,0,0,0,0,0,-1,1602,1289,0,0
385,-265,0,0,0,0,0,0,0,0,0,-1,1609,1289,0,0
392,-265,0,0,0,0,0,0,0,0,0,-1,1616,1289,0,0
399,-265,0,0,0,0,0,0,0,0,0,-1,1623,1289,0,0
406,-265,0,0,0,0,0,0,0,0,0,-1,1630,1289,0,0
413,-265,0,0,0,0,0,0,0,0,0,-1,1637,1289,0,0
420,-265,0,0,0,0,0,0,0,0,0,-1,1644,1289,0,0
427,-265,0,0,0,0,0,0,0,0,0,-1,1651,1289,0,0
434,-265,0,0,0,0,0,0,0,0,0,-1,1658,1289,0,0
441,-265,0,0,0,0,0,0,0,0,0,-1,1665,1289,0,0
448,-265,0,0,0,0,0,0,0,0,0,-1,1672,1289,0,0
455,-265,0,0,0,0,0,0,0,0,0,-1,1679,1289,0,0
462,-265,0,0,0,0,0,0,0,0,0,-1,1686,1289,0,0
469,-265,0,0,0,0,0,0,0,0,0,-1,1693,1289,0,0
476,-265,0,0,0,0,0,0,0,0,0,-1,1700,1289,0,0
483,-265,0,0,0,0,0,0,0,0,0,-1,1707,1289,0,0
490,-265,0,0,0,0,0,0,0,0,0,-1,1714,1289,0,0
497,-265,0,0,0,0,0,0,0,0,0,-1,1721,1289,0,0
504,-265,0,0,0,0,0,0,0,0,0,-1,1728,1289,0,0
511,-265,0,0,0,0,0,0,0,0,0,-1,1735,1289,0,0
518,-265,0,0,0,0,0,0,0,0,0,-1,1742,1289,0,0
525,-265,0,0,0,0,0,0,0,0,0,-1,1749,1289,0,0
532,-265,0,0,0,0,0,0,0,0,0,-1,1756,1289,0,0
539,-265,0,0,0,0,0,0,0,0,0,-1,1763,1289,0,0
546,-265,0,0,0,0,0,0,0,0,0,-1,1770,1289,0,0
553,-265,0,0,0,0,0,0,0,0,0,-1,1777,1289,0,0
560,-265,0,0,0,0,0,0,0,0,0,-1,1784,1289,0,0
567,-265,0,0,0,0,0,0,0,0,0,-1,1791,1289,0,0
574,-265,0,0,0,0,0,0,0,0,0,-1,1798,1289,0,0
581,-265,0,0,0,0,0,0,0,0,0,-1,1805,1289,0,0
588,-265,0,0,0,0,0,0,0,0,0,-1,1812,1289,0,0
595,-265,0,0,0,0,0,0,0,0,0,-1,1819,1289,0,0
602,-265,81.9779,2.36365,-0.00758277,0.0071558,-0.000586349,0.00717909,-0.00760606,-1.5311,0.00853739,0.0278293,1826,1289,81.9779,-2.36365
609,-265,81.9316,2.29785,-0.00991905,0.00894658,0.000587677,0.00896487,-0.00993734,1.53969,0.010918,0.0273766,1833,1289,81.9316,-2.29789
616,-265,81.8856,2.28613,-0.0121056,0.0106443,0.00174292,0.0107771,-0.0122384,1.49478,0.0132969,0.0327449,1840,1289,81.8857,-2.28615
623,-265,81.7571,2.16699,-0.0120275,0.0105197,0.0021134,0.0107161,-0.0122239,1.47814,0.013254,0.0471743,1847,1289,81.7571,-2.16703
630,-265,81.6228,1.95593,-0.0105216,0.00897299,0.00208526,0.00919355,-0.0107422,1.46542,0.0115214,0.0475705,1854,1289,81.6228,-1.95588
637,-265,81.8632,2.25818,0,0,0,0,0,0,0,-1,1861,1289,81.8632,-2.25816
644,-265,77.3746,2.97742,0,0,0,0,0,0,0,-1,1868,1289,77.3746,-2.97738
651,-265,53.6781,1.57166,0,0,0,0,0,0,0,-1,1875,1289,53.6781,-1.57167
658,-265,41.7163,3.71619,0,0,0,0,0,0,0,-1,1882,1289,41.7163,-3.71624
665,-265,34.7902,1.43164,0,0,0,0,0,0,0,-1,1889,1289,34.7901,-1.43162
672,-265,20.0045,6.62671,0,0,0,0,0,0,0,-1,1896,1289,20.0045,-6.62668
679,-265,48.9694,14.0298,0,0,0,0,0,0,0,-1,1903,1289,48.9694,-14.0297
686,-265,57.9712,16.603,0,0,0,0,0,0,0,-1,1910,1289,57.9712,-16.603
693,-265,57.9307,15.5787,-0.000521796,4.34774e-05,0.000481827,0.000319446,-0.000797765,1.05065,0.000664436,0.0239866,1917,1289,57.9307,-15.5787
700,-265,57.8982,14.687,0.000497826,-0.000160731,0.000317438,0.000625922,-0.000288827,0.383546,0.000539951,0.0114119,1924,1289,57.8982,-14.687
707,-265,57.861,13.8352,9.48347e-05,-0.000126832,0.000557935,0.000552838,-0.000584836,0.68735,0.000656923,0.0114455,1931,1289,57.8609,-13.8352
714,-265,57.8086,13.0117,-0.000473748,0.00024435,0.000703555,0.000675178,-0.000904577,1.02134,0.000915272,0.0147052,1938,1289,57.8086,-13.0117
721,-265,57.7034,12.1509,-0.00111273,0.000661536,0.000804619,0.000972074,-0.00142327,1.20247,0.00139111,0.0171161,1945,1289,57.7034,-12.1509
728,-265,57.6439,11.3495,-0.001863,0.00113273,0.000881143,0.00137268,-0.00210295,1.30492,0.00202137,0.0168387,1952,1289,57.6439,-11.3494
735,-265,57.7161,10.5111,-0.00278822,0.00168307,0.000954961,0.00187849,-0.00298364,1.36895,0.00283122,0.016892,1959,1289,57.7161,-10.5111
742,-265,57.6523,9.69092,-0.00390188,0.00232155,0.00103039,0.00248771,-0.00406805,1.41091,0.00382145,0.0212428,1966,1289,57.6523,-9.69097
749,-265,57.6853,8.7793,-0.00523824,0.00308931,0.0010761,0.00322612,-0.00537504,1.44434,0.00501728,0.0481171,1973,1289,57.6853,-8.77929
756,-265,57.9016,7.80188,0,0,0,0,0,0,0,-1,1980,1289,57.9016,-7.80191
763,-265,39.1299,4.9679,0,0,0,0,0,0,0,-1,1987,1289,39.1299,-4.96791
770,-265,35.1674,5.07715,0,0,0,0,0,0,0,-1,1994,1289,35.1673,-5.07718
777,-265,32.1664,5.3457,0,0,0,0,0,0,0,-1,2001,1289,32.1664,-5.34568
784,-265,0,0,0,0,0,0,0,0,0,-1,2008,1289,0,0
791,-265,0,0,0,0,0,0,0,0,0,-1,2015,1289,0,0
798,-265,0,0,0,0,0,0,0,0,0,-1,2022,1289,0,0
805,-265,0,0,0,0,0,0,0,0,0,-1,2029,1289,0,0
812,-265,0,0,0,0,0,0,0,0,0,-1,2036,1289,0,0
-700,-272,0,0,0,0,0,0,0,0,0,-1,524,1296,0,0
-693,-272,0,0,0,0,0,0,0,0,0,-1,531,1296,0,0
-686,-272,0,0,0,0,0,0,0,0,0,-1,538,1296,0,0
-679,-272,0,0,0,0,0,0,0,0,0,-1,545,1296,0,0
-672,-272,0,0,0,0,0,0,0,0,0,-1,552,1296,0,0
-665,-272,0,0,0,0,0,0,0,0,0,-1,559,1296,0,0
-658,-272,-44.6526,1.54443,0,0,0,0,0,0,0,-1,566,1296,-44.6526,-1.5444
-651,-272,-44.3723,1.53772,0,0,0,0,0,0,0,-1,573,1296,-44.3723,-1.53774
-644,-272,-44.1104,1.46021,0,0,0,0,0,0,0,-1,580,1296,-44.1104,-1.46022
-637,-272,-43.9348,1.25171,0,0,0,0,0,0,0,-1,587,1296,-43.9348,-1.25175
-630,-272,-43.5906,0.784912,0,0,0,0,0,0,0,-1,594,1296,-43.5906,-0.784935
-623,-272,-36.8673,6.23547,0,0,0,0,0,0,0,-1,601,1296,-36.8673,-6.23548
-616,-272,-39.795,8.30603,0,0,0,0,0,0,0,-1,608,1296,-39.795,-8.30605
-609,-272,-39.9489,9.73572,0.0071549,0.004524,0.00440679,0.0104384,0.00124052,0.640356,0.00658448,0.028408,615,1296,-39.9489,-9.7357
-602,-272,-39.9886,10.455,0.00442567,0.00323312,0.00287404,0.00676463,0.000894149,0.683115,0.00424323,0.0164856,622,1296,-39.9886,-10.4549
-595,-272,-40.05,11.3531,0.0020747,0.0019661,0.00138238,0.00340384,0.000636956,0.765768,0.00208953,0.0125981,629,1296,-40.05,-11.3531
-588,-272,-40.115,12.2205,0.000131332,0.000868028,0.00014232,0.000894567,0.000104793,1.38644,0.000564697,0.0117044,636,1296,-40.115,-12.2205
-581,-272,-40.1971,13.0573,-0.00154961,-0.000153012,-0.000928264,0.000310282,-0.0020129,-1.10787,0.00145642,0.0114142,643,1296,-40.1971,-13.0572
-574,-272,-40.2374,13.9355,-0.00297737,-0.00111537,-0.00183481,1.11274e-05,-0.00410386,-1.02018,0.00273962,0.0159419,650,1296,-40.2374,-13.9356
-567,-272,-40.3167,14.7548,-0.00403073,-0.00203541,-0.00253966,-0.000304481,-0.00576166,-0.972555,0.00374374,0.0238142,657,1296,-40.3166,-14.7547
-560,-272,-40.6121,15.5859,-0.00431079,-0.00242909,-0.0027051,-0.000505889,-0.00623399,-0.952757,0.00399805,0.0310319,664,1296,-40.6121,-15.5859
-553,-272,-40.7088,16.4749,-0.00363884,-0.00264387,-0.00232974,-0.000759096,-0.00552362,-0.890588,0.00345727,0.0447276,671,1296,-40.7088,-16.4748
-546,-272,-41.0265,17.4996,0,0,0,0,0,0,0,-1,678,1296,-41.0265,-17.4996
-539,-272,-24.1416,11.0325,0,0,0,0,0,0,0,-1,685,1296,-24.1416,-11.0324
-532,-272,-10.5572,4.53943,0,0,0,0,0,0,0,-1,692,1296,-10.5572,-4.53943
-525,-272,-11.9599,0.0393066,0,0,0,0,0,0,0,-1,699,1296,-11.9599,-0.0393577
-518,-272,-21.1357,-1.41382,0,0,0,0,0,0,0,-1,706,1296,-21.1357,1.41379
-511,-272,-23.2565,0.226318,0,0,0,0,0,0,0,-1,713,1296,-23.2565,-0.22626
-504,-272,-19.7397,0.114746,0,0,0,0,0,0,0,-1,720,1296,-19.7397,-0.114701
-497,-272,-19.2225,1.71301,0,0,0,0,0,0,0,-1,727,1296,-19.2225,-1.71302
-490,-272,-20.1948,2.4032,0,0,0,0,0,0,0,-1,734,1296,-20.1948,-2.40322
-483,-272,-15.3736,0.792603,0,0,0,0,0,0,0,-1,741,1296,-15.3736,-0.79263
-476,-272,0,0,0,0,0,0,0,0,0,-1,748,1296,0,0
-469,-272,0,0,0,0,0,0,0,0,0,-1,755,1296,0,0
-462,-272,0,0,0,0,0,0,0,0,0,-1,762,1296,0,0
-455,-272,0,0,0,0,0,0,0,0,0,-1,769,1296,0,0
-448,-272,0,0,0,0,0,0,0,0,0,-1,776,1296,0,0
-441,-272,0,0,0,0,0,0,0,0,0,-1,783,1296,0,0
-434,-272,0,0,0,0,0,0,0,0,0,-1,790,1296,0,0
-427,-272,0,0,0,0,0,0,0,0,0,-1,797,1296,0,0
-420,-272,0,0,0,0,0,0,0,0,0,-1,804,1296,0,0
-413,-272,0,0,0,0,0,0,0,0,0,-1,811,1296,0,0
-406,-272,0,0,0,0,0,0,0,0,0,-1,818,1296,0,0
-399,-272,0,0,0,0,0,0,0,0,0,-1,825,1296,0,0
-392,-272,0,0,0,0,0,0,0,0,0,-1,832,1296,0,0
-385,-272,0,0,0,0,0,0,0,0,0,-1,839,1296,0,0
-378,-272,0,0,0,0,0,0,0,0,0,-1,846,1296,0,0
-371,-272,0,0,0,0,0,0,0,0,0,-1,853,1296,0,0
-364,-272,0,0,0,0,0,0,0,0,0,-1,860,1296,0,0
-357,-272,0,0,0,0,0,0,0,0,0,-1,867,1296,0,0
-350,-272,0,0,0,0,0,0,0,0,0,-1,874,1296,0,0
-343,-272,0,0,0,0,0,0,0,0,0,-1,881,1296,0,0
-336,-272,0,0,0,0,0,0,0,0,0,-1,888,1296,0,0
-329,-272,0,0,0,0,0,0,0,0,0,-1,895,1296,0,0
-322,-272,0,0,0,0,0,0,0,0,0,-1,902,1296,0,0
-315,-272,0,0,0,0,0,0,0,0,0,-1,909,1296,0,0
-308,-272,0,0,0,0,0,0,0,0,0,-1,916,1296,0,0
-301,-272,0,0,0,0,0,0,0,0,0,-1,923,1296,0,0
-294,-272,0,0,0,0,0,0,0,0,0,-1,930,1296,0,0
-287,-272,0,0,0,0,0,0,0,0,0,-1,937,1296,0,0
-280,-272,0,0,0,0,0,0,0,0,0,-1,944,1296,0,0
-273,-272,0,0,0,0,0,0,0,0,0,-1,951,1296,0,0
-266,-272,0,0,0,0,0,0,0,0,0,-1,958,1296,0,0
-259,-272,0,0,0,0,0,0,0,0,0,-1,965,1296,0,0
-252,-272,0,0,0,0,0,0,0,0,0,-1,972,1296,0,0
-245,-272,0,0,0,0,0,0,0,0,0,-1,979,1296,0,0
-238,-272,0,0,0,0,0,0,0,0,0,-1,986,1296,0,0
-231,-272,0,0,0,0,0,0,0,0,0,-1,993,1296,0,0
-224,-272,0,0,0,0,0,0,0,0,0,-1,1000,1296,0,0
-217,-272,0,0,0,0,0,0,0,0,0,-1,1007,1296,0,0
-210,-272,0,0,0,0,0,0,0,0,0,-1,1014,1296,0,0
-203,-272,0,0,0,0,0,0,0,0,0,-1,1021,1296,0,0
-196,-272,0,0,0,0,0,0,0,0,0,-1,1028,1296,0,0
-189,-272,0,0,0,0,0,0,0,0,0,-1,1035,1296,0,0
-182,-272,0,0,0,0,0,0,0,0,0,-1,1042,1296,0,0
-175,-272,0,0,0,0,0,0,0,0,0,-1,1049,1296,0,0
-168,-272,0,0,0,0,0,0,0,0,0,-1,1056,1296,0,0
-161,-272,0,0,0,0,0,0,0,0,0,-1,1063,1296,0,0
-154,-272,0,0,0,0,0,0,0,0,0,-1,1070,1296,0,0
-147,-272,0,0,0,0,0,0,0,0,0,-1,1077,1296,0,0
-140,-272,0,0,0,0,0,0,0,0,0,-1,1084,1296,0,0
-133,-272,0,0,0,0,0,0,0,0,0,-1,1091,1296,0,0
-126,-272,0,0,0,0,0,0,0,0,0,-1,1098,1296,0,0
-119,-272,0,0,0,0,0,0,0,0,0,-1,1105,1296,0,0
-112,-272,0,0,0,0,0,0,0,0,0,-1,1112,1296,0,0
-105,-272,0,0,0,0,0,0,0,0,0,-1,1119,1296,0,0
-98,-272,0,0,0,0,0,0,0,0,0,-1,1126,1296,0,0
-91,-272,0,0,0,0,0,0,0,0,0,-1,1133,1296,0,0
-84,-272,0,0,0,0,0,0,0,0,0,-1,1140,1296,0,0
-77,-272,0,0,0,0,0,0,0,0,0,-1,1147,1296,0,0
-70,-272,0,0,0,0,0,0,0,0,0,-1,1154,1296,0,0
-63,-272,0,0,0,0,0,0,0,0,0,-1,1161,1296,0,0
-56,-272,0,0,0,0,0,0,0,0,0,-1,1168,1296,0,0
-49,-272,0,0,0,0,0,0,0,0,0,-1,1175,1296,0,0
-42,-272,0,0,0,0,0,0,0,0,0,-1,1182,1296,0,0
-35,-272,0,0,0,0,0,0,0,0,0,-1,1189,1296,0,0
-28,-272,0,0,0,0,0,0,0,0,0,-1,1196,1296,0,0
-21,-272,0,0,0,0,0,0,0,0,0,-1,1203,1296,0,0
-14,-272,0,0,0,0,0,0,0,0,0,-1,1210,1296,0,0
-7,-272,0,0,0,0,0,0,0,0,0,-1,1217,1296,0,0
0,-272,0,0,0,0,0,0,0,0,0,-1,1224,1296,0,0
7,-272,0,0,0,0,0,0,0,0,0,-1,1231,1296,0,0
14,-272,0,0,0,0,0,0,0,0,0,-1,1238,1296,0,0
21,-272,0,0,0,0,0,0,0,0,0,-1,1245,1296,0,0
28,-272,0,0,0,0,0,0,0,0,0,-1,1252,1296,0,0
35,-272,0,0,0,0,0,0,0,0,0,-1,1259,1296,0,0
42,-272,0,0,0,0,0,0,0,0,0,-1,1266,1296,0,0
49,-272,0,0,0,0,0,0,0,0,0,-1,1273,1296,0,0
56,-272,0,0,0,0,0,0,0,0,0,-1,1280,1296,0,0
63,-272,0,0,0,0,0,0,0,0,0,-1,1287,1296,0,0
70,-272,0,0,0,0,0,0,0,0,0,-1,1294,1296,0,0
77,-272,0,0,0,0,0,0,0,0,0,-1,1301,1296,0,0
84,-272,0,0,0,0,0,0,0,0,0,-1,1308,1296,0,0
91,-272,0,0,0,0,0,0,0,0,0,-1,1315,1296,0,0
98,-272,0,0,0,0,0,0,0,0,0,-1,1322,1296,0,0
105,-272,0,0,0,0,0,0,0,0,0,-1,1329,1296,0,0
112,-272,0,0,0,0,0,0,0,0,0,-1,1336,1296,0,0
119,-272,0,0,0,0,0,0,0,0,0,-1,1343,1296,0,0
126,-272,0,0,0,0,0,0,0,0,0,-1,1350,1296,0,0
133,-272,0,0,0,0,0,0,0,0,0,-1,1357,1296,0,0
140,-272,0,0,0,0,0,0,0,0,0,-1,1364,1296,0,0
147,-272,0,0,0,0,0,0,0,0,0,-1,1371,1296,0,0
154,-272,0,0,0,0,0,0,0,0,0,-1,1378,1296,0,0
161,-272,0,0,0,0,0,0,0,0,0,-1,1385,1296,0,0
168,-272,0,0,0,0,0,0,0,0,0,-1,1392,1296,0,0
175,-272,0,0,0,0,0,0,0,0,0,-1,1399,1296,0,0
182,-272,0,0,0,0,0,0,0,0,0,-1,1406,1296,0,0
189,-272,0,0,0,0,0,0,0,0,0,-1,1413,1296,0,0
196,-272,0,0,0,0,0,0,0,0,0,-1,1420,1296,0,0
203,-272,0,0,0,0,0,0,0,0,0,-1,1427,1296,0,0
210,-272,0,0,0,0,0,0,0,0,0,-1,1434,1296,0,0
217,-272,0,0,0,0,0,0,0,0,0,-1,1441,1296,0,0
224,-272,0,0,0,0,0,0,0,0,0,-1,1448,1296,0,0
231,-272,0,0,0,0,0,0,0,0,0,-1,1455,1296,0,0
238,-272,0,0,0,0,0,0,0,0,0,-1,1462,1296,0,0
245,-272,0,0,0,0,0,0,0,0,0,-1,1469,1296,0,0
252,-272,0,0,0,0,0,0,0,0,0,-1,1476,1296,0,0
259,-272,0,0,0,0,0,0,0,0,0,-1,1483,1296,0,0
266,-272,0,0,0,0,0,0,0,0,0,-1,1490,1296,0,0
273,-272,0,0,0,0,0,0,0,0,0,-1,1497,1296,0,0
280,-272,0,0,0,0,0,0,0,0,0,-1,1504,1296,0,0
287,-272,0,0,0,0,0,0,0,0,0,-1,1511,1296,0,0
294,-272,0,0,0,0,0,0,0,0,0,-1,1518,1296,0,0
301,-272,0,0,0,0,0,0,0,0,0,-1,1525,1296,0,0
308,-272,0,0,0,0,0,0,0,0,0,-1,1532,1296,0,0
315,-272,0,0,0,0,0,0,0,0,0,-1,1539,1296,0,0
322,-272,0,0,0,0,0,0,0,0,0,-1,1546,1296,0,0
329,-272,0,0,0,0,0,0,0,0,0,-1,1553,1296,0,0
336,-272,0,0,0,0,0,0,0,0,0,-1,1560,1296,0,0
343,-272,0,0,0,0,0,0,0,0,0,-1,1567,1296,0,0
350,-272,0,0,0,0,0,0,0,0,0,-1,1574,1296,0,0
357,-272,0,0,0,0,0,0,0,0,0,-1,1581,1296,0,0
364,-272,0,0,0,0,0,0,0,0,0,-1,1588,1296,0,0
371,-272,0,0,0,0,0,0,0,0,0,-1,1595,1296,0,0
378,-272,0,0,0,0,0,0,0,0,0,-1,1602,1296,0,0
385,-272,0,0,0,0,0,0,0,0,0,-1,1609,1296,0,0
392,-272,0,0,0,0,0,0,0,0,0,-1,1616,1296,0,0
399,-272,0,0,0,0,0,0,0,0,0,-1,1623,1296,0,0
406,-272,0,0,0,0,0,0,0,0,0,-1,1630,1296,0,0
413,-272,0,0,0,0,0,0,0,0,0,-1,1637,1296,0,0
420,-272,0,0,0,0,0,0,0,0,0,-1,1644,1296,0,0
427,-272,0,0,0,0,0,0,0,0,0,-1,1651,1296,0,0
434,-272,0,0,0,0,0,0,0,0,0,-1,1658,1296,0,0
441,-272,0,0,0,0,0,0,0,0,0,-1,1665,1296,0,0
448,-272,0,0,0,0,0,0,0,0,0,-1,1672,1296,0,0
455,-272,0,0,0,0,0,0,0,0,0,-1,1679,1296,0,0
462,-272,0,0,0,0,0,0,0,0,0,-1,1686,1296,0,0
469,-272,0,0,0,0,0,0,0,0,0,-1,1693,1296,0,0
476,-272,0,0,0,0,0,0,0,0,0,-1,1700,1296,0,0
483,-272,0,0,0,0,0,0,0,0,0,-1,1707,1296,0,0
490,-272,0,0,0,0,0,0,0,0,0,-1,1714,1296,0,0
497,-272,0,0,0,0,0,0,0,0,0,-1,1721,1296,0,0
504,-272,0,0,0,0,0,0,0,0,0,-1,1728,1296,0,0
511,-272,0,0,0,0,0,0,0,0,0,-1,1735,1296,0,0
518,-272,0,0,0,0,0,0,0,0,0,-1,1742,1296,0,0
525,-272,0,0,0,0,0,0,0,0,0,-1,1749,1296,0,0
532,-272,0,0,0,0,0,0,0,0,0,-1,1756,1296,0,0
539,-272,0,0,0,0,0,0,0,0,0,-1,1763,1296,0,0
546,-272,0,0,0,0,0,0,0,0,0,-1,1770,1296,0,0
553,-272,0,0,0,0,0,0,0,0,0,-1,1777,1296,0,0
560,-272,0,0,0,0,0,0,0,0,0,-1,1784,1296,0,0
567,-272,0,0,0,0,0,0,0,0,0,-1,1791,1296,0,0
574,-272,0,0,0,0,0,0,0,0,0,-1,1798,1296,0,0
581,-272,0,0,0,0,0,0,0,0,0,-1,1805,1296,0,0
588,-272,0,0,0,0,0,0,0,0,0,-1,1812,1296,0,0
595,-272,0,0,0,0,0,0,0,0,0,-1,1819,1296,0,0
602,-272,81.9114,2.29944,-0.0109275,0.0101463,-0.000111263,0.0101469,-0.0109281,-1.56552,0.0121705,0.033805,1826,1296,81.9113,-2.29944
609,-272,81.8402,2.19263,-0.0136241,0.0119875,0.00125035,0.0120484,-0.013685,1.52213,0.0148672,0.039191,1833,1296,81.8402,-2.19261
616,-272,81.8608,2.20435,-0.0149796,0.012851,0.0022709,0.0130351,-0.0151637,1.48991,0.016296,0.0465468,1840,1296,81.8609,-2.20438
623,-272,81.4771,2.06445,-0.0125781,0.0110022,0.00194579,0.0111617,-0.0127376,1.48902,0.0138083,0.0475064,1847,1296,81.4771,-2.0644
630,-272,81.5063,1.69946,0,0,0,0,0,0,0,-1,1854,1296,81.5063,-1.69943
637,-272,81.689,1.84167,0,0,0,0,0,0,0,-1,1861,1296,81.6889,-1.84169
644,-272,53.563,1.44336,0,0,0,0,0,0,0,-1,1868,1296,53.5629,-1.4433
651,-272,41.9225,4.27161,0,0,0,0,0,0,0,-1,1875,1296,41.9225,-4.27157
658,-272,35.1527,2.10571,0,0,0,0,0,0,0,-1,1882,1296,35.1527,-2.10573
665,-272,22.0238,4.14417,0,0,0,0,0,0,0,-1,1889,1296,22.0238,-4.14421
672,-272,22.661,7.21765,0,0,0,0,0,0,0,-1,1896,1296,22.661,-7.21761
679,-272,51.5885,15.1158,0,0,0,0,0,0,0,-1,1903,1296,51.5885,-15.1159
686,-272,56.9872,16.4734,0,0,0,0,0,0,0,-1,1910,1296,56.9872,-16.4734
693,-272,57.0558,15.6205,-0.000164058,-2.88769e-05,0.000156209,7.37375e-05,-0.000266673,0.989583,0.000206791,0.0143267,1917,1296,57.0557,-15.6205
700,-272,57.0566,14.76,0.000700373,-9.77257e-05,6.32984e-05,0.000705362,-0.000102715,0.0786561,0.000507953,0.012621,1924,1296,57.0566,-14.76
707,-272,57.011,13.8932,0.000329116,5.39808e-05,0.000315153,0.000535418,-0.000152321,0.579609,0.000417096,0.0119878,1931,1296,57.011,-13.8932
714,-272,56.9454,13.0502,-0.000176458,0.000423505,0.000465342,0.000677177,-0.00043013,1.0717,0.000644586,0.0153051,1938,1296,56.9454,-13.0502
721,-272,56.8661,12.2502,-0.000748073,0.000837805,0.000545691,0.00100743,-0.000917699,1.26942,0.00111188,0.0200037,1945,1296,56.8661,-12.2502
728,-272,56.845,11.3585,-0.00142271,0.00132238,0.000566934,0.00143486,-0.00153518,1.37494,0.00171508,0.0208528,1952,1296,56.845,-11.3585
735,-272,56.8335,10.5358,-0.00226819,0.00189944,0.000547263,0.0019701,-0.00233886,1.44238,0.00249082,0.0174484,1959,1296,56.8335,-10.5357
742,-272,56.535,9.7699,0,0,0,0,0,0,0,-1,1966,1296,56.535,-9.76985
749,-272,56.8419,8.64465,0,0,0,0,0,0,0,-1,1973,1296,56.8419,-8.64468
756,-272,57.1488,7.51953,0,0,0,0,0,0,0,-1,1980,1296,57.1488,-7.51951
763,-272,34.3995,5.88416,0,0,0,0,0,0,0,-1,1987,1296,34.3996,-5.88419
770,-272,25.9485,3.67749,0,0,0,0,0,0,0,-1,1994,1296,25.9485,-3.67744
777,-272,32.3619,6.13257,0,0,0,0,0,0,0,-1,2001,1296,32.362,-6.1326
784,-272,0,0,0,0,0,0,0,0,0,-1,2008,1296,0,0
791,-272,0,0,0,0,0,0,0,0,0,-1,2015,1296,0,0
798,-272,0,0,0,0,0,0,0,0,0,-1,2022,1296,0,0
805,-272,0,0,0,0,0,0,0,0,0,-1,2029,1296,0,0
812,-272,0,0,0,0,0,0,0,0,0,-1,2036,1296,0,0
-700,-279,0,0,0,0,0,0,0,0,0,-1,524,1303,0,0
-693,-279,0,0,0,0,0,0,0,0,0,-1,531,1303,0,0
-686,-279,0,0,0,0,0,0,0,0,0,-1,538,1303,0,0
-679,-279,0,0,0,0,0,0,0,0,0,-1,545,1303,0,0
-672,-279,0,0,0,0,0,0,0,0,0,-1,552,1303,0,0
-665,-279,0,0,0,0,0,0,0,0,0,-1,559,1303,0,0
-658,-279,-44.3733,1.65881,0,0,0,0,0,0,0,-1,566,1303,-44.3733,-1.65883
-651,-279,-44.1603,1.61462,0,0,0,0,0,0,0,-1,573,1303,-44.1604,-1.61462
-644,-279,-43.8069,1.50903,0,0,0,0,0,0,0,-1,580,1303,-43.8069,-1.50909
-637,-279,-43.2951,1.33704,0,0,0,0,0,0,0,-1,587,1303,-43.2951,-1.33703
-630,-279,-42.6152,1.22852,0,0,0,0,0,0,0,-1,594,1303,-42.6152,-1.22856
-623,-279,-41.8359,0.907715,0,0,0,0,0,0,0,-1,601,1303,-41.8358,-0.907688
-616,-279,-36.7089,8.0625,0,0,0,0,0,0,0,-1,608,1303,-36.7089,-8.06252
-609,-279,-39.3555,10.0291,0,0,0,0,0,0,0,-1,615,1303,-39.3555,-10.0291
-602,-279,-39.0975,10.51,0.00543318,0.00401479,0.00367991,0.00847161,0.000976366,0.690205,0.00535205,0.0164491,622,1303,-39.0975,-10.51
-595,-279,-39.1855,11.395,0.00300538,0.00261248,0.00208064,0.00489882,0.000719039,0.738329,0.00305454,0.0117965,629,1303,-39.1855,-11.395
-588,-279,-39.259,12.2783,0.00110961,0.00143982,0.000807886,0.0020993,0.000450133,0.886193,0.00127623,0.0130054,636,1303,-39.2591,-12.2783
-581,-279,-39.3183,13.1174,-0.000409513,0.000381899,-0.000224136,0.000440968,-0.000468582,-1.31311,0.000525209,0.0137535,643,1303,-39.3183,-13.1174
-574,-279,-39.367,13.9788,-0.0016036,-0.000584572,-0.0010519,7.4718e-05,-0.00226289,-1.01093,0.0015341,0.013316,650,1303,-39.367,-13.9787
-567,-279,-39.4232,14.8477,-0.00240086,-0.0014654,-0.00165398,-0.000214287,-0.00365198,-0.923196,0.00236646,0.0186012,657,1303,-39.4232,-14.8477
-560,-279,-39.5502,15.8113,-0.00254319,-0.00204143,-0.00186426,-0.000411249,-0.00417338,-0.852283,0.0026558,0.0219934,664,1303,-39.5502,-15.8113
-553,-279,-39.6344,16.7095,-0.00189014,-0.00250771,-0.00167198,-0.000498672,-0.00389918,-0.694085,0.0024502,0.0305842,671,1303,-39.6344,-16.7095
-546,-279,-39.6606,17.5953,0,0,0,0,0,0,0,-1,678,1303,-39.6606,-17.5954
-539,-279,-39.3101,18.021,0,0,0,0,0,0,0,-1,685,1303,-39.3101,-18.021
-532,-279,-14.9813,7.89917,0,0,0,0,0,0,0,-1,692,1303,-14.9813,-7.89918
-525,-279,-11.7063,-0.539185,0,0,0,0,0,0,0,-1,699,1303,-11.7063,0.539166
-518,-279,-16.8138,1.11963,0,0,0,0,0,0,0,-1,706,1303,-16.8138,-1.11968
-511,-279,-20.1063,-1.37915,0,0,0,0,0,0,0,-1,713,1303,-20.1062,1.37918
-504,-279,-18.3766,1.04578,0,0,0,0,0,0,0,-1,720,1303,-18.3767,-1.04577
-497,-279,-19.0046,2.08911,0,0,0,0,0,0,0,-1,727,1303,-19.0046,-2.08905
-490,-279,-20.0176,2.55188,0,0,0,0,0,0,0,-1,734,1303,-20.0176,-2.55183
-483,-279,-20.8064,2.99792,0,0,0,0,0,0,0,-1,741,1303,-20.8064,-2.99797
-476,-279,0,0,0,0,0,0,0,0,0,-1,748,1303,0,0
-469,-279,0,0,0,0,0,0,0,0,0,-1,755,1303,0,0
-462,-279,0,0,0,0,0,0,0,0,0,-1,762,1303,0,0
-455,-279,0,0,0,0,0,0,0,0,0,-1,769,1303,0,0
-448,-279,0,0,0,0,0,0,0,0,0,-1,776,1303,0,0
-441,-279,0,0,0,0,0,0,0,0,0,-1,783,1303,0,0
-434,-279,0,0,0,0,0,0,0,0,0,-1,790,1303,0,0
-427,-279,0,0,0,0,0,0,0,0,0,-1,797,1303,0,0
-420,-279,0,0,0,0,0,0,0,0,0,-1,804,1303,0,0
-413,-279,0,0,0,0,0,0,0,0,0,-1,811,1303,0,0
-406,-279,0,0,0,0,0,0,0,0,0,-1,818,1303,0,0
-399,-279,0,0,0,0,0,0,0,0,0,-1,825,1303,0,0
-392,-279,0,0,0,0,0,0,0,0,0,-1,832,1303,0,0
-385,-279,0,0,0,0,0,0,0,0,0,-1,839,1303,0,0
-378,-279,0,0,0,0,0,0,0,0,0,-1,846,1303,0,0
-371,-279,0,0,0,0,0,0,0,0,0,-1,853,1303,0,0
-364,-279,0,0,0,0,0,0,0,0,0,-1,860,1303,0,0
-357,-279,0,0,0,0,0,0,0,0,0,-1,867,1303,0,0
-350,-279,0,0,0,0,0,0,0,0,0,-1,874,1303,0,0
-343,-279,0,0,0,0,0,0,0,0,0,-1,881,1303,0,0
-336,-279,0,0,0,0,0,0,0,0,0,-1,888,1303,0,0
-329,-279,0,0,0,0,0,0,0,0,0,-1,895,1303,0,0
-322,-279,0,0,0,0,0,0,0,0,0,-1,902,1303,0,0
-315,-279,0,0,0,0,0,0,0,0,0,-1,909,1303,0,0
-308,-279,0,0,0,0,0,0,0,0,0,-1,916,1303,0,0
-301,-279,0,0,0,0,0,0,0,0,0,-1,923,1303,0,0
-294,-279,0,0,0,0,0,0,0,0,0,-1,930,1303,0,0
-287,-279,0,0,0,0,0,0,0,0,0,-1,937,1303,0,0
-280,-279,0,0,0,0,0,0,0,0,0,-1,944,1303,0,0
-273,-279,0,0,0,0,0,0,0,0,0,-1,951,1303,0,0
-266,-279,0,0,0,0,0,0,0,0,0,-1,958,1303,0,0
-259,-279,0,0,0,0,0,0,0,0,0,-1,965,1303,0,0
-252,-279,0,0,0,0,0,0,0,0,0,-1,972,1303,0,0
-245,-279,0,0,0,0,0,0,0,0,0,-1,979,1303,0,0
-238,-279,0,0,0,0,0,0,0,0,0,-1,986,1303,0,0
-231,-279,0,0,0,0,0,0,0,0,0,-1,993,1303,0,0
-224,-279,0,0,0,0,0,0,0,0,0,-1,1000,1303,0,0
-217,-279,0,0,0,0,0,0,0,0,0,-1,1007,1303,0,0
-210,-279,0,0,0,0,0,0,0,0,0,-1,1014,1303,0,0
-203,-279,0,0,0,0,0,0,0,0,0,-1,1021,1303,0,0
-196,-279,0,0,0,0,0,0,0,0,0,-1,1028,1303,0,0
-189,-279,0,0,0,0,0,0,0,0,0,-1,1035,1303,0,0
-182,-279,0,0,0,0,0,0,0,0,0,-1,1042,1303,0,0
-175,-279,0,0,0,0,0,0,0,0,0,-1,1049,1303,0,0
-168,-279,0,0,0,0,0,0,0,0,0,-1,1056,1303,0,0
-161,-279,0,0,0,0,0,0,0,0,0,-1,1063,1303,0,0
-154,-279,0,0,0,0,0,0,0,0,0,-1,1070,1303,0,0
-147,-279,0,0,0,0,0,0,0,0,0,-1,1077,1303,0,0
-140,-279,0,0,0,0,0,0,0,0,0,-1,1084,1303,0,0
-133,-279,0,0,0,0,0,0,0,0,0,-1,1091,1303,0,0
-126,-279,0,0,0,0,0,0,0,0,0,-1,1098,1303,0,0
-119,-279,0,0,0,0,0,0,0,0,0,-1,1105,1303,0,0
-112,-279,0,0,0,0,0,0,0,0,0,-1,1112,1303,0,0
-105,-279,0,0,0,0,0,0,0,0,0,-1,1119,1303,0,0
-98,-279,0,0,0,0,0,0,0,0,0,-1,1126,1303,0,0
-91,-279,0,0,0,0,0,0,0,0,0,-1,1133,1303,0,0
-84,-279,0,0,0,0,0,0,0,0,0,-1,1140,1303,0,0
-77,-279,0,0,0,0,0,0,0,0,0,-1,1147,1303,0,0
-70,-279,0,0,0,0,0,0,0,0,0,-1,1154,1303,0,0
-63,-279,0,0,0,0,0,0,0,0,0,-1,1161,1303,0,0
-56,-279,0,0,0,0,0,0,0,0,0,-1,1168,1303,0,0
-49,-279,0,0,0,0,0,0,0,0,0,-1,1175,1303,0,0
-42,-279,0,0,0,0,0,0,0,0,0,-1,1182,1303,0,0
-35,-279,0,0,0,0,0,0,0,0,0,-1,1189,1303,0,0
-28,-279,0,0,0,0,0,0,0,0,0,-1,1196,1303,0,0
-21,-279,0,0,0,0,0,0,0,0,0,-1,1203,1303,0,0
-14,-279,0,0,0,0,0,0,0,0,0,-1,1210,1303,0,0
-7,-279,0,0,0,0,0,0,0,0,0,-1,1217,1303,0,0
0,-279,0,0,0,0,0,0,0,0,0,-1,1224,1303,0,0
7,-279,0,0,0,0,0,0,0,0,0,-1,1231,1303,0,0
14,-279,0,0,0,0,0,0,0,0,0,-1,1238,1303,0,0
21,-279,0,0,0,0,0,0,0,0,0,-1,1245,1303,0,0
28,-279,0,0,0,0,0,0,0,0,0,-1,1252,1303,0,0
35,-279,0,0,0,0,0,0,0,0,0,-1,1259,1303,0,0
42,-279,0,0,0,0,0,0,0,0,0,-1,1266,1303,0,0
49,-279,0,0,0,0,0,0,0,0,0,-1,1273,1303,0,0
56,-279,0,0,0,0,0,0,0,0,0,-1,1280,1303,0,0
63,-279,0,0,0,0,0,0,0,0,0,-1,1287,1303,0,0
70,-279,0,0,0,0,0,0,0,0,0,-1,1294,1303,0,0
77,-279,0,0,0,0,0,0,0,0,0,-1,1301,1303,0,0
84,-279,0,0,0,0,0,0,0,0,0,-1,1308,1303,0,0
91,-279,0,0,0,0,0,0,0,0,0,-1,1315,1303,0,0
98,-279,0,0,0,0,0,0,0,0,0,-1,1322,1303,0,0
105,-279,0,0,0,0,0,0,0,0,0,-1,1329,1303,0,0
112,-279,0,0,0,0,0,0,0,0,0,-1,1336,1303,0,0
119,-279,0,0,0,0,0,0,0,0,0,-1,1343,1303,0,0
126,-279,0,0,0,0,0,0,0,0,0,-1,1350,1303,0,0
133,-279,0,0,0,0,0,0,0,0,0,-1,1357,1303,0,0
140,-279,0,0,0,0,0,0,0,0,0,-1,1364,1303,0,0
147,-279,0,0,0,0,0,0,0,0,0,-1,1371,1303,0,0
154,-279,0,0,0,0,0,0,0,0,0,-1,1378,1303,0,0
161,-279,0,0,0,0,0,0,0,0,0,-1,1385,1303,0,0
168,-279,0,0,0,0,0,0,0,0,0,-1,1392,1303,0,0
175,-279,0,0,0,0,0,0,0,0,0,-1,1399,1303,0,0
182,-279,0,0,0,0,0,0,0,0,0,-1,1406,1303,0,0
189,-279,0,0,0,0,0,0,0,0,0,-1,1413,1303,0,0
196,-279,0,0,0,0,0,0,0,0,0,-1,1420,1303,0,0
203,-279,0,0,0,0,0,0,0,0,0,-1,1427,1303,0,0
210,-279,0,0,0,0,0,0,0,0,0,-1,1434,1303,0,0
217,-279,0,0,0,0,0,0,0,0,0,-1,1441,1303,0,0
224,-279,0,0,0,0,0,0,0,0,0,-1,1448,1303,0,0
231,-279,0,0,0,0,0,0,0,0,0,-1,1455,1303,0,0
238,-279,0,0,0,0,0,0,0,0,0,-1,1462,1303,0,0
245,-279,0,0,0,0,0,0,0,0,0,-1,1469,1303,0,0
252,-279,0,0,0,0,0,0,0,0,0,-1,1476,1303,0,0
259,-279,0,0,0,0,0,0,0,0,0,-1,1483,1303,0,0
266,-279,0,0,0,0,0,0,0,0,0,-1,1490,1303,0,0
273,-279,0,0,0,0,0,0,0,0,0,-1,1497,1303,0,0
280,-279,0,0,0,0,0,0,0,0,0,-1,1504,1303,0,0
287,-279,0,0,0,0,0,0,0,0,0,-1,1511,1303,0,0
294,-279,0,0,0,0,0,0,0,0,0,-1,1518,1303,0,0
301,-279,0,0,0,0,0,0,0,0,0,-1,1525,1303,0,0
308,-279,0,0,0,0,0,0,0,0,0,-1,1532,1303,0,0
315,-279,0,0,0,0,0,0,0,0,0,-1,1539,1303,0,0
322,-279,0,0,0,0,0,0,0,0,0,-1,1546,1303,0,0
329,-279,0,0,0,0,0,0,0,0,0,-1,1553,1303,0,0
336,-279,0,0,0,0,0,0,0,0,0,-1,1560,1303,0,0
343,-279,0,0,0,0,0,0,0,0,0,-1,1567,1303,0,0
350,-279,0,0,0,0,0,0,0,0,0,-1,1574,1303,0,0
357,-279,0,0,0,0,0,0,0,0,0,-1,1581,1303,0,0
364,-279,0,0,0,0,0,0,0,0,0,-1,1588,1303,0,0
371,-279,0,0,0,0,0,0,0,0,0,-1,1595,1303,0,0
378,-279,0,0,0,0,0,0,0,0,0,-1,1602,1303,0,0
385,-279,0,0,0,0,0,0,0,0,0,-1,1609,1303,0,0
392,-279,0,0,0,0,0,0,0,0,0,-1,1616,1303,0,0
399,-279,0,0,0,0,0,0,0,0,0,-1,1623,1303,0,0
406,-279,0,0,0,0,0,0,0,0,0,-1,1630,1303,0,0
413,-279,0,0,0,0,0,0,0,0,0,-1,1637,1303,0,0
420,-279,0,0,0,0,0,0,0,0,0,-1,1644,1303,0,0
427,-279,0,0,0,0,0,0,0,0,0,-1,1651,1303,0,0
434,-279,0,0,0,0,0,0,0,0,0,-1,1658,1303,0,0
441,-279,0,0,0,0,0,0,0,0,0,-1,1665,1303,0,0
448,-279,0,0,0,0,0,0,0,0,0,-1,1672,1303,0,0
455,-279,0,0,0,0,0,0,0,0,0,-1,1679,1303,0,0
462,-279,0,0,0,0,0,0,0,0,0,-1,1686,1303,0,0
469,-279,0,0,0,0,0,0,0,0,0,-1,1693,1303,0,0
476,-279,0,0,0,0,0,0,0,0,0,-1,1700,1303,0,0
483,-279,0,0,0,0,0,0,0,0,0,-1,1707,1303,0,0
490,-279,0,0,0,0,0,0,0,0,0,-1,1714,1303,0,0
497,-279,0,0,0,0,0,0,0,0,0,-1,1721,1303,0,0
504,-279,0,0,0,0,0,0,0,0,0,-1,1728,1303,0,0
511,-279,0,0,0,0,0,0,0,0,0,-1,1735,1303,0,0
518,-279,0,0,0,0,0,0,0,0,0,-1,1742,1303,0,0
525,-279,0,0,0,0,0,0,0,0,0,-1,1749,1303,0,0
532,-279,0,0,0,0,0,0,0,0,0,-1,1756,1303,0,0
539,-279,0,0,0,0,0,0,0,0,0,-1,1763,1303,0,0
546,-279,0,0,0,0,0,0,0,0,0,-1,1770,1303,0,0
553,-279,0,0,0,0,0,0,0,0,0,-1,1777,1303,0,0
560,-279,0,0,0,0,0,0,0,0,0,-1,1784,1303,0,0
567,-279,0,0,0,0,0,0,0,0,0,-1,1791,1303,0,0
574,-279,0,0,0,0,0,0,0,0,0,-1,1798,1303,0,0
581,-279,0,0,0,0,0,0,0,0,0,-1,1805,1303,0,0
588,-279,0,0,0,0,0,0,0,0,0,-1,1812,1303,0,0
595,-279,0,0,0,0,0,0,0,0,0,-1,1819,1303,0,0
602,-279,81.9023,2.20349,0,0,0,0,0,0,0,-1,1826,1303,81.9024,-2.20352
609,-279,81.7567,2.04541,0,0,0,0,0,0,0,-1,1833,1303,81.7567,-2.04542
616,-279,81.8546,2.11829,0,0,0,0,0,0,0,-1,1840,1303,81.8546,-2.11823
623,-279,81.4349,1.93616,0,0,0,0,0,0,0,-1,1847,1303,81.4349,-1.9361
630,-279,82.3967,2.03625,0,0,0,0,0,0,0,-1,1854,1303,82.3967,-2.03623
637,-279,73.1141,1.62744,0,0,0,0,0,0,0,-1,1861,1303,73.1142,-1.62742
644,-279,33.5021,3.40234,0,0,0,0,0,0,0,-1,1868,1303,33.5021,-3.40237
651,-279,29.8456,2.3562,0,0,0,0,0,0,0,-1,1875,1303,29.8455,-2.35615
658,-279,21.5076,7.65649,0,0,0,0,0,0,0,-1,1882,1303,21.5076,-7.65648
665,-279,18.9794,6.09607,0,0,0,0,0,0,0,-1,1889,1303,18.9793,-6.09601
672,-279,23.5206,8.32507,0,0,0,0,0,0,0,-1,1896,1303,23.5206,-8.32512
679,-279,55.9185,17.3615,0,0,0,0,0,0,0,-1,1903,1303,55.9184,-17.3615
686,-279,56.1564,16.5248,-9.71469e-05,0.000307635,-0.000160945,0.000363827,-0.00015334,-1.23489,0.000306719,0.0385997,1910,1303,56.1563,-16.5248
693,-279,56.2332,15.6917,0.000294344,-3.0516e-05,-9.00057e-05,0.000317615,-5.37861e-05,-0.253,0.000231762,0.018237,1917,1303,56.2332,-15.6917
700,-279,56.2026,14.8434,0.000926524,3.83711e-05,-0.000128724,0.000944804,2.00908e-05,-0.141068,0.00062328,0.0130688,1924,1303,56.2026,-14.8434
707,-279,56.1411,13.9596,0.000596092,0.000238564,0.000119568,0.000632394,0.000202263,0.29476,0.00037293,0.0101314,1931,1303,56.1411,-13.9596
714,-279,56.0913,13.1101,0.000167653,0.000550183,0.000280048,0.000698047,1.97881e-05,1.085,0.000458911,0.011789,1938,1303,56.0913,-13.1102
721,-279,56.0903,12.2625,-0.000318843,0.00090632,0.000351868,0.00100019,-0.000412708,1.3101,0.00083891,0.0166863,1945,1303,56.0903,-12.2625
728,-279,56.0576,11.425,-0.000910736,0.00134396,0.000333397,0.00139223,-0.000959002,1.42703,0.00136514,0.0186941,1952,1303,56.0576,-11.425
735,-279,55.9532,10.6241,-0.0016777,0.00187705,0.000239088,0.00189305,-0.00169371,1.50394,0.00207188,0.0177345,1959,1303,55.9532,-10.6241
742,-279,55.8473,9.78223,-0.00258018,0.00254687,-1.66323e-05,0.00254693,-0.00258023,-1.56755,0.00296019,0.0272379,1966,1303,55.8473,-9.78219
749,-279,55.9277,8.61902,0,0,0,0,0,0,0,-1,1973,1303,55.9278,-8.61897
756,-279,56.1198,7.4447,0,0,0,0,0,0,0,-1,1980,1303,56.1198,-7.44472
763,-279,27.1613,3.46265,0,0,0,0,0,0,0,-1,1987,1303,27.1613,-3.4627
770,-279,21.5828,3.54199,0,0,0,0,0,0,0,-1,1994,1303,21.5827,-3.54198
777,-279,32.5369,6.99609,0,0,0,0,0,0,0,-1,2001,1303,32.5369,-6.99608
784,-279,0,0,0,0,0,0,0,0,0,-1,2008,1303,0,0
791,-279,0,0,0,0,0,0,0,0,0,-1,2015,1303,0,0
798,-279,0,0,0,0,0,0,0,0,0,-1,2022,1303,0,0
805,-279,0,0,0,0,0,0,0,0,0,-1,2029,1303,0,0
812,-279,0,0,0,0,0,0,0,0,0,-1,2036,1303,0,0
-700,-286,0,0,0,0,0,0,0,0,0,-1,524,1310,0,0
-693,-286,0,0,0,0,0,0,0,0,0,-1,531,1310,0,0
-686,-286,0,0,0,0,0,0,0,0,0,-1,538,1310,0,0
-679,-286,0,0,0,0,0,0,0,0,0,-1,545,1310,0,0
-672,-286,0,0,0,0,0,0,0,0,0,-1,552,1310,0,0
-665,-286,0,0,0,0,0,0,0,0,0,-1,559,1310,0,0
-658,-286,-44.103,1.76782,0,0,0,0,0,0,0,-1,566,1310,-44.103,-1.76778
-651,-286,-43.6417,1.98254,0,0,0,0,0,0,0,-1,573,1310,-43.6416,-1.98254
-644,-286,-43.3175,1.59558,0,0,0,0,0,0,0,-1,580,1310,-43.3175,-1.59556
-637,-286,-42.8448,1.15039,0,0,0,0,0,0,0,-1,587,1310,-42.8448,-1.15043
-630,-286,-42.1176,0.443848,0,0,0,0,0,0,0,-1,594,1310,-42.1176,-0.443802
-623,-286,-41.3121,-0.468384,0,0,0,0,0,0,0,-1,601,1310,-41.3121,0.468376
-616,-286,-22.0634,2.37744,0,0,0,0,0,0,0,-1,608,1310,-22.0633,-2.37746
-609,-286,-38.4232,9.39893,0,0,0,0,0,0,0,-1,615,1310,-38.4232,-9.39898
-602,-286,-38.2712,10.4769,0.00642171,0.00521992,0.00433089,0.0101932,0.00144843,0.716465,0.0063678,0.0249309,622,1310,-38.2712,-10.4769
-595,-286,-38.3405,11.4497,0.00392996,0.00351673,0.00265652,0.00638789,0.0010588,0.746588,0.00395321,0.0139861,629,1310,-38.3405,-11.4497
-588,-286,-38.397,12.3143,0.00208359,0.00213804,0.00139307,0.00350415,0.000717474,0.79517,0.00213747,0.0161293,636,1310,-38.397,-12.3144
-581,-286,-38.4008,13.1746,0.000731239,0.000939756,0.000448761,0.00129621,0.000374785,0.899536,0.000770231,0.0172492,643,1310,-38.4008,-13.1746
-574,-286,-38.4617,14.0437,-0.000238963,-0.000122513,-0.000257823,8.35784e-05,-0.000445054,-0.896452,0.000328129,0.0150306,650,1310,-38.4618,-14.0437
-567,-286,-38.5502,14.9114,-0.000803499,-0.00105293,-0.00072417,-0.000193383,-0.00166305,-0.700126,0.00105019,0.0143689,657,1310,-38.5502,-14.9113
-560,-286,-38.5951,15.8142,-0.000761694,-0.00181072,-0.000859713,-0.000279121,-0.00229329,-0.511491,0.00144483,0.0144863,664,1310,-38.5951,-15.8143
-553,-286,-38.6121,16.7321,-1.13201e-05,-0.00246224,-0.000642186,0.00014675,-0.00262031,-0.241346,0.00179779,0.0147081,671,1310,-38.6121,-16.732
-546,-286,-38.5133,17.6854,0.00145758,-0.00281672,3.93347e-05,0.00145794,-0.00281708,0.00920156,0.00250942,0.0329327,678,1310,-38.5133,-17.6854
-539,-286,-38.5999,18.7488,0,0,0,0,0,0,0,-1,685,1310,-38.5998,-18.7488
-532,-286,-21.6771,10.4924,0,0,0,0,0,0,0,-1,692,1310,-21.6771,-10.4924
-525,-286,-11.4528,-1.11768,0,0,0,0,0,0,0,-1,699,1310,-11.4528,1.11769
-518,-286,-11.0701,1.37329,0,0,0,0,0,0,0,-1,706,1310,-11.0701,-1.37332
-511,-286,-17.7545,-0.0791016,0,0,0,0,0,0,0,-1,713,1310,-17.7544,0.0791606
-504,-286,-18.0455,1.29602,0,0,0,0,0,0,0,-1,720,1310,-18.0455,-1.29601
-497,-286,-18.3367,2.67114,0,0,0,0,0,0,0,-1,727,1310,-18.3366,-2.67118
-490,-286,-19.5795,2.47266,0,0,0,0,0,0,0,-1,734,1310,-19.5795,-2.4727
-483,-286,-19.7277,2.74744,0,0,0,0,0,0,0,-1,741,1310,-19.7277,-2.74747
-476,-286,-20.0391,3.06177,0,0,0,0,0,0,0,-1,748,1310,-20.0391,-3.06178
-469,-286,0,0,0,0,0,0,0,0,0,-1,755,1310,0,0
-462,-286,0,0,0,0,0,0,0,0,0,-1,762,1310,0,0
-455,-286,0,0,0,0,0,0,0,0,0,-1,769,1310,0,0
-448,-286,0,0,0,0,0,0,0,0,0,-1,776,1310,0,0
-441,-286,0,0,0,0,0,0,0,0,0,-1,783,1310,0,0
-434,-286,0,0,0,0,0,0,0,0,0,-1,790,1310,0,0
-427,-286,0,0,0,0,0,0,0,0,0,-1,797,1310,0,0
-420,-286,0,0,0,0,0,0,0,0,0,-1,804,1310,0,0
-413,-286,0,0,0,0,0,0,0,0,0,-1,811,1310,0,0
-406,-286,0,0,0,0,0,0,0,0,0,-1,818,1310,0,0
-399,-286,0,0,0,0,0,0,0,0,0,-1,825,1310,0,0
-392,-286,0,0,0,0,0,0,0,0,0,-1,832,1310,0,0
-385,-286,0,0,0,0,0,0,0,0,0,-1,839,1310,0,0
-378,-286,0,0,0,0,0,0,0,0,0,-1,846,1310,0,0
-371,-286,0,0,0,0,0,0,0,0,0,-1,853,1310,0,0
-364,-286,0,0,0,0,0,0,0,0,0,-1,860,1310,0,0
-357,-286,0,0,0,0,0,0,0,0,0,-1,867,1310,0,0
-350,-286,0,0,0,0,0,0,0,0,0,-1,874,1310,0,0
-343,-286,0,0,0,0,0,0,0,0,0,-1,881,1310,0,0
-336,-286,0,0,0,0,0,0,0,0,0,-1,888,1310,0,0
-329,-286,0,0,0,0,0,0,0,0,0,-1,895,1310,0,0
-322,-286,0,0,0,0,0,0,0,0,0,-1,902,1310,0,0
-315,-286,0,0,0,0,0,0,0,0,0,-1,909,1310,0,0
-308,-286,0,0,0,0,0,0,0,0,0,-1,916,1310,0,0
-301,-286,0,0,0,0,0,0,0,0,0,-1,923,1310,0,0
-294,-286,0,0,0,0,0,0,0,0,0,-1,930,1310,0,0
-287,-286,0,0,0,0,0,0,0,0,0,-1,937,1310,0,0
-280,-286,0,0,0,0,0,0,0,0,0,-1,944,1310,0,0
-273,-286,0,0,0,0,0,0,0,0,0,-1,951,1310,0,0
-266,-286,0,0,0,0,0,0,0,0,0,-1,958,1310,0,0
-259,-286,0,0,0,0,0,0,0,0,0,-1,965,1310,0,0
-252,-286,0,0,0,0,0,0,0,0,0,-1,972,1310,0,0
-245,-286,0,0,0,0,0,0,0,0,0,-1,979,1310,0,0
-238,-286,0,0,0,0,0,0,0,0,0,-1,986,1310,0,0
-231,-286,0,0,0,0,0,0,0,0,0,-1,993,1310,0,0
-224,-286,0,0,0,0,0,0,0,0,0,-1,1000,1310,0,0
-217,-286,0,0,0,0,0,0,0,0,0,-1,1007,1310,0,0
-210,-286,0,0,0,0,0,0,0,0,0,-1,1014,1310,0,0
-203,-286,0,0,0,0,0,0,0,0,0,-1,1021,1310,0,0
-196,-286,0,0,0,0,0,0,0,0,0,-1,1028,1310,0,0
-189,-286,0,0,0,0,0,0,0,0,0,-1,1035,1310,0,0
-182,-286,0,0,0,0,0,0,0,0,0,-1,1042,1310,0,0
-175,-286,0,0,0,0,0,0,0,0,0,-1,1049,1310,0,0
-168,-286,0,0,0,0,0,0,0,0,0,-1,1056,1310,0,0
-161,-286,0,0,0,0,0,0,0,0,0,-1,1063,1310,0,0
-154,-286,0,0,0,0,0,0,0,0,0,-1,1070,1310,0,0
-147,-286,0,0,0,0,0,0,0,0,0,-1,1077,1310,0,0
-140,-286,0,0,0,0,0,0,0,0,0,-1,1084,1310,0,0
-133,-286,0,0,0,0,0,0,0,0,0,-1,1091,1310,0,0
-126,-286,0,0,0,0,0,0,0,0,0,-1,1098,1310,0,0
-119,-286,0,0,0,0,0,0,0,0,0,-1,1105,1310,0,0
-112,-286,0,0,0,0,0,0,0,0,0,-1,1112,1310,0,0
-105,-286,0,0,0,0,0,0,0,0,0,-1,1119,1310,0,0
-98,-286,0,0,0,0,0,0,0,0,0,-1,1126,1310,0,0
-91,-286,0,0,0,0,0,0,0,0,0,-1,1133,1310,0,0
-84,-286,0,0,0,0,0,0,0,0,0,-1,1140,1310,0,0
-77,-286,0,0,0,0,0,0,0,0,0,-1,1147,1310,0,0
-70,-286,0,0,0,0,0,0,0,0,0,-1,1154,1310,0,0
-63,-286,0,0,0,0,0,0,0,0,0,-1,1161,1310,0,0
-56,-286,0,0,0,0,0,0,0,0,0,-1,1168,1310,0,0
-49,-286,0,0,0,0,0,0,0,0,0,-1,1175,1310,0,0
-42,-286,0,0,0,0,0,0,0,0,0,-1,1182,1310,0,0
-35,-286,0,0,0,0,0,0,0,0,0,-1,1189,1310,0,0
-28,-286,0,0,0,0,0,0,0,0,0,-1,1196,1310,0,0
-21,-286,0,0,0,0,0,0,0,0,0,-1,1203,1310,0,0
-14,-286,0,0,0,0,0,0,0,0,0,-1,1210,1310,0,0
-7,-286,0,0,0,0,0,0,0,0,0,-1,1217,1310,0,0
0,-286,0,0,0,0,0,0,0,0,0,-1,1224,1310,0,0
7,-286,0,0,0,0,0,0,0,0,0,-1,1231,1310,0,0
14,-286,0,0,0,0,0,0,0,0,0,-1,1238,1310,0,0
21,-286,0,0,0,0,0,0,0,0,0,-1,1245,1310,0,0
28,-286,0,0,0,0,0,0,0,0,0,-1,1252,1310,0,0
35,-286,0,0,0,0,0,0,0,0,0,-1,1259,1310,0,0
42,-286,0,0,0,0,0,0,0,0,0,-1,1266,1310,0,0
49,-286,0,0,0,0,0,0,0,0,0,-1,1273,1310,0,0
56,-286,0,0,0,0,0,0,0,0,0,-1,1280,1310,0,0
63,-286,0,0,0,0,0,0,0,0,0,-1,1287,1310,0,0
70,-286,0,0,0,0,0,0,0,0,0,-1,1294,1310,0,0
77,-286,0,0,0,0,0,0,0,0,0,-1,1301,1310,0,0
84,-286,0,0,0,0,0,0,0,0,0,-1,1308,1310,0,0
91,-286,0,0,0,0,0,0,0,0,0,-1,1315,1310,0,0
98,-286,0,0,0,0,0,0,0,0,0,-1,1322,1310,0,0
105,-286,0,0,0,0,0,0,0,0,0,-1,1329,1310,0,0
112,-286,0,0,0,0,0,0,0,0,0,-1,1336,1310,0,0
119,-286,0,0,0,0,0,0,0,0,0,-1,1343,1310,0,0
126,-286,0,0,0,0,0,0,0,0,0,-1,1350,1310,0,0
133,-286,0,0,0,0,0,0,0,0,0,-1,1357,1310,0,0
140,-286,0,0,0,0,0,0,0,0,0,-1,1364,1310,0,0
147,-286,0,0,0,0,0,0,0,0,0,-1,1371,1310,0,0
154,-286,0,0,0,0,0,0,0,0,0,-1,1378,1310,0,0
161,-286,0,0,0,0,0,0,0,0,0,-1,1385,1310,0,0
168,-286,0,0,0,0,0,0,0,0,0,-1,1392,1310,0,0
175,-286,0,0,0,0,0,0,0,0,0,-1,1399,1310,0,0
182,-286,0,0,0,0,0,0,0,0,0,-1,1406,1310,0,0
189,-286,0,0,0,0,0,0,0,0,0,-1,1413,1310,0,0
196,-286,0,0,0,0,0,0,0,0,0,-1,1420,1310,0,0
203,-286,0,0,0,0,0,0,0,0,0,-1,1427,1310,0,0
210,-286,0,0,0,0,0,0,0,0,0,-1,1434,1310,0,0
217,-286,0,0,0,0,0,0,0,0,0,-1,1441,1310,0,0
224,-286,0,0,0,0,0,0,0,0,0,-1,1448,1310,0,0
231,-286,0,0,0,0,0,0,0,0,0,-1,1455,1310,0,0
238,-286,0,0,0,0,0,0,0,0,0,-1,1462,1310,0,0
245,-286,0,0,0,0,0,0,0,0,0,-1,1469,1310,0,0
252,-286,0,0,0,0,0,0,0,0,0,-1,1476,1310,0,0
259,-286,0,0,0,0,0,0,0,0,0,-1,1483,1310,0,0
266,-286,0,0,0,0,0,0,0,0,0,-1,1490,1310,0,0
273,-286,0,0,0,0,0,0,0,0,0,-1,1497,1310,0,0
280,-286,0,0,0,0,0,0,0,0,0,-1,1504,1310,0,0
287,-286,0,0,0,0,0,0,0,0,0,-1,1511,1310,0,0
294,-286,0,0,0,0,0,0,0,0,0,-1,1518,1310,0,0
301,-286,0,0,0,0,0,0,0,0,0,-1,1525,1310,0,0
308,-286,0,0,0,0,0,0,0,0,0,-1,1532,1310,0,0
315,-286,0,0,0,0,0,0,0,0,0,-1,1539,1310,0,0
322,-286,0,0,0,0,0,0,0,0,0,-1,1546,1310,0,0
329,-286,0,0,0,0,0,0,0,0,0,-1,1553,1310,0,0
336,-286,0,0,0,0,0,0,0,0,0,-1,1560,1310,0,0
343,-286,0,0,0,0,0,0,0,0,0,-1,1567,1310,0,0
350,-286,0,0,0,0,0,0,0,0,0,-1,1574,1310,0,0
357,-286,0,0,0,0,0,0,0,0,0,-1,1581,1310,0,0
364,-286,0,0,0,0,0,0,0,0,0,-1,1588,1310,0,0
371,-286,0,0,0,0,0,0,0,0,0,-1,1595,1310,0,0
378,-286,0,0,0,0,0,0,0,0,0,-1,1602,1310,0,0
385,-286,0,0,0,0,0,0,0,0,0,-1,1609,1310,0,0
392,-286,0,0,0,0,0,0,0,0,0,-1,1616,1310,0,0
399,-286,0,0,0,0,0,0,0,0,0,-1,1623,1310,0,0
406,-286,0,0,0,0,0,0,0,0,0,-1,1630,1310,0,0
413,-286,0,0,0,0,0,0,0,0,0,-1,1637,1310,0,0
420,-286,0,0,0,0,0,0,0,0,0,-1,1644,1310,0,0
427,-286,0,0,0,0,0,0,0,0,0,-1,1651,1310,0,0
434,-286,0,0,0,0,0,0,0,0,0,-1,1658,1310,0,0
441,-286,0,0,0,0,0,0,0,0,0,-1,1665,1310,0,0
448,-286,0,0,0,0,0,0,0,0,0,-1,1672,1310,0,0
455,-286,0,0,0,0,0,0,0,0,0,-1,1679,1310,0,0
462,-286,0,0,0,0,0,0,0,0,0,-1,1686,1310,0,0
469,-286,0,0,0,0,0,0,0,0,0,-1,1693,1310,0,0
476,-286,0,0,0,0,0,0,0,0,0,-1,1700,1310,0,0
483,-286,0,0,0,0,0,0,0,0,0,-1,1707,1310,0,0
490,-286,0,0,0,0,0,0,0,0,0,-1,1714,1310,0,0
497,-286,0,0,0,0,0,0,0,0,0,-1,1721,1310,0,0
504,-286,0,0,0,0,0,0,0,0,0,-1,1728,1310,0,0
511,-286,0,0,0,0,0,0,0,0,0,-1,1735,1310,0,0
518,-286,0,0,0,0,0,0,0,0,0,-1,1742,1310,0,0
525,-286,0,0,0,0,0,0,0,0,0,-1,1749,1310,0,0
532,-286,0,0,0,0,0,0,0,0,0,-1,1756,1310,0,0
539,-286,0,0,0,0,0,0,0,0,0,-1,1763,1310,0,0
546,-286,0,0,0,0,0,0,0,0,0,-1,1770,1310,0,0
553,-286,0,0,0,0,0,0,0,0,0,-1,1777,1310,0,0
560,-286,0,0,0,0,0,0,0,0,0,-1,1784,1310,0,0
567,-286,0,0,0,0,0,0,0,0,0,-1,1791,1310,0,0
574,-286,0,0,0,0,0,0,0,0,0,-1,1798,1310,0,0
581,-286,0,0,0,0,0,0,0,0,0,-1,1805,1310,0,0
588,-286,0,0,0,0,0,0,0,0,0,-1,1812,1310,0,0
595,-286,80.5507,2.11548,0,0,0,0,0,0,0,-1,1819,1310,80.5507,-2.11547
602,-286,81.9291,2.06873,0,0,0,0,0,0,0,-1,1826,1310,81.9291,-2.06876
609,-286,82.3813,1.16833,0,0,0,0,0,0,0,-1,1833,1310,82.3814,-1.16838
616,-286,82.333,1.21167,0,0,0,0,0,0,0,-1,1840,1310,82.333,-1.21162
623,-286,82.2847,1.25488,0,0,0,0,0,0,0,-1,1847,1310,82.2847,-1.25486
630,-286,73.3732,1.46594,0,0,0,0,0,0,0,-1,1854,1310,73.3731,-1.46595
637,-286,47.8409,3.69824,0,0,0,0,0,0,0,-1,1861,1310,47.841,-3.69823
644,-286,25.6433,1.33862,0,0,0,0,0,0,0,-1,1868,1310,25.6433,-1.33858
651,-286,25.2507,1.88245,0,0,0,0,0,0,0,-1,1875,1310,25.2508,-1.88245
658,-286,25.9475,9.43689,0,0,0,0,0,0,0,-1,1882,1310,25.9475,-9.43693
665,-286,24.9838,8.03101,0,0,0,0,0,0,0,-1,1889,1310,24.9837,-8.03104
672,-286,40.2175,12.9626,0,0,0,0,0,0,0,-1,1896,1310,40.2175,-12.9627
679,-286,55.4484,17.4098,0,0,0,0,0,0,0,-1,1903,1310,55.4484,-17.4097
686,-286,55.4407,16.5778,0.000300729,0.00016751,-0.000321844,0.000562784,-9.4545e-05,-0.683357,0.000410351,0.0242638,1910,1310,55.4407,-16.5777
693,-286,55.3925,15.7422,0.000623178,2.88455e-06,-0.000250575,0.000711752,-8.56901e-05,-0.339777,0.000505492,0.0181613,1917,1310,55.3924,-15.7421
700,-286,55.3335,14.8613,0.00101526,0.000151735,-0.000219075,0.00106766,9.93356e-05,-0.234773,0.000681082,0.0127268,1924,1310,55.3335,-14.8614
707,-286,55.2795,14.0121,0.000755645,0.000345592,2.73412e-05,0.00075746,0.000343777,0.0662862,0.00043794,0.00925753,1931,1310,55.2796,-14.0121
714,-286,55.2321,13.1726,0.000434406,0.000588483,0.000194489,0.000720636,0.000302253,0.973972,0.000417856,0.00966089,1938,1310,55.2321,-13.1726
721,-286,55.2242,12.3324,6.04523e-05,0.0008811,0.000257665,0.000955293,-1.37409e-05,1.29044,0.000641491,0.0127233,1945,1310,55.2242,-12.3324
728,-286,55.174,11.5031,-0.000418976,0.00126088,0.000200201,0.00128441,-0.000442506,1.4538,0.00103578,0.0162182,1952,1310,55.1739,-11.5031
735,-286,55.1382,10.6658,-0.00108181,0.00171893,3.7257e-05,0.00171943,-0.00108231,1.5575,0.00163147,0.0207005,1959,1310,55.1382,-10.6657
742,-286,55.1039,9.80298,-0.00184722,0.00231977,-0.000388468,0.00235567,-0.00188312,-1.47863,0.00245233,0.0369702,1966,1310,55.1038,-9.80295
749,-286,55.2213,8.57751,0,0,0,0,0,0,0,-1,1973,1310,55.2213,-8.57754
756,-286,24.8226,4.43481,0,0,0,0,0,0,0,-1,1980,1310,24.8227,-4.43479
763,-286,20.6671,3.99683,0,0,0,0,0,0,0,-1,1987,1310,20.6671,-3.99683
770,-286,23.9147,4.45679,0,0,0,0,0,0,0,-1,1994,1310,23.9146,-4.45675
777,-286,0,0,0,0,0,0,0,0,0,-1,2001,1310,0,0
784,-286,0,0,0,0,0,0,0,0,0,-1,2008,1310,0,0
791,-286,0,0,0,0,0,0,0,0,0,-1,2015,1310,0,0
798,-286,0,0,0,0,0,0,0,0,0,-1,2022,1310,0,0
805,-286,0,0,0,0,0,0,0,0,0,-1,2029,1310,0,0
812,-286,0,0,0,0,0,0,0,0,0,-1,2036,1310,0,0
-700,-293,0,0,0,0,0,0,0,0,0,-1,524,1317,0,0
-693,-293,0,0,0,0,0,0,0,0,0,-1,531,1317,0,0
-686,-293,0,0,0,0,0,0,0,0,0,-1,538,1317,0,0
-679,-293,0,0,0,0,0,0,0,0,0,-1,545,1317,0,0
-672,-293,0,0,0,0,0,0,0,0,0,-1,552,1317,0,0
-665,-293,0,0,0,0,0,0,0,0,0,-1,559,1317,0,0
-658,-293,0,0,0,0,0,0,0,0,0,-1,566,1317,0,0
-651,-293,-42.6636,2.1897,0,0,0,0,0,0,0,-1,573,1317,-42.6636,-2.18965
-644,-293,-42.6672,1.56262,0,0,0,0,0,0,0,-1,580,1317,-42.6672,-1.5626
-637,-293,-42.7898,0.963745,0,0,0,0,0,0,0,-1,587,1317,-42.7898,-0.963689
-630,-293,-42.7558,0.296021,0,0,0,0,0,0,0,-1,594,1317,-42.7558,-0.295997
-623,-293,-15.6058,0.229614,0,0,0,0,0,0,0,-1,601,1317,-15.6058,-0.229666
-616,-293,-15.5056,2.17737,0,0,0,0,0,0,0,-1,608,1317,-15.5055,-2.17742
-609,-293,-25.3796,5.07373,0,0,0,0,0,0,0,-1,615,1317,-25.3796,-5.07369
-602,-293,-37.4745,10.5432,0,0,0,0,0,0,0,-1,622,1317,-37.4745,-10.5432
-595,-293,-37.4911,11.4794,0.00496498,0.00437962,0.00306293,0.00774918,0.00159542,0.737765,0.00472497,0.0236509,629,1317,-37.4911,-11.4794
-588,-293,-37.5075,12.3748,0.00298531,0.00283375,0.00180878,0.0047199,0.00109916,0.764462,0.00285172,0.0182231,636,1317,-37.5075,-12.3748
-581,-293,-37.5131,13.2343,0.00166943,0.00157857,0.000952374,0.00257746,0.000670542,0.761566,0.00154411,0.0198396,643,1317,-37.5131,-13.2343
-574,-293,-37.5789,14.1278,0.000818645,0.00051114,0.000360021,0.00105637,0.000273415,0.583588,0.000633104,0.0168751,650,1317,-37.5789,-14.1278
-567,-293,-37.6834,15.0016,0.000422035,-0.000385778,2.89873e-05,0.000423074,-0.000386817,0.0358223,0.000467747,0.0150692,657,1317,-37.6834,-15.0016
-560,-293,-37.7218,15.8944,0.000619527,-0.00112368,-1.18944e-05,0.000619608,-0.00112376,-0.00682287,0.00102046,0.0156829,664,1317,-37.7218,-15.8944
-553,-293,-37.7229,16.7705,0.00147509,-0.00169374,0.000289886,0.00150139,-0.00172004,0.0904799,0.00186132,0.0118973,671,1317,-37.7229,-16.7705
-546,-293,-37.7111,17.6849,0.00305405,-0.00203586,0.00102612,0.00325313,-0.00223494,0.19163,0.00318666,0.0254419,678,1317,-37.7111,-17.6849
-539,-293,-37.6805,18.6006,0,0,0,0,0,0,0,-1,685,1317,-37.6805,-18.6006
-532,-293,-27.4858,13.6715,0,0,0,0,0,0,0,-1,692,1317,-27.4858,-13.6715
-525,-293,-8.20642,3.62256,0,0,0,0,0,0,0,-1,699,1317,-8.20639,-3.6226
-518,-293,-10.1053,0.314209,0,0,0,0,0,0,0,-1,706,1317,-10.1053,-0.314234
-511,-293,-11.6276,0.235352,0,0,0,0,0,0,0,-1,713,1317,-11.6276,-0.235372
-504,-293,-17.9086,1.25427,0,0,0,0,0,0,0,-1,720,1317,-17.9086,-1.25423
-497,-293,-18.8006,1.62122,0,0,0,0,0,0,0,-1,727,1317,-18.8006,-1.62119
-490,-293,-18.8961,1.99255,0,0,0,0,0,0,0,-1,734,1317,-18.8961,-1.99251
-483,-293,-19.0831,2.35498,0,0,0,0,0,0,0,-1,741,1317,-19.0831,-2.35497
-476,-293,-19.5228,2.61243,0,0,0,0,0,0,0,-1,748,1317,-19.5228,-2.61237
-469,-293,0,0,0,0,0,0,0,0,0,-1,755,1317,0,0
-462,-293,0,0,0,0,0,0,0,0,0,-1,762,1317,0,0
-455,-293,0,0,0,0,0,0,0,0,0,-1,769,1317,0,0
-448,-293,0,0,0,0,0,0,0,0,0,-1,776,1317,0,0
-441,-293,0,0,0,0,0,0,0,0,0,-1,783,1317,0,0
-434,-293,0,0,0,0,0,0,0,0,0,-1,790,1317,0,0
-427,-293,0,0,0,0,0,0,0,0,0,-1,797,1317,0,0
-420,-293,0,0,0,0,0,0,0,0,0,-1,804,1317,0,0
-413,-293,0,0,0,0,0,0,0,0,0,-1,811,1317,0,0
-406,-293,0,0,0,0,0,0,0,0,0,-1,818,1317,0,0
-399,-293,0,0,0,0,0,0,0,0,0,-1,825,1317,0,0
-392,-293,0,0,0,0,0,0,0,0,0,-1,832,1317,0,0
-385,-293,0,0,0,0,0,0,0,0,0,-1,839,1317,0,0
-378,-293,0,0,0,0,0,0,0,0,0,-1,846,1317,0,0
-371,-293,0,0,0,0,0,0,0,0,0,-1,853,1317,0,0
-364,-293,0,0,0,0,0,0,0,0,0,-1,860,1317,0,0
-357,-293,0,0,0,0,0,0,0,0,0,-1,867,1317,0,0
-350,-293,0,0,0,0,0,0,0,0,0,-1,874,1317,0,0
-343,-293,0,0,0,0,0,0,0,0,0,-1,881,1317,0,0
-336,-293,0,0,0,0,0,0,0,0,0,-1,888,1317,0,0
-329,-293,0,0,0,0,0,0,0,0,0,-1,895,1317,0,0
-322,-293,0,0,0,0,0,0,0,0,0,-1,902,1317,0,0
-315,-293,0,0,0,0,0,0,0,0,0,-1,909,1317,0,0
-308,-293,0,0,0,0,0,0,0,0,0,-1,916,1317,0,0
-301,-293,0,0,0,0,0,0,0,0,0,-1,923,1317,0,0
-294,-293,0,0,0,0,0,0,0,0,0,-1,930,1317,0,0
-287,-293,0,0,0,0,0,0,0,0,0,-1,937,1317,0,0
-280,-293,0,0,0,0,0,0,0,0,0,-1,944,1317,0,0
-273,-293,0,0,0,0,0,0,0,0,0,-1,951,1317,0,0
-266,-293,0,0,0,0,0,0,0,0,0,-1,958,1317,0,0
-259,-293,0,0,0,0,0,0,0,0,0,-1,965,1317,0,0
-252,-293,0,0,0,0,0,0,0,0,0,-1,972,1317,0,0
-245,-293,0,0,0,0,0,0,0,0,0,-1,979,1317,0,0
-238,-293,0,0,0,0,0,0,0,0,0,-1,986,1317,0,0
-231,-293,0,0,0,0,0,0,0,0,0,-1,993,1317,0,0
-224,-293,0,0,0,0,0,0,0,0,0,-1,1000,1317,0,0
-217,-293,0,0,0,0,0,0,0,0,0,-1,1007,1317,0,0
-210,-293,0,0,0,0,0,0,0,0,0,-1,1014,1317,0,0
-203,-293,0,0,0,0,0,0,0,0,0,-1,1021,1317,0,0
-196,-293,0,0,0,0,0,0,0,0,0,-1,1028,1317,0,0
-189,-293,0,0,0,0,0,0,0,0,0,-1,1035,1317,0,0
-182,-293,0,0,0,0,0,0,0,0,0,-1,1042,1317,0,0
-175,-293,0,0,0,0,0,0,0,0,0,-1,1049,1317,0,0
-168,-293,0,0,0,0,0,0,0,0,0,-1,1056,1317,0,0
-161,-293,0,0,0,0,0,0,0,0,0,-1,1063,1317,0,0
-154,-293,0,0,0,0,0,0,0,0,0,-1,1070,1317,0,0
-147,-293,0,0,0,0,0,0,0,0,0,-1,1077,1317,0,0
-140,-293,0,0,0,0,0,0,0,0,0,-1,1084,1317,0,0
-133,-293,0,0,0,0,0,0,0,0,0,-1,1091,1317,0,0
-126,-293,0,0,0,0,0,0,0,0,0,-1,1098,1317,0,0
-119,-293,0,0,0,0,0,0,0,0,0,-1,1105,1317,0,0
-112,-293,0,0,0,0,0,0,0,0,0,-1,1112,1317,0,0
-105,-293,0,0,0,0,0,0,0,0,0,-1,1119,1317,0,0
-98,-293,0,0,0,0,0,0,0,0,0,-1,1126,1317,0,0
-91,-293,0,0,0,0,0,0,0,0,0,-1,1133,1317,0,0
-84,-293,0,0,0,0,0,0,0,0,0,-1,1140,1317,0,0
-77,-293,0,0,0,0,0,0,0,0,0,-1,1147,1317,0,0
-70,-293,0,0,0,0,0,0,0,0,0,-1,1154,1317,0,0
-63,-293,0,0,0,0,0,0,0,0,0,-1,1161,1317,0,0
-56,-293,0,0,0,0,0,0,0,0,0,-1,1168,1317,0,0
-49,-293,0,0,0,0,0,0,0,0,0,-1,1175,1317,0,0
-42,-293,0,0,0,0,0,0,0,0,0,-1,1182,1317,0,0
-35,-293,0,0,0,0,0,0,0,0,0,-1,1189,1317,0,0
-28,-293,0,0,0,0,0,0,0,0,0,-1,1196,1317,0,0
-21,-293,0,0,0,0,0,0,0,0,0,-1,1203,1317,0,0
-14,-293,0,0,0,0,0,0,0,0,0,-1,1210,1317,0,0
-7,-293,0,0,0,0,0,0,0,0,0,-1,1217,1317,0,0
0,-293,0,0,0,0,0,0,0,0,0,-1,1224,1317,0,0
7,-293,0,0,0,0,0,0,0,0,0,-1,1231,1317,0,0
14,-293,0,0,0,0,0,0,0,0,0,-1,1238,1317,0,0
21,-293,0,0,0,0,0,0,0,0,0,-1,1245,1317,0,0
28,-293,0,0,0,0,0,0,0,0,0,-1,1252,1317,0,0
35,-293,0,0,0,0,0,0,0,0,0,-1,1259,1317,0,0
42,-293,0,0,0,0,0,0,0,0,0,-1,1266,1317,0,0
49,-293,0,0,0,0,0,0,0,0,0,-1,1273,1317,0,0
56,-293,0,0,0,0,0,0,0,0,0,-1,1280,1317,0,0
63,-293,0,0,0,0,0,0,0,0,0,-1,1287,1317,0,0
70,-293,0,0,0,0,0,0,0,0,0,-1,1294,1317,0,0
77,-293,0,0,0,0,0,0,0,0,0,-1,1301,1317,0,0
84,-293,0,0,0,0,0,0,0,0,0,-1,1308,1317,0,0
91,-293,0,0,0,0,0,0,0,0,0,-1,1315,1317,0,0
98,-293,0,0,0,0,0,0,0,0,0,-1,1322,1317,0,0
105,-293,0,0,0,0,0,0,0,0,0,-1,1329,1317,0,0
112,-293,0,0,0,0,0,0,0,0,0,-1,1336,1317,0,0
119,-293,0,0,0,0,0,0,0,0,0,-1,1343,1317,0,0
126,-293,0,0,0,0,0,0,0,0,0,-1,1350,1317,0,0
133,-293,0,0,0,0,0,0,0,0,0,-1,1357,1317,0,0
140,-293,0,0,0,0,0,0,0,0,0,-1,1364,1317,0,0
147,-293,0,0,0,0,0,0,0,0,0,-1,1371,1317,0,0
154,-293,0,0,0,0,0,0,0,0,0,-1,1378,1317,0,0
161,-293,0,0,0,0,0,0,0,0,0,-1,1385,1317,0,0
168,-293,0,0,0,0,0,0,0,0,0,-1,1392,1317,0,0
175,-293,0,0,0,0,0,0,0,0,0,-1,1399,1317,0,0
182,-293,0,0,0,0,0,0,0,0,0,-1,1406,1317,0,0
189,-293,0,0,0,0,0,0,0,0,0,-1,1413,1317,0,0
196,-293,0,0,0,0,0,0,0,0,0,-1,1420,1317,0,0
203,-293,0,0,0,0,0,0,0,0,0,-1,1427,1317,0,0
210,-293,0,0,0,0,0,0,0,0,0,-1,1434,1317,0,0
217,-293,0,0,0,0,0,0,0,0,0,-1,1441,1317,0,0
224,-293,0,0,0,0,0,0,0,0,0,-1,1448,1317,0,0
231,-293,0,0,0,0,0,0,0,0,0,-1,1455,1317,0,0
238,-293,0,0,0,0,0,0,0,0,0,-1,1462,1317,0,0
245,-293,0,0,0,0,0,0,0,0,0,-1,1469,1317,0,0
252,-293,0,0,0,0,0,0,0,0,0,-1,1476,1317,0,0
259,-293,0,0,0,0,0,0,0,0,0,-1,1483,1317,0,0
266,-293,0,0,0,0,0,0,0,0,0,-1,1490,1317,0,0
273,-293,0,0,0,0,0,0,0,0,0,-1,1497,1317,0,0
280,-293,0,0,0,0,0,0,0,0,0,-1,1504,1317,0,0
287,-293,0,0,0,0,0,0,0,0,0,-1,1511,1317,0,0
294,-293,0,0,0,0,0,0,0,0,0,-1,1518,1317,0,0
301,-293,0,0,0,0,0,0,0,0,0,-1,1525,1317,0,0
308,-293,0,0,0,0,0,0,0,0,0,-1,1532,1317,0,0
315,-293,0,0,0,0,0,0,0,0,0,-1,1539,1317,0,0
322,-293,0,0,0,0,0,0,0,0,0,-1,1546,1317,0,0
329,-293,0,0,0,0,0,0,0,0,0,-1,1553,1317,0,0
336,-293,0,0,0,0,0,0,0,0,0,-1,1560,1317,0,0
343,-293,0,0,0,0,0,0,0,0,0,-1,1567,1317,0,0
350,-293,0,0,0,0,0,0,0,0,0,-1,1574,1317,0,0
357,-293,0,0,0,0,0,0,0,0,0,-1,1581,1317,0,0
364,-293,0,0,0,0,0,0,0,0,0,-1,1588,1317,0,0
371,-293,0,0,0,0,0,0,0,0,0,-1,1595,1317,0,0
378,-293,0,0,0,0,0,0,0,0,0,-1,1602,1317,0,0
385,-293,0,0,0,0,0,0,0,0,0,-1,1609,1317,0,0
392,-293,0,0,0,0,0,0,0,0,0,-1,1616,1317,0,0
399,-293,0,0,0,0,0,0,0,0,0,-1,1623,1317,0,0
406,-293,0,0,0,0,0,0,0,0,0,-1,1630,1317,0,0
413,-293,0,0,0,0,0,0,0,0,0,-1,1637,1317,0,0
420,-293,0,0,0,0,0,0,0,0,0,-1,1644,1317,0,0
427,-293,0,0,0,0,0,0,0,0,0,-1,1651,1317,0,0
434,-293,0,0,0,0,0,0,0,0,0,-1,1658,1317,0,0
441,-293,0,0,0,0,0,0,0,0,0,-1,1665,1317,0,0
448,-293,0,0,0,0,0,0,0,0,0,-1,1672,1317,0,0
455,-293,0,0,0,0,0,0,0,0,0,-1,1679,1317,0,0
462,-293,0,0,0,0,0,0,0,0,0,-1,1686,1317,0,0
469,-293,0,0,0,0,0,0,0,0,0,-1,1693,1317,0,0
476,-293,0,0,0,0,0,0,0,0,0,-1,1700,1317,0,0
483,-293,0,0,0,0,0,0,0,0,0,-1,1707,1317,0,0
490,-293,0,0,0,0,0,0,0,0,0,-1,1714,1317,0,0
497,-293,0,0,0,0,0,0,0,0,0,-1,1721,1317,0,0
504,-293,0,0,0,0,0,0,0,0,0,-1,1728,1317,0,0
511,-293,0,0,0,0,0,0,0,0,0,-1,1735,1317,0,0
518,-293,0,0,0,0,0,0,0,0,0,-1,1742,1317,0,0
525,-293,0,0,0,0,0,0,0,0,0,-1,1749,1317,0,0
532,-293,0,0,0,0,0,0,0,0,0,-1,1756,1317,0,0
539,-293,0,0,0,0,0,0,0,0,0,-1,1763,1317,0,0
546,-293,0,0,0,0,0,0,0,0,0,-1,1770,1317,0,0
553,-293,0,0,0,0,0,0,0,0,0,-1,1777,1317,0,0
560,-293,0,0,0,0,0,0,0,0,0,-1,1784,1317,0,0
567,-293,0,0,0,0,0,0,0,0,0,-1,1791,1317,0,0
574,-293,0,0,0,0,0,0,0,0,0,-1,1798,1317,0,0
581,-293,0,0,0,0,0,0,0,0,0,-1,1805,1317,0,0
588,-293,0,0,0,0,0,0,0,0,0,-1,1812,1317,0,0
595,-293,80.6711,1.9248,0,0,0,0,0,0,0,-1,1819,1317,80.6711,-1.92484
602,-293,80.6615,1.63855,0,0,0,0,0,0,0,-1,1826,1317,80.6615,-1.63851
609,-293,79.9369,0.984985,0,0,0,0,0,0,0,-1,1833,1317,79.9368,-0.985044
616,-293,82.4548,0.610962,0,0,0,0,0,0,0,-1,1840,1317,82.4549,-0.610988
623,-293,64.6224,0.448364,0,0,0,0,0,0,0,-1,1847,1317,64.6224,-0.448318
630,-293,46.6716,3.21558,0,0,0,0,0,0,0,-1,1854,1317,46.6716,-3.2156
637,-293,42.7729,4.95544,0,0,0,0,0,0,0,-1,1861,1317,42.773,-4.95546
644,-293,24.4565,0.520752,0,0,0,0,0,0,0,-1,1868,1317,24.4566,-0.520709
651,-293,25.8926,9.51245,0,0,0,0,0,0,0,-1,1875,1317,25.8926,-9.51246
658,-293,25.4904,9.10205,0,0,0,0,0,0,0,-1,1882,1317,25.4904,-9.10209
665,-293,39.7999,13.4221,0,0,0,0,0,0,0,-1,1889,1317,39.8,-13.4221
672,-293,54.7238,18.2863,0,0,0,0,0,0,0,-1,1896,1317,54.7238,-18.2862
679,-293,54.6797,17.4534,0.000187707,0.00120245,-0.000456412,0.00137753,1.26283e-05,-1.20451,0.000914171,0.0262323,1903,1317,54.6797,-17.4534
686,-293,54.6265,16.6344,0.000739907,0.000196803,-0.000571419,0.00110102,-0.000164306,-0.563582,0.000794463,0.0177401,1910,1317,54.6265,-16.6344
693,-293,54.5726,15.7775,0.000947735,8.13506e-05,-0.000433321,0.00112726,-9.81744e-05,-0.392773,0.000786277,0.0138463,1917,1317,54.5726,-15.7775
700,-293,54.495,14.8928,0.00114236,0.000195412,-0.000291746,0.00122503,0.000112745,-0.276117,0.000781817,0.0113534,1924,1317,54.495,-14.8929
707,-293,54.4346,14.0461,0.000932952,0.000344681,-2.3841e-05,0.000933917,0.000343716,-0.0404388,0.000545421,0.0114074,1931,1317,54.4345,-14.0462
714,-293,54.3846,13.2124,0.000695523,0.000538389,0.000155991,0.000791615,0.000442296,0.552111,0.000458089,0.00818845,1938,1317,54.3846,-13.2123
721,-293,54.3687,12.3728,0.000413033,0.000795778,0.000219622,0.000895708,0.000313102,1.14378,0.000524882,0.0101125,1945,1317,54.3687,-12.3728
728,-293,54.3341,11.5173,5.02012e-05,0.00116141,0.000124498,0.00117519,3.64234e-05,1.46058,0.000771607,0.0133604,1952,1317,54.3341,-11.5173
735,-293,54.2913,10.6499,-0.000467209,0.00159931,-0.000119587,0.00160621,-0.000474106,-1.51318,0.00125896,0.0247474,1959,1317,54.2913,-10.6499
742,-293,54.4285,9.77942,0,0,0,0,0,0,0,-1,1966,1317,54.4285,-9.77944
749,-293,53.1185,8.14404,0,0,0,0,0,0,0,-1,1973,1317,53.1186,-8.14408
756,-293,24.978,3.9718,0,0,0,0,0,0,0,-1,1980,1317,24.978,-3.97186
763,-293,26.6713,4.74097,0,0,0,0,0,0,0,-1,1987,1317,26.6713,-4.74098
770,-293,24.1349,4.69153,0,0,0,0,0,0,0,-1,1994,1317,24.1348,-4.69159
777,-293,0,0,0,0,0,0,0,0,0,-1,2001,1317,0,0
784,-293,0,0,0,0,0,0,0,0,0,-1,2008,1317,0,0
791,-293,0,0,0,0,0,0,0,0,0,-1,2015,1317,0,0
798,-293,0,0,0,0,0,0,0,0,0,-1,2022,1317,0,0
805,-293,0,0,0,0,0,0,0,0,0,-1,2029,1317,0,0
812,-293,0,0,0,0,0,0,0,0,0,-1,2036,1317,0,0
-700,-300,0,0,0,0,0,0,0,0,0,-1,524,1324,0,0
-693,-300,0,0,0,0,0,0,0,0,0,-1,531,1324,0,0
-686,-300,0,0,0,0,0,0,0,0,0,-1,538,1324,0,0
-679,-300,0,0,0,0,0,0,0,0,0,-1,545,1324,0,0
-672,-300,0,0,0,0,0,0,0,0,0,-1,552,1324,0,0
-665,-300,0,0,0,0,0,0,0,0,0,-1,559,1324,0,0
-658,-300,0,0,0,0,0,0,0,0,0,-1,566,1324,0,0
-651,-300,-41.7632,2.33789,0,0,0,0,0,0,0,-1,573,1324,-41.7632,-2.33789
-644,-300,-42.3084,1.3728,0,0,0,0,0,0,0,-1,580,1324,-42.3084,-1.37282
-637,-300,-42.6259,0.807251,0,0,0,0,0,0,0,-1,587,1324,-42.6259,-0.807209
-630,-300,-21.1108,2.26306,0,0,0,0,0,0,0,-1,594,1324,-21.1109,-2.2631
-623,-300,-12.7067,1.48462,0,0,0,0,0,0,0,-1,601,1324,-12.7067,-1.48462
-616,-300,-14.9988,1.68628,0,0,0,0,0,0,0,-1,608,1324,-14.9988,-1.68627
-609,-300,-15.5027,3.29907,0,0,0,0,0,0,0,-1,615,1324,-15.5027,-3.29902
-602,-300,-36.6548,10.3143,0,0,0,0,0,0,0,-1,622,1324,-36.6548,-10.3143
-595,-300,-36.6749,11.4686,0.00567567,0.0049232,0.00369188,0.00901044,0.00158844,0.734618,0.00555372,0.0440992,629,1324,-36.6749,-11.4686
-588,-300,-36.6084,12.4291,0.00360254,0.00331734,0.00226507,0.0057295,0.00119038,0.753961,0.00349118,0.0212895,636,1324,-36.6084,-12.4291
-581,-300,-36.6667,13.3149,0.00237193,0.00211548,0.00135964,0.00360939,0.000878032,0.738383,0.00217352,0.0203819,643,1324,-36.6668,-13.315
-574,-300,-36.7076,14.1827,0.00167392,0.00112523,0.000772122,0.00221899,0.000580163,0.614699,0.00132885,0.0165702,650,1324,-36.7076,-14.1828
-567,-300,-36.7849,15.0479,0.001456,0.000327351,0.000479466,0.00163219,0.00015117,0.352138,0.0010414,0.0163368,657,1324,-36.7849,-15.0479
-560,-300,-36.8353,15.9519,0.00178531,-0.000329171,0.000468911,0.00188463,-0.000428492,0.208727,0.00142095,0.0147649,664,1324,-36.8353,-15.9519
-553,-300,-36.8381,16.8267,0.0027248,-0.000759115,0.000813907,0.00290557,-0.000939879,0.218548,0.00231484,0.0112437,671,1324,-36.8381,-16.8266
-546,-300,-36.9069,17.7059,0.00430693,-0.00102359,0.00154906,0.0047244,-0.00144105,0.263243,0.00372408,0.0134729,678,1324,-36.9069,-17.7059
-539,-300,-36.7635,18.7018,0.00684941,-0.00107903,0.00284411,0.00776413,-0.00199374,0.311169,0.00595301,0.0329736,685,1324,-36.7635,-18.7018
-532,-300,-36.527,19.7107,0,0,0,0,0,0,0,-1,692,1324,-36.527,-19.7107
-525,-300,-13.5115,6.27783,0,0,0,0,0,0,0,-1,699,1324,-13.5115,-6.2778
-518,-300,-9.8349,-0.537109,0,0,0,0,0,0,0,-1,706,1324,-9.83487,0.537068
-511,-300,-12.8644,0.081665,0,0,0,0,0,0,0,-1,713,1324,-12.8644,-0.0817016
-504,-300,-13.4829,-0.165527,0,0,0,0,0,0,0,-1,720,1324,-13.4829,0.165544
-497,-300,-18.1063,0.956543,0,0,0,0,0,0,0,-1,727,1324,-18.1063,-0.9565
-490,-300,-18.2293,1.53625,0,0,0,0,0,0,0,-1,734,1324,-18.2293,-1.53626
-483,-300,-18.3522,1.61084,0,0,0,0,0,0,0,-1,741,1324,-18.3522,-1.6108
-476,-300,-18.7489,1.96387,0,0,0,0,0,0,0,-1,748,1324,-18.7489,-1.96387
-469,-300,0,0,0,0,0,0,0,0,0,-1,755,1324,0,0
-462,-300,0,0,0,0,0,0,0,0,0,-1,762,1324,0,0
-455,-300,0,0,0,0,0,0,0,0,0,-1,769,1324,0,0
-448,-300,0,0,0,0,0,0,0,0,0,-1,776,1324,0,0
-441,-300,0,0,0,0,0,0,0,0,0,-1,783,1324,0,0
-434,-300,0,0,0,0,0,0,0,0,0,-1,790,1324,0,0
-427,-300,0,0,0,0,0,0,0,0,0,-1,797,1324,0,0
-420,-300,0,0,0,0,0,0,0,0,0,-1,804,1324,0,0
-413,-300,0,0,0,0,0,0,0,0,0,-1,811,1324,0,0
-406,-300,0,0,0,0,0,0,0,0,0,-1,818,1324,0,0
-399,-300,0,0,0,0,0,0,0,0,0,-1,825,1324,0,0
-392,-300,0,0,0,0,0,0,0,0,0,-1,832,1324,0,0
-385,-300,0,0,0,0,0,0,0,0,0,-1,839,1324,0,0
-378,-300,0,0,0,0,0,0,0,0,0,-1,846,1324,0,0
-371,-300,0,0,0,0,0,0,0,0,0,-1,853,1324,0,0
-364,-300,0,0,0,0,0,0,0,0,0,-1,860,1324,0,0
-357,-300,0,0,0,0,0,0,0,0,0,-1,867,1324,0,0
-350,-300,0,0,0,0,0,0,0,0,0,-1,874,1324,0,0
-343,-300,0,0,0,0,0,0,0,0,0,-1,881,1324,0,0
-336,-300,0,0,0,0,0,0,0,0,0,-1,888,1324,0,0
-329,-300,0,0,0,0,0,0,0,0,0,-1,895,1324,0,0
-322,-300,0,0,0,0,0,0,0,0,0,-1,902,1324,0,0
-315,-300,0,0,0,0,0,0,0,0,0,-1,909,1324,0,0
-308,-300,0,0,0,0,0,0,0,0,0,-1,916,1324,0,0
-301,-300,0,0,0,0,0,0,0,0,0,-1,923,1324,0,0
-294,-300,0,0,0,0,0,0,0,0,0,-1,930,1324,0,0
-287,-300,0,0,0,0,0,0,0,0,0,-1,937,1324,0,0
-280,-300,0,0,0,0,0,0,0,0,0,-1,944,1324,0,0
-273,-300,0,0,0,0,0,0,0,0,0,-1,951,1324,0,0
-266,-300,0,0,0,0,0,0,0,0,0,-1,958,1324,0,0
-259,-300,0,0,0,0,0,0,0,0,0,-1,965,1324,0,0
-252,-300,0,0,0,0,0,0,0,0,0,-1,972,1324,0,0
-245,-300,0,0,0,0,0,0,0,0,0,-1,979,1324,0,0
-238,-300,0,0,0,0,0,0,0,0,0,-1,986,1324,0,0
-231,-300,0,0,0,0,0,0,0,0,0,-1,993,1324,0,0
-224,-300,0,0,0,0,0,0,0,0,0,-1,1000,1324,0,0
-217,-300,0,0,0,0,0,0,0,0,0,-1,1007,1324,0,0
-210,-300,0,0,0,0,0,0,0,0,0,-1,1014,1324,0,0
-203,-300,0,0,0,0,0,0,0,0,0,-1,1021,1324,0,0
-196,-300,0,0,0,0,0,0,0,0,0,-1,1028,1324,0,0
-189,-300,0,0,0,0,0,0,0,0,0,-1,1035,1324,0,0
-182,-300,0,0,0,0,0,0,0,0,0,-1,1042,1324,0,0
-175,-300,0,0,0,0,0,0,0,0,0,-1,1049,1324,0,0
-168,-300,0,0,0,0,0,0,0,0,0,-1,1056,1324,0,0
-161,-300,0,0,0,0,0,0,0,0,0,-1,1063,1324,0,0
-154,-300,0,0,0,0,0,0,0,0,0,-1,1070,1324,0,0
-147,-300,0,0,0,0,0,0,0,0,0,-1,1077,1324,0,0
-140,-300,0,0,0,0,0,0,0,0,0,-1,1084,1324,0,0
-133,-300,0,0,0,0,0,0,0,0,0,-1,1091,1324,0,0
-126,-300,0,0,0,0,0,0,0,0,0,-1,1098,1324,0,0
-119,-300,0,0,0,0,0,0,0,0,0,-1,1105,1324,0,0
-112,-300,0,0,0,0,0,0,0,0,0,-1,1112,1324,0,0
-105,-300,0,0,0,0,0,0,0,0,0,-1,1119,1324,0,0
-98,-300,0,0,0,0,0,0,0,0,0,-1,1126,1324,0,0
-91,-300,0,0,0,0,0,0,0,0,0,-1,1133,1324,0,0
-84,-300,0,0,0,0,0,0,0,0,0,-1,1140,1324,0,0
-77,-300,0,0,0,0,0,0,0,0,0,-1,1147,1324,0,0
-70,-300,0,0,0,0,0,0,0,0,0,-1,1154,1324,0,0
-63,-300,0,0,0,0,0,0,0,0,0,-1,1161,1324,0,0
-56,-300,0,0,0,0,0,0,0,0,0,-1,1168,1324,0,0
-49,-300,0,0,0,0,0,0,0,0,0,-1,1175,1324,0,0
-42,-300,0,0,0,0,0,0,0,0,0,-1,1182,1324,0,0
-35,-300,0,0,0,0,0,0,0,0,0,-1,1189,1324,0,0
-28,-300,0,0,0,0,0,0,0,0,0,-1,1196,1324,0,0
-21,-300,0,0,0,0,0,0,0,0,0,-1,1203,1324,0,0
-14,-300,0,0,0,0,0,0,0,0,0,-1,1210,1324,0,0
-7,-300,0,0,0,0,0,0,0,0,0,-1,1217,1324,0,0
0,-300,0,0,0,0,0,0,0,0,0,-1,1224,1324,0,0
7,-300,0,0,0,0,0,0,0,0,0,-1,1231,1324,0,0
14,-300,0,0,0,0,0,0,0,0,0,-1,1238,1324,0,0
21,-300,0,0,0,0,0,0,0,0,0,-1,1245,1324,0,0
28,-300,0,0,0,0,0,0,0,0,0,-1,1252,1324,0,0
35,-300,0,0,0,0,0,0,0,0,0,-1,1259,1324,0,0
42,-300,0,0,0,0,0,0,0,0,0,-1,1266,1324,0,0
49,-300,0,0,0,0,0,0,0,0,0,-1,1273,1324,0,0
56,-300,0,0,0,0,0,0,0,0,0,-1,1280,1324,0,0
63,-300,0,0,0,0,0,0,0,0,0,-1,1287,1324,0,0
70,-300,0,0,0,0,0,0,0,0,0,-1,1294,1324,0,0
77,-300,0,0,0,0,0,0,0,0,0,-1,1301,1324,0,0
84,-300,0,0,0,0,0,0,0,0,0,-1,1308,1324,0,0
91,-300,0,0,0,0,0,0,0,0,0,-1,1315,1324,0,0
98,-300,0,0,0,0,0,0,0,0,0,-1,1322,1324,0,0
105,-300,0,0,0,0,0,0,0,0,0,-1,1329,1324,0,0
112,-300,0,0,0,0,0,0,0,0,0,-1,1336,1324,0,0
119,-300,0,0,0,0,0,0,0,0,0,-1,1343,1324,0,0
126,-300,0,0,0,0,0,0,0,0,0,-1,1350,1324,0,0
133,-300,0,0,0,0,0,0,0,0,0,-1,1357,1324,0,0
140,-300,0,0,0,0,0,0,0,0,0,-1,1364,1324,0,0
147,-300,0,0,0,0,0,0,0,0,0,-1,1371,1324,0,0
154,-300,0,0,0,0,0,0,0,0,0,-1,1378,1324,0,0
161,-300,0,0,0,0,0,0,0,0,0,-1,1385,1324,0,0
168,-300,0,0,0,0,0,0,0,0,0,-1,1392,1324,0,0
175,-300,0,0,0,0,0,0,0,0,0,-1,1399,1324,0,0
182,-300,0,0,0,0,0,0,0,0,0,-1,1406,1324,0,0
189,-300,0,0,0,0,0,0,0,0,0,-1,1413,1324,0,0
196,-300,0,0,0,0,0,0,0,0,0,-1,1420,1324,0,0
203,-300,0,0,0,0,0,0,0,0,0,-1,1427,1324,0,0
210,-300,0,0,0,0,0,0,0,0,0,-1,1434,1324,0,0
217,-300,0,0,0,0,0,0,0,0,0,-1,1441,1324,0,0
224,-300,0,0,0,0,0,0,0,0,0,-1,1448,1324,0,0
231,-300,0,0,0,0,0,0,0,0,0,-1,1455,1324,0,0
238,-300,0,0,0,0,0,0,0,0,0,-1,1462,1324,0,0
245,-300,0,0,0,0,0,0,0,0,0,-1,1469,1324,0,0
252,-300,0,0,0,0,0,0,0,0,0,-1,1476,1324,0,0
259,-300,0,0,0,0,0,0,0,0,0,-1,1483,1324,0,0
266,-300,0,0,0,0,0,0,0,0,0,-1,1490,1324,0,0
273,-300,0,0,0,0,0,0,0,0,0,-1,1497,1324,0,0
280,-300,0,0,0,0,0,0,0,0,0,-1,1504,1324,0,0
287,-300,0,0,0,0,0,0,0,0,0,-1,1511,1324,0,0
294,-300,0,0,0,0,0,0,0,0,0,-1,1518,1324,0,0
301,-300,0,0,0,0,0,0,0,0,0,-1,1525,1324,0,0
308,-300,0,0,0,0,0,0,0,0,0,-1,1532,1324,0,0
315,-300,0,0,0,0,0,0,0,0,0,-1,1539,1324,0,0
322,-300,0,0,0,0,0,0,0,0,0,-1,1546,1324,0,0
329,-300,0,0,0,0,0,0,0,0,0,-1,1553,1324,0,0
336,-300,0,0,0,0,0,0,0,0,0,-1,1560,1324,0,0
343,-300,0,0,0,0,0,0,0,0,0,-1,1567,1324,0,0
350,-300,0,0,0,0,0,0,0,0,0,-1,1574,1324,0,0
357,-300,0,0,0,0,0,0,0,0,0,-1,1581,1324,0,0
364,-300,0,0,0,0,0,0,0,0,0,-1,1588,1324,0,0
371,-300,0,0,0,0,0,0,0,0,0,-1,1595,1324,0,0
378,-300,0,0,0,0,0,0,0,0,0,-1,1602,1324,0,0
385,-300,0,0,0,0,0,0,0,0,0,-1,1609,1324,0,0
392,-300,0,0,0,0,0,0,0,0,0,-1,1616,1324,0,0
399,-300,0,0,0,0,0,0,0,0,0,-1,1623,1324,0,0
406,-300,0,0,0,0,0,0,0,0,0,-1,1630,1324,0,0
413,-300,0,0,0,0,0,0,0,0,0,-1,1637,1324,0,0
420,-300,0,0,0,0,0,0,0,0,0,-1,1644,1324,0,0
427,-300,0,0,0,0,0,0,0,0,0,-1,1651,1324,0,0
434,-300,0,0,0,0,0,0,0,0,0,-1,1658,1324,0,0
441,-300,0,0,0,0,0,0,0,0,0,-1,1665,1324,0,0
448,-300,0,0,0,0,0,0,0,0,0,-1,1672,1324,0,0
455,-300,0,0,0,0,0,0,0,0,0,-1,1679,1324,0,0
462,-300,0,0,0,0,0,0,0,0,0,-1,1686,1324,0,0
469,-300,0,0,0,0,0,0,0,0,0,-1,1693,1324,0,0
476,-300,0,0,0,0,0,0,0,0,0,-1,1700,1324,0,0
483,-300,0,0,0,0,0,0,0,0,0,-1,1707,1324,0,0
490,-300,0,0,0,0,0,0,0,0,0,-1,1714,1324,0,0
497,-300,0,0,0,0,0,0,0,0,0,-1,1721,1324,0,0
504,-300,0,0,0,0,0,0,0,0,0,-1,1728,1324,0,0
511,-300,0,0,0,0,0,0,0,0,0,-1,1735,1324,0,0
518,-300,0,0,0,0,0,0,0,0,0,-1,1742,1324,0,0
525,-300,0,0,0,0,0,0,0,0,0,-1,1749,1324,0,0
532,-300,0,0,0,0,0,0,0,0,0,-1,1756,1324,0,0
539,-300,0,0,0,0,0,0,0,0,0,-1,1763,1324,0,0
546,-300,0,0,0,0,0,0,0,0,0,-1,1770,1324,0,0
553,-300,0,0,0,0,0,0,0,0,0,-1,1777,1324,0,0
560,-300,0,0,0,0,0,0,0,0,0,-1,1784,1324,0,0
567,-300,0,0,0,0,0,0,0,0,0,-1,1791,1324,0,0
574,-300,0,0,0,0,0,0,0,0,0,-1,1798,1324,0,0
581,-300,0,0,0,0,0,0,0,0,0,-1,1805,1324,0,0
588,-300,66.4561,1.99207,0,0,0,0,0,0,0,-1,1812,1324,66.456,-1.99202
595,-300,66.4685,1.95496,0,0,0,0,0,0,0,-1,1819,1324,66.4685,-1.95499
602,-300,66.5259,1.72363,0,0,0,0,0,0,0,-1,1826,1324,66.5259,-1.72367
609,-300,64.2576,2.90149,0,0,0,0,0,0,0,-1,1833,1324,64.2575,-2.90154
616,-300,65.1267,2.84033,0,0,0,0,0,0,0,-1,1840,1324,65.1267,-2.84037
623,-300,47.4474,2.43188,0,0,0,0,0,0,0,-1,1847,1324,47.4474,-2.43194
630,-300,42.4099,3.9165,0,0,0,0,0,0,0,-1,1854,1324,42.4099,-3.91649
637,-300,31.1719,4.6366,0,0,0,0,0,0,0,-1,1861,1324,31.1718,-4.63665
644,-300,22.9836,3.44934,0,0,0,0,0,0,0,-1,1868,1324,22.9836,-3.4493
651,-300,25.5004,9.11853,0,0,0,0,0,0,0,-1,1875,1324,25.5004,-9.11851
658,-300,25.4012,9.20032,0,0,0,0,0,0,0,-1,1882,1324,25.4012,-9.20036
665,-300,54.033,19.2155,0,0,0,0,0,0,0,-1,1889,1324,54.033,-19.2155
672,-300,53.8516,18.4315,-0.00123616,0.00202473,-0.000317116,0.00205528,-0.00126671,-1.47475,0.00193588,0.0396564,1896,1324,53.8515,-18.4315
679,-300,53.8198,17.5281,0.000462706,0.00104186,-0.000723653,0.00153172,-2.71582e-05,-0.97572,0.00103032,0.0141487,1903,1324,53.8198,-17.5281
686,-300,53.7493,16.6802,0.000860765,0.000224849,-0.000682558,0.00129579,-0.000210175,-0.567427,0.000941768,0.0147089,1910,1324,53.7492,-16.6802
693,-300,53.6927,15.8197,0.00100315,0.000128228,-0.000482416,0.00121692,-8.55385e-05,-0.417115,0.000841242,0.0127353,1917,1324,53.6927,-15.8198
700,-300,53.6311,14.9467,0.00114904,0.000204351,-0.000281114,0.00122636,0.000127028,-0.268422,0.000778694,0.0133853,1924,1324,53.6311,-14.9467
707,-300,53.6042,14.0859,0.00110553,0.000327493,-5.82202e-05,0.00110986,0.000323161,-0.0742781,0.000659147,0.00959673,1931,1324,53.6042,-14.0859
714,-300,53.5742,13.2438,0.0010348,0.000496765,8.64237e-05,0.00104834,0.000483224,0.155422,0.000605874,0.0118662,1938,1324,53.5742,-13.2438
721,-300,53.5356,12.4114,0.000929887,0.000747444,0.000107848,0.000979918,0.000697412,0.434363,0.000582415,0.0135399,1945,1324,53.5357,-12.4114
728,-300,53.5157,11.535,0.000762363,0.0011419,-6.55455e-05,0.0011529,0.000751363,-1.40451,0.000675766,0.0180704,1952,1324,53.5157,-11.535
735,-300,53.576,10.6648,0,0,0,0,0,0,0,-1,1959,1324,53.576,-10.6648
742,-300,53.2091,10.0802,0,0,0,0,0,0,0,-1,1966,1324,53.2091,-10.0802
749,-300,27.4065,5.9718,0,0,0,0,0,0,0,-1,1973,1324,27.4065,-5.97181
756,-300,22.1423,3.45642,0,0,0,0,0,0,0,-1,1980,1324,22.1423,-3.45638
763,-300,22.6136,5.1571,0,0,0,0,0,0,0,-1,1987,1324,22.6136,-5.15706
770,-300,24.859,4.77979,0,0,0,0,0,0,0,-1,1994,1324,24.859,-4.77972
777,-300,0,0,0,0,0,0,0,0,0,-1,2001,1324,0,0
784,-300,0,0,0,0,0,0,0,0,0,-1,2008,1324,0,0
791,-300,0,0,0,0,0,0,0,0,0,-1,2015,1324,0,0
798,-300,0,0,0,0,0,0,0,0,0,-1,2022,1324,0,0
805,-300,0,0,0,0,0,0,0,0,0,-1,2029,1324,0,0
812,-300,0,0,0,0,0,0,0,0,0,-1,2036,1324,0,0
-700,-307,0,0,0,0,0,0,0,0,0,-1,524,1331,0,0
-693,-307,0,0,0,0,0,0,0,0,0,-1,531,1331,0,0
-686,-307,0,0,0,0,0,0,0,0,0,-1,538,1331,0,0
-679,-307,0,0,0,0,0,0,0,0,0,-1,545,1331,0,0
-672,-307,0,0,0,0,0,0,0,0,0,-1,552,1331,0,0
-665,-307,0,0,0,0,0,0,0,0,0,-1,559,1331,0,0
-658,-307,0,0,0,0,0,0,0,0,0,-1,566,1331,0,0
-651,-307,-40.7436,1.98755,0,0,0,0,0,0,0,-1,573,1331,-40.7436,-1.98753
-644,-307,-41.7838,1.24817,0,0,0,0,0,0,0,-1,580,1331,-41.7838,-1.2482
-637,-307,-41.9006,0.477783,0,0,0,0,0,0,0,-1,587,1331,-41.9006,-0.477844
-630,-307,-12.0005,0.767212,0,0,0,0,0,0,0,-1,594,1331,-12.0005,-0.767266
-623,-307,-12.2128,2.93811,0,0,0,0,0,0,0,-1,601,1331,-12.2128,-2.93813
-616,-307,-12.6612,2.08289,0,0,0,0,0,0,0,-1,608,1331,-12.6612,-2.08293
-609,-307,-12.2767,1.83228,0,0,0,0,0,0,0,-1,615,1331,-12.2768,-1.83224
-602,-307,-27.5659,6.93335,0,0,0,0,0,0,0,-1,622,1331,-27.5658,-6.9333
-595,-307,-35.9719,11.4299,0,0,0,0,0,0,0,-1,629,1331,-35.9718,-11.43
-588,-307,-35.7338,12.4812,0.00406587,0.00373416,0.00278608,0.00669103,0.001109,0.755668,0.00414082,0.0252952,636,1331,-35.7338,-12.4812
-581,-307,-35.762,13.3496,0.00291677,0.00257953,0.00178673,0.00454282,0.000953478,0.73835,0.00276605,0.0161899,643,1331,-35.762,-13.3496
-574,-307,-35.8151,14.2112,0.00235129,0.00163441,0.00117311,0.0032195,0.0007662,0.637131,0.00194199,0.0133513,650,1331,-35.815,-14.2112
-567,-307,-35.8879,15.095,0.00227137,0.000896299,0.000878488,0.00269938,0.000468287,0.453367,0.00166558,0.0143086,657,1331,-35.8879,-15.0949
-560,-307,-35.9286,15.9878,0.00266927,0.000285914,0.000862175,0.00294846,6.72811e-06,0.313161,0.0019634,0.0152615,664,1331,-35.9286,-15.9877
-553,-307,-35.9725,16.8748,0.00360677,-8.34039e-05,0.00119363,0.0039592,-0.000435836,0.287104,0.00279609,0.0121485,671,1331,-35.9725,-16.8747
-546,-307,-36.0524,17.7589,0.00509917,-0.000329508,0.00186448,0.00567784,-0.000908181,0.30094,0.00412144,0.0117285,678,1331,-36.0524,-17.7589
-539,-307,-36.0201,18.7163,0.00733826,-0.000388028,0.00298931,0.00835977,-0.00140954,0.32928,0.00609758,0.0274386,685,1331,-36.0201,-18.7164
-532,-307,-35.9097,19.7063,0,0,0,0,0,0,0,-1,692,1331,-35.9097,-19.7063
-525,-307,-13.2009,6.91309,0,0,0,0,0,0,0,-1,699,1331,-13.2009,-6.9131
-518,-307,-9.77777,-1.56653,0,0,0,0,0,0,0,-1,706,1331,-9.77777,1.56651
-511,-307,-12.5226,0.26709,0,0,0,0,0,0,0,-1,713,1331,-12.5226,-0.267038
-504,-307,-12.5913,-0.308105,0,0,0,0,0,0,0,-1,720,1331,-12.5913,0.308124
-497,-307,-13.8586,-0.115845,0,0,0,0,0,0,0,-1,727,1331,-13.8587,0.115861
-490,-307,-17.9429,0.982178,0,0,0,0,0,0,0,-1,734,1331,-17.9429,-0.982198
-483,-307,-18.1066,0.927612,0,0,0,0,0,0,0,-1,741,1331,-18.1066,-0.927609
-476,-307,-18.1288,1.1228,0,0,0,0,0,0,0,-1,748,1331,-18.1289,-1.12286
-469,-307,-18.2028,0.798584,0,0,0,0,0,0,0,-1,755,1331,-18.2027,-0.798546
-462,-307,0,0,0,0,0,0,0,0,0,-1,762,1331,0,0
-455,-307,0,0,0,0,0,0,0,0,0,-1,769,1331,0,0
-448,-307,0,0,0,0,0,0,0,0,0,-1,776,1331,0,0
-441,-307,0,0,0,0,0,0,0,0,0,-1,783,1331,0,0
-434,-307,0,0,0,0,0,0,0,0,0,-1,790,1331,0,0
-427,-307,0,0,0,0,0,0,0,0,0,-1,797,1331,0,0
-420,-307,0,0,0,0,0,0,0,0,0,-1,804,1331,0,0
-413,-307,0,0,0,0,0,0,0,0,0,-1,811,1331,0,0
-406,-307,0,0,0,0,0,0,0,0,0,-1,818,1331,0,0
-399,-307,0,0,0,0,0,0,0,0,0,-1,825,1331,0,0
-392,-307,0,0,0,0,0,0,0,0,0,-1,832,1331,0,0
-385,-307,0,0,0,0,0,0,0,0,0,-1,839,1331,0,0
-378,-307,0,0,0,0,0,0,0,0,0,-1,846,1331,0,0
-371,-307,0,0,0,0,0,0,0,0,0,-1,853,1331,0,0
-364,-307,0,0,0,0,0,0,0,0,0,-1,860,1331,0,0
-357,-307,0,0,0,0,0,0,0,0,0,-1,867,1331,0,0
-350,-307,0,0,0,0,0,0,0,0,0,-1,874,1331,0,0
-343,-307,0,0,0,0,0,0,0,0,0,-1,881,1331,0,0
-336,-307,0,0,0,0,0,0,0,0,0,-1,888,1331,0,0
-329,-307,0,0,0,0,0,0,0,0,0,-1,895,1331,0,0
-322,-307,0,0,0,0,0,0,0,0,0,-1,902,1331,0,0
-315,-307,0,0,0,0,0,0,0,0,0,-1,909,1331,0,0
-308,-307,0,0,0,0,0,0,0,0,0,-1,916,1331,0,0
-301,-307,0,0,0,0,0,0,0,0,0,-1,923,1331,0,0
-294,-307,0,0,0,0,0,0,0,0,0,-1,930,1331,0,0
-287,-307,0,0,0,0,0,0,0,0,0,-1,937,1331,0,0
-280,-307,0,0,0,0,0,0,0,0,0,-1,944,1331,0,0
-273,-307,0,0,0,0,0,0,0,0,0,-1,951,1331,0,0
-266,-307,0,0,0,0,0,0,0,0,0,-1,958,1331,0,0
-259,-307,0,0,0,0,0,0,0,0,0,-1,965,1331,0,0
-252,-307,0,0,0,0,0,0,0,0,0,-1,972,1331,0,0
-245,-307,0,0,0,0,0,0,0,0,0,-1,979,1331,0,0
-238,-307,0,0,0,0,0,0,0,0,0,-1,986,1331,0,0
-231,-307,0,0,0,0,0,0,0,0,0,-1,993,1331,0,0
-224,-307,0,0,0,0,0,0,0,0,0,-1,1000,1331,0,0
-217,-307,0,0,0,0,0,0,0,0,0,-1,1007,1331,0,0
-210,-307,0,0,0,0,0,0,0,0,0,-1,1014,1331,0,0
-203,-307,0,0,0,0,0,0,0,0,0,-1,1021,1331,0,0
-196,-307,0,0,0,0,0,0,0,0,0,-1,1028,1331,0,0
-189,-307,0,0,0,0,0,0,0,0,0,-1,1035,1331,0,0
-182,-307,0,0,0,0,0,0,0,0,0,-1,1042,1331,0,0
-175,-307,0,0,0,0,0,0,0,0,0,-1,1049,1331,0,0
-168,-307,0,0,0,0,0,0,0,0,0,-1,1056,1331,0,0
-161,-307,0,0,0,0,0,0,0,0,0,-1,1063,1331,0,0
-154,-307,0,0,0,0,0,0,0,0,0,-1,1070,1331,0,0
-147,-307,0,0,0,0,0,0,0,0,0,-1,1077,1331,0,0
-140,-307,0,0,0,0,0,0,0,0,0,-1,1084,1331,0,0
-133,-307,0,0,0,0,0,0,0,0,0,-1,1091,1331,0,0
-126,-307,0,0,0,0,0,0,0,0,0,-1,1098,1331,0,0
-119,-307,0,0,0,0,0,0,0,0,0,-1,1105,1331,0,0
-112,-307,0,0,0,0,0,0,0,0,0,-1,1112,1331,0,0
-105,-307,0,0,0,0,0,0,0,0,0,-1,1119,1331,0,0
-98,-307,0,0,0,0,0,0,0,0,0,-1,1126,1331,0,0
-91,-307,0,0,0,0,0,0,0,0,0,-1,1133,1331,0,0
-84,-307,0,0,0,0,0,0,0,0,0,-1,1140,1331,0,0
-77,-307,0,0,0,0,0,0,0,0,0,-1,1147,1331,0,0
-70,-307,0,0,0,0,0,0,0,0,0,-1,1154,1331,0,0
-63,-307,0,0,0,0,0,0,0,0,0,-1,1161,1331,0,0
-56,-307,0,0,0,0,0,0,0,0,0,-1,1168,1331,0,0
-49,-307,0,0,0,0,0,0,0,0,0,-1,1175,1331,0,0
-42,-307,0,0,0,0,0,0,0,0,0,-1,1182,1331,0,0
-35,-307,0,0,0,0,0,0,0,0,0,-1,1189,1331,0,0
-28,-307,0,0,0,0,0,0,0,0,0,-1,1196,1331,0,0
-21,-307,0,0,0,0,0,0,0,0,0,-1,1203,1331,0,0
-14,-307,0,0,0,0,0,0,0,0,0,-1,1210,1331,0,0
-7,-307,0,0,0,0,0,0,0,0,0,-1,1217,1331,0,0
0,-307,0,0,0,0,0,0,0,0,0,-1,1224,1331,0,0
7,-307,0,0,0,0,0,0,0,0,0,-1,1231,1331,0,0
14,-307,0,0,0,0,0,0,0,0,0,-1,1238,1331,0,0
21,-307,0,0,0,0,0,0,0,0,0,-1,1245,1331,0,0
28,-307,0,0,0,0,0,0,0,0,0,-1,1252,1331,0,0
35,-307,0,0,0,0,0,0,0,0,0,-1,1259,1331,0,0
42,-307,0,0,0,0,0,0,0,0,0,-1,1266,1331,0,0
49,-307,0,0,0,0,0,0,0,0,0,-1,1273,1331,0,0
56,-307,0,0,0,0,0,0,0,0,0,-1,1280,1331,0,0
63,-307,0,0,0,0,0,0,0,0,0,-1,1287,1331,0,0
70,-307,0,0,0,0,0,0,0,0,0,-1,1294,1331,0,0
77,-307,0,0,0,0,0,0,0,0,0,-1,1301,1331,0,0
84,-307,0,0,0,0,0,0,0,0,0,-1,1308,1331,0,0
91,-307,0,0,0,0,0,0,0,0,0,-1,1315,1331,0,0
98,-307,0,0,0,0,0,0,0,0,0,-1,1322,1331,0,0
105,-307,0,0,0,0,0,0,0,0,0,-1,1329,1331,0,0
112,-307,0,0,0,0,0,0,0,0,0,-1,1336,1331,0,0
119,-307,0,0,0,0,0,0,0,0,0,-1,1343,1331,0,0
126,-307,0,0,0,0,0,0,0,0,0,-1,1350,1331,0,0
133,-307,0,0,0,0,0,0,0,0,0,-1,1357,1331,0,0
140,-307,0,0,0,0,0,0,0,0,0,-1,1364,1331,0,0
147,-307,0,0,0,0,0,0,0,0,0,-1,1371,1331,0,0
154,-307,0,0,0,0,0,0,0,0,0,-1,1378,1331,0,0
161,-307,0,0,0,0,0,0,0,0,0,-1,1385,1331,0,0
168,-307,0,0,0,0,0,0,0,0,0,-1,1392,1331,0,0
175,-307,0,0,0,0,0,0,0,0,0,-1,1399,1331,0,0
182,-307,0,0,0,0,0,0,0,0,0,-1,1406,1331,0,0
189,-307,0,0,0,0,0,0,0,0,0,-1,1413,1331,0,0
196,-307,0,0,0,0,0,0,0,0,0,-1,1420,1331,0,0
203,-307,0,0,0,0,0,0,0,0,0,-1,1427,1331,0,0
210,-307,0,0,0,0,0,0,0,0,0,-1,1434,1331,0,0
217,-307,0,0,0,0,0,0,0,0,0,-1,1441,1331,0,0
224,-307,0,0,0,0,0,0,0,0,0,-1,1448,1331,0,0
231,-307,0,0,0,0,0,0,0,0,0,-1,1455,1331,0,0
238,-307,0,0,0,0,0,0,0,0,0,-1,1462,1331,0,0
245,-307,0,0,0,0,0,0,0,0,0,-1,1469,1331,0,0
252,-307,0,0,0,0,0,0,0,0,0,-1,1476,1331,0,0
259,-307,0,0,0,0,0,0,0,0,0,-1,1483,1331,0,0
266,-307,0,0,0,0,0,0,0,0,0,-1,1490,1331,0,0
273,-307,0,0,0,0,0,0,0,0,0,-1,1497,1331,0,0
280,-307,0,0,0,0,0,0,0,0,0,-1,1504,1331,0,0
287,-307,0,0,0,0,0,0,0,0,0,-1,1511,1331,0,0
294,-307,0,0,0,0,0,0,0,0,0,-1,1518,1331,0,0
301,-307,0,0,0,0,0,0,0,0,0,-1,1525,1331,0,0
308,-307,0,0,0,0,0,0,0,0,0,-1,1532,1331,0,0
315,-307,0,0,0,0,0,0,0,0,0,-1,1539,1331,0,0
322,-307,0,0,0,0,0,0,0,0,0,-1,1546,1331,0,0
329,-307,0,0,0,0,0,0,0,0,0,-1,1553,1331,0,0
336,-307,0,0,0,0,0,0,0,0,0,-1,1560,1331,0,0
343,-307,0,0,0,0,0,0,0,0,0,-1,1567,1331,0,0
350,-307,0,0,0,0,0,0,0,0,0,-1,1574,1331,0,0
357,-307,0,0,0,0,0,0,0,0,0,-1,1581,1331,0,0
364,-307,0,0,0,0,0,0,0,0,0,-1,1588,1331,0,0
371,-307,0,0,0,0,0,0,0,0,0,-1,1595,1331,0,0
378,-307,0,0,0,0,0,0,0,0,0,-1,1602,1331,0,0
385,-307,0,0,0,0,0,0,0,0,0,-1,1609,1331,0,0
392,-307,0,0,0,0,0,0,0,0,0,-1,1616,1331,0,0
399,-307,0,0,0,0,0,0,0,0,0,-1,1623,1331,0,0
406,-307,0,0,0,0,0,0,0,0,0,-1,1630,1331,0,0
413,-307,0,0,0,0,0,0,0,0,0,-1,1637,1331,0,0
420,-307,0,0,0,0,0,0,0,0,0,-1,1644,1331,0,0
427,-307,0,0,0,0,0,0,0,0,0,-1,1651,1331,0,0
434,-307,0,0,0,0,0,0,0,0,0,-1,1658,1331,0,0
441,-307,0,0,0,0,0,0,0,0,0,-1,1665,1331,0,0
448,-307,0,0,0,0,0,0,0,0,0,-1,1672,1331,0,0
455,-307,0,0,0,0,0,0,0,0,0,-1,1679,1331,0,0
462,-307,0,0,0,0,0,0,0,0,0,-1,1686,1331,0,0
469,-307,0,0,0,0,0,0,0,0,0,-1,1693,1331,0,0
476,-307,0,0,0,0,0,0,0,0,0,-1,1700,1331,0,0
483,-307,0,0,0,0,0,0,0,0,0,-1,1707,1331,0,0
490,-307,0,0,0,0,0,0,0,0,0,-1,1714,1331,0,0
497,-307,0,0,0,0,0,0,0,0,0,-1,1721,1331,0,0
504,-307,0,0,0,0,0,0,0,0,0,-1,1728,1331,0,0
511,-307,0,0,0,0,0,0,0,0,0,-1,1735,1331,0,0
518,-307,0,0,0,0,0,0,0,0,0,-1,1742,1331,0,0
525,-307,0,0,0,0,0,0,0,0,0,-1,1749,1331,0,0
532,-307,0,0,0,0,0,0,0,0,0,-1,1756,1331,0,0
539,-307,0,0,0,0,0,0,0,0,0,-1,1763,1331,0,0
546,-307,0,0,0,0,0,0,0,0,0,-1,1770,1331,0,0
553,-307,0,0,0,0,0,0,0,0,0,-1,1777,1331,0,0
560,-307,0,0,0,0,0,0,0,0,0,-1,1784,1331,0,0
567,-307,0,0,0,0,0,0,0,0,0,-1,1791,1331,0,0
574,-307,0,0,0,0,0,0,0,0,0,-1,1798,1331,0,0
581,-307,0,0,0,0,0,0,0,0,0,-1,1805,1331,0,0
588,-307,66.5917,1.60864,0,0,0,0,0,0,0,-1,1812,1331,66.5917,-1.60867
595,-307,66.708,1.85352,0,0,0,0,0,0,0,-1,1819,1331,66.708,-1.85351
602,-307,66.111,1.49976,0,0,0,0,0,0,0,-1,1826,1331,66.1109,-1.49974
609,-307,63.8848,2.78992,0,0,0,0,0,0,0,-1,1833,1331,63.8848,-2.78989
616,-307,53.2878,0.135498,0,0,0,0,0,0,0,-1,1840,1331,53.2878,-0.135477
623,-307,44.3966,2.84888,0,0,0,0,0,0,0,-1,1847,1331,44.3966,-2.84884
630,-307,29.8116,1.51184,0,0,0,0,0,0,0,-1,1854,1331,29.8116,-1.51188
637,-307,24.6407,4.09106,0,0,0,0,0,0,0,-1,1861,1331,24.6407,-4.09103
644,-307,22.6885,5.80408,0,0,0,0,0,0,0,-1,1868,1331,22.6884,-5.80408
651,-307,17.5013,5.80078,0,0,0,0,0,0,0,-1,1875,1331,17.5014,-5.80072
658,-307,37.4427,13.9775,0,0,0,0,0,0,0,-1,1882,1331,37.4427,-13.9776
665,-307,53.1595,19.2981,0,0,0,0,0,0,0,-1,1889,1331,53.1595,-19.2981
672,-307,53.0232,18.4397,-0.000343608,0.00142378,-0.000772971,0.00171414,-0.000633966,-1.21147,0.00140268,0.0227074,1896,1331,53.0232,-18.4398
679,-307,52.9468,17.5812,0.000911122,0.000657995,-0.000922805,0.001716,-0.000146886,-0.717248,0.00119597,0.0114352,1903,1331,52.9468,-17.5812
686,-307,52.879,16.717,0.0010814,0.000126517,-0.000707818,0.00145775,-0.000249831,-0.488686,0.00106492,0.011001,1910,1331,52.879,-16.7171
693,-307,52.8325,15.8438,0.00111159,8.78961e-05,-0.000456929,0.00128587,-8.63849e-05,-0.364386,0.000887444,0.0131746,1917,1331,52.8325,-15.8438
700,-307,52.7921,14.9774,0.0012229,0.000162975,-0.000234004,0.00127226,0.000113612,-0.207901,0.000812956,0.0149999,1924,1331,52.7922,-14.9774
707,-307,52.7502,14.103,0.00131287,0.000258063,-3.76082e-05,0.00131421,0.000256724,-0.0355937,0.000804341,0.0164305,1931,1331,52.7502,-14.103
714,-307,52.7236,13.3037,0.00137165,0.000395419,9.69578e-05,0.00138118,0.000385882,0.0980426,0.000822894,0.0146914,1938,1331,52.7236,-13.3037
721,-307,52.7169,12.4797,0.0014073,0.000594825,0.000131754,0.00142813,0.000573993,0.156812,0.000829802,0.0189083,1945,1331,52.717,-12.4797
728,-307,52.6444,11.816,0.00139638,0.000919478,-1.52413e-05,0.00139687,0.000918992,-0.0319156,0.000819776,0.0474224,1952,1331,52.6444,-11.8161
735,-307,52.6681,10.8136,0,0,0,0,0,0,0,-1,1959,1331,52.6681,-10.8136
742,-307,26.677,6.09192,0,0,0,0,0,0,0,-1,1966,1331,26.677,-6.0919
749,-307,26.7727,5.9032,0,0,0,0,0,0,0,-1,1973,1331,26.7727,-5.90323
756,-307,27.1556,5.74756,0,0,0,0,0,0,0,-1,1980,1331,27.1557,-5.7475
763,-307,18.7522,3.55298,0,0,0,0,0,0,0,-1,1987,1331,18.7522,-3.55301
770,-307,0,0,0,0,0,0,0,0,0,-1,1994,1331,0,0
777,-307,0,0,0,0,0,0,0,0,0,-1,2001,1331,0,0
784,-307,0,0,0,0,0,0,0,0,0,-1,2008,1331,0,0
791,-307,0,0,0,0,0,0,0,0,0,-1,2015,1331,0,0
798,-307,0,0,0,0,0,0,0,0,0,-1,2022,1331,0,0
805,-307,0,0,0,0,0,0,0,0,0,-1,2029,1331,0,0
812,-307,0,0,0,0,0,0,0,0,0,-1,2036,1331,0,0
-700,-314,0,0,0,0,0,0,0,0,0,-1,524,1338,0,0
-693,-314,0,0,0,0,0,0,0,0,0,-1,531,1338,0,0
-686,-314,0,0,0,0,0,0,0,0,0,-1,538,1338,0,0
-679,-314,0,0,0,0,0,0,0,0,0,-1,545,1338,0,0
-672,-314,0,0,0,0,0,0,0,0,0,-1,552,1338,0,0
-665,-314,0,0,0,0,0,0,0,0,0,-1,559,1338,0,0
-658,-314,0,0,0,0,0,0,0,0,0,-1,566,1338,0,0
-651,-314,0,0,0,0,0,0,0,0,0,-1,573,1338,0,0
-644,-314,-41.2806,1.17566,0,0,0,0,0,0,0,-1,580,1338,-41.2806,-1.17565
-637,-314,-58.369,7.97375,0,0,0,0,0,0,0,-1,587,1338,-58.369,-7.97376
-630,-314,-59.7463,6.72742,0,0,0,0,0,0,0,-1,594,1338,-59.7463,-6.72739
-623,-314,-13.3542,3.00903,0,0,0,0,0,0,0,-1,601,1338,-13.3542,-3.00907
-616,-314,-9.93311,1.15088,0,0,0,0,0,0,0,-1,608,1338,-9.93308,-1.15093
-609,-314,-9.4361,2.86292,0,0,0,0,0,0,0,-1,615,1338,-9.43612,-2.86286
-602,-314,-11.8027,2.42798,0,0,0,0,0,0,0,-1,622,1338,-11.8027,-2.42802
-595,-314,-35.0948,11.4973,0,0,0,0,0,0,0,-1,629,1338,-35.0948,-11.4973
-588,-314,-34.8862,12.4413,0.00440408,0.00402283,0.00309378,0.0073131,0.00111381,0.754629,0.00454981,0.0376939,636,1338,-34.8862,-12.4413
-581,-314,-34.853,13.3839,0.00327784,0.00295122,0.00205705,0.00517805,0.001051,0.745786,0.0031605,0.0137131,643,1338,-34.853,-13.384
-574,-314,-34.9454,14.2522,0.00280267,0.00204266,0.00146683,0.00393792,0.000907413,0.658652,0.00238116,0.0131887,650,1338,-34.9454,-14.2522
-567,-314,-34.9905,15.1549,0.00280535,0.00133494,0.00120028,0.0034777,0.000662595,0.510609,0.0021322,0.0153923,657,1338,-34.9904,-15.1549
-560,-314,-35.0068,16.0394,0.00327272,0.000757696,0.00121606,0.00376453,0.000265881,0.384322,0.00242592,0.016454,664,1338,-35.0068,-16.0395
-553,-314,-35.1006,16.9117,0.00421232,0.000386898,0.00154905,0.00476091,-0.000161696,0.340366,0.00322919,0.0185252,671,1338,-35.1006,-16.9117
-546,-314,-35.198,17.8134,0.00563817,0.00011648,0.0021747,0.00639181,-0.000637155,0.333595,0.00448869,0.0195021,678,1338,-35.198,-17.8134
-539,-314,-35.1925,18.7517,0.00766109,1.23277e-05,0.003169,0.00880344,-0.00113003,0.345978,0.00627962,0.0249365,685,1338,-35.1925,-18.7517
-532,-314,-35.0765,19.6323,0,0,0,0,0,0,0,-1,692,1338,-35.0766,-19.6324
-525,-314,-13.3017,7.50671,0,0,0,0,0,0,0,-1,699,1338,-13.3017,-7.50669
-518,-314,-8.52753,4.70032,0,0,0,0,0,0,0,-1,706,1338,-8.52755,-4.70034
-511,-314,-11.8597,0.384888,0,0,0,0,0,0,0,-1,713,1338,-11.8597,-0.384927
-504,-314,-11.4322,-0.187378,0,0,0,0,0,0,0,-1,720,1338,-11.4322,0.187381
-497,-314,-11.0047,-0.759644,0,0,0,0,0,0,0,-1,727,1338,-11.0047,0.759689
-490,-314,-18.5143,0.471069,0,0,0,0,0,0,0,-1,734,1338,-18.5143,-0.47103
-483,-314,-17.8528,0.577271,0,0,0,0,0,0,0,-1,741,1338,-17.8528,-0.577327
-476,-314,-17.714,0.665405,0,0,0,0,0,0,0,-1,748,1338,-17.714,-0.665388
-469,-314,-17.7246,0.794678,0,0,0,0,0,0,0,-1,755,1338,-17.7246,-0.794645
-462,-314,0,0,0,0,0,0,0,0,0,-1,762,1338,0,0
-455,-314,0,0,0,0,0,0,0,0,0,-1,769,1338,0,0
-448,-314,0,0,0,0,0,0,0,0,0,-1,776,1338,0,0
-441,-314,0,0,0,0,0,0,0,0,0,-1,783,1338,0,0
-434,-314,0,0,0,0,0,0,0,0,0,-1,790,1338,0,0
-427,-314,0,0,0,0,0,0,0,0,0,-1,797,1338,0,0
-420,-314,0,0,0,0,0,0,0,0,0,-1,804,1338,0,0
-413,-314,0,0,0,0,0,0,0,0,0,-1,811,1338,0,0
-406,-314,0,0,0,0,0,0,0,0,0,-1,818,1338,0,0
-399,-314,0,0,0,0,0,0,0,0,0,-1,825,1338,0,0
-392,-314,0,0,0,0,0,0,0,0,0,-1,832,1338,0,0
-385,-314,0,0,0,0,0,0,0,0,0,-1,839,1338,0,0
-378,-314,0,0,0,0,0,0,0,0,0,-1,846,1338,0,0
-371,-314,0,0,0,0,0,0,0,0,0,-1,853,1338,0,0
-364,-314,0,0,0,0,0,0,0,0,0,-1,860,1338,0,0
-357,-314,0,0,0,0,0,0,0,0,0,-1,867,1338,0,0
-350,-314,0,0,0,0,0,0,0,0,0,-1,874,1338,0,0
-343,-314,0,0,0,0,0,0,0,0,0,-1,881,1338,0,0
-336,-314,0,0,0,0,0,0,0,0,0,-1,888,1338,0,0
-329,-314,0,0,0,0,0,0,0,0,0,-1,895,1338,0,0
-322,-314,0,0,0,0,0,0,0,0,0,-1,902,1338,0,0
-315,-314,0,0,0,0,0,0,0,0,0,-1,909,1338,0,0
-308,-314,0,0,0,0,0,0,0,0,0,-1,916,1338,0,0
-301,-314,0,0,0,0,0,0,0,0,0,-1,923,1338,0,0
-294,-314,0,0,0,0,0,0,0,0,0,-1,930,1338,0,0
-287,-314,0,0,0,0,0,0,0,0,0,-1,937,1338,0,0
-280,-314,0,0,0,0,0,0,0,0,0,-1,944,1338,0,0
-273,-314,0,0,0,0,0,0,0,0,0,-1,951,1338,0,0
-266,-314,0,0,0,0,0,0,0,0,0,-1,958,1338,0,0
-259,-314,0,0,0,0,0,0,0,0,0,-1,965,1338,0,0
-252,-314,0,0,0,0,0,0,0,0,0,-1,972,1338,0,0
-245,-314,0,0,0,0,0,0,0,0,0,-1,979,1338,0,0
-238,-314,0,0,0,0,0,0,0,0,0,-1,986,1338,0,0
-231,-314,0,0,0,0,0,0,0,0,0,-1,993,1338,0,0
-224,-314,0,0,0,0,0,0,0,0,0,-1,1000,1338,0,0
-217,-314,0,0,0,0,0,0,0,0,0,-1,1007,1338,0,0
-210,-314,0,0,0,0,0,0,0,0,0,-1,1014,1338,0,0
-203,-314,0,0,0,0,0,0,0,0,0,-1,1021,1338,0,0
-196,-314,0,0,0,0,0,0,0,0,0,-1,1028,1338,0,0
-189,-314,0,0,0,0,0,0,0,0,0,-1,1035,1338,0,0
-182,-314,0,0,0,0,0,0,0,0,0,-1,1042,1338,0,0
-175,-314,0,0,0,0,0,0,0,0,0,-1,1049,1338,0,0
-168,-314,0,0,0,0,0,0,0,0,0,-1,1056,1338,0,0
-161,-314,0,0,0,0,0,0,0,0,0,-1,1063,1338,0,0
-154,-314,0,0,0,0,0,0,0,0,0,-1,1070,1338,0,0
-147,-314,0,0,0,0,0,0,0,0,0,-1,1077,1338,0,0
-140,-314,0,0,0,0,0,0,0,0,0,-1,1084,1338,0,0
-133,-314,0,0,0,0,0,0,0,0,0,-1,1091,1338,0,0
-126,-314,0,0,0,0,0,0,0,0,0,-1,1098,1338,0,0
-119,-314,0,0,0,0,0,0,0,0,0,-1,1105,1338,0,0
-112,-314,0,0,0,0,0,0,0,0,0,-1,1112,1338,0,0
-105,-314,0,0,0,0,0,0,0,0,0,-1,1119,1338,0,0
-98,-314,0,0,0,0,0,0,0,0,0,-1,1126,1338,0,0
-91,-314,0,0,0,0,0,0,0,0,0,-1,1133,1338,0,0
-84,-314,0,0,0,0,0,0,0,0,0,-1,1140,1338,0,0
-77,-314,0,0,0,0,0,0,0,0,0,-1,1147,1338,0,0
-70,-314,0,0,0,0,0,0,0,0,0,-1,1154,1338,0,0
-63,-314,0,0,0,0,0,0,0,0,0,-1,1161,1338,0,0
-56,-314,0,0,0,0,0,0,0,0,0,-1,1168,1338,0,0
-49,-314,0,0,0,0,0,0,0,0,0,-1,1175,1338,0,0
-42,-314,0,0,0,0,0,0,0,0,0,-1,1182,1338,0,0
-35,-314,0,0,0,0,0,0,0,0,0,-1,1189,1338,0,0
-28,-314,0,0,0,0,0,0,0,0,0,-1,1196,1338,0,0
-21,-314,0,0,0,0,0,0,0,0,0,-1,1203,1338,0,0
-14,-314,0,0,0,0,0,0,0,0,0,-1,1210,1338,0,0
-7,-314,0,0,0,0,0,0,0,0,0,-1,1217,1338,0,0
0,-314,0,0,0,0,0,0,0,0,0,-1,1224,1338,0,0
7,-314,0,0,0,0,0,0,0,0,0,-1,1231,1338,0,0
14,-314,0,0,0,0,0,0,0,0,0,-1,1238,1338,0,0
21,-314,0,0,0,0,0,0,0,0,0,-1,1245,1338,0,0
28,-314,0,0,0,0,0,0,0,0,0,-1,1252,1338,0,0
35,-314,0,0,0,0,0,0,0,0,0,-1,1259,1338,0,0
42,-314,0,0,0,0,0,0,0,0,0,-1,1266,1338,0,0
49,-314,0,0,0,0,0,0,0,0,0,-1,1273,1338,0,0
56,-314,0,0,0,0,0,0,0,0,0,-1,1280,1338,0,0
63,-314,0,0,0,0,0,0,0,0,0,-1,1287,1338,0,0
70,-314,0,0,0,0,0,0,0,0,0,-1,1294,1338,0,0
77,-314,0,0,0,0,0,0,0,0,0,-1,1301,1338,0,0
84,-314,0,0,0,0,0,0,0,0,0,-1,1308,1338,0,0
91,-314,0,0,0,0,0,0,0,0,0,-1,1315,1338,0,0
98,-314,0,0,0,0,0,0,0,0,0,-1,1322,1338,0,0
105,-314,0,0,0,0,0,0,0,0,0,-1,1329,1338,0,0
112,-314,0,0,0,0,0,0,0,0,0,-1,1336,1338,0,0
119,-314,0,0,0,0,0,0,0,0,0,-1,1343,1338,0,0
126,-314,0,0,0,0,0,0,0,0,0,-1,1350,1338,0,0
133,-314,0,0,0,0,0,0,0,0,0,-1,1357,1338,0,0
140,-314,0,0,0,0,0,0,0,0,0,-1,1364,1338,0,0
147,-314,0,0,0,0,0,0,0,0,0,-1,1371,1338,0,0
154,-314,0,0,0,0,0,0,0,0,0,-1,1378,1338,0,0
161,-314,0,0,0,0,0,0,0,0,0,-1,1385,1338,0,0
168,-314,0,0,0,0,0,0,0,0,0,-1,1392,1338,0,0
175,-314,0,0,0,0,0,0,0,0,0,-1,1399,1338,0,0
182,-314,0,0,0,0,0,0,0,0,0,-1,1406,1338,0,0
189,-314,0,0,0,0,0,0,0,0,0,-1,1413,1338,0,0
196,-314,0,0,0,0,0,0,0,0,0,-1,1420,1338,0,0
203,-314,0,0,0,0,0,0,0,0,0,-1,1427,1338,0,0
210,-314,0,0,0,0,0,0,0,0,0,-1,1434,1338,0,0
217,-314,0,0,0,0,0,0,0,0,0,-1,1441,1338,0,0
224,-314,0,0,0,0,0,0,0,0,0,-1,1448,1338,0,0
231,-314,0,0,0,0,0,0,0,0,0,-1,1455,1338,0,0
238,-314,0,0,0,0,0,0,0,0,0,-1,1462,1338,0,0
245,-314,0,0,0,0,0,0,0,0,0,-1,1469,1338,0,0
252,-314,0,0,0,0,0,0,0,0,0,-1,1476,1338,0,0
259,-314,0,0,0,0,0,0,0,0,0,-1,1483,1338,0,0
266,-314,0,0,0,0,0,0,0,0,0,-1,1490,1338,0,0
273,-314,0,0,0,0,0,0,0,0,0,-1,1497,1338,0,0
280,-314,0,0,0,0,0,0,0,0,0,-1,1504,1338,0,0
287,-314,0,0,0,0,0,0,0,0,0,-1,1511,1338,0,0
294,-314,0,0,0,0,0,0,0,0,0,-1,1518,1338,0,0
301,-314,0,0,0,0,0,0,0,0,0,-1,1525,1338,0,0
308,-314,0,0,0,0,0,0,0,0,0,-1,1532,1338,0,0
315,-314,0,0,0,0,0,0,0,0,0,-1,1539,1338,0,0
322,-314,0,0,0,0,0,0,0,0,0,-1,1546,1338,0,0
329,-314,0,0,0,0,0,0,0,0,0,-1,1553,1338,0,0
336,-314,0,0,0,0,0,0,0,0,0,-1,1560,1338,0,0
343,-314,0,0,0,0,0,0,0,0,0,-1,1567,1338,0,0
350,-314,0,0,0,0,0,0,0,0,0,-1,1574,1338,0,0
357,-314,0,0,0,0,0,0,0,0,0,-1,1581,1338,0,0
364,-314,0,0,0,0,0,0,0,0,0,-1,1588,1338,0,0
371,-314,0,0,0,0,0,0,0,0,0,-1,1595,1338,0,0
378,-314,0,0,0,0,0,0,0,0,0,-1,1602,1338,0,0
385,-314,0,0,0,0,0,0,0,0,0,-1,1609,1338,0,0
392,-314,0,0,0,0,0,0,0,0,0,-1,1616,1338,0,0
399,-314,0,0,0,0,0,0,0,0,0,-1,1623,1338,0,0
406,-314,0,0,0,0,0,0,0,0,0,-1,1630,1338,0,0
413,-314,0,0,0,0,0,0,0,0,0,-1,1637,1338,0,0
420,-314,0,0,0,0,0,0,0,0,0,-1,1644,1338,0,0
427,-314,0,0,0,0,0,0,0,0,0,-1,1651,1338,0,0
434,-314,0,0,0,0,0,0,0,0,0,-1,1658,1338,0,0
441,-314,0,0,0,0,0,0,0,0,0,-1,1665,1338,0,0
448,-314,0,0,0,0,0,0,0,0,0,-1,1672,1338,0,0
455,-314,0,0,0,0,0,0,0,0,0,-1,1679,1338,0,0
462,-314,0,0,0,0,0,0,0,0,0,-1,1686,1338,0,0
469,-314,0,0,0,0,0,0,0,0,0,-1,1693,1338,0,0
476,-314,0,0,0,0,0,0,0,0,0,-1,1700,1338,0,0
483,-314,0,0,0,0,0,0,0,0,0,-1,1707,1338,0,0
490,-314,0,0,0,0,0,0,0,0,0,-1,1714,1338,0,0
497,-314,0,0,0,0,0,0,0,0,0,-1,1721,1338,0,0
504,-314,0,0,0,0,0,0,0,0,0,-1,1728,1338,0,0
511,-314,0,0,0,0,0,0,0,0,0,-1,1735,1338,0,0
518,-314,0,0,0,0,0,0,0,0,0,-1,1742,1338,0,0
525,-314,0,0,0,0,0,0,0,0,0,-1,1749,1338,0,0
532,-314,0,0,0,0,0,0,0,0,0,-1,1756,1338,0,0
539,-314,0,0,0,0,0,0,0,0,0,-1,1763,1338,0,0
546,-314,0,0,0,0,0,0,0,0,0,-1,1770,1338,0,0
553,-314,0,0,0,0,0,0,0,0,0,-1,1777,1338,0,0
560,-314,0,0,0,0,0,0,0,0,0,-1,1784,1338,0,0
567,-314,0,0,0,0,0,0,0,0,0,-1,1791,1338,0,0
574,-314,0,0,0,0,0,0,0,0,0,-1,1798,1338,0,0
581,-314,66.1637,1.86658,0,0,0,0,0,0,0,-1,1805,1338,66.1637,-1.86663
588,-314,66.4303,1.43481,0,0,0,0,0,0,0,-1,1812,1338,66.4303,-1.43487
595,-314,66.7465,0.982788,0,0,0,0,0,0,0,-1,1819,1338,66.7464,-0.982795
602,-314,66.322,1.38416,0,0,0,0,0,0,0,-1,1826,1338,66.322,-1.3842
609,-314,60.2225,1.27014,0,0,0,0,0,0,0,-1,1833,1338,60.2225,-1.27017
616,-314,48.1149,3.005,0,0,0,0,0,0,0,-1,1840,1338,48.1149,-3.00505
623,-314,38.7728,2.71741,0,0,0,0,0,0,0,-1,1847,1338,38.7728,-2.71737
630,-314,29.4308,6.23206,0,0,0,0,0,0,0,-1,1854,1338,29.4308,-6.23202
637,-314,22.1349,5.16418,0,0,0,0,0,0,0,-1,1861,1338,22.1349,-5.16414
644,-314,18.7517,6.2605,0,0,0,0,0,0,0,-1,1868,1338,18.7517,-6.26053
651,-314,23.1317,8.005,0,0,0,0,0,0,0,-1,1875,1338,23.1317,-8.00506
658,-314,49.9191,18.822,0,0,0,0,0,0,0,-1,1882,1338,49.9191,-18.8221
665,-314,52.201,19.4242,0,0,0,0,0,0,0,-1,1889,1338,52.201,-19.4242
672,-314,52.1337,18.5339,-0.000681113,0.000731707,-0.000842115,0.00112447,-0.00107387,-1.13439,0.00126932,0.0141816,1896,1338,52.1336,-18.534
679,-314,52.083,17.6467,0.000492024,0.000310809,-0.000836313,0.00124262,-0.00043979,-0.731438,0.00100753,0.0109934,1903,1338,52.083,-17.6467
686,-314,52.0293,16.776,0.000922005,7.7093e-05,-0.000616833,0.00124718,-0.000248082,-0.485145,0.0009253,0.0133473,1910,1338,52.0293,-16.776
693,-314,51.9675,15.8982,0.00123574,9.28325e-05,-0.000444466,0.00138824,-5.96678e-05,-0.330523,0.000946011,0.0137578,1917,1338,51.9676,-15.8982
700,-314,51.9246,15.0175,0.00152249,0.000168153,-0.000288458,0.00158137,0.000109275,-0.201348,0.00101978,0.0154422,1924,1338,51.9245,-15.0175
707,-314,51.8998,14.1613,0.00177183,0.000257051,-0.000138076,0.00178431,0.000244568,-0.0901623,0.00111698,0.0149469,1931,1338,51.8998,-14.1613
714,-314,51.8519,13.3528,0.00197581,0.000374741,-1.90947e-05,0.00197604,0.000374513,-0.011924,0.00121196,0.0123827,1938,1338,51.8519,-13.3528
721,-314,51.8026,12.5619,0.002149,0.000501857,5.84357e-05,0.00215107,0.000499786,0.0354177,0.00129988,0.0272278,1945,1338,51.8026,-12.5619
728,-314,51.8497,11.7581,0,0,0,0,0,0,0,-1,1952,1338,51.8497,-11.7581
735,-314,26.3665,6.21582,0,0,0,0,0,0,0,-1,1959,1338,26.3664,-6.21581
742,-314,26.2235,6.0166,0,0,0,0,0,0,0,-1,1966,1338,26.2235,-6.01662
749,-314,26.2223,5.47046,0,0,0,0,0,0,0,-1,1973,1338,26.2223,-5.47041
756,-314,24.2521,5.93408,0,0,0,0,0,0,0,-1,1980,1338,24.252,-5.93413
763,-314,19.2207,4.07239,0,0,0,0,0,0,0,-1,1987,1338,19.2206,-4.07239
770,-314,0,0,0,0,0,0,0,0,0,-1,1994,1338,0,0
777,-314,0,0,0,0,0,0,0,0,0,-1,2001,1338,0,0
784,-314,0,0,0,0,0,0,0,0,0,-1,2008,1338,0,0
791,-314,0,0,0,0,0,0,0,0,0,-1,2015,1338,0,0
798,-314,0,0,0,0,0,0,0,0,0,-1,2022,1338,0,0
805,-314,0,0,0,0,0,0,0,0,0,-1,2029,1338,0,0
812,-314,0,0,0,0,0,0,0,0,0,-1,2036,1338,0,0
-700,-321,0,0,0,0,0,0,0,0,0,-1,524,1345,0,0
-693,-321,0,0,0,0,0,0,0,0,0,-1,531,1345,0,0
-686,-321,0,0,0,0,0,0,0,0,0,-1,538,1345,0,0
-679,-321,0,0,0,0,0,0,0,0,0,-1,545,1345,0,0
-672,-321,0,0,0,0,0,0,0,0,0,-1,552,1345,0,0
-665,-321,0,0,0,0,0,0,0,0,0,-1,559,1345,0,0
-658,-321,0,0,0,0,0,0,0,0,0,-1,566,1345,0,0
-651,-321,0,0,0,0,0,0,0,0,0,-1,573,1345,0,0
-644,-321,-58.7329,10.2313,0,0,0,0,0,0,0,-1,580,1345,-58.7329,-10.2313
-637,-321,-59.9981,9.06421,0,0,0,0,0,0,0,-1,587,1345,-59.9981,-9.06417
-630,-321,-61.377,8.07166,0,0,0,0,0,0,0,-1,594,1345,-61.3769,-8.07168
-623,-321,-13.2242,3.14148,0,0,0,0,0,0,0,-1,601,1345,-13.2243,-3.14146
-616,-321,-11.6754,3.13794,0,0,0,0,0,0,0,-1,608,1345,-11.6754,-3.13789
-609,-321,-7.95209,1.14758,0,0,0,0,0,0,0,-1,615,1345,-7.95208,-1.14757
-602,-321,-8.85791,2.50049,0,0,0,0,0,0,0,-1,622,1345,-8.85791,-2.50048
-595,-321,-19.8463,5.36584,0,0,0,0,0,0,0,-1,629,1345,-19.8462,-5.36589
-588,-321,-33.9984,12.5129,0,0,0,0,0,0,0,-1,636,1345,-33.9984,-12.5129
-581,-321,-34.0133,13.4414,0.00362802,0.00320883,0.00215966,0.00558824,0.00124861,0.737025,0.00338689,0.0157177,643,1345,-34.0133,-13.4414
-574,-321,-34.0864,14.335,0.00321905,0.00237254,0.00166734,0.00451602,0.00107557,0.661099,0.00272388,0.016777,650,1345,-34.0864,-14.335
-567,-321,-34.1142,15.2092,0.00325614,0.00171278,0.00145556,0.00413192,0.000836997,0.541656,0.00252234,0.0234752,657,1345,-34.1142,-15.2092
-560,-321,-34.1608,16.1494,0.00371846,0.00119523,0.00151506,0.00442841,0.000485283,0.438211,0.00280454,0.0273621,664,1345,-34.1608,-16.1494
-553,-321,-34.239,16.984,0.00457601,0.000810266,0.00182225,0.0053134,7.28699e-05,0.384519,0.00351823,0.0275051,671,1345,-34.2389,-16.984
-546,-321,-34.3217,17.8583,0.00583587,0.000520121,0.00236581,0.00673627,-0.000380286,0.363663,0.00462283,0.0270077,678,1345,-34.3217,-17.8583
-539,-321,-34.3379,18.7535,0.00754785,0.000372207,0.00320081,0.00876811,-0.000848053,0.364225,0.00614762,0.0250758,685,1345,-34.3379,-18.7535
-532,-321,-34.1207,19.6517,0.00982932,0.000410224,0.00434417,0.0115269,-0.00128738,0.372532,0.00814772,0.0373081,692,1345,-34.1208,-19.6517
-525,-321,-34.2743,20.5734,0,0,0,0,0,0,0,-1,699,1345,-34.2743,-20.5733
-518,-321,-10.3564,6.75696,0,0,0,0,0,0,0,-1,706,1345,-10.3564,-6.75694
-511,-321,-9.3302,5.29297,0,0,0,0,0,0,0,-1,713,1345,-9.33023,-5.29294
-504,-321,-10.4713,0.0145264,0,0,0,0,0,0,0,-1,720,1345,-10.4713,-0.0145296
-497,-321,-9.96771,0.313599,0,0,0,0,0,0,0,-1,727,1345,-9.96769,-0.313618
-490,-321,-10.7631,0.973511,0,0,0,0,0,0,0,-1,734,1345,-10.7631,-0.97353
-483,-321,-17.5908,0.2323,0,0,0,0,0,0,0,-1,741,1345,-17.5908,-0.232355
-476,-321,-17.2915,0.297363,0,0,0,0,0,0,0,-1,748,1345,-17.2915,-0.297342
-469,-321,-17.2441,0.478027,0,0,0,0,0,0,0,-1,755,1345,-17.2441,-0.477994
-462,-321,-17.1672,0.526489,0,0,0,0,0,0,0,-1,762,1345,-17.1672,-0.526533
-455,-321,0,0,0,0,0,0,0,0,0,-1,769,1345,0,0
-448,-321,0,0,0,0,0,0,0,0,0,-1,776,1345,0,0
-441,-321,0,0,0,0,0,0,0,0,0,-1,783,1345,0,0
-434,-321,0,0,0,0,0,0,0,0,0,-1,790,1345,0,0
-427,-321,0,0,0,0,0,0,0,0,0,-1,797,1345,0,0
-420,-321,0,0,0,0,0,0,0,0,0,-1,804,1345,0,0
-413,-321,0,0,0,0,0,0,0,0,0,-1,811,1345,0,0
-406,-321,0,0,0,0,0,0,0,0,0,-1,818,1345,0,0
-399,-321,0,0,0,0,0,0,0,0,0,-1,825,1345,0,0
-392,-321,0,0,0,0,0,0,0,0,0,-1,832,1345,0,0
-385,-321,0,0,0,0,0,0,0,0,0,-1,839,1345,0,0
-378,-321,0,0,0,0,0,0,0,0,0,-1,846,1345,0,0
-371,-321,0,0,0,0,0,0,0,0,0,-1,853,1345,0,0
-364,-321,0,0,0,0,0,0,0,0,0,-1,860,1345,0,0
-357,-321,0,0,0,0,0,0,0,0,0,-1,867,1345,0,0
-350,-321,0,0,0,0,0,0,0,0,0,-1,874,1345,0,0
-343,-321,0,0,0,0,0,0,0,0,0,-1,881,1345,0,0
-336,-321,0,0,0,0,0,0,0,0,0,-1,888,1345,0,0
-329,-321,0,0,0,0,0,0,0,0,0,-1,895,1345,0,0
-322,-321,0,0,0,0,0,0,0,0,0,-1,902,1345,0,0
-315,-321,0,0,0,0,0,0,0,0,0,-1,909,1345,0,0
-308,-321,0,0,0,0,0,0,0,0,0,-1,916,1345,0,0
-301,-321,0,0,0,0,0,0,0,0,0,-1,923,1345,0,0
-294,-321,0,0,0,0,0,0,0,0,0,-1,930,1345,0,0
-287,-321,0,0,0,0,0,0,0,0,0,-1,937,1345,0,0
-280,-321,0,0,0,0,0,0,0,0,0,-1,944,1345,0,0
-273,-321,0,0,0,0,0,0,0,0,0,-1,951,1345,0,0
-266,-321,0,0,0,0,0,0,0,0,0,-1,958,1345,0,0
-259,-321,0,0,0,0,0,0,0,0,0,-1,965,1345,0,0
-252,-321,0,0,0,0,0,0,0,0,0,-1,972,1345,0,0
-245,-321,0,0,0,0,0,0,0,0,0,-1,979,1345,0,0
-238,-321,0,0,0,0,0,0,0,0,0,-1,986,1345,0,0
-231,-321,0,0,0,0,0,0,0,0,0,-1,993,1345,0,0
-224,-321,0,0,0,0,0,0,0,0,0,-1,1000,1345,0,0
-217,-321,0,0,0,0,0,0,0,0,0,-1,1007,1345,0,0
-210,-321,0,0,0,0,0,0,0,0,0,-1,1014,1345,0,0
-203,-321,0,0,0,0,0,0,0,0,0,-1,1021,1345,0,0
-196,-321,0,0,0,0,0,0,0,0,0,-1,1028,1345,0,0
-189,-321,0,0,0,0,0,0,0,0,0,-1,1035,1345,0,0
-182,-321,0,0,0,0,0,0,0,0,0,-1,1042,1345,0,0
-175,-321,0,0,0,0,0,0,0,0,0,-1,1049,1345,0,0
-168,-321,0,0,0,0,0,0,0,0,0,-1,1056,1345,0,0
-161,-321,0,0,0,0,0,0,0,0,0,-1,1063,1345,0,0
-154,-321,0,0,0,0,0,0,0,0,0,-1,1070,1345,0,0
-147,-321,0,0,0,0,0,0,0,0,0,-1,1077,1345,0,0
-140,-321,0,0,0,0,0,0,0,0,0,-1,1084,1345,0,0
-133,-321,0,0,0,0,0,0,0,0,0,-1,1091,1345,0,0
-126,-321,0,0,0,0,0,0,0,0,0,-1,1098,1345,0,0
-119,-321,0,0,0,0,0,0,0,0,0,-1,1105,1345,0,0
-112,-321,0,0,0,0,0,0,0,0,0,-1,1112,1345,0,0
-105,-321,0,0,0,0,0,0,0,0,0,-1,1119,1345,0,0
-98,-321,0,0,0,0,0,0,0,0,0,-1,1126,1345,0,0
-91,-321,0,0,0,0,0,0,0,0,0,-1,1133,1345,0,0
-84,-321,0,0,0,0,0,0,0,0,0,-1,1140,1345,0,0
-77,-321,0,0,0,0,0,0,0,0,0,-1,1147,1345,0,0
-70,-321,0,0,0,0,0,0,0,0,0,-1,1154,1345,0,0
-63,-321,0,0,0,0,0,0,0,0,0,-1,1161,1345,0,0
-56,-321,0,0,0,0,0,0,0,0,0,-1,1168,1345,0,0
-49,-321,0,0,0,0,0,0,0,0,0,-1,1175,1345,0,0
-42,-321,0,0,0,0,0,0,0,0,0,-1,1182,1345,0,0
-35,-321,0,0,0,0,0,0,0,0,0,-1,1189,1345,0,0
-28,-321,0,0,0,0,0,0,0,0,0,-1,1196,1345,0,0
-21,-321,0,0,0,0,0,0,0,0,0,-1,1203,1345,0,0
-14,-321,0,0,0,0,0,0,0,0,0,-1,1210,1345,0,0
-7,-321,0,0,0,0,0,0,0,0,0,-1,1217,1345,0,0
0,-321,0,0,0,0,0,0,0,0,0,-1,1224,1345,0,0
7,-321,0,0,0,0,0,0,0,0,0,-1,1231,1345,0,0
14,-321,0,0,0,0,0,0,0,0,0,-1,1238,1345,0,0
21,-321,0,0,0,0,0,0,0,0,0,-1,1245,1345,0,0
28,-321,0,0,0,0,0,0,0,0,0,-1,1252,1345,0,0
35,-321,0,0,0,0,0,0,0,0,0,-1,1259,1345,0,0
42,-321,0,0,0,0,0,0,0,0,0,-1,1266,1345,0,0
49,-321,0,0,0,0,0,0,0,0,0,-1,1273,1345,0,0
56,-321,0,0,0,0,0,0,0,0,0,-1,1280,1345,0,0
63,-321,0,0,0,0,0,0,0,0,0,-1,1287,1345,0,0
70,-321,0,0,0,0,0,0,0,0,0,-1,1294,1345,0,0
77,-321,0,0,0,0,0,0,0,0,0,-1,1301,1345,0,0
84,-321,0,0,0,0,0,0,0,0,0,-1,1308,1345,0,0
91,-321,0,0,0,0,0,0,0,0,0,-1,1315,1345,0,0
98,-321,0,0,0,0,0,0,0,0,0,-1,1322,1345,0,0
105,-321,0,0,0,0,0,0,0,0,0,-1,1329,1345,0,0
112,-321,0,0,0,0,0,0,0,0,0,-1,1336,1345,0,0
119,-321,0,0,0,0,0,0,0,0,0,-1,1343,1345,0,0
126,-321,0,0,0,0,0,0,0,0,0,-1,1350,1345,0,0
133,-321,0,0,0,0,0,0,0,0,0,-1,1357,1345,0,0
140,-321,0,0,0,0,0,0,0,0,0,-1,1364,1345,0,0
147,-321,0,0,0,0,0,0,0,0,0,-1,1371,1345,0,0
154,-321,0,0,0,0,0,0,0,0,0,-1,1378,1345,0,0
161,-321,0,0,0,0,0,0,0,0,0,-1,1385,1345,0,0
168,-321,0,0,0,0,0,0,0,0,0,-1,1392,1345,0,0
175,-321,0,0,0,0,0,0,0,0,0,-1,1399,1345,0,0
182,-321,0,0,0,0,0,0,0,0,0,-1,1406,1345,0,0
189,-321,0,0,0,0,0,0,0,0,0,-1,1413,1345,0,0
196,-321,0,0,0,0,0,0,0,0,0,-1,1420,1345,0,0
203,-321,0,0,0,0,0,0,0,0,0,-1,1427,1345,0,0
210,-321,0,0,0,0,0,0,0,0,0,-1,1434,1345,0,0
217,-321,0,0,0,0,0,0,0,0,0,-1,1441,1345,0,0
224,-321,0,0,0,0,0,0,0,0,0,-1,1448,1345,0,0
231,-321,0,0,0,0,0,0,0,0,0,-1,1455,1345,0,0
238,-321,0,0,0,0,0,0,0,0,0,-1,1462,1345,0,0
245,-321,0,0,0,0,0,0,0,0,0,-1,1469,1345,0,0
252,-321,0,0,0,0,0,0,0,0,0,-1,1476,1345,0,0
259,-321,0,0,0,0,0,0,0,0,0,-1,1483,1345,0,0
266,-321,0,0,0,0,0,0,0,0,0,-1,1490,1345,0,0
273,-321,0,0,0,0,0,0,0,0,0,-1,1497,1345,0,0
280,-321,0,0,0,0,0,0,0,0,0,-1,1504,1345,0,0
287,-321,0,0,0,0,0,0,0,0,0,-1,1511,1345,0,0
294,-321,0,0,0,0,0,0,0,0,0,-1,1518,1345,0,0
301,-321,0,0,0,0,0,0,0,0,0,-1,1525,1345,0,0
308,-321,0,0,0,0,0,0,0,0,0,-1,1532,1345,0,0
315,-321,0,0,0,0,0,0,0,0,0,-1,1539,1345,0,0
322,-321,0,0,0,0,0,0,0,0,0,-1,1546,1345,0,0
329,-321,0,0,0,0,0,0,0,0,0,-1,1553,1345,0,0
336,-321,0,0,0,0,0,0,0,0,0,-1,1560,1345,0,0
343,-321,0,0,0,0,0,0,0,0,0,-1,1567,1345,0,0
350,-321,0,0,0,0,0,0,0,0,0,-1,1574,1345,0,0
357,-321,0,0,0,0,0,0,0,0,0,-1,1581,1345,0,0
364,-321,0,0,0,0,0,0,0,0,0,-1,1588,1345,0,0
371,-321,0,0,0,0,0,0,0,0,0,-1,1595,1345,0,0
378,-321,0,0,0,0,0,0,0,0,0,-1,1602,1345,0,0
385,-321,0,0,0,0,0,0,0,0,0,-1,1609,1345,0,0
392,-321,0,0,0,0,0,0,0,0,0,-1,1616,1345,0,0
399,-321,0,0,0,0,0,0,0,0,0,-1,1623,1345,0,0
406,-321,0,0,0,0,0,0,0,0,0,-1,1630,1345,0,0
413,-321,0,0,0,0,0,0,0,0,0,-1,1637,1345,0,0
420,-321,0,0,0,0,0,0,0,0,0,-1,1644,1345,0,0
427,-321,0,0,0,0,0,0,0,0,0,-1,1651,1345,0,0
434,-321,0,0,0,0,0,0,0,0,0,-1,1658,1345,0,0
441,-321,0,0,0,0,0,0,0,0,0,-1,1665,1345,0,0
448,-321,0,0,0,0,0,0,0,0,0,-1,1672,1345,0,0
455,-321,0,0,0,0,0,0,0,0,0,-1,1679,1345,0,0
462,-321,0,0,0,0,0,0,0,0,0,-1,1686,1345,0,0
469,-321,0,0,0,0,0,0,0,0,0,-1,1693,1345,0,0
476,-321,0,0,0,0,0,0,0,0,0,-1,1700,1345,0,0
483,-321,0,0,0,0,0,0,0,0,0,-1,1707,1345,0,0
490,-321,0,0,0,0,0,0,0,0,0,-1,1714,1345,0,0
497,-321,0,0,0,0,0,0,0,0,0,-1,1721,1345,0,0
504,-321,0,0,0,0,0,0,0,0,0,-1,1728,1345,0,0
511,-321,0,0,0,0,0,0,0,0,0,-1,1735,1345,0,0
518,-321,0,0,0,0,0,0,0,0,0,-1,1742,1345,0,0
525,-321,0,0,0,0,0,0,0,0,0,-1,1749,1345,0,0
532,-321,0,0,0,0,0,0,0,0,0,-1,1756,1345,0,0
539,-321,0,0,0,0,0,0,0,0,0,-1,1763,1345,0,0
546,-321,0,0,0,0,0,0,0,0,0,-1,1770,1345,0,0
553,-321,0,0,0,0,0,0,0,0,0,-1,1777,1345,0,0
560,-321,0,0,0,0,0,0,0,0,0,-1,1784,1345,0,0
567,-321,0,0,0,0,0,0,0,0,0,-1,1791,1345,0,0
574,-321,0,0,0,0,0,0,0,0,0,-1,1798,1345,0,0
581,-321,66.1073,1.6543,0,0,0,0,0,0,0,-1,1805,1345,66.1073,-1.65427
588,-321,66.6576,0.7948,0,0,0,0,0,0,0,-1,1812,1345,66.6575,-0.794774
595,-321,67.2585,-0.216431,0,0,0,0,0,0,0,-1,1819,1345,67.2586,0.216484
602,-321,60.3523,1.24133,0,0,0,0,0,0,0,-1,1826,1345,60.3523,-1.2413
609,-321,48.311,3.39575,0,0,0,0,0,0,0,-1,1833,1345,48.311,-3.39571
616,-321,37.8107,2.58704,0,0,0,0,0,0,0,-1,1840,1345,37.8106,-2.58705
623,-321,37.6854,3.68933,0,0,0,0,0,0,0,-1,1847,1345,37.6854,-3.68931
630,-321,23.6674,4.34106,0,0,0,0,0,0,0,-1,1854,1345,23.6674,-4.34112
637,-321,21.7925,6.79224,0,0,0,0,0,0,0,-1,1861,1345,21.7925,-6.7922
644,-321,16.8844,6.71973,0,0,0,0,0,0,0,-1,1868,1345,16.8844,-6.71971
651,-321,27.4924,10.0319,0,0,0,0,0,0,0,-1,1875,1345,27.4924,-10.0319
658,-321,51.3,20.2666,0,0,0,0,0,0,0,-1,1882,1345,51.3,-20.2665
665,-321,51.3127,19.4285,-0.00143094,0.000713081,-0.000652251,0.000895916,-0.00161378,-1.2975,0.0014686,0.0322854,1889,1345,51.3127,-19.4285
672,-321,51.2872,18.5697,-0.00028479,0.000216903,-0.000679294,0.000690187,-0.000758074,-0.962269,0.00083646,0.0137983,1896,1345,51.2873,-18.5697
679,-321,51.2316,17.6917,0.000538943,0.000128011,-0.000679782,0.00104363,-0.000376678,-0.638637,0.000849619,0.0119527,1903,1345,51.2316,-17.6916
686,-321,51.149,16.833,0.000966232,0.000112043,-0.000576821,0.00125686,-0.00017859,-0.466725,0.000903344,0.0133657,1910,1345,51.1491,-16.833
693,-321,51.0957,15.9727,0.00136927,0.000162386,-0.000508044,0.00155466,-2.30009e-05,-0.34989,0.00104419,0.0131091,1917,1345,51.0958,-15.9726
700,-321,51.068,15.088,0.00172773,0.000237274,-0.000417543,0.00183673,0.000128273,-0.255354,0.00118405,0.0132321,1924,1345,51.068,-15.088
707,-321,51.0475,14.2316,0.00203568,0.00032556,-0.000315958,0.00209219,0.000269051,-0.176976,0.00131432,0.0156257,1931,1345,51.0475,-14.2315
714,-321,50.9945,13.396,0.0022671,0.000432248,-0.000216157,0.00229222,0.000407127,-0.115696,0.00141214,0.0145036,1938,1345,50.9945,-13.396
721,-321,50.8999,12.5321,0.00242928,0.000477128,-7.87499e-05,0.00243245,0.000473957,-0.0402528,0.00148901,0.0428681,1945,1345,50.8999,-12.532
728,-321,50.8754,11.717,0,0,0,0,0,0,0,-1,1952,1345,50.8754,-11.717
735,-321,22.0081,5.65479,0,0,0,0,0,0,0,-1,1959,1345,22.008,-5.65481
742,-321,24.5398,5.05725,0,0,0,0,0,0,0,-1,1966,1345,24.5398,-5.05729
749,-321,24.0675,5.4458,0,0,0,0,0,0,0,-1,1973,1345,24.0675,-5.44581
756,-321,19.6251,4.98315,0,0,0,0,0,0,0,-1,1980,1345,19.6251,-4.98311
763,-321,19.6747,4.61438,0,0,0,0,0,0,0,-1,1987,1345,19.6747,-4.61436
770,-321,0,0,0,0,0,0,0,0,0,-1,1994,1345,0,0
777,-321,0,0,0,0,0,0,0,0,0,-1,2001,1345,0,0
784,-321,0,0,0,0,0,0,0,0,0,-1,2008,1345,0,0
791,-321,0,0,0,0,0,0,0,0,0,-1,2015,1345,0,0
798,-321,0,0,0,0,0,0,0,0,0,-1,2022,1345,0,0
805,-321,0,0,0,0,0,0,0,0,0,-1,2029,1345,0,0
812,-321,0,0,0,0,0,0,0,0,0,-1,2036,1345,0,0
-700,-328,0,0,0,0,0,0,0,0,0,-1,524,1352,0,0
-693,-328,0,0,0,0,0,0,0,0,0,-1,531,1352,0,0
-686,-328,0,0,0,0,0,0,0,0,0,-1,538,1352,0,0
-679,-328,0,0,0,0,0,0,0,0,0,-1,545,1352,0,0
-672,-328,0,0,0,0,0,0,0,0,0,-1,552,1352,0,0
-665,-328,0,0,0,0,0,0,0,0,0,-1,559,1352,0,0
-658,-328,0,0,0,0,0,0,0,0,0,-1,566,1352,0,0
-651,-328,0,0,0,0,0,0,0,0,0,-1,573,1352,0,0
-644,-328,0,0,0,0,0,0,0,0,0,-1,580,1352,0,0
-637,-328,-61.3883,10.1125,0,0,0,0,0,0,0,-1,587,1352,-61.3883,-10.1126
-630,-328,-62.8012,9.14563,0,0,0,0,0,0,0,-1,594,1352,-62.8012,-9.14564
-623,-328,-10.7739,4.55042,0,0,0,0,0,0,0,-1,601,1352,-10.7739,-4.55041
-616,-328,-8.22198,-0.25708,0,0,0,0,0,0,0,-1,608,1352,-8.22201,0.257067
-609,-328,-7.87439,0.192871,0,0,0,0,0,0,0,-1,615,1352,-7.87441,-0.192822
-602,-328,-7.63062,1.31665,0,0,0,0,0,0,0,-1,622,1352,-7.63064,-1.3166
-595,-328,-9.42639,2.93494,0,0,0,0,0,0,0,-1,629,1352,-9.42638,-2.93499
-588,-328,-33.274,12.3253,0,0,0,0,0,0,0,-1,636,1352,-33.274,-12.3253
-581,-328,-33.1747,13.441,0.00414564,0.00368918,0.00263483,0.0065621,0.00127271,0.742195,0.00401825,0.0284932,643,1352,-33.1747,-13.441
-574,-328,-33.1909,14.3845,0.00358749,0.00277148,0.00204485,0.00526464,0.00109433,0.686928,0.00320782,0.0164535,650,1352,-33.1909,-14.3846
-567,-328,-33.2361,15.2834,0.00349268,0.00208144,0.00175852,0.00468187,0.000892248,0.594604,0.00287043,0.0219162,657,1352,-33.2361,-15.2834
-560,-328,-33.2646,16.2178,0.00382473,0.00156126,0.00175822,0.00478396,0.000602025,0.499437,0.00300878,0.0292907,664,1352,-33.2646,-16.2177
-553,-328,-33.3514,17.076,0.00451785,0.0011699,0.001991,0.00544508,0.000242666,0.435842,0.00355193,0.0293323,671,1352,-33.3514,-17.0761
-546,-328,-33.4019,17.9376,0.00557235,0.000886285,0.00244257,0.00661398,-0.000155348,0.403098,0.004462,0.0266832,678,1352,-33.4018,-17.9376
-539,-328,-33.429,18.8002,0.00699264,0.00072083,0.00313307,0.00828957,-0.000576102,0.392473,0.00572808,0.0233259,685,1352,-33.429,-18.8001
-532,-328,-33.4368,19.6971,0.00885202,0.00069909,0.00407365,0.0105386,-0.000987449,0.392527,0.00737692,0.0199808,692,1352,-33.4368,-19.6972
-525,-328,-33.46,20.6793,0.0111037,0.000792917,0.00531941,0.013356,-0.0014594,0.400527,0.00942821,0.0345287,699,1352,-33.46,-20.6794
-518,-328,-33.6238,21.6736,0,0,0,0,0,0,0,-1,706,1352,-33.6238,-21.6736
-511,-328,-9.39868,7.16113,0,0,0,0,0,0,0,-1,713,1352,-9.39869,-7.16113
-504,-328,-8.60626,-0.905762,0,0,0,0,0,0,0,-1,720,1352,-8.60623,0.905787
-497,-328,-9.29102,-0.0517578,0,0,0,0,0,0,0,-1,727,1352,-9.29104,0.0518175
-490,-328,-10.0663,0.882813,0,0,0,0,0,0,0,-1,734,1352,-10.0663,-0.882795
-483,-328,-10.8181,1.72375,0,0,0,0,0,0,0,-1,741,1352,-10.8181,-1.72374
-476,-328,-16.8951,-0.150757,0,0,0,0,0,0,0,-1,748,1352,-16.8951,0.150795
-469,-328,-16.8412,0.00158691,0,0,0,0,0,0,0,-1,755,1352,-16.8412,-0.00161515
-462,-328,-16.3546,-0.203491,0,0,0,0,0,0,0,-1,762,1352,-16.3545,0.203532
-455,-328,0,0,0,0,0,0,0,0,0,-1,769,1352,0,0
-448,-328,0,0,0,0,0,0,0,0,0,-1,776,1352,0,0
-441,-328,0,0,0,0,0,0,0,0,0,-1,783,1352,0,0
-434,-328,0,0,0,0,0,0,0,0,0,-1,790,1352,0,0
-427,-328,0,0,0,0,0,0,0,0,0,-1,797,1352,0,0
-420,-328,0,0,0,0,0,0,0,0,0,-1,804,1352,0,0
-413,-328,0,0,0,0,0,0,0,0,0,-1,811,1352,0,0
-406,-328,0,0,0,0,0,0,0,0,0,-1,818,1352,0,0
-399,-328,0,0,0,0,0,0,0,0,0,-1,825,1352,0,0
-392,-328,0,0,0,0,0,0,0,0,0,-1,832,1352,0,0
-385,-328,0,0,0,0,0,0,0,0,0,-1,839,1352,0,0
-378,-328,0,0,0,0,0,0,0,0,0,-1,846,1352,0,0
-371,-328,0,0,0,0,0,0,0,0,0,-1,853,1352,0,0
-364,-328,0,0,0,0,0,0,0,0,0,-1,860,1352,0,0
-357,-328,0,0,0,0,0,0,0,0,0,-1,867,1352,0,0
-350,-328,0,0,0,0,0,0,0,0,0,-1,874,1352,0,0
-343,-328,0,0,0,0,0,0,0,0,0,-1,881,1352,0,0
-336,-328,0,0,0,0,0,0,0,0,0,-1,888,1352,0,0
-329,-328,0,0,0,0,0,0,0,0,0,-1,895,1352,0,0
-322,-328,0,0,0,0,0,0,0,0,0,-1,902,1352,0,0
-315,-328,0,0,0,0,0,0,0,0,0,-1,909,1352,0,0
-308,-328,0,0,0,0,0,0,0,0,0,-1,916,1352,0,0
-301,-328,0,0,0,0,0,0,0,0,0,-1,923,1352,0,0
-294,-328,0,0,0,0,0,0,0,0,0,-1,930,1352,0,0
-287,-328,0,0,0,0,0,0,0,0,0,-1,937,1352,0,0
-280,-328,0,0,0,0,0,0,0,0,0,-1,944,1352,0,0
-273,-328,0,0,0,0,0,0,0,0,0,-1,951,1352,0,0
-266,-328,0,0,0,0,0,0,0,0,0,-1,958,1352,0,0
-259,-328,0,0,0,0,0,0,0,0,0,-1,965,1352,0,0
-252,-328,0,0,0,0,0,0,0,0,0,-1,972,1352,0,0
-245,-328,0,0,0,0,0,0,0,0,0,-1,979,1352,0,0
-238,-328,0,0,0,0,0,0,0,0,0,-1,986,1352,0,0
-231,-328,0,0,0,0,0,0,0,0,0,-1,993,1352,0,0
-224,-328,0,0,0,0,0,0,0,0,0,-1,1000,1352,0,0
-217,-328,0,0,0,0,0,0,0,0,0,-1,1007,1352,0,0
-210,-328,0,0,0,0,0,0,0,0,0,-1,1014,1352,0,0
-203,-328,0,0,0,0,0,0,0,0,0,-1,1021,1352,0,0
-196,-328,0,0,0,0,0,0,0,0,0,-1,1028,1352,0,0
-189,-328,0,0,0,0,0,0,0,0,0,-1,1035,1352,0,0
-182,-328,0,0,0,0,0,0,0,0,0,-1,1042,1352,0,0
-175,-328,0,0,0,0,0,0,0,0,0,-1,1049,1352,0,0
-168,-328,0,0,0,0,0,0,0,0,0,-1,1056,1352,0,0
-161,-328,0,0,0,0,0,0,0,0,0,-1,1063,1352,0,0
-154,-328,0,0,0,0,0,0,0,0,0,-1,1070,1352,0,0
-147,-328,0,0,0,0,0,0,0,0,0,-1,1077,1352,0,0
-140,-328,0,0,0,0,0,0,0,0,0,-1,1084,1352,0,0
-133,-328,0,0,0,0,0,0,0,0,0,-1,1091,1352,0,0
-126,-328,0,0,0,0,0,0,0,0,0,-1,1098,1352,0,0
-119,-328,0,0,0,0,0,0,0,0,0,-1,1105,1352,0,0
-112,-328,0,0,0,0,0,0,0,0,0,-1,1112,1352,0,0
-105,-328,0,0,0,0,0,0,0,0,0,-1,1119,1352,0,0
-98,-328,0,0,0,0,0,0,0,0,0,-1,1126,1352,0,0
-91,-328,0,0,0,0,0,0,0,0,0,-1,1133,1352,0,0
-84,-328,0,0,0,0,0,0,0,0,0,-1,1140,1352,0,0
-77,-328,0,0,0,0,0,0,0,0,0,-1,1147,1352,0,0
-70,-328,0,0,0,0,0,0,0,0,0,-1,1154,1352,0,0
-63,-328,0,0,0,0,0,0,0,0,0,-1,1161,1352,0,0
-56,-328,0,0,0,0,0,0,0,0,0,-1,1168,1352,0,0
-49,-328,0,0,0,0,0,0,0,0,0,-1,1175,1352,0,0
-42,-328,0,0,0,0,0,0,0,0,0,-1,1182,1352,0,0
-35,-328,0,0,0,0,0,0,0,0,0,-1,1189,1352,0,0
-28,-328,0,0,0,0,0,0,0,0,0,-1,1196,1352,0,0
-21,-328,0,0,0,0,0,0,0,0,0,-1,1203,1352,0,0
-14,-328,0,0,0,0,0,0,0,0,0,-1,1210,1352,0,0
-7,-328,0,0,0,0,0,0,0,0,0,-1,1217,1352,0,0
0,-328,0,0,0,0,0,0,0,0,0,-1,1224,1352,0,0
7,-328,0,0,0,0,0,0,0,0,0,-1,1231,1352,0,0
14,-328,0,0,0,0,0,0,0,0,0,-1,1238,1352,0,0
21,-328,0,0,0,0,0,0,0,0,0,-1,1245,1352,0,0
28,-328,0,0,0,0,0,0,0,0,0,-1,1252,1352,0,0
35,-328,0,0,0,0,0,0,0,0,0,-1,1259,1352,0,0
42,-328,0,0,0,0,0,0,0,0,0,-1,1266,1352,0,0
49,-328,0,0,0,0,0,0,0,0,0,-1,1273,1352,0,0
56,-328,0,0,0,0,0,0,0,0,0,-1,1280,1352,0,0
63,-328,0,0,0,0,0,0,0,0,0,-1,1287,1352,0,0
70,-328,0,0,0,0,0,0,0,0,0,-1,1294,1352,0,0
77,-328,0,0,0,0,0,0,0,0,0,-1,1301,1352,0,0
84,-328,0,0,0,0,0,0,0,0,0,-1,1308,1352,0,0
91,-328,0,0,0,0,0,0,0,0,0,-1,1315,1352,0,0
98,-328,0,0,0,0,0,0,0,0,0,-1,1322,1352,0,0
105,-328,0,0,0,0,0,0,0,0,0,-1,1329,1352,0,0
112,-328,0,0,0,0,0,0,0,0,0,-1,1336,1352,0,0
119,-328,0,0,0,0,0,0,0,0,0,-1,1343,1352,0,0
126,-328,0,0,0,0,0,0,0,0,0,-1,1350,1352,0,0
133,-328,0,0,0,0,0,0,0,0,0,-1,1357,1352,0,0
140,-328,0,0,0,0,0,0,0,0,0,-1,1364,1352,0,0
147,-328,0,0,0,0,0,0,0,0,0,-1,1371,1352,0,0
154,-328,0,0,0,0,0,0,0,0,0,-1,1378,1352,0,0
161,-328,0,0,0,0,0,0,0,0,0,-1,1385,1352,0,0
168,-328,0,0,0,0,0,0,0,0,0,-1,1392,1352,0,0
175,-328,0,0,0,0,0,0,0,0,0,-1,1399,1352,0,0
182,-328,0,0,0,0,0,0,0,0,0,-1,1406,1352,0,0
189,-328,0,0,0,0,0,0,0,0,0,-1,1413,1352,0,0
196,-328,0,0,0,0,0,0,0,0,0,-1,1420,1352,0,0
203,-328,0,0,0,0,0,0,0,0,0,-1,1427,1352,0,0
210,-328,0,0,0,0,0,0,0,0,0,-1,1434,1352,0,0
217,-328,0,0,0,0,0,0,0,0,0,-1,1441,1352,0,0
224,-328,0,0,0,0,0,0,0,0,0,-1,1448,1352,0,0
231,-328,0,0,0,0,0,0,0,0,0,-1,1455,1352,0,0
238,-328,0,0,0,0,0,0,0,0,0,-1,1462,1352,0,0
245,-328,0,0,0,0,0,0,0,0,0,-1,1469,1352,0,0
252,-328,0,0,0,0,0,0,0,0,0,-1,1476,1352,0,0
259,-328,0,0,0,0,0,0,0,0,0,-1,1483,1352,0,0
266,-328,0,0,0,0,0,0,0,0,0,-1,1490,1352,0,0
273,-328,0,0,0,0,0,0,0,0,0,-1,1497,1352,0,0
280,-328,0,0,0,0,0,0,0,0,0,-1,1504,1352,0,0
287,-328,0,0,0,0,0,0,0,0,0,-1,1511,1352,0,0
294,-328,0,0,0,0,0,0,0,0,0,-1,1518,1352,0,0
301,-328,0,0,0,0,0,0,0,0,0,-1,1525,1352,0,0
308,-328,0,0,0,0,0,0,0,0,0,-1,1532,1352,0,0
315,-328,0,0,0,0,0,0,0,0,0,-1,1539,1352,0,0
322,-328,0,0,0,0,0,0,0,0,0,-1,1546,1352,0,0
329,-328,0,0,0,0,0,0,0,0,0,-1,1553,1352,0,0
336,-328,0,0,0,0,0,0,0,0,0,-1,1560,1352,0,0
343,-328,0,0,0,0,0,0,0,0,0,-1,1567,1352,0,0
350,-328,0,0,0,0,0,0,0,0,0,-1,1574,1352,0,0
357,-328,0,0,0,0,0,0,0,0,0,-1,1581,1352,0,0
364,-328,0,0,0,0,0,0,0,0,0,-1,1588,1352,0,0
371,-328,0,0,0,0,0,0,0,0,0,-1,1595,1352,0,0
378,-328,0,0,0,0,0,0,0,0,0,-1,1602,1352,0,0
385,-328,0,0,0,0,0,0,0,0,0,-1,1609,1352,0,0
392,-328,0,0,0,0,0,0,0,0,0,-1,1616,1352,0,0
399,-328,0,0,0,0,0,0,0,0,0,-1,1623,1352,0,0
406,-328,0,0,0,0,0,0,0,0,0,-1,1630,1352,0,0
413,-328,0,0,0,0,0,0,0,0,0,-1,1637,1352,0,0
420,-328,0,0,0,0,0,0,0,0,0,-1,1644,1352,0,0
427,-328,0,0,0,0,0,0,0,0,0,-1,1651,1352,0,0
434,-328,0,0,0,0,0,0,0,0,0,-1,1658,1352,0,0
441,-328,0,0,0,0,0,0,0,0,0,-1,1665,1352,0,0
448,-328,0,0,0,0,0,0,0,0,0,-1,1672,1352,0,0
455,-328,0,0,0,0,0,0,0,0,0,-1,1679,1352,0,0
462,-328,0,0,0,0,0,0,0,0,0,-1,1686,1352,0,0
469,-328,0,0,0,0,0,0,0,0,0,-1,1693,1352,0,0
476,-328,0,0,0,0,0,0,0,0,0,-1,1700,1352,0,0
483,-328,0,0,0,0,0,0,0,0,0,-1,1707,1352,0,0
490,-328,0,0,0,0,0,0,0,0,0,-1,1714,1352,0,0
497,-328,0,0,0,0,0,0,0,0,0,-1,1721,1352,0,0
504,-328,0,0,0,0,0,0,0,0,0,-1,1728,1352,0,0
511,-328,0,0,0,0,0,0,0,0,0,-1,1735,1352,0,0
518,-328,0,0,0,0,0,0,0,0,0,-1,1742,1352,0,0
525,-328,0,0,0,0,0,0,0,0,0,-1,1749,1352,0,0
532,-328,0,0,0,0,0,0,0,0,0,-1,1756,1352,0,0
539,-328,0,0,0,0,0,0,0,0,0,-1,1763,1352,0,0
546,-328,0,0,0,0,0,0,0,0,0,-1,1770,1352,0,0
553,-328,0,0,0,0,0,0,0,0,0,-1,1777,1352,0,0
560,-328,0,0,0,0,0,0,0,0,0,-1,1784,1352,0,0
567,-328,0,0,0,0,0,0,0,0,0,-1,1791,1352,0,0
574,-328,65.0565,3.09021,0,0,0,0,0,0,0,-1,1798,1352,65.0565,-3.09019
581,-328,66.3988,1.74048,0,0,0,0,0,0,0,-1,1805,1352,66.3989,-1.74051
588,-328,67.0304,0.506714,0,0,0,0,0,0,0,-1,1812,1352,67.0304,-0.506669
595,-328,60.5831,1.52856,0,0,0,0,0,0,0,-1,1819,1352,60.5832,-1.52861
602,-328,48.7734,3.66785,0,0,0,0,0,0,0,-1,1826,1352,48.7734,-3.66782
609,-328,37.0468,1.17407,0,0,0,0,0,0,0,-1,1833,1352,37.0468,-1.17407
616,-328,36.999,2.42859,0,0,0,0,0,0,0,-1,1840,1352,36.999,-2.42862
623,-328,34.345,5.14722,0,0,0,0,0,0,0,-1,1847,1352,34.3449,-5.14718
630,-328,22.0211,5.026,0,0,0,0,0,0,0,-1,1854,1352,22.0212,-5.02603
637,-328,21.15,5.53699,0,0,0,0,0,0,0,-1,1861,1352,21.15,-5.53704
644,-328,16.9579,6.3396,0,0,0,0,0,0,0,-1,1868,1352,16.9579,-6.33959
651,-328,36.2629,14.6906,0,0,0,0,0,0,0,-1,1875,1352,36.263,-14.6905
658,-328,50.5044,20.3335,0,0,0,0,0,0,0,-1,1882,1352,50.5043,-20.3334
665,-328,50.4875,19.4791,-0.00066218,0.000342019,-0.000527286,0.000568022,-0.000888184,-1.16587,0.000847488,0.0149174,1889,1352,50.4876,-19.4791
672,-328,50.4321,18.6292,5.10521e-06,0.000152424,-0.000579982,0.000663405,-0.000505876,-0.848561,0.000677124,0.0123666,1896,1352,50.4321,-18.6292
679,-328,50.3699,17.7465,0.000605912,0.000171244,-0.000608621,0.00103484,-0.000257683,-0.613908,0.000789924,0.0142668,1903,1352,50.3698,-17.7465
686,-328,50.2971,16.8737,0.00117363,0.000211651,-0.000632209,0.00148702,-0.00010174,-0.460207,0.00102694,0.0149818,1910,1352,50.2971,-16.8737
693,-328,50.2595,16.0161,0.00172194,0.00031629,-0.00068913,0.00200342,3.48057e-05,-0.38778,0.00132417,0.0106702,1917,1352,50.2595,-16.0161
700,-328,50.2195,15.129,0.00222649,0.000454154,-0.000721944,0.00248335,0.000197302,-0.341814,0.00159387,0.0143166,1924,1352,50.2194,-15.1291
707,-328,50.2024,14.2804,0.00266866,0.000613402,-0.000735608,0.00290481,0.000377251,-0.310636,0.00182384,0.0166767,1931,1352,50.2024,-14.2804
714,-328,50.151,13.443,0.00301709,0.000821977,-0.000750947,0.0032494,0.000589665,-0.300021,0.00199892,0.0176664,1938,1352,50.151,-13.443
721,-328,50.0956,12.5045,0,0,0,0,0,0,0,-1,1945,1352,50.0956,-12.5045
728,-328,29.2787,6.74695,0,0,0,0,0,0,0,-1,1952,1352,29.2787,-6.74693
735,-328,20.8927,5.23523,0,0,0,0,0,0,0,-1,1959,1352,20.8927,-5.23528
742,-328,20.3547,4.11316,0,0,0,0,0,0,0,-1,1966,1352,20.3547,-4.11321
749,-328,20.0669,5.66321,0,0,0,0,0,0,0,-1,1973,1352,20.0669,-5.66319
756,-328,19.9543,5.50464,0,0,0,0,0,0,0,-1,1980,1352,19.9543,-5.50463
763,-328,0,0,0,0,0,0,0,0,0,-1,1987,1352,0,0
770,-328,0,0,0,0,0,0,0,0,0,-1,1994,1352,0,0
777,-328,0,0,0,0,0,0,0,0,0,-1,2001,1352,0,0
784,-328,0,0,0,0,0,0,0,0,0,-1,2008,1352,0,0
791,-328,0,0,0,0,0,0,0,0,0,-1,2015,1352,0,0
798,-328,0,0,0,0,0,0,0,0,0,-1,2022,1352,0,0
805,-328,0,0,0,0,0,0,0,0,0,-1,2029,1352,0,0
812,-328,0,0,0,0,0,0,0,0,0,-1,2036,1352,0,0
-700,-335,0,0,0,0,0,0,0,0,0,-1,524,1359,0,0
-693,-335,0,0,0,0,0,0,0,0,0,-1,531,1359,0,0
-686,-335,0,0,0,0,0,0,0,0,0,-1,538,1359,0,0
-679,-335,0,0,0,0,0,0,0,0,0,-1,545,1359,0,0
-672,-335,0,0,0,0,0,0,0,0,0,-1,552,1359,0,0
-665,-335,0,0,0,0,0,0,0,0,0,-1,559,1359,0,0
-658,-335,0,0,0,0,0,0,0,0,0,-1,566,1359,0,0
-651,-335,0,0,0,0,0,0,0,0,0,-1,573,1359,0,0
-644,-335,0,0,0,0,0,0,0,0,0,-1,580,1359,0,0
-637,-335,-62.7114,11.0491,0,0,0,0,0,0,0,-1,587,1359,-62.7114,-11.0491
-630,-335,-64.2532,9.91284,0,0,0,0,0,0,0,-1,594,1359,-64.2532,-9.91285
-623,-335,-8.43304,1.09509,0,0,0,0,0,0,0,-1,601,1359,-8.43301,-1.09507
-616,-335,-7.80927,-0.485352,0,0,0,0,0,0,0,-1,608,1359,-7.80926,0.485291
-609,-335,-7.12256,-2.03601,0,0,0,0,0,0,0,-1,615,1359,-7.12253,2.03601
-602,-335,-9.39935,2.25146,0,0,0,0,0,0,0,-1,622,1359,-9.39935,-2.25145
-595,-335,-9.54767,3.01917,0,0,0,0,0,0,0,-1,629,1359,-9.54768,-3.01911
-588,-335,-31.208,11.4578,0,0,0,0,0,0,0,-1,636,1359,-31.208,-11.4577
-581,-335,-32.2688,13.4697,0,0,0,0,0,0,0,-1,643,1359,-32.2688,-13.4697
-574,-335,-32.3031,14.4022,0.00406448,0.00306807,0.00233312,0.005952,0.00118055,0.680211,0.00363889,0.0143855,650,1359,-32.3031,-14.4023
-567,-335,-32.3162,15.3182,0.00370584,0.0023211,0.00194247,0.00507565,0.000951289,0.614199,0.00311546,0.0174911,657,1359,-32.3162,-15.3183
-560,-335,-32.3143,16.149,0.00381619,0.00175867,0.00184928,0.0049036,0.000671262,0.531564,0.00306988,0.02524,664,1359,-32.3143,-16.149
-553,-335,-32.4282,17.0536,0.00429007,0.00132547,0.00198719,0.00528691,0.000328625,0.464954,0.00342033,0.0288059,671,1359,-32.4281,-17.0535
-546,-335,-32.5008,17.989,0.00510931,0.000997311,0.00233109,0.00616154,-5.49224e-05,0.42401,0.00412613,0.0253586,678,1359,-32.5008,-17.9891
-539,-335,-32.5367,18.8616,0.00626141,0.000778713,0.00288609,0.00750058,-0.000460453,0.405556,0.00516072,0.0214078,685,1359,-32.5367,-18.8615
-532,-335,-32.5989,19.7781,0.00778826,0.000687172,0.0036616,0.00933808,-0.000862643,0.400398,0.00653195,0.0163684,692,1359,-32.5989,-19.7781
-525,-335,-32.5756,20.7197,0.00965527,0.000715532,0.00468988,0.0116642,-0.00129339,0.404707,0.00824116,0.0141409,699,1359,-32.5756,-20.7197
-518,-335,-32.4407,21.5482,0,0,0,0,0,0,0,-1,706,1359,-32.4407,-21.5482
-511,-335,-17.3098,11.6718,0,0,0,0,0,0,0,-1,713,1359,-17.3097,-11.6717
-504,-335,-9.35767,5.99695,0,0,0,0,0,0,0,-1,720,1359,-9.35767,-5.99694
-497,-335,-8.75024,-0.650513,0,0,0,0,0,0,0,-1,727,1359,-8.75024,0.650521
-490,-335,-9.51971,0.417603,0,0,0,0,0,0,0,-1,734,1359,-9.51974,-0.41765
-483,-335,-10.2883,1.29224,0,0,0,0,0,0,0,-1,741,1359,-10.2883,-1.2922
-476,-335,-11.9938,-0.173462,0,0,0,0,0,0,0,-1,748,1359,-11.9938,0.173429
-469,-335,-12.8704,-0.204102,0,0,0,0,0,0,0,-1,755,1359,-12.8704,0.204117
-462,-335,-13.486,0.0218506,0,0,0,0,0,0,0,-1,762,1359,-13.4859,-0.0217908
-455,-335,-14.1504,0.549561,0,0,0,0,0,0,0,-1,769,1359,-14.1504,-0.549583
-448,-335,0,0,0,0,0,0,0,0,0,-1,776,1359,0,0
-441,-335,0,0,0,0,0,0,0,0,0,-1,783,1359,0,0
-434,-335,0,0,0,0,0,0,0,0,0,-1,790,1359,0,0
-427,-335,0,0,0,0,0,0,0,0,0,-1,797,1359,0,0
-420,-335,0,0,0,0,0,0,0,0,0,-1,804,1359,0,0
-413,-335,0,0,0,0,0,0,0,0,0,-1,811,1359,0,0
-406,-335,0,0,0,0,0,0,0,0,0,-1,818,1359,0,0
-399,-335,0,0,0,0,0,0,0,0,0,-1,825,1359,0,0
-392,-335,0,0,0,0,0,0,0,0,0,-1,832,1359,0,0
-385,-335,0,0,0,0,0,0,0,0,0,-1,839,1359,0,0
-378,-335,0,0,0,0,0,0,0,0,0,-1,846,1359,0,0
-371,-335,0,0,0,0,0,0,0,0,0,-1,853,1359,0,0
-364,-335,0,0,0,0,0,0,0,0,0,-1,860,1359,0,0
-357,-335,0,0,0,0,0,0,0,0,0,-1,867,1359,0,0
-350,-335,0,0,0,0,0,0,0,0,0,-1,874,1359,0,0
-343,-335,0,0,0,0,0,0,0,0,0,-1,881,1359,0,0
-336,-335,0,0,0,0,0,0,0,0,0,-1,888,1359,0,0
-329,-335,0,0,0,0,0,0,0,0,0,-1,895,1359,0,0
-322,-335,0,0,0,0,0,0,0,0,0,-1,902,1359,0,0
-315,-335,0,0,0,0,0,0,0,0,0,-1,909,1359,0,0
-308,-335,0,0,0,0,0,0,0,0,0,-1,916,1359,0,0
-301,-335,0,0,0,0,0,0,0,0,0,-1,923,1359,0,0
-294,-335,0,0,0,0,0,0,0,0,0,-1,930,1359,0,0
-287,-335,0,0,0,0,0,0,0,0,0,-1,937,1359,0,0
-280,-335,0,0,0,0,0,0,0,0,0,-1,944,1359,0,0
-273,-335,0,0,0,0,0,0,0,0,0,-1,951,1359,0,0
-266,-335,0,0,0,0,0,0,0,0,0,-1,958,1359,0,0
-259,-335,0,0,0,0,0,0,0,0,0,-1,965,1359,0,0
-252,-335,0,0,0,0,0,0,0,0,0,-1,972,1359,0,0
-245,-335,0,0,0,0,0,0,0,0,0,-1,979,1359,0,0
-238,-335,0,0,0,0,0,0,0,0,0,-1,986,1359,0,0
-231,-335,0,0,0,0,0,0,0,0,0,-1,993,1359,0,0
-224,-335,0,0,0,0,0,0,0,0,0,-1,1000,1359,0,0
-217,-335,0,0,0,0,0,0,0,0,0,-1,1007,1359,0,0
-210,-335,0,0,0,0,0,0,0,0,0,-1,1014,1359,0,0
-203,-335,0,0,0,0,0,0,0,0,0,-1,1021,1359,0,0
-196,-335,0,0,0,0,0,0,0,0,0,-1,1028,1359,0,0
-189,-335,0,0,0,0,0,0,0,0,0,-1,1035,1359,0,0
-182,-335,0,0,0,0,0,0,0,0,0,-1,1042,1359,0,0
-175,-335,0,0,0,0,0,0,0,0,0,-1,1049,1359,0,0
-168,-335,0,0,0,0,0,0,0,0,0,-1,1056,1359,0,0
-161,-335,0,0,0,0,0,0,0,0,0,-1,1063,1359,0,0
-154,-335,0,0,0,0,0,0,0,0,0,-1,1070,1359,0,0
-147,-335,0,0,0,0,0,0,0,0,0,-1,1077,1359,0,0
-140,-335,0,0,0,0,0,0,0,0,0,-1,1084,1359,0,0
-133,-335,0,0,0,0,0,0,0,0,0,-1,1091,1359,0,0
-126,-335,0,0,0,0,0,0,0,0,0,-1,1098,1359,0,0
-119,-335,0,0,0,0,0,0,0,0,0,-1,1105,1359,0,0
-112,-335,0,0,0,0,0,0,0,0,0,-1,1112,1359,0,0
-105,-335,0,0,0,0,0,0,0,0,0,-1,1119,1359,0,0
-98,-335,0,0,0,0,0,0,0,0,0,-1,1126,1359,0,0
-91,-335,0,0,0,0,0,0,0,0,0,-1,1133,1359,0,0
-84,-335,0,0,0,0,0,0,0,0,0,-1,1140,1359,0,0
-77,-335,0,0,0,0,0,0,0,0,0,-1,1147,1359,0,0
-70,-335,0,0,0,0,0,0,0,0,0,-1,1154,1359,0,0
-63,-335,0,0,0,0,0,0,0,0,0,-1,1161,1359,0,0
-56,-335,0,0,0,0,0,0,0,0,0,-1,1168,1359,0,0
-49,-335,0,0,0,0,0,0,0,0,0,-1,1175,1359,0,0
-42,-335,0,0,0,0,0,0,0,0,0,-1,1182,1359,0,0
-35,-335,0,0,0,0,0,0,0,0,0,-1,1189,1359,0,0
-28,-335,0,0,0,0,0,0,0,0,0,-1,1196,1359,0,0
-21,-335,0,0,0,0,0,0,0,0,0,-1,1203,1359,0,0
-14,-335,0,0,0,0,0,0,0,0,0,-1,1210,1359,0,0
-7,-335,0,0,0,0,0,0,0,0,0,-1,1217,1359,0,0
0,-335,0,0,0,0,0,0,0,0,0,-1,1224,1359,0,0
7,-335,0,0,0,0,0,0,0,0,0,-1,1231,1359,0,0
14,-335,0,0,0,0,0,0,0,0,0,-1,1238,1359,0,0
21,-335,0,0,0,0,0,0,0,0,0,-1,1245,1359,0,0
28,-335,0,0,0,0,0,0,0,0,0,-1,1252,1359,0,0
35,-335,0,0,0,0,0,0,0,0,0,-1,1259,1359,0,0
42,-335,0,0,0,0,0,0,0,0,0,-1,1266,1359,0,0
49,-335,0,0,0,0,0,0,0,0,0,-1,1273,1359,0,0
56,-335,0,0,0,0,0,0,0,0,0,-1,1280,1359,0,0
63,-335,0,0,0,0,0,0,0,0,0,-1,1287,1359,0,0
70,-335,0,0,0,0,0,0,0,0,0,-1,1294,1359,0,0
77,-335,0,0,0,0,0,0,0,0,0,-1,1301,1359,0,0
84,-335,0,0,0,0,0,0,0,0,0,-1,1308,1359,0,0
91,-335,0,0,0,0,0,0,0,0,0,-1,1315,1359,0,0
98,-335,0,0,0,0,0,0,0,0,0,-1,1322,1359,0,0
105,-335,0,0,0,0,0,0,0,0,0,-1,1329,1359,0,0
112,-335,0,0,0,0,0,0,0,0,0,-1,1336,1359,0,0
119,-335,0,0,0,0,0,0,0,0,0,-1,1343,1359,0,0
126,-335,0,0,0,0,0,0,0,0,0,-1,1350,1359,0,0
133,-335,0,0,0,0,0,0,0,0,0,-1,1357,1359,0,0
140,-335,0,0,0,0,0,0,0,0,0,-1,1364,1359,0,0
147,-335,0,0,0,0,0,0,0,0,0,-1,1371,1359,0,0
154,-335,0,0,0,0,0,0,0,0,0,-1,1378,1359,0,0
161,-335,0,0,0,0,0,0,0,0,0,-1,1385,1359,0,0
168,-335,0,0,0,0,0,0,0,0,0,-1,1392,1359,0,0
175,-335,0,0,0,0,0,0,0,0,0,-1,1399,1359,0,0
182,-335,0,0,0,0,0,0,0,0,0,-1,1406,1359,0,0
189,-335,0,0,0,0,0,0,0,0,0,-1,1413,1359,0,0
196,-335,0,0,0,0,0,0,0,0,0,-1,1420,1359,0,0
203,-335,0,0,0,0,0,0,0,0,0,-1,1427,1359,0,0
210,-335,0,0,0,0,0,0,0,0,0,-1,1434,1359,0,0
217,-335,0,0,0,0,0,0,0,0,0,-1,1441,1359,0,0
224,-335,0,0,0,0,0,0,0,0,0,-1,1448,1359,0,0
231,-335,0,0,0,0,0,0,0,0,0,-1,1455,1359,0,0
238,-335,0,0,0,0,0,0,0,0,0,-1,1462,1359,0,0
245,-335,0,0,0,0,0,0,0,0,0,-1,1469,1359,0,0
252,-335,0,0,0,0,0,0,0,0,0,-1,1476,1359,0,0
259,-335,0,0,0,0,0,0,0,0,0,-1,1483,1359,0,0
266,-335,0,0,0,0,0,0,0,0,0,-1,1490,1359,0,0
273,-335,0,0,0,0,0,0,0,0,0,-1,1497,1359,0,0
280,-335,0,0,0,0,0,0,0,0,0,-1,1504,1359,0,0
287,-335,0,0,0,0,0,0,0,0,0,-1,1511,1359,0,0
294,-335,0,0,0,0,0,0,0,0,0,-1,1518,1359,0,0
301,-335,0,0,0,0,0,0,0,0,0,-1,1525,1359,0,0
308,-335,0,0,0,0,0,0,0,0,0,-1,1532,1359,0,0
315,-335,0,0,0,0,0,0,0,0,0,-1,1539,1359,0,0
322,-335,0,0,0,0,0,0,0,0,0,-1,1546,1359,0,0
329,-335,0,0,0,0,0,0,0,0,0,-1,1553,1359,0,0
336,-335,0,0,0,0,0,0,0,0,0,-1,1560,1359,0,0
343,-335,0,0,0,0,0,0,0,0,0,-1,1567,1359,0,0
350,-335,0,0,0,0,0,0,0,0,0,-1,1574,1359,0,0
357,-335,0,0,0,0,0,0,0,0,0,-1,1581,1359,0,0
364,-335,0,0,0,0,0,0,0,0,0,-1,1588,1359,0,0
371,-335,0,0,0,0,0,0,0,0,0,-1,1595,1359,0,0
378,-335,0,0,0,0,0,0,0,0,0,-1,1602,1359,0,0
385,-335,0,0,0,0,0,0,0,0,0,-1,1609,1359,0,0
392,-335,0,0,0,0,0,0,0,0,0,-1,1616,1359,0,0
399,-335,0,0,0,0,0,0,0,0,0,-1,1623,1359,0,0
406,-335,0,0,0,0,0,0,0,0,0,-1,1630,1359,0,0
413,-335,0,0,0,0,0,0,0,0,0,-1,1637,1359,0,0
420,-335,0,0,0,0,0,0,0,0,0,-1,1644,1359,0,0
427,-335,0,0,0,0,0,0,0,0,0,-1,1651,1359,0,0
434,-335,0,0,0,0,0,0,0,0,0,-1,1658,1359,0,0
441,-335,0,0,0,0,0,0,0,0,0,-1,1665,1359,0,0
448,-335,0,0,0,0,0,0,0,0,0,-1,1672,1359,0,0
455,-335,0,0,0,0,0,0,0,0,0,-1,1679,1359,0,0
462,-335,0,0,0,0,0,0,0,0,0,-1,1686,1359,0,0
469,-335,0,0,0,0,0,0,0,0,0,-1,1693,1359,0,0
476,-335,0,0,0,0,0,0,0,0,0,-1,1700,1359,0,0
483,-335,0,0,0,0,0,0,0,0,0,-1,1707,1359,0,0
490,-335,0,0,0,0,0,0,0,0,0,-1,1714,1359,0,0
497,-335,0,0,0,0,0,0,0,0,0,-1,1721,1359,0,0
504,-335,0,0,0,0,0,0,0,0,0,-1,1728,1359,0,0
511,-335,0,0,0,0,0,0,0,0,0,-1,1735,1359,0,0
518,-335,0,0,0,0,0,0,0,0,0,-1,1742,1359,0,0
525,-335,0,0,0,0,0,0,0,0,0,-1,1749,1359,0,0
532,-335,0,0,0,0,0,0,0,0,0,-1,1756,1359,0,0
539,-335,0,0,0,0,0,0,0,0,0,-1,1763,1359,0,0
546,-335,0,0,0,0,0,0,0,0,0,-1,1770,1359,0,0
553,-335,0,0,0,0,0,0,0,0,0,-1,1777,1359,0,0
560,-335,0,0,0,0,0,0,0,0,0,-1,1784,1359,0,0
567,-335,0,0,0,0,0,0,0,0,0,-1,1791,1359,0,0
574,-335,65.0712,2.80188,0,0,0,0,0,0,0,-1,1798,1359,65.0712,-2.80193
581,-335,66.5206,1.60327,0,0,0,0,0,0,0,-1,1805,1359,66.5206,-1.60333
588,-335,67.826,0.334961,0,0,0,0,0,0,0,-1,1812,1359,67.8261,-0.335018
595,-335,49.984,3.76465,0,0,0,0,0,0,0,-1,1819,1359,49.984,-3.76467
602,-335,36.5643,0.0861816,0,0,0,0,0,0,0,-1,1826,1359,36.5643,-0.0862283
609,-335,36.2933,0.993896,0,0,0,0,0,0,0,-1,1833,1359,36.2934,-0.993911
616,-335,34.6969,4.82666,0,0,0,0,0,0,0,-1,1840,1359,34.6969,-4.82667
623,-335,26.6051,6.54333,0,0,0,0,0,0,0,-1,1847,1359,26.6051,-6.54339
630,-335,19.1707,1.00952,0,0,0,0,0,0,0,-1,1854,1359,19.1707,-1.00953
637,-335,18.2009,6.65454,0,0,0,0,0,0,0,-1,1861,1359,18.2009,-6.6546
644,-335,28.1042,12.067,0,0,0,0,0,0,0,-1,1868,1359,28.1042,-12.067
651,-335,49.6154,21.4872,0,0,0,0,0,0,0,-1,1875,1359,49.6153,-21.4871
658,-335,49.6472,20.4724,-0.00135522,0.000805304,-0.000486048,0.000909613,-0.00145953,-1.3594,0.00138006,0.045395,1882,1359,49.6472,-20.4725
665,-335,49.6057,19.5377,-0.000675984,0.000377091,-0.000422372,0.000525564,-0.000824457,-1.23277,0.000785777,0.0156913,1889,1359,49.6058,-19.5377
672,-335,49.5681,18.6683,4.23859e-05,0.000232979,-0.000502255,0.000648898,-0.000373533,-0.879152,0.000597395,0.0175828,1896,1359,49.5681,-18.6684
679,-335,49.5015,17.8164,0.000741712,0.000245821,-0.000604777,0.0011474,-0.000159863,-0.590859,0.000823408,0.0149,1903,1359,49.5015,-17.8164
686,-335,49.4731,16.9292,0.00144935,0.000338184,-0.000743902,0.00182224,-3.47067e-05,-0.464658,0.00122656,0.0129708,1910,1359,49.4732,-16.9292
693,-335,49.4119,16.08,0.00215541,0.000501123,-0.000911977,0.00255947,9.70595e-05,-0.41707,0.0016749,0.0115335,1917,1359,49.4119,-16.0799
700,-335,49.3396,15.2297,0.00284503,0.000725928,-0.00107643,0.00329589,0.000275065,-0.396651,0.00211155,0.0120565,1924,1359,49.3396,-15.2297
707,-335,49.3037,14.3722,0.00347887,0.000989277,-0.00121263,0.00397189,0.000496263,-0.386154,0.00249898,0.01509,1931,1359,49.3037,-14.3722
714,-335,49.2942,13.4192,0.00402948,0.00135272,-0.00135168,0.00459328,0.000788918,-0.395171,0.00283603,0.0363885,1938,1359,49.2942,-13.4192
721,-335,49.1932,12.3711,0,0,0,0,0,0,0,-1,1945,1359,49.1932,-12.3711
728,-335,20.8126,5.21167,0,0,0,0,0,0,0,-1,1952,1359,20.8127,-5.21172
735,-335,20.2725,5.34729,0,0,0,0,0,0,0,-1,1959,1359,20.2724,-5.34734
742,-335,19.8624,4.72229,0,0,0,0,0,0,0,-1,1966,1359,19.8624,-4.72225
749,-335,20.5887,6.05322,0,0,0,0,0,0,0,-1,1973,1359,20.5887,-6.05322
756,-335,20.7832,6.00452,0,0,0,0,0,0,0,-1,1980,1359,20.7832,-6.00447
763,-335,0,0,0,0,0,0,0,0,0,-1,1987,1359,0,0
770,-335,0,0,0,0,0,0,0,0,0,-1,1994,1359,0,0
777,-335,0,0,0,0,0,0,0,0,0,-1,2001,1359,0,0
784,-335,0,0,0,0,0,0,0,0,0,-1,2008,1359,0,0
791,-335,0,0,0,0,0,0,0,0,0,-1,2015,1359,0,0
798,-335,0,0,0,0,0,0,0,0,0,-1,2022,1359,0,0
805,-335,0,0,0,0,0,0,0,0,0,-1,2029,1359,0,0
812,-335,0,0,0,0,0,0,0,0,0,-1,2036,1359,0,0
-700,-342,0,0,0,0,0,0,0,0,0,-1,524,1366,0,0
-693,-342,0,0,0,0,0,0,0,0,0,-1,531,1366,0,0
-686,-342,0,0,0,0,0,0,0,0,0,-1,538,1366,0,0
-679,-342,0,0,0,0,0,0,0,0,0,-1,545,1366,0,0
-672,-342,0,0,0,0,0,0,0,0,0,-1,552,1366,0,0
-665,-342,0,0,0,0,0,0,0,0,0,-1,559,1366,0,0
-658,-342,0,0,0,0,0,0,0,0,0,-1,566,1366,0,0
-651,-342,0,0,0,0,0,0,0,0,0,-1,573,1366,0,0
-644,-342,0,0,0,0,0,0,0,0,0,-1,580,1366,0,0
-637,-342,-63.7546,12.2344,0,0,0,0,0,0,0,-1,587,1366,-63.7546,-12.2343
-630,-342,-8.60132,2.71777,0,0,0,0,0,0,0,-1,594,1366,-8.60135,-2.71779
-623,-342,-8.41168,0.662476,0,0,0,0,0,0,0,-1,601,1366,-8.41168,-0.662442
-616,-342,-6.625,-1.28015,0,0,0,0,0,0,0,-1,608,1366,-6.62499,1.28011
-609,-342,-7.83154,0.674561,0,0,0,0,0,0,0,-1,615,1366,-7.83155,-0.674598
-602,-342,-9.65765,2.25195,0,0,0,0,0,0,0,-1,622,1366,-9.65767,-2.25192
-595,-342,-9.47687,3.00671,0,0,0,0,0,0,0,-1,629,1366,-9.47686,-3.00668
-588,-342,-9.78467,3.57727,0,0,0,0,0,0,0,-1,636,1366,-9.78468,-3.57723
-581,-342,-31.5472,13.5773,0,0,0,0,0,0,0,-1,643,1366,-31.5473,-13.5773
-574,-342,-31.4609,14.4492,0.00494609,0.00349338,0.00280299,0.00711531,0.00132417,0.658619,0.00436955,0.01963,650,1366,-31.4609,-14.4492
-567,-342,-31.4148,15.3698,0.0041568,0.00260439,0.00223395,0.00574556,0.00101563,0.618193,0.00354072,0.0172584,657,1366,-31.4148,-15.3698
-560,-342,-31.4655,16.1836,0.0039232,0.00193741,0.00197828,0.00514377,0.000716841,0.552816,0.00321696,0.0270096,664,1366,-31.4654,-16.1836
-553,-342,-31.554,17.0192,0.00408317,0.00141187,0.00196468,0.00512322,0.000371826,0.486868,0.00329853,0.0301654,671,1366,-31.554,-17.0191
-546,-342,-31.6132,17.9375,0.00457897,0.00100447,0.00214877,0.00558662,-3.18023e-06,0.438495,0.00372547,0.0281766,678,1366,-31.6132,-17.9374
-539,-342,-31.6277,18.9094,0.00539641,0.000708712,0.00252268,0.00649604,-0.000390915,0.411064,0.0044667,0.0247578,685,1366,-31.6277,-18.9095
-532,-342,-31.6941,19.8518,0.00655077,0.000541575,0.00309619,0.00786057,-0.000768226,0.400206,0.00551432,0.0193298,692,1366,-31.6941,-19.8518
-525,-342,-31.696,20.7729,0.00801071,0.000507611,0.00388293,0.00965835,-0.00114003,0.401303,0.0068506,0.0145519,699,1366,-31.696,-20.773
-518,-342,-31.6221,21.7148,0.00991013,0.000561657,0.0048995,0.0120074,-0.00153563,0.404461,0.00856285,0.0491246,706,1366,-31.6222,-21.7148
-511,-342,-31.583,22.6224,0,0,0,0,0,0,0,-1,713,1366,-31.583,-22.6225
-504,-342,-8.95709,6.5719,0,0,0,0,0,0,0,-1,720,1366,-8.95707,-6.57192
-497,-342,-8.26587,-0.943604,0,0,0,0,0,0,0,-1,727,1366,-8.26586,0.943543
-490,-342,-9.07153,-0.0227051,0,0,0,0,0,0,0,-1,734,1366,-9.07155,0.0227087
-483,-342,-9.87726,0.898071,0,0,0,0,0,0,0,-1,741,1366,-9.87724,-0.898125
-476,-342,-11.6371,-0.736328,0,0,0,0,0,0,0,-1,748,1366,-11.6371,0.736281
-469,-342,-12.6245,-0.987549,0,0,0,0,0,0,0,-1,755,1366,-12.6245,0.987553
-462,-342,-13.0912,-0.533203,0,0,0,0,0,0,0,-1,762,1366,-13.0912,0.533224
-455,-342,-13.7612,0.122925,0,0,0,0,0,0,0,-1,769,1366,-13.7612,-0.122896
-448,-342,-14.5278,0.826904,0,0,0,0,0,0,0,-1,776,1366,-14.5277,-0.826861
-441,-342,0,0,0,0,0,0,0,0,0,-1,783,1366,0,0
-434,-342,0,0,0,0,0,0,0,0,0,-1,790,1366,0,0
-427,-342,0,0,0,0,0,0,0,0,0,-1,797,1366,0,0
-420,-342,0,0,0,0,0,0,0,0,0,-1,804,1366,0,0
-413,-342,0,0,0,0,0,0,0,0,0,-1,811,1366,0,0
-406,-342,0,0,0,0,0,0,0,0,0,-1,818,1366,0,0
-399,-342,0,0,0,0,0,0,0,0,0,-1,825,1366,0,0
-392,-342,0,0,0,0,0,0,0,0,0,-1,832,1366,0,0
-385,-342,0,0,0,0,0,0,0,0,0,-1,839,1366,0,0
-378,-342,0,0,0,0,0,0,0,0,0,-1,846,1366,0,0
-371,-342,0,0,0,0,0,0,0,0,0,-1,853,1366,0,0
-364,-342,0,0,0,0,0,0,0,0,0,-1,860,1366,0,0
-357,-342,0,0,0,0,0,0,0,0,0,-1,867,1366,0,0
-350,-342,0,0,0,0,0,0,0,0,0,-1,874,1366,0,0
-343,-342,0,0,0,0,0,0,0,0,0,-1,881,1366,0,0
-336,-342,0,0,0,0,0,0,0,0,0,-1,888,1366,0,0
-329,-342,0,0,0,0,0,0,0,0,0,-1,895,1366,0,0
-322,-342,0,0,0,0,0,0,0,0,0,-1,902,1366,0,0
-315,-342,0,0,0,0,0,0,0,0,0,-1,909,1366,0,0
-308,-342,0,0,0,0,0,0,0,0,0,-1,916,1366,0,0
-301,-342,0,0,0,0,0,0,0,0,0,-1,923,1366,0,0
-294,-342,0,0,0,0,0,0,0,0,0,-1,930,1366,0,0
-287,-342,0,0,0,0,0,0,0,0,0,-1,937,1366,0,0
-280,-342,0,0,0,0,0,0,0,0,0,-1,944,1366,0,0
-273,-342,0,0,0,0,0,0,0,0,0,-1,951,1366,0,0
-266,-342,0,0,0,0,0,0,0,0,0,-1,958,1366,0,0
-259,-342,0,0,0,0,0,0,0,0,0,-1,965,1366,0,0
-252,-342,0,0,0,0,0,0,0,0,0,-1,972,1366,0,0
-245,-342,0,0,0,0,0,0,0,0,0,-1,979,1366,0,0
-238,-342,0,0,0,0,0,0,0,0,0,-1,986,1366,0,0
-231,-342,0,0,0,0,0,0,0,0,0,-1,993,1366,0,0
-224,-342,0,0,0,0,0,0,0,0,0,-1,1000,1366,0,0
-217,-342,0,0,0,0,0,0,0,0,0,-1,1007,1366,0,0
-210,-342,0,0,0,0,0,0,0,0,0,-1,1014,1366,0,0
-203,-342,0,0,0,0,0,0,0,0,0,-1,1021,1366,0,0
-196,-342,0,0,0,0,0,0,0,0,0,-1,1028,1366,0,0
-189,-342,0,0,0,0,0,0,0,0,0,-1,1035,1366,0,0
-182,-342,0,0,0,0,0,0,0,0,0,-1,1042,1366,0,0
-175,-342,0,0,0,0,0,0,0,0,0,-1,1049,1366,0,0
-168,-342,0,0,0,0,0,0,0,0,0,-1,1056,1366,0,0
-161,-342,0,0,0,0,0,0,0,0,0,-1,1063,1366,0,0
-154,-342,0,0,0,0,0,0,0,0,0,-1,1070,1366,0,0
-147,-342,0,0,0,0,0,0,0,0,0,-1,1077,1366,0,0
-140,-342,0,0,0,0,0,0,0,0,0,-1,1084,1366,0,0
-133,-342,0,0,0,0,0,0,0,0,0,-1,1091,1366,0,0
-126,-342,0,0,0,0,0,0,0,0,0,-1,1098,1366,0,0
-119,-342,0,0,0,0,0,0,0,0,0,-1,1105,1366,0,0
-112,-342,0,0,0,0,0,0,0,0,0,-1,1112,1366,0,0
-105,-342,0,0,0,0,0,0,0,0,0,-1,1119,1366,0,0
-98,-342,0,0,0,0,0,0,0,0,0,-1,1126,1366,0,0
-91,-342,0,0,0,0,0,0,0,0,0,-1,1133,1366,0,0
-84,-342,0,0,0,0,0,0,0,0,0,-1,1140,1366,0,0
-77,-342,0,0,0,0,0,0,0,0,0,-1,1147,1366,0,0
-70,-342,0,0,0,0,0,0,0,0,0,-1,1154,1366,0,0
-63,-342,0,0,0,0,0,0,0,0,0,-1,1161,1366,0,0
-56,-342,0,0,0,0,0,0,0,0,0,-1,1168,1366,0,0
-49,-342,0,0,0,0,0,0,0,0,0,-1,1175,1366,0,0
-42,-342,0,0,0,0,0,0,0,0,0,-1,1182,1366,0,0
-35,-342,0,0,0,0,0,0,0,0,0,-1,1189,1366,0,0
-28,-342,0,0,0,0,0,0,0,0,0,-1,1196,1366,0,0
-21,-342,0,0,0,0,0,0,0,0,0,-1,1203,1366,0,0
-14,-342,0,0,0,0,0,0,0,0,0,-1,1210,1366,0,0
-7,-342,0,0,0,0,0,0,0,0,0,-1,1217,1366,0,0
0,-342,0,0,0,0,0,0,0,0,0,-1,1224,1366,0,0
7,-342,0,0,0,0,0,0,0,0,0,-1,1231,1366,0,0
14,-342,0,0,0,0,0,0,0,0,0,-1,1238,1366,0,0
21,-342,0,0,0,0,0,0,0,0,0,-1,1245,1366,0,0
28,-342,0,0,0,0,0,0,0,0,0,-1,1252,1366,0,0
35,-342,0,0,0,0,0,0,0,0,0,-1,1259,1366,0,0
42,-342,0,0,0,0,0,0,0,0,0,-1,1266,1366,0,0
49,-342,0,0,0,0,0,0,0,0,0,-1,1273,1366,0,0
56,-342,0,0,0,0,0,0,0,0,0,-1,1280,1366,0,0
63,-342,0,0,0,0,0,0,0,0,0,-1,1287,1366,0,0
70,-342,0,0,0,0,0,0,0,0,0,-1,1294,1366,0,0
77,-342,0,0,0,0,0,0,0,0,0,-1,1301,1366,0,0
84,-342,0,0,0,0,0,0,0,0,0,-1,1308,1366,0,0
91,-342,0,0,0,0,0,0,0,0,0,-1,1315,1366,0,0
98,-342,0,0,0,0,0,0,0,0,0,-1,1322,1366,0,0
105,-342,0,0,0,0,0,0,0,0,0,-1,1329,1366,0,0
112,-342,0,0,0,0,0,0,0,0,0,-1,1336,1366,0,0
119,-342,0,0,0,0,0,0,0,0,0,-1,1343,1366,0,0
126,-342,0,0,0,0,0,0,0,0,0,-1,1350,1366,0,0
133,-342,0,0,0,0,0,0,0,0,0,-1,1357,1366,0,0
140,-342,0,0,0,0,0,0,0,0,0,-1,1364,1366,0,0
147,-342,0,0,0,0,0,0,0,0,0,-1,1371,1366,0,0
154,-342,0,0,0,0,0,0,0,0,0,-1,1378,1366,0,0
161,-342,0,0,0,0,0,0,0,0,0,-1,1385,1366,0,0
168,-342,0,0,0,0,0,0,0,0,0,-1,1392,1366,0,0
175,-342,0,0,0,0,0,0,0,0,0,-1,1399,1366,0,0
182,-342,0,0,0,0,0,0,0,0,0,-1,1406,1366,0,0
189,-342,0,0,0,0,0,0,0,0,0,-1,1413,1366,0,0
196,-342,0,0,0,0,0,0,0,0,0,-1,1420,1366,0,0
203,-342,0,0,0,0,0,0,0,0,0,-1,1427,1366,0,0
210,-342,0,0,0,0,0,0,0,0,0,-1,1434,1366,0,0
217,-342,0,0,0,0,0,0,0,0,0,-1,1441,1366,0,0
224,-342,0,0,0,0,0,0,0,0,0,-1,1448,1366,0,0
231,-342,0,0,0,0,0,0,0,0,0,-1,1455,1366,0,0
238,-342,0,0,0,0,0,0,0,0,0,-1,1462,1366,0,0
245,-342,0,0,0,0,0,0,0,0,0,-1,1469,1366,0,0
252,-342,0,0,0,0,0,0,0,0,0,-1,1476,1366,0,0
259,-342,0,0,0,0,0,0,0,0,0,-1,1483,1366,0,0
266,-342,0,0,0,0,0,0,0,0,0,-1,1490,1366,0,0
273,-342,0,0,0,0,0,0,0,0,0,-1,1497,1366,0,0
280,-342,0,0,0,0,0,0,0,0,0,-1,1504,1366,0,0
287,-342,0,0,0,0,0,0,0,0,0,-1,1511,1366,0,0
294,-342,0,0,0,0,0,0,0,0,0,-1,1518,1366,0,0
301,-342,0,0,0,0,0,0,0,0,0,-1,1525,1366,0,0
308,-342,0,0,0,0,0,0,0,0,0,-1,1532,1366,0,0
315,-342,0,0,0,0,0,0,0,0,0,-1,1539,1366,0,0
322,-342,0,0,0,0,0,0,0,0,0,-1,1546,1366,0,0
329,-342,0,0,0,0,0,0,0,0,0,-1,1553,1366,0,0
336,-342,0,0,0,0,0,0,0,0,0,-1,1560,1366,0,0
343,-342,0,0,0,0,0,0,0,0,0,-1,1567,1366,0,0
350,-342,0,0,0,0,0,0,0,0,0,-1,1574,1366,0,0
357,-342,0,0,0,0,0,0,0,0,0,-1,1581,1366,0,0
364,-342,0,0,0,0,0,0,0,0,0,-1,1588,1366,0,0
371,-342,0,0,0,0,0,0,0,0,0,-1,1595,1366,0,0
378,-342,0,0,0,0,0,0,0,0,0,-1,1602,1366,0,0
385,-342,0,0,0,0,0,0,0,0,0,-1,1609,1366,0,0
392,-342,0,0,0,0,0,0,0,0,0,-1,1616,1366,0,0
399,-342,0,0,0,0,0,0,0,0,0,-1,1623,1366,0,0
406,-342,0,0,0,0,0,0,0,0,0,-1,1630,1366,0,0
413,-342,0,0,0,0,0,0,0,0,0,-1,1637,1366,0,0
420,-342,0,0,0,0,0,0,0,0,0,-1,1644,1366,0,0
427,-342,0,0,0,0,0,0,0,0,0,-1,1651,1366,0,0
434,-342,0,0,0,0,0,0,0,0,0,-1,1658,1366,0,0
441,-342,0,0,0,0,0,0,0,0,0,-1,1665,1366,0,0
448,-342,0,0,0,0,0,0,0,0,0,-1,1672,1366,0,0
455,-342,0,0,0,0,0,0,0,0,0,-1,1679,1366,0,0
462,-342,0,0,0,0,0,0,0,0,0,-1,1686,1366,0,0
469,-342,0,0,0,0,0,0,0,0,0,-1,1693,1366,0,0
476,-342,0,0,0,0,0,0,0,0,0,-1,1700,1366,0,0
483,-342,0,0,0,0,0,0,0,0,0,-1,1707,1366,0,0
490,-342,0,0,0,0,0,0,0,0,0,-1,1714,1366,0,0
497,-342,0,0,0,0,0,0,0,0,0,-1,1721,1366,0,0
504,-342,0,0,0,0,0,0,0,0,0,-1,1728,1366,0,0
511,-342,0,0,0,0,0,0,0,0,0,-1,1735,1366,0,0
518,-342,0,0,0,0,0,0,0,0,0,-1,1742,1366,0,0
525,-342,0,0,0,0,0,0,0,0,0,-1,1749,1366,0,0
532,-342,0,0,0,0,0,0,0,0,0,-1,1756,1366,0,0
539,-342,0,0,0,0,0,0,0,0,0,-1,1763,1366,0,0
546,-342,0,0,0,0,0,0,0,0,0,-1,1770,1366,0,0
553,-342,0,0,0,0,0,0,0,0,0,-1,1777,1366,0,0
560,-342,0,0,0,0,0,0,0,0,0,-1,1784,1366,0,0
567,-342,64.6937,3.24878,0,0,0,0,0,0,0,-1,1791,1366,64.6938,-3.24881
574,-342,65.4669,2.18384,0,0,0,0,0,0,0,-1,1798,1366,65.4669,-2.18381
581,-342,66.542,1.36292,0,0,0,0,0,0,0,-1,1805,1366,66.542,-1.36295
588,-342,43.9108,7.22559,0,0,0,0,0,0,0,-1,1812,1366,43.9107,-7.22554
595,-342,35.7993,0.709961,0,0,0,0,0,0,0,-1,1819,1366,35.7993,-0.709913
602,-342,36.3618,3.28723,0,0,0,0,0,0,0,-1,1826,1366,36.3619,-3.28719
609,-342,35.3777,4.14978,0,0,0,0,0,0,0,-1,1833,1366,35.3777,-4.14976
616,-342,34.199,5.8158,0,0,0,0,0,0,0,-1,1840,1366,34.199,-5.81579
623,-342,26.0299,6.86865,0,0,0,0,0,0,0,-1,1847,1366,26.0299,-6.86863
630,-342,17.3431,0.773071,0,0,0,0,0,0,0,-1,1854,1366,17.3432,-0.773095
637,-342,16.196,6.76172,0,0,0,0,0,0,0,-1,1861,1366,16.1961,-6.76174
644,-342,31.8916,14.0614,0,0,0,0,0,0,0,-1,1868,1366,31.8916,-14.0613
651,-342,48.8561,21.3878,0,0,0,0,0,0,0,-1,1875,1366,48.8561,-21.3878
658,-342,48.7988,20.4786,-0.00114872,0.00066408,-0.000373785,0.000738127,-0.00122277,-1.37523,0.00114359,0.023414,1882,1366,48.7989,-20.4787
665,-342,48.7272,19.5514,-0.000433379,0.000312735,-0.00036876,0.000464231,-0.000584874,-1.18099,0.000607035,0.0187615,1889,1366,48.7272,-19.5514
672,-342,48.678,18.7378,0.000331567,0.000220004,-0.000505132,0.000783988,-0.000232417,-0.730407,0.00061495,0.014628,1896,1366,48.678,-18.7378
679,-342,48.6188,17.9133,0.00111199,0.000256866,-0.000701503,0.00150596,-0.000137104,-0.511712,0.00105266,0.013902,1903,1366,48.6187,-17.9133
686,-342,48.6095,17.0313,0.00192399,0.000409097,-0.000966729,0.00239467,-6.158e-05,-0.453093,0.00161736,0.0120069,1910,1366,48.6095,-17.0313
693,-342,48.5369,16.1594,0.00275297,0.000646406,-0.00127288,0.00335184,4.75323e-05,-0.439761,0.00221889,0.0127208,1917,1366,48.5368,-16.1594
700,-342,48.4711,15.3168,0.00358736,0.000977713,-0.00160685,0.00435244,0.000212626,-0.444379,0.00283342,0.0147169,1924,1366,48.4711,-15.3168
707,-342,48.4233,14.3888,0.00436451,0.00136511,-0.00191275,0.00529539,0.000434235,-0.452926,0.00339478,0.0148387,1931,1366,48.4233,-14.3887
714,-342,48.4299,13.4569,0,0,0,0,0,0,0,-1,1938,1366,48.4299,-13.457
721,-342,22.4666,6.08679,0,0,0,0,0,0,0,-1,1945,1366,22.4666,-6.08678
728,-342,19.8912,5.26636,0,0,0,0,0,0,0,-1,1952,1366,19.8913,-5.26636
735,-342,19.481,4.41968,0,0,0,0,0,0,0,-1,1959,1366,19.4809,-4.41962
742,-342,19.309,2.66943,0,0,0,0,0,0,0,-1,1966,1366,19.3089,-2.66948
749,-342,21.0934,6.47729,0,0,0,0,0,0,0,-1,1973,1366,21.0934,-6.4773
756,-342,0,0,0,0,0,0,0,0,0,-1,1980,1366,0,0
763,-342,0,0,0,0,0,0,0,0,0,-1,1987,1366,0,0
770,-342,0,0,0,0,0,0,0,0,0,-1,1994,1366,0,0
777,-342,0,0,0,0,0,0,0,0,0,-1,2001,1366,0,0
784,-342,0,0,0,0,0,0,0,0,0,-1,2008,1366,0,0
791,-342,0,0,0,0,0,0,0,0,0,-1,2015,1366,0,0
798,-342,0,0,0,0,0,0,0,0,0,-1,2022,1366,0,0
805,-342,0,0,0,0,0,0,0,0,0,-1,2029,1366,0,0
812,-342,0,0,0,0,0,0,0,0,0,-1,2036,1366,0,0
-700,-349,0,0,0,0,0,0,0,0,0,-1,524,1373,0,0
-693,-349,0,0,0,0,0,0,0,0,0,-1,531,1373,0,0
-686,-349,0,0,0,0,0,0,0,0,0,-1,538,1373,0,0
-679,-349,0,0,0,0,0,0,0,0,0,-1,545,1373,0,0
-672,-349,0,0,0,0,0,0,0,0,0,-1,552,1373,0,0
-665,-349,0,0,0,0,0,0,0,0,0,-1,559,1373,0,0
-658,-349,0,0,0,0,0,0,0,0,0,-1,566,1373,0,0
-651,-349,0,0,0,0,0,0,0,0,0,-1,573,1373,0,0
-644,-349,0,0,0,0,0,0,0,0,0,-1,580,1373,0,0
-637,-349,0,0,0,0,0,0,0,0,0,-1,587,1373,0,0
-630,-349,-7.64117,-5.06177,0,0,0,0,0,0,0,-1,594,1373,-7.64118,5.0618
-623,-349,-8.63507,0.51123,0,0,0,0,0,0,0,-1,601,1373,-8.63505,-0.511275
-616,-349,-5.2066,-0.188232,0,0,0,0,0,0,0,-1,608,1373,-5.20659,0.188211
-609,-349,-7.12073,1.37048,0,0,0,0,0,0,0,-1,615,1373,-7.12072,-1.37044
-602,-349,-9.00623,3.39587,0,0,0,0,0,0,0,-1,622,1373,-9.0062,-3.39591
-595,-349,-9.50568,2.96912,0,0,0,0,0,0,0,-1,629,1373,-9.50569,-2.96906
-588,-349,-8.60046,3.56042,0,0,0,0,0,0,0,-1,636,1373,-8.60046,-3.56047
-581,-349,-29.9905,13.4237,0,0,0,0,0,0,0,-1,643,1373,-29.9905,-13.4237
-574,-349,-30.7153,14.438,0,0,0,0,0,0,0,-1,650,1373,-30.7153,-14.4379
-567,-349,-30.5903,15.407,0.00489408,0.00299828,0.0027938,0.00689641,0.000995957,0.621849,0.0043042,0.0200704,657,1373,-30.5903,-15.407
-560,-349,-30.6115,16.338,0.00433435,0.00222041,0.00231113,0.00581873,0.000736017,0.570928,0.00365858,0.0243676,664,1373,-30.6115,-16.338
-553,-349,-30.6593,17.1666,0.00419862,0.00160299,0.00210566,0.00537429,0.000427315,0.509222,0.00344925,0.0298431,671,1373,-30.6593,-17.1667
-546,-349,-30.6886,18.0273,0.00437441,0.00111461,0.00209045,0.00539527,9.37514e-05,0.454282,0.00356601,0.0301225,678,1373,-30.6886,-18.0274
-539,-349,-30.7125,18.9758,0.00484428,0.000741522,0.00225557,0.00584179,-0.00025599,0.416386,0.0039826,0.0245497,685,1373,-30.7125,-18.9758
-532,-349,-30.8069,19.933,0.00560764,0.000490625,0.00260227,0.00669849,-0.00060022,0.396939,0.00467858,0.018643,692,1373,-30.8069,-19.933
-525,-349,-30.8286,20.8273,0.00663211,0.000368939,0.00313006,0.00792817,-0.000927129,0.392578,0.00562004,0.0150939,699,1373,-30.8286,-20.8273
-518,-349,-30.837,21.7642,0.00797461,0.000336949,0.00383854,0.00957038,-0.00125881,0.393986,0.00683858,0.0306369,706,1373,-30.8371,-21.7642
-511,-349,-30.7883,22.7306,0,0,0,0,0,0,0,-1,713,1373,-30.7883,-22.7306
-504,-349,-9.60516,7.88831,0,0,0,0,0,0,0,-1,720,1373,-9.60519,-7.88825
-497,-349,-7.9339,5.58789,0,0,0,0,0,0,0,-1,727,1373,-7.93388,-5.58785
-490,-349,-8.73969,-0.503784,0,0,0,0,0,0,0,-1,734,1373,-8.73966,0.503752
-483,-349,-5.66974,3.7395,0,0,0,0,0,0,0,-1,741,1373,-5.66975,-3.73949
-476,-349,-10.8496,1.15759,0,0,0,0,0,0,0,-1,748,1373,-10.8496,-1.15756
-469,-349,-12.3314,-1.74878,0,0,0,0,0,0,0,-1,755,1373,-12.3314,1.74882
-462,-349,-12.6559,-0.995361,0,0,0,0,0,0,0,-1,762,1373,-12.656,0.995351
-455,-349,-13.2897,-0.234253,0,0,0,0,0,0,0,-1,769,1373,-13.2897,0.234261
-448,-349,-14.045,0.712891,0,0,0,0,0,0,0,-1,776,1373,-14.045,-0.712838
-441,-349,0,0,0,0,0,0,0,0,0,-1,783,1373,0,0
-434,-349,0,0,0,0,0,0,0,0,0,-1,790,1373,0,0
-427,-349,0,0,0,0,0,0,0,0,0,-1,797,1373,0,0
-420,-349,0,0,0,0,0,0,0,0,0,-1,804,1373,0,0
-413,-349,0,0,0,0,0,0,0,0,0,-1,811,1373,0,0
-406,-349,0,0,0,0,0,0,0,0,0,-1,818,1373,0,0
-399,-349,0,0,0,0,0,0,0,0,0,-1,825,1373,0,0
-392,-349,0,0,0,0,0,0,0,0,0,-1,832,1373,0,0
-385,-349,0,0,0,0,0,0,0,0,0,-1,839,1373,0,0
-378,-349,0,0,0,0,0,0,0,0,0,-1,846,1373,0,0
-371,-349,0,0,0,0,0,0,0,0,0,-1,853,1373,0,0
-364,-349,0,0,0,0,0,0,0,0,0,-1,860,1373,0,0
-357,-349,0,0,0,0,0,0,0,0,0,-1,867,1373,0,0
-350,-349,0,0,0,0,0,0,0,0,0,-1,874,1373,0,0
-343,-349,0,0,0,0,0,0,0,0,0,-1,881,1373,0,0
-336,-349,0,0,0,0,0,0,0,0,0,-1,888,1373,0,0
-329,-349,0,0,0,0,0,0,0,0,0,-1,895,1373,0,0
-322,-349,0,0,0,0,0,0,0,0,0,-1,902,1373,0,0
-315,-349,0,0,0,0,0,0,0,0,0,-1,909,1373,0,0
-308,-349,0,0,0,0,0,0,0,0,0,-1,916,1373,0,0
-301,-349,0,0,0,0,0,0,0,0,0,-1,923,1373,0,0
-294,-349,0,0,0,0,0,0,0,0,0,-1,930,1373,0,0
-287,-349,0,0,0,0,0,0,0,0,0,-1,937,1373,0,0
-280,-349,0,0,0,0,0,0,0,0,0,-1,944,1373,0,0
-273,-349,0,0,0,0,0,0,0,0,0,-1,951,1373,0,0
-266,-349,0,0,0,0,0,0,0,0,0,-1,958,1373,0,0
-259,-349,0,0,0,0,0,0,0,0,0,-1,965,1373,0,0
-252,-349,0,0,0,0,0,0,0,0,0,-1,972,1373,0,0
-245,-349,0,0,0,0,0,0,0,0,0,-1,979,1373,0,0
-238,-349,0,0,0,0,0,0,0,0,0,-1,986,1373,0,0
-231,-349,0,0,0,0,0,0,0,0,0,-1,993,1373,0,0
-224,-349,0,0,0,0,0,0,0,0,0,-1,1000,1373,0,0
-217,-349,0,0,0,0,0,0,0,0,0,-1,1007,1373,0,0
-210,-349,0,0,0,0,0,0,0,0,0,-1,1014,1373,0,0
-203,-349,0,0,0,0,0,0,0,0,0,-1,1021,1373,0,0
-196,-349,0,0,0,0,0,0,0,0,0,-1,1028,1373,0,0
-189,-349,0,0,0,0,0,0,0,0,0,-1,1035,1373,0,0
-182,-349,0,0,0,0,0,0,0,0,0,-1,1042,1373,0,0
-175,-349,0,0,0,0,0,0,0,0,0,-1,1049,1373,0,0
-168,-349,0,0,0,0,0,0,0,0,0,-1,1056,1373,0,0
-161,-349,0,0,0,0,0,0,0,0,0,-1,1063,1373,0,0
-154,-349,0,0,0,0,0,0,0,0,0,-1,1070,1373,0,0
-147,-349,0,0,0,0,0,0,0,0,0,-1,1077,1373,0,0
-140,-349,0,0,0,0,0,0,0,0,0,-1,1084,1373,0,0
-133,-349,0,0,0,0,0,0,0,0,0,-1,1091,1373,0,0
-126,-349,0,0,0,0,0,0,0,0,0,-1,1098,1373,0,0
-119,-349,0,0,0,0,0,0,0,0,0,-1,1105,1373,0,0
-112,-349,0,0,0,0,0,0,0,0,0,-1,1112,1373,0,0
-105,-349,0,0,0,0,0,0,0,0,0,-1,1119,1373,0,0
-98,-349,0,0,0,0,0,0,0,0,0,-1,1126,1373,0,0
-91,-349,0,0,0,0,0,0,0,0,0,-1,1133,1373,0,0
-84,-349,0,0,0,0,0,0,0,0,0,-1,1140,1373,0,0
-77,-349,0,0,0,0,0,0,0,0,0,-1,1147,1373,0,0
-70,-349,0,0,0,0,0,0,0,0,0,-1,1154,1373,0,0
-63,-349,0,0,0,0,0,0,0,0,0,-1,1161,1373,0,0
-56,-349,0,0,0,0,0,0,0,0,0,-1,1168,1373,0,0
-49,-349,0,0,0,0,0,0,0,0,0,-1,1175,1373,0,0
-42,-349,0,0,0,0,0,0,0,0,0,-1,1182,1373,0,0
-35,-349,0,0,0,0,0,0,0,0,0,-1,1189,1373,0,0
-28,-349,0,0,0,0,0,0,0,0,0,-1,1196,1373,0,0
-21,-349,0,0,0,0,0,0,0,0,0,-1,1203,1373,0,0
-14,-349,0,0,0,0,0,0,0,0,0,-1,1210,1373,0,0
-7,-349,0,0,0,0,0,0,0,0,0,-1,1217,1373,0,0
0,-349,0,0,0,0,0,0,0,0,0,-1,1224,1373,0,0
7,-349,0,0,0,0,0,0,0,0,0,-1,1231,1373,0,0
14,-349,0,0,0,0,0,0,0,0,0,-1,1238,1373,0,0
21,-349,0,0,0,0,0,0,0,0,0,-1,1245,1373,0,0
28,-349,0,0,0,0,0,0,0,0,0,-1,1252,1373,0,0
35,-349,0,0,0,0,0,0,0,0,0,-1,1259,1373,0,0
42,-349,0,0,0,0,0,0,0,0,0,-1,1266,1373,0,0
49,-349,0,0,0,0,0,0,0,0,0,-1,1273,1373,0,0
56,-349,0,0,0,0,0,0,0,0,0,-1,1280,1373,0,0
63,-349,0,0,0,0,0,0,0,0,0,-1,1287,1373,0,0
70,-349,0,0,0,0,0,0,0,0,0,-1,1294,1373,0,0
77,-349,0,0,0,0,0,0,0,0,0,-1,1301,1373,0,0
84,-349,0,0,0,0,0,0,0,0,0,-1,1308,1373,0,0
91,-349,0,0,0,0,0,0,0,0,0,-1,1315,1373,0,0
98,-349,0,0,0,0,0,0,0,0,0,-1,1322,1373,0,0
105,-349,0,0,0,0,0,0,0,0,0,-1,1329,1373,0,0
112,-349,0,0,0,0,0,0,0,0,0,-1,1336,1373,0,0
119,-349,0,0,0,0,0,0,0,0,0,-1,1343,1373,0,0
126,-349,0,0,0,0,0,0,0,0,0,-1,1350,1373,0,0
133,-349,0,0,0,0,0,0,0,0,0,-1,1357,1373,0,0
140,-349,0,0,0,0,0,0,0,0,0,-1,1364,1373,0,0
147,-349,0,0,0,0,0,0,0,0,0,-1,1371,1373,0,0
154,-349,0,0,0,0,0,0,0,0,0,-1,1378,1373,0,0
161,-349,0,0,0,0,0,0,0,0,0,-1,1385,1373,0,0
168,-349,0,0,0,0,0,0,0,0,0,-1,1392,1373,0,0
175,-349,0,0,0,0,0,0,0,0,0,-1,1399,1373,0,0
182,-349,0,0,0,0,0,0,0,0,0,-1,1406,1373,0,0
189,-349,0,0,0,0,0,0,0,0,0,-1,1413,1373,0,0
196,-349,0,0,0,0,0,0,0,0,0,-1,1420,1373,0,0
203,-349,0,0,0,0,0,0,0,0,0,-1,1427,1373,0,0
210,-349,0,0,0,0,0,0,0,0,0,-1,1434,1373,0,0
217,-349,0,0,0,0,0,0,0,0,0,-1,1441,1373,0,0
224,-349,0,0,0,0,0,0,0,0,0,-1,1448,1373,0,0
231,-349,0,0,0,0,0,0,0,0,0,-1,1455,1373,0,0
238,-349,0,0,0,0,0,0,0,0,0,-1,1462,1373,0,0
245,-349,0,0,0,0,0,0,0,0,0,-1,1469,1373,0,0
252,-349,0,0,0,0,0,0,0,0,0,-1,1476,1373,0,0
259,-349,0,0,0,0,0,0,0,0,0,-1,1483,1373,0,0
266,-349,0,0,0,0,0,0,0,0,0,-1,1490,1373,0,0
273,-349,0,0,0,0,0,0,0,0,0,-1,1497,1373,0,0
280,-349,0,0,0,0,0,0,0,0,0,-1,1504,1373,0,0
287,-349,0,0,0,0,0,0,0,0,0,-1,1511,1373,0,0
294,-349,0,0,0,0,0,0,0,0,0,-1,1518,1373,0,0
301,-349,0,0,0,0,0,0,0,0,0,-1,1525,1373,0,0
308,-349,0,0,0,0,0,0,0,0,0,-1,1532,1373,0,0
315,-349,0,0,0,0,0,0,0,0,0,-1,1539,1373,0,0
322,-349,0,0,0,0,0,0,0,0,0,-1,1546,1373,0,0
329,-349,0,0,0,0,0,0,0,0,0,-1,1553,1373,0,0
336,-349,0,0,0,0,0,0,0,0,0,-1,1560,1373,0,0
343,-349,0,0,0,0,0,0,0,0,0,-1,1567,1373,0,0
350,-349,0,0,0,0,0,0,0,0,0,-1,1574,1373,0,0
357,-349,0,0,0,0,0,0,0,0,0,-1,1581,1373,0,0
364,-349,0,0,0,0,0,0,0,0,0,-1,1588,1373,0,0
371,-349,0,0,0,0,0,0,0,0,0,-1,1595,1373,0,0
378,-349,0,0,0,0,0,0,0,0,0,-1,1602,1373,0,0
385,-349,0,0,0,0,0,0,0,0,0,-1,1609,1373,0,0
392,-349,0,0,0,0,0,0,0,0,0,-1,1616,1373,0,0
399,-349,0,0,0,0,0,0,0,0,0,-1,1623,1373,0,0
406,-349,0,0,0,0,0,0,0,0,0,-1,1630,1373,0,0
413,-349,0,0,0,0,0,0,0,0,0,-1,1637,1373,0,0
420,-349,0,0,0,0,0,0,0,0,0,-1,1644,1373,0,0
427,-349,0,0,0,0,0,0,0,0,0,-1,1651,1373,0,0
434,-349,0,0,0,0,0,0,0,0,0,-1,1658,1373,0,0
441,-349,0,0,0,0,0,0,0,0,0,-1,1665,1373,0,0
448,-349,0,0,0,0,0,0,0,0,0,-1,1672,1373,0,0
455,-349,0,0,0,0,0,0,0,0,0,-1,1679,1373,0,0
462,-349,0,0,0,0,0,0,0,0,0,-1,1686,1373,0,0
469,-349,0,0,0,0,0,0,0,0,0,-1,1693,1373,0,0
476,-349,0,0,0,0,0,0,0,0,0,-1,1700,1373,0,0
483,-349,0,0,0,0,0,0,0,0,0,-1,1707,1373,0,0
490,-349,0,0,0,0,0,0,0,0,0,-1,1714,1373,0,0
497,-349,0,0,0,0,0,0,0,0,0,-1,1721,1373,0,0
504,-349,0,0,0,0,0,0,0,0,0,-1,1728,1373,0,0
511,-349,0,0,0,0,0,0,0,0,0,-1,1735,1373,0,0
518,-349,0,0,0,0,0,0,0,0,0,-1,1742,1373,0,0
525,-349,0,0,0,0,0,0,0,0,0,-1,1749,1373,0,0
532,-349,0,0,0,0,0,0,0,0,0,-1,1756,1373,0,0
539,-349,0,0,0,0,0,0,0,0,0,-1,1763,1373,0,0
546,-349,0,0,0,0,0,0,0,0,0,-1,1770,1373,0,0
553,-349,0,0,0,0,0,0,0,0,0,-1,1777,1373,0,0
560,-349,63.5519,3.94397,0,0,0,0,0,0,0,-1,1784,1373,63.5519,-3.94394
567,-349,64.7863,2.54688,0,0,0,0,0,0,0,-1,1791,1373,64.7863,-2.5469
574,-349,65.8214,1.63818,0,0,0,0,0,0,0,-1,1798,1373,65.8214,-1.63813
581,-349,42.8947,6.78381,0,0,0,0,0,0,0,-1,1805,1373,42.8946,-6.78376
588,-349,44.8121,5.06213,0,0,0,0,0,0,0,-1,1812,1373,44.8121,-5.06215
595,-349,44.4338,6.14099,0,0,0,0,0,0,0,-1,1819,1373,44.4338,-6.14095
602,-349,35.6641,3.26465,0,0,0,0,0,0,0,-1,1826,1373,35.6641,-3.26468
609,-349,34.7175,4.401,0,0,0,0,0,0,0,-1,1833,1373,34.7175,-4.40096
616,-349,27.1451,6.68274,0,0,0,0,0,0,0,-1,1840,1373,27.1451,-6.6828
623,-349,18.8478,2.75769,0,0,0,0,0,0,0,-1,1847,1373,18.8478,-2.75774
630,-349,15.4948,6.47644,0,0,0,0,0,0,0,-1,1854,1373,15.4947,-6.4765
637,-349,16.5161,6.92639,0,0,0,0,0,0,0,-1,1861,1373,16.5161,-6.92636
644,-349,44.2694,19.8312,0,0,0,0,0,0,0,-1,1868,1373,44.2695,-19.8311
651,-349,48.0146,21.3794,0,0,0,0,0,0,0,-1,1875,1373,48.0146,-21.3794
658,-349,47.9271,20.5024,-0.000815055,0.000397758,-0.000248154,0.000446568,-0.000863865,-1.37658,0.00076926,0.0274571,1882,1373,47.9271,-20.5025
665,-349,47.8429,19.6219,-0.000103303,0.000170302,-0.000343725,0.000403448,-0.000336449,-0.974788,0.000427763,0.0224129,1889,1373,47.8429,-19.622
672,-349,47.8007,18.7946,0.000677465,0.000159782,-0.00056804,0.00104286,-0.000205611,-0.571617,0.000772946,0.0160418,1896,1373,47.8007,-18.7945
679,-349,47.7556,17.9597,0.00151172,0.000253233,-0.000873282,0.00195885,-0.000193891,-0.473205,0.00137509,0.016463,1903,1373,47.7556,-17.9597
686,-349,47.786,17.0867,0.00240788,0.000472466,-0.00126758,0.00303492,-0.000154573,-0.459378,0.00207673,0.018017,1910,1373,47.7861,-17.0867
693,-349,47.7024,16.2095,0.00334869,0.000789334,-0.00172372,0.00421582,-7.78004e-05,-0.466092,0.00283684,0.0196172,1917,1373,47.7023,-16.2094
700,-349,47.624,15.3671,0.00433553,0.00122449,-0.00224448,0.00551083,4.91932e-05,-0.482377,0.0036576,0.0179908,1924,1373,47.624,-15.367
707,-349,47.6678,14.446,0.00527723,0.00171881,-0.00274591,0.00676996,0.00022608,-0.497932,0.00443987,0.0411397,1931,1373,47.6678,-14.446
714,-349,47.7666,13.3987,0,0,0,0,0,0,0,-1,1938,1373,47.7666,-13.3987
721,-349,19.6688,5.93604,0,0,0,0,0,0,0,-1,1945,1373,19.6688,-5.93606
728,-349,18.6333,3.73218,0,0,0,0,0,0,0,-1,1952,1373,18.6333,-3.73214
735,-349,18.1918,3.39954,0,0,0,0,0,0,0,-1,1959,1373,18.1918,-3.3995
742,-349,20.7345,2.07483,0,0,0,0,0,0,0,-1,1966,1373,20.7345,-2.07485
749,-349,21.9037,1.45789,0,0,0,0,0,0,0,-1,1973,1373,21.9037,-1.45788
756,-349,0,0,0,0,0,0,0,0,0,-1,1980,1373,0,0
763,-349,0,0,0,0,0,0,0,0,0,-1,1987,1373,0,0
770,-349,0,0,0,0,0,0,0,0,0,-1,1994,1373,0,0
777,-349,0,0,0,0,0,0,0,0,0,-1,2001,1373,0,0
784,-349,0,0,0,0,0,0,0,0,0,-1,2008,1373,0,0
791,-349,0,0,0,0,0,0,0,0,0,-1,2015,1373,0,0
798,-349,0,0,0,0,0,0,0,0,0,-1,2022,1373,0,0
805,-349,0,0,0,0,0,0,0,0,0,-1,2029,1373,0,0
812,-349,0,0,0,0,0,0,0,0,0,-1,2036,1373,0,0
-700,-356,0,0,0,0,0,0,0,0,0,-1,524,1380,0,0
-693,-356,0,0,0,0,0,0,0,0,0,-1,531,1380,0,0
-686,-356,0,0,0,0,0,0,0,0,0,-1,538,1380,0,0
-679,-356,0,0,0,0,0,0,0,0,0,-1,545,1380,0,0
-672,-356,0,0,0,0,0,0,0,0,0,-1,552,1380,0,0
-665,-356,0,0,0,0,0,0,0,0,0,-1,559,1380,0,0
-658,-356,0,0,0,0,0,0,0,0,0,-1,566,1380,0,0
-651,-356,0,0,0,0,0,0,0,0,0,-1,573,1380,0,0
-644,-356,0,0,0,0,0,0,0,0,0,-1,580,1380,0,0
-637,-356,0,0,0,0,0,0,0,0,0,-1,587,1380,0,0
-630,-356,-8.23126,-5.01917,0,0,0,0,0,0,0,-1,594,1380,-8.23124,5.0192
-623,-356,-0.263855,-0.675781,0,0,0,0,0,0,0,-1,601,1380,-0.263835,0.675841
-616,-356,-8.26532,-3.43945,0,0,0,0,0,0,0,-1,608,1380,-8.2653,3.43948
-609,-356,-4.88483,0.734497,0,0,0,0,0,0,0,-1,615,1380,-4.88485,-0.734532
-602,-356,-9.06635,2.4021,0,0,0,0,0,0,0,-1,622,1380,-9.06634,-2.40206
-595,-356,-8.45703,3.61853,0,0,0,0,0,0,0,-1,629,1380,-8.45706,-3.61848
-588,-356,-9.31738,4.14258,0,0,0,0,0,0,0,-1,636,1380,-9.31736,-4.14255
-581,-356,-16.5185,7.32312,0,0,0,0,0,0,0,-1,643,1380,-16.5185,-7.32306
-574,-356,-29.7907,14.4152,0,0,0,0,0,0,0,-1,650,1380,-29.7907,-14.4152
-567,-356,-29.7499,15.3683,0.0057232,0.00348977,0.00346835,0.00825017,0.000962793,0.629652,0.00520893,0.028545,657,1380,-29.7499,-15.3683
-560,-356,-29.6836,16.3967,0.00479235,0.00257474,0.00271334,0.0066147,0.000752395,0.591428,0.00418162,0.0196978,664,1380,-29.6836,-16.3967
-553,-356,-29.7371,17.3131,0.00435369,0.00185067,0.00230182,0.00572223,0.000482131,0.5364,0.0036647,0.0225493,671,1380,-29.7371,-17.3132
-546,-356,-29.7913,18.1631,0.00421409,0.00127392,0.00208612,0.00529608,0.000191943,0.478462,0.00346851,0.0235581,678,1380,-29.7913,-18.1631
-539,-356,-29.8398,19.075,0.00436513,0.000820394,0.00205642,0.00530756,-0.000122038,0.429725,0.00357975,0.0165386,685,1380,-29.8398,-19.0749
-532,-356,-29.9301,20.0013,0.00479181,0.000503774,0.0022094,0.00572647,-0.000430887,0.400208,0.00396908,0.0162142,692,1380,-29.9301,-20.0014
-525,-356,-29.9637,20.8765,0.00546366,0.000313692,0.00253456,0.00650179,-0.000724432,0.388744,0.00459508,0.0137707,699,1380,-29.9637,-20.8765
-518,-356,-29.9835,21.7533,0.00639719,0.000231556,0.00303088,0.00763756,-0.00100882,0.388452,0.00545914,0.0159361,706,1380,-29.9835,-21.7533
-511,-356,-29.793,22.7568,0,0,0,0,0,0,0,-1,713,1380,-29.793,-22.7569
-504,-356,-14.3925,12.3971,0,0,0,0,0,0,0,-1,720,1380,-14.3925,-12.3971
-497,-356,-5.68604,4.96387,0,0,0,0,0,0,0,-1,727,1380,-5.68605,-4.96385
-490,-356,-7.95288,5.5625,0,0,0,0,0,0,0,-1,734,1380,-7.95285,-5.56246
-483,-356,-7.2627,4.07446,0,0,0,0,0,0,0,-1,741,1380,-7.2627,-4.07441
-476,-356,-5.1936,4.16016,0,0,0,0,0,0,0,-1,748,1380,-5.1936,-4.16012
-469,-356,-10.0883,0.536011,0,0,0,0,0,0,0,-1,755,1380,-10.0883,-0.535989
-462,-356,-12.3481,-0.215698,0,0,0,0,0,0,0,-1,762,1380,-12.3481,0.215641
-455,-356,-13.1367,-0.264648,0,0,0,0,0,0,0,-1,769,1380,-13.1367,0.264647
-448,-356,-13.9116,-0.310181,0,0,0,0,0,0,0,-1,776,1380,-13.9115,0.310207
-441,-356,-13.1602,3.05603,0,0,0,0,0,0,0,-1,783,1380,-13.1602,-3.05609
-434,-356,0,0,0,0,0,0,0,0,0,-1,790,1380,0,0
-427,-356,0,0,0,0,0,0,0,0,0,-1,797,1380,0,0
-420,-356,0,0,0,0,0,0,0,0,0,-1,804,1380,0,0
-413,-356,0,0,0,0,0,0,0,0,0,-1,811,1380,0,0
-406,-356,0,0,0,0,0,0,0,0,0,-1,818,1380,0,0
-399,-356,0,0,0,0,0,0,0,0,0,-1,825,1380,0,0
-392,-356,0,0,0,0,0,0,0,0,0,-1,832,1380,0,0
-385,-356,0,0,0,0,0,0,0,0,0,-1,839,1380,0,0
-378,-356,0,0,0,0,0,0,0,0,0,-1,846,1380,0,0
-371,-356,0,0,0,0,0,0,0,0,0,-1,853,1380,0,0
-364,-356,0,0,0,0,0,0,0,0,0,-1,860,1380,0,0
-357,-356,0,0,0,0,0,0,0,0,0,-1,867,1380,0,0
-350,-356,0,0,0,0,0,0,0,0,0,-1,874,1380,0,0
-343,-356,0,0,0,0,0,0,0,0,0,-1,881,1380,0,0
-336,-356,0,0,0,0,0,0,0,0,0,-1,888,1380,0,0
-329,-356,0,0,0,0,0,0,0,0,0,-1,895,1380,0,0
-322,-356,0,0,0,0,0,0,0,0,0,-1,902,1380,0,0
-315,-356,0,0,0,0,0,0,0,0,0,-1,909,1380,0,0
-308,-356,0,0,0,0,0,0,0,0,0,-1,916,1380,0,0
-301,-356,0,0,0,0,0,0,0,0,0,-1,923,1380,0,0
-294,-356,0,0,0,0,0,0,0,0,0,-1,930,1380,0,0
-287,-356,0,0,0,0,0,0,0,0,0,-1,937,1380,0,0
-280,-356,0,0,0,0,0,0,0,0,0,-1,944,1380,0,0
-273,-356,0,0,0,0,0,0,0,0,0,-1,951,1380,0,0
-266,-356,0,0,0,0,0,0,0,0,0,-1,958,1380,0,0
-259,-356,0,0,0,0,0,0,0,0,0,-1,965,1380,0,0
-252,-356,0,0,0,0,0,0,0,0,0,-1,972,1380,0,0
-245,-356,0,0,0,0,0,0,0,0,0,-1,979,1380,0,0
-238,-356,0,0,0,0,0,0,0,0,0,-1,986,1380,0,0
-231,-356,0,0,0,0,0,0,0,0,0,-1,993,1380,0,0
-224,-356,0,0,0,0,0,0,0,0,0,-1,1000,1380,0,0
-217,-356,0,0,0,0,0,0,0,0,0,-1,1007,1380,0,0
-210,-356,0,0,0,0,0,0,0,0,0,-1,1014,1380,0,0
-203,-356,0,0,0,0,0,0,0,0,0,-1,1021,1380,0,0
-196,-356,0,0,0,0,0,0,0,0,0,-1,1028,1380,0,0
-189,-356,0,0,0,0,0,0,0,0,0,-1,1035,1380,0,0
-182,-356,0,0,0,0,0,0,0,0,0,-1,1042,1380,0,0
-175,-356,0,0,0,0,0,0,0,0,0,-1,1049,1380,0,0
-168,-356,0,0,0,0,0,0,0,0,0,-1,1056,1380,0,0
-161,-356,0,0,0,0,0,0,0,0,0,-1,1063,1380,0,0
-154,-356,0,0,0,0,0,0,0,0,0,-1,1070,1380,0,0
-147,-356,0,0,0,0,0,0,0,0,0,-1,1077,1380,0,0
-140,-356,0,0,0,0,0,0,0,0,0,-1,1084,1380,0,0
-133,-356,0,0,0,0,0,0,0,0,0,-1,1091,1380,0,0
-126,-356,0,0,0,0,0,0,0,0,0,-1,1098,1380,0,0
-119,-356,0,0,0,0,0,0,0,0,0,-1,1105,1380,0,0
-112,-356,0,0,0,0,0,0,0,0,0,-1,1112,1380,0,0
-105,-356,0,0,0,0,0,0,0,0,0,-1,1119,1380,0,0
-98,-356,0,0,0,0,0,0,0,0,0,-1,1126,1380,0,0
-91,-356,0,0,0,0,0,0,0,0,0,-1,1133,1380,0,0
-84,-356,0,0,0,0,0,0,0,0,0,-1,1140,1380,0,0
-77,-356,0,0,0,0,0,0,0,0,0,-1,1147,1380,0,0
-70,-356,0,0,0,0,0,0,0,0,0,-1,1154,1380,0,0
-63,-356,0,0,0,0,0,0,0,0,0,-1,1161,1380,0,0
-56,-356,0,0,0,0,0,0,0,0,0,-1,1168,1380,0,0
-49,-356,0,0,0,0,0,0,0,0,0,-1,1175,1380,0,0
-42,-356,0,0,0,0,0,0,0,0,0,-1,1182,1380,0,0
-35,-356,0,0,0,0,0,0,0,0,0,-1,1189,1380,0,0
-28,-356,0,0,0,0,0,0,0,0,0,-1,1196,1380,0,0
-21,-356,0,0,0,0,0,0,0,0,0,-1,1203,1380,0,0
-14,-356,0,0,0,0,0,0,0,0,0,-1,1210,1380,0,0
-7,-356,0,0,0,0,0,0,0,0,0,-1,1217,1380,0,0
0,-356,0,0,0,0,0,0,0,0,0,-1,1224,1380,0,0
7,-356,0,0,0,0,0,0,0,0,0,-1,1231,1380,0,0
14,-356,0,0,0,0,0,0,0,0,0,-1,1238,1380,0,0
21,-356,0,0,0,0,0,0,0,0,0,-1,1245,1380,0,0
28,-356,0,0,0,0,0,0,0,0,0,-1,1252,1380,0,0
35,-356,0,0,0,0,0,0,0,0,0,-1,1259,1380,0,0
42,-356,0,0,0,0,0,0,0,0,0,-1,1266,1380,0,0
49,-356,0,0,0,0,0,0,0,0,0,-1,1273,1380,0,0
56,-356,0,0,0,0,0,0,0,0,0,-1,1280,1380,0,0
63,-356,0,0,0,0,0,0,0,0,0,-1,1287,1380,0,0
70,-356,0,0,0,0,0,0,0,0,0,-1,1294,1380,0,0
77,-356,0,0,0,0,0,0,0,0,0,-1,1301,1380,0,0
84,-356,0,0,0,0,0,0,0,0,0,-1,1308,1380,0,0
91,-356,0,0,0,0,0,0,0,0,0,-1,1315,1380,0,0
98,-356,0,0,0,0,0,0,0,0,0,-1,1322,1380,0,0
105,-356,0,0,0,0,0,0,0,0,0,-1,1329,1380,0,0
112,-356,0,0,0,0,0,0,0,0,0,-1,1336,1380,0,0
119,-356,0,0,0,0,0,0,0,0,0,-1,1343,1380,0,0
126,-356,0,0,0,0,0,0,0,0,0,-1,1350,1380,0,0
133,-356,0,0,0,0,0,0,0,0,0,-1,1357,1380,0,0
140,-356,0,0,0,0,0,0,0,0,0,-1,1364,1380,0,0
147,-356,0,0,0,0,0,0,0,0,0,-1,1371,1380,0,0
154,-356,0,0,0,0,0,0,0,0,0,-1,1378,1380,0,0
161,-356,0,0,0,0,0,0,0,0,0,-1,1385,1380,0,0
168,-356,0,0,0,0,0,0,0,0,0,-1,1392,1380,0,0
175,-356,0,0,0,0,0,0,0,0,0,-1,1399,1380,0,0
182,-356,0,0,0,0,0,0,0,0,0,-1,1406,1380,0,0
189,-356,0,0,0,0,0,0,0,0,0,-1,1413,1380,0,0
196,-356,0,0,0,0,0,0,0,0,0,-1,1420,1380,0,0
203,-356,0,0,0,0,0,0,0,0,0,-1,1427,1380,0,0
210,-356,0,0,0,0,0,0,0,0,0,-1,1434,1380,0,0
217,-356,0,0,0,0,0,0,0,0,0,-1,1441,1380,0,0
224,-356,0,0,0,0,0,0,0,0,0,-1,1448,1380,0,0
231,-356,0,0,0,0,0,0,0,0,0,-1,1455,1380,0,0
238,-356,0,0,0,0,0,0,0,0,0,-1,1462,1380,0,0
245,-356,0,0,0,0,0,0,0,0,0,-1,1469,1380,0,0
252,-356,0,0,0,0,0,0,0,0,0,-1,1476,1380,0,0
259,-356,0,0,0,0,0,0,0,0,0,-1,1483,1380,0,0
266,-356,0,0,0,0,0,0,0,0,0,-1,1490,1380,0,0
273,-356,0,0,0,0,0,0,0,0,0,-1,1497,1380,0,0
280,-356,0,0,0,0,0,0,0,0,0,-1,1504,1380,0,0
287,-356,0,0,0,0,0,0,0,0,0,-1,1511,1380,0,0
294,-356,0,0,0,0,0,0,0,0,0,-1,1518,1380,0,0
301,-356,0,0,0,0,0,0,0,0,0,-1,1525,1380,0,0
308,-356,0,0,0,0,0,0,0,0,0,-1,1532,1380,0,0
315,-356,0,0,0,0,0,0,0,0,0,-1,1539,1380,0,0
322,-356,0,0,0,0,0,0,0,0,0,-1,1546,1380,0,0
329,-356,0,0,0,0,0,0,0,0,0,-1,1553,1380,0,0
336,-356,0,0,0,0,0,0,0,0,0,-1,1560,1380,0,0
343,-356,0,0,0,0,0,0,0,0,0,-1,1567,1380,0,0
350,-356,0,0,0,0,0,0,0,0,0,-1,1574,1380,0,0
357,-356,0,0,0,0,0,0,0,0,0,-1,1581,1380,0,0
364,-356,0,0,0,0,0,0,0,0,0,-1,1588,1380,0,0
371,-356,0,0,0,0,0,0,0,0,0,-1,1595,1380,0,0
378,-356,0,0,0,0,0,0,0,0,0,-1,1602,1380,0,0
385,-356,0,0,0,0,0,0,0,0,0,-1,1609,1380,0,0
392,-356,0,0,0,0,0,0,0,0,0,-1,1616,1380,0,0
399,-356,0,0,0,0,0,0,0,0,0,-1,1623,1380,0,0
406,-356,0,0,0,0,0,0,0,0,0,-1,1630,1380,0,0
413,-356,0,0,0,0,0,0,0,0,0,-1,1637,1380,0,0
420,-356,0,0,0,0,0,0,0,0,0,-1,1644,1380,0,0
427,-356,0,0,0,0,0,0,0,0,0,-1,1651,1380,0,0
434,-356,0,0,0,0,0,0,0,0,0,-1,1658,1380,0,0
441,-356,0,0,0,0,0,0,0,0,0,-1,1665,1380,0,0
448,-356,0,0,0,0,0,0,0,0,0,-1,1672,1380,0,0
455,-356,0,0,0,0,0,0,0,0,0,-1,1679,1380,0,0
462,-356,0,0,0,0,0,0,0,0,0,-1,1686,1380,0,0
469,-356,0,0,0,0,0,0,0,0,0,-1,1693,1380,0,0
476,-356,0,0,0,0,0,0,0,0,0,-1,1700,1380,0,0
483,-356,0,0,0,0,0,0,0,0,0,-1,1707,1380,0,0
490,-356,0,0,0,0,0,0,0,0,0,-1,1714,1380,0,0
497,-356,0,0,0,0,0,0,0,0,0,-1,1721,1380,0,0
504,-356,0,0,0,0,0,0,0,0,0,-1,1728,1380,0,0
511,-356,0,0,0,0,0,0,0,0,0,-1,1735,1380,0,0
518,-356,0,0,0,0,0,0,0,0,0,-1,1742,1380,0,0
525,-356,0,0,0,0,0,0,0,0,0,-1,1749,1380,0,0
532,-356,0,0,0,0,0,0,0,0,0,-1,1756,1380,0,0
539,-356,0,0,0,0,0,0,0,0,0,-1,1763,1380,0,0
546,-356,0,0,0,0,0,0,0,0,0,-1,1770,1380,0,0
553,-356,0,0,0,0,0,0,0,0,0,-1,1777,1380,0,0
560,-356,63.6171,3.12183,0,0,0,0,0,0,0,-1,1784,1380,63.617,-3.12183
567,-356,65.0425,1.89966,0,0,0,0,0,0,0,-1,1791,1380,65.0424,-1.8996
574,-356,45.5742,3.39575,0,0,0,0,0,0,0,-1,1798,1380,45.5742,-3.39574
581,-356,45.6708,3.64172,0,0,0,0,0,0,0,-1,1805,1380,45.6707,-3.64175
588,-356,44.4739,4.87085,0,0,0,0,0,0,0,-1,1812,1380,44.4739,-4.87086
595,-356,32.0834,5.86084,0,0,0,0,0,0,0,-1,1819,1380,32.0834,-5.86079
602,-356,30.1604,6.07104,0,0,0,0,0,0,0,-1,1826,1380,30.1604,-6.07104
609,-356,28.3435,6.48901,0,0,0,0,0,0,0,-1,1833,1380,28.3435,-6.48899
616,-356,26.9358,6.80872,0,0,0,0,0,0,0,-1,1840,1380,26.9358,-6.80877
623,-356,16.1803,1.07532,0,0,0,0,0,0,0,-1,1847,1380,16.1803,-1.07529
630,-356,16.4138,6.91553,0,0,0,0,0,0,0,-1,1854,1380,16.4138,-6.9155
637,-356,24.8021,12.0151,0,0,0,0,0,0,0,-1,1861,1380,24.8022,-12.0151
644,-356,47.1184,22.4238,0,0,0,0,0,0,0,-1,1868,1380,47.1184,-22.4239
651,-356,47.166,21.4374,-0.00128025,0.000487517,-0.000150563,0.000500249,-0.00129298,-1.48643,0.00106851,0.0219696,1875,1380,47.1661,-21.4373
658,-356,47.0479,20.5103,-0.000604578,0.000244818,-0.000142123,0.000267967,-0.000627727,-1.40933,0.000530852,0.0150449,1882,1380,47.0479,-20.5103
665,-356,46.9991,19.7079,0.000233626,0.000132631,-0.000356712,0.000543397,-0.00017714,-0.715084,0.000433547,0.0155088,1889,1380,46.9991,-19.7079
672,-356,46.9319,18.9006,0.0011497,0.000207484,-0.000698661,0.00152125,-0.000164064,-0.488763,0.00107304,0.015703,1896,1380,46.9319,-18.9006
679,-356,46.8986,18.0328,0.00213649,0.000388022,-0.00114209,0.00270053,-0.000176024,-0.458734,0.00186181,0.0179022,1903,1380,46.8985,-18.0328
686,-356,46.8794,17.1185,0.00320509,0.000712585,-0.00169803,0.00406513,-0.000147455,-0.468827,0.00276055,0.0199027,1910,1380,46.8794,-17.1185
693,-356,46.847,16.2628,0.00433623,0.00116744,-0.00234337,0.00558057,-7.68914e-05,-0.48814,0.00374627,0.0167875,1917,1380,46.847,-16.2629
700,-356,46.8243,15.4084,0.00555158,0.00179214,-0.00310482,0.00730136,4.23633e-05,-0.513201,0.00485351,0.0257301,1924,1380,46.8244,-15.4084
707,-356,46.9052,14.5586,0,0,0,0,0,0,0,-1,1931,1380,46.9052,-14.5586
714,-356,19.6907,5.82129,0,0,0,0,0,0,0,-1,1938,1380,19.6907,-5.82132
721,-356,17.2948,4.1958,0,0,0,0,0,0,0,-1,1945,1380,17.2948,-4.19584
728,-356,19.1846,2.31519,0,0,0,0,0,0,0,-1,1952,1380,19.1846,-2.31514
735,-356,20.0731,2.50842,0,0,0,0,0,0,0,-1,1959,1380,20.0731,-2.50844
742,-356,21.0111,2.43762,0,0,0,0,0,0,0,-1,1966,1380,21.0112,-2.43762
749,-356,22.1411,1.83276,0,0,0,0,0,0,0,-1,1973,1380,22.1411,-1.83275
756,-356,0,0,0,0,0,0,0,0,0,-1,1980,1380,0,0
763,-356,0,0,0,0,0,0,0,0,0,-1,1987,1380,0,0
770,-356,0,0,0,0,0,0,0,0,0,-1,1994,1380,0,0
777,-356,0,0,0,0,0,0,0,0,0,-1,2001,1380,0,0
784,-356,0,0,0,0,0,0,0,0,0,-1,2008,1380,0,0
791,-356,0,0,0,0,0,0,0,0,0,-1,2015,1380,0,0
798,-356,0,0,0,0,0,0,0,0,0,-1,2022,1380,0,0
805,-356,0,0,0,0,0,0,0,0,0,-1,2029,1380,0,0
812,-356,0,0,0,0,0,0,0,0,0,-1,2036,1380,0,0
-700,-363,0,0,0,0,0,0,0,0,0,-1,524,1387,0,0
-693,-363,0,0,0,0,0,0,0,0,0,-1,531,1387,0,0
-686,-363,0,0,0,0,0,0,0,0,0,-1,538,1387,0,0
-679,-363,0,0,0,0,0,0,0,0,0,-1,545,1387,0,0
-672,-363,0,0,0,0,0,0,0,0,0,-1,552,1387,0,0
-665,-363,0,0,0,0,0,0,0,0,0,-1,559,1387,0,0
-658,-363,0,0,0,0,0,0,0,0,0,-1,566,1387,0,0
-651,-363,0,0,0,0,0,0,0,0,0,-1,573,1387,0,0
-644,-363,0,0,0,0,0,0,0,0,0,-1,580,1387,0,0
-637,-363,0,0,0,0,0,0,0,0,0,-1,587,1387,0,0
-630,-363,0,0,0,0,0,0,0,0,0,-1,594,1387,0,0
-623,-363,-9.67566,-5.91846,0,0,0,0,0,0,0,-1,601,1387,-9.67563,5.91847
-616,-363,-9.02985,-2.98083,0,0,0,0,0,0,0,-1,608,1387,-9.02987,2.98079
-609,-363,-4.90265,0.195679,0,0,0,0,0,0,0,-1,615,1387,-4.90263,-0.195721
-602,-363,-9.65009,3.5321,0,0,0,0,0,0,0,-1,622,1387,-9.65007,-3.53211
-595,-363,-8.00256,3.48853,0,0,0,0,0,0,0,-1,629,1387,-8.00256,-3.48855
-588,-363,-10.8846,4.49768,0,0,0,0,0,0,0,-1,636,1387,-10.8846,-4.49773
-581,-363,-11.7469,5.15161,0,0,0,0,0,0,0,-1,643,1387,-11.747,-5.15167
-574,-363,-17.8334,8.33801,0,0,0,0,0,0,0,-1,650,1387,-17.8334,-8.33804
-567,-363,-28.8549,15.4578,0,0,0,0,0,0,0,-1,657,1387,-28.8549,-15.4578
-560,-363,-28.8179,16.4056,0.00533683,0.00305312,0.00331283,0.00769906,0.000690881,0.619436,0.00491861,0.0151326,664,1387,-28.8179,-16.4057
-553,-363,-28.8376,17.3331,0.00463175,0.00220577,0.00267435,0.00635534,0.000482186,0.572491,0.00408566,0.0135878,671,1387,-28.8377,-17.3331
-546,-363,-28.908,18.2109,0.00423415,0.00152987,0.00225303,0.00550964,0.000254389,0.515136,0.0035913,0.0139163,678,1387,-28.908,-18.211
-539,-363,-28.9348,19.1189,0.00412253,0.000985637,0.00202179,0.00511292,-4.75161e-06,0.455501,0.0034102,0.0159758,685,1387,-28.9348,-19.1189
-532,-363,-29.0281,20.0286,0.00427833,0.000593251,0.00197519,0.00513696,-0.000265384,0.410066,0.00351644,0.0143466,692,1387,-29.0281,-20.0286
-525,-363,-29.0743,20.9005,0.00466573,0.00032524,0.00209388,0.00551116,-0.000520193,0.383746,0.00385921,0.0129023,699,1387,-29.0743,-20.9005
-518,-363,-29.0882,21.8019,0.00526712,0.000179467,0.00237016,0.00620017,-0.000753587,0.375036,0.00440618,0.0118247,706,1387,-29.0882,-21.8019
-511,-363,-28.9753,22.7457,0.00615588,0.000252179,0.00285628,0.00731156,-0.000903495,0.384473,0.00520176,0.0382375,713,1387,-28.9753,-22.7457
-504,-363,-28.7963,23.7545,0,0,0,0,0,0,0,-1,720,1387,-28.7963,-23.7545
-497,-363,-7.18842,7.29944,0,0,0,0,0,0,0,-1,727,1387,-7.18839,-7.29945
-490,-363,-5.42413,4.6958,0,0,0,0,0,0,0,-1,734,1387,-5.42412,-4.69583
-483,-363,-6.28375,4.1394,0,0,0,0,0,0,0,-1,741,1387,-6.28374,-4.13944
-476,-363,-5.83807,4.31018,0,0,0,0,0,0,0,-1,748,1387,-5.8381,-4.31013
-469,-363,-10.7125,0.697754,0,0,0,0,0,0,0,-1,755,1387,-10.7125,-0.697811
-462,-363,-9.55951,-0.0830078,0,0,0,0,0,0,0,-1,762,1387,-9.55949,0.0830163
-455,-363,-13.1008,-0.290894,0,0,0,0,0,0,0,-1,769,1387,-13.1008,0.290921
-448,-363,-11.7324,2.46606,0,0,0,0,0,0,0,-1,776,1387,-11.7324,-2.46605
-441,-363,-12.4464,2.5354,0,0,0,0,0,0,0,-1,783,1387,-12.4463,-2.53537
-434,-363,-13.6918,2.14661,0,0,0,0,0,0,0,-1,790,1387,-13.6918,-2.14662
-427,-363,0,0,0,0,0,0,0,0,0,-1,797,1387,0,0
-420,-363,0,0,0,0,0,0,0,0,0,-1,804,1387,0,0
-413,-363,0,0,0,0,0,0,0,0,0,-1,811,1387,0,0
-406,-363,0,0,0,0,0,0,0,0,0,-1,818,1387,0,0
-399,-363,0,0,0,0,0,0,0,0,0,-1,825,1387,0,0
-392,-363,0,0,0,0,0,0,0,0,0,-1,832,1387,0,0
-385,-363,0,0,0,0,0,0,0,0,0,-1,839,1387,0,0
-378,-363,0,0,0,0,0,0,0,0,0,-1,846,1387,0,0
-371,-363,0,0,0,0,0,0,0,0,0,-1,853,1387,0,0
-364,-363,0,0,0,0,0,0,0,0,0,-1,860,1387,0,0
-357,-363,0,0,0,0,0,0,0,0,0,-1,867,1387,0,0
-350,-363,0,0,0,0,0,0,0,0,0,-1,874,1387,0,0
-343,-363,0,0,0,0,0,0,0,0,0,-1,881,1387,0,0
-336,-363,0,0,0,0,0,0,0,0,0,-1,888,1387,0,0
-329,-363,0,0,0,0,0,0,0,0,0,-1,895,1387,0,0
-322,-363,0,0,0,0,0,0,0,0,0,-1,902,1387,0,0
-315,-363,0,0,0,0,0,0,0,0,0,-1,909,1387,0,0
-308,-363,0,0,0,0,0,0,0,0,0,-1,916,1387,0,0
-301,-363,0,0,0,0,0,0,0,0,0,-1,923,1387,0,0
-294,-363,0,0,0,0,0,0,0,0,0,-1,930,1387,0,0
-287,-363,0,0,0,0,0,0,0,0,0,-1,937,1387,0,0
-280,-363,0,0,0,0,0,0,0,0,0,-1,944,1387,0,0
-273,-363,0,0,0,0,0,0,0,0,0,-1,951,1387,0,0
-266,-363,0,0,0,0,0,0,0,0,0,-1,958,1387,0,0
-259,-363,0,0,0,0,0,0,0,0,0,-1,965,1387,0,0
-252,-363,0,0,0,0,0,0,0,0,0,-1,972,1387,0,0
-245,-363,0,0,0,0,0,0,0,0,0,-1,979,1387,0,0
-238,-363,0,0,0,0,0,0,0,0,0,-1,986,1387,0,0
-231,-363,0,0,0,0,0,0,0,0,0,-1,993,1387,0,0
-224,-363,0,0,0,0,0,0,0,0,0,-1,1000,1387,0,0
-217,-363,0,0,0,0,0,0,0,0,0,-1,1007,1387,0,0
-210,-363,0,0,0,0,0,0,0,0,0,-1,1014,1387,0,0
-203,-363,0,0,0,0,0,0,0,0,0,-1,1021,1387,0,0
-196,-363,0,0,0,0,0,0,0,0,0,-1,1028,1387,0,0
-189,-363,0,0,0,0,0,0,0,0,0,-1,1035,1387,0,0
-182,-363,0,0,0,0,0,0,0,0,0,-1,1042,1387,0,0
-175,-363,0,0,0,0,0,0,0,0,0,-1,1049,1387,0,0
-168,-363,0,0,0,0,0,0,0,0,0,-1,1056,1387,0,0
-161,-363,0,0,0,0,0,0,0,0,0,-1,1063,1387,0,0
-154,-363,0,0,0,0,0,0,0,0,0,-1,1070,1387,0,0
-147,-363,0,0,0,0,0,0,0,0,0,-1,1077,1387,0,0
-140,-363,0,0,0,0,0,0,0,0,0,-1,1084,1387,0,0
-133,-363,0,0,0,0,0,0,0,0,0,-1,1091,1387,0,0
-126,-363,0,0,0,0,0,0,0,0,0,-1,1098,1387,0,0
-119,-363,0,0,0,0,0,0,0,0,0,-1,1105,1387,0,0
-112,-363,0,0,0,0,0,0,0,0,0,-1,1112,1387,0,0
-105,-363,0,0,0,0,0,0,0,0,0,-1,1119,1387,0,0
-98,-363,0,0,0,0,0,0,0,0,0,-1,1126,1387,0,0
-91,-363,0,0,0,0,0,0,0,0,0,-1,1133,1387,0,0
-84,-363,0,0,0,0,0,0,0,0,0,-1,1140,1387,0,0
-77,-363,0,0,0,0,0,0,0,0,0,-1,1147,1387,0,0
-70,-363,0,0,0,0,0,0,0,0,0,-1,1154,1387,0,0
-63,-363,0,0,0,0,0,0,0,0,0,-1,1161,1387,0,0
-56,-363,0,0,0,0,0,0,0,0,0,-1,1168,1387,0,0
-49,-363,0,0,0,0,0,0,0,0,0,-1,1175,1387,0,0
-42,-363,0,0,0,0,0,0,0,0,0,-1,1182,1387,0,0
-35,-363,0,0,0,0,0,0,0,0,0,-1,1189,1387,0,0
-28,-363,0,0,0,0,0,0,0,0,0,-1,1196,1387,0,0
-21,-363,0,0,0,0,0,0,0,0,0,-1,1203,1387,0,0
-14,-363,0,0,0,0,0,0,0,0,0,-1,1210,1387,0,0
-7,-363,0,0,0,0,0,0,0,0,0,-1,1217,1387,0,0
0,-363,0,0,0,0,0,0,0,0,0,-1,1224,1387,0,0
7,-363,0,0,0,0,0,0,0,0,0,-1,1231,1387,0,0
14,-363,0,0,0,0,0,0,0,0,0,-1,1238,1387,0,0
21,-363,0,0,0,0,0,0,0,0,0,-1,1245,1387,0,0
28,-363,0,0,0,0,0,0,0,0,0,-1,1252,1387,0,0
35,-363,0,0,0,0,0,0,0,0,0,-1,1259,1387,0,0
42,-363,0,0,0,0,0,0,0,0,0,-1,1266,1387,0,0
49,-363,0,0,0,0,0,0,0,0,0,-1,1273,1387,0,0
56,-363,0,0,0,0,0,0,0,0,0,-1,1280,1387,0,0
63,-363,0,0,0,0,0,0,0,0,0,-1,1287,1387,0,0
70,-363,0,0,0,0,0,0,0,0,0,-1,1294,1387,0,0
77,-363,0,0,0,0,0,0,0,0,0,-1,1301,1387,0,0
84,-363,0,0,0,0,0,0,0,0,0,-1,1308,1387,0,0
91,-363,0,0,0,0,0,0,0,0,0,-1,1315,1387,0,0
98,-363,0,0,0,0,0,0,0,0,0,-1,1322,1387,0,0
105,-363,0,0,0,0,0,0,0,0,0,-1,1329,1387,0,0
112,-363,0,0,0,0,0,0,0,0,0,-1,1336,1387,0,0
119,-363,0,0,0,0,0,0,0,0,0,-1,1343,1387,0,0
126,-363,0,0,0,0,0,0,0,0,0,-1,1350,1387,0,0
133,-363,0,0,0,0,0,0,0,0,0,-1,1357,1387,0,0
140,-363,0,0,0,0,0,0,0,0,0,-1,1364,1387,0,0
147,-363,0,0,0,0,0,0,0,0,0,-1,1371,1387,0,0
154,-363,0,0,0,0,0,0,0,0,0,-1,1378,1387,0,0
161,-363,0,0,0,0,0,0,0,0,0,-1,1385,1387,0,0
168,-363,0,0,0,0,0,0,0,0,0,-1,1392,1387,0,0
175,-363,0,0,0,0,0,0,0,0,0,-1,1399,1387,0,0
182,-363,0,0,0,0,0,0,0,0,0,-1,1406,1387,0,0
189,-363,0,0,0,0,0,0,0,0,0,-1,1413,1387,0,0
196,-363,0,0,0,0,0,0,0,0,0,-1,1420,1387,0,0
203,-363,0,0,0,0,0,0,0,0,0,-1,1427,1387,0,0
210,-363,0,0,0,0,0,0,0,0,0,-1,1434,1387,0,0
217,-363,0,0,0,0,0,0,0,0,0,-1,1441,1387,0,0
224,-363,0,0,0,0,0,0,0,0,0,-1,1448,1387,0,0
231,-363,0,0,0,0,0,0,0,0,0,-1,1455,1387,0,0
238,-363,0,0,0,0,0,0,0,0,0,-1,1462,1387,0,0
245,-363,0,0,0,0,0,0,0,0,0,-1,1469,1387,0,0
252,-363,0,0,0,0,0,0,0,0,0,-1,1476,1387,0,0
259,-363,0,0,0,0,0,0,0,0,0,-1,1483,1387,0,0
266,-363,0,0,0,0,0,0,0,0,0,-1,1490,1387,0,0
273,-363,0,0,0,0,0,0,0,0,0,-1,1497,1387,0,0
280,-363,0,0,0,0,0,0,0,0,0,-1,1504,1387,0,0
287,-363,0,0,0,0,0,0,0,0,0,-1,1511,1387,0,0
294,-363,0,0,0,0,0,0,0,0,0,-1,1518,1387,0,0
301,-363,0,0,0,0,0,0,0,0,0,-1,1525,1387,0,0
308,-363,0,0,0,0,0,0,0,0,0,-1,1532,1387,0,0
315,-363,0,0,0,0,0,0,0,0,0,-1,1539,1387,0,0
322,-363,0,0,0,0,0,0,0,0,0,-1,1546,1387,0,0
329,-363,0,0,0,0,0,0,0,0,0,-1,1553,1387,0,0
336,-363,0,0,0,0,0,0,0,0,0,-1,1560,1387,0,0
343,-363,0,0,0,0,0,0,0,0,0,-1,1567,1387,0,0
350,-363,0,0,0,0,0,0,0,0,0,-1,1574,1387,0,0
357,-363,0,0,0,0,0,0,0,0,0,-1,1581,1387,0,0
364,-363,0,0,0,0,0,0,0,0,0,-1,1588,1387,0,0
371,-363,0,0,0,0,0,0,0,0,0,-1,1595,1387,0,0
378,-363,0,0,0,0,0,0,0,0,0,-1,1602,1387,0,0
385,-363,0,0,0,0,0,0,0,0,0,-1,1609,1387,0,0
392,-363,0,0,0,0,0,0,0,0,0,-1,1616,1387,0,0
399,-363,0,0,0,0,0,0,0,0,0,-1,1623,1387,0,0
406,-363,0,0,0,0,0,0,0,0,0,-1,1630,1387,0,0
413,-363,0,0,0,0,0,0,0,0,0,-1,1637,1387,0,0
420,-363,0,0,0,0,0,0,0,0,0,-1,1644,1387,0,0
427,-363,0,0,0,0,0,0,0,0,0,-1,1651,1387,0,0
434,-363,0,0,0,0,0,0,0,0,0,-1,1658,1387,0,0
441,-363,0,0,0,0,0,0,0,0,0,-1,1665,1387,0,0
448,-363,0,0,0,0,0,0,0,0,0,-1,1672,1387,0,0
455,-363,0,0,0,0,0,0,0,0,0,-1,1679,1387,0,0
462,-363,0,0,0,0,0,0,0,0,0,-1,1686,1387,0,0
469,-363,0,0,0,0,0,0,0,0,0,-1,1693,1387,0,0
476,-363,0,0,0,0,0,0,0,0,0,-1,1700,1387,0,0
483,-363,0,0,0,0,0,0,0,0,0,-1,1707,1387,0,0
490,-363,0,0,0,0,0,0,0,0,0,-1,1714,1387,0,0
497,-363,0,0,0,0,0,0,0,0,0,-1,1721,1387,0,0
504,-363,0,0,0,0,0,0,0,0,0,-1,1728,1387,0,0
511,-363,0,0,0,0,0,0,0,0,0,-1,1735,1387,0,0
518,-363,0,0,0,0,0,0,0,0,0,-1,1742,1387,0,0
525,-363,0,0,0,0,0,0,0,0,0,-1,1749,1387,0,0
532,-363,0,0,0,0,0,0,0,0,0,-1,1756,1387,0,0
539,-363,0,0,0,0,0,0,0,0,0,-1,1763,1387,0,0
546,-363,0,0,0,0,0,0,0,0,0,-1,1770,1387,0,0
553,-363,62.1395,3.42249,0,0,0,0,0,0,0,-1,1777,1387,62.1395,-3.42245
560,-363,63.2896,2.40808,0,0,0,0,0,0,0,-1,1784,1387,63.2896,-2.40811
567,-363,64.4463,1.38135,0,0,0,0,0,0,0,-1,1791,1387,64.4463,-1.38131
574,-363,45.7261,2.8075,0,0,0,0,0,0,0,-1,1798,1387,45.7261,-2.80754
581,-363,39.2413,1.97632,0,0,0,0,0,0,0,-1,1805,1387,39.2413,-1.97636
588,-363,32.5608,6.72131,0,0,0,0,0,0,0,-1,1812,1387,32.5608,-6.72131
595,-363,31.4688,6.95435,0,0,0,0,0,0,0,-1,1819,1387,31.4688,-6.95431
602,-363,25.7437,5.33667,0,0,0,0,0,0,0,-1,1826,1387,25.7437,-5.33667
609,-363,27.7048,7.06885,0,0,0,0,0,0,0,-1,1833,1387,27.7048,-7.06882
616,-363,16.229,1.08704,0,0,0,0,0,0,0,-1,1840,1387,16.229,-1.08706
623,-363,15.7283,7.16663,0,0,0,0,0,0,0,-1,1847,1387,15.7282,-7.16665
630,-363,18.3192,9.27844,0,0,0,0,0,0,0,-1,1854,1387,18.3192,-9.27843
637,-363,46.2777,23.3547,0,0,0,0,0,0,0,-1,1861,1387,46.2777,-23.3547
644,-363,46.2754,22.4069,-0.00135753,0.000772741,-0.000246305,0.000800848,-0.00138564,-1.45717,0.00127733,0.0194783,1868,1387,46.2754,-22.4069
651,-363,46.2477,21.4852,-0.000942385,0.000327653,-5.9583e-05,0.000330442,-0.000945174,-1.52402,0.000764452,0.0111951,1875,1387,46.2477,-21.4853
658,-363,46.2012,20.604,-0.00018925,0.000202004,-0.000191628,0.000280222,-0.000267468,-1.18326,0.000316238,0.0122093,1882,1387,46.2012,-20.604
665,-363,46.1495,19.7842,0.000704704,0.000198237,-0.000511283,0.00102203,-0.000119088,-0.555462,0.000724319,0.0127985,1889,1387,46.1495,-19.7842
672,-363,46.0797,18.9606,0.00169316,0.000351715,-0.000963796,0.00219665,-0.000151773,-0.481407,0.00151756,0.0140372,1896,1387,46.0797,-18.9606
679,-363,46.0232,18.0938,0.00278376,0.000628912,-0.00155178,0.00359548,-0.000182806,-0.481947,0.00246019,0.0146002,1903,1387,46.0232,-18.0937
686,-363,45.985,17.2074,0.00398233,0.00105354,-0.00227737,0.00522549,-0.000189619,-0.499672,0.00354856,0.0149547,1910,1387,45.9849,-17.2075
693,-363,45.9443,16.3097,0.00528527,0.00166348,-0.00314625,0.00710456,-0.000155811,-0.524266,0.00478915,0.0143549,1917,1387,45.9444,-16.3097
700,-363,46.0997,15.3297,0.00675585,0.00252362,-0.00423527,0.00937423,-9.47607e-05,-0.553718,0.00628131,0.0396363,1924,1387,46.0998,-15.3297
707,-363,46.4314,14.4025,0,0,0,0,0,0,0,-1,1931,1387,46.4314,-14.4025
714,-363,16.5782,5.3147,0,0,0,0,0,0,0,-1,1938,1387,16.5783,-5.31472
721,-363,14.4045,4.51685,0,0,0,0,0,0,0,-1,1945,1387,14.4045,-4.51685
728,-363,19.9756,0.853027,0,0,0,0,0,0,0,-1,1952,1387,19.9756,-0.853059
735,-363,21.4297,1.2981,0,0,0,0,0,0,0,-1,1959,1387,21.4297,-1.29811
742,-363,21.3621,2.79663,0,0,0,0,0,0,0,-1,1966,1387,21.362,-2.7966
749,-363,0,0,0,0,0,0,0,0,0,-1,1973,1387,0,0
756,-363,0,0,0,0,0,0,0,0,0,-1,1980,1387,0,0
763,-363,0,0,0,0,0,0,0,0,0,-1,1987,1387,0,0
770,-363,0,0,0,0,0,0,0,0,0,-1,1994,1387,0,0
777,-363,0,0,0,0,0,0,0,0,0,-1,2001,1387,0,0
784,-363,0,0,0,0,0,0,0,0,0,-1,2008,1387,0,0
791,-363,0,0,0,0,0,0,0,0,0,-1,2015,1387,0,0
798,-363,0,0,0,0,0,0,0,0,0,-1,2022,1387,0,0
805,-363,0,0,0,0,0,0,0,0,0,-1,2029,1387,0,0
812,-363,0,0,0,0,0,0,0,0,0,-1,2036,1387,0,0
-700,-370,0,0,0,0,0,0,0,0,0,-1,524,1394,0,0
-693,-370,0,0,0,0,0,0,0,0,0,-1,531,1394,0,0
-686,-370,0,0,0,0,0,0,0,0,0,-1,538,1394,0,0
-679,-370,0,0,0,0,0,0,0,0,0,-1,545,1394,0,0
-672,-370,0,0,0,0,0,0,0,0,0,-1,552,1394,0,0
-665,-370,0,0,0,0,0,0,0,0,0,-1,559,1394,0,0
-658,-370,0,0,0,0,0,0,0,0,0,-1,566,1394,0,0
-651,-370,0,0,0,0,0,0,0,0,0,-1,573,1394,0,0
-644,-370,0,0,0,0,0,0,0,0,0,-1,580,1394,0,0
-637,-370,0,0,0,0,0,0,0,0,0,-1,587,1394,0,0
-630,-370,0,0,0,0,0,0,0,0,0,-1,594,1394,0,0
-623,-370,-10.1758,-7.10486,0,0,0,0,0,0,0,-1,601,1394,-10.1758,7.10483
-616,-370,-8.85925,-1.61475,0,0,0,0,0,0,0,-1,608,1394,-8.85925,1.61476
-609,-370,-5.39325,0.0421143,0,0,0,0,0,0,0,-1,615,1394,-5.39328,-0.0421372
-602,-370,-12.3151,3.44592,0,0,0,0,0,0,0,-1,622,1394,-12.3151,-3.44595
-595,-370,-7.53284,5.44214,0,0,0,0,0,0,0,-1,629,1394,-7.53284,-5.44216
-588,-370,-11.2422,4.50598,0,0,0,0,0,0,0,-1,636,1394,-11.2422,-4.50596
-581,-370,-13.1575,5.84888,0,0,0,0,0,0,0,-1,643,1394,-13.1575,-5.84887
-574,-370,-13.0107,6.69861,0,0,0,0,0,0,0,-1,650,1394,-13.0108,-6.69866
-567,-370,-28.0659,15.3646,0,0,0,0,0,0,0,-1,657,1394,-28.0659,-15.3646
-560,-370,-28.0594,16.3766,0.00596664,0.00365037,0.00390818,0.00888467,0.00073233,0.641352,0.00569472,0.0431782,664,1394,-28.0594,-16.3766
-553,-370,-27.978,17.359,0.00503264,0.0026696,0.00306687,0.00713771,0.000564535,0.601534,0.0045819,0.0108905,671,1394,-27.978,-17.359
-546,-370,-27.9996,18.2738,0.0044067,0.00188806,0.00246765,0.0059178,0.000376967,0.549459,0.00382574,0.0146576,678,1394,-27.9996,-18.2738
-539,-370,-28.0283,19.1941,0.00405026,0.0012444,0.0020608,0.00514034,0.000154323,0.486547,0.00337663,0.0190403,685,1394,-28.0282,-19.1941
-532,-370,-28.1418,20.0858,0.00395427,0.000761232,0.00184314,0.0047962,-8.06989e-05,0.428487,0.00322471,0.0228043,692,1394,-28.1419,-20.0858
-525,-370,-28.1826,20.9602,0.00407473,0.00040917,0.00178784,0.00480231,-0.000318414,0.386494,0.00331278,0.0214263,699,1394,-28.1825,-20.9602
-518,-370,-28.1948,21.8284,0.00437954,0.000187076,0.00188307,0.00510114,-0.000534517,0.365941,0.00359221,0.0155476,706,1394,-28.1948,-21.8283
-511,-370,-28.2258,22.7618,0.00490886,0.000149341,0.0021509,0.00573684,-0.000678642,0.367463,0.00406968,0.0162988,713,1394,-28.2259,-22.7618
-504,-370,-28.2539,23.7061,0,0,0,0,0,0,0,-1,720,1394,-28.2539,-23.706
-497,-370,-12.3546,11.7982,0,0,0,0,0,0,0,-1,727,1394,-12.3546,-11.7983
-490,-370,-5.30695,4.5271,0,0,0,0,0,0,0,-1,734,1394,-5.30698,-4.52704
-483,-370,-6.02997,4.59253,0,0,0,0,0,0,0,-1,741,1394,-6.02994,-4.5925
-476,-370,-6.75293,4.65796,0,0,0,0,0,0,0,-1,748,1394,-6.7529,-4.65795
-469,-370,-10.584,1.14294,0,0,0,0,0,0,0,-1,755,1394,-10.584,-1.14293
-462,-370,-9.54462,0.387207,0,0,0,0,0,0,0,-1,762,1394,-9.5446,-0.387176
-455,-370,-8.50525,-0.36853,0,0,0,0,0,0,0,-1,769,1394,-8.50523,0.368582
-448,-370,-10.9543,2.28833,0,0,0,0,0,0,0,-1,776,1394,-10.9543,-2.28835
-441,-370,-11.8699,1.8313,0,0,0,0,0,0,0,-1,783,1394,-11.8699,-1.83127
-434,-370,-12.7855,1.37415,0,0,0,0,0,0,0,-1,790,1394,-12.7855,-1.37419
-427,-370,0,0,0,0,0,0,0,0,0,-1,797,1394,0,0
-420,-370,0,0,0,0,0,0,0,0,0,-1,804,1394,0,0
-413,-370,0,0,0,0,0,0,0,0,0,-1,811,1394,0,0
-406,-370,0,0,0,0,0,0,0,0,0,-1,818,1394,0,0
-399,-370,0,0,0,0,0,0,0,0,0,-1,825,1394,0,0
-392,-370,0,0,0,0,0,0,0,0,0,-1,832,1394,0,0
-385,-370,0,0,0,0,0,0,0,0,0,-1,839,1394,0,0
-378,-370,0,0,0,0,0,0,0,0,0,-1,846,1394,0,0
-371,-370,0,0,0,0,0,0,0,0,0,-1,853,1394,0,0
-364,-370,0,0,0,0,0,0,0,0,0,-1,860,1394,0,0
-357,-370,0,0,0,0,0,0,0,0,0,-1,867,1394,0,0
-350,-370,0,0,0,0,0,0,0,0,0,-1,874,1394,0,0
-343,-370,0,0,0,0,0,0,0,0,0,-1,881,1394,0,0
-336,-370,0,0,0,0,0,0,0,0,0,-1,888,1394,0,0
-329,-370,0,0,0,0,0,0,0,0,0,-1,895,1394,0,0
-322,-370,0,0,0,0,0,0,0,0,0,-1,902,1394,0,0
-315,-370,0,0,0,0,0,0,0,0,0,-1,909,1394,0,0
-308,-370,0,0,0,0,0,0,0,0,0,-1,916,1394,0,0
-301,-370,0,0,0,0,0,0,0,0,0,-1,923,1394,0,0
-294,-370,0,0,0,0,0,0,0,0,0,-1,930,1394,0,0
-287,-370,0,0,0,0,0,0,0,0,0,-1,937,1394,0,0
-280,-370,0,0,0,0,0,0,0,0,0,-1,944,1394,0,0
-273,-370,0,0,0,0,0,0,0,0,0,-1,951,1394,0,0
-266,-370,0,0,0,0,0,0,0,0,0,-1,958,1394,0,0
-259,-370,0,0,0,0,0,0,0,0,0,-1,965,1394,0,0
-252,-370,0,0,0,0,0,0,0,0,0,-1,972,1394,0,0
-245,-370,0,0,0,0,0,0,0,0,0,-1,979,1394,0,0
-238,-370,0,0,0,0,0,0,0,0,0,-1,986,1394,0,0
-231,-370,0,0,0,0,0,0,0,0,0,-1,993,1394,0,0
-224,-370,0,0,0,0,0,0,0,0,0,-1,1000,1394,0,0
-217,-370,0,0,0,0,0,0,0,0,0,-1,1007,1394,0,0
-210,-370,0,0,0,0,0,0,0,0,0,-1,1014,1394,0,0
-203,-370,0,0,0,0,0,0,0,0,0,-1,1021,1394,0,0
-196,-370,0,0,0,0,0,0,0,0,0,-1,1028,1394,0,0
-189,-370,0,0,0,0,0,0,0,0,0,-1,1035,1394,0,0
-182,-370,0,0,0,0,0,0,0,0,0,-1,1042,1394,0,0
-175,-370,0,0,0,0,0,0,0,0,0,-1,1049,1394,0,0
-168,-370,0,0,0,0,0,0,0,0,0,-1,1056,1394,0,0
-161,-370,0,0,0,0,0,0,0,0,0,-1,1063,1394,0,0
-154,-370,0,0,0,0,0,0,0,0,0,-1,1070,1394,0,0
-147,-370,0,0,0,0,0,0,0,0,0,-1,1077,1394,0,0
-140,-370,0,0,0,0,0,0,0,0,0,-1,1084,1394,0,0
-133,-370,0,0,0,0,0,0,0,0,0,-1,1091,1394,0,0
-126,-370,0,0,0,0,0,0,0,0,0,-1,1098,1394,0,0
-119,-370,0,0,0,0,0,0,0,0,0,-1,1105,1394,0,0
-112,-370,0,0,0,0,0,0,0,0,0,-1,1112,1394,0,0
-105,-370,0,0,0,0,0,0,0,0,0,-1,1119,1394,0,0
-98,-370,0,0,0,0,0,0,0,0,0,-1,1126,1394,0,0
-91,-370,0,0,0,0,0,0,0,0,0,-1,1133,1394,0,0
-84,-370,0,0,0,0,0,0,0,0,0,-1,1140,1394,0,0
-77,-370,0,0,0,0,0,0,0,0,0,-1,1147,1394,0,0
-70,-370,0,0,0,0,0,0,0,0,0,-1,1154,1394,0,0
-63,-370,0,0,0,0,0,0,0,0,0,-1,1161,1394,0,0
-56,-370,0,0,0,0,0,0,0,0,0,-1,1168,1394,0,0
-49,-370,0,0,0,0,0,0,0,0,0,-1,1175,1394,0,0
-42,-370,0,0,0,0,0,0,0,0,0,-1,1182,1394,0,0
-35,-370,0,0,0,0,0,0,0,0,0,-1,1189,1394,0,0
-28,-370,0,0,0,0,0,0,0,0,0,-1,1196,1394,0,0
-21,-370,0,0,0,0,0,0,0,0,0,-1,1203,1394,0,0
-14,-370,0,0,0,0,0,0,0,0,0,-1,1210,1394,0,0
-7,-370,0,0,0,0,0,0,0,0,0,-1,1217,1394,0,0
0,-370,0,0,0,0,0,0,0,0,0,-1,1224,1394,0,0
7,-370,0,0,0,0,0,0,0,0,0,-1,1231,1394,0,0
14,-370,0,0,0,0,0,0,0,0,0,-1,1238,1394,0,0
21,-370,0,0,0,0,0,0,0,0,0,-1,1245,1394,0,0
28,-370,0,0,0,0,0,0,0,0,0,-1,1252,1394,0,0
35,-370,0,0,0,0,0,0,0,0,0,-1,1259,1394,0,0
42,-370,0,0,0,0,0,0,0,0,0,-1,1266,1394,0,0
49,-370,0,0,0,0,0,0,0,0,0,-1,1273,1394,0,0
56,-370,0,0,0,0,0,0,0,0,0,-1,1280,1394,0,0
63,-370,0,0,0,0,0,0,0,0,0,-1,1287,1394,0,0
70,-370,0,0,0,0,0,0,0,0,0,-1,1294,1394,0,0
77,-370,0,0,0,0,0,0,0,0,0,-1,1301,1394,0,0
84,-370,0,0,0,0,0,0,0,0,0,-1,1308,1394,0,0
91,-370,0,0,0,0,0,0,0,0,0,-1,1315,1394,0,0
98,-370,0,0,0,0,0,0,0,0,0,-1,1322,1394,0,0
105,-370,0,0,0,0,0,0,0,0,0,-1,1329,1394,0,0
112,-370,0,0,0,0,0,0,0,0,0,-1,1336,1394,0,0
119,-370,0,0,0,0,0,0,0,0,0,-1,1343,1394,0,0
126,-370,0,0,0,0,0,0,0,0,0,-1,1350,1394,0,0
133,-370,0,0,0,0,0,0,0,0,0,-1,1357,1394,0,0
140,-370,0,0,0,0,0,0,0,0,0,-1,1364,1394,0,0
147,-370,0,0,0,0,0,0,0,0,0,-1,1371,1394,0,0
154,-370,0,0,0,0,0,0,0,0,0,-1,1378,1394,0,0
161,-370,0,0,0,0,0,0,0,0,0,-1,1385,1394,0,0
168,-370,0,0,0,0,0,0,0,0,0,-1,1392,1394,0,0
175,-370,0,0,0,0,0,0,0,0,0,-1,1399,1394,0,0
182,-370,0,0,0,0,0,0,0,0,0,-1,1406,1394,0,0
189,-370,0,0,0,0,0,0,0,0,0,-1,1413,1394,0,0
196,-370,0,0,0,0,0,0,0,0,0,-1,1420,1394,0,0
203,-370,0,0,0,0,0,0,0,0,0,-1,1427,1394,0,0
210,-370,0,0,0,0,0,0,0,0,0,-1,1434,1394,0,0
217,-370,0,0,0,0,0,0,0,0,0,-1,1441,1394,0,0
224,-370,0,0,0,0,0,0,0,0,0,-1,1448,1394,0,0
231,-370,0,0,0,0,0,0,0,0,0,-1,1455,1394,0,0
238,-370,0,0,0,0,0,0,0,0,0,-1,1462,1394,0,0
245,-370,0,0,0,0,0,0,0,0,0,-1,1469,1394,0,0
252,-370,0,0,0,0,0,0,0,0,0,-1,1476,1394,0,0
259,-370,0,0,0,0,0,0,0,0,0,-1,1483,1394,0,0
266,-370,0,0,0,0,0,0,0,0,0,-1,1490,1394,0,0
273,-370,0,0,0,0,0,0,0,0,0,-1,1497,1394,0,0
280,-370,0,0,0,0,0,0,0,0,0,-1,1504,1394,0,0
287,-370,0,0,0,0,0,0,0,0,0,-1,1511,1394,0,0
294,-370,0,0,0,0,0,0,0,0,0,-1,1518,1394,0,0
301,-370,0,0,0,0,0,0,0,0,0,-1,1525,1394,0,0
308,-370,0,0,0,0,0,0,0,0,0,-1,1532,1394,0,0
315,-370,0,0,0,0,0,0,0,0,0,-1,1539,1394,0,0
322,-370,0,0,0,0,0,0,0,0,0,-1,1546,1394,0,0
329,-370,0,0,0,0,0,0,0,0,0,-1,1553,1394,0,0
336,-370,0,0,0,0,0,0,0,0,0,-1,1560,1394,0,0
343,-370,0,0,0,0,0,0,0,0,0,-1,1567,1394,0,0
350,-370,0,0,0,0,0,0,0,0,0,-1,1574,1394,0,0
357,-370,0,0,0,0,0,0,0,0,0,-1,1581,1394,0,0
364,-370,0,0,0,0,0,0,0,0,0,-1,1588,1394,0,0
371,-370,0,0,0,0,0,0,0,0,0,-1,1595,1394,0,0
378,-370,0,0,0,0,0,0,0,0,0,-1,1602,1394,0,0
385,-370,0,0,0,0,0,0,0,0,0,-1,1609,1394,0,0
392,-370,0,0,0,0,0,0,0,0,0,-1,1616,1394,0,0
399,-370,0,0,0,0,0,0,0,0,0,-1,1623,1394,0,0
406,-370,0,0,0,0,0,0,0,0,0,-1,1630,1394,0,0
413,-370,0,0,0,0,0,0,0,0,0,-1,1637,1394,0,0
420,-370,0,0,0,0,0,0,0,0,0,-1,1644,1394,0,0
427,-370,0,0,0,0,0,0,0,0,0,-1,1651,1394,0,0
434,-370,0,0,0,0,0,0,0,0,0,-1,1658,1394,0,0
441,-370,0,0,0,0,0,0,0,0,0,-1,1665,1394,0,0
448,-370,0,0,0,0,0,0,0,0,0,-1,1672,1394,0,0
455,-370,0,0,0,0,0,0,0,0,0,-1,1679,1394,0,0
462,-370,0,0,0,0,0,0,0,0,0,-1,1686,1394,0,0
469,-370,0,0,0,0,0,0,0,0,0,-1,1693,1394,0,0
476,-370,0,0,0,0,0,0,0,0,0,-1,1700,1394,0,0
483,-370,0,0,0,0,0,0,0,0,0,-1,1707,1394,0,0
490,-370,0,0,0,0,0,0,0,0,0,-1,1714,1394,0,0
497,-370,0,0,0,0,0,0,0,0,0,-1,1721,1394,0,0
504,-370,0,0,0,0,0,0,0,0,0,-1,1728,1394,0,0
511,-370,0,0,0,0,0,0,0,0,0,-1,1735,1394,0,0
518,-370,0,0,0,0,0,0,0,0,0,-1,1742,1394,0,0
525,-370,0,0,0,0,0,0,0,0,0,-1,1749,1394,0,0
532,-370,0,0,0,0,0,0,0,0,0,-1,1756,1394,0,0
539,-370,0,0,0,0,0,0,0,0,0,-1,1763,1394,0,0
546,-370,60.9257,3.80493,0,0,0,0,0,0,0,-1,1770,1394,60.9256,-3.80494
553,-370,61.9966,2.87524,0,0,0,0,0,0,0,-1,1777,1394,61.9966,-2.8753
560,-370,63.1577,1.82617,0,0,0,0,0,0,0,-1,1784,1394,63.1578,-1.82617
567,-370,46.1089,3.11719,0,0,0,0,0,0,0,-1,1791,1394,46.1089,-3.1172
574,-370,38.8953,1.49353,0,0,0,0,0,0,0,-1,1798,1394,38.8952,-1.49348
581,-370,39.178,2.86145,0,0,0,0,0,0,0,-1,1805,1394,39.1779,-2.86145
588,-370,39.2102,4.27661,0,0,0,0,0,0,0,-1,1812,1394,39.2102,-4.27657
595,-370,25.793,4.5271,0,0,0,0,0,0,0,-1,1819,1394,25.793,-4.52711
602,-370,25.1077,5.34937,0,0,0,0,0,0,0,-1,1826,1394,25.1077,-5.34932
609,-370,16.712,0.993286,0,0,0,0,0,0,0,-1,1833,1394,16.7121,-0.99323
616,-370,16.7764,7.23315,0,0,0,0,0,0,0,-1,1840,1394,16.7764,-7.23313
623,-370,17.6625,8.94263,0,0,0,0,0,0,0,-1,1847,1394,17.6624,-8.94258
630,-370,20.9681,11.1785,0,0,0,0,0,0,0,-1,1854,1394,20.9681,-11.1784
637,-370,45.4674,23.3098,0,0,0,0,0,0,0,-1,1861,1394,45.4674,-23.3098
644,-370,45.4386,22.418,-0.00109503,0.000452332,-3.82679e-05,0.000453278,-0.00109597,-1.54609,0.000919757,0.0149966,1868,1394,45.4386,-22.418
651,-370,45.3867,21.5348,-0.000554889,0.000185781,-2.8525e-05,0.000186878,-0.000555986,-1.53236,0.000446191,0.01375,1875,1394,45.3867,-21.5348
658,-370,45.3438,20.7029,0.000260993,0.000147976,-0.000270719,0.000481038,-7.20696e-05,-0.682508,0.000347218,0.0134156,1882,1394,45.3437,-20.7029
665,-370,45.293,19.8671,0.00121109,0.000230212,-0.000682029,0.00156071,-0.000119403,-0.473686,0.00108247,0.0145852,1889,1394,45.293,-19.8671
672,-370,45.2052,18.9884,0.00228045,0.000439375,-0.00123313,0.00289875,-0.000178918,-0.464768,0.00199481,0.0153365,1896,1394,45.2052,-18.9884
679,-370,45.1918,18.0894,0.00347424,0.0007643,-0.0019331,0.00447995,-0.000241413,-0.479723,0.00307027,0.015198,1903,1394,45.1918,-18.0893
686,-370,45.1306,17.2374,0.00480688,0.00122576,-0.00279866,0.00633876,-0.000306117,-0.500815,0.00433149,0.0159904,1910,1394,45.1307,-17.2374
693,-370,45.0592,16.3198,0.00628314,0.00189843,-0.00385584,0.00852632,-0.000344742,-0.5269,0.00580254,0.0170855,1917,1394,45.0592,-16.3198
700,-370,45.1121,15.3428,0,0,0,0,0,0,0,-1,1924,1394,45.1121,-15.3428
707,-370,39.2391,11.5549,0,0,0,0,0,0,0,-1,1931,1394,39.2392,-11.555
714,-370,16.9116,5.93018,0,0,0,0,0,0,0,-1,1938,1394,16.9116,-5.93014
721,-370,17.2007,4.69153,0,0,0,0,0,0,0,-1,1945,1394,17.2007,-4.69158
728,-370,20.5315,-0.313354,0,0,0,0,0,0,0,-1,1952,1394,20.5315,0.313332
735,-370,22.3652,0.233398,0,0,0,0,0,0,0,-1,1959,1394,22.3652,-0.233355
742,-370,24.1989,0.780029,0,0,0,0,0,0,0,-1,1966,1394,24.1989,-0.780041
749,-370,0,0,0,0,0,0,0,0,0,-1,1973,1394,0,0
756,-370,0,0,0,0,0,0,0,0,0,-1,1980,1394,0,0
763,-370,0,0,0,0,0,0,0,0,0,-1,1987,1394,0,0
770,-370,0,0,0,0,0,0,0,0,0,-1,1994,1394,0,0
777,-370,0,0,0,0,0,0,0,0,0,-1,2001,1394,0,0
784,-370,0,0,0,0,0,0,0,0,0,-1,2008,1394,0,0
791,-370,0,0,0,0,0,0,0,0,0,-1,2015,1394,0,0
798,-370,0,0,0,0,0,0,0,0,0,-1,2022,1394,0,0
805,-370,0,0,0,0,0,0,0,0,0,-1,2029,1394,0,0
812,-370,0,0,0,0,0,0,0,0,0,-1,2036,1394,0,0
-700,-377,0,0,0,0,0,0,0,0,0,-1,524,1401,0,0
-693,-377,0,0,0,0,0,0,0,0,0,-1,531,1401,0,0
-686,-377,0,0,0,0,0,0,0,0,0,-1,538,1401,0,0
-679,-377,0,0,0,0,0,0,0,0,0,-1,545,1401,0,0
-672,-377,0,0,0,0,0,0,0,0,0,-1,552,1401,0,0
-665,-377,0,0,0,0,0,0,0,0,0,-1,559,1401,0,0
-658,-377,0,0,0,0,0,0,0,0,0,-1,566,1401,0,0
-651,-377,0,0,0,0,0,0,0,0,0,-1,573,1401,0,0
-644,-377,0,0,0,0,0,0,0,0,0,-1,580,1401,0,0
-637,-377,0,0,0,0,0,0,0,0,0,-1,587,1401,0,0
-630,-377,0,0,0,0,0,0,0,0,0,-1,594,1401,0,0
-623,-377,0,0,0,0,0,0,0,0,0,-1,601,1401,0,0
-616,-377,-9.43915,-2.4906,0,0,0,0,0,0,0,-1,608,1401,-9.43915,2.49062
-609,-377,-7.2821,-1.35278,0,0,0,0,0,0,0,-1,615,1401,-7.28208,1.35279
-602,-377,-14.9736,3.98279,0,0,0,0,0,0,0,-1,622,1401,-14.9737,-3.98276
-595,-377,-6.9082,1.18201,0,0,0,0,0,0,0,-1,629,1401,-6.90822,-1.18204
-588,-377,-12.8003,3.44751,0,0,0,0,0,0,0,-1,636,1401,-12.8003,-3.44754
-581,-377,-11.8243,6.21521,0,0,0,0,0,0,0,-1,643,1401,-11.8244,-6.21519
-574,-377,-12.2761,6.60547,0,0,0,0,0,0,0,-1,650,1401,-12.2761,-6.60552
-567,-377,-13.4844,7.41931,0,0,0,0,0,0,0,-1,657,1401,-13.4845,-7.41926
-560,-377,-27.3263,16.2714,0,0,0,0,0,0,0,-1,664,1401,-27.3263,-16.2713
-553,-377,-27.1074,17.3647,0.00582177,0.00334186,0.00361214,0.00840085,0.000762778,0.620063,0.00536442,0.0192045,671,1401,-27.1074,-17.3648
-546,-377,-27.1459,18.382,0.00482714,0.0024197,0.00282267,0.00669203,0.000554806,0.58385,0.0042884,0.0171442,678,1401,-27.146,-18.3819
-539,-377,-27.1566,19.2236,0.00412091,0.00164914,0.00223276,0.00543701,0.000333037,0.532626,0.00351892,0.0230924,685,1401,-27.1565,-19.2237
-532,-377,-27.2635,20.0868,0.00369555,0.00104089,0.00183646,0.00463414,0.000102298,0.472477,0.0030559,0.0220726,692,1401,-27.2635,-20.0868
-525,-377,-27.2593,21.0013,0.00350391,0.000582261,0.00160662,0.00421455,-0.000128376,0.416447,0.00285345,0.0266889,699,1401,-27.2593,-21.0013
-518,-377,-27.3229,21.8995,0.00350183,0.000249239,0.00152236,0.00410318,-0.000352118,0.376201,0.00286006,0.0174339,706,1401,-27.3229,-21.8995
-511,-377,-27.366,22.8126,0.00369859,7.00867e-05,0.00158332,0.00429232,-0.000523648,0.358766,0.00305111,0.0119185,713,1401,-27.366,-22.8126
-504,-377,-27.4274,23.752,0.0041404,7.38924e-05,0.00184357,0.00485176,-0.000637463,0.368255,0.00346659,0.0163817,720,1401,-27.4274,-23.752
-497,-377,-27.4518,24.6636,0,0,0,0,0,0,0,-1,727,1401,-27.4518,-24.6636
-490,-377,-8.88409,10.1245,0,0,0,0,0,0,0,-1,734,1401,-8.8841,-10.1245
-483,-377,-5.6524,5.07324,0,0,0,0,0,0,0,-1,741,1401,-5.6524,-5.07325
-476,-377,-6.11682,5.10535,0,0,0,0,0,0,0,-1,748,1401,-6.11681,-5.10537
-469,-377,-10.3211,1.9281,0,0,0,0,0,0,0,-1,755,1401,-10.3211,-1.92808
-462,-377,-9.2204,1.0022,0,0,0,0,0,0,0,-1,762,1401,-9.22039,-1.00218
-455,-377,-8.11969,0.0762939,0,0,0,0,0,0,0,-1,769,1401,-8.11968,-0.0762759
-448,-377,-9.05334,0.877319,0,0,0,0,0,0,0,-1,776,1401,-9.05332,-0.877324
-441,-377,-11.212,0.763428,0,0,0,0,0,0,0,-1,783,1401,-11.212,-0.763415
-434,-377,-11.0984,0.996216,0,0,0,0,0,0,0,-1,790,1401,-11.0984,-0.996265
-427,-377,-11.1733,1.25732,0,0,0,0,0,0,0,-1,797,1401,-11.1733,-1.25732
-420,-377,0,0,0,0,0,0,0,0,0,-1,804,1401,0,0
-413,-377,0,0,0,0,0,0,0,0,0,-1,811,1401,0,0
-406,-377,0,0,0,0,0,0,0,0,0,-1,818,1401,0,0
-399,-377,0,0,0,0,0,0,0,0,0,-1,825,1401,0,0
-392,-377,0,0,0,0,0,0,0,0,0,-1,832,1401,0,0
-385,-377,0,0,0,0,0,0,0,0,0,-1,839,1401,0,0
-378,-377,0,0,0,0,0,0,0,0,0,-1,846,1401,0,0
-371,-377,0,0,0,0,0,0,0,0,0,-1,853,1401,0,0
-364,-377,0,0,0,0,0,0,0,0,0,-1,860,1401,0,0
-357,-377,0,0,0,0,0,0,0,0,0,-1,867,1401,0,0
-350,-377,0,0,0,0,0,0,0,0,0,-1,874,1401,0,0
-343,-377,0,0,0,0,0,0,0,0,0,-1,881,1401,0,0
-336,-377,0,0,0,0,0,0,0,0,0,-1,888,1401,0,0
-329,-377,0,0,0,0,0,0,0,0,0,-1,895,1401,0,0
-322,-377,0,0,0,0,0,0,0,0,0,-1,902,1401,0,0
-315,-377,0,0,0,0,0,0,0,0,0,-1,909,1401,0,0
-308,-377,0,0,0,0,0,0,0,0,0,-1,916,1401,0,0
-301,-377,0,0,0,0,0,0,0,0,0,-1,923,1401,0,0
-294,-377,0,0,0,0,0,0,0,0,0,-1,930,1401,0,0
-287,-377,0,0,0,0,0,0,0,0,0,-1,937,1401,0,0
-280,-377,0,0,0,0,0,0,0,0,0,-1,944,1401,0,0
-273,-377,0,0,0,0,0,0,0,0,0,-1,951,1401,0,0
-266,-377,0,0,0,0,0,0,0,0,0,-1,958,1401,0,0
-259,-377,0,0,0,0,0,0,0,0,0,-1,965,1401,0,0
-252,-377,0,0,0,0,0,0,0,0,0,-1,972,1401,0,0
-245,-377,0,0,0,0,0,0,0,0,0,-1,979,1401,0,0
-238,-377,0,0,0,0,0,0,0,0,0,-1,986,1401,0,0
-231,-377,0,0,0,0,0,0,0,0,0,-1,993,1401,0,0
-224,-377,0,0,0,0,0,0,0,0,0,-1,1000,1401,0,0
-217,-377,0,0,0,0,0,0,0,0,0,-1,1007,1401,0,0
-210,-377,0,0,0,0,0,0,0,0,0,-1,1014,1401,0,0
-203,-377,0,0,0,0,0,0,0,0,0,-1,1021,1401,0,0
-196,-377,0,0,0,0,0,0,0,0,0,-1,1028,1401,0,0
-189,-377,0,0,0,0,0,0,0,0,0,-1,1035,1401,0,0
-182,-377,0,0,0,0,0,0,0,0,0,-1,1042,1401,0,0
-175,-377,0,0,0,0,0,0,0,0,0,-1,1049,1401,0,0
-168,-377,0,0,0,0,0,0,0,0,0,-1,1056,1401,0,0
-161,-377,0,0,0,0,0,0,0,0,0,-1,1063,1401,0,0
-154,-377,0,0,0,0,0,0,0,0,0,-1,1070,1401,0,0
-147,-377,0,0,0,0,0,0,0,0,0,-1,1077,1401,0,0
-140,-377,0,0,0,0,0,0,0,0,0,-1,1084,1401,0,0
-133,-377,0,0,0,0,0,0,0,0,0,-1,1091,1401,0,0
-126,-377,0,0,0,0,0,0,0,0,0,-1,1098,1401,0,0
-119,-377,0,0,0,0,0,0,0,0,0,-1,1105,1401,0,0
-112,-377,0,0,0,0,0,0,0,0,0,-1,1112,1401,0,0
-105,-377,0,0,0,0,0,0,0,0,0,-1,1119,1401,0,0
-98,-377,0,0,0,0,0,0,0,0,0,-1,1126,1401,0,0
-91,-377,0,0,0,0,0,0,0,0,0,-1,1133,1401,0,0
-84,-377,0,0,0,0,0,0,0,0,0,-1,1140,1401,0,0
-77,-377,0,0,0,0,0,0,0,0,0,-1,1147,1401,0,0
-70,-377,0,0,0,0,0,0,0,0,0,-1,1154,1401,0,0
-63,-377,0,0,0,0,0,0,0,0,0,-1,1161,1401,0,0
-56,-377,0,0,0,0,0,0,0,0,0,-1,1168,1401,0,0
-49,-377,0,0,0,0,0,0,0,0,0,-1,1175,1401,0,0
-42,-377,0,0,0,0,0,0,0,0,0,-1,1182,1401,0,0
-35,-377,0,0,0,0,0,0,0,0,0,-1,1189,1401,0,0
-28,-377,0,0,0,0,0,0,0,0,0,-1,1196,1401,0,0
-21,-377,0,0,0,0,0,0,0,0,0,-1,1203,1401,0,0
-14,-377,0,0,0,0,0,0,0,0,0,-1,1210,1401,0,0
-7,-377,0,0,0,0,0,0,0,0,0,-1,1217,1401,0,0
0,-377,0,0,0,0,0,0,0,0,0,-1,1224,1401,0,0
7,-377,0,0,0,0,0,0,0,0,0,-1,1231,1401,0,0
14,-377,0,0,0,0,0,0,0,0,0,-1,1238,1401,0,0
21,-377,0,0,0,0,0,0,0,0,0,-1,1245,1401,0,0
28,-377,0,0,0,0,0,0,0,0,0,-1,1252,1401,0,0
35,-377,0,0,0,0,0,0,0,0,0,-1,1259,1401,0,0
42,-377,0,0,0,0,0,0,0,0,0,-1,1266,1401,0,0
49,-377,0,0,0,0,0,0,0,0,0,-1,1273,1401,0,0
56,-377,0,0,0,0,0,0,0,0,0,-1,1280,1401,0,0
63,-377,0,0,0,0,0,0,0,0,0,-1,1287,1401,0,0
70,-377,0,0,0,0,0,0,0,0,0,-1,1294,1401,0,0
77,-377,0,0,0,0,0,0,0,0,0,-1,1301,1401,0,0
84,-377,0,0,0,0,0,0,0,0,0,-1,1308,1401,0,0
91,-377,0,0,0,0,0,0,0,0,0,-1,1315,1401,0,0
98,-377,0,0,0,0,0,0,0,0,0,-1,1322,1401,0,0
105,-377,0,0,0,0,0,0,0,0,0,-1,1329,1401,0,0
112,-377,0,0,0,0,0,0,0,0,0,-1,1336,1401,0,0
119,-377,0,0,0,0,0,0,0,0,0,-1,1343,1401,0,0
126,-377,0,0,0,0,0,0,0,0,0,-1,1350,1401,0,0
133,-377,0,0,0,0,0,0,0,0,0,-1,1357,1401,0,0
140,-377,0,0,0,0,0,0,0,0,0,-1,1364,1401,0,0
147,-377,0,0,0,0,0,0,0,0,0,-1,1371,1401,0,0
154,-377,0,0,0,0,0,0,0,0,0,-1,1378,1401,0,0
161,-377,0,0,0,0,0,0,0,0,0,-1,1385,1401,0,0
168,-377,0,0,0,0,0,0,0,0,0,-1,1392,1401,0,0
175,-377,0,0,0,0,0,0,0,0,0,-1,1399,1401,0,0
182,-377,0,0,0,0,0,0,0,0,0,-1,1406,1401,0,0
189,-377,0,0,0,0,0,0,0,0,0,-1,1413,1401,0,0
196,-377,0,0,0,0,0,0,0,0,0,-1,1420,1401,0,0
203,-377,0,0,0,0,0,0,0,0,0,-1,1427,1401,0,0
210,-377,0,0,0,0,0,0,0,0,0,-1,1434,1401,0,0
217,-377,0,0,0,0,0,0,0,0,0,-1,1441,1401,0,0
224,-377,0,0,0,0,0,0,0,0,0,-1,1448,1401,0,0
231,-377,0,0,0,0,0,0,0,0,0,-1,1455,1401,0,0
238,-377,0,0,0,0,0,0,0,0,0,-1,1462,1401,0,0
245,-377,0,0,0,0,0,0,0,0,0,-1,1469,1401,0,0
252,-377,0,0,0,0,0,0,0,0,0,-1,1476,1401,0,0
259,-377,0,0,0,0,0,0,0,0,0,-1,1483,1401,0,0
266,-377,0,0,0,0,0,0,0,0,0,-1,1490,1401,0,0
273,-377,0,0,0,0,0,0,0,0,0,-1,1497,1401,0,0
280,-377,0,0,0,0,0,0,0,0,0,-1,1504,1401,0,0
287,-377,0,0,0,0,0,0,0,0,0,-1,1511,1401,0,0
294,-377,0,0,0,0,0,0,0,0,0,-1,1518,1401,0,0
301,-377,0,0,0,0,0,0,0,0,0,-1,1525,1401,0,0
308,-377,0,0,0,0,0,0,0,0,0,-1,1532,1401,0,0
315,-377,0,0,0,0,0,0,0,0,0,-1,1539,1401,0,0
322,-377,0,0,0,0,0,0,0,0,0,-1,1546,1401,0,0
329,-377,0,0,0,0,0,0,0,0,0,-1,1553,1401,0,0
336,-377,0,0,0,0,0,0,0,0,0,-1,1560,1401,0,0
343,-377,0,0,0,0,0,0,0,0,0,-1,1567,1401,0,0
350,-377,0,0,0,0,0,0,0,0,0,-1,1574,1401,0,0
357,-377,0,0,0,0,0,0,0,0,0,-1,1581,1401,0,0
364,-377,0,0,0,0,0,0,0,0,0,-1,1588,1401,0,0
371,-377,0,0,0,0,0,0,0,0,0,-1,1595,1401,0,0
378,-377,0,0,0,0,0,0,0,0,0,-1,1602,1401,0,0
385,-377,0,0,0,0,0,0,0,0,0,-1,1609,1401,0,0
392,-377,0,0,0,0,0,0,0,0,0,-1,1616,1401,0,0
399,-377,0,0,0,0,0,0,0,0,0,-1,1623,1401,0,0
406,-377,0,0,0,0,0,0,0,0,0,-1,1630,1401,0,0
413,-377,0,0,0,0,0,0,0,0,0,-1,1637,1401,0,0
420,-377,0,0,0,0,0,0,0,0,0,-1,1644,1401,0,0
427,-377,0,0,0,0,0,0,0,0,0,-1,1651,1401,0,0
434,-377,0,0,0,0,0,0,0,0,0,-1,1658,1401,0,0
441,-377,0,0,0,0,0,0,0,0,0,-1,1665,1401,0,0
448,-377,0,0,0,0,0,0,0,0,0,-1,1672,1401,0,0
455,-377,0,0,0,0,0,0,0,0,0,-1,1679,1401,0,0
462,-377,0,0,0,0,0,0,0,0,0,-1,1686,1401,0,0
469,-377,0,0,0,0,0,0,0,0,0,-1,1693,1401,0,0
476,-377,0,0,0,0,0,0,0,0,0,-1,1700,1401,0,0
483,-377,0,0,0,0,0,0,0,0,0,-1,1707,1401,0,0
490,-377,0,0,0,0,0,0,0,0,0,-1,1714,1401,0,0
497,-377,0,0,0,0,0,0,0,0,0,-1,1721,1401,0,0
504,-377,0,0,0,0,0,0,0,0,0,-1,1728,1401,0,0
511,-377,0,0,0,0,0,0,0,0,0,-1,1735,1401,0,0
518,-377,0,0,0,0,0,0,0,0,0,-1,1742,1401,0,0
525,-377,0,0,0,0,0,0,0,0,0,-1,1749,1401,0,0
532,-377,0,0,0,0,0,0,0,0,0,-1,1756,1401,0,0
539,-377,0,0,0,0,0,0,0,0,0,-1,1763,1401,0,0
546,-377,27.8485,2.34094,0,0,0,0,0,0,0,-1,1770,1401,27.8486,-2.34091
553,-377,61.8907,2.39148,0,0,0,0,0,0,0,-1,1777,1401,61.8908,-2.39149
560,-377,38.3577,-2.15015,0,0,0,0,0,0,0,-1,1784,1401,38.3576,2.1501
567,-377,38.4889,-0.285645,0,0,0,0,0,0,0,-1,1791,1401,38.4889,0.2857
574,-377,38.6221,1.61694,0,0,0,0,0,0,0,-1,1798,1401,38.6221,-1.61689
581,-377,39.1818,3.76367,0,0,0,0,0,0,0,-1,1805,1401,39.1818,-3.76366
588,-377,25.882,4.35217,0,0,0,0,0,0,0,-1,1812,1401,25.8819,-4.3522
595,-377,25.5392,5.11804,0,0,0,0,0,0,0,-1,1819,1401,25.5392,-5.11808
602,-377,24.816,5.79126,0,0,0,0,0,0,0,-1,1826,1401,24.816,-5.79124
609,-377,15.0223,4.76135,0,0,0,0,0,0,0,-1,1833,1401,15.0224,-4.76129
616,-377,14.1842,5.78992,0,0,0,0,0,0,0,-1,1840,1401,14.1842,-5.78987
623,-377,15.8248,8.76721,0,0,0,0,0,0,0,-1,1847,1401,15.8248,-8.76725
630,-377,37.4343,20.0704,0,0,0,0,0,0,0,-1,1854,1401,37.4344,-20.0704
637,-377,44.6495,23.376,0,0,0,0,0,0,0,-1,1861,1401,44.6496,-23.3759
644,-377,44.5764,22.4657,-0.00077715,0.000218826,8.36428e-05,0.000225801,-0.000784125,1.48759,0.000612062,0.0137883,1868,1401,44.5764,-22.4657
651,-377,44.5077,21.5732,-0.000141321,9.56118e-05,-6.48821e-05,0.000112216,-0.000157925,-1.32026,0.000156708,0.0154122,1875,1401,44.5077,-21.5732
658,-377,44.4666,20.7555,0.000730845,0.000135772,-0.000416196,0.00094492,-7.83033e-05,-0.475072,0.000657604,0.0174011,1882,1401,44.4665,-20.7555
665,-377,44.4316,19.892,0.00174298,0.000289151,-0.000918181,0.00218716,-0.000155027,-0.450571,0.00151243,0.0206251,1889,1401,44.4317,-19.892
672,-377,44.3582,19.0096,0.0029078,0.000541968,-0.00156469,0.0036864,-0.000236631,-0.461731,0.00254015,0.019511,1896,1401,44.3582,-19.0097
679,-377,44.3082,18.1019,0.00422284,0.000907855,-0.00237027,0.00545766,-0.000326967,-0.480276,0.00375218,0.0195803,1903,1401,44.3082,-18.1019
686,-377,44.2659,17.2711,0.0057175,0.00138907,-0.00335968,0.00754969,-0.000443131,-0.499264,0.00518715,0.0170245,1910,1401,44.2658,-17.2711
693,-377,44.3153,16.3502,0.00740914,0.00211296,-0.0045847,0.0100556,-0.000533463,-0.523508,0.00688841,0.0310269,1917,1401,44.3153,-16.3503
700,-377,44.4943,15.2667,0,0,0,0,0,0,0,-1,1924,1401,44.4943,-15.2668
707,-377,28.6234,9.18152,0,0,0,0,0,0,0,-1,1931,1401,28.6234,-9.18151
714,-377,16.5369,5.45959,0,0,0,0,0,0,0,-1,1938,1401,16.5369,-5.4596
721,-377,17.0913,5.42529,0,0,0,0,0,0,0,-1,1945,1401,17.0914,-5.42529
728,-377,14.5396,2.79724,0,0,0,0,0,0,0,-1,1952,1401,14.5396,-2.7972
735,-377,23.2977,-0.991089,0,0,0,0,0,0,0,-1,1959,1401,23.2978,0.991076
742,-377,0,0,0,0,0,0,0,0,0,-1,1966,1401,0,0
749,-377,0,0,0,0,0,0,0,0,0,-1,1973,1401,0,0
756,-377,0,0,0,0,0,0,0,0,0,-1,1980,1401,0,0
763,-377,0,0,0,0,0,0,0,0,0,-1,1987,1401,0,0
770,-377,0,0,0,0,0,0,0,0,0,-1,1994,1401,0,0
777,-377,0,0,0,0,0,0,0,0,0,-1,2001,1401,0,0
784,-377,0,0,0,0,0,0,0,0,0,-1,2008,1401,0,0
791,-377,0,0,0,0,0,0,0,0,0,-1,2015,1401,0,0
798,-377,0,0,0,0,0,0,0,0,0,-1,2022,1401,0,0
805,-377,0,0,0,0,0,0,0,0,0,-1,2029,1401,0,0
812,-377,0,0,0,0,0,0,0,0,0,-1,2036,1401,0,0
-700,-384,0,0,0,0,0,0,0,0,0,-1,524,1408,0,0
-693,-384,0,0,0,0,0,0,0,0,0,-1,531,1408,0,0
-686,-384,0,0,0,0,0,0,0,0,0,-1,538,1408,0,0
-679,-384,0,0,0,0,0,0,0,0,0,-1,545,1408,0,0
-672,-384,0,0,0,0,0,0,0,0,0,-1,552,1408,0,0
-665,-384,0,0,0,0,0,0,0,0,0,-1,559,1408,0,0
-658,-384,0,0,0,0,0,0,0,0,0,-1,566,1408,0,0
-651,-384,0,0,0,0,0,0,0,0,0,-1,573,1408,0,0
-644,-384,0,0,0,0,0,0,0,0,0,-1,580,1408,0,0
-637,-384,0,0,0,0,0,0,0,0,0,-1,587,1408,0,0
-630,-384,0,0,0,0,0,0,0,0,0,-1,594,1408,0,0
-623,-384,0,0,0,0,0,0,0,0,0,-1,601,1408,0,0
-616,-384,-10.019,-3.36646,0,0,0,0,0,0,0,-1,608,1408,-10.019,3.36648
-609,-384,-7.72357,-2.3418,0,0,0,0,0,0,0,-1,615,1408,-7.72358,2.34182
-602,-384,-11.7632,-2.85156,0,0,0,0,0,0,0,-1,622,1408,-11.7632,2.85157
-595,-384,-10.2217,2.8855,0,0,0,0,0,0,0,-1,629,1408,-10.2218,-2.88548
-588,-384,-12.1653,2.29041,0,0,0,0,0,0,0,-1,636,1408,-12.1654,-2.29038
-581,-384,-11.9297,3.60376,0,0,0,0,0,0,0,-1,643,1408,-11.9298,-3.6038
-574,-384,-11.8677,6.02722,0,0,0,0,0,0,0,-1,650,1408,-11.8677,-6.02722
-567,-384,-12.0743,7.04639,0,0,0,0,0,0,0,-1,657,1408,-12.0743,-7.04641
-560,-384,-19.9478,11.6345,0,0,0,0,0,0,0,-1,664,1408,-19.9478,-11.6345
-553,-384,-26.2335,17.4132,0,0,0,0,0,0,0,-1,671,1408,-26.2335,-17.4132
-546,-384,-26.2575,18.4291,0.00518495,0.00297493,0.0032609,0.00752297,0.000636902,0.622037,0.00481707,0.016266,678,1408,-26.2575,-18.429
-539,-384,-26.3307,19.2952,0.00425931,0.00208809,0.00248935,0.00588946,0.000457935,0.57978,0.00378292,0.0181125,685,1408,-26.3307,-19.2952
-532,-384,-26.3657,20.0995,0.0036296,0.00136239,0.00192256,0.00472788,0.000264121,0.519017,0.00306767,0.0219479,692,1408,-26.3657,-20.0995
-525,-384,-26.4062,21.0471,0.00325597,0.000817113,0.00153979,0.00400071,7.23742e-05,0.450493,0.00264334,0.0226174,699,1408,-26.4062,-21.0471
-518,-384,-26.4463,21.9835,0.00307607,0.000400509,0.00130764,0.00360901,-0.000132428,0.387003,0.00245134,0.0144966,706,1408,-26.4463,-21.9835
-511,-384,-26.4991,22.8917,0.00308185,0.000121867,0.00120977,0.00351338,-0.000309661,0.342635,0.002452,0.0115081,713,1408,-26.4992,-22.8917
-504,-384,-26.5295,23.7946,0.00330773,1.39374e-05,0.00128107,0.00374732,-0.000425648,0.33055,0.00265151,0.0126214,720,1408,-26.5295,-23.7945
-497,-384,-26.5573,24.7039,0,0,0,0,0,0,0,-1,727,1408,-26.5573,-24.7039
-490,-384,-25.8657,25.3778,0,0,0,0,0,0,0,-1,734,1408,-25.8656,-25.3778
-483,-384,-6.26471,7.61194,0,0,0,0,0,0,0,-1,741,1408,-6.26469,-7.61191
-476,-384,-6.02734,5.67761,0,0,0,0,0,0,0,-1,748,1408,-6.02736,-5.6776
-469,-384,-10.206,2.63721,0,0,0,0,0,0,0,-1,755,1408,-10.206,-2.6372
-462,-384,-9.04291,1.43542,0,0,0,0,0,0,0,-1,762,1408,-9.04293,-1.43545
-455,-384,-7.87988,0.233765,0,0,0,0,0,0,0,-1,769,1408,-7.87986,-0.233709
-448,-384,-9.35529,7.19226,0,0,0,0,0,0,0,-1,776,1408,-9.35531,-7.19226
-441,-384,-10.4697,1.79004,0,0,0,0,0,0,0,-1,783,1408,-10.4697,-1.79003
-434,-384,-10.6449,0.552246,0,0,0,0,0,0,0,-1,790,1408,-10.6449,-0.552216
-427,-384,-10.968,1.10583,0,0,0,0,0,0,0,-1,797,1408,-10.968,-1.10588
-420,-384,-12.5607,4.54858,0,0,0,0,0,0,0,-1,804,1408,-12.5607,-4.54859
-413,-384,0,0,0,0,0,0,0,0,0,-1,811,1408,0,0
-406,-384,0,0,0,0,0,0,0,0,0,-1,818,1408,0,0
-399,-384,0,0,0,0,0,0,0,0,0,-1,825,1408,0,0
-392,-384,0,0,0,0,0,0,0,0,0,-1,832,1408,0,0
-385,-384,0,0,0,0,0,0,0,0,0,-1,839,1408,0,0
-378,-384,0,0,0,0,0,0,0,0,0,-1,846,1408,0,0
-371,-384,0,0,0,0,0,0,0,0,0,-1,853,1408,0,0
-364,-384,0,0,0,0,0,0,0,0,0,-1,860,1408,0,0
-357,-384,0,0,0,0,0,0,0,0,0,-1,867,1408,0,0
-350,-384,0,0,0,0,0,0,0,0,0,-1,874,1408,0,0
-343,-384,0,0,0,0,0,0,0,0,0,-1,881,1408,0,0
-336,-384,0,0,0,0,0,0,0,0,0,-1,888,1408,0,0
-329,-384,0,0,0,0,0,0,0,0,0,-1,895,1408,0,0
-322,-384,0,0,0,0,0,0,0,0,0,-1,902,1408,0,0
-315,-384,0,0,0,0,0,0,0,0,0,-1,909,1408,0,0
-308,-384,0,0,0,0,0,0,0,0,0,-1,916,1408,0,0
-301,-384,0,0,0,0,0,0,0,0,0,-1,923,1408,0,0
-294,-384,0,0,0,0,0,0,0,0,0,-1,930,1408,0,0
-287,-384,0,0,0,0,0,0,0,0,0,-1,937,1408,0,0
-280,-384,0,0,0,0,0,0,0,0,0,-1,944,1408,0,0
-273,-384,0,0,0,0,0,0,0,0,0,-1,951,1408,0,0
-266,-384,0,0,0,0,0,0,0,0,0,-1,958,1408,0,0
-259,-384,0,0,0,0,0,0,0,0,0,-1,965,1408,0,0
-252,-384,0,0,0,0,0,0,0,0,0,-1,972,1408,0,0
-245,-384,0,0,0,0,0,0,0,0,0,-1,979,1408,0,0
-238,-384,0,0,0,0,0,0,0,0,0,-1,986,1408,0,0
-231,-384,0,0,0,0,0,0,0,0,0,-1,993,1408,0,0
-224,-384,0,0,0,0,0,0,0,0,0,-1,1000,1408,0,0
-217,-384,0,0,0,0,0,0,0,0,0,-1,1007,1408,0,0
-210,-384,0,0,0,0,0,0,0,0,0,-1,1014,1408,0,0
-203,-384,0,0,0,0,0,0,0,0,0,-1,1021,1408,0,0
-196,-384,0,0,0,0,0,0,0,0,0,-1,1028,1408,0,0
-189,-384,0,0,0,0,0,0,0,0,0,-1,1035,1408,0,0
-182,-384,0,0,0,0,0,0,0,0,0,-1,1042,1408,0,0
-175,-384,0,0,0,0,0,0,0,0,0,-1,1049,1408,0,0
-168,-384,0,0,0,0,0,0,0,0,0,-1,1056,1408,0,0
-161,-384,0,0,0,0,0,0,0,0,0,-1,1063,1408,0,0
-154,-384,0,0,0,0,0,0,0,0,0,-1,1070,1408,0,0
-147,-384,0,0,0,0,0,0,0,0,0,-1,1077,1408,0,0
-140,-384,0,0,0,0,0,0,0,0,0,-1,1084,1408,0,0
-133,-384,0,0,0,0,0,0,0,0,0,-1,1091,1408,0,0
-126,-384,0,0,0,0,0,0,0,0,0,-1,1098,1408,0,0
-119,-384,0,0,0,0,0,0,0,0,0,-1,1105,1408,0,0
-112,-384,0,0,0,0,0,0,0,0,0,-1,1112,1408,0,0
-105,-384,0,0,0,0,0,0,0,0,0,-1,1119,1408,0,0
-98,-384,0,0,0,0,0,0,0,0,0,-1,1126,1408,0,0
-91,-384,0,0,0,0,0,0,0,0,0,-1,1133,1408,0,0
-84,-384,0,0,0,0,0,0,0,0,0,-1,1140,1408,0,0
-77,-384,0,0,0,0,0,0,0,0,0,-1,1147,1408,0,0
-70,-384,0,0,0,0,0,0,0,0,0,-1,1154,1408,0,0
-63,-384,0,0,0,0,0,0,0,0,0,-1,1161,1408,0,0
-56,-384,0,0,0,0,0,0,0,0,0,-1,1168,1408,0,0
-49,-384,0,0,0,0,0,0,0,0,0,-1,1175,1408,0,0
-42,-384,0,0,0,0,0,0,0,0,0,-1,1182,1408,0,0
-35,-384,0,0,0,0,0,0,0,0,0,-1,1189,1408,0,0
-28,-384,0,0,0,0,0,0,0,0,0,-1,1196,1408,0,0
-21,-384,0,0,0,0,0,0,0,0,0,-1,1203,1408,0,0
-14,-384,0,0,0,0,0,0,0,0,0,-1,1210,1408,0,0
-7,-384,0,0,0,0,0,0,0,0,0,-1,1217,1408,0,0
0,-384,0,0,0,0,0,0,0,0,0,-1,1224,1408,0,0
7,-384,0,0,0,0,0,0,0,0,0,-1,1231,1408,0,0
14,-384,0,0,0,0,0,0,0,0,0,-1,1238,1408,0,0
21,-384,0,0,0,0,0,0,0,0,0,-1,1245,1408,0,0
28,-384,0,0,0,0,0,0,0,0,0,-1,1252,1408,0,0
35,-384,0,0,0,0,0,0,0,0,0,-1,1259,1408,0,0
42,-384,0,0,0,0,0,0,0,0,0,-1,1266,1408,0,0
49,-384,0,0,0,0,0,0,0,0,0,-1,1273,1408,0,0
56,-384,0,0,0,0,0,0,0,0,0,-1,1280,1408,0,0
63,-384,0,0,0,0,0,0,0,0,0,-1,1287,1408,0,0
70,-384,0,0,0,0,0,0,0,0,0,-1,1294,1408,0,0
77,-384,0,0,0,0,0,0,0,0,0,-1,1301,1408,0,0
84,-384,0,0,0,0,0,0,0,0,0,-1,1308,1408,0,0
91,-384,0,0,0,0,0,0,0,0,0,-1,1315,1408,0,0
98,-384,0,0,0,0,0,0,0,0,0,-1,1322,1408,0,0
105,-384,0,0,0,0,0,0,0,0,0,-1,1329,1408,0,0
112,-384,0,0,0,0,0,0,0,0,0,-1,1336,1408,0,0
119,-384,0,0,0,0,0,0,0,0,0,-1,1343,1408,0,0
126,-384,0,0,0,0,0,0,0,0,0,-1,1350,1408,0,0
133,-384,0,0,0,0,0,0,0,0,0,-1,1357,1408,0,0
140,-384,0,0,0,0,0,0,0,0,0,-1,1364,1408,0,0
147,-384,0,0,0,0,0,0,0,0,0,-1,1371,1408,0,0
154,-384,0,0,0,0,0,0,0,0,0,-1,1378,1408,0,0
161,-384,0,0,0,0,0,0,0,0,0,-1,1385,1408,0,0
168,-384,0,0,0,0,0,0,0,0,0,-1,1392,1408,0,0
175,-384,0,0,0,0,0,0,0,0,0,-1,1399,1408,0,0
182,-384,0,0,0,0,0,0,0,0,0,-1,1406,1408,0,0
189,-384,0,0,0,0,0,0,0,0,0,-1,1413,1408,0,0
196,-384,0,0,0,0,0,0,0,0,0,-1,1420,1408,0,0
203,-384,0,0,0,0,0,0,0,0,0,-1,1427,1408,0,0
210,-384,0,0,0,0,0,0,0,0,0,-1,1434,1408,0,0
217,-384,0,0,0,0,0,0,0,0,0,-1,1441,1408,0,0
224,-384,0,0,0,0,0,0,0,0,0,-1,1448,1408,0,0
231,-384,0,0,0,0,0,0,0,0,0,-1,1455,1408,0,0
238,-384,0,0,0,0,0,0,0,0,0,-1,1462,1408,0,0
245,-384,0,0,0,0,0,0,0,0,0,-1,1469,1408,0,0
252,-384,0,0,0,0,0,0,0,0,0,-1,1476,1408,0,0
259,-384,0,0,0,0,0,0,0,0,0,-1,1483,1408,0,0
266,-384,0,0,0,0,0,0,0,0,0,-1,1490,1408,0,0
273,-384,0,0,0,0,0,0,0,0,0,-1,1497,1408,0,0
280,-384,0,0,0,0,0,0,0,0,0,-1,1504,1408,0,0
287,-384,0,0,0,0,0,0,0,0,0,-1,1511,1408,0,0
294,-384,0,0,0,0,0,0,0,0,0,-1,1518,1408,0,0
301,-384,0,0,0,0,0,0,0,0,0,-1,1525,1408,0,0
308,-384,0,0,0,0,0,0,0,0,0,-1,1532,1408,0,0
315,-384,0,0,0,0,0,0,0,0,0,-1,1539,1408,0,0
322,-384,0,0,0,0,0,0,0,0,0,-1,1546,1408,0,0
329,-384,0,0,0,0,0,0,0,0,0,-1,1553,1408,0,0
336,-384,0,0,0,0,0,0,0,0,0,-1,1560,1408,0,0
343,-384,0,0,0,0,0,0,0,0,0,-1,1567,1408,0,0
350,-384,0,0,0,0,0,0,0,0,0,-1,1574,1408,0,0
357,-384,0,0,0,0,0,0,0,0,0,-1,1581,1408,0,0
364,-384,0,0,0,0,0,0,0,0,0,-1,1588,1408,0,0
371,-384,0,0,0,0,0,0,0,0,0,-1,1595,1408,0,0
378,-384,0,0,0,0,0,0,0,0,0,-1,1602,1408,0,0
385,-384,0,0,0,0,0,0,0,0,0,-1,1609,1408,0,0
392,-384,0,0,0,0,0,0,0,0,0,-1,1616,1408,0,0
399,-384,0,0,0,0,0,0,0,0,0,-1,1623,1408,0,0
406,-384,0,0,0,0,0,0,0,0,0,-1,1630,1408,0,0
413,-384,0,0,0,0,0,0,0,0,0,-1,1637,1408,0,0
420,-384,0,0,0,0,0,0,0,0,0,-1,1644,1408,0,0
427,-384,0,0,0,0,0,0,0,0,0,-1,1651,1408,0,0
434,-384,0,0,0,0,0,0,0,0,0,-1,1658,1408,0,0
441,-384,0,0,0,0,0,0,0,0,0,-1,1665,1408,0,0
448,-384,0,0,0,0,0,0,0,0,0,-1,1672,1408,0,0
455,-384,0,0,0,0,0,0,0,0,0,-1,1679,1408,0,0
462,-384,0,0,0,0,0,0,0,0,0,-1,1686,1408,0,0
469,-384,0,0,0,0,0,0,0,0,0,-1,1693,1408,0,0
476,-384,0,0,0,0,0,0,0,0,0,-1,1700,1408,0,0
483,-384,0,0,0,0,0,0,0,0,0,-1,1707,1408,0,0
490,-384,0,0,0,0,0,0,0,0,0,-1,1714,1408,0,0
497,-384,0,0,0,0,0,0,0,0,0,-1,1721,1408,0,0
504,-384,0,0,0,0,0,0,0,0,0,-1,1728,1408,0,0
511,-384,0,0,0,0,0,0,0,0,0,-1,1735,1408,0,0
518,-384,0,0,0,0,0,0,0,0,0,-1,1742,1408,0,0
525,-384,0,0,0,0,0,0,0,0,0,-1,1749,1408,0,0
532,-384,0,0,0,0,0,0,0,0,0,-1,1756,1408,0,0
539,-384,27.6886,2.85803,0,0,0,0,0,0,0,-1,1763,1408,27.6886,-2.85807
546,-384,27.5044,2.9425,0,0,0,0,0,0,0,-1,1770,1408,27.5044,-2.94255
553,-384,27.3052,2.78394,0,0,0,0,0,0,0,-1,1777,1408,27.3051,-2.78394
560,-384,26.833,3.19812,0,0,0,0,0,0,0,-1,1784,1408,26.833,-3.19816
567,-384,38.2566,0.109985,0,0,0,0,0,0,0,-1,1791,1408,38.2566,-0.110044
574,-384,38.4003,2.05945,0,0,0,0,0,0,0,-1,1798,1408,38.4003,-2.05949
581,-384,25.819,3.91846,0,0,0,0,0,0,0,-1,1805,1408,25.8189,-3.91848
588,-384,23.3721,4.25439,0,0,0,0,0,0,0,-1,1812,1408,23.3721,-4.25442
595,-384,24.981,5.59595,0,0,0,0,0,0,0,-1,1819,1408,24.981,-5.59598
602,-384,20.6605,4.17261,0,0,0,0,0,0,0,-1,1826,1408,20.6606,-4.17265
609,-384,14.158,5.49475,0,0,0,0,0,0,0,-1,1833,1408,14.158,-5.49474
616,-384,14.7997,7.6908,0,0,0,0,0,0,0,-1,1840,1408,14.7996,-7.69079
623,-384,16.4293,9.58899,0,0,0,0,0,0,0,-1,1847,1408,16.4294,-9.58901
630,-384,43.7539,24.4078,0,0,0,0,0,0,0,-1,1854,1408,43.7539,-24.4078
637,-384,43.7382,23.4552,-0.000758216,0.000259642,0.000157956,0.000283591,-0.000782165,1.42032,0.000637363,0.0268947,1861,1408,43.7381,-23.4552
644,-384,43.6869,22.5436,-0.000305801,0.000120921,7.61398e-05,0.0001341,-0.00031898,1.39941,0.000268747,0.0170545,1868,1408,43.6869,-22.5436
651,-384,43.6144,21.6334,0.000378469,9.43949e-05,-0.000195586,0.000478152,-5.28795e-06,-0.471347,0.000320545,0.0172442,1875,1408,43.6144,-21.6334
658,-384,43.5624,20.7644,0.00126923,0.000177437,-0.00063194,0.00155841,-0.000111742,-0.42916,0.00107812,0.0182782,1882,1408,43.5624,-20.7644
665,-384,43.5531,19.9413,0.0023302,0.000380289,-0.00122037,0.00291724,-0.000206753,-0.448362,0.00201728,0.0197903,1889,1408,43.5531,-19.9413
672,-384,43.4965,19.0504,0.00356496,0.000671636,-0.00195283,0.00454861,-0.000312009,-0.466604,0.00314158,0.0173625,1896,1408,43.4965,-19.0505
679,-384,43.4337,18.1511,0.0049736,0.00107127,-0.00285416,0.00647979,-0.000434914,-0.485573,0.00447188,0.0170262,1903,1408,43.4337,-18.1511
686,-384,43.3926,17.3137,0.00658891,0.00156316,-0.00395318,0.00876028,-0.00060821,-0.502285,0.00605312,0.0162938,1910,1408,43.3926,-17.3137
693,-384,43.5077,16.2573,0,0,0,0,0,0,0,-1,1917,1408,43.5077,-16.2574
700,-384,41.9762,14.4678,0,0,0,0,0,0,0,-1,1924,1408,41.9762,-14.4678
707,-384,17.0566,6.62842,0,0,0,0,0,0,0,-1,1931,1408,17.0567,-6.62848
714,-384,16.038,5.0282,0,0,0,0,0,0,0,-1,1938,1408,16.038,-5.02819
721,-384,13.8843,2.8717,0,0,0,0,0,0,0,-1,1945,1408,13.8843,-2.87171
728,-384,15.4409,6.25745,0,0,0,0,0,0,0,-1,1952,1408,15.4409,-6.2574
735,-384,16.7598,6.71289,0,0,0,0,0,0,0,-1,1959,1408,16.7598,-6.71287
742,-384,0,0,0,0,0,0,0,0,0,-1,1966,1408,0,0
749,-384,0,0,0,0,0,0,0,0,0,-1,1973,1408,0,0
756,-384,0,0,0,0,0,0,0,0,0,-1,1980,1408,0,0
763,-384,0,0,0,0,0,0,0,0,0,-1,1987,1408,0,0
770,-384,0,0,0,0,0,0,0,0,0,-1,1994,1408,0,0
777,-384,0,0,0,0,0,0,0,0,0,-1,2001,1408,0,0
784,-384,0,0,0,0,0,0,0,0,0,-1,2008,1408,0,0
791,-384,0,0,0,0,0,0,0,0,0,-1,2015,1408,0,0
798,-384,0,0,0,0,0,0,0,0,0,-1,2022,1408,0,0
805,-384,0,0,0,0,0,0,0,0,0,-1,2029,1408,0,0
812,-384,0,0,0,0,0,0,0,0,0,-1,2036,1408,0,0
-700,-391,0,0,0,0,0,0,0,0,0,-1,524,1415,0,0
-693,-391,0,0,0,0,0,0,0,0,0,-1,531,1415,0,0
-686,-391,0,0,0,0,0,0,0,0,0,-1,538,1415,0,0
-679,-391,0,0,0,0,0,0,0,0,0,-1,545,1415,0,0
-672,-391,0,0,0,0,0,0,0,0,0,-1,552,1415,0,0
-665,-391,0,0,0,0,0,0,0,0,0,-1,559,1415,0,0
-658,-391,0,0,0,0,0,0,0,0,0,-1,566,1415,0,0
-651,-391,0,0,0,0,0,0,0,0,0,-1,573,1415,0,0
-644,-391,0,0,0,0,0,0,0,0,0,-1,580,1415,0,0
-637,-391,0,0,0,0,0,0,0,0,0,-1,587,1415,0,0
-630,-391,0,0,0,0,0,0,0,0,0,-1,594,1415,0,0
-623,-391,0,0,0,0,0,0,0,0,0,-1,601,1415,0,0
-616,-391,0,0,0,0,0,0,0,0,0,-1,608,1415,0,0
-609,-391,-7.71753,-3.69763,0,0,0,0,0,0,0,-1,615,1415,-7.71751,3.69759
-602,-391,-13.9493,-4.12805,0,0,0,0,0,0,0,-1,622,1415,-13.9493,4.12803
-595,-391,-10.8315,1.76172,0,0,0,0,0,0,0,-1,629,1415,-10.8315,-1.76171
-588,-391,-10.265,2.16431,0,0,0,0,0,0,0,-1,636,1415,-10.265,-2.16431
-581,-391,-11.3325,2.44836,0,0,0,0,0,0,0,-1,643,1415,-11.3325,-2.44842
-574,-391,-11.1471,6.19983,0,0,0,0,0,0,0,-1,650,1415,-11.1471,-6.19981
-567,-391,-11.5172,6.82458,0,0,0,0,0,0,0,-1,657,1415,-11.5171,-6.82454
-560,-391,-11.2459,7.37195,0,0,0,0,0,0,0,-1,664,1415,-11.2459,-7.37191
-553,-391,-25.4633,17.4348,0,0,0,0,0,0,0,-1,671,1415,-25.4633,-17.4349
-546,-391,-25.3882,18.4214,0.00570343,0.00374727,0.00388123,0.00872792,0.00072278,0.661967,0.00559328,0.0228133,678,1415,-25.3882,-18.4214
-539,-391,-25.3694,19.3586,0.00456007,0.00270606,0.00292779,0.00670411,0.000562024,0.63208,0.00429434,0.0145988,685,1415,-25.3694,-19.3587
-532,-391,-25.4359,20.2384,0.00371826,0.0018251,0.00219181,0.00515915,0.000384199,0.58156,0.00331879,0.0237966,692,1415,-25.4358,-20.2384
-525,-391,-25.5063,21.166,0.00315561,0.00116635,0.00165724,0.00409378,0.000228171,0.515126,0.0026564,0.0226609,699,1415,-25.5063,-21.166
-518,-391,-25.5781,22.0596,0.0027866,0.000650777,0.00127737,0.00338366,5.37245e-05,0.437236,0.00223808,0.0156757,706,1415,-25.5781,-22.0596
-511,-391,-25.5984,22.957,0.00258078,0.000264695,0.00101262,0.00296107,-0.000115595,0.359253,0.00201368,0.0153565,713,1415,-25.5984,-22.957
-504,-391,-25.6376,23.8517,0.00256457,4.14833e-05,0.000888693,0.00284616,-0.000240109,0.306853,0.00198233,0.0133597,720,1415,-25.6376,-23.8517
-497,-391,-25.6913,24.7382,0.0026894,-3.97835e-05,0.000882344,0.00294982,-0.000300196,0.28699,0.00207387,0.0150131,727,1415,-25.6913,-24.7382
-490,-391,-25.7215,25.6414,0,0,0,0,0,0,0,-1,734,1415,-25.7215,-25.6414
-483,-391,-11.1018,12.9382,0,0,0,0,0,0,0,-1,741,1415,-11.1018,-12.9382
-476,-391,-6.05731,6.85303,0,0,0,0,0,0,0,-1,748,1415,-6.05728,-6.85304
-469,-391,-3.88953,5.0979,0,0,0,0,0,0,0,-1,755,1415,-3.88955,-5.09794
-462,-391,-8.67688,2.03125,0,0,0,0,0,0,0,-1,762,1415,-8.67685,-2.03121
-455,-391,-8.65576,6.46997,0,0,0,0,0,0,0,-1,769,1415,-8.65579,-6.46999
-448,-391,-8.39618,4.38403,0,0,0,0,0,0,0,-1,776,1415,-8.39617,-4.38405
-441,-391,-9.77704,2.5946,0,0,0,0,0,0,0,-1,783,1415,-9.77702,-2.5946
-434,-391,-11.5403,2.12878,0,0,0,0,0,0,0,-1,790,1415,-11.5403,-2.12881
-427,-391,-10.5311,2.50403,0,0,0,0,0,0,0,-1,797,1415,-10.5311,-2.504
-420,-391,-14.7087,1.24365,0,0,0,0,0,0,0,-1,804,1415,-14.7088,-1.24365
-413,-391,0,0,0,0,0,0,0,0,0,-1,811,1415,0,0
-406,-391,0,0,0,0,0,0,0,0,0,-1,818,1415,0,0
-399,-391,0,0,0,0,0,0,0,0,0,-1,825,1415,0,0
-392,-391,0,0,0,0,0,0,0,0,0,-1,832,1415,0,0
-385,-391,0,0,0,0,0,0,0,0,0,-1,839,1415,0,0
-378,-391,0,0,0,0,0,0,0,0,0,-1,846,1415,0,0
-371,-391,0,0,0,0,0,0,0,0,0,-1,853,1415,0,0
-364,-391,0,0,0,0,0,0,0,0,0,-1,860,1415,0,0
-357,-391,0,0,0,0,0,0,0,0,0,-1,867,1415,0,0
-350,-391,0,0,0,0,0,0,0,0,0,-1,874,1415,0,0
-343,-391,0,0,0,0,0,0,0,0,0,-1,881,1415,0,0
-336,-391,0,0,0,0,0,0,0,0,0,-1,888,1415,0,0
-329,-391,0,0,0,0,0,0,0,0,0,-1,895,1415,0,0
-322,-391,0,0,0,0,0,0,0,0,0,-1,902,1415,0,0
-315,-391,0,0,0,0,0,0,0,0,0,-1,909,1415,0,0
-308,-391,0,0,0,0,0,0,0,0,0,-1,916,1415,0,0
-301,-391,0,0,0,0,0,0,0,0,0,-1,923,1415,0,0
-294,-391,0,0,0,0,0,0,0,0,0,-1,930,1415,0,0
-287,-391,0,0,0,0,0,0,0,0,0,-1,937,1415,0,0
-280,-391,0,0,0,0,0,0,0,0,0,-1,944,1415,0,0
-273,-391,0,0,0,0,0,0,0,0,0,-1,951,1415,0,0
-266,-391,0,0,0,0,0,0,0,0,0,-1,958,1415,0,0
-259,-391,0,0,0,0,0,0,0,0,0,-1,965,1415,0,0
-252,-391,0,0,0,0,0,0,0,0,0,-1,972,1415,0,0
-245,-391,0,0,0,0,0,0,0,0,0,-1,979,1415,0,0
-238,-391,0,0,0,0,0,0,0,0,0,-1,986,1415,0,0
-231,-391,0,0,0,0,0,0,0,0,0,-1,993,1415,0,0
-224,-391,0,0,0,0,0,0,0,0,0,-1,1000,1415,0,0
-217,-391,0,0,0,0,0,0,0,0,0,-1,1007,1415,0,0
-210,-391,0,0,0,0,0,0,0,0,0,-1,1014,1415,0,0
-203,-391,0,0,0,0,0,0,0,0,0,-1,1021,1415,0,0
-196,-391,0,0,0,0,0,0,0,0,0,-1,1028,1415,0,0
-189,-391,0,0,0,0,0,0,0,0,0,-1,1035,1415,0,0
-182,-391,0,0,0,0,0,0,0,0,0,-1,1042,1415,0,0
-175,-391,0,0,0,0,0,0,0,0,0,-1,1049,1415,0,0
-168,-391,0,0,0,0,0,0,0,0,0,-1,1056,1415,0,0
-161,-391,0,0,0,0,0,0,0,0,0,-1,1063,1415,0,0
-154,-391,0,0,0,0,0,0,0,0,0,-1,1070,1415,0,0
-147,-391,0,0,0,0,0,0,0,0,0,-1,1077,1415,0,0
-140,-391,0,0,0,0,0,0,0,0,0,-1,1084,1415,0,0
-133,-391,0,0,0,0,0,0,0,0,0,-1,1091,1415,0,0
-126,-391,0,0,0,0,0,0,0,0,0,-1,1098,1415,0,0
-119,-391,0,0,0,0,0,0,0,0,0,-1,1105,1415,0,0
-112,-391,0,0,0,0,0,0,0,0,0,-1,1112,1415,0,0
-105,-391,0,0,0,0,0,0,0,0,0,-1,1119,1415,0,0
-98,-391,0,0,0,0,0,0,0,0,0,-1,1126,1415,0,0
-91,-391,0,0,0,0,0,0,0,0,0,-1,1133,1415,0,0
-84,-391,0,0,0,0,0,0,0,0,0,-1,1140,1415,0,0
-77,-391,0,0,0,0,0,0,0,0,0,-1,1147,1415,0,0
-70,-391,0,0,0,0,0,0,0,0,0,-1,1154,1415,0,0
-63,-391,0,0,0,0,0,0,0,0,0,-1,1161,1415,0,0
-56,-391,0,0,0,0,0,0,0,0,0,-1,1168,1415,0,0
-49,-391,0,0,0,0,0,0,0,0,0,-1,1175,1415,0,0
-42,-391,0,0,0,0,0,0,0,0,0,-1,1182,1415,0,0
-35,-391,0,0,0,0,0,0,0,0,0,-1,1189,1415,0,0
-28,-391,0,0,0,0,0,0,0,0,0,-1,1196,1415,0,0
-21,-391,0,0,0,0,0,0,0,0,0,-1,1203,1415,0,0
-14,-391,0,0,0,0,0,0,0,0,0,-1,1210,1415,0,0
-7,-391,0,0,0,0,0,0,0,0,0,-1,1217,1415,0,0
0,-391,0,0,0,0,0,0,0,0,0,-1,1224,1415,0,0
7,-391,0,0,0,0,0,0,0,0,0,-1,1231,1415,0,0
14,-391,0,0,0,0,0,0,0,0,0,-1,1238,1415,0,0
21,-391,0,0,0,0,0,0,0,0,0,-1,1245,1415,0,0
28,-391,0,0,0,0,0,0,0,0,0,-1,1252,1415,0,0
35,-391,0,0,0,0,0,0,0,0,0,-1,1259,1415,0,0
42,-391,0,0,0,0,0,0,0,0,0,-1,1266,1415,0,0
49,-391,0,0,0,0,0,0,0,0,0,-1,1273,1415,0,0
56,-391,0,0,0,0,0,0,0,0,0,-1,1280,1415,0,0
63,-391,0,0,0,0,0,0,0,0,0,-1,1287,1415,0,0
70,-391,0,0,0,0,0,0,0,0,0,-1,1294,1415,0,0
77,-391,0,0,0,0,0,0,0,0,0,-1,1301,1415,0,0
84,-391,0,0,0,0,0,0,0,0,0,-1,1308,1415,0,0
91,-391,0,0,0,0,0,0,0,0,0,-1,1315,1415,0,0
98,-391,0,0,0,0,0,0,0,0,0,-1,1322,1415,0,0
105,-391,0,0,0,0,0,0,0,0,0,-1,1329,1415,0,0
112,-391,0,0,0,0,0,0,0,0,0,-1,1336,1415,0,0
119,-391,0,0,0,0,0,0,0,0,0,-1,1343,1415,0,0
126,-391,0,0,0,0,0,0,0,0,0,-1,1350,1415,0,0
133,-391,0,0,0,0,0,0,0,0,0,-1,1357,1415,0,0
140,-391,0,0,0,0,0,0,0,0,0,-1,1364,1415,0,0
147,-391,0,0,0,0,0,0,0,0,0,-1,1371,1415,0,0
154,-391,0,0,0,0,0,0,0,0,0,-1,1378,1415,0,0
161,-391,0,0,0,0,0,0,0,0,0,-1,1385,1415,0,0
168,-391,0,0,0,0,0,0,0,0,0,-1,1392,1415,0,0
175,-391,0,0,0,0,0,0,0,0,0,-1,1399,1415,0,0
182,-391,0,0,0,0,0,0,0,0,0,-1,1406,1415,0,0
189,-391,0,0,0,0,0,0,0,0,0,-1,1413,1415,0,0
196,-391,0,0,0,0,0,0,0,0,0,-1,1420,1415,0,0
203,-391,0,0,0,0,0,0,0,0,0,-1,1427,1415,0,0
210,-391,0,0,0,0,0,0,0,0,0,-1,1434,1415,0,0
217,-391,0,0,0,0,0,0,0,0,0,-1,1441,1415,0,0
224,-391,0,0,0,0,0,0,0,0,0,-1,1448,1415,0,0
231,-391,0,0,0,0,0,0,0,0,0,-1,1455,1415,0,0
238,-391,0,0,0,0,0,0,0,0,0,-1,1462,1415,0,0
245,-391,0,0,0,0,0,0,0,0,0,-1,1469,1415,0,0
252,-391,0,0,0,0,0,0,0,0,0,-1,1476,1415,0,0
259,-391,0,0,0,0,0,0,0,0,0,-1,1483,1415,0,0
266,-391,0,0,0,0,0,0,0,0,0,-1,1490,1415,0,0
273,-391,0,0,0,0,0,0,0,0,0,-1,1497,1415,0,0
280,-391,0,0,0,0,0,0,0,0,0,-1,1504,1415,0,0
287,-391,0,0,0,0,0,0,0,0,0,-1,1511,1415,0,0
294,-391,0,0,0,0,0,0,0,0,0,-1,1518,1415,0,0
301,-391,0,0,0,0,0,0,0,0,0,-1,1525,1415,0,0
308,-391,0,0,0,0,0,0,0,0,0,-1,1532,1415,0,0
315,-391,0,0,0,0,0,0,0,0,0,-1,1539,1415,0,0
322,-391,0,0,0,0,0,0,0,0,0,-1,1546,1415,0,0
329,-391,0,0,0,0,0,0,0,0,0,-1,1553,1415,0,0
336,-391,0,0,0,0,0,0,0,0,0,-1,1560,1415,0,0
343,-391,0,0,0,0,0,0,0,0,0,-1,1567,1415,0,0
350,-391,0,0,0,0,0,0,0,0,0,-1,1574,1415,0,0
357,-391,0,0,0,0,0,0,0,0,0,-1,1581,1415,0,0
364,-391,0,0,0,0,0,0,0,0,0,-1,1588,1415,0,0
371,-391,0,0,0,0,0,0,0,0,0,-1,1595,1415,0,0
378,-391,0,0,0,0,0,0,0,0,0,-1,1602,1415,0,0
385,-391,0,0,0,0,0,0,0,0,0,-1,1609,1415,0,0
392,-391,0,0,0,0,0,0,0,0,0,-1,1616,1415,0,0
399,-391,0,0,0,0,0,0,0,0,0,-1,1623,1415,0,0
406,-391,0,0,0,0,0,0,0,0,0,-1,1630,1415,0,0
413,-391,0,0,0,0,0,0,0,0,0,-1,1637,1415,0,0
420,-391,0,0,0,0,0,0,0,0,0,-1,1644,1415,0,0
427,-391,0,0,0,0,0,0,0,0,0,-1,1651,1415,0,0
434,-391,0,0,0,0,0,0,0,0,0,-1,1658,1415,0,0
441,-391,0,0,0,0,0,0,0,0,0,-1,1665,1415,0,0
448,-391,0,0,0,0,0,0,0,0,0,-1,1672,1415,0,0
455,-391,0,0,0,0,0,0,0,0,0,-1,1679,1415,0,0
462,-391,0,0,0,0,0,0,0,0,0,-1,1686,1415,0,0
469,-391,0,0,0,0,0,0,0,0,0,-1,1693,1415,0,0
476,-391,0,0,0,0,0,0,0,0,0,-1,1700,1415,0,0
483,-391,0,0,0,0,0,0,0,0,0,-1,1707,1415,0,0
490,-391,0,0,0,0,0,0,0,0,0,-1,1714,1415,0,0
497,-391,0,0,0,0,0,0,0,0,0,-1,1721,1415,0,0
504,-391,0,0,0,0,0,0,0,0,0,-1,1728,1415,0,0
511,-391,0,0,0,0,0,0,0,0,0,-1,1735,1415,0,0
518,-391,0,0,0,0,0,0,0,0,0,-1,1742,1415,0,0
525,-391,0,0,0,0,0,0,0,0,0,-1,1749,1415,0,0
532,-391,28.5959,3.02356,0,0,0,0,0,0,0,-1,1756,1415,28.596,-3.02358
539,-391,27.5881,3.25012,0,0,0,0,0,0,0,-1,1763,1415,27.5882,-3.25016
546,-391,27.2837,3.28064,0,0,0,0,0,0,0,-1,1770,1415,27.2837,-3.28064
553,-391,32.5952,5.04553,0,0,0,0,0,0,0,-1,1777,1415,32.5952,-5.04551
560,-391,31.2947,5.67017,0,0,0,0,0,0,0,-1,1784,1415,31.2947,-5.67011
567,-391,30.1473,6.17603,0,0,0,0,0,0,0,-1,1791,1415,30.1473,-6.17602
574,-391,27.5656,5.6842,0,0,0,0,0,0,0,-1,1798,1415,27.5655,-5.68422
581,-391,25.8883,5.76123,0,0,0,0,0,0,0,-1,1805,1415,25.8883,-5.76124
588,-391,24.2717,5.47986,0,0,0,0,0,0,0,-1,1812,1415,24.2717,-5.47982
595,-391,22.8827,6.1991,0,0,0,0,0,0,0,-1,1819,1415,22.8827,-6.19909
602,-391,15.1635,5.69849,0,0,0,0,0,0,0,-1,1826,1415,15.1635,-5.69847
609,-391,14.8285,7.50476,0,0,0,0,0,0,0,-1,1833,1415,14.8285,-7.50479
616,-391,20.7952,12.0503,0,0,0,0,0,0,0,-1,1840,1415,20.7952,-12.0503
623,-391,36.6426,20.3677,0,0,0,0,0,0,0,-1,1847,1415,36.6426,-20.3676
630,-391,42.9242,24.344,0,0,0,0,0,0,0,-1,1854,1415,42.9242,-24.344
637,-391,42.8826,23.4409,-0.000260747,7.51265e-05,0.000205931,0.000172916,-0.000358536,1.12746,0.00031301,0.0192795,1861,1415,42.8825,-23.4409
644,-391,42.8236,22.5588,0.000202445,3.59013e-05,2.68857e-06,0.000202488,3.58579e-05,0.0161377,0.000124769,0.0179009,1868,1415,42.8237,-22.5589
651,-391,42.7769,21.7264,0.000905661,0.000106316,-0.000367937,0.00104923,-3.72574e-05,-0.372039,0.000712234,0.0180564,1875,1415,42.7769,-21.7264
658,-391,42.7028,20.8438,0.00184769,0.000260261,-0.000916347,0.00226628,-0.000158325,-0.428493,0.0015663,0.0196708,1882,1415,42.7027,-20.8438
665,-391,42.6692,19.9927,0.00299065,0.000521059,-0.00161087,0.00378554,-0.000273834,-0.458398,0.00261974,0.0157006,1889,1415,42.6692,-19.9926
672,-391,42.6221,19.126,0.00432106,0.000857169,-0.00244237,0.00558325,-0.000405014,-0.476986,0.00386425,0.01286,1896,1415,42.622,-19.126
679,-391,42.5664,18.2428,0.00585247,0.00129554,-0.00345028,0.00770871,-0.000560708,-0.493582,0.00533587,0.0128033,1903,1415,42.5665,-18.2427
686,-391,42.5375,17.3535,0.00761702,0.00178061,-0.00466231,0.0101991,-0.000801462,-0.50577,0.00708168,0.0267031,1910,1415,42.5375,-17.3536
693,-391,42.6498,16.3618,0,0,0,0,0,0,0,-1,1917,1415,42.6498,-16.3618
700,-391,39.8163,14.4929,0,0,0,0,0,0,0,-1,1924,1415,39.8163,-14.4929
707,-391,12.9524,5.96851,0,0,0,0,0,0,0,-1,1931,1415,12.9524,-5.96849
714,-391,15.6875,7.67896,0,0,0,0,0,0,0,-1,1938,1415,15.6875,-7.67893
721,-391,14.1808,8.08435,0,0,0,0,0,0,0,-1,1945,1415,14.1808,-8.08439
728,-391,13.8102,7.28174,0,0,0,0,0,0,0,-1,1952,1415,13.8102,-7.28174
735,-391,0,0,0,0,0,0,0,0,0,-1,1959,1415,0,0
742,-391,0,0,0,0,0,0,0,0,0,-1,1966,1415,0,0
749,-391,0,0,0,0,0,0,0,0,0,-1,1973,1415,0,0
756,-391,0,0,0,0,0,0,0,0,0,-1,1980,1415,0,0
763,-391,0,0,0,0,0,0,0,0,0,-1,1987,1415,0,0
770,-391,0,0,0,0,0,0,0,0,0,-1,1994,1415,0,0
777,-391,0,0,0,0,0,0,0,0,0,-1,2001,1415,0,0
784,-391,0,0,0,0,0,0,0,0,0,-1,2008,1415,0,0
791,-391,0,0,0,0,0,0,0,0,0,-1,2015,1415,0,0
798,-391,0,0,0,0,0,0,0,0,0,-1,2022,1415,0,0
805,-391,0,0,0,0,0,0,0,0,0,-1,2029,1415,0,0
812,-391,0,0,0,0,0,0,0,0,0,-1,2036,1415,0,0
-700,-398,0,0,0,0,0,0,0,0,0,-1,524,1422,0,0
-693,-398,0,0,0,0,0,0,0,0,0,-1,531,1422,0,0
-686,-398,0,0,0,0,0,0,0,0,0,-1,538,1422,0,0
-679,-398,0,0,0,0,0,0,0,0,0,-1,545,1422,0,0
-672,-398,0,0,0,0,0,0,0,0,0,-1,552,1422,0,0
-665,-398,0,0,0,0,0,0,0,0,0,-1,559,1422,0,0
-658,-398,0,0,0,0,0,0,0,0,0,-1,566,1422,0,0
-651,-398,0,0,0,0,0,0,0,0,0,-1,573,1422,0,0
-644,-398,0,0,0,0,0,0,0,0,0,-1,580,1422,0,0
-637,-398,0,0,0,0,0,0,0,0,0,-1,587,1422,0,0
-630,-398,0,0,0,0,0,0,0,0,0,-1,594,1422,0,0
-623,-398,0,0,0,0,0,0,0,0,0,-1,601,1422,0,0
-616,-398,0,0,0,0,0,0,0,0,0,-1,608,1422,0,0
-609,-398,-7.47125,-4.05322,0,0,0,0,0,0,0,-1,615,1422,-7.47128,4.05317
-602,-398,-4.58868,-2.77026,0,0,0,0,0,0,0,-1,622,1422,-4.58869,2.77023
-595,-398,-12.2224,-1.82007,0,0,0,0,0,0,0,-1,629,1422,-12.2224,1.82006
-588,-398,-10.6939,1.32336,0,0,0,0,0,0,0,-1,636,1422,-10.6939,-1.32337
-581,-398,-10.433,3.1123,0,0,0,0,0,0,0,-1,643,1422,-10.433,-3.11233
-574,-398,-10.4475,5.89807,0,0,0,0,0,0,0,-1,650,1422,-10.4475,-5.89802
-567,-398,-10.4904,6.80115,0,0,0,0,0,0,0,-1,657,1422,-10.4904,-6.80115
-560,-398,-10.5333,7.70435,0,0,0,0,0,0,0,-1,664,1422,-10.5333,-7.70429
-553,-398,-24.629,17.2128,0,0,0,0,0,0,0,-1,671,1422,-24.629,-17.2128
-546,-398,-24.5559,18.4203,0.00638775,0.00487219,0.00470881,0.0103994,0.000860574,0.705618,0.0066646,0.0460043,678,1422,-24.5559,-18.4202
-539,-398,-24.4473,19.4545,0.0049784,0.0036009,0.00353434,0.00789048,0.000688824,0.689167,0.0050464,0.0134247,685,1422,-24.4473,-19.4545
-532,-398,-24.525,20.3468,0.00388692,0.00249589,0.00259862,0.00588149,0.000501316,0.654639,0.00376503,0.0210225,692,1422,-24.525,-20.3468
-525,-398,-24.5872,21.236,0.00312255,0.00167695,0.00189531,0.00442821,0.000371292,0.60323,0.00283649,0.0195458,699,1422,-24.5872,-21.236
-518,-398,-24.616,22.1298,0.00257665,0.00103094,0.00136002,0.00336807,0.000239522,0.527017,0.00216995,0.0186148,706,1422,-24.616,-22.1298
-511,-398,-24.6556,23.0125,0.00219428,0.000524915,0.000937531,0.00261485,0.000104345,0.421684,0.00170951,0.0155265,713,1422,-24.6556,-23.0124
-504,-398,-24.7205,23.9319,0.00199353,0.000174502,0.000643506,0.00219816,-3.01275e-05,0.30788,0.00147558,0.0155032,720,1422,-24.7205,-23.9318
-497,-398,-24.7948,24.809,0.00195704,-2.0522e-05,0.000472817,0.00206427,-0.000127754,0.223021,0.00142068,0.0112385,727,1422,-24.7948,-24.809
-490,-398,-24.8327,25.694,0.00222638,-3.43893e-05,0.000463654,0.00231777,-0.000125784,0.194623,0.00158877,0.0236827,734,1422,-24.8327,-25.694
-483,-398,-24.854,26.5996,0,0,0,0,0,0,0,-1,741,1422,-24.854,-26.5997
-476,-398,-8.64392,11.9448,0,0,0,0,0,0,0,-1,748,1422,-8.6439,-11.9448
-469,-398,-8.91699,10.6276,0,0,0,0,0,0,0,-1,755,1422,-8.91697,-10.6275
-462,-398,-9.59753,9.32532,0,0,0,0,0,0,0,-1,762,1422,-9.59753,-9.32531
-455,-398,-8.08331,6.75024,0,0,0,0,0,0,0,-1,769,1422,-8.08333,-6.75022
-448,-398,-7.4505,5.25293,0,0,0,0,0,0,0,-1,776,1422,-7.4505,-5.25291
-441,-398,-7.61639,3.32141,0,0,0,0,0,0,0,-1,783,1422,-7.61637,-3.32145
-434,-398,-10.7618,3.297,0,0,0,0,0,0,0,-1,790,1422,-10.7618,-3.29704
-427,-398,-11.9061,2.24939,0,0,0,0,0,0,0,-1,797,1422,-11.9061,-2.24941
-420,-398,-13.467,2.32788,0,0,0,0,0,0,0,-1,804,1422,-13.467,-2.32787
-413,-398,-14.7983,2.15515,0,0,0,0,0,0,0,-1,811,1422,-14.7983,-2.15516
-406,-398,0,0,0,0,0,0,0,0,0,-1,818,1422,0,0
-399,-398,0,0,0,0,0,0,0,0,0,-1,825,1422,0,0
-392,-398,0,0,0,0,0,0,0,0,0,-1,832,1422,0,0
-385,-398,0,0,0,0,0,0,0,0,0,-1,839,1422,0,0
-378,-398,0,0,0,0,0,0,0,0,0,-1,846,1422,0,0
-371,-398,0,0,0,0,0,0,0,0,0,-1,853,1422,0,0
-364,-398,0,0,0,0,0,0,0,0,0,-1,860,1422,0,0
-357,-398,0,0,0,0,0,0,0,0,0,-1,867,1422,0,0
-350,-398,0,0,0,0,0,0,0,0,0,-1,874,1422,0,0
-343,-398,0,0,0,0,0,0,0,0,0,-1,881,1422,0,0
-336,-398,0,0,0,0,0,0,0,0,0,-1,888,1422,0,0
-329,-398,0,0,0,0,0,0,0,0,0,-1,895,1422,0,0
-322,-398,0,0,0,0,0,0,0,0,0,-1,902,1422,0,0
-315,-398,0,0,0,0,0,0,0,0,0,-1,909,1422,0,0
-308,-398,0,0,0,0,0,0,0,0,0,-1,916,1422,0,0
-301,-398,0,0,0,0,0,0,0,0,0,-1,923,1422,0,0
-294,-398,0,0,0,0,0,0,0,0,0,-1,930,1422,0,0
-287,-398,0,0,0,0,0,0,0,0,0,-1,937,1422,0,0
-280,-398,0,0,0,0,0,0,0,0,0,-1,944,1422,0,0
-273,-398,0,0,0,0,0,0,0,0,0,-1,951,1422,0,0
-266,-398,0,0,0,0,0,0,0,0,0,-1,958,1422,0,0
-259,-398,0,0,0,0,0,0,0,0,0,-1,965,1422,0,0
-252,-398,0,0,0,0,0,0,0,0,0,-1,972,1422,0,0
-245,-398,0,0,0,0,0,0,0,0,0,-1,979,1422,0,0
-238,-398,0,0,0,0,0,0,0,0,0,-1,986,1422,0,0
-231,-398,0,0,0,0,0,0,0,0,0,-1,993,1422,0,0
-224,-398,0,0,0,0,0,0,0,0,0,-1,1000,1422,0,0
-217,-398,0,0,0,0,0,0,0,0,0,-1,1007,1422,0,0
-210,-398,0,0,0,0,0,0,0,0,0,-1,1014,1422,0,0
-203,-398,0,0,0,0,0,0,0,0,0,-1,1021,1422,0,0
-196,-398,0,0,0,0,0,0,0,0,0,-1,1028,1422,0,0
-189,-398,0,0,0,0,0,0,0,0,0,-1,1035,1422,0,0
-182,-398,0,0,0,0,0,0,0,0,0,-1,1042,1422,0,0
-175,-398,0,0,0,0,0,0,0,0,0,-1,1049,1422,0,0
-168,-398,0,0,0,0,0,0,0,0,0,-1,1056,1422,0,0
-161,-398,0,0,0,0,0,0,0,0,0,-1,1063,1422,0,0
-154,-398,0,0,0,0,0,0,0,0,0,-1,1070,1422,0,0
-147,-398,0,0,0,0,0,0,0,0,0,-1,1077,1422,0,0
-140,-398,0,0,0,0,0,0,0,0,0,-1,1084,1422,0,0
-133,-398,0,0,0,0,0,0,0,0,0,-1,1091,1422,0,0
-126,-398,0,0,0,0,0,0,0,0,0,-1,1098,1422,0,0
-119,-398,0,0,0,0,0,0,0,0,0,-1,1105,1422,0,0
-112,-398,0,0,0,0,0,0,0,0,0,-1,1112,1422,0,0
-105,-398,0,0,0,0,0,0,0,0,0,-1,1119,1422,0,0
-98,-398,0,0,0,0,0,0,0,0,0,-1,1126,1422,0,0
-91,-398,0,0,0,0,0,0,0,0,0,-1,1133,1422,0,0
-84,-398,0,0,0,0,0,0,0,0,0,-1,1140,1422,0,0
-77,-398,0,0,0,0,0,0,0,0,0,-1,1147,1422,0,0
-70,-398,0,0,0,0,0,0,0,0,0,-1,1154,1422,0,0
-63,-398,0,0,0,0,0,0,0,0,0,-1,1161,1422,0,0
-56,-398,0,0,0,0,0,0,0,0,0,-1,1168,1422,0,0
-49,-398,0,0,0,0,0,0,0,0,0,-1,1175,1422,0,0
-42,-398,0,0,0,0,0,0,0,0,0,-1,1182,1422,0,0
-35,-398,0,0,0,0,0,0,0,0,0,-1,1189,1422,0,0
-28,-398,0,0,0,0,0,0,0,0,0,-1,1196,1422,0,0
-21,-398,0,0,0,0,0,0,0,0,0,-1,1203,1422,0,0
-14,-398,0,0,0,0,0,0,0,0,0,-1,1210,1422,0,0
-7,-398,0,0,0,0,0,0,0,0,0,-1,1217,1422,0,0
0,-398,0,0,0,0,0,0,0,0,0,-1,1224,1422,0,0
7,-398,0,0,0,0,0,0,0,0,0,-1,1231,1422,0,0
14,-398,0,0,0,0,0,0,0,0,0,-1,1238,1422,0,0
21,-398,0,0,0,0,0,0,0,0,0,-1,1245,1422,0,0
28,-398,0,0,0,0,0,0,0,0,0,-1,1252,1422,0,0
35,-398,0,0,0,0,0,0,0,0,0,-1,1259,1422,0,0
42,-398,0,0,0,0,0,0,0,0,0,-1,1266,1422,0,0
49,-398,0,0,0,0,0,0,0,0,0,-1,1273,1422,0,0
56,-398,0,0,0,0,0,0,0,0,0,-1,1280,1422,0,0
63,-398,0,0,0,0,0,0,0,0,0,-1,1287,1422,0,0
70,-398,0,0,0,0,0,0,0,0,0,-1,1294,1422,0,0
77,-398,0,0,0,0,0,0,0,0,0,-1,1301,1422,0,0
84,-398,0,0,0,0,0,0,0,0,0,-1,1308,1422,0,0
91,-398,0,0,0,0,0,0,0,0,0,-1,1315,1422,0,0
98,-398,0,0,0,0,0,0,0,0,0,-1,1322,1422,0,0
105,-398,0,0,0,0,0,0,0,0,0,-1,1329,1422,0,0
112,-398,0,0,0,0,0,0,0,0,0,-1,1336,1422,0,0
119,-398,0,0,0,0,0,0,0,0,0,-1,1343,1422,0,0
126,-398,0,0,0,0,0,0,0,0,0,-1,1350,1422,0,0
133,-398,0,0,0,0,0,0,0,0,0,-1,1357,1422,0,0
140,-398,0,0,0,0,0,0,0,0,0,-1,1364,1422,0,0
147,-398,0,0,0,0,0,0,0,0,0,-1,1371,1422,0,0
154,-398,0,0,0,0,0,0,0,0,0,-1,1378,1422,0,0
161,-398,0,0,0,0,0,0,0,0,0,-1,1385,1422,0,0
168,-398,0,0,0,0,0,0,0,0,0,-1,1392,1422,0,0
175,-398,0,0,0,0,0,0,0,0,0,-1,1399,1422,0,0
182,-398,0,0,0,0,0,0,0,0,0,-1,1406,1422,0,0
189,-398,0,0,0,0,0,0,0,0,0,-1,1413,1422,0,0
196,-398,0,0,0,0,0,0,0,0,0,-1,1420,1422,0,0
203,-398,0,0,0,0,0,0,0,0,0,-1,1427,1422,0,0
210,-398,0,0,0,0,0,0,0,0,0,-1,1434,1422,0,0
217,-398,0,0,0,0,0,0,0,0,0,-1,1441,1422,0,0
224,-398,0,0,0,0,0,0,0,0,0,-1,1448,1422,0,0
231,-398,0,0,0,0,0,0,0,0,0,-1,1455,1422,0,0
238,-398,0,0,0,0,0,0,0,0,0,-1,1462,1422,0,0
245,-398,0,0,0,0,0,0,0,0,0,-1,1469,1422,0,0
252,-398,0,0,0,0,0,0,0,0,0,-1,1476,1422,0,0
259,-398,0,0,0,0,0,0,0,0,0,-1,1483,1422,0,0
266,-398,0,0,0,0,0,0,0,0,0,-1,1490,1422,0,0
273,-398,0,0,0,0,0,0,0,0,0,-1,1497,1422,0,0
280,-398,0,0,0,0,0,0,0,0,0,-1,1504,1422,0,0
287,-398,0,0,0,0,0,0,0,0,0,-1,1511,1422,0,0
294,-398,0,0,0,0,0,0,0,0,0,-1,1518,1422,0,0
301,-398,0,0,0,0,0,0,0,0,0,-1,1525,1422,0,0
308,-398,0,0,0,0,0,0,0,0,0,-1,1532,1422,0,0
315,-398,0,0,0,0,0,0,0,0,0,-1,1539,1422,0,0
322,-398,0,0,0,0,0,0,0,0,0,-1,1546,1422,0,0
329,-398,0,0,0,0,0,0,0,0,0,-1,1553,1422,0,0
336,-398,0,0,0,0,0,0,0,0,0,-1,1560,1422,0,0
343,-398,0,0,0,0,0,0,0,0,0,-1,1567,1422,0,0
350,-398,0,0,0,0,0,0,0,0,0,-1,1574,1422,0,0
357,-398,0,0,0,0,0,0,0,0,0,-1,1581,1422,0,0
364,-398,0,0,0,0,0,0,0,0,0,-1,1588,1422,0,0
371,-398,0,0,0,0,0,0,0,0,0,-1,1595,1422,0,0
378,-398,0,0,0,0,0,0,0,0,0,-1,1602,1422,0,0
385,-398,0,0,0,0,0,0,0,0,0,-1,1609,1422,0,0
392,-398,0,0,0,0,0,0,0,0,0,-1,1616,1422,0,0
399,-398,0,0,0,0,0,0,0,0,0,-1,1623,1422,0,0
406,-398,0,0,0,0,0,0,0,0,0,-1,1630,1422,0,0
413,-398,0,0,0,0,0,0,0,0,0,-1,1637,1422,0,0
420,-398,0,0,0,0,0,0,0,0,0,-1,1644,1422,0,0
427,-398,0,0,0,0,0,0,0,0,0,-1,1651,1422,0,0
434,-398,0,0,0,0,0,0,0,0,0,-1,1658,1422,0,0
441,-398,0,0,0,0,0,0,0,0,0,-1,1665,1422,0,0
448,-398,0,0,0,0,0,0,0,0,0,-1,1672,1422,0,0
455,-398,0,0,0,0,0,0,0,0,0,-1,1679,1422,0,0
462,-398,0,0,0,0,0,0,0,0,0,-1,1686,1422,0,0
469,-398,0,0,0,0,0,0,0,0,0,-1,1693,1422,0,0
476,-398,0,0,0,0,0,0,0,0,0,-1,1700,1422,0,0
483,-398,0,0,0,0,0,0,0,0,0,-1,1707,1422,0,0
490,-398,0,0,0,0,0,0,0,0,0,-1,1714,1422,0,0
497,-398,0,0,0,0,0,0,0,0,0,-1,1721,1422,0,0
504,-398,0,0,0,0,0,0,0,0,0,-1,1728,1422,0,0
511,-398,0,0,0,0,0,0,0,0,0,-1,1735,1422,0,0
518,-398,0,0,0,0,0,0,0,0,0,-1,1742,1422,0,0
525,-398,0,0,0,0,0,0,0,0,0,-1,1749,1422,0,0
532,-398,28.4558,3.84094,0,0,0,0,0,0,0,-1,1756,1422,28.4558,-3.8409
539,-398,27.0594,3.33887,0,0,0,0,0,0,0,-1,1763,1422,27.0595,-3.3389
546,-398,31.6873,5.58582,0,0,0,0,0,0,0,-1,1770,1422,31.6872,-5.58585
553,-398,30.4392,5.92383,0,0,0,0,0,0,0,-1,1777,1422,30.4392,-5.92386
560,-398,29.1621,6.30469,0,0,0,0,0,0,0,-1,1784,1422,29.1621,-6.30469
567,-398,27.8411,6.55029,0,0,0,0,0,0,0,-1,1791,1422,27.8411,-6.55033
574,-398,26.411,6.8916,0,0,0,0,0,0,0,-1,1798,1422,26.411,-6.8916
581,-398,24.75,7.11145,0,0,0,0,0,0,0,-1,1805,1422,24.7499,-7.11142
588,-398,23.1649,7.67969,0,0,0,0,0,0,0,-1,1812,1422,23.1649,-7.67975
595,-398,21.4253,7.86023,0,0,0,0,0,0,0,-1,1819,1422,21.4253,-7.86029
602,-398,19.6857,8.04077,0,0,0,0,0,0,0,-1,1826,1422,19.6856,-8.04083
609,-398,21.1835,13.2628,0,0,0,0,0,0,0,-1,1833,1422,21.1835,-13.2628
616,-398,35.7712,21.4,0,0,0,0,0,0,0,-1,1840,1422,35.7713,-21.4
623,-398,42.1178,25.2542,0,0,0,0,0,0,0,-1,1847,1422,42.1178,-25.2541
630,-398,42.0664,24.3583,1.10564e-06,0.000111306,0.000172062,0.000236876,-0.000124464,0.940356,0.000211958,0.0156698,1854,1422,42.0664,-24.3583
637,-398,42.0127,23.4734,0.000267268,3.28264e-05,4.94884e-05,0.000277287,2.2808e-05,0.19974,0.000177744,0.0168587,1861,1422,42.0128,-23.4734
644,-398,41.9288,22.6608,0.000744823,3.2441e-05,-0.00020288,0.00079855,-2.12856e-05,-0.258877,0.000539601,0.0236375,1868,1422,41.9288,-22.6608
651,-398,41.9502,21.8943,0.00148679,0.000173685,-0.00064182,0.00174838,-8.79098e-05,-0.387027,0.00119597,0.0305065,1875,1422,41.9501,-21.8943
658,-398,41.8994,20.9791,0.00248362,0.00039034,-0.00126649,0.00307998,-0.000206019,-0.440079,0.00212532,0.0268686,1882,1422,41.8994,-20.9791
665,-398,41.8148,20.0607,0.00370424,0.000705055,-0.00203998,0.0047365,-0.000327206,-0.468449,0.00327219,0.0177099,1889,1422,41.8149,-20.0606
672,-398,41.7601,19.1857,0.00512794,0.00108218,-0.0029472,0.0066797,-0.000469579,-0.484637,0.00461762,0.0139402,1896,1422,41.7601,-19.1857
679,-398,41.7346,18.3213,0.00679642,0.00156819,-0.00404416,0.00899778,-0.000633171,-0.49848,0.00622033,0.0174819,1903,1422,41.7346,-18.3212
686,-398,41.6654,17.4347,0.00873515,0.00205183,-0.00534738,0.0116991,-0.000912157,-0.506129,0.00812057,0.0409618,1910,1422,41.6654,-17.4347
693,-398,41.5386,16.3564,0,0,0,0,0,0,0,-1,1917,1422,41.5386,-16.3564
700,-398,38.7251,14.4174,0,0,0,0,0,0,0,-1,1924,1422,38.725,-14.4174
707,-398,10.9731,5.479,0,0,0,0,0,0,0,-1,1931,1422,10.9732,-5.47896
714,-398,11.7313,6.17346,0,0,0,0,0,0,0,-1,1938,1422,11.7313,-6.17348
721,-398,13.9371,8.05103,0,0,0,0,0,0,0,-1,1945,1422,13.9372,-8.05102
728,-398,14.786,7.0282,0,0,0,0,0,0,0,-1,1952,1422,14.786,-7.0282
735,-398,0,0,0,0,0,0,0,0,0,-1,1959,1422,0,0
742,-398,0,0,0,0,0,0,0,0,0,-1,1966,1422,0,0
749,-398,0,0,0,0,0,0,0,0,0,-1,1973,1422,0,0
756,-398,0,0,0,0,0,0,0,0,0,-1,1980,1422,0,0
763,-398,0,0,0,0,0,0,0,0,0,-1,1987,1422,0,0
770,-398,0,0,0,0,0,0,0,0,0,-1,1994,1422,0,0
777,-398,0,0,0,0,0,0,0,0,0,-1,2001,1422,0,0
784,-398,0,0,0,0,0,0,0,0,0,-1,2008,1422,0,0
791,-398,0,0,0,0,0,0,0,0,0,-1,2015,1422,0,0
798,-398,0,0,0,0,0,0,0,0,0,-1,2022,1422,0,0
805,-398,0,0,0,0,0,0,0,0,0,-1,2029,1422,0,0
812,-398,0,0,0,0,0,0,0,0,0,-1,2036,1422,0,0
-700,-405,0,0,0,0,0,0,0,0,0,-1,524,1429,0,0
-693,-405,0,0,0,0,0,0,0,0,0,-1,531,1429,0,0
-686,-405,0,0,0,0,0,0,0,0,0,-1,538,1429,0,0
-679,-405,0,0,0,0,0,0,0,0,0,-1,545,1429,0,0
-672,-405,0,0,0,0,0,0,0,0,0,-1,552,1429,0,0
-665,-405,0,0,0,0,0,0,0,0,0,-1,559,1429,0,0
-658,-405,0,0,0,0,0,0,0,0,0,-1,566,1429,0,0
-651,-405,0,0,0,0,0,0,0,0,0,-1,573,1429,0,0
-644,-405,0,0,0,0,0,0,0,0,0,-1,580,1429,0,0
-637,-405,0,0,0,0,0,0,0,0,0,-1,587,1429,0,0
-630,-405,0,0,0,0,0,0,0,0,0,-1,594,1429,0,0
-623,-405,0,0,0,0,0,0,0,0,0,-1,601,1429,0,0
-616,-405,0,0,0,0,0,0,0,0,0,-1,608,1429,0,0
-609,-405,0,0,0,0,0,0,0,0,0,-1,615,1429,0,0
-602,-405,-5.80988,-3.46594,0,0,0,0,0,0,0,-1,622,1429,-5.80987,3.46592
-595,-405,-9.35413,2.01477,0,0,0,0,0,0,0,-1,629,1429,-9.35411,-2.01476
-588,-405,-7.35693,0.507202,0,0,0,0,0,0,0,-1,636,1429,-7.35696,-0.507187
-581,-405,-10.1284,1.62927,0,0,0,0,0,0,0,-1,643,1429,-10.1284,-1.62922
-574,-405,-9.32074,3.05896,0,0,0,0,0,0,0,-1,650,1429,-9.32077,-3.0589
-567,-405,-9.68781,6.92163,0,0,0,0,0,0,0,-1,657,1429,-9.68782,-6.92166
-560,-405,-9.28674,7.20886,0,0,0,0,0,0,0,-1,664,1429,-9.28675,-7.20885
-553,-405,-20.6244,15.8638,0,0,0,0,0,0,0,-1,671,1429,-20.6244,-15.8637
-546,-405,-23.703,18.2285,0,0,0,0,0,0,0,-1,678,1429,-23.703,-18.2285
-539,-405,-23.6024,19.4503,0.00537535,0.00472937,0.00428699,0.0093515,0.000753225,0.747798,0.00599904,0.0156897,685,1429,-23.6023,-19.4503
-532,-405,-23.6485,20.3766,0.0040818,0.00336698,0.00315504,0.00689962,0.00054917,0.728997,0.00442805,0.016908,692,1429,-23.6485,-20.3766
-525,-405,-23.6682,21.2806,0.00317666,0.00236111,0.00229105,0.00509594,0.000441822,0.697327,0.00326002,0.0151465,699,1429,-23.6682,-21.2807
-518,-405,-23.6908,22.1917,0.0025174,0.00156404,0.00161146,0.0037212,0.000360234,0.641595,0.00236987,0.0165293,706,1429,-23.6908,-22.1917
-511,-405,-23.7598,23.0854,0.002034,0.000925315,0.00105895,0.00267493,0.000284383,0.544271,0.00169646,0.0172062,713,1429,-23.7598,-23.0854
-504,-405,-23.8118,23.985,0.00173507,0.000442267,0.000631969,0.00199267,0.000184665,0.387055,0.00127137,0.0181188,720,1429,-23.8118,-23.985
-497,-405,-23.8792,24.8879,0.00162589,0.00013379,0.000346424,0.00170239,5.72824e-05,0.217359,0.00111633,0.0153973,727,1429,-23.8791,-24.8879
-490,-405,-23.9645,25.7766,0.00175426,1.65406e-06,0.000207962,0.0017786,-2.26846e-05,0.116504,0.00119337,0.0145555,734,1429,-23.9645,-25.7766
-483,-405,-23.9528,26.717,0.00197233,0.000130174,0.000168146,0.00198755,0.000114952,0.0902825,0.00128843,0.0423209,741,1429,-23.9527,-26.7171
-476,-405,-23.8219,27.8196,0,0,0,0,0,0,0,-1,748,1429,-23.8219,-27.8196
-469,-405,-9.65692,12.8171,0,0,0,0,0,0,0,-1,755,1429,-9.65691,-12.8172
-462,-405,-9.14862,11.3597,0,0,0,0,0,0,0,-1,762,1429,-9.14865,-11.3597
-455,-405,-9.021,9.51111,0,0,0,0,0,0,0,-1,769,1429,-9.021,-9.51109
-448,-405,-8.4649,6.82813,0,0,0,0,0,0,0,-1,776,1429,-8.46492,-6.82817
-441,-405,-6.6712,4.23767,0,0,0,0,0,0,0,-1,783,1429,-6.67121,-4.23764
-434,-405,-9.62549,3.94189,0,0,0,0,0,0,0,-1,790,1429,-9.62546,-3.94191
-427,-405,-10.9764,3.73926,0,0,0,0,0,0,0,-1,797,1429,-10.9764,-3.73923
-420,-405,-12.1187,3.68506,0,0,0,0,0,0,0,-1,804,1429,-12.1187,-3.68512
-413,-405,-13.5353,3.75659,0,0,0,0,0,0,0,-1,811,1429,-13.5353,-3.75655
-406,-405,-14.7374,3.99817,0,0,0,0,0,0,0,-1,818,1429,-14.7374,-3.99814
-399,-405,0,0,0,0,0,0,0,0,0,-1,825,1429,0,0
-392,-405,0,0,0,0,0,0,0,0,0,-1,832,1429,0,0
-385,-405,0,0,0,0,0,0,0,0,0,-1,839,1429,0,0
-378,-405,0,0,0,0,0,0,0,0,0,-1,846,1429,0,0
-371,-405,0,0,0,0,0,0,0,0,0,-1,853,1429,0,0
-364,-405,0,0,0,0,0,0,0,0,0,-1,860,1429,0,0
-357,-405,0,0,0,0,0,0,0,0,0,-1,867,1429,0,0
-350,-405,0,0,0,0,0,0,0,0,0,-1,874,1429,0,0
-343,-405,0,0,0,0,0,0,0,0,0,-1,881,1429,0,0
-336,-405,0,0,0,0,0,0,0,0,0,-1,888,1429,0,0
-329,-405,0,0,0,0,0,0,0,0,0,-1,895,1429,0,0
-322,-405,0,0,0,0,0,0,0,0,0,-1,902,1429,0,0
-315,-405,0,0,0,0,0,0,0,0,0,-1,909,1429,0,0
-308,-405,0,0,0,0,0,0,0,0,0,-1,916,1429,0,0
-301,-405,0,0,0,0,0,0,0,0,0,-1,923,1429,0,0
-294,-405,0,0,0,0,0,0,0,0,0,-1,930,1429,0,0
-287,-405,0,0,0,0,0,0,0,0,0,-1,937,1429,0,0
-280,-405,0,0,0,0,0,0,0,0,0,-1,944,1429,0,0
-273,-405,0,0,0,0,0,0,0,0,0,-1,951,1429,0,0
-266,-405,0,0,0,0,0,0,0,0,0,-1,958,1429,0,0
-259,-405,0,0,0,0,0,0,0,0,0,-1,965,1429,0,0
-252,-405,0,0,0,0,0,0,0,0,0,-1,972,1429,0,0
-245,-405,0,0,0,0,0,0,0,0,0,-1,979,1429,0,0
-238,-405,0,0,0,0,0,0,0,0,0,-1,986,1429,0,0
-231,-405,0,0,0,0,0,0,0,0,0,-1,993,1429,0,0
-224,-405,0,0,0,0,0,0,0,0,0,-1,1000,1429,0,0
-217,-405,0,0,0,0,0,0,0,0,0,-1,1007,1429,0,0
-210,-405,0,0,0,0,0,0,0,0,0,-1,1014,1429,0,0
-203,-405,0,0,0,0,0,0,0,0,0,-1,1021,1429,0,0
-196,-405,0,0,0,0,0,0,0,0,0,-1,1028,1429,0,0
-189,-405,0,0,0,0,0,0,0,0,0,-1,1035,1429,0,0
-182,-405,0,0,0,0,0,0,0,0,0,-1,1042,1429,0,0
-175,-405,0,0,0,0,0,0,0,0,0,-1,1049,1429,0,0
-168,-405,0,0,0,0,0,0,0,0,0,-1,1056,1429,0,0
-161,-405,0,0,0,0,0,0,0,0,0,-1,1063,1429,0,0
-154,-405,0,0,0,0,0,0,0,0,0,-1,1070,1429,0,0
-147,-405,0,0,0,0,0,0,0,0,0,-1,1077,1429,0,0
-140,-405,0,0,0,0,0,0,0,0,0,-1,1084,1429,0,0
-133,-405,0,0,0,0,0,0,0,0,0,-1,1091,1429,0,0
-126,-405,0,0,0,0,0,0,0,0,0,-1,1098,1429,0,0
-119,-405,0,0,0,0,0,0,0,0,0,-1,1105,1429,0,0
-112,-405,0,0,0,0,0,0,0,0,0,-1,1112,1429,0,0
-105,-405,0,0,0,0,0,0,0,0,0,-1,1119,1429,0,0
-98,-405,0,0,0,0,0,0,0,0,0,-1,1126,1429,0,0
-91,-405,0,0,0,0,0,0,0,0,0,-1,1133,1429,0,0
-84,-405,0,0,0,0,0,0,0,0,0,-1,1140,1429,0,0
-77,-405,0,0,0,0,0,0,0,0,0,-1,1147,1429,0,0
-70,-405,0,0,0,0,0,0,0,0,0,-1,1154,1429,0,0
-63,-405,0,0,0,0,0,0,0,0,0,-1,1161,1429,0,0
-56,-405,0,0,0,0,0,0,0,0,0,-1,1168,1429,0,0
-49,-405,0,0,0,0,0,0,0,0,0,-1,1175,1429,0,0
-42,-405,0,0,0,0,0,0,0,0,0,-1,1182,1429,0,0
-35,-405,0,0,0,0,0,0,0,0,0,-1,1189,1429,0,0
-28,-405,0,0,0,0,0,0,0,0,0,-1,1196,1429,0,0
-21,-405,0,0,0,0,0,0,0,0,0,-1,1203,1429,0,0
-14,-405,0,0,0,0,0,0,0,0,0,-1,1210,1429,0,0
-7,-405,0,0,0,0,0,0,0,0,0,-1,1217,1429,0,0
0,-405,0,0,0,0,0,0,0,0,0,-1,1224,1429,0,0
7,-405,0,0,0,0,0,0,0,0,0,-1,1231,1429,0,0
14,-405,0,0,0,0,0,0,0,0,0,-1,1238,1429,0,0
21,-405,0,0,0,0,0,0,0,0,0,-1,1245,1429,0,0
28,-405,0,0,0,0,0,0,0,0,0,-1,1252,1429,0,0
35,-405,0,0,0,0,0,0,0,0,0,-1,1259,1429,0,0
42,-405,0,0,0,0,0,0,0,0,0,-1,1266,1429,0,0
49,-405,0,0,0,0,0,0,0,0,0,-1,1273,1429,0,0
56,-405,0,0,0,0,0,0,0,0,0,-1,1280,1429,0,0
63,-405,0,0,0,0,0,0,0,0,0,-1,1287,1429,0,0
70,-405,0,0,0,0,0,0,0,0,0,-1,1294,1429,0,0
77,-405,0,0,0,0,0,0,0,0,0,-1,1301,1429,0,0
84,-405,0,0,0,0,0,0,0,0,0,-1,1308,1429,0,0
91,-405,0,0,0,0,0,0,0,0,0,-1,1315,1429,0,0
98,-405,0,0,0,0,0,0,0,0,0,-1,1322,1429,0,0
105,-405,0,0,0,0,0,0,0,0,0,-1,1329,1429,0,0
112,-405,0,0,0,0,0,0,0,0,0,-1,1336,1429,0,0
119,-405,0,0,0,0,0,0,0,0,0,-1,1343,1429,0,0
126,-405,0,0,0,0,0,0,0,0,0,-1,1350,1429,0,0
133,-405,0,0,0,0,0,0,0,0,0,-1,1357,1429,0,0
140,-405,0,0,0,0,0,0,0,0,0,-1,1364,1429,0,0
147,-405,0,0,0,0,0,0,0,0,0,-1,1371,1429,0,0
154,-405,0,0,0,0,0,0,0,0,0,-1,1378,1429,0,0
161,-405,0,0,0,0,0,0,0,0,0,-1,1385,1429,0,0
168,-405,0,0,0,0,0,0,0,0,0,-1,1392,1429,0,0
175,-405,0,0,0,0,0,0,0,0,0,-1,1399,1429,0,0
182,-405,0,0,0,0,0,0,0,0,0,-1,1406,1429,0,0
189,-405,0,0,0,0,0,0,0,0,0,-1,1413,1429,0,0
196,-405,0,0,0,0,0,0,0,0,0,-1,1420,1429,0,0
203,-405,0,0,0,0,0,0,0,0,0,-1,1427,1429,0,0
210,-405,0,0,0,0,0,0,0,0,0,-1,1434,1429,0,0
217,-405,0,0,0,0,0,0,0,0,0,-1,1441,1429,0,0
224,-405,0,0,0,0,0,0,0,0,0,-1,1448,1429,0,0
231,-405,0,0,0,0,0,0,0,0,0,-1,1455,1429,0,0
238,-405,0,0,0,0,0,0,0,0,0,-1,1462,1429,0,0
245,-405,0,0,0,0,0,0,0,0,0,-1,1469,1429,0,0
252,-405,0,0,0,0,0,0,0,0,0,-1,1476,1429,0,0
259,-405,0,0,0,0,0,0,0,0,0,-1,1483,1429,0,0
266,-405,0,0,0,0,0,0,0,0,0,-1,1490,1429,0,0
273,-405,0,0,0,0,0,0,0,0,0,-1,1497,1429,0,0
280,-405,0,0,0,0,0,0,0,0,0,-1,1504,1429,0,0
287,-405,0,0,0,0,0,0,0,0,0,-1,1511,1429,0,0
294,-405,0,0,0,0,0,0,0,0,0,-1,1518,1429,0,0
301,-405,0,0,0,0,0,0,0,0,0,-1,1525,1429,0,0
308,-405,0,0,0,0,0,0,0,0,0,-1,1532,1429,0,0
315,-405,0,0,0,0,0,0,0,0,0,-1,1539,1429,0,0
322,-405,0,0,0,0,0,0,0,0,0,-1,1546,1429,0,0
329,-405,0,0,0,0,0,0,0,0,0,-1,1553,1429,0,0
336,-405,0,0,0,0,0,0,0,0,0,-1,1560,1429,0,0
343,-405,0,0,0,0,0,0,0,0,0,-1,1567,1429,0,0
350,-405,0,0,0,0,0,0,0,0,0,-1,1574,1429,0,0
357,-405,0,0,0,0,0,0,0,0,0,-1,1581,1429,0,0
364,-405,0,0,0,0,0,0,0,0,0,-1,1588,1429,0,0
371,-405,0,0,0,0,0,0,0,0,0,-1,1595,1429,0,0
378,-405,0,0,0,0,0,0,0,0,0,-1,1602,1429,0,0
385,-405,0,0,0,0,0,0,0,0,0,-1,1609,1429,0,0
392,-405,0,0,0,0,0,0,0,0,0,-1,1616,1429,0,0
399,-405,0,0,0,0,0,0,0,0,0,-1,1623,1429,0,0
406,-405,0,0,0,0,0,0,0,0,0,-1,1630,1429,0,0
413,-405,0,0,0,0,0,0,0,0,0,-1,1637,1429,0,0
420,-405,0,0,0,0,0,0,0,0,0,-1,1644,1429,0,0
427,-405,0,0,0,0,0,0,0,0,0,-1,1651,1429,0,0
434,-405,0,0,0,0,0,0,0,0,0,-1,1658,1429,0,0
441,-405,0,0,0,0,0,0,0,0,0,-1,1665,1429,0,0
448,-405,0,0,0,0,0,0,0,0,0,-1,1672,1429,0,0
455,-405,0,0,0,0,0,0,0,0,0,-1,1679,1429,0,0
462,-405,0,0,0,0,0,0,0,0,0,-1,1686,1429,0,0
469,-405,0,0,0,0,0,0,0,0,0,-1,1693,1429,0,0
476,-405,0,0,0,0,0,0,0,0,0,-1,1700,1429,0,0
483,-405,0,0,0,0,0,0,0,0,0,-1,1707,1429,0,0
490,-405,0,0,0,0,0,0,0,0,0,-1,1714,1429,0,0
497,-405,0,0,0,0,0,0,0,0,0,-1,1721,1429,0,0
504,-405,0,0,0,0,0,0,0,0,0,-1,1728,1429,0,0
511,-405,0,0,0,0,0,0,0,0,0,-1,1735,1429,0,0
518,-405,0,0,0,0,0,0,0,0,0,-1,1742,1429,0,0
525,-405,31.1563,-1.40942,0,0,0,0,0,0,0,-1,1749,1429,31.1563,1.40937
532,-405,28.156,4.8783,0,0,0,0,0,0,0,-1,1756,1429,28.1561,-4.87833
539,-405,26.5133,3.02454,0,0,0,0,0,0,0,-1,1763,1429,26.5133,-3.0246
546,-405,29.5735,6.53052,0,0,0,0,0,0,0,-1,1770,1429,29.5735,-6.53049
553,-405,28.2911,6.70654,0,0,0,0,0,0,0,-1,1777,1429,28.2912,-6.70656
560,-405,26.9299,7.08472,0,0,0,0,0,0,0,-1,1784,1429,26.9299,-7.08469
567,-405,25.804,7.14661,0,0,0,0,0,0,0,-1,1791,1429,25.8039,-7.14665
574,-405,25.1151,8.07971,0,0,0,0,0,0,0,-1,1798,1429,25.1151,-8.07965
581,-405,23.5055,8.505,0,0,0,0,0,0,0,-1,1805,1429,23.5054,-8.50501
588,-405,21.7491,8.98254,0,0,0,0,0,0,0,-1,1812,1429,21.7491,-8.98254
595,-405,21.6327,10.7795,0,0,0,0,0,0,0,-1,1819,1429,21.6327,-10.7796
602,-405,21.6461,13.9199,0,0,0,0,0,0,0,-1,1826,1429,21.6461,-13.92
609,-405,37.801,24.062,0,0,0,0,0,0,0,-1,1833,1429,37.8011,-24.062
616,-405,41.2426,26.2727,0,0,0,0,0,0,0,-1,1840,1429,41.2426,-26.2728
623,-405,41.213,25.3601,0.000677237,0.000504598,-0.00024046,0.000846401,0.000335433,-0.613073,0.000492161,0.0165238,1847,1429,41.213,-25.3602
630,-405,41.1858,24.4445,0.000498387,0.000214364,-5.25009e-05,0.000507781,0.00020497,-0.177055,0.000294976,0.011733,1854,1429,41.1858,-24.4444
637,-405,41.1349,23.5486,0.000772762,8.04346e-05,-0.000171511,0.000812922,4.02753e-05,-0.230006,0.000529034,0.012686,1861,1429,41.1349,-23.5486
644,-405,41.0571,22.8176,0.00132567,7.64798e-05,-0.000485025,0.00149188,-8.9728e-05,-0.330137,0.0010258,0.0338926,1868,1429,41.0572,-22.8177
651,-405,40.9412,22.0251,0.00214823,0.00023787,-0.000992518,0.00257053,-0.000184434,-0.402284,0.00177836,0.0374968,1875,1429,40.9411,-22.0251
658,-405,40.9484,21.0425,0.0032207,0.000489543,-0.00168437,0.00402351,-0.000313269,-0.444772,0.00279263,0.0270788,1882,1429,40.9484,-21.0424
665,-405,40.9388,20.1178,0.0045349,0.000837498,-0.00252623,0.00581662,-0.00044422,-0.469522,0.00403398,0.0208597,1889,1429,40.9388,-20.1178
672,-405,40.884,19.2246,0.00605035,0.00124496,-0.00350061,0.0078935,-0.000598189,-0.48464,0.00547264,0.0251501,1896,1429,40.884,-19.2246
679,-405,41.061,18.3328,0.00785123,0.00178541,-0.00468743,0.0104014,-0.000764739,-0.498256,0.00720271,0.0469861,1903,1429,41.061,-18.3327
686,-405,40.9742,17.4136,0,0,0,0,0,0,0,-1,1910,1429,40.9743,-17.4135
693,-405,37.6653,14.9521,0,0,0,0,0,0,0,-1,1917,1429,37.6653,-14.9521
700,-405,9.1958,4.02026,0,0,0,0,0,0,0,-1,1924,1429,9.19579,-4.02025
707,-405,7.40308,3.83191,0,0,0,0,0,0,0,-1,1931,1429,7.40311,-3.83194
714,-405,7.33252,3.47388,0,0,0,0,0,0,0,-1,1938,1429,7.33255,-3.47383
721,-405,9.23523,0.993896,0,0,0,0,0,0,0,-1,1945,1429,9.23523,-0.993884
728,-405,0,0,0,0,0,0,0,0,0,-1,1952,1429,0,0
735,-405,0,0,0,0,0,0,0,0,0,-1,1959,1429,0,0
742,-405,0,0,0,0,0,0,0,0,0,-1,1966,1429,0,0
749,-405,0,0,0,0,0,0,0,0,0,-1,1973,1429,0,0
756,-405,0,0,0,0,0,0,0,0,0,-1,1980,1429,0,0
763,-405,0,0,0,0,0,0,0,0,0,-1,1987,1429,0,0
770,-405,0,0,0,0,0,0,0,0,0,-1,1994,1429,0,0
777,-405,0,0,0,0,0,0,0,0,0,-1,2001,1429,0,0
784,-405,0,0,0,0,0,0,0,0,0,-1,2008,1429,0,0
791,-405,0,0,0,0,0,0,0,0,0,-1,2015,1429,0,0
798,-405,0,0,0,0,0,0,0,0,0,-1,2022,1429,0,0
805,-405,0,0,0,0,0,0,0,0,0,-1,2029,1429,0,0
812,-405,0,0,0,0,0,0,0,0,0,-1,2036,1429,0,0
-700,-412,0,0,0,0,0,0,0,0,0,-1,524,1436,0,0
-693,-412,0,0,0,0,0,0,0,0,0,-1,531,1436,0,0
-686,-412,0,0,0,0,0,0,0,0,0,-1,538,1436,0,0
-679,-412,0,0,0,0,0,0,0,0,0,-1,545,1436,0,0
-672,-412,0,0,0,0,0,0,0,0,0,-1,552,1436,0,0
-665,-412,0,0,0,0,0,0,0,0,0,-1,559,1436,0,0
-658,-412,0,0,0,0,0,0,0,0,0,-1,566,1436,0,0
-651,-412,0,0,0,0,0,0,0,0,0,-1,573,1436,0,0
-644,-412,0,0,0,0,0,0,0,0,0,-1,580,1436,0,0
-637,-412,0,0,0,0,0,0,0,0,0,-1,587,1436,0,0
-630,-412,0,0,0,0,0,0,0,0,0,-1,594,1436,0,0
-623,-412,0,0,0,0,0,0,0,0,0,-1,601,1436,0,0
-616,-412,0,0,0,0,0,0,0,0,0,-1,608,1436,0,0
-609,-412,0,0,0,0,0,0,0,0,0,-1,615,1436,0,0
-602,-412,-3.72766,-3.50012,0,0,0,0,0,0,0,-1,622,1436,-3.72764,3.50017
-595,-412,-10.3706,0.65564,0,0,0,0,0,0,0,-1,629,1436,-10.3706,-0.655672
-588,-412,-8.17957,1.94934,0,0,0,0,0,0,0,-1,636,1436,-8.17956,-1.94939
-581,-412,-6.60065,-0.0554199,0,0,0,0,0,0,0,-1,643,1436,-6.60063,0.0554733
-574,-412,-8.34131,5.25012,0,0,0,0,0,0,0,-1,650,1436,-8.34129,-5.25012
-567,-412,-7.50354,3.65454,0,0,0,0,0,0,0,-1,657,1436,-7.50356,-3.65452
-560,-412,-8.52448,7.39014,0,0,0,0,0,0,0,-1,664,1436,-8.52447,-7.39019
-553,-412,-7.36761,6.54651,0,0,0,0,0,0,0,-1,671,1436,-7.36763,-6.54654
-546,-412,-22.755,18.3596,0,0,0,0,0,0,0,-1,678,1436,-22.755,-18.3596
-539,-412,-22.6568,19.4104,0.005686,0.00594835,0.00504474,0.0108636,0.000770723,0.798396,0.00699967,0.036594,685,1436,-22.6568,-19.4104
-532,-412,-22.7419,20.442,0.00424364,0.00431623,0.00376743,0.00804754,0.000512328,0.790215,0.00520266,0.0165129,692,1436,-22.7419,-20.442
-525,-412,-22.7833,21.3639,0.00323693,0.00312293,0.00278203,0.00596255,0.00039732,0.775155,0.00384943,0.0152081,699,1436,-22.7833,-21.3639
-518,-412,-22.8121,22.2528,0.00249742,0.00217967,0.00199033,0.0043352,0.000341887,0.74557,0.00278318,0.0162085,706,1436,-22.8121,-22.2528
-511,-412,-22.8755,23.1251,0.00194807,0.00141534,0.00134175,0.00304965,0.000313769,0.687411,0.001937,0.0203756,713,1436,-22.8756,-23.1251
-504,-412,-22.9411,24.0238,0.00157134,0.000812552,0.000811166,0.00208745,0.000296441,0.566654,0.0013041,0.0198571,720,1436,-22.9411,-24.0239
-497,-412,-23.0021,24.9465,0.00139403,0.000392666,0.000429314,0.00155289,0.000233808,0.354404,0.000966792,0.0154131,727,1436,-23.0021,-24.9465
-490,-412,-23.0554,25.8455,0.00140216,0.000140075,0.000180576,0.00142748,0.000114747,0.139354,0.000915806,0.0138821,734,1436,-23.0554,-25.8455
-483,-412,-23.0995,26.6997,0.00154896,0.000117697,6.14666e-05,0.00155159,0.000115063,0.0428407,0.000998253,0.0125424,741,1436,-23.0995,-26.6997
-476,-412,-23.1036,27.674,0,0,0,0,0,0,0,-1,748,1436,-23.1036,-27.6739
-469,-412,-12.7646,18.4785,0,0,0,0,0,0,0,-1,755,1436,-12.7647,-18.4785
-462,-412,-8.94659,13.3385,0,0,0,0,0,0,0,-1,762,1436,-8.94657,-13.3385
-455,-412,-8.25006,11.2572,0,0,0,0,0,0,0,-1,769,1436,-8.25007,-11.2572
-448,-412,-7.38086,8.78186,0,0,0,0,0,0,0,-1,776,1436,-7.38088,-8.78183
-441,-412,-8.79523,9.05286,0,0,0,0,0,0,0,-1,783,1436,-8.79521,-9.0529
-434,-412,-10.6305,8.03577,0,0,0,0,0,0,0,-1,790,1436,-10.6305,-8.0358
-427,-412,-10.0004,5.15271,0,0,0,0,0,0,0,-1,797,1436,-10.0004,-5.15266
-420,-412,-10.4468,4.9043,0,0,0,0,0,0,0,-1,804,1436,-10.4468,-4.90429
-413,-412,-11.5704,4.97766,0,0,0,0,0,0,0,-1,811,1436,-11.5704,-4.97771
-406,-412,-13.1968,5.70093,0,0,0,0,0,0,0,-1,818,1436,-13.1968,-5.70096
-399,-412,-10.5506,0.771973,0,0,0,0,0,0,0,-1,825,1436,-10.5506,-0.771954
-392,-412,0,0,0,0,0,0,0,0,0,-1,832,1436,0,0
-385,-412,0,0,0,0,0,0,0,0,0,-1,839,1436,0,0
-378,-412,0,0,0,0,0,0,0,0,0,-1,846,1436,0,0
-371,-412,0,0,0,0,0,0,0,0,0,-1,853,1436,0,0
-364,-412,0,0,0,0,0,0,0,0,0,-1,860,1436,0,0
-357,-412,0,0,0,0,0,0,0,0,0,-1,867,1436,0,0
-350,-412,0,0,0,0,0,0,0,0,0,-1,874,1436,0,0
-343,-412,0,0,0,0,0,0,0,0,0,-1,881,1436,0,0
-336,-412,0,0,0,0,0,0,0,0,0,-1,888,1436,0,0
-329,-412,0,0,0,0,0,0,0,0,0,-1,895,1436,0,0
-322,-412,0,0,0,0,0,0,0,0,0,-1,902,1436,0,0
-315,-412,0,0,0,0,0,0,0,0,0,-1,909,1436,0,0
-308,-412,0,0,0,0,0,0,0,0,0,-1,916,1436,0,0
-301,-412,0,0,0,0,0,0,0,0,0,-1,923,1436,0,0
-294,-412,0,0,0,0,0,0,0,0,0,-1,930,1436,0,0
-287,-412,0,0,0,0,0,0,0,0,0,-1,937,1436,0,0
-280,-412,0,0,0,0,0,0,0,0,0,-1,944,1436,0,0
-273,-412,0,0,0,0,0,0,0,0,0,-1,951,1436,0,0
-266,-412,0,0,0,0,0,0,0,0,0,-1,958,1436,0,0
-259,-412,0,0,0,0,0,0,0,0,0,-1,965,1436,0,0
-252,-412,0,0,0,0,0,0,0,0,0,-1,972,1436,0,0
-245,-412,0,0,0,0,0,0,0,0,0,-1,979,1436,0,0
-238,-412,0,0,0,0,0,0,0,0,0,-1,986,1436,0,0
-231,-412,0,0,0,0,0,0,0,0,0,-1,993,1436,0,0
-224,-412,0,0,0,0,0,0,0,0,0,-1,1000,1436,0,0
-217,-412,0,0,0,0,0,0,0,0,0,-1,1007,1436,0,0
-210,-412,0,0,0,0,0,0,0,0,0,-1,1014,1436,0,0
-203,-412,0,0,0,0,0,0,0,0,0,-1,1021,1436,0,0
-196,-412,0,0,0,0,0,0,0,0,0,-1,1028,1436,0,0
-189,-412,0,0,0,0,0,0,0,0,0,-1,1035,1436,0,0
-182,-412,0,0,0,0,0,0,0,0,0,-1,1042,1436,0,0
-175,-412,0,0,0,0,0,0,0,0,0,-1,1049,1436,0,0
-168,-412,0,0,0,0,0,0,0,0,0,-1,1056,1436,0,0
-161,-412,0,0,0,0,0,0,0,0,0,-1,1063,1436,0,0
-154,-412,0,0,0,0,0,0,0,0,0,-1,1070,1436,0,0
-147,-412,0,0,0,0,0,0,0,0,0,-1,1077,1436,0,0
-140,-412,0,0,0,0,0,0,0,0,0,-1,1084,1436,0,0
-133,-412,0,0,0,0,0,0,0,0,0,-1,1091,1436,0,0
-126,-412,0,0,0,0,0,0,0,0,0,-1,1098,1436,0,0
-119,-412,0,0,0,0,0,0,0,0,0,-1,1105,1436,0,0
-112,-412,0,0,0,0,0,0,0,0,0,-1,1112,1436,0,0
-105,-412,0,0,0,0,0,0,0,0,0,-1,1119,1436,0,0
-98,-412,0,0,0,0,0,0,0,0,0,-1,1126,1436,0,0
-91,-412,0,0,0,0,0,0,0,0,0,-1,1133,1436,0,0
-84,-412,0,0,0,0,0,0,0,0,0,-1,1140,1436,0,0
-77,-412,0,0,0,0,0,0,0,0,0,-1,1147,1436,0,0
-70,-412,0,0,0,0,0,0,0,0,0,-1,1154,1436,0,0
-63,-412,0,0,0,0,0,0,0,0,0,-1,1161,1436,0,0
-56,-412,0,0,0,0,0,0,0,0,0,-1,1168,1436,0,0
-49,-412,0,0,0,0,0,0,0,0,0,-1,1175,1436,0,0
-42,-412,0,0,0,0,0,0,0,0,0,-1,1182,1436,0,0
-35,-412,0,0,0,0,0,0,0,0,0,-1,1189,1436,0,0
-28,-412,0,0,0,0,0,0,0,0,0,-1,1196,1436,0,0
-21,-412,0,0,0,0,0,0,0,0,0,-1,1203,1436,0,0
-14,-412,0,0,0,0,0,0,0,0,0,-1,1210,1436,0,0
-7,-412,0,0,0,0,0,0,0,0,0,-1,1217,1436,0,0
0,-412,0,0,0,0,0,0,0,0,0,-1,1224,1436,0,0
7,-412,0,0,0,0,0,0,0,0,0,-1,1231,1436,0,0
14,-412,0,0,0,0,0,0,0,0,0,-1,1238,1436,0,0
21,-412,0,0,0,0,0,0,0,0,0,-1,1245,1436,0,0
28,-412,0,0,0,0,0,0,0,0,0,-1,1252,1436,0,0
35,-412,0,0,0,0,0,0,0,0,0,-1,1259,1436,0,0
42,-412,0,0,0,0,0,0,0,0,0,-1,1266,1436,0,0
49,-412,0,0,0,0,0,0,0,0,0,-1,1273,1436,0,0
56,-412,0,0,0,0,0,0,0,0,0,-1,1280,1436,0,0
63,-412,0,0,0,0,0,0,0,0,0,-1,1287,1436,0,0
70,-412,0,0,0,0,0,0,0,0,0,-1,1294,1436,0,0
77,-412,0,0,0,0,0,0,0,0,0,-1,1301,1436,0,0
84,-412,0,0,0,0,0,0,0,0,0,-1,1308,1436,0,0
91,-412,0,0,0,0,0,0,0,0,0,-1,1315,1436,0,0
98,-412,0,0,0,0,0,0,0,0,0,-1,1322,1436,0,0
105,-412,0,0,0,0,0,0,0,0,0,-1,1329,1436,0,0
112,-412,0,0,0,0,0,0,0,0,0,-1,1336,1436,0,0
119,-412,0,0,0,0,0,0,0,0,0,-1,1343,1436,0,0
126,-412,0,0,0,0,0,0,0,0,0,-1,1350,1436,0,0
133,-412,0,0,0,0,0,0,0,0,0,-1,1357,1436,0,0
140,-412,0,0,0,0,0,0,0,0,0,-1,1364,1436,0,0
147,-412,0,0,0,0,0,0,0,0,0,-1,1371,1436,0,0
154,-412,0,0,0,0,0,0,0,0,0,-1,1378,1436,0,0
161,-412,0,0,0,0,0,0,0,0,0,-1,1385,1436,0,0
168,-412,0,0,0,0,0,0,0,0,0,-1,1392,1436,0,0
175,-412,0,0,0,0,0,0,0,0,0,-1,1399,1436,0,0
182,-412,0,0,0,0,0,0,0,0,0,-1,1406,1436,0,0
189,-412,0,0,0,0,0,0,0,0,0,-1,1413,1436,0,0
196,-412,0,0,0,0,0,0,0,0,0,-1,1420,1436,0,0
203,-412,0,0,0,0,0,0,0,0,0,-1,1427,1436,0,0
210,-412,0,0,0,0,0,0,0,0,0,-1,1434,1436,0,0
217,-412,0,0,0,0,0,0,0,0,0,-1,1441,1436,0,0
224,-412,0,0,0,0,0,0,0,0,0,-1,1448,1436,0,0
231,-412,0,0,0,0,0,0,0,0,0,-1,1455,1436,0,0
238,-412,0,0,0,0,0,0,0,0,0,-1,1462,1436,0,0
245,-412,0,0,0,0,0,0,0,0,0,-1,1469,1436,0,0
252,-412,0,0,0,0,0,0,0,0,0,-1,1476,1436,0,0
259,-412,0,0,0,0,0,0,0,0,0,-1,1483,1436,0,0
266,-412,0,0,0,0,0,0,0,0,0,-1,1490,1436,0,0
273,-412,0,0,0,0,0,0,0,0,0,-1,1497,1436,0,0
280,-412,0,0,0,0,0,0,0,0,0,-1,1504,1436,0,0
287,-412,0,0,0,0,0,0,0,0,0,-1,1511,1436,0,0
294,-412,0,0,0,0,0,0,0,0,0,-1,1518,1436,0,0
301,-412,0,0,0,0,0,0,0,0,0,-1,1525,1436,0,0
308,-412,0,0,0,0,0,0,0,0,0,-1,1532,1436,0,0
315,-412,0,0,0,0,0,0,0,0,0,-1,1539,1436,0,0
322,-412,0,0,0,0,0,0,0,0,0,-1,1546,1436,0,0
329,-412,0,0,0,0,0,0,0,0,0,-1,1553,1436,0,0
336,-412,0,0,0,0,0,0,0,0,0,-1,1560,1436,0,0
343,-412,0,0,0,0,0,0,0,0,0,-1,1567,1436,0,0
350,-412,0,0,0,0,0,0,0,0,0,-1,1574,1436,0,0
357,-412,0,0,0,0,0,0,0,0,0,-1,1581,1436,0,0
364,-412,0,0,0,0,0,0,0,0,0,-1,1588,1436,0,0
371,-412,0,0,0,0,0,0,0,0,0,-1,1595,1436,0,0
378,-412,0,0,0,0,0,0,0,0,0,-1,1602,1436,0,0
385,-412,0,0,0,0,0,0,0,0,0,-1,1609,1436,0,0
392,-412,0,0,0,0,0,0,0,0,0,-1,1616,1436,0,0
399,-412,0,0,0,0,0,0,0,0,0,-1,1623,1436,0,0
406,-412,0,0,0,0,0,0,0,0,0,-1,1630,1436,0,0
413,-412,0,0,0,0,0,0,0,0,0,-1,1637,1436,0,0
420,-412,0,0,0,0,0,0,0,0,0,-1,1644,1436,0,0
427,-412,0,0,0,0,0,0,0,0,0,-1,1651,1436,0,0
434,-412,0,0,0,0,0,0,0,0,0,-1,1658,1436,0,0
441,-412,0,0,0,0,0,0,0,0,0,-1,1665,1436,0,0
448,-412,0,0,0,0,0,0,0,0,0,-1,1672,1436,0,0
455,-412,0,0,0,0,0,0,0,0,0,-1,1679,1436,0,0
462,-412,0,0,0,0,0,0,0,0,0,-1,1686,1436,0,0
469,-412,0,0,0,0,0,0,0,0,0,-1,1693,1436,0,0
476,-412,0,0,0,0,0,0,0,0,0,-1,1700,1436,0,0
483,-412,0,0,0,0,0,0,0,0,0,-1,1707,1436,0,0
490,-412,0,0,0,0,0,0,0,0,0,-1,1714,1436,0,0
497,-412,0,0,0,0,0,0,0,0,0,-1,1721,1436,0,0
504,-412,0,0,0,0,0,0,0,0,0,-1,1728,1436,0,0
511,-412,0,0,0,0,0,0,0,0,0,-1,1735,1436,0,0
518,-412,30.1038,-2.43384,0,0,0,0,0,0,0,-1,1742,1436,30.1038,2.43383
525,-412,29.5283,-1.42493,0,0,0,0,0,0,0,-1,1749,1436,29.5283,1.42495
532,-412,28.8533,-0.386597,0,0,0,0,0,0,0,-1,1756,1436,28.8533,0.386632
539,-412,25.8654,2.74683,0,0,0,0,0,0,0,-1,1763,1436,25.8654,-2.74685
546,-412,25.4265,2.4342,0,0,0,0,0,0,0,-1,1770,1436,25.4265,-2.4342
553,-412,26.3595,7.49255,0,0,0,0,0,0,0,-1,1777,1436,26.3595,-7.4925
560,-412,24.9116,7.94324,0,0,0,0,0,0,0,-1,1784,1436,24.9116,-7.94327
567,-412,23.668,7.94531,0,0,0,0,0,0,0,-1,1791,1436,23.6679,-7.94534
574,-412,23.0142,9.17236,0,0,0,0,0,0,0,-1,1798,1436,23.0141,-9.17235
581,-412,22.2615,10.0349,0,0,0,0,0,0,0,-1,1805,1436,22.2615,-10.0349
588,-412,21.6893,10.8069,0,0,0,0,0,0,0,-1,1812,1436,21.6893,-10.8069
595,-412,21.5137,14.3157,0,0,0,0,0,0,0,-1,1819,1436,21.5137,-14.3157
602,-412,37.0725,24.8387,0,0,0,0,0,0,0,-1,1826,1436,37.0725,-24.8388
609,-412,40.4955,27.0927,0,0,0,0,0,0,0,-1,1833,1436,40.4955,-27.0926
616,-412,40.4301,26.2388,0.00153126,0.00108362,-0.000864916,0.00220085,0.000414034,-0.658787,0.00135054,0.0157486,1840,1436,40.43,-26.2387
623,-412,40.3478,25.3845,0.00108919,0.000602539,-0.000477275,0.00138159,0.000310141,-0.549661,0.000837053,0.0102578,1847,1436,40.3478,-25.3845
630,-412,40.3107,24.494,0.00102485,0.000301901,-0.000312954,0.00114151,0.000185251,-0.356788,0.000707386,0.0122736,1854,1436,40.3107,-24.494
637,-412,40.2849,23.5864,0.00131568,0.00015099,-0.000386806,0.00143244,3.42324e-05,-0.293153,0.000943756,0.0149459,1861,1436,40.2849,-23.5864
644,-412,40.236,22.7546,0.00190755,0.000151635,-0.000700968,0.00215305,-9.38682e-05,-0.336885,0.00146766,0.0168923,1868,1436,40.236,-22.7546
651,-412,40.1324,21.9301,0.0027806,0.000314426,-0.00122491,0.00328559,-0.000190565,-0.391036,0.0022566,0.0294363,1875,1436,40.1324,-21.9301
658,-412,40.0933,21.0245,0.00392618,0.000583455,-0.00196022,0.00483084,-0.000321208,-0.432386,0.0033328,0.0194543,1882,1436,40.0933,-21.0245
665,-412,40.0758,20.1586,0.0053421,0.000938082,-0.00286078,0.0067502,-0.00047002,-0.457396,0.00466471,0.0232415,1889,1436,40.0758,-20.1585
672,-412,40.0807,19.2025,0.00697069,0.00134304,-0.00391941,0.00898173,-0.00066801,-0.474072,0.00622246,0.0480698,1896,1436,40.0807,-19.2025
679,-412,40.515,18.2781,0,0,0,0,0,0,0,-1,1903,1436,40.515,-18.2781
686,-412,35.3159,15.2073,0,0,0,0,0,0,0,-1,1910,1436,35.3159,-15.2072
693,-412,11.9346,6.02344,0,0,0,0,0,0,0,-1,1917,1436,11.9346,-6.02343
700,-412,8.82764,5.8844,0,0,0,0,0,0,0,-1,1924,1436,8.82761,-5.88444
707,-412,6.59998,1.68994,0,0,0,0,0,0,0,-1,1931,1436,6.60002,-1.68995
714,-412,4.77283,-2.39832,0,0,0,0,0,0,0,-1,1938,1436,4.77288,2.39835
721,-412,0,0,0,0,0,0,0,0,0,-1,1945,1436,0,0
728,-412,0,0,0,0,0,0,0,0,0,-1,1952,1436,0,0
735,-412,0,0,0,0,0,0,0,0,0,-1,1959,1436,0,0
742,-412,0,0,0,0,0,0,0,0,0,-1,1966,1436,0,0
749,-412,0,0,0,0,0,0,0,0,0,-1,1973,1436,0,0
756,-412,0,0,0,0,0,0,0,0,0,-1,1980,1436,0,0
763,-412,0,0,0,0,0,0,0,0,0,-1,1987,1436,0,0
770,-412,0,0,0,0,0,0,0,0,0,-1,1994,1436,0,0
777,-412,0,0,0,0,0,0,0,0,0,-1,2001,1436,0,0
784,-412,0,0,0,0,0,0,0,0,0,-1,2008,1436,0,0
791,-412,0,0,0,0,0,0,0,0,0,-1,2015,1436,0,0
798,-412,0,0,0,0,0,0,0,0,0,-1,2022,1436,0,0
805,-412,0,0,0,0,0,0,0,0,0,-1,2029,1436,0,0
812,-412,0,0,0,0,0,0,0,0,0,-1,2036,1436,0,0
-700,-419,0,0,0,0,0,0,0,0,0,-1,524,1443,0,0
-693,-419,0,0,0,0,0,0,0,0,0,-1,531,1443,0,0
-686,-419,0,0,0,0,0,0,0,0,0,-1,538,1443,0,0
-679,-419,0,0,0,0,0,0,0,0,0,-1,545,1443,0,0
-672,-419,0,0,0,0,0,0,0,0,0,-1,552,1443,0,0
-665,-419,0,0,0,0,0,0,0,0,0,-1,559,1443,0,0
-658,-419,0,0,0,0,0,0,0,0,0,-1,566,1443,0,0
-651,-419,0,0,0,0,0,0,0,0,0,-1,573,1443,0,0
-644,-419,0,0,0,0,0,0,0,0,0,-1,580,1443,0,0
-637,-419,0,0,0,0,0,0,0,0,0,-1,587,1443,0,0
-630,-419,0,0,0,0,0,0,0,0,0,-1,594,1443,0,0
-623,-419,0,0,0,0,0,0,0,0,0,-1,601,1443,0,0
-616,-419,0,0,0,0,0,0,0,0,0,-1,608,1443,0,0
-609,-419,0,0,0,0,0,0,0,0,0,-1,615,1443,0,0
-602,-419,0,0,0,0,0,0,0,0,0,-1,622,1443,0,0
-595,-419,-11.4904,-0.622681,0,0,0,0,0,0,0,-1,629,1443,-11.4903,0.622714
-588,-419,-9.09369,0.742432,0,0,0,0,0,0,0,-1,636,1443,-9.09366,-0.742482
-581,-419,-6.39172,2.14673,0,0,0,0,0,0,0,-1,643,1443,-6.39175,-2.14668
-574,-419,-4.09772,3.54773,0,0,0,0,0,0,0,-1,650,1443,-4.09772,-3.54767
-567,-419,-6.14038,3.22498,0,0,0,0,0,0,0,-1,657,1443,-6.14037,-3.22497
-560,-419,-4.52814,5.22253,0,0,0,0,0,0,0,-1,664,1443,-4.52816,-5.22251
-553,-419,-5.08331,6.11829,0,0,0,0,0,0,0,-1,671,1443,-5.08331,-6.1183
-546,-419,-10.3732,9.23279,0,0,0,0,0,0,0,-1,678,1443,-10.3732,-9.23275
-539,-419,-21.7758,19.2754,0,0,0,0,0,0,0,-1,685,1443,-21.7758,-19.2754
-532,-419,-21.8599,20.4503,0.00481625,0.00550019,0.00475805,0.00992854,0.000387897,0.821273,0.00649359,0.0362738,692,1443,-21.8599,-20.4503
-525,-419,-21.8757,21.4297,0.00357224,0.00406634,0.00357453,0.00740235,0.000236235,0.8199,0.00485807,0.0135848,699,1443,-21.8757,-21.4297
-518,-419,-21.8889,22.3119,0.00265864,0.00294357,0.00260493,0.00540993,0.000192279,0.812716,0.00354426,0.0165507,706,1443,-21.8889,-22.3118
-511,-419,-21.9688,23.1849,0.00196681,0.00202061,0.00179866,0.00379257,0.000194851,0.792876,0.00246599,0.0196991,713,1443,-21.9688,-23.1849
-504,-419,-22.0643,24.0898,0.00145626,0.00127435,0.0011165,0.0024855,0.000245106,0.744757,0.00158164,0.0197935,720,1443,-22.0643,-24.0899
-497,-419,-22.096,24.9756,0.00115381,0.000714151,0.000585592,0.00155948,0.000308488,0.605837,0.000953603,0.0138392,727,1443,-22.096,-24.9756
-490,-419,-22.1408,25.8599,0.0010245,0.000310974,0.000187206,0.00107064,0.00026484,0.241619,0.000643896,0.0122674,734,1443,-22.1408,-25.8598
-483,-419,-22.2048,26.7411,0.00111313,0.000159748,-1.77226e-05,0.00111346,0.000159419,-0.0185806,0.000695285,0.0102416,741,1443,-22.2048,-26.7411
-476,-419,-22.2329,27.6563,0.00134497,0.000100604,-8.32437e-05,0.00135052,9.50602e-05,-0.0665013,0.000870391,0.0235286,748,1443,-22.2329,-27.6562
-469,-419,-22.2687,28.5776,0,0,0,0,0,0,0,-1,755,1443,-22.2687,-28.5777
-462,-419,-11.5347,18.1563,0,0,0,0,0,0,0,-1,762,1443,-11.5347,-18.1562
-455,-419,-7.35645,11.9451,0,0,0,0,0,0,0,-1,769,1443,-7.35646,-11.9451
-448,-419,-7.49109,9.92444,0,0,0,0,0,0,0,-1,776,1443,-7.49109,-9.92442
-441,-419,-7.65527,8.75574,0,0,0,0,0,0,0,-1,783,1443,-7.65525,-8.75568
-434,-419,-11.3724,12.3643,0,0,0,0,0,0,0,-1,790,1443,-11.3724,-12.3643
-427,-419,-8.23193,7.89404,0,0,0,0,0,0,0,-1,797,1443,-8.23193,-7.89404
-420,-419,-8.74091,6.36597,0,0,0,0,0,0,0,-1,804,1443,-8.74089,-6.366
-413,-419,-9.88391,6.53955,0,0,0,0,0,0,0,-1,811,1443,-9.8839,-6.53955
-406,-419,-10.3372,2.75195,0,0,0,0,0,0,0,-1,818,1443,-10.3372,-2.75201
-399,-419,-11.5999,1.40002,0,0,0,0,0,0,0,-1,825,1443,-11.5999,-1.39998
-392,-419,0,0,0,0,0,0,0,0,0,-1,832,1443,0,0
-385,-419,0,0,0,0,0,0,0,0,0,-1,839,1443,0,0
-378,-419,0,0,0,0,0,0,0,0,0,-1,846,1443,0,0
-371,-419,0,0,0,0,0,0,0,0,0,-1,853,1443,0,0
-364,-419,0,0,0,0,0,0,0,0,0,-1,860,1443,0,0
-357,-419,0,0,0,0,0,0,0,0,0,-1,867,1443,0,0
-350,-419,0,0,0,0,0,0,0,0,0,-1,874,1443,0,0
-343,-419,0,0,0,0,0,0,0,0,0,-1,881,1443,0,0
-336,-419,0,0,0,0,0,0,0,0,0,-1,888,1443,0,0
-329,-419,0,0,0,0,0,0,0,0,0,-1,895,1443,0,0
-322,-419,0,0,0,0,0,0,0,0,0,-1,902,1443,0,0
-315,-419,0,0,0,0,0,0,0,0,0,-1,909,1443,0,0
-308,-419,0,0,0,0,0,0,0,0,0,-1,916,1443,0,0
-301,-419,0,0,0,0,0,0,0,0,0,-1,923,1443,0,0
-294,-419,0,0,0,0,0,0,0,0,0,-1,930,1443,0,0
-287,-419,0,0,0,0,0,0,0,0,0,-1,937,1443,0,0
-280,-419,0,0,0,0,0,0,0,0,0,-1,944,1443,0,0
-273,-419,0,0,0,0,0,0,0,0,0,-1,951,1443,0,0
-266,-419,0,0,0,0,0,0,0,0,0,-1,958,1443,0,0
-259,-419,0,0,0,0,0,0,0,0,0,-1,965,1443,0,0
-252,-419,0,0,0,0,0,0,0,0,0,-1,972,1443,0,0
-245,-419,0,0,0,0,0,0,0,0,0,-1,979,1443,0,0
-238,-419,0,0,0,0,0,0,0,0,0,-1,986,1443,0,0
-231,-419,0,0,0,0,0,0,0,0,0,-1,993,1443,0,0
-224,-419,0,0,0,0,0,0,0,0,0,-1,1000,1443,0,0
-217,-419,0,0,0,0,0,0,0,0,0,-1,1007,1443,0,0
-210,-419,0,0,0,0,0,0,0,0,0,-1,1014,1443,0,0
-203,-419,0,0,0,0,0,0,0,0,0,-1,1021,1443,0,0
-196,-419,0,0,0,0,0,0,0,0,0,-1,1028,1443,0,0
-189,-419,0,0,0,0,0,0,0,0,0,-1,1035,1443,0,0
-182,-419,0,0,0,0,0,0,0,0,0,-1,1042,1443,0,0
-175,-419,0,0,0,0,0,0,0,0,0,-1,1049,1443,0,0
-168,-419,0,0,0,0,0,0,0,0,0,-1,1056,1443,0,0
-161,-419,0,0,0,0,0,0,0,0,0,-1,1063,1443,0,0
-154,-419,0,0,0,0,0,0,0,0,0,-1,1070,1443,0,0
-147,-419,0,0,0,0,0,0,0,0,0,-1,1077,1443,0,0
-140,-419,0,0,0,0,0,0,0,0,0,-1,1084,1443,0,0
-133,-419,0,0,0,0,0,0,0,0,0,-1,1091,1443,0,0
-126,-419,0,0,0,0,0,0,0,0,0,-1,1098,1443,0,0
-119,-419,0,0,0,0,0,0,0,0,0,-1,1105,1443,0,0
-112,-419,0,0,0,0,0,0,0,0,0,-1,1112,1443,0,0
-105,-419,0,0,0,0,0,0,0,0,0,-1,1119,1443,0,0
-98,-419,0,0,0,0,0,0,0,0,0,-1,1126,1443,0,0
-91,-419,0,0,0,0,0,0,0,0,0,-1,1133,1443,0,0
-84,-419,0,0,0,0,0,0,0,0,0,-1,1140,1443,0,0
-77,-419,0,0,0,0,0,0,0,0,0,-1,1147,1443,0,0
-70,-419,0,0,0,0,0,0,0,0,0,-1,1154,1443,0,0
-63,-419,0,0,0,0,0,0,0,0,0,-1,1161,1443,0,0
-56,-419,0,0,0,0,0,0,0,0,0,-1,1168,1443,0,0
-49,-419,0,0,0,0,0,0,0,0,0,-1,1175,1443,0,0
-42,-419,0,0,0,0,0,0,0,0,0,-1,1182,1443,0,0
-35,-419,0,0,0,0,0,0,0,0,0,-1,1189,1443,0,0
-28,-419,0,0,0,0,0,0,0,0,0,-1,1196,1443,0,0
-21,-419,0,0,0,0,0,0,0,0,0,-1,1203,1443,0,0
-14,-419,0,0,0,0,0,0,0,0,0,-1,1210,1443,0,0
-7,-419,0,0,0,0,0,0,0,0,0,-1,1217,1443,0,0
0,-419,0,0,0,0,0,0,0,0,0,-1,1224,1443,0,0
7,-419,0,0,0,0,0,0,0,0,0,-1,1231,1443,0,0
14,-419,0,0,0,0,0,0,0,0,0,-1,1238,1443,0,0
21,-419,0,0,0,0,0,0,0,0,0,-1,1245,1443,0,0
28,-419,0,0,0,0,0,0,0,0,0,-1,1252,1443,0,0
35,-419,0,0,0,0,0,0,0,0,0,-1,1259,1443,0,0
42,-419,0,0,0,0,0,0,0,0,0,-1,1266,1443,0,0
49,-419,0,0,0,0,0,0,0,0,0,-1,1273,1443,0,0
56,-419,0,0,0,0,0,0,0,0,0,-1,1280,1443,0,0
63,-419,0,0,0,0,0,0,0,0,0,-1,1287,1443,0,0
70,-419,0,0,0,0,0,0,0,0,0,-1,1294,1443,0,0
77,-419,0,0,0,0,0,0,0,0,0,-1,1301,1443,0,0
84,-419,0,0,0,0,0,0,0,0,0,-1,1308,1443,0,0
91,-419,0,0,0,0,0,0,0,0,0,-1,1315,1443,0,0
98,-419,0,0,0,0,0,0,0,0,0,-1,1322,1443,0,0
105,-419,0,0,0,0,0,0,0,0,0,-1,1329,1443,0,0
112,-419,0,0,0,0,0,0,0,0,0,-1,1336,1443,0,0
119,-419,0,0,0,0,0,0,0,0,0,-1,1343,1443,0,0
126,-419,0,0,0,0,0,0,0,0,0,-1,1350,1443,0,0
133,-419,0,0,0,0,0,0,0,0,0,-1,1357,1443,0,0
140,-419,0,0,0,0,0,0,0,0,0,-1,1364,1443,0,0
147,-419,0,0,0,0,0,0,0,0,0,-1,1371,1443,0,0
154,-419,0,0,0,0,0,0,0,0,0,-1,1378,1443,0,0
161,-419,0,0,0,0,0,0,0,0,0,-1,1385,1443,0,0
168,-419,0,0,0,0,0,0,0,0,0,-1,1392,1443,0,0
175,-419,0,0,0,0,0,0,0,0,0,-1,1399,1443,0,0
182,-419,0,0,0,0,0,0,0,0,0,-1,1406,1443,0,0
189,-419,0,0,0,0,0,0,0,0,0,-1,1413,1443,0,0
196,-419,0,0,0,0,0,0,0,0,0,-1,1420,1443,0,0
203,-419,0,0,0,0,0,0,0,0,0,-1,1427,1443,0,0
210,-419,0,0,0,0,0,0,0,0,0,-1,1434,1443,0,0
217,-419,0,0,0,0,0,0,0,0,0,-1,1441,1443,0,0
224,-419,0,0,0,0,0,0,0,0,0,-1,1448,1443,0,0
231,-419,0,0,0,0,0,0,0,0,0,-1,1455,1443,0,0
238,-419,0,0,0,0,0,0,0,0,0,-1,1462,1443,0,0
245,-419,0,0,0,0,0,0,0,0,0,-1,1469,1443,0,0
252,-419,0,0,0,0,0,0,0,0,0,-1,1476,1443,0,0
259,-419,0,0,0,0,0,0,0,0,0,-1,1483,1443,0,0
266,-419,0,0,0,0,0,0,0,0,0,-1,1490,1443,0,0
273,-419,0,0,0,0,0,0,0,0,0,-1,1497,1443,0,0
280,-419,0,0,0,0,0,0,0,0,0,-1,1504,1443,0,0
287,-419,0,0,0,0,0,0,0,0,0,-1,1511,1443,0,0
294,-419,0,0,0,0,0,0,0,0,0,-1,1518,1443,0,0
301,-419,0,0,0,0,0,0,0,0,0,-1,1525,1443,0,0
308,-419,0,0,0,0,0,0,0,0,0,-1,1532,1443,0,0
315,-419,0,0,0,0,0,0,0,0,0,-1,1539,1443,0,0
322,-419,0,0,0,0,0,0,0,0,0,-1,1546,1443,0,0
329,-419,0,0,0,0,0,0,0,0,0,-1,1553,1443,0,0
336,-419,0,0,0,0,0,0,0,0,0,-1,1560,1443,0,0
343,-419,0,0,0,0,0,0,0,0,0,-1,1567,1443,0,0
350,-419,0,0,0,0,0,0,0,0,0,-1,1574,1443,0,0
357,-419,0,0,0,0,0,0,0,0,0,-1,1581,1443,0,0
364,-419,0,0,0,0,0,0,0,0,0,-1,1588,1443,0,0
371,-419,0,0,0,0,0,0,0,0,0,-1,1595,1443,0,0
378,-419,0,0,0,0,0,0,0,0,0,-1,1602,1443,0,0
385,-419,0,0,0,0,0,0,0,0,0,-1,1609,1443,0,0
392,-419,0,0,0,0,0,0,0,0,0,-1,1616,1443,0,0
399,-419,0,0,0,0,0,0,0,0,0,-1,1623,1443,0,0
406,-419,0,0,0,0,0,0,0,0,0,-1,1630,1443,0,0
413,-419,0,0,0,0,0,0,0,0,0,-1,1637,1443,0,0
420,-419,0,0,0,0,0,0,0,0,0,-1,1644,1443,0,0
427,-419,0,0,0,0,0,0,0,0,0,-1,1651,1443,0,0
434,-419,0,0,0,0,0,0,0,0,0,-1,1658,1443,0,0
441,-419,0,0,0,0,0,0,0,0,0,-1,1665,1443,0,0
448,-419,0,0,0,0,0,0,0,0,0,-1,1672,1443,0,0
455,-419,0,0,0,0,0,0,0,0,0,-1,1679,1443,0,0
462,-419,0,0,0,0,0,0,0,0,0,-1,1686,1443,0,0
469,-419,0,0,0,0,0,0,0,0,0,-1,1693,1443,0,0
476,-419,0,0,0,0,0,0,0,0,0,-1,1700,1443,0,0
483,-419,0,0,0,0,0,0,0,0,0,-1,1707,1443,0,0
490,-419,0,0,0,0,0,0,0,0,0,-1,1714,1443,0,0
497,-419,0,0,0,0,0,0,0,0,0,-1,1721,1443,0,0
504,-419,0,0,0,0,0,0,0,0,0,-1,1728,1443,0,0
511,-419,20.3005,3.7959,0,0,0,0,0,0,0,-1,1735,1443,20.3005,-3.79584
518,-419,21.3154,2.03027,0,0,0,0,0,0,0,-1,1742,1443,21.3155,-2.03029
525,-419,28.3439,-1.24475,0,0,0,0,0,0,0,-1,1749,1443,28.3438,1.24471
532,-419,27.5902,-0.272583,0,0,0,0,0,0,0,-1,1756,1443,27.5902,0.272526
539,-419,26.5278,1.60583,0,0,0,0,0,0,0,-1,1763,1443,26.5279,-1.60579
546,-419,24.9509,2.77539,0,0,0,0,0,0,0,-1,1770,1443,24.9509,-2.77537
553,-419,24.118,3.75525,0,0,0,0,0,0,0,-1,1777,1443,24.1181,-3.75526
560,-419,11.8199,8.26343,0,0,0,0,0,0,0,-1,1784,1443,11.82,-8.26341
567,-419,21.5143,8.74719,0,0,0,0,0,0,0,-1,1791,1443,21.5143,-8.74722
574,-419,19.5886,6.46155,0,0,0,0,0,0,0,-1,1798,1443,19.5886,-6.46157
581,-419,20.7926,11.4265,0,0,0,0,0,0,0,-1,1805,1443,20.7926,-11.4265
588,-419,19.4242,12.5363,0,0,0,0,0,0,0,-1,1812,1443,19.4242,-12.5362
595,-419,22.9375,16.0151,0,0,0,0,0,0,0,-1,1819,1443,22.9375,-16.0152
602,-419,39.613,28.0667,0,0,0,0,0,0,0,-1,1826,1443,39.613,-28.0667
609,-419,39.5953,27.1392,0.00268184,0.00139881,-0.00167325,0.00383234,0.000248319,-0.602343,0.00247627,0.0329512,1833,1443,39.5954,-27.1392
616,-419,39.5464,26.3243,0.00194058,0.000920735,-0.00105113,0.00259895,0.000262369,-0.559562,0.00165213,0.0129404,1840,1443,39.5464,-26.3243
623,-419,39.4904,25.4529,0.00148894,0.000590032,-0.00065567,0.00183441,0.000244556,-0.484939,0.00115012,0.010691,1847,1443,39.4903,-25.4529
630,-419,39.4552,24.5494,0.00142465,0.000326155,-0.000466712,0.00159616,0.000154644,-0.352168,0.00101649,0.0124634,1854,1443,39.4552,-24.5494
637,-419,39.4141,23.677,0.00165879,0.000201759,-0.000470399,0.00179745,6.30894e-05,-0.286672,0.00117784,0.0142519,1861,1443,39.4141,-23.677
644,-419,39.3553,22.8168,0.00220131,0.000232177,-0.000733107,0.00244427,-1.07815e-05,-0.320018,0.00163312,0.012729,1868,1443,39.3553,-22.8167
651,-419,39.2837,21.9858,0.00303213,0.000406952,-0.00122165,0.00351267,-7.35889e-05,-0.374765,0.00236669,0.0129661,1875,1443,39.2837,-21.9858
658,-419,39.2155,21.0978,0.00418881,0.000709213,-0.00195385,0.0050652,-0.000167174,-0.421642,0.00343388,0.0146996,1882,1443,39.2155,-21.0978
665,-419,39.2373,20.2306,0.00565204,0.00107131,-0.0028619,0.00702722,-0.000303867,-0.447938,0.00478932,0.0261256,1889,1443,39.2373,-20.2306
672,-419,39.2766,19.1722,0,0,0,0,0,0,0,-1,1896,1443,39.2766,-19.1722
679,-419,35.5436,15.4066,0,0,0,0,0,0,0,-1,1903,1443,35.5436,-15.4067
686,-419,17.4127,8.03076,0,0,0,0,0,0,0,-1,1910,1443,17.4127,-8.03071
693,-419,8.76086,5.60535,0,0,0,0,0,0,0,-1,1917,1443,8.76091,-5.6054
700,-419,11.0498,4.85156,0,0,0,0,0,0,0,-1,1924,1443,11.0498,-4.85153
707,-419,9.5752,1.80042,0,0,0,0,0,0,0,-1,1931,1443,9.57523,-1.80037
714,-419,5.77576,-1.25061,0,0,0,0,0,0,0,-1,1938,1443,5.7757,1.25056
721,-419,0,0,0,0,0,0,0,0,0,-1,1945,1443,0,0
728,-419,0,0,0,0,0,0,0,0,0,-1,1952,1443,0,0
735,-419,0,0,0,0,0,0,0,0,0,-1,1959,1443,0,0
742,-419,0,0,0,0,0,0,0,0,0,-1,1966,1443,0,0
749,-419,0,0,0,0,0,0,0,0,0,-1,1973,1443,0,0
756,-419,0,0,0,0,0,0,0,0,0,-1,1980,1443,0,0
763,-419,0,0,0,0,0,0,0,0,0,-1,1987,1443,0,0
770,-419,0,0,0,0,0,0,0,0,0,-1,1994,1443,0,0
777,-419,0,0,0,0,0,0,0,0,0,-1,2001,1443,0,0
784,-419,0,0,0,0,0,0,0,0,0,-1,2008,1443,0,0
791,-419,0,0,0,0,0,0,0,0,0,-1,2015,1443,0,0
798,-419,0,0,0,0,0,0,0,0,0,-1,2022,1443,0,0
805,-419,0,0,0,0,0,0,0,0,0,-1,2029,1443,0,0
812,-419,0,0,0,0,0,0,0,0,0,-1,2036,1443,0,0
-700,-426,0,0,0,0,0,0,0,0,0,-1,524,1450,0,0
-693,-426,0,0,0,0,0,0,0,0,0,-1,531,1450,0,0
-686,-426,0,0,0,0,0,0,0,0,0,-1,538,1450,0,0
-679,-426,0,0,0,0,0,0,0,0,0,-1,545,1450,0,0
-672,-426,0,0,0,0,0,0,0,0,0,-1,552,1450,0,0
-665,-426,0,0,0,0,0,0,0,0,0,-1,559,1450,0,0
-658,-426,0,0,0,0,0,0,0,0,0,-1,566,1450,0,0
-651,-426,0,0,0,0,0,0,0,0,0,-1,573,1450,0,0
-644,-426,0,0,0,0,0,0,0,0,0,-1,580,1450,0,0
-637,-426,0,0,0,0,0,0,0,0,0,-1,587,1450,0,0
-630,-426,0,0,0,0,0,0,0,0,0,-1,594,1450,0,0
-623,-426,0,0,0,0,0,0,0,0,0,-1,601,1450,0,0
-616,-426,0,0,0,0,0,0,0,0,0,-1,608,1450,0,0
-609,-426,0,0,0,0,0,0,0,0,0,-1,615,1450,0,0
-602,-426,0,0,0,0,0,0,0,0,0,-1,622,1450,0,0
-595,-426,0,0,0,0,0,0,0,0,0,-1,629,1450,0,0
-588,-426,-10.184,-0.554321,0,0,0,0,0,0,0,-1,636,1450,-10.184,0.554321
-581,-426,-7.3349,1.48157,0,0,0,0,0,0,0,-1,643,1450,-7.33491,-1.48152
-574,-426,-5.02856,2.89319,0,0,0,0,0,0,0,-1,650,1450,-5.02858,-2.89319
-567,-426,-3.04797,1.72644,0,0,0,0,0,0,0,-1,657,1450,-3.04797,-1.72639
-560,-426,-5.55682,3.44397,0,0,0,0,0,0,0,-1,664,1450,-5.55684,-3.44399
-553,-426,-4.67017,6.66614,0,0,0,0,0,0,0,-1,671,1450,-4.67015,-6.66619
-546,-426,-7.58752,8.28882,0,0,0,0,0,0,0,-1,678,1450,-7.58752,-8.28878
-539,-426,-10.436,10.7441,0,0,0,0,0,0,0,-1,685,1450,-10.436,-10.7441
-532,-426,-21.028,20.3684,0,0,0,0,0,0,0,-1,692,1450,-21.0279,-20.3684
-525,-426,-21.0135,21.3771,0.00378544,0.00509475,0.00444705,0.00893507,-5.48875e-05,0.858479,0.00597509,0.0279653,699,1450,-21.0135,-21.3771
-518,-426,-20.9998,22.3651,0.00283265,0.00377618,0.00330811,0.00664599,-3.71619e-05,0.856224,0.0044431,0.0169119,706,1450,-20.9998,-22.3651
-511,-426,-21.0635,23.2605,0.00210845,0.00269117,0.00237099,0.00478863,1.09845e-05,0.846535,0.00318877,0.0159993,713,1450,-21.0635,-23.2605
-504,-426,-21.1443,24.1448,0.00155484,0.00180872,0.00157252,0.00325941,0.000104145,0.825673,0.00213907,0.0154674,720,1450,-21.1443,-24.1448
-497,-426,-21.1823,25.0449,0.00118423,0.0011219,0.00092256,0.00207615,0.000229978,0.768514,0.00131417,0.0127973,727,1450,-21.1823,-25.0449
-490,-426,-21.2465,25.9326,0.000958352,0.000596058,0.000407494,0.00122315,0.000331262,0.576247,0.000730492,0.0136199,734,1450,-21.2465,-25.9327
-483,-426,-21.31,26.8015,0.000966585,0.000339241,0.000114054,0.000986677,0.000319149,0.174373,0.000581374,0.0128483,741,1450,-21.31,-26.8015
-476,-426,-21.3505,27.6771,0.0010927,0.000216789,-4.36587e-05,0.00109487,0.000214618,-0.0496795,0.000669935,0.00907665,748,1450,-21.3505,-27.6771
-469,-426,-21.3997,28.5645,0.00145247,0.000346369,-1.12184e-05,0.00145258,0.000346255,-0.010141,0.000876081,0.0152233,755,1450,-21.3997,-28.5645
-462,-426,-21.3464,29.516,0,0,0,0,0,0,0,-1,762,1450,-21.3464,-29.516
-455,-426,-10.215,17.7007,0,0,0,0,0,0,0,-1,769,1450,-10.215,-17.7007
-448,-426,-6.46545,10.1322,0,0,0,0,0,0,0,-1,776,1450,-6.46543,-10.1322
-441,-426,-10.9547,11.4747,0,0,0,0,0,0,0,-1,783,1450,-10.9546,-11.4748
-434,-426,-10.4998,13.6189,0,0,0,0,0,0,0,-1,790,1450,-10.4997,-13.6189
-427,-426,-9.36627,13.7396,0,0,0,0,0,0,0,-1,797,1450,-9.36628,-13.7396
-420,-426,-5.33765,7.95044,0,0,0,0,0,0,0,-1,804,1450,-5.33766,-7.95041
-413,-426,-10.1148,5.0415,0,0,0,0,0,0,0,-1,811,1450,-10.1148,-5.04152
-406,-426,-11.4199,3.6438,0,0,0,0,0,0,0,-1,818,1450,-11.4198,-3.64382
-399,-426,-12.7595,2.29004,0,0,0,0,0,0,0,-1,825,1450,-12.7595,-2.29003
-392,-426,-12.4147,0.537354,0,0,0,0,0,0,0,-1,832,1450,-12.4147,-0.53731
-385,-426,0,0,0,0,0,0,0,0,0,-1,839,1450,0,0
-378,-426,0,0,0,0,0,0,0,0,0,-1,846,1450,0,0
-371,-426,0,0,0,0,0,0,0,0,0,-1,853,1450,0,0
-364,-426,0,0,0,0,0,0,0,0,0,-1,860,1450,0,0
-357,-426,0,0,0,0,0,0,0,0,0,-1,867,1450,0,0
-350,-426,0,0,0,0,0,0,0,0,0,-1,874,1450,0,0
-343,-426,0,0,0,0,0,0,0,0,0,-1,881,1450,0,0
-336,-426,0,0,0,0,0,0,0,0,0,-1,888,1450,0,0
-329,-426,0,0,0,0,0,0,0,0,0,-1,895,1450,0,0
-322,-426,0,0,0,0,0,0,0,0,0,-1,902,1450,0,0
-315,-426,0,0,0,0,0,0,0,0,0,-1,909,1450,0,0
-308,-426,0,0,0,0,0,0,0,0,0,-1,916,1450,0,0
-301,-426,0,0,0,0,0,0,0,0,0,-1,923,1450,0,0
-294,-426,0,0,0,0,0,0,0,0,0,-1,930,1450,0,0
-287,-426,0,0,0,0,0,0,0,0,0,-1,937,1450,0,0
-280,-426,0,0,0,0,0,0,0,0,0,-1,944,1450,0,0
-273,-426,0,0,0,0,0,0,0,0,0,-1,951,1450,0,0
-266,-426,0,0,0,0,0,0,0,0,0,-1,958,1450,0,0
-259,-426,0,0,0,0,0,0,0,0,0,-1,965,1450,0,0
-252,-426,0,0,0,0,0,0,0,0,0,-1,972,1450,0,0
-245,-426,0,0,0,0,0,0,0,0,0,-1,979,1450,0,0
-238,-426,0,0,0,0,0,0,0,0,0,-1,986,1450,0,0
-231,-426,0,0,0,0,0,0,0,0,0,-1,993,1450,0,0
-224,-426,0,0,0,0,0,0,0,0,0,-1,1000,1450,0,0
-217,-426,0,0,0,0,0,0,0,0,0,-1,1007,1450,0,0
-210,-426,0,0,0,0,0,0,0,0,0,-1,1014,1450,0,0
-203,-426,0,0,0,0,0,0,0,0,0,-1,1021,1450,0,0
-196,-426,0,0,0,0,0,0,0,0,0,-1,1028,1450,0,0
-189,-426,0,0,0,0,0,0,0,0,0,-1,1035,1450,0,0
-182,-426,0,0,0,0,0,0,0,0,0,-1,1042,1450,0,0
-175,-426,0,0,0,0,0,0,0,0,0,-1,1049,1450,0,0
-168,-426,0,0,0,0,0,0,0,0,0,-1,1056,1450,0,0
-161,-426,0,0,0,0,0,0,0,0,0,-1,1063,1450,0,0
-154,-426,0,0,0,0,0,0,0,0,0,-1,1070,1450,0,0
-147,-426,0,0,0,0,0,0,0,0,0,-1,1077,1450,0,0
-140,-426,0,0,0,0,0,0,0,0,0,-1,1084,1450,0,0
-133,-426,0,0,0,0,0,0,0,0,0,-1,1091,1450,0,0
-126,-426,0,0,0,0,0,0,0,0,0,-1,1098,1450,0,0
-119,-426,0,0,0,0,0,0,0,0,0,-1,1105,1450,0,0
-112,-426,0,0,0,0,0,0,0,0,0,-1,1112,1450,0,0
-105,-426,0,0,0,0,0,0,0,0,0,-1,1119,1450,0,0
-98,-426,0,0,0,0,0,0,0,0,0,-1,1126,1450,0,0
-91,-426,0,0,0,0,0,0,0,0,0,-1,1133,1450,0,0
-84,-426,0,0,0,0,0,0,0,0,0,-1,1140,1450,0,0
-77,-426,0,0,0,0,0,0,0,0,0,-1,1147,1450,0,0
-70,-426,0,0,0,0,0,0,0,0,0,-1,1154,1450,0,0
-63,-426,0,0,0,0,0,0,0,0,0,-1,1161,1450,0,0
-56,-426,0,0,0,0,0,0,0,0,0,-1,1168,1450,0,0
-49,-426,0,0,0,0,0,0,0,0,0,-1,1175,1450,0,0
-42,-426,0,0,0,0,0,0,0,0,0,-1,1182,1450,0,0
-35,-426,0,0,0,0,0,0,0,0,0,-1,1189,1450,0,0
-28,-426,0,0,0,0,0,0,0,0,0,-1,1196,1450,0,0
-21,-426,0,0,0,0,0,0,0,0,0,-1,1203,1450,0,0
-14,-426,0,0,0,0,0,0,0,0,0,-1,1210,1450,0,0
-7,-426,0,0,0,0,0,0,0,0,0,-1,1217,1450,0,0
0,-426,0,0,0,0,0,0,0,0,0,-1,1224,1450,0,0
7,-426,0,0,0,0,0,0,0,0,0,-1,1231,1450,0,0
14,-426,0,0,0,0,0,0,0,0,0,-1,1238,1450,0,0
21,-426,0,0,0,0,0,0,0,0,0,-1,1245,1450,0,0
28,-426,0,0,0,0,0,0,0,0,0,-1,1252,1450,0,0
35,-426,0,0,0,0,0,0,0,0,0,-1,1259,1450,0,0
42,-426,0,0,0,0,0,0,0,0,0,-1,1266,1450,0,0
49,-426,0,0,0,0,0,0,0,0,0,-1,1273,1450,0,0
56,-426,0,0,0,0,0,0,0,0,0,-1,1280,1450,0,0
63,-426,0,0,0,0,0,0,0,0,0,-1,1287,1450,0,0
70,-426,0,0,0,0,0,0,0,0,0,-1,1294,1450,0,0
77,-426,0,0,0,0,0,0,0,0,0,-1,1301,1450,0,0
84,-426,0,0,0,0,0,0,0,0,0,-1,1308,1450,0,0
91,-426,0,0,0,0,0,0,0,0,0,-1,1315,1450,0,0
98,-426,0,0,0,0,0,0,0,0,0,-1,1322,1450,0,0
105,-426,0,0,0,0,0,0,0,0,0,-1,1329,1450,0,0
112,-426,0,0,0,0,0,0,0,0,0,-1,1336,1450,0,0
119,-426,0,0,0,0,0,0,0,0,0,-1,1343,1450,0,0
126,-426,0,0,0,0,0,0,0,0,0,-1,1350,1450,0,0
133,-426,0,0,0,0,0,0,0,0,0,-1,1357,1450,0,0
140,-426,0,0,0,0,0,0,0,0,0,-1,1364,1450,0,0
147,-426,0,0,0,0,0,0,0,0,0,-1,1371,1450,0,0
154,-426,0,0,0,0,0,0,0,0,0,-1,1378,1450,0,0
161,-426,0,0,0,0,0,0,0,0,0,-1,1385,1450,0,0
168,-426,0,0,0,0,0,0,0,0,0,-1,1392,1450,0,0
175,-426,0,0,0,0,0,0,0,0,0,-1,1399,1450,0,0
182,-426,0,0,0,0,0,0,0,0,0,-1,1406,1450,0,0
189,-426,0,0,0,0,0,0,0,0,0,-1,1413,1450,0,0
196,-426,0,0,0,0,0,0,0,0,0,-1,1420,1450,0,0
203,-426,0,0,0,0,0,0,0,0,0,-1,1427,1450,0,0
210,-426,0,0,0,0,0,0,0,0,0,-1,1434,1450,0,0
217,-426,0,0,0,0,0,0,0,0,0,-1,1441,1450,0,0
224,-426,0,0,0,0,0,0,0,0,0,-1,1448,1450,0,0
231,-426,0,0,0,0,0,0,0,0,0,-1,1455,1450,0,0
238,-426,0,0,0,0,0,0,0,0,0,-1,1462,1450,0,0
245,-426,0,0,0,0,0,0,0,0,0,-1,1469,1450,0,0
252,-426,0,0,0,0,0,0,0,0,0,-1,1476,1450,0,0
259,-426,0,0,0,0,0,0,0,0,0,-1,1483,1450,0,0
266,-426,0,0,0,0,0,0,0,0,0,-1,1490,1450,0,0
273,-426,0,0,0,0,0,0,0,0,0,-1,1497,1450,0,0
280,-426,0,0,0,0,0,0,0,0,0,-1,1504,1450,0,0
287,-426,0,0,0,0,0,0,0,0,0,-1,1511,1450,0,0
294,-426,0,0,0,0,0,0,0,0,0,-1,1518,1450,0,0
301,-426,0,0,0,0,0,0,0,0,0,-1,1525,1450,0,0
308,-426,0,0,0,0,0,0,0,0,0,-1,1532,1450,0,0
315,-426,0,0,0,0,0,0,0,0,0,-1,1539,1450,0,0
322,-426,0,0,0,0,0,0,0,0,0,-1,1546,1450,0,0
329,-426,0,0,0,0,0,0,0,0,0,-1,1553,1450,0,0
336,-426,0,0,0,0,0,0,0,0,0,-1,1560,1450,0,0
343,-426,0,0,0,0,0,0,0,0,0,-1,1567,1450,0,0
350,-426,0,0,0,0,0,0,0,0,0,-1,1574,1450,0,0
357,-426,0,0,0,0,0,0,0,0,0,-1,1581,1450,0,0
364,-426,0,0,0,0,0,0,0,0,0,-1,1588,1450,0,0
371,-426,0,0,0,0,0,0,0,0,0,-1,1595,1450,0,0
378,-426,0,0,0,0,0,0,0,0,0,-1,1602,1450,0,0
385,-426,0,0,0,0,0,0,0,0,0,-1,1609,1450,0,0
392,-426,0,0,0,0,0,0,0,0,0,-1,1616,1450,0,0
399,-426,0,0,0,0,0,0,0,0,0,-1,1623,1450,0,0
406,-426,0,0,0,0,0,0,0,0,0,-1,1630,1450,0,0
413,-426,0,0,0,0,0,0,0,0,0,-1,1637,1450,0,0
420,-426,0,0,0,0,0,0,0,0,0,-1,1644,1450,0,0
427,-426,0,0,0,0,0,0,0,0,0,-1,1651,1450,0,0
434,-426,0,0,0,0,0,0,0,0,0,-1,1658,1450,0,0
441,-426,0,0,0,0,0,0,0,0,0,-1,1665,1450,0,0
448,-426,0,0,0,0,0,0,0,0,0,-1,1672,1450,0,0
455,-426,0,0,0,0,0,0,0,0,0,-1,1679,1450,0,0
462,-426,0,0,0,0,0,0,0,0,0,-1,1686,1450,0,0
469,-426,0,0,0,0,0,0,0,0,0,-1,1693,1450,0,0
476,-426,0,0,0,0,0,0,0,0,0,-1,1700,1450,0,0
483,-426,0,0,0,0,0,0,0,0,0,-1,1707,1450,0,0
490,-426,0,0,0,0,0,0,0,0,0,-1,1714,1450,0,0
497,-426,0,0,0,0,0,0,0,0,0,-1,1721,1450,0,0
504,-426,20.6873,3.38367,0,0,0,0,0,0,0,-1,1728,1450,20.6873,-3.38361
511,-426,19.6676,3.53748,0,0,0,0,0,0,0,-1,1735,1450,19.6676,-3.53749
518,-426,18.6853,3.32288,0,0,0,0,0,0,0,-1,1742,1450,18.6853,-3.3229
525,-426,18.9552,2.71033,0,0,0,0,0,0,0,-1,1749,1450,18.9552,-2.71034
532,-426,19.4333,2.70764,0,0,0,0,0,0,0,-1,1756,1450,19.4334,-2.70764
539,-426,25.1482,2.56287,0,0,0,0,0,0,0,-1,1763,1450,25.1482,-2.56286
546,-426,24.1136,3.75659,0,0,0,0,0,0,0,-1,1770,1450,24.1136,-3.7566
553,-426,23.0791,4.95032,0,0,0,0,0,0,0,-1,1777,1450,23.0791,-4.95034
560,-426,12.9688,11.8289,0,0,0,0,0,0,0,-1,1784,1450,12.9688,-11.8288
567,-426,13.6388,11.5623,0,0,0,0,0,0,0,-1,1791,1450,13.6388,-11.5623
574,-426,14.3943,11.0286,0,0,0,0,0,0,0,-1,1798,1450,14.3942,-11.0285
581,-426,16.3879,11.4653,0,0,0,0,0,0,0,-1,1805,1450,16.3879,-11.4653
588,-426,18.1212,12.5547,0,0,0,0,0,0,0,-1,1812,1450,18.1212,-12.5547
595,-426,30.0474,21.0964,0,0,0,0,0,0,0,-1,1819,1450,30.0474,-21.0965
602,-426,38.7191,28.1779,0,0,0,0,0,0,0,-1,1826,1450,38.7191,-28.1778
609,-426,38.7212,27.2129,0.00302112,0.00139337,-0.00180522,0.00418745,0.000227041,-0.573621,0.00271911,0.0151046,1833,1450,38.7212,-27.2129
616,-426,38.6802,26.3419,0.00219413,0.000880492,-0.00112849,0.00284303,0.000231594,-0.521846,0.00182306,0.0151934,1840,1450,38.6801,-26.3419
623,-426,38.6276,25.4885,0.00174193,0.000589181,-0.000712688,0.00208214,0.000248968,-0.445376,0.001313,0.0125659,1847,1450,38.6275,-25.4886
630,-426,38.6208,24.6428,0.00170123,0.000312403,-0.000490526,0.001857,0.000156625,-0.307501,0.00118924,0.0129955,1854,1450,38.6208,-24.6429
637,-426,38.5583,23.7664,0.00191113,0.000166525,-0.00042722,0.00201013,6.75248e-05,-0.227712,0.00131815,0.0136177,1861,1450,38.5583,-23.7664
644,-426,38.4532,22.8951,0.00244133,0.000183631,-0.000622782,0.00260173,2.32334e-05,-0.252072,0.0017268,0.0134972,1868,1450,38.4532,-22.8952
651,-426,38.3813,22.0431,0.00330527,0.000355967,-0.00108566,0.0036618,-5.68456e-07,-0.317309,0.00244139,0.0133785,1875,1450,38.3813,-22.0431
658,-426,38.3618,21.1011,0.00454271,0.000688496,-0.00180504,0.00525604,-2.48333e-05,-0.376351,0.00351233,0.0153296,1882,1450,38.3618,-21.101
665,-426,38.3782,20.1139,0,0,0,0,0,0,0,-1,1889,1450,38.3782,-20.1139
672,-426,36.2397,16.927,0,0,0,0,0,0,0,-1,1896,1450,36.2397,-16.9271
679,-426,17.1522,8.15784,0,0,0,0,0,0,0,-1,1903,1450,17.1522,-8.15784
686,-426,13.5326,8.03711,0,0,0,0,0,0,0,-1,1910,1450,13.5326,-8.03717
693,-426,11.8607,6.45215,0,0,0,0,0,0,0,-1,1917,1450,11.8607,-6.45215
700,-426,9.24304,2.95447,0,0,0,0,0,0,0,-1,1924,1450,9.24305,-2.95442
707,-426,8.44519,-1.21448,0,0,0,0,0,0,0,-1,1931,1450,8.44514,1.21454
714,-426,0,0,0,0,0,0,0,0,0,-1,1938,1450,0,0
721,-426,0,0,0,0,0,0,0,0,0,-1,1945,1450,0,0
728,-426,0,0,0,0,0,0,0,0,0,-1,1952,1450,0,0
735,-426,0,0,0,0,0,0,0,0,0,-1,1959,1450,0,0
742,-426,0,0,0,0,0,0,0,0,0,-1,1966,1450,0,0
749,-426,0,0,0,0,0,0,0,0,0,-1,1973,1450,0,0
756,-426,0,0,0,0,0,0,0,0,0,-1,1980,1450,0,0
763,-426,0,0,0,0,0,0,0,0,0,-1,1987,1450,0,0
770,-426,0,0,0,0,0,0,0,0,0,-1,1994,1450,0,0
777,-426,0,0,0,0,0,0,0,0,0,-1,2001,1450,0,0
784,-426,0,0,0,0,0,0,0,0,0,-1,2008,1450,0,0
791,-426,0,0,0,0,0,0,0,0,0,-1,2015,1450,0,0
798,-426,0,0,0,0,0,0,0,0,0,-1,2022,1450,0,0
805,-426,0,0,0,0,0,0,0,0,0,-1,2029,1450,0,0
812,-426,0,0,0,0,0,0,0,0,0,-1,2036,1450,0,0
-700,-433,0,0,0,0,0,0,0,0,0,-1,524,1457,0,0
-693,-433,0,0,0,0,0,0,0,0,0,-1,531,1457,0,0
-686,-433,0,0,0,0,0,0,0,0,0,-1,538,1457,0,0
-679,-433,0,0,0,0,0,0,0,0,0,-1,545,1457,0,0
-672,-433,0,0,0,0,0,0,0,0,0,-1,552,1457,0,0
-665,-433,0,0,0,0,0,0,0,0,0,-1,559,1457,0,0
-658,-433,0,0,0,0,0,0,0,0,0,-1,566,1457,0,0
-651,-433,0,0,0,0,0,0,0,0,0,-1,573,1457,0,0
-644,-433,0,0,0,0,0,0,0,0,0,-1,580,1457,0,0
-637,-433,0,0,0,0,0,0,0,0,0,-1,587,1457,0,0
-630,-433,0,0,0,0,0,0,0,0,0,-1,594,1457,0,0
-623,-433,0,0,0,0,0,0,0,0,0,-1,601,1457,0,0
-616,-433,0,0,0,0,0,0,0,0,0,-1,608,1457,0,0
-609,-433,0,0,0,0,0,0,0,0,0,-1,615,1457,0,0
-602,-433,0,0,0,0,0,0,0,0,0,-1,622,1457,0,0
-595,-433,0,0,0,0,0,0,0,0,0,-1,629,1457,0,0
-588,-433,-10.3756,-0.467041,0,0,0,0,0,0,0,-1,636,1457,-10.3756,0.467081
-581,-433,-8.12201,0.884033,0,0,0,0,0,0,0,-1,643,1457,-8.12204,-0.884056
-574,-433,-5.86847,2.23523,0,0,0,0,0,0,0,-1,650,1457,-5.86844,-2.23519
-567,-433,-5.42255,1.16833,0,0,0,0,0,0,0,-1,657,1457,-5.42254,-1.1683
-560,-433,-6.84027,1.86414,0,0,0,0,0,0,0,-1,664,1457,-6.84026,-1.86412
-553,-433,-5.74017,1.79163,0,0,0,0,0,0,0,-1,671,1457,-5.74015,-1.79166
-546,-433,-8.12451,7.35095,0,0,0,0,0,0,0,-1,678,1457,-8.12451,-7.35097
-539,-433,-7.3136,8.75659,0,0,0,0,0,0,0,-1,685,1457,-7.31362,-8.75659
-532,-433,-14.5645,14.8475,0,0,0,0,0,0,0,-1,692,1457,-14.5645,-14.8475
-525,-433,-20.1515,21.3925,0,0,0,0,0,0,0,-1,699,1457,-20.1515,-21.3925
-518,-433,-20.116,22.4093,0.00308151,0.00479942,0.00419071,0.0082183,-0.000337373,0.886482,0.00559472,0.0197613,706,1457,-20.116,-22.4093
-511,-433,-20.1948,23.3121,0.00230505,0.00352928,0.00308922,0.00606644,-0.000232114,0.883205,0.00412384,0.0168423,713,1457,-20.1947,-23.3122
-504,-433,-20.249,24.1973,0.00169318,0.00248887,0.00214433,0.00427195,-8.98954e-05,0.877122,0.0028784,0.0138795,720,1457,-20.249,-24.1973
-497,-433,-20.2988,25.0919,0.00126698,0.00166207,0.00137181,0.00285049,7.8563e-05,0.856909,0.00187468,0.0141159,727,1457,-20.2988,-25.0919
-490,-433,-20.3885,25.9899,0.000982008,0.00100101,0.000742968,0.00173454,0.000248479,0.791791,0.00108307,0.0164529,734,1457,-20.3885,-25.9898
-483,-433,-20.4271,26.8676,0.000938687,0.000603918,0.000355583,0.00116431,0.000378292,0.565418,0.000685818,0.0175093,741,1457,-20.4271,-26.8675
-476,-433,-20.456,27.7532,0.00100546,0.000376389,0.00011871,0.00102712,0.000354733,0.180442,0.000602385,0.0110113,748,1457,-20.456,-27.7532
-469,-433,-20.5173,28.65,0.00125881,0.000360775,7.21876e-05,0.00126457,0.000355009,0.0797021,0.00075314,0.0112033,755,1457,-20.5173,-28.65
-462,-433,-20.5921,29.5367,0,0,0,0,0,0,0,-1,762,1457,-20.5921,-29.5368
-455,-433,-13.8576,22.7446,0,0,0,0,0,0,0,-1,769,1457,-13.8576,-22.7446
-448,-433,-6.94812,14.5563,0,0,0,0,0,0,0,-1,776,1457,-6.94809,-14.5562
-441,-433,-9.97485,14.0258,0,0,0,0,0,0,0,-1,783,1457,-9.97488,-14.0257
-434,-433,-9.41205,14.2297,0,0,0,0,0,0,0,-1,790,1457,-9.41205,-14.2297
-427,-433,-8.67419,13.6827,0,0,0,0,0,0,0,-1,797,1457,-8.67422,-13.6827
-420,-433,-5.74658,9.49121,0,0,0,0,0,0,0,-1,804,1457,-5.7466,-9.49119
-413,-433,-3.63074,5.5813,0,0,0,0,0,0,0,-1,811,1457,-3.63072,-5.58129
-406,-433,-12.3472,4.69373,0,0,0,0,0,0,0,-1,818,1457,-12.3472,-4.69374
-399,-433,-12.055,2.83594,0,0,0,0,0,0,0,-1,825,1457,-12.055,-2.83594
-392,-433,-12.9772,1.6228,0,0,0,0,0,0,0,-1,832,1457,-12.9772,-1.62282
-385,-433,-13.7999,0.514771,0,0,0,0,0,0,0,-1,839,1457,-13.7999,-0.514788
-378,-433,0,0,0,0,0,0,0,0,0,-1,846,1457,0,0
-371,-433,0,0,0,0,0,0,0,0,0,-1,853,1457,0,0
-364,-433,0,0,0,0,0,0,0,0,0,-1,860,1457,0,0
-357,-433,0,0,0,0,0,0,0,0,0,-1,867,1457,0,0
-350,-433,0,0,0,0,0,0,0,0,0,-1,874,1457,0,0
-343,-433,0,0,0,0,0,0,0,0,0,-1,881,1457,0,0
-336,-433,0,0,0,0,0,0,0,0,0,-1,888,1457,0,0
-329,-433,0,0,0,0,0,0,0,0,0,-1,895,1457,0,0
-322,-433,0,0,0,0,0,0,0,0,0,-1,902,1457,0,0
-315,-433,0,0,0,0,0,0,0,0,0,-1,909,1457,0,0
-308,-433,0,0,0,0,0,0,0,0,0,-1,916,1457,0,0
-301,-433,0,0,0,0,0,0,0,0,0,-1,923,1457,0,0
-294,-433,0,0,0,0,0,0,0,0,0,-1,930,1457,0,0
-287,-433,0,0,0,0,0,0,0,0,0,-1,937,1457,0,0
-280,-433,0,0,0,0,0,0,0,0,0,-1,944,1457,0,0
-273,-433,0,0,0,0,0,0,0,0,0,-1,951,1457,0,0
-266,-433,0,0,0,0,0,0,0,0,0,-1,958,1457,0,0
-259,-433,0,0,0,0,0,0,0,0,0,-1,965,1457,0,0
-252,-433,0,0,0,0,0,0,0,0,0,-1,972,1457,0,0
-245,-433,0,0,0,0,0,0,0,0,0,-1,979,1457,0,0
-238,-433,0,0,0,0,0,0,0,0,0,-1,986,1457,0,0
-231,-433,0,0,0,0,0,0,0,0,0,-1,993,1457,0,0
-224,-433,0,0,0,0,0,0,0,0,0,-1,1000,1457,0,0
-217,-433,0,0,0,0,0,0,0,0,0,-1,1007,1457,0,0
-210,-433,0,0,0,0,0,0,0,0,0,-1,1014,1457,0,0
-203,-433,0,0,0,0,0,0,0,0,0,-1,1021,1457,0,0
-196,-433,0,0,0,0,0,0,0,0,0,-1,1028,1457,0,0
-189,-433,0,0,0,0,0,0,0,0,0,-1,1035,1457,0,0
-182,-433,0,0,0,0,0,0,0,0,0,-1,1042,1457,0,0
-175,-433,0,0,0,0,0,0,0,0,0,-1,1049,1457,0,0
-168,-433,0,0,0,0,0,0,0,0,0,-1,1056,1457,0,0
-161,-433,0,0,0,0,0,0,0,0,0,-1,1063,1457,0,0
-154,-433,0,0,0,0,0,0,0,0,0,-1,1070,1457,0,0
-147,-433,0,0,0,0,0,0,0,0,0,-1,1077,1457,0,0
-140,-433,0,0,0,0,0,0,0,0,0,-1,1084,1457,0,0
-133,-433,0,0,0,0,0,0,0,0,0,-1,1091,1457,0,0
-126,-433,0,0,0,0,0,0,0,0,0,-1,1098,1457,0,0
-119,-433,0,0,0,0,0,0,0,0,0,-1,1105,1457,0,0
-112,-433,0,0,0,0,0,0,0,0,0,-1,1112,1457,0,0
-105,-433,0,0,0,0,0,0,0,0,0,-1,1119,1457,0,0
-98,-433,0,0,0,0,0,0,0,0,0,-1,1126,1457,0,0
-91,-433,0,0,0,0,0,0,0,0,0,-1,1133,1457,0,0
-84,-433,0,0,0,0,0,0,0,0,0,-1,1140,1457,0,0
-77,-433,0,0,0,0,0,0,0,0,0,-1,1147,1457,0,0
-70,-433,0,0,0,0,0,0,0,0,0,-1,1154,1457,0,0
-63,-433,0,0,0,0,0,0,0,0,0,-1,1161,1457,0,0
-56,-433,0,0,0,0,0,0,0,0,0,-1,1168,1457,0,0
-49,-433,0,0,0,0,0,0,0,0,0,-1,1175,1457,0,0
-42,-433,0,0,0,0,0,0,0,0,0,-1,1182,1457,0,0
-35,-433,0,0,0,0,0,0,0,0,0,-1,1189,1457,0,0
-28,-433,0,0,0,0,0,0,0,0,0,-1,1196,1457,0,0
-21,-433,0,0,0,0,0,0,0,0,0,-1,1203,1457,0,0
-14,-433,0,0,0,0,0,0,0,0,0,-1,1210,1457,0,0
-7,-433,0,0,0,0,0,0,0,0,0,-1,1217,1457,0,0
0,-433,0,0,0,0,0,0,0,0,0,-1,1224,1457,0,0
7,-433,0,0,0,0,0,0,0,0,0,-1,1231,1457,0,0
14,-433,0,0,0,0,0,0,0,0,0,-1,1238,1457,0,0
21,-433,0,0,0,0,0,0,0,0,0,-1,1245,1457,0,0
28,-433,0,0,0,0,0,0,0,0,0,-1,1252,1457,0,0
35,-433,0,0,0,0,0,0,0,0,0,-1,1259,1457,0,0
42,-433,0,0,0,0,0,0,0,0,0,-1,1266,1457,0,0
49,-433,0,0,0,0,0,0,0,0,0,-1,1273,1457,0,0
56,-433,0,0,0,0,0,0,0,0,0,-1,1280,1457,0,0
63,-433,0,0,0,0,0,0,0,0,0,-1,1287,1457,0,0
70,-433,0,0,0,0,0,0,0,0,0,-1,1294,1457,0,0
77,-433,0,0,0,0,0,0,0,0,0,-1,1301,1457,0,0
84,-433,0,0,0,0,0,0,0,0,0,-1,1308,1457,0,0
91,-433,0,0,0,0,0,0,0,0,0,-1,1315,1457,0,0
98,-433,0,0,0,0,0,0,0,0,0,-1,1322,1457,0,0
105,-433,0,0,0,0,0,0,0,0,0,-1,1329,1457,0,0
112,-433,0,0,0,0,0,0,0,0,0,-1,1336,1457,0,0
119,-433,0,0,0,0,0,0,0,0,0,-1,1343,1457,0,0
126,-433,0,0,0,0,0,0,0,0,0,-1,1350,1457,0,0
133,-433,0,0,0,0,0,0,0,0,0,-1,1357,1457,0,0
140,-433,0,0,0,0,0,0,0,0,0,-1,1364,1457,0,0
147,-433,0,0,0,0,0,0,0,0,0,-1,1371,1457,0,0
154,-433,0,0,0,0,0,0,0,0,0,-1,1378,1457,0,0
161,-433,0,0,0,0,0,0,0,0,0,-1,1385,1457,0,0
168,-433,0,0,0,0,0,0,0,0,0,-1,1392,1457,0,0
175,-433,0,0,0,0,0,0,0,0,0,-1,1399,1457,0,0
182,-433,0,0,0,0,0,0,0,0,0,-1,1406,1457,0,0
189,-433,0,0,0,0,0,0,0,0,0,-1,1413,1457,0,0
196,-433,0,0,0,0,0,0,0,0,0,-1,1420,1457,0,0
203,-433,0,0,0,0,0,0,0,0,0,-1,1427,1457,0,0
210,-433,0,0,0,0,0,0,0,0,0,-1,1434,1457,0,0
217,-433,0,0,0,0,0,0,0,0,0,-1,1441,1457,0,0
224,-433,0,0,0,0,0,0,0,0,0,-1,1448,1457,0,0
231,-433,0,0,0,0,0,0,0,0,0,-1,1455,1457,0,0
238,-433,0,0,0,0,0,0,0,0,0,-1,1462,1457,0,0
245,-433,0,0,0,0,0,0,0,0,0,-1,1469,1457,0,0
252,-433,0,0,0,0,0,0,0,0,0,-1,1476,1457,0,0
259,-433,0,0,0,0,0,0,0,0,0,-1,1483,1457,0,0
266,-433,0,0,0,0,0,0,0,0,0,-1,1490,1457,0,0
273,-433,0,0,0,0,0,0,0,0,0,-1,1497,1457,0,0
280,-433,0,0,0,0,0,0,0,0,0,-1,1504,1457,0,0
287,-433,0,0,0,0,0,0,0,0,0,-1,1511,1457,0,0
294,-433,0,0,0,0,0,0,0,0,0,-1,1518,1457,0,0
301,-433,0,0,0,0,0,0,0,0,0,-1,1525,1457,0,0
308,-433,0,0,0,0,0,0,0,0,0,-1,1532,1457,0,0
315,-433,0,0,0,0,0,0,0,0,0,-1,1539,1457,0,0
322,-433,0,0,0,0,0,0,0,0,0,-1,1546,1457,0,0
329,-433,0,0,0,0,0,0,0,0,0,-1,1553,1457,0,0
336,-433,0,0,0,0,0,0,0,0,0,-1,1560,1457,0,0
343,-433,0,0,0,0,0,0,0,0,0,-1,1567,1457,0,0
350,-433,0,0,0,0,0,0,0,0,0,-1,1574,1457,0,0
357,-433,0,0,0,0,0,0,0,0,0,-1,1581,1457,0,0
364,-433,0,0,0,0,0,0,0,0,0,-1,1588,1457,0,0
371,-433,0,0,0,0,0,0,0,0,0,-1,1595,1457,0,0
378,-433,0,0,0,0,0,0,0,0,0,-1,1602,1457,0,0
385,-433,0,0,0,0,0,0,0,0,0,-1,1609,1457,0,0
392,-433,0,0,0,0,0,0,0,0,0,-1,1616,1457,0,0
399,-433,0,0,0,0,0,0,0,0,0,-1,1623,1457,0,0
406,-433,0,0,0,0,0,0,0,0,0,-1,1630,1457,0,0
413,-433,0,0,0,0,0,0,0,0,0,-1,1637,1457,0,0
420,-433,0,0,0,0,0,0,0,0,0,-1,1644,1457,0,0
427,-433,0,0,0,0,0,0,0,0,0,-1,1651,1457,0,0
434,-433,0,0,0,0,0,0,0,0,0,-1,1658,1457,0,0
441,-433,0,0,0,0,0,0,0,0,0,-1,1665,1457,0,0
448,-433,0,0,0,0,0,0,0,0,0,-1,1672,1457,0,0
455,-433,0,0,0,0,0,0,0,0,0,-1,1679,1457,0,0
462,-433,0,0,0,0,0,0,0,0,0,-1,1686,1457,0,0
469,-433,0,0,0,0,0,0,0,0,0,-1,1693,1457,0,0
476,-433,0,0,0,0,0,0,0,0,0,-1,1700,1457,0,0
483,-433,0,0,0,0,0,0,0,0,0,-1,1707,1457,0,0
490,-433,0,0,0,0,0,0,0,0,0,-1,1714,1457,0,0
497,-433,0,0,0,0,0,0,0,0,0,-1,1721,1457,0,0
504,-433,19.9058,3.03662,0,0,0,0,0,0,0,-1,1728,1457,19.9058,-3.03656
511,-433,19.0145,3.07837,0,0,0,0,0,0,0,-1,1735,1457,19.0146,-3.07834
518,-433,18.071,3.06433,0,0,0,0,0,0,0,-1,1742,1457,18.071,-3.06432
525,-433,17.2048,3.37085,0,0,0,0,0,0,0,-1,1749,1457,17.2049,-3.37083
532,-433,16.5637,3.36646,0,0,0,0,0,0,0,-1,1756,1457,16.5637,-3.36643
539,-433,15.9193,3.30396,0,0,0,0,0,0,0,-1,1763,1457,15.9193,-3.30394
546,-433,23.1903,4.81775,0,0,0,0,0,0,0,-1,1770,1457,23.1903,-4.81775
553,-433,13.9674,11.5781,0,0,0,0,0,0,0,-1,1777,1457,13.9674,-11.5781
560,-433,13.9855,11.7341,0,0,0,0,0,0,0,-1,1784,1457,13.9855,-11.7341
567,-433,13.9264,11.3364,0,0,0,0,0,0,0,-1,1791,1457,13.9263,-11.3364
574,-433,15.5305,12.3673,0,0,0,0,0,0,0,-1,1798,1457,15.5305,-12.3673
581,-433,16.6405,12.1898,0,0,0,0,0,0,0,-1,1805,1457,16.6405,-12.1898
588,-433,26.4386,19.7478,0,0,0,0,0,0,0,-1,1812,1457,26.4386,-19.7478
595,-433,37.6631,29.126,0,0,0,0,0,0,0,-1,1819,1457,37.6631,-29.1259
602,-433,37.8726,28.157,0.00415668,0.00189929,-0.00248909,0.00576102,0.000294937,-0.572536,0.00374624,0.0313516,1826,1457,37.8725,-28.157
609,-433,37.8734,27.2356,0.00310169,0.00131539,-0.00172257,0.00414889,0.000268192,-0.54623,0.002681,0.0176905,1833,1457,37.8734,-27.2356
616,-433,37.8376,26.3914,0.00227605,0.000792866,-0.00104819,0.00281846,0.000250452,-0.477529,0.00180131,0.0148495,1840,1457,37.8376,-26.3914
623,-433,37.7583,25.5431,0.00184231,0.000519945,-0.000628601,0.00209343,0.000268821,-0.380072,0.0013152,0.0115244,1847,1457,37.7584,-25.5431
630,-433,37.7225,24.6881,0.00181899,0.000233351,-0.00037413,0.00190284,0.000149509,-0.220456,0.00122177,0.0150537,1854,1457,37.7225,-24.6881
637,-433,37.6895,23.8086,0.00201225,7.00812e-05,-0.000256951,0.00204567,3.66615e-05,-0.129337,0.00135173,0.0164706,1861,1457,37.6894,-23.8086
644,-433,37.6084,22.958,0.00250953,7.96124e-05,-0.000384581,0.00256895,2.01979e-05,-0.15328,0.00170594,0.0174036,1868,1457,37.6084,-22.958
651,-433,37.5552,22.0785,0.00338637,0.000252232,-0.000823261,0.00358946,4.91419e-05,-0.241861,0.00237676,0.0137558,1875,1457,37.5551,-22.0785
658,-433,37.5332,21.1774,0,0,0,0,0,0,0,-1,1882,1457,37.5332,-21.1774
665,-433,36.4893,18.9447,0,0,0,0,0,0,0,-1,1889,1457,36.4893,-18.9447
672,-433,18.115,8.7207,0,0,0,0,0,0,0,-1,1896,1457,18.115,-8.72074
679,-433,17.2969,9.6355,0,0,0,0,0,0,0,-1,1903,1457,17.2968,-9.63548
686,-433,13.6356,8.61694,0,0,0,0,0,0,0,-1,1910,1457,13.6356,-8.61694
693,-433,13.4081,8.39624,0,0,0,0,0,0,0,-1,1917,1457,13.4081,-8.39624
700,-433,7.16809,-1.5166,0,0,0,0,0,0,0,-1,1924,1457,7.16806,1.51656
707,-433,8.68359,-2.82202,0,0,0,0,0,0,0,-1,1931,1457,8.68359,2.82197
714,-433,0,0,0,0,0,0,0,0,0,-1,1938,1457,0,0
721,-433,0,0,0,0,0,0,0,0,0,-1,1945,1457,0,0
728,-433,0,0,0,0,0,0,0,0,0,-1,1952,1457,0,0
735,-433,0,0,0,0,0,0,0,0,0,-1,1959,1457,0,0
742,-433,0,0,0,0,0,0,0,0,0,-1,1966,1457,0,0
749,-433,0,0,0,0,0,0,0,0,0,-1,1973,1457,0,0
756,-433,0,0,0,0,0,0,0,0,0,-1,1980,1457,0,0
763,-433,0,0,0,0,0,0,0,0,0,-1,1987,1457,0,0
770,-433,0,0,0,0,0,0,0,0,0,-1,1994,1457,0,0
777,-433,0,0,0,0,0,0,0,0,0,-1,2001,1457,0,0
784,-433,0,0,0,0,0,0,0,0,0,-1,2008,1457,0,0
791,-433,0,0,0,0,0,0,0,0,0,-1,2015,1457,0,0
798,-433,0,0,0,0,0,0,0,0,0,-1,2022,1457,0,0
805,-433,0,0,0,0,0,0,0,0,0,-1,2029,1457,0,0
812,-433,0,0,0,0,0,0,0,0,0,-1,2036,1457,0,0
-700,-440,0,0,0,0,0,0,0,0,0,-1,524,1464,0,0
-693,-440,0,0,0,0,0,0,0,0,0,-1,531,1464,0,0
-686,-440,0,0,0,0,0,0,0,0,0,-1,538,1464,0,0
-679,-440,0,0,0,0,0,0,0,0,0,-1,545,1464,0,0
-672,-440,0,0,0,0,0,0,0,0,0,-1,552,1464,0,0
-665,-440,0,0,0,0,0,0,0,0,0,-1,559,1464,0,0
-658,-440,0,0,0,0,0,0,0,0,0,-1,566,1464,0,0
-651,-440,0,0,0,0,0,0,0,0,0,-1,573,1464,0,0
-644,-440,0,0,0,0,0,0,0,0,0,-1,580,1464,0,0
-637,-440,0,0,0,0,0,0,0,0,0,-1,587,1464,0,0
-630,-440,0,0,0,0,0,0,0,0,0,-1,594,1464,0,0
-623,-440,0,0,0,0,0,0,0,0,0,-1,601,1464,0,0
-616,-440,0,0,0,0,0,0,0,0,0,-1,608,1464,0,0
-609,-440,0,0,0,0,0,0,0,0,0,-1,615,1464,0,0
-602,-440,0,0,0,0,0,0,0,0,0,-1,622,1464,0,0
-595,-440,0,0,0,0,0,0,0,0,0,-1,629,1464,0,0
-588,-440,0,0,0,0,0,0,0,0,0,-1,636,1464,0,0
-581,-440,-8.97278,0.254517,0,0,0,0,0,0,0,-1,643,1464,-8.97276,-0.254526
-574,-440,-7.00818,-0.918579,0,0,0,0,0,0,0,-1,650,1464,-7.00817,0.918538
-567,-440,-6.12152,-0.0766602,0,0,0,0,0,0,0,-1,657,1464,-6.12151,0.0767097
-560,-440,-5.46747,0.82251,0,0,0,0,0,0,0,-1,664,1464,-5.46748,-0.822551
-553,-440,-6.84729,0.0831299,0,0,0,0,0,0,0,-1,671,1464,-6.84732,-0.083136
-546,-440,-5.63446,-0.153198,0,0,0,0,0,0,0,-1,678,1464,-5.63447,0.153147
-539,-440,-6.80017,8.58252,0,0,0,0,0,0,0,-1,685,1464,-6.80015,-8.58257
-532,-440,-9.69647,11.3262,0,0,0,0,0,0,0,-1,692,1464,-9.69649,-11.3262
-525,-440,-19.3601,21.3018,0,0,0,0,0,0,0,-1,699,1464,-19.3601,-21.3018
-518,-440,-19.2905,22.3419,0.00359488,0.00609408,0.00541235,0.0103992,-0.000710254,0.89885,0.00718128,0.03728,706,1464,-19.2905,-22.342
-511,-440,-19.2933,23.3728,0.00272793,0.00463098,0.00411698,0.00790496,-0.000546049,0.898965,0.0054611,0.0172418,713,1464,-19.2933,-23.3728
-504,-440,-19.3395,24.2772,0.0020223,0.00340671,0.00299504,0.00578849,-0.000359485,0.898963,0.00398423,0.0198412,720,1464,-19.3395,-24.2772
-497,-440,-19.4294,25.1384,0.00150337,0.00239708,0.00205905,0.00405721,-0.000156756,0.892251,0.00275854,0.0229708,727,1464,-19.4294,-25.1385
-490,-440,-19.5094,25.9767,0.00112733,0.00156408,0.00128402,0.00264816,4.32399e-05,0.869628,0.00175121,0.0237054,734,1464,-19.5094,-25.9767
-483,-440,-19.5455,26.8988,0.000990007,0.000976271,0.000750107,0.00173328,0.000233001,0.780821,0.00108621,0.0214558,741,1464,-19.5455,-26.8988
-476,-440,-19.5771,27.7734,0.000955212,0.000574948,0.000378742,0.00118887,0.000341292,0.552771,0.000706834,0.0141094,748,1464,-19.5771,-27.7735
-469,-440,-19.642,28.6877,0.0010651,0.000425661,0.000209339,0.00112754,0.000363224,0.289856,0.000664573,0.012414,755,1464,-19.642,-28.6878
-462,-440,-19.7463,29.5692,0.00135713,0.000555348,0.000303572,0.0014591,0.000453377,0.324062,0.000862295,0.0196046,762,1464,-19.7463,-29.5692
-455,-440,-19.7219,30.5117,0,0,0,0,0,0,0,-1,769,1464,-19.722,-30.5117
-448,-440,-12.8837,23.5623,0,0,0,0,0,0,0,-1,776,1464,-12.8837,-23.5623
-441,-440,-7.28583,14.7465,0,0,0,0,0,0,0,-1,783,1464,-7.28584,-14.7464
-434,-440,-8.33636,14.5024,0,0,0,0,0,0,0,-1,790,1464,-8.33638,-14.5025
-427,-440,-8.28094,14.2512,0,0,0,0,0,0,0,-1,797,1464,-8.28094,-14.2512
-420,-440,-6.86603,8.09216,0,0,0,0,0,0,0,-1,804,1464,-6.86602,-8.09222
-413,-440,-3.46796,5.72278,0,0,0,0,0,0,0,-1,811,1464,-3.46797,-5.72276
-406,-440,-5.2887,5.20264,0,0,0,0,0,0,0,-1,818,1464,-5.2887,-5.20261
-399,-440,-12.7318,3.94421,0,0,0,0,0,0,0,-1,825,1464,-12.7318,-3.94419
-392,-440,-13.5565,2.51855,0,0,0,0,0,0,0,-1,832,1464,-13.5565,-2.51861
-385,-440,-14.6741,1.39795,0,0,0,0,0,0,0,-1,839,1464,-14.6741,-1.39801
-378,-440,-15.8063,0.293457,0,0,0,0,0,0,0,-1,846,1464,-15.8063,-0.293412
-371,-440,0,0,0,0,0,0,0,0,0,-1,853,1464,0,0
-364,-440,0,0,0,0,0,0,0,0,0,-1,860,1464,0,0
-357,-440,0,0,0,0,0,0,0,0,0,-1,867,1464,0,0
-350,-440,0,0,0,0,0,0,0,0,0,-1,874,1464,0,0
-343,-440,0,0,0,0,0,0,0,0,0,-1,881,1464,0,0
-336,-440,0,0,0,0,0,0,0,0,0,-1,888,1464,0,0
-329,-440,0,0,0,0,0,0,0,0,0,-1,895,1464,0,0
-322,-440,0,0,0,0,0,0,0,0,0,-1,902,1464,0,0
-315,-440,0,0,0,0,0,0,0,0,0,-1,909,1464,0,0
-308,-440,0,0,0,0,0,0,0,0,0,-1,916,1464,0,0
-301,-440,0,0,0,0,0,0,0,0,0,-1,923,1464,0,0
-294,-440,0,0,0,0,0,0,0,0,0,-1,930,1464,0,0
-287,-440,0,0,0,0,0,0,0,0,0,-1,937,1464,0,0
-280,-440,0,0,0,0,0,0,0,0,0,-1,944,1464,0,0
-273,-440,0,0,0,0,0,0,0,0,0,-1,951,1464,0,0
-266,-440,0,0,0,0,0,0,0,0,0,-1,958,1464,0,0
-259,-440,0,0,0,0,0,0,0,0,0,-1,965,1464,0,0
-252,-440,0,0,0,0,0,0,0,0,0,-1,972,1464,0,0
-245,-440,0,0,0,0,0,0,0,0,0,-1,979,1464,0,0
-238,-440,0,0,0,0,0,0,0,0,0,-1,986,1464,0,0
-231,-440,0,0,0,0,0,0,0,0,0,-1,993,1464,0,0
-224,-440,0,0,0,0,0,0,0,0,0,-1,1000,1464,0,0
-217,-440,0,0,0,0,0,0,0,0,0,-1,1007,1464,0,0
-210,-440,0,0,0,0,0,0,0,0,0,-1,1014,1464,0,0
-203,-440,0,0,0,0,0,0,0,0,0,-1,1021,1464,0,0
-196,-440,0,0,0,0,0,0,0,0,0,-1,1028,1464,0,0
-189,-440,0,0,0,0,0,0,0,0,0,-1,1035,1464,0,0
-182,-440,0,0,0,0,0,0,0,0,0,-1,1042,1464,0,0
-175,-440,0,0,0,0,0,0,0,0,0,-1,1049,1464,0,0
-168,-440,0,0,0,0,0,0,0,0,0,-1,1056,1464,0,0
-161,-440,0,0,0,0,0,0,0,0,0,-1,1063,1464,0,0
-154,-440,0,0,0,0,0,0,0,0,0,-1,1070,1464,0,0
-147,-440,0,0,0,0,0,0,0,0,0,-1,1077,1464,0,0
-140,-440,0,0,0,0,0,0,0,0,0,-1,1084,1464,0,0
-133,-440,0,0,0,0,0,0,0,0,0,-1,1091,1464,0,0
-126,-440,0,0,0,0,0,0,0,0,0,-1,1098,1464,0,0
-119,-440,0,0,0,0,0,0,0,0,0,-1,1105,1464,0,0
-112,-440,0,0,0,0,0,0,0,0,0,-1,1112,1464,0,0
-105,-440,0,0,0,0,0,0,0,0,0,-1,1119,1464,0,0
-98,-440,0,0,0,0,0,0,0,0,0,-1,1126,1464,0,0
-91,-440,0,0,0,0,0,0,0,0,0,-1,1133,1464,0,0
-84,-440,0,0,0,0,0,0,0,0,0,-1,1140,1464,0,0
-77,-440,0,0,0,0,0,0,0,0,0,-1,1147,1464,0,0
-70,-440,0,0,0,0,0,0,0,0,0,-1,1154,1464,0,0
-63,-440,0,0,0,0,0,0,0,0,0,-1,1161,1464,0,0
-56,-440,0,0,0,0,0,0,0,0,0,-1,1168,1464,0,0
-49,-440,0,0,0,0,0,0,0,0,0,-1,1175,1464,0,0
-42,-440,0,0,0,0,0,0,0,0,0,-1,1182,1464,0,0
-35,-440,0,0,0,0,0,0,0,0,0,-1,1189,1464,0,0
-28,-440,0,0,0,0,0,0,0,0,0,-1,1196,1464,0,0
-21,-440,0,0,0,0,0,0,0,0,0,-1,1203,1464,0,0
-14,-440,0,0,0,0,0,0,0,0,0,-1,1210,1464,0,0
-7,-440,0,0,0,0,0,0,0,0,0,-1,1217,1464,0,0
0,-440,0,0,0,0,0,0,0,0,0,-1,1224,1464,0,0
7,-440,0,0,0,0,0,0,0,0,0,-1,1231,1464,0,0
14,-440,0,0,0,0,0,0,0,0,0,-1,1238,1464,0,0
21,-440,0,0,0,0,0,0,0,0,0,-1,1245,1464,0,0
28,-440,0,0,0,0,0,0,0,0,0,-1,1252,1464,0,0
35,-440,0,0,0,0,0,0,0,0,0,-1,1259,1464,0,0
42,-440,0,0,0,0,0,0,0,0,0,-1,1266,1464,0,0
49,-440,0,0,0,0,0,0,0,0,0,-1,1273,1464,0,0
56,-440,0,0,0,0,0,0,0,0,0,-1,1280,1464,0,0
63,-440,0,0,0,0,0,0,0,0,0,-1,1287,1464,0,0
70,-440,0,0,0,0,0,0,0,0,0,-1,1294,1464,0,0
77,-440,0,0,0,0,0,0,0,0,0,-1,1301,1464,0,0
84,-440,0,0,0,0,0,0,0,0,0,-1,1308,1464,0,0
91,-440,0,0,0,0,0,0,0,0,0,-1,1315,1464,0,0
98,-440,0,0,0,0,0,0,0,0,0,-1,1322,1464,0,0
105,-440,0,0,0,0,0,0,0,0,0,-1,1329,1464,0,0
112,-440,0,0,0,0,0,0,0,0,0,-1,1336,1464,0,0
119,-440,0,0,0,0,0,0,0,0,0,-1,1343,1464,0,0
126,-440,0,0,0,0,0,0,0,0,0,-1,1350,1464,0,0
133,-440,0,0,0,0,0,0,0,0,0,-1,1357,1464,0,0
140,-440,0,0,0,0,0,0,0,0,0,-1,1364,1464,0,0
147,-440,0,0,0,0,0,0,0,0,0,-1,1371,1464,0,0
154,-440,0,0,0,0,0,0,0,0,0,-1,1378,1464,0,0
161,-440,0,0,0,0,0,0,0,0,0,-1,1385,1464,0,0
168,-440,0,0,0,0,0,0,0,0,0,-1,1392,1464,0,0
175,-440,0,0,0,0,0,0,0,0,0,-1,1399,1464,0,0
182,-440,0,0,0,0,0,0,0,0,0,-1,1406,1464,0,0
189,-440,0,0,0,0,0,0,0,0,0,-1,1413,1464,0,0
196,-440,0,0,0,0,0,0,0,0,0,-1,1420,1464,0,0
203,-440,0,0,0,0,0,0,0,0,0,-1,1427,1464,0,0
210,-440,0,0,0,0,0,0,0,0,0,-1,1434,1464,0,0
217,-440,0,0,0,0,0,0,0,0,0,-1,1441,1464,0,0
224,-440,0,0,0,0,0,0,0,0,0,-1,1448,1464,0,0
231,-440,0,0,0,0,0,0,0,0,0,-1,1455,1464,0,0
238,-440,0,0,0,0,0,0,0,0,0,-1,1462,1464,0,0
245,-440,0,0,0,0,0,0,0,0,0,-1,1469,1464,0,0
252,-440,0,0,0,0,0,0,0,0,0,-1,1476,1464,0,0
259,-440,0,0,0,0,0,0,0,0,0,-1,1483,1464,0,0
266,-440,0,0,0,0,0,0,0,0,0,-1,1490,1464,0,0
273,-440,0,0,0,0,0,0,0,0,0,-1,1497,1464,0,0
280,-440,0,0,0,0,0,0,0,0,0,-1,1504,1464,0,0
287,-440,0,0,0,0,0,0,0,0,0,-1,1511,1464,0,0
294,-440,0,0,0,0,0,0,0,0,0,-1,1518,1464,0,0
301,-440,0,0,0,0,0,0,0,0,0,-1,1525,1464,0,0
308,-440,0,0,0,0,0,0,0,0,0,-1,1532,1464,0,0
315,-440,0,0,0,0,0,0,0,0,0,-1,1539,1464,0,0
322,-440,0,0,0,0,0,0,0,0,0,-1,1546,1464,0,0
329,-440,0,0,0,0,0,0,0,0,0,-1,1553,1464,0,0
336,-440,0,0,0,0,0,0,0,0,0,-1,1560,1464,0,0
343,-440,0,0,0,0,0,0,0,0,0,-1,1567,1464,0,0
350,-440,0,0,0,0,0,0,0,0,0,-1,1574,1464,0,0
357,-440,0,0,0,0,0,0,0,0,0,-1,1581,1464,0,0
364,-440,0,0,0,0,0,0,0,0,0,-1,1588,1464,0,0
371,-440,0,0,0,0,0,0,0,0,0,-1,1595,1464,0,0
378,-440,0,0,0,0,0,0,0,0,0,-1,1602,1464,0,0
385,-440,0,0,0,0,0,0,0,0,0,-1,1609,1464,0,0
392,-440,0,0,0,0,0,0,0,0,0,-1,1616,1464,0,0
399,-440,0,0,0,0,0,0,0,0,0,-1,1623,1464,0,0
406,-440,0,0,0,0,0,0,0,0,0,-1,1630,1464,0,0
413,-440,0,0,0,0,0,0,0,0,0,-1,1637,1464,0,0
420,-440,0,0,0,0,0,0,0,0,0,-1,1644,1464,0,0
427,-440,0,0,0,0,0,0,0,0,0,-1,1651,1464,0,0
434,-440,0,0,0,0,0,0,0,0,0,-1,1658,1464,0,0
441,-440,0,0,0,0,0,0,0,0,0,-1,1665,1464,0,0
448,-440,0,0,0,0,0,0,0,0,0,-1,1672,1464,0,0
455,-440,0,0,0,0,0,0,0,0,0,-1,1679,1464,0,0
462,-440,0,0,0,0,0,0,0,0,0,-1,1686,1464,0,0
469,-440,0,0,0,0,0,0,0,0,0,-1,1693,1464,0,0
476,-440,0,0,0,0,0,0,0,0,0,-1,1700,1464,0,0
483,-440,0,0,0,0,0,0,0,0,0,-1,1707,1464,0,0
490,-440,0,0,0,0,0,0,0,0,0,-1,1714,1464,0,0
497,-440,16.965,-0.528442,0,0,0,0,0,0,0,-1,1721,1464,16.965,0.528492
504,-440,15.8052,0.670166,0,0,0,0,0,0,0,-1,1728,1464,15.8052,-0.670145
511,-440,17.5754,2.77832,0,0,0,0,0,0,0,-1,1735,1464,17.5754,-2.77826
518,-440,16.9017,3.07861,0,0,0,0,0,0,0,-1,1742,1464,16.9018,-3.07859
525,-440,18.4495,12.0867,0,0,0,0,0,0,0,-1,1749,1464,18.4495,-12.0867
532,-440,15.4319,3.64392,0,0,0,0,0,0,0,-1,1756,1464,15.4318,-3.64391
539,-440,14.8214,3.41321,0,0,0,0,0,0,0,-1,1763,1464,14.8214,-3.4132
546,-440,14.8651,10.7683,0,0,0,0,0,0,0,-1,1770,1464,14.8651,-10.7683
553,-440,15.1213,11.4121,0,0,0,0,0,0,0,-1,1777,1464,15.1213,-11.4121
560,-440,17.4325,12.5394,0,0,0,0,0,0,0,-1,1784,1464,17.4325,-12.5394
567,-440,16.9025,12.4249,0,0,0,0,0,0,0,-1,1791,1464,16.9025,-12.425
574,-440,19.2841,14.8679,0,0,0,0,0,0,0,-1,1798,1464,19.2841,-14.868
581,-440,26.4432,21.3477,0,0,0,0,0,0,0,-1,1805,1464,26.4432,-21.3476
588,-440,36.9178,30.1232,0,0,0,0,0,0,0,-1,1812,1464,36.9179,-30.1232
595,-440,36.9373,29.1019,0.00530211,0.00233453,-0.00311229,0.00726621,0.000370426,-0.56296,0.00472551,0.0360165,1819,1464,36.9373,-29.1019
602,-440,37.0286,28.1304,0.00396162,0.00165298,-0.00222094,0.00531031,0.000304295,-0.54574,0.00344326,0.0212763,1826,1464,37.0286,-28.1304
609,-440,36.989,27.3026,0.00298512,0.00112239,-0.00149609,0.00381606,0.000291455,-0.506987,0.00245267,0.0179107,1833,1464,36.989,-27.3026
616,-440,36.942,26.476,0.00220627,0.000631348,-0.000838846,0.00256936,0.000268263,-0.408492,0.00163085,0.018883,1840,1464,36.942,-26.476
623,-440,36.8889,25.5824,0.00181572,0.000381391,-0.000413167,0.00192622,0.00027089,-0.261334,0.00120405,0.0146424,1847,1464,36.8889,-25.5824
630,-440,36.8309,24.6868,0.0018105,0.000106401,-0.000113344,0.00181801,9.88953e-05,-0.0661243,0.00118042,0.0121225,1854,1464,36.8309,-24.6867
637,-440,36.8079,23.8658,0.00200109,-4.97835e-05,6.3209e-05,0.00200304,-5.17298e-05,0.0307815,0.00135293,0.0167017,1861,1464,36.8079,-23.8659
644,-440,36.7783,23.0336,0.00248597,-2.10145e-05,-6.96622e-07,0.00248597,-2.10148e-05,-0.000277872,0.00166437,0.0172092,1868,1464,36.7783,-23.0336
651,-440,36.7693,22.0824,0.00339245,0.000171922,-0.000421777,0.00344677,0.0001176,-0.128088,0.00225967,0.0296133,1875,1464,36.7693,-22.0824
658,-440,36.8391,20.9729,0,0,0,0,0,0,0,-1,1882,1464,36.8391,-20.9729
665,-440,24.2067,12.5813,0,0,0,0,0,0,0,-1,1889,1464,24.2067,-12.5813
672,-440,18.9385,9.6394,0,0,0,0,0,0,0,-1,1896,1464,18.9384,-9.63939
679,-440,16.9508,10.2336,0,0,0,0,0,0,0,-1,1903,1464,16.9508,-10.2337
686,-440,15.2556,8.44177,0,0,0,0,0,0,0,-1,1910,1464,15.2556,-8.44177
693,-440,9.88635,2.89795,0,0,0,0,0,0,0,-1,1917,1464,9.88638,-2.89798
700,-440,7.07825,-2.62061,0,0,0,0,0,0,0,-1,1924,1464,7.07829,2.62057
707,-440,0,0,0,0,0,0,0,0,0,-1,1931,1464,0,0
714,-440,0,0,0,0,0,0,0,0,0,-1,1938,1464,0,0
721,-440,0,0,0,0,0,0,0,0,0,-1,1945,1464,0,0
728,-440,0,0,0,0,0,0,0,0,0,-1,1952,1464,0,0
735,-440,0,0,0,0,0,0,0,0,0,-1,1959,1464,0,0
742,-440,0,0,0,0,0,0,0,0,0,-1,1966,1464,0,0
749,-440,0,0,0,0,0,0,0,0,0,-1,1973,1464,0,0
756,-440,0,0,0,0,0,0,0,0,0,-1,1980,1464,0,0
763,-440,0,0,0,0,0,0,0,0,0,-1,1987,1464,0,0
770,-440,0,0,0,0,0,0,0,0,0,-1,1994,1464,0,0
777,-440,0,0,0,0,0,0,0,0,0,-1,2001,1464,0,0
784,-440,0,0,0,0,0,0,0,0,0,-1,2008,1464,0,0
791,-440,0,0,0,0,0,0,0,0,0,-1,2015,1464,0,0
798,-440,0,0,0,0,0,0,0,0,0,-1,2022,1464,0,0
805,-440,0,0,0,0,0,0,0,0,0,-1,2029,1464,0,0
812,-440,0,0,0,0,0,0,0,0,0,-1,2036,1464,0,0
-700,-447,0,0,0,0,0,0,0,0,0,-1,524,1471,0,0
-693,-447,0,0,0,0,0,0,0,0,0,-1,531,1471,0,0
-686,-447,0,0,0,0,0,0,0,0,0,-1,538,1471,0,0
-679,-447,0,0,0,0,0,0,0,0,0,-1,545,1471,0,0
-672,-447,0,0,0,0,0,0,0,0,0,-1,552,1471,0,0
-665,-447,0,0,0,0,0,0,0,0,0,-1,559,1471,0,0
-658,-447,0,0,0,0,0,0,0,0,0,-1,566,1471,0,0
-651,-447,0,0,0,0,0,0,0,0,0,-1,573,1471,0,0
-644,-447,0,0,0,0,0,0,0,0,0,-1,580,1471,0,0
-637,-447,0,0,0,0,0,0,0,0,0,-1,587,1471,0,0
-630,-447,0,0,0,0,0,0,0,0,0,-1,594,1471,0,0
-623,-447,0,0,0,0,0,0,0,0,0,-1,601,1471,0,0
-616,-447,0,0,0,0,0,0,0,0,0,-1,608,1471,0,0
-609,-447,0,0,0,0,0,0,0,0,0,-1,615,1471,0,0
-602,-447,0,0,0,0,0,0,0,0,0,-1,622,1471,0,0
-595,-447,0,0,0,0,0,0,0,0,0,-1,629,1471,0,0
-588,-447,0,0,0,0,0,0,0,0,0,-1,636,1471,0,0
-581,-447,-7.06482,-1.50476,0,0,0,0,0,0,0,-1,643,1471,-7.0648,1.50474
-574,-447,-6.88092,-0.00585938,0,0,0,0,0,0,0,-1,650,1471,-6.88095,0.00589852
-567,-447,-6.8205,-1.32178,0,0,0,0,0,0,0,-1,657,1471,-6.82047,1.32172
-560,-447,-8.85748,2.80774,0,0,0,0,0,0,0,-1,664,1471,-8.85748,-2.80775
-553,-447,-7.60486,3.26794,0,0,0,0,0,0,0,-1,671,1471,-7.60487,-3.26799
-546,-447,-3.94501,1.8656,0,0,0,0,0,0,0,-1,678,1471,-3.945,-1.86554
-539,-447,-5.35492,4.50024,0,0,0,0,0,0,0,-1,685,1471,-5.35492,-4.50018
-532,-447,-6.12781,8.81091,0,0,0,0,0,0,0,-1,692,1471,-6.12781,-8.81094
-525,-447,-9.44501,12.098,0,0,0,0,0,0,0,-1,699,1471,-9.44502,-12.098
-518,-447,-18.4841,22.3352,0,0,0,0,0,0,0,-1,706,1471,-18.4842,-22.3352
-511,-447,-18.4312,23.3455,0.00318138,0.00581169,0.00522615,0.00988562,-0.00089255,0.908663,0.00690718,0.0328178,713,1471,-18.4312,-23.3454
-504,-447,-18.436,24.3828,0.00240411,0.00436487,0.00392762,0.00743261,-0.00066364,0.907704,0.00519045,0.0202232,720,1471,-18.436,-24.3829
-497,-447,-18.5866,25.2509,0.00180938,0.00315012,0.00282667,0.00538483,-0.000425329,0.901826,0.00373973,0.0246276,727,1471,-18.5866,-25.2509
-490,-447,-18.611,26.0381,0.00137242,0.00215642,0.00191837,0.00372243,-0.000193591,0.886181,0.0025486,0.025045,734,1471,-18.611,-26.0381
-483,-447,-18.6794,26.9285,0.00115385,0.00140443,0.00124291,0.00252835,2.99305e-05,0.835631,0.00167568,0.0225576,741,1471,-18.6794,-26.9285
-476,-447,-18.6999,27.8113,0.00104441,0.000880281,0.000750053,0.00171688,0.000207817,0.730908,0.00108198,0.0148219,748,1471,-18.6999,-27.8113
-469,-447,-18.7531,28.7365,0.00107631,0.000653344,0.000459199,0.00137038,0.000359268,0.569605,0.000820484,0.013627,755,1471,-18.7531,-28.7365
-462,-447,-18.8059,29.6453,0.00131644,0.000723036,0.000424247,0.00153744,0.000502033,0.480251,0.000905271,0.0141764,762,1471,-18.8059,-29.6453
-455,-447,-18.8591,30.5104,0.00176076,0.00111369,0.000645011,0.00215883,0.000715616,0.552937,0.00126978,0.0278206,769,1471,-18.859,-30.5103
-448,-447,-18.7737,31.5811,0,0,0,0,0,0,0,-1,776,1471,-18.7737,-31.581
-441,-447,-8.68506,19.0931,0,0,0,0,0,0,0,-1,783,1471,-8.68504,-19.0932
-434,-447,-7.43402,15.6273,0,0,0,0,0,0,0,-1,790,1471,-7.43404,-15.6274
-427,-447,-7.21832,14.691,0,0,0,0,0,0,0,-1,797,1471,-7.21834,-14.6911
-420,-447,-8.0545,12.8055,0,0,0,0,0,0,0,-1,804,1471,-8.05452,-12.8055
-413,-447,-4.27393,6.59705,0,0,0,0,0,0,0,-1,811,1471,-4.27392,-6.59707
-406,-447,-1.04279,6.18591,0,0,0,0,0,0,0,-1,818,1471,-1.04276,-6.18586
-399,-447,0.0134888,0.687622,0,0,0,0,0,0,0,-1,825,1471,0.0134841,-0.68767
-392,-447,-14.0646,3.76147,0,0,0,0,0,0,0,-1,832,1471,-14.0646,-3.7615
-385,-447,-15.1695,2.61865,0,0,0,0,0,0,0,-1,839,1471,-15.1695,-2.61871
-378,-447,-15.9424,1.49316,0,0,0,0,0,0,0,-1,846,1471,-15.9424,-1.49313
-371,-447,-17.3655,0.73291,0,0,0,0,0,0,0,-1,853,1471,-17.3655,-0.732946
-364,-447,0,0,0,0,0,0,0,0,0,-1,860,1471,0,0
-357,-447,0,0,0,0,0,0,0,0,0,-1,867,1471,0,0
-350,-447,0,0,0,0,0,0,0,0,0,-1,874,1471,0,0
-343,-447,0,0,0,0,0,0,0,0,0,-1,881,1471,0,0
-336,-447,0,0,0,0,0,0,0,0,0,-1,888,1471,0,0
-329,-447,0,0,0,0,0,0,0,0,0,-1,895,1471,0,0
-322,-447,0,0,0,0,0,0,0,0,0,-1,902,1471,0,0
-315,-447,0,0,0,0,0,0,0,0,0,-1,909,1471,0,0
-308,-447,0,0,0,0,0,0,0,0,0,-1,916,1471,0,0
-301,-447,0,0,0,0,0,0,0,0,0,-1,923,1471,0,0
-294,-447,0,0,0,0,0,0,0,0,0,-1,930,1471,0,0
-287,-447,0,0,0,0,0,0,0,0,0,-1,937,1471,0,0
-280,-447,0,0,0,0,0,0,0,0,0,-1,944,1471,0,0
-273,-447,0,0,0,0,0,0,0,0,0,-1,951,1471,0,0
-266,-447,0,0,0,0,0,0,0,0,0,-1,958,1471,0,0
-259,-447,0,0,0,0,0,0,0,0,0,-1,965,1471,0,0
-252,-447,0,0,0,0,0,0,0,0,0,-1,972,1471,0,0
-245,-447,0,0,0,0,0,0,0,0,0,-1,979,1471,0,0
-238,-447,0,0,0,0,0,0,0,0,0,-1,986,1471,0,0
-231,-447,0,0,0,0,0,0,0,0,0,-1,993,1471,0,0
-224,-447,0,0,0,0,0,0,0,0,0,-1,1000,1471,0,0
-217,-447,0,0,0,0,0,0,0,0,0,-1,1007,1471,0,0
-210,-447,0,0,0,0,0,0,0,0,0,-1,1014,1471,0,0
-203,-447,0,0,0,0,0,0,0,0,0,-1,1021,1471,0,0
-196,-447,0,0,0,0,0,0,0,0,0,-1,1028,1471,0,0
-189,-447,0,0,0,0,0,0,0,0,0,-1,1035,1471,0,0
-182,-447,0,0,0,0,0,0,0,0,0,-1,1042,1471,0,0
-175,-447,0,0,0,0,0,0,0,0,0,-1,1049,1471,0,0
-168,-447,0,0,0,0,0,0,0,0,0,-1,1056,1471,0,0
-161,-447,0,0,0,0,0,0,0,0,0,-1,1063,1471,0,0
-154,-447,0,0,0,0,0,0,0,0,0,-1,1070,1471,0,0
-147,-447,0,0,0,0,0,0,0,0,0,-1,1077,1471,0,0
-140,-447,0,0,0,0,0,0,0,0,0,-1,1084,1471,0,0
-133,-447,0,0,0,0,0,0,0,0,0,-1,1091,1471,0,0
-126,-447,0,0,0,0,0,0,0,0,0,-1,1098,1471,0,0
-119,-447,0,0,0,0,0,0,0,0,0,-1,1105,1471,0,0
-112,-447,0,0,0,0,0,0,0,0,0,-1,1112,1471,0,0
-105,-447,0,0,0,0,0,0,0,0,0,-1,1119,1471,0,0
-98,-447,0,0,0,0,0,0,0,0,0,-1,1126,1471,0,0
-91,-447,0,0,0,0,0,0,0,0,0,-1,1133,1471,0,0
-84,-447,0,0,0,0,0,0,0,0,0,-1,1140,1471,0,0
-77,-447,0,0,0,0,0,0,0,0,0,-1,1147,1471,0,0
-70,-447,0,0,0,0,0,0,0,0,0,-1,1154,1471,0,0
-63,-447,0,0,0,0,0,0,0,0,0,-1,1161,1471,0,0
-56,-447,0,0,0,0,0,0,0,0,0,-1,1168,1471,0,0
-49,-447,0,0,0,0,0,0,0,0,0,-1,1175,1471,0,0
-42,-447,0,0,0,0,0,0,0,0,0,-1,1182,1471,0,0
-35,-447,0,0,0,0,0,0,0,0,0,-1,1189,1471,0,0
-28,-447,0,0,0,0,0,0,0,0,0,-1,1196,1471,0,0
-21,-447,0,0,0,0,0,0,0,0,0,-1,1203,1471,0,0
-14,-447,0,0,0,0,0,0,0,0,0,-1,1210,1471,0,0
-7,-447,0,0,0,0,0,0,0,0,0,-1,1217,1471,0,0
0,-447,0,0,0,0,0,0,0,0,0,-1,1224,1471,0,0
7,-447,0,0,0,0,0,0,0,0,0,-1,1231,1471,0,0
14,-447,0,0,0,0,0,0,0,0,0,-1,1238,1471,0,0
21,-447,0,0,0,0,0,0,0,0,0,-1,1245,1471,0,0
28,-447,0,0,0,0,0,0,0,0,0,-1,1252,1471,0,0
35,-447,0,0,0,0,0,0,0,0,0,-1,1259,1471,0,0
42,-447,0,0,0,0,0,0,0,0,0,-1,1266,1471,0,0
49,-447,0,0,0,0,0,0,0,0,0,-1,1273,1471,0,0
56,-447,0,0,0,0,0,0,0,0,0,-1,1280,1471,0,0
63,-447,0,0,0,0,0,0,0,0,0,-1,1287,1471,0,0
70,-447,0,0,0,0,0,0,0,0,0,-1,1294,1471,0,0
77,-447,0,0,0,0,0,0,0,0,0,-1,1301,1471,0,0
84,-447,0,0,0,0,0,0,0,0,0,-1,1308,1471,0,0
91,-447,0,0,0,0,0,0,0,0,0,-1,1315,1471,0,0
98,-447,0,0,0,0,0,0,0,0,0,-1,1322,1471,0,0
105,-447,0,0,0,0,0,0,0,0,0,-1,1329,1471,0,0
112,-447,0,0,0,0,0,0,0,0,0,-1,1336,1471,0,0
119,-447,0,0,0,0,0,0,0,0,0,-1,1343,1471,0,0
126,-447,0,0,0,0,0,0,0,0,0,-1,1350,1471,0,0
133,-447,0,0,0,0,0,0,0,0,0,-1,1357,1471,0,0
140,-447,0,0,0,0,0,0,0,0,0,-1,1364,1471,0,0
147,-447,0,0,0,0,0,0,0,0,0,-1,1371,1471,0,0
154,-447,0,0,0,0,0,0,0,0,0,-1,1378,1471,0,0
161,-447,0,0,0,0,0,0,0,0,0,-1,1385,1471,0,0
168,-447,0,0,0,0,0,0,0,0,0,-1,1392,1471,0,0
175,-447,0,0,0,0,0,0,0,0,0,-1,1399,1471,0,0
182,-447,0,0,0,0,0,0,0,0,0,-1,1406,1471,0,0
189,-447,0,0,0,0,0,0,0,0,0,-1,1413,1471,0,0
196,-447,0,0,0,0,0,0,0,0,0,-1,1420,1471,0,0
203,-447,0,0,0,0,0,0,0,0,0,-1,1427,1471,0,0
210,-447,0,0,0,0,0,0,0,0,0,-1,1434,1471,0,0
217,-447,0,0,0,0,0,0,0,0,0,-1,1441,1471,0,0
224,-447,0,0,0,0,0,0,0,0,0,-1,1448,1471,0,0
231,-447,0,0,0,0,0,0,0,0,0,-1,1455,1471,0,0
238,-447,0,0,0,0,0,0,0,0,0,-1,1462,1471,0,0
245,-447,0,0,0,0,0,0,0,0,0,-1,1469,1471,0,0
252,-447,0,0,0,0,0,0,0,0,0,-1,1476,1471,0,0
259,-447,0,0,0,0,0,0,0,0,0,-1,1483,1471,0,0
266,-447,0,0,0,0,0,0,0,0,0,-1,1490,1471,0,0
273,-447,0,0,0,0,0,0,0,0,0,-1,1497,1471,0,0
280,-447,0,0,0,0,0,0,0,0,0,-1,1504,1471,0,0
287,-447,0,0,0,0,0,0,0,0,0,-1,1511,1471,0,0
294,-447,0,0,0,0,0,0,0,0,0,-1,1518,1471,0,0
301,-447,0,0,0,0,0,0,0,0,0,-1,1525,1471,0,0
308,-447,0,0,0,0,0,0,0,0,0,-1,1532,1471,0,0
315,-447,0,0,0,0,0,0,0,0,0,-1,1539,1471,0,0
322,-447,0,0,0,0,0,0,0,0,0,-1,1546,1471,0,0
329,-447,0,0,0,0,0,0,0,0,0,-1,1553,1471,0,0
336,-447,0,0,0,0,0,0,0,0,0,-1,1560,1471,0,0
343,-447,0,0,0,0,0,0,0,0,0,-1,1567,1471,0,0
350,-447,0,0,0,0,0,0,0,0,0,-1,1574,1471,0,0
357,-447,0,0,0,0,0,0,0,0,0,-1,1581,1471,0,0
364,-447,0,0,0,0,0,0,0,0,0,-1,1588,1471,0,0
371,-447,0,0,0,0,0,0,0,0,0,-1,1595,1471,0,0
378,-447,0,0,0,0,0,0,0,0,0,-1,1602,1471,0,0
385,-447,0,0,0,0,0,0,0,0,0,-1,1609,1471,0,0
392,-447,0,0,0,0,0,0,0,0,0,-1,1616,1471,0,0
399,-447,0,0,0,0,0,0,0,0,0,-1,1623,1471,0,0
406,-447,0,0,0,0,0,0,0,0,0,-1,1630,1471,0,0
413,-447,0,0,0,0,0,0,0,0,0,-1,1637,1471,0,0
420,-447,0,0,0,0,0,0,0,0,0,-1,1644,1471,0,0
427,-447,0,0,0,0,0,0,0,0,0,-1,1651,1471,0,0
434,-447,0,0,0,0,0,0,0,0,0,-1,1658,1471,0,0
441,-447,0,0,0,0,0,0,0,0,0,-1,1665,1471,0,0
448,-447,0,0,0,0,0,0,0,0,0,-1,1672,1471,0,0
455,-447,0,0,0,0,0,0,0,0,0,-1,1679,1471,0,0
462,-447,0,0,0,0,0,0,0,0,0,-1,1686,1471,0,0
469,-447,0,0,0,0,0,0,0,0,0,-1,1693,1471,0,0
476,-447,0,0,0,0,0,0,0,0,0,-1,1700,1471,0,0
483,-447,0,0,0,0,0,0,0,0,0,-1,1707,1471,0,0
490,-447,18.2214,-0.810303,0,0,0,0,0,0,0,-1,1714,1471,18.2215,0.810307
497,-447,17.0237,0.352417,0,0,0,0,0,0,0,-1,1721,1471,17.0237,-0.352442
504,-447,15.8998,1.53479,0,0,0,0,0,0,0,-1,1728,1471,15.8997,-1.53478
511,-447,14.7201,2.76111,0,0,0,0,0,0,0,-1,1735,1471,14.7201,-2.76107
518,-447,17.7618,13.2864,0,0,0,0,0,0,0,-1,1742,1471,17.7619,-13.2863
525,-447,17.1191,11.9014,0,0,0,0,0,0,0,-1,1749,1471,17.1191,-11.9013
532,-447,16.3959,10.0455,0,0,0,0,0,0,0,-1,1756,1471,16.3959,-10.0456
539,-447,14.1699,10.0204,0,0,0,0,0,0,0,-1,1763,1471,14.1699,-10.0204
546,-447,16.3715,11.8046,0,0,0,0,0,0,0,-1,1770,1471,16.3714,-11.8046
553,-447,17.5106,13.4012,0,0,0,0,0,0,0,-1,1777,1471,17.5107,-13.4012
560,-447,17.0187,13.168,0,0,0,0,0,0,0,-1,1784,1471,17.0187,-13.168
567,-447,18.9286,15.1703,0,0,0,0,0,0,0,-1,1791,1471,18.9286,-15.1703
574,-447,32.1848,27.6504,0,0,0,0,0,0,0,-1,1798,1471,32.1848,-27.6503
581,-447,36.0109,30.9869,0,0,0,0,0,0,0,-1,1805,1471,36.0109,-30.987
588,-447,36.2134,30.0309,0.00668182,0.002676,-0.00345616,0.00867349,0.000684322,-0.522786,0.00556826,0.0428347,1812,1471,36.2134,-30.0308
595,-447,36.2144,29.1016,0.00492409,0.00204599,-0.00270071,0.00654522,0.000424862,-0.540611,0.00422898,0.0153641,1819,1471,36.2143,-29.1016
602,-447,36.1584,28.2035,0.00365708,0.00141017,-0.00190573,0.00474586,0.000321391,-0.519061,0.0030624,0.0127046,1826,1471,36.1585,-28.2035
609,-447,36.0905,27.3435,0.00274952,0.000938059,-0.00122043,0.00336359,0.000323989,-0.466171,0.00214258,0.0138024,1833,1471,36.0905,-27.3435
616,-447,36.0765,26.4974,0.00203229,0.000487481,-0.000577349,0.00222422,0.000295551,-0.32094,0.00139477,0.015577,1840,1471,36.0766,-26.4974
623,-447,36.0352,25.6515,0.00168907,0.000245987,-0.000121181,0.00169918,0.000235882,-0.0831973,0.00106292,0.0171981,1847,1471,36.0351,-25.6515
630,-447,35.9615,24.7683,0.001687,-1.94672e-05,0.000262433,0.00172644,-5.89144e-05,0.149196,0.00117109,0.0109522,1854,1471,35.9615,-24.7683
637,-447,35.9438,23.9196,0.0018584,-0.00016961,0.000545462,0.0019958,-0.000307011,0.246764,0.00144379,0.0116236,1861,1471,35.9438,-23.9196
644,-447,35.9218,23.0779,0.00230013,-0.000129677,0.000610094,0.00244471,-0.00027426,0.232693,0.0017285,0.0144418,1868,1471,35.9218,-23.0779
651,-447,36.0408,21.9589,0,0,0,0,0,0,0,-1,1875,1471,36.0408,-21.9589
658,-447,30.2566,16.5862,0,0,0,0,0,0,0,-1,1882,1471,30.2566,-16.5862
665,-447,18.4946,9.79919,0,0,0,0,0,0,0,-1,1889,1471,18.4946,-9.79922
672,-447,18.9784,9.66077,0,0,0,0,0,0,0,-1,1896,1471,18.9784,-9.66081
679,-447,14.844,7.4248,0,0,0,0,0,0,0,-1,1903,1471,14.844,-7.42477
686,-447,9.81079,4.30859,0,0,0,0,0,0,0,-1,1910,1471,9.8108,-4.30864
693,-447,10.48,2.08643,0,0,0,0,0,0,0,-1,1917,1471,10.48,-2.08642
700,-447,0,0,0,0,0,0,0,0,0,-1,1924,1471,0,0
707,-447,0,0,0,0,0,0,0,0,0,-1,1931,1471,0,0
714,-447,0,0,0,0,0,0,0,0,0,-1,1938,1471,0,0
721,-447,0,0,0,0,0,0,0,0,0,-1,1945,1471,0,0
728,-447,0,0,0,0,0,0,0,0,0,-1,1952,1471,0,0
735,-447,0,0,0,0,0,0,0,0,0,-1,1959,1471,0,0
742,-447,0,0,0,0,0,0,0,0,0,-1,1966,1471,0,0
749,-447,0,0,0,0,0,0,0,0,0,-1,1973,1471,0,0
756,-447,0,0,0,0,0,0,0,0,0,-1,1980,1471,0,0
763,-447,0,0,0,0,0,0,0,0,0,-1,1987,1471,0,0
770,-447,0,0,0,0,0,0,0,0,0,-1,1994,1471,0,0
777,-447,0,0,0,0,0,0,0,0,0,-1,2001,1471,0,0
784,-447,0,0,0,0,0,0,0,0,0,-1,2008,1471,0,0
791,-447,0,0,0,0,0,0,0,0,0,-1,2015,1471,0,0
798,-447,0,0,0,0,0,0,0,0,0,-1,2022,1471,0,0
805,-447,0,0,0,0,0,0,0,0,0,-1,2029,1471,0,0
812,-447,0,0,0,0,0,0,0,0,0,-1,2036,1471,0,0
-700,-454,0,0,0,0,0,0,0,0,0,-1,524,1478,0,0
-693,-454,0,0,0,0,0,0,0,0,0,-1,531,1478,0,0
-686,-454,0,0,0,0,0,0,0,0,0,-1,538,1478,0,0
-679,-454,0,0,0,0,0,0,0,0,0,-1,545,1478,0,0
-672,-454,0,0,0,0,0,0,0,0,0,-1,552,1478,0,0
-665,-454,0,0,0,0,0,0,0,0,0,-1,559,1478,0,0
-658,-454,0,0,0,0,0,0,0,0,0,-1,566,1478,0,0
-651,-454,0,0,0,0,0,0,0,0,0,-1,573,1478,0,0
-644,-454,0,0,0,0,0,0,0,0,0,-1,580,1478,0,0
-637,-454,0,0,0,0,0,0,0,0,0,-1,587,1478,0,0
-630,-454,0,0,0,0,0,0,0,0,0,-1,594,1478,0,0
-623,-454,0,0,0,0,0,0,0,0,0,-1,601,1478,0,0
-616,-454,0,0,0,0,0,0,0,0,0,-1,608,1478,0,0
-609,-454,0,0,0,0,0,0,0,0,0,-1,615,1478,0,0
-602,-454,0,0,0,0,0,0,0,0,0,-1,622,1478,0,0
-595,-454,0,0,0,0,0,0,0,0,0,-1,629,1478,0,0
-588,-454,0,0,0,0,0,0,0,0,0,-1,636,1478,0,0
-581,-454,0,0,0,0,0,0,0,0,0,-1,643,1478,0,0
-574,-454,-8.4881,-0.465942,0,0,0,0,0,0,0,-1,650,1478,-8.4881,0.465885
-567,-454,-8.10046,0.922974,0,0,0,0,0,0,0,-1,657,1478,-8.10047,-0.923034
-560,-454,-10.656,3.51172,0,0,0,0,0,0,0,-1,664,1478,-10.656,-3.51176
-553,-454,-9.01129,3.95251,0,0,0,0,0,0,0,-1,671,1478,-9.0113,-3.95256
-546,-454,-9.61896,6.05237,0,0,0,0,0,0,0,-1,678,1478,-9.61897,-6.05239
-539,-454,-7.72589,4.96533,0,0,0,0,0,0,0,-1,685,1478,-7.72592,-4.96532
-532,-454,-7.03931,7.59985,0,0,0,0,0,0,0,-1,692,1478,-7.03929,-7.59981
-525,-454,-5.78723,9.677,0,0,0,0,0,0,0,-1,699,1478,-5.78722,-9.67703
-518,-454,-9.82098,13.8295,0,0,0,0,0,0,0,-1,706,1478,-9.82098,-13.8295
-511,-454,-17.6329,23.3021,0,0,0,0,0,0,0,-1,713,1478,-17.633,-23.3021
-504,-454,-17.5991,24.3682,0.00282595,0.00544544,0.00493585,0.00924236,-0.000970977,0.915086,0.00650942,0.0224198,720,1478,-17.5991,-24.3681
-497,-454,-17.6796,25.3424,0.00217945,0.00400154,0.00364526,0.00684787,-0.000666886,0.907853,0.004803,0.0183301,727,1478,-17.6796,-25.3424
-490,-454,-17.7088,26.1594,0.00170544,0.00284326,0.00259917,0.00493505,-0.000386348,0.893139,0.00342608,0.0175336,734,1478,-17.7088,-26.1595
-483,-454,-17.7787,27.0278,0.00139589,0.00191984,0.00176998,0.00344713,-0.000131398,0.858869,0.00234311,0.0159385,741,1478,-17.7787,-27.0279
-476,-454,-17.8524,27.8955,0.00121046,0.00128115,0.00116096,0.0024073,8.43079e-05,0.800616,0.00157751,0.0143995,748,1478,-17.8524,-27.8955
-469,-454,-17.8893,28.7861,0.00116674,0.000961587,0.000768633,0.00183961,0.000288718,0.719063,0.0011424,0.0112673,755,1478,-17.8893,-28.7862
-462,-454,-17.9474,29.6987,0.0013259,0.000942642,0.000629712,0.00179249,0.000476046,0.637695,0.00107214,0.0122901,762,1478,-17.9474,-29.6988
-455,-454,-17.9915,30.5872,0.00167255,0.0012492,0.0007554,0.00224537,0.000676379,0.648793,0.00133007,0.0134256,769,1478,-17.9915,-30.5872
-448,-454,-18.0018,31.4849,0.00213456,0.00190772,0.00116102,0.00318768,0.000854592,0.736707,0.00190525,0.0277509,776,1478,-18.0018,-31.4849
-441,-454,-17.8339,32.5553,0,0,0,0,0,0,0,-1,783,1478,-17.834,-32.5552
-434,-454,-7.55743,19.4857,0,0,0,0,0,0,0,-1,790,1478,-7.55746,-19.4858
-427,-454,-6.00183,15.8636,0,0,0,0,0,0,0,-1,797,1478,-6.00184,-15.8637
-420,-454,-6.28088,15.2135,0,0,0,0,0,0,0,-1,804,1478,-6.28087,-15.2135
-413,-454,-5.4408,13.674,0,0,0,0,0,0,0,-1,811,1478,-5.44079,-13.6739
-406,-454,-2.38208,10.0308,0,0,0,0,0,0,0,-1,818,1478,-2.38209,-10.0308
-399,-454,-1.21033,6.95447,0,0,0,0,0,0,0,-1,825,1478,-1.21035,-6.95452
-392,-454,0.0967407,0.985474,0,0,0,0,0,0,0,-1,832,1478,0.0967364,-0.985529
-385,-454,2.38629,3.297,0,0,0,0,0,0,0,-1,839,1478,2.38629,-3.29702
-378,-454,-15.9756,2.83997,0,0,0,0,0,0,0,-1,846,1478,-15.9756,-2.83994
-371,-454,-17.2753,2.01453,0,0,0,0,0,0,0,-1,853,1478,-17.2753,-2.01455
-364,-454,1.08124,0.819458,0,0,0,0,0,0,0,-1,860,1478,1.08124,-0.819513
-357,-454,0,0,0,0,0,0,0,0,0,-1,867,1478,0,0
-350,-454,0,0,0,0,0,0,0,0,0,-1,874,1478,0,0
-343,-454,0,0,0,0,0,0,0,0,0,-1,881,1478,0,0
-336,-454,0,0,0,0,0,0,0,0,0,-1,888,1478,0,0
-329,-454,0,0,0,0,0,0,0,0,0,-1,895,1478,0,0
-322,-454,0,0,0,0,0,0,0,0,0,-1,902,1478,0,0
-315,-454,0,0,0,0,0,0,0,0,0,-1,909,1478,0,0
-308,-454,0,0,0,0,0,0,0,0,0,-1,916,1478,0,0
-301,-454,0,0,0,0,0,0,0,0,0,-1,923,1478,0,0
-294,-454,0,0,0,0,0,0,0,0,0,-1,930,1478,0,0
-287,-454,0,0,0,0,0,0,0,0,0,-1,937,1478,0,0
-280,-454,0,0,0,0,0,0,0,0,0,-1,944,1478,0,0
-273,-454,0,0,0,0,0,0,0,0,0,-1,951,1478,0,0
-266,-454,0,0,0,0,0,0,0,0,0,-1,958,1478,0,0
-259,-454,0,0,0,0,0,0,0,0,0,-1,965,1478,0,0
-252,-454,0,0,0,0,0,0,0,0,0,-1,972,1478,0,0
-245,-454,0,0,0,0,0,0,0,0,0,-1,979,1478,0,0
-238,-454,0,0,0,0,0,0,0,0,0,-1,986,1478,0,0
-231,-454,0,0,0,0,0,0,0,0,0,-1,993,1478,0,0
-224,-454,0,0,0,0,0,0,0,0,0,-1,1000,1478,0,0
-217,-454,0,0,0,0,0,0,0,0,0,-1,1007,1478,0,0
-210,-454,0,0,0,0,0,0,0,0,0,-1,1014,1478,0,0
-203,-454,0,0,0,0,0,0,0,0,0,-1,1021,1478,0,0
-196,-454,0,0,0,0,0,0,0,0,0,-1,1028,1478,0,0
-189,-454,0,0,0,0,0,0,0,0,0,-1,1035,1478,0,0
-182,-454,0,0,0,0,0,0,0,0,0,-1,1042,1478,0,0
-175,-454,0,0,0,0,0,0,0,0,0,-1,1049,1478,0,0
-168,-454,0,0,0,0,0,0,0,0,0,-1,1056,1478,0,0
-161,-454,0,0,0,0,0,0,0,0,0,-1,1063,1478,0,0
-154,-454,0,0,0,0,0,0,0,0,0,-1,1070,1478,0,0
-147,-454,0,0,0,0,0,0,0,0,0,-1,1077,1478,0,0
-140,-454,0,0,0,0,0,0,0,0,0,-1,1084,1478,0,0
-133,-454,0,0,0,0,0,0,0,0,0,-1,1091,1478,0,0
-126,-454,0,0,0,0,0,0,0,0,0,-1,1098,1478,0,0
-119,-454,0,0,0,0,0,0,0,0,0,-1,1105,1478,0,0
-112,-454,0,0,0,0,0,0,0,0,0,-1,1112,1478,0,0
-105,-454,0,0,0,0,0,0,0,0,0,-1,1119,1478,0,0
-98,-454,0,0,0,0,0,0,0,0,0,-1,1126,1478,0,0
-91,-454,0,0,0,0,0,0,0,0,0,-1,1133,1478,0,0
-84,-454,0,0,0,0,0,0,0,0,0,-1,1140,1478,0,0
-77,-454,0,0,0,0,0,0,0,0,0,-1,1147,1478,0,0
-70,-454,0,0,0,0,0,0,0,0,0,-1,1154,1478,0,0
-63,-454,0,0,0,0,0,0,0,0,0,-1,1161,1478,0,0
-56,-454,0,0,0,0,0,0,0,0,0,-1,1168,1478,0,0
-49,-454,0,0,0,0,0,0,0,0,0,-1,1175,1478,0,0
-42,-454,0,0,0,0,0,0,0,0,0,-1,1182,1478,0,0
-35,-454,0,0,0,0,0,0,0,0,0,-1,1189,1478,0,0
-28,-454,0,0,0,0,0,0,0,0,0,-1,1196,1478,0,0
-21,-454,0,0,0,0,0,0,0,0,0,-1,1203,1478,0,0
-14,-454,0,0,0,0,0,0,0,0,0,-1,1210,1478,0,0
-7,-454,0,0,0,0,0,0,0,0,0,-1,1217,1478,0,0
0,-454,0,0,0,0,0,0,0,0,0,-1,1224,1478,0,0
7,-454,0,0,0,0,0,0,0,0,0,-1,1231,1478,0,0
14,-454,0,0,0,0,0,0,0,0,0,-1,1238,1478,0,0
21,-454,0,0,0,0,0,0,0,0,0,-1,1245,1478,0,0
28,-454,0,0,0,0,0,0,0,0,0,-1,1252,1478,0,0
35,-454,0,0,0,0,0,0,0,0,0,-1,1259,1478,0,0
42,-454,0,0,0,0,0,0,0,0,0,-1,1266,1478,0,0
49,-454,0,0,0,0,0,0,0,0,0,-1,1273,1478,0,0
56,-454,0,0,0,0,0,0,0,0,0,-1,1280,1478,0,0
63,-454,0,0,0,0,0,0,0,0,0,-1,1287,1478,0,0
70,-454,0,0,0,0,0,0,0,0,0,-1,1294,1478,0,0
77,-454,0,0,0,0,0,0,0,0,0,-1,1301,1478,0,0
84,-454,0,0,0,0,0,0,0,0,0,-1,1308,1478,0,0
91,-454,0,0,0,0,0,0,0,0,0,-1,1315,1478,0,0
98,-454,0,0,0,0,0,0,0,0,0,-1,1322,1478,0,0
105,-454,0,0,0,0,0,0,0,0,0,-1,1329,1478,0,0
112,-454,0,0,0,0,0,0,0,0,0,-1,1336,1478,0,0
119,-454,0,0,0,0,0,0,0,0,0,-1,1343,1478,0,0
126,-454,0,0,0,0,0,0,0,0,0,-1,1350,1478,0,0
133,-454,0,0,0,0,0,0,0,0,0,-1,1357,1478,0,0
140,-454,0,0,0,0,0,0,0,0,0,-1,1364,1478,0,0
147,-454,0,0,0,0,0,0,0,0,0,-1,1371,1478,0,0
154,-454,0,0,0,0,0,0,0,0,0,-1,1378,1478,0,0
161,-454,0,0,0,0,0,0,0,0,0,-1,1385,1478,0,0
168,-454,0,0,0,0,0,0,0,0,0,-1,1392,1478,0,0
175,-454,0,0,0,0,0,0,0,0,0,-1,1399,1478,0,0
182,-454,0,0,0,0,0,0,0,0,0,-1,1406,1478,0,0
189,-454,0,0,0,0,0,0,0,0,0,-1,1413,1478,0,0
196,-454,0,0,0,0,0,0,0,0,0,-1,1420,1478,0,0
203,-454,0,0,0,0,0,0,0,0,0,-1,1427,1478,0,0
210,-454,0,0,0,0,0,0,0,0,0,-1,1434,1478,0,0
217,-454,0,0,0,0,0,0,0,0,0,-1,1441,1478,0,0
224,-454,0,0,0,0,0,0,0,0,0,-1,1448,1478,0,0
231,-454,0,0,0,0,0,0,0,0,0,-1,1455,1478,0,0
238,-454,0,0,0,0,0,0,0,0,0,-1,1462,1478,0,0
245,-454,0,0,0,0,0,0,0,0,0,-1,1469,1478,0,0
252,-454,0,0,0,0,0,0,0,0,0,-1,1476,1478,0,0
259,-454,0,0,0,0,0,0,0,0,0,-1,1483,1478,0,0
266,-454,0,0,0,0,0,0,0,0,0,-1,1490,1478,0,0
273,-454,0,0,0,0,0,0,0,0,0,-1,1497,1478,0,0
280,-454,0,0,0,0,0,0,0,0,0,-1,1504,1478,0,0
287,-454,0,0,0,0,0,0,0,0,0,-1,1511,1478,0,0
294,-454,0,0,0,0,0,0,0,0,0,-1,1518,1478,0,0
301,-454,0,0,0,0,0,0,0,0,0,-1,1525,1478,0,0
308,-454,0,0,0,0,0,0,0,0,0,-1,1532,1478,0,0
315,-454,0,0,0,0,0,0,0,0,0,-1,1539,1478,0,0
322,-454,0,0,0,0,0,0,0,0,0,-1,1546,1478,0,0
329,-454,0,0,0,0,0,0,0,0,0,-1,1553,1478,0,0
336,-454,0,0,0,0,0,0,0,0,0,-1,1560,1478,0,0
343,-454,0,0,0,0,0,0,0,0,0,-1,1567,1478,0,0
350,-454,0,0,0,0,0,0,0,0,0,-1,1574,1478,0,0
357,-454,0,0,0,0,0,0,0,0,0,-1,1581,1478,0,0
364,-454,0,0,0,0,0,0,0,0,0,-1,1588,1478,0,0
371,-454,0,0,0,0,0,0,0,0,0,-1,1595,1478,0,0
378,-454,0,0,0,0,0,0,0,0,0,-1,1602,1478,0,0
385,-454,0,0,0,0,0,0,0,0,0,-1,1609,1478,0,0
392,-454,0,0,0,0,0,0,0,0,0,-1,1616,1478,0,0
399,-454,0,0,0,0,0,0,0,0,0,-1,1623,1478,0,0
406,-454,0,0,0,0,0,0,0,0,0,-1,1630,1478,0,0
413,-454,0,0,0,0,0,0,0,0,0,-1,1637,1478,0,0
420,-454,0,0,0,0,0,0,0,0,0,-1,1644,1478,0,0
427,-454,0,0,0,0,0,0,0,0,0,-1,1651,1478,0,0
434,-454,0,0,0,0,0,0,0,0,0,-1,1658,1478,0,0
441,-454,0,0,0,0,0,0,0,0,0,-1,1665,1478,0,0
448,-454,0,0,0,0,0,0,0,0,0,-1,1672,1478,0,0
455,-454,0,0,0,0,0,0,0,0,0,-1,1679,1478,0,0
462,-454,0,0,0,0,0,0,0,0,0,-1,1686,1478,0,0
469,-454,0,0,0,0,0,0,0,0,0,-1,1693,1478,0,0
476,-454,0,0,0,0,0,0,0,0,0,-1,1700,1478,0,0
483,-454,14.2399,3.97498,0,0,0,0,0,0,0,-1,1707,1478,14.2399,-3.97502
490,-454,18.1821,-0.175781,0,0,0,0,0,0,0,-1,1714,1478,18.1821,0.175822
497,-454,16.8854,1.01208,0,0,0,0,0,0,0,-1,1721,1478,16.8854,-1.01209
504,-454,15.587,2.05994,0,0,0,0,0,0,0,-1,1728,1478,15.5871,-2.05998
511,-454,17.0273,14.5258,0,0,0,0,0,0,0,-1,1735,1478,17.0273,-14.5258
518,-454,16.4158,13.1039,0,0,0,0,0,0,0,-1,1742,1478,16.4157,-13.1038
525,-454,15.7842,11.6628,0,0,0,0,0,0,0,-1,1749,1478,15.7841,-11.6629
532,-454,15.1094,10.2476,0,0,0,0,0,0,0,-1,1756,1478,15.1094,-10.2475
539,-454,13.7905,10.9373,0,0,0,0,0,0,0,-1,1763,1478,13.7906,-10.9372
546,-454,16.2002,13.2458,0,0,0,0,0,0,0,-1,1770,1478,16.2002,-13.2459
553,-454,15.6747,12.1868,0,0,0,0,0,0,0,-1,1777,1478,15.6747,-12.1868
560,-454,16.3895,14.0527,0,0,0,0,0,0,0,-1,1784,1478,16.3895,-14.0528
567,-454,35.598,32.5709,0,0,0,0,0,0,0,-1,1791,1478,35.598,-32.5709
574,-454,35.2784,32.0219,0,0,0,0,0,0,0,-1,1798,1478,35.2785,-32.0219
581,-454,35.3982,30.9183,0.00790807,0.00310893,-0.00380377,0.0100059,0.0010111,-0.504004,0.00636042,0.0363232,1805,1478,35.3982,-30.9184
588,-454,35.4485,29.9808,0.00594123,0.00239256,-0.00300129,0.00765345,0.000680346,-0.51844,0.00489131,0.01525,1812,1478,35.4484,-29.9809
595,-454,35.3671,29.1372,0.00440007,0.00175702,-0.00227987,0.00571374,0.000443349,-0.522737,0.00367031,0.0133383,1819,1478,35.3671,-29.1372
602,-454,35.3007,28.2653,0.00324808,0.00118309,-0.0015797,0.00410278,0.000328389,-0.495947,0.00263256,0.0099078,1826,1478,35.3007,-28.2653
609,-454,35.2513,27.4048,0.00243022,0.0007715,-0.000943195,0.00285683,0.000344892,-0.424766,0.00180063,0.0126163,1833,1478,35.2513,-27.4048
616,-454,35.2136,26.5573,0.00178869,0.000367343,-0.000313857,0.00185491,0.000301123,-0.207937,0.00114946,0.0156505,1840,1478,35.2136,-26.5572
623,-454,35.1975,25.7167,0.0014923,0.000114445,0.000195188,0.00151942,8.73286e-05,0.138043,0.000985125,0.0165512,1847,1478,35.1975,-25.7166
630,-454,35.1592,24.8557,0.00147444,-0.000162678,0.000708635,0.00173856,-0.000426802,0.356772,0.00132444,0.0170348,1854,1478,35.1591,-24.8558
637,-454,35.0564,23.9993,0.00161361,-0.000333724,0.00116154,0.0021556,-0.000875711,0.436581,0.00180138,0.0149218,1861,1478,35.0564,-23.9993
644,-454,35.151,23.0851,0.00198747,-0.000330825,0.00145644,0.00268973,-0.00103308,0.449286,0.00221917,0.0333952,1868,1478,35.151,-23.0851
651,-454,35.3138,22.0815,0,0,0,0,0,0,0,-1,1875,1478,35.3138,-22.0815
658,-454,17.2583,10.0765,0,0,0,0,0,0,0,-1,1882,1478,17.2583,-10.0765
665,-454,17.683,9.67566,0,0,0,0,0,0,0,-1,1889,1478,17.683,-9.67572
672,-454,16.5476,6.41931,0,0,0,0,0,0,0,-1,1896,1478,16.5476,-6.41929
679,-454,14.2161,5.45007,0,0,0,0,0,0,0,-1,1903,1478,14.2161,-5.45013
686,-454,10.3767,2.12842,0,0,0,0,0,0,0,-1,1910,1478,10.3767,-2.12839
693,-454,11.1857,1.48486,0,0,0,0,0,0,0,-1,1917,1478,11.1857,-1.48487
700,-454,0,0,0,0,0,0,0,0,0,-1,1924,1478,0,0
707,-454,0,0,0,0,0,0,0,0,0,-1,1931,1478,0,0
714,-454,0,0,0,0,0,0,0,0,0,-1,1938,1478,0,0
721,-454,0,0,0,0,0,0,0,0,0,-1,1945,1478,0,0
728,-454,0,0,0,0,0,0,0,0,0,-1,1952,1478,0,0
735,-454,0,0,0,0,0,0,0,0,0,-1,1959,1478,0,0
742,-454,0,0,0,0,0,0,0,0,0,-1,1966,1478,0,0
749,-454,0,0,0,0,0,0,0,0,0,-1,1973,1478,0,0
756,-454,0,0,0,0,0,0,0,0,0,-1,1980,1478,0,0
763,-454,0,0,0,0,0,0,0,0,0,-1,1987,1478,0,0
770,-454,0,0,0,0,0,0,0,0,0,-1,1994,1478,0,0
777,-454,0,0,0,0,0,0,0,0,0,-1,2001,1478,0,0
784,-454,0,0,0,0,0,0,0,0,0,-1,2008,1478,0,0
791,-454,0,0,0,0,0,0,0,0,0,-1,2015,1478,0,0
798,-454,0,0,0,0,0,0,0,0,0,-1,2022,1478,0,0
805,-454,0,0,0,0,0,0,0,0,0,-1,2029,1478,0,0
812,-454,0,0,0,0,0,0,0,0,0,-1,2036,1478,0,0
-700,-461,0,0,0,0,0,0,0,0,0,-1,524,1485,0,0
-693,-461,0,0,0,0,0,0,0,0,0,-1,531,1485,0,0
-686,-461,0,0,0,0,0,0,0,0,0,-1,538,1485,0,0
-679,-461,0,0,0,0,0,0,0,0,0,-1,545,1485,0,0
-672,-461,0,0,0,0,0,0,0,0,0,-1,552,1485,0,0
-665,-461,0,0,0,0,0,0,0,0,0,-1,559,1485,0,0
-658,-461,0,0,0,0,0,0,0,0,0,-1,566,1485,0,0
-651,-461,0,0,0,0,0,0,0,0,0,-1,573,1485,0,0
-644,-461,0,0,0,0,0,0,0,0,0,-1,580,1485,0,0
-637,-461,0,0,0,0,0,0,0,0,0,-1,587,1485,0,0
-630,-461,0,0,0,0,0,0,0,0,0,-1,594,1485,0,0
-623,-461,0,0,0,0,0,0,0,0,0,-1,601,1485,0,0
-616,-461,0,0,0,0,0,0,0,0,0,-1,608,1485,0,0
-609,-461,0,0,0,0,0,0,0,0,0,-1,615,1485,0,0
-602,-461,0,0,0,0,0,0,0,0,0,-1,622,1485,0,0
-595,-461,0,0,0,0,0,0,0,0,0,-1,629,1485,0,0
-588,-461,0,0,0,0,0,0,0,0,0,-1,636,1485,0,0
-581,-461,0,0,0,0,0,0,0,0,0,-1,643,1485,0,0
-574,-461,0,0,0,0,0,0,0,0,0,-1,650,1485,0,0
-567,-461,-9.69031,0.513306,0,0,0,0,0,0,0,-1,657,1485,-9.69032,-0.513305
-560,-461,-7.28815,1.54004,0,0,0,0,0,0,0,-1,664,1485,-7.28817,-1.54005
-553,-461,-11.9607,5.27783,0,0,0,0,0,0,0,-1,671,1485,-11.9607,-5.27778
-546,-461,-11.4215,4.44666,0,0,0,0,0,0,0,-1,678,1485,-11.4215,-4.4467
-539,-461,-9.36493,5.23438,0,0,0,0,0,0,0,-1,685,1485,-9.3649,-5.23432
-532,-461,-7.82898,6.78357,0,0,0,0,0,0,0,-1,692,1485,-7.829,-6.78363
-525,-461,-6.37878,8.75659,0,0,0,0,0,0,0,-1,699,1485,-6.3788,-8.75659
-518,-461,-6.49695,10.886,0,0,0,0,0,0,0,-1,706,1485,-6.49696,-10.8859
-511,-461,-15.8618,21.5214,0,0,0,0,0,0,0,-1,713,1485,-15.8617,-21.5213
-504,-461,-16.7538,24.3237,0,0,0,0,0,0,0,-1,720,1485,-16.7538,-24.3238
-497,-461,-16.7618,25.3462,0.00264,0.00506549,0.00454697,0.00855866,-0.000853173,0.915722,0.00601038,0.011361,727,1485,-16.7618,-25.3461
-490,-461,-16.8184,26.2225,0.00202946,0.00368115,0.00330239,0.00625939,-0.000548785,0.907922,0.00436737,0.0121195,734,1485,-16.8184,-26.2225
-483,-461,-16.894,27.0936,0.00158732,0.00252715,0.00228105,0.00438619,-0.000271714,0.886981,0.00301877,0.0123649,741,1485,-16.894,-27.0936
-476,-461,-16.9705,27.9589,0.00133106,0.0017243,0.00154998,0.00309008,-3.47202e-05,0.848488,0.00207173,0.0118672,748,1485,-16.9705,-27.9589
-469,-461,-17.0189,28.8295,0.00123329,0.00126252,0.0010661,0.00231411,0.000181699,0.792254,0.00148588,0.0142003,755,1485,-17.0188,-28.8294
-462,-461,-17.0583,29.7294,0.00133891,0.00111155,0.000843581,0.00207644,0.000374023,0.718422,0.00127799,0.0211028,762,1485,-17.0583,-29.7294
-455,-461,-17.1364,30.6093,0.00162144,0.00128394,0.000886246,0.00235486,0.000550523,0.691319,0.00142237,0.0252523,769,1485,-17.1364,-30.6093
-448,-461,-17.1671,31.5083,0.00205781,0.00178315,0.00118604,0.00311445,0.000726517,0.727762,0.00188148,0.0237561,776,1485,-17.167,-31.5083
-441,-461,-17.209,32.3682,0,0,0,0,0,0,0,-1,783,1485,-17.209,-32.3682
-434,-461,-16.9255,33.5319,0,0,0,0,0,0,0,-1,790,1485,-16.9255,-33.5319
-427,-461,-8.26154,21.546,0,0,0,0,0,0,0,-1,797,1485,-8.26153,-21.5461
-420,-461,-5.70355,16.6116,0,0,0,0,0,0,0,-1,804,1485,-5.70353,-16.6115
-413,-461,-5.98798,16.0605,0,0,0,0,0,0,0,-1,811,1485,-5.98796,-16.0605
-406,-461,-5.52667,14.839,0,0,0,0,0,0,0,-1,818,1485,-5.52666,-14.839
-399,-461,-1.93439,9.82849,0,0,0,0,0,0,0,-1,825,1485,-1.9344,-9.82846
-392,-461,-0.357544,5.55225,0,0,0,0,0,0,0,-1,832,1485,-0.357536,-5.55228
-385,-461,1.71509,3.35254,0,0,0,0,0,0,0,-1,839,1485,1.71511,-3.35255
-378,-461,1.95996,3.01111,0,0,0,0,0,0,0,-1,846,1485,1.95993,-3.01111
-371,-461,0.702881,2.33459,0,0,0,0,0,0,0,-1,853,1485,0.702859,-2.33459
-364,-461,-1.93097,2.56458,0,0,0,0,0,0,0,-1,860,1485,-1.93095,-2.56456
-357,-461,-2.41516,3.49487,0,0,0,0,0,0,0,-1,867,1485,-2.41517,-3.49487
-350,-461,0,0,0,0,0,0,0,0,0,-1,874,1485,0,0
-343,-461,0,0,0,0,0,0,0,0,0,-1,881,1485,0,0
-336,-461,0,0,0,0,0,0,0,0,0,-1,888,1485,0,0
-329,-461,0,0,0,0,0,0,0,0,0,-1,895,1485,0,0
-322,-461,0,0,0,0,0,0,0,0,0,-1,902,1485,0,0
-315,-461,0,0,0,0,0,0,0,0,0,-1,909,1485,0,0
-308,-461,0,0,0,0,0,0,0,0,0,-1,916,1485,0,0
-301,-461,0,0,0,0,0,0,0,0,0,-1,923,1485,0,0
-294,-461,0,0,0,0,0,0,0,0,0,-1,930,1485,0,0
-287,-461,0,0,0,0,0,0,0,0,0,-1,937,1485,0,0
-280,-461,0,0,0,0,0,0,0,0,0,-1,944,1485,0,0
-273,-461,0,0,0,0,0,0,0,0,0,-1,951,1485,0,0
-266,-461,0,0,0,0,0,0,0,0,0,-1,958,1485,0,0
-259,-461,0,0,0,0,0,0,0,0,0,-1,965,1485,0,0
-252,-461,0,0,0,0,0,0,0,0,0,-1,972,1485,0,0
-245,-461,0,0,0,0,0,0,0,0,0,-1,979,1485,0,0
-238,-461,0,0,0,0,0,0,0,0,0,-1,986,1485,0,0
-231,-461,0,0,0,0,0,0,0,0,0,-1,993,1485,0,0
-224,-461,0,0,0,0,0,0,0,0,0,-1,1000,1485,0,0
-217,-461,0,0,0,0,0,0,0,0,0,-1,1007,1485,0,0
-210,-461,0,0,0,0,0,0,0,0,0,-1,1014,1485,0,0
-203,-461,0,0,0,0,0,0,0,0,0,-1,1021,1485,0,0
-196,-461,0,0,0,0,0,0,0,0,0,-1,1028,1485,0,0
-189,-461,0,0,0,0,0,0,0,0,0,-1,1035,1485,0,0
-182,-461,0,0,0,0,0,0,0,0,0,-1,1042,1485,0,0
-175,-461,0,0,0,0,0,0,0,0,0,-1,1049,1485,0,0
-168,-461,0,0,0,0,0,0,0,0,0,-1,1056,1485,0,0
-161,-461,0,0,0,0,0,0,0,0,0,-1,1063,1485,0,0
-154,-461,0,0,0,0,0,0,0,0,0,-1,1070,1485,0,0
-147,-461,0,0,0,0,0,0,0,0,0,-1,1077,1485,0,0
-140,-461,0,0,0,0,0,0,0,0,0,-1,1084,1485,0,0
-133,-461,0,0,0,0,0,0,0,0,0,-1,1091,1485,0,0
-126,-461,0,0,0,0,0,0,0,0,0,-1,1098,1485,0,0
-119,-461,0,0,0,0,0,0,0,0,0,-1,1105,1485,0,0
-112,-461,0,0,0,0,0,0,0,0,0,-1,1112,1485,0,0
-105,-461,0,0,0,0,0,0,0,0,0,-1,1119,1485,0,0
-98,-461,0,0,0,0,0,0,0,0,0,-1,1126,1485,0,0
-91,-461,0,0,0,0,0,0,0,0,0,-1,1133,1485,0,0
-84,-461,0,0,0,0,0,0,0,0,0,-1,1140,1485,0,0
-77,-461,0,0,0,0,0,0,0,0,0,-1,1147,1485,0,0
-70,-461,0,0,0,0,0,0,0,0,0,-1,1154,1485,0,0
-63,-461,0,0,0,0,0,0,0,0,0,-1,1161,1485,0,0
-56,-461,0,0,0,0,0,0,0,0,0,-1,1168,1485,0,0
-49,-461,0,0,0,0,0,0,0,0,0,-1,1175,1485,0,0
-42,-461,0,0,0,0,0,0,0,0,0,-1,1182,1485,0,0
-35,-461,0,0,0,0,0,0,0,0,0,-1,1189,1485,0,0
-28,-461,0,0,0,0,0,0,0,0,0,-1,1196,1485,0,0
-21,-461,0,0,0,0,0,0,0,0,0,-1,1203,1485,0,0
-14,-461,0,0,0,0,0,0,0,0,0,-1,1210,1485,0,0
-7,-461,0,0,0,0,0,0,0,0,0,-1,1217,1485,0,0
0,-461,0,0,0,0,0,0,0,0,0,-1,1224,1485,0,0
7,-461,0,0,0,0,0,0,0,0,0,-1,1231,1485,0,0
14,-461,0,0,0,0,0,0,0,0,0,-1,1238,1485,0,0
21,-461,0,0,0,0,0,0,0,0,0,-1,1245,1485,0,0
28,-461,0,0,0,0,0,0,0,0,0,-1,1252,1485,0,0
35,-461,0,0,0,0,0,0,0,0,0,-1,1259,1485,0,0
42,-461,0,0,0,0,0,0,0,0,0,-1,1266,1485,0,0
49,-461,0,0,0,0,0,0,0,0,0,-1,1273,1485,0,0
56,-461,0,0,0,0,0,0,0,0,0,-1,1280,1485,0,0
63,-461,0,0,0,0,0,0,0,0,0,-1,1287,1485,0,0
70,-461,0,0,0,0,0,0,0,0,0,-1,1294,1485,0,0
77,-461,0,0,0,0,0,0,0,0,0,-1,1301,1485,0,0
84,-461,0,0,0,0,0,0,0,0,0,-1,1308,1485,0,0
91,-461,0,0,0,0,0,0,0,0,0,-1,1315,1485,0,0
98,-461,0,0,0,0,0,0,0,0,0,-1,1322,1485,0,0
105,-461,0,0,0,0,0,0,0,0,0,-1,1329,1485,0,0
112,-461,0,0,0,0,0,0,0,0,0,-1,1336,1485,0,0
119,-461,0,0,0,0,0,0,0,0,0,-1,1343,1485,0,0
126,-461,0,0,0,0,0,0,0,0,0,-1,1350,1485,0,0
133,-461,0,0,0,0,0,0,0,0,0,-1,1357,1485,0,0
140,-461,0,0,0,0,0,0,0,0,0,-1,1364,1485,0,0
147,-461,0,0,0,0,0,0,0,0,0,-1,1371,1485,0,0
154,-461,0,0,0,0,0,0,0,0,0,-1,1378,1485,0,0
161,-461,0,0,0,0,0,0,0,0,0,-1,1385,1485,0,0
168,-461,0,0,0,0,0,0,0,0,0,-1,1392,1485,0,0
175,-461,0,0,0,0,0,0,0,0,0,-1,1399,1485,0,0
182,-461,0,0,0,0,0,0,0,0,0,-1,1406,1485,0,0
189,-461,0,0,0,0,0,0,0,0,0,-1,1413,1485,0,0
196,-461,0,0,0,0,0,0,0,0,0,-1,1420,1485,0,0
203,-461,0,0,0,0,0,0,0,0,0,-1,1427,1485,0,0
210,-461,0,0,0,0,0,0,0,0,0,-1,1434,1485,0,0
217,-461,0,0,0,0,0,0,0,0,0,-1,1441,1485,0,0
224,-461,0,0,0,0,0,0,0,0,0,-1,1448,1485,0,0
231,-461,0,0,0,0,0,0,0,0,0,-1,1455,1485,0,0
238,-461,0,0,0,0,0,0,0,0,0,-1,1462,1485,0,0
245,-461,0,0,0,0,0,0,0,0,0,-1,1469,1485,0,0
252,-461,0,0,0,0,0,0,0,0,0,-1,1476,1485,0,0
259,-461,0,0,0,0,0,0,0,0,0,-1,1483,1485,0,0
266,-461,0,0,0,0,0,0,0,0,0,-1,1490,1485,0,0
273,-461,0,0,0,0,0,0,0,0,0,-1,1497,1485,0,0
280,-461,0,0,0,0,0,0,0,0,0,-1,1504,1485,0,0
287,-461,0,0,0,0,0,0,0,0,0,-1,1511,1485,0,0
294,-461,0,0,0,0,0,0,0,0,0,-1,1518,1485,0,0
301,-461,0,0,0,0,0,0,0,0,0,-1,1525,1485,0,0
308,-461,0,0,0,0,0,0,0,0,0,-1,1532,1485,0,0
315,-461,0,0,0,0,0,0,0,0,0,-1,1539,1485,0,0
322,-461,0,0,0,0,0,0,0,0,0,-1,1546,1485,0,0
329,-461,0,0,0,0,0,0,0,0,0,-1,1553,1485,0,0
336,-461,0,0,0,0,0,0,0,0,0,-1,1560,1485,0,0
343,-461,0,0,0,0,0,0,0,0,0,-1,1567,1485,0,0
350,-461,0,0,0,0,0,0,0,0,0,-1,1574,1485,0,0
357,-461,0,0,0,0,0,0,0,0,0,-1,1581,1485,0,0
364,-461,0,0,0,0,0,0,0,0,0,-1,1588,1485,0,0
371,-461,0,0,0,0,0,0,0,0,0,-1,1595,1485,0,0
378,-461,0,0,0,0,0,0,0,0,0,-1,1602,1485,0,0
385,-461,0,0,0,0,0,0,0,0,0,-1,1609,1485,0,0
392,-461,0,0,0,0,0,0,0,0,0,-1,1616,1485,0,0
399,-461,0,0,0,0,0,0,0,0,0,-1,1623,1485,0,0
406,-461,0,0,0,0,0,0,0,0,0,-1,1630,1485,0,0
413,-461,0,0,0,0,0,0,0,0,0,-1,1637,1485,0,0
420,-461,0,0,0,0,0,0,0,0,0,-1,1644,1485,0,0
427,-461,0,0,0,0,0,0,0,0,0,-1,1651,1485,0,0
434,-461,0,0,0,0,0,0,0,0,0,-1,1658,1485,0,0
441,-461,0,0,0,0,0,0,0,0,0,-1,1665,1485,0,0
448,-461,0,0,0,0,0,0,0,0,0,-1,1672,1485,0,0
455,-461,0,0,0,0,0,0,0,0,0,-1,1679,1485,0,0
462,-461,0,0,0,0,0,0,0,0,0,-1,1686,1485,0,0
469,-461,0,0,0,0,0,0,0,0,0,-1,1693,1485,0,0
476,-461,14.1906,0.690552,0,0,0,0,0,0,0,-1,1700,1485,14.1906,-0.690525
483,-461,10.6361,3.09106,0,0,0,0,0,0,0,-1,1707,1485,10.6361,-3.091
490,-461,17.9972,0.665894,0,0,0,0,0,0,0,-1,1714,1485,17.9972,-0.665876
497,-461,16.6829,1.87732,0,0,0,0,0,0,0,-1,1721,1485,16.6828,-1.87736
504,-461,15.3884,3.09216,0,0,0,0,0,0,0,-1,1728,1485,15.3885,-3.09212
511,-461,15.4292,14.3512,0,0,0,0,0,0,0,-1,1735,1485,15.4292,-14.3512
518,-461,14.8081,10.0085,0,0,0,0,0,0,0,-1,1742,1485,14.8081,-10.0086
525,-461,14.0022,10.8033,0,0,0,0,0,0,0,-1,1749,1485,14.0022,-10.8033
532,-461,17.1704,14.077,0,0,0,0,0,0,0,-1,1756,1485,17.1704,-14.077
539,-461,17.0229,14.7386,0,0,0,0,0,0,0,-1,1763,1485,17.0229,-14.7387
546,-461,16.2106,14.1372,0,0,0,0,0,0,0,-1,1770,1485,16.2106,-14.1372
553,-461,25.9354,24.2889,0,0,0,0,0,0,0,-1,1777,1485,25.9354,-24.2889
560,-461,34.5969,33.526,0,0,0,0,0,0,0,-1,1784,1485,34.597,-33.526
567,-461,34.6635,32.5042,0.0116836,0.00505045,-0.00537018,0.0146788,0.00205525,-0.508772,0.00917781,0.042953,1791,1485,34.6634,-32.5042
574,-461,34.6898,31.7542,0.0089254,0.00379952,-0.00420874,0.0112901,0.00143477,-0.511908,0.00709702,0.0353794,1798,1485,34.6899,-31.7542
581,-461,34.6425,30.8823,0.00679995,0.00277949,-0.00326552,0.00862439,0.000955059,-0.509495,0.00545916,0.0196243,1805,1485,34.6425,-30.8823
588,-461,34.5853,30.0359,0.00512854,0.0020596,-0.00254385,0.00656489,0.000623253,-0.514011,0.00418434,0.0112757,1812,1485,34.5854,-30.0358
595,-461,34.5071,29.1902,0.00383715,0.00144585,-0.00188127,0.00487057,0.000412429,-0.502322,0.00311868,0.00956121,1819,1485,34.5071,-29.1902
602,-461,34.4564,28.3094,0.0028377,0.000928782,-0.00127168,0.00347326,0.000293221,-0.463472,0.00222422,0.0104632,1826,1485,34.4564,-28.3094
609,-461,34.4135,27.4508,0.00211506,0.000564981,-0.000679329,0.00237064,0.000309402,-0.359841,0.00148806,0.0129856,1833,1485,34.4135,-27.4508
616,-461,34.3712,26.5981,0.00155563,0.000206646,-6.16941e-05,0.00155845,0.000203831,-0.0456067,0.000978129,0.0149061,1840,1485,34.3713,-26.5981
623,-461,34.366,25.7742,0.00128312,-8.21756e-05,0.000527248,0.00146303,-0.000262081,0.328828,0.00107343,0.0188399,1847,1485,34.366,-25.7742
630,-461,34.3022,24.9531,0.00114934,-0.000394725,0.00121992,0.001821,-0.00106638,0.503284,0.0016859,0.0196067,1854,1485,34.3022,-24.9531
637,-461,34.2224,24.0507,0.00111269,-0.000624316,0.00190702,0.00233966,-0.00185129,0.57172,0.00242512,0.0186102,1861,1485,34.2224,-24.0507
644,-461,34.2521,23.3119,0.00116887,-0.000713449,0.00255179,0.00294753,-0.00249211,0.608727,0.00314424,0.0449193,1868,1485,34.2521,-23.3119
651,-461,34.2939,22.4757,0,0,0,0,0,0,0,-1,1875,1485,34.294,-22.4757
658,-461,16.8987,10.1084,0,0,0,0,0,0,0,-1,1882,1485,16.8986,-10.1084
665,-461,17.2638,9.81384,0,0,0,0,0,0,0,-1,1889,1485,17.2638,-9.81385
672,-461,14.4877,6.89429,0,0,0,0,0,0,0,-1,1896,1485,14.4876,-6.89431
679,-461,10.0535,2.16321,0,0,0,0,0,0,0,-1,1903,1485,10.0535,-2.16317
686,-461,10.8195,1.84192,0,0,0,0,0,0,0,-1,1910,1485,10.8194,-1.84195
693,-461,0,0,0,0,0,0,0,0,0,-1,1917,1485,0,0
700,-461,0,0,0,0,0,0,0,0,0,-1,1924,1485,0,0
707,-461,0,0,0,0,0,0,0,0,0,-1,1931,1485,0,0
714,-461,0,0,0,0,0,0,0,0,0,-1,1938,1485,0,0
721,-461,0,0,0,0,0,0,0,0,0,-1,1945,1485,0,0
728,-461,0,0,0,0,0,0,0,0,0,-1,1952,1485,0,0
735,-461,0,0,0,0,0,0,0,0,0,-1,1959,1485,0,0
742,-461,0,0,0,0,0,0,0,0,0,-1,1966,1485,0,0
749,-461,0,0,0,0,0,0,0,0,0,-1,1973,1485,0,0
756,-461,0,0,0,0,0,0,0,0,0,-1,1980,1485,0,0
763,-461,0,0,0,0,0,0,0,0,0,-1,1987,1485,0,0
770,-461,0,0,0,0,0,0,0,0,0,-1,1994,1485,0,0
777,-461,0,0,0,0,0,0,0,0,0,-1,2001,1485,0,0
784,-461,0,0,0,0,0,0,0,0,0,-1,2008,1485,0,0
791,-461,0,0,0,0,0,0,0,0,0,-1,2015,1485,0,0
798,-461,0,0,0,0,0,0,0,0,0,-1,2022,1485,0,0
805,-461,0,0,0,0,0,0,0,0,0,-1,2029,1485,0,0
812,-461,0,0,0,0,0,0,0,0,0,-1,2036,1485,0,0
-700,-468,0,0,0,0,0,0,0,0,0,-1,524,1492,0,0
-693,-468,0,0,0,0,0,0,0,0,0,-1,531,1492,0,0
-686,-468,0,0,0,0,0,0,0,0,0,-1,538,1492,0,0
-679,-468,0,0,0,0,0,0,0,0,0,-1,545,1492,0,0
-672,-468,0,0,0,0,0,0,0,0,0,-1,552,1492,0,0
-665,-468,0,0,0,0,0,0,0,0,0,-1,559,1492,0,0
-658,-468,0,0,0,0,0,0,0,0,0,-1,566,1492,0,0
-651,-468,0,0,0,0,0,0,0,0,0,-1,573,1492,0,0
-644,-468,0,0,0,0,0,0,0,0,0,-1,580,1492,0,0
-637,-468,0,0,0,0,0,0,0,0,0,-1,587,1492,0,0
-630,-468,0,0,0,0,0,0,0,0,0,-1,594,1492,0,0
-623,-468,0,0,0,0,0,0,0,0,0,-1,601,1492,0,0
-616,-468,0,0,0,0,0,0,0,0,0,-1,608,1492,0,0
-609,-468,0,0,0,0,0,0,0,0,0,-1,615,1492,0,0
-602,-468,0,0,0,0,0,0,0,0,0,-1,622,1492,0,0
-595,-468,0,0,0,0,0,0,0,0,0,-1,629,1492,0,0
-588,-468,0,0,0,0,0,0,0,0,0,-1,636,1492,0,0
-581,-468,0,0,0,0,0,0,0,0,0,-1,643,1492,0,0
-574,-468,0,0,0,0,0,0,0,0,0,-1,650,1492,0,0
-567,-468,-11.2603,1.8042,0,0,0,0,0,0,0,-1,657,1492,-11.2603,-1.80424
-560,-468,-8.77441,2.23694,0,0,0,0,0,0,0,-1,664,1492,-8.77443,-2.23692
-553,-468,-5.94061,9.26318,0,0,0,0,0,0,0,-1,671,1492,-5.94062,-9.26322
-546,-468,-10.47,5.43237,0,0,0,0,0,0,0,-1,678,1492,-10.47,-5.4324
-539,-468,-10.2468,5.45203,0,0,0,0,0,0,0,-1,685,1492,-10.2468,-5.45197
-532,-468,-8.39795,6.02783,0,0,0,0,0,0,0,-1,692,1492,-8.39793,-6.02789
-525,-468,-6.59332,7.15405,0,0,0,0,0,0,0,-1,699,1492,-6.59331,-7.15411
-518,-468,-6.33588,8.65393,0,0,0,0,0,0,0,-1,706,1492,-6.33588,-8.65397
-511,-468,-8.05835,13.8282,0,0,0,0,0,0,0,-1,713,1492,-8.05835,-13.8283
-504,-468,-15.9893,24.1158,0,0,0,0,0,0,0,-1,720,1492,-15.9893,-24.1159
-497,-468,-15.9551,25.2543,0.00277812,0.00629702,0.00540158,0.0102185,-0.00114334,0.942844,0.00722365,0.038163,727,1492,-15.9551,-25.2543
-490,-468,-15.9561,26.2809,0.00205903,0.00464525,0.00399628,0.00755242,-0.000848148,0.941871,0.00534016,0.00866277,734,1492,-15.9561,-26.2808
-483,-468,-16.0206,27.1422,0.00153201,0.00321844,0.00280355,0.00530284,-0.000552388,0.931479,0.003733,0.00918158,741,1492,-16.0206,-27.1422
-476,-468,-16.0632,28.0212,0.00127504,0.00222856,0.00197016,0.00377882,-0.000275229,0.90411,0.00261579,0.0104203,748,1492,-16.0632,-28.0212
-469,-468,-16.1202,28.9109,0.00119727,0.00160276,0.00140073,0.00281534,-1.53132e-05,0.85727,0.00188202,0.014743,755,1492,-16.1202,-28.9109
-462,-468,-16.1234,29.793,0.00132772,0.00131958,0.00109523,0.00241889,0.00022841,0.783539,0.0015421,0.0255503,762,1492,-16.1234,-29.7929
-455,-468,-16.1728,30.6233,0.00163026,0.00136324,0.00104219,0.00254746,0.000446041,0.721692,0.00157088,0.0271903,769,1492,-16.1728,-30.6232
-448,-468,-16.2662,31.5542,0.00210483,0.00171891,0.00121935,0.00314639,0.000677348,0.706926,0.00191223,0.0164109,776,1492,-16.2662,-31.5542
-441,-468,-16.313,32.4126,0.00278498,0.00251019,0.00169213,0.00434528,0.000949886,0.744889,0.00263786,0.016616,783,1492,-16.313,-32.4126
-434,-468,-16.2591,33.4255,0.00370138,0.00356407,0.00241101,0.00604471,0.00122074,0.771164,0.00369081,0.0462836,790,1492,-16.2591,-33.4255
-427,-468,-16.2388,34.4883,0,0,0,0,0,0,0,-1,797,1492,-16.2388,-34.4883
-420,-468,-7.57581,22.0538,0,0,0,0,0,0,0,-1,804,1492,-7.57582,-22.0538
-413,-468,-5.30328,17.3519,0,0,0,0,0,0,0,-1,811,1492,-5.30329,-17.352
-406,-468,-2.2356,9.396,0,0,0,0,0,0,0,-1,818,1492,-2.2356,-9.396
-399,-468,-0.940369,8.1936,0,0,0,0,0,0,0,-1,825,1492,-0.940365,-8.19357
-392,-468,-0.35144,8.14673,0,0,0,0,0,0,0,-1,832,1492,-0.351449,-8.14674
-385,-468,0.465759,5.35864,0,0,0,0,0,0,0,-1,839,1492,0.465732,-5.35864
-378,-468,1.99835,3.25391,0,0,0,0,0,0,0,-1,846,1492,1.99837,-3.2539
-371,-468,-0.31842,3.1532,0,0,0,0,0,0,0,-1,853,1492,-0.318441,-3.15324
-364,-468,-0.966736,2.14563,0,0,0,0,0,0,0,-1,860,1492,-0.966735,-2.14557
-357,-468,-3.06787,3.22742,0,0,0,0,0,0,0,-1,867,1492,-3.06784,-3.2274
-350,-468,-3.18658,4.12659,0,0,0,0,0,0,0,-1,874,1492,-3.18659,-4.12658
-343,-468,0,0,0,0,0,0,0,0,0,-1,881,1492,0,0
-336,-468,0,0,0,0,0,0,0,0,0,-1,888,1492,0,0
-329,-468,0,0,0,0,0,0,0,0,0,-1,895,1492,0,0
-322,-468,0,0,0,0,0,0,0,0,0,-1,902,1492,0,0
-315,-468,0,0,0,0,0,0,0,0,0,-1,909,1492,0,0
-308,-468,0,0,0,0,0,0,0,0,0,-1,916,1492,0,0
-301,-468,0,0,0,0,0,0,0,0,0,-1,923,1492,0,0
-294,-468,0,0,0,0,0,0,0,0,0,-1,930,1492,0,0
-287,-468,0,0,0,0,0,0,0,0,0,-1,937,1492,0,0
-280,-468,0,0,0,0,0,0,0,0,0,-1,944,1492,0,0
-273,-468,0,0,0,0,0,0,0,0,0,-1,951,1492,0,0
-266,-468,0,0,0,0,0,0,0,0,0,-1,958,1492,0,0
-259,-468,0,0,0,0,0,0,0,0,0,-1,965,1492,0,0
-252,-468,0,0,0,0,0,0,0,0,0,-1,972,1492,0,0
-245,-468,0,0,0,0,0,0,0,0,0,-1,979,1492,0,0
-238,-468,0,0,0,0,0,0,0,0,0,-1,986,1492,0,0
-231,-468,0,0,0,0,0,0,0,0,0,-1,993,1492,0,0
-224,-468,0,0,0,0,0,0,0,0,0,-1,1000,1492,0,0
-217,-468,0,0,0,0,0,0,0,0,0,-1,1007,1492,0,0
-210,-468,0,0,0,0,0,0,0,0,0,-1,1014,1492,0,0
-203,-468,0,0,0,0,0,0,0,0,0,-1,1021,1492,0,0
-196,-468,0,0,0,0,0,0,0,0,0,-1,1028,1492,0,0
-189,-468,0,0,0,0,0,0,0,0,0,-1,1035,1492,0,0
-182,-468,0,0,0,0,0,0,0,0,0,-1,1042,1492,0,0
-175,-468,0,0,0,0,0,0,0,0,0,-1,1049,1492,0,0
-168,-468,0,0,0,0,0,0,0,0,0,-1,1056,1492,0,0
-161,-468,0,0,0,0,0,0,0,0,0,-1,1063,1492,0,0
-154,-468,0,0,0,0,0,0,0,0,0,-1,1070,1492,0,0
-147,-468,0,0,0,0,0,0,0,0,0,-1,1077,1492,0,0
-140,-468,0,0,0,0,0,0,0,0,0,-1,1084,1492,0,0
-133,-468,0,0,0,0,0,0,0,0,0,-1,1091,1492,0,0
-126,-468,0,0,0,0,0,0,0,0,0,-1,1098,1492,0,0
-119,-468,0,0,0,0,0,0,0,0,0,-1,1105,1492,0,0
-112,-468,0,0,0,0,0,0,0,0,0,-1,1112,1492,0,0
-105,-468,0,0,0,0,0,0,0,0,0,-1,1119,1492,0,0
-98,-468,0,0,0,0,0,0,0,0,0,-1,1126,1492,0,0
-91,-468,0,0,0,0,0,0,0,0,0,-1,1133,1492,0,0
-84,-468,0,0,0,0,0,0,0,0,0,-1,1140,1492,0,0
-77,-468,0,0,0,0,0,0,0,0,0,-1,1147,1492,0,0
-70,-468,0,0,0,0,0,0,0,0,0,-1,1154,1492,0,0
-63,-468,0,0,0,0,0,0,0,0,0,-1,1161,1492,0,0
-56,-468,0,0,0,0,0,0,0,0,0,-1,1168,1492,0,0
-49,-468,0,0,0,0,0,0,0,0,0,-1,1175,1492,0,0
-42,-468,0,0,0,0,0,0,0,0,0,-1,1182,1492,0,0
-35,-468,0,0,0,0,0,0,0,0,0,-1,1189,1492,0,0
-28,-468,0,0,0,0,0,0,0,0,0,-1,1196,1492,0,0
-21,-468,0,0,0,0,0,0,0,0,0,-1,1203,1492,0,0
-14,-468,0,0,0,0,0,0,0,0,0,-1,1210,1492,0,0
-7,-468,0,0,0,0,0,0,0,0,0,-1,1217,1492,0,0
0,-468,0,0,0,0,0,0,0,0,0,-1,1224,1492,0,0
7,-468,0,0,0,0,0,0,0,0,0,-1,1231,1492,0,0
14,-468,0,0,0,0,0,0,0,0,0,-1,1238,1492,0,0
21,-468,0,0,0,0,0,0,0,0,0,-1,1245,1492,0,0
28,-468,0,0,0,0,0,0,0,0,0,-1,1252,1492,0,0
35,-468,0,0,0,0,0,0,0,0,0,-1,1259,1492,0,0
42,-468,0,0,0,0,0,0,0,0,0,-1,1266,1492,0,0
49,-468,0,0,0,0,0,0,0,0,0,-1,1273,1492,0,0
56,-468,0,0,0,0,0,0,0,0,0,-1,1280,1492,0,0
63,-468,0,0,0,0,0,0,0,0,0,-1,1287,1492,0,0
70,-468,0,0,0,0,0,0,0,0,0,-1,1294,1492,0,0
77,-468,0,0,0,0,0,0,0,0,0,-1,1301,1492,0,0
84,-468,0,0,0,0,0,0,0,0,0,-1,1308,1492,0,0
91,-468,0,0,0,0,0,0,0,0,0,-1,1315,1492,0,0
98,-468,0,0,0,0,0,0,0,0,0,-1,1322,1492,0,0
105,-468,0,0,0,0,0,0,0,0,0,-1,1329,1492,0,0
112,-468,0,0,0,0,0,0,0,0,0,-1,1336,1492,0,0
119,-468,0,0,0,0,0,0,0,0,0,-1,1343,1492,0,0
126,-468,0,0,0,0,0,0,0,0,0,-1,1350,1492,0,0
133,-468,0,0,0,0,0,0,0,0,0,-1,1357,1492,0,0
140,-468,0,0,0,0,0,0,0,0,0,-1,1364,1492,0,0
147,-468,0,0,0,0,0,0,0,0,0,-1,1371,1492,0,0
154,-468,0,0,0,0,0,0,0,0,0,-1,1378,1492,0,0
161,-468,0,0,0,0,0,0,0,0,0,-1,1385,1492,0,0
168,-468,0,0,0,0,0,0,0,0,0,-1,1392,1492,0,0
175,-468,0,0,0,0,0,0,0,0,0,-1,1399,1492,0,0
182,-468,0,0,0,0,0,0,0,0,0,-1,1406,1492,0,0
189,-468,0,0,0,0,0,0,0,0,0,-1,1413,1492,0,0
196,-468,0,0,0,0,0,0,0,0,0,-1,1420,1492,0,0
203,-468,0,0,0,0,0,0,0,0,0,-1,1427,1492,0,0
210,-468,0,0,0,0,0,0,0,0,0,-1,1434,1492,0,0
217,-468,0,0,0,0,0,0,0,0,0,-1,1441,1492,0,0
224,-468,0,0,0,0,0,0,0,0,0,-1,1448,1492,0,0
231,-468,0,0,0,0,0,0,0,0,0,-1,1455,1492,0,0
238,-468,0,0,0,0,0,0,0,0,0,-1,1462,1492,0,0
245,-468,0,0,0,0,0,0,0,0,0,-1,1469,1492,0,0
252,-468,0,0,0,0,0,0,0,0,0,-1,1476,1492,0,0
259,-468,0,0,0,0,0,0,0,0,0,-1,1483,1492,0,0
266,-468,0,0,0,0,0,0,0,0,0,-1,1490,1492,0,0
273,-468,0,0,0,0,0,0,0,0,0,-1,1497,1492,0,0
280,-468,0,0,0,0,0,0,0,0,0,-1,1504,1492,0,0
287,-468,0,0,0,0,0,0,0,0,0,-1,1511,1492,0,0
294,-468,0,0,0,0,0,0,0,0,0,-1,1518,1492,0,0
301,-468,0,0,0,0,0,0,0,0,0,-1,1525,1492,0,0
308,-468,0,0,0,0,0,0,0,0,0,-1,1532,1492,0,0
315,-468,0,0,0,0,0,0,0,0,0,-1,1539,1492,0,0
322,-468,0,0,0,0,0,0,0,0,0,-1,1546,1492,0,0
329,-468,0,0,0,0,0,0,0,0,0,-1,1553,1492,0,0
336,-468,0,0,0,0,0,0,0,0,0,-1,1560,1492,0,0
343,-468,0,0,0,0,0,0,0,0,0,-1,1567,1492,0,0
350,-468,0,0,0,0,0,0,0,0,0,-1,1574,1492,0,0
357,-468,0,0,0,0,0,0,0,0,0,-1,1581,1492,0,0
364,-468,0,0,0,0,0,0,0,0,0,-1,1588,1492,0,0
371,-468,0,0,0,0,0,0,0,0,0,-1,1595,1492,0,0
378,-468,0,0,0,0,0,0,0,0,0,-1,1602,1492,0,0
385,-468,0,0,0,0,0,0,0,0,0,-1,1609,1492,0,0
392,-468,0,0,0,0,0,0,0,0,0,-1,1616,1492,0,0
399,-468,0,0,0,0,0,0,0,0,0,-1,1623,1492,0,0
406,-468,0,0,0,0,0,0,0,0,0,-1,1630,1492,0,0
413,-468,0,0,0,0,0,0,0,0,0,-1,1637,1492,0,0
420,-468,0,0,0,0,0,0,0,0,0,-1,1644,1492,0,0
427,-468,0,0,0,0,0,0,0,0,0,-1,1651,1492,0,0
434,-468,0,0,0,0,0,0,0,0,0,-1,1658,1492,0,0
441,-468,0,0,0,0,0,0,0,0,0,-1,1665,1492,0,0
448,-468,0,0,0,0,0,0,0,0,0,-1,1672,1492,0,0
455,-468,0,0,0,0,0,0,0,0,0,-1,1679,1492,0,0
462,-468,0,0,0,0,0,0,0,0,0,-1,1686,1492,0,0
469,-468,15.6879,1.2677,0,0,0,0,0,0,0,-1,1693,1492,15.6879,-1.26772
476,-468,14.9318,1.61865,0,0,0,0,0,0,0,-1,1700,1492,14.9318,-1.61869
483,-468,11.265,4.64795,0,0,0,0,0,0,0,-1,1707,1492,11.265,-4.64798
490,-468,12.1316,3.51624,0,0,0,0,0,0,0,-1,1714,1492,12.1316,-3.51628
497,-468,16.5355,3.14587,0,0,0,0,0,0,0,-1,1721,1492,16.5356,-3.14583
504,-468,15.0642,4.10437,0,0,0,0,0,0,0,-1,1728,1492,15.0643,-4.10431
511,-468,15.6877,9.4801,0,0,0,0,0,0,0,-1,1735,1492,15.6878,-9.48007
518,-468,13.759,11.0887,0,0,0,0,0,0,0,-1,1742,1492,13.759,-11.0887
525,-468,16.6531,14.2238,0,0,0,0,0,0,0,-1,1749,1492,16.653,-14.2237
532,-468,16.9696,15.9641,0,0,0,0,0,0,0,-1,1756,1492,16.9696,-15.9641
539,-468,21.5308,20.7551,0,0,0,0,0,0,0,-1,1763,1492,21.5308,-20.7551
546,-468,25.5796,25.0283,0,0,0,0,0,0,0,-1,1770,1492,25.5796,-25.0284
553,-468,31.8678,31.5677,0,0,0,0,0,0,0,-1,1777,1492,31.8678,-31.5678
560,-468,33.5187,33.8889,0,0,0,0,0,0,0,-1,1784,1492,33.5187,-33.8889
567,-468,33.7908,32.6809,0.0102668,0.00471611,-0.00481132,0.0130459,0.00193706,-0.52379,0.00812887,0.0303778,1791,1492,33.7907,-32.6809
574,-468,33.8441,31.7762,0.00784513,0.00347492,-0.00373607,0.00998817,0.00133188,-0.520789,0.00626221,0.017945,1798,1492,33.8441,-31.7762
581,-468,33.8009,30.9414,0.00591385,0.00250941,-0.00287178,0.00755,0.000873261,-0.517866,0.00476897,0.0179079,1805,1492,33.801,-30.9414
588,-468,33.7111,30.1095,0.00442401,0.00180838,-0.00221178,0.0056857,0.000546685,-0.518402,0.00362202,0.0138363,1812,1492,33.711,-30.1095
595,-468,33.6681,29.2408,0.00329725,0.0012215,-0.00158354,0.00415273,0.000366024,-0.495312,0.0026549,0.0112347,1819,1492,33.6681,-29.2408
602,-468,33.6228,28.3545,0.00240503,0.000751327,-0.00102913,0.00289833,0.000258034,-0.446977,0.00185221,0.00998876,1826,1492,33.6228,-28.3544
609,-468,33.549,27.5009,0.00174847,0.000427066,-0.000459229,0.0018924,0.000283146,-0.303701,0.00117861,0.0111156,1833,1492,33.549,-27.5009
616,-468,33.4984,26.6572,0.00125909,0.000116624,0.000160054,0.00128109,9.46244e-05,0.136593,0.00082433,0.0112795,1840,1492,33.4984,-26.6573
623,-468,33.468,25.8137,0.00100561,-0.000232922,0.000868307,0.00145286,-0.000680167,0.475636,0.00125815,0.0124075,1847,1492,33.4681,-25.8137
630,-468,33.4449,24.9432,0.000793664,-0.000591165,0.00175852,0.00199118,-0.00178868,0.597846,0.00218335,0.0136016,1854,1492,33.445,-24.9432
637,-468,33.4479,24.0397,0.000606655,-0.000903462,0.00272525,0.00267951,-0.00297632,0.650258,0.0032669,0.0295662,1861,1492,33.4479,-24.0397
644,-468,33.2496,23.3629,0.000398274,-0.00112723,0.00380643,0.00351763,-0.00424658,0.686516,0.00448925,0.047191,1868,1492,33.2497,-23.363
651,-468,33.1823,22.488,0,0,0,0,0,0,0,-1,1875,1492,33.1823,-22.488
658,-468,16.4969,10.0774,0,0,0,0,0,0,0,-1,1882,1492,16.497,-10.0774
665,-468,15.4673,8.59546,0,0,0,0,0,0,0,-1,1889,1492,15.4672,-8.59548
672,-468,9.96814,3.61133,0,0,0,0,0,0,0,-1,1896,1492,9.96817,-3.61139
679,-468,11.2191,1.91968,0,0,0,0,0,0,0,-1,1903,1492,11.2191,-1.91965
686,-468,11.9252,1.42285,0,0,0,0,0,0,0,-1,1910,1492,11.9252,-1.42291
693,-468,0,0,0,0,0,0,0,0,0,-1,1917,1492,0,0
700,-468,0,0,0,0,0,0,0,0,0,-1,1924,1492,0,0
707,-468,0,0,0,0,0,0,0,0,0,-1,1931,1492,0,0
714,-468,0,0,0,0,0,0,0,0,0,-1,1938,1492,0,0
721,-468,0,0,0,0,0,0,0,0,0,-1,1945,1492,0,0
728,-468,0,0,0,0,0,0,0,0,0,-1,1952,1492,0,0
735,-468,0,0,0,0,0,0,0,0,0,-1,1959,1492,0,0
742,-468,0,0,0,0,0,0,0,0,0,-1,1966,1492,0,0
749,-468,0,0,0,0,0,0,0,0,0,-1,1973,1492,0,0
756,-468,0,0,0,0,0,0,0,0,0,-1,1980,1492,0,0
763,-468,0,0,0,0,0,0,0,0,0,-1,1987,1492,0,0
770,-468,0,0,0,0,0,0,0,0,0,-1,1994,1492,0,0
777,-468,0,0,0,0,0,0,0,0,0,-1,2001,1492,0,0
784,-468,0,0,0,0,0,0,0,0,0,-1,2008,1492,0,0
791,-468,0,0,0,0,0,0,0,0,0,-1,2015,1492,0,0
798,-468,0,0,0,0,0,0,0,0,0,-1,2022,1492,0,0
805,-468,0,0,0,0,0,0,0,0,0,-1,2029,1492,0,0
812,-468,0,0,0,0,0,0,0,0,0,-1,2036,1492,0,0
-700,-475,0,0,0,0,0,0,0,0,0,-1,524,1499,0,0
-693,-475,0,0,0,0,0,0,0,0,0,-1,531,1499,0,0
-686,-475,0,0,0,0,0,0,0,0,0,-1,538,1499,0,0
-679,-475,0,0,0,0,0,0,0,0,0,-1,545,1499,0,0
-672,-475,0,0,0,0,0,0,0,0,0,-1,552,1499,0,0
-665,-475,0,0,0,0,0,0,0,0,0,-1,559,1499,0,0
-658,-475,0,0,0,0,0,0,0,0,0,-1,566,1499,0,0
-651,-475,0,0,0,0,0,0,0,0,0,-1,573,1499,0,0
-644,-475,0,0,0,0,0,0,0,0,0,-1,580,1499,0,0
-637,-475,0,0,0,0,0,0,0,0,0,-1,587,1499,0,0
-630,-475,0,0,0,0,0,0,0,0,0,-1,594,1499,0,0
-623,-475,0,0,0,0,0,0,0,0,0,-1,601,1499,0,0
-616,-475,0,0,0,0,0,0,0,0,0,-1,608,1499,0,0
-609,-475,0,0,0,0,0,0,0,0,0,-1,615,1499,0,0
-602,-475,0,0,0,0,0,0,0,0,0,-1,622,1499,0,0
-595,-475,0,0,0,0,0,0,0,0,0,-1,629,1499,0,0
-588,-475,0,0,0,0,0,0,0,0,0,-1,636,1499,0,0
-581,-475,0,0,0,0,0,0,0,0,0,-1,643,1499,0,0
-574,-475,0,0,0,0,0,0,0,0,0,-1,650,1499,0,0
-567,-475,0,0,0,0,0,0,0,0,0,-1,657,1499,0,0
-560,-475,-9.42731,9.29517,0,0,0,0,0,0,0,-1,664,1499,-9.42731,-9.29519
-553,-475,-8.15131,8.78369,0,0,0,0,0,0,0,-1,671,1499,-8.15131,-8.78367
-546,-475,-8.41254,8.20654,0,0,0,0,0,0,0,-1,678,1499,-8.41251,-8.20655
-539,-475,-4.7345,4.17419,0,0,0,0,0,0,0,-1,685,1499,-4.73449,-4.17418
-532,-475,-7.07379,4.25024,0,0,0,0,0,0,0,-1,692,1499,-7.07378,-4.2503
-525,-475,-6.13147,5.82166,0,0,0,0,0,0,0,-1,699,1499,-6.1315,-5.8216
-518,-475,-7.28784,9.31506,0,0,0,0,0,0,0,-1,706,1499,-7.28782,-9.315
-511,-475,-6.84851,12.4244,0,0,0,0,0,0,0,-1,713,1499,-6.84851,-12.4244
-504,-475,-8.80957,16.0863,0,0,0,0,0,0,0,-1,720,1499,-8.80954,-16.0862
-497,-475,-15.2932,25.1041,0,0,0,0,0,0,0,-1,727,1499,-15.2932,-25.1042
-490,-475,-15.1105,26.2781,0.00232275,0.00569114,0.00483187,0.00912392,-0.00111003,0.953094,0.00648437,0.0232683,734,1499,-15.1105,-26.278
-483,-475,-15.1066,27.2404,0.00168669,0.00392521,0.00340124,0.00638662,-0.000774715,0.944354,0.00453808,0.00936941,741,1499,-15.1066,-27.2403
-476,-475,-15.1558,28.1003,0.00138191,0.00273771,0.00242235,0.00457523,-0.000455609,0.921833,0.00321281,0.0112978,748,1499,-15.1558,-28.1003
-469,-475,-15.2298,28.991,0.00124378,0.0019402,0.00173446,0.00336105,-0.000177077,0.884461,0.002302,0.0145842,755,1499,-15.2298,-28.9909
-462,-475,-15.2262,29.851,0.00129916,0.00153057,0.00132028,0.00274021,8.95244e-05,0.829104,0.00179771,0.0210725,762,1499,-15.2262,-29.8509
-455,-475,-15.292,30.7616,0.00151072,0.00146233,0.00116126,0.00264803,0.000325012,0.774983,0.00166761,0.0184872,769,1499,-15.292,-30.7616
-448,-475,-15.3915,31.63,0.00187922,0.00170155,0.00121748,0.00301111,0.00056967,0.748979,0.00184703,0.0155217,776,1499,-15.3915,-31.63
-441,-475,-15.4489,32.4686,0.00239279,0.00230535,0.00153068,0.00388038,0.000817768,0.77112,0.002362,0.0178054,783,1499,-15.4489,-32.4687
-434,-475,-15.4666,33.3425,0.00305849,0.00318911,0.00206362,0.00518845,0.00105915,0.801217,0.00316554,0.0129827,790,1499,-15.4666,-33.3425
-427,-475,-15.461,34.1956,0,0,0,0,0,0,0,-1,797,1499,-15.461,-34.1955
-420,-475,-14.302,33.4558,0,0,0,0,0,0,0,-1,804,1499,-14.302,-33.4559
-413,-475,-6.46777,20.8481,0,0,0,0,0,0,0,-1,811,1499,-6.46776,-20.8481
-406,-475,-2.56116,12.4956,0,0,0,0,0,0,0,-1,818,1499,-2.56116,-12.4956
-399,-475,-1.39667,6.1615,0,0,0,0,0,0,0,-1,825,1499,-1.39664,-6.16155
-392,-475,0.217163,8.61389,0,0,0,0,0,0,0,-1,832,1499,0.217167,-8.6139
-385,-475,1.18372,2.73999,0,0,0,0,0,0,0,-1,839,1499,1.18372,-2.73995
-378,-475,1.31409,2.90149,0,0,0,0,0,0,0,-1,846,1499,1.31411,-2.90151
-371,-475,2.3476,3.31116,0,0,0,0,0,0,0,-1,853,1499,2.34761,-3.31121
-364,-475,1.04462,9.05823,0,0,0,0,0,0,0,-1,860,1499,1.04461,-9.05825
-357,-475,-0.262756,7.97205,0,0,0,0,0,0,0,-1,867,1499,-0.262784,-7.97205
-350,-475,-5.16473,-1.27881,0,0,0,0,0,0,0,-1,874,1499,-5.16474,1.27884
-343,-475,-5.76923,-0.530518,0,0,0,0,0,0,0,-1,881,1499,-5.76923,0.530526
-336,-475,0,0,0,0,0,0,0,0,0,-1,888,1499,0,0
-329,-475,0,0,0,0,0,0,0,0,0,-1,895,1499,0,0
-322,-475,0,0,0,0,0,0,0,0,0,-1,902,1499,0,0
-315,-475,0,0,0,0,0,0,0,0,0,-1,909,1499,0,0
-308,-475,0,0,0,0,0,0,0,0,0,-1,916,1499,0,0
-301,-475,0,0,0,0,0,0,0,0,0,-1,923,1499,0,0
-294,-475,0,0,0,0,0,0,0,0,0,-1,930,1499,0,0
-287,-475,0,0,0,0,0,0,0,0,0,-1,937,1499,0,0
-280,-475,0,0,0,0,0,0,0,0,0,-1,944,1499,0,0
-273,-475,0,0,0,0,0,0,0,0,0,-1,951,1499,0,0
-266,-475,0,0,0,0,0,0,0,0,0,-1,958,1499,0,0
-259,-475,0,0,0,0,0,0,0,0,0,-1,965,1499,0,0
-252,-475,0,0,0,0,0,0,0,0,0,-1,972,1499,0,0
-245,-475,0,0,0,0,0,0,0,0,0,-1,979,1499,0,0
-238,-475,0,0,0,0,0,0,0,0,0,-1,986,1499,0,0
-231,-475,0,0,0,0,0,0,0,0,0,-1,993,1499,0,0
-224,-475,0,0,0,0,0,0,0,0,0,-1,1000,1499,0,0
-217,-475,0,0,0,0,0,0,0,0,0,-1,1007,1499,0,0
-210,-475,0,0,0,0,0,0,0,0,0,-1,1014,1499,0,0
-203,-475,0,0,0,0,0,0,0,0,0,-1,1021,1499,0,0
-196,-475,0,0,0,0,0,0,0,0,0,-1,1028,1499,0,0
-189,-475,0,0,0,0,0,0,0,0,0,-1,1035,1499,0,0
-182,-475,0,0,0,0,0,0,0,0,0,-1,1042,1499,0,0
-175,-475,0,0,0,0,0,0,0,0,0,-1,1049,1499,0,0
-168,-475,0,0,0,0,0,0,0,0,0,-1,1056,1499,0,0
-161,-475,0,0,0,0,0,0,0,0,0,-1,1063,1499,0,0
-154,-475,0,0,0,0,0,0,0,0,0,-1,1070,1499,0,0
-147,-475,0,0,0,0,0,0,0,0,0,-1,1077,1499,0,0
-140,-475,0,0,0,0,0,0,0,0,0,-1,1084,1499,0,0
-133,-475,0,0,0,0,0,0,0,0,0,-1,1091,1499,0,0
-126,-475,0,0,0,0,0,0,0,0,0,-1,1098,1499,0,0
-119,-475,0,0,0,0,0,0,0,0,0,-1,1105,1499,0,0
-112,-475,0,0,0,0,0,0,0,0,0,-1,1112,1499,0,0
-105,-475,0,0,0,0,0,0,0,0,0,-1,1119,1499,0,0
-98,-475,0,0,0,0,0,0,0,0,0,-1,1126,1499,0,0
-91,-475,0,0,0,0,0,0,0,0,0,-1,1133,1499,0,0
-84,-475,0,0,0,0,0,0,0,0,0,-1,1140,1499,0,0
-77,-475,0,0,0,0,0,0,0,0,0,-1,1147,1499,0,0
-70,-475,0,0,0,0,0,0,0,0,0,-1,1154,1499,0,0
-63,-475,0,0,0,0,0,0,0,0,0,-1,1161,1499,0,0
-56,-475,0,0,0,0,0,0,0,0,0,-1,1168,1499,0,0
-49,-475,0,0,0,0,0,0,0,0,0,-1,1175,1499,0,0
-42,-475,0,0,0,0,0,0,0,0,0,-1,1182,1499,0,0
-35,-475,0,0,0,0,0,0,0,0,0,-1,1189,1499,0,0
-28,-475,0,0,0,0,0,0,0,0,0,-1,1196,1499,0,0
-21,-475,0,0,0,0,0,0,0,0,0,-1,1203,1499,0,0
-14,-475,0,0,0,0,0,0,0,0,0,-1,1210,1499,0,0
-7,-475,0,0,0,0,0,0,0,0,0,-1,1217,1499,0,0
0,-475,0,0,0,0,0,0,0,0,0,-1,1224,1499,0,0
7,-475,0,0,0,0,0,0,0,0,0,-1,1231,1499,0,0
14,-475,0,0,0,0,0,0,0,0,0,-1,1238,1499,0,0
21,-475,0,0,0,0,0,0,0,0,0,-1,1245,1499,0,0
28,-475,0,0,0,0,0,0,0,0,0,-1,1252,1499,0,0
35,-475,0,0,0,0,0,0,0,0,0,-1,1259,1499,0,0
42,-475,0,0,0,0,0,0,0,0,0,-1,1266,1499,0,0
49,-475,0,0,0,0,0,0,0,0,0,-1,1273,1499,0,0
56,-475,0,0,0,0,0,0,0,0,0,-1,1280,1499,0,0
63,-475,0,0,0,0,0,0,0,0,0,-1,1287,1499,0,0
70,-475,0,0,0,0,0,0,0,0,0,-1,1294,1499,0,0
77,-475,0,0,0,0,0,0,0,0,0,-1,1301,1499,0,0
84,-475,0,0,0,0,0,0,0,0,0,-1,1308,1499,0,0
91,-475,0,0,0,0,0,0,0,0,0,-1,1315,1499,0,0
98,-475,0,0,0,0,0,0,0,0,0,-1,1322,1499,0,0
105,-475,0,0,0,0,0,0,0,0,0,-1,1329,1499,0,0
112,-475,0,0,0,0,0,0,0,0,0,-1,1336,1499,0,0
119,-475,0,0,0,0,0,0,0,0,0,-1,1343,1499,0,0
126,-475,0,0,0,0,0,0,0,0,0,-1,1350,1499,0,0
133,-475,0,0,0,0,0,0,0,0,0,-1,1357,1499,0,0
140,-475,0,0,0,0,0,0,0,0,0,-1,1364,1499,0,0
147,-475,0,0,0,0,0,0,0,0,0,-1,1371,1499,0,0
154,-475,0,0,0,0,0,0,0,0,0,-1,1378,1499,0,0
161,-475,0,0,0,0,0,0,0,0,0,-1,1385,1499,0,0
168,-475,0,0,0,0,0,0,0,0,0,-1,1392,1499,0,0
175,-475,0,0,0,0,0,0,0,0,0,-1,1399,1499,0,0
182,-475,0,0,0,0,0,0,0,0,0,-1,1406,1499,0,0
189,-475,0,0,0,0,0,0,0,0,0,-1,1413,1499,0,0
196,-475,0,0,0,0,0,0,0,0,0,-1,1420,1499,0,0
203,-475,0,0,0,0,0,0,0,0,0,-1,1427,1499,0,0
210,-475,0,0,0,0,0,0,0,0,0,-1,1434,1499,0,0
217,-475,0,0,0,0,0,0,0,0,0,-1,1441,1499,0,0
224,-475,0,0,0,0,0,0,0,0,0,-1,1448,1499,0,0
231,-475,0,0,0,0,0,0,0,0,0,-1,1455,1499,0,0
238,-475,0,0,0,0,0,0,0,0,0,-1,1462,1499,0,0
245,-475,0,0,0,0,0,0,0,0,0,-1,1469,1499,0,0
252,-475,0,0,0,0,0,0,0,0,0,-1,1476,1499,0,0
259,-475,0,0,0,0,0,0,0,0,0,-1,1483,1499,0,0
266,-475,0,0,0,0,0,0,0,0,0,-1,1490,1499,0,0
273,-475,0,0,0,0,0,0,0,0,0,-1,1497,1499,0,0
280,-475,0,0,0,0,0,0,0,0,0,-1,1504,1499,0,0
287,-475,0,0,0,0,0,0,0,0,0,-1,1511,1499,0,0
294,-475,0,0,0,0,0,0,0,0,0,-1,1518,1499,0,0
301,-475,0,0,0,0,0,0,0,0,0,-1,1525,1499,0,0
308,-475,0,0,0,0,0,0,0,0,0,-1,1532,1499,0,0
315,-475,0,0,0,0,0,0,0,0,0,-1,1539,1499,0,0
322,-475,0,0,0,0,0,0,0,0,0,-1,1546,1499,0,0
329,-475,0,0,0,0,0,0,0,0,0,-1,1553,1499,0,0
336,-475,0,0,0,0,0,0,0,0,0,-1,1560,1499,0,0
343,-475,0,0,0,0,0,0,0,0,0,-1,1567,1499,0,0
350,-475,0,0,0,0,0,0,0,0,0,-1,1574,1499,0,0
357,-475,0,0,0,0,0,0,0,0,0,-1,1581,1499,0,0
364,-475,0,0,0,0,0,0,0,0,0,-1,1588,1499,0,0
371,-475,0,0,0,0,0,0,0,0,0,-1,1595,1499,0,0
378,-475,0,0,0,0,0,0,0,0,0,-1,1602,1499,0,0
385,-475,0,0,0,0,0,0,0,0,0,-1,1609,1499,0,0
392,-475,0,0,0,0,0,0,0,0,0,-1,1616,1499,0,0
399,-475,0,0,0,0,0,0,0,0,0,-1,1623,1499,0,0
406,-475,0,0,0,0,0,0,0,0,0,-1,1630,1499,0,0
413,-475,0,0,0,0,0,0,0,0,0,-1,1637,1499,0,0
420,-475,0,0,0,0,0,0,0,0,0,-1,1644,1499,0,0
427,-475,0,0,0,0,0,0,0,0,0,-1,1651,1499,0,0
434,-475,0,0,0,0,0,0,0,0,0,-1,1658,1499,0,0
441,-475,0,0,0,0,0,0,0,0,0,-1,1665,1499,0,0
448,-475,0,0,0,0,0,0,0,0,0,-1,1672,1499,0,0
455,-475,0,0,0,0,0,0,0,0,0,-1,1679,1499,0,0
462,-475,12.6372,0.275391,0,0,0,0,0,0,0,-1,1686,1499,12.6372,-0.27536
469,-475,15.6437,2.28296,0,0,0,0,0,0,0,-1,1693,1499,15.6437,-2.28293
476,-475,15.3302,2.71436,0,0,0,0,0,0,0,-1,1700,1499,15.3303,-2.7143
483,-475,10.7461,5.91479,0,0,0,0,0,0,0,-1,1707,1499,10.7461,-5.91476
490,-475,11.9305,4.4364,0,0,0,0,0,0,0,-1,1714,1499,11.9305,-4.43644
497,-475,15.3451,4.3479,0,0,0,0,0,0,0,-1,1721,1499,15.3451,-4.34789
504,-475,16.9646,7.71265,0,0,0,0,0,0,0,-1,1728,1499,16.9646,-7.71265
511,-475,18.941,12.7572,0,0,0,0,0,0,0,-1,1735,1499,18.941,-12.7572
518,-475,17.0021,13.8564,0,0,0,0,0,0,0,-1,1742,1499,17.0021,-13.8564
525,-475,17.5637,15.2103,0,0,0,0,0,0,0,-1,1749,1499,17.5637,-15.2103
532,-475,20.8623,20.8413,0,0,0,0,0,0,0,-1,1756,1499,20.8623,-20.8413
539,-475,20.5494,20.8519,0,0,0,0,0,0,0,-1,1763,1499,20.5494,-20.852
546,-475,20.4524,19.8799,0,0,0,0,0,0,0,-1,1770,1499,20.4524,-19.8798
553,-475,32.6179,34.6625,0,0,0,0,0,0,0,-1,1777,1499,32.618,-34.6625
560,-475,32.7769,33.7268,0.0111048,0.00582339,-0.00553481,0.0145966,0.00233162,-0.562813,0.0090545,0.0416181,1784,1499,32.7768,-33.7269
567,-475,33.0262,32.7045,0.00866258,0.00425657,-0.00422846,0.0112275,0.00169165,-0.545247,0.00698968,0.0177446,1791,1499,33.0263,-32.7044
574,-475,32.9631,31.8387,0.00668069,0.00313317,-0.00330289,0.00865597,0.00115789,-0.538982,0.00542602,0.0161867,1798,1499,32.9631,-31.8388
581,-475,32.906,31.0031,0.00503762,0.00226538,-0.00255793,0.00656085,0.000742145,-0.5371,0.00414871,0.0131134,1805,1499,32.906,-31.0031
588,-475,32.8585,30.1588,0.00376491,0.00161674,-0.00198106,0.00494432,0.00043732,-0.53699,0.00316054,0.0110804,1812,1499,32.8585,-30.1588
595,-475,32.8228,29.2913,0.00280999,0.00108753,-0.00140838,0.0035996,0.000297932,-0.510981,0.00230684,0.0119897,1819,1499,32.8228,-29.2913
602,-475,32.772,28.4315,0.0020459,0.000692052,-0.000925116,0.0025153,0.000222649,-0.46955,0.0016078,0.0131504,1826,1499,32.7719,-28.4315
609,-475,32.6947,27.5762,0.00146762,0.000422956,-0.000391497,0.00159805,0.000292525,-0.321596,0.000982486,0.012958,1833,1499,32.6947,-27.5761
616,-475,32.6234,26.7339,0.0010755,0.000187519,0.000210612,0.00112292,0.000140098,0.221465,0.000706558,0.0133443,1840,1499,32.6234,-26.7339
623,-475,32.6201,25.8217,0.000861039,-0.000205807,0.00102529,0.00148337,-0.000828139,0.545535,0.0013523,0.0129576,1847,1499,32.6201,-25.8217
630,-475,32.5918,24.9415,0.000537776,-0.000589049,0.00212479,0.00217259,-0.00222386,0.6558,0.00253835,0.0237713,1854,1499,32.5918,-24.9415
637,-475,32.4967,24.189,0.000133407,-0.000961748,0.00339486,0.00302456,-0.0038529,0.705439,0.0039803,0.0452837,1861,1499,32.4968,-24.189
644,-475,32.2944,23.2885,0,0,0,0,0,0,0,-1,1868,1499,32.2945,-23.2884
651,-475,29.886,19.2421,0,0,0,0,0,0,0,-1,1875,1499,29.886,-19.242
658,-475,14.6708,8.80322,0,0,0,0,0,0,0,-1,1882,1499,14.6708,-8.8032
665,-475,9.33435,5.43335,0,0,0,0,0,0,0,-1,1889,1499,9.33439,-5.43332
672,-475,9.38635,1.10474,0,0,0,0,0,0,0,-1,1896,1499,9.38629,-1.10475
679,-475,12.2594,1.31079,0,0,0,0,0,0,0,-1,1903,1499,12.2594,-1.31077
686,-475,0,0,0,0,0,0,0,0,0,-1,1910,1499,0,0
693,-475,0,0,0,0,0,0,0,0,0,-1,1917,1499,0,0
700,-475,0,0,0,0,0,0,0,0,0,-1,1924,1499,0,0
707,-475,0,0,0,0,0,0,0,0,0,-1,1931,1499,0,0
714,-475,0,0,0,0,0,0,0,0,0,-1,1938,1499,0,0
721,-475,0,0,0,0,0,0,0,0,0,-1,1945,1499,0,0
728,-475,0,0,0,0,0,0,0,0,0,-1,1952,1499,0,0
735,-475,0,0,0,0,0,0,0,0,0,-1,1959,1499,0,0
742,-475,0,0,0,0,0,0,0,0,0,-1,1966,1499,0,0
749,-475,0,0,0,0,0,0,0,0,0,-1,1973,1499,0,0
756,-475,0,0,0,0,0,0,0,0,0,-1,1980,1499,0,0
763,-475,0,0,0,0,0,0,0,0,0,-1,1987,1499,0,0
770,-475,0,0,0,0,0,0,0,0,0,-1,1994,1499,0,0
777,-475,0,0,0,0,0,0,0,0,0,-1,2001,1499,0,0
784,-475,0,0,0,0,0,0,0,0,0,-1,2008,1499,0,0
791,-475,0,0,0,0,0,0,0,0,0,-1,2015,1499,0,0
798,-475,0,0,0,0,0,0,0,0,0,-1,2022,1499,0,0
805,-475,0,0,0,0,0,0,0,0,0,-1,2029,1499,0,0
812,-475,0,0,0,0,0,0,0,0,0,-1,2036,1499,0,0
-700,-482,0,0,0,0,0,0,0,0,0,-1,524,1506,0,0
-693,-482,0,0,0,0,0,0,0,0,0,-1,531,1506,0,0
-686,-482,0,0,0,0,0,0,0,0,0,-1,538,1506,0,0
-679,-482,0,0,0,0,0,0,0,0,0,-1,545,1506,0,0
-672,-482,0,0,0,0,0,0,0,0,0,-1,552,1506,0,0
-665,-482,0,0,0,0,0,0,0,0,0,-1,559,1506,0,0
-658,-482,0,0,0,0,0,0,0,0,0,-1,566,1506,0,0
-651,-482,0,0,0,0,0,0,0,0,0,-1,573,1506,0,0
-644,-482,0,0,0,0,0,0,0,0,0,-1,580,1506,0,0
-637,-482,0,0,0,0,0,0,0,0,0,-1,587,1506,0,0
-630,-482,0,0,0,0,0,0,0,0,0,-1,594,1506,0,0
-623,-482,0,0,0,0,0,0,0,0,0,-1,601,1506,0,0
-616,-482,0,0,0,0,0,0,0,0,0,-1,608,1506,0,0
-609,-482,0,0,0,0,0,0,0,0,0,-1,615,1506,0,0
-602,-482,0,0,0,0,0,0,0,0,0,-1,622,1506,0,0
-595,-482,0,0,0,0,0,0,0,0,0,-1,629,1506,0,0
-588,-482,0,0,0,0,0,0,0,0,0,-1,636,1506,0,0
-581,-482,0,0,0,0,0,0,0,0,0,-1,643,1506,0,0
-574,-482,0,0,0,0,0,0,0,0,0,-1,650,1506,0,0
-567,-482,0,0,0,0,0,0,0,0,0,-1,657,1506,0,0
-560,-482,0,0,0,0,0,0,0,0,0,-1,664,1506,0,0
-553,-482,-9.06055,9.34314,0,0,0,0,0,0,0,-1,671,1506,-9.06056,-9.34312
-546,-482,-4.08624,8.34241,0,0,0,0,0,0,0,-1,678,1506,-4.08624,-8.3424
-539,-482,-4.29877,2.73499,0,0,0,0,0,0,0,-1,685,1506,-4.29879,-2.73494
-532,-482,-3.63611,4.23987,0,0,0,0,0,0,0,-1,692,1506,-3.63609,-4.23983
-525,-482,-6.19116,5.24927,0,0,0,0,0,0,0,-1,699,1506,-6.19117,-5.24927
-518,-482,-5.92957,6.39807,0,0,0,0,0,0,0,-1,706,1506,-5.92958,-6.39806
-511,-482,-7.74634,11.9137,0,0,0,0,0,0,0,-1,713,1506,-7.74633,-11.9137
-504,-482,-6.42358,13.4211,0,0,0,0,0,0,0,-1,720,1506,-6.42356,-13.4212
-497,-482,-8.86163,17.7108,0,0,0,0,0,0,0,-1,727,1506,-8.86163,-17.7109
-490,-482,-14.2837,26.2411,0,0,0,0,0,0,0,-1,734,1506,-14.2837,-26.241
-483,-482,-14.2427,27.2461,0.00151543,0.00470391,0.00390505,0.00732761,-0.00110827,0.979197,0.00529331,0.0139144,741,1506,-14.2427,-27.2461
-476,-482,-14.2791,28.1565,0.00118671,0.00331879,0.00278815,0.00523775,-0.000732241,0.967996,0.00375976,0.0106205,748,1506,-14.2791,-28.1565
-469,-482,-14.3538,29.0782,0.00103316,0.0023397,0.00200185,0.00379218,-0.000419321,0.943116,0.00267885,0.0134436,755,1506,-14.3538,-29.0782
-462,-482,-14.4079,29.9185,0.00107248,0.00179338,0.00150189,0.00297746,-0.000111605,0.90317,0.0020232,0.0148575,762,1506,-14.4079,-29.9184
-455,-482,-14.4498,30.7405,0.00127341,0.00159892,0.00126476,0.00271136,0.000160975,0.849389,0.00175638,0.0144835,769,1506,-14.4498,-30.7404
-448,-482,-14.4966,31.6592,0.00163492,0.00169699,0.00123104,0.00289739,0.000434518,0.798001,0.00180428,0.015488,776,1506,-14.4966,-31.6592
-441,-482,-14.5508,32.5154,0.00211668,0.00209454,0.00141755,0.0035232,0.00068802,0.781493,0.00215636,0.0147068,783,1506,-14.5508,-32.5154
-434,-482,-14.5982,33.3944,0.00270894,0.00276316,0.00179117,0.00452742,0.000944675,0.792965,0.00275786,0.016842,790,1506,-14.5982,-33.3944
-427,-482,-14.6456,34.2949,0.00348379,0.00379424,0.0023898,0.00603385,0.00124418,0.81783,0.00367865,0.022473,797,1506,-14.6456,-34.295
-420,-482,-14.7326,35.2311,0,0,0,0,0,0,0,-1,804,1506,-14.7326,-35.2311
-413,-482,-6.56415,22.3163,0,0,0,0,0,0,0,-1,811,1506,-6.56417,-22.3163
-406,-482,-2.51373,12.7556,0,0,0,0,0,0,0,-1,818,1506,-2.51376,-12.7556
-399,-482,-1.3822,9.22595,0,0,0,0,0,0,0,-1,825,1506,-1.38221,-9.22598
-392,-482,-1.06836,9.22729,0,0,0,0,0,0,0,-1,832,1506,-1.06835,-9.2273
-385,-482,0.0647583,8.90649,0,0,0,0,0,0,0,-1,839,1506,0.0647778,-8.90644
-378,-482,0.215698,5.96948,0,0,0,0,0,0,0,-1,846,1506,0.215681,-5.9695
-371,-482,-0.10907,8.10437,0,0,0,0,0,0,0,-1,853,1506,-0.109063,-8.10433
-364,-482,-0.154968,10.5032,0,0,0,0,0,0,0,-1,860,1506,-0.154976,-10.5032
-357,-482,2.14807,4.60144,0,0,0,0,0,0,0,-1,867,1506,2.14807,-4.60144
-350,-482,-7.5813,-1.45935,0,0,0,0,0,0,0,-1,874,1506,-7.58133,1.45937
-343,-482,-5.80902,1.81226,0,0,0,0,0,0,0,-1,881,1506,-5.80903,-1.81221
-336,-482,2.52826,-0.390503,0,0,0,0,0,0,0,-1,888,1506,2.52826,0.390456
-329,-482,0,0,0,0,0,0,0,0,0,-1,895,1506,0,0
-322,-482,0,0,0,0,0,0,0,0,0,-1,902,1506,0,0
-315,-482,0,0,0,0,0,0,0,0,0,-1,909,1506,0,0
-308,-482,0,0,0,0,0,0,0,0,0,-1,916,1506,0,0
-301,-482,0,0,0,0,0,0,0,0,0,-1,923,1506,0,0
-294,-482,0,0,0,0,0,0,0,0,0,-1,930,1506,0,0
-287,-482,0,0,0,0,0,0,0,0,0,-1,937,1506,0,0
-280,-482,0,0,0,0,0,0,0,0,0,-1,944,1506,0,0
-273,-482,0,0,0,0,0,0,0,0,0,-1,951,1506,0,0
-266,-482,0,0,0,0,0,0,0,0,0,-1,958,1506,0,0
-259,-482,0,0,0,0,0,0,0,0,0,-1,965,1506,0,0
-252,-482,0,0,0,0,0,0,0,0,0,-1,972,1506,0,0
-245,-482,0,0,0,0,0,0,0,0,0,-1,979,1506,0,0
-238,-482,0,0,0,0,0,0,0,0,0,-1,986,1506,0,0
-231,-482,0,0,0,0,0,0,0,0,0,-1,993,1506,0,0
-224,-482,0,0,0,0,0,0,0,0,0,-1,1000,1506,0,0
-217,-482,0,0,0,0,0,0,0,0,0,-1,1007,1506,0,0
-210,-482,0,0,0,0,0,0,0,0,0,-1,1014,1506,0,0
-203,-482,0,0,0,0,0,0,0,0,0,-1,1021,1506,0,0
-196,-482,0,0,0,0,0,0,0,0,0,-1,1028,1506,0,0
-189,-482,0,0,0,0,0,0,0,0,0,-1,1035,1506,0,0
-182,-482,0,0,0,0,0,0,0,0,0,-1,1042,1506,0,0
-175,-482,0,0,0,0,0,0,0,0,0,-1,1049,1506,0,0
-168,-482,0,0,0,0,0,0,0,0,0,-1,1056,1506,0,0
-161,-482,0,0,0,0,0,0,0,0,0,-1,1063,1506,0,0
-154,-482,0,0,0,0,0,0,0,0,0,-1,1070,1506,0,0
-147,-482,0,0,0,0,0,0,0,0,0,-1,1077,1506,0,0
-140,-482,0,0,0,0,0,0,0,0,0,-1,1084,1506,0,0
-133,-482,0,0,0,0,0,0,0,0,0,-1,1091,1506,0,0
-126,-482,0,0,0,0,0,0,0,0,0,-1,1098,1506,0,0
-119,-482,0,0,0,0,0,0,0,0,0,-1,1105,1506,0,0
-112,-482,0,0,0,0,0,0,0,0,0,-1,1112,1506,0,0
-105,-482,0,0,0,0,0,0,0,0,0,-1,1119,1506,0,0
-98,-482,0,0,0,0,0,0,0,0,0,-1,1126,1506,0,0
-91,-482,0,0,0,0,0,0,0,0,0,-1,1133,1506,0,0
-84,-482,0,0,0,0,0,0,0,0,0,-1,1140,1506,0,0
-77,-482,0,0,0,0,0,0,0,0,0,-1,1147,1506,0,0
-70,-482,0,0,0,0,0,0,0,0,0,-1,1154,1506,0,0
-63,-482,0,0,0,0,0,0,0,0,0,-1,1161,1506,0,0
-56,-482,0,0,0,0,0,0,0,0,0,-1,1168,1506,0,0
-49,-482,0,0,0,0,0,0,0,0,0,-1,1175,1506,0,0
-42,-482,0,0,0,0,0,0,0,0,0,-1,1182,1506,0,0
-35,-482,0,0,0,0,0,0,0,0,0,-1,1189,1506,0,0
-28,-482,0,0,0,0,0,0,0,0,0,-1,1196,1506,0,0
-21,-482,0,0,0,0,0,0,0,0,0,-1,1203,1506,0,0
-14,-482,0,0,0,0,0,0,0,0,0,-1,1210,1506,0,0
-7,-482,0,0,0,0,0,0,0,0,0,-1,1217,1506,0,0
0,-482,0,0,0,0,0,0,0,0,0,-1,1224,1506,0,0
7,-482,0,0,0,0,0,0,0,0,0,-1,1231,1506,0,0
14,-482,0,0,0,0,0,0,0,0,0,-1,1238,1506,0,0
21,-482,0,0,0,0,0,0,0,0,0,-1,1245,1506,0,0
28,-482,0,0,0,0,0,0,0,0,0,-1,1252,1506,0,0
35,-482,0,0,0,0,0,0,0,0,0,-1,1259,1506,0,0
42,-482,0,0,0,0,0,0,0,0,0,-1,1266,1506,0,0
49,-482,0,0,0,0,0,0,0,0,0,-1,1273,1506,0,0
56,-482,0,0,0,0,0,0,0,0,0,-1,1280,1506,0,0
63,-482,0,0,0,0,0,0,0,0,0,-1,1287,1506,0,0
70,-482,0,0,0,0,0,0,0,0,0,-1,1294,1506,0,0
77,-482,0,0,0,0,0,0,0,0,0,-1,1301,1506,0,0
84,-482,0,0,0,0,0,0,0,0,0,-1,1308,1506,0,0
91,-482,0,0,0,0,0,0,0,0,0,-1,1315,1506,0,0
98,-482,0,0,0,0,0,0,0,0,0,-1,1322,1506,0,0
105,-482,0,0,0,0,0,0,0,0,0,-1,1329,1506,0,0
112,-482,0,0,0,0,0,0,0,0,0,-1,1336,1506,0,0
119,-482,0,0,0,0,0,0,0,0,0,-1,1343,1506,0,0
126,-482,0,0,0,0,0,0,0,0,0,-1,1350,1506,0,0
133,-482,0,0,0,0,0,0,0,0,0,-1,1357,1506,0,0
140,-482,0,0,0,0,0,0,0,0,0,-1,1364,1506,0,0
147,-482,0,0,0,0,0,0,0,0,0,-1,1371,1506,0,0
154,-482,0,0,0,0,0,0,0,0,0,-1,1378,1506,0,0
161,-482,0,0,0,0,0,0,0,0,0,-1,1385,1506,0,0
168,-482,0,0,0,0,0,0,0,0,0,-1,1392,1506,0,0
175,-482,0,0,0,0,0,0,0,0,0,-1,1399,1506,0,0
182,-482,0,0,0,0,0,0,0,0,0,-1,1406,1506,0,0
189,-482,0,0,0,0,0,0,0,0,0,-1,1413,1506,0,0
196,-482,0,0,0,0,0,0,0,0,0,-1,1420,1506,0,0
203,-482,0,0,0,0,0,0,0,0,0,-1,1427,1506,0,0
210,-482,0,0,0,0,0,0,0,0,0,-1,1434,1506,0,0
217,-482,0,0,0,0,0,0,0,0,0,-1,1441,1506,0,0
224,-482,0,0,0,0,0,0,0,0,0,-1,1448,1506,0,0
231,-482,0,0,0,0,0,0,0,0,0,-1,1455,1506,0,0
238,-482,0,0,0,0,0,0,0,0,0,-1,1462,1506,0,0
245,-482,0,0,0,0,0,0,0,0,0,-1,1469,1506,0,0
252,-482,0,0,0,0,0,0,0,0,0,-1,1476,1506,0,0
259,-482,0,0,0,0,0,0,0,0,0,-1,1483,1506,0,0
266,-482,0,0,0,0,0,0,0,0,0,-1,1490,1506,0,0
273,-482,0,0,0,0,0,0,0,0,0,-1,1497,1506,0,0
280,-482,0,0,0,0,0,0,0,0,0,-1,1504,1506,0,0
287,-482,0,0,0,0,0,0,0,0,0,-1,1511,1506,0,0
294,-482,0,0,0,0,0,0,0,0,0,-1,1518,1506,0,0
301,-482,0,0,0,0,0,0,0,0,0,-1,1525,1506,0,0
308,-482,0,0,0,0,0,0,0,0,0,-1,1532,1506,0,0
315,-482,0,0,0,0,0,0,0,0,0,-1,1539,1506,0,0
322,-482,0,0,0,0,0,0,0,0,0,-1,1546,1506,0,0
329,-482,0,0,0,0,0,0,0,0,0,-1,1553,1506,0,0
336,-482,0,0,0,0,0,0,0,0,0,-1,1560,1506,0,0
343,-482,0,0,0,0,0,0,0,0,0,-1,1567,1506,0,0
350,-482,0,0,0,0,0,0,0,0,0,-1,1574,1506,0,0
357,-482,0,0,0,0,0,0,0,0,0,-1,1581,1506,0,0
364,-482,0,0,0,0,0,0,0,0,0,-1,1588,1506,0,0
371,-482,0,0,0,0,0,0,0,0,0,-1,1595,1506,0,0
378,-482,0,0,0,0,0,0,0,0,0,-1,1602,1506,0,0
385,-482,0,0,0,0,0,0,0,0,0,-1,1609,1506,0,0
392,-482,0,0,0,0,0,0,0,0,0,-1,1616,1506,0,0
399,-482,0,0,0,0,0,0,0,0,0,-1,1623,1506,0,0
406,-482,0,0,0,0,0,0,0,0,0,-1,1630,1506,0,0
413,-482,0,0,0,0,0,0,0,0,0,-1,1637,1506,0,0
420,-482,0,0,0,0,0,0,0,0,0,-1,1644,1506,0,0
427,-482,0,0,0,0,0,0,0,0,0,-1,1651,1506,0,0
434,-482,0,0,0,0,0,0,0,0,0,-1,1658,1506,0,0
441,-482,0,0,0,0,0,0,0,0,0,-1,1665,1506,0,0
448,-482,4.24146,1.55383,0,0,0,0,0,0,0,-1,1672,1506,4.24149,-1.55381
455,-482,12.4122,1.09729,0,0,0,0,0,0,0,-1,1679,1506,12.4122,-1.09734
462,-482,15.0673,3.13135,0,0,0,0,0,0,0,-1,1686,1506,15.0672,-3.13134
469,-482,15.3793,3.46301,0,0,0,0,0,0,0,-1,1693,1506,15.3793,-3.46307
476,-482,8.69751,9.18738,0,0,0,0,0,0,0,-1,1700,1506,8.69753,-9.18739
483,-482,10.0902,7.17432,0,0,0,0,0,0,0,-1,1707,1506,10.0902,-7.1743
490,-482,11.6289,5.4928,0,0,0,0,0,0,0,-1,1714,1506,11.6289,-5.49283
497,-482,15.9539,7.40222,0,0,0,0,0,0,0,-1,1721,1506,15.9538,-7.40219
504,-482,20.4233,12.006,0,0,0,0,0,0,0,-1,1728,1506,20.4233,-12.006
511,-482,18.4937,12.9175,0,0,0,0,0,0,0,-1,1735,1506,18.4936,-12.9174
518,-482,16.6002,13.9679,0,0,0,0,0,0,0,-1,1742,1506,16.6003,-13.9679
525,-482,18.495,15.9618,0,0,0,0,0,0,0,-1,1749,1506,18.495,-15.9618
532,-482,19.9375,21.0775,0,0,0,0,0,0,0,-1,1756,1506,19.9375,-21.0775
539,-482,20.2291,20.5577,0,0,0,0,0,0,0,-1,1763,1506,20.2291,-20.5578
546,-482,32.1263,35.6965,0,0,0,0,0,0,0,-1,1770,1506,32.1263,-35.6965
553,-482,31.9957,34.5536,0,0,0,0,0,0,0,-1,1777,1506,31.9957,-34.5536
560,-482,32.0983,33.6179,0.0092646,0.00524012,-0.00484355,0.0124973,0.00200745,-0.588522,0.00774952,0.0192093,1784,1506,32.0982,-33.618
567,-482,32.1731,32.7382,0.00725439,0.00383767,-0.003721,0.00964046,0.0014516,-0.570195,0.00600191,0.0153223,1791,1506,32.1731,-32.7381
574,-482,32.1256,31.9055,0.00562375,0.00281671,-0.0029176,0.00745786,0.000982599,-0.56121,0.00467889,0.014408,1798,1506,32.1256,-31.9055
581,-482,32.0631,31.061,0.00424036,0.00204004,-0.00228429,0.00567562,0.00060478,-0.56098,0.00359913,0.0102803,1805,1506,32.0631,-31.061
588,-482,32.0138,30.1837,0.00317595,0.00144399,-0.00179346,0.00430156,0.00031838,-0.560479,0.00276769,0.011242,1812,1506,32.0138,-30.1837
595,-482,31.9646,29.3276,0.00239413,0.000987442,-0.00129594,0.00316529,0.000216286,-0.536776,0.00204192,0.0172965,1819,1506,31.9646,-29.3276
602,-482,31.9189,28.4988,0.00177599,0.000686953,-0.000902757,0.00228573,0.000177208,-0.514024,0.00146832,0.020394,1826,1506,31.9189,-28.4988
609,-482,31.8618,27.6351,0.00129387,0.000479804,-0.000432452,0.00148072,0.00029296,-0.407833,0.00090543,0.0159737,1833,1506,31.8618,-27.6351
616,-482,31.7854,26.7742,0.00106015,0.000343597,0.000104102,0.00107496,0.000328779,0.141389,0.000636035,0.0121258,1840,1506,31.7854,-26.7742
623,-482,31.7174,25.9139,0.00092413,-6.92742e-05,0.00100024,0.00154421,-0.000689353,0.554944,0.00132066,0.0235624,1847,1506,31.7174,-25.9139
630,-482,31.8624,24.9089,0,0,0,0,0,0,0,-1,1854,1506,31.8624,-24.9089
637,-482,31.563,24.3276,0,0,0,0,0,0,0,-1,1861,1506,31.563,-24.3276
644,-482,29.0146,20.1443,0,0,0,0,0,0,0,-1,1868,1506,29.0147,-20.1442
651,-482,4.03845,7.05273,0,0,0,0,0,0,0,-1,1875,1506,4.03843,-7.05279
658,-482,10.0278,5.87903,0,0,0,0,0,0,0,-1,1882,1506,10.0279,-5.87902
665,-482,8.15198,3.22229,0,0,0,0,0,0,0,-1,1889,1506,8.15199,-3.22232
672,-482,9.87415,1.3147,0,0,0,0,0,0,0,-1,1896,1506,9.87416,-1.31473
679,-482,0,0,0,0,0,0,0,0,0,-1,1903,1506,0,0
686,-482,0,0,0,0,0,0,0,0,0,-1,1910,1506,0,0
693,-482,0,0,0,0,0,0,0,0,0,-1,1917,1506,0,0
700,-482,0,0,0,0,0,0,0,0,0,-1,1924,1506,0,0
707,-482,0,0,0,0,0,0,0,0,0,-1,1931,1506,0,0
714,-482,0,0,0,0,0,0,0,0,0,-1,1938,1506,0,0
721,-482,0,0,0,0,0,0,0,0,0,-1,1945,1506,0,0
728,-482,0,0,0,0,0,0,0,0,0,-1,1952,1506,0,0
735,-482,0,0,0,0,0,0,0,0,0,-1,1959,1506,0,0
742,-482,0,0,0,0,0,0,0,0,0,-1,1966,1506,0,0
749,-482,0,0,0,0,0,0,0,0,0,-1,1973,1506,0,0
756,-482,0,0,0,0,0,0,0,0,0,-1,1980,1506,0,0
763,-482,0,0,0,0,0,0,0,0,0,-1,1987,1506,0,0
770,-482,0,0,0,0,0,0,0,0,0,-1,1994,1506,0,0
777,-482,0,0,0,0,0,0,0,0,0,-1,2001,1506,0,0
784,-482,0,0,0,0,0,0,0,0,0,-1,2008,1506,0,0
791,-482,0,0,0,0,0,0,0,0,0,-1,2015,1506,0,0
798,-482,0,0,0,0,0,0,0,0,0,-1,2022,1506,0,0
805,-482,0,0,0,0,0,0,0,0,0,-1,2029,1506,0,0
812,-482,0,0,0,0,0,0,0,0,0,-1,2036,1506,0,0
-700,-489,0,0,0,0,0,0,0,0,0,-1,524,1513,0,0
-693,-489,0,0,0,0,0,0,0,0,0,-1,531,1513,0,0
-686,-489,0,0,0,0,0,0,0,0,0,-1,538,1513,0,0
-679,-489,0,0,0,0,0,0,0,0,0,-1,545,1513,0,0
-672,-489,0,0,0,0,0,0,0,0,0,-1,552,1513,0,0
-665,-489,0,0,0,0,0,0,0,0,0,-1,559,1513,0,0
-658,-489,0,0,0,0,0,0,0,0,0,-1,566,1513,0,0
-651,-489,0,0,0,0,0,0,0,0,0,-1,573,1513,0,0
-644,-489,0,0,0,0,0,0,0,0,0,-1,580,1513,0,0
-637,-489,0,0,0,0,0,0,0,0,0,-1,587,1513,0,0
-630,-489,0,0,0,0,0,0,0,0,0,-1,594,1513,0,0
-623,-489,0,0,0,0,0,0,0,0,0,-1,601,1513,0,0
-616,-489,0,0,0,0,0,0,0,0,0,-1,608,1513,0,0
-609,-489,0,0,0,0,0,0,0,0,0,-1,615,1513,0,0
-602,-489,0,0,0,0,0,0,0,0,0,-1,622,1513,0,0
-595,-489,0,0,0,0,0,0,0,0,0,-1,629,1513,0,0
-588,-489,0,0,0,0,0,0,0,0,0,-1,636,1513,0,0
-581,-489,0,0,0,0,0,0,0,0,0,-1,643,1513,0,0
-574,-489,0,0,0,0,0,0,0,0,0,-1,650,1513,0,0
-567,-489,0,0,0,0,0,0,0,0,0,-1,657,1513,0,0
-560,-489,0,0,0,0,0,0,0,0,0,-1,664,1513,0,0
-553,-489,-9.42206,8.5116,0,0,0,0,0,0,0,-1,671,1513,-9.42205,-8.51158
-546,-489,-7.80951,8.18506,0,0,0,0,0,0,0,-1,678,1513,-7.8095,-8.18503
-539,-489,-3.06879,2.82349,0,0,0,0,0,0,0,-1,685,1513,-3.06881,-2.82354
-532,-489,-3.14215,2.5835,0,0,0,0,0,0,0,-1,692,1513,-3.14213,-2.58353
-525,-489,-2.604,4.06274,0,0,0,0,0,0,0,-1,699,1513,-2.60399,-4.06274
-518,-489,-5.43774,7.48059,0,0,0,0,0,0,0,-1,706,1513,-5.43777,-7.48058
-511,-489,-7.52856,10.951,0,0,0,0,0,0,0,-1,713,1513,-7.52857,-10.951
-504,-489,-7.17352,12.8508,0,0,0,0,0,0,0,-1,720,1513,-7.17352,-12.8508
-497,-489,-5.51678,14.9254,0,0,0,0,0,0,0,-1,727,1513,-5.51681,-14.9254
-490,-489,-13.5903,26.0807,0,0,0,0,0,0,0,-1,734,1513,-13.5903,-26.0807
-483,-489,-13.4424,27.0928,0.00128208,0.00549034,0.00440918,0.00827171,-0.0014993,1.00803,0.00607622,0.0434673,741,1513,-13.4425,-27.0927
-476,-489,-13.4207,28.1742,0.000926707,0.00386484,0.00313879,0.00586134,-0.0010698,1.00427,0.00430866,0.0117114,748,1513,-13.4206,-28.1742
-469,-489,-13.4738,29.0924,0.000744768,0.00265518,0.00223533,0.00413085,-0.000730898,0.987316,0.00302709,0.0108147,755,1513,-13.4738,-29.0924
-462,-489,-13.5513,29.9451,0.00076069,0.00197089,0.00164331,0.00311696,-0.000385384,0.961805,0.00221763,0.0163559,762,1513,-13.5513,-29.9451
-455,-489,-13.611,30.823,0.000952461,0.00165492,0.00132795,0.0026773,-6.99229e-05,0.914682,0.00180863,0.0203499,769,1513,-13.611,-30.823
-448,-489,-13.6537,31.6692,0.00129348,0.00162722,0.00120655,0.00267838,0.000242317,0.854114,0.00171055,0.0183709,776,1513,-13.6537,-31.6692
-441,-489,-13.6799,32.569,0.00172329,0.00186477,0.00127625,0.00307224,0.000515823,0.813083,0.00189971,0.0158942,783,1513,-13.6799,-32.5689
-434,-489,-13.7505,33.4579,0.00222628,0.00237015,0.00150585,0.00380578,0.000790641,0.809266,0.00231901,0.0181176,790,1513,-13.7506,-33.4579
-427,-489,-13.8051,34.3159,0.00284529,0.00309615,0.00187007,0.00484499,0.00109644,0.818885,0.00293363,0.0200131,797,1513,-13.805,-34.3159
-420,-489,-13.8803,35.3392,0.00358948,0.00392555,0.00236294,0.00612642,0.00138861,0.820895,0.00370909,0.0296339,804,1513,-13.8803,-35.3392
-413,-489,-13.853,36.4791,0,0,0,0,0,0,0,-1,811,1513,-13.853,-36.4791
-406,-489,-3.10559,15.8143,0,0,0,0,0,0,0,-1,818,1513,-3.10556,-15.8143
-399,-489,-1.41241,9.10718,0,0,0,0,0,0,0,-1,825,1513,-1.41244,-9.10722
-392,-489,-1.0368,9.30469,0,0,0,0,0,0,0,-1,832,1513,-1.03682,-9.30466
-385,-489,-1.75165,10.6559,0,0,0,0,0,0,0,-1,839,1513,-1.75165,-10.6559
-378,-489,-0.401428,9.87048,0,0,0,0,0,0,0,-1,846,1513,-0.401415,-9.87047
-371,-489,-1.11633,10.6606,0,0,0,0,0,0,0,-1,853,1513,-1.11633,-10.6606
-364,-489,-0.503113,8.98486,0,0,0,0,0,0,0,-1,860,1513,-0.503097,-8.98482
-357,-489,-0.609924,10.9606,0,0,0,0,0,0,0,-1,867,1513,-0.609947,-10.9605
-350,-489,-7.94659,-0.358887,0,0,0,0,0,0,0,-1,874,1513,-7.94657,0.358912
-343,-489,-7.49323,-0.437866,0,0,0,0,0,0,0,-1,881,1513,-7.49322,0.437823
-336,-489,-7.02332,-0.53125,0,0,0,0,0,0,0,-1,888,1513,-7.0233,0.531295
-329,-489,-13.2786,4.96082,0,0,0,0,0,0,0,-1,895,1513,-13.2785,-4.96077
-322,-489,0,0,0,0,0,0,0,0,0,-1,902,1513,0,0
-315,-489,0,0,0,0,0,0,0,0,0,-1,909,1513,0,0
-308,-489,0,0,0,0,0,0,0,0,0,-1,916,1513,0,0
-301,-489,0,0,0,0,0,0,0,0,0,-1,923,1513,0,0
-294,-489,0,0,0,0,0,0,0,0,0,-1,930,1513,0,0
-287,-489,0,0,0,0,0,0,0,0,0,-1,937,1513,0,0
-280,-489,0,0,0,0,0,0,0,0,0,-1,944,1513,0,0
-273,-489,0,0,0,0,0,0,0,0,0,-1,951,1513,0,0
-266,-489,0,0,0,0,0,0,0,0,0,-1,958,1513,0,0
-259,-489,0,0,0,0,0,0,0,0,0,-1,965,1513,0,0
-252,-489,0,0,0,0,0,0,0,0,0,-1,972,1513,0,0
-245,-489,0,0,0,0,0,0,0,0,0,-1,979,1513,0,0
-238,-489,0,0,0,0,0,0,0,0,0,-1,986,1513,0,0
-231,-489,0,0,0,0,0,0,0,0,0,-1,993,1513,0,0
-224,-489,0,0,0,0,0,0,0,0,0,-1,1000,1513,0,0
-217,-489,0,0,0,0,0,0,0,0,0,-1,1007,1513,0,0
-210,-489,0,0,0,0,0,0,0,0,0,-1,1014,1513,0,0
-203,-489,0,0,0,0,0,0,0,0,0,-1,1021,1513,0,0
-196,-489,0,0,0,0,0,0,0,0,0,-1,1028,1513,0,0
-189,-489,0,0,0,0,0,0,0,0,0,-1,1035,1513,0,0
-182,-489,0,0,0,0,0,0,0,0,0,-1,1042,1513,0,0
-175,-489,0,0,0,0,0,0,0,0,0,-1,1049,1513,0,0
-168,-489,0,0,0,0,0,0,0,0,0,-1,1056,1513,0,0
-161,-489,0,0,0,0,0,0,0,0,0,-1,1063,1513,0,0
-154,-489,0,0,0,0,0,0,0,0,0,-1,1070,1513,0,0
-147,-489,0,0,0,0,0,0,0,0,0,-1,1077,1513,0,0
-140,-489,0,0,0,0,0,0,0,0,0,-1,1084,1513,0,0
-133,-489,0,0,0,0,0,0,0,0,0,-1,1091,1513,0,0
-126,-489,0,0,0,0,0,0,0,0,0,-1,1098,1513,0,0
-119,-489,0,0,0,0,0,0,0,0,0,-1,1105,1513,0,0
-112,-489,0,0,0,0,0,0,0,0,0,-1,1112,1513,0,0
-105,-489,0,0,0,0,0,0,0,0,0,-1,1119,1513,0,0
-98,-489,0,0,0,0,0,0,0,0,0,-1,1126,1513,0,0
-91,-489,0,0,0,0,0,0,0,0,0,-1,1133,1513,0,0
-84,-489,0,0,0,0,0,0,0,0,0,-1,1140,1513,0,0
-77,-489,0,0,0,0,0,0,0,0,0,-1,1147,1513,0,0
-70,-489,0,0,0,0,0,0,0,0,0,-1,1154,1513,0,0
-63,-489,0,0,0,0,0,0,0,0,0,-1,1161,1513,0,0
-56,-489,0,0,0,0,0,0,0,0,0,-1,1168,1513,0,0
-49,-489,0,0,0,0,0,0,0,0,0,-1,1175,1513,0,0
-42,-489,0,0,0,0,0,0,0,0,0,-1,1182,1513,0,0
-35,-489,0,0,0,0,0,0,0,0,0,-1,1189,1513,0,0
-28,-489,0,0,0,0,0,0,0,0,0,-1,1196,1513,0,0
-21,-489,0,0,0,0,0,0,0,0,0,-1,1203,1513,0,0
-14,-489,0,0,0,0,0,0,0,0,0,-1,1210,1513,0,0
-7,-489,0,0,0,0,0,0,0,0,0,-1,1217,1513,0,0
0,-489,0,0,0,0,0,0,0,0,0,-1,1224,1513,0,0
7,-489,0,0,0,0,0,0,0,0,0,-1,1231,1513,0,0
14,-489,0,0,0,0,0,0,0,0,0,-1,1238,1513,0,0
21,-489,0,0,0,0,0,0,0,0,0,-1,1245,1513,0,0
28,-489,0,0,0,0,0,0,0,0,0,-1,1252,1513,0,0
35,-489,0,0,0,0,0,0,0,0,0,-1,1259,1513,0,0
42,-489,0,0,0,0,0,0,0,0,0,-1,1266,1513,0,0
49,-489,0,0,0,0,0,0,0,0,0,-1,1273,1513,0,0
56,-489,0,0,0,0,0,0,0,0,0,-1,1280,1513,0,0
63,-489,0,0,0,0,0,0,0,0,0,-1,1287,1513,0,0
70,-489,0,0,0,0,0,0,0,0,0,-1,1294,1513,0,0
77,-489,0,0,0,0,0,0,0,0,0,-1,1301,1513,0,0
84,-489,0,0,0,0,0,0,0,0,0,-1,1308,1513,0,0
91,-489,0,0,0,0,0,0,0,0,0,-1,1315,1513,0,0
98,-489,0,0,0,0,0,0,0,0,0,-1,1322,1513,0,0
105,-489,0,0,0,0,0,0,0,0,0,-1,1329,1513,0,0
112,-489,0,0,0,0,0,0,0,0,0,-1,1336,1513,0,0
119,-489,0,0,0,0,0,0,0,0,0,-1,1343,1513,0,0
126,-489,0,0,0,0,0,0,0,0,0,-1,1350,1513,0,0
133,-489,0,0,0,0,0,0,0,0,0,-1,1357,1513,0,0
140,-489,0,0,0,0,0,0,0,0,0,-1,1364,1513,0,0
147,-489,0,0,0,0,0,0,0,0,0,-1,1371,1513,0,0
154,-489,0,0,0,0,0,0,0,0,0,-1,1378,1513,0,0
161,-489,0,0,0,0,0,0,0,0,0,-1,1385,1513,0,0
168,-489,0,0,0,0,0,0,0,0,0,-1,1392,1513,0,0
175,-489,0,0,0,0,0,0,0,0,0,-1,1399,1513,0,0
182,-489,0,0,0,0,0,0,0,0,0,-1,1406,1513,0,0
189,-489,0,0,0,0,0,0,0,0,0,-1,1413,1513,0,0
196,-489,0,0,0,0,0,0,0,0,0,-1,1420,1513,0,0
203,-489,0,0,0,0,0,0,0,0,0,-1,1427,1513,0,0
210,-489,0,0,0,0,0,0,0,0,0,-1,1434,1513,0,0
217,-489,0,0,0,0,0,0,0,0,0,-1,1441,1513,0,0
224,-489,0,0,0,0,0,0,0,0,0,-1,1448,1513,0,0
231,-489,0,0,0,0,0,0,0,0,0,-1,1455,1513,0,0
238,-489,0,0,0,0,0,0,0,0,0,-1,1462,1513,0,0
245,-489,0,0,0,0,0,0,0,0,0,-1,1469,1513,0,0
252,-489,0,0,0,0,0,0,0,0,0,-1,1476,1513,0,0
259,-489,0,0,0,0,0,0,0,0,0,-1,1483,1513,0,0
266,-489,0,0,0,0,0,0,0,0,0,-1,1490,1513,0,0
273,-489,0,0,0,0,0,0,0,0,0,-1,1497,1513,0,0
280,-489,0,0,0,0,0,0,0,0,0,-1,1504,1513,0,0
287,-489,0,0,0,0,0,0,0,0,0,-1,1511,1513,0,0
294,-489,0,0,0,0,0,0,0,0,0,-1,1518,1513,0,0
301,-489,0,0,0,0,0,0,0,0,0,-1,1525,1513,0,0
308,-489,0,0,0,0,0,0,0,0,0,-1,1532,1513,0,0
315,-489,0,0,0,0,0,0,0,0,0,-1,1539,1513,0,0
322,-489,0,0,0,0,0,0,0,0,0,-1,1546,1513,0,0
329,-489,0,0,0,0,0,0,0,0,0,-1,1553,1513,0,0
336,-489,0,0,0,0,0,0,0,0,0,-1,1560,1513,0,0
343,-489,0,0,0,0,0,0,0,0,0,-1,1567,1513,0,0
350,-489,0,0,0,0,0,0,0,0,0,-1,1574,1513,0,0
357,-489,0,0,0,0,0,0,0,0,0,-1,1581,1513,0,0
364,-489,0,0,0,0,0,0,0,0,0,-1,1588,1513,0,0
371,-489,0,0,0,0,0,0,0,0,0,-1,1595,1513,0,0
378,-489,0,0,0,0,0,0,0,0,0,-1,1602,1513,0,0
385,-489,0,0,0,0,0,0,0,0,0,-1,1609,1513,0,0
392,-489,0,0,0,0,0,0,0,0,0,-1,1616,1513,0,0
399,-489,0,0,0,0,0,0,0,0,0,-1,1623,1513,0,0
406,-489,0,0,0,0,0,0,0,0,0,-1,1630,1513,0,0
413,-489,0,0,0,0,0,0,0,0,0,-1,1637,1513,0,0
420,-489,0,0,0,0,0,0,0,0,0,-1,1644,1513,0,0
427,-489,0,0,0,0,0,0,0,0,0,-1,1651,1513,0,0
434,-489,0,0,0,0,0,0,0,0,0,-1,1658,1513,0,0
441,-489,11.4602,2.56787,0,0,0,0,0,0,0,-1,1665,1513,11.4602,-2.56786
448,-489,12.4425,1.72351,0,0,0,0,0,0,0,-1,1672,1513,12.4425,-1.72349
455,-489,12.5575,1.37463,0,0,0,0,0,0,0,-1,1679,1513,12.5575,-1.37469
462,-489,14.9784,3.84888,0,0,0,0,0,0,0,-1,1686,1513,14.9784,-3.84892
469,-489,15.1367,4.53101,0,0,0,0,0,0,0,-1,1693,1513,15.1368,-4.531
476,-489,15.5536,5.09338,0,0,0,0,0,0,0,-1,1700,1513,15.5536,-5.09339
483,-489,8.96912,8.37805,0,0,0,0,0,0,0,-1,1707,1513,8.96909,-8.37809
490,-489,10.5366,7.49561,0,0,0,0,0,0,0,-1,1714,1513,10.5367,-7.49558
497,-489,14.6051,11.8397,0,0,0,0,0,0,0,-1,1721,1513,14.6051,-11.8397
504,-489,16.7527,14.1735,0,0,0,0,0,0,0,-1,1728,1513,16.7527,-14.1735
511,-489,17.83,17.7993,0,0,0,0,0,0,0,-1,1735,1513,17.83,-17.7993
518,-489,16.4751,14.3682,0,0,0,0,0,0,0,-1,1742,1513,16.4751,-14.3682
525,-489,17.2606,17.4949,0,0,0,0,0,0,0,-1,1749,1513,17.2606,-17.4949
532,-489,19.397,21.0182,0,0,0,0,0,0,0,-1,1756,1513,19.397,-21.0182
539,-489,31.1719,36.693,0,0,0,0,0,0,0,-1,1763,1513,31.1719,-36.693
546,-489,31.375,35.5924,0.0120347,0.00821777,-0.00716985,0.0175458,0.00270674,-0.655324,0.0109074,0.045605,1770,1513,31.375,-35.5924
553,-489,31.3344,34.5587,0.00968223,0.00626398,-0.00550323,0.0137356,0.00221058,-0.634836,0.0085164,0.0252406,1777,1513,31.3344,-34.5588
560,-489,31.3301,33.6244,0.00767362,0.00465766,-0.00418089,0.0106102,0.00172111,-0.612318,0.00657526,0.0143078,1784,1513,31.3301,-33.6244
567,-489,31.34,32.7644,0.00599559,0.00340909,-0.00322975,0.00818139,0.00122329,-0.594965,0.00509568,0.0145896,1791,1513,31.3399,-32.7644
574,-489,31.2671,31.9698,0.0046414,0.00248528,-0.00254853,0.00633051,0.000796174,-0.585305,0.00398157,0.0147709,1798,1513,31.267,-31.9699
581,-489,31.2286,31.1122,0.00348647,0.00179758,-0.00203546,0.0048457,0.000438347,-0.588769,0.00309472,0.01118,1805,1513,31.2286,-31.1122
588,-489,31.1807,30.2089,0.00261763,0.00127296,-0.00165347,0.00373023,0.000160361,-0.592297,0.00243513,0.014203,1812,1513,31.1807,-30.2088
595,-489,31.1112,29.3867,0.00201135,0.00091991,-0.00126626,0.00284448,8.67866e-05,-0.581939,0.00186806,0.0201626,1819,1513,31.1112,-29.3867
602,-489,31.053,28.5668,0.00157268,0.000756271,-0.000993566,0.00223863,9.03239e-05,-0.590486,0.00146324,0.0242373,1826,1513,31.053,-28.5668
609,-489,31.0035,27.6765,0.00123722,0.000653906,-0.000638364,0.00164739,0.000243727,-0.571118,0.00102671,0.0169668,1833,1513,31.0036,-27.6765
616,-489,30.9797,26.7954,0.00124737,0.000676346,-0.000240194,0.00133496,0.000588749,-0.349705,0.000772527,0.0230146,1840,1513,30.9798,-26.7955
623,-489,30.9805,25.818,0,0,0,0,0,0,0,-1,1847,1513,30.9804,-25.818
630,-489,30.3123,23.9675,0,0,0,0,0,0,0,-1,1854,1513,30.3123,-23.9676
637,-489,17.2048,11.8091,0,0,0,0,0,0,0,-1,1861,1513,17.2048,-11.8091
644,-489,9.67578,8.45874,0,0,0,0,0,0,0,-1,1868,1513,9.67576,-8.45879
651,-489,6.13818,6.85095,0,0,0,0,0,0,0,-1,1875,1513,6.13823,-6.85097
658,-489,5.43848,7.75513,0,0,0,0,0,0,0,-1,1882,1513,5.43844,-7.75509
665,-489,5.48438,8.59912,0,0,0,0,0,0,0,-1,1889,1513,5.48434,-8.59907
672,-489,0,0,0,0,0,0,0,0,0,-1,1896,1513,0,0
679,-489,0,0,0,0,0,0,0,0,0,-1,1903,1513,0,0
686,-489,0,0,0,0,0,0,0,0,0,-1,1910,1513,0,0
693,-489,0,0,0,0,0,0,0,0,0,-1,1917,1513,0,0
700,-489,0,0,0,0,0,0,0,0,0,-1,1924,1513,0,0
707,-489,0,0,0,0,0,0,0,0,0,-1,1931,1513,0,0
714,-489,0,0,0,0,0,0,0,0,0,-1,1938,1513,0,0
721,-489,0,0,0,0,0,0,0,0,0,-1,1945,1513,0,0
728,-489,0,0,0,0,0,0,0,0,0,-1,1952,1513,0,0
735,-489,0,0,0,0,0,0,0,0,0,-1,1959,1513,0,0
742,-489,0,0,0,0,0,0,0,0,0,-1,1966,1513,0,0
749,-489,0,0,0,0,0,0,0,0,0,-1,1973,1513,0,0
756,-489,0,0,0,0,0,0,0,0,0,-1,1980,1513,0,0
763,-489,0,0,0,0,0,0,0,0,0,-1,1987,1513,0,0
770,-489,0,0,0,0,0,0,0,0,0,-1,1994,1513,0,0
777,-489,0,0,0,0,0,0,0,0,0,-1,2001,1513,0,0
784,-489,0,0,0,0,0,0,0,0,0,-1,2008,1513,0,0
791,-489,0,0,0,0,0,0,0,0,0,-1,2015,1513,0,0
798,-489,0,0,0,0,0,0,0,0,0,-1,2022,1513,0,0
805,-489,0,0,0,0,0,0,0,0,0,-1,2029,1513,0,0
812,-489,0,0,0,0,0,0,0,0,0,-1,2036,1513,0,0
-700,-496,0,0,0,0,0,0,0,0,0,-1,524,1520,0,0
-693,-496,0,0,0,0,0,0,0,0,0,-1,531,1520,0,0
-686,-496,0,0,0,0,0,0,0,0,0,-1,538,1520,0,0
-679,-496,0,0,0,0,0,0,0,0,0,-1,545,1520,0,0
-672,-496,0,0,0,0,0,0,0,0,0,-1,552,1520,0,0
-665,-496,0,0,0,0,0,0,0,0,0,-1,559,1520,0,0
-658,-496,0,0,0,0,0,0,0,0,0,-1,566,1520,0,0
-651,-496,0,0,0,0,0,0,0,0,0,-1,573,1520,0,0
-644,-496,0,0,0,0,0,0,0,0,0,-1,580,1520,0,0
-637,-496,0,0,0,0,0,0,0,0,0,-1,587,1520,0,0
-630,-496,0,0,0,0,0,0,0,0,0,-1,594,1520,0,0
-623,-496,0,0,0,0,0,0,0,0,0,-1,601,1520,0,0
-616,-496,0,0,0,0,0,0,0,0,0,-1,608,1520,0,0
-609,-496,0,0,0,0,0,0,0,0,0,-1,615,1520,0,0
-602,-496,0,0,0,0,0,0,0,0,0,-1,622,1520,0,0
-595,-496,0,0,0,0,0,0,0,0,0,-1,629,1520,0,0
-588,-496,0,0,0,0,0,0,0,0,0,-1,636,1520,0,0
-581,-496,0,0,0,0,0,0,0,0,0,-1,643,1520,0,0
-574,-496,0,0,0,0,0,0,0,0,0,-1,650,1520,0,0
-567,-496,0,0,0,0,0,0,0,0,0,-1,657,1520,0,0
-560,-496,0,0,0,0,0,0,0,0,0,-1,664,1520,0,0
-553,-496,0,0,0,0,0,0,0,0,0,-1,671,1520,0,0
-546,-496,-8.09711,7.94836,0,0,0,0,0,0,0,-1,678,1520,-8.09712,-7.94842
-539,-496,-3.20129,1.16052,0,0,0,0,0,0,0,-1,685,1520,-3.20131,-1.16054
-532,-496,-2.98279,2.62146,0,0,0,0,0,0,0,-1,692,1520,-2.98278,-2.62151
-525,-496,-2.75201,4.08032,0,0,0,0,0,0,0,-1,699,1520,-2.75201,-4.08031
-518,-496,-2.6333,5.36072,0,0,0,0,0,0,0,-1,706,1520,-2.63328,-5.36077
-511,-496,-7.92126,9.68604,0,0,0,0,0,0,0,-1,713,1520,-7.92127,-9.68598
-504,-496,-7.51044,11.6274,0,0,0,0,0,0,0,-1,720,1520,-7.51042,-11.6275
-497,-496,-5.30933,14.4291,0,0,0,0,0,0,0,-1,727,1520,-5.30932,-14.4291
-490,-496,-8.21246,19.5051,0,0,0,0,0,0,0,-1,734,1520,-8.21243,-19.5051
-483,-496,-12.7349,27.1257,0,0,0,0,0,0,0,-1,741,1520,-12.7349,-27.1257
-476,-496,-12.5971,28.1797,0.000412848,0.00436603,0.00330209,0.00623791,-0.00145903,1.05509,0.00472072,0.0332041,748,1520,-12.5971,-28.1797
-469,-496,-12.6119,29.1437,0.000307139,0.00290662,0.00230759,0.00425533,-0.00104157,1.04188,0.00324037,0.0104734,755,1520,-12.612,-29.1437
-462,-496,-12.6961,30.0338,0.000381992,0.00208842,0.00165604,0.00309812,-0.000627703,1.02327,0.00230333,0.0156763,762,1520,-12.6961,-30.0338
-455,-496,-12.762,30.9246,0.000615619,0.00166376,0.00129136,0.00253334,-0.000253957,0.978159,0.00177959,0.021237,769,1520,-12.762,-30.9246
-448,-496,-12.7938,31.7964,0.000959476,0.00152571,0.00111743,0.00239533,8.98589e-05,0.909471,0.00156779,0.0194191,776,1520,-12.7938,-31.7964
-441,-496,-12.8084,32.6521,0.00135078,0.00163256,0.00111778,0.0026183,0.000365049,0.848091,0.00163747,0.0147412,783,1520,-12.8084,-32.6521
-434,-496,-12.8692,33.517,0.00176944,0.00200188,0.00126432,0.00315531,0.000616009,0.831232,0.00193124,0.0147764,790,1520,-12.8692,-33.5169
-427,-496,-12.9233,34.3774,0.00222915,0.00249482,0.00149521,0.00386309,0.000860886,0.829702,0.00234178,0.0190363,797,1520,-12.9233,-34.3775
-420,-496,-12.9476,35.2286,0.0027709,0.00309475,0.00182991,0.00476989,0.00109577,0.829528,0.00288489,0.0191114,804,1520,-12.9476,-35.2286
-413,-496,-12.9103,36.1735,0.0031822,0.00387368,0.00217968,0.00573487,0.00132101,0.864053,0.00346782,0.0336883,811,1520,-12.9103,-36.1734
-406,-496,-12.8077,37.3335,0,0,0,0,0,0,0,-1,818,1520,-12.8076,-37.3335
-399,-496,-11.5063,36.5204,0,0,0,0,0,0,0,-1,825,1520,-11.5063,-36.5204
-392,-496,-1.49786,12.387,0,0,0,0,0,0,0,-1,832,1520,-1.49788,-12.387
-385,-496,-1.72437,11.4985,0,0,0,0,0,0,0,-1,839,1520,-1.72436,-11.4985
-378,-496,-1.45532,14.0719,0,0,0,0,0,0,0,-1,846,1520,-1.45533,-14.0719
-371,-496,0.0877075,12.5299,0,0,0,0,0,0,0,-1,853,1520,0.0876896,-12.5299
-364,-496,0.0881348,10.6422,0,0,0,0,0,0,0,-1,860,1520,0.0881368,-10.6423
-357,-496,0.323792,7.56812,0,0,0,0,0,0,0,-1,867,1520,0.323782,-7.56806
-350,-496,2.1535,7.18945,0,0,0,0,0,0,0,-1,874,1520,2.15348,-7.1894
-343,-496,-7.56244,0.335327,0,0,0,0,0,0,0,-1,881,1520,-7.56242,-0.335322
-336,-496,-3.99249,6.02222,0,0,0,0,0,0,0,-1,888,1520,-3.99246,-6.0222
-329,-496,-6.93689,-0.100342,0,0,0,0,0,0,0,-1,895,1520,-6.93686,0.1003
-322,-496,-6.17505,0.494385,0,0,0,0,0,0,0,-1,902,1520,-6.17507,-0.49437
-315,-496,-7.539,5.78638,0,0,0,0,0,0,0,-1,909,1520,-7.53898,-5.78633
-308,-496,0,0,0,0,0,0,0,0,0,-1,916,1520,0,0
-301,-496,0,0,0,0,0,0,0,0,0,-1,923,1520,0,0
-294,-496,0,0,0,0,0,0,0,0,0,-1,930,1520,0,0
-287,-496,0,0,0,0,0,0,0,0,0,-1,937,1520,0,0
-280,-496,0,0,0,0,0,0,0,0,0,-1,944,1520,0,0
-273,-496,0,0,0,0,0,0,0,0,0,-1,951,1520,0,0
-266,-496,0,0,0,0,0,0,0,0,0,-1,958,1520,0,0
-259,-496,0,0,0,0,0,0,0,0,0,-1,965,1520,0,0
-252,-496,0,0,0,0,0,0,0,0,0,-1,972,1520,0,0
-245,-496,0,0,0,0,0,0,0,0,0,-1,979,1520,0,0
-238,-496,0,0,0,0,0,0,0,0,0,-1,986,1520,0,0
-231,-496,0,0,0,0,0,0,0,0,0,-1,993,1520,0,0
-224,-496,0,0,0,0,0,0,0,0,0,-1,1000,1520,0,0
-217,-496,0,0,0,0,0,0,0,0,0,-1,1007,1520,0,0
-210,-496,0,0,0,0,0,0,0,0,0,-1,1014,1520,0,0
-203,-496,0,0,0,0,0,0,0,0,0,-1,1021,1520,0,0
-196,-496,0,0,0,0,0,0,0,0,0,-1,1028,1520,0,0
-189,-496,0,0,0,0,0,0,0,0,0,-1,1035,1520,0,0
-182,-496,0,0,0,0,0,0,0,0,0,-1,1042,1520,0,0
-175,-496,0,0,0,0,0,0,0,0,0,-1,1049,1520,0,0
-168,-496,0,0,0,0,0,0,0,0,0,-1,1056,1520,0,0
-161,-496,0,0,0,0,0,0,0,0,0,-1,1063,1520,0,0
-154,-496,0,0,0,0,0,0,0,0,0,-1,1070,1520,0,0
-147,-496,0,0,0,0,0,0,0,0,0,-1,1077,1520,0,0
-140,-496,0,0,0,0,0,0,0,0,0,-1,1084,1520,0,0
-133,-496,0,0,0,0,0,0,0,0,0,-1,1091,1520,0,0
-126,-496,0,0,0,0,0,0,0,0,0,-1,1098,1520,0,0
-119,-496,0,0,0,0,0,0,0,0,0,-1,1105,1520,0,0
-112,-496,0,0,0,0,0,0,0,0,0,-1,1112,1520,0,0
-105,-496,0,0,0,0,0,0,0,0,0,-1,1119,1520,0,0
-98,-496,0,0,0,0,0,0,0,0,0,-1,1126,1520,0,0
-91,-496,0,0,0,0,0,0,0,0,0,-1,1133,1520,0,0
-84,-496,0,0,0,0,0,0,0,0,0,-1,1140,1520,0,0
-77,-496,0,0,0,0,0,0,0,0,0,-1,1147,1520,0,0
-70,-496,0,0,0,0,0,0,0,0,0,-1,1154,1520,0,0
-63,-496,0,0,0,0,0,0,0,0,0,-1,1161,1520,0,0
-56,-496,0,0,0,0,0,0,0,0,0,-1,1168,1520,0,0
-49,-496,0,0,0,0,0,0,0,0,0,-1,1175,1520,0,0
-42,-496,0,0,0,0,0,0,0,0,0,-1,1182,1520,0,0
-35,-496,0,0,0,0,0,0,0,0,0,-1,1189,1520,0,0
-28,-496,0,0,0,0,0,0,0,0,0,-1,1196,1520,0,0
-21,-496,0,0,0,0,0,0,0,0,0,-1,1203,1520,0,0
-14,-496,0,0,0,0,0,0,0,0,0,-1,1210,1520,0,0
-7,-496,0,0,0,0,0,0,0,0,0,-1,1217,1520,0,0
0,-496,0,0,0,0,0,0,0,0,0,-1,1224,1520,0,0
7,-496,0,0,0,0,0,0,0,0,0,-1,1231,1520,0,0
14,-496,0,0,0,0,0,0,0,0,0,-1,1238,1520,0,0
21,-496,0,0,0,0,0,0,0,0,0,-1,1245,1520,0,0
28,-496,0,0,0,0,0,0,0,0,0,-1,1252,1520,0,0
35,-496,0,0,0,0,0,0,0,0,0,-1,1259,1520,0,0
42,-496,0,0,0,0,0,0,0,0,0,-1,1266,1520,0,0
49,-496,0,0,0,0,0,0,0,0,0,-1,1273,1520,0,0
56,-496,0,0,0,0,0,0,0,0,0,-1,1280,1520,0,0
63,-496,0,0,0,0,0,0,0,0,0,-1,1287,1520,0,0
70,-496,0,0,0,0,0,0,0,0,0,-1,1294,1520,0,0
77,-496,0,0,0,0,0,0,0,0,0,-1,1301,1520,0,0
84,-496,0,0,0,0,0,0,0,0,0,-1,1308,1520,0,0
91,-496,0,0,0,0,0,0,0,0,0,-1,1315,1520,0,0
98,-496,0,0,0,0,0,0,0,0,0,-1,1322,1520,0,0
105,-496,0,0,0,0,0,0,0,0,0,-1,1329,1520,0,0
112,-496,0,0,0,0,0,0,0,0,0,-1,1336,1520,0,0
119,-496,0,0,0,0,0,0,0,0,0,-1,1343,1520,0,0
126,-496,0,0,0,0,0,0,0,0,0,-1,1350,1520,0,0
133,-496,0,0,0,0,0,0,0,0,0,-1,1357,1520,0,0
140,-496,0,0,0,0,0,0,0,0,0,-1,1364,1520,0,0
147,-496,0,0,0,0,0,0,0,0,0,-1,1371,1520,0,0
154,-496,0,0,0,0,0,0,0,0,0,-1,1378,1520,0,0
161,-496,0,0,0,0,0,0,0,0,0,-1,1385,1520,0,0
168,-496,0,0,0,0,0,0,0,0,0,-1,1392,1520,0,0
175,-496,0,0,0,0,0,0,0,0,0,-1,1399,1520,0,0
182,-496,0,0,0,0,0,0,0,0,0,-1,1406,1520,0,0
189,-496,0,0,0,0,0,0,0,0,0,-1,1413,1520,0,0
196,-496,0,0,0,0,0,0,0,0,0,-1,1420,1520,0,0
203,-496,0,0,0,0,0,0,0,0,0,-1,1427,1520,0,0
210,-496,0,0,0,0,0,0,0,0,0,-1,1434,1520,0,0
217,-496,0,0,0,0,0,0,0,0,0,-1,1441,1520,0,0
224,-496,0,0,0,0,0,0,0,0,0,-1,1448,1520,0,0
231,-496,0,0,0,0,0,0,0,0,0,-1,1455,1520,0,0
238,-496,0,0,0,0,0,0,0,0,0,-1,1462,1520,0,0
245,-496,0,0,0,0,0,0,0,0,0,-1,1469,1520,0,0
252,-496,0,0,0,0,0,0,0,0,0,-1,1476,1520,0,0
259,-496,0,0,0,0,0,0,0,0,0,-1,1483,1520,0,0
266,-496,0,0,0,0,0,0,0,0,0,-1,1490,1520,0,0
273,-496,0,0,0,0,0,0,0,0,0,-1,1497,1520,0,0
280,-496,0,0,0,0,0,0,0,0,0,-1,1504,1520,0,0
287,-496,0,0,0,0,0,0,0,0,0,-1,1511,1520,0,0
294,-496,0,0,0,0,0,0,0,0,0,-1,1518,1520,0,0
301,-496,0,0,0,0,0,0,0,0,0,-1,1525,1520,0,0
308,-496,0,0,0,0,0,0,0,0,0,-1,1532,1520,0,0
315,-496,0,0,0,0,0,0,0,0,0,-1,1539,1520,0,0
322,-496,0,0,0,0,0,0,0,0,0,-1,1546,1520,0,0
329,-496,0,0,0,0,0,0,0,0,0,-1,1553,1520,0,0
336,-496,0,0,0,0,0,0,0,0,0,-1,1560,1520,0,0
343,-496,0,0,0,0,0,0,0,0,0,-1,1567,1520,0,0
350,-496,0,0,0,0,0,0,0,0,0,-1,1574,1520,0,0
357,-496,0,0,0,0,0,0,0,0,0,-1,1581,1520,0,0
364,-496,0,0,0,0,0,0,0,0,0,-1,1588,1520,0,0
371,-496,0,0,0,0,0,0,0,0,0,-1,1595,1520,0,0
378,-496,0,0,0,0,0,0,0,0,0,-1,1602,1520,0,0
385,-496,0,0,0,0,0,0,0,0,0,-1,1609,1520,0,0
392,-496,0,0,0,0,0,0,0,0,0,-1,1616,1520,0,0
399,-496,0,0,0,0,0,0,0,0,0,-1,1623,1520,0,0
406,-496,0,0,0,0,0,0,0,0,0,-1,1630,1520,0,0
413,-496,0,0,0,0,0,0,0,0,0,-1,1637,1520,0,0
420,-496,0,0,0,0,0,0,0,0,0,-1,1644,1520,0,0
427,-496,0,0,0,0,0,0,0,0,0,-1,1651,1520,0,0
434,-496,11.0457,3.37732,0,0,0,0,0,0,0,-1,1658,1520,11.0456,-3.37736
441,-496,11.788,2.75488,0,0,0,0,0,0,0,-1,1665,1520,11.7879,-2.75485
448,-496,12.2146,2.18494,0,0,0,0,0,0,0,-1,1672,1520,12.2146,-2.18489
455,-496,12.3489,1.65173,0,0,0,0,0,0,0,-1,1679,1520,12.3489,-1.65178
462,-496,12.1912,1.32361,0,0,0,0,0,0,0,-1,1686,1520,12.1911,-1.32357
469,-496,14.8138,5.77954,0,0,0,0,0,0,0,-1,1693,1520,14.8138,-5.77958
476,-496,15.2449,6.27942,0,0,0,0,0,0,0,-1,1700,1520,15.2449,-6.27936
483,-496,9.19812,6.88367,0,0,0,0,0,0,0,-1,1707,1520,9.19812,-6.88361
490,-496,10.2123,7.97144,0,0,0,0,0,0,0,-1,1714,1520,10.2122,-7.97145
497,-496,13.9297,12.2981,0,0,0,0,0,0,0,-1,1721,1520,13.9297,-12.2982
504,-496,16.3271,16.6501,0,0,0,0,0,0,0,-1,1728,1520,16.3272,-16.6502
511,-496,17.6753,18.0685,0,0,0,0,0,0,0,-1,1735,1520,17.6753,-18.0685
518,-496,17.0537,17.3118,0,0,0,0,0,0,0,-1,1742,1520,17.0538,-17.3118
525,-496,18.2721,19.3259,0,0,0,0,0,0,0,-1,1749,1520,18.2721,-19.3259
532,-496,30.6672,36.535,0,0,0,0,0,0,0,-1,1756,1520,30.6672,-36.5351
539,-496,30.354,36.4709,0,0,0,0,0,0,0,-1,1763,1520,30.354,-36.471
546,-496,30.4307,35.4967,0.00979458,0.00706797,-0.00603196,0.0146154,0.00224717,-0.674259,0.00908762,0.0252956,1770,1520,30.4307,-35.4967
553,-496,30.5435,34.5129,0.0078363,0.00540992,-0.00461804,0.0113978,0.00184837,-0.656948,0.00706352,0.0167136,1777,1520,30.5434,-34.5129
560,-496,30.5266,33.6665,0.006174,0.00403161,-0.00351434,0.00877678,0.00142883,-0.637467,0.00543784,0.015951,1784,1520,30.5266,-33.6665
567,-496,30.4709,32.8125,0.00481088,0.00295514,-0.00274497,0.00678056,0.000985462,-0.622414,0.00423032,0.0129484,1791,1520,30.4709,-32.8125
574,-496,30.4126,31.9803,0.00373382,0.00215698,-0.00220836,0.00529028,0.000600524,-0.613943,0.0033447,0.0124347,1798,1520,30.4126,-31.9803
581,-496,30.3595,31.1624,0.00283879,0.00158771,-0.00184771,0.00416398,0.000262524,-0.62218,0.00269275,0.0141703,1805,1520,30.3595,-31.1624
588,-496,30.3427,30.2809,0.00220633,0.00117323,-0.00161905,0.00338923,-9.67551e-06,-0.63098,0.00226272,0.0171765,1812,1520,30.3426,-30.2808
595,-496,30.2645,29.4451,0.00182015,0.00096307,-0.00140043,0.00285614,-7.29193e-05,-0.63692,0.00192886,0.0185502,1819,1520,30.2646,-29.4451
602,-496,30.1984,28.6157,0.0016237,0.000982792,-0.00130023,0.00264239,-3.58968e-05,-0.664577,0.00177368,0.0184227,1826,1520,30.1984,-28.6158
609,-496,30.184,27.7065,0.00150721,0.00101172,-0.00112231,0.00240879,0.000110137,-0.676767,0.00157044,0.0181668,1833,1520,30.1839,-27.7065
616,-496,30.2084,26.6162,0,0,0,0,0,0,0,-1,1840,1520,30.2083,-26.6162
623,-496,28.9139,24.1847,0,0,0,0,0,0,0,-1,1847,1520,28.9139,-24.1846
630,-496,18.5656,13.8966,0,0,0,0,0,0,0,-1,1854,1520,18.5655,-13.8967
637,-496,14.6411,10.1016,0,0,0,0,0,0,0,-1,1861,1520,14.6411,-10.1016
644,-496,12.4537,10.087,0,0,0,0,0,0,0,-1,1868,1520,12.4537,-10.0871
651,-496,8.18506,5.47803,0,0,0,0,0,0,0,-1,1875,1520,8.18505,-5.47806
658,-496,7.79993,4.02563,0,0,0,0,0,0,0,-1,1882,1520,7.79997,-4.02568
665,-496,5.47583,7.90625,0,0,0,0,0,0,0,-1,1889,1520,5.47581,-7.90628
672,-496,0,0,0,0,0,0,0,0,0,-1,1896,1520,0,0
679,-496,0,0,0,0,0,0,0,0,0,-1,1903,1520,0,0
686,-496,0,0,0,0,0,0,0,0,0,-1,1910,1520,0,0
693,-496,0,0,0,0,0,0,0,0,0,-1,1917,1520,0,0
700,-496,0,0,0,0,0,0,0,0,0,-1,1924,1520,0,0
707,-496,0,0,0,0,0,0,0,0,0,-1,1931,1520,0,0
714,-496,0,0,0,0,0,0,0,0,0,-1,1938,1520,0,0
721,-496,0,0,0,0,0,0,0,0,0,-1,1945,1520,0,0
728,-496,0,0,0,0,0,0,0,0,0,-1,1952,1520,0,0
735,-496,0,0,0,0,0,0,0,0,0,-1,1959,1520,0,0
742,-496,0,0,0,0,0,0,0,0,0,-1,1966,1520,0,0
749,-496,0,0,0,0,0,0,0,0,0,-1,1973,1520,0,0
756,-496,0,0,0,0,0,0,0,0,0,-1,1980,1520,0,0
763,-496,0,0,0,0,0,0,0,0,0,-1,1987,1520,0,0
770,-496,0,0,0,0,0,0,0,0,0,-1,1994,1520,0,0
777,-496,0,0,0,0,0,0,0,0,0,-1,2001,1520,0,0
784,-496,0,0,0,0,0,0,0,0,0,-1,2008,1520,0,0
791,-496,0,0,0,0,0,0,0,0,0,-1,2015,1520,0,0
798,-496,0,0,0,0,0,0,0,0,0,-1,2022,1520,0,0
805,-496,0,0,0,0,0,0,0,0,0,-1,2029,1520,0,0
812,-496,0,0,0,0,0,0,0,0,0,-1,2036,1520,0,0
-700,-503,0,0,0,0,0,0,0,0,0,-1,524,1527,0,0
-693,-503,0,0,0,0,0,0,0,0,0,-1,531,1527,0,0
-686,-503,0,0,0,0,0,0,0,0,0,-1,538,1527,0,0
-679,-503,0,0,0,0,0,0,0,0,0,-1,545,1527,0,0
-672,-503,0,0,0,0,0,0,0,0,0,-1,552,1527,0,0
-665,-503,0,0,0,0,0,0,0,0,0,-1,559,1527,0,0
-658,-503,0,0,0,0,0,0,0,0,0,-1,566,1527,0,0
-651,-503,0,0,0,0,0,0,0,0,0,-1,573,1527,0,0
-644,-503,0,0,0,0,0,0,0,0,0,-1,580,1527,0,0
-637,-503,0,0,0,0,0,0,0,0,0,-1,587,1527,0,0
-630,-503,0,0,0,0,0,0,0,0,0,-1,594,1527,0,0
-623,-503,0,0,0,0,0,0,0,0,0,-1,601,1527,0,0
-616,-503,0,0,0,0,0,0,0,0,0,-1,608,1527,0,0
-609,-503,0,0,0,0,0,0,0,0,0,-1,615,1527,0,0
-602,-503,0,0,0,0,0,0,0,0,0,-1,622,1527,0,0
-595,-503,0,0,0,0,0,0,0,0,0,-1,629,1527,0,0
-588,-503,0,0,0,0,0,0,0,0,0,-1,636,1527,0,0
-581,-503,0,0,0,0,0,0,0,0,0,-1,643,1527,0,0
-574,-503,0,0,0,0,0,0,0,0,0,-1,650,1527,0,0
-567,-503,0,0,0,0,0,0,0,0,0,-1,657,1527,0,0
-560,-503,0,0,0,0,0,0,0,0,0,-1,664,1527,0,0
-553,-503,0,0,0,0,0,0,0,0,0,-1,671,1527,0,0
-546,-503,0,0,0,0,0,0,0,0,0,-1,678,1527,0,0
-539,-503,3.50177,4.26428,0,0,0,0,0,0,0,-1,685,1527,3.50177,-4.26424
-532,-503,-3.13196,1.05298,0,0,0,0,0,0,0,-1,692,1527,-3.13194,-1.05299
-525,-503,-2.94293,2.59314,0,0,0,0,0,0,0,-1,699,1527,-2.94296,-2.59314
-518,-503,-2.7395,4.05872,0,0,0,0,0,0,0,-1,706,1527,-2.73948,-4.05871
-511,-503,-1.60022,7.23877,0,0,0,0,0,0,0,-1,713,1527,-1.60023,-7.23872
-504,-503,-8.1402,10.1541,0,0,0,0,0,0,0,-1,720,1527,-8.14017,-10.1541
-497,-503,-4.51758,14.0781,0,0,0,0,0,0,0,-1,727,1527,-4.5176,-14.0782
-490,-503,-4.24194,16.1982,0,0,0,0,0,0,0,-1,734,1527,-4.24196,-16.1982
-483,-503,-9.55774,23.7681,0,0,0,0,0,0,0,-1,741,1527,-9.55776,-23.7681
-476,-503,-11.7843,28.1862,0,0,0,0,0,0,0,-1,748,1527,-11.7843,-28.1862
-469,-503,-11.7617,29.1802,-0.000606186,0.0031056,0.00206726,0.00402782,-0.0015284,1.15119,0.00331431,0.0224088,755,1527,-11.7617,-29.1801
-462,-503,-11.8187,30.1112,-0.000476127,0.00214688,0.0013483,0.00271632,-0.00104557,1.17118,0.00224219,0.0122843,762,1527,-11.8187,-30.1112
-455,-503,-11.8627,31.0132,-0.000161647,0.00164413,0.000972398,0.00206818,-0.000585697,1.15957,0.00160993,0.01822,769,1527,-11.8627,-31.0131
-448,-503,-11.868,31.8619,0.000247479,0.00142224,0.000801562,0.0018286,-0.000158879,1.1016,0.00127533,0.0167893,776,1527,-11.868,-31.8619
-441,-503,-11.8847,32.704,0.000700054,0.00142071,0.000797647,0.00193564,0.000185125,0.997548,0.00123336,0.0136616,783,1527,-11.8847,-32.704
-434,-503,-11.9687,33.5452,0.00117563,0.0016668,0.000942481,0.00239517,0.000447262,0.912849,0.00147054,0.0123294,790,1527,-11.9687,-33.5451
-427,-503,-12.069,34.3806,0.00166132,0.00197342,0.00114653,0.00297447,0.000660265,0.853035,0.00180364,0.0193219,797,1527,-12.069,-34.3806
-420,-503,-12.0635,35.2623,0.00222384,0.00238755,0.00144408,0.00375209,0.000859292,0.813709,0.00226984,0.0181345,804,1527,-12.0635,-35.2624
-413,-503,-12.1094,36.1367,0.00276794,0.00295873,0.0018058,0.00467165,0.00105502,0.811787,0.00282911,0.0161508,811,1527,-12.1094,-36.1367
-406,-503,-12.1262,37.0013,0.00339052,0.00370157,0.00231345,0.00586472,0.00122737,0.818961,0.00357169,0.0287552,818,1527,-12.1262,-37.0014
-399,-503,-12.1165,37.7974,0,0,0,0,0,0,0,-1,825,1527,-12.1165,-37.7974
-392,-503,-10.7637,37.4486,0,0,0,0,0,0,0,-1,832,1527,-10.7637,-37.4486
-385,-503,-2.00403,14.1218,0,0,0,0,0,0,0,-1,839,1527,-2.00403,-14.1218
-378,-503,-2.07043,13.8632,0,0,0,0,0,0,0,-1,846,1527,-2.07043,-13.8631
-371,-503,-1.67285,13.8081,0,0,0,0,0,0,0,-1,853,1527,-1.67285,-13.8081
-364,-503,0.181396,12.3768,0,0,0,0,0,0,0,-1,860,1527,0.18138,-12.3768
-357,-503,0.558533,9.25452,0,0,0,0,0,0,0,-1,867,1527,0.558542,-9.25446
-350,-503,0.219971,6.84827,0,0,0,0,0,0,0,-1,874,1527,0.21996,-6.84831
-343,-503,-3.5802,4.43274,0,0,0,0,0,0,0,-1,881,1527,-3.58018,-4.43276
-336,-503,-3.2384,6.40637,0,0,0,0,0,0,0,-1,888,1527,-3.2384,-6.40643
-329,-503,-1.70691,11.886,0,0,0,0,0,0,0,-1,895,1527,-1.70689,-11.886
-322,-503,-3.31317,8.81519,0,0,0,0,0,0,0,-1,902,1527,-3.31315,-8.81524
-315,-503,-3.90265,7.73853,0,0,0,0,0,0,0,-1,909,1527,-3.90264,-7.73854
-308,-503,-1.70264,7.35413,0,0,0,0,0,0,0,-1,916,1527,-1.70262,-7.35416
-301,-503,0,0,0,0,0,0,0,0,0,-1,923,1527,0,0
-294,-503,0,0,0,0,0,0,0,0,0,-1,930,1527,0,0
-287,-503,0,0,0,0,0,0,0,0,0,-1,937,1527,0,0
-280,-503,0,0,0,0,0,0,0,0,0,-1,944,1527,0,0
-273,-503,0,0,0,0,0,0,0,0,0,-1,951,1527,0,0
-266,-503,0,0,0,0,0,0,0,0,0,-1,958,1527,0,0
-259,-503,0,0,0,0,0,0,0,0,0,-1,965,1527,0,0
-252,-503,0,0,0,0,0,0,0,0,0,-1,972,1527,0,0
-245,-503,0,0,0,0,0,0,0,0,0,-1,979,1527,0,0
-238,-503,0,0,0,0,0,0,0,0,0,-1,986,1527,0,0
-231,-503,0,0,0,0,0,0,0,0,0,-1,993,1527,0,0
-224,-503,0,0,0,0,0,0,0,0,0,-1,1000,1527,0,0
-217,-503,0,0,0,0,0,0,0,0,0,-1,1007,1527,0,0
-210,-503,0,0,0,0,0,0,0,0,0,-1,1014,1527,0,0
-203,-503,0,0,0,0,0,0,0,0,0,-1,1021,1527,0,0
-196,-503,0,0,0,0,0,0,0,0,0,-1,1028,1527,0,0
-189,-503,0,0,0,0,0,0,0,0,0,-1,1035,1527,0,0
-182,-503,0,0,0,0,0,0,0,0,0,-1,1042,1527,0,0
-175,-503,0,0,0,0,0,0,0,0,0,-1,1049,1527,0,0
-168,-503,0,0,0,0,0,0,0,0,0,-1,1056,1527,0,0
-161,-503,0,0,0,0,0,0,0,0,0,-1,1063,1527,0,0
-154,-503,0,0,0,0,0,0,0,0,0,-1,1070,1527,0,0
-147,-503,0,0,0,0,0,0,0,0,0,-1,1077,1527,0,0
-140,-503,0,0,0,0,0,0,0,0,0,-1,1084,1527,0,0
-133,-503,0,0,0,0,0,0,0,0,0,-1,1091,1527,0,0
-126,-503,0,0,0,0,0,0,0,0,0,-1,1098,1527,0,0
-119,-503,0,0,0,0,0,0,0,0,0,-1,1105,1527,0,0
-112,-503,0,0,0,0,0,0,0,0,0,-1,1112,1527,0,0
-105,-503,0,0,0,0,0,0,0,0,0,-1,1119,1527,0,0
-98,-503,0,0,0,0,0,0,0,0,0,-1,1126,1527,0,0
-91,-503,0,0,0,0,0,0,0,0,0,-1,1133,1527,0,0
-84,-503,0,0,0,0,0,0,0,0,0,-1,1140,1527,0,0
-77,-503,0,0,0,0,0,0,0,0,0,-1,1147,1527,0,0
-70,-503,0,0,0,0,0,0,0,0,0,-1,1154,1527,0,0
-63,-503,0,0,0,0,0,0,0,0,0,-1,1161,1527,0,0
-56,-503,0,0,0,0,0,0,0,0,0,-1,1168,1527,0,0
-49,-503,0,0,0,0,0,0,0,0,0,-1,1175,1527,0,0
-42,-503,0,0,0,0,0,0,0,0,0,-1,1182,1527,0,0
-35,-503,0,0,0,0,0,0,0,0,0,-1,1189,1527,0,0
-28,-503,0,0,0,0,0,0,0,0,0,-1,1196,1527,0,0
-21,-503,0,0,0,0,0,0,0,0,0,-1,1203,1527,0,0
-14,-503,0,0,0,0,0,0,0,0,0,-1,1210,1527,0,0
-7,-503,0,0,0,0,0,0,0,0,0,-1,1217,1527,0,0
0,-503,0,0,0,0,0,0,0,0,0,-1,1224,1527,0,0
7,-503,0,0,0,0,0,0,0,0,0,-1,1231,1527,0,0
14,-503,0,0,0,0,0,0,0,0,0,-1,1238,1527,0,0
21,-503,0,0,0,0,0,0,0,0,0,-1,1245,1527,0,0
28,-503,0,0,0,0,0,0,0,0,0,-1,1252,1527,0,0
35,-503,0,0,0,0,0,0,0,0,0,-1,1259,1527,0,0
42,-503,0,0,0,0,0,0,0,0,0,-1,1266,1527,0,0
49,-503,0,0,0,0,0,0,0,0,0,-1,1273,1527,0,0
56,-503,0,0,0,0,0,0,0,0,0,-1,1280,1527,0,0
63,-503,0,0,0,0,0,0,0,0,0,-1,1287,1527,0,0
70,-503,0,0,0,0,0,0,0,0,0,-1,1294,1527,0,0
77,-503,0,0,0,0,0,0,0,0,0,-1,1301,1527,0,0
84,-503,0,0,0,0,0,0,0,0,0,-1,1308,1527,0,0
91,-503,0,0,0,0,0,0,0,0,0,-1,1315,1527,0,0
98,-503,0,0,0,0,0,0,0,0,0,-1,1322,1527,0,0
105,-503,0,0,0,0,0,0,0,0,0,-1,1329,1527,0,0
112,-503,0,0,0,0,0,0,0,0,0,-1,1336,1527,0,0
119,-503,0,0,0,0,0,0,0,0,0,-1,1343,1527,0,0
126,-503,0,0,0,0,0,0,0,0,0,-1,1350,1527,0,0
133,-503,0,0,0,0,0,0,0,0,0,-1,1357,1527,0,0
140,-503,0,0,0,0,0,0,0,0,0,-1,1364,1527,0,0
147,-503,0,0,0,0,0,0,0,0,0,-1,1371,1527,0,0
154,-503,0,0,0,0,0,0,0,0,0,-1,1378,1527,0,0
161,-503,0,0,0,0,0,0,0,0,0,-1,1385,1527,0,0
168,-503,0,0,0,0,0,0,0,0,0,-1,1392,1527,0,0
175,-503,0,0,0,0,0,0,0,0,0,-1,1399,1527,0,0
182,-503,0,0,0,0,0,0,0,0,0,-1,1406,1527,0,0
189,-503,0,0,0,0,0,0,0,0,0,-1,1413,1527,0,0
196,-503,0,0,0,0,0,0,0,0,0,-1,1420,1527,0,0
203,-503,0,0,0,0,0,0,0,0,0,-1,1427,1527,0,0
210,-503,0,0,0,0,0,0,0,0,0,-1,1434,1527,0,0
217,-503,0,0,0,0,0,0,0,0,0,-1,1441,1527,0,0
224,-503,0,0,0,0,0,0,0,0,0,-1,1448,1527,0,0
231,-503,0,0,0,0,0,0,0,0,0,-1,1455,1527,0,0
238,-503,0,0,0,0,0,0,0,0,0,-1,1462,1527,0,0
245,-503,0,0,0,0,0,0,0,0,0,-1,1469,1527,0,0
252,-503,0,0,0,0,0,0,0,0,0,-1,1476,1527,0,0
259,-503,0,0,0,0,0,0,0,0,0,-1,1483,1527,0,0
266,-503,0,0,0,0,0,0,0,0,0,-1,1490,1527,0,0
273,-503,0,0,0,0,0,0,0,0,0,-1,1497,1527,0,0
280,-503,0,0,0,0,0,0,0,0,0,-1,1504,1527,0,0
287,-503,0,0,0,0,0,0,0,0,0,-1,1511,1527,0,0
294,-503,0,0,0,0,0,0,0,0,0,-1,1518,1527,0,0
301,-503,0,0,0,0,0,0,0,0,0,-1,1525,1527,0,0
308,-503,0,0,0,0,0,0,0,0,0,-1,1532,1527,0,0
315,-503,0,0,0,0,0,0,0,0,0,-1,1539,1527,0,0
322,-503,0,0,0,0,0,0,0,0,0,-1,1546,1527,0,0
329,-503,0,0,0,0,0,0,0,0,0,-1,1553,1527,0,0
336,-503,0,0,0,0,0,0,0,0,0,-1,1560,1527,0,0
343,-503,0,0,0,0,0,0,0,0,0,-1,1567,1527,0,0
350,-503,0,0,0,0,0,0,0,0,0,-1,1574,1527,0,0
357,-503,0,0,0,0,0,0,0,0,0,-1,1581,1527,0,0
364,-503,0,0,0,0,0,0,0,0,0,-1,1588,1527,0,0
371,-503,0,0,0,0,0,0,0,0,0,-1,1595,1527,0,0
378,-503,0,0,0,0,0,0,0,0,0,-1,1602,1527,0,0
385,-503,0,0,0,0,0,0,0,0,0,-1,1609,1527,0,0
392,-503,0,0,0,0,0,0,0,0,0,-1,1616,1527,0,0
399,-503,0,0,0,0,0,0,0,0,0,-1,1623,1527,0,0
406,-503,0,0,0,0,0,0,0,0,0,-1,1630,1527,0,0
413,-503,0,0,0,0,0,0,0,0,0,-1,1637,1527,0,0
420,-503,0,0,0,0,0,0,0,0,0,-1,1644,1527,0,0
427,-503,10.5968,4.9856,0,0,0,0,0,0,0,-1,1651,1527,10.5969,-4.98563
434,-503,11.4329,3.97217,0,0,0,0,0,0,0,-1,1658,1527,11.4328,-3.97222
441,-503,12.0957,2.96509,0,0,0,0,0,0,0,-1,1665,1527,12.0957,-2.96512
448,-503,12.3259,2.53894,0,0,0,0,0,0,0,-1,1672,1527,12.326,-2.53895
455,-503,12.1669,2.18762,0,0,0,0,0,0,0,-1,1679,1527,12.1668,-2.18767
462,-503,11.59,2.60791,0,0,0,0,0,0,0,-1,1686,1527,11.5899,-2.60794
469,-503,11.1625,1.61853,0,0,0,0,0,0,0,-1,1693,1527,11.1625,-1.61856
476,-503,9.07703,5.81042,0,0,0,0,0,0,0,-1,1700,1527,9.07699,-5.81047
483,-503,9.74414,6.92432,0,0,0,0,0,0,0,-1,1707,1527,9.74417,-6.9243
490,-503,10.5033,10.1071,0,0,0,0,0,0,0,-1,1714,1527,10.5032,-10.107
497,-503,15.0057,17.9476,0,0,0,0,0,0,0,-1,1721,1527,15.0058,-17.9476
504,-503,16.4764,18.4486,0,0,0,0,0,0,0,-1,1728,1527,16.4764,-18.4486
511,-503,16.8276,18.3271,0,0,0,0,0,0,0,-1,1735,1527,16.8276,-18.3272
518,-503,17.2533,18.2738,0,0,0,0,0,0,0,-1,1742,1527,17.2533,-18.2738
525,-503,21.2887,26.5785,0,0,0,0,0,0,0,-1,1749,1527,21.2887,-26.5785
532,-503,29.6638,37.3242,0,0,0,0,0,0,0,-1,1756,1527,29.6639,-37.3243
539,-503,29.6776,36.3903,0.009752,0.00762302,-0.00632839,0.0151048,0.00227021,-0.702074,0.00940491,0.0349885,1763,1527,29.6776,-36.3903
546,-503,29.7206,35.3944,0.00783042,0.00593768,-0.00490449,0.011879,0.00188909,-0.69009,0.00737078,0.0150783,1770,1527,29.7206,-35.3944
553,-503,29.7267,34.5596,0.0062422,0.00453755,-0.00377409,0.00925901,0.00152074,-0.674343,0.00573338,0.0153612,1777,1527,29.7267,-34.5596
560,-503,29.6698,33.7283,0.00490406,0.00336201,-0.00289953,0.00713332,0.00113275,-0.655448,0.00442654,0.015032,1784,1527,29.6698,-33.7283
567,-503,29.6217,32.8551,0.00382458,0.00245458,-0.00232237,0.00556087,0.000718293,-0.641986,0.00349252,0.0129861,1791,1527,29.6217,-32.8551
574,-503,29.5566,32.0297,0.00300398,0.00179302,-0.00194518,0.00443573,0.000361269,-0.634515,0.00284439,0.0125089,1798,1527,29.5567,-32.0297
581,-503,29.4963,31.2177,0.00237064,0.00136739,-0.00175833,0.00369749,4.05348e-05,-0.646448,0.0024516,0.0146658,1805,1527,29.4963,-31.2177
588,-503,29.4629,30.3813,0.00197606,0.00110933,-0.00171414,0.00331077,-0.000225379,-0.661583,0.00228601,0.0185729,1812,1527,29.4628,-30.3813
595,-503,29.4175,29.5239,0.00180657,0.0010945,-0.00171389,0.00320102,-0.000299948,-0.682988,0.0022407,0.0146708,1819,1527,29.4174,-29.5239
602,-503,29.4308,28.6171,0.00187032,0.00138388,-0.00185994,0.00350287,-0.000248674,-0.720384,0.0024224,0.0260211,1826,1527,29.4308,-28.617
609,-503,29.4128,27.6907,0,0,0,0,0,0,0,-1,1833,1527,29.4128,-27.6907
616,-503,27.9205,24.2308,0,0,0,0,0,0,0,-1,1840,1527,27.9206,-24.2309
623,-503,18.7351,15.5999,0,0,0,0,0,0,0,-1,1847,1527,18.7351,-15.5999
630,-503,20.6721,13.9077,0,0,0,0,0,0,0,-1,1854,1527,20.6721,-13.9077
637,-503,14.5564,9.20496,0,0,0,0,0,0,0,-1,1861,1527,14.5564,-9.2049
644,-503,11.4802,7.57214,0,0,0,0,0,0,0,-1,1868,1527,11.4802,-7.57215
651,-503,11.5718,6.5448,0,0,0,0,0,0,0,-1,1875,1527,11.5718,-6.54476
658,-503,8.25635,3.10498,0,0,0,0,0,0,0,-1,1882,1527,8.2563,-3.10493
665,-503,0,0,0,0,0,0,0,0,0,-1,1889,1527,0,0
672,-503,0,0,0,0,0,0,0,0,0,-1,1896,1527,0,0
679,-503,0,0,0,0,0,0,0,0,0,-1,1903,1527,0,0
686,-503,0,0,0,0,0,0,0,0,0,-1,1910,1527,0,0
693,-503,0,0,0,0,0,0,0,0,0,-1,1917,1527,0,0
700,-503,0,0,0,0,0,0,0,0,0,-1,1924,1527,0,0
707,-503,0,0,0,0,0,0,0,0,0,-1,1931,1527,0,0
714,-503,0,0,0,0,0,0,0,0,0,-1,1938,1527,0,0
721,-503,0,0,0,0,0,0,0,0,0,-1,1945,1527,0,0
728,-503,0,0,0,0,0,0,0,0,0,-1,1952,1527,0,0
735,-503,0,0,0,0,0,0,0,0,0,-1,1959,1527,0,0
742,-503,0,0,0,0,0,0,0,0,0,-1,1966,1527,0,0
749,-503,0,0,0,0,0,0,0,0,0,-1,1973,1527,0,0
756,-503,0,0,0,0,0,0,0,0,0,-1,1980,1527,0,0
763,-503,0,0,0,0,0,0,0,0,0,-1,1987,1527,0,0
770,-503,0,0,0,0,0,0,0,0,0,-1,1994,1527,0,0
777,-503,0,0,0,0,0,0,0,0,0,-1,2001,1527,0,0
784,-503,0,0,0,0,0,0,0,0,0,-1,2008,1527,0,0
791,-503,0,0,0,0,0,0,0,0,0,-1,2015,1527,0,0
798,-503,0,0,0,0,0,0,0,0,0,-1,2022,1527,0,0
805,-503,0,0,0,0,0,0,0,0,0,-1,2029,1527,0,0
812,-503,0,0,0,0,0,0,0,0,0,-1,2036,1527,0,0
-700,-510,0,0,0,0,0,0,0,0,0,-1,524,1534,0,0
-693,-510,0,0,0,0,0,0,0,0,0,-1,531,1534,0,0
-686,-510,0,0,0,0,0,0,0,0,0,-1,538,1534,0,0
-679,-510,0,0,0,0,0,0,0,0,0,-1,545,1534,0,0
-672,-510,0,0,0,0,0,0,0,0,0,-1,552,1534,0,0
-665,-510,0,0,0,0,0,0,0,0,0,-1,559,1534,0,0
-658,-510,0,0,0,0,0,0,0,0,0,-1,566,1534,0,0
-651,-510,0,0,0,0,0,0,0,0,0,-1,573,1534,0,0
-644,-510,0,0,0,0,0,0,0,0,0,-1,580,1534,0,0
-637,-510,0,0,0,0,0,0,0,0,0,-1,587,1534,0,0
-630,-510,0,0,0,0,0,0,0,0,0,-1,594,1534,0,0
-623,-510,0,0,0,0,0,0,0,0,0,-1,601,1534,0,0
-616,-510,0,0,0,0,0,0,0,0,0,-1,608,1534,0,0
-609,-510,0,0,0,0,0,0,0,0,0,-1,615,1534,0,0
-602,-510,0,0,0,0,0,0,0,0,0,-1,622,1534,0,0
-595,-510,0,0,0,0,0,0,0,0,0,-1,629,1534,0,0
-588,-510,0,0,0,0,0,0,0,0,0,-1,636,1534,0,0
-581,-510,0,0,0,0,0,0,0,0,0,-1,643,1534,0,0
-574,-510,0,0,0,0,0,0,0,0,0,-1,650,1534,0,0
-567,-510,0,0,0,0,0,0,0,0,0,-1,657,1534,0,0
-560,-510,0,0,0,0,0,0,0,0,0,-1,664,1534,0,0
-553,-510,0,0,0,0,0,0,0,0,0,-1,671,1534,0,0
-546,-510,0,0,0,0,0,0,0,0,0,-1,678,1534,0,0
-539,-510,0,0,0,0,0,0,0,0,0,-1,685,1534,0,0
-532,-510,-3.95129,4.52014,0,0,0,0,0,0,0,-1,692,1534,-3.95131,-4.5202
-525,-510,-2.77411,0.316772,0,0,0,0,0,0,0,-1,699,1534,-2.77409,-0.3168
-518,-510,-2.86847,2.71423,0,0,0,0,0,0,0,-1,706,1534,-2.86849,-2.71424
-511,-510,-2.28571,4.48083,0,0,0,0,0,0,0,-1,713,1534,-2.28571,-4.48086
-504,-510,-4.86731,10.8224,0,0,0,0,0,0,0,-1,720,1534,-4.8673,-10.8224
-497,-510,-3.42352,15.5178,0,0,0,0,0,0,0,-1,727,1534,-3.42352,-15.5178
-490,-510,-5.9472,18.5184,0,0,0,0,0,0,0,-1,734,1534,-5.94718,-18.5185
-483,-510,-6.79639,20.8453,0,0,0,0,0,0,0,-1,741,1534,-6.79638,-20.8454
-476,-510,-10.7457,28.3501,0,0,0,0,0,0,0,-1,748,1534,-10.7457,-28.3501
-469,-510,-10.8009,29.2667,-0.00158246,0.00326119,0.00180675,0.00386088,-0.00218216,1.25032,0.00353354,0.031422,755,1534,-10.8009,-29.2667
-462,-510,-10.9179,30.124,-0.00135357,0.00216026,0.00103764,0.0024438,-0.00163711,1.30406,0.00237141,0.0133172,762,1534,-10.9179,-30.124
-455,-510,-10.9734,31.0269,-0.000941987,0.00157637,0.000651117,0.00173476,-0.00110037,1.33218,0.00165046,0.0154895,769,1534,-10.9734,-31.0268
-448,-510,-10.9755,31.8895,-0.000462513,0.00128609,0.000490519,0.00141429,-0.000590714,1.31516,0.00118969,0.014276,776,1534,-10.9755,-31.8895
-441,-510,-11.0252,32.7358,3.67904e-05,0.00119098,0.000469335,0.00135774,-0.000129965,1.22941,0.000951443,0.014715,783,1534,-11.0252,-32.7358
-434,-510,-11.1484,33.5785,0.000535124,0.00132613,0.000584578,0.00163643,0.000224827,1.08281,0.00102427,0.0152068,790,1534,-11.1484,-33.5785
-427,-510,-11.2297,34.3915,0.0010018,0.00149431,0.000733396,0.00202169,0.000474424,0.94737,0.00122078,0.0231844,797,1534,-11.2297,-34.3914
-420,-510,-11.2337,35.3185,0.00152418,0.00177781,0.000953569,0.00261296,0.00068903,0.851507,0.00156374,0.0217106,804,1534,-11.2337,-35.3185
-413,-510,-11.2621,36.1953,0.00210286,0.00221684,0.00126141,0.00342255,0.000897153,0.807972,0.00204919,0.0114081,811,1534,-11.2621,-36.1953
-406,-510,-11.3408,37.0408,0.00271294,0.00281142,0.00165657,0.00441948,0.00110487,0.800255,0.00265578,0.0112808,818,1534,-11.3408,-37.0407
-399,-510,-11.3757,37.8625,0.00353959,0.00335026,0.00211139,0.00555844,0.00133142,0.762996,0.00335117,0.0177557,825,1534,-11.3757,-37.8626
-392,-510,-11.3027,38.8162,0,0,0,0,0,0,0,-1,832,1534,-11.3027,-38.8162
-385,-510,-7.23199,31.704,0,0,0,0,0,0,0,-1,839,1534,-7.23198,-31.704
-378,-510,-1.78308,13.8044,0,0,0,0,0,0,0,-1,846,1534,-1.78309,-13.8044
-371,-510,-1.74982,13.8027,0,0,0,0,0,0,0,-1,853,1534,-1.74981,-13.8028
-364,-510,-1.3479,13.7771,0,0,0,0,0,0,0,-1,860,1534,-1.34791,-13.7771
-357,-510,-0.254395,8.89575,0,0,0,0,0,0,0,-1,867,1534,-0.254397,-8.89569
-350,-510,0.471191,6.06458,0,0,0,0,0,0,0,-1,874,1534,0.47118,-6.06453
-343,-510,-6.96869,26.3074,0,0,0,0,0,0,0,-1,881,1534,-6.9687,-26.3074
-336,-510,-5.60437,29.5996,0,0,0,0,0,0,0,-1,888,1534,-5.60435,-29.5996
-329,-510,-4.87781,20.6893,0,0,0,0,0,0,0,-1,895,1534,-4.87782,-20.6894
-322,-510,-0.251526,11.973,0,0,0,0,0,0,0,-1,902,1534,-0.251497,-11.9731
-315,-510,-1.73047,10.9796,0,0,0,0,0,0,0,-1,909,1534,-1.73049,-10.9796
-308,-510,-2.05328,9.72034,0,0,0,0,0,0,0,-1,916,1534,-2.05327,-9.72036
-301,-510,-1.85437,11.5869,0,0,0,0,0,0,0,-1,923,1534,-1.85437,-11.5869
-294,-510,0,0,0,0,0,0,0,0,0,-1,930,1534,0,0
-287,-510,0,0,0,0,0,0,0,0,0,-1,937,1534,0,0
-280,-510,0,0,0,0,0,0,0,0,0,-1,944,1534,0,0
-273,-510,0,0,0,0,0,0,0,0,0,-1,951,1534,0,0
-266,-510,0,0,0,0,0,0,0,0,0,-1,958,1534,0,0
-259,-510,0,0,0,0,0,0,0,0,0,-1,965,1534,0,0
-252,-510,0,0,0,0,0,0,0,0,0,-1,972,1534,0,0
-245,-510,0,0,0,0,0,0,0,0,0,-1,979,1534,0,0
-238,-510,0,0,0,0,0,0,0,0,0,-1,986,1534,0,0
-231,-510,0,0,0,0,0,0,0,0,0,-1,993,1534,0,0
-224,-510,0,0,0,0,0,0,0,0,0,-1,1000,1534,0,0
-217,-510,0,0,0,0,0,0,0,0,0,-1,1007,1534,0,0
-210,-510,0,0,0,0,0,0,0,0,0,-1,1014,1534,0,0
-203,-510,0,0,0,0,0,0,0,0,0,-1,1021,1534,0,0
-196,-510,0,0,0,0,0,0,0,0,0,-1,1028,1534,0,0
-189,-510,0,0,0,0,0,0,0,0,0,-1,1035,1534,0,0
-182,-510,0,0,0,0,0,0,0,0,0,-1,1042,1534,0,0
-175,-510,0,0,0,0,0,0,0,0,0,-1,1049,1534,0,0
-168,-510,0,0,0,0,0,0,0,0,0,-1,1056,1534,0,0
-161,-510,0,0,0,0,0,0,0,0,0,-1,1063,1534,0,0
-154,-510,0,0,0,0,0,0,0,0,0,-1,1070,1534,0,0
-147,-510,0,0,0,0,0,0,0,0,0,-1,1077,1534,0,0
-140,-510,0,0,0,0,0,0,0,0,0,-1,1084,1534,0,0
-133,-510,0,0,0,0,0,0,0,0,0,-1,1091,1534,0,0
-126,-510,0,0,0,0,0,0,0,0,0,-1,1098,1534,0,0
-119,-510,0,0,0,0,0,0,0,0,0,-1,1105,1534,0,0
-112,-510,0,0,0,0,0,0,0,0,0,-1,1112,1534,0,0
-105,-510,0,0,0,0,0,0,0,0,0,-1,1119,1534,0,0
-98,-510,0,0,0,0,0,0,0,0,0,-1,1126,1534,0,0
-91,-510,0,0,0,0,0,0,0,0,0,-1,1133,1534,0,0
-84,-510,0,0,0,0,0,0,0,0,0,-1,1140,1534,0,0
-77,-510,0,0,0,0,0,0,0,0,0,-1,1147,1534,0,0
-70,-510,0,0,0,0,0,0,0,0,0,-1,1154,1534,0,0
-63,-510,0,0,0,0,0,0,0,0,0,-1,1161,1534,0,0
-56,-510,0,0,0,0,0,0,0,0,0,-1,1168,1534,0,0
-49,-510,0,0,0,0,0,0,0,0,0,-1,1175,1534,0,0
-42,-510,0,0,0,0,0,0,0,0,0,-1,1182,1534,0,0
-35,-510,0,0,0,0,0,0,0,0,0,-1,1189,1534,0,0
-28,-510,0,0,0,0,0,0,0,0,0,-1,1196,1534,0,0
-21,-510,0,0,0,0,0,0,0,0,0,-1,1203,1534,0,0
-14,-510,0,0,0,0,0,0,0,0,0,-1,1210,1534,0,0
-7,-510,0,0,0,0,0,0,0,0,0,-1,1217,1534,0,0
0,-510,0,0,0,0,0,0,0,0,0,-1,1224,1534,0,0
7,-510,0,0,0,0,0,0,0,0,0,-1,1231,1534,0,0
14,-510,0,0,0,0,0,0,0,0,0,-1,1238,1534,0,0
21,-510,0,0,0,0,0,0,0,0,0,-1,1245,1534,0,0
28,-510,0,0,0,0,0,0,0,0,0,-1,1252,1534,0,0
35,-510,0,0,0,0,0,0,0,0,0,-1,1259,1534,0,0
42,-510,0,0,0,0,0,0,0,0,0,-1,1266,1534,0,0
49,-510,0,0,0,0,0,0,0,0,0,-1,1273,1534,0,0
56,-510,0,0,0,0,0,0,0,0,0,-1,1280,1534,0,0
63,-510,0,0,0,0,0,0,0,0,0,-1,1287,1534,0,0
70,-510,0,0,0,0,0,0,0,0,0,-1,1294,1534,0,0
77,-510,0,0,0,0,0,0,0,0,0,-1,1301,1534,0,0
84,-510,0,0,0,0,0,0,0,0,0,-1,1308,1534,0,0
91,-510,0,0,0,0,0,0,0,0,0,-1,1315,1534,0,0
98,-510,0,0,0,0,0,0,0,0,0,-1,1322,1534,0,0
105,-510,0,0,0,0,0,0,0,0,0,-1,1329,1534,0,0
112,-510,0,0,0,0,0,0,0,0,0,-1,1336,1534,0,0
119,-510,0,0,0,0,0,0,0,0,0,-1,1343,1534,0,0
126,-510,0,0,0,0,0,0,0,0,0,-1,1350,1534,0,0
133,-510,0,0,0,0,0,0,0,0,0,-1,1357,1534,0,0
140,-510,0,0,0,0,0,0,0,0,0,-1,1364,1534,0,0
147,-510,0,0,0,0,0,0,0,0,0,-1,1371,1534,0,0
154,-510,0,0,0,0,0,0,0,0,0,-1,1378,1534,0,0
161,-510,0,0,0,0,0,0,0,0,0,-1,1385,1534,0,0
168,-510,0,0,0,0,0,0,0,0,0,-1,1392,1534,0,0
175,-510,0,0,0,0,0,0,0,0,0,-1,1399,1534,0,0
182,-510,0,0,0,0,0,0,0,0,0,-1,1406,1534,0,0
189,-510,0,0,0,0,0,0,0,0,0,-1,1413,1534,0,0
196,-510,0,0,0,0,0,0,0,0,0,-1,1420,1534,0,0
203,-510,0,0,0,0,0,0,0,0,0,-1,1427,1534,0,0
210,-510,0,0,0,0,0,0,0,0,0,-1,1434,1534,0,0
217,-510,0,0,0,0,0,0,0,0,0,-1,1441,1534,0,0
224,-510,0,0,0,0,0,0,0,0,0,-1,1448,1534,0,0
231,-510,0,0,0,0,0,0,0,0,0,-1,1455,1534,0,0
238,-510,0,0,0,0,0,0,0,0,0,-1,1462,1534,0,0
245,-510,0,0,0,0,0,0,0,0,0,-1,1469,1534,0,0
252,-510,0,0,0,0,0,0,0,0,0,-1,1476,1534,0,0
259,-510,0,0,0,0,0,0,0,0,0,-1,1483,1534,0,0
266,-510,0,0,0,0,0,0,0,0,0,-1,1490,1534,0,0
273,-510,0,0,0,0,0,0,0,0,0,-1,1497,1534,0,0
280,-510,0,0,0,0,0,0,0,0,0,-1,1504,1534,0,0
287,-510,0,0,0,0,0,0,0,0,0,-1,1511,1534,0,0
294,-510,0,0,0,0,0,0,0,0,0,-1,1518,1534,0,0
301,-510,0,0,0,0,0,0,0,0,0,-1,1525,1534,0,0
308,-510,0,0,0,0,0,0,0,0,0,-1,1532,1534,0,0
315,-510,0,0,0,0,0,0,0,0,0,-1,1539,1534,0,0
322,-510,0,0,0,0,0,0,0,0,0,-1,1546,1534,0,0
329,-510,0,0,0,0,0,0,0,0,0,-1,1553,1534,0,0
336,-510,0,0,0,0,0,0,0,0,0,-1,1560,1534,0,0
343,-510,0,0,0,0,0,0,0,0,0,-1,1567,1534,0,0
350,-510,0,0,0,0,0,0,0,0,0,-1,1574,1534,0,0
357,-510,0,0,0,0,0,0,0,0,0,-1,1581,1534,0,0
364,-510,0,0,0,0,0,0,0,0,0,-1,1588,1534,0,0
371,-510,0,0,0,0,0,0,0,0,0,-1,1595,1534,0,0
378,-510,0,0,0,0,0,0,0,0,0,-1,1602,1534,0,0
385,-510,0,0,0,0,0,0,0,0,0,-1,1609,1534,0,0
392,-510,0,0,0,0,0,0,0,0,0,-1,1616,1534,0,0
399,-510,0,0,0,0,0,0,0,0,0,-1,1623,1534,0,0
406,-510,0,0,0,0,0,0,0,0,0,-1,1630,1534,0,0
413,-510,0,0,0,0,0,0,0,0,0,-1,1637,1534,0,0
420,-510,14.1888,6.71936,0,0,0,0,0,0,0,-1,1644,1534,14.1889,-6.71939
427,-510,10.2134,5.59485,0,0,0,0,0,0,0,-1,1651,1534,10.2134,-5.59485
434,-510,11.8219,4.07898,0,0,0,0,0,0,0,-1,1658,1534,11.8219,-4.07895
441,-510,12.6812,3.02991,0,0,0,0,0,0,0,-1,1665,1534,12.6811,-3.0299
448,-510,13.2379,2.2804,0,0,0,0,0,0,0,-1,1672,1534,13.2379,-2.28037
455,-510,9.76892,2.20642,0,0,0,0,0,0,0,-1,1679,1534,9.76894,-2.20647
462,-510,9.84692,2.49182,0,0,0,0,0,0,0,-1,1686,1534,9.84695,-2.49185
469,-510,16.6072,7.26941,0,0,0,0,0,0,0,-1,1693,1534,16.6072,-7.26945
476,-510,15.9199,7.8645,0,0,0,0,0,0,0,-1,1700,1534,15.9199,-7.86455
483,-510,13.0833,8.10938,0,0,0,0,0,0,0,-1,1707,1534,13.0833,-8.10932
490,-510,13.0841,15.3286,0,0,0,0,0,0,0,-1,1714,1534,13.0841,-15.3286
497,-510,15.5652,18.823,0,0,0,0,0,0,0,-1,1721,1534,15.5652,-18.823
504,-510,15.998,18.7478,0,0,0,0,0,0,0,-1,1728,1534,15.998,-18.7478
511,-510,15.9443,18.0476,0,0,0,0,0,0,0,-1,1735,1534,15.9443,-18.0476
518,-510,21.5343,27.1368,0,0,0,0,0,0,0,-1,1742,1534,21.5342,-27.1368
525,-510,28.6381,38.3091,0,0,0,0,0,0,0,-1,1749,1534,28.638,-38.3091
532,-510,28.9294,37.2083,0.00932451,0.00777243,-0.00624501,0.0148415,0.00225543,-0.723582,0.0092348,0.0327199,1756,1534,28.9295,-37.2082
539,-510,28.9629,36.2598,0.0075787,0.00622437,-0.0049566,0.0119042,0.00189889,-0.717509,0.00738498,0.0145575,1763,1534,28.9629,-36.2597
546,-510,28.8976,35.4727,0.00608674,0.00484083,-0.00388769,0.00940107,0.0015265,-0.705955,0.0058256,0.0148954,1770,1534,28.8976,-35.4726
553,-510,28.8553,34.6313,0.00485073,0.00367694,-0.00302749,0.00734769,0.00117998,-0.689658,0.00455635,0.0150788,1777,1534,28.8553,-34.6313
560,-510,28.7971,33.7644,0.00382101,0.00269058,-0.00237093,0.00569317,0.000818425,-0.668385,0.00355419,0.0140923,1784,1534,28.7972,-33.7644
567,-510,28.7592,32.9141,0.00300734,0.00194384,-0.00197949,0.00452526,0.000425922,-0.654181,0.00288536,0.0129235,1791,1534,28.7592,-32.9141
574,-510,28.7014,32.0972,0.00242693,0.0014127,-0.00176587,0.00375705,8.25773e-05,-0.645573,0.00247764,0.0144602,1798,1534,28.7014,-32.0971
581,-510,28.6526,31.3044,0.00207704,0.00113562,-0.00177224,0.00344001,-0.000227355,-0.655594,0.00237276,0.0140055,1805,1534,28.6526,-31.3044
588,-510,28.6117,30.4524,0.00194926,0.00106136,-0.00193512,0.00349071,-0.000480085,-0.672641,0.00250256,0.0146651,1812,1534,28.6116,-30.4524
595,-510,28.6952,29.4695,0.00199937,0.00130308,-0.00218863,0.00386737,-0.000564916,-0.706524,0.00278571,0.0230696,1819,1534,28.6951,-29.4695
602,-510,28.7384,28.4651,0,0,0,0,0,0,0,-1,1826,1534,28.7384,-28.4651
609,-510,21.259,19.222,0,0,0,0,0,0,0,-1,1833,1534,21.259,-19.222
616,-510,18.7024,16.2474,0,0,0,0,0,0,0,-1,1840,1534,18.7024,-16.2474
623,-510,19.6013,14.6211,0,0,0,0,0,0,0,-1,1847,1534,19.6013,-14.6211
630,-510,13.7461,9.30334,0,0,0,0,0,0,0,-1,1854,1534,13.7461,-9.30335
637,-510,11.0155,7.38464,0,0,0,0,0,0,0,-1,1861,1534,11.0155,-7.38463
644,-510,11.5809,7.17126,0,0,0,0,0,0,0,-1,1868,1534,11.5809,-7.17123
651,-510,8.70471,3.5061,0,0,0,0,0,0,0,-1,1875,1534,8.70475,-3.50611
658,-510,0,0,0,0,0,0,0,0,0,-1,1882,1534,0,0
665,-510,0,0,0,0,0,0,0,0,0,-1,1889,1534,0,0
672,-510,0,0,0,0,0,0,0,0,0,-1,1896,1534,0,0
679,-510,0,0,0,0,0,0,0,0,0,-1,1903,1534,0,0
686,-510,0,0,0,0,0,0,0,0,0,-1,1910,1534,0,0
693,-510,0,0,0,0,0,0,0,0,0,-1,1917,1534,0,0
700,-510,0,0,0,0,0,0,0,0,0,-1,1924,1534,0,0
707,-510,0,0,0,0,0,0,0,0,0,-1,1931,1534,0,0
714,-510,0,0,0,0,0,0,0,0,0,-1,1938,1534,0,0
721,-510,0,0,0,0,0,0,0,0,0,-1,1945,1534,0,0
728,-510,0,0,0,0,0,0,0,0,0,-1,1952,1534,0,0
735,-510,0,0,0,0,0,0,0,0,0,-1,1959,1534,0,0
742,-510,0,0,0,0,0,0,0,0,0,-1,1966,1534,0,0
749,-510,0,0,0,0,0,0,0,0,0,-1,1973,1534,0,0
756,-510,0,0,0,0,0,0,0,0,0,-1,1980,1534,0,0
763,-510,0,0,0,0,0,0,0,0,0,-1,1987,1534,0,0
770,-510,0,0,0,0,0,0,0,0,0,-1,1994,1534,0,0
777,-510,0,0,0,0,0,0,0,0,0,-1,2001,1534,0,0
784,-510,0,0,0,0,0,0,0,0,0,-1,2008,1534,0,0
791,-510,0,0,0,0,0,0,0,0,0,-1,2015,1534,0,0
798,-510,0,0,0,0,0,0,0,0,0,-1,2022,1534,0,0
805,-510,0,0,0,0,0,0,0,0,0,-1,2029,1534,0,0
812,-510,0,0,0,0,0,0,0,0,0,-1,2036,1534,0,0
-700,-517,0,0,0,0,0,0,0,0,0,-1,524,1541,0,0
-693,-517,0,0,0,0,0,0,0,0,0,-1,531,1541,0,0
-686,-517,0,0,0,0,0,0,0,0,0,-1,538,1541,0,0
-679,-517,0,0,0,0,0,0,0,0,0,-1,545,1541,0,0
-672,-517,0,0,0,0,0,0,0,0,0,-1,552,1541,0,0
-665,-517,0,0,0,0,0,0,0,0,0,-1,559,1541,0,0
-658,-517,0,0,0,0,0,0,0,0,0,-1,566,1541,0,0
-651,-517,0,0,0,0,0,0,0,0,0,-1,573,1541,0,0
-644,-517,0,0,0,0,0,0,0,0,0,-1,580,1541,0,0
-637,-517,0,0,0,0,0,0,0,0,0,-1,587,1541,0,0
-630,-517,0,0,0,0,0,0,0,0,0,-1,594,1541,0,0
-623,-517,0,0,0,0,0,0,0,0,0,-1,601,1541,0,0
-616,-517,0,0,0,0,0,0,0,0,0,-1,608,1541,0,0
-609,-517,0,0,0,0,0,0,0,0,0,-1,615,1541,0,0
-602,-517,0,0,0,0,0,0,0,0,0,-1,622,1541,0,0
-595,-517,0,0,0,0,0,0,0,0,0,-1,629,1541,0,0
-588,-517,0,0,0,0,0,0,0,0,0,-1,636,1541,0,0
-581,-517,0,0,0,0,0,0,0,0,0,-1,643,1541,0,0
-574,-517,0,0,0,0,0,0,0,0,0,-1,650,1541,0,0
-567,-517,0,0,0,0,0,0,0,0,0,-1,657,1541,0,0
-560,-517,0,0,0,0,0,0,0,0,0,-1,664,1541,0,0
-553,-517,0,0,0,0,0,0,0,0,0,-1,671,1541,0,0
-546,-517,0,0,0,0,0,0,0,0,0,-1,678,1541,0,0
-539,-517,0,0,0,0,0,0,0,0,0,-1,685,1541,0,0
-532,-517,0,0,0,0,0,0,0,0,0,-1,692,1541,0,0
-525,-517,-3.62903,4.3606,0,0,0,0,0,0,0,-1,699,1541,-3.62904,-4.36056
-518,-517,-1.664,2.27209,0,0,0,0,0,0,0,-1,706,1541,-1.66399,-2.27207
-511,-517,-0.999146,5.52063,0,0,0,0,0,0,0,-1,713,1541,-0.999126,-5.52059
-504,-517,-1.06946,8.67432,0,0,0,0,0,0,0,-1,720,1541,-1.06947,-8.6743
-497,-517,-5.43036,17.4033,0,0,0,0,0,0,0,-1,727,1541,-5.43033,-17.4034
-490,-517,-6.20526,19.4496,0,0,0,0,0,0,0,-1,734,1541,-6.20526,-19.4495
-483,-517,-6.2254,20.368,0,0,0,0,0,0,0,-1,741,1541,-6.22542,-20.368
-476,-517,-9.63647,28.2833,0,0,0,0,0,0,0,-1,748,1541,-9.6365,-28.2833
-469,-517,-9.83618,29.3043,-0.00291192,0.00329074,0.00121977,0.00352199,-0.00314317,1.38343,0.00385021,0.0378091,755,1541,-9.83615,-29.3043
-462,-517,-10.0909,30.1038,-0.00245349,0.00209269,0.000494233,0.0021458,-0.00250659,1.46375,0.00268875,0.0403974,762,1541,-10.0909,-30.1037
-455,-517,-10.1225,31.0345,-0.00185721,0.00148692,0.000170806,0.00149562,-0.00186591,1.5199,0.0019447,0.0217741,769,1541,-10.1225,-31.0345
-448,-517,-10.1361,31.9507,-0.00124334,0.0011639,7.88143e-05,0.00116647,-0.00124591,1.5381,0.00139304,0.0143472,776,1541,-10.1361,-31.9506
-441,-517,-10.2077,32.7966,-0.000648995,0.0010136,9.51947e-05,0.00101903,-0.000654428,1.51379,0.000973786,0.0127011,783,1541,-10.2077,-32.7967
-434,-517,-10.2601,33.6442,-8.59423e-05,0.00106361,0.000228368,0.00110731,-0.000129648,1.3817,0.000785002,0.0151318,790,1541,-10.2601,-33.6441
-427,-517,-10.3242,34.498,0.000400371,0.00113932,0.000369414,0.00129232,0.000247372,1.17814,0.000792069,0.0147527,797,1541,-10.3242,-34.4981
-420,-517,-10.3845,35.3851,0.000907947,0.00132121,0.000547954,0.0017002,0.000528959,0.965703,0.00100469,0.0300937,804,1541,-10.3845,-35.3852
-413,-517,-10.4511,36.2311,0.00151616,0.00163745,0.000820766,0.00239981,0.000753798,0.822276,0.00141709,0.0164051,811,1541,-10.4511,-36.2311
-406,-517,-10.488,37.1002,0.00210021,0.0020927,0.00113014,0.0032266,0.000966312,0.783739,0.00191216,0.0116063,818,1541,-10.488,-37.1002
-399,-517,-10.5143,37.9404,0.00275165,0.00254114,0.00145286,0.00410306,0.00118973,0.749239,0.00243758,0.0114794,825,1541,-10.5143,-37.9405
-392,-517,-10.5345,38.7941,0.0033325,0.00320197,0.00174075,0.00500921,0.00152526,0.766661,0.00296485,0.0224563,832,1541,-10.5345,-38.7941
-385,-517,-10.4839,39.782,0,0,0,0,0,0,0,-1,839,1541,-10.484,-39.782
-378,-517,-6.61444,32.6315,0,0,0,0,0,0,0,-1,846,1541,-6.61445,-32.6315
-371,-517,-1.37585,13.2646,0,0,0,0,0,0,0,-1,853,1541,-1.37586,-13.2647
-364,-517,-1.26245,12.6289,0,0,0,0,0,0,0,-1,860,1541,-1.26243,-12.6289
-357,-517,-1.23889,12.979,0,0,0,0,0,0,0,-1,867,1541,-1.23891,-12.979
-350,-517,-5.40198,23.8954,0,0,0,0,0,0,0,-1,874,1541,-5.40196,-23.8954
-343,-517,-5.45844,29.2598,0,0,0,0,0,0,0,-1,881,1541,-5.45842,-29.2598
-336,-517,-4.53223,29.6708,0,0,0,0,0,0,0,-1,888,1541,-4.53221,-29.6708
-329,-517,-3.60602,30.0817,0,0,0,0,0,0,0,-1,895,1541,-3.60601,-30.0817
-322,-517,-4.21246,19.5819,0,0,0,0,0,0,0,-1,902,1541,-4.21244,-19.5819
-315,-517,-0.987976,7.29749,0,0,0,0,0,0,0,-1,909,1541,-0.987993,-7.29743
-308,-517,3.27911,17.621,0,0,0,0,0,0,0,-1,916,1541,3.27913,-17.621
-301,-517,-1.69141,8.87488,0,0,0,0,0,0,0,-1,923,1541,-1.69141,-8.87485
-294,-517,-1.72583,9.92566,0,0,0,0,0,0,0,-1,930,1541,-1.72584,-9.92571
-287,-517,-3.09045,12.1472,0,0,0,0,0,0,0,-1,937,1541,-3.09043,-12.1472
-280,-517,0,0,0,0,0,0,0,0,0,-1,944,1541,0,0
-273,-517,0,0,0,0,0,0,0,0,0,-1,951,1541,0,0
-266,-517,0,0,0,0,0,0,0,0,0,-1,958,1541,0,0
-259,-517,0,0,0,0,0,0,0,0,0,-1,965,1541,0,0
-252,-517,0,0,0,0,0,0,0,0,0,-1,972,1541,0,0
-245,-517,0,0,0,0,0,0,0,0,0,-1,979,1541,0,0
-238,-517,0,0,0,0,0,0,0,0,0,-1,986,1541,0,0
-231,-517,0,0,0,0,0,0,0,0,0,-1,993,1541,0,0
-224,-517,0,0,0,0,0,0,0,0,0,-1,1000,1541,0,0
-217,-517,0,0,0,0,0,0,0,0,0,-1,1007,1541,0,0
-210,-517,0,0,0,0,0,0,0,0,0,-1,1014,1541,0,0
-203,-517,0,0,0,0,0,0,0,0,0,-1,1021,1541,0,0
-196,-517,0,0,0,0,0,0,0,0,0,-1,1028,1541,0,0
-189,-517,0,0,0,0,0,0,0,0,0,-1,1035,1541,0,0
-182,-517,0,0,0,0,0,0,0,0,0,-1,1042,1541,0,0
-175,-517,0,0,0,0,0,0,0,0,0,-1,1049,1541,0,0
-168,-517,0,0,0,0,0,0,0,0,0,-1,1056,1541,0,0
-161,-517,0,0,0,0,0,0,0,0,0,-1,1063,1541,0,0
-154,-517,0,0,0,0,0,0,0,0,0,-1,1070,1541,0,0
-147,-517,0,0,0,0,0,0,0,0,0,-1,1077,1541,0,0
-140,-517,0,0,0,0,0,0,0,0,0,-1,1084,1541,0,0
-133,-517,0,0,0,0,0,0,0,0,0,-1,1091,1541,0,0
-126,-517,0,0,0,0,0,0,0,0,0,-1,1098,1541,0,0
-119,-517,0,0,0,0,0,0,0,0,0,-1,1105,1541,0,0
-112,-517,0,0,0,0,0,0,0,0,0,-1,1112,1541,0,0
-105,-517,0,0,0,0,0,0,0,0,0,-1,1119,1541,0,0
-98,-517,0,0,0,0,0,0,0,0,0,-1,1126,1541,0,0
-91,-517,0,0,0,0,0,0,0,0,0,-1,1133,1541,0,0
-84,-517,0,0,0,0,0,0,0,0,0,-1,1140,1541,0,0
-77,-517,0,0,0,0,0,0,0,0,0,-1,1147,1541,0,0
-70,-517,0,0,0,0,0,0,0,0,0,-1,1154,1541,0,0
-63,-517,0,0,0,0,0,0,0,0,0,-1,1161,1541,0,0
-56,-517,0,0,0,0,0,0,0,0,0,-1,1168,1541,0,0
-49,-517,0,0,0,0,0,0,0,0,0,-1,1175,1541,0,0
-42,-517,0,0,0,0,0,0,0,0,0,-1,1182,1541,0,0
-35,-517,0,0,0,0,0,0,0,0,0,-1,1189,1541,0,0
-28,-517,0,0,0,0,0,0,0,0,0,-1,1196,1541,0,0
-21,-517,0,0,0,0,0,0,0,0,0,-1,1203,1541,0,0
-14,-517,0,0,0,0,0,0,0,0,0,-1,1210,1541,0,0
-7,-517,0,0,0,0,0,0,0,0,0,-1,1217,1541,0,0
0,-517,0,0,0,0,0,0,0,0,0,-1,1224,1541,0,0
7,-517,0,0,0,0,0,0,0,0,0,-1,1231,1541,0,0
14,-517,0,0,0,0,0,0,0,0,0,-1,1238,1541,0,0
21,-517,0,0,0,0,0,0,0,0,0,-1,1245,1541,0,0
28,-517,0,0,0,0,0,0,0,0,0,-1,1252,1541,0,0
35,-517,0,0,0,0,0,0,0,0,0,-1,1259,1541,0,0
42,-517,0,0,0,0,0,0,0,0,0,-1,1266,1541,0,0
49,-517,0,0,0,0,0,0,0,0,0,-1,1273,1541,0,0
56,-517,0,0,0,0,0,0,0,0,0,-1,1280,1541,0,0
63,-517,0,0,0,0,0,0,0,0,0,-1,1287,1541,0,0
70,-517,0,0,0,0,0,0,0,0,0,-1,1294,1541,0,0
77,-517,0,0,0,0,0,0,0,0,0,-1,1301,1541,0,0
84,-517,0,0,0,0,0,0,0,0,0,-1,1308,1541,0,0
91,-517,0,0,0,0,0,0,0,0,0,-1,1315,1541,0,0
98,-517,0,0,0,0,0,0,0,0,0,-1,1322,1541,0,0
105,-517,0,0,0,0,0,0,0,0,0,-1,1329,1541,0,0
112,-517,0,0,0,0,0,0,0,0,0,-1,1336,1541,0,0
119,-517,0,0,0,0,0,0,0,0,0,-1,1343,1541,0,0
126,-517,0,0,0,0,0,0,0,0,0,-1,1350,1541,0,0
133,-517,0,0,0,0,0,0,0,0,0,-1,1357,1541,0,0
140,-517,0,0,0,0,0,0,0,0,0,-1,1364,1541,0,0
147,-517,0,0,0,0,0,0,0,0,0,-1,1371,1541,0,0
154,-517,0,0,0,0,0,0,0,0,0,-1,1378,1541,0,0
161,-517,0,0,0,0,0,0,0,0,0,-1,1385,1541,0,0
168,-517,0,0,0,0,0,0,0,0,0,-1,1392,1541,0,0
175,-517,0,0,0,0,0,0,0,0,0,-1,1399,1541,0,0
182,-517,0,0,0,0,0,0,0,0,0,-1,1406,1541,0,0
189,-517,0,0,0,0,0,0,0,0,0,-1,1413,1541,0,0
196,-517,0,0,0,0,0,0,0,0,0,-1,1420,1541,0,0
203,-517,0,0,0,0,0,0,0,0,0,-1,1427,1541,0,0
210,-517,0,0,0,0,0,0,0,0,0,-1,1434,1541,0,0
217,-517,0,0,0,0,0,0,0,0,0,-1,1441,1541,0,0
224,-517,0,0,0,0,0,0,0,0,0,-1,1448,1541,0,0
231,-517,0,0,0,0,0,0,0,0,0,-1,1455,1541,0,0
238,-517,0,0,0,0,0,0,0,0,0,-1,1462,1541,0,0
245,-517,0,0,0,0,0,0,0,0,0,-1,1469,1541,0,0
252,-517,0,0,0,0,0,0,0,0,0,-1,1476,1541,0,0
259,-517,0,0,0,0,0,0,0,0,0,-1,1483,1541,0,0
266,-517,0,0,0,0,0,0,0,0,0,-1,1490,1541,0,0
273,-517,0,0,0,0,0,0,0,0,0,-1,1497,1541,0,0
280,-517,0,0,0,0,0,0,0,0,0,-1,1504,1541,0,0
287,-517,0,0,0,0,0,0,0,0,0,-1,1511,1541,0,0
294,-517,0,0,0,0,0,0,0,0,0,-1,1518,1541,0,0
301,-517,0,0,0,0,0,0,0,0,0,-1,1525,1541,0,0
308,-517,0,0,0,0,0,0,0,0,0,-1,1532,1541,0,0
315,-517,0,0,0,0,0,0,0,0,0,-1,1539,1541,0,0
322,-517,0,0,0,0,0,0,0,0,0,-1,1546,1541,0,0
329,-517,0,0,0,0,0,0,0,0,0,-1,1553,1541,0,0
336,-517,0,0,0,0,0,0,0,0,0,-1,1560,1541,0,0
343,-517,0,0,0,0,0,0,0,0,0,-1,1567,1541,0,0
350,-517,0,0,0,0,0,0,0,0,0,-1,1574,1541,0,0
357,-517,0,0,0,0,0,0,0,0,0,-1,1581,1541,0,0
364,-517,0,0,0,0,0,0,0,0,0,-1,1588,1541,0,0
371,-517,0,0,0,0,0,0,0,0,0,-1,1595,1541,0,0
378,-517,0,0,0,0,0,0,0,0,0,-1,1602,1541,0,0
385,-517,0,0,0,0,0,0,0,0,0,-1,1609,1541,0,0
392,-517,0,0,0,0,0,0,0,0,0,-1,1616,1541,0,0
399,-517,0,0,0,0,0,0,0,0,0,-1,1623,1541,0,0
406,-517,13.1395,7.01978,0,0,0,0,0,0,0,-1,1630,1541,13.1396,-7.01981
413,-517,12.8859,6.31592,0,0,0,0,0,0,0,-1,1637,1541,12.8858,-6.31588
420,-517,12.4789,6.20337,0,0,0,0,0,0,0,-1,1644,1541,12.4789,-6.20333
427,-517,11.647,4.66516,0,0,0,0,0,0,0,-1,1651,1541,11.647,-4.66519
434,-517,12.3719,3.92773,0,0,0,0,0,0,0,-1,1658,1541,12.3719,-3.92776
441,-517,13.146,3.14124,0,0,0,0,0,0,0,-1,1665,1541,13.146,-3.14121
448,-517,13.8861,2.36682,0,0,0,0,0,0,0,-1,1672,1541,13.8861,-2.36684
455,-517,13.6012,4.06335,0,0,0,0,0,0,0,-1,1679,1541,13.6012,-4.06335
462,-517,14.8956,7.0752,0,0,0,0,0,0,0,-1,1686,1541,14.8956,-7.07525
469,-517,13.6292,6.87744,0,0,0,0,0,0,0,-1,1693,1541,13.6292,-6.87739
476,-517,17.1632,14.1487,0,0,0,0,0,0,0,-1,1700,1541,17.1632,-14.1487
483,-517,16.5157,15.0776,0,0,0,0,0,0,0,-1,1707,1541,16.5157,-15.0777
490,-517,15.5439,18.0258,0,0,0,0,0,0,0,-1,1714,1541,15.5439,-18.0258
497,-517,16.0292,18.7786,0,0,0,0,0,0,0,-1,1721,1541,16.0291,-18.7786
504,-517,27.7916,40.7385,0,0,0,0,0,0,0,-1,1728,1541,27.7916,-40.7386
511,-517,16.9674,21.8491,0,0,0,0,0,0,0,-1,1735,1541,16.9674,-21.8491
518,-517,28.2039,38.7948,0,0,0,0,0,0,0,-1,1742,1541,28.2039,-38.7948
525,-517,27.9967,38.051,0.0087164,0.00769891,-0.00604534,0.0142744,0.00214095,-0.74342,0.00888895,0.0275453,1749,1541,27.9967,-38.051
532,-517,28.1675,37.0994,0.00719835,0.00634681,-0.00494449,0.0117354,0.00180979,-0.742449,0.00729553,0.012503,1756,1541,28.1674,-37.0993
539,-517,28.129,36.2839,0.00586986,0.00511034,-0.00397848,0.00948666,0.00149354,-0.737816,0.00589005,0.0142619,1763,1541,28.129,-36.2839
546,-517,28.0684,35.5204,0.00469025,0.00395514,-0.0031527,0.00749675,0.00114864,-0.727368,0.00466236,0.0163754,1770,1541,28.0683,-35.5204
553,-517,28.0052,34.6948,0.00371137,0.00295397,-0.00246963,0.00583117,0.000834174,-0.709319,0.00364138,0.0196109,1777,1541,28.0053,-34.6948
560,-517,27.967,33.8325,0.00291266,0.00209001,-0.0019519,0.0044961,0.000506575,-0.681552,0.00284362,0.0168598,1784,1541,27.9671,-33.8325
567,-517,27.9463,32.9904,0.00229724,0.00143161,-0.00166592,0.00358565,0.000143203,-0.658305,0.00234415,0.0129836,1791,1541,27.9463,-32.9903
574,-517,27.8983,32.1416,0.00189503,0.000953045,-0.00154902,0.00304308,-0.000195004,-0.63781,0.00209674,0.0152449,1798,1541,27.8983,-32.1416
581,-517,27.8142,31.3184,0.00180179,0.000747108,-0.00170343,0.00305764,-0.000508737,-0.635289,0.00222745,0.0174614,1805,1541,27.8143,-31.3183
588,-517,27.782,30.4619,0.00194224,0.000790836,-0.00203573,0.00348211,-0.000749028,-0.647597,0.00260719,0.0181813,1812,1541,27.782,-30.462
595,-517,27.9888,29.3923,0,0,0,0,0,0,0,-1,1819,1541,27.9888,-29.3923
602,-517,28.1732,28.2633,0,0,0,0,0,0,0,-1,1826,1541,28.1733,-28.2633
609,-517,12.6417,10.8751,0,0,0,0,0,0,0,-1,1833,1541,12.6417,-10.8751
616,-517,14.205,10.3193,0,0,0,0,0,0,0,-1,1840,1541,14.205,-10.3194
623,-517,12.578,10.0779,0,0,0,0,0,0,0,-1,1847,1541,12.578,-10.0779
630,-517,11.7035,7.47815,0,0,0,0,0,0,0,-1,1854,1541,11.7035,-7.47812
637,-517,11.5172,5.79822,0,0,0,0,0,0,0,-1,1861,1541,11.5173,-5.79825
644,-517,11.4232,3.30579,0,0,0,0,0,0,0,-1,1868,1541,11.4232,-3.30574
651,-517,0,0,0,0,0,0,0,0,0,-1,1875,1541,0,0
658,-517,0,0,0,0,0,0,0,0,0,-1,1882,1541,0,0
665,-517,0,0,0,0,0,0,0,0,0,-1,1889,1541,0,0
672,-517,0,0,0,0,0,0,0,0,0,-1,1896,1541,0,0
679,-517,0,0,0,0,0,0,0,0,0,-1,1903,1541,0,0
686,-517,0,0,0,0,0,0,0,0,0,-1,1910,1541,0,0
693,-517,0,0,0,0,0,0,0,0,0,-1,1917,1541,0,0
700,-517,0,0,0,0,0,0,0,0,0,-1,1924,1541,0,0
707,-517,0,0,0,0,0,0,0,0,0,-1,1931,1541,0,0
714,-517,0,0,0,0,0,0,0,0,0,-1,1938,1541,0,0
721,-517,0,0,0,0,0,0,0,0,0,-1,1945,1541,0,0
728,-517,0,0,0,0,0,0,0,0,0,-1,1952,1541,0,0
735,-517,0,0,0,0,0,0,0,0,0,-1,1959,1541,0,0
742,-517,0,0,0,0,0,0,0,0,0,-1,1966,1541,0,0
749,-517,0,0,0,0,0,0,0,0,0,-1,1973,1541,0,0
756,-517,0,0,0,0,0,0,0,0,0,-1,1980,1541,0,0
763,-517,0,0,0,0,0,0,0,0,0,-1,1987,1541,0,0
770,-517,0,0,0,0,0,0,0,0,0,-1,1994,1541,0,0
777,-517,0,0,0,0,0,0,0,0,0,-1,2001,1541,0,0
784,-517,0,0,0,0,0,0,0,0,0,-1,2008,1541,0,0
791,-517,0,0,0,0,0,0,0,0,0,-1,2015,1541,0,0
798,-517,0,0,0,0,0,0,0,0,0,-1,2022,1541,0,0
805,-517,0,0,0,0,0,0,0,0,0,-1,2029,1541,0,0
812,-517,0,0,0,0,0,0,0,0,0,-1,2036,1541,0,0
-700,-524,0,0,0,0,0,0,0,0,0,-1,524,1548,0,0
-693,-524,0,0,0,0,0,0,0,0,0,-1,531,1548,0,0
-686,-524,0,0,0,0,0,0,0,0,0,-1,538,1548,0,0
-679,-524,0,0,0,0,0,0,0,0,0,-1,545,1548,0,0
-672,-524,0,0,0,0,0,0,0,0,0,-1,552,1548,0,0
-665,-524,0,0,0,0,0,0,0,0,0,-1,559,1548,0,0
-658,-524,0,0,0,0,0,0,0,0,0,-1,566,1548,0,0
-651,-524,0,0,0,0,0,0,0,0,0,-1,573,1548,0,0
-644,-524,0,0,0,0,0,0,0,0,0,-1,580,1548,0,0
-637,-524,0,0,0,0,0,0,0,0,0,-1,587,1548,0,0
-630,-524,0,0,0,0,0,0,0,0,0,-1,594,1548,0,0
-623,-524,0,0,0,0,0,0,0,0,0,-1,601,1548,0,0
-616,-524,0,0,0,0,0,0,0,0,0,-1,608,1548,0,0
-609,-524,0,0,0,0,0,0,0,0,0,-1,615,1548,0,0
-602,-524,0,0,0,0,0,0,0,0,0,-1,622,1548,0,0
-595,-524,0,0,0,0,0,0,0,0,0,-1,629,1548,0,0
-588,-524,0,0,0,0,0,0,0,0,0,-1,636,1548,0,0
-581,-524,0,0,0,0,0,0,0,0,0,-1,643,1548,0,0
-574,-524,0,0,0,0,0,0,0,0,0,-1,650,1548,0,0
-567,-524,0,0,0,0,0,0,0,0,0,-1,657,1548,0,0
-560,-524,0,0,0,0,0,0,0,0,0,-1,664,1548,0,0
-553,-524,0,0,0,0,0,0,0,0,0,-1,671,1548,0,0
-546,-524,0,0,0,0,0,0,0,0,0,-1,678,1548,0,0
-539,-524,0,0,0,0,0,0,0,0,0,-1,685,1548,0,0
-532,-524,0,0,0,0,0,0,0,0,0,-1,692,1548,0,0
-525,-524,-0.215515,3.97131,0,0,0,0,0,0,0,-1,699,1548,-0.215501,-3.97136
-518,-524,-0.806274,4.35632,0,0,0,0,0,0,0,-1,706,1548,-0.806259,-4.35633
-511,-524,-1.08301,4.29004,0,0,0,0,0,0,0,-1,713,1548,-1.08301,-4.29006
-504,-524,-1.28821,3.98145,0,0,0,0,0,0,0,-1,720,1548,-1.28822,-3.98151
-497,-524,-0.328491,8.63416,0,0,0,0,0,0,0,-1,727,1548,-0.328487,-8.63411
-490,-524,-6.65582,19.3033,0,0,0,0,0,0,0,-1,734,1548,-6.65583,-19.3034
-483,-524,-7.57153,22.1989,0,0,0,0,0,0,0,-1,741,1548,-7.57151,-22.1988
-476,-524,-8.51898,26.7598,0,0,0,0,0,0,0,-1,748,1548,-8.51897,-26.7597
-469,-524,-9.18732,29.3109,0,0,0,0,0,0,0,-1,755,1548,-9.18731,-29.3109
-462,-524,-9.29816,30.0072,0,0,0,0,0,0,0,-1,762,1548,-9.29819,-30.0072
-455,-524,-9.37317,31.1263,-0.00294633,0.00146052,-0.000484978,0.00151326,-0.00299907,-1.46247,0.00265186,0.0485117,769,1548,-9.37314,-31.1263
-448,-524,-9.31873,32.0057,-0.0021429,0.00114691,-0.00041841,0.00119929,-0.00219528,-1.44625,0.00198778,0.0186604,776,1548,-9.31874,-32.0057
-441,-524,-9.35583,32.849,-0.00141019,0.000964209,-0.000299375,0.00100137,-0.00144735,-1.44729,0.00142157,0.0116134,783,1548,-9.35586,-32.849
-434,-524,-9.35577,33.7085,-0.000752671,0.000943599,-0.000110353,0.000950748,-0.00075982,-1.5061,0.000989645,0.0139149,790,1548,-9.35575,-33.7084
-427,-524,-9.4165,34.5858,-0.000211958,0.000951199,5.71227e-05,0.000953998,-0.000214757,1.52184,0.000718365,0.0162161,797,1548,-9.41653,-34.5859
-420,-524,-9.51056,35.4476,0.000310083,0.00104445,0.000222402,0.00110655,0.000247981,1.2985,0.000670506,0.0407767,804,1548,-9.51055,-35.4476
-413,-524,-9.60504,36.2935,0.000951611,0.00124077,0.000466991,0.00158505,0.000607329,0.935516,0.000923419,0.0379107,811,1548,-9.60502,-36.2934
-406,-524,-9.60364,37.1511,0.00152987,0.00156476,0.000701839,0.00224937,0.000845261,0.797825,0.00131197,0.0134044,818,1548,-9.60362,-37.1511
-399,-524,-9.6521,37.9849,0.0020744,0.00192649,0.000916064,0.00291949,0.0010814,0.745121,0.00170434,0.00996024,825,1548,-9.65208,-37.9849
-392,-524,-9.71674,38.7998,0.00257559,0.00246377,0.00113172,0.00365278,0.00138659,0.760717,0.00212922,0.0108873,832,1548,-9.71675,-38.7998
-385,-524,-9.77081,39.6821,0.00311037,0.00310949,0.00138362,0.00449354,0.00172631,0.78524,0.00261745,0.0194931,839,1548,-9.77082,-39.6822
-378,-524,-9.80475,40.6211,0,0,0,0,0,0,0,-1,846,1548,-9.80475,-40.6211
-371,-524,-4.20789,29.1592,0,0,0,0,0,0,0,-1,853,1548,-4.2079,-29.1592
-364,-524,-0.712097,14.9871,0,0,0,0,0,0,0,-1,860,1548,-0.712116,-14.9871
-357,-524,-1.34052,14.7448,0,0,0,0,0,0,0,-1,867,1548,-1.34054,-14.7447
-350,-524,-4.31909,25.032,0,0,0,0,0,0,0,-1,874,1548,-4.31906,-25.0319
-343,-524,-3.69696,28.6923,0,0,0,0,0,0,0,-1,881,1548,-3.69694,-28.6922
-336,-524,-3.4873,29.655,0,0,0,0,0,0,0,-1,888,1548,-3.48728,-29.6551
-329,-524,-3.21936,30.5509,0,0,0,0,0,0,0,-1,895,1548,-3.21933,-30.5509
-322,-524,-4.31378,25.6389,0,0,0,0,0,0,0,-1,902,1548,-4.31379,-25.639
-315,-524,-1.90839,19.4824,0,0,0,0,0,0,0,-1,909,1548,-1.90838,-19.4824
-308,-524,-2.36938,19.3059,0,0,0,0,0,0,0,-1,916,1548,-2.3694,-19.3058
-301,-524,2.72394,17.7618,0,0,0,0,0,0,0,-1,923,1548,2.72396,-17.7619
-294,-524,-1.52515,9.05408,0,0,0,0,0,0,0,-1,930,1548,-1.52512,-9.05411
-287,-524,-0.962219,10.3199,0,0,0,0,0,0,0,-1,937,1548,-0.962241,-10.32
-280,-524,-1.36255,10.3859,0,0,0,0,0,0,0,-1,944,1548,-1.36253,-10.3859
-273,-524,0,0,0,0,0,0,0,0,0,-1,951,1548,0,0
-266,-524,0,0,0,0,0,0,0,0,0,-1,958,1548,0,0
-259,-524,0,0,0,0,0,0,0,0,0,-1,965,1548,0,0
-252,-524,0,0,0,0,0,0,0,0,0,-1,972,1548,0,0
-245,-524,0,0,0,0,0,0,0,0,0,-1,979,1548,0,0
-238,-524,0,0,0,0,0,0,0,0,0,-1,986,1548,0,0
-231,-524,0,0,0,0,0,0,0,0,0,-1,993,1548,0,0
-224,-524,0,0,0,0,0,0,0,0,0,-1,1000,1548,0,0
-217,-524,0,0,0,0,0,0,0,0,0,-1,1007,1548,0,0
-210,-524,0,0,0,0,0,0,0,0,0,-1,1014,1548,0,0
-203,-524,0,0,0,0,0,0,0,0,0,-1,1021,1548,0,0
-196,-524,0,0,0,0,0,0,0,0,0,-1,1028,1548,0,0
-189,-524,0,0,0,0,0,0,0,0,0,-1,1035,1548,0,0
-182,-524,0,0,0,0,0,0,0,0,0,-1,1042,1548,0,0
-175,-524,0,0,0,0,0,0,0,0,0,-1,1049,1548,0,0
-168,-524,0,0,0,0,0,0,0,0,0,-1,1056,1548,0,0
-161,-524,0,0,0,0,0,0,0,0,0,-1,1063,1548,0,0
-154,-524,0,0,0,0,0,0,0,0,0,-1,1070,1548,0,0
-147,-524,0,0,0,0,0,0,0,0,0,-1,1077,1548,0,0
-140,-524,0,0,0,0,0,0,0,0,0,-1,1084,1548,0,0
-133,-524,0,0,0,0,0,0,0,0,0,-1,1091,1548,0,0
-126,-524,0,0,0,0,0,0,0,0,0,-1,1098,1548,0,0
-119,-524,0,0,0,0,0,0,0,0,0,-1,1105,1548,0,0
-112,-524,0,0,0,0,0,0,0,0,0,-1,1112,1548,0,0
-105,-524,0,0,0,0,0,0,0,0,0,-1,1119,1548,0,0
-98,-524,0,0,0,0,0,0,0,0,0,-1,1126,1548,0,0
-91,-524,0,0,0,0,0,0,0,0,0,-1,1133,1548,0,0
-84,-524,0,0,0,0,0,0,0,0,0,-1,1140,1548,0,0
-77,-524,0,0,0,0,0,0,0,0,0,-1,1147,1548,0,0
-70,-524,0,0,0,0,0,0,0,0,0,-1,1154,1548,0,0
-63,-524,0,0,0,0,0,0,0,0,0,-1,1161,1548,0,0
-56,-524,0,0,0,0,0,0,0,0,0,-1,1168,1548,0,0
-49,-524,0,0,0,0,0,0,0,0,0,-1,1175,1548,0,0
-42,-524,0,0,0,0,0,0,0,0,0,-1,1182,1548,0,0
-35,-524,0,0,0,0,0,0,0,0,0,-1,1189,1548,0,0
-28,-524,0,0,0,0,0,0,0,0,0,-1,1196,1548,0,0
-21,-524,0,0,0,0,0,0,0,0,0,-1,1203,1548,0,0
-14,-524,0,0,0,0,0,0,0,0,0,-1,1210,1548,0,0
-7,-524,0,0,0,0,0,0,0,0,0,-1,1217,1548,0,0
0,-524,0,0,0,0,0,0,0,0,0,-1,1224,1548,0,0
7,-524,0,0,0,0,0,0,0,0,0,-1,1231,1548,0,0
14,-524,0,0,0,0,0,0,0,0,0,-1,1238,1548,0,0
21,-524,0,0,0,0,0,0,0,0,0,-1,1245,1548,0,0
28,-524,0,0,0,0,0,0,0,0,0,-1,1252,1548,0,0
35,-524,0,0,0,0,0,0,0,0,0,-1,1259,1548,0,0
42,-524,0,0,0,0,0,0,0,0,0,-1,1266,1548,0,0
49,-524,0,0,0,0,0,0,0,0,0,-1,1273,1548,0,0
56,-524,0,0,0,0,0,0,0,0,0,-1,1280,1548,0,0
63,-524,0,0,0,0,0,0,0,0,0,-1,1287,1548,0,0
70,-524,0,0,0,0,0,0,0,0,0,-1,1294,1548,0,0
77,-524,0,0,0,0,0,0,0,0,0,-1,1301,1548,0,0
84,-524,0,0,0,0,0,0,0,0,0,-1,1308,1548,0,0
91,-524,0,0,0,0,0,0,0,0,0,-1,1315,1548,0,0
98,-524,0,0,0,0,0,0,0,0,0,-1,1322,1548,0,0
105,-524,0,0,0,0,0,0,0,0,0,-1,1329,1548,0,0
112,-524,0,0,0,0,0,0,0,0,0,-1,1336,1548,0,0
119,-524,0,0,0,0,0,0,0,0,0,-1,1343,1548,0,0
126,-524,0,0,0,0,0,0,0,0,0,-1,1350,1548,0,0
133,-524,0,0,0,0,0,0,0,0,0,-1,1357,1548,0,0
140,-524,0,0,0,0,0,0,0,0,0,-1,1364,1548,0,0
147,-524,0,0,0,0,0,0,0,0,0,-1,1371,1548,0,0
154,-524,0,0,0,0,0,0,0,0,0,-1,1378,1548,0,0
161,-524,0,0,0,0,0,0,0,0,0,-1,1385,1548,0,0
168,-524,0,0,0,0,0,0,0,0,0,-1,1392,1548,0,0
175,-524,0,0,0,0,0,0,0,0,0,-1,1399,1548,0,0
182,-524,0,0,0,0,0,0,0,0,0,-1,1406,1548,0,0
189,-524,0,0,0,0,0,0,0,0,0,-1,1413,1548,0,0
196,-524,0,0,0,0,0,0,0,0,0,-1,1420,1548,0,0
203,-524,0,0,0,0,0,0,0,0,0,-1,1427,1548,0,0
210,-524,0,0,0,0,0,0,0,0,0,-1,1434,1548,0,0
217,-524,0,0,0,0,0,0,0,0,0,-1,1441,1548,0,0
224,-524,0,0,0,0,0,0,0,0,0,-1,1448,1548,0,0
231,-524,0,0,0,0,0,0,0,0,0,-1,1455,1548,0,0
238,-524,0,0,0,0,0,0,0,0,0,-1,1462,1548,0,0
245,-524,0,0,0,0,0,0,0,0,0,-1,1469,1548,0,0
252,-524,0,0,0,0,0,0,0,0,0,-1,1476,1548,0,0
259,-524,0,0,0,0,0,0,0,0,0,-1,1483,1548,0,0
266,-524,0,0,0,0,0,0,0,0,0,-1,1490,1548,0,0
273,-524,0,0,0,0,0,0,0,0,0,-1,1497,1548,0,0
280,-524,0,0,0,0,0,0,0,0,0,-1,1504,1548,0,0
287,-524,0,0,0,0,0,0,0,0,0,-1,1511,1548,0,0
294,-524,0,0,0,0,0,0,0,0,0,-1,1518,1548,0,0
301,-524,0,0,0,0,0,0,0,0,0,-1,1525,1548,0,0
308,-524,0,0,0,0,0,0,0,0,0,-1,1532,1548,0,0
315,-524,0,0,0,0,0,0,0,0,0,-1,1539,1548,0,0
322,-524,0,0,0,0,0,0,0,0,0,-1,1546,1548,0,0
329,-524,0,0,0,0,0,0,0,0,0,-1,1553,1548,0,0
336,-524,0,0,0,0,0,0,0,0,0,-1,1560,1548,0,0
343,-524,0,0,0,0,0,0,0,0,0,-1,1567,1548,0,0
350,-524,0,0,0,0,0,0,0,0,0,-1,1574,1548,0,0
357,-524,0,0,0,0,0,0,0,0,0,-1,1581,1548,0,0
364,-524,0,0,0,0,0,0,0,0,0,-1,1588,1548,0,0
371,-524,0,0,0,0,0,0,0,0,0,-1,1595,1548,0,0
378,-524,0,0,0,0,0,0,0,0,0,-1,1602,1548,0,0
385,-524,0,0,0,0,0,0,0,0,0,-1,1609,1548,0,0
392,-524,0,0,0,0,0,0,0,0,0,-1,1616,1548,0,0
399,-524,8.81848,5.05774,0,0,0,0,0,0,0,-1,1623,1548,8.81843,-5.05769
406,-524,8.64294,6.06799,0,0,0,0,0,0,0,-1,1630,1548,8.6429,-6.06805
413,-524,11.677,6.41858,0,0,0,0,0,0,0,-1,1637,1548,11.677,-6.41864
420,-524,11.4913,6.36401,0,0,0,0,0,0,0,-1,1644,1548,11.4913,-6.36402
427,-524,7.68335,6.17249,0,0,0,0,0,0,0,-1,1651,1548,7.68341,-6.17245
434,-524,10.432,11.6801,0,0,0,0,0,0,0,-1,1658,1548,10.432,-11.68
441,-524,8.78552,4.12305,0,0,0,0,0,0,0,-1,1665,1548,8.78553,-4.12301
448,-524,14.1854,4.78674,0,0,0,0,0,0,0,-1,1672,1548,14.1854,-4.78674
455,-524,12.4784,3.65576,0,0,0,0,0,0,0,-1,1679,1548,12.4784,-3.65572
462,-524,14.7551,9.29395,0,0,0,0,0,0,0,-1,1686,1548,14.7552,-9.29397
469,-524,16.3314,14.3779,0,0,0,0,0,0,0,-1,1693,1548,16.3314,-14.3779
476,-524,15.9106,15.1875,0,0,0,0,0,0,0,-1,1700,1548,15.9107,-15.1876
483,-524,15.2776,16.2268,0,0,0,0,0,0,0,-1,1707,1548,15.2776,-16.2269
490,-524,15.2563,18.5848,0,0,0,0,0,0,0,-1,1714,1548,15.2564,-18.5848
497,-524,27.4374,41.4204,0,0,0,0,0,0,0,-1,1721,1548,27.4374,-41.4204
504,-524,27.2312,40.5187,0,0,0,0,0,0,0,-1,1728,1548,27.2312,-40.5187
511,-524,27.4402,39.6632,0,0,0,0,0,0,0,-1,1735,1548,27.4402,-39.6632
518,-524,27.4008,38.8186,0.00796632,0.00728086,-0.00551144,0.0131457,0.0021015,-0.754346,0.00815406,0.0263519,1742,1548,27.4007,-38.8187
525,-524,27.3477,38.0094,0.00662314,0.00611219,-0.00459525,0.01097,0.00176532,-0.757629,0.0068017,0.0149158,1749,1548,27.3477,-38.0094
532,-524,27.3411,37.1572,0.00540398,0.00501866,-0.00375941,0.00897567,0.00144697,-0.759796,0.00556452,0.0105796,1756,1548,27.341,-37.1572
539,-524,27.2997,36.3108,0.0043584,0.00399882,-0.0030308,0.00721474,0.00114248,-0.755772,0.00447785,0.0123061,1763,1548,27.2997,-36.3108
546,-524,27.2451,35.5442,0.00341529,0.00302126,-0.0024029,0.00562924,0.00080731,-0.744494,0.00351477,0.0168125,1770,1548,27.2452,-35.5441
553,-524,27.2156,34.7468,0.00265308,0.00216147,-0.00188769,0.0043109,0.000503652,-0.720655,0.00272163,0.0274157,1777,1548,27.2156,-34.7469
560,-524,27.2144,33.9021,0.00207194,0.00142041,-0.00152352,0.00330414,0.000188218,-0.680073,0.00214278,0.033385,1784,1548,27.2143,-33.9021
567,-524,27.1229,33.0336,0.00166448,0.00086021,-0.00136133,0.00268183,-0.000157138,-0.641783,0.0018425,0.018442,1791,1548,27.1229,-33.0336
574,-524,27.0701,32.1899,0.00145845,0.000437182,-0.00136669,0.00240679,-0.000511149,-0.606613,0.00179927,0.0144323,1798,1548,27.07,-32.19
581,-524,27.0148,31.3153,0.00165766,0.000302038,-0.00171588,0.00282475,-0.000865053,-0.597294,0.00222821,0.0163218,1805,1548,27.0148,-31.3153
588,-524,27.0524,30.4441,0.00216632,0.0004898,-0.00229103,0.00376763,-0.00111151,-0.610019,0.00295283,0.0347641,1812,1548,27.0523,-30.4441
595,-524,27.1139,29.3276,0,0,0,0,0,0,0,-1,1819,1548,27.1138,-29.3276
602,-524,13.837,12.0682,0,0,0,0,0,0,0,-1,1826,1548,13.837,-12.0683
609,-524,13.0056,10.5138,0,0,0,0,0,0,0,-1,1833,1548,13.0056,-10.5138
616,-524,11.6941,8.65515,0,0,0,0,0,0,0,-1,1840,1548,11.6941,-8.65514
623,-524,9.38452,5.15356,0,0,0,0,0,0,0,-1,1847,1548,9.38456,-5.15359
630,-524,11.0541,3.57434,0,0,0,0,0,0,0,-1,1854,1548,11.0541,-3.57438
637,-524,11.6067,3.20728,0,0,0,0,0,0,0,-1,1861,1548,11.6067,-3.20724
644,-524,12.2134,0.727173,0,0,0,0,0,0,0,-1,1868,1548,12.2134,-0.727222
651,-524,0,0,0,0,0,0,0,0,0,-1,1875,1548,0,0
658,-524,0,0,0,0,0,0,0,0,0,-1,1882,1548,0,0
665,-524,0,0,0,0,0,0,0,0,0,-1,1889,1548,0,0
672,-524,0,0,0,0,0,0,0,0,0,-1,1896,1548,0,0
679,-524,0,0,0,0,0,0,0,0,0,-1,1903,1548,0,0
686,-524,0,0,0,0,0,0,0,0,0,-1,1910,1548,0,0
693,-524,0,0,0,0,0,0,0,0,0,-1,1917,1548,0,0
700,-524,0,0,0,0,0,0,0,0,0,-1,1924,1548,0,0
707,-524,0,0,0,0,0,0,0,0,0,-1,1931,1548,0,0
714,-524,0,0,0,0,0,0,0,0,0,-1,1938,1548,0,0
721,-524,0,0,0,0,0,0,0,0,0,-1,1945,1548,0,0
728,-524,0,0,0,0,0,0,0,0,0,-1,1952,1548,0,0
735,-524,0,0,0,0,0,0,0,0,0,-1,1959,1548,0,0
742,-524,0,0,0,0,0,0,0,0,0,-1,1966,1548,0,0
749,-524,0,0,0,0,0,0,0,0,0,-1,1973,1548,0,0
756,-524,0,0,0,0,0,0,0,0,0,-1,1980,1548,0,0
763,-524,0,0,0,0,0,0,0,0,0,-1,1987,1548,0,0
770,-524,0,0,0,0,0,0,0,0,0,-1,1994,1548,0,0
777,-524,0,0,0,0,0,0,0,0,0,-1,2001,1548,0,0
784,-524,0,0,0,0,0,0,0,0,0,-1,2008,1548,0,0
791,-524,0,0,0,0,0,0,0,0,0,-1,2015,1548,0,0
798,-524,0,0,0,0,0,0,0,0,0,-1,2022,1548,0,0
805,-524,0,0,0,0,0,0,0,0,0,-1,2029,1548,0,0
812,-524,0,0,0,0,0,0,0,0,0,-1,2036,1548,0,0
-700,-531,0,0,0,0,0,0,0,0,0,-1,524,1555,0,0
-693,-531,0,0,0,0,0,0,0,0,0,-1,531,1555,0,0
-686,-531,0,0,0,0,0,0,0,0,0,-1,538,1555,0,0
-679,-531,0,0,0,0,0,0,0,0,0,-1,545,1555,0,0
-672,-531,0,0,0,0,0,0,0,0,0,-1,552,1555,0,0
-665,-531,0,0,0,0,0,0,0,0,0,-1,559,1555,0,0
-658,-531,0,0,0,0,0,0,0,0,0,-1,566,1555,0,0
-651,-531,0,0,0,0,0,0,0,0,0,-1,573,1555,0,0
-644,-531,0,0,0,0,0,0,0,0,0,-1,580,1555,0,0
-637,-531,0,0,0,0,0,0,0,0,0,-1,587,1555,0,0
-630,-531,0,0,0,0,0,0,0,0,0,-1,594,1555,0,0
-623,-531,0,0,0,0,0,0,0,0,0,-1,601,1555,0,0
-616,-531,0,0,0,0,0,0,0,0,0,-1,608,1555,0,0
-609,-531,0,0,0,0,0,0,0,0,0,-1,615,1555,0,0
-602,-531,0,0,0,0,0,0,0,0,0,-1,622,1555,0,0
-595,-531,0,0,0,0,0,0,0,0,0,-1,629,1555,0,0
-588,-531,0,0,0,0,0,0,0,0,0,-1,636,1555,0,0
-581,-531,0,0,0,0,0,0,0,0,0,-1,643,1555,0,0
-574,-531,0,0,0,0,0,0,0,0,0,-1,650,1555,0,0
-567,-531,0,0,0,0,0,0,0,0,0,-1,657,1555,0,0
-560,-531,0,0,0,0,0,0,0,0,0,-1,664,1555,0,0
-553,-531,0,0,0,0,0,0,0,0,0,-1,671,1555,0,0
-546,-531,0,0,0,0,0,0,0,0,0,-1,678,1555,0,0
-539,-531,0,0,0,0,0,0,0,0,0,-1,685,1555,0,0
-532,-531,0,0,0,0,0,0,0,0,0,-1,692,1555,0,0
-525,-531,0,0,0,0,0,0,0,0,0,-1,699,1555,0,0
-518,-531,-1.63983,4.03821,0,0,0,0,0,0,0,-1,706,1555,-1.63982,-4.03821
-511,-531,-2.9682,8.07483,0,0,0,0,0,0,0,-1,713,1555,-2.9682,-8.07479
-504,-531,-2.95978,0.557861,0,0,0,0,0,0,0,-1,720,1555,-2.95978,-0.557917
-497,-531,-2.46039,8.07422,0,0,0,0,0,0,0,-1,727,1555,-2.46039,-8.07423
-490,-531,-0.423462,7.92065,0,0,0,0,0,0,0,-1,734,1555,-0.42344,-7.92066
-483,-531,-7.50745,20.1915,0,0,0,0,0,0,0,-1,741,1555,-7.50744,-20.1915
-476,-531,-7.69647,23.6229,0,0,0,0,0,0,0,-1,748,1555,-7.6965,-23.6229
-469,-531,-8.2475,27.6931,0,0,0,0,0,0,0,-1,755,1555,-8.2475,-27.6931
-462,-531,-7.27551,28.5044,0,0,0,0,0,0,0,-1,762,1555,-7.27551,-28.5044
-455,-531,-8.52545,30.9768,0,0,0,0,0,0,0,-1,769,1555,-8.52545,-30.9768
-448,-531,-8.3382,32.0204,-0.00328228,0.00113183,-0.00119696,0.00143552,-0.00358596,-1.32233,0.00298645,0.0361089,776,1555,-8.33819,-32.0203
-441,-531,-8.5152,32.8624,-0.00231715,0.000926419,-0.000889196,0.00115419,-0.00254492,-1.32003,0.00218542,0.0150536,783,1555,-8.51518,-32.8624
-434,-531,-8.55048,33.772,-0.00146388,0.000889517,-0.000541856,0.00100828,-0.00158264,-1.35503,0.00150807,0.0124656,790,1555,-8.55046,-33.772
-427,-531,-8.604,34.6477,-0.000786564,0.000885865,-0.000251564,0.000922885,-0.000823584,-1.42468,0.00100887,0.0156151,797,1555,-8.60403,-34.6476
-420,-531,-8.72009,35.4771,-0.000197495,0.000939083,-1.49433e-05,0.00093928,-0.000197691,-1.55765,0.000701432,0.0360685,804,1555,-8.72011,-35.4771
-413,-531,-8.73871,36.3656,0.000491298,0.00104843,0.000258332,0.00114978,0.000389951,1.19693,0.000675179,0.0334911,811,1555,-8.7387,-36.3656
-406,-531,-8.75983,37.2131,0.00107969,0.00127725,0.00048298,0.00167145,0.00068549,0.88627,0.000970194,0.0128709,818,1555,-8.75982,-37.2131
-399,-531,-8.8219,38.0358,0.00157119,0.00158463,0.000663481,0.00224142,0.000914393,0.790465,0.00130138,0.0135352,825,1555,-8.8219,-38.0357
-392,-531,-8.84918,38.8447,0.00205127,0.00203968,0.000856491,0.00290198,0.00118896,0.782017,0.00168454,0.0176953,832,1555,-8.84917,-38.8448
-385,-531,-8.92273,39.6833,0.0025444,0.00261155,0.00102303,0.00360156,0.00155439,0.801801,0.00208584,0.0157423,839,1555,-8.92272,-39.6834
-378,-531,-8.99133,40.4885,0.00304569,0.00325887,0.00107683,0.00423438,0.00207019,0.83473,0.00244492,0.0220932,846,1555,-8.99133,-40.4885
-371,-531,-8.98047,41.416,0,0,0,0,0,0,0,-1,853,1555,-8.98046,-41.416
-364,-531,-8.73071,42.5807,0,0,0,0,0,0,0,-1,860,1555,-8.73074,-42.5807
-357,-531,-4.29193,31.5354,0,0,0,0,0,0,0,-1,867,1555,-4.29191,-31.5354
-350,-531,-3.16101,27.5791,0,0,0,0,0,0,0,-1,874,1555,-3.16099,-27.5791
-343,-531,-2.90552,28.561,0,0,0,0,0,0,0,-1,881,1555,-2.90549,-28.5611
-336,-531,-2.6698,29.5398,0,0,0,0,0,0,0,-1,888,1555,-2.66983,-29.5398
-329,-531,-2.45148,30.4781,0,0,0,0,0,0,0,-1,895,1555,-2.45148,-30.4781
-322,-531,-3.25092,28.4921,0,0,0,0,0,0,0,-1,902,1555,-3.25092,-28.4921
-315,-531,-5.51929,31.7814,0,0,0,0,0,0,0,-1,909,1555,-5.51928,-31.7813
-308,-531,-1.66455,19.0624,0,0,0,0,0,0,0,-1,916,1555,-1.66455,-19.0623
-301,-531,-2.02405,18.8912,0,0,0,0,0,0,0,-1,923,1555,-2.02407,-18.8913
-294,-531,-1.3244,8.1825,0,0,0,0,0,0,0,-1,930,1555,-1.3244,-8.18251
-287,-531,-1.78192,10.1661,0,0,0,0,0,0,0,-1,937,1555,-1.78192,-10.1661
-280,-531,-2.14508,10.3945,0,0,0,0,0,0,0,-1,944,1555,-2.14506,-10.3945
-273,-531,-2.50818,10.6229,0,0,0,0,0,0,0,-1,951,1555,-2.5082,-10.6229
-266,-531,-4.97742,17.9215,0,0,0,0,0,0,0,-1,958,1555,-4.97744,-17.9215
-259,-531,0,0,0,0,0,0,0,0,0,-1,965,1555,0,0
-252,-531,0,0,0,0,0,0,0,0,0,-1,972,1555,0,0
-245,-531,0,0,0,0,0,0,0,0,0,-1,979,1555,0,0
-238,-531,0,0,0,0,0,0,0,0,0,-1,986,1555,0,0
-231,-531,0,0,0,0,0,0,0,0,0,-1,993,1555,0,0
-224,-531,0,0,0,0,0,0,0,0,0,-1,1000,1555,0,0
-217,-531,0,0,0,0,0,0,0,0,0,-1,1007,1555,0,0
-210,-531,0,0,0,0,0,0,0,0,0,-1,1014,1555,0,0
-203,-531,0,0,0,0,0,0,0,0,0,-1,1021,1555,0,0
-196,-531,0,0,0,0,0,0,0,0,0,-1,1028,1555,0,0
-189,-531,0,0,0,0,0,0,0,0,0,-1,1035,1555,0,0
-182,-531,0,0,0,0,0,0,0,0,0,-1,1042,1555,0,0
-175,-531,0,0,0,0,0,0,0,0,0,-1,1049,1555,0,0
-168,-531,0,0,0,0,0,0,0,0,0,-1,1056,1555,0,0
-161,-531,0,0,0,0,0,0,0,0,0,-1,1063,1555,0,0
-154,-531,0,0,0,0,0,0,0,0,0,-1,1070,1555,0,0
-147,-531,0,0,0,0,0,0,0,0,0,-1,1077,1555,0,0
-140,-531,0,0,0,0,0,0,0,0,0,-1,1084,1555,0,0
-133,-531,0,0,0,0,0,0,0,0,0,-1,1091,1555,0,0
-126,-531,0,0,0,0,0,0,0,0,0,-1,1098,1555,0,0
-119,-531,0,0,0,0,0,0,0,0,0,-1,1105,1555,0,0
-112,-531,0,0,0,0,0,0,0,0,0,-1,1112,1555,0,0
-105,-531,0,0,0,0,0,0,0,0,0,-1,1119,1555,0,0
-98,-531,0,0,0,0,0,0,0,0,0,-1,1126,1555,0,0
-91,-531,0,0,0,0,0,0,0,0,0,-1,1133,1555,0,0
-84,-531,0,0,0,0,0,0,0,0,0,-1,1140,1555,0,0
-77,-531,0,0,0,0,0,0,0,0,0,-1,1147,1555,0,0
-70,-531,0,0,0,0,0,0,0,0,0,-1,1154,1555,0,0
-63,-531,0,0,0,0,0,0,0,0,0,-1,1161,1555,0,0
-56,-531,0,0,0,0,0,0,0,0,0,-1,1168,1555,0,0
-49,-531,0,0,0,0,0,0,0,0,0,-1,1175,1555,0,0
-42,-531,0,0,0,0,0,0,0,0,0,-1,1182,1555,0,0
-35,-531,0,0,0,0,0,0,0,0,0,-1,1189,1555,0,0
-28,-531,0,0,0,0,0,0,0,0,0,-1,1196,1555,0,0
-21,-531,0,0,0,0,0,0,0,0,0,-1,1203,1555,0,0
-14,-531,0,0,0,0,0,0,0,0,0,-1,1210,1555,0,0
-7,-531,0,0,0,0,0,0,0,0,0,-1,1217,1555,0,0
0,-531,0,0,0,0,0,0,0,0,0,-1,1224,1555,0,0
7,-531,0,0,0,0,0,0,0,0,0,-1,1231,1555,0,0
14,-531,0,0,0,0,0,0,0,0,0,-1,1238,1555,0,0
21,-531,0,0,0,0,0,0,0,0,0,-1,1245,1555,0,0
28,-531,0,0,0,0,0,0,0,0,0,-1,1252,1555,0,0
35,-531,0,0,0,0,0,0,0,0,0,-1,1259,1555,0,0
42,-531,0,0,0,0,0,0,0,0,0,-1,1266,1555,0,0
49,-531,0,0,0,0,0,0,0,0,0,-1,1273,1555,0,0
56,-531,0,0,0,0,0,0,0,0,0,-1,1280,1555,0,0
63,-531,0,0,0,0,0,0,0,0,0,-1,1287,1555,0,0
70,-531,0,0,0,0,0,0,0,0,0,-1,1294,1555,0,0
77,-531,0,0,0,0,0,0,0,0,0,-1,1301,1555,0,0
84,-531,0,0,0,0,0,0,0,0,0,-1,1308,1555,0,0
91,-531,0,0,0,0,0,0,0,0,0,-1,1315,1555,0,0
98,-531,0,0,0,0,0,0,0,0,0,-1,1322,1555,0,0
105,-531,0,0,0,0,0,0,0,0,0,-1,1329,1555,0,0
112,-531,0,0,0,0,0,0,0,0,0,-1,1336,1555,0,0
119,-531,0,0,0,0,0,0,0,0,0,-1,1343,1555,0,0
126,-531,0,0,0,0,0,0,0,0,0,-1,1350,1555,0,0
133,-531,0,0,0,0,0,0,0,0,0,-1,1357,1555,0,0
140,-531,0,0,0,0,0,0,0,0,0,-1,1364,1555,0,0
147,-531,0,0,0,0,0,0,0,0,0,-1,1371,1555,0,0
154,-531,0,0,0,0,0,0,0,0,0,-1,1378,1555,0,0
161,-531,0,0,0,0,0,0,0,0,0,-1,1385,1555,0,0
168,-531,0,0,0,0,0,0,0,0,0,-1,1392,1555,0,0
175,-531,0,0,0,0,0,0,0,0,0,-1,1399,1555,0,0
182,-531,0,0,0,0,0,0,0,0,0,-1,1406,1555,0,0
189,-531,0,0,0,0,0,0,0,0,0,-1,1413,1555,0,0
196,-531,0,0,0,0,0,0,0,0,0,-1,1420,1555,0,0
203,-531,0,0,0,0,0,0,0,0,0,-1,1427,1555,0,0
210,-531,0,0,0,0,0,0,0,0,0,-1,1434,1555,0,0
217,-531,0,0,0,0,0,0,0,0,0,-1,1441,1555,0,0
224,-531,0,0,0,0,0,0,0,0,0,-1,1448,1555,0,0
231,-531,0,0,0,0,0,0,0,0,0,-1,1455,1555,0,0
238,-531,0,0,0,0,0,0,0,0,0,-1,1462,1555,0,0
245,-531,0,0,0,0,0,0,0,0,0,-1,1469,1555,0,0
252,-531,0,0,0,0,0,0,0,0,0,-1,1476,1555,0,0
259,-531,0,0,0,0,0,0,0,0,0,-1,1483,1555,0,0
266,-531,0,0,0,0,0,0,0,0,0,-1,1490,1555,0,0
273,-531,0,0,0,0,0,0,0,0,0,-1,1497,1555,0,0
280,-531,0,0,0,0,0,0,0,0,0,-1,1504,1555,0,0
287,-531,0,0,0,0,0,0,0,0,0,-1,1511,1555,0,0
294,-531,0,0,0,0,0,0,0,0,0,-1,1518,1555,0,0
301,-531,0,0,0,0,0,0,0,0,0,-1,1525,1555,0,0
308,-531,0,0,0,0,0,0,0,0,0,-1,1532,1555,0,0
315,-531,0,0,0,0,0,0,0,0,0,-1,1539,1555,0,0
322,-531,0,0,0,0,0,0,0,0,0,-1,1546,1555,0,0
329,-531,0,0,0,0,0,0,0,0,0,-1,1553,1555,0,0
336,-531,0,0,0,0,0,0,0,0,0,-1,1560,1555,0,0
343,-531,0,0,0,0,0,0,0,0,0,-1,1567,1555,0,0
350,-531,0,0,0,0,0,0,0,0,0,-1,1574,1555,0,0
357,-531,0,0,0,0,0,0,0,0,0,-1,1581,1555,0,0
364,-531,0,0,0,0,0,0,0,0,0,-1,1588,1555,0,0
371,-531,0,0,0,0,0,0,0,0,0,-1,1595,1555,0,0
378,-531,0,0,0,0,0,0,0,0,0,-1,1602,1555,0,0
385,-531,3.48169,1.78625,0,0,0,0,0,0,0,-1,1609,1555,3.48165,-1.78624
392,-531,10.8781,9.09204,0,0,0,0,0,0,0,-1,1616,1555,10.8781,-9.09205
399,-531,8.26306,5.29602,0,0,0,0,0,0,0,-1,1623,1555,8.26302,-5.29607
406,-531,8.26147,5.42712,0,0,0,0,0,0,0,-1,1630,1555,8.26145,-5.42716
413,-531,8.20618,5.75012,0,0,0,0,0,0,0,-1,1637,1555,8.20619,-5.75017
420,-531,7.64868,7.09558,0,0,0,0,0,0,0,-1,1644,1555,7.64867,-7.09564
427,-531,9.93054,11.8412,0,0,0,0,0,0,0,-1,1651,1555,9.93059,-11.8412
434,-531,10.244,11.7072,0,0,0,0,0,0,0,-1,1658,1555,10.244,-11.7071
441,-531,11.4528,12.9397,0,0,0,0,0,0,0,-1,1665,1555,11.4528,-12.9397
448,-531,11.928,18.8029,0,0,0,0,0,0,0,-1,1672,1555,11.928,-18.8028
455,-531,14.4877,9.67065,0,0,0,0,0,0,0,-1,1679,1555,14.4876,-9.67066
462,-531,13.5253,12.2002,0,0,0,0,0,0,0,-1,1686,1555,13.5252,-12.2002
469,-531,15.5087,15.7894,0,0,0,0,0,0,0,-1,1693,1555,15.5086,-15.7895
476,-531,14.6582,16.2264,0,0,0,0,0,0,0,-1,1700,1555,14.6582,-16.2264
483,-531,14.755,18.5994,0,0,0,0,0,0,0,-1,1707,1555,14.7551,-18.5994
490,-531,16.9362,25.4943,0,0,0,0,0,0,0,-1,1714,1555,16.9362,-25.4942
497,-531,26.4136,41.6633,0,0,0,0,0,0,0,-1,1721,1555,26.4135,-41.6633
504,-531,26.5208,40.6199,0.00843402,0.00815532,-0.00579148,0.0140878,0.00250151,-0.77337,0.00867905,0.0346572,1728,1555,26.5208,-40.6198
511,-531,26.6094,39.7296,0.0070906,0.00677469,-0.0048467,0.0117819,0.00208337,-0.769109,0.00726048,0.0161435,1735,1555,26.6094,-39.7296
518,-531,26.5922,38.9063,0.00592985,0.0057577,-0.00409121,0.00993589,0.00175165,-0.774881,0.00612413,0.015389,1742,1555,26.5921,-38.9062
525,-531,26.5509,38.0664,0.00479377,0.00470492,-0.00336108,0.00811072,0.00138797,-0.77879,0.00500901,0.0146906,1749,1555,26.5509,-38.0664
532,-531,26.5408,37.2192,0.00379761,0.00375118,-0.00272371,0.0064982,0.00105058,-0.781137,0.00402787,0.0114634,1756,1555,26.5408,-37.2192
539,-531,26.498,36.3873,0.00297934,0.00286187,-0.00218459,0.00510598,0.000735228,-0.771959,0.0031873,0.0133123,1763,1555,26.4981,-36.3874
546,-531,26.4065,35.5726,0.00225744,0.00201311,-0.00172813,0.00386772,0.000402835,-0.75011,0.00245524,0.0168019,1770,1555,26.4065,-35.5726
553,-531,26.3987,34.7668,0.0017216,0.00127629,-0.00137558,0.00289243,0.000105458,-0.705164,0.00189411,0.0346122,1777,1555,26.3986,-34.7668
560,-531,26.3632,33.9646,0.00139172,0.000667025,-0.00118204,0.00226571,-0.000206962,-0.636674,0.00158397,0.038475,1784,1555,26.3632,-33.9646
567,-531,26.2372,33.0736,0.00125087,0.000230906,-0.00116489,0.00201252,-0.000530741,-0.579069,0.0015492,0.0210936,1791,1555,26.2372,-33.0736
574,-531,26.1919,32.2355,0.00132562,-9.66725e-05,-0.00132304,0.00211653,-0.000887579,-0.538797,0.00178214,0.0158522,1798,1555,26.1919,-32.2355
581,-531,26.2069,31.3422,0.00198857,-8.94618e-05,-0.00195274,0.00316151,-0.0012624,-0.540908,0.00263143,0.02925,1805,1555,26.207,-31.3421
588,-531,26.3711,30.29,0,0,0,0,0,0,0,-1,1812,1555,26.3711,-30.29
595,-531,25.4437,28.0334,0,0,0,0,0,0,0,-1,1819,1555,25.4438,-28.0335
602,-531,13.701,11.8346,0,0,0,0,0,0,0,-1,1826,1555,13.701,-11.8347
609,-531,10.9072,8.50903,0,0,0,0,0,0,0,-1,1833,1555,10.9073,-8.50902
616,-531,10.5723,7.17859,0,0,0,0,0,0,0,-1,1840,1555,10.5723,-7.17855
623,-531,10.0674,5.08984,0,0,0,0,0,0,0,-1,1847,1555,10.0674,-5.08981
630,-531,11.672,3.18909,0,0,0,0,0,0,0,-1,1854,1555,11.672,-3.18904
637,-531,13.2546,1.38965,0,0,0,0,0,0,0,-1,1861,1555,13.2547,-1.3896
644,-531,0,0,0,0,0,0,0,0,0,-1,1868,1555,0,0
651,-531,0,0,0,0,0,0,0,0,0,-1,1875,1555,0,0
658,-531,0,0,0,0,0,0,0,0,0,-1,1882,1555,0,0
665,-531,0,0,0,0,0,0,0,0,0,-1,1889,1555,0,0
672,-531,0,0,0,0,0,0,0,0,0,-1,1896,1555,0,0
679,-531,0,0,0,0,0,0,0,0,0,-1,1903,1555,0,0
686,-531,0,0,0,0,0,0,0,0,0,-1,1910,1555,0,0
693,-531,0,0,0,0,0,0,0,0,0,-1,1917,1555,0,0
700,-531,0,0,0,0,0,0,0,0,0,-1,1924,1555,0,0
707,-531,0,0,0,0,0,0,0,0,0,-1,1931,1555,0,0
714,-531,0,0,0,0,0,0,0,0,0,-1,1938,1555,0,0
721,-531,0,0,0,0,0,0,0,0,0,-1,1945,1555,0,0
728,-531,0,0,0,0,0,0,0,0,0,-1,1952,1555,0,0
735,-531,0,0,0,0,0,0,0,0,0,-1,1959,1555,0,0
742,-531,0,0,0,0,0,0,0,0,0,-1,1966,1555,0,0
749,-531,0,0,0,0,0,0,0,0,0,-1,1973,1555,0,0
756,-531,0,0,0,0,0,0,0,0,0,-1,1980,1555,0,0
763,-531,0,0,0,0,0,0,0,0,0,-1,1987,1555,0,0
770,-531,0,0,0,0,0,0,0,0,0,-1,1994,1555,0,0
777,-531,0,0,0,0,0,0,0,0,0,-1,2001,1555,0,0
784,-531,0,0,0,0,0,0,0,0,0,-1,2008,1555,0,0
791,-531,0,0,0,0,0,0,0,0,0,-1,2015,1555,0,0
798,-531,0,0,0,0,0,0,0,0,0,-1,2022,1555,0,0
805,-531,0,0,0,0,0,0,0,0,0,-1,2029,1555,0,0
812,-531,0,0,0,0,0,0,0,0,0,-1,2036,1555,0,0
-700,-538,0,0,0,0,0,0,0,0,0,-1,524,1562,0,0
-693,-538,0,0,0,0,0,0,0,0,0,-1,531,1562,0,0
-686,-538,0,0,0,0,0,0,0,0,0,-1,538,1562,0,0
-679,-538,0,0,0,0,0,0,0,0,0,-1,545,1562,0,0
-672,-538,0,0,0,0,0,0,0,0,0,-1,552,1562,0,0
-665,-538,0,0,0,0,0,0,0,0,0,-1,559,1562,0,0
-658,-538,0,0,0,0,0,0,0,0,0,-1,566,1562,0,0
-651,-538,0,0,0,0,0,0,0,0,0,-1,573,1562,0,0
-644,-538,0,0,0,0,0,0,0,0,0,-1,580,1562,0,0
-637,-538,0,0,0,0,0,0,0,0,0,-1,587,1562,0,0
-630,-538,0,0,0,0,0,0,0,0,0,-1,594,1562,0,0
-623,-538,0,0,0,0,0,0,0,0,0,-1,601,1562,0,0
-616,-538,0,0,0,0,0,0,0,0,0,-1,608,1562,0,0
-609,-538,0,0,0,0,0,0,0,0,0,-1,615,1562,0,0
-602,-538,0,0,0,0,0,0,0,0,0,-1,622,1562,0,0
-595,-538,0,0,0,0,0,0,0,0,0,-1,629,1562,0,0
-588,-538,0,0,0,0,0,0,0,0,0,-1,636,1562,0,0
-581,-538,0,0,0,0,0,0,0,0,0,-1,643,1562,0,0
-574,-538,0,0,0,0,0,0,0,0,0,-1,650,1562,0,0
-567,-538,0,0,0,0,0,0,0,0,0,-1,657,1562,0,0
-560,-538,0,0,0,0,0,0,0,0,0,-1,664,1562,0,0
-553,-538,0,0,0,0,0,0,0,0,0,-1,671,1562,0,0
-546,-538,0,0,0,0,0,0,0,0,0,-1,678,1562,0,0
-539,-538,0,0,0,0,0,0,0,0,0,-1,685,1562,0,0
-532,-538,0,0,0,0,0,0,0,0,0,-1,692,1562,0,0
-525,-538,0,0,0,0,0,0,0,0,0,-1,699,1562,0,0
-518,-538,0,0,0,0,0,0,0,0,0,-1,706,1562,0,0
-511,-538,-2.6582,-1.54321,0,0,0,0,0,0,0,-1,713,1562,-2.65821,1.54327
-504,-538,-2.66455,-0.71167,0,0,0,0,0,0,0,-1,720,1562,-2.66456,0.711667
-497,-538,-0.763855,6.77747,0,0,0,0,0,0,0,-1,727,1562,-0.76385,-6.77743
-490,-538,-2.70453,8.01465,0,0,0,0,0,0,0,-1,734,1562,-2.70451,-8.0147
-483,-538,-0.933533,7.84644,0,0,0,0,0,0,0,-1,741,1562,-0.933548,-7.84638
-476,-538,-3.29962,15.8307,0,0,0,0,0,0,0,-1,748,1562,-3.29962,-15.8306
-469,-538,-6.44983,24.5707,0,0,0,0,0,0,0,-1,755,1562,-6.4498,-24.5707
-462,-538,-5.75458,25.4069,0,0,0,0,0,0,0,-1,762,1562,-5.7546,-25.4068
-455,-538,-6.5755,28.8893,0,0,0,0,0,0,0,-1,769,1562,-6.57549,-28.8893
-448,-538,-7.62,32.0753,0,0,0,0,0,0,0,-1,776,1562,-7.61999,-32.0753
-441,-538,-7.6933,32.8755,0,0,0,0,0,0,0,-1,783,1562,-7.69332,-32.8755
-434,-538,-7.73718,33.8185,-0.00221952,0.000928963,-0.00100769,0.00122386,-0.00251441,-1.2861,0.00220074,0.0153677,790,1562,-7.73721,-33.8185
-427,-538,-7.79645,34.7056,-0.00133482,0.000978813,-0.000510295,0.00108636,-0.00144237,-1.36307,0.00146478,0.0136932,797,1562,-7.79644,-34.7056
-420,-538,-7.84265,35.5444,-0.000635096,0.00102603,-0.000145548,0.00103868,-0.000647752,-1.48406,0.000982346,0.018574,804,1562,-7.84263,-35.5444
-413,-538,-7.89221,36.3954,0.000101113,0.00105777,0.000173062,0.00108811,7.07679e-05,1.39722,0.000703006,0.0196579,811,1562,-7.89219,-36.3954
-406,-538,-7.92944,37.2596,0.000698727,0.00118031,0.000396688,0.00140357,0.000475469,1.05817,0.000824276,0.0157891,818,1562,-7.92944,-37.2597
-399,-538,-7.97003,38.1016,0.00115975,0.00140798,0.000552824,0.00185045,0.000717281,0.895822,0.00107732,0.0132379,825,1562,-7.97003,-38.1016
-392,-538,-7.98553,38.9219,0.0016157,0.00174792,0.000714663,0.00239953,0.000964096,0.83152,0.00139425,0.0152039,832,1562,-7.98554,-38.9219
-385,-538,-8.06317,39.7657,0.00203399,0.00219328,0.000792434,0.00291006,0.00131721,0.835484,0.00168264,0.0138924,839,1562,-8.06319,-39.7658
-378,-538,-8.11975,40.5841,0.00246375,0.00277041,0.000828551,0.0034597,0.00177446,0.876892,0.00199768,0.01107,846,1562,-8.11975,-40.5841
-371,-538,-8.18481,41.3737,0.00302858,0.0037551,0.0010568,0.00450933,0.00227435,0.95094,0.00260349,0.0170967,853,1562,-8.1848,-41.3737
-364,-538,-8.10834,42.3341,0.00395983,0.00526196,0.00169304,0.00642481,0.00279698,0.968959,0.00371969,0.0294756,860,1562,-8.10837,-42.3341
-357,-538,-7.90723,43.4117,0,0,0,0,0,0,0,-1,867,1562,-7.9072,-43.4118
-350,-538,-6.37695,40.0256,0,0,0,0,0,0,0,-1,874,1562,-6.37696,-40.0257
-343,-538,-2.47339,28.3082,0,0,0,0,0,0,0,-1,881,1562,-2.47341,-28.3083
-336,-538,-2.40161,28.5409,0,0,0,0,0,0,0,-1,888,1562,-2.40163,-28.541
-329,-538,-2.57159,28.4905,0,0,0,0,0,0,0,-1,895,1562,-2.57161,-28.4905
-322,-538,-2.83783,28.2308,0,0,0,0,0,0,0,-1,902,1562,-2.83783,-28.2308
-315,-538,-2.91827,27.7609,0,0,0,0,0,0,0,-1,909,1562,-2.91829,-27.7608
-308,-538,-4.37433,31.7996,0,0,0,0,0,0,0,-1,916,1562,-4.3743,-31.7995
-301,-538,-0.452393,18.5101,0,0,0,0,0,0,0,-1,923,1562,-0.452367,-18.5102
-294,-538,1.23138,14.0757,0,0,0,0,0,0,0,-1,930,1562,1.23137,-14.0757
-287,-538,-2.60419,10.2361,0,0,0,0,0,0,0,-1,937,1562,-2.6042,-10.2361
-280,-538,-2.93475,10.5106,0,0,0,0,0,0,0,-1,944,1562,-2.93475,-10.5106
-273,-538,-3.26532,10.785,0,0,0,0,0,0,0,-1,951,1562,-3.26531,-10.785
-266,-538,-5.03412,15.9951,0,0,0,0,0,0,0,-1,958,1562,-5.03409,-15.9951
-259,-538,-5.89642,16.5184,0,0,0,0,0,0,0,-1,965,1562,-5.89644,-16.5184
-252,-538,0,0,0,0,0,0,0,0,0,-1,972,1562,0,0
-245,-538,0,0,0,0,0,0,0,0,0,-1,979,1562,0,0
-238,-538,0,0,0,0,0,0,0,0,0,-1,986,1562,0,0
-231,-538,0,0,0,0,0,0,0,0,0,-1,993,1562,0,0
-224,-538,0,0,0,0,0,0,0,0,0,-1,1000,1562,0,0
-217,-538,0,0,0,0,0,0,0,0,0,-1,1007,1562,0,0
-210,-538,0,0,0,0,0,0,0,0,0,-1,1014,1562,0,0
-203,-538,0,0,0,0,0,0,0,0,0,-1,1021,1562,0,0
-196,-538,0,0,0,0,0,0,0,0,0,-1,1028,1562,0,0
-189,-538,0,0,0,0,0,0,0,0,0,-1,1035,1562,0,0
-182,-538,0,0,0,0,0,0,0,0,0,-1,1042,1562,0,0
-175,-538,0,0,0,0,0,0,0,0,0,-1,1049,1562,0,0
-168,-538,0,0,0,0,0,0,0,0,0,-1,1056,1562,0,0
-161,-538,0,0,0,0,0,0,0,0,0,-1,1063,1562,0,0
-154,-538,0,0,0,0,0,0,0,0,0,-1,1070,1562,0,0
-147,-538,0,0,0,0,0,0,0,0,0,-1,1077,1562,0,0
-140,-538,0,0,0,0,0,0,0,0,0,-1,1084,1562,0,0
-133,-538,0,0,0,0,0,0,0,0,0,-1,1091,1562,0,0
-126,-538,0,0,0,0,0,0,0,0,0,-1,1098,1562,0,0
-119,-538,0,0,0,0,0,0,0,0,0,-1,1105,1562,0,0
-112,-538,0,0,0,0,0,0,0,0,0,-1,1112,1562,0,0
-105,-538,0,0,0,0,0,0,0,0,0,-1,1119,1562,0,0
-98,-538,0,0,0,0,0,0,0,0,0,-1,1126,1562,0,0
-91,-538,0,0,0,0,0,0,0,0,0,-1,1133,1562,0,0
-84,-538,0,0,0,0,0,0,0,0,0,-1,1140,1562,0,0
-77,-538,0,0,0,0,0,0,0,0,0,-1,1147,1562,0,0
-70,-538,0,0,0,0,0,0,0,0,0,-1,1154,1562,0,0
-63,-538,0,0,0,0,0,0,0,0,0,-1,1161,1562,0,0
-56,-538,0,0,0,0,0,0,0,0,0,-1,1168,1562,0,0
-49,-538,0,0,0,0,0,0,0,0,0,-1,1175,1562,0,0
-42,-538,0,0,0,0,0,0,0,0,0,-1,1182,1562,0,0
-35,-538,0,0,0,0,0,0,0,0,0,-1,1189,1562,0,0
-28,-538,0,0,0,0,0,0,0,0,0,-1,1196,1562,0,0
-21,-538,0,0,0,0,0,0,0,0,0,-1,1203,1562,0,0
-14,-538,0,0,0,0,0,0,0,0,0,-1,1210,1562,0,0
-7,-538,0,0,0,0,0,0,0,0,0,-1,1217,1562,0,0
0,-538,0,0,0,0,0,0,0,0,0,-1,1224,1562,0,0
7,-538,0,0,0,0,0,0,0,0,0,-1,1231,1562,0,0
14,-538,0,0,0,0,0,0,0,0,0,-1,1238,1562,0,0
21,-538,0,0,0,0,0,0,0,0,0,-1,1245,1562,0,0
28,-538,0,0,0,0,0,0,0,0,0,-1,1252,1562,0,0
35,-538,0,0,0,0,0,0,0,0,0,-1,1259,1562,0,0
42,-538,0,0,0,0,0,0,0,0,0,-1,1266,1562,0,0
49,-538,0,0,0,0,0,0,0,0,0,-1,1273,1562,0,0
56,-538,0,0,0,0,0,0,0,0,0,-1,1280,1562,0,0
63,-538,0,0,0,0,0,0,0,0,0,-1,1287,1562,0,0
70,-538,0,0,0,0,0,0,0,0,0,-1,1294,1562,0,0
77,-538,0,0,0,0,0,0,0,0,0,-1,1301,1562,0,0
84,-538,0,0,0,0,0,0,0,0,0,-1,1308,1562,0,0
91,-538,0,0,0,0,0,0,0,0,0,-1,1315,1562,0,0
98,-538,0,0,0,0,0,0,0,0,0,-1,1322,1562,0,0
105,-538,0,0,0,0,0,0,0,0,0,-1,1329,1562,0,0
112,-538,0,0,0,0,0,0,0,0,0,-1,1336,1562,0,0
119,-538,0,0,0,0,0,0,0,0,0,-1,1343,1562,0,0
126,-538,0,0,0,0,0,0,0,0,0,-1,1350,1562,0,0
133,-538,0,0,0,0,0,0,0,0,0,-1,1357,1562,0,0
140,-538,0,0,0,0,0,0,0,0,0,-1,1364,1562,0,0
147,-538,0,0,0,0,0,0,0,0,0,-1,1371,1562,0,0
154,-538,0,0,0,0,0,0,0,0,0,-1,1378,1562,0,0
161,-538,0,0,0,0,0,0,0,0,0,-1,1385,1562,0,0
168,-538,0,0,0,0,0,0,0,0,0,-1,1392,1562,0,0
175,-538,0,0,0,0,0,0,0,0,0,-1,1399,1562,0,0
182,-538,0,0,0,0,0,0,0,0,0,-1,1406,1562,0,0
189,-538,0,0,0,0,0,0,0,0,0,-1,1413,1562,0,0
196,-538,0,0,0,0,0,0,0,0,0,-1,1420,1562,0,0
203,-538,0,0,0,0,0,0,0,0,0,-1,1427,1562,0,0
210,-538,0,0,0,0,0,0,0,0,0,-1,1434,1562,0,0
217,-538,0,0,0,0,0,0,0,0,0,-1,1441,1562,0,0
224,-538,0,0,0,0,0,0,0,0,0,-1,1448,1562,0,0
231,-538,0,0,0,0,0,0,0,0,0,-1,1455,1562,0,0
238,-538,0,0,0,0,0,0,0,0,0,-1,1462,1562,0,0
245,-538,0,0,0,0,0,0,0,0,0,-1,1469,1562,0,0
252,-538,0,0,0,0,0,0,0,0,0,-1,1476,1562,0,0
259,-538,0,0,0,0,0,0,0,0,0,-1,1483,1562,0,0
266,-538,0,0,0,0,0,0,0,0,0,-1,1490,1562,0,0
273,-538,0,0,0,0,0,0,0,0,0,-1,1497,1562,0,0
280,-538,0,0,0,0,0,0,0,0,0,-1,1504,1562,0,0
287,-538,0,0,0,0,0,0,0,0,0,-1,1511,1562,0,0
294,-538,0,0,0,0,0,0,0,0,0,-1,1518,1562,0,0
301,-538,0,0,0,0,0,0,0,0,0,-1,1525,1562,0,0
308,-538,0,0,0,0,0,0,0,0,0,-1,1532,1562,0,0
315,-538,0,0,0,0,0,0,0,0,0,-1,1539,1562,0,0
322,-538,0,0,0,0,0,0,0,0,0,-1,1546,1562,0,0
329,-538,0,0,0,0,0,0,0,0,0,-1,1553,1562,0,0
336,-538,0,0,0,0,0,0,0,0,0,-1,1560,1562,0,0
343,-538,0,0,0,0,0,0,0,0,0,-1,1567,1562,0,0
350,-538,0,0,0,0,0,0,0,0,0,-1,1574,1562,0,0
357,-538,0,0,0,0,0,0,0,0,0,-1,1581,1562,0,0
364,-538,0,0,0,0,0,0,0,0,0,-1,1588,1562,0,0
371,-538,0,0,0,0,0,0,0,0,0,-1,1595,1562,0,0
378,-538,9.65479,5.82434,0,0,0,0,0,0,0,-1,1602,1562,9.6548,-5.82439
385,-538,10.5449,7.9502,0,0,0,0,0,0,0,-1,1609,1562,10.5449,-7.95014
392,-538,8.20361,7.07214,0,0,0,0,0,0,0,-1,1616,1562,8.20362,-7.07211
399,-538,7.85425,4.70508,0,0,0,0,0,0,0,-1,1623,1562,7.85425,-4.70512
406,-538,7.77734,4.96094,0,0,0,0,0,0,0,-1,1630,1562,7.77729,-4.96097
413,-538,13.0446,13.1765,0,0,0,0,0,0,0,-1,1637,1562,13.0446,-13.1765
420,-538,9.96216,12.7653,0,0,0,0,0,0,0,-1,1644,1562,9.96221,-12.7653
427,-538,10.1732,14.5863,0,0,0,0,0,0,0,-1,1651,1562,10.1732,-14.5863
434,-538,9.64331,14.7745,0,0,0,0,0,0,0,-1,1658,1562,9.64326,-14.7746
441,-538,11.5039,20.5195,0,0,0,0,0,0,0,-1,1665,1562,11.5039,-20.5195
448,-538,12.8766,22.4932,0,0,0,0,0,0,0,-1,1672,1562,12.8766,-22.4932
455,-538,12.5693,17.4128,0,0,0,0,0,0,0,-1,1679,1562,12.5694,-17.4128
462,-538,12.1389,17.017,0,0,0,0,0,0,0,-1,1686,1562,12.1389,-17.017
469,-538,14.3802,16.6945,0,0,0,0,0,0,0,-1,1693,1562,14.3803,-16.6945
476,-538,13.724,19.0608,0,0,0,0,0,0,0,-1,1700,1562,13.724,-19.0608
483,-538,17.088,25.2936,0,0,0,0,0,0,0,-1,1707,1562,17.088,-25.2936
490,-538,25.6677,42.4189,0,0,0,0,0,0,0,-1,1714,1562,25.6677,-42.4189
497,-538,25.864,41.3877,0,0,0,0,0,0,0,-1,1721,1562,25.864,-41.3877
504,-538,25.8464,40.5305,0.0065142,0.00653513,-0.00443242,0.0109571,0.00209224,-0.786579,0.00671683,0.0160945,1728,1562,25.8464,-40.5305
511,-538,25.7836,39.7234,0.00536726,0.00532817,-0.00363822,0.00898599,0.00170944,-0.782712,0.00550995,0.010746,1735,1562,25.7836,-39.7234
518,-538,25.7607,38.9202,0.00438523,0.00441883,-0.00304283,0.00744491,0.00135915,-0.788159,0.00457798,0.0115761,1742,1562,25.7607,-38.9202
525,-538,25.7195,38.0938,0.00343913,0.00348071,-0.00245999,0.00591999,0.000999843,-0.789623,0.0036592,0.0126399,1749,1562,25.7195,-38.0937
532,-538,25.7032,37.272,0.00263712,0.00264319,-0.00197417,0.00461433,0.000665979,-0.786167,0.00288001,0.0147602,1756,1562,25.7032,-37.2719
539,-538,25.6484,36.4592,0.00199807,0.00185007,-0.00157558,0.00350138,0.000346755,-0.761931,0.00222768,0.0177517,1763,1562,25.6485,-36.4593
546,-538,25.5591,35.6125,0.00144821,0.00109314,-0.00124777,0.00253101,1.03385e-05,-0.714733,0.00168391,0.018108,1770,1562,25.559,-35.6125
553,-538,25.5247,34.7487,0.00107202,0.000434218,-0.00101679,0.00181874,-0.000312509,-0.63344,0.00132897,0.0303882,1777,1562,25.5247,-34.7486
560,-538,25.4449,33.9662,0.000903376,-9.01719e-05,-0.000950835,0.00147939,-0.000666185,-0.544671,0.00126806,0.035232,1784,1562,25.445,-33.9662
567,-538,25.3755,33.186,0.000930226,-0.000463247,-0.0010171,0.00146635,-0.00099937,-0.485097,0.00143207,0.0270798,1791,1562,25.3755,-33.1861
574,-538,25.2942,32.3104,0.00119454,-0.000753981,-0.00127574,0.00182549,-0.00138493,-0.459297,0.00185934,0.0332365,1798,1562,25.2942,-32.3104
581,-538,25.4794,31.3153,0,0,0,0,0,0,0,-1,1805,1562,25.4794,-31.3153
588,-538,25.4509,30.1713,0,0,0,0,0,0,0,-1,1812,1562,25.4509,-30.1712
595,-538,15.9808,16.0894,0,0,0,0,0,0,0,-1,1819,1562,15.9808,-16.0893
602,-538,10.314,8.94238,0,0,0,0,0,0,0,-1,1826,1562,10.314,-8.94238
609,-538,10.1046,7.05713,0,0,0,0,0,0,0,-1,1833,1562,10.1046,-7.05719
616,-538,9.92249,5.43506,0,0,0,0,0,0,0,-1,1840,1562,9.92254,-5.43507
623,-538,11.1711,4.31604,0,0,0,0,0,0,0,-1,1847,1562,11.1711,-4.316
630,-538,12.6112,2.61633,0,0,0,0,0,0,0,-1,1854,1562,12.6112,-2.61637
637,-538,0,0,0,0,0,0,0,0,0,-1,1861,1562,0,0
644,-538,0,0,0,0,0,0,0,0,0,-1,1868,1562,0,0
651,-538,0,0,0,0,0,0,0,0,0,-1,1875,1562,0,0
658,-538,0,0,0,0,0,0,0,0,0,-1,1882,1562,0,0
665,-538,0,0,0,0,0,0,0,0,0,-1,1889,1562,0,0
672,-538,0,0,0,0,0,0,0,0,0,-1,1896,1562,0,0
679,-538,0,0,0,0,0,0,0,0,0,-1,1903,1562,0,0
686,-538,0,0,0,0,0,0,0,0,0,-1,1910,1562,0,0
693,-538,0,0,0,0,0,0,0,0,0,-1,1917,1562,0,0
700,-538,0,0,0,0,0,0,0,0,0,-1,1924,1562,0,0
707,-538,0,0,0,0,0,0,0,0,0,-1,1931,1562,0,0
714,-538,0,0,0,0,0,0,0,0,0,-1,1938,1562,0,0
721,-538,0,0,0,0,0,0,0,0,0,-1,1945,1562,0,0
728,-538,0,0,0,0,0,0,0,0,0,-1,1952,1562,0,0
735,-538,0,0,0,0,0,0,0,0,0,-1,1959,1562,0,0
742,-538,0,0,0,0,0,0,0,0,0,-1,1966,1562,0,0
749,-538,0,0,0,0,0,0,0,0,0,-1,1973,1562,0,0
756,-538,0,0,0,0,0,0,0,0,0,-1,1980,1562,0,0
763,-538,0,0,0,0,0,0,0,0,0,-1,1987,1562,0,0
770,-538,0,0,0,0,0,0,0,0,0,-1,1994,1562,0,0
777,-538,0,0,0,0,0,0,0,0,0,-1,2001,1562,0,0
784,-538,0,0,0,0,0,0,0,0,0,-1,2008,1562,0,0
791,-538,0,0,0,0,0,0,0,0,0,-1,2015,1562,0,0
798,-538,0,0,0,0,0,0,0,0,0,-1,2022,1562,0,0
805,-538,0,0,0,0,0,0,0,0,0,-1,2029,1562,0,0
812,-538,0,0,0,0,0,0,0,0,0,-1,2036,1562,0,0
-700,-545,0,0,0,0,0,0,0,0,0,-1,524,1569,0,0
-693,-545,0,0,0,0,0,0,0,0,0,-1,531,1569,0,0
-686,-545,0,0,0,0,0,0,0,0,0,-1,538,1569,0,0
-679,-545,0,0,0,0,0,0,0,0,0,-1,545,1569,0,0
-672,-545,0,0,0,0,0,0,0,0,0,-1,552,1569,0,0
-665,-545,0,0,0,0,0,0,0,0,0,-1,559,1569,0,0
-658,-545,0,0,0,0,0,0,0,0,0,-1,566,1569,0,0
-651,-545,0,0,0,0,0,0,0,0,0,-1,573,1569,0,0
-644,-545,0,0,0,0,0,0,0,0,0,-1,580,1569,0,0
-637,-545,0,0,0,0,0,0,0,0,0,-1,587,1569,0,0
-630,-545,0,0,0,0,0,0,0,0,0,-1,594,1569,0,0
-623,-545,0,0,0,0,0,0,0,0,0,-1,601,1569,0,0
-616,-545,0,0,0,0,0,0,0,0,0,-1,608,1569,0,0
-609,-545,0,0,0,0,0,0,0,0,0,-1,615,1569,0,0
-602,-545,0,0,0,0,0,0,0,0,0,-1,622,1569,0,0
-595,-545,0,0,0,0,0,0,0,0,0,-1,629,1569,0,0
-588,-545,0,0,0,0,0,0,0,0,0,-1,636,1569,0,0
-581,-545,0,0,0,0,0,0,0,0,0,-1,643,1569,0,0
-574,-545,0,0,0,0,0,0,0,0,0,-1,650,1569,0,0
-567,-545,0,0,0,0,0,0,0,0,0,-1,657,1569,0,0
-560,-545,0,0,0,0,0,0,0,0,0,-1,664,1569,0,0
-553,-545,0,0,0,0,0,0,0,0,0,-1,671,1569,0,0
-546,-545,0,0,0,0,0,0,0,0,0,-1,678,1569,0,0
-539,-545,0,0,0,0,0,0,0,0,0,-1,685,1569,0,0
-532,-545,0,0,0,0,0,0,0,0,0,-1,692,1569,0,0
-525,-545,0,0,0,0,0,0,0,0,0,-1,699,1569,0,0
-518,-545,0,0,0,0,0,0,0,0,0,-1,706,1569,0,0
-511,-545,0,0,0,0,0,0,0,0,0,-1,713,1569,0,0
-504,-545,-3.55237,-2.5354,0,0,0,0,0,0,0,-1,720,1569,-3.55236,2.53545
-497,-545,2.26575,5.69214,0,0,0,0,0,0,0,-1,727,1569,2.26573,-5.6922
-490,-545,-2.17334,7.81396,0,0,0,0,0,0,0,-1,734,1569,-2.17334,-7.81399
-483,-545,-1.88336,5.8446,0,0,0,0,0,0,0,-1,741,1569,-1.88334,-5.84466
-476,-545,-1.13147,6.5741,0,0,0,0,0,0,0,-1,748,1569,-1.13149,-6.57405
-469,-545,-1.03412,15.8353,0,0,0,0,0,0,0,-1,755,1569,-1.03414,-15.8353
-462,-545,-4.09772,21.0458,0,0,0,0,0,0,0,-1,762,1569,-4.0977,-21.0458
-455,-545,-6.6665,30.5143,0,0,0,0,0,0,0,-1,769,1569,-6.66649,-30.5142
-448,-545,-6.58185,31.9144,0,0,0,0,0,0,0,-1,776,1569,-6.58186,-31.9144
-441,-545,-6.67334,33.0282,0,0,0,0,0,0,0,-1,783,1569,-6.67334,-33.0283
-434,-545,-6.98755,33.9219,-0.00311337,0.00118612,-0.00150989,0.00166338,-0.00359064,-1.26464,0.00310069,0.0339796,790,1569,-6.98757,-33.9219
-427,-545,-6.96216,34.7346,-0.0018855,0.00129133,-0.000700146,0.0014388,-0.00203296,-1.36322,0.00201418,0.022099,797,1569,-6.96216,-34.7346
-420,-545,-6.96454,35.5696,-0.00100545,0.00132071,-0.000164131,0.00133223,-0.00101697,-1.5007,0.00136038,0.0242545,804,1569,-6.96453,-35.5696
-413,-545,-7.02417,36.4211,-0.000211248,0.00124027,0.000207592,0.00126938,-0.000240354,1.4315,0.000936706,0.0247179,811,1569,-7.02417,-36.4212
-406,-545,-7.0871,37.3162,0.000404151,0.00121486,0.000438275,0.00140649,0.000212514,1.15859,0.000875464,0.0190671,818,1569,-7.08707,-37.3161
-399,-545,-7.112,38.1288,0.000860544,0.0013274,0.000583554,0.00172248,0.000465462,0.975655,0.00102888,0.0117667,825,1569,-7.112,-38.1287
-392,-545,-7.14941,38.9443,0.0013048,0.00152745,0.000723638,0.00214828,0.000683976,0.861721,0.00126729,0.0122498,832,1569,-7.14939,-38.9444
-385,-545,-7.19061,39.7932,0.00166011,0.00183494,0.000744662,0.0024973,0.000997748,0.843823,0.00145149,0.0113371,839,1569,-7.19059,-39.7932
-378,-545,-7.27191,40.632,0.00203397,0.00231482,0.00078684,0.00297366,0.00137512,0.873701,0.00171846,0.0128668,846,1569,-7.27188,-40.632
-371,-545,-7.32947,41.4862,0.00246478,0.00302414,0.000884491,0.00367211,0.0018168,0.938527,0.00212013,0.017547,853,1569,-7.32946,-41.4861
-364,-545,-7.35938,42.269,0.00319539,0.00435036,0.00136746,0.00525727,0.00228848,0.985192,0.00304375,0.0135447,860,1569,-7.35937,-42.2691
-357,-545,-7.28339,43.2654,0.00399145,0.00605461,0.00193614,0.00721684,0.00282922,1.03017,0.0041989,0.0305432,867,1569,-7.2834,-43.2653
-350,-545,-7.18616,44.3818,0,0,0,0,0,0,0,-1,874,1569,-7.18616,-44.3818
-343,-545,-7.03052,45.213,0,0,0,0,0,0,0,-1,881,1569,-7.03051,-45.2131
-336,-545,-4.2146,36.9165,0,0,0,0,0,0,0,-1,888,1569,-4.21457,-36.9165
-329,-545,-2.03595,27.8694,0,0,0,0,0,0,0,-1,895,1569,-2.03592,-27.8694
-322,-545,-2.42474,27.9695,0,0,0,0,0,0,0,-1,902,1569,-2.42474,-27.9695
-315,-545,-2.52954,30.1711,0,0,0,0,0,0,0,-1,909,1569,-2.52951,-30.1712
-308,-545,-1.54358,21.4457,0,0,0,0,0,0,0,-1,916,1569,-1.54357,-21.4457
-301,-545,1.52191,17.5009,0,0,0,0,0,0,0,-1,923,1569,1.52192,-17.5008
-294,-545,-2.69287,8.42102,0,0,0,0,0,0,0,-1,930,1569,-2.69287,-8.42097
-287,-545,-3.47784,9.96021,0,0,0,0,0,0,0,-1,937,1569,-3.47785,-9.96021
-280,-545,-3.7879,10.5448,0,0,0,0,0,0,0,-1,944,1569,-3.78793,-10.5448
-273,-545,-5.10333,12.864,0,0,0,0,0,0,0,-1,951,1569,-5.10331,-12.864
-266,-545,-5.78955,13.3704,0,0,0,0,0,0,0,-1,958,1569,-5.78952,-13.3703
-259,-545,-6.32184,13.8101,0,0,0,0,0,0,0,-1,965,1569,-6.32182,-13.81
-252,-545,0.369263,7.54053,0,0,0,0,0,0,0,-1,972,1569,0.369276,-7.54056
-245,-545,-0.236633,6.65564,0,0,0,0,0,0,0,-1,979,1569,-0.236605,-6.65566
-238,-545,0,0,0,0,0,0,0,0,0,-1,986,1569,0,0
-231,-545,0,0,0,0,0,0,0,0,0,-1,993,1569,0,0
-224,-545,0,0,0,0,0,0,0,0,0,-1,1000,1569,0,0
-217,-545,0,0,0,0,0,0,0,0,0,-1,1007,1569,0,0
-210,-545,0,0,0,0,0,0,0,0,0,-1,1014,1569,0,0
-203,-545,0,0,0,0,0,0,0,0,0,-1,1021,1569,0,0
-196,-545,0,0,0,0,0,0,0,0,0,-1,1028,1569,0,0
-189,-545,0,0,0,0,0,0,0,0,0,-1,1035,1569,0,0
-182,-545,0,0,0,0,0,0,0,0,0,-1,1042,1569,0,0
-175,-545,0,0,0,0,0,0,0,0,0,-1,1049,1569,0,0
-168,-545,0,0,0,0,0,0,0,0,0,-1,1056,1569,0,0
-161,-545,0,0,0,0,0,0,0,0,0,-1,1063,1569,0,0
-154,-545,0,0,0,0,0,0,0,0,0,-1,1070,1569,0,0
-147,-545,0,0,0,0,0,0,0,0,0,-1,1077,1569,0,0
-140,-545,0,0,0,0,0,0,0,0,0,-1,1084,1569,0,0
-133,-545,0,0,0,0,0,0,0,0,0,-1,1091,1569,0,0
-126,-545,0,0,0,0,0,0,0,0,0,-1,1098,1569,0,0
-119,-545,0,0,0,0,0,0,0,0,0,-1,1105,1569,0,0
-112,-545,0,0,0,0,0,0,0,0,0,-1,1112,1569,0,0
-105,-545,0,0,0,0,0,0,0,0,0,-1,1119,1569,0,0
-98,-545,0,0,0,0,0,0,0,0,0,-1,1126,1569,0,0
-91,-545,0,0,0,0,0,0,0,0,0,-1,1133,1569,0,0
-84,-545,0,0,0,0,0,0,0,0,0,-1,1140,1569,0,0
-77,-545,0,0,0,0,0,0,0,0,0,-1,1147,1569,0,0
-70,-545,0,0,0,0,0,0,0,0,0,-1,1154,1569,0,0
-63,-545,0,0,0,0,0,0,0,0,0,-1,1161,1569,0,0
-56,-545,0,0,0,0,0,0,0,0,0,-1,1168,1569,0,0
-49,-545,0,0,0,0,0,0,0,0,0,-1,1175,1569,0,0
-42,-545,0,0,0,0,0,0,0,0,0,-1,1182,1569,0,0
-35,-545,0,0,0,0,0,0,0,0,0,-1,1189,1569,0,0
-28,-545,0,0,0,0,0,0,0,0,0,-1,1196,1569,0,0
-21,-545,0,0,0,0,0,0,0,0,0,-1,1203,1569,0,0
-14,-545,0,0,0,0,0,0,0,0,0,-1,1210,1569,0,0
-7,-545,0,0,0,0,0,0,0,0,0,-1,1217,1569,0,0
0,-545,0,0,0,0,0,0,0,0,0,-1,1224,1569,0,0
7,-545,0,0,0,0,0,0,0,0,0,-1,1231,1569,0,0
14,-545,0,0,0,0,0,0,0,0,0,-1,1238,1569,0,0
21,-545,0,0,0,0,0,0,0,0,0,-1,1245,1569,0,0
28,-545,0,0,0,0,0,0,0,0,0,-1,1252,1569,0,0
35,-545,0,0,0,0,0,0,0,0,0,-1,1259,1569,0,0
42,-545,0,0,0,0,0,0,0,0,0,-1,1266,1569,0,0
49,-545,0,0,0,0,0,0,0,0,0,-1,1273,1569,0,0
56,-545,0,0,0,0,0,0,0,0,0,-1,1280,1569,0,0
63,-545,0,0,0,0,0,0,0,0,0,-1,1287,1569,0,0
70,-545,0,0,0,0,0,0,0,0,0,-1,1294,1569,0,0
77,-545,0,0,0,0,0,0,0,0,0,-1,1301,1569,0,0
84,-545,0,0,0,0,0,0,0,0,0,-1,1308,1569,0,0
91,-545,0,0,0,0,0,0,0,0,0,-1,1315,1569,0,0
98,-545,0,0,0,0,0,0,0,0,0,-1,1322,1569,0,0
105,-545,0,0,0,0,0,0,0,0,0,-1,1329,1569,0,0
112,-545,0,0,0,0,0,0,0,0,0,-1,1336,1569,0,0
119,-545,0,0,0,0,0,0,0,0,0,-1,1343,1569,0,0
126,-545,0,0,0,0,0,0,0,0,0,-1,1350,1569,0,0
133,-545,0,0,0,0,0,0,0,0,0,-1,1357,1569,0,0
140,-545,0,0,0,0,0,0,0,0,0,-1,1364,1569,0,0
147,-545,0,0,0,0,0,0,0,0,0,-1,1371,1569,0,0
154,-545,0,0,0,0,0,0,0,0,0,-1,1378,1569,0,0
161,-545,0,0,0,0,0,0,0,0,0,-1,1385,1569,0,0
168,-545,0,0,0,0,0,0,0,0,0,-1,1392,1569,0,0
175,-545,0,0,0,0,0,0,0,0,0,-1,1399,1569,0,0
182,-545,0,0,0,0,0,0,0,0,0,-1,1406,1569,0,0
189,-545,0,0,0,0,0,0,0,0,0,-1,1413,1569,0,0
196,-545,0,0,0,0,0,0,0,0,0,-1,1420,1569,0,0
203,-545,0,0,0,0,0,0,0,0,0,-1,1427,1569,0,0
210,-545,0,0,0,0,0,0,0,0,0,-1,1434,1569,0,0
217,-545,0,0,0,0,0,0,0,0,0,-1,1441,1569,0,0
224,-545,0,0,0,0,0,0,0,0,0,-1,1448,1569,0,0
231,-545,0,0,0,0,0,0,0,0,0,-1,1455,1569,0,0
238,-545,0,0,0,0,0,0,0,0,0,-1,1462,1569,0,0
245,-545,0,0,0,0,0,0,0,0,0,-1,1469,1569,0,0
252,-545,0,0,0,0,0,0,0,0,0,-1,1476,1569,0,0
259,-545,0,0,0,0,0,0,0,0,0,-1,1483,1569,0,0
266,-545,0,0,0,0,0,0,0,0,0,-1,1490,1569,0,0
273,-545,0,0,0,0,0,0,0,0,0,-1,1497,1569,0,0
280,-545,0,0,0,0,0,0,0,0,0,-1,1504,1569,0,0
287,-545,0,0,0,0,0,0,0,0,0,-1,1511,1569,0,0
294,-545,0,0,0,0,0,0,0,0,0,-1,1518,1569,0,0
301,-545,0,0,0,0,0,0,0,0,0,-1,1525,1569,0,0
308,-545,0,0,0,0,0,0,0,0,0,-1,1532,1569,0,0
315,-545,0,0,0,0,0,0,0,0,0,-1,1539,1569,0,0
322,-545,0,0,0,0,0,0,0,0,0,-1,1546,1569,0,0
329,-545,0,0,0,0,0,0,0,0,0,-1,1553,1569,0,0
336,-545,0,0,0,0,0,0,0,0,0,-1,1560,1569,0,0
343,-545,0,0,0,0,0,0,0,0,0,-1,1567,1569,0,0
350,-545,0,0,0,0,0,0,0,0,0,-1,1574,1569,0,0
357,-545,0,0,0,0,0,0,0,0,0,-1,1581,1569,0,0
364,-545,7.19495,4.88098,0,0,0,0,0,0,0,-1,1588,1569,7.19497,-4.88095
371,-545,7.82324,3.84302,0,0,0,0,0,0,0,-1,1595,1569,7.82324,-3.84307
378,-545,7.65674,5.52673,0,0,0,0,0,0,0,-1,1602,1569,7.6567,-5.52667
385,-545,8.58447,1.16125,0,0,0,0,0,0,0,-1,1609,1569,8.5845,-1.1612
392,-545,12.5654,3.89526,0,0,0,0,0,0,0,-1,1616,1569,12.5655,-3.89532
399,-545,11.5869,5.6333,0,0,0,0,0,0,0,-1,1623,1569,11.5869,-5.63326
406,-545,11.234,6.36414,0,0,0,0,0,0,0,-1,1630,1569,11.234,-6.3641
413,-545,12.1521,13.4817,0,0,0,0,0,0,0,-1,1637,1569,12.1521,-13.4817
420,-545,11.1954,13.6047,0,0,0,0,0,0,0,-1,1644,1569,11.1954,-13.6047
427,-545,9.61072,14.9135,0,0,0,0,0,0,0,-1,1651,1569,9.61076,-14.9134
434,-545,13.1598,23.9921,0,0,0,0,0,0,0,-1,1658,1569,13.1598,-23.992
441,-545,12.2833,22.2238,0,0,0,0,0,0,0,-1,1665,1569,12.2833,-22.2237
448,-545,13.0082,21.941,0,0,0,0,0,0,0,-1,1672,1569,13.0082,-21.941
455,-545,13.733,21.6583,0,0,0,0,0,0,0,-1,1679,1569,13.733,-21.6583
462,-545,12.449,20.7413,0,0,0,0,0,0,0,-1,1686,1569,12.4489,-20.7413
469,-545,12.7837,17.7919,0,0,0,0,0,0,0,-1,1693,1569,12.7837,-17.7919
476,-545,15.7562,24.8708,0,0,0,0,0,0,0,-1,1700,1569,15.7563,-24.8709
483,-545,24.9761,43.2123,0,0,0,0,0,0,0,-1,1707,1569,24.9761,-43.2122
490,-545,25.0204,42.2792,0.00778789,0.00711638,-0.00504844,0.0125117,0.00239254,-0.752194,0.00766907,0.0306074,1714,1569,25.0204,-42.2791
497,-545,25.022,41.4302,0.0062787,0.00576653,-0.00402742,0.0100582,0.00198706,-0.753649,0.00615103,0.0239036,1721,1569,25.022,-41.4302
504,-545,25.0769,40.5831,0.00505692,0.00495607,-0.0033297,0.00833658,0.00167642,-0.777827,0.00509175,0.0166911,1728,1569,25.0769,-40.5832
511,-545,25.002,39.7498,0.00403922,0.00396171,-0.00268123,0.00668198,0.00131896,-0.778172,0.00408658,0.0125152,1735,1569,25.0019,-39.7497
518,-545,24.952,38.9473,0.00316555,0.00320168,-0.00222253,0.00540622,0.000961018,-0.789462,0.00333035,0.01431,1742,1569,24.952,-38.9473
525,-545,24.8984,38.1315,0.00233674,0.00240793,-0.00176438,0.00413707,0.000607601,-0.795483,0.00257948,0.015186,1749,1569,24.8984,-38.1314
532,-545,24.8455,37.3076,0.00165933,0.0017035,-0.00140022,0.00308181,0.000281017,-0.793284,0.00196757,0.015627,1756,1569,24.8455,-37.3076
539,-545,24.7813,36.4915,0.00113761,0.00102336,-0.0011134,0.00219534,-3.43777e-05,-0.759766,0.00147515,0.0178714,1763,1569,24.7812,-36.4914
546,-545,24.7119,35.6353,0.000722672,0.000378005,-0.000898149,0.00146487,-0.000364195,-0.690612,0.00111793,0.0191045,1770,1569,24.7119,-35.6352
553,-545,24.691,34.7813,0.00047002,-0.000193551,-0.000782413,0.000988089,-0.00071162,-0.584863,0.000985645,0.0283718,1777,1569,24.6911,-34.7813
560,-545,24.662,33.988,0.000411796,-0.000630846,-0.000844878,0.000883246,-0.0011023,-0.508972,0.00114868,0.0340199,1784,1569,24.6619,-33.9881
567,-545,24.6233,33.0674,0,0,0,0,0,0,0,-1,1791,1569,24.6233,-33.0674
574,-545,24.6483,32.1521,0,0,0,0,0,0,0,-1,1798,1569,24.6483,-32.1521
581,-545,24.3457,30.9513,0,0,0,0,0,0,0,-1,1805,1569,24.3457,-30.9513
588,-545,15.4786,16.7035,0,0,0,0,0,0,0,-1,1812,1569,15.4786,-16.7035
595,-545,10.2859,9.11218,0,0,0,0,0,0,0,-1,1819,1569,10.2858,-9.11215
602,-545,8.82117,6.32214,0,0,0,0,0,0,0,-1,1826,1569,8.82121,-6.32217
609,-545,10.2406,5.22351,0,0,0,0,0,0,0,-1,1833,1569,10.2406,-5.22353
616,-545,11.701,3.93188,0,0,0,0,0,0,0,-1,1840,1569,11.701,-3.93191
623,-545,13.2139,2.32043,0,0,0,0,0,0,0,-1,1847,1569,13.2139,-2.32042
630,-545,0,0,0,0,0,0,0,0,0,-1,1854,1569,0,0
637,-545,0,0,0,0,0,0,0,0,0,-1,1861,1569,0,0
644,-545,0,0,0,0,0,0,0,0,0,-1,1868,1569,0,0
651,-545,0,0,0,0,0,0,0,0,0,-1,1875,1569,0,0
658,-545,0,0,0,0,0,0,0,0,0,-1,1882,1569,0,0
665,-545,0,0,0,0,0,0,0,0,0,-1,1889,1569,0,0
672,-545,0,0,0,0,0,0,0,0,0,-1,1896,1569,0,0
679,-545,0,0,0,0,0,0,0,0,0,-1,1903,1569,0,0
686,-545,0,0,0,0,0,0,0,0,0,-1,1910,1569,0,0
693,-545,0,0,0,0,0,0,0,0,0,-1,1917,1569,0,0
700,-545,0,0,0,0,0,0,0,0,0,-1,1924,1569,0,0
707,-545,0,0,0,0,0,0,0,0,0,-1,1931,1569,0,0
714,-545,0,0,0,0,0,0,0,0,0,-1,1938,1569,0,0
721,-545,0,0,0,0,0,0,0,0,0,-1,1945,1569,0,0
728,-545,0,0,0,0,0,0,0,0,0,-1,1952,1569,0,0
735,-545,0,0,0,0,0,0,0,0,0,-1,1959,1569,0,0
742,-545,0,0,0,0,0,0,0,0,0,-1,1966,1569,0,0
749,-545,0,0,0,0,0,0,0,0,0,-1,1973,1569,0,0
756,-545,0,0,0,0,0,0,0,0,0,-1,1980,1569,0,0
763,-545,0,0,0,0,0,0,0,0,0,-1,1987,1569,0,0
770,-545,0,0,0,0,0,0,0,0,0,-1,1994,1569,0,0
777,-545,0,0,0,0,0,0,0,0,0,-1,2001,1569,0,0
784,-545,0,0,0,0,0,0,0,0,0,-1,2008,1569,0,0
791,-545,0,0,0,0,0,0,0,0,0,-1,2015,1569,0,0
798,-545,0,0,0,0,0,0,0,0,0,-1,2022,1569,0,0
805,-545,0,0,0,0,0,0,0,0,0,-1,2029,1569,0,0
812,-545,0,0,0,0,0,0,0,0,0,-1,2036,1569,0,0
-700,-552,0,0,0,0,0,0,0,0,0,-1,524,1576,0,0
-693,-552,0,0,0,0,0,0,0,0,0,-1,531,1576,0,0
-686,-552,0,0,0,0,0,0,0,0,0,-1,538,1576,0,0
-679,-552,0,0,0,0,0,0,0,0,0,-1,545,1576,0,0
-672,-552,0,0,0,0,0,0,0,0,0,-1,552,1576,0,0
-665,-552,0,0,0,0,0,0,0,0,0,-1,559,1576,0,0
-658,-552,0,0,0,0,0,0,0,0,0,-1,566,1576,0,0
-651,-552,0,0,0,0,0,0,0,0,0,-1,573,1576,0,0
-644,-552,0,0,0,0,0,0,0,0,0,-1,580,1576,0,0
-637,-552,0,0,0,0,0,0,0,0,0,-1,587,1576,0,0
-630,-552,0,0,0,0,0,0,0,0,0,-1,594,1576,0,0
-623,-552,0,0,0,0,0,0,0,0,0,-1,601,1576,0,0
-616,-552,0,0,0,0,0,0,0,0,0,-1,608,1576,0,0
-609,-552,0,0,0,0,0,0,0,0,0,-1,615,1576,0,0
-602,-552,0,0,0,0,0,0,0,0,0,-1,622,1576,0,0
-595,-552,0,0,0,0,0,0,0,0,0,-1,629,1576,0,0
-588,-552,0,0,0,0,0,0,0,0,0,-1,636,1576,0,0
-581,-552,0,0,0,0,0,0,0,0,0,-1,643,1576,0,0
-574,-552,0,0,0,0,0,0,0,0,0,-1,650,1576,0,0
-567,-552,0,0,0,0,0,0,0,0,0,-1,657,1576,0,0
-560,-552,0,0,0,0,0,0,0,0,0,-1,664,1576,0,0
-553,-552,0,0,0,0,0,0,0,0,0,-1,671,1576,0,0
-546,-552,0,0,0,0,0,0,0,0,0,-1,678,1576,0,0
-539,-552,0,0,0,0,0,0,0,0,0,-1,685,1576,0,0
-532,-552,0,0,0,0,0,0,0,0,0,-1,692,1576,0,0
-525,-552,0,0,0,0,0,0,0,0,0,-1,699,1576,0,0
-518,-552,0,0,0,0,0,0,0,0,0,-1,706,1576,0,0
-511,-552,0,0,0,0,0,0,0,0,0,-1,713,1576,0,0
-504,-552,0,0,0,0,0,0,0,0,0,-1,720,1576,0,0
-497,-552,1.51282,3.96924,0,0,0,0,0,0,0,-1,727,1576,1.5128,-3.96924
-490,-552,-3.82312,6.32104,0,0,0,0,0,0,0,-1,734,1576,-3.82314,-6.3211
-483,-552,-3.50586,6.47986,0,0,0,0,0,0,0,-1,741,1576,-3.50587,-6.47983
-476,-552,-1.95129,4.43054,0,0,0,0,0,0,0,-1,748,1576,-1.95128,-4.43054
-469,-552,-1.40491,7.9895,0,0,0,0,0,0,0,-1,755,1576,-1.40491,-7.98947
-462,-552,0.0459595,16.3469,0,0,0,0,0,0,0,-1,762,1576,0.0459611,-16.3469
-455,-552,-3.21484,22.3766,0,0,0,0,0,0,0,-1,769,1576,-3.21487,-22.3766
-448,-552,-5.79108,31.4332,0,0,0,0,0,0,0,-1,776,1576,-5.79108,-31.4333
-441,-552,-5.12531,33.5726,0,0,0,0,0,0,0,-1,783,1576,-5.12533,-33.5726
-434,-552,-5.82831,34.1437,-0.00381363,0.00177426,-0.00201722,0.00242637,-0.00446575,-1.25813,0.00403682,0.0459093,790,1576,-5.82831,-34.1437
-427,-552,-6.17273,34.6465,-0.00228416,0.00186081,-0.000820511,0.00201732,-0.00244067,-1.38231,0.00257769,0.0381554,797,1576,-6.17272,-34.6465
-420,-552,-6.13074,35.6108,-0.00125475,0.00189355,-3.04148e-05,0.00189384,-0.00125505,-1.56114,0.00183044,0.024005,804,1576,-6.13072,-35.6108
-413,-552,-6.16663,36.476,-0.000461964,0.00168981,0.000425592,0.00177093,-0.000543082,1.38245,0.00139728,0.0184356,811,1576,-6.1666,-36.476
-406,-552,-6.23621,37.3431,0.000134293,0.00149541,0.000670537,0.00177025,-0.000140543,1.18181,0.00122969,0.0148437,818,1576,-6.23619,-37.3431
-399,-552,-6.2804,38.1559,0.000582828,0.0014746,0.000810186,0.00195349,0.000103934,1.03695,0.0012691,0.0146711,825,1576,-6.2804,-38.1559
-392,-552,-6.33887,38.9736,0.00101622,0.0015143,0.000919666,0.00221805,0.00031247,0.917624,0.00138633,0.0157293,832,1576,-6.33885,-38.9736
-385,-552,-6.38153,39.8198,0.00133505,0.00166032,0.0008848,0.00239731,0.000598065,0.876288,0.00144084,0.0146401,839,1576,-6.38154,-39.8198
-378,-552,-6.44232,40.6523,0.001699,0.0019951,0.00092199,0.00278085,0.000913247,0.865008,0.00163674,0.0163829,846,1576,-6.44232,-40.6523
-371,-552,-6.49353,41.5129,0.00205833,0.0024014,0.000889892,0.00313614,0.00132359,0.880611,0.00181797,0.0215709,853,1576,-6.49355,-41.513
-364,-552,-6.53271,42.3109,0.0026717,0.00341787,0.00120719,0.00430831,0.00178126,0.935268,0.0024998,0.0169326,860,1576,-6.53272,-42.3109
-357,-552,-6.53003,43.1256,0.00335683,0.00471993,0.00159686,0.0057746,0.00230216,0.987098,0.00335671,0.0113858,867,1576,-6.53001,-43.1256
-350,-552,-6.53015,44.0282,0.00417068,0.00633949,0.00219204,0.00770069,0.00280948,1.0151,0.00449982,0.0187749,874,1576,-6.53018,-44.0282
-343,-552,-6.56262,44.8406,0.00484307,0.00762622,0.00274282,0.00931028,0.00315901,1.02015,0.00546705,0.0363788,881,1576,-6.5626,-44.8405
-336,-552,-6.63568,45.5616,0,0,0,0,0,0,0,-1,888,1576,-6.63567,-45.5617
-329,-552,-3.68982,37.6417,0,0,0,0,0,0,0,-1,895,1576,-3.68984,-37.6417
-322,-552,-1.23962,28.5371,0,0,0,0,0,0,0,-1,902,1576,-1.23964,-28.5371
-315,-552,-0.605347,28.994,0,0,0,0,0,0,0,-1,909,1576,-0.605331,-28.9941
-308,-552,-1.01624,30.3169,0,0,0,0,0,0,0,-1,916,1576,-1.01624,-30.3169
-301,-552,1.39453,18.4995,0,0,0,0,0,0,0,-1,923,1576,1.3945,-18.4995
-294,-552,0.842163,13.7863,0,0,0,0,0,0,0,-1,930,1576,0.842149,-13.7863
-287,-552,-0.663757,13.3474,0,0,0,0,0,0,0,-1,937,1576,-0.663744,-13.3474
-280,-552,-5.47241,8.96765,0,0,0,0,0,0,0,-1,944,1576,-5.47239,-8.96766
-273,-552,1.64587,10.6685,0,0,0,0,0,0,0,-1,951,1576,1.6459,-10.6685
-266,-552,-1.32678,8.05688,0,0,0,0,0,0,0,-1,958,1576,-1.32677,-8.05683
-259,-552,-5.54321,8.31213,0,0,0,0,0,0,0,-1,965,1576,-5.54324,-8.31214
-252,-552,-1.93445,7.81543,0,0,0,0,0,0,0,-1,972,1576,-1.93445,-7.81546
-245,-552,-2.53613,6.92212,0,0,0,0,0,0,0,-1,979,1576,-2.53614,-6.92216
-238,-552,-6.5365,2.81885,0,0,0,0,0,0,0,-1,986,1576,-6.53649,-2.8188
-231,-552,-4.32239,4.34583,0,0,0,0,0,0,0,-1,993,1576,-4.32239,-4.34587
-224,-552,0,0,0,0,0,0,0,0,0,-1,1000,1576,0,0
-217,-552,0,0,0,0,0,0,0,0,0,-1,1007,1576,0,0
-210,-552,0,0,0,0,0,0,0,0,0,-1,1014,1576,0,0
-203,-552,0,0,0,0,0,0,0,0,0,-1,1021,1576,0,0
-196,-552,0,0,0,0,0,0,0,0,0,-1,1028,1576,0,0
-189,-552,0,0,0,0,0,0,0,0,0,-1,1035,1576,0,0
-182,-552,0,0,0,0,0,0,0,0,0,-1,1042,1576,0,0
-175,-552,0,0,0,0,0,0,0,0,0,-1,1049,1576,0,0
-168,-552,0,0,0,0,0,0,0,0,0,-1,1056,1576,0,0
-161,-552,0,0,0,0,0,0,0,0,0,-1,1063,1576,0,0
-154,-552,0,0,0,0,0,0,0,0,0,-1,1070,1576,0,0
-147,-552,0,0,0,0,0,0,0,0,0,-1,1077,1576,0,0
-140,-552,0,0,0,0,0,0,0,0,0,-1,1084,1576,0,0
-133,-552,0,0,0,0,0,0,0,0,0,-1,1091,1576,0,0
-126,-552,0,0,0,0,0,0,0,0,0,-1,1098,1576,0,0
-119,-552,0,0,0,0,0,0,0,0,0,-1,1105,1576,0,0
-112,-552,0,0,0,0,0,0,0,0,0,-1,1112,1576,0,0
-105,-552,0,0,0,0,0,0,0,0,0,-1,1119,1576,0,0
-98,-552,0,0,0,0,0,0,0,0,0,-1,1126,1576,0,0
-91,-552,0,0,0,0,0,0,0,0,0,-1,1133,1576,0,0
-84,-552,0,0,0,0,0,0,0,0,0,-1,1140,1576,0,0
-77,-552,0,0,0,0,0,0,0,0,0,-1,1147,1576,0,0
-70,-552,0,0,0,0,0,0,0,0,0,-1,1154,1576,0,0
-63,-552,0,0,0,0,0,0,0,0,0,-1,1161,1576,0,0
-56,-552,0,0,0,0,0,0,0,0,0,-1,1168,1576,0,0
-49,-552,0,0,0,0,0,0,0,0,0,-1,1175,1576,0,0
-42,-552,0,0,0,0,0,0,0,0,0,-1,1182,1576,0,0
-35,-552,0,0,0,0,0,0,0,0,0,-1,1189,1576,0,0
-28,-552,0,0,0,0,0,0,0,0,0,-1,1196,1576,0,0
-21,-552,0,0,0,0,0,0,0,0,0,-1,1203,1576,0,0
-14,-552,0,0,0,0,0,0,0,0,0,-1,1210,1576,0,0
-7,-552,0,0,0,0,0,0,0,0,0,-1,1217,1576,0,0
0,-552,0,0,0,0,0,0,0,0,0,-1,1224,1576,0,0
7,-552,0,0,0,0,0,0,0,0,0,-1,1231,1576,0,0
14,-552,0,0,0,0,0,0,0,0,0,-1,1238,1576,0,0
21,-552,0,0,0,0,0,0,0,0,0,-1,1245,1576,0,0
28,-552,0,0,0,0,0,0,0,0,0,-1,1252,1576,0,0
35,-552,0,0,0,0,0,0,0,0,0,-1,1259,1576,0,0
42,-552,0,0,0,0,0,0,0,0,0,-1,1266,1576,0,0
49,-552,0,0,0,0,0,0,0,0,0,-1,1273,1576,0,0
56,-552,0,0,0,0,0,0,0,0,0,-1,1280,1576,0,0
63,-552,0,0,0,0,0,0,0,0,0,-1,1287,1576,0,0
70,-552,0,0,0,0,0,0,0,0,0,-1,1294,1576,0,0
77,-552,0,0,0,0,0,0,0,0,0,-1,1301,1576,0,0
84,-552,0,0,0,0,0,0,0,0,0,-1,1308,1576,0,0
91,-552,0,0,0,0,0,0,0,0,0,-1,1315,1576,0,0
98,-552,0,0,0,0,0,0,0,0,0,-1,1322,1576,0,0
105,-552,0,0,0,0,0,0,0,0,0,-1,1329,1576,0,0
112,-552,0,0,0,0,0,0,0,0,0,-1,1336,1576,0,0
119,-552,0,0,0,0,0,0,0,0,0,-1,1343,1576,0,0
126,-552,0,0,0,0,0,0,0,0,0,-1,1350,1576,0,0
133,-552,0,0,0,0,0,0,0,0,0,-1,1357,1576,0,0
140,-552,0,0,0,0,0,0,0,0,0,-1,1364,1576,0,0
147,-552,0,0,0,0,0,0,0,0,0,-1,1371,1576,0,0
154,-552,0,0,0,0,0,0,0,0,0,-1,1378,1576,0,0
161,-552,0,0,0,0,0,0,0,0,0,-1,1385,1576,0,0
168,-552,0,0,0,0,0,0,0,0,0,-1,1392,1576,0,0
175,-552,0,0,0,0,0,0,0,0,0,-1,1399,1576,0,0
182,-552,0,0,0,0,0,0,0,0,0,-1,1406,1576,0,0
189,-552,0,0,0,0,0,0,0,0,0,-1,1413,1576,0,0
196,-552,0,0,0,0,0,0,0,0,0,-1,1420,1576,0,0
203,-552,0,0,0,0,0,0,0,0,0,-1,1427,1576,0,0
210,-552,0,0,0,0,0,0,0,0,0,-1,1434,1576,0,0
217,-552,0,0,0,0,0,0,0,0,0,-1,1441,1576,0,0
224,-552,0,0,0,0,0,0,0,0,0,-1,1448,1576,0,0
231,-552,0,0,0,0,0,0,0,0,0,-1,1455,1576,0,0
238,-552,0,0,0,0,0,0,0,0,0,-1,1462,1576,0,0
245,-552,0,0,0,0,0,0,0,0,0,-1,1469,1576,0,0
252,-552,0,0,0,0,0,0,0,0,0,-1,1476,1576,0,0
259,-552,0,0,0,0,0,0,0,0,0,-1,1483,1576,0,0
266,-552,0,0,0,0,0,0,0,0,0,-1,1490,1576,0,0
273,-552,0,0,0,0,0,0,0,0,0,-1,1497,1576,0,0
280,-552,0,0,0,0,0,0,0,0,0,-1,1504,1576,0,0
287,-552,0,0,0,0,0,0,0,0,0,-1,1511,1576,0,0
294,-552,0,0,0,0,0,0,0,0,0,-1,1518,1576,0,0
301,-552,0,0,0,0,0,0,0,0,0,-1,1525,1576,0,0
308,-552,0,0,0,0,0,0,0,0,0,-1,1532,1576,0,0
315,-552,0,0,0,0,0,0,0,0,0,-1,1539,1576,0,0
322,-552,0,0,0,0,0,0,0,0,0,-1,1546,1576,0,0
329,-552,0,0,0,0,0,0,0,0,0,-1,1553,1576,0,0
336,-552,0,0,0,0,0,0,0,0,0,-1,1560,1576,0,0
343,-552,0,0,0,0,0,0,0,0,0,-1,1567,1576,0,0
350,-552,4.97876,4.09888,0,0,0,0,0,0,0,-1,1574,1576,4.97875,-4.09883
357,-552,5.18469,4.10706,0,0,0,0,0,0,0,-1,1581,1576,5.1847,-4.10702
364,-552,5.80872,5.07031,0,0,0,0,0,0,0,-1,1588,1576,5.80874,-5.07037
371,-552,7.10657,5.64783,0,0,0,0,0,0,0,-1,1595,1576,7.10651,-5.64786
378,-552,6.44446,4.91492,0,0,0,0,0,0,0,-1,1602,1576,6.44448,-4.91496
385,-552,12.8276,3.16504,0,0,0,0,0,0,0,-1,1609,1576,12.8276,-3.16503
392,-552,12.1301,4.3363,0,0,0,0,0,0,0,-1,1616,1576,12.1302,-4.33631
399,-552,11.3486,5.6012,0,0,0,0,0,0,0,-1,1623,1576,11.3486,-5.60115
406,-552,10.7863,6.42542,0,0,0,0,0,0,0,-1,1630,1576,10.7863,-6.42536
413,-552,8.39307,10.365,0,0,0,0,0,0,0,-1,1637,1576,8.3931,-10.365
420,-552,10.2306,12.7225,0,0,0,0,0,0,0,-1,1644,1576,10.2305,-12.7226
427,-552,9.73267,14.783,0,0,0,0,0,0,0,-1,1651,1576,9.73269,-14.783
434,-552,12.0377,20.1364,0,0,0,0,0,0,0,-1,1658,1576,12.0377,-20.1364
441,-552,12.4963,21.5277,0,0,0,0,0,0,0,-1,1665,1576,12.4964,-21.5277
448,-552,12.9141,21.5482,0,0,0,0,0,0,0,-1,1672,1576,12.9141,-21.5482
455,-552,13.3318,21.5687,0,0,0,0,0,0,0,-1,1679,1576,13.3317,-21.5687
462,-552,12.745,20.5947,0,0,0,0,0,0,0,-1,1686,1576,12.745,-20.5947
469,-552,17.7067,29.6902,0,0,0,0,0,0,0,-1,1693,1576,17.7067,-29.6902
476,-552,24.2623,43.802,0,0,0,0,0,0,0,-1,1700,1576,24.2623,-43.802
483,-552,24.3096,43.026,0,0,0,0,0,0,0,-1,1707,1576,24.3096,-43.026
490,-552,24.2787,42.203,0.0061068,0.00567173,-0.00383968,0.0097351,0.00204343,-0.757101,0.00592751,0.0161389,1714,1576,24.2787,-42.203
497,-552,24.3679,41.3781,0.00478081,0.00451388,-0.00304902,0.00769928,0.00159541,-0.763526,0.00469235,0.0250857,1721,1576,24.3679,-41.378
504,-552,24.2634,40.6006,0.00372266,0.00377666,-0.0025133,0.00626311,0.00123622,-0.790769,0.00383041,0.0256062,1728,1576,24.2634,-40.6006
511,-552,24.1846,39.7727,0.00282086,0.00289103,-0.00197708,0.00483334,0.000878555,-0.79427,0.00297297,0.0180556,1735,1576,24.1846,-39.7727
518,-552,24.1652,38.969,0.00204648,0.00219402,-0.00161684,0.00373877,0.000501727,-0.808196,0.00234325,0.0166472,1742,1576,24.1652,-38.969
525,-552,24.094,38.1605,0.00132757,0.00146496,-0.00125713,0.00265527,0.000137267,-0.812693,0.00172624,0.0169419,1749,1576,24.094,-38.1605
532,-552,24.0453,37.3373,0.000771433,0.000815928,-0.000987742,0.00178167,-0.000194312,-0.796658,0.00125757,0.0167835,1756,1576,24.0452,-37.3373
539,-552,23.9879,36.5426,0.000370399,0.000183974,-0.000785808,0.0010685,-0.000514131,-0.726364,0.000932233,0.0197106,1763,1576,23.9879,-36.5425
546,-552,23.9216,35.718,0.000121569,-0.000396738,-0.000659149,0.000570679,-0.000845848,-0.598098,0.00082296,0.0232657,1770,1576,23.9216,-35.718
553,-552,23.9124,34.8165,2.23892e-05,-0.000931981,-0.000623957,0.000330715,-0.00124031,-0.458954,0.000956364,0.0276402,1777,1576,23.9124,-34.8165
560,-552,23.976,33.8102,0,0,0,0,0,0,0,-1,1784,1576,23.976,-33.8102
567,-552,20.6783,26.0908,0,0,0,0,0,0,0,-1,1791,1576,20.6784,-26.0908
574,-552,12.8835,14.8463,0,0,0,0,0,0,0,-1,1798,1576,12.8836,-14.8463
581,-552,9.74841,9.98645,0,0,0,0,0,0,0,-1,1805,1576,9.74847,-9.9864
588,-552,10.5619,9.34924,0,0,0,0,0,0,0,-1,1812,1576,10.5619,-9.34921
595,-552,5.36194,6.62744,0,0,0,0,0,0,0,-1,1819,1576,5.36193,-6.62742
602,-552,10.6863,4.31616,0,0,0,0,0,0,0,-1,1826,1576,10.6862,-4.31619
609,-552,12.146,3.18286,0,0,0,0,0,0,0,-1,1833,1576,12.1459,-3.18281
616,-552,13.8762,2.08167,0,0,0,0,0,0,0,-1,1840,1576,13.8763,-2.08167
623,-552,0,0,0,0,0,0,0,0,0,-1,1847,1576,0,0
630,-552,0,0,0,0,0,0,0,0,0,-1,1854,1576,0,0
637,-552,0,0,0,0,0,0,0,0,0,-1,1861,1576,0,0
644,-552,0,0,0,0,0,0,0,0,0,-1,1868,1576,0,0
651,-552,0,0,0,0,0,0,0,0,0,-1,1875,1576,0,0
658,-552,0,0,0,0,0,0,0,0,0,-1,1882,1576,0,0
665,-552,0,0,0,0,0,0,0,0,0,-1,1889,1576,0,0
672,-552,0,0,0,0,0,0,0,0,0,-1,1896,1576,0,0
679,-552,0,0,0,0,0,0,0,0,0,-1,1903,1576,0,0
686,-552,0,0,0,0,0,0,0,0,0,-1,1910,1576,0,0
693,-552,0,0,0,0,0,0,0,0,0,-1,1917,1576,0,0
700,-552,0,0,0,0,0,0,0,0,0,-1,1924,1576,0,0
707,-552,0,0,0,0,0,0,0,0,0,-1,1931,1576,0,0
714,-552,0,0,0,0,0,0,0,0,0,-1,1938,1576,0,0
721,-552,0,0,0,0,0,0,0,0,0,-1,1945,1576,0,0
728,-552,0,0,0,0,0,0,0,0,0,-1,1952,1576,0,0
735,-552,0,0,0,0,0,0,0,0,0,-1,1959,1576,0,0
742,-552,0,0,0,0,0,0,0,0,0,-1,1966,1576,0,0
749,-552,0,0,0,0,0,0,0,0,0,-1,1973,1576,0,0
756,-552,0,0,0,0,0,0,0,0,0,-1,1980,1576,0,0
763,-552,0,0,0,0,0,0,0,0,0,-1,1987,1576,0,0
770,-552,0,0,0,0,0,0,0,0,0,-1,1994,1576,0,0
777,-552,0,0,0,0,0,0,0,0,0,-1,2001,1576,0,0
784,-552,0,0,0,0,0,0,0,0,0,-1,2008,1576,0,0
791,-552,0,0,0,0,0,0,0,0,0,-1,2015,1576,0,0
798,-552,0,0,0,0,0,0,0,0,0,-1,2022,1576,0,0
805,-552,0,0,0,0,0,0,0,0,0,-1,2029,1576,0,0
812,-552,0,0,0,0,0,0,0,0,0,-1,2036,1576,0,0
-700,-559,0,0,0,0,0,0,0,0,0,-1,524,1583,0,0
-693,-559,0,0,0,0,0,0,0,0,0,-1,531,1583,0,0
-686,-559,0,0,0,0,0,0,0,0,0,-1,538,1583,0,0
-679,-559,0,0,0,0,0,0,0,0,0,-1,545,1583,0,0
-672,-559,0,0,0,0,0,0,0,0,0,-1,552,1583,0,0
-665,-559,0,0,0,0,0,0,0,0,0,-1,559,1583,0,0
-658,-559,0,0,0,0,0,0,0,0,0,-1,566,1583,0,0
-651,-559,0,0,0,0,0,0,0,0,0,-1,573,1583,0,0
-644,-559,0,0,0,0,0,0,0,0,0,-1,580,1583,0,0
-637,-559,0,0,0,0,0,0,0,0,0,-1,587,1583,0,0
-630,-559,0,0,0,0,0,0,0,0,0,-1,594,1583,0,0
-623,-559,0,0,0,0,0,0,0,0,0,-1,601,1583,0,0
-616,-559,0,0,0,0,0,0,0,0,0,-1,608,1583,0,0
-609,-559,0,0,0,0,0,0,0,0,0,-1,615,1583,0,0
-602,-559,0,0,0,0,0,0,0,0,0,-1,622,1583,0,0
-595,-559,0,0,0,0,0,0,0,0,0,-1,629,1583,0,0
-588,-559,0,0,0,0,0,0,0,0,0,-1,636,1583,0,0
-581,-559,0,0,0,0,0,0,0,0,0,-1,643,1583,0,0
-574,-559,0,0,0,0,0,0,0,0,0,-1,650,1583,0,0
-567,-559,0,0,0,0,0,0,0,0,0,-1,657,1583,0,0
-560,-559,0,0,0,0,0,0,0,0,0,-1,664,1583,0,0
-553,-559,0,0,0,0,0,0,0,0,0,-1,671,1583,0,0
-546,-559,0,0,0,0,0,0,0,0,0,-1,678,1583,0,0
-539,-559,0,0,0,0,0,0,0,0,0,-1,685,1583,0,0
-532,-559,0,0,0,0,0,0,0,0,0,-1,692,1583,0,0
-525,-559,0,0,0,0,0,0,0,0,0,-1,699,1583,0,0
-518,-559,0,0,0,0,0,0,0,0,0,-1,706,1583,0,0
-511,-559,0,0,0,0,0,0,0,0,0,-1,713,1583,0,0
-504,-559,0,0,0,0,0,0,0,0,0,-1,720,1583,0,0
-497,-559,0,0,0,0,0,0,0,0,0,-1,727,1583,0,0
-490,-559,-5.49835,4.47424,0,0,0,0,0,0,0,-1,734,1583,-5.49833,-4.4743
-483,-559,-5.24078,4.74561,0,0,0,0,0,0,0,-1,741,1583,-5.24079,-4.74563
-476,-559,-4.98022,4.99316,0,0,0,0,0,0,0,-1,748,1583,-4.98024,-4.99321
-469,-559,-4.6424,5.38062,0,0,0,0,0,0,0,-1,755,1583,-4.64237,-5.38058
-462,-559,-0.161865,6.49438,0,0,0,0,0,0,0,-1,762,1583,-0.161835,-6.49444
-455,-559,1.08826,7.02527,0,0,0,0,0,0,0,-1,769,1583,1.08823,-7.02529
-448,-559,-2.86023,20.0852,0,0,0,0,0,0,0,-1,776,1583,-2.86025,-20.0852
-441,-559,-3.32996,32.7021,0,0,0,0,0,0,0,-1,783,1583,-3.32994,-32.7021
-434,-559,-4.51642,34.116,0,0,0,0,0,0,0,-1,790,1583,-4.51644,-34.116
-427,-559,-5.27142,34.5027,0,0,0,0,0,0,0,-1,797,1583,-5.27143,-34.5027
-420,-559,-5.40326,35.5631,0,0,0,0,0,0,0,-1,804,1583,-5.40324,-35.5631
-413,-559,-5.37067,36.5111,-0.000642118,0.00231253,0.000858516,0.00254387,-0.000873459,1.30758,0.00205006,0.0198683,811,1583,-5.37068,-36.5111
-406,-559,-5.41595,37.3931,-6.56631e-05,0.00196719,0.00110572,0.00245267,-0.000551146,1.15707,0.00184645,0.0111732,818,1583,-5.41594,-37.3931
-399,-559,-5.44135,38.2212,0.000387618,0.00180765,0.00122943,0.00251736,-0.000322088,1.04726,0.00179526,0.0143637,825,1583,-5.44136,-38.2212
-392,-559,-5.52295,39.0345,0.00081171,0.00169988,0.0012965,0.00262624,-0.000114656,0.950398,0.00179027,0.016914,832,1583,-5.52297,-39.0346
-385,-559,-5.5697,39.8634,0.00109801,0.00170231,0.00120679,0.0026442,0.000156114,0.908065,0.00171314,0.0165572,839,1583,-5.56972,-39.8634
-378,-559,-5.61066,40.7108,0.0014461,0.0018993,0.00122103,0.00291457,0.000430827,0.877144,0.00181655,0.0157175,846,1583,-5.61065,-40.7108
-371,-559,-5.67493,41.5509,0.00173927,0.00204742,0.00106566,0.00297008,0.000816604,0.857192,0.00177173,0.0235336,853,1583,-5.67493,-41.5509
-364,-559,-5.6875,42.3059,0.00224195,0.00274431,0.001216,0.0037348,0.00125145,0.887247,0.00219504,0.0207055,860,1583,-5.68753,-42.3059
-357,-559,-5.70221,43.1459,0.00283382,0.00366957,0.00142551,0.00473719,0.0017662,0.927973,0.00276435,0.0127956,867,1583,-5.70222,-43.1459
-350,-559,-5.74438,43.978,0.00356796,0.00475878,0.00180448,0.00606354,0.0022632,0.944756,0.00353809,0.0112583,874,1583,-5.7444,-43.9781
-343,-559,-5.79773,44.7776,0.00418224,0.00558742,0.00213995,0.00713716,0.0026325,0.944015,0.00416763,0.0117446,881,1583,-5.79771,-44.7775
-336,-559,-5.87701,45.5662,0,0,0,0,0,0,0,-1,888,1583,-5.87702,-45.5661
-329,-559,-5.54382,46.1215,0,0,0,0,0,0,0,-1,895,1583,-5.54381,-46.1214
-322,-559,-4.86597,44.8291,0,0,0,0,0,0,0,-1,902,1583,-4.86594,-44.8291
-315,-559,-0.659607,29.1698,0,0,0,0,0,0,0,-1,909,1583,-0.659577,-29.1698
-308,-559,-0.755493,30.4624,0,0,0,0,0,0,0,-1,916,1583,-0.755509,-30.4625
-301,-559,-1.22174,31.0372,0,0,0,0,0,0,0,-1,923,1583,-1.22176,-31.0372
-294,-559,0.945129,18.5165,0,0,0,0,0,0,0,-1,930,1583,0.945117,-18.5165
-287,-559,-0.11792,15.4912,0,0,0,0,0,0,0,-1,937,1583,-0.117939,-15.4912
-280,-559,0.191467,13.5093,0,0,0,0,0,0,0,-1,944,1583,0.191441,-13.5093
-273,-559,2.12836,10.3059,0,0,0,0,0,0,0,-1,951,1583,2.12839,-10.3059
-266,-559,-0.597046,6.68933,0,0,0,0,0,0,0,-1,958,1583,-0.597031,-6.68937
-259,-559,-7.00311,8.62756,0,0,0,0,0,0,0,-1,965,1583,-7.00312,-8.6275
-252,-559,-9.4483,2.87805,0,0,0,0,0,0,0,-1,972,1583,-9.44829,-2.87805
-245,-559,-4.80804,7.1803,0,0,0,0,0,0,0,-1,979,1583,-4.80804,-7.18027
-238,-559,-8.45764,2.54858,0,0,0,0,0,0,0,-1,986,1583,-8.45763,-2.54862
-231,-559,-5.86914,4.34021,0,0,0,0,0,0,0,-1,993,1583,-5.86914,-4.34019
-224,-559,-3.30505,6.22864,0,0,0,0,0,0,0,-1,1000,1583,-3.30505,-6.22859
-217,-559,0,0,0,0,0,0,0,0,0,-1,1007,1583,0,0
-210,-559,0,0,0,0,0,0,0,0,0,-1,1014,1583,0,0
-203,-559,0,0,0,0,0,0,0,0,0,-1,1021,1583,0,0
-196,-559,0,0,0,0,0,0,0,0,0,-1,1028,1583,0,0
-189,-559,0,0,0,0,0,0,0,0,0,-1,1035,1583,0,0
-182,-559,0,0,0,0,0,0,0,0,0,-1,1042,1583,0,0
-175,-559,0,0,0,0,0,0,0,0,0,-1,1049,1583,0,0
-168,-559,0,0,0,0,0,0,0,0,0,-1,1056,1583,0,0
-161,-559,0,0,0,0,0,0,0,0,0,-1,1063,1583,0,0
-154,-559,0,0,0,0,0,0,0,0,0,-1,1070,1583,0,0
-147,-559,0,0,0,0,0,0,0,0,0,-1,1077,1583,0,0
-140,-559,0,0,0,0,0,0,0,0,0,-1,1084,1583,0,0
-133,-559,0,0,0,0,0,0,0,0,0,-1,1091,1583,0,0
-126,-559,0,0,0,0,0,0,0,0,0,-1,1098,1583,0,0
-119,-559,0,0,0,0,0,0,0,0,0,-1,1105,1583,0,0
-112,-559,0,0,0,0,0,0,0,0,0,-1,1112,1583,0,0
-105,-559,0,0,0,0,0,0,0,0,0,-1,1119,1583,0,0
-98,-559,0,0,0,0,0,0,0,0,0,-1,1126,1583,0,0
-91,-559,0,0,0,0,0,0,0,0,0,-1,1133,1583,0,0
-84,-559,0,0,0,0,0,0,0,0,0,-1,1140,1583,0,0
-77,-559,0,0,0,0,0,0,0,0,0,-1,1147,1583,0,0
-70,-559,0,0,0,0,0,0,0,0,0,-1,1154,1583,0,0
-63,-559,0,0,0,0,0,0,0,0,0,-1,1161,1583,0,0
-56,-559,0,0,0,0,0,0,0,0,0,-1,1168,1583,0,0
-49,-559,0,0,0,0,0,0,0,0,0,-1,1175,1583,0,0
-42,-559,0,0,0,0,0,0,0,0,0,-1,1182,1583,0,0
-35,-559,0,0,0,0,0,0,0,0,0,-1,1189,1583,0,0
-28,-559,0,0,0,0,0,0,0,0,0,-1,1196,1583,0,0
-21,-559,0,0,0,0,0,0,0,0,0,-1,1203,1583,0,0
-14,-559,0,0,0,0,0,0,0,0,0,-1,1210,1583,0,0
-7,-559,0,0,0,0,0,0,0,0,0,-1,1217,1583,0,0
0,-559,0,0,0,0,0,0,0,0,0,-1,1224,1583,0,0
7,-559,0,0,0,0,0,0,0,0,0,-1,1231,1583,0,0
14,-559,0,0,0,0,0,0,0,0,0,-1,1238,1583,0,0
21,-559,0,0,0,0,0,0,0,0,0,-1,1245,1583,0,0
28,-559,0,0,0,0,0,0,0,0,0,-1,1252,1583,0,0
35,-559,0,0,0,0,0,0,0,0,0,-1,1259,1583,0,0
42,-559,0,0,0,0,0,0,0,0,0,-1,1266,1583,0,0
49,-559,0,0,0,0,0,0,0,0,0,-1,1273,1583,0,0
56,-559,0,0,0,0,0,0,0,0,0,-1,1280,1583,0,0
63,-559,0,0,0,0,0,0,0,0,0,-1,1287,1583,0,0
70,-559,0,0,0,0,0,0,0,0,0,-1,1294,1583,0,0
77,-559,0,0,0,0,0,0,0,0,0,-1,1301,1583,0,0
84,-559,0,0,0,0,0,0,0,0,0,-1,1308,1583,0,0
91,-559,0,0,0,0,0,0,0,0,0,-1,1315,1583,0,0
98,-559,0,0,0,0,0,0,0,0,0,-1,1322,1583,0,0
105,-559,0,0,0,0,0,0,0,0,0,-1,1329,1583,0,0
112,-559,0,0,0,0,0,0,0,0,0,-1,1336,1583,0,0
119,-559,0,0,0,0,0,0,0,0,0,-1,1343,1583,0,0
126,-559,0,0,0,0,0,0,0,0,0,-1,1350,1583,0,0
133,-559,0,0,0,0,0,0,0,0,0,-1,1357,1583,0,0
140,-559,0,0,0,0,0,0,0,0,0,-1,1364,1583,0,0
147,-559,0,0,0,0,0,0,0,0,0,-1,1371,1583,0,0
154,-559,0,0,0,0,0,0,0,0,0,-1,1378,1583,0,0
161,-559,0,0,0,0,0,0,0,0,0,-1,1385,1583,0,0
168,-559,0,0,0,0,0,0,0,0,0,-1,1392,1583,0,0
175,-559,0,0,0,0,0,0,0,0,0,-1,1399,1583,0,0
182,-559,0,0,0,0,0,0,0,0,0,-1,1406,1583,0,0
189,-559,0,0,0,0,0,0,0,0,0,-1,1413,1583,0,0
196,-559,0,0,0,0,0,0,0,0,0,-1,1420,1583,0,0
203,-559,0,0,0,0,0,0,0,0,0,-1,1427,1583,0,0
210,-559,0,0,0,0,0,0,0,0,0,-1,1434,1583,0,0
217,-559,0,0,0,0,0,0,0,0,0,-1,1441,1583,0,0
224,-559,0,0,0,0,0,0,0,0,0,-1,1448,1583,0,0
231,-559,0,0,0,0,0,0,0,0,0,-1,1455,1583,0,0
238,-559,0,0,0,0,0,0,0,0,0,-1,1462,1583,0,0
245,-559,0,0,0,0,0,0,0,0,0,-1,1469,1583,0,0
252,-559,0,0,0,0,0,0,0,0,0,-1,1476,1583,0,0
259,-559,0,0,0,0,0,0,0,0,0,-1,1483,1583,0,0
266,-559,0,0,0,0,0,0,0,0,0,-1,1490,1583,0,0
273,-559,0,0,0,0,0,0,0,0,0,-1,1497,1583,0,0
280,-559,0,0,0,0,0,0,0,0,0,-1,1504,1583,0,0
287,-559,0,0,0,0,0,0,0,0,0,-1,1511,1583,0,0
294,-559,0,0,0,0,0,0,0,0,0,-1,1518,1583,0,0
301,-559,0,0,0,0,0,0,0,0,0,-1,1525,1583,0,0
308,-559,0,0,0,0,0,0,0,0,0,-1,1532,1583,0,0
315,-559,0,0,0,0,0,0,0,0,0,-1,1539,1583,0,0
322,-559,0,0,0,0,0,0,0,0,0,-1,1546,1583,0,0
329,-559,0,0,0,0,0,0,0,0,0,-1,1553,1583,0,0
336,-559,5.97668,3.09827,0,0,0,0,0,0,0,-1,1560,1583,5.97667,-3.09824
343,-559,5.44824,2.88696,0,0,0,0,0,0,0,-1,1567,1583,5.44819,-2.88693
350,-559,4.69775,3.27051,0,0,0,0,0,0,0,-1,1574,1583,4.69771,-3.27048
357,-559,3.88025,3.60999,0,0,0,0,0,0,0,-1,1581,1583,3.88027,-3.60998
364,-559,5.00928,5.32605,0,0,0,0,0,0,0,-1,1588,1583,5.00928,-5.32607
371,-559,21.0801,52.1865,0,0,0,0,0,0,0,-1,1595,1583,21.0801,-52.1865
378,-559,6.34753,1.53137,0,0,0,0,0,0,0,-1,1602,1583,6.34752,-1.53139
385,-559,6.95911,1.48181,0,0,0,0,0,0,0,-1,1609,1583,6.95916,-1.48175
392,-559,11.6949,4.77734,0,0,0,0,0,0,0,-1,1616,1583,11.6949,-4.77731
399,-559,11.1104,5.56909,0,0,0,0,0,0,0,-1,1623,1583,11.1103,-5.56905
406,-559,10.3385,6.48657,0,0,0,0,0,0,0,-1,1630,1583,10.3385,-6.48661
413,-559,9.76147,6.97571,0,0,0,0,0,0,0,-1,1637,1583,9.76143,-6.97574
420,-559,7.77124,10.5851,0,0,0,0,0,0,0,-1,1644,1583,7.77128,-10.585
427,-559,10.1022,12.5565,0,0,0,0,0,0,0,-1,1651,1583,10.1021,-12.5565
434,-559,9.62769,14.6309,0,0,0,0,0,0,0,-1,1658,1583,9.62771,-14.6309
441,-559,12.6149,21.3678,0,0,0,0,0,0,0,-1,1665,1583,12.6149,-21.3678
448,-559,13.7046,22.6677,0,0,0,0,0,0,0,-1,1672,1583,13.7046,-22.6677
455,-559,13.9427,23.0509,0,0,0,0,0,0,0,-1,1679,1583,13.9427,-23.0509
462,-559,21.9476,42.0568,0,0,0,0,0,0,0,-1,1686,1583,21.9477,-42.0568
469,-559,23.2499,44.8748,0,0,0,0,0,0,0,-1,1693,1583,23.2499,-44.8747
476,-559,23.5303,43.8326,0,0,0,0,0,0,0,-1,1700,1583,23.5303,-43.8327
483,-559,23.5294,43.0131,0.0057318,0.0051081,-0.0034914,0.00892525,0.00191466,-0.740857,0.00542575,0.0151311,1707,1583,23.5294,-43.0131
490,-559,23.4938,42.2157,0.00462111,0.00427059,-0.0028623,0.00731351,0.00157818,-0.754821,0.00444403,0.0158208,1714,1583,23.4938,-42.2157
497,-559,23.4977,41.4403,0.00351375,0.00334658,-0.00227809,0.00570978,0.00115054,-0.767061,0.00348687,0.0200308,1721,1583,23.4977,-41.4403
504,-559,23.3821,40.6633,0.00262331,0.00270115,-0.00188606,0.00454869,0.000775767,-0.795714,0.0028098,0.0257932,1728,1583,23.3821,-40.6633
511,-559,23.3035,39.8303,0.00184248,0.00194018,-0.00145818,0.00335033,0.000432333,-0.802142,0.0021043,0.0224521,1735,1583,23.3035,-39.8303
518,-559,23.3599,39.0073,0.00116653,0.00131966,-0.00118214,0.00242771,5.84752e-05,-0.817738,0.00159934,0.0153461,1742,1583,23.3599,-39.0074
525,-559,23.293,38.2014,0.000549018,0.000663006,-0.000912536,0.00152033,-0.000308302,-0.816586,0.00113042,0.0141745,1749,1583,23.2929,-38.2014
532,-559,23.2473,37.386,8.91425e-05,5.8666e-05,-0.000725268,0.000799333,-0.000651524,-0.774894,0.0008391,0.0153445,1756,1583,23.2474,-37.386
539,-559,23.209,36.5735,-0.000232849,-0.000551059,-0.000596005,0.000224922,-0.00100883,-0.654963,0.000758723,0.019742,1763,1583,23.209,-36.5735
546,-559,23.1188,35.77,-0.0003658,-0.00109565,-0.000545488,-7.44276e-05,-0.00138703,-0.490593,0.0009009,0.0181086,1770,1583,23.1188,-35.77
553,-559,23.1697,34.8743,-0.000394365,-0.00164223,-0.000566187,-0.000175766,-0.00186083,-0.368458,0.00118631,0.02468,1777,1583,23.1696,-34.8743
560,-559,23.1199,33.9585,0,0,0,0,0,0,0,-1,1784,1583,23.1198,-33.9585
567,-559,21.7423,29.5544,0,0,0,0,0,0,0,-1,1791,1583,21.7423,-29.5544
574,-559,10.5109,10.7317,0,0,0,0,0,0,0,-1,1798,1583,10.5108,-10.7317
581,-559,5.97095,5.96179,0,0,0,0,0,0,0,-1,1805,1583,5.97093,-5.96181
588,-559,5.79102,5.89954,0,0,0,0,0,0,0,-1,1812,1583,5.79098,-5.89949
595,-559,5.79089,6.24231,0,0,0,0,0,0,0,-1,1819,1583,5.7909,-6.24227
602,-559,12.478,2.35669,0,0,0,0,0,0,0,-1,1826,1583,12.4781,-2.35675
609,-559,14.0479,1.22681,0,0,0,0,0,0,0,-1,1833,1583,14.0479,-1.22681
616,-559,0,0,0,0,0,0,0,0,0,-1,1840,1583,0,0
623,-559,0,0,0,0,0,0,0,0,0,-1,1847,1583,0,0
630,-559,0,0,0,0,0,0,0,0,0,-1,1854,1583,0,0
637,-559,0,0,0,0,0,0,0,0,0,-1,1861,1583,0,0
644,-559,0,0,0,0,0,0,0,0,0,-1,1868,1583,0,0
651,-559,0,0,0,0,0,0,0,0,0,-1,1875,1583,0,0
658,-559,0,0,0,0,0,0,0,0,0,-1,1882,1583,0,0
665,-559,0,0,0,0,0,0,0,0,0,-1,1889,1583,0,0
672,-559,0,0,0,0,0,0,0,0,0,-1,1896,1583,0,0
679,-559,0,0,0,0,0,0,0,0,0,-1,1903,1583,0,0
686,-559,0,0,0,0,0,0,0,0,0,-1,1910,1583,0,0
693,-559,0,0,0,0,0,0,0,0,0,-1,1917,1583,0,0
700,-559,0,0,0,0,0,0,0,0,0,-1,1924,1583,0,0
707,-559,0,0,0,0,0,0,0,0,0,-1,1931,1583,0,0
714,-559,0,0,0,0,0,0,0,0,0,-1,1938,1583,0,0
721,-559,0,0,0,0,0,0,0,0,0,-1,1945,1583,0,0
728,-559,0,0,0,0,0,0,0,0,0,-1,1952,1583,0,0
735,-559,0,0,0,0,0,0,0,0,0,-1,1959,1583,0,0
742,-559,0,0,0,0,0,0,0,0,0,-1,1966,1583,0,0
749,-559,0,0,0,0,0,0,0,0,0,-1,1973,1583,0,0
756,-559,0,0,0,0,0,0,0,0,0,-1,1980,1583,0,0
763,-559,0,0,0,0,0,0,0,0,0,-1,1987,1583,0,0
770,-559,0,0,0,0,0,0,0,0,0,-1,1994,1583,0,0
777,-559,0,0,0,0,0,0,0,0,0,-1,2001,1583,0,0
784,-559,0,0,0,0,0,0,0,0,0,-1,2008,1583,0,0
791,-559,0,0,0,0,0,0,0,0,0,-1,2015,1583,0,0
798,-559,0,0,0,0,0,0,0,0,0,-1,2022,1583,0,0
805,-559,0,0,0,0,0,0,0,0,0,-1,2029,1583,0,0
812,-559,0,0,0,0,0,0,0,0,0,-1,2036,1583,0,0
-700,-566,0,0,0,0,0,0,0,0,0,-1,524,1590,0,0
-693,-566,0,0,0,0,0,0,0,0,0,-1,531,1590,0,0
-686,-566,0,0,0,0,0,0,0,0,0,-1,538,1590,0,0
-679,-566,0,0,0,0,0,0,0,0,0,-1,545,1590,0,0
-672,-566,0,0,0,0,0,0,0,0,0,-1,552,1590,0,0
-665,-566,0,0,0,0,0,0,0,0,0,-1,559,1590,0,0
-658,-566,0,0,0,0,0,0,0,0,0,-1,566,1590,0,0
-651,-566,0,0,0,0,0,0,0,0,0,-1,573,1590,0,0
-644,-566,0,0,0,0,0,0,0,0,0,-1,580,1590,0,0
-637,-566,0,0,0,0,0,0,0,0,0,-1,587,1590,0,0
-630,-566,0,0,0,0,0,0,0,0,0,-1,594,1590,0,0
-623,-566,0,0,0,0,0,0,0,0,0,-1,601,1590,0,0
-616,-566,0,0,0,0,0,0,0,0,0,-1,608,1590,0,0
-609,-566,0,0,0,0,0,0,0,0,0,-1,615,1590,0,0
-602,-566,0,0,0,0,0,0,0,0,0,-1,622,1590,0,0
-595,-566,0,0,0,0,0,0,0,0,0,-1,629,1590,0,0
-588,-566,0,0,0,0,0,0,0,0,0,-1,636,1590,0,0
-581,-566,0,0,0,0,0,0,0,0,0,-1,643,1590,0,0
-574,-566,0,0,0,0,0,0,0,0,0,-1,650,1590,0,0
-567,-566,0,0,0,0,0,0,0,0,0,-1,657,1590,0,0
-560,-566,0,0,0,0,0,0,0,0,0,-1,664,1590,0,0
-553,-566,0,0,0,0,0,0,0,0,0,-1,671,1590,0,0
-546,-566,0,0,0,0,0,0,0,0,0,-1,678,1590,0,0
-539,-566,0,0,0,0,0,0,0,0,0,-1,685,1590,0,0
-532,-566,0,0,0,0,0,0,0,0,0,-1,692,1590,0,0
-525,-566,0,0,0,0,0,0,0,0,0,-1,699,1590,0,0
-518,-566,0,0,0,0,0,0,0,0,0,-1,706,1590,0,0
-511,-566,0,0,0,0,0,0,0,0,0,-1,713,1590,0,0
-504,-566,0,0,0,0,0,0,0,0,0,-1,720,1590,0,0
-497,-566,0,0,0,0,0,0,0,0,0,-1,727,1590,0,0
-490,-566,0,0,0,0,0,0,0,0,0,-1,734,1590,0,0
-483,-566,-7.17084,2.78613,0,0,0,0,0,0,0,-1,741,1590,-7.17083,-2.78618
-476,-566,-7.13971,2.87183,0,0,0,0,0,0,0,-1,748,1590,-7.13971,-2.87184
-469,-566,-6.43829,3.2998,0,0,0,0,0,0,0,-1,755,1590,-6.43829,-3.2998
-462,-566,-0.459106,3.89343,0,0,0,0,0,0,0,-1,762,1590,-0.459095,-3.89341
-455,-566,0.280212,4.74023,0,0,0,0,0,0,0,-1,769,1590,0.280207,-4.74023
-448,-566,0.436951,5.51306,0,0,0,0,0,0,0,-1,776,1590,0.436971,-5.51301
-441,-566,-0.440735,12.4063,0,0,0,0,0,0,0,-1,783,1590,-0.440753,-12.4062
-434,-566,-3.21851,33.5132,0,0,0,0,0,0,0,-1,790,1590,-3.21853,-33.5132
-427,-566,-3.8623,33.8759,0,0,0,0,0,0,0,-1,797,1590,-3.86232,-33.8758
-420,-566,-4.70508,35.5483,0,0,0,0,0,0,0,-1,804,1590,-4.70509,-35.5483
-413,-566,-4.57013,36.5332,-0.000709048,0.0030605,0.00149477,0.00358129,-0.00122983,1.23554,0.00288617,0.0385554,811,1590,-4.57012,-36.5332
-406,-566,-4.57849,37.4089,-0.000151074,0.0025658,0.00173264,0.00340904,-0.000994314,1.11786,0.00266665,0.0167157,818,1590,-4.57852,-37.4089
-399,-566,-4.61432,38.26,0.000295195,0.00224049,0.00180388,0.00331724,-0.000781559,1.03265,0.00251286,0.012002,825,1590,-4.61433,-38.26
-392,-566,-4.685,39.0812,0.000701672,0.00196371,0.00181079,0.00325029,-0.0005849,0.953057,0.00238584,0.0150845,832,1590,-4.68501,-39.0812
-385,-566,-4.72223,39.939,0.000953632,0.00182823,0.00166491,0.00311231,-0.000330454,0.913825,0.00219334,0.0169355,839,1590,-4.7222,-39.9389
-378,-566,-4.77655,40.774,0.00126625,0.00189617,0.00163596,0.00324721,-8.47905e-05,0.880496,0.00219362,0.0167224,846,1590,-4.77655,-40.774
-371,-566,-4.83661,41.5537,0.00147075,0.00183886,0.00136928,0.0030364,0.000273207,0.852207,0.00193962,0.0232126,853,1590,-4.83662,-41.5537
-364,-566,-4.82947,42.3511,0.00183377,0.00226812,0.0013647,0.00343282,0.000669069,0.864303,0.00210133,0.0228228,860,1590,-4.82944,-42.351
-357,-566,-4.86011,43.1908,0.00231337,0.00292131,0.00143187,0.00408112,0.00115356,0.889991,0.0024293,0.0190785,867,1590,-4.86012,-43.1908
-350,-566,-4.91309,44.0376,0.00294806,0.00367741,0.00165397,0.00500643,0.00161904,0.893903,0.00294996,0.0226803,874,1590,-4.91308,-44.0376
-343,-566,-4.9519,44.8137,0.00349933,0.00426024,0.00186531,0.0057835,0.00197607,0.886001,0.00339445,0.0274253,881,1590,-4.95189,-44.8137
-336,-566,-5.1604,45.6028,0.00421843,0.00538254,0.00239008,0.00726042,0.00234055,0.904839,0.00427907,0.0320931,888,1590,-5.1604,-45.6028
-329,-566,-5.05701,46.3695,0,0,0,0,0,0,0,-1,895,1590,-5.05699,-46.3695
-322,-566,-4.88232,47.3512,0,0,0,0,0,0,0,-1,902,1590,-4.8823,-47.3513
-315,-566,-4.5177,48.3928,0,0,0,0,0,0,0,-1,909,1590,-4.51772,-48.3928
-308,-566,-0.127258,29.7607,0,0,0,0,0,0,0,-1,916,1590,-0.12725,-29.7608
-301,-566,0.424011,30.6545,0,0,0,0,0,0,0,-1,923,1590,0.424036,-30.6546
-294,-566,-2.54523,43.1459,0,0,0,0,0,0,0,-1,930,1590,-2.54522,-43.1458
-287,-566,1.25391,23.4589,0,0,0,0,0,0,0,-1,937,1590,1.2539,-23.4589
-280,-566,1.59406,17.8762,0,0,0,0,0,0,0,-1,944,1590,1.59405,-17.8762
-273,-566,0.49762,11.2427,0,0,0,0,0,0,0,-1,951,1590,0.497591,-11.2426
-266,-566,0.392151,6.90295,0,0,0,0,0,0,0,-1,958,1590,0.392151,-6.90294
-259,-566,0.343628,6.47437,0,0,0,0,0,0,0,-1,965,1590,0.34363,-6.47438
-252,-566,-7.68311,1.01343,0,0,0,0,0,0,0,-1,972,1590,-7.68308,-1.01348
-245,-566,-11.1835,1.97522,0,0,0,0,0,0,0,-1,979,1590,-11.1835,-1.97527
-238,-566,-10.4883,2.40491,0,0,0,0,0,0,0,-1,986,1590,-10.4883,-2.40487
-231,-566,-7.41827,4.22803,0,0,0,0,0,0,0,-1,993,1590,-7.41827,-4.22803
-224,-566,-4.67188,6.30859,0,0,0,0,0,0,0,-1,1000,1590,-4.67185,-6.30853
-217,-566,-2.82867,7.52527,0,0,0,0,0,0,0,-1,1007,1590,-2.82869,-7.52531
-210,-566,-1.03436,8.67737,0,0,0,0,0,0,0,-1,1014,1590,-1.03439,-8.67733
-203,-566,0,0,0,0,0,0,0,0,0,-1,1021,1590,0,0
-196,-566,0,0,0,0,0,0,0,0,0,-1,1028,1590,0,0
-189,-566,0,0,0,0,0,0,0,0,0,-1,1035,1590,0,0
-182,-566,0,0,0,0,0,0,0,0,0,-1,1042,1590,0,0
-175,-566,0,0,0,0,0,0,0,0,0,-1,1049,1590,0,0
-168,-566,0,0,0,0,0,0,0,0,0,-1,1056,1590,0,0
-161,-566,0,0,0,0,0,0,0,0,0,-1,1063,1590,0,0
-154,-566,0,0,0,0,0,0,0,0,0,-1,1070,1590,0,0
-147,-566,0,0,0,0,0,0,0,0,0,-1,1077,1590,0,0
-140,-566,0,0,0,0,0,0,0,0,0,-1,1084,1590,0,0
-133,-566,0,0,0,0,0,0,0,0,0,-1,1091,1590,0,0
-126,-566,0,0,0,0,0,0,0,0,0,-1,1098,1590,0,0
-119,-566,0,0,0,0,0,0,0,0,0,-1,1105,1590,0,0
-112,-566,0,0,0,0,0,0,0,0,0,-1,1112,1590,0,0
-105,-566,0,0,0,0,0,0,0,0,0,-1,1119,1590,0,0
-98,-566,0,0,0,0,0,0,0,0,0,-1,1126,1590,0,0
-91,-566,0,0,0,0,0,0,0,0,0,-1,1133,1590,0,0
-84,-566,0,0,0,0,0,0,0,0,0,-1,1140,1590,0,0
-77,-566,0,0,0,0,0,0,0,0,0,-1,1147,1590,0,0
-70,-566,0,0,0,0,0,0,0,0,0,-1,1154,1590,0,0
-63,-566,0,0,0,0,0,0,0,0,0,-1,1161,1590,0,0
-56,-566,0,0,0,0,0,0,0,0,0,-1,1168,1590,0,0
-49,-566,0,0,0,0,0,0,0,0,0,-1,1175,1590,0,0
-42,-566,0,0,0,0,0,0,0,0,0,-1,1182,1590,0,0
-35,-566,0,0,0,0,0,0,0,0,0,-1,1189,1590,0,0
-28,-566,0,0,0,0,0,0,0,0,0,-1,1196,1590,0,0
-21,-566,0,0,0,0,0,0,0,0,0,-1,1203,1590,0,0
-14,-566,0,0,0,0,0,0,0,0,0,-1,1210,1590,0,0
-7,-566,0,0,0,0,0,0,0,0,0,-1,1217,1590,0,0
0,-566,0,0,0,0,0,0,0,0,0,-1,1224,1590,0,0
7,-566,0,0,0,0,0,0,0,0,0,-1,1231,1590,0,0
14,-566,0,0,0,0,0,0,0,0,0,-1,1238,1590,0,0
21,-566,0,0,0,0,0,0,0,0,0,-1,1245,1590,0,0
28,-566,0,0,0,0,0,0,0,0,0,-1,1252,1590,0,0
35,-566,0,0,0,0,0,0,0,0,0,-1,1259,1590,0,0
42,-566,0,0,0,0,0,0,0,0,0,-1,1266,1590,0,0
49,-566,0,0,0,0,0,0,0,0,0,-1,1273,1590,0,0
56,-566,0,0,0,0,0,0,0,0,0,-1,1280,1590,0,0
63,-566,0,0,0,0,0,0,0,0,0,-1,1287,1590,0,0
70,-566,0,0,0,0,0,0,0,0,0,-1,1294,1590,0,0
77,-566,0,0,0,0,0,0,0,0,0,-1,1301,1590,0,0
84,-566,0,0,0,0,0,0,0,0,0,-1,1308,1590,0,0
91,-566,0,0,0,0,0,0,0,0,0,-1,1315,1590,0,0
98,-566,0,0,0,0,0,0,0,0,0,-1,1322,1590,0,0
105,-566,0,0,0,0,0,0,0,0,0,-1,1329,1590,0,0
112,-566,0,0,0,0,0,0,0,0,0,-1,1336,1590,0,0
119,-566,0,0,0,0,0,0,0,0,0,-1,1343,1590,0,0
126,-566,0,0,0,0,0,0,0,0,0,-1,1350,1590,0,0
133,-566,0,0,0,0,0,0,0,0,0,-1,1357,1590,0,0
140,-566,0,0,0,0,0,0,0,0,0,-1,1364,1590,0,0
147,-566,0,0,0,0,0,0,0,0,0,-1,1371,1590,0,0
154,-566,0,0,0,0,0,0,0,0,0,-1,1378,1590,0,0
161,-566,0,0,0,0,0,0,0,0,0,-1,1385,1590,0,0
168,-566,0,0,0,0,0,0,0,0,0,-1,1392,1590,0,0
175,-566,0,0,0,0,0,0,0,0,0,-1,1399,1590,0,0
182,-566,0,0,0,0,0,0,0,0,0,-1,1406,1590,0,0
189,-566,0,0,0,0,0,0,0,0,0,-1,1413,1590,0,0
196,-566,0,0,0,0,0,0,0,0,0,-1,1420,1590,0,0
203,-566,0,0,0,0,0,0,0,0,0,-1,1427,1590,0,0
210,-566,0,0,0,0,0,0,0,0,0,-1,1434,1590,0,0
217,-566,0,0,0,0,0,0,0,0,0,-1,1441,1590,0,0
224,-566,0,0,0,0,0,0,0,0,0,-1,1448,1590,0,0
231,-566,0,0,0,0,0,0,0,0,0,-1,1455,1590,0,0
238,-566,0,0,0,0,0,0,0,0,0,-1,1462,1590,0,0
245,-566,0,0,0,0,0,0,0,0,0,-1,1469,1590,0,0
252,-566,0,0,0,0,0,0,0,0,0,-1,1476,1590,0,0
259,-566,0,0,0,0,0,0,0,0,0,-1,1483,1590,0,0
266,-566,0,0,0,0,0,0,0,0,0,-1,1490,1590,0,0
273,-566,0,0,0,0,0,0,0,0,0,-1,1497,1590,0,0
280,-566,0,0,0,0,0,0,0,0,0,-1,1504,1590,0,0
287,-566,0,0,0,0,0,0,0,0,0,-1,1511,1590,0,0
294,-566,0,0,0,0,0,0,0,0,0,-1,1518,1590,0,0
301,-566,0,0,0,0,0,0,0,0,0,-1,1525,1590,0,0
308,-566,0,0,0,0,0,0,0,0,0,-1,1532,1590,0,0
315,-566,0,0,0,0,0,0,0,0,0,-1,1539,1590,0,0
322,-566,6.07983,4.44873,0,0,0,0,0,0,0,-1,1546,1590,6.07983,-4.44873
329,-566,5.77026,3.47534,0,0,0,0,0,0,0,-1,1553,1590,5.77026,-3.47535
336,-566,5.41138,2.62915,0,0,0,0,0,0,0,-1,1560,1590,5.41138,-2.62909
343,-566,4.81873,1.79089,0,0,0,0,0,0,0,-1,1567,1590,4.81878,-1.79095
350,-566,24.2104,52.894,0,0,0,0,0,0,0,-1,1574,1590,24.2105,-52.8941
357,-566,6.34058,5.18579,0,0,0,0,0,0,0,-1,1581,1590,6.34059,-5.1858
364,-566,20.2629,51.015,0,0,0,0,0,0,0,-1,1588,1590,20.2629,-51.0151
371,-566,21.1536,52.8204,0,0,0,0,0,0,0,-1,1595,1590,21.1535,-52.8205
378,-566,22.0442,54.6259,0,0,0,0,0,0,0,-1,1602,1590,22.0442,-54.6259
385,-566,5.67615,-0.573975,0,0,0,0,0,0,0,-1,1609,1590,5.67612,0.573956
392,-566,5.78638,1.82434,0,0,0,0,0,0,0,-1,1616,1590,5.78637,-1.82439
399,-566,18.6853,38.6455,0,0,0,0,0,0,0,-1,1623,1590,18.6853,-38.6456
406,-566,4.30359,5.26868,0,0,0,0,0,0,0,-1,1630,1590,4.30364,-5.26867
413,-566,4.27124,5.79492,0,0,0,0,0,0,0,-1,1637,1590,4.27123,-5.7949
420,-566,18.0121,32.5314,0,0,0,0,0,0,0,-1,1644,1590,18.0121,-32.5313
427,-566,19.4491,36.9315,0,0,0,0,0,0,0,-1,1651,1590,19.4491,-36.9315
434,-566,19.338,36.7385,0,0,0,0,0,0,0,-1,1658,1590,19.338,-36.7386
441,-566,15.5841,27.5869,0,0,0,0,0,0,0,-1,1665,1590,15.5842,-27.587
448,-566,21.8796,45.052,0,0,0,0,0,0,0,-1,1672,1590,21.8797,-45.052
455,-566,22.5193,46.7629,0,0,0,0,0,0,0,-1,1679,1590,22.5193,-46.7629
462,-566,22.5878,45.6105,0,0,0,0,0,0,0,-1,1686,1590,22.5878,-45.6105
469,-566,22.6759,44.7188,0.00614015,0.00556202,-0.00350741,0.00937039,0.00233179,-0.744283,0.0056329,0.0221183,1693,1590,22.6759,-44.7188
476,-566,22.7411,43.8507,0.00530286,0.00457869,-0.00315279,0.00811428,0.00176727,-0.728226,0.00492724,0.0116125,1700,1590,22.741,-43.8506
483,-566,22.7189,43.0543,0.00436217,0.00375793,-0.00266226,0.0067394,0.00138069,-0.728899,0.00411073,0.0121512,1707,1590,22.7189,-43.0543
490,-566,22.6853,42.2537,0.00343069,0.00308736,-0.00220623,0.00547192,0.00104613,-0.746571,0.00335407,0.0135251,1714,1590,22.6852,-42.2536
497,-566,22.6912,41.4857,0.00249841,0.0023573,-0.00179128,0.00422053,0.000635188,-0.765714,0.00262767,0.0169956,1721,1590,22.6912,-41.4857
504,-566,22.6086,40.6997,0.00172506,0.0017718,-0.00149908,0.00324769,0.00024917,-0.793192,0.00208703,0.0220066,1728,1590,22.6086,-40.6997
511,-566,22.5269,39.8865,0.00102973,0.00111985,-0.00115745,0.00223312,-8.35342e-05,-0.804853,0.00151736,0.0217692,1735,1590,22.5268,-39.8864
518,-566,22.5303,39.075,0.000418206,0.000562542,-0.00093351,0.00142667,-0.000445921,-0.823976,0.00112949,0.0129214,1742,1590,22.5302,-39.075
525,-566,22.4728,38.248,-0.000130054,-2.96783e-05,-0.000721656,0.000643532,-0.000803265,-0.820115,0.000837004,0.0118421,1749,1590,22.4728,-38.248
532,-566,22.4229,37.4128,-0.000536326,-0.000611727,-0.000568776,-4.00248e-06,-0.00114405,-0.752304,0.00076137,0.013744,1756,1590,22.4228,-37.4129
539,-566,22.391,36.5684,-0.00084721,-0.00124851,-0.000450736,-0.000554482,-0.00154124,-0.575985,0.000901428,0.019833,1763,1590,22.391,-36.5684
546,-566,22.4402,35.693,-0.000936372,-0.00180309,-0.000413559,-0.000770707,-0.00196876,-0.381011,0.00114555,0.0253678,1770,1590,22.4402,-35.693
553,-566,22.3944,35.0815,-0.000963326,-0.00240543,-0.000439595,-0.000839891,-0.00252886,-0.273746,0.00148722,0.0390565,1777,1590,22.3944,-35.0816
560,-566,22.1698,34.459,0,0,0,0,0,0,0,-1,1784,1590,22.1699,-34.459
567,-566,22.1873,33.7157,0,0,0,0,0,0,0,-1,1791,1590,22.1873,-33.7156
574,-566,7.99548,3.14514,0,0,0,0,0,0,0,-1,1798,1590,7.99543,-3.14511
581,-566,2.54102,5.1311,0,0,0,0,0,0,0,-1,1805,1590,2.54099,-5.13111
588,-566,-1.91321,8.39197,0,0,0,0,0,0,0,-1,1812,1590,-1.91316,-8.39199
595,-566,9.0271,4.66467,0,0,0,0,0,0,0,-1,1819,1590,9.02705,-4.66468
602,-566,9.953,3.54895,0,0,0,0,0,0,0,-1,1826,1590,9.953,-3.54898
609,-566,0,0,0,0,0,0,0,0,0,-1,1833,1590,0,0
616,-566,0,0,0,0,0,0,0,0,0,-1,1840,1590,0,0
623,-566,0,0,0,0,0,0,0,0,0,-1,1847,1590,0,0
630,-566,0,0,0,0,0,0,0,0,0,-1,1854,1590,0,0
637,-566,0,0,0,0,0,0,0,0,0,-1,1861,1590,0,0
644,-566,0,0,0,0,0,0,0,0,0,-1,1868,1590,0,0
651,-566,0,0,0,0,0,0,0,0,0,-1,1875,1590,0,0
658,-566,0,0,0,0,0,0,0,0,0,-1,1882,1590,0,0
665,-566,0,0,0,0,0,0,0,0,0,-1,1889,1590,0,0
672,-566,0,0,0,0,0,0,0,0,0,-1,1896,1590,0,0
679,-566,0,0,0,0,0,0,0,0,0,-1,1903,1590,0,0
686,-566,0,0,0,0,0,0,0,0,0,-1,1910,1590,0,0
693,-566,0,0,0,0,0,0,0,0,0,-1,1917,1590,0,0
700,-566,0,0,0,0,0,0,0,0,0,-1,1924,1590,0,0
707,-566,0,0,0,0,0,0,0,0,0,-1,1931,1590,0,0
714,-566,0,0,0,0,0,0,0,0,0,-1,1938,1590,0,0
721,-566,0,0,0,0,0,0,0,0,0,-1,1945,1590,0,0
728,-566,0,0,0,0,0,0,0,0,0,-1,1952,1590,0,0
735,-566,0,0,0,0,0,0,0,0,0,-1,1959,1590,0,0
742,-566,0,0,0,0,0,0,0,0,0,-1,1966,1590,0,0
749,-566,0,0,0,0,0,0,0,0,0,-1,1973,1590,0,0
756,-566,0,0,0,0,0,0,0,0,0,-1,1980,1590,0,0
763,-566,0,0,0,0,0,0,0,0,0,-1,1987,1590,0,0
770,-566,0,0,0,0,0,0,0,0,0,-1,1994,1590,0,0
777,-566,0,0,0,0,0,0,0,0,0,-1,2001,1590,0,0
784,-566,0,0,0,0,0,0,0,0,0,-1,2008,1590,0,0
791,-566,0,0,0,0,0,0,0,0,0,-1,2015,1590,0,0
798,-566,0,0,0,0,0,0,0,0,0,-1,2022,1590,0,0
805,-566,0,0,0,0,0,0,0,0,0,-1,2029,1590,0,0
812,-566,0,0,0,0,0,0,0,0,0,-1,2036,1590,0,0
-700,-573,0,0,0,0,0,0,0,0,0,-1,524,1597,0,0
-693,-573,0,0,0,0,0,0,0,0,0,-1,531,1597,0,0
-686,-573,0,0,0,0,0,0,0,0,0,-1,538,1597,0,0
-679,-573,0,0,0,0,0,0,0,0,0,-1,545,1597,0,0
-672,-573,0,0,0,0,0,0,0,0,0,-1,552,1597,0,0
-665,-573,0,0,0,0,0,0,0,0,0,-1,559,1597,0,0
-658,-573,0,0,0,0,0,0,0,0,0,-1,566,1597,0,0
-651,-573,0,0,0,0,0,0,0,0,0,-1,573,1597,0,0
-644,-573,0,0,0,0,0,0,0,0,0,-1,580,1597,0,0
-637,-573,0,0,0,0,0,0,0,0,0,-1,587,1597,0,0
-630,-573,0,0,0,0,0,0,0,0,0,-1,594,1597,0,0
-623,-573,0,0,0,0,0,0,0,0,0,-1,601,1597,0,0
-616,-573,0,0,0,0,0,0,0,0,0,-1,608,1597,0,0
-609,-573,0,0,0,0,0,0,0,0,0,-1,615,1597,0,0
-602,-573,0,0,0,0,0,0,0,0,0,-1,622,1597,0,0
-595,-573,0,0,0,0,0,0,0,0,0,-1,629,1597,0,0
-588,-573,0,0,0,0,0,0,0,0,0,-1,636,1597,0,0
-581,-573,0,0,0,0,0,0,0,0,0,-1,643,1597,0,0
-574,-573,0,0,0,0,0,0,0,0,0,-1,650,1597,0,0
-567,-573,0,0,0,0,0,0,0,0,0,-1,657,1597,0,0
-560,-573,0,0,0,0,0,0,0,0,0,-1,664,1597,0,0
-553,-573,0,0,0,0,0,0,0,0,0,-1,671,1597,0,0
-546,-573,0,0,0,0,0,0,0,0,0,-1,678,1597,0,0
-539,-573,0,0,0,0,0,0,0,0,0,-1,685,1597,0,0
-532,-573,0,0,0,0,0,0,0,0,0,-1,692,1597,0,0
-525,-573,0,0,0,0,0,0,0,0,0,-1,699,1597,0,0
-518,-573,0,0,0,0,0,0,0,0,0,-1,706,1597,0,0
-511,-573,0,0,0,0,0,0,0,0,0,-1,713,1597,0,0
-504,-573,0,0,0,0,0,0,0,0,0,-1,720,1597,0,0
-497,-573,0,0,0,0,0,0,0,0,0,-1,727,1597,0,0
-490,-573,0,0,0,0,0,0,0,0,0,-1,734,1597,0,0
-483,-573,0,0,0,0,0,0,0,0,0,-1,741,1597,0,0
-476,-573,-9.3327,0.972778,0,0,0,0,0,0,0,-1,748,1597,-9.33268,-0.972776
-469,-573,-1.41681,1.13379,0,0,0,0,0,0,0,-1,755,1597,-1.41681,-1.13382
-462,-573,-0.748535,2.02588,0,0,0,0,0,0,0,-1,762,1597,-0.748533,-2.02584
-455,-573,-0.112976,2.70703,0,0,0,0,0,0,0,-1,769,1597,-0.112988,-2.70697
-448,-573,-1.26172,3.33252,0,0,0,0,0,0,0,-1,776,1597,-1.26173,-3.33248
-441,-573,0.108582,5.06726,0,0,0,0,0,0,0,-1,783,1597,0.108584,-5.06721
-434,-573,1.61768,7.05444,0,0,0,0,0,0,0,-1,790,1597,1.61767,-7.05446
-427,-573,-1.37927,24.4124,0,0,0,0,0,0,0,-1,797,1597,-1.37928,-24.4124
-420,-573,-1.15186,28.0936,0,0,0,0,0,0,0,-1,804,1597,-1.15185,-28.0936
-413,-573,-3.87128,36.2141,0,0,0,0,0,0,0,-1,811,1597,-3.87128,-36.2141
-406,-573,-3.75977,37.3202,-0.000105816,0.00348135,0.00261451,0.00485835,-0.00148282,1.08604,0.00383008,0.0498324,818,1597,-3.75974,-37.3202
-399,-573,-3.81433,38.3005,0.00022564,0.00292135,0.00259104,0.00449415,-0.00134716,1.02524,0.00353186,0.0200962,825,1597,-3.81433,-38.3005
-392,-573,-3.84668,39.1692,0.000575048,0.00241359,0.00249963,0.00415763,-0.00116899,0.961604,0.00323265,0.0146455,832,1597,-3.8467,-39.1692
-385,-573,-3.92657,40.0094,0.000793895,0.0021132,0.00227284,0.00382018,-0.000913088,0.926634,0.00289948,0.0160802,839,1597,-3.92658,-40.0093
-378,-573,-3.95831,40.8154,0.00105129,0.0020275,0.00216194,0.00375575,-0.000676963,0.896423,0.00275733,0.0160595,846,1597,-3.95831,-40.8155
-371,-573,-3.98279,41.6176,0.00115777,0.00177326,0.00177389,0.0032659,-0.00033487,0.871287,0.00229704,0.0169872,853,1597,-3.98278,-41.6175
-364,-573,-4.00146,42.415,0.00138222,0.00192279,0.0015915,0.00326679,3.82131e-05,0.86951,0.00216524,0.0201738,860,1597,-4.00146,-42.415
-357,-573,-4.0564,43.231,0.0017704,0.00231573,0.00151466,0.00358207,0.000504058,0.874454,0.00223902,0.023999,867,1597,-4.05639,-43.231
-350,-573,-4.09229,44.0895,0.00233271,0.00278719,0.0015846,0.00416077,0.000959141,0.856615,0.00251583,0.0185493,874,1597,-4.09232,-44.0894
-343,-573,-4.12866,44.8883,0.00285189,0.00319263,0.00168538,0.00471622,0.00132829,0.835772,0.00280813,0.0224396,881,1597,-4.12869,-44.8883
-336,-573,-4.21704,45.6926,0.00351122,0.00407198,0.00206655,0.00587709,0.00170612,0.852823,0.00349119,0.0183433,888,1597,-4.21702,-45.6926
-329,-573,-4.20734,46.4771,0.00438621,0.00491585,0.00252137,0.00718627,0.00211579,0.837722,0.00426429,0.0201928,895,1597,-4.20733,-46.4771
-322,-573,-4.26257,47.293,0.00540395,0.00597818,0.00326528,0.00896894,0.00241319,0.829251,0.00535917,0.0197875,902,1597,-4.26257,-47.2929
-315,-573,-4.0744,48.3679,0.0062953,0.00747328,0.00413917,0.0110652,0.00270343,0.856072,0.00666107,0.0491474,909,1597,-4.0744,-48.3679
-308,-573,-4.27393,49.5399,0,0,0,0,0,0,0,-1,916,1597,-4.27395,-49.5399
-301,-573,-3.97321,49.9426,0,0,0,0,0,0,0,-1,923,1597,-3.97322,-49.9426
-294,-573,-3.89948,50.4868,0,0,0,0,0,0,0,-1,930,1597,-3.89947,-50.4868
-287,-573,-2.00739,43.4723,0,0,0,0,0,0,0,-1,937,1597,-2.00739,-43.4723
-280,-573,1.19684,26.4906,0,0,0,0,0,0,0,-1,944,1597,1.19685,-26.4906
-273,-573,2.24805,25.4375,0,0,0,0,0,0,0,-1,951,1597,2.24803,-25.4374
-266,-573,1.31116,7.1814,0,0,0,0,0,0,0,-1,958,1597,1.31118,-7.18142
-259,-573,1.2514,6.70959,0,0,0,0,0,0,0,-1,965,1597,1.25137,-6.70965
-252,-573,2.07874,5.27161,0,0,0,0,0,0,0,-1,972,1597,2.07875,-5.27157
-245,-573,-10.2592,1.09827,0,0,0,0,0,0,0,-1,979,1597,-10.2592,-1.09823
-238,-573,-11.5463,4.44141,0,0,0,0,0,0,0,-1,986,1597,-11.5463,-4.44146
-231,-573,-9.23431,4.14539,0,0,0,0,0,0,0,-1,993,1597,-9.23431,-4.14534
-224,-573,-6.70044,7.40857,0,0,0,0,0,0,0,-1,1000,1597,-6.70045,-7.40851
-217,-573,-4.25824,8.59119,0,0,0,0,0,0,0,-1,1007,1597,-4.25824,-8.59122
-210,-573,-2.39661,9.73914,0,0,0,0,0,0,0,-1,1014,1597,-2.39658,-9.73915
-203,-573,-0.557373,10.9005,0,0,0,0,0,0,0,-1,1021,1597,-0.557387,-10.9006
-196,-573,-1.65344,9.02246,0,0,0,0,0,0,0,-1,1028,1597,-1.65349,-9.02241
-189,-573,-6.12915,6.66882,0,0,0,0,0,0,0,-1,1035,1597,-6.12913,-6.66884
-182,-573,0,0,0,0,0,0,0,0,0,-1,1042,1597,0,0
-175,-573,0,0,0,0,0,0,0,0,0,-1,1049,1597,0,0
-168,-573,0,0,0,0,0,0,0,0,0,-1,1056,1597,0,0
-161,-573,0,0,0,0,0,0,0,0,0,-1,1063,1597,0,0
-154,-573,0,0,0,0,0,0,0,0,0,-1,1070,1597,0,0
-147,-573,0,0,0,0,0,0,0,0,0,-1,1077,1597,0,0
-140,-573,0,0,0,0,0,0,0,0,0,-1,1084,1597,0,0
-133,-573,0,0,0,0,0,0,0,0,0,-1,1091,1597,0,0
-126,-573,0,0,0,0,0,0,0,0,0,-1,1098,1597,0,0
-119,-573,0,0,0,0,0,0,0,0,0,-1,1105,1597,0,0
-112,-573,0,0,0,0,0,0,0,0,0,-1,1112,1597,0,0
-105,-573,0,0,0,0,0,0,0,0,0,-1,1119,1597,0,0
-98,-573,0,0,0,0,0,0,0,0,0,-1,1126,1597,0,0
-91,-573,0,0,0,0,0,0,0,0,0,-1,1133,1597,0,0
-84,-573,0,0,0,0,0,0,0,0,0,-1,1140,1597,0,0
-77,-573,0,0,0,0,0,0,0,0,0,-1,1147,1597,0,0
-70,-573,0,0,0,0,0,0,0,0,0,-1,1154,1597,0,0
-63,-573,0,0,0,0,0,0,0,0,0,-1,1161,1597,0,0
-56,-573,0,0,0,0,0,0,0,0,0,-1,1168,1597,0,0
-49,-573,0,0,0,0,0,0,0,0,0,-1,1175,1597,0,0
-42,-573,0,0,0,0,0,0,0,0,0,-1,1182,1597,0,0
-35,-573,0,0,0,0,0,0,0,0,0,-1,1189,1597,0,0
-28,-573,0,0,0,0,0,0,0,0,0,-1,1196,1597,0,0
-21,-573,0,0,0,0,0,0,0,0,0,-1,1203,1597,0,0
-14,-573,0,0,0,0,0,0,0,0,0,-1,1210,1597,0,0
-7,-573,0,0,0,0,0,0,0,0,0,-1,1217,1597,0,0
0,-573,0,0,0,0,0,0,0,0,0,-1,1224,1597,0,0
7,-573,0,0,0,0,0,0,0,0,0,-1,1231,1597,0,0
14,-573,0,0,0,0,0,0,0,0,0,-1,1238,1597,0,0
21,-573,0,0,0,0,0,0,0,0,0,-1,1245,1597,0,0
28,-573,0,0,0,0,0,0,0,0,0,-1,1252,1597,0,0
35,-573,0,0,0,0,0,0,0,0,0,-1,1259,1597,0,0
42,-573,0,0,0,0,0,0,0,0,0,-1,1266,1597,0,0
49,-573,0,0,0,0,0,0,0,0,0,-1,1273,1597,0,0
56,-573,0,0,0,0,0,0,0,0,0,-1,1280,1597,0,0
63,-573,0,0,0,0,0,0,0,0,0,-1,1287,1597,0,0
70,-573,0,0,0,0,0,0,0,0,0,-1,1294,1597,0,0
77,-573,0,0,0,0,0,0,0,0,0,-1,1301,1597,0,0
84,-573,0,0,0,0,0,0,0,0,0,-1,1308,1597,0,0
91,-573,0,0,0,0,0,0,0,0,0,-1,1315,1597,0,0
98,-573,0,0,0,0,0,0,0,0,0,-1,1322,1597,0,0
105,-573,0,0,0,0,0,0,0,0,0,-1,1329,1597,0,0
112,-573,0,0,0,0,0,0,0,0,0,-1,1336,1597,0,0
119,-573,0,0,0,0,0,0,0,0,0,-1,1343,1597,0,0
126,-573,0,0,0,0,0,0,0,0,0,-1,1350,1597,0,0
133,-573,0,0,0,0,0,0,0,0,0,-1,1357,1597,0,0
140,-573,0,0,0,0,0,0,0,0,0,-1,1364,1597,0,0
147,-573,0,0,0,0,0,0,0,0,0,-1,1371,1597,0,0
154,-573,0,0,0,0,0,0,0,0,0,-1,1378,1597,0,0
161,-573,0,0,0,0,0,0,0,0,0,-1,1385,1597,0,0
168,-573,0,0,0,0,0,0,0,0,0,-1,1392,1597,0,0
175,-573,0,0,0,0,0,0,0,0,0,-1,1399,1597,0,0
182,-573,0,0,0,0,0,0,0,0,0,-1,1406,1597,0,0
189,-573,0,0,0,0,0,0,0,0,0,-1,1413,1597,0,0
196,-573,0,0,0,0,0,0,0,0,0,-1,1420,1597,0,0
203,-573,0,0,0,0,0,0,0,0,0,-1,1427,1597,0,0
210,-573,0,0,0,0,0,0,0,0,0,-1,1434,1597,0,0
217,-573,0,0,0,0,0,0,0,0,0,-1,1441,1597,0,0
224,-573,0,0,0,0,0,0,0,0,0,-1,1448,1597,0,0
231,-573,0,0,0,0,0,0,0,0,0,-1,1455,1597,0,0
238,-573,0,0,0,0,0,0,0,0,0,-1,1462,1597,0,0
245,-573,0,0,0,0,0,0,0,0,0,-1,1469,1597,0,0
252,-573,0,0,0,0,0,0,0,0,0,-1,1476,1597,0,0
259,-573,0,0,0,0,0,0,0,0,0,-1,1483,1597,0,0
266,-573,0,0,0,0,0,0,0,0,0,-1,1490,1597,0,0
273,-573,0,0,0,0,0,0,0,0,0,-1,1497,1597,0,0
280,-573,0,0,0,0,0,0,0,0,0,-1,1504,1597,0,0
287,-573,0,0,0,0,0,0,0,0,0,-1,1511,1597,0,0
294,-573,0,0,0,0,0,0,0,0,0,-1,1518,1597,0,0
301,-573,0,0,0,0,0,0,0,0,0,-1,1525,1597,0,0
308,-573,5.93042,9.71143,0,0,0,0,0,0,0,-1,1532,1597,5.93046,-9.71144
315,-573,4.34204,11.719,0,0,0,0,0,0,0,-1,1539,1597,4.34205,-11.719
322,-573,10.3269,7.77563,0,0,0,0,0,0,0,-1,1546,1597,10.327,-7.77565
329,-573,4.99573,3.80273,0,0,0,0,0,0,0,-1,1553,1597,4.9957,-3.80273
336,-573,4.85693,2.53455,0,0,0,0,0,0,0,-1,1560,1597,4.8569,-2.53459
343,-573,21.4159,52.1832,0,0,0,0,0,0,0,-1,1567,1597,21.4159,-52.1833
350,-573,21.6807,52.4836,0,0,0,0,0,0,0,-1,1574,1597,21.6806,-52.4836
357,-573,25.8444,54.9121,0,0,0,0,0,0,0,-1,1581,1597,25.8443,-54.9121
364,-573,20.4135,51.7916,0,0,0,0,0,0,0,-1,1588,1597,20.4134,-51.7917
371,-573,21.2791,53.4451,0,0,0,0,0,0,0,-1,1595,1597,21.279,-53.445
378,-573,22.1105,55.1304,0,0,0,0,0,0,0,-1,1602,1597,22.1104,-55.1304
385,-573,6.54346,-0.951904,0,0,0,0,0,0,0,-1,1609,1597,6.54349,0.951901
392,-573,17.5164,38.3645,0,0,0,0,0,0,0,-1,1616,1597,17.5164,-38.3645
399,-573,20.5255,42.9893,0,0,0,0,0,0,0,-1,1623,1597,20.5255,-42.9893
406,-573,22.5132,48.6315,0,0,0,0,0,0,0,-1,1630,1597,22.5132,-48.6315
413,-573,19.0908,43.9061,0,0,0,0,0,0,0,-1,1637,1597,19.0908,-43.9062
420,-573,18.8063,37.0011,0,0,0,0,0,0,0,-1,1644,1597,18.8063,-37.0011
427,-573,20.4286,42.2079,0,0,0,0,0,0,0,-1,1651,1597,20.4285,-42.2079
434,-573,22.259,48.9795,0,0,0,0,0,0,0,-1,1658,1597,22.259,-48.9795
441,-573,21.897,48.3784,0,0,0,0,0,0,0,-1,1665,1597,21.897,-48.3784
448,-573,21.9131,47.3971,0,0,0,0,0,0,0,-1,1672,1597,21.9131,-47.397
455,-573,21.9606,46.3999,0.00612765,0.00560762,-0.00318968,0.0090679,0.00266737,-0.74473,0.00538121,0.0387151,1679,1597,21.9605,-46.3998
462,-573,22.0258,45.4271,0.00533515,0.00495353,-0.00292222,0.00807278,0.0022159,-0.752797,0.00481625,0.0238856,1686,1597,22.0257,-45.4271
469,-573,22.009,44.6436,0.00468375,0.0041322,-0.00269865,0.00712068,0.00169527,-0.73448,0.00429504,0.0153117,1693,1597,22.009,-44.6435
476,-573,21.9878,43.88,0.00397872,0.00336909,-0.00245847,0.0061512,0.0011966,-0.72372,0.00376584,0.0145969,1700,1597,21.9877,-43.88
483,-573,21.979,43.1021,0.00320276,0.00266171,-0.00212063,0.00507005,0.000794425,-0.721956,0.00314881,0.0141196,1707,1597,21.979,-43.1021
490,-573,21.9183,42.2979,0.00243205,0.00211383,-0.0017986,0.00407856,0.000467316,-0.741282,0.00257743,0.0159056,1714,1597,21.9183,-42.2979
497,-573,21.8862,41.4871,0.00164944,0.00152909,-0.00151069,0.00310116,7.73773e-05,-0.765492,0.00204213,0.0237067,1721,1597,21.8863,-41.487
504,-573,21.8434,40.6991,0.000968539,0.000977232,-0.00128475,0.00225764,-0.000311869,-0.78709,0.00161909,0.0190777,1728,1597,21.8433,-40.6991
511,-573,21.7831,39.8702,0.000341343,0.000416443,-0.00101476,0.00139435,-0.000636564,-0.803892,0.00119945,0.0199071,1735,1597,21.7831,-39.8703
518,-573,21.7168,39.0992,-0.000222187,-9.9283e-05,-0.000821165,0.000662726,-0.000984197,-0.822746,0.00095687,0.0153614,1742,1597,21.7168,-39.0992
525,-573,21.6678,38.2859,-0.000711885,-0.000646591,-0.000644173,-3.42378e-05,-0.00132424,-0.810717,0.000871637,0.0173679,1749,1597,21.6679,-38.2859
532,-573,21.6454,37.4478,-0.00107565,-0.00124239,-0.000484836,-0.000667066,-0.00165097,-0.700255,0.000959021,0.0165176,1756,1597,21.6453,-37.4478
539,-573,21.5526,36.6344,-0.0013251,-0.0019611,-0.000354842,-0.00116662,-0.00211959,-0.420047,0.00122581,0.0334177,1763,1597,21.5526,-36.6343
546,-573,21.7573,35.6918,0,0,0,0,0,0,0,-1,1770,1597,21.7573,-35.6918
553,-573,21.4302,35.2894,0,0,0,0,0,0,0,-1,1777,1597,21.4302,-35.2894
560,-573,21.0951,34.6008,0,0,0,0,0,0,0,-1,1784,1597,21.0951,-34.6008
567,-573,19.8645,28.3368,0,0,0,0,0,0,0,-1,1791,1597,19.8645,-28.3368
574,-573,0.83374,5.7041,0,0,0,0,0,0,0,-1,1798,1597,0.833718,-5.70405
581,-573,-0.224854,7.41602,0,0,0,0,0,0,0,-1,1805,1597,-0.224904,-7.41596
588,-573,-0.134033,7.67065,0,0,0,0,0,0,0,-1,1812,1597,-0.134037,-7.67063
595,-573,-0.0825195,8.35083,0,0,0,0,0,0,0,-1,1819,1597,-0.0824684,-8.35088
602,-573,0,0,0,0,0,0,0,0,0,-1,1826,1597,0,0
609,-573,0,0,0,0,0,0,0,0,0,-1,1833,1597,0,0
616,-573,0,0,0,0,0,0,0,0,0,-1,1840,1597,0,0
623,-573,0,0,0,0,0,0,0,0,0,-1,1847,1597,0,0
630,-573,0,0,0,0,0,0,0,0,0,-1,1854,1597,0,0
637,-573,0,0,0,0,0,0,0,0,0,-1,1861,1597,0,0
644,-573,0,0,0,0,0,0,0,0,0,-1,1868,1597,0,0
651,-573,0,0,0,0,0,0,0,0,0,-1,1875,1597,0,0
658,-573,0,0,0,0,0,0,0,0,0,-1,1882,1597,0,0
665,-573,0,0,0,0,0,0,0,0,0,-1,1889,1597,0,0
672,-573,0,0,0,0,0,0,0,0,0,-1,1896,1597,0,0
679,-573,0,0,0,0,0,0,0,0,0,-1,1903,1597,0,0
686,-573,0,0,0,0,0,0,0,0,0,-1,1910,1597,0,0
693,-573,0,0,0,0,0,0,0,0,0,-1,1917,1597,0,0
700,-573,0,0,0,0,0,0,0,0,0,-1,1924,1597,0,0
707,-573,0,0,0,0,0,0,0,0,0,-1,1931,1597,0,0
714,-573,0,0,0,0,0,0,0,0,0,-1,1938,1597,0,0
721,-573,0,0,0,0,0,0,0,0,0,-1,1945,1597,0,0
728,-573,0,0,0,0,0,0,0,0,0,-1,1952,1597,0,0
735,-573,0,0,0,0,0,0,0,0,0,-1,1959,1597,0,0
742,-573,0,0,0,0,0,0,0,0,0,-1,1966,1597,0,0
749,-573,0,0,0,0,0,0,0,0,0,-1,1973,1597,0,0
756,-573,0,0,0,0,0,0,0,0,0,-1,1980,1597,0,0
763,-573,0,0,0,0,0,0,0,0,0,-1,1987,1597,0,0
770,-573,0,0,0,0,0,0,0,0,0,-1,1994,1597,0,0
777,-573,0,0,0,0,0,0,0,0,0,-1,2001,1597,0,0
784,-573,0,0,0,0,0,0,0,0,0,-1,2008,1597,0,0
791,-573,0,0,0,0,0,0,0,0,0,-1,2015,1597,0,0
798,-573,0,0,0,0,0,0,0,0,0,-1,2022,1597,0,0
805,-573,0,0,0,0,0,0,0,0,0,-1,2029,1597,0,0
812,-573,0,0,0,0,0,0,0,0,0,-1,2036,1597,0,0
-700,-580,0,0,0,0,0,0,0,0,0,-1,524,1604,0,0
-693,-580,0,0,0,0,0,0,0,0,0,-1,531,1604,0,0
-686,-580,0,0,0,0,0,0,0,0,0,-1,538,1604,0,0
-679,-580,0,0,0,0,0,0,0,0,0,-1,545,1604,0,0
-672,-580,0,0,0,0,0,0,0,0,0,-1,552,1604,0,0
-665,-580,0,0,0,0,0,0,0,0,0,-1,559,1604,0,0
-658,-580,0,0,0,0,0,0,0,0,0,-1,566,1604,0,0
-651,-580,0,0,0,0,0,0,0,0,0,-1,573,1604,0,0
-644,-580,0,0,0,0,0,0,0,0,0,-1,580,1604,0,0
-637,-580,0,0,0,0,0,0,0,0,0,-1,587,1604,0,0
-630,-580,0,0,0,0,0,0,0,0,0,-1,594,1604,0,0
-623,-580,0,0,0,0,0,0,0,0,0,-1,601,1604,0,0
-616,-580,0,0,0,0,0,0,0,0,0,-1,608,1604,0,0
-609,-580,0,0,0,0,0,0,0,0,0,-1,615,1604,0,0
-602,-580,0,0,0,0,0,0,0,0,0,-1,622,1604,0,0
-595,-580,0,0,0,0,0,0,0,0,0,-1,629,1604,0,0
-588,-580,0,0,0,0,0,0,0,0,0,-1,636,1604,0,0
-581,-580,0,0,0,0,0,0,0,0,0,-1,643,1604,0,0
-574,-580,0,0,0,0,0,0,0,0,0,-1,650,1604,0,0
-567,-580,0,0,0,0,0,0,0,0,0,-1,657,1604,0,0
-560,-580,0,0,0,0,0,0,0,0,0,-1,664,1604,0,0
-553,-580,0,0,0,0,0,0,0,0,0,-1,671,1604,0,0
-546,-580,0,0,0,0,0,0,0,0,0,-1,678,1604,0,0
-539,-580,0,0,0,0,0,0,0,0,0,-1,685,1604,0,0
-532,-580,0,0,0,0,0,0,0,0,0,-1,692,1604,0,0
-525,-580,0,0,0,0,0,0,0,0,0,-1,699,1604,0,0
-518,-580,0,0,0,0,0,0,0,0,0,-1,706,1604,0,0
-511,-580,0,0,0,0,0,0,0,0,0,-1,713,1604,0,0
-504,-580,0,0,0,0,0,0,0,0,0,-1,720,1604,0,0
-497,-580,0,0,0,0,0,0,0,0,0,-1,727,1604,0,0
-490,-580,0,0,0,0,0,0,0,0,0,-1,734,1604,0,0
-483,-580,0,0,0,0,0,0,0,0,0,-1,741,1604,0,0
-476,-580,0,0,0,0,0,0,0,0,0,-1,748,1604,0,0
-469,-580,-1.69189,-0.38916,0,0,0,0,0,0,0,-1,755,1604,-1.69192,0.389188
-462,-580,-0.859863,0.675293,0,0,0,0,0,0,0,-1,762,1604,-0.859834,-0.675245
-455,-580,-0.730164,0.651978,0,0,0,0,0,0,0,-1,769,1604,-0.730153,-0.651957
-448,-580,-3.31891,2.07544,0,0,0,0,0,0,0,-1,776,1604,-3.3189,-2.07539
-441,-580,-1.63843,3.9469,0,0,0,0,0,0,0,-1,783,1604,-1.63842,-3.94695
-434,-580,0.23291,5.97876,0,0,0,0,0,0,0,-1,790,1604,0.232901,-5.97878
-427,-580,1.62756,8.05493,0,0,0,0,0,0,0,-1,797,1604,1.62758,-8.05488
-420,-580,0.986572,11.2383,0,0,0,0,0,0,0,-1,804,1604,0.986544,-11.2382
-413,-580,0.922913,21.5701,0,0,0,0,0,0,0,-1,811,1604,0.922905,-21.5701
-406,-580,-3.00049,37.2504,0,0,0,0,0,0,0,-1,818,1604,-3.00049,-37.2504
-399,-580,-3.01129,38.2563,0,0,0,0,0,0,0,-1,825,1604,-3.0113,-38.2563
-392,-580,-3.04584,39.2267,0.000524466,0.00313145,0.00333236,0.00540619,-0.00175027,0.971831,0.00430775,0.026363,832,1604,-3.04582,-39.2266
-385,-580,-3.10565,40.0632,0.000762241,0.00263988,0.00299515,0.0048399,-0.00143778,0.937272,0.00379769,0.0132868,839,1604,-3.10568,-40.0632
-378,-580,-3.14697,40.8871,0.000965752,0.00237127,0.00276225,0.00451876,-0.00118173,0.909963,0.00347407,0.0149226,846,1604,-3.147,-40.8871
-371,-580,-3.18408,41.7106,0.000962049,0.00192166,0.00224226,0.00373487,-0.000851163,0.8908,0.00281683,0.0141109,853,1604,-3.18406,-41.7106
-364,-580,-3.24164,42.5204,0.00102662,0.00176911,0.00186614,0.00330057,-0.000504839,0.883586,0.00238653,0.0211993,860,1604,-3.24162,-42.5204
-357,-580,-3.28003,43.2792,0.00129962,0.0018943,0.00164983,0.00327337,-7.94462e-05,0.874553,0.00220921,0.0155868,867,1604,-3.28001,-43.2792
-350,-580,-3.32861,44.1074,0.00175613,0.00211229,0.00158456,0.00352874,0.00033968,0.841355,0.00224784,0.01152,874,1604,-3.3286,-44.1075
-343,-580,-3.34393,44.9209,0.00220435,0.00237397,0.00159527,0.00388668,0.000691634,0.811954,0.00239411,0.0120241,881,1604,-3.34396,-44.921
-336,-580,-3.35968,45.6605,0.00276115,0.00303208,0.00184696,0.00474854,0.00104469,0.822005,0.0028813,0.0218003,888,1604,-3.35969,-45.6605
-329,-580,-3.3949,46.5299,0.00347599,0.00363623,0.00214734,0.00570494,0.00140728,0.804046,0.00343177,0.020154,895,1604,-3.39487,-46.5299
-322,-580,-3.43335,47.3428,0.00429527,0.00444642,0.00268916,0.00706107,0.00168063,0.799446,0.00425917,0.0217606,902,1604,-3.43334,-47.3427
-315,-580,-3.44287,48.083,0.00505246,0.00560967,0.00336331,0.00870589,0.00195624,0.826722,0.0052742,0.0265252,909,1604,-3.44289,-48.083
-308,-580,-3.39667,49.0625,0.00562343,0.00696941,0.00396731,0.0103204,0.00227243,0.869415,0.00626178,0.0420104,916,1604,-3.3967,-49.0625
-301,-580,-3.29791,49.6619,0.00639147,0.00803884,0.00477184,0.0120576,0.00237275,0.870863,0.0073758,0.0392473,923,1604,-3.29789,-49.6619
-294,-580,-3.44989,50.2571,0.0073589,0.00974733,0.00601756,0.014688,0.0024182,0.883353,0.00909377,0.0398323,930,1604,-3.44987,-50.2571
-287,-580,-3.09497,51.6946,0,0,0,0,0,0,0,-1,937,1604,-3.09495,-51.6946
-280,-580,-2.74774,52.328,0,0,0,0,0,0,0,-1,944,1604,-2.74776,-52.328
-273,-580,-2.96637,52.8284,0,0,0,0,0,0,0,-1,951,1604,-2.96637,-52.8283
-266,-580,-1.22644,48.4485,0,0,0,0,0,0,0,-1,958,1604,-1.22644,-48.4485
-259,-580,1.31091,9.11536,0,0,0,0,0,0,0,-1,965,1604,1.31092,-9.11539
-252,-580,1.07629,7.74097,0,0,0,0,0,0,0,-1,972,1604,1.07627,-7.74101
-245,-580,3.80304,9.16028,0,0,0,0,0,0,0,-1,979,1604,3.80306,-9.16034
-238,-580,-10.3588,1.57556,0,0,0,0,0,0,0,-1,986,1604,-10.3588,-1.5755
-231,-580,-10.576,6.43787,0,0,0,0,0,0,0,-1,993,1604,-10.576,-6.43783
-224,-580,-8.27435,7.58972,0,0,0,0,0,0,0,-1,1000,1604,-8.27435,-7.5897
-217,-580,-5.85632,9.51221,0,0,0,0,0,0,0,-1,1007,1604,-5.85632,-9.5122
-210,-580,-3.6684,11.1569,0,0,0,0,0,0,0,-1,1014,1604,-3.66839,-11.1569
-203,-580,-1.92474,12.7845,0,0,0,0,0,0,0,-1,1021,1604,-1.92477,-12.7845
-196,-580,-2.28552,10.3289,0,0,0,0,0,0,0,-1,1028,1604,-2.28552,-10.3288
-189,-580,-4.58252,7.59058,0,0,0,0,0,0,0,-1,1035,1604,-4.58256,-7.59057
-182,-580,-5.45874,7.65942,0,0,0,0,0,0,0,-1,1042,1604,-5.45876,-7.65939
-175,-580,-6.38977,7.55005,0,0,0,0,0,0,0,-1,1049,1604,-6.38981,-7.5501
-168,-580,0,0,0,0,0,0,0,0,0,-1,1056,1604,0,0
-161,-580,0,0,0,0,0,0,0,0,0,-1,1063,1604,0,0
-154,-580,0,0,0,0,0,0,0,0,0,-1,1070,1604,0,0
-147,-580,0,0,0,0,0,0,0,0,0,-1,1077,1604,0,0
-140,-580,0,0,0,0,0,0,0,0,0,-1,1084,1604,0,0
-133,-580,0,0,0,0,0,0,0,0,0,-1,1091,1604,0,0
-126,-580,0,0,0,0,0,0,0,0,0,-1,1098,1604,0,0
-119,-580,0,0,0,0,0,0,0,0,0,-1,1105,1604,0,0
-112,-580,0,0,0,0,0,0,0,0,0,-1,1112,1604,0,0
-105,-580,0,0,0,0,0,0,0,0,0,-1,1119,1604,0,0
-98,-580,0,0,0,0,0,0,0,0,0,-1,1126,1604,0,0
-91,-580,0,0,0,0,0,0,0,0,0,-1,1133,1604,0,0
-84,-580,0,0,0,0,0,0,0,0,0,-1,1140,1604,0,0
-77,-580,0,0,0,0,0,0,0,0,0,-1,1147,1604,0,0
-70,-580,0,0,0,0,0,0,0,0,0,-1,1154,1604,0,0
-63,-580,0,0,0,0,0,0,0,0,0,-1,1161,1604,0,0
-56,-580,0,0,0,0,0,0,0,0,0,-1,1168,1604,0,0
-49,-580,0,0,0,0,0,0,0,0,0,-1,1175,1604,0,0
-42,-580,0,0,0,0,0,0,0,0,0,-1,1182,1604,0,0
-35,-580,0,0,0,0,0,0,0,0,0,-1,1189,1604,0,0
-28,-580,0,0,0,0,0,0,0,0,0,-1,1196,1604,0,0
-21,-580,0,0,0,0,0,0,0,0,0,-1,1203,1604,0,0
-14,-580,0,0,0,0,0,0,0,0,0,-1,1210,1604,0,0
-7,-580,0,0,0,0,0,0,0,0,0,-1,1217,1604,0,0
0,-580,0,0,0,0,0,0,0,0,0,-1,1224,1604,0,0
7,-580,0,0,0,0,0,0,0,0,0,-1,1231,1604,0,0
14,-580,0,0,0,0,0,0,0,0,0,-1,1238,1604,0,0
21,-580,0,0,0,0,0,0,0,0,0,-1,1245,1604,0,0
28,-580,0,0,0,0,0,0,0,0,0,-1,1252,1604,0,0
35,-580,0,0,0,0,0,0,0,0,0,-1,1259,1604,0,0
42,-580,0,0,0,0,0,0,0,0,0,-1,1266,1604,0,0
49,-580,0,0,0,0,0,0,0,0,0,-1,1273,1604,0,0
56,-580,0,0,0,0,0,0,0,0,0,-1,1280,1604,0,0
63,-580,0,0,0,0,0,0,0,0,0,-1,1287,1604,0,0
70,-580,0,0,0,0,0,0,0,0,0,-1,1294,1604,0,0
77,-580,0,0,0,0,0,0,0,0,0,-1,1301,1604,0,0
84,-580,0,0,0,0,0,0,0,0,0,-1,1308,1604,0,0
91,-580,0,0,0,0,0,0,0,0,0,-1,1315,1604,0,0
98,-580,0,0,0,0,0,0,0,0,0,-1,1322,1604,0,0
105,-580,0,0,0,0,0,0,0,0,0,-1,1329,1604,0,0
112,-580,0,0,0,0,0,0,0,0,0,-1,1336,1604,0,0
119,-580,0,0,0,0,0,0,0,0,0,-1,1343,1604,0,0
126,-580,0,0,0,0,0,0,0,0,0,-1,1350,1604,0,0
133,-580,0,0,0,0,0,0,0,0,0,-1,1357,1604,0,0
140,-580,0,0,0,0,0,0,0,0,0,-1,1364,1604,0,0
147,-580,0,0,0,0,0,0,0,0,0,-1,1371,1604,0,0
154,-580,0,0,0,0,0,0,0,0,0,-1,1378,1604,0,0
161,-580,0,0,0,0,0,0,0,0,0,-1,1385,1604,0,0
168,-580,0,0,0,0,0,0,0,0,0,-1,1392,1604,0,0
175,-580,0,0,0,0,0,0,0,0,0,-1,1399,1604,0,0
182,-580,0,0,0,0,0,0,0,0,0,-1,1406,1604,0,0
189,-580,0,0,0,0,0,0,0,0,0,-1,1413,1604,0,0
196,-580,0,0,0,0,0,0,0,0,0,-1,1420,1604,0,0
203,-580,0,0,0,0,0,0,0,0,0,-1,1427,1604,0,0
210,-580,0,0,0,0,0,0,0,0,0,-1,1434,1604,0,0
217,-580,0,0,0,0,0,0,0,0,0,-1,1441,1604,0,0
224,-580,0,0,0,0,0,0,0,0,0,-1,1448,1604,0,0
231,-580,0,0,0,0,0,0,0,0,0,-1,1455,1604,0,0
238,-580,0,0,0,0,0,0,0,0,0,-1,1462,1604,0,0
245,-580,0,0,0,0,0,0,0,0,0,-1,1469,1604,0,0
252,-580,0,0,0,0,0,0,0,0,0,-1,1476,1604,0,0
259,-580,0,0,0,0,0,0,0,0,0,-1,1483,1604,0,0
266,-580,0,0,0,0,0,0,0,0,0,-1,1490,1604,0,0
273,-580,0,0,0,0,0,0,0,0,0,-1,1497,1604,0,0
280,-580,0,0,0,0,0,0,0,0,0,-1,1504,1604,0,0
287,-580,0,0,0,0,0,0,0,0,0,-1,1511,1604,0,0
294,-580,4.0437,0.177368,0,0,0,0,0,0,0,-1,1518,1604,4.04369,-0.177371
301,-580,7.55164,8.05798,0,0,0,0,0,0,0,-1,1525,1604,7.55158,-8.05802
308,-580,5.9126,9.99341,0,0,0,0,0,0,0,-1,1532,1604,5.91255,-9.99337
315,-580,4.27356,11.9287,0,0,0,0,0,0,0,-1,1539,1604,4.27352,-11.9287
322,-580,10.2366,7.50281,0,0,0,0,0,0,0,-1,1546,1604,10.2366,-7.50282
329,-580,10.5962,8.69641,0,0,0,0,0,0,0,-1,1553,1604,10.5962,-8.69642
336,-580,3.66431,1.58862,0,0,0,0,0,0,0,-1,1560,1604,3.6643,-1.58864
343,-580,19.0659,51.8346,0,0,0,0,0,0,0,-1,1567,1604,19.0659,-51.8346
350,-580,23.2991,55.3226,0,0,0,0,0,0,0,-1,1574,1604,23.2991,-55.3226
357,-580,23.4023,55.3929,0,0,0,0,0,0,0,-1,1581,1604,23.4024,-55.3929
364,-580,22.1007,55.4209,0,0,0,0,0,0,0,-1,1588,1604,22.1007,-55.4209
371,-580,21.453,54.2603,0,0,0,0,0,0,0,-1,1595,1604,21.453,-54.2603
378,-580,22.411,54.6636,0,0,0,0,0,0,0,-1,1602,1604,22.411,-54.6635
385,-580,18.6182,47.5352,0,0,0,0,0,0,0,-1,1609,1604,18.6181,-47.5352
392,-580,19.1388,46.7451,0,0,0,0,0,0,0,-1,1616,1604,19.1388,-46.7452
399,-580,21.1744,50.241,0,0,0,0,0,0,0,-1,1623,1604,21.1744,-50.241
406,-580,21.3845,51.569,0,0,0,0,0,0,0,-1,1630,1604,21.3845,-51.569
413,-580,21.4502,50.7954,0,0,0,0,0,0,0,-1,1637,1604,21.4502,-50.7954
420,-580,21.3091,50.2177,0,0,0,0,0,0,0,-1,1644,1604,21.309,-50.2177
427,-580,21.293,49.6233,0,0,0,0,0,0,0,-1,1651,1604,21.2929,-49.6233
434,-580,21.2368,48.8813,0,0,0,0,0,0,0,-1,1658,1604,21.2369,-48.8814
441,-580,21.1968,47.8809,0.00729103,0.0047079,-0.00274259,0.00903096,0.00296797,-0.565338,0.00531511,0.0274991,1665,1604,21.1968,-47.8808
448,-580,21.2976,47.0143,0.00586714,0.00460138,-0.00244523,0.00776007,0.00270845,-0.658765,0.00454785,0.0192146,1672,1604,21.2976,-47.0143
455,-580,21.3252,46.2422,0.00475314,0.00408821,-0.00242008,0.00686348,0.00197786,-0.717137,0.00407945,0.0216142,1679,1604,21.3252,-46.2422
462,-580,21.2418,45.467,0.00413541,0.00354886,-0.0023084,0.00616909,0.00151518,-0.722213,0.00371221,0.0226956,1686,1604,21.2418,-45.4671
469,-580,21.1956,44.688,0.00364351,0.0029587,-0.0022301,0.00555734,0.00104487,-0.709224,0.00341038,0.0196914,1693,1604,21.1956,-44.688
476,-580,21.188,43.9066,0.00305628,0.00239634,-0.00209469,0.00484683,0.000605791,-0.707276,0.00304941,0.0149562,1700,1604,21.188,-43.9067
483,-580,21.1661,43.137,0.00240228,0.00180247,-0.00187472,0.00400093,0.000203813,-0.706084,0.00260201,0.0148502,1707,1604,21.1662,-43.137
490,-580,21.1095,42.3655,0.00174208,0.00135412,-0.00165251,0.00321195,-0.000115759,-0.726973,0.00218091,0.0203617,1714,1604,21.1095,-42.3655
497,-580,21.0568,41.5438,0.0010659,0.000889371,-0.00145965,0.00243995,-0.000484681,-0.755199,0.00180996,0.0151699,1721,1604,21.0567,-41.5438
504,-580,21.0042,40.7184,0.000431811,0.000348433,-0.00126741,0.00165821,-0.00087797,-0.768957,0.00148718,0.0169924,1728,1604,21.0041,-40.7184
511,-580,20.9729,39.9358,-0.00017798,-0.000150422,-0.00104773,0.000883622,-0.00121202,-0.791973,0.00121486,0.0186293,1735,1604,20.9729,-39.9358
518,-580,20.9244,39.1614,-0.000769183,-0.000677772,-0.000847854,0.000125607,-0.00157256,-0.812326,0.00109265,0.0174264,1742,1604,20.9244,-39.1613
525,-580,20.851,38.3342,-0.00130173,-0.00123954,-0.000647899,-0.000621995,-0.00191928,-0.809376,0.00113073,0.0187752,1749,1604,20.8509,-38.3342
532,-580,20.7849,37.5422,-0.00175211,-0.00192386,-0.000412176,-0.00141696,-0.00225901,-0.682699,0.00131824,0.0273024,1756,1604,20.7849,-37.5422
539,-580,20.9103,36.6161,0,0,0,0,0,0,0,-1,1763,1604,20.9102,-36.616
546,-580,20.9612,36.1694,0,0,0,0,0,0,0,-1,1770,1604,20.9612,-36.1694
553,-580,17.1749,26.6359,0,0,0,0,0,0,0,-1,1777,1604,17.1749,-26.6358
560,-580,18.9662,29.0388,0,0,0,0,0,0,0,-1,1784,1604,18.9661,-29.0389
567,-580,3.87708,4.0647,0,0,0,0,0,0,0,-1,1791,1604,3.87711,-4.06471
574,-580,2.31653,5.62952,0,0,0,0,0,0,0,-1,1798,1604,2.31654,-5.62947
581,-580,1.60876,6.67664,0,0,0,0,0,0,0,-1,1805,1604,1.60873,-6.67667
588,-580,1.38684,7.14441,0,0,0,0,0,0,0,-1,1812,1604,1.38689,-7.14443
595,-580,0,0,0,0,0,0,0,0,0,-1,1819,1604,0,0
602,-580,0,0,0,0,0,0,0,0,0,-1,1826,1604,0,0
609,-580,0,0,0,0,0,0,0,0,0,-1,1833,1604,0,0
616,-580,0,0,0,0,0,0,0,0,0,-1,1840,1604,0,0
623,-580,0,0,0,0,0,0,0,0,0,-1,1847,1604,0,0
630,-580,0,0,0,0,0,0,0,0,0,-1,1854,1604,0,0
637,-580,0,0,0,0,0,0,0,0,0,-1,1861,1604,0,0
644,-580,0,0,0,0,0,0,0,0,0,-1,1868,1604,0,0
651,-580,0,0,0,0,0,0,0,0,0,-1,1875,1604,0,0
658,-580,0,0,0,0,0,0,0,0,0,-1,1882,1604,0,0
665,-580,0,0,0,0,0,0,0,0,0,-1,1889,1604,0,0
672,-580,0,0,0,0,0,0,0,0,0,-1,1896,1604,0,0
679,-580,0,0,0,0,0,0,0,0,0,-1,1903,1604,0,0
686,-580,0,0,0,0,0,0,0,0,0,-1,1910,1604,0,0
693,-580,0,0,0,0,0,0,0,0,0,-1,1917,1604,0,0
700,-580,0,0,0,0,0,0,0,0,0,-1,1924,1604,0,0
707,-580,0,0,0,0,0,0,0,0,0,-1,1931,1604,0,0
714,-580,0,0,0,0,0,0,0,0,0,-1,1938,1604,0,0
721,-580,0,0,0,0,0,0,0,0,0,-1,1945,1604,0,0
728,-580,0,0,0,0,0,0,0,0,0,-1,1952,1604,0,0
735,-580,0,0,0,0,0,0,0,0,0,-1,1959,1604,0,0
742,-580,0,0,0,0,0,0,0,0,0,-1,1966,1604,0,0
749,-580,0,0,0,0,0,0,0,0,0,-1,1973,1604,0,0
756,-580,0,0,0,0,0,0,0,0,0,-1,1980,1604,0,0
763,-580,0,0,0,0,0,0,0,0,0,-1,1987,1604,0,0
770,-580,0,0,0,0,0,0,0,0,0,-1,1994,1604,0,0
777,-580,0,0,0,0,0,0,0,0,0,-1,2001,1604,0,0
784,-580,0,0,0,0,0,0,0,0,0,-1,2008,1604,0,0
791,-580,0,0,0,0,0,0,0,0,0,-1,2015,1604,0,0
798,-580,0,0,0,0,0,0,0,0,0,-1,2022,1604,0,0
805,-580,0,0,0,0,0,0,0,0,0,-1,2029,1604,0,0
812,-580,0,0,0,0,0,0,0,0,0,-1,2036,1604,0,0
-700,-587,0,0,0,0,0,0,0,0,0,-1,524,1611,0,0
-693,-587,0,0,0,0,0,0,0,0,0,-1,531,1611,0,0
-686,-587,0,0,0,0,0,0,0,0,0,-1,538,1611,0,0
-679,-587,0,0,0,0,0,0,0,0,0,-1,545,1611,0,0
-672,-587,0,0,0,0,0,0,0,0,0,-1,552,1611,0,0
-665,-587,0,0,0,0,0,0,0,0,0,-1,559,1611,0,0
-658,-587,0,0,0,0,0,0,0,0,0,-1,566,1611,0,0
-651,-587,0,0,0,0,0,0,0,0,0,-1,573,1611,0,0
-644,-587,0,0,0,0,0,0,0,0,0,-1,580,1611,0,0
-637,-587,0,0,0,0,0,0,0,0,0,-1,587,1611,0,0
-630,-587,0,0,0,0,0,0,0,0,0,-1,594,1611,0,0
-623,-587,0,0,0,0,0,0,0,0,0,-1,601,1611,0,0
-616,-587,0,0,0,0,0,0,0,0,0,-1,608,1611,0,0
-609,-587,0,0,0,0,0,0,0,0,0,-1,615,1611,0,0
-602,-587,0,0,0,0,0,0,0,0,0,-1,622,1611,0,0
-595,-587,0,0,0,0,0,0,0,0,0,-1,629,1611,0,0
-588,-587,0,0,0,0,0,0,0,0,0,-1,636,1611,0,0
-581,-587,0,0,0,0,0,0,0,0,0,-1,643,1611,0,0
-574,-587,0,0,0,0,0,0,0,0,0,-1,650,1611,0,0
-567,-587,0,0,0,0,0,0,0,0,0,-1,657,1611,0,0
-560,-587,0,0,0,0,0,0,0,0,0,-1,664,1611,0,0
-553,-587,0,0,0,0,0,0,0,0,0,-1,671,1611,0,0
-546,-587,0,0,0,0,0,0,0,0,0,-1,678,1611,0,0
-539,-587,0,0,0,0,0,0,0,0,0,-1,685,1611,0,0
-532,-587,0,0,0,0,0,0,0,0,0,-1,692,1611,0,0
-525,-587,0,0,0,0,0,0,0,0,0,-1,699,1611,0,0
-518,-587,0,0,0,0,0,0,0,0,0,-1,706,1611,0,0
-511,-587,0,0,0,0,0,0,0,0,0,-1,713,1611,0,0
-504,-587,0,0,0,0,0,0,0,0,0,-1,720,1611,0,0
-497,-587,0,0,0,0,0,0,0,0,0,-1,727,1611,0,0
-490,-587,0,0,0,0,0,0,0,0,0,-1,734,1611,0,0
-483,-587,0,0,0,0,0,0,0,0,0,-1,741,1611,0,0
-476,-587,0,0,0,0,0,0,0,0,0,-1,748,1611,0,0
-469,-587,0,0,0,0,0,0,0,0,0,-1,755,1611,0,0
-462,-587,-0.714355,-0.418457,0,0,0,0,0,0,0,-1,762,1611,-0.714359,0.418483
-455,-587,-0.619812,-0.522461,0,0,0,0,0,0,0,-1,769,1611,-0.619802,0.522515
-448,-587,-0.461731,-0.686523,0,0,0,0,0,0,0,-1,776,1611,-0.461739,0.686559
-441,-587,-3.56555,2.72253,0,0,0,0,0,0,0,-1,783,1611,-3.56555,-2.72259
-434,-587,-1.77319,4.76318,0,0,0,0,0,0,0,-1,790,1611,-1.77318,-4.76323
-427,-587,0.0346069,6.92944,0,0,0,0,0,0,0,-1,797,1611,0.034587,-6.92941
-420,-587,-0.647156,10.1157,0,0,0,0,0,0,0,-1,804,1611,-0.647128,-10.1158
-413,-587,2.13971,10.3901,0,0,0,0,0,0,0,-1,811,1611,2.13971,-10.3902
-406,-587,2.2525,19.7814,0,0,0,0,0,0,0,-1,818,1611,2.25253,-19.7814
-399,-587,-1.7851,36.6587,0,0,0,0,0,0,0,-1,825,1611,-1.78511,-36.6587
-392,-587,-2.37695,39.0552,0,0,0,0,0,0,0,-1,832,1611,-2.37696,-39.0551
-385,-587,-2.38483,39.9957,0.000700353,0.00341503,0.00379638,0.00608943,-0.00197404,0.957084,0.00485335,0.0352796,839,1611,-2.38482,-39.9957
-378,-587,-2.3717,40.9098,0.000853383,0.00296493,0.0034601,0.00552674,-0.00170844,0.933475,0.00436683,0.0144711,846,1611,-2.37173,-40.9098
-371,-587,-2.41461,41.7745,0.000741556,0.00232623,0.00282109,0.00446414,-0.00139635,0.922302,0.00353471,0.0141413,853,1611,-2.41464,-41.7745
-364,-587,-2.45135,42.6122,0.000662004,0.00185155,0.00225125,0.00358527,-0.00107172,0.914546,0.00281623,0.0186419,860,1611,-2.45138,-42.6122
-357,-587,-2.48206,43.3174,0.000842204,0.00170185,0.00189994,0.00321998,-0.000675926,0.89664,0.00240385,0.0174023,867,1611,-2.48208,-43.3174
-350,-587,-2.53693,44.1688,0.00121403,0.00168597,0.00170123,0.00316752,-0.000267516,0.854311,0.00220626,0.0107134,874,1611,-2.53694,-44.1688
-343,-587,-2.57208,44.9554,0.00162476,0.00181427,0.00161554,0.00333783,0.000101202,0.81469,0.00219226,0.0134777,881,1611,-2.57206,-44.9554
-336,-587,-2.62384,45.7292,0.00211614,0.00225654,0.00172107,0.00390884,0.000463843,0.805781,0.00246587,0.0136421,888,1611,-2.62385,-45.7292
-329,-587,-2.66156,46.5234,0.00271415,0.00265757,0.00186041,0.00454649,0.000825231,0.777795,0.0027968,0.0157797,895,1611,-2.66157,-46.5234
-322,-587,-2.65924,47.3247,0.00337978,0.00325597,0.00219813,0.00551688,0.00111887,0.771321,0.0033675,0.0185814,902,1611,-2.65922,-47.3246
-315,-587,-2.70496,48.1021,0.00403384,0.00415458,0.00267417,0.00676906,0.00141936,0.796684,0.00412187,0.0153667,909,1611,-2.70495,-48.102
-308,-587,-2.73029,48.8845,0.00460741,0.00523863,0.00311575,0.00805471,0.00179133,0.835874,0.00488347,0.0161956,916,1611,-2.73026,-48.8845
-301,-587,-2.67114,49.6838,0.00535089,0.00615989,0.00374949,0.00952664,0.00198414,0.839131,0.00580389,0.0171991,923,1611,-2.67112,-49.6838
-294,-587,-2.5943,50.53,0.0062552,0.00766102,0.00475078,0.0117606,0.00215561,0.858843,0.00722979,0.0270638,930,1611,-2.59428,-50.5301
-287,-587,-2.63458,51.3293,0.00741991,0.00938061,0.00583235,0.0143144,0.00248609,0.868664,0.00883167,0.0419858,937,1611,-2.63461,-51.3294
-280,-587,-2.44806,52.4181,0,0,0,0,0,0,0,-1,944,1611,-2.44804,-52.418
-273,-587,-2.39563,53.0398,0,0,0,0,0,0,0,-1,951,1611,-2.39566,-53.0398
-266,-587,-2.43304,53.9656,0,0,0,0,0,0,0,-1,958,1611,-2.43302,-53.9656
-259,-587,-2.65076,54.6875,0,0,0,0,0,0,0,-1,965,1611,-2.65075,-54.6875
-252,-587,1.30188,10.3103,0,0,0,0,0,0,0,-1,972,1611,1.30188,-10.3104
-245,-587,1.52075,27.4791,0,0,0,0,0,0,0,-1,979,1611,1.52076,-27.4791
-238,-587,2.87799,9.53821,0,0,0,0,0,0,0,-1,986,1611,2.87797,-9.53823
-231,-587,2.49548,9.14465,0,0,0,0,0,0,0,-1,993,1611,2.49551,-9.14468
-224,-587,-9.72528,9.21069,0,0,0,0,0,0,0,-1,1000,1611,-9.72529,-9.21072
-217,-587,-7.07495,10.7847,0,0,0,0,0,0,0,-1,1007,1611,-7.07495,-10.7847
-210,-587,-4.72308,12.5889,0,0,0,0,0,0,0,-1,1014,1611,-4.72307,-12.5888
-203,-587,-3.2583,13.7289,0,0,0,0,0,0,0,-1,1021,1611,-3.25828,-13.7289
-196,-587,-1.953,14.8145,0,0,0,0,0,0,0,-1,1028,1611,-1.95302,-14.8144
-189,-587,-3.04138,8.66638,0,0,0,0,0,0,0,-1,1035,1611,-3.04136,-8.66635
-182,-587,-3.97095,9.7146,0,0,0,0,0,0,0,-1,1042,1611,-3.97093,-9.71461
-175,-587,-4.80969,8.37878,0,0,0,0,0,0,0,-1,1049,1611,-4.80964,-8.37883
-168,-587,-5.91394,8.72546,0,0,0,0,0,0,0,-1,1056,1611,-5.91398,-8.72542
-161,-587,-7.06946,8.88501,0,0,0,0,0,0,0,-1,1063,1611,-7.06947,-8.885
-154,-587,-2.24731,6.56519,0,0,0,0,0,0,0,-1,1070,1611,-2.24728,-6.56517
-147,-587,0,0,0,0,0,0,0,0,0,-1,1077,1611,0,0
-140,-587,0,0,0,0,0,0,0,0,0,-1,1084,1611,0,0
-133,-587,0,0,0,0,0,0,0,0,0,-1,1091,1611,0,0
-126,-587,0,0,0,0,0,0,0,0,0,-1,1098,1611,0,0
-119,-587,0,0,0,0,0,0,0,0,0,-1,1105,1611,0,0
-112,-587,0,0,0,0,0,0,0,0,0,-1,1112,1611,0,0
-105,-587,0,0,0,0,0,0,0,0,0,-1,1119,1611,0,0
-98,-587,0,0,0,0,0,0,0,0,0,-1,1126,1611,0,0
-91,-587,0,0,0,0,0,0,0,0,0,-1,1133,1611,0,0
-84,-587,0,0,0,0,0,0,0,0,0,-1,1140,1611,0,0
-77,-587,0,0,0,0,0,0,0,0,0,-1,1147,1611,0,0
-70,-587,0,0,0,0,0,0,0,0,0,-1,1154,1611,0,0
-63,-587,0,0,0,0,0,0,0,0,0,-1,1161,1611,0,0
-56,-587,0,0,0,0,0,0,0,0,0,-1,1168,1611,0,0
-49,-587,0,0,0,0,0,0,0,0,0,-1,1175,1611,0,0
-42,-587,0,0,0,0,0,0,0,0,0,-1,1182,1611,0,0
-35,-587,0,0,0,0,0,0,0,0,0,-1,1189,1611,0,0
-28,-587,0,0,0,0,0,0,0,0,0,-1,1196,1611,0,0
-21,-587,0,0,0,0,0,0,0,0,0,-1,1203,1611,0,0
-14,-587,0,0,0,0,0,0,0,0,0,-1,1210,1611,0,0
-7,-587,0,0,0,0,0,0,0,0,0,-1,1217,1611,0,0
0,-587,0,0,0,0,0,0,0,0,0,-1,1224,1611,0,0
7,-587,0,0,0,0,0,0,0,0,0,-1,1231,1611,0,0
14,-587,0,0,0,0,0,0,0,0,0,-1,1238,1611,0,0
21,-587,0,0,0,0,0,0,0,0,0,-1,1245,1611,0,0
28,-587,0,0,0,0,0,0,0,0,0,-1,1252,1611,0,0
35,-587,0,0,0,0,0,0,0,0,0,-1,1259,1611,0,0
42,-587,0,0,0,0,0,0,0,0,0,-1,1266,1611,0,0
49,-587,0,0,0,0,0,0,0,0,0,-1,1273,1611,0,0
56,-587,0,0,0,0,0,0,0,0,0,-1,1280,1611,0,0
63,-587,0,0,0,0,0,0,0,0,0,-1,1287,1611,0,0
70,-587,0,0,0,0,0,0,0,0,0,-1,1294,1611,0,0
77,-587,0,0,0,0,0,0,0,0,0,-1,1301,1611,0,0
84,-587,0,0,0,0,0,0,0,0,0,-1,1308,1611,0,0
91,-587,0,0,0,0,0,0,0,0,0,-1,1315,1611,0,0
98,-587,0,0,0,0,0,0,0,0,0,-1,1322,1611,0,0
105,-587,0,0,0,0,0,0,0,0,0,-1,1329,1611,0,0
112,-587,0,0,0,0,0,0,0,0,0,-1,1336,1611,0,0
119,-587,0,0,0,0,0,0,0,0,0,-1,1343,1611,0,0
126,-587,0,0,0,0,0,0,0,0,0,-1,1350,1611,0,0
133,-587,0,0,0,0,0,0,0,0,0,-1,1357,1611,0,0
140,-587,0,0,0,0,0,0,0,0,0,-1,1364,1611,0,0
147,-587,0,0,0,0,0,0,0,0,0,-1,1371,1611,0,0
154,-587,0,0,0,0,0,0,0,0,0,-1,1378,1611,0,0
161,-587,0,0,0,0,0,0,0,0,0,-1,1385,1611,0,0
168,-587,0,0,0,0,0,0,0,0,0,-1,1392,1611,0,0
175,-587,0,0,0,0,0,0,0,0,0,-1,1399,1611,0,0
182,-587,0,0,0,0,0,0,0,0,0,-1,1406,1611,0,0
189,-587,0,0,0,0,0,0,0,0,0,-1,1413,1611,0,0
196,-587,0,0,0,0,0,0,0,0,0,-1,1420,1611,0,0
203,-587,0,0,0,0,0,0,0,0,0,-1,1427,1611,0,0
210,-587,0,0,0,0,0,0,0,0,0,-1,1434,1611,0,0
217,-587,0,0,0,0,0,0,0,0,0,-1,1441,1611,0,0
224,-587,0,0,0,0,0,0,0,0,0,-1,1448,1611,0,0
231,-587,0,0,0,0,0,0,0,0,0,-1,1455,1611,0,0
238,-587,0,0,0,0,0,0,0,0,0,-1,1462,1611,0,0
245,-587,0,0,0,0,0,0,0,0,0,-1,1469,1611,0,0
252,-587,0,0,0,0,0,0,0,0,0,-1,1476,1611,0,0
259,-587,0,0,0,0,0,0,0,0,0,-1,1483,1611,0,0
266,-587,0,0,0,0,0,0,0,0,0,-1,1490,1611,0,0
273,-587,10.2936,6.35083,0,0,0,0,0,0,0,-1,1497,1611,10.2936,-6.35087
280,-587,2.09204,1.1217,0,0,0,0,0,0,0,-1,1504,1611,2.092,-1.12176
287,-587,3.2865,0.671509,0,0,0,0,0,0,0,-1,1511,1611,3.28656,-0.671538
294,-587,4.24646,1.58765,0,0,0,0,0,0,0,-1,1518,1611,4.24648,-1.58761
301,-587,7.60474,8.37085,0,0,0,0,0,0,0,-1,1525,1611,7.60478,-8.37084
308,-587,5.99316,10.2291,0,0,0,0,0,0,0,-1,1532,1611,5.99315,-10.2291
315,-587,4.34558,12.3289,0,0,0,0,0,0,0,-1,1539,1611,4.34556,-12.3288
322,-587,10.4526,6.38245,0,0,0,0,0,0,0,-1,1546,1611,10.4526,-6.38245
329,-587,10.7738,8.42444,0,0,0,0,0,0,0,-1,1553,1611,10.7738,-8.42438
336,-587,7.5531,5.96619,0,0,0,0,0,0,0,-1,1560,1611,7.55311,-5.96617
343,-587,20.0991,54.4835,0,0,0,0,0,0,0,-1,1567,1611,20.0991,-54.4835
350,-587,21.2747,55.7969,0,0,0,0,0,0,0,-1,1574,1611,21.2746,-55.7968
357,-587,21.2288,55.7704,0.0257665,-0.028675,0.0660865,0.0700188,-0.0729273,0.590039,0.0825357,0.0436654,1581,1611,21.2288,-55.7704
364,-587,20.9313,55.6476,0.0268906,-0.0260956,0.0513928,0.058217,-0.057422,0.547412,0.0667648,0.0455316,1588,1611,20.9312,-55.6476
371,-587,21.0157,55.1501,0.0265016,-0.0229781,0.0390588,0.0479964,-0.044473,0.50309,0.0534002,0.044195,1595,1611,21.0157,-55.1502
378,-587,21.5061,54.5422,0,0,0,0,0,0,0,-1,1602,1611,21.5062,-54.5422
385,-587,20.265,53.5831,0,0,0,0,0,0,0,-1,1609,1611,20.265,-53.5831
392,-587,20.532,52.806,0,0,0,0,0,0,0,-1,1616,1611,20.5319,-52.8061
399,-587,20.6198,52.2329,0,0,0,0,0,0,0,-1,1623,1611,20.6197,-52.2329
406,-587,20.6279,51.5721,0.0158803,-0.00389386,0.00350762,0.0164841,-0.00449762,0.170458,0.0127557,0.0439863,1630,1611,20.6279,-51.5722
413,-587,20.6758,50.8264,0.0137998,-0.000548157,-0.00173933,0.0140076,-0.000755997,-0.11893,0.00960034,0.0340977,1637,1611,20.6758,-50.8265
420,-587,20.6113,50.1178,0.0115277,0.00185821,-0.00365778,0.0127555,0.000630439,-0.323843,0.0083015,0.0311771,1644,1611,20.6113,-50.1178
427,-587,20.5984,49.428,0.00894421,0.00310074,-0.00385786,0.0108619,0.00118309,-0.461305,0.00688087,0.0268877,1651,1611,20.5984,-49.428
434,-587,20.5851,48.5348,0.00711675,0.00298803,-0.00296194,0.00866275,0.00144203,-0.481056,0.00535955,0.0205015,1658,1611,20.5851,-48.5348
441,-587,20.5385,47.7378,0.00579085,0.00350825,-0.00198907,0.00694279,0.00235631,-0.524938,0.00407677,0.0236436,1665,1611,20.5384,-47.7378
448,-587,20.5553,47.066,0.00466385,0.00341403,-0.00185929,0.00600043,0.00207745,-0.623278,0.00351855,0.0172837,1672,1611,20.5553,-47.066
455,-587,20.5455,46.3003,0.00374454,0.00296923,-0.00194313,0.0053383,0.00137546,-0.686941,0.00320047,0.0151258,1679,1611,20.5455,-46.3003
462,-587,20.4711,45.517,0.00321637,0.00246461,-0.00195381,0.00483013,0.000850849,-0.690368,0.00297728,0.0184674,1686,1611,20.471,-45.5169
469,-587,20.4312,44.7697,0.0027955,0.00198324,-0.00198559,0.00441607,0.00036267,-0.684521,0.00283091,0.0168677,1693,1611,20.4312,-44.7696
476,-587,20.3992,43.9971,0.00226753,0.00154754,-0.00194357,0.00388416,-6.9091e-05,-0.693824,0.00261277,0.0109535,1700,1611,20.3991,-43.997
483,-587,20.3375,43.1831,0.00169886,0.00102678,-0.00183161,0.003225,-0.00049936,-0.694674,0.00233432,0.01488,1707,1611,20.3376,-43.1831
490,-587,20.3073,42.3927,0.00113326,0.000649387,-0.00170774,0.00261612,-0.000833473,-0.715031,0.00207838,0.0178601,1714,1611,20.3073,-42.3927
497,-587,20.2628,41.599,0.000567406,0.00029946,-0.00160834,0.00204734,-0.00118047,-0.743845,0.00188585,0.0131127,1721,1611,20.2628,-41.599
504,-587,20.1888,40.8188,2.26759e-06,-0.00021158,-0.0014508,0.00135008,-0.00155939,-0.748615,0.00168123,0.0121482,1728,1611,20.1888,-40.8188
511,-587,20.162,40.0557,-0.000553023,-0.000601744,-0.00129755,0.000720392,-0.00187516,-0.776012,0.00154719,0.0154713,1735,1611,20.162,-40.0557
518,-587,20.1576,39.2533,-0.00113458,-0.00110645,-0.00108035,-4.00718e-05,-0.00220096,-0.791906,0.00145414,0.0152439,1742,1611,20.1576,-39.2533
525,-587,20.0826,38.4629,-0.00170196,-0.00165414,-0.000849543,-0.00082817,-0.00252793,-0.799468,0.00148814,0.0197492,1749,1611,20.0826,-38.4628
532,-587,20.0248,37.6937,-0.00226176,-0.00241016,-0.000493992,-0.00183643,-0.00283549,-0.710854,0.0016607,0.0365425,1756,1611,20.0248,-37.6937
539,-587,20.0154,36.7607,0,0,0,0,0,0,0,-1,1763,1611,20.0153,-36.7607
546,-587,17.6716,25.2673,0,0,0,0,0,0,0,-1,1770,1611,17.6716,-25.2674
553,-587,7.5813,8.45068,0,0,0,0,0,0,0,-1,1777,1611,7.58125,-8.45068
560,-587,4.21179,5.23547,0,0,0,0,0,0,0,-1,1784,1611,4.21185,-5.23553
567,-587,4.03711,5.46387,0,0,0,0,0,0,0,-1,1791,1611,4.03715,-5.46382
574,-587,3.83142,5.68884,0,0,0,0,0,0,0,-1,1798,1611,3.83141,-5.68881
581,-587,3.47168,6.00977,0,0,0,0,0,0,0,-1,1805,1611,3.47167,-6.00983
588,-587,0,0,0,0,0,0,0,0,0,-1,1812,1611,0,0
595,-587,0,0,0,0,0,0,0,0,0,-1,1819,1611,0,0
602,-587,0,0,0,0,0,0,0,0,0,-1,1826,1611,0,0
609,-587,0,0,0,0,0,0,0,0,0,-1,1833,1611,0,0
616,-587,0,0,0,0,0,0,0,0,0,-1,1840,1611,0,0
623,-587,0,0,0,0,0,0,0,0,0,-1,1847,1611,0,0
630,-587,0,0,0,0,0,0,0,0,0,-1,1854,1611,0,0
637,-587,0,0,0,0,0,0,0,0,0,-1,1861,1611,0,0
644,-587,0,0,0,0,0,0,0,0,0,-1,1868,1611,0,0
651,-587,0,0,0,0,0,0,0,0,0,-1,1875,1611,0,0
658,-587,0,0,0,0,0,0,0,0,0,-1,1882,1611,0,0
665,-587,0,0,0,0,0,0,0,0,0,-1,1889,1611,0,0
672,-587,0,0,0,0,0,0,0,0,0,-1,1896,1611,0,0
679,-587,0,0,0,0,0,0,0,0,0,-1,1903,1611,0,0
686,-587,0,0,0,0,0,0,0,0,0,-1,1910,1611,0,0
693,-587,0,0,0,0,0,0,0,0,0,-1,1917,1611,0,0
700,-587,0,0,0,0,0,0,0,0,0,-1,1924,1611,0,0
707,-587,0,0,0,0,0,0,0,0,0,-1,1931,1611,0,0
714,-587,0,0,0,0,0,0,0,0,0,-1,1938,1611,0,0
721,-587,0,0,0,0,0,0,0,0,0,-1,1945,1611,0,0
728,-587,0,0,0,0,0,0,0,0,0,-1,1952,1611,0,0
735,-587,0,0,0,0,0,0,0,0,0,-1,1959,1611,0,0
742,-587,0,0,0,0,0,0,0,0,0,-1,1966,1611,0,0
749,-587,0,0,0,0,0,0,0,0,0,-1,1973,1611,0,0
756,-587,0,0,0,0,0,0,0,0,0,-1,1980,1611,0,0
763,-587,0,0,0,0,0,0,0,0,0,-1,1987,1611,0,0
770,-587,0,0,0,0,0,0,0,0,0,-1,1994,1611,0,0
777,-587,0,0,0,0,0,0,0,0,0,-1,2001,1611,0,0
784,-587,0,0,0,0,0,0,0,0,0,-1,2008,1611,0,0
791,-587,0,0,0,0,0,0,0,0,0,-1,2015,1611,0,0
798,-587,0,0,0,0,0,0,0,0,0,-1,2022,1611,0,0
805,-587,0,0,0,0,0,0,0,0,0,-1,2029,1611,0,0
812,-587,0,0,0,0,0,0,0,0,0,-1,2036,1611,0,0
-700,-594,0,0,0,0,0,0,0,0,0,-1,524,1618,0,0
-693,-594,0,0,0,0,0,0,0,0,0,-1,531,1618,0,0
-686,-594,0,0,0,0,0,0,0,0,0,-1,538,1618,0,0
-679,-594,0,0,0,0,0,0,0,0,0,-1,545,1618,0,0
-672,-594,0,0,0,0,0,0,0,0,0,-1,552,1618,0,0
-665,-594,0,0,0,0,0,0,0,0,0,-1,559,1618,0,0
-658,-594,0,0,0,0,0,0,0,0,0,-1,566,1618,0,0
-651,-594,0,0,0,0,0,0,0,0,0,-1,573,1618,0,0
-644,-594,0,0,0,0,0,0,0,0,0,-1,580,1618,0,0
-637,-594,0,0,0,0,0,0,0,0,0,-1,587,1618,0,0
-630,-594,0,0,0,0,0,0,0,0,0,-1,594,1618,0,0
-623,-594,0,0,0,0,0,0,0,0,0,-1,601,1618,0,0
-616,-594,0,0,0,0,0,0,0,0,0,-1,608,1618,0,0
-609,-594,0,0,0,0,0,0,0,0,0,-1,615,1618,0,0
-602,-594,0,0,0,0,0,0,0,0,0,-1,622,1618,0,0
-595,-594,0,0,0,0,0,0,0,0,0,-1,629,1618,0,0
-588,-594,0,0,0,0,0,0,0,0,0,-1,636,1618,0,0
-581,-594,0,0,0,0,0,0,0,0,0,-1,643,1618,0,0
-574,-594,0,0,0,0,0,0,0,0,0,-1,650,1618,0,0
-567,-594,0,0,0,0,0,0,0,0,0,-1,657,1618,0,0
-560,-594,0,0,0,0,0,0,0,0,0,-1,664,1618,0,0
-553,-594,0,0,0,0,0,0,0,0,0,-1,671,1618,0,0
-546,-594,0,0,0,0,0,0,0,0,0,-1,678,1618,0,0
-539,-594,0,0,0,0,0,0,0,0,0,-1,685,1618,0,0
-532,-594,0,0,0,0,0,0,0,0,0,-1,692,1618,0,0
-525,-594,0,0,0,0,0,0,0,0,0,-1,699,1618,0,0
-518,-594,0,0,0,0,0,0,0,0,0,-1,706,1618,0,0
-511,-594,0,0,0,0,0,0,0,0,0,-1,713,1618,0,0
-504,-594,0,0,0,0,0,0,0,0,0,-1,720,1618,0,0
-497,-594,0,0,0,0,0,0,0,0,0,-1,727,1618,0,0
-490,-594,0,0,0,0,0,0,0,0,0,-1,734,1618,0,0
-483,-594,0,0,0,0,0,0,0,0,0,-1,741,1618,0,0
-476,-594,0,0,0,0,0,0,0,0,0,-1,748,1618,0,0
-469,-594,0,0,0,0,0,0,0,0,0,-1,755,1618,0,0
-462,-594,0,0,0,0,0,0,0,0,0,-1,762,1618,0,0
-455,-594,-0.509216,-1.58411,0,0,0,0,0,0,0,-1,769,1618,-0.509245,1.58415
-448,-594,-7.71887,-0.0559082,0,0,0,0,0,0,0,-1,776,1618,-7.71885,0.055939
-441,-594,-5.78473,1.18298,0,0,0,0,0,0,0,-1,783,1618,-5.78474,-1.18295
-434,-594,-3.93628,3.06213,0,0,0,0,0,0,0,-1,790,1618,-3.93631,-3.06208
-427,-594,-3.97693,6.77759,0,0,0,0,0,0,0,-1,797,1618,-3.97695,-6.77764
-420,-594,-2.53046,7.71606,0,0,0,0,0,0,0,-1,804,1618,-2.53047,-7.71609
-413,-594,-0.860413,8.00391,0,0,0,0,0,0,0,-1,811,1618,-0.860423,-8.00389
-406,-594,2.45746,13.6218,0,0,0,0,0,0,0,-1,818,1618,2.45747,-13.6218
-399,-594,1.30414,24.9963,0,0,0,0,0,0,0,-1,825,1618,1.30415,-24.9963
-392,-594,-0.504883,35.921,0,0,0,0,0,0,0,-1,832,1618,-0.50491,-35.921
-385,-594,-1.56036,40.0035,0,0,0,0,0,0,0,-1,839,1618,-1.56035,-40.0035
-378,-594,-1.6532,40.9299,0.000966523,0.00383901,0.00435189,0.00698553,-0.00218,0.944784,0.00552886,0.0239598,846,1618,-1.65317,-40.9299
-371,-594,-1.61542,41.819,0.000720427,0.00290472,0.00353595,0.00551334,-0.0018882,0.935185,0.00444085,0.014748,853,1618,-1.61545,-41.819
-364,-594,-1.62677,42.6268,0.000467824,0.00206099,0.0027223,0.00410086,-0.00157205,0.927732,0.00338199,0.0118257,860,1618,-1.6268,-42.6268
-357,-594,-1.6792,43.4381,0.000542514,0.00161773,0.00221546,0.00335988,-0.00119963,0.904429,0.00272914,0.0113742,867,1618,-1.67919,-43.4381
-350,-594,-1.73688,44.2404,0.000824126,0.00138169,0.00188181,0.00300526,-0.000799443,0.858936,0.00231643,0.0166352,874,1618,-1.73691,-44.2403
-343,-594,-1.81085,45.0186,0.00119864,0.00139259,0.00170316,0.00300153,-0.000410304,0.813837,0.00215087,0.019986,881,1618,-1.81082,-45.0186
-336,-594,-1.88568,45.7985,0.00162218,0.00164528,0.00167418,0.00330795,-4.04937e-05,0.788847,0.00221892,0.0173829,888,1618,-1.8857,-45.7984
-329,-594,-1.89185,46.5925,0.00210008,0.00189492,0.00167866,0.00367929,0.000315712,0.754882,0.00235469,0.0163239,895,1618,-1.89184,-46.5925
-322,-594,-1.87939,47.3984,0.00261289,0.00234403,0.0018501,0.00433344,0.000623483,0.749132,0.00270519,0.0174834,902,1618,-1.87939,-47.3984
-315,-594,-1.89624,48.1704,0.00314524,0.003025,0.00215852,0.00524447,0.000925765,0.771475,0.00323222,0.0178373,909,1618,-1.89625,-48.1705
-308,-594,-1.90552,48.9304,0.00367652,0.00388829,0.0024685,0.00625317,0.00131163,0.806832,0.00380764,0.0156169,916,1618,-1.90553,-48.9305
-301,-594,-1.95313,49.6656,0.00433175,0.00466638,0.00294217,0.00744599,0.00155214,0.813802,0.00453601,0.0124707,923,1618,-1.9531,-49.6656
-294,-594,-1.953,50.425,0.00514287,0.00596651,0.0037337,0.00931103,0.00179835,0.840326,0.00570321,0.0151334,930,1618,-1.95299,-50.4251
-287,-594,-2.04962,51.1702,0.00613553,0.00741736,0.00453437,0.0113559,0.00219701,0.855606,0.0069549,0.0234405,937,1618,-2.04963,-51.1701
-280,-594,-1.9975,51.9487,0.00744453,0.0090742,0.00555916,0.0138779,0.00264081,0.858168,0.00850939,0.0254581,944,1618,-1.99749,-51.9488
-273,-594,-1.90918,52.7959,0.00884947,0.0108803,0.00669659,0.016638,0.00309173,0.86064,0.0102185,0.0291298,951,1618,-1.90917,-52.7959
-266,-594,-1.86877,53.6874,0.0103909,0.0125687,0.00799921,0.0195528,0.00340684,0.853046,0.0120611,0.0360139,958,1618,-1.86876,-53.6874
-259,-594,-1.89679,54.3821,0.0119849,0.0142056,0.00913684,0.0222993,0.00389118,0.845866,0.0137539,0.0441694,965,1618,-1.89678,-54.3821
-252,-594,-1.84393,54.8557,0,0,0,0,0,0,0,-1,972,1618,-1.84396,-54.8557
-245,-594,2.27759,35.1766,0,0,0,0,0,0,0,-1,979,1618,2.27756,-35.1766
-238,-594,2.09015,28.0121,0,0,0,0,0,0,0,-1,986,1618,2.09012,-28.0121
-231,-594,1.93774,9.35388,0,0,0,0,0,0,0,-1,993,1618,1.93776,-9.35393
-224,-594,1.81824,8.62744,0,0,0,0,0,0,0,-1,1000,1618,1.81822,-8.62745
-217,-594,-8.24066,12.0752,0,0,0,0,0,0,0,-1,1007,1618,-8.24068,-12.0751
-210,-594,-5.61438,14.2119,0,0,0,0,0,0,0,-1,1014,1618,-5.6144,-14.212
-203,-594,-3.94507,15.5768,0,0,0,0,0,0,0,-1,1021,1618,-3.94506,-15.5768
-196,-594,2.78613,10.5815,0,0,0,0,0,0,0,-1,1028,1618,2.78612,-10.5815
-189,-594,2.60913,9.48865,0,0,0,0,0,0,0,-1,1035,1618,2.6091,-9.48871
-182,-594,1.2395,9.38806,0,0,0,0,0,0,0,-1,1042,1618,1.23951,-9.38804
-175,-594,0.234863,8.73792,0,0,0,0,0,0,0,-1,1049,1618,0.234812,-8.73786
-168,-594,-0.495483,8.46289,0,0,0,0,0,0,0,-1,1056,1618,-0.495513,-8.46285
-161,-594,-1.39734,8.28699,0,0,0,0,0,0,0,-1,1063,1618,-1.39729,-8.28699
-154,-594,-0.000854492,7.68445,0,0,0,0,0,0,0,-1,1070,1618,-0.000805755,-7.6845
-147,-594,0.348267,9.3385,0,0,0,0,0,0,0,-1,1077,1618,0.348237,-9.33849
-140,-594,0.675171,11.5884,0,0,0,0,0,0,0,-1,1084,1618,0.675204,-11.5884
-133,-594,0,0,0,0,0,0,0,0,0,-1,1091,1618,0,0
-126,-594,0,0,0,0,0,0,0,0,0,-1,1098,1618,0,0
-119,-594,0,0,0,0,0,0,0,0,0,-1,1105,1618,0,0
-112,-594,0,0,0,0,0,0,0,0,0,-1,1112,1618,0,0
-105,-594,0,0,0,0,0,0,0,0,0,-1,1119,1618,0,0
-98,-594,0,0,0,0,0,0,0,0,0,-1,1126,1618,0,0
-91,-594,0,0,0,0,0,0,0,0,0,-1,1133,1618,0,0
-84,-594,0,0,0,0,0,0,0,0,0,-1,1140,1618,0,0
-77,-594,0,0,0,0,0,0,0,0,0,-1,1147,1618,0,0
-70,-594,0,0,0,0,0,0,0,0,0,-1,1154,1618,0,0
-63,-594,0,0,0,0,0,0,0,0,0,-1,1161,1618,0,0
-56,-594,0,0,0,0,0,0,0,0,0,-1,1168,1618,0,0
-49,-594,0,0,0,0,0,0,0,0,0,-1,1175,1618,0,0
-42,-594,0,0,0,0,0,0,0,0,0,-1,1182,1618,0,0
-35,-594,0,0,0,0,0,0,0,0,0,-1,1189,1618,0,0
-28,-594,0,0,0,0,0,0,0,0,0,-1,1196,1618,0,0
-21,-594,0,0,0,0,0,0,0,0,0,-1,1203,1618,0,0
-14,-594,0,0,0,0,0,0,0,0,0,-1,1210,1618,0,0
-7,-594,0,0,0,0,0,0,0,0,0,-1,1217,1618,0,0
0,-594,0,0,0,0,0,0,0,0,0,-1,1224,1618,0,0
7,-594,0,0,0,0,0,0,0,0,0,-1,1231,1618,0,0
14,-594,0,0,0,0,0,0,0,0,0,-1,1238,1618,0,0
21,-594,0,0,0,0,0,0,0,0,0,-1,1245,1618,0,0
28,-594,0,0,0,0,0,0,0,0,0,-1,1252,1618,0,0
35,-594,0,0,0,0,0,0,0,0,0,-1,1259,1618,0,0
42,-594,0,0,0,0,0,0,0,0,0,-1,1266,1618,0,0
49,-594,0,0,0,0,0,0,0,0,0,-1,1273,1618,0,0
56,-594,0,0,0,0,0,0,0,0,0,-1,1280,1618,0,0
63,-594,0,0,0,0,0,0,0,0,0,-1,1287,1618,0,0
70,-594,0,0,0,0,0,0,0,0,0,-1,1294,1618,0,0
77,-594,0,0,0,0,0,0,0,0,0,-1,1301,1618,0,0
84,-594,0,0,0,0,0,0,0,0,0,-1,1308,1618,0,0
91,-594,0,0,0,0,0,0,0,0,0,-1,1315,1618,0,0
98,-594,0,0,0,0,0,0,0,0,0,-1,1322,1618,0,0
105,-594,0,0,0,0,0,0,0,0,0,-1,1329,1618,0,0
112,-594,0,0,0,0,0,0,0,0,0,-1,1336,1618,0,0
119,-594,0,0,0,0,0,0,0,0,0,-1,1343,1618,0,0
126,-594,0,0,0,0,0,0,0,0,0,-1,1350,1618,0,0
133,-594,0,0,0,0,0,0,0,0,0,-1,1357,1618,0,0
140,-594,0,0,0,0,0,0,0,0,0,-1,1364,1618,0,0
147,-594,0,0,0,0,0,0,0,0,0,-1,1371,1618,0,0
154,-594,0,0,0,0,0,0,0,0,0,-1,1378,1618,0,0
161,-594,0,0,0,0,0,0,0,0,0,-1,1385,1618,0,0
168,-594,0,0,0,0,0,0,0,0,0,-1,1392,1618,0,0
175,-594,0,0,0,0,0,0,0,0,0,-1,1399,1618,0,0
182,-594,0,0,0,0,0,0,0,0,0,-1,1406,1618,0,0
189,-594,0,0,0,0,0,0,0,0,0,-1,1413,1618,0,0
196,-594,0,0,0,0,0,0,0,0,0,-1,1420,1618,0,0
203,-594,0,0,0,0,0,0,0,0,0,-1,1427,1618,0,0
210,-594,0,0,0,0,0,0,0,0,0,-1,1434,1618,0,0
217,-594,0,0,0,0,0,0,0,0,0,-1,1441,1618,0,0
224,-594,0,0,0,0,0,0,0,0,0,-1,1448,1618,0,0
231,-594,0,0,0,0,0,0,0,0,0,-1,1455,1618,0,0
238,-594,0,0,0,0,0,0,0,0,0,-1,1462,1618,0,0
245,-594,0,0,0,0,0,0,0,0,0,-1,1469,1618,0,0
252,-594,3.03674,1.20996,0,0,0,0,0,0,0,-1,1476,1618,3.0368,-1.20999
259,-594,4.79834,1.53113,0,0,0,0,0,0,0,-1,1483,1618,4.79837,-1.53118
266,-594,3.71606,2.68152,0,0,0,0,0,0,0,-1,1490,1618,3.71609,-2.68149
273,-594,9.7655,6.33557,0,0,0,0,0,0,0,-1,1497,1618,9.76555,-6.33554
280,-594,3.13281,0.911255,0,0,0,0,0,0,0,-1,1504,1618,3.13277,-0.911207
287,-594,4.42749,1.51563,0,0,0,0,0,0,0,-1,1511,1618,4.42747,-1.51564
294,-594,5.36475,3.34937,0,0,0,0,0,0,0,-1,1518,1618,5.36475,-3.3494
301,-594,7.97144,9.04333,0,0,0,0,0,0,0,-1,1525,1618,7.9714,-9.04328
308,-594,6.30347,10.4633,0,0,0,0,0,0,0,-1,1532,1618,6.30351,-10.4633
315,-594,4.62012,11.934,0,0,0,0,0,0,0,-1,1539,1618,4.62006,-11.934
322,-594,2.91528,13.3134,0,0,0,0,0,0,0,-1,1546,1618,2.91523,-13.3133
329,-594,4.19861,9.77258,0,0,0,0,0,0,0,-1,1553,1618,4.19865,-9.77264
336,-594,10.1353,4.66528,0,0,0,0,0,0,0,-1,1560,1618,10.1353,-4.66533
343,-594,18.1643,55.3273,0,0,0,0,0,0,0,-1,1567,1618,18.1643,-55.3273
350,-594,18.8837,56.7292,0,0,0,0,0,0,0,-1,1574,1618,18.8836,-56.7293
357,-594,19.3219,56.3177,0.0253108,-0.0162375,0.0467074,0.0556555,-0.0465823,0.576149,0.0591045,0.0445134,1581,1618,19.3219,-56.3177
364,-594,19.7557,55.9789,0.0255142,-0.0141272,0.0355789,0.0464208,-0.0350338,0.531263,0.0471808,0.0459056,1588,1618,19.7558,-55.9789
371,-594,20.052,55.6057,0.0247039,-0.0120856,0.0261607,0.0382896,-0.0256713,0.478982,0.0371666,0.0442343,1595,1618,20.052,-55.6058
378,-594,18.6998,54.3657,0,0,0,0,0,0,0,-1,1602,1618,18.6999,-54.3657
385,-594,19.1359,53.616,0.0209034,-0.00780556,0.012086,0.0253139,-0.012216,0.349906,0.0221034,0.0498908,1609,1618,19.1359,-53.6159
392,-594,19.5382,52.8766,0.0184789,-0.00540241,0.00722143,0.0204927,-0.00741627,0.271962,0.0166924,0.0496538,1616,1618,19.5382,-52.8766
399,-594,19.8629,52.2942,0.0159631,-0.00340005,0.00380621,0.0166845,-0.00412136,0.187289,0.0127213,0.0435582,1623,1618,19.8629,-52.2942
406,-594,19.9312,51.5962,0.0134454,-0.00143492,0.00130428,0.0135588,-0.00154838,0.0867695,0.00959708,0.0269567,1630,1618,19.9312,-51.5962
413,-594,19.8881,50.8517,0.0113176,0.00054451,-0.00202885,0.0116871,0.000175096,-0.180108,0.00773367,0.0173725,1637,1618,19.888,-50.8517
420,-594,19.8621,50.14,0.00927579,0.00193033,-0.00307079,0.0103904,0.000815708,-0.348186,0.00667168,0.0148391,1644,1618,19.8621,-50.1401
427,-594,19.8721,49.4011,0.0070568,0.00250065,-0.00296209,0.00851552,0.00104194,-0.457599,0.00536354,0.0136538,1651,1618,19.872,-49.4011
434,-594,19.818,48.6462,0.00553798,0.00228782,-0.00226043,0.00669686,0.00112894,-0.473741,0.00413989,0.0198236,1658,1618,19.818,-48.6462
441,-594,19.7744,47.8715,0.00448171,0.00258049,-0.00156423,0.00536153,0.00170066,-0.512361,0.00316369,0.0183863,1665,1618,19.7744,-47.8715
448,-594,19.7957,47.1021,0.00364529,0.00244558,-0.00157149,0.00472751,0.00136335,-0.603077,0.00280973,0.017966,1672,1618,19.7956,-47.1021
455,-594,19.7399,46.3142,0.00298614,0.00203717,-0.00176428,0.00433863,0.000684684,-0.654036,0.00269336,0.012825,1679,1618,19.7399,-46.3142
462,-594,19.6932,45.5398,0.00261219,0.00153606,-0.00188324,0.00403273,0.000115529,-0.646249,0.00265081,0.0144185,1686,1618,19.6932,-45.5399
469,-594,19.66,44.8141,0.00231134,0.00110978,-0.00201826,0.00381635,-0.000395222,-0.640738,0.00268568,0.0136428,1693,1618,19.66,-44.814
476,-594,19.625,44.0471,0.0018802,0.000759685,-0.00206726,0.00346178,-0.000821893,-0.653069,0.00262506,0.0137846,1700,1618,19.625,-44.0472
483,-594,19.5802,43.2479,0.00140819,0.000299562,-0.00206202,0.0029891,-0.00128135,-0.654091,0.00253041,0.0168465,1707,1618,19.5802,-43.2479
490,-594,19.5392,42.4452,0.000916009,-2.81671e-05,-0.00203358,0.00253158,-0.00164374,-0.671345,0.00242872,0.015019,1714,1618,19.5392,-42.4452
497,-594,19.4871,41.6542,0.000414499,-0.000274402,-0.0020124,0.00211171,-0.00197162,-0.700637,0.00235797,0.0111371,1721,1618,19.487,-41.6542
504,-594,19.4231,40.8497,-0.000136134,-0.000743139,-0.00187479,0.00145956,-0.00233883,-0.705151,0.0022125,0.0114171,1728,1618,19.4231,-40.8497
511,-594,19.4012,40.0371,-0.000745013,-0.000949831,-0.00178302,0.000938535,-0.00263338,-0.756712,0.00213823,0.0191422,1735,1618,19.4012,-40.0371
518,-594,19.3262,39.2214,-0.0015171,-0.00135861,-0.00146322,2.75107e-05,-0.00290322,-0.812451,0.00194472,0.0261971,1742,1618,19.3262,-39.2214
525,-594,19.1892,38.4048,-0.00225697,-0.00188505,-0.00111828,-0.000937371,-0.00320464,-0.86779,0.00190257,0.0375542,1749,1618,19.1891,-38.4048
532,-594,19.3002,37.7169,0,0,0,0,0,0,0,-1,1756,1618,19.3001,-37.7169
539,-594,21.0237,24.9617,0,0,0,0,0,0,0,-1,1763,1618,21.0237,-24.9616
546,-594,7.48645,8.54785,0,0,0,0,0,0,0,-1,1770,1618,7.48639,-8.54789
553,-594,3.69714,5.68762,0,0,0,0,0,0,0,-1,1777,1618,3.69715,-5.68764
560,-594,6.06616,4.44482,0,0,0,0,0,0,0,-1,1784,1618,6.06621,-4.44477
567,-594,5.97266,4.73303,0,0,0,0,0,0,0,-1,1791,1618,5.97271,-4.73309
574,-594,5.9906,4.96326,0,0,0,0,0,0,0,-1,1798,1618,5.99065,-4.96326
581,-594,0,0,0,0,0,0,0,0,0,-1,1805,1618,0,0
588,-594,0,0,0,0,0,0,0,0,0,-1,1812,1618,0,0
595,-594,0,0,0,0,0,0,0,0,0,-1,1819,1618,0,0
602,-594,0,0,0,0,0,0,0,0,0,-1,1826,1618,0,0
609,-594,0,0,0,0,0,0,0,0,0,-1,1833,1618,0,0
616,-594,0,0,0,0,0,0,0,0,0,-1,1840,1618,0,0
623,-594,0,0,0,0,0,0,0,0,0,-1,1847,1618,0,0
630,-594,0,0,0,0,0,0,0,0,0,-1,1854,1618,0,0
637,-594,0,0,0,0,0,0,0,0,0,-1,1861,1618,0,0
644,-594,0,0,0,0,0,0,0,0,0,-1,1868,1618,0,0
651,-594,0,0,0,0,0,0,0,0,0,-1,1875,1618,0,0
658,-594,0,0,0,0,0,0,0,0,0,-1,1882,1618,0,0
665,-594,0,0,0,0,0,0,0,0,0,-1,1889,1618,0,0
672,-594,0,0,0,0,0,0,0,0,0,-1,1896,1618,0,0
679,-594,0,0,0,0,0,0,0,0,0,-1,1903,1618,0,0
686,-594,0,0,0,0,0,0,0,0,0,-1,1910,1618,0,0
693,-594,0,0,0,0,0,0,0,0,0,-1,1917,1618,0,0
700,-594,0,0,0,0,0,0,0,0,0,-1,1924,1618,0,0
707,-594,0,0,0,0,0,0,0,0,0,-1,1931,1618,0,0
714,-594,0,0,0,0,0,0,0,0,0,-1,1938,1618,0,0
721,-594,0,0,0,0,0,0,0,0,0,-1,1945,1618,0,0
728,-594,0,0,0,0,0,0,0,0,0,-1,1952,1618,0,0
735,-594,0,0,0,0,0,0,0,0,0,-1,1959,1618,0,0
742,-594,0,0,0,0,0,0,0,0,0,-1,1966,1618,0,0
749,-594,0,0,0,0,0,0,0,0,0,-1,1973,1618,0,0
756,-594,0,0,0,0,0,0,0,0,0,-1,1980,1618,0,0
763,-594,0,0,0,0,0,0,0,0,0,-1,1987,1618,0,0
770,-594,0,0,0,0,0,0,0,0,0,-1,1994,1618,0,0
777,-594,0,0,0,0,0,0,0,0,0,-1,2001,1618,0,0
784,-594,0,0,0,0,0,0,0,0,0,-1,2008,1618,0,0
791,-594,0,0,0,0,0,0,0,0,0,-1,2015,1618,0,0
798,-594,0,0,0,0,0,0,0,0,0,-1,2022,1618,0,0
805,-594,0,0,0,0,0,0,0,0,0,-1,2029,1618,0,0
812,-594,0,0,0,0,0,0,0,0,0,-1,2036,1618,0,0
-700,-601,0,0,0,0,0,0,0,0,0,-1,524,1625,0,0
-693,-601,0,0,0,0,0,0,0,0,0,-1,531,1625,0,0
-686,-601,0,0,0,0,0,0,0,0,0,-1,538,1625,0,0
-679,-601,0,0,0,0,0,0,0,0,0,-1,545,1625,0,0
-672,-601,0,0,0,0,0,0,0,0,0,-1,552,1625,0,0
-665,-601,0,0,0,0,0,0,0,0,0,-1,559,1625,0,0
-658,-601,0,0,0,0,0,0,0,0,0,-1,566,1625,0,0
-651,-601,0,0,0,0,0,0,0,0,0,-1,573,1625,0,0
-644,-601,0,0,0,0,0,0,0,0,0,-1,580,1625,0,0
-637,-601,0,0,0,0,0,0,0,0,0,-1,587,1625,0,0
-630,-601,0,0,0,0,0,0,0,0,0,-1,594,1625,0,0
-623,-601,0,0,0,0,0,0,0,0,0,-1,601,1625,0,0
-616,-601,0,0,0,0,0,0,0,0,0,-1,608,1625,0,0
-609,-601,0,0,0,0,0,0,0,0,0,-1,615,1625,0,0
-602,-601,0,0,0,0,0,0,0,0,0,-1,622,1625,0,0
-595,-601,0,0,0,0,0,0,0,0,0,-1,629,1625,0,0
-588,-601,0,0,0,0,0,0,0,0,0,-1,636,1625,0,0
-581,-601,0,0,0,0,0,0,0,0,0,-1,643,1625,0,0
-574,-601,0,0,0,0,0,0,0,0,0,-1,650,1625,0,0
-567,-601,0,0,0,0,0,0,0,0,0,-1,657,1625,0,0
-560,-601,0,0,0,0,0,0,0,0,0,-1,664,1625,0,0
-553,-601,0,0,0,0,0,0,0,0,0,-1,671,1625,0,0
-546,-601,0,0,0,0,0,0,0,0,0,-1,678,1625,0,0
-539,-601,0,0,0,0,0,0,0,0,0,-1,685,1625,0,0
-532,-601,0,0,0,0,0,0,0,0,0,-1,692,1625,0,0
-525,-601,0,0,0,0,0,0,0,0,0,-1,699,1625,0,0
-518,-601,0,0,0,0,0,0,0,0,0,-1,706,1625,0,0
-511,-601,0,0,0,0,0,0,0,0,0,-1,713,1625,0,0
-504,-601,0,0,0,0,0,0,0,0,0,-1,720,1625,0,0
-497,-601,0,0,0,0,0,0,0,0,0,-1,727,1625,0,0
-490,-601,0,0,0,0,0,0,0,0,0,-1,734,1625,0,0
-483,-601,0,0,0,0,0,0,0,0,0,-1,741,1625,0,0
-476,-601,0,0,0,0,0,0,0,0,0,-1,748,1625,0,0
-469,-601,0,0,0,0,0,0,0,0,0,-1,755,1625,0,0
-462,-601,0,0,0,0,0,0,0,0,0,-1,762,1625,0,0
-455,-601,0,0,0,0,0,0,0,0,0,-1,769,1625,0,0
-448,-601,-7.07623,2.7616,0,0,0,0,0,0,0,-1,776,1625,-7.07626,-2.76161
-441,-601,-6.06689,3.33447,0,0,0,0,0,0,0,-1,783,1625,-6.06691,-3.33448
-434,-601,-5.02655,3.8468,0,0,0,0,0,0,0,-1,790,1625,-5.02657,-3.84674
-427,-601,-5.78601,4.2406,0,0,0,0,0,0,0,-1,797,1625,-5.786,-4.24058
-420,-601,-5.5191,5.60364,0,0,0,0,0,0,0,-1,804,1625,-5.51907,-5.60368
-413,-601,-4.30756,5.86047,0,0,0,0,0,0,0,-1,811,1625,-4.30757,-5.86046
-406,-601,-1.67493,7.20422,0,0,0,0,0,0,0,-1,818,1625,-1.67493,-7.20428
-399,-601,1.40094,15.3108,0,0,0,0,0,0,0,-1,825,1625,1.40096,-15.3107
-392,-601,0.678833,30.98,0,0,0,0,0,0,0,-1,832,1625,0.678827,-30.98
-385,-601,-0.0147095,37.3687,0,0,0,0,0,0,0,-1,839,1625,-0.0147267,-37.3687
-378,-601,-0.857788,40.7609,0,0,0,0,0,0,0,-1,846,1625,-0.857819,-40.7609
-371,-601,-0.792969,41.7411,0.000724303,0.00377061,0.00427237,0.00678322,-0.0022883,0.956631,0.00544754,0.0273012,853,1625,-0.792981,-41.7411
-364,-601,-0.841736,42.6165,0.000290961,0.00245272,0.00308992,0.00464536,-0.00190168,0.95365,0.003889,0.0138833,860,1625,-0.841752,-42.6165
-357,-601,-0.919128,43.4689,0.000254787,0.00163989,0.00238096,0.00342697,-0.00153229,0.926929,0.00293206,0.0109251,867,1625,-0.9191,-43.4689
-350,-601,-0.93103,44.313,0.000450632,0.00116028,0.00190121,0.0027395,-0.00112858,0.877652,0.00229689,0.0225874,874,1625,-0.931053,-44.313
-343,-601,-1.03516,45.1387,0.000810503,0.00104251,0.00163496,0.00256557,-0.000712561,0.820814,0.00199087,0.0283249,881,1625,-1.03517,-45.1387
-336,-601,-1.14581,45.9333,0.00120166,0.00111508,0.00150119,0.00266019,-0.000343441,0.770984,0.00189832,0.0258481,888,1625,-1.1458,-45.9333
-329,-601,-1.12573,46.7094,0.00160721,0.00125037,0.0014286,0.00286849,-1.09107e-05,0.723275,0.00191597,0.0208889,895,1625,-1.12574,-46.7093
-322,-601,-1.10223,47.4762,0.0020232,0.00158799,0.00150838,0.00332959,0.0002816,0.713761,0.00213207,0.0148562,902,1625,-1.10226,-47.4762
-315,-601,-1.12305,48.1743,0.00247163,0.0021078,0.00172521,0.00402448,0.000554942,0.73287,0.00251847,0.0155273,909,1625,-1.12307,-48.1743
-308,-601,-1.17102,48.9386,0.00296133,0.00278551,0.00196032,0.00483572,0.000911129,0.762991,0.00296711,0.0135537,916,1625,-1.17102,-48.9385
-301,-601,-1.19873,49.7234,0.00355398,0.00345945,0.00234982,0.00585701,0.00115642,0.775343,0.00358197,0.010549,923,1625,-1.1987,-49.7234
-294,-601,-1.2193,50.479,0.00428366,0.00457635,0.00299652,0.0074301,0.00142991,0.809798,0.00455224,0.0113841,930,1625,-1.21932,-50.4791
-287,-601,-1.30334,51.2572,0.00512712,0.00579008,0.00360268,0.0090765,0.00184071,0.831274,0.00554031,0.0121885,937,1625,-1.30333,-51.2572
-280,-601,-1.32465,51.9932,0.00624148,0.00708765,0.00436948,0.0110545,0.00227465,0.833662,0.0067406,0.0129663,944,1625,-1.32464,-51.9931
-273,-601,-1.30762,52.7355,0.00746807,0.00845177,0.00521703,0.0132001,0.00271976,0.832398,0.00804814,0.0133728,951,1625,-1.30761,-52.7355
-266,-601,-1.25421,53.4967,0.00885507,0.00960237,0.00616693,0.015407,0.00305048,0.815656,0.00942057,0.0163884,958,1625,-1.25421,-53.4967
-259,-601,-1.23499,54.1632,0.0103714,0.0109188,0.00698537,0.0176358,0.00365435,0.804979,0.0107482,0.0283832,965,1625,-1.235,-54.1632
-252,-601,-1.2406,54.8251,0,0,0,0,0,0,0,-1,972,1625,-1.24062,-54.8251
-245,-601,-0.889709,56.2527,0,0,0,0,0,0,0,-1,979,1625,-0.889727,-56.2527
-238,-601,-0.0498657,52.927,0,0,0,0,0,0,0,-1,986,1625,-0.0498886,-52.9271
-231,-601,2.66772,13.7051,0,0,0,0,0,0,0,-1,993,1625,2.6677,-13.7051
-224,-601,-0.0305176,9.13684,0,0,0,0,0,0,0,-1,1000,1625,-0.030498,-9.13681
-217,-601,3.39429,10.3898,0,0,0,0,0,0,0,-1,1007,1625,3.39431,-10.3898
-210,-601,-6.53699,15.7931,0,0,0,0,0,0,0,-1,1014,1625,-6.53697,-15.7931
-203,-601,2.69348,15.9099,0,0,0,0,0,0,0,-1,1021,1625,2.69351,-15.91
-196,-601,2.66992,16.1815,0,0,0,0,0,0,0,-1,1028,1625,2.66995,-16.1815
-189,-601,2.849,16.6105,0,0,0,0,0,0,0,-1,1035,1625,2.84902,-16.6104
-182,-601,1.82153,13.9752,0,0,0,0,0,0,0,-1,1042,1625,1.82155,-13.9752
-175,-601,0.544922,9.28687,0,0,0,0,0,0,0,-1,1049,1625,0.544879,-9.28685
-168,-601,-0.247559,8.97461,0,0,0,0,0,0,0,-1,1056,1625,-0.247598,-8.97466
-161,-601,-1.16833,8.80078,0,0,0,0,0,0,0,-1,1063,1625,-1.16837,-8.80081
-154,-601,1.12756,7.94861,0,0,0,0,0,0,0,-1,1070,1625,1.12762,-7.94855
-147,-601,1.35352,9.55432,0,0,0,0,0,0,0,-1,1077,1625,1.35351,-9.55429
-140,-601,1.72437,11.1498,0,0,0,0,0,0,0,-1,1084,1625,1.72432,-11.1498
-133,-601,2.13281,12.8347,0,0,0,0,0,0,0,-1,1091,1625,2.13287,-12.8348
-126,-601,3.09534,15.427,0,0,0,0,0,0,0,-1,1098,1625,3.0953,-15.4271
-119,-601,1.22485,9.43457,0,0,0,0,0,0,0,-1,1105,1625,1.22489,-9.43456
-112,-601,0,0,0,0,0,0,0,0,0,-1,1112,1625,0,0
-105,-601,0,0,0,0,0,0,0,0,0,-1,1119,1625,0,0
-98,-601,0,0,0,0,0,0,0,0,0,-1,1126,1625,0,0
-91,-601,0,0,0,0,0,0,0,0,0,-1,1133,1625,0,0
-84,-601,0,0,0,0,0,0,0,0,0,-1,1140,1625,0,0
-77,-601,0,0,0,0,0,0,0,0,0,-1,1147,1625,0,0
-70,-601,0,0,0,0,0,0,0,0,0,-1,1154,1625,0,0
-63,-601,0,0,0,0,0,0,0,0,0,-1,1161,1625,0,0
-56,-601,0,0,0,0,0,0,0,0,0,-1,1168,1625,0,0
-49,-601,0,0,0,0,0,0,0,0,0,-1,1175,1625,0,0
-42,-601,0,0,0,0,0,0,0,0,0,-1,1182,1625,0,0
-35,-601,0,0,0,0,0,0,0,0,0,-1,1189,1625,0,0
-28,-601,0,0,0,0,0,0,0,0,0,-1,1196,1625,0,0
-21,-601,0,0,0,0,0,0,0,0,0,-1,1203,1625,0,0
-14,-601,0,0,0,0,0,0,0,0,0,-1,1210,1625,0,0
-7,-601,0,0,0,0,0,0,0,0,0,-1,1217,1625,0,0
0,-601,0,0,0,0,0,0,0,0,0,-1,1224,1625,0,0
7,-601,0,0,0,0,0,0,0,0,0,-1,1231,1625,0,0
14,-601,0,0,0,0,0,0,0,0,0,-1,1238,1625,0,0
21,-601,0,0,0,0,0,0,0,0,0,-1,1245,1625,0,0
28,-601,0,0,0,0,0,0,0,0,0,-1,1252,1625,0,0
35,-601,0,0,0,0,0,0,0,0,0,-1,1259,1625,0,0
42,-601,0,0,0,0,0,0,0,0,0,-1,1266,1625,0,0
49,-601,0,0,0,0,0,0,0,0,0,-1,1273,1625,0,0
56,-601,0,0,0,0,0,0,0,0,0,-1,1280,1625,0,0
63,-601,0,0,0,0,0,0,0,0,0,-1,1287,1625,0,0
70,-601,0,0,0,0,0,0,0,0,0,-1,1294,1625,0,0
77,-601,0,0,0,0,0,0,0,0,0,-1,1301,1625,0,0
84,-601,0,0,0,0,0,0,0,0,0,-1,1308,1625,0,0
91,-601,0,0,0,0,0,0,0,0,0,-1,1315,1625,0,0
98,-601,0,0,0,0,0,0,0,0,0,-1,1322,1625,0,0
105,-601,0,0,0,0,0,0,0,0,0,-1,1329,1625,0,0
112,-601,0,0,0,0,0,0,0,0,0,-1,1336,1625,0,0
119,-601,0,0,0,0,0,0,0,0,0,-1,1343,1625,0,0
126,-601,0,0,0,0,0,0,0,0,0,-1,1350,1625,0,0
133,-601,0,0,0,0,0,0,0,0,0,-1,1357,1625,0,0
140,-601,0,0,0,0,0,0,0,0,0,-1,1364,1625,0,0
147,-601,0,0,0,0,0,0,0,0,0,-1,1371,1625,0,0
154,-601,0,0,0,0,0,0,0,0,0,-1,1378,1625,0,0
161,-601,0,0,0,0,0,0,0,0,0,-1,1385,1625,0,0
168,-601,0,0,0,0,0,0,0,0,0,-1,1392,1625,0,0
175,-601,0,0,0,0,0,0,0,0,0,-1,1399,1625,0,0
182,-601,0,0,0,0,0,0,0,0,0,-1,1406,1625,0,0
189,-601,0,0,0,0,0,0,0,0,0,-1,1413,1625,0,0
196,-601,0,0,0,0,0,0,0,0,0,-1,1420,1625,0,0
203,-601,0,0,0,0,0,0,0,0,0,-1,1427,1625,0,0
210,-601,0,0,0,0,0,0,0,0,0,-1,1434,1625,0,0
217,-601,0,0,0,0,0,0,0,0,0,-1,1441,1625,0,0
224,-601,0,0,0,0,0,0,0,0,0,-1,1448,1625,0,0
231,-601,-0.0371094,0.525879,0,0,0,0,0,0,0,-1,1455,1625,-0.0371518,-0.525824
238,-601,2.03369,-1.32861,0,0,0,0,0,0,0,-1,1462,1625,2.03364,1.32858
245,-601,2.71375,2.44983,0,0,0,0,0,0,0,-1,1469,1625,2.71371,-2.44979
252,-601,4.66943,2.28381,0,0,0,0,0,0,0,-1,1476,1625,4.66947,-2.28376
259,-601,6.42712,2.61987,0,0,0,0,0,0,0,-1,1483,1625,6.42711,-2.61985
266,-601,6.75317,1.68701,0,0,0,0,0,0,0,-1,1490,1625,6.75323,-1.687
273,-601,5.4314,2.92053,0,0,0,0,0,0,0,-1,1497,1625,5.43144,-2.92051
280,-601,4.64722,1.17786,0,0,0,0,0,0,0,-1,1504,1625,4.64722,-1.1779
287,-601,5.32532,2.6217,0,0,0,0,0,0,0,-1,1511,1625,5.32535,-2.62171
294,-601,5.97693,4.22693,0,0,0,0,0,0,0,-1,1518,1625,5.97697,-4.22694
301,-601,7.28162,9.50024,0,0,0,0,0,0,0,-1,1525,1625,7.28162,-9.50025
308,-601,6.53528,10.3927,0,0,0,0,0,0,0,-1,1532,1625,6.53529,-10.3927
315,-601,4.88013,11.7184,0,0,0,0,0,0,0,-1,1539,1625,4.88015,-11.7184
322,-601,3.38098,12.7864,0,0,0,0,0,0,0,-1,1546,1625,3.38104,-12.7864
329,-601,1.8772,13.8768,0,0,0,0,0,0,0,-1,1553,1625,1.87716,-13.8768
336,-601,4.67847,9.53308,0,0,0,0,0,0,0,-1,1560,1625,4.67848,-9.53309
343,-601,11.1404,3.14575,0,0,0,0,0,0,0,-1,1567,1625,11.1404,-3.1458
350,-601,15.9509,57.9169,0,0,0,0,0,0,0,-1,1574,1625,15.951,-57.9169
357,-601,18.1376,56.6443,0,0,0,0,0,0,0,-1,1581,1625,18.1376,-56.6442
364,-601,18.4553,56.2466,0,0,0,0,0,0,0,-1,1588,1625,18.4553,-56.2466
371,-601,18.7815,55.6868,0,0,0,0,0,0,0,-1,1595,1625,18.7815,-55.6868
378,-601,19.0653,54.7767,0,0,0,0,0,0,0,-1,1602,1625,19.0652,-54.7767
385,-601,19.1671,54.1139,0.0181089,-0.00260176,0.00654898,0.020006,-0.00449886,0.281961,0.0150626,0.0428279,1609,1625,19.1671,-54.1139
392,-601,18.8879,53.0664,0.0157605,-0.00156204,0.00342178,0.0164119,-0.00221346,0.188123,0.0117488,0.0402094,1616,1625,18.888,-53.0664
399,-601,19.1301,52.3455,0.0134246,-0.000717595,0.00135426,0.0135531,-0.000846112,0.0946148,0.00933023,0.0223037,1623,1625,19.1302,-52.3454
406,-601,19.1943,51.5758,0.0111451,5.76584e-06,-9.62833e-06,0.0111451,5.7579e-06,-0.000864355,0.00742814,0.0135035,1630,1625,19.1943,-51.5759
413,-601,19.1362,50.8522,0.00922395,0.000990071,-0.00208214,0.00972053,0.000493499,-0.234118,0.00632228,0.0128203,1637,1625,19.1362,-50.8522
420,-601,19.1274,50.106,0.00747732,0.00169456,-0.00260096,0.00847504,0.000696841,-0.366285,0.00543266,0.0116377,1644,1625,19.1274,-50.1059
427,-601,19.1183,49.3717,0.00562084,0.00183288,-0.00235063,0.00674557,0.000708148,-0.446285,0.00428057,0.015595,1651,1625,19.1182,-49.3717
434,-601,19.0901,48.6155,0.00437787,0.00158699,-0.0018414,0.00529284,0.000672019,-0.461156,0.00332725,0.017535,1658,1625,19.0901,-48.6155
441,-601,19.0569,47.8518,0.00355723,0.00172131,-0.00140102,0.00431423,0.000964312,-0.495384,0.00261468,0.0204394,1665,1625,19.0569,-47.8518
448,-601,19.0341,47.1351,0.00296115,0.00157007,-0.00153339,0.00394938,0.000581846,-0.572478,0.002462,0.0161546,1672,1625,19.034,-47.1351
455,-601,18.9956,46.3418,0.00250418,0.00122335,-0.00182713,0.00379989,-7.23494e-05,-0.616837,0.00255771,0.013548,1679,1625,18.9956,-46.3418
462,-601,18.9384,45.567,0.00224899,0.000760081,-0.00204484,0.00368068,-0.000671602,-0.610823,0.00270558,0.0125514,1686,1625,18.9384,-45.567
469,-601,18.9086,44.8544,0.00204154,0.00040915,-0.00227779,0.00364496,-0.00119427,-0.613361,0.0029109,0.0128744,1693,1625,18.9086,-44.8544
476,-601,18.8706,44.0751,0.001695,0.000157848,-0.00242062,0.00346614,-0.00161329,-0.631676,0.00299694,0.0145628,1700,1625,18.8706,-44.0751
483,-601,18.7983,43.2919,0.00132194,-0.000220657,-0.00253695,0.00320224,-0.00210096,-0.637825,0.00308373,0.0167075,1707,1625,18.7984,-43.2918
490,-601,18.7386,42.514,0.000909068,-0.000492778,-0.0026208,0.00292106,-0.00250477,-0.654733,0.00313567,0.0138544,1714,1625,18.7386,-42.5141
497,-601,18.7136,41.7094,0.000483504,-0.000613696,-0.00271198,0.00270182,-0.00283201,-0.685601,0.00319525,0.0136433,1721,1625,18.7136,-41.7094
504,-601,18.7533,40.8759,-9.15879e-06,-0.000988445,-0.00265148,0.00219751,-0.00319511,-0.694093,0.00313114,0.0307037,1728,1625,18.7533,-40.8759
511,-601,18.6375,40.2085,-0.000640125,-0.000927043,-0.00270606,0.00192627,-0.00349344,-0.758916,0.00317238,0.0492143,1735,1625,18.6375,-40.2084
518,-601,18.5144,39.2108,0,0,0,0,0,0,0,-1,1742,1625,18.5144,-39.2108
525,-601,18.2609,38.2417,0,0,0,0,0,0,0,-1,1749,1625,18.2609,-38.2416
532,-601,15.9053,24.3068,0,0,0,0,0,0,0,-1,1756,1625,15.9053,-24.3067
539,-601,7.77112,11.4299,0,0,0,0,0,0,0,-1,1763,1625,7.77116,-11.4299
546,-601,6.56873,3.62354,0,0,0,0,0,0,0,-1,1770,1625,6.56867,-3.62352
553,-601,7.03015,4.25049,0,0,0,0,0,0,0,-1,1777,1625,7.03011,-4.25048
560,-601,7.50745,4.83374,0,0,0,0,0,0,0,-1,1784,1625,7.50744,-4.83376
567,-601,7.82043,3.83301,0,0,0,0,0,0,0,-1,1791,1625,7.82041,-3.83303
574,-601,0,0,0,0,0,0,0,0,0,-1,1798,1625,0,0
581,-601,0,0,0,0,0,0,0,0,0,-1,1805,1625,0,0
588,-601,0,0,0,0,0,0,0,0,0,-1,1812,1625,0,0
595,-601,0,0,0,0,0,0,0,0,0,-1,1819,1625,0,0
602,-601,0,0,0,0,0,0,0,0,0,-1,1826,1625,0,0
609,-601,0,0,0,0,0,0,0,0,0,-1,1833,1625,0,0
616,-601,0,0,0,0,0,0,0,0,0,-1,1840,1625,0,0
623,-601,0,0,0,0,0,0,0,0,0,-1,1847,1625,0,0
630,-601,0,0,0,0,0,0,0,0,0,-1,1854,1625,0,0
637,-601,0,0,0,0,0,0,0,0,0,-1,1861,1625,0,0
644,-601,0,0,0,0,0,0,0,0,0,-1,1868,1625,0,0
651,-601,0,0,0,0,0,0,0,0,0,-1,1875,1625,0,0
658,-601,0,0,0,0,0,0,0,0,0,-1,1882,1625,0,0
665,-601,0,0,0,0,0,0,0,0,0,-1,1889,1625,0,0
672,-601,0,0,0,0,0,0,0,0,0,-1,1896,1625,0,0
679,-601,0,0,0,0,0,0,0,0,0,-1,1903,1625,0,0
686,-601,0,0,0,0,0,0,0,0,0,-1,1910,1625,0,0
693,-601,0,0,0,0,0,0,0,0,0,-1,1917,1625,0,0
700,-601,0,0,0,0,0,0,0,0,0,-1,1924,1625,0,0
707,-601,0,0,0,0,0,0,0,0,0,-1,1931,1625,0,0
714,-601,0,0,0,0,0,0,0,0,0,-1,1938,1625,0,0
721,-601,0,0,0,0,0,0,0,0,0,-1,1945,1625,0,0
728,-601,0,0,0,0,0,0,0,0,0,-1,1952,1625,0,0
735,-601,0,0,0,0,0,0,0,0,0,-1,1959,1625,0,0
742,-601,0,0,0,0,0,0,0,0,0,-1,1966,1625,0,0
749,-601,0,0,0,0,0,0,0,0,0,-1,1973,1625,0,0
756,-601,0,0,0,0,0,0,0,0,0,-1,1980,1625,0,0
763,-601,0,0,0,0,0,0,0,0,0,-1,1987,1625,0,0
770,-601,0,0,0,0,0,0,0,0,0,-1,1994,1625,0,0
777,-601,0,0,0,0,0,0,0,0,0,-1,2001,1625,0,0
784,-601,0,0,0,0,0,0,0,0,0,-1,2008,1625,0,0
791,-601,0,0,0,0,0,0,0,0,0,-1,2015,1625,0,0
798,-601,0,0,0,0,0,0,0,0,0,-1,2022,1625,0,0
805,-601,0,0,0,0,0,0,0,0,0,-1,2029,1625,0,0
812,-601,0,0,0,0,0,0,0,0,0,-1,2036,1625,0,0
-700,-608,0,0,0,0,0,0,0,0,0,-1,524,1632,0,0
-693,-608,0,0,0,0,0,0,0,0,0,-1,531,1632,0,0
-686,-608,0,0,0,0,0,0,0,0,0,-1,538,1632,0,0
-679,-608,0,0,0,0,0,0,0,0,0,-1,545,1632,0,0
-672,-608,0,0,0,0,0,0,0,0,0,-1,552,1632,0,0
-665,-608,0,0,0,0,0,0,0,0,0,-1,559,1632,0,0
-658,-608,0,0,0,0,0,0,0,0,0,-1,566,1632,0,0
-651,-608,0,0,0,0,0,0,0,0,0,-1,573,1632,0,0
-644,-608,0,0,0,0,0,0,0,0,0,-1,580,1632,0,0
-637,-608,0,0,0,0,0,0,0,0,0,-1,587,1632,0,0
-630,-608,0,0,0,0,0,0,0,0,0,-1,594,1632,0,0
-623,-608,0,0,0,0,0,0,0,0,0,-1,601,1632,0,0
-616,-608,0,0,0,0,0,0,0,0,0,-1,608,1632,0,0
-609,-608,0,0,0,0,0,0,0,0,0,-1,615,1632,0,0
-602,-608,0,0,0,0,0,0,0,0,0,-1,622,1632,0,0
-595,-608,0,0,0,0,0,0,0,0,0,-1,629,1632,0,0
-588,-608,0,0,0,0,0,0,0,0,0,-1,636,1632,0,0
-581,-608,0,0,0,0,0,0,0,0,0,-1,643,1632,0,0
-574,-608,0,0,0,0,0,0,0,0,0,-1,650,1632,0,0
-567,-608,0,0,0,0,0,0,0,0,0,-1,657,1632,0,0
-560,-608,0,0,0,0,0,0,0,0,0,-1,664,1632,0,0
-553,-608,0,0,0,0,0,0,0,0,0,-1,671,1632,0,0
-546,-608,0,0,0,0,0,0,0,0,0,-1,678,1632,0,0
-539,-608,0,0,0,0,0,0,0,0,0,-1,685,1632,0,0
-532,-608,0,0,0,0,0,0,0,0,0,-1,692,1632,0,0
-525,-608,0,0,0,0,0,0,0,0,0,-1,699,1632,0,0
-518,-608,0,0,0,0,0,0,0,0,0,-1,706,1632,0,0
-511,-608,0,0,0,0,0,0,0,0,0,-1,713,1632,0,0
-504,-608,0,0,0,0,0,0,0,0,0,-1,720,1632,0,0
-497,-608,0,0,0,0,0,0,0,0,0,-1,727,1632,0,0
-490,-608,0,0,0,0,0,0,0,0,0,-1,734,1632,0,0
-483,-608,0,0,0,0,0,0,0,0,0,-1,741,1632,0,0
-476,-608,0,0,0,0,0,0,0,0,0,-1,748,1632,0,0
-469,-608,0,0,0,0,0,0,0,0,0,-1,755,1632,0,0
-462,-608,0,0,0,0,0,0,0,0,0,-1,762,1632,0,0
-455,-608,0,0,0,0,0,0,0,0,0,-1,769,1632,0,0
-448,-608,0,0,0,0,0,0,0,0,0,-1,776,1632,0,0
-441,-608,-7.34601,2.78052,0,0,0,0,0,0,0,-1,783,1632,-7.346,-2.78056
-434,-608,-6.34558,3.27405,0,0,0,0,0,0,0,-1,790,1632,-6.34555,-3.27406
-427,-608,-7.74335,4.17688,0,0,0,0,0,0,0,-1,797,1632,-7.74334,-4.17693
-420,-608,-6.82794,4.34839,0,0,0,0,0,0,0,-1,804,1632,-6.82794,-4.34838
-413,-608,-5.41919,5.66138,0,0,0,0,0,0,0,-1,811,1632,-5.41917,-5.66133
-406,-608,-4.79681,4.98999,0,0,0,0,0,0,0,-1,818,1632,-4.79684,-4.98997
-399,-608,-2.60645,6.34167,0,0,0,0,0,0,0,-1,825,1632,-2.60643,-6.34169
-392,-608,2.08356,15.437,0,0,0,0,0,0,0,-1,832,1632,2.08354,-15.437
-385,-608,1.51526,31.5153,0,0,0,0,0,0,0,-1,839,1632,1.51527,-31.5153
-378,-608,0.340515,38.2742,0,0,0,0,0,0,0,-1,846,1632,0.340526,-38.2742
-371,-608,0.1828,41.6178,0,0,0,0,0,0,0,-1,853,1632,0.182794,-41.6178
-364,-608,0.026001,42.5193,9.78701e-05,0.00322778,0.00347871,0.00547734,-0.00215169,0.99677,0.00454198,0.0281362,860,1632,0.0259894,-42.5193
-357,-608,-0.123718,43.42,-8.31375e-05,0.00193387,0.00257805,0.00369365,-0.00184292,0.971842,0.00325553,0.0196848,867,1632,-0.123729,-43.42
-350,-608,-0.151428,44.285,2.81458e-06,0.00114457,0.00197039,0.00262511,-0.00147773,0.926402,0.00239945,0.0216129,874,1632,-0.151404,-44.285
-343,-608,-0.211975,45.1287,0.000347527,0.000855379,0.00162,0.00224123,-0.00103832,0.863138,0.00193544,0.0293826,881,1632,-0.211976,-45.1286
-336,-608,-0.297974,45.9889,0.000707731,0.000729839,0.00137858,0.00209741,-0.000659837,0.789407,0.00166245,0.0216677,888,1632,-0.297978,-45.9889
-329,-608,-0.362061,46.7671,0.00104815,0.000748446,0.0012274,0.00213481,-0.000338212,0.724654,0.00154831,0.0196537,895,1632,-0.362057,-46.7671
-322,-608,-0.382019,47.4921,0.00138632,0.000974645,0.00121247,0.0024103,-4.93404e-05,0.701317,0.00162357,0.0188066,902,1632,-0.382001,-47.4921
-315,-608,-0.399658,48.2129,0.00177251,0.00135363,0.00133599,0.00291538,0.000210768,0.707647,0.00187728,0.0183538,909,1632,-0.399655,-48.2129
-308,-608,-0.467651,49.0005,0.00222909,0.00187425,0.00148895,0.00355115,0.000552187,0.726099,0.00220652,0.0186652,916,1632,-0.467652,-49.0005
-301,-608,-0.471802,49.7767,0.00276921,0.00244853,0.0017796,0.00439568,0.000822058,0.74047,0.0026985,0.0117118,923,1632,-0.471775,-49.7767
-294,-608,-0.46814,50.5172,0.00345499,0.00341185,0.00230014,0.00573366,0.00113318,0.780709,0.00350629,0.0114536,930,1632,-0.468137,-50.5172
-287,-608,-0.530884,51.2632,0.00419928,0.00443972,0.00275825,0.00708037,0.00155862,0.807177,0.00429601,0.0110439,937,1632,-0.530906,-51.2632
-280,-608,-0.545715,51.9928,0.00517158,0.00546569,0.00333267,0.00865455,0.00198272,0.807447,0.00523547,0.00971445,944,1632,-0.545738,-51.9928
-273,-608,-0.583862,52.7214,0.00624955,0.00650804,0.00395715,0.0103381,0.00241953,0.801723,0.00624379,0.0112315,951,1632,-0.583835,-52.7215
-266,-608,-0.57428,53.4769,0.00746563,0.00733068,0.0046685,0.0120671,0.00272917,0.778172,0.00730695,0.0118491,958,1632,-0.574275,-53.4769
-259,-608,-0.52887,54.2115,0.00881025,0.00835839,0.00526041,0.0138496,0.00331906,0.763937,0.00834957,0.0158699,965,1632,-0.528887,-54.2115
-252,-608,-0.424438,54.9513,0.0104537,0.00921378,0.00599259,0.0158583,0.00380918,0.733854,0.00955892,0.0296169,972,1632,-0.42442,-54.9513
-245,-608,-0.330139,56.0438,0.0122116,0.00981779,0.00681949,0.0179384,0.00409095,0.698528,0.0108553,0.0428084,979,1632,-0.33014,-56.0438
-238,-608,-0.380554,56.7998,0,0,0,0,0,0,0,-1,986,1632,-0.380531,-56.7999
-231,-608,-0.169006,57.1046,0,0,0,0,0,0,0,-1,993,1632,-0.168979,-57.1046
-224,-608,0.697327,54.9709,0,0,0,0,0,0,0,-1,1000,1632,0.697303,-54.9709
-217,-608,1.04419,12.8451,0,0,0,0,0,0,0,-1,1007,1632,1.04418,-12.8451
-210,-608,2.75903,15.9414,0,0,0,0,0,0,0,-1,1014,1632,2.75903,-15.9414
-203,-608,2.76776,16.217,0,0,0,0,0,0,0,-1,1021,1632,2.76773,-16.217
-196,-608,1.53955,18.6058,0,0,0,0,0,0,0,-1,1028,1632,1.53959,-18.6058
-189,-608,1.37634,19.119,0,0,0,0,0,0,0,-1,1035,1632,1.37634,-19.1191
-182,-608,2.89221,16.7092,0,0,0,0,0,0,0,-1,1042,1632,2.89224,-16.7093
-175,-608,0.219116,15.1643,0,0,0,0,0,0,0,-1,1049,1632,0.219173,-15.1644
-168,-608,0.000366211,9.48645,0,0,0,0,0,0,0,-1,1056,1632,0.000317105,-9.48648
-161,-608,2.27832,15.4423,0,0,0,0,0,0,0,-1,1063,1632,2.27826,-15.4423
-154,-608,1.3999,16.4037,0,0,0,0,0,0,0,-1,1070,1632,1.39987,-16.4037
-147,-608,2.4386,9.50317,0,0,0,0,0,0,0,-1,1077,1632,2.43858,-9.50313
-140,-608,2.60132,10.8401,0,0,0,0,0,0,0,-1,1084,1632,2.60134,-10.8401
-133,-608,3.2312,12.4738,0,0,0,0,0,0,0,-1,1091,1632,3.23116,-12.4738
-126,-608,3.76465,13.9644,0,0,0,0,0,0,0,-1,1098,1632,3.76466,-13.9644
-119,-608,4.28906,15.4196,0,0,0,0,0,0,0,-1,1105,1632,4.28911,-15.4195
-112,-608,0.745117,10.5587,0,0,0,0,0,0,0,-1,1112,1632,0.745145,-10.5587
-105,-608,-0.252319,1.42419,0,0,0,0,0,0,0,-1,1119,1632,-0.252331,-1.42418
-98,-608,-2.8595,3.0863,0,0,0,0,0,0,0,-1,1126,1632,-2.85948,-3.08625
-91,-608,-3.71948,1.73608,0,0,0,0,0,0,0,-1,1133,1632,-3.7195,-1.73607
-84,-608,0,0,0,0,0,0,0,0,0,-1,1140,1632,0,0
-77,-608,0,0,0,0,0,0,0,0,0,-1,1147,1632,0,0
-70,-608,0,0,0,0,0,0,0,0,0,-1,1154,1632,0,0
-63,-608,0,0,0,0,0,0,0,0,0,-1,1161,1632,0,0
-56,-608,0,0,0,0,0,0,0,0,0,-1,1168,1632,0,0
-49,-608,0,0,0,0,0,0,0,0,0,-1,1175,1632,0,0
-42,-608,0,0,0,0,0,0,0,0,0,-1,1182,1632,0,0
-35,-608,0,0,0,0,0,0,0,0,0,-1,1189,1632,0,0
-28,-608,0,0,0,0,0,0,0,0,0,-1,1196,1632,0,0
-21,-608,0,0,0,0,0,0,0,0,0,-1,1203,1632,0,0
-14,-608,0,0,0,0,0,0,0,0,0,-1,1210,1632,0,0
-7,-608,0,0,0,0,0,0,0,0,0,-1,1217,1632,0,0
0,-608,0,0,0,0,0,0,0,0,0,-1,1224,1632,0,0
7,-608,0,0,0,0,0,0,0,0,0,-1,1231,1632,0,0
14,-608,0,0,0,0,0,0,0,0,0,-1,1238,1632,0,0
21,-608,0,0,0,0,0,0,0,0,0,-1,1245,1632,0,0
28,-608,0,0,0,0,0,0,0,0,0,-1,1252,1632,0,0
35,-608,0,0,0,0,0,0,0,0,0,-1,1259,1632,0,0
42,-608,0,0,0,0,0,0,0,0,0,-1,1266,1632,0,0
49,-608,0,0,0,0,0,0,0,0,0,-1,1273,1632,0,0
56,-608,0,0,0,0,0,0,0,0,0,-1,1280,1632,0,0
63,-608,0,0,0,0,0,0,0,0,0,-1,1287,1632,0,0
70,-608,0,0,0,0,0,0,0,0,0,-1,1294,1632,0,0
77,-608,0,0,0,0,0,0,0,0,0,-1,1301,1632,0,0
84,-608,0,0,0,0,0,0,0,0,0,-1,1308,1632,0,0
91,-608,0,0,0,0,0,0,0,0,0,-1,1315,1632,0,0
98,-608,0,0,0,0,0,0,0,0,0,-1,1322,1632,0,0
105,-608,0,0,0,0,0,0,0,0,0,-1,1329,1632,0,0
112,-608,0,0,0,0,0,0,0,0,0,-1,1336,1632,0,0
119,-608,0,0,0,0,0,0,0,0,0,-1,1343,1632,0,0
126,-608,0,0,0,0,0,0,0,0,0,-1,1350,1632,0,0
133,-608,0,0,0,0,0,0,0,0,0,-1,1357,1632,0,0
140,-608,0,0,0,0,0,0,0,0,0,-1,1364,1632,0,0
147,-608,0,0,0,0,0,0,0,0,0,-1,1371,1632,0,0
154,-608,0,0,0,0,0,0,0,0,0,-1,1378,1632,0,0
161,-608,0,0,0,0,0,0,0,0,0,-1,1385,1632,0,0
168,-608,0,0,0,0,0,0,0,0,0,-1,1392,1632,0,0
175,-608,0,0,0,0,0,0,0,0,0,-1,1399,1632,0,0
182,-608,0,0,0,0,0,0,0,0,0,-1,1406,1632,0,0
189,-608,0,0,0,0,0,0,0,0,0,-1,1413,1632,0,0
196,-608,0,0,0,0,0,0,0,0,0,-1,1420,1632,0,0
203,-608,0,0,0,0,0,0,0,0,0,-1,1427,1632,0,0
210,-608,5.7157,-0.333008,0,0,0,0,0,0,0,-1,1434,1632,5.71566,0.333004
217,-608,4.49402,-0.831787,0,0,0,0,0,0,0,-1,1441,1632,4.49396,0.831738
224,-608,4.18018,-1.11792,0,0,0,0,0,0,0,-1,1448,1632,4.1802,1.11796
231,-608,0.361816,0.825195,0,0,0,0,0,0,0,-1,1455,1632,0.36185,-0.825226
238,-608,2.85388,-0.28833,0,0,0,0,0,0,0,-1,1462,1632,2.85391,0.288282
245,-608,3.87537,4.02173,0,0,0,0,0,0,0,-1,1469,1632,3.87538,-4.02168
252,-608,5.66956,3.5282,0,0,0,0,0,0,0,-1,1476,1632,5.6696,-3.52815
259,-608,7.47437,3.07178,0,0,0,0,0,0,0,-1,1483,1632,7.4744,-3.07172
266,-608,9.46936,2.34766,0,0,0,0,0,0,0,-1,1490,1632,9.46932,-2.34764
273,-608,6.03003,3.34241,0,0,0,0,0,0,0,-1,1497,1632,6.02997,-3.34245
280,-608,5.72461,2.0769,0,0,0,0,0,0,0,-1,1504,1632,5.72457,-2.07688
287,-608,6.20581,3.59338,0,0,0,0,0,0,0,-1,1511,1632,6.20585,-3.59341
294,-608,6.94922,5.17151,0,0,0,0,0,0,0,-1,1518,1632,6.94925,-5.17151
301,-608,7.60083,6.68018,0,0,0,0,0,0,0,-1,1525,1632,7.60086,-6.68013
308,-608,7.64746,9.93848,0,0,0,0,0,0,0,-1,1532,1632,7.64745,-9.93842
315,-608,5.30688,11.2054,0,0,0,0,0,0,0,-1,1539,1632,5.30694,-11.2054
322,-608,5.32617,13.7581,0,0,0,0,0,0,0,-1,1546,1632,5.32613,-13.758
329,-608,7.12231,13.9607,0,0,0,0,0,0,0,-1,1553,1632,7.12231,-13.9607
336,-608,5.48633,7.82446,0,0,0,0,0,0,0,-1,1560,1632,5.48634,-7.82446
343,-608,5.47192,5.61047,0,0,0,0,0,0,0,-1,1567,1632,5.47192,-5.61045
350,-608,14.345,58.4196,0,0,0,0,0,0,0,-1,1574,1632,14.345,-58.4195
357,-608,18.2986,58.1578,0,0,0,0,0,0,0,-1,1581,1632,18.2986,-58.1579
364,-608,17.5067,56.9296,0,0,0,0,0,0,0,-1,1588,1632,17.5067,-56.9296
371,-608,17.827,55.8555,0.0187304,0.000626083,0.00922815,0.022605,-0.00324848,0.397512,0.0162614,0.0442563,1595,1632,17.827,-55.8555
378,-608,18.1633,54.818,0.0170263,0.000767783,0.0055655,0.018749,-0.000954843,0.300166,0.0128294,0.0355299,1602,1632,18.1633,-54.8179
385,-608,18.4576,53.8666,0.0151016,0.00077999,0.00286187,0.0156523,0.000229283,0.190105,0.0103593,0.0294536,1609,1632,18.4576,-53.8666
392,-608,18.4371,53.0813,0.0130294,0.000917566,0.000983498,0.0131087,0.000838224,0.0804987,0.00847358,0.0214084,1616,1632,18.4371,-53.0812
399,-608,18.4453,52.3212,0.0109873,0.0010216,-0.00018594,0.0109907,0.00101813,-0.0186495,0.00701245,0.0110271,1623,1632,18.4453,-52.3211
406,-608,18.4379,51.5717,0.00903074,0.000968279,-0.000844631,0.00911828,0.000880744,-0.103267,0.00580757,0.00967252,1630,1632,18.4379,-51.5717
413,-608,18.4163,50.8442,0.00739904,0.00129065,-0.00208605,0.00804345,0.000646238,-0.299617,0.0051604,0.0114287,1637,1632,18.4162,-50.8442
420,-608,18.3552,50.1376,0.00597977,0.0015513,-0.0023086,0.00696436,0.000566716,-0.40313,0.004466,0.0200972,1644,1632,18.3552,-50.1376
427,-608,18.3536,49.3903,0.00450219,0.00142218,-0.00203363,0.00551312,0.000411248,-0.46133,0.00354629,0.0213905,1651,1632,18.3537,-49.3902
434,-608,18.3372,48.6459,0.00354232,0.00117567,-0.00172051,0.00444715,0.000270834,-0.484161,0.00287874,0.0174349,1658,1632,18.3372,-48.6459
441,-608,18.2867,47.9266,0.00294795,0.00118737,-0.00152952,0.00383242,0.000302911,-0.524281,0.0024602,0.0159729,1665,1632,18.2868,-47.9267
448,-608,18.271,47.2147,0.00258819,0.00101308,-0.00179593,0.00376165,-0.000160386,-0.578764,0.0025629,0.0162541,1672,1632,18.271,-47.2147
455,-608,18.2676,46.4004,0.00234042,0.000698249,-0.00218618,0.00385462,-0.000815955,-0.605759,0.00288052,0.0122016,1679,1632,18.2676,-46.4004
462,-608,18.2163,45.6343,0.00221003,0.000251188,-0.00250149,0.003917,-0.00145579,-0.598804,0.00320864,0.0120454,1686,1632,18.2163,-45.6343
469,-608,18.1449,44.8822,0.00210251,-6.45756e-05,-0.00282554,0.00404515,-0.00200721,-0.602305,0.00355975,0.00949441,1693,1632,18.1449,-44.8822
476,-608,18.0851,44.1169,0.00185486,-0.000265566,-0.003047,0.00402083,-0.00243154,-0.617973,0.00376276,0.0092108,1700,1632,18.0851,-44.1169
483,-608,18.0483,43.3295,0.00157819,-0.000618731,-0.00327053,0.0039298,-0.00297034,-0.623384,0.00399662,0.00854169,1707,1632,18.0483,-43.3294
490,-608,18.027,42.5419,0.00120693,-0.000910916,-0.00342461,0.00373259,-0.00343658,-0.635456,0.0041403,0.0130288,1714,1632,18.027,-42.5419
497,-608,18.064,41.7067,0.000886353,-0.000913885,-0.00360961,0.00370639,-0.00373392,-0.663207,0.00429567,0.0351372,1721,1632,18.064,-41.7067
504,-608,18.1866,40.8193,0,0,0,0,0,0,0,-1,1728,1632,18.1867,-40.8193
511,-608,17.9121,40.3909,0,0,0,0,0,0,0,-1,1735,1632,17.9121,-40.3908
518,-608,18.8019,37.4651,0,0,0,0,0,0,0,-1,1742,1632,18.8019,-37.4651
525,-608,11.2109,16.2579,0,0,0,0,0,0,0,-1,1749,1632,11.2109,-16.2579
532,-608,8.27917,11.6693,0,0,0,0,0,0,0,-1,1756,1632,8.27919,-11.6694
539,-608,9.40796,1.43457,0,0,0,0,0,0,0,-1,1763,1632,9.40801,-1.43463
546,-608,9.94031,2.1134,0,0,0,0,0,0,0,-1,1770,1632,9.94031,-2.11346
553,-608,10.363,2.81335,0,0,0,0,0,0,0,-1,1777,1632,10.3631,-2.81333
560,-608,9.23999,4.5636,0,0,0,0,0,0,0,-1,1784,1632,9.24,-4.56354
567,-608,0,0,0,0,0,0,0,0,0,-1,1791,1632,0,0
574,-608,0,0,0,0,0,0,0,0,0,-1,1798,1632,0,0
581,-608,0,0,0,0,0,0,0,0,0,-1,1805,1632,0,0
588,-608,0,0,0,0,0,0,0,0,0,-1,1812,1632,0,0
595,-608,0,0,0,0,0,0,0,0,0,-1,1819,1632,0,0
602,-608,0,0,0,0,0,0,0,0,0,-1,1826,1632,0,0
609,-608,0,0,0,0,0,0,0,0,0,-1,1833,1632,0,0
616,-608,0,0,0,0,0,0,0,0,0,-1,1840,1632,0,0
623,-608,0,0,0,0,0,0,0,0,0,-1,1847,1632,0,0
630,-608,0,0,0,0,0,0,0,0,0,-1,1854,1632,0,0
637,-608,0,0,0,0,0,0,0,0,0,-1,1861,1632,0,0
644,-608,0,0,0,0,0,0,0,0,0,-1,1868,1632,0,0
651,-608,0,0,0,0,0,0,0,0,0,-1,1875,1632,0,0
658,-608,0,0,0,0,0,0,0,0,0,-1,1882,1632,0,0
665,-608,0,0,0,0,0,0,0,0,0,-1,1889,1632,0,0
672,-608,0,0,0,0,0,0,0,0,0,-1,1896,1632,0,0
679,-608,0,0,0,0,0,0,0,0,0,-1,1903,1632,0,0
686,-608,0,0,0,0,0,0,0,0,0,-1,1910,1632,0,0
693,-608,0,0,0,0,0,0,0,0,0,-1,1917,1632,0,0
700,-608,0,0,0,0,0,0,0,0,0,-1,1924,1632,0,0
707,-608,0,0,0,0,0,0,0,0,0,-1,1931,1632,0,0
714,-608,0,0,0,0,0,0,0,0,0,-1,1938,1632,0,0
721,-608,0,0,0,0,0,0,0,0,0,-1,1945,1632,0,0
728,-608,0,0,0,0,0,0,0,0,0,-1,1952,1632,0,0
735,-608,0,0,0,0,0,0,0,0,0,-1,1959,1632,0,0
742,-608,0,0,0,0,0,0,0,0,0,-1,1966,1632,0,0
749,-608,0,0,0,0,0,0,0,0,0,-1,1973,1632,0,0
756,-608,0,0,0,0,0,0,0,0,0,-1,1980,1632,0,0
763,-608,0,0,0,0,0,0,0,0,0,-1,1987,1632,0,0
770,-608,0,0,0,0,0,0,0,0,0,-1,1994,1632,0,0
777,-608,0,0,0,0,0,0,0,0,0,-1,2001,1632,0,0
784,-608,0,0,0,0,0,0,0,0,0,-1,2008,1632,0,0
791,-608,0,0,0,0,0,0,0,0,0,-1,2015,1632,0,0
798,-608,0,0,0,0,0,0,0,0,0,-1,2022,1632,0,0
805,-608,0,0,0,0,0,0,0,0,0,-1,2029,1632,0,0
812,-608,0,0,0,0,0,0,0,0,0,-1,2036,1632,0,0
-700,-615,0,0,0,0,0,0,0,0,0,-1,524,1639,0,0
-693,-615,0,0,0,0,0,0,0,0,0,-1,531,1639,0,0
-686,-615,0,0,0,0,0,0,0,0,0,-1,538,1639,0,0
-679,-615,0,0,0,0,0,0,0,0,0,-1,545,1639,0,0
-672,-615,0,0,0,0,0,0,0,0,0,-1,552,1639,0,0
-665,-615,0,0,0,0,0,0,0,0,0,-1,559,1639,0,0
-658,-615,0,0,0,0,0,0,0,0,0,-1,566,1639,0,0
-651,-615,0,0,0,0,0,0,0,0,0,-1,573,1639,0,0
-644,-615,0,0,0,0,0,0,0,0,0,-1,580,1639,0,0
-637,-615,0,0,0,0,0,0,0,0,0,-1,587,1639,0,0
-630,-615,0,0,0,0,0,0,0,0,0,-1,594,1639,0,0
-623,-615,0,0,0,0,0,0,0,0,0,-1,601,1639,0,0
-616,-615,0,0,0,0,0,0,0,0,0,-1,608,1639,0,0
-609,-615,0,0,0,0,0,0,0,0,0,-1,615,1639,0,0
-602,-615,0,0,0,0,0,0,0,0,0,-1,622,1639,0,0
-595,-615,0,0,0,0,0,0,0,0,0,-1,629,1639,0,0
-588,-615,0,0,0,0,0,0,0,0,0,-1,636,1639,0,0
-581,-615,0,0,0,0,0,0,0,0,0,-1,643,1639,0,0
-574,-615,0,0,0,0,0,0,0,0,0,-1,650,1639,0,0
-567,-615,0,0,0,0,0,0,0,0,0,-1,657,1639,0,0
-560,-615,0,0,0,0,0,0,0,0,0,-1,664,1639,0,0
-553,-615,0,0,0,0,0,0,0,0,0,-1,671,1639,0,0
-546,-615,0,0,0,0,0,0,0,0,0,-1,678,1639,0,0
-539,-615,0,0,0,0,0,0,0,0,0,-1,685,1639,0,0
-532,-615,0,0,0,0,0,0,0,0,0,-1,692,1639,0,0
-525,-615,0,0,0,0,0,0,0,0,0,-1,699,1639,0,0
-518,-615,0,0,0,0,0,0,0,0,0,-1,706,1639,0,0
-511,-615,0,0,0,0,0,0,0,0,0,-1,713,1639,0,0
-504,-615,0,0,0,0,0,0,0,0,0,-1,720,1639,0,0
-497,-615,0,0,0,0,0,0,0,0,0,-1,727,1639,0,0
-490,-615,0,0,0,0,0,0,0,0,0,-1,734,1639,0,0
-483,-615,0,0,0,0,0,0,0,0,0,-1,741,1639,0,0
-476,-615,0,0,0,0,0,0,0,0,0,-1,748,1639,0,0
-469,-615,0,0,0,0,0,0,0,0,0,-1,755,1639,0,0
-462,-615,0,0,0,0,0,0,0,0,0,-1,762,1639,0,0
-455,-615,0,0,0,0,0,0,0,0,0,-1,769,1639,0,0
-448,-615,0,0,0,0,0,0,0,0,0,-1,776,1639,0,0
-441,-615,0,0,0,0,0,0,0,0,0,-1,783,1639,0,0
-434,-615,-7.64508,2.98596,0,0,0,0,0,0,0,-1,790,1639,-7.64505,-2.98594
-427,-615,-9.0011,2.89404,0,0,0,0,0,0,0,-1,797,1639,-9.00107,-2.89399
-420,-615,-8.07568,3.0752,0,0,0,0,0,0,0,-1,804,1639,-8.07569,-3.07514
-413,-615,-7.09149,3.396,0,0,0,0,0,0,0,-1,811,1639,-7.09147,-3.39599
-406,-615,-6.21368,3.7312,0,0,0,0,0,0,0,-1,818,1639,-6.21366,-3.73114
-399,-615,-4.84875,3.91907,0,0,0,0,0,0,0,-1,825,1639,-4.84877,-3.91901
-392,-615,1.7395,13.3127,0,0,0,0,0,0,0,-1,832,1639,1.73953,-13.3128
-385,-615,3.42297,14.9401,0,0,0,0,0,0,0,-1,839,1639,3.42296,-14.94
-378,-615,1.50134,37.1793,0,0,0,0,0,0,0,-1,846,1639,1.50132,-37.1793
-371,-615,0.838196,39.9268,0,0,0,0,0,0,0,-1,853,1639,0.838195,-39.9268
-364,-615,0.67334,42.7146,0,0,0,0,0,0,0,-1,860,1639,0.673362,-42.7146
-357,-615,0.605103,43.451,0,0,0,0,0,0,0,-1,867,1639,0.605104,-43.451
-350,-615,0.614075,44.4592,-0.000456592,0.00102225,0.00204255,0.0024551,-0.00188944,0.959065,0.0025154,0.0393331,874,1639,0.614086,-44.4592
-343,-615,0.531555,45.1219,-0.000126215,0.000629207,0.00158391,0.00187982,-0.00137683,0.902446,0.00188769,0.0237405,881,1639,0.531569,-45.1219
-336,-615,0.503662,45.952,0.000184245,0.000352563,0.00123118,0.00150246,-0.000965653,0.819523,0.00143616,0.0121495,888,1639,0.503663,-45.952
-329,-615,0.434448,46.7383,0.000431258,0.000291841,0.0010036,0.00136756,-0.000644464,0.750724,0.00118639,0.0125104,895,1639,0.434476,-46.7383
-322,-615,0.401733,47.5249,0.000668833,0.000441443,0.000893449,0.00145579,-0.000345515,0.722111,0.00110387,0.0137163,902,1639,0.401763,-47.5249
-315,-615,0.360291,48.3312,0.000970667,0.000717066,0.000922681,0.00177522,-8.74865e-05,0.717113,0.00121369,0.0173734,909,1639,0.360312,-48.3312
-308,-615,0.289917,49.1008,0.00136942,0.00112252,0.0010047,0.00225823,0.000233715,0.724268,0.00143394,0.0255804,916,1639,0.289906,-49.1009
-301,-615,0.305725,49.8052,0.00183927,0.0016172,0.00121298,0.00294628,0.000510187,0.739756,0.00181814,0.0133383,923,1639,0.30574,-49.8051
-294,-615,0.264832,50.5574,0.0024719,0.00243684,0.00163463,0.00408909,0.000819648,0.780036,0.00249808,0.0104516,930,1639,0.264857,-50.5574
-287,-615,0.208618,51.3018,0.00313667,0.00329739,0.00200138,0.00522003,0.00121404,0.805463,0.00315421,0.00807147,937,1639,0.208623,-51.3018
-280,-615,0.196045,52.0405,0.00399766,0.00410354,0.00245865,0.00650982,0.00159139,0.796162,0.00391865,0.010857,944,1639,0.196055,-52.0406
-273,-615,0.154358,52.7722,0.00495506,0.00489319,0.00294228,0.00786657,0.00198168,0.780141,0.00472445,0.0133014,951,1639,0.154335,-52.7723
-266,-615,0.113464,53.4845,0.00603491,0.00547933,0.00350984,0.00927794,0.00223631,0.745908,0.00559098,0.0138938,958,1639,0.113489,-53.4845
-259,-615,0.132813,54.1981,0.00724152,0.00621549,0.00397179,0.0107333,0.00272372,0.721172,0.00644249,0.0147506,965,1639,0.132786,-54.1982
-252,-615,0.135376,54.9772,0.00860364,0.00677423,0.00449285,0.012274,0.00310392,0.684975,0.00736921,0.0167358,972,1639,0.135349,-54.9771
-245,-615,0.216248,55.8088,0.0100188,0.00704423,0.0050438,0.01379,0.003273,0.642024,0.00831979,0.024548,979,1639,0.216253,-55.8088
-238,-615,0.239441,56.5101,0.0115241,0.00715059,0.00542685,0.0151882,0.00348649,0.593874,0.00918655,0.0342457,986,1639,0.239457,-56.5101
-231,-615,0.390137,57.056,0.0129961,0.00663616,0.00557114,0.0162309,0.00340131,0.526066,0.00988389,0.0474618,993,1639,0.390153,-57.056
-224,-615,0.469055,57.6039,0,0,0,0,0,0,0,-1,1000,1639,0.469063,-57.6039
-217,-615,0.903137,58.0779,0,0,0,0,0,0,0,-1,1007,1639,0.903134,-58.0779
-210,-615,2.48901,18.9324,0,0,0,0,0,0,0,-1,1014,1639,2.48902,-18.9323
-203,-615,2.13684,18.6173,0,0,0,0,0,0,0,-1,1021,1639,2.13683,-18.6173
-196,-615,4.27161,21.3264,0,0,0,0,0,0,0,-1,1028,1639,4.27165,-21.3264
-189,-615,0.49353,58.2744,0,0,0,0,0,0,0,-1,1035,1639,0.493538,-58.2745
-182,-615,2.98364,52.7119,0,0,0,0,0,0,0,-1,1042,1639,2.9836,-52.7119
-175,-615,2.25159,49.2682,0,0,0,0,0,0,0,-1,1049,1639,2.25158,-49.2682
-168,-615,3.85754,15.472,0,0,0,0,0,0,0,-1,1056,1639,3.85757,-15.472
-161,-615,2.14307,46.5156,0,0,0,0,0,0,0,-1,1063,1639,2.14303,-46.5156
-154,-615,1.37329,47.9545,0,0,0,0,0,0,0,-1,1070,1639,1.37327,-47.9545
-147,-615,0.0180664,48.1396,0,0,0,0,0,0,0,-1,1077,1639,0.0180157,-48.1397
-140,-615,3.73401,10.2349,0,0,0,0,0,0,0,-1,1084,1639,3.73402,-10.2348
-133,-615,2.6178,17.45,0,0,0,0,0,0,0,-1,1091,1639,2.61776,-17.4499
-126,-615,4.43408,12.5017,0,0,0,0,0,0,0,-1,1098,1639,4.43403,-12.5018
-119,-615,4.82983,13.9279,0,0,0,0,0,0,0,-1,1105,1639,4.82986,-13.9278
-112,-615,3.65698,14.4874,0,0,0,0,0,0,0,-1,1112,1639,3.65695,-14.4875
-105,-615,0.958496,2.45398,0,0,0,0,0,0,0,-1,1119,1639,0.958452,-2.45398
-98,-615,-0.647705,2.12109,0,0,0,0,0,0,0,-1,1126,1639,-0.647756,-2.12105
-91,-615,-3.07983,2.97375,0,0,0,0,0,0,0,-1,1133,1639,-3.07989,-2.97376
-84,-615,-2.46509,0.703247,0,0,0,0,0,0,0,-1,1140,1639,-2.46505,-0.703273
-77,-615,-3.17859,1.23755,0,0,0,0,0,0,0,-1,1147,1639,-3.17865,-1.23752
-70,-615,-4.03943,1.43335,0,0,0,0,0,0,0,-1,1154,1639,-4.03942,-1.43339
-63,-615,-4.8877,1.45544,0,0,0,0,0,0,0,-1,1161,1639,-4.88766,-1.45549
-56,-615,0,0,0,0,0,0,0,0,0,-1,1168,1639,0,0
-49,-615,0,0,0,0,0,0,0,0,0,-1,1175,1639,0,0
-42,-615,0,0,0,0,0,0,0,0,0,-1,1182,1639,0,0
-35,-615,0,0,0,0,0,0,0,0,0,-1,1189,1639,0,0
-28,-615,0,0,0,0,0,0,0,0,0,-1,1196,1639,0,0
-21,-615,0,0,0,0,0,0,0,0,0,-1,1203,1639,0,0
-14,-615,0,0,0,0,0,0,0,0,0,-1,1210,1639,0,0
-7,-615,0,0,0,0,0,0,0,0,0,-1,1217,1639,0,0
0,-615,0,0,0,0,0,0,0,0,0,-1,1224,1639,0,0
7,-615,0,0,0,0,0,0,0,0,0,-1,1231,1639,0,0
14,-615,0,0,0,0,0,0,0,0,0,-1,1238,1639,0,0
21,-615,0,0,0,0,0,0,0,0,0,-1,1245,1639,0,0
28,-615,0,0,0,0,0,0,0,0,0,-1,1252,1639,0,0
35,-615,0,0,0,0,0,0,0,0,0,-1,1259,1639,0,0
42,-615,0,0,0,0,0,0,0,0,0,-1,1266,1639,0,0
49,-615,0,0,0,0,0,0,0,0,0,-1,1273,1639,0,0
56,-615,0,0,0,0,0,0,0,0,0,-1,1280,1639,0,0
63,-615,0,0,0,0,0,0,0,0,0,-1,1287,1639,0,0
70,-615,0,0,0,0,0,0,0,0,0,-1,1294,1639,0,0
77,-615,0,0,0,0,0,0,0,0,0,-1,1301,1639,0,0
84,-615,0,0,0,0,0,0,0,0,0,-1,1308,1639,0,0
91,-615,0,0,0,0,0,0,0,0,0,-1,1315,1639,0,0
98,-615,0,0,0,0,0,0,0,0,0,-1,1322,1639,0,0
105,-615,0,0,0,0,0,0,0,0,0,-1,1329,1639,0,0
112,-615,0,0,0,0,0,0,0,0,0,-1,1336,1639,0,0
119,-615,0,0,0,0,0,0,0,0,0,-1,1343,1639,0,0
126,-615,0,0,0,0,0,0,0,0,0,-1,1350,1639,0,0
133,-615,0,0,0,0,0,0,0,0,0,-1,1357,1639,0,0
140,-615,0,0,0,0,0,0,0,0,0,-1,1364,1639,0,0
147,-615,0,0,0,0,0,0,0,0,0,-1,1371,1639,0,0
154,-615,0,0,0,0,0,0,0,0,0,-1,1378,1639,0,0
161,-615,0,0,0,0,0,0,0,0,0,-1,1385,1639,0,0
168,-615,0,0,0,0,0,0,0,0,0,-1,1392,1639,0,0
175,-615,5.39648,-2.00879,0,0,0,0,0,0,0,-1,1399,1639,5.3965,2.00881
182,-615,5.65393,-1.51025,0,0,0,0,0,0,0,-1,1406,1639,5.65388,1.51028
189,-615,5.58972,-1.35608,0,0,0,0,0,0,0,-1,1413,1639,5.58967,1.35607
196,-615,5.49915,-0.693604,0,0,0,0,0,0,0,-1,1420,1639,5.4991,0.693602
203,-615,5.33411,-0.226685,0,0,0,0,0,0,0,-1,1427,1639,5.33414,0.226689
210,-615,5.60278,0.108276,0,0,0,0,0,0,0,-1,1434,1639,5.60284,-0.10831
217,-615,6.26331,-0.307373,0,0,0,0,0,0,0,-1,1441,1639,6.26331,0.307372
224,-615,5.45422,-0.333984,0,0,0,0,0,0,0,-1,1448,1639,5.45422,0.333992
231,-615,4.92542,1.80298,0,0,0,0,0,0,0,-1,1455,1639,4.92537,-1.80297
238,-615,4.76355,1.96729,0,0,0,0,0,0,0,-1,1462,1639,4.76357,-1.96734
245,-615,4.08643,3.15906,0,0,0,0,0,0,0,-1,1469,1639,4.08638,-3.159
252,-615,6.37805,3.73889,0,0,0,0,0,0,0,-1,1476,1639,6.37806,-3.73891
259,-615,8.35974,3.16443,0,0,0,0,0,0,0,-1,1483,1639,8.35975,-3.16444
266,-615,10.3414,2.58997,0,0,0,0,0,0,0,-1,1490,1639,10.3414,-2.58996
273,-615,6.57043,1.84766,0,0,0,0,0,0,0,-1,1497,1639,6.5704,-1.84771
280,-615,7.10449,3.23438,0,0,0,0,0,0,0,-1,1504,1639,7.10447,-3.23435
287,-615,7.35779,4.68542,0,0,0,0,0,0,0,-1,1511,1639,7.35776,-4.68546
294,-615,7.63733,6.29114,0,0,0,0,0,0,0,-1,1518,1639,7.63735,-6.29109
301,-615,8.47925,11.452,0,0,0,0,0,0,0,-1,1525,1639,8.47922,-11.452
308,-615,6.8114,10.9059,0,0,0,0,0,0,0,-1,1532,1639,6.81137,-10.9058
315,-615,5.1427,14.7251,0,0,0,0,0,0,0,-1,1539,1639,5.14269,-14.7251
322,-615,7.17981,17.6864,0,0,0,0,0,0,0,-1,1546,1639,7.17985,-17.6864
329,-615,7.62134,20.4354,0,0,0,0,0,0,0,-1,1553,1639,7.62139,-20.4354
336,-615,6.45007,14.1138,0,0,0,0,0,0,0,-1,1560,1639,6.45011,-14.1138
343,-615,2.40491,6.50134,0,0,0,0,0,0,0,-1,1567,1639,2.40489,-6.50137
350,-615,17.6599,58.2178,0,0,0,0,0,0,0,-1,1574,1639,17.6599,-58.2177
357,-615,17.8954,57.2383,0,0,0,0,0,0,0,-1,1581,1639,17.8954,-57.2383
364,-615,17.2268,56.4788,0,0,0,0,0,0,0,-1,1588,1639,17.2268,-56.4788
371,-615,17.4481,55.5714,0.0153735,0.00376932,0.00434358,0.0168192,0.00232358,0.321311,0.0105241,0.0395389,1595,1639,17.4481,-55.5715
378,-615,17.7012,54.5269,0.0138657,0.00334203,0.00211277,0.014274,0.0029337,0.190911,0.0087045,0.0192276,1602,1639,17.7011,-54.5268
385,-615,17.7451,53.7427,0.0122594,0.00284209,0.000501443,0.0122861,0.00281546,0.0530467,0.00743216,0.0112024,1609,1639,17.7452,-53.7427
392,-615,17.7507,53.0391,0.010529,0.00243895,-0.000551192,0.0105664,0.00240156,-0.067715,0.00639583,0.0110891,1616,1639,17.7507,-53.0391
399,-615,17.7144,52.3386,0.00882394,0.0021027,-0.00115898,0.00901818,0.00190846,-0.166049,0.00548772,0.0120488,1623,1639,17.7143,-52.3387
406,-615,17.681,51.6117,0.00721181,0.0015947,-0.00140783,0.0075449,0.0012616,-0.23233,0.0046666,0.0117947,1630,1639,17.681,-51.6117
413,-615,17.6713,50.9043,0.00589499,0.00149118,-0.00211642,0.0067472,0.000638974,-0.382803,0.00430099,0.0133879,1637,1639,17.6713,-50.9042
420,-615,17.6445,50.1814,0.00479375,0.00145759,-0.00218725,0.00587641,0.000374933,-0.459629,0.0037988,0.0143967,1644,1639,17.6445,-50.1814
427,-615,17.6243,49.4359,0.00368255,0.00115743,-0.00196106,0.00475233,8.76475e-05,-0.49939,0.00313941,0.0160944,1651,1639,17.6243,-49.4359
434,-615,17.5951,48.7123,0.00298977,0.000901002,-0.00183512,0.00405688,-0.000166103,-0.526699,0.00276162,0.0154832,1658,1639,17.5951,-48.7123
441,-615,17.5585,47.9694,0.00261697,0.00078481,-0.00187443,0.0037872,-0.000385422,-0.558105,0.00266259,0.0159798,1665,1639,17.5585,-47.9694
448,-615,17.5131,47.2195,0.0024724,0.000554741,-0.00226569,0.0039738,-0.000946654,-0.585227,0.00301471,0.0157431,1672,1639,17.5131,-47.2194
455,-615,17.4921,46.4735,0.00241738,0.000233856,-0.0027398,0.00427493,-0.0016237,-0.5958,0.00351837,0.01449,1679,1639,17.4921,-46.4736
462,-615,17.4563,45.7365,0.00240944,-0.0002214,-0.00314475,0.0045028,-0.00231476,-0.587311,0.00400313,0.0153334,1686,1639,17.4564,-45.7364
469,-615,17.3923,44.9408,0.00239651,-0.000522497,-0.00355523,0.00478016,-0.00290615,-0.590626,0.00448144,0.0129941,1693,1639,17.3923,-44.9408
476,-615,17.3475,44.1335,0.00224131,-0.000720339,-0.00384678,0.00488244,-0.00336147,-0.601665,0.00478655,0.0120756,1700,1639,17.3476,-44.1336
483,-615,17.3656,43.2511,0.00206797,-0.00106998,-0.00417852,0.00496237,-0.00396438,-0.6058,0.00516458,0.030481,1707,1639,17.3657,-43.2511
490,-615,17.3993,42.4634,0,0,0,0,0,0,0,-1,1714,1639,17.3993,-42.4634
497,-615,17.4437,41.5211,0,0,0,0,0,0,0,-1,1721,1639,17.4437,-41.5212
504,-615,16.4989,34.738,0,0,0,0,0,0,0,-1,1728,1639,16.4989,-34.738
511,-615,15.2349,30.2052,0,0,0,0,0,0,0,-1,1735,1639,15.2348,-30.2052
518,-615,13.2416,9.81812,0,0,0,0,0,0,0,-1,1742,1639,13.2416,-9.81813
525,-615,4.37524,3.90491,0,0,0,0,0,0,0,-1,1749,1639,4.37518,-3.90495
532,-615,7.3645,0.848145,0,0,0,0,0,0,0,-1,1756,1639,7.36451,-0.848093
539,-615,12.8112,-0.0476074,0,0,0,0,0,0,0,-1,1763,1639,12.8111,0.0475553
546,-615,8.33813,2.94556,0,0,0,0,0,0,0,-1,1770,1639,8.33813,-2.9455
553,-615,5.82532,-2.04199,0,0,0,0,0,0,0,-1,1777,1639,5.82534,2.04195
560,-615,0,0,0,0,0,0,0,0,0,-1,1784,1639,0,0
567,-615,0,0,0,0,0,0,0,0,0,-1,1791,1639,0,0
574,-615,0,0,0,0,0,0,0,0,0,-1,1798,1639,0,0
581,-615,0,0,0,0,0,0,0,0,0,-1,1805,1639,0,0
588,-615,0,0,0,0,0,0,0,0,0,-1,1812,1639,0,0
595,-615,0,0,0,0,0,0,0,0,0,-1,1819,1639,0,0
602,-615,0,0,0,0,0,0,0,0,0,-1,1826,1639,0,0
609,-615,0,0,0,0,0,0,0,0,0,-1,1833,1639,0,0
616,-615,0,0,0,0,0,0,0,0,0,-1,1840,1639,0,0
623,-615,0,0,0,0,0,0,0,0,0,-1,1847,1639,0,0
630,-615,0,0,0,0,0,0,0,0,0,-1,1854,1639,0,0
637,-615,0,0,0,0,0,0,0,0,0,-1,1861,1639,0,0
644,-615,0,0,0,0,0,0,0,0,0,-1,1868,1639,0,0
651,-615,0,0,0,0,0,0,0,0,0,-1,1875,1639,0,0
658,-615,0,0,0,0,0,0,0,0,0,-1,1882,1639,0,0
665,-615,0,0,0,0,0,0,0,0,0,-1,1889,1639,0,0
672,-615,0,0,0,0,0,0,0,0,0,-1,1896,1639,0,0
679,-615,0,0,0,0,0,0,0,0,0,-1,1903,1639,0,0
686,-615,0,0,0,0,0,0,0,0,0,-1,1910,1639,0,0
693,-615,0,0,0,0,0,0,0,0,0,-1,1917,1639,0,0
700,-615,0,0,0,0,0,0,0,0,0,-1,1924,1639,0,0
707,-615,0,0,0,0,0,0,0,0,0,-1,1931,1639,0,0
714,-615,0,0,0,0,0,0,0,0,0,-1,1938,1639,0,0
721,-615,0,0,0,0,0,0,0,0,0,-1,1945,1639,0,0
728,-615,0,0,0,0,0,0,0,0,0,-1,1952,1639,0,0
735,-615,0,0,0,0,0,0,0,0,0,-1,1959,1639,0,0
742,-615,0,0,0,0,0,0,0,0,0,-1,1966,1639,0,0
749,-615,0,0,0,0,0,0,0,0,0,-1,1973,1639,0,0
756,-615,0,0,0,0,0,0,0,0,0,-1,1980,1639,0,0
763,-615,0,0,0,0,0,0,0,0,0,-1,1987,1639,0,0
770,-615,0,0,0,0,0,0,0,0,0,-1,1994,1639,0,0
777,-615,0,0,0,0,0,0,0,0,0,-1,2001,1639,0,0
784,-615,0,0,0,0,0,0,0,0,0,-1,2008,1639,0,0
791,-615,0,0,0,0,0,0,0,0,0,-1,2015,1639,0,0
798,-615,0,0,0,0,0,0,0,0,0,-1,2022,1639,0,0
805,-615,0,0,0,0,0,0,0,0,0,-1,2029,1639,0,0
812,-615,0,0,0,0,0,0,0,0,0,-1,2036,1639,0,0
-700,-622,0,0,0,0,0,0,0,0,0,-1,524,1646,0,0
-693,-622,0,0,0,0,0,0,0,0,0,-1,531,1646,0,0
-686,-622,0,0,0,0,0,0,0,0,0,-1,538,1646,0,0
-679,-622,0,0,0,0,0,0,0,0,0,-1,545,1646,0,0
-672,-622,0,0,0,0,0,0,0,0,0,-1,552,1646,0,0
-665,-622,0,0,0,0,0,0,0,0,0,-1,559,1646,0,0
-658,-622,0,0,0,0,0,0,0,0,0,-1,566,1646,0,0
-651,-622,0,0,0,0,0,0,0,0,0,-1,573,1646,0,0
-644,-622,0,0,0,0,0,0,0,0,0,-1,580,1646,0,0
-637,-622,0,0,0,0,0,0,0,0,0,-1,587,1646,0,0
-630,-622,0,0,0,0,0,0,0,0,0,-1,594,1646,0,0
-623,-622,0,0,0,0,0,0,0,0,0,-1,601,1646,0,0
-616,-622,0,0,0,0,0,0,0,0,0,-1,608,1646,0,0
-609,-622,0,0,0,0,0,0,0,0,0,-1,615,1646,0,0
-602,-622,0,0,0,0,0,0,0,0,0,-1,622,1646,0,0
-595,-622,0,0,0,0,0,0,0,0,0,-1,629,1646,0,0
-588,-622,0,0,0,0,0,0,0,0,0,-1,636,1646,0,0
-581,-622,0,0,0,0,0,0,0,0,0,-1,643,1646,0,0
-574,-622,0,0,0,0,0,0,0,0,0,-1,650,1646,0,0
-567,-622,0,0,0,0,0,0,0,0,0,-1,657,1646,0,0
-560,-622,0,0,0,0,0,0,0,0,0,-1,664,1646,0,0
-553,-622,0,0,0,0,0,0,0,0,0,-1,671,1646,0,0
-546,-622,0,0,0,0,0,0,0,0,0,-1,678,1646,0,0
-539,-622,0,0,0,0,0,0,0,0,0,-1,685,1646,0,0
-532,-622,0,0,0,0,0,0,0,0,0,-1,692,1646,0,0
-525,-622,0,0,0,0,0,0,0,0,0,-1,699,1646,0,0
-518,-622,0,0,0,0,0,0,0,0,0,-1,706,1646,0,0
-511,-622,0,0,0,0,0,0,0,0,0,-1,713,1646,0,0
-504,-622,0,0,0,0,0,0,0,0,0,-1,720,1646,0,0
-497,-622,0,0,0,0,0,0,0,0,0,-1,727,1646,0,0
-490,-622,0,0,0,0,0,0,0,0,0,-1,734,1646,0,0
-483,-622,0,0,0,0,0,0,0,0,0,-1,741,1646,0,0
-476,-622,0,0,0,0,0,0,0,0,0,-1,748,1646,0,0
-469,-622,0,0,0,0,0,0,0,0,0,-1,755,1646,0,0
-462,-622,0,0,0,0,0,0,0,0,0,-1,762,1646,0,0
-455,-622,0,0,0,0,0,0,0,0,0,-1,769,1646,0,0
-448,-622,0,0,0,0,0,0,0,0,0,-1,776,1646,0,0
-441,-622,0,0,0,0,0,0,0,0,0,-1,783,1646,0,0
-434,-622,0,0,0,0,0,0,0,0,0,-1,790,1646,0,0
-427,-622,-7.62891,3.48096,0,0,0,0,0,0,0,-1,797,1646,-7.62892,-3.48092
-420,-622,-9.35791,1.77185,0,0,0,0,0,0,0,-1,804,1646,-9.35789,-1.77183
-413,-622,-8.46075,1.96777,0,0,0,0,0,0,0,-1,811,1646,-8.46074,-1.96774
-406,-622,-4.44318,2.16858,0,0,0,0,0,0,0,-1,818,1646,-4.44315,-2.16859
-399,-622,-7.06976,1.51001,0,0,0,0,0,0,0,-1,825,1646,-7.06976,-1.51005
-392,-622,3.89551,5.85376,0,0,0,0,0,0,0,-1,832,1646,3.8955,-5.85379
-385,-622,2.00543,14.0448,0,0,0,0,0,0,0,-1,839,1646,2.00544,-14.0448
-378,-622,1.49036,15.3436,0,0,0,0,0,0,0,-1,846,1646,1.49033,-15.3436
-371,-622,1.5274,38.0657,0,0,0,0,0,0,0,-1,853,1646,1.5274,-38.0657
-364,-622,1.17371,40.7305,0,0,0,0,0,0,0,-1,860,1646,1.17371,-40.7304
-357,-622,1.52216,43.4873,0,0,0,0,0,0,0,-1,867,1646,1.52216,-43.4874
-350,-622,1.3855,44.4863,-0.000924666,0.000817367,0.00195893,0.00209019,-0.00219749,0.994592,0.00247575,0.049829,874,1646,1.38548,-44.4864
-343,-622,1.18396,45.2512,-0.000640952,0.000516357,0.0014036,0.0014559,-0.0015805,0.980915,0.00175356,0.0319393,881,1646,1.18394,-45.2512
-336,-622,1.25903,45.9742,-0.000430883,0.000192094,0.000978758,0.000907735,-0.00114652,0.939455,0.00118869,0.0105123,888,1646,1.25905,-45.9742
-329,-622,1.19983,46.7615,-0.000322303,0.000111542,0.000709463,0.000636504,-0.000847265,0.933763,0.00085953,0.00870415,895,1646,1.19984,-46.7614
-322,-622,1.15894,47.5629,-0.000221105,0.000247487,0.00053331,0.000595698,-0.000569316,0.992368,0.000672678,0.0107873,902,1646,1.15896,-47.5628
-315,-622,1.12488,48.3621,-4.94169e-05,0.000460445,0.000497006,0.000764088,-0.00035306,1.02237,0.000659377,0.0154029,909,1646,1.1249,-48.362
-308,-622,1.09967,49.1024,0.000244784,0.000775252,0.000534892,0.00110706,-8.70227e-05,1.01557,0.000768691,0.0155231,916,1646,1.0997,-49.1024
-301,-622,1.05798,49.8291,0.000619155,0.00119323,0.000685336,0.00164921,0.000163173,0.983712,0.00104932,0.0137878,923,1646,1.05797,-49.8292
-294,-622,1.00055,50.5918,0.00119416,0.00185099,0.00102857,0.00260231,0.000442845,0.939927,0.00160772,0.0103367,930,1646,1.00053,-50.5918
-287,-622,0.967163,51.322,0.00180599,0.00252428,0.00133581,0.00354838,0.000781885,0.916722,0.00215282,0.00806654,937,1646,0.967133,-51.322
-280,-622,0.931152,52.0535,0.00259681,0.00310668,0.0017044,0.0045751,0.00112839,0.859636,0.00275216,0.0101259,944,1646,0.931168,-52.0535
-273,-622,0.926208,52.7758,0.00350491,0.00365764,0.00208322,0.00566589,0.00149666,0.803719,0.00339034,0.0163231,951,1646,0.926214,-52.7758
-266,-622,0.874329,53.5016,0.00453486,0.00403707,0.002546,0.0068441,0.00172783,0.736673,0.0041097,0.01601,958,1646,0.874352,-53.5016
-259,-622,0.857422,54.2423,0.00568871,0.00448919,0.00290904,0.00805916,0.00211873,0.683737,0.0048242,0.0138788,965,1646,0.857427,-54.2423
-252,-622,0.837463,54.9447,0.00693075,0.0048009,0.00325272,0.00928844,0.00244321,0.6272,0.00555981,0.0135527,972,1646,0.837445,-54.9447
-245,-622,0.884216,55.6581,0.00815676,0.0048618,0.00359351,0.0104624,0.00255611,0.570465,0.00629826,0.0110607,979,1646,0.884221,-55.6581
-238,-622,0.874756,56.3346,0.00932107,0.00482271,0.00374713,0.0114422,0.00270156,0.5151,0.00690607,0.0132842,986,1646,0.874755,-56.3346
-231,-622,0.930786,57.0692,0.0104247,0.00439043,0.00378407,0.0122472,0.00256792,0.448843,0.00745771,0.0211303,993,1646,0.930763,-57.0692
-224,-622,1.02362,57.6702,0.0112608,0.00362524,0.0038038,0.0128323,0.00205374,0.391782,0.0079591,0.0335237,1000,1646,1.02363,-57.6702
-217,-622,1.16217,58.2113,0.0118959,0.00246721,0.00363243,0.013133,0.00123012,0.328247,0.00837548,0.046521,1007,1646,1.16219,-58.2113
-210,-622,1.16614,59.1991,0,0,0,0,0,0,0,-1,1014,1646,1.16616,-59.1991
-203,-622,4.21375,20.9574,0,0,0,0,0,0,0,-1,1021,1646,4.21375,-20.9574
-196,-622,2.33313,58.0823,0,0,0,0,0,0,0,-1,1028,1646,2.33311,-58.0823
-189,-622,1.02734,59.6799,0,0,0,0,0,0,0,-1,1035,1646,1.02732,-59.6799
-182,-622,1.4812,60.1128,0,0,0,0,0,0,0,-1,1042,1646,1.48123,-60.1128
-175,-622,3.61438,53.5428,0,0,0,0,0,0,0,-1,1049,1646,3.61438,-53.5428
-168,-622,3.44849,53.4453,0,0,0,0,0,0,0,-1,1056,1646,3.44848,-53.4453
-161,-622,2.79761,52.5291,0,0,0,0,0,0,0,-1,1063,1646,2.79756,-52.529
-154,-622,2.00879,52.2384,0,0,0,0,0,0,0,-1,1070,1646,2.00874,-52.2384
-147,-622,0.939453,52.2694,0,0,0,0,0,0,0,-1,1077,1646,0.939511,-52.2694
-140,-622,0.546997,48.6783,0,0,0,0,0,0,0,-1,1084,1646,0.547022,-48.6784
-133,-622,3.09644,17.677,0,0,0,0,0,0,0,-1,1091,1646,3.09638,-17.677
-126,-622,3.5061,19.5251,0,0,0,0,0,0,0,-1,1098,1646,3.50616,-19.5252
-119,-622,4.06384,13.1715,0,0,0,0,0,0,0,-1,1105,1646,4.06379,-13.1716
-112,-622,4.33276,14.6605,0,0,0,0,0,0,0,-1,1112,1646,4.33281,-14.6605
-105,-622,0.306519,4.38159,0,0,0,0,0,0,0,-1,1119,1646,0.306536,-4.38159
-98,-622,-0.510376,3.5033,0,0,0,0,0,0,0,-1,1126,1646,-0.510393,-3.50324
-91,-622,-1.146,0.975952,0,0,0,0,0,0,0,-1,1133,1646,-1.14599,-0.97597
-84,-622,-2.04895,1.31787,0,0,0,0,0,0,0,-1,1140,1646,-2.0489,-1.31781
-77,-622,-1.80627,0.332275,0,0,0,0,0,0,0,-1,1147,1646,-1.80622,-0.33223
-70,-622,-3.65588,2.28149,0,0,0,0,0,0,0,-1,1154,1646,-3.65589,-2.28155
-63,-622,-2.49683,1.27087,0,0,0,0,0,0,0,-1,1161,1646,-2.49679,-1.27093
-56,-622,-2.44238,-0.575562,0,0,0,0,0,0,0,-1,1168,1646,-2.44242,0.575508
-49,-622,-2.41089,1.38818,0,0,0,0,0,0,0,-1,1175,1646,-2.41088,-1.38815
-42,-622,-2.71497,2.85242,0,0,0,0,0,0,0,-1,1182,1646,-2.71491,-2.85247
-35,-622,-3.0177,4.25842,0,0,0,0,0,0,0,-1,1189,1646,-3.01773,-4.25838
-28,-622,-0.896606,0.678833,0,0,0,0,0,0,0,-1,1196,1646,-0.89661,-0.678835
-21,-622,16.4141,36.2849,0,0,0,0,0,0,0,-1,1203,1646,16.4141,-36.285
-14,-622,-4.54675,49.5179,0,0,0,0,0,0,0,-1,1210,1646,-4.54671,-49.5179
-7,-622,-3.02295,48.9022,0,0,0,0,0,0,0,-1,1217,1646,-3.0229,-48.9022
0,-622,0,0,0,0,0,0,0,0,0,-1,1224,1646,0,0
7,-622,0,0,0,0,0,0,0,0,0,-1,1231,1646,0,0
14,-622,0,0,0,0,0,0,0,0,0,-1,1238,1646,0,0
21,-622,0,0,0,0,0,0,0,0,0,-1,1245,1646,0,0
28,-622,0,0,0,0,0,0,0,0,0,-1,1252,1646,0,0
35,-622,0,0,0,0,0,0,0,0,0,-1,1259,1646,0,0
42,-622,0,0,0,0,0,0,0,0,0,-1,1266,1646,0,0
49,-622,0,0,0,0,0,0,0,0,0,-1,1273,1646,0,0
56,-622,0,0,0,0,0,0,0,0,0,-1,1280,1646,0,0
63,-622,0,0,0,0,0,0,0,0,0,-1,1287,1646,0,0
70,-622,0,0,0,0,0,0,0,0,0,-1,1294,1646,0,0
77,-622,0,0,0,0,0,0,0,0,0,-1,1301,1646,0,0
84,-622,0,0,0,0,0,0,0,0,0,-1,1308,1646,0,0
91,-622,0,0,0,0,0,0,0,0,0,-1,1315,1646,0,0
98,-622,0,0,0,0,0,0,0,0,0,-1,1322,1646,0,0
105,-622,0,0,0,0,0,0,0,0,0,-1,1329,1646,0,0
112,-622,0,0,0,0,0,0,0,0,0,-1,1336,1646,0,0
119,-622,0,0,0,0,0,0,0,0,0,-1,1343,1646,0,0
126,-622,0.184326,68.1166,0,0,0,0,0,0,0,-1,1350,1646,0.184377,-68.1166
133,-622,-0.088623,68.3149,-0.0495733,-0.13527,-0.0350621,-0.0370563,-0.147787,-0.342894,0.0887889,0.0498021,1357,1646,-0.0886095,-68.3149
140,-622,-0.348022,68.5284,-0.0698706,-0.142546,-0.0346015,-0.0560317,-0.156385,-0.380465,0.0914896,0.0497142,1364,1646,-0.347993,-68.5284
147,-622,-0.684448,68.8931,0,0,0,0,0,0,0,-1,1371,1646,-0.684435,-68.8931
154,-622,-1.13794,69.184,0,0,0,0,0,0,0,-1,1378,1646,-1.13799,-69.184
161,-622,10.6884,6.46448,0,0,0,0,0,0,0,-1,1385,1646,10.6883,-6.46442
168,-622,12.2402,5.18091,0,0,0,0,0,0,0,-1,1392,1646,12.2403,-5.1809
175,-622,5.64355,-1.77075,0,0,0,0,0,0,0,-1,1399,1646,5.64351,1.77077
182,-622,5.88586,-1.32251,0,0,0,0,0,0,0,-1,1406,1646,5.88587,1.32256
189,-622,5.97986,-1.18005,0,0,0,0,0,0,0,-1,1413,1646,5.97986,1.18003
196,-622,5.85022,-0.244507,0,0,0,0,0,0,0,-1,1420,1646,5.85026,0.244478
203,-622,5.25159,0.138794,0,0,0,0,0,0,0,-1,1427,1646,5.25162,-0.138822
210,-622,6.66833,0.0397949,0,0,0,0,0,0,0,-1,1434,1646,6.6684,-0.0398278
217,-622,6.12061,0.0506592,0,0,0,0,0,0,0,-1,1441,1646,6.12058,-0.0507181
224,-622,5.57275,0.0616455,0,0,0,0,0,0,0,-1,1448,1646,5.57276,-0.0616084
231,-622,5.31348,1.3949,0,0,0,0,0,0,0,-1,1455,1646,5.31342,-1.39495
238,-622,3.76477,2.90686,0,0,0,0,0,0,0,-1,1462,1646,3.7648,-2.90686
245,-622,5.13794,2.67993,0,0,0,0,0,0,0,-1,1469,1646,5.13796,-2.67992
252,-622,6.66528,2.53992,0,0,0,0,0,0,0,-1,1476,1646,6.66522,-2.53991
259,-622,8.93787,3.31458,0,0,0,0,0,0,0,-1,1483,1646,8.93791,-3.31454
266,-622,5.72644,3.11926,0,0,0,0,0,0,0,-1,1490,1646,5.72647,-3.1192
273,-622,7.28076,3.61218,0,0,0,0,0,0,0,-1,1497,1646,7.28071,-3.61212
280,-622,8.43127,4.4447,0,0,0,0,0,0,0,-1,1504,1646,8.43123,-4.44467
287,-622,8.60315,5.94617,0,0,0,0,0,0,0,-1,1511,1646,8.60319,-5.94622
294,-622,7.62756,11.5143,0,0,0,0,0,0,0,-1,1518,1646,7.62762,-11.5143
301,-622,7.36548,11.6569,0,0,0,0,0,0,0,-1,1525,1646,7.36549,-11.6569
308,-622,7.10339,11.7994,0,0,0,0,0,0,0,-1,1532,1646,7.10335,-11.7995
315,-622,8.28687,16.5842,0,0,0,0,0,0,0,-1,1539,1646,8.28689,-16.5843
322,-622,7.43689,20.5786,0,0,0,0,0,0,0,-1,1546,1646,7.43685,-20.5786
329,-622,9.76477,26.4202,0,0,0,0,0,0,0,-1,1553,1646,9.7648,-26.4202
336,-622,10.4526,28.8552,0,0,0,0,0,0,0,-1,1560,1646,10.4526,-28.8552
343,-622,16.9185,58.6677,0,0,0,0,0,0,0,-1,1567,1646,16.9185,-58.6677
350,-622,17.0242,57.8459,0.0158048,0.00631618,0.00712545,0.0196209,0.00250008,0.491688,0.012332,0.0494588,1574,1646,17.0241,-57.8459
357,-622,17.1754,56.8951,0.0143841,0.00663992,0.00495799,0.0168029,0.00422117,0.453879,0.0100935,0.0392955,1581,1646,17.1754,-56.8952
364,-622,17.0284,56.031,0.0133146,0.00608539,0.00284788,0.0143017,0.00509828,0.333654,0.00836971,0.0328435,1588,1646,17.0285,-56.031
371,-622,16.9951,55.2681,0.0122216,0.00531445,0.00126523,0.0124461,0.00508999,0.175583,0.00722535,0.020761,1595,1646,16.9951,-55.268
378,-622,17.0287,54.5132,0.0109577,0.0045573,4.0697e-07,0.0109577,0.0045573,6.3585e-05,0.0063562,0.0124028,1602,1646,17.0287,-54.5132
385,-622,17.0308,53.7853,0.00967595,0.00377842,-0.000900679,0.00981044,0.00364394,-0.148221,0.00572613,0.00985029,1609,1646,17.0308,-53.7853
392,-622,17.0028,53.0889,0.00828253,0.0030768,-0.00144082,0.0086547,0.00270462,-0.252782,0.00511256,0.0115261,1616,1646,17.0028,-53.0889
399,-622,16.9619,52.3759,0.00690549,0.00249954,-0.00172075,0.00749788,0.00190715,-0.331555,0.00449967,0.0119637,1623,1646,16.962,-52.3759
406,-622,16.9419,51.6494,0.00562516,0.00176082,-0.00175634,0.00630412,0.00108186,-0.368882,0.00389257,0.0152349,1630,1646,16.9419,-51.6495
413,-622,16.9343,50.9382,0.00461947,0.00140954,-0.00214214,0.0056912,0.000337814,-0.463893,0.00368669,0.0165916,1637,1646,16.9344,-50.9383
420,-622,16.8984,50.2308,0.00381086,0.00119975,-0.00215429,0.00502432,-1.37102e-05,-0.512979,0.00335412,0.0159125,1644,1646,16.8984,-50.2308
427,-622,16.88,49.4817,0.00305226,0.000828084,-0.00203299,0.00425746,-0.00037711,-0.535121,0.00297199,0.0131246,1651,1646,16.88,-49.4817
434,-622,16.8531,48.7461,0.00262095,0.000593168,-0.00209116,0.00393105,-0.000716926,-0.559672,0.00288947,0.0146643,1658,1646,16.8532,-48.746
441,-622,16.8204,48.0095,0.00246278,0.000385235,-0.00234649,0.00399015,-0.00114213,-0.577019,0.00311149,0.0163229,1665,1646,16.8204,-48.0096
448,-622,16.7723,47.2642,0.00252778,0.000105577,-0.00286186,0.00442425,-0.00179089,-0.585231,0.00369412,0.0144486,1672,1646,16.7724,-47.2641
455,-622,16.7264,46.5167,0.00267619,-0.000222757,-0.00342891,0.00494941,-0.00249597,-0.585429,0.00437569,0.0160711,1679,1646,16.7264,-46.5167
462,-622,16.701,45.7664,0.00283431,-0.000666794,-0.00394424,0.00539902,-0.0032315,-0.576544,0.00503494,0.0182762,1686,1646,16.7011,-45.7663
469,-622,16.653,44.9945,0.00299034,-0.000932828,-0.00450708,0.0059442,-0.00388669,-0.580149,0.00571715,0.0196072,1693,1646,16.653,-44.9945
476,-622,16.7504,44.1804,0.00303032,-0.00114919,-0.00493882,0.0063033,-0.00442218,-0.585256,0.00622403,0.0394705,1700,1646,16.7503,-44.1804
483,-622,16.6907,43.1859,0,0,0,0,0,0,0,-1,1707,1646,16.6907,-43.1859
490,-622,15.8815,36.627,0,0,0,0,0,0,0,-1,1714,1646,15.8814,-36.6269
497,-622,14.9666,32.1024,0,0,0,0,0,0,0,-1,1721,1646,14.9665,-32.1024
504,-622,10.8306,19.8021,0,0,0,0,0,0,0,-1,1728,1646,10.8306,-19.8022
511,-622,5.29004,4.14587,0,0,0,0,0,0,0,-1,1735,1646,5.29008,-4.14589
518,-622,5.6001,1.55359,0,0,0,0,0,0,0,-1,1742,1646,5.60015,-1.5536
525,-622,5.83093,2.01807,0,0,0,0,0,0,0,-1,1749,1646,5.83097,-2.01802
532,-622,5.44202,0.57373,0,0,0,0,0,0,0,-1,1756,1646,5.44196,-0.573705
539,-622,9.32129,1.06116,0,0,0,0,0,0,0,-1,1763,1646,9.32131,-1.0612
546,-622,6.50977,-3.45618,0,0,0,0,0,0,0,-1,1770,1646,6.50981,3.4562
553,-622,0,0,0,0,0,0,0,0,0,-1,1777,1646,0,0
560,-622,0,0,0,0,0,0,0,0,0,-1,1784,1646,0,0
567,-622,0,0,0,0,0,0,0,0,0,-1,1791,1646,0,0
574,-622,0,0,0,0,0,0,0,0,0,-1,1798,1646,0,0
581,-622,0,0,0,0,0,0,0,0,0,-1,1805,1646,0,0
588,-622,0,0,0,0,0,0,0,0,0,-1,1812,1646,0,0
595,-622,0,0,0,0,0,0,0,0,0,-1,1819,1646,0,0
602,-622,0,0,0,0,0,0,0,0,0,-1,1826,1646,0,0
609,-622,0,0,0,0,0,0,0,0,0,-1,1833,1646,0,0
616,-622,0,0,0,0,0,0,0,0,0,-1,1840,1646,0,0
623,-622,0,0,0,0,0,0,0,0,0,-1,1847,1646,0,0
630,-622,0,0,0,0,0,0,0,0,0,-1,1854,1646,0,0
637,-622,0,0,0,0,0,0,0,0,0,-1,1861,1646,0,0
644,-622,0,0,0,0,0,0,0,0,0,-1,1868,1646,0,0
651,-622,0,0,0,0,0,0,0,0,0,-1,1875,1646,0,0
658,-622,0,0,0,0,0,0,0,0,0,-1,1882,1646,0,0
665,-622,0,0,0,0,0,0,0,0,0,-1,1889,1646,0,0
672,-622,0,0,0,0,0,0,0,0,0,-1,1896,1646,0,0
679,-622,0,0,0,0,0,0,0,0,0,-1,1903,1646,0,0
686,-622,0,0,0,0,0,0,0,0,0,-1,1910,1646,0,0
693,-622,0,0,0,0,0,0,0,0,0,-1,1917,1646,0,0
700,-622,0,0,0,0,0,0,0,0,0,-1,1924,1646,0,0
707,-622,0,0,0,0,0,0,0,0,0,-1,1931,1646,0,0
714,-622,0,0,0,0,0,0,0,0,0,-1,1938,1646,0,0
721,-622,0,0,0,0,0,0,0,0,0,-1,1945,1646,0,0
728,-622,0,0,0,0,0,0,0,0,0,-1,1952,1646,0,0
735,-622,0,0,0,0,0,0,0,0,0,-1,1959,1646,0,0
742,-622,0,0,0,0,0,0,0,0,0,-1,1966,1646,0,0
749,-622,0,0,0,0,0,0,0,0,0,-1,1973,1646,0,0
756,-622,0,0,0,0,0,0,0,0,0,-1,1980,1646,0,0
763,-622,0,0,0,0,0,0,0,0,0,-1,1987,1646,0,0
770,-622,0,0,0,0,0,0,0,0,0,-1,1994,1646,0,0
777,-622,0,0,0,0,0,0,0,0,0,-1,2001,1646,0,0
784,-622,0,0,0,0,0,0,0,0,0,-1,2008,1646,0,0
791,-622,0,0,0,0,0,0,0,0,0,-1,2015,1646,0,0
798,-622,0,0,0,0,0,0,0,0,0,-1,2022,1646,0,0
805,-622,0,0,0,0,0,0,0,0,0,-1,2029,1646,0,0
812,-622,0,0,0,0,0,0,0,0,0,-1,2036,1646,0,0
-700,-629,0,0,0,0,0,0,0,0,0,-1,524,1653,0,0
-693,-629,0,0,0,0,0,0,0,0,0,-1,531,1653,0,0
-686,-629,0,0,0,0,0,0,0,0,0,-1,538,1653,0,0
-679,-629,0,0,0,0,0,0,0,0,0,-1,545,1653,0,0
-672,-629,0,0,0,0,0,0,0,0,0,-1,552,1653,0,0
-665,-629,0,0,0,0,0,0,0,0,0,-1,559,1653,0,0
-658,-629,0,0,0,0,0,0,0,0,0,-1,566,1653,0,0
-651,-629,0,0,0,0,0,0,0,0,0,-1,573,1653,0,0
-644,-629,0,0,0,0,0,0,0,0,0,-1,580,1653,0,0
-637,-629,0,0,0,0,0,0,0,0,0,-1,587,1653,0,0
-630,-629,0,0,0,0,0,0,0,0,0,-1,594,1653,0,0
-623,-629,0,0,0,0,0,0,0,0,0,-1,601,1653,0,0
-616,-629,0,0,0,0,0,0,0,0,0,-1,608,1653,0,0
-609,-629,0,0,0,0,0,0,0,0,0,-1,615,1653,0,0
-602,-629,0,0,0,0,0,0,0,0,0,-1,622,1653,0,0
-595,-629,0,0,0,0,0,0,0,0,0,-1,629,1653,0,0
-588,-629,0,0,0,0,0,0,0,0,0,-1,636,1653,0,0
-581,-629,0,0,0,0,0,0,0,0,0,-1,643,1653,0,0
-574,-629,0,0,0,0,0,0,0,0,0,-1,650,1653,0,0
-567,-629,0,0,0,0,0,0,0,0,0,-1,657,1653,0,0
-560,-629,0,0,0,0,0,0,0,0,0,-1,664,1653,0,0
-553,-629,0,0,0,0,0,0,0,0,0,-1,671,1653,0,0
-546,-629,0,0,0,0,0,0,0,0,0,-1,678,1653,0,0
-539,-629,0,0,0,0,0,0,0,0,0,-1,685,1653,0,0
-532,-629,0,0,0,0,0,0,0,0,0,-1,692,1653,0,0
-525,-629,0,0,0,0,0,0,0,0,0,-1,699,1653,0,0
-518,-629,0,0,0,0,0,0,0,0,0,-1,706,1653,0,0
-511,-629,0,0,0,0,0,0,0,0,0,-1,713,1653,0,0
-504,-629,0,0,0,0,0,0,0,0,0,-1,720,1653,0,0
-497,-629,0,0,0,0,0,0,0,0,0,-1,727,1653,0,0
-490,-629,0,0,0,0,0,0,0,0,0,-1,734,1653,0,0
-483,-629,0,0,0,0,0,0,0,0,0,-1,741,1653,0,0
-476,-629,0,0,0,0,0,0,0,0,0,-1,748,1653,0,0
-469,-629,0,0,0,0,0,0,0,0,0,-1,755,1653,0,0
-462,-629,0,0,0,0,0,0,0,0,0,-1,762,1653,0,0
-455,-629,0,0,0,0,0,0,0,0,0,-1,769,1653,0,0
-448,-629,0,0,0,0,0,0,0,0,0,-1,776,1653,0,0
-441,-629,0,0,0,0,0,0,0,0,0,-1,783,1653,0,0
-434,-629,0,0,0,0,0,0,0,0,0,-1,790,1653,0,0
-427,-629,0,0,0,0,0,0,0,0,0,-1,797,1653,0,0
-420,-629,-3.87103,3.37634,0,0,0,0,0,0,0,-1,804,1653,-3.87101,-3.37633
-413,-629,-5.69751,1.33582,0,0,0,0,0,0,0,-1,811,1653,-5.69754,-1.3358
-406,-629,2.85406,6.01501,0,0,0,0,0,0,0,-1,818,1653,2.85405,-6.01507
-399,-629,-0.455627,10.8687,0,0,0,0,0,0,0,-1,825,1653,-0.455625,-10.8687
-392,-629,1.15369,11.1295,0,0,0,0,0,0,0,-1,832,1653,1.1537,-11.1295
-385,-629,1.81976,11.6935,0,0,0,0,0,0,0,-1,839,1653,1.81975,-11.6935
-378,-629,2.19452,14.7941,0,0,0,0,0,0,0,-1,846,1653,2.19451,-14.7941
-371,-629,3.60114,14.7299,0,0,0,0,0,0,0,-1,853,1653,3.60113,-14.7299
-364,-629,3.26898,21.0801,0,0,0,0,0,0,0,-1,860,1653,3.26895,-21.08
-357,-629,4.38782,16.3444,0,0,0,0,0,0,0,-1,867,1653,4.38783,-16.3443
-350,-629,1.79236,44.5244,0,0,0,0,0,0,0,-1,874,1653,1.79237,-44.5244
-343,-629,1.94916,45.3167,-0.000785341,0.000483661,0.00129757,0.00129356,-0.00159524,1.0128,0.00167088,0.0457219,881,1653,1.94918,-45.3166
-336,-629,1.99182,46.047,-0.000855632,4.01217e-05,0.000734977,0.000452933,-0.00126844,1.05904,0.00103034,0.0203896,888,1653,1.99182,-46.047
-329,-629,1.9726,46.8188,-0.00102975,-0.000125494,0.000347785,-7.20622e-06,-0.00114804,1.24295,0.000762968,0.0117233,895,1653,1.97261,-46.8188
-322,-629,1.92908,47.5911,-0.00115408,-4.9658e-06,7.75897e-05,2.4942e-07,-0.0011593,1.50368,0.00077295,0.0123936,902,1653,1.9291,-47.5911
-315,-629,1.86499,48.3751,-0.00115994,0.000160607,-1.67051e-05,0.000160818,-0.00116015,-1.55815,0.000832238,0.0161645,909,1653,1.86497,-48.3751
-308,-629,1.83417,49.1228,-0.000991271,0.000448184,-1.8693e-05,0.000448427,-0.000991513,-1.55781,0.000850831,0.0133257,916,1653,1.83414,-49.1227
-301,-629,1.8078,49.9037,-0.000714724,0.000854653,8.72217e-05,0.000859486,-0.000719557,1.51545,0.000912853,0.0117996,923,1653,1.80781,-49.9036
-294,-629,1.77228,50.6495,-0.000197806,0.00142279,0.000374892,0.00150531,-0.000280328,1.35413,0.00110886,0.0126082,930,1653,1.77228,-50.6495
-287,-629,1.7337,51.3663,0.000371906,0.00199558,0.00065903,0.0022294,0.000138086,1.22986,0.00144244,0.0101882,937,1653,1.7337,-51.3663
-280,-629,1.69446,52.1068,0.00110857,0.00245795,0.000988123,0.00297975,0.000586767,1.08494,0.00182267,0.0108054,944,1653,1.69445,-52.1069
-273,-629,1.65405,52.8129,0.00195368,0.00286885,0.00131152,0.00380032,0.00102221,0.953244,0.00227084,0.0148301,951,1653,1.65404,-52.8128
-266,-629,1.60632,53.5417,0.00293375,0.00313243,0.00173304,0.00476898,0.0012972,0.814027,0.00284719,0.0151412,958,1653,1.60634,-53.5417
-259,-629,1.5733,54.2817,0.00404049,0.00338265,0.00207408,0.00581157,0.00161158,0.706761,0.00346447,0.0157735,965,1653,1.57331,-54.2817
-252,-629,1.55627,54.9724,0.00517891,0.00349908,0.00231962,0.006806,0.00187199,0.611695,0.00405984,0.0122504,972,1653,1.55628,-54.9724
-245,-629,1.56329,55.6891,0.00625714,0.00339551,0.00254383,0.00774494,0.00190771,0.529217,0.00465944,0.00921026,979,1653,1.56328,-55.6891
-238,-629,1.55432,56.3693,0.0072338,0.00314899,0.00261666,0.00851078,0.00187201,0.454017,0.00516422,0.0116694,986,1653,1.55429,-56.3692
-231,-629,1.51447,57.0486,0.00814741,0.00272628,0.0026058,0.00919681,0.00167687,0.382848,0.00565573,0.0146154,993,1653,1.51448,-57.0486
-224,-629,1.60638,57.8042,0.00884423,0.00206029,0.00252202,0.00967908,0.00122543,0.319673,0.00608551,0.017323,1000,1653,1.6064,-57.8043
-217,-629,1.55951,58.4113,0.00937735,0.00124202,0.00232064,0.00999277,0.000626604,0.259226,0.00646311,0.0290201,1007,1653,1.55948,-58.4113
-210,-629,1.37921,59.478,0,0,0,0,0,0,0,-1,1014,1653,1.37918,-59.478
-203,-629,1.87732,60.0895,0,0,0,0,0,0,0,-1,1021,1653,1.87734,-60.0895
-196,-629,2.13123,60.3381,0,0,0,0,0,0,0,-1,1028,1653,2.13122,-60.3381
-189,-629,1.59668,60.301,0,0,0,0,0,0,0,-1,1035,1653,1.59673,-60.301
-182,-629,0.893311,61.2429,0,0,0,0,0,0,0,-1,1042,1653,0.89328,-61.243
-175,-629,1.54736,61.3992,0,0,0,0,0,0,0,-1,1049,1653,1.54735,-61.3992
-168,-629,3.94775,55.7037,0,0,0,0,0,0,0,-1,1056,1653,3.94774,-55.7038
-161,-629,3.2146,53.0543,0,0,0,0,0,0,0,-1,1063,1653,3.21462,-53.0543
-154,-629,2.30042,52.7101,0,0,0,0,0,0,0,-1,1070,1653,2.30043,-52.7101
-147,-629,1.22363,52.6086,0,0,0,0,0,0,0,-1,1077,1653,1.22368,-52.6087
-140,-629,3.68201,55.7941,0,0,0,0,0,0,0,-1,1084,1653,3.68206,-55.7941
-133,-629,1.99792,57.769,0,0,0,0,0,0,0,-1,1091,1653,1.99792,-57.769
-126,-629,4.01025,19.5328,0,0,0,0,0,0,0,-1,1098,1653,4.01022,-19.5328
-119,-629,4.94177,13.5525,0,0,0,0,0,0,0,-1,1105,1653,4.94172,-13.5525
-112,-629,5.63123,15.9187,0,0,0,0,0,0,0,-1,1112,1653,5.63118,-15.9187
-105,-629,2.15881,4.38342,0,0,0,0,0,0,0,-1,1119,1653,2.15878,-4.38347
-98,-629,0.825806,4.19385,0,0,0,0,0,0,0,-1,1126,1653,0.825779,-4.1939
-91,-629,-0.452271,3.64465,0,0,0,0,0,0,0,-1,1133,1653,-0.452278,-3.6446
-84,-629,-2.6084,0.466797,0,0,0,0,0,0,0,-1,1140,1653,-2.6084,-0.466786
-77,-629,-3.50903,2.10706,0,0,0,0,0,0,0,-1,1147,1653,-3.509,-2.10707
-70,-629,-1.20886,2.52502,0,0,0,0,0,0,0,-1,1154,1653,-1.20886,-2.525
-63,-629,-0.960693,4.30212,0,0,0,0,0,0,0,-1,1161,1653,-0.960691,-4.30215
-56,-629,-1.31934,5.64343,0,0,0,0,0,0,0,-1,1168,1653,-1.31928,-5.6434
-49,-629,-2.15662,2.57458,0,0,0,0,0,0,0,-1,1175,1653,-2.15656,-2.57459
-42,-629,-2.46326,3.91467,0,0,0,0,0,0,0,-1,1182,1653,-2.4633,-3.91466
-35,-629,-2.67261,5.24292,0,0,0,0,0,0,0,-1,1189,1653,-2.67257,-5.24298
-28,-629,-0.402954,-0.866577,0,0,0,0,0,0,0,-1,1196,1653,-0.402943,0.866612
-21,-629,3.45508,27.0596,0,0,0,0,0,0,0,-1,1203,1653,3.45508,-27.0596
-14,-629,-2.63892,51.2357,0,0,0,0,0,0,0,-1,1210,1653,-2.63893,-51.2357
-7,-629,3.04333,73.3951,0,0,0,0,0,0,0,-1,1217,1653,3.04339,-73.3951
0,-629,3.43616,73.3534,0.0818157,0.157808,-0.0786431,0.207153,0.0324709,-1.01044,0.128651,0.0492121,1224,1653,3.43618,-73.3534
7,-629,3.79834,73.3599,0.0768852,0.147747,-0.0774768,0.19751,0.0271222,-0.999857,0.123628,0.0448837,1231,1653,3.79833,-73.3598
14,-629,4.06824,72.9259,0,0,0,0,0,0,0,-1,1238,1653,4.06828,-72.9259
21,-629,4.36511,72.4462,0.0703282,0.125291,-0.0772297,0.179783,0.0158363,-0.956333,0.114941,0.0498831,1245,1653,4.36516,-72.4462
28,-629,4.67102,72.0542,0.0680591,0.11041,-0.0767781,0.168879,0.00958978,-0.919953,0.10953,0.0472634,1252,1653,4.67108,-72.0542
35,-629,5.59949,71.5942,0.0660289,0.0941943,-0.0735018,0.15495,0.00527285,-0.88005,0.101588,0.0446928,1259,1653,5.59954,-71.5943
42,-629,5.56702,71.2738,0.0646038,0.0766786,-0.0691102,0.140015,0.00126788,-0.828967,0.0929233,0.0480587,1266,1653,5.56703,-71.2738
49,-629,5.9137,70.8289,0.063444,0.0580695,-0.0620922,0.122907,-0.00139353,-0.763772,0.0824065,0.0477981,1273,1653,5.91365,-70.8289
56,-629,6.38074,70.6661,0.062263,0.0378954,-0.0560769,0.107464,-0.00730603,-0.678426,0.0741983,0.0472124,1280,1653,6.3808,-70.6662
63,-629,8.32422,66.1805,0,0,0,0,0,0,0,-1,1287,1653,8.32428,-66.1806
70,-629,8.6377,65.4718,0.053475,-0.00720301,-0.0465762,0.0787219,-0.0324499,-0.496724,0.0660123,0.0457953,1294,1653,8.63764,-65.4718
77,-629,9.0802,64.86,0.0467611,-0.0289734,-0.043395,0.0664877,-0.0487,-0.426658,0.0667674,0.0464232,1301,1653,9.08015,-64.86
84,-629,9.50281,64.3855,0.0375395,-0.0465777,-0.0413626,0.0544707,-0.0635088,-0.388528,0.0681821,0.0462677,1308,1653,9.50278,-64.3855
91,-629,9.85437,63.9869,0,0,0,0,0,0,0,-1,1315,1653,9.85441,-63.9869
98,-629,10.3246,64.1035,0,0,0,0,0,0,0,-1,1322,1653,10.3246,-64.1036
105,-629,0.576538,68.7461,0,0,0,0,0,0,0,-1,1329,1653,0.576538,-68.7461
112,-629,0.883545,68.6917,-0.0178425,-0.104644,-0.0311964,-0.00779384,-0.114692,-0.311616,0.0740006,0.0475948,1336,1653,0.88353,-68.6916
119,-629,1.08777,68.6224,-0.0349695,-0.111946,-0.0328305,-0.0228693,-0.124046,-0.353117,0.0762265,0.0449014,1343,1653,1.08773,-68.6225
126,-629,1.00159,68.7616,-0.0524572,-0.118681,-0.0344315,-0.0377996,-0.133338,-0.402467,0.0793523,0.0436443,1350,1653,1.00154,-68.7616
133,-629,0.736206,68.9994,-0.0705696,-0.125966,-0.0353721,-0.0533414,-0.143194,-0.453238,0.0835642,0.0489277,1357,1653,0.736165,-68.9994
140,-629,-0.384033,69.9927,-0.0897344,-0.133534,-0.0358914,-0.0695891,-0.15368,-0.511466,0.0888585,0.0445035,1364,1653,-0.384011,-69.9927
147,-629,-1.44763,70.4883,0,0,0,0,0,0,0,-1,1371,1653,-1.44764,-70.4883
154,-629,6.41516,53.151,0,0,0,0,0,0,0,-1,1378,1653,6.41517,-53.151
161,-629,10.5461,6.83752,0,0,0,0,0,0,0,-1,1385,1653,10.5461,-6.83758
168,-629,12.0059,5.56348,0,0,0,0,0,0,0,-1,1392,1653,12.0059,-5.56352
175,-629,5.84485,-1.78845,0,0,0,0,0,0,0,-1,1399,1653,5.84479,1.7884
182,-629,5.99036,-1.27783,0,0,0,0,0,0,0,-1,1406,1653,5.99041,1.27778
189,-629,5.97668,-0.748535,0,0,0,0,0,0,0,-1,1413,1653,5.97671,0.748544
196,-629,4.52869,9.24695,0,0,0,0,0,0,0,-1,1420,1653,4.52869,-9.2469
203,-629,3.75085,6.88037,0,0,0,0,0,0,0,-1,1427,1653,3.75087,-6.88032
210,-629,3.5907,6.52637,0,0,0,0,0,0,0,-1,1434,1653,3.59067,-6.52642
217,-629,2.4585,4.84448,0,0,0,0,0,0,0,-1,1441,1653,2.45855,-4.84448
224,-629,1.31982,3.68481,0,0,0,0,0,0,0,-1,1448,1653,1.31986,-3.68487
231,-629,3.63025,1.73499,0,0,0,0,0,0,0,-1,1455,1653,3.6303,-1.735
238,-629,4.26428,2.11255,0,0,0,0,0,0,0,-1,1462,1653,4.26429,-2.11253
245,-629,5.61816,1.95361,0,0,0,0,0,0,0,-1,1469,1653,5.61815,-1.95359
252,-629,7.27136,2.18982,0,0,0,0,0,0,0,-1,1476,1653,7.27131,-2.18985
259,-629,8.67334,2.18628,0,0,0,0,0,0,0,-1,1483,1653,8.6733,-2.18633
266,-629,6.86475,3.72058,0,0,0,0,0,0,0,-1,1490,1653,6.86479,-3.72063
273,-629,7.9021,3.8717,0,0,0,0,0,0,0,-1,1497,1653,7.90205,-3.87171
280,-629,9.70837,4.39087,0,0,0,0,0,0,0,-1,1504,1653,9.7084,-4.39082
287,-629,9.82947,7.19348,0,0,0,0,0,0,0,-1,1511,1653,9.8295,-7.19347
294,-629,6.56555,11.6359,0,0,0,0,0,0,0,-1,1518,1653,6.5656,-11.6358
301,-629,13.903,44.4862,0,0,0,0,0,0,0,-1,1525,1653,13.903,-44.4862
308,-629,6.08264,12.1423,0,0,0,0,0,0,0,-1,1532,1653,6.08263,-12.1423
315,-629,6.82043,18.2764,0,0,0,0,0,0,0,-1,1539,1653,6.82049,-18.2764
322,-629,14.1931,43.8071,0,0,0,0,0,0,0,-1,1546,1653,14.1931,-43.8071
329,-629,16.3218,58.9518,0,0,0,0,0,0,0,-1,1553,1653,16.3218,-58.9518
336,-629,16.1056,58.4564,0,0,0,0,0,0,0,-1,1560,1653,16.1056,-58.4564
343,-629,16.269,58.0829,0,0,0,0,0,0,0,-1,1567,1653,16.269,-58.0829
350,-629,16.3534,57.3556,0.0125499,0.00726274,0.00277739,0.0137407,0.00607194,0.405038,0.00795104,0.0354292,1574,1653,16.3534,-57.3556
357,-629,16.4359,56.5453,0.0111995,0.00730029,0.00157326,0.0117551,0.00674468,0.339486,0.0068114,0.0178113,1581,1653,16.4359,-56.5453
364,-629,16.3726,55.8933,0.0102624,0.00651731,0.000370156,0.0102987,0.00648107,0.0975791,0.00601185,0.0139496,1588,1653,16.3725,-55.8933
371,-629,16.3159,55.2159,0.00938082,0.00558094,-0.000474034,0.00943906,0.0055227,-0.122254,0.00547589,0.011695,1595,1653,16.3159,-55.216
378,-629,16.3188,54.5031,0.00840467,0.00468451,-0.00114756,0.00873017,0.00435901,-0.276391,0.00504037,0.0111748,1602,1653,16.3189,-54.503
385,-629,16.322,53.8239,0.00746363,0.00380379,-0.00163439,0.00808724,0.00318018,-0.364509,0.00470452,0.013182,1609,1653,16.322,-53.8239
392,-629,16.2908,53.1174,0.00641981,0.00298212,-0.00189723,0.00726102,0.0021409,-0.417345,0.00430817,0.0111893,1616,1653,16.2908,-53.1175
399,-629,16.255,52.3909,0.00537951,0.00231329,-0.00202261,0.00638439,0.00130841,-0.461103,0.00389409,0.0113672,1623,1653,16.255,-52.3908
406,-629,16.2417,51.6787,0.0044292,0.00150078,-0.00197514,0.00542367,0.00050631,-0.466438,0.00345938,0.0152307,1630,1653,16.2418,-51.6787
413,-629,16.1982,51.0083,0.0037297,0.00104455,-0.00219347,0.00495886,-0.00018461,-0.510771,0.00336913,0.0248941,1637,1653,16.1982,-51.0083
420,-629,16.1403,50.304,0.00320608,0.000775615,-0.00223308,0.00453317,-0.000551479,-0.53621,0.00322171,0.0227478,1644,1653,16.1403,-50.3039
427,-629,16.1527,49.5458,0.00279678,0.000429887,-0.0022738,0.00417668,-0.000950011,-0.545453,0.00314926,0.0159639,1651,1653,16.1528,-49.5457
434,-629,16.1382,48.8014,0.00262881,0.00026141,-0.00253211,0.00424024,-0.00135002,-0.566752,0.00336825,0.0148299,1658,1653,16.1382,-48.8013
441,-629,16.0847,48.068,0.00268253,1.581e-05,-0.00301231,0.00464338,-0.00194504,-0.577041,0.00390872,0.0173129,1665,1653,16.0847,-48.068
448,-629,16.0558,47.2882,0.0029548,-0.000280973,-0.00368101,0.00535779,-0.00268396,-0.578345,0.00472768,0.0157703,1672,1653,16.0558,-47.2883
455,-629,15.984,46.5028,0.00330126,-0.000589836,-0.00439101,0.00615843,-0.00344701,-0.576858,0.00561887,0.0144872,1679,1653,15.984,-46.5028
462,-629,15.9695,45.8079,0.00362039,-0.00094708,-0.00506828,0.00689569,-0.00422238,-0.573725,0.00648058,0.0222286,1686,1653,15.9695,-45.8079
469,-629,15.9635,45.0078,0.00401718,-0.00119386,-0.00584648,0.00781245,-0.00498912,-0.57578,0.00745067,0.0350793,1693,1653,15.9636,-45.0078
476,-629,16.0859,44.1809,0,0,0,0,0,0,0,-1,1700,1653,16.0859,-44.1809
483,-629,14.0381,30.967,0,0,0,0,0,0,0,-1,1707,1653,14.0381,-30.9671
490,-629,13.9072,28.8588,0,0,0,0,0,0,0,-1,1714,1653,13.9072,-28.8587
497,-629,10.3662,19.8605,0,0,0,0,0,0,0,-1,1721,1653,10.3662,-19.8605
504,-629,7.89453,15.5316,0,0,0,0,0,0,0,-1,1728,1653,7.89447,-15.5316
511,-629,6.29138,3.40295,0,0,0,0,0,0,0,-1,1735,1653,6.29137,-3.403
518,-629,5.84387,1.41858,0,0,0,0,0,0,0,-1,1742,1653,5.84391,-1.4186
525,-629,6.4729,1.02319,0,0,0,0,0,0,0,-1,1749,1653,6.47284,-1.02316
532,-629,6.86511,0.903687,0,0,0,0,0,0,0,-1,1756,1653,6.86514,-0.903691
539,-629,6.60803,0.746704,0,0,0,0,0,0,0,-1,1763,1653,6.60809,-0.746691
546,-629,0,0,0,0,0,0,0,0,0,-1,1770,1653,0,0
553,-629,0,0,0,0,0,0,0,0,0,-1,1777,1653,0,0
560,-629,0,0,0,0,0,0,0,0,0,-1,1784,1653,0,0
567,-629,0,0,0,0,0,0,0,0,0,-1,1791,1653,0,0
574,-629,0,0,0,0,0,0,0,0,0,-1,1798,1653,0,0
581,-629,0,0,0,0,0,0,0,0,0,-1,1805,1653,0,0
588,-629,0,0,0,0,0,0,0,0,0,-1,1812,1653,0,0
595,-629,0,0,0,0,0,0,0,0,0,-1,1819,1653,0,0
602,-629,0,0,0,0,0,0,0,0,0,-1,1826,1653,0,0
609,-629,0,0,0,0,0,0,0,0,0,-1,1833,1653,0,0
616,-629,0,0,0,0,0,0,0,0,0,-1,1840,1653,0,0
623,-629,0,0,0,0,0,0,0,0,0,-1,1847,1653,0,0
630,-629,0,0,0,0,0,0,0,0,0,-1,1854,1653,0,0
637,-629,0,0,0,0,0,0,0,0,0,-1,1861,1653,0,0
644,-629,0,0,0,0,0,0,0,0,0,-1,1868,1653,0,0
651,-629,0,0,0,0,0,0,0,0,0,-1,1875,1653,0,0
658,-629,0,0,0,0,0,0,0,0,0,-1,1882,1653,0,0
665,-629,0,0,0,0,0,0,0,0,0,-1,1889,1653,0,0
672,-629,0,0,0,0,0,0,0,0,0,-1,1896,1653,0,0
679,-629,0,0,0,0,0,0,0,0,0,-1,1903,1653,0,0
686,-629,0,0,0,0,0,0,0,0,0,-1,1910,1653,0,0
693,-629,0,0,0,0,0,0,0,0,0,-1,1917,1653,0,0
700,-629,0,0,0,0,0,0,0,0,0,-1,1924,1653,0,0
707,-629,0,0,0,0,0,0,0,0,0,-1,1931,1653,0,0
714,-629,0,0,0,0,0,0,0,0,0,-1,1938,1653,0,0
721,-629,0,0,0,0,0,0,0,0,0,-1,1945,1653,0,0
728,-629,0,0,0,0,0,0,0,0,0,-1,1952,1653,0,0
735,-629,0,0,0,0,0,0,0,0,0,-1,1959,1653,0,0
742,-629,0,0,0,0,0,0,0,0,0,-1,1966,1653,0,0
749,-629,0,0,0,0,0,0,0,0,0,-1,1973,1653,0,0
756,-629,0,0,0,0,0,0,0,0,0,-1,1980,1653,0,0
763,-629,0,0,0,0,0,0,0,0,0,-1,1987,1653,0,0
770,-629,0,0,0,0,0,0,0,0,0,-1,1994,1653,0,0
777,-629,0,0,0,0,0,0,0,0,0,-1,2001,1653,0,0
784,-629,0,0,0,0,0,0,0,0,0,-1,2008,1653,0,0
791,-629,0,0,0,0,0,0,0,0,0,-1,2015,1653,0,0
798,-629,0,0,0,0,0,0,0,0,0,-1,2022,1653,0,0
805,-629,0,0,0,0,0,0,0,0,0,-1,2029,1653,0,0
812,-629,0,0,0,0,0,0,0,0,0,-1,2036,1653,0,0
-700,-636,0,0,0,0,0,0,0,0,0,-1,524,1660,0,0
-693,-636,0,0,0,0,0,0,0,0,0,-1,531,1660,0,0
-686,-636,0,0,0,0,0,0,0,0,0,-1,538,1660,0,0
-679,-636,0,0,0,0,0,0,0,0,0,-1,545,1660,0,0
-672,-636,0,0,0,0,0,0,0,0,0,-1,552,1660,0,0
-665,-636,0,0,0,0,0,0,0,0,0,-1,559,1660,0,0
-658,-636,0,0,0,0,0,0,0,0,0,-1,566,1660,0,0
-651,-636,0,0,0,0,0,0,0,0,0,-1,573,1660,0,0
-644,-636,0,0,0,0,0,0,0,0,0,-1,580,1660,0,0
-637,-636,0,0,0,0,0,0,0,0,0,-1,587,1660,0,0
-630,-636,0,0,0,0,0,0,0,0,0,-1,594,1660,0,0
-623,-636,0,0,0,0,0,0,0,0,0,-1,601,1660,0,0
-616,-636,0,0,0,0,0,0,0,0,0,-1,608,1660,0,0
-609,-636,0,0,0,0,0,0,0,0,0,-1,615,1660,0,0
-602,-636,0,0,0,0,0,0,0,0,0,-1,622,1660,0,0
-595,-636,0,0,0,0,0,0,0,0,0,-1,629,1660,0,0
-588,-636,0,0,0,0,0,0,0,0,0,-1,636,1660,0,0
-581,-636,0,0,0,0,0,0,0,0,0,-1,643,1660,0,0
-574,-636,0,0,0,0,0,0,0,0,0,-1,650,1660,0,0
-567,-636,0,0,0,0,0,0,0,0,0,-1,657,1660,0,0
-560,-636,0,0,0,0,0,0,0,0,0,-1,664,1660,0,0
-553,-636,0,0,0,0,0,0,0,0,0,-1,671,1660,0,0
-546,-636,0,0,0,0,0,0,0,0,0,-1,678,1660,0,0
-539,-636,0,0,0,0,0,0,0,0,0,-1,685,1660,0,0
-532,-636,0,0,0,0,0,0,0,0,0,-1,692,1660,0,0
-525,-636,0,0,0,0,0,0,0,0,0,-1,699,1660,0,0
-518,-636,0,0,0,0,0,0,0,0,0,-1,706,1660,0,0
-511,-636,0,0,0,0,0,0,0,0,0,-1,713,1660,0,0
-504,-636,0,0,0,0,0,0,0,0,0,-1,720,1660,0,0
-497,-636,0,0,0,0,0,0,0,0,0,-1,727,1660,0,0
-490,-636,0,0,0,0,0,0,0,0,0,-1,734,1660,0,0
-483,-636,0,0,0,0,0,0,0,0,0,-1,741,1660,0,0
-476,-636,0,0,0,0,0,0,0,0,0,-1,748,1660,0,0
-469,-636,0,0,0,0,0,0,0,0,0,-1,755,1660,0,0
-462,-636,0,0,0,0,0,0,0,0,0,-1,762,1660,0,0
-455,-636,0,0,0,0,0,0,0,0,0,-1,769,1660,0,0
-448,-636,0,0,0,0,0,0,0,0,0,-1,776,1660,0,0
-441,-636,0,0,0,0,0,0,0,0,0,-1,783,1660,0,0
-434,-636,0,0,0,0,0,0,0,0,0,-1,790,1660,0,0
-427,-636,0,0,0,0,0,0,0,0,0,-1,797,1660,0,0
-420,-636,0,0,0,0,0,0,0,0,0,-1,804,1660,0,0
-413,-636,0,0,0,0,0,0,0,0,0,-1,811,1660,0,0
-406,-636,-0.591125,10.6943,0,0,0,0,0,0,0,-1,818,1660,-0.59115,-10.6943
-399,-636,0.0766602,11.2408,0,0,0,0,0,0,0,-1,825,1660,0.076685,-11.2409
-392,-636,0.75946,11.9233,0,0,0,0,0,0,0,-1,832,1660,0.759481,-11.9233
-385,-636,1.68878,12.517,0,0,0,0,0,0,0,-1,839,1660,1.6888,-12.5169
-378,-636,2.22107,13.0013,0,0,0,0,0,0,0,-1,846,1660,2.22107,-13.0014
-371,-636,2.52185,11.9684,0,0,0,0,0,0,0,-1,853,1660,2.52184,-11.9684
-364,-636,4.51947,14.8503,0,0,0,0,0,0,0,-1,860,1660,4.51949,-14.8504
-357,-636,4.55682,15.8809,0,0,0,0,0,0,0,-1,867,1660,4.55681,-15.8808
-350,-636,2.57788,36.7095,0,0,0,0,0,0,0,-1,874,1660,2.57785,-36.7094
-343,-636,2.69073,45.1926,0,0,0,0,0,0,0,-1,881,1660,2.69075,-45.1927
-336,-636,2.70758,46.0469,-0.00155907,-0.000132786,0.000226455,-9.76946e-05,-0.00159417,1.41706,0.00103176,0.0361658,888,1660,2.70761,-46.0468
-329,-636,2.72748,46.8589,-0.00202869,-0.000327763,-0.000215376,-0.000300915,-0.00205554,-1.44678,0.00128188,0.0190501,895,1660,2.72749,-46.8589
-322,-636,2.69025,47.6174,-0.00235374,-0.000179778,-0.000515633,-6.36776e-05,-0.00246984,-1.34933,0.00162575,0.0126832,902,1660,2.69022,-47.6175
-315,-636,2.60724,48.3929,-0.00250342,-1.27981e-05,-0.000608805,0.000128052,-0.00264427,-1.34344,0.00180704,0.0139316,909,1660,2.60722,-48.3929
-308,-636,2.56714,49.1779,-0.00242282,0.000363391,-0.000583819,0.000480778,-0.00254021,-1.37237,0.0018744,0.0119495,916,1660,2.56716,-49.1779
-301,-636,2.54175,49.9442,-0.00220501,0.000831984,-0.000464047,0.000901307,-0.00227433,-1.4225,0.00188972,0.0115443,923,1660,2.54176,-49.9443
-294,-636,2.49115,50.6967,-0.0017136,0.00136723,-0.000185431,0.00137835,-0.00172472,-1.5109,0.00179527,0.0153135,930,1660,2.49113,-50.6967
-287,-636,2.45508,51.4183,-0.001153,0.00190229,0.00010811,0.00190611,-0.00115682,1.53547,0.00178593,0.0139333,937,1660,2.45509,-51.4183
-280,-636,2.43256,52.1426,-0.00044746,0.00229904,0.000427101,0.00236392,-0.000512345,1.42003,0.0017716,0.0134493,944,1660,2.43255,-52.1426
-273,-636,2.37567,52.8661,0.000355227,0.00262762,0.000719773,0.00283642,0.000146427,1.28845,0.00184408,0.013547,951,1660,2.37564,-52.866
-266,-636,2.33563,53.5922,0.00130382,0.00283329,0.00111767,0.00342281,0.000714301,1.08543,0.00208496,0.0145061,958,1660,2.33562,-53.5922
-259,-636,2.31653,54.3176,0.00237857,0.0029031,0.00144159,0.00410609,0.00117558,0.875378,0.00244176,0.0164488,965,1660,2.31654,-54.3176
-252,-636,2.28986,55.0022,0.0034826,0.00288364,0.00162792,0.00483836,0.00152788,0.694432,0.00285593,0.0131923,972,1660,2.28985,-55.0021
-245,-636,2.27069,55.7258,0.00448764,0.00264922,0.00177547,0.00556775,0.00156912,0.546533,0.00331498,0.012204,979,1660,2.27071,-55.7258
-238,-636,2.2616,56.4316,0.00536803,0.00220162,0.00181174,0.00619085,0.0013788,0.426307,0.00375303,0.0124922,986,1660,2.26161,-56.4317
-231,-636,2.24939,57.1138,0.00620682,0.00175206,0.00178937,0.00683655,0.00112233,0.338391,0.00423348,0.0115782,993,1660,2.24942,-57.1137
-224,-636,2.26251,57.7766,0.00686217,0.00115334,0.00168558,0.0073227,0.000692806,0.266709,0.00466804,0.0107021,1000,1660,2.26248,-57.7766
-217,-636,2.23584,58.5001,0.0073725,0.000477202,0.00148792,0.00767987,0.000169828,0.203714,0.00506425,0.0180008,1007,1660,2.23582,-58.5001
-210,-636,2.20502,59.1493,0.00785777,-0.000486552,0.00114212,0.00801127,-0.000640054,0.133601,0.00556648,0.0282318,1014,1660,2.20499,-59.1493
-203,-636,2.28833,59.7511,0.0082839,-0.00132839,0.000623547,0.00832418,-0.00136867,0.0645094,0.00605744,0.0315931,1021,1660,2.28834,-59.7511
-196,-636,2.46362,60.2915,0.00824257,-0.00221137,-0.00026415,0.00824924,-0.00221804,-0.0252465,0.00636891,0.0327998,1028,1660,2.46367,-60.2915
-189,-636,2.36548,60.8768,0.00772781,-0.00322187,-0.00131844,0.00788433,-0.00337839,-0.118159,0.00667375,0.0366911,1035,1660,2.36552,-60.8768
-182,-636,2.38647,61.975,0,0,0,0,0,0,0,-1,1042,1660,2.38642,-61.9749
-175,-636,2.82703,58.9026,0,0,0,0,0,0,0,-1,1049,1660,2.82706,-58.9026
-168,-636,3.87,56.0028,0,0,0,0,0,0,0,-1,1056,1660,3.87004,-56.0028
-161,-636,4.54553,56.2565,0,0,0,0,0,0,0,-1,1063,1660,4.5455,-56.2564
-154,-636,2.33289,62.5505,0,0,0,0,0,0,0,-1,1070,1660,2.33283,-62.5505
-147,-636,4.22656,55.8413,0,0,0,0,0,0,0,-1,1077,1660,4.22662,-55.8413
-140,-636,3.20886,57.1307,0,0,0,0,0,0,0,-1,1084,1660,3.20882,-57.1307
-133,-636,2.82764,57.9807,0,0,0,0,0,0,0,-1,1091,1660,2.82766,-57.9807
-126,-636,2.44653,58.8307,0,0,0,0,0,0,0,-1,1098,1660,2.44649,-58.8307
-119,-636,1.8667,13.8916,0,0,0,0,0,0,0,-1,1105,1660,1.86668,-13.8916
-112,-636,-1.24963,9.7998,0,0,0,0,0,0,0,-1,1112,1660,-1.24968,-9.79978
-105,-636,3.51624,4.72791,0,0,0,0,0,0,0,-1,1119,1660,3.51618,-4.7279
-98,-636,1.54504,5.11914,0,0,0,0,0,0,0,-1,1126,1660,1.54503,-5.11912
-91,-636,-1.87964,-2.25012,0,0,0,0,0,0,0,-1,1133,1660,-1.87966,2.25016
-84,-636,-2.84143,0.133667,0,0,0,0,0,0,0,-1,1140,1660,-2.84144,-0.133701
-77,-636,-3.57349,2.45935,0,0,0,0,0,0,0,-1,1147,1660,-3.57345,-2.45939
-70,-636,-4.23682,4.82312,0,0,0,0,0,0,0,-1,1154,1660,-4.23681,-4.82307
-63,-636,-2.21033,6.97168,0,0,0,0,0,0,0,-1,1161,1660,-2.21034,-6.97165
-56,-636,-2.51917,8.80359,0,0,0,0,0,0,0,-1,1168,1660,-2.51916,-8.80361
-49,-636,-3.13,10.4113,0,0,0,0,0,0,0,-1,1175,1660,-3.12996,-10.4112
-42,-636,-2.27771,4.90173,0,0,0,0,0,0,0,-1,1182,1660,-2.27775,-4.90173
-35,-636,-2.27698,5.89685,0,0,0,0,0,0,0,-1,1189,1660,-2.27695,-5.89686
-28,-636,-1.70654,4.83936,0,0,0,0,0,0,0,-1,1196,1660,-1.70656,-4.8393
-21,-636,4.24683,27.7834,0,0,0,0,0,0,0,-1,1203,1660,4.24687,-27.7835
-14,-636,1.07642,73.9216,0,0,0,0,0,0,0,-1,1210,1660,1.07639,-73.9217
-7,-636,2.99561,72.5746,0,0,0,0,0,0,0,-1,1217,1660,2.99558,-72.5746
0,-636,3.82703,72.5248,0.0827707,0.136374,-0.0821248,0.19596,0.0231849,-0.943127,0.123639,0.0450772,1224,1660,3.82708,-72.5248
7,-636,4.38513,72.5828,0.0773383,0.126595,-0.0803391,0.185996,0.0179373,-0.934127,0.118472,0.0442503,1231,1660,4.38513,-72.5827
14,-636,4.6571,72.2626,0,0,0,0,0,0,0,-1,1238,1660,4.65716,-72.2625
21,-636,5.14136,71.766,0.0705647,0.106064,-0.0793823,0.169657,0.006972,-0.895389,0.110854,0.0493207,1245,1660,5.14137,-71.766
28,-636,5.34167,71.554,0.0682428,0.0933894,-0.0782689,0.160088,0.0015437,-0.865039,0.106215,0.0463866,1252,1660,5.34171,-71.554
35,-636,5.89148,71.0525,0.0658729,0.0795837,-0.0749641,0.148005,-0.0025486,-0.830996,0.0995306,0.0437291,1259,1660,5.89151,-71.0526
42,-636,6.3573,70.6123,0.0634261,0.0648905,-0.070194,0.134356,-0.00603949,-0.790613,0.0916502,0.0476984,1266,1660,6.35735,-70.6123
49,-636,6.65991,70.1602,0.0610896,0.0495073,-0.0630717,0.118635,-0.00803856,-0.739617,0.0819014,0.0472197,1273,1660,6.65991,-70.1602
56,-636,7.04919,69.6881,0.0581231,0.0329634,-0.0568471,0.103766,-0.0126791,-0.676507,0.0737676,0.0494601,1280,1660,7.04915,-69.6881
63,-636,7.50403,69.1378,0,0,0,0,0,0,0,-1,1287,1660,7.50406,-69.1379
70,-636,8.45825,66.0247,0.0460575,-0.00371349,-0.0462742,0.0737133,-0.0313693,-0.53869,0.0622898,0.0445104,1294,1660,8.45827,-66.0246
77,-636,8.66272,65.5223,0.0375348,-0.0215992,-0.0420361,0.0593608,-0.0434252,-0.478906,0.0595808,0.0460472,1301,1660,8.66275,-65.5223
84,-636,8.88989,65.0404,0.0270314,-0.0373613,-0.0388172,0.0452669,-0.0555968,-0.439181,0.0583354,0.045402,1308,1660,8.88989,-65.0404
91,-636,9.11011,64.5714,0.0145259,-0.0516676,-0.0354135,0.0299009,-0.0670425,-0.4096,0.0573232,0.0445261,1315,1660,9.11015,-64.5714
98,-636,9.66956,64.4015,0.0014651,-0.065308,-0.0329321,0.014974,-0.078817,-0.389273,0.0581819,0.0493162,1322,1660,9.66957,-64.4015
105,-636,9.96997,63.9366,0,0,0,0,0,0,0,-1,1329,1660,9.96996,-63.9367
112,-636,2.25745,69.5446,-0.0320562,-0.09062,-0.0293685,-0.019866,-0.10281,-0.393438,0.0629715,0.0494378,1336,1660,2.2574,-69.5446
119,-636,1.95483,69.6954,-0.0494782,-0.0984985,-0.0312727,-0.0342551,-0.113722,-0.45302,0.0673646,0.0448252,1343,1660,1.95488,-69.6955
126,-636,1.74622,69.6372,-0.0673962,-0.106045,-0.0333294,-0.0481941,-0.125247,-0.522684,0.0729482,0.043294,1350,1660,1.74627,-69.6372
133,-636,1.49817,69.9104,-0.0854239,-0.113837,-0.0351769,-0.0616932,-0.137568,-0.593482,0.0795654,0.0478002,1357,1660,1.49817,-69.9104
140,-636,0.522461,70.4833,-0.103703,-0.121605,-0.036543,-0.0750309,-0.150277,-0.665294,0.0867627,0.0430907,1364,1660,0.522488,-70.4832
147,-636,-0.633667,70.9973,-0.120007,-0.130261,-0.0347072,-0.0900501,-0.160218,-0.712066,0.0927389,0.0447127,1371,1660,-0.633713,-70.9973
154,-636,-1.70544,71.6821,0,0,0,0,0,0,0,-1,1378,1660,-1.70547,-71.6821
161,-636,10.2961,7.13025,0,0,0,0,0,0,0,-1,1385,1660,10.2961,-7.13021
168,-636,11.7659,5.83899,0,0,0,0,0,0,0,-1,1392,1660,11.7658,-5.83899
175,-636,5.94592,-1.72888,0,0,0,0,0,0,0,-1,1399,1660,5.94598,1.72886
182,-636,5.93994,-1.11938,0,0,0,0,0,0,0,-1,1406,1660,5.93998,1.11936
189,-636,5.32544,11.9595,0,0,0,0,0,0,0,-1,1413,1660,5.32542,-11.9595
196,-636,5.3623,9.38025,0,0,0,0,0,0,0,-1,1420,1660,5.36225,-9.38027
203,-636,5.18542,9.02429,0,0,0,0,0,0,0,-1,1427,1660,5.18547,-9.0243
210,-636,4.09167,7.17041,0,0,0,0,0,0,0,-1,1434,1660,4.09173,-7.17041
217,-636,2.94897,5.28992,0,0,0,0,0,0,0,-1,1441,1660,2.94899,-5.28991
224,-636,1.49194,3.63916,0,0,0,0,0,0,0,-1,1448,1660,1.49197,-3.63918
231,-636,0.17749,2.24854,0,0,0,0,0,0,0,-1,1455,1660,0.177501,-2.24855
238,-636,-0.764648,1.00598,0,0,0,0,0,0,0,-1,1462,1660,-0.764704,-1.00595
245,-636,6.21204,1.18005,0,0,0,0,0,0,0,-1,1469,1660,6.21206,-1.18001
252,-636,7.70251,0.865723,0,0,0,0,0,0,0,-1,1476,1660,7.7025,-0.865692
259,-636,9.03601,0.787231,0,0,0,0,0,0,0,-1,1483,1660,9.03598,-0.787243
266,-636,10.1071,3.24109,0,0,0,0,0,0,0,-1,1490,1660,10.1071,-3.24103
273,-636,8.48535,5.02466,0,0,0,0,0,0,0,-1,1497,1660,8.48533,-5.02472
280,-636,11.908,32.0698,0,0,0,0,0,0,0,-1,1504,1660,11.9079,-32.0698
287,-636,12.1218,36.4158,0,0,0,0,0,0,0,-1,1511,1660,12.1218,-36.4158
294,-636,13.3706,44.9711,0,0,0,0,0,0,0,-1,1518,1660,13.3706,-44.9711
301,-636,14.8522,61.24,0,0,0,0,0,0,0,-1,1525,1660,14.8522,-61.24
308,-636,15.5728,61.4734,0,0,0,0,0,0,0,-1,1532,1660,15.5728,-61.4734
315,-636,15.4739,60.786,0,0,0,0,0,0,0,-1,1539,1660,15.4739,-60.786
322,-636,15.7782,59.9335,0,0,0,0,0,0,0,-1,1546,1660,15.7781,-59.9335
329,-636,15.6115,59.1545,0.0130245,0.00614238,0.00297732,0.0141337,0.00503313,0.356637,0.00827197,0.0422475,1553,1660,15.6115,-59.1546
336,-636,15.4884,58.6161,0.0117697,0.006559,0.00203431,0.0124698,0.00585885,0.33147,0.00720381,0.0342227,1560,1660,15.4884,-58.6161
343,-636,15.6274,57.9282,0.0106668,0.00672316,0.00124847,0.0110288,0.00636115,0.282221,0.00639246,0.029752,1567,1660,15.6274,-57.9282
350,-636,15.6794,57.2271,0.00965815,0.00680252,0.000479001,0.00973635,0.00672431,0.16184,0.00575587,0.0138383,1574,1660,15.6795,-57.2271
357,-636,15.6772,56.5508,0.00850414,0.00672222,-0.000202318,0.00852682,0.00669954,-0.111646,0.00518394,0.0108318,1581,1660,15.6772,-56.5508
364,-636,15.6659,55.8776,0.00771559,0.00592646,-0.000904404,0.00809311,0.00554894,-0.395434,0.0047787,0.0108311,1588,1660,15.6659,-55.8775
371,-636,15.6448,55.2274,0.00702098,0.00501507,-0.00135331,0.00770247,0.00433358,-0.466504,0.00445864,0.00963431,1595,1660,15.6448,-55.2275
378,-636,15.6382,54.5281,0.00628507,0.00414342,-0.00170529,0.00722786,0.00320063,-0.505042,0.0041821,0.0100501,1602,1660,15.6382,-54.5281
385,-636,15.6326,53.8152,0.00562111,0.00330443,-0.00198317,0.00675945,0.00216609,-0.52108,0.00398556,0.0162399,1609,1660,15.6326,-53.8152
392,-636,15.5994,53.1138,0.00486551,0.00249075,-0.00211764,0.00610594,0.00125032,-0.529885,0.00372448,0.0169823,1616,1660,15.5994,-53.1137
399,-636,15.5585,52.4229,0.00411262,0.00184177,-0.0021932,0.00544688,0.00050751,-0.546544,0.00347446,0.0128966,1623,1660,15.5585,-52.4229
406,-636,15.5366,51.7124,0.00346511,0.00109301,-0.00216623,0.00474873,-0.000190604,-0.534931,0.00323123,0.0154647,1630,1660,15.5366,-51.7123
413,-636,15.4889,51.0171,0.00305802,0.000636578,-0.0023382,0.00448036,-0.000785761,-0.546504,0.00328035,0.0249008,1637,1660,15.4889,-51.0171
420,-636,15.4252,50.3251,0.00280324,0.000388257,-0.00246582,0.00434135,-0.00114985,-0.557714,0.00334407,0.0244686,1644,1660,15.4251,-50.3251
427,-636,15.4382,49.5703,0.00274613,0.000138995,-0.00270913,0.004449,-0.00156388,-0.561161,0.00360228,0.0157856,1651,1660,15.4382,-49.5703
434,-636,15.4083,48.8306,0.00287329,7.12347e-05,-0.00318629,0.00495297,-0.00200844,-0.578268,0.00413728,0.0158594,1658,1660,15.4083,-48.8306
441,-636,15.3583,48.0878,0.0031798,-0.000178363,-0.0039102,0.00575618,-0.00275475,-0.582598,0.00501461,0.0131418,1665,1660,15.3583,-48.0878
448,-636,15.3533,47.3208,0.00370119,-0.000480047,-0.00476548,0.00681446,-0.00359332,-0.57869,0.00610411,0.0150161,1672,1660,15.3532,-47.3208
455,-636,15.2865,46.5376,0.00430637,-0.00078357,-0.0056469,0.0079553,-0.00443249,-0.573687,0.00724785,0.0192514,1679,1660,15.2865,-46.5376
462,-636,15.1805,45.7813,0.00486631,-0.0010814,-0.0065128,0.00905209,-0.00526718,-0.571227,0.00836295,0.0298107,1686,1660,15.1806,-45.7812
469,-636,15.3123,44.9023,0,0,0,0,0,0,0,-1,1693,1660,15.3122,-44.9024
476,-636,15.2583,42.1936,0,0,0,0,0,0,0,-1,1700,1660,15.2584,-42.1937
483,-636,11.3833,24.3958,0,0,0,0,0,0,0,-1,1707,1660,11.3833,-24.3957
490,-636,10.8951,23.9569,0,0,0,0,0,0,0,-1,1714,1660,10.8951,-23.9569
497,-636,9.55579,18.0111,0,0,0,0,0,0,0,-1,1721,1660,9.55574,-18.0111
504,-636,6.26428,19.4268,0,0,0,0,0,0,0,-1,1728,1660,6.26433,-19.4268
511,-636,5.65466,9.23218,0,0,0,0,0,0,0,-1,1735,1660,5.65461,-9.23216
518,-636,6.72791,1.07605,0,0,0,0,0,0,0,-1,1742,1660,6.7279,-1.0761
525,-636,7.04309,0.93335,0,0,0,0,0,0,0,-1,1749,1660,7.04308,-0.933298
532,-636,0,0,0,0,0,0,0,0,0,-1,1756,1660,0,0
539,-636,0,0,0,0,0,0,0,0,0,-1,1763,1660,0,0
546,-636,0,0,0,0,0,0,0,0,0,-1,1770,1660,0,0
553,-636,0,0,0,0,0,0,0,0,0,-1,1777,1660,0,0
560,-636,0,0,0,0,0,0,0,0,0,-1,1784,1660,0,0
567,-636,0,0,0,0,0,0,0,0,0,-1,1791,1660,0,0
574,-636,0,0,0,0,0,0,0,0,0,-1,1798,1660,0,0
581,-636,0,0,0,0,0,0,0,0,0,-1,1805,1660,0,0
588,-636,0,0,0,0,0,0,0,0,0,-1,1812,1660,0,0
595,-636,0,0,0,0,0,0,0,0,0,-1,1819,1660,0,0
602,-636,0,0,0,0,0,0,0,0,0,-1,1826,1660,0,0
609,-636,0,0,0,0,0,0,0,0,0,-1,1833,1660,0,0
616,-636,0,0,0,0,0,0,0,0,0,-1,1840,1660,0,0
623,-636,0,0,0,0,0,0,0,0,0,-1,1847,1660,0,0
630,-636,0,0,0,0,0,0,0,0,0,-1,1854,1660,0,0
637,-636,0,0,0,0,0,0,0,0,0,-1,1861,1660,0,0
644,-636,0,0,0,0,0,0,0,0,0,-1,1868,1660,0,0
651,-636,0,0,0,0,0,0,0,0,0,-1,1875,1660,0,0
658,-636,0,0,0,0,0,0,0,0,0,-1,1882,1660,0,0
665,-636,0,0,0,0,0,0,0,0,0,-1,1889,1660,0,0
672,-636,0,0,0,0,0,0,0,0,0,-1,1896,1660,0,0
679,-636,0,0,0,0,0,0,0,0,0,-1,1903,1660,0,0
686,-636,0,0,0,0,0,0,0,0,0,-1,1910,1660,0,0
693,-636,0,0,0,0,0,0,0,0,0,-1,1917,1660,0,0
700,-636,0,0,0,0,0,0,0,0,0,-1,1924,1660,0,0
707,-636,0,0,0,0,0,0,0,0,0,-1,1931,1660,0,0
714,-636,0,0,0,0,0,0,0,0,0,-1,1938,1660,0,0
721,-636,0,0,0,0,0,0,0,0,0,-1,1945,1660,0,0
728,-636,0,0,0,0,0,0,0,0,0,-1,1952,1660,0,0
735,-636,0,0,0,0,0,0,0,0,0,-1,1959,1660,0,0
742,-636,0,0,0,0,0,0,0,0,0,-1,1966,1660,0,0
749,-636,0,0,0,0,0,0,0,0,0,-1,1973,1660,0,0
756,-636,0,0,0,0,0,0,0,0,0,-1,1980,1660,0,0
763,-636,0,0,0,0,0,0,0,0,0,-1,1987,1660,0,0
770,-636,0,0,0,0,0,0,0,0,0,-1,1994,1660,0,0
777,-636,0,0,0,0,0,0,0,0,0,-1,2001,1660,0,0
784,-636,0,0,0,0,0,0,0,0,0,-1,2008,1660,0,0
791,-636,0,0,0,0,0,0,0,0,0,-1,2015,1660,0,0
798,-636,0,0,0,0,0,0,0,0,0,-1,2022,1660,0,0
805,-636,0,0,0,0,0,0,0,0,0,-1,2029,1660,0,0
812,-636,0,0,0,0,0,0,0,0,0,-1,2036,1660,0,0
-700,-643,0,0,0,0,0,0,0,0,0,-1,524,1667,0,0
-693,-643,0,0,0,0,0,0,0,0,0,-1,531,1667,0,0
-686,-643,0,0,0,0,0,0,0,0,0,-1,538,1667,0,0
-679,-643,0,0,0,0,0,0,0,0,0,-1,545,1667,0,0
-672,-643,0,0,0,0,0,0,0,0,0,-1,552,1667,0,0
-665,-643,0,0,0,0,0,0,0,0,0,-1,559,1667,0,0
-658,-643,0,0,0,0,0,0,0,0,0,-1,566,1667,0,0
-651,-643,0,0,0,0,0,0,0,0,0,-1,573,1667,0,0
-644,-643,0,0,0,0,0,0,0,0,0,-1,580,1667,0,0
-637,-643,0,0,0,0,0,0,0,0,0,-1,587,1667,0,0
-630,-643,0,0,0,0,0,0,0,0,0,-1,594,1667,0,0
-623,-643,0,0,0,0,0,0,0,0,0,-1,601,1667,0,0
-616,-643,0,0,0,0,0,0,0,0,0,-1,608,1667,0,0
-609,-643,0,0,0,0,0,0,0,0,0,-1,615,1667,0,0
-602,-643,0,0,0,0,0,0,0,0,0,-1,622,1667,0,0
-595,-643,0,0,0,0,0,0,0,0,0,-1,629,1667,0,0
-588,-643,0,0,0,0,0,0,0,0,0,-1,636,1667,0,0
-581,-643,0,0,0,0,0,0,0,0,0,-1,643,1667,0,0
-574,-643,0,0,0,0,0,0,0,0,0,-1,650,1667,0,0
-567,-643,0,0,0,0,0,0,0,0,0,-1,657,1667,0,0
-560,-643,0,0,0,0,0,0,0,0,0,-1,664,1667,0,0
-553,-643,0,0,0,0,0,0,0,0,0,-1,671,1667,0,0
-546,-643,0,0,0,0,0,0,0,0,0,-1,678,1667,0,0
-539,-643,0,0,0,0,0,0,0,0,0,-1,685,1667,0,0
-532,-643,0,0,0,0,0,0,0,0,0,-1,692,1667,0,0
-525,-643,0,0,0,0,0,0,0,0,0,-1,699,1667,0,0
-518,-643,0,0,0,0,0,0,0,0,0,-1,706,1667,0,0
-511,-643,0,0,0,0,0,0,0,0,0,-1,713,1667,0,0
-504,-643,0,0,0,0,0,0,0,0,0,-1,720,1667,0,0
-497,-643,0,0,0,0,0,0,0,0,0,-1,727,1667,0,0
-490,-643,0,0,0,0,0,0,0,0,0,-1,734,1667,0,0
-483,-643,0,0,0,0,0,0,0,0,0,-1,741,1667,0,0
-476,-643,0,0,0,0,0,0,0,0,0,-1,748,1667,0,0
-469,-643,0,0,0,0,0,0,0,0,0,-1,755,1667,0,0
-462,-643,0,0,0,0,0,0,0,0,0,-1,762,1667,0,0
-455,-643,0,0,0,0,0,0,0,0,0,-1,769,1667,0,0
-448,-643,0,0,0,0,0,0,0,0,0,-1,776,1667,0,0
-441,-643,0,0,0,0,0,0,0,0,0,-1,783,1667,0,0
-434,-643,0,0,0,0,0,0,0,0,0,-1,790,1667,0,0
-427,-643,0,0,0,0,0,0,0,0,0,-1,797,1667,0,0
-420,-643,0,0,0,0,0,0,0,0,0,-1,804,1667,0,0
-413,-643,0,0,0,0,0,0,0,0,0,-1,811,1667,0,0
-406,-643,0,0,0,0,0,0,0,0,0,-1,818,1667,0,0
-399,-643,0.589417,11.6465,0,0,0,0,0,0,0,-1,825,1667,0.58939,-11.6465
-392,-643,0.865295,12.6523,0,0,0,0,0,0,0,-1,832,1667,0.865315,-12.6523
-385,-643,1.72968,13.2692,0,0,0,0,0,0,0,-1,839,1667,1.72967,-13.2692
-378,-643,2.66522,13.8193,0,0,0,0,0,0,0,-1,846,1667,2.66524,-13.8193
-371,-643,0.466125,3.35095,0,0,0,0,0,0,0,-1,853,1667,0.466148,-3.351
-364,-643,1.69513,9.922,0,0,0,0,0,0,0,-1,860,1667,1.69511,-9.92205
-357,-643,1.14227,10.8429,0,0,0,0,0,0,0,-1,867,1667,1.14228,-10.8429
-350,-643,4.48804,36.1799,0,0,0,0,0,0,0,-1,874,1667,4.48801,-36.1799
-343,-643,3.57642,43.6594,0,0,0,0,0,0,0,-1,881,1667,3.57641,-43.6594
-336,-643,3.49261,46.0422,0,0,0,0,0,0,0,-1,888,1667,3.4926,-46.0422
-329,-643,3.23236,46.9028,-0.00333089,-0.000470604,-0.000865623,-0.000229038,-0.00357245,-1.29865,0.00230908,0.0420122,895,1667,3.23238,-46.9028
-322,-643,3.44379,47.7054,-0.00391009,-0.00018219,-0.00119724,0.000169191,-0.00426147,-1.28532,0.00289902,0.0286059,902,1667,3.4438,-47.7054
-315,-643,3.34583,48.4587,-0.00423279,4.87482e-05,-0.00129094,0.000407865,-0.00459191,-1.29947,0.00320589,0.0189991,909,1667,3.34586,-48.4587
-308,-643,3.3255,49.203,-0.00424152,0.000529557,-0.00124568,0.000835209,-0.00454717,-1.33018,0.00334479,0.0137282,916,1667,3.32552,-49.2029
-301,-643,3.28125,49.9628,-0.00406144,0.0010436,-0.00111178,0.00127521,-0.00429305,-1.36541,0.00336855,0.0140768,923,1667,3.28123,-49.9628
-294,-643,3.21521,50.7245,-0.00356234,0.00152175,-0.000834742,0.00165529,-0.00369589,-1.41216,0.0031635,0.0128371,930,1667,3.21523,-50.7245
-287,-643,3.1861,51.4607,-0.00298652,0.00201597,-0.000512153,0.00206787,-0.00303842,-1.46981,0.00296581,0.0112481,937,1667,3.18609,-51.4607
-280,-643,3.15826,52.181,-0.00228614,0.00234708,-0.000174619,0.00235365,-0.00229271,-1.53318,0.00268266,0.0155217,944,1667,3.15829,-52.181
-273,-643,3.10712,52.8929,-0.00149414,0.00260722,0.000121143,0.0026108,-0.00149771,1.54129,0.00240089,0.0140204,951,1667,3.1071,-52.8929
-266,-643,3.05219,53.6344,-0.000541002,0.00278977,0.000536593,0.00287408,-0.000625314,1.41495,0.00215495,0.0135108,958,1667,3.05219,-53.6344
-259,-643,3.03015,54.3534,0.00053072,0.0027314,0.000882823,0.00304178,0.000220343,1.23272,0.00195854,0.0139829,965,1667,3.03016,-54.3535
-252,-643,3.00452,55.0551,0.00163492,0.00265279,0.00105673,0.00331676,0.000970951,1.00981,0.00196901,0.015953,972,1667,3.00454,-55.055
-245,-643,2.96051,55.7572,0.00262363,0.00239074,0.0011887,0.00370158,0.00131279,0.736573,0.002167,0.0138722,979,1667,2.96054,-55.7572
-238,-643,2.96552,56.4465,0.00349971,0.00185679,0.00126197,0.00418403,0.00117247,0.496882,0.00249222,0.0157618,986,1667,2.96548,-56.4465
-231,-643,2.9447,57.1354,0.00432728,0.00142015,0.00125339,0.00479305,0.000954382,0.355793,0.00292953,0.0116486,993,1667,2.94467,-57.1353
-224,-643,2.94727,57.781,0.00501219,0.000885074,0.00114759,0.00530982,0.000587437,0.253766,0.00336123,0.0101682,1000,1667,2.94725,-57.781
-217,-643,2.9162,58.4033,0.00557091,0.000280366,0.000957449,0.00573885,0.000112424,0.173639,0.00378898,0.00950272,1007,1667,2.91622,-58.4033
-210,-643,2.89966,59.0927,0.00610644,-0.000479433,0.000633839,0.00616689,-0.00053988,0.0950793,0.00430253,0.0129498,1014,1667,2.89966,-59.0926
-203,-643,2.8988,59.8151,0.00657405,-0.00112505,0.000173407,0.00657796,-0.00112895,0.0225078,0.00480603,0.0162966,1021,1667,2.89878,-59.8151
-196,-643,2.92444,60.428,0.0067107,-0.00177993,-0.000524989,0.00674304,-0.00181227,-0.0615192,0.00520568,0.0177004,1028,1667,2.92447,-60.428
-189,-643,3.0321,61.0332,0.00646567,-0.00231489,-0.00129975,0.00665402,-0.00250324,-0.143916,0.005465,0.0234619,1035,1667,3.03212,-61.0332
-182,-643,3.02844,61.6897,0.00582202,-0.00186172,-0.00212327,0.00636971,-0.00240941,-0.252443,0.00523771,0.0413217,1042,1667,3.02846,-61.6897
-175,-643,3.13513,62.3669,0,0,0,0,0,0,0,-1,1049,1667,3.13512,-62.3669
-168,-643,3.18787,62.9393,0,0,0,0,0,0,0,-1,1056,1667,3.18784,-62.9393
-161,-643,2.84314,63.3296,0,0,0,0,0,0,0,-1,1063,1667,2.84315,-63.3296
-154,-643,2.88,63.8657,0,0,0,0,0,0,0,-1,1070,1667,2.87996,-63.8657
-147,-643,2.86572,64.3376,0,0,0,0,0,0,0,-1,1077,1667,2.86573,-64.3376
-140,-643,3.32153,64.5062,0,0,0,0,0,0,0,-1,1084,1667,3.3215,-64.5062
-133,-643,2.32495,61.5938,0,0,0,0,0,0,0,-1,1091,1667,2.32497,-61.5937
-126,-643,3.28662,58.6659,0,0,0,0,0,0,0,-1,1098,1667,3.28657,-58.6658
-119,-643,3.76282,14.1458,0,0,0,0,0,0,0,-1,1105,1667,3.76283,-14.1458
-112,-643,3.81458,16.2069,0,0,0,0,0,0,0,-1,1112,1667,3.81463,-16.2069
-105,-643,-2.23413,10.0996,0,0,0,0,0,0,0,-1,1119,1667,-2.23415,-10.0996
-98,-643,3.11035,4.68066,0,0,0,0,0,0,0,-1,1126,1667,3.11041,-4.68071
-91,-643,-1.74146,-2.5885,0,0,0,0,0,0,0,-1,1133,1667,-1.74146,2.58856
-84,-643,-3.07446,-0.199341,0,0,0,0,0,0,0,-1,1140,1667,-3.07449,0.199383
-77,-643,-3.63794,2.81165,0,0,0,0,0,0,0,-1,1147,1667,-3.63791,-2.8117
-70,-643,-3.36938,4.45203,0,0,0,0,0,0,0,-1,1154,1667,-3.36941,-4.452
-63,-643,-3.67822,6.26855,0,0,0,0,0,0,0,-1,1161,1667,-3.67823,-6.26856
-56,-643,-3.95142,8.1073,0,0,0,0,0,0,0,-1,1168,1667,-3.95139,-8.10732
-49,-643,-4.23535,9.90552,0,0,0,0,0,0,0,-1,1175,1667,-4.23537,-9.90557
-42,-643,-4.25195,10.7059,0,0,0,0,0,0,0,-1,1182,1667,-4.25192,-10.706
-35,-643,-4.10986,11.6588,0,0,0,0,0,0,0,-1,1189,1667,-4.10982,-11.6589
-28,-643,-1.38513,5.604,0,0,0,0,0,0,0,-1,1196,1667,-1.3851,-5.60403
-21,-643,1.36926,74.2463,0,0,0,0,0,0,0,-1,1203,1667,1.36928,-74.2463
-14,-643,2.56445,73.3704,0,0,0,0,0,0,0,-1,1210,1667,2.56439,-73.3703
-7,-643,3.55115,72.5746,0.0959996,0.124022,-0.0943158,0.205362,0.01466,-0.859137,0.132292,0.0496042,1217,1667,3.55121,-72.5746
0,-643,4.33887,72.0137,0.0827815,0.109343,-0.0856007,0.182687,0.00943723,-0.862357,0.118771,0.0473287,1224,1667,4.33889,-72.0137
7,-643,5.30652,72.0195,0.0776736,0.101086,-0.0836287,0.173824,0.00493558,-0.854934,0.114273,0.043829,1231,1667,5.30648,-72.0195
14,-643,5.18848,72.2097,0.0741844,0.0935576,-0.0830398,0.167474,0.000268191,-0.843461,0.11156,0.0481802,1238,1667,5.18851,-72.2097
21,-643,5.72131,71.3197,0.0716514,0.0844767,-0.0823601,0.160673,-0.00454529,-0.82425,0.108662,0.0475351,1245,1667,5.72126,-71.3197
28,-643,6.15759,70.7617,0.0696671,0.0747638,-0.0806156,0.152871,-0.00844039,-0.801198,0.104841,0.0430804,1252,1667,6.15756,-70.7617
35,-643,6.66418,69.2249,0,0,0,0,0,0,0,-1,1259,1667,6.66422,-69.2248
42,-643,7.08899,69.9541,0,0,0,0,0,0,0,-1,1266,1667,7.08899,-69.9541
49,-643,8.03674,68.2081,0,0,0,0,0,0,0,-1,1273,1667,8.03669,-68.2081
56,-643,7.78882,69.0555,0,0,0,0,0,0,0,-1,1280,1667,7.78886,-69.0556
63,-643,8.15063,67.1082,0.0503238,0.0136961,-0.0531486,0.0882253,-0.0242054,-0.61948,0.0683297,0.0427207,1287,1667,8.15069,-67.1081
70,-643,8.13318,66.599,0.0408536,0.000513213,-0.0472282,0.0720384,-0.0306716,-0.583583,0.0608817,0.0432638,1294,1667,8.13314,-66.599
77,-643,8.27527,66.0983,0.0304719,-0.0134572,-0.0417011,0.0556393,-0.0386246,-0.543003,0.054718,0.0442477,1301,1667,8.27529,-66.0983
84,-643,8.4408,65.6093,0.0183952,-0.027398,-0.0370417,0.0390455,-0.0480484,-0.508576,0.0503732,0.0452061,1308,1667,8.44077,-65.6093
91,-643,8.60925,65.1533,0.00441465,-0.0400112,-0.0329314,0.0219244,-0.057521,-0.488688,0.0473777,0.0448921,1315,1667,8.6093,-65.1533
98,-643,8.95801,64.7119,-0.010416,-0.0523218,-0.030046,0.00526149,-0.0679993,-0.480922,0.0471846,0.0459465,1322,1667,8.95798,-64.7119
105,-643,9.16687,64.3635,0,0,0,0,0,0,0,-1,1329,1667,9.16682,-64.3636
112,-643,9.33081,64.0688,0,0,0,0,0,0,0,-1,1336,1667,9.33078,-64.0688
119,-643,4.66113,70.7203,-0.0612489,-0.0847352,-0.0292305,-0.0414909,-0.104493,-0.594394,0.0607538,0.0465651,1343,1667,4.66111,-70.7203
126,-643,2.60522,70.6903,-0.0781473,-0.0930376,-0.0315421,-0.0531836,-0.118001,-0.669501,0.0682384,0.042472,1350,1667,2.60518,-70.6903
133,-643,2.20056,70.9425,-0.0938535,-0.101308,-0.0338932,-0.0634834,-0.131679,-0.73063,0.0760408,0.044968,1357,1667,2.20056,-70.9425
140,-643,1.33862,71.5011,-0.10811,-0.109402,-0.035488,-0.0732617,-0.144249,-0.776296,0.0832859,0.0412748,1364,1667,1.3386,-71.5011
147,-643,0.563354,71.9208,-0.114911,-0.116628,-0.0338324,-0.0819261,-0.149613,-0.772714,0.0865092,0.0433226,1371,1667,0.563344,-71.9208
154,-643,-0.207397,72.3346,0,0,0,0,0,0,0,-1,1378,1667,-0.207457,-72.3345
161,-643,5.57935,26.2754,0,0,0,0,0,0,0,-1,1385,1667,5.57931,-26.2754
168,-643,10.5563,10.9818,0,0,0,0,0,0,0,-1,1392,1667,10.5562,-10.9819
175,-643,5.88525,-1.1698,0,0,0,0,0,0,0,-1,1399,1667,5.88526,1.16977
182,-643,5.80945,-0.418701,0,0,0,0,0,0,0,-1,1406,1667,5.80949,0.418712
189,-643,5.42297,12.9208,0,0,0,0,0,0,0,-1,1413,1667,5.42298,-12.9208
196,-643,5.51953,11.2415,0,0,0,0,0,0,0,-1,1420,1667,5.51948,-11.2414
203,-643,5.60828,9.82153,0,0,0,0,0,0,0,-1,1427,1667,5.60833,-9.82148
210,-643,4.73218,7.58728,0,0,0,0,0,0,0,-1,1434,1667,4.73222,-7.58728
217,-643,3.8031,5.28955,0,0,0,0,0,0,0,-1,1441,1667,3.80305,-5.28955
224,-643,2.96436,2.97095,0,0,0,0,0,0,0,-1,1448,1667,2.96432,-2.97095
231,-643,2.13403,1.08472,0,0,0,0,0,0,0,-1,1455,1667,2.13403,-1.08467
238,-643,1.18152,-0.261963,0,0,0,0,0,0,0,-1,1462,1667,1.18152,0.26192
245,-643,-0.157471,-1.79016,0,0,0,0,0,0,0,-1,1469,1667,-0.157517,1.7901
252,-643,8.08789,0.0202637,0,0,0,0,0,0,0,-1,1476,1667,8.08791,-0.0203056
259,-643,9.02979,-0.46936,0,0,0,0,0,0,0,-1,1483,1667,9.02974,0.46933
266,-643,4.55066,5.17554,0,0,0,0,0,0,0,-1,1490,1667,4.55063,-5.17556
273,-643,10.74,31.432,0,0,0,0,0,0,0,-1,1497,1667,10.7399,-31.4319
280,-643,12.1675,42.5023,0,0,0,0,0,0,0,-1,1504,1667,12.1675,-42.5023
287,-643,12.9725,46.299,0,0,0,0,0,0,0,-1,1511,1667,12.9725,-46.299
294,-643,14.5784,61.7252,0,0,0,0,0,0,0,-1,1518,1667,14.5783,-61.7252
301,-643,14.5135,61.4034,0.0175458,-0.000729727,-0.000136154,0.0175469,-0.000730741,-0.00744949,0.0119489,0.0410678,1525,1667,14.5136,-61.4034
308,-643,14.9647,61.1599,0.0153997,0.00127008,0.000590949,0.0154244,0.00124541,0.0417262,0.00989395,0.0357118,1532,1667,14.9647,-61.1599
315,-643,14.9186,60.5564,0.0131754,0.00278645,0.00083556,0.0132421,0.00271968,0.0797449,0.00807566,0.0322463,1539,1667,14.9185,-60.5563
322,-643,14.9785,59.8386,0.0118523,0.00442798,0.000347344,0.0118685,0.00441177,0.0466492,0.00692703,0.0209246,1546,1667,14.9785,-59.8387
329,-643,14.97,59.1752,0.0107627,0.00569832,-0.000211531,0.0107715,0.0056895,-0.0416714,0.00622224,0.0140963,1553,1667,14.9699,-59.1752
336,-643,14.9332,58.578,0.00969101,0.00622959,-0.000798165,0.00986619,0.00605441,-0.216056,0.00574509,0.0119276,1560,1667,14.9332,-58.5781
343,-643,14.949,57.9587,0.00869283,0.00643468,-0.00125633,0.00925289,0.00587462,-0.419347,0.00540658,0.0132692,1567,1667,14.949,-57.9588
350,-643,14.9889,57.2699,0.00776889,0.00648413,-0.00169232,0.00893665,0.00531637,-0.604006,0.00519046,0.0123706,1574,1667,14.9889,-57.2699
357,-643,14.9843,56.5912,0.00675445,0.00632924,-0.00201895,0.00857196,0.00451173,-0.732939,0.00495131,0.0108298,1581,1667,14.9843,-56.5912
364,-643,14.9768,55.9237,0.00604203,0.00550982,-0.00232814,0.00811922,0.00343263,-0.728495,0.00470624,0.00983644,1588,1667,14.9768,-55.9237
371,-643,14.9713,55.2805,0.00543958,0.00457643,-0.00242921,0.00747525,0.00254075,-0.697486,0.00438898,0.00861456,1595,1667,14.9713,-55.2805
378,-643,14.9526,54.6007,0.00483724,0.00365928,-0.00245584,0.00677374,0.00172278,-0.667707,0.00406513,0.0104538,1602,1667,14.9526,-54.6008
385,-643,14.9423,53.8856,0.00434662,0.00279523,-0.0024957,0.0061844,0.000957457,-0.634725,0.00384374,0.017034,1609,1667,14.9422,-53.8856
392,-643,14.8997,53.1801,0.003799,0.00194815,-0.00247182,0.00551295,0.000234198,-0.606281,0.00359978,0.0177926,1616,1667,14.8997,-53.1801
399,-643,14.8612,52.5142,0.0032758,0.00127485,-0.00246137,0.00493226,-0.000381608,-0.592361,0.00342247,0.0153341,1623,1667,14.8613,-52.5141
406,-643,14.8311,51.7722,0.00289276,0.000584197,-0.00243674,0.00443478,-0.000957828,-0.564205,0.00332215,0.0141432,1630,1667,14.831,-51.7723
413,-643,14.7861,51.0327,0.00275775,0.000134777,-0.00261023,0.00436744,-0.00147492,-0.552599,0.00350818,0.0203928,1637,1667,14.7862,-51.0327
420,-643,14.7266,50.329,0.00275517,-7.39634e-05,-0.00286236,0.00453343,-0.00185222,-0.555901,0.00379353,0.0193504,1644,1667,14.7266,-50.3289
427,-643,14.7074,49.6053,0.00303237,-0.000179687,-0.00334177,0.005134,-0.00228132,-0.561398,0.00438556,0.0160767,1651,1667,14.7074,-49.6053
434,-643,14.6779,48.8699,0.00348237,-0.000130895,-0.00405414,0.00611421,-0.00276273,-0.575793,0.00524545,0.0178133,1658,1667,14.6779,-48.8699
441,-643,14.6399,48.1128,0.00407414,-0.000376233,-0.00504416,0.00736212,-0.00366421,-0.577667,0.00648429,0.0172601,1665,1667,14.6399,-48.1128
448,-643,14.6643,47.3535,0.00487813,-0.000720676,-0.00612199,0.0088104,-0.00465295,-0.570957,0.00789564,0.0243508,1672,1667,14.6643,-47.3536
455,-643,14.5376,46.7483,0.00577414,-0.00109404,-0.00721225,0.0103281,-0.00564804,-0.563206,0.00935485,0.03108,1679,1667,14.5376,-46.7483
462,-643,14.6633,45.9646,0.00651081,-0.00140409,-0.00824486,0.0116988,-0.00659208,-0.561642,0.0106966,0.0406333,1686,1667,14.6633,-45.9646
469,-643,14.8467,45.1322,0,0,0,0,0,0,0,-1,1693,1667,14.8467,-45.1322
476,-643,10.5598,24.5066,0,0,0,0,0,0,0,-1,1700,1667,10.5598,-24.5065
483,-643,10.4502,24.3062,0,0,0,0,0,0,0,-1,1707,1667,10.4502,-24.3062
490,-643,10.6885,24.1522,0,0,0,0,0,0,0,-1,1714,1667,10.6884,-24.1522
497,-643,10.9073,23.9465,0,0,0,0,0,0,0,-1,1721,1667,10.9074,-23.9465
504,-643,8.05591,19.0656,0,0,0,0,0,0,0,-1,1728,1667,8.0559,-19.0655
511,-643,7.74719,18.1564,0,0,0,0,0,0,0,-1,1735,1667,7.74724,-18.1563
518,-643,7.40564,0.922607,0,0,0,0,0,0,0,-1,1742,1667,7.4057,-0.922598
525,-643,0,0,0,0,0,0,0,0,0,-1,1749,1667,0,0
532,-643,0,0,0,0,0,0,0,0,0,-1,1756,1667,0,0
539,-643,0,0,0,0,0,0,0,0,0,-1,1763,1667,0,0
546,-643,0,0,0,0,0,0,0,0,0,-1,1770,1667,0,0
553,-643,0,0,0,0,0,0,0,0,0,-1,1777,1667,0,0
560,-643,0,0,0,0,0,0,0,0,0,-1,1784,1667,0,0
567,-643,0,0,0,0,0,0,0,0,0,-1,1791,1667,0,0
574,-643,0,0,0,0,0,0,0,0,0,-1,1798,1667,0,0
581,-643,0,0,0,0,0,0,0,0,0,-1,1805,1667,0,0
588,-643,0,0,0,0,0,0,0,0,0,-1,1812,1667,0,0
595,-643,0,0,0,0,0,0,0,0,0,-1,1819,1667,0,0
602,-643,0,0,0,0,0,0,0,0,0,-1,1826,1667,0,0
609,-643,0,0,0,0,0,0,0,0,0,-1,1833,1667,0,0
616,-643,0,0,0,0,0,0,0,0,0,-1,1840,1667,0,0
623,-643,0,0,0,0,0,0,0,0,0,-1,1847,1667,0,0
630,-643,0,0,0,0,0,0,0,0,0,-1,1854,1667,0,0
637,-643,0,0,0,0,0,0,0,0,0,-1,1861,1667,0,0
644,-643,0,0,0,0,0,0,0,0,0,-1,1868,1667,0,0
651,-643,0,0,0,0,0,0,0,0,0,-1,1875,1667,0,0
658,-643,0,0,0,0,0,0,0,0,0,-1,1882,1667,0,0
665,-643,0,0,0,0,0,0,0,0,0,-1,1889,1667,0,0
672,-643,0,0,0,0,0,0,0,0,0,-1,1896,1667,0,0
679,-643,0,0,0,0,0,0,0,0,0,-1,1903,1667,0,0
686,-643,0,0,0,0,0,0,0,0,0,-1,1910,1667,0,0
693,-643,0,0,0,0,0,0,0,0,0,-1,1917,1667,0,0
700,-643,0,0,0,0,0,0,0,0,0,-1,1924,1667,0,0
707,-643,0,0,0,0,0,0,0,0,0,-1,1931,1667,0,0
714,-643,0,0,0,0,0,0,0,0,0,-1,1938,1667,0,0
721,-643,0,0,0,0,0,0,0,0,0,-1,1945,1667,0,0
728,-643,0,0,0,0,0,0,0,0,0,-1,1952,1667,0,0
735,-643,0,0,0,0,0,0,0,0,0,-1,1959,1667,0,0
742,-643,0,0,0,0,0,0,0,0,0,-1,1966,1667,0,0
749,-643,0,0,0,0,0,0,0,0,0,-1,1973,1667,0,0
756,-643,0,0,0,0,0,0,0,0,0,-1,1980,1667,0,0
763,-643,0,0,0,0,0,0,0,0,0,-1,1987,1667,0,0
770,-643,0,0,0,0,0,0,0,0,0,-1,1994,1667,0,0
777,-643,0,0,0,0,0,0,0,0,0,-1,2001,1667,0,0
784,-643,0,0,0,0,0,0,0,0,0,-1,2008,1667,0,0
791,-643,0,0,0,0,0,0,0,0,0,-1,2015,1667,0,0
798,-643,0,0,0,0,0,0,0,0,0,-1,2022,1667,0,0
805,-643,0,0,0,0,0,0,0,0,0,-1,2029,1667,0,0
812,-643,0,0,0,0,0,0,0,0,0,-1,2036,1667,0,0
-700,-650,0,0,0,0,0,0,0,0,0,-1,524,1674,0,0
-693,-650,0,0,0,0,0,0,0,0,0,-1,531,1674,0,0
-686,-650,0,0,0,0,0,0,0,0,0,-1,538,1674,0,0
-679,-650,0,0,0,0,0,0,0,0,0,-1,545,1674,0,0
-672,-650,0,0,0,0,0,0,0,0,0,-1,552,1674,0,0
-665,-650,0,0,0,0,0,0,0,0,0,-1,559,1674,0,0
-658,-650,0,0,0,0,0,0,0,0,0,-1,566,1674,0,0
-651,-650,0,0,0,0,0,0,0,0,0,-1,573,1674,0,0
-644,-650,0,0,0,0,0,0,0,0,0,-1,580,1674,0,0
-637,-650,0,0,0,0,0,0,0,0,0,-1,587,1674,0,0
-630,-650,0,0,0,0,0,0,0,0,0,-1,594,1674,0,0
-623,-650,0,0,0,0,0,0,0,0,0,-1,601,1674,0,0
-616,-650,0,0,0,0,0,0,0,0,0,-1,608,1674,0,0
-609,-650,0,0,0,0,0,0,0,0,0,-1,615,1674,0,0
-602,-650,0,0,0,0,0,0,0,0,0,-1,622,1674,0,0
-595,-650,0,0,0,0,0,0,0,0,0,-1,629,1674,0,0
-588,-650,0,0,0,0,0,0,0,0,0,-1,636,1674,0,0
-581,-650,0,0,0,0,0,0,0,0,0,-1,643,1674,0,0
-574,-650,0,0,0,0,0,0,0,0,0,-1,650,1674,0,0
-567,-650,0,0,0,0,0,0,0,0,0,-1,657,1674,0,0
-560,-650,0,0,0,0,0,0,0,0,0,-1,664,1674,0,0
-553,-650,0,0,0,0,0,0,0,0,0,-1,671,1674,0,0
-546,-650,0,0,0,0,0,0,0,0,0,-1,678,1674,0,0
-539,-650,0,0,0,0,0,0,0,0,0,-1,685,1674,0,0
-532,-650,0,0,0,0,0,0,0,0,0,-1,692,1674,0,0
-525,-650,0,0,0,0,0,0,0,0,0,-1,699,1674,0,0
-518,-650,0,0,0,0,0,0,0,0,0,-1,706,1674,0,0
-511,-650,0,0,0,0,0,0,0,0,0,-1,713,1674,0,0
-504,-650,0,0,0,0,0,0,0,0,0,-1,720,1674,0,0
-497,-650,0,0,0,0,0,0,0,0,0,-1,727,1674,0,0
-490,-650,0,0,0,0,0,0,0,0,0,-1,734,1674,0,0
-483,-650,0,0,0,0,0,0,0,0,0,-1,741,1674,0,0
-476,-650,0,0,0,0,0,0,0,0,0,-1,748,1674,0,0
-469,-650,0,0,0,0,0,0,0,0,0,-1,755,1674,0,0
-462,-650,0,0,0,0,0,0,0,0,0,-1,762,1674,0,0
-455,-650,0,0,0,0,0,0,0,0,0,-1,769,1674,0,0
-448,-650,0,0,0,0,0,0,0,0,0,-1,776,1674,0,0
-441,-650,0,0,0,0,0,0,0,0,0,-1,783,1674,0,0
-434,-650,0,0,0,0,0,0,0,0,0,-1,790,1674,0,0
-427,-650,0,0,0,0,0,0,0,0,0,-1,797,1674,0,0
-420,-650,0,0,0,0,0,0,0,0,0,-1,804,1674,0,0
-413,-650,0,0,0,0,0,0,0,0,0,-1,811,1674,0,0
-406,-650,0,0,0,0,0,0,0,0,0,-1,818,1674,0,0
-399,-650,0,0,0,0,0,0,0,0,0,-1,825,1674,0,0
-392,-650,5.44415,6.85669,0,0,0,0,0,0,0,-1,832,1674,5.44414,-6.85674
-385,-650,1.74451,14.0183,0,0,0,0,0,0,0,-1,839,1674,1.74453,-14.0183
-378,-650,0.997986,4.11108,0,0,0,0,0,0,0,-1,846,1674,0.998006,-4.11113
-371,-650,-1.80096,3.78625,0,0,0,0,0,0,0,-1,853,1674,-1.80094,-3.78625
-364,-650,-2.95679,2.57507,0,0,0,0,0,0,0,-1,860,1674,-2.95681,-2.57506
-357,-650,5.76074,34.531,0,0,0,0,0,0,0,-1,867,1674,5.76077,-34.531
-350,-650,5.11011,35.4972,0,0,0,0,0,0,0,-1,874,1674,5.1101,-35.4971
-343,-650,5.20538,37.4165,0,0,0,0,0,0,0,-1,881,1674,5.20538,-37.4166
-336,-650,4.70221,44.1765,0,0,0,0,0,0,0,-1,888,1674,4.70219,-44.1765
-329,-650,3.71503,46.9569,0,0,0,0,0,0,0,-1,895,1674,3.71503,-46.9569
-322,-650,4.13379,47.9597,-0.00613761,-0.000161287,-0.00216813,0.000542421,-0.00684132,-1.25695,0.00475202,0.0463589,902,1674,4.13377,-47.9598
-315,-650,4.13666,48.3621,-0.00657929,0.000348752,-0.0021545,0.000964109,-0.00719464,-1.29259,0.00514798,0.0394242,909,1674,4.13665,-48.3621
-308,-650,4.09583,49.1855,-0.0066139,0.00110956,-0.00201254,0.00160251,-0.00710685,-1.33058,0.00535264,0.0233148,916,1674,4.09581,-49.1855
-301,-650,4.01587,49.9998,-0.00638007,0.00171868,-0.00180481,0.00210267,-0.00676407,-1.36116,0.00534983,0.0121164,923,1674,4.01586,-49.9997
-294,-650,3.94293,50.7697,-0.00578029,0.00215287,-0.00148491,0.0024217,-0.00604913,-1.39169,0.00503789,0.0096848,930,1674,3.94292,-50.7696
-287,-650,3.89801,51.4896,-0.00508541,0.00259424,-0.00109831,0.00274823,-0.0052394,-1.4315,0.00468582,0.0136064,937,1674,3.89802,-51.4897
-280,-650,3.87054,52.2076,-0.00433802,0.00284416,-0.00071334,0.00291432,-0.00440819,-1.47275,0.00425688,0.0154036,944,1674,3.87057,-52.2076
-273,-650,3.83087,52.9357,-0.00350945,0.00299975,-0.000387947,0.00302279,-0.00353249,-1.51148,0.0037885,0.01532,951,1674,3.83085,-52.9357
-266,-650,3.7547,53.6631,-0.00250866,0.00312197,6.00657e-05,0.00312261,-0.0025093,1.56013,0.003258,0.0130125,958,1674,3.75469,-53.663
-259,-650,3.72211,54.3669,-0.00140665,0.00292458,0.00044989,0.00297081,-0.00145289,1.46838,0.00260366,0.0161176,965,1674,3.72213,-54.3669
-252,-650,3.70087,55.0748,-0.000277846,0.00277498,0.000634923,0.00290177,-0.000404631,1.3737,0.00208253,0.0146711,972,1674,3.70087,-55.0748
-245,-650,3.6665,55.7664,0.000705244,0.00248787,0.000774091,0.00277709,0.000416025,1.21323,0.00172948,0.0132629,979,1674,3.66648,-55.7664
-238,-650,3.62866,56.4832,0.00159435,0.00187243,0.000912742,0.00265666,0.00081012,0.860983,0.00157225,0.0139603,986,1674,3.62866,-56.4832
-231,-650,3.57758,57.1774,0.00243776,0.00141831,0.00092849,0.00298724,0.000868827,0.534366,0.00177427,0.0182936,993,1674,3.57756,-57.1774
-224,-650,3.57776,57.8438,0.00316302,0.000930409,0.000845839,0.00344728,0.000646149,0.32421,0.00211595,0.0151105,1000,1674,3.57774,-57.8437
-217,-650,3.5827,58.4619,0.00377263,0.000356665,0.000680042,0.00390303,0.000226262,0.189458,0.00252997,0.0105128,1007,1674,3.58269,-58.4619
-210,-650,3.59186,59.0905,0.00435543,-0.00026743,0.00038809,0.00438778,-0.000299784,0.0831743,0.00303006,0.0101114,1014,1674,3.59188,-59.0905
-203,-650,3.6134,59.7462,0.00486732,-0.000815237,-1.15497e-05,0.00486735,-0.00081526,-0.00203247,0.00354801,0.014544,1021,1674,3.61346,-59.7462
-196,-650,3.60156,60.3911,0.00515917,-0.00136164,-0.000575088,0.0052095,-0.00141197,-0.087295,0.00402703,0.0139854,1028,1674,3.6015,-60.3912
-189,-650,3.58838,61.0012,0.00514358,-0.00167233,-0.00117254,0.00533965,-0.0018684,-0.165686,0.00431943,0.0130236,1035,1674,3.58843,-61.0012
-182,-650,3.67407,61.6743,0.00482416,-0.00120398,-0.00185035,0.00534682,-0.00172664,-0.27529,0.00425841,0.0170829,1042,1674,3.67403,-61.6743
-175,-650,3.65491,62.2238,0.00465511,-0.000523277,-0.00230368,0.00553159,-0.00139976,-0.363556,0.00423218,0.0304424,1049,1674,3.65485,-62.2238
-168,-650,3.61304,62.7717,0.00428211,0.000438097,-0.0029202,0.00585605,-0.00113585,-0.494347,0.00433257,0.0347418,1056,1674,3.61298,-62.7717
-161,-650,3.53088,63.2711,0.00395073,0.00207364,-0.00358206,0.00671516,-0.000690788,-0.657272,0.0047239,0.0397386,1063,1674,3.5309,-63.2711
-154,-650,3.57983,63.8474,0.00360252,0.0040033,-0.00397823,0.00778618,-0.000180361,-0.810563,0.00525194,0.0378756,1070,1674,3.57979,-63.8474
-147,-650,3.57959,64.3893,0.00312756,0.00673473,-0.00433503,0.0096264,0.000235893,-0.98253,0.00634043,0.0444598,1077,1674,3.57958,-64.3893
-140,-650,3.55762,65.5305,0,0,0,0,0,0,0,-1,1084,1674,3.55764,-65.5305
-133,-650,2.93689,66.2787,0,0,0,0,0,0,0,-1,1091,1674,2.93684,-66.2786
-126,-650,3.67334,62.924,0,0,0,0,0,0,0,-1,1098,1674,3.67329,-62.924
-119,-650,5.16663,20.6232,0,0,0,0,0,0,0,-1,1105,1674,5.16665,-20.6232
-112,-650,3.86292,14.4513,0,0,0,0,0,0,0,-1,1112,1674,3.8629,-14.4513
-105,-650,7.92102,38.1313,0,0,0,0,0,0,0,-1,1119,1674,7.92104,-38.1314
-98,-650,3.3761,6.78003,0,0,0,0,0,0,0,-1,1126,1674,3.37611,-6.78009
-91,-650,3.66809,7.04443,0,0,0,0,0,0,0,-1,1133,1674,3.66806,-7.04439
-84,-650,-3.82666,-1.59521,0,0,0,0,0,0,0,-1,1140,1674,-3.82661,1.59517
-77,-650,-4.70557,1.90198,0,0,0,0,0,0,0,-1,1147,1674,-4.7056,-1.90194
-70,-650,-4.88171,3.81653,0,0,0,0,0,0,0,-1,1154,1674,-4.88176,-3.81651
-63,-650,-5.14612,5.56543,0,0,0,0,0,0,0,-1,1161,1674,-5.14612,-5.56547
-56,-650,-5.38367,7.41101,0,0,0,0,0,0,0,-1,1168,1674,-5.38361,-7.41102
-49,-650,-5.11316,8.23706,0,0,0,0,0,0,0,-1,1175,1674,-5.11317,-8.23708
-42,-650,-4.99487,9.6792,0,0,0,0,0,0,0,-1,1182,1674,-4.99484,-9.67921
-35,-650,-4.77771,11.3369,0,0,0,0,0,0,0,-1,1189,1674,-4.77769,-11.3369
-28,-650,-4.1936,13.1501,0,0,0,0,0,0,0,-1,1196,1674,-4.19358,-13.1501
-21,-650,7.52466,48.5822,0,0,0,0,0,0,0,-1,1203,1674,7.52469,-48.5821
-14,-650,3.87695,72.869,0,0,0,0,0,0,0,-1,1210,1674,3.8769,-72.869
-7,-650,4.90417,72.0282,0.0857719,0.0981123,-0.0862171,0.17838,0.0055045,-0.82112,0.117128,0.0488102,1217,1674,4.90423,-72.0281
0,-650,5.49426,70.9054,0.0767743,0.0861935,-0.0805447,0.162166,0.000801623,-0.814601,0.107845,0.0449435,1224,1674,5.49432,-70.9054
7,-650,6.4563,70.1647,0.0731937,0.0790079,-0.0794698,0.155624,-0.00342221,-0.803681,0.104909,0.0440507,1231,1674,6.4563,-70.1647
14,-650,5.61987,71.9358,0.0706706,0.072593,-0.0792836,0.150921,-0.00765758,-0.79146,0.103261,0.0464998,1238,1674,5.61987,-71.9358
21,-650,6.19397,71.0204,0.0688147,0.0655958,-0.078826,0.146048,-0.0116372,-0.775191,0.101467,0.0470774,1245,1674,6.19402,-71.0204
28,-650,6.75732,70.1237,0.0674542,0.0582341,-0.0769833,0.139965,-0.0142771,-0.755492,0.0984151,0.0439086,1252,1674,6.75733,-70.1237
35,-650,7.22839,69.2455,0.0655427,0.0500861,-0.0740829,0.132299,-0.0166705,-0.733426,0.0942491,0.0453194,1259,1674,7.22834,-69.2455
42,-650,7.74414,68.5382,0.0622577,0.0415017,-0.0693337,0.121986,-0.0182263,-0.711109,0.0880305,0.0449894,1266,1674,7.74416,-68.5383
49,-650,8.22803,68.1906,0.0586217,0.0325027,-0.0627578,0.109664,-0.01854,-0.682815,0.0800088,0.0432921,1273,1674,8.22809,-68.1905
56,-650,8.27905,67.7433,0.0533699,0.0229973,-0.0568227,0.0970006,-0.0206335,-0.654821,0.0725299,0.0461117,1280,1674,8.27906,-67.7433
63,-650,8.28064,67.1901,0.046366,0.0116946,-0.0510621,0.0829549,-0.0248944,-0.621752,0.0652052,0.0454919,1287,1674,8.28061,-67.1901
70,-650,8.41602,66.6222,0.0364861,0.00212698,-0.0453634,0.067814,-0.0292009,-0.604388,0.0574714,0.0473056,1294,1674,8.41607,-66.6222
77,-650,8.74829,66.1365,0.0256082,-0.00841798,-0.0396279,0.0517207,-0.0345304,-0.582635,0.0501257,0.0444627,1301,1674,8.74832,-66.1364
84,-650,8.82507,65.5049,0.0134334,-0.0201443,-0.0344534,0.0349708,-0.0416817,-0.558684,0.0443118,0.0482499,1308,1674,8.82503,-65.5049
91,-650,7.98743,65.5221,-0.000321395,-0.0308805,-0.0300241,0.0180875,-0.0492894,-0.550023,0.0402665,0.0479588,1315,1674,7.98744,-65.522
98,-650,8.34021,65.0624,-0.0153022,-0.0418156,-0.0268081,0.0013479,-0.0584657,-0.555778,0.0394341,0.0480246,1322,1674,8.34015,-65.0624
105,-650,8.61609,64.5854,0,0,0,0,0,0,0,-1,1329,1674,8.61614,-64.5855
112,-650,5.99316,70.2799,-0.0474408,-0.0642858,-0.0240116,-0.0304173,-0.0813093,-0.616719,0.0474374,0.0454224,1336,1674,5.99315,-70.2799
119,-650,5.39783,71.0452,-0.062224,-0.0726962,-0.0259702,-0.0409673,-0.0939529,-0.685921,0.0543915,0.0425612,1343,1674,5.39777,-71.0451
126,-650,4.2467,72.0493,-0.0759491,-0.0808187,-0.0281345,-0.0501442,-0.106624,-0.742235,0.0615954,0.0463852,1350,1674,4.24675,-72.0493
133,-650,3.07458,72.1344,-0.0862835,-0.0880718,-0.0302055,-0.0569589,-0.117396,-0.770601,0.0677887,0.0446121,1357,1674,3.0746,-72.1343
140,-650,2.41455,72.4867,-0.0921825,-0.0940089,-0.0312477,-0.0618347,-0.124357,-0.77079,0.0717978,0.0442692,1364,1674,2.41461,-72.4867
147,-650,1.77771,72.8378,-0.0913816,-0.09773,-0.0301751,-0.0642142,-0.124897,-0.732994,0.0721192,0.0472607,1371,1674,1.7777,-72.8377
154,-650,1.15735,73.1716,0,0,0,0,0,0,0,-1,1378,1674,1.15731,-73.1716
161,-650,4.09106,30.3021,0,0,0,0,0,0,0,-1,1385,1674,4.09104,-30.3021
168,-650,11.2113,7.87231,0,0,0,0,0,0,0,-1,1392,1674,11.2113,-7.87236
175,-650,5.62537,-0.230713,0,0,0,0,0,0,0,-1,1399,1674,5.62538,0.230745
182,-650,5.56006,0.421631,0,0,0,0,0,0,0,-1,1406,1674,5.56,-0.421652
189,-650,4.81543,11.0654,0,0,0,0,0,0,0,-1,1413,1674,4.81542,-11.0654
196,-650,5.39575,11.9077,0,0,0,0,0,0,0,-1,1420,1674,5.39575,-11.9078
203,-650,3.93628,11.8215,0,0,0,0,0,0,0,-1,1427,1674,3.93624,-11.8216
210,-650,5.40955,8.08594,0,0,0,0,0,0,0,-1,1434,1674,5.40958,-8.086
217,-650,5.12451,4.69739,0,0,0,0,0,0,0,-1,1441,1674,5.12451,-4.69738
224,-650,4.79041,1.45813,0,0,0,0,0,0,0,-1,1448,1674,4.79046,-1.45816
231,-650,4.04102,-0.642212,0,0,0,0,0,0,0,-1,1455,1674,4.04101,0.642209
238,-650,3.23022,-1.43396,0,0,0,0,0,0,0,-1,1462,1674,3.23023,1.43394
245,-650,1.65894,-2.55042,0,0,0,0,0,0,0,-1,1469,1674,1.65889,2.55036
252,-650,8.75342,0.355103,0,0,0,0,0,0,0,-1,1476,1674,8.75337,-0.355147
259,-650,5.61255,3.17566,0,0,0,0,0,0,0,-1,1483,1674,5.61257,-3.17572
266,-650,4.00403,6.10229,0,0,0,0,0,0,0,-1,1490,1674,4.00401,-6.10225
273,-650,11.9524,42.7109,0,0,0,0,0,0,0,-1,1497,1674,11.9524,-42.7109
280,-650,12.3011,46.7283,0,0,0,0,0,0,0,-1,1504,1674,12.3011,-46.7283
287,-650,14.0593,62.3341,0,0,0,0,0,0,0,-1,1511,1674,14.0593,-62.334
294,-650,14.1335,62.1016,0.0153222,-0.0030533,-9.61021e-05,0.0153227,-0.0030538,-0.00522971,0.0113706,0.0497316,1518,1674,14.1335,-62.1016
301,-650,14.2925,61.5942,0.0136849,-0.00103201,-0.000162481,0.0136866,-0.0010338,-0.0110387,0.00948782,0.0357523,1525,1674,14.2925,-61.5943
308,-650,14.3445,61.0715,0.0118801,0.000474888,-0.000218178,0.0118843,0.000470716,-0.0191204,0.00777069,0.0214754,1532,1674,14.3445,-61.0715
315,-650,14.3602,60.4879,0.010007,0.00179913,-0.000381686,0.0100248,0.00178142,-0.0463688,0.00617561,0.0147856,1539,1674,14.3603,-60.4879
322,-650,14.3313,59.8812,0.00871231,0.00322925,-0.000937247,0.00886809,0.00307347,-0.164707,0.00519972,0.0128691,1546,1674,14.3313,-59.8812
329,-650,14.3395,59.2196,0.00769111,0.0043228,-0.00145381,0.0082318,0.00378211,-0.356061,0.00475784,0.0165983,1553,1674,14.3395,-59.2195
336,-650,14.3325,58.6086,0.00669105,0.00506317,-0.00184278,0.00789164,0.00386258,-0.577437,0.00455658,0.0143143,1560,1674,14.3325,-58.6087
343,-650,14.3361,57.9624,0.00576737,0.00543412,-0.00218599,0.00779308,0.00340841,-0.74736,0.00451109,0.0136763,1567,1674,14.336,-57.9624
350,-650,14.332,57.3175,0.0049643,0.00558068,-0.00250333,0.00779472,0.00275025,-0.846646,0.0045648,0.0155732,1574,1674,14.3321,-57.3175
357,-650,14.3069,56.6393,0.00418009,0.00544137,-0.00269784,0.0075813,0.00204016,-0.900215,0.00452997,0.0126552,1581,1674,14.3068,-56.6393
364,-650,14.3066,55.96,0.00366526,0.00469405,-0.00282045,0.00704663,0.00131268,-0.875597,0.00432708,0.0091995,1588,1674,14.3067,-55.96
371,-650,14.2756,55.2905,0.00329994,0.00381776,-0.00277037,0.00634129,0.000776413,-0.831992,0.00399396,0.0119068,1595,1674,14.2756,-55.2905
378,-650,14.2344,54.6112,0.00300247,0.00291277,-0.00264988,0.00560788,0.000307365,-0.776936,0.00364046,0.0131031,1602,1674,14.2343,-54.6113
385,-650,14.2339,53.922,0.00285652,0.00204116,-0.00260038,0.00508098,-0.000183302,-0.707642,0.00345004,0.0143076,1609,1674,14.2339,-53.922
392,-650,14.1998,53.215,0.00269491,0.00116651,-0.00254671,0.00458961,-0.000728193,-0.639636,0.00332912,0.0179689,1616,1674,14.1999,-53.2149
399,-650,14.16,52.5396,0.00258423,0.000437378,-0.00255914,0.00428596,-0.00126435,-0.586819,0.00335903,0.0168556,1623,1674,14.1601,-52.5396
406,-650,14.1122,51.8141,0.00263921,-0.000218541,-0.00261144,0.00418712,-0.00176646,-0.535068,0.00353074,0.0157858,1630,1674,14.1121,-51.814
413,-650,14.0692,51.0774,0.00291017,-0.000676475,-0.0029281,0.00455047,-0.00231677,-0.510635,0.00403411,0.0160185,1637,1674,14.0692,-51.0774
420,-650,14.0168,50.3789,0.00325562,-0.000853638,-0.00339855,0.00517235,-0.00277036,-0.513515,0.0046551,0.0160171,1644,1674,14.0168,-50.3789
427,-650,14.0015,49.6794,0.00395174,-0.000794749,-0.00420882,0.00641031,-0.00325332,-0.528682,0.00567767,0.0157563,1651,1674,14.0014,-49.6794
434,-650,13.9524,48.9414,0.00484924,-0.000614095,-0.00520244,0.00799357,-0.00375843,-0.543646,0.00693032,0.0243302,1658,1674,13.9523,-48.9414
441,-650,13.9993,48.0935,0.00570417,-0.000677106,-0.00639305,0.00965854,-0.00463148,-0.553943,0.0084188,0.0455022,1665,1674,13.9993,-48.0935
448,-650,13.9626,47.1968,0,0,0,0,0,0,0,-1,1672,1674,13.9626,-47.1967
455,-650,13.8384,46.9717,0,0,0,0,0,0,0,-1,1679,1674,13.8383,-46.9717
462,-650,14.3033,46.0758,0,0,0,0,0,0,0,-1,1686,1674,14.3033,-46.0758
469,-650,11.3628,29.8889,0,0,0,0,0,0,0,-1,1693,1674,11.3628,-29.8889
476,-650,10.9189,27.1289,0,0,0,0,0,0,0,-1,1700,1674,10.919,-27.1289
483,-650,10.2426,24.5127,0,0,0,0,0,0,0,-1,1707,1674,10.2425,-24.5127
490,-650,10.4818,24.3475,0,0,0,0,0,0,0,-1,1714,1674,10.4818,-24.3475
497,-650,10.4985,20.1362,0,0,0,0,0,0,0,-1,1721,1674,10.4986,-20.1362
504,-650,9.69458,18.7721,0,0,0,0,0,0,0,-1,1728,1674,9.6946,-18.772
511,-650,9.37158,17.7506,0,0,0,0,0,0,0,-1,1735,1674,9.37159,-17.7506
518,-650,0,0,0,0,0,0,0,0,0,-1,1742,1674,0,0
525,-650,0,0,0,0,0,0,0,0,0,-1,1749,1674,0,0
532,-650,0,0,0,0,0,0,0,0,0,-1,1756,1674,0,0
539,-650,0,0,0,0,0,0,0,0,0,-1,1763,1674,0,0
546,-650,0,0,0,0,0,0,0,0,0,-1,1770,1674,0,0
553,-650,0,0,0,0,0,0,0,0,0,-1,1777,1674,0,0
560,-650,0,0,0,0,0,0,0,0,0,-1,1784,1674,0,0
567,-650,0,0,0,0,0,0,0,0,0,-1,1791,1674,0,0
574,-650,0,0,0,0,0,0,0,0,0,-1,1798,1674,0,0
581,-650,0,0,0,0,0,0,0,0,0,-1,1805,1674,0,0
588,-650,0,0,0,0,0,0,0,0,0,-1,1812,1674,0,0
595,-650,0,0,0,0,0,0,0,0,0,-1,1819,1674,0,0
602,-650,0,0,0,0,0,0,0,0,0,-1,1826,1674,0,0
609,-650,0,0,0,0,0,0,0,0,0,-1,1833,1674,0,0
616,-650,0,0,0,0,0,0,0,0,0,-1,1840,1674,0,0
623,-650,0,0,0,0,0,0,0,0,0,-1,1847,1674,0,0
630,-650,0,0,0,0,0,0,0,0,0,-1,1854,1674,0,0
637,-650,0,0,0,0,0,0,0,0,0,-1,1861,1674,0,0
644,-650,0,0,0,0,0,0,0,0,0,-1,1868,1674,0,0
651,-650,0,0,0,0,0,0,0,0,0,-1,1875,1674,0,0
658,-650,0,0,0,0,0,0,0,0,0,-1,1882,1674,0,0
665,-650,0,0,0,0,0,0,0,0,0,-1,1889,1674,0,0
672,-650,0,0,0,0,0,0,0,0,0,-1,1896,1674,0,0
679,-650,0,0,0,0,0,0,0,0,0,-1,1903,1674,0,0
686,-650,0,0,0,0,0,0,0,0,0,-1,1910,1674,0,0
693,-650,0,0,0,0,0,0,0,0,0,-1,1917,1674,0,0
700,-650,0,0,0,0,0,0,0,0,0,-1,1924,1674,0,0
707,-650,0,0,0,0,0,0,0,0,0,-1,1931,1674,0,0
714,-650,0,0,0,0,0,0,0,0,0,-1,1938,1674,0,0
721,-650,0,0,0,0,0,0,0,0,0,-1,1945,1674,0,0
728,-650,0,0,0,0,0,0,0,0,0,-1,1952,1674,0,0
735,-650,0,0,0,0,0,0,0,0,0,-1,1959,1674,0,0
742,-650,0,0,0,0,0,0,0,0,0,-1,1966,1674,0,0
749,-650,0,0,0,0,0,0,0,0,0,-1,1973,1674,0,0
756,-650,0,0,0,0,0,0,0,0,0,-1,1980,1674,0,0
763,-650,0,0,0,0,0,0,0,0,0,-1,1987,1674,0,0
770,-650,0,0,0,0,0,0,0,0,0,-1,1994,1674,0,0
777,-650,0,0,0,0,0,0,0,0,0,-1,2001,1674,0,0
784,-650,0,0,0,0,0,0,0,0,0,-1,2008,1674,0,0
791,-650,0,0,0,0,0,0,0,0,0,-1,2015,1674,0,0
798,-650,0,0,0,0,0,0,0,0,0,-1,2022,1674,0,0
805,-650,0,0,0,0,0,0,0,0,0,-1,2029,1674,0,0
812,-650,0,0,0,0,0,0,0,0,0,-1,2036,1674,0,0
-700,-657,0,0,0,0,0,0,0,0,0,-1,524,1681,0,0
-693,-657,0,0,0,0,0,0,0,0,0,-1,531,1681,0,0
-686,-657,0,0,0,0,0,0,0,0,0,-1,538,1681,0,0
-679,-657,0,0,0,0,0,0,0,0,0,-1,545,1681,0,0
-672,-657,0,0,0,0,0,0,0,0,0,-1,552,1681,0,0
-665,-657,0,0,0,0,0,0,0,0,0,-1,559,1681,0,0
-658,-657,0,0,0,0,0,0,0,0,0,-1,566,1681,0,0
-651,-657,0,0,0,0,0,0,0,0,0,-1,573,1681,0,0
-644,-657,0,0,0,0,0,0,0,0,0,-1,580,1681,0,0
-637,-657,0,0,0,0,0,0,0,0,0,-1,587,1681,0,0
-630,-657,0,0,0,0,0,0,0,0,0,-1,594,1681,0,0
-623,-657,0,0,0,0,0,0,0,0,0,-1,601,1681,0,0
-616,-657,0,0,0,0,0,0,0,0,0,-1,608,1681,0,0
-609,-657,0,0,0,0,0,0,0,0,0,-1,615,1681,0,0
-602,-657,0,0,0,0,0,0,0,0,0,-1,622,1681,0,0
-595,-657,0,0,0,0,0,0,0,0,0,-1,629,1681,0,0
-588,-657,0,0,0,0,0,0,0,0,0,-1,636,1681,0,0
-581,-657,0,0,0,0,0,0,0,0,0,-1,643,1681,0,0
-574,-657,0,0,0,0,0,0,0,0,0,-1,650,1681,0,0
-567,-657,0,0,0,0,0,0,0,0,0,-1,657,1681,0,0
-560,-657,0,0,0,0,0,0,0,0,0,-1,664,1681,0,0
-553,-657,0,0,0,0,0,0,0,0,0,-1,671,1681,0,0
-546,-657,0,0,0,0,0,0,0,0,0,-1,678,1681,0,0
-539,-657,0,0,0,0,0,0,0,0,0,-1,685,1681,0,0
-532,-657,0,0,0,0,0,0,0,0,0,-1,692,1681,0,0
-525,-657,0,0,0,0,0,0,0,0,0,-1,699,1681,0,0
-518,-657,0,0,0,0,0,0,0,0,0,-1,706,1681,0,0
-511,-657,0,0,0,0,0,0,0,0,0,-1,713,1681,0,0
-504,-657,0,0,0,0,0,0,0,0,0,-1,720,1681,0,0
-497,-657,0,0,0,0,0,0,0,0,0,-1,727,1681,0,0
-490,-657,0,0,0,0,0,0,0,0,0,-1,734,1681,0,0
-483,-657,0,0,0,0,0,0,0,0,0,-1,741,1681,0,0
-476,-657,0,0,0,0,0,0,0,0,0,-1,748,1681,0,0
-469,-657,0,0,0,0,0,0,0,0,0,-1,755,1681,0,0
-462,-657,0,0,0,0,0,0,0,0,0,-1,762,1681,0,0
-455,-657,0,0,0,0,0,0,0,0,0,-1,769,1681,0,0
-448,-657,0,0,0,0,0,0,0,0,0,-1,776,1681,0,0
-441,-657,0,0,0,0,0,0,0,0,0,-1,783,1681,0,0
-434,-657,0,0,0,0,0,0,0,0,0,-1,790,1681,0,0
-427,-657,0,0,0,0,0,0,0,0,0,-1,797,1681,0,0
-420,-657,0,0,0,0,0,0,0,0,0,-1,804,1681,0,0
-413,-657,0,0,0,0,0,0,0,0,0,-1,811,1681,0,0
-406,-657,0,0,0,0,0,0,0,0,0,-1,818,1681,0,0
-399,-657,0,0,0,0,0,0,0,0,0,-1,825,1681,0,0
-392,-657,0,0,0,0,0,0,0,0,0,-1,832,1681,0,0
-385,-657,1.09814,6.18896,0,0,0,0,0,0,0,-1,839,1681,1.09814,-6.18894
-378,-657,0.31488,4.46753,0,0,0,0,0,0,0,-1,846,1681,0.31487,-4.46755
-371,-657,-0.519043,2.69421,0,0,0,0,0,0,0,-1,853,1681,-0.519064,-2.69422
-364,-657,-3.42017,4.18323,0,0,0,0,0,0,0,-1,860,1681,-3.42019,-4.18319
-357,-657,5.03418,34.7598,0,0,0,0,0,0,0,-1,867,1681,5.03417,-34.7597
-350,-657,4.23431,35.8203,0,0,0,0,0,0,0,-1,874,1681,4.23429,-35.8203
-343,-657,3.60156,36.754,0,0,0,0,0,0,0,-1,881,1681,3.60154,-36.754
-336,-657,3.67853,40.0931,0,0,0,0,0,0,0,-1,888,1681,3.67851,-40.0932
-329,-657,4.729,45.9177,0,0,0,0,0,0,0,-1,895,1681,4.72901,-45.9178
-322,-657,5.48627,47.4387,0,0,0,0,0,0,0,-1,902,1681,5.48628,-47.4387
-315,-657,5.2569,48.3489,-0.00991094,0.000720123,-0.00347141,0.00175326,-0.0109441,-1.28153,0.00794521,0.0457183,909,1681,5.2569,-48.3489
-308,-657,5.05908,49.2323,-0.00981843,0.00196717,-0.00312483,0.00274442,-0.0105957,-1.32701,0.00813441,0.0389843,916,1681,5.05909,-49.2324
-301,-657,4.73657,50.0028,-0.00936499,0.00280404,-0.00272988,0.00338838,-0.00994933,-1.35993,0.00800506,0.0290719,923,1681,4.73659,-50.0028
-294,-657,4.62823,50.8005,-0.00851395,0.00328772,-0.00226563,0.00370772,-0.00893395,-1.3875,0.0075037,0.0168687,930,1681,4.62822,-50.8005
-287,-657,4.60083,51.5225,-0.00757673,0.0037544,-0.0017298,0.00401259,-0.00783492,-1.42263,0.00695781,0.0125175,937,1681,4.60083,-51.5225
-280,-657,4.56293,52.2191,-0.00667607,0.00396203,-0.00122473,0.00410121,-0.00681525,-1.45764,0.00636722,0.0141139,944,1681,4.56293,-52.2191
-273,-657,4.51996,52.9697,-0.0057237,0.00403034,-0.000808159,0.00409684,-0.0057902,-1.48869,0.00573613,0.0108295,951,1681,4.51994,-52.9698
-266,-657,4.43945,53.6877,-0.00460918,0.00408422,-0.000285492,0.00409358,-0.00461855,-1.538,0.00503299,0.0160027,958,1681,4.43948,-53.6878
-259,-657,4.42072,54.3969,-0.0034048,0.00374569,0.00019408,0.00375095,-0.00341006,1.54368,0.00413597,0.0196571,965,1681,4.42069,-54.3969
-252,-657,4.37671,55.0979,-0.00219459,0.00351162,0.000423878,0.00354294,-0.0022259,1.49705,0.00335945,0.0133116,972,1681,4.37669,-55.0979
-245,-657,4.34497,55.834,-0.00118368,0.00318237,0.000594697,0.00326192,-0.00126323,1.43781,0.00269621,0.0156655,979,1681,4.34495,-55.834
-238,-657,4.33374,56.5454,-0.000252441,0.00245643,0.000819092,0.00268484,-0.000480854,1.29884,0.00196984,0.0211745,986,1681,4.33375,-56.5454
-231,-657,4.27576,57.2186,0.000625193,0.00195057,0.00086879,0.00238056,0.0001952,1.11121,0.00152614,0.0219633,993,1681,4.27578,-57.2186
-224,-657,4.23767,57.8945,0.00138659,0.0014838,0.000819942,0.00225657,0.00061381,0.815003,0.00134722,0.0168794,1000,1681,4.23769,-57.8945
-217,-657,4.24359,58.5448,0.00203217,0.000883646,0.000674046,0.00234341,0.000572405,0.432582,0.00141073,0.0104603,1007,1681,4.2436,-58.5448
-210,-657,4.25677,59.1628,0.00264923,0.000295604,0.00041023,0.00271869,0.000226151,0.167711,0.00174197,0.011682,1014,1681,4.25677,-59.1628
-203,-657,4.24524,59.8031,0.00319921,-0.000285002,7.01349e-05,0.00320062,-0.000286414,0.0201185,0.00223534,0.0142257,1021,1681,4.24523,-59.803
-196,-657,4.22571,60.4351,0.00359733,-0.000814408,-0.000397557,0.00363287,-0.000849947,-0.0891564,0.00274938,0.0147632,1028,1681,4.22568,-60.4351
-189,-657,4.21838,61.0369,0.00374918,-0.00108078,-0.00088991,0.00390792,-0.00123953,-0.176528,0.00310213,0.0106749,1035,1681,4.21837,-61.0369
-182,-657,4.22498,61.6542,0.00368062,-0.000741972,-0.00146648,0.0041227,-0.00118405,-0.292791,0.00321663,0.00878512,1042,1681,4.22494,-61.6542
-175,-657,4.23926,62.2599,0.00380954,-0.000203161,-0.00182078,0.00451256,-0.000906182,-0.368474,0.00335152,0.0122763,1049,1681,4.23922,-62.2599
-168,-657,4.19019,62.8661,0.00373787,0.000517059,-0.00231327,0.00494608,-0.000691156,-0.481326,0.00355027,0.0158486,1056,1681,4.19024,-62.8661
-161,-657,4.21973,63.4596,0.00368694,0.00173241,-0.00279869,0.00567408,-0.000254735,-0.617423,0.00387043,0.0165925,1063,1681,4.21977,-63.4596
-154,-657,4.32166,63.9641,0.00369471,0.00327245,-0.00308748,0.00657828,0.000388888,-0.75126,0.00426181,0.016366,1070,1681,4.32165,-63.9641
-147,-657,4.3468,64.5164,0.00368544,0.00536373,-0.00333464,0.00796319,0.00108598,-0.908661,0.00498637,0.0247121,1077,1681,4.34676,-64.5163
-140,-657,4.26123,65.241,0.00370135,0.00775904,-0.00356391,0.00983113,0.00162926,-1.04416,0.00608416,0.0377652,1084,1681,4.26122,-65.241
-133,-657,3.90674,65.9497,0.00394255,0.0104513,-0.00351989,0.0119907,0.00240311,-1.15851,0.00732536,0.0441062,1091,1681,3.90676,-65.9497
-126,-657,4.45972,66.8187,0,0,0,0,0,0,0,-1,1098,1681,4.45973,-66.8187
-119,-657,5.64758,54.4952,0,0,0,0,0,0,0,-1,1105,1681,5.64753,-54.4952
-112,-657,6.24219,42.9092,0,0,0,0,0,0,0,-1,1112,1681,6.24217,-42.9092
-105,-657,7.37256,41.0361,0,0,0,0,0,0,0,-1,1119,1681,7.37254,-41.0362
-98,-657,8.14404,38.4435,0,0,0,0,0,0,0,-1,1126,1681,8.14405,-38.4435
-91,-657,3.6521,16.6017,0,0,0,0,0,0,0,-1,1133,1681,3.65215,-16.6017
-84,-657,4.08008,10.4579,0,0,0,0,0,0,0,-1,1140,1681,4.08006,-10.4579
-77,-657,-5.29846,0.396606,0,0,0,0,0,0,0,-1,1147,1681,-5.29842,-0.396573
-70,-657,-4.14893,2.14575,0,0,0,0,0,0,0,-1,1154,1681,-4.14893,-2.1458
-63,-657,-4.1239,3.177,0,0,0,0,0,0,0,-1,1161,1681,-4.12391,-3.17698
-56,-657,-6.40576,5.73987,0,0,0,0,0,0,0,-1,1168,1681,-6.40577,-5.7399
-49,-657,-5.98462,7.54053,0,0,0,0,0,0,0,-1,1175,1681,-5.98466,-7.5405
-42,-657,-5.71948,9.28955,0,0,0,0,0,0,0,-1,1182,1681,-5.71951,-9.2895
-35,-657,-5.44556,11.015,0,0,0,0,0,0,0,-1,1189,1681,-5.44555,-11.015
-28,-657,-1.3446,8.92847,0,0,0,0,0,0,0,-1,1196,1681,-1.34459,-8.92848
-21,-657,3.78809,73.5426,0,0,0,0,0,0,0,-1,1203,1681,3.7881,-73.5426
-14,-657,4.85352,72.4515,0.0821562,0.0835862,-0.0799094,0.162784,0.00295865,-0.789872,0.10755,0.0492466,1210,1681,4.85349,-72.4515
-7,-657,6.08704,71.3921,0.0750006,0.0753775,-0.0763365,0.151526,-0.00114767,-0.786633,0.101402,0.0497414,1217,1681,6.08704,-71.3921
0,-657,6.39734,70.7598,0,0,0,0,0,0,0,-1,1224,1681,6.3973,-70.7598
7,-657,6.64771,70.6112,0,0,0,0,0,0,0,-1,1231,1681,6.64775,-70.6111
14,-657,6.43994,70.1381,0,0,0,0,0,0,0,-1,1238,1681,6.43991,-70.138
21,-657,6.61987,70.8783,0,0,0,0,0,0,0,-1,1245,1681,6.61987,-70.8783
28,-657,7.11511,70.1067,0.0629704,0.0447145,-0.070156,0.12459,-0.0169049,-0.720707,0.0892302,0.0431584,1252,1681,7.11513,-70.1067
35,-657,7.71191,69.3026,0.0614975,0.0388724,-0.0676421,0.118767,-0.0183966,-0.702544,0.0859685,0.0421765,1259,1681,7.71191,-69.3026
42,-657,8.21899,68.5817,0.0583808,0.0325362,-0.0633253,0.110089,-0.0191718,-0.684749,0.0805473,0.0416756,1266,1681,8.21902,-68.5817
49,-657,8.40918,68.1465,0.0547644,0.0256856,-0.0573907,0.0994288,-0.0189788,-0.661338,0.0734342,0.0420835,1273,1681,8.40918,-68.1464
56,-657,8.44312,67.6692,0.0494317,0.0183957,-0.0519312,0.0881138,-0.0202865,-0.640212,0.0665436,0.0447755,1280,1681,8.44314,-67.6692
63,-657,8.4231,67.1215,0,0,0,0,0,0,0,-1,1287,1681,8.42315,-67.1214
70,-657,8.63074,66.3184,0.0328982,0.00217053,-0.0413375,0.0616347,-0.0265659,-0.607475,0.0522471,0.0481851,1294,1681,8.63077,-66.3184
77,-657,9.13306,65.5446,0.022587,-0.00611911,-0.0358858,0.0468837,-0.0304157,-0.59516,0.0449652,0.0425572,1301,1681,9.13301,-65.5445
84,-657,9.63098,64.9705,0,0,0,0,0,0,0,-1,1308,1681,9.63103,-64.9704
91,-657,7.38208,65.9142,0,0,0,0,0,0,0,-1,1315,1681,7.38204,-65.9141
98,-657,7.76038,65.4231,0,0,0,0,0,0,0,-1,1322,1681,7.76036,-65.4231
105,-657,7.66528,70.6401,-0.0305147,-0.0455597,-0.0203344,-0.016356,-0.0597185,-0.608235,0.0356343,0.0469767,1329,1681,7.66526,-70.6401
112,-657,6.61646,70.7657,-0.0442089,-0.0546244,-0.0205764,-0.0281915,-0.0706419,-0.661454,0.0410611,0.0445438,1336,1681,6.61649,-70.7657
119,-657,6.06714,71.5148,-0.0564694,-0.0621959,-0.0222925,-0.036857,-0.0818083,-0.721528,0.047309,0.046569,1343,1681,6.06719,-71.5147
126,-657,5.31702,72.5011,-0.0670962,-0.0693266,-0.0241311,-0.0440545,-0.0923683,-0.762308,0.0533478,0.0475605,1350,1681,5.31705,-72.5011
133,-657,4.27612,73.0607,-0.0740599,-0.0751818,-0.0258652,-0.0487496,-0.100492,-0.774556,0.0580277,0.0451637,1357,1681,4.27612,-73.0607
140,-657,3.18091,73.1205,-0.0772682,-0.0795751,-0.0268025,-0.0515944,-0.105249,-0.763893,0.0607694,0.0469335,1364,1681,3.18085,-73.1205
147,-657,2.19336,73.1993,0,0,0,0,0,0,0,-1,1371,1681,2.19337,-73.1994
154,-657,8.36633,55.7788,0,0,0,0,0,0,0,-1,1378,1681,8.3663,-55.7788
161,-657,4.2926,24.9226,0,0,0,0,0,0,0,-1,1385,1681,4.29264,-24.9226
168,-657,5.21643,0.70105,0,0,0,0,0,0,0,-1,1392,1681,5.21648,-0.7011
175,-657,5.52771,0.649048,0,0,0,0,0,0,0,-1,1399,1681,5.52774,-0.649019
182,-657,5.73999,1.02612,0,0,0,0,0,0,0,-1,1406,1681,5.73995,-1.02611
189,-657,5.92126,1.44116,0,0,0,0,0,0,0,-1,1413,1681,5.92126,-1.44115
196,-657,4.92834,9.59021,0,0,0,0,0,0,0,-1,1420,1681,4.9284,-9.59018
203,-657,6.26343,5.16492,0,0,0,0,0,0,0,-1,1427,1681,6.26345,-5.16488
210,-657,3.9856,5.28088,0,0,0,0,0,0,0,-1,1434,1681,3.98555,-5.28084
217,-657,3.95178,5.2843,0,0,0,0,0,0,0,-1,1441,1681,3.95174,-5.28431
224,-657,6.66736,-0.250244,0,0,0,0,0,0,0,-1,1448,1681,6.66737,0.250229
231,-657,6.85498,-1.70752,0,0,0,0,0,0,0,-1,1455,1681,6.855,1.70758
238,-657,5.34143,-2.89819,0,0,0,0,0,0,0,-1,1462,1681,5.34143,2.89813
245,-657,8.66003,-0.102783,0,0,0,0,0,0,0,-1,1469,1681,8.66,0.102824
252,-657,4.78955,0.623779,0,0,0,0,0,0,0,-1,1476,1681,4.7895,-0.623826
259,-657,2.61523,4.31909,0,0,0,0,0,0,0,-1,1483,1681,2.61523,-4.31908
266,-657,5.35437,11.4742,0,0,0,0,0,0,0,-1,1490,1681,5.35441,-11.4742
273,-657,11.9164,46.0638,0,0,0,0,0,0,0,-1,1497,1681,11.9164,-46.0638
280,-657,13.1996,63.2808,0,0,0,0,0,0,0,-1,1504,1681,13.1996,-63.2808
287,-657,13.5348,62.668,0,0,0,0,0,0,0,-1,1511,1681,13.5348,-62.668
294,-657,13.6671,62.2157,0.0120349,-0.00235212,-0.000306921,0.0120415,-0.00235866,-0.0213202,0.00891844,0.0443317,1518,1681,13.6671,-62.2157
301,-657,13.7094,61.7335,0.0108011,-0.00103748,-0.000322661,0.0108099,-0.00104626,-0.0272281,0.00757947,0.0279692,1525,1681,13.7093,-61.7335
308,-657,13.6831,61.1454,0.00942617,-1.5237e-05,-0.000355545,0.00943954,-2.86074e-05,-0.0375871,0.00630259,0.0176248,1532,1681,13.6831,-61.1454
315,-657,13.6915,60.505,0.00796426,0.000953708,-0.000455242,0.00799369,0.00092427,-0.0645752,0.00504932,0.0130628,1539,1681,13.6915,-60.505
322,-657,13.7213,59.8608,0.00680602,0.00200218,-0.000791379,0.00693304,0.00187516,-0.159138,0.004141,0.0143749,1546,1681,13.7213,-59.8609
329,-657,13.7164,59.2323,0.00584541,0.00283482,-0.00114968,0.00623423,0.002446,-0.326123,0.00362703,0.0203105,1553,1681,13.7164,-59.2323
336,-657,13.7062,58.606,0.00498749,0.00348009,-0.00137556,0.0058023,0.00266527,-0.534775,0.00335365,0.0175226,1560,1681,13.7062,-58.606
343,-657,13.7185,57.9705,0.00416986,0.00383901,-0.00160746,0.00562039,0.00238848,-0.734123,0.00325709,0.0135739,1567,1681,13.7185,-57.9704
350,-657,13.6847,57.3359,0.00346861,0.00397397,-0.00185974,0.00559812,0.00184447,-0.852919,0.00329413,0.0154533,1574,1681,13.6847,-57.3359
357,-657,13.6604,56.6497,0.00287818,0.00377503,-0.00205234,0.00542736,0.00122585,-0.892956,0.00328673,0.0138291,1581,1681,13.6604,-56.6497
364,-657,13.6689,55.9869,0.00248997,0.00309205,-0.00217613,0.00498786,0.000594157,-0.854131,0.00314595,0.0106135,1588,1681,13.6689,-55.9869
371,-657,13.6304,55.3096,0.00226116,0.00231714,-0.00221574,0.00450506,7.32322e-05,-0.791714,0.00297926,0.0158355,1595,1681,13.6304,-55.3096
378,-657,13.5659,54.6283,0.00214568,0.00151031,-0.00221475,0.00406541,-0.000409427,-0.714164,0.00285655,0.0162333,1602,1681,13.566,-54.6283
385,-657,13.5305,53.9399,0.002215,0.000724466,-0.002326,0.00391222,-0.000972745,-0.630362,0.00298569,0.0134945,1609,1681,13.5305,-53.9399
392,-657,13.5009,53.2377,0.00230758,-6.69742e-05,-0.0024743,0.00386471,-0.00162411,-0.561702,0.0032558,0.0132033,1616,1681,13.5009,-53.2376
399,-657,13.4728,52.5554,0.00248669,-0.000765702,-0.00271697,0.00402695,-0.00230596,-0.515728,0.00370104,0.0130627,1623,1681,13.4728,-52.5555
406,-657,13.4388,51.848,0.00283787,-0.00128399,-0.00300429,0.00442018,-0.0028663,-0.484765,0.00423861,0.0152892,1630,1681,13.4388,-51.8481
413,-657,13.3864,51.0995,0.0034086,-0.00167563,-0.00355939,0.00524045,-0.00350749,-0.475302,0.00508355,0.0157802,1637,1681,13.3864,-51.0994
420,-657,13.3774,50.3232,0.00404121,-0.00177991,-0.00429345,0.00631766,-0.00405636,-0.487526,0.00603669,0.021536,1644,1681,13.3775,-50.3232
427,-657,13.3124,49.5237,0.00515315,-0.00152448,-0.00545586,0.00821075,-0.00458208,-0.510811,0.00748433,0.0327243,1651,1681,13.3124,-49.5237
434,-657,13.479,48.7699,0.00654768,-0.00115178,-0.00679859,0.0105108,-0.00511494,-0.52778,0.0091991,0.0434179,1658,1681,13.479,-48.7699
441,-657,14.0739,48.024,0,0,0,0,0,0,0,-1,1665,1681,14.0738,-48.0241
448,-657,13.8298,44.941,0,0,0,0,0,0,0,-1,1672,1681,13.8298,-44.9411
455,-657,13.0724,47.1731,0,0,0,0,0,0,0,-1,1679,1681,13.0724,-47.1731
462,-657,10.2832,30.1719,0,0,0,0,0,0,0,-1,1686,1681,10.2831,-30.1718
469,-657,9.22205,26.4175,0,0,0,0,0,0,0,-1,1693,1681,9.2221,-26.4175
476,-657,8.9519,20.5712,0,0,0,0,0,0,0,-1,1700,1681,8.95194,-20.5712
483,-657,10.0663,21.8628,0,0,0,0,0,0,0,-1,1707,1681,10.0663,-21.8628
490,-657,11.6039,21.2185,0,0,0,0,0,0,0,-1,1714,1681,11.6038,-21.2185
497,-657,9.20862,17.8127,0,0,0,0,0,0,0,-1,1721,1681,9.2086,-17.8127
504,-657,0,0,0,0,0,0,0,0,0,-1,1728,1681,0,0
511,-657,0,0,0,0,0,0,0,0,0,-1,1735,1681,0,0
518,-657,0,0,0,0,0,0,0,0,0,-1,1742,1681,0,0
525,-657,0,0,0,0,0,0,0,0,0,-1,1749,1681,0,0
532,-657,0,0,0,0,0,0,0,0,0,-1,1756,1681,0,0
539,-657,0,0,0,0,0,0,0,0,0,-1,1763,1681,0,0
546,-657,0,0,0,0,0,0,0,0,0,-1,1770,1681,0,0
553,-657,0,0,0,0,0,0,0,0,0,-1,1777,1681,0,0
560,-657,0,0,0,0,0,0,0,0,0,-1,1784,1681,0,0
567,-657,0,0,0,0,0,0,0,0,0,-1,1791,1681,0,0
574,-657,0,0,0,0,0,0,0,0,0,-1,1798,1681,0,0
581,-657,0,0,0,0,0,0,0,0,0,-1,1805,1681,0,0
588,-657,0,0,0,0,0,0,0,0,0,-1,1812,1681,0,0
595,-657,0,0,0,0,0,0,0,0,0,-1,1819,1681,0,0
602,-657,0,0,0,0,0,0,0,0,0,-1,1826,1681,0,0
609,-657,0,0,0,0,0,0,0,0,0,-1,1833,1681,0,0
616,-657,0,0,0,0,0,0,0,0,0,-1,1840,1681,0,0
623,-657,0,0,0,0,0,0,0,0,0,-1,1847,1681,0,0
630,-657,0,0,0,0,0,0,0,0,0,-1,1854,1681,0,0
637,-657,0,0,0,0,0,0,0,0,0,-1,1861,1681,0,0
644,-657,0,0,0,0,0,0,0,0,0,-1,1868,1681,0,0
651,-657,0,0,0,0,0,0,0,0,0,-1,1875,1681,0,0
658,-657,0,0,0,0,0,0,0,0,0,-1,1882,1681,0,0
665,-657,0,0,0,0,0,0,0,0,0,-1,1889,1681,0,0
672,-657,0,0,0,0,0,0,0,0,0,-1,1896,1681,0,0
679,-657,0,0,0,0,0,0,0,0,0,-1,1903,1681,0,0
686,-657,0,0,0,0,0,0,0,0,0,-1,1910,1681,0,0
693,-657,0,0,0,0,0,0,0,0,0,-1,1917,1681,0,0
700,-657,0,0,0,0,0,0,0,0,0,-1,1924,1681,0,0
707,-657,0,0,0,0,0,0,0,0,0,-1,1931,1681,0,0
714,-657,0,0,0,0,0,0,0,0,0,-1,1938,1681,0,0
721,-657,0,0,0,0,0,0,0,0,0,-1,1945,1681,0,0
728,-657,0,0,0,0,0,0,0,0,0,-1,1952,1681,0,0
735,-657,0,0,0,0,0,0,0,0,0,-1,1959,1681,0,0
742,-657,0,0,0,0,0,0,0,0,0,-1,1966,1681,0,0
749,-657,0,0,0,0,0,0,0,0,0,-1,1973,1681,0,0
756,-657,0,0,0,0,0,0,0,0,0,-1,1980,1681,0,0
763,-657,0,0,0,0,0,0,0,0,0,-1,1987,1681,0,0
770,-657,0,0,0,0,0,0,0,0,0,-1,1994,1681,0,0
777,-657,0,0,0,0,0,0,0,0,0,-1,2001,1681,0,0
784,-657,0,0,0,0,0,0,0,0,0,-1,2008,1681,0,0
791,-657,0,0,0,0,0,0,0,0,0,-1,2015,1681,0,0
798,-657,0,0,0,0,0,0,0,0,0,-1,2022,1681,0,0
805,-657,0,0,0,0,0,0,0,0,0,-1,2029,1681,0,0
812,-657,0,0,0,0,0,0,0,0,0,-1,2036,1681,0,0
-700,-664,0,0,0,0,0,0,0,0,0,-1,524,1688,0,0
-693,-664,0,0,0,0,0,0,0,0,0,-1,531,1688,0,0
-686,-664,0,0,0,0,0,0,0,0,0,-1,538,1688,0,0
-679,-664,0,0,0,0,0,0,0,0,0,-1,545,1688,0,0
-672,-664,0,0,0,0,0,0,0,0,0,-1,552,1688,0,0
-665,-664,0,0,0,0,0,0,0,0,0,-1,559,1688,0,0
-658,-664,0,0,0,0,0,0,0,0,0,-1,566,1688,0,0
-651,-664,0,0,0,0,0,0,0,0,0,-1,573,1688,0,0
-644,-664,0,0,0,0,0,0,0,0,0,-1,580,1688,0,0
-637,-664,0,0,0,0,0,0,0,0,0,-1,587,1688,0,0
-630,-664,0,0,0,0,0,0,0,0,0,-1,594,1688,0,0
-623,-664,0,0,0,0,0,0,0,0,0,-1,601,1688,0,0
-616,-664,0,0,0,0,0,0,0,0,0,-1,608,1688,0,0
-609,-664,0,0,0,0,0,0,0,0,0,-1,615,1688,0,0
-602,-664,0,0,0,0,0,0,0,0,0,-1,622,1688,0,0
-595,-664,0,0,0,0,0,0,0,0,0,-1,629,1688,0,0
-588,-664,0,0,0,0,0,0,0,0,0,-1,636,1688,0,0
-581,-664,0,0,0,0,0,0,0,0,0,-1,643,1688,0,0
-574,-664,0,0,0,0,0,0,0,0,0,-1,650,1688,0,0
-567,-664,0,0,0,0,0,0,0,0,0,-1,657,1688,0,0
-560,-664,0,0,0,0,0,0,0,0,0,-1,664,1688,0,0
-553,-664,0,0,0,0,0,0,0,0,0,-1,671,1688,0,0
-546,-664,0,0,0,0,0,0,0,0,0,-1,678,1688,0,0
-539,-664,0,0,0,0,0,0,0,0,0,-1,685,1688,0,0
-532,-664,0,0,0,0,0,0,0,0,0,-1,692,1688,0,0
-525,-664,0,0,0,0,0,0,0,0,0,-1,699,1688,0,0
-518,-664,0,0,0,0,0,0,0,0,0,-1,706,1688,0,0
-511,-664,0,0,0,0,0,0,0,0,0,-1,713,1688,0,0
-504,-664,0,0,0,0,0,0,0,0,0,-1,720,1688,0,0
-497,-664,0,0,0,0,0,0,0,0,0,-1,727,1688,0,0
-490,-664,0,0,0,0,0,0,0,0,0,-1,734,1688,0,0
-483,-664,0,0,0,0,0,0,0,0,0,-1,741,1688,0,0
-476,-664,0,0,0,0,0,0,0,0,0,-1,748,1688,0,0
-469,-664,0,0,0,0,0,0,0,0,0,-1,755,1688,0,0
-462,-664,0,0,0,0,0,0,0,0,0,-1,762,1688,0,0
-455,-664,0,0,0,0,0,0,0,0,0,-1,769,1688,0,0
-448,-664,0,0,0,0,0,0,0,0,0,-1,776,1688,0,0
-441,-664,0,0,0,0,0,0,0,0,0,-1,783,1688,0,0
-434,-664,0,0,0,0,0,0,0,0,0,-1,790,1688,0,0
-427,-664,0,0,0,0,0,0,0,0,0,-1,797,1688,0,0
-420,-664,0,0,0,0,0,0,0,0,0,-1,804,1688,0,0
-413,-664,0,0,0,0,0,0,0,0,0,-1,811,1688,0,0
-406,-664,0,0,0,0,0,0,0,0,0,-1,818,1688,0,0
-399,-664,0,0,0,0,0,0,0,0,0,-1,825,1688,0,0
-392,-664,0,0,0,0,0,0,0,0,0,-1,832,1688,0,0
-385,-664,0,0,0,0,0,0,0,0,0,-1,839,1688,0,0
-378,-664,0,0,0,0,0,0,0,0,0,-1,846,1688,0,0
-371,-664,-1.61676,5.92737,0,0,0,0,0,0,0,-1,853,1688,-1.61675,-5.92735
-364,-664,-3.901,5.87024,0,0,0,0,0,0,0,-1,860,1688,-3.90097,-5.87027
-357,-664,-4.81012,4.53479,0,0,0,0,0,0,0,-1,867,1688,-4.81012,-4.5348
-350,-664,3.26105,36.0225,0,0,0,0,0,0,0,-1,874,1688,3.26104,-36.0224
-343,-664,5.56708,45.6833,0,0,0,0,0,0,0,-1,881,1688,5.56709,-45.6833
-336,-664,5.21466,44.8312,0,0,0,0,0,0,0,-1,888,1688,5.21463,-44.8312
-329,-664,5.15399,47.1245,0,0,0,0,0,0,0,-1,895,1688,5.15399,-47.1245
-322,-664,5.15472,47.5533,0,0,0,0,0,0,0,-1,902,1688,5.15472,-47.5533
-315,-664,6.22028,48.5294,0,0,0,0,0,0,0,-1,909,1688,6.22026,-48.5294
-308,-664,5.85016,49.3962,-0.0140641,0.00320916,-0.00468861,0.00439976,-0.0152547,-1.32212,0.0119104,0.0489886,916,1688,5.85015,-49.3962
-301,-664,5.51099,50.2717,-0.013139,0.00438009,-0.00391847,0.00521659,-0.0139755,-1.36048,0.0114588,0.0441953,923,1688,5.51097,-50.2717
-294,-664,5.44781,50.8756,-0.0118184,0.00506724,-0.00312961,0.00562862,-0.0123798,-1.39331,0.0106379,0.0430444,930,1688,5.44778,-50.8756
-287,-664,5.41943,51.5348,-0.0104867,0.0056155,-0.00236671,0.00595615,-0.0108273,-1.42784,0.00982505,0.0303887,937,1688,5.41944,-51.5349
-280,-664,5.27283,52.2836,-0.00935083,0.00578649,-0.00168317,0.00597139,-0.00953573,-1.46138,0.00903153,0.0189198,944,1688,5.27282,-52.2836
-273,-664,5.1618,53.027,-0.0082107,0.00573572,-0.00113787,0.00582795,-0.00830292,-1.48992,0.00820007,0.0158221,951,1688,5.16181,-53.027
-266,-664,5.11633,53.722,-0.00693167,0.00566601,-0.000530299,0.00568829,-0.00695395,-1.5288,0.00731119,0.0221125,958,1688,5.11633,-53.722
-259,-664,5.1123,54.4381,-0.0055985,0.00513827,3.3822e-05,0.00513837,-0.00559861,1.56765,0.0062009,0.0187816,965,1688,5.11229,-54.4381
-252,-664,5.09802,55.1757,-0.00429167,0.00475589,0.000295221,0.00476552,-0.0043013,1.53821,0.00523701,0.0161515,972,1688,5.09801,-55.1756
-245,-664,5.01733,55.9297,-0.00325414,0.00433686,0.000482964,0.00436746,-0.00328474,1.50751,0.00443272,0.0206125,979,1688,5.01734,-55.9296
-238,-664,5.02026,56.5936,-0.00226815,0.00346675,0.00078671,0.00357271,-0.00237411,1.43691,0.00345657,0.0246473,986,1688,5.02025,-56.5937
-231,-664,4.97321,57.2384,-0.00132877,0.00287163,0.000878087,0.0030478,-0.00150494,1.37279,0.00267837,0.0214984,993,1688,4.97322,-57.2384
-224,-664,4.92352,57.9215,-0.000494008,0.00239261,0.00088452,0.00264209,-0.000743483,1.29589,0.00205456,0.0152763,1000,1688,4.9235,-57.9215
-217,-664,4.90063,58.5786,0.000229824,0.00173161,0.000782598,0.00206529,-0.000103857,1.16776,0.00141275,0.0109725,1007,1688,4.90062,-58.5786
-210,-664,4.88226,59.1956,0.00092926,0.00114717,0.000582508,0.00163083,0.000445605,0.877852,0.0009733,0.0122837,1014,1688,4.88226,-59.1956
-203,-664,4.84912,59.825,0.00157696,0.000505772,0.000339322,0.0016754,0.000407332,0.282359,0.00100895,0.015034,1021,1688,4.84913,-59.825
-196,-664,4.83252,60.4397,0.00212655,-1.80571e-05,-1.02202e-05,0.0021266,-1.81058e-05,-0.00476539,0.0014238,0.0157859,1028,1688,4.83247,-60.4396
-189,-664,4.82922,61.0719,0.00247301,-0.000278407,-0.000393247,0.00252811,-0.000333509,-0.139213,0.00180687,0.0109252,1035,1688,4.82927,-61.0719
-182,-664,4.83423,61.6967,0.00263945,-0.000118532,-0.000892333,0.00290298,-0.000382061,-0.287164,0.00207443,0.00958638,1042,1688,4.83423,-61.6966
-175,-664,4.828,62.255,0.00299765,0.000238744,-0.00120377,0.00344904,-0.000212638,-0.358747,0.00237341,0.0129383,1049,1688,4.82806,-62.2551
-168,-664,4.83264,62.8134,0.00314008,0.000709199,-0.00163902,0.00396515,-0.000115873,-0.466358,0.00268289,0.0144941,1056,1688,4.83264,-62.8134
-161,-664,4.82617,63.395,0.00326385,0.0015363,-0.00205246,0.00462689,0.00017326,-0.586223,0.00302849,0.0122961,1063,1688,4.82612,-63.395
-154,-664,4.89795,63.9427,0.00346378,0.00263428,-0.0023424,0.00542786,0.000670198,-0.697775,0.00341715,0.012607,1070,1688,4.8979,-63.9428
-147,-664,4.90137,64.4816,0.00371873,0.00410011,-0.00258689,0.00650333,0.00131551,-0.822189,0.00397037,0.0162653,1077,1688,4.9014,-64.4816
-140,-664,4.92944,65.0559,0.00397886,0.00577215,-0.00280802,0.00782321,0.00192781,-0.93994,0.00470637,0.0196367,1084,1688,4.92947,-65.056
-133,-664,4.87708,65.6357,0.00439369,0.00765602,-0.00280669,0.00927112,0.00277859,-1.04863,0.00549398,0.0237798,1091,1688,4.87702,-65.6357
-126,-664,5.08765,66.3694,0.00502624,0.00914164,-0.00273159,0.0105038,0.00366404,-1.1082,0.00615609,0.0492771,1098,1688,5.08764,-66.3694
-119,-664,5.36035,67.1663,0,0,0,0,0,0,0,-1,1105,1688,5.36031,-67.1663
-112,-664,6.3916,51.1235,0,0,0,0,0,0,0,-1,1112,1688,6.39161,-51.1236
-105,-664,6.87256,43.2527,0,0,0,0,0,0,0,-1,1119,1688,6.87258,-43.2527
-98,-664,7.69324,41.3359,0,0,0,0,0,0,0,-1,1126,1688,7.69321,-41.3359
-91,-664,5.41931,25.6302,0,0,0,0,0,0,0,-1,1133,1688,5.41932,-25.6302
-84,-664,3.48389,16.6913,0,0,0,0,0,0,0,-1,1140,1688,3.4839,-16.6913
-77,-664,4.52014,11.2122,0,0,0,0,0,0,0,-1,1147,1688,4.5202,-11.2122
-70,-664,4.20374,8.24524,0,0,0,0,0,0,0,-1,1154,1688,4.20379,-8.24519
-63,-664,-4.677,2.40503,0,0,0,0,0,0,0,-1,1161,1688,-4.67702,-2.40498
-56,-664,-4.66504,3.32727,0,0,0,0,0,0,0,-1,1168,1688,-4.6651,-3.32724
-49,-664,-2.54297,3.31848,0,0,0,0,0,0,0,-1,1175,1688,-2.54297,-3.31852
-42,-664,-0.359253,4.38684,0,0,0,0,0,0,0,-1,1182,1688,-0.359261,-4.38685
-35,-664,-0.705566,3.55017,0,0,0,0,0,0,0,-1,1189,1688,-0.705567,-3.55023
-28,-664,-1.54236,10.2538,0,0,0,0,0,0,0,-1,1196,1688,-1.54236,-10.2538
-21,-664,4.7312,73.1382,0,0,0,0,0,0,0,-1,1203,1688,4.73117,-73.1382
-14,-664,5.88135,71.9521,0,0,0,0,0,0,0,-1,1210,1688,5.88137,-71.9522
-7,-664,6.7113,70.7469,0,0,0,0,0,0,0,-1,1217,1688,6.71128,-70.7469
0,-664,6.95398,70.7383,0.0607328,0.0492032,-0.0635817,0.118811,-0.00887455,-0.740188,0.0823248,0.0460137,1224,1688,6.95399,-70.7383
7,-664,7.22815,70.6465,0.0592833,0.0447486,-0.0633701,0.115801,-0.0117695,-0.728307,0.0814082,0.045966,1231,1688,7.22814,-70.6465
14,-664,7.43848,70.1731,0.0583165,0.0409735,-0.0636146,0.113848,-0.014558,-0.717659,0.0811875,0.043702,1238,1688,7.43852,-70.173
21,-664,7.71106,69.4309,0.05763,0.0374403,-0.0635325,0.111865,-0.0167943,-0.706611,0.0807587,0.0463335,1245,1688,7.71105,-69.4309
28,-664,7.83557,69.9312,0.0572777,0.0337975,-0.0619623,0.108602,-0.0175271,-0.691772,0.0788956,0.0442658,1252,1688,7.83556,-69.9311
35,-664,8.31299,69.2552,0.0562324,0.0299032,-0.0598941,0.104392,-0.018256,-0.67722,0.0764102,0.042542,1259,1688,8.31305,-69.2552
42,-664,9.02893,68.1144,0.0534289,0.0253996,-0.0561418,0.0972789,-0.0184504,-0.663083,0.0717973,0.0428082,1266,1688,9.02899,-68.1144
49,-664,9.61658,66.8632,0.0500269,0.0202547,-0.0509571,0.0882278,-0.0179462,-0.643288,0.0656237,0.0436324,1273,1688,9.61656,-66.8631
56,-664,10.3351,65.4963,0,0,0,0,0,0,0,-1,1280,1688,10.3351,-65.4963
63,-664,8.66675,66.5275,0,0,0,0,0,0,0,-1,1287,1688,8.66678,-66.5275
70,-664,8.83264,66.0511,0.0295769,0.00180204,-0.0365536,0.0547922,-0.0234133,-0.60386,0.0463476,0.0470506,1294,1688,8.83259,-66.0511
77,-664,9.32031,65.451,0.0202265,-0.004826,-0.031592,0.041685,-0.0262845,-0.596655,0.0395766,0.0421449,1301,1688,9.32032,-65.4511
84,-664,9.16699,70.2747,0,0,0,0,0,0,0,-1,1308,1688,9.167,-70.2746
91,-664,8.75671,70.442,-0.00132522,-0.0207499,-0.0230087,0.013937,-0.0360121,-0.585685,0.0297621,0.0426927,1315,1688,8.75666,-70.442
98,-664,8.38831,70.6385,-0.0139963,-0.028847,-0.0199862,-0.000100717,-0.0427427,-0.607538,0.0284616,0.0472787,1322,1688,8.38825,-70.6385
105,-664,8.104,70.9336,-0.0273068,-0.0384163,-0.0170184,-0.0149596,-0.0507635,-0.627651,0.0301207,0.0495725,1329,1688,8.10401,-70.9336
112,-664,7.47034,71.3976,-0.0387135,-0.0460613,-0.0173115,-0.0246904,-0.0600844,-0.680838,0.0348727,0.0434941,1336,1688,7.47032,-71.3976
119,-664,6.81982,71.9854,-0.0486188,-0.0524786,-0.0187502,-0.0316994,-0.069398,-0.734115,0.0401168,0.0473775,1343,1688,6.8198,-71.9854
126,-664,6.18115,72.5605,0,0,0,0,0,0,0,-1,1350,1688,6.1812,-72.5605
133,-664,5.61902,73.7855,0,0,0,0,0,0,0,-1,1357,1688,5.61907,-73.7855
140,-664,4.15076,73.5081,0,0,0,0,0,0,0,-1,1364,1688,4.15072,-73.5081
147,-664,3.12012,73.3721,0,0,0,0,0,0,0,-1,1371,1688,3.12013,-73.3721
154,-664,20.1138,63.4268,0,0,0,0,0,0,0,-1,1378,1688,20.1137,-63.4268
161,-664,4.60132,1.56238,0,0,0,0,0,0,0,-1,1385,1688,4.60134,-1.56233
168,-664,5.172,1.25488,0,0,0,0,0,0,0,-1,1392,1688,5.17203,-1.25484
175,-664,5.58313,1.16467,0,0,0,0,0,0,0,-1,1399,1688,5.58317,-1.16466
182,-664,5.74268,1.41113,0,0,0,0,0,0,0,-1,1406,1688,5.74263,-1.41115
189,-664,5.87744,1.87061,0,0,0,0,0,0,0,-1,1413,1688,5.87745,-1.87065
196,-664,6.7594,5.97473,0,0,0,0,0,0,0,-1,1420,1688,6.75943,-5.97478
203,-664,5.38452,5.22034,0,0,0,0,0,0,0,-1,1427,1688,5.38453,-5.2203
210,-664,5.25549,6.45715,0,0,0,0,0,0,0,-1,1434,1688,5.25549,-6.45721
217,-664,5.72009,6.73975,0,0,0,0,0,0,0,-1,1441,1688,5.72014,-6.73972
224,-664,5.05725,7.42908,0,0,0,0,0,0,0,-1,1448,1688,5.05723,-7.42912
231,-664,5.13318,7.60864,0,0,0,0,0,0,0,-1,1455,1688,5.13313,-7.60862
238,-664,4.23193,6.45471,0,0,0,0,0,0,0,-1,1462,1688,4.23197,-6.45476
245,-664,4.42004,6.80896,0,0,0,0,0,0,0,-1,1469,1688,4.4201,-6.80901
252,-664,3.67346,6.85461,0,0,0,0,0,0,0,-1,1476,1688,3.6734,-6.85462
259,-664,4.55823,11.7435,0,0,0,0,0,0,0,-1,1483,1688,4.55826,-11.7435
266,-664,12.6477,64.4362,0,0,0,0,0,0,0,-1,1490,1688,12.6477,-64.4361
273,-664,12.8298,63.9545,0,0,0,0,0,0,0,-1,1497,1688,12.8298,-63.9545
280,-664,12.8387,63.3868,0.0109943,-0.00230014,-0.000653585,0.0110264,-0.0023322,-0.0490046,0.0082391,0.0465628,1504,1688,12.8388,-63.3869
287,-664,12.8448,62.796,0.0101123,-0.0019497,-0.000525627,0.0101352,-0.00197257,-0.0434672,0.00750127,0.0397379,1511,1688,12.8449,-62.796
294,-664,13.0314,62.2947,0.00923772,-0.00165615,-0.000470029,0.00925796,-0.0016764,-0.0430396,0.0068,0.0252929,1518,1688,13.0314,-62.2946
301,-664,13.0841,61.7151,0.00821702,-0.000771401,-0.000486469,0.00824328,-0.000797653,-0.0539118,0.00577978,0.015095,1525,1688,13.0841,-61.7151
308,-664,13.0914,61.1199,0.00710118,-5.61828e-05,-0.000529767,0.00714018,-9.51823e-05,-0.0734834,0.00479216,0.013702,1532,1688,13.0914,-61.1199
315,-664,13.0834,60.5231,0.00592981,0.000657093,-0.000604412,0.0059982,0.000588696,-0.112683,0.00381773,0.0134958,1539,1688,13.0834,-60.5231
322,-664,13.126,59.929,0.00489112,0.00138494,-0.000783655,0.0050583,0.00121776,-0.210184,0.00304846,0.0162872,1546,1688,13.126,-59.929
329,-664,13.0962,59.2987,0.00399624,0.0019586,-0.00100862,0.00441106,0.00154378,-0.390185,0.00258465,0.019371,1553,1688,13.0962,-59.2988
336,-664,13.0693,58.6342,0.00322311,0.00241862,-0.00116161,0.00405015,0.00159158,-0.618719,0.00235615,0.0156666,1560,1688,13.0693,-58.6342
343,-664,13.0555,58.0045,0.00251756,0.00266854,-0.00132927,0.00392446,0.00126164,-0.813762,0.00231343,0.0117399,1567,1688,13.0556,-58.0045
350,-664,13.0201,57.3552,0.00196154,0.00272049,-0.00153264,0.00391993,0.000762095,-0.906757,0.00239994,0.013905,1574,1688,13.0201,-57.3552
357,-664,13.0145,56.6631,0.00159885,0.00240086,-0.00174253,0.00378793,0.000211772,-0.898493,0.00245774,0.0136835,1581,1688,13.0145,-56.6631
364,-664,12.9999,56.0081,0.00137562,0.00174016,-0.00189145,0.0034581,-0.000342318,-0.833432,0.00242757,0.0116834,1588,1688,12.9999,-56.0081
371,-664,12.9788,55.3539,0.00134112,0.00103408,-0.00203862,0.003232,-0.000856795,-0.747816,0.0024899,0.0151772,1595,1688,12.9787,-55.3539
378,-664,12.9264,54.6584,0.00147884,0.000298952,-0.00217205,0.00313964,-0.00136185,-0.652794,0.00266564,0.0150222,1602,1688,12.9264,-54.6584
385,-664,12.8486,53.9774,0.00185094,-0.00041172,-0.002456,0.00342366,-0.00198443,-0.569565,0.003159,0.0150133,1609,1688,12.8486,-53.9775
392,-664,12.7791,53.3097,0.00230889,-0.00111679,-0.00281537,0.00389152,-0.00269942,-0.512115,0.00382597,0.0169989,1616,1688,12.7791,-53.3097
399,-664,12.7778,52.6022,0.00291127,-0.0017774,-0.00329398,0.00460998,-0.00347611,-0.476129,0.00468378,0.0146645,1623,1688,12.7778,-52.6021
406,-664,12.767,51.8851,0.00371362,-0.00214104,-0.00382451,0.00560252,-0.00402995,-0.458752,0.00558596,0.0146368,1630,1688,12.767,-51.8851
413,-664,12.7445,51.1001,0.00473501,-0.00248431,-0.00461785,0.0069866,-0.00473589,-0.453665,0.00680944,0.0186303,1637,1688,12.7445,-51.1001
420,-664,12.7897,50.3151,0.00579327,-0.00255181,-0.00562322,0.00862291,-0.00538146,-0.466211,0.0081573,0.046052,1644,1688,12.7897,-50.3151
427,-664,12.7695,49.2074,0,0,0,0,0,0,0,-1,1651,1688,12.7695,-49.2074
434,-664,12.8425,48.3085,0,0,0,0,0,0,0,-1,1658,1688,12.8426,-48.3085
441,-664,12.7198,45.0563,0,0,0,0,0,0,0,-1,1665,1688,12.7198,-45.0563
448,-664,12.5538,38.7155,0,0,0,0,0,0,0,-1,1672,1688,12.5539,-38.7154
455,-664,12.1709,39.3733,0,0,0,0,0,0,0,-1,1679,1688,12.1708,-39.3733
462,-664,4.3147,4.25439,0,0,0,0,0,0,0,-1,1686,1688,4.31467,-4.25435
469,-664,6.05469,7.49341,0,0,0,0,0,0,0,-1,1693,1688,6.05474,-7.49339
476,-664,10.2377,22.7128,0,0,0,0,0,0,0,-1,1700,1688,10.2377,-22.7128
483,-664,8.41895,10.9768,0,0,0,0,0,0,0,-1,1707,1688,8.41897,-10.9769
490,-664,3.90771,13.2842,0,0,0,0,0,0,0,-1,1714,1688,3.90776,-13.2841
497,-664,0,0,0,0,0,0,0,0,0,-1,1721,1688,0,0
504,-664,0,0,0,0,0,0,0,0,0,-1,1728,1688,0,0
511,-664,0,0,0,0,0,0,0,0,0,-1,1735,1688,0,0
518,-664,0,0,0,0,0,0,0,0,0,-1,1742,1688,0,0
525,-664,0,0,0,0,0,0,0,0,0,-1,1749,1688,0,0
532,-664,0,0,0,0,0,0,0,0,0,-1,1756,1688,0,0
539,-664,0,0,0,0,0,0,0,0,0,-1,1763,1688,0,0
546,-664,0,0,0,0,0,0,0,0,0,-1,1770,1688,0,0
553,-664,0,0,0,0,0,0,0,0,0,-1,1777,1688,0,0
560,-664,0,0,0,0,0,0,0,0,0,-1,1784,1688,0,0
567,-664,0,0,0,0,0,0,0,0,0,-1,1791,1688,0,0
574,-664,0,0,0,0,0,0,0,0,0,-1,1798,1688,0,0
581,-664,0,0,0,0,0,0,0,0,0,-1,1805,1688,0,0
588,-664,0,0,0,0,0,0,0,0,0,-1,1812,1688,0,0
595,-664,0,0,0,0,0,0,0,0,0,-1,1819,1688,0,0
602,-664,0,0,0,0,0,0,0,0,0,-1,1826,1688,0,0
609,-664,0,0,0,0,0,0,0,0,0,-1,1833,1688,0,0
616,-664,0,0,0,0,0,0,0,0,0,-1,1840,1688,0,0
623,-664,0,0,0,0,0,0,0,0,0,-1,1847,1688,0,0
630,-664,0,0,0,0,0,0,0,0,0,-1,1854,1688,0,0
637,-664,0,0,0,0,0,0,0,0,0,-1,1861,1688,0,0
644,-664,0,0,0,0,0,0,0,0,0,-1,1868,1688,0,0
651,-664,0,0,0,0,0,0,0,0,0,-1,1875,1688,0,0
658,-664,0,0,0,0,0,0,0,0,0,-1,1882,1688,0,0
665,-664,0,0,0,0,0,0,0,0,0,-1,1889,1688,0,0
672,-664,0,0,0,0,0,0,0,0,0,-1,1896,1688,0,0
679,-664,0,0,0,0,0,0,0,0,0,-1,1903,1688,0,0
686,-664,0,0,0,0,0,0,0,0,0,-1,1910,1688,0,0
693,-664,0,0,0,0,0,0,0,0,0,-1,1917,1688,0,0
700,-664,0,0,0,0,0,0,0,0,0,-1,1924,1688,0,0
707,-664,0,0,0,0,0,0,0,0,0,-1,1931,1688,0,0
714,-664,0,0,0,0,0,0,0,0,0,-1,1938,1688,0,0
721,-664,0,0,0,0,0,0,0,0,0,-1,1945,1688,0,0
728,-664,0,0,0,0,0,0,0,0,0,-1,1952,1688,0,0
735,-664,0,0,0,0,0,0,0,0,0,-1,1959,1688,0,0
742,-664,0,0,0,0,0,0,0,0,0,-1,1966,1688,0,0
749,-664,0,0,0,0,0,0,0,0,0,-1,1973,1688,0,0
756,-664,0,0,0,0,0,0,0,0,0,-1,1980,1688,0,0
763,-664,0,0,0,0,0,0,0,0,0,-1,1987,1688,0,0
770,-664,0,0,0,0,0,0,0,0,0,-1,1994,1688,0,0
777,-664,0,0,0,0,0,0,0,0,0,-1,2001,1688,0,0
784,-664,0,0,0,0,0,0,0,0,0,-1,2008,1688,0,0
791,-664,0,0,0,0,0,0,0,0,0,-1,2015,1688,0,0
798,-664,0,0,0,0,0,0,0,0,0,-1,2022,1688,0,0
805,-664,0,0,0,0,0,0,0,0,0,-1,2029,1688,0,0
812,-664,0,0,0,0,0,0,0,0,0,-1,2036,1688,0,0
-700,-671,0,0,0,0,0,0,0,0,0,-1,524,1695,0,0
-693,-671,0,0,0,0,0,0,0,0,0,-1,531,1695,0,0
-686,-671,0,0,0,0,0,0,0,0,0,-1,538,1695,0,0
-679,-671,0,0,0,0,0,0,0,0,0,-1,545,1695,0,0
-672,-671,0,0,0,0,0,0,0,0,0,-1,552,1695,0,0
-665,-671,0,0,0,0,0,0,0,0,0,-1,559,1695,0,0
-658,-671,0,0,0,0,0,0,0,0,0,-1,566,1695,0,0
-651,-671,0,0,0,0,0,0,0,0,0,-1,573,1695,0,0
-644,-671,0,0,0,0,0,0,0,0,0,-1,580,1695,0,0
-637,-671,0,0,0,0,0,0,0,0,0,-1,587,1695,0,0
-630,-671,0,0,0,0,0,0,0,0,0,-1,594,1695,0,0
-623,-671,0,0,0,0,0,0,0,0,0,-1,601,1695,0,0
-616,-671,0,0,0,0,0,0,0,0,0,-1,608,1695,0,0
-609,-671,0,0,0,0,0,0,0,0,0,-1,615,1695,0,0
-602,-671,0,0,0,0,0,0,0,0,0,-1,622,1695,0,0
-595,-671,0,0,0,0,0,0,0,0,0,-1,629,1695,0,0
-588,-671,0,0,0,0,0,0,0,0,0,-1,636,1695,0,0
-581,-671,0,0,0,0,0,0,0,0,0,-1,643,1695,0,0
-574,-671,0,0,0,0,0,0,0,0,0,-1,650,1695,0,0
-567,-671,0,0,0,0,0,0,0,0,0,-1,657,1695,0,0
-560,-671,0,0,0,0,0,0,0,0,0,-1,664,1695,0,0
-553,-671,0,0,0,0,0,0,0,0,0,-1,671,1695,0,0
-546,-671,0,0,0,0,0,0,0,0,0,-1,678,1695,0,0
-539,-671,0,0,0,0,0,0,0,0,0,-1,685,1695,0,0
-532,-671,0,0,0,0,0,0,0,0,0,-1,692,1695,0,0
-525,-671,0,0,0,0,0,0,0,0,0,-1,699,1695,0,0
-518,-671,0,0,0,0,0,0,0,0,0,-1,706,1695,0,0
-511,-671,0,0,0,0,0,0,0,0,0,-1,713,1695,0,0
-504,-671,0,0,0,0,0,0,0,0,0,-1,720,1695,0,0
-497,-671,0,0,0,0,0,0,0,0,0,-1,727,1695,0,0
-490,-671,0,0,0,0,0,0,0,0,0,-1,734,1695,0,0
-483,-671,0,0,0,0,0,0,0,0,0,-1,741,1695,0,0
-476,-671,0,0,0,0,0,0,0,0,0,-1,748,1695,0,0
-469,-671,0,0,0,0,0,0,0,0,0,-1,755,1695,0,0
-462,-671,0,0,0,0,0,0,0,0,0,-1,762,1695,0,0
-455,-671,0,0,0,0,0,0,0,0,0,-1,769,1695,0,0
-448,-671,0,0,0,0,0,0,0,0,0,-1,776,1695,0,0
-441,-671,0,0,0,0,0,0,0,0,0,-1,783,1695,0,0
-434,-671,0,0,0,0,0,0,0,0,0,-1,790,1695,0,0
-427,-671,0,0,0,0,0,0,0,0,0,-1,797,1695,0,0
-420,-671,0,0,0,0,0,0,0,0,0,-1,804,1695,0,0
-413,-671,0,0,0,0,0,0,0,0,0,-1,811,1695,0,0
-406,-671,0,0,0,0,0,0,0,0,0,-1,818,1695,0,0
-399,-671,0,0,0,0,0,0,0,0,0,-1,825,1695,0,0
-392,-671,0,0,0,0,0,0,0,0,0,-1,832,1695,0,0
-385,-671,0,0,0,0,0,0,0,0,0,-1,839,1695,0,0
-378,-671,0,0,0,0,0,0,0,0,0,-1,846,1695,0,0
-371,-671,0,0,0,0,0,0,0,0,0,-1,853,1695,0,0
-364,-671,-4.18738,7.51416,0,0,0,0,0,0,0,-1,860,1695,-4.18739,-7.51419
-357,-671,-5.02393,6.07129,0,0,0,0,0,0,0,-1,867,1695,-5.0239,-6.07135
-350,-671,8.03021,46.2139,0,0,0,0,0,0,0,-1,874,1695,8.03024,-46.2139
-343,-671,7.2002,45.9105,0,0,0,0,0,0,0,-1,881,1695,7.20021,-45.9105
-336,-671,6.3653,45.8201,0,0,0,0,0,0,0,-1,888,1695,6.36532,-45.82
-329,-671,5.6283,45.7198,0,0,0,0,0,0,0,-1,895,1695,5.6283,-45.7199
-322,-671,5.74951,47.1416,0,0,0,0,0,0,0,-1,902,1695,5.74954,-47.1416
-315,-671,5.44678,47.9471,0,0,0,0,0,0,0,-1,909,1695,5.4468,-47.9471
-308,-671,6.52771,49.6538,0,0,0,0,0,0,0,-1,916,1695,6.52769,-49.6538
-301,-671,7.07025,49.8623,0,0,0,0,0,0,0,-1,923,1695,7.07026,-49.8623
-294,-671,6.80792,50.5925,-0.016052,0.00782284,-0.00434397,0.00858865,-0.0168178,-1.3963,0.0149227,0.0491322,930,1695,6.80794,-50.5925
-287,-671,6.36566,51.4994,-0.0140909,0.00855354,-0.00324787,0.00901017,-0.0145475,-1.43112,0.0137257,0.0435679,937,1695,6.36565,-51.4994
-280,-671,5.98468,52.3213,-0.0125654,0.00864406,-0.00227839,0.00888605,-0.0128074,-1.46498,0.0125927,0.0373534,944,1695,5.98467,-52.3213
-273,-671,5.92206,53.0211,-0.011111,0.00837565,-0.00149948,0.00849036,-0.0112258,-1.49445,0.0114196,0.0364596,951,1695,5.92208,-53.0211
-266,-671,5.89734,53.8075,-0.00956261,0.00807112,-0.000729533,0.00810125,-0.00959274,-1.52952,0.0102277,0.0250931,958,1695,5.89735,-53.8075
-259,-671,5.79791,54.5018,-0.00800627,0.00727032,-6.00282e-06,0.00727033,-0.00800628,-1.5704,0.00882336,0.0218796,965,1695,5.79788,-54.5018
-252,-671,5.77136,55.2135,-0.00653576,0.00664533,0.000346456,0.00665443,-0.00654486,1.54454,0.0076207,0.0180765,972,1695,5.77139,-55.2135
-245,-671,5.70801,55.9292,-0.00542504,0.00602824,0.000594284,0.006059,-0.0054558,1.51909,0.00665111,0.0214169,979,1695,5.70799,-55.9292
-238,-671,5.68042,56.6182,-0.0043426,0.00491219,0.000996647,0.0050183,-0.00444871,1.46473,0.00546908,0.0215022,986,1695,5.68042,-56.6182
-231,-671,5.65442,57.2788,-0.00330386,0.00414222,0.00115682,0.0043178,-0.00347944,1.42017,0.00451041,0.0164922,993,1695,5.65442,-57.2788
-224,-671,5.59656,57.9104,-0.00235652,0.00357367,0.00124303,0.00382368,-0.00260653,1.37231,0.00373459,0.0134315,1000,1695,5.59657,-57.9104
-217,-671,5.55359,58.552,-0.00152671,0.00279064,0.00118892,0.0030964,-0.00183247,1.31908,0.0028767,0.0133217,1007,1695,5.55356,-58.552
-210,-671,5.52173,59.2197,-0.000730232,0.00217024,0.00105391,0.00251275,-0.00107274,1.25658,0.002125,0.0128904,1014,1695,5.52172,-59.2198
-203,-671,5.48218,59.8438,2.29432e-05,0.00144538,0.000903086,0.00188368,-0.000415359,1.11895,0.00141471,0.0204808,1021,1695,5.48218,-59.8438
-196,-671,5.46191,60.4724,0.000711594,0.000916552,0.000642856,0.00146505,0.0001631,0.864439,0.000927125,0.0181787,1028,1695,5.46197,-60.4724
-189,-671,5.45361,61.1392,0.00122293,0.000632274,0.000320544,0.00136346,0.00049175,0.413159,0.000797316,0.0133728,1035,1695,5.45356,-61.1391
-182,-671,5.43933,61.7416,0.00159331,0.000640884,-0.000107164,0.00160522,0.000628975,-0.110673,0.000933976,0.00988067,1042,1695,5.43939,-61.7416
-175,-671,5.42017,62.308,0.00211988,0.00082699,-0.0004019,0.00223463,0.000712242,-0.278114,0.00131812,0.0126185,1049,1695,5.42013,-62.3079
-168,-671,5.40723,62.8583,0.00239214,0.00108136,-0.000816894,0.00278406,0.00068944,-0.447327,0.00167423,0.013843,1056,1695,5.40721,-62.8583
-161,-671,5.39099,63.434,0.00260156,0.00157964,-0.00121722,0.00341071,0.000770489,-0.58668,0.00206545,0.0111121,1063,1695,5.391,-63.4339
-154,-671,5.42627,63.9801,0.00288977,0.00228285,-0.00155519,0.00417083,0.00100179,-0.689046,0.00251406,0.0102254,1070,1695,5.42629,-63.9801
-147,-671,5.43982,64.5358,0.00327014,0.00322699,-0.00184931,0.005098,0.00139913,-0.779564,0.00304152,0.0109833,1077,1695,5.43988,-64.5358
-140,-671,5.48474,65.0464,0.00367072,0.00423401,-0.00211558,0.00608661,0.00181813,-0.851573,0.00360778,0.0143191,1084,1695,5.48477,-65.0464
-133,-671,5.49597,65.5226,0.00416839,0.00535034,-0.0022204,0.00705707,0.00246166,-0.915462,0.00413602,0.0220394,1091,1695,5.49598,-65.5226
-126,-671,5.57922,66.1875,0.00484346,0.00621332,-0.00223224,0.00786335,0.00319343,-0.934256,0.00456651,0.0439174,1098,1695,5.5792,-66.1875
-119,-671,5.70959,67.0323,0,0,0,0,0,0,0,-1,1105,1695,5.70961,-67.0323
-112,-671,6.58704,44.6255,0,0,0,0,0,0,0,-1,1112,1695,6.58701,-44.6255
-105,-671,7.33252,41.3418,0,0,0,0,0,0,0,-1,1119,1695,7.33247,-41.3418
-98,-671,6.34534,45.6299,0,0,0,0,0,0,0,-1,1126,1695,6.34533,-45.6299
-91,-671,6.40063,38.2443,0,0,0,0,0,0,0,-1,1133,1695,6.40059,-38.2442
-84,-671,5.4209,26.2415,0,0,0,0,0,0,0,-1,1140,1695,5.42096,-26.2414
-77,-671,4.31763,16.489,0,0,0,0,0,0,0,-1,1147,1695,4.31757,-16.489
-70,-671,3.06067,10.7737,0,0,0,0,0,0,0,-1,1154,1695,3.0607,-10.7737
-63,-671,2.94592,6.90198,0,0,0,0,0,0,0,-1,1161,1695,2.94594,-6.90198
-56,-671,-3.07678,2.87976,0,0,0,0,0,0,0,-1,1168,1695,-3.07675,-2.87979
-49,-671,-1.05957,4.76917,0,0,0,0,0,0,0,-1,1175,1695,-1.05958,-4.76921
-42,-671,0.539307,3.7865,0,0,0,0,0,0,0,-1,1182,1695,0.539266,-3.78648
-35,-671,-0.272461,0.347534,0,0,0,0,0,0,0,-1,1189,1695,-0.272434,-0.347569
-28,-671,-10.4878,17.2009,0,0,0,0,0,0,0,-1,1196,1695,-10.4878,-17.2009
-21,-671,6.80554,70.1771,0,0,0,0,0,0,0,-1,1203,1695,6.8056,-70.1771
-14,-671,6.94946,70.5477,0,0,0,0,0,0,0,-1,1210,1695,6.94951,-70.5478
-7,-671,7.16296,70.6787,0.0542824,0.0392346,-0.0551069,0.102377,-0.00885963,-0.717551,0.0713878,0.0488466,1217,1695,7.16297,-70.6787
0,-671,7.47363,70.7388,0.0524076,0.0350554,-0.0541115,0.0985342,-0.0110712,-0.705906,0.0696737,0.0470324,1224,1695,7.47362,-70.7388
7,-671,7.78577,70.733,0.0516423,0.031942,-0.0541491,0.0968299,-0.0132456,-0.695428,0.0693911,0.0466736,1231,1695,7.78575,-70.733
14,-671,8.20776,70.5178,0.051218,0.0293818,-0.0545183,0.0959007,-0.0153009,-0.686573,0.069597,0.0472708,1238,1695,8.2078,-70.5178
21,-671,8.55554,70.3414,0.0509421,0.0271859,-0.0545853,0.0949267,-0.0167987,-0.678265,0.0695635,0.0475918,1245,1695,8.5555,-70.3415
28,-671,8.6908,69.8282,0.0509397,0.0249117,-0.0532701,0.0927625,-0.0169111,-0.665594,0.0681814,0.0451425,1252,1695,8.69084,-69.8283
35,-671,8.58032,69.2213,0.0502933,0.0225696,-0.0516901,0.089948,-0.0170851,-0.654394,0.0663971,0.0428725,1259,1695,8.58027,-69.2213
42,-671,8.50586,68.473,0.0478883,0.0195363,-0.0485812,0.0843195,-0.016895,-0.643439,0.0626092,0.0438366,1266,1695,8.50583,-68.473
49,-671,10.8177,65.9993,0.0448278,0.0157676,-0.044206,0.0768304,-0.016235,-0.626615,0.0574024,0.0440574,1273,1695,10.8177,-65.9992
56,-671,11.6316,64.6332,0,0,0,0,0,0,0,-1,1280,1695,11.6316,-64.6332
63,-671,9.09399,65.9027,0,0,0,0,0,0,0,-1,1287,1695,9.09397,-65.9027
70,-671,9.09473,65.6667,0.0263512,0.0012966,-0.0315858,0.0478033,-0.0201555,-0.596607,0.0403038,0.0465426,1294,1695,9.09478,-65.6668
77,-671,9.0896,65.5488,0.0180921,-0.00401183,-0.0271945,0.0363947,-0.0223144,-0.592391,0.0342191,0.0451257,1301,1695,9.08965,-65.5488
84,-671,9.77856,70.2961,0,0,0,0,0,0,0,-1,1308,1695,9.77851,-70.2962
91,-671,9.36926,70.6088,-0.000808146,-0.0172637,-0.0195531,0.0121777,-0.0302496,-0.586248,0.0252253,0.0448677,1315,1695,9.36928,-70.6087
98,-671,8.95642,70.9006,-0.0119041,-0.0240161,-0.0168325,-7.133e-05,-0.0358489,-0.612718,0.0238755,0.0416258,1322,1695,8.95645,-70.9006
105,-671,8.52954,71.2161,-0.0233517,-0.0320939,-0.014043,-0.0130152,-0.0424303,-0.634519,0.0250997,0.0434793,1329,1695,8.52949,-71.2161
112,-671,8.1864,71.6396,-0.0325315,-0.0382883,-0.0143048,-0.0208184,-0.0500014,-0.686115,0.0290027,0.0433644,1336,1695,8.18645,-71.6397
119,-671,7.7738,72.0122,-0.0403052,-0.0434578,-0.0154459,-0.0263554,-0.0574076,-0.734548,0.0331813,0.0449615,1343,1695,7.77381,-72.0122
126,-671,7.21802,72.3752,0,0,0,0,0,0,0,-1,1350,1695,7.21797,-72.3753
133,-671,7.60339,72.5809,0,0,0,0,0,0,0,-1,1357,1695,7.60341,-72.5809
140,-671,5.19885,73.9595,0,0,0,0,0,0,0,-1,1364,1695,5.19885,-73.9595
147,-671,6.47791,73.3805,0,0,0,0,0,0,0,-1,1371,1695,6.47789,-73.3806
154,-671,5.76477,73.9695,0,0,0,0,0,0,0,-1,1378,1695,5.76482,-73.9695
161,-671,4.49292,4.91272,0,0,0,0,0,0,0,-1,1385,1695,4.49297,-4.91273
168,-671,5.17639,6.1416,0,0,0,0,0,0,0,-1,1392,1695,5.1764,-6.14164
175,-671,5.6731,1.64685,0,0,0,0,0,0,0,-1,1399,1695,5.67313,-1.64691
182,-671,5.56812,1.71692,0,0,0,0,0,0,0,-1,1406,1695,5.56809,-1.71686
189,-671,6.98315,6.36169,0,0,0,0,0,0,0,-1,1413,1695,6.98312,-6.36175
196,-671,5.38123,5.69775,0,0,0,0,0,0,0,-1,1420,1695,5.38125,-5.69769
203,-671,5.95117,8.11658,0,0,0,0,0,0,0,-1,1427,1695,5.9512,-8.11662
210,-671,4.73596,8.39624,0,0,0,0,0,0,0,-1,1434,1695,4.736,-8.39618
217,-671,5.37097,11.863,0,0,0,0,0,0,0,-1,1441,1695,5.37094,-11.863
224,-671,5.08167,13.6694,0,0,0,0,0,0,0,-1,1448,1695,5.08165,-13.6695
231,-671,5.66663,15.3348,0,0,0,0,0,0,0,-1,1455,1695,5.66667,-15.3349
238,-671,6.32959,16.2036,0,0,0,0,0,0,0,-1,1462,1695,6.32961,-16.2037
245,-671,11.9244,57.5367,0,0,0,0,0,0,0,-1,1469,1695,11.9245,-57.5367
252,-671,12.3114,66.0448,0,0,0,0,0,0,0,-1,1476,1695,12.3114,-66.0448
259,-671,12.358,65.286,0,0,0,0,0,0,0,-1,1483,1695,12.3581,-65.286
266,-671,12.3677,64.5568,0.00912554,-0.00150587,-0.00073121,0.0091756,-0.00155593,-0.0683493,0.00669624,0.0280732,1490,1695,12.3677,-64.5567
273,-671,12.4418,64.0189,0.00881251,-0.00148834,-0.000767062,0.00886932,-0.00154515,-0.0739225,0.00648954,0.0120703,1497,1695,12.4418,-64.0189
280,-671,12.4619,63.4729,0.00815906,-0.00142343,-0.000726253,0.00821379,-0.00147816,-0.0752171,0.00602928,0.0121592,1504,1695,12.462,-63.4729
287,-671,12.4519,62.8333,0.007445,-0.00117541,-0.00068265,0.00749873,-0.00122913,-0.0785375,0.00545522,0.0135613,1511,1695,12.4519,-62.8332
294,-671,12.443,62.2596,0.00671932,-0.000952044,-0.000668483,0.00677714,-0.00100986,-0.0862734,0.0048896,0.0127615,1518,1695,12.443,-62.2597
301,-671,12.4694,61.7135,0.00585164,-0.000346549,-0.000705353,0.0059309,-0.000425804,-0.111894,0.00410324,0.0120081,1525,1695,12.4694,-61.7135
308,-671,12.4803,61.1337,0.00492566,0.000175123,-0.000770118,0.00504738,5.33974e-05,-0.156765,0.00334726,0.0126828,1532,1695,12.4804,-61.1337
315,-671,12.507,60.5564,0.0039844,0.000709164,-0.000834274,0.00418466,0.000508901,-0.235587,0.00263656,0.0135739,1539,1695,12.5069,-60.5564
322,-671,12.512,59.9891,0.00311475,0.00122115,-0.000950724,0.00350971,0.000826196,-0.393732,0.0021188,0.0160387,1546,1695,12.5119,-59.9891
329,-671,12.4364,59.3529,0.00235175,0.00162942,-0.00112105,0.00316837,0.000812796,-0.629563,0.00190017,0.0157347,1553,1695,12.4363,-59.3529
336,-671,12.4178,58.6788,0.00171229,0.00197698,-0.00125369,0.00310529,0.000583973,-0.837985,0.0019056,0.0121515,1560,1695,12.4179,-58.6789
343,-671,12.4546,57.999,0.00115415,0.00215236,-0.00141165,0.00315054,0.000155972,-0.955321,0.00205035,0.0122781,1567,1695,12.4546,-57.999
350,-671,12.4003,57.3837,0.00078173,0.00215895,-0.00160774,0.00321935,-0.000278665,-0.987733,0.00224489,0.0130817,1574,1695,12.4002,-57.3836
357,-671,12.3601,56.6891,0.000679247,0.00174039,-0.00186276,0.00314666,-0.000727026,-0.92414,0.00237746,0.0121923,1581,1695,12.3601,-56.689
364,-671,12.3195,56.032,0.000650355,0.00109135,-0.0020498,0.00293248,-0.00119077,-0.838977,0.00245033,0.0131349,1588,1695,12.3195,-56.0319
371,-671,12.2797,55.3848,0.00083003,0.000408493,-0.00229692,0.00292583,-0.0016873,-0.739646,0.0026952,0.0153688,1595,1695,12.2796,-55.3848
378,-671,12.246,54.7069,0.00123112,-0.000333195,-0.00254705,0.0031134,-0.00221548,-0.636427,0.00309115,0.0134479,1602,1695,12.246,-54.707
385,-671,12.201,53.9908,0.00190898,-0.00107349,-0.00297127,0.00374223,-0.00290674,-0.552821,0.00384888,0.0150487,1609,1695,12.2011,-53.9908
392,-671,12.1337,53.3373,0.00274356,-0.00181711,-0.00349631,0.00463744,-0.003711,-0.496434,0.00482985,0.0197298,1616,1695,12.1336,-53.3373
399,-671,12.0731,52.65,0.00380168,-0.00261009,-0.00416663,0.00585303,-0.00466144,-0.457491,0.00608351,0.016821,1623,1695,12.0731,-52.6501
406,-671,12.0847,51.9337,0.00508706,-0.00298824,-0.00488024,0.00738339,-0.00528457,-0.439801,0.00734723,0.0254692,1630,1695,12.0847,-51.9337
413,-671,12.0625,51.3297,0.00662832,-0.00349638,-0.00585334,0.00930477,-0.00617283,-0.428868,0.00899677,0.0416867,1637,1695,12.0625,-51.3298
420,-671,12.1891,50.5673,0,0,0,0,0,0,0,-1,1644,1695,12.1891,-50.5673
427,-671,11.9879,42.9364,0,0,0,0,0,0,0,-1,1651,1695,11.988,-42.9364
434,-671,12.0647,42.6493,0,0,0,0,0,0,0,-1,1658,1695,12.0648,-42.6493
441,-671,11.8904,39.6104,0,0,0,0,0,0,0,-1,1665,1695,11.8904,-39.6103
448,-671,11.6979,39.1995,0,0,0,0,0,0,0,-1,1672,1695,11.6979,-39.1994
455,-671,11.5221,39.0929,0,0,0,0,0,0,0,-1,1679,1695,11.5221,-39.0929
462,-671,5.86255,4.47961,0,0,0,0,0,0,0,-1,1686,1695,5.8625,-4.4796
469,-671,3.71301,3.76978,0,0,0,0,0,0,0,-1,1693,1695,3.71297,-3.76974
476,-671,3.75574,3.18848,0,0,0,0,0,0,0,-1,1700,1695,3.7558,-3.18847
483,-671,7.81824,12.1041,0,0,0,0,0,0,0,-1,1707,1695,7.81826,-12.1041
490,-671,0,0,0,0,0,0,0,0,0,-1,1714,1695,0,0
497,-671,0,0,0,0,0,0,0,0,0,-1,1721,1695,0,0
504,-671,0,0,0,0,0,0,0,0,0,-1,1728,1695,0,0
511,-671,0,0,0,0,0,0,0,0,0,-1,1735,1695,0,0
518,-671,0,0,0,0,0,0,0,0,0,-1,1742,1695,0,0
525,-671,0,0,0,0,0,0,0,0,0,-1,1749,1695,0,0
532,-671,0,0,0,0,0,0,0,0,0,-1,1756,1695,0,0
539,-671,0,0,0,0,0,0,0,0,0,-1,1763,1695,0,0
546,-671,0,0,0,0,0,0,0,0,0,-1,1770,1695,0,0
553,-671,0,0,0,0,0,0,0,0,0,-1,1777,1695,0,0
560,-671,0,0,0,0,0,0,0,0,0,-1,1784,1695,0,0
567,-671,0,0,0,0,0,0,0,0,0,-1,1791,1695,0,0
574,-671,0,0,0,0,0,0,0,0,0,-1,1798,1695,0,0
581,-671,0,0,0,0,0,0,0,0,0,-1,1805,1695,0,0
588,-671,0,0,0,0,0,0,0,0,0,-1,1812,1695,0,0
595,-671,0,0,0,0,0,0,0,0,0,-1,1819,1695,0,0
602,-671,0,0,0,0,0,0,0,0,0,-1,1826,1695,0,0
609,-671,0,0,0,0,0,0,0,0,0,-1,1833,1695,0,0
616,-671,0,0,0,0,0,0,0,0,0,-1,1840,1695,0,0
623,-671,0,0,0,0,0,0,0,0,0,-1,1847,1695,0,0
630,-671,0,0,0,0,0,0,0,0,0,-1,1854,1695,0,0
637,-671,0,0,0,0,0,0,0,0,0,-1,1861,1695,0,0
644,-671,0,0,0,0,0,0,0,0,0,-1,1868,1695,0,0
651,-671,0,0,0,0,0,0,0,0,0,-1,1875,1695,0,0
658,-671,0,0,0,0,0,0,0,0,0,-1,1882,1695,0,0
665,-671,0,0,0,0,0,0,0,0,0,-1,1889,1695,0,0
672,-671,0,0,0,0,0,0,0,0,0,-1,1896,1695,0,0
679,-671,0,0,0,0,0,0,0,0,0,-1,1903,1695,0,0
686,-671,0,0,0,0,0,0,0,0,0,-1,1910,1695,0,0
693,-671,0,0,0,0,0,0,0,0,0,-1,1917,1695,0,0
700,-671,0,0,0,0,0,0,0,0,0,-1,1924,1695,0,0
707,-671,0,0,0,0,0,0,0,0,0,-1,1931,1695,0,0
714,-671,0,0,0,0,0,0,0,0,0,-1,1938,1695,0,0
721,-671,0,0,0,0,0,0,0,0,0,-1,1945,1695,0,0
728,-671,0,0,0,0,0,0,0,0,0,-1,1952,1695,0,0
735,-671,0,0,0,0,0,0,0,0,0,-1,1959,1695,0,0
742,-671,0,0,0,0,0,0,0,0,0,-1,1966,1695,0,0
749,-671,0,0,0,0,0,0,0,0,0,-1,1973,1695,0,0
756,-671,0,0,0,0,0,0,0,0,0,-1,1980,1695,0,0
763,-671,0,0,0,0,0,0,0,0,0,-1,1987,1695,0,0
770,-671,0,0,0,0,0,0,0,0,0,-1,1994,1695,0,0
777,-671,0,0,0,0,0,0,0,0,0,-1,2001,1695,0,0
784,-671,0,0,0,0,0,0,0,0,0,-1,2008,1695,0,0
791,-671,0,0,0,0,0,0,0,0,0,-1,2015,1695,0,0
798,-671,0,0,0,0,0,0,0,0,0,-1,2022,1695,0,0
805,-671,0,0,0,0,0,0,0,0,0,-1,2029,1695,0,0
812,-671,0,0,0,0,0,0,0,0,0,-1,2036,1695,0,0
-700,-678,0,0,0,0,0,0,0,0,0,-1,524,1702,0,0
-693,-678,0,0,0,0,0,0,0,0,0,-1,531,1702,0,0
-686,-678,0,0,0,0,0,0,0,0,0,-1,538,1702,0,0
-679,-678,0,0,0,0,0,0,0,0,0,-1,545,1702,0,0
-672,-678,0,0,0,0,0,0,0,0,0,-1,552,1702,0,0
-665,-678,0,0,0,0,0,0,0,0,0,-1,559,1702,0,0
-658,-678,0,0,0,0,0,0,0,0,0,-1,566,1702,0,0
-651,-678,0,0,0,0,0,0,0,0,0,-1,573,1702,0,0
-644,-678,0,0,0,0,0,0,0,0,0,-1,580,1702,0,0
-637,-678,0,0,0,0,0,0,0,0,0,-1,587,1702,0,0
-630,-678,0,0,0,0,0,0,0,0,0,-1,594,1702,0,0
-623,-678,0,0,0,0,0,0,0,0,0,-1,601,1702,0,0
-616,-678,0,0,0,0,0,0,0,0,0,-1,608,1702,0,0
-609,-678,0,0,0,0,0,0,0,0,0,-1,615,1702,0,0
-602,-678,0,0,0,0,0,0,0,0,0,-1,622,1702,0,0
-595,-678,0,0,0,0,0,0,0,0,0,-1,629,1702,0,0
-588,-678,0,0,0,0,0,0,0,0,0,-1,636,1702,0,0
-581,-678,0,0,0,0,0,0,0,0,0,-1,643,1702,0,0
-574,-678,0,0,0,0,0,0,0,0,0,-1,650,1702,0,0
-567,-678,0,0,0,0,0,0,0,0,0,-1,657,1702,0,0
-560,-678,0,0,0,0,0,0,0,0,0,-1,664,1702,0,0
-553,-678,0,0,0,0,0,0,0,0,0,-1,671,1702,0,0
-546,-678,0,0,0,0,0,0,0,0,0,-1,678,1702,0,0
-539,-678,0,0,0,0,0,0,0,0,0,-1,685,1702,0,0
-532,-678,0,0,0,0,0,0,0,0,0,-1,692,1702,0,0
-525,-678,0,0,0,0,0,0,0,0,0,-1,699,1702,0,0
-518,-678,0,0,0,0,0,0,0,0,0,-1,706,1702,0,0
-511,-678,0,0,0,0,0,0,0,0,0,-1,713,1702,0,0
-504,-678,0,0,0,0,0,0,0,0,0,-1,720,1702,0,0
-497,-678,0,0,0,0,0,0,0,0,0,-1,727,1702,0,0
-490,-678,0,0,0,0,0,0,0,0,0,-1,734,1702,0,0
-483,-678,0,0,0,0,0,0,0,0,0,-1,741,1702,0,0
-476,-678,0,0,0,0,0,0,0,0,0,-1,748,1702,0,0
-469,-678,0,0,0,0,0,0,0,0,0,-1,755,1702,0,0
-462,-678,0,0,0,0,0,0,0,0,0,-1,762,1702,0,0
-455,-678,0,0,0,0,0,0,0,0,0,-1,769,1702,0,0
-448,-678,0,0,0,0,0,0,0,0,0,-1,776,1702,0,0
-441,-678,0,0,0,0,0,0,0,0,0,-1,783,1702,0,0
-434,-678,0,0,0,0,0,0,0,0,0,-1,790,1702,0,0
-427,-678,0,0,0,0,0,0,0,0,0,-1,797,1702,0,0
-420,-678,0,0,0,0,0,0,0,0,0,-1,804,1702,0,0
-413,-678,0,0,0,0,0,0,0,0,0,-1,811,1702,0,0
-406,-678,0,0,0,0,0,0,0,0,0,-1,818,1702,0,0
-399,-678,0,0,0,0,0,0,0,0,0,-1,825,1702,0,0
-392,-678,0,0,0,0,0,0,0,0,0,-1,832,1702,0,0
-385,-678,0,0,0,0,0,0,0,0,0,-1,839,1702,0,0
-378,-678,0,0,0,0,0,0,0,0,0,-1,846,1702,0,0
-371,-678,0,0,0,0,0,0,0,0,0,-1,853,1702,0,0
-364,-678,0,0,0,0,0,0,0,0,0,-1,860,1702,0,0
-357,-678,0,0,0,0,0,0,0,0,0,-1,867,1702,0,0
-350,-678,-5.79944,6.11865,0,0,0,0,0,0,0,-1,874,1702,-5.79942,-6.11864
-343,-678,8.83331,46.1378,0,0,0,0,0,0,0,-1,881,1702,8.83334,-46.1378
-336,-678,7.73517,46.2286,0,0,0,0,0,0,0,-1,888,1702,7.73516,-46.2286
-329,-678,6.11768,46.3923,0,0,0,0,0,0,0,-1,895,1702,6.11768,-46.3923
-322,-678,8.50494,35.5048,0,0,0,0,0,0,0,-1,902,1702,8.50495,-35.5047
-315,-678,4.74438,49.7659,0,0,0,0,0,0,0,-1,909,1702,4.74436,-49.7659
-308,-678,5.36475,49.9814,0,0,0,0,0,0,0,-1,916,1702,5.36476,-49.9815
-301,-678,6.24634,50.3003,0,0,0,0,0,0,0,-1,923,1702,6.24634,-50.3003
-294,-678,7.40845,50.7024,0,0,0,0,0,0,0,-1,930,1702,7.40846,-50.7024
-287,-678,6.99902,51.8375,0,0,0,0,0,0,0,-1,937,1702,6.99904,-51.8375
-280,-678,6.67218,52.4701,-0.0165728,0.0127022,-0.00312803,0.0130327,-0.0169033,-1.46553,0.0173316,0.0479061,944,1702,6.67216,-52.4701
-273,-678,6.58545,52.8464,-0.0146685,0.0120357,-0.00201651,0.0121871,-0.0148199,-1.49585,0.0156172,0.0477396,951,1702,6.58546,-52.8464
-266,-678,6.48895,53.72,-0.0127185,0.0113152,-0.000990233,0.011356,-0.0127592,-1.52969,0.0139308,0.0374908,958,1702,6.48898,-53.7199
-259,-678,6.46783,54.52,-0.010807,0.0101388,-1.95157e-05,0.0101388,-0.0108071,-1.56986,0.0120952,0.0228854,965,1702,6.46783,-54.52
-252,-678,6.44073,55.2295,-0.00907297,0.00917417,0.000491412,0.00918739,-0.00908619,1.54389,0.0105503,0.0189539,972,1702,6.44076,-55.2295
-245,-678,6.36584,55.929,-0.00781841,0.00829241,0.000839907,0.00833608,-0.00786207,1.51885,0.00935334,0.0204366,979,1702,6.36585,-55.929
-238,-678,6.31671,56.6317,-0.00657117,0.00688837,0.00136148,0.00702471,-0.00670751,1.47099,0.007929,0.0162794,986,1702,6.31672,-56.6318
-231,-678,6.27289,57.3026,-0.00537406,0.00589686,0.00159658,0.00611866,-0.00559586,1.43276,0.00676562,0.0138274,993,1702,6.2729,-57.3026
-224,-678,6.20764,57.9182,-0.0042689,0.00520129,0.00176179,0.00551842,-0.00458603,1.3927,0.00584208,0.0142177,1000,1702,6.20763,-57.9182
-217,-678,6.17792,58.5701,-0.00329918,0.00426467,0.00174712,0.00464872,-0.00368324,1.35442,0.00482121,0.0154317,1007,1702,6.17794,-58.5701
-210,-678,6.13342,59.2853,-0.00238759,0.00357052,0.00166592,0.00400468,-0.00282176,1.31585,0.00396092,0.016699,1014,1702,6.13345,-59.2852
-203,-678,6.13245,59.916,-0.00152005,0.00272314,0.0015915,0.00325372,-0.00205063,1.249,0.00308861,0.0222084,1021,1702,6.13242,-59.9161
-196,-678,6.0968,60.5278,-0.000693384,0.00214287,0.00140241,0.00271919,-0.00126971,1.18088,0.00235313,0.0215808,1028,1702,6.09678,-60.5278
-189,-678,6.03784,61.1555,-8.74525e-06,0.00179108,0.00114678,0.00234888,-0.000566553,1.11808,0.001785,0.0113573,1035,1702,6.03781,-61.1555
-182,-678,6.03113,61.7642,0.000555333,0.00160218,0.000804001,0.00203812,0.000119386,1.07394,0.00132075,0.00991643,1042,1702,6.03115,-61.7641
-175,-678,6.01331,62.3539,0.00122123,0.0015845,0.000533706,0.00196663,0.000839095,0.949415,0.0011395,0.0110824,1049,1702,6.01333,-62.3539
-168,-678,5.98218,62.9137,0.00161029,0.00161839,0.000139575,0.00175398,0.00147471,0.7999,0.00108824,0.0106889,1056,1702,5.98217,-62.9137
-161,-678,5.96655,63.4635,0.00188413,0.00180283,-0.000245447,0.00209227,0.00159469,-0.703328,0.00126212,0.0100259,1063,1702,5.9665,-63.4634
-154,-678,5.97937,64.0199,0.00221112,0.00215231,-0.00062929,0.00281169,0.00155174,-0.762054,0.00162624,0.00907541,1070,1702,5.97941,-64.02
-147,-678,5.97266,64.5723,0.00263943,0.00267036,-0.000972501,0.00362752,0.00168227,-0.793348,0.00209618,0.0105307,1077,1702,5.97267,-64.5723
-140,-678,6.01526,65.0885,0.003081,0.00316917,-0.00129096,0.0044168,0.00183338,-0.802465,0.00256227,0.0121881,1084,1702,6.01525,-65.0885
-133,-678,6.04419,65.5742,0.00355364,0.00372421,-0.00149904,0.00514039,0.00213746,-0.813813,0.00298179,0.0134959,1091,1702,6.04421,-65.5742
-126,-678,6.04297,66.1191,0.00414975,0.004094,-0.00164151,0.00576362,0.00248012,-0.776908,0.00333839,0.0201276,1098,1702,6.04301,-66.1191
-119,-678,6.11182,66.574,0,0,0,0,0,0,0,-1,1105,1702,6.11186,-66.574
-112,-678,6.13232,67.0431,0,0,0,0,0,0,0,-1,1112,1702,6.13235,-67.0431
-105,-678,6.05249,67.597,0,0,0,0,0,0,0,-1,1119,1702,6.05245,-67.597
-98,-678,6.16968,68.1152,0,0,0,0,0,0,0,-1,1126,1702,6.16971,-68.1152
-91,-678,6.35999,68.2935,0,0,0,0,0,0,0,-1,1133,1702,6.35999,-68.2934
-84,-678,6.58545,36.5073,0,0,0,0,0,0,0,-1,1140,1702,6.58544,-36.5073
-77,-678,5.95154,29.1879,0,0,0,0,0,0,0,-1,1147,1702,5.95156,-29.1878
-70,-678,4.75891,19.6552,0,0,0,0,0,0,0,-1,1154,1702,4.75895,-19.6551
-63,-678,3.41687,11.0365,0,0,0,0,0,0,0,-1,1161,1702,3.41682,-11.0365
-56,-678,1.72388,6.13159,0,0,0,0,0,0,0,-1,1168,1702,1.72388,-6.13157
-49,-678,-0.241699,5.29895,0,0,0,0,0,0,0,-1,1175,1702,-0.241682,-5.29897
-42,-678,0.297119,3.90649,0,0,0,0,0,0,0,-1,1182,1702,0.297139,-3.90655
-35,-678,0.498413,3.64038,0,0,0,0,0,0,0,-1,1189,1702,0.498471,-3.64038
-28,-678,0.132446,3.55994,0,0,0,0,0,0,0,-1,1196,1702,0.132432,-3.55993
-21,-678,7.18152,70.9167,0,0,0,0,0,0,0,-1,1203,1702,7.18155,-70.9167
-14,-678,7.37073,70.9305,0.0459064,0.0291904,-0.0453139,0.0836267,-0.00852983,-0.6942,0.058801,0.0419715,1210,1702,7.37072,-70.9305
-7,-678,7.56409,70.924,0.0447865,0.0259666,-0.0446566,0.0810138,-0.0102608,-0.681558,0.0577342,0.0459201,1217,1702,7.56412,-70.924
0,-678,7.92236,70.9147,0.0442486,0.0235785,-0.0446133,0.0797084,-0.0118812,-0.671576,0.0575099,0.0477655,1224,1702,7.92237,-70.9147
7,-678,8.24915,70.9487,0,0,0,0,0,0,0,-1,1231,1702,8.24914,-70.9488
14,-678,8.67883,70.7275,0,0,0,0,0,0,0,-1,1238,1702,8.67881,-70.7275
21,-678,9.03369,70.5446,0,0,0,0,0,0,0,-1,1245,1702,9.0337,-70.5445
28,-678,9.50293,69.6952,0,0,0,0,0,0,0,-1,1252,1702,9.50291,-69.6952
35,-678,8.71729,69.4327,0,0,0,0,0,0,0,-1,1259,1702,8.71731,-69.4328
42,-678,8.42065,68.8577,0,0,0,0,0,0,0,-1,1266,1702,8.42068,-68.8577
49,-678,11.8754,65.3395,0,0,0,0,0,0,0,-1,1273,1702,11.8753,-65.3395
56,-678,13.7898,72.2593,0,0,0,0,0,0,0,-1,1280,1702,13.7898,-72.2593
63,-678,9.49341,65.4564,0,0,0,0,0,0,0,-1,1287,1702,9.49343,-65.4564
70,-678,9.38672,65.2731,0,0,0,0,0,0,0,-1,1294,1702,9.38667,-65.2731
77,-678,9.26331,65.3456,0,0,0,0,0,0,0,-1,1301,1702,9.26336,-65.3455
84,-678,9.22815,71.1627,0,0,0,0,0,0,0,-1,1308,1702,9.22813,-71.1627
91,-678,9.75488,71.1111,0,0,0,0,0,0,0,-1,1315,1702,9.7549,-71.1111
98,-678,9.39221,71.1537,0,0,0,0,0,0,0,-1,1322,1702,9.39222,-71.1537
105,-678,9.02954,71.1963,0,0,0,0,0,0,0,-1,1329,1702,9.02955,-71.1963
112,-678,8.5979,71.614,-0.0266838,-0.031172,-0.0116795,-0.0170348,-0.040821,-0.690485,0.0236752,0.041929,1336,1702,8.59786,-71.614
119,-678,8.40808,71.7216,-0.0327564,-0.0350652,-0.0125871,-0.0212708,-0.0465507,-0.739669,0.0269093,0.0430495,1343,1702,8.40809,-71.7216
126,-678,8.15332,72.158,0,0,0,0,0,0,0,-1,1350,1702,8.15326,-72.158
133,-678,7.90759,72.7079,0,0,0,0,0,0,0,-1,1357,1702,7.90763,-72.7079
140,-678,7.95166,73.1261,0,0,0,0,0,0,0,-1,1364,1702,7.95166,-73.1261
147,-678,7.71057,73.7241,0,0,0,0,0,0,0,-1,1371,1702,7.71055,-73.7241
154,-678,7.49341,74.2567,0,0,0,0,0,0,0,-1,1378,1702,7.49344,-74.2567
161,-678,8.81226,34.8624,0,0,0,0,0,0,0,-1,1385,1702,8.81229,-34.8624
168,-678,4.21863,5.25781,0,0,0,0,0,0,0,-1,1392,1702,4.21865,-5.25781
175,-678,5.21899,5.9635,0,0,0,0,0,0,0,-1,1399,1702,5.21894,-5.96346
182,-678,7.31262,6.75122,0,0,0,0,0,0,0,-1,1406,1702,7.3126,-6.75123
189,-678,5.96021,6.36853,0,0,0,0,0,0,0,-1,1413,1702,5.96018,-6.36851
196,-678,5.01599,8.15771,0,0,0,0,0,0,0,-1,1420,1702,5.01596,-8.15767
203,-678,4.64771,13.0559,0,0,0,0,0,0,0,-1,1427,1702,4.64766,-13.0559
210,-678,5.6532,18.5957,0,0,0,0,0,0,0,-1,1434,1702,5.65318,-18.5958
217,-678,6.88049,23.4835,0,0,0,0,0,0,0,-1,1441,1702,6.88047,-23.4835
224,-678,8.521,32.0977,0,0,0,0,0,0,0,-1,1448,1702,8.52098,-32.0977
231,-678,9.96838,42.3734,0,0,0,0,0,0,0,-1,1455,1702,9.96844,-42.3734
238,-678,11.6591,66.7893,0,0,0,0,0,0,0,-1,1462,1702,11.6591,-66.7893
245,-678,11.8607,66.1074,0,0,0,0,0,0,0,-1,1469,1702,11.8607,-66.1074
252,-678,11.8387,65.632,0.00777303,-0.00118314,-0.000496139,0.00780043,-0.00121054,-0.0551713,0.00564721,0.0279204,1476,1702,11.8388,-65.632
259,-678,11.8506,65.1278,0.00715913,-0.000841125,-0.000530825,0.0071942,-0.000876192,-0.0659655,0.00511328,0.0195025,1483,1702,11.8505,-65.1278
266,-678,11.9052,64.5597,0.00664873,-0.000751914,-0.000761167,0.00672621,-0.00082939,-0.101436,0.00478462,0.0146431,1490,1702,11.9051,-64.5597
273,-678,11.9219,64.0236,0.0063188,-0.000678891,-0.000857213,0.00642227,-0.000782369,-0.120133,0.00456471,0.0123623,1497,1702,11.9219,-64.0236
280,-678,11.9108,63.4911,0.00573314,-0.000597102,-0.00089537,0.00585735,-0.000721309,-0.137842,0.0041662,0.01249,1504,1702,11.9107,-63.4911
287,-678,11.9187,62.9252,0.0050923,-0.00041517,-0.000903248,0.00523666,-0.000559523,-0.158475,0.00369177,0.0123989,1511,1702,11.9187,-62.9252
294,-678,11.9031,62.3401,0.00442814,-0.000240564,-0.000893926,0.00459345,-0.000405873,-0.182858,0.00320616,0.0133533,1518,1702,11.9031,-62.3401
301,-678,11.8739,61.7599,0.00365062,0.000123311,-0.000941996,0.00388643,-0.000112493,-0.245283,0.00262925,0.0130834,1525,1702,11.8739,-61.7599
308,-678,11.8658,61.1653,0.0028554,0.000494085,-0.00102211,0.00323637,0.00011312,-0.356773,0.00212088,0.0140181,1532,1702,11.8658,-61.1652
315,-678,11.8854,60.5751,0.00209445,0.000894052,-0.00107628,0.00272657,0.000261934,-0.531044,0.001737,0.0148824,1539,1702,11.8854,-60.5751
322,-678,11.8456,60.0034,0.00140528,0.00128385,-0.00119511,0.00254122,0.000147918,-0.760018,0.00164705,0.0181569,1546,1702,11.8456,-60.0035
329,-678,11.812,59.3655,0.000783273,0.00161429,-0.00136254,0.00262327,-0.000225708,-0.933395,0.00182873,0.01606,1553,1702,11.8121,-59.3655
336,-678,11.7747,58.6985,0.000282076,0.00193125,-0.00151658,0.00283292,-0.000619594,-1.0344,0.00212547,0.0132847,1560,1702,11.7747,-58.6984
343,-678,11.8009,58.0433,-0.000117846,0.00211671,-0.00170752,0.00304,-0.00104114,-1.0751,0.00244864,0.0143697,1567,1702,11.8009,-58.0433
350,-678,11.7649,57.3984,-0.000290765,0.00216675,-0.00193183,0.0032275,-0.00135151,-1.06865,0.00271664,0.0145241,1574,1702,11.7649,-57.3984
357,-678,11.6993,56.7469,-0.000116605,0.00174257,-0.00226392,0.00326033,-0.00163436,-0.980207,0.00287745,0.0107308,1581,1702,11.6993,-56.7469
364,-678,11.6648,56.1027,7.06891e-05,0.0011871,-0.00251659,0.00320665,-0.00194886,-0.894537,0.00300592,0.0112698,1588,1702,11.6648,-56.1027
371,-678,11.6201,55.4249,0.00048526,0.000578889,-0.00287496,0.00340741,-0.00234326,-0.793539,0.00333905,0.0125125,1595,1702,11.6201,-55.425
378,-678,11.5714,54.7455,0.00116902,-0.000161955,-0.00324549,0.00381655,-0.00280949,-0.684275,0.00384025,0.0133987,1602,1702,11.5714,-54.7455
385,-678,11.5612,54.0621,0.00217197,-0.00097171,-0.00379994,0.00471233,-0.00351207,-0.58929,0.00476519,0.0136604,1609,1702,11.5612,-54.0621
392,-678,11.5391,53.3969,0.00343023,-0.00184176,-0.00447055,0.00598406,-0.00439559,-0.519016,0.00601604,0.023661,1616,1702,11.5391,-53.3968
399,-678,11.4905,52.7538,0.00502996,-0.00295216,-0.00531393,0.00768468,-0.00560687,-0.46331,0.00770508,0.035675,1623,1702,11.4904,-52.7538
406,-678,11.7211,52.2339,0.00675935,-0.00376051,-0.00606873,0.00953038,-0.00653154,-0.428336,0.00932708,0.0468982,1630,1702,11.7211,-52.2339
413,-678,11.8562,51.4867,0,0,0,0,0,0,0,-1,1637,1702,11.8562,-51.4867
420,-678,11.2355,43.032,0,0,0,0,0,0,0,-1,1644,1702,11.2355,-43.032
427,-678,10.0541,38.9548,0,0,0,0,0,0,0,-1,1651,1702,10.0541,-38.9548
434,-678,10.1094,38.722,0,0,0,0,0,0,0,-1,1658,1702,10.1094,-38.7221
441,-678,11.6007,39.4658,0,0,0,0,0,0,0,-1,1665,1702,11.6007,-39.4658
448,-678,11.344,38.9084,0,0,0,0,0,0,0,-1,1672,1702,11.344,-38.9084
455,-678,5.44678,5.54297,0,0,0,0,0,0,0,-1,1679,1702,5.44676,-5.54294
462,-678,3.86792,2.87402,0,0,0,0,0,0,0,-1,1686,1702,3.86796,-2.87406
469,-678,2.26587,1.98755,0,0,0,0,0,0,0,-1,1693,1702,2.26592,-1.98755
476,-678,0,0,0,0,0,0,0,0,0,-1,1700,1702,0,0
483,-678,0,0,0,0,0,0,0,0,0,-1,1707,1702,0,0
490,-678,0,0,0,0,0,0,0,0,0,-1,1714,1702,0,0
497,-678,0,0,0,0,0,0,0,0,0,-1,1721,1702,0,0
504,-678,0,0,0,0,0,0,0,0,0,-1,1728,1702,0,0
511,-678,0,0,0,0,0,0,0,0,0,-1,1735,1702,0,0
518,-678,0,0,0,0,0,0,0,0,0,-1,1742,1702,0,0
525,-678,0,0,0,0,0,0,0,0,0,-1,1749,1702,0,0
532,-678,0,0,0,0,0,0,0,0,0,-1,1756,1702,0,0
539,-678,0,0,0,0,0,0,0,0,0,-1,1763,1702,0,0
546,-678,0,0,0,0,0,0,0,0,0,-1,1770,1702,0,0
553,-678,0,0,0,0,0,0,0,0,0,-1,1777,1702,0,0
560,-678,0,0,0,0,0,0,0,0,0,-1,1784,1702,0,0
567,-678,0,0,0,0,0,0,0,0,0,-1,1791,1702,0,0
574,-678,0,0,0,0,0,0,0,0,0,-1,1798,1702,0,0
581,-678,0,0,0,0,0,0,0,0,0,-1,1805,1702,0,0
588,-678,0,0,0,0,0,0,0,0,0,-1,1812,1702,0,0
595,-678,0,0,0,0,0,0,0,0,0,-1,1819,1702,0,0
602,-678,0,0,0,0,0,0,0,0,0,-1,1826,1702,0,0
609,-678,0,0,0,0,0,0,0,0,0,-1,1833,1702,0,0
616,-678,0,0,0,0,0,0,0,0,0,-1,1840,1702,0,0
623,-678,0,0,0,0,0,0,0,0,0,-1,1847,1702,0,0
630,-678,0,0,0,0,0,0,0,0,0,-1,1854,1702,0,0
637,-678,0,0,0,0,0,0,0,0,0,-1,1861,1702,0,0
644,-678,0,0,0,0,0,0,0,0,0,-1,1868,1702,0,0
651,-678,0,0,0,0,0,0,0,0,0,-1,1875,1702,0,0
658,-678,0,0,0,0,0,0,0,0,0,-1,1882,1702,0,0
665,-678,0,0,0,0,0,0,0,0,0,-1,1889,1702,0,0
672,-678,0,0,0,0,0,0,0,0,0,-1,1896,1702,0,0
679,-678,0,0,0,0,0,0,0,0,0,-1,1903,1702,0,0
686,-678,0,0,0,0,0,0,0,0,0,-1,1910,1702,0,0
693,-678,0,0,0,0,0,0,0,0,0,-1,1917,1702,0,0
700,-678,0,0,0,0,0,0,0,0,0,-1,1924,1702,0,0
707,-678,0,0,0,0,0,0,0,0,0,-1,1931,1702,0,0
714,-678,0,0,0,0,0,0,0,0,0,-1,1938,1702,0,0
721,-678,0,0,0,0,0,0,0,0,0,-1,1945,1702,0,0
728,-678,0,0,0,0,0,0,0,0,0,-1,1952,1702,0,0
735,-678,0,0,0,0,0,0,0,0,0,-1,1959,1702,0,0
742,-678,0,0,0,0,0,0,0,0,0,-1,1966,1702,0,0
749,-678,0,0,0,0,0,0,0,0,0,-1,1973,1702,0,0
756,-678,0,0,0,0,0,0,0,0,0,-1,1980,1702,0,0
763,-678,0,0,0,0,0,0,0,0,0,-1,1987,1702,0,0
770,-678,0,0,0,0,0,0,0,0,0,-1,1994,1702,0,0
777,-678,0,0,0,0,0,0,0,0,0,-1,2001,1702,0,0
784,-678,0,0,0,0,0,0,0,0,0,-1,2008,1702,0,0
791,-678,0,0,0,0,0,0,0,0,0,-1,2015,1702,0,0
798,-678,0,0,0,0,0,0,0,0,0,-1,2022,1702,0,0
805,-678,0,0,0,0,0,0,0,0,0,-1,2029,1702,0,0
812,-678,0,0,0,0,0,0,0,0,0,-1,2036,1702,0,0
-700,-685,0,0,0,0,0,0,0,0,0,-1,524,1709,0,0
-693,-685,0,0,0,0,0,0,0,0,0,-1,531,1709,0,0
-686,-685,0,0,0,0,0,0,0,0,0,-1,538,1709,0,0
-679,-685,0,0,0,0,0,0,0,0,0,-1,545,1709,0,0
-672,-685,0,0,0,0,0,0,0,0,0,-1,552,1709,0,0
-665,-685,0,0,0,0,0,0,0,0,0,-1,559,1709,0,0
-658,-685,0,0,0,0,0,0,0,0,0,-1,566,1709,0,0
-651,-685,0,0,0,0,0,0,0,0,0,-1,573,1709,0,0
-644,-685,0,0,0,0,0,0,0,0,0,-1,580,1709,0,0
-637,-685,0,0,0,0,0,0,0,0,0,-1,587,1709,0,0
-630,-685,0,0,0,0,0,0,0,0,0,-1,594,1709,0,0
-623,-685,0,0,0,0,0,0,0,0,0,-1,601,1709,0,0
-616,-685,0,0,0,0,0,0,0,0,0,-1,608,1709,0,0
-609,-685,0,0,0,0,0,0,0,0,0,-1,615,1709,0,0
-602,-685,0,0,0,0,0,0,0,0,0,-1,622,1709,0,0
-595,-685,0,0,0,0,0,0,0,0,0,-1,629,1709,0,0
-588,-685,0,0,0,0,0,0,0,0,0,-1,636,1709,0,0
-581,-685,0,0,0,0,0,0,0,0,0,-1,643,1709,0,0
-574,-685,0,0,0,0,0,0,0,0,0,-1,650,1709,0,0
-567,-685,0,0,0,0,0,0,0,0,0,-1,657,1709,0,0
-560,-685,0,0,0,0,0,0,0,0,0,-1,664,1709,0,0
-553,-685,0,0,0,0,0,0,0,0,0,-1,671,1709,0,0
-546,-685,0,0,0,0,0,0,0,0,0,-1,678,1709,0,0
-539,-685,0,0,0,0,0,0,0,0,0,-1,685,1709,0,0
-532,-685,0,0,0,0,0,0,0,0,0,-1,692,1709,0,0
-525,-685,0,0,0,0,0,0,0,0,0,-1,699,1709,0,0
-518,-685,0,0,0,0,0,0,0,0,0,-1,706,1709,0,0
-511,-685,0,0,0,0,0,0,0,0,0,-1,713,1709,0,0
-504,-685,0,0,0,0,0,0,0,0,0,-1,720,1709,0,0
-497,-685,0,0,0,0,0,0,0,0,0,-1,727,1709,0,0
-490,-685,0,0,0,0,0,0,0,0,0,-1,734,1709,0,0
-483,-685,0,0,0,0,0,0,0,0,0,-1,741,1709,0,0
-476,-685,0,0,0,0,0,0,0,0,0,-1,748,1709,0,0
-469,-685,0,0,0,0,0,0,0,0,0,-1,755,1709,0,0
-462,-685,0,0,0,0,0,0,0,0,0,-1,762,1709,0,0
-455,-685,0,0,0,0,0,0,0,0,0,-1,769,1709,0,0
-448,-685,0,0,0,0,0,0,0,0,0,-1,776,1709,0,0
-441,-685,0,0,0,0,0,0,0,0,0,-1,783,1709,0,0
-434,-685,0,0,0,0,0,0,0,0,0,-1,790,1709,0,0
-427,-685,0,0,0,0,0,0,0,0,0,-1,797,1709,0,0
-420,-685,0,0,0,0,0,0,0,0,0,-1,804,1709,0,0
-413,-685,0,0,0,0,0,0,0,0,0,-1,811,1709,0,0
-406,-685,0,0,0,0,0,0,0,0,0,-1,818,1709,0,0
-399,-685,0,0,0,0,0,0,0,0,0,-1,825,1709,0,0
-392,-685,0,0,0,0,0,0,0,0,0,-1,832,1709,0,0
-385,-685,0,0,0,0,0,0,0,0,0,-1,839,1709,0,0
-378,-685,0,0,0,0,0,0,0,0,0,-1,846,1709,0,0
-371,-685,0,0,0,0,0,0,0,0,0,-1,853,1709,0,0
-364,-685,0,0,0,0,0,0,0,0,0,-1,860,1709,0,0
-357,-685,0,0,0,0,0,0,0,0,0,-1,867,1709,0,0
-350,-685,0,0,0,0,0,0,0,0,0,-1,874,1709,0,0
-343,-685,-5.98505,6.56335,0,0,0,0,0,0,0,-1,881,1709,-5.98505,-6.56329
-336,-685,-6.51312,5.10571,0,0,0,0,0,0,0,-1,888,1709,-6.51311,-5.10575
-329,-685,9.98907,36.2474,0,0,0,0,0,0,0,-1,895,1709,9.98909,-36.2475
-322,-685,3.83191,16.7219,0,0,0,0,0,0,0,-1,902,1709,3.8319,-16.7219
-315,-685,5.15784,21.4388,0,0,0,0,0,0,0,-1,909,1709,5.15783,-21.4389
-308,-685,5.43085,50.199,0,0,0,0,0,0,0,-1,916,1709,5.43087,-50.1989
-301,-685,6.73987,50.2007,0,0,0,0,0,0,0,-1,923,1709,6.73988,-50.2007
-294,-685,7.15515,50.8179,0,0,0,0,0,0,0,-1,930,1709,7.15514,-50.8179
-287,-685,7.27496,51.303,0,0,0,0,0,0,0,-1,937,1709,7.27495,-51.303
-280,-685,7.3869,52.4899,0,0,0,0,0,0,0,-1,944,1709,7.38689,-52.4898
-273,-685,7.21344,52.6755,0,0,0,0,0,0,0,-1,951,1709,7.21347,-52.6755
-266,-685,7.37244,53.1467,0,0,0,0,0,0,0,-1,958,1709,7.37242,-53.1467
-259,-685,7.4599,54.1238,-0.0143794,0.013726,-4.26112e-05,0.013726,-0.0143795,-1.56928,0.0162282,0.0471217,965,1709,7.45989,-54.1237
-252,-685,7.31433,55.1016,-0.0122341,0.0122966,0.00069909,0.0123165,-0.012254,1.54233,0.0141858,0.0419111,972,1709,7.31431,-55.1016
-245,-685,7.15588,55.8877,-0.0107081,0.0110783,0.00119125,0.0111432,-0.010773,1.51633,0.0126539,0.0386086,979,1709,7.15589,-55.8877
-238,-685,7.06329,56.6393,-0.00916853,0.00934523,0.00186101,0.00953045,-0.00935375,1.4716,0.010903,0.02854,986,1709,7.06327,-56.6393
-231,-685,6.9201,57.3636,-0.007686,0.00807675,0.00220876,0.0083804,-0.00798965,1.43418,0.00945215,0.0184865,993,1709,6.92011,-57.3636
-224,-685,6.84265,57.9768,-0.00630604,0.0071996,0.00248276,0.00764155,-0.00674799,1.39463,0.00831314,0.0162519,1000,1709,6.84265,-57.9768
-217,-685,6.80603,58.6372,-0.00510254,0.00606621,0.00252114,0.00660894,-0.00564526,1.35876,0.00708226,0.0117209,1007,1709,6.80605,-58.6372
-210,-685,6.76886,59.345,-0.00401164,0.00525767,0.00250481,0.00589123,-0.0046452,1.32305,0.00609737,0.0170197,1014,1709,6.76883,-59.3449
-203,-685,6.74646,59.9772,-0.00298792,0.00425367,0.00250295,0.00503457,-0.00376882,1.26837,0.00510012,0.0186829,1021,1709,6.74644,-59.9772
-196,-685,6.6969,60.5741,-0.00200894,0.00357543,0.00237376,0.00444808,-0.0028816,1.21851,0.00426389,0.0154914,1028,1709,6.69688,-60.5741
-189,-685,6.62561,61.1438,-0.00116222,0.00310546,0.00216478,0.00401128,-0.00206805,1.1745,0.00356917,0.0101703,1035,1709,6.62561,-61.1438
-182,-685,6.60913,61.7495,-0.000435022,0.00268386,0.00187622,0.0035641,-0.00131526,1.13213,0.00291513,0.0135956,1042,1709,6.60914,-61.7496
-175,-685,6.59424,62.3335,0.000333101,0.00243647,0.00159721,0.00329715,-0.000527577,1.07654,0.00239342,0.0134833,1049,1709,6.59427,-62.3335
-168,-685,6.5675,62.9167,0.000793208,0.00225763,0.00120041,0.00293152,0.00011932,1.05926,0.00191581,0.0109137,1056,1709,6.5675,-62.9167
-161,-685,6.56567,63.4969,0.00108881,0.00216127,0.000799025,0.00258732,0.000662761,1.08093,0.00155187,0.0118528,1063,1709,6.56573,-63.4969
-154,-685,6.55835,64.0621,0.00143002,0.00218704,0.00035852,0.00232988,0.00128718,1.19166,0.00134762,0.0105765,1070,1709,6.55839,-64.0622
-147,-685,6.5426,64.5879,0.00188132,0.00235711,-3.58902e-05,0.0023598,0.00187863,-1.49593,0.00143986,0.0100417,1077,1709,6.5426,-64.5878
-140,-685,6.55322,65.0746,0.00235383,0.00248278,-0.000396026,0.00281955,0.00201707,-0.866093,0.00167746,0.0132078,1084,1709,6.55325,-65.0745
-133,-685,6.57703,65.5878,0.0028121,0.00267412,-0.000679351,0.00342596,0.00206027,-0.734795,0.00199148,0.012514,1091,1709,6.57705,-65.5878
-126,-685,6.56885,66.1052,0.00335071,0.00279283,-0.000913387,0.0040268,0.00211674,-0.637201,0.00232589,0.00966005,1098,1709,6.56879,-66.1052
-119,-685,6.59277,66.6041,0.00407285,0.00276179,-0.0010797,0.00468045,0.0021542,-0.512572,0.0027051,0.0140716,1105,1709,6.59274,-66.6041
-112,-685,6.59448,67.083,0.00479231,0.00261941,-0.00122731,0.00534497,0.00206676,-0.423101,0.00311223,0.0161039,1112,1709,6.59447,-67.083
-105,-685,6.57117,67.5342,0.00537235,0.00229905,-0.00127849,0.00583466,0.00183674,-0.346975,0.00344481,0.0186916,1119,1709,6.57112,-67.5342
-98,-685,6.68555,67.9009,0.00599543,0.00184941,-0.00131637,0.00637806,0.00146677,-0.28288,0.00385723,0.0267332,1126,1709,6.68549,-67.9009
-91,-685,6.75586,68.1921,0.00697319,0.00147773,-0.00154766,0.00737907,0.00107185,-0.256479,0.00460388,0.048433,1133,1709,6.75588,-68.1922
-84,-685,6.79016,68.6536,0,0,0,0,0,0,0,-1,1140,1709,6.79011,-68.6535
-77,-685,6.75745,69.188,0,0,0,0,0,0,0,-1,1147,1709,6.75743,-69.188
-70,-685,6.8927,69.7719,0,0,0,0,0,0,0,-1,1154,1709,6.89267,-69.7718
-63,-685,6.03015,29.7728,0,0,0,0,0,0,0,-1,1161,1709,6.0302,-29.7728
-56,-685,3.93909,15.8704,0,0,0,0,0,0,0,-1,1168,1709,3.93905,-15.8704
-49,-685,3.07471,9.86011,0,0,0,0,0,0,0,-1,1175,1709,3.07467,-9.86009
-42,-685,2.70618,7.54504,0,0,0,0,0,0,0,-1,1182,1709,2.7062,-7.54504
-35,-685,2.95264,7.91516,0,0,0,0,0,0,0,-1,1189,1709,2.95262,-7.91517
-28,-685,8.11353,52.4509,0,0,0,0,0,0,0,-1,1196,1709,8.1135,-52.451
-21,-685,7.7627,71.192,0,0,0,0,0,0,0,-1,1203,1709,7.7627,-71.192
-14,-685,7.72986,71.4058,0,0,0,0,0,0,0,-1,1210,1709,7.72981,-71.4058
-7,-685,7.66223,71.6616,0,0,0,0,0,0,0,-1,1217,1709,7.66224,-71.6616
0,-685,7.67126,71.8209,0,0,0,0,0,0,0,-1,1224,1709,7.67129,-71.8209
7,-685,7.78809,71.9399,0,0,0,0,0,0,0,-1,1231,1709,7.78808,-71.94
14,-685,7.99207,72.4918,0,0,0,0,0,0,0,-1,1238,1709,7.99212,-72.4918
21,-685,8.50635,72.6616,0,0,0,0,0,0,0,-1,1245,1709,8.50635,-72.6616
28,-685,8.63123,72.4607,0,0,0,0,0,0,0,-1,1252,1709,8.63122,-72.4607
35,-685,8.66248,72.527,0,0,0,0,0,0,0,-1,1259,1709,8.66251,-72.527
42,-685,8.78125,72.7421,0,0,0,0,0,0,0,-1,1266,1709,8.78126,-72.742
49,-685,8.90649,72.5875,0,0,0,0,0,0,0,-1,1273,1709,8.90652,-72.5875
56,-685,13.5603,72.4076,0,0,0,0,0,0,0,-1,1280,1709,13.5604,-72.4076
63,-685,12.9045,71.9366,0,0,0,0,0,0,0,-1,1287,1709,12.9045,-71.9367
70,-685,9.05652,72.8984,0,0,0,0,0,0,0,-1,1294,1709,9.0565,-72.8985
77,-685,9.65674,72.2759,0,0,0,0,0,0,0,-1,1301,1709,9.65677,-72.2759
84,-685,9.55383,71.7952,0,0,0,0,0,0,0,-1,1308,1709,9.55377,-71.7952
91,-685,9.80896,71.5889,0,0,0,0,0,0,0,-1,1315,1709,9.8089,-71.5889
98,-685,9.50854,71.4971,0,0,0,0,0,0,0,-1,1322,1709,9.50854,-71.497
105,-685,9.20813,71.4052,0,0,0,0,0,0,0,-1,1329,1709,9.20818,-71.4051
112,-685,9.1261,71.4534,0,0,0,0,0,0,0,-1,1336,1709,9.12612,-71.4534
119,-685,9.9552,71.6575,0,0,0,0,0,0,0,-1,1343,1709,9.95519,-71.6575
126,-685,10.156,71.4186,0,0,0,0,0,0,0,-1,1350,1709,10.156,-71.4185
133,-685,10.3604,71.2839,0,0,0,0,0,0,0,-1,1357,1709,10.3604,-71.2839
140,-685,10.3214,71.1875,0,0,0,0,0,0,0,-1,1364,1709,10.3214,-71.1875
147,-685,8.62073,73.896,0,0,0,0,0,0,0,-1,1371,1709,8.6207,-73.896
154,-685,10.0796,56.0078,0,0,0,0,0,0,0,-1,1378,1709,10.0796,-56.0079
161,-685,10.4932,55.8827,0,0,0,0,0,0,0,-1,1385,1709,10.4932,-55.8827
168,-685,4.37524,10.8778,0,0,0,0,0,0,0,-1,1392,1709,4.37525,-10.8778
175,-685,3.97522,8.94324,0,0,0,0,0,0,0,-1,1399,1709,3.97519,-8.94328
182,-685,3.98218,9.19739,0,0,0,0,0,0,0,-1,1406,1709,3.98221,-9.1974
189,-685,4.53479,15.2343,0,0,0,0,0,0,0,-1,1413,1709,4.53474,-15.2343
196,-685,10.7,69.2917,0,0,0,0,0,0,0,-1,1420,1709,10.6999,-69.2917
203,-685,10.8539,68.8472,0,0,0,0,0,0,0,-1,1427,1709,10.8539,-68.8471
210,-685,11.2656,68.3108,0,0,0,0,0,0,0,-1,1434,1709,11.2657,-68.3108
217,-685,11.2244,67.7649,0,0,0,0,0,0,0,-1,1441,1709,11.2244,-67.7648
224,-685,11.1665,67.4037,0,0,0,0,0,0,0,-1,1448,1709,11.1665,-67.4037
231,-685,11.1676,67.0002,0,0,0,0,0,0,0,-1,1455,1709,11.1676,-67.0003
238,-685,11.3224,66.5647,0.0063544,-0.00079558,-0.000305289,0.00636741,-0.000808591,-0.0425946,0.00453854,0.042967,1462,1709,11.3224,-66.5647
245,-685,11.3046,66.0441,0.00591726,-0.000524578,-0.000458066,0.00594967,-0.000556987,-0.0706344,0.00416454,0.0218114,1469,1709,11.3046,-66.044
252,-685,11.342,65.5878,0.00557227,-0.000391803,-0.000572296,0.00562669,-0.000446222,-0.0948046,0.00390837,0.0157651,1476,1709,11.3421,-65.5878
259,-685,11.3438,65.1091,0.00496813,-0.000116685,-0.00067835,0.00505707,-0.000205625,-0.13037,0.00344197,0.0121302,1483,1709,11.3437,-65.1091
266,-685,11.3505,64.5756,0.00448156,-2.51894e-05,-0.000912639,0.00465936,-0.000202989,-0.192409,0.00317607,0.0140021,1490,1709,11.3505,-64.5756
273,-685,11.3601,64.0342,0.00411819,7.93512e-05,-0.00103677,0.00436878,-0.000171241,-0.237155,0.00297125,0.0163368,1497,1709,11.3601,-64.0341
280,-685,11.327,63.489,0.00356127,0.000181,-0.00112323,0.00390047,-0.0001582,-0.293278,0.00265462,0.0173,1504,1709,11.327,-63.489
287,-685,11.325,62.9478,0.00294978,0.00031705,-0.00116718,0.00339272,-0.000125885,-0.362701,0.00230492,0.0129766,1511,1709,11.3249,-62.9478
294,-685,11.3137,62.3834,0.00229821,0.000479262,-0.00114653,0.00285219,-7.47119e-05,-0.450096,0.00192684,0.0113879,1518,1709,11.3137,-62.3834
301,-685,11.2892,61.7858,0.00158947,0.000745203,-0.00123398,0.00247152,-0.000136856,-0.620594,0.00169514,0.0135185,1525,1709,11.2892,-61.7858
308,-685,11.2919,61.1963,0.000878417,0.00110046,-0.00135328,0.00234726,-0.000368388,-0.826325,0.00170099,0.0147672,1532,1709,11.2918,-61.1963
315,-685,11.2932,60.5972,0.000243092,0.00147273,-0.00142402,0.00240899,-0.000693168,-0.989184,0.00188014,0.0130124,1539,1709,11.2932,-60.5971
322,-685,11.2523,59.98,-0.000300003,0.00184445,-0.00157566,0.0026781,-0.00113366,-1.08415,0.00226013,0.0214963,1546,1709,11.2523,-59.98
329,-685,11.2196,59.3669,-0.000809217,0.00218016,-0.00175738,0.00299252,-0.00162158,-1.1378,0.00270286,0.0203973,1553,1709,11.2196,-59.367
336,-685,11.1892,58.7172,-0.00119788,0.00253316,-0.0019469,0.00336404,-0.00202876,-1.16743,0.00314519,0.0135048,1560,1709,11.1892,-58.7172
343,-685,11.1521,58.0674,-0.00145914,0.00277484,-0.00217727,0.00369465,-0.00237895,-1.17108,0.00353391,0.0125122,1567,1709,11.152,-58.0674
350,-685,11.1051,57.4126,-0.00143889,0.00291213,-0.00242672,0.00399573,-0.00252249,-1.15083,0.0037952,0.0134247,1574,1709,11.1051,-57.4126
357,-685,11.0664,56.7913,-0.000984961,0.00251116,-0.00282401,0.00408436,-0.00255816,-1.06253,0.00386865,0.0109699,1581,1709,11.0664,-56.7912
364,-685,11.0332,56.1549,-0.000561829,0.00205281,-0.00312439,0.00413236,-0.00264138,-0.983542,0.00394227,0.0111898,1588,1709,11.0332,-56.155
371,-685,11.006,55.484,0.000121986,0.00148418,-0.00355896,0.00442663,-0.00282046,-0.879942,0.00421822,0.018751,1595,1709,11.0059,-55.4841
378,-685,10.9708,54.7771,0.00114071,0.00067266,-0.00401695,0.00493045,-0.00311708,-0.756301,0.00468539,0.0229259,1602,1709,10.9709,-54.7771
385,-685,10.9207,54.0585,0.00254033,-0.000302722,-0.0046668,0.00599731,-0.0037597,-0.637561,0.00568237,0.035246,1609,1709,10.9207,-54.0585
392,-685,10.9305,53.4174,0.00434709,-0.00142176,-0.00545075,0.00762956,-0.00470423,-0.54204,0.00718737,0.0430884,1616,1709,10.9306,-53.4174
399,-685,10.8899,52.7075,0,0,0,0,0,0,0,-1,1623,1709,10.8899,-52.7075
406,-685,11.358,52.5771,0,0,0,0,0,0,0,-1,1630,1709,11.3581,-52.5771
413,-685,10.9447,43.5477,0,0,0,0,0,0,0,-1,1637,1709,10.9447,-43.5477
420,-685,10.3047,40.3569,0,0,0,0,0,0,0,-1,1644,1709,10.3047,-40.3569
427,-685,10.7286,38.6702,0,0,0,0,0,0,0,-1,1651,1709,10.7286,-38.6702
434,-685,4.87769,8.91418,0,0,0,0,0,0,0,-1,1658,1709,4.87768,-8.91413
441,-685,5.62,8.75549,0,0,0,0,0,0,0,-1,1665,1709,5.61996,-8.75545
448,-685,6.4043,8.58972,0,0,0,0,0,0,0,-1,1672,1709,6.40435,-8.58971
455,-685,2.31958,4.09802,0,0,0,0,0,0,0,-1,1679,1709,2.31957,-4.09803
462,-685,0,0,0,0,0,0,0,0,0,-1,1686,1709,0,0
469,-685,0,0,0,0,0,0,0,0,0,-1,1693,1709,0,0
476,-685,0,0,0,0,0,0,0,0,0,-1,1700,1709,0,0
483,-685,0,0,0,0,0,0,0,0,0,-1,1707,1709,0,0
490,-685,0,0,0,0,0,0,0,0,0,-1,1714,1709,0,0
497,-685,0,0,0,0,0,0,0,0,0,-1,1721,1709,0,0
504,-685,0,0,0,0,0,0,0,0,0,-1,1728,1709,0,0
511,-685,0,0,0,0,0,0,0,0,0,-1,1735,1709,0,0
518,-685,0,0,0,0,0,0,0,0,0,-1,1742,1709,0,0
525,-685,0,0,0,0,0,0,0,0,0,-1,1749,1709,0,0
532,-685,0,0,0,0,0,0,0,0,0,-1,1756,1709,0,0
539,-685,0,0,0,0,0,0,0,0,0,-1,1763,1709,0,0
546,-685,0,0,0,0,0,0,0,0,0,-1,1770,1709,0,0
553,-685,0,0,0,0,0,0,0,0,0,-1,1777,1709,0,0
560,-685,0,0,0,0,0,0,0,0,0,-1,1784,1709,0,0
567,-685,0,0,0,0,0,0,0,0,0,-1,1791,1709,0,0
574,-685,0,0,0,0,0,0,0,0,0,-1,1798,1709,0,0
581,-685,0,0,0,0,0,0,0,0,0,-1,1805,1709,0,0
588,-685,0,0,0,0,0,0,0,0,0,-1,1812,1709,0,0
595,-685,0,0,0,0,0,0,0,0,0,-1,1819,1709,0,0
602,-685,0,0,0,0,0,0,0,0,0,-1,1826,1709,0,0
609,-685,0,0,0,0,0,0,0,0,0,-1,1833,1709,0,0
616,-685,0,0,0,0,0,0,0,0,0,-1,1840,1709,0,0
623,-685,0,0,0,0,0,0,0,0,0,-1,1847,1709,0,0
630,-685,0,0,0,0,0,0,0,0,0,-1,1854,1709,0,0
637,-685,0,0,0,0,0,0,0,0,0,-1,1861,1709,0,0
644,-685,0,0,0,0,0,0,0,0,0,-1,1868,1709,0,0
651,-685,0,0,0,0,0,0,0,0,0,-1,1875,1709,0,0
658,-685,0,0,0,0,0,0,0,0,0,-1,1882,1709,0,0
665,-685,0,0,0,0,0,0,0,0,0,-1,1889,1709,0,0
672,-685,0,0,0,0,0,0,0,0,0,-1,1896,1709,0,0
679,-685,0,0,0,0,0,0,0,0,0,-1,1903,1709,0,0
686,-685,0,0,0,0,0,0,0,0,0,-1,1910,1709,0,0
693,-685,0,0,0,0,0,0,0,0,0,-1,1917,1709,0,0
700,-685,0,0,0,0,0,0,0,0,0,-1,1924,1709,0,0
707,-685,0,0,0,0,0,0,0,0,0,-1,1931,1709,0,0
714,-685,0,0,0,0,0,0,0,0,0,-1,1938,1709,0,0
721,-685,0,0,0,0,0,0,0,0,0,-1,1945,1709,0,0
728,-685,0,0,0,0,0,0,0,0,0,-1,1952,1709,0,0
735,-685,0,0,0,0,0,0,0,0,0,-1,1959,1709,0,0
742,-685,0,0,0,0,0,0,0,0,0,-1,1966,1709,0,0
749,-685,0,0,0,0,0,0,0,0,0,-1,1973,1709,0,0
756,-685,0,0,0,0,0,0,0,0,0,-1,1980,1709,0,0
763,-685,0,0,0,0,0,0,0,0,0,-1,1987,1709,0,0
770,-685,0,0,0,0,0,0,0,0,0,-1,1994,1709,0,0
777,-685,0,0,0,0,0,0,0,0,0,-1,2001,1709,0,0
784,-685,0,0,0,0,0,0,0,0,0,-1,2008,1709,0,0
791,-685,0,0,0,0,0,0,0,0,0,-1,2015,1709,0,0
798,-685,0,0,0,0,0,0,0,0,0,-1,2022,1709,0,0
805,-685,0,0,0,0,0,0,0,0,0,-1,2029,1709,0,0
812,-685,0,0,0,0,0,0,0,0,0,-1,2036,1709,0,0
-700,-692,0,0,0,0,0,0,0,0,0,-1,524,1716,0,0
-693,-692,0,0,0,0,0,0,0,0,0,-1,531,1716,0,0
-686,-692,0,0,0,0,0,0,0,0,0,-1,538,1716,0,0
-679,-692,0,0,0,0,0,0,0,0,0,-1,545,1716,0,0
-672,-692,0,0,0,0,0,0,0,0,0,-1,552,1716,0,0
-665,-692,0,0,0,0,0,0,0,0,0,-1,559,1716,0,0
-658,-692,0,0,0,0,0,0,0,0,0,-1,566,1716,0,0
-651,-692,0,0,0,0,0,0,0,0,0,-1,573,1716,0,0
-644,-692,0,0,0,0,0,0,0,0,0,-1,580,1716,0,0
-637,-692,0,0,0,0,0,0,0,0,0,-1,587,1716,0,0
-630,-692,0,0,0,0,0,0,0,0,0,-1,594,1716,0,0
-623,-692,0,0,0,0,0,0,0,0,0,-1,601,1716,0,0
-616,-692,0,0,0,0,0,0,0,0,0,-1,608,1716,0,0
-609,-692,0,0,0,0,0,0,0,0,0,-1,615,1716,0,0
-602,-692,0,0,0,0,0,0,0,0,0,-1,622,1716,0,0
-595,-692,0,0,0,0,0,0,0,0,0,-1,629,1716,0,0
-588,-692,0,0,0,0,0,0,0,0,0,-1,636,1716,0,0
-581,-692,0,0,0,0,0,0,0,0,0,-1,643,1716,0,0
-574,-692,0,0,0,0,0,0,0,0,0,-1,650,1716,0,0
-567,-692,0,0,0,0,0,0,0,0,0,-1,657,1716,0,0
-560,-692,0,0,0,0,0,0,0,0,0,-1,664,1716,0,0
-553,-692,0,0,0,0,0,0,0,0,0,-1,671,1716,0,0
-546,-692,0,0,0,0,0,0,0,0,0,-1,678,1716,0,0
-539,-692,0,0,0,0,0,0,0,0,0,-1,685,1716,0,0
-532,-692,0,0,0,0,0,0,0,0,0,-1,692,1716,0,0
-525,-692,0,0,0,0,0,0,0,0,0,-1,699,1716,0,0
-518,-692,0,0,0,0,0,0,0,0,0,-1,706,1716,0,0
-511,-692,0,0,0,0,0,0,0,0,0,-1,713,1716,0,0
-504,-692,0,0,0,0,0,0,0,0,0,-1,720,1716,0,0
-497,-692,0,0,0,0,0,0,0,0,0,-1,727,1716,0,0
-490,-692,0,0,0,0,0,0,0,0,0,-1,734,1716,0,0
-483,-692,0,0,0,0,0,0,0,0,0,-1,741,1716,0,0
-476,-692,0,0,0,0,0,0,0,0,0,-1,748,1716,0,0
-469,-692,0,0,0,0,0,0,0,0,0,-1,755,1716,0,0
-462,-692,0,0,0,0,0,0,0,0,0,-1,762,1716,0,0
-455,-692,0,0,0,0,0,0,0,0,0,-1,769,1716,0,0
-448,-692,0,0,0,0,0,0,0,0,0,-1,776,1716,0,0
-441,-692,0,0,0,0,0,0,0,0,0,-1,783,1716,0,0
-434,-692,0,0,0,0,0,0,0,0,0,-1,790,1716,0,0
-427,-692,0,0,0,0,0,0,0,0,0,-1,797,1716,0,0
-420,-692,0,0,0,0,0,0,0,0,0,-1,804,1716,0,0
-413,-692,0,0,0,0,0,0,0,0,0,-1,811,1716,0,0
-406,-692,0,0,0,0,0,0,0,0,0,-1,818,1716,0,0
-399,-692,0,0,0,0,0,0,0,0,0,-1,825,1716,0,0
-392,-692,0,0,0,0,0,0,0,0,0,-1,832,1716,0,0
-385,-692,0,0,0,0,0,0,0,0,0,-1,839,1716,0,0
-378,-692,0,0,0,0,0,0,0,0,0,-1,846,1716,0,0
-371,-692,0,0,0,0,0,0,0,0,0,-1,853,1716,0,0
-364,-692,0,0,0,0,0,0,0,0,0,-1,860,1716,0,0
-357,-692,0,0,0,0,0,0,0,0,0,-1,867,1716,0,0
-350,-692,0,0,0,0,0,0,0,0,0,-1,874,1716,0,0
-343,-692,0,0,0,0,0,0,0,0,0,-1,881,1716,0,0
-336,-692,0,0,0,0,0,0,0,0,0,-1,888,1716,0,0
-329,-692,3.03107,4.10266,0,0,0,0,0,0,0,-1,895,1716,3.03105,-4.10267
-322,-692,4.43713,18.5242,0,0,0,0,0,0,0,-1,902,1716,4.43711,-18.5241
-315,-692,5.38965,17.975,0,0,0,0,0,0,0,-1,909,1716,5.38963,-17.975
-308,-692,5.86938,17.4392,0,0,0,0,0,0,0,-1,916,1716,5.86937,-17.4392
-301,-692,12.015,41.2892,0,0,0,0,0,0,0,-1,923,1716,12.015,-41.2892
-294,-692,8.41125,35.4742,0,0,0,0,0,0,0,-1,930,1716,8.41125,-35.4742
-287,-692,8.44659,48.7144,0,0,0,0,0,0,0,-1,937,1716,8.44657,-48.7143
-280,-692,7.90259,51.8524,0,0,0,0,0,0,0,-1,944,1716,7.9026,-51.8524
-273,-692,7.83453,52.3982,0,0,0,0,0,0,0,-1,951,1716,7.83452,-52.3982
-266,-692,7.52716,51.7593,0,0,0,0,0,0,0,-1,958,1716,7.52717,-51.7593
-259,-692,8.46619,53.864,0,0,0,0,0,0,0,-1,965,1716,8.46616,-53.864
-252,-692,8.21521,54.9526,0,0,0,0,0,0,0,-1,972,1716,8.21521,-54.9527
-245,-692,8.13312,55.6438,0,0,0,0,0,0,0,-1,979,1716,8.13313,-55.6437
-238,-692,8.03534,56.5276,-0.0122673,0.0126429,0.00243891,0.0128795,-0.0125038,1.47411,0.0146556,0.0489937,986,1716,8.03535,-56.5275
-231,-692,7.71405,57.4169,-0.0103558,0.0109436,0.0029664,0.011349,-0.0107612,1.43497,0.0127669,0.0429573,993,1716,7.71408,-57.4168
-224,-692,7.46429,58.0487,-0.00857077,0.00975228,0.00340216,0.0103636,-0.00918208,1.39301,0.0112916,0.0214803,1000,1716,7.46431,-58.0487
-217,-692,7.41614,58.6757,-0.0070351,0.00831964,0.00351814,0.00908735,-0.00780281,1.35595,0.00976093,0.0136963,1007,1716,7.41613,-58.6757
-210,-692,7.375,59.344,-0.00570135,0.00731826,0.00358413,0.00823971,-0.0066228,1.31915,0.00859778,0.0146031,1014,1716,7.37499,-59.344
-203,-692,7.35535,59.9756,-0.00447797,0.00610031,0.00365067,0.00723787,-0.00561553,1.26873,0.00744059,0.0169303,1021,1716,7.35539,-59.9756
-196,-692,7.27795,60.599,-0.00332706,0.00526611,0.00356701,0.0065538,-0.00461476,1.22435,0.00648049,0.0185281,1028,1716,7.27794,-60.599
-189,-692,7.20239,61.1604,-0.00231027,0.00465168,0.00339066,0.0060301,-0.00368869,1.18467,0.00566517,0.00957958,1035,1716,7.20234,-61.1604
-182,-692,7.17224,61.7471,-0.00142963,0.00398347,0.00312964,0.00541456,-0.00286072,1.14191,0.00485299,0.0140683,1042,1716,7.1722,-61.7471
-175,-692,7.14063,62.3463,-0.000573958,0.00348199,0.00281356,0.00492227,-0.00201424,1.09767,0.00412044,0.0151379,1049,1716,7.14064,-62.3463
-168,-692,7.12952,62.9336,-5.80615e-05,0.00309085,0.00238526,0.00437443,-0.00134165,1.07711,0.00345154,0.0122418,1056,1716,7.12951,-62.9337
-161,-692,7.13989,63.5344,0.00025275,0.00273432,0.0019435,0.00379934,-0.000812275,1.0695,0.0028426,0.0148285,1063,1716,7.13988,-63.5344
-154,-692,7.10217,64.1206,0.000586592,0.00245794,0.00143251,0.00323328,-0.000188745,1.0747,0.00222111,0.0153989,1070,1716,7.1022,-64.1207
-147,-692,7.09717,64.6239,0.00103685,0.00231914,0.000975573,0.00284539,0.000510603,1.07611,0.00175171,0.0161866,1077,1716,7.09719,-64.6239
-140,-692,7.09802,65.1021,0.0015168,0.00212474,0.000568316,0.00246527,0.00117627,1.03097,0.00142382,0.0129032,1084,1716,7.09805,-65.1021
-133,-692,7.08032,65.6125,0.00193689,0.00201668,0.000203747,0.0021844,0.00176917,0.882079,0.00133949,0.011321,1091,1716,7.08033,-65.6125
-126,-692,7.06482,66.114,0.00240271,0.00194993,-0.000128433,0.0024366,0.00191603,-0.258018,0.00148168,0.00825501,1098,1716,7.06479,-66.114
-119,-692,7.03333,66.6039,0.00298712,0.00181195,-0.000375113,0.00309665,0.00170242,-0.284087,0.0017908,0.0119005,1105,1716,7.03327,-66.6039
-112,-692,7.05151,67.0765,0.00357574,0.00165315,-0.0005514,0.00372265,0.00150624,-0.260392,0.00216227,0.012687,1112,1716,7.05148,-67.0765
-105,-692,7.05249,67.536,0.00407234,0.00133907,-0.000674759,0.00422984,0.00118157,-0.229313,0.00252012,0.0181355,1119,1716,7.05254,-67.5361
-98,-692,7.14563,67.9323,0.00459803,0.000966371,-0.000774013,0.00475612,0.000808287,-0.201468,0.00293861,0.0206383,1126,1716,7.14559,-67.9323
-91,-692,7.14429,68.3339,0.0053587,0.000691081,-0.00100725,0.00556678,0.000482998,-0.203719,0.00356112,0.0220932,1133,1716,7.14433,-68.3338
-84,-692,7.19958,68.7164,0.00650969,0.000298068,-0.00132131,0.00677907,2.86875e-05,-0.201118,0.00450985,0.0253877,1140,1716,7.1996,-68.7164
-77,-692,7.19824,69.1852,0.00759592,-0.0007108,-0.00155103,0.00787607,-0.000990958,-0.178701,0.00561028,0.0207411,1147,1716,7.19823,-69.1851
-70,-692,7.27441,69.5703,0.00774392,-0.00189131,-0.00223365,0.00823654,-0.00238393,-0.217071,0.0064346,0.0377225,1154,1716,7.27447,-69.5704
-63,-692,7.38318,69.8776,0,0,0,0,0,0,0,-1,1161,1716,7.38313,-69.8775
-56,-692,7.3678,70.1907,0,0,0,0,0,0,0,-1,1168,1716,7.36785,-70.1906
-49,-692,7.3302,70.6418,0,0,0,0,0,0,0,-1,1175,1716,7.33014,-70.6418
-42,-692,7.28601,71.1879,0,0,0,0,0,0,0,-1,1182,1716,7.28605,-71.1879
-35,-692,7.61389,71.413,0,0,0,0,0,0,0,-1,1189,1716,7.61394,-71.413
-28,-692,7.70105,71.2051,0,0,0,0,0,0,0,-1,1196,1716,7.70103,-71.2051
-21,-692,7.80957,71.4242,0.0275501,0.00861637,-0.0249759,0.0447931,-0.00862664,-0.604244,0.0331143,0.0385107,1203,1716,7.8096,-71.4242
-14,-692,7.88245,71.6221,0.0279998,0.00762477,-0.0261004,0.0458304,-0.0102059,-0.599331,0.034463,0.0211615,1210,1716,7.88247,-71.622
-7,-692,7.87622,71.8359,0.0286034,0.00617384,-0.0266388,0.0462918,-0.0115146,-0.586161,0.0353305,0.020375,1217,1716,7.87617,-71.836
0,-692,7.93042,72.0079,0.0297188,0.00588969,-0.0278518,0.0480975,-0.012489,-0.583285,0.0369386,0.0267757,1224,1716,7.93045,-72.008
7,-692,8.08643,72.0869,0.0301171,0.00524361,-0.0284258,0.0487077,-0.013347,-0.579186,0.0377164,0.0342678,1231,1716,8.08648,-72.0869
14,-692,8.22778,72.4188,0.030618,0.00480544,-0.0290163,0.0494689,-0.0140454,-0.57614,0.0385242,0.0364605,1238,1716,8.22779,-72.4188
21,-692,8.44934,72.5591,0.0310605,0.0049688,-0.029456,0.0502304,-0.014201,-0.576934,0.0390901,0.0353088,1245,1716,8.44931,-72.5591
28,-692,8.56323,72.5005,0.0316577,0.00516002,-0.0290074,0.0502987,-0.0134809,-0.571176,0.0388145,0.0352227,1252,1716,8.5632,-72.5005
35,-692,8.64026,72.6139,0.0319099,0.00554092,-0.0287977,0.0503978,-0.012947,-0.570725,0.038644,0.032756,1259,1716,8.64029,-72.6139
42,-692,8.73572,72.7369,0.0306916,0.00539763,-0.0275547,0.0483631,-0.0122738,-0.570251,0.0370179,0.0321417,1266,1716,8.73571,-72.737
49,-692,8.81519,72.683,0.0287779,0.00459365,-0.0255002,0.0449078,-0.0115362,-0.564001,0.0344342,0.0423966,1273,1716,8.81513,-72.683
56,-692,8.91577,72.7313,0,0,0,0,0,0,0,-1,1280,1716,8.91579,-72.7313
63,-692,9.02271,72.6968,0,0,0,0,0,0,0,-1,1287,1716,9.02271,-72.6968
70,-692,9.03662,72.7924,0,0,0,0,0,0,0,-1,1294,1716,9.03658,-72.7923
77,-692,9.21838,72.7124,0,0,0,0,0,0,0,-1,1301,1716,9.21836,-72.7124
84,-692,9.30566,72.5952,0,0,0,0,0,0,0,-1,1308,1716,9.30571,-72.5952
91,-692,9.45532,72.481,0,0,0,0,0,0,0,-1,1315,1716,9.45529,-72.4809
98,-692,9.51013,72.0826,0,0,0,0,0,0,0,-1,1322,1716,9.51011,-72.0827
105,-692,9.625,72.2012,0,0,0,0,0,0,0,-1,1329,1716,9.62502,-72.2011
112,-692,9.76062,72.1127,0,0,0,0,0,0,0,-1,1336,1716,9.76059,-72.1127
119,-692,9.79224,71.858,-0.0202057,-0.0196641,-0.0067454,-0.013184,-0.0266857,-0.805459,0.0154074,0.0438168,1343,1716,9.79219,-71.858
126,-692,9.93958,71.6335,-0.0229604,-0.0216981,-0.0068482,-0.015452,-0.0292065,-0.831348,0.0168719,0.0478546,1350,1716,9.93957,-71.6335
133,-692,10.0808,71.5049,-0.0250585,-0.0229572,-0.00745378,-0.0164804,-0.0315353,-0.855416,0.0182131,0.0374951,1357,1716,10.0808,-71.5049
140,-692,10.0543,71.4131,-0.0254771,-0.0233682,-0.00770449,-0.0166464,-0.032199,-0.853406,0.0185937,0.0391542,1364,1716,10.0543,-71.4131
147,-692,10.0216,71.3594,0,0,0,0,0,0,0,-1,1371,1716,10.0216,-71.3594
154,-692,9.92883,56.0276,0,0,0,0,0,0,0,-1,1378,1716,9.92887,-56.0276
161,-692,10.1229,70.6405,0,0,0,0,0,0,0,-1,1385,1716,10.1229,-70.6405
168,-692,10.4749,70.553,0,0,0,0,0,0,0,-1,1392,1716,10.4748,-70.553
175,-692,10.6383,70.2208,0,0,0,0,0,0,0,-1,1399,1716,10.6383,-70.2208
182,-692,10.5969,69.866,0,0,0,0,0,0,0,-1,1406,1716,10.5969,-69.866
189,-692,10.5453,69.4755,0,0,0,0,0,0,0,-1,1413,1716,10.5452,-69.4755
196,-692,10.443,69.0497,0.00562819,-0.0052095,-0.000672773,0.00566979,-0.00525111,-0.0617611,0.00630673,0.0395913,1420,1716,10.443,-69.0497
203,-692,10.5381,68.6873,0.00839204,-0.00200479,0.000990499,0.00848556,-0.00209831,0.0941409,0.00647089,0.0282002,1427,1716,10.5381,-68.6873
210,-692,10.7719,68.3521,0.00755494,-0.00168023,0.000741129,0.00761403,-0.00173933,0.0795721,0.00574426,0.0218886,1434,1716,10.7718,-68.352
217,-692,10.7523,67.8997,0.0067504,-0.00129131,0.000521616,0.00678409,-0.001325,0.0645035,0.00502299,0.0185022,1441,1716,10.7523,-67.8997
224,-692,10.7646,67.4817,0.00594498,-0.000841951,0.000257265,0.00595472,-0.000851689,0.0378335,0.00428204,0.0146878,1448,1716,10.7646,-67.4817
231,-692,10.7789,67.046,0.0051619,-0.000464234,-0.000178068,0.00516753,-0.000469864,-0.031608,0.00361184,0.013206,1455,1716,10.7789,-67.046
238,-692,10.8071,66.5361,0.00455049,-0.000135508,-0.000551541,0.00461453,-0.000199549,-0.115595,0.00314498,0.0190047,1462,1716,10.8072,-66.5362
245,-692,10.8302,66.0558,0.00406837,0.000135092,-0.000707028,0.0041916,1.18613e-05,-0.172561,0.00279046,0.0216305,1469,1716,10.8302,-66.0558
252,-692,10.8258,65.6027,0.00358951,0.00036046,-0.000813038,0.00378267,0.000167302,-0.233252,0.00246791,0.0196244,1476,1716,10.8258,-65.6027
259,-692,10.8167,65.1418,0.00300181,0.00057943,-0.000944418,0.00332649,0.000254747,-0.331134,0.00213781,0.010644,1483,1716,10.8167,-65.1419
266,-692,10.8077,64.6183,0.00253082,0.000681346,-0.0011691,0.0030967,0.000115465,-0.45079,0.00202708,0.0115123,1490,1716,10.8078,-64.6183
273,-692,10.8035,64.05,0.0021369,0.000814878,-0.00130975,0.00294299,8.79052e-06,-0.551703,0.00195907,0.0161771,1497,1716,10.8035,-64.05
280,-692,10.7916,63.4894,0.00159762,0.000940459,-0.00142626,0.00273266,-0.000194582,-0.672184,0.00188997,0.0152993,1504,1716,10.7917,-63.4894
287,-692,10.7804,62.9559,0.000981471,0.00104359,-0.00148983,0.00250268,-0.000477622,-0.79582,0.00184834,0.0123807,1511,1716,10.7804,-62.9559
294,-692,10.76,62.3944,0.000292581,0.00121557,-0.00143502,0.00226148,-0.000753327,-0.940972,0.00181174,0.0113639,1518,1716,10.76,-62.3944
301,-692,10.736,61.821,-0.000385095,0.00146379,-0.00156418,0.00235628,-0.00127759,-1.05229,0.00212861,0.0141009,1525,1716,10.736,-61.8211
308,-692,10.7174,61.261,-0.00106629,0.00188057,-0.0017181,0.00267052,-0.00185623,-1.13984,0.00262758,0.0169091,1532,1716,10.7174,-61.261
315,-692,10.7209,60.6493,-0.00163863,0.0022913,-0.00180305,0.00299318,-0.00234051,-1.19957,0.00308709,0.0158519,1539,1716,10.7209,-60.6493
322,-692,10.6667,59.9956,-0.00209013,0.00269888,-0.00198648,0.00341561,-0.00280685,-1.22453,0.00359826,0.0222772,1546,1716,10.6668,-59.9957
329,-692,10.6202,59.3734,-0.00253588,0.00308885,-0.00217602,0.00383239,-0.00327941,-1.24154,0.00411014,0.0205205,1553,1716,10.6202,-59.3734
336,-692,10.5776,58.7462,-0.00285741,0.00352084,-0.00239781,0.0043217,-0.00365827,-1.24845,0.00461255,0.0133906,1560,1716,10.5776,-58.7463
343,-692,10.5515,58.109,-0.00301343,0.00384444,-0.00266524,0.00475844,-0.00392743,-1.24043,0.00502243,0.013498,1567,1716,10.5515,-58.109
350,-692,10.5062,57.4677,-0.00280618,0.00410132,-0.00293538,0.00518021,-0.00388507,-1.21857,0.00525162,0.0152319,1574,1716,10.5063,-57.4676
357,-692,10.4338,56.7767,-0.00205147,0.0037381,-0.00339557,0.00530534,-0.00361871,-1.13838,0.00518289,0.0222575,1581,1716,10.4339,-56.7767
364,-692,10.4194,56.0833,-0.00133858,0.00337275,-0.00374804,0.00544393,-0.00340976,-1.06596,0.00515645,0.0294259,1588,1716,10.4195,-56.0832
371,-692,10.5165,55.4185,-0.000297798,0.00279183,-0.00426005,0.00577852,-0.00328448,-0.959338,0.00529816,0.0408863,1595,1716,10.5165,-55.4184
378,-692,10.55,54.7368,0,0,0,0,0,0,0,-1,1602,1716,10.5501,-54.7368
385,-692,10.2649,54.0646,0,0,0,0,0,0,0,-1,1609,1716,10.2649,-54.0646
392,-692,10.3241,53.4901,0,0,0,0,0,0,0,-1,1616,1716,10.3241,-53.4901
399,-692,10.6187,48.0621,0,0,0,0,0,0,0,-1,1623,1716,10.6187,-48.0621
406,-692,11.3221,42.7773,0,0,0,0,0,0,0,-1,1630,1716,11.3222,-42.7773
413,-692,11.4845,42.9004,0,0,0,0,0,0,0,-1,1637,1716,11.4845,-42.9004
420,-692,9.65894,40.2512,0,0,0,0,0,0,0,-1,1644,1716,9.65889,-40.2513
427,-692,3.79578,8.60339,0,0,0,0,0,0,0,-1,1651,1716,3.79577,-8.6034
434,-692,4.78516,8.64636,0,0,0,0,0,0,0,-1,1658,1716,4.78512,-8.64634
441,-692,5.8208,8.74036,0,0,0,0,0,0,0,-1,1665,1716,5.82084,-8.7404
448,-692,6.73792,8.51013,0,0,0,0,0,0,0,-1,1672,1716,6.73793,-8.5101
455,-692,0,0,0,0,0,0,0,0,0,-1,1679,1716,0,0
462,-692,0,0,0,0,0,0,0,0,0,-1,1686,1716,0,0
469,-692,0,0,0,0,0,0,0,0,0,-1,1693,1716,0,0
476,-692,0,0,0,0,0,0,0,0,0,-1,1700,1716,0,0
483,-692,0,0,0,0,0,0,0,0,0,-1,1707,1716,0,0
490,-692,0,0,0,0,0,0,0,0,0,-1,1714,1716,0,0
497,-692,0,0,0,0,0,0,0,0,0,-1,1721,1716,0,0
504,-692,0,0,0,0,0,0,0,0,0,-1,1728,1716,0,0
511,-692,0,0,0,0,0,0,0,0,0,-1,1735,1716,0,0
518,-692,0,0,0,0,0,0,0,0,0,-1,1742,1716,0,0
525,-692,0,0,0,0,0,0,0,0,0,-1,1749,1716,0,0
532,-692,0,0,0,0,0,0,0,0,0,-1,1756,1716,0,0
539,-692,0,0,0,0,0,0,0,0,0,-1,1763,1716,0,0
546,-692,0,0,0,0,0,0,0,0,0,-1,1770,1716,0,0
553,-692,0,0,0,0,0,0,0,0,0,-1,1777,1716,0,0
560,-692,0,0,0,0,0,0,0,0,0,-1,1784,1716,0,0
567,-692,0,0,0,0,0,0,0,0,0,-1,1791,1716,0,0
574,-692,0,0,0,0,0,0,0,0,0,-1,1798,1716,0,0
581,-692,0,0,0,0,0,0,0,0,0,-1,1805,1716,0,0
588,-692,0,0,0,0,0,0,0,0,0,-1,1812,1716,0,0
595,-692,0,0,0,0,0,0,0,0,0,-1,1819,1716,0,0
602,-692,0,0,0,0,0,0,0,0,0,-1,1826,1716,0,0
609,-692,0,0,0,0,0,0,0,0,0,-1,1833,1716,0,0
616,-692,0,0,0,0,0,0,0,0,0,-1,1840,1716,0,0
623,-692,0,0,0,0,0,0,0,0,0,-1,1847,1716,0,0
630,-692,0,0,0,0,0,0,0,0,0,-1,1854,1716,0,0
637,-692,0,0,0,0,0,0,0,0,0,-1,1861,1716,0,0
644,-692,0,0,0,0,0,0,0,0,0,-1,1868,1716,0,0
651,-692,0,0,0,0,0,0,0,0,0,-1,1875,1716,0,0
658,-692,0,0,0,0,0,0,0,0,0,-1,1882,1716,0,0
665,-692,0,0,0,0,0,0,0,0,0,-1,1889,1716,0,0
672,-692,0,0,0,0,0,0,0,0,0,-1,1896,1716,0,0
679,-692,0,0,0,0,0,0,0,0,0,-1,1903,1716,0,0
686,-692,0,0,0,0,0,0,0,0,0,-1,1910,1716,0,0
693,-692,0,0,0,0,0,0,0,0,0,-1,1917,1716,0,0
700,-692,0,0,0,0,0,0,0,0,0,-1,1924,1716,0,0
707,-692,0,0,0,0,0,0,0,0,0,-1,1931,1716,0,0
714,-692,0,0,0,0,0,0,0,0,0,-1,1938,1716,0,0
721,-692,0,0,0,0,0,0,0,0,0,-1,1945,1716,0,0
728,-692,0,0,0,0,0,0,0,0,0,-1,1952,1716,0,0
735,-692,0,0,0,0,0,0,0,0,0,-1,1959,1716,0,0
742,-692,0,0,0,0,0,0,0,0,0,-1,1966,1716,0,0
749,-692,0,0,0,0,0,0,0,0,0,-1,1973,1716,0,0
756,-692,0,0,0,0,0,0,0,0,0,-1,1980,1716,0,0
763,-692,0,0,0,0,0,0,0,0,0,-1,1987,1716,0,0
770,-692,0,0,0,0,0,0,0,0,0,-1,1994,1716,0,0
777,-692,0,0,0,0,0,0,0,0,0,-1,2001,1716,0,0
784,-692,0,0,0,0,0,0,0,0,0,-1,2008,1716,0,0
791,-692,0,0,0,0,0,0,0,0,0,-1,2015,1716,0,0
798,-692,0,0,0,0,0,0,0,0,0,-1,2022,1716,0,0
805,-692,0,0,0,0,0,0,0,0,0,-1,2029,1716,0,0
812,-692,0,0,0,0,0,0,0,0,0,-1,2036,1716,0,0
-700,-699,0,0,0,0,0,0,0,0,0,-1,524,1723,0,0
-693,-699,0,0,0,0,0,0,0,0,0,-1,531,1723,0,0
-686,-699,0,0,0,0,0,0,0,0,0,-1,538,1723,0,0
-679,-699,0,0,0,0,0,0,0,0,0,-1,545,1723,0,0
-672,-699,0,0,0,0,0,0,0,0,0,-1,552,1723,0,0
-665,-699,0,0,0,0,0,0,0,0,0,-1,559,1723,0,0
-658,-699,0,0,0,0,0,0,0,0,0,-1,566,1723,0,0
-651,-699,0,0,0,0,0,0,0,0,0,-1,573,1723,0,0
-644,-699,0,0,0,0,0,0,0,0,0,-1,580,1723,0,0
-637,-699,0,0,0,0,0,0,0,0,0,-1,587,1723,0,0
-630,-699,0,0,0,0,0,0,0,0,0,-1,594,1723,0,0
-623,-699,0,0,0,0,0,0,0,0,0,-1,601,1723,0,0
-616,-699,0,0,0,0,0,0,0,0,0,-1,608,1723,0,0
-609,-699,0,0,0,0,0,0,0,0,0,-1,615,1723,0,0
-602,-699,0,0,0,0,0,0,0,0,0,-1,622,1723,0,0
-595,-699,0,0,0,0,0,0,0,0,0,-1,629,1723,0,0
-588,-699,0,0,0,0,0,0,0,0,0,-1,636,1723,0,0
-581,-699,0,0,0,0,0,0,0,0,0,-1,643,1723,0,0
-574,-699,0,0,0,0,0,0,0,0,0,-1,650,1723,0,0
-567,-699,0,0,0,0,0,0,0,0,0,-1,657,1723,0,0
-560,-699,0,0,0,0,0,0,0,0,0,-1,664,1723,0,0
-553,-699,0,0,0,0,0,0,0,0,0,-1,671,1723,0,0
-546,-699,0,0,0,0,0,0,0,0,0,-1,678,1723,0,0
-539,-699,0,0,0,0,0,0,0,0,0,-1,685,1723,0,0
-532,-699,0,0,0,0,0,0,0,0,0,-1,692,1723,0,0
-525,-699,0,0,0,0,0,0,0,0,0,-1,699,1723,0,0
-518,-699,0,0,0,0,0,0,0,0,0,-1,706,1723,0,0
-511,-699,0,0,0,0,0,0,0,0,0,-1,713,1723,0,0
-504,-699,0,0,0,0,0,0,0,0,0,-1,720,1723,0,0
-497,-699,0,0,0,0,0,0,0,0,0,-1,727,1723,0,0
-490,-699,0,0,0,0,0,0,0,0,0,-1,734,1723,0,0
-483,-699,0,0,0,0,0,0,0,0,0,-1,741,1723,0,0
-476,-699,0,0,0,0,0,0,0,0,0,-1,748,1723,0,0
-469,-699,0,0,0,0,0,0,0,0,0,-1,755,1723,0,0
-462,-699,0,0,0,0,0,0,0,0,0,-1,762,1723,0,0
-455,-699,0,0,0,0,0,0,0,0,0,-1,769,1723,0,0
-448,-699,0,0,0,0,0,0,0,0,0,-1,776,1723,0,0
-441,-699,0,0,0,0,0,0,0,0,0,-1,783,1723,0,0
-434,-699,0,0,0,0,0,0,0,0,0,-1,790,1723,0,0
-427,-699,0,0,0,0,0,0,0,0,0,-1,797,1723,0,0
-420,-699,0,0,0,0,0,0,0,0,0,-1,804,1723,0,0
-413,-699,0,0,0,0,0,0,0,0,0,-1,811,1723,0,0
-406,-699,0,0,0,0,0,0,0,0,0,-1,818,1723,0,0
-399,-699,0,0,0,0,0,0,0,0,0,-1,825,1723,0,0
-392,-699,0,0,0,0,0,0,0,0,0,-1,832,1723,0,0
-385,-699,0,0,0,0,0,0,0,0,0,-1,839,1723,0,0
-378,-699,0,0,0,0,0,0,0,0,0,-1,846,1723,0,0
-371,-699,0,0,0,0,0,0,0,0,0,-1,853,1723,0,0
-364,-699,0,0,0,0,0,0,0,0,0,-1,860,1723,0,0
-357,-699,0,0,0,0,0,0,0,0,0,-1,867,1723,0,0
-350,-699,0,0,0,0,0,0,0,0,0,-1,874,1723,0,0
-343,-699,0,0,0,0,0,0,0,0,0,-1,881,1723,0,0
-336,-699,0,0,0,0,0,0,0,0,0,-1,888,1723,0,0
-329,-699,0,0,0,0,0,0,0,0,0,-1,895,1723,0,0
-322,-699,0,0,0,0,0,0,0,0,0,-1,902,1723,0,0
-315,-699,6.20001,19.5193,0,0,0,0,0,0,0,-1,909,1723,6.20001,-19.5193
-308,-699,6.98151,18.9218,0,0,0,0,0,0,0,-1,916,1723,6.98151,-18.9217
-301,-699,4.72729,12.8752,0,0,0,0,0,0,0,-1,923,1723,4.72732,-12.8752
-294,-699,6.90332,19.8601,0,0,0,0,0,0,0,-1,930,1723,6.90332,-19.8601
-287,-699,9.0968,36.3315,0,0,0,0,0,0,0,-1,937,1723,9.09678,-36.3315
-280,-699,9.53729,45.2391,0,0,0,0,0,0,0,-1,944,1723,9.53728,-45.2391
-273,-699,8.216,48.0923,0,0,0,0,0,0,0,-1,951,1723,8.21601,-48.0923
-266,-699,6.81915,20.8951,0,0,0,0,0,0,0,-1,958,1723,6.81914,-20.8952
-259,-699,5.39758,14.5466,0,0,0,0,0,0,0,-1,965,1723,5.39759,-14.5466
-252,-699,8.3866,31.6284,0,0,0,0,0,0,0,-1,972,1723,8.38657,-31.6284
-245,-699,7.94281,50.88,0,0,0,0,0,0,0,-1,979,1723,7.9428,-50.88
-238,-699,8.70355,56.8508,0,0,0,0,0,0,0,-1,986,1723,8.70354,-56.8509
-231,-699,8.44861,57.3574,-0.0134382,0.014891,0.00401869,0.01545,-0.0139972,1.43257,0.0170083,0.04845,993,1723,8.44858,-57.3575
-224,-699,8.07086,58.0756,-0.0110593,0.0132282,0.0046512,0.0140885,-0.0119196,1.38791,0.0150332,0.04063,1000,1723,8.07088,-58.0756
-217,-699,8.00342,58.6606,-0.0090593,0.011365,0.00484752,0.0124571,-0.0101514,1.3492,0.0130756,0.0279421,1007,1723,8.00339,-58.6607
-210,-699,7.94434,59.2588,-0.00740402,0.0100507,0.00499713,0.0113801,-0.0087334,1.31079,0.011646,0.0213556,1014,1723,7.94434,-59.2588
-203,-699,7.94922,59.9482,-0.00593166,0.00850926,0.0051144,0.0101371,-0.00755948,1.26265,0.0102532,0.025941,1021,1723,7.94925,-59.9482
-196,-699,7.87024,60.6425,-0.00459246,0.00739882,0.00505191,0.00924343,-0.00643707,1.22071,0.00910134,0.0184744,1028,1723,7.87028,-60.6425
-189,-699,7.80518,61.2239,-0.00340261,0.00655971,0.0048873,0.00855692,-0.00539982,1.18285,0.00812636,0.00892768,1035,1723,7.80515,-61.2239
-182,-699,7.76575,61.8041,-0.00238981,0.00557847,0.00461856,0.00769387,-0.00450521,1.14129,0.0071229,0.0129187,1042,1723,7.76579,-61.804
-175,-699,7.7373,62.4227,-0.00147142,0.00475765,0.00423355,0.0068989,-0.00361266,1.10253,0.00616692,0.0161476,1049,1723,7.73728,-62.4227
-168,-699,7.72534,62.9976,-0.00091934,0.0041224,0.00373952,0.00611139,-0.00290833,1.08197,0.00531586,0.0169902,1056,1723,7.72533,-62.9976
-161,-699,7.69153,63.549,-0.000604061,0.00350155,0.00323208,0.00527762,-0.00238014,1.06833,0.00452548,0.014605,1063,1723,7.69156,-63.549
-154,-699,7.64355,64.1079,-0.000294674,0.00294072,0.00263388,0.00441401,-0.00176797,1.06079,0.00367654,0.01436,1070,1723,7.64356,-64.1079
-147,-699,7.59802,64.6277,0.000127766,0.00254189,0.00209945,0.00375654,-0.00108688,1.04629,0.00293453,0.0174301,1077,1723,7.59803,-64.6276
-140,-699,7.5791,65.1207,0.000600655,0.00209587,0.00162809,0.0031398,-0.00044327,1.00063,0.00225552,0.0120111,1084,1723,7.57907,-65.1208
-133,-699,7.55164,65.6593,0.000985381,0.00176591,0.00117627,0.00261497,0.000136322,0.945574,0.00169969,0.0104138,1091,1723,7.55162,-65.6593
-126,-699,7.55188,66.1559,0.00136813,0.00156646,0.000738004,0.00221193,0.000722656,0.852184,0.00130237,0.0125447,1098,1723,7.55184,-66.1559
-119,-699,7.54639,66.6342,0.00180524,0.00136503,0.000404906,0.002046,0.00112427,0.536443,0.00118318,0.0183317,1105,1723,7.54635,-66.6342
-112,-699,7.50928,67.1112,0.00226558,0.00124804,0.000206571,0.00230592,0.0012077,0.192842,0.00133182,0.0132197,1112,1723,7.50925,-67.1112
-105,-699,7.49634,67.5715,0.00267805,0.000992757,2.3213e-05,0.00267837,0.000992437,0.0137704,0.00156354,0.014201,1119,1723,7.49632,-67.5715
-98,-699,7.57715,67.9979,0.00309797,0.000743871,-0.000114968,0.00310357,0.00073827,-0.0486828,0.00187212,0.0165536,1126,1723,7.57718,-67.9979
-91,-699,7.59827,68.3795,0.00366938,0.000618007,-0.000330205,0.0037047,0.000582683,-0.106572,0.00230031,0.022851,1133,1723,7.59821,-68.3795
-84,-699,7.60474,68.7917,0.00446879,0.000430257,-0.000595201,0.00455469,0.000344364,-0.143322,0.00292843,0.0276442,1140,1723,7.60474,-68.7917
-77,-699,7.62085,69.1927,0.0052286,-2.50399e-05,-0.000815008,0.00535213,-0.000148569,-0.150423,0.00361862,0.0192906,1147,1723,7.62089,-69.1927
-70,-699,7.65234,69.5609,0.00551501,-0.000635862,-0.00125935,0.00576287,-0.000883717,-0.194329,0.00416783,0.0190442,1154,1723,7.65234,-69.5609
-63,-699,7.7002,69.9271,0.00780231,-0.000755421,-0.00294787,0.00871946,-0.00167257,-0.301631,0.00644327,0.0168039,1161,1723,7.7002,-69.9271
-56,-699,7.69507,70.2426,0.0109868,-2.32374e-05,-0.00604864,0.0136605,-0.00269693,-0.416208,0.0101264,0.0134433,1168,1723,7.69512,-70.2425
-49,-699,7.6897,70.624,0.013253,0.000676354,-0.00833654,0.0174069,-0.0034776,-0.462273,0.0129208,0.0282193,1175,1723,7.68973,-70.624
-42,-699,7.69019,71.0072,0.0149148,0.00188238,-0.0100754,0.0203975,-0.00360031,-0.498355,0.0149437,0.030152,1182,1723,7.69013,-71.0072
-35,-699,7.82751,71.2389,0.0164726,0.00245381,-0.0118849,0.0232612,-0.00433474,-0.518966,0.0171361,0.0255723,1189,1723,7.82754,-71.239
-28,-699,7.96692,71.3868,0.0177903,0.0016048,-0.0136456,0.0255624,-0.00616731,-0.517745,0.0194265,0.0211864,1196,1723,7.9669,-71.3868
-21,-699,7.97583,71.5189,0.0187486,0.0012421,-0.0152558,0.0275839,-0.00759326,-0.524946,0.0213748,0.0158611,1203,1723,7.97589,-71.5189
-14,-699,8.01929,71.7422,0.0194506,0.000509868,-0.0165223,0.0290242,-0.00906379,-0.525163,0.0229747,0.0143796,1210,1723,8.01931,-71.7421
-7,-699,8.08228,71.9756,0.0204342,-0.000414379,-0.0174096,0.0303018,-0.010282,-0.515643,0.0243628,0.0104437,1217,1723,8.08225,-71.9756
0,-699,8.17114,72.1592,0.0218818,-0.000200569,-0.018901,0.0327302,-0.011049,-0.521053,0.0262889,0.0146497,1224,1723,8.17112,-72.1592
7,-699,8.31531,72.2242,0.0225626,-0.000339095,-0.0196827,0.033883,-0.0116595,-0.521944,0.0273176,0.0242953,1231,1723,8.31535,-72.2242
14,-699,8.40942,72.3928,0.0233302,-0.000300402,-0.0204178,0.0351049,-0.0120751,-0.523101,0.0283004,0.0240493,1238,1723,8.40945,-72.3928
21,-699,8.4353,72.4829,0.0240216,0.000340647,-0.0210401,0.0363241,-0.0119618,-0.529105,0.0290366,0.0195167,1245,1723,8.43525,-72.4829
28,-699,8.526,72.5515,0.0248346,0.00103688,-0.0209511,0.03703,-0.0111585,-0.527144,0.0291275,0.0172549,1252,1723,8.52603,-72.5516
35,-699,8.62927,72.7072,0.025423,0.00188063,-0.0210823,0.0377977,-0.0104941,-0.530785,0.0293291,0.0151345,1259,1723,8.62932,-72.7071
42,-699,8.7207,72.7899,0.0248086,0.0024019,-0.0204719,0.0369422,-0.00973173,-0.535032,0.0284327,0.0153821,1266,1723,8.72071,-72.79
49,-699,8.78772,72.8236,0.0235874,0.00241226,-0.0192565,0.0349751,-0.00897539,-0.534047,0.026814,0.0189496,1273,1723,8.78766,-72.8236
56,-699,8.89954,72.8433,0.0213637,0.00198389,-0.0176616,0.031819,-0.00847136,-0.534498,0.024529,0.0190817,1280,1723,8.89956,-72.8432
63,-699,8.99353,72.7983,0.0179231,0.000892457,-0.0157037,0.0272716,-0.0084561,-0.536962,0.0215598,0.0161157,1287,1723,8.99351,-72.7983
70,-699,9.06323,72.8113,0.0138617,-0.000189897,-0.0134965,0.0220516,-0.0083798,-0.545417,0.018151,0.0127553,1294,1723,9.06321,-72.8113
77,-699,9.13989,72.7648,0.00972876,-0.00146322,-0.0112776,0.0167224,-0.0084569,-0.555095,0.0147961,0.0127432,1301,1723,9.13987,-72.7648
84,-699,9.23767,72.6835,0.00527065,-0.00376793,-0.00913166,0.0109401,-0.00943743,-0.555617,0.0117757,0.0162187,1308,1723,9.23772,-72.6835
91,-699,9.34363,72.6023,0.000706995,-0.00586323,-0.00732123,0.00544637,-0.0106026,-0.574508,0.00942394,0.016005,1315,1723,9.3436,-72.6023
98,-699,9.3844,72.4858,-0.00415113,-0.00801718,-0.0058336,6.13686e-05,-0.0122297,-0.625411,0.00817365,0.0130717,1322,1723,9.38437,-72.4859
105,-699,9.44238,72.3892,-0.00869707,-0.0108647,-0.00396481,-0.00567059,-0.0138911,-0.65198,0.00806497,0.0172086,1329,1723,9.44233,-72.3891
112,-699,9.55798,72.288,-0.0107338,-0.0122722,-0.00393635,-0.00749221,-0.0155138,-0.688913,0.00895864,0.0243277,1336,1723,9.55801,-72.2879
119,-699,9.58948,72.1139,-0.0122155,-0.0132947,-0.00399408,-0.00872476,-0.0167855,-0.718254,0.00969364,0.0189673,1343,1723,9.58953,-72.1139
126,-699,9.69958,71.9031,-0.0135811,-0.0144235,-0.00379317,-0.0101858,-0.0178188,-0.730105,0.0103228,0.0214603,1350,1723,9.69959,-71.903
133,-699,9.82043,71.7347,-0.0144833,-0.0148387,-0.00405674,-0.0106004,-0.0187216,-0.763505,0.0108405,0.0198157,1357,1723,9.82044,-71.7347
140,-699,9.89551,71.5226,-0.0140205,-0.0145355,-0.00400009,-0.0102697,-0.0182864,-0.753257,0.0105843,0.0202947,1364,1723,9.89549,-71.5226
147,-699,9.93188,71.3103,0,0,0,0,0,0,0,-1,1371,1723,9.9319,-71.3103
154,-699,10.0507,71.1246,0,0,0,0,0,0,0,-1,1378,1723,10.0507,-71.1246
161,-699,9.99695,70.7777,-0.00853762,-0.0115339,-0.00360302,-0.00613368,-0.0139378,-0.588374,0.00806623,0.0308545,1385,1723,9.99689,-70.7778
168,-699,10.1127,70.5106,-0.00560837,-0.0101964,-0.00310584,-0.0040412,-0.0117636,-0.46731,0.00690166,0.012433,1392,1723,10.1126,-70.5107
175,-699,10.1718,70.2358,-0.00231063,-0.00922044,-0.00248478,-0.00150989,-0.0100212,-0.311749,0.00623869,0.0187532,1399,1723,10.1718,-70.2358
182,-699,10.2081,69.9031,0.000583572,-0.00660027,-0.0017901,0.00100492,-0.00702162,-0.231171,0.0050495,0.0195407,1406,1723,10.2081,-69.903
189,-699,10.181,69.5311,0.00346966,-0.00361777,-0.000817638,0.00356276,-0.00371087,-0.11338,0.00419973,0.0181934,1413,1723,10.181,-69.5312
196,-699,10.184,69.1111,0.00588449,-0.00190218,2.94227e-05,0.0058846,-0.00190229,0.00377853,0.00468764,0.0199977,1420,1723,10.1839,-69.1111
203,-699,10.2374,68.7289,0.0060809,-0.000897059,0.000312656,0.00609488,-0.00091104,0.0446868,0.0043985,0.0159902,1427,1723,10.2374,-68.7289
210,-699,10.3092,68.3759,0.00539707,-0.000632697,6.11138e-05,0.00539768,-0.000633317,0.010134,0.00382707,0.014558,1434,1723,10.3092,-68.3758
217,-699,10.3075,67.9731,0.0047035,-0.000301947,-0.000134556,0.00470712,-0.000305561,-0.0268561,0.00324473,0.0150358,1441,1723,10.3075,-67.9731
224,-699,10.3071,67.5342,0.00401491,5.82584e-05,-0.000379799,0.00405104,2.21313e-05,-0.094836,0.00269335,0.0166317,1448,1723,10.3072,-67.5342
231,-699,10.3347,67.0717,0.00335315,0.000365958,-0.000705878,0.00351155,0.000207557,-0.220746,0.002275,0.0136054,1455,1723,10.3347,-67.0716
238,-699,10.3314,66.5712,0.00281056,0.000647379,-0.000975763,0.00318566,0.000272278,-0.367002,0.00203908,0.0109954,1462,1723,10.3314,-66.5711
245,-699,10.3256,66.0979,0.00231523,0.000872173,-0.00112043,0.00292636,0.000261049,-0.499333,0.00186997,0.0123688,1469,1723,10.3255,-66.0979
252,-699,10.3058,65.6403,0.00172303,0.00114136,-0.00120883,0.00267552,0.000188874,-0.667345,0.00172417,0.0109438,1476,1723,10.3058,-65.6403
259,-699,10.291,65.1544,0.00114989,0.00129486,-0.0013424,0.00256673,-0.000121981,-0.812371,0.00175323,0.0112927,1483,1723,10.2911,-65.1545
266,-699,10.2875,64.6262,0.00069798,0.00140016,-0.00153953,0.00262813,-0.000529981,-0.897507,0.00195286,0.013861,1490,1723,10.2874,-64.6263
273,-699,10.281,64.0803,0.000292212,0.0015553,-0.00168271,0.00272108,-0.000873561,-0.964922,0.00216481,0.01258,1497,1723,10.281,-64.0803
280,-699,10.2731,63.5177,-0.000243731,0.00171022,-0.0018034,0.00278428,-0.00131779,-1.03364,0.00241825,0.0133057,1504,1723,10.273,-63.5177
287,-699,10.2473,62.9572,-0.000867526,0.00180405,-0.00187317,0.00276893,-0.00183241,-1.09514,0.00267487,0.01162,1511,1723,10.2473,-62.9572
294,-699,10.2152,62.3855,-0.00159665,0.00200983,-0.00176012,0.00272645,-0.00231328,-1.18415,0.00291295,0.0118336,1518,1723,10.2152,-62.3854
301,-699,10.1893,61.8428,-0.00223929,0.00228647,-0.00192139,0.00299216,-0.00294497,-1.21881,0.00342784,0.0130068,1525,1723,10.1894,-61.8428
308,-699,10.1741,61.2817,-0.00290116,0.00281803,-0.00210102,0.00350689,-0.00359003,-1.25397,0.0040975,0.0174705,1532,1723,10.174,-61.2817
315,-699,10.1577,60.6536,-0.00343314,0.00332094,-0.0021963,0.00397232,-0.00408452,-1.28248,0.00465177,0.0207745,1539,1723,10.1578,-60.6536
322,-699,10.0768,60.0068,-0.00381784,0.00381075,-0.00241124,0.00450898,-0.00451607,-1.28893,0.00521062,0.0217584,1546,1723,10.0768,-60.0068
329,-699,9.99915,59.3723,-0.00423379,0.00430161,-0.00260418,0.00503341,-0.0049656,-1.29685,0.00577297,0.0168975,1553,1723,9.99909,-59.3723
336,-699,9.95325,58.7688,-0.00453381,0.00485962,-0.00286284,0.00566335,-0.00533754,-1.29709,0.0063523,0.0144583,1560,1723,9.9532,-58.7688
343,-699,9.94397,58.149,-0.00462893,0.00529483,-0.0031706,0.00622133,-0.00555543,-1.2865,0.00680294,0.0210408,1567,1723,9.94398,-58.149
350,-699,9.94824,57.4744,-0.00424123,0.00572515,-0.00345978,0.00680845,-0.00532453,-1.26735,0.00702242,0.0375434,1574,1723,9.94822,-57.4744
357,-699,9.87488,56.6044,-0.00329648,0.00549029,-0.00398278,0.00702686,-0.00483305,-1.20259,0.00688626,0.04655,1581,1723,9.87485,-56.6043
364,-699,9.83118,56.0155,-0.00230752,0.00520976,-0.00443658,0.00726581,-0.00436357,-1.13683,0.00678356,0.0459819,1588,1723,9.83121,-56.0154
371,-699,9.98267,55.5944,0,0,0,0,0,0,0,-1,1595,1723,9.98264,-55.5944
378,-699,9.83411,54.454,0,0,0,0,0,0,0,-1,1602,1723,9.83407,-54.4539
385,-699,8.04944,42.8464,0,0,0,0,0,0,0,-1,1609,1723,8.04943,-42.8464
392,-699,8.04492,42.0624,0,0,0,0,0,0,0,-1,1616,1723,8.04492,-42.0623
399,-699,8.49963,41.4828,0,0,0,0,0,0,0,-1,1623,1723,8.49961,-41.4828
406,-699,11.7264,44.1525,0,0,0,0,0,0,0,-1,1630,1723,11.7264,-44.1525
413,-699,12.3215,44.3011,0,0,0,0,0,0,0,-1,1637,1723,12.3215,-44.3011
420,-699,8.41907,38.2246,0,0,0,0,0,0,0,-1,1644,1723,8.41902,-38.2247
427,-699,2.98743,11.8593,0,0,0,0,0,0,0,-1,1651,1723,2.98746,-11.8592
434,-699,4.66455,8.90222,0,0,0,0,0,0,0,-1,1658,1723,4.66456,-8.90223
441,-699,0,0,0,0,0,0,0,0,0,-1,1665,1723,0,0
448,-699,0,0,0,0,0,0,0,0,0,-1,1672,1723,0,0
455,-699,0,0,0,0,0,0,0,0,0,-1,1679,1723,0,0
462,-699,0,0,0,0,0,0,0,0,0,-1,1686,1723,0,0
469,-699,0,0,0,0,0,0,0,0,0,-1,1693,1723,0,0
476,-699,0,0,0,0,0,0,0,0,0,-1,1700,1723,0,0
483,-699,0,0,0,0,0,0,0,0,0,-1,1707,1723,0,0
490,-699,0,0,0,0,0,0,0,0,0,-1,1714,1723,0,0
497,-699,0,0,0,0,0,0,0,0,0,-1,1721,1723,0,0
504,-699,0,0,0,0,0,0,0,0,0,-1,1728,1723,0,0
511,-699,0,0,0,0,0,0,0,0,0,-1,1735,1723,0,0
518,-699,0,0,0,0,0,0,0,0,0,-1,1742,1723,0,0
525,-699,0,0,0,0,0,0,0,0,0,-1,1749,1723,0,0
532,-699,0,0,0,0,0,0,0,0,0,-1,1756,1723,0,0
539,-699,0,0,0,0,0,0,0,0,0,-1,1763,1723,0,0
546,-699,0,0,0,0,0,0,0,0,0,-1,1770,1723,0,0
553,-699,0,0,0,0,0,0,0,0,0,-1,1777,1723,0,0
560,-699,0,0,0,0,0,0,0,0,0,-1,1784,1723,0,0
567,-699,0,0,0,0,0,0,0,0,0,-1,1791,1723,0,0
574,-699,0,0,0,0,0,0,0,0,0,-1,1798,1723,0,0
581,-699,0,0,0,0,0,0,0,0,0,-1,1805,1723,0,0
588,-699,0,0,0,0,0,0,0,0,0,-1,1812,1723,0,0
595,-699,0,0,0,0,0,0,0,0,0,-1,1819,1723,0,0
602,-699,0,0,0,0,0,0,0,0,0,-1,1826,1723,0,0
609,-699,0,0,0,0,0,0,0,0,0,-1,1833,1723,0,0
616,-699,0,0,0,0,0,0,0,0,0,-1,1840,1723,0,0
623,-699,0,0,0,0,0,0,0,0,0,-1,1847,1723,0,0
630,-699,0,0,0,0,0,0,0,0,0,-1,1854,1723,0,0
637,-699,0,0,0,0,0,0,0,0,0,-1,1861,1723,0,0
644,-699,0,0,0,0,0,0,0,0,0,-1,1868,1723,0,0
651,-699,0,0,0,0,0,0,0,0,0,-1,1875,1723,0,0
658,-699,0,0,0,0,0,0,0,0,0,-1,1882,1723,0,0
665,-699,0,0,0,0,0,0,0,0,0,-1,1889,1723,0,0
672,-699,0,0,0,0,0,0,0,0,0,-1,1896,1723,0,0
679,-699,0,0,0,0,0,0,0,0,0,-1,1903,1723,0,0
686,-699,0,0,0,0,0,0,0,0,0,-1,1910,1723,0,0
693,-699,0,0,0,0,0,0,0,0,0,-1,1917,1723,0,0
700,-699,0,0,0,0,0,0,0,0,0,-1,1924,1723,0,0
707,-699,0,0,0,0,0,0,0,0,0,-1,1931,1723,0,0
714,-699,0,0,0,0,0,0,0,0,0,-1,1938,1723,0,0
721,-699,0,0,0,0,0,0,0,0,0,-1,1945,1723,0,0
728,-699,0,0,0,0,0,0,0,0,0,-1,1952,1723,0,0
735,-699,0,0,0,0,0,0,0,0,0,-1,1959,1723,0,0
742,-699,0,0,0,0,0,0,0,0,0,-1,1966,1723,0,0
749,-699,0,0,0,0,0,0,0,0,0,-1,1973,1723,0,0
756,-699,0,0,0,0,0,0,0,0,0,-1,1980,1723,0,0
763,-699,0,0,0,0,0,0,0,0,0,-1,1987,1723,0,0
770,-699,0,0,0,0,0,0,0,0,0,-1,1994,1723,0,0
777,-699,0,0,0,0,0,0,0,0,0,-1,2001,1723,0,0
784,-699,0,0,0,0,0,0,0,0,0,-1,2008,1723,0,0
791,-699,0,0,0,0,0,0,0,0,0,-1,2015,1723,0,0
798,-699,0,0,0,0,0,0,0,0,0,-1,2022,1723,0,0
805,-699,0,0,0,0,0,0,0,0,0,-1,2029,1723,0,0
812,-699,0,0,0,0,0,0,0,0,0,-1,2036,1723,0,0
-700,-706,0,0,0,0,0,0,0,0,0,-1,524,1730,0,0
-693,-706,0,0,0,0,0,0,0,0,0,-1,531,1730,0,0
-686,-706,0,0,0,0,0,0,0,0,0,-1,538,1730,0,0
-679,-706,0,0,0,0,0,0,0,0,0,-1,545,1730,0,0
-672,-706,0,0,0,0,0,0,0,0,0,-1,552,1730,0,0
-665,-706,0,0,0,0,0,0,0,0,0,-1,559,1730,0,0
-658,-706,0,0,0,0,0,0,0,0,0,-1,566,1730,0,0
-651,-706,0,0,0,0,0,0,0,0,0,-1,573,1730,0,0
-644,-706,0,0,0,0,0,0,0,0,0,-1,580,1730,0,0
-637,-706,0,0,0,0,0,0,0,0,0,-1,587,1730,0,0
-630,-706,0,0,0,0,0,0,0,0,0,-1,594,1730,0,0
-623,-706,0,0,0,0,0,0,0,0,0,-1,601,1730,0,0
-616,-706,0,0,0,0,0,0,0,0,0,-1,608,1730,0,0
-609,-706,0,0,0,0,0,0,0,0,0,-1,615,1730,0,0
-602,-706,0,0,0,0,0,0,0,0,0,-1,622,1730,0,0
-595,-706,0,0,0,0,0,0,0,0,0,-1,629,1730,0,0
-588,-706,0,0,0,0,0,0,0,0,0,-1,636,1730,0,0
-581,-706,0,0,0,0,0,0,0,0,0,-1,643,1730,0,0
-574,-706,0,0,0,0,0,0,0,0,0,-1,650,1730,0,0
-567,-706,0,0,0,0,0,0,0,0,0,-1,657,1730,0,0
-560,-706,0,0,0,0,0,0,0,0,0,-1,664,1730,0,0
-553,-706,0,0,0,0,0,0,0,0,0,-1,671,1730,0,0
-546,-706,0,0,0,0,0,0,0,0,0,-1,678,1730,0,0
-539,-706,0,0,0,0,0,0,0,0,0,-1,685,1730,0,0
-532,-706,0,0,0,0,0,0,0,0,0,-1,692,1730,0,0
-525,-706,0,0,0,0,0,0,0,0,0,-1,699,1730,0,0
-518,-706,0,0,0,0,0,0,0,0,0,-1,706,1730,0,0
-511,-706,0,0,0,0,0,0,0,0,0,-1,713,1730,0,0
-504,-706,0,0,0,0,0,0,0,0,0,-1,720,1730,0,0
-497,-706,0,0,0,0,0,0,0,0,0,-1,727,1730,0,0
-490,-706,0,0,0,0,0,0,0,0,0,-1,734,1730,0,0
-483,-706,0,0,0,0,0,0,0,0,0,-1,741,1730,0,0
-476,-706,0,0,0,0,0,0,0,0,0,-1,748,1730,0,0
-469,-706,0,0,0,0,0,0,0,0,0,-1,755,1730,0,0
-462,-706,0,0,0,0,0,0,0,0,0,-1,762,1730,0,0
-455,-706,0,0,0,0,0,0,0,0,0,-1,769,1730,0,0
-448,-706,0,0,0,0,0,0,0,0,0,-1,776,1730,0,0
-441,-706,0,0,0,0,0,0,0,0,0,-1,783,1730,0,0
-434,-706,0,0,0,0,0,0,0,0,0,-1,790,1730,0,0
-427,-706,0,0,0,0,0,0,0,0,0,-1,797,1730,0,0
-420,-706,0,0,0,0,0,0,0,0,0,-1,804,1730,0,0
-413,-706,0,0,0,0,0,0,0,0,0,-1,811,1730,0,0
-406,-706,0,0,0,0,0,0,0,0,0,-1,818,1730,0,0
-399,-706,0,0,0,0,0,0,0,0,0,-1,825,1730,0,0
-392,-706,0,0,0,0,0,0,0,0,0,-1,832,1730,0,0
-385,-706,0,0,0,0,0,0,0,0,0,-1,839,1730,0,0
-378,-706,0,0,0,0,0,0,0,0,0,-1,846,1730,0,0
-371,-706,0,0,0,0,0,0,0,0,0,-1,853,1730,0,0
-364,-706,0,0,0,0,0,0,0,0,0,-1,860,1730,0,0
-357,-706,0,0,0,0,0,0,0,0,0,-1,867,1730,0,0
-350,-706,0,0,0,0,0,0,0,0,0,-1,874,1730,0,0
-343,-706,0,0,0,0,0,0,0,0,0,-1,881,1730,0,0
-336,-706,0,0,0,0,0,0,0,0,0,-1,888,1730,0,0
-329,-706,0,0,0,0,0,0,0,0,0,-1,895,1730,0,0
-322,-706,0,0,0,0,0,0,0,0,0,-1,902,1730,0,0
-315,-706,0,0,0,0,0,0,0,0,0,-1,909,1730,0,0
-308,-706,5.08191,14.6245,0,0,0,0,0,0,0,-1,916,1730,5.08188,-14.6245
-301,-706,7.45007,21.1975,0,0,0,0,0,0,0,-1,923,1730,7.45005,-21.1976
-294,-706,11.8603,21.026,0,0,0,0,0,0,0,-1,930,1730,11.8603,-21.026
-287,-706,10.3292,20.8425,0,0,0,0,0,0,0,-1,937,1730,10.3292,-20.8425
-280,-706,7.9162,21.8951,0,0,0,0,0,0,0,-1,944,1730,7.9162,-21.8952
-273,-706,7.38953,20.6355,0,0,0,0,0,0,0,-1,951,1730,7.38955,-20.6355
-266,-706,9.66724,22.8231,0,0,0,0,0,0,0,-1,958,1730,9.66722,-22.8231
-259,-706,3.47852,20.7363,0,0,0,0,0,0,0,-1,965,1730,3.47851,-20.7364
-252,-706,3.84259,20.1979,0,0,0,0,0,0,0,-1,972,1730,3.84256,-20.1979
-245,-706,4.698,19.2992,0,0,0,0,0,0,0,-1,979,1730,4.69799,-19.2991
-238,-706,7.87585,53.6793,0,0,0,0,0,0,0,-1,986,1730,7.87588,-53.6793
-231,-706,9.31274,57.3867,0,0,0,0,0,0,0,-1,993,1730,9.31272,-57.3868
-224,-706,8.77875,58.2648,0,0,0,0,0,0,0,-1,1000,1730,8.77878,-58.2648
-217,-706,8.36334,58.4863,0,0,0,0,0,0,0,-1,1007,1730,8.36333,-58.4863
-210,-706,8.42175,59.1649,-0.00924136,0.0135548,0.00676372,0.0154105,-0.0110971,1.30302,0.0153716,0.044806,1014,1730,8.42174,-59.1649
-203,-706,8.49402,59.8491,-0.00745815,0.0115918,0.00691375,0.0138365,-0.00970284,1.25686,0.0136601,0.0337084,1021,1730,8.49405,-59.8491
-196,-706,8.44824,60.5072,-0.00589799,0.0100828,0.00684724,0.0126153,-0.00843047,1.21654,0.0122306,0.0248275,1028,1730,8.44822,-60.5072
-189,-706,8.34949,61.2007,-0.00449254,0.00893382,0.00668704,0.011696,-0.00725476,1.17907,0.011041,0.0206684,1035,1730,8.34949,-61.2007
-182,-706,8.31897,61.8518,-0.00333741,0.00755249,0.00637793,0.0104936,-0.00627848,1.13872,0.00978475,0.0159473,1042,1730,8.31903,-61.8518
-175,-706,8.30042,62.4501,-0.0023625,0.00632529,0.00588552,0.00929637,-0.00533357,1.10331,0.00854926,0.0167129,1049,1730,8.30042,-62.45
-168,-706,8.27771,63.0126,-0.00177479,0.00540947,0.00528957,0.00821132,-0.00457664,1.08368,0.00748188,0.0168682,1056,1730,8.27766,-63.0126
-161,-706,8.21863,63.5667,-0.00145101,0.00451366,0.00469011,0.00708933,-0.00402668,1.06859,0.00649852,0.0129978,1063,1730,8.21861,-63.5666
-154,-706,8.15344,64.1281,-0.00116949,0.00368487,0.00398525,0.00592389,-0.00340851,1.05892,0.00545291,0.0123041,1070,1730,8.15343,-64.1281
-147,-706,8.09827,64.6501,-0.00078397,0.00306511,0.00335805,0.00501101,-0.00272988,1.04561,0.00453343,0.0116598,1077,1730,8.09821,-64.6501
-140,-706,8.07483,65.1698,-0.000331567,0.00242153,0.00281055,0.00417453,-0.00208457,1.01312,0.00368023,0.0116525,1084,1730,8.07488,-65.1699
-133,-706,8.04553,65.6699,5.88578e-06,0.00193058,0.00226099,0.00342551,-0.00148904,0.986601,0.00290991,0.0100834,1091,1730,8.04557,-65.6699
-126,-706,8.04138,66.1405,0.00030387,0.00164561,0.00170665,0.00280851,-0.000859037,0.972666,0.00221493,0.0155044,1098,1730,8.04136,-66.1404
-119,-706,8.02734,66.6392,0.000589849,0.00141823,0.00128255,0.00235181,-0.000343729,0.941583,0.00169411,0.0196802,1105,1730,8.02735,-66.6391
-112,-706,8.00488,67.141,0.000927603,0.00139891,0.00107258,0.00226142,6.50994e-05,0.893535,0.00148639,0.0136042,1112,1730,8.00493,-67.141
-105,-706,7.96167,67.5806,0.00125426,0.00123569,0.000840448,0.00208548,0.000404478,0.779874,0.00127703,0.0104266,1119,1730,7.96164,-67.5806
-98,-706,8.00037,68.002,0.00156228,0.00112781,0.000675569,0.00205468,0.000635407,0.62984,0.00121471,0.0121037,1126,1730,8.00031,-68.0019
-91,-706,8.021,68.4329,0.00196527,0.00115364,0.000481088,0.00218884,0.000930062,0.435034,0.00126847,0.0159476,1133,1730,8.02104,-68.4329
-84,-706,7.98962,68.845,0.00247509,0.00103834,0.000237356,0.00251328,0.00100014,0.159557,0.00146109,0.0192992,1140,1730,7.98965,-68.8449
-77,-706,7.99902,69.2048,0.00301013,0.000872187,3.29139e-05,0.00301064,0.00087168,0.0153903,0.00178878,0.0179651,1147,1730,7.99904,-69.2048
-70,-706,8.00854,69.587,0.00334398,0.00058441,-0.000277922,0.00337169,0.000556699,-0.0993825,0.00208712,0.0192482,1154,1730,8.00857,-69.587
-63,-706,8.00293,69.9297,0.00451363,0.000377033,-0.00103597,0.00475857,0.000132087,-0.232177,0.00312928,0.0148066,1161,1730,8.00296,-69.9297
-56,-706,8.00024,70.2581,0.00611749,0.000222626,-0.00215362,0.00682046,-0.000480345,-0.31551,0.00471525,0.0151494,1168,1730,8.00023,-70.2581
-49,-706,8.01672,70.5906,0.00739826,-0.000150156,-0.00311707,0.00851903,-0.00127092,-0.345164,0.00614694,0.0167614,1175,1730,8.0167,-70.5906
-42,-706,8.07715,70.8835,0.00859947,-0.000596317,-0.00411276,0.0101705,-0.00216733,-0.364881,0.0076064,0.0220285,1182,1730,8.07715,-70.8835
-35,-706,8.09778,71.1278,0.00989317,-0.00111562,-0.00529624,0.0120274,-0.00324985,-0.383064,0.00929293,0.0178266,1189,1730,8.0978,-71.1278
-28,-706,8.14661,71.3608,0.0109586,-0.00230667,-0.00644554,0.0135745,-0.00492266,-0.385547,0.0110619,0.0119624,1196,1730,8.14657,-71.3608
-21,-706,8.16785,71.5537,0.0118147,-0.00313411,-0.00760841,0.0150058,-0.0063253,-0.397142,0.0126509,0.0140691,1203,1730,8.1679,-71.5537
-14,-706,8.21533,71.775,0.0125266,-0.00400076,-0.00863679,0.0162163,-0.00769044,-0.403736,0.0140921,0.0133158,1210,1730,8.2153,-71.775
-7,-706,8.30151,72.0096,0.0135258,-0.00483621,-0.00953038,0.0175781,-0.00888846,-0.402033,0.0155526,0.0096609,1217,1730,8.30156,-72.0097
0,-706,8.37402,72.2224,0.0149653,-0.00460975,-0.0109795,0.0198865,-0.00953092,-0.421367,0.0173314,0.0143995,1224,1730,8.37401,-72.2224
7,-706,8.41406,72.3575,0.0157928,-0.00458443,-0.0118316,0.0212182,-0.0100098,-0.429937,0.0184125,0.0177006,1231,1730,8.41409,-72.3576
14,-706,8.48047,72.4727,0.0166572,-0.00434041,-0.0126052,0.0225631,-0.0102463,-0.438158,0.0193824,0.017218,1238,1730,8.4805,-72.4726
21,-706,8.54968,72.5798,0.0174425,-0.00349068,-0.0133152,0.0239124,-0.00996057,-0.452306,0.0201019,0.0130718,1245,1730,8.54969,-72.5798
28,-706,8.61584,72.6875,0.0183342,-0.00255918,-0.0134533,0.0249205,-0.00914553,-0.45527,0.0203588,0.0123409,1252,1730,8.61579,-72.6875
35,-706,8.66113,72.7932,0.0191559,-0.00153905,-0.0137291,0.0260003,-0.00838338,-0.462469,0.0207017,0.0144651,1259,1730,8.66117,-72.7932
42,-706,8.72815,72.853,0.0190486,-0.000675505,-0.0135066,0.0259104,-0.00753734,-0.470055,0.020259,0.0144192,1266,1730,8.72814,-72.853
49,-706,8.80615,72.8765,0.0183956,-0.000165919,-0.0128721,0.0249838,-0.00675412,-0.473058,0.0193052,0.0170821,1273,1730,8.80611,-72.8764
56,-706,8.89441,72.8755,0.0169265,-3.36597e-05,-0.0118297,0.0230016,-0.00610877,-0.474426,0.0177251,0.0163044,1280,1730,8.89435,-72.8755
63,-706,8.96362,72.8732,0.0144509,-0.000281622,-0.0104667,0.0198836,-0.00571433,-0.478769,0.0155153,0.0131259,1287,1730,8.96357,-72.8732
70,-706,9.01477,72.8789,0.0114194,-0.000775947,-0.00890706,0.016116,-0.00547259,-0.485244,0.0129593,0.0128723,1294,1730,9.01478,-72.8789
77,-706,9.07397,72.8346,0.00855594,-0.00152503,-0.00736729,0.012442,-0.00541111,-0.485387,0.0105706,0.0115168,1301,1730,9.07401,-72.8346
84,-706,9.16052,72.7695,0.00543744,-0.00302655,-0.00584814,0.00842421,-0.00601332,-0.472187,0.00837416,0.0100257,1308,1730,9.16051,-72.7695
91,-706,9.22156,72.7085,0.00226396,-0.00436178,-0.00460095,0.00462064,-0.00671847,-0.473374,0.00658388,0.0111794,1315,1730,9.2215,-72.7084
98,-706,9.23853,72.615,-0.00102424,-0.00561455,-0.00353699,0.000897013,-0.0075358,-0.497597,0.005348,0.014747,1322,1730,9.23854,-72.6149
105,-706,9.29492,72.531,-0.00407242,-0.00740183,-0.00208467,-0.00306933,-0.00840492,-0.448472,0.00491103,0.0170293,1329,1730,9.29492,-72.531
112,-706,9.32117,72.4263,-0.00504032,-0.00800182,-0.00209504,-0.00395557,-0.00908657,-0.477764,0.00526074,0.0171218,1336,1730,9.32123,-72.4263
119,-706,9.36743,72.2764,-0.00555009,-0.0083065,-0.00208378,-0.00442998,-0.00942661,-0.493225,0.00544573,0.014616,1343,1730,9.3674,-72.2763
126,-706,9.4657,72.0549,-0.00591059,-0.00867001,-0.00177886,-0.00503909,-0.00954151,-0.455552,0.0055117,0.0158279,1350,1730,9.4657,-72.0549
133,-706,9.56702,71.8113,-0.00597509,-0.00843234,-0.00184132,-0.00499013,-0.00941731,-0.491194,0.00544032,0.0144205,1357,1730,9.56703,-71.8112
140,-706,9.599,71.5308,-0.00521172,-0.00773514,-0.00162488,-0.00441621,-0.00853065,-0.455276,0.0049262,0.0140505,1364,1730,9.59899,-71.5307
147,-706,9.68359,71.2795,-0.00393391,-0.00694628,-0.00141483,-0.00337362,-0.00750658,-0.377066,0.00434131,0.0249621,1371,1730,9.6836,-71.2796
154,-706,9.74878,71.0956,-0.00239104,-0.00591776,-0.00122424,-0.00200772,-0.00630107,-0.303434,0.00371685,0.0249966,1378,1730,9.74879,-71.0955
161,-706,9.7312,70.7916,-0.00057368,-0.0047196,-0.000989998,-0.000349412,-0.00494387,-0.222774,0.00318584,0.0121449,1385,1730,9.73119,-70.7916
168,-706,9.7644,70.5006,0.00120104,-0.0037204,-0.000618002,0.00127746,-0.00379681,-0.123029,0.00304762,0.011499,1392,1730,9.7644,-70.5006
175,-706,9.81677,70.2163,0.00282706,-0.00296889,-0.000202176,0.0028341,-0.00297594,-0.0348258,0.00335476,0.0118665,1399,1730,9.81681,-70.2163
182,-706,9.82178,69.8842,0.00344978,-0.00170145,-0.000197157,0.00345731,-0.00170898,-0.0381994,0.00303916,0.0120012,1406,1730,9.82176,-69.8841
189,-706,9.82056,69.5284,0.0040178,-0.000525604,-0.000165527,0.00402383,-0.000531626,-0.036368,0.00287618,0.0145792,1413,1730,9.82053,-69.5285
196,-706,9.8501,69.1492,0.00440083,-3.49475e-05,-0.00014007,0.00440524,-3.93661e-05,-0.0315354,0.00295004,0.013412,1420,1730,9.85015,-69.1491
203,-706,9.88318,68.7712,0.00385351,0.00019247,-0.000403992,0.00389756,0.00014842,-0.108608,0.00255034,0.0149437,1427,1730,9.88313,-68.7712
210,-706,9.89136,68.3644,0.00331538,0.000462788,-0.000675844,0.0034674,0.000310766,-0.221253,0.00221529,0.0140187,1434,1730,9.89134,-68.3644
217,-706,9.87244,67.9685,0.00274486,0.000784544,-0.000884049,0.00308465,0.000444759,-0.366944,0.00192538,0.0143942,1441,1730,9.87243,-67.9685
224,-706,9.83508,67.5635,0.00216734,0.0010935,-0.00111686,0.00286963,0.000391205,-0.561337,0.00179694,0.0204454,1448,1730,9.83509,-67.5635
231,-706,9.87341,67.076,0.00160871,0.00133321,-0.00136859,0.00284647,9.54549e-05,-0.735241,0.00186664,0.0157396,1455,1730,9.87336,-67.076
238,-706,9.86853,66.5953,0.00113359,0.00156402,-0.00156035,0.00292393,-0.000226315,-0.85393,0.00202894,0.00925994,1462,1730,9.86853,-66.5953
245,-706,9.85828,66.106,0.000642642,0.00171609,-0.00168846,0.00295108,-0.000592349,-0.939286,0.00219168,0.0112089,1469,1730,9.85822,-66.106
252,-706,9.83472,65.6271,6.94756e-05,0.00194488,-0.00175915,0.00300064,-0.000986284,-1.03026,0.00239778,0.0117643,1476,1730,9.83466,-65.6271
259,-706,9.82751,65.1355,-0.000448941,0.00204065,-0.00185861,0.0030328,-0.0014411,-1.08046,0.00263693,0.0131991,1483,1730,9.82747,-65.1355
266,-706,9.79724,64.6329,-0.000885171,0.00214993,-0.0020206,0.00315939,-0.00189464,-1.10748,0.00294824,0.0134115,1490,1730,9.79723,-64.633
273,-706,9.7605,64.1017,-0.0013026,0.00231595,-0.00215942,0.00332387,-0.00231052,-1.1341,0.00327051,0.0135405,1497,1730,9.76045,-64.1017
280,-706,9.72852,63.5376,-0.00185453,0.0024912,-0.00227534,0.00346453,-0.00282785,-1.16658,0.0036391,0.0115053,1504,1730,9.72849,-63.5376
287,-706,9.68958,62.9879,-0.00253653,0.00257927,-0.00234648,0.00349251,-0.00344977,-1.19964,0.00400815,0.0118922,1511,1730,9.68957,-62.988
294,-706,9.66565,62.4293,-0.00338591,0.00282057,-0.00215751,0.00349687,-0.00406222,-1.26703,0.00436831,0.0118742,1518,1730,9.66565,-62.4294
301,-706,9.63171,61.8402,-0.00407399,0.0031542,-0.00234809,0.00385,-0.00476979,-1.28271,0.00498608,0.0111786,1525,1730,9.63176,-61.8402
308,-706,9.59778,61.2546,-0.00481605,0.00384551,-0.00254785,0.00453939,-0.00550993,-1.30491,0.00581099,0.0178994,1532,1730,9.5978,-61.2546
315,-706,9.60132,60.6051,-0.00541251,0.00449593,-0.00264902,0.00515968,-0.00607626,-1.32529,0.00649427,0.0433301,1539,1730,9.60136,-60.6051
322,-706,9.547,59.7385,0,0,0,0,0,0,0,-1,1546,1730,9.54695,-59.7386
329,-706,9.43945,59.3827,-0.0063245,0.0057932,-0.00307337,0.00652812,-0.00705942,-1.33608,0.00784677,0.0389284,1553,1730,9.43943,-59.3827
336,-706,9.29492,58.8427,-0.00671027,0.00657384,-0.00336288,0.00737664,-0.00751307,-1.33646,0.0085967,0.0382428,1560,1730,9.29496,-58.8427
343,-706,8.98767,58.0725,-0.00683902,0.00721257,-0.00370336,0.00812886,-0.00775531,-1.32825,0.00917157,0.0428605,1567,1730,8.98769,-58.0725
350,-706,9.33899,57.5121,0,0,0,0,0,0,0,-1,1574,1730,9.33904,-57.5121
357,-706,9.35022,56.5447,0,0,0,0,0,0,0,-1,1581,1730,9.35023,-56.5446
364,-706,9.1123,56.0826,0,0,0,0,0,0,0,-1,1588,1730,9.11233,-56.0826
371,-706,8.6084,48.7302,0,0,0,0,0,0,0,-1,1595,1730,8.60844,-48.7303
378,-706,7.63867,44.0519,0,0,0,0,0,0,0,-1,1602,1730,7.63863,-44.0519
385,-706,7.3186,43.2451,0,0,0,0,0,0,0,-1,1609,1730,7.31862,-43.2451
392,-706,7.33728,42.4652,0,0,0,0,0,0,0,-1,1616,1730,7.3373,-42.4651
399,-706,7.51855,41.7692,0,0,0,0,0,0,0,-1,1623,1730,7.51855,-41.7691
406,-706,7.46301,40.9797,0,0,0,0,0,0,0,-1,1630,1730,7.46301,-40.9797
413,-706,8.43433,40.3345,0,0,0,0,0,0,0,-1,1637,1730,8.43428,-40.3344
420,-706,8.0636,39.6101,0,0,0,0,0,0,0,-1,1644,1730,8.06362,-39.6101
427,-706,0,0,0,0,0,0,0,0,0,-1,1651,1730,0,0
434,-706,0,0,0,0,0,0,0,0,0,-1,1658,1730,0,0
441,-706,0,0,0,0,0,0,0,0,0,-1,1665,1730,0,0
448,-706,0,0,0,0,0,0,0,0,0,-1,1672,1730,0,0
455,-706,0,0,0,0,0,0,0,0,0,-1,1679,1730,0,0
462,-706,0,0,0,0,0,0,0,0,0,-1,1686,1730,0,0
469,-706,0,0,0,0,0,0,0,0,0,-1,1693,1730,0,0
476,-706,0,0,0,0,0,0,0,0,0,-1,1700,1730,0,0
483,-706,0,0,0,0,0,0,0,0,0,-1,1707,1730,0,0
490,-706,0,0,0,0,0,0,0,0,0,-1,1714,1730,0,0
497,-706,0,0,0,0,0,0,0,0,0,-1,1721,1730,0,0
504,-706,0,0,0,0,0,0,0,0,0,-1,1728,1730,0,0
511,-706,0,0,0,0,0,0,0,0,0,-1,1735,1730,0,0
518,-706,0,0,0,0,0,0,0,0,0,-1,1742,1730,0,0
525,-706,0,0,0,0,0,0,0,0,0,-1,1749,1730,0,0
532,-706,0,0,0,0,0,0,0,0,0,-1,1756,1730,0,0
539,-706,0,0,0,0,0,0,0,0,0,-1,1763,1730,0,0
546,-706,0,0,0,0,0,0,0,0,0,-1,1770,1730,0,0
553,-706,0,0,0,0,0,0,0,0,0,-1,1777,1730,0,0
560,-706,0,0,0,0,0,0,0,0,0,-1,1784,1730,0,0
567,-706,0,0,0,0,0,0,0,0,0,-1,1791,1730,0,0
574,-706,0,0,0,0,0,0,0,0,0,-1,1798,1730,0,0
581,-706,0,0,0,0,0,0,0,0,0,-1,1805,1730,0,0
588,-706,0,0,0,0,0,0,0,0,0,-1,1812,1730,0,0
595,-706,0,0,0,0,0,0,0,0,0,-1,1819,1730,0,0
602,-706,0,0,0,0,0,0,0,0,0,-1,1826,1730,0,0
609,-706,0,0,0,0,0,0,0,0,0,-1,1833,1730,0,0
616,-706,0,0,0,0,0,0,0,0,0,-1,1840,1730,0,0
623,-706,0,0,0,0,0,0,0,0,0,-1,1847,1730,0,0
630,-706,0,0,0,0,0,0,0,0,0,-1,1854,1730,0,0
637,-706,0,0,0,0,0,0,0,0,0,-1,1861,1730,0,0
644,-706,0,0,0,0,0,0,0,0,0,-1,1868,1730,0,0
651,-706,0,0,0,0,0,0,0,0,0,-1,1875,1730,0,0
658,-706,0,0,0,0,0,0,0,0,0,-1,1882,1730,0,0
665,-706,0,0,0,0,0,0,0,0,0,-1,1889,1730,0,0
672,-706,0,0,0,0,0,0,0,0,0,-1,1896,1730,0,0
679,-706,0,0,0,0,0,0,0,0,0,-1,1903,1730,0,0
686,-706,0,0,0,0,0,0,0,0,0,-1,1910,1730,0,0
693,-706,0,0,0,0,0,0,0,0,0,-1,1917,1730,0,0
700,-706,0,0,0,0,0,0,0,0,0,-1,1924,1730,0,0
707,-706,0,0,0,0,0,0,0,0,0,-1,1931,1730,0,0
714,-706,0,0,0,0,0,0,0,0,0,-1,1938,1730,0,0
721,-706,0,0,0,0,0,0,0,0,0,-1,1945,1730,0,0
728,-706,0,0,0,0,0,0,0,0,0,-1,1952,1730,0,0
735,-706,0,0,0,0,0,0,0,0,0,-1,1959,1730,0,0
742,-706,0,0,0,0,0,0,0,0,0,-1,1966,1730,0,0
749,-706,0,0,0,0,0,0,0,0,0,-1,1973,1730,0,0
756,-706,0,0,0,0,0,0,0,0,0,-1,1980,1730,0,0
763,-706,0,0,0,0,0,0,0,0,0,-1,1987,1730,0,0
770,-706,0,0,0,0,0,0,0,0,0,-1,1994,1730,0,0
777,-706,0,0,0,0,0,0,0,0,0,-1,2001,1730,0,0
784,-706,0,0,0,0,0,0,0,0,0,-1,2008,1730,0,0
791,-706,0,0,0,0,0,0,0,0,0,-1,2015,1730,0,0
798,-706,0,0,0,0,0,0,0,0,0,-1,2022,1730,0,0
805,-706,0,0,0,0,0,0,0,0,0,-1,2029,1730,0,0
812,-706,0,0,0,0,0,0,0,0,0,-1,2036,1730,0,0
-700,-713,0,0,0,0,0,0,0,0,0,-1,524,1737,0,0
-693,-713,0,0,0,0,0,0,0,0,0,-1,531,1737,0,0
-686,-713,0,0,0,0,0,0,0,0,0,-1,538,1737,0,0
-679,-713,0,0,0,0,0,0,0,0,0,-1,545,1737,0,0
-672,-713,0,0,0,0,0,0,0,0,0,-1,552,1737,0,0
-665,-713,0,0,0,0,0,0,0,0,0,-1,559,1737,0,0
-658,-713,0,0,0,0,0,0,0,0,0,-1,566,1737,0,0
-651,-713,0,0,0,0,0,0,0,0,0,-1,573,1737,0,0
-644,-713,0,0,0,0,0,0,0,0,0,-1,580,1737,0,0
-637,-713,0,0,0,0,0,0,0,0,0,-1,587,1737,0,0
-630,-713,0,0,0,0,0,0,0,0,0,-1,594,1737,0,0
-623,-713,0,0,0,0,0,0,0,0,0,-1,601,1737,0,0
-616,-713,0,0,0,0,0,0,0,0,0,-1,608,1737,0,0
-609,-713,0,0,0,0,0,0,0,0,0,-1,615,1737,0,0
-602,-713,0,0,0,0,0,0,0,0,0,-1,622,1737,0,0
-595,-713,0,0,0,0,0,0,0,0,0,-1,629,1737,0,0
-588,-713,0,0,0,0,0,0,0,0,0,-1,636,1737,0,0
-581,-713,0,0,0,0,0,0,0,0,0,-1,643,1737,0,0
-574,-713,0,0,0,0,0,0,0,0,0,-1,650,1737,0,0
-567,-713,0,0,0,0,0,0,0,0,0,-1,657,1737,0,0
-560,-713,0,0,0,0,0,0,0,0,0,-1,664,1737,0,0
-553,-713,0,0,0,0,0,0,0,0,0,-1,671,1737,0,0
-546,-713,0,0,0,0,0,0,0,0,0,-1,678,1737,0,0
-539,-713,0,0,0,0,0,0,0,0,0,-1,685,1737,0,0
-532,-713,0,0,0,0,0,0,0,0,0,-1,692,1737,0,0
-525,-713,0,0,0,0,0,0,0,0,0,-1,699,1737,0,0
-518,-713,0,0,0,0,0,0,0,0,0,-1,706,1737,0,0
-511,-713,0,0,0,0,0,0,0,0,0,-1,713,1737,0,0
-504,-713,0,0,0,0,0,0,0,0,0,-1,720,1737,0,0
-497,-713,0,0,0,0,0,0,0,0,0,-1,727,1737,0,0
-490,-713,0,0,0,0,0,0,0,0,0,-1,734,1737,0,0
-483,-713,0,0,0,0,0,0,0,0,0,-1,741,1737,0,0
-476,-713,0,0,0,0,0,0,0,0,0,-1,748,1737,0,0
-469,-713,0,0,0,0,0,0,0,0,0,-1,755,1737,0,0
-462,-713,0,0,0,0,0,0,0,0,0,-1,762,1737,0,0
-455,-713,0,0,0,0,0,0,0,0,0,-1,769,1737,0,0
-448,-713,0,0,0,0,0,0,0,0,0,-1,776,1737,0,0
-441,-713,0,0,0,0,0,0,0,0,0,-1,783,1737,0,0
-434,-713,0,0,0,0,0,0,0,0,0,-1,790,1737,0,0
-427,-713,0,0,0,0,0,0,0,0,0,-1,797,1737,0,0
-420,-713,0,0,0,0,0,0,0,0,0,-1,804,1737,0,0
-413,-713,0,0,0,0,0,0,0,0,0,-1,811,1737,0,0
-406,-713,0,0,0,0,0,0,0,0,0,-1,818,1737,0,0
-399,-713,0,0,0,0,0,0,0,0,0,-1,825,1737,0,0
-392,-713,0,0,0,0,0,0,0,0,0,-1,832,1737,0,0
-385,-713,0,0,0,0,0,0,0,0,0,-1,839,1737,0,0
-378,-713,0,0,0,0,0,0,0,0,0,-1,846,1737,0,0
-371,-713,0,0,0,0,0,0,0,0,0,-1,853,1737,0,0
-364,-713,0,0,0,0,0,0,0,0,0,-1,860,1737,0,0
-357,-713,0,0,0,0,0,0,0,0,0,-1,867,1737,0,0
-350,-713,0,0,0,0,0,0,0,0,0,-1,874,1737,0,0
-343,-713,0,0,0,0,0,0,0,0,0,-1,881,1737,0,0
-336,-713,0,0,0,0,0,0,0,0,0,-1,888,1737,0,0
-329,-713,0,0,0,0,0,0,0,0,0,-1,895,1737,0,0
-322,-713,0,0,0,0,0,0,0,0,0,-1,902,1737,0,0
-315,-713,0,0,0,0,0,0,0,0,0,-1,909,1737,0,0
-308,-713,0,0,0,0,0,0,0,0,0,-1,916,1737,0,0
-301,-713,0,0,0,0,0,0,0,0,0,-1,923,1737,0,0
-294,-713,7.17883,22.0453,0,0,0,0,0,0,0,-1,930,1737,7.17881,-22.0453
-287,-713,11.8916,21.5834,0,0,0,0,0,0,0,-1,937,1737,11.8916,-21.5833
-280,-713,10.2786,21.3551,0,0,0,0,0,0,0,-1,944,1737,10.2787,-21.3551
-273,-713,11.1981,23.8683,0,0,0,0,0,0,0,-1,951,1737,11.198,-23.8683
-266,-713,3.17981,19.8851,0,0,0,0,0,0,0,-1,958,1737,3.17983,-19.8851
-259,-713,3.5921,19.6868,0,0,0,0,0,0,0,-1,965,1737,3.59207,-19.6868
-252,-713,4.55469,20.5758,0,0,0,0,0,0,0,-1,972,1737,4.55466,-20.5758
-245,-713,3.89014,25.9825,0,0,0,0,0,0,0,-1,979,1737,3.89013,-25.9826
-238,-713,6.62506,30.5463,0,0,0,0,0,0,0,-1,986,1737,6.62509,-30.5462
-231,-713,8.52356,54.5547,0,0,0,0,0,0,0,-1,993,1737,8.52359,-54.5547
-224,-713,9.021,54.7601,0,0,0,0,0,0,0,-1,1000,1737,9.02097,-54.7602
-217,-713,8.9989,57.66,0,0,0,0,0,0,0,-1,1007,1737,8.99887,-57.66
-210,-713,8.91827,59.1681,0,0,0,0,0,0,0,-1,1014,1737,8.91825,-59.1681
-203,-713,9.23706,59.6951,0,0,0,0,0,0,0,-1,1021,1737,9.23708,-59.6951
-196,-713,9.09851,60.3068,-0.00707799,0.013516,0.00918064,0.0170144,-0.0105764,1.20672,0.0160734,0.0473168,1028,1737,9.09852,-60.3068
-189,-713,8.92773,60.9503,-0.00552166,0.0121047,0.00903246,0.0159112,-0.00932821,1.17195,0.0147363,0.0428612,1035,1737,8.92771,-60.9503
-182,-713,8.84253,61.7433,-0.00434967,0.0103748,0.00861838,0.0143474,-0.00832229,1.13888,0.0132415,0.0285661,1042,1737,8.84256,-61.7433
-175,-713,8.83948,62.3983,-0.00335933,0.00863438,0.00795099,0.0125965,-0.00732142,1.1085,0.0116332,0.0228858,1049,1737,8.83946,-62.3984
-168,-713,8.86108,62.9667,-0.00276613,0.00737898,0.00718436,0.0111011,-0.00648822,1.09279,0.0102709,0.0251482,1056,1737,8.86109,-62.9667
-161,-713,8.74805,63.5719,-0.00244861,0.00616136,0.00643508,0.00959867,-0.00588593,1.0802,0.00902529,0.0131717,1063,1737,8.74803,-63.5719
-154,-713,8.6543,64.1329,-0.00221081,0.00503869,0.00557528,0.00806394,-0.00523606,1.07364,0.0077364,0.0107929,1070,1737,8.65429,-64.1329
-147,-713,8.60107,64.7058,-0.00187465,0.0041831,0.00480877,0.00683739,-0.00452894,1.06644,0.00660731,0.017033,1077,1737,8.60112,-64.7058
-140,-713,8.59949,65.2246,-0.00145228,0.00334262,0.00414547,0.00573397,-0.00384364,1.04757,0.00556542,0.018961,1084,1737,8.59946,-65.2246
-133,-713,8.53625,65.6901,-0.00116534,0.00269453,0.00346208,0.00472826,-0.00319907,1.03967,0.00460515,0.0138825,1091,1737,8.53622,-65.6901
-126,-713,8.51379,66.1528,-0.000944534,0.00232145,0.00276331,0.00389821,-0.0025213,1.05227,0.00373462,0.0202876,1098,1737,8.51383,-66.1528
-119,-713,8.50891,66.6302,-0.000791143,0.00205587,0.00222908,0.0032772,-0.00201248,1.06956,0.00308296,0.0275771,1105,1737,8.50886,-66.6302
-112,-713,8.44727,67.1622,-0.000532443,0.00215951,0.00201701,0.00323841,-0.00161133,1.07962,0.00285204,0.0146492,1112,1737,8.44725,-67.1623
-105,-713,8.43652,67.5969,-0.000256107,0.00209041,0.00175457,0.00302785,-0.00119355,1.0801,0.00251275,0.0121334,1119,1737,8.43654,-67.597
-98,-713,8.42444,68.0076,-2.64199e-05,0.00209805,0.00158316,0.00294231,-0.00087068,1.08088,0.0023072,0.0111296,1126,1737,8.42439,-68.0076
-91,-713,8.37927,68.4248,0.000272162,0.00223229,0.00142565,0.00298226,-0.0004778,1.08653,0.00216508,0.010795,1133,1737,8.37925,-68.4248
-84,-713,8.34839,68.8368,0.000554798,0.00203261,0.0011753,0.00268199,-9.45738e-05,1.06602,0.00182033,0.010496,1140,1737,8.34844,-68.8368
-77,-713,8.35535,69.2173,0.0009289,0.0019604,0.000982697,0.00255446,0.000334833,1.02705,0.00160306,0.0136038,1147,1737,8.35538,-69.2172
-70,-713,8.37524,69.5822,0.0012614,0.00184349,0.000741318,0.00234885,0.000756043,0.972454,0.00138449,0.01551,1154,1737,8.37525,-69.5822
-63,-713,8.36121,69.9391,0.00166015,0.00155816,0.0005485,0.00216002,0.00105829,0.739047,0.00124717,0.0144644,1161,1737,8.36121,-69.9391
-56,-713,8.35852,70.2666,0.00222354,0.00118335,0.000250789,0.00228085,0.00112605,0.224654,0.00131688,0.0147286,1168,1737,8.35847,-70.2666
-49,-713,8.3291,70.5774,0.00283497,0.000706774,-0.000167729,0.0028481,0.000693636,-0.0781696,0.00171494,0.0176129,1175,1737,8.32908,-70.5774
-42,-713,8.33887,70.868,0.00347878,0.000119602,-0.000650493,0.00360034,-1.96428e-06,-0.184752,0.00240089,0.0204307,1182,1737,8.33888,-70.868
-35,-713,8.38892,71.1252,0.00427092,-0.000510442,-0.00127024,0.00458743,-0.000826949,-0.244198,0.00336795,0.0156922,1189,1737,8.38895,-71.1253
-28,-713,8.42407,71.3895,0.00500951,-0.00149623,-0.00196315,0.005556,-0.00204271,-0.271499,0.00454074,0.0148227,1196,1737,8.42408,-71.3895
-21,-713,8.42151,71.5952,0.00563481,-0.0023689,-0.00266311,0.00643993,-0.00317402,-0.293587,0.00565636,0.011402,1203,1737,8.42153,-71.5952
-14,-713,8.4458,71.8104,0.00622963,-0.00318551,-0.00334132,0.00729489,-0.00425077,-0.308628,0.00674268,0.0125394,1210,1737,8.44585,-71.8104
-7,-713,8.50159,72.0413,0.00708671,-0.00397323,-0.00402204,0.00839467,-0.0052812,-0.314412,0.00796368,0.0105385,1217,1737,8.50163,-72.0413
0,-713,8.54944,72.2168,0.00831499,-0.0040368,-0.00505994,0.0101231,-0.00584493,-0.343201,0.0093288,0.0160793,1224,1737,8.54944,-72.2168
7,-713,8.57898,72.3484,0.00917216,-0.00413844,-0.0057111,0.0112867,-0.00625296,-0.354597,0.0102646,0.0204933,1231,1737,8.57897,-72.3483
14,-713,8.60669,72.4948,0.0100133,-0.00407957,-0.006283,0.0124076,-0.00647392,-0.364094,0.0110792,0.0145199,1238,1737,8.6067,-72.4947
21,-713,8.66321,72.63,0.010774,-0.00362225,-0.00681259,0.0134867,-0.00633493,-0.378943,0.0116897,0.0115142,1245,1737,8.66317,-72.63
28,-713,8.70129,72.7413,0.0115842,-0.00310788,-0.00696603,0.0143619,-0.00588557,-0.379427,0.0120265,0.0121284,1252,1737,8.70126,-72.7414
35,-713,8.73462,72.8247,0.0123143,-0.00251677,-0.00717076,0.0152143,-0.00541675,-0.384309,0.012351,0.0122011,1259,1737,8.73464,-72.8247
42,-713,8.80188,72.881,0.0124476,-0.00194908,-0.00711624,0.0153713,-0.00487285,-0.389832,0.0122006,0.012375,1266,1737,8.80191,-72.881
49,-713,8.84839,72.8447,0.0121347,-0.0016211,-0.00676172,0.0149019,-0.00438821,-0.388439,0.0116755,0.0153877,1273,1737,8.84843,-72.8447
56,-713,8.87939,72.8262,0.0113566,-0.00153919,-0.00605828,0.0137562,-0.0039388,-0.377128,0.0107275,0.0188095,1280,1737,8.87943,-72.8261
63,-713,8.9231,72.887,0.00990104,-0.00154795,-0.00521556,0.0119207,-0.00356761,-0.369456,0.00936564,0.0169895,1287,1737,8.9231,-72.887
70,-713,8.97192,72.9067,0.0080658,-0.00167914,-0.00432735,0.00970999,-0.00332333,-0.363107,0.00782014,0.0129855,1294,1737,8.97194,-72.9068
77,-713,9.02686,72.8856,0.00646512,-0.00199357,-0.00343674,0.00768541,-0.00321386,-0.341187,0.00646681,0.012912,1301,1737,9.02691,-72.8856
84,-713,9.08093,72.8392,0.00483311,-0.00268888,-0.00259578,0.00564192,-0.00349769,-0.302054,0.00532494,0.0130918,1308,1737,9.08088,-72.8392
91,-713,9.10925,72.7578,0.00324052,-0.00325516,-0.00193828,0.00377492,-0.00378957,-0.269028,0.00436737,0.0133334,1315,1737,9.10927,-72.7579
98,-713,9.12927,72.6403,0.001521,-0.00374737,-0.00138223,0.00186163,-0.004088,-0.241617,0.00351427,0.0130286,1322,1737,9.12923,-72.6402
105,-713,9.16833,72.5385,-5.69203e-05,-0.00454224,-0.00049561,-2.81003e-06,-0.00459635,-0.108748,0.0030633,0.0148272,1329,1737,9.16835,-72.5385
112,-713,9.20081,72.4281,-0.00026775,-0.0046797,-0.000576485,-0.000193669,-0.00475378,-0.127806,0.00310664,0.0154688,1336,1737,9.2008,-72.4282
119,-713,9.21826,72.2938,-0.000244849,-0.00467335,-0.000572411,-0.000172057,-0.00474614,-0.126487,0.00310833,0.0157141,1343,1737,9.2183,-72.2938
126,-713,9.27319,72.116,-7.22008e-05,-0.00468143,-0.000383362,-4.05333e-05,-0.0047131,-0.0824179,0.00312864,0.0144419,1350,1737,9.27319,-72.116
133,-713,9.32007,71.865,0.00015562,-0.00429717,-0.000434801,0.00019768,-0.00433923,-0.0964331,0.00296091,0.0136364,1357,1737,9.32001,-71.8649
140,-713,9.37097,71.5756,0.000617592,-0.00372747,-0.00026339,0.0006335,-0.00374337,-0.0603239,0.00273135,0.0150429,1364,1737,9.37103,-71.5756
147,-713,9.38379,71.2935,0.00132238,-0.00311929,-0.000149381,0.0013274,-0.00312431,-0.0335811,0.00263907,0.0154315,1371,1737,9.38373,-71.2934
154,-713,9.38354,71.1234,0.0020327,-0.00237613,-9.51584e-05,0.00203475,-0.00237819,-0.0215702,0.00255038,0.0155565,1378,1737,9.38357,-71.1234
161,-713,9.42493,70.8076,0.00257059,-0.00159255,-6.48951e-05,0.0025716,-0.00159356,-0.015583,0.00242675,0.0117734,1385,1737,9.42497,-70.8077
168,-713,9.44202,70.4852,0.00298707,-0.00104354,-1.26333e-05,0.00298711,-0.00104358,-0.00313431,0.00241561,0.0113292,1392,1737,9.44205,-70.4852
175,-713,9.45874,70.1901,0.00321377,-0.000587752,5.20924e-05,0.00321449,-0.000588466,0.0136996,0.00236369,0.0149885,1399,1737,9.45879,-70.1901
182,-713,9.46411,69.8827,0.00279476,4.80455e-05,-0.000218099,0.00281197,3.08356e-05,-0.0787459,0.00186445,0.0131494,1406,1737,9.4641,-69.8827
189,-713,9.46765,69.526,0.00242927,0.000619088,-0.000579158,0.00259871,0.00044965,-0.284617,0.00160374,0.0119405,1413,1737,9.46764,-69.526
196,-713,9.48083,69.1572,0.00208089,0.00091201,-0.000849872,0.00252788,0.000465017,-0.484194,0.00155362,0.0139108,1420,1737,9.48087,-69.1573
203,-713,9.50916,68.7858,0.00168438,0.00123906,-0.00115944,0.00264234,0.000281093,-0.690531,0.00167574,0.0194284,1427,1737,9.50911,-68.7857
210,-713,9.4978,68.3586,0.00131875,0.00160069,-0.00147904,0.00294546,-2.60224e-05,-0.832911,0.00197237,0.0156551,1434,1737,9.49776,-68.3587
217,-713,9.48364,67.9438,0.000875954,0.00195496,-0.00172303,0.00322098,-0.000390058,-0.93712,0.00228844,0.0121616,1441,1737,9.48362,-67.9438
224,-713,9.45166,67.5353,0.000404673,0.00225187,-0.00194999,0.00348593,-0.000829385,-1.00657,0.00264414,0.0136841,1448,1737,9.45165,-67.5353
231,-713,9.4447,67.0947,-6.6853e-05,0.00243718,-0.00215509,0.00367754,-0.00130722,-1.04855,0.00298444,0.0130752,1455,1737,9.44475,-67.0947
238,-713,9.41296,66.6133,-0.000478722,0.00262252,-0.00229136,0.00383862,-0.00169483,-1.08286,0.00327368,0.00931278,1462,1737,9.41301,-66.6132
245,-713,9.39905,66.1266,-0.000936102,0.00267375,-0.00240606,0.00387663,-0.00213898,-1.1072,0.00352108,0.011959,1469,1737,9.39908,-66.1266
252,-713,9.37952,65.6273,-0.00148696,0.00282445,-0.00246189,0.00394105,-0.00260356,-1.14499,0.00380474,0.0132812,1476,1737,9.37954,-65.6273
259,-713,9.36304,65.1107,-0.0019752,0.00284887,-0.00250886,0.00391711,-0.00304344,-1.16826,0.00402921,0.0131778,1483,1737,9.36298,-65.1107
266,-713,9.31201,64.6335,-0.00242664,0.00294922,-0.00261009,0.00400796,-0.00348538,-1.18544,0.00432979,0.0115234,1490,1737,9.31201,-64.6336
273,-713,9.23828,64.1272,-0.00288111,0.00312057,-0.00272183,0.00417107,-0.00393161,-1.20246,0.00467877,0.0101134,1497,1737,9.23827,-64.1272
280,-713,9.19177,63.5721,-0.00348097,0.00331109,-0.0028064,0.00432061,-0.0044905,-1.22549,0.00508741,0.0114801,1504,1737,9.19176,-63.5721
287,-713,9.16833,63.0166,-0.00427274,0.00340561,-0.00285113,0.0043485,-0.00521563,-1.25141,0.00552942,0.0123517,1511,1737,9.16837,-63.0166
294,-713,9.15149,62.4426,-0.00531956,0.00368092,-0.00254223,0.00434934,-0.00598799,-1.31369,0.0059932,0.0196876,1518,1737,9.15152,-62.4427
301,-713,9.01013,61.7733,-0.00612237,0.00411648,-0.00273529,0.00480139,-0.00680729,-1.32544,0.00673554,0.0328411,1525,1737,9.01019,-61.7733
308,-713,9.00305,61.1965,0,0,0,0,0,0,0,-1,1532,1737,9.00304,-61.1965
315,-713,8.96191,60.3328,0,0,0,0,0,0,0,-1,1539,1737,8.96197,-60.3327
322,-713,8.85962,57.7839,0,0,0,0,0,0,0,-1,1546,1737,8.85964,-57.784
329,-713,8.88708,59.4641,0,0,0,0,0,0,0,-1,1553,1737,8.88708,-59.4642
336,-713,8.75073,58.984,0,0,0,0,0,0,0,-1,1560,1737,8.75077,-58.9841
343,-713,7.75684,58.0597,0,0,0,0,0,0,0,-1,1567,1737,7.75679,-58.0596
350,-713,8.63867,47.4143,0,0,0,0,0,0,0,-1,1574,1737,8.6387,-47.4143
357,-713,8.53796,49.5679,0,0,0,0,0,0,0,-1,1581,1737,8.53795,-49.5679
364,-713,7.52661,46.5348,0,0,0,0,0,0,0,-1,1588,1737,7.52664,-46.5347
371,-713,7.3302,45.0861,0,0,0,0,0,0,0,-1,1595,1737,7.33021,-45.0861
378,-713,6.73975,44.3853,0,0,0,0,0,0,0,-1,1602,1737,6.7397,-44.3853
385,-713,6.58777,43.6438,0,0,0,0,0,0,0,-1,1609,1737,6.58781,-43.6438
392,-713,6.62964,42.8679,0,0,0,0,0,0,0,-1,1616,1737,6.62968,-42.868
399,-713,6.53748,42.0555,0,0,0,0,0,0,0,-1,1623,1737,6.53749,-42.0555
406,-713,2.49878,27.8931,0,0,0,0,0,0,0,-1,1630,1737,2.49884,-27.893
413,-713,1.36597,29.459,0,0,0,0,0,0,0,-1,1637,1737,1.36593,-29.459
420,-713,0,0,0,0,0,0,0,0,0,-1,1644,1737,0,0
427,-713,0,0,0,0,0,0,0,0,0,-1,1651,1737,0,0
434,-713,0,0,0,0,0,0,0,0,0,-1,1658,1737,0,0
441,-713,0,0,0,0,0,0,0,0,0,-1,1665,1737,0,0
448,-713,0,0,0,0,0,0,0,0,0,-1,1672,1737,0,0
455,-713,0,0,0,0,0,0,0,0,0,-1,1679,1737,0,0
462,-713,0,0,0,0,0,0,0,0,0,-1,1686,1737,0,0
469,-713,0,0,0,0,0,0,0,0,0,-1,1693,1737,0,0
476,-713,0,0,0,0,0,0,0,0,0,-1,1700,1737,0,0
483,-713,0,0,0,0,0,0,0,0,0,-1,1707,1737,0,0
490,-713,0,0,0,0,0,0,0,0,0,-1,1714,1737,0,0
497,-713,0,0,0,0,0,0,0,0,0,-1,1721,1737,0,0
504,-713,0,0,0,0,0,0,0,0,0,-1,1728,1737,0,0
511,-713,0,0,0,0,0,0,0,0,0,-1,1735,1737,0,0
518,-713,0,0,0,0,0,0,0,0,0,-1,1742,1737,0,0
525,-713,0,0,0,0,0,0,0,0,0,-1,1749,1737,0,0
532,-713,0,0,0,0,0,0,0,0,0,-1,1756,1737,0,0
539,-713,0,0,0,0,0,0,0,0,0,-1,1763,1737,0,0
546,-713,0,0,0,0,0,0,0,0,0,-1,1770,1737,0,0
553,-713,0,0,0,0,0,0,0,0,0,-1,1777,1737,0,0
560,-713,0,0,0,0,0,0,0,0,0,-1,1784,1737,0,0
567,-713,0,0,0,0,0,0,0,0,0,-1,1791,1737,0,0
574,-713,0,0,0,0,0,0,0,0,0,-1,1798,1737,0,0
581,-713,0,0,0,0,0,0,0,0,0,-1,1805,1737,0,0
588,-713,0,0,0,0,0,0,0,0,0,-1,1812,1737,0,0
595,-713,0,0,0,0,0,0,0,0,0,-1,1819,1737,0,0
602,-713,0,0,0,0,0,0,0,0,0,-1,1826,1737,0,0
609,-713,0,0,0,0,0,0,0,0,0,-1,1833,1737,0,0
616,-713,0,0,0,0,0,0,0,0,0,-1,1840,1737,0,0
623,-713,0,0,0,0,0,0,0,0,0,-1,1847,1737,0,0
630,-713,0,0,0,0,0,0,0,0,0,-1,1854,1737,0,0
637,-713,0,0,0,0,0,0,0,0,0,-1,1861,1737,0,0
644,-713,0,0,0,0,0,0,0,0,0,-1,1868,1737,0,0
651,-713,0,0,0,0,0,0,0,0,0,-1,1875,1737,0,0
658,-713,0,0,0,0,0,0,0,0,0,-1,1882,1737,0,0
665,-713,0,0,0,0,0,0,0,0,0,-1,1889,1737,0,0
672,-713,0,0,0,0,0,0,0,0,0,-1,1896,1737,0,0
679,-713,0,0,0,0,0,0,0,0,0,-1,1903,1737,0,0
686,-713,0,0,0,0,0,0,0,0,0,-1,1910,1737,0,0
693,-713,0,0,0,0,0,0,0,0,0,-1,1917,1737,0,0
700,-713,0,0,0,0,0,0,0,0,0,-1,1924,1737,0,0
707,-713,0,0,0,0,0,0,0,0,0,-1,1931,1737,0,0
714,-713,0,0,0,0,0,0,0,0,0,-1,1938,1737,0,0
721,-713,0,0,0,0,0,0,0,0,0,-1,1945,1737,0,0
728,-713,0,0,0,0,0,0,0,0,0,-1,1952,1737,0,0
735,-713,0,0,0,0,0,0,0,0,0,-1,1959,1737,0,0
742,-713,0,0,0,0,0,0,0,0,0,-1,1966,1737,0,0
749,-713,0,0,0,0,0,0,0,0,0,-1,1973,1737,0,0
756,-713,0,0,0,0,0,0,0,0,0,-1,1980,1737,0,0
763,-713,0,0,0,0,0,0,0,0,0,-1,1987,1737,0,0
770,-713,0,0,0,0,0,0,0,0,0,-1,1994,1737,0,0
777,-713,0,0,0,0,0,0,0,0,0,-1,2001,1737,0,0
784,-713,0,0,0,0,0,0,0,0,0,-1,2008,1737,0,0
791,-713,0,0,0,0,0,0,0,0,0,-1,2015,1737,0,0
798,-713,0,0,0,0,0,0,0,0,0,-1,2022,1737,0,0
805,-713,0,0,0,0,0,0,0,0,0,-1,2029,1737,0,0
812,-713,0,0,0,0,0,0,0,0,0,-1,2036,1737,0,0
-700,-720,0,0,0,0,0,0,0,0,0,-1,524,1744,0,0
-693,-720,0,0,0,0,0,0,0,0,0,-1,531,1744,0,0
-686,-720,0,0,0,0,0,0,0,0,0,-1,538,1744,0,0
-679,-720,0,0,0,0,0,0,0,0,0,-1,545,1744,0,0
-672,-720,0,0,0,0,0,0,0,0,0,-1,552,1744,0,0
-665,-720,0,0,0,0,0,0,0,0,0,-1,559,1744,0,0
-658,-720,0,0,0,0,0,0,0,0,0,-1,566,1744,0,0
-651,-720,0,0,0,0,0,0,0,0,0,-1,573,1744,0,0
-644,-720,0,0,0,0,0,0,0,0,0,-1,580,1744,0,0
-637,-720,0,0,0,0,0,0,0,0,0,-1,587,1744,0,0
-630,-720,0,0,0,0,0,0,0,0,0,-1,594,1744,0,0
-623,-720,0,0,0,0,0,0,0,0,0,-1,601,1744,0,0
-616,-720,0,0,0,0,0,0,0,0,0,-1,608,1744,0,0
-609,-720,0,0,0,0,0,0,0,0,0,-1,615,1744,0,0
-602,-720,0,0,0,0,0,0,0,0,0,-1,622,1744,0,0
-595,-720,0,0,0,0,0,0,0,0,0,-1,629,1744,0,0
-588,-720,0,0,0,0,0,0,0,0,0,-1,636,1744,0,0
-581,-720,0,0,0,0,0,0,0,0,0,-1,643,1744,0,0
-574,-720,0,0,0,0,0,0,0,0,0,-1,650,1744,0,0
-567,-720,0,0,0,0,0,0,0,0,0,-1,657,1744,0,0
-560,-720,0,0,0,0,0,0,0,0,0,-1,664,1744,0,0
-553,-720,0,0,0,0,0,0,0,0,0,-1,671,1744,0,0
-546,-720,0,0,0,0,0,0,0,0,0,-1,678,1744,0,0
-539,-720,0,0,0,0,0,0,0,0,0,-1,685,1744,0,0
-532,-720,0,0,0,0,0,0,0,0,0,-1,692,1744,0,0
-525,-720,0,0,0,0,0,0,0,0,0,-1,699,1744,0,0
-518,-720,0,0,0,0,0,0,0,0,0,-1,706,1744,0,0
-511,-720,0,0,0,0,0,0,0,0,0,-1,713,1744,0,0
-504,-720,0,0,0,0,0,0,0,0,0,-1,720,1744,0,0
-497,-720,0,0,0,0,0,0,0,0,0,-1,727,1744,0,0
-490,-720,0,0,0,0,0,0,0,0,0,-1,734,1744,0,0
-483,-720,0,0,0,0,0,0,0,0,0,-1,741,1744,0,0
-476,-720,0,0,0,0,0,0,0,0,0,-1,748,1744,0,0
-469,-720,0,0,0,0,0,0,0,0,0,-1,755,1744,0,0
-462,-720,0,0,0,0,0,0,0,0,0,-1,762,1744,0,0
-455,-720,0,0,0,0,0,0,0,0,0,-1,769,1744,0,0
-448,-720,0,0,0,0,0,0,0,0,0,-1,776,1744,0,0
-441,-720,0,0,0,0,0,0,0,0,0,-1,783,1744,0,0
-434,-720,0,0,0,0,0,0,0,0,0,-1,790,1744,0,0
-427,-720,0,0,0,0,0,0,0,0,0,-1,797,1744,0,0
-420,-720,0,0,0,0,0,0,0,0,0,-1,804,1744,0,0
-413,-720,0,0,0,0,0,0,0,0,0,-1,811,1744,0,0
-406,-720,0,0,0,0,0,0,0,0,0,-1,818,1744,0,0
-399,-720,0,0,0,0,0,0,0,0,0,-1,825,1744,0,0
-392,-720,0,0,0,0,0,0,0,0,0,-1,832,1744,0,0
-385,-720,0,0,0,0,0,0,0,0,0,-1,839,1744,0,0
-378,-720,0,0,0,0,0,0,0,0,0,-1,846,1744,0,0
-371,-720,0,0,0,0,0,0,0,0,0,-1,853,1744,0,0
-364,-720,0,0,0,0,0,0,0,0,0,-1,860,1744,0,0
-357,-720,0,0,0,0,0,0,0,0,0,-1,867,1744,0,0
-350,-720,0,0,0,0,0,0,0,0,0,-1,874,1744,0,0
-343,-720,0,0,0,0,0,0,0,0,0,-1,881,1744,0,0
-336,-720,0,0,0,0,0,0,0,0,0,-1,888,1744,0,0
-329,-720,0,0,0,0,0,0,0,0,0,-1,895,1744,0,0
-322,-720,0,0,0,0,0,0,0,0,0,-1,902,1744,0,0
-315,-720,0,0,0,0,0,0,0,0,0,-1,909,1744,0,0
-308,-720,0,0,0,0,0,0,0,0,0,-1,916,1744,0,0
-301,-720,0,0,0,0,0,0,0,0,0,-1,923,1744,0,0
-294,-720,0,0,0,0,0,0,0,0,0,-1,930,1744,0,0
-287,-720,0,0,0,0,0,0,0,0,0,-1,937,1744,0,0
-280,-720,6.46796,22.6417,0,0,0,0,0,0,0,-1,944,1744,6.46793,-22.6417
-273,-720,8.54633,13.262,0,0,0,0,0,0,0,-1,951,1744,8.54636,-13.2619
-266,-720,7.28027,13.3165,0,0,0,0,0,0,0,-1,958,1744,7.28026,-13.3166
-259,-720,3.70563,18.6372,0,0,0,0,0,0,0,-1,965,1744,3.70564,-18.6372
-252,-720,4.00989,18.5059,0,0,0,0,0,0,0,-1,972,1744,4.00988,-18.5058
-245,-720,7.05634,33.8489,0,0,0,0,0,0,0,-1,979,1744,7.05634,-33.8489
-238,-720,5.02216,24.1455,0,0,0,0,0,0,0,-1,986,1744,5.02217,-24.1455
-231,-720,9.45819,50.8396,0,0,0,0,0,0,0,-1,993,1744,9.45816,-50.8396
-224,-720,10.0804,54.4775,0,0,0,0,0,0,0,-1,1000,1744,10.0805,-54.4775
-217,-720,9.41168,53.88,0,0,0,0,0,0,0,-1,1007,1744,9.41166,-53.88
-210,-720,8.74036,38.6686,0,0,0,0,0,0,0,-1,1014,1744,8.74035,-38.6686
-203,-720,8.61755,58.7504,0,0,0,0,0,0,0,-1,1021,1744,8.6176,-58.7503
-196,-720,9.73901,60.2048,0,0,0,0,0,0,0,-1,1028,1744,9.73905,-60.2049
-189,-720,9.53821,60.8333,0,0,0,0,0,0,0,-1,1035,1744,9.5382,-60.8333
-182,-720,9.29346,61.6606,-0.00500112,0.0142173,0.0114572,0.0195615,-0.0103454,1.13435,0.0175379,0.0479198,1042,1744,9.29344,-61.6606
-175,-720,9.20581,62.3883,-0.00391067,0.0119603,0.010634,0.0172934,-0.0092437,1.10594,0.0155544,0.0393323,1049,1744,9.20586,-62.3883
-168,-720,9.30798,62.9568,-0.00328927,0.0103293,0.00963868,0.0153213,-0.00828127,1.09292,0.0138276,0.036239,1056,1744,9.30802,-62.9567
-161,-720,9.1449,63.5244,-0.00295816,0.00878242,0.0086922,0.0134009,-0.00757665,1.08239,0.012266,0.0332613,1063,1744,9.14489,-63.5244
-154,-720,9.17615,64.1497,-0.00276273,0.00738539,0.00763896,0.0114819,-0.00685926,1.07856,0.0107008,0.027572,1070,1744,9.17614,-64.1497
-147,-720,9.09448,64.7904,-0.00250192,0.00631971,0.0066898,0.00992193,-0.00610414,1.07685,0.00933976,0.0275501,1077,1744,9.0945,-64.7904
-140,-720,9.09314,65.2915,-0.00214907,0.00531166,0.00586533,0.00853239,-0.0053698,1.06863,0.00809537,0.0227753,1084,1744,9.09309,-65.2916
-133,-720,9.01855,65.7202,-0.00196495,0.00453036,0.00500229,0.00724678,-0.00468137,1.07332,0.00693961,0.0169706,1091,1744,9.0185,-65.7203
-126,-720,8.97534,66.2163,-0.00186616,0.00406079,0.00412061,0.00617291,-0.00397828,1.09714,0.00590627,0.0159484,1098,1744,8.97537,-66.2163
-119,-720,8.93005,66.6913,-0.00190013,0.00371015,0.00343957,0.00534342,-0.0035334,1.12747,0.00516042,0.0161031,1105,1744,8.93006,-66.6913
-112,-720,8.87891,67.1566,-0.00177642,0.00393204,0.0032196,0.00538042,-0.00322479,1.14806,0.00501991,0.0152225,1112,1744,8.87889,-67.1566
-105,-720,8.85242,67.6,-0.00162065,0.00388475,0.00291165,0.00513893,-0.00287482,1.16407,0.00468789,0.0142119,1119,1744,8.85247,-67.6
-98,-720,8.82959,68.0186,-0.00152991,0.00390763,0.00270993,0.00502754,-0.00264982,1.17891,0.00450282,0.0111272,1126,1744,8.82955,-68.0186
-91,-720,8.76855,68.4192,-0.00135672,0.00402187,0.00255698,0.00504344,-0.00237829,1.1907,0.00437606,0.0100544,1133,1744,8.76855,-68.4192
-84,-720,8.72803,68.8519,-0.0012809,0.00350262,0.0022445,0.00439085,-0.00216912,1.19397,0.00385913,0.0113163,1140,1744,8.72798,-68.8519
-77,-720,8.71082,69.2393,-0.00100927,0.00324367,0.00204222,0.00406551,-0.00183111,1.1882,0.00348494,0.0146684,1147,1744,8.7108,-69.2392
-70,-720,8.7168,69.5844,-0.000735405,0.00315188,0.0018098,0.00386401,-0.00144754,1.19592,0.00317065,0.0127247,1154,1744,8.71683,-69.5844
-63,-720,8.70508,69.943,-0.000486508,0.00298803,0.00159288,0.00360775,-0.00110622,1.19976,0.00284648,0.0122152,1161,1744,8.70508,-69.943
-56,-720,8.67896,70.2609,-0.000146241,0.00282848,0.00130494,0.00331979,-0.000637545,1.21072,0.00245348,0.0147909,1168,1744,8.67898,-70.2608
-49,-720,8.6366,70.5833,0.000294645,0.00244168,0.00102115,0.00284978,-0.000113452,1.1906,0.00193878,0.020708,1175,1744,8.63665,-70.5832
-42,-720,8.63135,70.8522,0.000793652,0.00193854,0.000636322,0.00222201,0.000510176,1.1517,0.00134396,0.0222459,1182,1744,8.63138,-70.8521
-35,-720,8.66785,71.1198,0.00140515,0.00139777,0.000225426,0.00162692,0.001176,0.777212,0.000969898,0.0198256,1189,1744,8.66782,-71.1197
-28,-720,8.6842,71.384,0.00202178,0.000684522,-0.00021677,0.00205604,0.000650262,-0.156755,0.00121347,0.0122002,1196,1744,8.68423,-71.3841
-21,-720,8.66931,71.6362,0.00257406,-0.000104983,-0.00062542,0.00271287,-0.000243794,-0.218408,0.00189508,0.0101509,1203,1744,8.66933,-71.6363
-14,-720,8.68311,71.8397,0.00308513,-0.000835161,-0.00099204,0.00332187,-0.0010719,-0.23426,0.00264529,0.0121185,1210,1744,8.68315,-71.8398
-7,-720,8.70618,72.0619,0.00368907,-0.00158262,-0.0013707,0.00402417,-0.00191771,-0.239769,0.00350167,0.0125434,1217,1744,8.70621,-72.0619
0,-720,8.70203,72.2491,0.00447835,-0.00191811,-0.00183227,0.00496603,-0.00240578,-0.260127,0.00434083,0.0138676,1224,1744,8.70206,-72.2492
7,-720,8.72253,72.3723,0.0050434,-0.00214921,-0.00209654,0.00560989,-0.00271571,-0.263902,0.00490264,0.0169357,1231,1744,8.72254,-72.3724
14,-720,8.75891,72.505,0.00553974,-0.00227153,-0.00229243,0.00616281,-0.0028946,-0.265386,0.00534157,0.0149432,1238,1744,8.75896,-72.505
21,-720,8.7821,72.6362,0.00592626,-0.00216679,-0.00245566,0.00661309,-0.00285362,-0.272723,0.00560743,0.0118155,1245,1744,8.78209,-72.6362
28,-720,8.78735,72.7485,0.00627626,-0.00200512,-0.00258171,0.00701517,-0.00274404,-0.278759,0.00581157,0.0120413,1252,1744,8.78738,-72.7486
35,-720,8.80188,72.8271,0.00659252,-0.00178246,-0.0026729,0.00737287,-0.00256281,-0.284056,0.00595623,0.0116029,1259,1744,8.80193,-72.8272
42,-720,8.83545,72.88,0.00663857,-0.001518,-0.00265533,0.00742683,-0.00230626,-0.288571,0.0058729,0.0116254,1266,1744,8.83543,-72.88
49,-720,8.85791,72.8765,0.00643084,-0.00140363,-0.00252346,0.00717328,-0.00214607,-0.286142,0.00563544,0.0153272,1273,1744,8.85794,-72.8765
56,-720,8.87134,72.8914,0.00598362,-0.00135016,-0.00226876,0.00662873,-0.00199527,-0.277034,0.00521311,0.0156862,1280,1744,8.87135,-72.8913
63,-720,8.90515,72.9135,0.00522525,-0.00122675,-0.00199076,0.00579005,-0.00179155,-0.276448,0.00457566,0.0167357,1287,1744,8.90517,-72.9134
70,-720,8.95776,72.9219,0.0043295,-0.00114457,-0.0017226,0.00482646,-0.00164152,-0.280867,0.00388227,0.014648,1294,1744,8.95777,-72.9219
77,-720,8.97607,72.8986,0.00357235,-0.00121371,-0.00141012,0.00395691,-0.00159828,-0.266243,0.00330225,0.0164209,1301,1744,8.97606,-72.8985
84,-720,8.99976,72.7954,0.00282664,-0.00140853,-0.00109805,0.0030944,-0.00167629,-0.239184,0.00279463,0.0159125,1308,1744,8.99971,-72.7954
91,-720,9.0155,72.7013,0.00213296,-0.00152548,-0.000884506,0.00233559,-0.00172811,-0.225197,0.0023549,0.0162513,1315,1744,9.01555,-72.7013
98,-720,9.00024,72.6324,0.00134944,-0.00163856,-0.000660751,0.00148903,-0.00177815,-0.208204,0.00188877,0.014986,1322,1744,9.00023,-72.6325
105,-720,9.03821,72.5212,0.000579882,-0.00185489,-0.000236973,0.000602732,-0.00187774,-0.0961265,0.00149383,0.0129388,1329,1744,9.03819,-72.5212
112,-720,9.06091,72.3768,0.000499797,-0.00189878,-0.000258178,0.000527272,-0.00192625,-0.10602,0.00149133,0.0124601,1336,1744,9.06096,-72.3768
119,-720,9.05261,72.2461,0.000509296,-0.00189527,-0.000231169,0.000531318,-0.00191729,-0.0949785,0.00148728,0.0128298,1343,1744,9.05264,-72.2461
126,-720,9.07947,72.0497,0.000631834,-0.00188859,-0.000130035,0.000638525,-0.00189528,-0.0514105,0.00152169,0.0124091,1350,1744,9.07949,-72.0496
133,-720,9.1051,71.8254,0.000751615,-0.00169157,-3.99497e-05,0.000752268,-0.00169223,-0.0163456,0.00144569,0.0138639,1357,1744,9.10515,-71.8255
140,-720,9.15088,71.6064,0.000814769,-0.00139164,1.16908e-05,0.000814831,-0.00139171,0.00529835,0.00128838,0.0207121,1364,1744,9.15089,-71.6065
147,-720,9.14014,71.3544,0.000946084,-0.00105906,-2.58801e-05,0.000946418,-0.0010594,-0.012904,0.00115867,0.0207574,1371,1744,9.14012,-71.3544
154,-720,9.11792,71.1144,0.00107819,-0.0006033,-9.98189e-05,0.00108409,-0.000609205,-0.0590869,0.000990358,0.0142806,1378,1744,9.11798,-71.1144
161,-720,9.14978,70.816,0.00109596,-0.000122107,-0.000179485,0.00112186,-0.000148004,-0.143296,0.000801807,0.0109187,1385,1744,9.14973,-70.816
168,-720,9.14478,70.5092,0.000976073,0.00018912,-0.000311691,0.00108457,8.06259e-05,-0.334967,0.000697724,0.0107886,1392,1744,9.14476,-70.5092
175,-720,9.13745,70.1823,0.000749957,0.000479046,-0.000501047,0.00113353,9.54678e-05,-0.653382,0.000725963,0.0170054,1399,1744,9.13745,-70.1823
182,-720,9.13354,69.869,0.000445262,0.000833181,-0.000811869,0.00147394,-0.000195495,-0.902652,0.00105385,0.0166011,1406,1744,9.13356,-69.8691
189,-720,9.13794,69.5371,0.000183418,0.00141002,-0.00123413,0.00217484,-0.000581396,-1.016,0.00167762,0.0143794,1413,1744,9.13789,-69.5371
196,-720,9.12708,69.1588,-0.000138852,0.001773,-0.0015727,0.0026575,-0.00102335,-1.05848,0.00219384,0.0151575,1420,1744,9.12706,-69.1588
203,-720,9.0929,68.7662,-0.000415693,0.00225528,-0.00195708,0.00328912,-0.00144953,-1.0848,0.00280374,0.0169853,1427,1744,9.09285,-68.7663
210,-720,9.10327,68.3901,-0.000592214,0.00277221,-0.00234626,0.003977,-0.001797,-1.09641,0.0034119,0.014285,1434,1744,9.10332,-68.3901
217,-720,9.07935,67.9489,-0.000900586,0.00319885,-0.00264984,0.00449921,-0.00220094,-1.11459,0.00394346,0.0131771,1441,1744,9.07931,-67.9488
224,-720,9.02808,67.5054,-0.00126882,0.00352305,-0.00287758,0.00487158,-0.00261735,-1.13256,0.00438854,0.0109487,1448,1744,9.02809,-67.5054
231,-720,9.01746,67.0742,-0.00167054,0.00366858,-0.00307623,0.00507206,-0.00307403,-1.14277,0.00475007,0.0106948,1455,1744,9.01744,-67.0742
238,-720,8.9762,66.6063,-0.00201558,0.00381564,-0.00320401,0.00523206,-0.003432,-1.15455,0.00503805,0.00905269,1462,1744,8.97623,-66.6064
245,-720,8.9292,66.1429,-0.00241338,0.00376453,-0.00333149,0.00521875,-0.0038676,-1.15922,0.0052653,0.0125082,1469,1744,8.92916,-66.1429
252,-720,8.90234,65.6494,-0.00292339,0.00383571,-0.00340703,0.00525503,-0.00434272,-1.17607,0.0055496,0.0132806,1476,1744,8.90231,-65.6494
259,-720,8.87073,65.1487,-0.00337447,0.00378084,-0.00343272,0.00516133,-0.00475496,-1.18843,0.00572677,0.0116909,1483,1744,8.87078,-65.1487
266,-720,8.81677,64.6304,-0.00382951,0.00385779,-0.00349561,0.00520962,-0.00518134,-1.20179,0.00599923,0.00895972,1490,1744,8.81682,-64.6304
273,-720,8.75195,64.1147,-0.00429542,0.00402731,-0.0036018,0.00536957,-0.00563768,-1.21408,0.00635567,0.0143584,1497,1744,8.7519,-64.1148
280,-720,8.66528,63.5806,-0.00491312,0.00422954,-0.00367697,0.00552482,-0.0062084,-1.2321,0.00677801,0.0225572,1504,1744,8.66533,-63.5806
287,-720,8.62024,62.9574,-0.00580243,0.00434946,-0.00371295,0.00556249,-0.00701546,-1.25503,0.00727802,0.0390731,1511,1744,8.62027,-62.9574
294,-720,8.68738,62.2836,0,0,0,0,0,0,0,-1,1518,1744,8.68741,-62.2835
301,-720,8.4054,61.7019,0,0,0,0,0,0,0,-1,1525,1744,8.40536,-61.7019
308,-720,8.48608,51.5551,0,0,0,0,0,0,0,-1,1532,1744,8.48612,-51.555
315,-720,8.66516,48.6633,0,0,0,0,0,0,0,-1,1539,1744,8.6651,-48.6633
322,-720,8.98181,43.5223,0,0,0,0,0,0,0,-1,1546,1744,8.98176,-43.5223
329,-720,9.15906,34.7668,0,0,0,0,0,0,0,-1,1553,1744,9.1591,-34.7669
336,-720,6.14148,26.5682,0,0,0,0,0,0,0,-1,1560,1744,6.14151,-26.5683
343,-720,6.78552,21.3625,0,0,0,0,0,0,0,-1,1567,1744,6.78551,-21.3625
350,-720,4.0741,11.1836,0,0,0,0,0,0,0,-1,1574,1744,4.07412,-11.1836
357,-720,6.90833,21.4504,0,0,0,0,0,0,0,-1,1581,1744,6.90827,-21.4505
364,-720,6.59497,44.1384,0,0,0,0,0,0,0,-1,1588,1744,6.59492,-44.1385
371,-720,6.67773,45.2386,0,0,0,0,0,0,0,-1,1595,1744,6.67779,-45.2386
378,-720,3.88257,25.5404,0,0,0,0,0,0,0,-1,1602,1744,3.88262,-25.5404
385,-720,4.672,37.3854,0,0,0,0,0,0,0,-1,1609,1744,4.67202,-37.3854
392,-720,4.89319,36.2684,0,0,0,0,0,0,0,-1,1616,1744,4.89323,-36.2684
399,-720,2.37317,24.7166,0,0,0,0,0,0,0,-1,1623,1744,2.37317,-24.7166
406,-720,0,0,0,0,0,0,0,0,0,-1,1630,1744,0,0
413,-720,0,0,0,0,0,0,0,0,0,-1,1637,1744,0,0
420,-720,0,0,0,0,0,0,0,0,0,-1,1644,1744,0,0
427,-720,0,0,0,0,0,0,0,0,0,-1,1651,1744,0,0
434,-720,0,0,0,0,0,0,0,0,0,-1,1658,1744,0,0
441,-720,0,0,0,0,0,0,0,0,0,-1,1665,1744,0,0
448,-720,0,0,0,0,0,0,0,0,0,-1,1672,1744,0,0
455,-720,0,0,0,0,0,0,0,0,0,-1,1679,1744,0,0
462,-720,0,0,0,0,0,0,0,0,0,-1,1686,1744,0,0
469,-720,0,0,0,0,0,0,0,0,0,-1,1693,1744,0,0
476,-720,0,0,0,0,0,0,0,0,0,-1,1700,1744,0,0
483,-720,0,0,0,0,0,0,0,0,0,-1,1707,1744,0,0
490,-720,0,0,0,0,0,0,0,0,0,-1,1714,1744,0,0
497,-720,0,0,0,0,0,0,0,0,0,-1,1721,1744,0,0
504,-720,0,0,0,0,0,0,0,0,0,-1,1728,1744,0,0
511,-720,0,0,0,0,0,0,0,0,0,-1,1735,1744,0,0
518,-720,0,0,0,0,0,0,0,0,0,-1,1742,1744,0,0
525,-720,0,0,0,0,0,0,0,0,0,-1,1749,1744,0,0
532,-720,0,0,0,0,0,0,0,0,0,-1,1756,1744,0,0
539,-720,0,0,0,0,0,0,0,0,0,-1,1763,1744,0,0
546,-720,0,0,0,0,0,0,0,0,0,-1,1770,1744,0,0
553,-720,0,0,0,0,0,0,0,0,0,-1,1777,1744,0,0
560,-720,0,0,0,0,0,0,0,0,0,-1,1784,1744,0,0
567,-720,0,0,0,0,0,0,0,0,0,-1,1791,1744,0,0
574,-720,0,0,0,0,0,0,0,0,0,-1,1798,1744,0,0
581,-720,0,0,0,0,0,0,0,0,0,-1,1805,1744,0,0
588,-720,0,0,0,0,0,0,0,0,0,-1,1812,1744,0,0
595,-720,0,0,0,0,0,0,0,0,0,-1,1819,1744,0,0
602,-720,0,0,0,0,0,0,0,0,0,-1,1826,1744,0,0
609,-720,0,0,0,0,0,0,0,0,0,-1,1833,1744,0,0
616,-720,0,0,0,0,0,0,0,0,0,-1,1840,1744,0,0
623,-720,0,0,0,0,0,0,0,0,0,-1,1847,1744,0,0
630,-720,0,0,0,0,0,0,0,0,0,-1,1854,1744,0,0
637,-720,0,0,0,0,0,0,0,0,0,-1,1861,1744,0,0
644,-720,0,0,0,0,0,0,0,0,0,-1,1868,1744,0,0
651,-720,0,0,0,0,0,0,0,0,0,-1,1875,1744,0,0
658,-720,0,0,0,0,0,0,0,0,0,-1,1882,1744,0,0
665,-720,0,0,0,0,0,0,0,0,0,-1,1889,1744,0,0
672,-720,0,0,0,0,0,0,0,0,0,-1,1896,1744,0,0
679,-720,0,0,0,0,0,0,0,0,0,-1,1903,1744,0,0
686,-720,0,0,0,0,0,0,0,0,0,-1,1910,1744,0,0
693,-720,0,0,0,0,0,0,0,0,0,-1,1917,1744,0,0
700,-720,0,0,0,0,0,0,0,0,0,-1,1924,1744,0,0
707,-720,0,0,0,0,0,0,0,0,0,-1,1931,1744,0,0
714,-720,0,0,0,0,0,0,0,0,0,-1,1938,1744,0,0
721,-720,0,0,0,0,0,0,0,0,0,-1,1945,1744,0,0
728,-720,0,0,0,0,0,0,0,0,0,-1,1952,1744,0,0
735,-720,0,0,0,0,0,0,0,0,0,-1,1959,1744,0,0
742,-720,0,0,0,0,0,0,0,0,0,-1,1966,1744,0,0
749,-720,0,0,0,0,0,0,0,0,0,-1,1973,1744,0,0
756,-720,0,0,0,0,0,0,0,0,0,-1,1980,1744,0,0
763,-720,0,0,0,0,0,0,0,0,0,-1,1987,1744,0,0
770,-720,0,0,0,0,0,0,0,0,0,-1,1994,1744,0,0
777,-720,0,0,0,0,0,0,0,0,0,-1,2001,1744,0,0
784,-720,0,0,0,0,0,0,0,0,0,-1,2008,1744,0,0
791,-720,0,0,0,0,0,0,0,0,0,-1,2015,1744,0,0
798,-720,0,0,0,0,0,0,0,0,0,-1,2022,1744,0,0
805,-720,0,0,0,0,0,0,0,0,0,-1,2029,1744,0,0
812,-720,0,0,0,0,0,0,0,0,0,-1,2036,1744,0,0
-700,-727,0,0,0,0,0,0,0,0,0,-1,524,1751,0,0
-693,-727,0,0,0,0,0,0,0,0,0,-1,531,1751,0,0
-686,-727,0,0,0,0,0,0,0,0,0,-1,538,1751,0,0
-679,-727,0,0,0,0,0,0,0,0,0,-1,545,1751,0,0
-672,-727,0,0,0,0,0,0,0,0,0,-1,552,1751,0,0
-665,-727,0,0,0,0,0,0,0,0,0,-1,559,1751,0,0
-658,-727,0,0,0,0,0,0,0,0,0,-1,566,1751,0,0
-651,-727,0,0,0,0,0,0,0,0,0,-1,573,1751,0,0
-644,-727,0,0,0,0,0,0,0,0,0,-1,580,1751,0,0
-637,-727,0,0,0,0,0,0,0,0,0,-1,587,1751,0,0
-630,-727,0,0,0,0,0,0,0,0,0,-1,594,1751,0,0
-623,-727,0,0,0,0,0,0,0,0,0,-1,601,1751,0,0
-616,-727,0,0,0,0,0,0,0,0,0,-1,608,1751,0,0
-609,-727,0,0,0,0,0,0,0,0,0,-1,615,1751,0,0
-602,-727,0,0,0,0,0,0,0,0,0,-1,622,1751,0,0
-595,-727,0,0,0,0,0,0,0,0,0,-1,629,1751,0,0
-588,-727,0,0,0,0,0,0,0,0,0,-1,636,1751,0,0
-581,-727,0,0,0,0,0,0,0,0,0,-1,643,1751,0,0
-574,-727,0,0,0,0,0,0,0,0,0,-1,650,1751,0,0
-567,-727,0,0,0,0,0,0,0,0,0,-1,657,1751,0,0
-560,-727,0,0,0,0,0,0,0,0,0,-1,664,1751,0,0
-553,-727,0,0,0,0,0,0,0,0,0,-1,671,1751,0,0
-546,-727,0,0,0,0,0,0,0,0,0,-1,678,1751,0,0
-539,-727,0,0,0,0,0,0,0,0,0,-1,685,1751,0,0
-532,-727,0,0,0,0,0,0,0,0,0,-1,692,1751,0,0
-525,-727,0,0,0,0,0,0,0,0,0,-1,699,1751,0,0
-518,-727,0,0,0,0,0,0,0,0,0,-1,706,1751,0,0
-511,-727,0,0,0,0,0,0,0,0,0,-1,713,1751,0,0
-504,-727,0,0,0,0,0,0,0,0,0,-1,720,1751,0,0
-497,-727,0,0,0,0,0,0,0,0,0,-1,727,1751,0,0
-490,-727,0,0,0,0,0,0,0,0,0,-1,734,1751,0,0
-483,-727,0,0,0,0,0,0,0,0,0,-1,741,1751,0,0
-476,-727,0,0,0,0,0,0,0,0,0,-1,748,1751,0,0
-469,-727,0,0,0,0,0,0,0,0,0,-1,755,1751,0,0
-462,-727,0,0,0,0,0,0,0,0,0,-1,762,1751,0,0
-455,-727,0,0,0,0,0,0,0,0,0,-1,769,1751,0,0
-448,-727,0,0,0,0,0,0,0,0,0,-1,776,1751,0,0
-441,-727,0,0,0,0,0,0,0,0,0,-1,783,1751,0,0
-434,-727,0,0,0,0,0,0,0,0,0,-1,790,1751,0,0
-427,-727,0,0,0,0,0,0,0,0,0,-1,797,1751,0,0
-420,-727,0,0,0,0,0,0,0,0,0,-1,804,1751,0,0
-413,-727,0,0,0,0,0,0,0,0,0,-1,811,1751,0,0
-406,-727,0,0,0,0,0,0,0,0,0,-1,818,1751,0,0
-399,-727,0,0,0,0,0,0,0,0,0,-1,825,1751,0,0
-392,-727,0,0,0,0,0,0,0,0,0,-1,832,1751,0,0
-385,-727,0,0,0,0,0,0,0,0,0,-1,839,1751,0,0
-378,-727,0,0,0,0,0,0,0,0,0,-1,846,1751,0,0
-371,-727,0,0,0,0,0,0,0,0,0,-1,853,1751,0,0
-364,-727,0,0,0,0,0,0,0,0,0,-1,860,1751,0,0
-357,-727,0,0,0,0,0,0,0,0,0,-1,867,1751,0,0
-350,-727,0,0,0,0,0,0,0,0,0,-1,874,1751,0,0
-343,-727,0,0,0,0,0,0,0,0,0,-1,881,1751,0,0
-336,-727,0,0,0,0,0,0,0,0,0,-1,888,1751,0,0
-329,-727,0,0,0,0,0,0,0,0,0,-1,895,1751,0,0
-322,-727,0,0,0,0,0,0,0,0,0,-1,902,1751,0,0
-315,-727,0,0,0,0,0,0,0,0,0,-1,909,1751,0,0
-308,-727,0,0,0,0,0,0,0,0,0,-1,916,1751,0,0
-301,-727,0,0,0,0,0,0,0,0,0,-1,923,1751,0,0
-294,-727,0,0,0,0,0,0,0,0,0,-1,930,1751,0,0
-287,-727,0,0,0,0,0,0,0,0,0,-1,937,1751,0,0
-280,-727,0,0,0,0,0,0,0,0,0,-1,944,1751,0,0
-273,-727,0,0,0,0,0,0,0,0,0,-1,951,1751,0,0
-266,-727,4.24805,7.61145,0,0,0,0,0,0,0,-1,958,1751,4.24802,-7.6115
-259,-727,3.65228,5.4082,0,0,0,0,0,0,0,-1,965,1751,3.65229,-5.40818
-252,-727,5.8797,32.9292,0,0,0,0,0,0,0,-1,972,1751,5.87972,-32.9292
-245,-727,6.59198,32.2588,0,0,0,0,0,0,0,-1,979,1751,6.59195,-32.2587
-238,-727,6.6189,30.4597,0,0,0,0,0,0,0,-1,986,1751,6.61889,-30.4598
-231,-727,9.95819,51.5021,0,0,0,0,0,0,0,-1,993,1751,9.95818,-51.5021
-224,-727,10.0845,52.0088,0,0,0,0,0,0,0,-1,1000,1751,10.0845,-52.0088
-217,-727,10.2109,52.5154,0,0,0,0,0,0,0,-1,1007,1751,10.2109,-52.5154
-210,-727,5.0921,32.4524,0,0,0,0,0,0,0,-1,1014,1751,5.09209,-32.4523
-203,-727,14.1763,48.6819,0,0,0,0,0,0,0,-1,1021,1751,14.1763,-48.6819
-196,-727,13.0454,48.5956,0,0,0,0,0,0,0,-1,1028,1751,13.0455,-48.5955
-189,-727,10.3168,48.1697,0,0,0,0,0,0,0,-1,1035,1751,10.3168,-48.1697
-182,-727,9.6825,61.6852,0,0,0,0,0,0,0,-1,1042,1751,9.68252,-61.6852
-175,-727,9.5625,62.4172,0,0,0,0,0,0,0,-1,1049,1751,9.56246,-62.4173
-168,-727,9.72949,62.9973,0,0,0,0,0,0,0,-1,1056,1751,9.72946,-62.9973
-161,-727,9.48242,63.624,0,0,0,0,0,0,0,-1,1063,1751,9.48246,-63.624
-154,-727,9.69238,64.0267,0,0,0,0,0,0,0,-1,1070,1751,9.69237,-64.0267
-147,-727,9.68689,64.802,0,0,0,0,0,0,0,-1,1077,1751,9.68691,-64.802
-140,-727,9.40332,64.9868,-0.00247736,0.00783339,0.00804805,0.0122357,-0.00687965,1.07026,0.0111797,0.0372626,1084,1751,9.40331,-64.9868
-133,-727,9.4939,65.6136,-0.00243452,0.00695708,0.00694207,0.0106424,-0.00611982,1.08276,0.00979437,0.0280814,1091,1751,9.4939,-65.6137
-126,-727,9.38879,66.2415,-0.00248864,0.00638472,0.00583039,0.00927453,-0.00537846,1.11064,0.00855901,0.0299621,1098,1751,9.38885,-66.2415
-119,-727,9.3999,66.6346,-0.00274585,0.00591432,0.0049579,0.00816682,-0.00499834,1.14435,0.00767394,0.049154,1105,1751,9.39985,-66.6347
-112,-727,9.31982,67.1899,0,0,0,0,0,0,0,-1,1112,1751,9.31979,-67.19
-105,-727,9.2605,67.6161,0,0,0,0,0,0,0,-1,1119,1751,9.2605,-67.6161
-98,-727,9.17786,67.9846,-0.00286419,0.00624761,0.00408372,0.00780997,-0.00442654,1.2054,0.0071542,0.0186212,1126,1751,9.17782,-67.9846
-91,-727,9.15796,68.4009,-0.00282933,0.00626616,0.00390314,0.00771145,-0.00427462,1.21616,0.00701435,0.0134872,1133,1751,9.15798,-68.4008
-84,-727,9.11035,68.829,-0.00297439,0.00529828,0.00348036,0.0065677,-0.00424381,1.22105,0.00628991,0.0132723,1140,1751,9.11035,-68.829
-77,-727,9.06409,69.2102,-0.00282183,0.00471967,0.00321747,0.0059058,-0.00400796,1.2176,0.00575856,0.0138024,1147,1751,9.06414,-69.2102
-70,-727,9.05078,69.6031,-0.00265038,0.00451755,0.0029371,0.0055673,-0.00370014,1.22753,0.00538663,0.0143371,1154,1751,9.05073,-69.6032
-63,-727,9.02966,69.9591,-0.0025736,0.00437927,0.00266883,0.00528556,-0.00347989,1.24343,0.0050964,0.0116657,1161,1751,9.02965,-69.9591
-56,-727,8.97876,70.2577,-0.00238434,0.00433323,0.00229937,0.00504489,-0.003096,1.27064,0.00474482,0.0120457,1168,1751,8.97881,-70.2577
-49,-727,8.93567,70.5558,-0.00196545,0.00401241,0.0020139,0.00462757,-0.00258061,1.27434,0.00421721,0.0143879,1175,1751,8.93571,-70.5558
-42,-727,8.93933,70.8448,-0.00150583,0.00361152,0.00154486,0.00404173,-0.00193604,1.2992,0.00352191,0.0176312,1182,1751,8.93935,-70.8449
-35,-727,8.93225,71.1144,-0.00100471,0.00320278,0.00106588,0.00345739,-0.00125932,1.33632,0.00282004,0.0162833,1189,1751,8.93222,-71.1144
-28,-727,8.89661,71.3704,-0.000473176,0.00262864,0.00063356,0.00275306,-0.000597593,1.37689,0.00206362,0.0100759,1196,1751,8.89663,-71.3704
-21,-727,8.86621,71.6283,3.5346e-05,0.00197076,0.000287246,0.00201249,-6.38596e-06,1.42652,0.0013438,0.0120619,1203,1751,8.8662,-71.6283
-14,-727,8.87695,71.8405,0.000402694,0.00136148,1.42834e-05,0.00136169,0.000402481,1.5559,0.000807777,0.0131616,1210,1751,8.87694,-71.8405
-7,-727,8.89917,72.0608,0.000688306,0.000827645,-0.000456843,0.0012201,0.000295851,-0.861066,0.000734909,0.0157099,1217,1751,8.89914,-72.0608
0,-727,8.87048,72.2703,0.000977355,0.000522143,-0.000654922,0.00144309,5.64037e-05,-0.618161,0.000943823,0.0155639,1224,1751,8.87051,-72.2702
7,-727,8.86206,72.389,0.00118369,0.000371018,-0.000762444,0.00164131,-8.66072e-05,-0.540573,0.00112419,0.014598,1231,1751,8.8621,-72.3891
14,-727,8.88623,72.5094,0.00128519,0.000322473,-0.000805196,0.00174194,-0.000134275,-0.515991,0.00120854,0.0141337,1238,1751,8.88628,-72.5094
21,-727,8.87964,72.6425,0.00129672,0.000384516,-0.000802159,0.00176338,-8.21433e-05,-0.526895,0.0012039,0.0123922,1245,1751,8.87961,-72.6425
28,-727,8.8894,72.7367,0.0013123,0.000468781,-0.000810958,0.00180462,-2.35348e-05,-0.545609,0.001211,0.0116927,1252,1751,8.88944,-72.7367
35,-727,8.90588,72.8126,0.00132849,0.000578391,-0.000781675,0.00182043,8.6446e-05,-0.56172,0.00118586,0.0127221,1259,1751,8.90583,-72.8126
42,-727,8.86792,72.8676,0.00131431,0.000711053,-0.000662258,0.00174039,0.000284969,-0.571708,0.0010779,0.0136877,1266,1751,8.86789,-72.8675
49,-727,8.8512,72.9122,0.00125255,0.000709527,-0.000543489,0.00158857,0.000373502,-0.553748,0.000959103,0.0121644,1273,1751,8.85121,-72.9122
56,-727,8.83704,72.964,0.00109817,0.000738623,-0.000413989,0.00136973,0.000467059,-0.58056,0.000804037,0.0111987,1280,1751,8.83706,-72.964
63,-727,8.88501,72.9509,0.000879613,0.000863152,-0.000329996,0.00120148,0.000541284,-0.77293,0.000694807,0.0137742,1287,1751,8.88501,-72.951
70,-727,8.93701,72.908,0.000683668,0.000992405,-0.000296799,0.00117258,0.000503493,-1.0252,0.000679236,0.015394,1294,1751,8.93703,-72.908
77,-727,8.92847,72.896,0.00053674,0.00105506,-0.000259485,0.00116264,0.000429162,-1.17778,0.000678869,0.0171336,1301,1751,8.9285,-72.8961
84,-727,8.94104,72.7498,0.000358747,0.00108132,-0.000236512,0.00115185,0.000288217,-1.28098,0.00069213,0.0187773,1308,1751,8.94106,-72.7498
91,-727,8.93835,72.6251,0.000222496,0.0011518,-0.000248352,0.00121401,0.000160289,-1.32537,0.000761553,0.0211435,1315,1751,8.93831,-72.6251
98,-727,8.90894,72.5925,8.52319e-05,0.00106666,-0.000119215,0.00108094,7.09583e-05,-1.45163,0.000698175,0.017469,1322,1751,8.90897,-72.5925
105,-727,8.92346,72.4832,-0.00015837,0.00109878,-0.000111433,0.00110858,-0.000168171,-1.48307,0.000801015,0.0149038,1329,1751,8.92347,-72.4831
112,-727,8.92725,72.3597,-0.000389116,0.00107243,-0.000161937,0.00109015,-0.000406843,-1.46176,0.0008938,0.0122529,1336,1751,8.92727,-72.3598
119,-727,8.91675,72.2307,-0.000584533,0.00102519,-0.000179303,0.00104492,-0.000604263,-1.4612,0.000963419,0.00971897,1343,1751,8.91674,-72.2308
126,-727,8.92798,72.017,-0.000695649,0.000992927,-0.000152708,0.00100663,-0.000709349,-1.48133,0.000995662,0.011005,1350,1751,8.92793,-72.0169
133,-727,8.91638,71.8086,-0.000809131,0.00103511,-9.60241e-05,0.0010401,-0.000814117,-1.51892,0.00107318,0.0157478,1357,1751,8.9164,-71.8086
140,-727,8.93823,71.6123,-0.000957009,0.00111327,-9.98031e-05,0.00111807,-0.000961809,-1.52274,0.00120195,0.0224511,1364,1751,8.9382,-71.6123
147,-727,8.92297,71.3501,-0.0011208,0.00118049,-0.000208417,0.00119921,-0.00113953,-1.4812,0.00135042,0.0190926,1371,1751,8.92301,-71.3501
154,-727,8.88745,71.0812,-0.00121746,0.00138236,-0.000328815,0.0014233,-0.0012584,-1.44692,0.00154926,0.0128264,1378,1751,8.8874,-71.0812
161,-727,8.86218,70.814,-0.00127634,0.00158464,-0.000450448,0.00165389,-0.00134559,-1.41827,0.00173479,0.0107769,1385,1751,8.86218,-70.8139
168,-727,8.8407,70.5281,-0.00147013,0.00163709,-0.000639373,0.00176351,-0.00159655,-1.37559,0.00194073,0.0131581,1392,1751,8.84068,-70.5281
175,-727,8.82751,70.2104,-0.0017087,0.00154978,-0.000950934,0.00180699,-0.00196591,-1.30663,0.00217893,0.0181812,1399,1751,8.82757,-70.2105
182,-727,8.82263,69.8833,-0.00183057,0.00144267,-0.00135059,0.00192799,-0.00231589,-1.22583,0.00245361,0.0197697,1406,1751,8.82258,-69.8832
189,-727,8.78784,69.5314,-0.00198107,0.0020895,-0.00186672,0.00281592,-0.00270749,-1.19968,0.00318915,0.012888,1413,1751,8.78784,-69.5314
196,-727,8.75305,69.1531,-0.00227603,0.00253963,-0.00229537,0.00345842,-0.00319482,-1.19005,0.00384225,0.0149327,1420,1751,8.75301,-69.1531
203,-727,8.7074,68.7603,-0.00245991,0.00322704,-0.00278699,0.0043651,-0.00359797,-1.18311,0.00460459,0.0174772,1427,1751,8.70744,-68.7603
210,-727,8.70398,68.382,-0.00241709,0.00397145,-0.00327563,0.00535245,-0.00379809,-1.17181,0.00530841,0.0160383,1434,1751,8.70402,-68.382
217,-727,8.6759,67.9645,-0.0025728,0.00451635,-0.00367624,0.00607851,-0.00413496,-1.16898,0.00593223,0.0126895,1441,1751,8.67594,-67.9644
224,-727,8.61731,67.4968,-0.00282596,0.00492221,-0.00392642,0.00656404,-0.00446779,-1.17474,0.00640744,0.0134274,1448,1751,8.61725,-67.4969
231,-727,8.57434,67.0608,-0.00315491,0.00507095,-0.00416444,0.00681111,-0.00489508,-1.17499,0.00678868,0.0116973,1455,1751,8.57432,-67.0608
238,-727,8.59131,66.4263,-0.00343133,0.00521247,-0.00434159,0.0070166,-0.00523546,-1.17696,0.0070986,0.0326779,1462,1751,8.59125,-66.4262
245,-727,8.49817,66.1526,0,0,0,0,0,0,0,-1,1469,1751,8.49815,-66.1526
252,-727,8.42334,65.651,0,0,0,0,0,0,0,-1,1476,1751,8.42335,-65.651
259,-727,8.39441,65.1349,0,0,0,0,0,0,0,-1,1483,1751,8.39439,-65.1349
266,-727,8.33008,64.5811,0,0,0,0,0,0,0,-1,1490,1751,8.33008,-64.5811
273,-727,8.29541,64.0724,0,0,0,0,0,0,0,-1,1497,1751,8.29535,-64.0723
280,-727,8.13831,63.6115,0,0,0,0,0,0,0,-1,1504,1751,8.13829,-63.6114
287,-727,8.07922,62.9187,0,0,0,0,0,0,0,-1,1511,1751,8.07921,-62.9187
294,-727,8.48657,53.1189,0,0,0,0,0,0,0,-1,1518,1751,8.48656,-53.1189
301,-727,8.44385,46.1619,0,0,0,0,0,0,0,-1,1525,1751,8.4439,-46.1619
308,-727,8.77002,44.8007,0,0,0,0,0,0,0,-1,1532,1751,8.76996,-44.8006
315,-727,8.10571,41.24,0,0,0,0,0,0,0,-1,1539,1751,8.10567,-41.2399
322,-727,8.24133,40.2081,0,0,0,0,0,0,0,-1,1546,1751,8.24136,-40.2082
329,-727,5.54419,31.0325,0,0,0,0,0,0,0,-1,1553,1751,5.54425,-31.0325
336,-727,5.55823,20.2439,0,0,0,0,0,0,0,-1,1560,1751,5.55829,-20.2438
343,-727,2.41699,8.72095,0,0,0,0,0,0,0,-1,1567,1751,2.41702,-8.72098
350,-727,3.89783,7.50195,0,0,0,0,0,0,0,-1,1574,1751,3.89782,-7.50193
357,-727,4.48462,10.2948,0,0,0,0,0,0,0,-1,1581,1751,4.48464,-10.2948
364,-727,6.96729,17.2365,0,0,0,0,0,0,0,-1,1588,1751,6.96732,-17.2365
371,-727,5.04565,23.2227,0,0,0,0,0,0,0,-1,1595,1751,5.04564,-23.2227
378,-727,4.56726,23.0574,0,0,0,0,0,0,0,-1,1602,1751,4.56727,-23.0574
385,-727,3.52307,22.6431,0,0,0,0,0,0,0,-1,1609,1751,3.52303,-22.643
392,-727,0,0,0,0,0,0,0,0,0,-1,1616,1751,0,0
399,-727,0,0,0,0,0,0,0,0,0,-1,1623,1751,0,0
406,-727,0,0,0,0,0,0,0,0,0,-1,1630,1751,0,0
413,-727,0,0,0,0,0,0,0,0,0,-1,1637,1751,0,0
420,-727,0,0,0,0,0,0,0,0,0,-1,1644,1751,0,0
427,-727,0,0,0,0,0,0,0,0,0,-1,1651,1751,0,0
434,-727,0,0,0,0,0,0,0,0,0,-1,1658,1751,0,0
441,-727,0,0,0,0,0,0,0,0,0,-1,1665,1751,0,0
448,-727,0,0,0,0,0,0,0,0,0,-1,1672,1751,0,0
455,-727,0,0,0,0,0,0,0,0,0,-1,1679,1751,0,0
462,-727,0,0,0,0,0,0,0,0,0,-1,1686,1751,0,0
469,-727,0,0,0,0,0,0,0,0,0,-1,1693,1751,0,0
476,-727,0,0,0,0,0,0,0,0,0,-1,1700,1751,0,0
483,-727,0,0,0,0,0,0,0,0,0,-1,1707,1751,0,0
490,-727,0,0,0,0,0,0,0,0,0,-1,1714,1751,0,0
497,-727,0,0,0,0,0,0,0,0,0,-1,1721,1751,0,0
504,-727,0,0,0,0,0,0,0,0,0,-1,1728,1751,0,0
511,-727,0,0,0,0,0,0,0,0,0,-1,1735,1751,0,0
518,-727,0,0,0,0,0,0,0,0,0,-1,1742,1751,0,0
525,-727,0,0,0,0,0,0,0,0,0,-1,1749,1751,0,0
532,-727,0,0,0,0,0,0,0,0,0,-1,1756,1751,0,0
539,-727,0,0,0,0,0,0,0,0,0,-1,1763,1751,0,0
546,-727,0,0,0,0,0,0,0,0,0,-1,1770,1751,0,0
553,-727,0,0,0,0,0,0,0,0,0,-1,1777,1751,0,0
560,-727,0,0,0,0,0,0,0,0,0,-1,1784,1751,0,0
567,-727,0,0,0,0,0,0,0,0,0,-1,1791,1751,0,0
574,-727,0,0,0,0,0,0,0,0,0,-1,1798,1751,0,0
581,-727,0,0,0,0,0,0,0,0,0,-1,1805,1751,0,0
588,-727,0,0,0,0,0,0,0,0,0,-1,1812,1751,0,0
595,-727,0,0,0,0,0,0,0,0,0,-1,1819,1751,0,0
602,-727,0,0,0,0,0,0,0,0,0,-1,1826,1751,0,0
609,-727,0,0,0,0,0,0,0,0,0,-1,1833,1751,0,0
616,-727,0,0,0,0,0,0,0,0,0,-1,1840,1751,0,0
623,-727,0,0,0,0,0,0,0,0,0,-1,1847,1751,0,0
630,-727,0,0,0,0,0,0,0,0,0,-1,1854,1751,0,0
637,-727,0,0,0,0,0,0,0,0,0,-1,1861,1751,0,0
644,-727,0,0,0,0,0,0,0,0,0,-1,1868,1751,0,0
651,-727,0,0,0,0,0,0,0,0,0,-1,1875,1751,0,0
658,-727,0,0,0,0,0,0,0,0,0,-1,1882,1751,0,0
665,-727,0,0,0,0,0,0,0,0,0,-1,1889,1751,0,0
672,-727,0,0,0,0,0,0,0,0,0,-1,1896,1751,0,0
679,-727,0,0,0,0,0,0,0,0,0,-1,1903,1751,0,0
686,-727,0,0,0,0,0,0,0,0,0,-1,1910,1751,0,0
693,-727,0,0,0,0,0,0,0,0,0,-1,1917,1751,0,0
700,-727,0,0,0,0,0,0,0,0,0,-1,1924,1751,0,0
707,-727,0,0,0,0,0,0,0,0,0,-1,1931,1751,0,0
714,-727,0,0,0,0,0,0,0,0,0,-1,1938,1751,0,0
721,-727,0,0,0,0,0,0,0,0,0,-1,1945,1751,0,0
728,-727,0,0,0,0,0,0,0,0,0,-1,1952,1751,0,0
735,-727,0,0,0,0,0,0,0,0,0,-1,1959,1751,0,0
742,-727,0,0,0,0,0,0,0,0,0,-1,1966,1751,0,0
749,-727,0,0,0,0,0,0,0,0,0,-1,1973,1751,0,0
756,-727,0,0,0,0,0,0,0,0,0,-1,1980,1751,0,0
763,-727,0,0,0,0,0,0,0,0,0,-1,1987,1751,0,0
770,-727,0,0,0,0,0,0,0,0,0,-1,1994,1751,0,0
777,-727,0,0,0,0,0,0,0,0,0,-1,2001,1751,0,0
784,-727,0,0,0,0,0,0,0,0,0,-1,2008,1751,0,0
791,-727,0,0,0,0,0,0,0,0,0,-1,2015,1751,0,0
798,-727,0,0,0,0,0,0,0,0,0,-1,2022,1751,0,0
805,-727,0,0,0,0,0,0,0,0,0,-1,2029,1751,0,0
812,-727,0,0,0,0,0,0,0,0,0,-1,2036,1751,0,0
-700,-734,0,0,0,0,0,0,0,0,0,-1,524,1758,0,0
-693,-734,0,0,0,0,0,0,0,0,0,-1,531,1758,0,0
-686,-734,0,0,0,0,0,0,0,0,0,-1,538,1758,0,0
-679,-734,0,0,0,0,0,0,0,0,0,-1,545,1758,0,0
-672,-734,0,0,0,0,0,0,0,0,0,-1,552,1758,0,0
-665,-734,0,0,0,0,0,0,0,0,0,-1,559,1758,0,0
-658,-734,0,0,0,0,0,0,0,0,0,-1,566,1758,0,0
-651,-734,0,0,0,0,0,0,0,0,0,-1,573,1758,0,0
-644,-734,0,0,0,0,0,0,0,0,0,-1,580,1758,0,0
-637,-734,0,0,0,0,0,0,0,0,0,-1,587,1758,0,0
-630,-734,0,0,0,0,0,0,0,0,0,-1,594,1758,0,0
-623,-734,0,0,0,0,0,0,0,0,0,-1,601,1758,0,0
-616,-734,0,0,0,0,0,0,0,0,0,-1,608,1758,0,0
-609,-734,0,0,0,0,0,0,0,0,0,-1,615,1758,0,0
-602,-734,0,0,0,0,0,0,0,0,0,-1,622,1758,0,0
-595,-734,0,0,0,0,0,0,0,0,0,-1,629,1758,0,0
-588,-734,0,0,0,0,0,0,0,0,0,-1,636,1758,0,0
-581,-734,0,0,0,0,0,0,0,0,0,-1,643,1758,0,0
-574,-734,0,0,0,0,0,0,0,0,0,-1,650,1758,0,0
-567,-734,0,0,0,0,0,0,0,0,0,-1,657,1758,0,0
-560,-734,0,0,0,0,0,0,0,0,0,-1,664,1758,0,0
-553,-734,0,0,0,0,0,0,0,0,0,-1,671,1758,0,0
-546,-734,0,0,0,0,0,0,0,0,0,-1,678,1758,0,0
-539,-734,0,0,0,0,0,0,0,0,0,-1,685,1758,0,0
-532,-734,0,0,0,0,0,0,0,0,0,-1,692,1758,0,0
-525,-734,0,0,0,0,0,0,0,0,0,-1,699,1758,0,0
-518,-734,0,0,0,0,0,0,0,0,0,-1,706,1758,0,0
-511,-734,0,0,0,0,0,0,0,0,0,-1,713,1758,0,0
-504,-734,0,0,0,0,0,0,0,0,0,-1,720,1758,0,0
-497,-734,0,0,0,0,0,0,0,0,0,-1,727,1758,0,0
-490,-734,0,0,0,0,0,0,0,0,0,-1,734,1758,0,0
-483,-734,0,0,0,0,0,0,0,0,0,-1,741,1758,0,0
-476,-734,0,0,0,0,0,0,0,0,0,-1,748,1758,0,0
-469,-734,0,0,0,0,0,0,0,0,0,-1,755,1758,0,0
-462,-734,0,0,0,0,0,0,0,0,0,-1,762,1758,0,0
-455,-734,0,0,0,0,0,0,0,0,0,-1,769,1758,0,0
-448,-734,0,0,0,0,0,0,0,0,0,-1,776,1758,0,0
-441,-734,0,0,0,0,0,0,0,0,0,-1,783,1758,0,0
-434,-734,0,0,0,0,0,0,0,0,0,-1,790,1758,0,0
-427,-734,0,0,0,0,0,0,0,0,0,-1,797,1758,0,0
-420,-734,0,0,0,0,0,0,0,0,0,-1,804,1758,0,0
-413,-734,0,0,0,0,0,0,0,0,0,-1,811,1758,0,0
-406,-734,0,0,0,0,0,0,0,0,0,-1,818,1758,0,0
-399,-734,0,0,0,0,0,0,0,0,0,-1,825,1758,0,0
-392,-734,0,0,0,0,0,0,0,0,0,-1,832,1758,0,0
-385,-734,0,0,0,0,0,0,0,0,0,-1,839,1758,0,0
-378,-734,0,0,0,0,0,0,0,0,0,-1,846,1758,0,0
-371,-734,0,0,0,0,0,0,0,0,0,-1,853,1758,0,0
-364,-734,0,0,0,0,0,0,0,0,0,-1,860,1758,0,0
-357,-734,0,0,0,0,0,0,0,0,0,-1,867,1758,0,0
-350,-734,0,0,0,0,0,0,0,0,0,-1,874,1758,0,0
-343,-734,0,0,0,0,0,0,0,0,0,-1,881,1758,0,0
-336,-734,0,0,0,0,0,0,0,0,0,-1,888,1758,0,0
-329,-734,0,0,0,0,0,0,0,0,0,-1,895,1758,0,0
-322,-734,0,0,0,0,0,0,0,0,0,-1,902,1758,0,0
-315,-734,0,0,0,0,0,0,0,0,0,-1,909,1758,0,0
-308,-734,0,0,0,0,0,0,0,0,0,-1,916,1758,0,0
-301,-734,0,0,0,0,0,0,0,0,0,-1,923,1758,0,0
-294,-734,0,0,0,0,0,0,0,0,0,-1,930,1758,0,0
-287,-734,0,0,0,0,0,0,0,0,0,-1,937,1758,0,0
-280,-734,0,0,0,0,0,0,0,0,0,-1,944,1758,0,0
-273,-734,0,0,0,0,0,0,0,0,0,-1,951,1758,0,0
-266,-734,0,0,0,0,0,0,0,0,0,-1,958,1758,0,0
-259,-734,0,0,0,0,0,0,0,0,0,-1,965,1758,0,0
-252,-734,5.73883,31.5245,0,0,0,0,0,0,0,-1,972,1758,5.73884,-31.5246
-245,-734,6.32513,30.9761,0,0,0,0,0,0,0,-1,979,1758,6.32511,-30.9761
-238,-734,6.82385,30.0449,0,0,0,0,0,0,0,-1,986,1758,6.82387,-30.0449
-231,-734,7.1958,29.1666,0,0,0,0,0,0,0,-1,993,1758,7.19578,-29.1666
-224,-734,10.8631,52.8424,0,0,0,0,0,0,0,-1,1000,1758,10.8631,-52.8424
-217,-734,7.45984,28.4386,0,0,0,0,0,0,0,-1,1007,1758,7.45986,-28.4386
-210,-734,7.45483,28.4388,0,0,0,0,0,0,0,-1,1014,1758,7.45482,-28.4388
-203,-734,14.3309,49.7766,0,0,0,0,0,0,0,-1,1021,1758,14.3309,-49.7766
-196,-734,13.0366,49.6821,0,0,0,0,0,0,0,-1,1028,1758,13.0366,-49.6822
-189,-734,11.8075,49.2727,0,0,0,0,0,0,0,-1,1035,1758,11.8075,-49.2728
-182,-734,10.8073,48.8035,0,0,0,0,0,0,0,-1,1042,1758,10.8072,-48.8035
-175,-734,10.6466,63.0319,0,0,0,0,0,0,0,-1,1049,1758,10.6466,-63.0319
-168,-734,10.7595,63.7695,0,0,0,0,0,0,0,-1,1056,1758,10.7595,-63.7695
-161,-734,10.8724,64.5072,0,0,0,0,0,0,0,-1,1063,1758,10.8724,-64.5072
-154,-734,10.3014,52.4893,0,0,0,0,0,0,0,-1,1070,1758,10.3014,-52.4893
-147,-734,10.325,56.6101,0,0,0,0,0,0,0,-1,1077,1758,10.3249,-56.6101
-140,-734,9.89868,64.9559,0,0,0,0,0,0,0,-1,1084,1758,9.89864,-64.956
-133,-734,9.86462,65.6426,0,0,0,0,0,0,0,-1,1091,1758,9.86468,-65.6425
-126,-734,9.78027,66.1334,0,0,0,0,0,0,0,-1,1098,1758,9.7803,-66.1334
-119,-734,9.82996,66.3767,0,0,0,0,0,0,0,-1,1105,1758,9.82997,-66.3767
-112,-734,9.52307,61.2794,0,0,0,0,0,0,0,-1,1112,1758,9.52313,-61.2794
-105,-734,9.39783,63.9799,0,0,0,0,0,0,0,-1,1119,1758,9.39786,-63.9798
-98,-734,9.49292,67.9216,0,0,0,0,0,0,0,-1,1126,1758,9.49288,-67.9216
-91,-734,9.5481,68.3754,0,0,0,0,0,0,0,-1,1133,1758,9.54804,-68.3753
-84,-734,9.47949,68.7864,0,0,0,0,0,0,0,-1,1140,1758,9.47952,-68.7864
-77,-734,9.42773,69.2334,0,0,0,0,0,0,0,-1,1147,1758,9.42777,-69.2333
-70,-734,9.41614,69.6415,0,0,0,0,0,0,0,-1,1154,1758,9.41608,-69.6415
-63,-734,9.26013,69.6722,-0.00456072,0.00554273,0.003708,0.00675752,-0.00577551,1.2542,0.00724335,0.037776,1161,1758,9.26016,-69.6723
-56,-734,9.2699,70.2041,-0.00446663,0.00552571,0.00315429,0.00643811,-0.00537903,1.28922,0.00683176,0.0182968,1168,1758,9.2699,-70.204
-49,-734,9.22327,70.5564,-0.00383811,0.00517506,0.00277256,0.00595963,-0.00462268,1.29503,0.00612594,0.0135978,1175,1758,9.22322,-70.5564
-42,-734,9.19531,70.8621,-0.00310214,0.00487082,0.00209225,0.00538651,-0.00361783,1.32914,0.00523198,0.014502,1182,1758,9.19535,-70.862
-35,-734,9.17615,71.1343,-0.00245619,0.00469304,0.00143569,0.00497058,-0.00273373,1.37984,0.00451014,0.0145848,1189,1758,9.17618,-71.1342
-28,-734,9.13843,71.3729,-0.0017677,0.00428868,0.000841199,0.00440335,-0.00188237,1.43532,0.00372508,0.0102726,1196,1758,9.13849,-71.3729
-21,-734,9.1593,71.605,-0.00108705,0.00375929,0.000335608,0.00378242,-0.00111018,1.50198,0.00296186,0.0173146,1203,1758,9.15931,-71.605
-14,-734,9.09412,71.8512,-0.000645671,0.00325922,-0.000112203,0.00326244,-0.000648892,-1.54209,0.00242043,0.0185522,1210,1758,9.09412,-71.8512
-7,-734,9.06238,72.0518,-0.000539864,0.00294699,-0.00108988,0.00325962,-0.000852496,-1.29145,0.00250605,0.0194827,1217,1758,9.06244,-72.0517
0,-734,9.03149,72.2336,-0.000657832,0.00287486,-0.00172156,0.00357504,-0.00135801,-1.18452,0.00294241,0.0183222,1224,1758,9.03153,-72.2337
7,-734,9.00818,72.3904,-0.000657613,0.00288136,-0.00216772,0.0039101,-0.00168636,-1.1277,0.00331505,0.0136008,1231,1758,9.00815,-72.3903
14,-734,8.98975,72.5369,-0.000821504,0.00301641,-0.00256968,0.00430458,-0.00210967,-1.10611,0.00377485,0.0139978,1238,1758,8.98978,-72.5368
21,-734,8.93994,72.6398,-0.00111278,0.00325182,-0.00288762,0.00468902,-0.00254998,-1.10898,0.00423982,0.0122642,1245,1758,8.9399,-72.6398
28,-734,8.93994,72.7399,-0.00154805,0.00343852,-0.0032066,0.0050071,-0.00311663,-1.11585,0.00473238,0.0118225,1252,1758,8.93989,-72.7399
35,-734,8.95129,72.8463,-0.00198459,0.00362989,-0.00343826,0.00526137,-0.00361607,-1.12775,0.00515465,0.0154431,1259,1758,8.95128,-72.8463
42,-734,8.92932,72.8834,-0.00232171,0.00381576,-0.00348022,0.00538697,-0.00389291,-1.14672,0.00538084,0.0138551,1266,1758,8.9293,-72.8835
49,-734,8.88721,72.9211,-0.00264109,0.00382197,-0.00348519,0.00534327,-0.00416238,-1.15922,0.00550219,0.0111899,1273,1758,8.88726,-72.9212
56,-734,8.85608,72.9576,-0.00304201,0.00388965,-0.00336248,0.00525271,-0.00440508,-1.18566,0.00558308,0.0104307,1280,1758,8.8561,-72.9576
63,-734,8.88489,72.9269,-0.0033823,0.00398441,-0.00314677,0.00514556,-0.00454345,-1.2173,0.00559755,0.0142037,1287,1758,8.8849,-72.9269
70,-734,8.87402,72.8999,-0.00357649,0.00410474,-0.00291254,0.00508421,-0.00455596,-1.24638,0.00556854,0.0142027,1294,1758,8.87397,-72.8999
77,-734,8.86963,72.9049,-0.00371113,0.00422833,-0.00263109,0.0050211,-0.0045039,-1.27814,0.00550196,0.0168738,1301,1758,8.86963,-72.9049
84,-734,8.85095,72.8003,-0.0038079,0.00423312,-0.00237315,0.00488126,-0.00445605,-1.30418,0.00539276,0.0175812,1308,1758,8.85096,-72.8003
91,-734,8.8291,72.719,-0.00375179,0.00428205,-0.00215894,0.00482546,-0.00429521,-1.32421,0.00526879,0.0220667,1315,1758,8.82916,-72.719
98,-734,8.82874,72.6453,-0.00354366,0.0040649,-0.00165933,0.00441104,-0.00388979,-1.36515,0.00479563,0.0165701,1322,1758,8.82873,-72.6453
105,-734,8.8186,72.5074,-0.00345152,0.00403255,-0.00146537,0.00430924,-0.00372821,-1.38418,0.00464446,0.0169613,1329,1758,8.81859,-72.5075
112,-734,8.81702,72.3463,-0.00362885,0.00401144,-0.00145106,0.00427774,-0.00389515,-1.38929,0.00472035,0.0141128,1336,1758,8.81703,-72.3464
119,-734,8.79883,72.1873,-0.00375586,0.00392742,-0.00138005,0.00416778,-0.00399623,-1.39836,0.00471384,0.0145026,1343,1758,8.79887,-72.1873
126,-734,8.77771,71.9795,-0.00378626,0.00383801,-0.00125044,0.00403786,-0.0039861,-1.41232,0.00463267,0.0170401,1350,1758,8.77774,-71.9795
133,-734,8.71765,71.7854,-0.00372583,0.00382841,-0.00103892,0.00396869,-0.00386611,-1.43659,0.00452355,0.015277,1357,1758,8.71761,-71.7854
140,-734,8.7113,71.5739,-0.00376993,0.00376765,-0.000900931,0.00387383,-0.00387612,-1.45347,0.00447444,0.0197527,1364,1758,8.71132,-71.5738
147,-734,8.67615,71.3097,-0.00395418,0.00360771,-0.000905942,0.00371474,-0.0040612,-1.45321,0.00449093,0.0144093,1371,1758,8.67609,-71.3097
154,-734,8.63049,71.0813,-0.00404807,0.00361016,-0.000905574,0.00371578,-0.0041537,-1.45468,0.00454579,0.0103825,1378,1758,8.63051,-71.0814
161,-734,8.59802,70.8295,-0.00397344,0.00352335,-0.00100162,0.00365487,-0.00410496,-1.44024,0.00448265,0.00987217,1385,1758,8.59808,-70.8295
168,-734,8.54663,70.5209,-0.00402933,0.00322164,-0.00105399,0.00337174,-0.00417943,-1.42934,0.00436798,0.015235,1392,1758,8.54668,-70.5209
175,-734,8.50867,70.2103,-0.00409895,0.00250671,-0.00128815,0.00274903,-0.00434126,-1.38486,0.00412784,0.0179922,1399,1758,8.50866,-70.2103
182,-734,8.51514,69.8663,-0.00402516,0.00187549,-0.00181314,0.0023881,-0.00453776,-1.29527,0.00406234,0.0163738,1406,1758,8.51508,-69.8664
189,-734,8.47168,69.5125,-0.00406143,0.00265033,-0.00245334,0.00345148,-0.00486257,-1.25516,0.00482311,0.0125378,1413,1758,8.47172,-69.5125
196,-734,8.40112,69.1494,-0.00433787,0.00319479,-0.00299375,0.00423968,-0.00538276,-1.23499,0.00556857,0.0153086,1420,1758,8.40111,-69.1494
203,-734,8.39258,68.7206,-0.00447524,0.00415502,-0.00363835,0.00548417,-0.00580439,-1.22054,0.00651833,0.022412,1427,1758,8.39259,-68.7206
210,-734,8.38794,68.3273,-0.00417081,0.00524613,-0.00427791,0.00689928,-0.00582396,-1.20204,0.0073545,0.0387059,1434,1758,8.38788,-68.3273
217,-734,8.28625,67.9832,0,0,0,0,0,0,0,-1,1441,1758,8.28631,-67.9831
224,-734,8.22522,67.5657,0,0,0,0,0,0,0,-1,1448,1758,8.22527,-67.5656
231,-734,8.09595,67.0387,0,0,0,0,0,0,0,-1,1455,1758,8.0959,-67.0387
238,-734,8.19971,66.0721,0,0,0,0,0,0,0,-1,1462,1758,8.19968,-66.0721
245,-734,8.29065,60.4988,0,0,0,0,0,0,0,-1,1469,1758,8.29062,-60.4987
252,-734,8.17517,58.5679,0,0,0,0,0,0,0,-1,1476,1758,8.1752,-58.5678
259,-734,8.07666,59.5597,0,0,0,0,0,0,0,-1,1483,1758,8.07667,-59.5597
266,-734,7.97253,63.3893,0,0,0,0,0,0,0,-1,1490,1758,7.97259,-63.3893
273,-734,8.22437,62.0486,0,0,0,0,0,0,0,-1,1497,1758,8.22438,-62.0485
280,-734,7.90149,52.7294,0,0,0,0,0,0,0,-1,1504,1758,7.90153,-52.7294
287,-734,7.56177,50.5933,0,0,0,0,0,0,0,-1,1511,1758,7.56172,-50.5933
294,-734,7.42676,47.7545,0,0,0,0,0,0,0,-1,1518,1758,7.4268,-47.7545
301,-734,7.21814,42.6078,0,0,0,0,0,0,0,-1,1525,1758,7.21809,-42.6078
308,-734,8.0509,41.5156,0,0,0,0,0,0,0,-1,1532,1758,8.05087,-41.5157
315,-734,7.93787,40.8274,0,0,0,0,0,0,0,-1,1539,1758,7.93784,-40.8273
322,-734,7.82483,40.139,0,0,0,0,0,0,0,-1,1546,1758,7.82481,-40.139
329,-734,5.73267,19.656,0,0,0,0,0,0,0,-1,1553,1758,5.73262,-19.656
336,-734,6.71375,23.7469,0,0,0,0,0,0,0,-1,1560,1758,6.71372,-23.7469
343,-734,5.54968,5.14221,0,0,0,0,0,0,0,-1,1567,1758,5.54973,-5.14225
350,-734,5.07397,6.73242,0,0,0,0,0,0,0,-1,1574,1758,5.07402,-6.73243
357,-734,5.05542,7.19189,0,0,0,0,0,0,0,-1,1581,1758,5.05541,-7.19184
364,-734,4.43896,10.4904,0,0,0,0,0,0,0,-1,1588,1758,4.43893,-10.4904
371,-734,7.36975,17.4751,0,0,0,0,0,0,0,-1,1595,1758,7.36972,-17.4752
378,-734,0,0,0,0,0,0,0,0,0,-1,1602,1758,0,0
385,-734,0,0,0,0,0,0,0,0,0,-1,1609,1758,0,0
392,-734,0,0,0,0,0,0,0,0,0,-1,1616,1758,0,0
399,-734,0,0,0,0,0,0,0,0,0,-1,1623,1758,0,0
406,-734,0,0,0,0,0,0,0,0,0,-1,1630,1758,0,0
413,-734,0,0,0,0,0,0,0,0,0,-1,1637,1758,0,0
420,-734,0,0,0,0,0,0,0,0,0,-1,1644,1758,0,0
427,-734,0,0,0,0,0,0,0,0,0,-1,1651,1758,0,0
434,-734,0,0,0,0,0,0,0,0,0,-1,1658,1758,0,0
441,-734,0,0,0,0,0,0,0,0,0,-1,1665,1758,0,0
448,-734,0,0,0,0,0,0,0,0,0,-1,1672,1758,0,0
455,-734,0,0,0,0,0,0,0,0,0,-1,1679,1758,0,0
462,-734,0,0,0,0,0,0,0,0,0,-1,1686,1758,0,0
469,-734,0,0,0,0,0,0,0,0,0,-1,1693,1758,0,0
476,-734,0,0,0,0,0,0,0,0,0,-1,1700,1758,0,0
483,-734,0,0,0,0,0,0,0,0,0,-1,1707,1758,0,0
490,-734,0,0,0,0,0,0,0,0,0,-1,1714,1758,0,0
497,-734,0,0,0,0,0,0,0,0,0,-1,1721,1758,0,0
504,-734,0,0,0,0,0,0,0,0,0,-1,1728,1758,0,0
511,-734,0,0,0,0,0,0,0,0,0,-1,1735,1758,0,0
518,-734,0,0,0,0,0,0,0,0,0,-1,1742,1758,0,0
525,-734,0,0,0,0,0,0,0,0,0,-1,1749,1758,0,0
532,-734,0,0,0,0,0,0,0,0,0,-1,1756,1758,0,0
539,-734,0,0,0,0,0,0,0,0,0,-1,1763,1758,0,0
546,-734,0,0,0,0,0,0,0,0,0,-1,1770,1758,0,0
553,-734,0,0,0,0,0,0,0,0,0,-1,1777,1758,0,0
560,-734,0,0,0,0,0,0,0,0,0,-1,1784,1758,0,0
567,-734,0,0,0,0,0,0,0,0,0,-1,1791,1758,0,0
574,-734,0,0,0,0,0,0,0,0,0,-1,1798,1758,0,0
581,-734,0,0,0,0,0,0,0,0,0,-1,1805,1758,0,0
588,-734,0,0,0,0,0,0,0,0,0,-1,1812,1758,0,0
595,-734,0,0,0,0,0,0,0,0,0,-1,1819,1758,0,0
602,-734,0,0,0,0,0,0,0,0,0,-1,1826,1758,0,0
609,-734,0,0,0,0,0,0,0,0,0,-1,1833,1758,0,0
616,-734,0,0,0,0,0,0,0,0,0,-1,1840,1758,0,0
623,-734,0,0,0,0,0,0,0,0,0,-1,1847,1758,0,0
630,-734,0,0,0,0,0,0,0,0,0,-1,1854,1758,0,0
637,-734,0,0,0,0,0,0,0,0,0,-1,1861,1758,0,0
644,-734,0,0,0,0,0,0,0,0,0,-1,1868,1758,0,0
651,-734,0,0,0,0,0,0,0,0,0,-1,1875,1758,0,0
658,-734,0,0,0,0,0,0,0,0,0,-1,1882,1758,0,0
665,-734,0,0,0,0,0,0,0,0,0,-1,1889,1758,0,0
672,-734,0,0,0,0,0,0,0,0,0,-1,1896,1758,0,0
679,-734,0,0,0,0,0,0,0,0,0,-1,1903,1758,0,0
686,-734,0,0,0,0,0,0,0,0,0,-1,1910,1758,0,0
693,-734,0,0,0,0,0,0,0,0,0,-1,1917,1758,0,0
700,-734,0,0,0,0,0,0,0,0,0,-1,1924,1758,0,0
707,-734,0,0,0,0,0,0,0,0,0,-1,1931,1758,0,0
714,-734,0,0,0,0,0,0,0,0,0,-1,1938,1758,0,0
721,-734,0,0,0,0,0,0,0,0,0,-1,1945,1758,0,0
728,-734,0,0,0,0,0,0,0,0,0,-1,1952,1758,0,0
735,-734,0,0,0,0,0,0,0,0,0,-1,1959,1758,0,0
742,-734,0,0,0,0,0,0,0,0,0,-1,1966,1758,0,0
749,-734,0,0,0,0,0,0,0,0,0,-1,1973,1758,0,0
756,-734,0,0,0,0,0,0,0,0,0,-1,1980,1758,0,0
763,-734,0,0,0,0,0,0,0,0,0,-1,1987,1758,0,0
770,-734,0,0,0,0,0,0,0,0,0,-1,1994,1758,0,0
777,-734,0,0,0,0,0,0,0,0,0,-1,2001,1758,0,0
784,-734,0,0,0,0,0,0,0,0,0,-1,2008,1758,0,0
791,-734,0,0,0,0,0,0,0,0,0,-1,2015,1758,0,0
798,-734,0,0,0,0,0,0,0,0,0,-1,2022,1758,0,0
805,-734,0,0,0,0,0,0,0,0,0,-1,2029,1758,0,0
812,-734,0,0,0,0,0,0,0,0,0,-1,2036,1758,0,0
-700,-741,0,0,0,0,0,0,0,0,0,-1,524,1765,0,0
-693,-741,0,0,0,0,0,0,0,0,0,-1,531,1765,0,0
-686,-741,0,0,0,0,0,0,0,0,0,-1,538,1765,0,0
-679,-741,0,0,0,0,0,0,0,0,0,-1,545,1765,0,0
-672,-741,0,0,0,0,0,0,0,0,0,-1,552,1765,0,0
-665,-741,0,0,0,0,0,0,0,0,0,-1,559,1765,0,0
-658,-741,0,0,0,0,0,0,0,0,0,-1,566,1765,0,0
-651,-741,0,0,0,0,0,0,0,0,0,-1,573,1765,0,0
-644,-741,0,0,0,0,0,0,0,0,0,-1,580,1765,0,0
-637,-741,0,0,0,0,0,0,0,0,0,-1,587,1765,0,0
-630,-741,0,0,0,0,0,0,0,0,0,-1,594,1765,0,0
-623,-741,0,0,0,0,0,0,0,0,0,-1,601,1765,0,0
-616,-741,0,0,0,0,0,0,0,0,0,-1,608,1765,0,0
-609,-741,0,0,0,0,0,0,0,0,0,-1,615,1765,0,0
-602,-741,0,0,0,0,0,0,0,0,0,-1,622,1765,0,0
-595,-741,0,0,0,0,0,0,0,0,0,-1,629,1765,0,0
-588,-741,0,0,0,0,0,0,0,0,0,-1,636,1765,0,0
-581,-741,0,0,0,0,0,0,0,0,0,-1,643,1765,0,0
-574,-741,0,0,0,0,0,0,0,0,0,-1,650,1765,0,0
-567,-741,0,0,0,0,0,0,0,0,0,-1,657,1765,0,0
-560,-741,0,0,0,0,0,0,0,0,0,-1,664,1765,0,0
-553,-741,0,0,0,0,0,0,0,0,0,-1,671,1765,0,0
-546,-741,0,0,0,0,0,0,0,0,0,-1,678,1765,0,0
-539,-741,0,0,0,0,0,0,0,0,0,-1,685,1765,0,0
-532,-741,0,0,0,0,0,0,0,0,0,-1,692,1765,0,0
-525,-741,0,0,0,0,0,0,0,0,0,-1,699,1765,0,0
-518,-741,0,0,0,0,0,0,0,0,0,-1,706,1765,0,0
-511,-741,0,0,0,0,0,0,0,0,0,-1,713,1765,0,0
-504,-741,0,0,0,0,0,0,0,0,0,-1,720,1765,0,0
-497,-741,0,0,0,0,0,0,0,0,0,-1,727,1765,0,0
-490,-741,0,0,0,0,0,0,0,0,0,-1,734,1765,0,0
-483,-741,0,0,0,0,0,0,0,0,0,-1,741,1765,0,0
-476,-741,0,0,0,0,0,0,0,0,0,-1,748,1765,0,0
-469,-741,0,0,0,0,0,0,0,0,0,-1,755,1765,0,0
-462,-741,0,0,0,0,0,0,0,0,0,-1,762,1765,0,0
-455,-741,0,0,0,0,0,0,0,0,0,-1,769,1765,0,0
-448,-741,0,0,0,0,0,0,0,0,0,-1,776,1765,0,0
-441,-741,0,0,0,0,0,0,0,0,0,-1,783,1765,0,0
-434,-741,0,0,0,0,0,0,0,0,0,-1,790,1765,0,0
-427,-741,0,0,0,0,0,0,0,0,0,-1,797,1765,0,0
-420,-741,0,0,0,0,0,0,0,0,0,-1,804,1765,0,0
-413,-741,0,0,0,0,0,0,0,0,0,-1,811,1765,0,0
-406,-741,0,0,0,0,0,0,0,0,0,-1,818,1765,0,0
-399,-741,0,0,0,0,0,0,0,0,0,-1,825,1765,0,0
-392,-741,0,0,0,0,0,0,0,0,0,-1,832,1765,0,0
-385,-741,0,0,0,0,0,0,0,0,0,-1,839,1765,0,0
-378,-741,0,0,0,0,0,0,0,0,0,-1,846,1765,0,0
-371,-741,0,0,0,0,0,0,0,0,0,-1,853,1765,0,0
-364,-741,0,0,0,0,0,0,0,0,0,-1,860,1765,0,0
-357,-741,0,0,0,0,0,0,0,0,0,-1,867,1765,0,0
-350,-741,0,0,0,0,0,0,0,0,0,-1,874,1765,0,0
-343,-741,0,0,0,0,0,0,0,0,0,-1,881,1765,0,0
-336,-741,0,0,0,0,0,0,0,0,0,-1,888,1765,0,0
-329,-741,0,0,0,0,0,0,0,0,0,-1,895,1765,0,0
-322,-741,0,0,0,0,0,0,0,0,0,-1,902,1765,0,0
-315,-741,0,0,0,0,0,0,0,0,0,-1,909,1765,0,0
-308,-741,0,0,0,0,0,0,0,0,0,-1,916,1765,0,0
-301,-741,0,0,0,0,0,0,0,0,0,-1,923,1765,0,0
-294,-741,0,0,0,0,0,0,0,0,0,-1,930,1765,0,0
-287,-741,0,0,0,0,0,0,0,0,0,-1,937,1765,0,0
-280,-741,0,0,0,0,0,0,0,0,0,-1,944,1765,0,0
-273,-741,0,0,0,0,0,0,0,0,0,-1,951,1765,0,0
-266,-741,0,0,0,0,0,0,0,0,0,-1,958,1765,0,0
-259,-741,0,0,0,0,0,0,0,0,0,-1,965,1765,0,0
-252,-741,0,0,0,0,0,0,0,0,0,-1,972,1765,0,0
-245,-741,0,0,0,0,0,0,0,0,0,-1,979,1765,0,0
-238,-741,7.13855,29.8348,0,0,0,0,0,0,0,-1,986,1765,7.13856,-29.8348
-231,-741,7.74182,29.3066,0,0,0,0,0,0,0,-1,993,1765,7.74183,-29.3066
-224,-741,7.80078,29.0964,0,0,0,0,0,0,0,-1,1000,1765,7.80079,-29.0964
-217,-741,8.15863,29.113,0,0,0,0,0,0,0,-1,1007,1765,8.15863,-29.1131
-210,-741,8.37024,29.3896,0,0,0,0,0,0,0,-1,1014,1765,8.37022,-29.3896
-203,-741,7.703,44.0701,0,0,0,0,0,0,0,-1,1021,1765,7.70306,-44.0701
-196,-741,13.1698,50.7012,0,0,0,0,0,0,0,-1,1028,1765,13.1698,-50.7012
-189,-741,12.3024,50.0712,0,0,0,0,0,0,0,-1,1035,1765,12.3023,-50.0712
-182,-741,11.3236,49.675,0,0,0,0,0,0,0,-1,1042,1765,11.3236,-49.675
-175,-741,11.5299,64.0309,0,0,0,0,0,0,0,-1,1049,1765,11.53,-64.0309
-168,-741,11.5565,64.798,0,0,0,0,0,0,0,-1,1056,1765,11.5566,-64.798
-161,-741,11.5831,65.5651,0,0,0,0,0,0,0,-1,1063,1765,11.5832,-65.5651
-154,-741,7.93201,50.9395,0,0,0,0,0,0,0,-1,1070,1765,7.93195,-50.9395
-147,-741,10.9515,48.8568,0,0,0,0,0,0,0,-1,1077,1765,10.9515,-48.8569
-140,-741,10.5068,51.2876,0,0,0,0,0,0,0,-1,1084,1765,10.5068,-51.2876
-133,-741,10.6208,54.5072,0,0,0,0,0,0,0,-1,1091,1765,10.6208,-54.5072
-126,-741,9.89746,52.7167,0,0,0,0,0,0,0,-1,1098,1765,9.8975,-52.7167
-119,-741,9.33801,50.1482,0,0,0,0,0,0,0,-1,1105,1765,9.33802,-50.1482
-112,-741,9.6283,47.2815,0,0,0,0,0,0,0,-1,1112,1765,9.62827,-47.2815
-105,-741,9.61792,45.9158,0,0,0,0,0,0,0,-1,1119,1765,9.61797,-45.9158
-98,-741,9.19971,40.25,0,0,0,0,0,0,0,-1,1126,1765,9.19971,-40.25
-91,-741,8.40002,36.3687,0,0,0,0,0,0,0,-1,1133,1765,8.40002,-36.3687
-84,-741,7.8877,35.0892,0,0,0,0,0,0,0,-1,1140,1765,7.88776,-35.0892
-77,-741,7.73303,34.1174,0,0,0,0,0,0,0,-1,1147,1765,7.73304,-34.1174
-70,-741,7.5437,32.0275,0,0,0,0,0,0,0,-1,1154,1765,7.5437,-32.0275
-63,-741,9.33301,69.1934,0,0,0,0,0,0,0,-1,1161,1765,9.33306,-69.1933
-56,-741,9.58899,70.105,0,0,0,0,0,0,0,-1,1168,1765,9.58902,-70.1049
-49,-741,9.50293,70.6538,0,0,0,0,0,0,0,-1,1175,1765,9.50299,-70.6539
-42,-741,9.41638,70.9554,0,0,0,0,0,0,0,-1,1182,1765,9.41637,-70.9554
-35,-741,9.41309,71.142,-0.00295331,0.00612868,0.00162491,0.00641065,-0.00323528,1.39898,0.00566877,0.0245876,1189,1765,9.41314,-71.142
-28,-741,9.39941,71.3724,-0.00169618,0.00576076,0.000631521,0.00581387,-0.00174929,1.4869,0.00457195,0.015113,1196,1765,9.3994,-71.3724
-21,-741,9.40747,71.6101,-0.00072217,0.00523204,-0.000140787,0.00523537,-0.000725497,-1.54717,0.00375551,0.0197402,1203,1765,9.40744,-71.6101
-14,-741,9.31091,71.8608,8.69101e-06,0.00471742,-0.000881246,0.00487695,-0.000150831,-1.39172,0.00330272,0.0204183,1210,1765,9.31094,-71.8608
-7,-741,9.23865,72.0364,0.000171643,0.00452593,-0.0024478,0.00562471,-0.000927138,-1.14887,0.004094,0.0171186,1217,1765,9.23871,-72.0364
0,-741,9.19324,72.1809,-6.18436e-05,0.00473683,-0.0040265,0.00702465,-0.00234967,-1.05409,0.00563214,0.0166804,1224,1765,9.19318,-72.181
7,-741,9.14172,72.3575,-0.000159899,0.00494004,-0.00500361,0.00800598,-0.00322584,-1.02106,0.00667759,0.0182108,1231,1765,9.14176,-72.3575
14,-741,9.10266,72.5193,-0.000525113,0.00532989,-0.00595053,0.00903406,-0.00422928,-1.014,0.00782329,0.017213,1238,1765,9.1026,-72.5193
21,-741,9.052,72.6188,-0.00114287,0.00575603,-0.00674771,0.00988486,-0.0052717,-1.02168,0.00888473,0.0133453,1245,1765,9.05197,-72.6187
28,-741,8.9967,72.7444,-0.00208008,0.00607037,-0.00750262,0.0105331,-0.00654282,-1.03419,0.00994811,0.0133491,1252,1765,8.99671,-72.7444
35,-741,9.00586,72.8173,-0.00309765,0.00633088,-0.0081267,0.0110117,-0.00777847,-1.04823,0.0109019,0.0151586,1259,1765,9.00591,-72.8173
42,-741,8.98425,72.8546,-0.00395398,0.00655688,-0.00837951,0.0111926,-0.00858975,-1.06548,0.0114543,0.0160095,1266,1765,8.98421,-72.8546
49,-741,8.92456,72.9064,-0.00477535,0.00649416,-0.00853053,0.0110829,-0.00936412,-1.07727,0.011819,0.0101944,1273,1765,8.92452,-72.9063
56,-741,8.87622,72.929,-0.00573821,0.00651528,-0.00838082,0.01077,-0.00999295,-1.10103,0.0119903,0.00976885,1280,1765,8.87627,-72.929
63,-741,8.87061,72.9027,-0.00661623,0.00652458,-0.00804222,0.0103391,-0.0104308,-1.12791,0.0119916,0.0160536,1287,1765,8.87064,-72.9026
70,-741,8.84143,72.891,-0.00724137,0.00659223,-0.00757208,0.00993108,-0.0105802,-1.1555,0.0118442,0.0180699,1294,1765,8.84148,-72.891
77,-741,8.80762,72.8802,-0.00774794,0.00671989,-0.00692571,0.00950072,-0.0105288,-1.18898,0.0115691,0.0137569,1301,1765,8.80757,-72.8802
84,-741,8.76257,72.8287,-0.00800877,0.00667719,-0.00630243,0.00901098,-0.0103426,-1.21615,0.0111826,0.0157994,1308,1765,8.76252,-72.8287
91,-741,8.72217,72.7566,-0.00804834,0.00674972,-0.0057382,0.00871405,-0.0100127,-1.24097,0.0108205,0.0142221,1315,1765,8.72214,-72.7565
98,-741,8.69678,72.6343,-0.00775863,0.00649677,-0.0047432,0.00793073,-0.0091926,-1.27721,0.0098951,0.0113425,1322,1765,8.69681,-72.6342
105,-741,8.68518,72.4775,-0.00755543,0.00644012,-0.0039956,0.00750049,-0.0086158,-1.31139,0.00931217,0.0119712,1329,1765,8.68519,-72.4775
112,-741,8.68762,72.3037,-0.00767913,0.00653754,-0.00390417,0.00753914,-0.00868072,-1.31967,0.00937227,0.0122653,1336,1765,8.68764,-72.3038
119,-741,8.62537,72.1405,-0.00770153,0.0065303,-0.0036976,0.00743364,-0.00860487,-1.33118,0.00926807,0.0149096,1343,1765,8.62542,-72.1405
126,-741,8.59705,71.9414,-0.00757099,0.00653778,-0.00337716,0.00730449,-0.0083377,-1.34755,0.00903759,0.0207121,1350,1765,8.59707,-71.9414
133,-741,8.55396,71.765,-0.00724378,0.00656541,-0.00288994,0.00714581,-0.00782418,-1.3726,0.00864589,0.0160121,1357,1765,8.55392,-71.765
140,-741,8.47595,71.5431,-0.00705691,0.00643947,-0.00244137,0.00686751,-0.00748496,-1.39723,0.00828896,0.0125721,1364,1765,8.47596,-71.5431
147,-741,8.43164,71.311,-0.00715353,0.00608706,-0.00219424,0.00644122,-0.00750769,-1.41077,0.00806125,0.0118651,1371,1765,8.43166,-71.311
154,-741,8.39294,71.0892,-0.00715391,0.00591848,-0.00190876,0.00619148,-0.00742692,-1.42873,0.00787337,0.00940536,1378,1765,8.39299,-71.0892
161,-741,8.35388,70.8191,-0.00684123,0.00551629,-0.0018919,0.00579945,-0.00712438,-1.42223,0.00747464,0.0113833,1385,1765,8.35386,-70.8191
168,-741,8.31201,70.5171,-0.00664242,0.0048914,-0.00157178,0.00510176,-0.00685278,-1.43775,0.00692659,0.0260926,1392,1765,8.31203,-70.5171
175,-741,8.19446,70.1952,0,0,0,0,0,0,0,-1,1399,1765,8.19444,-70.1952
182,-741,8.22974,69.8372,0,0,0,0,0,0,0,-1,1406,1765,8.22973,-69.8372
189,-741,8.1416,69.532,0,0,0,0,0,0,0,-1,1413,1765,8.14159,-69.532
196,-741,8.0564,69.1544,0,0,0,0,0,0,0,-1,1420,1765,8.05645,-69.1544
203,-741,8.03052,68.6188,0,0,0,0,0,0,0,-1,1427,1765,8.03053,-68.6188
210,-741,7.96436,68.0168,0,0,0,0,0,0,0,-1,1434,1765,7.96437,-68.0168
217,-741,8.4032,40.1213,0,0,0,0,0,0,0,-1,1441,1765,8.40325,-40.1214
224,-741,8.0719,38.4249,0,0,0,0,0,0,0,-1,1448,1765,8.07187,-38.4249
231,-741,7.95923,39.0671,0,0,0,0,0,0,0,-1,1455,1765,7.9592,-39.0671
238,-741,7.96619,42.4865,0,0,0,0,0,0,0,-1,1462,1765,7.96621,-42.4864
245,-741,8.53577,45.7744,0,0,0,0,0,0,0,-1,1469,1765,8.53581,-45.7744
252,-741,8.59167,47.473,0,0,0,0,0,0,0,-1,1476,1765,8.59162,-47.473
259,-741,8.47412,48.5269,0,0,0,0,0,0,0,-1,1483,1765,8.47412,-48.5269
266,-741,8.50134,48.3838,0,0,0,0,0,0,0,-1,1490,1765,8.50132,-48.3838
273,-741,8.81421,49.1227,0,0,0,0,0,0,0,-1,1497,1765,8.81426,-49.1227
280,-741,7.33093,51.4729,0,0,0,0,0,0,0,-1,1504,1765,7.33092,-51.4729
287,-741,7.52783,49.7068,0,0,0,0,0,0,0,-1,1511,1765,7.52783,-49.7068
294,-741,5.91187,43.7742,0,0,0,0,0,0,0,-1,1518,1765,5.91188,-43.7742
301,-741,6.20667,38.5165,0,0,0,0,0,0,0,-1,1525,1765,6.20667,-38.5165
308,-741,7.99036,42.5969,0,0,0,0,0,0,0,-1,1532,1765,7.99037,-42.5969
315,-741,7.83838,41.6693,0,0,0,0,0,0,0,-1,1539,1765,7.83835,-41.6694
322,-741,7.68628,40.7418,0,0,0,0,0,0,0,-1,1546,1765,7.68633,-40.7418
329,-741,4.74414,17.928,0,0,0,0,0,0,0,-1,1553,1765,4.74414,-17.928
336,-741,5.74304,22.0945,0,0,0,0,0,0,0,-1,1560,1765,5.74306,-22.0945
343,-741,7.09888,26.501,0,0,0,0,0,0,0,-1,1567,1765,7.09885,-26.501
350,-741,4.90369,5.44666,0,0,0,0,0,0,0,-1,1574,1765,4.90368,-5.44664
357,-741,4.02063,5.16626,0,0,0,0,0,0,0,-1,1581,1765,4.02058,-5.1662
364,-741,0,0,0,0,0,0,0,0,0,-1,1588,1765,0,0
371,-741,0,0,0,0,0,0,0,0,0,-1,1595,1765,0,0
378,-741,0,0,0,0,0,0,0,0,0,-1,1602,1765,0,0
385,-741,0,0,0,0,0,0,0,0,0,-1,1609,1765,0,0
392,-741,0,0,0,0,0,0,0,0,0,-1,1616,1765,0,0
399,-741,0,0,0,0,0,0,0,0,0,-1,1623,1765,0,0
406,-741,0,0,0,0,0,0,0,0,0,-1,1630,1765,0,0
413,-741,0,0,0,0,0,0,0,0,0,-1,1637,1765,0,0
420,-741,0,0,0,0,0,0,0,0,0,-1,1644,1765,0,0
427,-741,0,0,0,0,0,0,0,0,0,-1,1651,1765,0,0
434,-741,0,0,0,0,0,0,0,0,0,-1,1658,1765,0,0
441,-741,0,0,0,0,0,0,0,0,0,-1,1665,1765,0,0
448,-741,0,0,0,0,0,0,0,0,0,-1,1672,1765,0,0
455,-741,0,0,0,0,0,0,0,0,0,-1,1679,1765,0,0
462,-741,0,0,0,0,0,0,0,0,0,-1,1686,1765,0,0
469,-741,0,0,0,0,0,0,0,0,0,-1,1693,1765,0,0
476,-741,0,0,0,0,0,0,0,0,0,-1,1700,1765,0,0
483,-741,0,0,0,0,0,0,0,0,0,-1,1707,1765,0,0
490,-741,0,0,0,0,0,0,0,0,0,-1,1714,1765,0,0
497,-741,0,0,0,0,0,0,0,0,0,-1,1721,1765,0,0
504,-741,0,0,0,0,0,0,0,0,0,-1,1728,1765,0,0
511,-741,0,0,0,0,0,0,0,0,0,-1,1735,1765,0,0
518,-741,0,0,0,0,0,0,0,0,0,-1,1742,1765,0,0
525,-741,0,0,0,0,0,0,0,0,0,-1,1749,1765,0,0
532,-741,0,0,0,0,0,0,0,0,0,-1,1756,1765,0,0
539,-741,0,0,0,0,0,0,0,0,0,-1,1763,1765,0,0
546,-741,0,0,0,0,0,0,0,0,0,-1,1770,1765,0,0
553,-741,0,0,0,0,0,0,0,0,0,-1,1777,1765,0,0
560,-741,0,0,0,0,0,0,0,0,0,-1,1784,1765,0,0
567,-741,0,0,0,0,0,0,0,0,0,-1,1791,1765,0,0
574,-741,0,0,0,0,0,0,0,0,0,-1,1798,1765,0,0
581,-741,0,0,0,0,0,0,0,0,0,-1,1805,1765,0,0
588,-741,0,0,0,0,0,0,0,0,0,-1,1812,1765,0,0
595,-741,0,0,0,0,0,0,0,0,0,-1,1819,1765,0,0
602,-741,0,0,0,0,0,0,0,0,0,-1,1826,1765,0,0
609,-741,0,0,0,0,0,0,0,0,0,-1,1833,1765,0,0
616,-741,0,0,0,0,0,0,0,0,0,-1,1840,1765,0,0
623,-741,0,0,0,0,0,0,0,0,0,-1,1847,1765,0,0
630,-741,0,0,0,0,0,0,0,0,0,-1,1854,1765,0,0
637,-741,0,0,0,0,0,0,0,0,0,-1,1861,1765,0,0
644,-741,0,0,0,0,0,0,0,0,0,-1,1868,1765,0,0
651,-741,0,0,0,0,0,0,0,0,0,-1,1875,1765,0,0
658,-741,0,0,0,0,0,0,0,0,0,-1,1882,1765,0,0
665,-741,0,0,0,0,0,0,0,0,0,-1,1889,1765,0,0
672,-741,0,0,0,0,0,0,0,0,0,-1,1896,1765,0,0
679,-741,0,0,0,0,0,0,0,0,0,-1,1903,1765,0,0
686,-741,0,0,0,0,0,0,0,0,0,-1,1910,1765,0,0
693,-741,0,0,0,0,0,0,0,0,0,-1,1917,1765,0,0
700,-741,0,0,0,0,0,0,0,0,0,-1,1924,1765,0,0
707,-741,0,0,0,0,0,0,0,0,0,-1,1931,1765,0,0
714,-741,0,0,0,0,0,0,0,0,0,-1,1938,1765,0,0
721,-741,0,0,0,0,0,0,0,0,0,-1,1945,1765,0,0
728,-741,0,0,0,0,0,0,0,0,0,-1,1952,1765,0,0
735,-741,0,0,0,0,0,0,0,0,0,-1,1959,1765,0,0
742,-741,0,0,0,0,0,0,0,0,0,-1,1966,1765,0,0
749,-741,0,0,0,0,0,0,0,0,0,-1,1973,1765,0,0
756,-741,0,0,0,0,0,0,0,0,0,-1,1980,1765,0,0
763,-741,0,0,0,0,0,0,0,0,0,-1,1987,1765,0,0
770,-741,0,0,0,0,0,0,0,0,0,-1,1994,1765,0,0
777,-741,0,0,0,0,0,0,0,0,0,-1,2001,1765,0,0
784,-741,0,0,0,0,0,0,0,0,0,-1,2008,1765,0,0
791,-741,0,0,0,0,0,0,0,0,0,-1,2015,1765,0,0
798,-741,0,0,0,0,0,0,0,0,0,-1,2022,1765,0,0
805,-741,0,0,0,0,0,0,0,0,0,-1,2029,1765,0,0
812,-741,0,0,0,0,0,0,0,0,0,-1,2036,1765,0,0
-700,-748,0,0,0,0,0,0,0,0,0,-1,524,1772,0,0
-693,-748,0,0,0,0,0,0,0,0,0,-1,531,1772,0,0
-686,-748,0,0,0,0,0,0,0,0,0,-1,538,1772,0,0
-679,-748,0,0,0,0,0,0,0,0,0,-1,545,1772,0,0
-672,-748,0,0,0,0,0,0,0,0,0,-1,552,1772,0,0
-665,-748,0,0,0,0,0,0,0,0,0,-1,559,1772,0,0
-658,-748,0,0,0,0,0,0,0,0,0,-1,566,1772,0,0
-651,-748,0,0,0,0,0,0,0,0,0,-1,573,1772,0,0
-644,-748,0,0,0,0,0,0,0,0,0,-1,580,1772,0,0
-637,-748,0,0,0,0,0,0,0,0,0,-1,587,1772,0,0
-630,-748,0,0,0,0,0,0,0,0,0,-1,594,1772,0,0
-623,-748,0,0,0,0,0,0,0,0,0,-1,601,1772,0,0
-616,-748,0,0,0,0,0,0,0,0,0,-1,608,1772,0,0
-609,-748,0,0,0,0,0,0,0,0,0,-1,615,1772,0,0
-602,-748,0,0,0,0,0,0,0,0,0,-1,622,1772,0,0
-595,-748,0,0,0,0,0,0,0,0,0,-1,629,1772,0,0
-588,-748,0,0,0,0,0,0,0,0,0,-1,636,1772,0,0
-581,-748,0,0,0,0,0,0,0,0,0,-1,643,1772,0,0
-574,-748,0,0,0,0,0,0,0,0,0,-1,650,1772,0,0
-567,-748,0,0,0,0,0,0,0,0,0,-1,657,1772,0,0
-560,-748,0,0,0,0,0,0,0,0,0,-1,664,1772,0,0
-553,-748,0,0,0,0,0,0,0,0,0,-1,671,1772,0,0
-546,-748,0,0,0,0,0,0,0,0,0,-1,678,1772,0,0
-539,-748,0,0,0,0,0,0,0,0,0,-1,685,1772,0,0
-532,-748,0,0,0,0,0,0,0,0,0,-1,692,1772,0,0
-525,-748,0,0,0,0,0,0,0,0,0,-1,699,1772,0,0
-518,-748,0,0,0,0,0,0,0,0,0,-1,706,1772,0,0
-511,-748,0,0,0,0,0,0,0,0,0,-1,713,1772,0,0
-504,-748,0,0,0,0,0,0,0,0,0,-1,720,1772,0,0
-497,-748,0,0,0,0,0,0,0,0,0,-1,727,1772,0,0
-490,-748,0,0,0,0,0,0,0,0,0,-1,734,1772,0,0
-483,-748,0,0,0,0,0,0,0,0,0,-1,741,1772,0,0
-476,-748,0,0,0,0,0,0,0,0,0,-1,748,1772,0,0
-469,-748,0,0,0,0,0,0,0,0,0,-1,755,1772,0,0
-462,-748,0,0,0,0,0,0,0,0,0,-1,762,1772,0,0
-455,-748,0,0,0,0,0,0,0,0,0,-1,769,1772,0,0
-448,-748,0,0,0,0,0,0,0,0,0,-1,776,1772,0,0
-441,-748,0,0,0,0,0,0,0,0,0,-1,783,1772,0,0
-434,-748,0,0,0,0,0,0,0,0,0,-1,790,1772,0,0
-427,-748,0,0,0,0,0,0,0,0,0,-1,797,1772,0,0
-420,-748,0,0,0,0,0,0,0,0,0,-1,804,1772,0,0
-413,-748,0,0,0,0,0,0,0,0,0,-1,811,1772,0,0
-406,-748,0,0,0,0,0,0,0,0,0,-1,818,1772,0,0
-399,-748,0,0,0,0,0,0,0,0,0,-1,825,1772,0,0
-392,-748,0,0,0,0,0,0,0,0,0,-1,832,1772,0,0
-385,-748,0,0,0,0,0,0,0,0,0,-1,839,1772,0,0
-378,-748,0,0,0,0,0,0,0,0,0,-1,846,1772,0,0
-371,-748,0,0,0,0,0,0,0,0,0,-1,853,1772,0,0
-364,-748,0,0,0,0,0,0,0,0,0,-1,860,1772,0,0
-357,-748,0,0,0,0,0,0,0,0,0,-1,867,1772,0,0
-350,-748,0,0,0,0,0,0,0,0,0,-1,874,1772,0,0
-343,-748,0,0,0,0,0,0,0,0,0,-1,881,1772,0,0
-336,-748,0,0,0,0,0,0,0,0,0,-1,888,1772,0,0
-329,-748,0,0,0,0,0,0,0,0,0,-1,895,1772,0,0
-322,-748,0,0,0,0,0,0,0,0,0,-1,902,1772,0,0
-315,-748,0,0,0,0,0,0,0,0,0,-1,909,1772,0,0
-308,-748,0,0,0,0,0,0,0,0,0,-1,916,1772,0,0
-301,-748,0,0,0,0,0,0,0,0,0,-1,923,1772,0,0
-294,-748,0,0,0,0,0,0,0,0,0,-1,930,1772,0,0
-287,-748,0,0,0,0,0,0,0,0,0,-1,937,1772,0,0
-280,-748,0,0,0,0,0,0,0,0,0,-1,944,1772,0,0
-273,-748,0,0,0,0,0,0,0,0,0,-1,951,1772,0,0
-266,-748,0,0,0,0,0,0,0,0,0,-1,958,1772,0,0
-259,-748,0,0,0,0,0,0,0,0,0,-1,965,1772,0,0
-252,-748,0,0,0,0,0,0,0,0,0,-1,972,1772,0,0
-245,-748,0,0,0,0,0,0,0,0,0,-1,979,1772,0,0
-238,-748,0,0,0,0,0,0,0,0,0,-1,986,1772,0,0
-231,-748,0,0,0,0,0,0,0,0,0,-1,993,1772,0,0
-224,-748,0,0,0,0,0,0,0,0,0,-1,1000,1772,0,0
-217,-748,8.97742,29.9884,0,0,0,0,0,0,0,-1,1007,1772,8.97744,-29.9884
-210,-748,8.8941,30.14,0,0,0,0,0,0,0,-1,1014,1772,8.8941,-30.14
-203,-748,7.88,43.3942,0,0,0,0,0,0,0,-1,1021,1772,7.87999,-43.3941
-196,-748,7.95483,43.9952,0,0,0,0,0,0,0,-1,1028,1772,7.95478,-43.9953
-189,-748,8.18359,44.5873,0,0,0,0,0,0,0,-1,1035,1772,8.18358,-44.5873
-182,-748,8.49304,45.5183,0,0,0,0,0,0,0,-1,1042,1772,8.49308,-45.5183
-175,-748,12.344,65.4003,0,0,0,0,0,0,0,-1,1049,1772,12.344,-65.4002
-168,-748,12.4545,65.7625,0,0,0,0,0,0,0,-1,1056,1772,12.4545,-65.7625
-161,-748,12.5651,66.1248,0,0,0,0,0,0,0,-1,1063,1772,12.565,-66.1247
-154,-748,11.4552,48.7113,0,0,0,0,0,0,0,-1,1070,1772,11.4552,-48.7113
-147,-748,11.7789,49.4792,0,0,0,0,0,0,0,-1,1077,1772,11.7789,-49.4793
-140,-748,10.4108,44.9001,0,0,0,0,0,0,0,-1,1084,1772,10.4107,-44.9001
-133,-748,7.44727,22.0308,0,0,0,0,0,0,0,-1,1091,1772,7.44728,-22.0308
-126,-748,5.98035,22.6067,0,0,0,0,0,0,0,-1,1098,1772,5.9803,-22.6067
-119,-748,6.63342,26.309,0,0,0,0,0,0,0,-1,1105,1772,6.6334,-26.3089
-112,-748,6.91333,24.923,0,0,0,0,0,0,0,-1,1112,1772,6.91339,-24.923
-105,-748,6.83313,25.0537,0,0,0,0,0,0,0,-1,1119,1772,6.83311,-25.0537
-98,-748,8.13623,30.8743,0,0,0,0,0,0,0,-1,1126,1772,8.13628,-30.8742
-91,-748,4.85352,15.3033,0,0,0,0,0,0,0,-1,1133,1772,4.85351,-15.3033
-84,-748,-0.192017,7.26196,0,0,0,0,0,0,0,-1,1140,1772,-0.192047,-7.26201
-77,-748,4.42615,13.5537,0,0,0,0,0,0,0,-1,1147,1772,4.4261,-13.5538
-70,-748,4.46191,13.7446,0,0,0,0,0,0,0,-1,1154,1772,4.4619,-13.7446
-63,-748,4.49768,13.9355,0,0,0,0,0,0,0,-1,1161,1772,4.49769,-13.9355
-56,-748,3.05762,7.87817,0,0,0,0,0,0,0,-1,1168,1772,3.05768,-7.87822
-49,-748,3.04102,7.82471,0,0,0,0,0,0,0,-1,1175,1772,3.04096,-7.82468
-42,-748,0.793457,14.9474,0,0,0,0,0,0,0,-1,1182,1772,0.793413,-14.9474
-35,-748,9.60571,71.1779,0,0,0,0,0,0,0,-1,1189,1772,9.60566,-71.1778
-28,-748,9.65076,71.3868,0.000842397,0.00652701,-0.000243376,0.00653741,0.000831996,-1.52809,0.00410912,0.0482029,1196,1772,9.6507,-71.3868
-21,-748,9.56116,71.6315,0.00212443,0.00602059,-0.00130853,0.00641926,0.00172575,-1.27506,0.00383592,0.0245158,1203,1772,9.56112,-71.6315
-14,-748,9.44226,71.806,0.00299256,0.0055488,-0.00229605,0.0068985,0.00164286,-1.03937,0.00416093,0.0180003,1210,1772,9.44224,-71.806
-7,-748,9.40588,71.9917,0.00298648,0.00553283,-0.00435212,0.00879418,-0.000274871,-0.927698,0.00595653,0.0172106,1217,1772,9.40587,-71.9918
0,-748,9.32959,72.1268,0.00234242,0.00604601,-0.00659121,0.0110406,-0.00265218,-0.922342,0.00838546,0.0170848,1224,1772,9.32964,-72.1269
7,-748,9.2583,72.2793,0.00185254,0.006503,-0.00801929,0.0125274,-0.00417183,-0.926506,0.0100355,0.0163677,1231,1772,9.2583,-72.2793
14,-748,9.21448,72.4661,0.000962916,0.00715257,-0.00946181,0.0140128,-0.00589735,-0.943457,0.0118092,0.0173458,1238,1772,9.21444,-72.466
21,-748,9.18005,72.5984,-0.000289986,0.0077972,-0.0106634,0.015158,-0.00765076,-0.966623,0.0134043,0.0119499,1245,1772,9.18003,-72.5984
28,-748,9.12842,72.7136,-0.00202347,0.00823734,-0.0117921,0.0159668,-0.00975288,-0.990583,0.014993,0.0118084,1252,1772,9.12837,-72.7136
35,-748,9.0614,72.7617,-0.00390089,0.00852999,-0.0127881,0.0165331,-0.011904,-1.0116,0.0164905,0.0129129,1259,1772,9.06146,-72.7617
42,-748,9.02539,72.8042,-0.00552329,0.00870693,-0.0132663,0.0166457,-0.0134621,-1.03154,0.0174151,0.0149726,1266,1772,9.02539,-72.8042
49,-748,8.97192,72.8434,-0.00705292,0.00847157,-0.0136011,0.0163696,-0.0149509,-1.0447,0.0180891,0.0109726,1273,1772,8.97189,-72.8434
56,-748,8.89404,72.8925,-0.00872997,0.00833822,-0.0135039,0.0157787,-0.0161704,-1.0672,0.0184463,0.0100416,1280,1772,8.89407,-72.8925
63,-748,8.86609,72.879,-0.0102918,0.0081678,-0.0131632,0.0150146,-0.0171387,-1.09116,0.0185772,0.0130345,1287,1772,8.86615,-72.879
70,-748,8.83533,72.8615,-0.0114815,0.00804564,-0.0125841,0.0142096,-0.0176455,-1.11532,0.0184272,0.0154367,1294,1772,8.83534,-72.8614
77,-748,8.77014,72.8271,-0.0124624,0.00807773,-0.0116914,0.0133693,-0.017754,-1.14578,0.0180283,0.0133417,1301,1772,8.77019,-72.8272
84,-748,8.69861,72.8046,-0.0128512,0.00791663,-0.0107857,0.0125046,-0.0174391,-1.16861,0.0173661,0.0146306,1308,1772,8.69859,-72.8046
91,-748,8.64453,72.7419,-0.0129191,0.0079693,-0.0099618,0.0119583,-0.0169082,-1.18992,0.0167476,0.0126728,1315,1772,8.64456,-72.7419
98,-748,8.58606,72.6084,-0.0125102,0.00769711,-0.00858532,0.0108521,-0.0156652,-1.21863,0.0153936,0.0122367,1322,1772,8.5861,-72.6084
105,-748,8.55591,72.432,-0.0121769,0.0076924,-0.0075055,0.0102088,-0.0146933,-1.24729,0.0144548,0.0130543,1329,1772,8.55595,-72.432
112,-748,8.51453,72.2693,-0.0122604,0.00800383,-0.0073279,0.010376,-0.0146326,-1.25772,0.0145083,0.0166838,1336,1772,8.51449,-72.2692
119,-748,8.45313,72.1163,-0.012202,0.00822864,-0.0069482,0.0103677,-0.014341,-1.27215,0.0143269,0.0148796,1343,1772,8.45319,-72.1163
126,-748,8.40356,71.9636,-0.0119285,0.00844916,-0.00643686,0.0103121,-0.0137915,-1.28907,0.0139644,0.0164435,1350,1772,8.40357,-71.9636
133,-748,8.33313,71.7566,-0.0113399,0.00863438,-0.005668,0.0101307,-0.0128362,-1.31269,0.0132905,0.0101667,1357,1772,8.3331,-71.7565
140,-748,8.27234,71.5254,-0.0109123,0.00856708,-0.00486532,0.00971467,-0.0120599,-1.33916,0.0125958,0.013564,1364,1772,8.27237,-71.5254
147,-748,8.22156,71.2837,-0.0108931,0.00814784,-0.00427259,0.00906261,-0.0118079,-1.35988,0.0120843,0.0157641,1371,1772,8.22158,-71.2837
154,-748,8.1521,71.045,-0.0107901,0.00787209,-0.00357282,0.00853271,-0.0114507,-1.38796,0.0115784,0.0131874,1378,1772,8.15212,-71.0451
161,-748,8.0824,70.8151,-0.0102036,0.00713145,-0.00338477,0.0077689,-0.0108411,-1.38465,0.0107932,0.0203608,1385,1772,8.08235,-70.815
168,-748,8.07336,70.5283,0,0,0,0,0,0,0,-1,1392,1772,8.07338,-70.5283
175,-748,11.6235,16.8242,0,0,0,0,0,0,0,-1,1399,1772,11.6236,-16.8242
182,-748,7.62476,10.3058,0,0,0,0,0,0,0,-1,1406,1772,7.62476,-10.3058
189,-748,6.15857,6.95898,0,0,0,0,0,0,0,-1,1413,1772,6.15862,-6.95896
196,-748,3.9425,8.46021,0,0,0,0,0,0,0,-1,1420,1772,3.9425,-8.46026
203,-748,3.9668,12.9835,0,0,0,0,0,0,0,-1,1427,1772,3.96678,-12.9836
210,-748,4.71472,16.8318,0,0,0,0,0,0,0,-1,1434,1772,4.71471,-16.8317
217,-748,5.38452,21.5551,0,0,0,0,0,0,0,-1,1441,1772,5.38455,-21.555
224,-748,6.14258,25.2345,0,0,0,0,0,0,0,-1,1448,1772,6.14263,-25.2345
231,-748,6.46045,29.7867,0,0,0,0,0,0,0,-1,1455,1772,6.46049,-29.7867
238,-748,7.41565,32.8574,0,0,0,0,0,0,0,-1,1462,1772,7.41562,-32.8574
245,-748,7.84912,32.0914,0,0,0,0,0,0,0,-1,1469,1772,7.84914,-32.0914
252,-748,7.57336,29.4369,0,0,0,0,0,0,0,-1,1476,1772,7.57337,-29.4369
259,-748,9.47351,46.1896,0,0,0,0,0,0,0,-1,1483,1772,9.4735,-46.1895
266,-748,8.36536,48.6908,0,0,0,0,0,0,0,-1,1490,1772,8.36541,-48.6909
273,-748,7.31421,46.6743,0,0,0,0,0,0,0,-1,1497,1772,7.31415,-46.6743
280,-748,8.76538,40.4501,0,0,0,0,0,0,0,-1,1504,1772,8.76537,-40.45
287,-748,14.161,8.32813,0,0,0,0,0,0,0,-1,1511,1772,14.161,-8.32808
294,-748,6.38525,32.4724,0,0,0,0,0,0,0,-1,1518,1772,6.38521,-32.4725
301,-748,5.40393,38.9807,0,0,0,0,0,0,0,-1,1525,1772,5.40397,-38.9807
308,-748,5.95227,37.1827,0,0,0,0,0,0,0,-1,1532,1772,5.95229,-37.1827
315,-748,7.71741,42.637,0,0,0,0,0,0,0,-1,1539,1772,7.71738,-42.637
322,-748,4.26538,29.0557,0,0,0,0,0,0,0,-1,1546,1772,4.26537,-29.0556
329,-748,3.87256,16.1473,0,0,0,0,0,0,0,-1,1553,1772,3.87259,-16.1474
336,-748,4.81006,19.6141,0,0,0,0,0,0,0,-1,1560,1772,4.81011,-19.6141
343,-748,0,0,0,0,0,0,0,0,0,-1,1567,1772,0,0
350,-748,0,0,0,0,0,0,0,0,0,-1,1574,1772,0,0
357,-748,0,0,0,0,0,0,0,0,0,-1,1581,1772,0,0
364,-748,0,0,0,0,0,0,0,0,0,-1,1588,1772,0,0
371,-748,0,0,0,0,0,0,0,0,0,-1,1595,1772,0,0
378,-748,0,0,0,0,0,0,0,0,0,-1,1602,1772,0,0
385,-748,0,0,0,0,0,0,0,0,0,-1,1609,1772,0,0
392,-748,0,0,0,0,0,0,0,0,0,-1,1616,1772,0,0
399,-748,0,0,0,0,0,0,0,0,0,-1,1623,1772,0,0
406,-748,0,0,0,0,0,0,0,0,0,-1,1630,1772,0,0
413,-748,0,0,0,0,0,0,0,0,0,-1,1637,1772,0,0
420,-748,0,0,0,0,0,0,0,0,0,-1,1644,1772,0,0
427,-748,0,0,0,0,0,0,0,0,0,-1,1651,1772,0,0
434,-748,0,0,0,0,0,0,0,0,0,-1,1658,1772,0,0
441,-748,0,0,0,0,0,0,0,0,0,-1,1665,1772,0,0
448,-748,0,0,0,0,0,0,0,0,0,-1,1672,1772,0,0
455,-748,0,0,0,0,0,0,0,0,0,-1,1679,1772,0,0
462,-748,0,0,0,0,0,0,0,0,0,-1,1686,1772,0,0
469,-748,0,0,0,0,0,0,0,0,0,-1,1693,1772,0,0
476,-748,0,0,0,0,0,0,0,0,0,-1,1700,1772,0,0
483,-748,0,0,0,0,0,0,0,0,0,-1,1707,1772,0,0
490,-748,0,0,0,0,0,0,0,0,0,-1,1714,1772,0,0
497,-748,0,0,0,0,0,0,0,0,0,-1,1721,1772,0,0
504,-748,0,0,0,0,0,0,0,0,0,-1,1728,1772,0,0
511,-748,0,0,0,0,0,0,0,0,0,-1,1735,1772,0,0
518,-748,0,0,0,0,0,0,0,0,0,-1,1742,1772,0,0
525,-748,0,0,0,0,0,0,0,0,0,-1,1749,1772,0,0
532,-748,0,0,0,0,0,0,0,0,0,-1,1756,1772,0,0
539,-748,0,0,0,0,0,0,0,0,0,-1,1763,1772,0,0
546,-748,0,0,0,0,0,0,0,0,0,-1,1770,1772,0,0
553,-748,0,0,0,0,0,0,0,0,0,-1,1777,1772,0,0
560,-748,0,0,0,0,0,0,0,0,0,-1,1784,1772,0,0
567,-748,0,0,0,0,0,0,0,0,0,-1,1791,1772,0,0
574,-748,0,0,0,0,0,0,0,0,0,-1,1798,1772,0,0
581,-748,0,0,0,0,0,0,0,0,0,-1,1805,1772,0,0
588,-748,0,0,0,0,0,0,0,0,0,-1,1812,1772,0,0
595,-748,0,0,0,0,0,0,0,0,0,-1,1819,1772,0,0
602,-748,0,0,0,0,0,0,0,0,0,-1,1826,1772,0,0
609,-748,0,0,0,0,0,0,0,0,0,-1,1833,1772,0,0
616,-748,0,0,0,0,0,0,0,0,0,-1,1840,1772,0,0
623,-748,0,0,0,0,0,0,0,0,0,-1,1847,1772,0,0
630,-748,0,0,0,0,0,0,0,0,0,-1,1854,1772,0,0
637,-748,0,0,0,0,0,0,0,0,0,-1,1861,1772,0,0
644,-748,0,0,0,0,0,0,0,0,0,-1,1868,1772,0,0
651,-748,0,0,0,0,0,0,0,0,0,-1,1875,1772,0,0
658,-748,0,0,0,0,0,0,0,0,0,-1,1882,1772,0,0
665,-748,0,0,0,0,0,0,0,0,0,-1,1889,1772,0,0
672,-748,0,0,0,0,0,0,0,0,0,-1,1896,1772,0,0
679,-748,0,0,0,0,0,0,0,0,0,-1,1903,1772,0,0
686,-748,0,0,0,0,0,0,0,0,0,-1,1910,1772,0,0
693,-748,0,0,0,0,0,0,0,0,0,-1,1917,1772,0,0
700,-748,0,0,0,0,0,0,0,0,0,-1,1924,1772,0,0
707,-748,0,0,0,0,0,0,0,0,0,-1,1931,1772,0,0
714,-748,0,0,0,0,0,0,0,0,0,-1,1938,1772,0,0
721,-748,0,0,0,0,0,0,0,0,0,-1,1945,1772,0,0
728,-748,0,0,0,0,0,0,0,0,0,-1,1952,1772,0,0
735,-748,0,0,0,0,0,0,0,0,0,-1,1959,1772,0,0
742,-748,0,0,0,0,0,0,0,0,0,-1,1966,1772,0,0
749,-748,0,0,0,0,0,0,0,0,0,-1,1973,1772,0,0
756,-748,0,0,0,0,0,0,0,0,0,-1,1980,1772,0,0
763,-748,0,0,0,0,0,0,0,0,0,-1,1987,1772,0,0
770,-748,0,0,0,0,0,0,0,0,0,-1,1994,1772,0,0
777,-748,0,0,0,0,0,0,0,0,0,-1,2001,1772,0,0
784,-748,0,0,0,0,0,0,0,0,0,-1,2008,1772,0,0
791,-748,0,0,0,0,0,0,0,0,0,-1,2015,1772,0,0
798,-748,0,0,0,0,0,0,0,0,0,-1,2022,1772,0,0
805,-748,0,0,0,0,0,0,0,0,0,-1,2029,1772,0,0
812,-748,0,0,0,0,0,0,0,0,0,-1,2036,1772,0,0
-700,-755,0,0,0,0,0,0,0,0,0,-1,524,1779,0,0
-693,-755,0,0,0,0,0,0,0,0,0,-1,531,1779,0,0
-686,-755,0,0,0,0,0,0,0,0,0,-1,538,1779,0,0
-679,-755,0,0,0,0,0,0,0,0,0,-1,545,1779,0,0
-672,-755,0,0,0,0,0,0,0,0,0,-1,552,1779,0,0
-665,-755,0,0,0,0,0,0,0,0,0,-1,559,1779,0,0
-658,-755,0,0,0,0,0,0,0,0,0,-1,566,1779,0,0
-651,-755,0,0,0,0,0,0,0,0,0,-1,573,1779,0,0
-644,-755,0,0,0,0,0,0,0,0,0,-1,580,1779,0,0
-637,-755,0,0,0,0,0,0,0,0,0,-1,587,1779,0,0
-630,-755,0,0,0,0,0,0,0,0,0,-1,594,1779,0,0
-623,-755,0,0,0,0,0,0,0,0,0,-1,601,1779,0,0
-616,-755,0,0,0,0,0,0,0,0,0,-1,608,1779,0,0
-609,-755,0,0,0,0,0,0,0,0,0,-1,615,1779,0,0
-602,-755,0,0,0,0,0,0,0,0,0,-1,622,1779,0,0
-595,-755,0,0,0,0,0,0,0,0,0,-1,629,1779,0,0
-588,-755,0,0,0,0,0,0,0,0,0,-1,636,1779,0,0
-581,-755,0,0,0,0,0,0,0,0,0,-1,643,1779,0,0
-574,-755,0,0,0,0,0,0,0,0,0,-1,650,1779,0,0
-567,-755,0,0,0,0,0,0,0,0,0,-1,657,1779,0,0
-560,-755,0,0,0,0,0,0,0,0,0,-1,664,1779,0,0
-553,-755,0,0,0,0,0,0,0,0,0,-1,671,1779,0,0
-546,-755,0,0,0,0,0,0,0,0,0,-1,678,1779,0,0
-539,-755,0,0,0,0,0,0,0,0,0,-1,685,1779,0,0
-532,-755,0,0,0,0,0,0,0,0,0,-1,692,1779,0,0
-525,-755,0,0,0,0,0,0,0,0,0,-1,699,1779,0,0
-518,-755,0,0,0,0,0,0,0,0,0,-1,706,1779,0,0
-511,-755,0,0,0,0,0,0,0,0,0,-1,713,1779,0,0
-504,-755,0,0,0,0,0,0,0,0,0,-1,720,1779,0,0
-497,-755,0,0,0,0,0,0,0,0,0,-1,727,1779,0,0
-490,-755,0,0,0,0,0,0,0,0,0,-1,734,1779,0,0
-483,-755,0,0,0,0,0,0,0,0,0,-1,741,1779,0,0
-476,-755,0,0,0,0,0,0,0,0,0,-1,748,1779,0,0
-469,-755,0,0,0,0,0,0,0,0,0,-1,755,1779,0,0
-462,-755,0,0,0,0,0,0,0,0,0,-1,762,1779,0,0
-455,-755,0,0,0,0,0,0,0,0,0,-1,769,1779,0,0
-448,-755,0,0,0,0,0,0,0,0,0,-1,776,1779,0,0
-441,-755,0,0,0,0,0,0,0,0,0,-1,783,1779,0,0
-434,-755,0,0,0,0,0,0,0,0,0,-1,790,1779,0,0
-427,-755,0,0,0,0,0,0,0,0,0,-1,797,1779,0,0
-420,-755,0,0,0,0,0,0,0,0,0,-1,804,1779,0,0
-413,-755,0,0,0,0,0,0,0,0,0,-1,811,1779,0,0
-406,-755,0,0,0,0,0,0,0,0,0,-1,818,1779,0,0
-399,-755,0,0,0,0,0,0,0,0,0,-1,825,1779,0,0
-392,-755,0,0,0,0,0,0,0,0,0,-1,832,1779,0,0
-385,-755,0,0,0,0,0,0,0,0,0,-1,839,1779,0,0
-378,-755,0,0,0,0,0,0,0,0,0,-1,846,1779,0,0
-371,-755,0,0,0,0,0,0,0,0,0,-1,853,1779,0,0
-364,-755,0,0,0,0,0,0,0,0,0,-1,860,1779,0,0
-357,-755,0,0,0,0,0,0,0,0,0,-1,867,1779,0,0
-350,-755,0,0,0,0,0,0,0,0,0,-1,874,1779,0,0
-343,-755,0,0,0,0,0,0,0,0,0,-1,881,1779,0,0
-336,-755,0,0,0,0,0,0,0,0,0,-1,888,1779,0,0
-329,-755,0,0,0,0,0,0,0,0,0,-1,895,1779,0,0
-322,-755,0,0,0,0,0,0,0,0,0,-1,902,1779,0,0
-315,-755,0,0,0,0,0,0,0,0,0,-1,909,1779,0,0
-308,-755,0,0,0,0,0,0,0,0,0,-1,916,1779,0,0
-301,-755,0,0,0,0,0,0,0,0,0,-1,923,1779,0,0
-294,-755,0,0,0,0,0,0,0,0,0,-1,930,1779,0,0
-287,-755,0,0,0,0,0,0,0,0,0,-1,937,1779,0,0
-280,-755,0,0,0,0,0,0,0,0,0,-1,944,1779,0,0
-273,-755,0,0,0,0,0,0,0,0,0,-1,951,1779,0,0
-266,-755,0,0,0,0,0,0,0,0,0,-1,958,1779,0,0
-259,-755,0,0,0,0,0,0,0,0,0,-1,965,1779,0,0
-252,-755,0,0,0,0,0,0,0,0,0,-1,972,1779,0,0
-245,-755,0,0,0,0,0,0,0,0,0,-1,979,1779,0,0
-238,-755,0,0,0,0,0,0,0,0,0,-1,986,1779,0,0
-231,-755,0,0,0,0,0,0,0,0,0,-1,993,1779,0,0
-224,-755,0,0,0,0,0,0,0,0,0,-1,1000,1779,0,0
-217,-755,0,0,0,0,0,0,0,0,0,-1,1007,1779,0,0
-210,-755,0,0,0,0,0,0,0,0,0,-1,1014,1779,0,0
-203,-755,8.97363,30.5414,0,0,0,0,0,0,0,-1,1021,1779,8.97362,-30.5414
-196,-755,8.08667,43.2203,0,0,0,0,0,0,0,-1,1028,1779,8.08666,-43.2204
-189,-755,0.725098,39.8892,0,0,0,0,0,0,0,-1,1035,1779,0.725055,-39.8891
-182,-755,1.80835,40.9692,0,0,0,0,0,0,0,-1,1042,1779,1.80838,-40.9692
-175,-755,13.1752,66.5742,0,0,0,0,0,0,0,-1,1049,1779,13.1752,-66.5742
-168,-755,13.4839,66.8397,0,0,0,0,0,0,0,-1,1056,1779,13.4839,-66.8397
-161,-755,13.7926,67.1051,0,0,0,0,0,0,0,-1,1063,1779,13.7926,-67.1051
-154,-755,7.71094,44.9023,0,0,0,0,0,0,0,-1,1070,1779,7.71089,-44.9023
-147,-755,-6.45593,10.2422,0,0,0,0,0,0,0,-1,1077,1779,-6.45594,-10.2422
-140,-755,1.33521,21.3856,0,0,0,0,0,0,0,-1,1084,1779,1.33522,-21.3857
-133,-755,2.89417,21.0964,0,0,0,0,0,0,0,-1,1091,1779,2.89422,-21.0964
-126,-755,3.26404,20.9304,0,0,0,0,0,0,0,-1,1098,1779,3.26399,-20.9305
-119,-755,5.17761,21.9325,0,0,0,0,0,0,0,-1,1105,1779,5.17761,-21.9325
-112,-755,5.40247,24.5646,0,0,0,0,0,0,0,-1,1112,1779,5.40244,-24.5646
-105,-755,7.01294,20.1539,0,0,0,0,0,0,0,-1,1119,1779,7.01295,-20.154
-98,-755,5.50708,16.9628,0,0,0,0,0,0,0,-1,1126,1779,5.5071,-16.9628
-91,-755,5.51025,12.0438,0,0,0,0,0,0,0,-1,1133,1779,5.51022,-12.0439
-84,-755,0.169312,8.66443,0,0,0,0,0,0,0,-1,1140,1779,0.16932,-8.66446
-77,-755,-0.0491943,6.87439,0,0,0,0,0,0,0,-1,1147,1779,-0.0491385,-6.87443
-70,-755,4.5686,13.2169,0,0,0,0,0,0,0,-1,1154,1779,4.56865,-13.2169
-63,-755,-1.36316,7.3147,0,0,0,0,0,0,0,-1,1161,1779,-1.36312,-7.31473
-56,-755,0.0483398,5.06079,0,0,0,0,0,0,0,-1,1168,1779,0.0483138,-5.06084
-49,-755,-1.32263,5.33716,0,0,0,0,0,0,0,-1,1175,1779,-1.32264,-5.33718
-42,-755,-2.03613,4.01672,0,0,0,0,0,0,0,-1,1182,1779,-2.0361,-4.01671
-35,-755,-2.72498,2.37476,0,0,0,0,0,0,0,-1,1189,1779,-2.72502,-2.37473
-28,-755,9.77795,71.4426,0,0,0,0,0,0,0,-1,1196,1779,9.77791,-71.4426
-21,-755,9.64771,71.7094,0,0,0,0,0,0,0,-1,1203,1779,9.64769,-71.7094
-14,-755,9.625,71.7136,0.00718205,0.00621126,-0.00400915,0.0107351,0.00265823,-0.725155,0.00645572,0.0341472,1210,1779,9.62506,-71.7136
-7,-755,9.547,71.884,0.00686486,0.00637093,-0.00651479,0.0131374,9.84212e-05,-0.766453,0.00872562,0.0250299,1217,1779,9.54699,-71.884
0,-755,9.45618,72.0381,0.00568396,0.00729681,-0.00961876,0.0161429,-0.00316212,-0.82722,0.0119562,0.0160292,1224,1779,9.45621,-72.0381
7,-755,9.38184,72.1869,0.00465549,0.0081317,-0.011748,0.0182695,-0.00548229,-0.85884,0.0143603,0.0147336,1231,1779,9.38178,-72.1869
14,-755,9.36584,72.3828,0.00298087,0.00911491,-0.0139536,0.0203346,-0.00823882,-0.893579,0.0169824,0.0138756,1238,1779,9.36584,-72.3828
21,-755,9.28149,72.5593,0.000817669,0.0100326,-0.0157371,0.0218228,-0.0109726,-0.927807,0.0192768,0.0187117,1245,1779,9.2815,-72.5593
28,-755,9.20801,72.6198,-0.0019907,0.0105724,-0.0173341,0.0227279,-0.0141463,-0.959229,0.0214807,0.0209064,1252,1779,9.20802,-72.6198
35,-755,9.14233,72.7345,-0.00497468,0.0108125,-0.0187264,0.023241,-0.0174031,-0.984859,0.0235464,0.0211544,1259,1779,9.1423,-72.7345
42,-755,9.0752,72.7604,-0.00752883,0.0108904,-0.019391,0.0231477,-0.0197861,-1.0071,0.0248131,0.0157473,1266,1779,9.07517,-72.7604
49,-755,9.02026,72.7695,-0.00987688,0.0104155,-0.0198097,0.0225262,-0.0219876,-1.02207,0.0257007,0.0108768,1273,1779,9.02028,-72.7695
56,-755,8.92273,72.8286,-0.0123273,0.0100422,-0.0196442,0.0214626,-0.0237477,-1.04419,0.0261133,0.0104039,1280,1779,8.92271,-72.8286
63,-755,8.87756,72.8707,-0.0145282,0.00963524,-0.0191842,0.0202251,-0.0251182,-1.06641,0.0262297,0.0109217,1287,1779,8.87751,-72.8707
70,-755,8.85547,72.8099,-0.0161977,0.00929514,-0.0184003,0.0189327,-0.0258352,-1.08831,0.0259489,0.0158109,1294,1779,8.85542,-72.8099
77,-755,8.74475,72.717,-0.0175662,0.00919648,-0.0171792,0.0175909,-0.0259607,-1.11628,0.0252988,0.0148336,1301,1779,8.74471,-72.7171
84,-755,8.66321,72.7166,-0.0180468,0.00893416,-0.0159116,0.0163044,-0.0254171,-1.13702,0.0242787,0.0157234,1308,1779,8.66327,-72.7165
91,-755,8.60474,72.6409,-0.0181347,0.00899445,-0.0147891,0.0154976,-0.0246379,-1.15652,0.0233717,0.0162825,1315,1779,8.60475,-72.6409
98,-755,8.51062,72.5516,-0.0175888,0.00872796,-0.0130112,0.0140746,-0.0229354,-1.18091,0.0215709,0.0168699,1322,1779,8.51058,-72.5517
105,-755,8.42554,72.3876,-0.0170986,0.00879388,-0.0115482,0.013196,-0.0215007,-1.2066,0.0202225,0.0194696,1329,1779,8.42554,-72.3876
112,-755,8.34399,72.2286,-0.017126,0.00937383,-0.0112923,0.013533,-0.0212852,-1.21789,0.0202677,0.0260084,1336,1779,8.34405,-72.2286
119,-755,8.26758,72.0585,-0.0169437,0.00990454,-0.0107263,0.0136635,-0.0207027,-1.23372,0.0199796,0.0262058,1343,1779,8.2676,-72.0584
126,-755,8.2135,71.9891,-0.0164917,0.0103895,-0.0100227,0.013715,-0.0198173,-1.25042,0.0194665,0.0281374,1350,1779,8.21347,-71.9891
133,-755,8.11548,71.7938,-0.0156109,0.0107944,-0.00895903,0.0135471,-0.0183637,-1.27269,0.0184935,0.0282643,1357,1779,8.11552,-71.7938
140,-755,8.03918,71.582,-0.0149281,0.0108398,-0.00774558,0.0129888,-0.0170771,-1.30015,0.017412,0.035969,1364,1779,8.03914,-71.582
147,-755,8.09314,71.3134,-0.0147446,0.0103535,-0.00679694,0.012076,-0.0164671,-1.3226,0.0165443,0.0377179,1371,1779,8.09311,-71.3133
154,-755,7.91199,71.1575,-0.0144977,0.010064,-0.00567076,0.0113101,-0.0157437,-1.3545,0.0156893,0.035715,1378,1779,7.91197,-71.1574
161,-755,7.8418,70.8292,0,0,0,0,0,0,0,-1,1385,1779,7.84176,-70.8292
168,-755,3.98181,7.35901,0,0,0,0,0,0,0,-1,1392,1779,3.98184,-7.35904
175,-755,8.17065,1.34363,0,0,0,0,0,0,0,-1,1399,1779,8.1706,-1.34368
182,-755,8.09216,2.96924,0,0,0,0,0,0,0,-1,1406,1779,8.09213,-2.9693
189,-755,8.04419,4.68042,0,0,0,0,0,0,0,-1,1413,1779,8.04419,-4.68046
196,-755,7.74841,7.4541,0,0,0,0,0,0,0,-1,1420,1779,7.74842,-7.45405
203,-755,4.80554,6.88696,0,0,0,0,0,0,0,-1,1427,1779,4.80554,-6.88697
210,-755,25.1694,7.35693,0,0,0,0,0,0,0,-1,1434,1779,25.1694,-7.35688
217,-755,5.01648,16.411,0,0,0,0,0,0,0,-1,1441,1779,5.01646,-16.411
224,-755,5.18103,22.6283,0,0,0,0,0,0,0,-1,1448,1779,5.18101,-22.6283
231,-755,5.7489,30.15,0,0,0,0,0,0,0,-1,1455,1779,5.74885,-30.15
238,-755,6.56323,29.2726,0,0,0,0,0,0,0,-1,1462,1779,6.56327,-29.2726
245,-755,8.29639,28.2113,0,0,0,0,0,0,0,-1,1469,1779,8.29639,-28.2113
252,-755,6.8877,28.8699,0,0,0,0,0,0,0,-1,1476,1779,6.88774,-28.8698
259,-755,6.42676,30.8574,0,0,0,0,0,0,0,-1,1483,1779,6.42677,-30.8575
266,-755,17.255,7.86096,0,0,0,0,0,0,0,-1,1490,1779,17.255,-7.86092
273,-755,15.7932,7.59778,0,0,0,0,0,0,0,-1,1497,1779,15.7932,-7.59777
280,-755,14.6255,7.34802,0,0,0,0,0,0,0,-1,1504,1779,14.6254,-7.34806
287,-755,13.8279,7.83105,0,0,0,0,0,0,0,-1,1511,1779,13.8279,-7.83104
294,-755,12.5695,7.96814,0,0,0,0,0,0,0,-1,1518,1779,12.5694,-7.9682
301,-755,11.2659,8.27087,0,0,0,0,0,0,0,-1,1525,1779,11.2658,-8.27087
308,-755,5.17737,37.2896,0,0,0,0,0,0,0,-1,1532,1779,5.17742,-37.2896
315,-755,0.828613,31.032,0,0,0,0,0,0,0,-1,1539,1779,0.828668,-31.032
322,-755,0,0,0,0,0,0,0,0,0,-1,1546,1779,0,0
329,-755,0,0,0,0,0,0,0,0,0,-1,1553,1779,0,0
336,-755,0,0,0,0,0,0,0,0,0,-1,1560,1779,0,0
343,-755,0,0,0,0,0,0,0,0,0,-1,1567,1779,0,0
350,-755,0,0,0,0,0,0,0,0,0,-1,1574,1779,0,0
357,-755,0,0,0,0,0,0,0,0,0,-1,1581,1779,0,0
364,-755,0,0,0,0,0,0,0,0,0,-1,1588,1779,0,0
371,-755,0,0,0,0,0,0,0,0,0,-1,1595,1779,0,0
378,-755,0,0,0,0,0,0,0,0,0,-1,1602,1779,0,0
385,-755,0,0,0,0,0,0,0,0,0,-1,1609,1779,0,0
392,-755,0,0,0,0,0,0,0,0,0,-1,1616,1779,0,0
399,-755,0,0,0,0,0,0,0,0,0,-1,1623,1779,0,0
406,-755,0,0,0,0,0,0,0,0,0,-1,1630,1779,0,0
413,-755,0,0,0,0,0,0,0,0,0,-1,1637,1779,0,0
420,-755,0,0,0,0,0,0,0,0,0,-1,1644,1779,0,0
427,-755,0,0,0,0,0,0,0,0,0,-1,1651,1779,0,0
434,-755,0,0,0,0,0,0,0,0,0,-1,1658,1779,0,0
441,-755,0,0,0,0,0,0,0,0,0,-1,1665,1779,0,0
448,-755,0,0,0,0,0,0,0,0,0,-1,1672,1779,0,0
455,-755,0,0,0,0,0,0,0,0,0,-1,1679,1779,0,0
462,-755,0,0,0,0,0,0,0,0,0,-1,1686,1779,0,0
469,-755,0,0,0,0,0,0,0,0,0,-1,1693,1779,0,0
476,-755,0,0,0,0,0,0,0,0,0,-1,1700,1779,0,0
483,-755,0,0,0,0,0,0,0,0,0,-1,1707,1779,0,0
490,-755,0,0,0,0,0,0,0,0,0,-1,1714,1779,0,0
497,-755,0,0,0,0,0,0,0,0,0,-1,1721,1779,0,0
504,-755,0,0,0,0,0,0,0,0,0,-1,1728,1779,0,0
511,-755,0,0,0,0,0,0,0,0,0,-1,1735,1779,0,0
518,-755,0,0,0,0,0,0,0,0,0,-1,1742,1779,0,0
525,-755,0,0,0,0,0,0,0,0,0,-1,1749,1779,0,0
532,-755,0,0,0,0,0,0,0,0,0,-1,1756,1779,0,0
539,-755,0,0,0,0,0,0,0,0,0,-1,1763,1779,0,0
546,-755,0,0,0,0,0,0,0,0,0,-1,1770,1779,0,0
553,-755,0,0,0,0,0,0,0,0,0,-1,1777,1779,0,0
560,-755,0,0,0,0,0,0,0,0,0,-1,1784,1779,0,0
567,-755,0,0,0,0,0,0,0,0,0,-1,1791,1779,0,0
574,-755,0,0,0,0,0,0,0,0,0,-1,1798,1779,0,0
581,-755,0,0,0,0,0,0,0,0,0,-1,1805,1779,0,0
588,-755,0,0,0,0,0,0,0,0,0,-1,1812,1779,0,0
595,-755,0,0,0,0,0,0,0,0,0,-1,1819,1779,0,0
602,-755,0,0,0,0,0,0,0,0,0,-1,1826,1779,0,0
609,-755,0,0,0,0,0,0,0,0,0,-1,1833,1779,0,0
616,-755,0,0,0,0,0,0,0,0,0,-1,1840,1779,0,0
623,-755,0,0,0,0,0,0,0,0,0,-1,1847,1779,0,0
630,-755,0,0,0,0,0,0,0,0,0,-1,1854,1779,0,0
637,-755,0,0,0,0,0,0,0,0,0,-1,1861,1779,0,0
644,-755,0,0,0,0,0,0,0,0,0,-1,1868,1779,0,0
651,-755,0,0,0,0,0,0,0,0,0,-1,1875,1779,0,0
658,-755,0,0,0,0,0,0,0,0,0,-1,1882,1779,0,0
665,-755,0,0,0,0,0,0,0,0,0,-1,1889,1779,0,0
672,-755,0,0,0,0,0,0,0,0,0,-1,1896,1779,0,0
679,-755,0,0,0,0,0,0,0,0,0,-1,1903,1779,0,0
686,-755,0,0,0,0,0,0,0,0,0,-1,1910,1779,0,0
693,-755,0,0,0,0,0,0,0,0,0,-1,1917,1779,0,0
700,-755,0,0,0,0,0,0,0,0,0,-1,1924,1779,0,0
707,-755,0,0,0,0,0,0,0,0,0,-1,1931,1779,0,0
714,-755,0,0,0,0,0,0,0,0,0,-1,1938,1779,0,0
721,-755,0,0,0,0,0,0,0,0,0,-1,1945,1779,0,0
728,-755,0,0,0,0,0,0,0,0,0,-1,1952,1779,0,0
735,-755,0,0,0,0,0,0,0,0,0,-1,1959,1779,0,0
742,-755,0,0,0,0,0,0,0,0,0,-1,1966,1779,0,0
749,-755,0,0,0,0,0,0,0,0,0,-1,1973,1779,0,0
756,-755,0,0,0,0,0,0,0,0,0,-1,1980,1779,0,0
763,-755,0,0,0,0,0,0,0,0,0,-1,1987,1779,0,0
770,-755,0,0,0,0,0,0,0,0,0,-1,1994,1779,0,0
777,-755,0,0,0,0,0,0,0,0,0,-1,2001,1779,0,0
784,-755,0,0,0,0,0,0,0,0,0,-1,2008,1779,0,0
791,-755,0,0,0,0,0,0,0,0,0,-1,2015,1779,0,0
798,-755,0,0,0,0,0,0,0,0,0,-1,2022,1779,0,0
805,-755,0,0,0,0,0,0,0,0,0,-1,2029,1779,0,0
812,-755,0,0,0,0,0,0,0,0,0,-1,2036,1779,0,0
-700,-762,0,0,0,0,0,0,0,0,0,-1,524,1786,0,0
-693,-762,0,0,0,0,0,0,0,0,0,-1,531,1786,0,0
-686,-762,0,0,0,0,0,0,0,0,0,-1,538,1786,0,0
-679,-762,0,0,0,0,0,0,0,0,0,-1,545,1786,0,0
-672,-762,0,0,0,0,0,0,0,0,0,-1,552,1786,0,0
-665,-762,0,0,0,0,0,0,0,0,0,-1,559,1786,0,0
-658,-762,0,0,0,0,0,0,0,0,0,-1,566,1786,0,0
-651,-762,0,0,0,0,0,0,0,0,0,-1,573,1786,0,0
-644,-762,0,0,0,0,0,0,0,0,0,-1,580,1786,0,0
-637,-762,0,0,0,0,0,0,0,0,0,-1,587,1786,0,0
-630,-762,0,0,0,0,0,0,0,0,0,-1,594,1786,0,0
-623,-762,0,0,0,0,0,0,0,0,0,-1,601,1786,0,0
-616,-762,0,0,0,0,0,0,0,0,0,-1,608,1786,0,0
-609,-762,0,0,0,0,0,0,0,0,0,-1,615,1786,0,0
-602,-762,0,0,0,0,0,0,0,0,0,-1,622,1786,0,0
-595,-762,0,0,0,0,0,0,0,0,0,-1,629,1786,0,0
-588,-762,0,0,0,0,0,0,0,0,0,-1,636,1786,0,0
-581,-762,0,0,0,0,0,0,0,0,0,-1,643,1786,0,0
-574,-762,0,0,0,0,0,0,0,0,0,-1,650,1786,0,0
-567,-762,0,0,0,0,0,0,0,0,0,-1,657,1786,0,0
-560,-762,0,0,0,0,0,0,0,0,0,-1,664,1786,0,0
-553,-762,0,0,0,0,0,0,0,0,0,-1,671,1786,0,0
-546,-762,0,0,0,0,0,0,0,0,0,-1,678,1786,0,0
-539,-762,0,0,0,0,0,0,0,0,0,-1,685,1786,0,0
-532,-762,0,0,0,0,0,0,0,0,0,-1,692,1786,0,0
-525,-762,0,0,0,0,0,0,0,0,0,-1,699,1786,0,0
-518,-762,0,0,0,0,0,0,0,0,0,-1,706,1786,0,0
-511,-762,0,0,0,0,0,0,0,0,0,-1,713,1786,0,0
-504,-762,0,0,0,0,0,0,0,0,0,-1,720,1786,0,0
-497,-762,0,0,0,0,0,0,0,0,0,-1,727,1786,0,0
-490,-762,0,0,0,0,0,0,0,0,0,-1,734,1786,0,0
-483,-762,0,0,0,0,0,0,0,0,0,-1,741,1786,0,0
-476,-762,0,0,0,0,0,0,0,0,0,-1,748,1786,0,0
-469,-762,0,0,0,0,0,0,0,0,0,-1,755,1786,0,0
-462,-762,0,0,0,0,0,0,0,0,0,-1,762,1786,0,0
-455,-762,0,0,0,0,0,0,0,0,0,-1,769,1786,0,0
-448,-762,0,0,0,0,0,0,0,0,0,-1,776,1786,0,0
-441,-762,0,0,0,0,0,0,0,0,0,-1,783,1786,0,0
-434,-762,0,0,0,0,0,0,0,0,0,-1,790,1786,0,0
-427,-762,0,0,0,0,0,0,0,0,0,-1,797,1786,0,0
-420,-762,0,0,0,0,0,0,0,0,0,-1,804,1786,0,0
-413,-762,0,0,0,0,0,0,0,0,0,-1,811,1786,0,0
-406,-762,0,0,0,0,0,0,0,0,0,-1,818,1786,0,0
-399,-762,0,0,0,0,0,0,0,0,0,-1,825,1786,0,0
-392,-762,0,0,0,0,0,0,0,0,0,-1,832,1786,0,0
-385,-762,0,0,0,0,0,0,0,0,0,-1,839,1786,0,0
-378,-762,0,0,0,0,0,0,0,0,0,-1,846,1786,0,0
-371,-762,0,0,0,0,0,0,0,0,0,-1,853,1786,0,0
-364,-762,0,0,0,0,0,0,0,0,0,-1,860,1786,0,0
-357,-762,0,0,0,0,0,0,0,0,0,-1,867,1786,0,0
-350,-762,0,0,0,0,0,0,0,0,0,-1,874,1786,0,0
-343,-762,0,0,0,0,0,0,0,0,0,-1,881,1786,0,0
-336,-762,0,0,0,0,0,0,0,0,0,-1,888,1786,0,0
-329,-762,0,0,0,0,0,0,0,0,0,-1,895,1786,0,0
-322,-762,0,0,0,0,0,0,0,0,0,-1,902,1786,0,0
-315,-762,0,0,0,0,0,0,0,0,0,-1,909,1786,0,0
-308,-762,0,0,0,0,0,0,0,0,0,-1,916,1786,0,0
-301,-762,0,0,0,0,0,0,0,0,0,-1,923,1786,0,0
-294,-762,0,0,0,0,0,0,0,0,0,-1,930,1786,0,0
-287,-762,0,0,0,0,0,0,0,0,0,-1,937,1786,0,0
-280,-762,0,0,0,0,0,0,0,0,0,-1,944,1786,0,0
-273,-762,0,0,0,0,0,0,0,0,0,-1,951,1786,0,0
-266,-762,0,0,0,0,0,0,0,0,0,-1,958,1786,0,0
-259,-762,0,0,0,0,0,0,0,0,0,-1,965,1786,0,0
-252,-762,0,0,0,0,0,0,0,0,0,-1,972,1786,0,0
-245,-762,0,0,0,0,0,0,0,0,0,-1,979,1786,0,0
-238,-762,0,0,0,0,0,0,0,0,0,-1,986,1786,0,0
-231,-762,0,0,0,0,0,0,0,0,0,-1,993,1786,0,0
-224,-762,0,0,0,0,0,0,0,0,0,-1,1000,1786,0,0
-217,-762,0,0,0,0,0,0,0,0,0,-1,1007,1786,0,0
-210,-762,0,0,0,0,0,0,0,0,0,-1,1014,1786,0,0
-203,-762,0,0,0,0,0,0,0,0,0,-1,1021,1786,0,0
-196,-762,0,0,0,0,0,0,0,0,0,-1,1028,1786,0,0
-189,-762,0,0,0,0,0,0,0,0,0,-1,1035,1786,0,0
-182,-762,4.44226,13.2462,0,0,0,0,0,0,0,-1,1042,1786,4.44227,-13.2462
-175,-762,2.39929,44.7904,0,0,0,0,0,0,0,-1,1049,1786,2.39932,-44.7903
-168,-762,14.4796,67.9244,0,0,0,0,0,0,0,-1,1056,1786,14.4797,-67.9245
-161,-762,-3.29077,11.9508,0,0,0,0,0,0,0,-1,1063,1786,-3.29076,-11.9508
-154,-762,-4.55823,11.1176,0,0,0,0,0,0,0,-1,1070,1786,-4.55828,-11.1175
-147,-762,-6.52454,9.41418,0,0,0,0,0,0,0,-1,1077,1786,-6.52458,-9.41419
-140,-762,4.99792,5.28589,0,0,0,0,0,0,0,-1,1084,1786,4.99793,-5.28587
-133,-762,0.689819,19.2172,0,0,0,0,0,0,0,-1,1091,1786,0.689867,-19.2171
-126,-762,1.48743,19.9288,0,0,0,0,0,0,0,-1,1098,1786,1.48738,-19.9289
-119,-762,2.65637,20.208,0,0,0,0,0,0,0,-1,1105,1786,2.65632,-20.208
-112,-762,6.84705,25.5554,0,0,0,0,0,0,0,-1,1112,1786,6.84706,-25.5554
-105,-762,5.57947,21.618,0,0,0,0,0,0,0,-1,1119,1786,5.57948,-21.618
-98,-762,5.0636,17.9901,0,0,0,0,0,0,0,-1,1126,1786,5.06361,-17.9901
-91,-762,4.54773,14.3622,0,0,0,0,0,0,0,-1,1133,1786,4.54774,-14.3622
-84,-762,3.96375,10.4547,0,0,0,0,0,0,0,-1,1140,1786,3.96371,-10.4548
-77,-762,0.305054,8.49365,0,0,0,0,0,0,0,-1,1147,1786,0.305008,-8.49362
-70,-762,0.183716,6.74622,0,0,0,0,0,0,0,-1,1154,1786,0.183696,-6.74621
-63,-762,-0.883057,9.08813,0,0,0,0,0,0,0,-1,1161,1786,-0.88311,-9.08808
-56,-762,-0.578979,5.10254,0,0,0,0,0,0,0,-1,1168,1786,-0.578951,-5.10249
-49,-762,-2.04541,3.66321,0,0,0,0,0,0,0,-1,1175,1786,-2.0454,-3.66319
-42,-762,-2.23462,3.474,0,0,0,0,0,0,0,-1,1182,1786,-2.23459,-3.47399
-35,-762,-3.28992,1.68164,0,0,0,0,0,0,0,-1,1189,1786,-3.28998,-1.68164
-28,-762,-3.75378,1.37769,0,0,0,0,0,0,0,-1,1196,1786,-3.75373,-1.37767
-21,-762,9.84485,70.0267,0,0,0,0,0,0,0,-1,1203,1786,9.84488,-70.0267
-14,-762,9.86255,71.6431,0,0,0,0,0,0,0,-1,1210,1786,9.86254,-71.6431
-7,-762,9.68958,71.7368,0.0132961,0.00663082,-0.00904854,0.0196062,0.000320722,-0.608952,0.0129652,0.0477875,1217,1786,9.68961,-71.7369
0,-762,9.58789,72.0059,0.0114899,0.00802765,-0.013121,0.0229935,-0.00347593,-0.719809,0.0166093,0.0379139,1224,1786,9.58793,-72.0058
7,-762,9.58252,72.1488,0.0096651,0.00934115,-0.0162394,0.0257433,-0.00673704,-0.780411,0.0197938,0.0237504,1231,1786,9.5825,-72.1488
14,-762,9.47937,72.5764,0.00694477,0.0107721,-0.0194573,0.0284096,-0.0106927,-0.834417,0.0233354,0.0427322,1238,1786,9.47933,-72.5765
21,-762,9.34241,72.4595,0,0,0,0,0,0,0,-1,1245,1786,9.34236,-72.4594
28,-762,9.27271,72.495,0,0,0,0,0,0,0,-1,1252,1786,9.27273,-72.495
35,-762,9.14648,72.7089,0,0,0,0,0,0,0,-1,1259,1786,9.1465,-72.7088
42,-762,9.04834,72.7695,0,0,0,0,0,0,0,-1,1266,1786,9.04839,-72.7696
49,-762,9.03503,72.833,-0.0123108,0.0122827,-0.0275295,0.030137,-0.0301651,-0.995441,0.0348154,0.0434135,1273,1786,9.03502,-72.833
56,-762,8.99377,72.8815,-0.0157918,0.0116146,-0.0272485,0.0284115,-0.0325887,-1.01838,0.035246,0.0344295,1280,1786,8.99376,-72.8815
63,-762,8.92334,72.8845,-0.0188509,0.0109147,-0.0266401,0.0265473,-0.0344835,-1.04013,0.0353353,0.0322203,1287,1786,8.92332,-72.8846
70,-762,8.82727,72.8302,-0.0211925,0.0102598,-0.0256061,0.0245833,-0.035516,-1.06078,0.0348892,0.0333342,1294,1786,8.82733,-72.8302
77,-762,8.71033,72.6312,-0.023121,0.00991904,-0.0239694,0.0225099,-0.0357118,-1.08712,0.0339012,0.0420567,1301,1786,8.71037,-72.6312
84,-762,8.69653,72.5068,0,0,0,0,0,0,0,-1,1308,1786,8.69649,-72.5068
91,-762,8.63843,72.4705,0,0,0,0,0,0,0,-1,1315,1786,8.63842,-72.4704
98,-762,8.34583,72.4203,0,0,0,0,0,0,0,-1,1322,1786,8.34579,-72.4203
105,-762,8.45618,72.3502,0,0,0,0,0,0,0,-1,1329,1786,8.45613,-72.3502
112,-762,8.09314,72.0547,-0.0224659,0.0101714,-0.016276,0.0169007,-0.0291952,-1.17875,0.0269272,0.0469323,1336,1786,8.09314,-72.0547
119,-762,8.04895,71.9331,-0.0221425,0.011102,-0.0155767,0.0172599,-0.0283004,-1.19433,0.0265604,0.0494849,1343,1786,8.04901,-71.9331
126,-762,7.97266,72.1451,0,0,0,0,0,0,0,-1,1350,1786,7.97262,-72.1452
133,-762,7.83691,71.8297,-0.0203316,0.0127076,-0.013419,0.017471,-0.025095,-1.2297,0.0247066,0.0472655,1357,1786,7.83695,-71.8298
140,-762,7.76733,71.5247,-0.0194361,0.0129921,-0.0118916,0.0168854,-0.0233293,-1.2544,0.0233171,0.0418481,1364,1786,7.76736,-71.5246
147,-762,7.79578,71.35,-0.0190826,0.0126729,-0.0106106,0.015892,-0.0223017,-1.27624,0.0221544,0.04471,1371,1786,7.79575,-71.35
154,-762,7.59009,71.3528,0,0,0,0,0,0,0,-1,1378,1786,7.59004,-71.3528
161,-762,8.65051,34.8102,0,0,0,0,0,0,0,-1,1385,1786,8.65054,-34.8101
168,-762,8.19287,0.880615,0,0,0,0,0,0,0,-1,1392,1786,8.19291,-0.880603
175,-762,8.33997,1.95947,0,0,0,0,0,0,0,-1,1399,1786,8.33997,-1.95942
182,-762,8.28418,3.56482,0,0,0,0,0,0,0,-1,1406,1786,8.28415,-3.56485
189,-762,8.21179,5.23389,0,0,0,0,0,0,0,-1,1413,1786,8.21183,-5.23383
196,-762,8.05969,6.95483,0,0,0,0,0,0,0,-1,1420,1786,8.05972,-6.9548
203,-762,24.0077,7.10425,0,0,0,0,0,0,0,-1,1427,1786,24.0077,-7.10426
210,-762,23.8073,7.6499,0,0,0,0,0,0,0,-1,1434,1786,23.8073,-7.64987
217,-762,23.3193,8.24426,0,0,0,0,0,0,0,-1,1441,1786,23.3194,-8.2442
224,-762,2.65149,20.6106,0,0,0,0,0,0,0,-1,1448,1786,2.65153,-20.6106
231,-762,5.46655,23.521,0,0,0,0,0,0,0,-1,1455,1786,5.46653,-23.521
238,-762,5.35632,29.7203,0,0,0,0,0,0,0,-1,1462,1786,5.35629,-29.7203
245,-762,6.93054,27.8312,0,0,0,0,0,0,0,-1,1469,1786,6.93058,-27.8312
252,-762,6.20215,28.3027,0,0,0,0,0,0,0,-1,1476,1786,6.20211,-28.3027
259,-762,5.46472,28.8762,0,0,0,0,0,0,0,-1,1483,1786,5.46476,-28.8762
266,-762,16.451,7.67773,0,0,0,0,0,0,0,-1,1490,1786,16.4511,-7.67773
273,-762,15.287,7.5304,0,0,0,0,0,0,0,-1,1497,1786,15.2869,-7.53044
280,-762,14.1501,7.38379,0,0,0,0,0,0,0,-1,1504,1786,14.1502,-7.38376
287,-762,12.6891,7.99133,0,0,0,0,0,0,0,-1,1511,1786,12.6891,-7.99135
294,-762,12.6959,8.30371,0,0,0,0,0,0,0,-1,1518,1786,12.6959,-8.30368
301,-762,11.4222,8.84143,0,0,0,0,0,0,0,-1,1525,1786,11.4223,-8.84149
308,-762,0,0,0,0,0,0,0,0,0,-1,1532,1786,0,0
315,-762,0,0,0,0,0,0,0,0,0,-1,1539,1786,0,0
322,-762,0,0,0,0,0,0,0,0,0,-1,1546,1786,0,0
329,-762,0,0,0,0,0,0,0,0,0,-1,1553,1786,0,0
336,-762,0,0,0,0,0,0,0,0,0,-1,1560,1786,0,0
343,-762,0,0,0,0,0,0,0,0,0,-1,1567,1786,0,0
350,-762,0,0,0,0,0,0,0,0,0,-1,1574,1786,0,0
357,-762,0,0,0,0,0,0,0,0,0,-1,1581,1786,0,0
364,-762,0,0,0,0,0,0,0,0,0,-1,1588,1786,0,0
371,-762,0,0,0,0,0,0,0,0,0,-1,1595,1786,0,0
378,-762,0,0,0,0,0,0,0,0,0,-1,1602,1786,0,0
385,-762,0,0,0,0,0,0,0,0,0,-1,1609,1786,0,0
392,-762,0,0,0,0,0,0,0,0,0,-1,1616,1786,0,0
399,-762,0,0,0,0,0,0,0,0,0,-1,1623,1786,0,0
406,-762,0,0,0,0,0,0,0,0,0,-1,1630,1786,0,0
413,-762,0,0,0,0,0,0,0,0,0,-1,1637,1786,0,0
420,-762,0,0,0,0,0,0,0,0,0,-1,1644,1786,0,0
427,-762,0,0,0,0,0,0,0,0,0,-1,1651,1786,0,0
434,-762,0,0,0,0,0,0,0,0,0,-1,1658,1786,0,0
441,-762,0,0,0,0,0,0,0,0,0,-1,1665,1786,0,0
448,-762,0,0,0,0,0,0,0,0,0,-1,1672,1786,0,0
455,-762,0,0,0,0,0,0,0,0,0,-1,1679,1786,0,0
462,-762,0,0,0,0,0,0,0,0,0,-1,1686,1786,0,0
469,-762,0,0,0,0,0,0,0,0,0,-1,1693,1786,0,0
476,-762,0,0,0,0,0,0,0,0,0,-1,1700,1786,0,0
483,-762,0,0,0,0,0,0,0,0,0,-1,1707,1786,0,0
490,-762,0,0,0,0,0,0,0,0,0,-1,1714,1786,0,0
497,-762,0,0,0,0,0,0,0,0,0,-1,1721,1786,0,0
504,-762,0,0,0,0,0,0,0,0,0,-1,1728,1786,0,0
511,-762,0,0,0,0,0,0,0,0,0,-1,1735,1786,0,0
518,-762,0,0,0,0,0,0,0,0,0,-1,1742,1786,0,0
525,-762,0,0,0,0,0,0,0,0,0,-1,1749,1786,0,0
532,-762,0,0,0,0,0,0,0,0,0,-1,1756,1786,0,0
539,-762,0,0,0,0,0,0,0,0,0,-1,1763,1786,0,0
546,-762,0,0,0,0,0,0,0,0,0,-1,1770,1786,0,0
553,-762,0,0,0,0,0,0,0,0,0,-1,1777,1786,0,0
560,-762,0,0,0,0,0,0,0,0,0,-1,1784,1786,0,0
567,-762,0,0,0,0,0,0,0,0,0,-1,1791,1786,0,0
574,-762,0,0,0,0,0,0,0,0,0,-1,1798,1786,0,0
581,-762,0,0,0,0,0,0,0,0,0,-1,1805,1786,0,0
588,-762,0,0,0,0,0,0,0,0,0,-1,1812,1786,0,0
595,-762,0,0,0,0,0,0,0,0,0,-1,1819,1786,0,0
602,-762,0,0,0,0,0,0,0,0,0,-1,1826,1786,0,0
609,-762,0,0,0,0,0,0,0,0,0,-1,1833,1786,0,0
616,-762,0,0,0,0,0,0,0,0,0,-1,1840,1786,0,0
623,-762,0,0,0,0,0,0,0,0,0,-1,1847,1786,0,0
630,-762,0,0,0,0,0,0,0,0,0,-1,1854,1786,0,0
637,-762,0,0,0,0,0,0,0,0,0,-1,1861,1786,0,0
644,-762,0,0,0,0,0,0,0,0,0,-1,1868,1786,0,0
651,-762,0,0,0,0,0,0,0,0,0,-1,1875,1786,0,0
658,-762,0,0,0,0,0,0,0,0,0,-1,1882,1786,0,0
665,-762,0,0,0,0,0,0,0,0,0,-1,1889,1786,0,0
672,-762,0,0,0,0,0,0,0,0,0,-1,1896,1786,0,0
679,-762,0,0,0,0,0,0,0,0,0,-1,1903,1786,0,0
686,-762,0,0,0,0,0,0,0,0,0,-1,1910,1786,0,0
693,-762,0,0,0,0,0,0,0,0,0,-1,1917,1786,0,0
700,-762,0,0,0,0,0,0,0,0,0,-1,1924,1786,0,0
707,-762,0,0,0,0,0,0,0,0,0,-1,1931,1786,0,0
714,-762,0,0,0,0,0,0,0,0,0,-1,1938,1786,0,0
721,-762,0,0,0,0,0,0,0,0,0,-1,1945,1786,0,0
728,-762,0,0,0,0,0,0,0,0,0,-1,1952,1786,0,0
735,-762,0,0,0,0,0,0,0,0,0,-1,1959,1786,0,0
742,-762,0,0,0,0,0,0,0,0,0,-1,1966,1786,0,0
749,-762,0,0,0,0,0,0,0,0,0,-1,1973,1786,0,0
756,-762,0,0,0,0,0,0,0,0,0,-1,1980,1786,0,0
763,-762,0,0,0,0,0,0,0,0,0,-1,1987,1786,0,0
770,-762,0,0,0,0,0,0,0,0,0,-1,1994,1786,0,0
777,-762,0,0,0,0,0,0,0,0,0,-1,2001,1786,0,0
784,-762,0,0,0,0,0,0,0,0,0,-1,2008,1786,0,0
791,-762,0,0,0,0,0,0,0,0,0,-1,2015,1786,0,0
798,-762,0,0,0,0,0,0,0,0,0,-1,2022,1786,0,0
805,-762,0,0,0,0,0,0,0,0,0,-1,2029,1786,0,0
812,-762,0,0,0,0,0,0,0,0,0,-1,2036,1786,0,0
-700,-769,0,0,0,0,0,0,0,0,0,-1,524,1793,0,0
-693,-769,0,0,0,0,0,0,0,0,0,-1,531,1793,0,0
-686,-769,0,0,0,0,0,0,0,0,0,-1,538,1793,0,0
-679,-769,0,0,0,0,0,0,0,0,0,-1,545,1793,0,0
-672,-769,0,0,0,0,0,0,0,0,0,-1,552,1793,0,0
-665,-769,0,0,0,0,0,0,0,0,0,-1,559,1793,0,0
-658,-769,0,0,0,0,0,0,0,0,0,-1,566,1793,0,0
-651,-769,0,0,0,0,0,0,0,0,0,-1,573,1793,0,0
-644,-769,0,0,0,0,0,0,0,0,0,-1,580,1793,0,0
-637,-769,0,0,0,0,0,0,0,0,0,-1,587,1793,0,0
-630,-769,0,0,0,0,0,0,0,0,0,-1,594,1793,0,0
-623,-769,0,0,0,0,0,0,0,0,0,-1,601,1793,0,0
-616,-769,0,0,0,0,0,0,0,0,0,-1,608,1793,0,0
-609,-769,0,0,0,0,0,0,0,0,0,-1,615,1793,0,0
-602,-769,0,0,0,0,0,0,0,0,0,-1,622,1793,0,0
-595,-769,0,0,0,0,0,0,0,0,0,-1,629,1793,0,0
-588,-769,0,0,0,0,0,0,0,0,0,-1,636,1793,0,0
-581,-769,0,0,0,0,0,0,0,0,0,-1,643,1793,0,0
-574,-769,0,0,0,0,0,0,0,0,0,-1,650,1793,0,0
-567,-769,0,0,0,0,0,0,0,0,0,-1,657,1793,0,0
-560,-769,0,0,0,0,0,0,0,0,0,-1,664,1793,0,0
-553,-769,0,0,0,0,0,0,0,0,0,-1,671,1793,0,0
-546,-769,0,0,0,0,0,0,0,0,0,-1,678,1793,0,0
-539,-769,0,0,0,0,0,0,0,0,0,-1,685,1793,0,0
-532,-769,0,0,0,0,0,0,0,0,0,-1,692,1793,0,0
-525,-769,0,0,0,0,0,0,0,0,0,-1,699,1793,0,0
-518,-769,0,0,0,0,0,0,0,0,0,-1,706,1793,0,0
-511,-769,0,0,0,0,0,0,0,0,0,-1,713,1793,0,0
-504,-769,0,0,0,0,0,0,0,0,0,-1,720,1793,0,0
-497,-769,0,0,0,0,0,0,0,0,0,-1,727,1793,0,0
-490,-769,0,0,0,0,0,0,0,0,0,-1,734,1793,0,0
-483,-769,0,0,0,0,0,0,0,0,0,-1,741,1793,0,0
-476,-769,0,0,0,0,0,0,0,0,0,-1,748,1793,0,0
-469,-769,0,0,0,0,0,0,0,0,0,-1,755,1793,0,0
-462,-769,0,0,0,0,0,0,0,0,0,-1,762,1793,0,0
-455,-769,0,0,0,0,0,0,0,0,0,-1,769,1793,0,0
-448,-769,0,0,0,0,0,0,0,0,0,-1,776,1793,0,0
-441,-769,0,0,0,0,0,0,0,0,0,-1,783,1793,0,0
-434,-769,0,0,0,0,0,0,0,0,0,-1,790,1793,0,0
-427,-769,0,0,0,0,0,0,0,0,0,-1,797,1793,0,0
-420,-769,0,0,0,0,0,0,0,0,0,-1,804,1793,0,0
-413,-769,0,0,0,0,0,0,0,0,0,-1,811,1793,0,0
-406,-769,0,0,0,0,0,0,0,0,0,-1,818,1793,0,0
-399,-769,0,0,0,0,0,0,0,0,0,-1,825,1793,0,0
-392,-769,0,0,0,0,0,0,0,0,0,-1,832,1793,0,0
-385,-769,0,0,0,0,0,0,0,0,0,-1,839,1793,0,0
-378,-769,0,0,0,0,0,0,0,0,0,-1,846,1793,0,0
-371,-769,0,0,0,0,0,0,0,0,0,-1,853,1793,0,0
-364,-769,0,0,0,0,0,0,0,0,0,-1,860,1793,0,0
-357,-769,0,0,0,0,0,0,0,0,0,-1,867,1793,0,0
-350,-769,0,0,0,0,0,0,0,0,0,-1,874,1793,0,0
-343,-769,0,0,0,0,0,0,0,0,0,-1,881,1793,0,0
-336,-769,0,0,0,0,0,0,0,0,0,-1,888,1793,0,0
-329,-769,0,0,0,0,0,0,0,0,0,-1,895,1793,0,0
-322,-769,0,0,0,0,0,0,0,0,0,-1,902,1793,0,0
-315,-769,0,0,0,0,0,0,0,0,0,-1,909,1793,0,0
-308,-769,0,0,0,0,0,0,0,0,0,-1,916,1793,0,0
-301,-769,0,0,0,0,0,0,0,0,0,-1,923,1793,0,0
-294,-769,0,0,0,0,0,0,0,0,0,-1,930,1793,0,0
-287,-769,0,0,0,0,0,0,0,0,0,-1,937,1793,0,0
-280,-769,0,0,0,0,0,0,0,0,0,-1,944,1793,0,0
-273,-769,0,0,0,0,0,0,0,0,0,-1,951,1793,0,0
-266,-769,0,0,0,0,0,0,0,0,0,-1,958,1793,0,0
-259,-769,0,0,0,0,0,0,0,0,0,-1,965,1793,0,0
-252,-769,0,0,0,0,0,0,0,0,0,-1,972,1793,0,0
-245,-769,0,0,0,0,0,0,0,0,0,-1,979,1793,0,0
-238,-769,0,0,0,0,0,0,0,0,0,-1,986,1793,0,0
-231,-769,0,0,0,0,0,0,0,0,0,-1,993,1793,0,0
-224,-769,0,0,0,0,0,0,0,0,0,-1,1000,1793,0,0
-217,-769,0,0,0,0,0,0,0,0,0,-1,1007,1793,0,0
-210,-769,0,0,0,0,0,0,0,0,0,-1,1014,1793,0,0
-203,-769,0,0,0,0,0,0,0,0,0,-1,1021,1793,0,0
-196,-769,0,0,0,0,0,0,0,0,0,-1,1028,1793,0,0
-189,-769,0,0,0,0,0,0,0,0,0,-1,1035,1793,0,0
-182,-769,0,0,0,0,0,0,0,0,0,-1,1042,1793,0,0
-175,-769,0,0,0,0,0,0,0,0,0,-1,1049,1793,0,0
-168,-769,0,0,0,0,0,0,0,0,0,-1,1056,1793,0,0
-161,-769,-3.61145,12.4761,0,0,0,0,0,0,0,-1,1063,1793,-3.6114,-12.476
-154,-769,-0.813232,5.32874,0,0,0,0,0,0,0,-1,1070,1793,-0.813269,-5.32872
-147,-769,4.26587,4.7002,0,0,0,0,0,0,0,-1,1077,1793,4.26593,-4.70022
-140,-769,4.10376,5.28589,0,0,0,0,0,0,0,-1,1084,1793,4.10371,-5.28584
-133,-769,6.422,8.21777,0,0,0,0,0,0,0,-1,1091,1793,6.42198,-8.21773
-126,-769,-0.352295,19.326,0,0,0,0,0,0,0,-1,1098,1793,-0.352235,-19.326
-119,-769,6.01685,16.2577,0,0,0,0,0,0,0,-1,1105,1793,6.01689,-16.2576
-112,-769,5.76416,27.2615,0,0,0,0,0,0,0,-1,1112,1793,5.7642,-27.2615
-105,-769,4.97009,22.8479,0,0,0,0,0,0,0,-1,1119,1793,4.97006,-22.8479
-98,-769,4.69373,18.9142,0,0,0,0,0,0,0,-1,1126,1793,4.69376,-18.9142
-91,-769,4.41748,14.9805,0,0,0,0,0,0,0,-1,1133,1793,4.41746,-14.9805
-84,-769,3.2207,12.4565,0,0,0,0,0,0,0,-1,1140,1793,3.22066,-12.4565
-77,-769,2.48816,8.98486,0,0,0,0,0,0,0,-1,1147,1793,2.48815,-8.98489
-70,-769,1.04944,11.9852,0,0,0,0,0,0,0,-1,1154,1793,1.04947,-11.9852
-63,-769,-2.39709,9.60339,0,0,0,0,0,0,0,-1,1161,1793,-2.39706,-9.6034
-56,-769,-5.84363,7.22156,0,0,0,0,0,0,0,-1,1168,1793,-5.84359,-7.22157
-49,-769,-2.41443,3.95471,0,0,0,0,0,0,0,-1,1175,1793,-2.41446,-3.95471
-42,-769,-3.1991,2.64941,0,0,0,0,0,0,0,-1,1182,1793,-3.19914,-2.64944
-35,-769,-3.50183,1.73389,0,0,0,0,0,0,0,-1,1189,1793,-3.50189,-1.7339
-28,-769,-3.96985,1.14075,0,0,0,0,0,0,0,-1,1196,1793,-3.96985,-1.14078
-21,-769,9.98193,66.4116,0,0,0,0,0,0,0,-1,1203,1793,9.98188,-66.4116
-14,-769,9.53467,69.6656,0,0,0,0,0,0,0,-1,1210,1793,9.53465,-69.6657
-7,-769,9.80066,71.5276,0,0,0,0,0,0,0,-1,1217,1793,9.80068,-71.5275
0,-769,9.61108,72.0446,0.0202856,0.0080488,-0.0166809,0.0319348,-0.00360035,-0.60962,0.0225858,0.0476703,1224,1793,9.61109,-72.0446
7,-769,10.0012,72.1925,0.0173276,0.00994889,-0.0212268,0.0351833,-0.00790681,-0.699355,0.0264875,0.0436216,1231,1793,10.0012,-72.1925
14,-769,10.0922,72.3308,0.0131847,0.0119027,-0.0258508,0.0384025,-0.0133151,-0.773003,0.031008,0.0439312,1238,1793,10.0921,-72.3309
21,-769,10.1631,72.4818,0.00823389,0.0136313,-0.0295074,0.0405632,-0.018698,-0.831001,0.0349821,0.0470191,1245,1793,10.1631,-72.4819
28,-769,10.2385,72.656,0,0,0,0,0,0,0,-1,1252,1793,10.2385,-72.6559
35,-769,9.61316,73.562,0,0,0,0,0,0,0,-1,1259,1793,9.61312,-73.562
42,-769,8.83081,74.8958,0,0,0,0,0,0,0,-1,1266,1793,8.83078,-74.8957
49,-769,9.10986,72.9432,-0.0144162,0.013459,-0.0367395,0.0388157,-0.0397729,-0.966693,0.0453743,0.0415086,1273,1793,9.1099,-72.9432
56,-769,8.95752,72.7588,-0.0191972,0.0123771,-0.0362933,0.0361682,-0.0429883,-0.990548,0.0457576,0.0453146,1280,1793,8.95756,-72.7588
63,-769,8.91028,72.6028,-0.0233165,0.0113021,-0.0355199,0.0335057,-0.0455202,-1.01212,0.0458011,0.0486301,1287,1793,8.91023,-72.6028
70,-769,8.72876,72.6312,-0.0265078,0.0102268,-0.0342064,0.0306852,-0.0469662,-1.03178,0.0451593,0.043632,1294,1793,8.72881,-72.6313
77,-769,8.77515,72.6272,-0.0291416,0.00952393,-0.0320911,0.0276558,-0.0472734,-1.0565,0.0437518,0.045834,1301,1793,8.7751,-72.6272
84,-769,8.77954,72.5221,0,0,0,0,0,0,0,-1,1308,1793,8.77958,-72.5221
91,-769,8.82764,72.559,-0.0301472,0.0086407,-0.027848,0.0231825,-0.044689,-1.08956,0.039836,0.0472587,1315,1793,8.82767,-72.5589
98,-769,9.01465,72.8654,0,0,0,0,0,0,0,-1,1322,1793,9.01467,-72.8654
105,-769,8.44971,72.3824,-0.0284596,0.00861225,-0.0228156,0.0194724,-0.0393198,-1.12653,0.0345824,0.0441704,1329,1793,8.44974,-72.3825
112,-769,7.88196,71.8197,-0.0282782,0.0100485,-0.0225108,0.0204481,-0.0386778,-1.13802,0.034673,0.0474996,1336,1793,7.88191,-71.8197
119,-769,7.51648,71.4774,-0.0277735,0.0116157,-0.0217201,0.0212407,-0.0373985,-1.15366,0.0342811,0.0460633,1343,1793,7.51653,-71.4774
126,-769,7.38708,71.3085,-0.0269016,0.0131461,-0.020748,0.0219568,-0.0357123,-1.16922,0.0336096,0.0478785,1350,1793,7.3871,-71.3084
133,-769,7.56726,71.7678,0,0,0,0,0,0,0,-1,1357,1793,7.5672,-71.7678
140,-769,7.67346,71.406,0,0,0,0,0,0,0,-1,1364,1793,7.67345,-71.406
147,-769,7.54675,71.2114,0,0,0,0,0,0,0,-1,1371,1793,7.54677,-71.2114
154,-769,7.29382,55.4241,0,0,0,0,0,0,0,-1,1378,1793,7.29384,-55.4241
161,-769,6.57019,1.53223,0,0,0,0,0,0,0,-1,1385,1793,6.57019,-1.53226
168,-769,8.27637,0.756958,0,0,0,0,0,0,0,-1,1392,1793,8.27639,-0.756944
175,-769,8.47144,2.41174,0,0,0,0,0,0,0,-1,1399,1793,8.47147,-2.4118
182,-769,8.41479,4.05994,0,0,0,0,0,0,0,-1,1406,1793,8.41479,-4.05997
189,-769,8.25049,5.68433,0,0,0,0,0,0,0,-1,1413,1793,8.25054,-5.68428
196,-769,7.97729,7.42847,0,0,0,0,0,0,0,-1,1420,1793,7.9773,-7.42848
203,-769,22.0977,6.73889,0,0,0,0,0,0,0,-1,1427,1793,22.0977,-6.7389
210,-769,22.1115,7.77246,0,0,0,0,0,0,0,-1,1434,1793,22.1115,-7.77248
217,-769,22.4723,8.79102,0,0,0,0,0,0,0,-1,1441,1793,22.4723,-8.79099
224,-769,22.1348,9.35278,0,0,0,0,0,0,0,-1,1448,1793,22.1348,-9.35283
231,-769,3.13318,19.7184,0,0,0,0,0,0,0,-1,1455,1793,3.13323,-19.7184
238,-769,5.74512,18.6597,0,0,0,0,0,0,0,-1,1462,1793,5.74512,-18.6596
245,-769,5.80798,22.87,0,0,0,0,0,0,0,-1,1469,1793,5.80796,-22.87
252,-769,6.20837,28.394,0,0,0,0,0,0,0,-1,1476,1793,6.20833,-28.3941
259,-769,10.974,17.7698,0,0,0,0,0,0,0,-1,1483,1793,10.974,-17.7698
266,-769,15.8488,7.3905,0,0,0,0,0,0,0,-1,1490,1793,15.8488,-7.39046
273,-769,14.8075,7.56152,0,0,0,0,0,0,0,-1,1497,1793,14.8075,-7.56152
280,-769,13.6519,7.43054,0,0,0,0,0,0,0,-1,1504,1793,13.6518,-7.43058
287,-769,0,0,0,0,0,0,0,0,0,-1,1511,1793,0,0
294,-769,0,0,0,0,0,0,0,0,0,-1,1518,1793,0,0
301,-769,0,0,0,0,0,0,0,0,0,-1,1525,1793,0,0
308,-769,0,0,0,0,0,0,0,0,0,-1,1532,1793,0,0
315,-769,0,0,0,0,0,0,0,0,0,-1,1539,1793,0,0
322,-769,0,0,0,0,0,0,0,0,0,-1,1546,1793,0,0
329,-769,0,0,0,0,0,0,0,0,0,-1,1553,1793,0,0
336,-769,0,0,0,0,0,0,0,0,0,-1,1560,1793,0,0
343,-769,0,0,0,0,0,0,0,0,0,-1,1567,1793,0,0
350,-769,0,0,0,0,0,0,0,0,0,-1,1574,1793,0,0
357,-769,0,0,0,0,0,0,0,0,0,-1,1581,1793,0,0
364,-769,0,0,0,0,0,0,0,0,0,-1,1588,1793,0,0
371,-769,0,0,0,0,0,0,0,0,0,-1,1595,1793,0,0
378,-769,0,0,0,0,0,0,0,0,0,-1,1602,1793,0,0
385,-769,0,0,0,0,0,0,0,0,0,-1,1609,1793,0,0
392,-769,0,0,0,0,0,0,0,0,0,-1,1616,1793,0,0
399,-769,0,0,0,0,0,0,0,0,0,-1,1623,1793,0,0
406,-769,0,0,0,0,0,0,0,0,0,-1,1630,1793,0,0
413,-769,0,0,0,0,0,0,0,0,0,-1,1637,1793,0,0
420,-769,0,0,0,0,0,0,0,0,0,-1,1644,1793,0,0
427,-769,0,0,0,0,0,0,0,0,0,-1,1651,1793,0,0
434,-769,0,0,0,0,0,0,0,0,0,-1,1658,1793,0,0
441,-769,0,0,0,0,0,0,0,0,0,-1,1665,1793,0,0
448,-769,0,0,0,0,0,0,0,0,0,-1,1672,1793,0,0
455,-769,0,0,0,0,0,0,0,0,0,-1,1679,1793,0,0
462,-769,0,0,0,0,0,0,0,0,0,-1,1686,1793,0,0
469,-769,0,0,0,0,0,0,0,0,0,-1,1693,1793,0,0
476,-769,0,0,0,0,0,0,0,0,0,-1,1700,1793,0,0
483,-769,0,0,0,0,0,0,0,0,0,-1,1707,1793,0,0
490,-769,0,0,0,0,0,0,0,0,0,-1,1714,1793,0,0
497,-769,0,0,0,0,0,0,0,0,0,-1,1721,1793,0,0
504,-769,0,0,0,0,0,0,0,0,0,-1,1728,1793,0,0
511,-769,0,0,0,0,0,0,0,0,0,-1,1735,1793,0,0
518,-769,0,0,0,0,0,0,0,0,0,-1,1742,1793,0,0
525,-769,0,0,0,0,0,0,0,0,0,-1,1749,1793,0,0
532,-769,0,0,0,0,0,0,0,0,0,-1,1756,1793,0,0
539,-769,0,0,0,0,0,0,0,0,0,-1,1763,1793,0,0
546,-769,0,0,0,0,0,0,0,0,0,-1,1770,1793,0,0
553,-769,0,0,0,0,0,0,0,0,0,-1,1777,1793,0,0
560,-769,0,0,0,0,0,0,0,0,0,-1,1784,1793,0,0
567,-769,0,0,0,0,0,0,0,0,0,-1,1791,1793,0,0
574,-769,0,0,0,0,0,0,0,0,0,-1,1798,1793,0,0
581,-769,0,0,0,0,0,0,0,0,0,-1,1805,1793,0,0
588,-769,0,0,0,0,0,0,0,0,0,-1,1812,1793,0,0
595,-769,0,0,0,0,0,0,0,0,0,-1,1819,1793,0,0
602,-769,0,0,0,0,0,0,0,0,0,-1,1826,1793,0,0
609,-769,0,0,0,0,0,0,0,0,0,-1,1833,1793,0,0
616,-769,0,0,0,0,0,0,0,0,0,-1,1840,1793,0,0
623,-769,0,0,0,0,0,0,0,0,0,-1,1847,1793,0,0
630,-769,0,0,0,0,0,0,0,0,0,-1,1854,1793,0,0
637,-769,0,0,0,0,0,0,0,0,0,-1,1861,1793,0,0
644,-769,0,0,0,0,0,0,0,0,0,-1,1868,1793,0,0
651,-769,0,0,0,0,0,0,0,0,0,-1,1875,1793,0,0
658,-769,0,0,0,0,0,0,0,0,0,-1,1882,1793,0,0
665,-769,0,0,0,0,0,0,0,0,0,-1,1889,1793,0,0
672,-769,0,0,0,0,0,0,0,0,0,-1,1896,1793,0,0
679,-769,0,0,0,0,0,0,0,0,0,-1,1903,1793,0,0
686,-769,0,0,0,0,0,0,0,0,0,-1,1910,1793,0,0
693,-769,0,0,0,0,0,0,0,0,0,-1,1917,1793,0,0
700,-769,0,0,0,0,0,0,0,0,0,-1,1924,1793,0,0
707,-769,0,0,0,0,0,0,0,0,0,-1,1931,1793,0,0
714,-769,0,0,0,0,0,0,0,0,0,-1,1938,1793,0,0
721,-769,0,0,0,0,0,0,0,0,0,-1,1945,1793,0,0
728,-769,0,0,0,0,0,0,0,0,0,-1,1952,1793,0,0
735,-769,0,0,0,0,0,0,0,0,0,-1,1959,1793,0,0
742,-769,0,0,0,0,0,0,0,0,0,-1,1966,1793,0,0
749,-769,0,0,0,0,0,0,0,0,0,-1,1973,1793,0,0
756,-769,0,0,0,0,0,0,0,0,0,-1,1980,1793,0,0
763,-769,0,0,0,0,0,0,0,0,0,-1,1987,1793,0,0
770,-769,0,0,0,0,0,0,0,0,0,-1,1994,1793,0,0
777,-769,0,0,0,0,0,0,0,0,0,-1,2001,1793,0,0
784,-769,0,0,0,0,0,0,0,0,0,-1,2008,1793,0,0
791,-769,0,0,0,0,0,0,0,0,0,-1,2015,1793,0,0
798,-769,0,0,0,0,0,0,0,0,0,-1,2022,1793,0,0
805,-769,0,0,0,0,0,0,0,0,0,-1,2029,1793,0,0
812,-769,0,0,0,0,0,0,0,0,0,-1,2036,1793,0,0
-700,-776,0,0,0,0,0,0,0,0,0,-1,524,1800,0,0
-693,-776,0,0,0,0,0,0,0,0,0,-1,531,1800,0,0
-686,-776,0,0,0,0,0,0,0,0,0,-1,538,1800,0,0
-679,-776,0,0,0,0,0,0,0,0,0,-1,545,1800,0,0
-672,-776,0,0,0,0,0,0,0,0,0,-1,552,1800,0,0
-665,-776,0,0,0,0,0,0,0,0,0,-1,559,1800,0,0
-658,-776,0,0,0,0,0,0,0,0,0,-1,566,1800,0,0
-651,-776,0,0,0,0,0,0,0,0,0,-1,573,1800,0,0
-644,-776,0,0,0,0,0,0,0,0,0,-1,580,1800,0,0
-637,-776,0,0,0,0,0,0,0,0,0,-1,587,1800,0,0
-630,-776,0,0,0,0,0,0,0,0,0,-1,594,1800,0,0
-623,-776,0,0,0,0,0,0,0,0,0,-1,601,1800,0,0
-616,-776,0,0,0,0,0,0,0,0,0,-1,608,1800,0,0
-609,-776,0,0,0,0,0,0,0,0,0,-1,615,1800,0,0
-602,-776,0,0,0,0,0,0,0,0,0,-1,622,1800,0,0
-595,-776,0,0,0,0,0,0,0,0,0,-1,629,1800,0,0
-588,-776,0,0,0,0,0,0,0,0,0,-1,636,1800,0,0
-581,-776,0,0,0,0,0,0,0,0,0,-1,643,1800,0,0
-574,-776,0,0,0,0,0,0,0,0,0,-1,650,1800,0,0
-567,-776,0,0,0,0,0,0,0,0,0,-1,657,1800,0,0
-560,-776,0,0,0,0,0,0,0,0,0,-1,664,1800,0,0
-553,-776,0,0,0,0,0,0,0,0,0,-1,671,1800,0,0
-546,-776,0,0,0,0,0,0,0,0,0,-1,678,1800,0,0
-539,-776,0,0,0,0,0,0,0,0,0,-1,685,1800,0,0
-532,-776,0,0,0,0,0,0,0,0,0,-1,692,1800,0,0
-525,-776,0,0,0,0,0,0,0,0,0,-1,699,1800,0,0
-518,-776,0,0,0,0,0,0,0,0,0,-1,706,1800,0,0
-511,-776,0,0,0,0,0,0,0,0,0,-1,713,1800,0,0
-504,-776,0,0,0,0,0,0,0,0,0,-1,720,1800,0,0
-497,-776,0,0,0,0,0,0,0,0,0,-1,727,1800,0,0
-490,-776,0,0,0,0,0,0,0,0,0,-1,734,1800,0,0
-483,-776,0,0,0,0,0,0,0,0,0,-1,741,1800,0,0
-476,-776,0,0,0,0,0,0,0,0,0,-1,748,1800,0,0
-469,-776,0,0,0,0,0,0,0,0,0,-1,755,1800,0,0
-462,-776,0,0,0,0,0,0,0,0,0,-1,762,1800,0,0
-455,-776,0,0,0,0,0,0,0,0,0,-1,769,1800,0,0
-448,-776,0,0,0,0,0,0,0,0,0,-1,776,1800,0,0
-441,-776,0,0,0,0,0,0,0,0,0,-1,783,1800,0,0
-434,-776,0,0,0,0,0,0,0,0,0,-1,790,1800,0,0
-427,-776,0,0,0,0,0,0,0,0,0,-1,797,1800,0,0
-420,-776,0,0,0,0,0,0,0,0,0,-1,804,1800,0,0
-413,-776,0,0,0,0,0,0,0,0,0,-1,811,1800,0,0
-406,-776,0,0,0,0,0,0,0,0,0,-1,818,1800,0,0
-399,-776,0,0,0,0,0,0,0,0,0,-1,825,1800,0,0
-392,-776,0,0,0,0,0,0,0,0,0,-1,832,1800,0,0
-385,-776,0,0,0,0,0,0,0,0,0,-1,839,1800,0,0
-378,-776,0,0,0,0,0,0,0,0,0,-1,846,1800,0,0
-371,-776,0,0,0,0,0,0,0,0,0,-1,853,1800,0,0
-364,-776,0,0,0,0,0,0,0,0,0,-1,860,1800,0,0
-357,-776,0,0,0,0,0,0,0,0,0,-1,867,1800,0,0
-350,-776,0,0,0,0,0,0,0,0,0,-1,874,1800,0,0
-343,-776,0,0,0,0,0,0,0,0,0,-1,881,1800,0,0
-336,-776,0,0,0,0,0,0,0,0,0,-1,888,1800,0,0
-329,-776,0,0,0,0,0,0,0,0,0,-1,895,1800,0,0
-322,-776,0,0,0,0,0,0,0,0,0,-1,902,1800,0,0
-315,-776,0,0,0,0,0,0,0,0,0,-1,909,1800,0,0
-308,-776,0,0,0,0,0,0,0,0,0,-1,916,1800,0,0
-301,-776,0,0,0,0,0,0,0,0,0,-1,923,1800,0,0
-294,-776,0,0,0,0,0,0,0,0,0,-1,930,1800,0,0
-287,-776,0,0,0,0,0,0,0,0,0,-1,937,1800,0,0
-280,-776,0,0,0,0,0,0,0,0,0,-1,944,1800,0,0
-273,-776,0,0,0,0,0,0,0,0,0,-1,951,1800,0,0
-266,-776,0,0,0,0,0,0,0,0,0,-1,958,1800,0,0
-259,-776,0,0,0,0,0,0,0,0,0,-1,965,1800,0,0
-252,-776,0,0,0,0,0,0,0,0,0,-1,972,1800,0,0
-245,-776,0,0,0,0,0,0,0,0,0,-1,979,1800,0,0
-238,-776,0,0,0,0,0,0,0,0,0,-1,986,1800,0,0
-231,-776,0,0,0,0,0,0,0,0,0,-1,993,1800,0,0
-224,-776,0,0,0,0,0,0,0,0,0,-1,1000,1800,0,0
-217,-776,0,0,0,0,0,0,0,0,0,-1,1007,1800,0,0
-210,-776,0,0,0,0,0,0,0,0,0,-1,1014,1800,0,0
-203,-776,0,0,0,0,0,0,0,0,0,-1,1021,1800,0,0
-196,-776,0,0,0,0,0,0,0,0,0,-1,1028,1800,0,0
-189,-776,0,0,0,0,0,0,0,0,0,-1,1035,1800,0,0
-182,-776,0,0,0,0,0,0,0,0,0,-1,1042,1800,0,0
-175,-776,0,0,0,0,0,0,0,0,0,-1,1049,1800,0,0
-168,-776,0,0,0,0,0,0,0,0,0,-1,1056,1800,0,0
-161,-776,0,0,0,0,0,0,0,0,0,-1,1063,1800,0,0
-154,-776,0,0,0,0,0,0,0,0,0,-1,1070,1800,0,0
-147,-776,0,0,0,0,0,0,0,0,0,-1,1077,1800,0,0
-140,-776,2.98499,5.20911,0,0,0,0,0,0,0,-1,1084,1800,2.98493,-5.2091
-133,-776,6.72363,9.35828,0,0,0,0,0,0,0,-1,1091,1800,6.72358,-9.35824
-126,-776,6.55029,13.7832,0,0,0,0,0,0,0,-1,1098,1800,6.55029,-13.7832
-119,-776,5.72107,13.7787,0,0,0,0,0,0,0,-1,1105,1800,5.72106,-13.7787
-112,-776,6.84998,20.4421,0,0,0,0,0,0,0,-1,1112,1800,6.84993,-20.4421
-105,-776,4.46863,24.6742,0,0,0,0,0,0,0,-1,1119,1800,4.46868,-24.6742
-98,-776,4.31616,19.7659,0,0,0,0,0,0,0,-1,1126,1800,4.31619,-19.7659
-91,-776,3.30225,18.134,0,0,0,0,0,0,0,-1,1133,1800,3.30222,-18.134
-84,-776,2.67932,14.3162,0,0,0,0,0,0,0,-1,1140,1800,2.67926,-14.3161
-77,-776,0.580078,11.1272,0,0,0,0,0,0,0,-1,1147,1800,0.58002,-11.1272
-70,-776,-0.562866,12.3163,0,0,0,0,0,0,0,-1,1154,1800,-0.562897,-12.3163
-63,-776,-3.96106,9.97656,0,0,0,0,0,0,0,-1,1161,1800,-3.961,-9.97654
-56,-776,-7.35913,7.63672,0,0,0,0,0,0,0,-1,1168,1800,-7.3591,-7.63676
-49,-776,-7.62952,3.1908,0,0,0,0,0,0,0,-1,1175,1800,-7.62955,-3.19076
-42,-776,-3.41272,3.0249,0,0,0,0,0,0,0,-1,1182,1800,-3.41269,-3.02488
-35,-776,-3.71753,1.63635,0,0,0,0,0,0,0,-1,1189,1800,-3.71755,-1.63631
-28,-776,-4.03979,0.716064,0,0,0,0,0,0,0,-1,1196,1800,-4.03977,-0.716055
-21,-776,9.68713,72.5322,0,0,0,0,0,0,0,-1,1203,1800,9.68718,-72.5322
-14,-776,10.8044,71.1841,0,0,0,0,0,0,0,-1,1210,1800,10.8045,-71.1841
-7,-776,10.5791,71.2699,0,0,0,0,0,0,0,-1,1217,1800,10.5791,-71.2699
0,-776,9.91614,72.0334,0,0,0,0,0,0,0,-1,1224,1800,9.91611,-72.0334
7,-776,10.3911,72.158,0,0,0,0,0,0,0,-1,1231,1800,10.3911,-72.158
14,-776,10.6882,72.0554,0.0221196,0.012205,-0.0328928,0.0504266,-0.0161019,-0.710605,0.0400781,0.0466911,1238,1800,10.6882,-72.0554
21,-776,10.5894,72.3916,0.0151117,0.0144559,-0.0380198,0.052805,-0.0232374,-0.781086,0.0449958,0.0440782,1245,1800,10.5893,-72.3916
28,-776,10.7926,72.9192,0.00678788,0.0156443,-0.0420439,0.0534925,-0.0310603,-0.837867,0.049386,0.0424868,1252,1800,10.7925,-72.9192
35,-776,11.0454,73.5225,-0.00182114,0.0157335,-0.0452016,0.0530021,-0.0390897,-0.881296,0.0533711,0.0445349,1259,1800,11.0454,-73.5225
42,-776,8.54688,74.137,-0.00933825,0.0152221,-0.0467489,0.0512768,-0.045393,-0.913838,0.0558468,0.041091,1266,1800,8.5469,-74.137
49,-776,8.48938,72.9595,-0.0159788,0.0136534,-0.0473145,0.0484173,-0.0507427,-0.937133,0.0572553,0.0426401,1273,1800,8.48935,-72.9594
56,-776,8.54907,72.3663,-0.0223599,0.012047,-0.0466579,0.044572,-0.0548849,-0.962022,0.0575243,0.0454506,1280,1800,8.54907,-72.3663
63,-776,8.75537,72.1229,-0.0277676,0.0105363,-0.0457234,0.0409568,-0.0581881,-0.983729,0.0575288,0.0486206,1287,1800,8.75542,-72.1229
70,-776,8.65283,72.1687,-0.0320213,0.00894498,-0.0441119,0.0370974,-0.0601738,-1.00276,0.0566839,0.047535,1294,1800,8.65287,-72.1687
77,-776,8.73535,72.0643,0,0,0,0,0,0,0,-1,1301,1800,8.73529,-72.0644
84,-776,8.73816,72.2417,0,0,0,0,0,0,0,-1,1308,1800,8.7382,-72.2417
91,-776,8.6615,72.0504,0,0,0,0,0,0,0,-1,1315,1800,8.66146,-72.0504
98,-776,8.60437,72.524,0,0,0,0,0,0,0,-1,1322,1800,8.60434,-72.524
105,-776,8.07935,72.1936,-0.0348489,0.00671297,-0.0303376,0.0227046,-0.0508405,-1.08569,0.0434847,0.0443112,1329,1800,8.07934,-72.1937
112,-776,7.67041,71.6108,-0.0344801,0.00886436,-0.0300872,0.0242721,-0.0498878,-1.09751,0.0436593,0.0445768,1336,1800,7.67039,-71.6108
119,-776,7.41138,70.9436,-0.0337394,0.0113243,-0.0292693,0.0257299,-0.048145,-1.11343,0.0433012,0.0432917,1343,1800,7.41142,-70.9436
126,-776,7.05652,70.6929,-0.0326012,0.0137554,-0.0282237,0.0270985,-0.0459443,-1.12918,0.0426366,0.0482283,1350,1800,7.05654,-70.6929
133,-776,6.96619,70.7141,0,0,0,0,0,0,0,-1,1357,1800,6.96619,-70.7141
140,-776,7.47864,71.3676,0,0,0,0,0,0,0,-1,1364,1800,7.47861,-71.3675
147,-776,7.1377,66.0736,0,0,0,0,0,0,0,-1,1371,1800,7.13775,-66.0736
154,-776,38.4338,21.854,0,0,0,0,0,0,0,-1,1378,1800,38.4339,-21.854
161,-776,6.50293,1.1731,0,0,0,0,0,0,0,-1,1385,1800,6.5029,-1.17313
168,-776,8.44971,1.22913,0,0,0,0,0,0,0,-1,1392,1800,8.44974,-1.22915
175,-776,8.61523,2.87061,0,0,0,0,0,0,0,-1,1399,1800,8.6152,-2.87063
182,-776,8.54065,4.60645,0,0,0,0,0,0,0,-1,1406,1800,8.5407,-4.60643
189,-776,8.35303,6.28223,0,0,0,0,0,0,0,-1,1413,1800,8.35297,-6.28225
196,-776,8.0387,8.21704,0,0,0,0,0,0,0,-1,1420,1800,8.03865,-8.217
203,-776,7.91736,9.79919,0,0,0,0,0,0,0,-1,1427,1800,7.91735,-9.79922
210,-776,20.2479,7.85718,0,0,0,0,0,0,0,-1,1434,1800,20.248,-7.85719
217,-776,21.5171,9.3418,0,0,0,0,0,0,0,-1,1441,1800,21.5171,-9.34182
224,-776,3.09253,14.9313,0,0,0,0,0,0,0,-1,1448,1800,3.09254,-14.9313
231,-776,20.8671,9.21057,0,0,0,0,0,0,0,-1,1455,1800,20.867,-9.21054
238,-776,20.7511,9.05847,0,0,0,0,0,0,0,-1,1462,1800,20.7511,-9.05848
245,-776,3.80823,15.4108,0,0,0,0,0,0,0,-1,1469,1800,3.80826,-15.4108
252,-776,8.57837,20.2009,0,0,0,0,0,0,0,-1,1476,1800,8.57841,-20.2009
259,-776,14.1882,7.69055,0,0,0,0,0,0,0,-1,1483,1800,14.1882,-7.69061
266,-776,0,0,0,0,0,0,0,0,0,-1,1490,1800,0,0
273,-776,0,0,0,0,0,0,0,0,0,-1,1497,1800,0,0
280,-776,0,0,0,0,0,0,0,0,0,-1,1504,1800,0,0
287,-776,0,0,0,0,0,0,0,0,0,-1,1511,1800,0,0
294,-776,0,0,0,0,0,0,0,0,0,-1,1518,1800,0,0
301,-776,0,0,0,0,0,0,0,0,0,-1,1525,1800,0,0
308,-776,0,0,0,0,0,0,0,0,0,-1,1532,1800,0,0
315,-776,0,0,0,0,0,0,0,0,0,-1,1539,1800,0,0
322,-776,0,0,0,0,0,0,0,0,0,-1,1546,1800,0,0
329,-776,0,0,0,0,0,0,0,0,0,-1,1553,1800,0,0
336,-776,0,0,0,0,0,0,0,0,0,-1,1560,1800,0,0
343,-776,0,0,0,0,0,0,0,0,0,-1,1567,1800,0,0
350,-776,0,0,0,0,0,0,0,0,0,-1,1574,1800,0,0
357,-776,0,0,0,0,0,0,0,0,0,-1,1581,1800,0,0
364,-776,0,0,0,0,0,0,0,0,0,-1,1588,1800,0,0
371,-776,0,0,0,0,0,0,0,0,0,-1,1595,1800,0,0
378,-776,0,0,0,0,0,0,0,0,0,-1,1602,1800,0,0
385,-776,0,0,0,0,0,0,0,0,0,-1,1609,1800,0,0
392,-776,0,0,0,0,0,0,0,0,0,-1,1616,1800,0,0
399,-776,0,0,0,0,0,0,0,0,0,-1,1623,1800,0,0
406,-776,0,0,0,0,0,0,0,0,0,-1,1630,1800,0,0
413,-776,0,0,0,0,0,0,0,0,0,-1,1637,1800,0,0
420,-776,0,0,0,0,0,0,0,0,0,-1,1644,1800,0,0
427,-776,0,0,0,0,0,0,0,0,0,-1,1651,1800,0,0
434,-776,0,0,0,0,0,0,0,0,0,-1,1658,1800,0,0
441,-776,0,0,0,0,0,0,0,0,0,-1,1665,1800,0,0
448,-776,0,0,0,0,0,0,0,0,0,-1,1672,1800,0,0
455,-776,0,0,0,0,0,0,0,0,0,-1,1679,1800,0,0
462,-776,0,0,0,0,0,0,0,0,0,-1,1686,1800,0,0
469,-776,0,0,0,0,0,0,0,0,0,-1,1693,1800,0,0
476,-776,0,0,0,0,0,0,0,0,0,-1,1700,1800,0,0
483,-776,0,0,0,0,0,0,0,0,0,-1,1707,1800,0,0
490,-776,0,0,0,0,0,0,0,0,0,-1,1714,1800,0,0
497,-776,0,0,0,0,0,0,0,0,0,-1,1721,1800,0,0
504,-776,0,0,0,0,0,0,0,0,0,-1,1728,1800,0,0
511,-776,0,0,0,0,0,0,0,0,0,-1,1735,1800,0,0
518,-776,0,0,0,0,0,0,0,0,0,-1,1742,1800,0,0
525,-776,0,0,0,0,0,0,0,0,0,-1,1749,1800,0,0
532,-776,0,0,0,0,0,0,0,0,0,-1,1756,1800,0,0
539,-776,0,0,0,0,0,0,0,0,0,-1,1763,1800,0,0
546,-776,0,0,0,0,0,0,0,0,0,-1,1770,1800,0,0
553,-776,0,0,0,0,0,0,0,0,0,-1,1777,1800,0,0
560,-776,0,0,0,0,0,0,0,0,0,-1,1784,1800,0,0
567,-776,0,0,0,0,0,0,0,0,0,-1,1791,1800,0,0
574,-776,0,0,0,0,0,0,0,0,0,-1,1798,1800,0,0
581,-776,0,0,0,0,0,0,0,0,0,-1,1805,1800,0,0
588,-776,0,0,0,0,0,0,0,0,0,-1,1812,1800,0,0
595,-776,0,0,0,0,0,0,0,0,0,-1,1819,1800,0,0
602,-776,0,0,0,0,0,0,0,0,0,-1,1826,1800,0,0
609,-776,0,0,0,0,0,0,0,0,0,-1,1833,1800,0,0
616,-776,0,0,0,0,0,0,0,0,0,-1,1840,1800,0,0
623,-776,0,0,0,0,0,0,0,0,0,-1,1847,1800,0,0
630,-776,0,0,0,0,0,0,0,0,0,-1,1854,1800,0,0
637,-776,0,0,0,0,0,0,0,0,0,-1,1861,1800,0,0
644,-776,0,0,0,0,0,0,0,0,0,-1,1868,1800,0,0
651,-776,0,0,0,0,0,0,0,0,0,-1,1875,1800,0,0
658,-776,0,0,0,0,0,0,0,0,0,-1,1882,1800,0,0
665,-776,0,0,0,0,0,0,0,0,0,-1,1889,1800,0,0
672,-776,0,0,0,0,0,0,0,0,0,-1,1896,1800,0,0
679,-776,0,0,0,0,0,0,0,0,0,-1,1903,1800,0,0
686,-776,0,0,0,0,0,0,0,0,0,-1,1910,1800,0,0
693,-776,0,0,0,0,0,0,0,0,0,-1,1917,1800,0,0
700,-776,0,0,0,0,0,0,0,0,0,-1,1924,1800,0,0
707,-776,0,0,0,0,0,0,0,0,0,-1,1931,1800,0,0
714,-776,0,0,0,0,0,0,0,0,0,-1,1938,1800,0,0
721,-776,0,0,0,0,0,0,0,0,0,-1,1945,1800,0,0
728,-776,0,0,0,0,0,0,0,0,0,-1,1952,1800,0,0
735,-776,0,0,0,0,0,0,0,0,0,-1,1959,1800,0,0
742,-776,0,0,0,0,0,0,0,0,0,-1,1966,1800,0,0
749,-776,0,0,0,0,0,0,0,0,0,-1,1973,1800,0,0
756,-776,0,0,0,0,0,0,0,0,0,-1,1980,1800,0,0
763,-776,0,0,0,0,0,0,0,0,0,-1,1987,1800,0,0
770,-776,0,0,0,0,0,0,0,0,0,-1,1994,1800,0,0
777,-776,0,0,0,0,0,0,0,0,0,-1,2001,1800,0,0
784,-776,0,0,0,0,0,0,0,0,0,-1,2008,1800,0,0
791,-776,0,0,0,0,0,0,0,0,0,-1,2015,1800,0,0
798,-776,0,0,0,0,0,0,0,0,0,-1,2022,1800,0,0
805,-776,0,0,0,0,0,0,0,0,0,-1,2029,1800,0,0
812,-776,0,0,0,0,0,0,0,0,0,-1,2036,1800,0,0
-700,-783,0,0,0,0,0,0,0,0,0,-1,524,1807,0,0
-693,-783,0,0,0,0,0,0,0,0,0,-1,531,1807,0,0
-686,-783,0,0,0,0,0,0,0,0,0,-1,538,1807,0,0
-679,-783,0,0,0,0,0,0,0,0,0,-1,545,1807,0,0
-672,-783,0,0,0,0,0,0,0,0,0,-1,552,1807,0,0
-665,-783,0,0,0,0,0,0,0,0,0,-1,559,1807,0,0
-658,-783,0,0,0,0,0,0,0,0,0,-1,566,1807,0,0
-651,-783,0,0,0,0,0,0,0,0,0,-1,573,1807,0,0
-644,-783,0,0,0,0,0,0,0,0,0,-1,580,1807,0,0
-637,-783,0,0,0,0,0,0,0,0,0,-1,587,1807,0,0
-630,-783,0,0,0,0,0,0,0,0,0,-1,594,1807,0,0
-623,-783,0,0,0,0,0,0,0,0,0,-1,601,1807,0,0
-616,-783,0,0,0,0,0,0,0,0,0,-1,608,1807,0,0
-609,-783,0,0,0,0,0,0,0,0,0,-1,615,1807,0,0
-602,-783,0,0,0,0,0,0,0,0,0,-1,622,1807,0,0
-595,-783,0,0,0,0,0,0,0,0,0,-1,629,1807,0,0
-588,-783,0,0,0,0,0,0,0,0,0,-1,636,1807,0,0
-581,-783,0,0,0,0,0,0,0,0,0,-1,643,1807,0,0
-574,-783,0,0,0,0,0,0,0,0,0,-1,650,1807,0,0
-567,-783,0,0,0,0,0,0,0,0,0,-1,657,1807,0,0
-560,-783,0,0,0,0,0,0,0,0,0,-1,664,1807,0,0
-553,-783,0,0,0,0,0,0,0,0,0,-1,671,1807,0,0
-546,-783,0,0,0,0,0,0,0,0,0,-1,678,1807,0,0
-539,-783,0,0,0,0,0,0,0,0,0,-1,685,1807,0,0
-532,-783,0,0,0,0,0,0,0,0,0,-1,692,1807,0,0
-525,-783,0,0,0,0,0,0,0,0,0,-1,699,1807,0,0
-518,-783,0,0,0,0,0,0,0,0,0,-1,706,1807,0,0
-511,-783,0,0,0,0,0,0,0,0,0,-1,713,1807,0,0
-504,-783,0,0,0,0,0,0,0,0,0,-1,720,1807,0,0
-497,-783,0,0,0,0,0,0,0,0,0,-1,727,1807,0,0
-490,-783,0,0,0,0,0,0,0,0,0,-1,734,1807,0,0
-483,-783,0,0,0,0,0,0,0,0,0,-1,741,1807,0,0
-476,-783,0,0,0,0,0,0,0,0,0,-1,748,1807,0,0
-469,-783,0,0,0,0,0,0,0,0,0,-1,755,1807,0,0
-462,-783,0,0,0,0,0,0,0,0,0,-1,762,1807,0,0
-455,-783,0,0,0,0,0,0,0,0,0,-1,769,1807,0,0
-448,-783,0,0,0,0,0,0,0,0,0,-1,776,1807,0,0
-441,-783,0,0,0,0,0,0,0,0,0,-1,783,1807,0,0
-434,-783,0,0,0,0,0,0,0,0,0,-1,790,1807,0,0
-427,-783,0,0,0,0,0,0,0,0,0,-1,797,1807,0,0
-420,-783,0,0,0,0,0,0,0,0,0,-1,804,1807,0,0
-413,-783,0,0,0,0,0,0,0,0,0,-1,811,1807,0,0
-406,-783,0,0,0,0,0,0,0,0,0,-1,818,1807,0,0
-399,-783,0,0,0,0,0,0,0,0,0,-1,825,1807,0,0
-392,-783,0,0,0,0,0,0,0,0,0,-1,832,1807,0,0
-385,-783,0,0,0,0,0,0,0,0,0,-1,839,1807,0,0
-378,-783,0,0,0,0,0,0,0,0,0,-1,846,1807,0,0
-371,-783,0,0,0,0,0,0,0,0,0,-1,853,1807,0,0
-364,-783,0,0,0,0,0,0,0,0,0,-1,860,1807,0,0
-357,-783,0,0,0,0,0,0,0,0,0,-1,867,1807,0,0
-350,-783,0,0,0,0,0,0,0,0,0,-1,874,1807,0,0
-343,-783,0,0,0,0,0,0,0,0,0,-1,881,1807,0,0
-336,-783,0,0,0,0,0,0,0,0,0,-1,888,1807,0,0
-329,-783,0,0,0,0,0,0,0,0,0,-1,895,1807,0,0
-322,-783,0,0,0,0,0,0,0,0,0,-1,902,1807,0,0
-315,-783,0,0,0,0,0,0,0,0,0,-1,909,1807,0,0
-308,-783,0,0,0,0,0,0,0,0,0,-1,916,1807,0,0
-301,-783,0,0,0,0,0,0,0,0,0,-1,923,1807,0,0
-294,-783,0,0,0,0,0,0,0,0,0,-1,930,1807,0,0
-287,-783,0,0,0,0,0,0,0,0,0,-1,937,1807,0,0
-280,-783,0,0,0,0,0,0,0,0,0,-1,944,1807,0,0
-273,-783,0,0,0,0,0,0,0,0,0,-1,951,1807,0,0
-266,-783,0,0,0,0,0,0,0,0,0,-1,958,1807,0,0
-259,-783,0,0,0,0,0,0,0,0,0,-1,965,1807,0,0
-252,-783,0,0,0,0,0,0,0,0,0,-1,972,1807,0,0
-245,-783,0,0,0,0,0,0,0,0,0,-1,979,1807,0,0
-238,-783,0,0,0,0,0,0,0,0,0,-1,986,1807,0,0
-231,-783,0,0,0,0,0,0,0,0,0,-1,993,1807,0,0
-224,-783,0,0,0,0,0,0,0,0,0,-1,1000,1807,0,0
-217,-783,0,0,0,0,0,0,0,0,0,-1,1007,1807,0,0
-210,-783,0,0,0,0,0,0,0,0,0,-1,1014,1807,0,0
-203,-783,0,0,0,0,0,0,0,0,0,-1,1021,1807,0,0
-196,-783,0,0,0,0,0,0,0,0,0,-1,1028,1807,0,0
-189,-783,0,0,0,0,0,0,0,0,0,-1,1035,1807,0,0
-182,-783,0,0,0,0,0,0,0,0,0,-1,1042,1807,0,0
-175,-783,0,0,0,0,0,0,0,0,0,-1,1049,1807,0,0
-168,-783,0,0,0,0,0,0,0,0,0,-1,1056,1807,0,0
-161,-783,0,0,0,0,0,0,0,0,0,-1,1063,1807,0,0
-154,-783,0,0,0,0,0,0,0,0,0,-1,1070,1807,0,0
-147,-783,0,0,0,0,0,0,0,0,0,-1,1077,1807,0,0
-140,-783,0,0,0,0,0,0,0,0,0,-1,1084,1807,0,0
-133,-783,0,0,0,0,0,0,0,0,0,-1,1091,1807,0,0
-126,-783,0,0,0,0,0,0,0,0,0,-1,1098,1807,0,0
-119,-783,0,0,0,0,0,0,0,0,0,-1,1105,1807,0,0
-112,-783,5.33936,14.7699,0,0,0,0,0,0,0,-1,1112,1807,5.33931,-14.7699
-105,-783,6.44263,21.2224,0,0,0,0,0,0,0,-1,1119,1807,6.44263,-21.2224
-98,-783,5.54773,20.5695,0,0,0,0,0,0,0,-1,1126,1807,5.54772,-20.5695
-91,-783,2.6106,20.2491,0,0,0,0,0,0,0,-1,1133,1807,2.61056,-20.2492
-84,-783,-0.0491943,14.5743,0,0,0,0,0,0,0,-1,1140,1807,-0.0491562,-14.5743
-77,-783,0.332764,12.7788,0,0,0,0,0,0,0,-1,1147,1807,0.332743,-12.7788
-70,-783,-1.93176,5.12817,0,0,0,0,0,0,0,-1,1154,1807,-1.93171,-5.12813
-63,-783,-5.31702,10.54,0,0,0,0,0,0,0,-1,1161,1807,-5.31703,-10.54
-56,-783,-6.26135,6.9679,0,0,0,0,0,0,0,-1,1168,1807,-6.26136,-6.96785
-49,-783,-3.17688,4.59705,0,0,0,0,0,0,0,-1,1175,1807,-3.17685,-4.5971
-42,-783,-3.72876,3.1405,0,0,0,0,0,0,0,-1,1182,1807,-3.72874,-3.14055
-35,-783,-3.97046,1.59399,0,0,0,0,0,0,0,-1,1189,1807,-3.97041,-1.59401
-28,-783,-4.12195,0.270386,0,0,0,0,0,0,0,-1,1196,1807,-4.12197,-0.270408
-21,-783,11.0148,71.2064,0,0,0,0,0,0,0,-1,1203,1807,11.0147,-71.2064
-14,-783,10.9576,71.3416,0,0,0,0,0,0,0,-1,1210,1807,10.9576,-71.3415
-7,-783,10.6051,71.4146,0,0,0,0,0,0,0,-1,1217,1807,10.6051,-71.4146
0,-783,10.6499,70.7345,0,0,0,0,0,0,0,-1,1224,1807,10.6498,-70.7344
7,-783,10.9142,71.2606,0.0425523,0.00785897,-0.0309241,0.0606628,-0.0102515,-0.529795,0.0442566,0.0474593,1231,1807,10.9141,-71.2606
14,-783,11.1864,71.8457,0.0342135,0.0113051,-0.0402562,0.0646133,-0.0190948,-0.646795,0.0506547,0.0495539,1238,1807,11.1864,-71.8457
21,-783,11.5283,72.3915,0.024622,0.0141421,-0.0473182,0.0669895,-0.0282254,-0.730254,0.0564705,0.0467413,1245,1807,11.5284,-72.3915
28,-783,11.91,73.0936,0.0134947,0.0155292,-0.0525542,0.067076,-0.0380522,-0.795075,0.061462,0.0431075,1252,1807,11.91,-73.0936
35,-783,12.433,73.6625,0.00215745,0.0153806,-0.0564428,0.0655977,-0.0480597,-0.843701,0.06588,0.0436628,1259,1807,12.4329,-73.6625
42,-783,13.0129,74.3381,-0.00788599,0.0144439,-0.0584214,0.0627577,-0.0561998,-0.879815,0.0687149,0.0440756,1266,1807,13.013,-74.3381
49,-783,8.05908,72.0023,-0.0166753,0.0123786,-0.0590032,0.0586169,-0.0629135,-0.906101,0.0701802,0.0475586,1273,1807,8.05911,-72.0023
56,-783,7.88428,71.8119,0,0,0,0,0,0,0,-1,1280,1807,7.88423,-71.8119
63,-783,8.51685,71.5795,0,0,0,0,0,0,0,-1,1287,1807,8.51691,-71.5795
70,-783,8.6438,71.6558,0,0,0,0,0,0,0,-1,1294,1807,8.64378,-71.6558
77,-783,9.36597,73.3339,-0.0421224,0.00418825,-0.0519209,0.0378832,-0.0758173,-0.995148,0.0668517,0.0488152,1301,1807,9.36593,-73.3339
84,-783,7.82849,72.4908,-0.0432438,0.00266536,-0.0481206,0.0330259,-0.0736044,-1.00795,0.0630315,0.0482267,1308,1807,7.82846,-72.4909
91,-783,7.38831,72.4473,-0.0436965,0.00220126,-0.0452428,0.0299826,-0.0714778,-1.02011,0.0601891,0.0445651,1315,1807,7.38835,-72.4472
98,-783,7.2793,72.1184,-0.042704,0.0021321,-0.0420178,0.0273382,-0.0679101,-1.03046,0.0566302,0.0443591,1322,1807,7.2793,-72.1184
105,-783,7.70715,72.0264,0,0,0,0,0,0,0,-1,1329,1807,7.70711,-72.0264
112,-783,7.66602,71.3766,-0.0409259,0.00620463,-0.0390766,0.0282716,-0.0629929,-1.05673,0.0539478,0.0439513,1336,1807,7.66596,-71.3765
119,-783,7.45264,70.6283,-0.0398699,0.00976945,-0.0383196,0.0306051,-0.0607055,-1.07278,0.0536645,0.042825,1343,1807,7.45263,-70.6283
126,-783,6.703,70.1838,0,0,0,0,0,0,0,-1,1350,1807,6.70305,-70.1839
133,-783,5.23511,69.3481,0,0,0,0,0,0,0,-1,1357,1807,5.23515,-69.3482
140,-783,4.97742,66.9573,0,0,0,0,0,0,0,-1,1364,1807,4.97744,-66.9573
147,-783,7.61633,65.818,0,0,0,0,0,0,0,-1,1371,1807,7.61632,-65.818
154,-783,38.2109,17.545,0,0,0,0,0,0,0,-1,1378,1807,38.2109,-17.545
161,-783,39.5087,17.5449,0,0,0,0,0,0,0,-1,1385,1807,39.5087,-17.545
168,-783,8.62561,1.79944,0,0,0,0,0,0,0,-1,1392,1807,8.62561,-1.79946
175,-783,8.78699,3.40857,0,0,0,0,0,0,0,-1,1399,1807,8.78697,-3.40854
182,-783,8.70984,5.14661,0,0,0,0,0,0,0,-1,1406,1807,8.70989,-5.14666
189,-783,8.55762,6.79871,0,0,0,0,0,0,0,-1,1413,1807,8.55766,-6.79872
196,-783,8.25488,8.66626,0,0,0,0,0,0,0,-1,1420,1807,8.25492,-8.66628
203,-783,7.86755,10.5735,0,0,0,0,0,0,0,-1,1427,1807,7.8676,-10.5734
210,-783,5.6969,8.99231,0,0,0,0,0,0,0,-1,1434,1807,5.69693,-8.99234
217,-783,5.28503,3.80872,0,0,0,0,0,0,0,-1,1441,1807,5.285,-3.80868
224,-783,3.22571,6.62903,0,0,0,0,0,0,0,-1,1448,1807,3.2257,-6.62907
231,-783,4.27942,4.56262,0,0,0,0,0,0,0,-1,1455,1807,4.27948,-4.56267
238,-783,0,0,0,0,0,0,0,0,0,-1,1462,1807,0,0
245,-783,0,0,0,0,0,0,0,0,0,-1,1469,1807,0,0
252,-783,0,0,0,0,0,0,0,0,0,-1,1476,1807,0,0
259,-783,0,0,0,0,0,0,0,0,0,-1,1483,1807,0,0
266,-783,0,0,0,0,0,0,0,0,0,-1,1490,1807,0,0
273,-783,0,0,0,0,0,0,0,0,0,-1,1497,1807,0,0
280,-783,0,0,0,0,0,0,0,0,0,-1,1504,1807,0,0
287,-783,0,0,0,0,0,0,0,0,0,-1,1511,1807,0,0
294,-783,0,0,0,0,0,0,0,0,0,-1,1518,1807,0,0
301,-783,0,0,0,0,0,0,0,0,0,-1,1525,1807,0,0
308,-783,0,0,0,0,0,0,0,0,0,-1,1532,1807,0,0
315,-783,0,0,0,0,0,0,0,0,0,-1,1539,1807,0,0
322,-783,0,0,0,0,0,0,0,0,0,-1,1546,1807,0,0
329,-783,0,0,0,0,0,0,0,0,0,-1,1553,1807,0,0
336,-783,0,0,0,0,0,0,0,0,0,-1,1560,1807,0,0
343,-783,0,0,0,0,0,0,0,0,0,-1,1567,1807,0,0
350,-783,0,0,0,0,0,0,0,0,0,-1,1574,1807,0,0
357,-783,0,0,0,0,0,0,0,0,0,-1,1581,1807,0,0
364,-783,0,0,0,0,0,0,0,0,0,-1,1588,1807,0,0
371,-783,0,0,0,0,0,0,0,0,0,-1,1595,1807,0,0
378,-783,0,0,0,0,0,0,0,0,0,-1,1602,1807,0,0
385,-783,0,0,0,0,0,0,0,0,0,-1,1609,1807,0,0
392,-783,0,0,0,0,0,0,0,0,0,-1,1616,1807,0,0
399,-783,0,0,0,0,0,0,0,0,0,-1,1623,1807,0,0
406,-783,0,0,0,0,0,0,0,0,0,-1,1630,1807,0,0
413,-783,0,0,0,0,0,0,0,0,0,-1,1637,1807,0,0
420,-783,0,0,0,0,0,0,0,0,0,-1,1644,1807,0,0
427,-783,0,0,0,0,0,0,0,0,0,-1,1651,1807,0,0
434,-783,0,0,0,0,0,0,0,0,0,-1,1658,1807,0,0
441,-783,0,0,0,0,0,0,0,0,0,-1,1665,1807,0,0
448,-783,0,0,0,0,0,0,0,0,0,-1,1672,1807,0,0
455,-783,0,0,0,0,0,0,0,0,0,-1,1679,1807,0,0
462,-783,0,0,0,0,0,0,0,0,0,-1,1686,1807,0,0
469,-783,0,0,0,0,0,0,0,0,0,-1,1693,1807,0,0
476,-783,0,0,0,0,0,0,0,0,0,-1,1700,1807,0,0
483,-783,0,0,0,0,0,0,0,0,0,-1,1707,1807,0,0
490,-783,0,0,0,0,0,0,0,0,0,-1,1714,1807,0,0
497,-783,0,0,0,0,0,0,0,0,0,-1,1721,1807,0,0
504,-783,0,0,0,0,0,0,0,0,0,-1,1728,1807,0,0
511,-783,0,0,0,0,0,0,0,0,0,-1,1735,1807,0,0
518,-783,0,0,0,0,0,0,0,0,0,-1,1742,1807,0,0
525,-783,0,0,0,0,0,0,0,0,0,-1,1749,1807,0,0
532,-783,0,0,0,0,0,0,0,0,0,-1,1756,1807,0,0
539,-783,0,0,0,0,0,0,0,0,0,-1,1763,1807,0,0
546,-783,0,0,0,0,0,0,0,0,0,-1,1770,1807,0,0
553,-783,0,0,0,0,0,0,0,0,0,-1,1777,1807,0,0
560,-783,0,0,0,0,0,0,0,0,0,-1,1784,1807,0,0
567,-783,0,0,0,0,0,0,0,0,0,-1,1791,1807,0,0
574,-783,0,0,0,0,0,0,0,0,0,-1,1798,1807,0,0
581,-783,0,0,0,0,0,0,0,0,0,-1,1805,1807,0,0
588,-783,0,0,0,0,0,0,0,0,0,-1,1812,1807,0,0
595,-783,0,0,0,0,0,0,0,0,0,-1,1819,1807,0,0
602,-783,0,0,0,0,0,0,0,0,0,-1,1826,1807,0,0
609,-783,0,0,0,0,0,0,0,0,0,-1,1833,1807,0,0
616,-783,0,0,0,0,0,0,0,0,0,-1,1840,1807,0,0
623,-783,0,0,0,0,0,0,0,0,0,-1,1847,1807,0,0
630,-783,0,0,0,0,0,0,0,0,0,-1,1854,1807,0,0
637,-783,0,0,0,0,0,0,0,0,0,-1,1861,1807,0,0
644,-783,0,0,0,0,0,0,0,0,0,-1,1868,1807,0,0
651,-783,0,0,0,0,0,0,0,0,0,-1,1875,1807,0,0
658,-783,0,0,0,0,0,0,0,0,0,-1,1882,1807,0,0
665,-783,0,0,0,0,0,0,0,0,0,-1,1889,1807,0,0
672,-783,0,0,0,0,0,0,0,0,0,-1,1896,1807,0,0
679,-783,0,0,0,0,0,0,0,0,0,-1,1903,1807,0,0
686,-783,0,0,0,0,0,0,0,0,0,-1,1910,1807,0,0
693,-783,0,0,0,0,0,0,0,0,0,-1,1917,1807,0,0
700,-783,0,0,0,0,0,0,0,0,0,-1,1924,1807,0,0
707,-783,0,0,0,0,0,0,0,0,0,-1,1931,1807,0,0
714,-783,0,0,0,0,0,0,0,0,0,-1,1938,1807,0,0
721,-783,0,0,0,0,0,0,0,0,0,-1,1945,1807,0,0
728,-783,0,0,0,0,0,0,0,0,0,-1,1952,1807,0,0
735,-783,0,0,0,0,0,0,0,0,0,-1,1959,1807,0,0
742,-783,0,0,0,0,0,0,0,0,0,-1,1966,1807,0,0
749,-783,0,0,0,0,0,0,0,0,0,-1,1973,1807,0,0
756,-783,0,0,0,0,0,0,0,0,0,-1,1980,1807,0,0
763,-783,0,0,0,0,0,0,0,0,0,-1,1987,1807,0,0
770,-783,0,0,0,0,0,0,0,0,0,-1,1994,1807,0,0
777,-783,0,0,0,0,0,0,0,0,0,-1,2001,1807,0,0
784,-783,0,0,0,0,0,0,0,0,0,-1,2008,1807,0,0
791,-783,0,0,0,0,0,0,0,0,0,-1,2015,1807,0,0
798,-783,0,0,0,0,0,0,0,0,0,-1,2022,1807,0,0
805,-783,0,0,0,0,0,0,0,0,0,-1,2029,1807,0,0
812,-783,0,0,0,0,0,0,0,0,0,-1,2036,1807,0,0
-700,-790,0,0,0,0,0,0,0,0,0,-1,524,1814,0,0
-693,-790,0,0,0,0,0,0,0,0,0,-1,531,1814,0,0
-686,-790,0,0,0,0,0,0,0,0,0,-1,538,1814,0,0
-679,-790,0,0,0,0,0,0,0,0,0,-1,545,1814,0,0
-672,-790,0,0,0,0,0,0,0,0,0,-1,552,1814,0,0
-665,-790,0,0,0,0,0,0,0,0,0,-1,559,1814,0,0
-658,-790,0,0,0,0,0,0,0,0,0,-1,566,1814,0,0
-651,-790,0,0,0,0,0,0,0,0,0,-1,573,1814,0,0
-644,-790,0,0,0,0,0,0,0,0,0,-1,580,1814,0,0
-637,-790,0,0,0,0,0,0,0,0,0,-1,587,1814,0,0
-630,-790,0,0,0,0,0,0,0,0,0,-1,594,1814,0,0
-623,-790,0,0,0,0,0,0,0,0,0,-1,601,1814,0,0
-616,-790,0,0,0,0,0,0,0,0,0,-1,608,1814,0,0
-609,-790,0,0,0,0,0,0,0,0,0,-1,615,1814,0,0
-602,-790,0,0,0,0,0,0,0,0,0,-1,622,1814,0,0
-595,-790,0,0,0,0,0,0,0,0,0,-1,629,1814,0,0
-588,-790,0,0,0,0,0,0,0,0,0,-1,636,1814,0,0
-581,-790,0,0,0,0,0,0,0,0,0,-1,643,1814,0,0
-574,-790,0,0,0,0,0,0,0,0,0,-1,650,1814,0,0
-567,-790,0,0,0,0,0,0,0,0,0,-1,657,1814,0,0
-560,-790,0,0,0,0,0,0,0,0,0,-1,664,1814,0,0
-553,-790,0,0,0,0,0,0,0,0,0,-1,671,1814,0,0
-546,-790,0,0,0,0,0,0,0,0,0,-1,678,1814,0,0
-539,-790,0,0,0,0,0,0,0,0,0,-1,685,1814,0,0
-532,-790,0,0,0,0,0,0,0,0,0,-1,692,1814,0,0
-525,-790,0,0,0,0,0,0,0,0,0,-1,699,1814,0,0
-518,-790,0,0,0,0,0,0,0,0,0,-1,706,1814,0,0
-511,-790,0,0,0,0,0,0,0,0,0,-1,713,1814,0,0
-504,-790,0,0,0,0,0,0,0,0,0,-1,720,1814,0,0
-497,-790,0,0,0,0,0,0,0,0,0,-1,727,1814,0,0
-490,-790,0,0,0,0,0,0,0,0,0,-1,734,1814,0,0
-483,-790,0,0,0,0,0,0,0,0,0,-1,741,1814,0,0
-476,-790,0,0,0,0,0,0,0,0,0,-1,748,1814,0,0
-469,-790,0,0,0,0,0,0,0,0,0,-1,755,1814,0,0
-462,-790,0,0,0,0,0,0,0,0,0,-1,762,1814,0,0
-455,-790,0,0,0,0,0,0,0,0,0,-1,769,1814,0,0
-448,-790,0,0,0,0,0,0,0,0,0,-1,776,1814,0,0
-441,-790,0,0,0,0,0,0,0,0,0,-1,783,1814,0,0
-434,-790,0,0,0,0,0,0,0,0,0,-1,790,1814,0,0
-427,-790,0,0,0,0,0,0,0,0,0,-1,797,1814,0,0
-420,-790,0,0,0,0,0,0,0,0,0,-1,804,1814,0,0
-413,-790,0,0,0,0,0,0,0,0,0,-1,811,1814,0,0
-406,-790,0,0,0,0,0,0,0,0,0,-1,818,1814,0,0
-399,-790,0,0,0,0,0,0,0,0,0,-1,825,1814,0,0
-392,-790,0,0,0,0,0,0,0,0,0,-1,832,1814,0,0
-385,-790,0,0,0,0,0,0,0,0,0,-1,839,1814,0,0
-378,-790,0,0,0,0,0,0,0,0,0,-1,846,1814,0,0
-371,-790,0,0,0,0,0,0,0,0,0,-1,853,1814,0,0
-364,-790,0,0,0,0,0,0,0,0,0,-1,860,1814,0,0
-357,-790,0,0,0,0,0,0,0,0,0,-1,867,1814,0,0
-350,-790,0,0,0,0,0,0,0,0,0,-1,874,1814,0,0
-343,-790,0,0,0,0,0,0,0,0,0,-1,881,1814,0,0
-336,-790,0,0,0,0,0,0,0,0,0,-1,888,1814,0,0
-329,-790,0,0,0,0,0,0,0,0,0,-1,895,1814,0,0
-322,-790,0,0,0,0,0,0,0,0,0,-1,902,1814,0,0
-315,-790,0,0,0,0,0,0,0,0,0,-1,909,1814,0,0
-308,-790,0,0,0,0,0,0,0,0,0,-1,916,1814,0,0
-301,-790,0,0,0,0,0,0,0,0,0,-1,923,1814,0,0
-294,-790,0,0,0,0,0,0,0,0,0,-1,930,1814,0,0
-287,-790,0,0,0,0,0,0,0,0,0,-1,937,1814,0,0
-280,-790,0,0,0,0,0,0,0,0,0,-1,944,1814,0,0
-273,-790,0,0,0,0,0,0,0,0,0,-1,951,1814,0,0
-266,-790,0,0,0,0,0,0,0,0,0,-1,958,1814,0,0
-259,-790,0,0,0,0,0,0,0,0,0,-1,965,1814,0,0
-252,-790,0,0,0,0,0,0,0,0,0,-1,972,1814,0,0
-245,-790,0,0,0,0,0,0,0,0,0,-1,979,1814,0,0
-238,-790,0,0,0,0,0,0,0,0,0,-1,986,1814,0,0
-231,-790,0,0,0,0,0,0,0,0,0,-1,993,1814,0,0
-224,-790,0,0,0,0,0,0,0,0,0,-1,1000,1814,0,0
-217,-790,0,0,0,0,0,0,0,0,0,-1,1007,1814,0,0
-210,-790,0,0,0,0,0,0,0,0,0,-1,1014,1814,0,0
-203,-790,0,0,0,0,0,0,0,0,0,-1,1021,1814,0,0
-196,-790,0,0,0,0,0,0,0,0,0,-1,1028,1814,0,0
-189,-790,0,0,0,0,0,0,0,0,0,-1,1035,1814,0,0
-182,-790,0,0,0,0,0,0,0,0,0,-1,1042,1814,0,0
-175,-790,0,0,0,0,0,0,0,0,0,-1,1049,1814,0,0
-168,-790,0,0,0,0,0,0,0,0,0,-1,1056,1814,0,0
-161,-790,0,0,0,0,0,0,0,0,0,-1,1063,1814,0,0
-154,-790,0,0,0,0,0,0,0,0,0,-1,1070,1814,0,0
-147,-790,0,0,0,0,0,0,0,0,0,-1,1077,1814,0,0
-140,-790,0,0,0,0,0,0,0,0,0,-1,1084,1814,0,0
-133,-790,0,0,0,0,0,0,0,0,0,-1,1091,1814,0,0
-126,-790,0,0,0,0,0,0,0,0,0,-1,1098,1814,0,0
-119,-790,0,0,0,0,0,0,0,0,0,-1,1105,1814,0,0
-112,-790,0,0,0,0,0,0,0,0,0,-1,1112,1814,0,0
-105,-790,0,0,0,0,0,0,0,0,0,-1,1119,1814,0,0
-98,-790,0,0,0,0,0,0,0,0,0,-1,1126,1814,0,0
-91,-790,0,0,0,0,0,0,0,0,0,-1,1133,1814,0,0
-84,-790,0,0,0,0,0,0,0,0,0,-1,1140,1814,0,0
-77,-790,-0.969238,5.30847,0,0,0,0,0,0,0,-1,1147,1814,-0.969277,-5.3085
-70,-790,-1.23169,4.98914,0,0,0,0,0,0,0,-1,1154,1814,-1.23163,-4.98916
-63,-790,-1.69128,4.32263,0,0,0,0,0,0,0,-1,1161,1814,-1.69128,-4.32258
-56,-790,-2.24756,3.75305,0,0,0,0,0,0,0,-1,1168,1814,-2.24758,-3.75302
-49,-790,-3.11011,3.35779,0,0,0,0,0,0,0,-1,1175,1814,-3.11006,-3.35781
-42,-790,0.593262,1.19165,0,0,0,0,0,0,0,-1,1182,1814,0.593225,-1.19165
-35,-790,0.307129,-0.20105,0,0,0,0,0,0,0,-1,1189,1814,0.307178,0.201006
-28,-790,-2.78467,0.785156,0,0,0,0,0,0,0,-1,1196,1814,-2.78471,-0.785183
-21,-790,10.933,71.1864,0,0,0,0,0,0,0,-1,1203,1814,10.933,-71.1865
-14,-790,10.8639,71.3148,0,0,0,0,0,0,0,-1,1210,1814,10.8639,-71.3148
-7,-790,10.4451,72.1361,0,0,0,0,0,0,0,-1,1217,1814,10.445,-72.1361
0,-790,11.3461,70.6877,0,0,0,0,0,0,0,-1,1224,1814,11.346,-70.6878
7,-790,11.6237,71.2062,0.061241,0.0043392,-0.0345462,0.0775438,-0.0119636,-0.440927,0.0561105,0.0470471,1231,1814,11.6237,-71.2061
14,-790,11.9438,71.797,0.0500219,0.00876432,-0.0476083,0.0812785,-0.0224923,-0.580957,0.0630352,0.0474775,1238,1814,11.9438,-71.797
21,-790,12.5858,72.2141,0.0372558,0.0121565,-0.0570675,0.0831373,-0.0337249,-0.677166,0.0694517,0.0446553,1245,1814,12.5859,-72.2141
28,-790,13.0082,73.2645,0,0,0,0,0,0,0,-1,1252,1814,13.0081,-73.2645
35,-790,13.6685,73.906,0.0083717,0.0130455,-0.0682233,0.0789719,-0.0575547,-0.802518,0.0791463,0.0452324,1259,1814,13.6685,-73.906
42,-790,14.3145,74.5482,-0.00467016,0.0115282,-0.0707202,0.0746115,-0.0677535,-0.842412,0.0822263,0.0463467,1266,1814,14.3144,-74.5483
49,-790,14.7491,75.0957,-0.016009,0.00895332,-0.0713471,0.0689027,-0.0759584,-0.87199,0.0836686,0.0499107,1273,1814,14.7492,-75.0957
56,-790,15.2039,75.7148,0,0,0,0,0,0,0,-1,1280,1814,15.2038,-75.7149
63,-790,8.30139,70.8589,0,0,0,0,0,0,0,-1,1287,1814,8.30142,-70.8589
70,-790,9.94641,73.6997,-0.0428244,0.000667181,-0.0669791,0.0493421,-0.0914994,-0.942363,0.0825202,0.0432244,1294,1814,9.94643,-73.6996
77,-790,9.52771,73.4365,-0.0486891,-0.00186704,-0.0631558,0.0420772,-0.0926334,-0.96289,0.0795799,0.0449689,1301,1814,9.52773,-73.4365
84,-790,8.70544,72.6523,-0.0500014,-0.00385696,-0.0584957,0.0359523,-0.0898106,-0.973244,0.0747958,0.0454369,1308,1814,8.70549,-72.6523
91,-790,8.30566,72.553,-0.050581,-0.00454907,-0.0551084,0.0321566,-0.0872866,-0.983212,0.0713671,0.0469934,1315,1814,8.30571,-72.553
98,-790,8.14551,72.3911,-0.0495953,-0.00431246,-0.0519434,0.0297096,-0.0836174,-0.990926,0.0678521,0.0474259,1322,1814,8.14548,-72.3912
105,-790,8.02515,71.9376,0,0,0,0,0,0,0,-1,1329,1814,8.02519,-71.9376
112,-790,7.75586,71.3226,-0.0474137,0.00147404,-0.0495019,0.0322383,-0.078178,-1.01473,0.0655623,0.0466582,1336,1814,7.75586,-71.3226
119,-790,7.39636,70.4193,-0.0459063,0.00640401,-0.0489157,0.0357181,-0.0752204,-1.03091,0.0653898,0.0439454,1343,1814,7.39632,-70.4194
126,-790,6.8335,69.3181,0,0,0,0,0,0,0,-1,1350,1814,6.83347,-69.3181
133,-790,5.8761,68.2377,0,0,0,0,0,0,0,-1,1357,1814,5.87615,-68.2376
140,-790,5.15344,66.8671,0,0,0,0,0,0,0,-1,1364,1814,5.1534,-66.8671
147,-790,4.97949,65.6539,0,0,0,0,0,0,0,-1,1371,1814,4.97944,-65.6539
154,-790,40.215,13.2396,0,0,0,0,0,0,0,-1,1378,1814,40.2149,-13.2396
161,-790,39.3429,13.0336,0,0,0,0,0,0,0,-1,1385,1814,39.3429,-13.0336
168,-790,7.04077,2.23279,0,0,0,0,0,0,0,-1,1392,1814,7.04082,-2.23275
175,-790,9.03918,3.98535,0,0,0,0,0,0,0,-1,1399,1814,9.0392,-3.98535
182,-790,8.96997,5.67896,0,0,0,0,0,0,0,-1,1406,1814,8.97001,-5.6789
189,-790,8.59729,6.86975,0,0,0,0,0,0,0,-1,1413,1814,8.59728,-6.86972
196,-790,8.21924,9.29053,0,0,0,0,0,0,0,-1,1420,1814,8.21924,-9.29048
203,-790,0,0,0,0,0,0,0,0,0,-1,1427,1814,0,0
210,-790,0,0,0,0,0,0,0,0,0,-1,1434,1814,0,0
217,-790,0,0,0,0,0,0,0,0,0,-1,1441,1814,0,0
224,-790,0,0,0,0,0,0,0,0,0,-1,1448,1814,0,0
231,-790,0,0,0,0,0,0,0,0,0,-1,1455,1814,0,0
238,-790,0,0,0,0,0,0,0,0,0,-1,1462,1814,0,0
245,-790,0,0,0,0,0,0,0,0,0,-1,1469,1814,0,0
252,-790,0,0,0,0,0,0,0,0,0,-1,1476,1814,0,0
259,-790,0,0,0,0,0,0,0,0,0,-1,1483,1814,0,0
266,-790,0,0,0,0,0,0,0,0,0,-1,1490,1814,0,0
273,-790,0,0,0,0,0,0,0,0,0,-1,1497,1814,0,0
280,-790,0,0,0,0,0,0,0,0,0,-1,1504,1814,0,0
287,-790,0,0,0,0,0,0,0,0,0,-1,1511,1814,0,0
294,-790,0,0,0,0,0,0,0,0,0,-1,1518,1814,0,0
301,-790,0,0,0,0,0,0,0,0,0,-1,1525,1814,0,0
308,-790,0,0,0,0,0,0,0,0,0,-1,1532,1814,0,0
315,-790,0,0,0,0,0,0,0,0,0,-1,1539,1814,0,0
322,-790,0,0,0,0,0,0,0,0,0,-1,1546,1814,0,0
329,-790,0,0,0,0,0,0,0,0,0,-1,1553,1814,0,0
336,-790,0,0,0,0,0,0,0,0,0,-1,1560,1814,0,0
343,-790,0,0,0,0,0,0,0,0,0,-1,1567,1814,0,0
350,-790,0,0,0,0,0,0,0,0,0,-1,1574,1814,0,0
357,-790,0,0,0,0,0,0,0,0,0,-1,1581,1814,0,0
364,-790,0,0,0,0,0,0,0,0,0,-1,1588,1814,0,0
371,-790,0,0,0,0,0,0,0,0,0,-1,1595,1814,0,0
378,-790,0,0,0,0,0,0,0,0,0,-1,1602,1814,0,0
385,-790,0,0,0,0,0,0,0,0,0,-1,1609,1814,0,0
392,-790,0,0,0,0,0,0,0,0,0,-1,1616,1814,0,0
399,-790,0,0,0,0,0,0,0,0,0,-1,1623,1814,0,0
406,-790,0,0,0,0,0,0,0,0,0,-1,1630,1814,0,0
413,-790,0,0,0,0,0,0,0,0,0,-1,1637,1814,0,0
420,-790,0,0,0,0,0,0,0,0,0,-1,1644,1814,0,0
427,-790,0,0,0,0,0,0,0,0,0,-1,1651,1814,0,0
434,-790,0,0,0,0,0,0,0,0,0,-1,1658,1814,0,0
441,-790,0,0,0,0,0,0,0,0,0,-1,1665,1814,0,0
448,-790,0,0,0,0,0,0,0,0,0,-1,1672,1814,0,0
455,-790,0,0,0,0,0,0,0,0,0,-1,1679,1814,0,0
462,-790,0,0,0,0,0,0,0,0,0,-1,1686,1814,0,0
469,-790,0,0,0,0,0,0,0,0,0,-1,1693,1814,0,0
476,-790,0,0,0,0,0,0,0,0,0,-1,1700,1814,0,0
483,-790,0,0,0,0,0,0,0,0,0,-1,1707,1814,0,0
490,-790,0,0,0,0,0,0,0,0,0,-1,1714,1814,0,0
497,-790,0,0,0,0,0,0,0,0,0,-1,1721,1814,0,0
504,-790,0,0,0,0,0,0,0,0,0,-1,1728,1814,0,0
511,-790,0,0,0,0,0,0,0,0,0,-1,1735,1814,0,0
518,-790,0,0,0,0,0,0,0,0,0,-1,1742,1814,0,0
525,-790,0,0,0,0,0,0,0,0,0,-1,1749,1814,0,0
532,-790,0,0,0,0,0,0,0,0,0,-1,1756,1814,0,0
539,-790,0,0,0,0,0,0,0,0,0,-1,1763,1814,0,0
546,-790,0,0,0,0,0,0,0,0,0,-1,1770,1814,0,0
553,-790,0,0,0,0,0,0,0,0,0,-1,1777,1814,0,0
560,-790,0,0,0,0,0,0,0,0,0,-1,1784,1814,0,0
567,-790,0,0,0,0,0,0,0,0,0,-1,1791,1814,0,0
574,-790,0,0,0,0,0,0,0,0,0,-1,1798,1814,0,0
581,-790,0,0,0,0,0,0,0,0,0,-1,1805,1814,0,0
588,-790,0,0,0,0,0,0,0,0,0,-1,1812,1814,0,0
595,-790,0,0,0,0,0,0,0,0,0,-1,1819,1814,0,0
602,-790,0,0,0,0,0,0,0,0,0,-1,1826,1814,0,0
609,-790,0,0,0,0,0,0,0,0,0,-1,1833,1814,0,0
616,-790,0,0,0,0,0,0,0,0,0,-1,1840,1814,0,0
623,-790,0,0,0,0,0,0,0,0,0,-1,1847,1814,0,0
630,-790,0,0,0,0,0,0,0,0,0,-1,1854,1814,0,0
637,-790,0,0,0,0,0,0,0,0,0,-1,1861,1814,0,0
644,-790,0,0,0,0,0,0,0,0,0,-1,1868,1814,0,0
651,-790,0,0,0,0,0,0,0,0,0,-1,1875,1814,0,0
658,-790,0,0,0,0,0,0,0,0,0,-1,1882,1814,0,0
665,-790,0,0,0,0,0,0,0,0,0,-1,1889,1814,0,0
672,-790,0,0,0,0,0,0,0,0,0,-1,1896,1814,0,0
679,-790,0,0,0,0,0,0,0,0,0,-1,1903,1814,0,0
686,-790,0,0,0,0,0,0,0,0,0,-1,1910,1814,0,0
693,-790,0,0,0,0,0,0,0,0,0,-1,1917,1814,0,0
700,-790,0,0,0,0,0,0,0,0,0,-1,1924,1814,0,0
707,-790,0,0,0,0,0,0,0,0,0,-1,1931,1814,0,0
714,-790,0,0,0,0,0,0,0,0,0,-1,1938,1814,0,0
721,-790,0,0,0,0,0,0,0,0,0,-1,1945,1814,0,0
728,-790,0,0,0,0,0,0,0,0,0,-1,1952,1814,0,0
735,-790,0,0,0,0,0,0,0,0,0,-1,1959,1814,0,0
742,-790,0,0,0,0,0,0,0,0,0,-1,1966,1814,0,0
749,-790,0,0,0,0,0,0,0,0,0,-1,1973,1814,0,0
756,-790,0,0,0,0,0,0,0,0,0,-1,1980,1814,0,0
763,-790,0,0,0,0,0,0,0,0,0,-1,1987,1814,0,0
770,-790,0,0,0,0,0,0,0,0,0,-1,1994,1814,0,0
777,-790,0,0,0,0,0,0,0,0,0,-1,2001,1814,0,0
784,-790,0,0,0,0,0,0,0,0,0,-1,2008,1814,0,0
791,-790,0,0,0,0,0,0,0,0,0,-1,2015,1814,0,0
798,-790,0,0,0,0,0,0,0,0,0,-1,2022,1814,0,0
805,-790,0,0,0,0,0,0,0,0,0,-1,2029,1814,0,0
812,-790,0,0,0,0,0,0,0,0,0,-1,2036,1814,0,0
-700,-797,0,0,0,0,0,0,0,0,0,-1,524,1821,0,0
-693,-797,0,0,0,0,0,0,0,0,0,-1,531,1821,0,0
-686,-797,0,0,0,0,0,0,0,0,0,-1,538,1821,0,0
-679,-797,0,0,0,0,0,0,0,0,0,-1,545,1821,0,0
-672,-797,0,0,0,0,0,0,0,0,0,-1,552,1821,0,0
-665,-797,0,0,0,0,0,0,0,0,0,-1,559,1821,0,0
-658,-797,0,0,0,0,0,0,0,0,0,-1,566,1821,0,0
-651,-797,0,0,0,0,0,0,0,0,0,-1,573,1821,0,0
-644,-797,0,0,0,0,0,0,0,0,0,-1,580,1821,0,0
-637,-797,0,0,0,0,0,0,0,0,0,-1,587,1821,0,0
-630,-797,0,0,0,0,0,0,0,0,0,-1,594,1821,0,0
-623,-797,0,0,0,0,0,0,0,0,0,-1,601,1821,0,0
-616,-797,0,0,0,0,0,0,0,0,0,-1,608,1821,0,0
-609,-797,0,0,0,0,0,0,0,0,0,-1,615,1821,0,0
-602,-797,0,0,0,0,0,0,0,0,0,-1,622,1821,0,0
-595,-797,0,0,0,0,0,0,0,0,0,-1,629,1821,0,0
-588,-797,0,0,0,0,0,0,0,0,0,-1,636,1821,0,0
-581,-797,0,0,0,0,0,0,0,0,0,-1,643,1821,0,0
-574,-797,0,0,0,0,0,0,0,0,0,-1,650,1821,0,0
-567,-797,0,0,0,0,0,0,0,0,0,-1,657,1821,0,0
-560,-797,0,0,0,0,0,0,0,0,0,-1,664,1821,0,0
-553,-797,0,0,0,0,0,0,0,0,0,-1,671,1821,0,0
-546,-797,0,0,0,0,0,0,0,0,0,-1,678,1821,0,0
-539,-797,0,0,0,0,0,0,0,0,0,-1,685,1821,0,0
-532,-797,0,0,0,0,0,0,0,0,0,-1,692,1821,0,0
-525,-797,0,0,0,0,0,0,0,0,0,-1,699,1821,0,0
-518,-797,0,0,0,0,0,0,0,0,0,-1,706,1821,0,0
-511,-797,0,0,0,0,0,0,0,0,0,-1,713,1821,0,0
-504,-797,0,0,0,0,0,0,0,0,0,-1,720,1821,0,0
-497,-797,0,0,0,0,0,0,0,0,0,-1,727,1821,0,0
-490,-797,0,0,0,0,0,0,0,0,0,-1,734,1821,0,0
-483,-797,0,0,0,0,0,0,0,0,0,-1,741,1821,0,0
-476,-797,0,0,0,0,0,0,0,0,0,-1,748,1821,0,0
-469,-797,0,0,0,0,0,0,0,0,0,-1,755,1821,0,0
-462,-797,0,0,0,0,0,0,0,0,0,-1,762,1821,0,0
-455,-797,0,0,0,0,0,0,0,0,0,-1,769,1821,0,0
-448,-797,0,0,0,0,0,0,0,0,0,-1,776,1821,0,0
-441,-797,0,0,0,0,0,0,0,0,0,-1,783,1821,0,0
-434,-797,0,0,0,0,0,0,0,0,0,-1,790,1821,0,0
-427,-797,0,0,0,0,0,0,0,0,0,-1,797,1821,0,0
-420,-797,0,0,0,0,0,0,0,0,0,-1,804,1821,0,0
-413,-797,0,0,0,0,0,0,0,0,0,-1,811,1821,0,0
-406,-797,0,0,0,0,0,0,0,0,0,-1,818,1821,0,0
-399,-797,0,0,0,0,0,0,0,0,0,-1,825,1821,0,0
-392,-797,0,0,0,0,0,0,0,0,0,-1,832,1821,0,0
-385,-797,0,0,0,0,0,0,0,0,0,-1,839,1821,0,0
-378,-797,0,0,0,0,0,0,0,0,0,-1,846,1821,0,0
-371,-797,0,0,0,0,0,0,0,0,0,-1,853,1821,0,0
-364,-797,0,0,0,0,0,0,0,0,0,-1,860,1821,0,0
-357,-797,0,0,0,0,0,0,0,0,0,-1,867,1821,0,0
-350,-797,0,0,0,0,0,0,0,0,0,-1,874,1821,0,0
-343,-797,0,0,0,0,0,0,0,0,0,-1,881,1821,0,0
-336,-797,0,0,0,0,0,0,0,0,0,-1,888,1821,0,0
-329,-797,0,0,0,0,0,0,0,0,0,-1,895,1821,0,0
-322,-797,0,0,0,0,0,0,0,0,0,-1,902,1821,0,0
-315,-797,0,0,0,0,0,0,0,0,0,-1,909,1821,0,0
-308,-797,0,0,0,0,0,0,0,0,0,-1,916,1821,0,0
-301,-797,0,0,0,0,0,0,0,0,0,-1,923,1821,0,0
-294,-797,0,0,0,0,0,0,0,0,0,-1,930,1821,0,0
-287,-797,0,0,0,0,0,0,0,0,0,-1,937,1821,0,0
-280,-797,0,0,0,0,0,0,0,0,0,-1,944,1821,0,0
-273,-797,0,0,0,0,0,0,0,0,0,-1,951,1821,0,0
-266,-797,0,0,0,0,0,0,0,0,0,-1,958,1821,0,0
-259,-797,0,0,0,0,0,0,0,0,0,-1,965,1821,0,0
-252,-797,0,0,0,0,0,0,0,0,0,-1,972,1821,0,0
-245,-797,0,0,0,0,0,0,0,0,0,-1,979,1821,0,0
-238,-797,0,0,0,0,0,0,0,0,0,-1,986,1821,0,0
-231,-797,0,0,0,0,0,0,0,0,0,-1,993,1821,0,0
-224,-797,0,0,0,0,0,0,0,0,0,-1,1000,1821,0,0
-217,-797,0,0,0,0,0,0,0,0,0,-1,1007,1821,0,0
-210,-797,0,0,0,0,0,0,0,0,0,-1,1014,1821,0,0
-203,-797,0,0,0,0,0,0,0,0,0,-1,1021,1821,0,0
-196,-797,0,0,0,0,0,0,0,0,0,-1,1028,1821,0,0
-189,-797,0,0,0,0,0,0,0,0,0,-1,1035,1821,0,0
-182,-797,0,0,0,0,0,0,0,0,0,-1,1042,1821,0,0
-175,-797,0,0,0,0,0,0,0,0,0,-1,1049,1821,0,0
-168,-797,0,0,0,0,0,0,0,0,0,-1,1056,1821,0,0
-161,-797,0,0,0,0,0,0,0,0,0,-1,1063,1821,0,0
-154,-797,0,0,0,0,0,0,0,0,0,-1,1070,1821,0,0
-147,-797,0,0,0,0,0,0,0,0,0,-1,1077,1821,0,0
-140,-797,0,0,0,0,0,0,0,0,0,-1,1084,1821,0,0
-133,-797,0,0,0,0,0,0,0,0,0,-1,1091,1821,0,0
-126,-797,0,0,0,0,0,0,0,0,0,-1,1098,1821,0,0
-119,-797,0,0,0,0,0,0,0,0,0,-1,1105,1821,0,0
-112,-797,0,0,0,0,0,0,0,0,0,-1,1112,1821,0,0
-105,-797,0,0,0,0,0,0,0,0,0,-1,1119,1821,0,0
-98,-797,0,0,0,0,0,0,0,0,0,-1,1126,1821,0,0
-91,-797,0,0,0,0,0,0,0,0,0,-1,1133,1821,0,0
-84,-797,0,0,0,0,0,0,0,0,0,-1,1140,1821,0,0
-77,-797,0,0,0,0,0,0,0,0,0,-1,1147,1821,0,0
-70,-797,0,0,0,0,0,0,0,0,0,-1,1154,1821,0,0
-63,-797,0,0,0,0,0,0,0,0,0,-1,1161,1821,0,0
-56,-797,0,0,0,0,0,0,0,0,0,-1,1168,1821,0,0
-49,-797,0,0,0,0,0,0,0,0,0,-1,1175,1821,0,0
-42,-797,0.579834,0.692871,0,0,0,0,0,0,0,-1,1182,1821,0.579856,-0.692816
-35,-797,-0.185425,5.55396,0,0,0,0,0,0,0,-1,1189,1821,-0.18542,-5.55396
-28,-797,-0.310181,4.71509,0,0,0,0,0,0,0,-1,1196,1821,-0.310228,-4.71503
-21,-797,10.8378,71.2842,0,0,0,0,0,0,0,-1,1203,1821,10.8378,-71.2842
-14,-797,10.6846,71.3632,0,0,0,0,0,0,0,-1,1210,1821,10.6846,-71.3632
-7,-797,12.1896,70.7964,0,0,0,0,0,0,0,-1,1217,1821,12.1896,-70.7964
0,-797,12.2891,71.1453,0,0,0,0,0,0,0,-1,1224,1821,12.2891,-71.1453
7,-797,12.3933,71.4386,0.084877,-0.00132422,-0.0369771,0.0985652,-0.0150124,-0.354539,0.0712435,0.0499346,1231,1821,12.3933,-71.4386
14,-797,12.7888,71.8369,0.0702215,0.00400894,-0.0546563,0.101016,-0.0267857,-0.513092,0.0778247,0.0478607,1238,1821,12.7888,-71.8369
21,-797,13.5258,72.389,0.0536226,0.00770331,-0.0667325,0.101235,-0.0399088,-0.619714,0.0840142,0.0443024,1245,1821,13.5257,-72.389
28,-797,14.4579,73.0154,0,0,0,0,0,0,0,-1,1252,1821,14.4579,-73.0154
35,-797,14.379,73.9376,0,0,0,0,0,0,0,-1,1259,1821,14.379,-73.9376
42,-797,15.4781,74.6937,0,0,0,0,0,0,0,-1,1266,1821,15.4782,-74.6938
49,-797,15.969,75.256,0,0,0,0,0,0,0,-1,1273,1821,15.969,-75.256
56,-797,10.2666,74.5835,0,0,0,0,0,0,0,-1,1280,1821,10.2666,-74.5835
63,-797,10.246,74.384,-0.037929,-0.00400871,-0.0814017,0.0621809,-0.104119,-0.888104,0.0970254,0.040703,1287,1821,10.246,-74.384
70,-797,10.0701,74.069,-0.0474003,-0.00781346,-0.078978,0.0538137,-0.109027,-0.908179,0.0958009,0.0437821,1294,1821,10.07,-74.0689
77,-797,9.63965,73.7177,-0.054835,-0.0112682,-0.0745731,0.0446379,-0.110741,-0.927498,0.0923746,0.0429962,1301,1821,9.63966,-73.7177
84,-797,9.21387,73.2755,-0.0563426,-0.0137937,-0.0690286,0.0371645,-0.107301,-0.934879,0.0866216,0.0464889,1308,1821,9.21386,-73.2756
91,-797,8.74475,73.0398,-0.0570559,-0.0147737,-0.0651765,0.0326046,-0.104434,-0.942228,0.082663,0.0473726,1315,1821,8.74477,-73.0397
98,-797,8.47339,72.5939,-0.0561935,-0.0140299,-0.0625095,0.0308571,-0.10108,-0.948037,0.0796896,0.0473073,1322,1821,8.47335,-72.5939
105,-797,8.23682,72.0132,0,0,0,0,0,0,0,-1,1329,1821,8.23676,-72.0131
112,-797,7.74194,71.3695,-0.0536146,-0.0060678,-0.0613875,0.0359888,-0.0956713,-0.97014,0.0785742,0.0467756,1336,1821,7.74193,-71.3695
119,-797,7.27649,70.4882,-0.0514684,0.000610633,-0.0611239,0.0410105,-0.0918683,-0.986762,0.0785683,0.044134,1343,1821,7.2765,-70.4882
126,-797,6.55518,69.3623,0,0,0,0,0,0,0,-1,1350,1821,6.55523,-69.3623
133,-797,5.8158,68.1761,0,0,0,0,0,0,0,-1,1357,1821,5.81582,-68.1762
140,-797,5.26343,67.0458,0,0,0,0,0,0,0,-1,1364,1821,5.26337,-67.0458
147,-797,4.9541,65.9318,0,0,0,0,0,0,0,-1,1371,1821,4.95407,-65.9318
154,-797,40.2623,8.88733,0,0,0,0,0,0,0,-1,1378,1821,40.2623,-8.88731
161,-797,42.2798,8.17371,0,0,0,0,0,0,0,-1,1385,1821,42.2798,-8.17367
168,-797,0,0,0,0,0,0,0,0,0,-1,1392,1821,0,0
175,-797,0,0,0,0,0,0,0,0,0,-1,1399,1821,0,0
182,-797,0,0,0,0,0,0,0,0,0,-1,1406,1821,0,0
189,-797,0,0,0,0,0,0,0,0,0,-1,1413,1821,0,0
196,-797,0,0,0,0,0,0,0,0,0,-1,1420,1821,0,0
203,-797,0,0,0,0,0,0,0,0,0,-1,1427,1821,0,0
210,-797,0,0,0,0,0,0,0,0,0,-1,1434,1821,0,0
217,-797,0,0,0,0,0,0,0,0,0,-1,1441,1821,0,0
224,-797,0,0,0,0,0,0,0,0,0,-1,1448,1821,0,0
231,-797,0,0,0,0,0,0,0,0,0,-1,1455,1821,0,0
238,-797,0,0,0,0,0,0,0,0,0,-1,1462,1821,0,0
245,-797,0,0,0,0,0,0,0,0,0,-1,1469,1821,0,0
252,-797,0,0,0,0,0,0,0,0,0,-1,1476,1821,0,0
259,-797,0,0,0,0,0,0,0,0,0,-1,1483,1821,0,0
266,-797,0,0,0,0,0,0,0,0,0,-1,1490,1821,0,0
273,-797,0,0,0,0,0,0,0,0,0,-1,1497,1821,0,0
280,-797,0,0,0,0,0,0,0,0,0,-1,1504,1821,0,0
287,-797,0,0,0,0,0,0,0,0,0,-1,1511,1821,0,0
294,-797,0,0,0,0,0,0,0,0,0,-1,1518,1821,0,0
301,-797,0,0,0,0,0,0,0,0,0,-1,1525,1821,0,0
308,-797,0,0,0,0,0,0,0,0,0,-1,1532,1821,0,0
315,-797,0,0,0,0,0,0,0,0,0,-1,1539,1821,0,0
322,-797,0,0,0,0,0,0,0,0,0,-1,1546,1821,0,0
329,-797,0,0,0,0,0,0,0,0,0,-1,1553,1821,0,0
336,-797,0,0,0,0,0,0,0,0,0,-1,1560,1821,0,0
343,-797,0,0,0,0,0,0,0,0,0,-1,1567,1821,0,0
350,-797,0,0,0,0,0,0,0,0,0,-1,1574,1821,0,0
357,-797,0,0,0,0,0,0,0,0,0,-1,1581,1821,0,0
364,-797,0,0,0,0,0,0,0,0,0,-1,1588,1821,0,0
371,-797,0,0,0,0,0,0,0,0,0,-1,1595,1821,0,0
378,-797,0,0,0,0,0,0,0,0,0,-1,1602,1821,0,0
385,-797,0,0,0,0,0,0,0,0,0,-1,1609,1821,0,0
392,-797,0,0,0,0,0,0,0,0,0,-1,1616,1821,0,0
399,-797,0,0,0,0,0,0,0,0,0,-1,1623,1821,0,0
406,-797,0,0,0,0,0,0,0,0,0,-1,1630,1821,0,0
413,-797,0,0,0,0,0,0,0,0,0,-1,1637,1821,0,0
420,-797,0,0,0,0,0,0,0,0,0,-1,1644,1821,0,0
427,-797,0,0,0,0,0,0,0,0,0,-1,1651,1821,0,0
434,-797,0,0,0,0,0,0,0,0,0,-1,1658,1821,0,0
441,-797,0,0,0,0,0,0,0,0,0,-1,1665,1821,0,0
448,-797,0,0,0,0,0,0,0,0,0,-1,1672,1821,0,0
455,-797,0,0,0,0,0,0,0,0,0,-1,1679,1821,0,0
462,-797,0,0,0,0,0,0,0,0,0,-1,1686,1821,0,0
469,-797,0,0,0,0,0,0,0,0,0,-1,1693,1821,0,0
476,-797,0,0,0,0,0,0,0,0,0,-1,1700,1821,0,0
483,-797,0,0,0,0,0,0,0,0,0,-1,1707,1821,0,0
490,-797,0,0,0,0,0,0,0,0,0,-1,1714,1821,0,0
497,-797,0,0,0,0,0,0,0,0,0,-1,1721,1821,0,0
504,-797,0,0,0,0,0,0,0,0,0,-1,1728,1821,0,0
511,-797,0,0,0,0,0,0,0,0,0,-1,1735,1821,0,0
518,-797,0,0,0,0,0,0,0,0,0,-1,1742,1821,0,0
525,-797,0,0,0,0,0,0,0,0,0,-1,1749,1821,0,0
532,-797,0,0,0,0,0,0,0,0,0,-1,1756,1821,0,0
539,-797,0,0,0,0,0,0,0,0,0,-1,1763,1821,0,0
546,-797,0,0,0,0,0,0,0,0,0,-1,1770,1821,0,0
553,-797,0,0,0,0,0,0,0,0,0,-1,1777,1821,0,0
560,-797,0,0,0,0,0,0,0,0,0,-1,1784,1821,0,0
567,-797,0,0,0,0,0,0,0,0,0,-1,1791,1821,0,0
574,-797,0,0,0,0,0,0,0,0,0,-1,1798,1821,0,0
581,-797,0,0,0,0,0,0,0,0,0,-1,1805,1821,0,0
588,-797,0,0,0,0,0,0,0,0,0,-1,1812,1821,0,0
595,-797,0,0,0,0,0,0,0,0,0,-1,1819,1821,0,0
602,-797,0,0,0,0,0,0,0,0,0,-1,1826,1821,0,0
609,-797,0,0,0,0,0,0,0,0,0,-1,1833,1821,0,0
616,-797,0,0,0,0,0,0,0,0,0,-1,1840,1821,0,0
623,-797,0,0,0,0,0,0,0,0,0,-1,1847,1821,0,0
630,-797,0,0,0,0,0,0,0,0,0,-1,1854,1821,0,0
637,-797,0,0,0,0,0,0,0,0,0,-1,1861,1821,0,0
644,-797,0,0,0,0,0,0,0,0,0,-1,1868,1821,0,0
651,-797,0,0,0,0,0,0,0,0,0,-1,1875,1821,0,0
658,-797,0,0,0,0,0,0,0,0,0,-1,1882,1821,0,0
665,-797,0,0,0,0,0,0,0,0,0,-1,1889,1821,0,0
672,-797,0,0,0,0,0,0,0,0,0,-1,1896,1821,0,0
679,-797,0,0,0,0,0,0,0,0,0,-1,1903,1821,0,0
686,-797,0,0,0,0,0,0,0,0,0,-1,1910,1821,0,0
693,-797,0,0,0,0,0,0,0,0,0,-1,1917,1821,0,0
700,-797,0,0,0,0,0,0,0,0,0,-1,1924,1821,0,0
707,-797,0,0,0,0,0,0,0,0,0,-1,1931,1821,0,0
714,-797,0,0,0,0,0,0,0,0,0,-1,1938,1821,0,0
721,-797,0,0,0,0,0,0,0,0,0,-1,1945,1821,0,0
728,-797,0,0,0,0,0,0,0,0,0,-1,1952,1821,0,0
735,-797,0,0,0,0,0,0,0,0,0,-1,1959,1821,0,0
742,-797,0,0,0,0,0,0,0,0,0,-1,1966,1821,0,0
749,-797,0,0,0,0,0,0,0,0,0,-1,1973,1821,0,0
756,-797,0,0,0,0,0,0,0,0,0,-1,1980,1821,0,0
763,-797,0,0,0,0,0,0,0,0,0,-1,1987,1821,0,0
770,-797,0,0,0,0,0,0,0,0,0,-1,1994,1821,0,0
777,-797,0,0,0,0,0,0,0,0,0,-1,2001,1821,0,0
784,-797,0,0,0,0,0,0,0,0,0,-1,2008,1821,0,0
791,-797,0,0,0,0,0,0,0,0,0,-1,2015,1821,0,0
798,-797,0,0,0,0,0,0,0,0,0,-1,2022,1821,0,0
805,-797,0,0,0,0,0,0,0,0,0,-1,2029,1821,0,0
812,-797,0,0,0,0,0,0,0,0,0,-1,2036,1821,0,0
-700,-804,0,0,0,0,0,0,0,0,0,-1,524,1828,0,0
-693,-804,0,0,0,0,0,0,0,0,0,-1,531,1828,0,0
-686,-804,0,0,0,0,0,0,0,0,0,-1,538,1828,0,0
-679,-804,0,0,0,0,0,0,0,0,0,-1,545,1828,0,0
-672,-804,0,0,0,0,0,0,0,0,0,-1,552,1828,0,0
-665,-804,0,0,0,0,0,0,0,0,0,-1,559,1828,0,0
-658,-804,0,0,0,0,0,0,0,0,0,-1,566,1828,0,0
-651,-804,0,0,0,0,0,0,0,0,0,-1,573,1828,0,0
-644,-804,0,0,0,0,0,0,0,0,0,-1,580,1828,0,0
-637,-804,0,0,0,0,0,0,0,0,0,-1,587,1828,0,0
-630,-804,0,0,0,0,0,0,0,0,0,-1,594,1828,0,0
-623,-804,0,0,0,0,0,0,0,0,0,-1,601,1828,0,0
-616,-804,0,0,0,0,0,0,0,0,0,-1,608,1828,0,0
-609,-804,0,0,0,0,0,0,0,0,0,-1,615,1828,0,0
-602,-804,0,0,0,0,0,0,0,0,0,-1,622,1828,0,0
-595,-804,0,0,0,0,0,0,0,0,0,-1,629,1828,0,0
-588,-804,0,0,0,0,0,0,0,0,0,-1,636,1828,0,0
-581,-804,0,0,0,0,0,0,0,0,0,-1,643,1828,0,0
-574,-804,0,0,0,0,0,0,0,0,0,-1,650,1828,0,0
-567,-804,0,0,0,0,0,0,0,0,0,-1,657,1828,0,0
-560,-804,0,0,0,0,0,0,0,0,0,-1,664,1828,0,0
-553,-804,0,0,0,0,0,0,0,0,0,-1,671,1828,0,0
-546,-804,0,0,0,0,0,0,0,0,0,-1,678,1828,0,0
-539,-804,0,0,0,0,0,0,0,0,0,-1,685,1828,0,0
-532,-804,0,0,0,0,0,0,0,0,0,-1,692,1828,0,0
-525,-804,0,0,0,0,0,0,0,0,0,-1,699,1828,0,0
-518,-804,0,0,0,0,0,0,0,0,0,-1,706,1828,0,0
-511,-804,0,0,0,0,0,0,0,0,0,-1,713,1828,0,0
-504,-804,0,0,0,0,0,0,0,0,0,-1,720,1828,0,0
-497,-804,0,0,0,0,0,0,0,0,0,-1,727,1828,0,0
-490,-804,0,0,0,0,0,0,0,0,0,-1,734,1828,0,0
-483,-804,0,0,0,0,0,0,0,0,0,-1,741,1828,0,0
-476,-804,0,0,0,0,0,0,0,0,0,-1,748,1828,0,0
-469,-804,0,0,0,0,0,0,0,0,0,-1,755,1828,0,0
-462,-804,0,0,0,0,0,0,0,0,0,-1,762,1828,0,0
-455,-804,0,0,0,0,0,0,0,0,0,-1,769,1828,0,0
-448,-804,0,0,0,0,0,0,0,0,0,-1,776,1828,0,0
-441,-804,0,0,0,0,0,0,0,0,0,-1,783,1828,0,0
-434,-804,0,0,0,0,0,0,0,0,0,-1,790,1828,0,0
-427,-804,0,0,0,0,0,0,0,0,0,-1,797,1828,0,0
-420,-804,0,0,0,0,0,0,0,0,0,-1,804,1828,0,0
-413,-804,0,0,0,0,0,0,0,0,0,-1,811,1828,0,0
-406,-804,0,0,0,0,0,0,0,0,0,-1,818,1828,0,0
-399,-804,0,0,0,0,0,0,0,0,0,-1,825,1828,0,0
-392,-804,0,0,0,0,0,0,0,0,0,-1,832,1828,0,0
-385,-804,0,0,0,0,0,0,0,0,0,-1,839,1828,0,0
-378,-804,0,0,0,0,0,0,0,0,0,-1,846,1828,0,0
-371,-804,0,0,0,0,0,0,0,0,0,-1,853,1828,0,0
-364,-804,0,0,0,0,0,0,0,0,0,-1,860,1828,0,0
-357,-804,0,0,0,0,0,0,0,0,0,-1,867,1828,0,0
-350,-804,0,0,0,0,0,0,0,0,0,-1,874,1828,0,0
-343,-804,0,0,0,0,0,0,0,0,0,-1,881,1828,0,0
-336,-804,0,0,0,0,0,0,0,0,0,-1,888,1828,0,0
-329,-804,0,0,0,0,0,0,0,0,0,-1,895,1828,0,0
-322,-804,0,0,0,0,0,0,0,0,0,-1,902,1828,0,0
-315,-804,0,0,0,0,0,0,0,0,0,-1,909,1828,0,0
-308,-804,0,0,0,0,0,0,0,0,0,-1,916,1828,0,0
-301,-804,0,0,0,0,0,0,0,0,0,-1,923,1828,0,0
-294,-804,0,0,0,0,0,0,0,0,0,-1,930,1828,0,0
-287,-804,0,0,0,0,0,0,0,0,0,-1,937,1828,0,0
-280,-804,0,0,0,0,0,0,0,0,0,-1,944,1828,0,0
-273,-804,0,0,0,0,0,0,0,0,0,-1,951,1828,0,0
-266,-804,0,0,0,0,0,0,0,0,0,-1,958,1828,0,0
-259,-804,0,0,0,0,0,0,0,0,0,-1,965,1828,0,0
-252,-804,0,0,0,0,0,0,0,0,0,-1,972,1828,0,0
-245,-804,0,0,0,0,0,0,0,0,0,-1,979,1828,0,0
-238,-804,0,0,0,0,0,0,0,0,0,-1,986,1828,0,0
-231,-804,0,0,0,0,0,0,0,0,0,-1,993,1828,0,0
-224,-804,0,0,0,0,0,0,0,0,0,-1,1000,1828,0,0
-217,-804,0,0,0,0,0,0,0,0,0,-1,1007,1828,0,0
-210,-804,0,0,0,0,0,0,0,0,0,-1,1014,1828,0,0
-203,-804,0,0,0,0,0,0,0,0,0,-1,1021,1828,0,0
-196,-804,0,0,0,0,0,0,0,0,0,-1,1028,1828,0,0
-189,-804,0,0,0,0,0,0,0,0,0,-1,1035,1828,0,0
-182,-804,0,0,0,0,0,0,0,0,0,-1,1042,1828,0,0
-175,-804,0,0,0,0,0,0,0,0,0,-1,1049,1828,0,0
-168,-804,0,0,0,0,0,0,0,0,0,-1,1056,1828,0,0
-161,-804,0,0,0,0,0,0,0,0,0,-1,1063,1828,0,0
-154,-804,0,0,0,0,0,0,0,0,0,-1,1070,1828,0,0
-147,-804,0,0,0,0,0,0,0,0,0,-1,1077,1828,0,0
-140,-804,0,0,0,0,0,0,0,0,0,-1,1084,1828,0,0
-133,-804,0,0,0,0,0,0,0,0,0,-1,1091,1828,0,0
-126,-804,0,0,0,0,0,0,0,0,0,-1,1098,1828,0,0
-119,-804,0,0,0,0,0,0,0,0,0,-1,1105,1828,0,0
-112,-804,0,0,0,0,0,0,0,0,0,-1,1112,1828,0,0
-105,-804,0,0,0,0,0,0,0,0,0,-1,1119,1828,0,0
-98,-804,0,0,0,0,0,0,0,0,0,-1,1126,1828,0,0
-91,-804,0,0,0,0,0,0,0,0,0,-1,1133,1828,0,0
-84,-804,0,0,0,0,0,0,0,0,0,-1,1140,1828,0,0
-77,-804,0,0,0,0,0,0,0,0,0,-1,1147,1828,0,0
-70,-804,0,0,0,0,0,0,0,0,0,-1,1154,1828,0,0
-63,-804,0,0,0,0,0,0,0,0,0,-1,1161,1828,0,0
-56,-804,0,0,0,0,0,0,0,0,0,-1,1168,1828,0,0
-49,-804,0,0,0,0,0,0,0,0,0,-1,1175,1828,0,0
-42,-804,0,0,0,0,0,0,0,0,0,-1,1182,1828,0,0
-35,-804,0,0,0,0,0,0,0,0,0,-1,1189,1828,0,0
-28,-804,0,0,0,0,0,0,0,0,0,-1,1196,1828,0,0
-21,-804,0,0,0,0,0,0,0,0,0,-1,1203,1828,0,0
-14,-804,0,0,0,0,0,0,0,0,0,-1,1210,1828,0,0
-7,-804,0,0,0,0,0,0,0,0,0,-1,1217,1828,0,0
0,-804,0,0,0,0,0,0,0,0,0,-1,1224,1828,0,0
7,-804,0,0,0,0,0,0,0,0,0,-1,1231,1828,0,0
14,-804,0,0,0,0,0,0,0,0,0,-1,1238,1828,0,0
21,-804,0,0,0,0,0,0,0,0,0,-1,1245,1828,0,0
28,-804,0,0,0,0,0,0,0,0,0,-1,1252,1828,0,0
35,-804,15.3994,74.1378,0,0,0,0,0,0,0,-1,1259,1828,15.3994,-74.1378
42,-804,10.8444,71.8959,0,0,0,0,0,0,0,-1,1266,1828,10.8443,-71.8959
49,-804,10.6769,69.1127,0,0,0,0,0,0,0,-1,1273,1828,10.6769,-69.1127
56,-804,11.3743,74.4362,0,0,0,0,0,0,0,-1,1280,1828,11.3742,-74.4361
63,-804,10.9084,74.5862,-0.0379937,-0.0160946,-0.0922961,0.0658992,-0.119987,-0.84444,0.108826,0.0458074,1287,1828,10.9084,-74.5862
70,-804,10.3552,74.0609,-0.0504472,-0.0209301,-0.0897741,0.0552905,-0.126668,-0.866868,0.107714,0.0495738,1294,1828,10.3552,-74.0609
77,-804,9.89624,73.9121,-0.0598008,-0.0255385,-0.0849044,0.0439458,-0.129285,-0.884946,0.103982,0.0483211,1301,1828,9.89629,-73.9121
84,-804,9.62378,73.5028,-0.0614651,-0.0287257,-0.0785645,0.0351564,-0.125347,-0.888109,0.0974215,0.0448486,1308,1828,9.62374,-73.5028
91,-804,0,0,0,0,0,0,0,0,0,-1,1315,1828,0,0
98,-804,0,0,0,0,0,0,0,0,0,-1,1322,1828,0,0
105,-804,0,0,0,0,0,0,0,0,0,-1,1329,1828,0,0
112,-804,0,0,0,0,0,0,0,0,0,-1,1336,1828,0,0
119,-804,0,0,0,0,0,0,0,0,0,-1,1343,1828,0,0
126,-804,0,0,0,0,0,0,0,0,0,-1,1350,1828,0,0
133,-804,0,0,0,0,0,0,0,0,0,-1,1357,1828,0,0
140,-804,0,0,0,0,0,0,0,0,0,-1,1364,1828,0,0
147,-804,0,0,0,0,0,0,0,0,0,-1,1371,1828,0,0
154,-804,0,0,0,0,0,0,0,0,0,-1,1378,1828,0,0
161,-804,0,0,0,0,0,0,0,0,0,-1,1385,1828,0,0
168,-804,0,0,0,0,0,0,0,0,0,-1,1392,1828,0,0
175,-804,0,0,0,0,0,0,0,0,0,-1,1399,1828,0,0
182,-804,0,0,0,0,0,0,0,0,0,-1,1406,1828,0,0
189,-804,0,0,0,0,0,0,0,0,0,-1,1413,1828,0,0
196,-804,0,0,0,0,0,0,0,0,0,-1,1420,1828,0,0
203,-804,0,0,0,0,0,0,0,0,0,-1,1427,1828,0,0
210,-804,0,0,0,0,0,0,0,0,0,-1,1434,1828,0,0
217,-804,0,0,0,0,0,0,0,0,0,-1,1441,1828,0,0
224,-804,0,0,0,0,0,0,0,0,0,-1,1448,1828,0,0
231,-804,0,0,0,0,0,0,0,0,0,-1,1455,1828,0,0
238,-804,0,0,0,0,0,0,0,0,0,-1,1462,1828,0,0
245,-804,0,0,0,0,0,0,0,0,0,-1,1469,1828,0,0
252,-804,0,0,0,0,0,0,0,0,0,-1,1476,1828,0,0
259,-804,0,0,0,0,0,0,0,0,0,-1,1483,1828,0,0
266,-804,0,0,0,0,0,0,0,0,0,-1,1490,1828,0,0
273,-804,0,0,0,0,0,0,0,0,0,-1,1497,1828,0,0
280,-804,0,0,0,0,0,0,0,0,0,-1,1504,1828,0,0
287,-804,0,0,0,0,0,0,0,0,0,-1,1511,1828,0,0
294,-804,0,0,0,0,0,0,0,0,0,-1,1518,1828,0,0
301,-804,0,0,0,0,0,0,0,0,0,-1,1525,1828,0,0
308,-804,0,0,0,0,0,0,0,0,0,-1,1532,1828,0,0
315,-804,0,0,0,0,0,0,0,0,0,-1,1539,1828,0,0
322,-804,0,0,0,0,0,0,0,0,0,-1,1546,1828,0,0
329,-804,0,0,0,0,0,0,0,0,0,-1,1553,1828,0,0
336,-804,0,0,0,0,0,0,0,0,0,-1,1560,1828,0,0
343,-804,0,0,0,0,0,0,0,0,0,-1,1567,1828,0,0
350,-804,0,0,0,0,0,0,0,0,0,-1,1574,1828,0,0
357,-804,0,0,0,0,0,0,0,0,0,-1,1581,1828,0,0
364,-804,0,0,0,0,0,0,0,0,0,-1,1588,1828,0,0
371,-804,0,0,0,0,0,0,0,0,0,-1,1595,1828,0,0
378,-804,0,0,0,0,0,0,0,0,0,-1,1602,1828,0,0
385,-804,0,0,0,0,0,0,0,0,0,-1,1609,1828,0,0
392,-804,0,0,0,0,0,0,0,0,0,-1,1616,1828,0,0
399,-804,0,0,0,0,0,0,0,0,0,-1,1623,1828,0,0
406,-804,0,0,0,0,0,0,0,0,0,-1,1630,1828,0,0
413,-804,0,0,0,0,0,0,0,0,0,-1,1637,1828,0,0
420,-804,0,0,0,0,0,0,0,0,0,-1,1644,1828,0,0
427,-804,0,0,0,0,0,0,0,0,0,-1,1651,1828,0,0
434,-804,0,0,0,0,0,0,0,0,0,-1,1658,1828,0,0
441,-804,0,0,0,0,0,0,0,0,0,-1,1665,1828,0,0
448,-804,0,0,0,0,0,0,0,0,0,-1,1672,1828,0,0
455,-804,0,0,0,0,0,0,0,0,0,-1,1679,1828,0,0
462,-804,0,0,0,0,0,0,0,0,0,-1,1686,1828,0,0
469,-804,0,0,0,0,0,0,0,0,0,-1,1693,1828,0,0
476,-804,0,0,0,0,0,0,0,0,0,-1,1700,1828,0,0
483,-804,0,0,0,0,0,0,0,0,0,-1,1707,1828,0,0
490,-804,0,0,0,0,0,0,0,0,0,-1,1714,1828,0,0
497,-804,0,0,0,0,0,0,0,0,0,-1,1721,1828,0,0
504,-804,0,0,0,0,0,0,0,0,0,-1,1728,1828,0,0
511,-804,0,0,0,0,0,0,0,0,0,-1,1735,1828,0,0
518,-804,0,0,0,0,0,0,0,0,0,-1,1742,1828,0,0
525,-804,0,0,0,0,0,0,0,0,0,-1,1749,1828,0,0
532,-804,0,0,0,0,0,0,0,0,0,-1,1756,1828,0,0
539,-804,0,0,0,0,0,0,0,0,0,-1,1763,1828,0,0
546,-804,0,0,0,0,0,0,0,0,0,-1,1770,1828,0,0
553,-804,0,0,0,0,0,0,0,0,0,-1,1777,1828,0,0
560,-804,0,0,0,0,0,0,0,0,0,-1,1784,1828,0,0
567,-804,0,0,0,0,0,0,0,0,0,-1,1791,1828,0,0
574,-804,0,0,0,0,0,0,0,0,0,-1,1798,1828,0,0
581,-804,0,0,0,0,0,0,0,0,0,-1,1805,1828,0,0
588,-804,0,0,0,0,0,0,0,0,0,-1,1812,1828,0,0
595,-804,0,0,0,0,0,0,0,0,0,-1,1819,1828,0,0
602,-804,0,0,0,0,0,0,0,0,0,-1,1826,1828,0,0
609,-804,0,0,0,0,0,0,0,0,0,-1,1833,1828,0,0
616,-804,0,0,0,0,0,0,0,0,0,-1,1840,1828,0,0
623,-804,0,0,0,0,0,0,0,0,0,-1,1847,1828,0,0
630,-804,0,0,0,0,0,0,0,0,0,-1,1854,1828,0,0
637,-804,0,0,0,0,0,0,0,0,0,-1,1861,1828,0,0
644,-804,0,0,0,0,0,0,0,0,0,-1,1868,1828,0,0
651,-804,0,0,0,0,0,0,0,0,0,-1,1875,1828,0,0
658,-804,0,0,0,0,0,0,0,0,0,-1,1882,1828,0,0
665,-804,0,0,0,0,0,0,0,0,0,-1,1889,1828,0,0
672,-804,0,0,0,0,0,0,0,0,0,-1,1896,1828,0,0
679,-804,0,0,0,0,0,0,0,0,0,-1,1903,1828,0,0
686,-804,0,0,0,0,0,0,0,0,0,-1,1910,1828,0,0
693,-804,0,0,0,0,0,0,0,0,0,-1,1917,1828,0,0
700,-804,0,0,0,0,0,0,0,0,0,-1,1924,1828,0,0
707,-804,0,0,0,0,0,0,0,0,0,-1,1931,1828,0,0
714,-804,0,0,0,0,0,0,0,0,0,-1,1938,1828,0,0
721,-804,0,0,0,0,0,0,0,0,0,-1,1945,1828,0,0
728,-804,0,0,0,0,0,0,0,0,0,-1,1952,1828,0,0
735,-804,0,0,0,0,0,0,0,0,0,-1,1959,1828,0,0
742,-804,0,0,0,0,0,0,0,0,0,-1,1966,1828,0,0
749,-804,0,0,0,0,0,0,0,0,0,-1,1973,1828,0,0
756,-804,0,0,0,0,0,0,0,0,0,-1,1980,1828,0,0
763,-804,0,0,0,0,0,0,0,0,0,-1,1987,1828,0,0
770,-804,0,0,0,0,0,0,0,0,0,-1,1994,1828,0,0
777,-804,0,0,0,0,0,0,0,0,0,-1,2001,1828,0,0
784,-804,0,0,0,0,0,0,0,0,0,-1,2008,1828,0,0
791,-804,0,0,0,0,0,0,0,0,0,-1,2015,1828,0,0
798,-804,0,0,0,0,0,0,0,0,0,-1,2022,1828,0,0
805,-804,0,0,0,0,0,0,0,0,0,-1,2029,1828,0,0
812,-804,0,0,0,0,0,0,0,0,0,-1,2036,1828,0,0

