 "x_c",  "y_c",  "u_c",  "v_c",  "exx",  "eyy",  "exy",  "e1",  "e2",  "gamma",  "e_vonmises",  "sigma",  "x",  "y",  "u",  "v"
-700,715,0,0,0,0,0,0,0,0,0,-1,524,309,0,0
-693,715,0,0,0,0,0,0,0,0,0,-1,531,309,0,0
-686,715,0,0,0,0,0,0,0,0,0,-1,538,309,0,0
-679,715,0,0,0,0,0,0,0,0,0,-1,545,309,0,0
-672,715,0,0,0,0,0,0,0,0,0,-1,552,309,0,0
-665,715,0,0,0,0,0,0,0,0,0,-1,559,309,0,0
-658,715,0,0,0,0,0,0,0,0,0,-1,566,309,0,0
-651,715,0,0,0,0,0,0,0,0,0,-1,573,309,0,0
-644,715,0,0,0,0,0,0,0,0,0,-1,580,309,0,0
-637,715,0,0,0,0,0,0,0,0,0,-1,587,309,0,0
-630,715,0,0,0,0,0,0,0,0,0,-1,594,309,0,0
-623,715,0,0,0,0,0,0,0,0,0,-1,601,309,0,0
-616,715,0,0,0,0,0,0,0,0,0,-1,608,309,0,0
-609,715,0,0,0,0,0,0,0,0,0,-1,615,309,0,0
-602,715,0,0,0,0,0,0,0,0,0,-1,622,309,0,0
-595,715,0,0,0,0,0,0,0,0,0,-1,629,309,0,0
-588,715,0,0,0,0,0,0,0,0,0,-1,636,309,0,0
-581,715,0,0,0,0,0,0,0,0,0,-1,643,309,0,0
-574,715,0,0,0,0,0,0,0,0,0,-1,650,309,0,0
-567,715,0,0,0,0,0,0,0,0,0,-1,657,309,0,0
-560,715,0,0,0,0,0,0,0,0,0,-1,664,309,0,0
-553,715,0,0,0,0,0,0,0,0,0,-1,671,309,0,0
-546,715,0,0,0,0,0,0,0,0,0,-1,678,309,0,0
-539,715,0,0,0,0,0,0,0,0,0,-1,685,309,0,0
-532,715,0,0,0,0,0,0,0,0,0,-1,692,309,0,0
-525,715,0,0,0,0,0,0,0,0,0,-1,699,309,0,0
-518,715,0,0,0,0,0,0,0,0,0,-1,706,309,0,0
-511,715,0,0,0,0,0,0,0,0,0,-1,713,309,0,0
-504,715,0,0,0,0,0,0,0,0,0,-1,720,309,0,0
-497,715,0,0,0,0,0,0,0,0,0,-1,727,309,0,0
-490,715,0,0,0,0,0,0,0,0,0,-1,734,309,0,0
-483,715,0,0,0,0,0,0,0,0,0,-1,741,309,0,0
-476,715,0,0,0,0,0,0,0,0,0,-1,748,309,0,0
-469,715,0,0,0,0,0,0,0,0,0,-1,755,309,0,0
-462,715,0,0,0,0,0,0,0,0,0,-1,762,309,0,0
-455,715,0,0,0,0,0,0,0,0,0,-1,769,309,0,0
-448,715,0,0,0,0,0,0,0,0,0,-1,776,309,0,0
-441,715,0,0,0,0,0,0,0,0,0,-1,783,309,0,0
-434,715,0,0,0,0,0,0,0,0,0,-1,790,309,0,0
-427,715,0,0,0,0,0,0,0,0,0,-1,797,309,0,0
-420,715,0,0,0,0,0,0,0,0,0,-1,804,309,0,0
-413,715,0,0,0,0,0,0,0,0,0,-1,811,309,0,0
-406,715,0,0,0,0,0,0,0,0,0,-1,818,309,0,0
-399,715,0,0,0,0,0,0,0,0,0,-1,825,309,0,0
-392,715,0,0,0,0,0,0,0,0,0,-1,832,309,0,0
-385,715,0,0,0,0,0,0,0,0,0,-1,839,309,0,0
-378,715,0,0,0,0,0,0,0,0,0,-1,846,309,0,0
-371,715,0,0,0,0,0,0,0,0,0,-1,853,309,0,0
-364,715,0,0,0,0,0,0,0,0,0,-1,860,309,0,0
-357,715,0,0,0,0,0,0,0,0,0,-1,867,309,0,0
-350,715,0,0,0,0,0,0,0,0,0,-1,874,309,0,0
-343,715,0,0,0,0,0,0,0,0,0,-1,881,309,0,0
-336,715,0,0,0,0,0,0,0,0,0,-1,888,309,0,0
-329,715,0,0,0,0,0,0,0,0,0,-1,895,309,0,0
-322,715,0,0,0,0,0,0,0,0,0,-1,902,309,0,0
-315,715,0,0,0,0,0,0,0,0,0,-1,909,309,0,0
-308,715,0,0,0,0,0,0,0,0,0,-1,916,309,0,0
-301,715,0,0,0,0,0,0,0,0,0,-1,923,309,0,0
-294,715,0,0,0,0,0,0,0,0,0,-1,930,309,0,0
-287,715,0,0,0,0,0,0,0,0,0,-1,937,309,0,0
-280,715,0,0,0,0,0,0,0,0,0,-1,944,309,0,0
-273,715,0,0,0,0,0,0,0,0,0,-1,951,309,0,0
-266,715,0,0,0,0,0,0,0,0,0,-1,958,309,0,0
-259,715,0,0,0,0,0,0,0,0,0,-1,965,309,0,0
-252,715,0,0,0,0,0,0,0,0,0,-1,972,309,0,0
-245,715,0,0,0,0,0,0,0,0,0,-1,979,309,0,0
-238,715,0,0,0,0,0,0,0,0,0,-1,986,309,0,0
-231,715,0,0,0,0,0,0,0,0,0,-1,993,309,0,0
-224,715,0,0,0,0,0,0,0,0,0,-1,1000,309,0,0
-217,715,0,0,0,0,0,0,0,0,0,-1,1007,309,0,0
-210,715,0,0,0,0,0,0,0,0,0,-1,1014,309,0,0
-203,715,0,0,0,0,0,0,0,0,0,-1,1021,309,0,0
-196,715,0,0,0,0,0,0,0,0,0,-1,1028,309,0,0
-189,715,0,0,0,0,0,0,0,0,0,-1,1035,309,0,0
-182,715,0,0,0,0,0,0,0,0,0,-1,1042,309,0,0
-175,715,0,0,0,0,0,0,0,0,0,-1,1049,309,0,0
-168,715,0,0,0,0,0,0,0,0,0,-1,1056,309,0,0
-161,715,0,0,0,0,0,0,0,0,0,-1,1063,309,0,0
-154,715,0,0,0,0,0,0,0,0,0,-1,1070,309,0,0
-147,715,0,0,0,0,0,0,0,0,0,-1,1077,309,0,0
-140,715,0,0,0,0,0,0,0,0,0,-1,1084,309,0,0
-133,715,0,0,0,0,0,0,0,0,0,-1,1091,309,0,0
-126,715,0,0,0,0,0,0,0,0,0,-1,1098,309,0,0
-119,715,0,0,0,0,0,0,0,0,0,-1,1105,309,0,0
-112,715,0,0,0,0,0,0,0,0,0,-1,1112,309,0,0
-105,715,0,0,0,0,0,0,0,0,0,-1,1119,309,0,0
-98,715,0,0,0,0,0,0,0,0,0,-1,1126,309,0,0
-91,715,0,0,0,0,0,0,0,0,0,-1,1133,309,0,0
-84,715,0,0,0,0,0,0,0,0,0,-1,1140,309,0,0
-77,715,0,0,0,0,0,0,0,0,0,-1,1147,309,0,0
-70,715,0,0,0,0,0,0,0,0,0,-1,1154,309,0,0
-63,715,0,0,0,0,0,0,0,0,0,-1,1161,309,0,0
-56,715,0,0,0,0,0,0,0,0,0,-1,1168,309,0,0
-49,715,0,0,0,0,0,0,0,0,0,-1,1175,309,0,0
-42,715,0,0,0,0,0,0,0,0,0,-1,1182,309,0,0
-35,715,0,0,0,0,0,0,0,0,0,-1,1189,309,0,0
-28,715,0,0,0,0,0,0,0,0,0,-1,1196,309,0,0
-21,715,0,0,0,0,0,0,0,0,0,-1,1203,309,0,0
-14,715,0,0,0,0,0,0,0,0,0,-1,1210,309,0,0
-7,715,0,0,0,0,0,0,0,0,0,-1,1217,309,0,0
0,715,0,0,0,0,0,0,0,0,0,-1,1224,309,0,0
7,715,0,0,0,0,0,0,0,0,0,-1,1231,309,0,0
14,715,0,0,0,0,0,0,0,0,0,-1,1238,309,0,0
21,715,0,0,0,0,0,0,0,0,0,-1,1245,309,0,0
28,715,0,0,0,0,0,0,0,0,0,-1,1252,309,0,0
35,715,0,0,0,0,0,0,0,0,0,-1,1259,309,0,0
42,715,0,0,0,0,0,0,0,0,0,-1,1266,309,0,0
49,715,0,0,0,0,0,0,0,0,0,-1,1273,309,0,0
56,715,0,0,0,0,0,0,0,0,0,-1,1280,309,0,0
63,715,1.12952,-14.1509,0.0553707,0.098486,-0.0446479,0.126508,0.0273485,-1.01031,0.076862,0.0435825,1287,309,1.12952,14.1509
70,715,1.46277,-14.0168,0.0622405,0.123919,-0.0480254,0.150154,0.0360051,-1.07081,0.0905201,0.0459538,1294,309,1.46275,14.0168
77,715,0,0,0,0,0,0,0,0,0,-1,1301,309,0,0
84,715,0,0,0,0,0,0,0,0,0,-1,1308,309,0,0
91,715,0,0,0,0,0,0,0,0,0,-1,1315,309,0,0
98,715,0,0,0,0,0,0,0,0,0,-1,1322,309,0,0
105,715,0,0,0,0,0,0,0,0,0,-1,1329,309,0,0
112,715,0,0,0,0,0,0,0,0,0,-1,1336,309,0,0
119,715,0,0,0,0,0,0,0,0,0,-1,1343,309,0,0
126,715,0,0,0,0,0,0,0,0,0,-1,1350,309,0,0
133,715,0,0,0,0,0,0,0,0,0,-1,1357,309,0,0
140,715,0,0,0,0,0,0,0,0,0,-1,1364,309,0,0
147,715,0,0,0,0,0,0,0,0,0,-1,1371,309,0,0
154,715,0,0,0,0,0,0,0,0,0,-1,1378,309,0,0
161,715,0,0,0,0,0,0,0,0,0,-1,1385,309,0,0
168,715,0,0,0,0,0,0,0,0,0,-1,1392,309,0,0
175,715,0,0,0,0,0,0,0,0,0,-1,1399,309,0,0
182,715,0,0,0,0,0,0,0,0,0,-1,1406,309,0,0
189,715,0,0,0,0,0,0,0,0,0,-1,1413,309,0,0
196,715,0,0,0,0,0,0,0,0,0,-1,1420,309,0,0
203,715,0,0,0,0,0,0,0,0,0,-1,1427,309,0,0
210,715,0,0,0,0,0,0,0,0,0,-1,1434,309,0,0
217,715,0,0,0,0,0,0,0,0,0,-1,1441,309,0,0
224,715,0,0,0,0,0,0,0,0,0,-1,1448,309,0,0
231,715,0,0,0,0,0,0,0,0,0,-1,1455,309,0,0
238,715,0,0,0,0,0,0,0,0,0,-1,1462,309,0,0
245,715,0,0,0,0,0,0,0,0,0,-1,1469,309,0,0
252,715,0,0,0,0,0,0,0,0,0,-1,1476,309,0,0
259,715,0,0,0,0,0,0,0,0,0,-1,1483,309,0,0
266,715,0,0,0,0,0,0,0,0,0,-1,1490,309,0,0
273,715,0,0,0,0,0,0,0,0,0,-1,1497,309,0,0
280,715,0,0,0,0,0,0,0,0,0,-1,1504,309,0,0
287,715,0,0,0,0,0,0,0,0,0,-1,1511,309,0,0
294,715,0,0,0,0,0,0,0,0,0,-1,1518,309,0,0
301,715,0,0,0,0,0,0,0,0,0,-1,1525,309,0,0
308,715,0,0,0,0,0,0,0,0,0,-1,1532,309,0,0
315,715,0,0,0,0,0,0,0,0,0,-1,1539,309,0,0
322,715,0,0,0,0,0,0,0,0,0,-1,1546,309,0,0
329,715,0,0,0,0,0,0,0,0,0,-1,1553,309,0,0
336,715,0,0,0,0,0,0,0,0,0,-1,1560,309,0,0
343,715,0,0,0,0,0,0,0,0,0,-1,1567,309,0,0
350,715,0,0,0,0,0,0,0,0,0,-1,1574,309,0,0
357,715,0,0,0,0,0,0,0,0,0,-1,1581,309,0,0
364,715,0,0,0,0,0,0,0,0,0,-1,1588,309,0,0
371,715,0,0,0,0,0,0,0,0,0,-1,1595,309,0,0
378,715,0,0,0,0,0,0,0,0,0,-1,1602,309,0,0
385,715,0,0,0,0,0,0,0,0,0,-1,1609,309,0,0
392,715,0,0,0,0,0,0,0,0,0,-1,1616,309,0,0
399,715,0,0,0,0,0,0,0,0,0,-1,1623,309,0,0
406,715,0,0,0,0,0,0,0,0,0,-1,1630,309,0,0
413,715,0,0,0,0,0,0,0,0,0,-1,1637,309,0,0
420,715,0,0,0,0,0,0,0,0,0,-1,1644,309,0,0
427,715,0,0,0,0,0,0,0,0,0,-1,1651,309,0,0
434,715,0,0,0,0,0,0,0,0,0,-1,1658,309,0,0
441,715,0,0,0,0,0,0,0,0,0,-1,1665,309,0,0
448,715,0,0,0,0,0,0,0,0,0,-1,1672,309,0,0
455,715,0,0,0,0,0,0,0,0,0,-1,1679,309,0,0
462,715,0,0,0,0,0,0,0,0,0,-1,1686,309,0,0
469,715,0,0,0,0,0,0,0,0,0,-1,1693,309,0,0
476,715,0,0,0,0,0,0,0,0,0,-1,1700,309,0,0
483,715,0,0,0,0,0,0,0,0,0,-1,1707,309,0,0
490,715,0,0,0,0,0,0,0,0,0,-1,1714,309,0,0
497,715,0,0,0,0,0,0,0,0,0,-1,1721,309,0,0
504,715,0,0,0,0,0,0,0,0,0,-1,1728,309,0,0
511,715,0,0,0,0,0,0,0,0,0,-1,1735,309,0,0
518,715,0,0,0,0,0,0,0,0,0,-1,1742,309,0,0
525,715,0,0,0,0,0,0,0,0,0,-1,1749,309,0,0
532,715,0,0,0,0,0,0,0,0,0,-1,1756,309,0,0
539,715,0,0,0,0,0,0,0,0,0,-1,1763,309,0,0
546,715,0,0,0,0,0,0,0,0,0,-1,1770,309,0,0
553,715,0,0,0,0,0,0,0,0,0,-1,1777,309,0,0
560,715,0,0,0,0,0,0,0,0,0,-1,1784,309,0,0
567,715,0,0,0,0,0,0,0,0,0,-1,1791,309,0,0
574,715,0,0,0,0,0,0,0,0,0,-1,1798,309,0,0
581,715,0,0,0,0,0,0,0,0,0,-1,1805,309,0,0
588,715,0,0,0,0,0,0,0,0,0,-1,1812,309,0,0
595,715,0,0,0,0,0,0,0,0,0,-1,1819,309,0,0
602,715,0,0,0,0,0,0,0,0,0,-1,1826,309,0,0
609,715,0,0,0,0,0,0,0,0,0,-1,1833,309,0,0
616,715,0,0,0,0,0,0,0,0,0,-1,1840,309,0,0
623,715,0,0,0,0,0,0,0,0,0,-1,1847,309,0,0
630,715,0,0,0,0,0,0,0,0,0,-1,1854,309,0,0
637,715,0,0,0,0,0,0,0,0,0,-1,1861,309,0,0
644,715,0,0,0,0,0,0,0,0,0,-1,1868,309,0,0
651,715,0,0,0,0,0,0,0,0,0,-1,1875,309,0,0
658,715,0,0,0,0,0,0,0,0,0,-1,1882,309,0,0
665,715,0,0,0,0,0,0,0,0,0,-1,1889,309,0,0
672,715,0,0,0,0,0,0,0,0,0,-1,1896,309,0,0
679,715,0,0,0,0,0,0,0,0,0,-1,1903,309,0,0
686,715,0,0,0,0,0,0,0,0,0,-1,1910,309,0,0
693,715,0,0,0,0,0,0,0,0,0,-1,1917,309,0,0
700,715,0,0,0,0,0,0,0,0,0,-1,1924,309,0,0
707,715,0,0,0,0,0,0,0,0,0,-1,1931,309,0,0
714,715,0,0,0,0,0,0,0,0,0,-1,1938,309,0,0
721,715,0,0,0,0,0,0,0,0,0,-1,1945,309,0,0
728,715,0,0,0,0,0,0,0,0,0,-1,1952,309,0,0
735,715,0,0,0,0,0,0,0,0,0,-1,1959,309,0,0
742,715,0,0,0,0,0,0,0,0,0,-1,1966,309,0,0
749,715,0,0,0,0,0,0,0,0,0,-1,1973,309,0,0
756,715,0,0,0,0,0,0,0,0,0,-1,1980,309,0,0
763,715,0,0,0,0,0,0,0,0,0,-1,1987,309,0,0
770,715,0,0,0,0,0,0,0,0,0,-1,1994,309,0,0
777,715,0,0,0,0,0,0,0,0,0,-1,2001,309,0,0
784,715,0,0,0,0,0,0,0,0,0,-1,2008,309,0,0
791,715,0,0,0,0,0,0,0,0,0,-1,2015,309,0,0
798,715,0,0,0,0,0,0,0,0,0,-1,2022,309,0,0
805,715,0,0,0,0,0,0,0,0,0,-1,2029,309,0,0
812,715,0,0,0,0,0,0,0,0,0,-1,2036,309,0,0
-700,708,0,0,0,0,0,0,0,0,0,-1,524,316,0,0
-693,708,0,0,0,0,0,0,0,0,0,-1,531,316,0,0
-686,708,0,0,0,0,0,0,0,0,0,-1,538,316,0,0
-679,708,0,0,0,0,0,0,0,0,0,-1,545,316,0,0
-672,708,0,0,0,0,0,0,0,0,0,-1,552,316,0,0
-665,708,0,0,0,0,0,0,0,0,0,-1,559,316,0,0
-658,708,0,0,0,0,0,0,0,0,0,-1,566,316,0,0
-651,708,0,0,0,0,0,0,0,0,0,-1,573,316,0,0
-644,708,0,0,0,0,0,0,0,0,0,-1,580,316,0,0
-637,708,0,0,0,0,0,0,0,0,0,-1,587,316,0,0
-630,708,0,0,0,0,0,0,0,0,0,-1,594,316,0,0
-623,708,0,0,0,0,0,0,0,0,0,-1,601,316,0,0
-616,708,0,0,0,0,0,0,0,0,0,-1,608,316,0,0
-609,708,0,0,0,0,0,0,0,0,0,-1,615,316,0,0
-602,708,0,0,0,0,0,0,0,0,0,-1,622,316,0,0
-595,708,0,0,0,0,0,0,0,0,0,-1,629,316,0,0
-588,708,0,0,0,0,0,0,0,0,0,-1,636,316,0,0
-581,708,0,0,0,0,0,0,0,0,0,-1,643,316,0,0
-574,708,0,0,0,0,0,0,0,0,0,-1,650,316,0,0
-567,708,0,0,0,0,0,0,0,0,0,-1,657,316,0,0
-560,708,0,0,0,0,0,0,0,0,0,-1,664,316,0,0
-553,708,0,0,0,0,0,0,0,0,0,-1,671,316,0,0
-546,708,0,0,0,0,0,0,0,0,0,-1,678,316,0,0
-539,708,0,0,0,0,0,0,0,0,0,-1,685,316,0,0
-532,708,0,0,0,0,0,0,0,0,0,-1,692,316,0,0
-525,708,0,0,0,0,0,0,0,0,0,-1,699,316,0,0
-518,708,0,0,0,0,0,0,0,0,0,-1,706,316,0,0
-511,708,0,0,0,0,0,0,0,0,0,-1,713,316,0,0
-504,708,0,0,0,0,0,0,0,0,0,-1,720,316,0,0
-497,708,0,0,0,0,0,0,0,0,0,-1,727,316,0,0
-490,708,0,0,0,0,0,0,0,0,0,-1,734,316,0,0
-483,708,0,0,0,0,0,0,0,0,0,-1,741,316,0,0
-476,708,0,0,0,0,0,0,0,0,0,-1,748,316,0,0
-469,708,0,0,0,0,0,0,0,0,0,-1,755,316,0,0
-462,708,0,0,0,0,0,0,0,0,0,-1,762,316,0,0
-455,708,0,0,0,0,0,0,0,0,0,-1,769,316,0,0
-448,708,0,0,0,0,0,0,0,0,0,-1,776,316,0,0
-441,708,0,0,0,0,0,0,0,0,0,-1,783,316,0,0
-434,708,0,0,0,0,0,0,0,0,0,-1,790,316,0,0
-427,708,0,0,0,0,0,0,0,0,0,-1,797,316,0,0
-420,708,0,0,0,0,0,0,0,0,0,-1,804,316,0,0
-413,708,0,0,0,0,0,0,0,0,0,-1,811,316,0,0
-406,708,0,0,0,0,0,0,0,0,0,-1,818,316,0,0
-399,708,0,0,0,0,0,0,0,0,0,-1,825,316,0,0
-392,708,0,0,0,0,0,0,0,0,0,-1,832,316,0,0
-385,708,0,0,0,0,0,0,0,0,0,-1,839,316,0,0
-378,708,0,0,0,0,0,0,0,0,0,-1,846,316,0,0
-371,708,0,0,0,0,0,0,0,0,0,-1,853,316,0,0
-364,708,0,0,0,0,0,0,0,0,0,-1,860,316,0,0
-357,708,0,0,0,0,0,0,0,0,0,-1,867,316,0,0
-350,708,0,0,0,0,0,0,0,0,0,-1,874,316,0,0
-343,708,0,0,0,0,0,0,0,0,0,-1,881,316,0,0
-336,708,0,0,0,0,0,0,0,0,0,-1,888,316,0,0
-329,708,0,0,0,0,0,0,0,0,0,-1,895,316,0,0
-322,708,0,0,0,0,0,0,0,0,0,-1,902,316,0,0
-315,708,0,0,0,0,0,0,0,0,0,-1,909,316,0,0
-308,708,0,0,0,0,0,0,0,0,0,-1,916,316,0,0
-301,708,0,0,0,0,0,0,0,0,0,-1,923,316,0,0
-294,708,0,0,0,0,0,0,0,0,0,-1,930,316,0,0
-287,708,0,0,0,0,0,0,0,0,0,-1,937,316,0,0
-280,708,0,0,0,0,0,0,0,0,0,-1,944,316,0,0
-273,708,0,0,0,0,0,0,0,0,0,-1,951,316,0,0
-266,708,0,0,0,0,0,0,0,0,0,-1,958,316,0,0
-259,708,0,0,0,0,0,0,0,0,0,-1,965,316,0,0
-252,708,0,0,0,0,0,0,0,0,0,-1,972,316,0,0
-245,708,0,0,0,0,0,0,0,0,0,-1,979,316,0,0
-238,708,0,0,0,0,0,0,0,0,0,-1,986,316,0,0
-231,708,0,0,0,0,0,0,0,0,0,-1,993,316,0,0
-224,708,0,0,0,0,0,0,0,0,0,-1,1000,316,0,0
-217,708,0,0,0,0,0,0,0,0,0,-1,1007,316,0,0
-210,708,0,0,0,0,0,0,0,0,0,-1,1014,316,0,0
-203,708,0,0,0,0,0,0,0,0,0,-1,1021,316,0,0
-196,708,0,0,0,0,0,0,0,0,0,-1,1028,316,0,0
-189,708,0,0,0,0,0,0,0,0,0,-1,1035,316,0,0
-182,708,0,0,0,0,0,0,0,0,0,-1,1042,316,0,0
-175,708,0,0,0,0,0,0,0,0,0,-1,1049,316,0,0
-168,708,0,0,0,0,0,0,0,0,0,-1,1056,316,0,0
-161,708,0,0,0,0,0,0,0,0,0,-1,1063,316,0,0
-154,708,0,0,0,0,0,0,0,0,0,-1,1070,316,0,0
-147,708,0,0,0,0,0,0,0,0,0,-1,1077,316,0,0
-140,708,0,0,0,0,0,0,0,0,0,-1,1084,316,0,0
-133,708,0,0,0,0,0,0,0,0,0,-1,1091,316,0,0
-126,708,0,0,0,0,0,0,0,0,0,-1,1098,316,0,0
-119,708,0,0,0,0,0,0,0,0,0,-1,1105,316,0,0
-112,708,0,0,0,0,0,0,0,0,0,-1,1112,316,0,0
-105,708,0,0,0,0,0,0,0,0,0,-1,1119,316,0,0
-98,708,0,0,0,0,0,0,0,0,0,-1,1126,316,0,0
-91,708,0,0,0,0,0,0,0,0,0,-1,1133,316,0,0
-84,708,0,0,0,0,0,0,0,0,0,-1,1140,316,0,0
-77,708,0,0,0,0,0,0,0,0,0,-1,1147,316,0,0
-70,708,0,0,0,0,0,0,0,0,0,-1,1154,316,0,0
-63,708,0,0,0,0,0,0,0,0,0,-1,1161,316,0,0
-56,708,0,0,0,0,0,0,0,0,0,-1,1168,316,0,0
-49,708,0,0,0,0,0,0,0,0,0,-1,1175,316,0,0
-42,708,0,0,0,0,0,0,0,0,0,-1,1182,316,0,0
-35,708,-2.71204,-6.31558,0,0,0,0,0,0,0,-1,1189,316,-2.712,6.3156
-28,708,-2.92371,-5.53253,0,0,0,0,0,0,0,-1,1196,316,-2.92375,5.53254
-21,708,-10.6349,-7.11816,0,0,0,0,0,0,0,-1,1203,316,-10.6349,7.11818
-14,708,2.47583,-11.684,0,0,0,0,0,0,0,-1,1210,316,2.4758,11.684
-7,708,2.76465,-11.9804,0,0,0,0,0,0,0,-1,1217,316,2.76465,11.9804
0,708,2.40967,-14.7239,0,0,0,0,0,0,0,-1,1224,316,2.4097,14.7239
7,708,2.10547,-15.1113,0,0,0,0,0,0,0,-1,1231,316,2.10547,15.1113
14,708,1.85095,-15.5014,0.0185287,3.90346e-05,-0.0518728,0.0619741,-0.0434063,-0.697213,0.0611554,0.0447498,1238,316,1.85091,15.5014
21,708,1.60303,-15.9378,0.0198612,0.00244493,-0.0454405,0.0574205,-0.0351144,-0.690727,0.0539399,0.0475676,1245,316,1.60307,15.9378
28,708,2.74878,-16.0985,0.0221575,0.00760724,-0.0394002,0.0549485,-0.0251838,-0.694103,0.0473163,0.0447307,1252,316,2.74878,16.0985
35,708,3.23254,-16.8168,0,0,0,0,0,0,0,-1,1259,316,3.23254,16.8168
42,708,1.3573,-14.5114,0,0,0,0,0,0,0,-1,1266,316,1.35728,14.5114
49,708,1.43396,-14.7408,0.035182,0.0512887,-0.0315092,0.0757575,0.0107132,-0.910513,0.0473397,0.0429097,1273,316,1.43394,14.7408
56,708,1.28564,-14.6848,0.0414171,0.0686732,-0.0335943,0.0912984,0.0187919,-0.978088,0.0556691,0.0426991,1280,316,1.28564,14.6848
63,708,1.72424,-14.2702,0.0458966,0.0858397,-0.0351209,0.10627,0.0254659,-1.04392,0.0640681,0.0410651,1287,316,1.72429,14.2702
70,708,1.94568,-13.6753,0.051703,0.105396,-0.0369086,0.124189,0.0329098,-1.09983,0.0742935,0.0418088,1294,316,1.94572,13.6753
77,708,2.07739,-12.9503,0.055548,0.120132,-0.0380596,0.137753,0.037927,-1.1372,0.0821645,0.0427566,1301,316,2.07735,12.9504
84,708,2.20081,-12.0246,0.0573559,0.129475,-0.0403085,0.1475,0.0393316,-1.15031,0.0881961,0.0439919,1308,316,2.2008,12.0246
91,708,2.34583,-11.1549,0.057862,0.135107,-0.0386977,0.151158,0.0418109,-1.17761,0.090128,0.0459634,1315,316,2.34585,11.1549
98,708,2.38672,-9.9877,0.0575448,0.135425,-0.0364837,0.149845,0.0431239,-1.19437,0.0890728,0.0463863,1322,316,2.38668,9.98771
105,708,2.82568,-15.8121,0.0559885,0.13027,-0.0322597,0.142324,0.0439345,-1.21321,0.0841519,0.0455489,1329,316,2.82572,15.8121
112,708,2.86707,-15.282,0.0519288,0.118789,-0.0250506,0.127133,0.0435845,-1.24926,0.0745995,0.0446149,1336,316,2.86706,15.282
119,708,2.8075,-14.879,0,0,0,0,0,0,0,-1,1343,316,2.80755,14.879
126,708,2.87756,-14.3526,0.0391441,0.083381,-0.00551906,0.0840592,0.0384659,-1.44853,0.0485897,0.0428884,1350,316,2.87762,14.3526
133,708,2.92456,-13.7864,0.0307542,0.0583576,0.00625019,0.0597068,0.0294049,1.35818,0.034473,0.0479623,1357,316,2.92457,13.7864
140,708,2.88416,-13.0873,0.0217509,0.0354457,0.017315,0.0472181,0.00997847,0.973691,0.028736,0.0497966,1364,316,2.8842,13.0873
147,708,2.85474,-12.1132,0,0,0,0,0,0,0,-1,1371,316,2.85478,12.1132
154,708,0,0,0,0,0,0,0,0,0,-1,1378,316,0,0
161,708,0,0,0,0,0,0,0,0,0,-1,1385,316,0,0
168,708,0,0,0,0,0,0,0,0,0,-1,1392,316,0,0
175,708,0,0,0,0,0,0,0,0,0,-1,1399,316,0,0
182,708,0,0,0,0,0,0,0,0,0,-1,1406,316,0,0
189,708,0,0,0,0,0,0,0,0,0,-1,1413,316,0,0
196,708,0,0,0,0,0,0,0,0,0,-1,1420,316,0,0
203,708,0,0,0,0,0,0,0,0,0,-1,1427,316,0,0
210,708,0,0,0,0,0,0,0,0,0,-1,1434,316,0,0
217,708,0,0,0,0,0,0,0,0,0,-1,1441,316,0,0
224,708,0,0,0,0,0,0,0,0,0,-1,1448,316,0,0
231,708,0,0,0,0,0,0,0,0,0,-1,1455,316,0,0
238,708,0,0,0,0,0,0,0,0,0,-1,1462,316,0,0
245,708,0,0,0,0,0,0,0,0,0,-1,1469,316,0,0
252,708,0,0,0,0,0,0,0,0,0,-1,1476,316,0,0
259,708,0,0,0,0,0,0,0,0,0,-1,1483,316,0,0
266,708,0,0,0,0,0,0,0,0,0,-1,1490,316,0,0
273,708,0,0,0,0,0,0,0,0,0,-1,1497,316,0,0
280,708,0,0,0,0,0,0,0,0,0,-1,1504,316,0,0
287,708,0,0,0,0,0,0,0,0,0,-1,1511,316,0,0
294,708,0,0,0,0,0,0,0,0,0,-1,1518,316,0,0
301,708,0,0,0,0,0,0,0,0,0,-1,1525,316,0,0
308,708,0,0,0,0,0,0,0,0,0,-1,1532,316,0,0
315,708,0,0,0,0,0,0,0,0,0,-1,1539,316,0,0
322,708,0,0,0,0,0,0,0,0,0,-1,1546,316,0,0
329,708,0,0,0,0,0,0,0,0,0,-1,1553,316,0,0
336,708,0,0,0,0,0,0,0,0,0,-1,1560,316,0,0
343,708,0,0,0,0,0,0,0,0,0,-1,1567,316,0,0
350,708,0,0,0,0,0,0,0,0,0,-1,1574,316,0,0
357,708,0,0,0,0,0,0,0,0,0,-1,1581,316,0,0
364,708,0,0,0,0,0,0,0,0,0,-1,1588,316,0,0
371,708,0,0,0,0,0,0,0,0,0,-1,1595,316,0,0
378,708,0,0,0,0,0,0,0,0,0,-1,1602,316,0,0
385,708,0,0,0,0,0,0,0,0,0,-1,1609,316,0,0
392,708,0,0,0,0,0,0,0,0,0,-1,1616,316,0,0
399,708,0,0,0,0,0,0,0,0,0,-1,1623,316,0,0
406,708,0,0,0,0,0,0,0,0,0,-1,1630,316,0,0
413,708,0,0,0,0,0,0,0,0,0,-1,1637,316,0,0
420,708,0,0,0,0,0,0,0,0,0,-1,1644,316,0,0
427,708,0,0,0,0,0,0,0,0,0,-1,1651,316,0,0
434,708,0,0,0,0,0,0,0,0,0,-1,1658,316,0,0
441,708,0,0,0,0,0,0,0,0,0,-1,1665,316,0,0
448,708,0,0,0,0,0,0,0,0,0,-1,1672,316,0,0
455,708,0,0,0,0,0,0,0,0,0,-1,1679,316,0,0
462,708,0,0,0,0,0,0,0,0,0,-1,1686,316,0,0
469,708,0,0,0,0,0,0,0,0,0,-1,1693,316,0,0
476,708,0,0,0,0,0,0,0,0,0,-1,1700,316,0,0
483,708,0,0,0,0,0,0,0,0,0,-1,1707,316,0,0
490,708,0,0,0,0,0,0,0,0,0,-1,1714,316,0,0
497,708,0,0,0,0,0,0,0,0,0,-1,1721,316,0,0
504,708,0,0,0,0,0,0,0,0,0,-1,1728,316,0,0
511,708,0,0,0,0,0,0,0,0,0,-1,1735,316,0,0
518,708,0,0,0,0,0,0,0,0,0,-1,1742,316,0,0
525,708,0,0,0,0,0,0,0,0,0,-1,1749,316,0,0
532,708,0,0,0,0,0,0,0,0,0,-1,1756,316,0,0
539,708,0,0,0,0,0,0,0,0,0,-1,1763,316,0,0
546,708,0,0,0,0,0,0,0,0,0,-1,1770,316,0,0
553,708,0,0,0,0,0,0,0,0,0,-1,1777,316,0,0
560,708,0,0,0,0,0,0,0,0,0,-1,1784,316,0,0
567,708,0,0,0,0,0,0,0,0,0,-1,1791,316,0,0
574,708,0,0,0,0,0,0,0,0,0,-1,1798,316,0,0
581,708,0,0,0,0,0,0,0,0,0,-1,1805,316,0,0
588,708,0,0,0,0,0,0,0,0,0,-1,1812,316,0,0
595,708,0,0,0,0,0,0,0,0,0,-1,1819,316,0,0
602,708,0,0,0,0,0,0,0,0,0,-1,1826,316,0,0
609,708,0,0,0,0,0,0,0,0,0,-1,1833,316,0,0
616,708,0,0,0,0,0,0,0,0,0,-1,1840,316,0,0
623,708,0,0,0,0,0,0,0,0,0,-1,1847,316,0,0
630,708,0,0,0,0,0,0,0,0,0,-1,1854,316,0,0
637,708,0,0,0,0,0,0,0,0,0,-1,1861,316,0,0
644,708,0,0,0,0,0,0,0,0,0,-1,1868,316,0,0
651,708,0,0,0,0,0,0,0,0,0,-1,1875,316,0,0
658,708,0,0,0,0,0,0,0,0,0,-1,1882,316,0,0
665,708,0,0,0,0,0,0,0,0,0,-1,1889,316,0,0
672,708,0,0,0,0,0,0,0,0,0,-1,1896,316,0,0
679,708,0,0,0,0,0,0,0,0,0,-1,1903,316,0,0
686,708,0,0,0,0,0,0,0,0,0,-1,1910,316,0,0
693,708,0,0,0,0,0,0,0,0,0,-1,1917,316,0,0
700,708,0,0,0,0,0,0,0,0,0,-1,1924,316,0,0
707,708,0,0,0,0,0,0,0,0,0,-1,1931,316,0,0
714,708,0,0,0,0,0,0,0,0,0,-1,1938,316,0,0
721,708,0,0,0,0,0,0,0,0,0,-1,1945,316,0,0
728,708,0,0,0,0,0,0,0,0,0,-1,1952,316,0,0
735,708,0,0,0,0,0,0,0,0,0,-1,1959,316,0,0
742,708,0,0,0,0,0,0,0,0,0,-1,1966,316,0,0
749,708,0,0,0,0,0,0,0,0,0,-1,1973,316,0,0
756,708,0,0,0,0,0,0,0,0,0,-1,1980,316,0,0
763,708,0,0,0,0,0,0,0,0,0,-1,1987,316,0,0
770,708,0,0,0,0,0,0,0,0,0,-1,1994,316,0,0
777,708,0,0,0,0,0,0,0,0,0,-1,2001,316,0,0
784,708,0,0,0,0,0,0,0,0,0,-1,2008,316,0,0
791,708,0,0,0,0,0,0,0,0,0,-1,2015,316,0,0
798,708,0,0,0,0,0,0,0,0,0,-1,2022,316,0,0
805,708,0,0,0,0,0,0,0,0,0,-1,2029,316,0,0
812,708,0,0,0,0,0,0,0,0,0,-1,2036,316,0,0
-700,701,0,0,0,0,0,0,0,0,0,-1,524,323,0,0
-693,701,0,0,0,0,0,0,0,0,0,-1,531,323,0,0
-686,701,0,0,0,0,0,0,0,0,0,-1,538,323,0,0
-679,701,0,0,0,0,0,0,0,0,0,-1,545,323,0,0
-672,701,0,0,0,0,0,0,0,0,0,-1,552,323,0,0
-665,701,0,0,0,0,0,0,0,0,0,-1,559,323,0,0
-658,701,0,0,0,0,0,0,0,0,0,-1,566,323,0,0
-651,701,0,0,0,0,0,0,0,0,0,-1,573,323,0,0
-644,701,0,0,0,0,0,0,0,0,0,-1,580,323,0,0
-637,701,0,0,0,0,0,0,0,0,0,-1,587,323,0,0
-630,701,0,0,0,0,0,0,0,0,0,-1,594,323,0,0
-623,701,0,0,0,0,0,0,0,0,0,-1,601,323,0,0
-616,701,0,0,0,0,0,0,0,0,0,-1,608,323,0,0
-609,701,0,0,0,0,0,0,0,0,0,-1,615,323,0,0
-602,701,0,0,0,0,0,0,0,0,0,-1,622,323,0,0
-595,701,0,0,0,0,0,0,0,0,0,-1,629,323,0,0
-588,701,0,0,0,0,0,0,0,0,0,-1,636,323,0,0
-581,701,0,0,0,0,0,0,0,0,0,-1,643,323,0,0
-574,701,0,0,0,0,0,0,0,0,0,-1,650,323,0,0
-567,701,0,0,0,0,0,0,0,0,0,-1,657,323,0,0
-560,701,0,0,0,0,0,0,0,0,0,-1,664,323,0,0
-553,701,0,0,0,0,0,0,0,0,0,-1,671,323,0,0
-546,701,0,0,0,0,0,0,0,0,0,-1,678,323,0,0
-539,701,0,0,0,0,0,0,0,0,0,-1,685,323,0,0
-532,701,0,0,0,0,0,0,0,0,0,-1,692,323,0,0
-525,701,0,0,0,0,0,0,0,0,0,-1,699,323,0,0
-518,701,0,0,0,0,0,0,0,0,0,-1,706,323,0,0
-511,701,0,0,0,0,0,0,0,0,0,-1,713,323,0,0
-504,701,0,0,0,0,0,0,0,0,0,-1,720,323,0,0
-497,701,0,0,0,0,0,0,0,0,0,-1,727,323,0,0
-490,701,0,0,0,0,0,0,0,0,0,-1,734,323,0,0
-483,701,0,0,0,0,0,0,0,0,0,-1,741,323,0,0
-476,701,0,0,0,0,0,0,0,0,0,-1,748,323,0,0
-469,701,0,0,0,0,0,0,0,0,0,-1,755,323,0,0
-462,701,0,0,0,0,0,0,0,0,0,-1,762,323,0,0
-455,701,0,0,0,0,0,0,0,0,0,-1,769,323,0,0
-448,701,0,0,0,0,0,0,0,0,0,-1,776,323,0,0
-441,701,0,0,0,0,0,0,0,0,0,-1,783,323,0,0
-434,701,0,0,0,0,0,0,0,0,0,-1,790,323,0,0
-427,701,0,0,0,0,0,0,0,0,0,-1,797,323,0,0
-420,701,0,0,0,0,0,0,0,0,0,-1,804,323,0,0
-413,701,0,0,0,0,0,0,0,0,0,-1,811,323,0,0
-406,701,0,0,0,0,0,0,0,0,0,-1,818,323,0,0
-399,701,0,0,0,0,0,0,0,0,0,-1,825,323,0,0
-392,701,0,0,0,0,0,0,0,0,0,-1,832,323,0,0
-385,701,0,0,0,0,0,0,0,0,0,-1,839,323,0,0
-378,701,0,0,0,0,0,0,0,0,0,-1,846,323,0,0
-371,701,0,0,0,0,0,0,0,0,0,-1,853,323,0,0
-364,701,0,0,0,0,0,0,0,0,0,-1,860,323,0,0
-357,701,0,0,0,0,0,0,0,0,0,-1,867,323,0,0
-350,701,0,0,0,0,0,0,0,0,0,-1,874,323,0,0
-343,701,0,0,0,0,0,0,0,0,0,-1,881,323,0,0
-336,701,0,0,0,0,0,0,0,0,0,-1,888,323,0,0
-329,701,0,0,0,0,0,0,0,0,0,-1,895,323,0,0
-322,701,0,0,0,0,0,0,0,0,0,-1,902,323,0,0
-315,701,0,0,0,0,0,0,0,0,0,-1,909,323,0,0
-308,701,0,0,0,0,0,0,0,0,0,-1,916,323,0,0
-301,701,0,0,0,0,0,0,0,0,0,-1,923,323,0,0
-294,701,0,0,0,0,0,0,0,0,0,-1,930,323,0,0
-287,701,0,0,0,0,0,0,0,0,0,-1,937,323,0,0
-280,701,0,0,0,0,0,0,0,0,0,-1,944,323,0,0
-273,701,0,0,0,0,0,0,0,0,0,-1,951,323,0,0
-266,701,0,0,0,0,0,0,0,0,0,-1,958,323,0,0
-259,701,0,0,0,0,0,0,0,0,0,-1,965,323,0,0
-252,701,0,0,0,0,0,0,0,0,0,-1,972,323,0,0
-245,701,0,0,0,0,0,0,0,0,0,-1,979,323,0,0
-238,701,0,0,0,0,0,0,0,0,0,-1,986,323,0,0
-231,701,0,0,0,0,0,0,0,0,0,-1,993,323,0,0
-224,701,0,0,0,0,0,0,0,0,0,-1,1000,323,0,0
-217,701,0,0,0,0,0,0,0,0,0,-1,1007,323,0,0
-210,701,0,0,0,0,0,0,0,0,0,-1,1014,323,0,0
-203,701,0,0,0,0,0,0,0,0,0,-1,1021,323,0,0
-196,701,0,0,0,0,0,0,0,0,0,-1,1028,323,0,0
-189,701,0,0,0,0,0,0,0,0,0,-1,1035,323,0,0
-182,701,0,0,0,0,0,0,0,0,0,-1,1042,323,0,0
-175,701,0,0,0,0,0,0,0,0,0,-1,1049,323,0,0
-168,701,0,0,0,0,0,0,0,0,0,-1,1056,323,0,0
-161,701,0,0,0,0,0,0,0,0,0,-1,1063,323,0,0
-154,701,0,0,0,0,0,0,0,0,0,-1,1070,323,0,0
-147,701,0,0,0,0,0,0,0,0,0,-1,1077,323,0,0
-140,701,0,0,0,0,0,0,0,0,0,-1,1084,323,0,0
-133,701,0,0,0,0,0,0,0,0,0,-1,1091,323,0,0
-126,701,0,0,0,0,0,0,0,0,0,-1,1098,323,0,0
-119,701,0,0,0,0,0,0,0,0,0,-1,1105,323,0,0
-112,701,0,0,0,0,0,0,0,0,0,-1,1112,323,0,0
-105,701,0,0,0,0,0,0,0,0,0,-1,1119,323,0,0
-98,701,0,0,0,0,0,0,0,0,0,-1,1126,323,0,0
-91,701,0,0,0,0,0,0,0,0,0,-1,1133,323,0,0
-84,701,0,0,0,0,0,0,0,0,0,-1,1140,323,0,0
-77,701,0,0,0,0,0,0,0,0,0,-1,1147,323,0,0
-70,701,-2.36731,-1.49271,0,0,0,0,0,0,0,-1,1154,323,-2.36729,1.4927
-63,701,-2.479,-0.295959,0,0,0,0,0,0,0,-1,1161,323,-2.47895,0.295961
-56,701,-0.420166,-0.101776,0,0,0,0,0,0,0,-1,1168,323,-0.420119,0.101777
-49,701,-1.09021,-0.155762,0,0,0,0,0,0,0,-1,1175,323,-1.09024,0.155768
-42,701,-0.210327,-0.299133,0,0,0,0,0,0,0,-1,1182,323,-0.210379,0.29914
-35,701,-2.9635,-7.98676,0,0,0,0,0,0,0,-1,1189,323,-2.9635,7.98676
-28,701,-6.64417,-5.4917,0,0,0,0,0,0,0,-1,1196,323,-6.64411,5.4917
-21,701,1.7168,-12.2716,0,0,0,0,0,0,0,-1,1203,323,1.71674,12.2716
-14,701,2.19446,-12.4578,0,0,0,0,0,0,0,-1,1210,323,2.1945,12.4578
-7,701,2.37695,-12.746,0,0,0,0,0,0,0,-1,1217,323,2.37694,12.746
0,701,2.77539,-14.9784,0,0,0,0,0,0,0,-1,1224,323,2.77542,14.9784
7,701,2.84949,-15.146,0,0,0,0,0,0,0,-1,1231,323,2.84943,15.146
14,701,2.4447,-15.4986,0.0120726,0.000615483,-0.0383296,0.0450993,-0.0324113,-0.71122,0.0449502,0.0459264,1238,323,2.44471,15.4986
21,701,3.07727,-15.568,0.0135963,0.00332158,-0.033714,0.0425621,-0.0256442,-0.709789,0.0397807,0.0465193,1245,323,3.07722,15.568
28,701,2.70239,-15.9547,0.0160113,0.00812805,-0.0293772,0.0417101,-0.0175707,-0.71871,0.035159,0.0449877,1252,323,2.7024,15.9547
35,701,2.302,-15.8164,0,0,0,0,0,0,0,-1,1259,323,2.30202,15.8164
42,701,2.2312,-15.8472,0,0,0,0,0,0,0,-1,1266,323,2.2312,15.8472
49,701,1.8335,-15.2089,0.0279072,0.0451469,-0.024696,0.0626842,0.0103699,-0.953307,0.0387975,0.0464903,1273,323,1.83354,15.2089
56,701,2.05762,-14.9399,0.0332598,0.0587991,-0.0261737,0.0751521,0.0169068,-1.01235,0.0455246,0.0450492,1280,323,2.05763,14.9399
63,701,2.28394,-14.5193,0.0370705,0.0721017,-0.0270884,0.0868441,0.0223281,-1.07239,0.0520742,0.0424992,1287,323,2.28389,14.5193
70,701,2.48499,-13.9,0.041864,0.0869472,-0.0278427,0.100229,0.0285818,-1.12568,0.0596214,0.0428197,1294,323,2.48495,13.9
77,701,2.802,-13.2747,0.0449259,0.0983876,-0.0277997,0.110223,0.0330904,-1.1683,0.0653088,0.0440071,1301,323,2.802,13.2747
84,701,3.09814,-12.5607,0.0460743,0.105289,-0.0288617,0.117028,0.0343344,-1.18447,0.0694627,0.0443728,1308,323,3.09811,12.5607
91,701,2.91296,-11.146,0.0463232,0.109787,-0.0268778,0.119641,0.03647,-1.21941,0.0708069,0.0423447,1315,323,2.91296,11.146
98,701,2.97571,-16.3036,0.0459191,0.110106,-0.0244237,0.118342,0.0376825,-1.24554,0.0698107,0.0447344,1322,323,2.97575,16.3036
105,701,3.18311,-15.6172,0.0443786,0.106448,-0.0204839,0.112598,0.0382281,-1.2791,0.0661156,0.0445801,1329,323,3.18311,15.6172
112,701,3.20325,-14.8314,0.0408202,0.0981596,-0.0144319,0.101587,0.0373927,-1.33762,0.0593279,0.0433155,1336,323,3.20324,14.8314
119,701,3.4209,-14.0642,0,0,0,0,0,0,0,-1,1343,323,3.42085,14.0642
126,701,3.80615,-13.2968,0.0304219,0.0718928,0.00114778,0.0719245,0.0303902,1.54315,0.0416915,0.0444683,1350,323,3.80612,13.2969
133,701,3.35425,-12.9535,0.0241946,0.0544497,0.00953396,0.0572034,0.0214409,1.28962,0.0333696,0.0483402,1357,323,3.3542,12.9535
140,701,3.32605,-12.2688,0.0180219,0.0389679,0.0168209,0.0483097,0.00868015,1.06384,0.0297384,0.0484077,1364,323,3.32607,12.2688
147,701,1.2605,-15.83,0,0,0,0,0,0,0,-1,1371,323,1.26056,15.83
154,701,0.416016,-14.3994,0,0,0,0,0,0,0,-1,1378,323,0.415972,14.3995
161,701,1.745,-14.912,0,0,0,0,0,0,0,-1,1385,323,1.74502,14.912
168,701,6.88513,-0.0237427,0,0,0,0,0,0,0,-1,1392,323,6.88517,0.0237498
175,701,6.94556,0.0693054,0,0,0,0,0,0,0,-1,1399,323,6.94555,-0.0692958
182,701,8.80652,5.42807,0,0,0,0,0,0,0,-1,1406,323,8.8065,-5.42808
189,701,8.58081,4.24493,0,0,0,0,0,0,0,-1,1413,323,8.58082,-4.24494
196,701,0,0,0,0,0,0,0,0,0,-1,1420,323,0,0
203,701,0,0,0,0,0,0,0,0,0,-1,1427,323,0,0
210,701,0,0,0,0,0,0,0,0,0,-1,1434,323,0,0
217,701,0,0,0,0,0,0,0,0,0,-1,1441,323,0,0
224,701,0,0,0,0,0,0,0,0,0,-1,1448,323,0,0
231,701,0,0,0,0,0,0,0,0,0,-1,1455,323,0,0
238,701,0,0,0,0,0,0,0,0,0,-1,1462,323,0,0
245,701,0,0,0,0,0,0,0,0,0,-1,1469,323,0,0
252,701,0,0,0,0,0,0,0,0,0,-1,1476,323,0,0
259,701,0,0,0,0,0,0,0,0,0,-1,1483,323,0,0
266,701,0,0,0,0,0,0,0,0,0,-1,1490,323,0,0
273,701,0,0,0,0,0,0,0,0,0,-1,1497,323,0,0
280,701,0,0,0,0,0,0,0,0,0,-1,1504,323,0,0
287,701,0,0,0,0,0,0,0,0,0,-1,1511,323,0,0
294,701,0,0,0,0,0,0,0,0,0,-1,1518,323,0,0
301,701,0,0,0,0,0,0,0,0,0,-1,1525,323,0,0
308,701,0,0,0,0,0,0,0,0,0,-1,1532,323,0,0
315,701,0,0,0,0,0,0,0,0,0,-1,1539,323,0,0
322,701,0,0,0,0,0,0,0,0,0,-1,1546,323,0,0
329,701,0,0,0,0,0,0,0,0,0,-1,1553,323,0,0
336,701,0,0,0,0,0,0,0,0,0,-1,1560,323,0,0
343,701,0,0,0,0,0,0,0,0,0,-1,1567,323,0,0
350,701,0,0,0,0,0,0,0,0,0,-1,1574,323,0,0
357,701,0,0,0,0,0,0,0,0,0,-1,1581,323,0,0
364,701,0,0,0,0,0,0,0,0,0,-1,1588,323,0,0
371,701,0,0,0,0,0,0,0,0,0,-1,1595,323,0,0
378,701,0,0,0,0,0,0,0,0,0,-1,1602,323,0,0
385,701,0,0,0,0,0,0,0,0,0,-1,1609,323,0,0
392,701,0,0,0,0,0,0,0,0,0,-1,1616,323,0,0
399,701,0,0,0,0,0,0,0,0,0,-1,1623,323,0,0
406,701,0,0,0,0,0,0,0,0,0,-1,1630,323,0,0
413,701,0,0,0,0,0,0,0,0,0,-1,1637,323,0,0
420,701,0,0,0,0,0,0,0,0,0,-1,1644,323,0,0
427,701,0,0,0,0,0,0,0,0,0,-1,1651,323,0,0
434,701,0,0,0,0,0,0,0,0,0,-1,1658,323,0,0
441,701,0,0,0,0,0,0,0,0,0,-1,1665,323,0,0
448,701,0,0,0,0,0,0,0,0,0,-1,1672,323,0,0
455,701,0,0,0,0,0,0,0,0,0,-1,1679,323,0,0
462,701,0,0,0,0,0,0,0,0,0,-1,1686,323,0,0
469,701,0,0,0,0,0,0,0,0,0,-1,1693,323,0,0
476,701,0,0,0,0,0,0,0,0,0,-1,1700,323,0,0
483,701,0,0,0,0,0,0,0,0,0,-1,1707,323,0,0
490,701,0,0,0,0,0,0,0,0,0,-1,1714,323,0,0
497,701,0,0,0,0,0,0,0,0,0,-1,1721,323,0,0
504,701,0,0,0,0,0,0,0,0,0,-1,1728,323,0,0
511,701,0,0,0,0,0,0,0,0,0,-1,1735,323,0,0
518,701,0,0,0,0,0,0,0,0,0,-1,1742,323,0,0
525,701,0,0,0,0,0,0,0,0,0,-1,1749,323,0,0
532,701,0,0,0,0,0,0,0,0,0,-1,1756,323,0,0
539,701,0,0,0,0,0,0,0,0,0,-1,1763,323,0,0
546,701,0,0,0,0,0,0,0,0,0,-1,1770,323,0,0
553,701,0,0,0,0,0,0,0,0,0,-1,1777,323,0,0
560,701,0,0,0,0,0,0,0,0,0,-1,1784,323,0,0
567,701,0,0,0,0,0,0,0,0,0,-1,1791,323,0,0
574,701,0,0,0,0,0,0,0,0,0,-1,1798,323,0,0
581,701,0,0,0,0,0,0,0,0,0,-1,1805,323,0,0
588,701,0,0,0,0,0,0,0,0,0,-1,1812,323,0,0
595,701,0,0,0,0,0,0,0,0,0,-1,1819,323,0,0
602,701,0,0,0,0,0,0,0,0,0,-1,1826,323,0,0
609,701,0,0,0,0,0,0,0,0,0,-1,1833,323,0,0
616,701,0,0,0,0,0,0,0,0,0,-1,1840,323,0,0
623,701,0,0,0,0,0,0,0,0,0,-1,1847,323,0,0
630,701,0,0,0,0,0,0,0,0,0,-1,1854,323,0,0
637,701,0,0,0,0,0,0,0,0,0,-1,1861,323,0,0
644,701,0,0,0,0,0,0,0,0,0,-1,1868,323,0,0
651,701,0,0,0,0,0,0,0,0,0,-1,1875,323,0,0
658,701,0,0,0,0,0,0,0,0,0,-1,1882,323,0,0
665,701,0,0,0,0,0,0,0,0,0,-1,1889,323,0,0
672,701,0,0,0,0,0,0,0,0,0,-1,1896,323,0,0
679,701,0,0,0,0,0,0,0,0,0,-1,1903,323,0,0
686,701,0,0,0,0,0,0,0,0,0,-1,1910,323,0,0
693,701,0,0,0,0,0,0,0,0,0,-1,1917,323,0,0
700,701,0,0,0,0,0,0,0,0,0,-1,1924,323,0,0
707,701,0,0,0,0,0,0,0,0,0,-1,1931,323,0,0
714,701,0,0,0,0,0,0,0,0,0,-1,1938,323,0,0
721,701,0,0,0,0,0,0,0,0,0,-1,1945,323,0,0
728,701,0,0,0,0,0,0,0,0,0,-1,1952,323,0,0
735,701,0,0,0,0,0,0,0,0,0,-1,1959,323,0,0
742,701,0,0,0,0,0,0,0,0,0,-1,1966,323,0,0
749,701,0,0,0,0,0,0,0,0,0,-1,1973,323,0,0
756,701,0,0,0,0,0,0,0,0,0,-1,1980,323,0,0
763,701,0,0,0,0,0,0,0,0,0,-1,1987,323,0,0
770,701,0,0,0,0,0,0,0,0,0,-1,1994,323,0,0
777,701,0,0,0,0,0,0,0,0,0,-1,2001,323,0,0
784,701,0,0,0,0,0,0,0,0,0,-1,2008,323,0,0
791,701,0,0,0,0,0,0,0,0,0,-1,2015,323,0,0
798,701,0,0,0,0,0,0,0,0,0,-1,2022,323,0,0
805,701,0,0,0,0,0,0,0,0,0,-1,2029,323,0,0
812,701,0,0,0,0,0,0,0,0,0,-1,2036,323,0,0
-700,694,0,0,0,0,0,0,0,0,0,-1,524,330,0,0
-693,694,0,0,0,0,0,0,0,0,0,-1,531,330,0,0
-686,694,0,0,0,0,0,0,0,0,0,-1,538,330,0,0
-679,694,0,0,0,0,0,0,0,0,0,-1,545,330,0,0
-672,694,0,0,0,0,0,0,0,0,0,-1,552,330,0,0
-665,694,0,0,0,0,0,0,0,0,0,-1,559,330,0,0
-658,694,0,0,0,0,0,0,0,0,0,-1,566,330,0,0
-651,694,0,0,0,0,0,0,0,0,0,-1,573,330,0,0
-644,694,0,0,0,0,0,0,0,0,0,-1,580,330,0,0
-637,694,0,0,0,0,0,0,0,0,0,-1,587,330,0,0
-630,694,0,0,0,0,0,0,0,0,0,-1,594,330,0,0
-623,694,0,0,0,0,0,0,0,0,0,-1,601,330,0,0
-616,694,0,0,0,0,0,0,0,0,0,-1,608,330,0,0
-609,694,0,0,0,0,0,0,0,0,0,-1,615,330,0,0
-602,694,0,0,0,0,0,0,0,0,0,-1,622,330,0,0
-595,694,0,0,0,0,0,0,0,0,0,-1,629,330,0,0
-588,694,0,0,0,0,0,0,0,0,0,-1,636,330,0,0
-581,694,0,0,0,0,0,0,0,0,0,-1,643,330,0,0
-574,694,0,0,0,0,0,0,0,0,0,-1,650,330,0,0
-567,694,0,0,0,0,0,0,0,0,0,-1,657,330,0,0
-560,694,0,0,0,0,0,0,0,0,0,-1,664,330,0,0
-553,694,0,0,0,0,0,0,0,0,0,-1,671,330,0,0
-546,694,0,0,0,0,0,0,0,0,0,-1,678,330,0,0
-539,694,0,0,0,0,0,0,0,0,0,-1,685,330,0,0
-532,694,0,0,0,0,0,0,0,0,0,-1,692,330,0,0
-525,694,0,0,0,0,0,0,0,0,0,-1,699,330,0,0
-518,694,0,0,0,0,0,0,0,0,0,-1,706,330,0,0
-511,694,0,0,0,0,0,0,0,0,0,-1,713,330,0,0
-504,694,0,0,0,0,0,0,0,0,0,-1,720,330,0,0
-497,694,0,0,0,0,0,0,0,0,0,-1,727,330,0,0
-490,694,0,0,0,0,0,0,0,0,0,-1,734,330,0,0
-483,694,0,0,0,0,0,0,0,0,0,-1,741,330,0,0
-476,694,0,0,0,0,0,0,0,0,0,-1,748,330,0,0
-469,694,0,0,0,0,0,0,0,0,0,-1,755,330,0,0
-462,694,0,0,0,0,0,0,0,0,0,-1,762,330,0,0
-455,694,0,0,0,0,0,0,0,0,0,-1,769,330,0,0
-448,694,0,0,0,0,0,0,0,0,0,-1,776,330,0,0
-441,694,0,0,0,0,0,0,0,0,0,-1,783,330,0,0
-434,694,0,0,0,0,0,0,0,0,0,-1,790,330,0,0
-427,694,0,0,0,0,0,0,0,0,0,-1,797,330,0,0
-420,694,0,0,0,0,0,0,0,0,0,-1,804,330,0,0
-413,694,0,0,0,0,0,0,0,0,0,-1,811,330,0,0
-406,694,0,0,0,0,0,0,0,0,0,-1,818,330,0,0
-399,694,0,0,0,0,0,0,0,0,0,-1,825,330,0,0
-392,694,0,0,0,0,0,0,0,0,0,-1,832,330,0,0
-385,694,0,0,0,0,0,0,0,0,0,-1,839,330,0,0
-378,694,0,0,0,0,0,0,0,0,0,-1,846,330,0,0
-371,694,0,0,0,0,0,0,0,0,0,-1,853,330,0,0
-364,694,0,0,0,0,0,0,0,0,0,-1,860,330,0,0
-357,694,0,0,0,0,0,0,0,0,0,-1,867,330,0,0
-350,694,0,0,0,0,0,0,0,0,0,-1,874,330,0,0
-343,694,0,0,0,0,0,0,0,0,0,-1,881,330,0,0
-336,694,0,0,0,0,0,0,0,0,0,-1,888,330,0,0
-329,694,0,0,0,0,0,0,0,0,0,-1,895,330,0,0
-322,694,0,0,0,0,0,0,0,0,0,-1,902,330,0,0
-315,694,0,0,0,0,0,0,0,0,0,-1,909,330,0,0
-308,694,0,0,0,0,0,0,0,0,0,-1,916,330,0,0
-301,694,0,0,0,0,0,0,0,0,0,-1,923,330,0,0
-294,694,0,0,0,0,0,0,0,0,0,-1,930,330,0,0
-287,694,0,0,0,0,0,0,0,0,0,-1,937,330,0,0
-280,694,0,0,0,0,0,0,0,0,0,-1,944,330,0,0
-273,694,0,0,0,0,0,0,0,0,0,-1,951,330,0,0
-266,694,0,0,0,0,0,0,0,0,0,-1,958,330,0,0
-259,694,0,0,0,0,0,0,0,0,0,-1,965,330,0,0
-252,694,0,0,0,0,0,0,0,0,0,-1,972,330,0,0
-245,694,0,0,0,0,0,0,0,0,0,-1,979,330,0,0
-238,694,0,0,0,0,0,0,0,0,0,-1,986,330,0,0
-231,694,0,0,0,0,0,0,0,0,0,-1,993,330,0,0
-224,694,0,0,0,0,0,0,0,0,0,-1,1000,330,0,0
-217,694,0,0,0,0,0,0,0,0,0,-1,1007,330,0,0
-210,694,0,0,0,0,0,0,0,0,0,-1,1014,330,0,0
-203,694,0,0,0,0,0,0,0,0,0,-1,1021,330,0,0
-196,694,0,0,0,0,0,0,0,0,0,-1,1028,330,0,0
-189,694,0,0,0,0,0,0,0,0,0,-1,1035,330,0,0
-182,694,0,0,0,0,0,0,0,0,0,-1,1042,330,0,0
-175,694,0,0,0,0,0,0,0,0,0,-1,1049,330,0,0
-168,694,0,0,0,0,0,0,0,0,0,-1,1056,330,0,0
-161,694,0,0,0,0,0,0,0,0,0,-1,1063,330,0,0
-154,694,0,0,0,0,0,0,0,0,0,-1,1070,330,0,0
-147,694,0,0,0,0,0,0,0,0,0,-1,1077,330,0,0
-140,694,0,0,0,0,0,0,0,0,0,-1,1084,330,0,0
-133,694,0,0,0,0,0,0,0,0,0,-1,1091,330,0,0
-126,694,0,0,0,0,0,0,0,0,0,-1,1098,330,0,0
-119,694,0,0,0,0,0,0,0,0,0,-1,1105,330,0,0
-112,694,0,0,0,0,0,0,0,0,0,-1,1112,330,0,0
-105,694,-1.35962,-7.57141,0,0,0,0,0,0,0,-1,1119,330,-1.3596,7.57142
-98,694,1.34875,-10.1051,0,0,0,0,0,0,0,-1,1126,330,1.34874,10.1051
-91,694,1.35474,-9.22229,0,0,0,0,0,0,0,-1,1133,330,1.35476,9.22229
-84,694,-4.39136,-4.62332,0,0,0,0,0,0,0,-1,1140,330,-4.3914,4.62331
-77,694,-4.93396,-10.2672,0,0,0,0,0,0,0,-1,1147,330,-4.9339,10.2672
-70,694,-6.49402,-10.0714,0,0,0,0,0,0,0,-1,1154,330,-6.49399,10.0714
-63,694,-5.80835,-4.75275,0,0,0,0,0,0,0,-1,1161,330,-5.80834,4.75274
-56,694,-6.50623,-0.649139,0,0,0,0,0,0,0,-1,1168,330,-6.5062,0.649126
-49,694,-1.11426,0.0341797,0,0,0,0,0,0,0,-1,1175,330,-1.11424,-0.0341846
-42,694,-0.346313,-0.709595,0,0,0,0,0,0,0,-1,1182,330,-0.346298,0.709581
-35,694,-0.459106,-1.24713,0,0,0,0,0,0,0,-1,1189,330,-0.459142,1.24714
-28,694,-6.48413,-3.95972,0,0,0,0,0,0,0,-1,1196,330,-6.48414,3.9597
-21,694,1.88965,-12.6964,0,0,0,0,0,0,0,-1,1203,330,1.88961,12.6963
-14,694,4.3418,-15.76,0,0,0,0,0,0,0,-1,1210,330,4.3418,15.76
-7,694,3.6687,-14.9572,0,0,0,0,0,0,0,-1,1217,330,3.66865,14.9573
0,694,3.6123,-15.155,0,0,0,0,0,0,0,-1,1224,330,3.61229,15.155
7,694,3.47046,-15.351,0,0,0,0,0,0,0,-1,1231,330,3.47043,15.351
14,694,3.05859,-15.6694,0.00741529,0.00104888,-0.0275537,0.0319691,-0.0235049,-0.72789,0.032152,0.0460599,1238,330,3.05856,15.6694
21,694,2.71997,-15.7624,0.009,0.00374495,-0.0243954,0.030909,-0.0181641,-0.731752,0.0286491,0.049641,1245,330,2.71992,15.7624
28,694,2.49365,-15.8164,0.0113195,0.0079883,-0.0214202,0.0311388,-0.011831,-0.746597,0.0256299,0.0466734,1252,330,2.49363,15.8164
35,694,2.37805,-15.7279,0.0140103,0.0128908,-0.0184653,0.0319244,-0.00502327,-0.770245,0.0231398,0.0454272,1259,330,2.37805,15.7279
42,694,2.29065,-15.7436,0.0171884,0.0209432,-0.0171329,0.0363012,0.00183038,-0.83997,0.0236144,0.0480806,1266,330,2.29068,15.7436
49,694,1.99353,-15.3891,0.0215887,0.0381651,-0.0189571,0.0505666,0.00918712,-0.991481,0.0311043,0.0477982,1273,330,1.99358,15.3891
56,694,2.44922,-15.1061,0.0260432,0.0486194,-0.0199473,0.0602512,0.0144115,-1.04288,0.0363292,0.0474644,1280,330,2.44921,15.1061
63,694,2.90698,-14.8295,0.0292099,0.0587324,-0.0204243,0.0691712,0.018771,-1.09831,0.0413043,0.0460949,1287,330,2.90697,14.8295
70,694,3.45837,-14.5458,0.0330807,0.0698063,-0.0205146,0.078976,0.0239109,-1.15045,0.0467644,0.042708,1294,330,3.45835,14.5458
77,694,3.95471,-14.1981,0.0354745,0.0786008,-0.0198027,0.0863142,0.0277611,-1.19936,0.0508796,0.0453103,1301,330,3.95477,14.1981
84,694,4.43408,-13.8567,0,0,0,0,0,0,0,-1,1308,330,4.43412,13.8567
91,694,3.44531,-15.7859,0.036241,0.0871044,-0.0180997,0.0928877,0.0304578,-1.26153,0.0546774,0.0465551,1315,330,3.4453,15.7859
98,694,3.3833,-15.6695,0.035801,0.0873168,-0.0157043,0.0917267,0.0313911,-1.29704,0.0538301,0.0461726,1322,330,3.38331,15.6694
105,694,3.28259,-15.6629,0.0343417,0.0846493,-0.0122192,0.0874602,0.0315309,-1.34469,0.0511459,0.0467493,1329,330,3.28254,15.6629
112,694,3.57288,-15.1284,0.0313007,0.0786905,-0.00731036,0.0797925,0.0301986,-1.42117,0.0465197,0.0443667,1336,330,3.57283,15.1285
119,694,3.50879,-14.7827,0.0274644,0.070145,-0.00149122,0.070197,0.0274124,-1.53591,0.0408509,0.0452038,1343,330,3.50874,14.7827
126,694,4.81409,-12.1363,0.0230703,0.0597556,0.00463782,0.0603329,0.0224931,1.44697,0.0352068,0.0409541,1350,330,4.81413,12.1363
133,694,3.78662,-12.1584,0,0,0,0,0,0,0,-1,1357,330,3.78663,12.1584
140,694,1.33691,-15.8163,0.0143547,0.0376389,0.0151943,0.0451385,0.00685509,1.1123,0.0280875,0.0480163,1364,330,1.33689,15.8163
147,694,1.59241,-15.7664,0,0,0,0,0,0,0,-1,1371,330,1.59247,15.7664
154,694,1.82886,-15.8093,0,0,0,0,0,0,0,-1,1378,330,1.8288,15.8093
161,694,1.87231,-12.4088,0,0,0,0,0,0,0,-1,1385,330,1.87227,12.4088
168,694,6.77161,1.01288,0,0,0,0,0,0,0,-1,1392,330,6.77156,-1.01287
175,694,6.72839,0.473175,0,0,0,0,0,0,0,-1,1399,330,6.72838,-0.473182
182,694,8.29028,5.75238,0,0,0,0,0,0,0,-1,1406,330,8.29034,-5.75237
189,694,7.9801,4.46118,0,0,0,0,0,0,0,-1,1413,330,7.9801,-4.46118
196,694,7.39331,3.32632,0,0,0,0,0,0,0,-1,1420,330,7.39329,-3.32633
203,694,7.04492,2.20529,0,0,0,0,0,0,0,-1,1427,330,7.04496,-2.20529
210,694,6.44714,0.646912,0,0,0,0,0,0,0,-1,1434,330,6.44717,-0.646903
217,694,7.12061,-0.644958,0,0,0,0,0,0,0,-1,1441,330,7.12059,0.644961
224,694,6.74011,-1.70544,0,0,0,0,0,0,0,-1,1448,330,6.74013,1.70546
231,694,0,0,0,0,0,0,0,0,0,-1,1455,330,0,0
238,694,0,0,0,0,0,0,0,0,0,-1,1462,330,0,0
245,694,0,0,0,0,0,0,0,0,0,-1,1469,330,0,0
252,694,0,0,0,0,0,0,0,0,0,-1,1476,330,0,0
259,694,0,0,0,0,0,0,0,0,0,-1,1483,330,0,0
266,694,0,0,0,0,0,0,0,0,0,-1,1490,330,0,0
273,694,0,0,0,0,0,0,0,0,0,-1,1497,330,0,0
280,694,0,0,0,0,0,0,0,0,0,-1,1504,330,0,0
287,694,0,0,0,0,0,0,0,0,0,-1,1511,330,0,0
294,694,0,0,0,0,0,0,0,0,0,-1,1518,330,0,0
301,694,0,0,0,0,0,0,0,0,0,-1,1525,330,0,0
308,694,0,0,0,0,0,0,0,0,0,-1,1532,330,0,0
315,694,0,0,0,0,0,0,0,0,0,-1,1539,330,0,0
322,694,0,0,0,0,0,0,0,0,0,-1,1546,330,0,0
329,694,0,0,0,0,0,0,0,0,0,-1,1553,330,0,0
336,694,0,0,0,0,0,0,0,0,0,-1,1560,330,0,0
343,694,0,0,0,0,0,0,0,0,0,-1,1567,330,0,0
350,694,0,0,0,0,0,0,0,0,0,-1,1574,330,0,0
357,694,0,0,0,0,0,0,0,0,0,-1,1581,330,0,0
364,694,0,0,0,0,0,0,0,0,0,-1,1588,330,0,0
371,694,0,0,0,0,0,0,0,0,0,-1,1595,330,0,0
378,694,0,0,0,0,0,0,0,0,0,-1,1602,330,0,0
385,694,0,0,0,0,0,0,0,0,0,-1,1609,330,0,0
392,694,0,0,0,0,0,0,0,0,0,-1,1616,330,0,0
399,694,0,0,0,0,0,0,0,0,0,-1,1623,330,0,0
406,694,0,0,0,0,0,0,0,0,0,-1,1630,330,0,0
413,694,0,0,0,0,0,0,0,0,0,-1,1637,330,0,0
420,694,0,0,0,0,0,0,0,0,0,-1,1644,330,0,0
427,694,0,0,0,0,0,0,0,0,0,-1,1651,330,0,0
434,694,0,0,0,0,0,0,0,0,0,-1,1658,330,0,0
441,694,0,0,0,0,0,0,0,0,0,-1,1665,330,0,0
448,694,0,0,0,0,0,0,0,0,0,-1,1672,330,0,0
455,694,0,0,0,0,0,0,0,0,0,-1,1679,330,0,0
462,694,0,0,0,0,0,0,0,0,0,-1,1686,330,0,0
469,694,0,0,0,0,0,0,0,0,0,-1,1693,330,0,0
476,694,0,0,0,0,0,0,0,0,0,-1,1700,330,0,0
483,694,0,0,0,0,0,0,0,0,0,-1,1707,330,0,0
490,694,0,0,0,0,0,0,0,0,0,-1,1714,330,0,0
497,694,0,0,0,0,0,0,0,0,0,-1,1721,330,0,0
504,694,0,0,0,0,0,0,0,0,0,-1,1728,330,0,0
511,694,0,0,0,0,0,0,0,0,0,-1,1735,330,0,0
518,694,0,0,0,0,0,0,0,0,0,-1,1742,330,0,0
525,694,0,0,0,0,0,0,0,0,0,-1,1749,330,0,0
532,694,0,0,0,0,0,0,0,0,0,-1,1756,330,0,0
539,694,0,0,0,0,0,0,0,0,0,-1,1763,330,0,0
546,694,0,0,0,0,0,0,0,0,0,-1,1770,330,0,0
553,694,0,0,0,0,0,0,0,0,0,-1,1777,330,0,0
560,694,0,0,0,0,0,0,0,0,0,-1,1784,330,0,0
567,694,0,0,0,0,0,0,0,0,0,-1,1791,330,0,0
574,694,0,0,0,0,0,0,0,0,0,-1,1798,330,0,0
581,694,0,0,0,0,0,0,0,0,0,-1,1805,330,0,0
588,694,0,0,0,0,0,0,0,0,0,-1,1812,330,0,0
595,694,0,0,0,0,0,0,0,0,0,-1,1819,330,0,0
602,694,0,0,0,0,0,0,0,0,0,-1,1826,330,0,0
609,694,0,0,0,0,0,0,0,0,0,-1,1833,330,0,0
616,694,0,0,0,0,0,0,0,0,0,-1,1840,330,0,0
623,694,0,0,0,0,0,0,0,0,0,-1,1847,330,0,0
630,694,0,0,0,0,0,0,0,0,0,-1,1854,330,0,0
637,694,0,0,0,0,0,0,0,0,0,-1,1861,330,0,0
644,694,0,0,0,0,0,0,0,0,0,-1,1868,330,0,0
651,694,0,0,0,0,0,0,0,0,0,-1,1875,330,0,0
658,694,0,0,0,0,0,0,0,0,0,-1,1882,330,0,0
665,694,0,0,0,0,0,0,0,0,0,-1,1889,330,0,0
672,694,0,0,0,0,0,0,0,0,0,-1,1896,330,0,0
679,694,0,0,0,0,0,0,0,0,0,-1,1903,330,0,0
686,694,0,0,0,0,0,0,0,0,0,-1,1910,330,0,0
693,694,0,0,0,0,0,0,0,0,0,-1,1917,330,0,0
700,694,0,0,0,0,0,0,0,0,0,-1,1924,330,0,0
707,694,0,0,0,0,0,0,0,0,0,-1,1931,330,0,0
714,694,0,0,0,0,0,0,0,0,0,-1,1938,330,0,0
721,694,0,0,0,0,0,0,0,0,0,-1,1945,330,0,0
728,694,0,0,0,0,0,0,0,0,0,-1,1952,330,0,0
735,694,0,0,0,0,0,0,0,0,0,-1,1959,330,0,0
742,694,0,0,0,0,0,0,0,0,0,-1,1966,330,0,0
749,694,0,0,0,0,0,0,0,0,0,-1,1973,330,0,0
756,694,0,0,0,0,0,0,0,0,0,-1,1980,330,0,0
763,694,0,0,0,0,0,0,0,0,0,-1,1987,330,0,0
770,694,0,0,0,0,0,0,0,0,0,-1,1994,330,0,0
777,694,0,0,0,0,0,0,0,0,0,-1,2001,330,0,0
784,694,0,0,0,0,0,0,0,0,0,-1,2008,330,0,0
791,694,0,0,0,0,0,0,0,0,0,-1,2015,330,0,0
798,694,0,0,0,0,0,0,0,0,0,-1,2022,330,0,0
805,694,0,0,0,0,0,0,0,0,0,-1,2029,330,0,0
812,694,0,0,0,0,0,0,0,0,0,-1,2036,330,0,0
-700,687,0,0,0,0,0,0,0,0,0,-1,524,337,0,0
-693,687,0,0,0,0,0,0,0,0,0,-1,531,337,0,0
-686,687,0,0,0,0,0,0,0,0,0,-1,538,337,0,0
-679,687,0,0,0,0,0,0,0,0,0,-1,545,337,0,0
-672,687,0,0,0,0,0,0,0,0,0,-1,552,337,0,0
-665,687,0,0,0,0,0,0,0,0,0,-1,559,337,0,0
-658,687,0,0,0,0,0,0,0,0,0,-1,566,337,0,0
-651,687,0,0,0,0,0,0,0,0,0,-1,573,337,0,0
-644,687,0,0,0,0,0,0,0,0,0,-1,580,337,0,0
-637,687,0,0,0,0,0,0,0,0,0,-1,587,337,0,0
-630,687,0,0,0,0,0,0,0,0,0,-1,594,337,0,0
-623,687,0,0,0,0,0,0,0,0,0,-1,601,337,0,0
-616,687,0,0,0,0,0,0,0,0,0,-1,608,337,0,0
-609,687,0,0,0,0,0,0,0,0,0,-1,615,337,0,0
-602,687,0,0,0,0,0,0,0,0,0,-1,622,337,0,0
-595,687,0,0,0,0,0,0,0,0,0,-1,629,337,0,0
-588,687,0,0,0,0,0,0,0,0,0,-1,636,337,0,0
-581,687,0,0,0,0,0,0,0,0,0,-1,643,337,0,0
-574,687,0,0,0,0,0,0,0,0,0,-1,650,337,0,0
-567,687,0,0,0,0,0,0,0,0,0,-1,657,337,0,0
-560,687,0,0,0,0,0,0,0,0,0,-1,664,337,0,0
-553,687,0,0,0,0,0,0,0,0,0,-1,671,337,0,0
-546,687,0,0,0,0,0,0,0,0,0,-1,678,337,0,0
-539,687,0,0,0,0,0,0,0,0,0,-1,685,337,0,0
-532,687,0,0,0,0,0,0,0,0,0,-1,692,337,0,0
-525,687,0,0,0,0,0,0,0,0,0,-1,699,337,0,0
-518,687,0,0,0,0,0,0,0,0,0,-1,706,337,0,0
-511,687,0,0,0,0,0,0,0,0,0,-1,713,337,0,0
-504,687,0,0,0,0,0,0,0,0,0,-1,720,337,0,0
-497,687,0,0,0,0,0,0,0,0,0,-1,727,337,0,0
-490,687,0,0,0,0,0,0,0,0,0,-1,734,337,0,0
-483,687,0,0,0,0,0,0,0,0,0,-1,741,337,0,0
-476,687,0,0,0,0,0,0,0,0,0,-1,748,337,0,0
-469,687,0,0,0,0,0,0,0,0,0,-1,755,337,0,0
-462,687,0,0,0,0,0,0,0,0,0,-1,762,337,0,0
-455,687,0,0,0,0,0,0,0,0,0,-1,769,337,0,0
-448,687,0,0,0,0,0,0,0,0,0,-1,776,337,0,0
-441,687,0,0,0,0,0,0,0,0,0,-1,783,337,0,0
-434,687,0,0,0,0,0,0,0,0,0,-1,790,337,0,0
-427,687,0,0,0,0,0,0,0,0,0,-1,797,337,0,0
-420,687,0,0,0,0,0,0,0,0,0,-1,804,337,0,0
-413,687,0,0,0,0,0,0,0,0,0,-1,811,337,0,0
-406,687,0,0,0,0,0,0,0,0,0,-1,818,337,0,0
-399,687,0,0,0,0,0,0,0,0,0,-1,825,337,0,0
-392,687,0,0,0,0,0,0,0,0,0,-1,832,337,0,0
-385,687,0,0,0,0,0,0,0,0,0,-1,839,337,0,0
-378,687,0,0,0,0,0,0,0,0,0,-1,846,337,0,0
-371,687,0,0,0,0,0,0,0,0,0,-1,853,337,0,0
-364,687,0,0,0,0,0,0,0,0,0,-1,860,337,0,0
-357,687,0,0,0,0,0,0,0,0,0,-1,867,337,0,0
-350,687,0,0,0,0,0,0,0,0,0,-1,874,337,0,0
-343,687,0,0,0,0,0,0,0,0,0,-1,881,337,0,0
-336,687,0,0,0,0,0,0,0,0,0,-1,888,337,0,0
-329,687,0,0,0,0,0,0,0,0,0,-1,895,337,0,0
-322,687,0,0,0,0,0,0,0,0,0,-1,902,337,0,0
-315,687,0,0,0,0,0,0,0,0,0,-1,909,337,0,0
-308,687,0,0,0,0,0,0,0,0,0,-1,916,337,0,0
-301,687,0,0,0,0,0,0,0,0,0,-1,923,337,0,0
-294,687,0,0,0,0,0,0,0,0,0,-1,930,337,0,0
-287,687,0,0,0,0,0,0,0,0,0,-1,937,337,0,0
-280,687,0,0,0,0,0,0,0,0,0,-1,944,337,0,0
-273,687,0,0,0,0,0,0,0,0,0,-1,951,337,0,0
-266,687,0,0,0,0,0,0,0,0,0,-1,958,337,0,0
-259,687,0,0,0,0,0,0,0,0,0,-1,965,337,0,0
-252,687,0,0,0,0,0,0,0,0,0,-1,972,337,0,0
-245,687,0,0,0,0,0,0,0,0,0,-1,979,337,0,0
-238,687,0,0,0,0,0,0,0,0,0,-1,986,337,0,0
-231,687,0,0,0,0,0,0,0,0,0,-1,993,337,0,0
-224,687,0,0,0,0,0,0,0,0,0,-1,1000,337,0,0
-217,687,0,0,0,0,0,0,0,0,0,-1,1007,337,0,0
-210,687,0,0,0,0,0,0,0,0,0,-1,1014,337,0,0
-203,687,0,0,0,0,0,0,0,0,0,-1,1021,337,0,0
-196,687,0,0,0,0,0,0,0,0,0,-1,1028,337,0,0
-189,687,0,0,0,0,0,0,0,0,0,-1,1035,337,0,0
-182,687,0,0,0,0,0,0,0,0,0,-1,1042,337,0,0
-175,687,0,0,0,0,0,0,0,0,0,-1,1049,337,0,0
-168,687,0,0,0,0,0,0,0,0,0,-1,1056,337,0,0
-161,687,0,0,0,0,0,0,0,0,0,-1,1063,337,0,0
-154,687,0,0,0,0,0,0,0,0,0,-1,1070,337,0,0
-147,687,0,0,0,0,0,0,0,0,0,-1,1077,337,0,0
-140,687,0,0,0,0,0,0,0,0,0,-1,1084,337,0,0
-133,687,3.42676,-17.0036,0,0,0,0,0,0,0,-1,1091,337,3.42681,17.0036
-126,687,3.6261,-16.4479,0,0,0,0,0,0,0,-1,1098,337,3.62611,16.4479
-119,687,4.30652,-15.8505,0,0,0,0,0,0,0,-1,1105,337,4.30647,15.8505
-112,687,5.13892,-15.471,0,0,0,0,0,0,0,-1,1112,337,5.13889,15.471
-105,687,5.94409,-14.8406,0,0,0,0,0,0,0,-1,1119,337,5.9441,14.8406
-98,687,1.99414,-12.8987,0,0,0,0,0,0,0,-1,1126,337,1.99415,12.8987
-91,687,2.28162,-7.72437,0,0,0,0,0,0,0,-1,1133,337,2.28167,7.72437
-84,687,-0.867676,-5.7392,0,0,0,0,0,0,0,-1,1140,337,-0.867619,5.73919
-77,687,-3.63806,-12.9185,0,0,0,0,0,0,0,-1,1147,337,-3.6381,12.9185
-70,687,-6.24756,-13.2618,0,0,0,0,0,0,0,-1,1154,337,-6.24752,13.2618
-63,687,-8.37585,-12.8959,0,0,0,0,0,0,0,-1,1161,337,-8.3758,12.8959
-56,687,-10.7112,-8.02322,0,0,0,0,0,0,0,-1,1168,337,-10.7112,8.02323
-49,687,-7.44934,-0.550262,0,0,0,0,0,0,0,-1,1175,337,-7.44938,0.550261
-42,687,-4.2019,-0.405609,0,0,0,0,0,0,0,-1,1182,337,-4.20192,0.405614
-35,687,-4.42273,-0.688171,0,0,0,0,0,0,0,-1,1189,337,-4.42276,0.688178
-28,687,-1.14038,-1.39072,0,0,0,0,0,0,0,-1,1196,337,-1.14035,1.3907
-21,687,5.0531,-15.2555,0,0,0,0,0,0,0,-1,1203,337,5.05312,15.2555
-14,687,4.87842,-15.363,0.00235531,-0.00601754,-0.0261145,0.0246168,-0.028279,-0.705919,0.0305638,0.0441953,1210,337,4.87839,15.363
-7,687,4.68347,-15.4417,0,0,0,0,0,0,0,-1,1217,337,4.68348,15.4417
0,687,4.46777,-15.3475,0,0,0,0,0,0,0,-1,1224,337,4.46777,15.3475
7,687,4.25623,-15.655,0,0,0,0,0,0,0,-1,1231,337,4.25617,15.655
14,687,3.90955,-15.9258,0,0,0,0,0,0,0,-1,1238,337,3.90957,15.9258
21,687,2.651,-15.6284,0,0,0,0,0,0,0,-1,1245,337,2.65106,15.6284
28,687,2.56848,-15.6407,0.00773551,0.00738499,-0.0152191,0.0227804,-0.00765987,-0.779641,0.0182831,0.0475772,1252,337,2.56847,15.6407
35,687,2.51624,-15.6465,0.0100288,0.0113639,-0.0132375,0.0239506,-0.00255795,-0.810591,0.0168844,0.0456326,1259,337,2.51625,15.6465
42,687,2.29272,-15.7084,0.0126331,0.0180478,-0.0126895,0.0283155,0.00236528,-0.890499,0.0181401,0.0473006,1266,337,2.29276,15.7084
49,687,2.13721,-15.5657,0.01622,0.031137,-0.0142115,0.0397283,0.00762869,-1.02705,0.0243444,0.0478195,1273,337,2.13726,15.5657
56,687,2.63013,-15.3201,0.019823,0.0389416,-0.0148228,0.0470202,0.0117444,-1.07179,0.0282576,0.0495078,1280,337,2.63014,15.3201
63,687,3.14709,-15.0484,0,0,0,0,0,0,0,-1,1287,337,3.14705,15.0484
70,687,4.28638,-15.2475,0.0254553,0.0545562,-0.0146868,0.0606798,0.0193316,-1.17577,0.0357939,0.0396799,1294,337,4.28634,15.2475
77,687,4.71631,-14.6785,0.0272898,0.0612174,-0.0136469,0.0660253,0.0224819,-1.23206,0.0387608,0.0424394,1301,337,4.71629,14.6785
84,687,5.02808,-14.1225,0,0,0,0,0,0,0,-1,1308,337,5.02802,14.1225
91,687,3.52063,-15.2191,0.0276272,0.0673942,-0.0116404,0.0705509,0.0244705,-1.30598,0.0413646,0.0465949,1315,337,3.52059,15.2191
98,687,2.61975,-17.282,0.027186,0.0674642,-0.00946485,0.0695775,0.0250728,-1.35113,0.0406894,0.0456938,1322,337,2.61977,17.282
105,687,2.88953,-15.4816,0.0258544,0.0654596,-0.00650376,0.0665003,0.0248138,-1.41213,0.0388037,0.0468115,1329,337,2.88954,15.4816
112,687,3.00842,-15.3849,0.0233185,0.0611859,-0.00264358,0.0613696,0.0231349,-1.50143,0.0357875,0.0473089,1336,337,3.00839,15.3849
119,687,3.38147,-15.0325,0.0203013,0.0550871,0.00177635,0.0551776,0.0202108,1.51991,0.0322343,0.0456319,1343,337,3.38148,15.0325
126,687,3.16772,-15.165,0.0169466,0.0478008,0.0062098,0.0490037,0.0157437,1.37946,0.0288885,0.0489446,1350,337,3.16768,15.165
133,687,1.73828,-15.6685,0.0136501,0.0398461,0.0101755,0.0433342,0.010162,1.24056,0.0261683,0.0474112,1357,337,1.73822,15.6685
140,687,1.71887,-15.6341,0.010871,0.0331416,0.013155,0.0392414,0.00477119,1.13662,0.0247244,0.0492339,1364,337,1.71883,15.6341
147,687,2.10693,-15.1797,0,0,0,0,0,0,0,-1,1371,337,2.10691,15.1798
154,687,0.597412,-13.8249,0,0,0,0,0,0,0,-1,1378,337,0.597388,13.8249
161,687,1.80078,-12.469,0,0,0,0,0,0,0,-1,1385,337,1.80076,12.469
168,687,6.66968,1.37039,0,0,0,0,0,0,0,-1,1392,337,6.6697,-1.37039
175,687,6.64075,0.771606,0,0,0,0,0,0,0,-1,1399,337,6.64073,-0.771595
182,687,6.67249,0.289917,0,0,0,0,0,0,0,-1,1406,337,6.67247,-0.289916
189,687,7.76062,4.53635,0,0,0,0,0,0,0,-1,1413,337,7.76064,-4.53636
196,687,6.99048,3.2966,0,0,0,0,0,0,0,-1,1420,337,6.99046,-3.2966
203,687,6.36499,2.1445,0,0,0,0,0,0,0,-1,1427,337,6.36499,-2.14451
210,687,6.68066,0.674652,0,0,0,0,0,0,0,-1,1434,337,6.68062,-0.674655
217,687,5.99683,-0.630493,0,0,0,0,0,0,0,-1,1441,337,5.99684,0.630497
224,687,5.52917,0.524902,0,0,0,0,0,0,0,-1,1448,337,5.5292,-0.524915
231,687,5.85583,-1.73651,0,0,0,0,0,0,0,-1,1455,337,5.85577,1.73651
238,687,5.96582,-2.96774,0,0,0,0,0,0,0,-1,1462,337,5.96577,2.96773
245,687,1.28259,2.32211,0,0,0,0,0,0,0,-1,1469,337,1.28258,-2.32211
252,687,1.97278,3.88422,0,0,0,0,0,0,0,-1,1476,337,1.97281,-3.88421
259,687,0,0,0,0,0,0,0,0,0,-1,1483,337,0,0
266,687,0,0,0,0,0,0,0,0,0,-1,1490,337,0,0
273,687,0,0,0,0,0,0,0,0,0,-1,1497,337,0,0
280,687,0,0,0,0,0,0,0,0,0,-1,1504,337,0,0
287,687,0,0,0,0,0,0,0,0,0,-1,1511,337,0,0
294,687,0,0,0,0,0,0,0,0,0,-1,1518,337,0,0
301,687,0,0,0,0,0,0,0,0,0,-1,1525,337,0,0
308,687,0,0,0,0,0,0,0,0,0,-1,1532,337,0,0
315,687,0,0,0,0,0,0,0,0,0,-1,1539,337,0,0
322,687,0,0,0,0,0,0,0,0,0,-1,1546,337,0,0
329,687,0,0,0,0,0,0,0,0,0,-1,1553,337,0,0
336,687,0,0,0,0,0,0,0,0,0,-1,1560,337,0,0
343,687,0,0,0,0,0,0,0,0,0,-1,1567,337,0,0
350,687,0,0,0,0,0,0,0,0,0,-1,1574,337,0,0
357,687,0,0,0,0,0,0,0,0,0,-1,1581,337,0,0
364,687,0,0,0,0,0,0,0,0,0,-1,1588,337,0,0
371,687,0,0,0,0,0,0,0,0,0,-1,1595,337,0,0
378,687,0,0,0,0,0,0,0,0,0,-1,1602,337,0,0
385,687,0,0,0,0,0,0,0,0,0,-1,1609,337,0,0
392,687,0,0,0,0,0,0,0,0,0,-1,1616,337,0,0
399,687,0,0,0,0,0,0,0,0,0,-1,1623,337,0,0
406,687,0,0,0,0,0,0,0,0,0,-1,1630,337,0,0
413,687,0,0,0,0,0,0,0,0,0,-1,1637,337,0,0
420,687,0,0,0,0,0,0,0,0,0,-1,1644,337,0,0
427,687,0,0,0,0,0,0,0,0,0,-1,1651,337,0,0
434,687,0,0,0,0,0,0,0,0,0,-1,1658,337,0,0
441,687,0,0,0,0,0,0,0,0,0,-1,1665,337,0,0
448,687,0,0,0,0,0,0,0,0,0,-1,1672,337,0,0
455,687,0,0,0,0,0,0,0,0,0,-1,1679,337,0,0
462,687,0,0,0,0,0,0,0,0,0,-1,1686,337,0,0
469,687,0,0,0,0,0,0,0,0,0,-1,1693,337,0,0
476,687,0,0,0,0,0,0,0,0,0,-1,1700,337,0,0
483,687,0,0,0,0,0,0,0,0,0,-1,1707,337,0,0
490,687,0,0,0,0,0,0,0,0,0,-1,1714,337,0,0
497,687,0,0,0,0,0,0,0,0,0,-1,1721,337,0,0
504,687,0,0,0,0,0,0,0,0,0,-1,1728,337,0,0
511,687,0,0,0,0,0,0,0,0,0,-1,1735,337,0,0
518,687,0,0,0,0,0,0,0,0,0,-1,1742,337,0,0
525,687,0,0,0,0,0,0,0,0,0,-1,1749,337,0,0
532,687,0,0,0,0,0,0,0,0,0,-1,1756,337,0,0
539,687,0,0,0,0,0,0,0,0,0,-1,1763,337,0,0
546,687,0,0,0,0,0,0,0,0,0,-1,1770,337,0,0
553,687,0,0,0,0,0,0,0,0,0,-1,1777,337,0,0
560,687,0,0,0,0,0,0,0,0,0,-1,1784,337,0,0
567,687,0,0,0,0,0,0,0,0,0,-1,1791,337,0,0
574,687,0,0,0,0,0,0,0,0,0,-1,1798,337,0,0
581,687,0,0,0,0,0,0,0,0,0,-1,1805,337,0,0
588,687,0,0,0,0,0,0,0,0,0,-1,1812,337,0,0
595,687,0,0,0,0,0,0,0,0,0,-1,1819,337,0,0
602,687,0,0,0,0,0,0,0,0,0,-1,1826,337,0,0
609,687,0,0,0,0,0,0,0,0,0,-1,1833,337,0,0
616,687,0,0,0,0,0,0,0,0,0,-1,1840,337,0,0
623,687,0,0,0,0,0,0,0,0,0,-1,1847,337,0,0
630,687,0,0,0,0,0,0,0,0,0,-1,1854,337,0,0
637,687,0,0,0,0,0,0,0,0,0,-1,1861,337,0,0
644,687,0,0,0,0,0,0,0,0,0,-1,1868,337,0,0
651,687,0,0,0,0,0,0,0,0,0,-1,1875,337,0,0
658,687,0,0,0,0,0,0,0,0,0,-1,1882,337,0,0
665,687,0,0,0,0,0,0,0,0,0,-1,1889,337,0,0
672,687,0,0,0,0,0,0,0,0,0,-1,1896,337,0,0
679,687,0,0,0,0,0,0,0,0,0,-1,1903,337,0,0
686,687,0,0,0,0,0,0,0,0,0,-1,1910,337,0,0
693,687,0,0,0,0,0,0,0,0,0,-1,1917,337,0,0
700,687,0,0,0,0,0,0,0,0,0,-1,1924,337,0,0
707,687,0,0,0,0,0,0,0,0,0,-1,1931,337,0,0
714,687,0,0,0,0,0,0,0,0,0,-1,1938,337,0,0
721,687,0,0,0,0,0,0,0,0,0,-1,1945,337,0,0
728,687,0,0,0,0,0,0,0,0,0,-1,1952,337,0,0
735,687,0,0,0,0,0,0,0,0,0,-1,1959,337,0,0
742,687,0,0,0,0,0,0,0,0,0,-1,1966,337,0,0
749,687,0,0,0,0,0,0,0,0,0,-1,1973,337,0,0
756,687,0,0,0,0,0,0,0,0,0,-1,1980,337,0,0
763,687,0,0,0,0,0,0,0,0,0,-1,1987,337,0,0
770,687,0,0,0,0,0,0,0,0,0,-1,1994,337,0,0
777,687,0,0,0,0,0,0,0,0,0,-1,2001,337,0,0
784,687,0,0,0,0,0,0,0,0,0,-1,2008,337,0,0
791,687,0,0,0,0,0,0,0,0,0,-1,2015,337,0,0
798,687,0,0,0,0,0,0,0,0,0,-1,2022,337,0,0
805,687,0,0,0,0,0,0,0,0,0,-1,2029,337,0,0
812,687,0,0,0,0,0,0,0,0,0,-1,2036,337,0,0
-700,680,0,0,0,0,0,0,0,0,0,-1,524,344,0,0
-693,680,0,0,0,0,0,0,0,0,0,-1,531,344,0,0
-686,680,0,0,0,0,0,0,0,0,0,-1,538,344,0,0
-679,680,0,0,0,0,0,0,0,0,0,-1,545,344,0,0
-672,680,0,0,0,0,0,0,0,0,0,-1,552,344,0,0
-665,680,0,0,0,0,0,0,0,0,0,-1,559,344,0,0
-658,680,0,0,0,0,0,0,0,0,0,-1,566,344,0,0
-651,680,0,0,0,0,0,0,0,0,0,-1,573,344,0,0
-644,680,0,0,0,0,0,0,0,0,0,-1,580,344,0,0
-637,680,0,0,0,0,0,0,0,0,0,-1,587,344,0,0
-630,680,0,0,0,0,0,0,0,0,0,-1,594,344,0,0
-623,680,0,0,0,0,0,0,0,0,0,-1,601,344,0,0
-616,680,0,0,0,0,0,0,0,0,0,-1,608,344,0,0
-609,680,0,0,0,0,0,0,0,0,0,-1,615,344,0,0
-602,680,0,0,0,0,0,0,0,0,0,-1,622,344,0,0
-595,680,0,0,0,0,0,0,0,0,0,-1,629,344,0,0
-588,680,0,0,0,0,0,0,0,0,0,-1,636,344,0,0
-581,680,0,0,0,0,0,0,0,0,0,-1,643,344,0,0
-574,680,0,0,0,0,0,0,0,0,0,-1,650,344,0,0
-567,680,0,0,0,0,0,0,0,0,0,-1,657,344,0,0
-560,680,0,0,0,0,0,0,0,0,0,-1,664,344,0,0
-553,680,0,0,0,0,0,0,0,0,0,-1,671,344,0,0
-546,680,0,0,0,0,0,0,0,0,0,-1,678,344,0,0
-539,680,0,0,0,0,0,0,0,0,0,-1,685,344,0,0
-532,680,0,0,0,0,0,0,0,0,0,-1,692,344,0,0
-525,680,0,0,0,0,0,0,0,0,0,-1,699,344,0,0
-518,680,0,0,0,0,0,0,0,0,0,-1,706,344,0,0
-511,680,0,0,0,0,0,0,0,0,0,-1,713,344,0,0
-504,680,0,0,0,0,0,0,0,0,0,-1,720,344,0,0
-497,680,0,0,0,0,0,0,0,0,0,-1,727,344,0,0
-490,680,0,0,0,0,0,0,0,0,0,-1,734,344,0,0
-483,680,0,0,0,0,0,0,0,0,0,-1,741,344,0,0
-476,680,0,0,0,0,0,0,0,0,0,-1,748,344,0,0
-469,680,0,0,0,0,0,0,0,0,0,-1,755,344,0,0
-462,680,0,0,0,0,0,0,0,0,0,-1,762,344,0,0
-455,680,0,0,0,0,0,0,0,0,0,-1,769,344,0,0
-448,680,0,0,0,0,0,0,0,0,0,-1,776,344,0,0
-441,680,0,0,0,0,0,0,0,0,0,-1,783,344,0,0
-434,680,0,0,0,0,0,0,0,0,0,-1,790,344,0,0
-427,680,0,0,0,0,0,0,0,0,0,-1,797,344,0,0
-420,680,0,0,0,0,0,0,0,0,0,-1,804,344,0,0
-413,680,0,0,0,0,0,0,0,0,0,-1,811,344,0,0
-406,680,0,0,0,0,0,0,0,0,0,-1,818,344,0,0
-399,680,0,0,0,0,0,0,0,0,0,-1,825,344,0,0
-392,680,0,0,0,0,0,0,0,0,0,-1,832,344,0,0
-385,680,0,0,0,0,0,0,0,0,0,-1,839,344,0,0
-378,680,0,0,0,0,0,0,0,0,0,-1,846,344,0,0
-371,680,0,0,0,0,0,0,0,0,0,-1,853,344,0,0
-364,680,0,0,0,0,0,0,0,0,0,-1,860,344,0,0
-357,680,0,0,0,0,0,0,0,0,0,-1,867,344,0,0
-350,680,0,0,0,0,0,0,0,0,0,-1,874,344,0,0
-343,680,0,0,0,0,0,0,0,0,0,-1,881,344,0,0
-336,680,0,0,0,0,0,0,0,0,0,-1,888,344,0,0
-329,680,0,0,0,0,0,0,0,0,0,-1,895,344,0,0
-322,680,0,0,0,0,0,0,0,0,0,-1,902,344,0,0
-315,680,0,0,0,0,0,0,0,0,0,-1,909,344,0,0
-308,680,0,0,0,0,0,0,0,0,0,-1,916,344,0,0
-301,680,0,0,0,0,0,0,0,0,0,-1,923,344,0,0
-294,680,0,0,0,0,0,0,0,0,0,-1,930,344,0,0
-287,680,0,0,0,0,0,0,0,0,0,-1,937,344,0,0
-280,680,0,0,0,0,0,0,0,0,0,-1,944,344,0,0
-273,680,0,0,0,0,0,0,0,0,0,-1,951,344,0,0
-266,680,0,0,0,0,0,0,0,0,0,-1,958,344,0,0
-259,680,0,0,0,0,0,0,0,0,0,-1,965,344,0,0
-252,680,0,0,0,0,0,0,0,0,0,-1,972,344,0,0
-245,680,0,0,0,0,0,0,0,0,0,-1,979,344,0,0
-238,680,0,0,0,0,0,0,0,0,0,-1,986,344,0,0
-231,680,0,0,0,0,0,0,0,0,0,-1,993,344,0,0
-224,680,0,0,0,0,0,0,0,0,0,-1,1000,344,0,0
-217,680,0,0,0,0,0,0,0,0,0,-1,1007,344,0,0
-210,680,0,0,0,0,0,0,0,0,0,-1,1014,344,0,0
-203,680,0,0,0,0,0,0,0,0,0,-1,1021,344,0,0
-196,680,0,0,0,0,0,0,0,0,0,-1,1028,344,0,0
-189,680,0,0,0,0,0,0,0,0,0,-1,1035,344,0,0
-182,680,0,0,0,0,0,0,0,0,0,-1,1042,344,0,0
-175,680,0,0,0,0,0,0,0,0,0,-1,1049,344,0,0
-168,680,0,0,0,0,0,0,0,0,0,-1,1056,344,0,0
-161,680,0,0,0,0,0,0,0,0,0,-1,1063,344,0,0
-154,680,2.93018,-16.3629,0,0,0,0,0,0,0,-1,1070,344,2.93013,16.3629
-147,680,3.67163,-17.456,0,0,0,0,0,0,0,-1,1077,344,3.67165,17.456
-140,680,2.87256,-16.0148,0,0,0,0,0,0,0,-1,1084,344,2.87261,16.0148
-133,680,3.36353,-15.4333,0,0,0,0,0,0,0,-1,1091,344,3.36352,15.4333
-126,680,3.87659,-14.8352,0,0,0,0,0,0,0,-1,1098,344,3.87653,14.8352
-119,680,0.764526,-14.3851,0,0,0,0,0,0,0,-1,1105,344,0.764467,14.3851
-112,680,0.71521,-13.5635,0,0,0,0,0,0,0,-1,1112,344,0.715253,13.5635
-105,680,2.38293,-14.3073,0,0,0,0,0,0,0,-1,1119,344,2.3829,14.3073
-98,680,2.3446,-13.073,0,0,0,0,0,0,0,-1,1126,344,2.34462,13.073
-91,680,2.3064,-11.8387,0,0,0,0,0,0,0,-1,1133,344,2.30634,11.8387
-84,680,1.92285,-8.71033,0,0,0,0,0,0,0,-1,1140,344,1.92286,8.71034
-77,680,-1.44568,-6.58121,0,0,0,0,0,0,0,-1,1147,344,-1.4457,6.5812
-70,680,-4.04382,-16.124,0,0,0,0,0,0,0,-1,1154,344,-4.04388,16.124
-63,680,-5.41333,-13.0013,0,0,0,0,0,0,0,-1,1161,344,-5.41332,13.0013
-56,680,-6.96912,-8.83356,0,0,0,0,0,0,0,-1,1168,344,-6.96907,8.83354
-49,680,-6.7677,-2.24063,0,0,0,0,0,0,0,-1,1175,344,-6.76772,2.24063
-42,680,-1.02368,0.618805,0,0,0,0,0,0,0,-1,1182,344,-1.0237,-0.618797
-35,680,-0.947876,-0.942719,0,0,0,0,0,0,0,-1,1189,344,-0.947842,0.942731
-28,680,-1.46118,-1.10574,0,0,0,0,0,0,0,-1,1196,344,-1.4612,1.10575
-21,680,5.13452,-15.4271,0,0,0,0,0,0,0,-1,1203,344,5.13453,15.4271
-14,680,5.2345,-15.1684,0,0,0,0,0,0,0,-1,1210,344,5.23455,15.1684
-7,680,2.85303,-15.7875,0,0,0,0,0,0,0,-1,1217,344,2.85304,15.7875
0,680,2.89307,-15.6461,0,0,0,0,0,0,0,-1,1224,344,2.89312,15.6461
7,680,2.84595,-15.762,0,0,0,0,0,0,0,-1,1231,344,2.84589,15.762
14,680,4.76599,-16.2471,0,0,0,0,0,0,0,-1,1238,344,4.76603,16.2471
21,680,2.70117,-15.6008,0.00322449,0.00351374,-0.0116577,0.0150277,-0.00828952,-0.791601,0.0136483,0.0459529,1245,344,2.70118,15.6008
28,680,2.6416,-15.6929,0.00504292,0.00648626,-0.0104904,0.0162798,-0.00475063,-0.819741,0.0127356,0.0463224,1252,344,2.64156,15.6929
35,680,2.60645,-15.6836,0.00691188,0.00961935,-0.00923153,0.0175959,-0.00106464,-0.858201,0.0121011,0.0470339,1259,344,2.60644,15.6836
42,680,2.44971,-15.6313,0.00895534,0.0149383,-0.0091623,0.0215851,0.00230851,-0.943191,0.0136856,0.0452168,1266,344,2.44972,15.6313
49,680,2.45593,-15.5398,0.0117786,0.0245577,-0.0103581,0.0303385,0.00599778,-1.06176,0.0185524,0.0410117,1273,344,2.45596,15.5398
56,680,2.66614,-15.5675,0.0146093,0.0302333,-0.0106901,0.0356616,0.00918103,-1.10094,0.0213815,0.0414894,1280,344,2.6661,15.5675
63,680,2.68323,-15.5117,0.0166515,0.0357077,-0.0106692,0.040484,0.0118752,-1.14988,0.0240298,0.0404797,1287,344,2.68321,15.5117
70,680,5.06458,-15.9184,0,0,0,0,0,0,0,-1,1294,344,5.06459,15.9184
77,680,5.45569,-15.1834,0,0,0,0,0,0,0,-1,1301,344,5.45574,15.1834
84,680,2.72705,-15.4849,0,0,0,0,0,0,0,-1,1308,344,2.72705,15.4849
91,680,2.27124,-15.7453,0,0,0,0,0,0,0,-1,1315,344,2.27128,15.7453
98,680,2.40601,-16.4102,0.0200247,0.0507033,-0.00510924,0.0515318,0.0191962,-1.41003,0.0300726,0.042602,1322,344,2.40601,16.4101
105,680,2.74133,-15.525,0.0188545,0.049162,-0.00268439,0.0493979,0.0186186,-1.48313,0.0288065,0.0430019,1329,344,2.7413,15.525
112,680,2.88379,-15.4176,0.0167984,0.0461078,0.000257047,0.04611,0.0167962,1.56203,0.0269467,0.0456171,1336,344,2.8838,15.4176
119,680,2.98035,-15.3796,0.0144891,0.0418322,0.00348924,0.0422704,0.0140508,1.44585,0.0248577,0.0452062,1343,344,2.98037,15.3796
126,680,3.23547,-15.473,0.0119717,0.0367882,0.00659009,0.0384297,0.0103302,1.32669,0.0229644,0.0454436,1350,344,3.23544,15.473
133,680,2.19092,-15.4834,0.00959201,0.0315065,0.00920678,0.034861,0.00623751,1.22139,0.0214657,0.0454443,1357,344,2.19096,15.4834
140,680,2.14905,-15.3825,0.00774653,0.0271221,0.0110105,0.0321001,0.00276854,1.14619,0.0205395,0.0481186,1364,344,2.14905,15.3825
147,680,2.29028,-15.2216,0.00605187,0.0229101,0.0125552,0.0296033,-0.0006413,1.08102,0.0199527,0.0497649,1371,344,2.29034,15.2217
154,680,2.42432,-15.0764,0,0,0,0,0,0,0,-1,1378,344,2.42429,15.0765
161,680,1.83545,-12.9141,0,0,0,0,0,0,0,-1,1385,344,1.83546,12.9141
168,680,6.85046,1.69257,0,0,0,0,0,0,0,-1,1392,344,6.85045,-1.69257
175,680,6.66541,0.942078,0,0,0,0,0,0,0,-1,1399,344,6.66538,-0.942088
182,680,6.52917,0.532379,0,0,0,0,0,0,0,-1,1406,344,6.52922,-0.532385
189,680,7.55884,4.77695,0,0,0,0,0,0,0,-1,1413,344,7.55886,-4.77694
196,680,6.55627,3.35254,0,0,0,0,0,0,0,-1,1420,344,6.55622,-3.35255
203,680,5.7334,1.90753,0,0,0,0,0,0,0,-1,1427,344,5.73341,-1.90754
210,680,5.27515,0.493622,0,0,0,0,0,0,0,-1,1434,344,5.27514,-0.493632
217,680,6.56384,-0.374176,0,0,0,0,0,0,0,-1,1441,344,6.56379,0.374176
224,680,3.9491,-0.640228,0,0,0,0,0,0,0,-1,1448,344,3.94908,0.64024
231,680,4.24866,-1.96881,0,0,0,0,0,0,0,-1,1455,344,4.2486,1.96882
238,680,4.29333,-3.23984,0,0,0,0,0,0,0,-1,1462,344,4.29332,3.23984
245,680,2.44397,0.985382,0,0,0,0,0,0,0,-1,1469,344,2.44402,-0.985394
252,680,3.07349,2.18951,0,0,0,0,0,0,0,-1,1476,344,3.0735,-2.18952
259,680,2.82971,1.30682,0,0,0,0,0,0,0,-1,1483,344,2.82972,-1.30684
266,680,2.67554,1.44067,0,0,0,0,0,0,0,-1,1490,344,2.67551,-1.44066
273,680,2.46411,1.54666,0,0,0,0,0,0,0,-1,1497,344,2.46407,-1.54666
280,680,0,0,0,0,0,0,0,0,0,-1,1504,344,0,0
287,680,0,0,0,0,0,0,0,0,0,-1,1511,344,0,0
294,680,0,0,0,0,0,0,0,0,0,-1,1518,344,0,0
301,680,0,0,0,0,0,0,0,0,0,-1,1525,344,0,0
308,680,0,0,0,0,0,0,0,0,0,-1,1532,344,0,0
315,680,0,0,0,0,0,0,0,0,0,-1,1539,344,0,0
322,680,0,0,0,0,0,0,0,0,0,-1,1546,344,0,0
329,680,0,0,0,0,0,0,0,0,0,-1,1553,344,0,0
336,680,0,0,0,0,0,0,0,0,0,-1,1560,344,0,0
343,680,0,0,0,0,0,0,0,0,0,-1,1567,344,0,0
350,680,0,0,0,0,0,0,0,0,0,-1,1574,344,0,0
357,680,0,0,0,0,0,0,0,0,0,-1,1581,344,0,0
364,680,0,0,0,0,0,0,0,0,0,-1,1588,344,0,0
371,680,0,0,0,0,0,0,0,0,0,-1,1595,344,0,0
378,680,0,0,0,0,0,0,0,0,0,-1,1602,344,0,0
385,680,0,0,0,0,0,0,0,0,0,-1,1609,344,0,0
392,680,0,0,0,0,0,0,0,0,0,-1,1616,344,0,0
399,680,0,0,0,0,0,0,0,0,0,-1,1623,344,0,0
406,680,0,0,0,0,0,0,0,0,0,-1,1630,344,0,0
413,680,0,0,0,0,0,0,0,0,0,-1,1637,344,0,0
420,680,0,0,0,0,0,0,0,0,0,-1,1644,344,0,0
427,680,0,0,0,0,0,0,0,0,0,-1,1651,344,0,0
434,680,0,0,0,0,0,0,0,0,0,-1,1658,344,0,0
441,680,0,0,0,0,0,0,0,0,0,-1,1665,344,0,0
448,680,0,0,0,0,0,0,0,0,0,-1,1672,344,0,0
455,680,0,0,0,0,0,0,0,0,0,-1,1679,344,0,0
462,680,0,0,0,0,0,0,0,0,0,-1,1686,344,0,0
469,680,0,0,0,0,0,0,0,0,0,-1,1693,344,0,0
476,680,0,0,0,0,0,0,0,0,0,-1,1700,344,0,0
483,680,0,0,0,0,0,0,0,0,0,-1,1707,344,0,0
490,680,0,0,0,0,0,0,0,0,0,-1,1714,344,0,0
497,680,0,0,0,0,0,0,0,0,0,-1,1721,344,0,0
504,680,0,0,0,0,0,0,0,0,0,-1,1728,344,0,0
511,680,0,0,0,0,0,0,0,0,0,-1,1735,344,0,0
518,680,0,0,0,0,0,0,0,0,0,-1,1742,344,0,0
525,680,0,0,0,0,0,0,0,0,0,-1,1749,344,0,0
532,680,0,0,0,0,0,0,0,0,0,-1,1756,344,0,0
539,680,0,0,0,0,0,0,0,0,0,-1,1763,344,0,0
546,680,0,0,0,0,0,0,0,0,0,-1,1770,344,0,0
553,680,0,0,0,0,0,0,0,0,0,-1,1777,344,0,0
560,680,0,0,0,0,0,0,0,0,0,-1,1784,344,0,0
567,680,0,0,0,0,0,0,0,0,0,-1,1791,344,0,0
574,680,0,0,0,0,0,0,0,0,0,-1,1798,344,0,0
581,680,0,0,0,0,0,0,0,0,0,-1,1805,344,0,0
588,680,0,0,0,0,0,0,0,0,0,-1,1812,344,0,0
595,680,0,0,0,0,0,0,0,0,0,-1,1819,344,0,0
602,680,0,0,0,0,0,0,0,0,0,-1,1826,344,0,0
609,680,0,0,0,0,0,0,0,0,0,-1,1833,344,0,0
616,680,0,0,0,0,0,0,0,0,0,-1,1840,344,0,0
623,680,0,0,0,0,0,0,0,0,0,-1,1847,344,0,0
630,680,0,0,0,0,0,0,0,0,0,-1,1854,344,0,0
637,680,0,0,0,0,0,0,0,0,0,-1,1861,344,0,0
644,680,0,0,0,0,0,0,0,0,0,-1,1868,344,0,0
651,680,0,0,0,0,0,0,0,0,0,-1,1875,344,0,0
658,680,0,0,0,0,0,0,0,0,0,-1,1882,344,0,0
665,680,0,0,0,0,0,0,0,0,0,-1,1889,344,0,0
672,680,0,0,0,0,0,0,0,0,0,-1,1896,344,0,0
679,680,0,0,0,0,0,0,0,0,0,-1,1903,344,0,0
686,680,0,0,0,0,0,0,0,0,0,-1,1910,344,0,0
693,680,0,0,0,0,0,0,0,0,0,-1,1917,344,0,0
700,680,0,0,0,0,0,0,0,0,0,-1,1924,344,0,0
707,680,0,0,0,0,0,0,0,0,0,-1,1931,344,0,0
714,680,0,0,0,0,0,0,0,0,0,-1,1938,344,0,0
721,680,0,0,0,0,0,0,0,0,0,-1,1945,344,0,0
728,680,0,0,0,0,0,0,0,0,0,-1,1952,344,0,0
735,680,0,0,0,0,0,0,0,0,0,-1,1959,344,0,0
742,680,0,0,0,0,0,0,0,0,0,-1,1966,344,0,0
749,680,0,0,0,0,0,0,0,0,0,-1,1973,344,0,0
756,680,0,0,0,0,0,0,0,0,0,-1,1980,344,0,0
763,680,0,0,0,0,0,0,0,0,0,-1,1987,344,0,0
770,680,0,0,0,0,0,0,0,0,0,-1,1994,344,0,0
777,680,0,0,0,0,0,0,0,0,0,-1,2001,344,0,0
784,680,0,0,0,0,0,0,0,0,0,-1,2008,344,0,0
791,680,0,0,0,0,0,0,0,0,0,-1,2015,344,0,0
798,680,0,0,0,0,0,0,0,0,0,-1,2022,344,0,0
805,680,0,0,0,0,0,0,0,0,0,-1,2029,344,0,0
812,680,0,0,0,0,0,0,0,0,0,-1,2036,344,0,0
-700,673,0,0,0,0,0,0,0,0,0,-1,524,351,0,0
-693,673,0,0,0,0,0,0,0,0,0,-1,531,351,0,0
-686,673,0,0,0,0,0,0,0,0,0,-1,538,351,0,0
-679,673,0,0,0,0,0,0,0,0,0,-1,545,351,0,0
-672,673,0,0,0,0,0,0,0,0,0,-1,552,351,0,0
-665,673,0,0,0,0,0,0,0,0,0,-1,559,351,0,0
-658,673,0,0,0,0,0,0,0,0,0,-1,566,351,0,0
-651,673,0,0,0,0,0,0,0,0,0,-1,573,351,0,0
-644,673,0,0,0,0,0,0,0,0,0,-1,580,351,0,0
-637,673,0,0,0,0,0,0,0,0,0,-1,587,351,0,0
-630,673,0,0,0,0,0,0,0,0,0,-1,594,351,0,0
-623,673,0,0,0,0,0,0,0,0,0,-1,601,351,0,0
-616,673,0,0,0,0,0,0,0,0,0,-1,608,351,0,0
-609,673,0,0,0,0,0,0,0,0,0,-1,615,351,0,0
-602,673,0,0,0,0,0,0,0,0,0,-1,622,351,0,0
-595,673,0,0,0,0,0,0,0,0,0,-1,629,351,0,0
-588,673,0,0,0,0,0,0,0,0,0,-1,636,351,0,0
-581,673,0,0,0,0,0,0,0,0,0,-1,643,351,0,0
-574,673,0,0,0,0,0,0,0,0,0,-1,650,351,0,0
-567,673,0,0,0,0,0,0,0,0,0,-1,657,351,0,0
-560,673,0,0,0,0,0,0,0,0,0,-1,664,351,0,0
-553,673,0,0,0,0,0,0,0,0,0,-1,671,351,0,0
-546,673,0,0,0,0,0,0,0,0,0,-1,678,351,0,0
-539,673,0,0,0,0,0,0,0,0,0,-1,685,351,0,0
-532,673,0,0,0,0,0,0,0,0,0,-1,692,351,0,0
-525,673,0,0,0,0,0,0,0,0,0,-1,699,351,0,0
-518,673,0,0,0,0,0,0,0,0,0,-1,706,351,0,0
-511,673,0,0,0,0,0,0,0,0,0,-1,713,351,0,0
-504,673,0,0,0,0,0,0,0,0,0,-1,720,351,0,0
-497,673,0,0,0,0,0,0,0,0,0,-1,727,351,0,0
-490,673,0,0,0,0,0,0,0,0,0,-1,734,351,0,0
-483,673,0,0,0,0,0,0,0,0,0,-1,741,351,0,0
-476,673,0,0,0,0,0,0,0,0,0,-1,748,351,0,0
-469,673,0,0,0,0,0,0,0,0,0,-1,755,351,0,0
-462,673,0,0,0,0,0,0,0,0,0,-1,762,351,0,0
-455,673,0,0,0,0,0,0,0,0,0,-1,769,351,0,0
-448,673,0,0,0,0,0,0,0,0,0,-1,776,351,0,0
-441,673,0,0,0,0,0,0,0,0,0,-1,783,351,0,0
-434,673,0,0,0,0,0,0,0,0,0,-1,790,351,0,0
-427,673,0,0,0,0,0,0,0,0,0,-1,797,351,0,0
-420,673,0,0,0,0,0,0,0,0,0,-1,804,351,0,0
-413,673,0,0,0,0,0,0,0,0,0,-1,811,351,0,0
-406,673,0,0,0,0,0,0,0,0,0,-1,818,351,0,0
-399,673,0,0,0,0,0,0,0,0,0,-1,825,351,0,0
-392,673,0,0,0,0,0,0,0,0,0,-1,832,351,0,0
-385,673,0,0,0,0,0,0,0,0,0,-1,839,351,0,0
-378,673,0,0,0,0,0,0,0,0,0,-1,846,351,0,0
-371,673,0,0,0,0,0,0,0,0,0,-1,853,351,0,0
-364,673,0,0,0,0,0,0,0,0,0,-1,860,351,0,0
-357,673,0,0,0,0,0,0,0,0,0,-1,867,351,0,0
-350,673,0,0,0,0,0,0,0,0,0,-1,874,351,0,0
-343,673,0,0,0,0,0,0,0,0,0,-1,881,351,0,0
-336,673,0,0,0,0,0,0,0,0,0,-1,888,351,0,0
-329,673,0,0,0,0,0,0,0,0,0,-1,895,351,0,0
-322,673,0,0,0,0,0,0,0,0,0,-1,902,351,0,0
-315,673,0,0,0,0,0,0,0,0,0,-1,909,351,0,0
-308,673,0,0,0,0,0,0,0,0,0,-1,916,351,0,0
-301,673,0,0,0,0,0,0,0,0,0,-1,923,351,0,0
-294,673,0,0,0,0,0,0,0,0,0,-1,930,351,0,0
-287,673,0,0,0,0,0,0,0,0,0,-1,937,351,0,0
-280,673,0,0,0,0,0,0,0,0,0,-1,944,351,0,0
-273,673,0,0,0,0,0,0,0,0,0,-1,951,351,0,0
-266,673,0,0,0,0,0,0,0,0,0,-1,958,351,0,0
-259,673,0,0,0,0,0,0,0,0,0,-1,965,351,0,0
-252,673,0,0,0,0,0,0,0,0,0,-1,972,351,0,0
-245,673,0,0,0,0,0,0,0,0,0,-1,979,351,0,0
-238,673,0,0,0,0,0,0,0,0,0,-1,986,351,0,0
-231,673,0,0,0,0,0,0,0,0,0,-1,993,351,0,0
-224,673,0,0,0,0,0,0,0,0,0,-1,1000,351,0,0
-217,673,0,0,0,0,0,0,0,0,0,-1,1007,351,0,0
-210,673,0,0,0,0,0,0,0,0,0,-1,1014,351,0,0
-203,673,0,0,0,0,0,0,0,0,0,-1,1021,351,0,0
-196,673,0,0,0,0,0,0,0,0,0,-1,1028,351,0,0
-189,673,0,0,0,0,0,0,0,0,0,-1,1035,351,0,0
-182,673,0,0,0,0,0,0,0,0,0,-1,1042,351,0,0
-175,673,2.65991,-15.9225,0,0,0,0,0,0,0,-1,1049,351,2.65986,15.9225
-168,673,0.9375,-13.6093,0,0,0,0,0,0,0,-1,1056,351,0.937509,13.6093
-161,673,2.07959,-14.7435,0,0,0,0,0,0,0,-1,1063,351,2.07955,14.7435
-154,673,3.1676,-15.8547,0,0,0,0,0,0,0,-1,1070,351,3.16758,15.8547
-147,673,4.38293,-16.4111,0,0,0,0,0,0,0,-1,1077,351,4.38293,16.4111
-140,673,0.220703,-14.9859,0,0,0,0,0,0,0,-1,1084,351,0.220665,14.9859
-133,673,3.2063,-13.858,0,0,0,0,0,0,0,-1,1091,351,3.20624,13.858
-126,673,2.12537,-14.3672,0,0,0,0,0,0,0,-1,1098,351,2.1254,14.3672
-119,673,1.85364,-14.1354,0,0,0,0,0,0,0,-1,1105,351,1.85369,14.1354
-112,673,1.74915,-13.6423,0,0,0,0,0,0,0,-1,1112,351,1.74918,13.6423
-105,673,1.9502,-13.1174,0.0226199,0.055332,-0.0248765,0.0687478,0.0092041,-1.07621,0.0430927,0.043882,1119,351,1.95024,13.1174
-98,673,2.50696,-13.5719,0.0219996,0.0576699,-0.0251649,0.070679,0.00899056,-1.09368,0.0444268,0.0464417,1126,351,2.50699,13.5719
-91,673,2.41821,-13.1575,0,0,0,0,0,0,0,-1,1133,351,2.41823,13.1575
-84,673,3.59192,-12.5205,0,0,0,0,0,0,0,-1,1140,351,3.59196,12.5205
-77,673,1.60266,-8.87473,0,0,0,0,0,0,0,-1,1147,351,1.60268,8.87474
-70,673,1.88684,-4.7381,0,0,0,0,0,0,0,-1,1154,351,1.88682,4.73809
-63,673,1.11719,-2.95016,0,0,0,0,0,0,0,-1,1161,351,1.11724,2.95016
-56,673,-6.18872,-9.52338,0,0,0,0,0,0,0,-1,1168,351,-6.18874,9.52336
-49,673,-0.926758,-0.115448,0,0,0,0,0,0,0,-1,1175,351,-0.926732,0.115444
-42,673,-1.15015,0.289917,0,0,0,0,0,0,0,-1,1182,351,-1.15017,-0.289932
-35,673,-0.919556,-1.00711,0,0,0,0,0,0,0,-1,1189,351,-0.919514,1.00711
-28,673,1.03564,-2.58228,0,0,0,0,0,0,0,-1,1196,351,1.0356,2.58229
-21,673,2.87561,-15.47,0,0,0,0,0,0,0,-1,1203,351,2.87566,15.47
-14,673,2.72144,-15.726,0,0,0,0,0,0,0,-1,1210,351,2.72149,15.7259
-7,673,2.79187,-15.6933,-0.00145995,-0.00287286,-0.0100741,0.00793243,-0.0122652,-0.750392,0.0117502,0.0416587,1217,351,2.79182,15.6933
0,673,2.84033,-15.6258,-0.00120208,-0.00154217,-0.00955078,0.00818017,-0.0109244,-0.776497,0.0110679,0.0429295,1224,351,2.84033,15.6258
7,673,2.80664,-15.7185,-0.000459064,-0.000226263,-0.00897172,0.00862981,-0.00931514,-0.791885,0.010363,0.0430439,1231,351,2.80661,15.7185
14,673,2.83142,-15.7327,0.000410266,0.00117275,-0.00829235,0.00909262,-0.0075096,-0.80837,0.00959981,0.0371529,1238,351,2.83137,15.7327
21,673,2.79712,-15.6311,0.00159233,0.00307477,-0.00762888,0.00999836,-0.00533126,-0.833826,0.00898624,0.0248374,1245,351,2.79715,15.6311
28,673,2.74426,-15.6622,0.00309442,0.00543903,-0.00698382,0.0113483,-0.0028148,-0.868553,0.00865766,0.0177438,1252,351,2.74428,15.6622
35,673,2.70496,-15.6678,0.00455327,0.00783657,-0.00623101,0.0126386,-0.000248723,-0.914204,0.00850983,0.0256465,1259,351,2.70491,15.6678
42,673,2.65784,-15.6725,0.00608989,0.0119008,-0.00641445,0.0160371,0.00195355,-0.998052,0.0101034,0.0289147,1266,351,2.65785,15.6726
49,673,2.64978,-15.6531,0.00823258,0.018717,-0.00730006,0.0224621,0.00448748,-1.09679,0.0137257,0.0175387,1273,351,2.64984,15.6531
56,673,2.6261,-15.6378,0.0103867,0.0227291,-0.00743875,0.0262232,0.00689254,-1.13167,0.0156974,0.013858,1280,351,2.62616,15.6378
63,673,2.6438,-15.5946,0.0119635,0.0266049,-0.00730397,0.0296254,0.00894302,-1.17867,0.0175461,0.0163145,1287,351,2.64378,15.5946
70,673,2.64563,-15.5753,0.0137351,0.0305927,-0.00670584,0.0329348,0.0113929,-1.23478,0.0193135,0.0255146,1294,351,2.64566,15.5753
77,673,2.65247,-15.5643,0.0147334,0.0341756,-0.00559586,0.0356711,0.0132379,-1.30964,0.0208216,0.0353448,1301,351,2.65249,15.5643
84,673,2.65002,-15.5569,0.0147219,0.0358097,-0.00512408,0.0369889,0.0135428,-1.34461,0.0216092,0.0394219,1308,351,2.64998,15.5569
91,673,2.40112,-15.7031,0.0146229,0.03712,-0.00374568,0.0377272,0.0140156,-1.41007,0.0220203,0.0402582,1315,351,2.40116,15.7031
98,673,2.38306,-15.722,0.0142481,0.0369712,-0.00220127,0.0371825,0.0140368,-1.47511,0.021681,0.0418735,1322,351,2.383,15.722
105,673,2.59314,-15.5574,0.0132622,0.0357802,-0.000287287,0.0357839,0.0132586,-1.55804,0.0208895,0.0379199,1329,351,2.59317,15.5574
112,673,2.59717,-15.5202,0.0116493,0.0336183,0.00188168,0.0337783,0.0114893,1.48597,0.0198314,0.0390194,1336,351,2.59713,15.5202
119,673,2.58191,-15.4729,0.00993447,0.0306817,0.00415575,0.0314832,0.00913302,1.38028,0.0187031,0.0379862,1343,351,2.58192,15.4729
126,673,2.55798,-15.3904,0.00808036,0.0272327,0.00624585,0.0290895,0.00622352,1.28183,0.0176873,0.0383908,1350,351,2.55802,15.3903
133,673,2.32776,-15.3133,0.00637076,0.0237535,0.00791108,0.0268148,0.00330947,1.20158,0.0168818,0.0394113,1357,351,2.32778,15.3133
140,673,2.27271,-15.2506,0.00514647,0.0208784,0.00893842,0.0249191,0.00110577,1.14623,0.0162567,0.0415238,1364,351,2.27273,15.2506
147,673,2.28723,-15.1739,0.00407494,0.0177797,0.0100462,0.023088,-0.00123335,1.0847,0.0158192,0.0400879,1371,351,2.28725,15.1739
154,673,2.39148,-15.0665,0.0027911,0.0126728,0.0113588,0.0201188,-0.0046549,0.990544,0.0152036,0.0366649,1378,351,2.3915,15.0665
161,673,2.33069,-14.9568,0,0,0,0,0,0,0,-1,1385,351,2.33064,14.9568
168,673,6.87061,1.83954,0,0,0,0,0,0,0,-1,1392,351,6.87063,-1.83953
175,673,6.6228,1.1459,0,0,0,0,0,0,0,-1,1399,351,6.62276,-1.14591
182,673,6.37244,0.796112,0,0,0,0,0,0,0,-1,1406,351,6.3724,-0.796102
189,673,6.12097,0.265472,0,0,0,0,0,0,0,-1,1413,351,6.121,-0.265482
196,673,6.02173,3.12717,0,0,0,0,0,0,0,-1,1420,351,6.02176,-3.12717
203,673,5.04456,1.6351,0,0,0,0,0,0,0,-1,1427,351,5.04455,-1.63509
210,673,4.79224,0.447479,0,0,0,0,0,0,0,-1,1434,351,4.79229,-0.447469
217,673,2.01648,0.972687,0,0,0,0,0,0,0,-1,1441,351,2.01644,-0.972691
224,673,2.3689,-1.80539,0,0,0,0,0,0,0,-1,1448,351,2.36896,1.80539
231,673,2.65857,-2.18497,0,0,0,0,0,0,0,-1,1455,351,2.65852,2.18496
238,673,3.24146,-1.01593,0,0,0,0,0,0,0,-1,1462,351,3.24142,1.01593
245,673,3.5376,-0.190399,0,0,0,0,0,0,0,-1,1469,351,3.53759,0.1904
252,673,3.80518,0.55603,0,0,0,0,0,0,0,-1,1476,351,3.80519,-0.556022
259,673,3.88562,1.29617,0,0,0,0,0,0,0,-1,1483,351,3.88562,-1.29618
266,673,4.22424,2.04834,0,0,0,0,0,0,0,-1,1490,351,4.22429,-2.04834
273,673,6.07886,0.385895,0,0,0,0,0,0,0,-1,1497,351,6.0789,-0.385906
280,673,6.97534,-0.0820007,0,0,0,0,0,0,0,-1,1504,351,6.97536,0.0820122
287,673,7.66968,-0.348541,0,0,0,0,0,0,0,-1,1511,351,7.66969,0.348534
294,673,8.20996,0.28537,0,0,0,0,0,0,0,-1,1518,351,8.20993,-0.28536
301,673,0,0,0,0,0,0,0,0,0,-1,1525,351,0,0
308,673,0,0,0,0,0,0,0,0,0,-1,1532,351,0,0
315,673,0,0,0,0,0,0,0,0,0,-1,1539,351,0,0
322,673,0,0,0,0,0,0,0,0,0,-1,1546,351,0,0
329,673,0,0,0,0,0,0,0,0,0,-1,1553,351,0,0
336,673,0,0,0,0,0,0,0,0,0,-1,1560,351,0,0
343,673,0,0,0,0,0,0,0,0,0,-1,1567,351,0,0
350,673,0,0,0,0,0,0,0,0,0,-1,1574,351,0,0
357,673,0,0,0,0,0,0,0,0,0,-1,1581,351,0,0
364,673,0,0,0,0,0,0,0,0,0,-1,1588,351,0,0
371,673,0,0,0,0,0,0,0,0,0,-1,1595,351,0,0
378,673,0,0,0,0,0,0,0,0,0,-1,1602,351,0,0
385,673,0,0,0,0,0,0,0,0,0,-1,1609,351,0,0
392,673,0,0,0,0,0,0,0,0,0,-1,1616,351,0,0
399,673,0,0,0,0,0,0,0,0,0,-1,1623,351,0,0
406,673,0,0,0,0,0,0,0,0,0,-1,1630,351,0,0
413,673,0,0,0,0,0,0,0,0,0,-1,1637,351,0,0
420,673,0,0,0,0,0,0,0,0,0,-1,1644,351,0,0
427,673,0,0,0,0,0,0,0,0,0,-1,1651,351,0,0
434,673,0,0,0,0,0,0,0,0,0,-1,1658,351,0,0
441,673,0,0,0,0,0,0,0,0,0,-1,1665,351,0,0
448,673,0,0,0,0,0,0,0,0,0,-1,1672,351,0,0
455,673,0,0,0,0,0,0,0,0,0,-1,1679,351,0,0
462,673,0,0,0,0,0,0,0,0,0,-1,1686,351,0,0
469,673,0,0,0,0,0,0,0,0,0,-1,1693,351,0,0
476,673,0,0,0,0,0,0,0,0,0,-1,1700,351,0,0
483,673,0,0,0,0,0,0,0,0,0,-1,1707,351,0,0
490,673,0,0,0,0,0,0,0,0,0,-1,1714,351,0,0
497,673,0,0,0,0,0,0,0,0,0,-1,1721,351,0,0
504,673,0,0,0,0,0,0,0,0,0,-1,1728,351,0,0
511,673,0,0,0,0,0,0,0,0,0,-1,1735,351,0,0
518,673,0,0,0,0,0,0,0,0,0,-1,1742,351,0,0
525,673,0,0,0,0,0,0,0,0,0,-1,1749,351,0,0
532,673,0,0,0,0,0,0,0,0,0,-1,1756,351,0,0
539,673,0,0,0,0,0,0,0,0,0,-1,1763,351,0,0
546,673,0,0,0,0,0,0,0,0,0,-1,1770,351,0,0
553,673,0,0,0,0,0,0,0,0,0,-1,1777,351,0,0
560,673,0,0,0,0,0,0,0,0,0,-1,1784,351,0,0
567,673,0,0,0,0,0,0,0,0,0,-1,1791,351,0,0
574,673,0,0,0,0,0,0,0,0,0,-1,1798,351,0,0
581,673,0,0,0,0,0,0,0,0,0,-1,1805,351,0,0
588,673,0,0,0,0,0,0,0,0,0,-1,1812,351,0,0
595,673,0,0,0,0,0,0,0,0,0,-1,1819,351,0,0
602,673,0,0,0,0,0,0,0,0,0,-1,1826,351,0,0
609,673,0,0,0,0,0,0,0,0,0,-1,1833,351,0,0
616,673,0,0,0,0,0,0,0,0,0,-1,1840,351,0,0
623,673,0,0,0,0,0,0,0,0,0,-1,1847,351,0,0
630,673,0,0,0,0,0,0,0,0,0,-1,1854,351,0,0
637,673,0,0,0,0,0,0,0,0,0,-1,1861,351,0,0
644,673,0,0,0,0,0,0,0,0,0,-1,1868,351,0,0
651,673,0,0,0,0,0,0,0,0,0,-1,1875,351,0,0
658,673,0,0,0,0,0,0,0,0,0,-1,1882,351,0,0
665,673,0,0,0,0,0,0,0,0,0,-1,1889,351,0,0
672,673,0,0,0,0,0,0,0,0,0,-1,1896,351,0,0
679,673,0,0,0,0,0,0,0,0,0,-1,1903,351,0,0
686,673,0,0,0,0,0,0,0,0,0,-1,1910,351,0,0
693,673,0,0,0,0,0,0,0,0,0,-1,1917,351,0,0
700,673,0,0,0,0,0,0,0,0,0,-1,1924,351,0,0
707,673,0,0,0,0,0,0,0,0,0,-1,1931,351,0,0
714,673,0,0,0,0,0,0,0,0,0,-1,1938,351,0,0
721,673,0,0,0,0,0,0,0,0,0,-1,1945,351,0,0
728,673,0,0,0,0,0,0,0,0,0,-1,1952,351,0,0
735,673,0,0,0,0,0,0,0,0,0,-1,1959,351,0,0
742,673,0,0,0,0,0,0,0,0,0,-1,1966,351,0,0
749,673,0,0,0,0,0,0,0,0,0,-1,1973,351,0,0
756,673,0,0,0,0,0,0,0,0,0,-1,1980,351,0,0
763,673,0,0,0,0,0,0,0,0,0,-1,1987,351,0,0
770,673,0,0,0,0,0,0,0,0,0,-1,1994,351,0,0
777,673,0,0,0,0,0,0,0,0,0,-1,2001,351,0,0
784,673,0,0,0,0,0,0,0,0,0,-1,2008,351,0,0
791,673,0,0,0,0,0,0,0,0,0,-1,2015,351,0,0
798,673,0,0,0,0,0,0,0,0,0,-1,2022,351,0,0
805,673,0,0,0,0,0,0,0,0,0,-1,2029,351,0,0
812,673,0,0,0,0,0,0,0,0,0,-1,2036,351,0,0
-700,666,0,0,0,0,0,0,0,0,0,-1,524,358,0,0
-693,666,0,0,0,0,0,0,0,0,0,-1,531,358,0,0
-686,666,0,0,0,0,0,0,0,0,0,-1,538,358,0,0
-679,666,0,0,0,0,0,0,0,0,0,-1,545,358,0,0
-672,666,0,0,0,0,0,0,0,0,0,-1,552,358,0,0
-665,666,0,0,0,0,0,0,0,0,0,-1,559,358,0,0
-658,666,0,0,0,0,0,0,0,0,0,-1,566,358,0,0
-651,666,0,0,0,0,0,0,0,0,0,-1,573,358,0,0
-644,666,0,0,0,0,0,0,0,0,0,-1,580,358,0,0
-637,666,0,0,0,0,0,0,0,0,0,-1,587,358,0,0
-630,666,0,0,0,0,0,0,0,0,0,-1,594,358,0,0
-623,666,0,0,0,0,0,0,0,0,0,-1,601,358,0,0
-616,666,0,0,0,0,0,0,0,0,0,-1,608,358,0,0
-609,666,0,0,0,0,0,0,0,0,0,-1,615,358,0,0
-602,666,0,0,0,0,0,0,0,0,0,-1,622,358,0,0
-595,666,0,0,0,0,0,0,0,0,0,-1,629,358,0,0
-588,666,0,0,0,0,0,0,0,0,0,-1,636,358,0,0
-581,666,0,0,0,0,0,0,0,0,0,-1,643,358,0,0
-574,666,0,0,0,0,0,0,0,0,0,-1,650,358,0,0
-567,666,0,0,0,0,0,0,0,0,0,-1,657,358,0,0
-560,666,0,0,0,0,0,0,0,0,0,-1,664,358,0,0
-553,666,0,0,0,0,0,0,0,0,0,-1,671,358,0,0
-546,666,0,0,0,0,0,0,0,0,0,-1,678,358,0,0
-539,666,0,0,0,0,0,0,0,0,0,-1,685,358,0,0
-532,666,0,0,0,0,0,0,0,0,0,-1,692,358,0,0
-525,666,0,0,0,0,0,0,0,0,0,-1,699,358,0,0
-518,666,0,0,0,0,0,0,0,0,0,-1,706,358,0,0
-511,666,0,0,0,0,0,0,0,0,0,-1,713,358,0,0
-504,666,0,0,0,0,0,0,0,0,0,-1,720,358,0,0
-497,666,0,0,0,0,0,0,0,0,0,-1,727,358,0,0
-490,666,0,0,0,0,0,0,0,0,0,-1,734,358,0,0
-483,666,0,0,0,0,0,0,0,0,0,-1,741,358,0,0
-476,666,0,0,0,0,0,0,0,0,0,-1,748,358,0,0
-469,666,0,0,0,0,0,0,0,0,0,-1,755,358,0,0
-462,666,0,0,0,0,0,0,0,0,0,-1,762,358,0,0
-455,666,0,0,0,0,0,0,0,0,0,-1,769,358,0,0
-448,666,0,0,0,0,0,0,0,0,0,-1,776,358,0,0
-441,666,0,0,0,0,0,0,0,0,0,-1,783,358,0,0
-434,666,0,0,0,0,0,0,0,0,0,-1,790,358,0,0
-427,666,0,0,0,0,0,0,0,0,0,-1,797,358,0,0
-420,666,0,0,0,0,0,0,0,0,0,-1,804,358,0,0
-413,666,0,0,0,0,0,0,0,0,0,-1,811,358,0,0
-406,666,0,0,0,0,0,0,0,0,0,-1,818,358,0,0
-399,666,0,0,0,0,0,0,0,0,0,-1,825,358,0,0
-392,666,0,0,0,0,0,0,0,0,0,-1,832,358,0,0
-385,666,0,0,0,0,0,0,0,0,0,-1,839,358,0,0
-378,666,0,0,0,0,0,0,0,0,0,-1,846,358,0,0
-371,666,0,0,0,0,0,0,0,0,0,-1,853,358,0,0
-364,666,0,0,0,0,0,0,0,0,0,-1,860,358,0,0
-357,666,0,0,0,0,0,0,0,0,0,-1,867,358,0,0
-350,666,0,0,0,0,0,0,0,0,0,-1,874,358,0,0
-343,666,0,0,0,0,0,0,0,0,0,-1,881,358,0,0
-336,666,0,0,0,0,0,0,0,0,0,-1,888,358,0,0
-329,666,0,0,0,0,0,0,0,0,0,-1,895,358,0,0
-322,666,0,0,0,0,0,0,0,0,0,-1,902,358,0,0
-315,666,0,0,0,0,0,0,0,0,0,-1,909,358,0,0
-308,666,0,0,0,0,0,0,0,0,0,-1,916,358,0,0
-301,666,0,0,0,0,0,0,0,0,0,-1,923,358,0,0
-294,666,0,0,0,0,0,0,0,0,0,-1,930,358,0,0
-287,666,0,0,0,0,0,0,0,0,0,-1,937,358,0,0
-280,666,0,0,0,0,0,0,0,0,0,-1,944,358,0,0
-273,666,0,0,0,0,0,0,0,0,0,-1,951,358,0,0
-266,666,0,0,0,0,0,0,0,0,0,-1,958,358,0,0
-259,666,0,0,0,0,0,0,0,0,0,-1,965,358,0,0
-252,666,0,0,0,0,0,0,0,0,0,-1,972,358,0,0
-245,666,0,0,0,0,0,0,0,0,0,-1,979,358,0,0
-238,666,0,0,0,0,0,0,0,0,0,-1,986,358,0,0
-231,666,0,0,0,0,0,0,0,0,0,-1,993,358,0,0
-224,666,0,0,0,0,0,0,0,0,0,-1,1000,358,0,0
-217,666,0,0,0,0,0,0,0,0,0,-1,1007,358,0,0
-210,666,0,0,0,0,0,0,0,0,0,-1,1014,358,0,0
-203,666,0,0,0,0,0,0,0,0,0,-1,1021,358,0,0
-196,666,4.0769,-19.0127,0,0,0,0,0,0,0,-1,1028,358,4.07693,19.0127
-189,666,3.37659,-17.8461,0,0,0,0,0,0,0,-1,1035,358,3.37657,17.8461
-182,666,2.59351,-16.6118,0.0294662,0.0660829,-0.0598444,0.110357,-0.0148078,-0.933843,0.0789714,0.0445438,1042,358,2.59354,16.6118
-175,666,1.97546,-15.6304,0,0,0,0,0,0,0,-1,1049,358,1.97548,15.6304
-168,666,1.55603,-14.8302,0,0,0,0,0,0,0,-1,1056,358,1.55599,14.8302
-161,666,2.2666,-15.1104,0,0,0,0,0,0,0,-1,1063,358,2.26666,15.1104
-154,666,3.35693,-15.1993,0,0,0,0,0,0,0,-1,1070,358,3.35698,15.1993
-147,666,1.34436,-15.6517,0,0,0,0,0,0,0,-1,1077,358,1.34435,15.6517
-140,666,1.099,-14.5367,0,0,0,0,0,0,0,-1,1084,358,1.09894,14.5367
-133,666,1.60352,-13.0854,0,0,0,0,0,0,0,-1,1091,358,1.60349,13.0855
-126,666,3.39099,-13.5086,0,0,0,0,0,0,0,-1,1098,358,3.39094,13.5087
-119,666,3.11963,-14.1832,0,0,0,0,0,0,0,-1,1105,358,3.11965,14.1832
-112,666,3.08667,-14.1837,0,0,0,0,0,0,0,-1,1112,358,3.08665,14.1837
-105,666,2.65198,-13.9371,0.0140679,0.0407602,-0.01741,0.049351,0.00547716,-1.11241,0.0312354,0.0428711,1119,358,2.65199,13.9371
-98,666,2.6217,-13.8034,0.0133312,0.0423986,-0.0174617,0.0505836,0.00514628,-1.13247,0.0321446,0.0454615,1126,358,2.6217,13.8034
-91,666,2.55884,-13.3994,0,0,0,0,0,0,0,-1,1133,358,2.55882,13.3994
-84,666,3.45264,-13.0934,0,0,0,0,0,0,0,-1,1140,358,3.45259,13.0934
-77,666,0.964722,-10.3601,0,0,0,0,0,0,0,-1,1147,358,0.964669,10.3601
-70,666,2.05957,-6.51086,0,0,0,0,0,0,0,-1,1154,358,2.05959,6.51088
-63,666,1.47485,-3.79593,0,0,0,0,0,0,0,-1,1161,358,1.47481,3.79593
-56,666,0.424683,-2.04132,0,0,0,0,0,0,0,-1,1168,358,0.424665,2.04132
-49,666,0.754395,-2.23169,0,0,0,0,0,0,0,-1,1175,358,0.754383,2.23169
-42,666,1.34473,-3.53897,0,0,0,0,0,0,0,-1,1182,358,1.34476,3.53896
-35,666,2.53687,-15.664,0,0,0,0,0,0,0,-1,1189,358,2.53692,15.664
-28,666,2.76807,-15.5518,0,0,0,0,0,0,0,-1,1196,358,2.76801,15.5519
-21,666,2.81787,-15.4903,-0.00176534,-0.00289983,-0.00588758,0.00358226,-0.00824743,-0.737373,0.00700467,0.0330698,1203,358,2.81785,15.4903
-14,666,2.79895,-15.5495,-0.00179643,-0.00247858,-0.00597814,0.00385036,-0.00812537,-0.756902,0.00705951,0.0245458,1210,358,2.7989,15.5495
-7,666,2.75439,-15.5715,-0.00193595,-0.00205525,-0.00589005,0.00389476,-0.00788596,-0.780335,0.00693049,0.0167617,1217,358,2.75439,15.5715
0,666,2.78662,-15.5942,-0.00168973,-0.00108956,-0.0056987,0.00431695,-0.00709624,-0.811704,0.00665421,0.0115678,1224,358,2.78658,15.5942
7,666,2.76819,-15.6492,-0.00104316,-6.49531e-05,-0.00543156,0.00489948,-0.0060076,-0.830301,0.00630803,0.0148589,1231,358,2.76824,15.6492
14,666,2.75903,-15.6491,-0.00035385,0.00101247,-0.00510205,0.0054769,-0.00481828,-0.851952,0.00594797,0.0150284,1238,358,2.75907,15.6491
21,666,2.70813,-15.6659,0.000591152,0.00255398,-0.00478858,0.00646068,-0.00331555,-0.886473,0.00574085,0.0113035,1245,358,2.70812,15.6659
28,666,2.67712,-15.6873,0.00177382,0.00436939,-0.00447688,0.0077328,-0.00158959,-0.926475,0.00575866,0.0115848,1252,358,2.67715,15.6873
35,666,2.68591,-15.6789,0.00286518,0.00614695,-0.00405829,0.00888353,0.000128603,-0.977515,0.00587996,0.0109302,1259,358,2.68591,15.6789
42,666,2.65881,-15.683,0.00397174,0.00912174,-0.00434017,0.0115933,0.00150019,-1.05314,0.0072805,0.0122064,1266,358,2.65878,15.6829
49,666,2.62207,-15.6941,0.00553579,0.0137604,-0.00495888,0.0160903,0.00320593,-1.13157,0.00983397,0.010378,1273,358,2.62209,15.6941
56,666,2.61694,-15.686,0.00711779,0.0165043,-0.00497776,0.0186524,0.00496964,-1.16339,0.0111538,0.0117017,1280,358,2.61691,15.686
63,666,2.61829,-15.6983,0.00829873,0.0191612,-0.00479097,0.0209724,0.00648761,-1.20937,0.0123984,0.0129476,1287,358,2.61827,15.6983
70,666,2.58923,-15.6824,0.0095881,0.0218296,-0.00420709,0.0231361,0.00828166,-1.2697,0.0135361,0.0125816,1294,358,2.58928,15.6824
77,666,2.57751,-15.6401,0.0102893,0.0243419,-0.00321724,0.0250435,0.00958776,-1.3561,0.0145906,0.0160131,1301,358,2.57754,15.6401
84,666,2.55273,-15.6364,0.0102013,0.0253759,-0.00272763,0.0258513,0.00972593,-1.39824,0.0150769,0.0213,1308,358,2.55271,15.6364
91,666,2.53503,-15.6406,0.0100922,0.0262453,-0.00162644,0.0264075,0.00993008,-1.47144,0.0154018,0.0194014,1315,358,2.53498,15.6406
98,666,2.48767,-15.613,0.00976936,0.0260543,-0.000404632,0.0260644,0.00975932,-1.54597,0.0152056,0.0160099,1322,358,2.48771,15.613
105,666,2.46375,-15.5369,0.00897584,0.0251477,0.00105263,0.0252159,0.00890761,1.50607,0.014766,0.0181884,1329,358,2.46374,15.5369
112,666,2.4668,-15.4695,0.00775571,0.0236447,0.00260107,0.0240596,0.00734074,1.41259,0.0142382,0.021955,1336,358,2.46674,15.4695
119,666,2.44116,-15.3819,0.00652445,0.0216781,0.00413898,0.0227349,0.00546766,1.32081,0.0137026,0.0225923,1343,358,2.44116,15.3819
126,666,2.38904,-15.2928,0.0051928,0.0193547,0.00548914,0.0212332,0.00331437,1.24108,0.0131902,0.023285,1350,358,2.38904,15.2927
133,666,2.34631,-15.2402,0.00397846,0.0170865,0.00649982,0.019763,0.00130194,1.18017,0.0127635,0.0221495,1357,358,2.34633,15.2402
140,666,2.29211,-15.2326,0.00317116,0.0152071,0.00703084,0.0184437,-6.55344e-05,1.13936,0.0123177,0.0218646,1364,358,2.29208,15.2326
147,666,2.30774,-15.1865,0.00249753,0.0129801,0.00776644,0.0171084,-0.00163075,1.08223,0.0119862,0.0205272,1371,358,2.30774,15.1865
154,666,2.33691,-15.0687,0.00151647,0.00943491,0.00845897,0.0148154,-0.00386398,1.00428,0.0113856,0.0182395,1378,358,2.33686,15.0687
161,666,2.37366,-14.9878,0.000814629,0.00966039,0.00825736,0.0146048,-0.00412977,1.03127,0.011366,0.0246368,1385,358,2.37365,14.9878
168,666,2.41296,-14.9274,0,0,0,0,0,0,0,-1,1392,358,2.41295,14.9274
175,666,2.59106,-15.0837,0,0,0,0,0,0,0,-1,1399,358,2.59105,15.0837
182,666,2.60876,-5.17068,0,0,0,0,0,0,0,-1,1406,358,2.6088,5.17068
189,666,2.46973,-5.49979,0,0,0,0,0,0,0,-1,1413,358,2.46975,5.49979
196,666,2.32458,-5.23651,0,0,0,0,0,0,0,-1,1420,358,2.32461,5.23653
203,666,2.28064,-3.88004,0,0,0,0,0,0,0,-1,1427,358,2.28059,3.88003
210,666,3.02576,-5.83548,0,0,0,0,0,0,0,-1,1434,358,3.02581,5.83547
217,666,2.30444,-5.36011,0,0,0,0,0,0,0,-1,1441,358,2.30447,5.3601
224,666,1.82324,-6.03101,0,0,0,0,0,0,0,-1,1448,358,1.82322,6.031
231,666,2.29797,-10.1093,0,0,0,0,0,0,0,-1,1455,358,2.29801,10.1093
238,666,2.52429,-6.10568,0,0,0,0,0,0,0,-1,1462,358,2.52423,6.10567
245,666,4.53345,-1.38205,0,0,0,0,0,0,0,-1,1469,358,4.53349,1.38204
252,666,4.77405,-0.246979,0,0,0,0,0,0,0,-1,1476,358,4.77405,0.246993
259,666,4.83655,1.14087,0,0,0,0,0,0,0,-1,1483,358,4.83652,-1.14087
266,666,6.14148,0.749512,0,0,0,0,0,0,0,-1,1490,358,6.14144,-0.749519
273,666,2.61304,-1.53772,0,0,0,0,0,0,0,-1,1497,358,2.613,1.53773
280,666,8.70898,-0.836975,0,0,0,0,0,0,0,-1,1504,358,8.70894,0.836988
287,666,2.27039,-4.09058,0,0,0,0,0,0,0,-1,1511,358,2.27042,4.09059
294,666,1.43115,-13.1906,0,0,0,0,0,0,0,-1,1518,358,1.4311,13.1906
301,666,1.35095,-11.8304,0,0,0,0,0,0,0,-1,1525,358,1.3509,11.8304
308,666,1.08496,-1.87576,0,0,0,0,0,0,0,-1,1532,358,1.08491,1.87575
315,666,1.76294,-0.284027,0,0,0,0,0,0,0,-1,1539,358,1.76291,0.284016
322,666,0,0,0,0,0,0,0,0,0,-1,1546,358,0,0
329,666,0,0,0,0,0,0,0,0,0,-1,1553,358,0,0
336,666,0,0,0,0,0,0,0,0,0,-1,1560,358,0,0
343,666,0,0,0,0,0,0,0,0,0,-1,1567,358,0,0
350,666,0,0,0,0,0,0,0,0,0,-1,1574,358,0,0
357,666,0,0,0,0,0,0,0,0,0,-1,1581,358,0,0
364,666,0,0,0,0,0,0,0,0,0,-1,1588,358,0,0
371,666,0,0,0,0,0,0,0,0,0,-1,1595,358,0,0
378,666,0,0,0,0,0,0,0,0,0,-1,1602,358,0,0
385,666,0,0,0,0,0,0,0,0,0,-1,1609,358,0,0
392,666,0,0,0,0,0,0,0,0,0,-1,1616,358,0,0
399,666,0,0,0,0,0,0,0,0,0,-1,1623,358,0,0
406,666,0,0,0,0,0,0,0,0,0,-1,1630,358,0,0
413,666,0,0,0,0,0,0,0,0,0,-1,1637,358,0,0
420,666,0,0,0,0,0,0,0,0,0,-1,1644,358,0,0
427,666,0,0,0,0,0,0,0,0,0,-1,1651,358,0,0
434,666,0,0,0,0,0,0,0,0,0,-1,1658,358,0,0
441,666,0,0,0,0,0,0,0,0,0,-1,1665,358,0,0
448,666,0,0,0,0,0,0,0,0,0,-1,1672,358,0,0
455,666,0,0,0,0,0,0,0,0,0,-1,1679,358,0,0
462,666,0,0,0,0,0,0,0,0,0,-1,1686,358,0,0
469,666,0,0,0,0,0,0,0,0,0,-1,1693,358,0,0
476,666,0,0,0,0,0,0,0,0,0,-1,1700,358,0,0
483,666,0,0,0,0,0,0,0,0,0,-1,1707,358,0,0
490,666,0,0,0,0,0,0,0,0,0,-1,1714,358,0,0
497,666,0,0,0,0,0,0,0,0,0,-1,1721,358,0,0
504,666,0,0,0,0,0,0,0,0,0,-1,1728,358,0,0
511,666,0,0,0,0,0,0,0,0,0,-1,1735,358,0,0
518,666,0,0,0,0,0,0,0,0,0,-1,1742,358,0,0
525,666,0,0,0,0,0,0,0,0,0,-1,1749,358,0,0
532,666,0,0,0,0,0,0,0,0,0,-1,1756,358,0,0
539,666,0,0,0,0,0,0,0,0,0,-1,1763,358,0,0
546,666,0,0,0,0,0,0,0,0,0,-1,1770,358,0,0
553,666,0,0,0,0,0,0,0,0,0,-1,1777,358,0,0
560,666,0,0,0,0,0,0,0,0,0,-1,1784,358,0,0
567,666,0,0,0,0,0,0,0,0,0,-1,1791,358,0,0
574,666,0,0,0,0,0,0,0,0,0,-1,1798,358,0,0
581,666,0,0,0,0,0,0,0,0,0,-1,1805,358,0,0
588,666,0,0,0,0,0,0,0,0,0,-1,1812,358,0,0
595,666,0,0,0,0,0,0,0,0,0,-1,1819,358,0,0
602,666,0,0,0,0,0,0,0,0,0,-1,1826,358,0,0
609,666,0,0,0,0,0,0,0,0,0,-1,1833,358,0,0
616,666,0,0,0,0,0,0,0,0,0,-1,1840,358,0,0
623,666,0,0,0,0,0,0,0,0,0,-1,1847,358,0,0
630,666,0,0,0,0,0,0,0,0,0,-1,1854,358,0,0
637,666,0,0,0,0,0,0,0,0,0,-1,1861,358,0,0
644,666,0,0,0,0,0,0,0,0,0,-1,1868,358,0,0
651,666,0,0,0,0,0,0,0,0,0,-1,1875,358,0,0
658,666,0,0,0,0,0,0,0,0,0,-1,1882,358,0,0
665,666,0,0,0,0,0,0,0,0,0,-1,1889,358,0,0
672,666,0,0,0,0,0,0,0,0,0,-1,1896,358,0,0
679,666,0,0,0,0,0,0,0,0,0,-1,1903,358,0,0
686,666,0,0,0,0,0,0,0,0,0,-1,1910,358,0,0
693,666,0,0,0,0,0,0,0,0,0,-1,1917,358,0,0
700,666,0,0,0,0,0,0,0,0,0,-1,1924,358,0,0
707,666,0,0,0,0,0,0,0,0,0,-1,1931,358,0,0
714,666,0,0,0,0,0,0,0,0,0,-1,1938,358,0,0
721,666,0,0,0,0,0,0,0,0,0,-1,1945,358,0,0
728,666,0,0,0,0,0,0,0,0,0,-1,1952,358,0,0
735,666,0,0,0,0,0,0,0,0,0,-1,1959,358,0,0
742,666,0,0,0,0,0,0,0,0,0,-1,1966,358,0,0
749,666,0,0,0,0,0,0,0,0,0,-1,1973,358,0,0
756,666,0,0,0,0,0,0,0,0,0,-1,1980,358,0,0
763,666,0,0,0,0,0,0,0,0,0,-1,1987,358,0,0
770,666,0,0,0,0,0,0,0,0,0,-1,1994,358,0,0
777,666,0,0,0,0,0,0,0,0,0,-1,2001,358,0,0
784,666,0,0,0,0,0,0,0,0,0,-1,2008,358,0,0
791,666,0,0,0,0,0,0,0,0,0,-1,2015,358,0,0
798,666,0,0,0,0,0,0,0,0,0,-1,2022,358,0,0
805,666,0,0,0,0,0,0,0,0,0,-1,2029,358,0,0
812,666,0,0,0,0,0,0,0,0,0,-1,2036,358,0,0
-700,659,0,0,0,0,0,0,0,0,0,-1,524,365,0,0
-693,659,0,0,0,0,0,0,0,0,0,-1,531,365,0,0
-686,659,0,0,0,0,0,0,0,0,0,-1,538,365,0,0
-679,659,0,0,0,0,0,0,0,0,0,-1,545,365,0,0
-672,659,0,0,0,0,0,0,0,0,0,-1,552,365,0,0
-665,659,0,0,0,0,0,0,0,0,0,-1,559,365,0,0
-658,659,0,0,0,0,0,0,0,0,0,-1,566,365,0,0
-651,659,0,0,0,0,0,0,0,0,0,-1,573,365,0,0
-644,659,0,0,0,0,0,0,0,0,0,-1,580,365,0,0
-637,659,0,0,0,0,0,0,0,0,0,-1,587,365,0,0
-630,659,0,0,0,0,0,0,0,0,0,-1,594,365,0,0
-623,659,0,0,0,0,0,0,0,0,0,-1,601,365,0,0
-616,659,0,0,0,0,0,0,0,0,0,-1,608,365,0,0
-609,659,0,0,0,0,0,0,0,0,0,-1,615,365,0,0
-602,659,0,0,0,0,0,0,0,0,0,-1,622,365,0,0
-595,659,0,0,0,0,0,0,0,0,0,-1,629,365,0,0
-588,659,0,0,0,0,0,0,0,0,0,-1,636,365,0,0
-581,659,0,0,0,0,0,0,0,0,0,-1,643,365,0,0
-574,659,0,0,0,0,0,0,0,0,0,-1,650,365,0,0
-567,659,0,0,0,0,0,0,0,0,0,-1,657,365,0,0
-560,659,0,0,0,0,0,0,0,0,0,-1,664,365,0,0
-553,659,0,0,0,0,0,0,0,0,0,-1,671,365,0,0
-546,659,0,0,0,0,0,0,0,0,0,-1,678,365,0,0
-539,659,0,0,0,0,0,0,0,0,0,-1,685,365,0,0
-532,659,0,0,0,0,0,0,0,0,0,-1,692,365,0,0
-525,659,0,0,0,0,0,0,0,0,0,-1,699,365,0,0
-518,659,0,0,0,0,0,0,0,0,0,-1,706,365,0,0
-511,659,0,0,0,0,0,0,0,0,0,-1,713,365,0,0
-504,659,0,0,0,0,0,0,0,0,0,-1,720,365,0,0
-497,659,0,0,0,0,0,0,0,0,0,-1,727,365,0,0
-490,659,0,0,0,0,0,0,0,0,0,-1,734,365,0,0
-483,659,0,0,0,0,0,0,0,0,0,-1,741,365,0,0
-476,659,0,0,0,0,0,0,0,0,0,-1,748,365,0,0
-469,659,0,0,0,0,0,0,0,0,0,-1,755,365,0,0
-462,659,0,0,0,0,0,0,0,0,0,-1,762,365,0,0
-455,659,0,0,0,0,0,0,0,0,0,-1,769,365,0,0
-448,659,0,0,0,0,0,0,0,0,0,-1,776,365,0,0
-441,659,0,0,0,0,0,0,0,0,0,-1,783,365,0,0
-434,659,0,0,0,0,0,0,0,0,0,-1,790,365,0,0
-427,659,0,0,0,0,0,0,0,0,0,-1,797,365,0,0
-420,659,0,0,0,0,0,0,0,0,0,-1,804,365,0,0
-413,659,0,0,0,0,0,0,0,0,0,-1,811,365,0,0
-406,659,0,0,0,0,0,0,0,0,0,-1,818,365,0,0
-399,659,0,0,0,0,0,0,0,0,0,-1,825,365,0,0
-392,659,0,0,0,0,0,0,0,0,0,-1,832,365,0,0
-385,659,0,0,0,0,0,0,0,0,0,-1,839,365,0,0
-378,659,0,0,0,0,0,0,0,0,0,-1,846,365,0,0
-371,659,0,0,0,0,0,0,0,0,0,-1,853,365,0,0
-364,659,0,0,0,0,0,0,0,0,0,-1,860,365,0,0
-357,659,0,0,0,0,0,0,0,0,0,-1,867,365,0,0
-350,659,0,0,0,0,0,0,0,0,0,-1,874,365,0,0
-343,659,0,0,0,0,0,0,0,0,0,-1,881,365,0,0
-336,659,0,0,0,0,0,0,0,0,0,-1,888,365,0,0
-329,659,0,0,0,0,0,0,0,0,0,-1,895,365,0,0
-322,659,0,0,0,0,0,0,0,0,0,-1,902,365,0,0
-315,659,0,0,0,0,0,0,0,0,0,-1,909,365,0,0
-308,659,0,0,0,0,0,0,0,0,0,-1,916,365,0,0
-301,659,0,0,0,0,0,0,0,0,0,-1,923,365,0,0
-294,659,0,0,0,0,0,0,0,0,0,-1,930,365,0,0
-287,659,0,0,0,0,0,0,0,0,0,-1,937,365,0,0
-280,659,0,0,0,0,0,0,0,0,0,-1,944,365,0,0
-273,659,0,0,0,0,0,0,0,0,0,-1,951,365,0,0
-266,659,0,0,0,0,0,0,0,0,0,-1,958,365,0,0
-259,659,0,0,0,0,0,0,0,0,0,-1,965,365,0,0
-252,659,0,0,0,0,0,0,0,0,0,-1,972,365,0,0
-245,659,0,0,0,0,0,0,0,0,0,-1,979,365,0,0
-238,659,0,0,0,0,0,0,0,0,0,-1,986,365,0,0
-231,659,0,0,0,0,0,0,0,0,0,-1,993,365,0,0
-224,659,0,0,0,0,0,0,0,0,0,-1,1000,365,0,0
-217,659,1.16412,-8.94662,0.0747246,0.257982,-0.174158,0.363145,-0.0304384,-1.02756,0.252854,0.0445955,1007,365,1.16415,8.94662
-210,659,1.49689,-9.77625,0.0634281,0.214514,-0.148281,0.305386,-0.0274438,-1.02099,0.213328,0.046209,1014,365,1.4969,9.77625
-203,659,1.96698,-10.6201,0,0,0,0,0,0,0,-1,1021,365,1.96698,10.62
-196,659,3.35767,-16.0435,0,0,0,0,0,0,0,-1,1028,365,3.35766,16.0435
-189,659,2.58032,-16.4023,0,0,0,0,0,0,0,-1,1035,365,2.58028,16.4023
-182,659,2.28235,-15.4185,0,0,0,0,0,0,0,-1,1042,365,2.28231,15.4185
-175,659,1.98438,-14.4348,0,0,0,0,0,0,0,-1,1049,365,1.98434,14.4348
-168,659,1.83704,-13.8517,0,0,0,0,0,0,0,-1,1056,365,1.83705,13.8517
-161,659,2.33862,-14.0818,0,0,0,0,0,0,0,-1,1063,365,2.33862,14.0818
-154,659,3.05579,-14.1869,0,0,0,0,0,0,0,-1,1070,365,3.05577,14.1869
-147,659,2.34924,-14.8713,0,0,0,0,0,0,0,-1,1077,365,2.34918,14.8713
-140,659,2.01807,-14.1423,0.0116914,-0.0029052,-0.00386602,0.0126521,-0.00386591,-0.243567,0.00997629,0.0428861,1084,365,2.01804,14.1423
-133,659,1.97754,-13.3945,0.0114791,0.00644753,-0.00649112,0.0159249,0.00200173,-0.600524,0.0100163,0.0421008,1091,365,1.9775,13.3945
-126,659,3.07251,-14.0728,0,0,0,0,0,0,0,-1,1098,365,3.07256,14.0727
-119,659,3.04248,-14.21,0.0103894,0.0233752,-0.0109188,0.0295858,0.00417887,-1.05364,0.018489,0.0445221,1105,365,3.0425,14.21
-112,659,3.00146,-14.2777,0.00936217,0.0273715,-0.0118324,0.0332359,0.00349772,-1.11065,0.0210883,0.0392861,1112,365,3.00141,14.2777
-105,659,2.91614,-14.2502,0.00854012,0.0296775,-0.0121514,0.0352133,0.00300433,-1.14332,0.0225409,0.0406444,1119,365,2.91614,14.2502
-98,659,2.81799,-14.1743,0.00782393,0.0307763,-0.0120793,0.0359618,0.00263841,-1.1653,0.0231453,0.0427775,1126,365,2.81799,14.1743
-91,659,2.74512,-14.1849,0.00720471,0.0304872,-0.0116661,0.0353268,0.00236517,-1.17756,0.0228037,0.0424339,1133,365,2.74508,14.1849
-84,659,2.75391,-14.1844,0,0,0,0,0,0,0,-1,1140,365,2.7539,14.1845
-77,659,2.7489,-14.2508,0,0,0,0,0,0,0,-1,1147,365,2.74893,14.2508
-70,659,2.9353,-12.7028,0,0,0,0,0,0,0,-1,1154,365,2.93533,12.7028
-63,659,2.11267,-9.7796,0,0,0,0,0,0,0,-1,1161,365,2.11266,9.7796
-56,659,2.11182,-9.91541,0,0,0,0,0,0,0,-1,1168,365,2.11178,9.91541
-49,659,2.79041,-15.2155,0,0,0,0,0,0,0,-1,1175,365,2.79037,15.2156
-42,659,2.82397,-15.3487,0,0,0,0,0,0,0,-1,1182,365,2.82397,15.3487
-35,659,2.75159,-15.5065,-0.00204582,-0.00150265,-0.00228571,0.00052755,-0.00407603,-0.84453,0.00290919,0.0448241,1189,365,2.75163,15.5065
-28,659,2.79028,-15.4833,-0.00187424,-0.0015706,-0.00294803,0.00122951,-0.00467435,-0.811125,0.00359682,0.0165509,1196,365,2.79031,15.4833
-21,659,2.77356,-15.4891,-0.00173138,-0.00188547,-0.0031016,0.00129413,-0.00491098,-0.77298,0.00377995,0.0108914,1203,365,2.77358,15.4891
-14,659,2.75146,-15.5532,-0.00176346,-0.00164184,-0.00320895,0.00150687,-0.00491217,-0.794872,0.00387597,0.00861562,1210,365,2.75146,15.5532
-7,659,2.74023,-15.591,-0.00185885,-0.00137498,-0.00322283,0.00161498,-0.00484881,-0.822863,0.00388443,0.00880636,1217,365,2.7402,15.591
0,659,2.73535,-15.6086,-0.00164974,-0.000734794,-0.00319839,0.00203868,-0.00442321,-0.856432,0.0038145,0.00815026,1224,365,2.73536,15.6086
7,659,2.71619,-15.6284,-0.00113658,3.76911e-06,-0.00311191,0.00259731,-0.00373012,-0.876005,0.0036726,0.00756284,1231,365,2.71621,15.6284
14,659,2.70374,-15.6662,-0.000654561,0.000771286,-0.00297084,0.00311355,-0.00299683,-0.903158,0.00352804,0.00986306,1238,365,2.70377,15.6662
21,659,2.6803,-15.6863,2.43947e-05,0.00198038,-0.00284578,0.00401153,-0.00200676,-0.950907,0.00353834,0.0110012,1245,365,2.68029,15.6863
28,659,2.66052,-15.7027,0.000900989,0.00332429,-0.00272165,0.00509181,-0.000866535,-0.994821,0.00371721,0.0108868,1252,365,2.6605,15.7027
35,659,2.65918,-15.7131,0.00166788,0.00461039,-0.00249705,0.00603738,0.000240881,-1.05162,0.00394708,0.0113087,1259,365,2.65923,15.7131
42,659,2.63721,-15.7224,0.00241725,0.00672969,-0.00277985,0.00809154,0.0010554,-1.11526,0.00507924,0.011333,1266,365,2.63722,15.7224
49,659,2.61731,-15.7284,0.00351379,0.00982243,-0.00318622,0.0111516,0.00218461,-1.17558,0.00682378,0.0109799,1273,365,2.61726,15.7284
56,659,2.61536,-15.7212,0.0046352,0.011674,-0.00313612,0.0128686,0.00344064,-1.20686,0.00769304,0.0147293,1280,365,2.61535,15.7211
63,659,2.61975,-15.7371,0.00549141,0.0134677,-0.00293653,0.0144321,0.00452692,-1.25345,0.00852308,0.0161019,1287,365,2.6198,15.7371
70,659,2.59509,-15.7168,0.00640509,0.0152219,-0.00241273,0.015839,0.00578803,-1.32041,0.00925438,0.0170006,1294,365,2.59514,15.7168
77,659,2.54407,-15.687,0.00688661,0.0169334,-0.00158191,0.0171766,0.00664342,-1.41826,0.0100013,0.0169333,1301,365,2.54412,15.687
84,659,2.55078,-15.668,0.00677613,0.0175407,-0.00113967,0.01766,0.00665679,-1.46647,0.0102985,0.01191,1308,365,2.55083,15.668
91,659,2.53479,-15.6501,0.00668104,0.0180609,-0.000306828,0.0180692,0.00667277,-1.54386,0.0105504,0.0102583,1315,365,2.53473,15.6501
98,659,2.52246,-15.6122,0.00642533,0.0178278,0.000609008,0.0178603,0.0063929,1.51759,0.0104495,0.00749763,1322,365,2.52245,15.6122
105,659,2.51526,-15.5456,0.00582354,0.0171161,0.00166671,0.017357,0.00558268,1.42728,0.0102314,0.00917893,1329,365,2.51525,15.5456
112,659,2.51563,-15.4868,0.00494492,0.0160571,0.00272241,0.0166883,0.0043138,1.34299,0.0100026,0.0106888,1336,365,2.51558,15.4868
119,659,2.50989,-15.4465,0.00411134,0.0147245,0.00369371,0.0158834,0.00295237,1.26676,0.00975491,0.0114296,1343,365,2.50985,15.4465
126,659,2.46594,-15.3879,0.00319782,0.0131372,0.00450339,0.0148741,0.00146093,1.20269,0.00946675,0.0124361,1350,365,2.4659,15.3879
133,659,2.42737,-15.3284,0.00235172,0.0116884,0.00507547,0.013916,0.000124129,1.15722,0.00923622,0.0114402,1357,365,2.42733,15.3284
140,659,2.40979,-15.2739,0.00182797,0.0104855,0.00530773,0.0130059,-0.000692355,1.12748,0.00891033,0.00968729,1364,365,2.40983,15.2739
147,659,2.40771,-15.203,0.00141108,0.0089586,0.00575871,0.0120699,-0.00170022,1.07545,0.00866909,0.00886517,1371,365,2.40765,15.203
154,659,2.39551,-15.1096,0.000689745,0.00668752,0.00603619,0.0104287,-0.00305146,1.01595,0.00816204,0.00956033,1378,365,2.39552,15.1096
161,659,2.40369,-15.0331,0.000120486,0.00674517,0.00566073,0.00999145,-0.00312579,1.05011,0.00791148,0.0102745,1385,365,2.40372,15.0331
168,659,2.42383,-14.9679,-0.000119096,0.00656758,0.00516741,0.00937892,-0.00293043,1.07253,0.00742476,0.0178268,1392,365,2.42384,14.9679
175,659,2.42957,-14.9136,-0.00087459,0.00603018,0.00445611,0.00821481,-0.00305922,1.11498,0.0067321,0.0422795,1399,365,2.42954,14.9136
182,659,2.31543,-14.8795,0,0,0,0,0,0,0,-1,1406,365,2.3154,14.8795
189,659,2.33044,-14.6621,0,0,0,0,0,0,0,-1,1413,365,2.33039,14.6621
196,659,2.41248,-13.4371,0,0,0,0,0,0,0,-1,1420,365,2.41243,13.4371
203,659,2.38623,-12.2163,0,0,0,0,0,0,0,-1,1427,365,2.38617,12.2163
210,659,2.20789,-13.9792,0,0,0,0,0,0,0,-1,1434,365,2.20794,13.9792
217,659,2.24121,-13.487,0,0,0,0,0,0,0,-1,1441,365,2.24116,13.487
224,659,2.27454,-14.0408,0,0,0,0,0,0,0,-1,1448,365,2.27453,14.0408
231,659,2.19519,-14.0207,0,0,0,0,0,0,0,-1,1455,365,2.19518,14.0207
238,659,2.55859,-14.1005,0,0,0,0,0,0,0,-1,1462,365,2.55864,14.1005
245,659,2.24011,-14.1225,0,0,0,0,0,0,0,-1,1469,365,2.24014,14.1225
252,659,1.99036,-14.2946,0,0,0,0,0,0,0,-1,1476,365,1.99039,14.2946
259,659,2.33069,-3.36703,0,0,0,0,0,0,0,-1,1483,365,2.33073,3.36702
266,659,1.75391,-13.0665,0,0,0,0,0,0,0,-1,1490,365,1.75393,13.0665
273,659,2.03247,-12.7754,0,0,0,0,0,0,0,-1,1497,365,2.03247,12.7754
280,659,1.70947,-9.4129,0,0,0,0,0,0,0,-1,1504,365,1.70952,9.4129
287,659,2.91333,-12.2255,0,0,0,0,0,0,0,-1,1511,365,2.91333,12.2255
294,659,0.327393,-13.792,0,0,0,0,0,0,0,-1,1518,365,0.327345,13.792
301,659,1.98853,-11.6195,0,0,0,0,0,0,0,-1,1525,365,1.98848,11.6195
308,659,2.82214,-10.6409,0,0,0,0,0,0,0,-1,1532,365,2.8221,10.6409
315,659,2.02905,-3.83633,0,0,0,0,0,0,0,-1,1539,365,2.0291,3.83632
322,659,0.382813,-2.2424,0,0,0,0,0,0,0,-1,1546,365,0.382801,2.2424
329,659,0.604004,-1.75998,0,0,0,0,0,0,0,-1,1553,365,0.603966,1.75998
336,659,2.09851,-1.17941,0,0,0,0,0,0,0,-1,1560,365,2.09857,1.17942
343,659,0,0,0,0,0,0,0,0,0,-1,1567,365,0,0
350,659,0,0,0,0,0,0,0,0,0,-1,1574,365,0,0
357,659,0,0,0,0,0,0,0,0,0,-1,1581,365,0,0
364,659,0,0,0,0,0,0,0,0,0,-1,1588,365,0,0
371,659,0,0,0,0,0,0,0,0,0,-1,1595,365,0,0
378,659,0,0,0,0,0,0,0,0,0,-1,1602,365,0,0
385,659,0,0,0,0,0,0,0,0,0,-1,1609,365,0,0
392,659,0,0,0,0,0,0,0,0,0,-1,1616,365,0,0
399,659,0,0,0,0,0,0,0,0,0,-1,1623,365,0,0
406,659,0,0,0,0,0,0,0,0,0,-1,1630,365,0,0
413,659,0,0,0,0,0,0,0,0,0,-1,1637,365,0,0
420,659,0,0,0,0,0,0,0,0,0,-1,1644,365,0,0
427,659,0,0,0,0,0,0,0,0,0,-1,1651,365,0,0
434,659,0,0,0,0,0,0,0,0,0,-1,1658,365,0,0
441,659,0,0,0,0,0,0,0,0,0,-1,1665,365,0,0
448,659,0,0,0,0,0,0,0,0,0,-1,1672,365,0,0
455,659,0,0,0,0,0,0,0,0,0,-1,1679,365,0,0
462,659,0,0,0,0,0,0,0,0,0,-1,1686,365,0,0
469,659,0,0,0,0,0,0,0,0,0,-1,1693,365,0,0
476,659,0,0,0,0,0,0,0,0,0,-1,1700,365,0,0
483,659,0,0,0,0,0,0,0,0,0,-1,1707,365,0,0
490,659,0,0,0,0,0,0,0,0,0,-1,1714,365,0,0
497,659,0,0,0,0,0,0,0,0,0,-1,1721,365,0,0
504,659,0,0,0,0,0,0,0,0,0,-1,1728,365,0,0
511,659,0,0,0,0,0,0,0,0,0,-1,1735,365,0,0
518,659,0,0,0,0,0,0,0,0,0,-1,1742,365,0,0
525,659,0,0,0,0,0,0,0,0,0,-1,1749,365,0,0
532,659,0,0,0,0,0,0,0,0,0,-1,1756,365,0,0
539,659,0,0,0,0,0,0,0,0,0,-1,1763,365,0,0
546,659,0,0,0,0,0,0,0,0,0,-1,1770,365,0,0
553,659,0,0,0,0,0,0,0,0,0,-1,1777,365,0,0
560,659,0,0,0,0,0,0,0,0,0,-1,1784,365,0,0
567,659,0,0,0,0,0,0,0,0,0,-1,1791,365,0,0
574,659,0,0,0,0,0,0,0,0,0,-1,1798,365,0,0
581,659,0,0,0,0,0,0,0,0,0,-1,1805,365,0,0
588,659,0,0,0,0,0,0,0,0,0,-1,1812,365,0,0
595,659,0,0,0,0,0,0,0,0,0,-1,1819,365,0,0
602,659,0,0,0,0,0,0,0,0,0,-1,1826,365,0,0
609,659,0,0,0,0,0,0,0,0,0,-1,1833,365,0,0
616,659,0,0,0,0,0,0,0,0,0,-1,1840,365,0,0
623,659,0,0,0,0,0,0,0,0,0,-1,1847,365,0,0
630,659,0,0,0,0,0,0,0,0,0,-1,1854,365,0,0
637,659,0,0,0,0,0,0,0,0,0,-1,1861,365,0,0
644,659,0,0,0,0,0,0,0,0,0,-1,1868,365,0,0
651,659,0,0,0,0,0,0,0,0,0,-1,1875,365,0,0
658,659,0,0,0,0,0,0,0,0,0,-1,1882,365,0,0
665,659,0,0,0,0,0,0,0,0,0,-1,1889,365,0,0
672,659,0,0,0,0,0,0,0,0,0,-1,1896,365,0,0
679,659,0,0,0,0,0,0,0,0,0,-1,1903,365,0,0
686,659,0,0,0,0,0,0,0,0,0,-1,1910,365,0,0
693,659,0,0,0,0,0,0,0,0,0,-1,1917,365,0,0
700,659,0,0,0,0,0,0,0,0,0,-1,1924,365,0,0
707,659,0,0,0,0,0,0,0,0,0,-1,1931,365,0,0
714,659,0,0,0,0,0,0,0,0,0,-1,1938,365,0,0
721,659,0,0,0,0,0,0,0,0,0,-1,1945,365,0,0
728,659,0,0,0,0,0,0,0,0,0,-1,1952,365,0,0
735,659,0,0,0,0,0,0,0,0,0,-1,1959,365,0,0
742,659,0,0,0,0,0,0,0,0,0,-1,1966,365,0,0
749,659,0,0,0,0,0,0,0,0,0,-1,1973,365,0,0
756,659,0,0,0,0,0,0,0,0,0,-1,1980,365,0,0
763,659,0,0,0,0,0,0,0,0,0,-1,1987,365,0,0
770,659,0,0,0,0,0,0,0,0,0,-1,1994,365,0,0
777,659,0,0,0,0,0,0,0,0,0,-1,2001,365,0,0
784,659,0,0,0,0,0,0,0,0,0,-1,2008,365,0,0
791,659,0,0,0,0,0,0,0,0,0,-1,2015,365,0,0
798,659,0,0,0,0,0,0,0,0,0,-1,2022,365,0,0
805,659,0,0,0,0,0,0,0,0,0,-1,2029,365,0,0
812,659,0,0,0,0,0,0,0,0,0,-1,2036,365,0,0
-700,652,0,0,0,0,0,0,0,0,0,-1,524,372,0,0
-693,652,0,0,0,0,0,0,0,0,0,-1,531,372,0,0
-686,652,0,0,0,0,0,0,0,0,0,-1,538,372,0,0
-679,652,0,0,0,0,0,0,0,0,0,-1,545,372,0,0
-672,652,0,0,0,0,0,0,0,0,0,-1,552,372,0,0
-665,652,0,0,0,0,0,0,0,0,0,-1,559,372,0,0
-658,652,0,0,0,0,0,0,0,0,0,-1,566,372,0,0
-651,652,0,0,0,0,0,0,0,0,0,-1,573,372,0,0
-644,652,0,0,0,0,0,0,0,0,0,-1,580,372,0,0
-637,652,0,0,0,0,0,0,0,0,0,-1,587,372,0,0
-630,652,0,0,0,0,0,0,0,0,0,-1,594,372,0,0
-623,652,0,0,0,0,0,0,0,0,0,-1,601,372,0,0
-616,652,0,0,0,0,0,0,0,0,0,-1,608,372,0,0
-609,652,0,0,0,0,0,0,0,0,0,-1,615,372,0,0
-602,652,0,0,0,0,0,0,0,0,0,-1,622,372,0,0
-595,652,0,0,0,0,0,0,0,0,0,-1,629,372,0,0
-588,652,0,0,0,0,0,0,0,0,0,-1,636,372,0,0
-581,652,0,0,0,0,0,0,0,0,0,-1,643,372,0,0
-574,652,0,0,0,0,0,0,0,0,0,-1,650,372,0,0
-567,652,0,0,0,0,0,0,0,0,0,-1,657,372,0,0
-560,652,0,0,0,0,0,0,0,0,0,-1,664,372,0,0
-553,652,0,0,0,0,0,0,0,0,0,-1,671,372,0,0
-546,652,0,0,0,0,0,0,0,0,0,-1,678,372,0,0
-539,652,0,0,0,0,0,0,0,0,0,-1,685,372,0,0
-532,652,0,0,0,0,0,0,0,0,0,-1,692,372,0,0
-525,652,0,0,0,0,0,0,0,0,0,-1,699,372,0,0
-518,652,0,0,0,0,0,0,0,0,0,-1,706,372,0,0
-511,652,0,0,0,0,0,0,0,0,0,-1,713,372,0,0
-504,652,0,0,0,0,0,0,0,0,0,-1,720,372,0,0
-497,652,0,0,0,0,0,0,0,0,0,-1,727,372,0,0
-490,652,0,0,0,0,0,0,0,0,0,-1,734,372,0,0
-483,652,0,0,0,0,0,0,0,0,0,-1,741,372,0,0
-476,652,0,0,0,0,0,0,0,0,0,-1,748,372,0,0
-469,652,0,0,0,0,0,0,0,0,0,-1,755,372,0,0
-462,652,0,0,0,0,0,0,0,0,0,-1,762,372,0,0
-455,652,0,0,0,0,0,0,0,0,0,-1,769,372,0,0
-448,652,0,0,0,0,0,0,0,0,0,-1,776,372,0,0
-441,652,0,0,0,0,0,0,0,0,0,-1,783,372,0,0
-434,652,0,0,0,0,0,0,0,0,0,-1,790,372,0,0
-427,652,0,0,0,0,0,0,0,0,0,-1,797,372,0,0
-420,652,0,0,0,0,0,0,0,0,0,-1,804,372,0,0
-413,652,0,0,0,0,0,0,0,0,0,-1,811,372,0,0
-406,652,0,0,0,0,0,0,0,0,0,-1,818,372,0,0
-399,652,0,0,0,0,0,0,0,0,0,-1,825,372,0,0
-392,652,0,0,0,0,0,0,0,0,0,-1,832,372,0,0
-385,652,0,0,0,0,0,0,0,0,0,-1,839,372,0,0
-378,652,0,0,0,0,0,0,0,0,0,-1,846,372,0,0
-371,652,0,0,0,0,0,0,0,0,0,-1,853,372,0,0
-364,652,0,0,0,0,0,0,0,0,0,-1,860,372,0,0
-357,652,0,0,0,0,0,0,0,0,0,-1,867,372,0,0
-350,652,0,0,0,0,0,0,0,0,0,-1,874,372,0,0
-343,652,0,0,0,0,0,0,0,0,0,-1,881,372,0,0
-336,652,0,0,0,0,0,0,0,0,0,-1,888,372,0,0
-329,652,0,0,0,0,0,0,0,0,0,-1,895,372,0,0
-322,652,0,0,0,0,0,0,0,0,0,-1,902,372,0,0
-315,652,0,0,0,0,0,0,0,0,0,-1,909,372,0,0
-308,652,0,0,0,0,0,0,0,0,0,-1,916,372,0,0
-301,652,0,0,0,0,0,0,0,0,0,-1,923,372,0,0
-294,652,0,0,0,0,0,0,0,0,0,-1,930,372,0,0
-287,652,0,0,0,0,0,0,0,0,0,-1,937,372,0,0
-280,652,0,0,0,0,0,0,0,0,0,-1,944,372,0,0
-273,652,0,0,0,0,0,0,0,0,0,-1,951,372,0,0
-266,652,0,0,0,0,0,0,0,0,0,-1,958,372,0,0
-259,652,0,0,0,0,0,0,0,0,0,-1,965,372,0,0
-252,652,0,0,0,0,0,0,0,0,0,-1,972,372,0,0
-245,652,0,0,0,0,0,0,0,0,0,-1,979,372,0,0
-238,652,0,0,0,0,0,0,0,0,0,-1,986,372,0,0
-231,652,1.35083,-7.55121,0,0,0,0,0,0,0,-1,993,372,1.3508,7.55121
-224,652,1.83624,-9.07111,0.0760671,0.248577,-0.166674,0.349992,-0.0253484,-1.02418,0.24222,0.0476083,1000,372,1.83626,9.0711
-217,652,2.31848,-10.5264,0.065815,0.215291,-0.146576,0.305083,-0.023977,-1.02116,0.211834,0.0468643,1007,372,2.31846,10.5264
-210,652,2.63263,-11.4522,0.0564321,0.180304,-0.125622,0.258429,-0.0216926,-1.01443,0.179953,0.0477909,1014,372,2.6326,11.4522
-203,652,3.34729,-16.3435,0,0,0,0,0,0,0,-1,1021,372,3.34723,16.3435
-196,652,3.05945,-15.6916,0,0,0,0,0,0,0,-1,1028,372,3.05949,15.6916
-189,652,2.39661,-15.4652,0,0,0,0,0,0,0,-1,1035,372,2.39664,15.4652
-182,652,2.31042,-14.5984,0,0,0,0,0,0,0,-1,1042,372,2.31048,14.5984
-175,652,2.22437,-13.7315,0,0,0,0,0,0,0,-1,1049,372,2.22432,13.7315
-168,652,3.17542,-14.2742,0,0,0,0,0,0,0,-1,1056,372,3.17545,14.2742
-161,652,2.88245,-13.3097,0,0,0,0,0,0,0,-1,1063,372,2.88239,13.3097
-154,652,3.31738,-14.0396,0,0,0,0,0,0,0,-1,1070,372,3.31744,14.0396
-147,652,3.14685,-13.9919,0,0,0,0,0,0,0,-1,1077,372,3.14683,13.9919
-140,652,2.30554,-13.6319,0.00881491,-0.00179925,-0.00351587,0.00987387,-0.00285821,-0.292551,0.00771389,0.0380232,1084,372,2.30557,13.6319
-133,652,2.49512,-13.6581,0.0082262,0.0046412,-0.00501673,0.011761,0.00110635,-0.613814,0.00749917,0.0388416,1091,372,2.49515,13.6581
-126,652,3.00781,-14.0387,0.00800508,0.0125369,-0.00684504,0.0174813,0.00306066,-0.945236,0.0107798,0.0410596,1098,372,3.00784,14.0387
-119,652,2.9646,-14.2058,0.00659906,0.0168837,-0.00765559,0.0209637,0.00251904,-1.08114,0.0132164,0.0338764,1105,372,2.96454,14.2058
-112,652,2.92029,-14.3225,0.00572254,0.0198229,-0.00827594,0.0236445,0.00190091,-1.13819,0.0151691,0.0235755,1112,372,2.92033,14.3225
-105,652,2.88708,-14.4199,0.00503165,0.0213711,-0.00842005,0.0249334,0.0014693,-1.17055,0.0161548,0.0210463,1119,372,2.88714,14.4199
-98,652,2.83911,-14.515,0.00441577,0.0221027,-0.00829915,0.025387,0.00113147,-1.19397,0.0165604,0.0241098,1126,372,2.83911,14.515
-91,652,2.83179,-14.631,0.00392059,0.0217954,-0.00794881,0.0248188,0.000897193,-1.20734,0.016255,0.023084,1133,372,2.8318,14.631
-84,652,2.81958,-14.77,0.00331223,0.0208093,-0.00740474,0.0235223,0.000599219,-1.2196,0.0154857,0.0285121,1140,372,2.81962,14.77
-77,652,2.8053,-14.8439,0.00243528,0.0179769,-0.00637179,0.0202552,0.000156944,-1.2274,0.0134514,0.0402735,1147,372,2.80528,14.8439
-70,652,2.75464,-14.8047,0,0,0,0,0,0,0,-1,1154,372,2.7547,14.8047
-63,652,2.82654,-15.092,0,0,0,0,0,0,0,-1,1161,372,2.82652,15.092
-56,652,2.78967,-15.2059,0,0,0,0,0,0,0,-1,1168,372,2.78973,15.2059
-49,652,2.78491,-15.2621,-0.000944331,0.0038937,-0.00180952,0.00449561,-0.00154624,-1.24967,0.00362416,0.0333493,1175,372,2.78486,15.2621
-42,652,2.77319,-15.3208,-0.00181946,0.000855201,-0.00101467,0.00119656,-0.00216082,-1.24627,0.00196486,0.0109164,1182,372,2.77319,15.3208
-35,652,2.78394,-15.3808,-0.00152119,-0.000729304,-0.00103426,-1.7787e-05,-0.00223271,-0.968206,0.00148258,0.00929724,1189,372,2.78395,15.3808
-28,652,2.75928,-15.4417,-0.00159158,-0.000831326,-0.000994231,-0.000147032,-0.00227587,-0.96799,0.00147069,0.0076304,1196,372,2.75934,15.4417
-21,652,2.72473,-15.4845,-0.00173437,-0.00109803,-0.000957451,-0.00040727,-0.00242513,-0.945812,0.00149955,0.00744137,1203,372,2.72469,15.4845
-14,652,2.71338,-15.5416,-0.00178615,-0.00100302,-0.000962701,-0.000355297,-0.00243387,-0.978548,0.00151807,0.00956504,1210,372,2.7134,15.5416
-7,652,2.70557,-15.6036,-0.00187788,-0.00085754,-0.000963408,-0.00027756,-0.00245786,-1.0289,0.00155434,0.0126772,1217,372,2.70556,15.6036
0,652,2.67444,-15.6337,-0.00172287,-0.00052206,-0.0009788,2.58108e-05,-0.00227074,-1.06051,0.0015225,0.012348,1224,372,2.67446,15.6337
7,652,2.65198,-15.6342,-0.00135945,-6.73435e-05,-0.000960679,0.000444313,-0.0018711,-1.08141,0.00141889,0.0128374,1231,372,2.65203,15.6342
14,652,2.64563,-15.6618,-0.00103268,0.000408088,-0.000942888,0.000874291,-0.00149889,-1.11161,0.00138588,0.0101732,1238,372,2.64568,15.6618
21,652,2.65942,-15.7042,-0.000537052,0.00124065,-0.000965118,0.00166386,-0.000960264,-1.15754,0.00153308,0.00987241,1245,372,2.65944,15.7042
28,652,2.65051,-15.7229,0.000115137,0.00211602,-0.00100891,0.00253642,-0.000305258,-1.17599,0.00180134,0.00988575,1252,372,2.65046,15.7229
35,652,2.6311,-15.7397,0.000659917,0.00290483,-0.000967223,0.00326407,0.000300675,-1.21517,0.00208307,0.0101807,1259,372,2.63105,15.7397
42,652,2.60718,-15.7516,0.00118009,0.00432056,-0.00131645,0.00479939,0.000701262,-1.22194,0.00299335,0.0111236,1266,372,2.60718,15.7516
49,652,2.6073,-15.7508,0.00187269,0.00561657,-0.00148123,0.00613172,0.00135754,-1.2361,0.00371883,0.0135282,1273,372,2.60733,15.7508
56,652,2.59644,-15.7345,0.00255646,0.00652449,-0.00130446,0.00691491,0.00216604,-1.27999,0.0040841,0.0150673,1280,372,2.59646,15.7345
63,652,2.5863,-15.7365,0.00311357,0.00740616,-0.00106527,0.00765598,0.00286375,-1.34044,0.00446668,0.0179279,1287,372,2.58628,15.7364
70,652,2.58716,-15.6931,0.00366439,0.00820165,-0.00054121,0.00826531,0.00360073,-1.4537,0.00478514,0.0164421,1294,372,2.58716,15.6931
77,652,2.58167,-15.6713,0.00394846,0.00913781,0.000223618,0.00914743,0.00393884,1.52781,0.0052982,0.0156882,1301,372,2.5817,15.6713
84,652,2.57336,-15.6723,0.00380425,0.00934241,0.000704252,0.00943056,0.00371609,1.44627,0.00548534,0.0127529,1308,372,2.57336,15.6723
91,652,2.54028,-15.6685,0.00367103,0.00971166,0.0013941,0.0100179,0.00336481,1.35458,0.00588677,0.0151766,1315,372,2.54029,15.6685
98,652,2.54736,-15.6167,0.00343494,0.00960024,0.00212087,0.0102594,0.00277582,1.26948,0.00612758,0.0131706,1322,372,2.5474,15.6167
105,652,2.5459,-15.5516,0.00296792,0.00929354,0.00287779,0.0104068,0.00185463,1.20167,0.00640975,0.0114361,1329,372,2.54591,15.5516
112,652,2.53772,-15.5083,0.00237864,0.00888686,0.00352947,0.0104334,0.000832084,1.15781,0.00669551,0.00938182,1336,372,2.53771,15.5083
119,652,2.53345,-15.455,0.00189401,0.00845008,0.00404234,0.0103765,-3.23835e-05,1.12608,0.00692846,0.00994008,1343,372,2.53347,15.4551
126,652,2.50635,-15.4154,0.00135075,0.00786638,0.00439336,0.010078,-0.0008609,1.10443,0.00702326,0.0120146,1350,372,2.50639,15.4154
133,652,2.48547,-15.3532,0.000849914,0.0074175,0.00455469,0.00974873,-0.00148132,1.09773,0.00704503,0.0127709,1357,372,2.4855,15.3532
140,652,2.48083,-15.2794,0.00060376,0.00710803,0.004472,0.00938538,-0.00167359,1.09978,0.00688294,0.0101421,1364,372,2.48087,15.2794
147,652,2.47876,-15.2061,0.000421461,0.00642938,0.004643,0.00895545,-0.0021046,1.07253,0.00678158,0.00980778,1371,372,2.4787,15.2061
154,652,2.46069,-15.1205,5.6178e-05,0.00598618,0.00441177,0.00833672,-0.00229436,1.08126,0.00645987,0.00961625,1378,372,2.46072,15.1206
161,652,2.45239,-15.0293,-0.000223948,0.00596512,0.00384876,0.00780911,-0.00206794,1.124,0.00601507,0.0101293,1385,372,2.45236,15.0293
168,652,2.43604,-14.9576,-0.000477066,0.00564585,0.00347959,0.00721905,-0.00205027,1.14618,0.00562215,0.0105198,1392,372,2.43608,14.9576
175,652,2.42529,-14.8617,-0.00100806,0.00518304,0.0030128,0.00640715,-0.00223216,1.18487,0.00517841,0.0112906,1399,372,2.42528,14.8617
182,652,2.39185,-14.7866,-0.00100466,0.00376967,0.00216777,0.00460707,-0.00184205,1.20216,0.00383578,0.017155,1406,372,2.39187,14.7866
189,652,2.39087,-14.6993,2.55603e-05,0.00432371,0.00277309,0.00568298,-0.00133372,1.11505,0.00430269,0.0259244,1413,372,2.39092,14.6993
196,652,2.37085,-14.5254,0,0,0,0,0,0,0,-1,1420,372,2.37091,14.5254
203,652,2.35962,-14.4157,0,0,0,0,0,0,0,-1,1427,372,2.35961,14.4157
210,652,2.38879,-14.296,0,0,0,0,0,0,0,-1,1434,372,2.38877,14.296
217,652,2.40454,-14.0361,0,0,0,0,0,0,0,-1,1441,372,2.4045,14.0361
224,652,2.34473,-14.0306,-0.00228181,0.00126397,0.00197325,0.00214379,-0.00316163,1.15138,0.00308182,0.0371764,1448,372,2.34476,14.0306
231,652,2.31274,-13.8624,-0.00201626,0.00166509,0.00203551,0.00256875,-0.00291992,1.15299,0.00317105,0.039247,1455,372,2.3127,13.8624
238,652,2.43311,-13.8371,-0.00164087,0.00231443,0.0021887,0.00328661,-0.00261305,1.15279,0.00341356,0.0425997,1462,372,2.4331,13.8371
245,652,2.30286,-13.7662,-0.00140855,0.00295136,0.00210934,0.00380481,-0.00226199,1.18633,0.00354022,0.0399023,1469,372,2.30281,13.7662
252,652,2.18066,-13.6942,-0.000896232,0.00399287,0.00216389,0.00481302,-0.00171638,1.20851,0.00390851,0.0451026,1476,372,2.18063,13.6942
259,652,2.10046,-12.7843,0,0,0,0,0,0,0,-1,1483,372,2.10043,12.7843
266,652,2.08887,-12.9583,0.00106683,0.0104222,0.00298268,0.0112923,0.000196808,1.28698,0.00746343,0.0485601,1490,372,2.08892,12.9583
273,652,2.20093,-12.8199,0.0012132,0.0186386,0.0038803,0.0194636,0.000388188,1.3613,0.0128483,0.0490813,1497,372,2.20097,12.8199
280,652,2.11426,-12.7911,0,0,0,0,0,0,0,-1,1504,372,2.11421,12.7911
287,652,0.892822,-13.059,0,0,0,0,0,0,0,-1,1511,372,0.892875,13.059
294,652,1.11829,-13.1882,0,0,0,0,0,0,0,-1,1518,372,1.11829,13.1882
301,652,1.34375,-13.3173,0,0,0,0,0,0,0,-1,1525,372,1.3437,13.3173
308,652,5.06067,-8.25143,0,0,0,0,0,0,0,-1,1532,372,5.06062,8.25143
315,652,2.02148,-10.9823,0,0,0,0,0,0,0,-1,1539,372,2.02152,10.9823
322,652,0.980957,-9.61032,0,0,0,0,0,0,0,-1,1546,372,0.980913,9.61032
329,652,0.724365,-9.5701,0,0,0,0,0,0,0,-1,1553,372,0.724335,9.57008
336,652,4.60815,-2.13776,0,0,0,0,0,0,0,-1,1560,372,4.6082,2.13775
343,652,4.18225,-6.7092,0,0,0,0,0,0,0,-1,1567,372,4.18231,6.70921
350,652,4.64563,-7.2074,0,0,0,0,0,0,0,-1,1574,372,4.6456,7.2074
357,652,0,0,0,0,0,0,0,0,0,-1,1581,372,0,0
364,652,0,0,0,0,0,0,0,0,0,-1,1588,372,0,0
371,652,0,0,0,0,0,0,0,0,0,-1,1595,372,0,0
378,652,0,0,0,0,0,0,0,0,0,-1,1602,372,0,0
385,652,0,0,0,0,0,0,0,0,0,-1,1609,372,0,0
392,652,0,0,0,0,0,0,0,0,0,-1,1616,372,0,0
399,652,0,0,0,0,0,0,0,0,0,-1,1623,372,0,0
406,652,0,0,0,0,0,0,0,0,0,-1,1630,372,0,0
413,652,0,0,0,0,0,0,0,0,0,-1,1637,372,0,0
420,652,0,0,0,0,0,0,0,0,0,-1,1644,372,0,0
427,652,0,0,0,0,0,0,0,0,0,-1,1651,372,0,0
434,652,0,0,0,0,0,0,0,0,0,-1,1658,372,0,0
441,652,0,0,0,0,0,0,0,0,0,-1,1665,372,0,0
448,652,0,0,0,0,0,0,0,0,0,-1,1672,372,0,0
455,652,0,0,0,0,0,0,0,0,0,-1,1679,372,0,0
462,652,0,0,0,0,0,0,0,0,0,-1,1686,372,0,0
469,652,0,0,0,0,0,0,0,0,0,-1,1693,372,0,0
476,652,0,0,0,0,0,0,0,0,0,-1,1700,372,0,0
483,652,0,0,0,0,0,0,0,0,0,-1,1707,372,0,0
490,652,0,0,0,0,0,0,0,0,0,-1,1714,372,0,0
497,652,0,0,0,0,0,0,0,0,0,-1,1721,372,0,0
504,652,0,0,0,0,0,0,0,0,0,-1,1728,372,0,0
511,652,0,0,0,0,0,0,0,0,0,-1,1735,372,0,0
518,652,0,0,0,0,0,0,0,0,0,-1,1742,372,0,0
525,652,0,0,0,0,0,0,0,0,0,-1,1749,372,0,0
532,652,0,0,0,0,0,0,0,0,0,-1,1756,372,0,0
539,652,0,0,0,0,0,0,0,0,0,-1,1763,372,0,0
546,652,0,0,0,0,0,0,0,0,0,-1,1770,372,0,0
553,652,0,0,0,0,0,0,0,0,0,-1,1777,372,0,0
560,652,0,0,0,0,0,0,0,0,0,-1,1784,372,0,0
567,652,0,0,0,0,0,0,0,0,0,-1,1791,372,0,0
574,652,0,0,0,0,0,0,0,0,0,-1,1798,372,0,0
581,652,0,0,0,0,0,0,0,0,0,-1,1805,372,0,0
588,652,0,0,0,0,0,0,0,0,0,-1,1812,372,0,0
595,652,0,0,0,0,0,0,0,0,0,-1,1819,372,0,0
602,652,0,0,0,0,0,0,0,0,0,-1,1826,372,0,0
609,652,0,0,0,0,0,0,0,0,0,-1,1833,372,0,0
616,652,0,0,0,0,0,0,0,0,0,-1,1840,372,0,0
623,652,0,0,0,0,0,0,0,0,0,-1,1847,372,0,0
630,652,0,0,0,0,0,0,0,0,0,-1,1854,372,0,0
637,652,0,0,0,0,0,0,0,0,0,-1,1861,372,0,0
644,652,0,0,0,0,0,0,0,0,0,-1,1868,372,0,0
651,652,0,0,0,0,0,0,0,0,0,-1,1875,372,0,0
658,652,0,0,0,0,0,0,0,0,0,-1,1882,372,0,0
665,652,0,0,0,0,0,0,0,0,0,-1,1889,372,0,0
672,652,0,0,0,0,0,0,0,0,0,-1,1896,372,0,0
679,652,0,0,0,0,0,0,0,0,0,-1,1903,372,0,0
686,652,0,0,0,0,0,0,0,0,0,-1,1910,372,0,0
693,652,0,0,0,0,0,0,0,0,0,-1,1917,372,0,0
700,652,0,0,0,0,0,0,0,0,0,-1,1924,372,0,0
707,652,0,0,0,0,0,0,0,0,0,-1,1931,372,0,0
714,652,0,0,0,0,0,0,0,0,0,-1,1938,372,0,0
721,652,0,0,0,0,0,0,0,0,0,-1,1945,372,0,0
728,652,0,0,0,0,0,0,0,0,0,-1,1952,372,0,0
735,652,0,0,0,0,0,0,0,0,0,-1,1959,372,0,0
742,652,0,0,0,0,0,0,0,0,0,-1,1966,372,0,0
749,652,0,0,0,0,0,0,0,0,0,-1,1973,372,0,0
756,652,0,0,0,0,0,0,0,0,0,-1,1980,372,0,0
763,652,0,0,0,0,0,0,0,0,0,-1,1987,372,0,0
770,652,0,0,0,0,0,0,0,0,0,-1,1994,372,0,0
777,652,0,0,0,0,0,0,0,0,0,-1,2001,372,0,0
784,652,0,0,0,0,0,0,0,0,0,-1,2008,372,0,0
791,652,0,0,0,0,0,0,0,0,0,-1,2015,372,0,0
798,652,0,0,0,0,0,0,0,0,0,-1,2022,372,0,0
805,652,0,0,0,0,0,0,0,0,0,-1,2029,372,0,0
812,652,0,0,0,0,0,0,0,0,0,-1,2036,372,0,0
-700,645,0,0,0,0,0,0,0,0,0,-1,524,379,0,0
-693,645,0,0,0,0,0,0,0,0,0,-1,531,379,0,0
-686,645,0,0,0,0,0,0,0,0,0,-1,538,379,0,0
-679,645,0,0,0,0,0,0,0,0,0,-1,545,379,0,0
-672,645,0,0,0,0,0,0,0,0,0,-1,552,379,0,0
-665,645,0,0,0,0,0,0,0,0,0,-1,559,379,0,0
-658,645,0,0,0,0,0,0,0,0,0,-1,566,379,0,0
-651,645,0,0,0,0,0,0,0,0,0,-1,573,379,0,0
-644,645,0,0,0,0,0,0,0,0,0,-1,580,379,0,0
-637,645,0,0,0,0,0,0,0,0,0,-1,587,379,0,0
-630,645,0,0,0,0,0,0,0,0,0,-1,594,379,0,0
-623,645,0,0,0,0,0,0,0,0,0,-1,601,379,0,0
-616,645,0,0,0,0,0,0,0,0,0,-1,608,379,0,0
-609,645,0,0,0,0,0,0,0,0,0,-1,615,379,0,0
-602,645,0,0,0,0,0,0,0,0,0,-1,622,379,0,0
-595,645,0,0,0,0,0,0,0,0,0,-1,629,379,0,0
-588,645,0,0,0,0,0,0,0,0,0,-1,636,379,0,0
-581,645,0,0,0,0,0,0,0,0,0,-1,643,379,0,0
-574,645,0,0,0,0,0,0,0,0,0,-1,650,379,0,0
-567,645,0,0,0,0,0,0,0,0,0,-1,657,379,0,0
-560,645,0,0,0,0,0,0,0,0,0,-1,664,379,0,0
-553,645,0,0,0,0,0,0,0,0,0,-1,671,379,0,0
-546,645,0,0,0,0,0,0,0,0,0,-1,678,379,0,0
-539,645,0,0,0,0,0,0,0,0,0,-1,685,379,0,0
-532,645,0,0,0,0,0,0,0,0,0,-1,692,379,0,0
-525,645,0,0,0,0,0,0,0,0,0,-1,699,379,0,0
-518,645,0,0,0,0,0,0,0,0,0,-1,706,379,0,0
-511,645,0,0,0,0,0,0,0,0,0,-1,713,379,0,0
-504,645,0,0,0,0,0,0,0,0,0,-1,720,379,0,0
-497,645,0,0,0,0,0,0,0,0,0,-1,727,379,0,0
-490,645,0,0,0,0,0,0,0,0,0,-1,734,379,0,0
-483,645,0,0,0,0,0,0,0,0,0,-1,741,379,0,0
-476,645,0,0,0,0,0,0,0,0,0,-1,748,379,0,0
-469,645,0,0,0,0,0,0,0,0,0,-1,755,379,0,0
-462,645,0,0,0,0,0,0,0,0,0,-1,762,379,0,0
-455,645,0,0,0,0,0,0,0,0,0,-1,769,379,0,0
-448,645,0,0,0,0,0,0,0,0,0,-1,776,379,0,0
-441,645,0,0,0,0,0,0,0,0,0,-1,783,379,0,0
-434,645,0,0,0,0,0,0,0,0,0,-1,790,379,0,0
-427,645,0,0,0,0,0,0,0,0,0,-1,797,379,0,0
-420,645,0,0,0,0,0,0,0,0,0,-1,804,379,0,0
-413,645,0,0,0,0,0,0,0,0,0,-1,811,379,0,0
-406,645,0,0,0,0,0,0,0,0,0,-1,818,379,0,0
-399,645,0,0,0,0,0,0,0,0,0,-1,825,379,0,0
-392,645,0,0,0,0,0,0,0,0,0,-1,832,379,0,0
-385,645,0,0,0,0,0,0,0,0,0,-1,839,379,0,0
-378,645,0,0,0,0,0,0,0,0,0,-1,846,379,0,0
-371,645,0,0,0,0,0,0,0,0,0,-1,853,379,0,0
-364,645,0,0,0,0,0,0,0,0,0,-1,860,379,0,0
-357,645,0,0,0,0,0,0,0,0,0,-1,867,379,0,0
-350,645,0,0,0,0,0,0,0,0,0,-1,874,379,0,0
-343,645,0,0,0,0,0,0,0,0,0,-1,881,379,0,0
-336,645,0,0,0,0,0,0,0,0,0,-1,888,379,0,0
-329,645,0,0,0,0,0,0,0,0,0,-1,895,379,0,0
-322,645,0,0,0,0,0,0,0,0,0,-1,902,379,0,0
-315,645,0,0,0,0,0,0,0,0,0,-1,909,379,0,0
-308,645,0,0,0,0,0,0,0,0,0,-1,916,379,0,0
-301,645,0,0,0,0,0,0,0,0,0,-1,923,379,0,0
-294,645,0,0,0,0,0,0,0,0,0,-1,930,379,0,0
-287,645,0,0,0,0,0,0,0,0,0,-1,937,379,0,0
-280,645,0,0,0,0,0,0,0,0,0,-1,944,379,0,0
-273,645,0,0,0,0,0,0,0,0,0,-1,951,379,0,0
-266,645,0,0,0,0,0,0,0,0,0,-1,958,379,0,0
-259,645,0,0,0,0,0,0,0,0,0,-1,965,379,0,0
-252,645,1.22064,-13.4645,0,0,0,0,0,0,0,-1,972,379,1.22063,13.4645
-245,645,1.57947,-12.8639,0,0,0,0,0,0,0,-1,979,379,1.57948,12.8639
-238,645,2.3678,-12.5787,0,0,0,0,0,0,0,-1,986,379,2.36781,12.5787
-231,645,2.24493,-9.26569,0,0,0,0,0,0,0,-1,993,379,2.24495,9.26568
-224,645,2.80713,-10.7619,0.0637863,0.198665,-0.134656,0.281826,-0.0193744,-1.01755,0.194664,0.0473467,1000,379,2.80711,10.7619
-217,645,3.3772,-12.1184,0.0554321,0.17262,-0.118511,0.24623,-0.0181786,-1.01498,0.170536,0.0479593,1007,379,3.37718,12.1184
-210,645,4.03253,-13.1274,0,0,0,0,0,0,0,-1,1014,379,4.03254,13.1274
-203,645,3.08618,-16.277,0,0,0,0,0,0,0,-1,1021,379,3.08616,16.277
-196,645,2.7583,-15.4812,0,0,0,0,0,0,0,-1,1028,379,2.75835,15.4812
-189,645,2.47363,-14.7538,0,0,0,0,0,0,0,-1,1035,379,2.47369,14.7538
-182,645,2.35254,-13.904,0.0219292,0.038939,-0.0373738,0.0687634,-0.00789513,-0.897275,0.0486878,0.0421066,1042,379,2.35256,13.904
-175,645,2.63904,-14.0371,0.0179651,0.0211988,-0.0258926,0.0455249,-0.00636107,-0.81658,0.0326774,0.0458719,1049,379,2.63906,14.0371
-168,645,2.83557,-13.774,0.0129506,0.00387295,-0.0139088,0.0230424,-0.00621886,-0.627682,0.0178004,0.0489754,1056,379,2.83552,13.774
-161,645,2.80322,-13.3383,0.00890733,-0.0100124,-0.00386372,0.00966594,-0.010771,-0.193877,0.011805,0.0483551,1063,379,2.80324,13.3383
-154,645,3.06689,-13.7914,0.00732534,-0.0131618,-0.000441581,0.00733485,-0.0131713,-0.0215407,0.011998,0.0426723,1070,379,3.06693,13.7914
-147,645,3.0144,-13.8256,0.00712463,-0.00681642,-0.00189151,0.00737671,-0.0070685,-0.132489,0.00834058,0.0405155,1077,379,3.0144,13.8256
-140,645,2.97009,-13.9104,0,0,0,0,0,0,0,-1,1084,379,2.97014,13.9104
-133,645,2.79883,-13.9286,0.00584298,0.0033335,-0.00386527,0.00865206,0.000524408,-0.628455,0.00560143,0.0303627,1091,379,2.79887,13.9286
-126,645,2.89966,-14.0978,0.00533942,0.00890554,-0.00486146,0.0123006,0.00194434,-0.961168,0.00763527,0.0255641,1098,379,2.89966,14.0978
-119,645,2.88049,-14.2778,0.00418282,0.0121431,-0.00538475,0.014859,0.00146691,-1.10366,0.00945506,0.016946,1105,379,2.8805,14.2778
-112,645,2.85876,-14.4195,0.00346255,0.0142716,-0.0057962,0.016792,0.00094213,-1.16062,0.0108942,0.0116566,1112,379,2.85875,14.4195
-105,645,2.84058,-14.5404,0.00291074,0.015275,-0.00583255,0.0175921,0.00059361,-1.19264,0.0115353,0.0114863,1119,379,2.84057,14.5404
-98,645,2.79382,-14.6374,0.00241851,0.0157411,-0.0057021,0.0178483,0.000311285,-1.21681,0.0117965,0.0123576,1126,379,2.79378,14.6373
-91,645,2.76746,-14.7345,0.00205064,0.0154445,-0.00541976,0.0173628,0.000132304,-1.23061,0.0115313,0.0124888,1133,379,2.76744,14.7345
-84,645,2.76318,-14.8381,0.00160965,0.014742,-0.00498731,0.0164213,-6.96629e-05,-1.246,0.0109708,0.0120967,1140,379,2.76317,14.8381
-77,645,2.75366,-14.9598,0.000996819,0.0126576,-0.00420041,0.0140131,-0.00035867,-1.25864,0.00946389,0.0106869,1147,379,2.75371,14.9598
-70,645,2.7522,-15.054,0.000444814,0.0105851,-0.00345953,0.0116529,-0.000623015,-1.27141,0.00798439,0.0101384,1154,379,2.75215,15.054
-63,645,2.73853,-15.1217,3.83926e-05,0.00839028,-0.00295067,0.00932755,-0.000898876,-1.26323,0.00653862,0.0109223,1161,379,2.73854,15.1217
-56,645,2.72205,-15.1726,-0.000193058,0.00613617,-0.00231735,0.00689392,-0.000950805,-1.25477,0.00494345,0.0120487,1168,379,2.72199,15.1726
-49,645,2.72827,-15.2411,-0.000766814,0.00298556,-0.00113246,0.00330085,-0.0010821,-1.29927,0.00263636,0.00945466,1175,379,2.72821,15.2411
-42,645,2.72351,-15.3221,-0.00121118,0.00088383,-0.00059608,0.00104155,-0.0013689,-1.31212,0.00139595,0.00923513,1182,379,2.72347,15.3222
-35,645,2.71252,-15.3937,-0.0012038,-0.000346338,-0.000404293,-0.000185779,-0.00136436,-1.19276,0.000854406,0.0102526,1189,379,2.71251,15.3937
-28,645,2.69031,-15.4648,-0.00127657,-0.000567604,-0.000214698,-0.000507655,-0.00133652,-1.29851,0.000779032,0.00802151,1196,379,2.69026,15.4648
-21,645,2.66833,-15.5039,-0.00128006,-0.00083965,-0.000121273,-0.000808464,-0.00131124,-1.31909,0.000763872,0.00927535,1203,379,2.66834,15.5039
-14,645,2.67078,-15.5565,-0.00127508,-0.000870283,-9.25654e-05,-0.00085012,-0.00129524,-1.35632,0.000759894,0.0100681,1210,379,2.67081,15.5565
-7,645,2.66895,-15.6254,-0.00129905,-0.000827745,-8.71896e-05,-0.000812132,-0.00131466,-1.39361,0.000766002,0.013942,1217,379,2.66898,15.6254
0,645,2.64551,-15.6587,-0.00120141,-0.000695543,-0.00010998,-0.000672667,-0.00122428,-1.36572,0.000707992,0.0246168,1224,379,2.64551,15.6587
7,645,2.65259,-15.6465,-0.00096703,-0.000454801,-0.000106631,-0.00043349,-0.000988341,-1.37354,0.000572051,0.0159889,1231,379,2.65257,15.6465
14,645,2.63867,-15.6601,-0.000758328,-0.000227554,-0.000101666,-0.000208747,-0.000777135,-1.38788,0.000464418,0.0146282,1238,379,2.63864,15.6601
21,645,2.62488,-15.7195,-0.000432792,0.00028561,-0.000131701,0.000308993,-0.000456175,-1.39508,0.000444486,0.0100016,1245,379,2.62488,15.7195
28,645,2.62305,-15.7351,-6.58715e-06,0.000815135,-0.000189448,0.000856709,-4.81609e-05,-1.35477,0.000587851,0.00889638,1252,379,2.62309,15.7351
35,645,2.61877,-15.7468,0.00031191,0.00129083,-0.000206402,0.00133257,0.00027017,-1.37126,0.00081342,0.00838074,1259,379,2.61875,15.7468
42,645,2.60974,-15.7658,0.00052168,0.00201465,-0.000379318,0.00210549,0.000430834,-1.33573,0.00128437,0.00872245,1266,379,2.60978,15.7658
49,645,2.62036,-15.7643,0.000852656,0.00245131,-0.000324223,0.00251456,0.000789403,-1.37813,0.00148491,0.0119104,1273,379,2.62032,15.7643
56,645,2.61646,-15.746,0.00122729,0.00276788,-0.000127726,0.00277839,0.00121677,-1.48864,0.00160822,0.0116596,1280,379,2.61645,15.746
63,645,2.60059,-15.7432,0.00149036,0.00313429,0.00016107,0.00314992,0.00147473,1.47404,0.00181983,0.010944,1287,379,2.6006,15.7432
70,645,2.6001,-15.7061,0.00178041,0.00342023,0.000658014,0.00365162,0.00154902,1.23265,0.00211633,0.0147734,1294,379,2.60006,15.7061
77,645,2.59216,-15.6951,0.0019385,0.00389155,0.00132049,0.00455737,0.00127267,1.10378,0.00271533,0.0187017,1301,379,2.59222,15.6951
84,645,2.60498,-15.6772,0.00179814,0.00392023,0.00171148,0.00487289,0.000845488,1.06288,0.00300665,0.0134637,1308,379,2.60496,15.6772
91,645,2.57214,-15.6566,0.00170129,0.00402517,0.00211659,0.00527778,0.000448681,1.03642,0.00337891,0.0139224,1315,379,2.57217,15.6566
98,645,2.57849,-15.6052,0.00155706,0.00396909,0.00255023,0.00558409,-5.79495e-05,1.00627,0.00374219,0.0136564,1322,379,2.57848,15.6052
105,645,2.57715,-15.5504,0.00133586,0.00387555,0.00295088,0.00581821,-0.000606798,0.988585,0.00409608,0.0107512,1329,379,2.57718,15.5504
112,645,2.56091,-15.5056,0.00108553,0.0037173,0.00318257,0.0058453,-0.00104246,0.981429,0.00428681,0.00865514,1336,379,2.56089,15.5056
119,645,2.56775,-15.4556,0.000920841,0.00361921,0.00326091,0.00579902,-0.00125897,0.981548,0.00434688,0.00853875,1343,379,2.56773,15.4556
126,645,2.56934,-15.4106,0.000698202,0.00338314,0.00321651,0.00552609,-0.00144475,0.983093,0.00424834,0.0111025,1350,379,2.56939,15.4106
133,645,2.56177,-15.3434,0.000488018,0.00326671,0.00306122,0.00523912,-0.00148438,0.998425,0.00407859,0.0123774,1357,379,2.5618,15.3434
140,645,2.55066,-15.2698,0.000437545,0.00323203,0.00279343,0.00495817,-0.00128859,1.0173,0.00380835,0.0123631,1364,379,2.55061,15.2698
147,645,2.51282,-15.2034,0.000447974,0.00306716,0.00266392,0.00472598,-0.00121085,1.01385,0.00362237,0.013256,1371,379,2.51284,15.2034
154,645,2.51074,-15.1346,0.000270282,0.00314012,0.00228505,0.00440344,-0.000993031,1.06576,0.00331657,0.0117701,1378,379,2.51079,15.1345
161,645,2.51172,-15.0305,3.82471e-05,0.0030635,0.00193624,0.00400792,-0.000906173,1.11699,0.00301967,0.0137522,1385,379,2.51175,15.0305
168,645,2.5144,-14.9391,-0.000196412,0.00287073,0.00180049,0.00370224,-0.00102792,1.13815,0.00287277,0.0157538,1392,379,2.51443,14.9391
175,645,2.55029,-14.8818,-0.000600419,0.00265374,0.00159008,0.00330168,-0.00124836,1.18385,0.00271467,0.0141432,1399,379,2.55025,14.8818
182,645,2.52161,-14.7867,-0.000680416,0.00175453,0.00108977,0.00217102,-0.00109691,1.20574,0.00192041,0.0107869,1406,379,2.5216,14.7867
189,645,2.48926,-14.6583,-0.00020304,0.00207931,0.00153777,0.00285308,-0.000976806,1.10461,0.00229793,0.0112754,1413,379,2.48929,14.6583
196,645,2.46582,-14.5519,-0.000719603,0.00136066,0.00170206,0.00231524,-0.00167419,1.05967,0.00231319,0.0107425,1420,379,2.46583,14.5519
203,645,2.44507,-14.4381,-0.00136153,0.00100096,0.00165089,0.00184969,-0.00221025,1.09593,0.00234709,0.0106678,1427,379,2.4451,14.4381
210,645,2.46948,-14.3162,-0.00180943,0.00101295,0.00164824,0.00177159,-0.00256807,1.13943,0.00251953,0.0136235,1434,379,2.46953,14.3162
217,645,2.45813,-14.2183,-0.00193165,0.00117054,0.00153617,0.0018025,-0.00256361,1.18051,0.00253351,0.0127755,1441,379,2.45813,14.2183
224,645,2.41528,-14.0774,-0.00186679,0.00154181,0.0015852,0.00216506,-0.00249005,1.19619,0.00268981,0.012405,1448,379,2.41533,14.0774
231,645,2.39783,-13.9225,-0.00163733,0.00192398,0.00170798,0.0026107,-0.00232405,1.18851,0.00285068,0.0144719,1455,379,2.39777,13.9225
238,645,2.37598,-13.7894,-0.00134521,0.00256804,0.00191415,0.00334863,-0.0021258,1.18358,0.00318684,0.01139,1462,379,2.37601,13.7894
245,645,2.38428,-13.6467,-0.00121154,0.00307962,0.00191387,0.00380917,-0.00194109,1.20661,0.00337781,0.0115652,1469,379,2.38428,13.6467
252,645,2.40906,-13.4316,-0.00087099,0.00393044,0.00203778,0.00467869,-0.00161924,1.21889,0.00377642,0.0170293,1476,379,2.40911,13.4316
259,645,2.3739,-13.2292,-0.000173635,0.00558426,0.00226188,0.00636652,-0.000955894,1.23783,0.00459623,0.0276358,1483,379,2.37396,13.2292
266,645,2.32739,-13.0762,0.000487551,0.00908164,0.00278073,0.00990291,-0.000333712,1.28362,0.00671594,0.0263039,1490,379,2.32739,13.0762
273,645,2.32935,-12.9192,0.000574452,0.0154547,0.00346027,0.01622,-0.000190844,1.35313,0.0108775,0.0272416,1497,379,2.32931,12.9191
280,645,2.37036,-12.758,0.00046092,0.0215191,0.00404779,0.0222704,-0.00029034,1.38729,0.0149446,0.0487181,1504,379,2.37042,12.758
287,645,2.41589,-12.6655,0,0,0,0,0,0,0,-1,1511,379,2.41585,12.6655
294,645,2.37891,-13.0971,0,0,0,0,0,0,0,-1,1518,379,2.37894,13.0971
301,645,2.15479,-12.7213,0,0,0,0,0,0,0,-1,1525,379,2.15481,12.7213
308,645,1.62122,-11.7194,0,0,0,0,0,0,0,-1,1532,379,1.62122,11.7194
315,645,1.78271,-10.9736,0,0,0,0,0,0,0,-1,1539,379,1.78273,10.9736
322,645,1.62769,-9.80505,-0.00472639,0.0732974,0.0103474,0.0746463,-0.00607532,1.44116,0.051908,0.0466618,1546,379,1.62766,9.80506
329,645,1.42419,-9.07214,-0.00671242,0.0808467,0.0111163,0.0822359,-0.00810168,1.44647,0.0577144,0.0478359,1553,379,1.4242,9.07214
336,645,0.905884,-8.53455,0,0,0,0,0,0,0,-1,1560,379,0.90586,8.53454
343,645,3.48962,-5.22675,0,0,0,0,0,0,0,-1,1567,379,3.48959,5.22675
350,645,3.93213,-5.72198,0,0,0,0,0,0,0,-1,1574,379,3.9321,5.72198
357,645,1.63928,-6.465,0,0,0,0,0,0,0,-1,1581,379,1.63926,6.46499
364,645,-0.0794678,-3.22021,0,0,0,0,0,0,0,-1,1588,379,-0.0794987,3.22021
371,645,0,0,0,0,0,0,0,0,0,-1,1595,379,0,0
378,645,0,0,0,0,0,0,0,0,0,-1,1602,379,0,0
385,645,0,0,0,0,0,0,0,0,0,-1,1609,379,0,0
392,645,0,0,0,0,0,0,0,0,0,-1,1616,379,0,0
399,645,0,0,0,0,0,0,0,0,0,-1,1623,379,0,0
406,645,0,0,0,0,0,0,0,0,0,-1,1630,379,0,0
413,645,0,0,0,0,0,0,0,0,0,-1,1637,379,0,0
420,645,0,0,0,0,0,0,0,0,0,-1,1644,379,0,0
427,645,0,0,0,0,0,0,0,0,0,-1,1651,379,0,0
434,645,0,0,0,0,0,0,0,0,0,-1,1658,379,0,0
441,645,0,0,0,0,0,0,0,0,0,-1,1665,379,0,0
448,645,0,0,0,0,0,0,0,0,0,-1,1672,379,0,0
455,645,0,0,0,0,0,0,0,0,0,-1,1679,379,0,0
462,645,0,0,0,0,0,0,0,0,0,-1,1686,379,0,0
469,645,0,0,0,0,0,0,0,0,0,-1,1693,379,0,0
476,645,0,0,0,0,0,0,0,0,0,-1,1700,379,0,0
483,645,0,0,0,0,0,0,0,0,0,-1,1707,379,0,0
490,645,0,0,0,0,0,0,0,0,0,-1,1714,379,0,0
497,645,0,0,0,0,0,0,0,0,0,-1,1721,379,0,0
504,645,0,0,0,0,0,0,0,0,0,-1,1728,379,0,0
511,645,0,0,0,0,0,0,0,0,0,-1,1735,379,0,0
518,645,0,0,0,0,0,0,0,0,0,-1,1742,379,0,0
525,645,0,0,0,0,0,0,0,0,0,-1,1749,379,0,0
532,645,0,0,0,0,0,0,0,0,0,-1,1756,379,0,0
539,645,0,0,0,0,0,0,0,0,0,-1,1763,379,0,0
546,645,0,0,0,0,0,0,0,0,0,-1,1770,379,0,0
553,645,0,0,0,0,0,0,0,0,0,-1,1777,379,0,0
560,645,0,0,0,0,0,0,0,0,0,-1,1784,379,0,0
567,645,0,0,0,0,0,0,0,0,0,-1,1791,379,0,0
574,645,0,0,0,0,0,0,0,0,0,-1,1798,379,0,0
581,645,0,0,0,0,0,0,0,0,0,-1,1805,379,0,0
588,645,0,0,0,0,0,0,0,0,0,-1,1812,379,0,0
595,645,0,0,0,0,0,0,0,0,0,-1,1819,379,0,0
602,645,0,0,0,0,0,0,0,0,0,-1,1826,379,0,0
609,645,0,0,0,0,0,0,0,0,0,-1,1833,379,0,0
616,645,0,0,0,0,0,0,0,0,0,-1,1840,379,0,0
623,645,0,0,0,0,0,0,0,0,0,-1,1847,379,0,0
630,645,0,0,0,0,0,0,0,0,0,-1,1854,379,0,0
637,645,0,0,0,0,0,0,0,0,0,-1,1861,379,0,0
644,645,0,0,0,0,0,0,0,0,0,-1,1868,379,0,0
651,645,0,0,0,0,0,0,0,0,0,-1,1875,379,0,0
658,645,0,0,0,0,0,0,0,0,0,-1,1882,379,0,0
665,645,0,0,0,0,0,0,0,0,0,-1,1889,379,0,0
672,645,0,0,0,0,0,0,0,0,0,-1,1896,379,0,0
679,645,0,0,0,0,0,0,0,0,0,-1,1903,379,0,0
686,645,0,0,0,0,0,0,0,0,0,-1,1910,379,0,0
693,645,0,0,0,0,0,0,0,0,0,-1,1917,379,0,0
700,645,0,0,0,0,0,0,0,0,0,-1,1924,379,0,0
707,645,0,0,0,0,0,0,0,0,0,-1,1931,379,0,0
714,645,0,0,0,0,0,0,0,0,0,-1,1938,379,0,0
721,645,0,0,0,0,0,0,0,0,0,-1,1945,379,0,0
728,645,0,0,0,0,0,0,0,0,0,-1,1952,379,0,0
735,645,0,0,0,0,0,0,0,0,0,-1,1959,379,0,0
742,645,0,0,0,0,0,0,0,0,0,-1,1966,379,0,0
749,645,0,0,0,0,0,0,0,0,0,-1,1973,379,0,0
756,645,0,0,0,0,0,0,0,0,0,-1,1980,379,0,0
763,645,0,0,0,0,0,0,0,0,0,-1,1987,379,0,0
770,645,0,0,0,0,0,0,0,0,0,-1,1994,379,0,0
777,645,0,0,0,0,0,0,0,0,0,-1,2001,379,0,0
784,645,0,0,0,0,0,0,0,0,0,-1,2008,379,0,0
791,645,0,0,0,0,0,0,0,0,0,-1,2015,379,0,0
798,645,0,0,0,0,0,0,0,0,0,-1,2022,379,0,0
805,645,0,0,0,0,0,0,0,0,0,-1,2029,379,0,0
812,645,0,0,0,0,0,0,0,0,0,-1,2036,379,0,0
-700,638,0,0,0,0,0,0,0,0,0,-1,524,386,0,0
-693,638,0,0,0,0,0,0,0,0,0,-1,531,386,0,0
-686,638,0,0,0,0,0,0,0,0,0,-1,538,386,0,0
-679,638,0,0,0,0,0,0,0,0,0,-1,545,386,0,0
-672,638,0,0,0,0,0,0,0,0,0,-1,552,386,0,0
-665,638,0,0,0,0,0,0,0,0,0,-1,559,386,0,0
-658,638,0,0,0,0,0,0,0,0,0,-1,566,386,0,0
-651,638,0,0,0,0,0,0,0,0,0,-1,573,386,0,0
-644,638,0,0,0,0,0,0,0,0,0,-1,580,386,0,0
-637,638,0,0,0,0,0,0,0,0,0,-1,587,386,0,0
-630,638,0,0,0,0,0,0,0,0,0,-1,594,386,0,0
-623,638,0,0,0,0,0,0,0,0,0,-1,601,386,0,0
-616,638,0,0,0,0,0,0,0,0,0,-1,608,386,0,0
-609,638,0,0,0,0,0,0,0,0,0,-1,615,386,0,0
-602,638,0,0,0,0,0,0,0,0,0,-1,622,386,0,0
-595,638,0,0,0,0,0,0,0,0,0,-1,629,386,0,0
-588,638,0,0,0,0,0,0,0,0,0,-1,636,386,0,0
-581,638,0,0,0,0,0,0,0,0,0,-1,643,386,0,0
-574,638,0,0,0,0,0,0,0,0,0,-1,650,386,0,0
-567,638,0,0,0,0,0,0,0,0,0,-1,657,386,0,0
-560,638,0,0,0,0,0,0,0,0,0,-1,664,386,0,0
-553,638,0,0,0,0,0,0,0,0,0,-1,671,386,0,0
-546,638,0,0,0,0,0,0,0,0,0,-1,678,386,0,0
-539,638,0,0,0,0,0,0,0,0,0,-1,685,386,0,0
-532,638,0,0,0,0,0,0,0,0,0,-1,692,386,0,0
-525,638,0,0,0,0,0,0,0,0,0,-1,699,386,0,0
-518,638,0,0,0,0,0,0,0,0,0,-1,706,386,0,0
-511,638,0,0,0,0,0,0,0,0,0,-1,713,386,0,0
-504,638,0,0,0,0,0,0,0,0,0,-1,720,386,0,0
-497,638,0,0,0,0,0,0,0,0,0,-1,727,386,0,0
-490,638,0,0,0,0,0,0,0,0,0,-1,734,386,0,0
-483,638,0,0,0,0,0,0,0,0,0,-1,741,386,0,0
-476,638,0,0,0,0,0,0,0,0,0,-1,748,386,0,0
-469,638,0,0,0,0,0,0,0,0,0,-1,755,386,0,0
-462,638,0,0,0,0,0,0,0,0,0,-1,762,386,0,0
-455,638,0,0,0,0,0,0,0,0,0,-1,769,386,0,0
-448,638,0,0,0,0,0,0,0,0,0,-1,776,386,0,0
-441,638,0,0,0,0,0,0,0,0,0,-1,783,386,0,0
-434,638,0,0,0,0,0,0,0,0,0,-1,790,386,0,0
-427,638,0,0,0,0,0,0,0,0,0,-1,797,386,0,0
-420,638,0,0,0,0,0,0,0,0,0,-1,804,386,0,0
-413,638,0,0,0,0,0,0,0,0,0,-1,811,386,0,0
-406,638,0,0,0,0,0,0,0,0,0,-1,818,386,0,0
-399,638,0,0,0,0,0,0,0,0,0,-1,825,386,0,0
-392,638,0,0,0,0,0,0,0,0,0,-1,832,386,0,0
-385,638,0,0,0,0,0,0,0,0,0,-1,839,386,0,0
-378,638,0,0,0,0,0,0,0,0,0,-1,846,386,0,0
-371,638,0,0,0,0,0,0,0,0,0,-1,853,386,0,0
-364,638,0,0,0,0,0,0,0,0,0,-1,860,386,0,0
-357,638,0,0,0,0,0,0,0,0,0,-1,867,386,0,0
-350,638,0,0,0,0,0,0,0,0,0,-1,874,386,0,0
-343,638,0,0,0,0,0,0,0,0,0,-1,881,386,0,0
-336,638,0,0,0,0,0,0,0,0,0,-1,888,386,0,0
-329,638,0,0,0,0,0,0,0,0,0,-1,895,386,0,0
-322,638,0,0,0,0,0,0,0,0,0,-1,902,386,0,0
-315,638,0,0,0,0,0,0,0,0,0,-1,909,386,0,0
-308,638,0,0,0,0,0,0,0,0,0,-1,916,386,0,0
-301,638,0,0,0,0,0,0,0,0,0,-1,923,386,0,0
-294,638,0,0,0,0,0,0,0,0,0,-1,930,386,0,0
-287,638,0,0,0,0,0,0,0,0,0,-1,937,386,0,0
-280,638,0,0,0,0,0,0,0,0,0,-1,944,386,0,0
-273,638,0,0,0,0,0,0,0,0,0,-1,951,386,0,0
-266,638,0.603821,-10.3962,0,0,0,0,0,0,0,-1,958,386,0.603829,10.3962
-259,638,1.22852,-12.639,0,0,0,0,0,0,0,-1,965,386,1.22853,12.639
-252,638,1.82166,-12.43,0,0,0,0,0,0,0,-1,972,386,1.82167,12.43
-245,638,2.47107,-12.2099,0,0,0,0,0,0,0,-1,979,386,2.47105,12.2099
-238,638,3.37762,-12.1555,0,0,0,0,0,0,0,-1,986,386,3.37763,12.1556
-231,638,4.06219,-12.2823,0,0,0,0,0,0,0,-1,993,386,4.0622,12.2823
-224,638,3.90192,-12.6979,0,0,0,0,0,0,0,-1,1000,386,3.90192,12.6979
-217,638,4.58875,-13.7002,0,0,0,0,0,0,0,-1,1007,386,4.58873,13.7002
-210,638,0.0127563,-13.7673,0,0,0,0,0,0,0,-1,1014,386,0.0127578,13.7673
-203,638,0.749573,-12.3973,0,0,0,0,0,0,0,-1,1021,386,0.749547,12.3973
-196,638,2.26501,-13.2451,0,0,0,0,0,0,0,-1,1028,386,2.26501,13.2451
-189,638,2.26465,-12.2822,0,0,0,0,0,0,0,-1,1035,386,2.26466,12.2822
-182,638,2.33447,-13.3298,0.0169445,0.0289801,-0.0284331,0.0520252,-0.00610064,-0.889683,0.0368856,0.0423879,1042,386,2.33444,13.3298
-175,638,2.46057,-13.4471,0.0138073,0.0156165,-0.0197833,0.0345158,-0.00509206,-0.808245,0.0248822,0.0431472,1049,386,2.46058,13.4471
-168,638,2.77649,-13.2985,0.00998004,0.00280917,-0.0108171,0.0177904,-0.00500123,-0.625366,0.0138321,0.0346095,1056,386,2.77645,13.2985
-161,638,2.77722,-13.4485,0.00697793,-0.00659226,-0.0037271,0.00793421,-0.00754853,-0.251155,0.00893989,0.0285379,1063,386,2.77725,13.4485
-154,638,2.83325,-13.6321,0.00571335,-0.00858006,-0.00128,0.00582707,-0.00869378,-0.0886125,0.0084379,0.0230103,1070,386,2.83326,13.6321
-147,638,2.84729,-13.7719,0.00532388,-0.00444777,-0.0020007,0.00571764,-0.00484153,-0.19433,0.00610333,0.018696,1077,386,2.84733,13.7719
-140,638,2.81604,-13.8623,0.00472881,-0.000474865,-0.00263196,0.00582789,-0.00157394,-0.395577,0.00450256,0.0142148,1084,386,2.8161,13.8623
-133,638,2.8103,-14.0519,0.00414563,0.00239802,-0.00299609,0.00639273,0.000150909,-0.643509,0.00421242,0.0119376,1091,386,2.81031,14.052
-126,638,2.79578,-14.1978,0.00358511,0.00630149,-0.00348238,0.00868116,0.00120543,-0.971334,0.00543041,0.0135169,1098,386,2.79576,14.1978
-119,638,2.76831,-14.3128,0.00267357,0.00867473,-0.00380467,0.0105197,0.000828632,-1.11929,0.00675386,0.0152281,1105,386,2.76827,14.3128
-112,638,2.75293,-14.4292,0.00211544,0.0101728,-0.00406157,0.0118648,0.000423402,-1.17606,0.0077726,0.014415,1112,386,2.75291,14.4292
-105,638,2.72632,-14.5593,0.00170867,0.0107829,-0.0040323,0.0123158,0.000175795,-1.20752,0.00815257,0.0155352,1119,386,2.72637,14.5593
-98,638,2.73132,-14.6755,0.00134677,0.0110385,-0.00390836,0.0124182,-3.29358e-05,-1.23144,0.00828977,0.0145324,1126,386,2.73138,14.6755
-91,638,2.68054,-14.7694,0.00109001,0.0107367,-0.00368568,0.0119837,-0.000156974,-1.24455,0.00804195,0.0113205,1133,386,2.68055,14.7694
-84,638,2.66357,-14.8597,0.000788903,0.0101583,-0.00333366,0.0112233,-0.000276156,-1.26156,0.00757594,0.0128683,1140,386,2.66358,14.8597
-77,638,2.68127,-14.9769,0.000387562,0.00862226,-0.00273604,0.00944844,-0.000438616,-1.27754,0.00645014,0.0105677,1147,386,2.68123,14.9769
-70,638,2.69666,-15.0573,8.4985e-05,0.00717903,-0.00223105,0.00782234,-0.000558332,-1.29006,0.00541062,0.0105035,1154,386,2.6966,15.0573
-63,638,2.6748,-15.1437,-5.48392e-05,0.00570156,-0.00186332,0.00625207,-0.000605342,-1.28353,0.00438378,0.0116754,1161,386,2.67476,15.1437
-56,638,2.6554,-15.2021,-0.000110705,0.00416876,-0.00145301,0.00461547,-0.000557414,-1.27253,0.00327862,0.0148827,1168,386,2.65541,15.2021
-49,638,2.65796,-15.2479,-0.000370941,0.00214104,-0.000712737,0.00232918,-0.000559079,-1.31272,0.00176885,0.0116504,1175,386,2.65794,15.2479
-42,638,2.65637,-15.3439,-0.000542325,0.000724351,-0.000328479,0.000804466,-0.000622441,-1.33157,0.000826056,0.010252,1182,386,2.65637,15.3439
-35,638,2.64026,-15.4086,-0.00042868,-0.000242629,-8.00596e-05,-0.000212922,-0.000458387,-1.21548,0.000264872,0.0103341,1189,386,2.64026,15.4086
-28,638,2.62598,-15.4653,-0.000387148,-0.000576469,6.46939e-05,-0.000367153,-0.000596465,0.299759,0.000347421,0.00956982,1196,386,2.62595,15.4653
-21,638,2.61682,-15.5052,-0.000331029,-0.000849652,0.000141732,-0.000294823,-0.000885857,0.250103,0.000520893,0.0107477,1203,386,2.61684,15.5053
-14,638,2.61523,-15.5591,-0.000291538,-0.000977549,0.000187489,-0.000243641,-0.00102545,0.250117,0.000618622,0.0112896,1210,386,2.61527,15.5591
-7,638,2.63086,-15.6496,-0.000280396,-0.00102508,0.000177412,-0.00024029,-0.00106519,0.222326,0.000645122,0.0170554,1217,386,2.63088,15.6496
0,638,2.61853,-15.637,-0.000250384,-0.00103866,0.00012721,-0.000230364,-0.00105868,0.1561,0.000642909,0.0305343,1224,386,2.6185,15.637
7,638,2.63208,-15.6412,-0.00018798,-0.000938742,0.000107249,-0.00017296,-0.000953762,0.139147,0.000586748,0.0234886,1231,386,2.63204,15.6412
14,638,2.60815,-15.6698,-0.000160848,-0.000882694,0.000125952,-0.000139502,-0.00090404,0.16788,0.000561994,0.0130667,1238,386,2.60814,15.6698
21,638,2.59998,-15.7114,-5.21823e-05,-0.000480087,0.000133599,-1.3896e-05,-0.000518374,0.279096,0.000341045,0.0107655,1245,386,2.59997,15.7114
28,638,2.60193,-15.7278,0.000112825,-2.6935e-05,0.000123535,0.000184875,-9.89851e-05,0.528002,0.000166369,0.0080296,1252,386,2.60198,15.7278
35,638,2.60291,-15.7478,0.000195278,0.000469905,0.00012409,0.000517668,0.000147515,1.20337,0.000307952,0.00951613,1259,386,2.60297,15.7478
42,638,2.62488,-15.766,0.000190503,0.00099433,5.5914e-06,0.000994369,0.000190464,1.56384,0.000609427,0.0101159,1266,386,2.62488,15.766
49,638,2.63831,-15.7471,0.000357607,0.00139155,8.26271e-05,0.00139811,0.000351045,1.49155,0.000839878,0.00877311,1273,386,2.63831,15.7471
56,638,2.63086,-15.7413,0.00053158,0.00178617,0.000246898,0.00183301,0.00048474,1.38331,0.00109674,0.0111548,1280,386,2.63088,15.7413
63,638,2.61658,-15.7566,0.000595355,0.00230012,0.000418405,0.00239727,0.000498201,1.34264,0.00146071,0.0126915,1287,386,2.61661,15.7566
70,638,2.6084,-15.7269,0.000646469,0.00268297,0.000693594,0.00289676,0.000432686,1.27181,0.00180432,0.0172283,1294,386,2.60835,15.7269
77,638,2.61047,-15.7001,0.000614829,0.00300805,0.00100895,0.00337664,0.000246238,1.22054,0.00217367,0.0182411,1301,386,2.61053,15.7001
84,638,2.6405,-15.6689,0.000470808,0.00303532,0.00111708,0.00345366,5.24629e-05,1.21246,0.00228516,0.0131733,1308,386,2.64053,15.6689
91,638,2.63074,-15.6332,0.000287053,0.00295782,0.00113708,0.00337635,-0.000131475,1.21811,0.00229598,0.0132366,1315,386,2.63069,15.6332
98,638,2.62256,-15.5996,6.35395e-05,0.00280736,0.00122915,0.00327745,-0.000406548,1.20551,0.00233232,0.012381,1322,386,2.62261,15.5996
105,638,2.60754,-15.5515,-0.00013021,0.00258087,0.0012964,0.003101,-0.000650343,1.18925,0.00231477,0.00992619,1329,386,2.60753,15.5515
112,638,2.61304,-15.5128,-0.000271767,0.00218004,0.00122084,0.00268425,-0.00077598,1.17913,0.00209659,0.00935533,1336,386,2.61299,15.5128
119,638,2.62708,-15.4751,-0.000336655,0.00180726,0.00103918,0.00222828,-0.000757676,1.18586,0.00179228,0.0108757,1343,386,2.62708,15.4751
126,638,2.63049,-15.4006,-0.000426739,0.00120562,0.000814278,0.00154235,-0.000763468,1.17868,0.00135634,0.0141824,1350,386,2.63044,15.4006
133,638,2.62854,-15.3015,-0.000481434,0.000756107,0.000586151,0.000989657,-0.000714984,1.19163,0.000988424,0.0146965,1357,386,2.6286,15.3016
140,638,2.60852,-15.2539,-0.000397675,0.000448913,0.000387263,0.000599335,-0.000548097,1.20031,0.00066269,0.0156057,1364,386,2.60848,15.2539
147,638,2.58789,-15.2054,-0.000264514,0.000282494,0.000318626,0.000428903,-0.000410923,1.14007,0.000484911,0.0168762,1371,386,2.5879,15.2054
154,638,2.58679,-15.1548,-0.000301961,0.000289837,0.000121678,0.000313878,-0.000326002,1.37573,0.000369457,0.0148598,1378,386,2.58674,15.1548
161,638,2.59033,-15.037,-0.000347686,0.000283344,1.80419e-05,0.00028386,-0.000348202,1.54224,0.000365551,0.0183096,1385,386,2.59032,15.037
168,638,2.62317,-14.9307,-0.000432125,0.000294257,7.93179e-05,0.000302817,-0.000440686,1.46329,0.000431715,0.0233923,1392,386,2.62319,14.9307
175,638,2.65198,-14.8753,-0.00055227,0.00041256,0.000190792,0.000448918,-0.000588628,1.38249,0.000600835,0.0196362,1399,386,2.65201,14.8753
182,638,2.60498,-14.7868,-0.000366084,0.000381721,0.00027819,0.000473858,-0.000458221,1.25097,0.000538161,0.0141666,1406,386,2.60502,14.7868
189,638,2.57275,-14.6724,-0.000171232,0.000779615,0.00067814,0.00113238,-0.000524001,1.09112,0.000977579,0.0123822,1413,386,2.57279,14.6724
196,638,2.58337,-14.5518,-0.000444005,0.00102889,0.00099953,0.00153398,-0.000949095,1.1029,0.0014468,0.0144789,1420,386,2.58332,14.5518
203,638,2.56616,-14.4626,-0.000863719,0.000875701,0.00107141,0.00138596,-0.00137398,1.12633,0.00159345,0.0209248,1427,386,2.56614,14.4626
210,638,2.56482,-14.358,-0.00121056,0.000984813,0.00117534,0.00149534,-0.00172108,1.16102,0.00185853,0.0165465,1434,386,2.56485,14.358
217,638,2.5614,-14.2281,-0.00134937,0.00118899,0.00118218,0.00165427,-0.00181465,1.19584,0.0020035,0.0112901,1441,386,2.56141,14.2281
224,638,2.53943,-14.0915,-0.00133355,0.00150701,0.00128292,0.00200065,-0.00182718,1.20348,0.00221075,0.0101219,1448,386,2.5394,14.0915
231,638,2.51868,-13.9576,-0.00116104,0.00184286,0.00144436,0.00242466,-0.00174284,1.18787,0.00241682,0.0117904,1455,386,2.51871,13.9576
238,638,2.50415,-13.8149,-0.00094934,0.0024275,0.0016704,0.00311415,-0.001636,1.18078,0.00278641,0.0125576,1462,386,2.50421,13.8149
245,638,2.49768,-13.6475,-0.000887018,0.00283463,0.00171995,0.00350775,-0.00156015,1.19776,0.00299711,0.0139734,1469,386,2.49763,13.6475
252,638,2.47253,-13.4951,-0.000671892,0.00351946,0.001876,0.00423648,-0.00138891,1.20572,0.00338368,0.0154819,1476,386,2.47256,13.4951
259,638,2.46533,-13.3575,-0.000189262,0.00483499,0.0020949,0.00559385,-0.000948129,1.22326,0.00408215,0.0142926,1483,386,2.46537,13.3575
266,638,2.45044,-13.2191,0.000232694,0.00755544,0.0025124,0.00833454,-0.000546407,1.2701,0.00574716,0.0106644,1490,386,2.45038,13.2191
273,638,2.44373,-13.0849,0.000249749,0.0124035,0.00299786,0.0131027,-0.000449481,1.34165,0.00888874,0.0110724,1497,386,2.44372,13.0849
280,638,2.495,-12.843,0.000161958,0.0169734,0.00345958,0.0176575,-0.000522142,1.37557,0.0119495,0.0227948,1504,386,2.49501,12.8431
287,638,2.69812,-12.4572,5.49771e-05,0.0218447,0.00417673,0.0226179,-0.000718196,1.38775,0.0153236,0.0398889,1511,386,2.69808,12.4572
294,638,2.52661,-12.658,-0.000211111,0.0280099,0.00488691,0.0288322,-0.0010334,1.40409,0.019575,0.0474169,1518,386,2.52667,12.658
301,638,2.39551,-12.2489,0,0,0,0,0,0,0,-1,1525,386,2.39547,12.2489
308,638,2.11597,-11.6489,-0.00120505,0.0424487,0.00669947,0.0434537,-0.00221007,1.42189,0.0297332,0.048761,1532,386,2.11598,11.6489
315,638,2.31372,-10.963,-0.00215988,0.0490359,0.00749686,0.0501111,-0.0032351,1.42834,0.0345363,0.0426836,1539,386,2.31374,10.963
322,638,2.35144,-10.2696,-0.00330772,0.0554178,0.00842013,0.0566012,-0.00449116,1.43116,0.0393168,0.041985,1546,386,2.35139,10.2696
329,638,2.22571,-9.45724,-0.004641,0.0608727,0.00909993,0.0621132,-0.0058815,1.43531,0.0435021,0.0446394,1553,386,2.22566,9.45725
336,638,2.09827,-8.26544,0,0,0,0,0,0,0,-1,1560,386,2.09829,8.26543
343,638,1.04028,-10.3387,0,0,0,0,0,0,0,-1,1567,386,1.04031,10.3387
350,638,2.3783,-11.33,0,0,0,0,0,0,0,-1,1574,386,2.37831,11.33
357,638,0.130371,-3.02618,0,0,0,0,0,0,0,-1,1581,386,0.130345,3.0262
364,638,3.78149,-6.45215,0,0,0,0,0,0,0,-1,1588,386,3.78155,6.45216
371,638,4.18604,-6.71164,0,0,0,0,0,0,0,-1,1595,386,4.18598,6.71164
378,638,4.59045,-6.97113,0,0,0,0,0,0,0,-1,1602,386,4.5904,6.97112
385,638,0,0,0,0,0,0,0,0,0,-1,1609,386,0,0
392,638,0,0,0,0,0,0,0,0,0,-1,1616,386,0,0
399,638,0,0,0,0,0,0,0,0,0,-1,1623,386,0,0
406,638,0,0,0,0,0,0,0,0,0,-1,1630,386,0,0
413,638,0,0,0,0,0,0,0,0,0,-1,1637,386,0,0
420,638,0,0,0,0,0,0,0,0,0,-1,1644,386,0,0
427,638,0,0,0,0,0,0,0,0,0,-1,1651,386,0,0
434,638,0,0,0,0,0,0,0,0,0,-1,1658,386,0,0
441,638,0,0,0,0,0,0,0,0,0,-1,1665,386,0,0
448,638,0,0,0,0,0,0,0,0,0,-1,1672,386,0,0
455,638,0,0,0,0,0,0,0,0,0,-1,1679,386,0,0
462,638,0,0,0,0,0,0,0,0,0,-1,1686,386,0,0
469,638,0,0,0,0,0,0,0,0,0,-1,1693,386,0,0
476,638,0,0,0,0,0,0,0,0,0,-1,1700,386,0,0
483,638,0,0,0,0,0,0,0,0,0,-1,1707,386,0,0
490,638,0,0,0,0,0,0,0,0,0,-1,1714,386,0,0
497,638,0,0,0,0,0,0,0,0,0,-1,1721,386,0,0
504,638,0,0,0,0,0,0,0,0,0,-1,1728,386,0,0
511,638,0,0,0,0,0,0,0,0,0,-1,1735,386,0,0
518,638,0,0,0,0,0,0,0,0,0,-1,1742,386,0,0
525,638,0,0,0,0,0,0,0,0,0,-1,1749,386,0,0
532,638,0,0,0,0,0,0,0,0,0,-1,1756,386,0,0
539,638,0,0,0,0,0,0,0,0,0,-1,1763,386,0,0
546,638,0,0,0,0,0,0,0,0,0,-1,1770,386,0,0
553,638,0,0,0,0,0,0,0,0,0,-1,1777,386,0,0
560,638,0,0,0,0,0,0,0,0,0,-1,1784,386,0,0
567,638,0,0,0,0,0,0,0,0,0,-1,1791,386,0,0
574,638,0,0,0,0,0,0,0,0,0,-1,1798,386,0,0
581,638,0,0,0,0,0,0,0,0,0,-1,1805,386,0,0
588,638,0,0,0,0,0,0,0,0,0,-1,1812,386,0,0
595,638,0,0,0,0,0,0,0,0,0,-1,1819,386,0,0
602,638,0,0,0,0,0,0,0,0,0,-1,1826,386,0,0
609,638,0,0,0,0,0,0,0,0,0,-1,1833,386,0,0
616,638,0,0,0,0,0,0,0,0,0,-1,1840,386,0,0
623,638,0,0,0,0,0,0,0,0,0,-1,1847,386,0,0
630,638,0,0,0,0,0,0,0,0,0,-1,1854,386,0,0
637,638,0,0,0,0,0,0,0,0,0,-1,1861,386,0,0
644,638,0,0,0,0,0,0,0,0,0,-1,1868,386,0,0
651,638,0,0,0,0,0,0,0,0,0,-1,1875,386,0,0
658,638,0,0,0,0,0,0,0,0,0,-1,1882,386,0,0
665,638,0,0,0,0,0,0,0,0,0,-1,1889,386,0,0
672,638,0,0,0,0,0,0,0,0,0,-1,1896,386,0,0
679,638,0,0,0,0,0,0,0,0,0,-1,1903,386,0,0
686,638,0,0,0,0,0,0,0,0,0,-1,1910,386,0,0
693,638,0,0,0,0,0,0,0,0,0,-1,1917,386,0,0
700,638,0,0,0,0,0,0,0,0,0,-1,1924,386,0,0
707,638,0,0,0,0,0,0,0,0,0,-1,1931,386,0,0
714,638,0,0,0,0,0,0,0,0,0,-1,1938,386,0,0
721,638,0,0,0,0,0,0,0,0,0,-1,1945,386,0,0
728,638,0,0,0,0,0,0,0,0,0,-1,1952,386,0,0
735,638,0,0,0,0,0,0,0,0,0,-1,1959,386,0,0
742,638,0,0,0,0,0,0,0,0,0,-1,1966,386,0,0
749,638,0,0,0,0,0,0,0,0,0,-1,1973,386,0,0
756,638,0,0,0,0,0,0,0,0,0,-1,1980,386,0,0
763,638,0,0,0,0,0,0,0,0,0,-1,1987,386,0,0
770,638,0,0,0,0,0,0,0,0,0,-1,1994,386,0,0
777,638,0,0,0,0,0,0,0,0,0,-1,2001,386,0,0
784,638,0,0,0,0,0,0,0,0,0,-1,2008,386,0,0
791,638,0,0,0,0,0,0,0,0,0,-1,2015,386,0,0
798,638,0,0,0,0,0,0,0,0,0,-1,2022,386,0,0
805,638,0,0,0,0,0,0,0,0,0,-1,2029,386,0,0
812,638,0,0,0,0,0,0,0,0,0,-1,2036,386,0,0
-700,631,0,0,0,0,0,0,0,0,0,-1,524,393,0,0
-693,631,0,0,0,0,0,0,0,0,0,-1,531,393,0,0
-686,631,0,0,0,0,0,0,0,0,0,-1,538,393,0,0
-679,631,0,0,0,0,0,0,0,0,0,-1,545,393,0,0
-672,631,0,0,0,0,0,0,0,0,0,-1,552,393,0,0
-665,631,0,0,0,0,0,0,0,0,0,-1,559,393,0,0
-658,631,0,0,0,0,0,0,0,0,0,-1,566,393,0,0
-651,631,0,0,0,0,0,0,0,0,0,-1,573,393,0,0
-644,631,0,0,0,0,0,0,0,0,0,-1,580,393,0,0
-637,631,0,0,0,0,0,0,0,0,0,-1,587,393,0,0
-630,631,0,0,0,0,0,0,0,0,0,-1,594,393,0,0
-623,631,0,0,0,0,0,0,0,0,0,-1,601,393,0,0
-616,631,0,0,0,0,0,0,0,0,0,-1,608,393,0,0
-609,631,0,0,0,0,0,0,0,0,0,-1,615,393,0,0
-602,631,0,0,0,0,0,0,0,0,0,-1,622,393,0,0
-595,631,0,0,0,0,0,0,0,0,0,-1,629,393,0,0
-588,631,0,0,0,0,0,0,0,0,0,-1,636,393,0,0
-581,631,0,0,0,0,0,0,0,0,0,-1,643,393,0,0
-574,631,0,0,0,0,0,0,0,0,0,-1,650,393,0,0
-567,631,0,0,0,0,0,0,0,0,0,-1,657,393,0,0
-560,631,0,0,0,0,0,0,0,0,0,-1,664,393,0,0
-553,631,0,0,0,0,0,0,0,0,0,-1,671,393,0,0
-546,631,0,0,0,0,0,0,0,0,0,-1,678,393,0,0
-539,631,0,0,0,0,0,0,0,0,0,-1,685,393,0,0
-532,631,0,0,0,0,0,0,0,0,0,-1,692,393,0,0
-525,631,0,0,0,0,0,0,0,0,0,-1,699,393,0,0
-518,631,0,0,0,0,0,0,0,0,0,-1,706,393,0,0
-511,631,0,0,0,0,0,0,0,0,0,-1,713,393,0,0
-504,631,0,0,0,0,0,0,0,0,0,-1,720,393,0,0
-497,631,0,0,0,0,0,0,0,0,0,-1,727,393,0,0
-490,631,0,0,0,0,0,0,0,0,0,-1,734,393,0,0
-483,631,0,0,0,0,0,0,0,0,0,-1,741,393,0,0
-476,631,0,0,0,0,0,0,0,0,0,-1,748,393,0,0
-469,631,0,0,0,0,0,0,0,0,0,-1,755,393,0,0
-462,631,0,0,0,0,0,0,0,0,0,-1,762,393,0,0
-455,631,0,0,0,0,0,0,0,0,0,-1,769,393,0,0
-448,631,0,0,0,0,0,0,0,0,0,-1,776,393,0,0
-441,631,0,0,0,0,0,0,0,0,0,-1,783,393,0,0
-434,631,0,0,0,0,0,0,0,0,0,-1,790,393,0,0
-427,631,0,0,0,0,0,0,0,0,0,-1,797,393,0,0
-420,631,0,0,0,0,0,0,0,0,0,-1,804,393,0,0
-413,631,0,0,0,0,0,0,0,0,0,-1,811,393,0,0
-406,631,0,0,0,0,0,0,0,0,0,-1,818,393,0,0
-399,631,0,0,0,0,0,0,0,0,0,-1,825,393,0,0
-392,631,0,0,0,0,0,0,0,0,0,-1,832,393,0,0
-385,631,0,0,0,0,0,0,0,0,0,-1,839,393,0,0
-378,631,0,0,0,0,0,0,0,0,0,-1,846,393,0,0
-371,631,0,0,0,0,0,0,0,0,0,-1,853,393,0,0
-364,631,0,0,0,0,0,0,0,0,0,-1,860,393,0,0
-357,631,0,0,0,0,0,0,0,0,0,-1,867,393,0,0
-350,631,0,0,0,0,0,0,0,0,0,-1,874,393,0,0
-343,631,0,0,0,0,0,0,0,0,0,-1,881,393,0,0
-336,631,0,0,0,0,0,0,0,0,0,-1,888,393,0,0
-329,631,0,0,0,0,0,0,0,0,0,-1,895,393,0,0
-322,631,0,0,0,0,0,0,0,0,0,-1,902,393,0,0
-315,631,0,0,0,0,0,0,0,0,0,-1,909,393,0,0
-308,631,0,0,0,0,0,0,0,0,0,-1,916,393,0,0
-301,631,0,0,0,0,0,0,0,0,0,-1,923,393,0,0
-294,631,0,0,0,0,0,0,0,0,0,-1,930,393,0,0
-287,631,0,0,0,0,0,0,0,0,0,-1,937,393,0,0
-280,631,1.38763,-14.3453,0,0,0,0,0,0,0,-1,944,393,1.38762,14.3453
-273,631,2.6192,-11.8094,0,0,0,0,0,0,0,-1,951,393,2.61918,11.8094
-266,631,0.616394,-9.4404,0,0,0,0,0,0,0,-1,958,393,0.616411,9.4404
-259,631,2.45807,-11.2975,0,0,0,0,0,0,0,-1,965,393,2.45806,11.2975
-252,631,2.30499,-11.6927,0,0,0,0,0,0,0,-1,972,393,2.305,11.6926
-245,631,2.3136,-12.1691,0,0,0,0,0,0,0,-1,979,393,2.31359,12.1691
-238,631,4.40826,-11.8533,0,0,0,0,0,0,0,-1,986,393,4.40829,11.8533
-231,631,5.26642,-12.2423,0,0,0,0,0,0,0,-1,993,393,5.26643,12.2423
-224,631,3.33148,-11.726,0,0,0,0,0,0,0,-1,1000,393,3.33146,11.726
-217,631,2.8056,-11.3224,0,0,0,0,0,0,0,-1,1007,393,2.80559,11.3224
-210,631,2.72064,-11.8348,0,0,0,0,0,0,0,-1,1014,393,2.72064,11.8348
-203,631,2.84418,-12.1264,0,0,0,0,0,0,0,-1,1021,393,2.84417,12.1264
-196,631,2.55859,-12.7658,0.0197789,0.0479156,-0.0376751,0.0740633,-0.00636875,-0.964087,0.0516296,0.0484746,1028,393,2.55861,12.7658
-189,631,2.50806,-12.3556,0.0156547,0.0323499,-0.0283292,0.0535357,-0.00553117,-0.928676,0.0376698,0.0442116,1035,393,2.50804,12.3556
-182,631,2.4043,-13.0684,0.0124028,0.0207477,-0.0207652,0.0377555,-0.00460499,-0.884546,0.0268373,0.0412981,1042,393,2.40428,13.0684
-175,631,2.62427,-13.2274,0.0100792,0.0111405,-0.0145784,0.0251979,-0.00397818,-0.803589,0.0182696,0.0331889,1049,393,2.62427,13.2274
-168,631,2.73352,-13.3554,0.00732107,0.00207255,-0.00817335,0.0132811,-0.0038875,-0.630059,0.0103951,0.0175017,1056,393,2.73352,13.3554
-161,631,2.7146,-13.5273,0.00520065,-0.00411554,-0.00332201,0.00626388,-0.00517878,-0.309755,0.00661632,0.00912829,1063,393,2.71465,13.5273
-154,631,2.70508,-13.6729,0.00428157,-0.00539572,-0.0015917,0.00453665,-0.00565079,-0.158902,0.00589343,0.00938936,1070,393,2.70509,13.6729
-147,631,2.70801,-13.8097,0.00389951,-0.00281067,-0.00187922,0.00438995,-0.0033011,-0.255286,0.00445524,0.0100928,1077,393,2.70801,13.8097
-140,631,2.69592,-13.9598,0.0034286,-0.000177587,-0.00217765,0.00445275,-0.00120174,-0.439607,0.00343978,0.00930445,1084,393,2.69588,13.9598
-133,631,2.672,-14.1006,0.00299803,0.00165795,-0.00229346,0.00471732,-6.13423e-05,-0.643277,0.00316553,0.00834148,1091,393,2.672,14.1005
-126,631,2.67322,-14.2106,0.00251143,0.00434451,-0.00247633,0.00606847,0.000787472,-0.962641,0.00381038,0.0120808,1098,393,2.67316,14.2106
-119,631,2.6582,-14.3202,0.001852,0.00604622,-0.00266304,0.00733875,0.000559473,-1.11893,0.00471708,0.0156634,1105,393,2.65824,14.3202
-112,631,2.62952,-14.44,0.00147856,0.00706763,-0.00280832,0.00823492,0.000311264,-1.17687,0.00538919,0.0151924,1112,393,2.62956,14.44
-105,631,2.63196,-14.5583,0.00123941,0.00741548,-0.00274246,0.00845746,0.000197424,-1.2077,0.00557366,0.0192133,1119,393,2.63191,14.5584
-98,631,2.61145,-14.6869,0.00102819,0.0075196,-0.00262872,0.00845059,9.72021e-05,-1.23042,0.00560161,0.01521,1126,393,2.61147,14.6869
-91,631,2.60059,-14.7914,0.00088276,0.00721448,-0.00245073,0.00805222,4.50271e-05,-1.24142,0.0053532,0.0153001,1133,393,2.60059,14.7914
-84,631,2.60974,-14.8832,0.000704254,0.00667926,-0.00215827,0.00737732,6.20168e-06,-1.25798,0.00491614,0.0144081,1140,393,2.60978,14.8832
-77,631,2.60706,-14.9825,0.000475126,0.00555036,-0.00171025,0.00607288,-4.73978e-05,-1.27428,0.00406448,0.00995228,1147,393,2.60701,14.9826
-70,631,2.61108,-15.0398,0.000340441,0.00453909,-0.0013594,0.00494079,-6.12584e-05,-1.28347,0.00331447,0.0114842,1154,393,2.61106,15.0398
-63,631,2.59863,-15.1218,0.000363444,0.00359471,-0.00106555,0.00391445,4.37041e-05,-1.27928,0.00259519,0.0120686,1161,393,2.59865,15.1218
-56,631,2.58374,-15.2115,0.000402367,0.00259703,-0.000810173,0.0028637,0.00013569,-1.25281,0.00186555,0.0128652,1168,393,2.58374,15.2115
-49,631,2.57813,-15.2758,0.000300877,0.00139086,-0.000369616,0.00150437,0.000187361,-1.27282,0.000946662,0.0102337,1175,393,2.57814,15.2758
-42,631,2.58081,-15.3376,0.000262647,0.000484989,-8.22737e-05,0.000512122,0.000235514,-1.25224,0.000295991,0.00840892,1182,393,2.5808,15.3376
-35,631,2.58411,-15.3983,0.000350364,-0.000219097,0.000114315,0.000372455,-0.000241188,0.190893,0.000356979,0.00977168,1189,393,2.58412,15.3984
-28,631,2.5791,-15.4515,0.000349083,-0.000610322,0.000190874,0.000385663,-0.000646902,0.189348,0.000602477,0.0122248,1196,393,2.57913,15.4515
-21,631,2.56873,-15.5094,0.000329091,-0.000842921,0.000271713,0.000389019,-0.000902849,0.217081,0.000765273,0.0110478,1203,393,2.56872,15.5094
-14,631,2.56201,-15.5723,0.000313786,-0.0010517,0.000383688,0.000414213,-0.00115212,0.255998,0.00093718,0.0132379,1210,393,2.56196,15.5723
-7,631,2.56982,-15.6309,0.00031441,-0.00117949,0.000431612,0.000430144,-0.00129523,0.26198,0.00103704,0.0204266,1217,393,2.56981,15.6309
0,631,2.57507,-15.6616,0.000320145,-0.0012676,0.000480153,0.000454056,-0.00140151,0.27198,0.00111689,0.0220551,1224,393,2.57505,15.6616
7,631,2.57544,-15.659,0.000282663,-0.0012673,0.00053754,0.000450839,-0.00143547,0.303215,0.00113745,0.0181585,1231,393,2.57539,15.659
14,631,2.5813,-15.6942,0.000473684,-0.00120915,0.000408521,0.000567613,-0.00130308,0.225996,0.00110752,0.0110511,1238,393,2.58134,15.6941
21,631,2.60535,-15.718,0.000746304,-0.000713058,0.000210084,0.000775945,-0.000742699,0.140165,0.000876859,0.0124535,1245,393,2.60539,15.718
28,631,2.61694,-15.7243,0.00101984,-9.81143e-05,3.13994e-05,0.00102072,-9.89955e-05,0.028057,0.000715765,0.0129806,1252,393,2.61693,15.7243
35,631,2.62219,-15.7361,0.00121064,0.000650003,-0.000202086,0.00127589,0.000584753,-0.312313,0.000737488,0.0131286,1259,393,2.6222,15.7361
42,631,2.62915,-15.7536,0.00131628,0.00154872,-0.000534767,0.00197975,0.000885252,-0.892397,0.00114514,0.0131348,1266,393,2.62912,15.7536
49,631,2.63074,-15.7415,0.00153658,0.00232203,-0.000746384,0.00277271,0.00108591,-1.02758,0.0016133,0.0115778,1273,393,2.63068,15.7415
56,631,2.63867,-15.7607,0.00164998,0.00327581,-0.000897217,0.00367361,0.00125218,-1.15347,0.00215647,0.0126089,1280,393,2.63862,15.7607
63,631,2.63342,-15.7804,0.00156923,0.00435158,-0.00104324,0.00469929,0.00122152,-1.24908,0.00281545,0.0143406,1287,393,2.63343,15.7804
70,631,2.6405,-15.7477,0.00143997,0.00518833,-0.00100147,0.00543911,0.00118918,-1.32542,0.00330185,0.0144846,1294,393,2.64055,15.7477
77,631,2.65442,-15.7103,0.00133685,0.00569117,-0.000876747,0.00586108,0.00116694,-1.37938,0.00358233,0.0148955,1301,393,2.65447,15.7103
84,631,2.65662,-15.6893,0.0011497,0.00595467,-0.000894472,0.00611578,0.000988588,-1.39259,0.00379087,0.0123666,1308,393,2.65667,15.6893
91,631,2.65845,-15.653,0.000800167,0.00602596,-0.000953022,0.00619433,0.00063179,-1.39592,0.0039359,0.0147265,1315,393,2.65843,15.6531
98,631,2.65735,-15.6202,0.000389449,0.00584124,-0.000869412,0.00597653,0.000254159,-1.41642,0.00390239,0.0132089,1322,393,2.6574,15.6202
105,631,2.64075,-15.5753,0.000117853,0.00539844,-0.000777641,0.00551057,5.71529e-06,-1.42758,0.00367181,0.0110973,1329,393,2.64081,15.5753
112,631,2.65759,-15.5189,4.57388e-05,0.00463369,-0.000732508,0.0047478,-6.83747e-05,-1.41625,0.00318824,0.0108178,1336,393,2.65761,15.5189
119,631,2.67419,-15.4762,-0.000106085,0.00374819,-0.000612345,0.00384314,-0.000201032,-1.41697,0.00263166,0.0112604,1343,393,2.67425,15.4762
126,631,2.66968,-15.3913,-0.00012144,0.00258607,-0.000641821,0.00273051,-0.00026588,-1.34944,0.00191513,0.0158906,1350,393,2.66967,15.3913
133,631,2.69299,-15.311,4.81249e-06,0.00155854,-0.000794308,0.00189273,-0.000329379,-1.17255,0.00138473,0.0170815,1357,393,2.69301,15.311
140,631,2.68689,-15.2756,0.000241977,0.000721214,-0.000883836,0.00139734,-0.000434147,-0.917772,0.00110508,0.0180951,1364,393,2.68695,15.2756
147,631,2.67249,-15.2264,0.000479794,5.50422e-05,-0.000885173,0.00117771,-0.000642876,-0.667661,0.00106613,0.020597,1371,393,2.67244,15.2264
154,631,2.65759,-15.1634,0.000522474,-0.000222085,-0.000945179,0.00116605,-0.000865658,-0.597792,0.00117727,0.0193118,1378,393,2.65753,15.1634
161,631,2.69055,-15.0432,0.000544133,-0.000488732,-0.000928864,0.00109047,-0.00103507,-0.531686,0.00122733,0.0224207,1385,393,2.69061,15.0433
168,631,2.72754,-14.9378,0.000479319,-0.000647853,-0.000772173,0.000871704,-0.00104024,-0.470152,0.00110529,0.0281531,1392,393,2.72758,14.9378
175,631,2.70605,-14.8748,0.000280433,-0.000392556,-0.00062301,0.000652013,-0.000764136,-0.537789,0.000818468,0.021188,1399,393,2.70606,14.8748
182,631,2.67737,-14.7835,0.00014915,-4.33411e-05,-0.00043614,0.000499538,-0.000393729,-0.676801,0.000516933,0.0119172,1406,393,2.67738,14.7835
189,631,2.6759,-14.6737,5.75481e-05,0.000241626,-0.000113682,0.000295857,3.31724e-06,-1.12569,0.000196141,0.0115988,1413,393,2.67592,14.6737
196,631,2.6825,-14.5766,-0.000105605,0.00048556,0.000183923,0.00053811,-0.000158156,1.29249,0.000421469,0.0120422,1420,393,2.68248,14.5766
203,631,2.69934,-14.4877,-0.000363575,0.000526209,0.000327379,0.000633681,-0.000471047,1.2536,0.000640115,0.0137417,1427,393,2.69933,14.4877
210,631,2.68188,-14.3849,-0.000665348,0.000716277,0.000497828,0.000876965,-0.000826037,1.25857,0.000983375,0.0150575,1434,393,2.68189,14.3849
217,631,2.66614,-14.2513,-0.000836004,0.000975176,0.000606702,0.00115962,-0.00102045,1.27566,0.00125952,0.0154123,1441,393,2.66618,14.2513
224,631,2.65271,-14.1099,-0.000859925,0.00127519,0.000760113,0.00151815,-0.00110288,1.26143,0.00151957,0.0121276,1448,393,2.65271,14.1099
231,631,2.64417,-13.9832,-0.000739998,0.00159956,0.000965925,0.00194681,-0.00108725,1.22568,0.001775,0.0109535,1455,393,2.64413,13.9832
238,631,2.64124,-13.8111,-0.00058459,0.002137,0.00122234,0.00260538,-0.00105297,1.20487,0.00217461,0.0170553,1462,393,2.64125,13.8111
245,631,2.63171,-13.6555,-0.000553312,0.00249065,0.00133546,0.00299349,-0.00105615,1.21069,0.0024256,0.0190692,1469,393,2.63175,13.6555
252,631,2.60803,-13.532,-0.000407786,0.0030566,0.00153113,0.0036363,-0.000987489,1.20886,0.00281177,0.019166,1476,393,2.60801,13.532
259,631,2.59631,-13.3831,-6.84563e-05,0.00409434,0.00175862,0.00473782,-0.000711938,1.22003,0.00342064,0.0131519,1483,393,2.5963,13.3831
266,631,2.60461,-13.2314,0.000197543,0.00617445,0.00210905,0.00684372,-0.000471729,1.26351,0.00472757,0.0107633,1490,393,2.60464,13.2313
273,631,2.59021,-13.0659,0.000170896,0.00980353,0.00248223,0.0104056,-0.000431124,1.33286,0.00708512,0.0135142,1497,393,2.5902,13.066
280,631,2.57275,-12.9148,7.73805e-05,0.0131581,0.00285602,0.0137545,-0.000519004,1.36494,0.00934749,0.0126448,1504,393,2.57272,12.9148
287,631,2.58459,-12.7428,-2.68443e-05,0.0166614,0.00340789,0.0173305,-0.000695941,1.37692,0.0117925,0.0145274,1511,393,2.58455,12.7428
294,631,2.57336,-12.5252,-0.000234341,0.0211241,0.00394095,0.0218281,-0.000938304,1.39403,0.0148747,0.0189468,1518,393,2.57336,12.5252
301,631,2.54065,-12.281,-0.000508515,0.0261911,0.00458595,0.0269568,-0.00127424,1.40535,0.0184106,0.0276251,1525,393,2.54064,12.281
308,631,2.57776,-11.9526,-0.000931005,0.0315559,0.00531497,0.0324033,-0.00177845,1.41268,0.0222188,0.0318895,1532,393,2.57777,11.9526
315,631,2.52954,-11.8439,-0.00156744,0.0363149,0.00595854,0.03723,-0.00248256,1.41841,0.0256876,0.0347572,1539,393,2.52953,11.8439
322,631,2.34131,-11.8294,-0.00229045,0.0408563,0.00669244,0.0418705,-0.00330466,1.42039,0.0290779,0.0399411,1546,393,2.34132,11.8294
329,631,3.36597,-9.24792,0,0,0,0,0,0,0,-1,1553,393,3.36601,9.24791
336,631,2.85583,-11.7161,0,0,0,0,0,0,0,-1,1560,393,2.8558,11.7161
343,631,2.39612,-6.96481,0,0,0,0,0,0,0,-1,1567,393,2.39608,6.96482
350,631,2.1344,-9.23401,0,0,0,0,0,0,0,-1,1574,393,2.13439,9.23401
357,631,2.6449,-9.60303,0,0,0,0,0,0,0,-1,1581,393,2.64491,9.60304
364,631,3.39136,-5.7594,0,0,0,0,0,0,0,-1,1588,393,3.39137,5.75939
371,631,3.72839,-6.0574,0,0,0,0,0,0,0,-1,1595,393,3.72845,6.05742
378,631,4.06555,-6.35544,0,0,0,0,0,0,0,-1,1602,393,4.06553,6.35544
385,631,3.90442,-3.58298,0,0,0,0,0,0,0,-1,1609,393,3.90437,3.58299
392,631,0.352295,-2.21301,0,0,0,0,0,0,0,-1,1616,393,0.352345,2.213
399,631,0,0,0,0,0,0,0,0,0,-1,1623,393,0,0
406,631,0,0,0,0,0,0,0,0,0,-1,1630,393,0,0
413,631,0,0,0,0,0,0,0,0,0,-1,1637,393,0,0
420,631,0,0,0,0,0,0,0,0,0,-1,1644,393,0,0
427,631,0,0,0,0,0,0,0,0,0,-1,1651,393,0,0
434,631,0,0,0,0,0,0,0,0,0,-1,1658,393,0,0
441,631,0,0,0,0,0,0,0,0,0,-1,1665,393,0,0
448,631,0,0,0,0,0,0,0,0,0,-1,1672,393,0,0
455,631,0,0,0,0,0,0,0,0,0,-1,1679,393,0,0
462,631,0,0,0,0,0,0,0,0,0,-1,1686,393,0,0
469,631,0,0,0,0,0,0,0,0,0,-1,1693,393,0,0
476,631,0,0,0,0,0,0,0,0,0,-1,1700,393,0,0
483,631,0,0,0,0,0,0,0,0,0,-1,1707,393,0,0
490,631,0,0,0,0,0,0,0,0,0,-1,1714,393,0,0
497,631,0,0,0,0,0,0,0,0,0,-1,1721,393,0,0
504,631,0,0,0,0,0,0,0,0,0,-1,1728,393,0,0
511,631,0,0,0,0,0,0,0,0,0,-1,1735,393,0,0
518,631,0,0,0,0,0,0,0,0,0,-1,1742,393,0,0
525,631,0,0,0,0,0,0,0,0,0,-1,1749,393,0,0
532,631,0,0,0,0,0,0,0,0,0,-1,1756,393,0,0
539,631,0,0,0,0,0,0,0,0,0,-1,1763,393,0,0
546,631,0,0,0,0,0,0,0,0,0,-1,1770,393,0,0
553,631,0,0,0,0,0,0,0,0,0,-1,1777,393,0,0
560,631,0,0,0,0,0,0,0,0,0,-1,1784,393,0,0
567,631,0,0,0,0,0,0,0,0,0,-1,1791,393,0,0
574,631,0,0,0,0,0,0,0,0,0,-1,1798,393,0,0
581,631,0,0,0,0,0,0,0,0,0,-1,1805,393,0,0
588,631,0,0,0,0,0,0,0,0,0,-1,1812,393,0,0
595,631,0,0,0,0,0,0,0,0,0,-1,1819,393,0,0
602,631,0,0,0,0,0,0,0,0,0,-1,1826,393,0,0
609,631,0,0,0,0,0,0,0,0,0,-1,1833,393,0,0
616,631,0,0,0,0,0,0,0,0,0,-1,1840,393,0,0
623,631,0,0,0,0,0,0,0,0,0,-1,1847,393,0,0
630,631,0,0,0,0,0,0,0,0,0,-1,1854,393,0,0
637,631,0,0,0,0,0,0,0,0,0,-1,1861,393,0,0
644,631,0,0,0,0,0,0,0,0,0,-1,1868,393,0,0
651,631,0,0,0,0,0,0,0,0,0,-1,1875,393,0,0
658,631,0,0,0,0,0,0,0,0,0,-1,1882,393,0,0
665,631,0,0,0,0,0,0,0,0,0,-1,1889,393,0,0
672,631,0,0,0,0,0,0,0,0,0,-1,1896,393,0,0
679,631,0,0,0,0,0,0,0,0,0,-1,1903,393,0,0
686,631,0,0,0,0,0,0,0,0,0,-1,1910,393,0,0
693,631,0,0,0,0,0,0,0,0,0,-1,1917,393,0,0
700,631,0,0,0,0,0,0,0,0,0,-1,1924,393,0,0
707,631,0,0,0,0,0,0,0,0,0,-1,1931,393,0,0
714,631,0,0,0,0,0,0,0,0,0,-1,1938,393,0,0
721,631,0,0,0,0,0,0,0,0,0,-1,1945,393,0,0
728,631,0,0,0,0,0,0,0,0,0,-1,1952,393,0,0
735,631,0,0,0,0,0,0,0,0,0,-1,1959,393,0,0
742,631,0,0,0,0,0,0,0,0,0,-1,1966,393,0,0
749,631,0,0,0,0,0,0,0,0,0,-1,1973,393,0,0
756,631,0,0,0,0,0,0,0,0,0,-1,1980,393,0,0
763,631,0,0,0,0,0,0,0,0,0,-1,1987,393,0,0
770,631,0,0,0,0,0,0,0,0,0,-1,1994,393,0,0
777,631,0,0,0,0,0,0,0,0,0,-1,2001,393,0,0
784,631,0,0,0,0,0,0,0,0,0,-1,2008,393,0,0
791,631,0,0,0,0,0,0,0,0,0,-1,2015,393,0,0
798,631,0,0,0,0,0,0,0,0,0,-1,2022,393,0,0
805,631,0,0,0,0,0,0,0,0,0,-1,2029,393,0,0
812,631,0,0,0,0,0,0,0,0,0,-1,2036,393,0,0
-700,624,0,0,0,0,0,0,0,0,0,-1,524,400,0,0
-693,624,0,0,0,0,0,0,0,0,0,-1,531,400,0,0
-686,624,0,0,0,0,0,0,0,0,0,-1,538,400,0,0
-679,624,0,0,0,0,0,0,0,0,0,-1,545,400,0,0
-672,624,0,0,0,0,0,0,0,0,0,-1,552,400,0,0
-665,624,0,0,0,0,0,0,0,0,0,-1,559,400,0,0
-658,624,0,0,0,0,0,0,0,0,0,-1,566,400,0,0
-651,624,0,0,0,0,0,0,0,0,0,-1,573,400,0,0
-644,624,0,0,0,0,0,0,0,0,0,-1,580,400,0,0
-637,624,0,0,0,0,0,0,0,0,0,-1,587,400,0,0
-630,624,0,0,0,0,0,0,0,0,0,-1,594,400,0,0
-623,624,0,0,0,0,0,0,0,0,0,-1,601,400,0,0
-616,624,0,0,0,0,0,0,0,0,0,-1,608,400,0,0
-609,624,0,0,0,0,0,0,0,0,0,-1,615,400,0,0
-602,624,0,0,0,0,0,0,0,0,0,-1,622,400,0,0
-595,624,0,0,0,0,0,0,0,0,0,-1,629,400,0,0
-588,624,0,0,0,0,0,0,0,0,0,-1,636,400,0,0
-581,624,0,0,0,0,0,0,0,0,0,-1,643,400,0,0
-574,624,0,0,0,0,0,0,0,0,0,-1,650,400,0,0
-567,624,0,0,0,0,0,0,0,0,0,-1,657,400,0,0
-560,624,0,0,0,0,0,0,0,0,0,-1,664,400,0,0
-553,624,0,0,0,0,0,0,0,0,0,-1,671,400,0,0
-546,624,0,0,0,0,0,0,0,0,0,-1,678,400,0,0
-539,624,0,0,0,0,0,0,0,0,0,-1,685,400,0,0
-532,624,0,0,0,0,0,0,0,0,0,-1,692,400,0,0
-525,624,0,0,0,0,0,0,0,0,0,-1,699,400,0,0
-518,624,0,0,0,0,0,0,0,0,0,-1,706,400,0,0
-511,624,0,0,0,0,0,0,0,0,0,-1,713,400,0,0
-504,624,0,0,0,0,0,0,0,0,0,-1,720,400,0,0
-497,624,0,0,0,0,0,0,0,0,0,-1,727,400,0,0
-490,624,0,0,0,0,0,0,0,0,0,-1,734,400,0,0
-483,624,0,0,0,0,0,0,0,0,0,-1,741,400,0,0
-476,624,0,0,0,0,0,0,0,0,0,-1,748,400,0,0
-469,624,0,0,0,0,0,0,0,0,0,-1,755,400,0,0
-462,624,0,0,0,0,0,0,0,0,0,-1,762,400,0,0
-455,624,0,0,0,0,0,0,0,0,0,-1,769,400,0,0
-448,624,0,0,0,0,0,0,0,0,0,-1,776,400,0,0
-441,624,0,0,0,0,0,0,0,0,0,-1,783,400,0,0
-434,624,0,0,0,0,0,0,0,0,0,-1,790,400,0,0
-427,624,0,0,0,0,0,0,0,0,0,-1,797,400,0,0
-420,624,0,0,0,0,0,0,0,0,0,-1,804,400,0,0
-413,624,0,0,0,0,0,0,0,0,0,-1,811,400,0,0
-406,624,0,0,0,0,0,0,0,0,0,-1,818,400,0,0
-399,624,0,0,0,0,0,0,0,0,0,-1,825,400,0,0
-392,624,0,0,0,0,0,0,0,0,0,-1,832,400,0,0
-385,624,0,0,0,0,0,0,0,0,0,-1,839,400,0,0
-378,624,0,0,0,0,0,0,0,0,0,-1,846,400,0,0
-371,624,0,0,0,0,0,0,0,0,0,-1,853,400,0,0
-364,624,0,0,0,0,0,0,0,0,0,-1,860,400,0,0
-357,624,0,0,0,0,0,0,0,0,0,-1,867,400,0,0
-350,624,0,0,0,0,0,0,0,0,0,-1,874,400,0,0
-343,624,0,0,0,0,0,0,0,0,0,-1,881,400,0,0
-336,624,0,0,0,0,0,0,0,0,0,-1,888,400,0,0
-329,624,0,0,0,0,0,0,0,0,0,-1,895,400,0,0
-322,624,0,0,0,0,0,0,0,0,0,-1,902,400,0,0
-315,624,0,0,0,0,0,0,0,0,0,-1,909,400,0,0
-308,624,0,0,0,0,0,0,0,0,0,-1,916,400,0,0
-301,624,0,0,0,0,0,0,0,0,0,-1,923,400,0,0
-294,624,-0.912903,-12.9461,0,0,0,0,0,0,0,-1,930,400,-0.912926,12.9461
-287,624,0.12146,-15.0862,0,0,0,0,0,0,0,-1,937,400,0.121451,15.0862
-280,624,1.44836,-13.0475,0,0,0,0,0,0,0,-1,944,400,1.44835,13.0475
-273,624,2.56573,-11.0646,0,0,0,0,0,0,0,-1,951,400,2.56571,11.0646
-266,624,2.95892,-10.1088,0,0,0,0,0,0,0,-1,958,400,2.95894,10.1088
-259,624,2.82288,-10.7653,0,0,0,0,0,0,0,-1,965,400,2.8229,10.7653
-252,624,2.68091,-11.3355,0,0,0,0,0,0,0,-1,972,400,2.68091,11.3355
-245,624,2.61658,-11.9431,0,0,0,0,0,0,0,-1,979,400,2.61655,11.9431
-238,624,2.13501,-11.8962,0,0,0,0,0,0,0,-1,986,400,2.13503,11.8962
-231,624,2.3869,-11.1649,0,0,0,0,0,0,0,-1,993,400,2.3869,11.1649
-224,624,2.4989,-11.3828,0,0,0,0,0,0,0,-1,1000,400,2.49889,11.3828
-217,624,2.7793,-11.9152,0,0,0,0,0,0,0,-1,1007,400,2.77928,11.9152
-210,624,2.64337,-12.0982,0.0213309,0.0569456,-0.0406833,0.0835481,-0.0052716,-0.99169,0.0575365,0.0464464,1014,400,2.64338,12.0982
-203,624,2.68286,-12.3294,0.0175895,0.0448034,-0.0334485,0.0673067,-0.00491385,-0.978577,0.0465956,0.0396541,1021,400,2.68287,12.3294
-196,624,2.67566,-12.5334,0.0141694,0.0332268,-0.0263671,0.0517341,-0.00433793,-0.958789,0.0360226,0.0350071,1028,400,2.6757,12.5334
-189,624,2.62659,-12.7242,0.0110632,0.0223812,-0.0198346,0.0373482,-0.00390386,-0.924362,0.0262969,0.0314317,1035,400,2.62659,12.7242
-182,624,2.56091,-13.0266,0.00864817,0.0143923,-0.0146383,0.0264377,-0.00339719,-0.882269,0.0188598,0.0258669,1042,400,2.56097,13.0266
-175,624,2.60779,-13.224,0.00704365,0.00773761,-0.0104195,0.0178159,-0.00303462,-0.802042,0.0130073,0.0174398,1049,400,2.60776,13.224
-168,624,2.61389,-13.3851,0.00517003,0.00151364,-0.00602288,0.00963606,-0.0029524,-0.638047,0.00760175,0.0115689,1056,400,2.61395,13.3851
-161,624,2.58716,-13.5596,0.0037425,-0.00250337,-0.00278959,0.00480699,-0.00356786,-0.364539,0.00485283,0.0104261,1063,400,2.58712,13.5596
-154,624,2.5752,-13.6931,0.00312751,-0.00338484,-0.00157368,0.00348784,-0.00374517,-0.225096,0.00417687,0.0100691,1070,400,2.57518,13.6931
-147,624,2.57324,-13.8248,0.00284643,-0.00186395,-0.0016052,0.00334143,-0.00235895,-0.299122,0.00330737,0.0105217,1077,400,2.57327,13.8248
-140,624,2.56104,-13.9664,0.00254788,-0.000203526,-0.00170646,0.0033641,-0.00101975,-0.446151,0.00264891,0.00974439,1084,400,2.56101,13.9664
-133,624,2.53638,-14.0934,0.00226431,0.000912488,-0.0016912,0.00340966,-0.000232866,-0.59529,0.00235457,0.0109168,1091,400,2.53637,14.0934
-126,624,2.53479,-14.2052,0.00188857,0.002715,-0.00171286,0.00406378,0.000539782,-0.903759,0.00254839,0.0128555,1098,400,2.53482,14.2052
-119,624,2.52478,-14.3275,0.0014339,0.00390771,-0.00182595,0.00487626,0.00046535,-1.0831,0.00310736,0.0151354,1105,400,2.52478,14.3275
-112,624,2.51331,-14.4488,0.00120516,0.00458355,-0.00190948,0.00544377,0.000344945,-1.14753,0.00351983,0.0176615,1112,400,2.51331,14.4488
-105,624,2.52844,-14.5647,0.00109931,0.00477693,-0.00184273,0.00554137,0.000334876,-1.17756,0.00358783,0.01326,1119,400,2.52849,14.5647
-98,624,2.5155,-14.6857,0.00102337,0.00478868,-0.00175059,0.00547681,0.000335232,-1.19626,0.00354475,0.0129446,1126,400,2.51556,14.6857
-91,624,2.49841,-14.7842,0.000991303,0.00450278,-0.00161093,0.00512984,0.000364244,-1.19959,0.00330517,0.0171044,1133,400,2.49847,14.7842
-84,624,2.51611,-14.8835,0.000944852,0.00399848,-0.0013664,0.00452062,0.000422713,-1.20579,0.00288319,0.0155172,1140,400,2.51615,14.8835
-77,624,2.5304,-14.9838,0.000886458,0.00319772,-0.00104003,0.0035968,0.000487373,-1.2044,0.00225305,0.012446,1147,400,2.5304,14.9838
-70,624,2.50061,-15.0432,0.000901634,0.00250287,-0.000779265,0.0028195,0.000585004,-1.18485,0.00171819,0.0132333,1154,400,2.50066,15.0431
-63,624,2.48438,-15.109,0.00100898,0.00189771,-0.000563014,0.00217059,0.000736099,-1.11948,0.00127463,0.0134724,1161,400,2.48432,15.109
-56,624,2.5033,-15.2139,0.00108984,0.00126453,-0.000418993,0.00160518,0.000749183,-0.888157,0.000927437,0.0111197,1168,400,2.50329,15.2139
-49,624,2.51526,-15.29,0.00105467,0.000611959,-0.000186017,0.00112245,0.000544177,-0.349431,0.000648149,0.0095485,1175,400,2.51522,15.29
-42,624,2.51465,-15.3473,0.00109495,6.86585e-05,1.28549e-05,0.00109511,6.84975e-05,0.012523,0.000708348,0.00926105,1182,400,2.51466,15.3473
-35,624,2.5083,-15.4075,0.00113633,-0.000465413,0.000168149,0.00115379,-0.000482875,0.103476,0.000971032,0.0134164,1189,400,2.50834,15.4075
-28,624,2.5072,-15.4834,0.00103655,-0.00094717,0.000153751,0.00104839,-0.000959016,0.0768948,0.00115936,0.0177278,1196,400,2.50724,15.4834
-21,624,2.51636,-15.529,0.000870659,-0.00112131,0.000247735,0.000901007,-0.00115166,0.121893,0.00118805,0.0136226,1203,400,2.51634,15.529
-14,624,2.51453,-15.5544,0.000762268,-0.00142543,0.000474582,0.000860783,-0.00152395,0.204677,0.00139446,0.0149913,1210,400,2.51456,15.5544
-7,624,2.49841,-15.5872,0.000740159,-0.00165193,0.000615823,0.000889387,-0.00180116,0.237741,0.00158284,0.0193715,1217,400,2.49843,15.5872
0,624,2.52466,-15.6205,0.000755971,-0.00176739,0.00080846,0.000992771,-0.00200419,0.284933,0.00176284,0.019163,1224,400,2.52464,15.6206
7,624,2.5293,-15.6556,0.000683095,-0.00183002,0.000978574,0.00101919,-0.00216611,0.330832,0.00187835,0.014525,1231,400,2.52934,15.6556
14,624,2.56348,-15.7065,0.00161736,-0.00161863,0.000521273,0.00169925,-0.00170053,0.155836,0.00196287,0.0127669,1238,400,2.56344,15.7065
21,624,2.58203,-15.7101,0.00258464,-0.000951144,0.000129886,0.00258941,-0.000955909,0.0366689,0.00211807,0.0125467,1245,400,2.58205,15.7101
28,624,2.59424,-15.7121,0.00335427,-1.4918e-05,-0.000250899,0.00337286,-3.34994e-05,-0.0739251,0.00225982,0.0113773,1252,400,2.5943,15.7121
35,624,2.61462,-15.7267,0.00400045,0.00114818,-0.0007565,0.00418868,0.000959958,-0.243856,0.00253382,0.015665,1259,400,2.61466,15.7268
42,624,2.62634,-15.7466,0.00449667,0.00256481,-0.00141602,0.00524484,0.00181664,-0.486077,0.00307539,0.0171704,1266,400,2.62635,15.7466
49,624,2.63464,-15.75,0.00499696,0.00397687,-0.00200995,0.00656057,0.00241326,-0.661141,0.0038316,0.0176882,1273,400,2.63469,15.75
56,624,2.65845,-15.7702,0.00516322,0.00564936,-0.00254436,0.00796224,0.00285034,-0.833019,0.0046584,0.0176392,1280,400,2.65848,15.7702
63,624,2.68005,-15.7773,0.00489192,0.00749831,-0.00307335,0.00953335,0.00285688,-0.985923,0.00564942,0.0138884,1287,400,2.68005,15.7773
70,624,2.66516,-15.7639,0.00438465,0.00906214,-0.00337795,0.010832,0.00261483,-1.08819,0.00652669,0.0123498,1294,400,2.66521,15.7639
77,624,2.66895,-15.7146,0.0038689,0.0101722,-0.00352386,0.0117482,0.00229292,-1.15025,0.00719072,0.0133988,1301,400,2.66896,15.7146
84,624,2.67615,-15.6907,0.00318062,0.0109345,-0.00374822,0.0124501,0.00166498,-1.18654,0.00780451,0.0116764,1308,400,2.67618,15.6907
91,624,2.68323,-15.6576,0.00233397,0.0114295,-0.00393926,0.0128984,0.000865101,-1.21389,0.00832554,0.0119431,1315,400,2.68325,15.6576
98,624,2.68115,-15.6254,0.00132722,0.0113991,-0.00387822,0.0127194,6.96117e-06,-1.24267,0.00847726,0.0125597,1322,400,2.68117,15.6254
105,624,2.67383,-15.6048,0.000632683,0.0108707,-0.00375222,0.0120986,-0.00059523,-1.25453,0.00827128,0.0135805,1329,400,2.67379,15.6048
112,624,2.70459,-15.5378,0.000342949,0.00979287,-0.0035561,0.0109815,-0.000845725,-1.24821,0.0076186,0.0136946,1336,400,2.70464,15.5378
119,624,2.72461,-15.4828,-0.000305223,0.00841256,-0.00303749,0.00936651,-0.00125917,-1.26649,0.0067036,0.0144392,1343,400,2.72466,15.4828
126,624,2.74023,-15.4016,-0.000375028,0.00672075,-0.00289701,0.00775328,-0.00140755,-1.22842,0.0056963,0.0176452,1350,400,2.74022,15.4016
133,624,2.78394,-15.3332,5.97836e-05,0.00497124,-0.00289138,0.00630902,-0.00127799,-1.13745,0.00469041,0.0179843,1357,400,2.78389,15.3332
140,624,2.78015,-15.299,0.000633436,0.00336404,-0.00278948,0.00510442,-0.00110694,-1.01298,0.00382568,0.017785,1364,400,2.78013,15.299
147,624,2.73206,-15.2456,0.00117423,0.00188384,-0.00257723,0.00413057,-0.0010725,-0.853803,0.00317224,0.0210979,1371,400,2.73207,15.2456
154,624,2.74536,-15.1859,0.00142186,0.000867082,-0.00243677,0.00359698,-0.00130803,-0.728724,0.00293289,0.0223104,1378,400,2.74536,15.1859
161,624,2.79517,-15.07,0.00159936,-0.000140175,-0.00228056,0.00317038,-0.00171119,-0.60322,0.00286004,0.0211914,1385,400,2.79521,15.07
168,624,2.81934,-14.9605,0.00159372,-0.00098954,-0.00196201,0.00265109,-0.0020469,-0.494296,0.00271985,0.0221736,1392,400,2.81928,14.9605
175,624,2.79651,-14.9021,0.00129623,-0.000921601,-0.00171493,0.00222954,-0.00185491,-0.498399,0.00236147,0.0177071,1399,400,2.79653,14.9021
182,624,2.78772,-14.7994,0.000879506,-0.000611592,-0.00141454,0.00173295,-0.00146503,-0.542867,0.00184851,0.0107501,1406,400,2.78767,14.7994
189,624,2.79016,-14.6834,0.000530201,-0.000439974,-0.00106103,0.00121177,-0.00112154,-0.570991,0.00134748,0.0109974,1413,400,2.79012,14.6834
196,624,2.78003,-14.5922,0.000245526,-0.000236803,-0.000732532,0.000775571,-0.000766848,-0.626376,0.000890521,0.0115459,1420,400,2.78008,14.5922
203,624,2.7865,-14.4902,7.6217e-05,3.72364e-06,-0.000551105,0.000592266,-0.000512325,-0.75256,0.000638292,0.0136117,1427,400,2.78648,14.4902
210,624,2.79297,-14.3861,-0.000272115,0.000292464,-0.000340295,0.000452314,-0.000431966,-1.13165,0.000510584,0.0170844,1434,400,2.793,14.3861
217,624,2.77454,-14.2299,-0.000519161,0.000647395,-0.00013882,0.000663687,-0.000535453,-1.45397,0.000693642,0.0191575,1441,400,2.7745,14.2299
224,624,2.76624,-14.0916,-0.000582468,0.000976532,7.13096e-05,0.000979787,-0.000585723,1.52518,0.000913342,0.0146099,1448,400,2.76618,14.0916
231,624,2.77209,-13.9908,-0.000508691,0.00133053,0.000330999,0.00138829,-0.000566446,1.39805,0.00116134,0.0115222,1455,400,2.77205,13.9908
238,624,2.77026,-13.8452,-0.000383978,0.00184055,0.000630803,0.00200698,-0.000550402,1.31285,0.00155428,0.0171301,1462,400,2.77022,13.8452
245,624,2.77161,-13.7129,-0.000350879,0.00218223,0.000816797,0.00242277,-0.000591413,1.28441,0.0018442,0.0184151,1469,400,2.77157,13.7129
252,624,2.7666,-13.5475,-0.000237525,0.00267165,0.00105509,0.00301402,-0.000579891,1.25703,0.00222794,0.0137796,1476,400,2.76659,13.5475
259,624,2.75488,-13.4034,7.9893e-06,0.00349325,0.00130227,0.00392609,-0.000424851,1.24991,0.00276989,0.00942007,1483,400,2.75491,13.4034
266,624,2.75757,-13.2413,0.000180289,0.00506359,0.00161687,0.0055504,-0.00030653,1.27834,0.00380656,0.0135422,1490,400,2.75761,13.2413
273,624,2.7511,-13.0735,0.000146337,0.00774746,0.00193252,0.00821057,-0.000316775,1.33559,0.0055823,0.016782,1497,400,2.75115,13.0735
280,624,2.73132,-12.9341,8.28352e-05,0.0101714,0.002271,0.0106591,-0.000404807,1.35928,0.00724476,0.0146816,1504,400,2.73128,12.9341
287,624,2.72668,-12.7812,1.66784e-06,0.0126688,0.00271805,0.0132274,-0.000556923,1.36811,0.00900966,0.011202,1511,400,2.72666,12.7812
294,624,2.70544,-12.5951,-0.000159988,0.0158465,0.00313623,0.016439,-0.000752551,1.38406,0.0112186,0.00977719,1518,400,2.70548,12.5951
301,624,2.69543,-12.3982,-0.000373306,0.0194238,0.00362748,0.0200675,-0.00101705,1.39516,0.0137299,0.0108145,1525,400,2.69541,12.3982
308,624,2.71387,-12.188,-0.000671283,0.0231781,0.0041857,0.0238914,-0.00138456,1.40201,0.0164086,0.0135745,1532,400,2.71381,12.188
315,624,2.69958,-11.9964,-0.00109336,0.0264895,0.00469618,0.0272671,-0.001871,1.4067,0.0188327,0.0161062,1539,400,2.69958,11.9964
322,624,2.66785,-11.8491,-0.00155326,0.0295611,0.00525983,0.0304262,-0.00241837,1.40778,0.0211364,0.0242449,1546,400,2.66788,11.8491
329,624,2.80054,-11.69,-0.0021692,0.0320056,0.00573505,0.0329424,-0.00310596,1.40889,0.0230667,0.0406757,1553,400,2.80059,11.69
336,624,2.8241,-11.5132,-0.0031593,0.0332209,0.00572143,0.0340995,-0.00403788,1.41843,0.0241915,0.0430509,1560,400,2.82406,11.5132
343,624,2.85034,-10.916,0,0,0,0,0,0,0,-1,1567,400,2.85034,10.916
350,624,1.99194,-7.29742,0,0,0,0,0,0,0,-1,1574,400,1.99198,7.29741
357,624,2.64075,-3.13092,0,0,0,0,0,0,0,-1,1581,400,2.64076,3.13091
364,624,3.16565,-4.9458,0,0,0,0,0,0,0,-1,1588,400,3.16564,4.94579
371,624,3.37561,-5.23529,0,0,0,0,0,0,0,-1,1595,400,3.37563,5.23529
378,624,1.50439,-5.22165,0,0,0,0,0,0,0,-1,1602,400,1.50438,5.22164
385,624,1.2301,-10.5866,0,0,0,0,0,0,0,-1,1609,400,1.2301,10.5866
392,624,4.26819,-5.14236,0,0,0,0,0,0,0,-1,1616,400,4.26818,5.14236
399,624,3.86841,-2.36917,0,0,0,0,0,0,0,-1,1623,400,3.86838,2.36916
406,624,4.35376,-2.6962,0,0,0,0,0,0,0,-1,1630,400,4.35373,2.69619
413,624,0,0,0,0,0,0,0,0,0,-1,1637,400,0,0
420,624,0,0,0,0,0,0,0,0,0,-1,1644,400,0,0
427,624,0,0,0,0,0,0,0,0,0,-1,1651,400,0,0
434,624,0,0,0,0,0,0,0,0,0,-1,1658,400,0,0
441,624,0,0,0,0,0,0,0,0,0,-1,1665,400,0,0
448,624,0,0,0,0,0,0,0,0,0,-1,1672,400,0,0
455,624,0,0,0,0,0,0,0,0,0,-1,1679,400,0,0
462,624,0,0,0,0,0,0,0,0,0,-1,1686,400,0,0
469,624,0,0,0,0,0,0,0,0,0,-1,1693,400,0,0
476,624,0,0,0,0,0,0,0,0,0,-1,1700,400,0,0
483,624,0,0,0,0,0,0,0,0,0,-1,1707,400,0,0
490,624,0,0,0,0,0,0,0,0,0,-1,1714,400,0,0
497,624,0,0,0,0,0,0,0,0,0,-1,1721,400,0,0
504,624,0,0,0,0,0,0,0,0,0,-1,1728,400,0,0
511,624,0,0,0,0,0,0,0,0,0,-1,1735,400,0,0
518,624,0,0,0,0,0,0,0,0,0,-1,1742,400,0,0
525,624,0,0,0,0,0,0,0,0,0,-1,1749,400,0,0
532,624,0,0,0,0,0,0,0,0,0,-1,1756,400,0,0
539,624,0,0,0,0,0,0,0,0,0,-1,1763,400,0,0
546,624,0,0,0,0,0,0,0,0,0,-1,1770,400,0,0
553,624,0,0,0,0,0,0,0,0,0,-1,1777,400,0,0
560,624,0,0,0,0,0,0,0,0,0,-1,1784,400,0,0
567,624,0,0,0,0,0,0,0,0,0,-1,1791,400,0,0
574,624,0,0,0,0,0,0,0,0,0,-1,1798,400,0,0
581,624,0,0,0,0,0,0,0,0,0,-1,1805,400,0,0
588,624,0,0,0,0,0,0,0,0,0,-1,1812,400,0,0
595,624,0,0,0,0,0,0,0,0,0,-1,1819,400,0,0
602,624,0,0,0,0,0,0,0,0,0,-1,1826,400,0,0
609,624,0,0,0,0,0,0,0,0,0,-1,1833,400,0,0
616,624,0,0,0,0,0,0,0,0,0,-1,1840,400,0,0
623,624,0,0,0,0,0,0,0,0,0,-1,1847,400,0,0
630,624,0,0,0,0,0,0,0,0,0,-1,1854,400,0,0
637,624,0,0,0,0,0,0,0,0,0,-1,1861,400,0,0
644,624,0,0,0,0,0,0,0,0,0,-1,1868,400,0,0
651,624,0,0,0,0,0,0,0,0,0,-1,1875,400,0,0
658,624,0,0,0,0,0,0,0,0,0,-1,1882,400,0,0
665,624,0,0,0,0,0,0,0,0,0,-1,1889,400,0,0
672,624,0,0,0,0,0,0,0,0,0,-1,1896,400,0,0
679,624,0,0,0,0,0,0,0,0,0,-1,1903,400,0,0
686,624,0,0,0,0,0,0,0,0,0,-1,1910,400,0,0
693,624,0,0,0,0,0,0,0,0,0,-1,1917,400,0,0
700,624,0,0,0,0,0,0,0,0,0,-1,1924,400,0,0
707,624,0,0,0,0,0,0,0,0,0,-1,1931,400,0,0
714,624,0,0,0,0,0,0,0,0,0,-1,1938,400,0,0
721,624,0,0,0,0,0,0,0,0,0,-1,1945,400,0,0
728,624,0,0,0,0,0,0,0,0,0,-1,1952,400,0,0
735,624,0,0,0,0,0,0,0,0,0,-1,1959,400,0,0
742,624,0,0,0,0,0,0,0,0,0,-1,1966,400,0,0
749,624,0,0,0,0,0,0,0,0,0,-1,1973,400,0,0
756,624,0,0,0,0,0,0,0,0,0,-1,1980,400,0,0
763,624,0,0,0,0,0,0,0,0,0,-1,1987,400,0,0
770,624,0,0,0,0,0,0,0,0,0,-1,1994,400,0,0
777,624,0,0,0,0,0,0,0,0,0,-1,2001,400,0,0
784,624,0,0,0,0,0,0,0,0,0,-1,2008,400,0,0
791,624,0,0,0,0,0,0,0,0,0,-1,2015,400,0,0
798,624,0,0,0,0,0,0,0,0,0,-1,2022,400,0,0
805,624,0,0,0,0,0,0,0,0,0,-1,2029,400,0,0
812,624,0,0,0,0,0,0,0,0,0,-1,2036,400,0,0
-700,617,0,0,0,0,0,0,0,0,0,-1,524,407,0,0
-693,617,0,0,0,0,0,0,0,0,0,-1,531,407,0,0
-686,617,0,0,0,0,0,0,0,0,0,-1,538,407,0,0
-679,617,0,0,0,0,0,0,0,0,0,-1,545,407,0,0
-672,617,0,0,0,0,0,0,0,0,0,-1,552,407,0,0
-665,617,0,0,0,0,0,0,0,0,0,-1,559,407,0,0
-658,617,0,0,0,0,0,0,0,0,0,-1,566,407,0,0
-651,617,0,0,0,0,0,0,0,0,0,-1,573,407,0,0
-644,617,0,0,0,0,0,0,0,0,0,-1,580,407,0,0
-637,617,0,0,0,0,0,0,0,0,0,-1,587,407,0,0
-630,617,0,0,0,0,0,0,0,0,0,-1,594,407,0,0
-623,617,0,0,0,0,0,0,0,0,0,-1,601,407,0,0
-616,617,0,0,0,0,0,0,0,0,0,-1,608,407,0,0
-609,617,0,0,0,0,0,0,0,0,0,-1,615,407,0,0
-602,617,0,0,0,0,0,0,0,0,0,-1,622,407,0,0
-595,617,0,0,0,0,0,0,0,0,0,-1,629,407,0,0
-588,617,0,0,0,0,0,0,0,0,0,-1,636,407,0,0
-581,617,0,0,0,0,0,0,0,0,0,-1,643,407,0,0
-574,617,0,0,0,0,0,0,0,0,0,-1,650,407,0,0
-567,617,0,0,0,0,0,0,0,0,0,-1,657,407,0,0
-560,617,0,0,0,0,0,0,0,0,0,-1,664,407,0,0
-553,617,0,0,0,0,0,0,0,0,0,-1,671,407,0,0
-546,617,0,0,0,0,0,0,0,0,0,-1,678,407,0,0
-539,617,0,0,0,0,0,0,0,0,0,-1,685,407,0,0
-532,617,0,0,0,0,0,0,0,0,0,-1,692,407,0,0
-525,617,0,0,0,0,0,0,0,0,0,-1,699,407,0,0
-518,617,0,0,0,0,0,0,0,0,0,-1,706,407,0,0
-511,617,0,0,0,0,0,0,0,0,0,-1,713,407,0,0
-504,617,0,0,0,0,0,0,0,0,0,-1,720,407,0,0
-497,617,0,0,0,0,0,0,0,0,0,-1,727,407,0,0
-490,617,0,0,0,0,0,0,0,0,0,-1,734,407,0,0
-483,617,0,0,0,0,0,0,0,0,0,-1,741,407,0,0
-476,617,0,0,0,0,0,0,0,0,0,-1,748,407,0,0
-469,617,0,0,0,0,0,0,0,0,0,-1,755,407,0,0
-462,617,0,0,0,0,0,0,0,0,0,-1,762,407,0,0
-455,617,0,0,0,0,0,0,0,0,0,-1,769,407,0,0
-448,617,0,0,0,0,0,0,0,0,0,-1,776,407,0,0
-441,617,0,0,0,0,0,0,0,0,0,-1,783,407,0,0
-434,617,0,0,0,0,0,0,0,0,0,-1,790,407,0,0
-427,617,0,0,0,0,0,0,0,0,0,-1,797,407,0,0
-420,617,0,0,0,0,0,0,0,0,0,-1,804,407,0,0
-413,617,0,0,0,0,0,0,0,0,0,-1,811,407,0,0
-406,617,0,0,0,0,0,0,0,0,0,-1,818,407,0,0
-399,617,0,0,0,0,0,0,0,0,0,-1,825,407,0,0
-392,617,0,0,0,0,0,0,0,0,0,-1,832,407,0,0
-385,617,0,0,0,0,0,0,0,0,0,-1,839,407,0,0
-378,617,0,0,0,0,0,0,0,0,0,-1,846,407,0,0
-371,617,0,0,0,0,0,0,0,0,0,-1,853,407,0,0
-364,617,0,0,0,0,0,0,0,0,0,-1,860,407,0,0
-357,617,0,0,0,0,0,0,0,0,0,-1,867,407,0,0
-350,617,0,0,0,0,0,0,0,0,0,-1,874,407,0,0
-343,617,0,0,0,0,0,0,0,0,0,-1,881,407,0,0
-336,617,0,0,0,0,0,0,0,0,0,-1,888,407,0,0
-329,617,0,0,0,0,0,0,0,0,0,-1,895,407,0,0
-322,617,0,0,0,0,0,0,0,0,0,-1,902,407,0,0
-315,617,0,0,0,0,0,0,0,0,0,-1,909,407,0,0
-308,617,0,0,0,0,0,0,0,0,0,-1,916,407,0,0
-301,617,-1.61346,-11.4687,0,0,0,0,0,0,0,-1,923,407,-1.61344,11.4687
-294,617,-0.867493,-11.1655,0,0,0,0,0,0,0,-1,930,407,-0.867487,11.1655
-287,617,-0.212524,-10.7744,0,0,0,0,0,0,0,-1,937,407,-0.212541,10.7743
-280,617,2.19739,-11.6377,0,0,0,0,0,0,0,-1,944,407,2.19737,11.6377
-273,617,2.36188,-10.5736,0,0,0,0,0,0,0,-1,951,407,2.36188,10.5736
-266,617,3.59192,-10.0714,0,0,0,0,0,0,0,-1,958,407,3.59193,10.0714
-259,617,3.23077,-10.7383,0,0,0,0,0,0,0,-1,965,407,3.23079,10.7383
-252,617,3.05859,-11.2272,0,0,0,0,0,0,0,-1,972,407,3.05858,11.2272
-245,617,1.53766,-11.5569,0,0,0,0,0,0,0,-1,979,407,1.53767,11.5569
-238,617,2.02411,-11.598,0.0279359,0.0661698,-0.0464592,0.0972914,-0.00318571,-0.980579,0.0659485,0.0484535,986,407,2.02412,11.598
-231,617,2.45422,-11.3869,0.0241326,0.0598027,-0.0418444,0.0874544,-0.00351915,-0.986851,0.0595107,0.0486335,993,407,2.45422,11.3869
-224,617,2.47113,-11.6082,0.0209786,0.0532721,-0.037299,0.0777694,-0.00351866,-0.98967,0.0530581,0.0474749,1000,407,2.47115,11.6082
-217,617,2.6413,-12.1185,0.0179088,0.045949,-0.0323247,0.0671631,-0.00330524,-0.990018,0.0459168,0.0346956,1007,407,2.64129,12.1185
-210,617,2.59637,-12.3635,0.0148595,0.0381455,-0.0272994,0.0561811,-0.0031761,-0.986965,0.0385564,0.0220174,1014,407,2.59637,12.3635
-203,617,2.5412,-12.5661,0.0121531,0.0299783,-0.0224787,0.0452468,-0.00311543,-0.974137,0.0312548,0.0174043,1021,407,2.54117,12.5661
-196,617,2.51538,-12.7187,0.00973161,0.0222508,-0.0177609,0.0348229,-0.0028405,-0.95482,0.0242177,0.0142642,1028,407,2.51539,12.7187
-189,617,2.49036,-12.8743,0.00750674,0.0150388,-0.0134107,0.0252023,-0.00265671,-0.922284,0.0177535,0.0118651,1035,407,2.49033,12.8743
-182,617,2.49402,-13.0361,0.00580276,0.00976328,-0.00998897,0.0179664,-0.00240035,-0.883252,0.0128526,0.0125799,1042,407,2.49396,13.0361
-175,617,2.49133,-13.2076,0.00475891,0.00526874,-0.00720901,0.0122273,-0.00219969,-0.803071,0.00897509,0.0120246,1049,407,2.49132,13.2076
-168,617,2.46899,-13.3847,0.00354627,0.00107364,-0.00426772,0.00675314,-0.00213323,-0.644413,0.00535668,0.0103486,1056,407,2.46905,13.3847
-161,617,2.44836,-13.5775,0.00261431,-0.00152818,-0.00214414,0.00352423,-0.00243811,-0.401344,0.00346135,0.0116972,1063,407,2.44836,13.5775
-154,617,2.43213,-13.7168,0.00214785,-0.00226686,-0.00121309,0.00245923,-0.00257824,-0.251255,0.00290865,0.0112093,1070,407,2.43211,13.7168
-147,617,2.4231,-13.832,0.00187055,-0.00149282,-0.00103084,0.00216135,-0.00178362,-0.274956,0.00228111,0.0146823,1077,407,2.42315,13.832
-140,617,2.42505,-13.9727,0.00167285,-0.00055378,-0.000969684,0.00203594,-0.000916865,-0.358277,0.00174513,0.0115297,1084,407,2.425,13.9727
-133,617,2.4137,-14.1025,0.00147015,3.41339e-05,-0.000845712,0.00186154,-0.000357257,-0.433443,0.00137566,0.0135766,1091,407,2.41366,14.1025
-126,617,2.40222,-14.2137,0.00118551,0.00113733,-0.000752953,0.00191476,0.00040808,-0.769408,0.00116456,0.0136108,1098,407,2.4022,14.2138
-119,617,2.39905,-14.3396,0.000906056,0.00190576,-0.000806161,0.00235446,0.000457359,-1.06291,0.00144158,0.0139909,1105,407,2.39904,14.3396
-112,617,2.39294,-14.4539,0.000832448,0.00231045,-0.000855012,0.00270157,0.000441331,-1.14177,0.00167345,0.0151044,1112,407,2.39295,14.454
-105,617,2.39697,-14.566,0.000901189,0.00242371,-0.000833123,0.002791,0.000533906,-1.15558,0.0017107,0.0157722,1119,407,2.39701,14.566
-98,617,2.42578,-14.6867,0.00103666,0.0024201,-0.000828088,0.00280737,0.000649394,-1.13335,0.00169705,0.0127749,1126,407,2.42579,14.6868
-91,617,2.41992,-14.7812,0.00122701,0.00222811,-0.000810041,0.00267977,0.000775344,-1.06215,0.00159229,0.016753,1133,407,2.41994,14.7812
-84,617,2.43445,-14.8731,0.00142377,0.00184498,-0.000715116,0.00237986,0.00088889,-0.928604,0.00138859,0.0169472,1140,407,2.43444,14.8732
-77,617,2.45337,-14.9738,0.00162658,0.00140234,-0.000594665,0.0021196,0.00090932,-0.69222,0.00122786,0.0138492,1147,407,2.45335,14.9738
-70,617,2.4325,-15.0434,0.00182755,0.000978093,-0.000421656,0.00200131,0.000804334,-0.390885,0.00116284,0.0145947,1154,407,2.43245,15.0434
-63,617,2.41284,-15.117,0.00203426,0.000640854,-0.000262262,0.00208199,0.000593126,-0.180013,0.00123856,0.0151797,1161,407,2.41289,15.117
-56,617,2.43054,-15.2028,0.00213718,0.000240338,-0.000193558,0.00215673,0.000220789,-0.100659,0.00137017,0.0115761,1168,407,2.43048,15.2028
-49,617,2.44751,-15.2796,0.00206726,-0.000104542,-5.45301e-05,0.00206863,-0.00010591,-0.0250871,0.00141571,0.00958831,1175,407,2.44747,15.2796
-42,617,2.46033,-15.3694,0.00210655,-0.000424825,9.5592e-05,0.00211015,-0.00042843,0.0376913,0.0015692,0.0111889,1182,407,2.4603,15.3694
-35,617,2.46582,-15.4293,0.00198701,-0.000875196,0.000291991,0.00201649,-0.00090468,0.100635,0.00172678,0.0155501,1189,407,2.46588,15.4293
-28,617,2.47119,-15.4813,0.00166496,-0.00142709,0.000256392,0.00168608,-0.00144821,0.082172,0.00181131,0.0175927,1196,407,2.4712,15.4813
-21,617,2.49329,-15.5109,0.00126829,-0.00149229,0.000439559,0.00133659,-0.00156059,0.15415,0.00167435,0.0133873,1203,407,2.49324,15.5109
-14,617,2.46387,-15.5213,0.00103362,-0.00187799,0.000861556,0.00126946,-0.00211383,0.267187,0.00197351,0.0149629,1210,407,2.46382,15.5213
-7,617,2.44238,-15.5677,0.000965369,-0.00216954,0.00111807,0.00132327,-0.00252744,0.309801,0.00225915,0.0183481,1217,407,2.44244,15.5677
0,617,2.48096,-15.6073,0.000934665,-0.00228671,0.00144777,0.0014897,-0.00284175,0.36609,0.00254105,0.0161491,1224,407,2.4809,15.6073
7,617,2.51526,-15.672,0.000724738,-0.00247297,0.00164933,0.00142297,-0.0031712,0.400468,0.00271571,0.011585,1231,407,2.51522,15.672
14,617,2.52979,-15.7019,0.00203655,-0.00198856,0.00102592,0.00228296,-0.00223496,0.235713,0.00260847,0.013836,1238,407,2.52975,15.7019
21,617,2.55371,-15.7067,0.00387484,-0.00138971,0.000789002,0.00399054,-0.00150541,0.14561,0.00327944,0.0118195,1245,407,2.55369,15.7067
28,617,2.57825,-15.7224,0.00557534,-0.000437898,0.0003711,0.00559815,-0.000460714,0.0614033,0.00389477,0.00986426,1252,407,2.57822,15.7224
35,617,2.60327,-15.7343,0.00677348,0.00100065,-0.000273466,0.0067864,0.000987725,-0.0472303,0.00423361,0.0133594,1259,407,2.60327,15.7343
42,617,2.62292,-15.7371,0.00782931,0.00278515,-0.00113702,0.00807376,0.0025407,-0.21177,0.00476691,0.0191758,1266,407,2.6229,15.7371
49,617,2.62842,-15.7433,0.00894709,0.00469774,-0.00198023,0.00972681,0.00391802,-0.375112,0.00565104,0.0188236,1273,407,2.62846,15.7434
56,617,2.6344,-15.752,0.00953628,0.00698156,-0.00276997,0.0113092,0.00520862,-0.569356,0.00653615,0.0138289,1280,407,2.63437,15.7519
63,617,2.65442,-15.7681,0.00937897,0.00961902,-0.00364608,0.0131471,0.00585094,-0.801852,0.00760573,0.00970935,1287,407,2.65436,15.7681
70,617,2.66809,-15.7633,0.00882124,0.0120407,-0.00431922,0.0150404,0.00582152,-0.963768,0.0087571,0.0143603,1294,407,2.66807,15.7633
77,617,2.69519,-15.7082,0.0081174,0.013944,-0.00483038,0.0166716,0.00538978,-1.05675,0.00982368,0.0132962,1301,407,2.69519,15.7082
84,617,2.70581,-15.6693,0.00700782,0.0154822,-0.0054243,0.0181281,0.00436194,-1.11697,0.0109256,0.00983524,1308,407,2.70584,15.6693
91,617,2.71448,-15.6538,0.00557901,0.0167047,-0.00596299,0.0192967,0.00298695,-1.16074,0.0119935,0.00938201,1315,407,2.7145,15.6538
98,617,2.72534,-15.6272,0.00381199,0.0172104,-0.00616497,0.0196154,0.001407,-1.19885,0.0126341,0.0106473,1322,407,2.72538,15.6272
105,617,2.73315,-15.6003,0.0024256,0.0169685,-0.0062513,0.0192863,0.000107851,-1.21575,0.0128217,0.0126322,1329,407,2.73315,15.6003
112,617,2.76306,-15.5506,0.00160156,0.0159268,-0.0061371,0.0181964,-0.000668067,-1.21657,0.0123596,0.016455,1336,407,2.76301,15.5506
119,617,2.79114,-15.4863,0.000288185,0.0142118,-0.00558717,0.0161765,-0.00167656,-1.23265,0.0113844,0.0192626,1343,407,2.79108,15.4863
126,617,2.78979,-15.4191,-0.000519208,0.012301,-0.00562483,0.014419,-0.00263718,-1.21068,0.0106016,0.0209981,1350,407,2.78984,15.4191
133,617,2.8186,-15.3501,-0.00044118,0.00999178,-0.0055153,0.0123668,-0.00281616,-1.16418,0.00932605,0.0184204,1357,407,2.81864,15.3501
140,617,2.84717,-15.3084,0.000490684,0.00741532,-0.00518515,0.0101879,-0.00228185,-1.07977,0.00766656,0.0158699,1364,407,2.84719,15.3084
147,617,2.78894,-15.248,0.00140416,0.00487286,-0.00469074,0.00813961,-0.00186259,-0.962473,0.00614214,0.0182099,1371,407,2.78892,15.248
154,617,2.82544,-15.1649,0.00186438,0.00281741,-0.00429003,0.00665731,-0.00197551,-0.840709,0.00522277,0.019411,1378,407,2.82546,15.1649
161,617,2.86255,-15.0755,0.0023619,0.000745407,-0.00399884,0.00563336,-0.00252605,-0.685682,0.00482336,0.0206649,1385,407,2.86258,15.0755
168,617,2.86792,-14.9916,0.00269139,-0.00130825,-0.00340589,0.00464118,-0.00325803,-0.519934,0.00458386,0.0201004,1392,407,2.86798,14.9916
175,617,2.88293,-14.9359,0.00245769,-0.00171782,-0.00300451,0.0040286,-0.00328872,-0.481759,0.00423185,0.016411,1399,407,2.88289,14.9359
182,617,2.90271,-14.8339,0.00176853,-0.00140983,-0.00257922,0.00320885,-0.00285015,-0.509295,0.00350021,0.0111961,1406,407,2.90269,14.8339
189,617,2.88184,-14.6958,0.00117633,-0.00131252,-0.00214954,0.00241567,-0.00255187,-0.523008,0.00286837,0.0116439,1413,407,2.88182,14.6958
196,617,2.8833,-14.597,0.000617615,-0.00115027,-0.0017656,0.00170818,-0.00224083,-0.553316,0.00228687,0.0152568,1420,407,2.88324,14.597
203,617,2.89185,-14.4959,0.000473911,-0.000682948,-0.00156679,0.00156563,-0.00177467,-0.608568,0.00192978,0.0149415,1427,407,2.89191,14.4959
210,617,2.91003,-14.3905,3.10082e-05,-0.000279091,-0.00131569,0.00120075,-0.00144883,-0.726745,0.00153197,0.0147087,1434,407,2.91006,14.3905
217,617,2.90002,-14.2387,-0.000314297,0.000207374,-0.00101554,0.000995037,-0.00110196,-0.911104,0.00121123,0.0185961,1441,407,2.9,14.2387
224,617,2.89185,-14.1046,-0.000407088,0.000599988,-0.000738299,0.000990114,-0.000797214,-1.08468,0.00103392,0.0176636,1448,407,2.89182,14.1046
231,617,2.90649,-13.9909,-0.000367739,0.00101405,-0.000410763,0.00112693,-0.000480624,-1.3026,0.0009528,0.0137695,1455,407,2.90645,13.9909
238,617,2.90796,-13.8672,-0.000246003,0.00150965,-5.35169e-05,0.00151128,-0.000247633,-1.54035,0.0010994,0.0144958,1462,407,2.90801,13.8672
245,617,2.92432,-13.757,-0.000182423,0.00186286,0.000213254,0.00188485,-0.000204421,1.468,0.00132996,0.0126278,1469,407,2.9243,13.757
252,617,2.93518,-13.5719,-7.22083e-05,0.00229518,0.000501663,0.00239709,-0.000174126,1.37036,0.00165915,0.0137688,1476,407,2.93519,13.5719
259,617,2.89941,-13.4116,0.000113938,0.0029216,0.000779666,0.00312357,-8.80397e-05,1.31731,0.00211234,0.0115548,1483,407,2.89941,13.4116
266,617,2.89636,-13.2441,0.000231874,0.00403765,0.00107719,0.00432138,-5.18619e-05,1.31324,0.00289836,0.0147198,1490,407,2.89633,13.2441
273,617,2.88977,-13.0882,0.000211286,0.0059144,0.00136531,0.0062244,-9.87144e-05,1.34753,0.00418289,0.0154169,1497,407,2.88981,13.0882
280,617,2.87769,-12.9468,0.000186816,0.00757287,0.00168821,0.00794044,-0.000180761,1.35641,0.0053549,0.0128178,1504,407,2.87764,12.9468
287,617,2.86401,-12.7712,0.000131104,0.00928955,0.0020575,0.00973055,-0.000309893,1.35966,0.00659276,0.0118214,1511,407,2.864,12.7712
294,617,2.85437,-12.5907,3.56384e-06,0.0114795,0.0023923,0.0119583,-0.000475166,1.37329,0.00813519,0.00974228,1518,407,2.85435,12.5907
301,617,2.84827,-12.407,-0.000170773,0.0139315,0.00277151,0.0144566,-0.000695901,1.38354,0.00987789,0.00739943,1525,407,2.84824,12.407
308,617,2.84924,-12.2338,-0.000386232,0.0165069,0.00320935,0.0170961,-0.000975395,1.38924,0.011736,0.00748198,1532,407,2.84925,12.2338
315,617,2.83691,-12.0516,-0.000668727,0.0187684,0.00362213,0.0194214,-0.00132177,1.39242,0.01341,0.00890986,1539,407,2.83685,12.0516
322,617,2.8385,-11.854,-0.000968865,0.0208031,0.00406235,0.0215364,-0.00170215,1.39221,0.0149573,0.0120041,1546,407,2.83852,11.854
329,617,2.84534,-11.6711,-0.00141515,0.0223259,0.00445458,0.0231342,-0.00222345,1.3913,0.0162149,0.0130877,1553,407,2.84536,11.6711
336,617,2.83789,-11.4413,-0.00219696,0.0229076,0.0044377,0.023669,-0.00295831,1.40089,0.0168522,0.0265513,1560,407,2.83792,11.4413
343,617,2.88513,-11.0963,0,0,0,0,0,0,0,-1,1567,407,2.88517,11.0963
350,617,2.88098,-10.0063,0,0,0,0,0,0,0,-1,1574,407,2.88098,10.0063
357,617,2.1748,-7.16504,0,0,0,0,0,0,0,-1,1581,407,2.1748,7.16505
364,617,2.30127,-7.60257,0,0,0,0,0,0,0,-1,1588,407,2.30125,7.60258
371,617,2.60266,-6.20667,0,0,0,0,0,0,0,-1,1595,407,2.60261,6.20668
378,617,1.56921,-10.3601,0,0,0,0,0,0,0,-1,1602,407,1.56918,10.3601
385,617,1.74146,-10.3561,0,0,0,0,0,0,0,-1,1609,407,1.7414,10.3561
392,617,1.91357,-10.3521,0,0,0,0,0,0,0,-1,1616,407,1.91362,10.3521
399,617,3.25,-2.14835,0,0,0,0,0,0,0,-1,1623,407,3.25006,2.14836
406,617,3.02429,-3.19577,0,0,0,0,0,0,0,-1,1630,407,3.02431,3.19577
413,617,2.92786,-3.80649,0,0,0,0,0,0,0,-1,1637,407,2.92788,3.8065
420,617,3.42737,-4.47391,0,0,0,0,0,0,0,-1,1644,407,3.42737,4.47391
427,617,0,0,0,0,0,0,0,0,0,-1,1651,407,0,0
434,617,0,0,0,0,0,0,0,0,0,-1,1658,407,0,0
441,617,0,0,0,0,0,0,0,0,0,-1,1665,407,0,0
448,617,0,0,0,0,0,0,0,0,0,-1,1672,407,0,0
455,617,0,0,0,0,0,0,0,0,0,-1,1679,407,0,0
462,617,0,0,0,0,0,0,0,0,0,-1,1686,407,0,0
469,617,0,0,0,0,0,0,0,0,0,-1,1693,407,0,0
476,617,0,0,0,0,0,0,0,0,0,-1,1700,407,0,0
483,617,0,0,0,0,0,0,0,0,0,-1,1707,407,0,0
490,617,0,0,0,0,0,0,0,0,0,-1,1714,407,0,0
497,617,0,0,0,0,0,0,0,0,0,-1,1721,407,0,0
504,617,0,0,0,0,0,0,0,0,0,-1,1728,407,0,0
511,617,0,0,0,0,0,0,0,0,0,-1,1735,407,0,0
518,617,0,0,0,0,0,0,0,0,0,-1,1742,407,0,0
525,617,0,0,0,0,0,0,0,0,0,-1,1749,407,0,0
532,617,0,0,0,0,0,0,0,0,0,-1,1756,407,0,0
539,617,0,0,0,0,0,0,0,0,0,-1,1763,407,0,0
546,617,0,0,0,0,0,0,0,0,0,-1,1770,407,0,0
553,617,0,0,0,0,0,0,0,0,0,-1,1777,407,0,0
560,617,0,0,0,0,0,0,0,0,0,-1,1784,407,0,0
567,617,0,0,0,0,0,0,0,0,0,-1,1791,407,0,0
574,617,0,0,0,0,0,0,0,0,0,-1,1798,407,0,0
581,617,0,0,0,0,0,0,0,0,0,-1,1805,407,0,0
588,617,0,0,0,0,0,0,0,0,0,-1,1812,407,0,0
595,617,0,0,0,0,0,0,0,0,0,-1,1819,407,0,0
602,617,0,0,0,0,0,0,0,0,0,-1,1826,407,0,0
609,617,0,0,0,0,0,0,0,0,0,-1,1833,407,0,0
616,617,0,0,0,0,0,0,0,0,0,-1,1840,407,0,0
623,617,0,0,0,0,0,0,0,0,0,-1,1847,407,0,0
630,617,0,0,0,0,0,0,0,0,0,-1,1854,407,0,0
637,617,0,0,0,0,0,0,0,0,0,-1,1861,407,0,0
644,617,0,0,0,0,0,0,0,0,0,-1,1868,407,0,0
651,617,0,0,0,0,0,0,0,0,0,-1,1875,407,0,0
658,617,0,0,0,0,0,0,0,0,0,-1,1882,407,0,0
665,617,0,0,0,0,0,0,0,0,0,-1,1889,407,0,0
672,617,0,0,0,0,0,0,0,0,0,-1,1896,407,0,0
679,617,0,0,0,0,0,0,0,0,0,-1,1903,407,0,0
686,617,0,0,0,0,0,0,0,0,0,-1,1910,407,0,0
693,617,0,0,0,0,0,0,0,0,0,-1,1917,407,0,0
700,617,0,0,0,0,0,0,0,0,0,-1,1924,407,0,0
707,617,0,0,0,0,0,0,0,0,0,-1,1931,407,0,0
714,617,0,0,0,0,0,0,0,0,0,-1,1938,407,0,0
721,617,0,0,0,0,0,0,0,0,0,-1,1945,407,0,0
728,617,0,0,0,0,0,0,0,0,0,-1,1952,407,0,0
735,617,0,0,0,0,0,0,0,0,0,-1,1959,407,0,0
742,617,0,0,0,0,0,0,0,0,0,-1,1966,407,0,0
749,617,0,0,0,0,0,0,0,0,0,-1,1973,407,0,0
756,617,0,0,0,0,0,0,0,0,0,-1,1980,407,0,0
763,617,0,0,0,0,0,0,0,0,0,-1,1987,407,0,0
770,617,0,0,0,0,0,0,0,0,0,-1,1994,407,0,0
777,617,0,0,0,0,0,0,0,0,0,-1,2001,407,0,0
784,617,0,0,0,0,0,0,0,0,0,-1,2008,407,0,0
791,617,0,0,0,0,0,0,0,0,0,-1,2015,407,0,0
798,617,0,0,0,0,0,0,0,0,0,-1,2022,407,0,0
805,617,0,0,0,0,0,0,0,0,0,-1,2029,407,0,0
812,617,0,0,0,0,0,0,0,0,0,-1,2036,407,0,0
-700,610,0,0,0,0,0,0,0,0,0,-1,524,414,0,0
-693,610,0,0,0,0,0,0,0,0,0,-1,531,414,0,0
-686,610,0,0,0,0,0,0,0,0,0,-1,538,414,0,0
-679,610,0,0,0,0,0,0,0,0,0,-1,545,414,0,0
-672,610,0,0,0,0,0,0,0,0,0,-1,552,414,0,0
-665,610,0,0,0,0,0,0,0,0,0,-1,559,414,0,0
-658,610,0,0,0,0,0,0,0,0,0,-1,566,414,0,0
-651,610,0,0,0,0,0,0,0,0,0,-1,573,414,0,0
-644,610,0,0,0,0,0,0,0,0,0,-1,580,414,0,0
-637,610,0,0,0,0,0,0,0,0,0,-1,587,414,0,0
-630,610,0,0,0,0,0,0,0,0,0,-1,594,414,0,0
-623,610,0,0,0,0,0,0,0,0,0,-1,601,414,0,0
-616,610,0,0,0,0,0,0,0,0,0,-1,608,414,0,0
-609,610,0,0,0,0,0,0,0,0,0,-1,615,414,0,0
-602,610,0,0,0,0,0,0,0,0,0,-1,622,414,0,0
-595,610,0,0,0,0,0,0,0,0,0,-1,629,414,0,0
-588,610,0,0,0,0,0,0,0,0,0,-1,636,414,0,0
-581,610,0,0,0,0,0,0,0,0,0,-1,643,414,0,0
-574,610,0,0,0,0,0,0,0,0,0,-1,650,414,0,0
-567,610,0,0,0,0,0,0,0,0,0,-1,657,414,0,0
-560,610,0,0,0,0,0,0,0,0,0,-1,664,414,0,0
-553,610,0,0,0,0,0,0,0,0,0,-1,671,414,0,0
-546,610,0,0,0,0,0,0,0,0,0,-1,678,414,0,0
-539,610,0,0,0,0,0,0,0,0,0,-1,685,414,0,0
-532,610,0,0,0,0,0,0,0,0,0,-1,692,414,0,0
-525,610,0,0,0,0,0,0,0,0,0,-1,699,414,0,0
-518,610,0,0,0,0,0,0,0,0,0,-1,706,414,0,0
-511,610,0,0,0,0,0,0,0,0,0,-1,713,414,0,0
-504,610,0,0,0,0,0,0,0,0,0,-1,720,414,0,0
-497,610,0,0,0,0,0,0,0,0,0,-1,727,414,0,0
-490,610,0,0,0,0,0,0,0,0,0,-1,734,414,0,0
-483,610,0,0,0,0,0,0,0,0,0,-1,741,414,0,0
-476,610,0,0,0,0,0,0,0,0,0,-1,748,414,0,0
-469,610,0,0,0,0,0,0,0,0,0,-1,755,414,0,0
-462,610,0,0,0,0,0,0,0,0,0,-1,762,414,0,0
-455,610,0,0,0,0,0,0,0,0,0,-1,769,414,0,0
-448,610,0,0,0,0,0,0,0,0,0,-1,776,414,0,0
-441,610,0,0,0,0,0,0,0,0,0,-1,783,414,0,0
-434,610,0,0,0,0,0,0,0,0,0,-1,790,414,0,0
-427,610,0,0,0,0,0,0,0,0,0,-1,797,414,0,0
-420,610,0,0,0,0,0,0,0,0,0,-1,804,414,0,0
-413,610,0,0,0,0,0,0,0,0,0,-1,811,414,0,0
-406,610,0,0,0,0,0,0,0,0,0,-1,818,414,0,0
-399,610,0,0,0,0,0,0,0,0,0,-1,825,414,0,0
-392,610,0,0,0,0,0,0,0,0,0,-1,832,414,0,0
-385,610,0,0,0,0,0,0,0,0,0,-1,839,414,0,0
-378,610,0,0,0,0,0,0,0,0,0,-1,846,414,0,0
-371,610,0,0,0,0,0,0,0,0,0,-1,853,414,0,0
-364,610,0,0,0,0,0,0,0,0,0,-1,860,414,0,0
-357,610,0,0,0,0,0,0,0,0,0,-1,867,414,0,0
-350,610,0,0,0,0,0,0,0,0,0,-1,874,414,0,0
-343,610,0,0,0,0,0,0,0,0,0,-1,881,414,0,0
-336,610,0,0,0,0,0,0,0,0,0,-1,888,414,0,0
-329,610,0,0,0,0,0,0,0,0,0,-1,895,414,0,0
-322,610,0,0,0,0,0,0,0,0,0,-1,902,414,0,0
-315,610,5.57825,-7.69159,0,0,0,0,0,0,0,-1,909,414,5.57823,7.69159
-308,610,5.54938,-7.44653,0,0,0,0,0,0,0,-1,916,414,5.54937,7.44653
-301,610,3.81409,-11.0375,0,0,0,0,0,0,0,-1,923,414,3.81406,11.0375
-294,610,-1.43835,-9.29047,0,0,0,0,0,0,0,-1,930,414,-1.43836,9.29047
-287,610,2.08557,-11.9136,0,0,0,0,0,0,0,-1,937,414,2.08555,11.9136
-280,610,2.25854,-11.0924,0,0,0,0,0,0,0,-1,944,414,2.25856,11.0924
-273,610,2.44586,-10.2559,0,0,0,0,0,0,0,-1,951,414,2.44589,10.2559
-266,610,1.7149,-10.3569,0,0,0,0,0,0,0,-1,958,414,1.71494,10.3569
-259,610,2.58783,-10.887,0,0,0,0,0,0,0,-1,965,414,2.5878,10.887
-252,610,2.43616,-11.3038,0,0,0,0,0,0,0,-1,972,414,2.43613,11.3038
-245,610,1.84442,-11.2178,0.0209893,0.0424442,-0.0317435,0.0652239,-0.00179045,-0.948344,0.0440915,0.04754,979,414,1.84445,11.2178
-238,610,2.40607,-11.4262,0.019019,0.0416221,-0.0297382,0.0621338,-0.00149279,-0.966986,0.041929,0.0418384,986,414,2.40606,11.4262
-231,610,2.40784,-11.6198,0.016591,0.0384932,-0.0271797,0.056845,-0.00176084,-0.976907,0.0384971,0.0356812,993,414,2.40784,11.6198
-224,610,2.4071,-11.9338,0.0144411,0.0346431,-0.0243527,0.0509066,-0.0018224,-0.981989,0.0345612,0.0264346,1000,414,2.40708,11.9338
-217,610,2.4126,-12.1912,0.0123727,0.0302221,-0.0212025,0.0443016,-0.00170685,-0.984606,0.0301195,0.0150822,1007,414,2.41258,12.1912
-210,610,2.39734,-12.3971,0.0102942,0.0253937,-0.0180333,0.0373938,-0.00170589,-0.98364,0.0255169,0.00991027,1014,414,2.39735,12.3971
-203,610,2.37207,-12.5787,0.00845717,0.0202023,-0.0150206,0.0304575,-0.00179801,-0.971747,0.0209301,0.0118464,1021,414,2.37204,12.5787
-196,610,2.36023,-12.7643,0.0068266,0.0152984,-0.0120278,0.0238144,-0.00168935,-0.954705,0.0164683,0.0126507,1028,414,2.36025,12.7642
-189,610,2.36218,-12.8868,0.00526836,0.0106314,-0.00918882,0.0175219,-0.00162223,-0.927366,0.0122579,0.0101863,1035,414,2.36218,12.8868
-182,610,2.354,-13.0521,0.00407389,0.00718119,-0.00693642,0.0127358,-0.00148074,-0.895572,0.00902472,0.010977,1042,414,2.35399,13.0521
-175,610,2.32227,-13.2114,0.00338814,0.00410868,-0.00508161,0.00884277,-0.00134595,-0.820788,0.00639125,0.0115293,1049,414,2.32226,13.2114
-168,610,2.29883,-13.3709,0.00259107,0.00123693,-0.00309041,0.00507771,-0.0012497,-0.677558,0.00386957,0.0113051,1056,414,2.29882,13.371
-161,610,2.30371,-13.5823,0.00195331,-0.000518258,-0.00166785,0.00279331,-0.00135826,-0.466559,0.00244418,0.0114453,1063,414,2.3037,13.5823
-154,610,2.29248,-13.7068,0.00161503,-0.00117787,-0.000964081,0.0019155,-0.00147834,-0.30212,0.00196484,0.0137876,1070,414,2.29254,13.7068
-147,610,2.2804,-13.8192,0.00141203,-0.00095072,-0.000675588,0.00159157,-0.00113025,-0.259738,0.00157895,0.0146219,1077,414,2.28039,13.8192
-140,610,2.28857,-13.9738,0.00134625,-0.000590249,-0.000529324,0.00148149,-0.00072549,-0.250146,0.00129888,0.0110874,1084,414,2.28852,13.9738
-133,610,2.28772,-14.1058,0.00126505,-0.000422127,-0.000368308,0.00134194,-0.000499023,-0.205826,0.00109939,0.0124526,1091,414,2.28774,14.1058
-126,610,2.28674,-14.2224,0.00111888,6.20348e-05,-0.000225766,0.00116509,1.58264e-05,-0.201886,0.000771503,0.0114101,1098,414,2.28679,14.2223
-119,610,2.29236,-14.3465,0.00106008,0.00047819,-0.000281254,0.0011738,0.000364471,-0.384232,0.000693726,0.0101243,1105,414,2.29232,14.3465
-112,610,2.28833,-14.4524,0.00117217,0.000664774,-0.000328431,0.00133348,0.000503467,-0.456537,0.000777542,0.0173646,1112,414,2.28834,14.4524
-105,610,2.27478,-14.5687,0.00141819,0.000729863,-0.000353497,0.00156739,0.000580661,-0.399389,0.000914999,0.0181748,1119,414,2.27483,14.5687
-98,610,2.30676,-14.6846,0.00172676,0.000709583,-0.000405646,0.00186871,0.000567624,-0.336636,0.00110626,0.0123311,1126,414,2.30681,14.6846
-91,610,2.33081,-14.7744,0.00206161,0.000642534,-0.000455296,0.00219512,0.000509018,-0.285252,0.0013267,0.0126679,1133,414,2.33077,14.7744
-84,610,2.3446,-14.8697,0.0023993,0.000395511,-0.000442823,0.0024928,0.000302013,-0.208084,0.0015709,0.0141393,1140,414,2.34459,14.8697
-77,610,2.34827,-14.9646,0.00275598,0.000262197,-0.000450407,0.00283484,0.000183342,-0.173319,0.00183184,0.0115432,1147,414,2.34825,14.9646
-70,610,2.33801,-15.0488,0.00306483,1.53584e-05,-0.000282742,0.00309082,-1.06354e-05,-0.091677,0.0020641,0.0139321,1154,414,2.33807,15.0488
-63,610,2.33716,-15.141,0.00333888,-0.000157486,-0.000118932,0.00334292,-0.000161527,-0.0339636,0.00228436,0.0127519,1161,414,2.33715,15.141
-56,610,2.34851,-15.199,0.00345347,-0.000480228,-7.85391e-05,0.00345504,-0.000481796,-0.0199551,0.00247961,0.0109247,1168,414,2.34852,15.199
-49,610,2.36877,-15.2622,0.00332626,-0.000776208,5.4857e-05,0.00332699,-0.000776941,0.0133685,0.00251726,0.0113018,1175,414,2.36875,15.2622
-42,610,2.39502,-15.3477,0.00335208,-0.00100967,0.000150081,0.00335723,-0.00101483,0.0343544,0.00264222,0.0146539,1182,414,2.39502,15.3477
-35,610,2.40869,-15.4149,0.00279248,-0.00125622,0.000355151,0.0028234,-0.00128714,0.0868361,0.00242784,0.0145618,1189,414,2.40864,15.4149
-28,610,2.42542,-15.4714,0.00209766,-0.00168445,0.000364586,0.00213249,-0.00171927,0.0952291,0.00222808,0.0121915,1196,414,2.42539,15.4714
-21,610,2.44788,-15.5081,0.00145815,-0.0015176,0.000743578,0.00163361,-0.00169306,0.231727,0.00192076,0.0104777,1203,414,2.44783,15.5081
-14,610,2.44397,-15.5305,0.00118809,-0.00195326,0.00143706,0.0017463,-0.00251147,0.370502,0.00247142,0.0117845,1210,414,2.44395,15.5305
-7,610,2.45361,-15.5654,0.00118756,-0.00230526,0.0018407,0.0019785,-0.0030962,0.40584,0.00295347,0.0136786,1217,414,2.45366,15.5654
0,610,2.47644,-15.6224,0.00122605,-0.0024569,0.00230585,0.0023355,-0.00356635,0.448451,0.00343205,0.0109608,1224,414,2.4764,15.6224
7,610,2.49121,-15.6703,0.00103996,-0.00283526,0.00252023,0.00228133,-0.00407663,0.457679,0.00371923,0.0112048,1231,414,2.49122,15.6703
14,610,2.51038,-15.686,0.0029044,-0.00220816,0.00165896,0.00339554,-0.00269929,0.287827,0.00352649,0.0133252,1238,414,2.51042,15.686
21,610,2.54065,-15.7085,0.00549186,-0.00168474,0.00137071,0.00574475,-0.00193763,0.182444,0.0046134,0.0120998,1245,414,2.54064,15.7085
28,610,2.5741,-15.7429,0.00792551,-0.000695257,0.000792411,0.00799774,-0.00076749,0.0909039,0.0056052,0.0111491,1252,414,2.57414,15.7429
35,610,2.63086,-15.7394,0.00969735,0.000997742,-0.000112074,0.0096988,0.000996298,-0.0128798,0.00616068,0.0152893,1259,414,2.63092,15.7394
42,610,2.646,-15.7161,0.0112472,0.0032364,-0.00146954,0.0115083,0.00297533,-0.17582,0.00689772,0.0146322,1266,414,2.64605,15.7161
49,610,2.63916,-15.7478,0.0128258,0.00584283,-0.00285956,0.0138473,0.00482127,-0.343113,0.0081167,0.0144488,1273,414,2.63918,15.7478
56,610,2.6626,-15.7507,0.0137133,0.00898368,-0.00413964,0.016116,0.006581,-0.525888,0.00935653,0.0130722,1280,414,2.66255,15.7507
63,610,2.65173,-15.7162,0.0135526,0.0126558,-0.00555753,0.0186798,0.00752861,-0.745143,0.0108522,0.0154135,1287,414,2.65168,15.7163
70,610,2.70923,-15.6994,0.0128531,0.0161749,-0.00676674,0.0214816,0.00754641,-0.905745,0.0125839,0.0223006,1294,414,2.70927,15.6994
77,610,2.73389,-15.6967,0.0118304,0.0191228,-0.00778006,0.0240687,0.00688453,-1.00453,0.0143139,0.0294533,1301,414,2.7339,15.6967
84,610,2.74475,-15.6423,0.010162,0.0216861,-0.00884232,0.0264781,0.00536999,-1.07416,0.0161622,0.030392,1308,414,2.7448,15.6423
91,610,2.77466,-15.6256,0.00827822,0.0238965,-0.00967692,0.0285222,0.00365251,-1.12489,0.0179218,0.0251314,1315,414,2.7747,15.6256
98,610,2.84229,-15.6195,0.00598801,0.0251999,-0.00999519,0.0294567,0.00173112,-1.16817,0.019087,0.0230608,1322,414,2.84226,15.6195
105,610,2.83875,-15.5896,0.00431608,0.0255949,-0.0101125,0.0296341,0.00027694,-1.19079,0.0196644,0.0187612,1329,414,2.83876,15.5896
112,610,2.79871,-15.5369,0.00341349,0.0248134,-0.00983475,0.0286465,-0.000419666,-1.19915,0.0192391,0.013292,1336,414,2.79874,15.5369
119,610,2.7948,-15.4668,0.00198543,0.0230343,-0.00892306,0.0263078,-0.00128814,-1.21918,0.0179833,0.0182219,1343,414,2.79484,15.4668
126,610,2.78015,-15.4159,0.00131631,0.0211962,-0.00881273,0.0245403,-0.00202783,-1.20812,0.0170763,0.0249558,1350,414,2.78012,15.4159
133,610,2.84814,-15.3551,0.00192866,0.0187557,-0.0084247,0.0222486,-0.00156423,-1.17777,0.0153804,0.0202186,1357,414,2.84817,15.3551
140,610,2.90784,-15.2985,0.00379978,0.0157802,-0.00772923,0.0195687,1.12662e-05,-1.11506,0.0130421,0.0154131,1364,414,2.90781,15.2985
147,610,2.88135,-15.2242,0.00558459,0.0126972,-0.00666356,0.0166941,0.00158773,-1.03052,0.0106397,0.0159688,1371,414,2.88131,15.2241
154,610,2.9071,-15.1401,0.00661882,0.00980039,-0.00581899,0.0142421,0.00217709,-0.918827,0.00885868,0.0196801,1378,414,2.90706,15.1401
161,610,2.93262,-15.0612,0.00750209,0.00673033,-0.00540136,0.0125313,0.00170108,-0.749738,0.00784889,0.0235085,1385,414,2.93262,15.0612
168,610,2.97363,-14.9824,0.00794589,0.00329553,-0.00456533,0.0107441,0.000497358,-0.549864,0.00700281,0.0247653,1392,414,2.97359,14.9824
175,610,3.00928,-14.9062,0.00719359,0.00174117,-0.00409618,0.00938784,-0.000453082,-0.491784,0.00641492,0.0193926,1399,414,3.00924,14.9062
182,610,2.99255,-14.8204,0.00550109,0.0011926,-0.00366017,0.00759392,-0.000900224,-0.519414,0.00538781,0.0138087,1406,414,2.99256,14.8204
189,610,2.98218,-14.7032,0.00394201,0.000358808,-0.00322918,0.0058433,-0.00154248,-0.532131,0.00449872,0.0135094,1413,414,2.98221,14.7032
196,610,3.00012,-14.5968,0.00194812,-0.000648494,-0.00294122,0.00386483,-0.00256521,-0.577551,0.00373758,0.0133664,1420,414,3.00011,14.5968
203,610,3.01392,-14.4871,0.00114231,-0.000813247,-0.00281323,0.00314284,-0.00281377,-0.618146,0.0034408,0.0137784,1427,414,3.01395,14.4871
210,610,3.01697,-14.3802,0.000210719,-0.000984941,-0.00246018,0.00214467,-0.00291889,-0.666207,0.00293481,0.0106216,1434,414,3.01697,14.3802
217,610,3.01038,-14.2515,-0.000255376,-0.000324872,-0.00205282,0.00176299,-0.00234323,-0.776936,0.0023786,0.0155227,1441,414,3.01041,14.2515
224,610,3.04199,-14.1309,-0.000364785,0.000169588,-0.00169421,0.00161755,-0.00181275,-0.863607,0.00198156,0.0180599,1448,414,3.04201,14.1309
231,610,3.05396,-14.009,-0.000342032,0.000679593,-0.00127895,0.00154597,-0.00120841,-0.975392,0.00159422,0.0149216,1455,414,3.05401,14.009
238,610,3.05151,-13.8717,-0.00019553,0.00118755,-0.000841803,0.00158544,-0.000593421,-1.12925,0.0013007,0.0114155,1462,414,3.05154,13.8717
245,610,3.05603,-13.7381,-7.39192e-05,0.00158007,-0.000477215,0.00170788,-0.00020173,-1.30911,0.00121144,0.012789,1469,414,3.05602,13.7381
252,610,3.06104,-13.5815,6.54888e-05,0.00197454,-0.000116647,0.00198164,5.83879e-05,-1.51,0.00130206,0.0139967,1476,414,3.06106,13.5815
259,610,3.05676,-13.4199,0.000230301,0.00242485,0.000211439,0.00244504,0.000210115,1.47562,0.0015647,0.0116022,1483,414,3.05678,13.4199
266,610,3.04688,-13.2438,0.000333007,0.00314545,0.000512417,0.0032359,0.000242556,1.39608,0.00208113,0.0116036,1490,414,3.04687,13.2438
273,610,3.02869,-13.0861,0.000344846,0.00433117,0.000799087,0.00448539,0.000190629,1.38015,0.00292878,0.00942047,1497,414,3.02866,13.0861
280,610,3.01953,-12.9253,0.000371039,0.00535991,0.00112609,0.00560231,0.000128634,1.35877,0.00369274,0.00916332,1504,414,3.01947,12.9253
287,610,3.01514,-12.7607,0.000345544,0.00647964,0.00143825,0.00680012,2.50619e-05,1.35155,0.00452508,0.0123934,1511,414,3.01516,12.7606
294,610,3.02417,-12.59,0.000242469,0.00792887,0.00171191,0.00829291,-0.000121567,1.36127,0.00556957,0.0110784,1518,414,3.02413,12.59
301,610,3.03394,-12.4248,8.84534e-05,0.00955823,0.00200727,0.00996613,-0.000319451,1.37031,0.00675309,0.00986739,1525,414,3.0339,12.4248
308,610,3.05115,-12.2481,-7.92116e-05,0.0113142,0.00235712,0.0117826,-0.000547606,1.37464,0.00804385,0.0110652,1532,414,3.0512,12.2481
315,610,3.03394,-12.0704,-0.000281097,0.0128713,0.00269585,0.0134024,-0.000812219,1.37627,0.00921763,0.0114915,1539,414,3.03393,12.0704
322,610,3.01917,-11.8653,-0.000498955,0.0142436,0.00304695,0.0148485,-0.00110387,1.37481,0.0102867,0.0111062,1546,414,3.01912,11.8653
329,610,3.00049,-11.6511,-0.000849491,0.0152114,0.00337789,0.0158929,-0.001531,1.37171,0.0111407,0.011492,1553,414,3.00049,11.6511
336,610,2.99561,-11.4304,-0.00148095,0.0154584,0.00337528,0.0161061,-0.00212873,1.38118,0.0115128,0.0119489,1560,414,2.99564,11.4304
343,610,2.99414,-11.2054,-0.00184238,0.0153372,0.0035334,0.0160356,-0.00254072,1.37567,0.0116302,0.0241859,1567,414,2.99411,11.2054
350,610,2.97693,-10.9562,0,0,0,0,0,0,0,-1,1574,414,2.9769,10.9562
357,610,3.03906,-10.6085,0,0,0,0,0,0,0,-1,1581,414,3.03909,10.6084
364,610,3.11072,-10.4625,0,0,0,0,0,0,0,-1,1588,414,3.11073,10.4625
371,610,3.12329,-10.1847,0,0,0,0,0,0,0,-1,1595,414,3.12327,10.1847
378,610,3.23218,-10.0737,0,0,0,0,0,0,0,-1,1602,414,3.23212,10.0737
385,610,2.28796,-10.2801,0,0,0,0,0,0,0,-1,1609,414,2.288,10.2801
392,610,2.35229,-10.3207,0,0,0,0,0,0,0,-1,1616,414,2.35227,10.3207
399,610,3.03833,-2.82547,0,0,0,0,0,0,0,-1,1623,414,3.03827,2.82546
406,610,2.91687,-2.9166,0,0,0,0,0,0,0,-1,1630,414,2.91688,2.91659
413,610,3.01929,-3.20306,0,0,0,0,0,0,0,-1,1637,414,3.01929,3.20306
420,610,4.78149,-3.64041,0,0,0,0,0,0,0,-1,1644,414,4.78152,3.64042
427,610,5.20764,-4.67545,0,0,0,0,0,0,0,-1,1651,414,5.20759,4.67545
434,610,5.39233,-5.45441,0,0,0,0,0,0,0,-1,1658,414,5.39228,5.4544
441,610,0,0,0,0,0,0,0,0,0,-1,1665,414,0,0
448,610,0,0,0,0,0,0,0,0,0,-1,1672,414,0,0
455,610,0,0,0,0,0,0,0,0,0,-1,1679,414,0,0
462,610,0,0,0,0,0,0,0,0,0,-1,1686,414,0,0
469,610,0,0,0,0,0,0,0,0,0,-1,1693,414,0,0
476,610,0,0,0,0,0,0,0,0,0,-1,1700,414,0,0
483,610,0,0,0,0,0,0,0,0,0,-1,1707,414,0,0
490,610,0,0,0,0,0,0,0,0,0,-1,1714,414,0,0
497,610,0,0,0,0,0,0,0,0,0,-1,1721,414,0,0
504,610,0,0,0,0,0,0,0,0,0,-1,1728,414,0,0
511,610,0,0,0,0,0,0,0,0,0,-1,1735,414,0,0
518,610,0,0,0,0,0,0,0,0,0,-1,1742,414,0,0
525,610,0,0,0,0,0,0,0,0,0,-1,1749,414,0,0
532,610,0,0,0,0,0,0,0,0,0,-1,1756,414,0,0
539,610,0,0,0,0,0,0,0,0,0,-1,1763,414,0,0
546,610,0,0,0,0,0,0,0,0,0,-1,1770,414,0,0
553,610,0,0,0,0,0,0,0,0,0,-1,1777,414,0,0
560,610,0,0,0,0,0,0,0,0,0,-1,1784,414,0,0
567,610,0,0,0,0,0,0,0,0,0,-1,1791,414,0,0
574,610,0,0,0,0,0,0,0,0,0,-1,1798,414,0,0
581,610,0,0,0,0,0,0,0,0,0,-1,1805,414,0,0
588,610,0,0,0,0,0,0,0,0,0,-1,1812,414,0,0
595,610,0,0,0,0,0,0,0,0,0,-1,1819,414,0,0
602,610,0,0,0,0,0,0,0,0,0,-1,1826,414,0,0
609,610,0,0,0,0,0,0,0,0,0,-1,1833,414,0,0
616,610,0,0,0,0,0,0,0,0,0,-1,1840,414,0,0
623,610,0,0,0,0,0,0,0,0,0,-1,1847,414,0,0
630,610,0,0,0,0,0,0,0,0,0,-1,1854,414,0,0
637,610,0,0,0,0,0,0,0,0,0,-1,1861,414,0,0
644,610,0,0,0,0,0,0,0,0,0,-1,1868,414,0,0
651,610,0,0,0,0,0,0,0,0,0,-1,1875,414,0,0
658,610,0,0,0,0,0,0,0,0,0,-1,1882,414,0,0
665,610,0,0,0,0,0,0,0,0,0,-1,1889,414,0,0
672,610,0,0,0,0,0,0,0,0,0,-1,1896,414,0,0
679,610,0,0,0,0,0,0,0,0,0,-1,1903,414,0,0
686,610,0,0,0,0,0,0,0,0,0,-1,1910,414,0,0
693,610,0,0,0,0,0,0,0,0,0,-1,1917,414,0,0
700,610,0,0,0,0,0,0,0,0,0,-1,1924,414,0,0
707,610,0,0,0,0,0,0,0,0,0,-1,1931,414,0,0
714,610,0,0,0,0,0,0,0,0,0,-1,1938,414,0,0
721,610,0,0,0,0,0,0,0,0,0,-1,1945,414,0,0
728,610,0,0,0,0,0,0,0,0,0,-1,1952,414,0,0
735,610,0,0,0,0,0,0,0,0,0,-1,1959,414,0,0
742,610,0,0,0,0,0,0,0,0,0,-1,1966,414,0,0
749,610,0,0,0,0,0,0,0,0,0,-1,1973,414,0,0
756,610,0,0,0,0,0,0,0,0,0,-1,1980,414,0,0
763,610,0,0,0,0,0,0,0,0,0,-1,1987,414,0,0
770,610,0,0,0,0,0,0,0,0,0,-1,1994,414,0,0
777,610,0,0,0,0,0,0,0,0,0,-1,2001,414,0,0
784,610,0,0,0,0,0,0,0,0,0,-1,2008,414,0,0
791,610,0,0,0,0,0,0,0,0,0,-1,2015,414,0,0
798,610,0,0,0,0,0,0,0,0,0,-1,2022,414,0,0
805,610,0,0,0,0,0,0,0,0,0,-1,2029,414,0,0
812,610,0,0,0,0,0,0,0,0,0,-1,2036,414,0,0
-700,603,0,0,0,0,0,0,0,0,0,-1,524,421,0,0
-693,603,0,0,0,0,0,0,0,0,0,-1,531,421,0,0
-686,603,0,0,0,0,0,0,0,0,0,-1,538,421,0,0
-679,603,0,0,0,0,0,0,0,0,0,-1,545,421,0,0
-672,603,0,0,0,0,0,0,0,0,0,-1,552,421,0,0
-665,603,0,0,0,0,0,0,0,0,0,-1,559,421,0,0
-658,603,0,0,0,0,0,0,0,0,0,-1,566,421,0,0
-651,603,0,0,0,0,0,0,0,0,0,-1,573,421,0,0
-644,603,0,0,0,0,0,0,0,0,0,-1,580,421,0,0
-637,603,0,0,0,0,0,0,0,0,0,-1,587,421,0,0
-630,603,0,0,0,0,0,0,0,0,0,-1,594,421,0,0
-623,603,0,0,0,0,0,0,0,0,0,-1,601,421,0,0
-616,603,0,0,0,0,0,0,0,0,0,-1,608,421,0,0
-609,603,0,0,0,0,0,0,0,0,0,-1,615,421,0,0
-602,603,0,0,0,0,0,0,0,0,0,-1,622,421,0,0
-595,603,0,0,0,0,0,0,0,0,0,-1,629,421,0,0
-588,603,0,0,0,0,0,0,0,0,0,-1,636,421,0,0
-581,603,0,0,0,0,0,0,0,0,0,-1,643,421,0,0
-574,603,0,0,0,0,0,0,0,0,0,-1,650,421,0,0
-567,603,0,0,0,0,0,0,0,0,0,-1,657,421,0,0
-560,603,0,0,0,0,0,0,0,0,0,-1,664,421,0,0
-553,603,0,0,0,0,0,0,0,0,0,-1,671,421,0,0
-546,603,0,0,0,0,0,0,0,0,0,-1,678,421,0,0
-539,603,0,0,0,0,0,0,0,0,0,-1,685,421,0,0
-532,603,0,0,0,0,0,0,0,0,0,-1,692,421,0,0
-525,603,0,0,0,0,0,0,0,0,0,-1,699,421,0,0
-518,603,0,0,0,0,0,0,0,0,0,-1,706,421,0,0
-511,603,0,0,0,0,0,0,0,0,0,-1,713,421,0,0
-504,603,0,0,0,0,0,0,0,0,0,-1,720,421,0,0
-497,603,0,0,0,0,0,0,0,0,0,-1,727,421,0,0
-490,603,0,0,0,0,0,0,0,0,0,-1,734,421,0,0
-483,603,0,0,0,0,0,0,0,0,0,-1,741,421,0,0
-476,603,0,0,0,0,0,0,0,0,0,-1,748,421,0,0
-469,603,0,0,0,0,0,0,0,0,0,-1,755,421,0,0
-462,603,0,0,0,0,0,0,0,0,0,-1,762,421,0,0
-455,603,0,0,0,0,0,0,0,0,0,-1,769,421,0,0
-448,603,0,0,0,0,0,0,0,0,0,-1,776,421,0,0
-441,603,0,0,0,0,0,0,0,0,0,-1,783,421,0,0
-434,603,0,0,0,0,0,0,0,0,0,-1,790,421,0,0
-427,603,0,0,0,0,0,0,0,0,0,-1,797,421,0,0
-420,603,0,0,0,0,0,0,0,0,0,-1,804,421,0,0
-413,603,0,0,0,0,0,0,0,0,0,-1,811,421,0,0
-406,603,0,0,0,0,0,0,0,0,0,-1,818,421,0,0
-399,603,0,0,0,0,0,0,0,0,0,-1,825,421,0,0
-392,603,0,0,0,0,0,0,0,0,0,-1,832,421,0,0
-385,603,0,0,0,0,0,0,0,0,0,-1,839,421,0,0
-378,603,0,0,0,0,0,0,0,0,0,-1,846,421,0,0
-371,603,0,0,0,0,0,0,0,0,0,-1,853,421,0,0
-364,603,0,0,0,0,0,0,0,0,0,-1,860,421,0,0
-357,603,0,0,0,0,0,0,0,0,0,-1,867,421,0,0
-350,603,0,0,0,0,0,0,0,0,0,-1,874,421,0,0
-343,603,0,0,0,0,0,0,0,0,0,-1,881,421,0,0
-336,603,0,0,0,0,0,0,0,0,0,-1,888,421,0,0
-329,603,4.6095,-8.85309,0,0,0,0,0,0,0,-1,895,421,4.60952,8.8531
-322,603,4.4209,-8.48056,0,0,0,0,0,0,0,-1,902,421,4.42093,8.48056
-315,603,3.94946,-8.08862,0,0,0,0,0,0,0,-1,909,421,3.94948,8.08863
-308,603,3.98242,-10.9689,0,0,0,0,0,0,0,-1,916,421,3.9824,10.9689
-301,603,3.24878,-10.5211,0,0,0,0,0,0,0,-1,923,421,3.24879,10.5211
-294,603,3.4928,-10.1051,0,0,0,0,0,0,0,-1,930,421,3.49282,10.1051
-287,603,1.93921,-9.72574,0,0,0,0,0,0,0,-1,937,421,1.93921,9.72574
-280,603,2.37079,-10.1415,0,0,0,0,0,0,0,-1,944,421,2.37081,10.1416
-273,603,1.60126,-10.8298,0,0,0,0,0,0,0,-1,951,421,1.60127,10.8298
-266,603,1.63898,-10.9938,0,0,0,0,0,0,0,-1,958,421,1.63896,10.9938
-259,603,2.32764,-10.9246,0.0154905,0.0222599,-0.0203279,0.039483,-0.00173259,-0.867894,0.0269181,0.0448674,965,421,2.32763,10.9246
-252,603,2.28094,-11.2577,0.0145382,0.023268,-0.0197037,0.0390844,-0.00127832,-0.894401,0.0264927,0.0427036,972,421,2.28093,11.2577
-245,603,2.19342,-11.4896,0.0135955,0.0234455,-0.0187442,0.0379009,-0.000859888,-0.913868,0.0255587,0.0318623,979,421,2.19342,11.4896
-238,603,2.24854,-11.606,0.0122624,0.0231389,-0.0173545,0.0358873,-0.000485912,-0.937233,0.0240884,0.0195601,986,421,2.24851,11.606
-231,603,2.24762,-11.8381,0.010549,0.0213904,-0.0157087,0.0325873,-0.000647929,-0.951539,0.0219441,0.0140779,993,421,2.24764,11.8381
-224,603,2.20856,-12.0482,0.00911399,0.0192739,-0.0140041,0.029091,-0.00070306,-0.959392,0.0196325,0.0135437,1000,421,2.20857,12.0482
-217,603,2.21252,-12.2072,0.00776306,0.0168052,-0.0121007,0.0252019,-0.000633572,-0.964179,0.0170164,0.0116499,1007,421,2.21251,12.2072
-210,603,2.22321,-12.3919,0.00638874,0.0140611,-0.0102362,0.0211563,-0.000706514,-0.964681,0.0143455,0.010034,1014,421,2.22322,12.3919
-203,603,2.22644,-12.5981,0.00519187,0.0110631,-0.00851518,0.0171345,-0.000879528,-0.951393,0.0117272,0.0157882,1021,421,2.22645,12.5982
-196,603,2.23523,-12.7943,0.00416809,0.00834532,-0.00676101,0.013333,-0.000819564,-0.935208,0.00917405,0.0161985,1028,421,2.23519,12.7943
-189,603,2.21252,-12.9079,0.00316744,0.00579679,-0.00505445,0.00970475,-0.000740514,-0.91263,0.00673026,0.0130771,1035,421,2.21252,12.9079
-182,603,2.18359,-13.0813,0.00244412,0.00396163,-0.00369021,0.00697028,-0.000564536,-0.886791,0.00484601,0.0100104,1042,421,2.18358,13.0813
-175,603,2.15894,-13.2323,0.00211574,0.00230471,-0.00254857,0.00476055,-0.000340095,-0.803926,0.00329292,0.0100971,1049,421,2.15898,13.2323
-168,603,2.14832,-13.3666,0.0017209,0.000754291,-0.00128884,0.00261408,-0.000138885,-0.606016,0.00179081,0.0128365,1056,421,2.14826,13.3666
-161,603,2.14893,-13.548,0.00141251,-1.35481e-05,-0.000449671,0.00154246,-0.000143499,-0.281326,0.00107932,0.0130122,1063,421,2.14889,13.548
-154,603,2.13721,-13.7073,0.00125422,-0.000268692,2.04274e-05,0.0012545,-0.000268966,0.0134102,0.000938918,0.0124246,1070,421,2.13716,13.7073
-147,603,2.13989,-13.8148,0.00116804,-0.000243985,0.00036715,0.0012578,-0.000333745,0.239773,0.000969131,0.0130078,1077,421,2.13984,13.8148
-140,603,2.16724,-13.9675,0.0012618,-0.000221475,0.000533588,0.0014338,-0.00039348,0.311839,0.00111051,0.0107947,1084,421,2.1672,13.9675
-133,603,2.15955,-14.0933,0.00130155,-0.00029623,0.000663233,0.00154098,-0.000535658,0.346441,0.0012449,0.0112745,1091,421,2.15949,14.0933
-126,603,2.15845,-14.2009,0.00131831,-0.000238008,0.000746062,0.00161818,-0.000537875,0.382172,0.00129584,0.0101991,1098,421,2.15849,14.2009
-119,603,2.19104,-14.3307,0.00142242,-0.000180683,0.000627501,0.00163882,-0.000397092,0.332101,0.00124618,0.0102023,1105,421,2.19105,14.3307
-112,603,2.1958,-14.4703,0.00167188,-0.000252774,0.000513219,0.00180018,-0.000381074,0.24497,0.00134526,0.0148404,1112,421,2.19584,14.4703
-105,603,2.19214,-14.5955,0.00204982,-0.000293913,0.000380721,0.00211011,-0.000354207,0.157064,0.00153846,0.0148763,1119,421,2.19213,14.5955
-98,603,2.19275,-14.6767,0.00247323,-0.000463385,0.000158332,0.00248174,-0.000471897,0.053709,0.00183216,0.0118475,1126,421,2.19279,14.6767
-91,603,2.20581,-14.7586,0.00291976,-0.000556763,-0.000100645,0.00292267,-0.000559674,-0.0289175,0.00215932,0.00819737,1133,421,2.20577,14.7586
-84,603,2.23291,-14.8795,0.0033939,-0.000527895,-0.000201273,0.0034042,-0.000538198,-0.0511424,0.0024685,0.00856905,1140,421,2.23289,14.8794
-77,603,2.25146,-14.9955,0.00389684,-0.000358188,-0.000364068,0.00392777,-0.000389114,-0.084741,0.00275738,0.0115341,1147,421,2.25151,14.9955
-70,603,2.32434,-15.226,0.00433808,-0.000482534,-0.000176875,0.00434456,-0.000489015,-0.0366257,0.00307238,0.0324574,1154,421,2.32435,15.226
-63,603,2.38745,-15.4999,0,0,0,0,0,0,0,-1,1161,421,2.38749,15.4999
-56,603,2.2511,-15.1982,0,0,0,0,0,0,0,-1,1168,421,2.25113,15.1982
-49,603,2.30347,-15.2464,0,0,0,0,0,0,0,-1,1175,421,2.30345,15.2464
-42,603,2.32751,-15.3027,0,0,0,0,0,0,0,-1,1182,421,2.32746,15.3027
-35,603,2.24927,-15.3667,0.00288799,-0.00124357,0.00020817,0.00289845,-0.00125403,0.0502158,0.0024593,0.0419773,1189,421,2.24927,15.3667
-28,603,2.28271,-15.4166,0.00124673,-0.000933281,0.000465554,0.00134199,-0.00102854,0.201829,0.00137261,0.0242541,1196,421,2.28272,15.4166
-21,603,2.35571,-15.4753,0.000285816,-0.000308808,0.00134867,0.00136956,-0.00139255,0.67691,0.00159473,0.0191095,1203,421,2.35567,15.4752
-14,603,2.39502,-15.5222,-8.46839e-05,-0.000711756,0.00234894,0.00197155,-0.00276799,0.71905,0.00274922,0.0191977,1210,421,2.39507,15.5222
-7,603,2.42432,-15.5676,0.000165174,-0.00119888,0.00294869,0.00250968,-0.00354339,0.671747,0.00351169,0.0213652,1217,421,2.42432,15.5676
0,603,2.41028,-15.6193,0.000393989,-0.0014955,0.00353474,0.00310806,-0.00420957,0.654814,0.00424076,0.025796,1224,421,2.41034,15.6193
7,603,2.37427,-15.5951,0.000337982,-0.00222654,0.00378681,0.00305374,-0.0049423,0.622151,0.00465924,0.0306467,1231,421,2.37431,15.595
14,603,2.50647,-15.5649,0.00278978,-0.00163889,0.0027911,0.00413825,-0.00298736,0.45006,0.00413182,0.0285011,1238,421,2.50642,15.5649
21,603,2.56323,-15.6111,0.00626169,-0.00145051,0.00250859,0.00700587,-0.00219469,0.288381,0.00554876,0.0220267,1245,421,2.56319,15.6111
28,603,2.65417,-15.6736,0.0097118,-0.000654216,0.00177868,0.0100085,-0.000950924,0.165291,0.00701085,0.0229319,1252,421,2.65416,15.6736
35,603,2.6438,-15.6306,0.0123774,0.001127,0.000594692,0.0124087,0.00109565,0.0526642,0.00793252,0.0301096,1259,421,2.64385,15.6307
42,603,2.65662,-15.6582,0.0147803,0.00369437,-0.00124199,0.0149177,0.00355693,-0.110213,0.00899701,0.0281665,1266,421,2.65668,15.6582
49,603,2.68506,-15.7204,0.0171526,0.00691684,-0.00321332,0.0180778,0.0059917,-0.280326,0.0106331,0.0159401,1273,421,2.68502,15.7204
56,603,2.63623,-15.6831,0.018608,0.010971,-0.005065,0.0211326,0.00844637,-0.462401,0.0122825,0.0279637,1280,421,2.63623,15.6831
63,603,2.62,-15.5821,0.0186214,0.0158137,-0.00712706,0.0244815,0.00995353,-0.688157,0.0142164,0.0374681,1287,421,2.61996,15.5821
70,603,2.70117,-15.4366,0.0179707,0.0205863,-0.00897616,0.0283494,0.0102076,-0.857738,0.0165799,0.0430621,1294,421,2.70118,15.4366
77,603,2.73462,-15.6377,0.0169004,0.0249486,-0.0105638,0.0322288,0.00962022,-0.967381,0.0191043,0.0476003,1301,421,2.7346,15.6377
84,603,2.7616,-15.5936,0.0149492,0.0290854,-0.0121509,0.0360745,0.00796016,-1.04882,0.0218843,0.048678,1308,421,2.76164,15.5936
91,603,2.80969,-15.5651,0.0129715,0.0327475,-0.0131997,0.0393521,0.00636687,-1.10686,0.024391,0.0488341,1315,421,2.80967,15.5651
98,603,2.77161,-15.5972,0.0107247,0.0355169,-0.0135817,0.041509,0.00473254,-1.15529,0.0262378,0.0466277,1322,421,2.77157,15.5972
105,603,2.96899,-15.5654,0.00968798,0.0372466,-0.0136773,0.0428822,0.00405242,-1.17996,0.0273376,0.0401306,1329,421,2.96896,15.5654
112,603,2.91785,-15.5012,0.00965699,0.0374098,-0.013138,0.0426426,0.00442418,-1.19176,0.0270744,0.0332292,1336,421,2.91784,15.5012
119,603,2.8313,-15.4182,0.00923263,0.0360978,-0.0117221,0.0404933,0.00483706,-1.21204,0.0255364,0.0353475,1343,421,2.83127,15.4182
126,603,2.9353,-15.3514,0.0099639,0.0349787,-0.0113927,0.0393896,0.00555304,-1.2014,0.0246184,0.0415496,1350,421,2.9353,15.3514
133,603,3.00891,-15.2613,0.012373,0.0330863,-0.0106829,0.0376087,0.0078506,-1.17034,0.0229085,0.0363783,1357,421,3.00886,15.2613
140,603,3.06812,-15.222,0.0162791,0.0304002,-0.0096587,0.0353038,0.0113754,-1.10101,0.0208077,0.0226407,1364,421,3.06816,15.222
147,603,3.00818,-15.1841,0.0197851,0.0275399,-0.00823945,0.0327687,0.0145563,-1.00532,0.0189582,0.017133,1371,421,3.00822,15.1841
154,603,3.00708,-15.1473,0.0219651,0.0245094,-0.00714297,0.0304926,0.0159818,-0.873523,0.0176117,0.0245223,1378,421,3.00708,15.1473
161,603,3.03882,-15.0684,0.023299,0.0208039,-0.00668401,0.0288509,0.015252,-0.693137,0.0166662,0.0268196,1385,421,3.03887,15.0684
168,603,3.08752,-14.9469,0.0234296,0.0160327,-0.00573422,0.0265547,0.0129077,-0.498979,0.0153333,0.0268695,1392,421,3.0875,14.9469
175,603,3.20752,-14.8607,0.0210298,0.0124335,-0.00530813,0.0235618,0.00990156,-0.445075,0.013661,0.0291064,1399,421,3.20752,14.8607
182,603,3.27625,-14.7515,0.0161626,0.00919198,-0.00512756,0.0188772,0.00647736,-0.486905,0.0110761,0.0357224,1406,421,3.27628,14.7515
189,603,3.21631,-14.6633,0.011524,0.00566207,-0.00479558,0.0142133,0.00297269,-0.5111,0.00865651,0.0331011,1413,421,3.21635,14.6633
196,603,3.15027,-14.5171,0.00619154,0.00220807,-0.00467697,0.00928322,-0.000883609,-0.584099,0.00650339,0.0242584,1420,421,3.15032,14.5171
203,603,3.12878,-14.4446,0.00302538,6.87772e-05,-0.00455918,0.00633993,-0.00324578,-0.628623,0.0056296,0.013292,1427,421,3.12879,14.4446
210,603,3.11658,-14.3811,0.000230868,-0.00181723,-0.00381096,0.00315297,-0.00473933,-0.654143,0.0045872,0.0105753,1434,421,3.11653,14.3811
217,603,3.12646,-14.2527,-0.000382847,-0.00093451,-0.00328525,0.00263813,-0.00395549,-0.743516,0.00383207,0.0126702,1441,421,3.12645,14.2526
224,603,3.16687,-14.1312,-0.000493,-0.000294516,-0.00282713,0.00243511,-0.00322263,-0.802943,0.00327703,0.0157534,1448,421,3.16691,14.1312
231,603,3.18652,-14.0122,-0.00046265,0.000352693,-0.0022979,0.0022788,-0.00238876,-0.87319,0.00269507,0.0144033,1455,421,3.18649,14.0122
238,603,3.18408,-13.8672,-0.000254889,0.000903157,-0.00175119,0.00216857,-0.0015203,-0.945063,0.00214071,0.011056,1462,421,3.18406,13.8672
245,603,3.20142,-13.7332,-4.23776e-05,0.00136064,-0.001267,0.00210737,-0.000789109,-1.03823,0.00172905,0.0118757,1469,421,3.20146,13.7332
252,603,3.20325,-13.5827,0.000159023,0.00173764,-0.000812013,0.00208075,-0.000184087,-1.17101,0.00145243,0.0102743,1476,421,3.20323,13.5827
259,603,3.18726,-13.4185,0.000339647,0.00203633,-0.000410848,0.00213058,0.000245397,-1.34529,0.00134607,0.0100644,1483,421,3.18732,13.4185
266,603,3.17578,-13.2469,0.000461575,0.00241682,-7.96579e-05,0.00242006,0.000458335,-1.53015,0.00148437,0.0111179,1490,421,3.17581,13.2469
273,603,3.19202,-13.0698,0.00050142,0.00298895,0.000220552,0.00300835,0.000482017,1.48305,0.00186577,0.00971903,1497,421,3.192,13.0698
280,603,3.20581,-12.8971,0.000570995,0.00347929,0.000562519,0.0035843,0.000465985,1.38624,0.00225035,0.0110635,1504,421,3.20578,12.8971
287,603,3.21863,-12.7467,0.000566625,0.00412329,0.00082228,0.0043042,0.000385721,1.35424,0.00274992,0.0112638,1511,421,3.2186,12.7467
294,603,3.21301,-12.5986,0.000473023,0.00499737,0.00104255,0.00522605,0.000244344,1.35487,0.00340551,0.0100208,1518,421,3.213,12.5986
301,603,3.21912,-12.4261,0.000322224,0.00600842,0.00126651,0.00627776,5.28856e-05,1.36126,0.00416766,0.0117011,1525,421,3.21911,12.4262
308,603,3.23254,-12.2526,0.000180371,0.00719655,0.00154689,0.00752247,-0.000145542,1.36314,0.00506419,0.0165311,1532,421,3.23254,12.2526
315,603,3.21411,-12.0688,3.08978e-05,0.00830421,0.00183124,0.00869142,-0.000356313,1.36242,0.00591663,0.014151,1539,421,3.21406,12.0688
322,603,3.1908,-11.863,-0.000133403,0.00929864,0.00213127,0.00975786,-0.000592627,1.35857,0.00671151,0.0129585,1546,421,3.19077,11.863
329,603,3.17676,-11.6496,-0.000404987,0.00999864,0.00244258,0.0105436,-0.000949915,1.3513,0.00736613,0.0102633,1553,421,3.17681,11.6496
336,603,3.16492,-11.458,-0.000895175,0.0101496,0.0025009,0.0106895,-0.00143507,1.35818,0.0076497,0.00935133,1560,421,3.16494,11.458
343,603,3.16248,-11.2448,-0.00116074,0.0100337,0.002709,0.0106548,-0.00178184,1.34542,0.0077656,0.0108813,1567,421,3.16245,11.2448
350,603,3.14966,-11.0278,-0.00146621,0.00996706,0.0029217,0.0106704,-0.00216956,1.33456,0.00793627,0.020947,1574,421,3.14969,11.0278
357,603,3.15771,-10.7714,-0.00194624,0.00942518,0.00300319,0.0101696,-0.00269065,1.32782,0.00783221,0.0277117,1581,421,3.15771,10.7714
364,603,3.15845,-10.531,-0.00266697,0.00850564,0.0030245,0.00927185,-0.00343318,1.32268,0.00758905,0.0278684,1588,421,3.15848,10.531
371,603,3.18127,-10.3126,-0.00336841,0.00672986,0.00286135,0.00748426,-0.00412281,1.31301,0.00679438,0.0303937,1595,421,3.18129,10.3126
378,603,3.24805,-10.1797,-0.00404001,0.00371785,0.00263284,0.00452699,-0.00484915,1.27263,0.00541438,0.0391488,1602,421,3.24803,10.1797
385,603,2.90454,-10.0937,-0.00485871,0.00257256,0.00225989,0.00320584,-0.00549199,1.29758,0.00507918,0.0459872,1609,421,2.90454,10.0937
392,603,2.89124,-10.0076,0,0,0,0,0,0,0,-1,1616,421,2.89123,10.0076
399,603,2.38013,-5.37076,0,0,0,0,0,0,0,-1,1623,421,2.38016,5.37075
406,603,3.01917,-2.37219,0,0,0,0,0,0,0,-1,1630,421,3.01915,2.37219
413,603,2.38928,-2.41275,0,0,0,0,0,0,0,-1,1637,421,2.38926,2.41274
420,603,2.74866,-2.30066,0,0,0,0,0,0,0,-1,1644,421,2.74867,2.30065
427,603,7.11548,-3.35352,0,0,0,0,0,0,0,-1,1651,421,7.11549,3.35351
434,603,7.32153,-4.50525,0,0,0,0,0,0,0,-1,1658,421,7.32149,4.50525
441,603,3.18213,-0.250946,0,0,0,0,0,0,0,-1,1665,421,3.18212,0.250944
448,603,2.95667,-0.066925,0,0,0,0,0,0,0,-1,1672,421,2.95662,0.0669226
455,603,0,0,0,0,0,0,0,0,0,-1,1679,421,0,0
462,603,0,0,0,0,0,0,0,0,0,-1,1686,421,0,0
469,603,0,0,0,0,0,0,0,0,0,-1,1693,421,0,0
476,603,0,0,0,0,0,0,0,0,0,-1,1700,421,0,0
483,603,0,0,0,0,0,0,0,0,0,-1,1707,421,0,0
490,603,0,0,0,0,0,0,0,0,0,-1,1714,421,0,0
497,603,0,0,0,0,0,0,0,0,0,-1,1721,421,0,0
504,603,0,0,0,0,0,0,0,0,0,-1,1728,421,0,0
511,603,0,0,0,0,0,0,0,0,0,-1,1735,421,0,0
518,603,0,0,0,0,0,0,0,0,0,-1,1742,421,0,0
525,603,0,0,0,0,0,0,0,0,0,-1,1749,421,0,0
532,603,0,0,0,0,0,0,0,0,0,-1,1756,421,0,0
539,603,0,0,0,0,0,0,0,0,0,-1,1763,421,0,0
546,603,0,0,0,0,0,0,0,0,0,-1,1770,421,0,0
553,603,0,0,0,0,0,0,0,0,0,-1,1777,421,0,0
560,603,0,0,0,0,0,0,0,0,0,-1,1784,421,0,0
567,603,0,0,0,0,0,0,0,0,0,-1,1791,421,0,0
574,603,0,0,0,0,0,0,0,0,0,-1,1798,421,0,0
581,603,0,0,0,0,0,0,0,0,0,-1,1805,421,0,0
588,603,0,0,0,0,0,0,0,0,0,-1,1812,421,0,0
595,603,0,0,0,0,0,0,0,0,0,-1,1819,421,0,0
602,603,0,0,0,0,0,0,0,0,0,-1,1826,421,0,0
609,603,0,0,0,0,0,0,0,0,0,-1,1833,421,0,0
616,603,0,0,0,0,0,0,0,0,0,-1,1840,421,0,0
623,603,0,0,0,0,0,0,0,0,0,-1,1847,421,0,0
630,603,0,0,0,0,0,0,0,0,0,-1,1854,421,0,0
637,603,0,0,0,0,0,0,0,0,0,-1,1861,421,0,0
644,603,0,0,0,0,0,0,0,0,0,-1,1868,421,0,0
651,603,0,0,0,0,0,0,0,0,0,-1,1875,421,0,0
658,603,0,0,0,0,0,0,0,0,0,-1,1882,421,0,0
665,603,0,0,0,0,0,0,0,0,0,-1,1889,421,0,0
672,603,0,0,0,0,0,0,0,0,0,-1,1896,421,0,0
679,603,0,0,0,0,0,0,0,0,0,-1,1903,421,0,0
686,603,0,0,0,0,0,0,0,0,0,-1,1910,421,0,0
693,603,0,0,0,0,0,0,0,0,0,-1,1917,421,0,0
700,603,0,0,0,0,0,0,0,0,0,-1,1924,421,0,0
707,603,0,0,0,0,0,0,0,0,0,-1,1931,421,0,0
714,603,0,0,0,0,0,0,0,0,0,-1,1938,421,0,0
721,603,0,0,0,0,0,0,0,0,0,-1,1945,421,0,0
728,603,0,0,0,0,0,0,0,0,0,-1,1952,421,0,0
735,603,0,0,0,0,0,0,0,0,0,-1,1959,421,0,0
742,603,0,0,0,0,0,0,0,0,0,-1,1966,421,0,0
749,603,0,0,0,0,0,0,0,0,0,-1,1973,421,0,0
756,603,0,0,0,0,0,0,0,0,0,-1,1980,421,0,0
763,603,0,0,0,0,0,0,0,0,0,-1,1987,421,0,0
770,603,0,0,0,0,0,0,0,0,0,-1,1994,421,0,0
777,603,0,0,0,0,0,0,0,0,0,-1,2001,421,0,0
784,603,0,0,0,0,0,0,0,0,0,-1,2008,421,0,0
791,603,0,0,0,0,0,0,0,0,0,-1,2015,421,0,0
798,603,0,0,0,0,0,0,0,0,0,-1,2022,421,0,0
805,603,0,0,0,0,0,0,0,0,0,-1,2029,421,0,0
812,603,0,0,0,0,0,0,0,0,0,-1,2036,421,0,0
-700,596,0,0,0,0,0,0,0,0,0,-1,524,428,0,0
-693,596,0,0,0,0,0,0,0,0,0,-1,531,428,0,0
-686,596,0,0,0,0,0,0,0,0,0,-1,538,428,0,0
-679,596,0,0,0,0,0,0,0,0,0,-1,545,428,0,0
-672,596,0,0,0,0,0,0,0,0,0,-1,552,428,0,0
-665,596,0,0,0,0,0,0,0,0,0,-1,559,428,0,0
-658,596,0,0,0,0,0,0,0,0,0,-1,566,428,0,0
-651,596,0,0,0,0,0,0,0,0,0,-1,573,428,0,0
-644,596,0,0,0,0,0,0,0,0,0,-1,580,428,0,0
-637,596,0,0,0,0,0,0,0,0,0,-1,587,428,0,0
-630,596,0,0,0,0,0,0,0,0,0,-1,594,428,0,0
-623,596,0,0,0,0,0,0,0,0,0,-1,601,428,0,0
-616,596,0,0,0,0,0,0,0,0,0,-1,608,428,0,0
-609,596,0,0,0,0,0,0,0,0,0,-1,615,428,0,0
-602,596,0,0,0,0,0,0,0,0,0,-1,622,428,0,0
-595,596,0,0,0,0,0,0,0,0,0,-1,629,428,0,0
-588,596,0,0,0,0,0,0,0,0,0,-1,636,428,0,0
-581,596,0,0,0,0,0,0,0,0,0,-1,643,428,0,0
-574,596,0,0,0,0,0,0,0,0,0,-1,650,428,0,0
-567,596,0,0,0,0,0,0,0,0,0,-1,657,428,0,0
-560,596,0,0,0,0,0,0,0,0,0,-1,664,428,0,0
-553,596,0,0,0,0,0,0,0,0,0,-1,671,428,0,0
-546,596,0,0,0,0,0,0,0,0,0,-1,678,428,0,0
-539,596,0,0,0,0,0,0,0,0,0,-1,685,428,0,0
-532,596,0,0,0,0,0,0,0,0,0,-1,692,428,0,0
-525,596,0,0,0,0,0,0,0,0,0,-1,699,428,0,0
-518,596,0,0,0,0,0,0,0,0,0,-1,706,428,0,0
-511,596,0,0,0,0,0,0,0,0,0,-1,713,428,0,0
-504,596,0,0,0,0,0,0,0,0,0,-1,720,428,0,0
-497,596,0,0,0,0,0,0,0,0,0,-1,727,428,0,0
-490,596,0,0,0,0,0,0,0,0,0,-1,734,428,0,0
-483,596,0,0,0,0,0,0,0,0,0,-1,741,428,0,0
-476,596,0,0,0,0,0,0,0,0,0,-1,748,428,0,0
-469,596,0,0,0,0,0,0,0,0,0,-1,755,428,0,0
-462,596,0,0,0,0,0,0,0,0,0,-1,762,428,0,0
-455,596,0,0,0,0,0,0,0,0,0,-1,769,428,0,0
-448,596,0,0,0,0,0,0,0,0,0,-1,776,428,0,0
-441,596,0,0,0,0,0,0,0,0,0,-1,783,428,0,0
-434,596,0,0,0,0,0,0,0,0,0,-1,790,428,0,0
-427,596,0,0,0,0,0,0,0,0,0,-1,797,428,0,0
-420,596,0,0,0,0,0,0,0,0,0,-1,804,428,0,0
-413,596,0,0,0,0,0,0,0,0,0,-1,811,428,0,0
-406,596,0,0,0,0,0,0,0,0,0,-1,818,428,0,0
-399,596,0,0,0,0,0,0,0,0,0,-1,825,428,0,0
-392,596,0,0,0,0,0,0,0,0,0,-1,832,428,0,0
-385,596,0,0,0,0,0,0,0,0,0,-1,839,428,0,0
-378,596,0,0,0,0,0,0,0,0,0,-1,846,428,0,0
-371,596,0,0,0,0,0,0,0,0,0,-1,853,428,0,0
-364,596,0,0,0,0,0,0,0,0,0,-1,860,428,0,0
-357,596,0,0,0,0,0,0,0,0,0,-1,867,428,0,0
-350,596,0,0,0,0,0,0,0,0,0,-1,874,428,0,0
-343,596,0,0,0,0,0,0,0,0,0,-1,881,428,0,0
-336,596,1.89813,-9.66019,0,0,0,0,0,0,0,-1,888,428,1.89813,9.6602
-329,596,1.54865,-9.16202,0,0,0,0,0,0,0,-1,895,428,1.54866,9.16203
-322,596,2.35809,-9.06784,0,0,0,0,0,0,0,-1,902,428,2.35812,9.06783
-315,596,2.86914,-8.61859,0,0,0,0,0,0,0,-1,909,428,2.86912,8.6186
-308,596,2.54156,-9.6687,0,0,0,0,0,0,0,-1,916,428,2.54157,9.66871
-301,596,2.74261,-9.75107,0,0,0,0,0,0,0,-1,923,428,2.74263,9.75105
-294,596,2.96045,-9.93341,0,0,0,0,0,0,0,-1,930,428,2.96043,9.93342
-287,596,1.93298,-9.90692,0,0,0,0,0,0,0,-1,937,428,1.93301,9.90692
-280,596,1.79468,-10.5898,0,0,0,0,0,0,0,-1,944,428,1.7947,10.5898
-273,596,1.78119,-10.762,0.00992746,0.00796502,-0.00969084,0.0186866,-0.000794149,-0.734944,0.0127307,0.0452289,951,428,1.78117,10.762
-266,596,1.80072,-10.9366,0.0101172,0.00968618,-0.0118756,0.0217792,-0.00197586,-0.776326,0.0152209,0.0366414,958,428,1.80074,10.9366
-259,596,1.94531,-11.072,0.0093531,0.010322,-0.0112153,0.0210633,-0.00138818,-0.806983,0.014527,0.0316888,965,428,1.94533,11.072
-252,596,2.10828,-11.2633,0.00867304,0.0108155,-0.0105387,0.0203373,-0.000848719,-0.836049,0.0138498,0.0173272,972,428,2.10826,11.2633
-245,596,2.08801,-11.4652,0.00812722,0.0109289,-0.00977479,0.0194027,-0.000346601,-0.856569,0.0130522,0.0127585,979,428,2.08801,11.4652
-238,596,2.08136,-11.6698,0.00728322,0.0107227,-0.00870913,0.0178803,0.000125671,-0.882877,0.0118785,0.0117092,986,428,2.08138,11.6698
-231,596,2.05579,-11.8686,0.00610446,0.00978718,-0.0076187,0.0157839,0.000107764,-0.903969,0.0104868,0.0130245,993,428,2.0558,11.8686
-224,596,2.02692,-12.0482,0.00519312,0.0087652,-0.00663575,0.0138511,0.000107246,-0.91686,0.0091985,0.0132487,1000,428,2.02693,12.0482
-217,596,2.03467,-12.222,0.00437833,0.00757615,-0.00558375,0.0117854,0.000169075,-0.924842,0.00780119,0.0132415,1007,428,2.03466,12.222
-210,596,2.05511,-12.4026,0.00354135,0.00623856,-0.00463454,0.00971672,6.31842e-05,-0.926983,0.00645686,0.0111207,1014,428,2.05514,12.4026
-203,596,2.04626,-12.5952,0.00284089,0.0047948,-0.00379576,0.00773731,-0.000101619,-0.911355,0.00519241,0.0146506,1021,428,2.04626,12.5952
-196,596,2.04968,-12.7781,0.00227179,0.003618,-0.00288393,0.00590633,-1.65424e-05,-0.900045,0.00394308,0.0143614,1028,428,2.04965,12.7781
-189,596,2.02661,-12.9318,0.00166938,0.00250365,-0.00191563,0.00404703,0.000125998,-0.892603,0.00265702,0.0110357,1035,428,2.02663,12.9318
-182,596,2.01648,-13.0813,0.00126239,0.0017663,-0.00108614,0.00262933,0.000399362,-0.899367,0.0016361,0.010751,1042,428,2.01649,13.0813
-175,596,2.02002,-13.2324,0.00114726,0.00108678,-0.000391384,0.00150958,0.000724473,-0.746842,0.000871788,0.0129469,1049,428,2.02008,13.2324
-168,596,2.02869,-13.377,0.00102117,0.000513335,0.000358908,0.0012069,0.000327606,0.477538,0.000720659,0.0155339,1056,428,2.02865,13.3769
-161,596,2.02039,-13.5333,0.000891646,0.000285069,0.000889415,0.00152806,-0.000351346,0.621082,0.00115379,0.0147847,1063,428,2.02038,13.5333
-154,596,1.99658,-13.6908,0.000801112,0.000217674,0.00125609,0.00179892,-0.000780131,0.671299,0.00152725,0.0123209,1070,428,1.99658,13.6908
-147,596,2.01807,-13.8166,0.000789623,0.000134814,0.00163642,0.00213107,-0.00120663,0.686665,0.00195151,0.0125195,1077,428,2.01808,13.8166
-140,596,2.04053,-13.9552,0.00103589,-7.41709e-05,0.00179349,0.00235827,-0.00139655,0.635337,0.00219142,0.0131864,1084,428,2.04058,13.9552
-133,596,2.03528,-14.1089,0.00120697,-0.000306626,0.00185241,0.00245121,-0.00155087,0.591471,0.00233001,0.0138263,1091,428,2.03523,14.1089
-126,596,2.04285,-14.2023,0.00139102,-0.000612961,0.00183571,0.0024804,-0.00170234,0.535579,0.00242879,0.0110318,1098,428,2.04289,14.2023
-119,596,2.07446,-14.3319,0.00169078,-0.000852116,0.00159911,0.0024623,-0.00162364,0.449526,0.00237552,0.0139777,1105,428,2.07444,14.3319
-112,596,2.07788,-14.4661,0.00214178,-0.00111567,0.00134635,0.00262621,-0.0016001,0.345384,0.00246392,0.0149346,1112,428,2.07789,14.4661
-105,596,2.07056,-14.59,0.00273658,-0.00120255,0.00102848,0.00298894,-0.00145492,0.24062,0.00261612,0.0137209,1119,428,2.07057,14.59
-98,596,2.08557,-14.6668,0.00337769,-0.00144975,0.000565184,0.00344298,-0.00151504,0.115005,0.00293376,0.00949665,1126,428,2.08552,14.6669
-91,596,2.09912,-14.7745,0.00404555,-0.00148343,3.3298e-05,0.00404575,-0.00148363,0.00602216,0.00330465,0.0101135,1133,428,2.09916,14.7745
-84,596,2.16821,-14.9669,0.00468627,-0.00107729,-0.000180718,0.00469193,-0.00108295,-0.0313143,0.00354452,0.0185662,1140,428,2.16824,14.9669
-77,596,2.22717,-15.1753,0,0,0,0,0,0,0,-1,1147,428,2.22718,15.1753
-70,596,2.26672,-15.4843,0,0,0,0,0,0,0,-1,1154,428,2.26668,15.4843
-63,596,1.95569,-12.2758,0,0,0,0,0,0,0,-1,1161,428,1.95563,12.2759
-56,596,1.60107,-10.5827,0,0,0,0,0,0,0,-1,1168,428,1.60108,10.5827
-49,596,1.59473,-10.0393,0,0,0,0,0,0,0,-1,1175,428,1.59472,10.0393
-42,596,1.99585,-6.6246,0,0,0,0,0,0,0,-1,1182,428,1.99586,6.62459
-35,596,1.92444,-15.2391,0,0,0,0,0,0,0,-1,1189,428,1.9244,15.2391
-28,596,2.14221,-15.3331,0,0,0,0,0,0,0,-1,1196,428,2.14223,15.3331
-21,596,2.25952,-15.382,-0.00129321,0.00136312,0.0022144,0.00261712,-0.00254721,1.05553,0.00298172,0.0488787,1203,428,2.25956,15.382
-14,596,2.33435,-15.4606,-0.00152189,0.000830156,0.00356204,0.00340529,-0.00409702,0.944842,0.00433759,0.0440959,1210,428,2.33432,15.4606
-7,596,2.53552,-15.4774,-0.000878024,0.000108799,0.00430762,0.00395117,-0.00472039,0.842422,0.00501309,0.0474365,1217,428,2.53547,15.4774
0,596,2.3114,-15.6287,-0.000417839,-0.00038268,0.00497807,0.00457784,-0.00537836,0.787164,0.00575441,0.0492688,1224,428,2.31142,15.6287
7,596,2.19531,-15.6104,-0.000314237,-0.00152992,0.00522311,0.00433628,-0.00618044,0.727471,0.00610286,0.0437489,1231,428,2.19527,15.6103
14,596,2.63501,-15.4746,0.00271345,-0.000988678,0.00412152,0.00538049,-0.00365573,0.574337,0.00524865,0.0437814,1238,428,2.63501,15.4746
21,596,2.73792,-15.5381,0.00720869,-0.00122464,0.00386557,0.00871241,-0.00272836,0.370993,0.00689994,0.0446051,1245,428,2.73789,15.5381
28,596,2.50537,-15.6725,0.0119582,-0.000661101,0.00293895,0.0126091,-0.00131199,0.217953,0.00887577,0.0416145,1252,428,2.50538,15.6725
35,596,2.42578,-15.5343,0.0158039,0.00125442,0.00140248,0.0159379,0.00112046,0.0952254,0.0102722,0.0398285,1259,428,2.42573,15.5343
42,596,2.41931,-15.3879,0.0193253,0.00425485,-0.00104054,0.0193968,0.00418334,-0.0686113,0.0117869,0.0429194,1266,428,2.41932,15.3879
49,596,2.46826,-15.4583,0.0227018,0.00827273,-0.00375036,0.0236184,0.00735617,-0.239694,0.0139555,0.0448099,1273,428,2.46821,15.4583
56,596,2.57227,-15.6534,0.0248943,0.0134469,-0.00632199,0.0276987,0.0106425,-0.417513,0.0161341,0.0442021,1280,428,2.57224,15.6535
63,596,2.54639,-15.4318,0.0251321,0.0196822,-0.00918091,0.0319839,0.0128304,-0.641135,0.0185858,0.0449458,1287,428,2.54644,15.4318
70,596,2.55505,-15.2486,0.0244817,0.0259493,-0.011835,0.0370733,0.0133577,-0.816358,0.0216809,0.0446321,1294,428,2.55507,15.2486
77,596,2.823,-15.3222,0.0235252,0.0320913,-0.0140524,0.0424989,0.0131176,-0.93332,0.0251285,0.0458317,1301,428,2.82301,15.3222
84,596,2.71973,-15.4481,0.0215757,0.0382202,-0.0161565,0.0480719,0.0117241,-1.02323,0.0289426,0.0451571,1308,428,2.71968,15.4481
91,596,2.49756,-15.7619,0.0196509,0.0436847,-0.0174102,0.0528225,0.0105131,-1.08747,0.0322863,0.040784,1315,428,2.49753,15.7619
98,596,2.72546,-15.5923,0,0,0,0,0,0,0,-1,1322,428,2.72542,15.5923
105,596,2.77551,-14.8532,0.017357,0.0514746,-0.0177138,0.0590081,0.00982349,-1.16868,0.0365075,0.044276,1329,428,2.77546,14.8532
112,596,2.77014,-14.8228,0.0184372,0.0527671,-0.0167184,0.0595634,0.0116409,-1.18469,0.0364535,0.0397211,1336,428,2.77016,14.8228
119,596,0.237427,-14.8706,0,0,0,0,0,0,0,-1,1343,428,0.237424,14.8706
126,596,3.37646,-15.0459,0.021605,0.0516185,-0.0139238,0.0570831,0.0161404,-1.1968,0.0339781,0.0472427,1350,428,3.37645,15.0459
133,596,3.53076,-15.1939,0.0259666,0.0502063,-0.0126904,0.0556346,0.0205383,-1.1666,0.0324851,0.0451517,1357,428,3.53076,15.1939
140,596,3.604,-15.1237,0.0319989,0.0477247,-0.0111687,0.0535206,0.0262029,-1.09211,0.0309024,0.0439603,1364,428,3.60397,15.1237
147,596,3.05872,-15.0482,0.0372789,0.0451498,-0.00926758,0.0512829,0.0311458,-0.986184,0.0298348,0.0401272,1371,428,3.05868,15.0483
154,596,3.16577,-15.1005,0.0407404,0.0421443,-0.00781027,0.0492841,0.0336006,-0.830215,0.0290742,0.0424577,1378,428,3.16577,15.1005
161,596,3.41504,-14.8842,0.0425842,0.0380669,-0.00726105,0.0479298,0.0327213,-0.634612,0.0282813,0.0430428,1385,428,3.4151,14.8842
168,596,3.21228,-14.8267,0,0,0,0,0,0,0,-1,1392,428,3.21222,14.8267
175,596,3.40051,-14.6869,0,0,0,0,0,0,0,-1,1399,428,3.40049,14.6869
182,596,3.47302,-14.6226,0,0,0,0,0,0,0,-1,1406,428,3.47302,14.6225
189,596,3.40015,-14.6424,0,0,0,0,0,0,0,-1,1413,428,3.40009,14.6424
196,596,3.3269,-14.3606,0,0,0,0,0,0,0,-1,1420,428,3.32686,14.3606
203,596,3.23523,-14.4252,0,0,0,0,0,0,0,-1,1427,428,3.23525,14.4252
210,596,3.2135,-14.3942,0,0,0,0,0,0,0,-1,1434,428,3.21346,14.3942
217,596,3.23376,-14.2709,-0.000841922,-0.00182443,-0.00488962,0.00358106,-0.00624741,-0.735332,0.00574365,0.018277,1441,428,3.23371,14.2709
224,596,3.27466,-14.1471,-0.000900226,-0.000946716,-0.00429763,0.00337422,-0.00522117,-0.782694,0.00500059,0.012403,1448,428,3.27464,14.1471
231,596,3.29834,-14.0016,-0.000815115,-7.22216e-05,-0.00359883,0.00317428,-0.00406162,-0.836823,0.0041881,0.0125875,1455,428,3.29836,14.0015
238,596,3.32202,-13.8571,-0.000478063,0.000585011,-0.00288281,0.00298488,-0.00287793,-0.876565,0.00338508,0.0140572,1462,428,3.32208,13.8571
245,596,3.35022,-13.7169,-0.000115448,0.00116479,-0.00222957,0.00284432,-0.00179497,-0.92519,0.00270124,0.0118715,1469,428,3.35017,13.7169
252,596,3.35767,-13.567,0.000198657,0.0015622,-0.00162949,0.0026468,-0.000885936,-0.98353,0.0021224,0.00944979,1476,428,3.35762,13.567
259,596,3.3512,-13.4154,0.000441369,0.00174351,-0.00111097,0.00238013,-0.000195256,-1.05044,0.00165568,0.00878754,1483,428,3.35125,13.4154
266,596,3.33826,-13.2438,0.000619609,0.00185312,-0.000709103,0.00217616,0.00029657,-1.14333,0.00136272,0.0100466,1490,428,3.33823,13.2438
273,596,3.3562,-13.0707,0.00070459,0.00194126,-0.000354708,0.00203577,0.000610075,-1.31039,0.00120639,0.0113698,1497,428,3.3562,13.0707
280,596,3.37439,-12.9172,0.000827543,0.00201914,3.69704e-05,0.00202029,0.000826397,1.53981,0.00117283,0.0120406,1504,428,3.37438,12.9172
287,596,3.38599,-12.7743,0.000830818,0.00231371,0.000245754,0.00235337,0.000791151,1.41077,0.00138282,0.0116357,1511,428,3.38598,12.7743
294,596,3.38147,-12.6089,0.000720187,0.00275952,0.000413385,0.00284013,0.000639578,1.37822,0.00172033,0.00885571,1518,428,3.38149,12.6089
301,596,3.37695,-12.4264,0.000537638,0.00330298,0.000566101,0.00341439,0.000426238,1.37649,0.00214832,0.00972366,1525,428,3.37699,12.4264
308,596,3.41699,-12.2488,0.000383639,0.00406127,0.000769936,0.00421595,0.000228954,1.37253,0.00273751,0.0152514,1532,428,3.417,12.2488
315,596,3.38062,-12.052,0.000248634,0.00485996,0.000998525,0.00506689,4.17021e-05,1.36645,0.00336411,0.0158037,1539,428,3.38059,12.052
322,596,3.36609,-11.8479,0.000100807,0.00560889,0.00124772,0.00587835,-0.000168652,1.3581,0.00397631,0.0125289,1546,428,3.36615,11.8479
329,596,3.35205,-11.6642,-0.000123616,0.00615904,0.00153985,0.00651615,-0.000480725,1.34291,0.00451288,0.00950215,1553,428,3.35207,11.6642
336,596,3.33691,-11.4704,-0.000507524,0.00631071,0.00166308,0.00669474,-0.000891549,1.34386,0.00478809,0.00873763,1560,428,3.33686,11.4704
343,596,3.33545,-11.2661,-0.000711204,0.00627326,0.00191881,0.00676569,-0.00120363,1.31959,0.00496059,0.0111933,1567,428,3.33543,11.2661
350,596,3.34302,-11.0502,-0.000935679,0.00625953,0.00217461,0.0068657,-0.00154185,1.29895,0.00516832,0.0117643,1574,428,3.34297,11.0502
357,596,3.32629,-10.8375,-0.00128197,0.00593138,0.00233568,0.00662162,-0.00197222,1.28345,0.00519807,0.00952627,1581,428,3.32632,10.8375
364,596,3.32251,-10.6002,-0.00177517,0.00537817,0.00245045,0.00613708,-0.00253408,1.27046,0.00514834,0.0100796,1588,428,3.32254,10.6002
371,596,3.32825,-10.3858,-0.00225341,0.00435558,0.00244065,0.00515918,-0.00305701,1.25272,0.00479509,0.0114202,1595,428,3.32819,10.3858
378,596,3.31689,-10.2029,-0.00276613,0.00276723,0.00236246,0.00363864,-0.00363755,1.21742,0.00420091,0.0145518,1602,428,3.31695,10.2029
385,596,3.34412,-9.94199,-0.00331937,0.00224947,0.00211208,0.00295988,-0.00402978,1.24633,0.00405121,0.0239699,1609,428,3.34411,9.942
392,596,3.39673,-9.67889,-0.00346799,0.00237535,0.00169971,0.00283379,-0.00392643,1.30735,0.00391997,0.0362381,1616,428,3.3967,9.67891
399,596,3.22937,-9.2673,0,0,0,0,0,0,0,-1,1623,428,3.22936,9.2673
406,596,3.19409,-8.76471,0,0,0,0,0,0,0,-1,1630,428,3.19407,8.76471
413,596,3.39124,-2.63528,0,0,0,0,0,0,0,-1,1637,428,3.39122,2.6353
420,596,2.6344,-3.06308,0,0,0,0,0,0,0,-1,1644,428,2.63439,3.06308
427,596,2.99329,-1.90512,0,0,0,0,0,0,0,-1,1651,428,2.99327,1.90512
434,596,3.80896,-0.253998,0,0,0,0,0,0,0,-1,1658,428,3.80902,0.254004
441,596,3.86401,-0.131622,0,0,0,0,0,0,0,-1,1665,428,3.86406,0.131613
448,596,1.0769,0.0083313,0,0,0,0,0,0,0,-1,1672,428,1.07684,-0.00832231
455,596,2.00769,-1.43329,0,0,0,0,0,0,0,-1,1679,428,2.00765,1.4333
462,596,0,0,0,0,0,0,0,0,0,-1,1686,428,0,0
469,596,0,0,0,0,0,0,0,0,0,-1,1693,428,0,0
476,596,0,0,0,0,0,0,0,0,0,-1,1700,428,0,0
483,596,0,0,0,0,0,0,0,0,0,-1,1707,428,0,0
490,596,0,0,0,0,0,0,0,0,0,-1,1714,428,0,0
497,596,0,0,0,0,0,0,0,0,0,-1,1721,428,0,0
504,596,0,0,0,0,0,0,0,0,0,-1,1728,428,0,0
511,596,0,0,0,0,0,0,0,0,0,-1,1735,428,0,0
518,596,0,0,0,0,0,0,0,0,0,-1,1742,428,0,0
525,596,0,0,0,0,0,0,0,0,0,-1,1749,428,0,0
532,596,0,0,0,0,0,0,0,0,0,-1,1756,428,0,0
539,596,0,0,0,0,0,0,0,0,0,-1,1763,428,0,0
546,596,0,0,0,0,0,0,0,0,0,-1,1770,428,0,0
553,596,0,0,0,0,0,0,0,0,0,-1,1777,428,0,0
560,596,0,0,0,0,0,0,0,0,0,-1,1784,428,0,0
567,596,0,0,0,0,0,0,0,0,0,-1,1791,428,0,0
574,596,0,0,0,0,0,0,0,0,0,-1,1798,428,0,0
581,596,0,0,0,0,0,0,0,0,0,-1,1805,428,0,0
588,596,0,0,0,0,0,0,0,0,0,-1,1812,428,0,0
595,596,0,0,0,0,0,0,0,0,0,-1,1819,428,0,0
602,596,0,0,0,0,0,0,0,0,0,-1,1826,428,0,0
609,596,0,0,0,0,0,0,0,0,0,-1,1833,428,0,0
616,596,0,0,0,0,0,0,0,0,0,-1,1840,428,0,0
623,596,0,0,0,0,0,0,0,0,0,-1,1847,428,0,0
630,596,0,0,0,0,0,0,0,0,0,-1,1854,428,0,0
637,596,0,0,0,0,0,0,0,0,0,-1,1861,428,0,0
644,596,0,0,0,0,0,0,0,0,0,-1,1868,428,0,0
651,596,0,0,0,0,0,0,0,0,0,-1,1875,428,0,0
658,596,0,0,0,0,0,0,0,0,0,-1,1882,428,0,0
665,596,0,0,0,0,0,0,0,0,0,-1,1889,428,0,0
672,596,0,0,0,0,0,0,0,0,0,-1,1896,428,0,0
679,596,0,0,0,0,0,0,0,0,0,-1,1903,428,0,0
686,596,0,0,0,0,0,0,0,0,0,-1,1910,428,0,0
693,596,0,0,0,0,0,0,0,0,0,-1,1917,428,0,0
700,596,0,0,0,0,0,0,0,0,0,-1,1924,428,0,0
707,596,0,0,0,0,0,0,0,0,0,-1,1931,428,0,0
714,596,0,0,0,0,0,0,0,0,0,-1,1938,428,0,0
721,596,0,0,0,0,0,0,0,0,0,-1,1945,428,0,0
728,596,0,0,0,0,0,0,0,0,0,-1,1952,428,0,0
735,596,0,0,0,0,0,0,0,0,0,-1,1959,428,0,0
742,596,0,0,0,0,0,0,0,0,0,-1,1966,428,0,0
749,596,0,0,0,0,0,0,0,0,0,-1,1973,428,0,0
756,596,0,0,0,0,0,0,0,0,0,-1,1980,428,0,0
763,596,0,0,0,0,0,0,0,0,0,-1,1987,428,0,0
770,596,0,0,0,0,0,0,0,0,0,-1,1994,428,0,0
777,596,0,0,0,0,0,0,0,0,0,-1,2001,428,0,0
784,596,0,0,0,0,0,0,0,0,0,-1,2008,428,0,0
791,596,0,0,0,0,0,0,0,0,0,-1,2015,428,0,0
798,596,0,0,0,0,0,0,0,0,0,-1,2022,428,0,0
805,596,0,0,0,0,0,0,0,0,0,-1,2029,428,0,0
812,596,0,0,0,0,0,0,0,0,0,-1,2036,428,0,0
-700,589,0,0,0,0,0,0,0,0,0,-1,524,435,0,0
-693,589,0,0,0,0,0,0,0,0,0,-1,531,435,0,0
-686,589,0,0,0,0,0,0,0,0,0,-1,538,435,0,0
-679,589,0,0,0,0,0,0,0,0,0,-1,545,435,0,0
-672,589,0,0,0,0,0,0,0,0,0,-1,552,435,0,0
-665,589,0,0,0,0,0,0,0,0,0,-1,559,435,0,0
-658,589,0,0,0,0,0,0,0,0,0,-1,566,435,0,0
-651,589,0,0,0,0,0,0,0,0,0,-1,573,435,0,0
-644,589,0,0,0,0,0,0,0,0,0,-1,580,435,0,0
-637,589,0,0,0,0,0,0,0,0,0,-1,587,435,0,0
-630,589,0,0,0,0,0,0,0,0,0,-1,594,435,0,0
-623,589,0,0,0,0,0,0,0,0,0,-1,601,435,0,0
-616,589,0,0,0,0,0,0,0,0,0,-1,608,435,0,0
-609,589,0,0,0,0,0,0,0,0,0,-1,615,435,0,0
-602,589,0,0,0,0,0,0,0,0,0,-1,622,435,0,0
-595,589,0,0,0,0,0,0,0,0,0,-1,629,435,0,0
-588,589,0,0,0,0,0,0,0,0,0,-1,636,435,0,0
-581,589,0,0,0,0,0,0,0,0,0,-1,643,435,0,0
-574,589,0,0,0,0,0,0,0,0,0,-1,650,435,0,0
-567,589,0,0,0,0,0,0,0,0,0,-1,657,435,0,0
-560,589,0,0,0,0,0,0,0,0,0,-1,664,435,0,0
-553,589,0,0,0,0,0,0,0,0,0,-1,671,435,0,0
-546,589,0,0,0,0,0,0,0,0,0,-1,678,435,0,0
-539,589,0,0,0,0,0,0,0,0,0,-1,685,435,0,0
-532,589,0,0,0,0,0,0,0,0,0,-1,692,435,0,0
-525,589,0,0,0,0,0,0,0,0,0,-1,699,435,0,0
-518,589,0,0,0,0,0,0,0,0,0,-1,706,435,0,0
-511,589,0,0,0,0,0,0,0,0,0,-1,713,435,0,0
-504,589,0,0,0,0,0,0,0,0,0,-1,720,435,0,0
-497,589,0,0,0,0,0,0,0,0,0,-1,727,435,0,0
-490,589,0,0,0,0,0,0,0,0,0,-1,734,435,0,0
-483,589,0,0,0,0,0,0,0,0,0,-1,741,435,0,0
-476,589,0,0,0,0,0,0,0,0,0,-1,748,435,0,0
-469,589,0,0,0,0,0,0,0,0,0,-1,755,435,0,0
-462,589,0,0,0,0,0,0,0,0,0,-1,762,435,0,0
-455,589,0,0,0,0,0,0,0,0,0,-1,769,435,0,0
-448,589,0,0,0,0,0,0,0,0,0,-1,776,435,0,0
-441,589,0,0,0,0,0,0,0,0,0,-1,783,435,0,0
-434,589,0,0,0,0,0,0,0,0,0,-1,790,435,0,0
-427,589,0,0,0,0,0,0,0,0,0,-1,797,435,0,0
-420,589,0,0,0,0,0,0,0,0,0,-1,804,435,0,0
-413,589,0,0,0,0,0,0,0,0,0,-1,811,435,0,0
-406,589,0,0,0,0,0,0,0,0,0,-1,818,435,0,0
-399,589,0,0,0,0,0,0,0,0,0,-1,825,435,0,0
-392,589,0,0,0,0,0,0,0,0,0,-1,832,435,0,0
-385,589,0,0,0,0,0,0,0,0,0,-1,839,435,0,0
-378,589,0,0,0,0,0,0,0,0,0,-1,846,435,0,0
-371,589,0,0,0,0,0,0,0,0,0,-1,853,435,0,0
-364,589,0,0,0,0,0,0,0,0,0,-1,860,435,0,0
-357,589,0,0,0,0,0,0,0,0,0,-1,867,435,0,0
-350,589,-0.262695,-13.5742,0,0,0,0,0,0,0,-1,874,435,-0.262715,13.5742
-343,589,0.187195,-13.2853,0,0,0,0,0,0,0,-1,881,435,0.187181,13.2853
-336,589,0.677856,-12.7685,0,0,0,0,0,0,0,-1,888,435,0.677838,12.7685
-329,589,0.0882568,-9.79782,0,0,0,0,0,0,0,-1,895,435,0.0882795,9.79781
-322,589,2.32599,-9.62027,0,0,0,0,0,0,0,-1,902,435,2.32599,9.62028
-315,589,2.0108,-9.34891,0,0,0,0,0,0,0,-1,909,435,2.01078,9.3489
-308,589,2.10266,-9.58273,0,0,0,0,0,0,0,-1,916,435,2.10266,9.58275
-301,589,2.40417,-10.1138,0,0,0,0,0,0,0,-1,923,435,2.40418,10.1138
-294,589,1.23669,-9.28223,0,0,0,0,0,0,0,-1,930,435,1.23669,9.28223
-287,589,1.69617,-9.88324,0.00666294,0.00226224,-0.0047453,0.00969321,-0.000768031,-0.568308,0.00673277,0.0430535,937,435,1.69617,9.88324
-280,589,1.95245,-10.4375,0.00663251,0.00378502,-0.00583831,0.0112182,-0.000800636,-0.665801,0.00775944,0.0325145,944,435,1.95245,10.4375
-273,589,1.96942,-10.6884,0.00634666,0.00459833,-0.00637543,0.0119076,-0.00096259,-0.717266,0.00827793,0.0200224,951,435,1.96943,10.6884
-266,589,1.95355,-10.8581,0.00613956,0.00489148,-0.00730534,0.0128475,-0.00181643,-0.74279,0.00923022,0.0170253,958,435,1.95357,10.8581
-259,589,1.91388,-11.0433,0.00551659,0.00505758,-0.0066472,0.0119382,-0.00136408,-0.768142,0.00845031,0.0144798,965,435,1.91391,11.0433
-252,589,1.91699,-11.2645,0.0050358,0.00516258,-0.00599892,0.0110984,-0.000900065,-0.790681,0.0077165,0.0104622,972,435,1.91696,11.2645
-245,589,1.92511,-11.4679,0.00474503,0.0051092,-0.00536649,0.0102967,-0.000442463,-0.802357,0.0070166,0.0107527,979,435,1.92509,11.4679
-238,589,1.91864,-11.6905,0.00421809,0.00479185,-0.00447058,0.00898474,2.51965e-05,-0.81744,0.00598145,0.0140081,986,435,1.91862,11.6905
-231,589,1.90015,-11.8696,0.00335251,0.00426768,-0.003624,0.00746288,0.00015732,-0.848198,0.00492365,0.0144673,993,435,1.90013,11.8696
-224,589,1.86902,-12.0501,0.00272903,0.00383431,-0.00297822,0.00631073,0.000252616,-0.877135,0.00412553,0.0138762,1000,435,1.86901,12.0501
-217,589,1.86664,-12.229,0.00220926,0.00333324,-0.00234411,0.00518179,0.000360715,-0.90305,0.00334078,0.0141186,1007,435,1.86661,12.229
-210,589,1.88129,-12.4045,0.00166312,0.00271301,-0.00182129,0.00408349,0.000292635,-0.925708,0.00263022,0.0128796,1014,435,1.88127,12.4045
-203,589,1.86896,-12.5826,0.00123482,0.00215267,-0.00135065,0.00312023,0.000267254,-0.949169,0.00199704,0.0102042,1021,435,1.86899,12.5826
-196,589,1.86292,-12.7541,0.00092254,0.00183649,-0.000769374,0.00227437,0.000484662,-1.05338,0.00138329,0.0126551,1028,435,1.86296,12.7541
-189,589,1.8457,-12.9352,0.000575718,0.00145042,-9.78337e-05,0.00146123,0.000564909,-1.46076,0.000850843,0.015652,1035,435,1.84573,12.9351
-182,589,1.84766,-13.0788,0.000402295,0.00125342,0.000571086,0.00154007,0.000115648,1.1056,0.000990418,0.0117531,1042,435,1.84765,13.0788
-175,589,1.87195,-13.2159,0.000453916,0.00106029,0.00115394,0.00195021,-0.000436002,0.913866,0.00146723,0.0158211,1049,435,1.8719,13.2159
-168,589,1.89063,-13.3829,0.000520752,0.000918093,0.00177705,0.00250755,-0.0010687,0.841066,0.00211972,0.0139335,1056,435,1.89064,13.3829
-161,589,1.89478,-13.5252,0.00054859,0.000867978,0.00226929,0.00298318,-0.00156662,0.820526,0.00266893,0.0128039,1063,435,1.89474,13.5252
-154,589,1.87817,-13.6747,0.000538153,0.000810213,0.0026835,0.00336113,-0.00201277,0.810722,0.00313501,0.0125614,1070,435,1.8782,13.6748
-147,589,1.88367,-13.8155,0.000655027,0.000696772,0.00312786,0.00380383,-0.00245203,0.788735,0.00363982,0.0125881,1077,435,1.88365,13.8155
-140,589,1.90747,-13.9557,0.00110275,0.000334708,0.00328454,0.00402564,-0.00258818,0.727203,0.00384843,0.0132206,1084,435,1.90749,13.9558
-133,589,1.92651,-14.0926,0.00141244,1.67163e-05,0.00328829,0.0040761,-0.00264695,0.680837,0.00391068,0.0132165,1091,435,1.92648,14.0926
-126,589,1.94031,-14.2089,0.00170274,-0.000620217,0.00320286,0.00394822,-0.00286569,0.611454,0.00395053,0.0109214,1098,435,1.94037,14.2089
-119,589,1.9436,-14.3392,0.00211818,-0.00114813,0.00283811,0.00375948,-0.00278943,0.524316,0.00379482,0.0174726,1105,435,1.94363,14.3392
-112,589,1.94958,-14.4603,0.00269755,-0.00159563,0.00240991,0.00377827,-0.00267635,0.421562,0.00374463,0.0176354,1112,435,1.94953,14.4603
-105,589,1.93811,-14.5905,0.00343318,-0.00179672,0.00187848,0.00403796,-0.0024015,0.311472,0.00375763,0.0161565,1119,435,1.93811,14.5905
-98,589,1.97888,-14.6736,0.00421054,-0.00222785,0.00111139,0.00439699,-0.0024143,0.166213,0.00398764,0.017361,1126,435,1.97887,14.6736
-91,589,2.10181,-14.7419,0.00509764,-0.00233898,0.000188445,0.00510241,-0.00234375,0.0253185,0.00439629,0.0247999,1133,435,2.10179,14.7419
-84,589,2.25024,-14.9225,0,0,0,0,0,0,0,-1,1140,435,2.25021,14.9225
-77,589,2.18152,-14.8023,0,0,0,0,0,0,0,-1,1147,435,2.18155,14.8023
-70,589,1.48267,-9.90961,0,0,0,0,0,0,0,-1,1154,435,1.48264,9.9096
-63,589,0.880127,-5.50586,0,0,0,0,0,0,0,-1,1161,435,0.880186,5.50587
-56,589,-2.78052,-7.28082,0,0,0,0,0,0,0,-1,1168,435,-2.78053,7.28082
-49,589,-0.525757,-2.76703,0,0,0,0,0,0,0,-1,1175,435,-0.525771,2.76702
-42,589,-2.7738,-2.87921,0,0,0,0,0,0,0,-1,1182,435,-2.77383,2.87922
-35,589,-2.55225,-3.27551,0,0,0,0,0,0,0,-1,1189,435,-2.55223,3.27552
-28,589,-0.0632324,-3.42938,0,0,0,0,0,0,0,-1,1196,435,-0.063241,3.42938
-21,589,2.16626,-15.2681,0,0,0,0,0,0,0,-1,1203,435,2.16628,15.2681
-14,589,2.26855,-15.3981,0,0,0,0,0,0,0,-1,1210,435,2.26851,15.3981
-7,589,2.61194,-15.3919,0,0,0,0,0,0,0,-1,1217,435,2.61196,15.3919
0,589,1.86597,-15.8203,0,0,0,0,0,0,0,-1,1224,435,1.86596,15.8203
7,589,2.0072,-15.7774,0,0,0,0,0,0,0,-1,1231,435,2.00721,15.7774
14,589,2.74646,-15.4359,0,0,0,0,0,0,0,-1,1238,435,2.7464,15.4359
21,589,2.93506,-15.4841,0.0074193,-0.000770507,0.00571292,0.0103533,-0.00370452,0.474449,0.00841345,0.0465161,1245,435,2.9351,15.4841
28,589,2.4082,-15.8501,0.013745,-0.000737988,0.00460094,0.015083,-0.002076,0.283007,0.0108139,0.0465991,1252,435,2.40819,15.8501
35,589,2.2738,-15.5075,0.0191845,0.00106814,0.00269571,0.0195771,0.000675524,0.144626,0.0128322,0.0439012,1259,435,2.27381,15.5075
42,589,2.31946,-15.4076,0,0,0,0,0,0,0,-1,1266,435,2.31942,15.4076
49,589,2.84937,-14.6265,0,0,0,0,0,0,0,-1,1273,435,2.84932,14.6265
56,589,2.55554,-15.6844,0,0,0,0,0,0,0,-1,1280,435,2.5555,15.6844
63,589,2.51489,-15.3637,0,0,0,0,0,0,0,-1,1287,435,2.51493,15.3638
70,589,2.72766,-16.9266,0.0321616,0.0311378,-0.0149308,0.0465893,0.0167101,-0.768262,0.0272542,0.0455488,1294,435,2.72772,16.9266
77,589,2.86157,-16.5977,0.0313302,0.039344,-0.017998,0.0537757,0.0168984,-0.894927,0.0317536,0.0427071,1301,435,2.8616,16.5977
84,589,2.89502,-16.239,0.0292765,0.0478737,-0.02081,0.0613681,0.0157821,-0.995507,0.0367974,0.0405326,1308,435,2.89506,16.239
91,589,2.52319,-16.3397,0.0274604,0.0555364,-0.0223091,0.0678567,0.0151401,-1.06622,0.0411307,0.0400581,1315,435,2.52318,16.3397
98,589,2.3252,-16.9479,0.025745,0.0622892,-0.0226902,0.0731498,0.0148845,-1.12438,0.04464,0.045626,1322,435,2.32516,16.9479
105,589,2.60303,-14.3202,0.0263829,0.0675372,-0.0224734,0.0774309,0.0164892,-1.15609,0.0470964,0.0430329,1329,435,2.60304,14.3202
112,589,1.00574,-16.0806,0.0286764,0.0703413,-0.0209288,0.0790386,0.0199792,-1.17694,0.0474559,0.0404396,1336,435,1.00577,16.0806
119,589,1.39819,-16.3627,0,0,0,0,0,0,0,-1,1343,435,1.39821,16.3627
126,589,1.7821,-16.6986,0,0,0,0,0,0,0,-1,1350,435,1.78207,16.6986
133,589,4.08435,-15.4708,0,0,0,0,0,0,0,-1,1357,435,4.08441,15.4708
140,589,4.12097,-15.6122,0,0,0,0,0,0,0,-1,1364,435,4.121,15.6122
147,589,3.13269,-14.8794,0,0,0,0,0,0,0,-1,1371,435,3.13271,14.8794
154,589,3.32117,-15.0669,0,0,0,0,0,0,0,-1,1378,435,3.32112,15.0669
161,589,3.80249,-14.7872,0,0,0,0,0,0,0,-1,1385,435,3.80252,14.7872
168,589,3.35742,-14.0822,0,0,0,0,0,0,0,-1,1392,435,3.35745,14.0822
175,589,8.66992,-7.65527,0,0,0,0,0,0,0,-1,1399,435,8.66994,7.65528
182,589,3.8136,-2.45389,0,0,0,0,0,0,0,-1,1406,435,3.81363,2.4539
189,589,3.69983,-3.68149,0,0,0,0,0,0,0,-1,1413,435,3.69987,3.68147
196,589,3.31055,-5.31677,0,0,0,0,0,0,0,-1,1420,435,3.31059,5.31678
203,589,2.72559,-8.84338,0,0,0,0,0,0,0,-1,1427,435,2.72558,8.84338
210,589,3.62378,-14.4032,0,0,0,0,0,0,0,-1,1434,435,3.62378,14.4032
217,589,3.4751,-14.1419,-0.0017844,-0.00273425,-0.00691092,0.00466789,-0.00918654,-0.751091,0.00813944,0.0497677,1441,435,3.47505,14.1419
224,589,3.44946,-14.1687,-0.00174133,-0.00150787,-0.00610451,0.00448102,-0.00773022,-0.794958,0.00713287,0.0219032,1448,435,3.44949,14.1687
231,589,3.44128,-14.0237,-0.00152523,-0.000317773,-0.00516559,0.00427925,-0.00612225,-0.843572,0.00603665,0.0206918,1455,435,3.44134,14.0237
238,589,3.44934,-13.8845,-0.000959408,0.000469786,-0.00420847,0.0040239,-0.00451352,-0.869496,0.00493178,0.0224636,1462,435,3.44938,13.8845
245,589,3.47827,-13.6832,-0.000360317,0.00118948,-0.00333703,0.0038404,-0.00301124,-0.899482,0.00396544,0.02026,1469,435,3.47829,13.6832
252,589,3.50061,-13.5445,0.000138947,0.00158778,-0.00254628,0.00351069,-0.00178396,-0.923987,0.00311058,0.0133722,1476,435,3.50057,13.5445
259,589,3.50842,-13.4068,0.000506907,0.00161905,-0.00188113,0.00302457,-0.000898616,-0.929108,0.00237332,0.00936052,1483,435,3.50843,13.4068
266,589,3.51501,-13.2401,0.000796125,0.00146139,-0.00138974,0.00255775,-0.000300231,-0.902864,0.00181355,0.00951612,1490,435,3.51501,13.2401
273,589,3.52686,-13.0954,0.000930969,0.00112882,-0.000973687,0.0020086,5.11971e-05,-0.836025,0.00132233,0.012019,1497,435,3.52682,13.0954
280,589,3.53943,-12.9491,0.00111228,0.00088069,-0.000523462,0.0015326,0.00046037,-0.676544,0.00090805,0.0127151,1504,435,3.53943,12.9491
287,589,3.54456,-12.795,0.00112962,0.000900604,-0.000352556,0.00138579,0.000644425,-0.628379,0.000800741,0.0118309,1511,435,3.54455,12.795
294,589,3.53687,-12.6025,0.00100714,0.00100333,-0.000221948,0.00122719,0.000783278,-0.781097,0.000717492,0.00987458,1518,435,3.53687,12.6025
301,589,3.53809,-12.4066,0.000806519,0.00115771,-0.000119648,0.0011946,0.00076963,-1.27173,0.000699205,0.0100085,1525,435,3.53814,12.4066
308,589,3.56067,-12.2233,0.00062271,0.00155039,1.97662e-05,0.00155081,0.000622289,1.5495,0.000901162,0.0103461,1532,435,3.56069,12.2233
315,589,3.5708,-12.0427,0.000476225,0.00207079,0.000197638,0.00209493,0.000452094,1.4493,0.00127297,0.0108212,1539,435,3.57078,12.0427
322,589,3.55969,-11.8627,0.000320427,0.0026134,0.000410552,0.0026847,0.000249135,1.39886,0.0017128,0.0112904,1546,435,3.55972,11.8627
329,589,3.55872,-11.6725,0.000122417,0.00306286,0.000686818,0.00321538,-3.00969e-05,1.35228,0.00215369,0.0101028,1553,435,3.55873,11.6725
336,589,3.55396,-11.4717,-0.000170605,0.00325246,0.000862075,0.00345731,-0.000375454,1.3375,0.00243968,0.0094822,1560,435,3.55391,11.4717
343,589,3.54126,-11.278,-0.00033528,0.00334009,0.00114628,0.00366828,-0.000663478,1.29194,0.00269405,0.0108904,1567,435,3.54128,11.2781
350,589,3.54175,-11.0799,-0.00049929,0.00345281,0.00143369,0.00391812,-0.000964598,1.25697,0.002986,0.0166657,1574,435,3.54173,11.0799
357,589,3.53711,-10.8422,-0.00074746,0.00338008,0.00165202,0.00395985,-0.00132723,1.23328,0.00317613,0.0136948,1581,435,3.53715,10.8422
364,589,3.54675,-10.6057,-0.0010844,0.00319109,0.00184201,0.00387521,-0.00176852,1.21518,0.00333322,0.0114076,1588,435,3.54673,10.6057
371,589,3.54626,-10.3855,-0.00141108,0.0027351,0.00194883,0.00350729,-0.00218328,1.19354,0.00331496,0.0114047,1595,435,3.54625,10.3855
378,589,3.53467,-10.18,-0.00181698,0.00212049,0.00198972,0.00295084,-0.00264733,1.17545,0.00323369,0.0119107,1602,435,3.53462,10.18
385,589,3.5249,-9.96735,-0.00220736,0.00205091,0.00184286,0.00273768,-0.00289414,1.21407,0.00325195,0.0141576,1609,435,3.52488,9.96734
392,589,3.50598,-9.70056,-0.00214246,0.00210582,0.00159835,0.00264001,-0.00267664,1.24826,0.0030696,0.0165998,1616,435,3.506,9.70055
399,589,3.47522,-9.35934,-0.00153147,0.00205441,0.00167606,0.00271581,-0.00219288,1.19494,0.00283939,0.0248619,1623,435,3.47526,9.35935
406,589,3.45435,-9.07712,0,0,0,0,0,0,0,-1,1630,435,3.45437,9.0771
413,589,3.42822,-8.88141,0,0,0,0,0,0,0,-1,1637,435,3.42823,8.8814
420,589,2.79724,-5.79956,0,0,0,0,0,0,0,-1,1644,435,2.7973,5.79955
427,589,2.87976,-5.28177,0,0,0,0,0,0,0,-1,1651,435,2.87972,5.28177
434,589,2.52734,-2.73029,0,0,0,0,0,0,0,-1,1658,435,2.52736,2.73029
441,589,3.17639,-2.02435,0,0,0,0,0,0,0,-1,1665,435,3.17643,2.02435
448,589,0.453735,-3.2868,0,0,0,0,0,0,0,-1,1672,435,0.453701,3.28681
455,589,0.664307,-3.46848,0,0,0,0,0,0,0,-1,1679,435,0.66425,3.46846
462,589,3.46716,-4.41891,0,0,0,0,0,0,0,-1,1686,435,3.4672,4.41891
469,589,0.0238037,-3.81497,0,0,0,0,0,0,0,-1,1693,435,0.0237965,3.81498
476,589,0,0,0,0,0,0,0,0,0,-1,1700,435,0,0
483,589,0,0,0,0,0,0,0,0,0,-1,1707,435,0,0
490,589,0,0,0,0,0,0,0,0,0,-1,1714,435,0,0
497,589,0,0,0,0,0,0,0,0,0,-1,1721,435,0,0
504,589,0,0,0,0,0,0,0,0,0,-1,1728,435,0,0
511,589,0,0,0,0,0,0,0,0,0,-1,1735,435,0,0
518,589,0,0,0,0,0,0,0,0,0,-1,1742,435,0,0
525,589,0,0,0,0,0,0,0,0,0,-1,1749,435,0,0
532,589,0,0,0,0,0,0,0,0,0,-1,1756,435,0,0
539,589,0,0,0,0,0,0,0,0,0,-1,1763,435,0,0
546,589,0,0,0,0,0,0,0,0,0,-1,1770,435,0,0
553,589,0,0,0,0,0,0,0,0,0,-1,1777,435,0,0
560,589,0,0,0,0,0,0,0,0,0,-1,1784,435,0,0
567,589,0,0,0,0,0,0,0,0,0,-1,1791,435,0,0
574,589,0,0,0,0,0,0,0,0,0,-1,1798,435,0,0
581,589,0,0,0,0,0,0,0,0,0,-1,1805,435,0,0
588,589,0,0,0,0,0,0,0,0,0,-1,1812,435,0,0
595,589,0,0,0,0,0,0,0,0,0,-1,1819,435,0,0
602,589,0,0,0,0,0,0,0,0,0,-1,1826,435,0,0
609,589,0,0,0,0,0,0,0,0,0,-1,1833,435,0,0
616,589,0,0,0,0,0,0,0,0,0,-1,1840,435,0,0
623,589,0,0,0,0,0,0,0,0,0,-1,1847,435,0,0
630,589,0,0,0,0,0,0,0,0,0,-1,1854,435,0,0
637,589,0,0,0,0,0,0,0,0,0,-1,1861,435,0,0
644,589,0,0,0,0,0,0,0,0,0,-1,1868,435,0,0
651,589,0,0,0,0,0,0,0,0,0,-1,1875,435,0,0
658,589,0,0,0,0,0,0,0,0,0,-1,1882,435,0,0
665,589,0,0,0,0,0,0,0,0,0,-1,1889,435,0,0
672,589,0,0,0,0,0,0,0,0,0,-1,1896,435,0,0
679,589,0,0,0,0,0,0,0,0,0,-1,1903,435,0,0
686,589,0,0,0,0,0,0,0,0,0,-1,1910,435,0,0
693,589,0,0,0,0,0,0,0,0,0,-1,1917,435,0,0
700,589,0,0,0,0,0,0,0,0,0,-1,1924,435,0,0
707,589,0,0,0,0,0,0,0,0,0,-1,1931,435,0,0
714,589,0,0,0,0,0,0,0,0,0,-1,1938,435,0,0
721,589,0,0,0,0,0,0,0,0,0,-1,1945,435,0,0
728,589,0,0,0,0,0,0,0,0,0,-1,1952,435,0,0
735,589,0,0,0,0,0,0,0,0,0,-1,1959,435,0,0
742,589,0,0,0,0,0,0,0,0,0,-1,1966,435,0,0
749,589,0,0,0,0,0,0,0,0,0,-1,1973,435,0,0
756,589,0,0,0,0,0,0,0,0,0,-1,1980,435,0,0
763,589,0,0,0,0,0,0,0,0,0,-1,1987,435,0,0
770,589,0,0,0,0,0,0,0,0,0,-1,1994,435,0,0
777,589,0,0,0,0,0,0,0,0,0,-1,2001,435,0,0
784,589,0,0,0,0,0,0,0,0,0,-1,2008,435,0,0
791,589,0,0,0,0,0,0,0,0,0,-1,2015,435,0,0
798,589,0,0,0,0,0,0,0,0,0,-1,2022,435,0,0
805,589,0,0,0,0,0,0,0,0,0,-1,2029,435,0,0
812,589,0,0,0,0,0,0,0,0,0,-1,2036,435,0,0
-700,582,0,0,0,0,0,0,0,0,0,-1,524,442,0,0
-693,582,0,0,0,0,0,0,0,0,0,-1,531,442,0,0
-686,582,0,0,0,0,0,0,0,0,0,-1,538,442,0,0
-679,582,0,0,0,0,0,0,0,0,0,-1,545,442,0,0
-672,582,0,0,0,0,0,0,0,0,0,-1,552,442,0,0
-665,582,0,0,0,0,0,0,0,0,0,-1,559,442,0,0
-658,582,0,0,0,0,0,0,0,0,0,-1,566,442,0,0
-651,582,0,0,0,0,0,0,0,0,0,-1,573,442,0,0
-644,582,0,0,0,0,0,0,0,0,0,-1,580,442,0,0
-637,582,0,0,0,0,0,0,0,0,0,-1,587,442,0,0
-630,582,0,0,0,0,0,0,0,0,0,-1,594,442,0,0
-623,582,0,0,0,0,0,0,0,0,0,-1,601,442,0,0
-616,582,0,0,0,0,0,0,0,0,0,-1,608,442,0,0
-609,582,0,0,0,0,0,0,0,0,0,-1,615,442,0,0
-602,582,0,0,0,0,0,0,0,0,0,-1,622,442,0,0
-595,582,0,0,0,0,0,0,0,0,0,-1,629,442,0,0
-588,582,0,0,0,0,0,0,0,0,0,-1,636,442,0,0
-581,582,0,0,0,0,0,0,0,0,0,-1,643,442,0,0
-574,582,0,0,0,0,0,0,0,0,0,-1,650,442,0,0
-567,582,0,0,0,0,0,0,0,0,0,-1,657,442,0,0
-560,582,0,0,0,0,0,0,0,0,0,-1,664,442,0,0
-553,582,0,0,0,0,0,0,0,0,0,-1,671,442,0,0
-546,582,0,0,0,0,0,0,0,0,0,-1,678,442,0,0
-539,582,0,0,0,0,0,0,0,0,0,-1,685,442,0,0
-532,582,0,0,0,0,0,0,0,0,0,-1,692,442,0,0
-525,582,0,0,0,0,0,0,0,0,0,-1,699,442,0,0
-518,582,0,0,0,0,0,0,0,0,0,-1,706,442,0,0
-511,582,0,0,0,0,0,0,0,0,0,-1,713,442,0,0
-504,582,0,0,0,0,0,0,0,0,0,-1,720,442,0,0
-497,582,0,0,0,0,0,0,0,0,0,-1,727,442,0,0
-490,582,0,0,0,0,0,0,0,0,0,-1,734,442,0,0
-483,582,0,0,0,0,0,0,0,0,0,-1,741,442,0,0
-476,582,0,0,0,0,0,0,0,0,0,-1,748,442,0,0
-469,582,0,0,0,0,0,0,0,0,0,-1,755,442,0,0
-462,582,0,0,0,0,0,0,0,0,0,-1,762,442,0,0
-455,582,0,0,0,0,0,0,0,0,0,-1,769,442,0,0
-448,582,0,0,0,0,0,0,0,0,0,-1,776,442,0,0
-441,582,0,0,0,0,0,0,0,0,0,-1,783,442,0,0
-434,582,0,0,0,0,0,0,0,0,0,-1,790,442,0,0
-427,582,0,0,0,0,0,0,0,0,0,-1,797,442,0,0
-420,582,0,0,0,0,0,0,0,0,0,-1,804,442,0,0
-413,582,0,0,0,0,0,0,0,0,0,-1,811,442,0,0
-406,582,0,0,0,0,0,0,0,0,0,-1,818,442,0,0
-399,582,0,0,0,0,0,0,0,0,0,-1,825,442,0,0
-392,582,0,0,0,0,0,0,0,0,0,-1,832,442,0,0
-385,582,0,0,0,0,0,0,0,0,0,-1,839,442,0,0
-378,582,0,0,0,0,0,0,0,0,0,-1,846,442,0,0
-371,582,0,0,0,0,0,0,0,0,0,-1,853,442,0,0
-364,582,0,0,0,0,0,0,0,0,0,-1,860,442,0,0
-357,582,6.4043,-4.18127,0,0,0,0,0,0,0,-1,867,442,6.40427,4.18126
-350,582,-1.12933,-15.713,0,0,0,0,0,0,0,-1,874,442,-1.12935,15.713
-343,582,-0.551086,-15.4312,0,0,0,0,0,0,0,-1,881,442,-0.5511,15.4311
-336,582,0.0556641,-4.78558,0,0,0,0,0,0,0,-1,888,442,0.0556634,4.78559
-329,582,2.53058,-9.94775,0,0,0,0,0,0,0,-1,895,442,2.53055,9.94775
-322,582,2.33698,-9.91006,0.00431627,-0.0119541,0.0113384,0.010136,-0.0177738,0.474214,0.0163137,0.049014,902,442,2.33698,9.91007
-315,582,2.04163,-9.82993,0,0,0,0,0,0,0,-1,909,442,2.04161,9.82991
-308,582,1.87018,-9.64252,0.00444909,-0.00423443,0.00339033,0.00561598,-0.00540132,0.331482,0.00636124,0.0464485,916,442,1.87019,9.64252
-301,582,2.0625,-9.92111,0.00411222,-0.00181718,0.000521441,0.00415772,-0.00186268,0.0870514,0.00355907,0.0436432,923,442,2.06249,9.92112
-294,582,1.448,-9.62442,0.00429483,0.000202217,-0.00198377,0.00509856,-0.000601516,-0.384941,0.00361626,0.0420391,930,442,1.44797,9.62442
-287,582,1.6709,-10.0804,0.00455425,0.00139105,-0.00357687,0.00688359,-0.000938284,-0.577234,0.00493166,0.0351581,937,442,1.67091,10.0804
-280,582,1.80133,-10.3887,0.00444164,0.00272463,-0.00431024,0.00797804,-0.000811778,-0.687096,0.0056089,0.01636,944,442,1.8013,10.3887
-273,582,1.77576,-10.5989,0.00421043,0.00333846,-0.00463623,0.00843113,-0.000882244,-0.738517,0.00593673,0.0106516,951,442,1.77575,10.5989
-266,582,1.76007,-10.8265,0.00405908,0.00352425,-0.00531851,0.00911689,-0.00153356,-0.760279,0.00664834,0.0101766,958,442,1.76008,10.8265
-259,582,1.73871,-11.0621,0.00366303,0.00356645,-0.00487142,0.00848641,-0.00125692,-0.780442,0.00611976,0.00832373,965,442,1.7387,11.0621
-252,582,1.72449,-11.2766,0.00339143,0.00352208,-0.00441542,0.00787266,-0.000959152,-0.792795,0.00559563,0.00801912,972,442,1.72448,11.2766
-245,582,1.7359,-11.4645,0.00328385,0.00337581,-0.00395662,0.00728671,-0.000627059,-0.791209,0.00507975,0.0116406,979,442,1.73589,11.4645
-238,582,1.73633,-11.661,0.00296518,0.00290817,-0.00321217,0.00614897,-0.00027563,-0.780961,0.00419421,0.0159954,986,442,1.73636,11.661
-231,582,1.74335,-11.8636,0.00232453,0.00244591,-0.00249722,0.00488317,-0.000112737,-0.797547,0.00329367,0.0126427,993,442,1.74334,11.8636
-224,582,1.73273,-12.0496,0.00185447,0.00209787,-0.00193972,0.00391971,3.26376e-05,-0.816727,0.00260233,0.0101136,1000,442,1.73275,12.0496
-217,582,1.71527,-12.2233,0.00144992,0.00169232,-0.00138727,0.00296367,0.000178566,-0.828972,0.00191903,0.0116081,1007,442,1.71524,12.2233
-210,582,1.71051,-12.3959,0.00101375,0.00119567,-0.000910445,0.00201969,0.000189731,-0.835188,0.00128788,0.0115075,1014,442,1.71048,12.3959
-203,582,1.70569,-12.5876,0.000697659,0.000959492,-0.000398337,0.00124787,0.000409277,-0.944166,0.000734536,0.00962594,1021,442,1.70567,12.5876
-196,582,1.71082,-12.7669,0.000474193,0.00100955,0.000285946,0.00113355,0.000350186,1.1616,0.000670197,0.0153541,1028,442,1.71084,12.7669
-189,582,1.69104,-12.9322,0.000241381,0.000940535,0.00103083,0.00167945,-0.000497531,0.948874,0.00131718,0.0213843,1035,442,1.69103,12.9321
-182,582,1.66736,-13.0952,0.00018961,0.00100997,0.00186041,0.00250489,-0.0013053,0.893901,0.00223586,0.0140229,1042,442,1.66739,13.0952
-175,582,1.70996,-13.2237,0.000309734,0.00114053,0.0026145,0.00337243,-0.00192217,0.86418,0.00309482,0.0128566,1049,442,1.71,13.2237
-168,582,1.72998,-13.3748,0.000453758,0.0012566,0.00341318,0.00429188,-0.00258153,0.843934,0.00400911,0.0112165,1056,442,1.73,13.3748
-161,582,1.745,-13.5289,0.000565888,0.00136949,0.0040789,0.00506633,-0.00313095,0.834493,0.00477647,0.0122284,1063,442,1.74498,13.5289
-154,582,1.74731,-13.6801,0.000603414,0.00149425,0.00459959,0.00566994,-0.00357228,0.833667,0.00538162,0.0123458,1070,442,1.74734,13.6801
-147,582,1.75464,-13.8252,0.000794698,0.00152801,0.00516061,0.00633497,-0.00401226,0.820863,0.00602394,0.0117178,1077,442,1.75467,13.8252
-140,582,1.75842,-13.9485,0.0013941,0.00117822,0.00536347,0.00665071,-0.0040784,0.775337,0.00625352,0.0123875,1084,442,1.75847,13.9485
-133,582,1.80286,-14.0652,0.00178115,0.000901999,0.00534295,0.00670258,-0.00401943,0.744355,0.00625463,0.0148378,1091,442,1.8028,14.0652
-126,582,1.82056,-14.165,0.00209242,-6.41193e-06,0.00519631,0.00634422,-0.00425821,0.685761,0.00616069,0.0129039,1098,442,1.8205,14.165
-119,582,1.82288,-14.269,0.00252597,-0.000866893,0.00466963,0.00579776,-0.00413869,0.611166,0.00576341,0.0161937,1105,442,1.82293,14.2689
-112,582,1.78955,-14.4151,0.00315136,-0.0016189,0.00401952,0.00544014,-0.00390768,0.517627,0.00542108,0.0231242,1112,442,1.78957,14.4151
-105,582,1.73926,-14.6099,0.00399684,-0.00211913,0.00322841,0.00538564,-0.00350793,0.40625,0.00517271,0.0311368,1119,442,1.73926,14.6099
-98,582,1.75916,-14.7696,0.004875,-0.00303515,0.00202388,0.00536275,-0.00352291,0.236489,0.00516666,0.0346446,1126,442,1.75921,14.7696
-91,582,2.13245,-14.6477,0.00598203,-0.00352836,0.000517803,0.00601014,-0.00355646,0.0542323,0.00558351,0.0402848,1133,442,2.13249,14.6477
-84,582,2.44141,-14.7665,0,0,0,0,0,0,0,-1,1140,442,2.44141,14.7665
-77,582,2.30212,-11.4907,0,0,0,0,0,0,0,-1,1147,442,2.30207,11.4907
-70,582,1.49255,-6.36548,0,0,0,0,0,0,0,-1,1154,442,1.49251,6.36549
-63,582,-4.62915,-4.0347,0,0,0,0,0,0,0,-1,1161,442,-4.6292,4.03471
-56,582,-5.81714,-5.24149,0,0,0,0,0,0,0,-1,1168,442,-5.81718,5.24149
-49,582,-3.88672,-10.1064,0,0,0,0,0,0,0,-1,1175,442,-3.88678,10.1064
-42,582,-0.948975,1.13968,0,0,0,0,0,0,0,-1,1182,442,-0.949003,-1.13969
-35,582,-2.58435,-3.86911,0,0,0,0,0,0,0,-1,1189,442,-2.58437,3.86912
-28,582,-0.825317,-3.45941,0,0,0,0,0,0,0,-1,1196,442,-0.825377,3.45942
-21,582,3.29822,-13.091,0,0,0,0,0,0,0,-1,1203,442,3.29822,13.091
-14,582,1.55127,-14.2766,0,0,0,0,0,0,0,-1,1210,442,1.55127,14.2766
-7,582,0.717407,-16.3254,0,0,0,0,0,0,0,-1,1217,442,0.717346,16.3254
0,582,1.27112,-16.2247,0,0,0,0,0,0,0,-1,1224,442,1.27106,16.2247
7,582,1.92615,-15.7014,0,0,0,0,0,0,0,-1,1231,442,1.9262,15.7014
14,582,2.50635,-16.6089,0,0,0,0,0,0,0,-1,1238,442,2.50638,16.6089
21,582,1.70605,-15.0274,0,0,0,0,0,0,0,-1,1245,442,1.706,15.0274
28,582,2.50122,-16.0562,0.0146431,-0.000923233,0.00681512,0.0172051,-0.00348529,0.359592,0.0127911,0.0481808,1252,442,2.50117,16.0562
35,582,2.15271,-15.4853,0.0222,0.00040602,0.00455254,0.0231128,-0.000506732,0.197869,0.0155802,0.0460537,1259,442,2.15265,15.4853
42,582,2.23291,-15.3671,0.0291814,0.0037193,0.000700903,0.0292007,0.00370002,0.0274995,0.0183585,0.0477036,1266,442,2.23297,15.3671
49,582,2.66919,-14.6537,0.0354585,0.00917479,-0.00386913,0.0360162,0.00861706,-0.143162,0.021716,0.0461218,1273,442,2.66918,14.6537
56,582,3.28162,-14.1037,0,0,0,0,0,0,0,-1,1280,442,3.28166,14.1037
63,582,3.07251,-12.7048,0.0410802,0.0258966,-0.0132825,0.0487874,0.0181894,-0.525774,0.0284695,0.0472711,1287,442,3.07256,12.7048
70,582,3.18433,-17.8856,0.0408193,0.0354828,-0.0180929,0.0564396,0.0198625,-0.712189,0.0330583,0.0468417,1294,442,3.18429,17.8856
77,582,3.52283,-17.5391,0.0405056,0.046098,-0.0221248,0.0656026,0.0210009,-0.848257,0.0386841,0.0423578,1301,442,3.52288,17.5391
84,582,3.49182,-17.0953,0.0388504,0.0575828,-0.0257,0.0755702,0.0208631,-0.96014,0.0450653,0.0413731,1308,442,3.49185,17.0953
91,582,3.21985,-16.8946,0.0377095,0.0679364,-0.0273642,0.0840834,0.0215625,-1.0377,0.0504289,0.0430498,1315,442,3.21982,16.8946
98,582,2.80444,-17.0742,0.036963,0.0775387,-0.027694,0.0915809,0.0229208,-1.10153,0.0550285,0.0430446,1322,442,2.80442,17.0742
105,582,2.09729,-17.0479,0.0390899,0.0854239,-0.0272536,0.0980265,0.0264872,-1.13766,0.0585541,0.0425744,1329,442,2.09731,17.0479
112,582,2.125,-17.3003,0.0430473,0.0903396,-0.0249784,0.101089,0.0322978,-1.1644,0.059618,0.0428597,1336,442,2.12502,17.3003
119,582,2.28418,-17.5641,0,0,0,0,0,0,0,-1,1343,442,2.28422,17.5641
126,582,3.96643,-14.7474,0,0,0,0,0,0,0,-1,1350,442,3.96646,14.7474
133,582,4.49829,-15.8588,0,0,0,0,0,0,0,-1,1357,442,4.49831,15.8588
140,582,6.94897,-14.9488,0,0,0,0,0,0,0,-1,1364,442,6.94894,14.9488
147,582,8.16467,-14.8602,0,0,0,0,0,0,0,-1,1371,442,8.1647,14.8602
154,582,8.88293,-15.056,0,0,0,0,0,0,0,-1,1378,442,8.88289,15.056
161,582,1.99023,-13.3256,0,0,0,0,0,0,0,-1,1385,442,1.99024,13.3256
168,582,22.1532,-13.8998,0,0,0,0,0,0,0,-1,1392,442,22.1532,13.8998
175,582,6.50549,-2.00424,0,0,0,0,0,0,0,-1,1399,442,6.50546,2.00425
182,582,5.18958,-2.18652,0,0,0,0,0,0,0,-1,1406,442,5.1896,2.18652
189,582,6.19751,-0.880951,0,0,0,0,0,0,0,-1,1413,442,6.19754,0.88096
196,582,4.87354,-2.22327,0,0,0,0,0,0,0,-1,1420,442,4.87348,2.22325
203,582,3.11401,-4.48257,0,0,0,0,0,0,0,-1,1427,442,3.11404,4.48259
210,582,2.93115,-11.0731,0,0,0,0,0,0,0,-1,1434,442,2.93113,11.0731
217,582,3.75696,-14.0164,0,0,0,0,0,0,0,-1,1441,442,3.75693,14.0164
224,582,3.95715,-14.102,-0.00327179,-0.00181809,-0.00856415,0.00605,-0.0111399,-0.827732,0.0100686,0.0430083,1448,442,3.95717,14.102
231,582,3.76526,-13.9079,-0.00274378,-0.000194684,-0.00720282,0.00584548,-0.00878395,-0.872967,0.00850291,0.045134,1455,442,3.7653,13.9079
238,582,3.66992,-13.8604,-0.00176767,0.000854919,-0.0058358,0.00552493,-0.00643768,-0.895912,0.00691331,0.0427472,1462,442,3.6699,13.8604
245,582,3.63977,-13.8789,-0.000853147,0.00168032,-0.00469193,0.00527351,-0.00444634,-0.917245,0.00561853,0.0435658,1469,442,3.6398,13.8789
252,582,3.71289,-13.6467,-6.1107e-05,0.00203871,-0.00359977,0.00473856,-0.00276095,-0.927292,0.00437974,0.028952,1476,442,3.71294,13.6467
259,582,3.64734,-13.4944,0.00057297,0.00193497,-0.00269343,0.00403217,-0.00152422,-0.909222,0.00331512,0.0226774,1483,442,3.64732,13.4944
266,582,3.63501,-13.3288,0.00107851,0.00169112,-0.00201157,0.00341957,-0.000649944,-0.860953,0.00252441,0.0171878,1490,442,3.635,13.3288
273,582,3.6897,-13.1362,0.00129148,0.0011087,-0.00146569,0.00266862,-0.000268449,-0.754262,0.00187498,0.0144715,1497,442,3.68974,13.1362
280,582,3.70557,-12.9643,0.00153927,0.00063922,-0.000926537,0.00211929,5.91999e-05,-0.559325,0.00139355,0.0118884,1504,442,3.70553,12.9643
287,582,3.72632,-12.7818,0.00154203,0.000418091,-0.000818936,0.00197327,-1.31491e-05,-0.48469,0.00131992,0.0109667,1511,442,3.72627,12.7818
294,582,3.7124,-12.5916,0.00135222,0.00018755,-0.000761379,0.00172843,-0.000188662,-0.458932,0.00122005,0.00863051,1518,442,3.71241,12.5915
301,582,3.73035,-12.4048,0.0010604,-6.96742e-05,-0.000755235,0.00143858,-0.000447847,-0.464236,0.0011381,0.00947026,1525,442,3.73036,12.4048
308,582,3.7594,-12.2285,0.000771534,-9.2228e-05,-0.000731171,0.00118885,-0.000509542,-0.518633,0.00100637,0.0128496,1532,442,3.7594,12.2285
315,582,3.75305,-12.0407,0.000540828,6.9943e-05,-0.000653761,0.00100025,-0.000389479,-0.612561,0.000827787,0.0136584,1539,442,3.75304,12.0407
322,582,3.74829,-11.8599,0.000311209,0.000332079,-0.000514513,0.000836263,-0.000192975,-0.795537,0.000631736,0.0106731,1546,442,3.74824,11.8599
329,582,3.75684,-11.6657,9.85934e-05,0.000631643,-0.000274693,0.000747861,-1.76244e-05,-1.17055,0.000504551,0.0102791,1553,442,3.7568,11.6657
336,582,3.75269,-11.4547,-0.000132334,0.000829958,-5.95997e-05,0.000833636,-0.000136011,-1.50918,0.000606202,0.0105059,1560,442,3.75267,11.4547
343,582,3.74707,-11.2454,-0.000280268,0.00103419,0.000242685,0.00107756,-0.000323643,1.39393,0.000847121,0.0135509,1567,442,3.74707,11.2454
350,582,3.7489,-11.0547,-0.000407416,0.00125432,0.000553213,0.00142164,-0.00057474,1.27709,0.00118668,0.0170147,1574,442,3.74895,11.0547
357,582,3.75061,-10.8267,-0.000572256,0.00141223,0.000829861,0.00171352,-0.000873541,1.22254,0.00151966,0.0140302,1581,442,3.75064,10.8267
364,582,3.7594,-10.598,-0.00077041,0.00155463,0.0011056,0.00199642,-0.0012122,1.19064,0.00187085,0.0108987,1588,442,3.75943,10.598
371,582,3.76282,-10.3862,-0.000974989,0.00158887,0.00134027,0.00216158,-0.0015477,1.16697,0.0021513,0.0138704,1595,442,3.76287,10.3862
378,582,3.73718,-10.1844,-0.00126795,0.00157656,0.00149925,0.00222084,-0.00191223,1.16492,0.00238845,0.0145474,1602,442,3.7372,10.1844
385,582,3.71741,-9.96365,-0.00154067,0.00167327,0.00143832,0.00222294,-0.00209035,1.20576,0.00249067,0.011069,1609,442,3.71736,9.96365
392,582,3.68921,-9.7117,-0.00139934,0.00168698,0.00130762,0.00216649,-0.00187885,1.21932,0.00233755,0.00968734,1616,442,3.68919,9.71169
399,582,3.66479,-9.47815,-0.000807672,0.0016308,0.00143194,0.00229225,-0.00146912,1.13807,0.0021889,0.0142924,1623,442,3.66481,9.47815
406,582,3.67358,-9.1669,0.000194463,0.00130508,0.00197073,0.00279724,-0.0012977,0.922726,0.00241648,0.0234063,1630,442,3.67353,9.16689
413,582,3.65698,-8.90198,0.00107128,0.000901274,0.00227276,0.00326063,-0.00128807,0.766706,0.00270725,0.0412265,1637,442,3.65703,8.90197
420,582,3.67358,-8.57126,0,0,0,0,0,0,0,-1,1644,442,3.6736,8.57126
427,582,3.52173,-8.48209,0,0,0,0,0,0,0,-1,1651,442,3.5217,8.48209
434,582,3.30334,-8.23831,0,0,0,0,0,0,0,-1,1658,442,3.3034,8.2383
441,582,3.54187,-8.09869,0,0,0,0,0,0,0,-1,1665,442,3.54185,8.0987
448,582,1.52722,-2.85928,0,0,0,0,0,0,0,-1,1672,442,1.52724,2.85927
455,582,3.6698,-4.4032,0,0,0,0,0,0,0,-1,1679,442,3.66983,4.40319
462,582,1.38074,-3.94418,0,0,0,0,0,0,0,-1,1686,442,1.38074,3.94419
469,582,4.39624,-6.42285,0,0,0,0,0,0,0,-1,1693,442,4.39622,6.42284
476,582,3.03271,-6.75476,0,0,0,0,0,0,0,-1,1700,442,3.03269,6.75475
483,582,0,0,0,0,0,0,0,0,0,-1,1707,442,0,0
490,582,0,0,0,0,0,0,0,0,0,-1,1714,442,0,0
497,582,0,0,0,0,0,0,0,0,0,-1,1721,442,0,0
504,582,0,0,0,0,0,0,0,0,0,-1,1728,442,0,0
511,582,0,0,0,0,0,0,0,0,0,-1,1735,442,0,0
518,582,0,0,0,0,0,0,0,0,0,-1,1742,442,0,0
525,582,0,0,0,0,0,0,0,0,0,-1,1749,442,0,0
532,582,0,0,0,0,0,0,0,0,0,-1,1756,442,0,0
539,582,0,0,0,0,0,0,0,0,0,-1,1763,442,0,0
546,582,0,0,0,0,0,0,0,0,0,-1,1770,442,0,0
553,582,0,0,0,0,0,0,0,0,0,-1,1777,442,0,0
560,582,0,0,0,0,0,0,0,0,0,-1,1784,442,0,0
567,582,0,0,0,0,0,0,0,0,0,-1,1791,442,0,0
574,582,0,0,0,0,0,0,0,0,0,-1,1798,442,0,0
581,582,0,0,0,0,0,0,0,0,0,-1,1805,442,0,0
588,582,0,0,0,0,0,0,0,0,0,-1,1812,442,0,0
595,582,0,0,0,0,0,0,0,0,0,-1,1819,442,0,0
602,582,0,0,0,0,0,0,0,0,0,-1,1826,442,0,0
609,582,0,0,0,0,0,0,0,0,0,-1,1833,442,0,0
616,582,0,0,0,0,0,0,0,0,0,-1,1840,442,0,0
623,582,0,0,0,0,0,0,0,0,0,-1,1847,442,0,0
630,582,0,0,0,0,0,0,0,0,0,-1,1854,442,0,0
637,582,0,0,0,0,0,0,0,0,0,-1,1861,442,0,0
644,582,0,0,0,0,0,0,0,0,0,-1,1868,442,0,0
651,582,0,0,0,0,0,0,0,0,0,-1,1875,442,0,0
658,582,0,0,0,0,0,0,0,0,0,-1,1882,442,0,0
665,582,0,0,0,0,0,0,0,0,0,-1,1889,442,0,0
672,582,0,0,0,0,0,0,0,0,0,-1,1896,442,0,0
679,582,0,0,0,0,0,0,0,0,0,-1,1903,442,0,0
686,582,0,0,0,0,0,0,0,0,0,-1,1910,442,0,0
693,582,0,0,0,0,0,0,0,0,0,-1,1917,442,0,0
700,582,0,0,0,0,0,0,0,0,0,-1,1924,442,0,0
707,582,0,0,0,0,0,0,0,0,0,-1,1931,442,0,0
714,582,0,0,0,0,0,0,0,0,0,-1,1938,442,0,0
721,582,0,0,0,0,0,0,0,0,0,-1,1945,442,0,0
728,582,0,0,0,0,0,0,0,0,0,-1,1952,442,0,0
735,582,0,0,0,0,0,0,0,0,0,-1,1959,442,0,0
742,582,0,0,0,0,0,0,0,0,0,-1,1966,442,0,0
749,582,0,0,0,0,0,0,0,0,0,-1,1973,442,0,0
756,582,0,0,0,0,0,0,0,0,0,-1,1980,442,0,0
763,582,0,0,0,0,0,0,0,0,0,-1,1987,442,0,0
770,582,0,0,0,0,0,0,0,0,0,-1,1994,442,0,0
777,582,0,0,0,0,0,0,0,0,0,-1,2001,442,0,0
784,582,0,0,0,0,0,0,0,0,0,-1,2008,442,0,0
791,582,0,0,0,0,0,0,0,0,0,-1,2015,442,0,0
798,582,0,0,0,0,0,0,0,0,0,-1,2022,442,0,0
805,582,0,0,0,0,0,0,0,0,0,-1,2029,442,0,0
812,582,0,0,0,0,0,0,0,0,0,-1,2036,442,0,0
-700,575,0,0,0,0,0,0,0,0,0,-1,524,449,0,0
-693,575,0,0,0,0,0,0,0,0,0,-1,531,449,0,0
-686,575,0,0,0,0,0,0,0,0,0,-1,538,449,0,0
-679,575,0,0,0,0,0,0,0,0,0,-1,545,449,0,0
-672,575,0,0,0,0,0,0,0,0,0,-1,552,449,0,0
-665,575,0,0,0,0,0,0,0,0,0,-1,559,449,0,0
-658,575,0,0,0,0,0,0,0,0,0,-1,566,449,0,0
-651,575,0,0,0,0,0,0,0,0,0,-1,573,449,0,0
-644,575,0,0,0,0,0,0,0,0,0,-1,580,449,0,0
-637,575,0,0,0,0,0,0,0,0,0,-1,587,449,0,0
-630,575,0,0,0,0,0,0,0,0,0,-1,594,449,0,0
-623,575,0,0,0,0,0,0,0,0,0,-1,601,449,0,0
-616,575,0,0,0,0,0,0,0,0,0,-1,608,449,0,0
-609,575,0,0,0,0,0,0,0,0,0,-1,615,449,0,0
-602,575,0,0,0,0,0,0,0,0,0,-1,622,449,0,0
-595,575,0,0,0,0,0,0,0,0,0,-1,629,449,0,0
-588,575,0,0,0,0,0,0,0,0,0,-1,636,449,0,0
-581,575,0,0,0,0,0,0,0,0,0,-1,643,449,0,0
-574,575,0,0,0,0,0,0,0,0,0,-1,650,449,0,0
-567,575,0,0,0,0,0,0,0,0,0,-1,657,449,0,0
-560,575,0,0,0,0,0,0,0,0,0,-1,664,449,0,0
-553,575,0,0,0,0,0,0,0,0,0,-1,671,449,0,0
-546,575,0,0,0,0,0,0,0,0,0,-1,678,449,0,0
-539,575,0,0,0,0,0,0,0,0,0,-1,685,449,0,0
-532,575,0,0,0,0,0,0,0,0,0,-1,692,449,0,0
-525,575,0,0,0,0,0,0,0,0,0,-1,699,449,0,0
-518,575,0,0,0,0,0,0,0,0,0,-1,706,449,0,0
-511,575,0,0,0,0,0,0,0,0,0,-1,713,449,0,0
-504,575,0,0,0,0,0,0,0,0,0,-1,720,449,0,0
-497,575,0,0,0,0,0,0,0,0,0,-1,727,449,0,0
-490,575,0,0,0,0,0,0,0,0,0,-1,734,449,0,0
-483,575,0,0,0,0,0,0,0,0,0,-1,741,449,0,0
-476,575,0,0,0,0,0,0,0,0,0,-1,748,449,0,0
-469,575,0,0,0,0,0,0,0,0,0,-1,755,449,0,0
-462,575,0,0,0,0,0,0,0,0,0,-1,762,449,0,0
-455,575,0,0,0,0,0,0,0,0,0,-1,769,449,0,0
-448,575,0,0,0,0,0,0,0,0,0,-1,776,449,0,0
-441,575,0,0,0,0,0,0,0,0,0,-1,783,449,0,0
-434,575,0,0,0,0,0,0,0,0,0,-1,790,449,0,0
-427,575,0,0,0,0,0,0,0,0,0,-1,797,449,0,0
-420,575,0,0,0,0,0,0,0,0,0,-1,804,449,0,0
-413,575,0,0,0,0,0,0,0,0,0,-1,811,449,0,0
-406,575,0,0,0,0,0,0,0,0,0,-1,818,449,0,0
-399,575,0,0,0,0,0,0,0,0,0,-1,825,449,0,0
-392,575,0,0,0,0,0,0,0,0,0,-1,832,449,0,0
-385,575,0,0,0,0,0,0,0,0,0,-1,839,449,0,0
-378,575,0,0,0,0,0,0,0,0,0,-1,846,449,0,0
-371,575,0.56897,-3.52304,0,0,0,0,0,0,0,-1,853,449,0.568955,3.52306
-364,575,1.49805,-4.67191,0,0,0,0,0,0,0,-1,860,449,1.49803,4.6719
-357,575,3.15521,-8.29892,0,0,0,0,0,0,0,-1,867,449,3.15521,8.29891
-350,575,2.76715,-7.23752,0,0,0,0,0,0,0,-1,874,449,2.76717,7.2375
-343,575,0.6922,-9.68082,0,0,0,0,0,0,0,-1,881,449,0.692185,9.68081
-336,575,0.509949,-9.33444,0,0,0,0,0,0,0,-1,888,449,0.509958,9.33444
-329,575,0.532715,-9.27591,0,0,0,0,0,0,0,-1,895,449,0.532685,9.27591
-322,575,0.280151,-9.54102,0,0,0,0,0,0,0,-1,902,449,0.280157,9.54102
-315,575,1.59326,-9.59915,0,0,0,0,0,0,0,-1,909,449,1.59329,9.59916
-308,575,1.63843,-9.70297,0.00348635,-0.00436973,0.00183585,0.00389419,-0.00477756,0.218603,0.00501529,0.0426384,916,449,1.63844,9.70296
-301,575,1.67859,-9.77081,0.00313287,-0.00218764,-1.20151e-05,0.00313289,-0.00218767,-0.00225825,0.00308794,0.030546,923,449,1.67858,9.77081
-294,575,1.63434,-9.99411,0.00308934,-0.000437635,-0.00163799,0.0037327,-0.00108099,-0.37426,0.00291636,0.023346,930,449,1.63433,9.99412
-287,575,1.60907,-10.227,0.00311758,0.000718141,-0.00269298,0.00486599,-0.00103027,-0.575846,0.00363639,0.0179799,937,449,1.60909,10.227
-280,575,1.59979,-10.4216,0.00297623,0.00183696,-0.00316207,0.00561957,-0.000806376,-0.696281,0.00404207,0.0133308,944,449,1.59977,10.4216
-273,575,1.58459,-10.622,0.00281473,0.0022635,-0.0033545,0.00590492,-0.000826687,-0.744409,0.00423913,0.0109639,951,449,1.58459,10.622
-266,575,1.56177,-10.8485,0.00273195,0.00235126,-0.00385488,0.00640118,-0.00131797,-0.760729,0.00476789,0.0124059,958,449,1.56178,10.8485
-259,575,1.5506,-11.0741,0.00252308,0.00226388,-0.00354208,0.00593793,-0.00115096,-0.767112,0.00439282,0.0121856,965,449,1.55061,11.0741
-252,575,1.5191,-11.2685,0.00240999,0.00205942,-0.00320254,0.00544203,-0.000972626,-0.758058,0.00399193,0.010863,972,449,1.51909,11.2685
-245,575,1.51544,-11.4641,0.00241841,0.00180037,-0.00284323,0.00496937,-0.000750584,-0.731267,0.00358936,0.0137873,979,449,1.51546,11.4641
-238,575,1.52844,-11.6701,0.00222839,0.00115881,-0.00217907,0.00393733,-0.000550133,-0.665065,0.00282617,0.013786,986,449,1.52845,11.6701
-231,575,1.53589,-11.8392,0.00175159,0.000642551,-0.00153598,0.00283008,-0.000435942,-0.612169,0.00204757,0.0117526,993,449,1.53591,11.8392
-224,575,1.52509,-12.0139,0.00138282,0.000242744,-0.000996968,0.00196121,-0.000335647,-0.525696,0.00143252,0.0118382,1000,449,1.52511,12.0139
-217,575,1.52893,-12.2059,0.00104044,-0.000194767,-0.000458501,0.00119203,-0.000346355,-0.319305,0.000931849,0.0101846,1007,449,1.52895,12.2059
-210,575,1.53839,-12.4044,0.000653598,-0.000661267,2.36143e-05,0.000654022,-0.000661691,0.0179518,0.000759632,0.00872203,1014,449,1.53836,12.4044
-203,575,1.52618,-12.5811,0.000403465,-0.000637988,0.000640964,0.000708566,-0.000943089,0.444266,0.000956782,0.0117037,1021,449,1.5262,12.5811
-196,575,1.52917,-12.7625,0.000229495,-0.000235697,0.00150452,0.00151929,-0.00152549,0.708706,0.0017579,0.0148083,1028,449,1.52917,12.7625
-189,575,1.53723,-12.9273,6.17518e-05,3.87664e-05,0.00238058,0.00243086,-0.00233034,0.782984,0.00274909,0.0156847,1035,449,1.53721,12.9273
-182,575,1.54077,-13.0746,8.6183e-05,0.000476103,0.00343744,0.0037241,-0.00316182,0.813726,0.00398,0.0133603,1042,449,1.5408,13.0746
-175,575,1.57312,-13.2266,0.000240335,0.00109964,0.00444856,0.00513925,-0.00379927,0.83354,0.00517995,0.0112343,1049,449,1.57314,13.2266
-168,575,1.56372,-13.368,0.000458751,0.00166358,0.00550342,0.00659745,-0.00447512,0.839912,0.00643178,0.0101067,1056,449,1.56373,13.3679
-161,575,1.5769,-13.5146,0.000654645,0.00216727,0.00643653,0.00789178,-0.00506986,0.843882,0.00754229,0.013667,1063,449,1.57696,13.5146
-154,575,1.59497,-13.6556,0.000732683,0.00271375,0.00716292,0.0089543,-0.00550787,0.854106,0.0084284,0.0161677,1070,449,1.59502,13.6556
-147,575,1.61035,-13.7635,0.000997029,0.00313779,0.00794061,0.0100798,-0.00594502,0.852393,0.00935406,0.0161915,1077,449,1.61034,13.7635
-140,575,1.5647,-13.8597,0.00176827,0.00303533,0.00825161,0.0106777,-0.0058741,0.823711,0.0096894,0.0260826,1084,449,1.56468,13.8597
-133,575,1.67834,-13.9877,0.00223547,0.00293325,0.00829256,0.0108843,-0.00571553,0.806422,0.00973753,0.0354842,1091,449,1.6783,13.9877
-126,575,1.75488,-13.9573,0.00249679,0.00173225,0.00818178,0.0103052,-0.00607618,0.762054,0.00956229,0.0403127,1098,449,1.75493,13.9573
-119,575,1.64734,-14.055,0.00285437,0.000373309,0.00749886,0.00921462,-0.00598694,0.703426,0.00884232,0.0387167,1105,449,1.64729,14.055
-112,575,1.75037,-14.3365,0.00347106,-0.000941707,0.00657805,0.00820289,-0.00567354,0.623586,0.0080558,0.0408103,1112,449,1.7504,14.3365
-105,575,1.71985,-14.6431,0.0043987,-0.00201073,0.00543488,0.00750335,-0.00511538,0.519008,0.00732878,0.046694,1119,449,1.71985,14.6431
-98,575,1.51831,-14.7378,0.00531606,-0.00391836,0.00358407,0.00654387,-0.00514616,0.330042,0.0067653,0.0474481,1126,449,1.51836,14.7378
-91,575,1.34473,-14.8264,0,0,0,0,0,0,0,-1,1133,449,1.34471,14.8264
-84,575,1.16553,-11.9056,0,0,0,0,0,0,0,-1,1140,449,1.16558,11.9056
-77,575,0.205078,-11.2584,0,0,0,0,0,0,0,-1,1147,449,0.205117,11.2584
-70,575,-4.2467,-1.78738,0,0,0,0,0,0,0,-1,1154,449,-4.24674,1.78739
-63,575,-4.52209,-3.48798,0,0,0,0,0,0,0,-1,1161,449,-4.5221,3.48796
-56,575,-5.5968,-5.4928,0,0,0,0,0,0,0,-1,1168,449,-5.59683,5.49281
-49,575,-5.96863,-7.17612,0,0,0,0,0,0,0,-1,1175,449,-5.96868,7.1761
-42,575,-0.830322,0.773499,0,0,0,0,0,0,0,-1,1182,449,-0.83038,-0.77351
-35,575,-0.62085,0.205139,0,0,0,0,0,0,0,-1,1189,449,-0.620855,-0.205126
-28,575,0.49292,-3.87988,0,0,0,0,0,0,0,-1,1196,449,0.492941,3.87989
-21,575,-1.48584,-16.2562,0,0,0,0,0,0,0,-1,1203,449,-1.48586,16.2562
-14,575,-0.290039,-16.5263,0,0,0,0,0,0,0,-1,1210,449,-0.28999,16.5264
-7,575,0.905029,-16.8358,0,0,0,0,0,0,0,-1,1217,449,0.905057,16.8358
0,575,1.52832,-17.0463,0,0,0,0,0,0,0,-1,1224,449,1.52833,17.0463
7,575,2.21741,-17.1585,0,0,0,0,0,0,0,-1,1231,449,2.21741,17.1585
14,575,1.77246,-15.3221,0,0,0,0,0,0,0,-1,1238,449,1.7725,15.3221
21,575,1.65588,-15.19,0,0,0,0,0,0,0,-1,1245,449,1.65588,15.19
28,575,1.9176,-15.5118,0,0,0,0,0,0,0,-1,1252,449,1.91764,15.5118
35,575,2.00195,-15.3734,0.0245551,-0.000869194,0.00703507,0.0263719,-0.00268602,0.25273,0.0185416,0.0439185,1259,449,2.00191,15.3734
42,575,2.09045,-15.2047,0.0339724,0.00207412,0.00244555,0.0341588,0.00188771,0.0760747,0.0221701,0.0444357,1266,449,2.09045,15.2047
49,575,2.21814,-15.0676,0.0421195,0.00796182,-0.0031886,0.0424146,0.00766672,-0.092287,0.0260989,0.0447754,1273,449,2.21818,15.0676
56,575,2.34424,-14.921,0,0,0,0,0,0,0,-1,1280,449,2.34429,14.921
63,575,1.96106,-13.6454,0.0499373,0.0270111,-0.0149786,0.0573358,0.0196126,-0.458787,0.0336488,0.0448287,1287,449,1.96105,13.6454
70,575,4.38171,-18.2971,0.050085,0.038149,-0.0210832,0.0660286,0.0222054,-0.647472,0.0387967,0.0423446,1294,449,4.38169,18.2971
77,575,4.43701,-17.9501,0.050965,0.0514785,-0.0260841,0.0773071,0.0251364,-0.790319,0.0455339,0.0409851,1301,449,4.43698,17.9501
84,575,4.24719,-17.7112,0.050642,0.0664735,-0.0303674,0.0899399,0.0271756,-0.912894,0.0532646,0.0426226,1308,449,4.2472,17.7112
91,575,3.98669,-17.7032,0.0510966,0.0799962,-0.0320458,0.100699,0.0303934,-0.997203,0.0596416,0.0445796,1315,449,3.98668,17.7032
98,575,3.74866,-17.889,0.0522623,0.0931163,-0.0322777,0.110888,0.034491,-1.06751,0.0655272,0.042623,1322,449,3.74867,17.889
105,575,3.19263,-17.875,0.0565113,0.104418,-0.0316304,0.120141,0.0407878,-1.10947,0.0705448,0.0397734,1329,449,3.19262,17.875
112,575,2.73242,-17.9673,0.0624649,0.112212,-0.0285107,0.125174,0.0495026,-1.14408,0.072794,0.0407501,1336,449,2.73243,17.9673
119,575,2.26917,-17.9704,0.0681649,0.113859,-0.0234902,0.123781,0.0582435,-1.17116,0.0715063,0.0457427,1343,449,2.2692,17.9704
126,575,1.80481,-17.9481,0,0,0,0,0,0,0,-1,1350,449,1.80486,17.9481
133,575,5.4552,-15.6628,0,0,0,0,0,0,0,-1,1357,449,5.45526,15.6628
140,575,6.72583,-15.7551,0.103467,0.114937,-0.0129977,0.123409,0.0949951,-0.993174,0.0746266,0.0459906,1364,449,6.7258,15.7551
147,575,7.91687,-15.7691,0,0,0,0,0,0,0,-1,1371,449,7.91685,15.7691
154,575,8.71143,-15.7713,0,0,0,0,0,0,0,-1,1378,449,8.71143,15.7713
161,575,2.0603,-12.8519,0,0,0,0,0,0,0,-1,1385,449,2.06028,12.8519
168,575,9.2522,-0.307129,0,0,0,0,0,0,0,-1,1392,449,9.25225,0.307127
175,575,4.32617,1.93634,0,0,0,0,0,0,0,-1,1399,449,4.32612,-1.93634
182,575,6.3147,-2.88345,0,0,0,0,0,0,0,-1,1406,449,6.31466,2.88346
189,575,6.10449,-1.30817,0,0,0,0,0,0,0,-1,1413,449,6.10455,1.30817
196,575,5.79895,0.818359,0,0,0,0,0,0,0,-1,1420,449,5.79895,-0.81837
203,575,3.29724,-1.46378,0,0,0,0,0,0,0,-1,1427,449,3.29722,1.46377
210,575,2.32739,-7.74503,0,0,0,0,0,0,0,-1,1434,449,2.32741,7.74502
217,575,3.33618,-11.5521,0,0,0,0,0,0,0,-1,1441,449,3.3362,11.5521
224,575,4.4834,-14.1235,0,0,0,0,0,0,0,-1,1448,449,4.48344,14.1235
231,575,4.15308,-13.9522,0,0,0,0,0,0,0,-1,1455,449,4.15311,13.9522
238,575,4.15222,-13.9684,0,0,0,0,0,0,0,-1,1462,449,4.15223,13.9684
245,575,3.95422,-14.2225,0,0,0,0,0,0,0,-1,1469,449,3.95426,14.2225
252,575,3.92517,-13.8954,0,0,0,0,0,0,0,-1,1476,449,3.92514,13.8955
259,575,3.81714,-13.7605,0,0,0,0,0,0,0,-1,1483,449,3.81708,13.7605
266,575,3.7478,-13.5308,0,0,0,0,0,0,0,-1,1490,449,3.74775,13.5308
273,575,3.81323,-13.2207,0,0,0,0,0,0,0,-1,1497,449,3.81329,13.2207
280,575,3.8606,-12.9763,0,0,0,0,0,0,0,-1,1504,449,3.86062,12.9763
287,575,3.86121,-12.7879,0.0017735,0.000628523,-0.00143591,0.00274684,-0.000344815,-0.595708,0.00195632,0.0170407,1511,449,3.86124,12.7879
294,575,3.89343,-12.5978,0.00154073,0.000157338,-0.00143925,0.00244588,-0.000747805,-0.561397,0.00192879,0.0100235,1518,449,3.8934,12.5978
301,575,3.91565,-12.4267,0.00119458,-0.000404608,-0.00149171,0.00208749,-0.00129751,-0.539372,0.00197199,0.00936395,1525,449,3.91564,12.4267
308,575,3.94312,-12.2492,0.000829855,-0.000749334,-0.00153559,0.00176696,-0.00168644,-0.547929,0.00199401,0.010482,1532,449,3.94316,12.2492
315,575,3.92981,-12.0596,0.000546997,-0.000841993,-0.00149321,0.00149932,-0.00179431,-0.567727,0.00190412,0.0108613,1539,449,3.92979,12.0596
322,575,3.94763,-11.8615,0.000277109,-0.000767444,-0.00136023,0.00121188,-0.00170222,-0.602096,0.00169038,0.0100003,1546,449,3.94765,11.8615
329,575,3.9552,-11.6668,7.27489e-05,-0.00056257,-0.00110723,0.000906988,-0.00139681,-0.645703,0.00134008,0.0103654,1553,449,3.95521,11.6668
336,575,3.93713,-11.4538,-9.8969e-05,-0.000347514,-0.00082862,0.000614645,-0.00106113,-0.710965,0.000978888,0.0115342,1560,449,3.93718,11.4538
343,575,3.95349,-11.2378,-0.000238341,-9.70684e-05,-0.000503856,0.000341078,-0.000676488,-0.85504,0.000598036,0.0123242,1567,449,3.95354,11.2378
350,575,3.95178,-11.0391,-0.000315618,0.000167663,-0.000148137,0.000209456,-0.000357411,-1.29582,0.000330976,0.0118626,1574,449,3.95177,11.0391
357,575,3.96008,-10.8242,-0.00041043,0.000430617,0.000171961,0.000464418,-0.000444231,1.37671,0.000524652,0.0109112,1581,449,3.9601,10.8242
364,575,3.97046,-10.5997,-0.000528152,0.000715803,0.000492668,0.000887285,-0.000699634,1.23584,0.000918341,0.0106793,1588,449,3.97046,10.5997
371,575,3.96082,-10.3943,-0.000652752,0.000919244,0.000779808,0.00124045,-0.000973955,1.18007,0.00128157,0.0187574,1595,449,3.96076,10.3943
378,575,3.94507,-10.1834,-0.0008384,0.00115599,0.000995951,0.00156816,-0.00125057,1.17841,0.00163084,0.0175153,1602,449,3.94508,10.1834
385,575,3.91846,-9.95026,-0.000991298,0.00128238,0.00102309,0.00167495,-0.00138387,1.20441,0.00176868,0.011128,1609,449,3.9184,9.95026
392,575,3.89783,-9.70566,-0.000804785,0.00130543,0.00100193,0.00170536,-0.00120471,1.19102,0.0016884,0.00881458,1616,449,3.89788,9.70565
399,575,3.89392,-9.49072,-0.000252575,0.00127317,0.00116826,0.00190557,-0.00088498,1.07464,0.00164665,0.00924223,1623,449,3.89395,9.49073
406,575,3.88416,-9.24661,0.000583755,0.00100788,0.00167863,0.00248779,-0.000896159,0.84823,0.00202448,0.0105175,1630,449,3.88416,9.24662
413,575,3.86414,-9.00272,0.00127599,0.000731984,0.00198712,0.00300964,-0.00100166,0.717379,0.0024107,0.0119125,1637,449,3.86409,9.00271
420,575,3.8479,-8.76309,0.00236239,0.000358382,0.00251839,0.00407079,-0.00135002,0.596062,0.00325846,0.0128222,1644,449,3.84784,8.76309
427,575,3.8009,-8.52179,0.00378844,-3.40702e-05,0.00334633,0.00573086,-0.00197649,0.52593,0.00462247,0.0193979,1651,449,3.80087,8.52178
434,575,3.72156,-8.32959,0.00578037,-0.000566198,0.00431402,0.0079625,-0.00274833,0.468296,0.00642351,0.029626,1658,449,3.72153,8.32959
441,575,3.87134,-8.11264,0.00819228,-0.0009316,0.00581391,0.0110204,-0.00375971,0.45274,0.00886987,0.0492489,1665,449,3.8713,8.11263
448,575,4.04272,-7.85046,0,0,0,0,0,0,0,-1,1672,449,4.04271,7.85047
455,575,4.92957,-7.66205,0,0,0,0,0,0,0,-1,1679,449,4.92951,7.66204
462,575,2.07434,-7.07288,0,0,0,0,0,0,0,-1,1686,449,2.07432,7.07287
469,575,4.88367,-6.89301,0,0,0,0,0,0,0,-1,1693,449,4.88368,6.89299
476,575,3.62219,-6.12036,0,0,0,0,0,0,0,-1,1700,449,3.62219,6.12035
483,575,3.62512,-6.1293,0,0,0,0,0,0,0,-1,1707,449,3.62514,6.12931
490,575,3.88062,-5.64282,0,0,0,0,0,0,0,-1,1714,449,3.88056,5.64281
497,575,0,0,0,0,0,0,0,0,0,-1,1721,449,0,0
504,575,0,0,0,0,0,0,0,0,0,-1,1728,449,0,0
511,575,0,0,0,0,0,0,0,0,0,-1,1735,449,0,0
518,575,0,0,0,0,0,0,0,0,0,-1,1742,449,0,0
525,575,0,0,0,0,0,0,0,0,0,-1,1749,449,0,0
532,575,0,0,0,0,0,0,0,0,0,-1,1756,449,0,0
539,575,0,0,0,0,0,0,0,0,0,-1,1763,449,0,0
546,575,0,0,0,0,0,0,0,0,0,-1,1770,449,0,0
553,575,0,0,0,0,0,0,0,0,0,-1,1777,449,0,0
560,575,0,0,0,0,0,0,0,0,0,-1,1784,449,0,0
567,575,0,0,0,0,0,0,0,0,0,-1,1791,449,0,0
574,575,0,0,0,0,0,0,0,0,0,-1,1798,449,0,0
581,575,0,0,0,0,0,0,0,0,0,-1,1805,449,0,0
588,575,0,0,0,0,0,0,0,0,0,-1,1812,449,0,0
595,575,0,0,0,0,0,0,0,0,0,-1,1819,449,0,0
602,575,0,0,0,0,0,0,0,0,0,-1,1826,449,0,0
609,575,0,0,0,0,0,0,0,0,0,-1,1833,449,0,0
616,575,0,0,0,0,0,0,0,0,0,-1,1840,449,0,0
623,575,0,0,0,0,0,0,0,0,0,-1,1847,449,0,0
630,575,0,0,0,0,0,0,0,0,0,-1,1854,449,0,0
637,575,0,0,0,0,0,0,0,0,0,-1,1861,449,0,0
644,575,0,0,0,0,0,0,0,0,0,-1,1868,449,0,0
651,575,0,0,0,0,0,0,0,0,0,-1,1875,449,0,0
658,575,0,0,0,0,0,0,0,0,0,-1,1882,449,0,0
665,575,0,0,0,0,0,0,0,0,0,-1,1889,449,0,0
672,575,0,0,0,0,0,0,0,0,0,-1,1896,449,0,0
679,575,0,0,0,0,0,0,0,0,0,-1,1903,449,0,0
686,575,0,0,0,0,0,0,0,0,0,-1,1910,449,0,0
693,575,0,0,0,0,0,0,0,0,0,-1,1917,449,0,0
700,575,0,0,0,0,0,0,0,0,0,-1,1924,449,0,0
707,575,0,0,0,0,0,0,0,0,0,-1,1931,449,0,0
714,575,0,0,0,0,0,0,0,0,0,-1,1938,449,0,0
721,575,0,0,0,0,0,0,0,0,0,-1,1945,449,0,0
728,575,0,0,0,0,0,0,0,0,0,-1,1952,449,0,0
735,575,0,0,0,0,0,0,0,0,0,-1,1959,449,0,0
742,575,0,0,0,0,0,0,0,0,0,-1,1966,449,0,0
749,575,0,0,0,0,0,0,0,0,0,-1,1973,449,0,0
756,575,0,0,0,0,0,0,0,0,0,-1,1980,449,0,0
763,575,0,0,0,0,0,0,0,0,0,-1,1987,449,0,0
770,575,0,0,0,0,0,0,0,0,0,-1,1994,449,0,0
777,575,0,0,0,0,0,0,0,0,0,-1,2001,449,0,0
784,575,0,0,0,0,0,0,0,0,0,-1,2008,449,0,0
791,575,0,0,0,0,0,0,0,0,0,-1,2015,449,0,0
798,575,0,0,0,0,0,0,0,0,0,-1,2022,449,0,0
805,575,0,0,0,0,0,0,0,0,0,-1,2029,449,0,0
812,575,0,0,0,0,0,0,0,0,0,-1,2036,449,0,0
-700,568,0,0,0,0,0,0,0,0,0,-1,524,456,0,0
-693,568,0,0,0,0,0,0,0,0,0,-1,531,456,0,0
-686,568,0,0,0,0,0,0,0,0,0,-1,538,456,0,0
-679,568,0,0,0,0,0,0,0,0,0,-1,545,456,0,0
-672,568,0,0,0,0,0,0,0,0,0,-1,552,456,0,0
-665,568,0,0,0,0,0,0,0,0,0,-1,559,456,0,0
-658,568,0,0,0,0,0,0,0,0,0,-1,566,456,0,0
-651,568,0,0,0,0,0,0,0,0,0,-1,573,456,0,0
-644,568,0,0,0,0,0,0,0,0,0,-1,580,456,0,0
-637,568,0,0,0,0,0,0,0,0,0,-1,587,456,0,0
-630,568,0,0,0,0,0,0,0,0,0,-1,594,456,0,0
-623,568,0,0,0,0,0,0,0,0,0,-1,601,456,0,0
-616,568,0,0,0,0,0,0,0,0,0,-1,608,456,0,0
-609,568,0,0,0,0,0,0,0,0,0,-1,615,456,0,0
-602,568,0,0,0,0,0,0,0,0,0,-1,622,456,0,0
-595,568,0,0,0,0,0,0,0,0,0,-1,629,456,0,0
-588,568,0,0,0,0,0,0,0,0,0,-1,636,456,0,0
-581,568,0,0,0,0,0,0,0,0,0,-1,643,456,0,0
-574,568,0,0,0,0,0,0,0,0,0,-1,650,456,0,0
-567,568,0,0,0,0,0,0,0,0,0,-1,657,456,0,0
-560,568,0,0,0,0,0,0,0,0,0,-1,664,456,0,0
-553,568,0,0,0,0,0,0,0,0,0,-1,671,456,0,0
-546,568,0,0,0,0,0,0,0,0,0,-1,678,456,0,0
-539,568,0,0,0,0,0,0,0,0,0,-1,685,456,0,0
-532,568,0,0,0,0,0,0,0,0,0,-1,692,456,0,0
-525,568,0,0,0,0,0,0,0,0,0,-1,699,456,0,0
-518,568,0,0,0,0,0,0,0,0,0,-1,706,456,0,0
-511,568,0,0,0,0,0,0,0,0,0,-1,713,456,0,0
-504,568,0,0,0,0,0,0,0,0,0,-1,720,456,0,0
-497,568,0,0,0,0,0,0,0,0,0,-1,727,456,0,0
-490,568,0,0,0,0,0,0,0,0,0,-1,734,456,0,0
-483,568,0,0,0,0,0,0,0,0,0,-1,741,456,0,0
-476,568,0,0,0,0,0,0,0,0,0,-1,748,456,0,0
-469,568,0,0,0,0,0,0,0,0,0,-1,755,456,0,0
-462,568,0,0,0,0,0,0,0,0,0,-1,762,456,0,0
-455,568,0,0,0,0,0,0,0,0,0,-1,769,456,0,0
-448,568,0,0,0,0,0,0,0,0,0,-1,776,456,0,0
-441,568,0,0,0,0,0,0,0,0,0,-1,783,456,0,0
-434,568,0,0,0,0,0,0,0,0,0,-1,790,456,0,0
-427,568,0,0,0,0,0,0,0,0,0,-1,797,456,0,0
-420,568,0,0,0,0,0,0,0,0,0,-1,804,456,0,0
-413,568,0,0,0,0,0,0,0,0,0,-1,811,456,0,0
-406,568,0,0,0,0,0,0,0,0,0,-1,818,456,0,0
-399,568,0,0,0,0,0,0,0,0,0,-1,825,456,0,0
-392,568,0,0,0,0,0,0,0,0,0,-1,832,456,0,0
-385,568,0,0,0,0,0,0,0,0,0,-1,839,456,0,0
-378,568,0.321777,-7.29929,0,0,0,0,0,0,0,-1,846,456,0.321806,7.29927
-371,568,1.09595,-7.46707,0,0,0,0,0,0,0,-1,853,456,1.09597,7.46707
-364,568,1.87787,-7.61115,0,0,0,0,0,0,0,-1,860,456,1.87784,7.61116
-357,568,2.14166,-7.67645,0,0,0,0,0,0,0,-1,867,456,2.14167,7.67646
-350,568,1.29108,-9.94327,0,0,0,0,0,0,0,-1,874,456,1.29105,9.94326
-343,568,1.05487,-9.54898,0,0,0,0,0,0,0,-1,881,456,1.05485,9.54898
-336,568,0.822388,-9.27176,0.0028591,-0.0171472,0.00718537,0.0051723,-0.0194604,0.311455,0.014998,0.0499936,888,456,0.82237,9.27175
-329,568,0.804138,-9.1442,0.00314498,-0.0130515,0.0055758,0.00487889,-0.0147854,0.301491,0.0118236,0.0442267,895,456,0.804167,9.14418
-322,568,0.871033,-9.25296,0.00308852,-0.00958074,0.00385606,0.00416987,-0.0106621,0.273406,0.00883245,0.0410339,902,456,0.871019,9.25295
-315,568,1.43518,-9.39731,0.00288572,-0.00666303,0.00221867,0.00337606,-0.00715337,0.217507,0.00620819,0.0377232,909,456,1.4352,9.39732
-308,568,1.48273,-9.59222,0.00266332,-0.0041579,0.000836333,0.00276436,-0.00425894,0.120235,0.0040854,0.0265141,916,456,1.48271,9.59222
-301,568,1.43726,-9.78046,0.00237226,-0.00230133,-0.000296482,0.00239099,-0.00232006,-0.0631006,0.00272003,0.0140865,923,456,1.43726,9.78044
-294,568,1.39569,-9.97052,0.00227009,-0.000854618,-0.00129709,0.00273835,-0.00132287,-0.346447,0.00239175,0.0108063,930,456,1.39572,9.97052
-287,568,1.38135,-10.2082,0.00222863,0.000148085,-0.00196681,0.00341333,-0.00103661,-0.542143,0.00268855,0.0105402,937,456,1.38132,10.2082
-280,568,1.38184,-10.4272,0.00212257,0.00102416,-0.00225333,0.00389266,-0.000745934,-0.665864,0.00287618,0.0106493,944,456,1.38185,10.4272
-273,568,1.37836,-10.6382,0.00202249,0.00129855,-0.00235323,0.00404143,-0.000720384,-0.709087,0.00296374,0.0115693,951,456,1.37836,10.6382
-266,568,1.36169,-10.8575,0.00199328,0.00130699,-0.00270384,0.00437566,-0.00107539,-0.72228,0.0033339,0.0116799,958,456,1.36171,10.8575
-259,568,1.34839,-11.0729,0.00191571,0.00111048,-0.00247957,0.00402513,-0.000998946,-0.704914,0.00307105,0.012398,965,456,1.34837,11.0729
-252,568,1.31842,-11.2573,0.00189343,0.000759952,-0.00221788,0.00361584,-0.000962455,-0.660309,0.00278733,0.0121439,972,456,1.31841,11.2573
-245,568,1.32544,-11.4481,0.00192192,0.000355849,-0.00188318,0.00317837,-0.000900602,-0.58837,0.00247437,0.0135414,979,456,1.32544,11.4481
-238,568,1.34479,-11.6613,0.00175969,-0.000435461,-0.00126118,0.00233402,-0.00100978,-0.427323,0.00198036,0.0120029,986,456,1.34476,11.6613
-231,568,1.33252,-11.8289,0.00137465,-0.00104831,-0.000679669,0.00155228,-0.00122594,-0.255634,0.00160769,0.0105125,993,456,1.3325,11.8289
-224,568,1.31989,-12.0043,0.00104753,-0.00155882,-0.000135498,0.00105456,-0.00156584,-0.0518016,0.00152246,0.012232,1000,456,1.31986,12.0043
-217,568,1.33948,-12.2023,0.000707888,-0.00208013,0.000417045,0.000768935,-0.00214118,0.145347,0.00174131,0.0107541,1007,456,1.33945,12.2023
-210,568,1.35986,-12.3835,0.000309435,-0.00256857,0.000925882,0.000581568,-0.0028407,0.285868,0.00211449,0.0105097,1014,456,1.35984,12.3835
-203,568,1.35229,-12.5811,7.45027e-05,-0.00229958,0.00168393,0.000947725,-0.0031728,0.478387,0.00249192,0.00999775,1021,456,1.35229,12.5812
-196,568,1.36963,-12.7447,-7.8275e-05,-0.00150639,0.00279149,0.00208904,-0.00367371,0.660184,0.00336879,0.012816,1028,456,1.36958,12.7447
-189,568,1.37659,-12.8935,-0.000213632,-0.000825801,0.00386492,0.0033573,-0.00439674,0.745883,0.00449019,0.0132231,1035,456,1.37663,12.8935
-182,568,1.39709,-13.0485,-0.000138522,9.75404e-05,0.00523954,0.00522038,-0.00526136,0.79666,0.00605165,0.0143816,1042,456,1.39711,13.0485
-175,568,1.42993,-13.2268,3.58439e-05,0.00139017,0.00664082,0.00738826,-0.00596225,0.836207,0.00772257,0.0125662,1049,456,1.4299,13.2268
-168,568,1.42969,-13.3515,0.000326666,0.00262532,0.00813033,0.00968716,-0.00673517,0.855614,0.00953236,0.0158539,1056,456,1.42965,13.3515
-161,568,1.42322,-13.4779,0.000617085,0.00375759,0.00954505,0.0118607,-0.00748601,0.866923,0.0112646,0.0250482,1063,456,1.42325,13.4779
-154,568,1.48621,-13.7573,0.000740478,0.00494381,0.0106695,0.0137167,-0.00803236,0.882643,0.0126989,0.0345075,1070,456,1.48622,13.7573
-147,568,1.47412,-13.8535,0.00110997,0.00599797,0.0118515,0.0156549,-0.00854695,0.887082,0.0141724,0.040695,1077,456,1.47413,13.8536
-140,568,1.28577,-13.8737,0.00212995,0.00641405,0.0124631,0.0169178,-0.00837384,0.870502,0.0148773,0.0436723,1084,456,1.28571,13.8737
-133,568,1.17615,-13.7631,0.00274309,0.00675946,0.0127355,0.0176441,-0.00814158,0.863596,0.0152206,0.0470041,1091,456,1.17619,13.7631
-126,568,1.28601,-13.815,0,0,0,0,0,0,0,-1,1098,456,1.28603,13.815
-119,568,1.40625,-13.7509,0,0,0,0,0,0,0,-1,1105,456,1.4063,13.7509
-112,568,1.69714,-14.2003,0,0,0,0,0,0,0,-1,1112,456,1.69711,14.2003
-105,568,1.78931,-14.5331,0,0,0,0,0,0,0,-1,1119,456,1.78926,14.5331
-98,568,1.47131,-14.329,0,0,0,0,0,0,0,-1,1126,456,1.47133,14.329
-91,568,1.11621,-11.1853,0,0,0,0,0,0,0,-1,1133,456,1.11626,11.1853
-84,568,0.461792,-9.7959,0,0,0,0,0,0,0,-1,1140,456,0.461793,9.7959
-77,568,-1.13806,-8.57822,0,0,0,0,0,0,0,-1,1147,456,-1.13807,8.57821
-70,568,-4.09766,-1.42911,0,0,0,0,0,0,0,-1,1154,456,-4.09767,1.4291
-63,568,-5.92273,-3.70752,0,0,0,0,0,0,0,-1,1161,456,-5.92272,3.70751
-56,568,-5.24158,-6.01385,0,0,0,0,0,0,0,-1,1168,456,-5.24161,6.01386
-49,568,-5.24365,-8.33557,0,0,0,0,0,0,0,-1,1175,456,-5.24371,8.33557
-42,568,-0.664795,0.521973,0,0,0,0,0,0,0,-1,1182,456,-0.664829,-0.521984
-35,568,-0.153076,-1.67731,0,0,0,0,0,0,0,-1,1189,456,-0.153068,1.67731
-28,568,1.25439,-4.48798,0,0,0,0,0,0,0,-1,1196,456,1.2544,4.48797
-21,568,-0.942017,-16.6924,0,0,0,0,0,0,0,-1,1203,456,-0.941978,16.6924
-14,568,0.199341,-16.9799,0,0,0,0,0,0,0,-1,1210,456,0.199383,16.9799
-7,568,0.959839,-17.4217,0,0,0,0,0,0,0,-1,1217,456,0.959838,17.4217
0,568,1.66211,-17.7016,0,0,0,0,0,0,0,-1,1224,456,1.66212,17.7016
7,568,1.89734,-15.6878,0,0,0,0,0,0,0,-1,1231,456,1.89737,15.6878
14,568,1.76013,-15.5305,-0.00822588,0.00847702,0.0141175,0.0165283,-0.0162771,1.0525,0.0189404,0.0444249,1238,456,1.76007,15.5305
21,568,1.59766,-15.4021,-0.000950655,0.00292724,0.0143532,0.0154719,-0.0134953,0.852536,0.0167372,0.0429236,1245,456,1.59766,15.4021
28,568,1.62683,-15.2813,0.0122266,-0.00155938,0.012994,0.0200428,-0.0093755,0.541533,0.0173528,0.0426556,1252,456,1.62685,15.2813
35,568,1.84229,-15.2569,0.0260155,-0.00296134,0.0102135,0.0292536,-0.00619943,0.307017,0.0218638,0.0423452,1259,456,1.84226,15.2569
42,568,2.01978,-15.0663,0.0383122,-0.000972884,0.00492347,0.0389199,-0.00158053,0.122797,0.0264891,0.0429205,1266,456,2.0198,15.0663
49,568,1.99353,-15.1493,0.0484721,0.00496345,-0.00180117,0.0485465,0.00488902,-0.0413038,0.030864,0.0441627,1273,456,1.99355,15.1492
56,568,1.47192,-15.0168,0.0561546,0.0137683,-0.00856019,0.0578181,0.0121048,-0.191937,0.035211,0.0412058,1280,456,1.47188,15.0169
63,568,0.867676,-14.6288,0.0586815,0.0256196,-0.0160958,0.0652232,0.0190779,-0.386031,0.0387224,0.0419822,1287,456,0.867715,14.6288
70,568,0.322754,-13.9593,0.0593151,0.0379479,-0.0235606,0.0745012,0.0227618,-0.572538,0.0440845,0.0457208,1294,456,0.322709,13.9593
77,568,5.04614,-18.2313,0.0625203,0.0542396,-0.0293255,0.0879963,0.0287637,-0.715269,0.0518099,0.046149,1301,456,5.0461,18.2313
84,568,5.1344,-18.4084,0.0651201,0.0732496,-0.034078,0.103504,0.0348653,-0.844757,0.0608095,0.0443618,1308,456,5.13442,18.4084
91,568,4.22302,-18.5789,0.0685558,0.0903585,-0.035544,0.116635,0.042279,-0.934195,0.068183,0.041633,1315,456,4.223,18.579
98,568,4.6875,-18.6771,0.0729074,0.107697,-0.0357155,0.130029,0.050576,-1.01201,0.0756866,0.0456594,1322,456,4.68747,18.6771
105,568,4.08838,-18.6755,0,0,0,0,0,0,0,-1,1329,456,4.08844,18.6755
112,568,3.71216,-18.804,0.0880732,0.135215,-0.0311585,0.150714,0.0725744,-1.10922,0.0870345,0.0446993,1336,456,3.71217,18.8039
119,568,3.26819,-18.612,0.0950243,0.138218,-0.0249534,0.149622,0.0836197,-1.1421,0.0865838,0.0449313,1343,456,3.26818,18.612
126,568,2.83386,-18.2746,0,0,0,0,0,0,0,-1,1350,456,2.83385,18.2746
133,568,2.46741,-18.1872,0,0,0,0,0,0,0,-1,1357,456,2.46746,18.1872
140,568,6.69946,-16.4707,0,0,0,0,0,0,0,-1,1364,456,6.69944,16.4707
147,568,7.73877,-16.2545,0,0,0,0,0,0,0,-1,1371,456,7.73879,16.2545
154,568,9.26404,-15.6135,0,0,0,0,0,0,0,-1,1378,456,9.26399,15.6135
161,568,10.1455,-15.5122,0,0,0,0,0,0,0,-1,1385,456,10.1455,15.5122
168,568,-0.458252,-13.0519,0,0,0,0,0,0,0,-1,1392,456,-0.458298,13.0519
175,568,10.5151,0.747498,0,0,0,0,0,0,0,-1,1399,456,10.5152,-0.747501
182,568,6.35095,-3.63361,0,0,0,0,0,0,0,-1,1406,456,6.35093,3.63359
189,568,6.17493,-1.70911,0,0,0,0,0,0,0,-1,1413,456,6.17497,1.70911
196,568,6.04724,0.200836,0,0,0,0,0,0,0,-1,1420,456,6.04724,-0.200835
203,568,5.9281,2.08649,0,0,0,0,0,0,0,-1,1427,456,5.92812,-2.08648
210,568,1.46216,-2.50446,0,0,0,0,0,0,0,-1,1434,456,1.46219,2.50446
217,568,2.62366,-7.86703,0,0,0,0,0,0,0,-1,1441,456,2.62365,7.86704
224,568,3.43494,-12.1555,0,0,0,0,0,0,0,-1,1448,456,3.43492,12.1555
231,568,4.38245,-9.3205,0,0,0,0,0,0,0,-1,1455,456,4.38244,9.32048
238,568,3.88123,-9.43616,0,0,0,0,0,0,0,-1,1462,456,3.88117,9.43617
245,568,3.34387,-10.6774,0,0,0,0,0,0,0,-1,1469,456,3.34389,10.6774
252,568,3.56946,-9.28928,0,0,0,0,0,0,0,-1,1476,456,3.56948,9.28928
259,568,3.38843,-8.73068,0,0,0,0,0,0,0,-1,1483,456,3.38842,8.73068
266,568,3.104,-9.16876,0,0,0,0,0,0,0,-1,1490,456,3.10397,9.16876
273,568,3.77869,-13.1147,0,0,0,0,0,0,0,-1,1497,456,3.77869,13.1147
280,568,3.8772,-13.0893,0,0,0,0,0,0,0,-1,1504,456,3.87714,13.0893
287,568,4.08008,-12.7434,0.00212199,0.00039971,-0.0021675,0.00359315,-0.00107145,-0.596312,0.00282124,0.0461721,1511,456,4.08004,12.7434
294,568,4.14331,-12.5905,0.00182251,-0.00023742,-0.00223037,0.00324924,-0.00166416,-0.56909,0.00288554,0.0276571,1518,456,4.14332,12.5905
301,568,4.12366,-12.4112,0.00137619,-0.000971716,-0.00234813,0.00282748,-0.002423,-0.553594,0.00303436,0.01935,1525,456,4.12369,12.4112
308,568,4.12292,-12.2311,0.000849603,-0.0014846,-0.00248807,0.00243071,-0.00306571,-0.566095,0.00318041,0.0119175,1532,456,4.12289,12.2311
315,568,4.12134,-12.0466,0.000435349,-0.00164435,-0.00249733,0.00210067,-0.00330967,-0.588123,0.00314955,0.00807819,1539,456,4.12128,12.0466
322,568,4.13635,-11.8688,7.25489e-05,-0.00158127,-0.00237671,0.00176209,-0.00327081,-0.617987,0.00294895,0.00990712,1546,456,4.13633,11.8688
329,568,4.15955,-11.6706,-0.000147351,-0.00133157,-0.00210305,0.00144536,-0.00292428,-0.648176,0.00257053,0.0106359,1553,456,4.15959,11.6706
336,568,4.16455,-11.4501,-0.000320246,-0.0011224,-0.00173809,0.00106244,-0.00250509,-0.672005,0.0021151,0.0112027,1560,456,4.16457,11.4501
343,568,4.17273,-11.2418,-0.000501859,-0.000909721,-0.00139413,0.000703174,-0.00211475,-0.712774,0.00169361,0.0104786,1567,456,4.17271,11.2418
350,568,4.1571,-11.0583,-0.000564794,-0.000697843,-0.00100383,0.000374713,-0.00163735,-0.752311,0.00123556,0.0101326,1574,456,4.15715,11.0583
357,568,4.15967,-10.8366,-0.000607625,-0.000455111,-0.000641565,0.000114713,-0.00117745,-0.844551,0.000825863,0.00972398,1581,456,4.15968,10.8366
364,568,4.17041,-10.6166,-0.000648624,-0.000160139,-0.000255144,-5.11778e-05,-0.000757584,-1.16718,0.000488891,0.0116795,1588,456,4.17037,10.6166
371,568,4.17957,-10.3845,-0.000672886,6.376e-05,0.000103354,7.79863e-05,-0.000687113,1.43401,0.00048616,0.0212668,1595,456,4.17963,10.3845
378,568,4.16248,-10.1719,-0.00070998,0.000385506,0.000397291,0.000514419,-0.000838893,1.25704,0.000788785,0.0194732,1602,456,4.16244,10.172
385,568,4.12598,-9.95169,-0.000731268,0.000605268,0.000521558,0.000784706,-0.000910706,1.23944,0.000979747,0.00940855,1609,456,4.12597,9.95168
392,568,4.11621,-9.71198,-0.000485746,0.000733041,0.000621881,0.000994335,-0.00074704,1.17303,0.00100876,0.00995738,1616,456,4.11626,9.71199
399,568,4.11316,-9.49597,5.1901e-05,0.000839468,0.00084013,0.00137352,-0.000482154,1.00455,0.00111181,0.0159064,1623,456,4.11314,9.49598
406,568,4.14294,-9.24896,0.000776145,0.000758321,0.00133231,0.00209958,-0.00056511,0.782054,0.00162126,0.0146029,1630,456,4.1429,9.24896
413,568,4.13757,-8.99295,0.00136311,0.000714617,0.00166901,0.00273908,-0.000661358,0.689457,0.00208182,0.011794,1637,456,4.13762,8.99294
420,568,4.11462,-8.74908,0.00222741,0.000534653,0.00216511,0.00370569,-0.000943631,0.599072,0.00283779,0.0100567,1644,456,4.1146,8.74909
427,568,4.09045,-8.49036,0.00332336,0.000334048,0.00289626,0.0050879,-0.00143049,0.54719,0.00395594,0.0123749,1651,456,4.09043,8.49036
434,568,4.09094,-8.25519,0.00475912,-4.67264e-05,0.00371794,0.00678306,-0.00207067,0.498512,0.0053476,0.0159657,1658,456,4.09094,8.2552
441,568,4.09558,-8.05844,0.0063624,-0.000497916,0.00489143,0.00890653,-0.00304204,0.479613,0.00717013,0.0237508,1665,456,4.09555,8.05844
448,568,4.4939,-7.78946,0.00760323,-0.00116807,0.00595832,0.0106159,-0.00418076,0.46814,0.00880806,0.0394692,1672,456,4.49389,7.78945
455,568,4.85034,-7.62375,0.00872631,-0.00188899,0.00725265,0.012406,-0.00556867,0.469516,0.010625,0.0479181,1679,456,4.85039,7.62374
462,568,4.07312,-7.02267,0,0,0,0,0,0,0,-1,1686,456,4.07317,7.02269
469,568,4.57178,-6.87817,0,0,0,0,0,0,0,-1,1693,456,4.57181,6.87819
476,568,3.89783,-6.62686,0,0,0,0,0,0,0,-1,1700,456,3.8978,6.62686
483,568,3.87646,-5.84851,0,0,0,0,0,0,0,-1,1707,456,3.87651,5.84852
490,568,4.8728,-4.79684,0,0,0,0,0,0,0,-1,1714,456,4.87274,4.79683
497,568,6.58289,-3.47745,0,0,0,0,0,0,0,-1,1721,456,6.58294,3.47744
504,568,0,0,0,0,0,0,0,0,0,-1,1728,456,0,0
511,568,0,0,0,0,0,0,0,0,0,-1,1735,456,0,0
518,568,0,0,0,0,0,0,0,0,0,-1,1742,456,0,0
525,568,0,0,0,0,0,0,0,0,0,-1,1749,456,0,0
532,568,0,0,0,0,0,0,0,0,0,-1,1756,456,0,0
539,568,0,0,0,0,0,0,0,0,0,-1,1763,456,0,0
546,568,0,0,0,0,0,0,0,0,0,-1,1770,456,0,0
553,568,0,0,0,0,0,0,0,0,0,-1,1777,456,0,0
560,568,0,0,0,0,0,0,0,0,0,-1,1784,456,0,0
567,568,0,0,0,0,0,0,0,0,0,-1,1791,456,0,0
574,568,0,0,0,0,0,0,0,0,0,-1,1798,456,0,0
581,568,0,0,0,0,0,0,0,0,0,-1,1805,456,0,0
588,568,0,0,0,0,0,0,0,0,0,-1,1812,456,0,0
595,568,0,0,0,0,0,0,0,0,0,-1,1819,456,0,0
602,568,0,0,0,0,0,0,0,0,0,-1,1826,456,0,0
609,568,0,0,0,0,0,0,0,0,0,-1,1833,456,0,0
616,568,0,0,0,0,0,0,0,0,0,-1,1840,456,0,0
623,568,0,0,0,0,0,0,0,0,0,-1,1847,456,0,0
630,568,0,0,0,0,0,0,0,0,0,-1,1854,456,0,0
637,568,0,0,0,0,0,0,0,0,0,-1,1861,456,0,0
644,568,0,0,0,0,0,0,0,0,0,-1,1868,456,0,0
651,568,0,0,0,0,0,0,0,0,0,-1,1875,456,0,0
658,568,0,0,0,0,0,0,0,0,0,-1,1882,456,0,0
665,568,0,0,0,0,0,0,0,0,0,-1,1889,456,0,0
672,568,0,0,0,0,0,0,0,0,0,-1,1896,456,0,0
679,568,0,0,0,0,0,0,0,0,0,-1,1903,456,0,0
686,568,0,0,0,0,0,0,0,0,0,-1,1910,456,0,0
693,568,0,0,0,0,0,0,0,0,0,-1,1917,456,0,0
700,568,0,0,0,0,0,0,0,0,0,-1,1924,456,0,0
707,568,0,0,0,0,0,0,0,0,0,-1,1931,456,0,0
714,568,0,0,0,0,0,0,0,0,0,-1,1938,456,0,0
721,568,0,0,0,0,0,0,0,0,0,-1,1945,456,0,0
728,568,0,0,0,0,0,0,0,0,0,-1,1952,456,0,0
735,568,0,0,0,0,0,0,0,0,0,-1,1959,456,0,0
742,568,0,0,0,0,0,0,0,0,0,-1,1966,456,0,0
749,568,0,0,0,0,0,0,0,0,0,-1,1973,456,0,0
756,568,0,0,0,0,0,0,0,0,0,-1,1980,456,0,0
763,568,0,0,0,0,0,0,0,0,0,-1,1987,456,0,0
770,568,0,0,0,0,0,0,0,0,0,-1,1994,456,0,0
777,568,0,0,0,0,0,0,0,0,0,-1,2001,456,0,0
784,568,0,0,0,0,0,0,0,0,0,-1,2008,456,0,0
791,568,0,0,0,0,0,0,0,0,0,-1,2015,456,0,0
798,568,0,0,0,0,0,0,0,0,0,-1,2022,456,0,0
805,568,0,0,0,0,0,0,0,0,0,-1,2029,456,0,0
812,568,0,0,0,0,0,0,0,0,0,-1,2036,456,0,0
-700,561,0,0,0,0,0,0,0,0,0,-1,524,463,0,0
-693,561,0,0,0,0,0,0,0,0,0,-1,531,463,0,0
-686,561,0,0,0,0,0,0,0,0,0,-1,538,463,0,0
-679,561,0,0,0,0,0,0,0,0,0,-1,545,463,0,0
-672,561,0,0,0,0,0,0,0,0,0,-1,552,463,0,0
-665,561,0,0,0,0,0,0,0,0,0,-1,559,463,0,0
-658,561,0,0,0,0,0,0,0,0,0,-1,566,463,0,0
-651,561,0,0,0,0,0,0,0,0,0,-1,573,463,0,0
-644,561,0,0,0,0,0,0,0,0,0,-1,580,463,0,0
-637,561,0,0,0,0,0,0,0,0,0,-1,587,463,0,0
-630,561,0,0,0,0,0,0,0,0,0,-1,594,463,0,0
-623,561,0,0,0,0,0,0,0,0,0,-1,601,463,0,0
-616,561,0,0,0,0,0,0,0,0,0,-1,608,463,0,0
-609,561,0,0,0,0,0,0,0,0,0,-1,615,463,0,0
-602,561,0,0,0,0,0,0,0,0,0,-1,622,463,0,0
-595,561,0,0,0,0,0,0,0,0,0,-1,629,463,0,0
-588,561,0,0,0,0,0,0,0,0,0,-1,636,463,0,0
-581,561,0,0,0,0,0,0,0,0,0,-1,643,463,0,0
-574,561,0,0,0,0,0,0,0,0,0,-1,650,463,0,0
-567,561,0,0,0,0,0,0,0,0,0,-1,657,463,0,0
-560,561,0,0,0,0,0,0,0,0,0,-1,664,463,0,0
-553,561,0,0,0,0,0,0,0,0,0,-1,671,463,0,0
-546,561,0,0,0,0,0,0,0,0,0,-1,678,463,0,0
-539,561,0,0,0,0,0,0,0,0,0,-1,685,463,0,0
-532,561,0,0,0,0,0,0,0,0,0,-1,692,463,0,0
-525,561,0,0,0,0,0,0,0,0,0,-1,699,463,0,0
-518,561,0,0,0,0,0,0,0,0,0,-1,706,463,0,0
-511,561,0,0,0,0,0,0,0,0,0,-1,713,463,0,0
-504,561,0,0,0,0,0,0,0,0,0,-1,720,463,0,0
-497,561,0,0,0,0,0,0,0,0,0,-1,727,463,0,0
-490,561,0,0,0,0,0,0,0,0,0,-1,734,463,0,0
-483,561,0,0,0,0,0,0,0,0,0,-1,741,463,0,0
-476,561,0,0,0,0,0,0,0,0,0,-1,748,463,0,0
-469,561,0,0,0,0,0,0,0,0,0,-1,755,463,0,0
-462,561,0,0,0,0,0,0,0,0,0,-1,762,463,0,0
-455,561,0,0,0,0,0,0,0,0,0,-1,769,463,0,0
-448,561,0,0,0,0,0,0,0,0,0,-1,776,463,0,0
-441,561,0,0,0,0,0,0,0,0,0,-1,783,463,0,0
-434,561,0,0,0,0,0,0,0,0,0,-1,790,463,0,0
-427,561,0,0,0,0,0,0,0,0,0,-1,797,463,0,0
-420,561,0,0,0,0,0,0,0,0,0,-1,804,463,0,0
-413,561,0,0,0,0,0,0,0,0,0,-1,811,463,0,0
-406,561,0,0,0,0,0,0,0,0,0,-1,818,463,0,0
-399,561,0,0,0,0,0,0,0,0,0,-1,825,463,0,0
-392,561,4.92407,-2.54578,0,0,0,0,0,0,0,-1,832,463,4.92408,2.54576
-385,561,5.55634,-1.02338,0,0,0,0,0,0,0,-1,839,463,5.55634,1.02338
-378,561,0.495178,-7.37878,0,0,0,0,0,0,0,-1,846,463,0.495164,7.37879
-371,561,1.06299,-7.56818,0,0,0,0,0,0,0,-1,853,463,1.06297,7.56817
-364,561,1.45264,-7.57684,0,0,0,0,0,0,0,-1,860,463,1.45264,7.57684
-357,561,1.11652,-7.33923,0,0,0,0,0,0,0,-1,867,463,1.11652,7.33924
-350,561,1.13989,-7.4505,0,0,0,0,0,0,0,-1,874,463,1.13989,7.4505
-343,561,1.33691,-8.58414,0,0,0,0,0,0,0,-1,881,463,1.33693,8.58413
-336,561,1.05304,-9.05267,0.00232157,-0.0136576,0.00387948,0.00321364,-0.0145496,0.226018,0.0109296,0.0476438,888,463,1.05307,9.05268
-329,561,1.0752,-9.01086,0.00245686,-0.0106186,0.00297278,0.003101,-0.0112628,0.213382,0.00872779,0.035213,895,463,1.07518,9.01086
-322,561,1.15851,-9.09442,0.00238676,-0.00798075,0.00202453,0.00276808,-0.00836207,0.186168,0.00669106,0.0280803,902,463,1.1585,9.09441
-315,561,1.28052,-9.20694,0.00219086,-0.00567135,0.00109477,0.00234046,-0.00582095,0.135804,0.00485272,0.0190824,909,463,1.28052,9.20693
-308,561,1.25146,-9.48212,0.00202459,-0.00369154,0.000272452,0.00203754,-0.0037045,0.0475201,0.00336141,0.0144227,916,463,1.25145,9.4821
-301,561,1.21716,-9.75275,0.0018214,-0.00217111,-0.000396228,0.00186034,-0.00221005,-0.0979696,0.00235293,0.0111629,923,463,1.21716,9.75276
-294,561,1.17719,-9.96036,0.00173242,-0.00102441,-0.000977424,0.00204379,-0.00133578,-0.308402,0.00196542,0.0100933,930,463,1.17719,9.96036
-287,561,1.16516,-10.196,0.00164351,-0.000216642,-0.0013664,0.00236634,-0.000939467,-0.486578,0.00196698,0.00940745,937,463,1.16519,10.196
-280,561,1.16522,-10.4157,0.00155932,0.000367243,-0.00152725,0.00260273,-0.000676158,-0.599353,0.00199903,0.0117421,944,463,1.16523,10.4157
-273,561,1.15057,-10.6295,0.00149736,0.000438844,-0.00155742,0.00261299,-0.000676786,-0.621605,0.00200601,0.0140265,951,463,1.15058,10.6295
-266,561,1.14734,-10.8464,0.0015067,0.000327244,-0.00178493,0.0027968,-0.000962854,-0.625847,0.00225508,0.00944729,958,463,1.14732,10.8464
-259,561,1.13519,-11.0504,0.00153661,1.53184e-05,-0.0016279,0.00257281,-0.00102088,-0.566843,0.00213833,0.0100462,965,463,1.13518,11.0504
-252,561,1.12549,-11.2456,0.00157572,-0.000479813,-0.00142573,0.00230551,-0.0012096,-0.473099,0.00206207,0.0141014,972,463,1.12551,11.2456
-245,561,1.13733,-11.4517,0.00159259,-0.00104403,-0.00110346,0.00199346,-0.0014449,-0.348456,0.00199354,0.0163775,979,463,1.1373,11.4517
-238,561,1.15125,-11.6634,0.00142955,-0.00195851,-0.000518043,0.00150699,-0.00203595,-0.148387,0.00205311,0.012564,986,463,1.15124,11.6634
-231,561,1.13556,-11.8521,0.00111512,-0.00266894,-1.78294e-06,0.00111512,-0.00266894,-0.000471171,0.00224529,0.0102519,993,463,1.13555,11.8521
-224,561,1.13232,-12.0422,0.000802729,-0.00329988,0.000556579,0.000876897,-0.00337405,0.132475,0.0025916,0.0105222,1000,463,1.13233,12.0422
-217,561,1.16382,-12.2165,0.000442902,-0.00391053,0.00114129,0.000723957,-0.00419159,0.241456,0.00306435,0.0105529,1007,463,1.16381,12.2165
-210,561,1.18872,-12.3958,-5.28624e-06,-0.00443739,0.001711,0.000578376,-0.00502105,0.328746,0.00355588,0.0113835,1014,463,1.18871,12.3958
-203,561,1.20142,-12.5826,-0.000270161,-0.00392105,0.00267853,0.00114581,-0.00533701,0.486294,0.0039951,0.0135298,1021,463,1.20139,12.5826
-196,561,1.19861,-12.745,-0.000448614,-0.00268469,0.00415496,0.00273611,-0.00586941,0.653969,0.00507699,0.014444,1028,463,1.19866,12.745
-189,561,1.19214,-12.8848,-0.000611366,-0.00152277,0.00557098,0.00452251,-0.00665665,0.744589,0.00649338,0.0166194,1035,463,1.19215,12.8848
-182,561,1.19849,-13.0741,-0.000588613,3.87196e-05,0.00746153,0.00719317,-0.00774307,0.806405,0.00862539,0.0189844,1042,463,1.19843,13.0741
-175,561,1.20667,-13.2589,-0.00046836,0.0021731,0.0094999,0.0104436,-0.0087389,0.854468,0.0110896,0.0287198,1049,463,1.20665,13.2589
-168,561,1.31934,-13.4219,-0.000112351,0.0042574,0.0117264,0.0140007,-0.00985568,0.877503,0.0138426,0.040865,1056,463,1.31939,13.4219
-161,561,1.29846,-13.6155,0.000293717,0.00628206,0.0139486,0.0175542,-0.0109785,0.891123,0.0166185,0.0426425,1063,463,1.29845,13.6155
-154,561,1.26917,-13.7996,0.000533072,0.00845507,0.0157436,0.0207283,-0.0117401,0.908638,0.0189836,0.0445557,1070,463,1.26911,13.7996
-147,561,1.23218,-13.869,0,0,0,0,0,0,0,-1,1077,463,1.23221,13.869
-140,561,0.698853,-13.6043,0,0,0,0,0,0,0,-1,1084,463,0.69891,13.6043
-133,561,1.0116,-13.4199,0,0,0,0,0,0,0,-1,1091,463,1.01165,13.4199
-126,561,1.19836,-12.106,0,0,0,0,0,0,0,-1,1098,463,1.19839,12.106
-119,561,1.06567,-12.5626,0,0,0,0,0,0,0,-1,1105,463,1.06562,12.5626
-112,561,0.836548,-13.0954,0,0,0,0,0,0,0,-1,1112,463,0.836578,13.0954
-105,561,0.530518,-13.5379,0,0,0,0,0,0,0,-1,1119,463,0.530477,13.5379
-98,561,1.5387,-7.54352,0,0,0,0,0,0,0,-1,1126,463,1.53871,7.54351
-91,561,1.29553,-6.57968,0,0,0,0,0,0,0,-1,1133,463,1.29549,6.5797
-84,561,1.23364,-5.84555,0,0,0,0,0,0,0,-1,1140,463,1.23363,5.84556
-77,561,-2.36023,1.00204,0,0,0,0,0,0,0,-1,1147,463,-2.3602,-1.00205
-70,561,-3.90015,-1.41541,0,0,0,0,0,0,0,-1,1154,463,-3.90009,1.4154
-63,561,-6.95691,-4.02756,0,0,0,0,0,0,0,-1,1161,463,-6.95696,4.02756
-56,561,-5.37988,-6.66855,0,0,0,0,0,0,0,-1,1168,463,-5.37988,6.66854
-49,561,-5.7439,-9.11029,0,0,0,0,0,0,0,-1,1175,463,-5.74387,9.1103
-42,561,-1.72644,-5.63065,0,0,0,0,0,0,0,-1,1182,463,-1.72648,5.63064
-35,561,-1.65674,-4.87994,0,0,0,0,0,0,0,-1,1189,463,-1.6567,4.87993
-28,561,-1.91418,-3.86896,0,0,0,0,0,0,0,-1,1196,463,-1.91414,3.86895
-21,561,3.53357,-13.3235,0,0,0,0,0,0,0,-1,1203,463,3.53354,13.3235
-14,561,0.440674,-17.8518,0,0,0,0,0,0,0,-1,1210,463,0.440654,17.8518
-7,561,0.945557,-18.2194,0,0,0,0,0,0,0,-1,1217,463,0.94556,18.2194
0,561,1.54285,-18.0879,0,0,0,0,0,0,0,-1,1224,463,1.5429,18.0879
7,561,1.73987,-15.3269,0,0,0,0,0,0,0,-1,1231,463,1.73983,15.3269
14,561,1.52783,-15.4469,-0.0157428,0.0138009,0.0178569,0.022204,-0.0241459,1.13096,0.0267679,0.0423214,1238,463,1.52779,15.4469
21,561,1.27112,-15.5194,-0.00812627,0.00548164,0.0181521,0.018063,-0.0207077,0.964709,0.0224016,0.0441792,1245,463,1.2711,15.5194
28,561,1.50818,-15.2836,0.00834355,-0.00211002,0.0169604,0.0208643,-0.0146308,0.635928,0.0205982,0.0457849,1252,463,1.50813,15.2836
35,561,1.77319,-15.1467,0.0263804,-0.00627886,0.0141608,0.0316653,-0.0115637,0.357193,0.0258421,0.043228,1259,463,1.77322,15.1467
42,561,2.23022,-14.8843,0.0418484,-0.00610261,0.00827372,0.0432359,-0.00749006,0.166147,0.0316177,0.0455979,1266,463,2.23028,14.8843
49,561,2.38269,-14.567,0.0538994,-0.000722555,0.000507314,0.0539041,-0.00072727,0.00928666,0.036181,0.0478702,1273,463,2.38263,14.567
56,561,2.54785,-14.2733,0.063227,0.00782039,-0.00739742,0.0641977,0.00684975,-0.130467,0.0407078,0.0467652,1280,463,2.5478,14.2733
63,561,2.69812,-13.9299,0,0,0,0,0,0,0,-1,1287,463,2.69808,13.9299
70,561,-1.00232,-15.1971,0,0,0,0,0,0,0,-1,1294,463,-1.00235,15.1971
77,561,2.34082,-12.7972,0,0,0,0,0,0,0,-1,1301,463,2.34078,12.7972
84,561,6.27698,-19.2373,0,0,0,0,0,0,0,-1,1308,463,6.27693,19.2373
91,561,5.7804,-18.9008,0.0913737,0.0967737,-0.0366106,0.130784,0.0573637,-0.822206,0.0756974,0.0410722,1315,463,5.7804,18.9008
98,561,5.64355,-19.7083,0.10064,0.119019,-0.0369128,0.147869,0.0717903,-0.907395,0.0853843,0.0462661,1322,463,5.64353,19.7083
105,561,5.50684,-20.4878,0,0,0,0,0,0,0,-1,1329,463,5.50686,20.4878
112,561,4.57739,-19.7075,0,0,0,0,0,0,0,-1,1336,463,4.57734,19.7075
119,561,4.16675,-19.6253,0,0,0,0,0,0,0,-1,1343,463,4.16673,19.6253
126,561,3.72607,-19.4117,0,0,0,0,0,0,0,-1,1350,463,3.72608,19.4117
133,561,5.58484,-17.6667,0,0,0,0,0,0,0,-1,1357,463,5.58488,17.6667
140,561,6.81262,-17.4316,0.176963,0.168647,-0.00857341,0.182333,0.163276,-0.559618,0.115727,0.0475196,1364,463,6.81262,17.4316
147,561,8.09924,-17.2148,0.193599,0.167166,-0.00448521,0.194339,0.166426,-0.163586,0.12133,0.0446188,1371,463,8.09921,17.2148
154,561,8.83252,-16.7587,0.204864,0.165443,-0.00315092,0.205114,0.165193,-0.0792606,0.125569,0.0464583,1378,463,8.83253,16.7587
161,561,9.73315,-16.5651,0,0,0,0,0,0,0,-1,1385,463,9.73311,16.5651
168,561,-1.68591,-18.2095,0,0,0,0,0,0,0,-1,1392,463,-1.68589,18.2095
175,561,10.4185,0.276398,0,0,0,0,0,0,0,-1,1399,463,10.4185,-0.276394
182,561,6.45703,-4.02127,0,0,0,0,0,0,0,-1,1406,463,6.45704,4.02127
189,561,6.50854,-2.08685,0,0,0,0,0,0,0,-1,1413,463,6.50851,2.08686
196,561,6.44775,-0.27182,0,0,0,0,0,0,0,-1,1420,463,6.44773,0.271814
203,561,6.18591,1.1301,0,0,0,0,0,0,0,-1,1427,463,6.18592,-1.13009
210,561,5.68713,2.68427,0,0,0,0,0,0,0,-1,1434,463,5.6871,-2.68425
217,561,3.61743,-7.33582,0,0,0,0,0,0,0,-1,1441,463,3.61738,7.33581
224,561,4.27466,-8.59171,0,0,0,0,0,0,0,-1,1448,463,4.27466,8.59171
231,561,4.93188,-9.8476,0,0,0,0,0,0,0,-1,1455,463,4.93193,9.84761
238,561,2.18018,-5.18359,0,0,0,0,0,0,0,-1,1462,463,2.18023,5.18359
245,561,3.07568,-3.50238,0,0,0,0,0,0,0,-1,1469,463,3.0757,3.50238
252,561,3.47412,-3.71109,0,0,0,0,0,0,0,-1,1476,463,3.47413,3.71109
259,561,3.42212,-3.2334,0,0,0,0,0,0,0,-1,1483,463,3.42214,3.2334
266,561,4.44373,-5.90027,0,0,0,0,0,0,0,-1,1490,463,4.44372,5.90026
273,561,2.59485,-3.65268,0,0,0,0,0,0,0,-1,1497,463,2.5948,3.65268
280,561,3.10767,-6.38235,0,0,0,0,0,0,0,-1,1504,463,3.10766,6.38235
287,561,4.35144,-12.6416,0,0,0,0,0,0,0,-1,1511,463,4.35149,12.6416
294,561,4.31018,-12.5613,0,0,0,0,0,0,0,-1,1518,463,4.31024,12.5613
301,561,4.27942,-12.3927,0.0013259,-0.00192074,-0.00341919,0.00348756,-0.0040824,-0.563769,0.00437501,0.0379023,1525,463,4.27945,12.3927
308,561,4.30737,-12.189,0.000605191,-0.00255131,-0.00366903,0.00302102,-0.00496714,-0.582284,0.00465736,0.0329531,1532,463,4.30742,12.189
315,561,4.33765,-12.0866,5.62219e-05,-0.0027046,-0.00371792,0.00264172,-0.0052901,-0.607643,0.00466375,0.0235881,1539,463,4.33765,12.0866
322,561,4.3606,-11.9339,-0.000370036,-0.0025843,-0.00358603,0.00227588,-0.00523021,-0.635673,0.00444413,0.0246277,1546,463,4.36056,11.9339
329,561,4.349,-11.6753,-0.000552419,-0.0022311,-0.00325247,0.00196727,-0.00475078,-0.659122,0.0039881,0.0157139,1553,463,4.34899,11.6753
336,561,4.37744,-11.4518,-0.000710655,-0.00213063,-0.00272986,0.00140003,-0.00424132,-0.658176,0.00339194,0.0115015,1560,463,4.37746,11.4518
343,561,4.36682,-11.2617,-0.000912194,-0.00208806,-0.00234169,0.000914243,-0.0039145,-0.662404,0.00296183,0.00974913,1567,463,4.36681,11.2617
350,561,4.35266,-11.0491,-0.000958546,-0.0020566,-0.00194339,0.000511886,-0.00352703,-0.647731,0.00253924,0.0097176,1574,463,4.35269,11.0491
357,561,4.35974,-10.8165,-0.0009843,-0.00193215,-0.00158661,0.000197651,-0.0031141,-0.640265,0.00214499,0.0102404,1581,463,4.35977,10.8165
364,561,4.36914,-10.6218,-0.000974249,-0.00168003,-0.00115019,-0.000124035,-0.00253025,-0.636551,0.00164704,0.00915377,1588,463,4.36912,10.6218
371,561,4.36914,-10.3946,-0.000917252,-0.00146319,-0.000733353,-0.000407715,-0.00197273,-0.607231,0.00120251,0.014842,1595,463,4.36916,10.3946
378,561,4.36768,-10.1706,-0.000847806,-0.00106293,-0.00036749,-0.000572461,-0.00133828,-0.643025,0.000775339,0.0111679,1602,463,4.36765,10.1706
385,561,4.36206,-9.93744,-0.000790606,-0.00073168,-0.000160841,-0.000597626,-0.00092466,-0.875984,0.000541419,0.00996887,1609,463,4.36202,9.93744
392,561,4.37317,-9.68259,-0.000533863,-0.000455351,4.61489e-05,-0.00043402,-0.000555193,1.13783,0.000337078,0.013912,1616,463,4.37314,9.68259
399,561,4.37512,-9.44504,-3.91957e-05,-0.000161353,0.000317477,0.000223025,-0.000423573,0.690366,0.000379252,0.0200866,1623,463,4.37506,9.44503
406,561,4.38281,-9.22565,0.000584378,4.45361e-06,0.000805829,0.00115083,-0.000561994,0.612695,0.00100819,0.017703,1630,463,4.38276,9.22565
413,561,4.3855,-8.97452,0.00110436,0.000239455,0.00119709,0.00194471,-0.0006009,0.612066,0.00153645,0.0161369,1637,463,4.38549,8.97451
420,561,4.34265,-8.74475,0.00181292,0.000304529,0.00169578,0.00291466,-0.000797202,0.576158,0.00225628,0.0132678,1644,463,4.34269,8.74474
427,561,4.3335,-8.48965,0.00267501,0.000332622,0.00237538,0.00415224,-0.0011446,0.55636,0.00321827,0.010302,1651,463,4.33351,8.48964
434,561,4.3468,-8.24106,0.00373729,0.000150217,0.00310177,0.00552673,-0.00163922,0.523269,0.00433545,0.0113363,1658,463,4.34679,8.24104
441,561,4.36694,-8.00208,0.0048684,-0.000197585,0.00405972,0.00712053,-0.00244972,0.506483,0.00574055,0.0138038,1665,463,4.36688,8.00208
448,561,4.41455,-7.79407,0.00573935,-0.000739863,0.00495149,0.00841686,-0.00341738,0.495713,0.0070328,0.0182019,1672,463,4.4146,7.79407
455,561,4.59558,-7.52567,0.00644585,-0.00138765,0.00587101,0.0095867,-0.0045285,0.491235,0.00832201,0.0337946,1679,463,4.59558,7.52565
462,561,4.30371,-7.13544,0.0069182,-0.00199183,0.00654848,0.0103834,-0.00545703,0.486703,0.00929173,0.0359841,1686,463,4.30372,7.13543
469,561,4.25452,-6.90512,0.00734714,-0.00268134,0.00686663,0.0108354,-0.00616964,0.470033,0.00994031,0.0243548,1693,463,4.25453,6.90513
476,561,4.20288,-6.46588,0.00750658,-0.0033943,0.00682487,0.0107903,-0.00667806,0.44845,0.0101781,0.0412243,1700,463,4.20287,6.46589
483,561,4.13025,-5.94357,0,0,0,0,0,0,0,-1,1707,463,4.13029,5.94356
490,561,6.13135,-2.58374,0,0,0,0,0,0,0,-1,1714,463,6.13139,2.58373
497,561,7.30652,-2.46649,0,0,0,0,0,0,0,-1,1721,463,7.30649,2.4665
504,561,6.45044,-2.35263,0,0,0,0,0,0,0,-1,1728,463,6.4504,2.35263
511,561,0,0,0,0,0,0,0,0,0,-1,1735,463,0,0
518,561,0,0,0,0,0,0,0,0,0,-1,1742,463,0,0
525,561,0,0,0,0,0,0,0,0,0,-1,1749,463,0,0
532,561,0,0,0,0,0,0,0,0,0,-1,1756,463,0,0
539,561,0,0,0,0,0,0,0,0,0,-1,1763,463,0,0
546,561,0,0,0,0,0,0,0,0,0,-1,1770,463,0,0
553,561,0,0,0,0,0,0,0,0,0,-1,1777,463,0,0
560,561,0,0,0,0,0,0,0,0,0,-1,1784,463,0,0
567,561,0,0,0,0,0,0,0,0,0,-1,1791,463,0,0
574,561,0,0,0,0,0,0,0,0,0,-1,1798,463,0,0
581,561,0,0,0,0,0,0,0,0,0,-1,1805,463,0,0
588,561,0,0,0,0,0,0,0,0,0,-1,1812,463,0,0
595,561,0,0,0,0,0,0,0,0,0,-1,1819,463,0,0
602,561,0,0,0,0,0,0,0,0,0,-1,1826,463,0,0
609,561,0,0,0,0,0,0,0,0,0,-1,1833,463,0,0
616,561,0,0,0,0,0,0,0,0,0,-1,1840,463,0,0
623,561,0,0,0,0,0,0,0,0,0,-1,1847,463,0,0
630,561,0,0,0,0,0,0,0,0,0,-1,1854,463,0,0
637,561,0,0,0,0,0,0,0,0,0,-1,1861,463,0,0
644,561,0,0,0,0,0,0,0,0,0,-1,1868,463,0,0
651,561,0,0,0,0,0,0,0,0,0,-1,1875,463,0,0
658,561,0,0,0,0,0,0,0,0,0,-1,1882,463,0,0
665,561,0,0,0,0,0,0,0,0,0,-1,1889,463,0,0
672,561,0,0,0,0,0,0,0,0,0,-1,1896,463,0,0
679,561,0,0,0,0,0,0,0,0,0,-1,1903,463,0,0
686,561,0,0,0,0,0,0,0,0,0,-1,1910,463,0,0
693,561,0,0,0,0,0,0,0,0,0,-1,1917,463,0,0
700,561,0,0,0,0,0,0,0,0,0,-1,1924,463,0,0
707,561,0,0,0,0,0,0,0,0,0,-1,1931,463,0,0
714,561,0,0,0,0,0,0,0,0,0,-1,1938,463,0,0
721,561,0,0,0,0,0,0,0,0,0,-1,1945,463,0,0
728,561,0,0,0,0,0,0,0,0,0,-1,1952,463,0,0
735,561,0,0,0,0,0,0,0,0,0,-1,1959,463,0,0
742,561,0,0,0,0,0,0,0,0,0,-1,1966,463,0,0
749,561,0,0,0,0,0,0,0,0,0,-1,1973,463,0,0
756,561,0,0,0,0,0,0,0,0,0,-1,1980,463,0,0
763,561,0,0,0,0,0,0,0,0,0,-1,1987,463,0,0
770,561,0,0,0,0,0,0,0,0,0,-1,1994,463,0,0
777,561,0,0,0,0,0,0,0,0,0,-1,2001,463,0,0
784,561,0,0,0,0,0,0,0,0,0,-1,2008,463,0,0
791,561,0,0,0,0,0,0,0,0,0,-1,2015,463,0,0
798,561,0,0,0,0,0,0,0,0,0,-1,2022,463,0,0
805,561,0,0,0,0,0,0,0,0,0,-1,2029,463,0,0
812,561,0,0,0,0,0,0,0,0,0,-1,2036,463,0,0
-700,554,0,0,0,0,0,0,0,0,0,-1,524,470,0,0
-693,554,0,0,0,0,0,0,0,0,0,-1,531,470,0,0
-686,554,0,0,0,0,0,0,0,0,0,-1,538,470,0,0
-679,554,0,0,0,0,0,0,0,0,0,-1,545,470,0,0
-672,554,0,0,0,0,0,0,0,0,0,-1,552,470,0,0
-665,554,0,0,0,0,0,0,0,0,0,-1,559,470,0,0
-658,554,0,0,0,0,0,0,0,0,0,-1,566,470,0,0
-651,554,0,0,0,0,0,0,0,0,0,-1,573,470,0,0
-644,554,0,0,0,0,0,0,0,0,0,-1,580,470,0,0
-637,554,0,0,0,0,0,0,0,0,0,-1,587,470,0,0
-630,554,0,0,0,0,0,0,0,0,0,-1,594,470,0,0
-623,554,0,0,0,0,0,0,0,0,0,-1,601,470,0,0
-616,554,0,0,0,0,0,0,0,0,0,-1,608,470,0,0
-609,554,0,0,0,0,0,0,0,0,0,-1,615,470,0,0
-602,554,0,0,0,0,0,0,0,0,0,-1,622,470,0,0
-595,554,0,0,0,0,0,0,0,0,0,-1,629,470,0,0
-588,554,0,0,0,0,0,0,0,0,0,-1,636,470,0,0
-581,554,0,0,0,0,0,0,0,0,0,-1,643,470,0,0
-574,554,0,0,0,0,0,0,0,0,0,-1,650,470,0,0
-567,554,0,0,0,0,0,0,0,0,0,-1,657,470,0,0
-560,554,0,0,0,0,0,0,0,0,0,-1,664,470,0,0
-553,554,0,0,0,0,0,0,0,0,0,-1,671,470,0,0
-546,554,0,0,0,0,0,0,0,0,0,-1,678,470,0,0
-539,554,0,0,0,0,0,0,0,0,0,-1,685,470,0,0
-532,554,0,0,0,0,0,0,0,0,0,-1,692,470,0,0
-525,554,0,0,0,0,0,0,0,0,0,-1,699,470,0,0
-518,554,0,0,0,0,0,0,0,0,0,-1,706,470,0,0
-511,554,0,0,0,0,0,0,0,0,0,-1,713,470,0,0
-504,554,0,0,0,0,0,0,0,0,0,-1,720,470,0,0
-497,554,0,0,0,0,0,0,0,0,0,-1,727,470,0,0
-490,554,0,0,0,0,0,0,0,0,0,-1,734,470,0,0
-483,554,0,0,0,0,0,0,0,0,0,-1,741,470,0,0
-476,554,0,0,0,0,0,0,0,0,0,-1,748,470,0,0
-469,554,0,0,0,0,0,0,0,0,0,-1,755,470,0,0
-462,554,0,0,0,0,0,0,0,0,0,-1,762,470,0,0
-455,554,0,0,0,0,0,0,0,0,0,-1,769,470,0,0
-448,554,0,0,0,0,0,0,0,0,0,-1,776,470,0,0
-441,554,0,0,0,0,0,0,0,0,0,-1,783,470,0,0
-434,554,0,0,0,0,0,0,0,0,0,-1,790,470,0,0
-427,554,0,0,0,0,0,0,0,0,0,-1,797,470,0,0
-420,554,0,0,0,0,0,0,0,0,0,-1,804,470,0,0
-413,554,0,0,0,0,0,0,0,0,0,-1,811,470,0,0
-406,554,0,0,0,0,0,0,0,0,0,-1,818,470,0,0
-399,554,4.31549,-3.60254,0,0,0,0,0,0,0,-1,825,470,4.31548,3.60254
-392,554,3.92578,-3.02924,0,0,0,0,0,0,0,-1,832,470,3.92577,3.02924
-385,554,4.06689,-2.14221,0,0,0,0,0,0,0,-1,839,470,4.06687,2.14222
-378,554,5.68042,-0.171387,0,0,0,0,0,0,0,-1,846,470,5.68039,0.171378
-371,554,1.24487,-7.94312,0,0,0,0,0,0,0,-1,853,470,1.24484,7.94311
-364,554,1.04883,-7.68756,0,0,0,0,0,0,0,-1,860,470,1.0488,7.68757
-357,554,0.87793,-7.5083,0,0,0,0,0,0,0,-1,867,470,0.877958,7.50829
-350,554,1.05811,-8.50827,0,0,0,0,0,0,0,-1,874,470,1.05808,8.50828
-343,554,1.06433,-8.56403,0.00136669,-0.0130431,0.00275164,0.00187426,-0.0135507,0.182409,0.00971897,0.0468565,881,470,1.06433,8.56404
-336,554,1.0376,-8.67474,0.0017805,-0.0105176,0.00193593,0.00207805,-0.0108151,0.152505,0.00799331,0.0339206,888,470,1.0376,8.67475
-329,554,1.00922,-8.8819,0.00187509,-0.00834859,0.0014428,0.00207481,-0.0085483,0.137545,0.00650177,0.0154942,895,470,1.00921,8.88189
-322,554,0.99823,-9.08157,0.00181159,-0.00640106,0.000943421,0.00191858,-0.00650804,0.112915,0.00509997,0.00980041,902,470,0.998225,9.08157
-315,554,0.99646,-9.298,0.0016398,-0.00462726,0.000444436,0.00167116,-0.00465862,0.0704463,0.00378775,0.00958194,909,470,0.996452,9.29799
-308,554,0.988037,-9.53503,0.00153117,-0.00311894,-2.6482e-05,0.00153132,-0.00311909,-0.00569467,0.00273659,0.011877,916,470,0.988042,9.53503
-301,554,0.995911,-9.7579,0.00140456,-0.00193037,-0.00039063,0.00144971,-0.00197551,-0.115058,0.0019853,0.0128791,923,470,0.995892,9.7579
-294,554,0.963989,-9.96365,0.00129655,-0.001101,-0.000658135,0.00146533,-0.00126978,-0.25104,0.00158046,0.0117337,930,470,0.963959,9.96367
-287,554,0.955383,-10.1871,0.00122496,-0.000563312,-0.000830579,0.00155121,-0.000889561,-0.374281,0.00142634,0.0119507,937,470,0.955354,10.1871
-280,554,0.955017,-10.4147,0.00120749,-0.00029627,-0.000883226,0.00161553,-0.000704309,-0.432777,0.00137337,0.0118064,944,470,0.954993,10.4147
-273,554,0.945007,-10.6323,0.00121608,-0.000426122,-0.000870217,0.00159142,-0.000801468,-0.407215,0.00140641,0.0143367,951,470,0.945035,10.6323
-266,554,0.933472,-10.8546,0.00131351,-0.00066916,-0.00100868,0.00173645,-0.0010921,-0.397035,0.00164713,0.0117157,958,470,0.933454,10.8546
-259,554,0.92041,-11.0318,0.00148514,-0.00109249,-0.000912672,0.00177557,-0.00138292,-0.308087,0.00182825,0.0114689,965,470,0.920404,11.0318
-252,554,0.923645,-11.2205,0.00161557,-0.00172106,-0.000771828,0.00178546,-0.00189095,-0.216658,0.00212286,0.0140087,972,470,0.923633,11.2205
-245,554,0.93335,-11.4327,0.00164355,-0.0024269,-0.000469345,0.00169697,-0.00248031,-0.113324,0.00242585,0.0158909,979,470,0.933346,11.4327
-238,554,0.948364,-11.6532,0.00148834,-0.0034226,6.96896e-05,0.00148933,-0.00342359,0.0141869,0.00290883,0.0114537,986,470,0.948363,11.6532
-231,554,0.941223,-11.8488,0.0012453,-0.00422141,0.000516597,0.00129369,-0.0042698,0.093397,0.00336179,0.00974231,993,470,0.941243,11.8488
-224,554,0.952576,-12.028,0.000900672,-0.00497808,0.00108988,0.00109622,-0.00517364,0.177536,0.00386665,0.00977327,1000,470,0.95255,12.028
-217,554,0.989014,-12.2056,0.000436853,-0.00570447,0.00173235,0.000891811,-0.00615943,0.256825,0.00443355,0.00986726,1007,470,0.989033,12.2056
-210,554,1.02313,-12.4176,-0.000176982,-0.00632002,0.00241223,0.000657019,-0.00715402,0.332873,0.00500275,0.0127993,1014,470,1.02313,12.4176
-203,554,1.03851,-12.6202,-0.000598945,-0.00558494,0.00368906,0.00136049,-0.00754438,0.488255,0.00553906,0.0198312,1021,470,1.0385,12.6202
-196,554,1.0011,-12.7052,-0.000918153,-0.003873,0.00570753,0.00350007,-0.00829123,0.658751,0.00699253,0.0269009,1028,470,1.00109,12.7052
-189,554,1.0907,-12.7777,-0.00130952,-0.00222138,0.00768613,0.00593419,-0.00946508,0.755774,0.00896834,0.0318542,1035,470,1.09064,12.7777
-182,554,1.02954,-12.9925,-0.00146801,9.95114e-05,0.0103495,0.00969492,-0.0110634,0.823191,0.0119935,0.0407505,1042,470,1.0296,12.9925
-175,554,0.990845,-13.1018,0,0,0,0,0,0,0,-1,1049,470,0.99083,13.1018
-168,554,1.21191,-13.4951,0,0,0,0,0,0,0,-1,1056,470,1.21195,13.4951
-161,554,1.15027,-13.6859,0,0,0,0,0,0,0,-1,1063,470,1.15027,13.6859
-154,554,1.08752,-14.4152,4.65563e-05,0.0135438,0.022973,0.0307389,-0.0171485,0.928261,0.0280165,0.0448358,1070,470,1.08747,14.4152
-147,554,1.25684,-13.6358,0.00102041,0.0174843,0.0259202,0.0364484,-0.0179436,0.939155,0.0320033,0.047499,1077,470,1.25678,13.6358
-140,554,1.14587,-12.7848,0,0,0,0,0,0,0,-1,1084,470,1.1459,12.7848
-133,554,1.78625,-13.0843,0,0,0,0,0,0,0,-1,1091,470,1.7862,13.0843
-126,554,-0.195923,-8.76236,0,0,0,0,0,0,0,-1,1098,470,-0.195888,8.76235
-119,554,0.944702,-12.1022,0,0,0,0,0,0,0,-1,1105,470,0.944726,12.1022
-112,554,0.837524,-12.4395,0,0,0,0,0,0,0,-1,1112,470,0.837493,12.4395
-105,554,2.82129,-9.46112,0,0,0,0,0,0,0,-1,1119,470,2.82127,9.46112
-98,554,1.51929,-7.3624,0,0,0,0,0,0,0,-1,1126,470,1.51928,7.36241
-91,554,1.41089,-6.5864,0,0,0,0,0,0,0,-1,1133,470,1.41093,6.58638
-84,554,1.62305,-5.87186,0,0,0,0,0,0,0,-1,1140,470,1.62299,5.87186
-77,554,-2.56958,1.33258,0,0,0,0,0,0,0,-1,1147,470,-2.56959,-1.33257
-70,554,-3.68164,-1.18332,0,0,0,0,0,0,0,-1,1154,470,-3.68158,1.18331
-63,554,-4.86853,-3.88708,0,0,0,0,0,0,0,-1,1161,470,-4.86853,3.88708
-56,554,-5.69958,-6.45422,0,0,0,0,0,0,0,-1,1168,470,-5.69955,6.45422
-49,554,-6.23645,-8.8569,0,0,0,0,0,0,0,-1,1175,470,-6.23643,8.85689
-42,554,-6.62524,-11.5382,0,0,0,0,0,0,0,-1,1182,470,-6.62522,11.5382
-35,554,-2.40173,-4.59482,0,0,0,0,0,0,0,-1,1189,470,-2.40169,4.59481
-28,554,-0.760132,-1.65555,0,0,0,0,0,0,0,-1,1196,470,-0.760095,1.65556
-21,554,4.19897,-12.6041,0,0,0,0,0,0,0,-1,1203,470,4.19894,12.6041
-14,554,0.443726,-18.7556,0,0,0,0,0,0,0,-1,1210,470,0.443774,18.7556
-7,554,0.941528,-19.1894,0,0,0,0,0,0,0,-1,1217,470,0.941479,19.1894
0,554,3.43384,-15.7317,0,0,0,0,0,0,0,-1,1224,470,3.4338,15.7317
7,554,2.74292,-15.8106,0,0,0,0,0,0,0,-1,1231,470,2.74289,15.8106
14,554,1.99268,-15.9591,-0.0262159,0.0206837,0.0218778,0.0293046,-0.0348368,1.19543,0.0370779,0.0451947,1238,470,1.99271,15.9591
21,554,1.11938,-16.0495,-0.0180178,0.00836073,0.0222085,0.0210011,-0.0306582,1.05335,0.0299988,0.0435754,1245,470,1.11936,16.0495
28,554,1.27612,-15.3629,0.00244037,-0.00377458,0.0214864,0.0210428,-0.0223771,0.713584,0.0250724,0.0456228,1252,470,1.27609,15.3629
35,554,1.74951,-15.0512,0,0,0,0,0,0,0,-1,1259,470,1.7495,15.0512
42,554,2.13025,-14.4118,0.0439349,-0.0152405,0.0127522,0.046566,-0.0178716,0.203469,0.0384129,0.0466983,1266,470,2.13026,14.4118
49,554,2.68518,-14.0435,0.0571972,-0.0114023,0.0041333,0.0574453,-0.0116505,0.0599635,0.0427133,0.047637,1273,470,2.68522,14.0435
56,554,2.68311,-13.7778,0.0677376,-0.00446436,-0.00474354,0.0680479,-0.00477467,-0.065324,0.0470377,0.0468098,1280,470,2.68314,13.7778
63,554,2.70984,-13.3588,0,0,0,0,0,0,0,-1,1287,470,2.70983,13.3588
70,554,2.69287,-12.9843,0,0,0,0,0,0,0,-1,1294,470,2.69283,12.9844
77,554,2.43384,-12.4676,0,0,0,0,0,0,0,-1,1301,470,2.43382,12.4676
84,554,1.86047,-12.0508,0,0,0,0,0,0,0,-1,1308,470,1.86049,12.0508
91,554,1.35706,-11.5956,0,0,0,0,0,0,0,-1,1315,470,1.35702,11.5956
98,554,6.40503,-20.8551,0,0,0,0,0,0,0,-1,1322,470,6.40499,20.8551
105,554,6.41626,-21.5325,0,0,0,0,0,0,0,-1,1329,470,6.41622,21.5325
112,554,3.67444,-16.1404,0,0,0,0,0,0,0,-1,1336,470,3.67442,16.1404
119,554,5.09351,-20.6753,0,0,0,0,0,0,0,-1,1343,470,5.09353,20.6753
126,554,3.48779,-18.4599,0.181872,0.196496,-0.018794,0.20935,0.169018,-0.970911,0.128254,0.0448636,1350,470,3.48784,18.4599
133,554,5.17773,-18.4336,0.199728,0.199261,-0.0109351,0.210432,0.188557,-0.774731,0.133595,0.045091,1357,470,5.17768,18.4336
140,554,6.66675,-18.3655,0.222266,0.197438,-0.00408419,0.222921,0.196783,-0.158921,0.140713,0.0446694,1364,470,6.66671,18.3655
147,554,8.16699,-18.203,0.241155,0.195234,0.000118307,0.241155,0.195234,0.00257631,0.147859,0.0455323,1371,470,8.16702,18.203
154,554,9.74463,-18.1017,0.25385,0.192174,-0.000106336,0.25385,0.192174,-0.00172411,0.15288,0.0461112,1378,470,9.74467,18.1017
161,554,11.5851,-18.0481,0,0,0,0,0,0,0,-1,1385,470,11.5851,18.0481
168,554,13.5839,-17.6145,0,0,0,0,0,0,0,-1,1392,470,13.5838,17.6145
175,554,10.663,0.286957,0,0,0,0,0,0,0,-1,1399,470,10.663,-0.286966
182,554,6.71106,-4.50217,0,0,0,0,0,0,0,-1,1406,470,6.71107,4.50215
189,554,6.90479,-2.50348,0,0,0,0,0,0,0,-1,1413,470,6.90477,2.50348
196,554,6.96216,-0.740906,0,0,0,0,0,0,0,-1,1420,470,6.96214,0.740912
203,554,6.43518,0.414154,0,0,0,0,0,0,0,-1,1427,470,6.43523,-0.414141
210,554,6.21167,1.96707,0,0,0,0,0,0,0,-1,1434,470,6.21165,-1.96706
217,554,5.64551,3.4989,0,0,0,0,0,0,0,-1,1441,470,5.64555,-3.49891
224,554,4.85144,-8.85172,0,0,0,0,0,0,0,-1,1448,470,4.85146,8.85173
231,554,3.25073,-5.29642,0,0,0,0,0,0,0,-1,1455,470,3.25078,5.29642
238,554,4.28625,-3.25253,0,0,0,0,0,0,0,-1,1462,470,4.28622,3.25252
245,554,4.0752,-2.90033,0,0,0,0,0,0,0,-1,1469,470,4.07515,2.90032
252,554,3.52112,-0.934998,0,0,0,0,0,0,0,-1,1476,470,3.52113,0.934996
259,554,3.96448,-2.16425,0,0,0,0,0,0,0,-1,1483,470,3.96446,2.16424
266,554,3.0592,-2.71716,0,0,0,0,0,0,0,-1,1490,470,3.05923,2.71718
273,554,2.58521,-3.06876,0,0,0,0,0,0,0,-1,1497,470,2.58524,3.06874
280,554,2.83301,-0.991699,0,0,0,0,0,0,0,-1,1504,470,2.83303,0.991704
287,554,3.54126,-4.12277,0,0,0,0,0,0,0,-1,1511,470,3.54123,4.12277
294,554,3.62036,-8.50146,0,0,0,0,0,0,0,-1,1518,470,3.62031,8.50145
301,554,4.34338,-12.2115,0,0,0,0,0,0,0,-1,1525,470,4.34334,12.2115
308,554,4.51135,-12.2134,0,0,0,0,0,0,0,-1,1532,470,4.51139,12.2134
315,554,4.56506,-12.1676,0,0,0,0,0,0,0,-1,1539,470,4.56502,12.1676
322,554,4.6814,-11.6832,-0.00116892,-0.00381076,-0.00514502,0.00282204,-0.00780172,-0.659744,0.00635426,0.0489657,1546,470,4.68142,11.6832
329,554,4.57019,-11.5612,-0.00124478,-0.00328555,-0.00466014,0.00250538,-0.00703571,-0.677619,0.00571179,0.0301216,1553,470,4.57015,11.5612
336,554,4.54089,-11.4531,-0.00136339,-0.00333826,-0.0038912,0.0016637,-0.00636536,-0.661141,0.00489334,0.0143309,1560,470,4.54088,11.4531
343,554,4.54272,-11.2718,-0.00156622,-0.00349349,-0.0034218,0.00102504,-0.00608475,-0.648145,0.00443782,0.0103522,1567,470,4.54268,11.2718
350,554,4.57703,-11.0501,-0.00157374,-0.00363852,-0.00298712,0.000554362,-0.00576663,-0.619017,0.0040419,0.00966159,1574,470,4.577,11.0501
357,554,4.59949,-10.8227,-0.00155675,-0.0036159,-0.002604,0.000213825,-0.00538647,-0.597139,0.00366434,0.0105596,1581,470,4.5995,10.8227
364,554,4.59265,-10.619,-0.00147813,-0.00339854,-0.00209401,-0.000134664,-0.004742,-0.570428,0.00311742,0.00795758,1588,470,4.59263,10.6189
371,554,4.59656,-10.3996,-0.00132984,-0.00316134,-0.0015959,-0.000405621,-0.00408556,-0.524927,0.00259907,0.00778073,1595,470,4.59652,10.3996
378,554,4.59888,-10.1639,-0.00115132,-0.00267721,-0.00114783,-0.000536001,-0.00329252,-0.492083,0.00203996,0.00906805,1602,470,4.59887,10.164
385,554,4.60742,-9.93719,-0.00102255,-0.00224625,-0.000860599,-0.000578466,-0.00269033,-0.476377,0.0016352,0.0089518,1609,470,4.60745,9.93719
392,554,4.62036,-9.68192,-0.000770101,-0.00184584,-0.000563982,-0.000528625,-0.00208732,-0.404546,0.00125307,0.0136003,1616,470,4.6204,9.68192
399,554,4.63452,-9.40909,-0.000336087,-0.00140964,-0.00026969,-0.000272146,-0.00147358,-0.232792,0.000905411,0.0185001,1623,470,4.63447,9.40908
406,554,4.61157,-9.20694,0.000192406,-0.00104013,0.000177684,0.000217509,-0.00106523,0.140355,0.00079267,0.0163496,1630,470,4.61161,9.20695
413,554,4.58496,-8.97266,0.000666184,-0.000586573,0.000585326,0.000897102,-0.00081749,0.375765,0.000990276,0.0156618,1637,470,4.58493,8.97266
420,554,4.58228,-8.73206,0.00125873,-0.00032352,0.00105944,0.00178984,-0.000854621,0.464691,0.00155828,0.0170268,1644,470,4.58226,8.73204
427,554,4.59644,-8.4859,0.0019516,-0.000105183,0.00167913,0.00289224,-0.00104582,0.510635,0.00235547,0.0117451,1651,470,4.59646,8.48591
434,554,4.58569,-8.24945,0.00276432,-0.0001168,0.00231906,0.00405382,-0.0014063,0.507473,0.0032736,0.0098786,1658,470,4.58575,8.24945
441,554,4.59509,-7.99582,0.0036137,-0.000281998,0.00310437,0.00533071,-0.00199901,0.505217,0.00437512,0.0108712,1665,470,4.59504,7.99583
448,554,4.58594,-7.73065,0.00425301,-0.000623167,0.00386169,0.00638186,-0.00275201,0.50382,0.00541047,0.0128323,1672,470,4.58592,7.73064
455,554,4.57117,-7.4776,0.00471455,-0.0011111,0.00457277,0.00722342,-0.00361997,0.501809,0.00637462,0.014379,1679,470,4.57115,7.47761
462,554,4.53796,-7.19571,0.00502503,-0.00168531,0.00494594,0.00764643,-0.00430672,0.487368,0.00699037,0.016558,1686,470,4.53802,7.1957
469,554,4.52185,-6.92584,0.00533264,-0.0024526,0.0049075,0.00770389,-0.00482385,0.450108,0.00729633,0.0217142,1693,470,4.52184,6.92585
476,554,4.57153,-6.37369,0.00536398,-0.00325498,0.00460902,0.00736439,-0.00525539,0.409486,0.00731987,0.0458166,1700,470,4.57148,6.37369
483,554,4.6012,-5.797,0,0,0,0,0,0,0,-1,1707,470,4.60125,5.797
490,554,7.31543,-3.51794,0,0,0,0,0,0,0,-1,1714,470,7.3154,3.51794
497,554,7.9751,-2.43454,0,0,0,0,0,0,0,-1,1721,470,7.97505,2.43453
504,554,2.13257,-3.81628,0,0,0,0,0,0,0,-1,1728,470,2.1326,3.8163
511,554,1.31396,-4.02713,0,0,0,0,0,0,0,-1,1735,470,1.31398,4.02712
518,554,-1.15686,-2.436,0,0,0,0,0,0,0,-1,1742,470,-1.15691,2.43599
525,554,0,0,0,0,0,0,0,0,0,-1,1749,470,0,0
532,554,0,0,0,0,0,0,0,0,0,-1,1756,470,0,0
539,554,0,0,0,0,0,0,0,0,0,-1,1763,470,0,0
546,554,0,0,0,0,0,0,0,0,0,-1,1770,470,0,0
553,554,0,0,0,0,0,0,0,0,0,-1,1777,470,0,0
560,554,0,0,0,0,0,0,0,0,0,-1,1784,470,0,0
567,554,0,0,0,0,0,0,0,0,0,-1,1791,470,0,0
574,554,0,0,0,0,0,0,0,0,0,-1,1798,470,0,0
581,554,0,0,0,0,0,0,0,0,0,-1,1805,470,0,0
588,554,0,0,0,0,0,0,0,0,0,-1,1812,470,0,0
595,554,0,0,0,0,0,0,0,0,0,-1,1819,470,0,0
602,554,0,0,0,0,0,0,0,0,0,-1,1826,470,0,0
609,554,0,0,0,0,0,0,0,0,0,-1,1833,470,0,0
616,554,0,0,0,0,0,0,0,0,0,-1,1840,470,0,0
623,554,0,0,0,0,0,0,0,0,0,-1,1847,470,0,0
630,554,0,0,0,0,0,0,0,0,0,-1,1854,470,0,0
637,554,0,0,0,0,0,0,0,0,0,-1,1861,470,0,0
644,554,0,0,0,0,0,0,0,0,0,-1,1868,470,0,0
651,554,0,0,0,0,0,0,0,0,0,-1,1875,470,0,0
658,554,0,0,0,0,0,0,0,0,0,-1,1882,470,0,0
665,554,0,0,0,0,0,0,0,0,0,-1,1889,470,0,0
672,554,0,0,0,0,0,0,0,0,0,-1,1896,470,0,0
679,554,0,0,0,0,0,0,0,0,0,-1,1903,470,0,0
686,554,0,0,0,0,0,0,0,0,0,-1,1910,470,0,0
693,554,0,0,0,0,0,0,0,0,0,-1,1917,470,0,0
700,554,0,0,0,0,0,0,0,0,0,-1,1924,470,0,0
707,554,0,0,0,0,0,0,0,0,0,-1,1931,470,0,0
714,554,0,0,0,0,0,0,0,0,0,-1,1938,470,0,0
721,554,0,0,0,0,0,0,0,0,0,-1,1945,470,0,0
728,554,0,0,0,0,0,0,0,0,0,-1,1952,470,0,0
735,554,0,0,0,0,0,0,0,0,0,-1,1959,470,0,0
742,554,0,0,0,0,0,0,0,0,0,-1,1966,470,0,0
749,554,0,0,0,0,0,0,0,0,0,-1,1973,470,0,0
756,554,0,0,0,0,0,0,0,0,0,-1,1980,470,0,0
763,554,0,0,0,0,0,0,0,0,0,-1,1987,470,0,0
770,554,0,0,0,0,0,0,0,0,0,-1,1994,470,0,0
777,554,0,0,0,0,0,0,0,0,0,-1,2001,470,0,0
784,554,0,0,0,0,0,0,0,0,0,-1,2008,470,0,0
791,554,0,0,0,0,0,0,0,0,0,-1,2015,470,0,0
798,554,0,0,0,0,0,0,0,0,0,-1,2022,470,0,0
805,554,0,0,0,0,0,0,0,0,0,-1,2029,470,0,0
812,554,0,0,0,0,0,0,0,0,0,-1,2036,470,0,0
-700,547,0,0,0,0,0,0,0,0,0,-1,524,477,0,0
-693,547,0,0,0,0,0,0,0,0,0,-1,531,477,0,0
-686,547,0,0,0,0,0,0,0,0,0,-1,538,477,0,0
-679,547,0,0,0,0,0,0,0,0,0,-1,545,477,0,0
-672,547,0,0,0,0,0,0,0,0,0,-1,552,477,0,0
-665,547,0,0,0,0,0,0,0,0,0,-1,559,477,0,0
-658,547,0,0,0,0,0,0,0,0,0,-1,566,477,0,0
-651,547,0,0,0,0,0,0,0,0,0,-1,573,477,0,0
-644,547,0,0,0,0,0,0,0,0,0,-1,580,477,0,0
-637,547,0,0,0,0,0,0,0,0,0,-1,587,477,0,0
-630,547,0,0,0,0,0,0,0,0,0,-1,594,477,0,0
-623,547,0,0,0,0,0,0,0,0,0,-1,601,477,0,0
-616,547,0,0,0,0,0,0,0,0,0,-1,608,477,0,0
-609,547,0,0,0,0,0,0,0,0,0,-1,615,477,0,0
-602,547,0,0,0,0,0,0,0,0,0,-1,622,477,0,0
-595,547,0,0,0,0,0,0,0,0,0,-1,629,477,0,0
-588,547,0,0,0,0,0,0,0,0,0,-1,636,477,0,0
-581,547,0,0,0,0,0,0,0,0,0,-1,643,477,0,0
-574,547,0,0,0,0,0,0,0,0,0,-1,650,477,0,0
-567,547,0,0,0,0,0,0,0,0,0,-1,657,477,0,0
-560,547,0,0,0,0,0,0,0,0,0,-1,664,477,0,0
-553,547,0,0,0,0,0,0,0,0,0,-1,671,477,0,0
-546,547,0,0,0,0,0,0,0,0,0,-1,678,477,0,0
-539,547,0,0,0,0,0,0,0,0,0,-1,685,477,0,0
-532,547,0,0,0,0,0,0,0,0,0,-1,692,477,0,0
-525,547,0,0,0,0,0,0,0,0,0,-1,699,477,0,0
-518,547,0,0,0,0,0,0,0,0,0,-1,706,477,0,0
-511,547,0,0,0,0,0,0,0,0,0,-1,713,477,0,0
-504,547,0,0,0,0,0,0,0,0,0,-1,720,477,0,0
-497,547,0,0,0,0,0,0,0,0,0,-1,727,477,0,0
-490,547,0,0,0,0,0,0,0,0,0,-1,734,477,0,0
-483,547,0,0,0,0,0,0,0,0,0,-1,741,477,0,0
-476,547,0,0,0,0,0,0,0,0,0,-1,748,477,0,0
-469,547,0,0,0,0,0,0,0,0,0,-1,755,477,0,0
-462,547,0,0,0,0,0,0,0,0,0,-1,762,477,0,0
-455,547,0,0,0,0,0,0,0,0,0,-1,769,477,0,0
-448,547,0,0,0,0,0,0,0,0,0,-1,776,477,0,0
-441,547,0,0,0,0,0,0,0,0,0,-1,783,477,0,0
-434,547,0,0,0,0,0,0,0,0,0,-1,790,477,0,0
-427,547,0,0,0,0,0,0,0,0,0,-1,797,477,0,0
-420,547,0,0,0,0,0,0,0,0,0,-1,804,477,0,0
-413,547,0,0,0,0,0,0,0,0,0,-1,811,477,0,0
-406,547,-0.397644,-6.30316,0,0,0,0,0,0,0,-1,818,477,-0.397624,6.30315
-399,547,0.303162,-6.16772,0,0,0,0,0,0,0,-1,825,477,0.303136,6.16772
-392,547,2.92407,-3.52106,0,0,0,0,0,0,0,-1,832,477,2.92407,3.52107
-385,547,2.76971,-3.02631,0,0,0,0,0,0,0,-1,839,477,2.76972,3.0263
-378,547,2.87183,-2.31735,0,0,0,0,0,0,0,-1,846,477,2.87181,2.31736
-371,547,1.20789,-8.06766,0,0,0,0,0,0,0,-1,853,477,1.20791,8.06765
-364,547,0.271729,-4.58582,0,0,0,0,0,0,0,-1,860,477,0.271753,4.5858
-357,547,1.13318,-6.4292,0,0,0,0,0,0,0,-1,867,477,1.1332,6.4292
-350,547,0.73761,-8.06845,0,0,0,0,0,0,0,-1,874,477,0.73762,8.06846
-343,547,0.752075,-8.3295,0.000835433,-0.00974722,0.00147187,0.00103633,-0.00994812,0.135654,0.00700313,0.0384786,881,477,0.752081,8.32949
-336,547,0.791748,-8.57672,0.00117702,-0.00799051,0.000905096,0.00126552,-0.00807902,0.0974745,0.00585363,0.01571,888,477,0.791763,8.57673
-329,547,0.787109,-8.81253,0.00130028,-0.00643828,0.000620429,0.0013497,-0.0064877,0.0794971,0.0048382,0.00839734,895,477,0.787122,8.81252
-322,547,0.779602,-9.06485,0.0012921,-0.00500087,0.000357895,0.00131239,-0.00502116,0.0566287,0.00386,0.0102529,902,477,0.779593,9.06484
-315,547,0.766724,-9.30499,0.00119066,-0.00363541,9.77437e-05,0.00119264,-0.00363739,0.0202422,0.00290525,0.00981528,909,477,0.766744,9.30498
-308,547,0.771179,-9.52692,0.00117936,-0.00251282,-0.0001727,0.00118742,-0.00252088,-0.0466387,0.00218664,0.0109897,916,477,0.771171,9.52693
-301,547,0.777588,-9.76361,0.00115951,-0.00161053,-0.000348844,0.00120277,-0.00165378,-0.123369,0.00165607,0.0109658,923,477,0.777605,9.76361
-294,547,0.74884,-9.97272,0.00115875,-0.00103857,-0.000430094,0.00123993,-0.00111975,-0.186567,0.00136295,0.00981469,930,477,0.748818,9.97271
-287,547,0.738953,-10.1859,0.00119851,-0.000775789,-0.000467886,0.00130378,-0.000881059,-0.221307,0.00126926,0.0114812,937,477,0.738972,10.1859
-280,547,0.750488,-10.4089,0.00130725,-0.000821335,-0.00046456,0.00140422,-0.000918306,-0.205784,0.00135066,0.0138803,944,477,0.75046,10.4089
-273,547,0.742065,-10.6311,0.00143111,-0.00114243,-0.000447079,0.00150656,-0.00121788,-0.167198,0.0015759,0.0135764,951,477,0.742055,10.6311
-266,547,0.723145,-10.8397,0.00165212,-0.00151812,-0.000536392,0.00174042,-0.00160642,-0.163148,0.00193281,0.0124616,958,477,0.723115,10.8397
-259,547,0.722046,-11.0465,0.00197169,-0.0020665,-0.000492327,0.00203084,-0.00212566,-0.119584,0.00239996,0.0105383,965,477,0.722018,11.0465
-252,547,0.74585,-11.246,0.00217075,-0.00285341,-0.000402583,0.00220281,-0.00288546,-0.0794538,0.00294651,0.0107127,972,477,0.745825,11.246
-245,547,0.764099,-11.4564,0.0021559,-0.00373699,-9.4098e-05,0.0021574,-0.00373849,-0.0159626,0.00344456,0.012031,979,477,0.764098,11.4564
-238,547,0.748596,-11.6406,0.00194621,-0.00484147,0.000419739,0.00197207,-0.00486733,0.0615259,0.00406495,0.00825592,986,477,0.748615,11.6406
-231,547,0.737793,-11.828,0.00168851,-0.00577154,0.000825787,0.00177882,-0.00586186,0.108938,0.00461653,0.00790505,993,477,0.737787,11.828
-224,547,0.757935,-12.0012,0.00118499,-0.00672152,0.0014694,0.00144924,-0.00698577,0.177934,0.00520792,0.0100181,1000,477,0.757904,12.0012
-217,547,0.804382,-12.2105,0.000467415,-0.00764218,0.0022512,0.00105043,-0.00822519,0.253412,0.00586504,0.0140882,1007,477,0.804401,12.2105
-210,547,0.847229,-12.3982,-0.000486259,-0.00844289,0.00314885,0.000609107,-0.00953826,0.334769,0.00657129,0.025677,1014,477,0.847244,12.3982
-203,547,0.882019,-12.356,-0.00121666,-0.0075536,0.00487424,0.00142842,-0.0101987,0.497195,0.00732185,0.0352184,1021,477,0.882031,12.356
-196,547,0.759277,-12.3281,-0.0017859,-0.00531639,0.00765585,0.00430559,-0.0114079,0.672091,0.00937598,0.040379,1028,477,0.759291,12.3281
-189,547,0.589966,-12.4198,-0.00247421,-0.00309759,0.0104314,0.00765018,-0.013222,0.770463,0.0121928,0.0467912,1035,477,0.590005,12.4198
-182,547,0.55481,-12.5204,0,0,0,0,0,0,0,-1,1042,477,0.554777,12.5204
-175,547,-0.350098,-12.3584,0,0,0,0,0,0,0,-1,1049,477,-0.350098,12.3584
-168,547,1.12463,-8.66785,0,0,0,0,0,0,0,-1,1056,477,1.12461,8.66786
-161,547,1.93481,-12.2681,0,0,0,0,0,0,0,-1,1063,477,1.93484,12.2681
-154,547,0.637451,-15.0815,0,0,0,0,0,0,0,-1,1070,477,0.637406,15.0815
-147,547,0.689575,-14.4346,0,0,0,0,0,0,0,-1,1077,477,0.689556,14.4346
-140,547,0.610352,-13.5187,0,0,0,0,0,0,0,-1,1084,477,0.610315,13.5187
-133,547,1.76184,-13.1154,0,0,0,0,0,0,0,-1,1091,477,1.76181,13.1154
-126,547,0.784302,-9.76431,0,0,0,0,0,0,0,-1,1098,477,0.78428,9.76432
-119,547,-0.531006,-10.0229,0,0,0,0,0,0,0,-1,1105,477,-0.530984,10.0229
-112,547,4.36194,-9.23029,0,0,0,0,0,0,0,-1,1112,477,4.36195,9.23029
-105,547,4.448,-9.17819,0,0,0,0,0,0,0,-1,1119,477,4.44799,9.1782
-98,547,1.50391,-7.20621,0,0,0,0,0,0,0,-1,1126,477,1.50395,7.20621
-91,547,1.37805,-7.12024,0,0,0,0,0,0,0,-1,1133,477,1.37804,7.12025
-84,547,1.94202,-6.66241,0,0,0,0,0,0,0,-1,1140,477,1.94201,6.66241
-77,547,-2.28357,1.8588,0,0,0,0,0,0,0,-1,1147,477,-2.28356,-1.85879
-70,547,-3.70178,-0.874908,0,0,0,0,0,0,0,-1,1154,477,-3.70182,0.874918
-63,547,-5.12012,-3.60861,0,0,0,0,0,0,0,-1,1161,477,-5.12009,3.60862
-56,547,-6.01917,-6.2399,0,0,0,0,0,0,0,-1,1168,477,-6.01921,6.23991
-49,547,-6.729,-8.60349,0,0,0,0,0,0,0,-1,1175,477,-6.72899,8.60348
-42,547,-2.41736,-5.53012,0,0,0,0,0,0,0,-1,1182,477,-2.41734,5.53011
-35,547,-2.96838,-4.45734,0,0,0,0,0,0,0,-1,1189,477,-2.96839,4.45734
-28,547,-0.869141,-1.29901,0,0,0,0,0,0,0,-1,1196,477,-0.869135,1.29901
-21,547,4.33044,-12.4018,0,0,0,0,0,0,0,-1,1203,477,4.33042,12.4018
-14,547,-0.154785,-19.4613,0,0,0,0,0,0,0,-1,1210,477,-0.154837,19.4613
-7,547,0.72229,-20.0677,0,0,0,0,0,0,0,-1,1217,477,0.72225,20.0678
0,547,1.60205,-20.6646,0,0,0,0,0,0,0,-1,1224,477,1.602,20.6646
7,547,2.91492,-16.6486,0,0,0,0,0,0,0,-1,1231,477,2.91495,16.6486
14,547,0,0,0,0,0,0,0,0,0,-1,1238,477,0,0
21,547,0,0,0,0,0,0,0,0,0,-1,1245,477,0,0
28,547,0,0,0,0,0,0,0,0,0,-1,1252,477,0,0
35,547,0,0,0,0,0,0,0,0,0,-1,1259,477,0,0
42,547,0,0,0,0,0,0,0,0,0,-1,1266,477,0,0
49,547,0,0,0,0,0,0,0,0,0,-1,1273,477,0,0
56,547,0,0,0,0,0,0,0,0,0,-1,1280,477,0,0
63,547,0,0,0,0,0,0,0,0,0,-1,1287,477,0,0
70,547,0,0,0,0,0,0,0,0,0,-1,1294,477,0,0
77,547,0,0,0,0,0,0,0,0,0,-1,1301,477,0,0
84,547,0,0,0,0,0,0,0,0,0,-1,1308,477,0,0
91,547,0,0,0,0,0,0,0,0,0,-1,1315,477,0,0
98,547,0,0,0,0,0,0,0,0,0,-1,1322,477,0,0
105,547,1.75745,-10.1952,0,0,0,0,0,0,0,-1,1329,477,1.7575,10.1952
112,547,-0.152344,-19.9582,0,0,0,0,0,0,0,-1,1336,477,-0.152395,19.9582
119,547,1.46594,-19.9978,0,0,0,0,0,0,0,-1,1343,477,1.46591,19.9978
126,547,3.07092,-19.8888,0.23886,0.216059,-0.0141538,0.245634,0.209285,-0.446365,0.153085,0.0443755,1350,477,3.0709,19.8888
133,547,5.0332,-19.8996,0.253997,0.2241,-0.00498771,0.254807,0.22329,-0.161023,0.160401,0.044156,1357,477,5.03326,19.8996
140,547,6.44788,-19.6206,0,0,0,0,0,0,0,-1,1364,477,6.44791,19.6206
147,547,8.43445,-19.5491,0,0,0,0,0,0,0,-1,1371,477,8.43449,19.5491
154,547,9.79358,-19.5764,0,0,0,0,0,0,0,-1,1378,477,9.79358,19.5764
161,547,11.4034,-19.6718,0,0,0,0,0,0,0,-1,1385,477,11.4034,19.6718
168,547,-1.09973,-17.3397,0,0,0,0,0,0,0,-1,1392,477,-1.09977,17.3397
175,547,3.35034,-0.26532,0,0,0,0,0,0,0,-1,1399,477,3.3503,0.265306
182,547,4.26038,3.72672,0,0,0,0,0,0,0,-1,1406,477,4.26039,-3.7267
189,547,3.40454,1.28671,0,0,0,0,0,0,0,-1,1413,477,3.40457,-1.28673
196,547,3.53931,1.87793,0,0,0,0,0,0,0,-1,1420,477,3.53928,-1.87794
203,547,6.49414,-0.425842,0,0,0,0,0,0,0,-1,1427,477,6.4941,0.425844
210,547,4.82092,0.53595,0,0,0,0,0,0,0,-1,1434,477,4.82096,-0.535942
217,547,4.68579,0.480072,0,0,0,0,0,0,0,-1,1441,477,4.68577,-0.480069
224,547,4.55615,0.739807,0,0,0,0,0,0,0,-1,1448,477,4.55613,-0.73981
231,547,5.90869,-3.57721,0,0,0,0,0,0,0,-1,1455,477,5.90871,3.57722
238,547,5.50049,-3.15356,0,0,0,0,0,0,0,-1,1462,477,5.50045,3.15356
245,547,5.13708,-2.65213,0,0,0,0,0,0,0,-1,1469,477,5.13708,2.65212
252,547,3.73511,-0.645233,0,0,0,0,0,0,0,-1,1476,477,3.73515,0.645237
259,547,5.86816,-3.20816,0,0,0,0,0,0,0,-1,1483,477,5.86815,3.20816
266,547,5.40222,-2.45731,0,0,0,0,0,0,0,-1,1490,477,5.40221,2.45732
273,547,3.05737,0.495789,0,0,0,0,0,0,0,-1,1497,477,3.05742,-0.49578
280,547,2.0885,1.47797,0,0,0,0,0,0,0,-1,1504,477,2.08848,-1.47795
287,547,2.31177,-2.21716,0,0,0,0,0,0,0,-1,1511,477,2.31174,2.21717
294,547,2.4823,-3.03659,0,0,0,0,0,0,0,-1,1518,477,2.48229,3.0366
301,547,4.72119,-3.93454,0,0,0,0,0,0,0,-1,1525,477,4.72119,3.93453
308,547,4.07471,-5.42175,0,0,0,0,0,0,0,-1,1532,477,4.07468,5.42174
315,547,3.58496,-6.62112,0,0,0,0,0,0,0,-1,1539,477,3.58497,6.62113
322,547,4.94739,-11.6224,0,0,0,0,0,0,0,-1,1546,477,4.94742,11.6224
329,547,4.72864,-11.5283,0,0,0,0,0,0,0,-1,1553,477,4.72863,11.5283
336,547,4.96216,-11.4315,-0.00266478,-0.00498029,-0.00536101,0.00166207,-0.00930714,-0.679052,0.00682656,0.0361068,1560,477,4.96216,11.4315
343,547,4.89648,-11.3242,-0.00284895,-0.00552606,-0.00476774,0.000764574,-0.00913958,-0.648545,0.00636324,0.0267584,1567,477,4.89647,11.3242
350,547,4.85107,-11.1168,-0.00277931,-0.0059561,-0.00429676,0.000213249,-0.00894865,-0.608352,0.00603811,0.0213389,1574,477,4.85106,11.1168
357,547,4.82727,-10.873,-0.00267564,-0.00606333,-0.00387666,-0.000138934,-0.00860004,-0.57943,0.00568761,0.0158312,1581,477,4.82724,10.873
364,547,4.81067,-10.6236,-0.00245487,-0.00584519,-0.00325022,-0.00048431,-0.00781575,-0.545027,0.0050568,0.00951489,1588,477,4.81063,10.6236
371,547,4.81104,-10.3829,-0.00213233,-0.00553101,-0.00263414,-0.000696958,-0.00696639,-0.498928,0.00443025,0.00899495,1595,477,4.81103,10.3829
378,547,4.82617,-10.1595,-0.00178061,-0.00487493,-0.00207854,-0.000736624,-0.00591892,-0.465461,0.00372476,0.00991279,1602,477,4.82613,10.1594
385,547,4.83789,-9.94598,-0.00152428,-0.00425843,-0.00168867,-0.000718685,-0.00506402,-0.445128,0.00316378,0.00989702,1609,477,4.83788,9.94599
392,547,4.83044,-9.71265,-0.00122397,-0.00363792,-0.00128372,-0.000668923,-0.00419298,-0.408101,0.00260117,0.0117463,1616,477,4.83039,9.71265
399,547,4.8291,-9.44962,-0.000802678,-0.00296953,-0.00095233,-0.000443626,-0.00332859,-0.360545,0.00208696,0.0138891,1623,477,4.82907,9.44961
406,547,4.8396,-9.20795,-0.000315214,-0.00231371,-0.000531465,-0.00018267,-0.00244625,-0.244407,0.00157348,0.0128414,1630,477,4.83958,9.20795
413,547,4.82849,-8.9884,0.000161611,-0.00157456,-9.2703e-05,0.000166546,-0.0015795,-0.0531935,0.00111268,0.0128162,1637,477,4.82853,8.9884
420,547,4.84106,-8.75427,0.000688278,-0.0010535,0.000377109,0.00076642,-0.00113165,0.20432,0.00110259,0.0154879,1644,477,4.84104,8.75427
427,547,4.84827,-8.4949,0.00127021,-0.000608464,0.000959655,0.00167374,-0.00101199,0.398048,0.00156622,0.0143955,1651,477,4.84826,8.49491
434,547,4.81934,-8.25967,0.00190947,-0.000421952,0.00154575,0.00267979,-0.00119227,0.462325,0.00228986,0.00973628,1658,477,4.81934,8.25967
441,547,4.802,-8.00696,0.00257192,-0.000385493,0.00220207,0.00374569,-0.00155927,0.489725,0.00314834,0.0102917,1665,477,4.80205,8.00696
448,547,4.80115,-7.745,0.00309571,-0.000530843,0.00287782,0.00468387,-0.00211901,0.504273,0.00401962,0.0111009,1672,477,4.80111,7.74499
455,547,4.81433,-7.49179,0.00343644,-0.000877293,0.00346652,0.00536232,-0.00280317,0.507107,0.00479091,0.0109209,1679,477,4.81432,7.49178
462,547,4.77905,-7.22452,0.00368054,-0.00140651,0.00366648,0.00559937,-0.00332534,0.482148,0.00520814,0.0103187,1686,477,4.77902,7.22453
469,547,4.77319,-6.94046,0.00393386,-0.00220479,0.00343694,0.0054725,-0.00374343,0.42092,0.00535194,0.01763,1693,477,4.77323,6.94046
476,547,4.87817,-6.54825,0.00388379,-0.00304161,0.00299576,0.00499983,-0.00415765,0.356613,0.00529452,0.0421587,1700,477,4.87812,6.54824
483,547,5.01196,-6.08368,0,0,0,0,0,0,0,-1,1707,477,5.01201,6.08366
490,547,3.65271,-3.71707,0,0,0,0,0,0,0,-1,1714,477,3.65277,3.71708
497,547,2.55481,-3.81421,0,0,0,0,0,0,0,-1,1721,477,2.55476,3.8142
504,547,4.01953,-2.22714,0,0,0,0,0,0,0,-1,1728,477,4.0195,2.22713
511,547,4.82495,-1.45642,0,0,0,0,0,0,0,-1,1735,477,4.82495,1.45641
518,547,4.69446,-3.75436,0,0,0,0,0,0,0,-1,1742,477,4.69445,3.75438
525,547,0.781616,-3.76355,0,0,0,0,0,0,0,-1,1749,477,0.781645,3.76354
532,547,0,0,0,0,0,0,0,0,0,-1,1756,477,0,0
539,547,0,0,0,0,0,0,0,0,0,-1,1763,477,0,0
546,547,0,0,0,0,0,0,0,0,0,-1,1770,477,0,0
553,547,0,0,0,0,0,0,0,0,0,-1,1777,477,0,0
560,547,0,0,0,0,0,0,0,0,0,-1,1784,477,0,0
567,547,0,0,0,0,0,0,0,0,0,-1,1791,477,0,0
574,547,0,0,0,0,0,0,0,0,0,-1,1798,477,0,0
581,547,0,0,0,0,0,0,0,0,0,-1,1805,477,0,0
588,547,0,0,0,0,0,0,0,0,0,-1,1812,477,0,0
595,547,0,0,0,0,0,0,0,0,0,-1,1819,477,0,0
602,547,0,0,0,0,0,0,0,0,0,-1,1826,477,0,0
609,547,0,0,0,0,0,0,0,0,0,-1,1833,477,0,0
616,547,0,0,0,0,0,0,0,0,0,-1,1840,477,0,0
623,547,0,0,0,0,0,0,0,0,0,-1,1847,477,0,0
630,547,0,0,0,0,0,0,0,0,0,-1,1854,477,0,0
637,547,0,0,0,0,0,0,0,0,0,-1,1861,477,0,0
644,547,0,0,0,0,0,0,0,0,0,-1,1868,477,0,0
651,547,0,0,0,0,0,0,0,0,0,-1,1875,477,0,0
658,547,0,0,0,0,0,0,0,0,0,-1,1882,477,0,0
665,547,0,0,0,0,0,0,0,0,0,-1,1889,477,0,0
672,547,0,0,0,0,0,0,0,0,0,-1,1896,477,0,0
679,547,0,0,0,0,0,0,0,0,0,-1,1903,477,0,0
686,547,0,0,0,0,0,0,0,0,0,-1,1910,477,0,0
693,547,0,0,0,0,0,0,0,0,0,-1,1917,477,0,0
700,547,0,0,0,0,0,0,0,0,0,-1,1924,477,0,0
707,547,0,0,0,0,0,0,0,0,0,-1,1931,477,0,0
714,547,0,0,0,0,0,0,0,0,0,-1,1938,477,0,0
721,547,0,0,0,0,0,0,0,0,0,-1,1945,477,0,0
728,547,0,0,0,0,0,0,0,0,0,-1,1952,477,0,0
735,547,0,0,0,0,0,0,0,0,0,-1,1959,477,0,0
742,547,0,0,0,0,0,0,0,0,0,-1,1966,477,0,0
749,547,0,0,0,0,0,0,0,0,0,-1,1973,477,0,0
756,547,0,0,0,0,0,0,0,0,0,-1,1980,477,0,0
763,547,0,0,0,0,0,0,0,0,0,-1,1987,477,0,0
770,547,0,0,0,0,0,0,0,0,0,-1,1994,477,0,0
777,547,0,0,0,0,0,0,0,0,0,-1,2001,477,0,0
784,547,0,0,0,0,0,0,0,0,0,-1,2008,477,0,0
791,547,0,0,0,0,0,0,0,0,0,-1,2015,477,0,0
798,547,0,0,0,0,0,0,0,0,0,-1,2022,477,0,0
805,547,0,0,0,0,0,0,0,0,0,-1,2029,477,0,0
812,547,0,0,0,0,0,0,0,0,0,-1,2036,477,0,0
-700,540,0,0,0,0,0,0,0,0,0,-1,524,484,0,0
-693,540,0,0,0,0,0,0,0,0,0,-1,531,484,0,0
-686,540,0,0,0,0,0,0,0,0,0,-1,538,484,0,0
-679,540,0,0,0,0,0,0,0,0,0,-1,545,484,0,0
-672,540,0,0,0,0,0,0,0,0,0,-1,552,484,0,0
-665,540,0,0,0,0,0,0,0,0,0,-1,559,484,0,0
-658,540,0,0,0,0,0,0,0,0,0,-1,566,484,0,0
-651,540,0,0,0,0,0,0,0,0,0,-1,573,484,0,0
-644,540,0,0,0,0,0,0,0,0,0,-1,580,484,0,0
-637,540,0,0,0,0,0,0,0,0,0,-1,587,484,0,0
-630,540,0,0,0,0,0,0,0,0,0,-1,594,484,0,0
-623,540,0,0,0,0,0,0,0,0,0,-1,601,484,0,0
-616,540,0,0,0,0,0,0,0,0,0,-1,608,484,0,0
-609,540,0,0,0,0,0,0,0,0,0,-1,615,484,0,0
-602,540,0,0,0,0,0,0,0,0,0,-1,622,484,0,0
-595,540,0,0,0,0,0,0,0,0,0,-1,629,484,0,0
-588,540,0,0,0,0,0,0,0,0,0,-1,636,484,0,0
-581,540,0,0,0,0,0,0,0,0,0,-1,643,484,0,0
-574,540,0,0,0,0,0,0,0,0,0,-1,650,484,0,0
-567,540,0,0,0,0,0,0,0,0,0,-1,657,484,0,0
-560,540,0,0,0,0,0,0,0,0,0,-1,664,484,0,0
-553,540,0,0,0,0,0,0,0,0,0,-1,671,484,0,0
-546,540,0,0,0,0,0,0,0,0,0,-1,678,484,0,0
-539,540,0,0,0,0,0,0,0,0,0,-1,685,484,0,0
-532,540,0,0,0,0,0,0,0,0,0,-1,692,484,0,0
-525,540,0,0,0,0,0,0,0,0,0,-1,699,484,0,0
-518,540,0,0,0,0,0,0,0,0,0,-1,706,484,0,0
-511,540,0,0,0,0,0,0,0,0,0,-1,713,484,0,0
-504,540,0,0,0,0,0,0,0,0,0,-1,720,484,0,0
-497,540,0,0,0,0,0,0,0,0,0,-1,727,484,0,0
-490,540,0,0,0,0,0,0,0,0,0,-1,734,484,0,0
-483,540,0,0,0,0,0,0,0,0,0,-1,741,484,0,0
-476,540,0,0,0,0,0,0,0,0,0,-1,748,484,0,0
-469,540,0,0,0,0,0,0,0,0,0,-1,755,484,0,0
-462,540,0,0,0,0,0,0,0,0,0,-1,762,484,0,0
-455,540,0,0,0,0,0,0,0,0,0,-1,769,484,0,0
-448,540,0,0,0,0,0,0,0,0,0,-1,776,484,0,0
-441,540,0,0,0,0,0,0,0,0,0,-1,783,484,0,0
-434,540,0,0,0,0,0,0,0,0,0,-1,790,484,0,0
-427,540,0,0,0,0,0,0,0,0,0,-1,797,484,0,0
-420,540,-1.60455,-6.24124,0,0,0,0,0,0,0,-1,804,484,-1.60457,6.24123
-413,540,-0.793945,-6.14838,0,0,0,0,0,0,0,-1,811,484,-0.793936,6.14839
-406,540,-0.0821533,-6.01089,0,0,0,0,0,0,0,-1,818,484,-0.0821245,6.0109
-399,540,0.651489,-5.85809,0,0,0,0,0,0,0,-1,825,484,0.651462,5.85809
-392,540,1.58423,-5.67072,0,0,0,0,0,0,0,-1,832,484,1.58425,5.67072
-385,540,1.2442,-4.01782,0,0,0,0,0,0,0,-1,839,484,1.24422,4.01782
-378,540,-3.828,-3.2016,0,0,0,0,0,0,0,-1,846,484,-3.82798,3.20159
-371,540,-0.0177002,-4.21246,0,0,0,0,0,0,0,-1,853,484,-0.0176722,4.21247
-364,540,0.814453,-7.64307,0,0,0,0,0,0,0,-1,860,484,0.814469,7.64307
-357,540,0.631165,-7.79346,0,0,0,0,0,0,0,-1,867,484,0.631189,7.79345
-350,540,0.604065,-8.07166,0.000322914,-0.00810716,0.0024733,0.000994975,-0.00877922,0.265321,0.00621109,0.0340579,874,484,0.604051,8.07165
-343,540,0.556763,-8.28986,0.000531133,-0.00707325,0.000731388,0.000600839,-0.00714296,0.0950191,0.00497436,0.0141396,881,484,0.55677,8.28986
-336,540,0.546936,-8.56479,0.000785918,-0.00587314,0.000314752,0.000800762,-0.00588799,0.0471266,0.00421766,0.0108682,888,484,0.546906,8.56479
-329,540,0.53479,-8.79834,0.00090979,-0.00477736,0.000150322,0.000913761,-0.00478133,0.0264074,0.00353177,0.00921781,895,484,0.534806,8.79832
-322,540,0.528564,-9.04489,0.000922693,-0.0037322,4.73855e-05,0.000923175,-0.00373268,0.0101783,0.00284652,0.0138446,902,484,0.528554,9.04488
-315,540,0.525208,-9.29163,0.000858409,-0.00269242,-4.4741e-05,0.000858973,-0.00269298,-0.0125975,0.0021399,0.0126641,909,484,0.525216,9.29162
-308,540,0.536865,-9.52094,0.000895924,-0.0018746,-0.000170464,0.000906373,-0.00188504,-0.06122,0.00164431,0.0117844,916,484,0.536895,9.52095
-301,540,0.542908,-9.74023,0.000939777,-0.00122471,-0.000213628,0.000960659,-0.00124559,-0.0974442,0.00127731,0.0120802,923,484,0.542879,9.74022
-294,540,0.533813,-9.96524,0.00102128,-0.000878082,-0.000166877,0.00103583,-0.000892633,-0.086972,0.00111442,0.0111064,930,484,0.533808,9.96524
-287,540,0.535583,-10.1943,0.00116888,-0.000880752,-0.000105221,0.00117426,-0.000886139,-0.0511573,0.00119344,0.00787795,937,484,0.535568,10.1943
-280,540,0.535278,-10.4216,0.00141623,-0.00124173,-7.91615e-05,0.00141858,-0.00124408,-0.0297477,0.00153839,0.00978704,944,484,0.535281,10.4216
-273,540,0.535522,-10.6326,0.00167556,-0.00177034,-8.55385e-05,0.00167768,-0.00177246,-0.0248029,0.00199219,0.0129171,951,484,0.535541,10.6326
-266,540,0.535889,-10.8445,0.00205909,-0.00231677,-0.000166133,0.00206539,-0.00232307,-0.0378932,0.00253513,0.0133894,958,484,0.535888,10.8445
-259,540,0.540649,-11.0576,0.00257899,-0.00304161,-0.000187985,0.00258527,-0.00304789,-0.0333959,0.00325596,0.0108345,965,484,0.540639,11.0576
-252,540,0.552185,-11.2506,0.00289927,-0.00405605,-0.000167021,0.00290328,-0.00406006,-0.023995,0.00403873,0.0110723,972,484,0.552201,11.2506
-245,540,0.5625,-11.4531,0.00288792,-0.00519844,0.000134278,0.00289014,-0.00520067,0.0165994,0.0047343,0.0119151,979,484,0.562526,11.4531
-238,540,0.542725,-11.6264,0.00265064,-0.00647737,0.000619566,0.0026925,-0.00651923,0.0674629,0.00546922,0.00861508,986,484,0.542755,11.6264
-231,540,0.534729,-11.813,0.00239419,-0.00763861,0.000992024,0.00249133,-0.00773576,0.0976186,0.00615796,0.0108937,993,484,0.534758,11.813
-224,540,0.556274,-11.9977,0.00168162,-0.0088953,0.00173749,0.00195972,-0.00917341,0.158717,0.00686276,0.0159097,1000,484,0.556264,11.9977
-217,540,0.562073,-12.2214,0.00061961,-0.0100902,0.00274448,0.00128195,-0.0107525,0.236806,0.00763166,0.0271124,1007,484,0.562103,12.2214
-210,540,0.699158,-12.4034,-0.00082755,-0.0111626,0.00397648,0.000525326,-0.0125155,0.327935,0.00852418,0.0447196,1014,484,0.69917,12.4033
-203,540,0.736816,-12.2487,-0.00207921,-0.0101807,0.00628186,0.00134469,-0.0136046,0.499032,0.00954956,0.0462823,1021,484,0.736804,12.2487
-196,540,0.408813,-12.3178,-0.00307175,-0.00735905,0.0100546,0.00506513,-0.0154959,0.68037,0.0123696,0.0458204,1028,484,0.408753,12.3178
-189,540,0.203125,-12.196,-0.00420729,-0.00443054,0.0138811,0.00956268,-0.0182005,0.781377,0.0162856,0.0481998,1035,484,0.203093,12.1961
-182,540,0.33606,-11.9593,0,0,0,0,0,0,0,-1,1042,484,0.336047,11.9593
-175,540,1.73413,-10.728,0,0,0,0,0,0,0,-1,1049,484,1.73414,10.728
-168,540,1.18164,-7.65347,0,0,0,0,0,0,0,-1,1056,484,1.18163,7.65347
-161,540,-1.31653,-9.93869,0,0,0,0,0,0,0,-1,1063,484,-1.31651,9.93868
-154,540,0.921631,-11.8871,0,0,0,0,0,0,0,-1,1070,484,0.921581,11.8871
-147,540,0.0668945,-15.2919,0,0,0,0,0,0,0,-1,1077,484,0.0669551,15.2919
-140,540,1.5946,-13.5928,0,0,0,0,0,0,0,-1,1084,484,1.59455,13.5928
-133,540,1.94531,-14.4299,0,0,0,0,0,0,0,-1,1091,484,1.94536,14.4299
-126,540,1.06201,-9.57385,0,0,0,0,0,0,0,-1,1098,484,1.06204,9.57385
-119,540,6.18579,-10.4846,0,0,0,0,0,0,0,-1,1105,484,6.18582,10.4846
-112,540,5.8468,-9.65106,0,0,0,0,0,0,0,-1,1112,484,5.84681,9.65106
-105,540,5.50781,-8.81754,0,0,0,0,0,0,0,-1,1119,484,5.5078,8.81753
-98,540,0.73877,-3.08093,0,0,0,0,0,0,0,-1,1126,484,0.738754,3.08092
-91,540,1.56519,-7.48666,0,0,0,0,0,0,0,-1,1133,484,1.56514,7.48667
-84,540,-0.945923,4.43073,0,0,0,0,0,0,0,-1,1140,484,-0.945891,-4.43074
-77,540,-2.28894,2.14368,0,0,0,0,0,0,0,-1,1147,484,-2.28894,-2.14368
-70,540,-3.75244,-0.452576,0,0,0,0,0,0,0,-1,1154,484,-3.75244,0.452576
-63,540,-5.26257,-3.04767,0,0,0,0,0,0,0,-1,1161,484,-5.26262,3.04766
-56,540,-5.19055,-6.12595,0,0,0,0,0,0,0,-1,1168,484,-5.19057,6.12595
-49,540,-5.63867,-8.52298,0,0,0,0,0,0,0,-1,1175,484,-5.63871,8.52298
-42,540,0,0,0,0,0,0,0,0,0,-1,1182,484,0,0
-35,540,0,0,0,0,0,0,0,0,0,-1,1189,484,0,0
-28,540,0,0,0,0,0,0,0,0,0,-1,1196,484,0,0
-21,540,0,0,0,0,0,0,0,0,0,-1,1203,484,0,0
-14,540,0,0,0,0,0,0,0,0,0,-1,1210,484,0,0
-7,540,0,0,0,0,0,0,0,0,0,-1,1217,484,0,0
0,540,0,0,0,0,0,0,0,0,0,-1,1224,484,0,0
7,540,0,0,0,0,0,0,0,0,0,-1,1231,484,0,0
14,540,0,0,0,0,0,0,0,0,0,-1,1238,484,0,0
21,540,0,0,0,0,0,0,0,0,0,-1,1245,484,0,0
28,540,0,0,0,0,0,0,0,0,0,-1,1252,484,0,0
35,540,0,0,0,0,0,0,0,0,0,-1,1259,484,0,0
42,540,0,0,0,0,0,0,0,0,0,-1,1266,484,0,0
49,540,0,0,0,0,0,0,0,0,0,-1,1273,484,0,0
56,540,0,0,0,0,0,0,0,0,0,-1,1280,484,0,0
63,540,0,0,0,0,0,0,0,0,0,-1,1287,484,0,0
70,540,0,0,0,0,0,0,0,0,0,-1,1294,484,0,0
77,540,0,0,0,0,0,0,0,0,0,-1,1301,484,0,0
84,540,0,0,0,0,0,0,0,0,0,-1,1308,484,0,0
91,540,0,0,0,0,0,0,0,0,0,-1,1315,484,0,0
98,540,0,0,0,0,0,0,0,0,0,-1,1322,484,0,0
105,540,0,0,0,0,0,0,0,0,0,-1,1329,484,0,0
112,540,0,0,0,0,0,0,0,0,0,-1,1336,484,0,0
119,540,0,0,0,0,0,0,0,0,0,-1,1343,484,0,0
126,540,0,0,0,0,0,0,0,0,0,-1,1350,484,0,0
133,540,0,0,0,0,0,0,0,0,0,-1,1357,484,0,0
140,540,0,0,0,0,0,0,0,0,0,-1,1364,484,0,0
147,540,0,0,0,0,0,0,0,0,0,-1,1371,484,0,0
154,540,0,0,0,0,0,0,0,0,0,-1,1378,484,0,0
161,540,0,0,0,0,0,0,0,0,0,-1,1385,484,0,0
168,540,3.05078,-0.0010376,0,0,0,0,0,0,0,-1,1392,484,3.05084,0.00102554
175,540,3.37708,0.617035,0,0,0,0,0,0,0,-1,1399,484,3.37707,-0.617046
182,540,3.32678,1.23267,0,0,0,0,0,0,0,-1,1406,484,3.32678,-1.23266
189,540,3.5813,2.15619,0,0,0,0,0,0,0,-1,1413,484,3.58129,-2.1562
196,540,1.84448,-0.801483,0,0,0,0,0,0,0,-1,1420,484,1.84446,0.80148
203,540,4.14648,0.702087,0,0,0,0,0,0,0,-1,1427,484,4.14645,-0.702089
210,540,4.50671,-0.56076,0,0,0,0,0,0,0,-1,1434,484,4.50667,0.560771
217,540,5.00452,-0.278717,0,0,0,0,0,0,0,-1,1441,484,5.00452,0.278709
224,540,6.44458,-2.83527,0,0,0,0,0,0,0,-1,1448,484,6.44457,2.83525
231,540,6.9231,-3.10504,0,0,0,0,0,0,0,-1,1455,484,6.92307,3.10505
238,540,6.4823,-2.58365,0,0,0,0,0,0,0,-1,1462,484,6.48225,2.58363
245,540,6.02087,-1.97916,0,0,0,0,0,0,0,-1,1469,484,6.02088,1.97915
252,540,6.50647,-3.56006,0,0,0,0,0,0,0,-1,1476,484,6.50649,3.56006
259,540,6.01941,-2.798,0,0,0,0,0,0,0,-1,1483,484,6.01941,2.79801
266,540,5.5332,-2.02853,0,0,0,0,0,0,0,-1,1490,484,5.53323,2.02855
273,540,5.06787,-1.28137,0,0,0,0,0,0,0,-1,1497,484,5.06786,1.28136
280,540,1.62903,-2.14609,0,0,0,0,0,0,0,-1,1504,484,1.62906,2.1461
287,540,1.97156,-2.45053,0,0,0,0,0,0,0,-1,1511,484,1.97159,2.45053
294,540,2.44165,-2.6185,0,0,0,0,0,0,0,-1,1518,484,2.44167,2.6185
301,540,4.36169,-2.54272,0,0,0,0,0,0,0,-1,1525,484,4.36165,2.54272
308,540,4.2019,-4.30469,0,0,0,0,0,0,0,-1,1532,484,4.20193,4.3047
315,540,4.45923,-5.32101,0,0,0,0,0,0,0,-1,1539,484,4.45923,5.32103
322,540,4.71655,-6.33737,0,0,0,0,0,0,0,-1,1546,484,4.71653,6.33736
329,540,5.34192,-11.1168,0,0,0,0,0,0,0,-1,1553,484,5.34197,11.1167
336,540,5.46533,-11.5322,0,0,0,0,0,0,0,-1,1560,484,5.46535,11.5322
343,540,5.30212,-11.4486,0,0,0,0,0,0,0,-1,1567,484,5.30218,11.4486
350,540,5.08582,-11.2206,0,0,0,0,0,0,0,-1,1574,484,5.0858,11.2207
357,540,5.18115,-10.6819,-0.00412366,-0.00969547,-0.00534432,-0.000882707,-0.0129364,-0.545134,0.00834562,0.0442169,1581,484,5.18117,10.6818
364,540,5.01648,-10.5593,-0.00375008,-0.00937831,-0.00457251,-0.00119511,-0.0119333,-0.50955,0.00758858,0.0240509,1588,484,5.01648,10.5593
371,540,5.01587,-10.3803,-0.0032592,-0.00886057,-0.00382761,-0.00131705,-0.0108027,-0.469553,0.00680541,0.0156831,1595,484,5.01592,10.3803
378,540,5.06091,-10.1554,-0.00275292,-0.007916,-0.00316852,-0.00124742,-0.0094215,-0.443564,0.00590925,0.0125738,1602,484,5.06088,10.1554
385,540,5.04956,-9.93839,-0.00243155,-0.00699331,-0.00271391,-0.00116733,-0.00825752,-0.435939,0.00516011,0.0132808,1609,484,5.04952,9.93837
392,540,5.04858,-9.71753,-0.0021162,-0.00601129,-0.00222136,-0.00110953,-0.00701796,-0.425492,0.00435616,0.0120083,1616,484,5.04854,9.71754
399,540,5.0387,-9.47137,-0.0017048,-0.00499108,-0.00185523,-0.000869682,-0.0058262,-0.422974,0.00362914,0.0165019,1623,484,5.03867,9.47137
406,540,5.05933,-9.23978,-0.00122218,-0.00394035,-0.00144971,-0.000594114,-0.00456841,-0.408825,0.00286816,0.0161559,1630,484,5.05936,9.23978
413,540,5.06763,-8.99829,-0.000694026,-0.00283763,-0.000963945,-0.000324319,-0.00320734,-0.366233,0.00203874,0.0113225,1637,484,5.06768,8.99829
420,540,5.078,-8.73022,-0.000168333,-0.00199244,-0.000470044,-5.43348e-05,-0.00210644,-0.237934,0.00138653,0.0109141,1644,484,5.07802,8.73024
427,540,5.06458,-8.49234,0.000377947,-0.00128126,0.000111672,0.000385429,-0.00128875,0.0669021,0.0010124,0.0128091,1651,484,5.06454,8.49234
434,540,5.04248,-8.24802,0.000962585,-0.000862023,0.000688887,0.00119346,-0.0010929,0.323381,0.00132046,0.0157032,1658,484,5.04243,8.24803
441,540,5.0769,-7.97891,0.00159833,-0.000572486,0.00129525,0.00220282,-0.00117698,0.436657,0.00198107,0.0185155,1665,484,5.07684,7.9789
448,540,5.08374,-7.74118,0.00209605,-0.000512148,0.00194123,0.00313056,-0.00154665,0.489628,0.00275152,0.0117334,1672,484,5.08375,7.74118
455,540,5.06836,-7.48865,0.002409,-0.000710942,0.00247764,0.00377686,-0.0020788,0.504441,0.00342782,0.0102876,1679,484,5.06832,7.48865
462,540,5.02881,-7.20093,0.00265778,-0.0011618,0.00260351,0.00397686,-0.00248087,0.468955,0.00376157,0.0102854,1686,484,5.02877,7.20092
469,540,5.01514,-6.9411,0.0029054,-0.00193303,0.00229657,0.00382187,-0.00284951,0.379699,0.00386534,0.0137094,1693,484,5.01511,6.94112
476,540,5.01062,-6.75674,0.00283404,-0.00272991,0.00182149,0.00337731,-0.00327317,0.289852,0.00383981,0.021406,1700,484,5.01057,6.75674
483,540,5.05933,-6.5517,0.00245805,-0.00360096,0.00080748,0.00256381,-0.00370673,0.130241,0.00364029,0.0379976,1707,484,5.05929,6.55169
490,540,5.24121,-6.45886,0,0,0,0,0,0,0,-1,1714,484,5.24125,6.45886
497,540,4.27393,-2.67752,0,0,0,0,0,0,0,-1,1721,484,4.27395,2.67751
504,540,5.52747,-4.4433,0,0,0,0,0,0,0,-1,1728,484,5.5275,4.44329
511,540,3.93787,-6.59586,0,0,0,0,0,0,0,-1,1735,484,3.93781,6.59585
518,540,5.02942,-4.97449,0,0,0,0,0,0,0,-1,1742,484,5.02936,4.97449
525,540,6.24841,-3.39841,0,0,0,0,0,0,0,-1,1749,484,6.24847,3.39839
532,540,2.84265,-1.07925,0,0,0,0,0,0,0,-1,1756,484,2.84269,1.07927
539,540,0,0,0,0,0,0,0,0,0,-1,1763,484,0,0
546,540,0,0,0,0,0,0,0,0,0,-1,1770,484,0,0
553,540,0,0,0,0,0,0,0,0,0,-1,1777,484,0,0
560,540,0,0,0,0,0,0,0,0,0,-1,1784,484,0,0
567,540,0,0,0,0,0,0,0,0,0,-1,1791,484,0,0
574,540,0,0,0,0,0,0,0,0,0,-1,1798,484,0,0
581,540,0,0,0,0,0,0,0,0,0,-1,1805,484,0,0
588,540,0,0,0,0,0,0,0,0,0,-1,1812,484,0,0
595,540,0,0,0,0,0,0,0,0,0,-1,1819,484,0,0
602,540,0,0,0,0,0,0,0,0,0,-1,1826,484,0,0
609,540,0,0,0,0,0,0,0,0,0,-1,1833,484,0,0
616,540,0,0,0,0,0,0,0,0,0,-1,1840,484,0,0
623,540,0,0,0,0,0,0,0,0,0,-1,1847,484,0,0
630,540,0,0,0,0,0,0,0,0,0,-1,1854,484,0,0
637,540,0,0,0,0,0,0,0,0,0,-1,1861,484,0,0
644,540,0,0,0,0,0,0,0,0,0,-1,1868,484,0,0
651,540,0,0,0,0,0,0,0,0,0,-1,1875,484,0,0
658,540,0,0,0,0,0,0,0,0,0,-1,1882,484,0,0
665,540,0,0,0,0,0,0,0,0,0,-1,1889,484,0,0
672,540,0,0,0,0,0,0,0,0,0,-1,1896,484,0,0
679,540,0,0,0,0,0,0,0,0,0,-1,1903,484,0,0
686,540,0,0,0,0,0,0,0,0,0,-1,1910,484,0,0
693,540,0,0,0,0,0,0,0,0,0,-1,1917,484,0,0
700,540,0,0,0,0,0,0,0,0,0,-1,1924,484,0,0
707,540,0,0,0,0,0,0,0,0,0,-1,1931,484,0,0
714,540,0,0,0,0,0,0,0,0,0,-1,1938,484,0,0
721,540,0,0,0,0,0,0,0,0,0,-1,1945,484,0,0
728,540,0,0,0,0,0,0,0,0,0,-1,1952,484,0,0
735,540,0,0,0,0,0,0,0,0,0,-1,1959,484,0,0
742,540,0,0,0,0,0,0,0,0,0,-1,1966,484,0,0
749,540,0,0,0,0,0,0,0,0,0,-1,1973,484,0,0
756,540,0,0,0,0,0,0,0,0,0,-1,1980,484,0,0
763,540,0,0,0,0,0,0,0,0,0,-1,1987,484,0,0
770,540,0,0,0,0,0,0,0,0,0,-1,1994,484,0,0
777,540,0,0,0,0,0,0,0,0,0,-1,2001,484,0,0
784,540,0,0,0,0,0,0,0,0,0,-1,2008,484,0,0
791,540,0,0,0,0,0,0,0,0,0,-1,2015,484,0,0
798,540,0,0,0,0,0,0,0,0,0,-1,2022,484,0,0
805,540,0,0,0,0,0,0,0,0,0,-1,2029,484,0,0
812,540,0,0,0,0,0,0,0,0,0,-1,2036,484,0,0
-700,533,0,0,0,0,0,0,0,0,0,-1,524,491,0,0
-693,533,0,0,0,0,0,0,0,0,0,-1,531,491,0,0
-686,533,0,0,0,0,0,0,0,0,0,-1,538,491,0,0
-679,533,0,0,0,0,0,0,0,0,0,-1,545,491,0,0
-672,533,0,0,0,0,0,0,0,0,0,-1,552,491,0,0
-665,533,0,0,0,0,0,0,0,0,0,-1,559,491,0,0
-658,533,0,0,0,0,0,0,0,0,0,-1,566,491,0,0
-651,533,0,0,0,0,0,0,0,0,0,-1,573,491,0,0
-644,533,0,0,0,0,0,0,0,0,0,-1,580,491,0,0
-637,533,0,0,0,0,0,0,0,0,0,-1,587,491,0,0
-630,533,0,0,0,0,0,0,0,0,0,-1,594,491,0,0
-623,533,0,0,0,0,0,0,0,0,0,-1,601,491,0,0
-616,533,0,0,0,0,0,0,0,0,0,-1,608,491,0,0
-609,533,0,0,0,0,0,0,0,0,0,-1,615,491,0,0
-602,533,0,0,0,0,0,0,0,0,0,-1,622,491,0,0
-595,533,0,0,0,0,0,0,0,0,0,-1,629,491,0,0
-588,533,0,0,0,0,0,0,0,0,0,-1,636,491,0,0
-581,533,0,0,0,0,0,0,0,0,0,-1,643,491,0,0
-574,533,0,0,0,0,0,0,0,0,0,-1,650,491,0,0
-567,533,0,0,0,0,0,0,0,0,0,-1,657,491,0,0
-560,533,0,0,0,0,0,0,0,0,0,-1,664,491,0,0
-553,533,0,0,0,0,0,0,0,0,0,-1,671,491,0,0
-546,533,0,0,0,0,0,0,0,0,0,-1,678,491,0,0
-539,533,0,0,0,0,0,0,0,0,0,-1,685,491,0,0
-532,533,0,0,0,0,0,0,0,0,0,-1,692,491,0,0
-525,533,0,0,0,0,0,0,0,0,0,-1,699,491,0,0
-518,533,0,0,0,0,0,0,0,0,0,-1,706,491,0,0
-511,533,0,0,0,0,0,0,0,0,0,-1,713,491,0,0
-504,533,0,0,0,0,0,0,0,0,0,-1,720,491,0,0
-497,533,0,0,0,0,0,0,0,0,0,-1,727,491,0,0
-490,533,0,0,0,0,0,0,0,0,0,-1,734,491,0,0
-483,533,0,0,0,0,0,0,0,0,0,-1,741,491,0,0
-476,533,0,0,0,0,0,0,0,0,0,-1,748,491,0,0
-469,533,0,0,0,0,0,0,0,0,0,-1,755,491,0,0
-462,533,0,0,0,0,0,0,0,0,0,-1,762,491,0,0
-455,533,0,0,0,0,0,0,0,0,0,-1,769,491,0,0
-448,533,0,0,0,0,0,0,0,0,0,-1,776,491,0,0
-441,533,0,0,0,0,0,0,0,0,0,-1,783,491,0,0
-434,533,0,0,0,0,0,0,0,0,0,-1,790,491,0,0
-427,533,-1.67474,-5.60538,0,0,0,0,0,0,0,-1,797,491,-1.67473,5.60539
-420,533,-1.35437,-5.75763,0,0,0,0,0,0,0,-1,804,491,-1.35439,5.75763
-413,533,-0.617004,-5.81683,0,0,0,0,0,0,0,-1,811,491,-0.617024,5.81684
-406,533,0.76532,-8.01389,0,0,0,0,0,0,0,-1,818,491,0.765295,8.01389
-399,533,1.49323,-5.71405,0,0,0,0,0,0,0,-1,825,491,1.49324,5.71405
-392,533,2.41144,-5.43213,0,0,0,0,0,0,0,-1,832,491,2.41144,5.43214
-385,533,0.191895,-4.85858,0,0,0,0,0,0,0,-1,839,491,0.191883,4.85857
-378,533,-0.761414,-5.15549,0,0,0,0,0,0,0,-1,846,491,-0.761387,5.15549
-371,533,0.0949707,-7.40976,0,0,0,0,0,0,0,-1,853,491,0.0949447,7.40976
-364,533,0.524597,-7.59982,-0.000333297,-0.00598528,0.00523016,0.00278552,-0.0091041,0.537705,0.00718033,0.0403735,860,491,0.524579,7.59984
-357,533,0.421875,-7.83636,-5.41645e-05,-0.00592069,0.00327494,0.00140908,-0.00738393,0.420189,0.00545334,0.0257342,867,491,0.421874,7.83637
-350,533,0.349121,-8.04437,8.73363e-05,-0.00560244,0.00199059,0.000714598,-0.00622971,0.305264,0.00441067,0.0110428,874,491,0.3491,8.04437
-343,533,0.345825,-8.32736,0.000282761,-0.004983,0.000350603,0.000306002,-0.00500624,0.0661922,0.00344403,0.0101594,881,491,0.345801,8.32737
-336,533,0.31073,-8.5994,0.000487295,-0.00419553,2.58156e-05,0.000487437,-0.00419567,0.0055126,0.00297294,0.0133933,888,491,0.310703,8.5994
-329,533,0.306763,-8.81659,0.000635179,-0.00342584,-7.87269e-05,0.000636704,-0.00342737,-0.0193763,0.00252406,0.0128859,895,491,0.306789,8.8166
-322,533,0.301697,-9.05072,0.000683128,-0.00267081,-0.000110549,0.000686768,-0.00267445,-0.0329135,0.00205059,0.0112025,902,491,0.30172,9.05072
-315,533,0.30658,-9.28958,0.000672863,-0.00188625,-0.000118227,0.000678314,-0.0018917,-0.0460677,0.00153793,0.0124402,909,491,0.306565,9.28958
-308,533,0.308716,-9.51846,0.000774267,-0.00130536,-0.000151246,0.000785209,-0.0013163,-0.0722211,0.00122615,0.0120222,916,491,0.308693,9.51845
-301,533,0.289063,-9.74048,0.000891203,-0.000866244,-0.00011434,0.000898611,-0.000873652,-0.0646967,0.00102325,0.0129375,923,491,0.289076,9.74047
-294,533,0.302612,-9.96643,0.00106473,-0.000719734,9.69169e-06,0.00106479,-0.000719787,0.00543092,0.00103672,0.0113753,930,491,0.302623,9.96643
-287,533,0.304932,-10.196,0.00133932,-0.000979473,0.000128419,0.00134641,-0.000986563,0.0551569,0.00135227,0.00847954,937,491,0.304953,10.196
-280,533,0.308228,-10.4202,0.00175359,-0.00167072,0.000141279,0.00175941,-0.00167654,0.0411643,0.00198394,0.00841305,944,491,0.308199,10.4202
-273,533,0.321106,-10.632,0.00217184,-0.00243504,8.65207e-05,0.00217346,-0.00243666,0.018772,0.0026631,0.0121026,951,491,0.321084,10.632
-266,533,0.332825,-10.8392,0.0027365,-0.00321943,-4.38263e-06,0.0027365,-0.00321944,-0.000735843,0.00344243,0.0114347,958,491,0.332804,10.8392
-259,533,0.342957,-11.0497,0.00349213,-0.0041887,-0.000110325,0.00349372,-0.00419029,-0.0143597,0.00444243,0.0111055,965,491,0.342927,11.0497
-252,533,0.3396,-11.2401,0.00395238,-0.00551951,-0.000173821,0.00395557,-0.00552269,-0.0183431,0.00549715,0.0137255,972,491,0.339603,11.24
-245,533,0.40802,-11.4167,0.00393642,-0.00703348,0.000117646,0.00393768,-0.00703475,0.0107228,0.0064185,0.020018,979,491,0.408046,11.4167
-238,533,0.384949,-11.5183,0.00365943,-0.00855018,0.000565481,0.00368556,-0.00857632,0.0461826,0.00726468,0.0206001,986,491,0.384964,11.5183
-231,533,0.498779,-11.6907,0.00333088,-0.0100666,0.000953466,0.00339839,-0.0101342,0.0706925,0.00812923,0.0278114,993,491,0.49877,11.6907
-224,533,0.493896,-11.9445,0.00228263,-0.0117021,0.0018382,0.00252021,-0.0119397,0.128535,0.00891934,0.0363067,1000,491,0.493907,11.9445
-217,533,0.483215,-12.3285,0.000760529,-0.0132229,0.00311712,0.00142391,-0.0138863,0.20969,0.00976683,0.0461112,1007,491,0.48324,12.3285
-210,533,0.57373,-12.4401,0,0,0,0,0,0,0,-1,1014,491,0.57376,12.4401
-203,533,0.630432,-12.1779,0,0,0,0,0,0,0,-1,1021,491,0.63044,12.1779
-196,533,-0.179688,-12.2691,0,0,0,0,0,0,0,-1,1028,491,-0.179674,12.2691
-189,533,0.143921,-12.2712,0,0,0,0,0,0,0,-1,1035,491,0.14387,12.2712
-182,533,1.26123,-11.4969,0,0,0,0,0,0,0,-1,1042,491,1.26128,11.4969
-175,533,0.937744,-7.36966,0,0,0,0,0,0,0,-1,1049,491,0.937769,7.36965
-168,533,2.64807,-2.7543,0,0,0,0,0,0,0,-1,1056,491,2.64812,2.7543
-161,533,1.91833,-1.76553,0,0,0,0,0,0,0,-1,1063,491,1.91836,1.76554
-154,533,-1.24805,-5.92294,0,0,0,0,0,0,0,-1,1070,491,-1.24806,5.92295
-147,533,0.383789,-12.1586,0,0,0,0,0,0,0,-1,1077,491,0.383829,12.1586
-140,533,1.1853,-13.7035,0,0,0,0,0,0,0,-1,1084,491,1.18525,13.7035
-133,533,1.23474,-8.92532,0,0,0,0,0,0,0,-1,1091,491,1.2347,8.92532
-126,533,2.89612,-2.59003,0,0,0,0,0,0,0,-1,1098,491,2.89608,2.59003
-119,533,3.00842,-12.8239,0,0,0,0,0,0,0,-1,1105,491,3.00841,12.8239
-112,533,7.05884,-10.21,0,0,0,0,0,0,0,-1,1112,491,7.0588,10.21
-105,533,3.84839,1.12769,0,0,0,0,0,0,0,-1,1119,491,3.84843,-1.12769
-98,533,-1.39392,-5.16367,0,0,0,0,0,0,0,-1,1126,491,-1.39394,5.16367
-91,533,0.367432,4.49753,0,0,0,0,0,0,0,-1,1133,491,0.367468,-4.49754
-84,533,-0.88623,3.03604,0,0,0,0,0,0,0,-1,1140,491,-0.886288,-3.03605
-77,533,0,0,0,0,0,0,0,0,0,-1,1147,491,0,0
-70,533,0,0,0,0,0,0,0,0,0,-1,1154,491,0,0
-63,533,0,0,0,0,0,0,0,0,0,-1,1161,491,0,0
-56,533,0,0,0,0,0,0,0,0,0,-1,1168,491,0,0
-49,533,0,0,0,0,0,0,0,0,0,-1,1175,491,0,0
-42,533,0,0,0,0,0,0,0,0,0,-1,1182,491,0,0
-35,533,0,0,0,0,0,0,0,0,0,-1,1189,491,0,0
-28,533,0,0,0,0,0,0,0,0,0,-1,1196,491,0,0
-21,533,0,0,0,0,0,0,0,0,0,-1,1203,491,0,0
-14,533,0,0,0,0,0,0,0,0,0,-1,1210,491,0,0
-7,533,0,0,0,0,0,0,0,0,0,-1,1217,491,0,0
0,533,0,0,0,0,0,0,0,0,0,-1,1224,491,0,0
7,533,0,0,0,0,0,0,0,0,0,-1,1231,491,0,0
14,533,0,0,0,0,0,0,0,0,0,-1,1238,491,0,0
21,533,0,0,0,0,0,0,0,0,0,-1,1245,491,0,0
28,533,0,0,0,0,0,0,0,0,0,-1,1252,491,0,0
35,533,0,0,0,0,0,0,0,0,0,-1,1259,491,0,0
42,533,0,0,0,0,0,0,0,0,0,-1,1266,491,0,0
49,533,0,0,0,0,0,0,0,0,0,-1,1273,491,0,0
56,533,0,0,0,0,0,0,0,0,0,-1,1280,491,0,0
63,533,0,0,0,0,0,0,0,0,0,-1,1287,491,0,0
70,533,0,0,0,0,0,0,0,0,0,-1,1294,491,0,0
77,533,0,0,0,0,0,0,0,0,0,-1,1301,491,0,0
84,533,0,0,0,0,0,0,0,0,0,-1,1308,491,0,0
91,533,0,0,0,0,0,0,0,0,0,-1,1315,491,0,0
98,533,0,0,0,0,0,0,0,0,0,-1,1322,491,0,0
105,533,0,0,0,0,0,0,0,0,0,-1,1329,491,0,0
112,533,0,0,0,0,0,0,0,0,0,-1,1336,491,0,0
119,533,0,0,0,0,0,0,0,0,0,-1,1343,491,0,0
126,533,0,0,0,0,0,0,0,0,0,-1,1350,491,0,0
133,533,0,0,0,0,0,0,0,0,0,-1,1357,491,0,0
140,533,0,0,0,0,0,0,0,0,0,-1,1364,491,0,0
147,533,0,0,0,0,0,0,0,0,0,-1,1371,491,0,0
154,533,0,0,0,0,0,0,0,0,0,-1,1378,491,0,0
161,533,0,0,0,0,0,0,0,0,0,-1,1385,491,0,0
168,533,0,0,0,0,0,0,0,0,0,-1,1392,491,0,0
175,533,0,0,0,0,0,0,0,0,0,-1,1399,491,0,0
182,533,0,0,0,0,0,0,0,0,0,-1,1406,491,0,0
189,533,0,0,0,0,0,0,0,0,0,-1,1413,491,0,0
196,533,0,0,0,0,0,0,0,0,0,-1,1420,491,0,0
203,533,3.7887,1.16193,0,0,0,0,0,0,0,-1,1427,491,3.78872,-1.16193
210,533,5.09558,-0.216034,0,0,0,0,0,0,0,-1,1434,491,5.09559,0.216028
217,533,6.91614,-2.46814,0,0,0,0,0,0,0,-1,1441,491,6.91618,2.46814
224,533,7.23621,-2.1857,0,0,0,0,0,0,0,-1,1448,491,7.23621,2.1857
231,533,7.23474,-1.92282,0,0,0,0,0,0,0,-1,1455,491,7.2347,1.92282
238,533,7.23535,-1.67258,0,0,0,0,0,0,0,-1,1462,491,7.23539,1.67258
245,533,6.86682,-1.2301,0,0,0,0,0,0,0,-1,1469,491,6.86686,1.23011
252,533,6.63354,-3.07825,0,0,0,0,0,0,0,-1,1476,491,6.6335,3.07824
259,533,6.16431,-2.35037,0,0,0,0,0,0,0,-1,1483,491,6.1643,2.35037
266,533,5.68884,-1.6214,0,0,0,0,0,0,0,-1,1490,491,5.68885,1.6214
273,533,5.21399,-0.864227,0,0,0,0,0,0,0,-1,1497,491,5.21403,0.864227
280,533,1.41089,-1.97946,0,0,0,0,0,0,0,-1,1504,491,1.41087,1.97946
287,533,1.6814,-2.44443,0,0,0,0,0,0,0,-1,1511,491,1.6814,2.44444
294,533,2.2384,-2.57626,0,0,0,0,0,0,0,-1,1518,491,2.23839,2.57625
301,533,3.39941,-4.0817,0,0,0,0,0,0,0,-1,1525,491,3.3994,4.08171
308,533,4.13733,-4.14752,0,0,0,0,0,0,0,-1,1532,491,4.13727,4.14752
315,533,4.80762,-5.29349,0,0,0,0,0,0,0,-1,1539,491,4.80762,5.29347
322,533,5.47803,-6.43942,0,0,0,0,0,0,0,-1,1546,491,5.47798,6.43943
329,533,3.88477,-3.86301,0,0,0,0,0,0,0,-1,1553,491,3.88475,3.86299
336,533,5.38025,-10.9773,0,0,0,0,0,0,0,-1,1560,491,5.38027,10.9773
343,533,5.87952,-6.38858,0,0,0,0,0,0,0,-1,1567,491,5.87953,6.38857
350,533,5.62915,-8.02426,0,0,0,0,0,0,0,-1,1574,491,5.6291,8.02426
357,533,5.42932,-10.5517,0,0,0,0,0,0,0,-1,1581,491,5.42926,10.5517
364,533,5.29871,-10.5238,0,0,0,0,0,0,0,-1,1588,491,5.29865,10.5238
371,533,5.2113,-10.4152,0,0,0,0,0,0,0,-1,1595,491,5.21127,10.4152
378,533,5.22791,-10.1615,-0.00419126,-0.0120094,-0.00440333,-0.0022122,-0.0139885,-0.422394,0.00868271,0.0273523,1602,491,5.22794,10.1615
385,533,5.28992,-9.90292,-0.00369865,-0.0105822,-0.00387365,-0.00195862,-0.0123222,-0.422183,0.00764602,0.0241383,1609,491,5.2899,9.90291
392,533,5.29675,-9.70789,-0.00327335,-0.00906694,-0.00329292,-0.0017844,-0.0105559,-0.424654,0.00652431,0.0138591,1616,491,5.29678,9.70788
399,533,5.31775,-9.4935,-0.00277425,-0.0075361,-0.00287754,-0.00142033,-0.00889001,-0.439779,0.00551454,0.0123399,1623,491,5.31776,9.49351
406,533,5.33618,-9.25424,-0.00220498,-0.00595596,-0.00246413,-0.00098379,-0.00717715,-0.46011,0.00449288,0.0145372,1630,491,5.33622,9.25424
413,533,5.32373,-8.9859,-0.00155634,-0.00438477,-0.00191338,-0.00059126,-0.00534985,-0.467148,0.00338673,0.0117764,1637,491,5.32376,8.98589
420,533,5.30066,-8.72867,-0.00097571,-0.00313742,-0.00137172,-0.000310175,-0.00380295,-0.451722,0.00243849,0.0114298,1644,491,5.30071,8.72867
427,533,5.32727,-8.47272,-0.000419907,-0.00211026,-0.000766926,-0.000123812,-0.00240635,-0.368449,0.0015646,0.0128058,1651,491,5.32729,8.47273
434,533,5.31238,-8.23248,0.00014653,-0.00142068,-0.000176994,0.00016627,-0.00144042,-0.111072,0.00102023,0.0120276,1658,491,5.31241,8.23247
441,533,5.3092,-7.98849,0.000779806,-0.000843159,0.000409737,0.000877382,-0.000940735,0.23379,0.0010499,0.0145564,1665,491,5.30916,7.9885
448,533,5.33289,-7.74951,0.00126985,-0.000570419,0.00105276,0.00174791,-0.00104848,0.42626,0.00163124,0.0166238,1672,491,5.33284,7.74951
455,533,5.31653,-7.48352,0.00157015,-0.000614958,0.00158311,0.00240111,-0.00144592,0.483362,0.00224379,0.0158222,1679,491,5.31656,7.48351
462,533,5.28186,-7.16199,0.00181922,-0.000978506,0.00169649,0.00261919,-0.00177848,0.440629,0.00255442,0.0137533,1686,491,5.28186,7.162
469,533,5.28174,-6.927,0.00203705,-0.00169904,0.00138288,0.00249322,-0.0021552,0.318626,0.00268613,0.00945805,1693,491,5.28171,6.92699
476,533,5.29858,-6.68063,0.00191925,-0.00243177,0.000934323,0.0021114,-0.00262392,0.202827,0.00273927,0.0109504,1700,491,5.29858,6.68063
483,533,5.33008,-6.39612,0.00151041,-0.00315279,4.59783e-05,0.00151086,-0.00315324,0.00985854,0.00274791,0.0196173,1707,491,5.33004,6.39611
490,533,5.42725,-6.29556,0.000713719,-0.0043194,-0.00143125,0.00109225,-0.00469793,-0.258555,0.00355246,0.0449937,1714,491,5.42724,6.29557
497,533,5.57373,-6.20554,0,0,0,0,0,0,0,-1,1721,491,5.5737,6.20553
504,533,5.14185,-5.52057,0,0,0,0,0,0,0,-1,1728,491,5.14182,5.52058
511,533,4.52039,-6.00626,0,0,0,0,0,0,0,-1,1735,491,4.52044,6.00625
518,533,4.75793,-5.53223,0,0,0,0,0,0,0,-1,1742,491,4.75795,5.53222
525,533,5.23621,-4.73557,0,0,0,0,0,0,0,-1,1749,491,5.23621,4.73556
532,533,3.24243,0.0737,0,0,0,0,0,0,0,-1,1756,491,3.24239,-0.0737072
539,533,3.61609,1.62427,0,0,0,0,0,0,0,-1,1763,491,3.61606,-1.62426
546,533,3.59607,1.65799,0,0,0,0,0,0,0,-1,1770,491,3.59605,-1.658
553,533,0,0,0,0,0,0,0,0,0,-1,1777,491,0,0
560,533,0,0,0,0,0,0,0,0,0,-1,1784,491,0,0
567,533,0,0,0,0,0,0,0,0,0,-1,1791,491,0,0
574,533,0,0,0,0,0,0,0,0,0,-1,1798,491,0,0
581,533,0,0,0,0,0,0,0,0,0,-1,1805,491,0,0
588,533,0,0,0,0,0,0,0,0,0,-1,1812,491,0,0
595,533,0,0,0,0,0,0,0,0,0,-1,1819,491,0,0
602,533,0,0,0,0,0,0,0,0,0,-1,1826,491,0,0
609,533,0,0,0,0,0,0,0,0,0,-1,1833,491,0,0
616,533,0,0,0,0,0,0,0,0,0,-1,1840,491,0,0
623,533,0,0,0,0,0,0,0,0,0,-1,1847,491,0,0
630,533,0,0,0,0,0,0,0,0,0,-1,1854,491,0,0
637,533,0,0,0,0,0,0,0,0,0,-1,1861,491,0,0
644,533,0,0,0,0,0,0,0,0,0,-1,1868,491,0,0
651,533,0,0,0,0,0,0,0,0,0,-1,1875,491,0,0
658,533,0,0,0,0,0,0,0,0,0,-1,1882,491,0,0
665,533,0,0,0,0,0,0,0,0,0,-1,1889,491,0,0
672,533,0,0,0,0,0,0,0,0,0,-1,1896,491,0,0
679,533,0,0,0,0,0,0,0,0,0,-1,1903,491,0,0
686,533,0,0,0,0,0,0,0,0,0,-1,1910,491,0,0
693,533,0,0,0,0,0,0,0,0,0,-1,1917,491,0,0
700,533,0,0,0,0,0,0,0,0,0,-1,1924,491,0,0
707,533,0,0,0,0,0,0,0,0,0,-1,1931,491,0,0
714,533,0,0,0,0,0,0,0,0,0,-1,1938,491,0,0
721,533,0,0,0,0,0,0,0,0,0,-1,1945,491,0,0
728,533,0,0,0,0,0,0,0,0,0,-1,1952,491,0,0
735,533,0,0,0,0,0,0,0,0,0,-1,1959,491,0,0
742,533,0,0,0,0,0,0,0,0,0,-1,1966,491,0,0
749,533,0,0,0,0,0,0,0,0,0,-1,1973,491,0,0
756,533,0,0,0,0,0,0,0,0,0,-1,1980,491,0,0
763,533,0,0,0,0,0,0,0,0,0,-1,1987,491,0,0
770,533,0,0,0,0,0,0,0,0,0,-1,1994,491,0,0
777,533,0,0,0,0,0,0,0,0,0,-1,2001,491,0,0
784,533,0,0,0,0,0,0,0,0,0,-1,2008,491,0,0
791,533,0,0,0,0,0,0,0,0,0,-1,2015,491,0,0
798,533,0,0,0,0,0,0,0,0,0,-1,2022,491,0,0
805,533,0,0,0,0,0,0,0,0,0,-1,2029,491,0,0
812,533,0,0,0,0,0,0,0,0,0,-1,2036,491,0,0
-700,526,0,0,0,0,0,0,0,0,0,-1,524,498,0,0
-693,526,0,0,0,0,0,0,0,0,0,-1,531,498,0,0
-686,526,0,0,0,0,0,0,0,0,0,-1,538,498,0,0
-679,526,0,0,0,0,0,0,0,0,0,-1,545,498,0,0
-672,526,0,0,0,0,0,0,0,0,0,-1,552,498,0,0
-665,526,0,0,0,0,0,0,0,0,0,-1,559,498,0,0
-658,526,0,0,0,0,0,0,0,0,0,-1,566,498,0,0
-651,526,0,0,0,0,0,0,0,0,0,-1,573,498,0,0
-644,526,0,0,0,0,0,0,0,0,0,-1,580,498,0,0
-637,526,0,0,0,0,0,0,0,0,0,-1,587,498,0,0
-630,526,0,0,0,0,0,0,0,0,0,-1,594,498,0,0
-623,526,0,0,0,0,0,0,0,0,0,-1,601,498,0,0
-616,526,0,0,0,0,0,0,0,0,0,-1,608,498,0,0
-609,526,0,0,0,0,0,0,0,0,0,-1,615,498,0,0
-602,526,0,0,0,0,0,0,0,0,0,-1,622,498,0,0
-595,526,0,0,0,0,0,0,0,0,0,-1,629,498,0,0
-588,526,0,0,0,0,0,0,0,0,0,-1,636,498,0,0
-581,526,0,0,0,0,0,0,0,0,0,-1,643,498,0,0
-574,526,0,0,0,0,0,0,0,0,0,-1,650,498,0,0
-567,526,0,0,0,0,0,0,0,0,0,-1,657,498,0,0
-560,526,0,0,0,0,0,0,0,0,0,-1,664,498,0,0
-553,526,0,0,0,0,0,0,0,0,0,-1,671,498,0,0
-546,526,0,0,0,0,0,0,0,0,0,-1,678,498,0,0
-539,526,0,0,0,0,0,0,0,0,0,-1,685,498,0,0
-532,526,0,0,0,0,0,0,0,0,0,-1,692,498,0,0
-525,526,0,0,0,0,0,0,0,0,0,-1,699,498,0,0
-518,526,0,0,0,0,0,0,0,0,0,-1,706,498,0,0
-511,526,0,0,0,0,0,0,0,0,0,-1,713,498,0,0
-504,526,0,0,0,0,0,0,0,0,0,-1,720,498,0,0
-497,526,0,0,0,0,0,0,0,0,0,-1,727,498,0,0
-490,526,0,0,0,0,0,0,0,0,0,-1,734,498,0,0
-483,526,0,0,0,0,0,0,0,0,0,-1,741,498,0,0
-476,526,0,0,0,0,0,0,0,0,0,-1,748,498,0,0
-469,526,0,0,0,0,0,0,0,0,0,-1,755,498,0,0
-462,526,0,0,0,0,0,0,0,0,0,-1,762,498,0,0
-455,526,0,0,0,0,0,0,0,0,0,-1,769,498,0,0
-448,526,0,0,0,0,0,0,0,0,0,-1,776,498,0,0
-441,526,0,0,0,0,0,0,0,0,0,-1,783,498,0,0
-434,526,-1.56085,-4.98352,0,0,0,0,0,0,0,-1,790,498,-1.56087,4.98351
-427,526,-1.31689,-5.00308,0,0,0,0,0,0,0,-1,797,498,-1.31692,5.00307
-420,526,-1.13147,-5.33841,0,0,0,0,0,0,0,-1,804,498,-1.13147,5.33839
-413,526,1.00775,-7.75235,0,0,0,0,0,0,0,-1,811,498,1.00775,7.75234
-406,526,0.702454,-7.49567,0,0,0,0,0,0,0,-1,818,498,0.702482,7.49567
-399,526,0.397217,-7.23898,0,0,0,0,0,0,0,-1,825,498,0.39721,7.239
-392,526,-0.111877,-5.55533,0,0,0,0,0,0,0,-1,832,498,-0.111896,5.55532
-385,526,0.134583,-6.22723,0,0,0,0,0,0,0,-1,839,498,0.134555,6.22723
-378,526,-0.0829468,-7.19809,0,0,0,0,0,0,0,-1,846,498,-0.0829225,7.1981
-371,526,0.0258179,-7.38824,-0.000578628,-0.00353433,0.00654429,0.0046526,-0.00876556,0.674349,0.00786736,0.0399308,853,498,0.0258218,7.38823
-364,526,0.180481,-7.59067,-0.000206382,-0.00383497,0.0039865,0.00235927,-0.00640061,0.571851,0.00523385,0.0224243,860,498,0.180455,7.59067
-357,526,0.103943,-7.77228,-1.75675e-05,-0.0039683,0.00228945,0.00103091,-0.00501678,0.429456,0.00373588,0.0141993,867,498,0.103931,7.77227
-350,526,0.121094,-8.02197,0.000173316,-0.00376883,0.00108786,0.000453591,-0.0040491,0.252155,0.0028626,0.0105496,874,498,0.121082,8.02196
-343,526,0.103027,-8.30145,0.000366893,-0.00345192,-0.000391264,0.000406568,-0.00349159,-0.101058,0.00247441,0.0142456,881,498,0.10301,8.30146
-336,526,0.081665,-8.57108,0.000542292,-0.00292882,-0.000628036,0.000652429,-0.00303896,-0.173602,0.00227485,0.0151476,888,498,0.0816805,8.57109
-329,526,0.0792236,-8.80518,0.000715384,-0.00238557,-0.000649816,0.000846049,-0.00251624,-0.198434,0.00201947,0.0152007,895,498,0.0792333,8.80519
-322,526,0.0969849,-9.04263,0.000783797,-0.00184246,-0.000575924,0.000904543,-0.0019632,-0.206662,0.00169288,0.00992771,902,498,0.0970122,9.04263
-315,526,0.0913086,-9.30032,0.000803919,-0.00125253,-0.000454165,0.000899754,-0.00134837,-0.207964,0.00130654,0.00884328,909,498,0.0912804,9.30031
-308,526,0.0849609,-9.52698,0.000932782,-0.000849693,-0.000339156,0.000995133,-0.000912044,-0.181812,0.00110146,0.00860673,916,498,0.0849501,9.52698
-301,526,0.0699463,-9.74905,0.00108047,-0.000568687,-0.000165013,0.00109682,-0.000585036,-0.0987547,0.000985891,0.00936116,923,498,0.0699354,9.74904
-294,526,0.0787354,-9.96906,0.00129961,-0.000575103,8.53914e-05,0.00130349,-0.000578985,0.0454236,0.00111336,0.00888802,930,498,0.0787323,9.96904
-287,526,0.0672607,-10.1783,0.00165689,-0.00105861,0.000303375,0.00169037,-0.00109209,0.109915,0.00161878,0.00905942,937,498,0.0672615,10.1783
-280,526,0.0686035,-10.4016,0.0022084,-0.00207433,0.000335334,0.0022345,-0.00210043,0.0776683,0.00250317,0.0117973,944,498,0.0686316,10.4016
-273,526,0.0927124,-10.6148,0.00278305,-0.00308711,0.000243275,0.00279311,-0.00309718,0.0413482,0.00340227,0.0105441,951,498,0.0927288,10.6148
-266,526,0.106995,-10.8184,0.00357833,-0.00413174,1.20866e-05,0.00357835,-0.00413176,0.00156763,0.00445525,0.0101558,958,498,0.107012,10.8184
-259,526,0.131897,-11.0242,0.0046052,-0.00541018,-0.000154151,0.00460757,-0.00541255,-0.0153866,0.00579134,0.0159605,965,498,0.13187,11.0242
-252,526,0.162354,-11.1704,0.00518441,-0.00715831,-0.000275329,0.00519054,-0.00716445,-0.0222922,0.00716344,0.031316,972,498,0.162346,11.1704
-245,526,0.206482,-11.2566,0.0052245,-0.00914334,-1.13475e-05,0.0052245,-0.00914335,-0.000789781,0.00839751,0.0424626,979,498,0.206463,11.2566
-238,526,0.330505,-11.2466,0.00500186,-0.0110779,0.000429739,0.00501333,-0.0110894,0.0267001,0.00951495,0.0390171,986,498,0.330493,11.2466
-231,526,0.490295,-11.3927,0.00461711,-0.0131101,0.000854018,0.00465816,-0.0131511,0.0480274,0.0106648,0.0461207,993,498,0.490282,11.3927
-224,526,0.426941,-11.8031,0,0,0,0,0,0,0,-1,1000,498,0.426958,11.8031
-217,526,0.436523,-12.317,0,0,0,0,0,0,0,-1,1007,498,0.436523,12.317
-210,526,0.171021,-8.39801,0,0,0,0,0,0,0,-1,1014,498,0.170997,8.398
-203,526,0.437927,-12.3958,0,0,0,0,0,0,0,-1,1021,498,0.437931,12.3958
-196,526,-0.53125,-12.0952,0,0,0,0,0,0,0,-1,1028,498,-0.531204,12.0951
-189,526,0.401245,-5.96826,0,0,0,0,0,0,0,-1,1035,498,0.401197,5.96826
-182,526,1.7323,-2.99405,0,0,0,0,0,0,0,-1,1042,498,1.73226,2.99404
-175,526,2.27637,-2.07983,0,0,0,0,0,0,0,-1,1049,498,2.27639,2.07984
-168,526,2.12036,-1.66049,0,0,0,0,0,0,0,-1,1056,498,2.12035,1.66048
-161,526,2.09082,-1.20572,0,0,0,0,0,0,0,-1,1063,498,2.09086,1.2057
-154,526,-1.3446,-5.37799,0,0,0,0,0,0,0,-1,1070,498,-1.34457,5.37799
-147,526,-0.472656,-6.64996,0,0,0,0,0,0,0,-1,1077,498,-0.472659,6.64997
-140,526,0.422852,-8.03339,0,0,0,0,0,0,0,-1,1084,498,0.422844,8.0334
-133,526,1.09583,-9.2215,0,0,0,0,0,0,0,-1,1091,498,1.09581,9.2215
-126,526,3.42529,-2.36053,0,0,0,0,0,0,0,-1,1098,498,3.42523,2.36052
-119,526,2.7771,-0.764099,0,0,0,0,0,0,0,-1,1105,498,2.7771,0.764107
-112,526,2.57715,-1.1893,0,0,0,0,0,0,0,-1,1112,498,2.57718,1.1893
-105,526,0,0,0,0,0,0,0,0,0,-1,1119,498,0,0
-98,526,0,0,0,0,0,0,0,0,0,-1,1126,498,0,0
-91,526,0,0,0,0,0,0,0,0,0,-1,1133,498,0,0
-84,526,0,0,0,0,0,0,0,0,0,-1,1140,498,0,0
-77,526,0,0,0,0,0,0,0,0,0,-1,1147,498,0,0
-70,526,0,0,0,0,0,0,0,0,0,-1,1154,498,0,0
-63,526,0,0,0,0,0,0,0,0,0,-1,1161,498,0,0
-56,526,0,0,0,0,0,0,0,0,0,-1,1168,498,0,0
-49,526,0,0,0,0,0,0,0,0,0,-1,1175,498,0,0
-42,526,0,0,0,0,0,0,0,0,0,-1,1182,498,0,0
-35,526,0,0,0,0,0,0,0,0,0,-1,1189,498,0,0
-28,526,0,0,0,0,0,0,0,0,0,-1,1196,498,0,0
-21,526,0,0,0,0,0,0,0,0,0,-1,1203,498,0,0
-14,526,0,0,0,0,0,0,0,0,0,-1,1210,498,0,0
-7,526,0,0,0,0,0,0,0,0,0,-1,1217,498,0,0
0,526,0,0,0,0,0,0,0,0,0,-1,1224,498,0,0
7,526,0,0,0,0,0,0,0,0,0,-1,1231,498,0,0
14,526,0,0,0,0,0,0,0,0,0,-1,1238,498,0,0
21,526,0,0,0,0,0,0,0,0,0,-1,1245,498,0,0
28,526,0,0,0,0,0,0,0,0,0,-1,1252,498,0,0
35,526,0,0,0,0,0,0,0,0,0,-1,1259,498,0,0
42,526,0,0,0,0,0,0,0,0,0,-1,1266,498,0,0
49,526,0,0,0,0,0,0,0,0,0,-1,1273,498,0,0
56,526,0,0,0,0,0,0,0,0,0,-1,1280,498,0,0
63,526,0,0,0,0,0,0,0,0,0,-1,1287,498,0,0
70,526,0,0,0,0,0,0,0,0,0,-1,1294,498,0,0
77,526,0,0,0,0,0,0,0,0,0,-1,1301,498,0,0
84,526,0,0,0,0,0,0,0,0,0,-1,1308,498,0,0
91,526,0,0,0,0,0,0,0,0,0,-1,1315,498,0,0
98,526,0,0,0,0,0,0,0,0,0,-1,1322,498,0,0
105,526,0,0,0,0,0,0,0,0,0,-1,1329,498,0,0
112,526,0,0,0,0,0,0,0,0,0,-1,1336,498,0,0
119,526,0,0,0,0,0,0,0,0,0,-1,1343,498,0,0
126,526,0,0,0,0,0,0,0,0,0,-1,1350,498,0,0
133,526,0,0,0,0,0,0,0,0,0,-1,1357,498,0,0
140,526,0,0,0,0,0,0,0,0,0,-1,1364,498,0,0
147,526,0,0,0,0,0,0,0,0,0,-1,1371,498,0,0
154,526,0,0,0,0,0,0,0,0,0,-1,1378,498,0,0
161,526,0,0,0,0,0,0,0,0,0,-1,1385,498,0,0
168,526,0,0,0,0,0,0,0,0,0,-1,1392,498,0,0
175,526,0,0,0,0,0,0,0,0,0,-1,1399,498,0,0
182,526,0,0,0,0,0,0,0,0,0,-1,1406,498,0,0
189,526,0,0,0,0,0,0,0,0,0,-1,1413,498,0,0
196,526,0,0,0,0,0,0,0,0,0,-1,1420,498,0,0
203,526,0,0,0,0,0,0,0,0,0,-1,1427,498,0,0
210,526,0,0,0,0,0,0,0,0,0,-1,1434,498,0,0
217,526,0,0,0,0,0,0,0,0,0,-1,1441,498,0,0
224,526,0,0,0,0,0,0,0,0,0,-1,1448,498,0,0
231,526,7.93237,-1.30618,0,0,0,0,0,0,0,-1,1455,498,7.93238,1.30618
238,526,7.97717,-1.08197,0,0,0,0,0,0,0,-1,1462,498,7.97723,1.08196
245,526,7.2793,-0.792938,0,0,0,0,0,0,0,-1,1469,498,7.27931,0.792926
252,526,6.73523,-2.23608,0,0,0,0,0,0,0,-1,1476,498,6.73525,2.23608
259,526,6.22949,-1.84967,0,0,0,0,0,0,0,-1,1483,498,6.22953,1.84968
266,526,5.72375,-1.46329,0,0,0,0,0,0,0,-1,1490,498,5.72381,1.46328
273,526,4.33984,0.49173,0,0,0,0,0,0,0,-1,1497,498,4.33979,-0.491727
280,526,1.4585,-1.59897,0,0,0,0,0,0,0,-1,1504,498,1.45846,1.59895
287,526,1.46411,-2.40134,0,0,0,0,0,0,0,-1,1511,498,1.46406,2.40133
294,526,5.57471,-4.59085,0,0,0,0,0,0,0,-1,1518,498,5.57466,4.59084
301,526,4.42786,-3.99677,0,0,0,0,0,0,0,-1,1525,498,4.42788,3.99676
308,526,5.79529,-4.19366,0,0,0,0,0,0,0,-1,1532,498,5.79528,4.19368
315,526,5.09851,-5.20068,0,0,0,0,0,0,0,-1,1539,498,5.09851,5.20068
322,526,5.50708,-4.72348,0,0,0,0,0,0,0,-1,1546,498,5.50713,4.72347
329,526,3.88672,-4.345,0,0,0,0,0,0,0,-1,1553,498,3.88674,4.34501
336,526,4.97876,-2.23828,0,0,0,0,0,0,0,-1,1560,498,4.97877,2.23828
343,526,3.31665,-2.69696,0,0,0,0,0,0,0,-1,1567,498,3.31667,2.69696
350,526,6.06287,-6.12015,0,0,0,0,0,0,0,-1,1574,498,6.06286,6.12014
357,526,5.79736,-7.7854,0,0,0,0,0,0,0,-1,1581,498,5.79734,7.78539
364,526,5.47217,-10.7784,0,0,0,0,0,0,0,-1,1588,498,5.4722,10.7784
371,526,5.2688,-10.3266,0,0,0,0,0,0,0,-1,1595,498,5.26878,10.3266
378,526,5.3501,-10.507,0,0,0,0,0,0,0,-1,1602,498,5.35007,10.507
385,526,5.5188,-10.1293,0,0,0,0,0,0,0,-1,1609,498,5.51876,10.1293
392,526,5.59656,-9.73041,-0.00485768,-0.0129279,-0.00457532,-0.00279232,-0.0149932,-0.424028,0.00920697,0.0324707,1616,498,5.5965,9.7304
399,526,5.5343,-9.48199,-0.00417738,-0.0106415,-0.00407274,-0.00221007,-0.0126088,-0.449991,0.00777458,0.0182887,1623,498,5.53429,9.48201
406,526,5.5907,-9.22205,-0.00343413,-0.00835104,-0.00361185,-0.00152344,-0.0102617,-0.486583,0.00639413,0.0125731,1630,498,5.59069,9.22204
413,526,5.5647,-8.98331,-0.00259231,-0.00616208,-0.00295289,-0.000926778,-0.00782762,-0.513555,0.00493856,0.0126567,1637,498,5.56474,8.98332
420,526,5.55334,-8.74194,-0.0018941,-0.00442028,-0.0023225,-0.000513443,-0.00580094,-0.536344,0.00370802,0.0134666,1644,498,5.55336,8.74193
427,526,5.58972,-8.48172,-0.00127051,-0.00301965,-0.00165726,-0.000271215,-0.00401895,-0.54261,0.00259363,0.0132858,1651,498,5.58967,8.48172
434,526,5.58521,-8.21609,-0.000669379,-0.00202204,-0.00101952,-0.000122257,-0.00256916,-0.492535,0.00167351,0.0109405,1658,498,5.58524,8.2161
441,526,5.54871,-7.97842,8.26391e-06,-0.00112894,-0.000421411,0.000147402,-0.00126807,-0.318903,0.000898556,0.0103226,1665,498,5.54871,7.97844
448,526,5.54395,-7.7356,0.000539884,-0.000630135,0.000250147,0.00059112,-0.000681372,0.202033,0.00073529,0.0105137,1672,498,5.54401,7.73559
455,526,5.55237,-7.49219,0.00088297,-0.000524481,0.000813022,0.00125453,-0.00089604,0.428667,0.00124737,0.0137003,1679,498,5.5524,7.49219
462,526,5.56421,-7.19424,0.00117051,-0.000792106,0.000966693,0.00156669,-0.00118828,0.388948,0.00159558,0.00970351,1686,498,5.56418,7.19426
469,526,5.55774,-6.93582,0.0013845,-0.00144432,0.000692792,0.00154506,-0.00160488,0.227731,0.00181873,0.00719632,1693,498,5.55769,6.93581
476,526,5.55493,-6.67065,0.00125558,-0.00211167,0.000296009,0.0012814,-0.00213749,0.0870189,0.00199442,0.00880929,1700,498,5.55495,6.67064
483,526,5.5658,-6.37161,0.000852085,-0.00270063,-0.000462817,0.000911387,-0.00275993,-0.127438,0.00220738,0.0108746,1707,498,5.5658,6.37163
490,526,5.63367,-6.0694,0.000111208,-0.00364953,-0.00170029,0.000765948,-0.00430427,-0.367574,0.00315597,0.0215791,1714,498,5.63363,6.06941
497,526,5.53589,-5.92197,-0.00111191,-0.00450131,-0.00332122,0.000922003,-0.00653522,-0.549485,0.00469443,0.0288127,1721,498,5.53594,5.92197
504,526,5.41736,-5.61255,-0.00259166,-0.00550573,-0.00548359,0.00162516,-0.00972255,-0.655545,0.00708582,0.0320576,1728,498,5.41732,5.61256
511,526,5.1897,-5.40338,-0.00437554,-0.00644449,-0.00834485,0.00299871,-0.0138187,-0.72373,0.0103578,0.0402775,1735,498,5.18972,5.4034
518,526,5.31104,-5.37109,-0.00639663,-0.00725331,-0.0114857,0.00466873,-0.0183187,-0.76676,0.0140301,0.0466012,1742,498,5.31098,5.37111
525,526,5.4408,-5.31534,0,0,0,0,0,0,0,-1,1749,498,5.44074,5.31535
532,526,3.54285,-2.81274,0,0,0,0,0,0,0,-1,1756,498,3.54284,2.81273
539,526,3.29407,0.932312,0,0,0,0,0,0,0,-1,1763,498,3.2941,-0.93232
546,526,3.36731,1.07721,0,0,0,0,0,0,0,-1,1770,498,3.36735,-1.07719
553,526,3.40796,1.37137,0,0,0,0,0,0,0,-1,1777,498,3.40792,-1.37138
560,526,0,0,0,0,0,0,0,0,0,-1,1784,498,0,0
567,526,0,0,0,0,0,0,0,0,0,-1,1791,498,0,0
574,526,0,0,0,0,0,0,0,0,0,-1,1798,498,0,0
581,526,0,0,0,0,0,0,0,0,0,-1,1805,498,0,0
588,526,0,0,0,0,0,0,0,0,0,-1,1812,498,0,0
595,526,0,0,0,0,0,0,0,0,0,-1,1819,498,0,0
602,526,0,0,0,0,0,0,0,0,0,-1,1826,498,0,0
609,526,0,0,0,0,0,0,0,0,0,-1,1833,498,0,0
616,526,0,0,0,0,0,0,0,0,0,-1,1840,498,0,0
623,526,0,0,0,0,0,0,0,0,0,-1,1847,498,0,0
630,526,0,0,0,0,0,0,0,0,0,-1,1854,498,0,0
637,526,0,0,0,0,0,0,0,0,0,-1,1861,498,0,0
644,526,0,0,0,0,0,0,0,0,0,-1,1868,498,0,0
651,526,0,0,0,0,0,0,0,0,0,-1,1875,498,0,0
658,526,0,0,0,0,0,0,0,0,0,-1,1882,498,0,0
665,526,0,0,0,0,0,0,0,0,0,-1,1889,498,0,0
672,526,0,0,0,0,0,0,0,0,0,-1,1896,498,0,0
679,526,0,0,0,0,0,0,0,0,0,-1,1903,498,0,0
686,526,0,0,0,0,0,0,0,0,0,-1,1910,498,0,0
693,526,0,0,0,0,0,0,0,0,0,-1,1917,498,0,0
700,526,0,0,0,0,0,0,0,0,0,-1,1924,498,0,0
707,526,0,0,0,0,0,0,0,0,0,-1,1931,498,0,0
714,526,0,0,0,0,0,0,0,0,0,-1,1938,498,0,0
721,526,0,0,0,0,0,0,0,0,0,-1,1945,498,0,0
728,526,0,0,0,0,0,0,0,0,0,-1,1952,498,0,0
735,526,0,0,0,0,0,0,0,0,0,-1,1959,498,0,0
742,526,0,0,0,0,0,0,0,0,0,-1,1966,498,0,0
749,526,0,0,0,0,0,0,0,0,0,-1,1973,498,0,0
756,526,0,0,0,0,0,0,0,0,0,-1,1980,498,0,0
763,526,0,0,0,0,0,0,0,0,0,-1,1987,498,0,0
770,526,0,0,0,0,0,0,0,0,0,-1,1994,498,0,0
777,526,0,0,0,0,0,0,0,0,0,-1,2001,498,0,0
784,526,0,0,0,0,0,0,0,0,0,-1,2008,498,0,0
791,526,0,0,0,0,0,0,0,0,0,-1,2015,498,0,0
798,526,0,0,0,0,0,0,0,0,0,-1,2022,498,0,0
805,526,0,0,0,0,0,0,0,0,0,-1,2029,498,0,0
812,526,0,0,0,0,0,0,0,0,0,-1,2036,498,0,0
-700,519,0,0,0,0,0,0,0,0,0,-1,524,505,0,0
-693,519,0,0,0,0,0,0,0,0,0,-1,531,505,0,0
-686,519,0,0,0,0,0,0,0,0,0,-1,538,505,0,0
-679,519,0,0,0,0,0,0,0,0,0,-1,545,505,0,0
-672,519,0,0,0,0,0,0,0,0,0,-1,552,505,0,0
-665,519,0,0,0,0,0,0,0,0,0,-1,559,505,0,0
-658,519,0,0,0,0,0,0,0,0,0,-1,566,505,0,0
-651,519,0,0,0,0,0,0,0,0,0,-1,573,505,0,0
-644,519,0,0,0,0,0,0,0,0,0,-1,580,505,0,0
-637,519,0,0,0,0,0,0,0,0,0,-1,587,505,0,0
-630,519,0,0,0,0,0,0,0,0,0,-1,594,505,0,0
-623,519,0,0,0,0,0,0,0,0,0,-1,601,505,0,0
-616,519,0,0,0,0,0,0,0,0,0,-1,608,505,0,0
-609,519,0,0,0,0,0,0,0,0,0,-1,615,505,0,0
-602,519,0,0,0,0,0,0,0,0,0,-1,622,505,0,0
-595,519,0,0,0,0,0,0,0,0,0,-1,629,505,0,0
-588,519,0,0,0,0,0,0,0,0,0,-1,636,505,0,0
-581,519,0,0,0,0,0,0,0,0,0,-1,643,505,0,0
-574,519,0,0,0,0,0,0,0,0,0,-1,650,505,0,0
-567,519,0,0,0,0,0,0,0,0,0,-1,657,505,0,0
-560,519,0,0,0,0,0,0,0,0,0,-1,664,505,0,0
-553,519,0,0,0,0,0,0,0,0,0,-1,671,505,0,0
-546,519,0,0,0,0,0,0,0,0,0,-1,678,505,0,0
-539,519,0,0,0,0,0,0,0,0,0,-1,685,505,0,0
-532,519,0,0,0,0,0,0,0,0,0,-1,692,505,0,0
-525,519,0,0,0,0,0,0,0,0,0,-1,699,505,0,0
-518,519,0,0,0,0,0,0,0,0,0,-1,706,505,0,0
-511,519,0,0,0,0,0,0,0,0,0,-1,713,505,0,0
-504,519,0,0,0,0,0,0,0,0,0,-1,720,505,0,0
-497,519,0,0,0,0,0,0,0,0,0,-1,727,505,0,0
-490,519,0,0,0,0,0,0,0,0,0,-1,734,505,0,0
-483,519,0,0,0,0,0,0,0,0,0,-1,741,505,0,0
-476,519,0,0,0,0,0,0,0,0,0,-1,748,505,0,0
-469,519,0,0,0,0,0,0,0,0,0,-1,755,505,0,0
-462,519,0,0,0,0,0,0,0,0,0,-1,762,505,0,0
-455,519,0,0,0,0,0,0,0,0,0,-1,769,505,0,0
-448,519,0,0,0,0,0,0,0,0,0,-1,776,505,0,0
-441,519,0.808167,-6.55032,0,0,0,0,0,0,0,-1,783,505,0.808177,6.55033
-434,519,0.69165,-6.67197,0,0,0,0,0,0,0,-1,790,505,0.691649,6.67195
-427,519,-1.04236,-4.40891,0,0,0,0,0,0,0,-1,797,505,-1.04238,4.40891
-420,519,1.37213,-6.97879,0,0,0,0,0,0,0,-1,804,505,1.37215,6.9788
-413,519,0.8927,-7.1087,0,0,0,0,0,0,0,-1,811,505,0.892731,7.10872
-406,519,0.733643,-7.07202,0,0,0,0,0,0,0,-1,818,505,0.733615,7.07205
-399,519,0.779114,-6.63272,0,0,0,0,0,0,0,-1,825,505,0.779127,6.63271
-392,519,0.165771,-6.52594,0,0,0,0,0,0,0,-1,832,505,0.165758,6.52595
-385,519,-0.21167,-6.78052,0,0,0,0,0,0,0,-1,839,505,-0.211677,6.78052
-378,519,-0.174927,-6.98798,-0.000541116,-0.00128254,0.00842821,0.00752453,-0.00934819,0.76342,0.00976042,0.0353528,846,505,-0.174947,6.98798
-371,519,-0.110535,-7.28601,-0.000366661,-0.00199482,0.00554429,0.00442299,-0.00678447,0.712503,0.00651834,0.019522,853,505,-0.110562,7.28598
-364,519,-0.12738,-7.52179,-0.000127287,-0.00231303,0.00345488,0.00240345,-0.00484377,0.632214,0.00426252,0.0119023,860,505,-0.127377,7.52177
-357,519,-0.100586,-7.78632,3.44533e-05,-0.00250601,0.00201281,0.00114432,-0.00361588,0.50392,0.00286913,0.00909821,867,505,-0.100579,7.78631
-350,519,-0.107117,-8.02264,0.000236475,-0.00235783,0.000937879,0.000540017,-0.00266137,0.313008,0.00197897,0.0110498,874,505,-0.107108,8.02267
-343,519,-0.142334,-8.26532,0.000403302,-0.00220427,-0.000369901,0.000454759,-0.00225573,-0.138224,0.0016761,0.0140415,881,505,-0.142309,8.2653
-336,519,-0.167358,-8.53711,0.000575753,-0.00184794,-0.000589291,0.000711436,-0.00198362,-0.226304,0.00161274,0.0146494,888,505,-0.167351,8.53713
-329,519,-0.154846,-8.7749,0.000794331,-0.00145991,-0.000625487,0.000956255,-0.00162184,-0.253315,0.0015049,0.0130524,895,505,-0.154843,8.77491
-322,519,-0.144043,-9.02319,0.000908045,-0.0010705,-0.000568019,0.00105952,-0.00122198,-0.260608,0.00131833,0.0101819,902,505,-0.144024,9.0232
-315,519,-0.139343,-9.28302,0.000990737,-0.000632398,-0.000453794,0.00110899,-0.000750654,-0.254923,0.00108029,0.00833532,909,505,-0.139334,9.28304
-308,519,-0.133545,-9.53223,0.0011695,-0.000367369,-0.000320619,0.00123371,-0.000431574,-0.197638,0.000997936,0.00733769,916,505,-0.133538,9.53225
-301,519,-0.13855,-9.76544,0.00136498,-0.000219199,-0.000134115,0.00137626,-0.000230473,-0.0838633,0.00100319,0.0112983,923,505,-0.13854,9.76543
-294,519,-0.154053,-9.94952,0.00163235,-0.000368924,0.000145459,0.00164287,-0.000379441,0.0721774,0.00124121,0.0144878,930,505,-0.15403,9.94955
-287,519,-0.175964,-10.1845,0.00206019,-0.00106738,0.000401336,0.00211087,-0.00111806,0.125611,0.00189337,0.0107154,937,505,-0.175968,10.1845
-280,519,-0.170959,-10.4145,0.00275997,-0.00242947,0.00041974,0.0027937,-0.0024632,0.0801888,0.00303707,0.0144719,944,505,-0.170933,10.4145
-273,519,-0.123108,-10.6378,0.00349554,-0.00373292,0.00029002,0.00350716,-0.00374454,0.0400361,0.00418752,0.0218163,951,505,-0.1231,10.6378
-266,519,-0.127014,-10.884,0.0045063,-0.005133,1.87978e-05,0.00450633,-0.00513304,0.00195011,0.00556922,0.0303868,958,505,-0.127032,10.884
-259,519,-0.0411987,-10.9873,0.00585775,-0.00681129,-0.000197445,0.00586082,-0.00681436,-0.0155798,0.00732492,0.0482175,965,505,-0.0412082,10.9873
-252,519,-0.0304565,-11.1479,0,0,0,0,0,0,0,-1,972,505,-0.030471,11.148
-245,519,-0.0178833,-11.0573,0,0,0,0,0,0,0,-1,979,505,-0.0178623,11.0573
-238,519,0.262024,-10.9305,0,0,0,0,0,0,0,-1,986,505,0.262013,10.9305
-231,519,0.430237,-11.0455,0,0,0,0,0,0,0,-1,993,505,0.430262,11.0455
-224,519,-0.0494995,-7.97394,0,0,0,0,0,0,0,-1,1000,505,-0.0495123,7.97392
-217,519,-2.97125,-4.84393,0,0,0,0,0,0,0,-1,1007,505,-2.97128,4.84393
-210,519,-2.14398,-4.74774,0,0,0,0,0,0,0,-1,1014,505,-2.14397,4.74775
-203,519,-0.513611,-5.39017,0,0,0,0,0,0,0,-1,1021,505,-0.513585,5.39017
-196,519,-0.374023,-5.41635,0,0,0,0,0,0,0,-1,1028,505,-0.374047,5.41635
-189,519,-0.234497,-5.44254,0,0,0,0,0,0,0,-1,1035,505,-0.234508,5.44253
-182,519,2.76697,-1.19659,0,0,0,0,0,0,0,-1,1042,505,2.76696,1.19661
-175,519,2.31323,-0.960938,0,0,0,0,0,0,0,-1,1049,505,2.31319,0.960941
-168,519,2.01074,-0.721405,0,0,0,0,0,0,0,-1,1056,505,2.01072,0.721407
-161,519,2.32056,-0.522339,0,0,0,0,0,0,0,-1,1063,505,2.32057,0.522328
-154,519,2.55566,0.116669,0,0,0,0,0,0,0,-1,1070,505,2.55563,-0.116661
-147,519,-0.55127,-6.14001,0,0,0,0,0,0,0,-1,1077,505,-0.551252,6.14001
-140,519,0.240601,-7.53503,0,0,0,0,0,0,0,-1,1084,505,0.240653,7.53501
-133,519,2.70911,-4.4516,0,0,0,0,0,0,0,-1,1091,505,2.70915,4.45161
-126,519,0,0,0,0,0,0,0,0,0,-1,1098,505,0,0
-119,519,0,0,0,0,0,0,0,0,0,-1,1105,505,0,0
-112,519,0,0,0,0,0,0,0,0,0,-1,1112,505,0,0
-105,519,0,0,0,0,0,0,0,0,0,-1,1119,505,0,0
-98,519,0,0,0,0,0,0,0,0,0,-1,1126,505,0,0
-91,519,0,0,0,0,0,0,0,0,0,-1,1133,505,0,0
-84,519,0,0,0,0,0,0,0,0,0,-1,1140,505,0,0
-77,519,0,0,0,0,0,0,0,0,0,-1,1147,505,0,0
-70,519,0,0,0,0,0,0,0,0,0,-1,1154,505,0,0
-63,519,0,0,0,0,0,0,0,0,0,-1,1161,505,0,0
-56,519,0,0,0,0,0,0,0,0,0,-1,1168,505,0,0
-49,519,0,0,0,0,0,0,0,0,0,-1,1175,505,0,0
-42,519,0,0,0,0,0,0,0,0,0,-1,1182,505,0,0
-35,519,0,0,0,0,0,0,0,0,0,-1,1189,505,0,0
-28,519,0,0,0,0,0,0,0,0,0,-1,1196,505,0,0
-21,519,0,0,0,0,0,0,0,0,0,-1,1203,505,0,0
-14,519,0,0,0,0,0,0,0,0,0,-1,1210,505,0,0
-7,519,0,0,0,0,0,0,0,0,0,-1,1217,505,0,0
0,519,0,0,0,0,0,0,0,0,0,-1,1224,505,0,0
7,519,0,0,0,0,0,0,0,0,0,-1,1231,505,0,0
14,519,0,0,0,0,0,0,0,0,0,-1,1238,505,0,0
21,519,0,0,0,0,0,0,0,0,0,-1,1245,505,0,0
28,519,0,0,0,0,0,0,0,0,0,-1,1252,505,0,0
35,519,0,0,0,0,0,0,0,0,0,-1,1259,505,0,0
42,519,0,0,0,0,0,0,0,0,0,-1,1266,505,0,0
49,519,0,0,0,0,0,0,0,0,0,-1,1273,505,0,0
56,519,0,0,0,0,0,0,0,0,0,-1,1280,505,0,0
63,519,0,0,0,0,0,0,0,0,0,-1,1287,505,0,0
70,519,0,0,0,0,0,0,0,0,0,-1,1294,505,0,0
77,519,0,0,0,0,0,0,0,0,0,-1,1301,505,0,0
84,519,0,0,0,0,0,0,0,0,0,-1,1308,505,0,0
91,519,0,0,0,0,0,0,0,0,0,-1,1315,505,0,0
98,519,0,0,0,0,0,0,0,0,0,-1,1322,505,0,0
105,519,0,0,0,0,0,0,0,0,0,-1,1329,505,0,0
112,519,0,0,0,0,0,0,0,0,0,-1,1336,505,0,0
119,519,0,0,0,0,0,0,0,0,0,-1,1343,505,0,0
126,519,0,0,0,0,0,0,0,0,0,-1,1350,505,0,0
133,519,0,0,0,0,0,0,0,0,0,-1,1357,505,0,0
140,519,0,0,0,0,0,0,0,0,0,-1,1364,505,0,0
147,519,0,0,0,0,0,0,0,0,0,-1,1371,505,0,0
154,519,0,0,0,0,0,0,0,0,0,-1,1378,505,0,0
161,519,0,0,0,0,0,0,0,0,0,-1,1385,505,0,0
168,519,0,0,0,0,0,0,0,0,0,-1,1392,505,0,0
175,519,0,0,0,0,0,0,0,0,0,-1,1399,505,0,0
182,519,0,0,0,0,0,0,0,0,0,-1,1406,505,0,0
189,519,0,0,0,0,0,0,0,0,0,-1,1413,505,0,0
196,519,0,0,0,0,0,0,0,0,0,-1,1420,505,0,0
203,519,0,0,0,0,0,0,0,0,0,-1,1427,505,0,0
210,519,0,0,0,0,0,0,0,0,0,-1,1434,505,0,0
217,519,0,0,0,0,0,0,0,0,0,-1,1441,505,0,0
224,519,0,0,0,0,0,0,0,0,0,-1,1448,505,0,0
231,519,0,0,0,0,0,0,0,0,0,-1,1455,505,0,0
238,519,0,0,0,0,0,0,0,0,0,-1,1462,505,0,0
245,519,0,0,0,0,0,0,0,0,0,-1,1469,505,0,0
252,519,5.26208,0.0938416,0,0,0,0,0,0,0,-1,1476,505,5.26207,-0.0938493
259,519,6.14246,-1.36441,0,0,0,0,0,0,0,-1,1483,505,6.14241,1.36441
266,519,5.31909,-0.400787,0,0,0,0,0,0,0,-1,1490,505,5.31912,0.400773
273,519,4.02393,0.325531,0,0,0,0,0,0,0,-1,1497,505,4.0239,-0.325522
280,519,4.68848,0.53006,0,0,0,0,0,0,0,-1,1504,505,4.68842,-0.530073
287,519,7.9519,-3.80801,0,0,0,0,0,0,0,-1,1511,505,7.95193,3.808
294,519,6.92273,-3.38889,0,0,0,0,0,0,0,-1,1518,505,6.92268,3.38888
301,519,5.35669,-2.92661,0,0,0,0,0,0,0,-1,1525,505,5.35675,2.9266
308,519,7.37549,-5.64529,0,0,0,0,0,0,0,-1,1532,505,7.3755,5.64529
315,519,6.30029,-4.53754,0,0,0,0,0,0,0,-1,1539,505,6.30024,4.53753
322,519,5.84302,-5.45117,0,0,0,0,0,0,0,-1,1546,505,5.84303,5.45116
329,519,4.92407,0.62384,0,0,0,0,0,0,0,-1,1553,505,4.92403,-0.623832
336,519,3.10095,-0.329285,0,0,0,0,0,0,0,-1,1560,505,3.1009,0.329283
343,519,2.49146,-2.31119,0,0,0,0,0,0,0,-1,1567,505,2.49145,2.31119
350,519,3.47729,-2.22516,0,0,0,0,0,0,0,-1,1574,505,3.47726,2.22515
357,519,4.51917,-4.51691,0,0,0,0,0,0,0,-1,1581,505,4.51914,4.51691
364,519,3.54626,-7.20673,0,0,0,0,0,0,0,-1,1588,505,3.54622,7.20675
371,519,5.349,-8.20068,0,0,0,0,0,0,0,-1,1595,505,5.34898,8.20068
378,519,6.36597,-10.0967,0,0,0,0,0,0,0,-1,1602,505,6.36597,10.0967
385,519,6.24756,-9.72186,-0.00806812,-0.0218524,-0.00721715,-0.00498083,-0.0249397,-0.404215,0.0152399,0.0490449,1609,505,6.24752,9.72183
392,519,6.05481,-9.45032,-0.00705693,-0.0182223,-0.00634663,-0.00418704,-0.0210922,-0.424675,0.0128944,0.0485922,1616,505,6.05485,9.45034
399,519,5.86682,-9.36414,-0.0060438,-0.0147261,-0.0056611,-0.00325097,-0.0175189,-0.458304,0.0107606,0.0387614,1623,505,5.8668,9.36415
406,519,5.79822,-9.2439,-0.00498916,-0.0113621,-0.00505779,-0.00219776,-0.0141535,-0.504301,0.00879507,0.0242412,1630,505,5.79821,9.24392
413,519,5.82898,-9.00757,-0.00384925,-0.00830817,-0.00420313,-0.0013209,-0.0108365,-0.541552,0.00682678,0.0138063,1637,505,5.82899,9.0076
420,519,5.81226,-8.75916,-0.00295118,-0.00590362,-0.00339992,-0.000720823,-0.00813398,-0.580583,0.00519906,0.015675,1644,505,5.81226,8.75917
427,519,5.84546,-8.50726,-0.00217205,-0.00402846,-0.00259257,-0.000346536,-0.00585398,-0.613495,0.00379242,0.0139713,1651,505,5.84541,8.50725
434,519,5.84399,-8.23584,-0.00147403,-0.00264792,-0.00183742,-0.000132083,-0.00398986,-0.6308,0.00261699,0.0117418,1658,505,5.84395,8.23582
441,519,5.81213,-7.98187,-0.000708246,-0.00139664,-0.00117901,0.000175783,-0.00228067,-0.643376,0.0015823,0.0113152,1665,505,5.81214,7.98188
448,519,5.80457,-7.72198,-9.50492e-05,-0.000646839,-0.000435425,0.00014453,-0.000886418,-0.503011,0.000644546,0.00907373,1672,505,5.80459,7.722
455,519,5.81458,-7.47375,0.000330195,-0.000375055,0.000200536,0.000383229,-0.000428089,0.258542,0.000468653,0.0105921,1679,505,5.81457,7.47373
462,519,5.8313,-7.20441,0.000685337,-0.000528934,0.000439221,0.000827554,-0.000671151,0.31314,0.000866846,0.0100539,1686,505,5.83126,7.20439
469,519,5.84375,-6.93124,0.000912639,-0.00108909,0.000247032,0.000942674,-0.00111913,0.120991,0.00119183,0.00998879,1693,505,5.84378,6.93125
476,519,5.83142,-6.66861,0.000785564,-0.00167082,-7.43089e-05,0.00078781,-0.00167307,-0.0302145,0.00145111,0.0118999,1700,505,5.83143,6.66861
483,519,5.80493,-6.38684,0.000396237,-0.00213804,-0.000702002,0.0005777,-0.0023195,-0.252957,0.0017706,0.0127524,1707,505,5.80498,6.38684
490,519,5.81262,-6.08618,-0.000288931,-0.00289878,-0.00172661,0.000570402,-0.00375811,-0.461806,0.00271559,0.0105659,1714,505,5.81267,6.08618
497,519,5.80701,-5.82129,-0.00142685,-0.00352437,-0.00303756,0.000737902,-0.00568912,-0.619174,0.00406112,0.0131593,1721,505,5.80701,5.82129
504,519,5.76575,-5.56024,-0.00281387,-0.00416853,-0.00469543,0.00125283,-0.00823523,-0.713766,0.00595188,0.0138964,1728,505,5.76577,5.56024
511,519,5.78772,-5.25369,-0.00450925,-0.00469924,-0.00680979,0.00220621,-0.0114147,-0.778424,0.00844185,0.0195145,1735,505,5.78772,5.25368
518,519,5.7981,-5.21188,-0.00651747,-0.00501057,-0.00907153,0.00333874,-0.0148668,-0.826831,0.0111914,0.0430021,1742,505,5.79809,5.21189
525,519,5.91907,-5.15594,0,0,0,0,0,0,0,-1,1749,505,5.91903,5.15595
532,519,3.5155,-2.86511,0,0,0,0,0,0,0,-1,1756,505,3.51554,2.8651
539,519,3.30005,0.0229797,0,0,0,0,0,0,0,-1,1763,505,3.30008,-0.0229869
546,519,4.62024,-2.89774,0,0,0,0,0,0,0,-1,1770,505,4.62023,2.89775
553,519,4.14136,0.0667419,0,0,0,0,0,0,0,-1,1777,505,4.14141,-0.0667503
560,519,3.77856,0.279724,0,0,0,0,0,0,0,-1,1784,505,3.77861,-0.279731
567,519,0,0,0,0,0,0,0,0,0,-1,1791,505,0,0
574,519,0,0,0,0,0,0,0,0,0,-1,1798,505,0,0
581,519,0,0,0,0,0,0,0,0,0,-1,1805,505,0,0
588,519,0,0,0,0,0,0,0,0,0,-1,1812,505,0,0
595,519,0,0,0,0,0,0,0,0,0,-1,1819,505,0,0
602,519,0,0,0,0,0,0,0,0,0,-1,1826,505,0,0
609,519,0,0,0,0,0,0,0,0,0,-1,1833,505,0,0
616,519,0,0,0,0,0,0,0,0,0,-1,1840,505,0,0
623,519,0,0,0,0,0,0,0,0,0,-1,1847,505,0,0
630,519,0,0,0,0,0,0,0,0,0,-1,1854,505,0,0
637,519,0,0,0,0,0,0,0,0,0,-1,1861,505,0,0
644,519,0,0,0,0,0,0,0,0,0,-1,1868,505,0,0
651,519,0,0,0,0,0,0,0,0,0,-1,1875,505,0,0
658,519,0,0,0,0,0,0,0,0,0,-1,1882,505,0,0
665,519,0,0,0,0,0,0,0,0,0,-1,1889,505,0,0
672,519,0,0,0,0,0,0,0,0,0,-1,1896,505,0,0
679,519,0,0,0,0,0,0,0,0,0,-1,1903,505,0,0
686,519,0,0,0,0,0,0,0,0,0,-1,1910,505,0,0
693,519,0,0,0,0,0,0,0,0,0,-1,1917,505,0,0
700,519,0,0,0,0,0,0,0,0,0,-1,1924,505,0,0
707,519,0,0,0,0,0,0,0,0,0,-1,1931,505,0,0
714,519,0,0,0,0,0,0,0,0,0,-1,1938,505,0,0
721,519,0,0,0,0,0,0,0,0,0,-1,1945,505,0,0
728,519,0,0,0,0,0,0,0,0,0,-1,1952,505,0,0
735,519,0,0,0,0,0,0,0,0,0,-1,1959,505,0,0
742,519,0,0,0,0,0,0,0,0,0,-1,1966,505,0,0
749,519,0,0,0,0,0,0,0,0,0,-1,1973,505,0,0
756,519,0,0,0,0,0,0,0,0,0,-1,1980,505,0,0
763,519,0,0,0,0,0,0,0,0,0,-1,1987,505,0,0
770,519,0,0,0,0,0,0,0,0,0,-1,1994,505,0,0
777,519,0,0,0,0,0,0,0,0,0,-1,2001,505,0,0
784,519,0,0,0,0,0,0,0,0,0,-1,2008,505,0,0
791,519,0,0,0,0,0,0,0,0,0,-1,2015,505,0,0
798,519,0,0,0,0,0,0,0,0,0,-1,2022,505,0,0
805,519,0,0,0,0,0,0,0,0,0,-1,2029,505,0,0
812,519,0,0,0,0,0,0,0,0,0,-1,2036,505,0,0
-700,512,0,0,0,0,0,0,0,0,0,-1,524,512,0,0
-693,512,0,0,0,0,0,0,0,0,0,-1,531,512,0,0
-686,512,0,0,0,0,0,0,0,0,0,-1,538,512,0,0
-679,512,0,0,0,0,0,0,0,0,0,-1,545,512,0,0
-672,512,0,0,0,0,0,0,0,0,0,-1,552,512,0,0
-665,512,0,0,0,0,0,0,0,0,0,-1,559,512,0,0
-658,512,0,0,0,0,0,0,0,0,0,-1,566,512,0,0
-651,512,0,0,0,0,0,0,0,0,0,-1,573,512,0,0
-644,512,0,0,0,0,0,0,0,0,0,-1,580,512,0,0
-637,512,0,0,0,0,0,0,0,0,0,-1,587,512,0,0
-630,512,0,0,0,0,0,0,0,0,0,-1,594,512,0,0
-623,512,0,0,0,0,0,0,0,0,0,-1,601,512,0,0
-616,512,0,0,0,0,0,0,0,0,0,-1,608,512,0,0
-609,512,0,0,0,0,0,0,0,0,0,-1,615,512,0,0
-602,512,0,0,0,0,0,0,0,0,0,-1,622,512,0,0
-595,512,0,0,0,0,0,0,0,0,0,-1,629,512,0,0
-588,512,0,0,0,0,0,0,0,0,0,-1,636,512,0,0
-581,512,0,0,0,0,0,0,0,0,0,-1,643,512,0,0
-574,512,0,0,0,0,0,0,0,0,0,-1,650,512,0,0
-567,512,0,0,0,0,0,0,0,0,0,-1,657,512,0,0
-560,512,0,0,0,0,0,0,0,0,0,-1,664,512,0,0
-553,512,0,0,0,0,0,0,0,0,0,-1,671,512,0,0
-546,512,0,0,0,0,0,0,0,0,0,-1,678,512,0,0
-539,512,0,0,0,0,0,0,0,0,0,-1,685,512,0,0
-532,512,0,0,0,0,0,0,0,0,0,-1,692,512,0,0
-525,512,0,0,0,0,0,0,0,0,0,-1,699,512,0,0
-518,512,0,0,0,0,0,0,0,0,0,-1,706,512,0,0
-511,512,0,0,0,0,0,0,0,0,0,-1,713,512,0,0
-504,512,0,0,0,0,0,0,0,0,0,-1,720,512,0,0
-497,512,0,0,0,0,0,0,0,0,0,-1,727,512,0,0
-490,512,0,0,0,0,0,0,0,0,0,-1,734,512,0,0
-483,512,0,0,0,0,0,0,0,0,0,-1,741,512,0,0
-476,512,0,0,0,0,0,0,0,0,0,-1,748,512,0,0
-469,512,0,0,0,0,0,0,0,0,0,-1,755,512,0,0
-462,512,0,0,0,0,0,0,0,0,0,-1,762,512,0,0
-455,512,0,0,0,0,0,0,0,0,0,-1,769,512,0,0
-448,512,-0.901306,-6.79834,0,0,0,0,0,0,0,-1,776,512,-0.90133,6.79831
-441,512,-0.159119,-6.37024,0,0,0,0,0,0,0,-1,783,512,-0.159125,6.37025
-434,512,0.656006,-5.95892,0,0,0,0,0,0,0,-1,790,512,0.655993,5.9589
-427,512,0.532898,-5.37317,0,0,0,0,0,0,0,-1,797,512,0.532919,5.3732
-420,512,-0.273865,-5.31897,0,0,0,0,0,0,0,-1,804,512,-0.27384,5.319
-413,512,0.784363,-6.76343,0,0,0,0,0,0,0,-1,811,512,0.784388,6.76343
-406,512,0.681641,-6.65729,0,0,0,0,0,0,0,-1,818,512,0.681652,6.65732
-399,512,0.228577,-6.62347,0.000450553,0.00354145,0.0162545,0.0183238,-0.0143318,0.832795,0.0189006,0.0430954,825,512,0.228555,6.6235
-392,512,-0.225098,-6.53693,1.10248e-05,0.00207048,0.0124785,0.0135616,-0.0114801,0.826565,0.0144745,0.0344292,832,512,-0.225104,6.53694
-385,512,-0.300842,-6.75836,-0.000109432,0.000737387,0.00926156,0.00958522,-0.00895726,0.808241,0.0107075,0.0181555,839,512,-0.300812,6.75836
-378,512,-0.353088,-7.00256,-0.000221445,-0.00017668,0.0067471,0.00654808,-0.0069462,0.787057,0.00779206,0.0147507,846,512,-0.353113,7.00254
-371,512,-0.361389,-7.26471,-0.000191299,-0.000798857,0.00457971,0.0040947,-0.00508485,0.752281,0.00531008,0.0122625,853,512,-0.361412,7.26468
-364,512,-0.343872,-7.55084,-6.53807e-05,-0.00112374,0.00292416,0.0023771,-0.00356622,0.695883,0.0034542,0.00940862,860,512,-0.343864,7.55082
-357,512,-0.333679,-7.80066,9.93204e-05,-0.00136344,0.00174385,0.00125895,-0.00252307,0.586836,0.00222384,0.0108772,867,512,-0.333673,7.80065
-350,512,-0.345154,-8.05707,0.000335659,-0.00127972,0.000813679,0.000674458,-0.00161852,0.394546,0.00136074,0.0118315,874,512,-0.345174,8.0571
-343,512,-0.394531,-8.29871,0.000505175,-0.00125325,-0.000305516,0.000556744,-0.00130482,-0.167217,0.00110332,0.0116139,881,512,-0.394512,8.29872
-336,512,-0.413879,-8.55762,0.000703747,-0.0010474,-0.000525195,0.000849182,-0.00119283,-0.270147,0.00118451,0.0116179,888,512,-0.413872,8.55763
-329,512,-0.402039,-8.78674,0.0010008,-0.000805903,-0.000608041,0.00118638,-0.000991476,-0.296219,0.00125906,0.0125126,895,512,-0.402027,8.78672
-322,512,-0.399109,-9.02844,0.00121005,-0.000567252,-0.000615715,0.00140251,-0.000759714,-0.302961,0.00126661,0.0104203,902,512,-0.399088,9.02841
-315,512,-0.383179,-9.27966,0.00142069,-0.00029437,-0.000565608,0.00159042,-0.000464104,-0.29154,0.00124418,0.00983662,909,512,-0.383176,9.27969
-308,512,-0.38031,-9.52747,0.00171422,-0.000185394,-0.000461086,0.00182022,-0.000291397,-0.225971,0.00132137,0.0105242,916,512,-0.380305,9.52748
-301,512,-0.38092,-9.76166,0.00201057,-0.000206176,-0.000298035,0.00204994,-0.000245546,-0.131341,0.00145539,0.0150782,923,512,-0.380898,9.76165
-294,512,-0.383911,-9.96509,0.00235455,-0.000527451,-1.16206e-05,0.00235459,-0.000527498,-0.00403204,0.00177193,0.0154679,930,512,-0.383931,9.96512
-287,512,-0.486755,-10.1366,0.00286242,-0.00144812,0.000254974,0.00287745,-0.00146315,0.0588776,0.00255,0.0217136,937,512,-0.48674,10.1366
-280,512,-0.375183,-10.4188,0.00373978,-0.00322319,0.000287167,0.0037516,-0.00323502,0.0411489,0.0040374,0.0309946,944,512,-0.375203,10.4187
-273,512,-0.244751,-10.6829,0,0,0,0,0,0,0,-1,951,512,-0.244723,10.6829
-266,512,-0.315918,-11.0248,0,0,0,0,0,0,0,-1,958,512,-0.315891,11.0249
-259,512,-0.284302,-11.1409,0,0,0,0,0,0,0,-1,965,512,-0.2843,11.1409
-252,512,1.45941,-3.43475,0,0,0,0,0,0,0,-1,972,512,1.45938,3.43475
-245,512,4.12927,-11.272,0,0,0,0,0,0,0,-1,979,512,4.1293,11.272
-238,512,0.227051,-8.92969,0,0,0,0,0,0,0,-1,986,512,0.227073,8.92968
-231,512,-2.54437,-10.169,0,0,0,0,0,0,0,-1,993,512,-2.54439,10.169
-224,512,-4.84601,-7.52783,0,0,0,0,0,0,0,-1,1000,512,-4.84602,7.52786
-217,512,-7.37274,-3.89563,0,0,0,0,0,0,0,-1,1007,512,-7.37274,3.89561
-210,512,-3.76642,-1.94702,0,0,0,0,0,0,0,-1,1014,512,-3.76641,1.94702
-203,512,-2.48328,-5.19061,0,0,0,0,0,0,0,-1,1021,512,-2.48328,5.19059
-196,512,-1.14929,-4.63202,0,0,0,0,0,0,0,-1,1028,512,-1.14934,4.632
-189,512,0.197998,4.55505,0,0,0,0,0,0,0,-1,1035,512,0.197996,-4.55506
-182,512,2.73938,0.0778503,0,0,0,0,0,0,0,-1,1042,512,2.73944,-0.077852
-175,512,2.29565,0.209808,0,0,0,0,0,0,0,-1,1049,512,2.29565,-0.209813
-168,512,2.09399,-0.302856,0,0,0,0,0,0,0,-1,1056,512,2.09403,0.302826
-161,512,2.76636,0.0921021,0,0,0,0,0,0,0,-1,1063,512,2.76633,-0.0921104
-154,512,3.41382,0.466187,0,0,0,0,0,0,0,-1,1070,512,3.41382,-0.466178
-147,512,0,0,0,0,0,0,0,0,0,-1,1077,512,0,0
-140,512,0,0,0,0,0,0,0,0,0,-1,1084,512,0,0
-133,512,0,0,0,0,0,0,0,0,0,-1,1091,512,0,0
-126,512,0,0,0,0,0,0,0,0,0,-1,1098,512,0,0
-119,512,0,0,0,0,0,0,0,0,0,-1,1105,512,0,0
-112,512,0,0,0,0,0,0,0,0,0,-1,1112,512,0,0
-105,512,0,0,0,0,0,0,0,0,0,-1,1119,512,0,0
-98,512,0,0,0,0,0,0,0,0,0,-1,1126,512,0,0
-91,512,0,0,0,0,0,0,0,0,0,-1,1133,512,0,0
-84,512,0,0,0,0,0,0,0,0,0,-1,1140,512,0,0
-77,512,0,0,0,0,0,0,0,0,0,-1,1147,512,0,0
-70,512,0,0,0,0,0,0,0,0,0,-1,1154,512,0,0
-63,512,0,0,0,0,0,0,0,0,0,-1,1161,512,0,0
-56,512,0,0,0,0,0,0,0,0,0,-1,1168,512,0,0
-49,512,0,0,0,0,0,0,0,0,0,-1,1175,512,0,0
-42,512,0,0,0,0,0,0,0,0,0,-1,1182,512,0,0
-35,512,0,0,0,0,0,0,0,0,0,-1,1189,512,0,0
-28,512,0,0,0,0,0,0,0,0,0,-1,1196,512,0,0
-21,512,0,0,0,0,0,0,0,0,0,-1,1203,512,0,0
-14,512,0,0,0,0,0,0,0,0,0,-1,1210,512,0,0
-7,512,0,0,0,0,0,0,0,0,0,-1,1217,512,0,0
0,512,0,0,0,0,0,0,0,0,0,-1,1224,512,0,0
7,512,0,0,0,0,0,0,0,0,0,-1,1231,512,0,0
14,512,0,0,0,0,0,0,0,0,0,-1,1238,512,0,0
21,512,0,0,0,0,0,0,0,0,0,-1,1245,512,0,0
28,512,0,0,0,0,0,0,0,0,0,-1,1252,512,0,0
35,512,0,0,0,0,0,0,0,0,0,-1,1259,512,0,0
42,512,0,0,0,0,0,0,0,0,0,-1,1266,512,0,0
49,512,0,0,0,0,0,0,0,0,0,-1,1273,512,0,0
56,512,0,0,0,0,0,0,0,0,0,-1,1280,512,0,0
63,512,0,0,0,0,0,0,0,0,0,-1,1287,512,0,0
70,512,0,0,0,0,0,0,0,0,0,-1,1294,512,0,0
77,512,0,0,0,0,0,0,0,0,0,-1,1301,512,0,0
84,512,0,0,0,0,0,0,0,0,0,-1,1308,512,0,0
91,512,0,0,0,0,0,0,0,0,0,-1,1315,512,0,0
98,512,0,0,0,0,0,0,0,0,0,-1,1322,512,0,0
105,512,0,0,0,0,0,0,0,0,0,-1,1329,512,0,0
112,512,0,0,0,0,0,0,0,0,0,-1,1336,512,0,0
119,512,0,0,0,0,0,0,0,0,0,-1,1343,512,0,0
126,512,0,0,0,0,0,0,0,0,0,-1,1350,512,0,0
133,512,0,0,0,0,0,0,0,0,0,-1,1357,512,0,0
140,512,0,0,0,0,0,0,0,0,0,-1,1364,512,0,0
147,512,0,0,0,0,0,0,0,0,0,-1,1371,512,0,0
154,512,0,0,0,0,0,0,0,0,0,-1,1378,512,0,0
161,512,0,0,0,0,0,0,0,0,0,-1,1385,512,0,0
168,512,0,0,0,0,0,0,0,0,0,-1,1392,512,0,0
175,512,0,0,0,0,0,0,0,0,0,-1,1399,512,0,0
182,512,0,0,0,0,0,0,0,0,0,-1,1406,512,0,0
189,512,0,0,0,0,0,0,0,0,0,-1,1413,512,0,0
196,512,0,0,0,0,0,0,0,0,0,-1,1420,512,0,0
203,512,0,0,0,0,0,0,0,0,0,-1,1427,512,0,0
210,512,0,0,0,0,0,0,0,0,0,-1,1434,512,0,0
217,512,0,0,0,0,0,0,0,0,0,-1,1441,512,0,0
224,512,0,0,0,0,0,0,0,0,0,-1,1448,512,0,0
231,512,0,0,0,0,0,0,0,0,0,-1,1455,512,0,0
238,512,0,0,0,0,0,0,0,0,0,-1,1462,512,0,0
245,512,0,0,0,0,0,0,0,0,0,-1,1469,512,0,0
252,512,0,0,0,0,0,0,0,0,0,-1,1476,512,0,0
259,512,0,0,0,0,0,0,0,0,0,-1,1483,512,0,0
266,512,0,0,0,0,0,0,0,0,0,-1,1490,512,0,0
273,512,4.00745,0.618622,0,0,0,0,0,0,0,-1,1497,512,4.00747,-0.618611
280,512,4.49609,0.649841,0,0,0,0,0,0,0,-1,1504,512,4.49612,-0.649834
287,512,4.77234,0.458069,0,0,0,0,0,0,0,-1,1511,512,4.77233,-0.458083
294,512,8.54956,-2.36273,0,0,0,0,0,0,0,-1,1518,512,8.54952,2.36274
301,512,6.302,-1.69092,0,0,0,0,0,0,0,-1,1525,512,6.30196,1.69093
308,512,8.2439,-6.22754,0,0,0,0,0,0,0,-1,1532,512,8.24394,6.22757
315,512,7.53687,-6.04211,0,0,0,0,0,0,0,-1,1539,512,7.53691,6.04211
322,512,6.82983,-5.85663,0,0,0,0,0,0,0,-1,1546,512,6.82988,5.85666
329,512,4.38147,-0.329651,0,0,0,0,0,0,0,-1,1553,512,4.38144,0.329662
336,512,4.41467,-0.741455,0,0,0,0,0,0,0,-1,1560,512,4.41467,0.741442
343,512,4.44727,-1.21667,0,0,0,0,0,0,0,-1,1567,512,4.44732,1.21666
350,512,4.55469,-1.65082,0,0,0,0,0,0,0,-1,1574,512,4.5547,1.65083
357,512,5.79993,-2.67456,0,0,0,0,0,0,0,-1,1581,512,5.79991,2.67454
364,512,5.18298,-6.80133,0,0,0,0,0,0,0,-1,1588,512,5.18296,6.80132
371,512,5.28467,-7.69269,0,0,0,0,0,0,0,-1,1595,512,5.28464,7.69269
378,512,6.29407,-9.88055,0,0,0,0,0,0,0,-1,1602,512,6.29412,9.88057
385,512,6.45569,-9.32233,-0.0114173,-0.0306736,-0.00963645,-0.00742333,-0.0346676,-0.392915,0.0210776,0.0498998,1609,512,6.45565,9.3223
392,512,6.35522,-8.98425,-0.00983003,-0.0251724,-0.00857788,-0.00599351,-0.0290089,-0.420571,0.0176833,0.0494299,1616,512,6.35526,8.98422
399,512,6.35449,-8.92523,-0.00818157,-0.0200045,-0.0075785,-0.00448163,-0.0237044,-0.454175,0.0145411,0.0494976,1623,512,6.35454,8.92526
406,512,6.17358,-9.00183,-0.00659602,-0.0152393,-0.00671093,-0.00293561,-0.0188997,-0.499336,0.0117442,0.0451005,1630,512,6.17364,9.00185
413,512,5.99451,-9.06525,-0.0050777,-0.0109957,-0.00559688,-0.00170576,-0.0143676,-0.542232,0.0090635,0.0366026,1637,512,5.9945,9.06525
420,512,6.078,-8.78613,-0.00394328,-0.00771601,-0.00457167,-0.000884088,-0.0107752,-0.589729,0.00690766,0.0189211,1644,512,6.07805,8.78611
427,512,6.10803,-8.50067,-0.00300866,-0.00523354,-0.00359252,-0.000360289,-0.00788192,-0.635253,0.00513873,0.0145274,1651,512,6.10808,8.50069
434,512,6.10645,-8.23395,-0.00219664,-0.00333703,-0.00265964,-4.67622e-05,-0.0054869,-0.679802,0.00364245,0.0110793,1658,512,6.10648,8.23394
441,512,6.07983,-7.98834,-0.00135113,-0.00165639,-0.00191186,0.000414187,-0.00342171,-0.745567,0.00243099,0.0127027,1665,512,6.07983,7.98833
448,512,6.06921,-7.73254,-0.000677218,-0.000611337,-0.00107848,0.000434701,-0.00172326,-0.800665,0.00131786,0.00898192,1672,512,6.06916,7.73254
455,512,6.06335,-7.45288,-0.000181466,-0.000146855,-0.000350925,0.000187191,-0.000515512,-0.810035,0.000420208,0.00842299,1679,512,6.06331,7.45285
462,512,6.08301,-7.17535,0.000235152,-0.000167529,1.24848e-06,0.000235156,-0.000167532,0.00310038,0.000233582,0.00892341,1686,512,6.08305,7.17537
469,512,6.08997,-6.90692,0.000480524,-0.000616284,-7.56493e-05,0.000485717,-0.000621477,-0.0685397,0.000640839,0.0109834,1693,512,6.09001,6.90695
476,512,6.0647,-6.6543,0.000382673,-0.00110526,-0.000298202,0.000440212,-0.0011628,-0.19061,0.000956329,0.0135784,1700,512,6.06475,6.65428
483,512,6.05518,-6.37866,5.11643e-05,-0.00147423,-0.000781834,0.0003807,-0.00180376,-0.398894,0.00134746,0.0126101,1707,512,6.05519,6.37869
490,512,6.06506,-6.091,-0.000549161,-0.00208219,-0.00159576,0.000454633,-0.00308598,-0.561498,0.0022244,0.0102958,1714,512,6.06502,6.09102
497,512,6.07788,-5.80878,-0.00158492,-0.00255766,-0.00265267,0.000625597,-0.00476818,-0.69473,0.00340652,0.0114346,1721,512,6.07791,5.8088
504,512,6.05994,-5.49768,-0.00283216,-0.0029521,-0.00391667,0.00102499,-0.00680926,-0.777743,0.00491691,0.0119143,1728,512,6.05995,5.49766
511,512,6.03162,-5.21588,-0.00438723,-0.00322729,-0.00547273,0.00169612,-0.00931064,-0.838188,0.0068429,0.0128269,1735,512,6.03161,5.2159
518,512,6.09802,-5.0094,-0.0063344,-0.00325465,-0.0071567,0.00252596,-0.012115,-0.891366,0.00903711,0.0219299,1742,512,6.09807,5.00939
525,512,5.63391,-4.59308,0,0,0,0,0,0,0,-1,1749,512,5.63396,4.59309
532,512,5.18176,-3.84473,0,0,0,0,0,0,0,-1,1756,512,5.18182,3.8447
539,512,4.39929,-3.11737,0,0,0,0,0,0,0,-1,1763,512,4.3993,3.11735
546,512,2.77551,-0.66449,0,0,0,0,0,0,0,-1,1770,512,2.77548,0.664503
553,512,3.927,-0.448853,0,0,0,0,0,0,0,-1,1777,512,3.92704,0.448843
560,512,3.55762,-0.201233,0,0,0,0,0,0,0,-1,1784,512,3.55768,0.201259
567,512,3.09045,0.191193,0,0,0,0,0,0,0,-1,1791,512,3.09045,-0.191203
574,512,0,0,0,0,0,0,0,0,0,-1,1798,512,0,0
581,512,0,0,0,0,0,0,0,0,0,-1,1805,512,0,0
588,512,0,0,0,0,0,0,0,0,0,-1,1812,512,0,0
595,512,0,0,0,0,0,0,0,0,0,-1,1819,512,0,0
602,512,0,0,0,0,0,0,0,0,0,-1,1826,512,0,0
609,512,0,0,0,0,0,0,0,0,0,-1,1833,512,0,0
616,512,0,0,0,0,0,0,0,0,0,-1,1840,512,0,0
623,512,0,0,0,0,0,0,0,0,0,-1,1847,512,0,0
630,512,0,0,0,0,0,0,0,0,0,-1,1854,512,0,0
637,512,0,0,0,0,0,0,0,0,0,-1,1861,512,0,0
644,512,0,0,0,0,0,0,0,0,0,-1,1868,512,0,0
651,512,0,0,0,0,0,0,0,0,0,-1,1875,512,0,0
658,512,0,0,0,0,0,0,0,0,0,-1,1882,512,0,0
665,512,0,0,0,0,0,0,0,0,0,-1,1889,512,0,0
672,512,0,0,0,0,0,0,0,0,0,-1,1896,512,0,0
679,512,0,0,0,0,0,0,0,0,0,-1,1903,512,0,0
686,512,0,0,0,0,0,0,0,0,0,-1,1910,512,0,0
693,512,0,0,0,0,0,0,0,0,0,-1,1917,512,0,0
700,512,0,0,0,0,0,0,0,0,0,-1,1924,512,0,0
707,512,0,0,0,0,0,0,0,0,0,-1,1931,512,0,0
714,512,0,0,0,0,0,0,0,0,0,-1,1938,512,0,0
721,512,0,0,0,0,0,0,0,0,0,-1,1945,512,0,0
728,512,0,0,0,0,0,0,0,0,0,-1,1952,512,0,0
735,512,0,0,0,0,0,0,0,0,0,-1,1959,512,0,0
742,512,0,0,0,0,0,0,0,0,0,-1,1966,512,0,0
749,512,0,0,0,0,0,0,0,0,0,-1,1973,512,0,0
756,512,0,0,0,0,0,0,0,0,0,-1,1980,512,0,0
763,512,0,0,0,0,0,0,0,0,0,-1,1987,512,0,0
770,512,0,0,0,0,0,0,0,0,0,-1,1994,512,0,0
777,512,0,0,0,0,0,0,0,0,0,-1,2001,512,0,0
784,512,0,0,0,0,0,0,0,0,0,-1,2008,512,0,0
791,512,0,0,0,0,0,0,0,0,0,-1,2015,512,0,0
798,512,0,0,0,0,0,0,0,0,0,-1,2022,512,0,0
805,512,0,0,0,0,0,0,0,0,0,-1,2029,512,0,0
812,512,0,0,0,0,0,0,0,0,0,-1,2036,512,0,0
-700,505,0,0,0,0,0,0,0,0,0,-1,524,519,0,0
-693,505,0,0,0,0,0,0,0,0,0,-1,531,519,0,0
-686,505,0,0,0,0,0,0,0,0,0,-1,538,519,0,0
-679,505,0,0,0,0,0,0,0,0,0,-1,545,519,0,0
-672,505,0,0,0,0,0,0,0,0,0,-1,552,519,0,0
-665,505,0,0,0,0,0,0,0,0,0,-1,559,519,0,0
-658,505,0,0,0,0,0,0,0,0,0,-1,566,519,0,0
-651,505,0,0,0,0,0,0,0,0,0,-1,573,519,0,0
-644,505,0,0,0,0,0,0,0,0,0,-1,580,519,0,0
-637,505,0,0,0,0,0,0,0,0,0,-1,587,519,0,0
-630,505,0,0,0,0,0,0,0,0,0,-1,594,519,0,0
-623,505,0,0,0,0,0,0,0,0,0,-1,601,519,0,0
-616,505,0,0,0,0,0,0,0,0,0,-1,608,519,0,0
-609,505,0,0,0,0,0,0,0,0,0,-1,615,519,0,0
-602,505,0,0,0,0,0,0,0,0,0,-1,622,519,0,0
-595,505,0,0,0,0,0,0,0,0,0,-1,629,519,0,0
-588,505,0,0,0,0,0,0,0,0,0,-1,636,519,0,0
-581,505,0,0,0,0,0,0,0,0,0,-1,643,519,0,0
-574,505,0,0,0,0,0,0,0,0,0,-1,650,519,0,0
-567,505,0,0,0,0,0,0,0,0,0,-1,657,519,0,0
-560,505,0,0,0,0,0,0,0,0,0,-1,664,519,0,0
-553,505,0,0,0,0,0,0,0,0,0,-1,671,519,0,0
-546,505,0,0,0,0,0,0,0,0,0,-1,678,519,0,0
-539,505,0,0,0,0,0,0,0,0,0,-1,685,519,0,0
-532,505,0,0,0,0,0,0,0,0,0,-1,692,519,0,0
-525,505,0,0,0,0,0,0,0,0,0,-1,699,519,0,0
-518,505,0,0,0,0,0,0,0,0,0,-1,706,519,0,0
-511,505,0,0,0,0,0,0,0,0,0,-1,713,519,0,0
-504,505,0,0,0,0,0,0,0,0,0,-1,720,519,0,0
-497,505,0,0,0,0,0,0,0,0,0,-1,727,519,0,0
-490,505,0,0,0,0,0,0,0,0,0,-1,734,519,0,0
-483,505,0,0,0,0,0,0,0,0,0,-1,741,519,0,0
-476,505,0,0,0,0,0,0,0,0,0,-1,748,519,0,0
-469,505,0,0,0,0,0,0,0,0,0,-1,755,519,0,0
-462,505,0,0,0,0,0,0,0,0,0,-1,762,519,0,0
-455,505,-2.63678,-7.51263,0,0,0,0,0,0,0,-1,769,519,-2.6368,7.51263
-448,505,-2.04388,-6.93677,0,0,0,0,0,0,0,-1,776,519,-2.04389,6.93677
-441,505,-1.20142,-6.38684,0,0,0,0,0,0,0,-1,783,519,-1.20142,6.38683
-434,505,-0.456665,-5.86285,0,0,0,0,0,0,0,-1,790,519,-0.456664,5.86283
-427,505,-0.134399,-5.5473,0,0,0,0,0,0,0,-1,797,519,-0.134394,5.5473
-420,505,-0.296753,-5.57709,0,0,0,0,0,0,0,-1,804,519,-0.296752,5.57709
-413,505,-0.483765,-5.49554,0,0,0,0,0,0,0,-1,811,519,-0.483742,5.49553
-406,505,-1.58423,-6.56433,0,0,0,0,0,0,0,-1,818,519,-1.58425,6.56436
-399,505,-1.09344,-6.58679,0.000745534,0.00336564,0.0112495,0.0133812,-0.00926999,0.843364,0.0131492,0.0421183,825,519,-1.09346,6.58681
-392,505,-0.559692,-6.5011,0.000272233,0.0023114,0.00886895,0.0102192,-0.00763554,0.842628,0.0103443,0.0212501,832,519,-0.559716,6.50112
-385,505,-0.579773,-6.76379,0.000145803,0.00127588,0.00678193,0.00751627,-0.00609458,0.82696,0.0078725,0.00882097,839,519,-0.579783,6.76381
-378,505,-0.605103,-7.0202,4.65424e-05,0.000449874,0.00508245,0.00533466,-0.00483824,0.805227,0.00587566,0.0109433,846,519,-0.605124,7.02018
-371,505,-0.601624,-7.30316,0.000108036,-0.000142428,0.00348158,0.00346663,-0.00350103,0.767421,0.0040228,0.0144166,853,519,-0.601614,7.30318
-364,505,-0.613647,-7.56982,0.000268205,-0.0005407,0.00222613,0.00212633,-0.00239883,0.695536,0.00261418,0.0149425,860,519,-0.613617,7.56985
-357,505,-0.591858,-7.80182,0.000510794,-0.000877035,0.00130515,0.00129503,-0.00166127,0.541066,0.00171119,0.0126392,867,519,-0.591886,7.80184
-350,505,-0.602051,-8.04456,0.000838624,-0.000898262,0.00053848,0.00099202,-0.00105166,0.277517,0.00118009,0.012157,874,519,-0.602051,8.04453
-343,505,-0.62793,-8.31348,0.00106719,-0.00101748,-0.000333605,0.00111927,-0.00106956,-0.154877,0.00126383,0.00891946,881,519,-0.627927,8.31345
-336,505,-0.650513,-8.55792,0.00132062,-0.00097675,-0.000523985,0.00143448,-0.00109062,-0.213983,0.00146237,0.00993834,888,519,-0.650512,8.5579
-329,505,-0.64502,-8.78265,0.00169671,-0.000882074,-0.000630722,0.00184271,-0.00102807,-0.22747,0.00167954,0.0130775,895,519,-0.644989,8.78267
-322,505,-0.645325,-9.03448,0.00198958,-0.000776775,-0.000692619,0.0021533,-0.000940498,-0.232122,0.00183138,0.0150078,902,519,-0.645301,9.03449
-315,505,-0.644897,-9.28851,0.00230114,-0.000643952,-0.000709941,0.00246335,-0.000806156,-0.22462,0.00196682,0.0129727,909,519,-0.644909,9.28854
-308,505,-0.641663,-9.52118,0.00265836,-0.000648694,-0.000638875,0.00277749,-0.000767824,-0.184351,0.00215372,0.0117104,916,519,-0.641682,9.52115
-301,505,-0.603333,-9.77814,0.00296764,-0.000769845,-0.000514664,0.00303721,-0.000839421,-0.134372,0.00235502,0.0173075,923,519,-0.603313,9.77813
-294,505,-0.640808,-9.78265,0.00329452,-0.00112776,-0.00026145,0.00330993,-0.00114316,-0.0588478,0.00267051,0.0338001,930,519,-0.640817,9.78263
-287,505,-0.718384,-10.0911,0.00374348,-0.00202906,-0.000108958,0.00374554,-0.00203112,-0.0188663,0.00338376,0.0465199,937,519,-0.71838,10.0911
-280,505,-0.577637,-10.5706,0,0,0,0,0,0,0,-1,944,519,-0.577642,10.5705
-273,505,-0.0680542,-9.44867,0,0,0,0,0,0,0,-1,951,519,-0.0680462,9.44866
-266,505,-0.036377,-9.07922,0,0,0,0,0,0,0,-1,958,519,-0.0364055,9.0792
-259,505,0.10321,-6.69824,0,0,0,0,0,0,0,-1,965,519,0.103235,6.69826
-252,505,6.82312,-15.6972,0,0,0,0,0,0,0,-1,972,519,6.82314,15.6972
-245,505,4.26727,-12.9861,0,0,0,0,0,0,0,-1,979,519,4.2673,12.9861
-238,505,1.67432,-11.2307,0,0,0,0,0,0,0,-1,986,519,1.67429,11.2307
-231,505,-0.958435,-8.3075,0,0,0,0,0,0,0,-1,993,519,-0.958421,8.30751
-224,505,-3.69653,-5.12732,0,0,0,0,0,0,0,-1,1000,519,-3.69653,5.12733
-217,505,-6.34302,-1.65533,0,0,0,0,0,0,0,-1,1007,519,-6.34299,1.65535
-210,505,-3.06128,-0.396301,0,0,0,0,0,0,0,-1,1014,519,-3.06129,0.396294
-203,505,-4.26465,2.03607,0,0,0,0,0,0,0,-1,1021,519,-4.26462,-2.03606
-196,505,-5.47595,4.27295,0,0,0,0,0,0,0,-1,1028,519,-5.47597,-4.27292
-189,505,1.51526,5.56207,0,0,0,0,0,0,0,-1,1035,519,1.51523,-5.56209
-182,505,2.97815,7.5097,0,0,0,0,0,0,0,-1,1042,519,2.97812,-7.5097
-175,505,-2.38416,-2.17548,0,0,0,0,0,0,0,-1,1049,519,-2.38411,2.1755
-168,505,0,0,0,0,0,0,0,0,0,-1,1056,519,0,0
-161,505,0,0,0,0,0,0,0,0,0,-1,1063,519,0,0
-154,505,0,0,0,0,0,0,0,0,0,-1,1070,519,0,0
-147,505,0,0,0,0,0,0,0,0,0,-1,1077,519,0,0
-140,505,0,0,0,0,0,0,0,0,0,-1,1084,519,0,0
-133,505,0,0,0,0,0,0,0,0,0,-1,1091,519,0,0
-126,505,0,0,0,0,0,0,0,0,0,-1,1098,519,0,0
-119,505,0,0,0,0,0,0,0,0,0,-1,1105,519,0,0
-112,505,0,0,0,0,0,0,0,0,0,-1,1112,519,0,0
-105,505,0,0,0,0,0,0,0,0,0,-1,1119,519,0,0
-98,505,0,0,0,0,0,0,0,0,0,-1,1126,519,0,0
-91,505,0,0,0,0,0,0,0,0,0,-1,1133,519,0,0
-84,505,0,0,0,0,0,0,0,0,0,-1,1140,519,0,0
-77,505,0,0,0,0,0,0,0,0,0,-1,1147,519,0,0
-70,505,0,0,0,0,0,0,0,0,0,-1,1154,519,0,0
-63,505,0,0,0,0,0,0,0,0,0,-1,1161,519,0,0
-56,505,0,0,0,0,0,0,0,0,0,-1,1168,519,0,0
-49,505,0,0,0,0,0,0,0,0,0,-1,1175,519,0,0
-42,505,0,0,0,0,0,0,0,0,0,-1,1182,519,0,0
-35,505,0,0,0,0,0,0,0,0,0,-1,1189,519,0,0
-28,505,0,0,0,0,0,0,0,0,0,-1,1196,519,0,0
-21,505,0,0,0,0,0,0,0,0,0,-1,1203,519,0,0
-14,505,0,0,0,0,0,0,0,0,0,-1,1210,519,0,0
-7,505,0,0,0,0,0,0,0,0,0,-1,1217,519,0,0
0,505,0,0,0,0,0,0,0,0,0,-1,1224,519,0,0
7,505,0,0,0,0,0,0,0,0,0,-1,1231,519,0,0
14,505,0,0,0,0,0,0,0,0,0,-1,1238,519,0,0
21,505,0,0,0,0,0,0,0,0,0,-1,1245,519,0,0
28,505,0,0,0,0,0,0,0,0,0,-1,1252,519,0,0
35,505,0,0,0,0,0,0,0,0,0,-1,1259,519,0,0
42,505,0,0,0,0,0,0,0,0,0,-1,1266,519,0,0
49,505,0,0,0,0,0,0,0,0,0,-1,1273,519,0,0
56,505,0,0,0,0,0,0,0,0,0,-1,1280,519,0,0
63,505,0,0,0,0,0,0,0,0,0,-1,1287,519,0,0
70,505,0,0,0,0,0,0,0,0,0,-1,1294,519,0,0
77,505,0,0,0,0,0,0,0,0,0,-1,1301,519,0,0
84,505,0,0,0,0,0,0,0,0,0,-1,1308,519,0,0
91,505,0,0,0,0,0,0,0,0,0,-1,1315,519,0,0
98,505,0,0,0,0,0,0,0,0,0,-1,1322,519,0,0
105,505,0,0,0,0,0,0,0,0,0,-1,1329,519,0,0
112,505,0,0,0,0,0,0,0,0,0,-1,1336,519,0,0
119,505,0,0,0,0,0,0,0,0,0,-1,1343,519,0,0
126,505,0,0,0,0,0,0,0,0,0,-1,1350,519,0,0
133,505,0,0,0,0,0,0,0,0,0,-1,1357,519,0,0
140,505,0,0,0,0,0,0,0,0,0,-1,1364,519,0,0
147,505,0,0,0,0,0,0,0,0,0,-1,1371,519,0,0
154,505,0,0,0,0,0,0,0,0,0,-1,1378,519,0,0
161,505,0,0,0,0,0,0,0,0,0,-1,1385,519,0,0
168,505,0,0,0,0,0,0,0,0,0,-1,1392,519,0,0
175,505,0,0,0,0,0,0,0,0,0,-1,1399,519,0,0
182,505,0,0,0,0,0,0,0,0,0,-1,1406,519,0,0
189,505,0,0,0,0,0,0,0,0,0,-1,1413,519,0,0
196,505,0,0,0,0,0,0,0,0,0,-1,1420,519,0,0
203,505,0,0,0,0,0,0,0,0,0,-1,1427,519,0,0
210,505,0,0,0,0,0,0,0,0,0,-1,1434,519,0,0
217,505,0,0,0,0,0,0,0,0,0,-1,1441,519,0,0
224,505,0,0,0,0,0,0,0,0,0,-1,1448,519,0,0
231,505,0,0,0,0,0,0,0,0,0,-1,1455,519,0,0
238,505,0,0,0,0,0,0,0,0,0,-1,1462,519,0,0
245,505,0,0,0,0,0,0,0,0,0,-1,1469,519,0,0
252,505,0,0,0,0,0,0,0,0,0,-1,1476,519,0,0
259,505,0,0,0,0,0,0,0,0,0,-1,1483,519,0,0
266,505,0,0,0,0,0,0,0,0,0,-1,1490,519,0,0
273,505,0,0,0,0,0,0,0,0,0,-1,1497,519,0,0
280,505,0,0,0,0,0,0,0,0,0,-1,1504,519,0,0
287,505,4.39478,0.499512,0,0,0,0,0,0,0,-1,1511,519,4.39476,-0.499506
294,505,4.88867,0.0822754,0,0,0,0,0,0,0,-1,1518,519,4.88871,-0.0822748
301,505,4.82153,-0.0704346,0,0,0,0,0,0,0,-1,1525,519,4.82156,0.0704312
308,505,4.67761,-0.29187,0,0,0,0,0,0,0,-1,1532,519,4.67762,0.291845
315,505,8.44055,-6.54352,0,0,0,0,0,0,0,-1,1539,519,8.44059,6.54349
322,505,4.78955,-0.594116,0,0,0,0,0,0,0,-1,1546,519,4.78957,0.594096
329,505,5.16321,0.434631,0,0,0,0,0,0,0,-1,1553,519,5.16316,-0.434614
336,505,4.94495,-0.920471,0,0,0,0,0,0,0,-1,1560,519,4.945,0.920495
343,505,5.01855,-1.4823,0,0,0,0,0,0,0,-1,1567,519,5.01851,1.48227
350,505,5.33154,-1.77838,0,0,0,0,0,0,0,-1,1574,519,5.33152,1.77838
357,505,5.56567,-1.9425,0,0,0,0,0,0,0,-1,1581,519,5.56562,1.94248
364,505,5.85205,-2.6579,0,0,0,0,0,0,0,-1,1588,519,5.85211,2.65788
371,505,5.88477,-7.00922,0,0,0,0,0,0,0,-1,1595,519,5.88473,7.00924
378,505,5.44104,-7.10162,0,0,0,0,0,0,0,-1,1602,519,5.44099,7.10162
385,505,6.64661,-8.65015,0,0,0,0,0,0,0,-1,1609,519,6.64662,8.65014
392,505,6.34558,-8.3429,0,0,0,0,0,0,0,-1,1616,519,6.34554,8.34288
399,505,6.77344,-8.5332,0,0,0,0,0,0,0,-1,1623,519,6.77347,8.53318
406,505,6.81494,-8.72992,0,0,0,0,0,0,0,-1,1630,519,6.81488,8.7299
413,505,6.18286,-9.14624,0,0,0,0,0,0,0,-1,1637,519,6.18284,9.14625
420,505,6.36707,-8.84827,-0.00541674,-0.00988553,-0.00581892,-0.00141797,-0.0138843,-0.602085,0.00882161,0.0402981,1644,519,6.36712,8.84825
427,505,6.35889,-8.52472,-0.00414935,-0.00668422,-0.00460506,-0.000640497,-0.0101931,-0.65111,0.00659226,0.0147719,1651,519,6.35885,8.52472
434,505,6.36707,-8.2326,-0.00305255,-0.00416286,-0.00344339,-0.000119854,-0.00709556,-0.705474,0.00469093,0.0102971,1658,519,6.36704,8.23259
441,505,6.35425,-7.95282,-0.00198119,-0.00199197,-0.00257642,0.000589842,-0.00456301,-0.784352,0.00325648,0.0105056,1665,519,6.35419,7.9528
448,505,6.34302,-7.70245,-0.00110623,-0.000614543,-0.00162305,0.000781179,-0.00250195,-0.860562,0.0019804,0.0104846,1672,519,6.34305,7.70244
455,505,6.33765,-7.4447,-0.000415578,4.87639e-05,-0.000780148,0.000630555,-0.00099737,-0.930024,0.000947803,0.0108789,1679,519,6.33766,7.44471
462,505,6.32959,-7.172,0.000146605,0.000166269,-0.00029526,0.000451861,-0.000138987,-0.802042,0.000356712,0.0105691,1686,519,6.32963,7.17202
469,505,6.32715,-6.90161,0.000465266,-0.000152437,-0.000239862,0.000547468,-0.000234639,-0.330163,0.000463434,0.0110864,1693,519,6.3272,6.90162
476,505,6.31384,-6.64398,0.000444449,-0.000540111,-0.000355851,0.000559597,-0.000655259,-0.312953,0.000702122,0.0114832,1700,519,6.31382,6.64396
483,505,6.3197,-6.3963,0.000203439,-0.0008172,-0.000688027,0.000549745,-0.00116351,-0.46631,0.00101008,0.0126322,1707,519,6.31965,6.39629
490,505,6.33032,-6.11951,-0.000288145,-0.00127388,-0.00128763,0.000597723,-0.00215974,-0.602616,0.001675,0.0120164,1714,519,6.33032,6.11952
497,505,6.33899,-5.80835,-0.00122565,-0.00162736,-0.00211604,0.000699047,-0.00355206,-0.738079,0.00263218,0.0116243,1721,519,6.33904,5.80833
504,505,6.32983,-5.50317,-0.00236795,-0.00183499,-0.00307118,0.000981248,-0.00518419,-0.828674,0.00382539,0.0118633,1728,519,6.32978,5.50318
511,505,6.32825,-5.23212,-0.00381449,-0.00192484,-0.00421778,0.00145265,-0.00719198,-0.895585,0.00534507,0.0133211,1735,519,6.32828,5.23213
518,505,6.39343,-4.98193,-0.00560939,-0.00176862,-0.0054647,0.00210331,-0.00948131,-0.954366,0.00712621,0.0263901,1742,519,6.39346,4.98194
525,505,6.05872,-4.74194,-0.00777471,-0.00126142,-0.00677782,0.00300155,-0.0120377,-1.00936,0.0091905,0.0386142,1749,519,6.05871,4.74195
532,505,5.80212,-4.24408,-0.010255,-0.000300428,-0.00806327,0.00419803,-0.0147535,-1.06191,0.0114934,0.0436159,1756,519,5.80213,4.2441
539,505,5.63354,-4.13336,0,0,0,0,0,0,0,-1,1763,519,5.63355,4.13337
546,505,4.69727,-1.47705,0,0,0,0,0,0,0,-1,1770,519,4.69723,1.47703
553,505,2.82837,0.162659,0,0,0,0,0,0,0,-1,1777,519,2.82841,-0.162672
560,505,3.66223,-0.479797,0,0,0,0,0,0,0,-1,1784,519,3.66219,0.47982
567,505,4.65271,-0.950256,0,0,0,0,0,0,0,-1,1791,519,4.65274,0.95028
574,505,5.54443,-1.19977,0,0,0,0,0,0,0,-1,1798,519,5.54443,1.19974
581,505,0,0,0,0,0,0,0,0,0,-1,1805,519,0,0
588,505,0,0,0,0,0,0,0,0,0,-1,1812,519,0,0
595,505,0,0,0,0,0,0,0,0,0,-1,1819,519,0,0
602,505,0,0,0,0,0,0,0,0,0,-1,1826,519,0,0
609,505,0,0,0,0,0,0,0,0,0,-1,1833,519,0,0
616,505,0,0,0,0,0,0,0,0,0,-1,1840,519,0,0
623,505,0,0,0,0,0,0,0,0,0,-1,1847,519,0,0
630,505,0,0,0,0,0,0,0,0,0,-1,1854,519,0,0
637,505,0,0,0,0,0,0,0,0,0,-1,1861,519,0,0
644,505,0,0,0,0,0,0,0,0,0,-1,1868,519,0,0
651,505,0,0,0,0,0,0,0,0,0,-1,1875,519,0,0
658,505,0,0,0,0,0,0,0,0,0,-1,1882,519,0,0
665,505,0,0,0,0,0,0,0,0,0,-1,1889,519,0,0
672,505,0,0,0,0,0,0,0,0,0,-1,1896,519,0,0
679,505,0,0,0,0,0,0,0,0,0,-1,1903,519,0,0
686,505,0,0,0,0,0,0,0,0,0,-1,1910,519,0,0
693,505,0,0,0,0,0,0,0,0,0,-1,1917,519,0,0
700,505,0,0,0,0,0,0,0,0,0,-1,1924,519,0,0
707,505,0,0,0,0,0,0,0,0,0,-1,1931,519,0,0
714,505,0,0,0,0,0,0,0,0,0,-1,1938,519,0,0
721,505,0,0,0,0,0,0,0,0,0,-1,1945,519,0,0
728,505,0,0,0,0,0,0,0,0,0,-1,1952,519,0,0
735,505,0,0,0,0,0,0,0,0,0,-1,1959,519,0,0
742,505,0,0,0,0,0,0,0,0,0,-1,1966,519,0,0
749,505,0,0,0,0,0,0,0,0,0,-1,1973,519,0,0
756,505,0,0,0,0,0,0,0,0,0,-1,1980,519,0,0
763,505,0,0,0,0,0,0,0,0,0,-1,1987,519,0,0
770,505,0,0,0,0,0,0,0,0,0,-1,1994,519,0,0
777,505,0,0,0,0,0,0,0,0,0,-1,2001,519,0,0
784,505,0,0,0,0,0,0,0,0,0,-1,2008,519,0,0
791,505,0,0,0,0,0,0,0,0,0,-1,2015,519,0,0
798,505,0,0,0,0,0,0,0,0,0,-1,2022,519,0,0
805,505,0,0,0,0,0,0,0,0,0,-1,2029,519,0,0
812,505,0,0,0,0,0,0,0,0,0,-1,2036,519,0,0
-700,498,0,0,0,0,0,0,0,0,0,-1,524,526,0,0
-693,498,0,0,0,0,0,0,0,0,0,-1,531,526,0,0
-686,498,0,0,0,0,0,0,0,0,0,-1,538,526,0,0
-679,498,0,0,0,0,0,0,0,0,0,-1,545,526,0,0
-672,498,0,0,0,0,0,0,0,0,0,-1,552,526,0,0
-665,498,0,0,0,0,0,0,0,0,0,-1,559,526,0,0
-658,498,0,0,0,0,0,0,0,0,0,-1,566,526,0,0
-651,498,0,0,0,0,0,0,0,0,0,-1,573,526,0,0
-644,498,0,0,0,0,0,0,0,0,0,-1,580,526,0,0
-637,498,0,0,0,0,0,0,0,0,0,-1,587,526,0,0
-630,498,0,0,0,0,0,0,0,0,0,-1,594,526,0,0
-623,498,0,0,0,0,0,0,0,0,0,-1,601,526,0,0
-616,498,0,0,0,0,0,0,0,0,0,-1,608,526,0,0
-609,498,0,0,0,0,0,0,0,0,0,-1,615,526,0,0
-602,498,0,0,0,0,0,0,0,0,0,-1,622,526,0,0
-595,498,0,0,0,0,0,0,0,0,0,-1,629,526,0,0
-588,498,0,0,0,0,0,0,0,0,0,-1,636,526,0,0
-581,498,0,0,0,0,0,0,0,0,0,-1,643,526,0,0
-574,498,0,0,0,0,0,0,0,0,0,-1,650,526,0,0
-567,498,0,0,0,0,0,0,0,0,0,-1,657,526,0,0
-560,498,0,0,0,0,0,0,0,0,0,-1,664,526,0,0
-553,498,0,0,0,0,0,0,0,0,0,-1,671,526,0,0
-546,498,0,0,0,0,0,0,0,0,0,-1,678,526,0,0
-539,498,0,0,0,0,0,0,0,0,0,-1,685,526,0,0
-532,498,0,0,0,0,0,0,0,0,0,-1,692,526,0,0
-525,498,0,0,0,0,0,0,0,0,0,-1,699,526,0,0
-518,498,0,0,0,0,0,0,0,0,0,-1,706,526,0,0
-511,498,0,0,0,0,0,0,0,0,0,-1,713,526,0,0
-504,498,0,0,0,0,0,0,0,0,0,-1,720,526,0,0
-497,498,0,0,0,0,0,0,0,0,0,-1,727,526,0,0
-490,498,0,0,0,0,0,0,0,0,0,-1,734,526,0,0
-483,498,0,0,0,0,0,0,0,0,0,-1,741,526,0,0
-476,498,0,0,0,0,0,0,0,0,0,-1,748,526,0,0
-469,498,0,0,0,0,0,0,0,0,0,-1,755,526,0,0
-462,498,6.81024,1.15515,0,0,0,0,0,0,0,-1,762,526,6.81026,-1.15514
-455,498,5.67346,-0.137817,0,0,0,0,0,0,0,-1,769,526,5.67348,0.137819
-448,498,-3.09161,-7.10254,0,0,0,0,0,0,0,-1,776,526,-3.09161,7.10252
-441,498,-2.26862,-6.39166,0,0,0,0,0,0,0,-1,783,526,-2.26862,6.39167
-434,498,-1.05585,-5.11163,0,0,0,0,0,0,0,-1,790,526,-1.05586,5.11163
-427,498,-0.886169,-5.83813,0,0,0,0,0,0,0,-1,797,526,-0.886142,5.83816
-420,498,-0.372192,-5.84454,0,0,0,0,0,0,0,-1,804,526,-0.372162,5.84455
-413,498,-0.787048,-5.50726,0,0,0,0,0,0,0,-1,811,526,-0.787071,5.50728
-406,498,-0.785034,-5.88757,0,0,0,0,0,0,0,-1,818,526,-0.785032,5.88754
-399,498,-1.07959,-6.33112,0,0,0,0,0,0,0,-1,825,526,-1.07962,6.33113
-392,498,-0.827087,-6.49304,0.000531293,0.00211365,0.00616181,0.00753487,-0.00488993,0.849249,0.00722744,0.0128287,832,526,-0.827088,6.49305
-385,498,-0.845886,-6.75494,0.000461848,0.00128916,0.00483097,0.00572415,-0.00397314,0.828107,0.00562908,0.00789405,839,526,-0.845856,6.75496
-378,498,-0.869568,-7.01038,0.000427134,0.00056498,0.00370069,0.00419739,-0.00320528,0.794709,0.00428671,0.00990272,846,526,-0.869556,7.01036
-371,498,-0.851135,-7.27728,0.000561987,3.98098e-05,0.00250715,0.0028216,-0.00221981,0.733516,0.00291756,0.016581,853,526,-0.851149,7.27731
-364,498,-0.877014,-7.55243,0.000782459,-0.00037857,0.00155634,0.00186303,-0.00145914,0.60689,0.00192277,0.0164614,860,526,-0.876994,7.55244
-357,498,-0.872681,-7.79236,0.00111011,-0.000752135,0.000827631,0.00142477,-0.00106679,0.363311,0.00144344,0.0113283,867,526,-0.872652,7.79238
-350,498,-0.86731,-8.04138,0.00153114,-0.000837547,0.000184537,0.00154543,-0.000851837,0.0772854,0.00140324,0.0111452,874,526,-0.867339,8.0414
-343,498,-0.866516,-8.3056,0.001835,-0.00106198,-0.000435007,0.00189891,-0.00112589,-0.145874,0.00176527,0.0107426,881,526,-0.866505,8.30558
-336,498,-0.878479,-8.55597,0.00214624,-0.00116783,-0.000597609,0.00225071,-0.0012723,-0.173065,0.00205999,0.0130027,888,526,-0.878491,8.55595
-329,498,-0.883911,-8.77203,0.0025902,-0.00121437,-0.000723507,0.00272315,-0.00134731,-0.18172,0.00239441,0.0183717,895,526,-0.883892,8.77204
-322,498,-0.871582,-9.03119,0.00296508,-0.0012456,-0.000831953,0.0031235,-0.00140402,-0.188165,0.00267607,0.0190225,902,526,-0.871571,9.03117
-315,498,-0.88562,-9.29413,0.00338473,-0.00126973,-0.000910833,0.00355662,-0.00144162,-0.186527,0.00297061,0.0163243,909,526,-0.885609,9.29414
-308,498,-0.887024,-9.52673,0.00379973,-0.0014101,-0.000885323,0.00394607,-0.00155643,-0.163809,0.00327521,0.0192384,916,526,-0.887035,9.52675
-301,498,-0.761292,-9.85291,0.00409216,-0.00159453,-0.000807761,0.00420467,-0.00170705,-0.138398,0.0035132,0.0344958,923,526,-0.761316,9.85288
-294,498,-0.594971,-10.2627,0,0,0,0,0,0,0,-1,930,526,-0.594984,10.2627
-287,498,-0.57666,-10.2085,0,0,0,0,0,0,0,-1,937,526,-0.576653,10.2085
-280,498,-0.341614,-8.66608,0,0,0,0,0,0,0,-1,944,526,-0.341589,8.66606
-273,498,-0.988892,-8.62921,0,0,0,0,0,0,0,-1,951,526,-0.988906,8.62922
-266,498,0.362488,-6.33545,0,0,0,0,0,0,0,-1,958,526,0.362478,6.33547
-259,498,10.9454,-17.3615,0,0,0,0,0,0,0,-1,965,526,10.9454,17.3614
-252,498,8.56586,-14.6886,0,0,0,0,0,0,0,-1,972,526,8.56584,14.6886
-245,498,5.97382,-11.928,0,0,0,0,0,0,0,-1,979,526,5.97381,11.928
-238,498,3.31403,-9.40442,0,0,0,0,0,0,0,-1,986,526,3.31405,9.40443
-231,498,0.675598,-6.60547,0,0,0,0,0,0,0,-1,993,526,0.675587,6.60545
-224,498,-2.11243,-4.76312,0,0,0,0,0,0,0,-1,1000,526,-2.11245,4.76314
-217,498,-3.82239,-1.42841,0,0,0,0,0,0,0,-1,1007,526,-3.82241,1.42843
-210,498,-1.80591,-0.358215,0,0,0,0,0,0,0,-1,1014,526,-1.8059,0.3582
-203,498,-3.17316,1.06641,0,0,0,0,0,0,0,-1,1021,526,-3.17313,-1.0664
-196,498,-0.103271,5.40527,0,0,0,0,0,0,0,-1,1028,526,-0.103285,-5.40528
-189,498,3.00256,6.47137,0,0,0,0,0,0,0,-1,1035,526,3.00256,-6.47139
-182,498,0,0,0,0,0,0,0,0,0,-1,1042,526,0,0
-175,498,0,0,0,0,0,0,0,0,0,-1,1049,526,0,0
-168,498,0,0,0,0,0,0,0,0,0,-1,1056,526,0,0
-161,498,0,0,0,0,0,0,0,0,0,-1,1063,526,0,0
-154,498,0,0,0,0,0,0,0,0,0,-1,1070,526,0,0
-147,498,0,0,0,0,0,0,0,0,0,-1,1077,526,0,0
-140,498,0,0,0,0,0,0,0,0,0,-1,1084,526,0,0
-133,498,0,0,0,0,0,0,0,0,0,-1,1091,526,0,0
-126,498,0,0,0,0,0,0,0,0,0,-1,1098,526,0,0
-119,498,0,0,0,0,0,0,0,0,0,-1,1105,526,0,0
-112,498,0,0,0,0,0,0,0,0,0,-1,1112,526,0,0
-105,498,0,0,0,0,0,0,0,0,0,-1,1119,526,0,0
-98,498,0,0,0,0,0,0,0,0,0,-1,1126,526,0,0
-91,498,0,0,0,0,0,0,0,0,0,-1,1133,526,0,0
-84,498,0,0,0,0,0,0,0,0,0,-1,1140,526,0,0
-77,498,0,0,0,0,0,0,0,0,0,-1,1147,526,0,0
-70,498,0,0,0,0,0,0,0,0,0,-1,1154,526,0,0
-63,498,0,0,0,0,0,0,0,0,0,-1,1161,526,0,0
-56,498,0,0,0,0,0,0,0,0,0,-1,1168,526,0,0
-49,498,0,0,0,0,0,0,0,0,0,-1,1175,526,0,0
-42,498,0,0,0,0,0,0,0,0,0,-1,1182,526,0,0
-35,498,0,0,0,0,0,0,0,0,0,-1,1189,526,0,0
-28,498,0,0,0,0,0,0,0,0,0,-1,1196,526,0,0
-21,498,0,0,0,0,0,0,0,0,0,-1,1203,526,0,0
-14,498,0,0,0,0,0,0,0,0,0,-1,1210,526,0,0
-7,498,0,0,0,0,0,0,0,0,0,-1,1217,526,0,0
0,498,0,0,0,0,0,0,0,0,0,-1,1224,526,0,0
7,498,0,0,0,0,0,0,0,0,0,-1,1231,526,0,0
14,498,0,0,0,0,0,0,0,0,0,-1,1238,526,0,0
21,498,0,0,0,0,0,0,0,0,0,-1,1245,526,0,0
28,498,0,0,0,0,0,0,0,0,0,-1,1252,526,0,0
35,498,0,0,0,0,0,0,0,0,0,-1,1259,526,0,0
42,498,0,0,0,0,0,0,0,0,0,-1,1266,526,0,0
49,498,0,0,0,0,0,0,0,0,0,-1,1273,526,0,0
56,498,0,0,0,0,0,0,0,0,0,-1,1280,526,0,0
63,498,0,0,0,0,0,0,0,0,0,-1,1287,526,0,0
70,498,0,0,0,0,0,0,0,0,0,-1,1294,526,0,0
77,498,0,0,0,0,0,0,0,0,0,-1,1301,526,0,0
84,498,0,0,0,0,0,0,0,0,0,-1,1308,526,0,0
91,498,0,0,0,0,0,0,0,0,0,-1,1315,526,0,0
98,498,0,0,0,0,0,0,0,0,0,-1,1322,526,0,0
105,498,0,0,0,0,0,0,0,0,0,-1,1329,526,0,0
112,498,0,0,0,0,0,0,0,0,0,-1,1336,526,0,0
119,498,0,0,0,0,0,0,0,0,0,-1,1343,526,0,0
126,498,0,0,0,0,0,0,0,0,0,-1,1350,526,0,0
133,498,0,0,0,0,0,0,0,0,0,-1,1357,526,0,0
140,498,0,0,0,0,0,0,0,0,0,-1,1364,526,0,0
147,498,0,0,0,0,0,0,0,0,0,-1,1371,526,0,0
154,498,0,0,0,0,0,0,0,0,0,-1,1378,526,0,0
161,498,0,0,0,0,0,0,0,0,0,-1,1385,526,0,0
168,498,0,0,0,0,0,0,0,0,0,-1,1392,526,0,0
175,498,0,0,0,0,0,0,0,0,0,-1,1399,526,0,0
182,498,0,0,0,0,0,0,0,0,0,-1,1406,526,0,0
189,498,0,0,0,0,0,0,0,0,0,-1,1413,526,0,0
196,498,0,0,0,0,0,0,0,0,0,-1,1420,526,0,0
203,498,0,0,0,0,0,0,0,0,0,-1,1427,526,0,0
210,498,0,0,0,0,0,0,0,0,0,-1,1434,526,0,0
217,498,0,0,0,0,0,0,0,0,0,-1,1441,526,0,0
224,498,0,0,0,0,0,0,0,0,0,-1,1448,526,0,0
231,498,0,0,0,0,0,0,0,0,0,-1,1455,526,0,0
238,498,0,0,0,0,0,0,0,0,0,-1,1462,526,0,0
245,498,0,0,0,0,0,0,0,0,0,-1,1469,526,0,0
252,498,0,0,0,0,0,0,0,0,0,-1,1476,526,0,0
259,498,0,0,0,0,0,0,0,0,0,-1,1483,526,0,0
266,498,0,0,0,0,0,0,0,0,0,-1,1490,526,0,0
273,498,0,0,0,0,0,0,0,0,0,-1,1497,526,0,0
280,498,0,0,0,0,0,0,0,0,0,-1,1504,526,0,0
287,498,0,0,0,0,0,0,0,0,0,-1,1511,526,0,0
294,498,0,0,0,0,0,0,0,0,0,-1,1518,526,0,0
301,498,0,0,0,0,0,0,0,0,0,-1,1525,526,0,0
308,498,4.77942,-0.293884,0,0,0,0,0,0,0,-1,1532,526,4.77939,0.293899
315,498,4.56091,-0.564148,0,0,0,0,0,0,0,-1,1539,526,4.56097,0.564142
322,498,4.52344,-0.447266,0,0,0,0,0,0,0,-1,1546,526,4.52341,0.447295
329,498,4.63232,-0.156982,0,0,0,0,0,0,0,-1,1553,526,4.63238,0.156991
336,498,5.22644,0.0925903,0,0,0,0,0,0,0,-1,1560,526,5.22648,-0.0926188
343,498,6.22607,-1.67615,0,0,0,0,0,0,0,-1,1567,526,6.22605,1.67617
350,498,6.19373,-1.59906,0,0,0,0,0,0,0,-1,1574,526,6.19367,1.59906
357,498,6.21472,-1.58929,0,0,0,0,0,0,0,-1,1581,526,6.21476,1.58927
364,498,5.73547,-1.2019,0,0,0,0,0,0,0,-1,1588,526,5.73547,1.20192
371,498,3.27087,-4.55334,0,0,0,0,0,0,0,-1,1595,526,3.27089,4.55332
378,498,8.42944,-4.70624,0,0,0,0,0,0,0,-1,1602,526,8.42942,4.70624
385,498,4.7793,-5.15314,0,0,0,0,0,0,0,-1,1609,526,4.77935,5.15311
392,498,9.12439,-8.57953,0,0,0,0,0,0,0,-1,1616,526,9.12443,8.57955
399,498,8.7478,-7.63019,0,0,0,0,0,0,0,-1,1623,526,8.74786,7.63021
406,498,7.36328,-8.51099,0,0,0,0,0,0,0,-1,1630,526,7.36323,8.51101
413,498,6.5979,-7.42371,0,0,0,0,0,0,0,-1,1637,526,6.59788,7.4237
420,498,6.72302,-8.82178,0,0,0,0,0,0,0,-1,1644,526,6.72307,8.82177
427,498,6.77612,-8.51404,-0.00549896,-0.00820479,-0.00566724,-0.00102539,-0.0126784,-0.668228,0.00813202,0.0421511,1651,526,6.77612,8.51406
434,498,6.69165,-8.23865,-0.00399709,-0.00493368,-0.00416694,-0.000272215,-0.00865856,-0.729441,0.00568381,0.0178974,1658,526,6.69169,8.23864
441,498,6.61975,-7.94025,-0.00263601,-0.0022256,-0.00311711,0.000693052,-0.00555466,-0.818266,0.00395442,0.0100081,1665,526,6.61979,7.94023
448,498,6.62292,-7.69098,-0.00152135,-0.000511988,-0.00200265,0.00104859,-0.00308192,-0.908831,0.0024792,0.0100622,1672,526,6.62289,7.69099
455,498,6.62646,-7.4433,-0.000591589,0.000336289,-0.00100993,0.000983742,-0.00123904,-1.00071,0.00128614,0.0139512,1679,526,6.62643,7.44329
462,498,6.61987,-7.18768,0.00012567,0.000579356,-0.000367924,0.000784746,-7.97211e-05,-1.06165,0.000551661,0.0155098,1686,526,6.61989,7.18769
469,498,6.60083,-6.91003,0.000517296,0.000389382,-0.000170876,0.000635792,0.000270886,-0.606325,0.00036841,0.0132257,1693,526,6.60077,6.91
476,498,6.59985,-6.64337,0.000581971,8.69443e-05,-0.00018578,0.000643937,2.49787e-05,-0.321938,0.000421212,0.00973575,1700,526,6.59991,6.64337
483,498,6.60156,-6.36707,0.000438019,-0.000138198,-0.00038258,0.000628841,-0.000329019,-0.462667,0.000561978,0.00823268,1707,526,6.60151,6.36704
490,498,6.60205,-6.08746,6.10016e-05,-0.000479143,-0.000796008,0.000631505,-0.00104965,-0.62185,0.00098057,0.0105096,1714,526,6.6021,6.08749
497,498,6.61292,-5.80511,-0.000772164,-0.00076709,-0.00144367,0.000674045,-0.0022133,-0.786277,0.00174418,0.0117027,1721,526,6.61289,5.80513
504,498,6.61353,-5.5036,-0.00181836,-0.000863406,-0.0021738,0.000884744,-0.00356651,-0.893506,0.00272096,0.0133847,1728,526,6.61353,5.50358
511,498,6.61169,-5.22382,-0.00313457,-0.00085563,-0.00303749,0.00124908,-0.00523928,-0.964843,0.00397518,0.0142871,1735,526,6.61175,5.22382
518,498,6.64233,-4.94342,-0.0047298,-0.00065371,-0.00396123,0.00176301,-0.00714653,-1.02299,0.00544796,0.0168334,1742,526,6.64229,4.94339
525,498,6.5376,-4.67609,-0.00657778,-0.000151194,-0.00490143,0.00249634,-0.00922531,-1.07554,0.00712952,0.0298122,1749,526,6.53762,4.6761
532,498,6.33899,-4.45416,-0.00861305,0.000784489,-0.00574787,0.00350977,-0.0113383,-1.12805,0.00896093,0.0416854,1756,526,6.33897,4.45414
539,498,6.20911,-4.22101,-0.0106811,0.0026007,-0.00627287,0.00509492,-0.0131753,-1.19234,0.0108868,0.0467828,1763,526,6.20916,4.22102
546,498,6.06055,-4.00177,0,0,0,0,0,0,0,-1,1770,526,6.06049,4.00179
553,498,6.69531,-2.04956,0,0,0,0,0,0,0,-1,1777,526,6.69533,2.04957
560,498,3.69385,-0.615112,0,0,0,0,0,0,0,-1,1784,526,3.69381,0.615118
567,498,5.12695,-0.581604,0,0,0,0,0,0,0,-1,1791,526,5.12699,0.58159
574,498,3.88,0.0286255,0,0,0,0,0,0,0,-1,1798,526,3.87999,-0.0286535
581,498,10.8722,2.58551,0,0,0,0,0,0,0,-1,1805,526,10.8723,-2.58551
588,498,0,0,0,0,0,0,0,0,0,-1,1812,526,0,0
595,498,0,0,0,0,0,0,0,0,0,-1,1819,526,0,0
602,498,0,0,0,0,0,0,0,0,0,-1,1826,526,0,0
609,498,0,0,0,0,0,0,0,0,0,-1,1833,526,0,0
616,498,0,0,0,0,0,0,0,0,0,-1,1840,526,0,0
623,498,0,0,0,0,0,0,0,0,0,-1,1847,526,0,0
630,498,0,0,0,0,0,0,0,0,0,-1,1854,526,0,0
637,498,0,0,0,0,0,0,0,0,0,-1,1861,526,0,0
644,498,0,0,0,0,0,0,0,0,0,-1,1868,526,0,0
651,498,0,0,0,0,0,0,0,0,0,-1,1875,526,0,0
658,498,0,0,0,0,0,0,0,0,0,-1,1882,526,0,0
665,498,0,0,0,0,0,0,0,0,0,-1,1889,526,0,0
672,498,0,0,0,0,0,0,0,0,0,-1,1896,526,0,0
679,498,0,0,0,0,0,0,0,0,0,-1,1903,526,0,0
686,498,0,0,0,0,0,0,0,0,0,-1,1910,526,0,0
693,498,0,0,0,0,0,0,0,0,0,-1,1917,526,0,0
700,498,0,0,0,0,0,0,0,0,0,-1,1924,526,0,0
707,498,0,0,0,0,0,0,0,0,0,-1,1931,526,0,0
714,498,0,0,0,0,0,0,0,0,0,-1,1938,526,0,0
721,498,0,0,0,0,0,0,0,0,0,-1,1945,526,0,0
728,498,0,0,0,0,0,0,0,0,0,-1,1952,526,0,0
735,498,0,0,0,0,0,0,0,0,0,-1,1959,526,0,0
742,498,0,0,0,0,0,0,0,0,0,-1,1966,526,0,0
749,498,0,0,0,0,0,0,0,0,0,-1,1973,526,0,0
756,498,0,0,0,0,0,0,0,0,0,-1,1980,526,0,0
763,498,0,0,0,0,0,0,0,0,0,-1,1987,526,0,0
770,498,0,0,0,0,0,0,0,0,0,-1,1994,526,0,0
777,498,0,0,0,0,0,0,0,0,0,-1,2001,526,0,0
784,498,0,0,0,0,0,0,0,0,0,-1,2008,526,0,0
791,498,0,0,0,0,0,0,0,0,0,-1,2015,526,0,0
798,498,0,0,0,0,0,0,0,0,0,-1,2022,526,0,0
805,498,0,0,0,0,0,0,0,0,0,-1,2029,526,0,0
812,498,0,0,0,0,0,0,0,0,0,-1,2036,526,0,0
-700,491,0,0,0,0,0,0,0,0,0,-1,524,533,0,0
-693,491,0,0,0,0,0,0,0,0,0,-1,531,533,0,0
-686,491,0,0,0,0,0,0,0,0,0,-1,538,533,0,0
-679,491,0,0,0,0,0,0,0,0,0,-1,545,533,0,0
-672,491,0,0,0,0,0,0,0,0,0,-1,552,533,0,0
-665,491,0,0,0,0,0,0,0,0,0,-1,559,533,0,0
-658,491,0,0,0,0,0,0,0,0,0,-1,566,533,0,0
-651,491,0,0,0,0,0,0,0,0,0,-1,573,533,0,0
-644,491,0,0,0,0,0,0,0,0,0,-1,580,533,0,0
-637,491,0,0,0,0,0,0,0,0,0,-1,587,533,0,0
-630,491,0,0,0,0,0,0,0,0,0,-1,594,533,0,0
-623,491,0,0,0,0,0,0,0,0,0,-1,601,533,0,0
-616,491,0,0,0,0,0,0,0,0,0,-1,608,533,0,0
-609,491,0,0,0,0,0,0,0,0,0,-1,615,533,0,0
-602,491,0,0,0,0,0,0,0,0,0,-1,622,533,0,0
-595,491,0,0,0,0,0,0,0,0,0,-1,629,533,0,0
-588,491,0,0,0,0,0,0,0,0,0,-1,636,533,0,0
-581,491,0,0,0,0,0,0,0,0,0,-1,643,533,0,0
-574,491,0,0,0,0,0,0,0,0,0,-1,650,533,0,0
-567,491,0,0,0,0,0,0,0,0,0,-1,657,533,0,0
-560,491,0,0,0,0,0,0,0,0,0,-1,664,533,0,0
-553,491,0,0,0,0,0,0,0,0,0,-1,671,533,0,0
-546,491,0,0,0,0,0,0,0,0,0,-1,678,533,0,0
-539,491,0,0,0,0,0,0,0,0,0,-1,685,533,0,0
-532,491,0,0,0,0,0,0,0,0,0,-1,692,533,0,0
-525,491,0,0,0,0,0,0,0,0,0,-1,699,533,0,0
-518,491,0,0,0,0,0,0,0,0,0,-1,706,533,0,0
-511,491,0,0,0,0,0,0,0,0,0,-1,713,533,0,0
-504,491,0,0,0,0,0,0,0,0,0,-1,720,533,0,0
-497,491,0,0,0,0,0,0,0,0,0,-1,727,533,0,0
-490,491,0,0,0,0,0,0,0,0,0,-1,734,533,0,0
-483,491,0,0,0,0,0,0,0,0,0,-1,741,533,0,0
-476,491,0,0,0,0,0,0,0,0,0,-1,748,533,0,0
-469,491,-5.85913,4.55011,0,0,0,0,0,0,0,-1,755,533,-5.8591,-4.55009
-462,491,-9.93713,4.90381,0,0,0,0,0,0,0,-1,762,533,-9.93716,-4.9038
-455,491,5.38196,0.226379,0,0,0,0,0,0,0,-1,769,533,5.38195,-0.226378
-448,491,4.34613,-1.11908,0,0,0,0,0,0,0,-1,776,533,4.34615,1.11909
-441,491,3.52155,-2.10022,0,0,0,0,0,0,0,-1,783,533,3.52154,2.10022
-434,491,-1.67548,-5.05627,0,0,0,0,0,0,0,-1,790,533,-1.6755,5.05625
-427,491,-1.48956,-3.92194,0,0,0,0,0,0,0,-1,797,533,-1.48955,3.92196
-420,491,-1.16345,-4.96649,0,0,0,0,0,0,0,-1,804,533,-1.16347,4.96647
-413,491,-1.06189,-5.4635,0.00225872,0.00456887,0.00561461,0.00914599,-0.0023184,0.886846,0.0069993,0.0444419,811,533,-1.06187,5.46348
-406,491,-1.06079,-5.95044,0.00164259,0.00340364,0.00533307,0.00792839,-0.00288215,0.867213,0.00646415,0.023412,818,533,-1.06081,5.95042
-399,491,-1.08966,-6.22131,0.00111657,0.00251886,0.00479255,0.00666128,-0.00302585,0.858032,0.00572264,0.0109399,825,533,-1.08967,6.22133
-392,491,-1.11316,-6.49683,0.000790752,0.00176923,0.00411027,0.00541927,-0.00285929,0.844634,0.0048552,0.00959013,832,533,-1.11316,6.49685
-385,491,-1.1214,-6.75665,0.000745977,0.00105307,0.00332093,0.004224,-0.00242496,0.8085,0.00388533,0.00835898,839,533,-1.12138,6.75664
-378,491,-1.13245,-7.00696,0.000742102,0.000379789,0.0026205,0.0031877,-0.00206581,0.750888,0.00305608,0.0121809,846,533,-1.13244,7.00695
-371,491,-1.104,-7.26172,0.00091716,-0.000115868,0.00176098,0.00223581,-0.00143452,0.642744,0.00213583,0.0148432,853,533,-1.10403,7.26169
-364,491,-1.1059,-7.52386,0.00117725,-0.000567828,0.00106967,0.00168512,-0.0010757,0.443276,0.00160685,0.0139206,860,533,-1.10588,7.52384
-357,491,-1.11993,-7.78571,0.00158026,-0.000981627,0.000502892,0.00167544,-0.00107681,0.187053,0.00160149,0.0116053,867,533,-1.11994,7.78573
-350,491,-1.12769,-8.03406,0.00210214,-0.00113994,-3.52017e-05,0.00210252,-0.00114032,-0.010856,0.00189953,0.0144109,874,533,-1.12768,8.03405
-343,491,-1.11407,-8.29669,0.00252811,-0.0014574,-0.000401599,0.00256817,-0.00149746,-0.099433,0.00237427,0.0215646,881,533,-1.1141,8.29666
-336,491,-1.11298,-8.55963,0.00295481,-0.00169912,-0.000548061,0.00301848,-0.00176279,-0.115655,0.00279202,0.0212443,888,533,-1.11296,8.5596
-329,491,-1.15619,-8.78522,0.00352657,-0.00187715,-0.000710284,0.00361837,-0.00196895,-0.128535,0.00327236,0.0238373,895,533,-1.15619,8.78523
-322,491,-1.12897,-9.01538,0.00407059,-0.00204266,-0.000888162,0.00419702,-0.00216909,-0.141391,0.00373712,0.02312,902,533,-1.12894,9.01538
-315,491,-1.151,-9.24628,0.00473121,-0.00224891,-0.00107342,0.00489255,-0.00241025,-0.149191,0.0042967,0.0204785,909,533,-1.15098,9.24628
-308,491,-1.10223,-9.64044,0,0,0,0,0,0,0,-1,916,533,-1.10221,9.64046
-301,491,-1.01215,-10.3234,0,0,0,0,0,0,0,-1,923,533,-1.01213,10.3234
-294,491,-0.777283,-8.60913,0,0,0,0,0,0,0,-1,930,533,-0.777288,8.6091
-287,491,-0.26123,-8.69055,0,0,0,0,0,0,0,-1,937,533,-0.261204,8.69053
-280,491,0.2948,-5.99219,0,0,0,0,0,0,0,-1,944,533,0.294811,5.99221
-273,491,0.369995,-5.33691,0,0,0,0,0,0,0,-1,951,533,0.369985,5.33693
-266,491,1.1167,-5.0321,0,0,0,0,0,0,0,-1,958,533,1.11668,5.0321
-259,491,12.0862,-16.9615,0,0,0,0,0,0,0,-1,965,533,12.0862,16.9615
-252,491,9.72443,-13.8417,0,0,0,0,0,0,0,-1,972,533,9.72444,13.8418
-245,491,7.36926,-10.7169,0,0,0,0,0,0,0,-1,979,533,7.36924,10.7169
-238,491,4.84167,-7.53986,0,0,0,0,0,0,0,-1,986,533,4.84169,7.53984
-231,491,2.15582,-5.05225,0,0,0,0,0,0,0,-1,993,533,2.1558,5.05223
-224,491,-0.429749,-3.09216,0,0,0,0,0,0,0,-1,1000,533,-0.429743,3.09215
-217,491,-2.92743,-1.0766,0,0,0,0,0,0,0,-1,1007,533,-2.92743,1.07659
-210,491,-0.92395,0.374512,0,0,0,0,0,0,0,-1,1014,533,-0.923959,-0.374531
-203,491,0.417419,4.77161,0,0,0,0,0,0,0,-1,1021,533,0.417446,-4.77162
-196,491,0,0,0,0,0,0,0,0,0,-1,1028,533,0,0
-189,491,0,0,0,0,0,0,0,0,0,-1,1035,533,0,0
-182,491,0,0,0,0,0,0,0,0,0,-1,1042,533,0,0
-175,491,0,0,0,0,0,0,0,0,0,-1,1049,533,0,0
-168,491,0,0,0,0,0,0,0,0,0,-1,1056,533,0,0
-161,491,0,0,0,0,0,0,0,0,0,-1,1063,533,0,0
-154,491,0,0,0,0,0,0,0,0,0,-1,1070,533,0,0
-147,491,0,0,0,0,0,0,0,0,0,-1,1077,533,0,0
-140,491,0,0,0,0,0,0,0,0,0,-1,1084,533,0,0
-133,491,0,0,0,0,0,0,0,0,0,-1,1091,533,0,0
-126,491,0,0,0,0,0,0,0,0,0,-1,1098,533,0,0
-119,491,0,0,0,0,0,0,0,0,0,-1,1105,533,0,0
-112,491,0,0,0,0,0,0,0,0,0,-1,1112,533,0,0
-105,491,0,0,0,0,0,0,0,0,0,-1,1119,533,0,0
-98,491,0,0,0,0,0,0,0,0,0,-1,1126,533,0,0
-91,491,0,0,0,0,0,0,0,0,0,-1,1133,533,0,0
-84,491,0,0,0,0,0,0,0,0,0,-1,1140,533,0,0
-77,491,0,0,0,0,0,0,0,0,0,-1,1147,533,0,0
-70,491,0,0,0,0,0,0,0,0,0,-1,1154,533,0,0
-63,491,0,0,0,0,0,0,0,0,0,-1,1161,533,0,0
-56,491,0,0,0,0,0,0,0,0,0,-1,1168,533,0,0
-49,491,0,0,0,0,0,0,0,0,0,-1,1175,533,0,0
-42,491,0,0,0,0,0,0,0,0,0,-1,1182,533,0,0
-35,491,0,0,0,0,0,0,0,0,0,-1,1189,533,0,0
-28,491,0,0,0,0,0,0,0,0,0,-1,1196,533,0,0
-21,491,0,0,0,0,0,0,0,0,0,-1,1203,533,0,0
-14,491,0,0,0,0,0,0,0,0,0,-1,1210,533,0,0
-7,491,0,0,0,0,0,0,0,0,0,-1,1217,533,0,0
0,491,0,0,0,0,0,0,0,0,0,-1,1224,533,0,0
7,491,0,0,0,0,0,0,0,0,0,-1,1231,533,0,0
14,491,0,0,0,0,0,0,0,0,0,-1,1238,533,0,0
21,491,0,0,0,0,0,0,0,0,0,-1,1245,533,0,0
28,491,0,0,0,0,0,0,0,0,0,-1,1252,533,0,0
35,491,0,0,0,0,0,0,0,0,0,-1,1259,533,0,0
42,491,0,0,0,0,0,0,0,0,0,-1,1266,533,0,0
49,491,0,0,0,0,0,0,0,0,0,-1,1273,533,0,0
56,491,0,0,0,0,0,0,0,0,0,-1,1280,533,0,0
63,491,0,0,0,0,0,0,0,0,0,-1,1287,533,0,0
70,491,0,0,0,0,0,0,0,0,0,-1,1294,533,0,0
77,491,0,0,0,0,0,0,0,0,0,-1,1301,533,0,0
84,491,0,0,0,0,0,0,0,0,0,-1,1308,533,0,0
91,491,0,0,0,0,0,0,0,0,0,-1,1315,533,0,0
98,491,0,0,0,0,0,0,0,0,0,-1,1322,533,0,0
105,491,0,0,0,0,0,0,0,0,0,-1,1329,533,0,0
112,491,0,0,0,0,0,0,0,0,0,-1,1336,533,0,0
119,491,0,0,0,0,0,0,0,0,0,-1,1343,533,0,0
126,491,0,0,0,0,0,0,0,0,0,-1,1350,533,0,0
133,491,0,0,0,0,0,0,0,0,0,-1,1357,533,0,0
140,491,0,0,0,0,0,0,0,0,0,-1,1364,533,0,0
147,491,0,0,0,0,0,0,0,0,0,-1,1371,533,0,0
154,491,0,0,0,0,0,0,0,0,0,-1,1378,533,0,0
161,491,0,0,0,0,0,0,0,0,0,-1,1385,533,0,0
168,491,0,0,0,0,0,0,0,0,0,-1,1392,533,0,0
175,491,0,0,0,0,0,0,0,0,0,-1,1399,533,0,0
182,491,0,0,0,0,0,0,0,0,0,-1,1406,533,0,0
189,491,0,0,0,0,0,0,0,0,0,-1,1413,533,0,0
196,491,0,0,0,0,0,0,0,0,0,-1,1420,533,0,0
203,491,0,0,0,0,0,0,0,0,0,-1,1427,533,0,0
210,491,0,0,0,0,0,0,0,0,0,-1,1434,533,0,0
217,491,0,0,0,0,0,0,0,0,0,-1,1441,533,0,0
224,491,0,0,0,0,0,0,0,0,0,-1,1448,533,0,0
231,491,0,0,0,0,0,0,0,0,0,-1,1455,533,0,0
238,491,0,0,0,0,0,0,0,0,0,-1,1462,533,0,0
245,491,0,0,0,0,0,0,0,0,0,-1,1469,533,0,0
252,491,0,0,0,0,0,0,0,0,0,-1,1476,533,0,0
259,491,0,0,0,0,0,0,0,0,0,-1,1483,533,0,0
266,491,0,0,0,0,0,0,0,0,0,-1,1490,533,0,0
273,491,0,0,0,0,0,0,0,0,0,-1,1497,533,0,0
280,491,0,0,0,0,0,0,0,0,0,-1,1504,533,0,0
287,491,0,0,0,0,0,0,0,0,0,-1,1511,533,0,0
294,491,0,0,0,0,0,0,0,0,0,-1,1518,533,0,0
301,491,0,0,0,0,0,0,0,0,0,-1,1525,533,0,0
308,491,0,0,0,0,0,0,0,0,0,-1,1532,533,0,0
315,491,0,0,0,0,0,0,0,0,0,-1,1539,533,0,0
322,491,4.26331,-0.734314,0,0,0,0,0,0,0,-1,1546,533,4.26326,0.734324
329,491,4.25354,-0.783752,0,0,0,0,0,0,0,-1,1553,533,4.25359,0.783734
336,491,4.81604,-0.722107,0,0,0,0,0,0,0,-1,1560,533,4.81605,0.722115
343,491,6.14478,-1.44281,0,0,0,0,0,0,0,-1,1567,533,6.14474,1.44281
350,491,6.36353,-1.30792,0,0,0,0,0,0,0,-1,1574,533,6.36352,1.3079
357,491,6.69482,-1.06018,0,0,0,0,0,0,0,-1,1581,533,6.69489,1.06018
364,491,8.01086,-1.69604,0,0,0,0,0,0,0,-1,1588,533,8.01087,1.69607
371,491,8.2135,-0.539307,0,0,0,0,0,0,0,-1,1595,533,8.21348,0.53929
378,491,13.3589,2.17267,0,0,0,0,0,0,0,-1,1602,533,13.3589,-2.17264
385,491,8.08228,-4.95471,0,0,0,0,0,0,0,-1,1609,533,8.08227,4.95474
392,491,2.88721,-4.30988,0,0,0,0,0,0,0,-1,1616,533,2.88716,4.30986
399,491,8.95862,-8.55518,0,0,0,0,0,0,0,-1,1623,533,8.95864,8.55516
406,491,8.59888,-7.00525,0,0,0,0,0,0,0,-1,1630,533,8.5989,7.00525
413,491,5.31848,-3.7124,0,0,0,0,0,0,0,-1,1637,533,5.31849,3.7124
420,491,4.86389,-3.95892,0,0,0,0,0,0,0,-1,1644,533,4.86387,3.95893
427,491,7.25342,-8.36176,0,0,0,0,0,0,0,-1,1651,533,7.25342,8.36173
434,491,7.13489,-8.10266,-0.00495611,-0.00546575,-0.00487095,-0.000333322,-0.0100885,-0.759265,0.00661739,0.0457287,1658,533,7.13486,8.10267
441,491,6.92114,-7.98718,-0.00322306,-0.00218145,-0.00356866,0.000904201,-0.00630872,-0.857856,0.00453734,0.0235478,1665,533,6.92116,7.98721
448,491,6.89331,-7.68152,-0.00182208,-0.000128826,-0.00224612,0.00142493,-0.00337584,-0.965628,0.00284699,0.0128664,1672,533,6.89328,7.68154
455,491,6.88342,-7.41498,-0.000623405,0.000871292,-0.0010736,0.00143205,-0.00118417,-1.08945,0.00151273,0.0114832,1679,533,6.88345,7.415
462,491,6.88794,-7.16864,0.000276023,0.00120853,-0.00024032,0.00126682,0.000217733,-1.33284,0.000782137,0.0139763,1686,533,6.88798,7.16867
469,491,6.87024,-6.91681,0.000752179,0.00111617,0.000109485,0.00114657,0.000721785,1.30001,0.000669333,0.0130146,1693,533,6.87026,6.91684
476,491,6.88623,-6.64081,0.000916748,0.000857956,0.000195267,0.00108482,0.000689884,0.710688,0.00063399,0.00933329,1700,533,6.88628,6.64078
483,491,6.88074,-6.35748,0.000882298,0.000619915,0.000120311,0.000929112,0.000573101,0.371082,0.000541282,0.0112769,1707,533,6.88079,6.35749
490,491,6.87927,-6.09351,0.000629111,0.000334649,-0.00013981,0.000684916,0.000278844,-0.379775,0.000397704,0.0103502,1714,533,6.87933,6.09352
497,491,6.89441,-5.82172,-9.03821e-05,3.14454e-05,-0.00066118,0.000634512,-0.000693449,-0.831333,0.00076695,0.0114257,1721,533,6.89439,5.8217
504,491,6.89832,-5.53113,-0.00103893,-4.42644e-05,-0.00124517,0.000799216,-0.00188241,-0.975397,0.00158978,0.0126893,1728,533,6.89827,5.53111
511,491,6.88074,-5.23291,-0.00222499,-3.11321e-05,-0.00192524,0.00108774,-0.00334387,-1.04434,0.00266683,0.0110272,1735,533,6.8807,5.23292
518,491,6.8761,-4.95398,-0.003631,0.000116764,-0.00263799,0.00147868,-0.00499292,-1.09422,0.00391571,0.0086882,1742,533,6.87607,4.95396
525,491,6.8905,-4.67096,-0.00520235,0.000532865,-0.00334917,0.00207435,-0.00674384,-1.13944,0.0053238,0.00903604,1749,533,6.89048,4.67098
532,491,6.89856,-4.40405,-0.00687126,0.00135256,-0.00394165,0.00293665,-0.00845535,-1.18867,0.00682958,0.018631,1756,533,6.89861,4.40407
539,491,6.79102,-4.19489,-0.00849588,0.0027355,-0.00427892,0.00417992,-0.0099403,-1.24524,0.00837539,0.0273743,1763,533,6.79097,4.1949
546,491,6.44019,-3.61908,-0.00993016,0.00450284,-0.00432902,0.00570171,-0.011129,-1.30063,0.00988419,0.0377138,1770,533,6.44017,3.61909
553,491,6.06006,-2.93982,0,0,0,0,0,0,0,-1,1777,533,6.06004,2.9398
560,491,6.2887,-1.04779,0,0,0,0,0,0,0,-1,1784,533,6.2887,1.04778
567,491,5.67651,-1.3562,0,0,0,0,0,0,0,-1,1791,533,5.67649,1.3562
574,491,8.0719,1.58325,0,0,0,0,0,0,0,-1,1798,533,8.07195,-1.58326
581,491,9.44812,1.60931,0,0,0,0,0,0,0,-1,1805,533,9.44808,-1.60933
588,491,11.0497,1.54962,0,0,0,0,0,0,0,-1,1812,533,11.0496,-1.54963
595,491,0,0,0,0,0,0,0,0,0,-1,1819,533,0,0
602,491,0,0,0,0,0,0,0,0,0,-1,1826,533,0,0
609,491,0,0,0,0,0,0,0,0,0,-1,1833,533,0,0
616,491,0,0,0,0,0,0,0,0,0,-1,1840,533,0,0
623,491,0,0,0,0,0,0,0,0,0,-1,1847,533,0,0
630,491,0,0,0,0,0,0,0,0,0,-1,1854,533,0,0
637,491,0,0,0,0,0,0,0,0,0,-1,1861,533,0,0
644,491,0,0,0,0,0,0,0,0,0,-1,1868,533,0,0
651,491,0,0,0,0,0,0,0,0,0,-1,1875,533,0,0
658,491,0,0,0,0,0,0,0,0,0,-1,1882,533,0,0
665,491,0,0,0,0,0,0,0,0,0,-1,1889,533,0,0
672,491,0,0,0,0,0,0,0,0,0,-1,1896,533,0,0
679,491,0,0,0,0,0,0,0,0,0,-1,1903,533,0,0
686,491,0,0,0,0,0,0,0,0,0,-1,1910,533,0,0
693,491,0,0,0,0,0,0,0,0,0,-1,1917,533,0,0
700,491,0,0,0,0,0,0,0,0,0,-1,1924,533,0,0
707,491,0,0,0,0,0,0,0,0,0,-1,1931,533,0,0
714,491,0,0,0,0,0,0,0,0,0,-1,1938,533,0,0
721,491,0,0,0,0,0,0,0,0,0,-1,1945,533,0,0
728,491,0,0,0,0,0,0,0,0,0,-1,1952,533,0,0
735,491,0,0,0,0,0,0,0,0,0,-1,1959,533,0,0
742,491,0,0,0,0,0,0,0,0,0,-1,1966,533,0,0
749,491,0,0,0,0,0,0,0,0,0,-1,1973,533,0,0
756,491,0,0,0,0,0,0,0,0,0,-1,1980,533,0,0
763,491,0,0,0,0,0,0,0,0,0,-1,1987,533,0,0
770,491,0,0,0,0,0,0,0,0,0,-1,1994,533,0,0
777,491,0,0,0,0,0,0,0,0,0,-1,2001,533,0,0
784,491,0,0,0,0,0,0,0,0,0,-1,2008,533,0,0
791,491,0,0,0,0,0,0,0,0,0,-1,2015,533,0,0
798,491,0,0,0,0,0,0,0,0,0,-1,2022,533,0,0
805,491,0,0,0,0,0,0,0,0,0,-1,2029,533,0,0
812,491,0,0,0,0,0,0,0,0,0,-1,2036,533,0,0
-700,484,0,0,0,0,0,0,0,0,0,-1,524,540,0,0
-693,484,0,0,0,0,0,0,0,0,0,-1,531,540,0,0
-686,484,0,0,0,0,0,0,0,0,0,-1,538,540,0,0
-679,484,0,0,0,0,0,0,0,0,0,-1,545,540,0,0
-672,484,0,0,0,0,0,0,0,0,0,-1,552,540,0,0
-665,484,0,0,0,0,0,0,0,0,0,-1,559,540,0,0
-658,484,0,0,0,0,0,0,0,0,0,-1,566,540,0,0
-651,484,0,0,0,0,0,0,0,0,0,-1,573,540,0,0
-644,484,0,0,0,0,0,0,0,0,0,-1,580,540,0,0
-637,484,0,0,0,0,0,0,0,0,0,-1,587,540,0,0
-630,484,0,0,0,0,0,0,0,0,0,-1,594,540,0,0
-623,484,0,0,0,0,0,0,0,0,0,-1,601,540,0,0
-616,484,0,0,0,0,0,0,0,0,0,-1,608,540,0,0
-609,484,0,0,0,0,0,0,0,0,0,-1,615,540,0,0
-602,484,0,0,0,0,0,0,0,0,0,-1,622,540,0,0
-595,484,0,0,0,0,0,0,0,0,0,-1,629,540,0,0
-588,484,0,0,0,0,0,0,0,0,0,-1,636,540,0,0
-581,484,0,0,0,0,0,0,0,0,0,-1,643,540,0,0
-574,484,0,0,0,0,0,0,0,0,0,-1,650,540,0,0
-567,484,0,0,0,0,0,0,0,0,0,-1,657,540,0,0
-560,484,0,0,0,0,0,0,0,0,0,-1,664,540,0,0
-553,484,0,0,0,0,0,0,0,0,0,-1,671,540,0,0
-546,484,0,0,0,0,0,0,0,0,0,-1,678,540,0,0
-539,484,0,0,0,0,0,0,0,0,0,-1,685,540,0,0
-532,484,0,0,0,0,0,0,0,0,0,-1,692,540,0,0
-525,484,0,0,0,0,0,0,0,0,0,-1,699,540,0,0
-518,484,0,0,0,0,0,0,0,0,0,-1,706,540,0,0
-511,484,0,0,0,0,0,0,0,0,0,-1,713,540,0,0
-504,484,0,0,0,0,0,0,0,0,0,-1,720,540,0,0
-497,484,0,0,0,0,0,0,0,0,0,-1,727,540,0,0
-490,484,0,0,0,0,0,0,0,0,0,-1,734,540,0,0
-483,484,0,0,0,0,0,0,0,0,0,-1,741,540,0,0
-476,484,-8.46552,1.44702,0,0,0,0,0,0,0,-1,748,540,-8.46554,-1.44702
-469,484,-7.82343,1.70355,0,0,0,0,0,0,0,-1,755,540,-7.82345,-1.70355
-462,484,-8.36987,3.08612,0,0,0,0,0,0,0,-1,762,540,-8.36988,-3.0861
-455,484,-6.77197,2.07092,0,0,0,0,0,0,0,-1,769,540,-6.77197,-2.07094
-448,484,4.11273,-0.538879,0,0,0,0,0,0,0,-1,776,540,4.11275,0.538855
-441,484,-3.39404,-0.489868,0,0,0,0,0,0,0,-1,783,540,-3.39407,0.489893
-434,484,-1.79114,-4.48779,0,0,0,0,0,0,0,-1,790,540,-1.79117,4.48778
-427,484,-1.39484,-4.92523,0,0,0,0,0,0,0,-1,797,540,-1.39481,4.9252
-420,484,-1.33514,-5.28113,0.002599,0.0050994,0.00250614,0.00664987,0.00104853,1.01676,0.00412836,0.0379738,804,540,-1.33515,5.28112
-413,484,-1.28235,-5.60583,0.00219827,0.00380736,0.00279419,0.00591053,9.51041e-05,0.925574,0.00390904,0.0226869,811,540,-1.28235,5.60586
-406,484,-1.30872,-5.95496,0.00169335,0.00285749,0.00292452,0.00525731,-0.00070646,0.88363,0.00376253,0.0136883,818,540,-1.30873,5.95497
-399,484,-1.34979,-6.24579,0.00122256,0.00210498,0.0028445,0.00454228,-0.00121475,0.862339,0.00350401,0.01539,825,540,-1.34979,6.2458
-392,484,-1.36676,-6.51721,0.000931756,0.00136678,0.00263472,0.00379295,-0.00149441,0.826583,0.00314734,0.0174347,832,540,-1.36675,6.51723
-385,484,-1.37036,-6.76276,0.000856086,0.000705758,0.00225127,0.00303345,-0.00147161,0.768711,0.00265259,0.0122598,839,540,-1.37037,6.76275
-378,484,-1.37109,-7.01001,0.000824346,4.68005e-05,0.00188909,0.00236425,-0.0014931,0.683915,0.00224589,0.0133019,846,540,-1.37108,7.01001
-371,484,-1.35583,-7.25531,0.000980479,-0.000456909,0.0013171,0.00176221,-0.00123864,0.535645,0.00174131,0.0150204,853,540,-1.35581,7.25531
-364,484,-1.36072,-7.49463,0.00123575,-0.000966938,0.00085429,0.00152824,-0.00125943,0.329867,0.00161195,0.0111178,860,540,-1.36072,7.49464
-357,484,-1.36841,-7.76605,0.00167818,-0.00144109,0.000429537,0.00173625,-0.00149916,0.134373,0.00186964,0.0121602,867,540,-1.3684,7.76607
-350,484,-1.37921,-8.01611,0.002277,-0.00170112,-1.4814e-05,0.00227706,-0.00170118,-0.00372379,0.00230484,0.0144963,874,540,-1.37919,8.01609
-343,484,-1.37085,-8.28595,0.00283498,-0.00212436,-0.000137434,0.00283879,-0.00212817,-0.0276839,0.00287744,0.0208482,881,540,-1.37086,8.28597
-336,484,-1.33838,-8.54053,0.00339943,-0.00251361,-0.000261641,0.00341098,-0.00252517,-0.0441332,0.00343993,0.0236686,888,540,-1.33839,8.54055
-329,484,-1.33752,-8.74005,0.00412146,-0.0028365,-0.000457649,0.00415143,-0.00286647,-0.0653979,0.00407437,0.0316525,895,540,-1.33754,8.74004
-322,484,-1.22284,-9.09515,0.00491689,-0.00313941,-0.000722846,0.00498124,-0.00320375,-0.0887793,0.0047626,0.0416509,902,540,-1.22285,9.09517
-315,484,-1.16516,-9.36517,0,0,0,0,0,0,0,-1,909,540,-1.16516,9.36517
-308,484,-1.32623,-8.9317,0,0,0,0,0,0,0,-1,916,540,-1.32626,8.93173
-301,484,-1.33453,-6.52667,0,0,0,0,0,0,0,-1,923,540,-1.33454,6.5267
-294,484,-1.61224,-8.17059,0,0,0,0,0,0,0,-1,930,540,-1.61227,8.17058
-287,484,-0.715759,-5.62103,0,0,0,0,0,0,0,-1,937,540,-0.715772,5.62105
-280,484,2.66742,-1.6795,0,0,0,0,0,0,0,-1,944,540,2.6674,1.67949
-273,484,2.53125,-2.22296,0,0,0,0,0,0,0,-1,951,540,2.53128,2.22295
-266,484,2.6778,-2.72058,0,0,0,0,0,0,0,-1,958,540,2.6778,2.72061
-259,484,2.41718,-2.59894,0,0,0,0,0,0,0,-1,965,540,2.41717,2.59892
-252,484,10.6069,-11.696,0,0,0,0,0,0,0,-1,972,540,10.6069,11.696
-245,484,8.0415,-9.22931,0,0,0,0,0,0,0,-1,979,540,8.0415,9.2293
-238,484,5.56836,-6.82672,0,0,0,0,0,0,0,-1,986,540,5.56834,6.82672
-231,484,3.39185,-3.8576,0,0,0,0,0,0,0,-1,993,540,3.39183,3.85763
-224,484,1.14313,-1.21228,0,0,0,0,0,0,0,-1,1000,540,1.14312,1.21226
-217,484,-0.745056,1.17358,0,0,0,0,0,0,0,-1,1007,540,-0.745043,-1.17359
-210,484,0,0,0,0,0,0,0,0,0,-1,1014,540,0,0
-203,484,0,0,0,0,0,0,0,0,0,-1,1021,540,0,0
-196,484,0,0,0,0,0,0,0,0,0,-1,1028,540,0,0
-189,484,0,0,0,0,0,0,0,0,0,-1,1035,540,0,0
-182,484,0,0,0,0,0,0,0,0,0,-1,1042,540,0,0
-175,484,0,0,0,0,0,0,0,0,0,-1,1049,540,0,0
-168,484,0,0,0,0,0,0,0,0,0,-1,1056,540,0,0
-161,484,0,0,0,0,0,0,0,0,0,-1,1063,540,0,0
-154,484,0,0,0,0,0,0,0,0,0,-1,1070,540,0,0
-147,484,0,0,0,0,0,0,0,0,0,-1,1077,540,0,0
-140,484,0,0,0,0,0,0,0,0,0,-1,1084,540,0,0
-133,484,0,0,0,0,0,0,0,0,0,-1,1091,540,0,0
-126,484,0,0,0,0,0,0,0,0,0,-1,1098,540,0,0
-119,484,0,0,0,0,0,0,0,0,0,-1,1105,540,0,0
-112,484,0,0,0,0,0,0,0,0,0,-1,1112,540,0,0
-105,484,0,0,0,0,0,0,0,0,0,-1,1119,540,0,0
-98,484,0,0,0,0,0,0,0,0,0,-1,1126,540,0,0
-91,484,0,0,0,0,0,0,0,0,0,-1,1133,540,0,0
-84,484,0,0,0,0,0,0,0,0,0,-1,1140,540,0,0
-77,484,0,0,0,0,0,0,0,0,0,-1,1147,540,0,0
-70,484,0,0,0,0,0,0,0,0,0,-1,1154,540,0,0
-63,484,0,0,0,0,0,0,0,0,0,-1,1161,540,0,0
-56,484,0,0,0,0,0,0,0,0,0,-1,1168,540,0,0
-49,484,0,0,0,0,0,0,0,0,0,-1,1175,540,0,0
-42,484,0,0,0,0,0,0,0,0,0,-1,1182,540,0,0
-35,484,0,0,0,0,0,0,0,0,0,-1,1189,540,0,0
-28,484,0,0,0,0,0,0,0,0,0,-1,1196,540,0,0
-21,484,0,0,0,0,0,0,0,0,0,-1,1203,540,0,0
-14,484,0,0,0,0,0,0,0,0,0,-1,1210,540,0,0
-7,484,0,0,0,0,0,0,0,0,0,-1,1217,540,0,0
0,484,0,0,0,0,0,0,0,0,0,-1,1224,540,0,0
7,484,0,0,0,0,0,0,0,0,0,-1,1231,540,0,0
14,484,0,0,0,0,0,0,0,0,0,-1,1238,540,0,0
21,484,0,0,0,0,0,0,0,0,0,-1,1245,540,0,0
28,484,0,0,0,0,0,0,0,0,0,-1,1252,540,0,0
35,484,0,0,0,0,0,0,0,0,0,-1,1259,540,0,0
42,484,0,0,0,0,0,0,0,0,0,-1,1266,540,0,0
49,484,0,0,0,0,0,0,0,0,0,-1,1273,540,0,0
56,484,0,0,0,0,0,0,0,0,0,-1,1280,540,0,0
63,484,0,0,0,0,0,0,0,0,0,-1,1287,540,0,0
70,484,0,0,0,0,0,0,0,0,0,-1,1294,540,0,0
77,484,0,0,0,0,0,0,0,0,0,-1,1301,540,0,0
84,484,0,0,0,0,0,0,0,0,0,-1,1308,540,0,0
91,484,0,0,0,0,0,0,0,0,0,-1,1315,540,0,0
98,484,0,0,0,0,0,0,0,0,0,-1,1322,540,0,0
105,484,0,0,0,0,0,0,0,0,0,-1,1329,540,0,0
112,484,0,0,0,0,0,0,0,0,0,-1,1336,540,0,0
119,484,0,0,0,0,0,0,0,0,0,-1,1343,540,0,0
126,484,0,0,0,0,0,0,0,0,0,-1,1350,540,0,0
133,484,0,0,0,0,0,0,0,0,0,-1,1357,540,0,0
140,484,0,0,0,0,0,0,0,0,0,-1,1364,540,0,0
147,484,0,0,0,0,0,0,0,0,0,-1,1371,540,0,0
154,484,0,0,0,0,0,0,0,0,0,-1,1378,540,0,0
161,484,0,0,0,0,0,0,0,0,0,-1,1385,540,0,0
168,484,0,0,0,0,0,0,0,0,0,-1,1392,540,0,0
175,484,0,0,0,0,0,0,0,0,0,-1,1399,540,0,0
182,484,0,0,0,0,0,0,0,0,0,-1,1406,540,0,0
189,484,0,0,0,0,0,0,0,0,0,-1,1413,540,0,0
196,484,0,0,0,0,0,0,0,0,0,-1,1420,540,0,0
203,484,0,0,0,0,0,0,0,0,0,-1,1427,540,0,0
210,484,0,0,0,0,0,0,0,0,0,-1,1434,540,0,0
217,484,0,0,0,0,0,0,0,0,0,-1,1441,540,0,0
224,484,0,0,0,0,0,0,0,0,0,-1,1448,540,0,0
231,484,0,0,0,0,0,0,0,0,0,-1,1455,540,0,0
238,484,0,0,0,0,0,0,0,0,0,-1,1462,540,0,0
245,484,0,0,0,0,0,0,0,0,0,-1,1469,540,0,0
252,484,0,0,0,0,0,0,0,0,0,-1,1476,540,0,0
259,484,0,0,0,0,0,0,0,0,0,-1,1483,540,0,0
266,484,0,0,0,0,0,0,0,0,0,-1,1490,540,0,0
273,484,0,0,0,0,0,0,0,0,0,-1,1497,540,0,0
280,484,0,0,0,0,0,0,0,0,0,-1,1504,540,0,0
287,484,0,0,0,0,0,0,0,0,0,-1,1511,540,0,0
294,484,0,0,0,0,0,0,0,0,0,-1,1518,540,0,0
301,484,0,0,0,0,0,0,0,0,0,-1,1525,540,0,0
308,484,0,0,0,0,0,0,0,0,0,-1,1532,540,0,0
315,484,0,0,0,0,0,0,0,0,0,-1,1539,540,0,0
322,484,0,0,0,0,0,0,0,0,0,-1,1546,540,0,0
329,484,0,0,0,0,0,0,0,0,0,-1,1553,540,0,0
336,484,4.38708,-1.64136,0,0,0,0,0,0,0,-1,1560,540,4.38704,1.64138
343,484,7.57996,-1.05457,0,0,0,0,0,0,0,-1,1567,540,7.57995,1.05454
350,484,8.10425,-1.18878,0,0,0,0,0,0,0,-1,1574,540,8.1043,1.18877
357,484,7.74902,-3.80286,0,0,0,0,0,0,0,-1,1581,540,7.74901,3.80287
364,484,6.31262,-3.87213,0,0,0,0,0,0,0,-1,1588,540,6.31263,3.87215
371,484,7.21008,0.973511,0,0,0,0,0,0,0,-1,1595,540,7.21014,-0.973541
378,484,11.0563,1.5014,0,0,0,0,0,0,0,-1,1602,540,11.0563,-1.5014
385,484,14.3469,2.5545,0,0,0,0,0,0,0,-1,1609,540,14.3469,-2.55453
392,484,7.39453,-4.95026,0,0,0,0,0,0,0,-1,1616,540,7.39448,4.95023
399,484,7.14417,-2.5639,0,0,0,0,0,0,0,-1,1623,540,7.14417,2.56391
406,484,7.88953,-2.47321,0,0,0,0,0,0,0,-1,1630,540,7.88954,2.47323
413,484,4.4895,-1.08673,0,0,0,0,0,0,0,-1,1637,540,4.48952,1.08674
420,484,4.50012,-2.11255,0,0,0,0,0,0,0,-1,1644,540,4.50012,2.11256
427,484,5.28601,-3.54053,0,0,0,0,0,0,0,-1,1651,540,5.28599,3.54051
434,484,7.69031,-7.95837,0,0,0,0,0,0,0,-1,1658,540,7.69035,7.95838
441,484,7.10278,-7.81195,0,0,0,0,0,0,0,-1,1665,540,7.10275,7.81194
448,484,7.10889,-7.59436,-0.00205432,0.000320213,-0.00245995,0.00186442,-0.00359853,-1.01023,0.00320657,0.0388483,1672,540,7.10889,7.59436
455,484,7.12756,-7.38641,-0.000515726,0.0014929,-0.00105865,0.00194783,-0.000970653,-1.16493,0.00171618,0.0192862,1679,540,7.12757,7.3864
462,484,7.14807,-7.1554,0.000594435,0.00194233,5.15035e-07,0.00194233,0.000594435,1.57041,0.00114919,0.0135948,1686,540,7.14809,7.15539
469,484,7.17017,-6.90485,0.00115993,0.00195555,0.00051533,0.00220875,0.000906729,1.1141,0.00128201,0.0144344,1693,540,7.17018,6.90483
476,484,7.1803,-6.61743,0.00143976,0.0017456,0.000708413,0.00231741,0.000867948,0.891699,0.00135192,0.0146016,1700,540,7.1803,6.61745
483,484,7.18201,-6.34912,0.00152072,0.00146595,0.000745633,0.00223947,0.000747198,0.767041,0.0013166,0.012168,1707,540,7.18201,6.34911
490,484,7.17139,-6.09235,0.00138899,0.00120683,0.000611145,0.00191581,0.000680016,0.711426,0.0011215,0.0118646,1714,540,7.1714,6.09236
497,484,7.15967,-5.82996,0.00077545,0.000833061,0.00017047,0.000977142,0.000631368,0.869096,0.000572129,0.0131863,1721,540,7.15972,5.82994
504,484,7.16565,-5.55573,-9.78597e-05,0.000703491,-0.000333686,0.000824243,-0.000218613,-1.22358,0.000635036,0.0142583,1728,540,7.1656,5.55575
511,484,7.172,-5.2583,-0.00117498,0.000647866,-0.000904808,0.00102072,-0.00154784,-1.17992,0.00149333,0.0159,1735,540,7.17202,5.25829
518,484,7.15979,-4.96338,-0.00241582,0.000680185,-0.00149386,0.00128344,-0.00301907,-1.187,0.00255054,0.0143869,1742,540,7.15976,4.96338
525,484,7.16187,-4.66791,-0.00376186,0.00095379,-0.00207971,0.00173993,-0.00454801,-1.20939,0.00374907,0.0129077,1749,540,7.16189,4.66792
532,484,7.17493,-4.36627,-0.00514747,0.00157479,-0.00254647,0.00243049,-0.00600318,-1.24662,0.0050127,0.014293,1756,540,7.17495,4.36626
539,484,7.14124,-4.05902,-0.00642275,0.00253996,-0.00280199,0.00334383,-0.00722663,-1.29141,0.00623859,0.0218367,1763,540,7.14118,4.059
546,484,7.01599,-3.8219,-0.00744947,0.0038743,-0.00275662,0.00450971,-0.00808487,-1.34425,0.00736849,0.0249335,1770,540,7.01596,3.8219
553,484,7.00391,-3.23456,-0.00822615,0.00542201,-0.00251669,0.00587129,-0.00867543,-1.39414,0.0084504,0.0371723,1777,540,7.0039,3.23459
560,484,7.0448,-2.65747,0,0,0,0,0,0,0,-1,1784,540,7.04476,2.6575
567,484,7.78223,-1.38312,0,0,0,0,0,0,0,-1,1791,540,7.78224,1.38311
574,484,5.74463,1.50922,0,0,0,0,0,0,0,-1,1798,540,5.74463,-1.50924
581,484,10.34,2.9491,0,0,0,0,0,0,0,-1,1805,540,10.34,-2.94912
588,484,10.6669,2.88568,0,0,0,0,0,0,0,-1,1812,540,10.6669,-2.88567
595,484,10.7233,1.04767,0,0,0,0,0,0,0,-1,1819,540,10.7233,-1.04766
602,484,0,0,0,0,0,0,0,0,0,-1,1826,540,0,0
609,484,0,0,0,0,0,0,0,0,0,-1,1833,540,0,0
616,484,0,0,0,0,0,0,0,0,0,-1,1840,540,0,0
623,484,0,0,0,0,0,0,0,0,0,-1,1847,540,0,0
630,484,0,0,0,0,0,0,0,0,0,-1,1854,540,0,0
637,484,0,0,0,0,0,0,0,0,0,-1,1861,540,0,0
644,484,0,0,0,0,0,0,0,0,0,-1,1868,540,0,0
651,484,0,0,0,0,0,0,0,0,0,-1,1875,540,0,0
658,484,0,0,0,0,0,0,0,0,0,-1,1882,540,0,0
665,484,0,0,0,0,0,0,0,0,0,-1,1889,540,0,0
672,484,0,0,0,0,0,0,0,0,0,-1,1896,540,0,0
679,484,0,0,0,0,0,0,0,0,0,-1,1903,540,0,0
686,484,0,0,0,0,0,0,0,0,0,-1,1910,540,0,0
693,484,0,0,0,0,0,0,0,0,0,-1,1917,540,0,0
700,484,0,0,0,0,0,0,0,0,0,-1,1924,540,0,0
707,484,0,0,0,0,0,0,0,0,0,-1,1931,540,0,0
714,484,0,0,0,0,0,0,0,0,0,-1,1938,540,0,0
721,484,0,0,0,0,0,0,0,0,0,-1,1945,540,0,0
728,484,0,0,0,0,0,0,0,0,0,-1,1952,540,0,0
735,484,0,0,0,0,0,0,0,0,0,-1,1959,540,0,0
742,484,0,0,0,0,0,0,0,0,0,-1,1966,540,0,0
749,484,0,0,0,0,0,0,0,0,0,-1,1973,540,0,0
756,484,0,0,0,0,0,0,0,0,0,-1,1980,540,0,0
763,484,0,0,0,0,0,0,0,0,0,-1,1987,540,0,0
770,484,0,0,0,0,0,0,0,0,0,-1,1994,540,0,0
777,484,0,0,0,0,0,0,0,0,0,-1,2001,540,0,0
784,484,0,0,0,0,0,0,0,0,0,-1,2008,540,0,0
791,484,0,0,0,0,0,0,0,0,0,-1,2015,540,0,0
798,484,0,0,0,0,0,0,0,0,0,-1,2022,540,0,0
805,484,0,0,0,0,0,0,0,0,0,-1,2029,540,0,0
812,484,0,0,0,0,0,0,0,0,0,-1,2036,540,0,0
-700,477,0,0,0,0,0,0,0,0,0,-1,524,547,0,0
-693,477,0,0,0,0,0,0,0,0,0,-1,531,547,0,0
-686,477,0,0,0,0,0,0,0,0,0,-1,538,547,0,0
-679,477,0,0,0,0,0,0,0,0,0,-1,545,547,0,0
-672,477,0,0,0,0,0,0,0,0,0,-1,552,547,0,0
-665,477,0,0,0,0,0,0,0,0,0,-1,559,547,0,0
-658,477,0,0,0,0,0,0,0,0,0,-1,566,547,0,0
-651,477,0,0,0,0,0,0,0,0,0,-1,573,547,0,0
-644,477,0,0,0,0,0,0,0,0,0,-1,580,547,0,0
-637,477,0,0,0,0,0,0,0,0,0,-1,587,547,0,0
-630,477,0,0,0,0,0,0,0,0,0,-1,594,547,0,0
-623,477,0,0,0,0,0,0,0,0,0,-1,601,547,0,0
-616,477,0,0,0,0,0,0,0,0,0,-1,608,547,0,0
-609,477,0,0,0,0,0,0,0,0,0,-1,615,547,0,0
-602,477,0,0,0,0,0,0,0,0,0,-1,622,547,0,0
-595,477,0,0,0,0,0,0,0,0,0,-1,629,547,0,0
-588,477,0,0,0,0,0,0,0,0,0,-1,636,547,0,0
-581,477,0,0,0,0,0,0,0,0,0,-1,643,547,0,0
-574,477,0,0,0,0,0,0,0,0,0,-1,650,547,0,0
-567,477,0,0,0,0,0,0,0,0,0,-1,657,547,0,0
-560,477,0,0,0,0,0,0,0,0,0,-1,664,547,0,0
-553,477,0,0,0,0,0,0,0,0,0,-1,671,547,0,0
-546,477,0,0,0,0,0,0,0,0,0,-1,678,547,0,0
-539,477,0,0,0,0,0,0,0,0,0,-1,685,547,0,0
-532,477,0,0,0,0,0,0,0,0,0,-1,692,547,0,0
-525,477,0,0,0,0,0,0,0,0,0,-1,699,547,0,0
-518,477,0,0,0,0,0,0,0,0,0,-1,706,547,0,0
-511,477,0,0,0,0,0,0,0,0,0,-1,713,547,0,0
-504,477,0,0,0,0,0,0,0,0,0,-1,720,547,0,0
-497,477,0,0,0,0,0,0,0,0,0,-1,727,547,0,0
-490,477,0,0,0,0,0,0,0,0,0,-1,734,547,0,0
-483,477,-7.73151,-0.224182,0,0,0,0,0,0,0,-1,741,547,-7.73152,0.224176
-476,477,-6.25806,-0.310547,0,0,0,0,0,0,0,-1,748,547,-6.25804,0.310549
-469,477,-7.26617,0.525085,0,0,0,0,0,0,0,-1,755,547,-7.2662,-0.525111
-462,477,-6.65143,1.06042,0,0,0,0,0,0,0,-1,762,547,-6.65143,-1.06043
-455,477,-5.31757,0.429016,0,0,0,0,0,0,0,-1,769,547,-5.31756,-0.42902
-448,477,-3.77142,-0.38324,0,0,0,0,0,0,0,-1,776,547,-3.77141,0.38322
-441,477,-2.07245,-4.3183,0,0,0,0,0,0,0,-1,783,547,-2.07244,4.31829
-434,477,-1.79938,-4.72156,0.00348062,0.00656449,-0.00161436,0.00725498,0.00279013,-1.16663,0.0042257,0.0454197,790,547,-1.79939,4.72158
-427,477,-1.56964,-5.04694,0.00277427,0.00536944,-0.000358786,0.00541813,0.00272558,-1.43591,0.00312818,0.0250464,797,547,-1.56963,5.04693
-420,477,-1.60107,-5.24304,0.00221392,0.0041312,0.000580388,0.0042932,0.00205192,1.29859,0.00247948,0.0208936,804,547,-1.60105,5.24303
-413,477,-1.59619,-5.6087,0.00182082,0.00311679,0.0010933,0.0037397,0.0011979,1.05291,0.0022051,0.0159255,811,547,-1.5962,5.60871
-406,477,-1.6076,-5.93634,0.00144653,0.00235612,0.00144028,0.0034117,0.000390952,0.938328,0.002156,0.0113728,818,547,-1.6076,5.93633
-399,477,-1.61328,-6.23041,0.00105009,0.00170821,0.00162757,0.00303965,-0.000281353,0.885143,0.00212643,0.0187414,825,547,-1.61327,6.23038
-392,477,-1.62872,-6.50061,0.000831376,0.000967057,0.00171658,0.00261714,-0.000818706,0.805148,0.00207229,0.0176932,832,547,-1.62875,6.50059
-385,477,-1.60803,-6.7428,0.000772899,0.000339322,0.00161399,0.0021846,-0.00107238,0.718639,0.00191661,0.0146776,839,547,-1.60805,6.74278
-378,477,-1.61963,-6.99463,0.000767681,-0.000324735,0.0014926,0.00181087,-0.00136793,0.609994,0.00184121,0.0127654,846,547,-1.61962,6.99466
-371,477,-1.6275,-7.24457,0.000955967,-0.000869802,0.0011471,0.00150909,-0.00142293,0.449304,0.00169305,0.0126326,853,547,-1.62753,7.24459
-364,477,-1.62561,-7.48535,0.00125718,-0.00147448,0.000871038,0.00151129,-0.00172859,0.283852,0.00187195,0.0128778,860,547,-1.62561,7.48533
-357,477,-1.63684,-7.74005,0.00177892,-0.00205685,0.000566665,0.00186088,-0.00213881,0.143645,0.00231108,0.0111328,867,547,-1.63686,7.74002
-350,477,-1.65247,-7.99115,0.00248007,-0.00249385,0.000210493,0.00248896,-0.00250275,0.0422186,0.00288197,0.0101072,874,547,-1.65244,7.99112
-343,477,-1.59918,-8.28168,0.00320097,-0.00310826,0.000332577,0.00321845,-0.00312574,0.0525188,0.00366295,0.017148,881,547,-1.59921,8.28168
-336,477,-1.51392,-8.55414,0.0039319,-0.00373833,0.000255954,0.00394043,-0.00374686,0.0333204,0.00443873,0.0286757,888,547,-1.51393,8.55416
-329,477,-1.39014,-8.80719,0,0,0,0,0,0,0,-1,895,547,-1.39016,8.80719
-322,477,-1.52911,-9.33081,0,0,0,0,0,0,0,-1,902,547,-1.52913,9.33079
-315,477,-1.67358,-9.15253,0,0,0,0,0,0,0,-1,909,547,-1.67356,9.15253
-308,477,-1.30127,-6.55188,0,0,0,0,0,0,0,-1,916,547,-1.30128,6.55185
-301,477,-1.21185,-6.28351,0,0,0,0,0,0,0,-1,923,547,-1.21184,6.28352
-294,477,-0.352905,3.27142,0,0,0,0,0,0,0,-1,930,547,-0.35292,-3.27144
-287,477,3.54364,2.15399,0,0,0,0,0,0,0,-1,937,547,3.54362,-2.15396
-280,477,1.97308,-0.954163,0,0,0,0,0,0,0,-1,944,547,1.9731,0.954178
-273,477,2.11621,-3.76709,0,0,0,0,0,0,0,-1,951,547,2.11619,3.76706
-266,477,2.04669,-3.42389,0,0,0,0,0,0,0,-1,958,547,2.04671,3.42391
-259,477,-1.33478,-3.41205,0,0,0,0,0,0,0,-1,965,547,-1.3348,3.41206
-252,477,0.597168,-5.32922,0,0,0,0,0,0,0,-1,972,547,0.597144,5.32924
-245,477,2.27161,-7.02875,0,0,0,0,0,0,0,-1,979,547,2.27158,7.02873
-238,477,7.29095,-4.50336,0,0,0,0,0,0,0,-1,986,547,7.29093,4.50335
-231,477,4.88141,-2.23413,0,0,0,0,0,0,0,-1,993,547,4.88143,2.23413
-224,477,0,0,0,0,0,0,0,0,0,-1,1000,547,0,0
-217,477,0,0,0,0,0,0,0,0,0,-1,1007,547,0,0
-210,477,0,0,0,0,0,0,0,0,0,-1,1014,547,0,0
-203,477,0,0,0,0,0,0,0,0,0,-1,1021,547,0,0
-196,477,0,0,0,0,0,0,0,0,0,-1,1028,547,0,0
-189,477,0,0,0,0,0,0,0,0,0,-1,1035,547,0,0
-182,477,0,0,0,0,0,0,0,0,0,-1,1042,547,0,0
-175,477,0,0,0,0,0,0,0,0,0,-1,1049,547,0,0
-168,477,0,0,0,0,0,0,0,0,0,-1,1056,547,0,0
-161,477,0,0,0,0,0,0,0,0,0,-1,1063,547,0,0
-154,477,0,0,0,0,0,0,0,0,0,-1,1070,547,0,0
-147,477,0,0,0,0,0,0,0,0,0,-1,1077,547,0,0
-140,477,0,0,0,0,0,0,0,0,0,-1,1084,547,0,0
-133,477,0,0,0,0,0,0,0,0,0,-1,1091,547,0,0
-126,477,0,0,0,0,0,0,0,0,0,-1,1098,547,0,0
-119,477,0,0,0,0,0,0,0,0,0,-1,1105,547,0,0
-112,477,0,0,0,0,0,0,0,0,0,-1,1112,547,0,0
-105,477,0,0,0,0,0,0,0,0,0,-1,1119,547,0,0
-98,477,0,0,0,0,0,0,0,0,0,-1,1126,547,0,0
-91,477,0,0,0,0,0,0,0,0,0,-1,1133,547,0,0
-84,477,0,0,0,0,0,0,0,0,0,-1,1140,547,0,0
-77,477,0,0,0,0,0,0,0,0,0,-1,1147,547,0,0
-70,477,0,0,0,0,0,0,0,0,0,-1,1154,547,0,0
-63,477,0,0,0,0,0,0,0,0,0,-1,1161,547,0,0
-56,477,0,0,0,0,0,0,0,0,0,-1,1168,547,0,0
-49,477,0,0,0,0,0,0,0,0,0,-1,1175,547,0,0
-42,477,0,0,0,0,0,0,0,0,0,-1,1182,547,0,0
-35,477,0,0,0,0,0,0,0,0,0,-1,1189,547,0,0
-28,477,0,0,0,0,0,0,0,0,0,-1,1196,547,0,0
-21,477,0,0,0,0,0,0,0,0,0,-1,1203,547,0,0
-14,477,0,0,0,0,0,0,0,0,0,-1,1210,547,0,0
-7,477,0,0,0,0,0,0,0,0,0,-1,1217,547,0,0
0,477,0,0,0,0,0,0,0,0,0,-1,1224,547,0,0
7,477,0,0,0,0,0,0,0,0,0,-1,1231,547,0,0
14,477,0,0,0,0,0,0,0,0,0,-1,1238,547,0,0
21,477,0,0,0,0,0,0,0,0,0,-1,1245,547,0,0
28,477,0,0,0,0,0,0,0,0,0,-1,1252,547,0,0
35,477,0,0,0,0,0,0,0,0,0,-1,1259,547,0,0
42,477,0,0,0,0,0,0,0,0,0,-1,1266,547,0,0
49,477,0,0,0,0,0,0,0,0,0,-1,1273,547,0,0
56,477,0,0,0,0,0,0,0,0,0,-1,1280,547,0,0
63,477,0,0,0,0,0,0,0,0,0,-1,1287,547,0,0
70,477,0,0,0,0,0,0,0,0,0,-1,1294,547,0,0
77,477,0,0,0,0,0,0,0,0,0,-1,1301,547,0,0
84,477,0,0,0,0,0,0,0,0,0,-1,1308,547,0,0
91,477,0,0,0,0,0,0,0,0,0,-1,1315,547,0,0
98,477,0,0,0,0,0,0,0,0,0,-1,1322,547,0,0
105,477,0,0,0,0,0,0,0,0,0,-1,1329,547,0,0
112,477,0,0,0,0,0,0,0,0,0,-1,1336,547,0,0
119,477,0,0,0,0,0,0,0,0,0,-1,1343,547,0,0
126,477,0,0,0,0,0,0,0,0,0,-1,1350,547,0,0
133,477,0,0,0,0,0,0,0,0,0,-1,1357,547,0,0
140,477,0,0,0,0,0,0,0,0,0,-1,1364,547,0,0
147,477,0,0,0,0,0,0,0,0,0,-1,1371,547,0,0
154,477,0,0,0,0,0,0,0,0,0,-1,1378,547,0,0
161,477,0,0,0,0,0,0,0,0,0,-1,1385,547,0,0
168,477,0,0,0,0,0,0,0,0,0,-1,1392,547,0,0
175,477,0,0,0,0,0,0,0,0,0,-1,1399,547,0,0
182,477,0,0,0,0,0,0,0,0,0,-1,1406,547,0,0
189,477,0,0,0,0,0,0,0,0,0,-1,1413,547,0,0
196,477,0,0,0,0,0,0,0,0,0,-1,1420,547,0,0
203,477,0,0,0,0,0,0,0,0,0,-1,1427,547,0,0
210,477,0,0,0,0,0,0,0,0,0,-1,1434,547,0,0
217,477,0,0,0,0,0,0,0,0,0,-1,1441,547,0,0
224,477,0,0,0,0,0,0,0,0,0,-1,1448,547,0,0
231,477,0,0,0,0,0,0,0,0,0,-1,1455,547,0,0
238,477,0,0,0,0,0,0,0,0,0,-1,1462,547,0,0
245,477,0,0,0,0,0,0,0,0,0,-1,1469,547,0,0
252,477,0,0,0,0,0,0,0,0,0,-1,1476,547,0,0
259,477,0,0,0,0,0,0,0,0,0,-1,1483,547,0,0
266,477,0,0,0,0,0,0,0,0,0,-1,1490,547,0,0
273,477,0,0,0,0,0,0,0,0,0,-1,1497,547,0,0
280,477,0,0,0,0,0,0,0,0,0,-1,1504,547,0,0
287,477,0,0,0,0,0,0,0,0,0,-1,1511,547,0,0
294,477,0,0,0,0,0,0,0,0,0,-1,1518,547,0,0
301,477,0,0,0,0,0,0,0,0,0,-1,1525,547,0,0
308,477,0,0,0,0,0,0,0,0,0,-1,1532,547,0,0
315,477,0,0,0,0,0,0,0,0,0,-1,1539,547,0,0
322,477,0,0,0,0,0,0,0,0,0,-1,1546,547,0,0
329,477,0,0,0,0,0,0,0,0,0,-1,1553,547,0,0
336,477,0,0,0,0,0,0,0,0,0,-1,1560,547,0,0
343,477,0,0,0,0,0,0,0,0,0,-1,1567,547,0,0
350,477,1.7699,-3.32275,0,0,0,0,0,0,0,-1,1574,547,1.7699,3.32272
357,477,3.073,-4.83313,0,0,0,0,0,0,0,-1,1581,547,3.07303,4.83316
364,477,4.30127,-4.22864,0,0,0,0,0,0,0,-1,1588,547,4.30125,4.22865
371,477,4.57703,0.283264,0,0,0,0,0,0,0,-1,1595,547,4.57706,-0.283262
378,477,8.57947,1.05969,0,0,0,0,0,0,0,-1,1602,547,8.5795,-1.05972
385,477,12.3726,2.02356,0,0,0,0,0,0,0,-1,1609,547,12.3725,-2.02355
392,477,16.4678,2.76843,0,0,0,0,0,0,0,-1,1616,547,16.4678,-2.76845
399,477,8.00037,-2.29523,0,0,0,0,0,0,0,-1,1623,547,8.00031,2.2952
406,477,4.82495,2.7475,0,0,0,0,0,0,0,-1,1630,547,4.825,-2.74752
413,477,4.88171,-0.336426,0,0,0,0,0,0,0,-1,1637,547,4.88169,0.336398
420,477,3.34875,0.102722,0,0,0,0,0,0,0,-1,1644,547,3.34871,-0.1027
427,477,1.66772,-0.373108,0,0,0,0,0,0,0,-1,1651,547,1.66768,0.373104
434,477,3.76978,-2.30798,0,0,0,0,0,0,0,-1,1658,547,3.76974,2.30801
441,477,4.05444,-2.80402,0,0,0,0,0,0,0,-1,1665,547,4.05444,2.804
448,477,7.31079,-7.52795,0,0,0,0,0,0,0,-1,1672,547,7.31078,7.52793
455,477,7.3761,-7.38568,0,0,0,0,0,0,0,-1,1679,547,7.37607,7.38565
462,477,7.47754,-7.25409,0.00129073,0.00265605,0.000417118,0.0027734,0.00117338,1.29656,0.00160753,0.0377587,1686,547,7.47751,7.25408
469,477,7.47766,-6.89185,0.00189216,0.00277124,0.00106655,0.00348527,0.00117813,0.980851,0.00204711,0.0235217,1693,547,7.47768,6.89184
476,477,7.45361,-6.62537,0.00226766,0.00262237,0.0013615,0.00381802,0.00107201,0.850167,0.00227386,0.0173556,1700,547,7.4536,6.62539
483,477,7.47156,-6.3551,0.00243587,0.00229033,0.0014942,0.00385908,0.000867124,0.761065,0.00233791,0.0117918,1707,547,7.47154,6.35509
490,477,7.45825,-6.07538,0.00238798,0.00205168,0.00145175,0.00368129,0.000758376,0.727741,0.00224452,0.011165,1714,547,7.45827,6.07538
497,477,7.44165,-5.79364,0.00184012,0.00158499,0.00105165,0.00277191,0.000653201,0.725043,0.00167326,0.0131506,1721,547,7.44168,5.79366
504,477,7.45227,-5.53204,0.000996317,0.00136017,0.000573586,0.00177999,0.000576497,0.938967,0.00104871,0.0169471,1728,547,7.45225,5.53203
511,477,7.4906,-5.25427,-1.74971e-05,0.00119713,4.95369e-05,0.00119915,-1.95141e-05,1.5301,0.000806014,0.0206829,1735,547,7.49054,5.25426
518,477,7.47937,-4.96155,-0.00114812,0.00109147,-0.000487315,0.00119291,-0.00124956,-1.36556,0.00141029,0.0195221,1742,547,7.47936,4.96154
525,477,7.44104,-4.65924,-0.0023428,0.00120111,-0.00102281,0.00147512,-0.00261681,-1.30905,0.00239293,0.0172783,1749,547,7.44104,4.65922
532,477,7.41516,-4.35126,-0.00354964,0.00159095,-0.0014538,0.00197361,-0.0039323,-1.31342,0.00347172,0.0179261,1756,547,7.4152,4.35126
539,477,7.40759,-4.03796,-0.00461849,0.00218115,-0.00172284,0.00259276,-0.00503009,-1.33628,0.00447541,0.0153057,1763,547,7.40758,4.03793
546,477,7.39514,-3.78735,-0.00539273,0.00310131,-0.00168976,0.00342512,-0.00571654,-1.38146,0.00533292,0.0202151,1770,547,7.3952,3.78736
553,477,7.37598,-3.46497,-0.00596244,0.00415942,-0.00151191,0.00438043,-0.00618345,-1.42565,0.0061286,0.0224085,1777,547,7.37601,3.46498
560,477,7.3894,-3.03131,-0.00611022,0.00527781,-0.0010487,0.00537358,-0.00620598,-1.47973,0.00669122,0.0407743,1784,547,7.38944,3.03132
567,477,7.44043,-2.58337,0,0,0,0,0,0,0,-1,1791,547,7.44038,2.5834
574,477,6.82593,-0.916992,0,0,0,0,0,0,0,-1,1798,547,6.82598,0.916977
581,477,9.29321,-0.557007,0,0,0,0,0,0,0,-1,1805,547,9.29324,0.55703
588,477,9.75195,0.422729,0,0,0,0,0,0,0,-1,1812,547,9.75198,-0.42273
595,477,9.89172,1.21326,0,0,0,0,0,0,0,-1,1819,547,9.89174,-1.21328
602,477,6.5271,-0.964417,0,0,0,0,0,0,0,-1,1826,547,6.52706,0.964427
609,477,0,0,0,0,0,0,0,0,0,-1,1833,547,0,0
616,477,0,0,0,0,0,0,0,0,0,-1,1840,547,0,0
623,477,0,0,0,0,0,0,0,0,0,-1,1847,547,0,0
630,477,0,0,0,0,0,0,0,0,0,-1,1854,547,0,0
637,477,0,0,0,0,0,0,0,0,0,-1,1861,547,0,0
644,477,0,0,0,0,0,0,0,0,0,-1,1868,547,0,0
651,477,0,0,0,0,0,0,0,0,0,-1,1875,547,0,0
658,477,0,0,0,0,0,0,0,0,0,-1,1882,547,0,0
665,477,0,0,0,0,0,0,0,0,0,-1,1889,547,0,0
672,477,0,0,0,0,0,0,0,0,0,-1,1896,547,0,0
679,477,0,0,0,0,0,0,0,0,0,-1,1903,547,0,0
686,477,0,0,0,0,0,0,0,0,0,-1,1910,547,0,0
693,477,0,0,0,0,0,0,0,0,0,-1,1917,547,0,0
700,477,0,0,0,0,0,0,0,0,0,-1,1924,547,0,0
707,477,0,0,0,0,0,0,0,0,0,-1,1931,547,0,0
714,477,0,0,0,0,0,0,0,0,0,-1,1938,547,0,0
721,477,0,0,0,0,0,0,0,0,0,-1,1945,547,0,0
728,477,0,0,0,0,0,0,0,0,0,-1,1952,547,0,0
735,477,0,0,0,0,0,0,0,0,0,-1,1959,547,0,0
742,477,0,0,0,0,0,0,0,0,0,-1,1966,547,0,0
749,477,0,0,0,0,0,0,0,0,0,-1,1973,547,0,0
756,477,0,0,0,0,0,0,0,0,0,-1,1980,547,0,0
763,477,0,0,0,0,0,0,0,0,0,-1,1987,547,0,0
770,477,0,0,0,0,0,0,0,0,0,-1,1994,547,0,0
777,477,0,0,0,0,0,0,0,0,0,-1,2001,547,0,0
784,477,0,0,0,0,0,0,0,0,0,-1,2008,547,0,0
791,477,0,0,0,0,0,0,0,0,0,-1,2015,547,0,0
798,477,0,0,0,0,0,0,0,0,0,-1,2022,547,0,0
805,477,0,0,0,0,0,0,0,0,0,-1,2029,547,0,0
812,477,0,0,0,0,0,0,0,0,0,-1,2036,547,0,0
-700,470,0,0,0,0,0,0,0,0,0,-1,524,554,0,0
-693,470,0,0,0,0,0,0,0,0,0,-1,531,554,0,0
-686,470,0,0,0,0,0,0,0,0,0,-1,538,554,0,0
-679,470,0,0,0,0,0,0,0,0,0,-1,545,554,0,0
-672,470,0,0,0,0,0,0,0,0,0,-1,552,554,0,0
-665,470,0,0,0,0,0,0,0,0,0,-1,559,554,0,0
-658,470,0,0,0,0,0,0,0,0,0,-1,566,554,0,0
-651,470,0,0,0,0,0,0,0,0,0,-1,573,554,0,0
-644,470,0,0,0,0,0,0,0,0,0,-1,580,554,0,0
-637,470,0,0,0,0,0,0,0,0,0,-1,587,554,0,0
-630,470,0,0,0,0,0,0,0,0,0,-1,594,554,0,0
-623,470,0,0,0,0,0,0,0,0,0,-1,601,554,0,0
-616,470,0,0,0,0,0,0,0,0,0,-1,608,554,0,0
-609,470,0,0,0,0,0,0,0,0,0,-1,615,554,0,0
-602,470,0,0,0,0,0,0,0,0,0,-1,622,554,0,0
-595,470,0,0,0,0,0,0,0,0,0,-1,629,554,0,0
-588,470,0,0,0,0,0,0,0,0,0,-1,636,554,0,0
-581,470,0,0,0,0,0,0,0,0,0,-1,643,554,0,0
-574,470,0,0,0,0,0,0,0,0,0,-1,650,554,0,0
-567,470,0,0,0,0,0,0,0,0,0,-1,657,554,0,0
-560,470,0,0,0,0,0,0,0,0,0,-1,664,554,0,0
-553,470,0,0,0,0,0,0,0,0,0,-1,671,554,0,0
-546,470,0,0,0,0,0,0,0,0,0,-1,678,554,0,0
-539,470,0,0,0,0,0,0,0,0,0,-1,685,554,0,0
-532,470,0,0,0,0,0,0,0,0,0,-1,692,554,0,0
-525,470,0,0,0,0,0,0,0,0,0,-1,699,554,0,0
-518,470,0,0,0,0,0,0,0,0,0,-1,706,554,0,0
-511,470,0,0,0,0,0,0,0,0,0,-1,713,554,0,0
-504,470,0,0,0,0,0,0,0,0,0,-1,720,554,0,0
-497,470,0,0,0,0,0,0,0,0,0,-1,727,554,0,0
-490,470,-9.13263,-1.03125,0,0,0,0,0,0,0,-1,734,554,-9.1326,1.03127
-483,470,-7.68677,-1.03955,0,0,0,0,0,0,0,-1,741,554,-7.68678,1.03958
-476,470,-6.17969,-1.03394,0,0,0,0,0,0,0,-1,748,554,-6.17971,1.03395
-469,470,-6.23016,-0.651855,0,0,0,0,0,0,0,-1,755,554,-6.23014,0.651829
-462,470,-4.87915,-1.03705,0,0,0,0,0,0,0,-1,762,554,-4.87914,1.03702
-455,470,-3.55457,-1.53186,0,0,0,0,0,0,0,-1,769,554,-3.55456,1.53187
-448,470,-1.98163,-3.84332,0,0,0,0,0,0,0,-1,776,554,-1.98161,3.8433
-441,470,-1.80945,-4.55444,0,0,0,0,0,0,0,-1,783,554,-1.80947,4.55447
-434,470,-1.79144,-4.86029,0.00293963,0.00535571,-0.0025637,0.00698173,0.00131361,-1.00557,0.00428428,0.029627,790,554,-1.79145,4.86027
-427,470,-1.87689,-5.0755,0.00233116,0.00435785,-0.00134547,0.00502889,0.00166012,-1.10815,0.00295877,0.0137917,797,554,-1.87687,5.07552
-420,470,-1.85602,-5.35809,0.00172052,0.00335577,-0.000363635,0.00343299,0.00164331,-1.36156,0.00198264,0.0124796,804,554,-1.85602,5.35806
-413,470,-1.87109,-5.65344,0.00129769,0.00255485,0.000221012,0.00259257,0.00125997,1.40174,0.00149702,0.0129158,811,554,-1.87111,5.65345
-406,470,-1.89087,-5.92194,0.000981791,0.00191422,0.000656991,0.00225361,0.000642405,1.09398,0.0013406,0.0101256,818,554,-1.89085,5.92197
-399,470,-1.86816,-6.20587,0.000609086,0.00132101,0.000987214,0.00201448,-8.43804e-05,0.958429,0.00137198,0.0136014,825,554,-1.86818,6.20587
-392,470,-1.86053,-6.47772,0.000422776,0.000548276,0.00125994,0.00174703,-0.000775979,0.810279,0.00149219,0.0144799,832,554,-1.86054,6.47775
-385,470,-1.85962,-6.72046,0.000352281,-7.99242e-05,0.0013548,0.0015081,-0.00123575,0.70631,0.00158676,0.011107,839,554,-1.8596,6.72048
-378,470,-1.86951,-6.98346,0.000358583,-0.00077615,0.00141131,0.0013123,-0.00172987,0.594277,0.0017619,0.0149692,846,554,-1.86948,6.98345
-371,470,-1.88342,-7.24286,0.000578758,-0.0014007,0.00125798,0.00118968,-0.00201162,0.452091,0.00186847,0.012887,853,554,-1.88341,7.24285
-364,470,-1.88953,-7.47345,0.000952234,-0.00213965,0.00114679,0.00133115,-0.00251856,0.319118,0.0022576,0.0132028,860,554,-1.88955,7.47346
-357,470,-1.89856,-7.73962,0.00160055,-0.0028868,0.000957146,0.00179618,-0.00308243,0.201611,0.00284911,0.0133408,867,554,-1.89856,7.73963
-350,470,-1.90381,-8.01733,0.00247336,-0.00359323,0.000698105,0.00255266,-0.00367253,0.113104,0.00361345,0.0102537,874,554,-1.90381,8.01734
-343,470,-1.81012,-8.28888,0.0034715,-0.00451023,0.00105721,0.00360915,-0.00464789,0.12948,0.00477976,0.0234902,881,554,-1.81014,8.28887
-336,470,-1.64069,-8.58191,0,0,0,0,0,0,0,-1,888,554,-1.64069,8.5819
-329,470,-1.69409,-7.8855,0,0,0,0,0,0,0,-1,895,554,-1.69411,7.88547
-322,470,-1.37006,-8.14398,0,0,0,0,0,0,0,-1,902,554,-1.37004,8.14398
-315,470,-1.04797,-8.29529,0,0,0,0,0,0,0,-1,909,554,-1.04797,8.29526
-308,470,-1.39368,-6.68152,0,0,0,0,0,0,0,-1,916,554,-1.39369,6.68149
-301,470,-0.0340576,3.34888,0,0,0,0,0,0,0,-1,923,554,-0.0340496,-3.3489
-294,470,-1.18378,3.22266,0,0,0,0,0,0,0,-1,930,554,-1.18376,-3.22268
-287,470,-2.15454,3.2204,0,0,0,0,0,0,0,-1,937,554,-2.15452,-3.22037
-280,470,-3.00537,3.099,0,0,0,0,0,0,0,-1,944,554,-3.00536,-3.09898
-273,470,-12.3932,3.65009,0,0,0,0,0,0,0,-1,951,554,-12.3932,-3.65011
-266,470,-9.78772,1.09131,0,0,0,0,0,0,0,-1,958,554,-9.7877,-1.09132
-259,470,-6.93353,-1.54871,0,0,0,0,0,0,0,-1,965,554,-6.93355,1.54868
-252,470,-0.144348,-5.13593,0,0,0,0,0,0,0,-1,972,554,-0.144336,5.13594
-245,470,1.33221,-6.81122,0,0,0,0,0,0,0,-1,979,554,1.33223,6.8112
-238,470,0,0,0,0,0,0,0,0,0,-1,986,554,0,0
-231,470,0,0,0,0,0,0,0,0,0,-1,993,554,0,0
-224,470,0,0,0,0,0,0,0,0,0,-1,1000,554,0,0
-217,470,0,0,0,0,0,0,0,0,0,-1,1007,554,0,0
-210,470,0,0,0,0,0,0,0,0,0,-1,1014,554,0,0
-203,470,0,0,0,0,0,0,0,0,0,-1,1021,554,0,0
-196,470,0,0,0,0,0,0,0,0,0,-1,1028,554,0,0
-189,470,0,0,0,0,0,0,0,0,0,-1,1035,554,0,0
-182,470,0,0,0,0,0,0,0,0,0,-1,1042,554,0,0
-175,470,0,0,0,0,0,0,0,0,0,-1,1049,554,0,0
-168,470,0,0,0,0,0,0,0,0,0,-1,1056,554,0,0
-161,470,0,0,0,0,0,0,0,0,0,-1,1063,554,0,0
-154,470,0,0,0,0,0,0,0,0,0,-1,1070,554,0,0
-147,470,0,0,0,0,0,0,0,0,0,-1,1077,554,0,0
-140,470,0,0,0,0,0,0,0,0,0,-1,1084,554,0,0
-133,470,0,0,0,0,0,0,0,0,0,-1,1091,554,0,0
-126,470,0,0,0,0,0,0,0,0,0,-1,1098,554,0,0
-119,470,0,0,0,0,0,0,0,0,0,-1,1105,554,0,0
-112,470,0,0,0,0,0,0,0,0,0,-1,1112,554,0,0
-105,470,0,0,0,0,0,0,0,0,0,-1,1119,554,0,0
-98,470,0,0,0,0,0,0,0,0,0,-1,1126,554,0,0
-91,470,0,0,0,0,0,0,0,0,0,-1,1133,554,0,0
-84,470,0,0,0,0,0,0,0,0,0,-1,1140,554,0,0
-77,470,0,0,0,0,0,0,0,0,0,-1,1147,554,0,0
-70,470,0,0,0,0,0,0,0,0,0,-1,1154,554,0,0
-63,470,0,0,0,0,0,0,0,0,0,-1,1161,554,0,0
-56,470,0,0,0,0,0,0,0,0,0,-1,1168,554,0,0
-49,470,0,0,0,0,0,0,0,0,0,-1,1175,554,0,0
-42,470,0,0,0,0,0,0,0,0,0,-1,1182,554,0,0
-35,470,0,0,0,0,0,0,0,0,0,-1,1189,554,0,0
-28,470,0,0,0,0,0,0,0,0,0,-1,1196,554,0,0
-21,470,0,0,0,0,0,0,0,0,0,-1,1203,554,0,0
-14,470,0,0,0,0,0,0,0,0,0,-1,1210,554,0,0
-7,470,0,0,0,0,0,0,0,0,0,-1,1217,554,0,0
0,470,0,0,0,0,0,0,0,0,0,-1,1224,554,0,0
7,470,0,0,0,0,0,0,0,0,0,-1,1231,554,0,0
14,470,0,0,0,0,0,0,0,0,0,-1,1238,554,0,0
21,470,0,0,0,0,0,0,0,0,0,-1,1245,554,0,0
28,470,0,0,0,0,0,0,0,0,0,-1,1252,554,0,0
35,470,0,0,0,0,0,0,0,0,0,-1,1259,554,0,0
42,470,0,0,0,0,0,0,0,0,0,-1,1266,554,0,0
49,470,0,0,0,0,0,0,0,0,0,-1,1273,554,0,0
56,470,0,0,0,0,0,0,0,0,0,-1,1280,554,0,0
63,470,0,0,0,0,0,0,0,0,0,-1,1287,554,0,0
70,470,0,0,0,0,0,0,0,0,0,-1,1294,554,0,0
77,470,0,0,0,0,0,0,0,0,0,-1,1301,554,0,0
84,470,0,0,0,0,0,0,0,0,0,-1,1308,554,0,0
91,470,0,0,0,0,0,0,0,0,0,-1,1315,554,0,0
98,470,0,0,0,0,0,0,0,0,0,-1,1322,554,0,0
105,470,0,0,0,0,0,0,0,0,0,-1,1329,554,0,0
112,470,0,0,0,0,0,0,0,0,0,-1,1336,554,0,0
119,470,0,0,0,0,0,0,0,0,0,-1,1343,554,0,0
126,470,0,0,0,0,0,0,0,0,0,-1,1350,554,0,0
133,470,0,0,0,0,0,0,0,0,0,-1,1357,554,0,0
140,470,0,0,0,0,0,0,0,0,0,-1,1364,554,0,0
147,470,0,0,0,0,0,0,0,0,0,-1,1371,554,0,0
154,470,0,0,0,0,0,0,0,0,0,-1,1378,554,0,0
161,470,0,0,0,0,0,0,0,0,0,-1,1385,554,0,0
168,470,0,0,0,0,0,0,0,0,0,-1,1392,554,0,0
175,470,0,0,0,0,0,0,0,0,0,-1,1399,554,0,0
182,470,0,0,0,0,0,0,0,0,0,-1,1406,554,0,0
189,470,0,0,0,0,0,0,0,0,0,-1,1413,554,0,0
196,470,0,0,0,0,0,0,0,0,0,-1,1420,554,0,0
203,470,0,0,0,0,0,0,0,0,0,-1,1427,554,0,0
210,470,0,0,0,0,0,0,0,0,0,-1,1434,554,0,0
217,470,0,0,0,0,0,0,0,0,0,-1,1441,554,0,0
224,470,0,0,0,0,0,0,0,0,0,-1,1448,554,0,0
231,470,0,0,0,0,0,0,0,0,0,-1,1455,554,0,0
238,470,0,0,0,0,0,0,0,0,0,-1,1462,554,0,0
245,470,0,0,0,0,0,0,0,0,0,-1,1469,554,0,0
252,470,0,0,0,0,0,0,0,0,0,-1,1476,554,0,0
259,470,0,0,0,0,0,0,0,0,0,-1,1483,554,0,0
266,470,0,0,0,0,0,0,0,0,0,-1,1490,554,0,0
273,470,0,0,0,0,0,0,0,0,0,-1,1497,554,0,0
280,470,0,0,0,0,0,0,0,0,0,-1,1504,554,0,0
287,470,0,0,0,0,0,0,0,0,0,-1,1511,554,0,0
294,470,0,0,0,0,0,0,0,0,0,-1,1518,554,0,0
301,470,0,0,0,0,0,0,0,0,0,-1,1525,554,0,0
308,470,0,0,0,0,0,0,0,0,0,-1,1532,554,0,0
315,470,0,0,0,0,0,0,0,0,0,-1,1539,554,0,0
322,470,0,0,0,0,0,0,0,0,0,-1,1546,554,0,0
329,470,0,0,0,0,0,0,0,0,0,-1,1553,554,0,0
336,470,0,0,0,0,0,0,0,0,0,-1,1560,554,0,0
343,470,0,0,0,0,0,0,0,0,0,-1,1567,554,0,0
350,470,0,0,0,0,0,0,0,0,0,-1,1574,554,0,0
357,470,0,0,0,0,0,0,0,0,0,-1,1581,554,0,0
364,470,1.33423,0.293335,0,0,0,0,0,0,0,-1,1588,554,1.33422,-0.293348
371,470,2.22498,-0.0305176,0,0,0,0,0,0,0,-1,1595,554,2.22494,0.0305046
378,470,6.27051,0.710083,0,0,0,0,0,0,0,-1,1602,554,6.27054,-0.710093
385,470,10.3657,1.47296,0,0,0,0,0,0,0,-1,1609,554,10.3657,-1.47299
392,470,15.3881,3.01935,0,0,0,0,0,0,0,-1,1616,554,15.388,-3.01937
399,470,18.4479,2.93793,0,0,0,0,0,0,0,-1,1623,554,18.4479,-2.93792
406,470,15.1896,1.36676,0,0,0,0,0,0,0,-1,1630,554,15.1896,-1.36679
413,470,6.55383,1.99207,0,0,0,0,0,0,0,-1,1637,554,6.5538,-1.99208
420,470,4.47095,0.845703,0,0,0,0,0,0,0,-1,1644,554,4.47098,-0.845718
427,470,3.51038,1.19684,0,0,0,0,0,0,0,-1,1651,554,3.51039,-1.19684
434,470,3.31775,-1.37427,0,0,0,0,0,0,0,-1,1658,554,3.31781,1.37426
441,470,2.55457,-2.05902,0,0,0,0,0,0,0,-1,1665,554,2.55461,2.05904
448,470,3.27258,-2.64032,0,0,0,0,0,0,0,-1,1672,554,3.27257,2.64029
455,470,7.9458,-6.63959,0,0,0,0,0,0,0,-1,1679,554,7.94576,6.63961
462,470,7.82898,-7.33521,0,0,0,0,0,0,0,-1,1686,554,7.829,7.33522
469,470,7.651,-7.03259,0,0,0,0,0,0,0,-1,1693,554,7.65106,7.03261
476,470,7.66809,-6.63153,0.00319381,0.00347876,0.00201707,0.00535838,0.00131419,0.820658,0.00322472,0.0319013,1700,554,7.66804,6.63154
483,470,7.74304,-6.35187,0.00353039,0.00301815,0.00222669,0.00551564,0.0010329,0.728138,0.00338573,0.0149247,1707,554,7.743,6.35187
490,470,7.7312,-6.06982,0.00360208,0.00277877,0.00225667,0.00548434,0.000896508,0.695182,0.00339705,0.0112464,1714,554,7.73116,6.06985
497,470,7.73962,-5.78967,0.00311161,0.00219063,0.001881,0.00458766,0.000714574,0.665354,0.00285027,0.0120679,1721,554,7.73967,5.78965
504,470,7.75269,-5.51373,0.00226283,0.00185786,0.0014145,0.00348926,0.000631416,0.714307,0.00214688,0.0194842,1728,554,7.75268,5.51375
511,470,7.82874,-5.23993,0.00126665,0.00160227,0.000933786,0.0023832,0.000485714,0.874305,0.00145419,0.0255959,1735,554,7.82874,5.23992
518,470,7.8645,-4.99011,0.000182954,0.00140042,0.000448065,0.00154755,3.58321e-05,1.25354,0.00101996,0.0245664,1742,554,7.86451,4.99014
525,470,7.77051,-4.6748,-0.000942583,0.00139655,-3.53465e-05,0.00139709,-0.000943117,-1.55569,0.00135957,0.0157018,1749,554,7.77052,4.6748
532,470,7.70508,-4.34583,-0.00206708,0.0016126,-0.000440825,0.00166468,-0.00211916,-1.45321,0.00218984,0.0131824,1756,554,7.70504,4.34585
539,470,7.70935,-4.08484,-0.00304314,0.00191504,-0.000738287,0.00202264,-0.00315074,-1.42608,0.00301043,0.0147944,1763,554,7.70937,4.08484
546,470,7.71033,-3.78619,-0.00370359,0.00253415,-0.000739261,0.00262056,-0.00379,-1.45443,0.00372161,0.0137336,1770,554,7.71032,3.78619
553,470,7.7345,-3.47943,-0.00418783,0.00320249,-0.00064352,0.0032581,-0.00424345,-1.48458,0.00434346,0.0117587,1777,554,7.73454,3.47942
560,470,7.73853,-3.1557,-0.00434044,0.00390211,-0.00032503,0.00391491,-0.00435324,-1.53144,0.00477585,0.0165558,1784,554,7.73848,3.15568
567,470,7.72681,-2.87543,-0.00405911,0.00468279,0.000310967,0.00469384,-0.00407016,1.53528,0.00506416,0.0200424,1791,554,7.72681,2.8754
574,470,7.88171,-2.48944,0,0,0,0,0,0,0,-1,1798,554,7.88175,2.48944
581,470,8.24646,-4.06317,0,0,0,0,0,0,0,-1,1805,554,8.24648,4.06318
588,470,11.1803,1.74927,0,0,0,0,0,0,0,-1,1812,554,11.1803,-1.74926
595,470,4.72192,3.44116,0,0,0,0,0,0,0,-1,1819,554,4.72191,-3.44116
602,470,14.4307,2.76141,0,0,0,0,0,0,0,-1,1826,554,14.4306,-2.76139
609,470,20.9181,4.41058,0,0,0,0,0,0,0,-1,1833,554,20.9181,-4.4106
616,470,0,0,0,0,0,0,0,0,0,-1,1840,554,0,0
623,470,0,0,0,0,0,0,0,0,0,-1,1847,554,0,0
630,470,0,0,0,0,0,0,0,0,0,-1,1854,554,0,0
637,470,0,0,0,0,0,0,0,0,0,-1,1861,554,0,0
644,470,0,0,0,0,0,0,0,0,0,-1,1868,554,0,0
651,470,0,0,0,0,0,0,0,0,0,-1,1875,554,0,0
658,470,0,0,0,0,0,0,0,0,0,-1,1882,554,0,0
665,470,0,0,0,0,0,0,0,0,0,-1,1889,554,0,0
672,470,0,0,0,0,0,0,0,0,0,-1,1896,554,0,0
679,470,0,0,0,0,0,0,0,0,0,-1,1903,554,0,0
686,470,0,0,0,0,0,0,0,0,0,-1,1910,554,0,0
693,470,0,0,0,0,0,0,0,0,0,-1,1917,554,0,0
700,470,0,0,0,0,0,0,0,0,0,-1,1924,554,0,0
707,470,0,0,0,0,0,0,0,0,0,-1,1931,554,0,0
714,470,0,0,0,0,0,0,0,0,0,-1,1938,554,0,0
721,470,0,0,0,0,0,0,0,0,0,-1,1945,554,0,0
728,470,0,0,0,0,0,0,0,0,0,-1,1952,554,0,0
735,470,0,0,0,0,0,0,0,0,0,-1,1959,554,0,0
742,470,0,0,0,0,0,0,0,0,0,-1,1966,554,0,0
749,470,0,0,0,0,0,0,0,0,0,-1,1973,554,0,0
756,470,0,0,0,0,0,0,0,0,0,-1,1980,554,0,0
763,470,0,0,0,0,0,0,0,0,0,-1,1987,554,0,0
770,470,0,0,0,0,0,0,0,0,0,-1,1994,554,0,0
777,470,0,0,0,0,0,0,0,0,0,-1,2001,554,0,0
784,470,0,0,0,0,0,0,0,0,0,-1,2008,554,0,0
791,470,0,0,0,0,0,0,0,0,0,-1,2015,554,0,0
798,470,0,0,0,0,0,0,0,0,0,-1,2022,554,0,0
805,470,0,0,0,0,0,0,0,0,0,-1,2029,554,0,0
812,470,0,0,0,0,0,0,0,0,0,-1,2036,554,0,0
-700,463,0,0,0,0,0,0,0,0,0,-1,524,561,0,0
-693,463,0,0,0,0,0,0,0,0,0,-1,531,561,0,0
-686,463,0,0,0,0,0,0,0,0,0,-1,538,561,0,0
-679,463,0,0,0,0,0,0,0,0,0,-1,545,561,0,0
-672,463,0,0,0,0,0,0,0,0,0,-1,552,561,0,0
-665,463,0,0,0,0,0,0,0,0,0,-1,559,561,0,0
-658,463,0,0,0,0,0,0,0,0,0,-1,566,561,0,0
-651,463,0,0,0,0,0,0,0,0,0,-1,573,561,0,0
-644,463,0,0,0,0,0,0,0,0,0,-1,580,561,0,0
-637,463,0,0,0,0,0,0,0,0,0,-1,587,561,0,0
-630,463,0,0,0,0,0,0,0,0,0,-1,594,561,0,0
-623,463,0,0,0,0,0,0,0,0,0,-1,601,561,0,0
-616,463,0,0,0,0,0,0,0,0,0,-1,608,561,0,0
-609,463,0,0,0,0,0,0,0,0,0,-1,615,561,0,0
-602,463,0,0,0,0,0,0,0,0,0,-1,622,561,0,0
-595,463,0,0,0,0,0,0,0,0,0,-1,629,561,0,0
-588,463,0,0,0,0,0,0,0,0,0,-1,636,561,0,0
-581,463,0,0,0,0,0,0,0,0,0,-1,643,561,0,0
-574,463,0,0,0,0,0,0,0,0,0,-1,650,561,0,0
-567,463,0,0,0,0,0,0,0,0,0,-1,657,561,0,0
-560,463,0,0,0,0,0,0,0,0,0,-1,664,561,0,0
-553,463,0,0,0,0,0,0,0,0,0,-1,671,561,0,0
-546,463,0,0,0,0,0,0,0,0,0,-1,678,561,0,0
-539,463,0,0,0,0,0,0,0,0,0,-1,685,561,0,0
-532,463,0,0,0,0,0,0,0,0,0,-1,692,561,0,0
-525,463,0,0,0,0,0,0,0,0,0,-1,699,561,0,0
-518,463,0,0,0,0,0,0,0,0,0,-1,706,561,0,0
-511,463,0,0,0,0,0,0,0,0,0,-1,713,561,0,0
-504,463,0,0,0,0,0,0,0,0,0,-1,720,561,0,0
-497,463,-9.81451,-1.67126,0,0,0,0,0,0,0,-1,727,561,-9.81452,1.67127
-490,463,-8.57043,-1.58942,0,0,0,0,0,0,0,-1,734,561,-8.57045,1.58944
-483,463,-7.29224,-1.7226,0,0,0,0,0,0,0,-1,741,561,-7.29226,1.72261
-476,463,-5.77704,-1.7312,0,0,0,0,0,0,0,-1,748,561,-5.77703,1.73121
-469,463,-5.14545,-2.138,0,0,0,0,0,0,0,-1,755,561,-5.14546,2.13799
-462,463,-3.13672,-3.07977,0,0,0,0,0,0,0,-1,762,561,-3.13672,3.07974
-455,463,-1.93884,-3.65485,0,0,0,0,0,0,0,-1,769,561,-1.93887,3.65482
-448,463,-2.04596,-4.02875,0.00434827,0.00758176,-0.00651175,0.0126745,-0.000744436,-0.907078,0.0087084,0.0474218,776,561,-2.04597,4.02877
-441,463,-2.00568,-4.49371,0.00324899,0.00592899,-0.00440034,0.00918883,-1.08527e-05,-0.933198,0.00612951,0.0368363,783,561,-2.00569,4.49368
-434,463,-2.11853,-4.83142,0.00257105,0.00452878,-0.00285935,0.00657217,0.000527656,-0.950314,0.00421658,0.0157979,790,561,-2.11854,4.83141
-427,463,-2.12091,-5.09796,0.00197219,0.00359568,-0.00172505,0.00469043,0.000877433,-1.00531,0.00287939,0.00914003,797,561,-2.12088,5.09795
-420,463,-2.10901,-5.36029,0.0012905,0.00267238,-0.000755607,0.00300532,0.000957557,-1.15576,0.00177277,0.00943253,804,561,-2.10902,5.36028
-413,463,-2.11823,-5.64496,0.000774108,0.00194377,-0.00010439,0.00195301,0.000764865,-1.48248,0.00113636,0.00853233,811,561,-2.11822,5.64495
-406,463,-2.146,-5.91437,0.000438903,0.00130701,0.000411252,0.00147089,0.000275017,1.19158,0.000902991,0.00782789,818,561,-2.14597,5.91437
-399,463,-2.14355,-6.18036,2.26657e-05,0.000672598,0.000868401,0.00127485,-0.000579581,0.964438,0.00109545,0.0098846,825,561,-2.14355,6.18033
-392,463,-2.14111,-6.46631,-0.000203439,-0.00019349,0.00130309,0.00110464,-0.00150156,0.787307,0.0015105,0.0102263,832,561,-2.14111,6.4663
-385,463,-2.15601,-6.73346,-0.000355415,-0.000884154,0.00158594,0.000988041,-0.00222761,0.70281,0.00190198,0.0107269,839,561,-2.15602,6.73344
-378,463,-2.15448,-6.99384,-0.00040309,-0.00165377,0.00181411,0.000890434,-0.00294729,0.619422,0.00231936,0.0114136,846,561,-2.15447,6.99381
-371,463,-2.14734,-7.2597,-0.000212668,-0.00238991,0.00185224,0.000847175,-0.00344975,0.519724,0.00262814,0.0110092,853,561,-2.14734,7.2597
-364,463,-2.14545,-7.48114,0.000181194,-0.00327769,0.00190108,0.00102179,-0.00411829,0.41632,0.003142,0.0128596,860,561,-2.14545,7.48115
-357,463,-2.17065,-7.73273,0.000906841,-0.00420481,0.00182514,0.00149161,-0.00478958,0.310066,0.00378941,0.0160468,867,561,-2.17067,7.73272
-350,463,-2.10681,-8.06659,0.00192155,-0.00520293,0.00165441,0.00228699,-0.00556837,0.217395,0.00466533,0.0195503,874,561,-2.10682,8.06656
-343,463,-2.00391,-8.20166,0.00321151,-0.00644373,0.00220622,0.00369175,-0.00692396,0.214329,0.00622296,0.0362285,881,561,-2.00388,8.20168
-336,463,-1.60815,-7.78564,0,0,0,0,0,0,0,-1,888,561,-1.60818,7.78567
-329,463,-1.75793,-8.55182,0,0,0,0,0,0,0,-1,895,561,-1.75791,8.55184
-322,463,-1.23309,-8.07733,0,0,0,0,0,0,0,-1,902,561,-1.23307,8.0773
-315,463,-0.944763,-5.96234,0,0,0,0,0,0,0,-1,909,561,-0.94479,5.96237
-308,463,-1.1535,-3.17889,0,0,0,0,0,0,0,-1,916,561,-1.15352,3.17889
-301,463,-1.50366,-3.15338,0,0,0,0,0,0,0,-1,923,561,-1.50364,3.15341
-294,463,-2.35889,-3.93463,0,0,0,0,0,0,0,-1,930,561,-2.35886,3.93465
-287,463,-2.80322,2.73999,0,0,0,0,0,0,0,-1,937,561,-2.80322,-2.74
-280,463,-12.864,5.25146,0,0,0,0,0,0,0,-1,944,561,-12.864,-5.25149
-273,463,-10.2264,2.63672,0,0,0,0,0,0,0,-1,951,561,-10.2264,-2.63675
-266,463,-7.65808,0.0662231,0,0,0,0,0,0,0,-1,958,561,-7.65808,-0.0662199
-259,463,-5.16095,-3.31085,0,0,0,0,0,0,0,-1,965,561,-5.16093,3.31085
-252,463,0,0,0,0,0,0,0,0,0,-1,972,561,0,0
-245,463,0,0,0,0,0,0,0,0,0,-1,979,561,0,0
-238,463,0,0,0,0,0,0,0,0,0,-1,986,561,0,0
-231,463,0,0,0,0,0,0,0,0,0,-1,993,561,0,0
-224,463,0,0,0,0,0,0,0,0,0,-1,1000,561,0,0
-217,463,0,0,0,0,0,0,0,0,0,-1,1007,561,0,0
-210,463,0,0,0,0,0,0,0,0,0,-1,1014,561,0,0
-203,463,0,0,0,0,0,0,0,0,0,-1,1021,561,0,0
-196,463,0,0,0,0,0,0,0,0,0,-1,1028,561,0,0
-189,463,0,0,0,0,0,0,0,0,0,-1,1035,561,0,0
-182,463,0,0,0,0,0,0,0,0,0,-1,1042,561,0,0
-175,463,0,0,0,0,0,0,0,0,0,-1,1049,561,0,0
-168,463,0,0,0,0,0,0,0,0,0,-1,1056,561,0,0
-161,463,0,0,0,0,0,0,0,0,0,-1,1063,561,0,0
-154,463,0,0,0,0,0,0,0,0,0,-1,1070,561,0,0
-147,463,0,0,0,0,0,0,0,0,0,-1,1077,561,0,0
-140,463,0,0,0,0,0,0,0,0,0,-1,1084,561,0,0
-133,463,0,0,0,0,0,0,0,0,0,-1,1091,561,0,0
-126,463,0,0,0,0,0,0,0,0,0,-1,1098,561,0,0
-119,463,0,0,0,0,0,0,0,0,0,-1,1105,561,0,0
-112,463,0,0,0,0,0,0,0,0,0,-1,1112,561,0,0
-105,463,0,0,0,0,0,0,0,0,0,-1,1119,561,0,0
-98,463,0,0,0,0,0,0,0,0,0,-1,1126,561,0,0
-91,463,0,0,0,0,0,0,0,0,0,-1,1133,561,0,0
-84,463,0,0,0,0,0,0,0,0,0,-1,1140,561,0,0
-77,463,0,0,0,0,0,0,0,0,0,-1,1147,561,0,0
-70,463,0,0,0,0,0,0,0,0,0,-1,1154,561,0,0
-63,463,0,0,0,0,0,0,0,0,0,-1,1161,561,0,0
-56,463,0,0,0,0,0,0,0,0,0,-1,1168,561,0,0
-49,463,0,0,0,0,0,0,0,0,0,-1,1175,561,0,0
-42,463,0,0,0,0,0,0,0,0,0,-1,1182,561,0,0
-35,463,0,0,0,0,0,0,0,0,0,-1,1189,561,0,0
-28,463,0,0,0,0,0,0,0,0,0,-1,1196,561,0,0
-21,463,0,0,0,0,0,0,0,0,0,-1,1203,561,0,0
-14,463,0,0,0,0,0,0,0,0,0,-1,1210,561,0,0
-7,463,0,0,0,0,0,0,0,0,0,-1,1217,561,0,0
0,463,0,0,0,0,0,0,0,0,0,-1,1224,561,0,0
7,463,0,0,0,0,0,0,0,0,0,-1,1231,561,0,0
14,463,0,0,0,0,0,0,0,0,0,-1,1238,561,0,0
21,463,0,0,0,0,0,0,0,0,0,-1,1245,561,0,0
28,463,0,0,0,0,0,0,0,0,0,-1,1252,561,0,0
35,463,0,0,0,0,0,0,0,0,0,-1,1259,561,0,0
42,463,0,0,0,0,0,0,0,0,0,-1,1266,561,0,0
49,463,0,0,0,0,0,0,0,0,0,-1,1273,561,0,0
56,463,0,0,0,0,0,0,0,0,0,-1,1280,561,0,0
63,463,0,0,0,0,0,0,0,0,0,-1,1287,561,0,0
70,463,0,0,0,0,0,0,0,0,0,-1,1294,561,0,0
77,463,0,0,0,0,0,0,0,0,0,-1,1301,561,0,0
84,463,0,0,0,0,0,0,0,0,0,-1,1308,561,0,0
91,463,0,0,0,0,0,0,0,0,0,-1,1315,561,0,0
98,463,0,0,0,0,0,0,0,0,0,-1,1322,561,0,0
105,463,0,0,0,0,0,0,0,0,0,-1,1329,561,0,0
112,463,0,0,0,0,0,0,0,0,0,-1,1336,561,0,0
119,463,0,0,0,0,0,0,0,0,0,-1,1343,561,0,0
126,463,0,0,0,0,0,0,0,0,0,-1,1350,561,0,0
133,463,0,0,0,0,0,0,0,0,0,-1,1357,561,0,0
140,463,0,0,0,0,0,0,0,0,0,-1,1364,561,0,0
147,463,0,0,0,0,0,0,0,0,0,-1,1371,561,0,0
154,463,0,0,0,0,0,0,0,0,0,-1,1378,561,0,0
161,463,0,0,0,0,0,0,0,0,0,-1,1385,561,0,0
168,463,0,0,0,0,0,0,0,0,0,-1,1392,561,0,0
175,463,0,0,0,0,0,0,0,0,0,-1,1399,561,0,0
182,463,0,0,0,0,0,0,0,0,0,-1,1406,561,0,0
189,463,0,0,0,0,0,0,0,0,0,-1,1413,561,0,0
196,463,0,0,0,0,0,0,0,0,0,-1,1420,561,0,0
203,463,0,0,0,0,0,0,0,0,0,-1,1427,561,0,0
210,463,0,0,0,0,0,0,0,0,0,-1,1434,561,0,0
217,463,0,0,0,0,0,0,0,0,0,-1,1441,561,0,0
224,463,0,0,0,0,0,0,0,0,0,-1,1448,561,0,0
231,463,0,0,0,0,0,0,0,0,0,-1,1455,561,0,0
238,463,0,0,0,0,0,0,0,0,0,-1,1462,561,0,0
245,463,0,0,0,0,0,0,0,0,0,-1,1469,561,0,0
252,463,0,0,0,0,0,0,0,0,0,-1,1476,561,0,0
259,463,0,0,0,0,0,0,0,0,0,-1,1483,561,0,0
266,463,0,0,0,0,0,0,0,0,0,-1,1490,561,0,0
273,463,0,0,0,0,0,0,0,0,0,-1,1497,561,0,0
280,463,0,0,0,0,0,0,0,0,0,-1,1504,561,0,0
287,463,0,0,0,0,0,0,0,0,0,-1,1511,561,0,0
294,463,0,0,0,0,0,0,0,0,0,-1,1518,561,0,0
301,463,0,0,0,0,0,0,0,0,0,-1,1525,561,0,0
308,463,0,0,0,0,0,0,0,0,0,-1,1532,561,0,0
315,463,0,0,0,0,0,0,0,0,0,-1,1539,561,0,0
322,463,0,0,0,0,0,0,0,0,0,-1,1546,561,0,0
329,463,0,0,0,0,0,0,0,0,0,-1,1553,561,0,0
336,463,0,0,0,0,0,0,0,0,0,-1,1560,561,0,0
343,463,0,0,0,0,0,0,0,0,0,-1,1567,561,0,0
350,463,0,0,0,0,0,0,0,0,0,-1,1574,561,0,0
357,463,0,0,0,0,0,0,0,0,0,-1,1581,561,0,0
364,463,0,0,0,0,0,0,0,0,0,-1,1588,561,0,0
371,463,1.75842,0.152588,0,0,0,0,0,0,0,-1,1595,561,1.75844,-0.152558
378,463,4.58813,-0.0444336,0,0,0,0,0,0,0,-1,1602,561,4.58809,0.0444505
385,463,8.88574,1.65057,0,0,0,0,0,0,0,-1,1609,561,8.88575,-1.65055
392,463,13.4452,2.6582,0,0,0,0,0,0,0,-1,1616,561,13.4452,-2.65821
399,463,19.6376,3.51965,0,0,0,0,0,0,0,-1,1623,561,19.6376,-3.51966
406,463,7.28088,1.38538,0,0,0,0,0,0,0,-1,1630,561,7.28091,-1.38537
413,463,8.05847,1.82239,0,0,0,0,0,0,0,-1,1637,561,8.05851,-1.82241
420,463,8.849,2.26611,0,0,0,0,0,0,0,-1,1644,561,8.84899,-2.26613
427,463,5.12207,1.69183,0,0,0,0,0,0,0,-1,1651,561,5.12206,-1.69184
434,463,4.59814,1.81995,0,0,0,0,0,0,0,-1,1658,561,4.59812,-1.81994
441,463,1.76392,-5.99225,0,0,0,0,0,0,0,-1,1665,561,1.7639,5.99225
448,463,2.49939,-4.30536,0,0,0,0,0,0,0,-1,1672,561,2.49941,4.30536
455,463,4.40295,-3.02557,0,0,0,0,0,0,0,-1,1679,561,4.40299,3.02558
462,463,5.38293,-4.06445,0,0,0,0,0,0,0,-1,1686,561,5.38289,4.06444
469,463,5.94373,-4.50647,0,0,0,0,0,0,0,-1,1693,561,5.94368,4.50646
476,463,7.8175,-6.87512,0,0,0,0,0,0,0,-1,1700,561,7.81753,6.87513
483,463,7.86121,-6.56403,0.00495454,0.00380195,0.00315828,0.00758868,0.00116781,0.695156,0.00471827,0.040948,1707,561,7.86117,6.56403
490,463,7.99829,-6.11633,0.00504636,0.00353426,0.00318292,0.00756179,0.00101883,0.668792,0.00473824,0.0203292,1714,561,7.99827,6.11636
497,463,8.00562,-5.78345,0.00452013,0.00276115,0.00274661,0.00652462,0.000756662,0.630452,0.00412075,0.0123373,1721,561,8.00558,5.78344
504,463,8.02576,-5.5127,0.00357804,0.00226429,0.00220196,0.00521901,0.000623317,0.640445,0.0032913,0.0160029,1728,561,8.02577,5.51272
511,463,8.06067,-5.25232,0.00253381,0.00187748,0.00169032,0.00392753,0.000483763,0.68952,0.00247292,0.0225366,1735,561,8.06065,5.25234
518,463,8.12463,-4.98444,0.00144955,0.00156937,0.00119514,0.0027061,0.000312822,0.81044,0.00170936,0.0229752,1742,561,8.12458,4.98442
525,463,8.03479,-4.67767,0.000356693,0.0014592,0.000714632,0.00181049,5.40615e-06,1.11392,0.00120519,0.018165,1749,561,8.03479,4.67764
532,463,8.02515,-4.35492,-0.000713639,0.00151864,0.000292518,0.00155634,-0.000751334,1.44264,0.00135909,0.0153124,1756,561,8.02516,4.35491
539,463,8.00549,-4.05829,-0.00162764,0.00158331,-6.17992e-05,0.0015845,-0.00162883,-1.55156,0.00185527,0.0149614,1763,561,8.00546,4.05831
546,463,7.99939,-3.7832,-0.0022043,0.00197264,-0.000116556,0.00197589,-0.00220755,-1.54292,0.00241655,0.0119745,1770,561,7.99938,3.78323
553,463,8.01514,-3.45856,-0.00260836,0.00235452,-0.000100087,0.00235654,-0.00261038,-1.55064,0.0028689,0.0108289,1777,561,8.01516,3.45857
560,463,8.01855,-3.10883,-0.00274725,0.0027629,9.51411e-05,0.00276454,-0.00274889,1.55354,0.00318318,0.0125401,1784,561,8.01859,3.10882
567,463,7.95032,-2.84503,-0.00251015,0.00321312,0.0005432,0.00326422,-0.00256125,1.477,0.00337149,0.0187663,1791,561,7.95028,2.84504
574,463,7.73853,-2.68231,0,0,0,0,0,0,0,-1,1798,561,7.73855,2.68231
581,463,7.77832,-2.18085,0,0,0,0,0,0,0,-1,1805,561,7.77828,2.18082
588,463,1.97424,2.16016,0,0,0,0,0,0,0,-1,1812,561,1.97422,-2.16013
595,463,9.98657,2.99854,0,0,0,0,0,0,0,-1,1819,561,9.98662,-2.99856
602,463,17.2202,4.91302,0,0,0,0,0,0,0,-1,1826,561,17.2202,-4.91305
609,463,17.96,4.03131,0,0,0,0,0,0,0,-1,1833,561,17.96,-4.03132
616,463,20.8352,3.15131,0,0,0,0,0,0,0,-1,1840,561,20.8352,-3.1513
623,463,0,0,0,0,0,0,0,0,0,-1,1847,561,0,0
630,463,0,0,0,0,0,0,0,0,0,-1,1854,561,0,0
637,463,0,0,0,0,0,0,0,0,0,-1,1861,561,0,0
644,463,0,0,0,0,0,0,0,0,0,-1,1868,561,0,0
651,463,0,0,0,0,0,0,0,0,0,-1,1875,561,0,0
658,463,0,0,0,0,0,0,0,0,0,-1,1882,561,0,0
665,463,0,0,0,0,0,0,0,0,0,-1,1889,561,0,0
672,463,0,0,0,0,0,0,0,0,0,-1,1896,561,0,0
679,463,0,0,0,0,0,0,0,0,0,-1,1903,561,0,0
686,463,0,0,0,0,0,0,0,0,0,-1,1910,561,0,0
693,463,0,0,0,0,0,0,0,0,0,-1,1917,561,0,0
700,463,0,0,0,0,0,0,0,0,0,-1,1924,561,0,0
707,463,0,0,0,0,0,0,0,0,0,-1,1931,561,0,0
714,463,0,0,0,0,0,0,0,0,0,-1,1938,561,0,0
721,463,0,0,0,0,0,0,0,0,0,-1,1945,561,0,0
728,463,0,0,0,0,0,0,0,0,0,-1,1952,561,0,0
735,463,0,0,0,0,0,0,0,0,0,-1,1959,561,0,0
742,463,0,0,0,0,0,0,0,0,0,-1,1966,561,0,0
749,463,0,0,0,0,0,0,0,0,0,-1,1973,561,0,0
756,463,0,0,0,0,0,0,0,0,0,-1,1980,561,0,0
763,463,0,0,0,0,0,0,0,0,0,-1,1987,561,0,0
770,463,0,0,0,0,0,0,0,0,0,-1,1994,561,0,0
777,463,0,0,0,0,0,0,0,0,0,-1,2001,561,0,0
784,463,0,0,0,0,0,0,0,0,0,-1,2008,561,0,0
791,463,0,0,0,0,0,0,0,0,0,-1,2015,561,0,0
798,463,0,0,0,0,0,0,0,0,0,-1,2022,561,0,0
805,463,0,0,0,0,0,0,0,0,0,-1,2029,561,0,0
812,463,0,0,0,0,0,0,0,0,0,-1,2036,561,0,0
-700,456,0,0,0,0,0,0,0,0,0,-1,524,568,0,0
-693,456,0,0,0,0,0,0,0,0,0,-1,531,568,0,0
-686,456,0,0,0,0,0,0,0,0,0,-1,538,568,0,0
-679,456,0,0,0,0,0,0,0,0,0,-1,545,568,0,0
-672,456,0,0,0,0,0,0,0,0,0,-1,552,568,0,0
-665,456,0,0,0,0,0,0,0,0,0,-1,559,568,0,0
-658,456,0,0,0,0,0,0,0,0,0,-1,566,568,0,0
-651,456,0,0,0,0,0,0,0,0,0,-1,573,568,0,0
-644,456,0,0,0,0,0,0,0,0,0,-1,580,568,0,0
-637,456,0,0,0,0,0,0,0,0,0,-1,587,568,0,0
-630,456,0,0,0,0,0,0,0,0,0,-1,594,568,0,0
-623,456,0,0,0,0,0,0,0,0,0,-1,601,568,0,0
-616,456,0,0,0,0,0,0,0,0,0,-1,608,568,0,0
-609,456,0,0,0,0,0,0,0,0,0,-1,615,568,0,0
-602,456,0,0,0,0,0,0,0,0,0,-1,622,568,0,0
-595,456,0,0,0,0,0,0,0,0,0,-1,629,568,0,0
-588,456,0,0,0,0,0,0,0,0,0,-1,636,568,0,0
-581,456,0,0,0,0,0,0,0,0,0,-1,643,568,0,0
-574,456,0,0,0,0,0,0,0,0,0,-1,650,568,0,0
-567,456,0,0,0,0,0,0,0,0,0,-1,657,568,0,0
-560,456,0,0,0,0,0,0,0,0,0,-1,664,568,0,0
-553,456,0,0,0,0,0,0,0,0,0,-1,671,568,0,0
-546,456,0,0,0,0,0,0,0,0,0,-1,678,568,0,0
-539,456,0,0,0,0,0,0,0,0,0,-1,685,568,0,0
-532,456,0,0,0,0,0,0,0,0,0,-1,692,568,0,0
-525,456,0,0,0,0,0,0,0,0,0,-1,699,568,0,0
-518,456,0,0,0,0,0,0,0,0,0,-1,706,568,0,0
-511,456,0,0,0,0,0,0,0,0,0,-1,713,568,0,0
-504,456,-10.3994,-2.34839,0,0,0,0,0,0,0,-1,720,568,-10.3994,2.3484
-497,456,-9.21375,-2.38068,0,0,0,0,0,0,0,-1,727,568,-9.21372,2.38069
-490,456,-8.09058,-2.31824,0,0,0,0,0,0,0,-1,734,568,-8.09057,2.31821
-483,456,-6.66119,-2.24329,0,0,0,0,0,0,0,-1,741,568,-6.66121,2.24331
-476,456,-5.1499,-2.21185,0,0,0,0,0,0,0,-1,748,568,-5.14992,2.21184
-469,456,-2.81238,-3.51501,0,0,0,0,0,0,0,-1,755,568,-2.81237,3.51501
-462,456,-2.53406,-3.711,0,0,0,0,0,0,0,-1,762,568,-2.53405,3.71102
-455,456,-2.22369,-3.59991,0,0,0,0,0,0,0,-1,769,568,-2.22371,3.59992
-448,456,-2.23877,-4.065,0.0037446,0.00654562,-0.00600572,0.011312,-0.00102174,-0.899949,0.00790394,0.0359337,776,568,-2.23875,4.06502
-441,456,-2.33612,-4.5083,0.00291584,0.00507668,-0.00438202,0.00850951,-0.000516981,-0.906266,0.00585295,0.0174034,783,568,-2.33614,4.50827
-434,456,-2.39789,-4.82507,0.00236984,0.00363918,-0.00303051,0.00610076,-9.17458e-05,-0.88862,0.0040981,0.0100747,790,568,-2.39788,4.82505
-427,456,-2.39777,-5.09973,0.001836,0.00273198,-0.00199003,0.00432383,0.000244152,-0.896111,0.00280471,0.00843634,797,568,-2.39778,5.09974
-420,456,-2.38983,-5.37164,0.00113723,0.00183738,-0.0010444,0.00258882,0.000385799,-0.94711,0.00161273,0.00934893,804,568,-2.38985,5.37167
-413,456,-2.40149,-5.65363,0.000561025,0.00115286,-0.000338428,0.0013065,0.000407386,-1.14464,0.00077191,0.00835549,811,568,-2.40149,5.65362
-406,456,-2.4259,-5.90747,0.000203554,0.000512202,0.000253021,0.000654248,6.15069e-05,1.05924,0.000417177,0.0079905,818,568,-2.42592,5.90747
-399,456,-2.42206,-6.16058,-0.000285736,-0.000157053,0.000842313,0.000623372,-0.00106616,0.823518,0.000986556,0.00987606,825,568,-2.42207,6.16058
-392,456,-2.41632,-6.44629,-0.000622816,-0.0010942,0.00145648,0.000616923,-0.00233394,0.705183,0.00179725,0.00986336,832,568,-2.41634,6.44629
-385,456,-2.42395,-6.71814,-0.000966707,-0.00184012,0.00197655,0.00062081,-0.00342763,0.676674,0.00251767,0.00983824,839,568,-2.42397,6.71812
-378,456,-2.43921,-6.99445,-0.00122234,-0.00267512,0.00245845,0.000614786,-0.00451225,0.641752,0.00323264,0.0103429,846,568,-2.43922,6.99448
-371,456,-2.42578,-7.25696,-0.00124798,-0.00352497,0.0028046,0.0006404,-0.00541335,0.592591,0.00384021,0.0108191,853,568,-2.42576,7.25696
-364,456,-2.41272,-7.46777,-0.00103693,-0.00457457,0.0031502,0.000807071,-0.00641857,0.529586,0.00457188,0.0142052,860,568,-2.41271,7.46777
-357,456,-2.37982,-7.74298,-0.000442029,-0.00571392,0.00333776,0.00117512,-0.00733107,0.451173,0.00532251,0.0182198,867,568,-2.37985,7.743
-350,456,-2.20056,-7.85913,0.000533112,-0.00706599,0.00337522,0.00181575,-0.00834864,0.363162,0.00625942,0.0362568,874,568,-2.20056,7.85912
-343,456,-2.19653,-7.82666,0.00219153,-0.00865915,0.00390929,0.00345326,-0.00992087,0.312196,0.00801687,0.0434807,881,568,-2.19651,7.82664
-336,456,-1.92877,-7.63342,0,0,0,0,0,0,0,-1,888,568,-1.9288,7.63342
-329,456,-1.61713,-7.40991,0,0,0,0,0,0,0,-1,895,568,-1.61714,7.40993
-322,456,-0.662537,-7.66632,0,0,0,0,0,0,0,-1,902,568,-0.662564,7.66633
-315,456,-0.675476,-3.38397,0,0,0,0,0,0,0,-1,909,568,-0.675473,3.38399
-308,456,-1.1618,-3.15314,0,0,0,0,0,0,0,-1,916,568,-1.16178,3.15314
-301,456,-1.83551,-3.26447,0,0,0,0,0,0,0,-1,923,568,-1.8355,3.26449
-294,456,-2.93414,-3.35449,0,0,0,0,0,0,0,-1,930,568,-2.93413,3.35451
-287,456,-3.7569,-3.53101,0,0,0,0,0,0,0,-1,937,568,-3.75692,3.53101
-280,456,-11.2036,5.02667,0,0,0,0,0,0,0,-1,944,568,-11.2036,-5.02667
-273,456,-8.0708,1.68311,0,0,0,0,0,0,0,-1,951,568,-8.07081,-1.68313
-266,456,-5.90527,-1.0705,0,0,0,0,0,0,0,-1,958,568,-5.90525,1.07047
-259,456,0,0,0,0,0,0,0,0,0,-1,965,568,0,0
-252,456,0,0,0,0,0,0,0,0,0,-1,972,568,0,0
-245,456,0,0,0,0,0,0,0,0,0,-1,979,568,0,0
-238,456,0,0,0,0,0,0,0,0,0,-1,986,568,0,0
-231,456,0,0,0,0,0,0,0,0,0,-1,993,568,0,0
-224,456,0,0,0,0,0,0,0,0,0,-1,1000,568,0,0
-217,456,0,0,0,0,0,0,0,0,0,-1,1007,568,0,0
-210,456,0,0,0,0,0,0,0,0,0,-1,1014,568,0,0
-203,456,0,0,0,0,0,0,0,0,0,-1,1021,568,0,0
-196,456,0,0,0,0,0,0,0,0,0,-1,1028,568,0,0
-189,456,0,0,0,0,0,0,0,0,0,-1,1035,568,0,0
-182,456,0,0,0,0,0,0,0,0,0,-1,1042,568,0,0
-175,456,0,0,0,0,0,0,0,0,0,-1,1049,568,0,0
-168,456,0,0,0,0,0,0,0,0,0,-1,1056,568,0,0
-161,456,0,0,0,0,0,0,0,0,0,-1,1063,568,0,0
-154,456,0,0,0,0,0,0,0,0,0,-1,1070,568,0,0
-147,456,0,0,0,0,0,0,0,0,0,-1,1077,568,0,0
-140,456,0,0,0,0,0,0,0,0,0,-1,1084,568,0,0
-133,456,0,0,0,0,0,0,0,0,0,-1,1091,568,0,0
-126,456,0,0,0,0,0,0,0,0,0,-1,1098,568,0,0
-119,456,0,0,0,0,0,0,0,0,0,-1,1105,568,0,0
-112,456,0,0,0,0,0,0,0,0,0,-1,1112,568,0,0
-105,456,0,0,0,0,0,0,0,0,0,-1,1119,568,0,0
-98,456,0,0,0,0,0,0,0,0,0,-1,1126,568,0,0
-91,456,0,0,0,0,0,0,0,0,0,-1,1133,568,0,0
-84,456,0,0,0,0,0,0,0,0,0,-1,1140,568,0,0
-77,456,0,0,0,0,0,0,0,0,0,-1,1147,568,0,0
-70,456,0,0,0,0,0,0,0,0,0,-1,1154,568,0,0
-63,456,0,0,0,0,0,0,0,0,0,-1,1161,568,0,0
-56,456,0,0,0,0,0,0,0,0,0,-1,1168,568,0,0
-49,456,0,0,0,0,0,0,0,0,0,-1,1175,568,0,0
-42,456,0,0,0,0,0,0,0,0,0,-1,1182,568,0,0
-35,456,0,0,0,0,0,0,0,0,0,-1,1189,568,0,0
-28,456,0,0,0,0,0,0,0,0,0,-1,1196,568,0,0
-21,456,0,0,0,0,0,0,0,0,0,-1,1203,568,0,0
-14,456,0,0,0,0,0,0,0,0,0,-1,1210,568,0,0
-7,456,0,0,0,0,0,0,0,0,0,-1,1217,568,0,0
0,456,0,0,0,0,0,0,0,0,0,-1,1224,568,0,0
7,456,0,0,0,0,0,0,0,0,0,-1,1231,568,0,0
14,456,0,0,0,0,0,0,0,0,0,-1,1238,568,0,0
21,456,0,0,0,0,0,0,0,0,0,-1,1245,568,0,0
28,456,0,0,0,0,0,0,0,0,0,-1,1252,568,0,0
35,456,0,0,0,0,0,0,0,0,0,-1,1259,568,0,0
42,456,0,0,0,0,0,0,0,0,0,-1,1266,568,0,0
49,456,0,0,0,0,0,0,0,0,0,-1,1273,568,0,0
56,456,0,0,0,0,0,0,0,0,0,-1,1280,568,0,0
63,456,0,0,0,0,0,0,0,0,0,-1,1287,568,0,0
70,456,0,0,0,0,0,0,0,0,0,-1,1294,568,0,0
77,456,0,0,0,0,0,0,0,0,0,-1,1301,568,0,0
84,456,0,0,0,0,0,0,0,0,0,-1,1308,568,0,0
91,456,0,0,0,0,0,0,0,0,0,-1,1315,568,0,0
98,456,0,0,0,0,0,0,0,0,0,-1,1322,568,0,0
105,456,0,0,0,0,0,0,0,0,0,-1,1329,568,0,0
112,456,0,0,0,0,0,0,0,0,0,-1,1336,568,0,0
119,456,0,0,0,0,0,0,0,0,0,-1,1343,568,0,0
126,456,0,0,0,0,0,0,0,0,0,-1,1350,568,0,0
133,456,0,0,0,0,0,0,0,0,0,-1,1357,568,0,0
140,456,0,0,0,0,0,0,0,0,0,-1,1364,568,0,0
147,456,0,0,0,0,0,0,0,0,0,-1,1371,568,0,0
154,456,0,0,0,0,0,0,0,0,0,-1,1378,568,0,0
161,456,0,0,0,0,0,0,0,0,0,-1,1385,568,0,0
168,456,0,0,0,0,0,0,0,0,0,-1,1392,568,0,0
175,456,0,0,0,0,0,0,0,0,0,-1,1399,568,0,0
182,456,0,0,0,0,0,0,0,0,0,-1,1406,568,0,0
189,456,0,0,0,0,0,0,0,0,0,-1,1413,568,0,0
196,456,0,0,0,0,0,0,0,0,0,-1,1420,568,0,0
203,456,0,0,0,0,0,0,0,0,0,-1,1427,568,0,0
210,456,0,0,0,0,0,0,0,0,0,-1,1434,568,0,0
217,456,0,0,0,0,0,0,0,0,0,-1,1441,568,0,0
224,456,0,0,0,0,0,0,0,0,0,-1,1448,568,0,0
231,456,0,0,0,0,0,0,0,0,0,-1,1455,568,0,0
238,456,0,0,0,0,0,0,0,0,0,-1,1462,568,0,0
245,456,0,0,0,0,0,0,0,0,0,-1,1469,568,0,0
252,456,0,0,0,0,0,0,0,0,0,-1,1476,568,0,0
259,456,0,0,0,0,0,0,0,0,0,-1,1483,568,0,0
266,456,0,0,0,0,0,0,0,0,0,-1,1490,568,0,0
273,456,0,0,0,0,0,0,0,0,0,-1,1497,568,0,0
280,456,0,0,0,0,0,0,0,0,0,-1,1504,568,0,0
287,456,0,0,0,0,0,0,0,0,0,-1,1511,568,0,0
294,456,0,0,0,0,0,0,0,0,0,-1,1518,568,0,0
301,456,0,0,0,0,0,0,0,0,0,-1,1525,568,0,0
308,456,0,0,0,0,0,0,0,0,0,-1,1532,568,0,0
315,456,0,0,0,0,0,0,0,0,0,-1,1539,568,0,0
322,456,0,0,0,0,0,0,0,0,0,-1,1546,568,0,0
329,456,0,0,0,0,0,0,0,0,0,-1,1553,568,0,0
336,456,0,0,0,0,0,0,0,0,0,-1,1560,568,0,0
343,456,0,0,0,0,0,0,0,0,0,-1,1567,568,0,0
350,456,0,0,0,0,0,0,0,0,0,-1,1574,568,0,0
357,456,0,0,0,0,0,0,0,0,0,-1,1581,568,0,0
364,456,0,0,0,0,0,0,0,0,0,-1,1588,568,0,0
371,456,0,0,0,0,0,0,0,0,0,-1,1595,568,0,0
378,456,0,0,0,0,0,0,0,0,0,-1,1602,568,0,0
385,456,5.66284,0.660645,0,0,0,0,0,0,0,-1,1609,568,5.66285,-0.660615
392,456,15.1713,4.17755,0,0,0,0,0,0,0,-1,1616,568,15.1713,-4.17755
399,456,18.0848,4.00708,0,0,0,0,0,0,0,-1,1623,568,18.0848,-4.00706
406,456,20.4451,3.73621,0,0,0,0,0,0,0,-1,1630,568,20.445,-3.73619
413,456,9.55115,1.49933,0,0,0,0,0,0,0,-1,1637,568,9.55119,-1.49933
420,456,6.33875,1.88824,0,0,0,0,0,0,0,-1,1644,568,6.33876,-1.88827
427,456,6.21375,2.02905,0,0,0,0,0,0,0,-1,1651,568,6.21372,-2.02904
434,456,3.0719,-4.86285,0,0,0,0,0,0,0,-1,1658,568,3.07184,4.86287
441,456,2.90344,-4.70459,0,0,0,0,0,0,0,-1,1665,568,2.90346,4.7046
448,456,3.06995,-4.93689,0,0,0,0,0,0,0,-1,1672,568,3.06991,4.93687
455,456,3.46582,-3.43701,0,0,0,0,0,0,0,-1,1679,568,3.46585,3.43698
462,456,4.68445,-4.45831,0,0,0,0,0,0,0,-1,1686,568,4.68439,4.45833
469,456,4.93201,-2.289,0,0,0,0,0,0,0,-1,1693,568,4.93197,2.28903
476,456,4.8363,-2.79364,0,0,0,0,0,0,0,-1,1700,568,4.83636,2.79363
483,456,7.83008,-7.0083,0,0,0,0,0,0,0,-1,1707,568,7.83007,7.00827
490,456,8.16675,-6.29254,0,0,0,0,0,0,0,-1,1714,568,8.16679,6.29256
497,456,8.31262,-5.86749,0.00611153,0.0034384,0.00376879,0.00877374,0.000776188,0.614997,0.00560836,0.0391623,1721,568,8.31267,5.8675
504,456,8.28943,-5.5022,0.00498047,0.00269379,0.00302945,0.00707515,0.000599107,0.604957,0.00453029,0.0115099,1728,568,8.28945,5.5022
511,456,8.31482,-5.2038,0.00381516,0.00211689,0.00239435,0.00550649,0.00042556,0.614997,0.00353768,0.0134978,1735,568,8.31478,5.2038
518,456,8.31763,-4.91443,0.00267053,0.00168121,0.00182005,0.00406195,0.000289796,0.652712,0.00261672,0.0162184,1742,568,8.31763,4.91442
525,456,8.30957,-4.65149,0.00155513,0.00146876,0.00129453,0.00280719,0.000216691,0.768725,0.00180358,0.0157,1749,568,8.30963,4.65148
532,456,8.31128,-4.3418,0.00049123,0.00138748,0.000822909,0.00187637,2.34117e-06,1.03473,0.00125013,0.0149629,1756,568,8.31124,4.34183
539,456,8.29443,-4.04083,-0.000409451,0.00126914,0.000400492,0.0013598,-0.000500108,1.34818,0.0011114,0.0172696,1763,568,8.29447,4.04081
546,456,8.29077,-3.75452,-0.00096273,0.00148776,0.000286906,0.00152091,-0.000995873,1.45579,0.00146357,0.0191898,1770,568,8.29083,3.75455
553,456,8.29126,-3.42065,-0.00134487,0.00168524,0.000252323,0.0017061,-0.00136574,1.48828,0.00177716,0.0135208,1777,568,8.29131,3.42068
560,456,8.2887,-3.13312,-0.00151765,0.00192449,0.000377415,0.00196538,-0.00155854,1.46286,0.00203905,0.0103774,1784,568,8.28866,3.13315
567,456,8.29626,-2.83704,-0.00135374,0.00223108,0.000749562,0.0023815,-0.00150415,1.37275,0.00226237,0.014265,1791,568,8.29629,2.83701
574,456,8.25317,-2.68683,-0.000923774,0.00257731,0.00133779,0.00302996,-0.00137643,1.24453,0.00260305,0.039448,1798,568,8.25313,2.68682
581,456,8.25806,-2.48535,0,0,0,0,0,0,0,-1,1805,568,8.2581,2.48536
588,456,5.23901,-0.0901489,0,0,0,0,0,0,0,-1,1812,568,5.23906,0.0901656
595,456,6.90063,3.14886,0,0,0,0,0,0,0,-1,1819,568,6.90066,-3.14887
602,456,16.894,4.10938,0,0,0,0,0,0,0,-1,1826,568,16.8941,-4.1094
609,456,14.9966,3.5708,0,0,0,0,0,0,0,-1,1833,568,14.9966,-3.57083
616,456,17.7407,2.6579,0,0,0,0,0,0,0,-1,1840,568,17.7408,-2.6579
623,456,20.6838,1.7121,0,0,0,0,0,0,0,-1,1847,568,20.6838,-1.71208
630,456,0,0,0,0,0,0,0,0,0,-1,1854,568,0,0
637,456,0,0,0,0,0,0,0,0,0,-1,1861,568,0,0
644,456,0,0,0,0,0,0,0,0,0,-1,1868,568,0,0
651,456,0,0,0,0,0,0,0,0,0,-1,1875,568,0,0
658,456,0,0,0,0,0,0,0,0,0,-1,1882,568,0,0
665,456,0,0,0,0,0,0,0,0,0,-1,1889,568,0,0
672,456,0,0,0,0,0,0,0,0,0,-1,1896,568,0,0
679,456,0,0,0,0,0,0,0,0,0,-1,1903,568,0,0
686,456,0,0,0,0,0,0,0,0,0,-1,1910,568,0,0
693,456,0,0,0,0,0,0,0,0,0,-1,1917,568,0,0
700,456,0,0,0,0,0,0,0,0,0,-1,1924,568,0,0
707,456,0,0,0,0,0,0,0,0,0,-1,1931,568,0,0
714,456,0,0,0,0,0,0,0,0,0,-1,1938,568,0,0
721,456,0,0,0,0,0,0,0,0,0,-1,1945,568,0,0
728,456,0,0,0,0,0,0,0,0,0,-1,1952,568,0,0
735,456,0,0,0,0,0,0,0,0,0,-1,1959,568,0,0
742,456,0,0,0,0,0,0,0,0,0,-1,1966,568,0,0
749,456,0,0,0,0,0,0,0,0,0,-1,1973,568,0,0
756,456,0,0,0,0,0,0,0,0,0,-1,1980,568,0,0
763,456,0,0,0,0,0,0,0,0,0,-1,1987,568,0,0
770,456,0,0,0,0,0,0,0,0,0,-1,1994,568,0,0
777,456,0,0,0,0,0,0,0,0,0,-1,2001,568,0,0
784,456,0,0,0,0,0,0,0,0,0,-1,2008,568,0,0
791,456,0,0,0,0,0,0,0,0,0,-1,2015,568,0,0
798,456,0,0,0,0,0,0,0,0,0,-1,2022,568,0,0
805,456,0,0,0,0,0,0,0,0,0,-1,2029,568,0,0
812,456,0,0,0,0,0,0,0,0,0,-1,2036,568,0,0
-700,449,0,0,0,0,0,0,0,0,0,-1,524,575,0,0
-693,449,0,0,0,0,0,0,0,0,0,-1,531,575,0,0
-686,449,0,0,0,0,0,0,0,0,0,-1,538,575,0,0
-679,449,0,0,0,0,0,0,0,0,0,-1,545,575,0,0
-672,449,0,0,0,0,0,0,0,0,0,-1,552,575,0,0
-665,449,0,0,0,0,0,0,0,0,0,-1,559,575,0,0
-658,449,0,0,0,0,0,0,0,0,0,-1,566,575,0,0
-651,449,0,0,0,0,0,0,0,0,0,-1,573,575,0,0
-644,449,0,0,0,0,0,0,0,0,0,-1,580,575,0,0
-637,449,0,0,0,0,0,0,0,0,0,-1,587,575,0,0
-630,449,0,0,0,0,0,0,0,0,0,-1,594,575,0,0
-623,449,0,0,0,0,0,0,0,0,0,-1,601,575,0,0
-616,449,0,0,0,0,0,0,0,0,0,-1,608,575,0,0
-609,449,0,0,0,0,0,0,0,0,0,-1,615,575,0,0
-602,449,0,0,0,0,0,0,0,0,0,-1,622,575,0,0
-595,449,0,0,0,0,0,0,0,0,0,-1,629,575,0,0
-588,449,0,0,0,0,0,0,0,0,0,-1,636,575,0,0
-581,449,0,0,0,0,0,0,0,0,0,-1,643,575,0,0
-574,449,0,0,0,0,0,0,0,0,0,-1,650,575,0,0
-567,449,0,0,0,0,0,0,0,0,0,-1,657,575,0,0
-560,449,0,0,0,0,0,0,0,0,0,-1,664,575,0,0
-553,449,0,0,0,0,0,0,0,0,0,-1,671,575,0,0
-546,449,0,0,0,0,0,0,0,0,0,-1,678,575,0,0
-539,449,0,0,0,0,0,0,0,0,0,-1,685,575,0,0
-532,449,0,0,0,0,0,0,0,0,0,-1,692,575,0,0
-525,449,0,0,0,0,0,0,0,0,0,-1,699,575,0,0
-518,449,0,0,0,0,0,0,0,0,0,-1,706,575,0,0
-511,449,-0.941345,-4.4519,0,0,0,0,0,0,0,-1,713,575,-0.941356,4.45191
-504,449,-14.1078,0.318237,0,0,0,0,0,0,0,-1,720,575,-14.1078,-0.318231
-497,449,-8.61292,-3.09009,0,0,0,0,0,0,0,-1,727,575,-8.61291,3.09011
-490,449,-7.50995,-2.96252,0,0,0,0,0,0,0,-1,734,575,-7.50995,2.96251
-483,449,-5.77789,-2.50061,0,0,0,0,0,0,0,-1,741,575,-5.77792,2.50059
-476,449,-4.1723,-2.07739,0,0,0,0,0,0,0,-1,748,575,-4.17228,2.0774
-469,449,-2.26245,-2.37378,0,0,0,0,0,0,0,-1,755,575,-2.26244,2.37376
-462,449,-3.04749,-3.89325,0,0,0,0,0,0,0,-1,762,575,-3.04747,3.89322
-455,449,-2.81696,-4.01141,0.00468205,0.00718684,-0.00729454,0.0133357,-0.00146682,-0.870414,0.00941757,0.049267,769,575,-2.81698,4.0114
-448,449,-2.62915,-4.19739,0.00331387,0.00544495,-0.00538,0.00986391,-0.00110509,-0.883161,0.00697355,0.0243543,776,575,-2.62915,4.19737
-441,449,-2.64087,-4.56036,0.0024197,0.00416145,-0.0040353,0.00741878,-0.000837633,-0.891675,0.0052474,0.0141303,783,575,-2.64087,4.56038
-434,449,-2.67999,-4.81232,0.0017823,0.00271052,-0.00277806,0.00506297,-0.000570144,-0.868165,0.00358052,0.0110006,790,575,-2.67997,4.81235
-427,449,-2.70172,-5.09033,0.00112557,0.00182321,-0.00177485,0.00328319,-0.000334409,-0.882429,0.00230835,0.0114896,797,575,-2.70173,5.09034
-420,449,-2.68152,-5.3739,0.000269254,0.000948277,-0.000827741,0.00150343,-0.000285898,-0.980018,0.00110993,0.0124164,804,575,-2.68155,5.37387
-413,449,-2.68524,-5.6571,-0.000467324,0.000295265,-5.85356e-05,0.000299732,-0.000471791,-1.49463,0.000449116,0.00999007,811,575,-2.68526,5.65709
-406,449,-2.71143,-5.91516,-0.000915718,-0.000362365,0.00061643,3.66328e-05,-0.00131472,0.996341,0.00088894,0.00870686,818,575,-2.7114,5.91514
-399,449,-2.70477,-6.17523,-0.00148673,-0.00107797,0.00133855,7.17117e-05,-0.00263641,0.861157,0.00178199,0.00827854,825,575,-2.70475,6.17525
-392,449,-2.68567,-6.45886,-0.00190143,-0.00208427,0.00213339,0.000142492,-0.0041282,0.763986,0.00280084,0.00947618,832,575,-2.68564,6.45889
-385,449,-2.67206,-6.71973,-0.00235347,-0.00290651,0.00289932,0.000282492,-0.00554247,0.737855,0.00379265,0.0105481,839,575,-2.67207,6.71971
-378,449,-2.68842,-6.98291,-0.00270497,-0.0038317,0.0036661,0.000440798,-0.00697747,0.70916,0.00480532,0.00937806,846,575,-2.68842,6.98292
-371,449,-2.69604,-7.25079,-0.00281175,-0.00483056,0.00437989,0.000673548,-0.00831586,0.672144,0.00578151,0.00975325,853,575,-2.69603,7.25078
-364,449,-2.70496,-7.50952,-0.0026403,-0.00609007,0.0051085,0.00102666,-0.00975703,0.622583,0.00687252,0.0182014,860,575,-2.70497,7.50955
-357,449,-2.59491,-7.67511,-0.00202014,-0.007514,0.00566745,0.001531,-0.0110651,0.559738,0.00793647,0.0375233,867,575,-2.59493,7.67513
-350,449,-2.35999,-7.8902,0,0,0,0,0,0,0,-1,874,575,-2.35997,7.89021
-343,449,-2.4975,-7.64124,0,0,0,0,0,0,0,-1,881,575,-2.49752,7.64123
-336,449,-2.24945,-7.4812,0,0,0,0,0,0,0,-1,888,575,-2.24942,7.48117
-329,449,-0.733398,-7.78937,0,0,0,0,0,0,0,-1,895,575,-0.733398,7.78937
-322,449,-0.628845,-3.16669,0,0,0,0,0,0,0,-1,902,575,-0.628861,3.16667
-315,449,-0.540344,-3.21918,0,0,0,0,0,0,0,-1,909,575,-0.540336,3.21917
-308,449,-1.04413,-2.99341,0,0,0,0,0,0,0,-1,916,575,-1.04415,2.99338
-301,449,-1.58691,-2.80725,0,0,0,0,0,0,0,-1,923,575,-1.58692,2.80728
-294,449,-3.71118,-2.76086,0,0,0,0,0,0,0,-1,930,575,-3.71119,2.76087
-287,449,-4.4082,-2.69525,0,0,0,0,0,0,0,-1,937,575,-4.40822,2.69526
-280,449,-5.09955,-2.96295,0,0,0,0,0,0,0,-1,944,575,-5.09953,2.96297
-273,449,0,0,0,0,0,0,0,0,0,-1,951,575,0,0
-266,449,0,0,0,0,0,0,0,0,0,-1,958,575,0,0
-259,449,0,0,0,0,0,0,0,0,0,-1,965,575,0,0
-252,449,0,0,0,0,0,0,0,0,0,-1,972,575,0,0
-245,449,0,0,0,0,0,0,0,0,0,-1,979,575,0,0
-238,449,0,0,0,0,0,0,0,0,0,-1,986,575,0,0
-231,449,0,0,0,0,0,0,0,0,0,-1,993,575,0,0
-224,449,0,0,0,0,0,0,0,0,0,-1,1000,575,0,0
-217,449,0,0,0,0,0,0,0,0,0,-1,1007,575,0,0
-210,449,0,0,0,0,0,0,0,0,0,-1,1014,575,0,0
-203,449,0,0,0,0,0,0,0,0,0,-1,1021,575,0,0
-196,449,0,0,0,0,0,0,0,0,0,-1,1028,575,0,0
-189,449,0,0,0,0,0,0,0,0,0,-1,1035,575,0,0
-182,449,0,0,0,0,0,0,0,0,0,-1,1042,575,0,0
-175,449,0,0,0,0,0,0,0,0,0,-1,1049,575,0,0
-168,449,0,0,0,0,0,0,0,0,0,-1,1056,575,0,0
-161,449,0,0,0,0,0,0,0,0,0,-1,1063,575,0,0
-154,449,0,0,0,0,0,0,0,0,0,-1,1070,575,0,0
-147,449,0,0,0,0,0,0,0,0,0,-1,1077,575,0,0
-140,449,0,0,0,0,0,0,0,0,0,-1,1084,575,0,0
-133,449,0,0,0,0,0,0,0,0,0,-1,1091,575,0,0
-126,449,0,0,0,0,0,0,0,0,0,-1,1098,575,0,0
-119,449,0,0,0,0,0,0,0,0,0,-1,1105,575,0,0
-112,449,0,0,0,0,0,0,0,0,0,-1,1112,575,0,0
-105,449,0,0,0,0,0,0,0,0,0,-1,1119,575,0,0
-98,449,0,0,0,0,0,0,0,0,0,-1,1126,575,0,0
-91,449,0,0,0,0,0,0,0,0,0,-1,1133,575,0,0
-84,449,0,0,0,0,0,0,0,0,0,-1,1140,575,0,0
-77,449,0,0,0,0,0,0,0,0,0,-1,1147,575,0,0
-70,449,0,0,0,0,0,0,0,0,0,-1,1154,575,0,0
-63,449,0,0,0,0,0,0,0,0,0,-1,1161,575,0,0
-56,449,0,0,0,0,0,0,0,0,0,-1,1168,575,0,0
-49,449,0,0,0,0,0,0,0,0,0,-1,1175,575,0,0
-42,449,0,0,0,0,0,0,0,0,0,-1,1182,575,0,0
-35,449,0,0,0,0,0,0,0,0,0,-1,1189,575,0,0
-28,449,0,0,0,0,0,0,0,0,0,-1,1196,575,0,0
-21,449,0,0,0,0,0,0,0,0,0,-1,1203,575,0,0
-14,449,0,0,0,0,0,0,0,0,0,-1,1210,575,0,0
-7,449,0,0,0,0,0,0,0,0,0,-1,1217,575,0,0
0,449,0,0,0,0,0,0,0,0,0,-1,1224,575,0,0
7,449,0,0,0,0,0,0,0,0,0,-1,1231,575,0,0
14,449,0,0,0,0,0,0,0,0,0,-1,1238,575,0,0
21,449,0,0,0,0,0,0,0,0,0,-1,1245,575,0,0
28,449,0,0,0,0,0,0,0,0,0,-1,1252,575,0,0
35,449,0,0,0,0,0,0,0,0,0,-1,1259,575,0,0
42,449,0,0,0,0,0,0,0,0,0,-1,1266,575,0,0
49,449,0,0,0,0,0,0,0,0,0,-1,1273,575,0,0
56,449,0,0,0,0,0,0,0,0,0,-1,1280,575,0,0
63,449,0,0,0,0,0,0,0,0,0,-1,1287,575,0,0
70,449,0,0,0,0,0,0,0,0,0,-1,1294,575,0,0
77,449,0,0,0,0,0,0,0,0,0,-1,1301,575,0,0
84,449,0,0,0,0,0,0,0,0,0,-1,1308,575,0,0
91,449,0,0,0,0,0,0,0,0,0,-1,1315,575,0,0
98,449,0,0,0,0,0,0,0,0,0,-1,1322,575,0,0
105,449,0,0,0,0,0,0,0,0,0,-1,1329,575,0,0
112,449,0,0,0,0,0,0,0,0,0,-1,1336,575,0,0
119,449,0,0,0,0,0,0,0,0,0,-1,1343,575,0,0
126,449,0,0,0,0,0,0,0,0,0,-1,1350,575,0,0
133,449,0,0,0,0,0,0,0,0,0,-1,1357,575,0,0
140,449,0,0,0,0,0,0,0,0,0,-1,1364,575,0,0
147,449,0,0,0,0,0,0,0,0,0,-1,1371,575,0,0
154,449,0,0,0,0,0,0,0,0,0,-1,1378,575,0,0
161,449,0,0,0,0,0,0,0,0,0,-1,1385,575,0,0
168,449,0,0,0,0,0,0,0,0,0,-1,1392,575,0,0
175,449,0,0,0,0,0,0,0,0,0,-1,1399,575,0,0
182,449,0,0,0,0,0,0,0,0,0,-1,1406,575,0,0
189,449,0,0,0,0,0,0,0,0,0,-1,1413,575,0,0
196,449,0,0,0,0,0,0,0,0,0,-1,1420,575,0,0
203,449,0,0,0,0,0,0,0,0,0,-1,1427,575,0,0
210,449,0,0,0,0,0,0,0,0,0,-1,1434,575,0,0
217,449,0,0,0,0,0,0,0,0,0,-1,1441,575,0,0
224,449,0,0,0,0,0,0,0,0,0,-1,1448,575,0,0
231,449,0,0,0,0,0,0,0,0,0,-1,1455,575,0,0
238,449,0,0,0,0,0,0,0,0,0,-1,1462,575,0,0
245,449,0,0,0,0,0,0,0,0,0,-1,1469,575,0,0
252,449,0,0,0,0,0,0,0,0,0,-1,1476,575,0,0
259,449,0,0,0,0,0,0,0,0,0,-1,1483,575,0,0
266,449,0,0,0,0,0,0,0,0,0,-1,1490,575,0,0
273,449,0,0,0,0,0,0,0,0,0,-1,1497,575,0,0
280,449,0,0,0,0,0,0,0,0,0,-1,1504,575,0,0
287,449,0,0,0,0,0,0,0,0,0,-1,1511,575,0,0
294,449,0,0,0,0,0,0,0,0,0,-1,1518,575,0,0
301,449,0,0,0,0,0,0,0,0,0,-1,1525,575,0,0
308,449,0,0,0,0,0,0,0,0,0,-1,1532,575,0,0
315,449,0,0,0,0,0,0,0,0,0,-1,1539,575,0,0
322,449,0,0,0,0,0,0,0,0,0,-1,1546,575,0,0
329,449,0,0,0,0,0,0,0,0,0,-1,1553,575,0,0
336,449,0,0,0,0,0,0,0,0,0,-1,1560,575,0,0
343,449,0,0,0,0,0,0,0,0,0,-1,1567,575,0,0
350,449,0,0,0,0,0,0,0,0,0,-1,1574,575,0,0
357,449,0,0,0,0,0,0,0,0,0,-1,1581,575,0,0
364,449,0,0,0,0,0,0,0,0,0,-1,1588,575,0,0
371,449,0,0,0,0,0,0,0,0,0,-1,1595,575,0,0
378,449,0,0,0,0,0,0,0,0,0,-1,1602,575,0,0
385,449,0,0,0,0,0,0,0,0,0,-1,1609,575,0,0
392,449,7.95471,3.66217,0,0,0,0,0,0,0,-1,1616,575,7.95471,-3.66218
399,449,19.4955,6.18658,0,0,0,0,0,0,0,-1,1623,575,19.4955,-6.18657
406,449,18.3907,3.98096,0,0,0,0,0,0,0,-1,1630,575,18.3908,-3.98097
413,449,18.2196,1.71606,0,0,0,0,0,0,0,-1,1637,575,18.2196,-1.71609
420,449,4.70264,2.21893,0,0,0,0,0,0,0,-1,1644,575,4.70263,-2.21894
427,449,8.96924,-4.53351,0,0,0,0,0,0,0,-1,1651,575,8.96925,4.53353
434,449,4.12927,-7.06952,0,0,0,0,0,0,0,-1,1658,575,4.12932,7.06952
441,449,3.89856,-6.06458,0,0,0,0,0,0,0,-1,1665,575,3.89855,6.06459
448,449,4.03198,-5.18207,0,0,0,0,0,0,0,-1,1672,575,4.03197,5.18207
455,449,4.21948,-4.09467,0,0,0,0,0,0,0,-1,1679,575,4.21952,4.09465
462,449,4.23181,-2.96924,0,0,0,0,0,0,0,-1,1686,575,4.23185,2.96926
469,449,4.51672,-2.95135,0,0,0,0,0,0,0,-1,1693,575,4.51672,2.95135
476,449,4.71838,-1.86688,0,0,0,0,0,0,0,-1,1700,575,4.71842,1.86689
483,449,4.87878,-1.73126,0,0,0,0,0,0,0,-1,1707,575,4.87875,1.73128
490,449,5.73279,-2.74573,0,0,0,0,0,0,0,-1,1714,575,5.73282,2.74575
497,449,8.55322,-6.05853,0,0,0,0,0,0,0,-1,1721,575,8.55321,6.05856
504,449,8.51575,-5.50879,0.00594559,0.00344506,0.003935,0.00882417,0.000566483,0.631577,0.00570334,0.0423892,1728,575,8.51573,5.50876
511,449,8.6001,-5.19788,0.00473463,0.00259252,0.00311953,0.00696186,0.000365299,0.620034,0.00452439,0.0111619,1735,575,8.60013,5.19788
518,449,8.61499,-4.90814,0.0036087,0.00197807,0.00243205,0.00535847,0.00022831,0.623667,0.00349869,0.0128505,1742,575,8.61502,4.90815
525,449,8.59595,-4.62799,0.00253708,0.00163803,0.00184036,0.00398202,0.000193087,0.665614,0.00259271,0.0126046,1749,575,8.59592,4.62797
532,449,8.57275,-4.34979,0.00153425,0.00139542,0.00130116,0.00276784,0.000161822,0.75875,0.00179372,0.0102725,1756,575,8.57275,4.34977
539,449,8.55518,-4.04401,0.000677414,0.00110513,0.000803964,0.0017232,5.93509e-05,0.915391,0.00112953,0.0122094,1763,575,8.55519,4.04402
546,449,8.58276,-3.75043,0.000147748,0.00114853,0.000612731,0.00143923,-0.000142956,1.1278,0.00101051,0.0209493,1770,575,8.58271,3.75043
553,449,8.56616,-3.45685,-0.000217432,0.00118379,0.000520109,0.00135574,-0.000389386,1.2515,0.00105779,0.0160897,1777,575,8.56622,3.45686
560,449,8.59436,-3.14502,-0.000428403,0.00128369,0.000570174,0.0014562,-0.000600906,1.27701,0.00122141,0.0138276,1784,575,8.59434,3.14503
567,449,8.58618,-2.86261,-0.000319854,0.00146652,0.000860015,0.00181325,-0.000666591,1.18756,0.00148188,0.0102036,1791,575,8.5862,2.86261
574,449,8.59143,-2.53815,0.000115864,0.00173057,0.00140811,0.00254636,-0.000699926,1.0457,0.00197272,0.0202393,1798,575,8.59143,2.53816
581,449,8.65942,-2.13403,0,0,0,0,0,0,0,-1,1805,575,8.65948,2.13406
588,449,8.56177,-1.69421,0,0,0,0,0,0,0,-1,1812,575,8.56182,1.69419
595,449,9.052,-1.10809,0,0,0,0,0,0,0,-1,1819,575,9.05204,1.10808
602,449,9.46167,4.17444,0,0,0,0,0,0,0,-1,1826,575,9.46164,-4.17442
609,449,12.2028,3.18652,0,0,0,0,0,0,0,-1,1833,575,12.2027,-3.18655
616,449,14.9438,2.19867,0,0,0,0,0,0,0,-1,1840,575,14.9438,-2.19867
623,449,9.83789,-0.0820313,0,0,0,0,0,0,0,-1,1847,575,9.83794,0.0820443
630,449,8.90686,4.99329,0,0,0,0,0,0,0,-1,1854,575,8.90685,-4.99327
637,449,0,0,0,0,0,0,0,0,0,-1,1861,575,0,0
644,449,0,0,0,0,0,0,0,0,0,-1,1868,575,0,0
651,449,0,0,0,0,0,0,0,0,0,-1,1875,575,0,0
658,449,0,0,0,0,0,0,0,0,0,-1,1882,575,0,0
665,449,0,0,0,0,0,0,0,0,0,-1,1889,575,0,0
672,449,0,0,0,0,0,0,0,0,0,-1,1896,575,0,0
679,449,0,0,0,0,0,0,0,0,0,-1,1903,575,0,0
686,449,0,0,0,0,0,0,0,0,0,-1,1910,575,0,0
693,449,0,0,0,0,0,0,0,0,0,-1,1917,575,0,0
700,449,0,0,0,0,0,0,0,0,0,-1,1924,575,0,0
707,449,0,0,0,0,0,0,0,0,0,-1,1931,575,0,0
714,449,0,0,0,0,0,0,0,0,0,-1,1938,575,0,0
721,449,0,0,0,0,0,0,0,0,0,-1,1945,575,0,0
728,449,0,0,0,0,0,0,0,0,0,-1,1952,575,0,0
735,449,0,0,0,0,0,0,0,0,0,-1,1959,575,0,0
742,449,0,0,0,0,0,0,0,0,0,-1,1966,575,0,0
749,449,0,0,0,0,0,0,0,0,0,-1,1973,575,0,0
756,449,0,0,0,0,0,0,0,0,0,-1,1980,575,0,0
763,449,0,0,0,0,0,0,0,0,0,-1,1987,575,0,0
770,449,0,0,0,0,0,0,0,0,0,-1,1994,575,0,0
777,449,0,0,0,0,0,0,0,0,0,-1,2001,575,0,0
784,449,0,0,0,0,0,0,0,0,0,-1,2008,575,0,0
791,449,0,0,0,0,0,0,0,0,0,-1,2015,575,0,0
798,449,0,0,0,0,0,0,0,0,0,-1,2022,575,0,0
805,449,0,0,0,0,0,0,0,0,0,-1,2029,575,0,0
812,449,0,0,0,0,0,0,0,0,0,-1,2036,575,0,0
-700,442,0,0,0,0,0,0,0,0,0,-1,524,582,0,0
-693,442,0,0,0,0,0,0,0,0,0,-1,531,582,0,0
-686,442,0,0,0,0,0,0,0,0,0,-1,538,582,0,0
-679,442,0,0,0,0,0,0,0,0,0,-1,545,582,0,0
-672,442,0,0,0,0,0,0,0,0,0,-1,552,582,0,0
-665,442,0,0,0,0,0,0,0,0,0,-1,559,582,0,0
-658,442,0,0,0,0,0,0,0,0,0,-1,566,582,0,0
-651,442,0,0,0,0,0,0,0,0,0,-1,573,582,0,0
-644,442,0,0,0,0,0,0,0,0,0,-1,580,582,0,0
-637,442,0,0,0,0,0,0,0,0,0,-1,587,582,0,0
-630,442,0,0,0,0,0,0,0,0,0,-1,594,582,0,0
-623,442,0,0,0,0,0,0,0,0,0,-1,601,582,0,0
-616,442,0,0,0,0,0,0,0,0,0,-1,608,582,0,0
-609,442,0,0,0,0,0,0,0,0,0,-1,615,582,0,0
-602,442,0,0,0,0,0,0,0,0,0,-1,622,582,0,0
-595,442,0,0,0,0,0,0,0,0,0,-1,629,582,0,0
-588,442,0,0,0,0,0,0,0,0,0,-1,636,582,0,0
-581,442,0,0,0,0,0,0,0,0,0,-1,643,582,0,0
-574,442,0,0,0,0,0,0,0,0,0,-1,650,582,0,0
-567,442,0,0,0,0,0,0,0,0,0,-1,657,582,0,0
-560,442,0,0,0,0,0,0,0,0,0,-1,664,582,0,0
-553,442,0,0,0,0,0,0,0,0,0,-1,671,582,0,0
-546,442,0,0,0,0,0,0,0,0,0,-1,678,582,0,0
-539,442,0,0,0,0,0,0,0,0,0,-1,685,582,0,0
-532,442,0,0,0,0,0,0,0,0,0,-1,692,582,0,0
-525,442,0,0,0,0,0,0,0,0,0,-1,699,582,0,0
-518,442,-0.493774,-5.72943,0,0,0,0,0,0,0,-1,706,582,-0.493791,5.72946
-511,442,-1.68738,-5.91357,0,0,0,0,0,0,0,-1,713,582,-1.68736,5.91359
-504,442,-3.20807,-6.34082,0,0,0,0,0,0,0,-1,720,582,-3.2081,6.34083
-497,442,-13.6886,-0.250122,0,0,0,0,0,0,0,-1,727,582,-13.6886,0.250143
-490,442,-7.30066,-3.28326,0,0,0,0,0,0,0,-1,734,582,-7.30064,3.28329
-483,442,-4.65228,-1.36835,0,0,0,0,0,0,0,-1,741,582,-4.6523,1.36837
-476,442,-2.94043,-2.28052,0,0,0,0,0,0,0,-1,748,582,-2.94043,2.28052
-469,442,-3.0462,-3.22772,0,0,0,0,0,0,0,-1,755,582,-3.04622,3.22772
-462,442,-2.78448,-3.70007,0.00575675,0.00847212,-0.00831425,0.0155388,-0.00130994,-0.866332,0.0108223,0.036232,762,582,-2.78449,3.70005
-455,442,-2.98315,-3.98444,0.00431756,0.00614811,-0.0062417,0.0115413,-0.00107561,-0.858199,0.00807664,0.0263687,769,582,-2.98315,3.98441
-448,442,-2.93433,-4.26196,0.00307005,0.00453292,-0.00453326,0.00839338,-0.000790401,-0.865383,0.00587679,0.013702,776,582,-2.93431,4.26193
-441,442,-2.94659,-4.53876,0.00217664,0.00334044,-0.00330142,0.00611085,-0.000593767,-0.872631,0.00428556,0.0135866,783,582,-2.94658,4.53877
-434,442,-2.95343,-4.80994,0.00145927,0.00184338,-0.00205519,0.00371547,-0.000412823,-0.831987,0.00262543,0.0119568,790,582,-2.95344,4.80995
-427,442,-2.9873,-5.08551,0.000694358,0.00093143,-0.0010225,0.00184224,-0.000216449,-0.843105,0.0013063,0.012573,797,582,-2.98732,5.08551
-420,442,-2.9693,-5.36975,-0.000305633,2.94553e-05,-3.54869e-05,3.31723e-05,-0.00030935,-1.46644,0.000218133,0.0133479,804,582,-2.96928,5.36974
-413,442,-2.94849,-5.64429,-0.00122144,-0.000651362,0.000817172,-7.09432e-05,-0.00180186,0.953206,0.0011783,0.0107206,811,582,-2.94849,5.64431
-406,442,-2.94928,-5.91272,-0.00184028,-0.00138306,0.00158199,-1.32421e-05,-0.00321009,0.857155,0.00213566,0.00837905,818,582,-2.94928,5.91272
-399,442,-2.95349,-6.19183,-0.00260092,-0.0021993,0.00240957,1.78141e-05,-0.00481803,0.826971,0.00321797,0.00758691,825,582,-2.95352,6.19184
-392,442,-2.94666,-6.46454,-0.00324397,-0.00330872,0.00333104,5.48514e-05,-0.00660754,0.780539,0.00442342,0.00998507,832,582,-2.94666,6.46451
-385,442,-2.93756,-6.71375,-0.00399456,-0.00426034,0.00426595,0.000140573,-0.00839547,0.769828,0.00564442,0.0120579,839,582,-2.93757,6.71372
-378,442,-2.94598,-6.99213,-0.00468451,-0.0053371,0.00523752,0.000236875,-0.0102585,0.754288,0.0069193,0.0118925,846,582,-2.94598,6.99213
-371,442,-2.95636,-7.27783,-0.00514943,-0.00654355,0.00624152,0.000433835,-0.0121268,0.729788,0.00823297,0.021698,853,582,-2.95639,7.27781
-364,442,-3.11853,-7.56042,-0.00529324,-0.00806964,0.00728657,0.000736187,-0.0140991,0.691268,0.00965413,0.0355737,860,582,-3.11851,7.56042
-357,442,-2.89453,-7.76758,0,0,0,0,0,0,0,-1,867,582,-2.89454,7.76757
-350,442,-1.75372,-6.27618,0,0,0,0,0,0,0,-1,874,582,-1.75371,6.27618
-343,442,-1.4599,-4.63605,0,0,0,0,0,0,0,-1,881,582,-1.4599,4.63607
-336,442,-1.4054,-2.64313,0,0,0,0,0,0,0,-1,888,582,-1.40539,2.64315
-329,442,-0.952576,-2.76923,0,0,0,0,0,0,0,-1,895,582,-0.952571,2.7692
-322,442,-0.972534,-2.63208,0,0,0,0,0,0,0,-1,902,582,-0.972512,2.6321
-315,442,-0.445557,-2.89764,0,0,0,0,0,0,0,-1,909,582,-0.445582,2.89765
-308,442,-0.654175,-3.07831,0,0,0,0,0,0,0,-1,916,582,-0.654145,3.07832
-301,442,-1.37427,-2.41455,0,0,0,0,0,0,0,-1,923,582,-1.37425,2.41453
-294,442,-2.99963,-2.07855,0,0,0,0,0,0,0,-1,930,582,-2.99964,2.07857
-287,442,-5.62799,-2.76422,0,0,0,0,0,0,0,-1,937,582,-5.628,2.76424
-280,442,0,0,0,0,0,0,0,0,0,-1,944,582,0,0
-273,442,0,0,0,0,0,0,0,0,0,-1,951,582,0,0
-266,442,0,0,0,0,0,0,0,0,0,-1,958,582,0,0
-259,442,0,0,0,0,0,0,0,0,0,-1,965,582,0,0
-252,442,0,0,0,0,0,0,0,0,0,-1,972,582,0,0
-245,442,0,0,0,0,0,0,0,0,0,-1,979,582,0,0
-238,442,0,0,0,0,0,0,0,0,0,-1,986,582,0,0
-231,442,0,0,0,0,0,0,0,0,0,-1,993,582,0,0
-224,442,0,0,0,0,0,0,0,0,0,-1,1000,582,0,0
-217,442,0,0,0,0,0,0,0,0,0,-1,1007,582,0,0
-210,442,0,0,0,0,0,0,0,0,0,-1,1014,582,0,0
-203,442,0,0,0,0,0,0,0,0,0,-1,1021,582,0,0
-196,442,0,0,0,0,0,0,0,0,0,-1,1028,582,0,0
-189,442,0,0,0,0,0,0,0,0,0,-1,1035,582,0,0
-182,442,0,0,0,0,0,0,0,0,0,-1,1042,582,0,0
-175,442,0,0,0,0,0,0,0,0,0,-1,1049,582,0,0
-168,442,0,0,0,0,0,0,0,0,0,-1,1056,582,0,0
-161,442,0,0,0,0,0,0,0,0,0,-1,1063,582,0,0
-154,442,0,0,0,0,0,0,0,0,0,-1,1070,582,0,0
-147,442,0,0,0,0,0,0,0,0,0,-1,1077,582,0,0
-140,442,0,0,0,0,0,0,0,0,0,-1,1084,582,0,0
-133,442,0,0,0,0,0,0,0,0,0,-1,1091,582,0,0
-126,442,0,0,0,0,0,0,0,0,0,-1,1098,582,0,0
-119,442,0,0,0,0,0,0,0,0,0,-1,1105,582,0,0
-112,442,0,0,0,0,0,0,0,0,0,-1,1112,582,0,0
-105,442,0,0,0,0,0,0,0,0,0,-1,1119,582,0,0
-98,442,0,0,0,0,0,0,0,0,0,-1,1126,582,0,0
-91,442,0,0,0,0,0,0,0,0,0,-1,1133,582,0,0
-84,442,0,0,0,0,0,0,0,0,0,-1,1140,582,0,0
-77,442,0,0,0,0,0,0,0,0,0,-1,1147,582,0,0
-70,442,0,0,0,0,0,0,0,0,0,-1,1154,582,0,0
-63,442,0,0,0,0,0,0,0,0,0,-1,1161,582,0,0
-56,442,0,0,0,0,0,0,0,0,0,-1,1168,582,0,0
-49,442,0,0,0,0,0,0,0,0,0,-1,1175,582,0,0
-42,442,0,0,0,0,0,0,0,0,0,-1,1182,582,0,0
-35,442,0,0,0,0,0,0,0,0,0,-1,1189,582,0,0
-28,442,0,0,0,0,0,0,0,0,0,-1,1196,582,0,0
-21,442,0,0,0,0,0,0,0,0,0,-1,1203,582,0,0
-14,442,0,0,0,0,0,0,0,0,0,-1,1210,582,0,0
-7,442,0,0,0,0,0,0,0,0,0,-1,1217,582,0,0
0,442,0,0,0,0,0,0,0,0,0,-1,1224,582,0,0
7,442,0,0,0,0,0,0,0,0,0,-1,1231,582,0,0
14,442,0,0,0,0,0,0,0,0,0,-1,1238,582,0,0
21,442,0,0,0,0,0,0,0,0,0,-1,1245,582,0,0
28,442,0,0,0,0,0,0,0,0,0,-1,1252,582,0,0
35,442,0,0,0,0,0,0,0,0,0,-1,1259,582,0,0
42,442,0,0,0,0,0,0,0,0,0,-1,1266,582,0,0
49,442,0,0,0,0,0,0,0,0,0,-1,1273,582,0,0
56,442,0,0,0,0,0,0,0,0,0,-1,1280,582,0,0
63,442,0,0,0,0,0,0,0,0,0,-1,1287,582,0,0
70,442,0,0,0,0,0,0,0,0,0,-1,1294,582,0,0
77,442,0,0,0,0,0,0,0,0,0,-1,1301,582,0,0
84,442,0,0,0,0,0,0,0,0,0,-1,1308,582,0,0
91,442,0,0,0,0,0,0,0,0,0,-1,1315,582,0,0
98,442,0,0,0,0,0,0,0,0,0,-1,1322,582,0,0
105,442,0,0,0,0,0,0,0,0,0,-1,1329,582,0,0
112,442,0,0,0,0,0,0,0,0,0,-1,1336,582,0,0
119,442,0,0,0,0,0,0,0,0,0,-1,1343,582,0,0
126,442,0,0,0,0,0,0,0,0,0,-1,1350,582,0,0
133,442,0,0,0,0,0,0,0,0,0,-1,1357,582,0,0
140,442,0,0,0,0,0,0,0,0,0,-1,1364,582,0,0
147,442,0,0,0,0,0,0,0,0,0,-1,1371,582,0,0
154,442,0,0,0,0,0,0,0,0,0,-1,1378,582,0,0
161,442,0,0,0,0,0,0,0,0,0,-1,1385,582,0,0
168,442,0,0,0,0,0,0,0,0,0,-1,1392,582,0,0
175,442,0,0,0,0,0,0,0,0,0,-1,1399,582,0,0
182,442,0,0,0,0,0,0,0,0,0,-1,1406,582,0,0
189,442,0,0,0,0,0,0,0,0,0,-1,1413,582,0,0
196,442,0,0,0,0,0,0,0,0,0,-1,1420,582,0,0
203,442,0,0,0,0,0,0,0,0,0,-1,1427,582,0,0
210,442,0,0,0,0,0,0,0,0,0,-1,1434,582,0,0
217,442,0,0,0,0,0,0,0,0,0,-1,1441,582,0,0
224,442,0,0,0,0,0,0,0,0,0,-1,1448,582,0,0
231,442,0,0,0,0,0,0,0,0,0,-1,1455,582,0,0
238,442,0,0,0,0,0,0,0,0,0,-1,1462,582,0,0
245,442,0,0,0,0,0,0,0,0,0,-1,1469,582,0,0
252,442,0,0,0,0,0,0,0,0,0,-1,1476,582,0,0
259,442,0,0,0,0,0,0,0,0,0,-1,1483,582,0,0
266,442,0,0,0,0,0,0,0,0,0,-1,1490,582,0,0
273,442,0,0,0,0,0,0,0,0,0,-1,1497,582,0,0
280,442,0,0,0,0,0,0,0,0,0,-1,1504,582,0,0
287,442,0,0,0,0,0,0,0,0,0,-1,1511,582,0,0
294,442,0,0,0,0,0,0,0,0,0,-1,1518,582,0,0
301,442,0,0,0,0,0,0,0,0,0,-1,1525,582,0,0
308,442,0,0,0,0,0,0,0,0,0,-1,1532,582,0,0
315,442,0,0,0,0,0,0,0,0,0,-1,1539,582,0,0
322,442,0,0,0,0,0,0,0,0,0,-1,1546,582,0,0
329,442,0,0,0,0,0,0,0,0,0,-1,1553,582,0,0
336,442,0,0,0,0,0,0,0,0,0,-1,1560,582,0,0
343,442,0,0,0,0,0,0,0,0,0,-1,1567,582,0,0
350,442,0,0,0,0,0,0,0,0,0,-1,1574,582,0,0
357,442,0,0,0,0,0,0,0,0,0,-1,1581,582,0,0
364,442,0,0,0,0,0,0,0,0,0,-1,1588,582,0,0
371,442,0,0,0,0,0,0,0,0,0,-1,1595,582,0,0
378,442,0,0,0,0,0,0,0,0,0,-1,1602,582,0,0
385,442,0,0,0,0,0,0,0,0,0,-1,1609,582,0,0
392,442,0,0,0,0,0,0,0,0,0,-1,1616,582,0,0
399,442,0,0,0,0,0,0,0,0,0,-1,1623,582,0,0
406,442,16.3365,4.22577,0,0,0,0,0,0,0,-1,1630,582,16.3365,-4.22575
413,442,3.66699,2.87408,0,0,0,0,0,0,0,-1,1637,582,3.66703,-2.87408
420,442,4.69055,3.09448,0,0,0,0,0,0,0,-1,1644,582,4.69054,-3.0945
427,442,2.44519,-1.35358,0,0,0,0,0,0,0,-1,1651,582,2.44514,1.35361
434,442,8.45898,-3.86719,0,0,0,0,0,0,0,-1,1658,582,8.45904,3.86719
441,442,4.89368,-7.42456,0,0,0,0,0,0,0,-1,1665,582,4.89365,7.42457
448,442,4.7749,-5.88562,0,0,0,0,0,0,0,-1,1672,582,4.7749,5.8856
455,442,4.87024,-4.60687,0,0,0,0,0,0,0,-1,1679,582,4.87019,4.60686
462,442,5.02307,-3.72821,0,0,0,0,0,0,0,-1,1686,582,5.02311,3.7282
469,442,5.12976,-2.98834,0,0,0,0,0,0,0,-1,1693,582,5.12971,2.98834
476,442,5.4624,1.76947,0,0,0,0,0,0,0,-1,1700,582,5.46234,-1.76944
483,442,5.98486,1.87042,0,0,0,0,0,0,0,-1,1707,582,5.98492,-1.87045
490,442,5.04407,-2.35834,0,0,0,0,0,0,0,-1,1714,582,5.04411,2.35837
497,442,6.20984,-3.07831,0,0,0,0,0,0,0,-1,1721,582,6.2098,3.07833
504,442,8.63708,-5.50781,0,0,0,0,0,0,0,-1,1728,582,8.63704,5.50781
511,442,8.81238,-5.23444,0.00558645,0.00321046,0.00362094,0.00820929,0.00058761,0.626886,0.00528789,0.0257475,1735,582,8.81233,5.23446
518,442,8.90259,-4.91223,0.00440397,0.00240188,0.00287866,0.00645068,0.000355174,0.618065,0.00418708,0.0117587,1742,582,8.90261,4.91221
525,442,8.88232,-4.63239,0.00331573,0.00194977,0.00227672,0.00500971,0.000255796,0.639678,0.00325789,0.0109607,1749,582,8.88235,4.63241
532,442,8.87561,-4.3335,0.00232845,0.00155955,0.00171894,0.00370541,0.000182588,0.675381,0.00241171,0.0103191,1756,582,8.87561,4.33352
539,442,8.86963,-4.02448,0.00147202,0.00113835,0.00119237,0.00250917,0.000101196,0.71589,0.00164009,0.0107526,1763,582,8.8696,4.02449
546,442,8.87903,-3.75018,0.00091598,0.00102846,0.000939755,0.00191366,3.07848e-05,0.815286,0.00126563,0.0143883,1770,582,8.87904,3.75018
553,442,8.85242,-3.46637,0.000530998,0.000945867,0.000805482,0.0015702,-9.33305e-05,0.911424,0.00107925,0.016062,1777,582,8.85237,3.46635
560,442,8.87061,-3.1568,0.000266507,0.000952844,0.000795333,0.00147589,-0.000256534,0.989071,0.00107964,0.0141246,1784,582,8.87063,3.1568
567,442,8.87378,-2.8476,0.000291515,0.0010587,0.00100662,0.00175234,-0.000402122,0.96744,0.0013228,0.0103943,1791,582,8.87376,2.84757
574,442,8.87354,-2.55377,0.00067403,0.0012916,0.00149147,0.00250591,-0.000540286,0.887472,0.00187681,0.0128518,1798,582,8.87349,2.55378
581,442,8.90833,-2.21497,0.00134174,0.00174188,0.00226254,0.00381318,-0.000729556,0.829498,0.00281697,0.019855,1805,582,8.90827,2.21498
588,442,8.83765,-2.02869,0.00245361,0.00239833,0.00342584,0.00585192,-0.000999982,0.781364,0.00427378,0.030748,1812,582,8.8377,2.02871
595,442,8.9834,-1.49628,0.00406546,0.00351225,0.00503449,0.00883094,-0.00125323,0.757955,0.00634642,0.0448015,1819,582,8.98339,1.49625
602,442,8.89563,-1.1936,0,0,0,0,0,0,0,-1,1826,582,8.89558,1.19359
609,442,9.38428,2.86908,0,0,0,0,0,0,0,-1,1833,582,9.38429,-2.86906
616,442,9.78345,-0.103394,0,0,0,0,0,0,0,-1,1840,582,9.78341,0.103424
623,442,9.23828,0.326721,0,0,0,0,0,0,0,-1,1847,582,9.23829,-0.326727
630,442,7.74304,2.3924,0,0,0,0,0,0,0,-1,1854,582,7.7431,-2.39238
637,442,5.87805,1.84027,0,0,0,0,0,0,0,-1,1861,582,5.87807,-1.84025
644,442,0,0,0,0,0,0,0,0,0,-1,1868,582,0,0
651,442,0,0,0,0,0,0,0,0,0,-1,1875,582,0,0
658,442,0,0,0,0,0,0,0,0,0,-1,1882,582,0,0
665,442,0,0,0,0,0,0,0,0,0,-1,1889,582,0,0
672,442,0,0,0,0,0,0,0,0,0,-1,1896,582,0,0
679,442,0,0,0,0,0,0,0,0,0,-1,1903,582,0,0
686,442,0,0,0,0,0,0,0,0,0,-1,1910,582,0,0
693,442,0,0,0,0,0,0,0,0,0,-1,1917,582,0,0
700,442,0,0,0,0,0,0,0,0,0,-1,1924,582,0,0
707,442,0,0,0,0,0,0,0,0,0,-1,1931,582,0,0
714,442,0,0,0,0,0,0,0,0,0,-1,1938,582,0,0
721,442,0,0,0,0,0,0,0,0,0,-1,1945,582,0,0
728,442,0,0,0,0,0,0,0,0,0,-1,1952,582,0,0
735,442,0,0,0,0,0,0,0,0,0,-1,1959,582,0,0
742,442,0,0,0,0,0,0,0,0,0,-1,1966,582,0,0
749,442,0,0,0,0,0,0,0,0,0,-1,1973,582,0,0
756,442,0,0,0,0,0,0,0,0,0,-1,1980,582,0,0
763,442,0,0,0,0,0,0,0,0,0,-1,1987,582,0,0
770,442,0,0,0,0,0,0,0,0,0,-1,1994,582,0,0
777,442,0,0,0,0,0,0,0,0,0,-1,2001,582,0,0
784,442,0,0,0,0,0,0,0,0,0,-1,2008,582,0,0
791,442,0,0,0,0,0,0,0,0,0,-1,2015,582,0,0
798,442,0,0,0,0,0,0,0,0,0,-1,2022,582,0,0
805,442,0,0,0,0,0,0,0,0,0,-1,2029,582,0,0
812,442,0,0,0,0,0,0,0,0,0,-1,2036,582,0,0
-700,435,0,0,0,0,0,0,0,0,0,-1,524,589,0,0
-693,435,0,0,0,0,0,0,0,0,0,-1,531,589,0,0
-686,435,0,0,0,0,0,0,0,0,0,-1,538,589,0,0
-679,435,0,0,0,0,0,0,0,0,0,-1,545,589,0,0
-672,435,0,0,0,0,0,0,0,0,0,-1,552,589,0,0
-665,435,0,0,0,0,0,0,0,0,0,-1,559,589,0,0
-658,435,0,0,0,0,0,0,0,0,0,-1,566,589,0,0
-651,435,0,0,0,0,0,0,0,0,0,-1,573,589,0,0
-644,435,0,0,0,0,0,0,0,0,0,-1,580,589,0,0
-637,435,0,0,0,0,0,0,0,0,0,-1,587,589,0,0
-630,435,0,0,0,0,0,0,0,0,0,-1,594,589,0,0
-623,435,0,0,0,0,0,0,0,0,0,-1,601,589,0,0
-616,435,0,0,0,0,0,0,0,0,0,-1,608,589,0,0
-609,435,0,0,0,0,0,0,0,0,0,-1,615,589,0,0
-602,435,0,0,0,0,0,0,0,0,0,-1,622,589,0,0
-595,435,0,0,0,0,0,0,0,0,0,-1,629,589,0,0
-588,435,0,0,0,0,0,0,0,0,0,-1,636,589,0,0
-581,435,0,0,0,0,0,0,0,0,0,-1,643,589,0,0
-574,435,0,0,0,0,0,0,0,0,0,-1,650,589,0,0
-567,435,0,0,0,0,0,0,0,0,0,-1,657,589,0,0
-560,435,0,0,0,0,0,0,0,0,0,-1,664,589,0,0
-553,435,0,0,0,0,0,0,0,0,0,-1,671,589,0,0
-546,435,0,0,0,0,0,0,0,0,0,-1,678,589,0,0
-539,435,0,0,0,0,0,0,0,0,0,-1,685,589,0,0
-532,435,0,0,0,0,0,0,0,0,0,-1,692,589,0,0
-525,435,-10.0776,10.0547,0,0,0,0,0,0,0,-1,699,589,-10.0776,-10.0547
-518,435,-0.928711,-4.91492,0,0,0,0,0,0,0,-1,706,589,-0.928723,4.91489
-511,435,-2.43555,-5.38599,0,0,0,0,0,0,0,-1,713,589,-2.43553,5.38597
-504,435,-3.89355,-5.72308,0,0,0,0,0,0,0,-1,720,589,-3.89353,5.72309
-497,435,-6.31012,-5.84698,0,0,0,0,0,0,0,-1,727,589,-6.31012,5.84697
-490,435,-5.46594,-1.20123,0,0,0,0,0,0,0,-1,734,589,-5.46594,1.20122
-483,435,-4.67786,-1.65143,0,0,0,0,0,0,0,-1,741,589,-4.67784,1.65144
-476,435,-3.40021,-3.02209,0,0,0,0,0,0,0,-1,748,589,-3.40019,3.0221
-469,435,-3.25153,-3.31696,0.00591757,0.00984497,-0.00915954,0.0172489,-0.0014864,-0.890994,0.0120254,0.0318197,755,589,-3.2515,3.31697
-462,435,-3.15643,-3.70288,0.00480012,0.00717528,-0.00692338,0.0130122,-0.0010368,-0.870337,0.00904024,0.0156344,762,589,-3.15644,3.70288
-455,435,-3.22052,-3.95862,0.00368424,0.00509381,-0.00513389,0.00957106,-0.000793014,-0.853612,0.0066608,0.0138268,769,589,-3.22055,3.9586
-448,435,-3.21454,-4.26337,0.00264408,0.00359161,-0.00362659,0.00677526,-0.000539561,-0.850349,0.00470701,0.0122661,776,589,-3.21452,4.26334
-441,435,-3.21222,-4.52948,0.00181305,0.00248362,-0.00251109,0.0046817,-0.000385038,-0.851767,0.00325708,0.0105268,783,589,-3.21219,4.52948
-434,435,-3.21771,-4.79773,0.0010606,0.000955187,-0.00129238,0.00230135,-0.000285558,-0.765018,0.00163774,0.011443,790,589,-3.21774,4.79774
-427,435,-3.2373,-5.08673,0.000229239,4.62646e-06,-0.000240609,0.000382461,-0.000148596,-0.567047,0.000316361,0.0100589,797,589,-3.2373,5.08676
-420,435,-3.23718,-5.35681,-0.000872023,-0.00094543,0.000777998,-0.000129863,-0.00168759,0.761827,0.00108437,0.0107949,804,589,-3.23718,5.35684
-413,435,-3.22162,-5.62256,-0.00196044,-0.00169562,0.00172354,-9.94059e-05,-0.00355665,0.823734,0.00233867,0.0110473,811,589,-3.22162,5.62256
-406,435,-3.20673,-5.89355,-0.00279557,-0.00254892,0.0026085,-6.08254e-05,-0.00528366,0.809019,0.00350234,0.0103622,818,589,-3.20676,5.89357
-399,435,-3.21594,-6.17212,-0.00381388,-0.00351856,0.00357955,-8.36235e-05,-0.00724882,0.806012,0.00480491,0.00853392,825,589,-3.21597,6.17209
-392,435,-3.22095,-6.4469,-0.00479667,-0.00477641,0.0046777,-0.000108827,-0.00946425,0.786481,0.00627354,0.0100637,832,589,-3.22095,6.44689
-385,435,-3.20642,-6.70868,-0.00599774,-0.00593034,0.00585093,-0.000113013,-0.0118151,0.788278,0.00783931,0.0125835,839,589,-3.20643,6.70868
-378,435,-3.18488,-6.97736,-0.0072401,-0.00725027,0.00712866,-0.000116531,-0.0143738,0.785042,0.00954396,0.0204966,846,589,-3.18486,6.97734
-371,435,-3.39606,-7.24719,-0.00828418,-0.00875128,0.00853201,1.74735e-05,-0.0170529,0.771715,0.0113745,0.039752,853,589,-3.39606,7.24722
-364,435,-3.8111,-7.56024,-0.00900554,-0.0106461,0.0100388,0.000246407,-0.019898,0.744634,0.0133482,0.0458347,860,589,-3.8111,7.56025
-357,435,-4.03394,-7.96027,0,0,0,0,0,0,0,-1,867,589,-4.03391,7.96028
-350,435,-0.86676,-3.69836,0,0,0,0,0,0,0,-1,874,589,-0.866784,3.69834
-343,435,-1.60706,-2.36835,0,0,0,0,0,0,0,-1,881,589,-1.60706,2.36838
-336,435,-2.07263,-1.94012,0,0,0,0,0,0,0,-1,888,589,-2.07265,1.94014
-329,435,-2.55963,-1.5517,0,0,0,0,0,0,0,-1,895,589,-2.5596,1.55168
-322,435,-3.08545,-1.55255,0,0,0,0,0,0,0,-1,902,589,-3.08544,1.55254
-315,435,-0.404297,-2.63763,0,0,0,0,0,0,0,-1,909,589,-0.404276,2.63761
-308,435,-1.70056,-1.90369,0,0,0,0,0,0,0,-1,916,589,-1.70056,1.90367
-301,435,-1.25232,-2.05511,0,0,0,0,0,0,0,-1,923,589,-1.25234,2.05514
-294,435,-1.79974,-1.97321,0,0,0,0,0,0,0,-1,930,589,-1.79973,1.97322
-287,435,0,0,0,0,0,0,0,0,0,-1,937,589,0,0
-280,435,0,0,0,0,0,0,0,0,0,-1,944,589,0,0
-273,435,0,0,0,0,0,0,0,0,0,-1,951,589,0,0
-266,435,0,0,0,0,0,0,0,0,0,-1,958,589,0,0
-259,435,0,0,0,0,0,0,0,0,0,-1,965,589,0,0
-252,435,0,0,0,0,0,0,0,0,0,-1,972,589,0,0
-245,435,0,0,0,0,0,0,0,0,0,-1,979,589,0,0
-238,435,0,0,0,0,0,0,0,0,0,-1,986,589,0,0
-231,435,0,0,0,0,0,0,0,0,0,-1,993,589,0,0
-224,435,0,0,0,0,0,0,0,0,0,-1,1000,589,0,0
-217,435,0,0,0,0,0,0,0,0,0,-1,1007,589,0,0
-210,435,0,0,0,0,0,0,0,0,0,-1,1014,589,0,0
-203,435,0,0,0,0,0,0,0,0,0,-1,1021,589,0,0
-196,435,0,0,0,0,0,0,0,0,0,-1,1028,589,0,0
-189,435,0,0,0,0,0,0,0,0,0,-1,1035,589,0,0
-182,435,0,0,0,0,0,0,0,0,0,-1,1042,589,0,0
-175,435,0,0,0,0,0,0,0,0,0,-1,1049,589,0,0
-168,435,0,0,0,0,0,0,0,0,0,-1,1056,589,0,0
-161,435,0,0,0,0,0,0,0,0,0,-1,1063,589,0,0
-154,435,0,0,0,0,0,0,0,0,0,-1,1070,589,0,0
-147,435,0,0,0,0,0,0,0,0,0,-1,1077,589,0,0
-140,435,0,0,0,0,0,0,0,0,0,-1,1084,589,0,0
-133,435,0,0,0,0,0,0,0,0,0,-1,1091,589,0,0
-126,435,0,0,0,0,0,0,0,0,0,-1,1098,589,0,0
-119,435,0,0,0,0,0,0,0,0,0,-1,1105,589,0,0
-112,435,0,0,0,0,0,0,0,0,0,-1,1112,589,0,0
-105,435,0,0,0,0,0,0,0,0,0,-1,1119,589,0,0
-98,435,0,0,0,0,0,0,0,0,0,-1,1126,589,0,0
-91,435,0,0,0,0,0,0,0,0,0,-1,1133,589,0,0
-84,435,0,0,0,0,0,0,0,0,0,-1,1140,589,0,0
-77,435,0,0,0,0,0,0,0,0,0,-1,1147,589,0,0
-70,435,0,0,0,0,0,0,0,0,0,-1,1154,589,0,0
-63,435,0,0,0,0,0,0,0,0,0,-1,1161,589,0,0
-56,435,0,0,0,0,0,0,0,0,0,-1,1168,589,0,0
-49,435,0,0,0,0,0,0,0,0,0,-1,1175,589,0,0
-42,435,0,0,0,0,0,0,0,0,0,-1,1182,589,0,0
-35,435,0,0,0,0,0,0,0,0,0,-1,1189,589,0,0
-28,435,0,0,0,0,0,0,0,0,0,-1,1196,589,0,0
-21,435,0,0,0,0,0,0,0,0,0,-1,1203,589,0,0
-14,435,0,0,0,0,0,0,0,0,0,-1,1210,589,0,0
-7,435,0,0,0,0,0,0,0,0,0,-1,1217,589,0,0
0,435,0,0,0,0,0,0,0,0,0,-1,1224,589,0,0
7,435,0,0,0,0,0,0,0,0,0,-1,1231,589,0,0
14,435,0,0,0,0,0,0,0,0,0,-1,1238,589,0,0
21,435,0,0,0,0,0,0,0,0,0,-1,1245,589,0,0
28,435,0,0,0,0,0,0,0,0,0,-1,1252,589,0,0
35,435,0,0,0,0,0,0,0,0,0,-1,1259,589,0,0
42,435,0,0,0,0,0,0,0,0,0,-1,1266,589,0,0
49,435,0,0,0,0,0,0,0,0,0,-1,1273,589,0,0
56,435,0,0,0,0,0,0,0,0,0,-1,1280,589,0,0
63,435,0,0,0,0,0,0,0,0,0,-1,1287,589,0,0
70,435,0,0,0,0,0,0,0,0,0,-1,1294,589,0,0
77,435,0,0,0,0,0,0,0,0,0,-1,1301,589,0,0
84,435,0,0,0,0,0,0,0,0,0,-1,1308,589,0,0
91,435,0,0,0,0,0,0,0,0,0,-1,1315,589,0,0
98,435,0,0,0,0,0,0,0,0,0,-1,1322,589,0,0
105,435,0,0,0,0,0,0,0,0,0,-1,1329,589,0,0
112,435,0,0,0,0,0,0,0,0,0,-1,1336,589,0,0
119,435,0,0,0,0,0,0,0,0,0,-1,1343,589,0,0
126,435,0,0,0,0,0,0,0,0,0,-1,1350,589,0,0
133,435,0,0,0,0,0,0,0,0,0,-1,1357,589,0,0
140,435,0,0,0,0,0,0,0,0,0,-1,1364,589,0,0
147,435,0,0,0,0,0,0,0,0,0,-1,1371,589,0,0
154,435,0,0,0,0,0,0,0,0,0,-1,1378,589,0,0
161,435,0,0,0,0,0,0,0,0,0,-1,1385,589,0,0
168,435,0,0,0,0,0,0,0,0,0,-1,1392,589,0,0
175,435,0,0,0,0,0,0,0,0,0,-1,1399,589,0,0
182,435,0,0,0,0,0,0,0,0,0,-1,1406,589,0,0
189,435,0,0,0,0,0,0,0,0,0,-1,1413,589,0,0
196,435,0,0,0,0,0,0,0,0,0,-1,1420,589,0,0
203,435,0,0,0,0,0,0,0,0,0,-1,1427,589,0,0
210,435,0,0,0,0,0,0,0,0,0,-1,1434,589,0,0
217,435,0,0,0,0,0,0,0,0,0,-1,1441,589,0,0
224,435,0,0,0,0,0,0,0,0,0,-1,1448,589,0,0
231,435,0,0,0,0,0,0,0,0,0,-1,1455,589,0,0
238,435,0,0,0,0,0,0,0,0,0,-1,1462,589,0,0
245,435,0,0,0,0,0,0,0,0,0,-1,1469,589,0,0
252,435,0,0,0,0,0,0,0,0,0,-1,1476,589,0,0
259,435,0,0,0,0,0,0,0,0,0,-1,1483,589,0,0
266,435,0,0,0,0,0,0,0,0,0,-1,1490,589,0,0
273,435,0,0,0,0,0,0,0,0,0,-1,1497,589,0,0
280,435,0,0,0,0,0,0,0,0,0,-1,1504,589,0,0
287,435,0,0,0,0,0,0,0,0,0,-1,1511,589,0,0
294,435,0,0,0,0,0,0,0,0,0,-1,1518,589,0,0
301,435,0,0,0,0,0,0,0,0,0,-1,1525,589,0,0
308,435,0,0,0,0,0,0,0,0,0,-1,1532,589,0,0
315,435,0,0,0,0,0,0,0,0,0,-1,1539,589,0,0
322,435,0,0,0,0,0,0,0,0,0,-1,1546,589,0,0
329,435,0,0,0,0,0,0,0,0,0,-1,1553,589,0,0
336,435,0,0,0,0,0,0,0,0,0,-1,1560,589,0,0
343,435,0,0,0,0,0,0,0,0,0,-1,1567,589,0,0
350,435,0,0,0,0,0,0,0,0,0,-1,1574,589,0,0
357,435,0,0,0,0,0,0,0,0,0,-1,1581,589,0,0
364,435,0,0,0,0,0,0,0,0,0,-1,1588,589,0,0
371,435,0,0,0,0,0,0,0,0,0,-1,1595,589,0,0
378,435,0,0,0,0,0,0,0,0,0,-1,1602,589,0,0
385,435,0,0,0,0,0,0,0,0,0,-1,1609,589,0,0
392,435,0,0,0,0,0,0,0,0,0,-1,1616,589,0,0
399,435,0,0,0,0,0,0,0,0,0,-1,1623,589,0,0
406,435,0,0,0,0,0,0,0,0,0,-1,1630,589,0,0
413,435,3.62073,3.42682,0,0,0,0,0,0,0,-1,1637,589,3.62069,-3.4268
420,435,3.6062,3.71564,0,0,0,0,0,0,0,-1,1644,589,3.60616,-3.71562
427,435,3.11963,0.640198,0,0,0,0,0,0,0,-1,1651,589,3.11967,-0.640192
434,435,2.72107,-1.34802,0,0,0,0,0,0,0,-1,1658,589,2.7211,1.34803
441,435,7.33191,-1.57452,0,0,0,0,0,0,0,-1,1665,589,7.33193,1.57452
448,435,7.4585,-0.00292969,0,0,0,0,0,0,0,-1,1672,589,7.45848,0.00294131
455,435,5.49915,-5.047,0,0,0,0,0,0,0,-1,1679,589,5.49914,5.04703
462,435,5.60669,-4.71466,0,0,0,0,0,0,0,-1,1686,589,5.60675,4.71469
469,435,5.87708,1.22351,0,0,0,0,0,0,0,-1,1693,589,5.87703,-1.22351
476,435,6.14136,1.37714,0,0,0,0,0,0,0,-1,1700,589,6.14138,-1.37712
483,435,6.49243,1.36169,0,0,0,0,0,0,0,-1,1707,589,6.49242,-1.36171
490,435,4.38391,-1.36218,0,0,0,0,0,0,0,-1,1714,589,4.38389,1.3622
497,435,7.23499,-3.64551,0,0,0,0,0,0,0,-1,1721,589,7.23495,3.64551
504,435,7.31189,-3.75909,0,0,0,0,0,0,0,-1,1728,589,7.31184,3.75911
511,435,9.07056,-5.26367,0,0,0,0,0,0,0,-1,1735,589,9.07058,5.26368
518,435,9.18835,-4.91724,0.00481695,0.00305949,0.00340976,0.00745938,0.000417055,0.659287,0.0048399,0.0199446,1742,589,9.18841,4.91721
525,435,9.1759,-4.62573,0.00371612,0.00244923,0.00270576,0.00586159,0.000303753,0.670415,0.00381052,0.0127612,1749,589,9.17591,4.62575
532,435,9.19092,-4.31885,0.00276793,0.00187052,0.00205217,0.00441988,0.000218577,0.677768,0.0028765,0.0138684,1756,589,9.19089,4.31882
539,435,9.19922,-3.99652,0.00194015,0.00130824,0.0014388,0.00309728,0.000151108,0.677316,0.00201637,0.0145866,1763,589,9.19917,3.99653
546,435,9.17615,-3.70715,0.00138075,0.00101999,0.00107153,0.00228697,0.000113765,0.702012,0.00148818,0.0143975,1770,589,9.17614,3.70713
553,435,9.16138,-3.45117,0.00101283,0.000816896,0.000869899,0.00179026,3.94671e-05,0.729324,0.00118057,0.0108403,1777,589,9.16138,3.45115
560,435,9.16602,-3.15399,0.000748374,0.000735188,0.000796894,0.0015387,-5.51405e-05,0.781262,0.00104467,0.00902578,1784,589,9.16608,3.15397
567,435,9.17664,-2.8349,0.000742689,0.000778943,0.000940915,0.00170191,-0.000180274,0.79503,0.00119922,0.00866801,1791,589,9.17666,2.83487
574,435,9.16577,-2.54315,0.00110644,0.000991507,0.0013675,0.00241768,-0.000319727,0.764398,0.00172825,0.0101382,1798,589,9.16579,2.54314
581,435,9.13708,-2.25934,0.00171404,0.00143586,0.00204138,0.00362107,-0.000471166,0.751382,0.00258545,0.0164696,1805,589,9.13707,2.25934
588,435,9.11902,-1.97815,0.00262747,0.00210482,0.00303274,0.00541013,-0.000677832,0.74242,0.00385263,0.0228759,1812,589,9.11902,1.97818
595,435,9.08447,-1.68036,0.00394412,0.00318061,0.00442754,0.00800633,-0.000881603,0.742393,0.00565438,0.0256624,1819,589,9.08451,1.68036
602,435,9.16248,-1.3172,0.00560265,0.00462531,0.00621952,0.0113527,-0.00112471,0.746194,0.00796984,0.0440623,1826,589,9.16246,1.31717
609,435,9.27539,-1.02686,0,0,0,0,0,0,0,-1,1833,589,9.27533,1.02684
616,435,5.05151,-2.75269,0,0,0,0,0,0,0,-1,1840,589,5.05157,2.7527
623,435,11.7588,3.9704,0,0,0,0,0,0,0,-1,1847,589,11.7587,-3.97043
630,435,4.72742,-0.87561,0,0,0,0,0,0,0,-1,1854,589,4.7274,0.875636
637,435,5.05286,1.48792,0,0,0,0,0,0,0,-1,1861,589,5.05291,-1.48792
644,435,0,0,0,0,0,0,0,0,0,-1,1868,589,0,0
651,435,0,0,0,0,0,0,0,0,0,-1,1875,589,0,0
658,435,0,0,0,0,0,0,0,0,0,-1,1882,589,0,0
665,435,0,0,0,0,0,0,0,0,0,-1,1889,589,0,0
672,435,0,0,0,0,0,0,0,0,0,-1,1896,589,0,0
679,435,0,0,0,0,0,0,0,0,0,-1,1903,589,0,0
686,435,0,0,0,0,0,0,0,0,0,-1,1910,589,0,0
693,435,0,0,0,0,0,0,0,0,0,-1,1917,589,0,0
700,435,0,0,0,0,0,0,0,0,0,-1,1924,589,0,0
707,435,0,0,0,0,0,0,0,0,0,-1,1931,589,0,0
714,435,0,0,0,0,0,0,0,0,0,-1,1938,589,0,0
721,435,0,0,0,0,0,0,0,0,0,-1,1945,589,0,0
728,435,0,0,0,0,0,0,0,0,0,-1,1952,589,0,0
735,435,0,0,0,0,0,0,0,0,0,-1,1959,589,0,0
742,435,0,0,0,0,0,0,0,0,0,-1,1966,589,0,0
749,435,0,0,0,0,0,0,0,0,0,-1,1973,589,0,0
756,435,0,0,0,0,0,0,0,0,0,-1,1980,589,0,0
763,435,0,0,0,0,0,0,0,0,0,-1,1987,589,0,0
770,435,0,0,0,0,0,0,0,0,0,-1,1994,589,0,0
777,435,0,0,0,0,0,0,0,0,0,-1,2001,589,0,0
784,435,0,0,0,0,0,0,0,0,0,-1,2008,589,0,0
791,435,0,0,0,0,0,0,0,0,0,-1,2015,589,0,0
798,435,0,0,0,0,0,0,0,0,0,-1,2022,589,0,0
805,435,0,0,0,0,0,0,0,0,0,-1,2029,589,0,0
812,435,0,0,0,0,0,0,0,0,0,-1,2036,589,0,0
-700,428,0,0,0,0,0,0,0,0,0,-1,524,596,0,0
-693,428,0,0,0,0,0,0,0,0,0,-1,531,596,0,0
-686,428,0,0,0,0,0,0,0,0,0,-1,538,596,0,0
-679,428,0,0,0,0,0,0,0,0,0,-1,545,596,0,0
-672,428,0,0,0,0,0,0,0,0,0,-1,552,596,0,0
-665,428,0,0,0,0,0,0,0,0,0,-1,559,596,0,0
-658,428,0,0,0,0,0,0,0,0,0,-1,566,596,0,0
-651,428,0,0,0,0,0,0,0,0,0,-1,573,596,0,0
-644,428,0,0,0,0,0,0,0,0,0,-1,580,596,0,0
-637,428,0,0,0,0,0,0,0,0,0,-1,587,596,0,0
-630,428,0,0,0,0,0,0,0,0,0,-1,594,596,0,0
-623,428,0,0,0,0,0,0,0,0,0,-1,601,596,0,0
-616,428,0,0,0,0,0,0,0,0,0,-1,608,596,0,0
-609,428,0,0,0,0,0,0,0,0,0,-1,615,596,0,0
-602,428,0,0,0,0,0,0,0,0,0,-1,622,596,0,0
-595,428,0,0,0,0,0,0,0,0,0,-1,629,596,0,0
-588,428,0,0,0,0,0,0,0,0,0,-1,636,596,0,0
-581,428,0,0,0,0,0,0,0,0,0,-1,643,596,0,0
-574,428,0,0,0,0,0,0,0,0,0,-1,650,596,0,0
-567,428,0,0,0,0,0,0,0,0,0,-1,657,596,0,0
-560,428,0,0,0,0,0,0,0,0,0,-1,664,596,0,0
-553,428,0,0,0,0,0,0,0,0,0,-1,671,596,0,0
-546,428,0,0,0,0,0,0,0,0,0,-1,678,596,0,0
-539,428,0,0,0,0,0,0,0,0,0,-1,685,596,0,0
-532,428,0,0,0,0,0,0,0,0,0,-1,692,596,0,0
-525,428,-9.59918,7.58618,0,0,0,0,0,0,0,-1,699,596,-9.59918,-7.5862
-518,428,-1.78259,-8.1123,0,0,0,0,0,0,0,-1,706,596,-1.78261,8.11233
-511,428,-3.32758,-4.85852,0,0,0,0,0,0,0,-1,713,596,-3.32759,4.85853
-504,428,-4.19916,-4.97797,0,0,0,0,0,0,0,-1,720,596,-4.19918,4.97795
-497,428,-2.85516,-3.52179,0,0,0,0,0,0,0,-1,727,596,-2.85517,3.52181
-490,428,-3.69806,-1.36438,0,0,0,0,0,0,0,-1,734,596,-3.69805,1.3644
-483,428,-4.68933,-2.40796,0,0,0,0,0,0,0,-1,741,596,-4.68931,2.40798
-476,428,-4.07043,-2.86469,0.00553378,0.0112498,-0.00963184,0.0184387,-0.00165513,-0.929623,0.0128797,0.0422206,748,596,-4.07046,2.86468
-469,428,-3.44391,-3.36609,0.0046645,0.0081989,-0.00738185,0.0140221,-0.00115874,-0.902886,0.0097573,0.0199409,755,596,-3.44392,3.36609
-462,428,-3.44348,-3.63306,0.00387625,0.00592614,-0.00561539,0.0106094,-0.000806968,-0.875666,0.00735666,0.0167552,762,596,-3.44348,3.63307
-455,428,-3.47784,-3.93964,0.00303224,0.00410526,-0.00412127,0.00772479,-0.000587291,-0.850125,0.00535637,0.0120136,769,596,-3.47784,3.93962
-448,428,-3.48523,-4.224,0.00217365,0.00272318,-0.00281041,0.00527223,-0.000375394,-0.834126,0.0036464,0.0110069,776,596,-3.48525,4.22401
-441,428,-3.47382,-4.52136,0.00138518,0.00169439,-0.0017947,0.00334113,-0.000261556,-0.828365,0.00231953,0.0128738,783,596,-3.47383,4.52136
-434,428,-3.4801,-4.81976,0.000575232,0.000148567,-0.000595044,0.000994029,-0.00027023,-0.613278,0.000768761,0.00981297,790,596,-3.48009,4.81979
-427,428,-3.47083,-5.0838,-0.000339499,-0.000863917,0.000492661,-4.36145e-05,-0.0011598,0.540849,0.000759081,0.0107183,797,596,-3.4708,5.08382
-420,428,-3.47559,-5.32971,-0.00154072,-0.00190154,0.00156495,-0.000145822,-0.00329644,0.728012,0.00215067,0.0117989,804,596,-3.47557,5.32974
-413,428,-3.48224,-5.59381,-0.00281855,-0.00279433,0.00264705,-0.000159356,-0.00545352,0.787685,0.00358374,0.0143101,811,596,-3.48221,5.5938
-406,428,-3.48236,-5.86926,-0.00393852,-0.00385952,0.00372362,-0.000175192,-0.00762285,0.790703,0.00502452,0.0157933,818,596,-3.48236,5.86929
-399,428,-3.48022,-6.14227,-0.00529685,-0.00509144,0.00492046,-0.000272614,-0.0101157,0.795833,0.00665477,0.0133643,825,596,-3.48023,6.14229
-392,428,-3.47095,-6.43622,-0.00673796,-0.00661524,0.00629885,-0.000377444,-0.0129758,0.790269,0.00852747,0.0142555,832,596,-3.47097,6.43622
-385,428,-3.48041,-6.70459,-0.00855417,-0.00814257,0.00784282,-0.000502843,-0.0161939,0.798515,0.0106323,0.0231288,839,596,-3.48039,6.7046
-378,428,-3.66211,-6.85931,-0.0105704,-0.00986288,0.0095768,-0.000633294,-0.0198,0.803859,0.012994,0.0418328,846,596,-3.66212,6.85928
-371,428,-3.70062,-6.93225,0,0,0,0,0,0,0,-1,853,596,-3.7006,6.93226
-364,428,-4.47321,-7.57813,0,0,0,0,0,0,0,-1,860,596,-4.47322,7.57814
-357,428,-3.20996,-4.70966,0,0,0,0,0,0,0,-1,867,596,-3.20997,4.70965
-350,428,-1.62793,-3.94055,0,0,0,0,0,0,0,-1,874,596,-1.62794,3.94055
-343,428,-0.0567017,-4.80994,0,0,0,0,0,0,0,-1,881,596,-0.0567096,4.80996
-336,428,-3.29175,-1.39569,0,0,0,0,0,0,0,-1,888,596,-3.29172,1.39568
-329,428,-3.71564,-0.791321,0,0,0,0,0,0,0,-1,895,596,-3.71564,0.791299
-322,428,-5.52863,-3.59827,0,0,0,0,0,0,0,-1,902,596,-5.52865,3.59829
-315,428,-4.57172,-1.22052,0,0,0,0,0,0,0,-1,909,596,-4.57171,1.22052
-308,428,-5.26538,-1.1521,0,0,0,0,0,0,0,-1,916,596,-5.26539,1.15209
-301,428,0,0,0,0,0,0,0,0,0,-1,923,596,0,0
-294,428,0,0,0,0,0,0,0,0,0,-1,930,596,0,0
-287,428,0,0,0,0,0,0,0,0,0,-1,937,596,0,0
-280,428,0,0,0,0,0,0,0,0,0,-1,944,596,0,0
-273,428,0,0,0,0,0,0,0,0,0,-1,951,596,0,0
-266,428,0,0,0,0,0,0,0,0,0,-1,958,596,0,0
-259,428,0,0,0,0,0,0,0,0,0,-1,965,596,0,0
-252,428,0,0,0,0,0,0,0,0,0,-1,972,596,0,0
-245,428,0,0,0,0,0,0,0,0,0,-1,979,596,0,0
-238,428,0,0,0,0,0,0,0,0,0,-1,986,596,0,0
-231,428,0,0,0,0,0,0,0,0,0,-1,993,596,0,0
-224,428,0,0,0,0,0,0,0,0,0,-1,1000,596,0,0
-217,428,0,0,0,0,0,0,0,0,0,-1,1007,596,0,0
-210,428,0,0,0,0,0,0,0,0,0,-1,1014,596,0,0
-203,428,0,0,0,0,0,0,0,0,0,-1,1021,596,0,0
-196,428,0,0,0,0,0,0,0,0,0,-1,1028,596,0,0
-189,428,0,0,0,0,0,0,0,0,0,-1,1035,596,0,0
-182,428,0,0,0,0,0,0,0,0,0,-1,1042,596,0,0
-175,428,0,0,0,0,0,0,0,0,0,-1,1049,596,0,0
-168,428,0,0,0,0,0,0,0,0,0,-1,1056,596,0,0
-161,428,0,0,0,0,0,0,0,0,0,-1,1063,596,0,0
-154,428,0,0,0,0,0,0,0,0,0,-1,1070,596,0,0
-147,428,0,0,0,0,0,0,0,0,0,-1,1077,596,0,0
-140,428,0,0,0,0,0,0,0,0,0,-1,1084,596,0,0
-133,428,0,0,0,0,0,0,0,0,0,-1,1091,596,0,0
-126,428,0,0,0,0,0,0,0,0,0,-1,1098,596,0,0
-119,428,0,0,0,0,0,0,0,0,0,-1,1105,596,0,0
-112,428,0,0,0,0,0,0,0,0,0,-1,1112,596,0,0
-105,428,0,0,0,0,0,0,0,0,0,-1,1119,596,0,0
-98,428,0,0,0,0,0,0,0,0,0,-1,1126,596,0,0
-91,428,0,0,0,0,0,0,0,0,0,-1,1133,596,0,0
-84,428,0,0,0,0,0,0,0,0,0,-1,1140,596,0,0
-77,428,0,0,0,0,0,0,0,0,0,-1,1147,596,0,0
-70,428,0,0,0,0,0,0,0,0,0,-1,1154,596,0,0
-63,428,0,0,0,0,0,0,0,0,0,-1,1161,596,0,0
-56,428,0,0,0,0,0,0,0,0,0,-1,1168,596,0,0
-49,428,0,0,0,0,0,0,0,0,0,-1,1175,596,0,0
-42,428,0,0,0,0,0,0,0,0,0,-1,1182,596,0,0
-35,428,0,0,0,0,0,0,0,0,0,-1,1189,596,0,0
-28,428,0,0,0,0,0,0,0,0,0,-1,1196,596,0,0
-21,428,0,0,0,0,0,0,0,0,0,-1,1203,596,0,0
-14,428,0,0,0,0,0,0,0,0,0,-1,1210,596,0,0
-7,428,0,0,0,0,0,0,0,0,0,-1,1217,596,0,0
0,428,0,0,0,0,0,0,0,0,0,-1,1224,596,0,0
7,428,0,0,0,0,0,0,0,0,0,-1,1231,596,0,0
14,428,0,0,0,0,0,0,0,0,0,-1,1238,596,0,0
21,428,0,0,0,0,0,0,0,0,0,-1,1245,596,0,0
28,428,0,0,0,0,0,0,0,0,0,-1,1252,596,0,0
35,428,0,0,0,0,0,0,0,0,0,-1,1259,596,0,0
42,428,0,0,0,0,0,0,0,0,0,-1,1266,596,0,0
49,428,0,0,0,0,0,0,0,0,0,-1,1273,596,0,0
56,428,0,0,0,0,0,0,0,0,0,-1,1280,596,0,0
63,428,0,0,0,0,0,0,0,0,0,-1,1287,596,0,0
70,428,0,0,0,0,0,0,0,0,0,-1,1294,596,0,0
77,428,0,0,0,0,0,0,0,0,0,-1,1301,596,0,0
84,428,0,0,0,0,0,0,0,0,0,-1,1308,596,0,0
91,428,0,0,0,0,0,0,0,0,0,-1,1315,596,0,0
98,428,0,0,0,0,0,0,0,0,0,-1,1322,596,0,0
105,428,0,0,0,0,0,0,0,0,0,-1,1329,596,0,0
112,428,0,0,0,0,0,0,0,0,0,-1,1336,596,0,0
119,428,0,0,0,0,0,0,0,0,0,-1,1343,596,0,0
126,428,0,0,0,0,0,0,0,0,0,-1,1350,596,0,0
133,428,0,0,0,0,0,0,0,0,0,-1,1357,596,0,0
140,428,0,0,0,0,0,0,0,0,0,-1,1364,596,0,0
147,428,0,0,0,0,0,0,0,0,0,-1,1371,596,0,0
154,428,0,0,0,0,0,0,0,0,0,-1,1378,596,0,0
161,428,0,0,0,0,0,0,0,0,0,-1,1385,596,0,0
168,428,0,0,0,0,0,0,0,0,0,-1,1392,596,0,0
175,428,0,0,0,0,0,0,0,0,0,-1,1399,596,0,0
182,428,0,0,0,0,0,0,0,0,0,-1,1406,596,0,0
189,428,0,0,0,0,0,0,0,0,0,-1,1413,596,0,0
196,428,0,0,0,0,0,0,0,0,0,-1,1420,596,0,0
203,428,0,0,0,0,0,0,0,0,0,-1,1427,596,0,0
210,428,0,0,0,0,0,0,0,0,0,-1,1434,596,0,0
217,428,0,0,0,0,0,0,0,0,0,-1,1441,596,0,0
224,428,0,0,0,0,0,0,0,0,0,-1,1448,596,0,0
231,428,0,0,0,0,0,0,0,0,0,-1,1455,596,0,0
238,428,0,0,0,0,0,0,0,0,0,-1,1462,596,0,0
245,428,0,0,0,0,0,0,0,0,0,-1,1469,596,0,0
252,428,0,0,0,0,0,0,0,0,0,-1,1476,596,0,0
259,428,0,0,0,0,0,0,0,0,0,-1,1483,596,0,0
266,428,0,0,0,0,0,0,0,0,0,-1,1490,596,0,0
273,428,0,0,0,0,0,0,0,0,0,-1,1497,596,0,0
280,428,0,0,0,0,0,0,0,0,0,-1,1504,596,0,0
287,428,0,0,0,0,0,0,0,0,0,-1,1511,596,0,0
294,428,0,0,0,0,0,0,0,0,0,-1,1518,596,0,0
301,428,0,0,0,0,0,0,0,0,0,-1,1525,596,0,0
308,428,0,0,0,0,0,0,0,0,0,-1,1532,596,0,0
315,428,0,0,0,0,0,0,0,0,0,-1,1539,596,0,0
322,428,0,0,0,0,0,0,0,0,0,-1,1546,596,0,0
329,428,0,0,0,0,0,0,0,0,0,-1,1553,596,0,0
336,428,0,0,0,0,0,0,0,0,0,-1,1560,596,0,0
343,428,0,0,0,0,0,0,0,0,0,-1,1567,596,0,0
350,428,0,0,0,0,0,0,0,0,0,-1,1574,596,0,0
357,428,0,0,0,0,0,0,0,0,0,-1,1581,596,0,0
364,428,0,0,0,0,0,0,0,0,0,-1,1588,596,0,0
371,428,0,0,0,0,0,0,0,0,0,-1,1595,596,0,0
378,428,0,0,0,0,0,0,0,0,0,-1,1602,596,0,0
385,428,0,0,0,0,0,0,0,0,0,-1,1609,596,0,0
392,428,0,0,0,0,0,0,0,0,0,-1,1616,596,0,0
399,428,0,0,0,0,0,0,0,0,0,-1,1623,596,0,0
406,428,0,0,0,0,0,0,0,0,0,-1,1630,596,0,0
413,428,0,0,0,0,0,0,0,0,0,-1,1637,596,0,0
420,428,2.95886,0.551819,0,0,0,0,0,0,0,-1,1644,596,2.9589,-0.551797
427,428,3.19385,0.384705,0,0,0,0,0,0,0,-1,1651,596,3.19383,-0.384692
434,428,8.18152,1.80432,0,0,0,0,0,0,0,-1,1658,596,8.18148,-1.80434
441,428,8.17993,0.607483,0,0,0,0,0,0,0,-1,1665,596,8.17997,-0.607513
448,428,7.84338,-0.385986,0,0,0,0,0,0,0,-1,1672,596,7.84336,0.385978
455,428,6.64038,2.1123,0,0,0,0,0,0,0,-1,1679,596,6.64037,-2.11229
462,428,4.84106,4.12341,0,0,0,0,0,0,0,-1,1686,596,4.84107,-4.12339
469,428,7.83789,3.10083,0,0,0,0,0,0,0,-1,1693,596,7.83785,-3.10086
476,428,7.61255,1.73956,0,0,0,0,0,0,0,-1,1700,596,7.61252,-1.73958
483,428,7.22766,1.05121,0,0,0,0,0,0,0,-1,1707,596,7.2277,-1.05121
490,428,5.4071,-3.2793,0,0,0,0,0,0,0,-1,1714,596,5.40707,3.27929
497,428,7.84106,-3.65491,0,0,0,0,0,0,0,-1,1721,596,7.84107,3.65491
504,428,6.92139,-2.83356,0,0,0,0,0,0,0,-1,1728,596,6.92137,2.83353
511,428,7.88501,-3.78723,0,0,0,0,0,0,0,-1,1735,596,7.88502,3.78722
518,428,9.43494,-4.94183,0,0,0,0,0,0,0,-1,1742,596,9.43488,4.94183
525,428,9.38538,-4.70612,0.00391016,0.00340356,0.00326093,0.00692762,0.000386109,0.746638,0.00449524,0.0385642,1749,596,9.38541,4.70614
532,428,9.46045,-4.31757,0.00289484,0.00258002,0.00243663,0.00517914,0.00029572,0.753143,0.00335853,0.0188791,1756,596,9.4604,4.31758
539,428,9.50879,-3.98822,0.00199776,0.00183639,0.00168235,0.00360135,0.000232793,0.761436,0.00232719,0.0201509,1763,596,9.50878,3.9882
546,428,9.48071,-3.69836,0.00136144,0.00130799,0.00115175,0.00248677,0.000182658,0.773798,0.00160044,0.015903,1770,596,9.48071,3.69834
553,428,9.45715,-3.43127,0.000982456,0.000938316,0.000854821,0.00181549,0.00010528,0.772492,0.00117681,0.0110125,1777,596,9.4571,3.43125
560,428,9.48413,-3.14001,0.000727771,0.000720513,0.000707237,0.00143139,1.68958e-05,0.782833,0.000948677,0.0115776,1784,596,9.48414,3.14004
567,428,9.4873,-2.85046,0.000728624,0.000650951,0.000779646,0.0014704,-9.08254e-05,0.760512,0.0010119,0.0109604,1791,596,9.48736,2.85049
574,428,9.48035,-2.55676,0.00111523,0.000781599,0.00114451,0.00210502,-0.00020819,0.713032,0.00147764,0.0134647,1798,596,9.48039,2.55675
581,428,9.43677,-2.24219,0.00172459,0.00114469,0.00173105,0.00318981,-0.000320527,0.702418,0.00224104,0.0114787,1805,596,9.43675,2.24217
588,428,9.40381,-1.93658,0.00256276,0.00174677,0.00259165,0.00477834,-0.000468807,0.707325,0.00335277,0.0139844,1812,596,9.4038,1.93661
595,428,9.41064,-1.62415,0.00374458,0.00270429,0.00379401,0.00705393,-0.000605061,0.717275,0.00491673,0.00995156,1819,596,9.41065,1.62413
602,428,9.40881,-1.32318,0.00523036,0.00404634,0.00533619,0.0100073,-0.000730581,0.730153,0.0069279,0.0189341,1826,596,9.40885,1.32316
609,428,9.40784,-0.965149,0,0,0,0,0,0,0,-1,1833,596,9.40781,0.965161
616,428,5.88977,-0.239319,0,0,0,0,0,0,0,-1,1840,596,5.88983,0.239293
623,428,8.51599,1.32434,0,0,0,0,0,0,0,-1,1847,596,8.516,-1.32434
630,428,4.94434,0.773193,0,0,0,0,0,0,0,-1,1854,596,4.9443,-0.773171
637,428,3.95435,1.90857,0,0,0,0,0,0,0,-1,1861,596,3.95439,-1.90858
644,428,5.75476,0.888977,0,0,0,0,0,0,0,-1,1868,596,5.75472,-0.888955
651,428,0,0,0,0,0,0,0,0,0,-1,1875,596,0,0
658,428,0,0,0,0,0,0,0,0,0,-1,1882,596,0,0
665,428,0,0,0,0,0,0,0,0,0,-1,1889,596,0,0
672,428,0,0,0,0,0,0,0,0,0,-1,1896,596,0,0
679,428,0,0,0,0,0,0,0,0,0,-1,1903,596,0,0
686,428,0,0,0,0,0,0,0,0,0,-1,1910,596,0,0
693,428,0,0,0,0,0,0,0,0,0,-1,1917,596,0,0
700,428,0,0,0,0,0,0,0,0,0,-1,1924,596,0,0
707,428,0,0,0,0,0,0,0,0,0,-1,1931,596,0,0
714,428,0,0,0,0,0,0,0,0,0,-1,1938,596,0,0
721,428,0,0,0,0,0,0,0,0,0,-1,1945,596,0,0
728,428,0,0,0,0,0,0,0,0,0,-1,1952,596,0,0
735,428,0,0,0,0,0,0,0,0,0,-1,1959,596,0,0
742,428,0,0,0,0,0,0,0,0,0,-1,1966,596,0,0
749,428,0,0,0,0,0,0,0,0,0,-1,1973,596,0,0
756,428,0,0,0,0,0,0,0,0,0,-1,1980,596,0,0
763,428,0,0,0,0,0,0,0,0,0,-1,1987,596,0,0
770,428,0,0,0,0,0,0,0,0,0,-1,1994,596,0,0
777,428,0,0,0,0,0,0,0,0,0,-1,2001,596,0,0
784,428,0,0,0,0,0,0,0,0,0,-1,2008,596,0,0
791,428,0,0,0,0,0,0,0,0,0,-1,2015,596,0,0
798,428,0,0,0,0,0,0,0,0,0,-1,2022,596,0,0
805,428,0,0,0,0,0,0,0,0,0,-1,2029,596,0,0
812,428,0,0,0,0,0,0,0,0,0,-1,2036,596,0,0
-700,421,0,0,0,0,0,0,0,0,0,-1,524,603,0,0
-693,421,0,0,0,0,0,0,0,0,0,-1,531,603,0,0
-686,421,0,0,0,0,0,0,0,0,0,-1,538,603,0,0
-679,421,0,0,0,0,0,0,0,0,0,-1,545,603,0,0
-672,421,0,0,0,0,0,0,0,0,0,-1,552,603,0,0
-665,421,0,0,0,0,0,0,0,0,0,-1,559,603,0,0
-658,421,0,0,0,0,0,0,0,0,0,-1,566,603,0,0
-651,421,0,0,0,0,0,0,0,0,0,-1,573,603,0,0
-644,421,0,0,0,0,0,0,0,0,0,-1,580,603,0,0
-637,421,0,0,0,0,0,0,0,0,0,-1,587,603,0,0
-630,421,0,0,0,0,0,0,0,0,0,-1,594,603,0,0
-623,421,0,0,0,0,0,0,0,0,0,-1,601,603,0,0
-616,421,0,0,0,0,0,0,0,0,0,-1,608,603,0,0
-609,421,0,0,0,0,0,0,0,0,0,-1,615,603,0,0
-602,421,0,0,0,0,0,0,0,0,0,-1,622,603,0,0
-595,421,0,0,0,0,0,0,0,0,0,-1,629,603,0,0
-588,421,0,0,0,0,0,0,0,0,0,-1,636,603,0,0
-581,421,0,0,0,0,0,0,0,0,0,-1,643,603,0,0
-574,421,0,0,0,0,0,0,0,0,0,-1,650,603,0,0
-567,421,0,0,0,0,0,0,0,0,0,-1,657,603,0,0
-560,421,0,0,0,0,0,0,0,0,0,-1,664,603,0,0
-553,421,0,0,0,0,0,0,0,0,0,-1,671,603,0,0
-546,421,0,0,0,0,0,0,0,0,0,-1,678,603,0,0
-539,421,0,0,0,0,0,0,0,0,0,-1,685,603,0,0
-532,421,-8.97382,6.95636,0,0,0,0,0,0,0,-1,692,603,-8.97384,-6.95634
-525,421,-2.11481,-8.04272,0,0,0,0,0,0,0,-1,699,603,-2.11483,8.0427
-518,421,-3.05908,-5.07233,0,0,0,0,0,0,0,-1,706,603,-3.0591,5.07235
-511,421,-1.7608,-6.12946,0,0,0,0,0,0,0,-1,713,603,-1.76081,6.12944
-504,421,-4.97272,-4.38385,0,0,0,0,0,0,0,-1,720,603,-4.9727,4.38383
-497,421,-3.49756,-1.18414,0,0,0,0,0,0,0,-1,727,603,-3.49756,1.18417
-490,421,-3.70581,-1.75214,0.00444983,0.0156191,-0.0112241,0.0225711,-0.00250221,-1.01624,0.015947,0.0487272,734,603,-3.70579,1.75213
-483,421,-3.86511,-2.67847,0.0042898,0.0118883,-0.00914663,0.0179933,-0.00181525,-0.982242,0.0126442,0.0423922,741,603,-3.8651,2.67845
-476,421,-3.75183,-3.12848,0.00388002,0.00891584,-0.00730535,0.014125,-0.00132916,-0.951356,0.00988956,0.0233527,748,603,-3.75181,3.12849
-469,421,-3.75562,-3.3606,0.00344031,0.00651799,-0.00570051,0.0108837,-0.000925415,-0.91723,0.00758312,0.0184267,755,603,-3.75562,3.36058
-462,421,-3.7525,-3.66809,0.00293093,0.00466178,-0.00436074,0.00824215,-0.000649433,-0.883354,0.00572354,0.0183721,762,603,-3.75252,3.6681
-455,421,-3.76563,-3.948,0.00232141,0.00313134,-0.00315745,0.00590969,-0.000456939,-0.849178,0.0041006,0.0193642,769,603,-3.76559,3.94802
-448,421,-3.77209,-4.21875,0.00164419,0.00188831,-0.00205011,0.00381999,-0.000287488,-0.815133,0.0026477,0.0187312,776,603,-3.77207,4.21877
-441,421,-3.76605,-4.52191,0.000913087,0.000945233,-0.00113557,0.00206484,-0.00020652,-0.792475,0.00145031,0.0138994,783,603,-3.76602,4.5219
-434,421,-3.776,-4.81628,6.00353e-05,-0.000581437,3.17547e-05,6.16034e-05,-0.000583006,0.049342,0.000410748,0.0101585,790,603,-3.77597,4.8163
-427,421,-3.75854,-5.08301,-0.000924661,-0.00165907,0.00115208,-8.26807e-05,-0.00250105,0.631123,0.0016405,0.00968686,797,603,-3.75853,5.08302
-420,421,-3.74713,-5.33759,-0.00220211,-0.00280507,0.00228693,-0.000196877,-0.0048103,0.719862,0.0031433,0.0118567,804,603,-3.74712,5.33758
-413,421,-3.75922,-5.60382,-0.00367227,-0.00390182,0.00354585,-0.000239332,-0.00733475,0.76922,0.00481204,0.014586,811,603,-3.7592,5.60381
-406,421,-3.78461,-5.8996,-0.00514321,-0.00526888,0.00489167,-0.000313967,-0.0100981,0.778976,0.0066299,0.0185908,818,603,-3.78458,5.89962
-399,421,-3.74402,-6.20197,-0.00693832,-0.00689207,0.0064145,-0.000500658,-0.0133297,0.787201,0.00872439,0.0178013,825,603,-3.74404,6.20199
-392,421,-3.79138,-6.40771,-0.00900345,-0.00885443,0.00822193,-0.000706674,-0.0171512,0.789929,0.011206,0.0208694,832,603,-3.79141,6.40771
-385,421,-3.94135,-6.70996,-0.0117086,-0.0110297,0.0103546,-0.00100896,-0.0217294,0.801783,0.0141619,0.0425418,839,603,-3.94135,6.70998
-378,421,-4.25378,-6.97919,0,0,0,0,0,0,0,-1,846,603,-4.25376,6.97918
-371,421,-4.12274,-6.8927,0,0,0,0,0,0,0,-1,853,603,-4.12276,6.89272
-364,421,-5.06079,-5.61859,0,0,0,0,0,0,0,-1,860,603,-5.0608,5.61861
-357,421,-5.57581,-5.5918,0,0,0,0,0,0,0,-1,867,603,-5.5758,5.59181
-350,421,-5.38019,-3.75024,0,0,0,0,0,0,0,-1,874,603,-5.38017,3.75026
-343,421,-6.22797,-2.57123,0,0,0,0,0,0,0,-1,881,603,-6.22798,2.57121
-336,421,-6.22882,-2.59369,0,0,0,0,0,0,0,-1,888,603,-6.22883,2.5937
-329,421,-4.50134,-1.49469,0,0,0,0,0,0,0,-1,895,603,-4.50137,1.49468
-322,421,-6.30377,-0.285339,0,0,0,0,0,0,0,-1,902,603,-6.30379,0.285355
-315,421,-4.47821,-1.26733,0,0,0,0,0,0,0,-1,909,603,-4.47824,1.26732
-308,421,0,0,0,0,0,0,0,0,0,-1,916,603,0,0
-301,421,0,0,0,0,0,0,0,0,0,-1,923,603,0,0
-294,421,0,0,0,0,0,0,0,0,0,-1,930,603,0,0
-287,421,0,0,0,0,0,0,0,0,0,-1,937,603,0,0
-280,421,0,0,0,0,0,0,0,0,0,-1,944,603,0,0
-273,421,0,0,0,0,0,0,0,0,0,-1,951,603,0,0
-266,421,0,0,0,0,0,0,0,0,0,-1,958,603,0,0
-259,421,0,0,0,0,0,0,0,0,0,-1,965,603,0,0
-252,421,0,0,0,0,0,0,0,0,0,-1,972,603,0,0
-245,421,0,0,0,0,0,0,0,0,0,-1,979,603,0,0
-238,421,0,0,0,0,0,0,0,0,0,-1,986,603,0,0
-231,421,0,0,0,0,0,0,0,0,0,-1,993,603,0,0
-224,421,0,0,0,0,0,0,0,0,0,-1,1000,603,0,0
-217,421,0,0,0,0,0,0,0,0,0,-1,1007,603,0,0
-210,421,0,0,0,0,0,0,0,0,0,-1,1014,603,0,0
-203,421,0,0,0,0,0,0,0,0,0,-1,1021,603,0,0
-196,421,0,0,0,0,0,0,0,0,0,-1,1028,603,0,0
-189,421,0,0,0,0,0,0,0,0,0,-1,1035,603,0,0
-182,421,0,0,0,0,0,0,0,0,0,-1,1042,603,0,0
-175,421,0,0,0,0,0,0,0,0,0,-1,1049,603,0,0
-168,421,0,0,0,0,0,0,0,0,0,-1,1056,603,0,0
-161,421,0,0,0,0,0,0,0,0,0,-1,1063,603,0,0
-154,421,0,0,0,0,0,0,0,0,0,-1,1070,603,0,0
-147,421,0,0,0,0,0,0,0,0,0,-1,1077,603,0,0
-140,421,0,0,0,0,0,0,0,0,0,-1,1084,603,0,0
-133,421,0,0,0,0,0,0,0,0,0,-1,1091,603,0,0
-126,421,0,0,0,0,0,0,0,0,0,-1,1098,603,0,0
-119,421,0,0,0,0,0,0,0,0,0,-1,1105,603,0,0
-112,421,0,0,0,0,0,0,0,0,0,-1,1112,603,0,0
-105,421,0,0,0,0,0,0,0,0,0,-1,1119,603,0,0
-98,421,0,0,0,0,0,0,0,0,0,-1,1126,603,0,0
-91,421,0,0,0,0,0,0,0,0,0,-1,1133,603,0,0
-84,421,0,0,0,0,0,0,0,0,0,-1,1140,603,0,0
-77,421,0,0,0,0,0,0,0,0,0,-1,1147,603,0,0
-70,421,0,0,0,0,0,0,0,0,0,-1,1154,603,0,0
-63,421,0,0,0,0,0,0,0,0,0,-1,1161,603,0,0
-56,421,0,0,0,0,0,0,0,0,0,-1,1168,603,0,0
-49,421,0,0,0,0,0,0,0,0,0,-1,1175,603,0,0
-42,421,0,0,0,0,0,0,0,0,0,-1,1182,603,0,0
-35,421,0,0,0,0,0,0,0,0,0,-1,1189,603,0,0
-28,421,0,0,0,0,0,0,0,0,0,-1,1196,603,0,0
-21,421,0,0,0,0,0,0,0,0,0,-1,1203,603,0,0
-14,421,0,0,0,0,0,0,0,0,0,-1,1210,603,0,0
-7,421,0,0,0,0,0,0,0,0,0,-1,1217,603,0,0
0,421,0,0,0,0,0,0,0,0,0,-1,1224,603,0,0
7,421,0,0,0,0,0,0,0,0,0,-1,1231,603,0,0
14,421,0,0,0,0,0,0,0,0,0,-1,1238,603,0,0
21,421,0,0,0,0,0,0,0,0,0,-1,1245,603,0,0
28,421,0,0,0,0,0,0,0,0,0,-1,1252,603,0,0
35,421,0,0,0,0,0,0,0,0,0,-1,1259,603,0,0
42,421,0,0,0,0,0,0,0,0,0,-1,1266,603,0,0
49,421,0,0,0,0,0,0,0,0,0,-1,1273,603,0,0
56,421,0,0,0,0,0,0,0,0,0,-1,1280,603,0,0
63,421,0,0,0,0,0,0,0,0,0,-1,1287,603,0,0
70,421,0,0,0,0,0,0,0,0,0,-1,1294,603,0,0
77,421,0,0,0,0,0,0,0,0,0,-1,1301,603,0,0
84,421,0,0,0,0,0,0,0,0,0,-1,1308,603,0,0
91,421,0,0,0,0,0,0,0,0,0,-1,1315,603,0,0
98,421,0,0,0,0,0,0,0,0,0,-1,1322,603,0,0
105,421,0,0,0,0,0,0,0,0,0,-1,1329,603,0,0
112,421,0,0,0,0,0,0,0,0,0,-1,1336,603,0,0
119,421,0,0,0,0,0,0,0,0,0,-1,1343,603,0,0
126,421,0,0,0,0,0,0,0,0,0,-1,1350,603,0,0
133,421,0,0,0,0,0,0,0,0,0,-1,1357,603,0,0
140,421,0,0,0,0,0,0,0,0,0,-1,1364,603,0,0
147,421,0,0,0,0,0,0,0,0,0,-1,1371,603,0,0
154,421,0,0,0,0,0,0,0,0,0,-1,1378,603,0,0
161,421,0,0,0,0,0,0,0,0,0,-1,1385,603,0,0
168,421,0,0,0,0,0,0,0,0,0,-1,1392,603,0,0
175,421,0,0,0,0,0,0,0,0,0,-1,1399,603,0,0
182,421,0,0,0,0,0,0,0,0,0,-1,1406,603,0,0
189,421,0,0,0,0,0,0,0,0,0,-1,1413,603,0,0
196,421,0,0,0,0,0,0,0,0,0,-1,1420,603,0,0
203,421,0,0,0,0,0,0,0,0,0,-1,1427,603,0,0
210,421,0,0,0,0,0,0,0,0,0,-1,1434,603,0,0
217,421,0,0,0,0,0,0,0,0,0,-1,1441,603,0,0
224,421,0,0,0,0,0,0,0,0,0,-1,1448,603,0,0
231,421,0,0,0,0,0,0,0,0,0,-1,1455,603,0,0
238,421,0,0,0,0,0,0,0,0,0,-1,1462,603,0,0
245,421,0,0,0,0,0,0,0,0,0,-1,1469,603,0,0
252,421,0,0,0,0,0,0,0,0,0,-1,1476,603,0,0
259,421,0,0,0,0,0,0,0,0,0,-1,1483,603,0,0
266,421,0,0,0,0,0,0,0,0,0,-1,1490,603,0,0
273,421,0,0,0,0,0,0,0,0,0,-1,1497,603,0,0
280,421,0,0,0,0,0,0,0,0,0,-1,1504,603,0,0
287,421,0,0,0,0,0,0,0,0,0,-1,1511,603,0,0
294,421,0,0,0,0,0,0,0,0,0,-1,1518,603,0,0
301,421,0,0,0,0,0,0,0,0,0,-1,1525,603,0,0
308,421,0,0,0,0,0,0,0,0,0,-1,1532,603,0,0
315,421,0,0,0,0,0,0,0,0,0,-1,1539,603,0,0
322,421,0,0,0,0,0,0,0,0,0,-1,1546,603,0,0
329,421,0,0,0,0,0,0,0,0,0,-1,1553,603,0,0
336,421,0,0,0,0,0,0,0,0,0,-1,1560,603,0,0
343,421,0,0,0,0,0,0,0,0,0,-1,1567,603,0,0
350,421,0,0,0,0,0,0,0,0,0,-1,1574,603,0,0
357,421,0,0,0,0,0,0,0,0,0,-1,1581,603,0,0
364,421,0,0,0,0,0,0,0,0,0,-1,1588,603,0,0
371,421,0,0,0,0,0,0,0,0,0,-1,1595,603,0,0
378,421,0,0,0,0,0,0,0,0,0,-1,1602,603,0,0
385,421,0,0,0,0,0,0,0,0,0,-1,1609,603,0,0
392,421,0,0,0,0,0,0,0,0,0,-1,1616,603,0,0
399,421,0,0,0,0,0,0,0,0,0,-1,1623,603,0,0
406,421,0,0,0,0,0,0,0,0,0,-1,1630,603,0,0
413,421,0,0,0,0,0,0,0,0,0,-1,1637,603,0,0
420,421,0,0,0,0,0,0,0,0,0,-1,1644,603,0,0
427,421,0,0,0,0,0,0,0,0,0,-1,1651,603,0,0
434,421,3.68176,-0.0327759,0,0,0,0,0,0,0,-1,1658,603,3.6818,0.0328037
441,421,8.06689,0.527832,0,0,0,0,0,0,0,-1,1665,603,8.06693,-0.527851
448,421,6.93921,0.802246,0,0,0,0,0,0,0,-1,1672,603,6.93923,-0.802251
455,421,7.29456,2.14825,0,0,0,0,0,0,0,-1,1679,603,7.29461,-2.14827
462,421,7.86902,3.53174,0,0,0,0,0,0,0,-1,1686,603,7.869,-3.53173
469,421,8.06604,2.81213,0,0,0,0,0,0,0,-1,1693,603,8.06606,-2.81212
476,421,8.26306,2.09253,0,0,0,0,0,0,0,-1,1700,603,8.26312,-2.09251
483,421,8.05322,0.798096,0,0,0,0,0,0,0,-1,1707,603,8.05323,-0.7981
490,421,7.51233,0.213074,0,0,0,0,0,0,0,-1,1714,603,7.51235,-0.213043
497,421,7.49634,-2.86688,0,0,0,0,0,0,0,-1,1721,603,7.4963,2.86688
504,421,6.90491,-2.18671,0,0,0,0,0,0,0,-1,1728,603,6.90491,2.18669
511,421,6.31348,-1.50653,0,0,0,0,0,0,0,-1,1735,603,6.31353,1.5065
518,421,6.27588,-2.49878,0,0,0,0,0,0,0,-1,1742,603,6.2759,2.4988
525,421,9.55432,-4.81989,0,0,0,0,0,0,0,-1,1749,603,9.55426,4.81987
532,421,9.6825,-4.36224,0.00292436,0.00386143,0.00299232,0.00642168,0.000364116,0.863057,0.00416505,0.0350322,1756,603,9.68255,4.36223
539,421,9.79895,-3.99408,0.00193632,0.00288522,0.00208825,0.00455223,0.000269304,0.897103,0.00294916,0.0202974,1763,603,9.79899,3.99405
546,421,9.77124,-3.70978,0.00120715,0.00206065,0.00137629,0.00307483,0.000192969,0.935735,0.00198869,0.012874,1770,603,9.7712,3.70976
553,421,9.75171,-3.40875,0.000812421,0.00147987,0.000965955,0.00216813,0.000124168,0.951723,0.00140586,0.0127207,1777,603,9.75177,3.40874
560,421,9.78772,-3.11102,0.000563675,0.00107942,0.000726396,0.00159236,5.07372e-05,0.955961,0.00104507,0.0145592,1784,603,9.78768,3.111
567,421,9.7876,-2.83459,0.000562158,0.000839028,0.00070289,0.00141699,-1.58003e-05,0.882629,0.000949968,0.0160422,1791,603,9.78758,2.83458
574,421,9.77112,-2.55328,0.000947554,0.000820881,0.00097453,0.0018608,-9.23686e-05,0.752948,0.00127244,0.0176278,1798,603,9.77114,2.55331
581,421,9.74658,-2.21283,0.00153819,0.0010314,0.00144982,0.0027566,-0.000187,0.698883,0.00190313,0.0154288,1805,603,9.74654,2.21284
588,421,9.71655,-1.94647,0.00230489,0.00148102,0.00216557,0.00409736,-0.000311451,0.691412,0.00284109,0.0107817,1812,603,9.71651,1.94647
595,421,9.75146,-1.62823,0.00338995,0.00225343,0.00318435,0.00605635,-0.000412974,0.697101,0.00418203,0.0136331,1819,603,9.75145,1.62825
602,421,9.72815,-1.34399,0.00474554,0.00337623,0.00449884,0.00861152,-0.000489754,0.709885,0.00591103,0.0148063,1826,603,9.72811,1.34398
609,421,9.63171,-1.03577,0,0,0,0,0,0,0,-1,1833,603,9.63175,1.03574
616,421,9.8241,-0.618713,0,0,0,0,0,0,0,-1,1840,603,9.82405,0.618743
623,421,6.19885,0.376648,0,0,0,0,0,0,0,-1,1847,603,6.19881,-0.376624
630,421,6.54993,0.778748,0,0,0,0,0,0,0,-1,1854,603,6.54991,-0.778744
637,421,3.74512,1.65405,0,0,0,0,0,0,0,-1,1861,603,3.74517,-1.65407
644,421,3.58081,0.354675,0,0,0,0,0,0,0,-1,1868,603,3.58082,-0.354704
651,421,3.28687,3.66351,0,0,0,0,0,0,0,-1,1875,603,3.28688,-3.66353
658,421,0,0,0,0,0,0,0,0,0,-1,1882,603,0,0
665,421,0,0,0,0,0,0,0,0,0,-1,1889,603,0,0
672,421,0,0,0,0,0,0,0,0,0,-1,1896,603,0,0
679,421,0,0,0,0,0,0,0,0,0,-1,1903,603,0,0
686,421,0,0,0,0,0,0,0,0,0,-1,1910,603,0,0
693,421,0,0,0,0,0,0,0,0,0,-1,1917,603,0,0
700,421,0,0,0,0,0,0,0,0,0,-1,1924,603,0,0
707,421,0,0,0,0,0,0,0,0,0,-1,1931,603,0,0
714,421,0,0,0,0,0,0,0,0,0,-1,1938,603,0,0
721,421,0,0,0,0,0,0,0,0,0,-1,1945,603,0,0
728,421,0,0,0,0,0,0,0,0,0,-1,1952,603,0,0
735,421,0,0,0,0,0,0,0,0,0,-1,1959,603,0,0
742,421,0,0,0,0,0,0,0,0,0,-1,1966,603,0,0
749,421,0,0,0,0,0,0,0,0,0,-1,1973,603,0,0
756,421,0,0,0,0,0,0,0,0,0,-1,1980,603,0,0
763,421,0,0,0,0,0,0,0,0,0,-1,1987,603,0,0
770,421,0,0,0,0,0,0,0,0,0,-1,1994,603,0,0
777,421,0,0,0,0,0,0,0,0,0,-1,2001,603,0,0
784,421,0,0,0,0,0,0,0,0,0,-1,2008,603,0,0
791,421,0,0,0,0,0,0,0,0,0,-1,2015,603,0,0
798,421,0,0,0,0,0,0,0,0,0,-1,2022,603,0,0
805,421,0,0,0,0,0,0,0,0,0,-1,2029,603,0,0
812,421,0,0,0,0,0,0,0,0,0,-1,2036,603,0,0
-700,414,0,0,0,0,0,0,0,0,0,-1,524,610,0,0
-693,414,0,0,0,0,0,0,0,0,0,-1,531,610,0,0
-686,414,0,0,0,0,0,0,0,0,0,-1,538,610,0,0
-679,414,0,0,0,0,0,0,0,0,0,-1,545,610,0,0
-672,414,0,0,0,0,0,0,0,0,0,-1,552,610,0,0
-665,414,0,0,0,0,0,0,0,0,0,-1,559,610,0,0
-658,414,0,0,0,0,0,0,0,0,0,-1,566,610,0,0
-651,414,0,0,0,0,0,0,0,0,0,-1,573,610,0,0
-644,414,0,0,0,0,0,0,0,0,0,-1,580,610,0,0
-637,414,0,0,0,0,0,0,0,0,0,-1,587,610,0,0
-630,414,0,0,0,0,0,0,0,0,0,-1,594,610,0,0
-623,414,0,0,0,0,0,0,0,0,0,-1,601,610,0,0
-616,414,0,0,0,0,0,0,0,0,0,-1,608,610,0,0
-609,414,0,0,0,0,0,0,0,0,0,-1,615,610,0,0
-602,414,0,0,0,0,0,0,0,0,0,-1,622,610,0,0
-595,414,0,0,0,0,0,0,0,0,0,-1,629,610,0,0
-588,414,0,0,0,0,0,0,0,0,0,-1,636,610,0,0
-581,414,0,0,0,0,0,0,0,0,0,-1,643,610,0,0
-574,414,0,0,0,0,0,0,0,0,0,-1,650,610,0,0
-567,414,0,0,0,0,0,0,0,0,0,-1,657,610,0,0
-560,414,0,0,0,0,0,0,0,0,0,-1,664,610,0,0
-553,414,0,0,0,0,0,0,0,0,0,-1,671,610,0,0
-546,414,0,0,0,0,0,0,0,0,0,-1,678,610,0,0
-539,414,-7.50146,5.65619,0,0,0,0,0,0,0,-1,685,610,-7.50149,-5.65617
-532,414,-8.15204,4.01605,0,0,0,0,0,0,0,-1,692,610,-8.15206,-4.01606
-525,414,-3.47137,-3.27924,0,0,0,0,0,0,0,-1,699,610,-3.47136,3.27922
-518,414,-3.41998,-4.42413,0,0,0,0,0,0,0,-1,706,610,-3.42001,4.4241
-511,414,-3.36865,-5.56897,0,0,0,0,0,0,0,-1,713,610,-3.36867,5.56899
-504,414,-1.62408,-3.64496,0,0,0,0,0,0,0,-1,720,610,-1.62406,3.64499
-497,414,-3.98291,-1.96692,0,0,0,0,0,0,0,-1,727,610,-3.98293,1.96693
-490,414,-3.99762,-2.33411,0.0023399,0.0121789,-0.00830287,0.0169102,-0.00239147,-1.05284,0.0121494,0.0389638,734,610,-3.99762,2.33408
-483,414,-3.99042,-2.81061,0.00265729,0.00933114,-0.00685199,0.0136156,-0.00162713,-1.012,0.00966517,0.0175909,741,610,-3.9904,2.81063
-476,414,-4.03906,-3.10901,0.00269268,0.00702863,-0.00555856,0.010827,-0.00110573,-0.971337,0.00761341,0.0120281,748,610,-4.03907,3.109
-469,414,-4.06738,-3.37604,0.00259827,0.00509292,-0.00437808,0.00839789,-0.000706699,-0.924173,0.00584841,0.0127518,755,610,-4.06741,3.37603
-462,414,-4.06934,-3.68066,0.00231358,0.00360101,-0.00335174,0.00637029,-0.000455697,-0.880271,0.00440662,0.0218146,762,610,-4.06936,3.68063
-455,414,-4.06793,-3.98328,0.00188079,0.00231726,-0.00236947,0.00447852,-0.000280468,-0.83132,0.00308342,0.0251043,769,610,-4.06792,3.98325
-448,414,-4.05475,-4.23688,0.00132423,0.00118706,-0.00141686,0.00267417,-0.00016288,-0.761214,0.00183948,0.0247109,776,610,-4.05475,4.23691
-441,414,-4.03607,-4.51025,0.000593974,0.000292573,-0.000555859,0.0010192,-0.000132652,-0.653024,0.000727724,0.0166481,783,610,-4.03605,4.51028
-434,414,-4.0556,-4.81049,-0.000367223,-0.00120683,0.000606017,-4.98086e-05,-0.00152425,0.482483,0.000999976,0.00944955,790,610,-4.05559,4.81049
-427,414,-4.05084,-5.07953,-0.00149712,-0.00238354,0.00178806,-9.81647e-05,-0.0037825,0.663911,0.00248959,0.0100553,797,610,-4.05085,5.07954
-420,414,-4.04083,-5.34448,-0.00291372,-0.00368379,0.00302069,-0.000253623,-0.00634389,0.722007,0.0041473,0.0105449,804,610,-4.04084,5.34449
-413,414,-4.0647,-5.64404,-0.00466069,-0.00506791,0.0045203,-0.000339421,-0.00938918,0.762892,0.00614944,0.0111141,811,610,-4.06467,5.64406
-406,414,-4.05066,-5.98395,-0.00662702,-0.00684869,0.00623368,-0.000503196,-0.0129725,0.776509,0.00848559,0.0175568,818,610,-4.05068,5.98393
-399,414,-4.04852,-6.14709,-0.00904304,-0.00902113,0.00821919,-0.000812892,-0.0172513,0.786065,0.0112397,0.0266199,825,610,-4.0485,6.14712
-392,414,-4.1391,-6.27881,-0.0119875,-0.0116415,0.0106579,-0.00115521,-0.0224737,0.793514,0.0146126,0.0309133,832,610,-4.1391,6.27882
-385,414,-4.40857,-6.26666,-0.0158241,-0.0147109,0.0135662,-0.00168986,-0.0288451,0.8059,0.0186923,0.0447801,839,610,-4.40854,6.26666
-378,414,-4.51013,-6.36096,0,0,0,0,0,0,0,-1,846,610,-4.5101,6.36098
-371,414,-4.46875,-6.17603,0,0,0,0,0,0,0,-1,853,610,-4.46873,6.17605
-364,414,-4.47827,-6.2514,0,0,0,0,0,0,0,-1,860,610,-4.47828,6.25142
-357,414,-5.95874,-2.51605,0,0,0,0,0,0,0,-1,867,610,-5.95872,2.51603
-350,414,-6.4502,-2.41821,0,0,0,0,0,0,0,-1,874,610,-6.45021,2.41822
-343,414,-6.80249,-2.32117,0,0,0,0,0,0,0,-1,881,610,-6.80252,2.32116
-336,414,-7.11017,-2.52026,0,0,0,0,0,0,0,-1,888,610,-7.11016,2.52026
-329,414,-7.59747,-2.70313,0,0,0,0,0,0,0,-1,895,610,-7.59747,2.70315
-322,414,-4.42236,-1.29163,0,0,0,0,0,0,0,-1,902,610,-4.42238,1.2916
-315,414,0,0,0,0,0,0,0,0,0,-1,909,610,0,0
-308,414,0,0,0,0,0,0,0,0,0,-1,916,610,0,0
-301,414,0,0,0,0,0,0,0,0,0,-1,923,610,0,0
-294,414,0,0,0,0,0,0,0,0,0,-1,930,610,0,0
-287,414,0,0,0,0,0,0,0,0,0,-1,937,610,0,0
-280,414,0,0,0,0,0,0,0,0,0,-1,944,610,0,0
-273,414,0,0,0,0,0,0,0,0,0,-1,951,610,0,0
-266,414,0,0,0,0,0,0,0,0,0,-1,958,610,0,0
-259,414,0,0,0,0,0,0,0,0,0,-1,965,610,0,0
-252,414,0,0,0,0,0,0,0,0,0,-1,972,610,0,0
-245,414,0,0,0,0,0,0,0,0,0,-1,979,610,0,0
-238,414,0,0,0,0,0,0,0,0,0,-1,986,610,0,0
-231,414,0,0,0,0,0,0,0,0,0,-1,993,610,0,0
-224,414,0,0,0,0,0,0,0,0,0,-1,1000,610,0,0
-217,414,0,0,0,0,0,0,0,0,0,-1,1007,610,0,0
-210,414,0,0,0,0,0,0,0,0,0,-1,1014,610,0,0
-203,414,0,0,0,0,0,0,0,0,0,-1,1021,610,0,0
-196,414,0,0,0,0,0,0,0,0,0,-1,1028,610,0,0
-189,414,0,0,0,0,0,0,0,0,0,-1,1035,610,0,0
-182,414,0,0,0,0,0,0,0,0,0,-1,1042,610,0,0
-175,414,0,0,0,0,0,0,0,0,0,-1,1049,610,0,0
-168,414,0,0,0,0,0,0,0,0,0,-1,1056,610,0,0
-161,414,0,0,0,0,0,0,0,0,0,-1,1063,610,0,0
-154,414,0,0,0,0,0,0,0,0,0,-1,1070,610,0,0
-147,414,0,0,0,0,0,0,0,0,0,-1,1077,610,0,0
-140,414,0,0,0,0,0,0,0,0,0,-1,1084,610,0,0
-133,414,0,0,0,0,0,0,0,0,0,-1,1091,610,0,0
-126,414,0,0,0,0,0,0,0,0,0,-1,1098,610,0,0
-119,414,0,0,0,0,0,0,0,0,0,-1,1105,610,0,0
-112,414,0,0,0,0,0,0,0,0,0,-1,1112,610,0,0
-105,414,0,0,0,0,0,0,0,0,0,-1,1119,610,0,0
-98,414,0,0,0,0,0,0,0,0,0,-1,1126,610,0,0
-91,414,0,0,0,0,0,0,0,0,0,-1,1133,610,0,0
-84,414,0,0,0,0,0,0,0,0,0,-1,1140,610,0,0
-77,414,0,0,0,0,0,0,0,0,0,-1,1147,610,0,0
-70,414,0,0,0,0,0,0,0,0,0,-1,1154,610,0,0
-63,414,0,0,0,0,0,0,0,0,0,-1,1161,610,0,0
-56,414,0,0,0,0,0,0,0,0,0,-1,1168,610,0,0
-49,414,0,0,0,0,0,0,0,0,0,-1,1175,610,0,0
-42,414,0,0,0,0,0,0,0,0,0,-1,1182,610,0,0
-35,414,0,0,0,0,0,0,0,0,0,-1,1189,610,0,0
-28,414,0,0,0,0,0,0,0,0,0,-1,1196,610,0,0
-21,414,0,0,0,0,0,0,0,0,0,-1,1203,610,0,0
-14,414,0,0,0,0,0,0,0,0,0,-1,1210,610,0,0
-7,414,0,0,0,0,0,0,0,0,0,-1,1217,610,0,0
0,414,0,0,0,0,0,0,0,0,0,-1,1224,610,0,0
7,414,0,0,0,0,0,0,0,0,0,-1,1231,610,0,0
14,414,0,0,0,0,0,0,0,0,0,-1,1238,610,0,0
21,414,0,0,0,0,0,0,0,0,0,-1,1245,610,0,0
28,414,0,0,0,0,0,0,0,0,0,-1,1252,610,0,0
35,414,0,0,0,0,0,0,0,0,0,-1,1259,610,0,0
42,414,0,0,0,0,0,0,0,0,0,-1,1266,610,0,0
49,414,0,0,0,0,0,0,0,0,0,-1,1273,610,0,0
56,414,0,0,0,0,0,0,0,0,0,-1,1280,610,0,0
63,414,0,0,0,0,0,0,0,0,0,-1,1287,610,0,0
70,414,0,0,0,0,0,0,0,0,0,-1,1294,610,0,0
77,414,0,0,0,0,0,0,0,0,0,-1,1301,610,0,0
84,414,0,0,0,0,0,0,0,0,0,-1,1308,610,0,0
91,414,0,0,0,0,0,0,0,0,0,-1,1315,610,0,0
98,414,0,0,0,0,0,0,0,0,0,-1,1322,610,0,0
105,414,0,0,0,0,0,0,0,0,0,-1,1329,610,0,0
112,414,0,0,0,0,0,0,0,0,0,-1,1336,610,0,0
119,414,0,0,0,0,0,0,0,0,0,-1,1343,610,0,0
126,414,0,0,0,0,0,0,0,0,0,-1,1350,610,0,0
133,414,0,0,0,0,0,0,0,0,0,-1,1357,610,0,0
140,414,0,0,0,0,0,0,0,0,0,-1,1364,610,0,0
147,414,0,0,0,0,0,0,0,0,0,-1,1371,610,0,0
154,414,0,0,0,0,0,0,0,0,0,-1,1378,610,0,0
161,414,0,0,0,0,0,0,0,0,0,-1,1385,610,0,0
168,414,0,0,0,0,0,0,0,0,0,-1,1392,610,0,0
175,414,0,0,0,0,0,0,0,0,0,-1,1399,610,0,0
182,414,0,0,0,0,0,0,0,0,0,-1,1406,610,0,0
189,414,0,0,0,0,0,0,0,0,0,-1,1413,610,0,0
196,414,0,0,0,0,0,0,0,0,0,-1,1420,610,0,0
203,414,0,0,0,0,0,0,0,0,0,-1,1427,610,0,0
210,414,0,0,0,0,0,0,0,0,0,-1,1434,610,0,0
217,414,0,0,0,0,0,0,0,0,0,-1,1441,610,0,0
224,414,0,0,0,0,0,0,0,0,0,-1,1448,610,0,0
231,414,0,0,0,0,0,0,0,0,0,-1,1455,610,0,0
238,414,0,0,0,0,0,0,0,0,0,-1,1462,610,0,0
245,414,0,0,0,0,0,0,0,0,0,-1,1469,610,0,0
252,414,0,0,0,0,0,0,0,0,0,-1,1476,610,0,0
259,414,0,0,0,0,0,0,0,0,0,-1,1483,610,0,0
266,414,0,0,0,0,0,0,0,0,0,-1,1490,610,0,0
273,414,0,0,0,0,0,0,0,0,0,-1,1497,610,0,0
280,414,0,0,0,0,0,0,0,0,0,-1,1504,610,0,0
287,414,0,0,0,0,0,0,0,0,0,-1,1511,610,0,0
294,414,0,0,0,0,0,0,0,0,0,-1,1518,610,0,0
301,414,0,0,0,0,0,0,0,0,0,-1,1525,610,0,0
308,414,0,0,0,0,0,0,0,0,0,-1,1532,610,0,0
315,414,0,0,0,0,0,0,0,0,0,-1,1539,610,0,0
322,414,0,0,0,0,0,0,0,0,0,-1,1546,610,0,0
329,414,0,0,0,0,0,0,0,0,0,-1,1553,610,0,0
336,414,0,0,0,0,0,0,0,0,0,-1,1560,610,0,0
343,414,0,0,0,0,0,0,0,0,0,-1,1567,610,0,0
350,414,0,0,0,0,0,0,0,0,0,-1,1574,610,0,0
357,414,0,0,0,0,0,0,0,0,0,-1,1581,610,0,0
364,414,0,0,0,0,0,0,0,0,0,-1,1588,610,0,0
371,414,0,0,0,0,0,0,0,0,0,-1,1595,610,0,0
378,414,0,0,0,0,0,0,0,0,0,-1,1602,610,0,0
385,414,0,0,0,0,0,0,0,0,0,-1,1609,610,0,0
392,414,0,0,0,0,0,0,0,0,0,-1,1616,610,0,0
399,414,0,0,0,0,0,0,0,0,0,-1,1623,610,0,0
406,414,0,0,0,0,0,0,0,0,0,-1,1630,610,0,0
413,414,0,0,0,0,0,0,0,0,0,-1,1637,610,0,0
420,414,0,0,0,0,0,0,0,0,0,-1,1644,610,0,0
427,414,0,0,0,0,0,0,0,0,0,-1,1651,610,0,0
434,414,0,0,0,0,0,0,0,0,0,-1,1658,610,0,0
441,414,7.84375,0.584412,0,0,0,0,0,0,0,-1,1665,610,7.84379,-0.584394
448,414,7.40808,1.25446,0,0,0,0,0,0,0,-1,1672,610,7.40807,-1.25446
455,414,6.3512,1.73846,0,0,0,0,0,0,0,-1,1679,610,6.3512,-1.73847
462,414,8.18103,3.22113,0,0,0,0,0,0,0,-1,1686,610,8.18108,-3.22112
469,414,8.38513,2.49579,0,0,0,0,0,0,0,-1,1693,610,8.38516,-2.49576
476,414,8.64099,1.71161,0,0,0,0,0,0,0,-1,1700,610,8.64097,-1.71164
483,414,8.62744,0.687622,0,0,0,0,0,0,0,-1,1707,610,8.62749,-0.687615
490,414,8.38831,-0.0302734,0,0,0,0,0,0,0,-1,1714,610,8.38835,0.0302913
497,414,4.71094,-0.110046,0,0,0,0,0,0,0,-1,1721,610,4.71089,0.110024
504,414,7.19568,-1.43835,0,0,0,0,0,0,0,-1,1728,610,7.19563,1.43836
511,414,5.94153,-1.28772,0,0,0,0,0,0,0,-1,1735,610,5.94151,1.28769
518,414,4.53381,-0.0996704,0,0,0,0,0,0,0,-1,1742,610,4.53378,0.0996819
525,414,6.18811,-1.64056,0,0,0,0,0,0,0,-1,1749,610,6.18814,1.64055
532,414,9.97998,-4.56586,0,0,0,0,0,0,0,-1,1756,610,9.98001,4.56589
539,414,10.0358,-4.10309,0.00145583,0.00398899,0.00235058,0.00539252,5.2304e-05,1.03251,0.00357771,0.0430193,1763,610,10.0358,4.10306
546,414,10.0542,-3.7124,0.000653467,0.0029019,0.00146402,0.00362355,-6.81842e-05,1.11283,0.00243875,0.0130147,1770,610,10.0542,3.7124
553,414,10.0669,-3.41943,0.000278086,0.00214883,0.000963309,0.00255618,-0.000129257,1.17074,0.0017488,0.0128014,1777,610,10.0669,3.41942
560,414,10.0846,-3.10852,7.66058e-05,0.0016106,0.00066369,0.00185788,-0.00017068,1.21414,0.00129922,0.014024,1784,610,10.0846,3.10853
567,414,10.0963,-2.80035,0.000119444,0.00123577,0.000578047,0.00148115,-0.000125937,1.16935,0.00103198,0.0219694,1791,610,10.0963,2.80038
574,414,10.0503,-2.52606,0.00054658,0.00109659,0.000789061,0.00165719,-1.40263e-05,0.953076,0.0011095,0.0193982,1798,610,10.0503,2.52608
581,414,10.0463,-2.21259,0.00117915,0.00118558,0.00119951,0.00238188,-1.71493e-05,0.786737,0.00159366,0.0159414,1805,610,10.0463,2.21257
588,414,10.0408,-1.94537,0.00195983,0.00150947,0.00182134,0.00356985,-0.000100556,0.723893,0.00241412,0.0156262,1812,610,10.0408,1.94539
595,414,10.0829,-1.591,0.00304976,0.00212752,0.00271389,0.00534142,-0.000164145,0.701247,0.00361691,0.0206256,1819,610,10.0829,1.59098
602,414,10.0931,-1.29218,0.00431078,0.00306251,0.00384563,0.00758259,-0.000209308,0.704951,0.00512626,0.0240876,1826,610,10.0931,1.2922
609,414,10.0345,-1.03156,0,0,0,0,0,0,0,-1,1833,610,10.0345,1.03158
616,414,10.2709,-0.522156,0,0,0,0,0,0,0,-1,1840,610,10.2709,0.522145
623,414,9.6969,0.0378418,0,0,0,0,0,0,0,-1,1847,610,9.69685,-0.0378644
630,414,5.47144,0.499329,0,0,0,0,0,0,0,-1,1854,610,5.47142,-0.499303
637,414,6.57898,2.38019,0,0,0,0,0,0,0,-1,1861,610,6.579,-2.38019
644,414,5.87073,1.51422,0,0,0,0,0,0,0,-1,1868,610,5.87076,-1.51424
651,414,3.6377,0.820557,0,0,0,0,0,0,0,-1,1875,610,3.6377,-0.820543
658,414,2.29761,3.87323,0,0,0,0,0,0,0,-1,1882,610,2.29758,-3.87325
665,414,0,0,0,0,0,0,0,0,0,-1,1889,610,0,0
672,414,0,0,0,0,0,0,0,0,0,-1,1896,610,0,0
679,414,0,0,0,0,0,0,0,0,0,-1,1903,610,0,0
686,414,0,0,0,0,0,0,0,0,0,-1,1910,610,0,0
693,414,0,0,0,0,0,0,0,0,0,-1,1917,610,0,0
700,414,0,0,0,0,0,0,0,0,0,-1,1924,610,0,0
707,414,0,0,0,0,0,0,0,0,0,-1,1931,610,0,0
714,414,0,0,0,0,0,0,0,0,0,-1,1938,610,0,0
721,414,0,0,0,0,0,0,0,0,0,-1,1945,610,0,0
728,414,0,0,0,0,0,0,0,0,0,-1,1952,610,0,0
735,414,0,0,0,0,0,0,0,0,0,-1,1959,610,0,0
742,414,0,0,0,0,0,0,0,0,0,-1,1966,610,0,0
749,414,0,0,0,0,0,0,0,0,0,-1,1973,610,0,0
756,414,0,0,0,0,0,0,0,0,0,-1,1980,610,0,0
763,414,0,0,0,0,0,0,0,0,0,-1,1987,610,0,0
770,414,0,0,0,0,0,0,0,0,0,-1,1994,610,0,0
777,414,0,0,0,0,0,0,0,0,0,-1,2001,610,0,0
784,414,0,0,0,0,0,0,0,0,0,-1,2008,610,0,0
791,414,0,0,0,0,0,0,0,0,0,-1,2015,610,0,0
798,414,0,0,0,0,0,0,0,0,0,-1,2022,610,0,0
805,414,0,0,0,0,0,0,0,0,0,-1,2029,610,0,0
812,414,0,0,0,0,0,0,0,0,0,-1,2036,610,0,0
-700,407,0,0,0,0,0,0,0,0,0,-1,524,617,0,0
-693,407,0,0,0,0,0,0,0,0,0,-1,531,617,0,0
-686,407,0,0,0,0,0,0,0,0,0,-1,538,617,0,0
-679,407,0,0,0,0,0,0,0,0,0,-1,545,617,0,0
-672,407,0,0,0,0,0,0,0,0,0,-1,552,617,0,0
-665,407,0,0,0,0,0,0,0,0,0,-1,559,617,0,0
-658,407,0,0,0,0,0,0,0,0,0,-1,566,617,0,0
-651,407,0,0,0,0,0,0,0,0,0,-1,573,617,0,0
-644,407,0,0,0,0,0,0,0,0,0,-1,580,617,0,0
-637,407,0,0,0,0,0,0,0,0,0,-1,587,617,0,0
-630,407,0,0,0,0,0,0,0,0,0,-1,594,617,0,0
-623,407,0,0,0,0,0,0,0,0,0,-1,601,617,0,0
-616,407,0,0,0,0,0,0,0,0,0,-1,608,617,0,0
-609,407,0,0,0,0,0,0,0,0,0,-1,615,617,0,0
-602,407,0,0,0,0,0,0,0,0,0,-1,622,617,0,0
-595,407,0,0,0,0,0,0,0,0,0,-1,629,617,0,0
-588,407,0,0,0,0,0,0,0,0,0,-1,636,617,0,0
-581,407,0,0,0,0,0,0,0,0,0,-1,643,617,0,0
-574,407,0,0,0,0,0,0,0,0,0,-1,650,617,0,0
-567,407,0,0,0,0,0,0,0,0,0,-1,657,617,0,0
-560,407,0,0,0,0,0,0,0,0,0,-1,664,617,0,0
-553,407,0,0,0,0,0,0,0,0,0,-1,671,617,0,0
-546,407,-8.54517,-0.658142,0,0,0,0,0,0,0,-1,678,617,-8.54515,0.658112
-539,407,-6.09442,-1.01154,0,0,0,0,0,0,0,-1,685,617,-6.09441,1.01155
-532,407,-7.75665,1.62152,0,0,0,0,0,0,0,-1,692,617,-7.75667,-1.62154
-525,407,-3.78247,-2.67639,0,0,0,0,0,0,0,-1,699,617,-3.78246,2.67638
-518,407,-3.80524,-3.78967,0,0,0,0,0,0,0,-1,706,617,-3.80525,3.78968
-511,407,-3.82806,-4.90302,0,0,0,0,0,0,0,-1,713,617,-3.82805,4.90299
-504,407,-4.28802,-2.6922,0,0,0,0,0,0,0,-1,720,617,-4.28805,2.6922
-497,407,-4.23572,-2.63947,-0.000545519,0.0140424,-0.00835833,0.0178419,-0.00434495,-1.14415,0.0135767,0.0429444,727,617,-4.23572,2.63947
-490,407,-4.26038,-2.54956,0.000544059,0.010293,-0.00653984,0.0135751,-0.00273805,-1.10566,0.0100874,0.0219836,734,617,-4.26036,2.54957
-483,407,-4.26971,-2.81006,0.00133151,0.00747072,-0.00518707,0.0104284,-0.00162618,-1.05257,0.00755291,0.0127965,741,617,-4.26969,2.81003
-476,407,-4.29663,-3.0722,0.00174263,0.00542507,-0.0041155,0.00809245,-0.000924743,-0.995738,0.00572815,0.0100703,748,617,-4.29665,3.07218
-469,407,-4.32611,-3.34662,0.0019115,0.00387039,-0.00323639,0.0062723,-0.000490412,-0.932334,0.00435422,0.0128494,755,617,-4.32611,3.34662
-462,407,-4.33325,-3.65002,0.00178125,0.00268423,-0.00246103,0.00473484,-0.000269361,-0.876117,0.00325007,0.0195779,762,617,-4.33326,3.65005
-455,407,-4.31885,-3.96741,0.00147432,0.00161878,-0.00165355,0.00320168,-0.000108572,-0.807226,0.00217155,0.0214499,769,617,-4.31885,3.96741
-448,407,-4.30359,-4.21222,0.00100914,0.00059519,-0.000836049,0.00166345,-5.91212e-05,-0.664056,0.00112919,0.0192847,776,617,-4.30362,4.21224
-441,407,-4.30975,-4.47058,0.000265153,-0.000272284,-1.10656e-05,0.000265381,-0.000272512,-0.0205779,0.000310562,0.0144532,783,617,-4.30976,4.47056
-434,407,-4.32562,-4.76849,-0.000820465,-0.00171607,0.00114246,-4.11842e-05,-0.00249535,0.598618,0.00165001,0.00984273,790,617,-4.3256,4.7685
-427,407,-4.32764,-5.05939,-0.00212213,-0.003008,0.00238291,-0.00014134,-0.00498879,0.693507,0.00327976,0.0104081,797,617,-4.32764,5.0594
-420,407,-4.30585,-5.3222,-0.0036982,-0.00450296,0.00372267,-0.000356231,-0.00784493,0.731563,0.00511535,0.0109061,804,617,-4.30583,5.3222
-413,407,-4.30219,-5.61133,-0.00577007,-0.00626776,0.00551738,-0.000495925,-0.0115419,0.762863,0.00753474,0.0121432,811,617,-4.30218,5.61134
-406,407,-4.31189,-5.82159,-0.00837495,-0.00861609,0.00771123,-0.000783348,-0.0162077,0.777581,0.0105537,0.0252485,818,617,-4.31191,5.82157
-399,407,-4.23773,-5.84363,-0.0116484,-0.0115679,0.010346,-0.00126202,-0.0219542,0.787344,0.0142341,0.041254,825,617,-4.23772,5.84361
-392,407,-4.40393,-6.27356,0,0,0,0,0,0,0,-1,832,617,-4.40395,6.27358
-385,407,-5.01874,-6.01007,0,0,0,0,0,0,0,-1,839,617,-5.01875,6.01009
-378,407,-4.86646,-5.67694,0,0,0,0,0,0,0,-1,846,617,-4.86649,5.67691
-371,407,-4.8147,-5.45941,0,0,0,0,0,0,0,-1,853,617,-4.81469,5.45939
-364,407,-6.26666,-1.91302,0,0,0,0,0,0,0,-1,860,617,-6.26669,1.91305
-357,407,-6.64447,-1.83337,0,0,0,0,0,0,0,-1,867,617,-6.64446,1.8334
-350,407,-7.03351,-1.77551,0,0,0,0,0,0,0,-1,874,617,-7.03349,1.77551
-343,407,-7.40967,-1.95026,0,0,0,0,0,0,0,-1,881,617,-7.40969,1.95026
-336,407,-8.10229,-2.40662,0,0,0,0,0,0,0,-1,888,617,-8.10229,2.40664
-329,407,-8.81232,-2.76331,0,0,0,0,0,0,0,-1,895,617,-8.81235,2.76331
-322,407,0,0,0,0,0,0,0,0,0,-1,902,617,0,0
-315,407,0,0,0,0,0,0,0,0,0,-1,909,617,0,0
-308,407,0,0,0,0,0,0,0,0,0,-1,916,617,0,0
-301,407,0,0,0,0,0,0,0,0,0,-1,923,617,0,0
-294,407,0,0,0,0,0,0,0,0,0,-1,930,617,0,0
-287,407,0,0,0,0,0,0,0,0,0,-1,937,617,0,0
-280,407,0,0,0,0,0,0,0,0,0,-1,944,617,0,0
-273,407,0,0,0,0,0,0,0,0,0,-1,951,617,0,0
-266,407,0,0,0,0,0,0,0,0,0,-1,958,617,0,0
-259,407,0,0,0,0,0,0,0,0,0,-1,965,617,0,0
-252,407,0,0,0,0,0,0,0,0,0,-1,972,617,0,0
-245,407,0,0,0,0,0,0,0,0,0,-1,979,617,0,0
-238,407,0,0,0,0,0,0,0,0,0,-1,986,617,0,0
-231,407,0,0,0,0,0,0,0,0,0,-1,993,617,0,0
-224,407,0,0,0,0,0,0,0,0,0,-1,1000,617,0,0
-217,407,0,0,0,0,0,0,0,0,0,-1,1007,617,0,0
-210,407,0,0,0,0,0,0,0,0,0,-1,1014,617,0,0
-203,407,0,0,0,0,0,0,0,0,0,-1,1021,617,0,0
-196,407,0,0,0,0,0,0,0,0,0,-1,1028,617,0,0
-189,407,0,0,0,0,0,0,0,0,0,-1,1035,617,0,0
-182,407,0,0,0,0,0,0,0,0,0,-1,1042,617,0,0
-175,407,0,0,0,0,0,0,0,0,0,-1,1049,617,0,0
-168,407,0,0,0,0,0,0,0,0,0,-1,1056,617,0,0
-161,407,0,0,0,0,0,0,0,0,0,-1,1063,617,0,0
-154,407,0,0,0,0,0,0,0,0,0,-1,1070,617,0,0
-147,407,0,0,0,0,0,0,0,0,0,-1,1077,617,0,0
-140,407,0,0,0,0,0,0,0,0,0,-1,1084,617,0,0
-133,407,0,0,0,0,0,0,0,0,0,-1,1091,617,0,0
-126,407,0,0,0,0,0,0,0,0,0,-1,1098,617,0,0
-119,407,0,0,0,0,0,0,0,0,0,-1,1105,617,0,0
-112,407,0,0,0,0,0,0,0,0,0,-1,1112,617,0,0
-105,407,0,0,0,0,0,0,0,0,0,-1,1119,617,0,0
-98,407,0,0,0,0,0,0,0,0,0,-1,1126,617,0,0
-91,407,0,0,0,0,0,0,0,0,0,-1,1133,617,0,0
-84,407,0,0,0,0,0,0,0,0,0,-1,1140,617,0,0
-77,407,0,0,0,0,0,0,0,0,0,-1,1147,617,0,0
-70,407,0,0,0,0,0,0,0,0,0,-1,1154,617,0,0
-63,407,0,0,0,0,0,0,0,0,0,-1,1161,617,0,0
-56,407,0,0,0,0,0,0,0,0,0,-1,1168,617,0,0
-49,407,0,0,0,0,0,0,0,0,0,-1,1175,617,0,0
-42,407,0,0,0,0,0,0,0,0,0,-1,1182,617,0,0
-35,407,0,0,0,0,0,0,0,0,0,-1,1189,617,0,0
-28,407,0,0,0,0,0,0,0,0,0,-1,1196,617,0,0
-21,407,0,0,0,0,0,0,0,0,0,-1,1203,617,0,0
-14,407,0,0,0,0,0,0,0,0,0,-1,1210,617,0,0
-7,407,0,0,0,0,0,0,0,0,0,-1,1217,617,0,0
0,407,0,0,0,0,0,0,0,0,0,-1,1224,617,0,0
7,407,0,0,0,0,0,0,0,0,0,-1,1231,617,0,0
14,407,0,0,0,0,0,0,0,0,0,-1,1238,617,0,0
21,407,0,0,0,0,0,0,0,0,0,-1,1245,617,0,0
28,407,0,0,0,0,0,0,0,0,0,-1,1252,617,0,0
35,407,0,0,0,0,0,0,0,0,0,-1,1259,617,0,0
42,407,0,0,0,0,0,0,0,0,0,-1,1266,617,0,0
49,407,0,0,0,0,0,0,0,0,0,-1,1273,617,0,0
56,407,0,0,0,0,0,0,0,0,0,-1,1280,617,0,0
63,407,0,0,0,0,0,0,0,0,0,-1,1287,617,0,0
70,407,0,0,0,0,0,0,0,0,0,-1,1294,617,0,0
77,407,0,0,0,0,0,0,0,0,0,-1,1301,617,0,0
84,407,0,0,0,0,0,0,0,0,0,-1,1308,617,0,0
91,407,0,0,0,0,0,0,0,0,0,-1,1315,617,0,0
98,407,0,0,0,0,0,0,0,0,0,-1,1322,617,0,0
105,407,0,0,0,0,0,0,0,0,0,-1,1329,617,0,0
112,407,0,0,0,0,0,0,0,0,0,-1,1336,617,0,0
119,407,0,0,0,0,0,0,0,0,0,-1,1343,617,0,0
126,407,0,0,0,0,0,0,0,0,0,-1,1350,617,0,0
133,407,0,0,0,0,0,0,0,0,0,-1,1357,617,0,0
140,407,0,0,0,0,0,0,0,0,0,-1,1364,617,0,0
147,407,0,0,0,0,0,0,0,0,0,-1,1371,617,0,0
154,407,0,0,0,0,0,0,0,0,0,-1,1378,617,0,0
161,407,0,0,0,0,0,0,0,0,0,-1,1385,617,0,0
168,407,0,0,0,0,0,0,0,0,0,-1,1392,617,0,0
175,407,0,0,0,0,0,0,0,0,0,-1,1399,617,0,0
182,407,0,0,0,0,0,0,0,0,0,-1,1406,617,0,0
189,407,0,0,0,0,0,0,0,0,0,-1,1413,617,0,0
196,407,0,0,0,0,0,0,0,0,0,-1,1420,617,0,0
203,407,0,0,0,0,0,0,0,0,0,-1,1427,617,0,0
210,407,0,0,0,0,0,0,0,0,0,-1,1434,617,0,0
217,407,0,0,0,0,0,0,0,0,0,-1,1441,617,0,0
224,407,0,0,0,0,0,0,0,0,0,-1,1448,617,0,0
231,407,0,0,0,0,0,0,0,0,0,-1,1455,617,0,0
238,407,0,0,0,0,0,0,0,0,0,-1,1462,617,0,0
245,407,0,0,0,0,0,0,0,0,0,-1,1469,617,0,0
252,407,0,0,0,0,0,0,0,0,0,-1,1476,617,0,0
259,407,0,0,0,0,0,0,0,0,0,-1,1483,617,0,0
266,407,0,0,0,0,0,0,0,0,0,-1,1490,617,0,0
273,407,0,0,0,0,0,0,0,0,0,-1,1497,617,0,0
280,407,0,0,0,0,0,0,0,0,0,-1,1504,617,0,0
287,407,0,0,0,0,0,0,0,0,0,-1,1511,617,0,0
294,407,0,0,0,0,0,0,0,0,0,-1,1518,617,0,0
301,407,0,0,0,0,0,0,0,0,0,-1,1525,617,0,0
308,407,0,0,0,0,0,0,0,0,0,-1,1532,617,0,0
315,407,0,0,0,0,0,0,0,0,0,-1,1539,617,0,0
322,407,0,0,0,0,0,0,0,0,0,-1,1546,617,0,0
329,407,0,0,0,0,0,0,0,0,0,-1,1553,617,0,0
336,407,0,0,0,0,0,0,0,0,0,-1,1560,617,0,0
343,407,0,0,0,0,0,0,0,0,0,-1,1567,617,0,0
350,407,0,0,0,0,0,0,0,0,0,-1,1574,617,0,0
357,407,0,0,0,0,0,0,0,0,0,-1,1581,617,0,0
364,407,0,0,0,0,0,0,0,0,0,-1,1588,617,0,0
371,407,0,0,0,0,0,0,0,0,0,-1,1595,617,0,0
378,407,0,0,0,0,0,0,0,0,0,-1,1602,617,0,0
385,407,0,0,0,0,0,0,0,0,0,-1,1609,617,0,0
392,407,0,0,0,0,0,0,0,0,0,-1,1616,617,0,0
399,407,0,0,0,0,0,0,0,0,0,-1,1623,617,0,0
406,407,0,0,0,0,0,0,0,0,0,-1,1630,617,0,0
413,407,0,0,0,0,0,0,0,0,0,-1,1637,617,0,0
420,407,0,0,0,0,0,0,0,0,0,-1,1644,617,0,0
427,407,0,0,0,0,0,0,0,0,0,-1,1651,617,0,0
434,407,0,0,0,0,0,0,0,0,0,-1,1658,617,0,0
441,407,0,0,0,0,0,0,0,0,0,-1,1665,617,0,0
448,407,7.02893,2.13843,0,0,0,0,0,0,0,-1,1672,617,7.02899,-2.13844
455,407,7.55237,2.29242,0,0,0,0,0,0,0,-1,1679,617,7.55236,-2.29244
462,407,8.2926,2.46173,0,0,0,0,0,0,0,-1,1686,617,8.29261,-2.46174
469,407,8.71509,2.22681,0,0,0,0,0,0,0,-1,1693,617,8.71511,-2.22681
476,407,8.89917,1.47766,0,0,0,0,0,0,0,-1,1700,617,8.89914,-1.47768
483,407,9.02612,0.682983,0,0,0,0,0,0,0,-1,1707,617,9.02608,-0.683004
490,407,9.12659,0.000671387,0,0,0,0,0,0,0,-1,1714,617,9.12653,-0.000675931
497,407,7.76819,0.855835,0,0,0,0,0,0,0,-1,1721,617,7.7682,-0.855865
504,407,4.69336,0.160706,0,0,0,0,0,0,0,-1,1728,617,4.69337,-0.1607
511,407,4.07104,-0.00140381,0,0,0,0,0,0,0,-1,1735,617,4.07109,0.00141425
518,407,6.09534,1.9411,0,0,0,0,0,0,0,-1,1742,617,6.09532,-1.94113
525,407,5.72534,-1.35986,0,0,0,0,0,0,0,-1,1749,617,5.72529,1.35988
532,407,7.31763,-2.34937,0,0,0,0,0,0,0,-1,1756,617,7.31766,2.34937
539,407,10.298,-4.02643,0,0,0,0,0,0,0,-1,1763,617,10.298,4.02644
546,407,10.3457,-3.70416,-0.000310942,0.0037905,0.00148124,0.00426951,-0.00078995,1.25803,0.00314292,0.0152496,1770,617,10.3457,3.70418
553,407,10.3489,-3.41229,-0.000595192,0.00285082,0.000886239,0.00306538,-0.000809754,1.33326,0.00236027,0.0140501,1777,617,10.3489,3.41227
560,407,10.3798,-3.08594,-0.0006994,0.00216238,0.000526459,0.00225616,-0.000793175,1.39452,0.00182683,0.0146042,1784,617,10.3797,3.08592
567,407,10.3806,-2.79309,-0.000576914,0.00164235,0.000381332,0.00170605,-0.000640609,1.40529,0.00140062,0.026822,1791,617,10.3806,2.79309
574,407,10.3488,-2.51843,-8.65846e-05,0.00137842,0.000532676,0.00155163,-0.000259788,1.25642,0.001131,0.024608,1798,617,10.3487,2.51845
581,407,10.3252,-2.19385,0.000615514,0.00136264,0.000887967,0.00195242,2.5733e-05,0.984508,0.00129312,0.0166841,1805,617,10.3252,2.19382
588,407,10.3363,-1.94586,0.00144271,0.00159286,0.00143731,0.00295705,7.85172e-05,0.811491,0.00194572,0.0115372,1812,617,10.3363,1.94589
595,407,10.373,-1.62842,0.00255553,0.00209694,0.00223143,0.00456941,8.30546e-05,0.7342,0.00301897,0.0222279,1819,617,10.373,1.62841
602,407,10.3668,-1.31317,0.00376185,0.00289936,0.00323215,0.0065914,6.98117e-05,0.719078,0.00437119,0.0188819,1826,617,10.3668,1.31318
609,407,10.3171,-0.992981,0.00481583,0.00380202,0.00425776,0.00859675,2.10954e-05,0.72615,0.00572415,0.0159854,1833,617,10.3171,0.99296
616,407,10.3785,-0.590942,0.00591455,0.00534588,0.00565928,0.0112966,-3.62014e-05,0.760298,0.00754318,0.0280769,1840,617,10.3785,0.590965
623,407,10.5918,-0.10968,0,0,0,0,0,0,0,-1,1847,617,10.5917,0.109709
630,407,7.06177,0.814575,0,0,0,0,0,0,0,-1,1854,617,7.06178,-0.814579
637,407,6.27808,1.17114,0,0,0,0,0,0,0,-1,1861,617,6.27803,-1.17116
644,407,5.09766,2.27747,0,0,0,0,0,0,0,-1,1868,617,5.09764,-2.27746
651,407,7.37524,0.0513916,0,0,0,0,0,0,0,-1,1875,617,7.3752,-0.0513923
658,407,3.76685,0.594177,0,0,0,0,0,0,0,-1,1882,617,3.76683,-0.594184
665,407,5.76123,0.375061,0,0,0,0,0,0,0,-1,1889,617,5.76118,-0.37509
672,407,0,0,0,0,0,0,0,0,0,-1,1896,617,0,0
679,407,0,0,0,0,0,0,0,0,0,-1,1903,617,0,0
686,407,0,0,0,0,0,0,0,0,0,-1,1910,617,0,0
693,407,0,0,0,0,0,0,0,0,0,-1,1917,617,0,0
700,407,0,0,0,0,0,0,0,0,0,-1,1924,617,0,0
707,407,0,0,0,0,0,0,0,0,0,-1,1931,617,0,0
714,407,0,0,0,0,0,0,0,0,0,-1,1938,617,0,0
721,407,0,0,0,0,0,0,0,0,0,-1,1945,617,0,0
728,407,0,0,0,0,0,0,0,0,0,-1,1952,617,0,0
735,407,0,0,0,0,0,0,0,0,0,-1,1959,617,0,0
742,407,0,0,0,0,0,0,0,0,0,-1,1966,617,0,0
749,407,0,0,0,0,0,0,0,0,0,-1,1973,617,0,0
756,407,0,0,0,0,0,0,0,0,0,-1,1980,617,0,0
763,407,0,0,0,0,0,0,0,0,0,-1,1987,617,0,0
770,407,0,0,0,0,0,0,0,0,0,-1,1994,617,0,0
777,407,0,0,0,0,0,0,0,0,0,-1,2001,617,0,0
784,407,0,0,0,0,0,0,0,0,0,-1,2008,617,0,0
791,407,0,0,0,0,0,0,0,0,0,-1,2015,617,0,0
798,407,0,0,0,0,0,0,0,0,0,-1,2022,617,0,0
805,407,0,0,0,0,0,0,0,0,0,-1,2029,617,0,0
812,407,0,0,0,0,0,0,0,0,0,-1,2036,617,0,0
-700,400,0,0,0,0,0,0,0,0,0,-1,524,624,0,0
-693,400,0,0,0,0,0,0,0,0,0,-1,531,624,0,0
-686,400,0,0,0,0,0,0,0,0,0,-1,538,624,0,0
-679,400,0,0,0,0,0,0,0,0,0,-1,545,624,0,0
-672,400,0,0,0,0,0,0,0,0,0,-1,552,624,0,0
-665,400,0,0,0,0,0,0,0,0,0,-1,559,624,0,0
-658,400,0,0,0,0,0,0,0,0,0,-1,566,624,0,0
-651,400,0,0,0,0,0,0,0,0,0,-1,573,624,0,0
-644,400,0,0,0,0,0,0,0,0,0,-1,580,624,0,0
-637,400,0,0,0,0,0,0,0,0,0,-1,587,624,0,0
-630,400,0,0,0,0,0,0,0,0,0,-1,594,624,0,0
-623,400,0,0,0,0,0,0,0,0,0,-1,601,624,0,0
-616,400,0,0,0,0,0,0,0,0,0,-1,608,624,0,0
-609,400,0,0,0,0,0,0,0,0,0,-1,615,624,0,0
-602,400,0,0,0,0,0,0,0,0,0,-1,622,624,0,0
-595,400,0,0,0,0,0,0,0,0,0,-1,629,624,0,0
-588,400,0,0,0,0,0,0,0,0,0,-1,636,624,0,0
-581,400,0,0,0,0,0,0,0,0,0,-1,643,624,0,0
-574,400,0,0,0,0,0,0,0,0,0,-1,650,624,0,0
-567,400,0,0,0,0,0,0,0,0,0,-1,657,624,0,0
-560,400,0,0,0,0,0,0,0,0,0,-1,664,624,0,0
-553,400,0,0,0,0,0,0,0,0,0,-1,671,624,0,0
-546,400,-8.41174,-1.4599,0,0,0,0,0,0,0,-1,678,624,-8.41173,1.45989
-539,400,-5.69104,-1.7337,0,0,0,0,0,0,0,-1,685,624,-5.69103,1.7337
-532,400,-3.03632,-2.03912,0,0,0,0,0,0,0,-1,692,624,-3.03632,2.03909
-525,400,-4.15131,-1.84991,0,0,0,0,0,0,0,-1,699,624,-4.15132,1.84992
-518,400,-4.13989,-2.88776,0,0,0,0,0,0,0,-1,706,624,-4.13989,2.88776
-511,400,-2.80286,-1.59778,0,0,0,0,0,0,0,-1,713,624,-2.80286,1.59778
-504,400,-4.73059,-2.49316,0,0,0,0,0,0,0,-1,720,624,-4.7306,2.49317
-497,400,-4.54883,-2.40613,-0.00199745,0.0123152,-0.00695892,0.0151408,-0.00482308,-1.18509,0.0120284,0.0328001,727,624,-4.54884,2.40616
-490,400,-4.55725,-2.49255,-0.000655479,0.0086323,-0.00507812,0.0108698,-0.00289294,-1.15578,0.00837898,0.0160423,734,624,-4.55726,2.49258
-483,400,-4.58698,-2.80573,0.000414318,0.00586848,-0.00383604,0.00784801,-0.00156521,-1.0944,0.00582428,0.014452,741,624,-4.58696,2.8057
-476,400,-4.57709,-3.06561,0.00111867,0.00405284,-0.00298171,0.00590884,-0.000737335,-1.01402,0.0042066,0.0127042,748,624,-4.57712,3.06564
-469,400,-4.56964,-3.33527,0.001507,0.00284135,-0.00237424,0.00464037,-0.000292019,-0.922369,0.00319537,0.0140686,755,624,-4.56963,3.33526
-462,400,-4.58508,-3.63214,0.00149541,0.00191614,-0.00181466,0.00353258,-0.000121034,-0.843103,0.00239642,0.0183408,762,624,-4.5851,3.63216
-455,400,-4.58521,-3.91937,0.00127852,0.00105983,-0.00116554,0.00233983,-1.48651e-06,-0.738629,0.00156038,0.0192306,769,624,-4.58518,3.91936
-448,400,-4.59711,-4.20044,0.00087473,0.000149585,-0.00046952,0.00110538,-8.10611e-05,-0.456613,0.00076537,0.0150092,776,624,-4.59708,4.20046
-441,400,-4.60223,-4.47174,9.25049e-05,-0.000701408,0.000344202,0.000220952,-0.000829855,0.35717,0.000639735,0.0144092,783,624,-4.60226,4.47174
-434,400,-4.61365,-4.74579,-0.00115009,-0.00203917,0.00150099,-2.91996e-05,-0.00316006,0.64143,0.00209704,0.0110684,790,624,-4.61364,4.7458
-427,400,-4.60553,-5.02826,-0.00267328,-0.00342619,0.00281412,-0.000210543,-0.00588892,0.718906,0.00385768,0.0096475,797,624,-4.60553,5.02824
-420,400,-4.55328,-5.33081,-0.00446822,-0.00511054,0.004289,-0.00048837,-0.00909038,0.748028,0.0059042,0.0130595,804,624,-4.55325,5.33083
-413,400,-4.59674,-5.58142,-0.00695905,-0.00729448,0.00644781,-0.000676773,-0.0135768,0.772396,0.00883422,0.028954,811,624,-4.59675,5.58143
-406,400,-4.91907,-5.73071,-0.0104007,-0.010307,0.00925704,-0.00109668,-0.019611,0.78793,0.0127242,0.0404693,818,624,-4.91904,5.73074
-399,400,-4.41382,-5.57648,0,0,0,0,0,0,0,-1,825,624,-4.41382,5.5765
-392,400,-4.48651,-5.83325,0,0,0,0,0,0,0,-1,832,624,-4.48654,5.83326
-385,400,-3.68738,-5.04205,0,0,0,0,0,0,0,-1,839,624,-3.68736,5.04207
-378,400,-6.84064,-1.28662,0,0,0,0,0,0,0,-1,846,624,-6.84062,1.28662
-371,400,-6.98865,-1.2572,0,0,0,0,0,0,0,-1,853,624,-6.98865,1.25721
-364,400,-6.97247,-1.24133,0,0,0,0,0,0,0,-1,860,624,-6.97249,1.24135
-357,400,-7.18329,-1.23218,0,0,0,0,0,0,0,-1,867,624,-7.18327,1.2322
-350,400,-7.40186,-1.19409,0,0,0,0,0,0,0,-1,874,624,-7.40187,1.19407
-343,400,-8.09357,-1.51147,0,0,0,0,0,0,0,-1,881,624,-8.09355,1.51148
-336,400,0,0,0,0,0,0,0,0,0,-1,888,624,0,0
-329,400,0,0,0,0,0,0,0,0,0,-1,895,624,0,0
-322,400,0,0,0,0,0,0,0,0,0,-1,902,624,0,0
-315,400,0,0,0,0,0,0,0,0,0,-1,909,624,0,0
-308,400,0,0,0,0,0,0,0,0,0,-1,916,624,0,0
-301,400,0,0,0,0,0,0,0,0,0,-1,923,624,0,0
-294,400,0,0,0,0,0,0,0,0,0,-1,930,624,0,0
-287,400,0,0,0,0,0,0,0,0,0,-1,937,624,0,0
-280,400,0,0,0,0,0,0,0,0,0,-1,944,624,0,0
-273,400,0,0,0,0,0,0,0,0,0,-1,951,624,0,0
-266,400,0,0,0,0,0,0,0,0,0,-1,958,624,0,0
-259,400,0,0,0,0,0,0,0,0,0,-1,965,624,0,0
-252,400,0,0,0,0,0,0,0,0,0,-1,972,624,0,0
-245,400,0,0,0,0,0,0,0,0,0,-1,979,624,0,0
-238,400,0,0,0,0,0,0,0,0,0,-1,986,624,0,0
-231,400,0,0,0,0,0,0,0,0,0,-1,993,624,0,0
-224,400,0,0,0,0,0,0,0,0,0,-1,1000,624,0,0
-217,400,0,0,0,0,0,0,0,0,0,-1,1007,624,0,0
-210,400,0,0,0,0,0,0,0,0,0,-1,1014,624,0,0
-203,400,0,0,0,0,0,0,0,0,0,-1,1021,624,0,0
-196,400,0,0,0,0,0,0,0,0,0,-1,1028,624,0,0
-189,400,0,0,0,0,0,0,0,0,0,-1,1035,624,0,0
-182,400,0,0,0,0,0,0,0,0,0,-1,1042,624,0,0
-175,400,0,0,0,0,0,0,0,0,0,-1,1049,624,0,0
-168,400,0,0,0,0,0,0,0,0,0,-1,1056,624,0,0
-161,400,0,0,0,0,0,0,0,0,0,-1,1063,624,0,0
-154,400,0,0,0,0,0,0,0,0,0,-1,1070,624,0,0
-147,400,0,0,0,0,0,0,0,0,0,-1,1077,624,0,0
-140,400,0,0,0,0,0,0,0,0,0,-1,1084,624,0,0
-133,400,0,0,0,0,0,0,0,0,0,-1,1091,624,0,0
-126,400,0,0,0,0,0,0,0,0,0,-1,1098,624,0,0
-119,400,0,0,0,0,0,0,0,0,0,-1,1105,624,0,0
-112,400,0,0,0,0,0,0,0,0,0,-1,1112,624,0,0
-105,400,0,0,0,0,0,0,0,0,0,-1,1119,624,0,0
-98,400,0,0,0,0,0,0,0,0,0,-1,1126,624,0,0
-91,400,0,0,0,0,0,0,0,0,0,-1,1133,624,0,0
-84,400,0,0,0,0,0,0,0,0,0,-1,1140,624,0,0
-77,400,0,0,0,0,0,0,0,0,0,-1,1147,624,0,0
-70,400,0,0,0,0,0,0,0,0,0,-1,1154,624,0,0
-63,400,0,0,0,0,0,0,0,0,0,-1,1161,624,0,0
-56,400,0,0,0,0,0,0,0,0,0,-1,1168,624,0,0
-49,400,0,0,0,0,0,0,0,0,0,-1,1175,624,0,0
-42,400,0,0,0,0,0,0,0,0,0,-1,1182,624,0,0
-35,400,0,0,0,0,0,0,0,0,0,-1,1189,624,0,0
-28,400,0,0,0,0,0,0,0,0,0,-1,1196,624,0,0
-21,400,0,0,0,0,0,0,0,0,0,-1,1203,624,0,0
-14,400,0,0,0,0,0,0,0,0,0,-1,1210,624,0,0
-7,400,0,0,0,0,0,0,0,0,0,-1,1217,624,0,0
0,400,0,0,0,0,0,0,0,0,0,-1,1224,624,0,0
7,400,0,0,0,0,0,0,0,0,0,-1,1231,624,0,0
14,400,0,0,0,0,0,0,0,0,0,-1,1238,624,0,0
21,400,0,0,0,0,0,0,0,0,0,-1,1245,624,0,0
28,400,0,0,0,0,0,0,0,0,0,-1,1252,624,0,0
35,400,0,0,0,0,0,0,0,0,0,-1,1259,624,0,0
42,400,0,0,0,0,0,0,0,0,0,-1,1266,624,0,0
49,400,0,0,0,0,0,0,0,0,0,-1,1273,624,0,0
56,400,0,0,0,0,0,0,0,0,0,-1,1280,624,0,0
63,400,0,0,0,0,0,0,0,0,0,-1,1287,624,0,0
70,400,0,0,0,0,0,0,0,0,0,-1,1294,624,0,0
77,400,0,0,0,0,0,0,0,0,0,-1,1301,624,0,0
84,400,0,0,0,0,0,0,0,0,0,-1,1308,624,0,0
91,400,0,0,0,0,0,0,0,0,0,-1,1315,624,0,0
98,400,0,0,0,0,0,0,0,0,0,-1,1322,624,0,0
105,400,0,0,0,0,0,0,0,0,0,-1,1329,624,0,0
112,400,0,0,0,0,0,0,0,0,0,-1,1336,624,0,0
119,400,0,0,0,0,0,0,0,0,0,-1,1343,624,0,0
126,400,0,0,0,0,0,0,0,0,0,-1,1350,624,0,0
133,400,0,0,0,0,0,0,0,0,0,-1,1357,624,0,0
140,400,0,0,0,0,0,0,0,0,0,-1,1364,624,0,0
147,400,0,0,0,0,0,0,0,0,0,-1,1371,624,0,0
154,400,0,0,0,0,0,0,0,0,0,-1,1378,624,0,0
161,400,0,0,0,0,0,0,0,0,0,-1,1385,624,0,0
168,400,0,0,0,0,0,0,0,0,0,-1,1392,624,0,0
175,400,0,0,0,0,0,0,0,0,0,-1,1399,624,0,0
182,400,0,0,0,0,0,0,0,0,0,-1,1406,624,0,0
189,400,0,0,0,0,0,0,0,0,0,-1,1413,624,0,0
196,400,0,0,0,0,0,0,0,0,0,-1,1420,624,0,0
203,400,0,0,0,0,0,0,0,0,0,-1,1427,624,0,0
210,400,0,0,0,0,0,0,0,0,0,-1,1434,624,0,0
217,400,0,0,0,0,0,0,0,0,0,-1,1441,624,0,0
224,400,0,0,0,0,0,0,0,0,0,-1,1448,624,0,0
231,400,0,0,0,0,0,0,0,0,0,-1,1455,624,0,0
238,400,0,0,0,0,0,0,0,0,0,-1,1462,624,0,0
245,400,0,0,0,0,0,0,0,0,0,-1,1469,624,0,0
252,400,0,0,0,0,0,0,0,0,0,-1,1476,624,0,0
259,400,0,0,0,0,0,0,0,0,0,-1,1483,624,0,0
266,400,0,0,0,0,0,0,0,0,0,-1,1490,624,0,0
273,400,0,0,0,0,0,0,0,0,0,-1,1497,624,0,0
280,400,0,0,0,0,0,0,0,0,0,-1,1504,624,0,0
287,400,0,0,0,0,0,0,0,0,0,-1,1511,624,0,0
294,400,0,0,0,0,0,0,0,0,0,-1,1518,624,0,0
301,400,0,0,0,0,0,0,0,0,0,-1,1525,624,0,0
308,400,0,0,0,0,0,0,0,0,0,-1,1532,624,0,0
315,400,0,0,0,0,0,0,0,0,0,-1,1539,624,0,0
322,400,0,0,0,0,0,0,0,0,0,-1,1546,624,0,0
329,400,0,0,0,0,0,0,0,0,0,-1,1553,624,0,0
336,400,0,0,0,0,0,0,0,0,0,-1,1560,624,0,0
343,400,0,0,0,0,0,0,0,0,0,-1,1567,624,0,0
350,400,0,0,0,0,0,0,0,0,0,-1,1574,624,0,0
357,400,0,0,0,0,0,0,0,0,0,-1,1581,624,0,0
364,400,0,0,0,0,0,0,0,0,0,-1,1588,624,0,0
371,400,0,0,0,0,0,0,0,0,0,-1,1595,624,0,0
378,400,0,0,0,0,0,0,0,0,0,-1,1602,624,0,0
385,400,0,0,0,0,0,0,0,0,0,-1,1609,624,0,0
392,400,0,0,0,0,0,0,0,0,0,-1,1616,624,0,0
399,400,0,0,0,0,0,0,0,0,0,-1,1623,624,0,0
406,400,0,0,0,0,0,0,0,0,0,-1,1630,624,0,0
413,400,0,0,0,0,0,0,0,0,0,-1,1637,624,0,0
420,400,0,0,0,0,0,0,0,0,0,-1,1644,624,0,0
427,400,0,0,0,0,0,0,0,0,0,-1,1651,624,0,0
434,400,0,0,0,0,0,0,0,0,0,-1,1658,624,0,0
441,400,0,0,0,0,0,0,0,0,0,-1,1665,624,0,0
448,400,0,0,0,0,0,0,0,0,0,-1,1672,624,0,0
455,400,8.91309,2.75885,0,0,0,0,0,0,0,-1,1679,624,8.91312,-2.75885
462,400,8.90356,2.37878,0,0,0,0,0,0,0,-1,1686,624,8.90353,-2.37878
469,400,9.14429,1.76849,0,0,0,0,0,0,0,-1,1693,624,9.14432,-1.76847
476,400,9.23254,1.25995,0,0,0,0,0,0,0,-1,1700,624,9.23252,-1.25994
483,400,9.59766,0.562439,0,0,0,0,0,0,0,-1,1707,624,9.59771,-0.56242
490,400,9.92578,-0.213745,0,0,0,0,0,0,0,-1,1714,624,9.92579,0.21376
497,400,9.19141,0.175232,0,0,0,0,0,0,0,-1,1721,624,9.19138,-0.175209
504,400,9.23438,0.00823975,0,0,0,0,0,0,0,-1,1728,624,9.23436,-0.00823766
511,400,6.16687,3.3501,0,0,0,0,0,0,0,-1,1735,624,6.16682,-3.35007
518,400,6.55237,1.74994,0,0,0,0,0,0,0,-1,1742,624,6.55236,-1.74993
525,400,6.99731,1.08783,0,0,0,0,0,0,0,-1,1749,624,6.99736,-1.08785
532,400,6.96582,-1.74982,0,0,0,0,0,0,0,-1,1756,624,6.96585,1.74983
539,400,10.7194,-4.026,0,0,0,0,0,0,0,-1,1763,624,10.7194,4.02602
546,400,10.7067,-3.74817,-0.00153771,0.00488562,0.00139279,0.00517462,-0.00182671,1.3662,0.00419344,0.0297017,1770,624,10.7067,3.7482
553,400,10.6252,-3.40479,-0.00166386,0.00370809,0.000746084,0.00380979,-0.00176555,1.43533,0.00329026,0.0160096,1777,624,10.6253,3.40479
560,400,10.6642,-3.07257,-0.00161861,0.00282741,0.000357421,0.00285596,-0.00164716,1.49109,0.00263092,0.0127807,1784,624,10.6642,3.07255
567,400,10.6724,-2.79816,-0.00138464,0.00212512,0.000167183,0.00213307,-0.00139259,1.52331,0.00205045,0.0165456,1791,624,10.6724,2.79813
574,400,10.6563,-2.52063,-0.000815903,0.00170645,0.000260668,0.00173311,-0.000842559,1.46889,0.0015164,0.0188431,1798,624,10.6563,2.52065
581,400,10.6307,-2.21869,-3.33482e-05,0.00156231,0.00056957,0.00174475,-0.000215795,1.2608,0.00124137,0.0175067,1805,624,10.6307,2.21868
588,400,10.6283,-1.92169,0.00083449,0.00168461,0.00106315,0.00240452,0.000114578,0.97557,0.00156622,0.014069,1812,624,10.6283,1.92172
595,400,10.6433,-1.63092,0.00193295,0.00206984,0.00177383,0.00377654,0.000226251,0.804681,0.00244577,0.0139039,1819,624,10.6433,1.63091
602,400,10.6449,-1.31812,0.00304951,0.00273532,0.00266239,0.00555943,0.000225395,0.75593,0.00363348,0.0135607,1826,624,10.6449,1.31809
609,400,10.5958,-1.00012,0.00382305,0.00344954,0.00348649,0.00712779,0.000144807,0.758641,0.00470433,0.0128431,1833,624,10.5959,1.0001
616,400,10.6,-0.682861,0.0044936,0.00463164,0.00453106,0.00909421,3.10303e-05,0.793014,0.00605249,0.0159,1840,624,10.5999,0.68286
623,400,10.8702,-0.199585,0.00497899,0.00591941,0.00562815,0.011097,-0.000198557,0.827075,0.00746504,0.0454505,1847,624,10.8703,0.199588
630,400,11.2283,0.246521,0,0,0,0,0,0,0,-1,1854,624,11.2283,-0.246542
637,400,6.92896,1.01917,0,0,0,0,0,0,0,-1,1861,624,6.92899,-1.01918
644,400,8.65381,1.4599,0,0,0,0,0,0,0,-1,1868,624,8.65379,-1.45991
651,400,7.90601,0.424072,0,0,0,0,0,0,0,-1,1875,624,7.90598,-0.424097
658,400,8.69031,1.0484,0,0,0,0,0,0,0,-1,1882,624,8.6903,-1.0484
665,400,5.98438,0.522522,0,0,0,0,0,0,0,-1,1889,624,5.98442,-0.522552
672,400,0,0,0,0,0,0,0,0,0,-1,1896,624,0,0
679,400,0,0,0,0,0,0,0,0,0,-1,1903,624,0,0
686,400,0,0,0,0,0,0,0,0,0,-1,1910,624,0,0
693,400,0,0,0,0,0,0,0,0,0,-1,1917,624,0,0
700,400,0,0,0,0,0,0,0,0,0,-1,1924,624,0,0
707,400,0,0,0,0,0,0,0,0,0,-1,1931,624,0,0
714,400,0,0,0,0,0,0,0,0,0,-1,1938,624,0,0
721,400,0,0,0,0,0,0,0,0,0,-1,1945,624,0,0
728,400,0,0,0,0,0,0,0,0,0,-1,1952,624,0,0
735,400,0,0,0,0,0,0,0,0,0,-1,1959,624,0,0
742,400,0,0,0,0,0,0,0,0,0,-1,1966,624,0,0
749,400,0,0,0,0,0,0,0,0,0,-1,1973,624,0,0
756,400,0,0,0,0,0,0,0,0,0,-1,1980,624,0,0
763,400,0,0,0,0,0,0,0,0,0,-1,1987,624,0,0
770,400,0,0,0,0,0,0,0,0,0,-1,1994,624,0,0
777,400,0,0,0,0,0,0,0,0,0,-1,2001,624,0,0
784,400,0,0,0,0,0,0,0,0,0,-1,2008,624,0,0
791,400,0,0,0,0,0,0,0,0,0,-1,2015,624,0,0
798,400,0,0,0,0,0,0,0,0,0,-1,2022,624,0,0
805,400,0,0,0,0,0,0,0,0,0,-1,2029,624,0,0
812,400,0,0,0,0,0,0,0,0,0,-1,2036,624,0,0
-700,393,0,0,0,0,0,0,0,0,0,-1,524,631,0,0
-693,393,0,0,0,0,0,0,0,0,0,-1,531,631,0,0
-686,393,0,0,0,0,0,0,0,0,0,-1,538,631,0,0
-679,393,0,0,0,0,0,0,0,0,0,-1,545,631,0,0
-672,393,0,0,0,0,0,0,0,0,0,-1,552,631,0,0
-665,393,0,0,0,0,0,0,0,0,0,-1,559,631,0,0
-658,393,0,0,0,0,0,0,0,0,0,-1,566,631,0,0
-651,393,0,0,0,0,0,0,0,0,0,-1,573,631,0,0
-644,393,0,0,0,0,0,0,0,0,0,-1,580,631,0,0
-637,393,0,0,0,0,0,0,0,0,0,-1,587,631,0,0
-630,393,0,0,0,0,0,0,0,0,0,-1,594,631,0,0
-623,393,0,0,0,0,0,0,0,0,0,-1,601,631,0,0
-616,393,0,0,0,0,0,0,0,0,0,-1,608,631,0,0
-609,393,0,0,0,0,0,0,0,0,0,-1,615,631,0,0
-602,393,0,0,0,0,0,0,0,0,0,-1,622,631,0,0
-595,393,0,0,0,0,0,0,0,0,0,-1,629,631,0,0
-588,393,0,0,0,0,0,0,0,0,0,-1,636,631,0,0
-581,393,0,0,0,0,0,0,0,0,0,-1,643,631,0,0
-574,393,0,0,0,0,0,0,0,0,0,-1,650,631,0,0
-567,393,0,0,0,0,0,0,0,0,0,-1,657,631,0,0
-560,393,0,0,0,0,0,0,0,0,0,-1,664,631,0,0
-553,393,-2.35107,3.92633,0,0,0,0,0,0,0,-1,671,631,-2.35108,-3.92634
-546,393,-1.78778,2.4856,0,0,0,0,0,0,0,-1,678,631,-1.78778,-2.48557
-539,393,-5.2113,-2.20245,0,0,0,0,0,0,0,-1,685,631,-5.21128,2.20247
-532,393,-2.83643,-2.01624,0,0,0,0,0,0,0,-1,692,631,-2.83642,2.01626
-525,393,-4.27673,-1.18488,0,0,0,0,0,0,0,-1,699,631,-4.27673,1.1849
-518,393,-4.40167,-1.71326,0,0,0,0,0,0,0,-1,706,631,-4.40165,1.71326
-511,393,-4.86176,-1.44836,0,0,0,0,0,0,0,-1,713,631,-4.86176,1.44839
-504,393,-5.04407,-1.8808,0,0,0,0,0,0,0,-1,720,631,-5.04404,1.88081
-497,393,-4.74066,-2.04211,0,0,0,0,0,0,0,-1,727,631,-4.74065,2.04214
-490,393,-4.85834,-2.51819,-0.00143969,0.00732837,-0.00410351,0.00894921,-0.00306053,-1.19462,0.00720631,0.014469,734,631,-4.85835,2.51817
-483,393,-4.85815,-2.81171,-0.000210424,0.00465081,-0.00291363,0.00601455,-0.00157416,-1.13303,0.0046246,0.0191027,741,631,-4.85817,2.81172
-476,393,-4.85718,-3.05139,0.000666112,0.00306225,-0.00222761,0.00439353,-0.000665167,-1.03212,0.00317406,0.0154349,748,631,-4.85717,3.05137
-469,393,-4.85046,-3.31714,0.00119654,0.00213605,-0.00182776,0.00355346,-0.000220867,-0.911181,0.00244592,0.0124651,755,631,-4.85048,3.31715
-462,393,-4.86487,-3.63446,0.00127312,0.00142864,-0.00143077,0.00278377,-8.20069e-05,-0.812547,0.00188377,0.01519,762,631,-4.8649,3.63449
-455,393,-4.8811,-3.93744,0.00113469,0.000759129,-0.000906011,0.00187217,2.16421e-05,-0.683215,0.00124096,0.0141235,769,631,-4.88111,3.93743
-448,393,-4.90137,-4.23102,0.000805122,-4.87904e-05,-0.00030031,0.00090016,-0.000143828,-0.306494,0.000653348,0.0130749,776,631,-4.90135,4.23099
-441,393,-4.896,-4.49066,2.96063e-05,-0.00091187,0.000541218,0.000276162,-0.00115843,0.427466,0.000878921,0.0120594,783,631,-4.89598,4.49064
-434,393,-4.89294,-4.72913,-0.00131233,-0.00212297,0.00173204,6.11835e-05,-0.00349648,0.67046,0.00235165,0.0111738,790,631,-4.89292,4.72914
-427,393,-4.84253,-5.02649,-0.00301478,-0.00360431,0.00315043,-0.000145358,-0.00647374,0.738753,0.0042682,0.0174104,797,631,-4.84252,5.02651
-420,393,-4.83356,-5.29199,-0.00500136,-0.00549498,0.00481534,-0.000426508,-0.0100698,0.759793,0.00657566,0.0352931,804,631,-4.83355,5.29197
-413,393,-5.18005,-5.37512,-0.0079333,-0.00817213,0.00741759,-0.000634162,-0.0154713,0.777349,0.0101094,0.0498774,811,631,-5.18003,5.37511
-406,393,-5.53088,-5.88165,0,0,0,0,0,0,0,-1,818,631,-5.53086,5.88166
-399,393,-5.07343,-5.92365,0,0,0,0,0,0,0,-1,825,631,-5.07344,5.92364
-392,393,-2.08063,-3.02386,0,0,0,0,0,0,0,-1,832,631,-2.08063,3.02384
-385,393,-3.16931,-0.624756,0,0,0,0,0,0,0,-1,839,631,-3.16928,0.624764
-378,393,-7.33081,-0.872314,0,0,0,0,0,0,0,-1,846,631,-7.33081,0.872325
-371,393,-7.47858,-0.811096,0,0,0,0,0,0,0,-1,853,631,-7.47859,0.811075
-364,393,-7.64917,-0.662415,0,0,0,0,0,0,0,-1,860,631,-7.64917,0.662406
-357,393,-8.09686,-0.726013,0,0,0,0,0,0,0,-1,867,631,-8.09689,0.726029
-350,393,-8.38788,-0.511841,0,0,0,0,0,0,0,-1,874,631,-8.38785,0.511811
-343,393,0,0,0,0,0,0,0,0,0,-1,881,631,0,0
-336,393,0,0,0,0,0,0,0,0,0,-1,888,631,0,0
-329,393,0,0,0,0,0,0,0,0,0,-1,895,631,0,0
-322,393,0,0,0,0,0,0,0,0,0,-1,902,631,0,0
-315,393,0,0,0,0,0,0,0,0,0,-1,909,631,0,0
-308,393,0,0,0,0,0,0,0,0,0,-1,916,631,0,0
-301,393,0,0,0,0,0,0,0,0,0,-1,923,631,0,0
-294,393,0,0,0,0,0,0,0,0,0,-1,930,631,0,0
-287,393,0,0,0,0,0,0,0,0,0,-1,937,631,0,0
-280,393,0,0,0,0,0,0,0,0,0,-1,944,631,0,0
-273,393,0,0,0,0,0,0,0,0,0,-1,951,631,0,0
-266,393,0,0,0,0,0,0,0,0,0,-1,958,631,0,0
-259,393,0,0,0,0,0,0,0,0,0,-1,965,631,0,0
-252,393,0,0,0,0,0,0,0,0,0,-1,972,631,0,0
-245,393,0,0,0,0,0,0,0,0,0,-1,979,631,0,0
-238,393,0,0,0,0,0,0,0,0,0,-1,986,631,0,0
-231,393,0,0,0,0,0,0,0,0,0,-1,993,631,0,0
-224,393,0,0,0,0,0,0,0,0,0,-1,1000,631,0,0
-217,393,0,0,0,0,0,0,0,0,0,-1,1007,631,0,0
-210,393,0,0,0,0,0,0,0,0,0,-1,1014,631,0,0
-203,393,0,0,0,0,0,0,0,0,0,-1,1021,631,0,0
-196,393,0,0,0,0,0,0,0,0,0,-1,1028,631,0,0
-189,393,0,0,0,0,0,0,0,0,0,-1,1035,631,0,0
-182,393,0,0,0,0,0,0,0,0,0,-1,1042,631,0,0
-175,393,0,0,0,0,0,0,0,0,0,-1,1049,631,0,0
-168,393,0,0,0,0,0,0,0,0,0,-1,1056,631,0,0
-161,393,0,0,0,0,0,0,0,0,0,-1,1063,631,0,0
-154,393,0,0,0,0,0,0,0,0,0,-1,1070,631,0,0
-147,393,0,0,0,0,0,0,0,0,0,-1,1077,631,0,0
-140,393,0,0,0,0,0,0,0,0,0,-1,1084,631,0,0
-133,393,0,0,0,0,0,0,0,0,0,-1,1091,631,0,0
-126,393,0,0,0,0,0,0,0,0,0,-1,1098,631,0,0
-119,393,0,0,0,0,0,0,0,0,0,-1,1105,631,0,0
-112,393,0,0,0,0,0,0,0,0,0,-1,1112,631,0,0
-105,393,0,0,0,0,0,0,0,0,0,-1,1119,631,0,0
-98,393,0,0,0,0,0,0,0,0,0,-1,1126,631,0,0
-91,393,0,0,0,0,0,0,0,0,0,-1,1133,631,0,0
-84,393,0,0,0,0,0,0,0,0,0,-1,1140,631,0,0
-77,393,0,0,0,0,0,0,0,0,0,-1,1147,631,0,0
-70,393,0,0,0,0,0,0,0,0,0,-1,1154,631,0,0
-63,393,0,0,0,0,0,0,0,0,0,-1,1161,631,0,0
-56,393,0,0,0,0,0,0,0,0,0,-1,1168,631,0,0
-49,393,0,0,0,0,0,0,0,0,0,-1,1175,631,0,0
-42,393,0,0,0,0,0,0,0,0,0,-1,1182,631,0,0
-35,393,0,0,0,0,0,0,0,0,0,-1,1189,631,0,0
-28,393,0,0,0,0,0,0,0,0,0,-1,1196,631,0,0
-21,393,0,0,0,0,0,0,0,0,0,-1,1203,631,0,0
-14,393,0,0,0,0,0,0,0,0,0,-1,1210,631,0,0
-7,393,0,0,0,0,0,0,0,0,0,-1,1217,631,0,0
0,393,0,0,0,0,0,0,0,0,0,-1,1224,631,0,0
7,393,0,0,0,0,0,0,0,0,0,-1,1231,631,0,0
14,393,0,0,0,0,0,0,0,0,0,-1,1238,631,0,0
21,393,0,0,0,0,0,0,0,0,0,-1,1245,631,0,0
28,393,0,0,0,0,0,0,0,0,0,-1,1252,631,0,0
35,393,0,0,0,0,0,0,0,0,0,-1,1259,631,0,0
42,393,0,0,0,0,0,0,0,0,0,-1,1266,631,0,0
49,393,0,0,0,0,0,0,0,0,0,-1,1273,631,0,0
56,393,0,0,0,0,0,0,0,0,0,-1,1280,631,0,0
63,393,0,0,0,0,0,0,0,0,0,-1,1287,631,0,0
70,393,0,0,0,0,0,0,0,0,0,-1,1294,631,0,0
77,393,0,0,0,0,0,0,0,0,0,-1,1301,631,0,0
84,393,0,0,0,0,0,0,0,0,0,-1,1308,631,0,0
91,393,0,0,0,0,0,0,0,0,0,-1,1315,631,0,0
98,393,0,0,0,0,0,0,0,0,0,-1,1322,631,0,0
105,393,0,0,0,0,0,0,0,0,0,-1,1329,631,0,0
112,393,0,0,0,0,0,0,0,0,0,-1,1336,631,0,0
119,393,0,0,0,0,0,0,0,0,0,-1,1343,631,0,0
126,393,0,0,0,0,0,0,0,0,0,-1,1350,631,0,0
133,393,0,0,0,0,0,0,0,0,0,-1,1357,631,0,0
140,393,0,0,0,0,0,0,0,0,0,-1,1364,631,0,0
147,393,0,0,0,0,0,0,0,0,0,-1,1371,631,0,0
154,393,0,0,0,0,0,0,0,0,0,-1,1378,631,0,0
161,393,0,0,0,0,0,0,0,0,0,-1,1385,631,0,0
168,393,0,0,0,0,0,0,0,0,0,-1,1392,631,0,0
175,393,0,0,0,0,0,0,0,0,0,-1,1399,631,0,0
182,393,0,0,0,0,0,0,0,0,0,-1,1406,631,0,0
189,393,0,0,0,0,0,0,0,0,0,-1,1413,631,0,0
196,393,0,0,0,0,0,0,0,0,0,-1,1420,631,0,0
203,393,0,0,0,0,0,0,0,0,0,-1,1427,631,0,0
210,393,0,0,0,0,0,0,0,0,0,-1,1434,631,0,0
217,393,0,0,0,0,0,0,0,0,0,-1,1441,631,0,0
224,393,0,0,0,0,0,0,0,0,0,-1,1448,631,0,0
231,393,0,0,0,0,0,0,0,0,0,-1,1455,631,0,0
238,393,0,0,0,0,0,0,0,0,0,-1,1462,631,0,0
245,393,0,0,0,0,0,0,0,0,0,-1,1469,631,0,0
252,393,0,0,0,0,0,0,0,0,0,-1,1476,631,0,0
259,393,0,0,0,0,0,0,0,0,0,-1,1483,631,0,0
266,393,0,0,0,0,0,0,0,0,0,-1,1490,631,0,0
273,393,0,0,0,0,0,0,0,0,0,-1,1497,631,0,0
280,393,0,0,0,0,0,0,0,0,0,-1,1504,631,0,0
287,393,0,0,0,0,0,0,0,0,0,-1,1511,631,0,0
294,393,0,0,0,0,0,0,0,0,0,-1,1518,631,0,0
301,393,0,0,0,0,0,0,0,0,0,-1,1525,631,0,0
308,393,0,0,0,0,0,0,0,0,0,-1,1532,631,0,0
315,393,0,0,0,0,0,0,0,0,0,-1,1539,631,0,0
322,393,0,0,0,0,0,0,0,0,0,-1,1546,631,0,0
329,393,0,0,0,0,0,0,0,0,0,-1,1553,631,0,0
336,393,0,0,0,0,0,0,0,0,0,-1,1560,631,0,0
343,393,0,0,0,0,0,0,0,0,0,-1,1567,631,0,0
350,393,0,0,0,0,0,0,0,0,0,-1,1574,631,0,0
357,393,0,0,0,0,0,0,0,0,0,-1,1581,631,0,0
364,393,0,0,0,0,0,0,0,0,0,-1,1588,631,0,0
371,393,0,0,0,0,0,0,0,0,0,-1,1595,631,0,0
378,393,0,0,0,0,0,0,0,0,0,-1,1602,631,0,0
385,393,0,0,0,0,0,0,0,0,0,-1,1609,631,0,0
392,393,0,0,0,0,0,0,0,0,0,-1,1616,631,0,0
399,393,0,0,0,0,0,0,0,0,0,-1,1623,631,0,0
406,393,0,0,0,0,0,0,0,0,0,-1,1630,631,0,0
413,393,0,0,0,0,0,0,0,0,0,-1,1637,631,0,0
420,393,0,0,0,0,0,0,0,0,0,-1,1644,631,0,0
427,393,0,0,0,0,0,0,0,0,0,-1,1651,631,0,0
434,393,0,0,0,0,0,0,0,0,0,-1,1658,631,0,0
441,393,0,0,0,0,0,0,0,0,0,-1,1665,631,0,0
448,393,0,0,0,0,0,0,0,0,0,-1,1672,631,0,0
455,393,0,0,0,0,0,0,0,0,0,-1,1679,631,0,0
462,393,8.51099,1.89502,0,0,0,0,0,0,0,-1,1686,631,8.51103,-1.89504
469,393,9.39465,1.51703,0,0,0,0,0,0,0,-1,1693,631,9.39465,-1.51703
476,393,9.95569,1.185,0,0,0,0,0,0,0,-1,1700,631,9.95575,-1.18497
483,393,10.5267,0.887329,0,0,0,0,0,0,0,-1,1707,631,10.5267,-0.887321
490,393,10.9303,0.761414,0,0,0,0,0,0,0,-1,1714,631,10.9303,-0.761386
497,393,8.32153,1.88104,0,0,0,0,0,0,0,-1,1721,631,8.32148,-1.88103
504,393,9.46985,1.78711,0,0,0,0,0,0,0,-1,1728,631,9.46986,-1.78713
511,393,9.66565,-0.375977,0,0,0,0,0,0,0,-1,1735,631,9.66571,0.375949
518,393,7.01599,1.62482,0,0,0,0,0,0,0,-1,1742,631,7.01597,-1.62483
525,393,7.88245,-1.13422,0,0,0,0,0,0,0,-1,1749,631,7.88246,1.13423
532,393,7.06335,-1.18103,0,0,0,0,0,0,0,-1,1756,631,7.06332,1.18101
539,393,9.91626,-2.46301,0,0,0,0,0,0,0,-1,1763,631,9.91625,2.46302
546,393,10.8551,-3.67133,0,0,0,0,0,0,0,-1,1770,631,10.8551,3.6713
553,393,10.9509,-3.3999,-0.00317791,0.0048144,0.000663441,0.0048691,-0.00323261,1.48854,0.00470922,0.025668,1777,631,10.9509,3.39991
560,393,10.9753,-3.12079,-0.0029211,0.00366409,0.000194035,0.0036698,-0.00292681,1.54137,0.0038166,0.0140862,1784,631,10.9754,3.12081
567,393,10.9564,-2.80878,-0.00254085,0.00271304,-8.40753e-05,0.00271439,-0.0025422,-1.5548,0.00303544,0.013484,1791,631,10.9564,2.80878
574,393,10.9427,-2.53558,-0.00187433,0.00207525,-9.04873e-05,0.00207732,-0.0018764,-1.5479,0.00228366,0.014948,1798,631,10.9428,2.53556
581,393,10.9366,-2.22748,-0.000983003,0.00174503,0.000151101,0.00175337,-0.000991347,1.51563,0.00160489,0.0136298,1805,631,10.9366,2.22748
588,393,10.9258,-1.9118,-2.69517e-05,0.00171614,0.000585044,0.00189429,-0.000205105,1.2752,0.00133649,0.0152151,1812,631,10.9257,1.91183
595,393,10.9441,-1.59967,0.0011101,0.00195602,0.00121804,0.00282244,0.000243675,0.952509,0.00180589,0.0141004,1819,631,10.9441,1.59966
602,393,10.9396,-1.31366,0.00220644,0.00247134,0.00200865,0.00435191,0.000325879,0.818321,0.00279897,0.0161604,1826,631,10.9396,1.31363
609,393,10.9156,-1.00073,0.00284315,0.00302095,0.00268313,0.00561665,0.00024745,0.801958,0.00366474,0.0144534,1833,631,10.9157,1.00073
616,393,10.9043,-0.680725,0.00336438,0.00391289,0.00346877,0.00711823,0.000159038,0.824848,0.00469337,0.0142717,1840,631,10.9043,0.680735
623,393,10.9421,-0.316528,0.00363946,0.00491331,0.00424433,0.00856824,-1.54674e-05,0.859875,0.00571733,0.0227321,1847,631,10.9421,0.316541
630,393,11.1157,0.101624,0.00329061,0.006091,0.0047292,0.00962294,-0.000241322,0.929324,0.00649722,0.0479538,1854,631,11.1157,-0.10165
637,393,10.9474,0.709229,0,0,0,0,0,0,0,-1,1861,631,10.9474,-0.709203
644,393,8.97583,1.30585,0,0,0,0,0,0,0,-1,1868,631,8.97586,-1.30584
651,393,9.58679,0.726563,0,0,0,0,0,0,0,-1,1875,631,9.58684,-0.726583
658,393,9.21338,1.50836,0,0,0,0,0,0,0,-1,1882,631,9.21338,-1.50834
665,393,6.1001,2.32129,0,0,0,0,0,0,0,-1,1889,631,6.10012,-2.3213
672,393,7.14575,2.43225,0,0,0,0,0,0,0,-1,1896,631,7.14572,-2.43222
679,393,0,0,0,0,0,0,0,0,0,-1,1903,631,0,0
686,393,0,0,0,0,0,0,0,0,0,-1,1910,631,0,0
693,393,0,0,0,0,0,0,0,0,0,-1,1917,631,0,0
700,393,0,0,0,0,0,0,0,0,0,-1,1924,631,0,0
707,393,0,0,0,0,0,0,0,0,0,-1,1931,631,0,0
714,393,0,0,0,0,0,0,0,0,0,-1,1938,631,0,0
721,393,0,0,0,0,0,0,0,0,0,-1,1945,631,0,0
728,393,0,0,0,0,0,0,0,0,0,-1,1952,631,0,0
735,393,0,0,0,0,0,0,0,0,0,-1,1959,631,0,0
742,393,0,0,0,0,0,0,0,0,0,-1,1966,631,0,0
749,393,0,0,0,0,0,0,0,0,0,-1,1973,631,0,0
756,393,0,0,0,0,0,0,0,0,0,-1,1980,631,0,0
763,393,0,0,0,0,0,0,0,0,0,-1,1987,631,0,0
770,393,0,0,0,0,0,0,0,0,0,-1,1994,631,0,0
777,393,0,0,0,0,0,0,0,0,0,-1,2001,631,0,0
784,393,0,0,0,0,0,0,0,0,0,-1,2008,631,0,0
791,393,0,0,0,0,0,0,0,0,0,-1,2015,631,0,0
798,393,0,0,0,0,0,0,0,0,0,-1,2022,631,0,0
805,393,0,0,0,0,0,0,0,0,0,-1,2029,631,0,0
812,393,0,0,0,0,0,0,0,0,0,-1,2036,631,0,0
-700,386,0,0,0,0,0,0,0,0,0,-1,524,638,0,0
-693,386,0,0,0,0,0,0,0,0,0,-1,531,638,0,0
-686,386,0,0,0,0,0,0,0,0,0,-1,538,638,0,0
-679,386,0,0,0,0,0,0,0,0,0,-1,545,638,0,0
-672,386,0,0,0,0,0,0,0,0,0,-1,552,638,0,0
-665,386,0,0,0,0,0,0,0,0,0,-1,559,638,0,0
-658,386,0,0,0,0,0,0,0,0,0,-1,566,638,0,0
-651,386,0,0,0,0,0,0,0,0,0,-1,573,638,0,0
-644,386,0,0,0,0,0,0,0,0,0,-1,580,638,0,0
-637,386,0,0,0,0,0,0,0,0,0,-1,587,638,0,0
-630,386,0,0,0,0,0,0,0,0,0,-1,594,638,0,0
-623,386,0,0,0,0,0,0,0,0,0,-1,601,638,0,0
-616,386,0,0,0,0,0,0,0,0,0,-1,608,638,0,0
-609,386,0,0,0,0,0,0,0,0,0,-1,615,638,0,0
-602,386,0,0,0,0,0,0,0,0,0,-1,622,638,0,0
-595,386,0,0,0,0,0,0,0,0,0,-1,629,638,0,0
-588,386,0,0,0,0,0,0,0,0,0,-1,636,638,0,0
-581,386,0,0,0,0,0,0,0,0,0,-1,643,638,0,0
-574,386,0,0,0,0,0,0,0,0,0,-1,650,638,0,0
-567,386,0,0,0,0,0,0,0,0,0,-1,657,638,0,0
-560,386,-3.97229,-5.13898,0,0,0,0,0,0,0,-1,664,638,-3.97232,5.13897
-553,386,-4.94244,-5.54309,0,0,0,0,0,0,0,-1,671,638,-4.94242,5.5431
-546,386,-1.78668,1.72827,0,0,0,0,0,0,0,-1,678,638,-1.78668,-1.72829
-539,386,-0.879456,-2.90009,0,0,0,0,0,0,0,-1,685,638,-0.879442,2.90008
-532,386,-4.83362,1.61053,0,0,0,0,0,0,0,-1,692,638,-4.83361,-1.61051
-525,386,-4.48596,-1.06403,0,0,0,0,0,0,0,-1,699,638,-4.48595,1.06401
-518,386,-4.97113,-0.991394,0,0,0,0,0,0,0,-1,706,638,-4.97116,0.991419
-511,386,-4.9397,-1.51611,-0.00803608,0.0224468,-0.0121965,0.026726,-0.0123153,-1.23336,0.0230467,0.0470468,713,638,-4.93971,1.51609
-504,386,-5.09277,-1.95679,-0.0052369,0.0146555,-0.00811917,0.0175486,-0.00813,-1.22849,0.0151544,0.0299233,720,638,-5.09278,1.95677
-497,386,-5.16589,-2.24658,-0.00324678,0.00990353,-0.00545432,0.0118713,-0.00521459,-1.22455,0.010111,0.0126732,727,638,-5.16592,2.24658
-490,386,-5.14758,-2.54401,-0.00163435,0.00636503,-0.00344382,0.00764336,-0.00291268,-1.21537,0.00629523,0.0121286,734,638,-5.14756,2.54401
-483,386,-5.13544,-2.82837,-0.000304241,0.00375872,-0.00229636,0.00479321,-0.00133873,-1.14753,0.00372283,0.0166125,741,638,-5.13544,2.82837
-476,386,-5.1402,-3.07416,0.00068368,0.00234075,-0.00174703,0.00344575,-0.000421325,-1.00682,0.00244972,0.0152564,748,638,-5.14019,3.07417
-469,386,-5.15509,-3.34326,0.00130416,0.00162947,-0.00151585,0.00299136,-5.77352e-05,-0.838845,0.00201376,0.0113955,755,638,-5.15511,3.34327
-462,386,-5.14044,-3.64978,0.00142274,0.00109578,-0.00126077,0.00253058,-1.20623e-05,-0.720926,0.00169109,0.0113287,762,638,-5.14041,3.64977
-455,386,-5.16064,-3.93103,0.00129256,0.000595675,-0.000852092,0.0018647,2.35352e-05,-0.591309,0.00123536,0.0127898,769,638,-5.16064,3.93101
-448,386,-5.17401,-4.21588,0.000954908,-0.000113753,-0.000335822,0.00105168,-0.000210521,-0.280553,0.000780809,0.012496,776,638,-5.17402,4.21586
-441,386,-5.16791,-4.47235,0.000112522,-0.00100419,0.000531714,0.000325193,-0.00121686,0.380482,0.000938606,0.0124658,783,638,-5.16788,4.47237
-434,386,-5.11426,-4.77747,-0.00140198,-0.00207589,0.00175134,4.45228e-05,-0.0035224,0.69036,0.00236324,0.0222123,790,638,-5.11425,4.77748
-427,386,-5.04895,-5.06555,0,0,0,0,0,0,0,-1,797,638,-5.04898,5.06554
-420,386,-5.11761,-5.29645,0,0,0,0,0,0,0,-1,804,638,-5.1176,5.29646
-413,386,-5.45691,-5.35785,0,0,0,0,0,0,0,-1,811,638,-5.45691,5.35783
-406,386,-4.51135,-4.10999,0,0,0,0,0,0,0,-1,818,638,-4.51135,4.10996
-399,386,-3.57117,-3.42126,0,0,0,0,0,0,0,-1,825,638,-3.57116,3.42129
-392,386,-4.00977,0.403625,0,0,0,0,0,0,0,-1,832,638,-4.0098,-0.403616
-385,386,-3.2406,-0.118469,0,0,0,0,0,0,0,-1,839,638,-3.24058,0.118485
-378,386,-2.55243,-1.22748,0,0,0,0,0,0,0,-1,846,638,-2.55243,1.22748
-371,386,-7.95807,-0.330261,0,0,0,0,0,0,0,-1,853,638,-7.95806,0.330284
-364,386,-8.90637,-0.665955,0,0,0,0,0,0,0,-1,860,638,-8.90635,0.665951
-357,386,-9.10364,-0.388733,0,0,0,0,0,0,0,-1,867,638,-9.10364,0.388744
-350,386,0,0,0,0,0,0,0,0,0,-1,874,638,0,0
-343,386,0,0,0,0,0,0,0,0,0,-1,881,638,0,0
-336,386,0,0,0,0,0,0,0,0,0,-1,888,638,0,0
-329,386,0,0,0,0,0,0,0,0,0,-1,895,638,0,0
-322,386,0,0,0,0,0,0,0,0,0,-1,902,638,0,0
-315,386,0,0,0,0,0,0,0,0,0,-1,909,638,0,0
-308,386,0,0,0,0,0,0,0,0,0,-1,916,638,0,0
-301,386,0,0,0,0,0,0,0,0,0,-1,923,638,0,0
-294,386,0,0,0,0,0,0,0,0,0,-1,930,638,0,0
-287,386,0,0,0,0,0,0,0,0,0,-1,937,638,0,0
-280,386,0,0,0,0,0,0,0,0,0,-1,944,638,0,0
-273,386,0,0,0,0,0,0,0,0,0,-1,951,638,0,0
-266,386,0,0,0,0,0,0,0,0,0,-1,958,638,0,0
-259,386,0,0,0,0,0,0,0,0,0,-1,965,638,0,0
-252,386,0,0,0,0,0,0,0,0,0,-1,972,638,0,0
-245,386,0,0,0,0,0,0,0,0,0,-1,979,638,0,0
-238,386,0,0,0,0,0,0,0,0,0,-1,986,638,0,0
-231,386,0,0,0,0,0,0,0,0,0,-1,993,638,0,0
-224,386,0,0,0,0,0,0,0,0,0,-1,1000,638,0,0
-217,386,0,0,0,0,0,0,0,0,0,-1,1007,638,0,0
-210,386,0,0,0,0,0,0,0,0,0,-1,1014,638,0,0
-203,386,0,0,0,0,0,0,0,0,0,-1,1021,638,0,0
-196,386,0,0,0,0,0,0,0,0,0,-1,1028,638,0,0
-189,386,0,0,0,0,0,0,0,0,0,-1,1035,638,0,0
-182,386,0,0,0,0,0,0,0,0,0,-1,1042,638,0,0
-175,386,0,0,0,0,0,0,0,0,0,-1,1049,638,0,0
-168,386,0,0,0,0,0,0,0,0,0,-1,1056,638,0,0
-161,386,0,0,0,0,0,0,0,0,0,-1,1063,638,0,0
-154,386,0,0,0,0,0,0,0,0,0,-1,1070,638,0,0
-147,386,0,0,0,0,0,0,0,0,0,-1,1077,638,0,0
-140,386,0,0,0,0,0,0,0,0,0,-1,1084,638,0,0
-133,386,0,0,0,0,0,0,0,0,0,-1,1091,638,0,0
-126,386,0,0,0,0,0,0,0,0,0,-1,1098,638,0,0
-119,386,0,0,0,0,0,0,0,0,0,-1,1105,638,0,0
-112,386,0,0,0,0,0,0,0,0,0,-1,1112,638,0,0
-105,386,0,0,0,0,0,0,0,0,0,-1,1119,638,0,0
-98,386,0,0,0,0,0,0,0,0,0,-1,1126,638,0,0
-91,386,0,0,0,0,0,0,0,0,0,-1,1133,638,0,0
-84,386,0,0,0,0,0,0,0,0,0,-1,1140,638,0,0
-77,386,0,0,0,0,0,0,0,0,0,-1,1147,638,0,0
-70,386,0,0,0,0,0,0,0,0,0,-1,1154,638,0,0
-63,386,0,0,0,0,0,0,0,0,0,-1,1161,638,0,0
-56,386,0,0,0,0,0,0,0,0,0,-1,1168,638,0,0
-49,386,0,0,0,0,0,0,0,0,0,-1,1175,638,0,0
-42,386,0,0,0,0,0,0,0,0,0,-1,1182,638,0,0
-35,386,0,0,0,0,0,0,0,0,0,-1,1189,638,0,0
-28,386,0,0,0,0,0,0,0,0,0,-1,1196,638,0,0
-21,386,0,0,0,0,0,0,0,0,0,-1,1203,638,0,0
-14,386,0,0,0,0,0,0,0,0,0,-1,1210,638,0,0
-7,386,0,0,0,0,0,0,0,0,0,-1,1217,638,0,0
0,386,0,0,0,0,0,0,0,0,0,-1,1224,638,0,0
7,386,0,0,0,0,0,0,0,0,0,-1,1231,638,0,0
14,386,0,0,0,0,0,0,0,0,0,-1,1238,638,0,0
21,386,0,0,0,0,0,0,0,0,0,-1,1245,638,0,0
28,386,0,0,0,0,0,0,0,0,0,-1,1252,638,0,0
35,386,0,0,0,0,0,0,0,0,0,-1,1259,638,0,0
42,386,0,0,0,0,0,0,0,0,0,-1,1266,638,0,0
49,386,0,0,0,0,0,0,0,0,0,-1,1273,638,0,0
56,386,0,0,0,0,0,0,0,0,0,-1,1280,638,0,0
63,386,0,0,0,0,0,0,0,0,0,-1,1287,638,0,0
70,386,0,0,0,0,0,0,0,0,0,-1,1294,638,0,0
77,386,0,0,0,0,0,0,0,0,0,-1,1301,638,0,0
84,386,0,0,0,0,0,0,0,0,0,-1,1308,638,0,0
91,386,0,0,0,0,0,0,0,0,0,-1,1315,638,0,0
98,386,0,0,0,0,0,0,0,0,0,-1,1322,638,0,0
105,386,0,0,0,0,0,0,0,0,0,-1,1329,638,0,0
112,386,0,0,0,0,0,0,0,0,0,-1,1336,638,0,0
119,386,0,0,0,0,0,0,0,0,0,-1,1343,638,0,0
126,386,0,0,0,0,0,0,0,0,0,-1,1350,638,0,0
133,386,0,0,0,0,0,0,0,0,0,-1,1357,638,0,0
140,386,0,0,0,0,0,0,0,0,0,-1,1364,638,0,0
147,386,0,0,0,0,0,0,0,0,0,-1,1371,638,0,0
154,386,0,0,0,0,0,0,0,0,0,-1,1378,638,0,0
161,386,0,0,0,0,0,0,0,0,0,-1,1385,638,0,0
168,386,0,0,0,0,0,0,0,0,0,-1,1392,638,0,0
175,386,0,0,0,0,0,0,0,0,0,-1,1399,638,0,0
182,386,0,0,0,0,0,0,0,0,0,-1,1406,638,0,0
189,386,0,0,0,0,0,0,0,0,0,-1,1413,638,0,0
196,386,0,0,0,0,0,0,0,0,0,-1,1420,638,0,0
203,386,0,0,0,0,0,0,0,0,0,-1,1427,638,0,0
210,386,0,0,0,0,0,0,0,0,0,-1,1434,638,0,0
217,386,0,0,0,0,0,0,0,0,0,-1,1441,638,0,0
224,386,0,0,0,0,0,0,0,0,0,-1,1448,638,0,0
231,386,0,0,0,0,0,0,0,0,0,-1,1455,638,0,0
238,386,0,0,0,0,0,0,0,0,0,-1,1462,638,0,0
245,386,0,0,0,0,0,0,0,0,0,-1,1469,638,0,0
252,386,0,0,0,0,0,0,0,0,0,-1,1476,638,0,0
259,386,0,0,0,0,0,0,0,0,0,-1,1483,638,0,0
266,386,0,0,0,0,0,0,0,0,0,-1,1490,638,0,0
273,386,0,0,0,0,0,0,0,0,0,-1,1497,638,0,0
280,386,0,0,0,0,0,0,0,0,0,-1,1504,638,0,0
287,386,0,0,0,0,0,0,0,0,0,-1,1511,638,0,0
294,386,0,0,0,0,0,0,0,0,0,-1,1518,638,0,0
301,386,0,0,0,0,0,0,0,0,0,-1,1525,638,0,0
308,386,0,0,0,0,0,0,0,0,0,-1,1532,638,0,0
315,386,0,0,0,0,0,0,0,0,0,-1,1539,638,0,0
322,386,0,0,0,0,0,0,0,0,0,-1,1546,638,0,0
329,386,0,0,0,0,0,0,0,0,0,-1,1553,638,0,0
336,386,0,0,0,0,0,0,0,0,0,-1,1560,638,0,0
343,386,0,0,0,0,0,0,0,0,0,-1,1567,638,0,0
350,386,0,0,0,0,0,0,0,0,0,-1,1574,638,0,0
357,386,0,0,0,0,0,0,0,0,0,-1,1581,638,0,0
364,386,0,0,0,0,0,0,0,0,0,-1,1588,638,0,0
371,386,0,0,0,0,0,0,0,0,0,-1,1595,638,0,0
378,386,0,0,0,0,0,0,0,0,0,-1,1602,638,0,0
385,386,0,0,0,0,0,0,0,0,0,-1,1609,638,0,0
392,386,0,0,0,0,0,0,0,0,0,-1,1616,638,0,0
399,386,0,0,0,0,0,0,0,0,0,-1,1623,638,0,0
406,386,0,0,0,0,0,0,0,0,0,-1,1630,638,0,0
413,386,0,0,0,0,0,0,0,0,0,-1,1637,638,0,0
420,386,0,0,0,0,0,0,0,0,0,-1,1644,638,0,0
427,386,0,0,0,0,0,0,0,0,0,-1,1651,638,0,0
434,386,0,0,0,0,0,0,0,0,0,-1,1658,638,0,0
441,386,0,0,0,0,0,0,0,0,0,-1,1665,638,0,0
448,386,0,0,0,0,0,0,0,0,0,-1,1672,638,0,0
455,386,0,0,0,0,0,0,0,0,0,-1,1679,638,0,0
462,386,0,0,0,0,0,0,0,0,0,-1,1686,638,0,0
469,386,9.84692,1.55804,0,0,0,0,0,0,0,-1,1693,638,9.84691,-1.55807
476,386,10.6145,0.986511,0,0,0,0,0,0,0,-1,1700,638,10.6145,-0.986529
483,386,11.4113,0.732971,0,0,0,0,0,0,0,-1,1707,638,11.4112,-0.732958
490,386,7.79785,1.79572,0,0,0,0,0,0,0,-1,1714,638,7.79788,-1.7957
497,386,8.96362,1.77081,0,0,0,0,0,0,0,-1,1721,638,8.96357,-1.77081
504,386,10.0555,1.69427,0,0,0,0,0,0,0,-1,1728,638,10.0555,-1.69426
511,386,11.2172,1.534,0,0,0,0,0,0,0,-1,1735,638,11.2172,-1.53398
518,386,7.41553,1.75238,0,0,0,0,0,0,0,-1,1742,638,7.41547,-1.75238
525,386,8.82422,-1.1449,0,0,0,0,0,0,0,-1,1749,638,8.82426,1.14492
532,386,10.6432,0.617371,0,0,0,0,0,0,0,-1,1756,638,10.6432,-0.617359
539,386,9.62061,-0.393616,0,0,0,0,0,0,0,-1,1763,638,9.62059,0.393634
546,386,10.7963,-2.854,0,0,0,0,0,0,0,-1,1770,638,10.7962,2.854
553,386,11.3308,-3.46851,0,0,0,0,0,0,0,-1,1777,638,11.3308,3.46852
560,386,11.321,-3.0282,-0.00453366,0.00488496,0.000163891,0.00488781,-0.00453651,1.5534,0.00544239,0.0305745,1784,638,11.3211,3.02822
567,386,11.2261,-2.77039,-0.003911,0.0035475,-0.00025725,0.00355636,-0.00391986,-1.53636,0.0043181,0.0200585,1791,638,11.2261,2.7704
574,386,11.2401,-2.49554,-0.00309604,0.0025785,-0.000414735,0.00260865,-0.00312619,-1.49822,0.0033155,0.0144662,1798,638,11.2402,2.49556
581,386,11.2261,-2.20428,-0.00205874,0.00197626,-0.000278001,0.00199533,-0.0020778,-1.50233,0.00235178,0.0137738,1805,638,11.226,2.20426
588,386,11.2347,-1.90668,-0.000983302,0.00173379,7.04384e-05,0.00173562,-0.000985126,1.5449,0.00159062,0.0119727,1812,638,11.2348,1.90666
595,386,11.2388,-1.60876,0.00019918,0.00178643,0.000605386,0.00199097,-5.35988e-06,1.24497,0.0013291,0.0133513,1819,638,11.2388,1.60875
602,386,11.2284,-1.31677,0.00128124,0.00212408,0.00128429,0.00305432,0.000350998,0.943929,0.00192988,0.015855,1826,638,11.2284,1.31677
609,386,11.2493,-1.01373,0.00182252,0.00250059,0.0018183,0.00401119,0.000311923,0.877568,0.00257646,0.014878,1833,638,11.2492,1.01376
616,386,11.2426,-0.698364,0.00223813,0.00311908,0.00238765,0.00510654,0.000250672,0.876613,0.00332396,0.0114418,1840,638,11.2426,0.698389
623,386,11.2166,-0.387207,0.00233232,0.00386437,0.00292193,0.00611902,7.76686e-05,0.913596,0.0040537,0.00994917,1847,638,11.2165,0.387181
630,386,11.2927,-0.0767212,0.00176927,0.00468702,0.00318325,0.00672977,-0.000273485,1.00026,0.0045804,0.0225766,1854,638,11.2927,0.07674
637,386,11.2174,0.304321,0.00017496,0.00520364,0.00303064,0.00662715,-0.00124856,1.13168,0.00488774,0.048124,1861,638,11.2175,-0.304327
644,386,11.1366,0.764221,0,0,0,0,0,0,0,-1,1868,638,11.1366,-0.764251
651,386,9.3866,1.31097,0,0,0,0,0,0,0,-1,1875,638,9.3866,-1.31095
658,386,12.6449,-0.269226,0,0,0,0,0,0,0,-1,1882,638,12.6449,0.269219
665,386,6.33167,1.78601,0,0,0,0,0,0,0,-1,1889,638,6.33171,-1.78601
672,386,7.23352,2.14435,0,0,0,0,0,0,0,-1,1896,638,7.23353,-2.14433
679,386,8.07764,2.57104,0,0,0,0,0,0,0,-1,1903,638,8.07758,-2.57103
686,386,0,0,0,0,0,0,0,0,0,-1,1910,638,0,0
693,386,0,0,0,0,0,0,0,0,0,-1,1917,638,0,0
700,386,0,0,0,0,0,0,0,0,0,-1,1924,638,0,0
707,386,0,0,0,0,0,0,0,0,0,-1,1931,638,0,0
714,386,0,0,0,0,0,0,0,0,0,-1,1938,638,0,0
721,386,0,0,0,0,0,0,0,0,0,-1,1945,638,0,0
728,386,0,0,0,0,0,0,0,0,0,-1,1952,638,0,0
735,386,0,0,0,0,0,0,0,0,0,-1,1959,638,0,0
742,386,0,0,0,0,0,0,0,0,0,-1,1966,638,0,0
749,386,0,0,0,0,0,0,0,0,0,-1,1973,638,0,0
756,386,0,0,0,0,0,0,0,0,0,-1,1980,638,0,0
763,386,0,0,0,0,0,0,0,0,0,-1,1987,638,0,0
770,386,0,0,0,0,0,0,0,0,0,-1,1994,638,0,0
777,386,0,0,0,0,0,0,0,0,0,-1,2001,638,0,0
784,386,0,0,0,0,0,0,0,0,0,-1,2008,638,0,0
791,386,0,0,0,0,0,0,0,0,0,-1,2015,638,0,0
798,386,0,0,0,0,0,0,0,0,0,-1,2022,638,0,0
805,386,0,0,0,0,0,0,0,0,0,-1,2029,638,0,0
812,386,0,0,0,0,0,0,0,0,0,-1,2036,638,0,0
-700,379,0,0,0,0,0,0,0,0,0,-1,524,645,0,0
-693,379,0,0,0,0,0,0,0,0,0,-1,531,645,0,0
-686,379,0,0,0,0,0,0,0,0,0,-1,538,645,0,0
-679,379,0,0,0,0,0,0,0,0,0,-1,545,645,0,0
-672,379,0,0,0,0,0,0,0,0,0,-1,552,645,0,0
-665,379,0,0,0,0,0,0,0,0,0,-1,559,645,0,0
-658,379,0,0,0,0,0,0,0,0,0,-1,566,645,0,0
-651,379,0,0,0,0,0,0,0,0,0,-1,573,645,0,0
-644,379,0,0,0,0,0,0,0,0,0,-1,580,645,0,0
-637,379,0,0,0,0,0,0,0,0,0,-1,587,645,0,0
-630,379,0,0,0,0,0,0,0,0,0,-1,594,645,0,0
-623,379,0,0,0,0,0,0,0,0,0,-1,601,645,0,0
-616,379,0,0,0,0,0,0,0,0,0,-1,608,645,0,0
-609,379,0,0,0,0,0,0,0,0,0,-1,615,645,0,0
-602,379,0,0,0,0,0,0,0,0,0,-1,622,645,0,0
-595,379,0,0,0,0,0,0,0,0,0,-1,629,645,0,0
-588,379,0,0,0,0,0,0,0,0,0,-1,636,645,0,0
-581,379,0,0,0,0,0,0,0,0,0,-1,643,645,0,0
-574,379,0,0,0,0,0,0,0,0,0,-1,650,645,0,0
-567,379,-7.3252,3.01025,0,0,0,0,0,0,0,-1,657,645,-7.3252,-3.01025
-560,379,-7.63745,2.39099,0,0,0,0,0,0,0,-1,664,645,-7.63747,-2.39097
-553,379,-5.17108,-4.53119,0,0,0,0,0,0,0,-1,671,645,-5.17106,4.53117
-546,379,-6.23053,-4.92102,0,0,0,0,0,0,0,-1,678,645,-6.23054,4.92105
-539,379,-0.71698,-2.19427,0,0,0,0,0,0,0,-1,685,645,-0.716959,2.19427
-532,379,-5.2735,-0.0756836,0,0,0,0,0,0,0,-1,692,645,-5.27352,0.0757052
-525,379,-5.76624,-0.502075,0,0,0,0,0,0,0,-1,699,645,-5.76622,0.502092
-518,379,-5.60699,-1.28998,0,0,0,0,0,0,0,-1,706,645,-5.60699,1.29001
-511,379,-5.21844,-1.72693,-0.00815142,0.0209858,-0.0113794,0.0249033,-0.0120689,-1.23925,0.0217704,0.0337805,713,645,-5.21847,1.72693
-504,379,-5.35809,-1.99799,-0.00539195,0.0135314,-0.0074805,0.0161313,-0.00799184,-1.2363,0.0141893,0.0187261,720,645,-5.35811,1.99796
-497,379,-5.42688,-2.24274,-0.003389,0.00896564,-0.00490008,0.0106731,-0.00509648,-1.23549,0.00929241,0.0103911,727,645,-5.42689,2.24271
-490,379,-5.41913,-2.51825,-0.00169535,0.00554129,-0.00293748,0.00658355,-0.00273761,-1.22984,0.00553216,0.0108977,734,645,-5.41911,2.51823
-483,379,-5.39996,-2.80707,-0.00026518,0.00300865,-0.00184789,0.00384038,-0.00109691,-1.14786,0.00299365,0.0127676,741,645,-5.39997,2.80706
-476,379,-5.40131,-3.05591,0.000848457,0.00171325,-0.00140733,0.00275311,-0.000191404,-0.934444,0.00190242,0.012834,748,645,-5.40131,3.05593
-469,379,-5.43359,-3.31659,0.00159949,0.00116622,-0.00132703,0.00272745,3.82529e-05,-0.704489,0.00180568,0.0110908,755,645,-5.4336,3.31661
-462,379,-5.44952,-3.62677,0.00183431,0.000765123,-0.00121659,0.00262858,-2.91527e-05,-0.578389,0.00176219,0.00910505,762,645,-5.44953,3.62679
-455,379,-5.4455,-3.90692,0.00178538,0.000417513,-0.000940265,0.00226414,-6.12499e-05,-0.470964,0.00153025,0.00985877,769,645,-5.44552,3.90694
-448,379,-5.42462,-4.17352,0.00151922,-0.000196543,-0.000539994,0.00167502,-0.000352345,-0.280897,0.00125078,0.011909,776,645,-5.42463,4.17352
-441,379,-5.39227,-4.48114,0.000705997,-0.00112636,0.000320935,0.000760582,-0.00118094,0.16847,0.00112966,0.017377,783,645,-5.39229,4.48115
-434,379,-5.29218,-4.88348,0,0,0,0,0,0,0,-1,790,645,-5.29215,4.88347
-427,379,-4.16113,-4.13452,0,0,0,0,0,0,0,-1,797,645,-4.16116,4.1345
-420,379,-4.63953,-3.46869,0,0,0,0,0,0,0,-1,804,645,-4.63953,3.46872
-413,379,-4.62543,-3.7912,0,0,0,0,0,0,0,-1,811,645,-4.62541,3.79123
-406,379,-4.64063,-4.38489,0,0,0,0,0,0,0,-1,818,645,-4.64065,4.3849
-399,379,-2.93536,-1.40118,0,0,0,0,0,0,0,-1,825,645,-2.93534,1.40119
-392,379,-4.16711,-0.466003,0,0,0,0,0,0,0,-1,832,645,-4.16714,0.465992
-385,379,-3.51862,0.441101,0,0,0,0,0,0,0,-1,839,645,-3.51859,-0.441072
-378,379,-5.3504,0.212219,0,0,0,0,0,0,0,-1,846,645,-5.35038,-0.212241
-371,379,-4.32092,-0.186707,0,0,0,0,0,0,0,-1,853,645,-4.3209,0.186707
-364,379,-3.40887,-0.549805,0,0,0,0,0,0,0,-1,860,645,-3.4089,0.549802
-357,379,0,0,0,0,0,0,0,0,0,-1,867,645,0,0
-350,379,0,0,0,0,0,0,0,0,0,-1,874,645,0,0
-343,379,0,0,0,0,0,0,0,0,0,-1,881,645,0,0
-336,379,0,0,0,0,0,0,0,0,0,-1,888,645,0,0
-329,379,0,0,0,0,0,0,0,0,0,-1,895,645,0,0
-322,379,0,0,0,0,0,0,0,0,0,-1,902,645,0,0
-315,379,0,0,0,0,0,0,0,0,0,-1,909,645,0,0
-308,379,0,0,0,0,0,0,0,0,0,-1,916,645,0,0
-301,379,0,0,0,0,0,0,0,0,0,-1,923,645,0,0
-294,379,0,0,0,0,0,0,0,0,0,-1,930,645,0,0
-287,379,0,0,0,0,0,0,0,0,0,-1,937,645,0,0
-280,379,0,0,0,0,0,0,0,0,0,-1,944,645,0,0
-273,379,0,0,0,0,0,0,0,0,0,-1,951,645,0,0
-266,379,0,0,0,0,0,0,0,0,0,-1,958,645,0,0
-259,379,0,0,0,0,0,0,0,0,0,-1,965,645,0,0
-252,379,0,0,0,0,0,0,0,0,0,-1,972,645,0,0
-245,379,0,0,0,0,0,0,0,0,0,-1,979,645,0,0
-238,379,0,0,0,0,0,0,0,0,0,-1,986,645,0,0
-231,379,0,0,0,0,0,0,0,0,0,-1,993,645,0,0
-224,379,0,0,0,0,0,0,0,0,0,-1,1000,645,0,0
-217,379,0,0,0,0,0,0,0,0,0,-1,1007,645,0,0
-210,379,0,0,0,0,0,0,0,0,0,-1,1014,645,0,0
-203,379,0,0,0,0,0,0,0,0,0,-1,1021,645,0,0
-196,379,0,0,0,0,0,0,0,0,0,-1,1028,645,0,0
-189,379,0,0,0,0,0,0,0,0,0,-1,1035,645,0,0
-182,379,0,0,0,0,0,0,0,0,0,-1,1042,645,0,0
-175,379,0,0,0,0,0,0,0,0,0,-1,1049,645,0,0
-168,379,0,0,0,0,0,0,0,0,0,-1,1056,645,0,0
-161,379,0,0,0,0,0,0,0,0,0,-1,1063,645,0,0
-154,379,0,0,0,0,0,0,0,0,0,-1,1070,645,0,0
-147,379,0,0,0,0,0,0,0,0,0,-1,1077,645,0,0
-140,379,0,0,0,0,0,0,0,0,0,-1,1084,645,0,0
-133,379,0,0,0,0,0,0,0,0,0,-1,1091,645,0,0
-126,379,0,0,0,0,0,0,0,0,0,-1,1098,645,0,0
-119,379,0,0,0,0,0,0,0,0,0,-1,1105,645,0,0
-112,379,0,0,0,0,0,0,0,0,0,-1,1112,645,0,0
-105,379,0,0,0,0,0,0,0,0,0,-1,1119,645,0,0
-98,379,0,0,0,0,0,0,0,0,0,-1,1126,645,0,0
-91,379,0,0,0,0,0,0,0,0,0,-1,1133,645,0,0
-84,379,0,0,0,0,0,0,0,0,0,-1,1140,645,0,0
-77,379,0,0,0,0,0,0,0,0,0,-1,1147,645,0,0
-70,379,0,0,0,0,0,0,0,0,0,-1,1154,645,0,0
-63,379,0,0,0,0,0,0,0,0,0,-1,1161,645,0,0
-56,379,0,0,0,0,0,0,0,0,0,-1,1168,645,0,0
-49,379,0,0,0,0,0,0,0,0,0,-1,1175,645,0,0
-42,379,0,0,0,0,0,0,0,0,0,-1,1182,645,0,0
-35,379,0,0,0,0,0,0,0,0,0,-1,1189,645,0,0
-28,379,0,0,0,0,0,0,0,0,0,-1,1196,645,0,0
-21,379,0,0,0,0,0,0,0,0,0,-1,1203,645,0,0
-14,379,0,0,0,0,0,0,0,0,0,-1,1210,645,0,0
-7,379,0,0,0,0,0,0,0,0,0,-1,1217,645,0,0
0,379,0,0,0,0,0,0,0,0,0,-1,1224,645,0,0
7,379,0,0,0,0,0,0,0,0,0,-1,1231,645,0,0
14,379,0,0,0,0,0,0,0,0,0,-1,1238,645,0,0
21,379,0,0,0,0,0,0,0,0,0,-1,1245,645,0,0
28,379,0,0,0,0,0,0,0,0,0,-1,1252,645,0,0
35,379,0,0,0,0,0,0,0,0,0,-1,1259,645,0,0
42,379,0,0,0,0,0,0,0,0,0,-1,1266,645,0,0
49,379,0,0,0,0,0,0,0,0,0,-1,1273,645,0,0
56,379,0,0,0,0,0,0,0,0,0,-1,1280,645,0,0
63,379,0,0,0,0,0,0,0,0,0,-1,1287,645,0,0
70,379,0,0,0,0,0,0,0,0,0,-1,1294,645,0,0
77,379,0,0,0,0,0,0,0,0,0,-1,1301,645,0,0
84,379,0,0,0,0,0,0,0,0,0,-1,1308,645,0,0
91,379,0,0,0,0,0,0,0,0,0,-1,1315,645,0,0
98,379,0,0,0,0,0,0,0,0,0,-1,1322,645,0,0
105,379,0,0,0,0,0,0,0,0,0,-1,1329,645,0,0
112,379,0,0,0,0,0,0,0,0,0,-1,1336,645,0,0
119,379,0,0,0,0,0,0,0,0,0,-1,1343,645,0,0
126,379,0,0,0,0,0,0,0,0,0,-1,1350,645,0,0
133,379,0,0,0,0,0,0,0,0,0,-1,1357,645,0,0
140,379,0,0,0,0,0,0,0,0,0,-1,1364,645,0,0
147,379,0,0,0,0,0,0,0,0,0,-1,1371,645,0,0
154,379,0,0,0,0,0,0,0,0,0,-1,1378,645,0,0
161,379,0,0,0,0,0,0,0,0,0,-1,1385,645,0,0
168,379,0,0,0,0,0,0,0,0,0,-1,1392,645,0,0
175,379,0,0,0,0,0,0,0,0,0,-1,1399,645,0,0
182,379,0,0,0,0,0,0,0,0,0,-1,1406,645,0,0
189,379,0,0,0,0,0,0,0,0,0,-1,1413,645,0,0
196,379,0,0,0,0,0,0,0,0,0,-1,1420,645,0,0
203,379,0,0,0,0,0,0,0,0,0,-1,1427,645,0,0
210,379,0,0,0,0,0,0,0,0,0,-1,1434,645,0,0
217,379,0,0,0,0,0,0,0,0,0,-1,1441,645,0,0
224,379,0,0,0,0,0,0,0,0,0,-1,1448,645,0,0
231,379,0,0,0,0,0,0,0,0,0,-1,1455,645,0,0
238,379,0,0,0,0,0,0,0,0,0,-1,1462,645,0,0
245,379,0,0,0,0,0,0,0,0,0,-1,1469,645,0,0
252,379,0,0,0,0,0,0,0,0,0,-1,1476,645,0,0
259,379,0,0,0,0,0,0,0,0,0,-1,1483,645,0,0
266,379,0,0,0,0,0,0,0,0,0,-1,1490,645,0,0
273,379,0,0,0,0,0,0,0,0,0,-1,1497,645,0,0
280,379,0,0,0,0,0,0,0,0,0,-1,1504,645,0,0
287,379,0,0,0,0,0,0,0,0,0,-1,1511,645,0,0
294,379,0,0,0,0,0,0,0,0,0,-1,1518,645,0,0
301,379,0,0,0,0,0,0,0,0,0,-1,1525,645,0,0
308,379,0,0,0,0,0,0,0,0,0,-1,1532,645,0,0
315,379,0,0,0,0,0,0,0,0,0,-1,1539,645,0,0
322,379,0,0,0,0,0,0,0,0,0,-1,1546,645,0,0
329,379,0,0,0,0,0,0,0,0,0,-1,1553,645,0,0
336,379,0,0,0,0,0,0,0,0,0,-1,1560,645,0,0
343,379,0,0,0,0,0,0,0,0,0,-1,1567,645,0,0
350,379,0,0,0,0,0,0,0,0,0,-1,1574,645,0,0
357,379,0,0,0,0,0,0,0,0,0,-1,1581,645,0,0
364,379,0,0,0,0,0,0,0,0,0,-1,1588,645,0,0
371,379,0,0,0,0,0,0,0,0,0,-1,1595,645,0,0
378,379,0,0,0,0,0,0,0,0,0,-1,1602,645,0,0
385,379,0,0,0,0,0,0,0,0,0,-1,1609,645,0,0
392,379,0,0,0,0,0,0,0,0,0,-1,1616,645,0,0
399,379,0,0,0,0,0,0,0,0,0,-1,1623,645,0,0
406,379,0,0,0,0,0,0,0,0,0,-1,1630,645,0,0
413,379,0,0,0,0,0,0,0,0,0,-1,1637,645,0,0
420,379,0,0,0,0,0,0,0,0,0,-1,1644,645,0,0
427,379,0,0,0,0,0,0,0,0,0,-1,1651,645,0,0
434,379,0,0,0,0,0,0,0,0,0,-1,1658,645,0,0
441,379,0,0,0,0,0,0,0,0,0,-1,1665,645,0,0
448,379,0,0,0,0,0,0,0,0,0,-1,1672,645,0,0
455,379,0,0,0,0,0,0,0,0,0,-1,1679,645,0,0
462,379,0,0,0,0,0,0,0,0,0,-1,1686,645,0,0
469,379,0,0,0,0,0,0,0,0,0,-1,1693,645,0,0
476,379,11.1787,0.830383,0,0,0,0,0,0,0,-1,1700,645,11.1787,-0.830365
483,379,7.4231,1.54321,0,0,0,0,0,0,0,-1,1707,645,7.42314,-1.54324
490,379,8.52881,1.56677,0,0,0,0,0,0,0,-1,1714,645,8.52878,-1.56677
497,379,9.63599,1.49573,0,0,0,0,0,0,0,-1,1721,645,9.63604,-1.4957
504,379,10.0833,1.35229,0,0,0,0,0,0,0,-1,1728,645,10.0832,-1.35227
511,379,8.14343,1.59912,0,0,0,0,0,0,0,-1,1735,645,8.14347,-1.59912
518,379,12.7955,-0.324097,0,0,0,0,0,0,0,-1,1742,645,12.7955,0.324101
525,379,6.03711,1.10352,0,0,0,0,0,0,0,-1,1749,645,6.03711,-1.10351
532,379,8.70947,0.887817,0,0,0,0,0,0,0,-1,1756,645,8.70953,-0.887808
539,379,9.87097,0.111389,0,0,0,0,0,0,0,-1,1763,645,9.87095,-0.111395
546,379,8.42383,-0.730652,0,0,0,0,0,0,0,-1,1770,645,8.42378,0.730638
553,379,11.9213,-3.49274,0,0,0,0,0,0,0,-1,1777,645,11.9213,3.49271
560,379,11.7203,-3.05151,-0.0065887,0.00633714,6.07967e-05,0.00633742,-0.00658899,1.56609,0.00746354,0.0373512,1784,645,11.7204,3.0515
567,379,11.4668,-2.75024,-0.00556468,0.00453185,-0.000469207,0.00455361,-0.00558643,-1.52446,0.00586447,0.0241305,1791,645,11.4668,2.75024
574,379,11.5349,-2.46747,-0.00447224,0.0031794,-0.000734153,0.00324921,-0.00454205,-1.476,0.00451888,0.0138752,1798,645,11.535,2.46745
581,379,11.5457,-2.17139,-0.00317285,0.00227922,-0.000654589,0.00235671,-0.00325034,-1.45296,0.0032509,0.015959,1805,645,11.5456,2.17137
588,379,11.5514,-1.89081,-0.00188671,0.00181545,-0.000345767,0.00184747,-0.00191873,-1.47846,0.00217454,0.0177478,1812,645,11.5514,1.89082
595,379,11.5309,-1.61646,-0.000607286,0.00168529,0.000128352,0.00169246,-0.00061445,1.51504,0.00137951,0.0139531,1819,645,11.5308,1.61648
602,379,11.5387,-1.33563,0.000502221,0.00185669,0.000726108,0.00217237,0.000186541,1.16069,0.00139025,0.0143091,1826,645,11.5387,1.33561
609,379,11.5425,-1.04095,0.00100192,0.00207733,0.00115975,0.00281796,0.000261284,1.00247,0.00179789,0.0149445,1833,645,11.5425,1.04097
616,379,11.5248,-0.724426,0.00134146,0.00243859,0.00155119,0.00353536,0.000244692,0.955354,0.00227972,0.0117352,1840,645,11.5248,0.724435
623,379,11.533,-0.392395,0.00127283,0.00295129,0.00188894,0.00417904,4.50828e-05,0.994444,0.00277112,0.0109548,1847,645,11.533,0.392401
630,379,11.5349,-0.100098,0.000508915,0.00345284,0.00199288,0.00445842,-0.000496672,1.10348,0.00315092,0.0127092,1854,645,11.535,0.100084
637,379,11.5431,0.233948,-0.00121727,0.00377901,0.00174325,0.00432712,-0.00176538,1.26617,0.00361967,0.0206765,1861,645,11.5431,-0.23395
644,379,11.5443,0.641602,-0.00381334,0.003681,0.00109511,0.00383774,-0.00397009,1.42863,0.00450807,0.0347855,1868,645,11.5443,-0.641583
651,379,11.892,1.04712,0,0,0,0,0,0,0,-1,1875,645,11.892,-1.04712
658,379,11.3628,0.705017,0,0,0,0,0,0,0,-1,1882,645,11.3628,-0.705031
665,379,12.1384,0.0682373,0,0,0,0,0,0,0,-1,1889,645,12.1384,-0.0682143
672,379,7.57605,2.15326,0,0,0,0,0,0,0,-1,1896,645,7.57599,-2.15326
679,379,8.55078,2.50409,0,0,0,0,0,0,0,-1,1903,645,8.55073,-2.50406
686,379,0,0,0,0,0,0,0,0,0,-1,1910,645,0,0
693,379,0,0,0,0,0,0,0,0,0,-1,1917,645,0,0
700,379,0,0,0,0,0,0,0,0,0,-1,1924,645,0,0
707,379,0,0,0,0,0,0,0,0,0,-1,1931,645,0,0
714,379,0,0,0,0,0,0,0,0,0,-1,1938,645,0,0
721,379,0,0,0,0,0,0,0,0,0,-1,1945,645,0,0
728,379,0,0,0,0,0,0,0,0,0,-1,1952,645,0,0
735,379,0,0,0,0,0,0,0,0,0,-1,1959,645,0,0
742,379,0,0,0,0,0,0,0,0,0,-1,1966,645,0,0
749,379,0,0,0,0,0,0,0,0,0,-1,1973,645,0,0
756,379,0,0,0,0,0,0,0,0,0,-1,1980,645,0,0
763,379,0,0,0,0,0,0,0,0,0,-1,1987,645,0,0
770,379,0,0,0,0,0,0,0,0,0,-1,1994,645,0,0
777,379,0,0,0,0,0,0,0,0,0,-1,2001,645,0,0
784,379,0,0,0,0,0,0,0,0,0,-1,2008,645,0,0
791,379,0,0,0,0,0,0,0,0,0,-1,2015,645,0,0
798,379,0,0,0,0,0,0,0,0,0,-1,2022,645,0,0
805,379,0,0,0,0,0,0,0,0,0,-1,2029,645,0,0
812,379,0,0,0,0,0,0,0,0,0,-1,2036,645,0,0
-700,372,0,0,0,0,0,0,0,0,0,-1,524,652,0,0
-693,372,0,0,0,0,0,0,0,0,0,-1,531,652,0,0
-686,372,0,0,0,0,0,0,0,0,0,-1,538,652,0,0
-679,372,0,0,0,0,0,0,0,0,0,-1,545,652,0,0
-672,372,0,0,0,0,0,0,0,0,0,-1,552,652,0,0
-665,372,0,0,0,0,0,0,0,0,0,-1,559,652,0,0
-658,372,0,0,0,0,0,0,0,0,0,-1,566,652,0,0
-651,372,0,0,0,0,0,0,0,0,0,-1,573,652,0,0
-644,372,0,0,0,0,0,0,0,0,0,-1,580,652,0,0
-637,372,0,0,0,0,0,0,0,0,0,-1,587,652,0,0
-630,372,0,0,0,0,0,0,0,0,0,-1,594,652,0,0
-623,372,0,0,0,0,0,0,0,0,0,-1,601,652,0,0
-616,372,0,0,0,0,0,0,0,0,0,-1,608,652,0,0
-609,372,0,0,0,0,0,0,0,0,0,-1,615,652,0,0
-602,372,0,0,0,0,0,0,0,0,0,-1,622,652,0,0
-595,372,0,0,0,0,0,0,0,0,0,-1,629,652,0,0
-588,372,0,0,0,0,0,0,0,0,0,-1,636,652,0,0
-581,372,0,0,0,0,0,0,0,0,0,-1,643,652,0,0
-574,372,0,0,0,0,0,0,0,0,0,-1,650,652,0,0
-567,372,-7.41492,2.98999,0,0,0,0,0,0,0,-1,657,652,-7.41493,-2.99
-560,372,-7.70966,2.29407,0,0,0,0,0,0,0,-1,664,652,-7.70967,-2.29404
-553,372,-7.95551,1.61694,0,0,0,0,0,0,0,-1,671,652,-7.95552,-1.61697
-546,372,-4.2403,-3.75372,0,0,0,0,0,0,0,-1,678,652,-4.24028,3.75369
-539,372,-6.12787,1.69818,0,0,0,0,0,0,0,-1,685,652,-6.12788,-1.69816
-532,372,-5.59906,0.233154,0,0,0,0,0,0,0,-1,692,652,-5.59908,-0.233127
-525,372,-5.84698,-0.77594,0,0,0,0,0,0,0,-1,699,652,-5.84696,0.775942
-518,372,-5.67645,-1.35004,-0.0111735,0.0281536,-0.0153225,0.0334186,-0.0164385,-1.23982,0.0293362,0.0349416,706,652,-5.67647,1.35001
-511,372,-5.66736,-1.68945,-0.00806046,0.0191534,-0.0103062,0.0226159,-0.011523,-1.24668,0.0200539,0.019828,713,652,-5.66738,1.68944
-504,372,-5.70221,-1.95441,-0.00543859,0.0121883,-0.00668602,0.0144374,-0.00768768,-1.2463,0.0129705,0.012345,720,652,-5.70221,1.95438
-497,372,-5.69586,-2.24152,-0.00349578,0.0079206,-0.00427964,0.00934674,-0.00492192,-1.24913,0.00836901,0.0109684,727,652,-5.69587,2.24153
-490,372,-5.69458,-2.49481,-0.00175305,0.00468667,-0.00244185,0.00550786,-0.00257424,-1.24638,0.00476757,0.0118474,734,652,-5.69459,2.49479
-483,372,-5.68903,-2.77911,-0.000224491,0.00231124,-0.00147248,0.00298649,-0.000899735,-1.14083,0.00234906,0.0123399,741,652,-5.68905,2.77911
-476,372,-5.69189,-3.03485,0.00104767,0.00120529,-0.00120144,0.00233051,-7.75473e-05,-0.818149,0.00158015,0.0129053,748,652,-5.69187,3.03485
-469,372,-5.71155,-3.28937,0.00201476,0.000871535,-0.00133817,0.00289829,-1.19965e-05,-0.583549,0.00193621,0.00967276,755,652,-5.71152,3.28939
-462,372,-5.71246,-3.60736,0.00250695,0.000647479,-0.00145259,0.00330186,-0.000147435,-0.500722,0.002252,0.00910841,762,652,-5.71246,3.60735
-455,372,-5.7182,-3.89099,0.00270736,0.000513062,-0.0014027,0.00339103,-0.000170607,-0.453512,0.00231965,0.00998999,769,652,-5.71817,3.89098
-448,372,-5.69574,-4.16852,0.00269741,5.47584e-05,-0.00121332,0.00316998,-0.00041781,-0.371407,0.00226547,0.011096,776,652,-5.69572,4.16851
-441,372,-5.54901,-4.62,0.00212945,-0.000857192,-0.000456935,0.0021978,-0.000925536,-0.14847,0.00185245,0.0365287,783,652,-5.54902,4.61999
-434,372,-5.46381,-5.16901,0,0,0,0,0,0,0,-1,790,652,-5.46383,5.16899
-427,372,-4.54248,-3.56268,0,0,0,0,0,0,0,-1,797,652,-4.54247,3.56266
-420,372,-4.66168,-2.93597,0,0,0,0,0,0,0,-1,804,652,-4.66166,2.93599
-413,372,-4.74762,-3.29541,0,0,0,0,0,0,0,-1,811,652,-4.74763,3.29542
-406,372,-0.885437,-0.583923,0,0,0,0,0,0,0,-1,818,652,-0.885437,0.5839
-399,372,-3.97357,-0.825012,0,0,0,0,0,0,0,-1,825,652,-3.97359,0.825037
-392,372,-7.64337,0.173035,0,0,0,0,0,0,0,-1,832,652,-7.64337,-0.173019
-385,372,-6.48871,-0.0271606,0,0,0,0,0,0,0,-1,839,652,-6.48874,0.0271353
-378,372,-5.33044,-0.242432,0,0,0,0,0,0,0,-1,846,652,-5.33042,0.242457
-371,372,-4.40802,-0.495667,0,0,0,0,0,0,0,-1,853,652,-4.40802,0.495661
-364,372,0,0,0,0,0,0,0,0,0,-1,860,652,0,0
-357,372,0,0,0,0,0,0,0,0,0,-1,867,652,0,0
-350,372,0,0,0,0,0,0,0,0,0,-1,874,652,0,0
-343,372,0,0,0,0,0,0,0,0,0,-1,881,652,0,0
-336,372,0,0,0,0,0,0,0,0,0,-1,888,652,0,0
-329,372,0,0,0,0,0,0,0,0,0,-1,895,652,0,0
-322,372,0,0,0,0,0,0,0,0,0,-1,902,652,0,0
-315,372,0,0,0,0,0,0,0,0,0,-1,909,652,0,0
-308,372,0,0,0,0,0,0,0,0,0,-1,916,652,0,0
-301,372,0,0,0,0,0,0,0,0,0,-1,923,652,0,0
-294,372,0,0,0,0,0,0,0,0,0,-1,930,652,0,0
-287,372,0,0,0,0,0,0,0,0,0,-1,937,652,0,0
-280,372,0,0,0,0,0,0,0,0,0,-1,944,652,0,0
-273,372,0,0,0,0,0,0,0,0,0,-1,951,652,0,0
-266,372,0,0,0,0,0,0,0,0,0,-1,958,652,0,0
-259,372,0,0,0,0,0,0,0,0,0,-1,965,652,0,0
-252,372,0,0,0,0,0,0,0,0,0,-1,972,652,0,0
-245,372,0,0,0,0,0,0,0,0,0,-1,979,652,0,0
-238,372,0,0,0,0,0,0,0,0,0,-1,986,652,0,0
-231,372,0,0,0,0,0,0,0,0,0,-1,993,652,0,0
-224,372,0,0,0,0,0,0,0,0,0,-1,1000,652,0,0
-217,372,0,0,0,0,0,0,0,0,0,-1,1007,652,0,0
-210,372,0,0,0,0,0,0,0,0,0,-1,1014,652,0,0
-203,372,0,0,0,0,0,0,0,0,0,-1,1021,652,0,0
-196,372,0,0,0,0,0,0,0,0,0,-1,1028,652,0,0
-189,372,0,0,0,0,0,0,0,0,0,-1,1035,652,0,0
-182,372,0,0,0,0,0,0,0,0,0,-1,1042,652,0,0
-175,372,0,0,0,0,0,0,0,0,0,-1,1049,652,0,0
-168,372,0,0,0,0,0,0,0,0,0,-1,1056,652,0,0
-161,372,0,0,0,0,0,0,0,0,0,-1,1063,652,0,0
-154,372,0,0,0,0,0,0,0,0,0,-1,1070,652,0,0
-147,372,0,0,0,0,0,0,0,0,0,-1,1077,652,0,0
-140,372,0,0,0,0,0,0,0,0,0,-1,1084,652,0,0
-133,372,0,0,0,0,0,0,0,0,0,-1,1091,652,0,0
-126,372,0,0,0,0,0,0,0,0,0,-1,1098,652,0,0
-119,372,0,0,0,0,0,0,0,0,0,-1,1105,652,0,0
-112,372,0,0,0,0,0,0,0,0,0,-1,1112,652,0,0
-105,372,0,0,0,0,0,0,0,0,0,-1,1119,652,0,0
-98,372,0,0,0,0,0,0,0,0,0,-1,1126,652,0,0
-91,372,0,0,0,0,0,0,0,0,0,-1,1133,652,0,0
-84,372,0,0,0,0,0,0,0,0,0,-1,1140,652,0,0
-77,372,0,0,0,0,0,0,0,0,0,-1,1147,652,0,0
-70,372,0,0,0,0,0,0,0,0,0,-1,1154,652,0,0
-63,372,0,0,0,0,0,0,0,0,0,-1,1161,652,0,0
-56,372,0,0,0,0,0,0,0,0,0,-1,1168,652,0,0
-49,372,0,0,0,0,0,0,0,0,0,-1,1175,652,0,0
-42,372,0,0,0,0,0,0,0,0,0,-1,1182,652,0,0
-35,372,0,0,0,0,0,0,0,0,0,-1,1189,652,0,0
-28,372,0,0,0,0,0,0,0,0,0,-1,1196,652,0,0
-21,372,0,0,0,0,0,0,0,0,0,-1,1203,652,0,0
-14,372,0,0,0,0,0,0,0,0,0,-1,1210,652,0,0
-7,372,0,0,0,0,0,0,0,0,0,-1,1217,652,0,0
0,372,0,0,0,0,0,0,0,0,0,-1,1224,652,0,0
7,372,0,0,0,0,0,0,0,0,0,-1,1231,652,0,0
14,372,0,0,0,0,0,0,0,0,0,-1,1238,652,0,0
21,372,0,0,0,0,0,0,0,0,0,-1,1245,652,0,0
28,372,0,0,0,0,0,0,0,0,0,-1,1252,652,0,0
35,372,0,0,0,0,0,0,0,0,0,-1,1259,652,0,0
42,372,0,0,0,0,0,0,0,0,0,-1,1266,652,0,0
49,372,0,0,0,0,0,0,0,0,0,-1,1273,652,0,0
56,372,0,0,0,0,0,0,0,0,0,-1,1280,652,0,0
63,372,0,0,0,0,0,0,0,0,0,-1,1287,652,0,0
70,372,0,0,0,0,0,0,0,0,0,-1,1294,652,0,0
77,372,0,0,0,0,0,0,0,0,0,-1,1301,652,0,0
84,372,0,0,0,0,0,0,0,0,0,-1,1308,652,0,0
91,372,0,0,0,0,0,0,0,0,0,-1,1315,652,0,0
98,372,0,0,0,0,0,0,0,0,0,-1,1322,652,0,0
105,372,0,0,0,0,0,0,0,0,0,-1,1329,652,0,0
112,372,0,0,0,0,0,0,0,0,0,-1,1336,652,0,0
119,372,0,0,0,0,0,0,0,0,0,-1,1343,652,0,0
126,372,0,0,0,0,0,0,0,0,0,-1,1350,652,0,0
133,372,0,0,0,0,0,0,0,0,0,-1,1357,652,0,0
140,372,0,0,0,0,0,0,0,0,0,-1,1364,652,0,0
147,372,0,0,0,0,0,0,0,0,0,-1,1371,652,0,0
154,372,0,0,0,0,0,0,0,0,0,-1,1378,652,0,0
161,372,0,0,0,0,0,0,0,0,0,-1,1385,652,0,0
168,372,0,0,0,0,0,0,0,0,0,-1,1392,652,0,0
175,372,0,0,0,0,0,0,0,0,0,-1,1399,652,0,0
182,372,0,0,0,0,0,0,0,0,0,-1,1406,652,0,0
189,372,0,0,0,0,0,0,0,0,0,-1,1413,652,0,0
196,372,0,0,0,0,0,0,0,0,0,-1,1420,652,0,0
203,372,0,0,0,0,0,0,0,0,0,-1,1427,652,0,0
210,372,0,0,0,0,0,0,0,0,0,-1,1434,652,0,0
217,372,0,0,0,0,0,0,0,0,0,-1,1441,652,0,0
224,372,0,0,0,0,0,0,0,0,0,-1,1448,652,0,0
231,372,0,0,0,0,0,0,0,0,0,-1,1455,652,0,0
238,372,0,0,0,0,0,0,0,0,0,-1,1462,652,0,0
245,372,0,0,0,0,0,0,0,0,0,-1,1469,652,0,0
252,372,0,0,0,0,0,0,0,0,0,-1,1476,652,0,0
259,372,0,0,0,0,0,0,0,0,0,-1,1483,652,0,0
266,372,0,0,0,0,0,0,0,0,0,-1,1490,652,0,0
273,372,0,0,0,0,0,0,0,0,0,-1,1497,652,0,0
280,372,0,0,0,0,0,0,0,0,0,-1,1504,652,0,0
287,372,0,0,0,0,0,0,0,0,0,-1,1511,652,0,0
294,372,0,0,0,0,0,0,0,0,0,-1,1518,652,0,0
301,372,0,0,0,0,0,0,0,0,0,-1,1525,652,0,0
308,372,0,0,0,0,0,0,0,0,0,-1,1532,652,0,0
315,372,0,0,0,0,0,0,0,0,0,-1,1539,652,0,0
322,372,0,0,0,0,0,0,0,0,0,-1,1546,652,0,0
329,372,0,0,0,0,0,0,0,0,0,-1,1553,652,0,0
336,372,0,0,0,0,0,0,0,0,0,-1,1560,652,0,0
343,372,0,0,0,0,0,0,0,0,0,-1,1567,652,0,0
350,372,0,0,0,0,0,0,0,0,0,-1,1574,652,0,0
357,372,0,0,0,0,0,0,0,0,0,-1,1581,652,0,0
364,372,0,0,0,0,0,0,0,0,0,-1,1588,652,0,0
371,372,0,0,0,0,0,0,0,0,0,-1,1595,652,0,0
378,372,0,0,0,0,0,0,0,0,0,-1,1602,652,0,0
385,372,0,0,0,0,0,0,0,0,0,-1,1609,652,0,0
392,372,0,0,0,0,0,0,0,0,0,-1,1616,652,0,0
399,372,0,0,0,0,0,0,0,0,0,-1,1623,652,0,0
406,372,0,0,0,0,0,0,0,0,0,-1,1630,652,0,0
413,372,0,0,0,0,0,0,0,0,0,-1,1637,652,0,0
420,372,0,0,0,0,0,0,0,0,0,-1,1644,652,0,0
427,372,0,0,0,0,0,0,0,0,0,-1,1651,652,0,0
434,372,0,0,0,0,0,0,0,0,0,-1,1658,652,0,0
441,372,0,0,0,0,0,0,0,0,0,-1,1665,652,0,0
448,372,0,0,0,0,0,0,0,0,0,-1,1672,652,0,0
455,372,0,0,0,0,0,0,0,0,0,-1,1679,652,0,0
462,372,0,0,0,0,0,0,0,0,0,-1,1686,652,0,0
469,372,0,0,0,0,0,0,0,0,0,-1,1693,652,0,0
476,372,0,0,0,0,0,0,0,0,0,-1,1700,652,0,0
483,372,8.74182,1.53125,0,0,0,0,0,0,0,-1,1707,652,8.74186,-1.53126
490,372,9.78455,1.67096,0,0,0,0,0,0,0,-1,1714,652,9.7846,-1.67093
497,372,9.97644,1.46069,0,0,0,0,0,0,0,-1,1721,652,9.97647,-1.46071
504,372,10.1216,1.28375,0,0,0,0,0,0,0,-1,1728,652,10.1216,-1.28376
511,372,11.7367,-0.0272217,0,0,0,0,0,0,0,-1,1735,652,11.7367,0.0272326
518,372,12.0657,-0.0995483,0,0,0,0,0,0,0,-1,1742,652,12.0657,0.0995285
525,372,12.3947,-0.171814,0,0,0,0,0,0,0,-1,1749,652,12.3946,0.171824
532,372,9.36597,1.72034,0,0,0,0,0,0,0,-1,1756,652,9.36597,-1.72036
539,372,7.82886,-0.0865479,0,0,0,0,0,0,0,-1,1763,652,7.82882,0.0865771
546,372,10.953,-0.187195,0,0,0,0,0,0,0,-1,1770,652,10.953,0.187181
553,372,12.0461,-3.77545,0,0,0,0,0,0,0,-1,1777,652,12.0462,3.77546
560,372,11.9353,-3.2998,-0.00936297,0.00786967,-0.000310621,0.00787526,-0.00936856,-1.55278,0.00996816,0.0456505,1784,652,11.9353,3.29983
567,372,11.8416,-2.81061,-0.00768642,0.0055155,-0.000870748,0.00557268,-0.0077436,-1.50522,0.00772214,0.0272475,1791,652,11.8415,2.81064
574,372,11.865,-2.43335,-0.00616774,0.0037324,-0.00118569,0.00387242,-0.00630776,-1.45325,0.00593333,0.0184212,1798,652,11.865,2.43336
581,372,11.8525,-2.18207,-0.00448497,0.00251003,-0.00110819,0.0026814,-0.00465634,-1.41737,0.00428729,0.0164583,1805,652,11.8526,2.18204
588,372,11.8521,-1.88672,-0.00290036,0.00181768,-0.000794367,0.00194784,-0.00303051,-1.40839,0.00289682,0.0170954,1812,652,11.852,1.88674
595,372,11.8392,-1.59668,-0.00146807,0.00150481,-0.000346524,0.00154466,-0.00150793,-1.45628,0.00176246,0.0137505,1819,652,11.8392,1.59666
602,372,11.8694,-1.32727,-0.0002656,0.00152482,0.000208293,0.00154873,-0.000289513,1.45649,0.0011413,0.0136082,1826,652,11.8693,1.32727
609,372,11.8298,-1.02856,0.000299105,0.00162573,0.000602171,0.00185829,6.65421e-05,1.20224,0.00121729,0.0143417,1833,652,11.8298,1.02854
616,372,11.8185,-0.708313,0.000647959,0.00177719,0.000875899,0.00225468,0.000170466,1.07169,0.00144965,0.0140769,1840,652,11.8184,0.708332
623,372,11.847,-0.385742,0.000515671,0.00211388,0.00108624,0.00266329,-3.37397e-05,1.10253,0.00178688,0.011958,1847,652,11.847,0.385741
630,372,11.845,-0.0859985,-0.000317982,0.00238026,0.00109056,0.00276591,-0.000703637,1.23089,0.00211782,0.016416,1854,652,11.8449,0.0859714
637,372,11.8579,0.190796,-0.00203834,0.00259135,0.000761486,0.00271339,-0.00216037,1.41189,0.0028199,0.0215922,1861,652,11.8579,-0.190766
644,372,11.9127,0.592957,-0.00456112,0.00241001,2.9615e-05,0.00241014,-0.00456125,1.56655,0.0040883,0.0255075,1868,652,11.9127,-0.592947
651,372,12.1876,1.03973,0,0,0,0,0,0,0,-1,1875,652,12.1876,-1.03975
658,372,11.5249,0.779663,0,0,0,0,0,0,0,-1,1882,652,11.5249,-0.779672
665,372,11.1008,1.09998,0,0,0,0,0,0,0,-1,1889,652,11.1008,-1.1
672,372,9.34106,1.48444,0,0,0,0,0,0,0,-1,1896,652,9.34109,-1.48444
679,372,10.7308,2.32391,0,0,0,0,0,0,0,-1,1903,652,10.7309,-2.3239
686,372,11.6295,2.52997,0,0,0,0,0,0,0,-1,1910,652,11.6296,-2.52996
693,372,0,0,0,0,0,0,0,0,0,-1,1917,652,0,0
700,372,0,0,0,0,0,0,0,0,0,-1,1924,652,0,0
707,372,0,0,0,0,0,0,0,0,0,-1,1931,652,0,0
714,372,0,0,0,0,0,0,0,0,0,-1,1938,652,0,0
721,372,0,0,0,0,0,0,0,0,0,-1,1945,652,0,0
728,372,0,0,0,0,0,0,0,0,0,-1,1952,652,0,0
735,372,0,0,0,0,0,0,0,0,0,-1,1959,652,0,0
742,372,0,0,0,0,0,0,0,0,0,-1,1966,652,0,0
749,372,0,0,0,0,0,0,0,0,0,-1,1973,652,0,0
756,372,0,0,0,0,0,0,0,0,0,-1,1980,652,0,0
763,372,0,0,0,0,0,0,0,0,0,-1,1987,652,0,0
770,372,0,0,0,0,0,0,0,0,0,-1,1994,652,0,0
777,372,0,0,0,0,0,0,0,0,0,-1,2001,652,0,0
784,372,0,0,0,0,0,0,0,0,0,-1,2008,652,0,0
791,372,0,0,0,0,0,0,0,0,0,-1,2015,652,0,0
798,372,0,0,0,0,0,0,0,0,0,-1,2022,652,0,0
805,372,0,0,0,0,0,0,0,0,0,-1,2029,652,0,0
812,372,0,0,0,0,0,0,0,0,0,-1,2036,652,0,0
-700,365,0,0,0,0,0,0,0,0,0,-1,524,659,0,0
-693,365,0,0,0,0,0,0,0,0,0,-1,531,659,0,0
-686,365,0,0,0,0,0,0,0,0,0,-1,538,659,0,0
-679,365,0,0,0,0,0,0,0,0,0,-1,545,659,0,0
-672,365,0,0,0,0,0,0,0,0,0,-1,552,659,0,0
-665,365,0,0,0,0,0,0,0,0,0,-1,559,659,0,0
-658,365,0,0,0,0,0,0,0,0,0,-1,566,659,0,0
-651,365,0,0,0,0,0,0,0,0,0,-1,573,659,0,0
-644,365,0,0,0,0,0,0,0,0,0,-1,580,659,0,0
-637,365,0,0,0,0,0,0,0,0,0,-1,587,659,0,0
-630,365,0,0,0,0,0,0,0,0,0,-1,594,659,0,0
-623,365,0,0,0,0,0,0,0,0,0,-1,601,659,0,0
-616,365,0,0,0,0,0,0,0,0,0,-1,608,659,0,0
-609,365,0,0,0,0,0,0,0,0,0,-1,615,659,0,0
-602,365,0,0,0,0,0,0,0,0,0,-1,622,659,0,0
-595,365,0,0,0,0,0,0,0,0,0,-1,629,659,0,0
-588,365,0,0,0,0,0,0,0,0,0,-1,636,659,0,0
-581,365,0,0,0,0,0,0,0,0,0,-1,643,659,0,0
-574,365,-8.05292,3.47089,0,0,0,0,0,0,0,-1,650,659,-8.05291,-3.47089
-567,365,-7.45227,2.85382,0,0,0,0,0,0,0,-1,657,659,-7.45225,-2.85382
-560,365,-7.27911,2.10327,0,0,0,0,0,0,0,-1,664,659,-7.27913,-2.10327
-553,365,-5.0979,0.902771,0,0,0,0,0,0,0,-1,671,659,-5.0979,-0.902772
-546,365,-7.11328,1.18433,0,0,0,0,0,0,0,-1,678,659,-7.11331,-1.18431
-539,365,-4.98541,2.00256,0,0,0,0,0,0,0,-1,685,659,-4.98539,-2.00258
-532,365,-5.79315,0.022644,0,0,0,0,0,0,0,-1,692,659,-5.79318,-0.0226604
-525,365,-5.78369,-0.711182,-0.0138798,0.0362356,-0.0196689,0.0430331,-0.0206773,-1.23805,0.0375305,0.0466856,699,659,-5.78368,0.711203
-518,365,-5.82477,-1.44312,-0.0102157,0.0252347,-0.0135736,0.029835,-0.014816,-1.24403,0.0262609,0.0309476,706,659,-5.82479,1.44313
-511,365,-5.98322,-1.67944,-0.00727438,0.0170507,-0.00908457,0.020069,-0.0102926,-1.25003,0.0178296,0.0207475,713,659,-5.98321,1.67946
-504,365,-5.96912,-1.9729,-0.00471055,0.0105871,-0.00583051,0.012556,-0.00667938,-1.24514,0.011277,0.0116517,720,659,-5.96911,1.97287
-497,365,-5.95947,-2.24237,-0.00278495,0.00667548,-0.00366243,0.0079276,-0.00403707,-1.24137,0.00702848,0.0116768,727,659,-5.95945,2.24238
-490,365,-5.96899,-2.505,-0.00102984,0.00370254,-0.00202219,0.00444893,-0.00177622,-1.21721,0.00370286,0.0131599,734,659,-5.96899,2.50499
-483,365,-5.9668,-2.79736,0.000513878,0.00160103,-0.00124947,0.00242004,-0.000305132,-0.990573,0.0017241,0.0138437,741,659,-5.96682,2.79739
-476,365,-5.95758,-3.06226,0.0018282,0.000789926,-0.00121886,0.00263388,-1.57454e-05,-0.584073,0.00176119,0.0138357,748,659,-5.95756,3.06228
-469,365,-5.97131,-3.31476,0.00287751,0.000749975,-0.00163647,0.00376557,-0.000138083,-0.497196,0.00255765,0.0127343,755,659,-5.97132,3.31476
-462,365,-5.97852,-3.60779,0.00349422,0.000778754,-0.00204095,0.0045878,-0.000314818,-0.491888,0.00316869,0.0136758,762,659,-5.97851,3.60781
-455,365,-5.9765,-3.88934,0.00379251,0.000947149,-0.00228631,0.00506264,-0.000322979,-0.507085,0.00348774,0.0150135,769,659,-5.97648,3.88931
-448,365,-5.90906,-4.22314,0.00389074,0.000743082,-0.00237512,0.00516614,-0.000532323,-0.492796,0.00363455,0.0234345,776,659,-5.90903,4.22315
-441,365,-5.77338,-4.68707,0,0,0,0,0,0,0,-1,783,659,-5.7734,4.6871
-434,365,-5.45056,-3.98041,0,0,0,0,0,0,0,-1,790,659,-5.45055,3.98042
-427,365,-5.05377,-4.74689,0,0,0,0,0,0,0,-1,797,659,-5.05376,4.7469
-420,365,-4.58813,-3.16376,0,0,0,0,0,0,0,-1,804,659,-4.58816,3.16374
-413,365,0.141357,0.672729,0,0,0,0,0,0,0,-1,811,659,0.141365,-0.672714
-406,365,-1.75067,-0.934448,0,0,0,0,0,0,0,-1,818,659,-1.7507,0.934424
-399,365,-4.10242,-1.25439,0,0,0,0,0,0,0,-1,825,659,-4.10244,1.25438
-392,365,-7.46545,-0.779724,0,0,0,0,0,0,0,-1,832,659,-7.46543,0.779744
-385,365,-6.27875,-0.887573,0,0,0,0,0,0,0,-1,839,659,-6.27874,0.887545
-378,365,-5.34503,-0.263306,0,0,0,0,0,0,0,-1,846,659,-5.34504,0.263275
-371,365,0,0,0,0,0,0,0,0,0,-1,853,659,0,0
-364,365,0,0,0,0,0,0,0,0,0,-1,860,659,0,0
-357,365,0,0,0,0,0,0,0,0,0,-1,867,659,0,0
-350,365,0,0,0,0,0,0,0,0,0,-1,874,659,0,0
-343,365,0,0,0,0,0,0,0,0,0,-1,881,659,0,0
-336,365,0,0,0,0,0,0,0,0,0,-1,888,659,0,0
-329,365,0,0,0,0,0,0,0,0,0,-1,895,659,0,0
-322,365,0,0,0,0,0,0,0,0,0,-1,902,659,0,0
-315,365,0,0,0,0,0,0,0,0,0,-1,909,659,0,0
-308,365,0,0,0,0,0,0,0,0,0,-1,916,659,0,0
-301,365,0,0,0,0,0,0,0,0,0,-1,923,659,0,0
-294,365,0,0,0,0,0,0,0,0,0,-1,930,659,0,0
-287,365,0,0,0,0,0,0,0,0,0,-1,937,659,0,0
-280,365,0,0,0,0,0,0,0,0,0,-1,944,659,0,0
-273,365,0,0,0,0,0,0,0,0,0,-1,951,659,0,0
-266,365,0,0,0,0,0,0,0,0,0,-1,958,659,0,0
-259,365,0,0,0,0,0,0,0,0,0,-1,965,659,0,0
-252,365,0,0,0,0,0,0,0,0,0,-1,972,659,0,0
-245,365,0,0,0,0,0,0,0,0,0,-1,979,659,0,0
-238,365,0,0,0,0,0,0,0,0,0,-1,986,659,0,0
-231,365,0,0,0,0,0,0,0,0,0,-1,993,659,0,0
-224,365,0,0,0,0,0,0,0,0,0,-1,1000,659,0,0
-217,365,0,0,0,0,0,0,0,0,0,-1,1007,659,0,0
-210,365,0,0,0,0,0,0,0,0,0,-1,1014,659,0,0
-203,365,0,0,0,0,0,0,0,0,0,-1,1021,659,0,0
-196,365,0,0,0,0,0,0,0,0,0,-1,1028,659,0,0
-189,365,0,0,0,0,0,0,0,0,0,-1,1035,659,0,0
-182,365,0,0,0,0,0,0,0,0,0,-1,1042,659,0,0
-175,365,0,0,0,0,0,0,0,0,0,-1,1049,659,0,0
-168,365,0,0,0,0,0,0,0,0,0,-1,1056,659,0,0
-161,365,0,0,0,0,0,0,0,0,0,-1,1063,659,0,0
-154,365,0,0,0,0,0,0,0,0,0,-1,1070,659,0,0
-147,365,0,0,0,0,0,0,0,0,0,-1,1077,659,0,0
-140,365,0,0,0,0,0,0,0,0,0,-1,1084,659,0,0
-133,365,0,0,0,0,0,0,0,0,0,-1,1091,659,0,0
-126,365,0,0,0,0,0,0,0,0,0,-1,1098,659,0,0
-119,365,0,0,0,0,0,0,0,0,0,-1,1105,659,0,0
-112,365,0,0,0,0,0,0,0,0,0,-1,1112,659,0,0
-105,365,0,0,0,0,0,0,0,0,0,-1,1119,659,0,0
-98,365,0,0,0,0,0,0,0,0,0,-1,1126,659,0,0
-91,365,0,0,0,0,0,0,0,0,0,-1,1133,659,0,0
-84,365,0,0,0,0,0,0,0,0,0,-1,1140,659,0,0
-77,365,0,0,0,0,0,0,0,0,0,-1,1147,659,0,0
-70,365,0,0,0,0,0,0,0,0,0,-1,1154,659,0,0
-63,365,0,0,0,0,0,0,0,0,0,-1,1161,659,0,0
-56,365,0,0,0,0,0,0,0,0,0,-1,1168,659,0,0
-49,365,0,0,0,0,0,0,0,0,0,-1,1175,659,0,0
-42,365,0,0,0,0,0,0,0,0,0,-1,1182,659,0,0
-35,365,0,0,0,0,0,0,0,0,0,-1,1189,659,0,0
-28,365,0,0,0,0,0,0,0,0,0,-1,1196,659,0,0
-21,365,0,0,0,0,0,0,0,0,0,-1,1203,659,0,0
-14,365,0,0,0,0,0,0,0,0,0,-1,1210,659,0,0
-7,365,0,0,0,0,0,0,0,0,0,-1,1217,659,0,0
0,365,0,0,0,0,0,0,0,0,0,-1,1224,659,0,0
7,365,0,0,0,0,0,0,0,0,0,-1,1231,659,0,0
14,365,0,0,0,0,0,0,0,0,0,-1,1238,659,0,0
21,365,0,0,0,0,0,0,0,0,0,-1,1245,659,0,0
28,365,0,0,0,0,0,0,0,0,0,-1,1252,659,0,0
35,365,0,0,0,0,0,0,0,0,0,-1,1259,659,0,0
42,365,0,0,0,0,0,0,0,0,0,-1,1266,659,0,0
49,365,0,0,0,0,0,0,0,0,0,-1,1273,659,0,0
56,365,0,0,0,0,0,0,0,0,0,-1,1280,659,0,0
63,365,0,0,0,0,0,0,0,0,0,-1,1287,659,0,0
70,365,0,0,0,0,0,0,0,0,0,-1,1294,659,0,0
77,365,0,0,0,0,0,0,0,0,0,-1,1301,659,0,0
84,365,0,0,0,0,0,0,0,0,0,-1,1308,659,0,0
91,365,0,0,0,0,0,0,0,0,0,-1,1315,659,0,0
98,365,0,0,0,0,0,0,0,0,0,-1,1322,659,0,0
105,365,0,0,0,0,0,0,0,0,0,-1,1329,659,0,0
112,365,0,0,0,0,0,0,0,0,0,-1,1336,659,0,0
119,365,0,0,0,0,0,0,0,0,0,-1,1343,659,0,0
126,365,0,0,0,0,0,0,0,0,0,-1,1350,659,0,0
133,365,0,0,0,0,0,0,0,0,0,-1,1357,659,0,0
140,365,0,0,0,0,0,0,0,0,0,-1,1364,659,0,0
147,365,0,0,0,0,0,0,0,0,0,-1,1371,659,0,0
154,365,0,0,0,0,0,0,0,0,0,-1,1378,659,0,0
161,365,0,0,0,0,0,0,0,0,0,-1,1385,659,0,0
168,365,0,0,0,0,0,0,0,0,0,-1,1392,659,0,0
175,365,0,0,0,0,0,0,0,0,0,-1,1399,659,0,0
182,365,0,0,0,0,0,0,0,0,0,-1,1406,659,0,0
189,365,0,0,0,0,0,0,0,0,0,-1,1413,659,0,0
196,365,0,0,0,0,0,0,0,0,0,-1,1420,659,0,0
203,365,0,0,0,0,0,0,0,0,0,-1,1427,659,0,0
210,365,0,0,0,0,0,0,0,0,0,-1,1434,659,0,0
217,365,0,0,0,0,0,0,0,0,0,-1,1441,659,0,0
224,365,0,0,0,0,0,0,0,0,0,-1,1448,659,0,0
231,365,0,0,0,0,0,0,0,0,0,-1,1455,659,0,0
238,365,0,0,0,0,0,0,0,0,0,-1,1462,659,0,0
245,365,0,0,0,0,0,0,0,0,0,-1,1469,659,0,0
252,365,0,0,0,0,0,0,0,0,0,-1,1476,659,0,0
259,365,0,0,0,0,0,0,0,0,0,-1,1483,659,0,0
266,365,0,0,0,0,0,0,0,0,0,-1,1490,659,0,0
273,365,0,0,0,0,0,0,0,0,0,-1,1497,659,0,0
280,365,0,0,0,0,0,0,0,0,0,-1,1504,659,0,0
287,365,0,0,0,0,0,0,0,0,0,-1,1511,659,0,0
294,365,0,0,0,0,0,0,0,0,0,-1,1518,659,0,0
301,365,0,0,0,0,0,0,0,0,0,-1,1525,659,0,0
308,365,0,0,0,0,0,0,0,0,0,-1,1532,659,0,0
315,365,0,0,0,0,0,0,0,0,0,-1,1539,659,0,0
322,365,0,0,0,0,0,0,0,0,0,-1,1546,659,0,0
329,365,0,0,0,0,0,0,0,0,0,-1,1553,659,0,0
336,365,0,0,0,0,0,0,0,0,0,-1,1560,659,0,0
343,365,0,0,0,0,0,0,0,0,0,-1,1567,659,0,0
350,365,0,0,0,0,0,0,0,0,0,-1,1574,659,0,0
357,365,0,0,0,0,0,0,0,0,0,-1,1581,659,0,0
364,365,0,0,0,0,0,0,0,0,0,-1,1588,659,0,0
371,365,0,0,0,0,0,0,0,0,0,-1,1595,659,0,0
378,365,0,0,0,0,0,0,0,0,0,-1,1602,659,0,0
385,365,0,0,0,0,0,0,0,0,0,-1,1609,659,0,0
392,365,0,0,0,0,0,0,0,0,0,-1,1616,659,0,0
399,365,0,0,0,0,0,0,0,0,0,-1,1623,659,0,0
406,365,0,0,0,0,0,0,0,0,0,-1,1630,659,0,0
413,365,0,0,0,0,0,0,0,0,0,-1,1637,659,0,0
420,365,0,0,0,0,0,0,0,0,0,-1,1644,659,0,0
427,365,0,0,0,0,0,0,0,0,0,-1,1651,659,0,0
434,365,0,0,0,0,0,0,0,0,0,-1,1658,659,0,0
441,365,0,0,0,0,0,0,0,0,0,-1,1665,659,0,0
448,365,0,0,0,0,0,0,0,0,0,-1,1672,659,0,0
455,365,0,0,0,0,0,0,0,0,0,-1,1679,659,0,0
462,365,0,0,0,0,0,0,0,0,0,-1,1686,659,0,0
469,365,0,0,0,0,0,0,0,0,0,-1,1693,659,0,0
476,365,0,0,0,0,0,0,0,0,0,-1,1700,659,0,0
483,365,0,0,0,0,0,0,0,0,0,-1,1707,659,0,0
490,365,8.39551,0.471252,0,0,0,0,0,0,0,-1,1714,659,8.39551,-0.471241
497,365,9.89233,1.35394,0,0,0,0,0,0,0,-1,1721,659,9.89237,-1.35396
504,365,10.1414,1.18005,0,0,0,0,0,0,0,-1,1728,659,10.1413,-1.18004
511,365,10.5151,0.993896,0,0,0,0,0,0,0,-1,1735,659,10.5152,-0.993894
518,365,11.2029,0.398132,0,0,0,0,0,0,0,-1,1742,659,11.2029,-0.398136
525,365,15.5748,3.85303,0,0,0,0,0,0,0,-1,1749,659,15.5748,-3.85303
532,365,11.2446,1.00629,0,0,0,0,0,0,0,-1,1756,659,11.2446,-1.00631
539,365,12.6301,1.03204,0,0,0,0,0,0,0,-1,1763,659,12.6302,-1.03204
546,365,11.647,0.84198,0,0,0,0,0,0,0,-1,1770,659,11.6469,-0.841955
553,365,12.028,-0.558899,0,0,0,0,0,0,0,-1,1777,659,12.028,0.558873
560,365,12.2231,-3.65045,0,0,0,0,0,0,0,-1,1784,659,12.2232,3.65046
567,365,12.4625,-2.94879,0,0,0,0,0,0,0,-1,1791,659,12.4625,2.94878
574,365,12.3898,-2.61133,-0.00798971,0.00423693,-0.00171547,0.00447306,-0.00822584,-1.43401,0.00743767,0.0486217,1798,659,12.3898,2.61136
581,365,12.1564,-2.2688,-0.00585836,0.00266709,-0.00162611,0.00296672,-0.00615798,-1.38858,0.00537447,0.0228195,1805,659,12.1563,2.26878
588,365,12.1196,-1.91638,-0.00389438,0.00175505,-0.00126762,0.00202644,-0.00416578,-1.35988,0.00364551,0.0132915,1812,659,12.1197,1.91639
595,365,12.141,-1.58179,-0.00227343,0.00127355,-0.000816909,0.00145265,-0.00245253,-1.35497,0.00227916,0.0128613,1819,659,12.141,1.58178
602,365,12.1533,-1.28644,-0.000935205,0.00116077,-0.000276664,0.00119667,-0.000971109,-1.44174,0.00125382,0.0146785,1826,659,12.1533,1.28645
609,365,12.0979,-0.986938,-0.00022236,0.00118704,0.000131951,0.00119928,-0.000234607,1.47825,0.000888115,0.0159541,1833,659,12.0979,0.986951
616,365,12.1218,-0.686523,0.000181314,0.00118289,0.000342428,0.00128877,7.54345e-05,1.27092,0.00083517,0.0173849,1840,659,12.1218,0.686501
623,365,12.1711,-0.384399,3.93286e-05,0.00138248,0.000475144,0.00153357,-0.00011176,1.26292,0.0010616,0.0117116,1847,659,12.1711,0.384383
630,365,12.1492,-0.0839844,-0.000780844,0.00147338,0.000430188,0.00155268,-0.000860149,1.38849,0.00141205,0.0160312,1854,659,12.1491,0.0840064
637,365,12.1469,0.199951,-0.00239115,0.0016098,7.46342e-05,0.00161119,-0.00239255,1.55215,0.00232618,0.0220672,1861,659,12.1468,-0.199966
644,365,12.1522,0.504883,-0.00472085,0.00139509,-0.000665918,0.00146676,-0.00479251,-1.46359,0.00378001,0.0158825,1868,659,12.1522,-0.504877
651,365,12.2848,0.863037,-0.00772562,0.00101641,-0.00174261,0.00135097,-0.00806018,-1.38112,0.00587578,0.0316082,1875,659,12.2848,-0.863061
658,365,11.7874,0.821045,-0.0116781,0.00036221,-0.00327205,0.00119396,-0.0125098,-1.32187,0.00876501,0.0475446,1882,659,11.7873,-0.821048
665,365,11.442,0.96344,0,0,0,0,0,0,0,-1,1889,659,11.442,-0.963429
672,365,10.0579,2.15088,0,0,0,0,0,0,0,-1,1896,659,10.0579,-2.15088
679,365,10.9718,2.19208,0,0,0,0,0,0,0,-1,1903,659,10.9718,-2.19211
686,365,12.2134,2.17108,0,0,0,0,0,0,0,-1,1910,659,12.2134,-2.17109
693,365,13.7141,1.98279,0,0,0,0,0,0,0,-1,1917,659,13.7141,-1.98278
700,365,0,0,0,0,0,0,0,0,0,-1,1924,659,0,0
707,365,0,0,0,0,0,0,0,0,0,-1,1931,659,0,0
714,365,0,0,0,0,0,0,0,0,0,-1,1938,659,0,0
721,365,0,0,0,0,0,0,0,0,0,-1,1945,659,0,0
728,365,0,0,0,0,0,0,0,0,0,-1,1952,659,0,0
735,365,0,0,0,0,0,0,0,0,0,-1,1959,659,0,0
742,365,0,0,0,0,0,0,0,0,0,-1,1966,659,0,0
749,365,0,0,0,0,0,0,0,0,0,-1,1973,659,0,0
756,365,0,0,0,0,0,0,0,0,0,-1,1980,659,0,0
763,365,0,0,0,0,0,0,0,0,0,-1,1987,659,0,0
770,365,0,0,0,0,0,0,0,0,0,-1,1994,659,0,0
777,365,0,0,0,0,0,0,0,0,0,-1,2001,659,0,0
784,365,0,0,0,0,0,0,0,0,0,-1,2008,659,0,0
791,365,0,0,0,0,0,0,0,0,0,-1,2015,659,0,0
798,365,0,0,0,0,0,0,0,0,0,-1,2022,659,0,0
805,365,0,0,0,0,0,0,0,0,0,-1,2029,659,0,0
812,365,0,0,0,0,0,0,0,0,0,-1,2036,659,0,0
-700,358,0,0,0,0,0,0,0,0,0,-1,524,666,0,0
-693,358,0,0,0,0,0,0,0,0,0,-1,531,666,0,0
-686,358,0,0,0,0,0,0,0,0,0,-1,538,666,0,0
-679,358,0,0,0,0,0,0,0,0,0,-1,545,666,0,0
-672,358,0,0,0,0,0,0,0,0,0,-1,552,666,0,0
-665,358,0,0,0,0,0,0,0,0,0,-1,559,666,0,0
-658,358,0,0,0,0,0,0,0,0,0,-1,566,666,0,0
-651,358,0,0,0,0,0,0,0,0,0,-1,573,666,0,0
-644,358,0,0,0,0,0,0,0,0,0,-1,580,666,0,0
-637,358,0,0,0,0,0,0,0,0,0,-1,587,666,0,0
-630,358,0,0,0,0,0,0,0,0,0,-1,594,666,0,0
-623,358,0,0,0,0,0,0,0,0,0,-1,601,666,0,0
-616,358,0,0,0,0,0,0,0,0,0,-1,608,666,0,0
-609,358,0,0,0,0,0,0,0,0,0,-1,615,666,0,0
-602,358,0,0,0,0,0,0,0,0,0,-1,622,666,0,0
-595,358,0,0,0,0,0,0,0,0,0,-1,629,666,0,0
-588,358,0,0,0,0,0,0,0,0,0,-1,636,666,0,0
-581,358,-9.51544,4.93384,0,0,0,0,0,0,0,-1,643,666,-9.51542,-4.93386
-574,358,-8.44385,3.76233,0,0,0,0,0,0,0,-1,650,666,-8.44383,-3.76236
-567,358,-7.72852,2.87408,0,0,0,0,0,0,0,-1,657,666,-7.72851,-2.87411
-560,358,-4.09741,5.28473,0,0,0,0,0,0,0,-1,664,666,-4.0974,-5.28476
-553,358,-6.73383,1.02539,0,0,0,0,0,0,0,-1,671,666,-6.73383,-1.02536
-546,358,-5.18658,1.8642,0,0,0,0,0,0,0,-1,678,666,-5.1866,-1.86422
-539,358,-5.43909,1.40027,-0.0217263,0.0616367,-0.0322422,0.0726515,-0.0327411,-1.2416,0.0622858,0.0454169,685,666,-5.43907,-1.40028
-532,358,-5.81689,0.288818,-0.0166195,0.0450139,-0.0239381,0.053219,-0.0248246,-1.24058,0.0460418,0.0425921,692,666,-5.81688,-0.28879
-525,358,-6.09387,-1.06305,-0.0124796,0.0321878,-0.0172888,0.0380976,-0.0183894,-1.24142,0.0332678,0.0348464,699,666,-6.09387,1.06305
-518,358,-6.15558,-1.32617,-0.00909779,0.0224863,-0.0120755,0.026574,-0.0131855,-1.24439,0.023385,0.0291254,706,666,-6.15557,1.32619
-511,358,-6.24915,-1.664,-0.00632885,0.0151422,-0.00815499,0.0178884,-0.00907499,-1.24598,0.0158421,0.0141071,713,666,-6.24912,1.66403
-504,358,-6.24329,-1.95245,-0.00383807,0.00924618,-0.00531708,0.0111344,-0.00572628,-1.22956,0.00990003,0.0105225,720,666,-6.24331,1.95243
-497,358,-6.2395,-2.229,-0.00194818,0.00566554,-0.00338182,0.00695072,-0.00323336,-1.20763,0.00600893,0.0105567,727,666,-6.2395,2.22902
-490,358,-6.2395,-2.49585,-0.000208271,0.002924,-0.00191447,0.00383132,-0.00111559,-1.12822,0.00299612,0.0106009,734,666,-6.23949,2.49586
-483,358,-6.2406,-2.78156,0.00132624,0.0010986,-0.00130087,0.00251825,-9.34175e-05,-0.741761,0.00171083,0.0105575,741,666,-6.24063,2.78155
-476,358,-6.22479,-3.03833,0.00266673,0.000542304,-0.00144174,0.00339531,-0.00018627,-0.467912,0.00232811,0.0113662,748,666,-6.22479,3.03835
-469,358,-6.25403,-3.31653,0.00380378,0.000706316,-0.00205026,0.00482451,-0.000314414,-0.461929,0.0033261,0.0136872,755,666,-6.25402,3.3165
-462,358,-6.27667,-3.61536,0.00457833,0.000894959,-0.00265225,0.00596561,-0.000492327,-0.481925,0.00415093,0.0169179,762,666,-6.27668,3.61536
-455,358,-6.20319,-3.90857,0.00502873,0.00131225,-0.00312771,0.00680857,-0.000467593,-0.517356,0.00470267,0.023397,769,666,-6.20321,3.90858
-448,358,-6.08142,-4.25604,0,0,0,0,0,0,0,-1,776,666,-6.08144,4.25606
-441,358,-5.56293,-3.98041,0,0,0,0,0,0,0,-1,783,666,-5.56291,3.98043
-434,358,-5.21558,-4.43127,0,0,0,0,0,0,0,-1,790,666,-5.21559,4.43125
-427,358,-3.56189,-3.15729,0,0,0,0,0,0,0,-1,797,666,-3.56192,3.15729
-420,358,0.200195,1.08234,0,0,0,0,0,0,0,-1,804,666,0.200174,-1.08231
-413,358,0.0325317,0.161072,0,0,0,0,0,0,0,-1,811,666,0.0325501,-0.161098
-406,358,-3.85846,0.753113,0,0,0,0,0,0,0,-1,818,666,-3.85846,-0.753129
-399,358,-1.31213,0.190735,0,0,0,0,0,0,0,-1,825,666,-1.31215,-0.190763
-392,358,-3.73914,-0.832214,0,0,0,0,0,0,0,-1,832,666,-3.73915,0.832202
-385,358,-5.95178,-1.69141,0,0,0,0,0,0,0,-1,839,666,-5.9518,1.69143
-378,358,0,0,0,0,0,0,0,0,0,-1,846,666,0,0
-371,358,0,0,0,0,0,0,0,0,0,-1,853,666,0,0
-364,358,0,0,0,0,0,0,0,0,0,-1,860,666,0,0
-357,358,0,0,0,0,0,0,0,0,0,-1,867,666,0,0
-350,358,0,0,0,0,0,0,0,0,0,-1,874,666,0,0
-343,358,0,0,0,0,0,0,0,0,0,-1,881,666,0,0
-336,358,0,0,0,0,0,0,0,0,0,-1,888,666,0,0
-329,358,0,0,0,0,0,0,0,0,0,-1,895,666,0,0
-322,358,0,0,0,0,0,0,0,0,0,-1,902,666,0,0
-315,358,0,0,0,0,0,0,0,0,0,-1,909,666,0,0
-308,358,0,0,0,0,0,0,0,0,0,-1,916,666,0,0
-301,358,0,0,0,0,0,0,0,0,0,-1,923,666,0,0
-294,358,0,0,0,0,0,0,0,0,0,-1,930,666,0,0
-287,358,0,0,0,0,0,0,0,0,0,-1,937,666,0,0
-280,358,0,0,0,0,0,0,0,0,0,-1,944,666,0,0
-273,358,0,0,0,0,0,0,0,0,0,-1,951,666,0,0
-266,358,0,0,0,0,0,0,0,0,0,-1,958,666,0,0
-259,358,0,0,0,0,0,0,0,0,0,-1,965,666,0,0
-252,358,0,0,0,0,0,0,0,0,0,-1,972,666,0,0
-245,358,0,0,0,0,0,0,0,0,0,-1,979,666,0,0
-238,358,0,0,0,0,0,0,0,0,0,-1,986,666,0,0
-231,358,0,0,0,0,0,0,0,0,0,-1,993,666,0,0
-224,358,0,0,0,0,0,0,0,0,0,-1,1000,666,0,0
-217,358,0,0,0,0,0,0,0,0,0,-1,1007,666,0,0
-210,358,0,0,0,0,0,0,0,0,0,-1,1014,666,0,0
-203,358,0,0,0,0,0,0,0,0,0,-1,1021,666,0,0
-196,358,0,0,0,0,0,0,0,0,0,-1,1028,666,0,0
-189,358,0,0,0,0,0,0,0,0,0,-1,1035,666,0,0
-182,358,0,0,0,0,0,0,0,0,0,-1,1042,666,0,0
-175,358,0,0,0,0,0,0,0,0,0,-1,1049,666,0,0
-168,358,0,0,0,0,0,0,0,0,0,-1,1056,666,0,0
-161,358,0,0,0,0,0,0,0,0,0,-1,1063,666,0,0
-154,358,0,0,0,0,0,0,0,0,0,-1,1070,666,0,0
-147,358,0,0,0,0,0,0,0,0,0,-1,1077,666,0,0
-140,358,0,0,0,0,0,0,0,0,0,-1,1084,666,0,0
-133,358,0,0,0,0,0,0,0,0,0,-1,1091,666,0,0
-126,358,0,0,0,0,0,0,0,0,0,-1,1098,666,0,0
-119,358,0,0,0,0,0,0,0,0,0,-1,1105,666,0,0
-112,358,0,0,0,0,0,0,0,0,0,-1,1112,666,0,0
-105,358,0,0,0,0,0,0,0,0,0,-1,1119,666,0,0
-98,358,0,0,0,0,0,0,0,0,0,-1,1126,666,0,0
-91,358,0,0,0,0,0,0,0,0,0,-1,1133,666,0,0
-84,358,0,0,0,0,0,0,0,0,0,-1,1140,666,0,0
-77,358,0,0,0,0,0,0,0,0,0,-1,1147,666,0,0
-70,358,0,0,0,0,0,0,0,0,0,-1,1154,666,0,0
-63,358,0,0,0,0,0,0,0,0,0,-1,1161,666,0,0
-56,358,0,0,0,0,0,0,0,0,0,-1,1168,666,0,0
-49,358,0,0,0,0,0,0,0,0,0,-1,1175,666,0,0
-42,358,0,0,0,0,0,0,0,0,0,-1,1182,666,0,0
-35,358,0,0,0,0,0,0,0,0,0,-1,1189,666,0,0
-28,358,0,0,0,0,0,0,0,0,0,-1,1196,666,0,0
-21,358,0,0,0,0,0,0,0,0,0,-1,1203,666,0,0
-14,358,0,0,0,0,0,0,0,0,0,-1,1210,666,0,0
-7,358,0,0,0,0,0,0,0,0,0,-1,1217,666,0,0
0,358,0,0,0,0,0,0,0,0,0,-1,1224,666,0,0
7,358,0,0,0,0,0,0,0,0,0,-1,1231,666,0,0
14,358,0,0,0,0,0,0,0,0,0,-1,1238,666,0,0
21,358,0,0,0,0,0,0,0,0,0,-1,1245,666,0,0
28,358,0,0,0,0,0,0,0,0,0,-1,1252,666,0,0
35,358,0,0,0,0,0,0,0,0,0,-1,1259,666,0,0
42,358,0,0,0,0,0,0,0,0,0,-1,1266,666,0,0
49,358,0,0,0,0,0,0,0,0,0,-1,1273,666,0,0
56,358,0,0,0,0,0,0,0,0,0,-1,1280,666,0,0
63,358,0,0,0,0,0,0,0,0,0,-1,1287,666,0,0
70,358,0,0,0,0,0,0,0,0,0,-1,1294,666,0,0
77,358,0,0,0,0,0,0,0,0,0,-1,1301,666,0,0
84,358,0,0,0,0,0,0,0,0,0,-1,1308,666,0,0
91,358,0,0,0,0,0,0,0,0,0,-1,1315,666,0,0
98,358,0,0,0,0,0,0,0,0,0,-1,1322,666,0,0
105,358,0,0,0,0,0,0,0,0,0,-1,1329,666,0,0
112,358,0,0,0,0,0,0,0,0,0,-1,1336,666,0,0
119,358,0,0,0,0,0,0,0,0,0,-1,1343,666,0,0
126,358,0,0,0,0,0,0,0,0,0,-1,1350,666,0,0
133,358,0,0,0,0,0,0,0,0,0,-1,1357,666,0,0
140,358,0,0,0,0,0,0,0,0,0,-1,1364,666,0,0
147,358,0,0,0,0,0,0,0,0,0,-1,1371,666,0,0
154,358,0,0,0,0,0,0,0,0,0,-1,1378,666,0,0
161,358,0,0,0,0,0,0,0,0,0,-1,1385,666,0,0
168,358,0,0,0,0,0,0,0,0,0,-1,1392,666,0,0
175,358,0,0,0,0,0,0,0,0,0,-1,1399,666,0,0
182,358,0,0,0,0,0,0,0,0,0,-1,1406,666,0,0
189,358,0,0,0,0,0,0,0,0,0,-1,1413,666,0,0
196,358,0,0,0,0,0,0,0,0,0,-1,1420,666,0,0
203,358,0,0,0,0,0,0,0,0,0,-1,1427,666,0,0
210,358,0,0,0,0,0,0,0,0,0,-1,1434,666,0,0
217,358,0,0,0,0,0,0,0,0,0,-1,1441,666,0,0
224,358,0,0,0,0,0,0,0,0,0,-1,1448,666,0,0
231,358,0,0,0,0,0,0,0,0,0,-1,1455,666,0,0
238,358,0,0,0,0,0,0,0,0,0,-1,1462,666,0,0
245,358,0,0,0,0,0,0,0,0,0,-1,1469,666,0,0
252,358,0,0,0,0,0,0,0,0,0,-1,1476,666,0,0
259,358,0,0,0,0,0,0,0,0,0,-1,1483,666,0,0
266,358,0,0,0,0,0,0,0,0,0,-1,1490,666,0,0
273,358,0,0,0,0,0,0,0,0,0,-1,1497,666,0,0
280,358,0,0,0,0,0,0,0,0,0,-1,1504,666,0,0
287,358,0,0,0,0,0,0,0,0,0,-1,1511,666,0,0
294,358,0,0,0,0,0,0,0,0,0,-1,1518,666,0,0
301,358,0,0,0,0,0,0,0,0,0,-1,1525,666,0,0
308,358,0,0,0,0,0,0,0,0,0,-1,1532,666,0,0
315,358,0,0,0,0,0,0,0,0,0,-1,1539,666,0,0
322,358,0,0,0,0,0,0,0,0,0,-1,1546,666,0,0
329,358,0,0,0,0,0,0,0,0,0,-1,1553,666,0,0
336,358,0,0,0,0,0,0,0,0,0,-1,1560,666,0,0
343,358,0,0,0,0,0,0,0,0,0,-1,1567,666,0,0
350,358,0,0,0,0,0,0,0,0,0,-1,1574,666,0,0
357,358,0,0,0,0,0,0,0,0,0,-1,1581,666,0,0
364,358,0,0,0,0,0,0,0,0,0,-1,1588,666,0,0
371,358,0,0,0,0,0,0,0,0,0,-1,1595,666,0,0
378,358,0,0,0,0,0,0,0,0,0,-1,1602,666,0,0
385,358,0,0,0,0,0,0,0,0,0,-1,1609,666,0,0
392,358,0,0,0,0,0,0,0,0,0,-1,1616,666,0,0
399,358,0,0,0,0,0,0,0,0,0,-1,1623,666,0,0
406,358,0,0,0,0,0,0,0,0,0,-1,1630,666,0,0
413,358,0,0,0,0,0,0,0,0,0,-1,1637,666,0,0
420,358,0,0,0,0,0,0,0,0,0,-1,1644,666,0,0
427,358,0,0,0,0,0,0,0,0,0,-1,1651,666,0,0
434,358,0,0,0,0,0,0,0,0,0,-1,1658,666,0,0
441,358,0,0,0,0,0,0,0,0,0,-1,1665,666,0,0
448,358,0,0,0,0,0,0,0,0,0,-1,1672,666,0,0
455,358,0,0,0,0,0,0,0,0,0,-1,1679,666,0,0
462,358,0,0,0,0,0,0,0,0,0,-1,1686,666,0,0
469,358,0,0,0,0,0,0,0,0,0,-1,1693,666,0,0
476,358,0,0,0,0,0,0,0,0,0,-1,1700,666,0,0
483,358,0,0,0,0,0,0,0,0,0,-1,1707,666,0,0
490,358,0,0,0,0,0,0,0,0,0,-1,1714,666,0,0
497,358,8.57239,1.1322,0,0,0,0,0,0,0,-1,1721,666,8.57234,-1.13219
504,358,10.5972,0.832947,0,0,0,0,0,0,0,-1,1728,666,10.5972,-0.832968
511,358,10.6873,0.868469,0,0,0,0,0,0,0,-1,1735,666,10.6872,-0.868484
518,358,16.5884,2.34894,0,0,0,0,0,0,0,-1,1742,666,16.5884,-2.34894
525,358,15.7626,3.65344,0,0,0,0,0,0,0,-1,1749,666,15.7626,-3.65342
532,358,14.9368,4.95789,0,0,0,0,0,0,0,-1,1756,666,14.9367,-4.9579
539,358,15.1597,3.42694,0,0,0,0,0,0,0,-1,1763,666,15.1597,-3.42692
546,358,12.3792,1.53558,0,0,0,0,0,0,0,-1,1770,666,12.3792,-1.5356
553,358,11.6584,1.26172,0,0,0,0,0,0,0,-1,1777,666,11.6585,-1.26175
560,358,10.8234,1.43042,0,0,0,0,0,0,0,-1,1784,666,10.8233,-1.43041
567,358,10.1333,-0.955139,0,0,0,0,0,0,0,-1,1791,666,10.1333,0.955132
574,358,12.9646,-2.48212,0,0,0,0,0,0,0,-1,1798,666,12.9646,2.48211
581,358,12.6339,-2.17145,-0.00699774,0.00277485,-0.00209533,0.00320515,-0.00742805,-1.36825,0.00629839,0.0378528,1805,666,12.6339,2.17146
588,358,12.3881,-1.92639,-0.00469784,0.00165976,-0.00169265,0.00208233,-0.00512041,-1.32615,0.00428003,0.0185423,1812,666,12.3881,1.92637
595,358,12.4346,-1.57257,-0.00290551,0.00103578,-0.00122375,0.00138483,-0.00325456,-1.29294,0.00275011,0.0125021,1819,666,12.4345,1.57254
602,358,12.4224,-1.26288,-0.00141973,0.000809697,-0.000687538,0.00100468,-0.00161471,-1.29446,0.00152591,0.0128379,1826,666,12.4223,1.26287
609,358,12.3862,-0.979736,-0.000507354,0.00080647,-0.000229537,0.000845417,-0.000546301,-1.40272,0.000809672,0.0167695,1833,666,12.3862,0.979745
616,358,12.4012,-0.684814,-3.42882e-05,0.000706301,-3.77757e-05,0.000708223,-3.62101e-05,-1.51996,0.00048467,0.0163233,1840,666,12.4012,0.684812
623,358,12.4525,-0.384033,-0.000165431,0.000813531,5.54694e-05,0.000816664,-0.000168564,1.51438,0.000608464,0.0144273,1847,666,12.4526,0.384034
630,358,12.4545,-0.0929565,-0.000927089,0.000790952,-5.32518e-06,0.000790968,-0.000927105,-1.5677,0.000992968,0.0180061,1854,666,12.4545,0.0929386
637,358,12.4375,0.203125,-0.00239626,0.000896734,-0.000335715,0.000930611,-0.00243013,-1.47023,0.00200367,0.0253885,1861,666,12.4376,-0.20314
644,358,12.4166,0.492065,-0.00453861,0.000739151,-0.00100869,0.000925362,-0.00472482,-1.38824,0.00349936,0.0201603,1868,666,12.4167,-0.492073
651,358,12.4924,0.840027,-0.00723987,0.000436464,-0.0019375,0.000897764,-0.00770117,-1.33706,0.00545804,0.0217702,1875,666,12.4924,-0.840019
658,358,12.2198,1.03387,-0.0106507,-7.0031e-06,-0.00316724,0.000864171,-0.0115218,-1.30238,0.00798488,0.0395243,1882,666,12.2198,-1.03385
665,358,11.8558,1.39148,0,0,0,0,0,0,0,-1,1889,666,11.8558,-1.39146
672,358,11.5792,2.1955,0,0,0,0,0,0,0,-1,1896,666,11.5792,-2.19552
679,358,12.1294,2.19702,0,0,0,0,0,0,0,-1,1903,666,12.1294,-2.19703
686,358,11.9557,2.2002,0,0,0,0,0,0,0,-1,1910,666,11.9557,-2.20021
693,358,13.188,2.52203,0,0,0,0,0,0,0,-1,1917,666,13.188,-2.52202
700,358,0,0,0,0,0,0,0,0,0,-1,1924,666,0,0
707,358,0,0,0,0,0,0,0,0,0,-1,1931,666,0,0
714,358,0,0,0,0,0,0,0,0,0,-1,1938,666,0,0
721,358,0,0,0,0,0,0,0,0,0,-1,1945,666,0,0
728,358,0,0,0,0,0,0,0,0,0,-1,1952,666,0,0
735,358,0,0,0,0,0,0,0,0,0,-1,1959,666,0,0
742,358,0,0,0,0,0,0,0,0,0,-1,1966,666,0,0
749,358,0,0,0,0,0,0,0,0,0,-1,1973,666,0,0
756,358,0,0,0,0,0,0,0,0,0,-1,1980,666,0,0
763,358,0,0,0,0,0,0,0,0,0,-1,1987,666,0,0
770,358,0,0,0,0,0,0,0,0,0,-1,1994,666,0,0
777,358,0,0,0,0,0,0,0,0,0,-1,2001,666,0,0
784,358,0,0,0,0,0,0,0,0,0,-1,2008,666,0,0
791,358,0,0,0,0,0,0,0,0,0,-1,2015,666,0,0
798,358,0,0,0,0,0,0,0,0,0,-1,2022,666,0,0
805,358,0,0,0,0,0,0,0,0,0,-1,2029,666,0,0
812,358,0,0,0,0,0,0,0,0,0,-1,2036,666,0,0
-700,351,0,0,0,0,0,0,0,0,0,-1,524,673,0,0
-693,351,0,0,0,0,0,0,0,0,0,-1,531,673,0,0
-686,351,0,0,0,0,0,0,0,0,0,-1,538,673,0,0
-679,351,0,0,0,0,0,0,0,0,0,-1,545,673,0,0
-672,351,0,0,0,0,0,0,0,0,0,-1,552,673,0,0
-665,351,0,0,0,0,0,0,0,0,0,-1,559,673,0,0
-658,351,0,0,0,0,0,0,0,0,0,-1,566,673,0,0
-651,351,0,0,0,0,0,0,0,0,0,-1,573,673,0,0
-644,351,0,0,0,0,0,0,0,0,0,-1,580,673,0,0
-637,351,0,0,0,0,0,0,0,0,0,-1,587,673,0,0
-630,351,0,0,0,0,0,0,0,0,0,-1,594,673,0,0
-623,351,0,0,0,0,0,0,0,0,0,-1,601,673,0,0
-616,351,0,0,0,0,0,0,0,0,0,-1,608,673,0,0
-609,351,0,0,0,0,0,0,0,0,0,-1,615,673,0,0
-602,351,0,0,0,0,0,0,0,0,0,-1,622,673,0,0
-595,351,0,0,0,0,0,0,0,0,0,-1,629,673,0,0
-588,351,0,0,0,0,0,0,0,0,0,-1,636,673,0,0
-581,351,-9.75244,5.48486,0,0,0,0,0,0,0,-1,643,673,-9.75243,-5.48489
-574,351,-8.81525,4.05865,0,0,0,0,0,0,0,-1,650,673,-8.81523,-4.05863
-567,351,-4.51764,5.91309,0,0,0,0,0,0,0,-1,657,673,-4.51762,-5.91311
-560,351,-4.77185,4.50616,0,0,0,0,0,0,0,-1,664,673,-4.77183,-4.50618
-553,351,-5.66913,2.50208,0,0,0,0,0,0,0,-1,671,673,-5.66913,-2.50205
-546,351,-5.84174,1.73657,-0.0251993,0.0697214,-0.0345262,0.0809512,-0.0364292,-1.25633,0.0693756,0.0440167,678,673,-5.84171,-1.7366
-539,351,-6.0119,0.619873,-0.0193825,0.0524322,-0.0267566,0.0613049,-0.0282552,-1.2506,0.0528681,0.0457226,685,673,-6.01188,-0.619854
-532,351,-6.22754,-0.48468,-0.0147764,0.0387747,-0.0202649,0.0455788,-0.0215806,-1.24686,0.0395911,0.0340458,692,673,-6.22755,0.484693
-525,351,-6.47308,-1.1532,-0.0109933,0.0280161,-0.0149027,0.0330578,-0.016035,-1.24458,0.0289061,0.0238188,699,673,-6.47308,1.15319
-518,351,-6.53809,-1.35931,-0.00786052,0.0196716,-0.0105917,0.0232747,-0.0114636,-1.24289,0.020439,0.0118121,706,673,-6.53806,1.35931
-511,351,-6.52704,-1.63861,-0.00524343,0.0132134,-0.00725491,0.0157237,-0.00775373,-1.23768,0.0138126,0.00991568,713,673,-6.52701,1.63861
-504,351,-6.52936,-1.92566,-0.00282284,0.00795427,-0.00483226,0.00980362,-0.00467219,-1.20528,0.00853085,0.00922327,720,673,-6.52936,1.92566
-497,351,-6.5354,-2.19122,-0.000958493,0.00467143,-0.00311195,0.00605269,-0.00233975,-1.15306,0.00500095,0.00987823,727,673,-6.53541,2.19125
-490,351,-6.53821,-2.46722,0.000766943,0.00213161,-0.00181558,0.00338883,-0.000490287,-0.965143,0.00243913,0.00942392,734,673,-6.5382,2.46722
-483,351,-6.53186,-2.75037,0.00229444,0.000564162,-0.00134579,0.00302918,-0.000170579,-0.499733,0.00207865,0.0113525,741,673,-6.53185,2.75035
-476,351,-6.53766,-3.02142,0.00366363,0.000199793,-0.00161298,0.00429841,-0.000434982,-0.374927,0.00302105,0.0112393,748,673,-6.53768,3.02143
-469,351,-6.53528,-3.2854,0.00490063,0.000444743,-0.00234709,0.00590882,-0.000563445,-0.405717,0.00413983,0.0132084,755,673,-6.53531,3.28541
-462,351,-6.53412,-3.6095,0.0058717,0.000662378,-0.00308916,0.00730773,-0.000773648,-0.435143,0.00514911,0.0185098,762,673,-6.53411,3.60952
-455,351,-6.44073,-3.95892,0.00653292,0.00122356,-0.00382138,0.00853122,-0.000774744,-0.481821,0.00596253,0.0375784,769,673,-6.44074,3.95891
-448,351,-6.00604,-3.9574,0,0,0,0,0,0,0,-1,776,673,-6.00607,3.95739
-441,351,-4.31567,-2.3009,0,0,0,0,0,0,0,-1,783,673,-4.31565,2.30089
-434,351,-3.81708,-2.28003,0,0,0,0,0,0,0,-1,790,673,-3.81706,2.28006
-427,351,-2.05157,-2.7785,0,0,0,0,0,0,0,-1,797,673,-2.05157,2.77848
-420,351,-1.06989,-2.43665,0,0,0,0,0,0,0,-1,804,673,-1.06991,2.43663
-413,351,-0.392334,-2.06671,0,0,0,0,0,0,0,-1,811,673,-0.392363,2.06672
-406,351,-1.86316,-2.58105,0,0,0,0,0,0,0,-1,818,673,-1.86313,2.58106
-399,351,1.00952,-1.53455,0,0,0,0,0,0,0,-1,825,673,1.00954,1.53457
-392,351,-1.02197,0.877136,0,0,0,0,0,0,0,-1,832,673,-1.02195,-0.877143
-385,351,-1.47205,1.04437,0,0,0,0,0,0,0,-1,839,673,-1.47207,-1.04435
-378,351,0,0,0,0,0,0,0,0,0,-1,846,673,0,0
-371,351,0,0,0,0,0,0,0,0,0,-1,853,673,0,0
-364,351,0,0,0,0,0,0,0,0,0,-1,860,673,0,0
-357,351,0,0,0,0,0,0,0,0,0,-1,867,673,0,0
-350,351,0,0,0,0,0,0,0,0,0,-1,874,673,0,0
-343,351,0,0,0,0,0,0,0,0,0,-1,881,673,0,0
-336,351,0,0,0,0,0,0,0,0,0,-1,888,673,0,0
-329,351,0,0,0,0,0,0,0,0,0,-1,895,673,0,0
-322,351,0,0,0,0,0,0,0,0,0,-1,902,673,0,0
-315,351,0,0,0,0,0,0,0,0,0,-1,909,673,0,0
-308,351,0,0,0,0,0,0,0,0,0,-1,916,673,0,0
-301,351,0,0,0,0,0,0,0,0,0,-1,923,673,0,0
-294,351,0,0,0,0,0,0,0,0,0,-1,930,673,0,0
-287,351,0,0,0,0,0,0,0,0,0,-1,937,673,0,0
-280,351,0,0,0,0,0,0,0,0,0,-1,944,673,0,0
-273,351,0,0,0,0,0,0,0,0,0,-1,951,673,0,0
-266,351,0,0,0,0,0,0,0,0,0,-1,958,673,0,0
-259,351,0,0,0,0,0,0,0,0,0,-1,965,673,0,0
-252,351,0,0,0,0,0,0,0,0,0,-1,972,673,0,0
-245,351,0,0,0,0,0,0,0,0,0,-1,979,673,0,0
-238,351,0,0,0,0,0,0,0,0,0,-1,986,673,0,0
-231,351,0,0,0,0,0,0,0,0,0,-1,993,673,0,0
-224,351,0,0,0,0,0,0,0,0,0,-1,1000,673,0,0
-217,351,0,0,0,0,0,0,0,0,0,-1,1007,673,0,0
-210,351,0,0,0,0,0,0,0,0,0,-1,1014,673,0,0
-203,351,0,0,0,0,0,0,0,0,0,-1,1021,673,0,0
-196,351,0,0,0,0,0,0,0,0,0,-1,1028,673,0,0
-189,351,0,0,0,0,0,0,0,0,0,-1,1035,673,0,0
-182,351,0,0,0,0,0,0,0,0,0,-1,1042,673,0,0
-175,351,0,0,0,0,0,0,0,0,0,-1,1049,673,0,0
-168,351,0,0,0,0,0,0,0,0,0,-1,1056,673,0,0
-161,351,0,0,0,0,0,0,0,0,0,-1,1063,673,0,0
-154,351,0,0,0,0,0,0,0,0,0,-1,1070,673,0,0
-147,351,0,0,0,0,0,0,0,0,0,-1,1077,673,0,0
-140,351,0,0,0,0,0,0,0,0,0,-1,1084,673,0,0
-133,351,0,0,0,0,0,0,0,0,0,-1,1091,673,0,0
-126,351,0,0,0,0,0,0,0,0,0,-1,1098,673,0,0
-119,351,0,0,0,0,0,0,0,0,0,-1,1105,673,0,0
-112,351,0,0,0,0,0,0,0,0,0,-1,1112,673,0,0
-105,351,0,0,0,0,0,0,0,0,0,-1,1119,673,0,0
-98,351,0,0,0,0,0,0,0,0,0,-1,1126,673,0,0
-91,351,0,0,0,0,0,0,0,0,0,-1,1133,673,0,0
-84,351,0,0,0,0,0,0,0,0,0,-1,1140,673,0,0
-77,351,0,0,0,0,0,0,0,0,0,-1,1147,673,0,0
-70,351,0,0,0,0,0,0,0,0,0,-1,1154,673,0,0
-63,351,0,0,0,0,0,0,0,0,0,-1,1161,673,0,0
-56,351,0,0,0,0,0,0,0,0,0,-1,1168,673,0,0
-49,351,0,0,0,0,0,0,0,0,0,-1,1175,673,0,0
-42,351,0,0,0,0,0,0,0,0,0,-1,1182,673,0,0
-35,351,0,0,0,0,0,0,0,0,0,-1,1189,673,0,0
-28,351,0,0,0,0,0,0,0,0,0,-1,1196,673,0,0
-21,351,0,0,0,0,0,0,0,0,0,-1,1203,673,0,0
-14,351,0,0,0,0,0,0,0,0,0,-1,1210,673,0,0
-7,351,0,0,0,0,0,0,0,0,0,-1,1217,673,0,0
0,351,0,0,0,0,0,0,0,0,0,-1,1224,673,0,0
7,351,0,0,0,0,0,0,0,0,0,-1,1231,673,0,0
14,351,0,0,0,0,0,0,0,0,0,-1,1238,673,0,0
21,351,0,0,0,0,0,0,0,0,0,-1,1245,673,0,0
28,351,0,0,0,0,0,0,0,0,0,-1,1252,673,0,0
35,351,0,0,0,0,0,0,0,0,0,-1,1259,673,0,0
42,351,0,0,0,0,0,0,0,0,0,-1,1266,673,0,0
49,351,0,0,0,0,0,0,0,0,0,-1,1273,673,0,0
56,351,0,0,0,0,0,0,0,0,0,-1,1280,673,0,0
63,351,0,0,0,0,0,0,0,0,0,-1,1287,673,0,0
70,351,0,0,0,0,0,0,0,0,0,-1,1294,673,0,0
77,351,0,0,0,0,0,0,0,0,0,-1,1301,673,0,0
84,351,0,0,0,0,0,0,0,0,0,-1,1308,673,0,0
91,351,0,0,0,0,0,0,0,0,0,-1,1315,673,0,0
98,351,0,0,0,0,0,0,0,0,0,-1,1322,673,0,0
105,351,0,0,0,0,0,0,0,0,0,-1,1329,673,0,0
112,351,0,0,0,0,0,0,0,0,0,-1,1336,673,0,0
119,351,0,0,0,0,0,0,0,0,0,-1,1343,673,0,0
126,351,0,0,0,0,0,0,0,0,0,-1,1350,673,0,0
133,351,0,0,0,0,0,0,0,0,0,-1,1357,673,0,0
140,351,0,0,0,0,0,0,0,0,0,-1,1364,673,0,0
147,351,0,0,0,0,0,0,0,0,0,-1,1371,673,0,0
154,351,0,0,0,0,0,0,0,0,0,-1,1378,673,0,0
161,351,0,0,0,0,0,0,0,0,0,-1,1385,673,0,0
168,351,0,0,0,0,0,0,0,0,0,-1,1392,673,0,0
175,351,0,0,0,0,0,0,0,0,0,-1,1399,673,0,0
182,351,0,0,0,0,0,0,0,0,0,-1,1406,673,0,0
189,351,0,0,0,0,0,0,0,0,0,-1,1413,673,0,0
196,351,0,0,0,0,0,0,0,0,0,-1,1420,673,0,0
203,351,0,0,0,0,0,0,0,0,0,-1,1427,673,0,0
210,351,0,0,0,0,0,0,0,0,0,-1,1434,673,0,0
217,351,0,0,0,0,0,0,0,0,0,-1,1441,673,0,0
224,351,0,0,0,0,0,0,0,0,0,-1,1448,673,0,0
231,351,0,0,0,0,0,0,0,0,0,-1,1455,673,0,0
238,351,0,0,0,0,0,0,0,0,0,-1,1462,673,0,0
245,351,0,0,0,0,0,0,0,0,0,-1,1469,673,0,0
252,351,0,0,0,0,0,0,0,0,0,-1,1476,673,0,0
259,351,0,0,0,0,0,0,0,0,0,-1,1483,673,0,0
266,351,0,0,0,0,0,0,0,0,0,-1,1490,673,0,0
273,351,0,0,0,0,0,0,0,0,0,-1,1497,673,0,0
280,351,0,0,0,0,0,0,0,0,0,-1,1504,673,0,0
287,351,0,0,0,0,0,0,0,0,0,-1,1511,673,0,0
294,351,0,0,0,0,0,0,0,0,0,-1,1518,673,0,0
301,351,0,0,0,0,0,0,0,0,0,-1,1525,673,0,0
308,351,0,0,0,0,0,0,0,0,0,-1,1532,673,0,0
315,351,0,0,0,0,0,0,0,0,0,-1,1539,673,0,0
322,351,0,0,0,0,0,0,0,0,0,-1,1546,673,0,0
329,351,0,0,0,0,0,0,0,0,0,-1,1553,673,0,0
336,351,0,0,0,0,0,0,0,0,0,-1,1560,673,0,0
343,351,0,0,0,0,0,0,0,0,0,-1,1567,673,0,0
350,351,0,0,0,0,0,0,0,0,0,-1,1574,673,0,0
357,351,0,0,0,0,0,0,0,0,0,-1,1581,673,0,0
364,351,0,0,0,0,0,0,0,0,0,-1,1588,673,0,0
371,351,0,0,0,0,0,0,0,0,0,-1,1595,673,0,0
378,351,0,0,0,0,0,0,0,0,0,-1,1602,673,0,0
385,351,0,0,0,0,0,0,0,0,0,-1,1609,673,0,0
392,351,0,0,0,0,0,0,0,0,0,-1,1616,673,0,0
399,351,0,0,0,0,0,0,0,0,0,-1,1623,673,0,0
406,351,0,0,0,0,0,0,0,0,0,-1,1630,673,0,0
413,351,0,0,0,0,0,0,0,0,0,-1,1637,673,0,0
420,351,0,0,0,0,0,0,0,0,0,-1,1644,673,0,0
427,351,0,0,0,0,0,0,0,0,0,-1,1651,673,0,0
434,351,0,0,0,0,0,0,0,0,0,-1,1658,673,0,0
441,351,0,0,0,0,0,0,0,0,0,-1,1665,673,0,0
448,351,0,0,0,0,0,0,0,0,0,-1,1672,673,0,0
455,351,0,0,0,0,0,0,0,0,0,-1,1679,673,0,0
462,351,0,0,0,0,0,0,0,0,0,-1,1686,673,0,0
469,351,0,0,0,0,0,0,0,0,0,-1,1693,673,0,0
476,351,0,0,0,0,0,0,0,0,0,-1,1700,673,0,0
483,351,0,0,0,0,0,0,0,0,0,-1,1707,673,0,0
490,351,0,0,0,0,0,0,0,0,0,-1,1714,673,0,0
497,351,0,0,0,0,0,0,0,0,0,-1,1721,673,0,0
504,351,10.8842,1.61615,0,0,0,0,0,0,0,-1,1728,673,10.8842,-1.61618
511,351,15.4548,0.0236816,0,0,0,0,0,0,0,-1,1735,673,15.4549,-0.0236664
518,351,16.7448,2.49268,0,0,0,0,0,0,0,-1,1742,673,16.7448,-2.49269
525,351,16.0701,3.43225,0,0,0,0,0,0,0,-1,1749,673,16.07,-3.43227
532,351,16.4181,3.33472,0,0,0,0,0,0,0,-1,1756,673,16.4181,-3.33473
539,351,15.3387,3.54486,0,0,0,0,0,0,0,-1,1763,673,15.3387,-3.54485
546,351,13.9387,4.59357,0,0,0,0,0,0,0,-1,1770,673,13.9388,-4.59359
553,351,12.0682,2.02832,0,0,0,0,0,0,0,-1,1777,673,12.0683,-2.02831
560,351,12.0173,0.55304,0,0,0,0,0,0,0,-1,1784,673,12.0174,-0.553028
567,351,10.7827,0.130188,0,0,0,0,0,0,0,-1,1791,673,10.7827,-0.130183
574,351,13.405,-1.09204,0,0,0,0,0,0,0,-1,1798,673,13.405,1.09207
581,351,12.4701,-1.87769,0,0,0,0,0,0,0,-1,1805,673,12.4701,1.87767
588,351,12.6902,-1.82544,-0.00969049,0.0044633,-0.00152712,0.00462619,-0.00985339,-1.46453,0.00853944,0.0374002,1812,673,12.6902,1.82545
595,351,12.7155,-1.61743,-0.00608446,0.00256783,-0.00125524,0.00274626,-0.00626289,-1.4296,0.00533189,0.0213322,1819,673,12.7154,1.61745
602,351,12.7443,-1.27197,-0.00332119,0.00148047,-0.000855152,0.00162823,-0.00346895,-1.39971,0.00300614,0.017386,1826,673,12.7442,1.27199
609,351,12.7434,-0.981323,-0.00139276,0.00083651,-0.000449824,0.000923854,-0.0014801,-1.37901,0.00140026,0.0168682,1833,673,12.7434,0.981323
616,351,12.718,-0.697083,-0.00030039,0.000400205,-0.000280984,0.000498973,-0.000399159,-1.23278,0.000519603,0.0145613,1840,673,12.718,0.697078
623,351,12.7522,-0.399658,-0.000111272,0.00035665,-0.000187065,0.000422241,-0.000176862,-1.23356,0.000355431,0.0148375,1847,673,12.7522,0.399634
630,351,12.8131,-0.097229,-0.000796599,0.000274314,-0.000254205,0.000331591,-0.000853876,-1.34918,0.000706225,0.0238913,1854,673,12.8131,0.0971998
637,351,12.8077,0.235352,-0.00211635,0.000380267,-0.000549065,0.000495684,-0.00223177,-1.36361,0.00167766,0.0286135,1861,673,12.8077,-0.235366
644,351,12.7218,0.523621,-0.00406351,0.000302756,-0.00115153,0.000587837,-0.00434859,-1.32811,0.00311356,0.0216251,1868,673,12.7219,-0.523603
651,351,12.7397,0.823303,-0.00647557,0.000105903,-0.00193971,0.000635038,-0.0070047,-1.30448,0.00489523,0.0158546,1875,673,12.7397,-0.823324
658,351,12.6954,1.14441,-0.00942138,-0.000127597,-0.00291933,0.000713326,-0.0102623,-1.29034,0.00709128,0.0264889,1882,673,12.6955,-1.14439
665,351,12.3616,1.26276,-0.0129371,-0.000279267,-0.00397031,0.000862994,-0.0140794,-1.29066,0.00968676,0.0344855,1889,673,12.3615,-1.26278
672,351,12.1342,1.52588,0,0,0,0,0,0,0,-1,1896,673,12.1341,-1.52588
679,351,12.4382,2.06042,0,0,0,0,0,0,0,-1,1903,673,12.4383,-2.06043
686,351,13.0294,2.1189,0,0,0,0,0,0,0,-1,1910,673,13.0294,-2.11892
693,351,13.5187,2.34595,0,0,0,0,0,0,0,-1,1917,673,13.5187,-2.34596
700,351,14.5629,-2.40173,0,0,0,0,0,0,0,-1,1924,673,14.5629,2.40172
707,351,0,0,0,0,0,0,0,0,0,-1,1931,673,0,0
714,351,0,0,0,0,0,0,0,0,0,-1,1938,673,0,0
721,351,0,0,0,0,0,0,0,0,0,-1,1945,673,0,0
728,351,0,0,0,0,0,0,0,0,0,-1,1952,673,0,0
735,351,0,0,0,0,0,0,0,0,0,-1,1959,673,0,0
742,351,0,0,0,0,0,0,0,0,0,-1,1966,673,0,0
749,351,0,0,0,0,0,0,0,0,0,-1,1973,673,0,0
756,351,0,0,0,0,0,0,0,0,0,-1,1980,673,0,0
763,351,0,0,0,0,0,0,0,0,0,-1,1987,673,0,0
770,351,0,0,0,0,0,0,0,0,0,-1,1994,673,0,0
777,351,0,0,0,0,0,0,0,0,0,-1,2001,673,0,0
784,351,0,0,0,0,0,0,0,0,0,-1,2008,673,0,0
791,351,0,0,0,0,0,0,0,0,0,-1,2015,673,0,0
798,351,0,0,0,0,0,0,0,0,0,-1,2022,673,0,0
805,351,0,0,0,0,0,0,0,0,0,-1,2029,673,0,0
812,351,0,0,0,0,0,0,0,0,0,-1,2036,673,0,0
-700,344,0,0,0,0,0,0,0,0,0,-1,524,680,0,0
-693,344,0,0,0,0,0,0,0,0,0,-1,531,680,0,0
-686,344,0,0,0,0,0,0,0,0,0,-1,538,680,0,0
-679,344,0,0,0,0,0,0,0,0,0,-1,545,680,0,0
-672,344,0,0,0,0,0,0,0,0,0,-1,552,680,0,0
-665,344,0,0,0,0,0,0,0,0,0,-1,559,680,0,0
-658,344,0,0,0,0,0,0,0,0,0,-1,566,680,0,0
-651,344,0,0,0,0,0,0,0,0,0,-1,573,680,0,0
-644,344,0,0,0,0,0,0,0,0,0,-1,580,680,0,0
-637,344,0,0,0,0,0,0,0,0,0,-1,587,680,0,0
-630,344,0,0,0,0,0,0,0,0,0,-1,594,680,0,0
-623,344,0,0,0,0,0,0,0,0,0,-1,601,680,0,0
-616,344,0,0,0,0,0,0,0,0,0,-1,608,680,0,0
-609,344,0,0,0,0,0,0,0,0,0,-1,615,680,0,0
-602,344,0,0,0,0,0,0,0,0,0,-1,622,680,0,0
-595,344,0,0,0,0,0,0,0,0,0,-1,629,680,0,0
-588,344,-11.2776,7.35101,0,0,0,0,0,0,0,-1,636,680,-11.2777,-7.35101
-581,344,-10.0981,5.95319,0,0,0,0,0,0,0,-1,643,680,-10.0981,-5.95316
-574,344,-8.33264,1.91675,0,0,0,0,0,0,0,-1,650,680,-8.33262,-1.91673
-567,344,-5.22803,5.07648,0,0,0,0,0,0,0,-1,657,680,-5.22804,-5.07645
-560,344,-5.45898,3.70111,-0.0360724,0.0939664,-0.0388884,0.104709,-0.0468146,-1.30128,0.0895852,0.0439724,664,680,-5.459,-3.70113
-553,344,-5.9848,2.58008,0,0,0,0,0,0,0,-1,671,680,-5.98478,-2.5801
-546,344,-6.20636,1.39722,-0.021966,0.0569097,-0.0268826,0.0652004,-0.0302567,-1.27165,0.0563297,0.0434596,678,680,-6.20637,-1.39719
-539,344,-6.57587,0.0422974,-0.0168602,0.0432807,-0.0212487,0.0500306,-0.0236101,-1.26321,0.043419,0.0394107,685,680,-6.57585,-0.042321
-532,344,-6.69586,-0.812439,-0.0127633,0.0322813,-0.0163541,0.0375926,-0.0180746,-1.25677,0.0327914,0.0226832,692,680,-6.69587,0.812448
-525,344,-6.80835,-1.07001,-0.0093571,0.0234446,-0.0121797,0.0274725,-0.013385,-1.25141,0.0240519,0.0198855,699,680,-6.80835,1.06998
-518,344,-6.82721,-1.36816,-0.00649666,0.0164154,-0.00873583,0.0193662,-0.00944741,-1.24505,0.0169609,0.0186504,706,680,-6.82718,1.36816
-511,344,-6.82629,-1.64252,-0.00406194,0.0108605,-0.00599727,0.012972,-0.00617344,-1.23227,0.0112835,0.0158842,713,680,-6.82628,1.6425
-504,344,-6.82294,-1.94385,-0.0017672,0.00629484,-0.00401769,0.00795512,-0.00342749,-1.17893,0.00674282,0.0157702,720,680,-6.82293,1.94383
-497,344,-6.80292,-2.21838,4.44751e-05,0.00335454,-0.002565,0.0047521,-0.00135309,-1.07191,0.00370245,0.0138336,727,680,-6.80294,2.2184
-490,344,-6.82428,-2.48883,0.00173268,0.00108537,-0.00153231,0.00297514,-0.000157092,-0.681318,0.00203781,0.0125198,734,680,-6.82427,2.48881
-483,344,-6.80823,-2.74927,0.00324107,-0.00015171,-0.00129412,0.00367833,-0.000588974,-0.325842,0.00267029,0.0128949,741,680,-6.8082,2.7493
-476,344,-6.80469,-3.0188,0.00464033,-0.000301746,-0.00175127,0.00519799,-0.0008594,-0.308276,0.00378446,0.0144173,748,680,-6.80467,3.01878
-469,344,-6.80847,-3.31335,0.00600695,-1.08558e-05,-0.00266072,0.00701463,-0.00101853,-0.362031,0.00505028,0.0133081,755,680,-6.80849,3.31338
-462,344,-6.78857,-3.64459,0.00731691,0.000216368,-0.00363223,0.00884577,-0.00131249,-0.398404,0.00637983,0.0270567,762,680,-6.78858,3.6446
-455,344,-6.56305,-3.70459,0,0,0,0,0,0,0,-1,769,680,-6.56305,3.70462
-448,344,-5.67657,-2.72864,0,0,0,0,0,0,0,-1,776,680,-5.6766,2.72863
-441,344,-5.09229,-2.34167,0,0,0,0,0,0,0,-1,783,680,-5.09229,2.34168
-434,344,-4.28778,-2.08807,0,0,0,0,0,0,0,-1,790,680,-4.28778,2.08809
-427,344,-3.06506,-1.45404,0,0,0,0,0,0,0,-1,797,680,-3.06505,1.45402
-420,344,-1.96582,-1.57574,0,0,0,0,0,0,0,-1,804,680,-1.96579,1.57574
-413,344,-0.817993,-1.4751,0,0,0,0,0,0,0,-1,811,680,-0.818017,1.47511
-406,344,-0.00714111,-1.25189,0,0,0,0,0,0,0,-1,818,680,-0.00714956,1.25191
-399,344,0.240051,-1.75769,0,0,0,0,0,0,0,-1,825,680,0.240079,1.75767
-392,344,1.11353,-2.05615,0,0,0,0,0,0,0,-1,832,680,1.11351,2.05616
-385,344,0,0,0,0,0,0,0,0,0,-1,839,680,0,0
-378,344,0,0,0,0,0,0,0,0,0,-1,846,680,0,0
-371,344,0,0,0,0,0,0,0,0,0,-1,853,680,0,0
-364,344,0,0,0,0,0,0,0,0,0,-1,860,680,0,0
-357,344,0,0,0,0,0,0,0,0,0,-1,867,680,0,0
-350,344,0,0,0,0,0,0,0,0,0,-1,874,680,0,0
-343,344,0,0,0,0,0,0,0,0,0,-1,881,680,0,0
-336,344,0,0,0,0,0,0,0,0,0,-1,888,680,0,0
-329,344,0,0,0,0,0,0,0,0,0,-1,895,680,0,0
-322,344,0,0,0,0,0,0,0,0,0,-1,902,680,0,0
-315,344,0,0,0,0,0,0,0,0,0,-1,909,680,0,0
-308,344,0,0,0,0,0,0,0,0,0,-1,916,680,0,0
-301,344,0,0,0,0,0,0,0,0,0,-1,923,680,0,0
-294,344,0,0,0,0,0,0,0,0,0,-1,930,680,0,0
-287,344,0,0,0,0,0,0,0,0,0,-1,937,680,0,0
-280,344,0,0,0,0,0,0,0,0,0,-1,944,680,0,0
-273,344,0,0,0,0,0,0,0,0,0,-1,951,680,0,0
-266,344,0,0,0,0,0,0,0,0,0,-1,958,680,0,0
-259,344,0,0,0,0,0,0,0,0,0,-1,965,680,0,0
-252,344,0,0,0,0,0,0,0,0,0,-1,972,680,0,0
-245,344,0,0,0,0,0,0,0,0,0,-1,979,680,0,0
-238,344,0,0,0,0,0,0,0,0,0,-1,986,680,0,0
-231,344,0,0,0,0,0,0,0,0,0,-1,993,680,0,0
-224,344,0,0,0,0,0,0,0,0,0,-1,1000,680,0,0
-217,344,0,0,0,0,0,0,0,0,0,-1,1007,680,0,0
-210,344,0,0,0,0,0,0,0,0,0,-1,1014,680,0,0
-203,344,0,0,0,0,0,0,0,0,0,-1,1021,680,0,0
-196,344,0,0,0,0,0,0,0,0,0,-1,1028,680,0,0
-189,344,0,0,0,0,0,0,0,0,0,-1,1035,680,0,0
-182,344,0,0,0,0,0,0,0,0,0,-1,1042,680,0,0
-175,344,0,0,0,0,0,0,0,0,0,-1,1049,680,0,0
-168,344,0,0,0,0,0,0,0,0,0,-1,1056,680,0,0
-161,344,0,0,0,0,0,0,0,0,0,-1,1063,680,0,0
-154,344,0,0,0,0,0,0,0,0,0,-1,1070,680,0,0
-147,344,0,0,0,0,0,0,0,0,0,-1,1077,680,0,0
-140,344,0,0,0,0,0,0,0,0,0,-1,1084,680,0,0
-133,344,0,0,0,0,0,0,0,0,0,-1,1091,680,0,0
-126,344,0,0,0,0,0,0,0,0,0,-1,1098,680,0,0
-119,344,0,0,0,0,0,0,0,0,0,-1,1105,680,0,0
-112,344,0,0,0,0,0,0,0,0,0,-1,1112,680,0,0
-105,344,0,0,0,0,0,0,0,0,0,-1,1119,680,0,0
-98,344,0,0,0,0,0,0,0,0,0,-1,1126,680,0,0
-91,344,0,0,0,0,0,0,0,0,0,-1,1133,680,0,0
-84,344,0,0,0,0,0,0,0,0,0,-1,1140,680,0,0
-77,344,0,0,0,0,0,0,0,0,0,-1,1147,680,0,0
-70,344,0,0,0,0,0,0,0,0,0,-1,1154,680,0,0
-63,344,0,0,0,0,0,0,0,0,0,-1,1161,680,0,0
-56,344,0,0,0,0,0,0,0,0,0,-1,1168,680,0,0
-49,344,0,0,0,0,0,0,0,0,0,-1,1175,680,0,0
-42,344,0,0,0,0,0,0,0,0,0,-1,1182,680,0,0
-35,344,0,0,0,0,0,0,0,0,0,-1,1189,680,0,0
-28,344,0,0,0,0,0,0,0,0,0,-1,1196,680,0,0
-21,344,0,0,0,0,0,0,0,0,0,-1,1203,680,0,0
-14,344,0,0,0,0,0,0,0,0,0,-1,1210,680,0,0
-7,344,0,0,0,0,0,0,0,0,0,-1,1217,680,0,0
0,344,0,0,0,0,0,0,0,0,0,-1,1224,680,0,0
7,344,0,0,0,0,0,0,0,0,0,-1,1231,680,0,0
14,344,0,0,0,0,0,0,0,0,0,-1,1238,680,0,0
21,344,0,0,0,0,0,0,0,0,0,-1,1245,680,0,0
28,344,0,0,0,0,0,0,0,0,0,-1,1252,680,0,0
35,344,0,0,0,0,0,0,0,0,0,-1,1259,680,0,0
42,344,0,0,0,0,0,0,0,0,0,-1,1266,680,0,0
49,344,0,0,0,0,0,0,0,0,0,-1,1273,680,0,0
56,344,0,0,0,0,0,0,0,0,0,-1,1280,680,0,0
63,344,0,0,0,0,0,0,0,0,0,-1,1287,680,0,0
70,344,0,0,0,0,0,0,0,0,0,-1,1294,680,0,0
77,344,0,0,0,0,0,0,0,0,0,-1,1301,680,0,0
84,344,0,0,0,0,0,0,0,0,0,-1,1308,680,0,0
91,344,0,0,0,0,0,0,0,0,0,-1,1315,680,0,0
98,344,0,0,0,0,0,0,0,0,0,-1,1322,680,0,0
105,344,0,0,0,0,0,0,0,0,0,-1,1329,680,0,0
112,344,0,0,0,0,0,0,0,0,0,-1,1336,680,0,0
119,344,0,0,0,0,0,0,0,0,0,-1,1343,680,0,0
126,344,0,0,0,0,0,0,0,0,0,-1,1350,680,0,0
133,344,0,0,0,0,0,0,0,0,0,-1,1357,680,0,0
140,344,0,0,0,0,0,0,0,0,0,-1,1364,680,0,0
147,344,0,0,0,0,0,0,0,0,0,-1,1371,680,0,0
154,344,0,0,0,0,0,0,0,0,0,-1,1378,680,0,0
161,344,0,0,0,0,0,0,0,0,0,-1,1385,680,0,0
168,344,0,0,0,0,0,0,0,0,0,-1,1392,680,0,0
175,344,0,0,0,0,0,0,0,0,0,-1,1399,680,0,0
182,344,0,0,0,0,0,0,0,0,0,-1,1406,680,0,0
189,344,0,0,0,0,0,0,0,0,0,-1,1413,680,0,0
196,344,0,0,0,0,0,0,0,0,0,-1,1420,680,0,0
203,344,0,0,0,0,0,0,0,0,0,-1,1427,680,0,0
210,344,0,0,0,0,0,0,0,0,0,-1,1434,680,0,0
217,344,0,0,0,0,0,0,0,0,0,-1,1441,680,0,0
224,344,0,0,0,0,0,0,0,0,0,-1,1448,680,0,0
231,344,0,0,0,0,0,0,0,0,0,-1,1455,680,0,0
238,344,0,0,0,0,0,0,0,0,0,-1,1462,680,0,0
245,344,0,0,0,0,0,0,0,0,0,-1,1469,680,0,0
252,344,0,0,0,0,0,0,0,0,0,-1,1476,680,0,0
259,344,0,0,0,0,0,0,0,0,0,-1,1483,680,0,0
266,344,0,0,0,0,0,0,0,0,0,-1,1490,680,0,0
273,344,0,0,0,0,0,0,0,0,0,-1,1497,680,0,0
280,344,0,0,0,0,0,0,0,0,0,-1,1504,680,0,0
287,344,0,0,0,0,0,0,0,0,0,-1,1511,680,0,0
294,344,0,0,0,0,0,0,0,0,0,-1,1518,680,0,0
301,344,0,0,0,0,0,0,0,0,0,-1,1525,680,0,0
308,344,0,0,0,0,0,0,0,0,0,-1,1532,680,0,0
315,344,0,0,0,0,0,0,0,0,0,-1,1539,680,0,0
322,344,0,0,0,0,0,0,0,0,0,-1,1546,680,0,0
329,344,0,0,0,0,0,0,0,0,0,-1,1553,680,0,0
336,344,0,0,0,0,0,0,0,0,0,-1,1560,680,0,0
343,344,0,0,0,0,0,0,0,0,0,-1,1567,680,0,0
350,344,0,0,0,0,0,0,0,0,0,-1,1574,680,0,0
357,344,0,0,0,0,0,0,0,0,0,-1,1581,680,0,0
364,344,0,0,0,0,0,0,0,0,0,-1,1588,680,0,0
371,344,0,0,0,0,0,0,0,0,0,-1,1595,680,0,0
378,344,0,0,0,0,0,0,0,0,0,-1,1602,680,0,0
385,344,0,0,0,0,0,0,0,0,0,-1,1609,680,0,0
392,344,0,0,0,0,0,0,0,0,0,-1,1616,680,0,0
399,344,0,0,0,0,0,0,0,0,0,-1,1623,680,0,0
406,344,0,0,0,0,0,0,0,0,0,-1,1630,680,0,0
413,344,0,0,0,0,0,0,0,0,0,-1,1637,680,0,0
420,344,0,0,0,0,0,0,0,0,0,-1,1644,680,0,0
427,344,0,0,0,0,0,0,0,0,0,-1,1651,680,0,0
434,344,0,0,0,0,0,0,0,0,0,-1,1658,680,0,0
441,344,0,0,0,0,0,0,0,0,0,-1,1665,680,0,0
448,344,0,0,0,0,0,0,0,0,0,-1,1672,680,0,0
455,344,0,0,0,0,0,0,0,0,0,-1,1679,680,0,0
462,344,0,0,0,0,0,0,0,0,0,-1,1686,680,0,0
469,344,0,0,0,0,0,0,0,0,0,-1,1693,680,0,0
476,344,0,0,0,0,0,0,0,0,0,-1,1700,680,0,0
483,344,0,0,0,0,0,0,0,0,0,-1,1707,680,0,0
490,344,0,0,0,0,0,0,0,0,0,-1,1714,680,0,0
497,344,0,0,0,0,0,0,0,0,0,-1,1721,680,0,0
504,344,0,0,0,0,0,0,0,0,0,-1,1728,680,0,0
511,344,15.4819,0.452637,0,0,0,0,0,0,0,-1,1735,680,15.4819,-0.452656
518,344,17.1357,2.31207,0,0,0,0,0,0,0,-1,1742,680,17.1358,-2.31207
525,344,16.4807,2.83368,0,0,0,0,0,0,0,-1,1749,680,16.4807,-2.83368
532,344,19.5029,6.32385,0,0,0,0,0,0,0,-1,1756,680,19.503,-6.32388
539,344,15.3691,3.78113,0,0,0,0,0,0,0,-1,1763,680,15.3691,-3.78113
546,344,14.6722,4.30243,0,0,0,0,0,0,0,-1,1770,680,14.6722,-4.30241
553,344,14.8136,4.35681,0,0,0,0,0,0,0,-1,1777,680,14.8136,-4.35679
560,344,11.9363,2.14185,0,0,0,0,0,0,0,-1,1784,680,11.9362,-2.14182
567,344,11.397,0.925842,0,0,0,0,0,0,0,-1,1791,680,11.397,-0.92583
574,344,10.0004,0.504639,0,0,0,0,0,0,0,-1,1798,680,10.0004,-0.504645
581,344,13.6709,-0.969604,0,0,0,0,0,0,0,-1,1805,680,13.6709,0.969629
588,344,13.075,-1.88458,0,0,0,0,0,0,0,-1,1812,680,13.075,1.88458
595,344,12.9264,-1.6499,0,0,0,0,0,0,0,-1,1819,680,12.9264,1.64988
602,344,13.1527,-1.25531,-0.00559404,0.00285722,-0.000624792,0.00290316,-0.00563998,-1.4974,0.00501604,0.0334089,1826,680,13.1527,1.25531
609,344,13.0483,-0.953247,-0.0025036,0.00123266,-0.000424214,0.00128022,-0.00255116,-1.45915,0.00225225,0.0157009,1833,680,13.0484,0.953259
616,344,12.9983,-0.64856,-0.000578657,0.000304584,-0.000350413,0.000426717,-0.00070079,-1.23542,0.000657346,0.0216311,1840,680,12.9984,0.648563
623,344,13.0596,-0.379578,9.15584e-05,3.352e-05,-0.000259767,0.000323922,-0.000198844,-0.729773,0.000304685,0.0181348,1847,680,13.0596,0.37956
630,344,13.0946,-0.111206,-0.000554874,-8.4332e-05,-0.000350557,0.000102585,-0.000741791,-1.08094,0.000532029,0.0233182,1854,680,13.0946,0.111203
637,344,13.0818,0.195557,-0.00175076,1.8369e-05,-0.000623413,0.000215978,-0.00194837,-1.26384,0.00137656,0.0237113,1861,680,13.0818,-0.195551
644,344,13.0289,0.51886,-0.00350277,1.04896e-05,-0.00115134,0.000354177,-0.00384646,-1.28071,0.00269015,0.0167513,1868,680,13.0289,-0.518852
651,344,13.0391,0.821106,-0.00557305,-6.81786e-05,-0.00178776,0.000461455,-0.00610268,-1.28278,0.00423067,0.0118279,1875,680,13.039,-0.821114
658,344,13.0222,1.15594,-0.00790375,-4.85004e-05,-0.00246943,0.000663305,-0.00861555,-1.29016,0.00597709,0.018755,1882,680,13.0222,-1.15596
665,344,12.9213,1.43475,-0.0106552,9.75522e-05,-0.00318542,0.000970363,-0.011528,-1.30336,0.00802837,0.0285628,1889,680,12.9212,-1.43475
672,344,12.9631,1.63739,-0.0138163,0.000428377,-0.00394361,0.00144728,-0.0148352,-1.31796,0.0104061,0.0233765,1896,680,12.9631,-1.63738
679,344,13.057,1.86823,0,0,0,0,0,0,0,-1,1903,680,13.057,-1.86823
686,344,13.5959,2.00085,0,0,0,0,0,0,0,-1,1910,680,13.596,-2.00088
693,344,12.4362,-1.42346,0,0,0,0,0,0,0,-1,1917,680,12.4361,1.42348
700,344,17.5396,2.61206,0,0,0,0,0,0,0,-1,1924,680,17.5396,-2.61204
707,344,18.5829,3.29352,0,0,0,0,0,0,0,-1,1931,680,18.5828,-3.2935
714,344,0,0,0,0,0,0,0,0,0,-1,1938,680,0,0
721,344,0,0,0,0,0,0,0,0,0,-1,1945,680,0,0
728,344,0,0,0,0,0,0,0,0,0,-1,1952,680,0,0
735,344,0,0,0,0,0,0,0,0,0,-1,1959,680,0,0
742,344,0,0,0,0,0,0,0,0,0,-1,1966,680,0,0
749,344,0,0,0,0,0,0,0,0,0,-1,1973,680,0,0
756,344,0,0,0,0,0,0,0,0,0,-1,1980,680,0,0
763,344,0,0,0,0,0,0,0,0,0,-1,1987,680,0,0
770,344,0,0,0,0,0,0,0,0,0,-1,1994,680,0,0
777,344,0,0,0,0,0,0,0,0,0,-1,2001,680,0,0
784,344,0,0,0,0,0,0,0,0,0,-1,2008,680,0,0
791,344,0,0,0,0,0,0,0,0,0,-1,2015,680,0,0
798,344,0,0,0,0,0,0,0,0,0,-1,2022,680,0,0
805,344,0,0,0,0,0,0,0,0,0,-1,2029,680,0,0
812,344,0,0,0,0,0,0,0,0,0,-1,2036,680,0,0
-700,337,0,0,0,0,0,0,0,0,0,-1,524,687,0,0
-693,337,0,0,0,0,0,0,0,0,0,-1,531,687,0,0
-686,337,0,0,0,0,0,0,0,0,0,-1,538,687,0,0
-679,337,0,0,0,0,0,0,0,0,0,-1,545,687,0,0
-672,337,0,0,0,0,0,0,0,0,0,-1,552,687,0,0
-665,337,0,0,0,0,0,0,0,0,0,-1,559,687,0,0
-658,337,0,0,0,0,0,0,0,0,0,-1,566,687,0,0
-651,337,0,0,0,0,0,0,0,0,0,-1,573,687,0,0
-644,337,0,0,0,0,0,0,0,0,0,-1,580,687,0,0
-637,337,0,0,0,0,0,0,0,0,0,-1,587,687,0,0
-630,337,0,0,0,0,0,0,0,0,0,-1,594,687,0,0
-623,337,0,0,0,0,0,0,0,0,0,-1,601,687,0,0
-616,337,0,0,0,0,0,0,0,0,0,-1,608,687,0,0
-609,337,0,0,0,0,0,0,0,0,0,-1,615,687,0,0
-602,337,0,0,0,0,0,0,0,0,0,-1,622,687,0,0
-595,337,0,0,0,0,0,0,0,0,0,-1,629,687,0,0
-588,337,-11.6191,7.41553,0,0,0,0,0,0,0,-1,636,687,-11.6191,-7.41553
-581,337,-10.4758,5.91254,0,0,0,0,0,0,0,-1,643,687,-10.4758,-5.91253
-574,337,-10.0638,4.36536,0,0,0,0,0,0,0,-1,650,687,-10.0638,-4.36536
-567,337,-6.08502,3.80054,0,0,0,0,0,0,0,-1,657,687,-6.08505,-3.80052
-560,337,-6.35596,2.63251,0,0,0,0,0,0,0,-1,664,687,-6.35597,-2.63253
-553,337,-6.50476,2.21753,0,0,0,0,0,0,0,-1,671,687,-6.50476,-2.21752
-546,337,-6.71075,0.76825,-0.0186022,0.0444492,-0.0196504,0.0500719,-0.024225,-1.2921,0.043752,0.0405728,678,687,-6.71077,-0.768264
-539,337,-7.02429,-0.493652,-0.0142739,0.0341221,-0.0158266,0.0388382,-0.01899,-1.28119,0.0340363,0.0261194,685,687,-7.02431,0.493639
-532,337,-7.0481,-0.840027,-0.0107129,0.0255785,-0.0123546,0.0293851,-0.0145195,-1.27192,0.0258281,0.0148751,692,687,-7.0481,0.840054
-525,337,-7.0871,-1.09943,-0.00768878,0.0185624,-0.00928187,0.0215127,-0.0106391,-1.26304,0.0189134,0.014701,699,687,-7.08712,1.09945
-518,337,-7.10565,-1.37354,-0.00511448,0.0128387,-0.00668145,0.0150523,-0.00732811,-1.25087,0.0131754,0.0227379,706,687,-7.10567,1.37355
-511,337,-7.12604,-1.65326,-0.00285928,0.00821731,-0.00455261,0.00984832,-0.00449029,-1.22678,0.00846887,0.0235392,713,687,-7.12603,1.65324
-504,337,-7.11145,-1.95758,-0.000698205,0.00439351,-0.00302293,0.00579981,-0.0021045,-1.13537,0.00472687,0.022613,720,687,-7.11145,1.95758
-497,337,-7.07336,-2.23358,0.00105315,0.00184906,-0.00186416,0.00335727,-0.000455061,-0.890559,0.00240426,0.0156368,727,687,-7.07334,2.23359
-490,337,-7.10004,-2.50067,0.00269472,-6.04779e-05,-0.00115371,0.00311402,-0.000479774,-0.34859,0.00225303,0.0130364,734,687,-7.10006,2.50064
-483,337,-7.10059,-2.77063,0.00418289,-0.000882887,-0.00120078,0.0044531,-0.0011531,-0.221347,0.00341855,0.0132814,741,687,-7.1006,2.77064
-476,337,-7.08105,-3.06042,0.00562269,-0.000764133,-0.00188757,0.00613884,-0.00128028,-0.266919,0.00457937,0.013201,748,687,-7.08106,3.06045
-469,337,-7.08069,-3.39508,0.00720571,-0.000395417,-0.00302725,0.008264,-0.00145371,-0.33631,0.00605238,0.0236243,755,687,-7.08069,3.39506
-462,337,-6.99286,-3.62341,0,0,0,0,0,0,0,-1,762,687,-6.99287,3.6234
-455,337,-6.00574,-3.12933,0,0,0,0,0,0,0,-1,769,687,-6.00576,3.12934
-448,337,-5.30627,-2.07202,0,0,0,0,0,0,0,-1,776,687,-5.30628,2.07205
-441,337,-4.24762,-1.49597,0,0,0,0,0,0,0,-1,783,687,-4.24762,1.49598
-434,337,-6.86908,1.37531,0,0,0,0,0,0,0,-1,790,687,-6.86908,-1.3753
-427,337,-9.92004,2.487,0,0,0,0,0,0,0,-1,797,687,-9.92002,-2.48701
-420,337,-2.95996,-1.76697,0,0,0,0,0,0,0,-1,804,687,-2.95998,1.76696
-413,337,-1.29169,-1.99487,0,0,0,0,0,0,0,-1,811,687,-1.29171,1.9949
-406,337,-1.02356,-1.89563,0,0,0,0,0,0,0,-1,818,687,-1.02357,1.89564
-399,337,-0.472839,-2.21338,0,0,0,0,0,0,0,-1,825,687,-0.472837,2.2134
-392,337,0,0,0,0,0,0,0,0,0,-1,832,687,0,0
-385,337,0,0,0,0,0,0,0,0,0,-1,839,687,0,0
-378,337,0,0,0,0,0,0,0,0,0,-1,846,687,0,0
-371,337,0,0,0,0,0,0,0,0,0,-1,853,687,0,0
-364,337,0,0,0,0,0,0,0,0,0,-1,860,687,0,0
-357,337,0,0,0,0,0,0,0,0,0,-1,867,687,0,0
-350,337,0,0,0,0,0,0,0,0,0,-1,874,687,0,0
-343,337,0,0,0,0,0,0,0,0,0,-1,881,687,0,0
-336,337,0,0,0,0,0,0,0,0,0,-1,888,687,0,0
-329,337,0,0,0,0,0,0,0,0,0,-1,895,687,0,0
-322,337,0,0,0,0,0,0,0,0,0,-1,902,687,0,0
-315,337,0,0,0,0,0,0,0,0,0,-1,909,687,0,0
-308,337,0,0,0,0,0,0,0,0,0,-1,916,687,0,0
-301,337,0,0,0,0,0,0,0,0,0,-1,923,687,0,0
-294,337,0,0,0,0,0,0,0,0,0,-1,930,687,0,0
-287,337,0,0,0,0,0,0,0,0,0,-1,937,687,0,0
-280,337,0,0,0,0,0,0,0,0,0,-1,944,687,0,0
-273,337,0,0,0,0,0,0,0,0,0,-1,951,687,0,0
-266,337,0,0,0,0,0,0,0,0,0,-1,958,687,0,0
-259,337,0,0,0,0,0,0,0,0,0,-1,965,687,0,0
-252,337,0,0,0,0,0,0,0,0,0,-1,972,687,0,0
-245,337,0,0,0,0,0,0,0,0,0,-1,979,687,0,0
-238,337,0,0,0,0,0,0,0,0,0,-1,986,687,0,0
-231,337,0,0,0,0,0,0,0,0,0,-1,993,687,0,0
-224,337,0,0,0,0,0,0,0,0,0,-1,1000,687,0,0
-217,337,0,0,0,0,0,0,0,0,0,-1,1007,687,0,0
-210,337,0,0,0,0,0,0,0,0,0,-1,1014,687,0,0
-203,337,0,0,0,0,0,0,0,0,0,-1,1021,687,0,0
-196,337,0,0,0,0,0,0,0,0,0,-1,1028,687,0,0
-189,337,0,0,0,0,0,0,0,0,0,-1,1035,687,0,0
-182,337,0,0,0,0,0,0,0,0,0,-1,1042,687,0,0
-175,337,0,0,0,0,0,0,0,0,0,-1,1049,687,0,0
-168,337,0,0,0,0,0,0,0,0,0,-1,1056,687,0,0
-161,337,0,0,0,0,0,0,0,0,0,-1,1063,687,0,0
-154,337,0,0,0,0,0,0,0,0,0,-1,1070,687,0,0
-147,337,0,0,0,0,0,0,0,0,0,-1,1077,687,0,0
-140,337,0,0,0,0,0,0,0,0,0,-1,1084,687,0,0
-133,337,0,0,0,0,0,0,0,0,0,-1,1091,687,0,0
-126,337,0,0,0,0,0,0,0,0,0,-1,1098,687,0,0
-119,337,0,0,0,0,0,0,0,0,0,-1,1105,687,0,0
-112,337,0,0,0,0,0,0,0,0,0,-1,1112,687,0,0
-105,337,0,0,0,0,0,0,0,0,0,-1,1119,687,0,0
-98,337,0,0,0,0,0,0,0,0,0,-1,1126,687,0,0
-91,337,0,0,0,0,0,0,0,0,0,-1,1133,687,0,0
-84,337,0,0,0,0,0,0,0,0,0,-1,1140,687,0,0
-77,337,0,0,0,0,0,0,0,0,0,-1,1147,687,0,0
-70,337,0,0,0,0,0,0,0,0,0,-1,1154,687,0,0
-63,337,0,0,0,0,0,0,0,0,0,-1,1161,687,0,0
-56,337,0,0,0,0,0,0,0,0,0,-1,1168,687,0,0
-49,337,0,0,0,0,0,0,0,0,0,-1,1175,687,0,0
-42,337,0,0,0,0,0,0,0,0,0,-1,1182,687,0,0
-35,337,0,0,0,0,0,0,0,0,0,-1,1189,687,0,0
-28,337,0,0,0,0,0,0,0,0,0,-1,1196,687,0,0
-21,337,0,0,0,0,0,0,0,0,0,-1,1203,687,0,0
-14,337,0,0,0,0,0,0,0,0,0,-1,1210,687,0,0
-7,337,0,0,0,0,0,0,0,0,0,-1,1217,687,0,0
0,337,0,0,0,0,0,0,0,0,0,-1,1224,687,0,0
7,337,0,0,0,0,0,0,0,0,0,-1,1231,687,0,0
14,337,0,0,0,0,0,0,0,0,0,-1,1238,687,0,0
21,337,0,0,0,0,0,0,0,0,0,-1,1245,687,0,0
28,337,0,0,0,0,0,0,0,0,0,-1,1252,687,0,0
35,337,0,0,0,0,0,0,0,0,0,-1,1259,687,0,0
42,337,0,0,0,0,0,0,0,0,0,-1,1266,687,0,0
49,337,0,0,0,0,0,0,0,0,0,-1,1273,687,0,0
56,337,0,0,0,0,0,0,0,0,0,-1,1280,687,0,0
63,337,0,0,0,0,0,0,0,0,0,-1,1287,687,0,0
70,337,0,0,0,0,0,0,0,0,0,-1,1294,687,0,0
77,337,0,0,0,0,0,0,0,0,0,-1,1301,687,0,0
84,337,0,0,0,0,0,0,0,0,0,-1,1308,687,0,0
91,337,0,0,0,0,0,0,0,0,0,-1,1315,687,0,0
98,337,0,0,0,0,0,0,0,0,0,-1,1322,687,0,0
105,337,0,0,0,0,0,0,0,0,0,-1,1329,687,0,0
112,337,0,0,0,0,0,0,0,0,0,-1,1336,687,0,0
119,337,0,0,0,0,0,0,0,0,0,-1,1343,687,0,0
126,337,0,0,0,0,0,0,0,0,0,-1,1350,687,0,0
133,337,0,0,0,0,0,0,0,0,0,-1,1357,687,0,0
140,337,0,0,0,0,0,0,0,0,0,-1,1364,687,0,0
147,337,0,0,0,0,0,0,0,0,0,-1,1371,687,0,0
154,337,0,0,0,0,0,0,0,0,0,-1,1378,687,0,0
161,337,0,0,0,0,0,0,0,0,0,-1,1385,687,0,0
168,337,0,0,0,0,0,0,0,0,0,-1,1392,687,0,0
175,337,0,0,0,0,0,0,0,0,0,-1,1399,687,0,0
182,337,0,0,0,0,0,0,0,0,0,-1,1406,687,0,0
189,337,0,0,0,0,0,0,0,0,0,-1,1413,687,0,0
196,337,0,0,0,0,0,0,0,0,0,-1,1420,687,0,0
203,337,0,0,0,0,0,0,0,0,0,-1,1427,687,0,0
210,337,0,0,0,0,0,0,0,0,0,-1,1434,687,0,0
217,337,0,0,0,0,0,0,0,0,0,-1,1441,687,0,0
224,337,0,0,0,0,0,0,0,0,0,-1,1448,687,0,0
231,337,0,0,0,0,0,0,0,0,0,-1,1455,687,0,0
238,337,0,0,0,0,0,0,0,0,0,-1,1462,687,0,0
245,337,0,0,0,0,0,0,0,0,0,-1,1469,687,0,0
252,337,0,0,0,0,0,0,0,0,0,-1,1476,687,0,0
259,337,0,0,0,0,0,0,0,0,0,-1,1483,687,0,0
266,337,0,0,0,0,0,0,0,0,0,-1,1490,687,0,0
273,337,0,0,0,0,0,0,0,0,0,-1,1497,687,0,0
280,337,0,0,0,0,0,0,0,0,0,-1,1504,687,0,0
287,337,0,0,0,0,0,0,0,0,0,-1,1511,687,0,0
294,337,0,0,0,0,0,0,0,0,0,-1,1518,687,0,0
301,337,0,0,0,0,0,0,0,0,0,-1,1525,687,0,0
308,337,0,0,0,0,0,0,0,0,0,-1,1532,687,0,0
315,337,0,0,0,0,0,0,0,0,0,-1,1539,687,0,0
322,337,0,0,0,0,0,0,0,0,0,-1,1546,687,0,0
329,337,0,0,0,0,0,0,0,0,0,-1,1553,687,0,0
336,337,0,0,0,0,0,0,0,0,0,-1,1560,687,0,0
343,337,0,0,0,0,0,0,0,0,0,-1,1567,687,0,0
350,337,0,0,0,0,0,0,0,0,0,-1,1574,687,0,0
357,337,0,0,0,0,0,0,0,0,0,-1,1581,687,0,0
364,337,0,0,0,0,0,0,0,0,0,-1,1588,687,0,0
371,337,0,0,0,0,0,0,0,0,0,-1,1595,687,0,0
378,337,0,0,0,0,0,0,0,0,0,-1,1602,687,0,0
385,337,0,0,0,0,0,0,0,0,0,-1,1609,687,0,0
392,337,0,0,0,0,0,0,0,0,0,-1,1616,687,0,0
399,337,0,0,0,0,0,0,0,0,0,-1,1623,687,0,0
406,337,0,0,0,0,0,0,0,0,0,-1,1630,687,0,0
413,337,0,0,0,0,0,0,0,0,0,-1,1637,687,0,0
420,337,0,0,0,0,0,0,0,0,0,-1,1644,687,0,0
427,337,0,0,0,0,0,0,0,0,0,-1,1651,687,0,0
434,337,0,0,0,0,0,0,0,0,0,-1,1658,687,0,0
441,337,0,0,0,0,0,0,0,0,0,-1,1665,687,0,0
448,337,0,0,0,0,0,0,0,0,0,-1,1672,687,0,0
455,337,0,0,0,0,0,0,0,0,0,-1,1679,687,0,0
462,337,0,0,0,0,0,0,0,0,0,-1,1686,687,0,0
469,337,0,0,0,0,0,0,0,0,0,-1,1693,687,0,0
476,337,0,0,0,0,0,0,0,0,0,-1,1700,687,0,0
483,337,0,0,0,0,0,0,0,0,0,-1,1707,687,0,0
490,337,0,0,0,0,0,0,0,0,0,-1,1714,687,0,0
497,337,0,0,0,0,0,0,0,0,0,-1,1721,687,0,0
504,337,0,0,0,0,0,0,0,0,0,-1,1728,687,0,0
511,337,0,0,0,0,0,0,0,0,0,-1,1735,687,0,0
518,337,18.0369,1.64581,0,0,0,0,0,0,0,-1,1742,687,18.0368,-1.64581
525,337,21.0253,4.16956,0,0,0,0,0,0,0,-1,1749,687,21.0253,-4.16956
532,337,20.4332,5.16278,0,0,0,0,0,0,0,-1,1756,687,20.4333,-5.16281
539,337,19.9229,6.04456,0,0,0,0,0,0,0,-1,1763,687,19.9228,-6.04456
546,337,15.0701,4.06219,0,0,0,0,0,0,0,-1,1770,687,15.0701,-4.06219
553,337,19.068,3.61273,0,0,0,0,0,0,0,-1,1777,687,19.068,-3.6127
560,337,18.4053,3.62793,0,0,0,0,0,0,0,-1,1784,687,18.4052,-3.6279
567,337,11.9288,1.38776,0,0,0,0,0,0,0,-1,1791,687,11.9288,-1.38777
574,337,10.704,1.19476,0,0,0,0,0,0,0,-1,1798,687,10.704,-1.19478
581,337,8.50427,0.561768,0,0,0,0,0,0,0,-1,1805,687,8.5043,-0.561754
588,337,8.5885,-0.0536499,0,0,0,0,0,0,0,-1,1812,687,8.58844,0.0536788
595,337,12.7583,-1.51886,0,0,0,0,0,0,0,-1,1819,687,12.7583,1.51888
602,337,13.3127,-1.29291,0,0,0,0,0,0,0,-1,1826,687,13.3127,1.29289
609,337,13.3262,-0.916992,-0.00394422,0.00195717,-0.000192538,0.00196345,-0.0039505,-1.53822,0.00347807,0.0236578,1833,687,13.3262,0.917015
616,337,13.3202,-0.637268,-0.00089634,0.00046307,-0.000255255,0.000509419,-0.000942689,-1.39118,0.000850724,0.0167039,1840,687,13.3202,0.637261
623,337,13.3402,-0.36438,0.000511875,-0.000139288,-0.0001492,0.000544433,-0.000171846,-0.214849,0.00043179,0.0139956,1847,687,13.3402,0.364386
630,337,13.3402,-0.0910645,-9.4977e-05,-0.000294335,-0.000267447,9.07625e-05,-0.000480074,-0.607019,0.000354201,0.0177238,1854,687,13.3402,0.0910713
637,337,13.3525,0.207092,-0.0011804,-0.000221962,-0.000530416,1.3657e-05,-0.00141601,-1.15276,0.000948595,0.0164182,1861,687,13.3525,-0.207076
644,337,13.3304,0.538513,-0.00277044,-0.000179963,-0.000998008,0.000159932,-0.00311033,-1.24254,0.00212887,0.0110115,1868,687,13.3304,-0.538494
651,337,13.3219,0.823181,-0.00457707,-0.000161053,-0.00152538,0.000314608,-0.00505273,-1.26852,0.0034781,0.00996711,1875,687,13.3218,-0.823172
658,337,13.3284,1.09802,-0.00648052,5.6455e-05,-0.0020051,0.000622473,-0.00704654,-1.29567,0.00491833,0.0111728,1882,687,13.3284,-1.09804
665,337,13.3354,1.38696,-0.00872009,0.000416365,-0.00250654,0.00105884,-0.00936257,-1.31988,0.00662293,0.0132827,1889,687,13.3354,-1.38693
672,337,13.3088,1.65607,-0.0112074,0.00104688,-0.00295298,0.00172135,-0.0118819,-1.34624,0.00855298,0.0186591,1896,687,13.3088,-1.65609
679,337,13.2404,1.9256,-0.0139997,0.00210949,-0.00325322,0.00274167,-0.0146319,-1.37887,0.0107852,0.0382757,1903,687,13.2404,-1.92561
686,337,12.9937,2.96173,0,0,0,0,0,0,0,-1,1910,687,12.9936,-2.96175
693,337,13.7977,3.25104,0,0,0,0,0,0,0,-1,1917,687,13.7977,-3.25103
700,337,17.2661,2.44379,0,0,0,0,0,0,0,-1,1924,687,17.2661,-2.44378
707,337,17.3544,5.61853,0,0,0,0,0,0,0,-1,1931,687,17.3543,-5.61851
714,337,0,0,0,0,0,0,0,0,0,-1,1938,687,0,0
721,337,0,0,0,0,0,0,0,0,0,-1,1945,687,0,0
728,337,0,0,0,0,0,0,0,0,0,-1,1952,687,0,0
735,337,0,0,0,0,0,0,0,0,0,-1,1959,687,0,0
742,337,0,0,0,0,0,0,0,0,0,-1,1966,687,0,0
749,337,0,0,0,0,0,0,0,0,0,-1,1973,687,0,0
756,337,0,0,0,0,0,0,0,0,0,-1,1980,687,0,0
763,337,0,0,0,0,0,0,0,0,0,-1,1987,687,0,0
770,337,0,0,0,0,0,0,0,0,0,-1,1994,687,0,0
777,337,0,0,0,0,0,0,0,0,0,-1,2001,687,0,0
784,337,0,0,0,0,0,0,0,0,0,-1,2008,687,0,0
791,337,0,0,0,0,0,0,0,0,0,-1,2015,687,0,0
798,337,0,0,0,0,0,0,0,0,0,-1,2022,687,0,0
805,337,0,0,0,0,0,0,0,0,0,-1,2029,687,0,0
812,337,0,0,0,0,0,0,0,0,0,-1,2036,687,0,0
-700,330,0,0,0,0,0,0,0,0,0,-1,524,694,0,0
-693,330,0,0,0,0,0,0,0,0,0,-1,531,694,0,0
-686,330,0,0,0,0,0,0,0,0,0,-1,538,694,0,0
-679,330,0,0,0,0,0,0,0,0,0,-1,545,694,0,0
-672,330,0,0,0,0,0,0,0,0,0,-1,552,694,0,0
-665,330,0,0,0,0,0,0,0,0,0,-1,559,694,0,0
-658,330,0,0,0,0,0,0,0,0,0,-1,566,694,0,0
-651,330,0,0,0,0,0,0,0,0,0,-1,573,694,0,0
-644,330,0,0,0,0,0,0,0,0,0,-1,580,694,0,0
-637,330,0,0,0,0,0,0,0,0,0,-1,587,694,0,0
-630,330,0,0,0,0,0,0,0,0,0,-1,594,694,0,0
-623,330,0,0,0,0,0,0,0,0,0,-1,601,694,0,0
-616,330,0,0,0,0,0,0,0,0,0,-1,608,694,0,0
-609,330,0,0,0,0,0,0,0,0,0,-1,615,694,0,0
-602,330,0,0,0,0,0,0,0,0,0,-1,622,694,0,0
-595,330,-4.67883,1.65515,0,0,0,0,0,0,0,-1,629,694,-4.67881,-1.65515
-588,330,-8.5047,2.67346,0,0,0,0,0,0,0,-1,636,694,-8.50469,-2.67348
-581,330,-10.7915,5.82458,0,0,0,0,0,0,0,-1,643,694,-10.7915,-5.82461
-574,330,-9.02118,1.87952,0,0,0,0,0,0,0,-1,650,694,-9.02115,-1.87953
-567,330,-8.27777,1.24011,0,0,0,0,0,0,0,-1,657,694,-8.27776,-1.24013
-560,330,-7.10321,1.31696,0,0,0,0,0,0,0,-1,664,694,-7.10319,-1.31694
-553,330,-7.42175,0.0662842,0,0,0,0,0,0,0,-1,671,694,-7.42176,-0.0662637
-546,330,-7.10431,0.0578613,0,0,0,0,0,0,0,-1,678,694,-7.10433,-0.0578918
-539,330,-7.29913,-0.548767,-0.0117168,0.0259597,-0.0111068,0.0289901,-0.0147473,-1.30443,0.0256943,0.0130509,685,694,-7.29912,0.548774
-532,330,-7.37335,-0.826233,-0.00869477,0.019553,-0.00882164,0.0220816,-0.0112234,-1.29164,0.0195663,0.0101269,692,694,-7.37335,0.826211
-525,330,-7.36938,-1.12213,-0.00607724,0.0141751,-0.0067028,0.0161925,-0.00809466,-1.27844,0.0142796,0.010895,699,694,-7.36941,1.12211
-518,330,-7.36835,-1.36304,-0.00376409,0.00959653,-0.00483542,0.0111629,-0.00533046,-1.25753,0.00971889,0.0146804,706,694,-7.36834,1.36302
-511,330,-7.39191,-1.65643,-0.00167631,0.00581162,-0.0032506,0.00702585,-0.00289054,-1.21331,0.00588883,0.0199567,713,694,-7.39192,1.65642
-504,330,-7.37781,-1.95746,0.000340296,0.00267008,-0.00211423,0.00391909,-0.000908714,-1.0372,0.00296246,0.0178704,720,694,-7.3778,1.95748
-497,330,-7.37091,-2.19836,0.00202363,0.000474471,-0.00121601,0.00269081,-0.000192703,-0.501812,0.00186143,0.0125138,727,694,-7.37092,2.19834
-490,330,-7.37244,-2.48499,0.00360822,-0.00109141,-0.000819514,0.00374703,-0.00123022,-0.167783,0.00299357,0.0126262,734,694,-7.37245,2.485
-483,330,-7.36798,-2.77972,0.00507207,-0.00151729,-0.00115391,0.0052683,-0.00171352,-0.168442,0.00420151,0.0127282,741,694,-7.36798,2.77972
-476,330,-7.37433,-3.05432,0.0065439,-0.00113497,-0.00208488,0.00707345,-0.00166451,-0.248734,0.00535737,0.0230657,748,694,-7.37434,3.05433
-469,330,-7.20966,-3.15869,0.00824679,-0.00072922,-0.00344327,0.00941548,-0.00189792,-0.327214,0.00699597,0.0456146,755,694,-7.20965,3.15869
-462,330,-6.89661,-3.53949,0,0,0,0,0,0,0,-1,762,694,-6.89661,3.53948
-455,330,-5.04254,-1.79303,0,0,0,0,0,0,0,-1,769,694,-5.04252,1.79305
-448,330,-4.89886,-1.66156,0,0,0,0,0,0,0,-1,776,694,-4.89886,1.66157
-441,330,-5.30676,-2.34045,0,0,0,0,0,0,0,-1,783,694,-5.30679,2.34048
-434,330,-7.20428,1.00024,0,0,0,0,0,0,0,-1,790,694,-7.20431,-1.00027
-427,330,-16.0428,2.89258,0,0,0,0,0,0,0,-1,797,694,-16.0428,-2.89259
-420,330,-15.2923,3.32672,0,0,0,0,0,0,0,-1,804,694,-15.2923,-3.32675
-413,330,-10.4567,2.56183,0,0,0,0,0,0,0,-1,811,694,-10.4567,-2.56182
-406,330,-1.65375,-1.74371,0,0,0,0,0,0,0,-1,818,694,-1.65375,1.74371
-399,330,0,0,0,0,0,0,0,0,0,-1,825,694,0,0
-392,330,0,0,0,0,0,0,0,0,0,-1,832,694,0,0
-385,330,0,0,0,0,0,0,0,0,0,-1,839,694,0,0
-378,330,0,0,0,0,0,0,0,0,0,-1,846,694,0,0
-371,330,0,0,0,0,0,0,0,0,0,-1,853,694,0,0
-364,330,0,0,0,0,0,0,0,0,0,-1,860,694,0,0
-357,330,0,0,0,0,0,0,0,0,0,-1,867,694,0,0
-350,330,0,0,0,0,0,0,0,0,0,-1,874,694,0,0
-343,330,0,0,0,0,0,0,0,0,0,-1,881,694,0,0
-336,330,0,0,0,0,0,0,0,0,0,-1,888,694,0,0
-329,330,0,0,0,0,0,0,0,0,0,-1,895,694,0,0
-322,330,0,0,0,0,0,0,0,0,0,-1,902,694,0,0
-315,330,0,0,0,0,0,0,0,0,0,-1,909,694,0,0
-308,330,0,0,0,0,0,0,0,0,0,-1,916,694,0,0
-301,330,0,0,0,0,0,0,0,0,0,-1,923,694,0,0
-294,330,0,0,0,0,0,0,0,0,0,-1,930,694,0,0
-287,330,0,0,0,0,0,0,0,0,0,-1,937,694,0,0
-280,330,0,0,0,0,0,0,0,0,0,-1,944,694,0,0
-273,330,0,0,0,0,0,0,0,0,0,-1,951,694,0,0
-266,330,0,0,0,0,0,0,0,0,0,-1,958,694,0,0
-259,330,0,0,0,0,0,0,0,0,0,-1,965,694,0,0
-252,330,0,0,0,0,0,0,0,0,0,-1,972,694,0,0
-245,330,0,0,0,0,0,0,0,0,0,-1,979,694,0,0
-238,330,0,0,0,0,0,0,0,0,0,-1,986,694,0,0
-231,330,0,0,0,0,0,0,0,0,0,-1,993,694,0,0
-224,330,0,0,0,0,0,0,0,0,0,-1,1000,694,0,0
-217,330,0,0,0,0,0,0,0,0,0,-1,1007,694,0,0
-210,330,0,0,0,0,0,0,0,0,0,-1,1014,694,0,0
-203,330,0,0,0,0,0,0,0,0,0,-1,1021,694,0,0
-196,330,0,0,0,0,0,0,0,0,0,-1,1028,694,0,0
-189,330,0,0,0,0,0,0,0,0,0,-1,1035,694,0,0
-182,330,0,0,0,0,0,0,0,0,0,-1,1042,694,0,0
-175,330,0,0,0,0,0,0,0,0,0,-1,1049,694,0,0
-168,330,0,0,0,0,0,0,0,0,0,-1,1056,694,0,0
-161,330,0,0,0,0,0,0,0,0,0,-1,1063,694,0,0
-154,330,0,0,0,0,0,0,0,0,0,-1,1070,694,0,0
-147,330,0,0,0,0,0,0,0,0,0,-1,1077,694,0,0
-140,330,0,0,0,0,0,0,0,0,0,-1,1084,694,0,0
-133,330,0,0,0,0,0,0,0,0,0,-1,1091,694,0,0
-126,330,0,0,0,0,0,0,0,0,0,-1,1098,694,0,0
-119,330,0,0,0,0,0,0,0,0,0,-1,1105,694,0,0
-112,330,0,0,0,0,0,0,0,0,0,-1,1112,694,0,0
-105,330,0,0,0,0,0,0,0,0,0,-1,1119,694,0,0
-98,330,0,0,0,0,0,0,0,0,0,-1,1126,694,0,0
-91,330,0,0,0,0,0,0,0,0,0,-1,1133,694,0,0
-84,330,0,0,0,0,0,0,0,0,0,-1,1140,694,0,0
-77,330,0,0,0,0,0,0,0,0,0,-1,1147,694,0,0
-70,330,0,0,0,0,0,0,0,0,0,-1,1154,694,0,0
-63,330,0,0,0,0,0,0,0,0,0,-1,1161,694,0,0
-56,330,0,0,0,0,0,0,0,0,0,-1,1168,694,0,0
-49,330,0,0,0,0,0,0,0,0,0,-1,1175,694,0,0
-42,330,0,0,0,0,0,0,0,0,0,-1,1182,694,0,0
-35,330,0,0,0,0,0,0,0,0,0,-1,1189,694,0,0
-28,330,0,0,0,0,0,0,0,0,0,-1,1196,694,0,0
-21,330,0,0,0,0,0,0,0,0,0,-1,1203,694,0,0
-14,330,0,0,0,0,0,0,0,0,0,-1,1210,694,0,0
-7,330,0,0,0,0,0,0,0,0,0,-1,1217,694,0,0
0,330,0,0,0,0,0,0,0,0,0,-1,1224,694,0,0
7,330,0,0,0,0,0,0,0,0,0,-1,1231,694,0,0
14,330,0,0,0,0,0,0,0,0,0,-1,1238,694,0,0
21,330,0,0,0,0,0,0,0,0,0,-1,1245,694,0,0
28,330,0,0,0,0,0,0,0,0,0,-1,1252,694,0,0
35,330,0,0,0,0,0,0,0,0,0,-1,1259,694,0,0
42,330,0,0,0,0,0,0,0,0,0,-1,1266,694,0,0
49,330,0,0,0,0,0,0,0,0,0,-1,1273,694,0,0
56,330,0,0,0,0,0,0,0,0,0,-1,1280,694,0,0
63,330,0,0,0,0,0,0,0,0,0,-1,1287,694,0,0
70,330,0,0,0,0,0,0,0,0,0,-1,1294,694,0,0
77,330,0,0,0,0,0,0,0,0,0,-1,1301,694,0,0
84,330,0,0,0,0,0,0,0,0,0,-1,1308,694,0,0
91,330,0,0,0,0,0,0,0,0,0,-1,1315,694,0,0
98,330,0,0,0,0,0,0,0,0,0,-1,1322,694,0,0
105,330,0,0,0,0,0,0,0,0,0,-1,1329,694,0,0
112,330,0,0,0,0,0,0,0,0,0,-1,1336,694,0,0
119,330,0,0,0,0,0,0,0,0,0,-1,1343,694,0,0
126,330,0,0,0,0,0,0,0,0,0,-1,1350,694,0,0
133,330,0,0,0,0,0,0,0,0,0,-1,1357,694,0,0
140,330,0,0,0,0,0,0,0,0,0,-1,1364,694,0,0
147,330,0,0,0,0,0,0,0,0,0,-1,1371,694,0,0
154,330,0,0,0,0,0,0,0,0,0,-1,1378,694,0,0
161,330,0,0,0,0,0,0,0,0,0,-1,1385,694,0,0
168,330,0,0,0,0,0,0,0,0,0,-1,1392,694,0,0
175,330,0,0,0,0,0,0,0,0,0,-1,1399,694,0,0
182,330,0,0,0,0,0,0,0,0,0,-1,1406,694,0,0
189,330,0,0,0,0,0,0,0,0,0,-1,1413,694,0,0
196,330,0,0,0,0,0,0,0,0,0,-1,1420,694,0,0
203,330,0,0,0,0,0,0,0,0,0,-1,1427,694,0,0
210,330,0,0,0,0,0,0,0,0,0,-1,1434,694,0,0
217,330,0,0,0,0,0,0,0,0,0,-1,1441,694,0,0
224,330,0,0,0,0,0,0,0,0,0,-1,1448,694,0,0
231,330,0,0,0,0,0,0,0,0,0,-1,1455,694,0,0
238,330,0,0,0,0,0,0,0,0,0,-1,1462,694,0,0
245,330,0,0,0,0,0,0,0,0,0,-1,1469,694,0,0
252,330,0,0,0,0,0,0,0,0,0,-1,1476,694,0,0
259,330,0,0,0,0,0,0,0,0,0,-1,1483,694,0,0
266,330,0,0,0,0,0,0,0,0,0,-1,1490,694,0,0
273,330,0,0,0,0,0,0,0,0,0,-1,1497,694,0,0
280,330,0,0,0,0,0,0,0,0,0,-1,1504,694,0,0
287,330,0,0,0,0,0,0,0,0,0,-1,1511,694,0,0
294,330,0,0,0,0,0,0,0,0,0,-1,1518,694,0,0
301,330,0,0,0,0,0,0,0,0,0,-1,1525,694,0,0
308,330,0,0,0,0,0,0,0,0,0,-1,1532,694,0,0
315,330,0,0,0,0,0,0,0,0,0,-1,1539,694,0,0
322,330,0,0,0,0,0,0,0,0,0,-1,1546,694,0,0
329,330,0,0,0,0,0,0,0,0,0,-1,1553,694,0,0
336,330,0,0,0,0,0,0,0,0,0,-1,1560,694,0,0
343,330,0,0,0,0,0,0,0,0,0,-1,1567,694,0,0
350,330,0,0,0,0,0,0,0,0,0,-1,1574,694,0,0
357,330,0,0,0,0,0,0,0,0,0,-1,1581,694,0,0
364,330,0,0,0,0,0,0,0,0,0,-1,1588,694,0,0
371,330,0,0,0,0,0,0,0,0,0,-1,1595,694,0,0
378,330,0,0,0,0,0,0,0,0,0,-1,1602,694,0,0
385,330,0,0,0,0,0,0,0,0,0,-1,1609,694,0,0
392,330,0,0,0,0,0,0,0,0,0,-1,1616,694,0,0
399,330,0,0,0,0,0,0,0,0,0,-1,1623,694,0,0
406,330,0,0,0,0,0,0,0,0,0,-1,1630,694,0,0
413,330,0,0,0,0,0,0,0,0,0,-1,1637,694,0,0
420,330,0,0,0,0,0,0,0,0,0,-1,1644,694,0,0
427,330,0,0,0,0,0,0,0,0,0,-1,1651,694,0,0
434,330,0,0,0,0,0,0,0,0,0,-1,1658,694,0,0
441,330,0,0,0,0,0,0,0,0,0,-1,1665,694,0,0
448,330,0,0,0,0,0,0,0,0,0,-1,1672,694,0,0
455,330,0,0,0,0,0,0,0,0,0,-1,1679,694,0,0
462,330,0,0,0,0,0,0,0,0,0,-1,1686,694,0,0
469,330,0,0,0,0,0,0,0,0,0,-1,1693,694,0,0
476,330,0,0,0,0,0,0,0,0,0,-1,1700,694,0,0
483,330,0,0,0,0,0,0,0,0,0,-1,1707,694,0,0
490,330,0,0,0,0,0,0,0,0,0,-1,1714,694,0,0
497,330,0,0,0,0,0,0,0,0,0,-1,1721,694,0,0
504,330,0,0,0,0,0,0,0,0,0,-1,1728,694,0,0
511,330,0,0,0,0,0,0,0,0,0,-1,1735,694,0,0
518,330,0,0,0,0,0,0,0,0,0,-1,1742,694,0,0
525,330,21.8806,2.67316,0,0,0,0,0,0,0,-1,1749,694,21.8806,-2.67316
532,330,21.4119,3.82379,0,0,0,0,0,0,0,-1,1756,694,21.4118,-3.82381
539,330,22.2223,4.29657,0,0,0,0,0,0,0,-1,1763,694,22.2223,-4.2966
546,330,23.2045,4.75311,0,0,0,0,0,0,0,-1,1770,694,23.2044,-4.7531
553,330,19.3512,3.78687,0,0,0,0,0,0,0,-1,1777,694,19.3512,-3.78684
560,330,18.6956,3.84155,0,0,0,0,0,0,0,-1,1784,694,18.6956,-3.84155
567,330,18.0321,3.98578,0,0,0,0,0,0,0,-1,1791,694,18.0321,-3.98576
574,330,12.0454,2.1662,0,0,0,0,0,0,0,-1,1798,694,12.0455,-2.16618
581,330,11.4215,4.50836,0,0,0,0,0,0,0,-1,1805,694,11.4215,-4.50837
588,330,6.45667,-0.0630493,0,0,0,0,0,0,0,-1,1812,694,6.45661,0.0630695
595,330,8.23193,-0.258484,0,0,0,0,0,0,0,-1,1819,694,8.23188,0.258459
602,330,13.3079,-1.43414,0,0,0,0,0,0,0,-1,1826,694,13.3079,1.43411
609,330,13.5265,-0.987427,-0.00342895,0.00211577,-0.000145525,0.00211958,-0.00343277,-1.54457,0.0032354,0.036099,1833,694,13.5265,0.987407
616,330,13.6248,-0.658081,9.9461e-05,0.000327189,-0.000234069,0.00047362,-4.69697e-05,-1.01177,0.000332511,0.0113065,1840,694,13.6247,0.658076
623,330,13.6328,-0.361816,0.00191692,-0.000466602,-2.45138e-05,0.00191717,-0.000466854,-0.0102833,0.00145885,0.0130383,1847,694,13.6328,0.361822
630,330,13.6534,-0.0650024,0.000932917,-0.000511212,-0.000132178,0.000944915,-0.000523211,-0.0905259,0.0008592,0.0133048,1854,694,13.6534,0.064972
637,330,13.661,0.234131,-0.000344459,-0.000377165,-0.000348208,-1.22199e-05,-0.000709404,-0.761934,0.000468916,0.0121728,1861,694,13.661,-0.2341
644,330,13.6333,0.543762,-0.00188799,-0.000257492,-0.000756424,3.9377e-05,-0.00218486,-1.1968,0.00146988,0.00772553,1868,694,13.6333,-0.543772
651,330,13.6208,0.827515,-0.00347307,-0.000153881,-0.00119486,0.000231507,-0.00385846,-1.25879,0.00265284,0.0109618,1875,694,13.6209,-0.8275
658,330,13.6058,1.09363,-0.00505792,0.000196298,-0.00154232,0.000615575,-0.0054772,-1.30536,0.003873,0.0119008,1882,694,13.6058,-1.09362
665,330,13.6001,1.40002,-0.00692735,0.000685365,-0.00191238,0.00113877,-0.00738076,-1.33801,0.00534072,0.0101834,1889,694,13.6001,-1.40002
672,330,13.6238,1.70447,-0.00894783,0.00147273,-0.00218794,0.00191348,-0.00938857,-1.37201,0.00698479,0.0140807,1896,694,13.6238,-1.70449
679,330,13.4872,1.96802,-0.0111313,0.00268375,-0.00230497,0.00305818,-0.0115057,-1.40976,0.00886743,0.027806,1903,694,13.4872,-1.96805
686,330,13.3059,2.55054,-0.0134656,0.00457314,-0.00210085,0.00481458,-0.013707,-1.45637,0.0110967,0.0461735,1910,694,13.3059,-2.55053
693,330,13.1859,2.88788,0,0,0,0,0,0,0,-1,1917,694,13.1859,-2.88787
700,330,17.1072,4.13,0,0,0,0,0,0,0,-1,1924,694,17.1071,-4.13002
707,330,16.663,4.88672,0,0,0,0,0,0,0,-1,1931,694,16.6629,-4.88673
714,330,16.5454,5.80896,0,0,0,0,0,0,0,-1,1938,694,16.5454,-5.80899
721,330,0,0,0,0,0,0,0,0,0,-1,1945,694,0,0
728,330,0,0,0,0,0,0,0,0,0,-1,1952,694,0,0
735,330,0,0,0,0,0,0,0,0,0,-1,1959,694,0,0
742,330,0,0,0,0,0,0,0,0,0,-1,1966,694,0,0
749,330,0,0,0,0,0,0,0,0,0,-1,1973,694,0,0
756,330,0,0,0,0,0,0,0,0,0,-1,1980,694,0,0
763,330,0,0,0,0,0,0,0,0,0,-1,1987,694,0,0
770,330,0,0,0,0,0,0,0,0,0,-1,1994,694,0,0
777,330,0,0,0,0,0,0,0,0,0,-1,2001,694,0,0
784,330,0,0,0,0,0,0,0,0,0,-1,2008,694,0,0
791,330,0,0,0,0,0,0,0,0,0,-1,2015,694,0,0
798,330,0,0,0,0,0,0,0,0,0,-1,2022,694,0,0
805,330,0,0,0,0,0,0,0,0,0,-1,2029,694,0,0
812,330,0,0,0,0,0,0,0,0,0,-1,2036,694,0,0
-700,323,0,0,0,0,0,0,0,0,0,-1,524,701,0,0
-693,323,0,0,0,0,0,0,0,0,0,-1,531,701,0,0
-686,323,0,0,0,0,0,0,0,0,0,-1,538,701,0,0
-679,323,0,0,0,0,0,0,0,0,0,-1,545,701,0,0
-672,323,0,0,0,0,0,0,0,0,0,-1,552,701,0,0
-665,323,0,0,0,0,0,0,0,0,0,-1,559,701,0,0
-658,323,0,0,0,0,0,0,0,0,0,-1,566,701,0,0
-651,323,0,0,0,0,0,0,0,0,0,-1,573,701,0,0
-644,323,0,0,0,0,0,0,0,0,0,-1,580,701,0,0
-637,323,0,0,0,0,0,0,0,0,0,-1,587,701,0,0
-630,323,0,0,0,0,0,0,0,0,0,-1,594,701,0,0
-623,323,0,0,0,0,0,0,0,0,0,-1,601,701,0,0
-616,323,0,0,0,0,0,0,0,0,0,-1,608,701,0,0
-609,323,0,0,0,0,0,0,0,0,0,-1,615,701,0,0
-602,323,-4.15833,2.12256,0,0,0,0,0,0,0,-1,622,701,-4.1583,-2.12257
-595,323,-4.052,1.79156,0,0,0,0,0,0,0,-1,629,701,-4.05198,-1.79158
-588,323,-4.07019,1.94543,0,0,0,0,0,0,0,-1,636,701,-4.07019,-1.94542
-581,323,-6.63727,0.562805,0,0,0,0,0,0,0,-1,643,701,-6.63728,-0.56279
-574,323,-6.15887,0.426697,0,0,0,0,0,0,0,-1,650,701,-6.15887,-0.426727
-567,323,-7.77783,0.610535,0,0,0,0,0,0,0,-1,657,701,-7.77782,-0.610556
-560,323,-7.81433,0.14917,0,0,0,0,0,0,0,-1,664,701,-7.81433,-0.149155
-553,323,-7.65802,-0.114319,-0.0145499,0.0298549,-0.0104742,0.0322015,-0.0168965,-1.3504,0.0288022,0.0330985,671,701,-7.65805,0.1143
-546,323,-7.62579,-0.299622,-0.0123806,0.0241844,-0.00855804,0.0260883,-0.0142845,-1.35189,0.023639,0.0128993,678,701,-7.62582,0.29961
-539,323,-7.6272,-0.536133,-0.00947364,0.0189352,-0.00726503,0.0206853,-0.0112237,-1.33441,0.0186907,0.0121076,685,701,-7.62721,0.536132
-532,323,-7.64447,-0.82373,-0.00687131,0.0142803,-0.00589451,0.0158121,-0.00840306,-1.31656,0.0141971,0.0100829,692,701,-7.64449,0.823745
-525,323,-7.65479,-1.10107,-0.00456229,0.0102874,-0.00453261,0.0115616,-0.00583646,-1.29676,0.0102244,0.00818817,699,701,-7.65476,1.10109
-518,323,-7.64569,-1.34546,-0.0024318,0.00670251,-0.00326348,0.00774866,-0.00347795,-1.26058,0.00663618,0.0103022,706,701,-7.64572,1.34547
-511,323,-7.65442,-1.63556,-0.000444079,0.0036566,-0.00212634,0.00456011,-0.00134758,-1.169,0.00357496,0.0134973,713,701,-7.65439,1.63556
-504,323,-7.67108,-1.90894,0.00147858,0.00112126,-0.00128568,0.00259795,1.89012e-06,-0.716359,0.00173134,0.0139437,720,701,-7.67105,1.90895
-497,323,-7.65552,-2.17773,0.00315201,-0.000799726,-0.000555985,0.00322874,-0.00087646,-0.137148,0.00249647,0.0106513,727,701,-7.65552,2.17772
-490,323,-7.6571,-2.46875,0.00474971,-0.00210673,-0.000370091,0.00476963,-0.00212665,-0.0537689,0.00407787,0.0118916,734,701,-7.65713,2.46873
-483,323,-7.6568,-2.74475,0.00627577,-0.00225633,-0.000874836,0.00636454,-0.00234511,-0.101133,0.00520395,0.0183578,741,701,-7.6568,2.74476
-476,323,-7.54254,-3.04626,0.00786488,-0.00177096,-0.00190652,0.00822839,-0.00213447,-0.188403,0.00631842,0.0423515,748,701,-7.54255,3.04625
-469,323,-7.15308,-3.4212,0,0,0,0,0,0,0,-1,755,701,-7.15306,3.42122
-462,323,-5.29431,-1.45697,0,0,0,0,0,0,0,-1,762,701,-5.29431,1.45699
-455,323,-5.0658,-1.36639,0,0,0,0,0,0,0,-1,769,701,-5.06578,1.3664
-448,323,-4.91608,-1.59601,0,0,0,0,0,0,0,-1,776,701,-4.91606,1.59604
-441,323,-11.7404,3.01556,0,0,0,0,0,0,0,-1,783,701,-11.7404,-3.01556
-434,323,-15.3158,2.479,0,0,0,0,0,0,0,-1,790,701,-15.3158,-2.47898
-427,323,-15.4075,2.98248,0,0,0,0,0,0,0,-1,797,701,-15.4075,-2.98248
-420,323,-14.8839,3.49579,0,0,0,0,0,0,0,-1,804,701,-14.8839,-3.49579
-413,323,-14.0645,4.22607,0,0,0,0,0,0,0,-1,811,701,-14.0645,-4.22605
-406,323,0,0,0,0,0,0,0,0,0,-1,818,701,0,0
-399,323,0,0,0,0,0,0,0,0,0,-1,825,701,0,0
-392,323,0,0,0,0,0,0,0,0,0,-1,832,701,0,0
-385,323,0,0,0,0,0,0,0,0,0,-1,839,701,0,0
-378,323,0,0,0,0,0,0,0,0,0,-1,846,701,0,0
-371,323,0,0,0,0,0,0,0,0,0,-1,853,701,0,0
-364,323,0,0,0,0,0,0,0,0,0,-1,860,701,0,0
-357,323,0,0,0,0,0,0,0,0,0,-1,867,701,0,0
-350,323,0,0,0,0,0,0,0,0,0,-1,874,701,0,0
-343,323,0,0,0,0,0,0,0,0,0,-1,881,701,0,0
-336,323,0,0,0,0,0,0,0,0,0,-1,888,701,0,0
-329,323,0,0,0,0,0,0,0,0,0,-1,895,701,0,0
-322,323,0,0,0,0,0,0,0,0,0,-1,902,701,0,0
-315,323,0,0,0,0,0,0,0,0,0,-1,909,701,0,0
-308,323,0,0,0,0,0,0,0,0,0,-1,916,701,0,0
-301,323,0,0,0,0,0,0,0,0,0,-1,923,701,0,0
-294,323,0,0,0,0,0,0,0,0,0,-1,930,701,0,0
-287,323,0,0,0,0,0,0,0,0,0,-1,937,701,0,0
-280,323,0,0,0,0,0,0,0,0,0,-1,944,701,0,0
-273,323,0,0,0,0,0,0,0,0,0,-1,951,701,0,0
-266,323,0,0,0,0,0,0,0,0,0,-1,958,701,0,0
-259,323,0,0,0,0,0,0,0,0,0,-1,965,701,0,0
-252,323,0,0,0,0,0,0,0,0,0,-1,972,701,0,0
-245,323,0,0,0,0,0,0,0,0,0,-1,979,701,0,0
-238,323,0,0,0,0,0,0,0,0,0,-1,986,701,0,0
-231,323,0,0,0,0,0,0,0,0,0,-1,993,701,0,0
-224,323,0,0,0,0,0,0,0,0,0,-1,1000,701,0,0
-217,323,0,0,0,0,0,0,0,0,0,-1,1007,701,0,0
-210,323,0,0,0,0,0,0,0,0,0,-1,1014,701,0,0
-203,323,0,0,0,0,0,0,0,0,0,-1,1021,701,0,0
-196,323,0,0,0,0,0,0,0,0,0,-1,1028,701,0,0
-189,323,0,0,0,0,0,0,0,0,0,-1,1035,701,0,0
-182,323,0,0,0,0,0,0,0,0,0,-1,1042,701,0,0
-175,323,0,0,0,0,0,0,0,0,0,-1,1049,701,0,0
-168,323,0,0,0,0,0,0,0,0,0,-1,1056,701,0,0
-161,323,0,0,0,0,0,0,0,0,0,-1,1063,701,0,0
-154,323,0,0,0,0,0,0,0,0,0,-1,1070,701,0,0
-147,323,0,0,0,0,0,0,0,0,0,-1,1077,701,0,0
-140,323,0,0,0,0,0,0,0,0,0,-1,1084,701,0,0
-133,323,0,0,0,0,0,0,0,0,0,-1,1091,701,0,0
-126,323,0,0,0,0,0,0,0,0,0,-1,1098,701,0,0
-119,323,0,0,0,0,0,0,0,0,0,-1,1105,701,0,0
-112,323,0,0,0,0,0,0,0,0,0,-1,1112,701,0,0
-105,323,0,0,0,0,0,0,0,0,0,-1,1119,701,0,0
-98,323,0,0,0,0,0,0,0,0,0,-1,1126,701,0,0
-91,323,0,0,0,0,0,0,0,0,0,-1,1133,701,0,0
-84,323,0,0,0,0,0,0,0,0,0,-1,1140,701,0,0
-77,323,0,0,0,0,0,0,0,0,0,-1,1147,701,0,0
-70,323,0,0,0,0,0,0,0,0,0,-1,1154,701,0,0
-63,323,0,0,0,0,0,0,0,0,0,-1,1161,701,0,0
-56,323,0,0,0,0,0,0,0,0,0,-1,1168,701,0,0
-49,323,0,0,0,0,0,0,0,0,0,-1,1175,701,0,0
-42,323,0,0,0,0,0,0,0,0,0,-1,1182,701,0,0
-35,323,0,0,0,0,0,0,0,0,0,-1,1189,701,0,0
-28,323,0,0,0,0,0,0,0,0,0,-1,1196,701,0,0
-21,323,0,0,0,0,0,0,0,0,0,-1,1203,701,0,0
-14,323,0,0,0,0,0,0,0,0,0,-1,1210,701,0,0
-7,323,0,0,0,0,0,0,0,0,0,-1,1217,701,0,0
0,323,0,0,0,0,0,0,0,0,0,-1,1224,701,0,0
7,323,0,0,0,0,0,0,0,0,0,-1,1231,701,0,0
14,323,0,0,0,0,0,0,0,0,0,-1,1238,701,0,0
21,323,0,0,0,0,0,0,0,0,0,-1,1245,701,0,0
28,323,0,0,0,0,0,0,0,0,0,-1,1252,701,0,0
35,323,0,0,0,0,0,0,0,0,0,-1,1259,701,0,0
42,323,0,0,0,0,0,0,0,0,0,-1,1266,701,0,0
49,323,0,0,0,0,0,0,0,0,0,-1,1273,701,0,0
56,323,0,0,0,0,0,0,0,0,0,-1,1280,701,0,0
63,323,0,0,0,0,0,0,0,0,0,-1,1287,701,0,0
70,323,0,0,0,0,0,0,0,0,0,-1,1294,701,0,0
77,323,0,0,0,0,0,0,0,0,0,-1,1301,701,0,0
84,323,0,0,0,0,0,0,0,0,0,-1,1308,701,0,0
91,323,0,0,0,0,0,0,0,0,0,-1,1315,701,0,0
98,323,0,0,0,0,0,0,0,0,0,-1,1322,701,0,0
105,323,0,0,0,0,0,0,0,0,0,-1,1329,701,0,0
112,323,0,0,0,0,0,0,0,0,0,-1,1336,701,0,0
119,323,0,0,0,0,0,0,0,0,0,-1,1343,701,0,0
126,323,0,0,0,0,0,0,0,0,0,-1,1350,701,0,0
133,323,0,0,0,0,0,0,0,0,0,-1,1357,701,0,0
140,323,0,0,0,0,0,0,0,0,0,-1,1364,701,0,0
147,323,0,0,0,0,0,0,0,0,0,-1,1371,701,0,0
154,323,0,0,0,0,0,0,0,0,0,-1,1378,701,0,0
161,323,0,0,0,0,0,0,0,0,0,-1,1385,701,0,0
168,323,0,0,0,0,0,0,0,0,0,-1,1392,701,0,0
175,323,0,0,0,0,0,0,0,0,0,-1,1399,701,0,0
182,323,0,0,0,0,0,0,0,0,0,-1,1406,701,0,0
189,323,0,0,0,0,0,0,0,0,0,-1,1413,701,0,0
196,323,0,0,0,0,0,0,0,0,0,-1,1420,701,0,0
203,323,0,0,0,0,0,0,0,0,0,-1,1427,701,0,0
210,323,0,0,0,0,0,0,0,0,0,-1,1434,701,0,0
217,323,0,0,0,0,0,0,0,0,0,-1,1441,701,0,0
224,323,0,0,0,0,0,0,0,0,0,-1,1448,701,0,0
231,323,0,0,0,0,0,0,0,0,0,-1,1455,701,0,0
238,323,0,0,0,0,0,0,0,0,0,-1,1462,701,0,0
245,323,0,0,0,0,0,0,0,0,0,-1,1469,701,0,0
252,323,0,0,0,0,0,0,0,0,0,-1,1476,701,0,0
259,323,0,0,0,0,0,0,0,0,0,-1,1483,701,0,0
266,323,0,0,0,0,0,0,0,0,0,-1,1490,701,0,0
273,323,0,0,0,0,0,0,0,0,0,-1,1497,701,0,0
280,323,0,0,0,0,0,0,0,0,0,-1,1504,701,0,0
287,323,0,0,0,0,0,0,0,0,0,-1,1511,701,0,0
294,323,0,0,0,0,0,0,0,0,0,-1,1518,701,0,0
301,323,0,0,0,0,0,0,0,0,0,-1,1525,701,0,0
308,323,0,0,0,0,0,0,0,0,0,-1,1532,701,0,0
315,323,0,0,0,0,0,0,0,0,0,-1,1539,701,0,0
322,323,0,0,0,0,0,0,0,0,0,-1,1546,701,0,0
329,323,0,0,0,0,0,0,0,0,0,-1,1553,701,0,0
336,323,0,0,0,0,0,0,0,0,0,-1,1560,701,0,0
343,323,0,0,0,0,0,0,0,0,0,-1,1567,701,0,0
350,323,0,0,0,0,0,0,0,0,0,-1,1574,701,0,0
357,323,0,0,0,0,0,0,0,0,0,-1,1581,701,0,0
364,323,0,0,0,0,0,0,0,0,0,-1,1588,701,0,0
371,323,0,0,0,0,0,0,0,0,0,-1,1595,701,0,0
378,323,0,0,0,0,0,0,0,0,0,-1,1602,701,0,0
385,323,0,0,0,0,0,0,0,0,0,-1,1609,701,0,0
392,323,0,0,0,0,0,0,0,0,0,-1,1616,701,0,0
399,323,0,0,0,0,0,0,0,0,0,-1,1623,701,0,0
406,323,0,0,0,0,0,0,0,0,0,-1,1630,701,0,0
413,323,0,0,0,0,0,0,0,0,0,-1,1637,701,0,0
420,323,0,0,0,0,0,0,0,0,0,-1,1644,701,0,0
427,323,0,0,0,0,0,0,0,0,0,-1,1651,701,0,0
434,323,0,0,0,0,0,0,0,0,0,-1,1658,701,0,0
441,323,0,0,0,0,0,0,0,0,0,-1,1665,701,0,0
448,323,0,0,0,0,0,0,0,0,0,-1,1672,701,0,0
455,323,0,0,0,0,0,0,0,0,0,-1,1679,701,0,0
462,323,0,0,0,0,0,0,0,0,0,-1,1686,701,0,0
469,323,0,0,0,0,0,0,0,0,0,-1,1693,701,0,0
476,323,0,0,0,0,0,0,0,0,0,-1,1700,701,0,0
483,323,0,0,0,0,0,0,0,0,0,-1,1707,701,0,0
490,323,0,0,0,0,0,0,0,0,0,-1,1714,701,0,0
497,323,0,0,0,0,0,0,0,0,0,-1,1721,701,0,0
504,323,0,0,0,0,0,0,0,0,0,-1,1728,701,0,0
511,323,0,0,0,0,0,0,0,0,0,-1,1735,701,0,0
518,323,0,0,0,0,0,0,0,0,0,-1,1742,701,0,0
525,323,0,0,0,0,0,0,0,0,0,-1,1749,701,0,0
532,323,22.2468,2.71307,0,0,0,0,0,0,0,-1,1756,701,22.2468,-2.71308
539,323,22.6949,3.42468,0,0,0,0,0,0,0,-1,1763,701,22.6949,-3.4247
546,323,23.5679,4.21869,0,0,0,0,0,0,0,-1,1770,701,23.5679,-4.21866
553,323,24.3749,5.09595,0,0,0,0,0,0,0,-1,1777,701,24.3749,-5.09596
560,323,19.1747,3.96667,0,0,0,0,0,0,0,-1,1784,701,19.1747,-3.96669
567,323,18.6687,4.57452,0,0,0,0,0,0,0,-1,1791,701,18.6686,-4.57453
574,323,12.514,5.89685,0,0,0,0,0,0,0,-1,1798,701,12.5141,-5.89683
581,323,11.821,5.3476,0,0,0,0,0,0,0,-1,1805,701,11.821,-5.34762
588,323,11.7933,7.00818,0,0,0,0,0,0,0,-1,1812,701,11.7933,-7.00819
595,323,6.67847,0.06604,0,0,0,0,0,0,0,-1,1819,701,6.67841,-0.0660418
602,323,11.2856,-0.595459,0,0,0,0,0,0,0,-1,1826,701,11.2856,0.595433
609,323,13.8497,-0.967285,0,0,0,0,0,0,0,-1,1833,701,13.8498,0.96729
616,323,13.9039,-0.643066,0.00087113,0.000570079,-0.000436104,0.00118196,0.000259253,-0.61922,0.000717343,0.0148939,1840,701,13.9039,0.643069
623,323,13.9235,-0.332153,0.0032805,-0.000647094,-6.59278e-05,0.00328161,-0.0006482,-0.0167795,0.00243276,0.0131464,1847,701,13.9235,0.332169
630,323,13.931,-0.0297852,0.00184115,-0.000655211,-9.96993e-05,0.00184513,-0.000659186,-0.0398532,0.00149894,0.0136141,1854,701,13.931,0.0297682
637,323,13.9435,0.264221,0.000303452,-0.000520099,-0.000211797,0.000354728,-0.000571375,-0.237531,0.000539541,0.0103313,1861,701,13.9435,-0.264223
644,323,13.9271,0.554565,-0.00122477,-0.000337317,-0.000548715,-7.53649e-05,-0.00148672,-1.1254,0.000967003,0.00763492,1868,701,13.9271,-0.554538
651,323,13.9207,0.854004,-0.00256907,-0.000143616,-0.00090518,0.000156951,-0.00286964,-1.2502,0.0019675,0.00954925,1875,701,13.9207,-0.854003
658,323,13.8815,1.13715,-0.00382563,0.000310946,-0.00114904,0.000608693,-0.00412338,-1.31725,0.00297266,0.0129606,1882,701,13.8815,-1.13717
665,323,13.8682,1.41766,-0.00525505,0.000892839,-0.00143021,0.00120927,-0.00557148,-1.35306,0.00417618,0.0115314,1889,701,13.8681,-1.41764
672,323,13.8839,1.72705,-0.0065948,0.00176808,-0.00163068,0.0020748,-0.00690152,-1.38488,0.00542648,0.0102242,1896,701,13.884,-1.72703
679,323,13.8314,2.02887,-0.00795211,0.00301685,-0.00169128,0.0032717,-0.00820696,-1.42124,0.00682834,0.0207397,1903,701,13.8314,-2.02886
686,323,13.619,2.33563,-0.00919927,0.00480301,-0.00155721,0.00497409,-0.00937036,-1.46137,0.00841043,0.0427535,1910,701,13.619,-2.33561
693,323,13.4406,2.64978,0,0,0,0,0,0,0,-1,1917,701,13.4405,-2.64977
700,323,10.7705,0.828613,0,0,0,0,0,0,0,-1,1924,701,10.7705,-0.828591
707,323,16.9005,4.79193,0,0,0,0,0,0,0,-1,1931,701,16.9005,-4.7919
714,323,16.2346,6.25958,0,0,0,0,0,0,0,-1,1938,701,16.2346,-6.25956
721,323,0,0,0,0,0,0,0,0,0,-1,1945,701,0,0
728,323,0,0,0,0,0,0,0,0,0,-1,1952,701,0,0
735,323,0,0,0,0,0,0,0,0,0,-1,1959,701,0,0
742,323,0,0,0,0,0,0,0,0,0,-1,1966,701,0,0
749,323,0,0,0,0,0,0,0,0,0,-1,1973,701,0,0
756,323,0,0,0,0,0,0,0,0,0,-1,1980,701,0,0
763,323,0,0,0,0,0,0,0,0,0,-1,1987,701,0,0
770,323,0,0,0,0,0,0,0,0,0,-1,1994,701,0,0
777,323,0,0,0,0,0,0,0,0,0,-1,2001,701,0,0
784,323,0,0,0,0,0,0,0,0,0,-1,2008,701,0,0
791,323,0,0,0,0,0,0,0,0,0,-1,2015,701,0,0
798,323,0,0,0,0,0,0,0,0,0,-1,2022,701,0,0
805,323,0,0,0,0,0,0,0,0,0,-1,2029,701,0,0
812,323,0,0,0,0,0,0,0,0,0,-1,2036,701,0,0
-700,316,0,0,0,0,0,0,0,0,0,-1,524,708,0,0
-693,316,0,0,0,0,0,0,0,0,0,-1,531,708,0,0
-686,316,0,0,0,0,0,0,0,0,0,-1,538,708,0,0
-679,316,0,0,0,0,0,0,0,0,0,-1,545,708,0,0
-672,316,0,0,0,0,0,0,0,0,0,-1,552,708,0,0
-665,316,0,0,0,0,0,0,0,0,0,-1,559,708,0,0
-658,316,0,0,0,0,0,0,0,0,0,-1,566,708,0,0
-651,316,0,0,0,0,0,0,0,0,0,-1,573,708,0,0
-644,316,0,0,0,0,0,0,0,0,0,-1,580,708,0,0
-637,316,0,0,0,0,0,0,0,0,0,-1,587,708,0,0
-630,316,0,0,0,0,0,0,0,0,0,-1,594,708,0,0
-623,316,0,0,0,0,0,0,0,0,0,-1,601,708,0,0
-616,316,0,0,0,0,0,0,0,0,0,-1,608,708,0,0
-609,316,0,0,0,0,0,0,0,0,0,-1,615,708,0,0
-602,316,-0.451782,-0.0494995,0,0,0,0,0,0,0,-1,622,708,-0.451768,0.0495022
-595,316,-3.3761,2.17188,0,0,0,0,0,0,0,-1,629,708,-3.37609,-2.17189
-588,316,-5.00177,2.60675,0,0,0,0,0,0,0,-1,636,708,-5.00175,-2.60676
-581,316,-3.94653,0.393433,0,0,0,0,0,0,0,-1,643,708,-3.94655,-0.39342
-574,316,-7.30658,0.994263,0,0,0,0,0,0,0,-1,650,708,-7.30657,-0.99427
-567,316,-7.35382,0.445618,0,0,0,0,0,0,0,-1,657,708,-7.35379,-0.445637
-560,316,-7.55829,0.114624,-0.00950476,0.0230462,-0.00930575,0.0255187,-0.0119773,-1.3111,0.0221139,0.0478627,664,708,-7.55829,-0.114614
-553,316,-7.8056,-0.139893,-0.0107284,0.0203675,-0.00650945,0.0216751,-0.012036,-1.37255,0.0197266,0.0304736,671,708,-7.80557,0.139894
-546,316,-7.94611,-0.262878,-0.00981004,0.0168995,-0.00497792,0.0177971,-0.0107076,-1.3924,0.016626,0.018051,678,708,-7.94609,0.262888
-539,316,-7.90924,-0.544495,-0.00749839,0.0132664,-0.00433332,0.0141345,-0.0083664,-1.3731,0.0131324,0.0128528,685,708,-7.90925,0.544484
-532,316,-7.92743,-0.808899,-0.00534898,0.00991774,-0.00354809,0.010702,-0.00613329,-1.35324,0.00983847,0.0104946,692,708,-7.92745,0.808873
-525,316,-7.92078,-1.04663,-0.00335911,0.00703337,-0.00270123,0.00769354,-0.00401928,-1.3311,0.00687241,0.00929077,699,708,-7.92081,1.04665
-518,316,-7.91364,-1.33191,-0.0013713,0.00431696,-0.00180226,0.00483991,-0.00189425,-1.28839,0.00401004,0.00986085,706,708,-7.91366,1.33193
-511,316,-7.92261,-1.62549,0.000590777,0.00194866,-0.000890981,0.0023899,0.000149537,-1.11097,0.00154584,0.0103962,713,708,-7.92263,1.62546
-504,316,-7.93365,-1.91187,0.00260572,2.28989e-05,-7.72217e-05,0.00260803,2.05921e-05,-0.0298626,0.00173186,0.0131112,720,708,-7.93367,1.91185
-497,316,-7.91479,-2.1828,0.00457306,-0.00155987,0.000851214,0.00468901,-0.00167583,0.135385,0.00380953,0.0119794,727,708,-7.9148,2.18277
-490,316,-7.9187,-2.47345,0.00669524,-0.00258333,0.00146703,0.00692167,-0.00280976,0.153134,0.00578321,0.0140664,734,708,-7.91871,2.47348
-483,316,-7.82019,-2.81079,0.00912114,-0.0025783,0.0017716,0.00938352,-0.00284069,0.147035,0.00738694,0.0438541,741,708,-7.82021,2.81077
-476,316,-7.6709,-3.14301,0,0,0,0,0,0,0,-1,748,708,-7.67092,3.14303
-469,316,-6.24194,-1.42725,0,0,0,0,0,0,0,-1,755,708,-6.24192,1.42725
-462,316,-5.74237,-1.40039,0,0,0,0,0,0,0,-1,762,708,-5.74238,1.40039
-455,316,-5.44745,-1.21899,0,0,0,0,0,0,0,-1,769,708,-5.44746,1.21898
-448,316,-9.22021,3.96765,0,0,0,0,0,0,0,-1,776,708,-9.22019,-3.96764
-441,316,-9.29224,3.77203,0,0,0,0,0,0,0,-1,783,708,-9.29225,-3.77201
-434,316,-15.0129,2.83905,0,0,0,0,0,0,0,-1,790,708,-15.0129,-2.83908
-427,316,-14.6848,3.17792,0,0,0,0,0,0,0,-1,797,708,-14.6848,-3.1779
-420,316,-13.5587,2.737,0,0,0,0,0,0,0,-1,804,708,-13.5587,-2.73703
-413,316,0,0,0,0,0,0,0,0,0,-1,811,708,0,0
-406,316,0,0,0,0,0,0,0,0,0,-1,818,708,0,0
-399,316,0,0,0,0,0,0,0,0,0,-1,825,708,0,0
-392,316,0,0,0,0,0,0,0,0,0,-1,832,708,0,0
-385,316,0,0,0,0,0,0,0,0,0,-1,839,708,0,0
-378,316,0,0,0,0,0,0,0,0,0,-1,846,708,0,0
-371,316,0,0,0,0,0,0,0,0,0,-1,853,708,0,0
-364,316,0,0,0,0,0,0,0,0,0,-1,860,708,0,0
-357,316,0,0,0,0,0,0,0,0,0,-1,867,708,0,0
-350,316,0,0,0,0,0,0,0,0,0,-1,874,708,0,0
-343,316,0,0,0,0,0,0,0,0,0,-1,881,708,0,0
-336,316,0,0,0,0,0,0,0,0,0,-1,888,708,0,0
-329,316,0,0,0,0,0,0,0,0,0,-1,895,708,0,0
-322,316,0,0,0,0,0,0,0,0,0,-1,902,708,0,0
-315,316,0,0,0,0,0,0,0,0,0,-1,909,708,0,0
-308,316,0,0,0,0,0,0,0,0,0,-1,916,708,0,0
-301,316,0,0,0,0,0,0,0,0,0,-1,923,708,0,0
-294,316,0,0,0,0,0,0,0,0,0,-1,930,708,0,0
-287,316,0,0,0,0,0,0,0,0,0,-1,937,708,0,0
-280,316,0,0,0,0,0,0,0,0,0,-1,944,708,0,0
-273,316,0,0,0,0,0,0,0,0,0,-1,951,708,0,0
-266,316,0,0,0,0,0,0,0,0,0,-1,958,708,0,0
-259,316,0,0,0,0,0,0,0,0,0,-1,965,708,0,0
-252,316,0,0,0,0,0,0,0,0,0,-1,972,708,0,0
-245,316,0,0,0,0,0,0,0,0,0,-1,979,708,0,0
-238,316,0,0,0,0,0,0,0,0,0,-1,986,708,0,0
-231,316,0,0,0,0,0,0,0,0,0,-1,993,708,0,0
-224,316,0,0,0,0,0,0,0,0,0,-1,1000,708,0,0
-217,316,0,0,0,0,0,0,0,0,0,-1,1007,708,0,0
-210,316,0,0,0,0,0,0,0,0,0,-1,1014,708,0,0
-203,316,0,0,0,0,0,0,0,0,0,-1,1021,708,0,0
-196,316,0,0,0,0,0,0,0,0,0,-1,1028,708,0,0
-189,316,0,0,0,0,0,0,0,0,0,-1,1035,708,0,0
-182,316,0,0,0,0,0,0,0,0,0,-1,1042,708,0,0
-175,316,0,0,0,0,0,0,0,0,0,-1,1049,708,0,0
-168,316,0,0,0,0,0,0,0,0,0,-1,1056,708,0,0
-161,316,0,0,0,0,0,0,0,0,0,-1,1063,708,0,0
-154,316,0,0,0,0,0,0,0,0,0,-1,1070,708,0,0
-147,316,0,0,0,0,0,0,0,0,0,-1,1077,708,0,0
-140,316,0,0,0,0,0,0,0,0,0,-1,1084,708,0,0
-133,316,0,0,0,0,0,0,0,0,0,-1,1091,708,0,0
-126,316,0,0,0,0,0,0,0,0,0,-1,1098,708,0,0
-119,316,0,0,0,0,0,0,0,0,0,-1,1105,708,0,0
-112,316,0,0,0,0,0,0,0,0,0,-1,1112,708,0,0
-105,316,0,0,0,0,0,0,0,0,0,-1,1119,708,0,0
-98,316,0,0,0,0,0,0,0,0,0,-1,1126,708,0,0
-91,316,0,0,0,0,0,0,0,0,0,-1,1133,708,0,0
-84,316,0,0,0,0,0,0,0,0,0,-1,1140,708,0,0
-77,316,0,0,0,0,0,0,0,0,0,-1,1147,708,0,0
-70,316,0,0,0,0,0,0,0,0,0,-1,1154,708,0,0
-63,316,0,0,0,0,0,0,0,0,0,-1,1161,708,0,0
-56,316,0,0,0,0,0,0,0,0,0,-1,1168,708,0,0
-49,316,0,0,0,0,0,0,0,0,0,-1,1175,708,0,0
-42,316,0,0,0,0,0,0,0,0,0,-1,1182,708,0,0
-35,316,0,0,0,0,0,0,0,0,0,-1,1189,708,0,0
-28,316,0,0,0,0,0,0,0,0,0,-1,1196,708,0,0
-21,316,0,0,0,0,0,0,0,0,0,-1,1203,708,0,0
-14,316,0,0,0,0,0,0,0,0,0,-1,1210,708,0,0
-7,316,0,0,0,0,0,0,0,0,0,-1,1217,708,0,0
0,316,0,0,0,0,0,0,0,0,0,-1,1224,708,0,0
7,316,0,0,0,0,0,0,0,0,0,-1,1231,708,0,0
14,316,0,0,0,0,0,0,0,0,0,-1,1238,708,0,0
21,316,0,0,0,0,0,0,0,0,0,-1,1245,708,0,0
28,316,0,0,0,0,0,0,0,0,0,-1,1252,708,0,0
35,316,0,0,0,0,0,0,0,0,0,-1,1259,708,0,0
42,316,0,0,0,0,0,0,0,0,0,-1,1266,708,0,0
49,316,0,0,0,0,0,0,0,0,0,-1,1273,708,0,0
56,316,0,0,0,0,0,0,0,0,0,-1,1280,708,0,0
63,316,0,0,0,0,0,0,0,0,0,-1,1287,708,0,0
70,316,0,0,0,0,0,0,0,0,0,-1,1294,708,0,0
77,316,0,0,0,0,0,0,0,0,0,-1,1301,708,0,0
84,316,0,0,0,0,0,0,0,0,0,-1,1308,708,0,0
91,316,0,0,0,0,0,0,0,0,0,-1,1315,708,0,0
98,316,0,0,0,0,0,0,0,0,0,-1,1322,708,0,0
105,316,0,0,0,0,0,0,0,0,0,-1,1329,708,0,0
112,316,0,0,0,0,0,0,0,0,0,-1,1336,708,0,0
119,316,0,0,0,0,0,0,0,0,0,-1,1343,708,0,0
126,316,0,0,0,0,0,0,0,0,0,-1,1350,708,0,0
133,316,0,0,0,0,0,0,0,0,0,-1,1357,708,0,0
140,316,0,0,0,0,0,0,0,0,0,-1,1364,708,0,0
147,316,0,0,0,0,0,0,0,0,0,-1,1371,708,0,0
154,316,0,0,0,0,0,0,0,0,0,-1,1378,708,0,0
161,316,0,0,0,0,0,0,0,0,0,-1,1385,708,0,0
168,316,0,0,0,0,0,0,0,0,0,-1,1392,708,0,0
175,316,0,0,0,0,0,0,0,0,0,-1,1399,708,0,0
182,316,0,0,0,0,0,0,0,0,0,-1,1406,708,0,0
189,316,0,0,0,0,0,0,0,0,0,-1,1413,708,0,0
196,316,0,0,0,0,0,0,0,0,0,-1,1420,708,0,0
203,316,0,0,0,0,0,0,0,0,0,-1,1427,708,0,0
210,316,0,0,0,0,0,0,0,0,0,-1,1434,708,0,0
217,316,0,0,0,0,0,0,0,0,0,-1,1441,708,0,0
224,316,0,0,0,0,0,0,0,0,0,-1,1448,708,0,0
231,316,0,0,0,0,0,0,0,0,0,-1,1455,708,0,0
238,316,0,0,0,0,0,0,0,0,0,-1,1462,708,0,0
245,316,0,0,0,0,0,0,0,0,0,-1,1469,708,0,0
252,316,0,0,0,0,0,0,0,0,0,-1,1476,708,0,0
259,316,0,0,0,0,0,0,0,0,0,-1,1483,708,0,0
266,316,0,0,0,0,0,0,0,0,0,-1,1490,708,0,0
273,316,0,0,0,0,0,0,0,0,0,-1,1497,708,0,0
280,316,0,0,0,0,0,0,0,0,0,-1,1504,708,0,0
287,316,0,0,0,0,0,0,0,0,0,-1,1511,708,0,0
294,316,0,0,0,0,0,0,0,0,0,-1,1518,708,0,0
301,316,0,0,0,0,0,0,0,0,0,-1,1525,708,0,0
308,316,0,0,0,0,0,0,0,0,0,-1,1532,708,0,0
315,316,0,0,0,0,0,0,0,0,0,-1,1539,708,0,0
322,316,0,0,0,0,0,0,0,0,0,-1,1546,708,0,0
329,316,0,0,0,0,0,0,0,0,0,-1,1553,708,0,0
336,316,0,0,0,0,0,0,0,0,0,-1,1560,708,0,0
343,316,0,0,0,0,0,0,0,0,0,-1,1567,708,0,0
350,316,0,0,0,0,0,0,0,0,0,-1,1574,708,0,0
357,316,0,0,0,0,0,0,0,0,0,-1,1581,708,0,0
364,316,0,0,0,0,0,0,0,0,0,-1,1588,708,0,0
371,316,0,0,0,0,0,0,0,0,0,-1,1595,708,0,0
378,316,0,0,0,0,0,0,0,0,0,-1,1602,708,0,0
385,316,0,0,0,0,0,0,0,0,0,-1,1609,708,0,0
392,316,0,0,0,0,0,0,0,0,0,-1,1616,708,0,0
399,316,0,0,0,0,0,0,0,0,0,-1,1623,708,0,0
406,316,0,0,0,0,0,0,0,0,0,-1,1630,708,0,0
413,316,0,0,0,0,0,0,0,0,0,-1,1637,708,0,0
420,316,0,0,0,0,0,0,0,0,0,-1,1644,708,0,0
427,316,0,0,0,0,0,0,0,0,0,-1,1651,708,0,0
434,316,0,0,0,0,0,0,0,0,0,-1,1658,708,0,0
441,316,0,0,0,0,0,0,0,0,0,-1,1665,708,0,0
448,316,0,0,0,0,0,0,0,0,0,-1,1672,708,0,0
455,316,0,0,0,0,0,0,0,0,0,-1,1679,708,0,0
462,316,0,0,0,0,0,0,0,0,0,-1,1686,708,0,0
469,316,0,0,0,0,0,0,0,0,0,-1,1693,708,0,0
476,316,0,0,0,0,0,0,0,0,0,-1,1700,708,0,0
483,316,0,0,0,0,0,0,0,0,0,-1,1707,708,0,0
490,316,0,0,0,0,0,0,0,0,0,-1,1714,708,0,0
497,316,0,0,0,0,0,0,0,0,0,-1,1721,708,0,0
504,316,0,0,0,0,0,0,0,0,0,-1,1728,708,0,0
511,316,0,0,0,0,0,0,0,0,0,-1,1735,708,0,0
518,316,0,0,0,0,0,0,0,0,0,-1,1742,708,0,0
525,316,0,0,0,0,0,0,0,0,0,-1,1749,708,0,0
532,316,22.8335,1.74329,0,0,0,0,0,0,0,-1,1756,708,22.8335,-1.74327
539,316,23.8202,2.48529,0,0,0,0,0,0,0,-1,1763,708,23.8202,-2.48526
546,316,23.8256,3.99957,0,0,0,0,0,0,0,-1,1770,708,23.8256,-3.9996
553,316,23.8309,5.51392,0,0,0,0,0,0,0,-1,1777,708,23.8309,-5.51393
560,316,19.39,3.67322,0,0,0,0,0,0,0,-1,1784,708,19.39,-3.67322
567,316,22.0409,4.57452,0,0,0,0,0,0,0,-1,1791,708,22.0409,-4.57452
574,316,22.9047,1.6745,0,0,0,0,0,0,0,-1,1798,708,22.9047,-1.67449
581,316,23.7242,2.23938,0,0,0,0,0,0,0,-1,1805,708,23.7243,-2.23941
588,316,19.7659,2.90198,0,0,0,0,0,0,0,-1,1812,708,19.7659,-2.902
595,316,12.5363,1.50702,0,0,0,0,0,0,0,-1,1819,708,12.5363,-1.50701
602,316,7.79919,0.0422363,0,0,0,0,0,0,0,-1,1826,708,7.79923,-0.0422066
609,316,14.1155,-0.931641,0,0,0,0,0,0,0,-1,1833,708,14.1155,0.931633
616,316,14.1932,-0.595703,0.00230579,0.00144932,-0.00198546,0.00390867,-0.00015357,-0.679183,0.00265845,0.0191582,1840,708,14.1933,0.595722
623,316,14.2157,-0.312561,0.00496984,-0.000430872,-0.00130566,0.00526893,-0.000729962,-0.225186,0.00377951,0.0109161,1847,708,14.2156,0.31257
630,316,14.2069,-0.0562744,0.00306734,-0.000737343,-0.000913157,0.00327516,-0.000945158,-0.223767,0.00255739,0.0123993,1854,708,14.2069,0.0562983
637,316,14.2141,0.263794,0.0011258,-0.000735724,-0.000641843,0.00132565,-0.000935573,-0.301852,0.00131198,0.0117178,1861,708,14.2141,-0.263813
644,316,14.2163,0.578552,-0.000576179,-0.000539402,-0.000686563,0.000129019,-0.0012446,-0.798787,0.000875913,0.0117168,1868,708,14.2163,-0.578557
651,316,14.1934,0.868896,-0.00179924,-0.000253908,-0.000811895,9.4223e-05,-0.00214737,-1.16572,0.001464,0.0130925,1875,708,14.1933,-0.868891
658,316,14.1589,1.16113,-0.00280735,0.000343219,-0.000891001,0.000577742,-0.00304188,-1.31342,0.00224541,0.0215124,1882,708,14.1589,-1.16115
665,316,14.1404,1.46472,-0.00384374,0.00101797,-0.00107473,0.00124495,-0.00407072,-1.36266,0.0032103,0.0168605,1889,708,14.1404,-1.46475
672,316,14.1788,1.73901,-0.00462151,0.00190042,-0.00119449,0.0021123,-0.0048334,-1.39524,0.0041114,0.0130634,1896,708,14.1788,-1.73901
679,316,14.205,2.03357,-0.00533826,0.0031018,-0.00119719,0.00326833,-0.00550479,-1.43258,0.00511973,0.0177594,1903,708,14.205,-2.03358
686,316,14.0774,2.29431,-0.00580342,0.0046591,-0.00109796,0.00477308,-0.0059174,-1.46736,0.00618393,0.0321902,1910,708,14.0774,-2.29429
693,316,13.7743,2.75531,0,0,0,0,0,0,0,-1,1917,708,13.7743,-2.7553
700,316,12.8749,2.89136,0,0,0,0,0,0,0,-1,1924,708,12.8748,-2.89137
707,316,15.7089,5.41486,0,0,0,0,0,0,0,-1,1931,708,15.7088,-5.41487
714,316,16.1727,5.52045,0,0,0,0,0,0,0,-1,1938,708,16.1728,-5.52042
721,316,16.7094,6.53351,0,0,0,0,0,0,0,-1,1945,708,16.7094,-6.5335
728,316,0,0,0,0,0,0,0,0,0,-1,1952,708,0,0
735,316,0,0,0,0,0,0,0,0,0,-1,1959,708,0,0
742,316,0,0,0,0,0,0,0,0,0,-1,1966,708,0,0
749,316,0,0,0,0,0,0,0,0,0,-1,1973,708,0,0
756,316,0,0,0,0,0,0,0,0,0,-1,1980,708,0,0
763,316,0,0,0,0,0,0,0,0,0,-1,1987,708,0,0
770,316,0,0,0,0,0,0,0,0,0,-1,1994,708,0,0
777,316,0,0,0,0,0,0,0,0,0,-1,2001,708,0,0
784,316,0,0,0,0,0,0,0,0,0,-1,2008,708,0,0
791,316,0,0,0,0,0,0,0,0,0,-1,2015,708,0,0
798,316,0,0,0,0,0,0,0,0,0,-1,2022,708,0,0
805,316,0,0,0,0,0,0,0,0,0,-1,2029,708,0,0
812,316,0,0,0,0,0,0,0,0,0,-1,2036,708,0,0
-700,309,0,0,0,0,0,0,0,0,0,-1,524,715,0,0
-693,309,0,0,0,0,0,0,0,0,0,-1,531,715,0,0
-686,309,0,0,0,0,0,0,0,0,0,-1,538,715,0,0
-679,309,0,0,0,0,0,0,0,0,0,-1,545,715,0,0
-672,309,0,0,0,0,0,0,0,0,0,-1,552,715,0,0
-665,309,0,0,0,0,0,0,0,0,0,-1,559,715,0,0
-658,309,0,0,0,0,0,0,0,0,0,-1,566,715,0,0
-651,309,0,0,0,0,0,0,0,0,0,-1,573,715,0,0
-644,309,0,0,0,0,0,0,0,0,0,-1,580,715,0,0
-637,309,0,0,0,0,0,0,0,0,0,-1,587,715,0,0
-630,309,0,0,0,0,0,0,0,0,0,-1,594,715,0,0
-623,309,0,0,0,0,0,0,0,0,0,-1,601,715,0,0
-616,309,0,0,0,0,0,0,0,0,0,-1,608,715,0,0
-609,309,-5.95392,-3.93689,0,0,0,0,0,0,0,-1,615,715,-5.95392,3.93686
-602,309,-4.99786,-3.31287,0,0,0,0,0,0,0,-1,622,715,-4.99786,3.31284
-595,309,-6.80847,2.4046,0,0,0,0,0,0,0,-1,629,715,-6.80845,-2.40458
-588,309,-6.08795,2.19324,0,0,0,0,0,0,0,-1,636,715,-6.08793,-2.19325
-581,309,-5.97552,1.3277,0,0,0,0,0,0,0,-1,643,715,-5.97552,-1.32769
-574,309,-6.72406,1.50763,0,0,0,0,0,0,0,-1,650,715,-6.72405,-1.50762
-567,309,-7.62512,-0.539001,0,0,0,0,0,0,0,-1,657,715,-7.62515,0.538991
-560,309,-7.83435,-0.356018,-0.00573751,0.0143202,-0.00585318,0.0159033,-0.00732062,-1.30665,0.0137102,0.0468818,664,715,-7.83432,0.355995
-553,309,-8.12219,-0.0559692,-0.0077136,0.0133044,-0.00345523,0.0138578,-0.00826705,-1.41197,0.012909,0.0323367,671,715,-8.12217,0.0559558
-546,309,-8.20782,-0.263367,-0.00755827,0.0113113,-0.00226664,0.0115798,-0.00782672,-1.45291,0.011274,0.0164011,678,715,-8.20784,0.263366
-539,309,-8.19214,-0.538513,-0.00574063,0.00880279,-0.00203901,0.00908326,-0.00602109,-1.4341,0.00878004,0.0142148,685,715,-8.19212,0.538529
-532,309,-8.19214,-0.809082,-0.00399029,0.00639205,-0.00164432,0.00664625,-0.00424449,-1.41742,0.00633853,0.0117667,692,715,-8.19215,0.809077
-525,309,-8.19434,-1.06647,-0.00226145,0.004357,-0.00113108,0.00454496,-0.00244941,-1.40612,0.00409817,0.0146574,699,715,-8.19431,1.06649
-518,309,-8.18512,-1.36017,-0.000365176,0.00235855,-0.000423923,0.00242301,-0.000429631,-1.41991,0.00177595,0.0149943,706,715,-8.18514,1.36016
-511,309,-8.20807,-1.633,0.00160467,0.000565868,0.000401728,0.0017419,0.000428639,0.329168,0.00104802,0.0120076,713,715,-8.20806,1.63297
-504,309,-8.18335,-1.89813,0.00374897,-0.00086331,0.00134754,0.00411382,-0.00122815,0.264408,0.0032307,0.00982707,720,715,-8.18336,1.89811
-497,309,-8.17981,-2.16467,0.0060697,-0.00214128,0.00263471,0.0068424,-0.00291398,0.285278,0.00578305,0.0142112,727,715,-8.17982,2.1647
-490,309,-8.17767,-2.44928,0.00881949,-0.00287889,0.00386035,0.00997854,-0.00403793,0.29168,0.00833117,0.0287796,734,715,-8.17764,2.44929
-483,309,-8.11841,-2.78406,0,0,0,0,0,0,0,-1,741,715,-8.11843,2.78405
-476,309,-5.29486,-1.2262,0,0,0,0,0,0,0,-1,748,715,-5.29484,1.22622
-469,309,-4.22717,-0.592896,0,0,0,0,0,0,0,-1,755,715,-4.2272,0.592905
-462,309,-10.428,2.46948,0,0,0,0,0,0,0,-1,762,715,-10.428,-2.46947
-455,309,-11.8719,1.70447,0,0,0,0,0,0,0,-1,769,715,-11.8719,-1.70447
-448,309,-10.3397,2.80481,0,0,0,0,0,0,0,-1,776,715,-10.3397,-2.80481
-441,309,-10.1426,2.83881,0,0,0,0,0,0,0,-1,783,715,-10.1426,-2.83881
-434,309,-9.8681,2.92401,0,0,0,0,0,0,0,-1,790,715,-9.8681,-2.92399
-427,309,-14.1808,3.20197,0,0,0,0,0,0,0,-1,797,715,-14.1808,-3.20199
-420,309,-13.3781,3.26843,0,0,0,0,0,0,0,-1,804,715,-13.3781,-3.26842
-413,309,0,0,0,0,0,0,0,0,0,-1,811,715,0,0
-406,309,0,0,0,0,0,0,0,0,0,-1,818,715,0,0
-399,309,0,0,0,0,0,0,0,0,0,-1,825,715,0,0
-392,309,0,0,0,0,0,0,0,0,0,-1,832,715,0,0
-385,309,0,0,0,0,0,0,0,0,0,-1,839,715,0,0
-378,309,0,0,0,0,0,0,0,0,0,-1,846,715,0,0
-371,309,0,0,0,0,0,0,0,0,0,-1,853,715,0,0
-364,309,0,0,0,0,0,0,0,0,0,-1,860,715,0,0
-357,309,0,0,0,0,0,0,0,0,0,-1,867,715,0,0
-350,309,0,0,0,0,0,0,0,0,0,-1,874,715,0,0
-343,309,0,0,0,0,0,0,0,0,0,-1,881,715,0,0
-336,309,0,0,0,0,0,0,0,0,0,-1,888,715,0,0
-329,309,0,0,0,0,0,0,0,0,0,-1,895,715,0,0
-322,309,0,0,0,0,0,0,0,0,0,-1,902,715,0,0
-315,309,0,0,0,0,0,0,0,0,0,-1,909,715,0,0
-308,309,0,0,0,0,0,0,0,0,0,-1,916,715,0,0
-301,309,0,0,0,0,0,0,0,0,0,-1,923,715,0,0
-294,309,0,0,0,0,0,0,0,0,0,-1,930,715,0,0
-287,309,0,0,0,0,0,0,0,0,0,-1,937,715,0,0
-280,309,0,0,0,0,0,0,0,0,0,-1,944,715,0,0
-273,309,0,0,0,0,0,0,0,0,0,-1,951,715,0,0
-266,309,0,0,0,0,0,0,0,0,0,-1,958,715,0,0
-259,309,0,0,0,0,0,0,0,0,0,-1,965,715,0,0
-252,309,0,0,0,0,0,0,0,0,0,-1,972,715,0,0
-245,309,0,0,0,0,0,0,0,0,0,-1,979,715,0,0
-238,309,0,0,0,0,0,0,0,0,0,-1,986,715,0,0
-231,309,0,0,0,0,0,0,0,0,0,-1,993,715,0,0
-224,309,0,0,0,0,0,0,0,0,0,-1,1000,715,0,0
-217,309,0,0,0,0,0,0,0,0,0,-1,1007,715,0,0
-210,309,0,0,0,0,0,0,0,0,0,-1,1014,715,0,0
-203,309,0,0,0,0,0,0,0,0,0,-1,1021,715,0,0
-196,309,0,0,0,0,0,0,0,0,0,-1,1028,715,0,0
-189,309,0,0,0,0,0,0,0,0,0,-1,1035,715,0,0
-182,309,0,0,0,0,0,0,0,0,0,-1,1042,715,0,0
-175,309,0,0,0,0,0,0,0,0,0,-1,1049,715,0,0
-168,309,0,0,0,0,0,0,0,0,0,-1,1056,715,0,0
-161,309,0,0,0,0,0,0,0,0,0,-1,1063,715,0,0
-154,309,0,0,0,0,0,0,0,0,0,-1,1070,715,0,0
-147,309,0,0,0,0,0,0,0,0,0,-1,1077,715,0,0
-140,309,0,0,0,0,0,0,0,0,0,-1,1084,715,0,0
-133,309,0,0,0,0,0,0,0,0,0,-1,1091,715,0,0
-126,309,0,0,0,0,0,0,0,0,0,-1,1098,715,0,0
-119,309,0,0,0,0,0,0,0,0,0,-1,1105,715,0,0
-112,309,0,0,0,0,0,0,0,0,0,-1,1112,715,0,0
-105,309,0,0,0,0,0,0,0,0,0,-1,1119,715,0,0
-98,309,0,0,0,0,0,0,0,0,0,-1,1126,715,0,0
-91,309,0,0,0,0,0,0,0,0,0,-1,1133,715,0,0
-84,309,0,0,0,0,0,0,0,0,0,-1,1140,715,0,0
-77,309,0,0,0,0,0,0,0,0,0,-1,1147,715,0,0
-70,309,0,0,0,0,0,0,0,0,0,-1,1154,715,0,0
-63,309,0,0,0,0,0,0,0,0,0,-1,1161,715,0,0
-56,309,0,0,0,0,0,0,0,0,0,-1,1168,715,0,0
-49,309,0,0,0,0,0,0,0,0,0,-1,1175,715,0,0
-42,309,0,0,0,0,0,0,0,0,0,-1,1182,715,0,0
-35,309,0,0,0,0,0,0,0,0,0,-1,1189,715,0,0
-28,309,0,0,0,0,0,0,0,0,0,-1,1196,715,0,0
-21,309,0,0,0,0,0,0,0,0,0,-1,1203,715,0,0
-14,309,0,0,0,0,0,0,0,0,0,-1,1210,715,0,0
-7,309,0,0,0,0,0,0,0,0,0,-1,1217,715,0,0
0,309,0,0,0,0,0,0,0,0,0,-1,1224,715,0,0
7,309,0,0,0,0,0,0,0,0,0,-1,1231,715,0,0
14,309,0,0,0,0,0,0,0,0,0,-1,1238,715,0,0
21,309,0,0,0,0,0,0,0,0,0,-1,1245,715,0,0
28,309,0,0,0,0,0,0,0,0,0,-1,1252,715,0,0
35,309,0,0,0,0,0,0,0,0,0,-1,1259,715,0,0
42,309,0,0,0,0,0,0,0,0,0,-1,1266,715,0,0
49,309,0,0,0,0,0,0,0,0,0,-1,1273,715,0,0
56,309,0,0,0,0,0,0,0,0,0,-1,1280,715,0,0
63,309,0,0,0,0,0,0,0,0,0,-1,1287,715,0,0
70,309,0,0,0,0,0,0,0,0,0,-1,1294,715,0,0
77,309,0,0,0,0,0,0,0,0,0,-1,1301,715,0,0
84,309,0,0,0,0,0,0,0,0,0,-1,1308,715,0,0
91,309,0,0,0,0,0,0,0,0,0,-1,1315,715,0,0
98,309,0,0,0,0,0,0,0,0,0,-1,1322,715,0,0
105,309,0,0,0,0,0,0,0,0,0,-1,1329,715,0,0
112,309,0,0,0,0,0,0,0,0,0,-1,1336,715,0,0
119,309,0,0,0,0,0,0,0,0,0,-1,1343,715,0,0
126,309,0,0,0,0,0,0,0,0,0,-1,1350,715,0,0
133,309,0,0,0,0,0,0,0,0,0,-1,1357,715,0,0
140,309,0,0,0,0,0,0,0,0,0,-1,1364,715,0,0
147,309,0,0,0,0,0,0,0,0,0,-1,1371,715,0,0
154,309,0,0,0,0,0,0,0,0,0,-1,1378,715,0,0
161,309,0,0,0,0,0,0,0,0,0,-1,1385,715,0,0
168,309,0,0,0,0,0,0,0,0,0,-1,1392,715,0,0
175,309,0,0,0,0,0,0,0,0,0,-1,1399,715,0,0
182,309,0,0,0,0,0,0,0,0,0,-1,1406,715,0,0
189,309,0,0,0,0,0,0,0,0,0,-1,1413,715,0,0
196,309,0,0,0,0,0,0,0,0,0,-1,1420,715,0,0
203,309,0,0,0,0,0,0,0,0,0,-1,1427,715,0,0
210,309,0,0,0,0,0,0,0,0,0,-1,1434,715,0,0
217,309,0,0,0,0,0,0,0,0,0,-1,1441,715,0,0
224,309,0,0,0,0,0,0,0,0,0,-1,1448,715,0,0
231,309,0,0,0,0,0,0,0,0,0,-1,1455,715,0,0
238,309,0,0,0,0,0,0,0,0,0,-1,1462,715,0,0
245,309,0,0,0,0,0,0,0,0,0,-1,1469,715,0,0
252,309,0,0,0,0,0,0,0,0,0,-1,1476,715,0,0
259,309,0,0,0,0,0,0,0,0,0,-1,1483,715,0,0
266,309,0,0,0,0,0,0,0,0,0,-1,1490,715,0,0
273,309,0,0,0,0,0,0,0,0,0,-1,1497,715,0,0
280,309,0,0,0,0,0,0,0,0,0,-1,1504,715,0,0
287,309,0,0,0,0,0,0,0,0,0,-1,1511,715,0,0
294,309,0,0,0,0,0,0,0,0,0,-1,1518,715,0,0
301,309,0,0,0,0,0,0,0,0,0,-1,1525,715,0,0
308,309,0,0,0,0,0,0,0,0,0,-1,1532,715,0,0
315,309,0,0,0,0,0,0,0,0,0,-1,1539,715,0,0
322,309,0,0,0,0,0,0,0,0,0,-1,1546,715,0,0
329,309,0,0,0,0,0,0,0,0,0,-1,1553,715,0,0
336,309,0,0,0,0,0,0,0,0,0,-1,1560,715,0,0
343,309,0,0,0,0,0,0,0,0,0,-1,1567,715,0,0
350,309,0,0,0,0,0,0,0,0,0,-1,1574,715,0,0
357,309,0,0,0,0,0,0,0,0,0,-1,1581,715,0,0
364,309,0,0,0,0,0,0,0,0,0,-1,1588,715,0,0
371,309,0,0,0,0,0,0,0,0,0,-1,1595,715,0,0
378,309,0,0,0,0,0,0,0,0,0,-1,1602,715,0,0
385,309,0,0,0,0,0,0,0,0,0,-1,1609,715,0,0
392,309,0,0,0,0,0,0,0,0,0,-1,1616,715,0,0
399,309,0,0,0,0,0,0,0,0,0,-1,1623,715,0,0
406,309,0,0,0,0,0,0,0,0,0,-1,1630,715,0,0
413,309,0,0,0,0,0,0,0,0,0,-1,1637,715,0,0
420,309,0,0,0,0,0,0,0,0,0,-1,1644,715,0,0
427,309,0,0,0,0,0,0,0,0,0,-1,1651,715,0,0
434,309,0,0,0,0,0,0,0,0,0,-1,1658,715,0,0
441,309,0,0,0,0,0,0,0,0,0,-1,1665,715,0,0
448,309,0,0,0,0,0,0,0,0,0,-1,1672,715,0,0
455,309,0,0,0,0,0,0,0,0,0,-1,1679,715,0,0
462,309,0,0,0,0,0,0,0,0,0,-1,1686,715,0,0
469,309,0,0,0,0,0,0,0,0,0,-1,1693,715,0,0
476,309,0,0,0,0,0,0,0,0,0,-1,1700,715,0,0
483,309,0,0,0,0,0,0,0,0,0,-1,1707,715,0,0
490,309,0,0,0,0,0,0,0,0,0,-1,1714,715,0,0
497,309,0,0,0,0,0,0,0,0,0,-1,1721,715,0,0
504,309,0,0,0,0,0,0,0,0,0,-1,1728,715,0,0
511,309,0,0,0,0,0,0,0,0,0,-1,1735,715,0,0
518,309,0,0,0,0,0,0,0,0,0,-1,1742,715,0,0
525,309,0,0,0,0,0,0,0,0,0,-1,1749,715,0,0
532,309,0,0,0,0,0,0,0,0,0,-1,1756,715,0,0
539,309,23.7823,1.90894,0,0,0,0,0,0,0,-1,1763,715,23.7823,-1.90896
546,309,23.774,3.50403,0,0,0,0,0,0,0,-1,1770,715,23.7741,-3.50403
553,309,23.6428,3.98926,0,0,0,0,0,0,0,-1,1777,715,23.6428,-3.98926
560,309,23.3464,4.13385,0,0,0,0,0,0,0,-1,1784,715,23.3465,-4.13383
567,309,22.1604,4.20935,0,0,0,0,0,0,0,-1,1791,715,22.1604,-4.20934
574,309,22.0831,4.87201,0,0,0,0,0,0,0,-1,1798,715,22.0831,-4.872
581,309,23.4667,2.21063,0,0,0,0,0,0,0,-1,1805,715,23.4667,-2.21066
588,309,24.2113,3.86719,0,0,0,0,0,0,0,-1,1812,715,24.2113,-3.86717
595,309,19.585,3.71558,0,0,0,0,0,0,0,-1,1819,715,19.5849,-3.71555
602,309,11.0811,3.47772,0,0,0,0,0,0,0,-1,1826,715,11.0811,-3.47772
609,309,14.4366,-0.90863,0,0,0,0,0,0,0,-1,1833,715,14.4366,0.908607
616,309,14.4901,-0.590759,0.00409207,0.00195758,-0.0026049,0.00583988,0.00020977,-0.590976,0.00382525,0.0276943,1840,715,14.4901,0.590732
623,309,14.5203,-0.309814,0.00690675,-0.000257716,-0.001904,0.00738132,-0.000732281,-0.244269,0.00518225,0.0107739,1847,715,14.5203,0.309841
630,309,14.5045,-0.0443726,0.00458194,-0.000757101,-0.00137152,0.00491366,-0.00108882,-0.237302,0.00369261,0.0107032,1854,715,14.5046,0.0443669
637,309,14.4937,0.258667,0.00219638,-0.000889771,-0.000859411,0.00241956,-0.00111295,-0.254081,0.00208548,0.0131255,1861,715,14.4936,-0.25869
644,309,14.4751,0.569153,0.000262589,-0.000706579,-0.00068826,0.000619743,-0.00106373,-0.478672,0.000983158,0.0136739,1868,715,14.475,-0.569179
651,309,14.4779,0.861938,-0.000903734,-0.000359207,-0.000643159,6.69421e-05,-0.00132988,-0.985623,0.000909724,0.0132146,1875,715,14.4779,-0.861929
658,309,14.4677,1.14301,-0.00174668,0.000337518,-0.00062288,0.000509483,-0.00191864,-1.30143,0.00147848,0.0185661,1882,715,14.4677,-1.14302
665,309,14.4962,1.44293,-0.00248497,0.00109317,-0.000731059,0.00123677,-0.00262857,-1.37684,0.00227937,0.0165664,1889,715,14.4962,-1.44293
672,309,14.4897,1.742,-0.00284766,0.00190946,-0.000782972,0.00203502,-0.00297321,-1.41179,0.00290837,0.0147067,1896,715,14.4898,-1.742
679,309,14.5161,2.01819,-0.00312466,0.00299403,-0.000747314,0.00308399,-0.00321461,-1.45101,0.00363676,0.0145522,1903,715,14.5161,-2.01817
686,309,14.4861,2.2746,-0.0030451,0.00430905,-0.000639999,0.00436433,-0.00310038,-1.48463,0.0043303,0.0215012,1910,715,14.4861,-2.27458
693,309,14.1774,2.62817,-0.00220716,0.0061113,-0.000296653,0.00612187,-0.00221773,-1.53519,0.00498764,0.038167,1917,715,14.1773,-2.62814
700,309,13.944,3.1308,0,0,0,0,0,0,0,-1,1924,715,13.944,-3.1308
707,309,15.6318,4.58655,0,0,0,0,0,0,0,-1,1931,715,15.6318,-4.58657
714,309,16.1973,4.76227,0,0,0,0,0,0,0,-1,1938,715,16.1973,-4.76226
721,309,16.8337,5.4458,0,0,0,0,0,0,0,-1,1945,715,16.8338,-5.44582
728,309,0,0,0,0,0,0,0,0,0,-1,1952,715,0,0
735,309,0,0,0,0,0,0,0,0,0,-1,1959,715,0,0
742,309,0,0,0,0,0,0,0,0,0,-1,1966,715,0,0
749,309,0,0,0,0,0,0,0,0,0,-1,1973,715,0,0
756,309,0,0,0,0,0,0,0,0,0,-1,1980,715,0,0
763,309,0,0,0,0,0,0,0,0,0,-1,1987,715,0,0
770,309,0,0,0,0,0,0,0,0,0,-1,1994,715,0,0
777,309,0,0,0,0,0,0,0,0,0,-1,2001,715,0,0
784,309,0,0,0,0,0,0,0,0,0,-1,2008,715,0,0
791,309,0,0,0,0,0,0,0,0,0,-1,2015,715,0,0
798,309,0,0,0,0,0,0,0,0,0,-1,2022,715,0,0
805,309,0,0,0,0,0,0,0,0,0,-1,2029,715,0,0
812,309,0,0,0,0,0,0,0,0,0,-1,2036,715,0,0
-700,302,0,0,0,0,0,0,0,0,0,-1,524,722,0,0
-693,302,0,0,0,0,0,0,0,0,0,-1,531,722,0,0
-686,302,0,0,0,0,0,0,0,0,0,-1,538,722,0,0
-679,302,0,0,0,0,0,0,0,0,0,-1,545,722,0,0
-672,302,0,0,0,0,0,0,0,0,0,-1,552,722,0,0
-665,302,0,0,0,0,0,0,0,0,0,-1,559,722,0,0
-658,302,0,0,0,0,0,0,0,0,0,-1,566,722,0,0
-651,302,0,0,0,0,0,0,0,0,0,-1,573,722,0,0
-644,302,0,0,0,0,0,0,0,0,0,-1,580,722,0,0
-637,302,0,0,0,0,0,0,0,0,0,-1,587,722,0,0
-630,302,0,0,0,0,0,0,0,0,0,-1,594,722,0,0
-623,302,0,0,0,0,0,0,0,0,0,-1,601,722,0,0
-616,302,0,0,0,0,0,0,0,0,0,-1,608,722,0,0
-609,302,-7.79266,-3.71649,0,0,0,0,0,0,0,-1,615,722,-7.79267,3.7165
-602,302,0.92865,-1.99158,0,0,0,0,0,0,0,-1,622,722,0.928637,1.99157
-595,302,-7.89941,2.13641,0,0,0,0,0,0,0,-1,629,722,-7.89939,-2.13639
-588,302,-7.10895,1.79163,0,0,0,0,0,0,0,-1,636,722,-7.10896,-1.79163
-581,302,-7.45697,1.61456,0,0,0,0,0,0,0,-1,643,722,-7.457,-1.61455
-574,302,-7.58606,0.00402832,0,0,0,0,0,0,0,-1,650,722,-7.58607,-0.00401211
-567,302,-7.90588,-0.157471,0,0,0,0,0,0,0,-1,657,722,-7.9059,0.15746
-560,302,-8.23169,-0.0553589,-0.00267421,0.00719171,-0.0030105,0.00803778,-0.00352028,-1.29682,0.00684084,0.0417972,664,722,-8.23168,0.0553792
-553,302,-8.44238,0.0335083,-0.00509702,0.00731033,-0.00108569,0.00740462,-0.0051913,-1.48417,0.00730959,0.0189793,671,722,-8.44235,-0.0335325
-546,302,-8.46191,-0.276367,-0.00549885,0.00642941,-0.000101312,0.00643027,-0.00549971,-1.5623,0.00689476,0.0147985,678,722,-8.46189,0.276358
-539,302,-8.47028,-0.515991,-0.00412276,0.00485227,-0.000128068,0.0048541,-0.00412459,-1.55653,0.00518954,0.0149251,685,722,-8.4703,0.516011
-532,302,-8.479,-0.781555,-0.00279588,0.00324713,1.30853e-05,0.00324716,-0.00279591,1.56863,0.00349221,0.0145825,692,722,-8.47903,0.781552
-525,302,-8.49176,-1.08344,-0.00138833,0.00196542,0.000326753,0.00199696,-0.00141987,1.47457,0.00198207,0.0194258,699,722,-8.49179,1.08341
-518,302,-8.50677,-1.35822,0.000326524,0.000624409,0.000945876,0.001433,-0.000482065,0.86349,0.0011502,0.019745,706,722,-8.50679,1.35821
-511,302,-8.48352,-1.60938,0.00218686,-0.000611838,0.00175308,0.00303061,-0.00145558,0.44857,0.00264278,0.0106734,713,722,-8.4835,1.60939
-504,302,-8.46515,-1.87646,0.00437044,-0.00156397,0.00287294,0.00553338,-0.00272691,0.384629,0.00485997,0.00986128,720,722,-8.46513,1.87644
-497,302,-8.47504,-2.1377,0.0069723,-0.00248612,0.00449976,0.00877098,-0.00428479,0.380271,0.00768465,0.0141984,727,722,-8.47503,2.1377
-490,302,-8.37231,-2.3432,0.0103147,-0.00290114,0.00627098,0.0128166,-0.0054031,0.379622,0.0108055,0.0414514,734,722,-8.3723,2.34322
-483,302,-8.01971,-2.36517,0,0,0,0,0,0,0,-1,741,722,-8.0197,2.36515
-476,302,-4.29749,-0.203491,0,0,0,0,0,0,0,-1,748,722,-4.29751,0.203464
-469,302,-12.369,1.42859,0,0,0,0,0,0,0,-1,755,722,-12.3689,-1.42857
-462,302,-11.623,2.56793,0,0,0,0,0,0,0,-1,762,722,-11.623,-2.56794
-455,302,-10.8771,3.70734,0,0,0,0,0,0,0,-1,769,722,-10.8771,-3.70732
-448,302,-11.4836,1.28436,0,0,0,0,0,0,0,-1,776,722,-11.4836,-1.28437
-441,302,-10.6285,1.82928,0,0,0,0,0,0,0,-1,783,722,-10.6285,-1.82929
-434,302,-10.0271,2.41241,0,0,0,0,0,0,0,-1,790,722,-10.0271,-2.41243
-427,302,-13.8761,3.5506,0,0,0,0,0,0,0,-1,797,722,-13.8761,-3.55061
-420,302,0,0,0,0,0,0,0,0,0,-1,804,722,0,0
-413,302,0,0,0,0,0,0,0,0,0,-1,811,722,0,0
-406,302,0,0,0,0,0,0,0,0,0,-1,818,722,0,0
-399,302,0,0,0,0,0,0,0,0,0,-1,825,722,0,0
-392,302,0,0,0,0,0,0,0,0,0,-1,832,722,0,0
-385,302,0,0,0,0,0,0,0,0,0,-1,839,722,0,0
-378,302,0,0,0,0,0,0,0,0,0,-1,846,722,0,0
-371,302,0,0,0,0,0,0,0,0,0,-1,853,722,0,0
-364,302,0,0,0,0,0,0,0,0,0,-1,860,722,0,0
-357,302,0,0,0,0,0,0,0,0,0,-1,867,722,0,0
-350,302,0,0,0,0,0,0,0,0,0,-1,874,722,0,0
-343,302,0,0,0,0,0,0,0,0,0,-1,881,722,0,0
-336,302,0,0,0,0,0,0,0,0,0,-1,888,722,0,0
-329,302,0,0,0,0,0,0,0,0,0,-1,895,722,0,0
-322,302,0,0,0,0,0,0,0,0,0,-1,902,722,0,0
-315,302,0,0,0,0,0,0,0,0,0,-1,909,722,0,0
-308,302,0,0,0,0,0,0,0,0,0,-1,916,722,0,0
-301,302,0,0,0,0,0,0,0,0,0,-1,923,722,0,0
-294,302,0,0,0,0,0,0,0,0,0,-1,930,722,0,0
-287,302,0,0,0,0,0,0,0,0,0,-1,937,722,0,0
-280,302,0,0,0,0,0,0,0,0,0,-1,944,722,0,0
-273,302,0,0,0,0,0,0,0,0,0,-1,951,722,0,0
-266,302,0,0,0,0,0,0,0,0,0,-1,958,722,0,0
-259,302,0,0,0,0,0,0,0,0,0,-1,965,722,0,0
-252,302,0,0,0,0,0,0,0,0,0,-1,972,722,0,0
-245,302,0,0,0,0,0,0,0,0,0,-1,979,722,0,0
-238,302,0,0,0,0,0,0,0,0,0,-1,986,722,0,0
-231,302,0,0,0,0,0,0,0,0,0,-1,993,722,0,0
-224,302,0,0,0,0,0,0,0,0,0,-1,1000,722,0,0
-217,302,0,0,0,0,0,0,0,0,0,-1,1007,722,0,0
-210,302,0,0,0,0,0,0,0,0,0,-1,1014,722,0,0
-203,302,0,0,0,0,0,0,0,0,0,-1,1021,722,0,0
-196,302,0,0,0,0,0,0,0,0,0,-1,1028,722,0,0
-189,302,0,0,0,0,0,0,0,0,0,-1,1035,722,0,0
-182,302,0,0,0,0,0,0,0,0,0,-1,1042,722,0,0
-175,302,0,0,0,0,0,0,0,0,0,-1,1049,722,0,0
-168,302,0,0,0,0,0,0,0,0,0,-1,1056,722,0,0
-161,302,0,0,0,0,0,0,0,0,0,-1,1063,722,0,0
-154,302,0,0,0,0,0,0,0,0,0,-1,1070,722,0,0
-147,302,0,0,0,0,0,0,0,0,0,-1,1077,722,0,0
-140,302,0,0,0,0,0,0,0,0,0,-1,1084,722,0,0
-133,302,0,0,0,0,0,0,0,0,0,-1,1091,722,0,0
-126,302,0,0,0,0,0,0,0,0,0,-1,1098,722,0,0
-119,302,0,0,0,0,0,0,0,0,0,-1,1105,722,0,0
-112,302,0,0,0,0,0,0,0,0,0,-1,1112,722,0,0
-105,302,0,0,0,0,0,0,0,0,0,-1,1119,722,0,0
-98,302,0,0,0,0,0,0,0,0,0,-1,1126,722,0,0
-91,302,0,0,0,0,0,0,0,0,0,-1,1133,722,0,0
-84,302,0,0,0,0,0,0,0,0,0,-1,1140,722,0,0
-77,302,0,0,0,0,0,0,0,0,0,-1,1147,722,0,0
-70,302,0,0,0,0,0,0,0,0,0,-1,1154,722,0,0
-63,302,0,0,0,0,0,0,0,0,0,-1,1161,722,0,0
-56,302,0,0,0,0,0,0,0,0,0,-1,1168,722,0,0
-49,302,0,0,0,0,0,0,0,0,0,-1,1175,722,0,0
-42,302,0,0,0,0,0,0,0,0,0,-1,1182,722,0,0
-35,302,0,0,0,0,0,0,0,0,0,-1,1189,722,0,0
-28,302,0,0,0,0,0,0,0,0,0,-1,1196,722,0,0
-21,302,0,0,0,0,0,0,0,0,0,-1,1203,722,0,0
-14,302,0,0,0,0,0,0,0,0,0,-1,1210,722,0,0
-7,302,0,0,0,0,0,0,0,0,0,-1,1217,722,0,0
0,302,0,0,0,0,0,0,0,0,0,-1,1224,722,0,0
7,302,0,0,0,0,0,0,0,0,0,-1,1231,722,0,0
14,302,0,0,0,0,0,0,0,0,0,-1,1238,722,0,0
21,302,0,0,0,0,0,0,0,0,0,-1,1245,722,0,0
28,302,0,0,0,0,0,0,0,0,0,-1,1252,722,0,0
35,302,0,0,0,0,0,0,0,0,0,-1,1259,722,0,0
42,302,0,0,0,0,0,0,0,0,0,-1,1266,722,0,0
49,302,0,0,0,0,0,0,0,0,0,-1,1273,722,0,0
56,302,0,0,0,0,0,0,0,0,0,-1,1280,722,0,0
63,302,0,0,0,0,0,0,0,0,0,-1,1287,722,0,0
70,302,0,0,0,0,0,0,0,0,0,-1,1294,722,0,0
77,302,0,0,0,0,0,0,0,0,0,-1,1301,722,0,0
84,302,0,0,0,0,0,0,0,0,0,-1,1308,722,0,0
91,302,0,0,0,0,0,0,0,0,0,-1,1315,722,0,0
98,302,0,0,0,0,0,0,0,0,0,-1,1322,722,0,0
105,302,0,0,0,0,0,0,0,0,0,-1,1329,722,0,0
112,302,0,0,0,0,0,0,0,0,0,-1,1336,722,0,0
119,302,0,0,0,0,0,0,0,0,0,-1,1343,722,0,0
126,302,0,0,0,0,0,0,0,0,0,-1,1350,722,0,0
133,302,0,0,0,0,0,0,0,0,0,-1,1357,722,0,0
140,302,0,0,0,0,0,0,0,0,0,-1,1364,722,0,0
147,302,0,0,0,0,0,0,0,0,0,-1,1371,722,0,0
154,302,0,0,0,0,0,0,0,0,0,-1,1378,722,0,0
161,302,0,0,0,0,0,0,0,0,0,-1,1385,722,0,0
168,302,0,0,0,0,0,0,0,0,0,-1,1392,722,0,0
175,302,0,0,0,0,0,0,0,0,0,-1,1399,722,0,0
182,302,0,0,0,0,0,0,0,0,0,-1,1406,722,0,0
189,302,0,0,0,0,0,0,0,0,0,-1,1413,722,0,0
196,302,0,0,0,0,0,0,0,0,0,-1,1420,722,0,0
203,302,0,0,0,0,0,0,0,0,0,-1,1427,722,0,0
210,302,0,0,0,0,0,0,0,0,0,-1,1434,722,0,0
217,302,0,0,0,0,0,0,0,0,0,-1,1441,722,0,0
224,302,0,0,0,0,0,0,0,0,0,-1,1448,722,0,0
231,302,0,0,0,0,0,0,0,0,0,-1,1455,722,0,0
238,302,0,0,0,0,0,0,0,0,0,-1,1462,722,0,0
245,302,0,0,0,0,0,0,0,0,0,-1,1469,722,0,0
252,302,0,0,0,0,0,0,0,0,0,-1,1476,722,0,0
259,302,0,0,0,0,0,0,0,0,0,-1,1483,722,0,0
266,302,0,0,0,0,0,0,0,0,0,-1,1490,722,0,0
273,302,0,0,0,0,0,0,0,0,0,-1,1497,722,0,0
280,302,0,0,0,0,0,0,0,0,0,-1,1504,722,0,0
287,302,0,0,0,0,0,0,0,0,0,-1,1511,722,0,0
294,302,0,0,0,0,0,0,0,0,0,-1,1518,722,0,0
301,302,0,0,0,0,0,0,0,0,0,-1,1525,722,0,0
308,302,0,0,0,0,0,0,0,0,0,-1,1532,722,0,0
315,302,0,0,0,0,0,0,0,0,0,-1,1539,722,0,0
322,302,0,0,0,0,0,0,0,0,0,-1,1546,722,0,0
329,302,0,0,0,0,0,0,0,0,0,-1,1553,722,0,0
336,302,0,0,0,0,0,0,0,0,0,-1,1560,722,0,0
343,302,0,0,0,0,0,0,0,0,0,-1,1567,722,0,0
350,302,0,0,0,0,0,0,0,0,0,-1,1574,722,0,0
357,302,0,0,0,0,0,0,0,0,0,-1,1581,722,0,0
364,302,0,0,0,0,0,0,0,0,0,-1,1588,722,0,0
371,302,0,0,0,0,0,0,0,0,0,-1,1595,722,0,0
378,302,0,0,0,0,0,0,0,0,0,-1,1602,722,0,0
385,302,0,0,0,0,0,0,0,0,0,-1,1609,722,0,0
392,302,0,0,0,0,0,0,0,0,0,-1,1616,722,0,0
399,302,0,0,0,0,0,0,0,0,0,-1,1623,722,0,0
406,302,0,0,0,0,0,0,0,0,0,-1,1630,722,0,0
413,302,0,0,0,0,0,0,0,0,0,-1,1637,722,0,0
420,302,0,0,0,0,0,0,0,0,0,-1,1644,722,0,0
427,302,0,0,0,0,0,0,0,0,0,-1,1651,722,0,0
434,302,0,0,0,0,0,0,0,0,0,-1,1658,722,0,0
441,302,0,0,0,0,0,0,0,0,0,-1,1665,722,0,0
448,302,0,0,0,0,0,0,0,0,0,-1,1672,722,0,0
455,302,0,0,0,0,0,0,0,0,0,-1,1679,722,0,0
462,302,0,0,0,0,0,0,0,0,0,-1,1686,722,0,0
469,302,0,0,0,0,0,0,0,0,0,-1,1693,722,0,0
476,302,0,0,0,0,0,0,0,0,0,-1,1700,722,0,0
483,302,0,0,0,0,0,0,0,0,0,-1,1707,722,0,0
490,302,0,0,0,0,0,0,0,0,0,-1,1714,722,0,0
497,302,0,0,0,0,0,0,0,0,0,-1,1721,722,0,0
504,302,0,0,0,0,0,0,0,0,0,-1,1728,722,0,0
511,302,0,0,0,0,0,0,0,0,0,-1,1735,722,0,0
518,302,0,0,0,0,0,0,0,0,0,-1,1742,722,0,0
525,302,0,0,0,0,0,0,0,0,0,-1,1749,722,0,0
532,302,0,0,0,0,0,0,0,0,0,-1,1756,722,0,0
539,302,0,0,0,0,0,0,0,0,0,-1,1763,722,0,0
546,302,23.9432,3.1958,0,0,0,0,0,0,0,-1,1770,722,23.9433,-3.19579
553,302,23.6431,3.60022,-0.0851484,0.0484917,0.0104439,0.0493029,-0.0859597,1.49327,0.079044,0.0452093,1777,722,23.643,-3.60024
560,302,23.3378,3.75635,-0.0677912,0.041196,0.00635252,0.041565,-0.0681603,1.51277,0.0639672,0.0465968,1784,722,23.3377,-3.75634
567,302,22.287,3.9151,-0.0526429,0.0339527,0.00364504,0.0341059,-0.0527961,1.5288,0.0505582,0.0456233,1791,722,22.287,-3.9151
574,302,22.2272,4.58643,0,0,0,0,0,0,0,-1,1798,722,22.2272,-4.58644
581,302,23.3127,2.31232,0,0,0,0,0,0,0,-1,1805,722,23.3128,-2.31234
588,302,23.9078,3.19592,0,0,0,0,0,0,0,-1,1812,722,23.9079,-3.19592
595,302,24.4933,4.84674,0,0,0,0,0,0,0,-1,1819,722,24.4933,-4.84673
602,302,14.7349,5.21246,0,0,0,0,0,0,0,-1,1826,722,14.7349,-5.21247
609,302,11.1578,-0.125854,0,0,0,0,0,0,0,-1,1833,722,11.1579,0.125839
616,302,14.752,-0.592834,0,0,0,0,0,0,0,-1,1840,722,14.752,0.592828
623,302,14.8024,-0.298889,0.0102638,-0.000670583,-0.00166263,0.0105111,-0.000917805,-0.147611,0.00733248,0.014599,1847,722,14.8024,0.298877
630,302,14.7947,-0.0117188,0.0075573,-0.00126816,-0.00117186,0.00771025,-0.00142111,-0.129786,0.00567351,0.0110458,1854,722,14.7947,0.0117269
637,302,14.7771,0.269897,0.00449018,-0.00144466,-0.000623087,0.00455489,-0.00150937,-0.103485,0.00364541,0.0137893,1861,722,14.7771,-0.269873
644,302,14.774,0.558533,0.00191757,-0.00120625,-0.000418281,0.00197261,-0.00126129,-0.13083,0.00188209,0.0146797,1868,722,14.774,-0.558509
651,302,14.7813,0.866089,0.00037508,-0.000718282,-0.00035375,0.000479551,-0.000822753,-0.287162,0.000760539,0.0139742,1875,722,14.7812,-0.866093
658,302,14.816,1.13538,-0.000690048,0.000117931,-0.000362064,0.000256434,-0.000828551,-1.20543,0.000654803,0.0143895,1882,722,14.8161,-1.13535
665,302,14.792,1.42444,-0.00144445,0.000981256,-0.000506492,0.00108276,-0.00154596,-1.373,0.00152553,0.0137509,1889,722,14.792,-1.42446
672,302,14.7733,1.71313,-0.00159487,0.0017653,-0.000571986,0.00186,-0.00168957,-1.40673,0.00205013,0.0106494,1896,722,14.7734,-1.71312
679,302,14.7793,2.00763,-0.00153379,0.00270852,-0.000516321,0.00277045,-0.00159572,-1.45141,0.00255104,0.00851211,1903,722,14.7793,-2.00764
686,302,14.7988,2.28595,-0.00107663,0.00380625,-0.000417201,0.00384164,-0.00111202,-1.48617,0.00300124,0.0130462,1910,722,14.7988,-2.28593
693,302,14.5927,2.50079,0.000126776,0.00521492,-0.000145246,0.00521906,0.000122633,-1.54228,0.00343922,0.0305839,1917,722,14.5927,-2.50079
700,302,14.5116,2.64545,0,0,0,0,0,0,0,-1,1924,722,14.5116,-2.64544
707,302,15.0619,3.5365,0,0,0,0,0,0,0,-1,1931,722,15.0619,-3.53651
714,302,15.9742,4.26898,0,0,0,0,0,0,0,-1,1938,722,15.9743,-4.269
721,302,16.6334,4.65686,0,0,0,0,0,0,0,-1,1945,722,16.6334,-4.65688
728,302,17.2798,4.81702,0,0,0,0,0,0,0,-1,1952,722,17.2798,-4.81703
735,302,0,0,0,0,0,0,0,0,0,-1,1959,722,0,0
742,302,0,0,0,0,0,0,0,0,0,-1,1966,722,0,0
749,302,0,0,0,0,0,0,0,0,0,-1,1973,722,0,0
756,302,0,0,0,0,0,0,0,0,0,-1,1980,722,0,0
763,302,0,0,0,0,0,0,0,0,0,-1,1987,722,0,0
770,302,0,0,0,0,0,0,0,0,0,-1,1994,722,0,0
777,302,0,0,0,0,0,0,0,0,0,-1,2001,722,0,0
784,302,0,0,0,0,0,0,0,0,0,-1,2008,722,0,0
791,302,0,0,0,0,0,0,0,0,0,-1,2015,722,0,0
798,302,0,0,0,0,0,0,0,0,0,-1,2022,722,0,0
805,302,0,0,0,0,0,0,0,0,0,-1,2029,722,0,0
812,302,0,0,0,0,0,0,0,0,0,-1,2036,722,0,0
-700,295,0,0,0,0,0,0,0,0,0,-1,524,729,0,0
-693,295,0,0,0,0,0,0,0,0,0,-1,531,729,0,0
-686,295,0,0,0,0,0,0,0,0,0,-1,538,729,0,0
-679,295,0,0,0,0,0,0,0,0,0,-1,545,729,0,0
-672,295,0,0,0,0,0,0,0,0,0,-1,552,729,0,0
-665,295,0,0,0,0,0,0,0,0,0,-1,559,729,0,0
-658,295,0,0,0,0,0,0,0,0,0,-1,566,729,0,0
-651,295,0,0,0,0,0,0,0,0,0,-1,573,729,0,0
-644,295,0,0,0,0,0,0,0,0,0,-1,580,729,0,0
-637,295,0,0,0,0,0,0,0,0,0,-1,587,729,0,0
-630,295,0,0,0,0,0,0,0,0,0,-1,594,729,0,0
-623,295,0,0,0,0,0,0,0,0,0,-1,601,729,0,0
-616,295,-13.4911,1.31738,0,0,0,0,0,0,0,-1,608,729,-13.4911,-1.3174
-609,295,-10.2864,0.832031,0,0,0,0,0,0,0,-1,615,729,-10.2863,-0.832034
-602,295,-8.19006,3.01587,0,0,0,0,0,0,0,-1,622,729,-8.19005,-3.01588
-595,295,-0.615479,-1.95447,0,0,0,0,0,0,0,-1,629,729,-0.615481,1.95445
-588,295,-7.98999,1.56903,0,0,0,0,0,0,0,-1,636,729,-7.98997,-1.56905
-581,295,-9.13483,0.625183,0,0,0,0,0,0,0,-1,643,729,-9.13481,-0.625181
-574,295,-8.67273,0.511597,0,0,0,0,0,0,0,-1,650,729,-8.67274,-0.511594
-567,295,-8.14954,0.247986,0,0,0,0,0,0,0,-1,657,729,-8.14954,-0.247975
-560,295,-8.67853,0.217041,-0.000372208,0.00260703,-0.00116594,0.00300908,-0.000774251,-1.23874,0.00230784,0.0248822,664,729,-8.67851,-0.217039
-553,295,-8.66357,-0.0341187,-0.00316581,0.00332297,0.000367699,0.00334374,-0.00318658,1.51437,0.00377065,0.0176596,671,729,-8.66355,0.034138
-546,295,-8.73175,-0.27301,-0.00398451,0.00310694,0.00125785,0.00332345,-0.00420101,1.40035,0.00435408,0.0211458,678,729,-8.73178,0.273022
-539,295,-8.74091,-0.512024,-0.00303136,0.00212241,0.00110924,0.00235101,-0.00325997,1.36755,0.00325364,0.0188877,685,729,-8.74093,0.512029
-532,295,-8.75159,-0.776123,-0.00212027,0.00104726,0.0011272,0.00140743,-0.00248044,1.26152,0.00227298,0.0159359,692,729,-8.75161,0.776146
-525,295,-8.742,-1.05231,-0.00101538,0.000326455,0.0013793,0.00118935,-0.00187827,1.01176,0.00178592,0.0143949,699,729,-8.742,1.05233
-518,295,-8.74695,-1.30951,0.000522009,-0.000418633,0.00203014,0.0021356,-0.00203222,0.671572,0.00240654,0.0103289,706,729,-8.74696,1.30953
-511,295,-8.74414,-1.57611,0.00226305,-0.00108369,0.00291667,0.00395229,-0.00277293,0.524959,0.00390266,0.00863453,713,729,-8.74412,1.57614
-504,295,-8.75641,-1.8667,0.00451396,-0.00144991,0.0042541,0.00672715,-0.0036631,0.479714,0.00608514,0.0104648,720,729,-8.7564,1.86669
-497,295,-8.76575,-2.10956,0.00740047,-0.00166834,0.00618281,0.0105334,-0.00480126,0.469006,0.0090573,0.0164025,727,729,-8.76575,2.10954
-490,295,-8.77759,-2.32983,0,0,0,0,0,0,0,-1,734,729,-8.77758,2.32982
-483,295,-6.84503,-0.454651,0,0,0,0,0,0,0,-1,741,729,-6.84505,0.454639
-476,295,-13.1738,-0.836243,0,0,0,0,0,0,0,-1,748,729,-13.1738,0.836223
-469,295,-12.9013,1.63989,0,0,0,0,0,0,0,-1,755,729,-12.9013,-1.63986
-462,295,-12.6668,2.51343,0,0,0,0,0,0,0,-1,762,729,-12.6668,-2.51343
-455,295,-12.3074,3.88104,0,0,0,0,0,0,0,-1,769,729,-12.3074,-3.88104
-448,295,-12.0941,3.25238,0,0,0,0,0,0,0,-1,776,729,-12.0941,-3.25236
-441,295,-11.0433,1.04706,0,0,0,0,0,0,0,-1,783,729,-11.0434,-1.04704
-434,295,-9.90332,1.16724,0,0,0,0,0,0,0,-1,790,729,-9.90334,-1.16725
-427,295,0,0,0,0,0,0,0,0,0,-1,797,729,0,0
-420,295,0,0,0,0,0,0,0,0,0,-1,804,729,0,0
-413,295,0,0,0,0,0,0,0,0,0,-1,811,729,0,0
-406,295,0,0,0,0,0,0,0,0,0,-1,818,729,0,0
-399,295,0,0,0,0,0,0,0,0,0,-1,825,729,0,0
-392,295,0,0,0,0,0,0,0,0,0,-1,832,729,0,0
-385,295,0,0,0,0,0,0,0,0,0,-1,839,729,0,0
-378,295,0,0,0,0,0,0,0,0,0,-1,846,729,0,0
-371,295,0,0,0,0,0,0,0,0,0,-1,853,729,0,0
-364,295,0,0,0,0,0,0,0,0,0,-1,860,729,0,0
-357,295,0,0,0,0,0,0,0,0,0,-1,867,729,0,0
-350,295,0,0,0,0,0,0,0,0,0,-1,874,729,0,0
-343,295,0,0,0,0,0,0,0,0,0,-1,881,729,0,0
-336,295,0,0,0,0,0,0,0,0,0,-1,888,729,0,0
-329,295,0,0,0,0,0,0,0,0,0,-1,895,729,0,0
-322,295,0,0,0,0,0,0,0,0,0,-1,902,729,0,0
-315,295,0,0,0,0,0,0,0,0,0,-1,909,729,0,0
-308,295,0,0,0,0,0,0,0,0,0,-1,916,729,0,0
-301,295,0,0,0,0,0,0,0,0,0,-1,923,729,0,0
-294,295,0,0,0,0,0,0,0,0,0,-1,930,729,0,0
-287,295,0,0,0,0,0,0,0,0,0,-1,937,729,0,0
-280,295,0,0,0,0,0,0,0,0,0,-1,944,729,0,0
-273,295,0,0,0,0,0,0,0,0,0,-1,951,729,0,0
-266,295,0,0,0,0,0,0,0,0,0,-1,958,729,0,0
-259,295,0,0,0,0,0,0,0,0,0,-1,965,729,0,0
-252,295,0,0,0,0,0,0,0,0,0,-1,972,729,0,0
-245,295,0,0,0,0,0,0,0,0,0,-1,979,729,0,0
-238,295,0,0,0,0,0,0,0,0,0,-1,986,729,0,0
-231,295,0,0,0,0,0,0,0,0,0,-1,993,729,0,0
-224,295,0,0,0,0,0,0,0,0,0,-1,1000,729,0,0
-217,295,0,0,0,0,0,0,0,0,0,-1,1007,729,0,0
-210,295,0,0,0,0,0,0,0,0,0,-1,1014,729,0,0
-203,295,0,0,0,0,0,0,0,0,0,-1,1021,729,0,0
-196,295,0,0,0,0,0,0,0,0,0,-1,1028,729,0,0
-189,295,0,0,0,0,0,0,0,0,0,-1,1035,729,0,0
-182,295,0,0,0,0,0,0,0,0,0,-1,1042,729,0,0
-175,295,0,0,0,0,0,0,0,0,0,-1,1049,729,0,0
-168,295,0,0,0,0,0,0,0,0,0,-1,1056,729,0,0
-161,295,0,0,0,0,0,0,0,0,0,-1,1063,729,0,0
-154,295,0,0,0,0,0,0,0,0,0,-1,1070,729,0,0
-147,295,0,0,0,0,0,0,0,0,0,-1,1077,729,0,0
-140,295,0,0,0,0,0,0,0,0,0,-1,1084,729,0,0
-133,295,0,0,0,0,0,0,0,0,0,-1,1091,729,0,0
-126,295,0,0,0,0,0,0,0,0,0,-1,1098,729,0,0
-119,295,0,0,0,0,0,0,0,0,0,-1,1105,729,0,0
-112,295,0,0,0,0,0,0,0,0,0,-1,1112,729,0,0
-105,295,0,0,0,0,0,0,0,0,0,-1,1119,729,0,0
-98,295,0,0,0,0,0,0,0,0,0,-1,1126,729,0,0
-91,295,0,0,0,0,0,0,0,0,0,-1,1133,729,0,0
-84,295,0,0,0,0,0,0,0,0,0,-1,1140,729,0,0
-77,295,0,0,0,0,0,0,0,0,0,-1,1147,729,0,0
-70,295,0,0,0,0,0,0,0,0,0,-1,1154,729,0,0
-63,295,0,0,0,0,0,0,0,0,0,-1,1161,729,0,0
-56,295,0,0,0,0,0,0,0,0,0,-1,1168,729,0,0
-49,295,0,0,0,0,0,0,0,0,0,-1,1175,729,0,0
-42,295,0,0,0,0,0,0,0,0,0,-1,1182,729,0,0
-35,295,0,0,0,0,0,0,0,0,0,-1,1189,729,0,0
-28,295,0,0,0,0,0,0,0,0,0,-1,1196,729,0,0
-21,295,0,0,0,0,0,0,0,0,0,-1,1203,729,0,0
-14,295,0,0,0,0,0,0,0,0,0,-1,1210,729,0,0
-7,295,0,0,0,0,0,0,0,0,0,-1,1217,729,0,0
0,295,0,0,0,0,0,0,0,0,0,-1,1224,729,0,0
7,295,0,0,0,0,0,0,0,0,0,-1,1231,729,0,0
14,295,0,0,0,0,0,0,0,0,0,-1,1238,729,0,0
21,295,0,0,0,0,0,0,0,0,0,-1,1245,729,0,0
28,295,0,0,0,0,0,0,0,0,0,-1,1252,729,0,0
35,295,0,0,0,0,0,0,0,0,0,-1,1259,729,0,0
42,295,0,0,0,0,0,0,0,0,0,-1,1266,729,0,0
49,295,0,0,0,0,0,0,0,0,0,-1,1273,729,0,0
56,295,0,0,0,0,0,0,0,0,0,-1,1280,729,0,0
63,295,0,0,0,0,0,0,0,0,0,-1,1287,729,0,0
70,295,0,0,0,0,0,0,0,0,0,-1,1294,729,0,0
77,295,0,0,0,0,0,0,0,0,0,-1,1301,729,0,0
84,295,0,0,0,0,0,0,0,0,0,-1,1308,729,0,0
91,295,0,0,0,0,0,0,0,0,0,-1,1315,729,0,0
98,295,0,0,0,0,0,0,0,0,0,-1,1322,729,0,0
105,295,0,0,0,0,0,0,0,0,0,-1,1329,729,0,0
112,295,0,0,0,0,0,0,0,0,0,-1,1336,729,0,0
119,295,0,0,0,0,0,0,0,0,0,-1,1343,729,0,0
126,295,0,0,0,0,0,0,0,0,0,-1,1350,729,0,0
133,295,0,0,0,0,0,0,0,0,0,-1,1357,729,0,0
140,295,0,0,0,0,0,0,0,0,0,-1,1364,729,0,0
147,295,0,0,0,0,0,0,0,0,0,-1,1371,729,0,0
154,295,0,0,0,0,0,0,0,0,0,-1,1378,729,0,0
161,295,0,0,0,0,0,0,0,0,0,-1,1385,729,0,0
168,295,0,0,0,0,0,0,0,0,0,-1,1392,729,0,0
175,295,0,0,0,0,0,0,0,0,0,-1,1399,729,0,0
182,295,0,0,0,0,0,0,0,0,0,-1,1406,729,0,0
189,295,0,0,0,0,0,0,0,0,0,-1,1413,729,0,0
196,295,0,0,0,0,0,0,0,0,0,-1,1420,729,0,0
203,295,0,0,0,0,0,0,0,0,0,-1,1427,729,0,0
210,295,0,0,0,0,0,0,0,0,0,-1,1434,729,0,0
217,295,0,0,0,0,0,0,0,0,0,-1,1441,729,0,0
224,295,0,0,0,0,0,0,0,0,0,-1,1448,729,0,0
231,295,0,0,0,0,0,0,0,0,0,-1,1455,729,0,0
238,295,0,0,0,0,0,0,0,0,0,-1,1462,729,0,0
245,295,0,0,0,0,0,0,0,0,0,-1,1469,729,0,0
252,295,0,0,0,0,0,0,0,0,0,-1,1476,729,0,0
259,295,0,0,0,0,0,0,0,0,0,-1,1483,729,0,0
266,295,0,0,0,0,0,0,0,0,0,-1,1490,729,0,0
273,295,0,0,0,0,0,0,0,0,0,-1,1497,729,0,0
280,295,0,0,0,0,0,0,0,0,0,-1,1504,729,0,0
287,295,0,0,0,0,0,0,0,0,0,-1,1511,729,0,0
294,295,0,0,0,0,0,0,0,0,0,-1,1518,729,0,0
301,295,0,0,0,0,0,0,0,0,0,-1,1525,729,0,0
308,295,0,0,0,0,0,0,0,0,0,-1,1532,729,0,0
315,295,0,0,0,0,0,0,0,0,0,-1,1539,729,0,0
322,295,0,0,0,0,0,0,0,0,0,-1,1546,729,0,0
329,295,0,0,0,0,0,0,0,0,0,-1,1553,729,0,0
336,295,0,0,0,0,0,0,0,0,0,-1,1560,729,0,0
343,295,0,0,0,0,0,0,0,0,0,-1,1567,729,0,0
350,295,0,0,0,0,0,0,0,0,0,-1,1574,729,0,0
357,295,0,0,0,0,0,0,0,0,0,-1,1581,729,0,0
364,295,0,0,0,0,0,0,0,0,0,-1,1588,729,0,0
371,295,0,0,0,0,0,0,0,0,0,-1,1595,729,0,0
378,295,0,0,0,0,0,0,0,0,0,-1,1602,729,0,0
385,295,0,0,0,0,0,0,0,0,0,-1,1609,729,0,0
392,295,0,0,0,0,0,0,0,0,0,-1,1616,729,0,0
399,295,0,0,0,0,0,0,0,0,0,-1,1623,729,0,0
406,295,0,0,0,0,0,0,0,0,0,-1,1630,729,0,0
413,295,0,0,0,0,0,0,0,0,0,-1,1637,729,0,0
420,295,0,0,0,0,0,0,0,0,0,-1,1644,729,0,0
427,295,0,0,0,0,0,0,0,0,0,-1,1651,729,0,0
434,295,0,0,0,0,0,0,0,0,0,-1,1658,729,0,0
441,295,0,0,0,0,0,0,0,0,0,-1,1665,729,0,0
448,295,0,0,0,0,0,0,0,0,0,-1,1672,729,0,0
455,295,0,0,0,0,0,0,0,0,0,-1,1679,729,0,0
462,295,0,0,0,0,0,0,0,0,0,-1,1686,729,0,0
469,295,0,0,0,0,0,0,0,0,0,-1,1693,729,0,0
476,295,0,0,0,0,0,0,0,0,0,-1,1700,729,0,0
483,295,0,0,0,0,0,0,0,0,0,-1,1707,729,0,0
490,295,0,0,0,0,0,0,0,0,0,-1,1714,729,0,0
497,295,0,0,0,0,0,0,0,0,0,-1,1721,729,0,0
504,295,0,0,0,0,0,0,0,0,0,-1,1728,729,0,0
511,295,0,0,0,0,0,0,0,0,0,-1,1735,729,0,0
518,295,0,0,0,0,0,0,0,0,0,-1,1742,729,0,0
525,295,0,0,0,0,0,0,0,0,0,-1,1749,729,0,0
532,295,0,0,0,0,0,0,0,0,0,-1,1756,729,0,0
539,295,0,0,0,0,0,0,0,0,0,-1,1763,729,0,0
546,295,23.7863,2.93604,0,0,0,0,0,0,0,-1,1770,729,23.7863,-2.93602
553,295,23.6611,3.15771,-0.0776341,0.0456235,0.00907508,0.046288,-0.0782987,1.49769,0.0727173,0.0440177,1777,729,23.6611,-3.1577
560,295,23.3792,3.3609,-0.0610376,0.0400926,0.00459118,0.0403006,-0.0612456,1.52552,0.059042,0.0443535,1784,729,23.3791,-3.36092
567,295,22.7271,3.65295,-0.0468007,0.0334109,0.00208428,0.033465,-0.0468548,1.54483,0.0465869,0.045074,1791,729,22.727,-3.65298
574,295,22.5293,4.08533,0,0,0,0,0,0,0,-1,1798,729,22.5292,-4.0853
581,295,22.8427,2.10187,0,0,0,0,0,0,0,-1,1805,729,22.8427,-2.10189
588,295,23.5746,3.68939,0,0,0,0,0,0,0,-1,1812,729,23.5746,-3.68938
595,295,24.2026,3.16528,0,0,0,0,0,0,0,-1,1819,729,24.2026,-3.16531
602,295,24.8396,3.80621,0,0,0,0,0,0,0,-1,1826,729,24.8396,-3.80622
609,295,11.7737,2.19989,0,0,0,0,0,0,0,-1,1833,729,11.7736,-2.19988
616,295,15.1034,-0.530823,0,0,0,0,0,0,0,-1,1840,729,15.1034,0.530796
623,295,15.0786,-0.266541,0.0120759,-0.00111868,-0.0011013,0.0121672,-0.00120997,-0.0827033,0.0085434,0.032919,1847,729,15.0787,0.26652
630,295,15.0674,0.00946045,0.00932999,-0.00187634,-0.000610697,0.00936318,-0.00190952,-0.0542814,0.00696641,0.0122365,1854,729,15.0674,-0.00943987
637,295,15.0582,0.292725,0.00604682,-0.00213734,-5.48543e-05,0.00604719,-0.00213771,-0.00670209,0.00490195,0.0131294,1861,729,15.0582,-0.29275
644,295,15.071,0.580444,0.00313605,-0.00190478,0.000101963,0.00313811,-0.00190685,0.0202164,0.00294148,0.0125331,1868,729,15.071,-0.580464
651,295,15.1049,0.877075,0.00139205,-0.00130221,0.000104919,0.00139613,-0.00130629,0.0388634,0.00156053,0.0127143,1875,729,15.1049,-0.877098
658,295,15.087,1.16504,0.00020979,-0.000321736,1.13279e-05,0.000210031,-0.000321978,0.021299,0.000309414,0.0119927,1882,729,15.0871,-1.16503
665,295,15.0608,1.42938,-0.00053243,0.000689415,-0.00022312,0.000728884,-0.000571899,-1.39571,0.000752828,0.0112031,1889,729,15.0607,-1.42937
672,295,15.0487,1.69885,-0.000492632,0.00148527,-0.000336819,0.00154105,-0.000548416,-1.40667,0.00125091,0.0116317,1896,729,15.0487,-1.69885
679,295,15.0494,2.00067,-0.000194309,0.00236486,-0.000259234,0.00239086,-0.000220305,-1.47085,0.00167219,0.00877048,1903,729,15.0494,-2.00067
686,295,15.0715,2.28247,0.000490658,0.00337314,-9.94406e-05,0.00337657,0.000487232,-1.53635,0.00210749,0.00898955,1910,729,15.0715,-2.28248
693,295,15.0463,2.53174,0.0018204,0.00469046,0.000178467,0.00470152,0.00180935,1.50893,0.00273831,0.024902,1917,729,15.0463,-2.53173
700,295,15.0262,2.95319,0.00423477,0.00624063,0.000745201,0.00648718,0.00398822,1.25129,0.00377813,0.0398651,1924,729,15.0263,-2.95322
707,295,15.377,3.37701,0.00810269,0.00815554,0.00169406,0.00982338,0.00643485,0.793197,0.00576172,0.0461152,1931,729,15.377,-3.377
714,295,15.8969,3.62994,0,0,0,0,0,0,0,-1,1938,729,15.8969,-3.62995
721,295,16.7319,3.56104,0,0,0,0,0,0,0,-1,1945,729,16.732,-3.56103
728,295,17.379,3.74866,0,0,0,0,0,0,0,-1,1952,729,17.379,-3.74863
735,295,0,0,0,0,0,0,0,0,0,-1,1959,729,0,0
742,295,0,0,0,0,0,0,0,0,0,-1,1966,729,0,0
749,295,0,0,0,0,0,0,0,0,0,-1,1973,729,0,0
756,295,0,0,0,0,0,0,0,0,0,-1,1980,729,0,0
763,295,0,0,0,0,0,0,0,0,0,-1,1987,729,0,0
770,295,0,0,0,0,0,0,0,0,0,-1,1994,729,0,0
777,295,0,0,0,0,0,0,0,0,0,-1,2001,729,0,0
784,295,0,0,0,0,0,0,0,0,0,-1,2008,729,0,0
791,295,0,0,0,0,0,0,0,0,0,-1,2015,729,0,0
798,295,0,0,0,0,0,0,0,0,0,-1,2022,729,0,0
805,295,0,0,0,0,0,0,0,0,0,-1,2029,729,0,0
812,295,0,0,0,0,0,0,0,0,0,-1,2036,729,0,0
-700,288,0,0,0,0,0,0,0,0,0,-1,524,736,0,0
-693,288,0,0,0,0,0,0,0,0,0,-1,531,736,0,0
-686,288,0,0,0,0,0,0,0,0,0,-1,538,736,0,0
-679,288,0,0,0,0,0,0,0,0,0,-1,545,736,0,0
-672,288,0,0,0,0,0,0,0,0,0,-1,552,736,0,0
-665,288,0,0,0,0,0,0,0,0,0,-1,559,736,0,0
-658,288,0,0,0,0,0,0,0,0,0,-1,566,736,0,0
-651,288,0,0,0,0,0,0,0,0,0,-1,573,736,0,0
-644,288,0,0,0,0,0,0,0,0,0,-1,580,736,0,0
-637,288,0,0,0,0,0,0,0,0,0,-1,587,736,0,0
-630,288,0,0,0,0,0,0,0,0,0,-1,594,736,0,0
-623,288,0,0,0,0,0,0,0,0,0,-1,601,736,0,0
-616,288,-10.3702,1.7489,0,0,0,0,0,0,0,-1,608,736,-10.3702,-1.74891
-609,288,-10.1742,1.21307,0,0,0,0,0,0,0,-1,615,736,-10.1742,-1.21305
-602,288,-9.73364,0.596985,0,0,0,0,0,0,0,-1,622,736,-9.73363,-0.596981
-595,288,-7.63208,1.81769,0,0,0,0,0,0,0,-1,629,736,-7.63205,-1.81766
-588,288,-8.19269,1.50598,0,0,0,0,0,0,0,-1,636,736,-8.19268,-1.50601
-581,288,-9.17255,0.818909,0,0,0,0,0,0,0,-1,643,736,-9.17253,-0.818896
-574,288,-8.92621,0.674072,0.0111586,-9.44659e-05,-0.00304284,0.0119287,-0.000864552,-0.247877,0.00825576,0.0435808,650,736,-8.9262,-0.674052
-567,288,-8.87189,0.44458,0.00590543,-0.000431048,-0.00183696,0.00639945,-0.000925069,-0.262718,0.00460573,0.0274087,657,736,-8.87188,-0.444609
-560,288,-8.98547,0.199646,0.00169738,-0.00100814,5.39577e-05,0.00169846,-0.00100921,0.019933,0.00158007,0.0135394,664,736,-8.98547,-0.199624
-553,288,-8.94354,-0.00561523,-0.00147141,0.000137982,0.00126637,0.000833697,-0.00216713,1.06843,0.00178863,0.0194312,671,736,-8.94353,0.00561506
-546,288,-8.97424,-0.242981,-0.00265289,0.000440366,0.00213319,0.00152861,-0.00374113,1.09906,0.0031306,0.021118,678,736,-8.97422,0.243009
-539,288,-8.99561,-0.521057,-0.00215869,-4.87649e-05,0.00196282,0.00112464,-0.00333209,1.03199,0.00267624,0.016769,685,736,-8.99562,0.521069
-532,288,-8.9704,-0.795898,-0.00170943,-0.000713339,0.00197372,0.000824202,-0.00324697,0.908987,0.00248536,0.0126895,692,736,-8.97038,0.795875
-525,288,-8.98267,-1.06458,-0.00091572,-0.000985256,0.00229972,0.00134949,-0.00325047,0.77784,0.00273034,0.0119512,699,736,-8.98266,1.06458
-518,288,-9.00323,-1.32556,0.000444996,-0.00122296,0.00311146,0.00283231,-0.00361027,0.654458,0.00372865,0.0108633,706,736,-9.00322,1.32553
-511,288,-9.00922,-1.59454,0.0020714,-0.00139428,0.00418694,0.00486992,-0.0041928,0.589196,0.00523723,0.00849541,713,736,-9.00919,1.59452
-504,288,-9.02106,-1.87915,0.00445138,-0.00125824,0.00578294,0.00804579,-0.00485265,0.556116,0.00752259,0.0108419,720,736,-9.02107,1.87916
-497,288,-8.99957,-2.05609,0.00767626,-0.00077356,0.00799886,0.0124974,-0.00559474,0.542426,0.0106959,0.0228526,727,736,-8.9996,2.05608
-490,288,-8.90662,-2.18896,0,0,0,0,0,0,0,-1,734,736,-8.90664,2.18899
-483,288,-9.62158,0.626892,0,0,0,0,0,0,0,-1,741,736,-9.62161,-0.626875
-476,288,-13.4426,0.893005,0,0,0,0,0,0,0,-1,748,736,-13.4425,-0.893003
-469,288,-13.3106,1.60577,0,0,0,0,0,0,0,-1,755,736,-13.3106,-1.60578
-462,288,-16.2115,2.2041,0,0,0,0,0,0,0,-1,762,736,-16.2115,-2.20409
-455,288,-15.1803,1.38861,0,0,0,0,0,0,0,-1,769,736,-15.1803,-1.38859
-448,288,-12.7959,3.26221,0,0,0,0,0,0,0,-1,776,736,-12.7959,-3.2622
-441,288,-12.592,3.57495,0,0,0,0,0,0,0,-1,783,736,-12.592,-3.57494
-434,288,-12.8195,1.03143,0,0,0,0,0,0,0,-1,790,736,-12.8195,-1.03145
-427,288,0,0,0,0,0,0,0,0,0,-1,797,736,0,0
-420,288,0,0,0,0,0,0,0,0,0,-1,804,736,0,0
-413,288,0,0,0,0,0,0,0,0,0,-1,811,736,0,0
-406,288,0,0,0,0,0,0,0,0,0,-1,818,736,0,0
-399,288,0,0,0,0,0,0,0,0,0,-1,825,736,0,0
-392,288,0,0,0,0,0,0,0,0,0,-1,832,736,0,0
-385,288,0,0,0,0,0,0,0,0,0,-1,839,736,0,0
-378,288,0,0,0,0,0,0,0,0,0,-1,846,736,0,0
-371,288,0,0,0,0,0,0,0,0,0,-1,853,736,0,0
-364,288,0,0,0,0,0,0,0,0,0,-1,860,736,0,0
-357,288,0,0,0,0,0,0,0,0,0,-1,867,736,0,0
-350,288,0,0,0,0,0,0,0,0,0,-1,874,736,0,0
-343,288,0,0,0,0,0,0,0,0,0,-1,881,736,0,0
-336,288,0,0,0,0,0,0,0,0,0,-1,888,736,0,0
-329,288,0,0,0,0,0,0,0,0,0,-1,895,736,0,0
-322,288,0,0,0,0,0,0,0,0,0,-1,902,736,0,0
-315,288,0,0,0,0,0,0,0,0,0,-1,909,736,0,0
-308,288,0,0,0,0,0,0,0,0,0,-1,916,736,0,0
-301,288,0,0,0,0,0,0,0,0,0,-1,923,736,0,0
-294,288,0,0,0,0,0,0,0,0,0,-1,930,736,0,0
-287,288,0,0,0,0,0,0,0,0,0,-1,937,736,0,0
-280,288,0,0,0,0,0,0,0,0,0,-1,944,736,0,0
-273,288,0,0,0,0,0,0,0,0,0,-1,951,736,0,0
-266,288,0,0,0,0,0,0,0,0,0,-1,958,736,0,0
-259,288,0,0,0,0,0,0,0,0,0,-1,965,736,0,0
-252,288,0,0,0,0,0,0,0,0,0,-1,972,736,0,0
-245,288,0,0,0,0,0,0,0,0,0,-1,979,736,0,0
-238,288,0,0,0,0,0,0,0,0,0,-1,986,736,0,0
-231,288,0,0,0,0,0,0,0,0,0,-1,993,736,0,0
-224,288,0,0,0,0,0,0,0,0,0,-1,1000,736,0,0
-217,288,0,0,0,0,0,0,0,0,0,-1,1007,736,0,0
-210,288,0,0,0,0,0,0,0,0,0,-1,1014,736,0,0
-203,288,0,0,0,0,0,0,0,0,0,-1,1021,736,0,0
-196,288,0,0,0,0,0,0,0,0,0,-1,1028,736,0,0
-189,288,0,0,0,0,0,0,0,0,0,-1,1035,736,0,0
-182,288,0,0,0,0,0,0,0,0,0,-1,1042,736,0,0
-175,288,0,0,0,0,0,0,0,0,0,-1,1049,736,0,0
-168,288,0,0,0,0,0,0,0,0,0,-1,1056,736,0,0
-161,288,0,0,0,0,0,0,0,0,0,-1,1063,736,0,0
-154,288,0,0,0,0,0,0,0,0,0,-1,1070,736,0,0
-147,288,0,0,0,0,0,0,0,0,0,-1,1077,736,0,0
-140,288,0,0,0,0,0,0,0,0,0,-1,1084,736,0,0
-133,288,0,0,0,0,0,0,0,0,0,-1,1091,736,0,0
-126,288,0,0,0,0,0,0,0,0,0,-1,1098,736,0,0
-119,288,0,0,0,0,0,0,0,0,0,-1,1105,736,0,0
-112,288,0,0,0,0,0,0,0,0,0,-1,1112,736,0,0
-105,288,0,0,0,0,0,0,0,0,0,-1,1119,736,0,0
-98,288,0,0,0,0,0,0,0,0,0,-1,1126,736,0,0
-91,288,0,0,0,0,0,0,0,0,0,-1,1133,736,0,0
-84,288,0,0,0,0,0,0,0,0,0,-1,1140,736,0,0
-77,288,0,0,0,0,0,0,0,0,0,-1,1147,736,0,0
-70,288,0,0,0,0,0,0,0,0,0,-1,1154,736,0,0
-63,288,0,0,0,0,0,0,0,0,0,-1,1161,736,0,0
-56,288,0,0,0,0,0,0,0,0,0,-1,1168,736,0,0
-49,288,0,0,0,0,0,0,0,0,0,-1,1175,736,0,0
-42,288,0,0,0,0,0,0,0,0,0,-1,1182,736,0,0
-35,288,0,0,0,0,0,0,0,0,0,-1,1189,736,0,0
-28,288,0,0,0,0,0,0,0,0,0,-1,1196,736,0,0
-21,288,0,0,0,0,0,0,0,0,0,-1,1203,736,0,0
-14,288,0,0,0,0,0,0,0,0,0,-1,1210,736,0,0
-7,288,0,0,0,0,0,0,0,0,0,-1,1217,736,0,0
0,288,0,0,0,0,0,0,0,0,0,-1,1224,736,0,0
7,288,0,0,0,0,0,0,0,0,0,-1,1231,736,0,0
14,288,0,0,0,0,0,0,0,0,0,-1,1238,736,0,0
21,288,0,0,0,0,0,0,0,0,0,-1,1245,736,0,0
28,288,0,0,0,0,0,0,0,0,0,-1,1252,736,0,0
35,288,0,0,0,0,0,0,0,0,0,-1,1259,736,0,0
42,288,0,0,0,0,0,0,0,0,0,-1,1266,736,0,0
49,288,0,0,0,0,0,0,0,0,0,-1,1273,736,0,0
56,288,0,0,0,0,0,0,0,0,0,-1,1280,736,0,0
63,288,0,0,0,0,0,0,0,0,0,-1,1287,736,0,0
70,288,0,0,0,0,0,0,0,0,0,-1,1294,736,0,0
77,288,0,0,0,0,0,0,0,0,0,-1,1301,736,0,0
84,288,0,0,0,0,0,0,0,0,0,-1,1308,736,0,0
91,288,0,0,0,0,0,0,0,0,0,-1,1315,736,0,0
98,288,0,0,0,0,0,0,0,0,0,-1,1322,736,0,0
105,288,0,0,0,0,0,0,0,0,0,-1,1329,736,0,0
112,288,0,0,0,0,0,0,0,0,0,-1,1336,736,0,0
119,288,0,0,0,0,0,0,0,0,0,-1,1343,736,0,0
126,288,0,0,0,0,0,0,0,0,0,-1,1350,736,0,0
133,288,0,0,0,0,0,0,0,0,0,-1,1357,736,0,0
140,288,0,0,0,0,0,0,0,0,0,-1,1364,736,0,0
147,288,0,0,0,0,0,0,0,0,0,-1,1371,736,0,0
154,288,0,0,0,0,0,0,0,0,0,-1,1378,736,0,0
161,288,0,0,0,0,0,0,0,0,0,-1,1385,736,0,0
168,288,0,0,0,0,0,0,0,0,0,-1,1392,736,0,0
175,288,0,0,0,0,0,0,0,0,0,-1,1399,736,0,0
182,288,0,0,0,0,0,0,0,0,0,-1,1406,736,0,0
189,288,0,0,0,0,0,0,0,0,0,-1,1413,736,0,0
196,288,0,0,0,0,0,0,0,0,0,-1,1420,736,0,0
203,288,0,0,0,0,0,0,0,0,0,-1,1427,736,0,0
210,288,0,0,0,0,0,0,0,0,0,-1,1434,736,0,0
217,288,0,0,0,0,0,0,0,0,0,-1,1441,736,0,0
224,288,0,0,0,0,0,0,0,0,0,-1,1448,736,0,0
231,288,0,0,0,0,0,0,0,0,0,-1,1455,736,0,0
238,288,0,0,0,0,0,0,0,0,0,-1,1462,736,0,0
245,288,0,0,0,0,0,0,0,0,0,-1,1469,736,0,0
252,288,0,0,0,0,0,0,0,0,0,-1,1476,736,0,0
259,288,0,0,0,0,0,0,0,0,0,-1,1483,736,0,0
266,288,0,0,0,0,0,0,0,0,0,-1,1490,736,0,0
273,288,0,0,0,0,0,0,0,0,0,-1,1497,736,0,0
280,288,0,0,0,0,0,0,0,0,0,-1,1504,736,0,0
287,288,0,0,0,0,0,0,0,0,0,-1,1511,736,0,0
294,288,0,0,0,0,0,0,0,0,0,-1,1518,736,0,0
301,288,0,0,0,0,0,0,0,0,0,-1,1525,736,0,0
308,288,0,0,0,0,0,0,0,0,0,-1,1532,736,0,0
315,288,0,0,0,0,0,0,0,0,0,-1,1539,736,0,0
322,288,0,0,0,0,0,0,0,0,0,-1,1546,736,0,0
329,288,0,0,0,0,0,0,0,0,0,-1,1553,736,0,0
336,288,0,0,0,0,0,0,0,0,0,-1,1560,736,0,0
343,288,0,0,0,0,0,0,0,0,0,-1,1567,736,0,0
350,288,0,0,0,0,0,0,0,0,0,-1,1574,736,0,0
357,288,0,0,0,0,0,0,0,0,0,-1,1581,736,0,0
364,288,0,0,0,0,0,0,0,0,0,-1,1588,736,0,0
371,288,0,0,0,0,0,0,0,0,0,-1,1595,736,0,0
378,288,0,0,0,0,0,0,0,0,0,-1,1602,736,0,0
385,288,0,0,0,0,0,0,0,0,0,-1,1609,736,0,0
392,288,0,0,0,0,0,0,0,0,0,-1,1616,736,0,0
399,288,0,0,0,0,0,0,0,0,0,-1,1623,736,0,0
406,288,0,0,0,0,0,0,0,0,0,-1,1630,736,0,0
413,288,0,0,0,0,0,0,0,0,0,-1,1637,736,0,0
420,288,0,0,0,0,0,0,0,0,0,-1,1644,736,0,0
427,288,0,0,0,0,0,0,0,0,0,-1,1651,736,0,0
434,288,0,0,0,0,0,0,0,0,0,-1,1658,736,0,0
441,288,0,0,0,0,0,0,0,0,0,-1,1665,736,0,0
448,288,0,0,0,0,0,0,0,0,0,-1,1672,736,0,0
455,288,0,0,0,0,0,0,0,0,0,-1,1679,736,0,0
462,288,0,0,0,0,0,0,0,0,0,-1,1686,736,0,0
469,288,0,0,0,0,0,0,0,0,0,-1,1693,736,0,0
476,288,0,0,0,0,0,0,0,0,0,-1,1700,736,0,0
483,288,0,0,0,0,0,0,0,0,0,-1,1707,736,0,0
490,288,0,0,0,0,0,0,0,0,0,-1,1714,736,0,0
497,288,0,0,0,0,0,0,0,0,0,-1,1721,736,0,0
504,288,0,0,0,0,0,0,0,0,0,-1,1728,736,0,0
511,288,0,0,0,0,0,0,0,0,0,-1,1735,736,0,0
518,288,0,0,0,0,0,0,0,0,0,-1,1742,736,0,0
525,288,0,0,0,0,0,0,0,0,0,-1,1749,736,0,0
532,288,0,0,0,0,0,0,0,0,0,-1,1756,736,0,0
539,288,0,0,0,0,0,0,0,0,0,-1,1763,736,0,0
546,288,0,0,0,0,0,0,0,0,0,-1,1770,736,0,0
553,288,23.4799,2.92126,0,0,0,0,0,0,0,-1,1777,736,23.4799,-2.92127
560,288,23.348,3.12585,-0.0541718,0.0377875,0.00332644,0.0379077,-0.054292,1.53469,0.053511,0.0435306,1784,736,23.3481,-3.12587
567,288,23.022,3.43134,-0.0385081,0.0315645,0.000488455,0.0315679,-0.0385115,1.56383,0.0405265,0.0453827,1791,736,23.022,-3.43136
574,288,22.7096,3.57532,0,0,0,0,0,0,0,-1,1798,736,22.7096,-3.5753
581,288,23.2974,3.24207,0,0,0,0,0,0,0,-1,1805,736,23.2973,-3.24204
588,288,23.6416,3.37994,0,0,0,0,0,0,0,-1,1812,736,23.6416,-3.37994
595,288,23.9858,3.51782,0,0,0,0,0,0,0,-1,1819,736,23.9858,-3.51783
602,288,20.5166,4.94885,0,0,0,0,0,0,0,-1,1826,736,20.5166,-4.94885
609,288,17.5223,4.86414,0,0,0,0,0,0,0,-1,1833,736,17.5223,-4.86412
616,288,13.4886,0.801331,0,0,0,0,0,0,0,-1,1840,736,13.4886,-0.80132
623,288,15.3429,-0.24762,0,0,0,0,0,0,0,-1,1847,736,15.3429,0.247604
630,288,15.3448,0.00915527,0.0108825,-0.00247556,0.00015959,0.0108844,-0.00247747,0.0119448,0.00820771,0.0206867,1854,736,15.3448,-0.00912971
637,288,15.3452,0.305847,0.00759005,-0.00289268,0.000744228,0.00764262,-0.00294526,0.0705242,0.00631026,0.00973169,1861,736,15.3453,-0.305838
644,288,15.3597,0.587097,0.00445078,-0.00274702,0.000848348,0.00454941,-0.00284565,0.115749,0.00430715,0.00923718,1868,736,15.3597,-0.587107
651,288,15.3845,0.88092,0.00245582,-0.00212375,0.000726366,0.00256827,-0.0022362,0.15359,0.00277607,0.0102721,1875,736,15.3845,-0.880938
658,288,15.365,1.20227,0.00102855,-0.00104622,0.00046041,0.00112613,-0.0011438,0.208851,0.00131056,0.0154152,1882,736,15.365,-1.20228
665,288,15.3622,1.47168,0.000134572,0.000116264,5.93899e-05,0.00018551,6.53269e-05,0.708931,0.000108654,0.0162296,1889,736,15.3622,-1.47168
672,288,15.3468,1.70477,0.000181689,0.000948129,-0.000175017,0.000986202,0.000143615,-1.35659,0.00061521,0.013781,1896,736,15.3468,-1.70479
679,288,15.3486,2.00641,0.000583454,0.00184411,-0.00013061,0.0018575,0.000570064,-1.46864,0.00109876,0.011366,1903,736,15.3486,-2.0064
686,288,15.3499,2.2666,0.00146317,0.00290157,0.000113055,0.0029104,0.00145434,1.49284,0.00168032,0.00935581,1910,736,15.3499,-2.26662
693,288,15.3572,2.54681,0.00292312,0.00426173,0.000412329,0.00437854,0.00280631,1.29472,0.0025612,0.0132325,1917,736,15.3572,-2.54682
700,288,15.3097,2.88269,0.00531384,0.00581827,0.00098443,0.00658228,0.00454983,0.910802,0.00389182,0.0266831,1924,736,15.3097,-2.8827
707,288,15.4135,3.16876,0.00899215,0.00773353,0.00189811,0.0103626,0.00636313,0.625328,0.00603448,0.040133,1931,736,15.4135,-3.16876
714,288,15.514,3.45093,0,0,0,0,0,0,0,-1,1938,736,15.5141,-3.45095
721,288,16.8481,2.54071,0,0,0,0,0,0,0,-1,1945,736,16.8481,-2.54069
728,288,17.8928,2.75793,0,0,0,0,0,0,0,-1,1952,736,17.8928,-2.75791
735,288,18.7712,3.51312,0,0,0,0,0,0,0,-1,1959,736,18.7713,-3.51309
742,288,0,0,0,0,0,0,0,0,0,-1,1966,736,0,0
749,288,0,0,0,0,0,0,0,0,0,-1,1973,736,0,0
756,288,0,0,0,0,0,0,0,0,0,-1,1980,736,0,0
763,288,0,0,0,0,0,0,0,0,0,-1,1987,736,0,0
770,288,0,0,0,0,0,0,0,0,0,-1,1994,736,0,0
777,288,0,0,0,0,0,0,0,0,0,-1,2001,736,0,0
784,288,0,0,0,0,0,0,0,0,0,-1,2008,736,0,0
791,288,0,0,0,0,0,0,0,0,0,-1,2015,736,0,0
798,288,0,0,0,0,0,0,0,0,0,-1,2022,736,0,0
805,288,0,0,0,0,0,0,0,0,0,-1,2029,736,0,0
812,288,0,0,0,0,0,0,0,0,0,-1,2036,736,0,0
-700,281,0,0,0,0,0,0,0,0,0,-1,524,743,0,0
-693,281,0,0,0,0,0,0,0,0,0,-1,531,743,0,0
-686,281,0,0,0,0,0,0,0,0,0,-1,538,743,0,0
-679,281,0,0,0,0,0,0,0,0,0,-1,545,743,0,0
-672,281,0,0,0,0,0,0,0,0,0,-1,552,743,0,0
-665,281,0,0,0,0,0,0,0,0,0,-1,559,743,0,0
-658,281,0,0,0,0,0,0,0,0,0,-1,566,743,0,0
-651,281,0,0,0,0,0,0,0,0,0,-1,573,743,0,0
-644,281,0,0,0,0,0,0,0,0,0,-1,580,743,0,0
-637,281,0,0,0,0,0,0,0,0,0,-1,587,743,0,0
-630,281,0,0,0,0,0,0,0,0,0,-1,594,743,0,0
-623,281,-13.3923,-0.436707,0,0,0,0,0,0,0,-1,601,743,-13.3923,0.436709
-616,281,-10.5474,2.10901,0,0,0,0,0,0,0,-1,608,743,-10.5474,-2.10901
-609,281,-10.1743,1.53064,0.0617993,-3.03517e-05,-0.0249056,0.0705835,-0.00881458,-0.339079,0.0502522,0.0466766,615,743,-10.1743,-1.53066
-602,281,-9.82361,0.907166,0.0480112,-0.00027429,-0.0166478,0.0531946,-0.00545769,-0.301842,0.0374152,0.0492722,622,743,-9.82359,-0.907136
-595,281,-9.37494,0.197815,0,0,0,0,0,0,0,-1,629,743,-9.37496,-0.197802
-588,281,-9.49042,0.801941,0,0,0,0,0,0,0,-1,636,743,-9.49041,-0.801943
-581,281,-9.35211,0.717957,0.0178479,-0.00026703,-0.00400735,0.0186948,-0.00111393,-0.208273,0.0128506,0.0476648,643,743,-9.35209,-0.717934
-574,281,-9.20142,0.653992,0.0112882,-0.000500806,-0.00204396,0.0116325,-0.000845127,-0.166891,0.00805152,0.0295524,650,743,-9.2014,-0.65402
-567,281,-9.2489,0.496704,0.00646831,-0.00110355,-0.00138631,0.00671415,-0.00134939,-0.175506,0.00498712,0.0138616,657,743,-9.24891,-0.496675
-560,281,-9.26788,0.236328,0.00241155,-0.00179063,0.000203985,0.00242143,-0.00180051,0.0483909,0.00244631,0.00819657,664,743,-9.26787,-0.236312
-553,281,-9.23877,-0.0110474,-0.000754995,-0.000831579,0.00134282,0.000550075,-0.00213665,0.771144,0.00163886,0.0139617,671,743,-9.23874,0.0110638
-546,281,-9.23846,-0.253723,-0.00206995,-0.000566663,0.00230019,0.00110157,-0.00373819,0.943316,0.00292919,0.0156704,678,743,-9.23849,0.253706
-539,281,-9.25201,-0.528564,-0.00190556,-0.00107131,0.00227654,0.000826003,-0.00380288,0.876007,0.00285076,0.0129242,685,743,-9.25204,0.528588
-532,281,-9.25079,-0.790955,-0.00179445,-0.00177584,0.00243711,0.000651987,-0.00422228,0.787306,0.00305546,0.0112432,692,743,-9.25079,0.790931
-525,281,-9.27185,-1.06439,-0.00118559,-0.00197145,0.00295536,0.00140285,-0.00455989,0.719308,0.00359984,0.0135981,699,743,-9.27185,1.06437
-518,281,-9.27167,-1.33325,9.82792e-05,-0.00199919,0.0039896,0.00317468,-0.00507559,0.656872,0.00480526,0.0125543,706,743,-9.27164,1.33326
-511,281,-9.27332,-1.61041,0.00168526,-0.00196905,0.00525826,0.00542478,-0.00570857,0.618183,0.00642854,0.0111303,713,743,-9.27331,1.61044
-504,281,-9.28131,-1.90125,0.00424003,-0.0015247,0.00700679,0.00893415,-0.00621882,0.590264,0.00879527,0.0138056,720,743,-9.28131,1.90123
-497,281,-9.13458,-2.18958,0.00781134,-0.00055903,0.0093208,0.0138434,-0.00659114,0.574381,0.012043,0.0370752,727,743,-9.13459,2.18959
-490,281,-9.24634,-2.13831,0,0,0,0,0,0,0,-1,734,743,-9.24631,2.13833
-483,281,-9.52325,-1.99445,0,0,0,0,0,0,0,-1,741,743,-9.52323,1.99445
-476,281,-14.9869,1.97766,0,0,0,0,0,0,0,-1,748,743,-14.9869,-1.97764
-469,281,-16.601,3.31171,0,0,0,0,0,0,0,-1,755,743,-16.601,-3.31168
-462,281,-16.0161,2.35822,0,0,0,0,0,0,0,-1,762,743,-16.0161,-2.35821
-455,281,-15.27,1.44708,0,0,0,0,0,0,0,-1,769,743,-15.2699,-1.44709
-448,281,-16.1898,1.20917,0,0,0,0,0,0,0,-1,776,743,-16.1897,-1.20919
-441,281,-14.7452,3.46503,0,0,0,0,0,0,0,-1,783,743,-14.7452,-3.465
-434,281,0,0,0,0,0,0,0,0,0,-1,790,743,0,0
-427,281,0,0,0,0,0,0,0,0,0,-1,797,743,0,0
-420,281,0,0,0,0,0,0,0,0,0,-1,804,743,0,0
-413,281,0,0,0,0,0,0,0,0,0,-1,811,743,0,0
-406,281,0,0,0,0,0,0,0,0,0,-1,818,743,0,0
-399,281,0,0,0,0,0,0,0,0,0,-1,825,743,0,0
-392,281,0,0,0,0,0,0,0,0,0,-1,832,743,0,0
-385,281,0,0,0,0,0,0,0,0,0,-1,839,743,0,0
-378,281,0,0,0,0,0,0,0,0,0,-1,846,743,0,0
-371,281,0,0,0,0,0,0,0,0,0,-1,853,743,0,0
-364,281,0,0,0,0,0,0,0,0,0,-1,860,743,0,0
-357,281,0,0,0,0,0,0,0,0,0,-1,867,743,0,0
-350,281,0,0,0,0,0,0,0,0,0,-1,874,743,0,0
-343,281,0,0,0,0,0,0,0,0,0,-1,881,743,0,0
-336,281,0,0,0,0,0,0,0,0,0,-1,888,743,0,0
-329,281,0,0,0,0,0,0,0,0,0,-1,895,743,0,0
-322,281,0,0,0,0,0,0,0,0,0,-1,902,743,0,0
-315,281,0,0,0,0,0,0,0,0,0,-1,909,743,0,0
-308,281,0,0,0,0,0,0,0,0,0,-1,916,743,0,0
-301,281,0,0,0,0,0,0,0,0,0,-1,923,743,0,0
-294,281,0,0,0,0,0,0,0,0,0,-1,930,743,0,0
-287,281,0,0,0,0,0,0,0,0,0,-1,937,743,0,0
-280,281,0,0,0,0,0,0,0,0,0,-1,944,743,0,0
-273,281,0,0,0,0,0,0,0,0,0,-1,951,743,0,0
-266,281,0,0,0,0,0,0,0,0,0,-1,958,743,0,0
-259,281,0,0,0,0,0,0,0,0,0,-1,965,743,0,0
-252,281,0,0,0,0,0,0,0,0,0,-1,972,743,0,0
-245,281,0,0,0,0,0,0,0,0,0,-1,979,743,0,0
-238,281,0,0,0,0,0,0,0,0,0,-1,986,743,0,0
-231,281,0,0,0,0,0,0,0,0,0,-1,993,743,0,0
-224,281,0,0,0,0,0,0,0,0,0,-1,1000,743,0,0
-217,281,0,0,0,0,0,0,0,0,0,-1,1007,743,0,0
-210,281,0,0,0,0,0,0,0,0,0,-1,1014,743,0,0
-203,281,0,0,0,0,0,0,0,0,0,-1,1021,743,0,0
-196,281,0,0,0,0,0,0,0,0,0,-1,1028,743,0,0
-189,281,0,0,0,0,0,0,0,0,0,-1,1035,743,0,0
-182,281,0,0,0,0,0,0,0,0,0,-1,1042,743,0,0
-175,281,0,0,0,0,0,0,0,0,0,-1,1049,743,0,0
-168,281,0,0,0,0,0,0,0,0,0,-1,1056,743,0,0
-161,281,0,0,0,0,0,0,0,0,0,-1,1063,743,0,0
-154,281,0,0,0,0,0,0,0,0,0,-1,1070,743,0,0
-147,281,0,0,0,0,0,0,0,0,0,-1,1077,743,0,0
-140,281,0,0,0,0,0,0,0,0,0,-1,1084,743,0,0
-133,281,0,0,0,0,0,0,0,0,0,-1,1091,743,0,0
-126,281,0,0,0,0,0,0,0,0,0,-1,1098,743,0,0
-119,281,0,0,0,0,0,0,0,0,0,-1,1105,743,0,0
-112,281,0,0,0,0,0,0,0,0,0,-1,1112,743,0,0
-105,281,0,0,0,0,0,0,0,0,0,-1,1119,743,0,0
-98,281,0,0,0,0,0,0,0,0,0,-1,1126,743,0,0
-91,281,0,0,0,0,0,0,0,0,0,-1,1133,743,0,0
-84,281,0,0,0,0,0,0,0,0,0,-1,1140,743,0,0
-77,281,0,0,0,0,0,0,0,0,0,-1,1147,743,0,0
-70,281,0,0,0,0,0,0,0,0,0,-1,1154,743,0,0
-63,281,0,0,0,0,0,0,0,0,0,-1,1161,743,0,0
-56,281,0,0,0,0,0,0,0,0,0,-1,1168,743,0,0
-49,281,0,0,0,0,0,0,0,0,0,-1,1175,743,0,0
-42,281,0,0,0,0,0,0,0,0,0,-1,1182,743,0,0
-35,281,0,0,0,0,0,0,0,0,0,-1,1189,743,0,0
-28,281,0,0,0,0,0,0,0,0,0,-1,1196,743,0,0
-21,281,0,0,0,0,0,0,0,0,0,-1,1203,743,0,0
-14,281,0,0,0,0,0,0,0,0,0,-1,1210,743,0,0
-7,281,0,0,0,0,0,0,0,0,0,-1,1217,743,0,0
0,281,0,0,0,0,0,0,0,0,0,-1,1224,743,0,0
7,281,0,0,0,0,0,0,0,0,0,-1,1231,743,0,0
14,281,0,0,0,0,0,0,0,0,0,-1,1238,743,0,0
21,281,0,0,0,0,0,0,0,0,0,-1,1245,743,0,0
28,281,0,0,0,0,0,0,0,0,0,-1,1252,743,0,0
35,281,0,0,0,0,0,0,0,0,0,-1,1259,743,0,0
42,281,0,0,0,0,0,0,0,0,0,-1,1266,743,0,0
49,281,0,0,0,0,0,0,0,0,0,-1,1273,743,0,0
56,281,0,0,0,0,0,0,0,0,0,-1,1280,743,0,0
63,281,0,0,0,0,0,0,0,0,0,-1,1287,743,0,0
70,281,0,0,0,0,0,0,0,0,0,-1,1294,743,0,0
77,281,0,0,0,0,0,0,0,0,0,-1,1301,743,0,0
84,281,0,0,0,0,0,0,0,0,0,-1,1308,743,0,0
91,281,0,0,0,0,0,0,0,0,0,-1,1315,743,0,0
98,281,0,0,0,0,0,0,0,0,0,-1,1322,743,0,0
105,281,0,0,0,0,0,0,0,0,0,-1,1329,743,0,0
112,281,0,0,0,0,0,0,0,0,0,-1,1336,743,0,0
119,281,0,0,0,0,0,0,0,0,0,-1,1343,743,0,0
126,281,0,0,0,0,0,0,0,0,0,-1,1350,743,0,0
133,281,0,0,0,0,0,0,0,0,0,-1,1357,743,0,0
140,281,0,0,0,0,0,0,0,0,0,-1,1364,743,0,0
147,281,0,0,0,0,0,0,0,0,0,-1,1371,743,0,0
154,281,0,0,0,0,0,0,0,0,0,-1,1378,743,0,0
161,281,0,0,0,0,0,0,0,0,0,-1,1385,743,0,0
168,281,0,0,0,0,0,0,0,0,0,-1,1392,743,0,0
175,281,0,0,0,0,0,0,0,0,0,-1,1399,743,0,0
182,281,0,0,0,0,0,0,0,0,0,-1,1406,743,0,0
189,281,0,0,0,0,0,0,0,0,0,-1,1413,743,0,0
196,281,0,0,0,0,0,0,0,0,0,-1,1420,743,0,0
203,281,0,0,0,0,0,0,0,0,0,-1,1427,743,0,0
210,281,0,0,0,0,0,0,0,0,0,-1,1434,743,0,0
217,281,0,0,0,0,0,0,0,0,0,-1,1441,743,0,0
224,281,0,0,0,0,0,0,0,0,0,-1,1448,743,0,0
231,281,0,0,0,0,0,0,0,0,0,-1,1455,743,0,0
238,281,0,0,0,0,0,0,0,0,0,-1,1462,743,0,0
245,281,0,0,0,0,0,0,0,0,0,-1,1469,743,0,0
252,281,0,0,0,0,0,0,0,0,0,-1,1476,743,0,0
259,281,0,0,0,0,0,0,0,0,0,-1,1483,743,0,0
266,281,0,0,0,0,0,0,0,0,0,-1,1490,743,0,0
273,281,0,0,0,0,0,0,0,0,0,-1,1497,743,0,0
280,281,0,0,0,0,0,0,0,0,0,-1,1504,743,0,0
287,281,0,0,0,0,0,0,0,0,0,-1,1511,743,0,0
294,281,0,0,0,0,0,0,0,0,0,-1,1518,743,0,0
301,281,0,0,0,0,0,0,0,0,0,-1,1525,743,0,0
308,281,0,0,0,0,0,0,0,0,0,-1,1532,743,0,0
315,281,0,0,0,0,0,0,0,0,0,-1,1539,743,0,0
322,281,0,0,0,0,0,0,0,0,0,-1,1546,743,0,0
329,281,0,0,0,0,0,0,0,0,0,-1,1553,743,0,0
336,281,0,0,0,0,0,0,0,0,0,-1,1560,743,0,0
343,281,0,0,0,0,0,0,0,0,0,-1,1567,743,0,0
350,281,0,0,0,0,0,0,0,0,0,-1,1574,743,0,0
357,281,0,0,0,0,0,0,0,0,0,-1,1581,743,0,0
364,281,0,0,0,0,0,0,0,0,0,-1,1588,743,0,0
371,281,0,0,0,0,0,0,0,0,0,-1,1595,743,0,0
378,281,0,0,0,0,0,0,0,0,0,-1,1602,743,0,0
385,281,0,0,0,0,0,0,0,0,0,-1,1609,743,0,0
392,281,0,0,0,0,0,0,0,0,0,-1,1616,743,0,0
399,281,0,0,0,0,0,0,0,0,0,-1,1623,743,0,0
406,281,0,0,0,0,0,0,0,0,0,-1,1630,743,0,0
413,281,0,0,0,0,0,0,0,0,0,-1,1637,743,0,0
420,281,0,0,0,0,0,0,0,0,0,-1,1644,743,0,0
427,281,0,0,0,0,0,0,0,0,0,-1,1651,743,0,0
434,281,0,0,0,0,0,0,0,0,0,-1,1658,743,0,0
441,281,0,0,0,0,0,0,0,0,0,-1,1665,743,0,0
448,281,0,0,0,0,0,0,0,0,0,-1,1672,743,0,0
455,281,0,0,0,0,0,0,0,0,0,-1,1679,743,0,0
462,281,0,0,0,0,0,0,0,0,0,-1,1686,743,0,0
469,281,0,0,0,0,0,0,0,0,0,-1,1693,743,0,0
476,281,0,0,0,0,0,0,0,0,0,-1,1700,743,0,0
483,281,0,0,0,0,0,0,0,0,0,-1,1707,743,0,0
490,281,0,0,0,0,0,0,0,0,0,-1,1714,743,0,0
497,281,0,0,0,0,0,0,0,0,0,-1,1721,743,0,0
504,281,0,0,0,0,0,0,0,0,0,-1,1728,743,0,0
511,281,0,0,0,0,0,0,0,0,0,-1,1735,743,0,0
518,281,0,0,0,0,0,0,0,0,0,-1,1742,743,0,0
525,281,0,0,0,0,0,0,0,0,0,-1,1749,743,0,0
532,281,0,0,0,0,0,0,0,0,0,-1,1756,743,0,0
539,281,0,0,0,0,0,0,0,0,0,-1,1763,743,0,0
546,281,0,0,0,0,0,0,0,0,0,-1,1770,743,0,0
553,281,0,0,0,0,0,0,0,0,0,-1,1777,743,0,0
560,281,23.5397,3.18292,-0.0511242,0.0355037,0.00311898,0.0356159,-0.0512363,1.53485,0.0504137,0.046942,1784,743,23.5397,-3.18293
567,281,23.2056,3.32416,-0.0327769,0.0296498,-0.000464024,0.0296532,-0.0327803,-1.56336,0.0360611,0.0419821,1791,743,23.2055,-3.32417
574,281,22.1655,3.49945,0,0,0,0,0,0,0,-1,1798,743,22.1656,-3.49943
581,281,23.0768,3.43762,-0.0099862,0.0188493,-0.00250582,0.0190655,-0.0102023,-1.48476,0.0171541,0.0457307,1805,743,23.0768,-3.43763
588,281,23.7349,3.39984,-0.00307309,0.0144583,-0.00257031,0.0148274,-0.00344216,-1.42818,0.0112099,0.0448904,1812,743,23.7348,-3.39987
595,281,24.2479,3.26324,0,0,0,0,0,0,0,-1,1819,743,24.2479,-3.26326
602,281,20.9932,4.05396,0,0,0,0,0,0,0,-1,1826,743,20.9931,-4.05393
609,281,20.3328,4.56146,0,0,0,0,0,0,0,-1,1833,743,20.3328,-4.56145
616,281,18.7693,0.0219727,0,0,0,0,0,0,0,-1,1840,743,18.7693,-0.0219682
623,281,15.5232,-0.244263,0,0,0,0,0,0,0,-1,1847,743,15.5232,0.244242
630,281,15.5864,0.00860596,0.0116812,-0.00353773,0.000617138,0.0117062,-0.00356272,0.0404621,0.00922399,0.0353362,1854,743,15.5864,-0.00859735
637,281,15.6206,0.285034,0.00843645,-0.00418631,0.00113117,0.00853702,-0.00428688,0.0886721,0.0075382,0.0123647,1861,743,15.6207,-0.285029
644,281,15.6351,0.583984,0.00526773,-0.00419332,0.00116238,0.00540845,-0.00433404,0.120472,0.00563622,0.00986953,1868,743,15.6351,-0.583983
651,281,15.6465,0.886597,0.00318827,-0.00355445,0.000947109,0.00331878,-0.00368496,0.136934,0.00404545,0.0110286,1875,743,15.6465,-0.886573
658,281,15.6705,1.19482,0.00163879,-0.00232829,0.000570677,0.00171925,-0.00240875,0.14007,0.00239436,0.0202222,1882,743,15.6705,-1.19482
665,281,15.6553,1.44257,0.000636689,-0.000912775,6.89834e-05,0.000639754,-0.00091584,0.0444037,0.000902826,0.0215195,1889,743,15.6553,-1.44259
672,281,15.6331,1.72858,0.000674365,0.000103926,-0.000228171,0.000754402,2.38886e-05,-0.337366,0.000495164,0.0120487,1896,743,15.633,-1.72856
679,281,15.6394,1.99579,0.00113095,0.00116252,-0.000183787,0.0013312,0.00096227,-0.828234,0.000793607,0.0176818,1903,743,15.6395,-1.9958
686,281,15.6158,2.24457,0.00214611,0.00242029,0.000186334,0.00251453,0.00205187,1.10255,0.00154539,0.0146938,1910,743,15.6158,-2.24458
693,281,15.6177,2.52502,0.00362118,0.00377987,0.000542212,0.00424851,0.00315254,0.858048,0.00254687,0.0111432,1917,743,15.6176,-2.52503
700,281,15.6089,2.82349,0.00586865,0.00532328,0.00115978,0.00678737,0.00440456,0.669936,0.00397622,0.0184809,1924,743,15.6089,-2.82346
707,281,15.5653,2.99652,0.00921848,0.0071169,0.0020244,0.0104486,0.00588683,0.546007,0.00604862,0.0374514,1931,743,15.5653,-2.99653
714,281,15.557,3.10437,0,0,0,0,0,0,0,-1,1938,743,15.557,-3.10435
721,281,16.2273,3.5351,0,0,0,0,0,0,0,-1,1945,743,16.2274,-3.53508
728,281,16.7843,3.46661,0,0,0,0,0,0,0,-1,1952,743,16.7843,-3.46659
735,281,19.0869,2.50311,0,0,0,0,0,0,0,-1,1959,743,19.0869,-2.5031
742,281,0,0,0,0,0,0,0,0,0,-1,1966,743,0,0
749,281,0,0,0,0,0,0,0,0,0,-1,1973,743,0,0
756,281,0,0,0,0,0,0,0,0,0,-1,1980,743,0,0
763,281,0,0,0,0,0,0,0,0,0,-1,1987,743,0,0
770,281,0,0,0,0,0,0,0,0,0,-1,1994,743,0,0
777,281,0,0,0,0,0,0,0,0,0,-1,2001,743,0,0
784,281,0,0,0,0,0,0,0,0,0,-1,2008,743,0,0
791,281,0,0,0,0,0,0,0,0,0,-1,2015,743,0,0
798,281,0,0,0,0,0,0,0,0,0,-1,2022,743,0,0
805,281,0,0,0,0,0,0,0,0,0,-1,2029,743,0,0
812,281,0,0,0,0,0,0,0,0,0,-1,2036,743,0,0
-700,274,0,0,0,0,0,0,0,0,0,-1,524,750,0,0
-693,274,0,0,0,0,0,0,0,0,0,-1,531,750,0,0
-686,274,0,0,0,0,0,0,0,0,0,-1,538,750,0,0
-679,274,0,0,0,0,0,0,0,0,0,-1,545,750,0,0
-672,274,0,0,0,0,0,0,0,0,0,-1,552,750,0,0
-665,274,0,0,0,0,0,0,0,0,0,-1,559,750,0,0
-658,274,0,0,0,0,0,0,0,0,0,-1,566,750,0,0
-651,274,0,0,0,0,0,0,0,0,0,-1,573,750,0,0
-644,274,0,0,0,0,0,0,0,0,0,-1,580,750,0,0
-637,274,0,0,0,0,0,0,0,0,0,-1,587,750,0,0
-630,274,0,0,0,0,0,0,0,0,0,-1,594,750,0,0
-623,274,-9.60577,3.80621,0,0,0,0,0,0,0,-1,601,750,-9.60575,-3.80624
-616,274,-11.0002,2.68134,0,0,0,0,0,0,0,-1,608,750,-11.0003,-2.68132
-609,274,-10.3929,1.91797,0.0530318,0.0045929,-0.0122469,0.0559521,0.00167256,-0.234084,0.0367566,0.0448129,615,750,-10.3929,-1.91796
-602,274,-9.75897,1.13257,0.0421628,0.00307189,-0.00871501,0.0440177,0.00121697,-0.209713,0.028948,0.0439097,622,750,-9.75895,-1.13259
-595,274,-9.06348,0.304504,0,0,0,0,0,0,0,-1,629,750,-9.06347,-0.304488
-588,274,-9.56274,1.02435,0,0,0,0,0,0,0,-1,636,750,-9.56273,-1.02434
-581,274,-9.49884,0.85791,0.0165262,0.000955731,-0.0025385,0.0169296,0.000552324,-0.157598,0.0111069,0.0381388,643,750,-9.49881,-0.857936
-574,274,-9.43787,0.717957,0.010808,0.000289008,-0.00150737,0.0110197,7.72648e-05,-0.139559,0.00732085,0.0197979,650,750,-9.43787,-0.717979
-567,274,-9.51215,0.48877,0.00643991,-0.000648056,-0.00137779,0.00669831,-0.000906458,-0.185394,0.00479633,0.0183939,657,750,-9.51212,-0.488749
-560,274,-9.50995,0.236267,0.00256104,-0.00157689,-8.93432e-05,0.00256297,-0.00157882,-0.0215779,0.00241366,0.0148224,664,750,-9.50993,-0.236294
-553,274,-9.50867,-0.0209961,-0.000542643,-0.000927952,0.00100153,0.000284596,-0.00175519,0.690379,0.00127562,0.00918763,671,750,-9.50869,0.0210017
-546,274,-9.51361,-0.282349,-0.00191227,-0.000851785,0.00208941,0.000773614,-0.00353767,0.909663,0.00265417,0.0102118,678,750,-9.5136,0.282353
-539,274,-9.52264,-0.534302,-0.00205776,-0.00155001,0.00231551,0.000525502,-0.00413327,0.840001,0.00294634,0.0103569,685,750,-9.52262,0.534296
-532,274,-9.53046,-0.784546,-0.00228187,-0.00242643,0.00271553,0.000362342,-0.00507063,0.772093,0.00350745,0.0105282,692,750,-9.53045,0.784528
-525,274,-9.52557,-1.047,-0.00187496,-0.00265043,0.00346355,0.00122249,-0.00574788,0.729656,0.00429776,0.0113016,699,750,-9.5256,1.047
-518,274,-9.51471,-1.30896,-0.000752372,-0.00253762,0.00467635,0.00311578,-0.00640577,0.691092,0.00560559,0.0126733,706,750,-9.51473,1.30895
-511,274,-9.53418,-1.59235,0.000654483,-0.00238925,0.00605356,0.00537454,-0.00710931,0.66225,0.00723072,0.0117367,713,750,-9.53421,1.59233
-504,274,-9.5462,-1.91547,0.00317556,-0.0017009,0.00778592,0.0088961,-0.00742144,0.633656,0.00943376,0.0213336,720,750,-9.54622,1.91545
-497,274,-9.27704,-2.08875,0.00681196,-0.000326501,0.00996831,0.0138308,-0.00734532,0.613481,0.0124157,0.045593,727,750,-9.27707,2.08877
-490,274,-9.18445,-2.55096,0,0,0,0,0,0,0,-1,734,750,-9.18447,2.55099
-483,274,-16.139,1.34747,0,0,0,0,0,0,0,-1,741,750,-16.139,-1.34745
-476,274,-15.1482,1.9552,0,0,0,0,0,0,0,-1,748,750,-15.1482,-1.95518
-469,274,-14.1819,2.40649,0,0,0,0,0,0,0,-1,755,750,-14.1819,-2.40651
-462,274,-15.6818,2.33417,0,0,0,0,0,0,0,-1,762,750,-15.6818,-2.33417
-455,274,-16.5526,0.994934,0,0,0,0,0,0,0,-1,769,750,-16.5526,-0.994962
-448,274,-16.2285,1.1701,0,0,0,0,0,0,0,-1,776,750,-16.2285,-1.1701
-441,274,0,0,0,0,0,0,0,0,0,-1,783,750,0,0
-434,274,0,0,0,0,0,0,0,0,0,-1,790,750,0,0
-427,274,0,0,0,0,0,0,0,0,0,-1,797,750,0,0
-420,274,0,0,0,0,0,0,0,0,0,-1,804,750,0,0
-413,274,0,0,0,0,0,0,0,0,0,-1,811,750,0,0
-406,274,0,0,0,0,0,0,0,0,0,-1,818,750,0,0
-399,274,0,0,0,0,0,0,0,0,0,-1,825,750,0,0
-392,274,0,0,0,0,0,0,0,0,0,-1,832,750,0,0
-385,274,0,0,0,0,0,0,0,0,0,-1,839,750,0,0
-378,274,0,0,0,0,0,0,0,0,0,-1,846,750,0,0
-371,274,0,0,0,0,0,0,0,0,0,-1,853,750,0,0
-364,274,0,0,0,0,0,0,0,0,0,-1,860,750,0,0
-357,274,0,0,0,0,0,0,0,0,0,-1,867,750,0,0
-350,274,0,0,0,0,0,0,0,0,0,-1,874,750,0,0
-343,274,0,0,0,0,0,0,0,0,0,-1,881,750,0,0
-336,274,0,0,0,0,0,0,0,0,0,-1,888,750,0,0
-329,274,0,0,0,0,0,0,0,0,0,-1,895,750,0,0
-322,274,0,0,0,0,0,0,0,0,0,-1,902,750,0,0
-315,274,0,0,0,0,0,0,0,0,0,-1,909,750,0,0
-308,274,0,0,0,0,0,0,0,0,0,-1,916,750,0,0
-301,274,0,0,0,0,0,0,0,0,0,-1,923,750,0,0
-294,274,0,0,0,0,0,0,0,0,0,-1,930,750,0,0
-287,274,0,0,0,0,0,0,0,0,0,-1,937,750,0,0
-280,274,0,0,0,0,0,0,0,0,0,-1,944,750,0,0
-273,274,0,0,0,0,0,0,0,0,0,-1,951,750,0,0
-266,274,0,0,0,0,0,0,0,0,0,-1,958,750,0,0
-259,274,0,0,0,0,0,0,0,0,0,-1,965,750,0,0
-252,274,0,0,0,0,0,0,0,0,0,-1,972,750,0,0
-245,274,0,0,0,0,0,0,0,0,0,-1,979,750,0,0
-238,274,0,0,0,0,0,0,0,0,0,-1,986,750,0,0
-231,274,0,0,0,0,0,0,0,0,0,-1,993,750,0,0
-224,274,0,0,0,0,0,0,0,0,0,-1,1000,750,0,0
-217,274,0,0,0,0,0,0,0,0,0,-1,1007,750,0,0
-210,274,0,0,0,0,0,0,0,0,0,-1,1014,750,0,0
-203,274,0,0,0,0,0,0,0,0,0,-1,1021,750,0,0
-196,274,0,0,0,0,0,0,0,0,0,-1,1028,750,0,0
-189,274,0,0,0,0,0,0,0,0,0,-1,1035,750,0,0
-182,274,0,0,0,0,0,0,0,0,0,-1,1042,750,0,0
-175,274,0,0,0,0,0,0,0,0,0,-1,1049,750,0,0
-168,274,0,0,0,0,0,0,0,0,0,-1,1056,750,0,0
-161,274,0,0,0,0,0,0,0,0,0,-1,1063,750,0,0
-154,274,0,0,0,0,0,0,0,0,0,-1,1070,750,0,0
-147,274,0,0,0,0,0,0,0,0,0,-1,1077,750,0,0
-140,274,0,0,0,0,0,0,0,0,0,-1,1084,750,0,0
-133,274,0,0,0,0,0,0,0,0,0,-1,1091,750,0,0
-126,274,0,0,0,0,0,0,0,0,0,-1,1098,750,0,0
-119,274,0,0,0,0,0,0,0,0,0,-1,1105,750,0,0
-112,274,0,0,0,0,0,0,0,0,0,-1,1112,750,0,0
-105,274,0,0,0,0,0,0,0,0,0,-1,1119,750,0,0
-98,274,0,0,0,0,0,0,0,0,0,-1,1126,750,0,0
-91,274,0,0,0,0,0,0,0,0,0,-1,1133,750,0,0
-84,274,0,0,0,0,0,0,0,0,0,-1,1140,750,0,0
-77,274,0,0,0,0,0,0,0,0,0,-1,1147,750,0,0
-70,274,0,0,0,0,0,0,0,0,0,-1,1154,750,0,0
-63,274,0,0,0,0,0,0,0,0,0,-1,1161,750,0,0
-56,274,0,0,0,0,0,0,0,0,0,-1,1168,750,0,0
-49,274,0,0,0,0,0,0,0,0,0,-1,1175,750,0,0
-42,274,0,0,0,0,0,0,0,0,0,-1,1182,750,0,0
-35,274,0,0,0,0,0,0,0,0,0,-1,1189,750,0,0
-28,274,0,0,0,0,0,0,0,0,0,-1,1196,750,0,0
-21,274,0,0,0,0,0,0,0,0,0,-1,1203,750,0,0
-14,274,0,0,0,0,0,0,0,0,0,-1,1210,750,0,0
-7,274,0,0,0,0,0,0,0,0,0,-1,1217,750,0,0
0,274,0,0,0,0,0,0,0,0,0,-1,1224,750,0,0
7,274,0,0,0,0,0,0,0,0,0,-1,1231,750,0,0
14,274,0,0,0,0,0,0,0,0,0,-1,1238,750,0,0
21,274,0,0,0,0,0,0,0,0,0,-1,1245,750,0,0
28,274,0,0,0,0,0,0,0,0,0,-1,1252,750,0,0
35,274,0,0,0,0,0,0,0,0,0,-1,1259,750,0,0
42,274,0,0,0,0,0,0,0,0,0,-1,1266,750,0,0
49,274,0,0,0,0,0,0,0,0,0,-1,1273,750,0,0
56,274,0,0,0,0,0,0,0,0,0,-1,1280,750,0,0
63,274,0,0,0,0,0,0,0,0,0,-1,1287,750,0,0
70,274,0,0,0,0,0,0,0,0,0,-1,1294,750,0,0
77,274,0,0,0,0,0,0,0,0,0,-1,1301,750,0,0
84,274,0,0,0,0,0,0,0,0,0,-1,1308,750,0,0
91,274,0,0,0,0,0,0,0,0,0,-1,1315,750,0,0
98,274,0,0,0,0,0,0,0,0,0,-1,1322,750,0,0
105,274,0,0,0,0,0,0,0,0,0,-1,1329,750,0,0
112,274,0,0,0,0,0,0,0,0,0,-1,1336,750,0,0
119,274,0,0,0,0,0,0,0,0,0,-1,1343,750,0,0
126,274,0,0,0,0,0,0,0,0,0,-1,1350,750,0,0
133,274,0,0,0,0,0,0,0,0,0,-1,1357,750,0,0
140,274,0,0,0,0,0,0,0,0,0,-1,1364,750,0,0
147,274,0,0,0,0,0,0,0,0,0,-1,1371,750,0,0
154,274,0,0,0,0,0,0,0,0,0,-1,1378,750,0,0
161,274,0,0,0,0,0,0,0,0,0,-1,1385,750,0,0
168,274,0,0,0,0,0,0,0,0,0,-1,1392,750,0,0
175,274,0,0,0,0,0,0,0,0,0,-1,1399,750,0,0
182,274,0,0,0,0,0,0,0,0,0,-1,1406,750,0,0
189,274,0,0,0,0,0,0,0,0,0,-1,1413,750,0,0
196,274,0,0,0,0,0,0,0,0,0,-1,1420,750,0,0
203,274,0,0,0,0,0,0,0,0,0,-1,1427,750,0,0
210,274,0,0,0,0,0,0,0,0,0,-1,1434,750,0,0
217,274,0,0,0,0,0,0,0,0,0,-1,1441,750,0,0
224,274,0,0,0,0,0,0,0,0,0,-1,1448,750,0,0
231,274,0,0,0,0,0,0,0,0,0,-1,1455,750,0,0
238,274,0,0,0,0,0,0,0,0,0,-1,1462,750,0,0
245,274,0,0,0,0,0,0,0,0,0,-1,1469,750,0,0
252,274,0,0,0,0,0,0,0,0,0,-1,1476,750,0,0
259,274,0,0,0,0,0,0,0,0,0,-1,1483,750,0,0
266,274,0,0,0,0,0,0,0,0,0,-1,1490,750,0,0
273,274,0,0,0,0,0,0,0,0,0,-1,1497,750,0,0
280,274,0,0,0,0,0,0,0,0,0,-1,1504,750,0,0
287,274,0,0,0,0,0,0,0,0,0,-1,1511,750,0,0
294,274,0,0,0,0,0,0,0,0,0,-1,1518,750,0,0
301,274,0,0,0,0,0,0,0,0,0,-1,1525,750,0,0
308,274,0,0,0,0,0,0,0,0,0,-1,1532,750,0,0
315,274,0,0,0,0,0,0,0,0,0,-1,1539,750,0,0
322,274,0,0,0,0,0,0,0,0,0,-1,1546,750,0,0
329,274,0,0,0,0,0,0,0,0,0,-1,1553,750,0,0
336,274,0,0,0,0,0,0,0,0,0,-1,1560,750,0,0
343,274,0,0,0,0,0,0,0,0,0,-1,1567,750,0,0
350,274,0,0,0,0,0,0,0,0,0,-1,1574,750,0,0
357,274,0,0,0,0,0,0,0,0,0,-1,1581,750,0,0
364,274,0,0,0,0,0,0,0,0,0,-1,1588,750,0,0
371,274,0,0,0,0,0,0,0,0,0,-1,1595,750,0,0
378,274,0,0,0,0,0,0,0,0,0,-1,1602,750,0,0
385,274,0,0,0,0,0,0,0,0,0,-1,1609,750,0,0
392,274,0,0,0,0,0,0,0,0,0,-1,1616,750,0,0
399,274,0,0,0,0,0,0,0,0,0,-1,1623,750,0,0
406,274,0,0,0,0,0,0,0,0,0,-1,1630,750,0,0
413,274,0,0,0,0,0,0,0,0,0,-1,1637,750,0,0
420,274,0,0,0,0,0,0,0,0,0,-1,1644,750,0,0
427,274,0,0,0,0,0,0,0,0,0,-1,1651,750,0,0
434,274,0,0,0,0,0,0,0,0,0,-1,1658,750,0,0
441,274,0,0,0,0,0,0,0,0,0,-1,1665,750,0,0
448,274,0,0,0,0,0,0,0,0,0,-1,1672,750,0,0
455,274,0,0,0,0,0,0,0,0,0,-1,1679,750,0,0
462,274,0,0,0,0,0,0,0,0,0,-1,1686,750,0,0
469,274,0,0,0,0,0,0,0,0,0,-1,1693,750,0,0
476,274,0,0,0,0,0,0,0,0,0,-1,1700,750,0,0
483,274,0,0,0,0,0,0,0,0,0,-1,1707,750,0,0
490,274,0,0,0,0,0,0,0,0,0,-1,1714,750,0,0
497,274,0,0,0,0,0,0,0,0,0,-1,1721,750,0,0
504,274,0,0,0,0,0,0,0,0,0,-1,1728,750,0,0
511,274,0,0,0,0,0,0,0,0,0,-1,1735,750,0,0
518,274,0,0,0,0,0,0,0,0,0,-1,1742,750,0,0
525,274,0,0,0,0,0,0,0,0,0,-1,1749,750,0,0
532,274,0,0,0,0,0,0,0,0,0,-1,1756,750,0,0
539,274,0,0,0,0,0,0,0,0,0,-1,1763,750,0,0
546,274,0,0,0,0,0,0,0,0,0,-1,1770,750,0,0
553,274,0,0,0,0,0,0,0,0,0,-1,1777,750,0,0
560,274,23.8073,3.02576,-0.0516242,0.0334688,0.00364682,0.0336248,-0.0517802,1.52804,0.0496786,0.0461278,1784,750,23.8072,-3.02578
567,274,23.4786,3.25244,-0.0308636,0.0279969,-0.000699806,0.0280052,-0.0308719,-1.55891,0.0340061,0.0417246,1791,750,23.4787,-3.25243
574,274,22.7156,3.35217,0,0,0,0,0,0,0,-1,1798,750,22.7155,-3.35217
581,274,23.2017,3.62,-0.00455931,0.0170371,-0.00275136,0.0173821,-0.00490432,-1.44605,0.0135226,0.0421034,1805,750,23.2016,-3.62001
588,274,23.623,3.58081,0.00196054,0.0126018,-0.00259985,0.013203,0.00135932,-1.34354,0.00838569,0.0426624,1812,750,23.623,-3.5808
595,274,24.0659,3.4093,0,0,0,0,0,0,0,-1,1819,750,24.0659,-3.40927
602,274,24.1482,3.06097,0,0,0,0,0,0,0,-1,1826,750,24.1482,-3.06096
609,274,24.4976,2.62067,0,0,0,0,0,0,0,-1,1833,750,24.4975,-2.62064
616,274,17.1586,1.82788,0,0,0,0,0,0,0,-1,1840,750,17.1585,-1.82785
623,274,16.1564,-0.183899,0,0,0,0,0,0,0,-1,1847,750,16.1563,0.18392
630,274,16.0276,0.0467529,0.0119266,-0.00433063,0.000914771,0.0119779,-0.00438194,0.0560327,0.00977886,0.0436131,1854,750,16.0276,-0.046771
637,274,15.8859,0.30188,0.00871164,-0.00507716,0.00128814,0.00883094,-0.00519647,0.0923547,0.00818884,0.0132312,1861,750,15.8858,-0.301888
644,274,15.9075,0.592468,0.00556282,-0.00521573,0.00122922,0.00570122,-0.00535414,0.112125,0.00638387,0.0111377,1868,750,15.9074,-0.592462
651,274,15.9119,0.886719,0.00344324,-0.00465162,0.000921702,0.00354686,-0.00475524,0.111953,0.00481011,0.0128499,1875,750,15.9118,-0.886705
658,274,15.9233,1.17969,0.00182673,-0.00341363,0.000449057,0.00186493,-0.00345183,0.0848676,0.00311488,0.0164075,1882,750,15.9234,-1.17971
665,274,15.9269,1.47748,0.000772653,-0.0018917,-0.000136206,0.000779598,-0.00189865,-0.0509447,0.00159064,0.0169933,1889,750,15.9268,-1.47747
672,274,15.9211,1.74506,0.00083114,-0.000801793,-0.000489608,0.000966689,-0.000937343,-0.270087,0.00109934,0.0136265,1896,750,15.9212,-1.74505
679,274,15.9069,2.01074,0.00138241,0.000317987,-0.000460982,0.0015543,0.000146101,-0.356902,0.000991093,0.013929,1903,750,15.9068,-2.01076
686,274,15.901,2.27997,0.00258029,0.00169702,4.82661e-06,0.00258031,0.001697,0.0054643,0.00151423,0.0155978,1910,750,15.901,-2.28
693,274,15.9015,2.54822,0.00409124,0.00306732,0.000450368,0.00426114,0.00289742,0.360741,0.00251273,0.0124635,1917,750,15.9015,-2.54824
700,274,15.9099,2.82855,0.00616997,0.00452509,0.00107288,0.00669937,0.00399568,0.458387,0.00389179,0.0136161,1924,750,15.9099,-2.82854
707,274,15.905,3.08429,0.00916003,0.00623207,0.00193289,0.0101208,0.00527132,0.461287,0.00584492,0.0200465,1931,750,15.9051,-3.08426
714,274,16.0697,3.32007,0.0130779,0.00857639,0.00299496,0.0145735,0.00708072,0.463165,0.00841516,0.0374559,1938,750,16.0698,-3.32009
721,274,16.5293,3.3443,0.0180326,0.0119744,0.00442914,0.0203694,0.00963758,0.485476,0.0117659,0.0467334,1945,750,16.5293,-3.34429
728,274,17.1139,3.14716,0,0,0,0,0,0,0,-1,1952,750,17.1139,-3.14718
735,274,17.6489,2.91949,0,0,0,0,0,0,0,-1,1959,750,17.6489,-2.91952
742,274,11.7815,-0.740234,0,0,0,0,0,0,0,-1,1966,750,11.7815,0.740253
749,274,0,0,0,0,0,0,0,0,0,-1,1973,750,0,0
756,274,0,0,0,0,0,0,0,0,0,-1,1980,750,0,0
763,274,0,0,0,0,0,0,0,0,0,-1,1987,750,0,0
770,274,0,0,0,0,0,0,0,0,0,-1,1994,750,0,0
777,274,0,0,0,0,0,0,0,0,0,-1,2001,750,0,0
784,274,0,0,0,0,0,0,0,0,0,-1,2008,750,0,0
791,274,0,0,0,0,0,0,0,0,0,-1,2015,750,0,0
798,274,0,0,0,0,0,0,0,0,0,-1,2022,750,0,0
805,274,0,0,0,0,0,0,0,0,0,-1,2029,750,0,0
812,274,0,0,0,0,0,0,0,0,0,-1,2036,750,0,0
-700,267,0,0,0,0,0,0,0,0,0,-1,524,757,0,0
-693,267,0,0,0,0,0,0,0,0,0,-1,531,757,0,0
-686,267,0,0,0,0,0,0,0,0,0,-1,538,757,0,0
-679,267,0,0,0,0,0,0,0,0,0,-1,545,757,0,0
-672,267,0,0,0,0,0,0,0,0,0,-1,552,757,0,0
-665,267,0,0,0,0,0,0,0,0,0,-1,559,757,0,0
-658,267,0,0,0,0,0,0,0,0,0,-1,566,757,0,0
-651,267,0,0,0,0,0,0,0,0,0,-1,573,757,0,0
-644,267,0,0,0,0,0,0,0,0,0,-1,580,757,0,0
-637,267,0,0,0,0,0,0,0,0,0,-1,587,757,0,0
-630,267,-11.3185,3.24921,0,0,0,0,0,0,0,-1,594,757,-11.3186,-3.2492
-623,267,-9.25531,2.49133,0,0,0,0,0,0,0,-1,601,757,-9.25528,-2.49134
-616,267,-10.8271,3.0011,0.0515745,0.00877575,-0.000319585,0.0515769,0.00877336,-0.00746659,0.0318653,0.0487162,608,757,-10.8272,-3.00112
-609,267,-10.0946,2.12152,0.0436693,0.00657247,-0.00120169,0.0437082,0.00653358,-0.0323481,0.0272235,0.0441618,615,757,-10.0946,-2.12153
-602,267,-9.4834,1.42975,0.0355831,0.00462946,-0.00152,0.0356575,0.004555,-0.0489486,0.0224082,0.0463101,622,757,-9.48342,-1.42972
-595,267,-9.6756,2.31592,0,0,0,0,0,0,0,-1,629,757,-9.67557,-2.31592
-588,267,-9.63019,1.72394,0.0208261,0.00216032,-0.00119025,0.0209017,0.00208473,-0.0634239,0.0132941,0.0435113,636,757,-9.63021,-1.72391
-581,267,-9.66138,1.07288,0.0148326,0.0019006,-0.000908896,0.0148961,0.00183703,-0.0698254,0.00937857,0.0277476,643,757,-9.66138,-1.07288
-574,267,-9.71466,0.755737,0.00991909,0.000848625,-0.000709432,0.00997424,0.000793473,-0.0775847,0.00640142,0.0149211,650,757,-9.71467,-0.75576
-567,267,-9.75677,0.508606,0.00599231,-0.000343496,-0.001054,0.00616305,-0.000514233,-0.160595,0.00429039,0.0227902,657,757,-9.75676,-0.50858
-560,267,-9.7608,0.263977,0.00234532,-0.00145034,-9.9799e-05,0.00234794,-0.00145296,-0.0262688,0.00221463,0.0221112,664,757,-9.76079,-0.26397
-553,267,-9.78473,0.0222168,-0.000632035,-0.00106036,0.000872668,5.23661e-05,-0.00174476,0.665071,0.00118101,0.0170359,671,757,-9.78475,-0.0222316
-546,267,-9.77625,-0.259705,-0.00203428,-0.00116423,0.00200331,0.000450744,-0.00364925,0.892315,0.00259616,0.0107091,678,757,-9.77623,0.259706
-539,267,-9.77118,-0.519653,-0.00245821,-0.00203174,0.0024065,0.000170952,-0.00466091,0.829586,0.00316579,0.00948998,685,757,-9.7712,0.519632
-532,267,-9.77277,-0.761841,-0.00297205,-0.00302761,0.0029783,-2.14032e-05,-0.00597826,0.780734,0.00397839,0.0102108,692,757,-9.77279,0.761812
-525,267,-9.78192,-1.02081,-0.00273523,-0.00321601,0.00386886,0.000900701,-0.00685195,0.754371,0.00489589,0.0104626,699,757,-9.78192,1.02082
-518,267,-9.78143,-1.28522,-0.00175435,-0.0029681,0.00516446,0.00283877,-0.00756123,0.726911,0.00620736,0.0109424,706,757,-9.78146,1.28521
-511,267,-9.79846,-1.5636,-0.000513705,-0.00269961,0.00657313,0.00505672,-0.00827003,0.703014,0.0077684,0.0148795,713,757,-9.79846,1.56357
-504,267,-9.87317,-1.7973,0.0019501,-0.00182003,0.00825899,0.00853642,-0.00840636,0.673198,0.00978201,0.0285895,720,757,-9.87319,1.79729
-497,267,-9.97797,-1.99152,0.00562786,-0.000168558,0.0103577,0.0134852,-0.0080259,0.648981,0.0125521,0.0498378,727,757,-9.97794,1.99154
-490,267,-10.0719,-2.19403,0,0,0,0,0,0,0,-1,734,757,-10.0719,2.19406
-483,267,-15.7926,1.4035,0,0,0,0,0,0,0,-1,741,757,-15.7926,-1.40348
-476,267,-15.1786,1.86786,0.0273662,0.0101972,0.0189411,0.0395773,-0.0020139,0.572633,0.0270811,0.0418753,748,757,-15.1787,-1.86788
-469,267,-14.6525,2.33228,0.038563,0.0149463,0.0228936,0.0525142,0.000995111,0.547297,0.0346825,0.0450155,755,757,-14.6525,-2.3323
-462,267,-14.1619,2.78625,0,0,0,0,0,0,0,-1,762,757,-14.1619,-2.78623
-455,267,-16.6069,0.927551,0.0592459,0.0225455,0.0312688,0.0771512,0.00464012,0.52005,0.0499593,0.0495631,769,757,-16.6069,-0.927523
-448,267,-16.3734,1.11554,0,0,0,0,0,0,0,-1,776,757,-16.3733,-1.11553
-441,267,0,0,0,0,0,0,0,0,0,-1,783,757,0,0
-434,267,0,0,0,0,0,0,0,0,0,-1,790,757,0,0
-427,267,0,0,0,0,0,0,0,0,0,-1,797,757,0,0
-420,267,0,0,0,0,0,0,0,0,0,-1,804,757,0,0
-413,267,0,0,0,0,0,0,0,0,0,-1,811,757,0,0
-406,267,0,0,0,0,0,0,0,0,0,-1,818,757,0,0
-399,267,0,0,0,0,0,0,0,0,0,-1,825,757,0,0
-392,267,0,0,0,0,0,0,0,0,0,-1,832,757,0,0
-385,267,0,0,0,0,0,0,0,0,0,-1,839,757,0,0
-378,267,0,0,0,0,0,0,0,0,0,-1,846,757,0,0
-371,267,0,0,0,0,0,0,0,0,0,-1,853,757,0,0
-364,267,0,0,0,0,0,0,0,0,0,-1,860,757,0,0
-357,267,0,0,0,0,0,0,0,0,0,-1,867,757,0,0
-350,267,0,0,0,0,0,0,0,0,0,-1,874,757,0,0
-343,267,0,0,0,0,0,0,0,0,0,-1,881,757,0,0
-336,267,0,0,0,0,0,0,0,0,0,-1,888,757,0,0
-329,267,0,0,0,0,0,0,0,0,0,-1,895,757,0,0
-322,267,0,0,0,0,0,0,0,0,0,-1,902,757,0,0
-315,267,0,0,0,0,0,0,0,0,0,-1,909,757,0,0
-308,267,0,0,0,0,0,0,0,0,0,-1,916,757,0,0
-301,267,0,0,0,0,0,0,0,0,0,-1,923,757,0,0
-294,267,0,0,0,0,0,0,0,0,0,-1,930,757,0,0
-287,267,0,0,0,0,0,0,0,0,0,-1,937,757,0,0
-280,267,0,0,0,0,0,0,0,0,0,-1,944,757,0,0
-273,267,0,0,0,0,0,0,0,0,0,-1,951,757,0,0
-266,267,0,0,0,0,0,0,0,0,0,-1,958,757,0,0
-259,267,0,0,0,0,0,0,0,0,0,-1,965,757,0,0
-252,267,0,0,0,0,0,0,0,0,0,-1,972,757,0,0
-245,267,0,0,0,0,0,0,0,0,0,-1,979,757,0,0
-238,267,0,0,0,0,0,0,0,0,0,-1,986,757,0,0
-231,267,0,0,0,0,0,0,0,0,0,-1,993,757,0,0
-224,267,0,0,0,0,0,0,0,0,0,-1,1000,757,0,0
-217,267,0,0,0,0,0,0,0,0,0,-1,1007,757,0,0
-210,267,0,0,0,0,0,0,0,0,0,-1,1014,757,0,0
-203,267,0,0,0,0,0,0,0,0,0,-1,1021,757,0,0
-196,267,0,0,0,0,0,0,0,0,0,-1,1028,757,0,0
-189,267,0,0,0,0,0,0,0,0,0,-1,1035,757,0,0
-182,267,0,0,0,0,0,0,0,0,0,-1,1042,757,0,0
-175,267,0,0,0,0,0,0,0,0,0,-1,1049,757,0,0
-168,267,0,0,0,0,0,0,0,0,0,-1,1056,757,0,0
-161,267,0,0,0,0,0,0,0,0,0,-1,1063,757,0,0
-154,267,0,0,0,0,0,0,0,0,0,-1,1070,757,0,0
-147,267,0,0,0,0,0,0,0,0,0,-1,1077,757,0,0
-140,267,0,0,0,0,0,0,0,0,0,-1,1084,757,0,0
-133,267,0,0,0,0,0,0,0,0,0,-1,1091,757,0,0
-126,267,0,0,0,0,0,0,0,0,0,-1,1098,757,0,0
-119,267,0,0,0,0,0,0,0,0,0,-1,1105,757,0,0
-112,267,0,0,0,0,0,0,0,0,0,-1,1112,757,0,0
-105,267,0,0,0,0,0,0,0,0,0,-1,1119,757,0,0
-98,267,0,0,0,0,0,0,0,0,0,-1,1126,757,0,0
-91,267,0,0,0,0,0,0,0,0,0,-1,1133,757,0,0
-84,267,0,0,0,0,0,0,0,0,0,-1,1140,757,0,0
-77,267,0,0,0,0,0,0,0,0,0,-1,1147,757,0,0
-70,267,0,0,0,0,0,0,0,0,0,-1,1154,757,0,0
-63,267,0,0,0,0,0,0,0,0,0,-1,1161,757,0,0
-56,267,0,0,0,0,0,0,0,0,0,-1,1168,757,0,0
-49,267,0,0,0,0,0,0,0,0,0,-1,1175,757,0,0
-42,267,0,0,0,0,0,0,0,0,0,-1,1182,757,0,0
-35,267,0,0,0,0,0,0,0,0,0,-1,1189,757,0,0
-28,267,0,0,0,0,0,0,0,0,0,-1,1196,757,0,0
-21,267,0,0,0,0,0,0,0,0,0,-1,1203,757,0,0
-14,267,0,0,0,0,0,0,0,0,0,-1,1210,757,0,0
-7,267,0,0,0,0,0,0,0,0,0,-1,1217,757,0,0
0,267,0,0,0,0,0,0,0,0,0,-1,1224,757,0,0
7,267,0,0,0,0,0,0,0,0,0,-1,1231,757,0,0
14,267,0,0,0,0,0,0,0,0,0,-1,1238,757,0,0
21,267,0,0,0,0,0,0,0,0,0,-1,1245,757,0,0
28,267,0,0,0,0,0,0,0,0,0,-1,1252,757,0,0
35,267,0,0,0,0,0,0,0,0,0,-1,1259,757,0,0
42,267,0,0,0,0,0,0,0,0,0,-1,1266,757,0,0
49,267,0,0,0,0,0,0,0,0,0,-1,1273,757,0,0
56,267,0,0,0,0,0,0,0,0,0,-1,1280,757,0,0
63,267,0,0,0,0,0,0,0,0,0,-1,1287,757,0,0
70,267,0,0,0,0,0,0,0,0,0,-1,1294,757,0,0
77,267,0,0,0,0,0,0,0,0,0,-1,1301,757,0,0
84,267,0,0,0,0,0,0,0,0,0,-1,1308,757,0,0
91,267,0,0,0,0,0,0,0,0,0,-1,1315,757,0,0
98,267,0,0,0,0,0,0,0,0,0,-1,1322,757,0,0
105,267,0,0,0,0,0,0,0,0,0,-1,1329,757,0,0
112,267,0,0,0,0,0,0,0,0,0,-1,1336,757,0,0
119,267,0,0,0,0,0,0,0,0,0,-1,1343,757,0,0
126,267,0,0,0,0,0,0,0,0,0,-1,1350,757,0,0
133,267,0,0,0,0,0,0,0,0,0,-1,1357,757,0,0
140,267,0,0,0,0,0,0,0,0,0,-1,1364,757,0,0
147,267,0,0,0,0,0,0,0,0,0,-1,1371,757,0,0
154,267,0,0,0,0,0,0,0,0,0,-1,1378,757,0,0
161,267,0,0,0,0,0,0,0,0,0,-1,1385,757,0,0
168,267,0,0,0,0,0,0,0,0,0,-1,1392,757,0,0
175,267,0,0,0,0,0,0,0,0,0,-1,1399,757,0,0
182,267,0,0,0,0,0,0,0,0,0,-1,1406,757,0,0
189,267,0,0,0,0,0,0,0,0,0,-1,1413,757,0,0
196,267,0,0,0,0,0,0,0,0,0,-1,1420,757,0,0
203,267,0,0,0,0,0,0,0,0,0,-1,1427,757,0,0
210,267,0,0,0,0,0,0,0,0,0,-1,1434,757,0,0
217,267,0,0,0,0,0,0,0,0,0,-1,1441,757,0,0
224,267,0,0,0,0,0,0,0,0,0,-1,1448,757,0,0
231,267,0,0,0,0,0,0,0,0,0,-1,1455,757,0,0
238,267,0,0,0,0,0,0,0,0,0,-1,1462,757,0,0
245,267,0,0,0,0,0,0,0,0,0,-1,1469,757,0,0
252,267,0,0,0,0,0,0,0,0,0,-1,1476,757,0,0
259,267,0,0,0,0,0,0,0,0,0,-1,1483,757,0,0
266,267,0,0,0,0,0,0,0,0,0,-1,1490,757,0,0
273,267,0,0,0,0,0,0,0,0,0,-1,1497,757,0,0
280,267,0,0,0,0,0,0,0,0,0,-1,1504,757,0,0
287,267,0,0,0,0,0,0,0,0,0,-1,1511,757,0,0
294,267,0,0,0,0,0,0,0,0,0,-1,1518,757,0,0
301,267,0,0,0,0,0,0,0,0,0,-1,1525,757,0,0
308,267,0,0,0,0,0,0,0,0,0,-1,1532,757,0,0
315,267,0,0,0,0,0,0,0,0,0,-1,1539,757,0,0
322,267,0,0,0,0,0,0,0,0,0,-1,1546,757,0,0
329,267,0,0,0,0,0,0,0,0,0,-1,1553,757,0,0
336,267,0,0,0,0,0,0,0,0,0,-1,1560,757,0,0
343,267,0,0,0,0,0,0,0,0,0,-1,1567,757,0,0
350,267,0,0,0,0,0,0,0,0,0,-1,1574,757,0,0
357,267,0,0,0,0,0,0,0,0,0,-1,1581,757,0,0
364,267,0,0,0,0,0,0,0,0,0,-1,1588,757,0,0
371,267,0,0,0,0,0,0,0,0,0,-1,1595,757,0,0
378,267,0,0,0,0,0,0,0,0,0,-1,1602,757,0,0
385,267,0,0,0,0,0,0,0,0,0,-1,1609,757,0,0
392,267,0,0,0,0,0,0,0,0,0,-1,1616,757,0,0
399,267,0,0,0,0,0,0,0,0,0,-1,1623,757,0,0
406,267,0,0,0,0,0,0,0,0,0,-1,1630,757,0,0
413,267,0,0,0,0,0,0,0,0,0,-1,1637,757,0,0
420,267,0,0,0,0,0,0,0,0,0,-1,1644,757,0,0
427,267,0,0,0,0,0,0,0,0,0,-1,1651,757,0,0
434,267,0,0,0,0,0,0,0,0,0,-1,1658,757,0,0
441,267,0,0,0,0,0,0,0,0,0,-1,1665,757,0,0
448,267,0,0,0,0,0,0,0,0,0,-1,1672,757,0,0
455,267,0,0,0,0,0,0,0,0,0,-1,1679,757,0,0
462,267,0,0,0,0,0,0,0,0,0,-1,1686,757,0,0
469,267,0,0,0,0,0,0,0,0,0,-1,1693,757,0,0
476,267,0,0,0,0,0,0,0,0,0,-1,1700,757,0,0
483,267,0,0,0,0,0,0,0,0,0,-1,1707,757,0,0
490,267,0,0,0,0,0,0,0,0,0,-1,1714,757,0,0
497,267,0,0,0,0,0,0,0,0,0,-1,1721,757,0,0
504,267,0,0,0,0,0,0,0,0,0,-1,1728,757,0,0
511,267,0,0,0,0,0,0,0,0,0,-1,1735,757,0,0
518,267,0,0,0,0,0,0,0,0,0,-1,1742,757,0,0
525,267,0,0,0,0,0,0,0,0,0,-1,1749,757,0,0
532,267,0,0,0,0,0,0,0,0,0,-1,1756,757,0,0
539,267,0,0,0,0,0,0,0,0,0,-1,1763,757,0,0
546,267,0,0,0,0,0,0,0,0,0,-1,1770,757,0,0
553,267,0,0,0,0,0,0,0,0,0,-1,1777,757,0,0
560,267,0,0,0,0,0,0,0,0,0,-1,1784,757,0,0
567,267,23.8723,2.9834,-0.0321947,0.0265088,-0.000691057,0.0265169,-0.0322029,-1.55903,0.0339548,0.0376434,1791,757,23.8724,-2.98342
574,267,23.774,3.05322,-0.0135476,0.0208214,-0.00279042,0.0210465,-0.0137727,-1.49031,0.0202486,0.0411926,1798,757,23.774,-3.05325
581,267,23.4562,3.25769,-0.000990329,0.0155215,-0.00262712,0.0159294,-0.00139824,-1.41676,0.011115,0.0408577,1805,757,23.4562,-3.25769
588,267,23.7057,3.24554,0.00595577,0.0108473,-0.00217025,0.0116713,0.00513172,-1.2079,0.00675478,0.0447826,1812,757,23.7057,-3.24552
595,267,23.9615,3.00305,0.0101213,0.00690584,-0.00152768,0.0107314,0.00629578,-0.379935,0.00622672,0.046726,1819,757,23.9616,-3.00302
602,267,24.1947,2.47125,0.0123979,0.00353793,-0.000767713,0.0124639,0.0034719,-0.0857973,0.00742759,0.0449401,1826,757,24.1947,-2.47125
609,267,24.579,2.05927,0.013542,0.000496788,-0.000145283,0.0135437,0.00049517,-0.011135,0.00886866,0.0455619,1833,757,24.579,-2.05925
616,267,24.9537,1.70013,0,0,0,0,0,0,0,-1,1840,757,24.9537,-1.70011
623,267,16.5149,0.0222168,0,0,0,0,0,0,0,-1,1847,757,16.5149,-0.0222387
630,267,16.3635,0.262512,0.0118781,-0.00506588,0.00139747,0.0119925,-0.00518036,0.0817399,0.0101715,0.0449338,1854,757,16.3635,-0.262536
637,267,16.2052,0.358032,0.00873377,-0.00577128,0.00162406,0.00891338,-0.00595089,0.110148,0.00863852,0.0254159,1861,757,16.2052,-0.358008
644,267,16.1915,0.600647,0.00564664,-0.0059377,0.00147473,0.00583143,-0.00612249,0.124655,0.00690228,0.0114551,1868,757,16.1916,-0.600629
651,267,16.1862,0.889465,0.00352452,-0.0054595,0.00109543,0.00365615,-0.00559113,0.119597,0.00537774,0.0136576,1875,757,16.1862,-0.889465
658,267,16.1887,1.18732,0.00186225,-0.00427918,0.000540732,0.0019095,-0.00432642,0.087153,0.00368935,0.0146693,1882,757,16.1887,-1.18729
665,267,16.2062,1.47717,0.000727922,-0.00275294,-0.000137519,0.000733347,-0.00275836,-0.0394251,0.00212595,0.0157018,1889,757,16.2062,-1.47717
672,267,16.2163,1.74084,0.000724876,-0.00164456,-0.000577296,0.000858045,-0.00177773,-0.226712,0.00155234,0.0139103,1896,757,16.2163,-1.74082
679,267,16.1877,2.01361,0.00128583,-0.000490132,-0.000609612,0.00147494,-0.000679248,-0.300809,0.00127169,0.0123932,1903,757,16.1878,-2.0136
686,267,16.1978,2.30182,0.00259681,0.00101449,-8.72748e-05,0.00260161,0.00100969,-0.0549341,0.00151453,0.0127151,1910,757,16.1977,-2.30182
693,267,16.1973,2.54474,0.00410153,0.00243499,0.000461051,0.00422058,0.00231594,0.252687,0.00244061,0.012912,1917,757,16.1973,-2.54474
700,267,16.1904,2.81134,0.00595537,0.00385197,0.00113729,0.0064527,0.00335464,0.412241,0.00372645,0.0142895,1924,757,16.1905,-2.81131
707,267,16.1897,3.07324,0.00851185,0.00552352,0.00200716,0.00951993,0.00451544,0.465439,0.00549875,0.0136084,1931,757,16.1897,-3.07325
714,267,16.2933,3.2641,0.0117574,0.00775405,0.00305367,0.013407,0.00610448,0.495283,0.00775081,0.025188,1938,757,16.2933,-3.26409
721,267,16.6246,3.26556,0.0157327,0.0109451,0.0044157,0.0183617,0.00831608,0.537018,0.0106168,0.0418986,1945,757,16.6246,-3.26557
728,267,16.8916,3.15826,0,0,0,0,0,0,0,-1,1952,757,16.8916,-3.15825
735,267,16.7356,5.51239,0,0,0,0,0,0,0,-1,1959,757,16.7355,-5.5124
742,267,16.1127,4.81091,0,0,0,0,0,0,0,-1,1966,757,16.1127,-4.81091
749,267,0,0,0,0,0,0,0,0,0,-1,1973,757,0,0
756,267,0,0,0,0,0,0,0,0,0,-1,1980,757,0,0
763,267,0,0,0,0,0,0,0,0,0,-1,1987,757,0,0
770,267,0,0,0,0,0,0,0,0,0,-1,1994,757,0,0
777,267,0,0,0,0,0,0,0,0,0,-1,2001,757,0,0
784,267,0,0,0,0,0,0,0,0,0,-1,2008,757,0,0
791,267,0,0,0,0,0,0,0,0,0,-1,2015,757,0,0
798,267,0,0,0,0,0,0,0,0,0,-1,2022,757,0,0
805,267,0,0,0,0,0,0,0,0,0,-1,2029,757,0,0
812,267,0,0,0,0,0,0,0,0,0,-1,2036,757,0,0
-700,260,0,0,0,0,0,0,0,0,0,-1,524,764,0,0
-693,260,0,0,0,0,0,0,0,0,0,-1,531,764,0,0
-686,260,0,0,0,0,0,0,0,0,0,-1,538,764,0,0
-679,260,0,0,0,0,0,0,0,0,0,-1,545,764,0,0
-672,260,0,0,0,0,0,0,0,0,0,-1,552,764,0,0
-665,260,0,0,0,0,0,0,0,0,0,-1,559,764,0,0
-658,260,0,0,0,0,0,0,0,0,0,-1,566,764,0,0
-651,260,0,0,0,0,0,0,0,0,0,-1,573,764,0,0
-644,260,0,0,0,0,0,0,0,0,0,-1,580,764,0,0
-637,260,0,0,0,0,0,0,0,0,0,-1,587,764,0,0
-630,260,-10.0422,1.79163,0,0,0,0,0,0,0,-1,594,764,-10.0423,-1.79163
-623,260,-9.95135,2.12836,0.0421143,0.00627305,0.0149255,0.0475157,0.000871608,0.347231,0.0313907,0.0476798,601,764,-9.95136,-2.12836
-616,260,-9.97205,2.21942,0.0397485,0.00644524,0.00990646,0.0424725,0.00372125,0.268339,0.0271597,0.0476655,608,764,-9.97203,-2.21943
-609,260,-9.57941,2.12225,0,0,0,0,0,0,0,-1,615,764,-9.5794,-2.12227
-602,260,-9.4953,1.69202,0,0,0,0,0,0,0,-1,622,764,-9.4953,-1.69199
-595,260,-9.96655,2.0155,0,0,0,0,0,0,0,-1,629,764,-9.96654,-2.01548
-588,260,-9.98767,1.46936,0.0179172,0.00248725,0.00140978,0.018045,0.0023595,0.0903696,0.0113257,0.0396357,636,764,-9.98766,-1.46938
-581,260,-9.9809,0.970337,0.0131674,0.00233052,0.000704901,0.0132131,0.00228486,0.0646831,0.00815452,0.0217027,643,764,-9.98089,-0.970329
-574,260,-10.0076,0.73407,0.00900468,0.0010099,0.000158054,0.00900781,0.00100678,0.0197593,0.00569933,0.0146363,650,764,-10.0076,-0.73405
-567,260,-10.0343,0.521729,0.00550186,-0.000349292,-0.000594033,0.00556155,-0.000408992,-0.100162,0.00385128,0.0156234,657,764,-10.0343,-0.521742
-560,260,-10.0411,0.291321,0.00211187,-0.00156909,3.49421e-05,0.0021122,-0.00156942,0.00949152,0.00213327,0.0179863,664,764,-10.0411,-0.291338
-553,260,-10.0479,0.0363159,-0.000706701,-0.00138989,0.000868676,-0.000114868,-0.00198172,0.598068,0.00128457,0.0164494,671,764,-10.0479,-0.0363228
-546,260,-10.0461,-0.23291,-0.00215066,-0.00164152,0.00198193,0.00010212,-0.0038943,0.849272,0.0026309,0.0106389,678,764,-10.0461,0.232923
-539,260,-10.0313,-0.499878,-0.00285728,-0.00263027,0.00250172,-0.000239486,-0.00524807,0.808068,0.00342168,0.0103309,685,764,-10.0313,0.499877
-532,260,-10.0321,-0.736816,-0.00363829,-0.00366661,0.0031792,-0.000473225,-0.00683168,0.783171,0.00440519,0.013394,692,764,-10.0321,0.73683
-525,260,-10.0339,-1.00232,-0.0035622,-0.00376785,0.00409642,0.000432686,-0.00776273,0.77285,0.00532525,0.0125512,699,764,-10.0338,1.0023
-518,260,-10.0423,-1.27344,-0.00278323,-0.0033828,0.00535649,0.00228186,-0.00844789,0.757444,0.00652689,0.0128772,706,764,-10.0423,1.27342
-511,260,-10.0688,-1.51514,-0.0017761,-0.00300664,0.00668897,0.00432584,-0.00910858,0.739536,0.00791851,0.0216198,713,764,-10.0689,1.51513
-504,260,-10.1716,-1.65149,0.000486767,-0.0019933,0.00824956,0.00758897,-0.00909551,0.710799,0.00964587,0.0409871,720,764,-10.1716,1.65152
-497,260,-10.2703,-1.81213,0,0,0,0,0,0,0,-1,727,764,-10.2703,1.81213
-490,260,-10.3996,-0.765442,0,0,0,0,0,0,0,-1,734,764,-10.3996,0.765432
-483,260,-16.0519,1.43073,0,0,0,0,0,0,0,-1,741,764,-16.0519,-1.43073
-476,260,-15.4407,1.88849,0.025444,0.0109711,0.0186919,0.0382513,-0.00183619,0.600711,0.0261344,0.0418603,748,764,-15.4408,-1.88848
-469,260,-15.074,2.31128,0.0361983,0.0161048,0.0226535,0.0509329,0.00137014,0.576682,0.0335079,0.0441679,755,764,-15.074,-2.31126
-462,260,-14.6992,2.57556,0,0,0,0,0,0,0,-1,762,764,-14.6992,-2.57555
-455,260,-16.5546,0.931396,0,0,0,0,0,0,0,-1,769,764,-16.5546,-0.93137
-448,260,0,0,0,0,0,0,0,0,0,-1,776,764,0,0
-441,260,0,0,0,0,0,0,0,0,0,-1,783,764,0,0
-434,260,0,0,0,0,0,0,0,0,0,-1,790,764,0,0
-427,260,0,0,0,0,0,0,0,0,0,-1,797,764,0,0
-420,260,0,0,0,0,0,0,0,0,0,-1,804,764,0,0
-413,260,0,0,0,0,0,0,0,0,0,-1,811,764,0,0
-406,260,0,0,0,0,0,0,0,0,0,-1,818,764,0,0
-399,260,0,0,0,0,0,0,0,0,0,-1,825,764,0,0
-392,260,0,0,0,0,0,0,0,0,0,-1,832,764,0,0
-385,260,0,0,0,0,0,0,0,0,0,-1,839,764,0,0
-378,260,0,0,0,0,0,0,0,0,0,-1,846,764,0,0
-371,260,0,0,0,0,0,0,0,0,0,-1,853,764,0,0
-364,260,0,0,0,0,0,0,0,0,0,-1,860,764,0,0
-357,260,0,0,0,0,0,0,0,0,0,-1,867,764,0,0
-350,260,0,0,0,0,0,0,0,0,0,-1,874,764,0,0
-343,260,0,0,0,0,0,0,0,0,0,-1,881,764,0,0
-336,260,0,0,0,0,0,0,0,0,0,-1,888,764,0,0
-329,260,0,0,0,0,0,0,0,0,0,-1,895,764,0,0
-322,260,0,0,0,0,0,0,0,0,0,-1,902,764,0,0
-315,260,0,0,0,0,0,0,0,0,0,-1,909,764,0,0
-308,260,0,0,0,0,0,0,0,0,0,-1,916,764,0,0
-301,260,0,0,0,0,0,0,0,0,0,-1,923,764,0,0
-294,260,0,0,0,0,0,0,0,0,0,-1,930,764,0,0
-287,260,0,0,0,0,0,0,0,0,0,-1,937,764,0,0
-280,260,0,0,0,0,0,0,0,0,0,-1,944,764,0,0
-273,260,0,0,0,0,0,0,0,0,0,-1,951,764,0,0
-266,260,0,0,0,0,0,0,0,0,0,-1,958,764,0,0
-259,260,0,0,0,0,0,0,0,0,0,-1,965,764,0,0
-252,260,0,0,0,0,0,0,0,0,0,-1,972,764,0,0
-245,260,0,0,0,0,0,0,0,0,0,-1,979,764,0,0
-238,260,0,0,0,0,0,0,0,0,0,-1,986,764,0,0
-231,260,0,0,0,0,0,0,0,0,0,-1,993,764,0,0
-224,260,0,0,0,0,0,0,0,0,0,-1,1000,764,0,0
-217,260,0,0,0,0,0,0,0,0,0,-1,1007,764,0,0
-210,260,0,0,0,0,0,0,0,0,0,-1,1014,764,0,0
-203,260,0,0,0,0,0,0,0,0,0,-1,1021,764,0,0
-196,260,0,0,0,0,0,0,0,0,0,-1,1028,764,0,0
-189,260,0,0,0,0,0,0,0,0,0,-1,1035,764,0,0
-182,260,0,0,0,0,0,0,0,0,0,-1,1042,764,0,0
-175,260,0,0,0,0,0,0,0,0,0,-1,1049,764,0,0
-168,260,0,0,0,0,0,0,0,0,0,-1,1056,764,0,0
-161,260,0,0,0,0,0,0,0,0,0,-1,1063,764,0,0
-154,260,0,0,0,0,0,0,0,0,0,-1,1070,764,0,0
-147,260,0,0,0,0,0,0,0,0,0,-1,1077,764,0,0
-140,260,0,0,0,0,0,0,0,0,0,-1,1084,764,0,0
-133,260,0,0,0,0,0,0,0,0,0,-1,1091,764,0,0
-126,260,0,0,0,0,0,0,0,0,0,-1,1098,764,0,0
-119,260,0,0,0,0,0,0,0,0,0,-1,1105,764,0,0
-112,260,0,0,0,0,0,0,0,0,0,-1,1112,764,0,0
-105,260,0,0,0,0,0,0,0,0,0,-1,1119,764,0,0
-98,260,0,0,0,0,0,0,0,0,0,-1,1126,764,0,0
-91,260,0,0,0,0,0,0,0,0,0,-1,1133,764,0,0
-84,260,0,0,0,0,0,0,0,0,0,-1,1140,764,0,0
-77,260,0,0,0,0,0,0,0,0,0,-1,1147,764,0,0
-70,260,0,0,0,0,0,0,0,0,0,-1,1154,764,0,0
-63,260,0,0,0,0,0,0,0,0,0,-1,1161,764,0,0
-56,260,0,0,0,0,0,0,0,0,0,-1,1168,764,0,0
-49,260,0,0,0,0,0,0,0,0,0,-1,1175,764,0,0
-42,260,0,0,0,0,0,0,0,0,0,-1,1182,764,0,0
-35,260,0,0,0,0,0,0,0,0,0,-1,1189,764,0,0
-28,260,0,0,0,0,0,0,0,0,0,-1,1196,764,0,0
-21,260,0,0,0,0,0,0,0,0,0,-1,1203,764,0,0
-14,260,0,0,0,0,0,0,0,0,0,-1,1210,764,0,0
-7,260,0,0,0,0,0,0,0,0,0,-1,1217,764,0,0
0,260,0,0,0,0,0,0,0,0,0,-1,1224,764,0,0
7,260,0,0,0,0,0,0,0,0,0,-1,1231,764,0,0
14,260,0,0,0,0,0,0,0,0,0,-1,1238,764,0,0
21,260,0,0,0,0,0,0,0,0,0,-1,1245,764,0,0
28,260,0,0,0,0,0,0,0,0,0,-1,1252,764,0,0
35,260,0,0,0,0,0,0,0,0,0,-1,1259,764,0,0
42,260,0,0,0,0,0,0,0,0,0,-1,1266,764,0,0
49,260,0,0,0,0,0,0,0,0,0,-1,1273,764,0,0
56,260,0,0,0,0,0,0,0,0,0,-1,1280,764,0,0
63,260,0,0,0,0,0,0,0,0,0,-1,1287,764,0,0
70,260,0,0,0,0,0,0,0,0,0,-1,1294,764,0,0
77,260,0,0,0,0,0,0,0,0,0,-1,1301,764,0,0
84,260,0,0,0,0,0,0,0,0,0,-1,1308,764,0,0
91,260,0,0,0,0,0,0,0,0,0,-1,1315,764,0,0
98,260,0,0,0,0,0,0,0,0,0,-1,1322,764,0,0
105,260,0,0,0,0,0,0,0,0,0,-1,1329,764,0,0
112,260,0,0,0,0,0,0,0,0,0,-1,1336,764,0,0
119,260,0,0,0,0,0,0,0,0,0,-1,1343,764,0,0
126,260,0,0,0,0,0,0,0,0,0,-1,1350,764,0,0
133,260,0,0,0,0,0,0,0,0,0,-1,1357,764,0,0
140,260,0,0,0,0,0,0,0,0,0,-1,1364,764,0,0
147,260,0,0,0,0,0,0,0,0,0,-1,1371,764,0,0
154,260,0,0,0,0,0,0,0,0,0,-1,1378,764,0,0
161,260,0,0,0,0,0,0,0,0,0,-1,1385,764,0,0
168,260,0,0,0,0,0,0,0,0,0,-1,1392,764,0,0
175,260,0,0,0,0,0,0,0,0,0,-1,1399,764,0,0
182,260,0,0,0,0,0,0,0,0,0,-1,1406,764,0,0
189,260,0,0,0,0,0,0,0,0,0,-1,1413,764,0,0
196,260,0,0,0,0,0,0,0,0,0,-1,1420,764,0,0
203,260,0,0,0,0,0,0,0,0,0,-1,1427,764,0,0
210,260,0,0,0,0,0,0,0,0,0,-1,1434,764,0,0
217,260,0,0,0,0,0,0,0,0,0,-1,1441,764,0,0
224,260,0,0,0,0,0,0,0,0,0,-1,1448,764,0,0
231,260,0,0,0,0,0,0,0,0,0,-1,1455,764,0,0
238,260,0,0,0,0,0,0,0,0,0,-1,1462,764,0,0
245,260,0,0,0,0,0,0,0,0,0,-1,1469,764,0,0
252,260,0,0,0,0,0,0,0,0,0,-1,1476,764,0,0
259,260,0,0,0,0,0,0,0,0,0,-1,1483,764,0,0
266,260,0,0,0,0,0,0,0,0,0,-1,1490,764,0,0
273,260,0,0,0,0,0,0,0,0,0,-1,1497,764,0,0
280,260,0,0,0,0,0,0,0,0,0,-1,1504,764,0,0
287,260,0,0,0,0,0,0,0,0,0,-1,1511,764,0,0
294,260,0,0,0,0,0,0,0,0,0,-1,1518,764,0,0
301,260,0,0,0,0,0,0,0,0,0,-1,1525,764,0,0
308,260,0,0,0,0,0,0,0,0,0,-1,1532,764,0,0
315,260,0,0,0,0,0,0,0,0,0,-1,1539,764,0,0
322,260,0,0,0,0,0,0,0,0,0,-1,1546,764,0,0
329,260,0,0,0,0,0,0,0,0,0,-1,1553,764,0,0
336,260,0,0,0,0,0,0,0,0,0,-1,1560,764,0,0
343,260,0,0,0,0,0,0,0,0,0,-1,1567,764,0,0
350,260,0,0,0,0,0,0,0,0,0,-1,1574,764,0,0
357,260,0,0,0,0,0,0,0,0,0,-1,1581,764,0,0
364,260,0,0,0,0,0,0,0,0,0,-1,1588,764,0,0
371,260,0,0,0,0,0,0,0,0,0,-1,1595,764,0,0
378,260,0,0,0,0,0,0,0,0,0,-1,1602,764,0,0
385,260,0,0,0,0,0,0,0,0,0,-1,1609,764,0,0
392,260,0,0,0,0,0,0,0,0,0,-1,1616,764,0,0
399,260,0,0,0,0,0,0,0,0,0,-1,1623,764,0,0
406,260,0,0,0,0,0,0,0,0,0,-1,1630,764,0,0
413,260,0,0,0,0,0,0,0,0,0,-1,1637,764,0,0
420,260,0,0,0,0,0,0,0,0,0,-1,1644,764,0,0
427,260,0,0,0,0,0,0,0,0,0,-1,1651,764,0,0
434,260,0,0,0,0,0,0,0,0,0,-1,1658,764,0,0
441,260,0,0,0,0,0,0,0,0,0,-1,1665,764,0,0
448,260,0,0,0,0,0,0,0,0,0,-1,1672,764,0,0
455,260,0,0,0,0,0,0,0,0,0,-1,1679,764,0,0
462,260,0,0,0,0,0,0,0,0,0,-1,1686,764,0,0
469,260,0,0,0,0,0,0,0,0,0,-1,1693,764,0,0
476,260,0,0,0,0,0,0,0,0,0,-1,1700,764,0,0
483,260,0,0,0,0,0,0,0,0,0,-1,1707,764,0,0
490,260,0,0,0,0,0,0,0,0,0,-1,1714,764,0,0
497,260,0,0,0,0,0,0,0,0,0,-1,1721,764,0,0
504,260,0,0,0,0,0,0,0,0,0,-1,1728,764,0,0
511,260,0,0,0,0,0,0,0,0,0,-1,1735,764,0,0
518,260,0,0,0,0,0,0,0,0,0,-1,1742,764,0,0
525,260,0,0,0,0,0,0,0,0,0,-1,1749,764,0,0
532,260,0,0,0,0,0,0,0,0,0,-1,1756,764,0,0
539,260,0,0,0,0,0,0,0,0,0,-1,1763,764,0,0
546,260,0,0,0,0,0,0,0,0,0,-1,1770,764,0,0
553,260,0,0,0,0,0,0,0,0,0,-1,1777,764,0,0
560,260,0,0,0,0,0,0,0,0,0,-1,1784,764,0,0
567,260,0,0,0,0,0,0,0,0,0,-1,1791,764,0,0
574,260,23.8895,2.80164,-0.0155821,0.0197808,-0.00326289,0.0200793,-0.0158807,-1.47955,0.0208086,0.0372734,1798,764,23.8896,-2.80163
581,260,23.7648,3.00726,-4.80551e-05,0.0144464,-0.0025061,0.0148675,-0.00046913,-1.40433,0.0100717,0.0400048,1805,764,23.7648,-3.00724
588,260,23.9001,2.9563,0.00796645,0.00945319,-0.00156867,0.0104457,0.00697392,-1.00667,0.00614278,0.0431263,1812,764,23.9002,-2.95633
595,260,23.999,2.5733,0.0121821,0.00531423,-0.000657319,0.0122444,0.00525188,-0.0945655,0.0070931,0.0433083,1819,764,23.999,-2.57333
602,260,24.2854,2.30066,0.0140317,0.00190186,0.000208561,0.0140353,0.00189828,0.0171872,0.00879268,0.0413603,1826,764,24.2853,-2.30064
609,260,24.6226,2.65753,0.0145074,-0.000986553,0.000845649,0.0145534,-0.00103257,0.0543642,0.0100641,0.0384399,1833,764,24.6226,-2.65755
616,260,25.3215,2.50543,0,0,0,0,0,0,0,-1,1840,764,25.3216,-2.50543
623,260,26.7295,2.43903,0,0,0,0,0,0,0,-1,1847,764,26.7295,-2.43903
630,260,16.6791,0.484863,0,0,0,0,0,0,0,-1,1854,764,16.679,-0.484858
637,260,16.5215,0.337219,0.00799515,-0.00641385,0.00187323,0.0082347,-0.00665339,0.127188,0.00861179,0.0474132,1861,764,16.5215,-0.337191
644,260,16.5076,0.615784,0.00498623,-0.00650073,0.00158158,0.00520002,-0.00671451,0.134355,0.00689735,0.0242133,1868,764,16.5075,-0.61579
651,260,16.5056,0.89502,0.00287682,-0.00604186,0.00109767,0.00300993,-0.00617496,0.120676,0.00540683,0.0141397,1875,764,16.5056,-0.895007
658,260,16.4884,1.20642,0.00123114,-0.00489768,0.00046221,0.0012658,-0.00493235,0.0748516,0.00378145,0.0159279,1882,764,16.4885,-1.2064
665,260,16.4958,1.48688,0.000100548,-0.00339858,-0.000277075,0.000122352,-0.00342038,-0.0785319,0.00232211,0.016304,1889,764,16.4958,-1.48689
672,260,16.4978,1.75848,8.323e-05,-0.0023004,-0.000775333,0.000313232,-0.00253041,-0.28838,0.00180045,0.0140874,1896,764,16.4978,-1.75848
679,260,16.4769,2.01935,0.0006888,-0.00114601,-0.000853601,0.0010245,-0.00148171,-0.374693,0.00145496,0.0123186,1903,764,16.4769,-2.01933
686,260,16.484,2.28906,0.00212009,0.000455913,-0.00027036,0.00216291,0.000413093,-0.157078,0.00132587,0.0147023,1910,764,16.4841,-2.28908
693,260,16.4756,2.52893,0.00364446,0.00191027,0.000408197,0.00373573,0.00181899,0.219993,0.00215707,0.0146939,1917,764,16.4756,-2.52892
700,260,16.4438,2.80298,0.00531907,0.00329561,0.00113089,0.00582475,0.00278994,0.420477,0.00336391,0.0130448,1924,764,16.4438,-2.80296
707,260,16.4456,3.0625,0.00741289,0.00500962,0.00198618,0.00853264,0.00388987,0.513355,0.00493271,0.0128737,1931,764,16.4455,-3.0625
714,260,16.4738,3.30969,0.0100338,0.00719514,0.00299036,0.0119246,0.00530437,0.563823,0.00689861,0.0221161,1938,764,16.4738,-3.30968
721,260,16.5275,3.57123,0.0131428,0.0102553,0.00424783,0.0161855,0.00721254,0.621583,0.0093631,0.0415839,1945,764,16.5275,-3.57122
728,260,16.403,4.31653,0,0,0,0,0,0,0,-1,1952,764,16.403,-4.31652
735,260,15.6123,4.65582,0,0,0,0,0,0,0,-1,1959,764,15.6123,-4.65579
742,260,16.9983,6.15887,0,0,0,0,0,0,0,-1,1966,764,16.9982,-6.15886
749,260,20.894,2.95435,0,0,0,0,0,0,0,-1,1973,764,20.894,-2.95435
756,260,0,0,0,0,0,0,0,0,0,-1,1980,764,0,0
763,260,0,0,0,0,0,0,0,0,0,-1,1987,764,0,0
770,260,0,0,0,0,0,0,0,0,0,-1,1994,764,0,0
777,260,0,0,0,0,0,0,0,0,0,-1,2001,764,0,0
784,260,0,0,0,0,0,0,0,0,0,-1,2008,764,0,0
791,260,0,0,0,0,0,0,0,0,0,-1,2015,764,0,0
798,260,0,0,0,0,0,0,0,0,0,-1,2022,764,0,0
805,260,0,0,0,0,0,0,0,0,0,-1,2029,764,0,0
812,260,0,0,0,0,0,0,0,0,0,-1,2036,764,0,0
-700,253,0,0,0,0,0,0,0,0,0,-1,524,771,0,0
-693,253,0,0,0,0,0,0,0,0,0,-1,531,771,0,0
-686,253,0,0,0,0,0,0,0,0,0,-1,538,771,0,0
-679,253,0,0,0,0,0,0,0,0,0,-1,545,771,0,0
-672,253,0,0,0,0,0,0,0,0,0,-1,552,771,0,0
-665,253,0,0,0,0,0,0,0,0,0,-1,559,771,0,0
-658,253,0,0,0,0,0,0,0,0,0,-1,566,771,0,0
-651,253,0,0,0,0,0,0,0,0,0,-1,573,771,0,0
-644,253,0,0,0,0,0,0,0,0,0,-1,580,771,0,0
-637,253,-12.6042,3.14124,0,0,0,0,0,0,0,-1,587,771,-12.6042,-3.14124
-630,253,-10.7134,1.49133,0,0,0,0,0,0,0,-1,594,771,-10.7134,-1.49135
-623,253,-10.624,1.78949,0.0306369,-0.0003377,0.0204043,0.0407658,-0.0104666,0.460772,0.0312558,0.0469619,601,771,-10.624,-1.78948
-616,253,-10.4084,2.23163,0.0298218,0.00209285,0.0154724,0.0367328,-0.00481811,0.420076,0.0262424,0.0473824,608,771,-10.4085,-2.23161
-609,253,-10.0867,2.30072,0.027077,0.00291927,0.0112365,0.0314953,-0.00149908,0.374643,0.021514,0.0462746,615,771,-10.0867,-2.30075
-602,253,-10.0256,1.87433,0,0,0,0,0,0,0,-1,622,771,-10.0255,-1.87436
-595,253,-10.0392,1.54559,0.0189261,0.00267142,0.0051937,0.0204439,0.00115365,0.284316,0.0132614,0.0453032,629,771,-10.0392,-1.54559
-588,253,-10.197,1.23145,0.0149036,0.00260837,0.00334223,0.0157534,0.00175858,0.248982,0.00996792,0.0353468,636,771,-10.1969,-1.23144
-581,253,-10.2506,0.954224,0.0112751,0.0027619,0.00193785,0.0116955,0.00234155,0.213608,0.00714551,0.0205835,643,771,-10.2506,-0.95422
-574,253,-10.2846,0.723206,0.00780843,0.00129497,0.000797201,0.00790459,0.00119882,0.120033,0.00491905,0.0179019,650,771,-10.2846,-0.723235
-567,253,-10.3052,0.477234,0.00473159,-0.000148447,-0.000246772,0.00474404,-0.000160893,-0.0503963,0.00321766,0.0148958,657,771,-10.3052,-0.47723
-560,253,-10.2851,0.266296,0.00164975,-0.00144693,0.000116077,0.0016541,-0.00145127,0.0374142,0.00179416,0.0114866,664,771,-10.2851,-0.266303
-553,253,-10.2899,0.0145264,-0.000962864,-0.00147504,0.00083106,-0.000349332,-0.00208857,0.635941,0.00129178,0.0112767,671,771,-10.2899,-0.0145548
-546,253,-10.3062,-0.233765,-0.00241752,-0.00190181,0.00190128,-0.000240974,-0.00407835,0.852798,0.00264224,0.00995715,678,771,-10.3062,0.233735
-539,253,-10.2994,-0.490051,-0.00332565,-0.00302477,0.00249628,-0.000674397,-0.00567602,0.815494,0.00358045,0.0103243,685,771,-10.2993,0.490065
-532,253,-10.2949,-0.753418,-0.00425226,-0.00406226,0.00320074,-0.000955109,-0.00735941,0.800234,0.00462092,0.0141197,692,771,-10.2949,0.753441
-525,253,-10.2865,-1.02228,-0.00431613,-0.0041057,0.00407019,-0.00013936,-0.00828247,0.798321,0.00547578,0.0119707,699,771,-10.2865,1.02228
-518,253,-10.2961,-1.25732,-0.00375801,-0.00363982,0.00520753,0.00150895,-0.00890678,0.791072,0.00649948,0.0150608,706,771,-10.2961,1.25734
-511,253,-10.4156,-1.53094,-0.00301041,-0.00320985,0.00638385,0.0032745,-0.00949475,0.777588,0.00765835,0.0350915,713,771,-10.4156,1.53092
-504,253,-10.799,-1.34845,-0.00106835,-0.0021278,0.00774874,0.00616875,-0.0093649,0.75127,0.00903142,0.0481536,720,771,-10.799,1.34843
-497,253,-10.9148,-1.20911,0,0,0,0,0,0,0,-1,727,771,-10.9148,1.20913
-490,253,-10.8066,-1.3103,0,0,0,0,0,0,0,-1,734,771,-10.8066,1.31033
-483,253,-10.8846,-1.31641,0,0,0,0,0,0,0,-1,741,771,-10.8846,1.3164
-476,253,-15.825,1.9516,0,0,0,0,0,0,0,-1,748,771,-15.825,-1.95159
-469,253,-15.1503,2.34381,0,0,0,0,0,0,0,-1,755,771,-15.1504,-2.34383
-462,253,-16.4854,0.979553,0,0,0,0,0,0,0,-1,762,771,-16.4853,-0.979538
-455,253,-16.5407,0.952515,0,0,0,0,0,0,0,-1,769,771,-16.5407,-0.952498
-448,253,0,0,0,0,0,0,0,0,0,-1,776,771,0,0
-441,253,0,0,0,0,0,0,0,0,0,-1,783,771,0,0
-434,253,0,0,0,0,0,0,0,0,0,-1,790,771,0,0
-427,253,0,0,0,0,0,0,0,0,0,-1,797,771,0,0
-420,253,0,0,0,0,0,0,0,0,0,-1,804,771,0,0
-413,253,0,0,0,0,0,0,0,0,0,-1,811,771,0,0
-406,253,0,0,0,0,0,0,0,0,0,-1,818,771,0,0
-399,253,0,0,0,0,0,0,0,0,0,-1,825,771,0,0
-392,253,0,0,0,0,0,0,0,0,0,-1,832,771,0,0
-385,253,0,0,0,0,0,0,0,0,0,-1,839,771,0,0
-378,253,0,0,0,0,0,0,0,0,0,-1,846,771,0,0
-371,253,0,0,0,0,0,0,0,0,0,-1,853,771,0,0
-364,253,0,0,0,0,0,0,0,0,0,-1,860,771,0,0
-357,253,0,0,0,0,0,0,0,0,0,-1,867,771,0,0
-350,253,0,0,0,0,0,0,0,0,0,-1,874,771,0,0
-343,253,0,0,0,0,0,0,0,0,0,-1,881,771,0,0
-336,253,0,0,0,0,0,0,0,0,0,-1,888,771,0,0
-329,253,0,0,0,0,0,0,0,0,0,-1,895,771,0,0
-322,253,0,0,0,0,0,0,0,0,0,-1,902,771,0,0
-315,253,0,0,0,0,0,0,0,0,0,-1,909,771,0,0
-308,253,0,0,0,0,0,0,0,0,0,-1,916,771,0,0
-301,253,0,0,0,0,0,0,0,0,0,-1,923,771,0,0
-294,253,0,0,0,0,0,0,0,0,0,-1,930,771,0,0
-287,253,0,0,0,0,0,0,0,0,0,-1,937,771,0,0
-280,253,0,0,0,0,0,0,0,0,0,-1,944,771,0,0
-273,253,0,0,0,0,0,0,0,0,0,-1,951,771,0,0
-266,253,0,0,0,0,0,0,0,0,0,-1,958,771,0,0
-259,253,0,0,0,0,0,0,0,0,0,-1,965,771,0,0
-252,253,0,0,0,0,0,0,0,0,0,-1,972,771,0,0
-245,253,0,0,0,0,0,0,0,0,0,-1,979,771,0,0
-238,253,0,0,0,0,0,0,0,0,0,-1,986,771,0,0
-231,253,0,0,0,0,0,0,0,0,0,-1,993,771,0,0
-224,253,0,0,0,0,0,0,0,0,0,-1,1000,771,0,0
-217,253,0,0,0,0,0,0,0,0,0,-1,1007,771,0,0
-210,253,0,0,0,0,0,0,0,0,0,-1,1014,771,0,0
-203,253,0,0,0,0,0,0,0,0,0,-1,1021,771,0,0
-196,253,0,0,0,0,0,0,0,0,0,-1,1028,771,0,0
-189,253,0,0,0,0,0,0,0,0,0,-1,1035,771,0,0
-182,253,0,0,0,0,0,0,0,0,0,-1,1042,771,0,0
-175,253,0,0,0,0,0,0,0,0,0,-1,1049,771,0,0
-168,253,0,0,0,0,0,0,0,0,0,-1,1056,771,0,0
-161,253,0,0,0,0,0,0,0,0,0,-1,1063,771,0,0
-154,253,0,0,0,0,0,0,0,0,0,-1,1070,771,0,0
-147,253,0,0,0,0,0,0,0,0,0,-1,1077,771,0,0
-140,253,0,0,0,0,0,0,0,0,0,-1,1084,771,0,0
-133,253,0,0,0,0,0,0,0,0,0,-1,1091,771,0,0
-126,253,0,0,0,0,0,0,0,0,0,-1,1098,771,0,0
-119,253,0,0,0,0,0,0,0,0,0,-1,1105,771,0,0
-112,253,0,0,0,0,0,0,0,0,0,-1,1112,771,0,0
-105,253,0,0,0,0,0,0,0,0,0,-1,1119,771,0,0
-98,253,0,0,0,0,0,0,0,0,0,-1,1126,771,0,0
-91,253,0,0,0,0,0,0,0,0,0,-1,1133,771,0,0
-84,253,0,0,0,0,0,0,0,0,0,-1,1140,771,0,0
-77,253,0,0,0,0,0,0,0,0,0,-1,1147,771,0,0
-70,253,0,0,0,0,0,0,0,0,0,-1,1154,771,0,0
-63,253,0,0,0,0,0,0,0,0,0,-1,1161,771,0,0
-56,253,0,0,0,0,0,0,0,0,0,-1,1168,771,0,0
-49,253,0,0,0,0,0,0,0,0,0,-1,1175,771,0,0
-42,253,0,0,0,0,0,0,0,0,0,-1,1182,771,0,0
-35,253,0,0,0,0,0,0,0,0,0,-1,1189,771,0,0
-28,253,0,0,0,0,0,0,0,0,0,-1,1196,771,0,0
-21,253,0,0,0,0,0,0,0,0,0,-1,1203,771,0,0
-14,253,0,0,0,0,0,0,0,0,0,-1,1210,771,0,0
-7,253,0,0,0,0,0,0,0,0,0,-1,1217,771,0,0
0,253,0,0,0,0,0,0,0,0,0,-1,1224,771,0,0
7,253,0,0,0,0,0,0,0,0,0,-1,1231,771,0,0
14,253,0,0,0,0,0,0,0,0,0,-1,1238,771,0,0
21,253,0,0,0,0,0,0,0,0,0,-1,1245,771,0,0
28,253,0,0,0,0,0,0,0,0,0,-1,1252,771,0,0
35,253,0,0,0,0,0,0,0,0,0,-1,1259,771,0,0
42,253,0,0,0,0,0,0,0,0,0,-1,1266,771,0,0
49,253,0,0,0,0,0,0,0,0,0,-1,1273,771,0,0
56,253,0,0,0,0,0,0,0,0,0,-1,1280,771,0,0
63,253,0,0,0,0,0,0,0,0,0,-1,1287,771,0,0
70,253,0,0,0,0,0,0,0,0,0,-1,1294,771,0,0
77,253,0,0,0,0,0,0,0,0,0,-1,1301,771,0,0
84,253,0,0,0,0,0,0,0,0,0,-1,1308,771,0,0
91,253,0,0,0,0,0,0,0,0,0,-1,1315,771,0,0
98,253,0,0,0,0,0,0,0,0,0,-1,1322,771,0,0
105,253,0,0,0,0,0,0,0,0,0,-1,1329,771,0,0
112,253,0,0,0,0,0,0,0,0,0,-1,1336,771,0,0
119,253,0,0,0,0,0,0,0,0,0,-1,1343,771,0,0
126,253,0,0,0,0,0,0,0,0,0,-1,1350,771,0,0
133,253,0,0,0,0,0,0,0,0,0,-1,1357,771,0,0
140,253,0,0,0,0,0,0,0,0,0,-1,1364,771,0,0
147,253,0,0,0,0,0,0,0,0,0,-1,1371,771,0,0
154,253,0,0,0,0,0,0,0,0,0,-1,1378,771,0,0
161,253,0,0,0,0,0,0,0,0,0,-1,1385,771,0,0
168,253,0,0,0,0,0,0,0,0,0,-1,1392,771,0,0
175,253,0,0,0,0,0,0,0,0,0,-1,1399,771,0,0
182,253,0,0,0,0,0,0,0,0,0,-1,1406,771,0,0
189,253,0,0,0,0,0,0,0,0,0,-1,1413,771,0,0
196,253,0,0,0,0,0,0,0,0,0,-1,1420,771,0,0
203,253,0,0,0,0,0,0,0,0,0,-1,1427,771,0,0
210,253,0,0,0,0,0,0,0,0,0,-1,1434,771,0,0
217,253,0,0,0,0,0,0,0,0,0,-1,1441,771,0,0
224,253,0,0,0,0,0,0,0,0,0,-1,1448,771,0,0
231,253,0,0,0,0,0,0,0,0,0,-1,1455,771,0,0
238,253,0,0,0,0,0,0,0,0,0,-1,1462,771,0,0
245,253,0,0,0,0,0,0,0,0,0,-1,1469,771,0,0
252,253,0,0,0,0,0,0,0,0,0,-1,1476,771,0,0
259,253,0,0,0,0,0,0,0,0,0,-1,1483,771,0,0
266,253,0,0,0,0,0,0,0,0,0,-1,1490,771,0,0
273,253,0,0,0,0,0,0,0,0,0,-1,1497,771,0,0
280,253,0,0,0,0,0,0,0,0,0,-1,1504,771,0,0
287,253,0,0,0,0,0,0,0,0,0,-1,1511,771,0,0
294,253,0,0,0,0,0,0,0,0,0,-1,1518,771,0,0
301,253,0,0,0,0,0,0,0,0,0,-1,1525,771,0,0
308,253,0,0,0,0,0,0,0,0,0,-1,1532,771,0,0
315,253,0,0,0,0,0,0,0,0,0,-1,1539,771,0,0
322,253,0,0,0,0,0,0,0,0,0,-1,1546,771,0,0
329,253,0,0,0,0,0,0,0,0,0,-1,1553,771,0,0
336,253,0,0,0,0,0,0,0,0,0,-1,1560,771,0,0
343,253,0,0,0,0,0,0,0,0,0,-1,1567,771,0,0
350,253,0,0,0,0,0,0,0,0,0,-1,1574,771,0,0
357,253,0,0,0,0,0,0,0,0,0,-1,1581,771,0,0
364,253,0,0,0,0,0,0,0,0,0,-1,1588,771,0,0
371,253,0,0,0,0,0,0,0,0,0,-1,1595,771,0,0
378,253,0,0,0,0,0,0,0,0,0,-1,1602,771,0,0
385,253,0,0,0,0,0,0,0,0,0,-1,1609,771,0,0
392,253,0,0,0,0,0,0,0,0,0,-1,1616,771,0,0
399,253,0,0,0,0,0,0,0,0,0,-1,1623,771,0,0
406,253,0,0,0,0,0,0,0,0,0,-1,1630,771,0,0
413,253,0,0,0,0,0,0,0,0,0,-1,1637,771,0,0
420,253,0,0,0,0,0,0,0,0,0,-1,1644,771,0,0
427,253,0,0,0,0,0,0,0,0,0,-1,1651,771,0,0
434,253,0,0,0,0,0,0,0,0,0,-1,1658,771,0,0
441,253,0,0,0,0,0,0,0,0,0,-1,1665,771,0,0
448,253,0,0,0,0,0,0,0,0,0,-1,1672,771,0,0
455,253,0,0,0,0,0,0,0,0,0,-1,1679,771,0,0
462,253,0,0,0,0,0,0,0,0,0,-1,1686,771,0,0
469,253,0,0,0,0,0,0,0,0,0,-1,1693,771,0,0
476,253,0,0,0,0,0,0,0,0,0,-1,1700,771,0,0
483,253,0,0,0,0,0,0,0,0,0,-1,1707,771,0,0
490,253,0,0,0,0,0,0,0,0,0,-1,1714,771,0,0
497,253,0,0,0,0,0,0,0,0,0,-1,1721,771,0,0
504,253,0,0,0,0,0,0,0,0,0,-1,1728,771,0,0
511,253,0,0,0,0,0,0,0,0,0,-1,1735,771,0,0
518,253,0,0,0,0,0,0,0,0,0,-1,1742,771,0,0
525,253,0,0,0,0,0,0,0,0,0,-1,1749,771,0,0
532,253,0,0,0,0,0,0,0,0,0,-1,1756,771,0,0
539,253,0,0,0,0,0,0,0,0,0,-1,1763,771,0,0
546,253,0,0,0,0,0,0,0,0,0,-1,1770,771,0,0
553,253,0,0,0,0,0,0,0,0,0,-1,1777,771,0,0
560,253,0,0,0,0,0,0,0,0,0,-1,1784,771,0,0
567,253,0,0,0,0,0,0,0,0,0,-1,1791,771,0,0
574,253,23.776,2.80627,-0.0197333,0.0188292,-0.00411013,0.0192624,-0.0201665,-1.46578,0.0227663,0.0371484,1798,771,23.776,-2.80626
581,253,23.7814,2.84589,-0.00151239,0.0137465,-0.00267538,0.014202,-0.00196787,-1.40216,0.0101875,0.0399557,1805,771,23.7813,-2.84589
588,253,23.9418,2.85992,0.00788931,0.00852971,-0.00105394,0.00931101,0.007108,-0.932875,0.00561885,0.0431366,1812,771,23.9418,-2.8599
595,253,24.1476,2.73926,0.0125466,0.0041359,0.000196254,0.0125511,0.00413132,0.023317,0.00738606,0.0448924,1819,771,24.1475,-2.73923
602,253,24.1885,2.64685,0.0142825,0.00061097,0.00116925,0.0143818,0.000511692,0.0847046,0.00942192,0.0449896,1826,771,24.1885,-2.64688
609,253,24.676,2.49658,0.0143513,-0.00223409,0.00178476,0.0145412,-0.00242397,0.105993,0.010595,0.0400535,1833,771,24.6761,-2.49659
616,253,25.153,2.61694,0.0138079,-0.00426376,0.00212665,0.0140548,-0.00451064,0.115575,0.0111809,0.0383925,1840,771,25.153,-2.61696
623,253,26.0226,2.65942,0.0124793,-0.00580157,0.00240877,0.0127913,-0.00611363,0.128836,0.0111394,0.0470228,1847,771,26.0226,-2.65943
630,253,26.261,2.71014,0,0,0,0,0,0,0,-1,1854,771,26.261,-2.71017
637,253,16.6818,0.348572,0,0,0,0,0,0,0,-1,1861,771,16.6818,-0.348582
644,253,16.7173,0.632629,0.00402933,-0.00696277,0.00143313,0.00421311,-0.00714654,0.127538,0.00663099,0.043068,1868,771,16.7173,-0.632658
651,253,16.7415,0.908691,0.00201635,-0.00648553,0.000834277,0.00209744,-0.00656662,0.0968971,0.00521932,0.023678,1875,771,16.7415,-0.908712
658,253,16.7839,1.20911,0.000456585,-0.0053993,0.000130836,0.000459507,-0.00540222,0.0223278,0.00376401,0.0191928,1882,771,16.7839,-1.20909
665,253,16.7175,1.48651,-0.000611331,-0.00397014,-0.00063119,-0.000496634,-0.00408483,-0.179754,0.0025737,0.0216034,1889,771,16.7175,-1.48649
672,253,16.7013,1.75446,-0.00062927,-0.00289333,-0.0011439,-0.000151949,-0.00337065,-0.395308,0.0021982,0.0164533,1896,771,16.7013,-1.75444
679,253,16.7544,2.0351,1.21716e-05,-0.00175107,-0.0012392,0.000651364,-0.00239027,-0.476215,0.00184927,0.0126736,1903,771,16.7544,-2.03512
686,253,16.7534,2.27313,0.00153113,-7.0676e-05,-0.000598243,0.0017299,-0.000269443,-0.320777,0.00125278,0.0180707,1910,771,16.7534,-2.27312
693,253,16.738,2.53394,0.00309855,0.00142281,0.00020533,0.00312334,0.00139802,0.120163,0.00180656,0.0175194,1917,771,16.7381,-2.53394
700,253,16.735,2.80713,0.00471119,0.00276039,0.000958044,0.005103,0.00236859,0.388211,0.00294874,0.0153285,1924,771,16.735,-2.80711
707,253,16.738,3.07446,0.00649988,0.00446035,0.00178577,0.00753655,0.00342369,0.525968,0.00435729,0.0148026,1931,771,16.738,-3.07444
714,253,16.7209,3.33368,0.00866753,0.00656167,0.00270361,0.010516,0.0047132,0.599707,0.00608227,0.0189403,1938,771,16.7209,-3.33366
721,253,16.7168,3.75153,0.0111727,0.00941806,0.00379131,0.0141869,0.00640389,0.671699,0.00820368,0.0320476,1945,771,16.7168,-3.75152
728,253,16.7357,4.16418,0.0142385,0.0134517,0.00515064,0.0190108,0.00867947,0.74728,0.0109897,0.0452501,1952,771,16.7358,-4.16419
735,253,16.8055,4.5545,0,0,0,0,0,0,0,-1,1959,771,16.8055,-4.55453
742,253,16.4323,5.77924,0,0,0,0,0,0,0,-1,1966,771,16.4322,-5.77924
749,253,19.9606,4.51489,0,0,0,0,0,0,0,-1,1973,771,19.9605,-4.5149
756,253,0,0,0,0,0,0,0,0,0,-1,1980,771,0,0
763,253,0,0,0,0,0,0,0,0,0,-1,1987,771,0,0
770,253,0,0,0,0,0,0,0,0,0,-1,1994,771,0,0
777,253,0,0,0,0,0,0,0,0,0,-1,2001,771,0,0
784,253,0,0,0,0,0,0,0,0,0,-1,2008,771,0,0
791,253,0,0,0,0,0,0,0,0,0,-1,2015,771,0,0
798,253,0,0,0,0,0,0,0,0,0,-1,2022,771,0,0
805,253,0,0,0,0,0,0,0,0,0,-1,2029,771,0,0
812,253,0,0,0,0,0,0,0,0,0,-1,2036,771,0,0
-700,246,0,0,0,0,0,0,0,0,0,-1,524,778,0,0
-693,246,0,0,0,0,0,0,0,0,0,-1,531,778,0,0
-686,246,0,0,0,0,0,0,0,0,0,-1,538,778,0,0
-679,246,0,0,0,0,0,0,0,0,0,-1,545,778,0,0
-672,246,0,0,0,0,0,0,0,0,0,-1,552,778,0,0
-665,246,0,0,0,0,0,0,0,0,0,-1,559,778,0,0
-658,246,0,0,0,0,0,0,0,0,0,-1,566,778,0,0
-651,246,0,0,0,0,0,0,0,0,0,-1,573,778,0,0
-644,246,0,0,0,0,0,0,0,0,0,-1,580,778,0,0
-637,246,-13.4358,2.23181,0,0,0,0,0,0,0,-1,587,778,-13.4358,-2.23181
-630,246,-11.3246,1.12775,0,0,0,0,0,0,0,-1,594,778,-11.3246,-1.12776
-623,246,-11.3303,1.37769,0.023308,-0.00489128,0.0198566,0.0335617,-0.015145,0.476671,0.0287831,0.0497889,601,778,-11.3303,-1.37766
-616,246,-11.2369,1.95331,0.0228647,-0.00117844,0.016014,0.0308672,-0.00918098,0.463426,0.0242255,0.0478077,608,778,-11.2369,-1.95328
-609,246,-10.7507,2.26184,0.0210514,0.00083513,0.0123256,0.0268836,-0.0049971,0.441962,0.0197994,0.04871,615,778,-10.7508,-2.26184
-602,246,-10.491,2.05133,0,0,0,0,0,0,0,-1,622,778,-10.491,-2.05134
-595,246,-10.4226,1.70502,0.0149763,0.00223278,0.00654801,0.0177411,-0.000531972,0.39952,0.0120086,0.0447783,629,778,-10.4226,-1.70502
-588,246,-10.4346,1.28394,0.0120336,0.00271141,0.00451292,0.0138604,0.00088465,0.384623,0.00895994,0.0276932,636,778,-10.4346,-1.28391
-581,246,-10.5251,0.997253,0.00931964,0.00295856,0.00289816,0.010442,0.00183617,0.369489,0.00643719,0.0147494,643,778,-10.5251,-0.997262
-574,246,-10.5148,0.713684,0.00646988,0.00145198,0.00143045,0.00684902,0.00107284,0.259087,0.00425374,0.0169168,650,778,-10.5148,-0.713661
-567,246,-10.5394,0.474304,0.0038141,3.53667e-05,0.00024919,0.00383046,1.90046e-05,0.065567,0.00254733,0.0166847,657,778,-10.5394,-0.474302
-560,246,-10.5438,0.244263,0.00107351,-0.00125628,0.000404798,0.00114184,-0.00132461,0.167222,0.00142531,0.0130658,664,778,-10.5437,-0.244288
-553,246,-10.5272,0.0132446,-0.00128473,-0.00143236,0.000994222,-0.000361589,-0.0023555,0.748343,0.00146476,0.0128932,671,778,-10.5272,-0.0132448
-546,246,-10.5435,-0.22522,-0.0027226,-0.00197367,0.00194231,-0.000370059,-0.00432621,0.880628,0.00276904,0.0107101,678,778,-10.5435,0.225239
-539,246,-10.5565,-0.48584,-0.00375617,-0.00315049,0.00250338,-0.0009317,-0.00597496,0.845591,0.00371192,0.00973836,685,778,-10.5565,0.485868
-532,246,-10.5539,-0.764587,-0.00471723,-0.00410414,0.00311929,-0.00127636,-0.00754501,0.834378,0.00466314,0.0109851,692,778,-10.5539,0.764608
-525,246,-10.5338,-0.996765,-0.00490036,-0.0040918,0.00384314,-0.000631735,-0.00836043,0.837803,0.00537543,0.0121968,699,778,-10.5338,0.996784
-518,246,-10.5345,-1.18646,-0.00457924,-0.00359414,0.00476778,0.000706463,-0.00887985,0.836869,0.00616888,0.0190421,706,778,-10.5345,1.18645
-511,246,-10.8735,-1.39575,-0.00410837,-0.0031685,0.00570384,0.00208474,-0.00936161,0.8265,0.00703964,0.0389924,713,778,-10.8735,1.39574
-504,246,-11.1482,-1.37445,-0.00255968,-0.00212121,0.00679976,0.00446285,-0.00914374,0.801513,0.00800922,0.0451145,720,778,-11.1482,1.37448
-497,246,-11.2979,-1.50488,0,0,0,0,0,0,0,-1,727,778,-11.2979,1.50487
-490,246,-11.2137,-1.85522,0,0,0,0,0,0,0,-1,734,778,-11.2137,1.85523
-483,246,-16.2878,1.89105,0,0,0,0,0,0,0,-1,741,778,-16.2878,-1.89107
-476,246,-16.2471,1.68921,0.0175941,0.0115387,0.0139473,0.0288386,0.000294309,0.678516,0.0191284,0.0449009,748,778,-16.2471,-1.6892
-469,246,-16.2119,1.47253,0.0260324,0.0172173,0.0161936,0.0384076,0.0048421,0.652528,0.0241533,0.041261,755,778,-16.2119,-1.47254
-462,246,-16.2324,1.36066,0,0,0,0,0,0,0,-1,762,778,-16.2324,-1.36063
-455,246,0,0,0,0,0,0,0,0,0,-1,769,778,0,0
-448,246,0,0,0,0,0,0,0,0,0,-1,776,778,0,0
-441,246,0,0,0,0,0,0,0,0,0,-1,783,778,0,0
-434,246,0,0,0,0,0,0,0,0,0,-1,790,778,0,0
-427,246,0,0,0,0,0,0,0,0,0,-1,797,778,0,0
-420,246,0,0,0,0,0,0,0,0,0,-1,804,778,0,0
-413,246,0,0,0,0,0,0,0,0,0,-1,811,778,0,0
-406,246,0,0,0,0,0,0,0,0,0,-1,818,778,0,0
-399,246,0,0,0,0,0,0,0,0,0,-1,825,778,0,0
-392,246,0,0,0,0,0,0,0,0,0,-1,832,778,0,0
-385,246,0,0,0,0,0,0,0,0,0,-1,839,778,0,0
-378,246,0,0,0,0,0,0,0,0,0,-1,846,778,0,0
-371,246,0,0,0,0,0,0,0,0,0,-1,853,778,0,0
-364,246,0,0,0,0,0,0,0,0,0,-1,860,778,0,0
-357,246,0,0,0,0,0,0,0,0,0,-1,867,778,0,0
-350,246,0,0,0,0,0,0,0,0,0,-1,874,778,0,0
-343,246,0,0,0,0,0,0,0,0,0,-1,881,778,0,0
-336,246,0,0,0,0,0,0,0,0,0,-1,888,778,0,0
-329,246,0,0,0,0,0,0,0,0,0,-1,895,778,0,0
-322,246,0,0,0,0,0,0,0,0,0,-1,902,778,0,0
-315,246,0,0,0,0,0,0,0,0,0,-1,909,778,0,0
-308,246,0,0,0,0,0,0,0,0,0,-1,916,778,0,0
-301,246,0,0,0,0,0,0,0,0,0,-1,923,778,0,0
-294,246,0,0,0,0,0,0,0,0,0,-1,930,778,0,0
-287,246,0,0,0,0,0,0,0,0,0,-1,937,778,0,0
-280,246,0,0,0,0,0,0,0,0,0,-1,944,778,0,0
-273,246,0,0,0,0,0,0,0,0,0,-1,951,778,0,0
-266,246,0,0,0,0,0,0,0,0,0,-1,958,778,0,0
-259,246,0,0,0,0,0,0,0,0,0,-1,965,778,0,0
-252,246,0,0,0,0,0,0,0,0,0,-1,972,778,0,0
-245,246,0,0,0,0,0,0,0,0,0,-1,979,778,0,0
-238,246,0,0,0,0,0,0,0,0,0,-1,986,778,0,0
-231,246,0,0,0,0,0,0,0,0,0,-1,993,778,0,0
-224,246,0,0,0,0,0,0,0,0,0,-1,1000,778,0,0
-217,246,0,0,0,0,0,0,0,0,0,-1,1007,778,0,0
-210,246,0,0,0,0,0,0,0,0,0,-1,1014,778,0,0
-203,246,0,0,0,0,0,0,0,0,0,-1,1021,778,0,0
-196,246,0,0,0,0,0,0,0,0,0,-1,1028,778,0,0
-189,246,0,0,0,0,0,0,0,0,0,-1,1035,778,0,0
-182,246,0,0,0,0,0,0,0,0,0,-1,1042,778,0,0
-175,246,0,0,0,0,0,0,0,0,0,-1,1049,778,0,0
-168,246,0,0,0,0,0,0,0,0,0,-1,1056,778,0,0
-161,246,0,0,0,0,0,0,0,0,0,-1,1063,778,0,0
-154,246,0,0,0,0,0,0,0,0,0,-1,1070,778,0,0
-147,246,0,0,0,0,0,0,0,0,0,-1,1077,778,0,0
-140,246,0,0,0,0,0,0,0,0,0,-1,1084,778,0,0
-133,246,0,0,0,0,0,0,0,0,0,-1,1091,778,0,0
-126,246,0,0,0,0,0,0,0,0,0,-1,1098,778,0,0
-119,246,0,0,0,0,0,0,0,0,0,-1,1105,778,0,0
-112,246,0,0,0,0,0,0,0,0,0,-1,1112,778,0,0
-105,246,0,0,0,0,0,0,0,0,0,-1,1119,778,0,0
-98,246,0,0,0,0,0,0,0,0,0,-1,1126,778,0,0
-91,246,0,0,0,0,0,0,0,0,0,-1,1133,778,0,0
-84,246,0,0,0,0,0,0,0,0,0,-1,1140,778,0,0
-77,246,0,0,0,0,0,0,0,0,0,-1,1147,778,0,0
-70,246,0,0,0,0,0,0,0,0,0,-1,1154,778,0,0
-63,246,0,0,0,0,0,0,0,0,0,-1,1161,778,0,0
-56,246,0,0,0,0,0,0,0,0,0,-1,1168,778,0,0
-49,246,0,0,0,0,0,0,0,0,0,-1,1175,778,0,0
-42,246,0,0,0,0,0,0,0,0,0,-1,1182,778,0,0
-35,246,0,0,0,0,0,0,0,0,0,-1,1189,778,0,0
-28,246,0,0,0,0,0,0,0,0,0,-1,1196,778,0,0
-21,246,0,0,0,0,0,0,0,0,0,-1,1203,778,0,0
-14,246,0,0,0,0,0,0,0,0,0,-1,1210,778,0,0
-7,246,0,0,0,0,0,0,0,0,0,-1,1217,778,0,0
0,246,0,0,0,0,0,0,0,0,0,-1,1224,778,0,0
7,246,0,0,0,0,0,0,0,0,0,-1,1231,778,0,0
14,246,0,0,0,0,0,0,0,0,0,-1,1238,778,0,0
21,246,0,0,0,0,0,0,0,0,0,-1,1245,778,0,0
28,246,0,0,0,0,0,0,0,0,0,-1,1252,778,0,0
35,246,0,0,0,0,0,0,0,0,0,-1,1259,778,0,0
42,246,0,0,0,0,0,0,0,0,0,-1,1266,778,0,0
49,246,0,0,0,0,0,0,0,0,0,-1,1273,778,0,0
56,246,0,0,0,0,0,0,0,0,0,-1,1280,778,0,0
63,246,0,0,0,0,0,0,0,0,0,-1,1287,778,0,0
70,246,0,0,0,0,0,0,0,0,0,-1,1294,778,0,0
77,246,0,0,0,0,0,0,0,0,0,-1,1301,778,0,0
84,246,0,0,0,0,0,0,0,0,0,-1,1308,778,0,0
91,246,0,0,0,0,0,0,0,0,0,-1,1315,778,0,0
98,246,0,0,0,0,0,0,0,0,0,-1,1322,778,0,0
105,246,0,0,0,0,0,0,0,0,0,-1,1329,778,0,0
112,246,0,0,0,0,0,0,0,0,0,-1,1336,778,0,0
119,246,0,0,0,0,0,0,0,0,0,-1,1343,778,0,0
126,246,0,0,0,0,0,0,0,0,0,-1,1350,778,0,0
133,246,0,0,0,0,0,0,0,0,0,-1,1357,778,0,0
140,246,0,0,0,0,0,0,0,0,0,-1,1364,778,0,0
147,246,0,0,0,0,0,0,0,0,0,-1,1371,778,0,0
154,246,0,0,0,0,0,0,0,0,0,-1,1378,778,0,0
161,246,0,0,0,0,0,0,0,0,0,-1,1385,778,0,0
168,246,0,0,0,0,0,0,0,0,0,-1,1392,778,0,0
175,246,0,0,0,0,0,0,0,0,0,-1,1399,778,0,0
182,246,0,0,0,0,0,0,0,0,0,-1,1406,778,0,0
189,246,0,0,0,0,0,0,0,0,0,-1,1413,778,0,0
196,246,0,0,0,0,0,0,0,0,0,-1,1420,778,0,0
203,246,0,0,0,0,0,0,0,0,0,-1,1427,778,0,0
210,246,0,0,0,0,0,0,0,0,0,-1,1434,778,0,0
217,246,0,0,0,0,0,0,0,0,0,-1,1441,778,0,0
224,246,0,0,0,0,0,0,0,0,0,-1,1448,778,0,0
231,246,0,0,0,0,0,0,0,0,0,-1,1455,778,0,0
238,246,0,0,0,0,0,0,0,0,0,-1,1462,778,0,0
245,246,0,0,0,0,0,0,0,0,0,-1,1469,778,0,0
252,246,0,0,0,0,0,0,0,0,0,-1,1476,778,0,0
259,246,0,0,0,0,0,0,0,0,0,-1,1483,778,0,0
266,246,0,0,0,0,0,0,0,0,0,-1,1490,778,0,0
273,246,0,0,0,0,0,0,0,0,0,-1,1497,778,0,0
280,246,0,0,0,0,0,0,0,0,0,-1,1504,778,0,0
287,246,0,0,0,0,0,0,0,0,0,-1,1511,778,0,0
294,246,0,0,0,0,0,0,0,0,0,-1,1518,778,0,0
301,246,0,0,0,0,0,0,0,0,0,-1,1525,778,0,0
308,246,0,0,0,0,0,0,0,0,0,-1,1532,778,0,0
315,246,0,0,0,0,0,0,0,0,0,-1,1539,778,0,0
322,246,0,0,0,0,0,0,0,0,0,-1,1546,778,0,0
329,246,0,0,0,0,0,0,0,0,0,-1,1553,778,0,0
336,246,0,0,0,0,0,0,0,0,0,-1,1560,778,0,0
343,246,0,0,0,0,0,0,0,0,0,-1,1567,778,0,0
350,246,0,0,0,0,0,0,0,0,0,-1,1574,778,0,0
357,246,0,0,0,0,0,0,0,0,0,-1,1581,778,0,0
364,246,0,0,0,0,0,0,0,0,0,-1,1588,778,0,0
371,246,0,0,0,0,0,0,0,0,0,-1,1595,778,0,0
378,246,0,0,0,0,0,0,0,0,0,-1,1602,778,0,0
385,246,0,0,0,0,0,0,0,0,0,-1,1609,778,0,0
392,246,0,0,0,0,0,0,0,0,0,-1,1616,778,0,0
399,246,0,0,0,0,0,0,0,0,0,-1,1623,778,0,0
406,246,0,0,0,0,0,0,0,0,0,-1,1630,778,0,0
413,246,0,0,0,0,0,0,0,0,0,-1,1637,778,0,0
420,246,0,0,0,0,0,0,0,0,0,-1,1644,778,0,0
427,246,0,0,0,0,0,0,0,0,0,-1,1651,778,0,0
434,246,0,0,0,0,0,0,0,0,0,-1,1658,778,0,0
441,246,0,0,0,0,0,0,0,0,0,-1,1665,778,0,0
448,246,0,0,0,0,0,0,0,0,0,-1,1672,778,0,0
455,246,0,0,0,0,0,0,0,0,0,-1,1679,778,0,0
462,246,0,0,0,0,0,0,0,0,0,-1,1686,778,0,0
469,246,0,0,0,0,0,0,0,0,0,-1,1693,778,0,0
476,246,0,0,0,0,0,0,0,0,0,-1,1700,778,0,0
483,246,0,0,0,0,0,0,0,0,0,-1,1707,778,0,0
490,246,0,0,0,0,0,0,0,0,0,-1,1714,778,0,0
497,246,0,0,0,0,0,0,0,0,0,-1,1721,778,0,0
504,246,0,0,0,0,0,0,0,0,0,-1,1728,778,0,0
511,246,0,0,0,0,0,0,0,0,0,-1,1735,778,0,0
518,246,0,0,0,0,0,0,0,0,0,-1,1742,778,0,0
525,246,0,0,0,0,0,0,0,0,0,-1,1749,778,0,0
532,246,0,0,0,0,0,0,0,0,0,-1,1756,778,0,0
539,246,0,0,0,0,0,0,0,0,0,-1,1763,778,0,0
546,246,0,0,0,0,0,0,0,0,0,-1,1770,778,0,0
553,246,0,0,0,0,0,0,0,0,0,-1,1777,778,0,0
560,246,0,0,0,0,0,0,0,0,0,-1,1784,778,0,0
567,246,0,0,0,0,0,0,0,0,0,-1,1791,778,0,0
574,246,0,0,0,0,0,0,0,0,0,-1,1798,778,0,0
581,246,23.827,2.8194,-0.00321329,0.0131795,-0.00349733,0.0138945,-0.00392824,-1.36915,0.0108129,0.0373555,1805,778,23.8271,-2.81937
588,246,23.8706,2.81793,0.0071674,0.00804541,-0.000995697,0.00869458,0.00651822,-0.993029,0.00522429,0.0422315,1812,778,23.8706,-2.81791
595,246,24.0247,2.81091,0.0122107,0.00347802,0.000716938,0.0122692,0.00341955,0.0813723,0.00731119,0.0411974,1819,778,24.0247,-2.81091
602,246,24.1652,2.80475,0.0138188,-0.000148929,0.00189436,0.0140712,-0.00040129,0.132437,0.00951737,0.0436949,1826,778,24.1652,-2.80472
609,246,24.3066,2.61292,0.0134353,-0.00297713,0.00253004,0.0138165,-0.0033583,0.149531,0.0105108,0.0451471,1833,778,24.3067,-2.61292
616,246,24.8586,2.80341,0.0122223,-0.00494515,0.00273963,0.0126489,-0.00537175,0.154473,0.0106832,0.0428822,1840,778,24.8586,-2.80343
623,246,25.3306,2.93842,0.0103423,-0.00630495,0.00272892,0.0107782,-0.00674087,0.158405,0.0102038,0.0419562,1847,778,25.3305,-2.93843
630,246,24.9343,2.74524,0.00774645,-0.00696102,0.0022167,0.00807329,-0.00728785,0.146388,0.00887262,0.0496606,1854,778,24.9343,-2.74525
637,246,24.3605,2.37097,0,0,0,0,0,0,0,-1,1861,778,24.3604,-2.371
644,246,16.8993,0.686462,0,0,0,0,0,0,0,-1,1868,778,16.8993,-0.68648
651,246,16.9512,0.950195,0.000777997,-0.00677306,0.000514646,0.000812911,-0.00680798,0.067738,0.00483247,0.0322349,1875,778,16.9512,-0.95021
658,246,16.9951,1.23267,-0.00062174,-0.00581235,-0.000217309,-0.000612657,-0.00582143,-0.0417684,0.00369371,0.0214777,1882,778,16.9951,-1.23265
665,246,16.9783,1.49414,-0.00157872,-0.00452678,-0.00097217,-0.001287,-0.0048185,-0.291523,0.00288081,0.0220575,1889,778,16.9783,-1.49412
672,246,16.9901,1.78778,-0.00159572,-0.00349773,-0.00148119,-0.000786518,-0.00430694,-0.500013,0.00264834,0.0200727,1896,778,16.9902,-1.7878
679,246,17.0359,2.01495,-0.000937398,-0.00237664,-0.00160375,0.000100783,-0.00341482,-0.574508,0.00231087,0.0198952,1903,778,17.0359,-2.01496
686,246,17.0333,2.28674,0.000628087,-0.000613743,-0.000952231,0.00114396,-0.00112961,-0.496486,0.00131265,0.022033,1910,778,17.0333,-2.28672
693,246,17.0159,2.55573,0.00223538,0.000953512,-5.42307e-05,0.00223767,0.000951221,-0.0422054,0.00129674,0.0174198,1917,778,17.0158,-2.55571
700,246,17.0168,2.81378,0.00382126,0.00227172,0.000732125,0.00411246,0.00198053,0.378553,0.00237486,0.0157224,1924,778,17.0168,-2.8138
707,246,17.0258,3.07513,0.00538662,0.00397197,0.00157076,0.00640196,0.00295662,0.573844,0.00369976,0.0149641,1931,778,17.0257,-3.07516
714,246,16.9939,3.34692,0.00717761,0.00598107,0.00242774,0.00907971,0.00407897,0.66459,0.00525117,0.0128586,1938,778,16.9939,-3.3469
721,246,16.99,3.61383,0.00919333,0.00859487,0.00337533,0.0122827,0.00550553,0.741188,0.00710406,0.0172258,1945,778,16.99,-3.61385
728,246,17.0343,4.27576,0.0115946,0.0121836,0.0045182,0.0164169,0.0073613,0.817943,0.0094951,0.0336513,1952,778,17.0343,-4.27577
735,246,16.9946,5.15088,0.0143197,0.0168693,0.00577714,0.0215106,0.00967839,0.893988,0.0124399,0.0421596,1959,778,16.9947,-5.15086
742,246,16.9485,5.71252,0.017019,0.0230095,0.00705861,0.0276821,0.0123464,0.986056,0.0160133,0.0461694,1966,778,16.9484,-5.71253
749,246,16.5392,6.97656,0,0,0,0,0,0,0,-1,1973,778,16.5392,-6.97656
756,246,17.0216,7.1637,0,0,0,0,0,0,0,-1,1980,778,17.0216,-7.16367
763,246,0,0,0,0,0,0,0,0,0,-1,1987,778,0,0
770,246,0,0,0,0,0,0,0,0,0,-1,1994,778,0,0
777,246,0,0,0,0,0,0,0,0,0,-1,2001,778,0,0
784,246,0,0,0,0,0,0,0,0,0,-1,2008,778,0,0
791,246,0,0,0,0,0,0,0,0,0,-1,2015,778,0,0
798,246,0,0,0,0,0,0,0,0,0,-1,2022,778,0,0
805,246,0,0,0,0,0,0,0,0,0,-1,2029,778,0,0
812,246,0,0,0,0,0,0,0,0,0,-1,2036,778,0,0
-700,239,0,0,0,0,0,0,0,0,0,-1,524,785,0,0
-693,239,0,0,0,0,0,0,0,0,0,-1,531,785,0,0
-686,239,0,0,0,0,0,0,0,0,0,-1,538,785,0,0
-679,239,0,0,0,0,0,0,0,0,0,-1,545,785,0,0
-672,239,0,0,0,0,0,0,0,0,0,-1,552,785,0,0
-665,239,0,0,0,0,0,0,0,0,0,-1,559,785,0,0
-658,239,0,0,0,0,0,0,0,0,0,-1,566,785,0,0
-651,239,0,0,0,0,0,0,0,0,0,-1,573,785,0,0
-644,239,0,0,0,0,0,0,0,0,0,-1,580,785,0,0
-637,239,-11.5324,0.443054,0,0,0,0,0,0,0,-1,587,785,-11.5324,-0.443053
-630,239,-11.8215,0.862,0.0177806,-0.0147914,0.018446,0.0261013,-0.0231121,0.423754,0.0284308,0.0476833,594,785,-11.8216,-0.861983
-623,239,-12.1238,1.21198,0.0187027,-0.00755,0.0163441,0.0265389,-0.0153862,0.447076,0.0244893,0.0461003,601,785,-12.1238,-1.212
-616,239,-11.8592,1.63373,0.0182229,-0.00302823,0.0138483,0.0250524,-0.00985767,0.458162,0.020782,0.0469994,608,785,-11.8592,-1.63374
-609,239,-11.2292,2.18719,0.0167427,-0.000361257,0.0111901,0.0222746,-0.00589315,0.459121,0.0171549,0.0498408,615,785,-11.2292,-2.18721
-602,239,-10.7561,1.83325,0,0,0,0,0,0,0,-1,622,785,-10.7561,-1.83324
-595,239,-10.7286,1.55328,0.0118232,0.00191243,0.00660412,0.0151243,-0.0013887,0.463536,0.0105762,0.0400692,629,785,-10.7286,-1.55326
-588,239,-10.7227,1.2345,0.00937014,0.00276922,0.00503667,0.0120914,4.7965e-05,0.495357,0.00804499,0.0177156,636,785,-10.7226,-1.23452
-581,239,-10.7633,0.972778,0.00738613,0.00291948,0.00351609,0.00931821,0.000987396,0.502458,0.00591056,0.0104391,643,785,-10.7633,-0.972806
-574,239,-10.7729,0.722839,0.00513175,0.00131227,0.00189517,0.00591251,0.000531518,0.390785,0.00377699,0.0112762,650,785,-10.7729,-0.72281
-567,239,-10.7932,0.482666,0.00287884,1.07663e-05,0.000739604,0.00305833,-0.000168726,0.238084,0.00209739,0.012527,657,785,-10.7932,-0.482657
-560,239,-10.7993,0.252502,0.00052199,-0.00118768,0.000797833,0.000836464,-0.00150215,0.375461,0.00136831,0.0127664,664,785,-10.7993,-0.252477
-553,239,-10.7842,0.0102539,-0.00152431,-0.00139888,0.00130637,-0.00015372,-0.00276947,0.809384,0.00179727,0.0140443,671,785,-10.7842,-0.0102493
-546,239,-10.8235,-0.222351,-0.00287525,-0.00194469,0.00211023,-0.000249046,-0.00457089,0.893906,0.00296773,0.0152374,678,785,-10.8235,0.222323
-539,239,-10.8268,-0.481812,-0.0039155,-0.00307606,0.00257963,-0.000882232,-0.00610934,0.866044,0.00381299,0.0158834,685,785,-10.8269,0.481834
-532,239,-10.7906,-0.747314,-0.00482829,-0.00388934,0.00309096,-0.0012324,-0.00748523,0.860766,0.0046343,0.0125001,692,785,-10.7906,0.74731
-525,239,-10.7724,-0.957703,-0.00509862,-0.00383635,0.00364345,-0.000769781,-0.00816519,0.87116,0.00520587,0.0148316,699,785,-10.7724,0.957679
-518,239,-10.8298,-1.00885,-0.00501107,-0.00335658,0.00432671,0.000221263,-0.00858891,0.879856,0.0058011,0.0357957,706,785,-10.8298,1.00885
-511,239,-11.1818,-1.25385,-0.00482711,-0.00299819,0.00498648,0.00115699,-0.00898228,0.876085,0.00640876,0.0382319,713,785,-11.1818,1.25382
-504,239,-11.297,-1.34979,-0.00373338,-0.00208478,0.00573652,0.00288636,-0.00870452,0.856757,0.00696735,0.0423535,720,785,-11.297,1.34981
-497,239,-11.3625,-1.53638,0,0,0,0,0,0,0,-1,727,785,-11.3625,1.53635
-490,239,-17.3953,0.141785,0,0,0,0,0,0,0,-1,734,785,-17.3953,-0.141759
-483,239,-16.7162,0.944397,0,0,0,0,0,0,0,-1,741,785,-16.7162,-0.944378
-476,239,-16.4059,1.24005,0.0132264,0.0109381,0.0101486,0.0222951,0.00186936,0.729264,0.0142811,0.0399171,748,785,-16.4059,-1.24005
-469,239,-16.3829,1.14453,0.0206017,0.0166836,0.0111962,0.0300089,0.00727631,0.698788,0.0180755,0.0438372,755,785,-16.383,-1.14455
-462,239,-16.4103,1.05505,0,0,0,0,0,0,0,-1,762,785,-16.4103,-1.05505
-455,239,0,0,0,0,0,0,0,0,0,-1,769,785,0,0
-448,239,0,0,0,0,0,0,0,0,0,-1,776,785,0,0
-441,239,0,0,0,0,0,0,0,0,0,-1,783,785,0,0
-434,239,0,0,0,0,0,0,0,0,0,-1,790,785,0,0
-427,239,0,0,0,0,0,0,0,0,0,-1,797,785,0,0
-420,239,0,0,0,0,0,0,0,0,0,-1,804,785,0,0
-413,239,0,0,0,0,0,0,0,0,0,-1,811,785,0,0
-406,239,0,0,0,0,0,0,0,0,0,-1,818,785,0,0
-399,239,0,0,0,0,0,0,0,0,0,-1,825,785,0,0
-392,239,0,0,0,0,0,0,0,0,0,-1,832,785,0,0
-385,239,0,0,0,0,0,0,0,0,0,-1,839,785,0,0
-378,239,0,0,0,0,0,0,0,0,0,-1,846,785,0,0
-371,239,0,0,0,0,0,0,0,0,0,-1,853,785,0,0
-364,239,0,0,0,0,0,0,0,0,0,-1,860,785,0,0
-357,239,0,0,0,0,0,0,0,0,0,-1,867,785,0,0
-350,239,0,0,0,0,0,0,0,0,0,-1,874,785,0,0
-343,239,0,0,0,0,0,0,0,0,0,-1,881,785,0,0
-336,239,0,0,0,0,0,0,0,0,0,-1,888,785,0,0
-329,239,0,0,0,0,0,0,0,0,0,-1,895,785,0,0
-322,239,0,0,0,0,0,0,0,0,0,-1,902,785,0,0
-315,239,0,0,0,0,0,0,0,0,0,-1,909,785,0,0
-308,239,0,0,0,0,0,0,0,0,0,-1,916,785,0,0
-301,239,0,0,0,0,0,0,0,0,0,-1,923,785,0,0
-294,239,0,0,0,0,0,0,0,0,0,-1,930,785,0,0
-287,239,0,0,0,0,0,0,0,0,0,-1,937,785,0,0
-280,239,0,0,0,0,0,0,0,0,0,-1,944,785,0,0
-273,239,0,0,0,0,0,0,0,0,0,-1,951,785,0,0
-266,239,0,0,0,0,0,0,0,0,0,-1,958,785,0,0
-259,239,0,0,0,0,0,0,0,0,0,-1,965,785,0,0
-252,239,0,0,0,0,0,0,0,0,0,-1,972,785,0,0
-245,239,0,0,0,0,0,0,0,0,0,-1,979,785,0,0
-238,239,0,0,0,0,0,0,0,0,0,-1,986,785,0,0
-231,239,0,0,0,0,0,0,0,0,0,-1,993,785,0,0
-224,239,0,0,0,0,0,0,0,0,0,-1,1000,785,0,0
-217,239,0,0,0,0,0,0,0,0,0,-1,1007,785,0,0
-210,239,0,0,0,0,0,0,0,0,0,-1,1014,785,0,0
-203,239,0,0,0,0,0,0,0,0,0,-1,1021,785,0,0
-196,239,0,0,0,0,0,0,0,0,0,-1,1028,785,0,0
-189,239,0,0,0,0,0,0,0,0,0,-1,1035,785,0,0
-182,239,0,0,0,0,0,0,0,0,0,-1,1042,785,0,0
-175,239,0,0,0,0,0,0,0,0,0,-1,1049,785,0,0
-168,239,0,0,0,0,0,0,0,0,0,-1,1056,785,0,0
-161,239,0,0,0,0,0,0,0,0,0,-1,1063,785,0,0
-154,239,0,0,0,0,0,0,0,0,0,-1,1070,785,0,0
-147,239,0,0,0,0,0,0,0,0,0,-1,1077,785,0,0
-140,239,0,0,0,0,0,0,0,0,0,-1,1084,785,0,0
-133,239,0,0,0,0,0,0,0,0,0,-1,1091,785,0,0
-126,239,0,0,0,0,0,0,0,0,0,-1,1098,785,0,0
-119,239,0,0,0,0,0,0,0,0,0,-1,1105,785,0,0
-112,239,0,0,0,0,0,0,0,0,0,-1,1112,785,0,0
-105,239,0,0,0,0,0,0,0,0,0,-1,1119,785,0,0
-98,239,0,0,0,0,0,0,0,0,0,-1,1126,785,0,0
-91,239,0,0,0,0,0,0,0,0,0,-1,1133,785,0,0
-84,239,0,0,0,0,0,0,0,0,0,-1,1140,785,0,0
-77,239,0,0,0,0,0,0,0,0,0,-1,1147,785,0,0
-70,239,0,0,0,0,0,0,0,0,0,-1,1154,785,0,0
-63,239,0,0,0,0,0,0,0,0,0,-1,1161,785,0,0
-56,239,0,0,0,0,0,0,0,0,0,-1,1168,785,0,0
-49,239,0,0,0,0,0,0,0,0,0,-1,1175,785,0,0
-42,239,0,0,0,0,0,0,0,0,0,-1,1182,785,0,0
-35,239,0,0,0,0,0,0,0,0,0,-1,1189,785,0,0
-28,239,0,0,0,0,0,0,0,0,0,-1,1196,785,0,0
-21,239,0,0,0,0,0,0,0,0,0,-1,1203,785,0,0
-14,239,0,0,0,0,0,0,0,0,0,-1,1210,785,0,0
-7,239,0,0,0,0,0,0,0,0,0,-1,1217,785,0,0
0,239,0,0,0,0,0,0,0,0,0,-1,1224,785,0,0
7,239,0,0,0,0,0,0,0,0,0,-1,1231,785,0,0
14,239,0,0,0,0,0,0,0,0,0,-1,1238,785,0,0
21,239,0,0,0,0,0,0,0,0,0,-1,1245,785,0,0
28,239,0,0,0,0,0,0,0,0,0,-1,1252,785,0,0
35,239,0,0,0,0,0,0,0,0,0,-1,1259,785,0,0
42,239,0,0,0,0,0,0,0,0,0,-1,1266,785,0,0
49,239,0,0,0,0,0,0,0,0,0,-1,1273,785,0,0
56,239,0,0,0,0,0,0,0,0,0,-1,1280,785,0,0
63,239,0,0,0,0,0,0,0,0,0,-1,1287,785,0,0
70,239,0,0,0,0,0,0,0,0,0,-1,1294,785,0,0
77,239,0,0,0,0,0,0,0,0,0,-1,1301,785,0,0
84,239,0,0,0,0,0,0,0,0,0,-1,1308,785,0,0
91,239,0,0,0,0,0,0,0,0,0,-1,1315,785,0,0
98,239,0,0,0,0,0,0,0,0,0,-1,1322,785,0,0
105,239,0,0,0,0,0,0,0,0,0,-1,1329,785,0,0
112,239,0,0,0,0,0,0,0,0,0,-1,1336,785,0,0
119,239,0,0,0,0,0,0,0,0,0,-1,1343,785,0,0
126,239,0,0,0,0,0,0,0,0,0,-1,1350,785,0,0
133,239,0,0,0,0,0,0,0,0,0,-1,1357,785,0,0
140,239,0,0,0,0,0,0,0,0,0,-1,1364,785,0,0
147,239,0,0,0,0,0,0,0,0,0,-1,1371,785,0,0
154,239,0,0,0,0,0,0,0,0,0,-1,1378,785,0,0
161,239,0,0,0,0,0,0,0,0,0,-1,1385,785,0,0
168,239,0,0,0,0,0,0,0,0,0,-1,1392,785,0,0
175,239,0,0,0,0,0,0,0,0,0,-1,1399,785,0,0
182,239,0,0,0,0,0,0,0,0,0,-1,1406,785,0,0
189,239,0,0,0,0,0,0,0,0,0,-1,1413,785,0,0
196,239,0,0,0,0,0,0,0,0,0,-1,1420,785,0,0
203,239,0,0,0,0,0,0,0,0,0,-1,1427,785,0,0
210,239,0,0,0,0,0,0,0,0,0,-1,1434,785,0,0
217,239,0,0,0,0,0,0,0,0,0,-1,1441,785,0,0
224,239,0,0,0,0,0,0,0,0,0,-1,1448,785,0,0
231,239,0,0,0,0,0,0,0,0,0,-1,1455,785,0,0
238,239,0,0,0,0,0,0,0,0,0,-1,1462,785,0,0
245,239,0,0,0,0,0,0,0,0,0,-1,1469,785,0,0
252,239,0,0,0,0,0,0,0,0,0,-1,1476,785,0,0
259,239,0,0,0,0,0,0,0,0,0,-1,1483,785,0,0
266,239,0,0,0,0,0,0,0,0,0,-1,1490,785,0,0
273,239,0,0,0,0,0,0,0,0,0,-1,1497,785,0,0
280,239,0,0,0,0,0,0,0,0,0,-1,1504,785,0,0
287,239,0,0,0,0,0,0,0,0,0,-1,1511,785,0,0
294,239,0,0,0,0,0,0,0,0,0,-1,1518,785,0,0
301,239,0,0,0,0,0,0,0,0,0,-1,1525,785,0,0
308,239,0,0,0,0,0,0,0,0,0,-1,1532,785,0,0
315,239,0,0,0,0,0,0,0,0,0,-1,1539,785,0,0
322,239,0,0,0,0,0,0,0,0,0,-1,1546,785,0,0
329,239,0,0,0,0,0,0,0,0,0,-1,1553,785,0,0
336,239,0,0,0,0,0,0,0,0,0,-1,1560,785,0,0
343,239,0,0,0,0,0,0,0,0,0,-1,1567,785,0,0
350,239,0,0,0,0,0,0,0,0,0,-1,1574,785,0,0
357,239,0,0,0,0,0,0,0,0,0,-1,1581,785,0,0
364,239,0,0,0,0,0,0,0,0,0,-1,1588,785,0,0
371,239,0,0,0,0,0,0,0,0,0,-1,1595,785,0,0
378,239,0,0,0,0,0,0,0,0,0,-1,1602,785,0,0
385,239,0,0,0,0,0,0,0,0,0,-1,1609,785,0,0
392,239,0,0,0,0,0,0,0,0,0,-1,1616,785,0,0
399,239,0,0,0,0,0,0,0,0,0,-1,1623,785,0,0
406,239,0,0,0,0,0,0,0,0,0,-1,1630,785,0,0
413,239,0,0,0,0,0,0,0,0,0,-1,1637,785,0,0
420,239,0,0,0,0,0,0,0,0,0,-1,1644,785,0,0
427,239,0,0,0,0,0,0,0,0,0,-1,1651,785,0,0
434,239,0,0,0,0,0,0,0,0,0,-1,1658,785,0,0
441,239,0,0,0,0,0,0,0,0,0,-1,1665,785,0,0
448,239,0,0,0,0,0,0,0,0,0,-1,1672,785,0,0
455,239,0,0,0,0,0,0,0,0,0,-1,1679,785,0,0
462,239,0,0,0,0,0,0,0,0,0,-1,1686,785,0,0
469,239,0,0,0,0,0,0,0,0,0,-1,1693,785,0,0
476,239,0,0,0,0,0,0,0,0,0,-1,1700,785,0,0
483,239,0,0,0,0,0,0,0,0,0,-1,1707,785,0,0
490,239,0,0,0,0,0,0,0,0,0,-1,1714,785,0,0
497,239,0,0,0,0,0,0,0,0,0,-1,1721,785,0,0
504,239,0,0,0,0,0,0,0,0,0,-1,1728,785,0,0
511,239,0,0,0,0,0,0,0,0,0,-1,1735,785,0,0
518,239,0,0,0,0,0,0,0,0,0,-1,1742,785,0,0
525,239,0,0,0,0,0,0,0,0,0,-1,1749,785,0,0
532,239,0,0,0,0,0,0,0,0,0,-1,1756,785,0,0
539,239,0,0,0,0,0,0,0,0,0,-1,1763,785,0,0
546,239,0,0,0,0,0,0,0,0,0,-1,1770,785,0,0
553,239,0,0,0,0,0,0,0,0,0,-1,1777,785,0,0
560,239,0,0,0,0,0,0,0,0,0,-1,1784,785,0,0
567,239,0,0,0,0,0,0,0,0,0,-1,1791,785,0,0
574,239,0,0,0,0,0,0,0,0,0,-1,1798,785,0,0
581,239,23.817,2.83459,-0.00583078,0.0128336,-0.00479184,0.013992,-0.00698913,-1.33361,0.0123363,0.0361966,1805,785,23.8171,-2.83459
588,239,23.8127,2.80658,0.00495003,0.00805139,-0.00128118,0.00851218,0.00448924,-1.22554,0.00491697,0.0389678,1812,785,23.8127,-2.80658
595,239,23.9172,2.77448,0.0103467,0.00338633,0.000948977,0.0104738,0.00325927,0.133104,0.00618909,0.034628,1819,785,23.9173,-2.77447
602,239,24.0115,2.77747,0.0119879,-0.0003184,0.00238069,0.0124324,-0.000762896,0.184584,0.00855391,0.037436,1826,785,24.0115,-2.77744
609,239,24.1156,2.85431,0.0114041,-0.00320229,0.0030349,0.0120096,-0.00380777,0.196923,0.00953264,0.0487726,1833,785,24.1156,-2.85432
616,239,24.2881,2.91528,0.00982651,-0.00521284,0.00309897,0.01044,-0.00582638,0.195453,0.00951651,0.0499707,1840,785,24.288,-2.91527
623,239,24.5314,2.92761,0.00768558,-0.00648643,0.00282116,0.00822653,-0.00702738,0.189447,0.00881591,0.0436912,1847,785,24.5314,-2.92761
630,239,24.6057,3.01343,0.00526182,-0.00709418,0.00210231,0.00560973,-0.00744208,0.163999,0.00756018,0.0442216,1854,785,24.6057,-3.01342
637,239,24.6757,3.06372,0,0,0,0,0,0,0,-1,1861,785,24.6757,-3.06375
644,239,17.1144,0.717957,0,0,0,0,0,0,0,-1,1868,785,17.1144,-0.71794
651,239,17.1791,1.00018,-0.000784653,-0.00679263,4.81345e-05,-0.000784268,-0.00679302,0.00801107,0.00429121,0.0451175,1875,785,17.179,-1.00021
658,239,17.2426,1.27405,-0.001966,-0.00596005,-0.000697456,-0.00184771,-0.00607834,-0.168002,0.0035981,0.0197855,1882,785,17.2426,-1.27405
665,239,17.2726,1.53613,-0.00276975,-0.00483142,-0.00142685,-0.00204033,-0.00556085,-0.472578,0.00324825,0.0142275,1889,785,17.2725,-1.53616
672,239,17.2844,1.81061,-0.00277899,-0.00385855,-0.00192938,-0.00131531,-0.00532224,-0.649,0.0032011,0.0201759,1896,785,17.2844,-1.81064
679,239,17.325,2.05896,-0.00209519,-0.00279826,-0.00207235,-0.000344768,-0.00454868,-0.701382,0.00292431,0.0219499,1903,785,17.325,-2.05897
686,239,17.3026,2.33362,-0.000538091,-0.00102969,-0.00144974,0.000686542,-0.00225433,-0.701423,0.00177652,0.024591,1910,785,17.3026,-2.33362
693,239,17.2701,2.58661,0.00108698,0.000519666,-0.000498712,0.00137706,0.000229584,-0.526826,0.000851887,0.0163486,1917,785,17.2701,-2.58659
700,239,17.2798,2.82684,0.0026825,0.00175391,0.000288598,0.00276488,0.00167153,0.278071,0.0016079,0.0127915,1924,785,17.2798,-2.82686
707,239,17.2775,3.08362,0.00419524,0.00335554,0.00112873,0.00497968,0.0025711,0.607344,0.00287553,0.011538,1931,785,17.2774,-3.0836
714,239,17.2676,3.32904,0.00577827,0.00519038,0.00190956,0.00741637,0.00355228,0.709031,0.00428311,0.00974514,1938,785,17.2675,-3.32904
721,239,17.2472,3.57635,0.0075798,0.00745548,0.0027088,0.0102272,0.00480813,0.773927,0.00590816,0.019181,1945,785,17.2472,-3.57634
728,239,17.3302,4.15594,0.00974017,0.0104481,0.00363198,0.0137433,0.00644494,0.833973,0.00793981,0.0333055,1952,785,17.3302,-4.15593
735,239,17.5532,4.9032,0.0122721,0.0142085,0.00462159,0.0179622,0.00851836,0.888656,0.0103751,0.0445424,1959,785,17.5532,-4.90323
742,239,17.593,5.3783,0.01504,0.0189528,0.00561779,0.0229451,0.0110477,0.952957,0.0132504,0.047767,1966,785,17.5931,-5.3783
749,239,17.9808,5.86072,0,0,0,0,0,0,0,-1,1973,785,17.9809,-5.86073
756,239,18.4789,6.03967,0,0,0,0,0,0,0,-1,1980,785,18.4789,-6.03966
763,239,0,0,0,0,0,0,0,0,0,-1,1987,785,0,0
770,239,0,0,0,0,0,0,0,0,0,-1,1994,785,0,0
777,239,0,0,0,0,0,0,0,0,0,-1,2001,785,0,0
784,239,0,0,0,0,0,0,0,0,0,-1,2008,785,0,0
791,239,0,0,0,0,0,0,0,0,0,-1,2015,785,0,0
798,239,0,0,0,0,0,0,0,0,0,-1,2022,785,0,0
805,239,0,0,0,0,0,0,0,0,0,-1,2029,785,0,0
812,239,0,0,0,0,0,0,0,0,0,-1,2036,785,0,0
-700,232,0,0,0,0,0,0,0,0,0,-1,524,792,0,0
-693,232,0,0,0,0,0,0,0,0,0,-1,531,792,0,0
-686,232,0,0,0,0,0,0,0,0,0,-1,538,792,0,0
-679,232,0,0,0,0,0,0,0,0,0,-1,545,792,0,0
-672,232,0,0,0,0,0,0,0,0,0,-1,552,792,0,0
-665,232,0,0,0,0,0,0,0,0,0,-1,559,792,0,0
-658,232,0,0,0,0,0,0,0,0,0,-1,566,792,0,0
-651,232,0,0,0,0,0,0,0,0,0,-1,573,792,0,0
-644,232,-12.0689,-0.0904541,0,0,0,0,0,0,0,-1,580,792,-12.0689,0.0904347
-637,232,-12.2994,0.279846,0.0116367,-0.0291121,0.0130979,0.0154836,-0.032959,0.28567,0.0285685,0.0465684,587,792,-12.2993,-0.279857
-630,232,-12.4946,0.670959,0.01358,-0.0175172,0.0133581,0.0185301,-0.0224673,0.354882,0.0237063,0.0492237,594,792,-12.4946,-0.670968
-623,232,-12.7142,1.10834,0,0,0,0,0,0,0,-1,601,792,-12.7142,-1.10833
-616,232,-12.5206,1.66724,0,0,0,0,0,0,0,-1,608,792,-12.5206,-1.66726
-609,232,-11.7072,2.1922,0,0,0,0,0,0,0,-1,615,792,-11.7071,-2.19223
-602,232,-11.1613,1.9826,0,0,0,0,0,0,0,-1,622,792,-11.1613,-1.98259
-595,232,-11.0702,1.60742,0.00903016,0.00139605,0.00611552,0.0124221,-0.00199588,0.506401,0.00902059,0.0347863,629,792,-11.0702,-1.60745
-588,232,-11.0288,1.23169,0.00714633,0.0025491,0.00494646,0.0103022,-0.000606744,0.567893,0.00707903,0.0125548,636,792,-11.0288,-1.2317
-581,232,-11.0121,0.966064,0.00579968,0.00268617,0.00362046,0.00818389,0.000301959,0.582354,0.00535811,0.00824989,643,792,-11.0122,-0.966038
-574,232,-11.0089,0.736023,0.00404681,0.000990079,0.00204122,0.00506844,-3.15511e-05,0.464047,0.00338953,0.0080076,650,792,-11.0089,-0.736002
-567,232,-11.0341,0.507263,0.00219578,-0.000145849,0.000985721,0.00255547,-0.000505542,0.34989,0.00189478,0.00910403,657,792,-11.0341,-0.50724
-560,232,-11.0427,0.271606,0.000235545,-0.00118487,0.00101025,0.000760241,-0.00170957,0.479028,0.00146064,0.01136,664,792,-11.0427,-0.271583
-553,232,-11.0712,0.0281982,-0.0014917,-0.0013271,0.00148315,7.60297e-05,-0.00289483,0.813114,0.00195572,0.0127041,671,792,-11.0712,-0.0281814
-546,232,-11.0972,-0.207275,-0.00272212,-0.0018079,0.00215983,-5.73376e-05,-0.00447269,0.88968,0.00296286,0.0221813,678,792,-11.0972,0.207266
-539,232,-11.0916,-0.467224,-0.00370165,-0.00280988,0.00252996,-0.000686812,-0.00582472,0.872624,0.00367566,0.0265474,685,792,-11.0916,0.467219
-532,232,-11.0535,-0.734558,-0.00452922,-0.00344682,0.00295265,-0.000986183,-0.00698986,0.876039,0.00436844,0.0165613,692,792,-11.0534,0.734552
-525,232,-11.0557,-0.891357,-0.00486856,-0.0033586,0.00336892,-0.0006611,-0.00756606,0.895627,0.00483875,0.0269918,699,792,-11.0556,0.891375
-518,232,-11.1101,-0.857727,0,0,0,0,0,0,0,-1,706,792,-11.1101,0.857735
-511,232,-11.5468,-0.842163,-0.00503242,-0.00260864,0.00428783,0.000635271,-0.00827633,0.923123,0.00574104,0.043336,713,792,-11.5468,0.842191
-504,232,-11.8922,-1.37451,-0.00434493,-0.00183692,0.00471792,0.0017908,-0.00797265,0.915293,0.00600176,0.043328,720,792,-11.8921,1.37449
-497,232,-12.2381,-2.005,0,0,0,0,0,0,0,-1,727,792,-12.2381,2.005
-490,232,-16.814,0.334167,1.94874e-05,0.00199958,0.00564939,0.00674502,-0.00472595,0.872142,0.00665688,0.0433157,734,792,-16.814,-0.334137
-483,232,-16.5955,0.977722,0.00424981,0.00552639,0.00601524,0.0109371,-0.00116091,0.838256,0.00770757,0.0437967,741,792,-16.5955,-0.977715
-476,232,-16.5073,0.917419,0.00973121,0.0102612,0.00619274,0.0161946,0.0037978,0.80678,0.00977945,0.0345743,748,792,-16.5073,-0.917448
-469,232,-16.51,0.814758,0.0163447,0.0159424,0.00601178,0.0221587,0.0101284,0.768676,0.012809,0.0338697,755,792,-16.51,-0.814765
-462,232,0,0,0,0,0,0,0,0,0,-1,762,792,0,0
-455,232,0,0,0,0,0,0,0,0,0,-1,769,792,0,0
-448,232,0,0,0,0,0,0,0,0,0,-1,776,792,0,0
-441,232,0,0,0,0,0,0,0,0,0,-1,783,792,0,0
-434,232,0,0,0,0,0,0,0,0,0,-1,790,792,0,0
-427,232,0,0,0,0,0,0,0,0,0,-1,797,792,0,0
-420,232,0,0,0,0,0,0,0,0,0,-1,804,792,0,0
-413,232,0,0,0,0,0,0,0,0,0,-1,811,792,0,0
-406,232,0,0,0,0,0,0,0,0,0,-1,818,792,0,0
-399,232,0,0,0,0,0,0,0,0,0,-1,825,792,0,0
-392,232,0,0,0,0,0,0,0,0,0,-1,832,792,0,0
-385,232,0,0,0,0,0,0,0,0,0,-1,839,792,0,0
-378,232,0,0,0,0,0,0,0,0,0,-1,846,792,0,0
-371,232,0,0,0,0,0,0,0,0,0,-1,853,792,0,0
-364,232,0,0,0,0,0,0,0,0,0,-1,860,792,0,0
-357,232,0,0,0,0,0,0,0,0,0,-1,867,792,0,0
-350,232,0,0,0,0,0,0,0,0,0,-1,874,792,0,0
-343,232,0,0,0,0,0,0,0,0,0,-1,881,792,0,0
-336,232,0,0,0,0,0,0,0,0,0,-1,888,792,0,0
-329,232,0,0,0,0,0,0,0,0,0,-1,895,792,0,0
-322,232,0,0,0,0,0,0,0,0,0,-1,902,792,0,0
-315,232,0,0,0,0,0,0,0,0,0,-1,909,792,0,0
-308,232,0,0,0,0,0,0,0,0,0,-1,916,792,0,0
-301,232,0,0,0,0,0,0,0,0,0,-1,923,792,0,0
-294,232,0,0,0,0,0,0,0,0,0,-1,930,792,0,0
-287,232,0,0,0,0,0,0,0,0,0,-1,937,792,0,0
-280,232,0,0,0,0,0,0,0,0,0,-1,944,792,0,0
-273,232,0,0,0,0,0,0,0,0,0,-1,951,792,0,0
-266,232,0,0,0,0,0,0,0,0,0,-1,958,792,0,0
-259,232,0,0,0,0,0,0,0,0,0,-1,965,792,0,0
-252,232,0,0,0,0,0,0,0,0,0,-1,972,792,0,0
-245,232,0,0,0,0,0,0,0,0,0,-1,979,792,0,0
-238,232,0,0,0,0,0,0,0,0,0,-1,986,792,0,0
-231,232,0,0,0,0,0,0,0,0,0,-1,993,792,0,0
-224,232,0,0,0,0,0,0,0,0,0,-1,1000,792,0,0
-217,232,0,0,0,0,0,0,0,0,0,-1,1007,792,0,0
-210,232,0,0,0,0,0,0,0,0,0,-1,1014,792,0,0
-203,232,0,0,0,0,0,0,0,0,0,-1,1021,792,0,0
-196,232,0,0,0,0,0,0,0,0,0,-1,1028,792,0,0
-189,232,0,0,0,0,0,0,0,0,0,-1,1035,792,0,0
-182,232,0,0,0,0,0,0,0,0,0,-1,1042,792,0,0
-175,232,0,0,0,0,0,0,0,0,0,-1,1049,792,0,0
-168,232,0,0,0,0,0,0,0,0,0,-1,1056,792,0,0
-161,232,0,0,0,0,0,0,0,0,0,-1,1063,792,0,0
-154,232,0,0,0,0,0,0,0,0,0,-1,1070,792,0,0
-147,232,0,0,0,0,0,0,0,0,0,-1,1077,792,0,0
-140,232,0,0,0,0,0,0,0,0,0,-1,1084,792,0,0
-133,232,0,0,0,0,0,0,0,0,0,-1,1091,792,0,0
-126,232,0,0,0,0,0,0,0,0,0,-1,1098,792,0,0
-119,232,0,0,0,0,0,0,0,0,0,-1,1105,792,0,0
-112,232,0,0,0,0,0,0,0,0,0,-1,1112,792,0,0
-105,232,0,0,0,0,0,0,0,0,0,-1,1119,792,0,0
-98,232,0,0,0,0,0,0,0,0,0,-1,1126,792,0,0
-91,232,0,0,0,0,0,0,0,0,0,-1,1133,792,0,0
-84,232,0,0,0,0,0,0,0,0,0,-1,1140,792,0,0
-77,232,0,0,0,0,0,0,0,0,0,-1,1147,792,0,0
-70,232,0,0,0,0,0,0,0,0,0,-1,1154,792,0,0
-63,232,0,0,0,0,0,0,0,0,0,-1,1161,792,0,0
-56,232,0,0,0,0,0,0,0,0,0,-1,1168,792,0,0
-49,232,0,0,0,0,0,0,0,0,0,-1,1175,792,0,0
-42,232,0,0,0,0,0,0,0,0,0,-1,1182,792,0,0
-35,232,0,0,0,0,0,0,0,0,0,-1,1189,792,0,0
-28,232,0,0,0,0,0,0,0,0,0,-1,1196,792,0,0
-21,232,0,0,0,0,0,0,0,0,0,-1,1203,792,0,0
-14,232,0,0,0,0,0,0,0,0,0,-1,1210,792,0,0
-7,232,0,0,0,0,0,0,0,0,0,-1,1217,792,0,0
0,232,0,0,0,0,0,0,0,0,0,-1,1224,792,0,0
7,232,0,0,0,0,0,0,0,0,0,-1,1231,792,0,0
14,232,0,0,0,0,0,0,0,0,0,-1,1238,792,0,0
21,232,0,0,0,0,0,0,0,0,0,-1,1245,792,0,0
28,232,0,0,0,0,0,0,0,0,0,-1,1252,792,0,0
35,232,0,0,0,0,0,0,0,0,0,-1,1259,792,0,0
42,232,0,0,0,0,0,0,0,0,0,-1,1266,792,0,0
49,232,0,0,0,0,0,0,0,0,0,-1,1273,792,0,0
56,232,0,0,0,0,0,0,0,0,0,-1,1280,792,0,0
63,232,0,0,0,0,0,0,0,0,0,-1,1287,792,0,0
70,232,0,0,0,0,0,0,0,0,0,-1,1294,792,0,0
77,232,0,0,0,0,0,0,0,0,0,-1,1301,792,0,0
84,232,0,0,0,0,0,0,0,0,0,-1,1308,792,0,0
91,232,0,0,0,0,0,0,0,0,0,-1,1315,792,0,0
98,232,0,0,0,0,0,0,0,0,0,-1,1322,792,0,0
105,232,0,0,0,0,0,0,0,0,0,-1,1329,792,0,0
112,232,0,0,0,0,0,0,0,0,0,-1,1336,792,0,0
119,232,0,0,0,0,0,0,0,0,0,-1,1343,792,0,0
126,232,0,0,0,0,0,0,0,0,0,-1,1350,792,0,0
133,232,0,0,0,0,0,0,0,0,0,-1,1357,792,0,0
140,232,0,0,0,0,0,0,0,0,0,-1,1364,792,0,0
147,232,0,0,0,0,0,0,0,0,0,-1,1371,792,0,0
154,232,0,0,0,0,0,0,0,0,0,-1,1378,792,0,0
161,232,0,0,0,0,0,0,0,0,0,-1,1385,792,0,0
168,232,0,0,0,0,0,0,0,0,0,-1,1392,792,0,0
175,232,0,0,0,0,0,0,0,0,0,-1,1399,792,0,0
182,232,0,0,0,0,0,0,0,0,0,-1,1406,792,0,0
189,232,0,0,0,0,0,0,0,0,0,-1,1413,792,0,0
196,232,0,0,0,0,0,0,0,0,0,-1,1420,792,0,0
203,232,0,0,0,0,0,0,0,0,0,-1,1427,792,0,0
210,232,0,0,0,0,0,0,0,0,0,-1,1434,792,0,0
217,232,0,0,0,0,0,0,0,0,0,-1,1441,792,0,0
224,232,0,0,0,0,0,0,0,0,0,-1,1448,792,0,0
231,232,0,0,0,0,0,0,0,0,0,-1,1455,792,0,0
238,232,0,0,0,0,0,0,0,0,0,-1,1462,792,0,0
245,232,0,0,0,0,0,0,0,0,0,-1,1469,792,0,0
252,232,0,0,0,0,0,0,0,0,0,-1,1476,792,0,0
259,232,0,0,0,0,0,0,0,0,0,-1,1483,792,0,0
266,232,0,0,0,0,0,0,0,0,0,-1,1490,792,0,0
273,232,0,0,0,0,0,0,0,0,0,-1,1497,792,0,0
280,232,0,0,0,0,0,0,0,0,0,-1,1504,792,0,0
287,232,0,0,0,0,0,0,0,0,0,-1,1511,792,0,0
294,232,0,0,0,0,0,0,0,0,0,-1,1518,792,0,0
301,232,0,0,0,0,0,0,0,0,0,-1,1525,792,0,0
308,232,0,0,0,0,0,0,0,0,0,-1,1532,792,0,0
315,232,0,0,0,0,0,0,0,0,0,-1,1539,792,0,0
322,232,0,0,0,0,0,0,0,0,0,-1,1546,792,0,0
329,232,0,0,0,0,0,0,0,0,0,-1,1553,792,0,0
336,232,0,0,0,0,0,0,0,0,0,-1,1560,792,0,0
343,232,0,0,0,0,0,0,0,0,0,-1,1567,792,0,0
350,232,0,0,0,0,0,0,0,0,0,-1,1574,792,0,0
357,232,0,0,0,0,0,0,0,0,0,-1,1581,792,0,0
364,232,0,0,0,0,0,0,0,0,0,-1,1588,792,0,0
371,232,0,0,0,0,0,0,0,0,0,-1,1595,792,0,0
378,232,0,0,0,0,0,0,0,0,0,-1,1602,792,0,0
385,232,0,0,0,0,0,0,0,0,0,-1,1609,792,0,0
392,232,0,0,0,0,0,0,0,0,0,-1,1616,792,0,0
399,232,0,0,0,0,0,0,0,0,0,-1,1623,792,0,0
406,232,0,0,0,0,0,0,0,0,0,-1,1630,792,0,0
413,232,0,0,0,0,0,0,0,0,0,-1,1637,792,0,0
420,232,0,0,0,0,0,0,0,0,0,-1,1644,792,0,0
427,232,0,0,0,0,0,0,0,0,0,-1,1651,792,0,0
434,232,0,0,0,0,0,0,0,0,0,-1,1658,792,0,0
441,232,0,0,0,0,0,0,0,0,0,-1,1665,792,0,0
448,232,0,0,0,0,0,0,0,0,0,-1,1672,792,0,0
455,232,0,0,0,0,0,0,0,0,0,-1,1679,792,0,0
462,232,0,0,0,0,0,0,0,0,0,-1,1686,792,0,0
469,232,0,0,0,0,0,0,0,0,0,-1,1693,792,0,0
476,232,0,0,0,0,0,0,0,0,0,-1,1700,792,0,0
483,232,0,0,0,0,0,0,0,0,0,-1,1707,792,0,0
490,232,0,0,0,0,0,0,0,0,0,-1,1714,792,0,0
497,232,0,0,0,0,0,0,0,0,0,-1,1721,792,0,0
504,232,0,0,0,0,0,0,0,0,0,-1,1728,792,0,0
511,232,0,0,0,0,0,0,0,0,0,-1,1735,792,0,0
518,232,0,0,0,0,0,0,0,0,0,-1,1742,792,0,0
525,232,0,0,0,0,0,0,0,0,0,-1,1749,792,0,0
532,232,0,0,0,0,0,0,0,0,0,-1,1756,792,0,0
539,232,0,0,0,0,0,0,0,0,0,-1,1763,792,0,0
546,232,0,0,0,0,0,0,0,0,0,-1,1770,792,0,0
553,232,0,0,0,0,0,0,0,0,0,-1,1777,792,0,0
560,232,0,0,0,0,0,0,0,0,0,-1,1784,792,0,0
567,232,0,0,0,0,0,0,0,0,0,-1,1791,792,0,0
574,232,0,0,0,0,0,0,0,0,0,-1,1798,792,0,0
581,232,0,0,0,0,0,0,0,0,0,-1,1805,792,0,0
588,232,23.8408,2.85651,0.00236566,0.00911062,-0.00171672,0.00952242,0.00195387,-1.33537,0.0058076,0.038059,1812,792,23.8409,-2.8565
595,232,23.8644,2.82245,0.00791041,0.00441254,0.000882834,0.00812059,0.00420235,0.233734,0.00468938,0.035689,1819,792,23.8644,-2.82243
602,232,23.8545,2.76416,0.00959157,0.000672586,0.00250307,0.010246,1.81356e-05,0.255735,0.00682464,0.0349607,1826,792,23.8545,-2.76414
609,232,23.9063,2.84265,0.00902273,-0.00233297,0.00311868,0.00982286,-0.00313309,0.251142,0.00780543,0.0408354,1833,792,23.9062,-2.84265
616,232,24.0793,2.92529,0.00728635,-0.00447547,0.00301717,0.00801516,-0.00520428,0.237015,0.00768954,0.0415173,1840,792,24.0793,-2.92531
623,232,24.0116,3.07977,0.00507681,-0.00576607,0.00250463,0.0056274,-0.00631666,0.216388,0.00689974,0.040785,1847,792,24.0116,-3.07979
630,232,23.8889,3.42645,0.00285574,-0.00639545,0.00163165,0.00313508,-0.0066748,0.169558,0.00578533,0.0436718,1854,792,23.889,-3.42645
637,232,23.7067,2.19849,0.000790371,-0.00663417,0.000840405,0.00088431,-0.00672811,0.111316,0.00480736,0.045746,1861,792,23.7066,-2.1985
644,232,17.4713,1.54535,0,0,0,0,0,0,0,-1,1868,792,17.4713,-1.54532
651,232,17.557,1.4812,-0.00216494,-0.00616848,-0.000585206,-0.00208115,-0.00625226,-0.142209,0.00367636,0.0469636,1875,792,17.5569,-1.48122
658,232,17.5824,1.32166,-0.00305733,-0.00548985,-0.00126369,-0.00251968,-0.00602751,-0.402261,0.00349554,0.0255599,1882,792,17.5824,-1.32165
665,232,17.538,1.53363,-0.00365449,-0.00457953,-0.00190673,-0.00215499,-0.00607903,-0.666409,0.00355893,0.011881,1889,792,17.538,-1.53361
672,232,17.542,1.81805,-0.00360831,-0.00377024,-0.00234047,-0.0013474,-0.00603115,-0.768108,0.00365537,0.0172276,1896,792,17.542,-1.81805
679,232,17.5753,2.09479,-0.00292261,-0.00294354,-0.00243752,-0.000495532,-0.00537062,-0.783251,0.0034272,0.0188548,1903,792,17.5753,-2.09482
686,232,17.5542,2.35339,-0.001432,-0.00127308,-0.00183719,0.000486367,-0.00319145,-0.80701,0.00230691,0.019523,1910,792,17.5542,-2.3534
693,232,17.5419,2.59576,0.000193274,0.000183793,-0.000872677,0.00106122,-0.000684156,-0.782682,0.0010155,0.0111912,1917,792,17.5419,-2.59575
700,232,17.561,2.84088,0.00183406,0.00127531,-0.000105426,0.00185329,0.00125608,-0.180422,0.00109231,0.0124104,1924,792,17.5611,-2.84086
707,232,17.551,3.09497,0.00334057,0.00270739,0.000735323,0.00382456,0.0022234,0.582118,0.00221783,0.0117245,1931,792,17.5511,-3.09495
714,232,17.5364,3.33221,0.00477847,0.00432278,0.001443,0.0060115,0.00308975,0.707097,0.00347119,0.0119098,1938,792,17.5363,-3.33222
721,232,17.522,3.54773,0.00642682,0.00620628,0.00211028,0.00842971,0.00420339,0.759296,0.0048669,0.0175039,1945,792,17.522,-3.54772
728,232,17.4762,3.76208,0.0083894,0.00857475,0.00283584,0.0113194,0.00564472,0.801732,0.00653528,0.0330224,1952,792,17.4762,-3.76209
735,232,17.6031,4.23419,0.0107387,0.0114521,0.00359737,0.0147104,0.0074804,0.834811,0.00849347,0.0499538,1959,792,17.6031,-4.2342
742,232,17.559,4.57745,0,0,0,0,0,0,0,-1,1966,792,17.5589,-4.57743
749,232,19.4225,4.74487,0,0,0,0,0,0,0,-1,1973,792,19.4225,-4.74489
756,232,20.0022,4.93127,0,0,0,0,0,0,0,-1,1980,792,20.0022,-4.93128
763,232,20.4711,5.09796,0,0,0,0,0,0,0,-1,1987,792,20.4711,-5.09796
770,232,0,0,0,0,0,0,0,0,0,-1,1994,792,0,0
777,232,0,0,0,0,0,0,0,0,0,-1,2001,792,0,0
784,232,0,0,0,0,0,0,0,0,0,-1,2008,792,0,0
791,232,0,0,0,0,0,0,0,0,0,-1,2015,792,0,0
798,232,0,0,0,0,0,0,0,0,0,-1,2022,792,0,0
805,232,0,0,0,0,0,0,0,0,0,-1,2029,792,0,0
812,232,0,0,0,0,0,0,0,0,0,-1,2036,792,0,0
-700,225,0,0,0,0,0,0,0,0,0,-1,524,799,0,0
-693,225,0,0,0,0,0,0,0,0,0,-1,531,799,0,0
-686,225,0,0,0,0,0,0,0,0,0,-1,538,799,0,0
-679,225,0,0,0,0,0,0,0,0,0,-1,545,799,0,0
-672,225,0,0,0,0,0,0,0,0,0,-1,552,799,0,0
-665,225,0,0,0,0,0,0,0,0,0,-1,559,799,0,0
-658,225,0,0,0,0,0,0,0,0,0,-1,566,799,0,0
-651,225,0,0,0,0,0,0,0,0,0,-1,573,799,0,0
-644,225,-12.1339,1.90027,0,0,0,0,0,0,0,-1,580,799,-12.1338,-1.90025
-637,225,-12.917,2.25183,0,0,0,0,0,0,0,-1,587,799,-12.917,-2.25181
-630,225,-13.1921,0.505676,0,0,0,0,0,0,0,-1,594,799,-13.1921,-0.505677
-623,225,-14.0073,0.93811,0,0,0,0,0,0,0,-1,601,799,-14.0073,-0.938134
-616,225,-13.2255,1.5401,0,0,0,0,0,0,0,-1,608,799,-13.2255,-1.54009
-609,225,-11.4673,1.16364,0,0,0,0,0,0,0,-1,615,799,-11.4673,-1.1636
-602,225,-11.376,1.77203,0,0,0,0,0,0,0,-1,622,799,-11.376,-1.77202
-595,225,-11.3362,1.48761,0.00660523,0.00123607,0.00549747,0.0100386,-0.00219728,0.558264,0.00753241,0.0294354,629,799,-11.3362,-1.48764
-588,225,-11.2938,1.20837,0.00510884,0.00253604,0.00473622,0.00873025,-0.00108537,0.652793,0.00621363,0.0125894,636,799,-11.2938,-1.20835
-581,225,-11.2662,0.972961,0.00427078,0.00250653,0.00362821,0.00712256,-0.000345252,0.666148,0.00486754,0.0103757,643,799,-11.2662,-0.972966
-574,225,-11.2534,0.732788,0.0029616,0.000735868,0.00207002,0.00419894,-0.00050147,0.538757,0.00298054,0.00816104,650,799,-11.2533,-0.73277
-567,225,-11.2662,0.49585,0.00151175,-0.000290682,0.00113885,0.00206283,-0.000841762,0.450679,0.00172565,0.0100393,657,799,-11.2663,-0.495854
-560,225,-11.2898,0.262268,-6.46066e-05,-0.00121611,0.00117636,0.000669339,-0.00195005,0.557818,0.00157141,0.0105822,664,799,-11.2898,-0.262257
-553,225,-11.3079,0.0246582,-0.00151096,-0.00131927,0.00164256,0.00023024,-0.00306047,0.814542,0.00212123,0.0105844,671,799,-11.3079,-0.0246498
-546,225,-11.3123,-0.213379,-0.00266076,-0.00174762,0.00220183,4.44825e-05,-0.00445286,0.887629,0.00298351,0.0200015,678,799,-11.3123,0.213402
-539,225,-11.2863,-0.471619,-0.00362052,-0.00262261,0.00249121,-0.000580877,-0.00566225,0.884234,0.00359688,0.0257392,685,799,-11.2863,0.471614
-532,225,-11.3262,-0.699158,-0.00439147,-0.00308175,0.00283516,-0.000826807,-0.00664641,0.898897,0.00418267,0.0191083,692,799,-11.3262,0.699183
-525,225,-11.4191,-0.670166,-0.00479857,-0.00295806,0.00313731,-0.00060882,-0.00714781,0.928059,0.00457579,0.042609,699,799,-11.4191,0.670142
-518,225,-11.4884,0.158875,0,0,0,0,0,0,0,-1,706,799,-11.4884,-0.1589
-511,225,-11.967,-0.445007,0,0,0,0,0,0,0,-1,713,799,-11.967,0.445006
-504,225,-12.4456,-1.04889,0,0,0,0,0,0,0,-1,720,799,-12.4456,1.04891
-497,225,-16.1074,0.994995,-0.00379714,-0.000216324,0.0038101,0.00220307,-0.00621653,1.00504,0.00504179,0.044851,727,799,-16.1074,-0.994988
-490,225,-16.4346,0.952087,-0.00147746,0.00196018,0.00364951,0.00427537,-0.00379265,1.00548,0.00466085,0.0397706,734,799,-16.4347,-0.952113
-483,225,-16.5032,0.950989,0.0022413,0.00526058,0.00317526,0.00726681,0.000235074,1.0073,0.00476811,0.0350503,741,799,-16.5032,-0.950987
-476,225,-16.488,0.904785,0.00724247,0.0097802,0.00232604,0.011161,0.00586172,1.03509,0.00644651,0.0304361,748,799,-16.488,-0.904803
-469,225,-16.5472,0.777405,0.0134508,0.0152229,0.00095605,0.0156404,0.0130333,1.15912,0.00967569,0.0340979,755,799,-16.5472,-0.777394
-462,225,0,0,0,0,0,0,0,0,0,-1,762,799,0,0
-455,225,0,0,0,0,0,0,0,0,0,-1,769,799,0,0
-448,225,0,0,0,0,0,0,0,0,0,-1,776,799,0,0
-441,225,0,0,0,0,0,0,0,0,0,-1,783,799,0,0
-434,225,0,0,0,0,0,0,0,0,0,-1,790,799,0,0
-427,225,0,0,0,0,0,0,0,0,0,-1,797,799,0,0
-420,225,0,0,0,0,0,0,0,0,0,-1,804,799,0,0
-413,225,0,0,0,0,0,0,0,0,0,-1,811,799,0,0
-406,225,0,0,0,0,0,0,0,0,0,-1,818,799,0,0
-399,225,0,0,0,0,0,0,0,0,0,-1,825,799,0,0
-392,225,0,0,0,0,0,0,0,0,0,-1,832,799,0,0
-385,225,0,0,0,0,0,0,0,0,0,-1,839,799,0,0
-378,225,0,0,0,0,0,0,0,0,0,-1,846,799,0,0
-371,225,0,0,0,0,0,0,0,0,0,-1,853,799,0,0
-364,225,0,0,0,0,0,0,0,0,0,-1,860,799,0,0
-357,225,0,0,0,0,0,0,0,0,0,-1,867,799,0,0
-350,225,0,0,0,0,0,0,0,0,0,-1,874,799,0,0
-343,225,0,0,0,0,0,0,0,0,0,-1,881,799,0,0
-336,225,0,0,0,0,0,0,0,0,0,-1,888,799,0,0
-329,225,0,0,0,0,0,0,0,0,0,-1,895,799,0,0
-322,225,0,0,0,0,0,0,0,0,0,-1,902,799,0,0
-315,225,0,0,0,0,0,0,0,0,0,-1,909,799,0,0
-308,225,0,0,0,0,0,0,0,0,0,-1,916,799,0,0
-301,225,0,0,0,0,0,0,0,0,0,-1,923,799,0,0
-294,225,0,0,0,0,0,0,0,0,0,-1,930,799,0,0
-287,225,0,0,0,0,0,0,0,0,0,-1,937,799,0,0
-280,225,0,0,0,0,0,0,0,0,0,-1,944,799,0,0
-273,225,0,0,0,0,0,0,0,0,0,-1,951,799,0,0
-266,225,0,0,0,0,0,0,0,0,0,-1,958,799,0,0
-259,225,0,0,0,0,0,0,0,0,0,-1,965,799,0,0
-252,225,0,0,0,0,0,0,0,0,0,-1,972,799,0,0
-245,225,0,0,0,0,0,0,0,0,0,-1,979,799,0,0
-238,225,0,0,0,0,0,0,0,0,0,-1,986,799,0,0
-231,225,0,0,0,0,0,0,0,0,0,-1,993,799,0,0
-224,225,0,0,0,0,0,0,0,0,0,-1,1000,799,0,0
-217,225,0,0,0,0,0,0,0,0,0,-1,1007,799,0,0
-210,225,0,0,0,0,0,0,0,0,0,-1,1014,799,0,0
-203,225,0,0,0,0,0,0,0,0,0,-1,1021,799,0,0
-196,225,0,0,0,0,0,0,0,0,0,-1,1028,799,0,0
-189,225,0,0,0,0,0,0,0,0,0,-1,1035,799,0,0
-182,225,0,0,0,0,0,0,0,0,0,-1,1042,799,0,0
-175,225,0,0,0,0,0,0,0,0,0,-1,1049,799,0,0
-168,225,0,0,0,0,0,0,0,0,0,-1,1056,799,0,0
-161,225,0,0,0,0,0,0,0,0,0,-1,1063,799,0,0
-154,225,0,0,0,0,0,0,0,0,0,-1,1070,799,0,0
-147,225,0,0,0,0,0,0,0,0,0,-1,1077,799,0,0
-140,225,0,0,0,0,0,0,0,0,0,-1,1084,799,0,0
-133,225,0,0,0,0,0,0,0,0,0,-1,1091,799,0,0
-126,225,0,0,0,0,0,0,0,0,0,-1,1098,799,0,0
-119,225,0,0,0,0,0,0,0,0,0,-1,1105,799,0,0
-112,225,0,0,0,0,0,0,0,0,0,-1,1112,799,0,0
-105,225,0,0,0,0,0,0,0,0,0,-1,1119,799,0,0
-98,225,0,0,0,0,0,0,0,0,0,-1,1126,799,0,0
-91,225,0,0,0,0,0,0,0,0,0,-1,1133,799,0,0
-84,225,0,0,0,0,0,0,0,0,0,-1,1140,799,0,0
-77,225,0,0,0,0,0,0,0,0,0,-1,1147,799,0,0
-70,225,0,0,0,0,0,0,0,0,0,-1,1154,799,0,0
-63,225,0,0,0,0,0,0,0,0,0,-1,1161,799,0,0
-56,225,0,0,0,0,0,0,0,0,0,-1,1168,799,0,0
-49,225,0,0,0,0,0,0,0,0,0,-1,1175,799,0,0
-42,225,0,0,0,0,0,0,0,0,0,-1,1182,799,0,0
-35,225,0,0,0,0,0,0,0,0,0,-1,1189,799,0,0
-28,225,0,0,0,0,0,0,0,0,0,-1,1196,799,0,0
-21,225,0,0,0,0,0,0,0,0,0,-1,1203,799,0,0
-14,225,0,0,0,0,0,0,0,0,0,-1,1210,799,0,0
-7,225,0,0,0,0,0,0,0,0,0,-1,1217,799,0,0
0,225,0,0,0,0,0,0,0,0,0,-1,1224,799,0,0
7,225,0,0,0,0,0,0,0,0,0,-1,1231,799,0,0
14,225,0,0,0,0,0,0,0,0,0,-1,1238,799,0,0
21,225,0,0,0,0,0,0,0,0,0,-1,1245,799,0,0
28,225,0,0,0,0,0,0,0,0,0,-1,1252,799,0,0
35,225,0,0,0,0,0,0,0,0,0,-1,1259,799,0,0
42,225,0,0,0,0,0,0,0,0,0,-1,1266,799,0,0
49,225,0,0,0,0,0,0,0,0,0,-1,1273,799,0,0
56,225,0,0,0,0,0,0,0,0,0,-1,1280,799,0,0
63,225,0,0,0,0,0,0,0,0,0,-1,1287,799,0,0
70,225,0,0,0,0,0,0,0,0,0,-1,1294,799,0,0
77,225,0,0,0,0,0,0,0,0,0,-1,1301,799,0,0
84,225,0,0,0,0,0,0,0,0,0,-1,1308,799,0,0
91,225,0,0,0,0,0,0,0,0,0,-1,1315,799,0,0
98,225,0,0,0,0,0,0,0,0,0,-1,1322,799,0,0
105,225,0,0,0,0,0,0,0,0,0,-1,1329,799,0,0
112,225,0,0,0,0,0,0,0,0,0,-1,1336,799,0,0
119,225,0,0,0,0,0,0,0,0,0,-1,1343,799,0,0
126,225,0,0,0,0,0,0,0,0,0,-1,1350,799,0,0
133,225,0,0,0,0,0,0,0,0,0,-1,1357,799,0,0
140,225,0,0,0,0,0,0,0,0,0,-1,1364,799,0,0
147,225,0,0,0,0,0,0,0,0,0,-1,1371,799,0,0
154,225,0,0,0,0,0,0,0,0,0,-1,1378,799,0,0
161,225,0,0,0,0,0,0,0,0,0,-1,1385,799,0,0
168,225,0,0,0,0,0,0,0,0,0,-1,1392,799,0,0
175,225,0,0,0,0,0,0,0,0,0,-1,1399,799,0,0
182,225,0,0,0,0,0,0,0,0,0,-1,1406,799,0,0
189,225,0,0,0,0,0,0,0,0,0,-1,1413,799,0,0
196,225,0,0,0,0,0,0,0,0,0,-1,1420,799,0,0
203,225,0,0,0,0,0,0,0,0,0,-1,1427,799,0,0
210,225,0,0,0,0,0,0,0,0,0,-1,1434,799,0,0
217,225,0,0,0,0,0,0,0,0,0,-1,1441,799,0,0
224,225,0,0,0,0,0,0,0,0,0,-1,1448,799,0,0
231,225,0,0,0,0,0,0,0,0,0,-1,1455,799,0,0
238,225,0,0,0,0,0,0,0,0,0,-1,1462,799,0,0
245,225,0,0,0,0,0,0,0,0,0,-1,1469,799,0,0
252,225,0,0,0,0,0,0,0,0,0,-1,1476,799,0,0
259,225,0,0,0,0,0,0,0,0,0,-1,1483,799,0,0
266,225,0,0,0,0,0,0,0,0,0,-1,1490,799,0,0
273,225,0,0,0,0,0,0,0,0,0,-1,1497,799,0,0
280,225,0,0,0,0,0,0,0,0,0,-1,1504,799,0,0
287,225,0,0,0,0,0,0,0,0,0,-1,1511,799,0,0
294,225,0,0,0,0,0,0,0,0,0,-1,1518,799,0,0
301,225,0,0,0,0,0,0,0,0,0,-1,1525,799,0,0
308,225,0,0,0,0,0,0,0,0,0,-1,1532,799,0,0
315,225,0,0,0,0,0,0,0,0,0,-1,1539,799,0,0
322,225,0,0,0,0,0,0,0,0,0,-1,1546,799,0,0
329,225,0,0,0,0,0,0,0,0,0,-1,1553,799,0,0
336,225,0,0,0,0,0,0,0,0,0,-1,1560,799,0,0
343,225,0,0,0,0,0,0,0,0,0,-1,1567,799,0,0
350,225,0,0,0,0,0,0,0,0,0,-1,1574,799,0,0
357,225,0,0,0,0,0,0,0,0,0,-1,1581,799,0,0
364,225,0,0,0,0,0,0,0,0,0,-1,1588,799,0,0
371,225,0,0,0,0,0,0,0,0,0,-1,1595,799,0,0
378,225,0,0,0,0,0,0,0,0,0,-1,1602,799,0,0
385,225,0,0,0,0,0,0,0,0,0,-1,1609,799,0,0
392,225,0,0,0,0,0,0,0,0,0,-1,1616,799,0,0
399,225,0,0,0,0,0,0,0,0,0,-1,1623,799,0,0
406,225,0,0,0,0,0,0,0,0,0,-1,1630,799,0,0
413,225,0,0,0,0,0,0,0,0,0,-1,1637,799,0,0
420,225,0,0,0,0,0,0,0,0,0,-1,1644,799,0,0
427,225,0,0,0,0,0,0,0,0,0,-1,1651,799,0,0
434,225,0,0,0,0,0,0,0,0,0,-1,1658,799,0,0
441,225,0,0,0,0,0,0,0,0,0,-1,1665,799,0,0
448,225,0,0,0,0,0,0,0,0,0,-1,1672,799,0,0
455,225,0,0,0,0,0,0,0,0,0,-1,1679,799,0,0
462,225,0,0,0,0,0,0,0,0,0,-1,1686,799,0,0
469,225,0,0,0,0,0,0,0,0,0,-1,1693,799,0,0
476,225,0,0,0,0,0,0,0,0,0,-1,1700,799,0,0
483,225,0,0,0,0,0,0,0,0,0,-1,1707,799,0,0
490,225,0,0,0,0,0,0,0,0,0,-1,1714,799,0,0
497,225,0,0,0,0,0,0,0,0,0,-1,1721,799,0,0
504,225,0,0,0,0,0,0,0,0,0,-1,1728,799,0,0
511,225,0,0,0,0,0,0,0,0,0,-1,1735,799,0,0
518,225,0,0,0,0,0,0,0,0,0,-1,1742,799,0,0
525,225,0,0,0,0,0,0,0,0,0,-1,1749,799,0,0
532,225,0,0,0,0,0,0,0,0,0,-1,1756,799,0,0
539,225,0,0,0,0,0,0,0,0,0,-1,1763,799,0,0
546,225,0,0,0,0,0,0,0,0,0,-1,1770,799,0,0
553,225,0,0,0,0,0,0,0,0,0,-1,1777,799,0,0
560,225,0,0,0,0,0,0,0,0,0,-1,1784,799,0,0
567,225,0,0,0,0,0,0,0,0,0,-1,1791,799,0,0
574,225,0,0,0,0,0,0,0,0,0,-1,1798,799,0,0
581,225,0,0,0,0,0,0,0,0,0,-1,1805,799,0,0
588,225,23.9186,2.86066,0.000431262,0.010807,-0.00234605,0.0113128,-7.45431e-05,-1.35845,0.00756687,0.0383713,1812,799,23.9186,-2.86068
595,225,23.8708,2.81946,0.00577627,0.00623054,0.000533743,0.00658346,0.00542334,0.986565,0.00405793,0.0350025,1819,799,23.8709,-2.81946
602,225,23.8096,2.7995,0.00731004,0.00257215,0.00234028,0.00827108,0.00161111,0.389656,0.00506319,0.033462,1826,799,23.8096,-2.7995
609,225,23.8271,2.83405,0.00666954,-0.000523597,0.00292478,0.00770867,-0.00156272,0.341373,0.00573148,0.0331114,1833,799,23.8271,-2.83404
616,225,23.8577,2.8576,0.00483995,-0.00284984,0.00266868,0.00567534,-0.00368523,0.303373,0.00544489,0.0360992,1840,799,23.8577,-2.85759
623,225,23.8969,2.90674,0.00261748,-0.00427365,0.00196897,0.00314039,-0.00479655,0.259582,0.00461553,0.0366844,1847,799,23.8968,-2.90671
630,225,23.7125,3.72919,0,0,0,0,0,0,0,-1,1854,799,23.7125,-3.72921
637,225,23.5765,3.18213,-0.00124352,-0.00537499,0.000118396,-0.00124013,-0.00537838,0.0286257,0.00325201,0.0431516,1861,799,23.5766,-3.18214
644,225,23.1906,2.87256,-0.0026226,-0.00537004,-0.000625544,-0.00248688,-0.00550576,-0.213653,0.00318369,0.045714,1868,799,23.1905,-2.87255
651,225,18.1985,1.58289,0,0,0,0,0,0,0,-1,1875,799,18.1984,-1.58291
658,225,18.035,1.56384,-0.00412808,-0.00466912,-0.0018033,-0.00257512,-0.00622208,-0.710947,0.00361004,0.0405085,1882,799,18.035,-1.56383
665,225,17.8435,1.526,-0.004511,-0.00401259,-0.00231414,-0.00193428,-0.00658931,-0.839035,0.00391095,0.0147274,1889,799,17.8436,-1.526
672,225,17.8038,1.8114,-0.00439751,-0.00343829,-0.00264962,-0.00122522,-0.00661058,-0.874934,0.00406073,0.0158088,1896,799,17.8039,-1.81143
679,225,17.8029,2.10211,-0.0037012,-0.00290788,-0.00268704,-0.000588381,-0.0060207,-0.858679,0.00383276,0.0163051,1903,799,17.8029,-2.10208
686,225,17.8,2.34589,-0.00227266,-0.00144456,-0.00213659,0.000317728,-0.00403494,-0.881107,0.00280188,0.0103116,1910,799,17.8,-2.34591
693,225,17.7969,2.5943,-0.000639585,-0.000124344,-0.00119942,0.000844813,-0.00160874,-0.891184,0.00143927,0.010173,1917,799,17.7968,-2.59428
700,225,17.8147,2.84137,0.00108566,0.000817853,-0.000458913,0.00142981,0.000473708,-0.643446,0.000841014,0.0113519,1924,799,17.8147,-2.84138
707,225,17.7965,3.09839,0.00268295,0.00208192,0.000396789,0.00288018,0.00188469,0.461298,0.00168908,0.0108936,1931,799,17.7965,-3.09836
714,225,17.7863,3.3421,0.00411917,0.00351898,0.00106579,0.00492631,0.00271184,0.648168,0.00284903,0.0120832,1938,799,17.7863,-3.3421
721,225,17.8052,3.57788,0.00578115,0.00508357,0.00166192,0.00713048,0.00373424,0.681964,0.00411833,0.0140674,1945,799,17.8052,-3.57786
728,225,17.7656,3.77429,0.00777846,0.00694973,0.00229062,0.00969189,0.0050363,0.695917,0.00559706,0.0236829,1952,799,17.7656,-3.77428
735,225,17.8477,4.00659,0.0102537,0.00912627,0.00297351,0.0127165,0.00666352,0.69172,0.00734467,0.0464061,1959,799,17.8476,-4.00659
742,225,18.166,3.9859,0,0,0,0,0,0,0,-1,1966,799,18.166,-3.9859
749,225,18.0181,4.42267,0,0,0,0,0,0,0,-1,1973,799,18.0181,-4.42264
756,225,21.4775,3.82916,0,0,0,0,0,0,0,-1,1980,799,21.4775,-3.82913
763,225,22.2169,4.06348,0,0,0,0,0,0,0,-1,1987,799,22.2169,-4.06345
770,225,0,0,0,0,0,0,0,0,0,-1,1994,799,0,0
777,225,0,0,0,0,0,0,0,0,0,-1,2001,799,0,0
784,225,0,0,0,0,0,0,0,0,0,-1,2008,799,0,0
791,225,0,0,0,0,0,0,0,0,0,-1,2015,799,0,0
798,225,0,0,0,0,0,0,0,0,0,-1,2022,799,0,0
805,225,0,0,0,0,0,0,0,0,0,-1,2029,799,0,0
812,225,0,0,0,0,0,0,0,0,0,-1,2036,799,0,0
-700,218,0,0,0,0,0,0,0,0,0,-1,524,806,0,0
-693,218,0,0,0,0,0,0,0,0,0,-1,531,806,0,0
-686,218,0,0,0,0,0,0,0,0,0,-1,538,806,0,0
-679,218,0,0,0,0,0,0,0,0,0,-1,545,806,0,0
-672,218,0,0,0,0,0,0,0,0,0,-1,552,806,0,0
-665,218,0,0,0,0,0,0,0,0,0,-1,559,806,0,0
-658,218,0,0,0,0,0,0,0,0,0,-1,566,806,0,0
-651,218,-11.6475,2.41718,0,0,0,0,0,0,0,-1,573,806,-11.6475,-2.41717
-644,218,-12.1877,2.42963,0.0093695,-0.0444906,-0.00328897,0.0095696,-0.0446907,-0.0607642,0.0334432,0.0491851,580,806,-12.1878,-2.42964
-637,218,-12.7698,2.42664,0.00924062,-0.0295062,0.000734065,0.00925452,-0.0295201,0.0189361,0.0233835,0.0464946,587,806,-12.7698,-2.42665
-630,218,-13.3737,2.39813,0,0,0,0,0,0,0,-1,594,806,-13.3737,-2.39816
-623,218,-14.0204,2.48718,0,0,0,0,0,0,0,-1,601,806,-14.0204,-2.48721
-616,218,-11.4932,1.33026,0,0,0,0,0,0,0,-1,608,806,-11.4932,-1.33024
-609,218,-11.6249,1.35144,0.00699823,-0.00239967,0.00546629,0.00950764,-0.00490909,0.430371,0.00846347,0.0497601,615,806,-11.6249,-1.35144
-602,218,-11.5936,1.42334,0.00582669,-0.000270663,0.00503139,0.00866099,-0.00310496,0.513014,0.007041,0.0388842,622,806,-11.5936,-1.42332
-595,218,-11.5527,1.39886,0.00449976,0.00116479,0.00451886,0.00764897,-0.00198443,0.608646,0.00587361,0.0171772,629,806,-11.5527,-1.39884
-588,218,-11.5297,1.21637,0.00330543,0.00251348,0.00426152,0.00718933,-0.00137042,0.739072,0.00530898,0.0111183,636,806,-11.5296,-1.21637
-581,218,-11.5171,0.996094,0.00291989,0.00226617,0.00345122,0.00605969,-0.000873634,0.738185,0.00436027,0.0104735,643,806,-11.5171,-0.996105
-574,218,-11.5292,0.742981,0.00206288,0.000487857,0.00202042,0.00344384,-0.000893107,0.599568,0.00264436,0.00969062,650,806,-11.5292,-0.74296
-567,218,-11.5065,0.490845,0.00103984,-0.000338721,0.00124071,0.00176988,-0.00106876,0.531849,0.00165547,0.0161227,657,806,-11.5065,-0.490857
-560,218,-11.5266,0.262207,-0.000140844,-0.00112634,0.00128568,0.000743276,-0.00201046,0.602402,0.00164502,0.0164633,664,806,-11.5266,-0.262195
-553,218,-11.5281,0.00976563,-0.00131406,-0.00114588,0.00169206,0.00046418,-0.00292411,0.810226,0.00212113,0.0160854,671,806,-11.5281,-0.0097918
-546,218,-11.5265,-0.255127,-0.00237749,-0.00149752,0.00209606,0.000204233,-0.00407925,0.888851,0.00279007,0.0139307,678,806,-11.5265,0.255142
-539,218,-11.5278,-0.50415,-0.00329228,-0.00223029,0.00226723,-0.000432704,-0.00508987,0.900426,0.0032586,0.02097,685,806,-11.5278,0.50415
-532,218,-11.6179,-0.609985,-0.00400048,-0.00253411,0.00250185,-0.000660225,-0.00587436,0.927936,0.00371577,0.0241333,692,806,-11.6179,0.609976
-525,218,-11.7787,-0.665527,0,0,0,0,0,0,0,-1,699,806,-11.7787,0.665538
-518,218,-11.7794,-0.956787,0,0,0,0,0,0,0,-1,706,806,-11.7793,0.956815
-511,218,-12.4504,-0.168579,0,0,0,0,0,0,0,-1,713,806,-12.4504,0.16856
-504,218,-16.1806,1.28735,-0.00508902,-0.00102094,0.00270492,0.000329381,-0.00643934,1.10778,0.00440679,0.0465816,720,806,-16.1806,-1.28733
-497,218,-16.2784,1.14966,-0.00426815,0.000145074,0.00232913,0.00114689,-0.00526996,1.16459,0.00395148,0.047358,727,806,-16.2784,-1.14968
-490,218,-16.4603,0.916626,-0.00228459,0.00211783,0.00160901,0.0026432,-0.00280996,1.25519,0.00314887,0.0374328,734,806,-16.4604,-0.916631
-483,218,-16.4931,0.952271,0.0011441,0.00514357,0.000373326,0.00517812,0.00110955,1.47851,0.00314809,0.0339511,741,806,-16.4931,-0.952289
-476,218,-16.4667,0.978333,0.00594165,0.00929391,-0.00138434,0.00979168,0.00544389,-1.22562,0.00566502,0.034826,748,806,-16.4667,-0.978363
-469,218,0,0,0,0,0,0,0,0,0,-1,755,806,0,0
-462,218,0,0,0,0,0,0,0,0,0,-1,762,806,0,0
-455,218,0,0,0,0,0,0,0,0,0,-1,769,806,0,0
-448,218,0,0,0,0,0,0,0,0,0,-1,776,806,0,0
-441,218,0,0,0,0,0,0,0,0,0,-1,783,806,0,0
-434,218,0,0,0,0,0,0,0,0,0,-1,790,806,0,0
-427,218,0,0,0,0,0,0,0,0,0,-1,797,806,0,0
-420,218,0,0,0,0,0,0,0,0,0,-1,804,806,0,0
-413,218,0,0,0,0,0,0,0,0,0,-1,811,806,0,0
-406,218,0,0,0,0,0,0,0,0,0,-1,818,806,0,0
-399,218,0,0,0,0,0,0,0,0,0,-1,825,806,0,0
-392,218,0,0,0,0,0,0,0,0,0,-1,832,806,0,0
-385,218,0,0,0,0,0,0,0,0,0,-1,839,806,0,0
-378,218,0,0,0,0,0,0,0,0,0,-1,846,806,0,0
-371,218,0,0,0,0,0,0,0,0,0,-1,853,806,0,0
-364,218,0,0,0,0,0,0,0,0,0,-1,860,806,0,0
-357,218,0,0,0,0,0,0,0,0,0,-1,867,806,0,0
-350,218,0,0,0,0,0,0,0,0,0,-1,874,806,0,0
-343,218,0,0,0,0,0,0,0,0,0,-1,881,806,0,0
-336,218,0,0,0,0,0,0,0,0,0,-1,888,806,0,0
-329,218,0,0,0,0,0,0,0,0,0,-1,895,806,0,0
-322,218,0,0,0,0,0,0,0,0,0,-1,902,806,0,0
-315,218,0,0,0,0,0,0,0,0,0,-1,909,806,0,0
-308,218,0,0,0,0,0,0,0,0,0,-1,916,806,0,0
-301,218,0,0,0,0,0,0,0,0,0,-1,923,806,0,0
-294,218,0,0,0,0,0,0,0,0,0,-1,930,806,0,0
-287,218,0,0,0,0,0,0,0,0,0,-1,937,806,0,0
-280,218,0,0,0,0,0,0,0,0,0,-1,944,806,0,0
-273,218,0,0,0,0,0,0,0,0,0,-1,951,806,0,0
-266,218,0,0,0,0,0,0,0,0,0,-1,958,806,0,0
-259,218,0,0,0,0,0,0,0,0,0,-1,965,806,0,0
-252,218,0,0,0,0,0,0,0,0,0,-1,972,806,0,0
-245,218,0,0,0,0,0,0,0,0,0,-1,979,806,0,0
-238,218,0,0,0,0,0,0,0,0,0,-1,986,806,0,0
-231,218,0,0,0,0,0,0,0,0,0,-1,993,806,0,0
-224,218,0,0,0,0,0,0,0,0,0,-1,1000,806,0,0
-217,218,0,0,0,0,0,0,0,0,0,-1,1007,806,0,0
-210,218,0,0,0,0,0,0,0,0,0,-1,1014,806,0,0
-203,218,0,0,0,0,0,0,0,0,0,-1,1021,806,0,0
-196,218,0,0,0,0,0,0,0,0,0,-1,1028,806,0,0
-189,218,0,0,0,0,0,0,0,0,0,-1,1035,806,0,0
-182,218,0,0,0,0,0,0,0,0,0,-1,1042,806,0,0
-175,218,0,0,0,0,0,0,0,0,0,-1,1049,806,0,0
-168,218,0,0,0,0,0,0,0,0,0,-1,1056,806,0,0
-161,218,0,0,0,0,0,0,0,0,0,-1,1063,806,0,0
-154,218,0,0,0,0,0,0,0,0,0,-1,1070,806,0,0
-147,218,0,0,0,0,0,0,0,0,0,-1,1077,806,0,0
-140,218,0,0,0,0,0,0,0,0,0,-1,1084,806,0,0
-133,218,0,0,0,0,0,0,0,0,0,-1,1091,806,0,0
-126,218,0,0,0,0,0,0,0,0,0,-1,1098,806,0,0
-119,218,0,0,0,0,0,0,0,0,0,-1,1105,806,0,0
-112,218,0,0,0,0,0,0,0,0,0,-1,1112,806,0,0
-105,218,0,0,0,0,0,0,0,0,0,-1,1119,806,0,0
-98,218,0,0,0,0,0,0,0,0,0,-1,1126,806,0,0
-91,218,0,0,0,0,0,0,0,0,0,-1,1133,806,0,0
-84,218,0,0,0,0,0,0,0,0,0,-1,1140,806,0,0
-77,218,0,0,0,0,0,0,0,0,0,-1,1147,806,0,0
-70,218,0,0,0,0,0,0,0,0,0,-1,1154,806,0,0
-63,218,0,0,0,0,0,0,0,0,0,-1,1161,806,0,0
-56,218,0,0,0,0,0,0,0,0,0,-1,1168,806,0,0
-49,218,0,0,0,0,0,0,0,0,0,-1,1175,806,0,0
-42,218,0,0,0,0,0,0,0,0,0,-1,1182,806,0,0
-35,218,0,0,0,0,0,0,0,0,0,-1,1189,806,0,0
-28,218,0,0,0,0,0,0,0,0,0,-1,1196,806,0,0
-21,218,0,0,0,0,0,0,0,0,0,-1,1203,806,0,0
-14,218,0,0,0,0,0,0,0,0,0,-1,1210,806,0,0
-7,218,0,0,0,0,0,0,0,0,0,-1,1217,806,0,0
0,218,0,0,0,0,0,0,0,0,0,-1,1224,806,0,0
7,218,0,0,0,0,0,0,0,0,0,-1,1231,806,0,0
14,218,0,0,0,0,0,0,0,0,0,-1,1238,806,0,0
21,218,0,0,0,0,0,0,0,0,0,-1,1245,806,0,0
28,218,0,0,0,0,0,0,0,0,0,-1,1252,806,0,0
35,218,0,0,0,0,0,0,0,0,0,-1,1259,806,0,0
42,218,0,0,0,0,0,0,0,0,0,-1,1266,806,0,0
49,218,0,0,0,0,0,0,0,0,0,-1,1273,806,0,0
56,218,0,0,0,0,0,0,0,0,0,-1,1280,806,0,0
63,218,0,0,0,0,0,0,0,0,0,-1,1287,806,0,0
70,218,0,0,0,0,0,0,0,0,0,-1,1294,806,0,0
77,218,0,0,0,0,0,0,0,0,0,-1,1301,806,0,0
84,218,0,0,0,0,0,0,0,0,0,-1,1308,806,0,0
91,218,0,0,0,0,0,0,0,0,0,-1,1315,806,0,0
98,218,0,0,0,0,0,0,0,0,0,-1,1322,806,0,0
105,218,0,0,0,0,0,0,0,0,0,-1,1329,806,0,0
112,218,0,0,0,0,0,0,0,0,0,-1,1336,806,0,0
119,218,0,0,0,0,0,0,0,0,0,-1,1343,806,0,0
126,218,0,0,0,0,0,0,0,0,0,-1,1350,806,0,0
133,218,0,0,0,0,0,0,0,0,0,-1,1357,806,0,0
140,218,0,0,0,0,0,0,0,0,0,-1,1364,806,0,0
147,218,0,0,0,0,0,0,0,0,0,-1,1371,806,0,0
154,218,0,0,0,0,0,0,0,0,0,-1,1378,806,0,0
161,218,0,0,0,0,0,0,0,0,0,-1,1385,806,0,0
168,218,0,0,0,0,0,0,0,0,0,-1,1392,806,0,0
175,218,0,0,0,0,0,0,0,0,0,-1,1399,806,0,0
182,218,0,0,0,0,0,0,0,0,0,-1,1406,806,0,0
189,218,0,0,0,0,0,0,0,0,0,-1,1413,806,0,0
196,218,0,0,0,0,0,0,0,0,0,-1,1420,806,0,0
203,218,0,0,0,0,0,0,0,0,0,-1,1427,806,0,0
210,218,0,0,0,0,0,0,0,0,0,-1,1434,806,0,0
217,218,0,0,0,0,0,0,0,0,0,-1,1441,806,0,0
224,218,0,0,0,0,0,0,0,0,0,-1,1448,806,0,0
231,218,0,0,0,0,0,0,0,0,0,-1,1455,806,0,0
238,218,0,0,0,0,0,0,0,0,0,-1,1462,806,0,0
245,218,0,0,0,0,0,0,0,0,0,-1,1469,806,0,0
252,218,0,0,0,0,0,0,0,0,0,-1,1476,806,0,0
259,218,0,0,0,0,0,0,0,0,0,-1,1483,806,0,0
266,218,0,0,0,0,0,0,0,0,0,-1,1490,806,0,0
273,218,0,0,0,0,0,0,0,0,0,-1,1497,806,0,0
280,218,0,0,0,0,0,0,0,0,0,-1,1504,806,0,0
287,218,0,0,0,0,0,0,0,0,0,-1,1511,806,0,0
294,218,0,0,0,0,0,0,0,0,0,-1,1518,806,0,0
301,218,0,0,0,0,0,0,0,0,0,-1,1525,806,0,0
308,218,0,0,0,0,0,0,0,0,0,-1,1532,806,0,0
315,218,0,0,0,0,0,0,0,0,0,-1,1539,806,0,0
322,218,0,0,0,0,0,0,0,0,0,-1,1546,806,0,0
329,218,0,0,0,0,0,0,0,0,0,-1,1553,806,0,0
336,218,0,0,0,0,0,0,0,0,0,-1,1560,806,0,0
343,218,0,0,0,0,0,0,0,0,0,-1,1567,806,0,0
350,218,0,0,0,0,0,0,0,0,0,-1,1574,806,0,0
357,218,0,0,0,0,0,0,0,0,0,-1,1581,806,0,0
364,218,0,0,0,0,0,0,0,0,0,-1,1588,806,0,0
371,218,0,0,0,0,0,0,0,0,0,-1,1595,806,0,0
378,218,0,0,0,0,0,0,0,0,0,-1,1602,806,0,0
385,218,0,0,0,0,0,0,0,0,0,-1,1609,806,0,0
392,218,0,0,0,0,0,0,0,0,0,-1,1616,806,0,0
399,218,0,0,0,0,0,0,0,0,0,-1,1623,806,0,0
406,218,0,0,0,0,0,0,0,0,0,-1,1630,806,0,0
413,218,0,0,0,0,0,0,0,0,0,-1,1637,806,0,0
420,218,0,0,0,0,0,0,0,0,0,-1,1644,806,0,0
427,218,0,0,0,0,0,0,0,0,0,-1,1651,806,0,0
434,218,0,0,0,0,0,0,0,0,0,-1,1658,806,0,0
441,218,0,0,0,0,0,0,0,0,0,-1,1665,806,0,0
448,218,0,0,0,0,0,0,0,0,0,-1,1672,806,0,0
455,218,0,0,0,0,0,0,0,0,0,-1,1679,806,0,0
462,218,0,0,0,0,0,0,0,0,0,-1,1686,806,0,0
469,218,0,0,0,0,0,0,0,0,0,-1,1693,806,0,0
476,218,0,0,0,0,0,0,0,0,0,-1,1700,806,0,0
483,218,0,0,0,0,0,0,0,0,0,-1,1707,806,0,0
490,218,0,0,0,0,0,0,0,0,0,-1,1714,806,0,0
497,218,0,0,0,0,0,0,0,0,0,-1,1721,806,0,0
504,218,0,0,0,0,0,0,0,0,0,-1,1728,806,0,0
511,218,0,0,0,0,0,0,0,0,0,-1,1735,806,0,0
518,218,0,0,0,0,0,0,0,0,0,-1,1742,806,0,0
525,218,0,0,0,0,0,0,0,0,0,-1,1749,806,0,0
532,218,0,0,0,0,0,0,0,0,0,-1,1756,806,0,0
539,218,0,0,0,0,0,0,0,0,0,-1,1763,806,0,0
546,218,0,0,0,0,0,0,0,0,0,-1,1770,806,0,0
553,218,0,0,0,0,0,0,0,0,0,-1,1777,806,0,0
560,218,0,0,0,0,0,0,0,0,0,-1,1784,806,0,0
567,218,0,0,0,0,0,0,0,0,0,-1,1791,806,0,0
574,218,0,0,0,0,0,0,0,0,0,-1,1798,806,0,0
581,218,0,0,0,0,0,0,0,0,0,-1,1805,806,0,0
588,218,0,0,0,0,0,0,0,0,0,-1,1812,806,0,0
595,218,23.88,2.89166,0.00494933,0.00745421,0.000345748,0.00750105,0.00490248,1.43612,0.0043983,0.0370884,1819,806,23.88,-2.89169
602,218,23.8608,2.85474,0.00621379,0.00419249,0.00229106,0.00770722,0.00269906,0.577672,0.00451584,0.033662,1826,806,23.8609,-2.85472
609,218,23.8936,2.84222,0.00532733,0.00124867,0.00280871,0.00675898,-0.000182982,0.471392,0.0045682,0.0303823,1833,806,23.8935,-2.84225
616,218,23.8958,2.83105,0.0033554,-0.00110688,0.00241661,0.00441333,-0.00216482,0.412641,0.00387115,0.0320378,1840,806,23.8957,-2.83105
623,218,23.8938,2.8139,0.0010696,-0.00262816,0.00156603,0.00164369,-0.00320225,0.35138,0.00284563,0.0356285,1847,806,23.8938,-2.81391
630,218,23.9708,2.80743,-0.000948753,-0.00351944,0.000519069,-0.0008479,-0.00362029,0.191905,0.0021864,0.0385745,1854,806,23.9708,-2.80741
637,218,23.9421,2.67554,-0.00255146,-0.00397368,-0.000389286,-0.00245188,-0.00407326,-0.250436,0.00236793,0.0422619,1861,806,23.9422,-2.67556
644,218,23.5559,3.06244,-0.00367264,-0.00409028,-0.00110584,-0.00275608,-0.00500685,-0.69208,0.00289561,0.0424106,1868,806,23.5559,-3.06243
651,218,23.3389,3.13019,0,0,0,0,0,0,0,-1,1875,806,23.3388,-3.13018
658,218,18.2874,1.49731,0,0,0,0,0,0,0,-1,1882,806,18.2873,-1.49734
665,218,18.189,1.62085,-0.00491448,-0.00330759,-0.00250279,-0.00148244,-0.00673962,-0.940712,0.0040895,0.0338005,1889,806,18.1889,-1.62085
672,218,18.0973,1.8031,-0.00481888,-0.00294121,-0.00274309,-0.000980743,-0.00677935,-0.950277,0.00423072,0.01241,1896,806,18.0973,-1.80307
679,218,18.088,2.0733,-0.00417126,-0.00268962,-0.00273186,-0.000599907,-0.00626097,-0.917803,0.00398907,0.0112898,1903,806,18.088,-2.07328
686,218,18.0771,2.32898,-0.00288861,-0.00148447,-0.00226424,0.000184051,-0.00455713,-0.935732,0.00310126,0.0105664,1910,806,18.0772,-2.32899
693,218,18.059,2.59222,-0.00135821,-0.000367969,-0.0014148,0.000635847,-0.00236203,-0.953717,0.00182396,0.0114709,1917,806,18.059,-2.59222
700,218,18.0555,2.83502,0.000330634,0.000395998,-0.000724984,0.00108904,-0.000362404,-0.807923,0.000872291,0.00952767,1924,806,18.0555,-2.83502
707,218,18.031,3.08337,0.00191971,0.00148968,0.000143263,0.00196307,0.00144633,0.293875,0.00117497,0.00750762,1931,806,18.031,-3.08335
714,218,18.0394,3.34003,0.00328086,0.00277424,0.000790347,0.0038575,0.0021976,0.630318,0.00223433,0.0102264,1938,806,18.0394,-3.34004
721,218,18.0693,3.5863,0.0049644,0.00419615,0.00143508,0.00606587,0.00309468,0.65463,0.00350237,0.0136044,1945,806,18.0693,-3.58629
728,218,18.0776,3.83191,0.00708331,0.00589518,0.00221495,0.00878248,0.00419602,0.654378,0.00507223,0.0193644,1952,806,18.0777,-3.83194
735,218,18.0835,4.06317,0.0097864,0.00788023,0.00312904,0.0121043,0.00556234,0.637565,0.00699604,0.0345364,1959,806,18.0835,-4.06318
742,218,18.2489,4.08142,0.0133431,0.0103163,0.00436931,0.0164537,0.00720573,0.618681,0.00952389,0.048838,1966,806,18.2489,-4.08141
749,218,18.1932,4.27515,0.0181409,0.0134056,0.00607609,0.0222943,0.00925213,0.599614,0.0129335,0.0482049,1973,806,18.1932,-4.27516
756,218,18.1741,4.125,0,0,0,0,0,0,0,-1,1980,806,18.1741,-4.12497
763,218,23.8666,2.66956,0,0,0,0,0,0,0,-1,1987,806,23.8665,-2.66958
770,218,0,0,0,0,0,0,0,0,0,-1,1994,806,0,0
777,218,0,0,0,0,0,0,0,0,0,-1,2001,806,0,0
784,218,0,0,0,0,0,0,0,0,0,-1,2008,806,0,0
791,218,0,0,0,0,0,0,0,0,0,-1,2015,806,0,0
798,218,0,0,0,0,0,0,0,0,0,-1,2022,806,0,0
805,218,0,0,0,0,0,0,0,0,0,-1,2029,806,0,0
812,218,0,0,0,0,0,0,0,0,0,-1,2036,806,0,0
-700,211,0,0,0,0,0,0,0,0,0,-1,524,813,0,0
-693,211,0,0,0,0,0,0,0,0,0,-1,531,813,0,0
-686,211,0,0,0,0,0,0,0,0,0,-1,538,813,0,0
-679,211,0,0,0,0,0,0,0,0,0,-1,545,813,0,0
-672,211,0,0,0,0,0,0,0,0,0,-1,552,813,0,0
-665,211,0,0,0,0,0,0,0,0,0,-1,559,813,0,0
-658,211,0,0,0,0,0,0,0,0,0,-1,566,813,0,0
-651,211,-12.329,4.40027,0.0104961,-0.0644978,-0.0107877,0.0120171,-0.0660187,-0.140065,0.0485168,0.0440271,573,813,-12.329,-4.40024
-644,211,-12.1169,3.71906,0.00902341,-0.0451023,-0.00597937,0.0096761,-0.045755,-0.108725,0.0341882,0.0463014,580,813,-12.1169,-3.71908
-637,211,-12.7329,3.06921,0.00795897,-0.0309306,-0.0021822,0.00808104,-0.0310526,-0.0558789,0.0238561,0.0464913,587,813,-12.7329,-3.06919
-630,211,-13.2896,3.12598,0,0,0,0,0,0,0,-1,594,813,-13.2896,-3.12598
-623,211,-11.3523,1.67615,0,0,0,0,0,0,0,-1,601,813,-11.3523,-1.67612
-616,211,-11.5504,1.82837,0,0,0,0,0,0,0,-1,608,813,-11.5504,-1.82839
-609,211,-11.6959,1.68646,0.00476337,-0.00354245,0.00405823,0.006417,-0.00519608,0.386934,0.00671716,0.0365842,615,813,-11.6959,-1.68649
-602,211,-11.7452,1.59485,0.00382439,-0.00112885,0.00401058,0.00606141,-0.00336587,0.508797,0.00551651,0.0184358,622,813,-11.7452,-1.59486
-595,211,-11.7574,1.435,0.00279256,0.000560929,0.00388271,0.00571661,-0.00236312,0.645478,0.00479689,0.0103682,629,813,-11.7575,-1.43499
-588,211,-11.7546,1.23206,0.00181834,0.0020699,0.0039716,0.00591772,-0.00202947,0.801228,0.00476786,0.0105065,636,813,-11.7546,-1.23204
-581,211,-11.7651,1.00262,0.00173454,0.00166665,0.00338057,0.00508133,-0.00168015,0.780378,0.00406504,0.0108285,643,813,-11.7651,-1.00261
-574,211,-11.7961,0.766479,0.00120408,3.13469e-05,0.00205416,0.00275393,-0.0015185,0.646369,0.00250083,0.0127997,650,813,-11.7961,-0.766471
-567,211,-11.7823,0.514771,0.000482808,-0.000507153,0.00137317,0.00144749,-0.00147183,0.612415,0.00168549,0.0194282,657,813,-11.7824,-0.514797
-560,211,-11.7974,0.307556,-0.000392225,-0.00104404,0.00138541,0.000705099,-0.00214136,0.669878,0.00171172,0.0214182,664,813,-11.7974,-0.307549
-553,211,-11.7838,0.0641479,-0.00135897,-0.000928436,0.00175722,0.000626648,-0.00291406,0.846347,0.00218179,0.0183852,671,813,-11.7838,-0.0641319
-546,211,-11.8349,-0.12738,-0.00230776,-0.00116428,0.0020229,0.000366125,-0.00383816,0.923123,0.00268914,0.0249012,678,813,-11.8349,0.127393
-539,211,-11.8088,-0.395203,-0.00312495,-0.00171209,0.00207819,-0.000223544,-0.0046135,0.949234,0.00300392,0.0188582,685,813,-11.8088,0.395224
-532,211,-11.7529,-0.79126,0,0,0,0,0,0,0,-1,692,813,-11.7529,0.791288
-525,211,-14.3009,2.3233,0,0,0,0,0,0,0,-1,699,813,-14.3009,-2.3233
-518,211,-16.1563,1.31995,0,0,0,0,0,0,0,-1,706,813,-16.1562,-1.31997
-511,211,-16.183,1.26172,-0.00509476,-0.00085848,0.00199089,-6.97065e-05,-0.00588354,1.19358,0.00389933,0.0421815,713,813,-16.183,-1.26173
-504,211,-16.2412,1.20758,-0.00515183,-0.000256772,0.00153769,0.000186183,-0.00559478,1.29033,0.00379344,0.0451948,720,813,-16.2412,-1.20755
-497,211,-16.3431,1.06329,-0.00459633,0.000793309,0.000709615,0.000885173,-0.00468819,1.44206,0.00345848,0.0488819,727,813,-16.3431,-1.06329
-490,211,-16.4662,0.901245,-0.00300118,0.00255438,-0.000652018,0.00262988,-0.00307668,-1.45552,0.00329805,0.036091,734,813,-16.4662,-0.901238
-483,211,-16.4622,1.03864,2.70024e-05,0.00526804,-0.00272126,0.00642541,-0.00113036,-1.16867,0.00470586,0.0318406,741,813,-16.4622,-1.03862
-476,211,-16.4108,1.03503,0.00444231,0.00894995,-0.00532383,0.0124774,0.000914875,-0.985632,0.00803069,0.0357393,748,813,-16.4108,-1.03502
-469,211,0,0,0,0,0,0,0,0,0,-1,755,813,0,0
-462,211,0,0,0,0,0,0,0,0,0,-1,762,813,0,0
-455,211,0,0,0,0,0,0,0,0,0,-1,769,813,0,0
-448,211,0,0,0,0,0,0,0,0,0,-1,776,813,0,0
-441,211,0,0,0,0,0,0,0,0,0,-1,783,813,0,0
-434,211,0,0,0,0,0,0,0,0,0,-1,790,813,0,0
-427,211,0,0,0,0,0,0,0,0,0,-1,797,813,0,0
-420,211,0,0,0,0,0,0,0,0,0,-1,804,813,0,0
-413,211,0,0,0,0,0,0,0,0,0,-1,811,813,0,0
-406,211,0,0,0,0,0,0,0,0,0,-1,818,813,0,0
-399,211,0,0,0,0,0,0,0,0,0,-1,825,813,0,0
-392,211,0,0,0,0,0,0,0,0,0,-1,832,813,0,0
-385,211,0,0,0,0,0,0,0,0,0,-1,839,813,0,0
-378,211,0,0,0,0,0,0,0,0,0,-1,846,813,0,0
-371,211,0,0,0,0,0,0,0,0,0,-1,853,813,0,0
-364,211,0,0,0,0,0,0,0,0,0,-1,860,813,0,0
-357,211,0,0,0,0,0,0,0,0,0,-1,867,813,0,0
-350,211,0,0,0,0,0,0,0,0,0,-1,874,813,0,0
-343,211,0,0,0,0,0,0,0,0,0,-1,881,813,0,0
-336,211,0,0,0,0,0,0,0,0,0,-1,888,813,0,0
-329,211,0,0,0,0,0,0,0,0,0,-1,895,813,0,0
-322,211,0,0,0,0,0,0,0,0,0,-1,902,813,0,0
-315,211,0,0,0,0,0,0,0,0,0,-1,909,813,0,0
-308,211,0,0,0,0,0,0,0,0,0,-1,916,813,0,0
-301,211,0,0,0,0,0,0,0,0,0,-1,923,813,0,0
-294,211,0,0,0,0,0,0,0,0,0,-1,930,813,0,0
-287,211,0,0,0,0,0,0,0,0,0,-1,937,813,0,0
-280,211,0,0,0,0,0,0,0,0,0,-1,944,813,0,0
-273,211,0,0,0,0,0,0,0,0,0,-1,951,813,0,0
-266,211,0,0,0,0,0,0,0,0,0,-1,958,813,0,0
-259,211,0,0,0,0,0,0,0,0,0,-1,965,813,0,0
-252,211,0,0,0,0,0,0,0,0,0,-1,972,813,0,0
-245,211,0,0,0,0,0,0,0,0,0,-1,979,813,0,0
-238,211,0,0,0,0,0,0,0,0,0,-1,986,813,0,0
-231,211,0,0,0,0,0,0,0,0,0,-1,993,813,0,0
-224,211,0,0,0,0,0,0,0,0,0,-1,1000,813,0,0
-217,211,0,0,0,0,0,0,0,0,0,-1,1007,813,0,0
-210,211,0,0,0,0,0,0,0,0,0,-1,1014,813,0,0
-203,211,0,0,0,0,0,0,0,0,0,-1,1021,813,0,0
-196,211,0,0,0,0,0,0,0,0,0,-1,1028,813,0,0
-189,211,0,0,0,0,0,0,0,0,0,-1,1035,813,0,0
-182,211,0,0,0,0,0,0,0,0,0,-1,1042,813,0,0
-175,211,0,0,0,0,0,0,0,0,0,-1,1049,813,0,0
-168,211,0,0,0,0,0,0,0,0,0,-1,1056,813,0,0
-161,211,0,0,0,0,0,0,0,0,0,-1,1063,813,0,0
-154,211,0,0,0,0,0,0,0,0,0,-1,1070,813,0,0
-147,211,0,0,0,0,0,0,0,0,0,-1,1077,813,0,0
-140,211,0,0,0,0,0,0,0,0,0,-1,1084,813,0,0
-133,211,0,0,0,0,0,0,0,0,0,-1,1091,813,0,0
-126,211,0,0,0,0,0,0,0,0,0,-1,1098,813,0,0
-119,211,0,0,0,0,0,0,0,0,0,-1,1105,813,0,0
-112,211,0,0,0,0,0,0,0,0,0,-1,1112,813,0,0
-105,211,0,0,0,0,0,0,0,0,0,-1,1119,813,0,0
-98,211,0,0,0,0,0,0,0,0,0,-1,1126,813,0,0
-91,211,0,0,0,0,0,0,0,0,0,-1,1133,813,0,0
-84,211,0,0,0,0,0,0,0,0,0,-1,1140,813,0,0
-77,211,0,0,0,0,0,0,0,0,0,-1,1147,813,0,0
-70,211,0,0,0,0,0,0,0,0,0,-1,1154,813,0,0
-63,211,0,0,0,0,0,0,0,0,0,-1,1161,813,0,0
-56,211,0,0,0,0,0,0,0,0,0,-1,1168,813,0,0
-49,211,0,0,0,0,0,0,0,0,0,-1,1175,813,0,0
-42,211,0,0,0,0,0,0,0,0,0,-1,1182,813,0,0
-35,211,0,0,0,0,0,0,0,0,0,-1,1189,813,0,0
-28,211,0,0,0,0,0,0,0,0,0,-1,1196,813,0,0
-21,211,0,0,0,0,0,0,0,0,0,-1,1203,813,0,0
-14,211,0,0,0,0,0,0,0,0,0,-1,1210,813,0,0
-7,211,0,0,0,0,0,0,0,0,0,-1,1217,813,0,0
0,211,0,0,0,0,0,0,0,0,0,-1,1224,813,0,0
7,211,0,0,0,0,0,0,0,0,0,-1,1231,813,0,0
14,211,0,0,0,0,0,0,0,0,0,-1,1238,813,0,0
21,211,0,0,0,0,0,0,0,0,0,-1,1245,813,0,0
28,211,0,0,0,0,0,0,0,0,0,-1,1252,813,0,0
35,211,0,0,0,0,0,0,0,0,0,-1,1259,813,0,0
42,211,0,0,0,0,0,0,0,0,0,-1,1266,813,0,0
49,211,0,0,0,0,0,0,0,0,0,-1,1273,813,0,0
56,211,0,0,0,0,0,0,0,0,0,-1,1280,813,0,0
63,211,0,0,0,0,0,0,0,0,0,-1,1287,813,0,0
70,211,0,0,0,0,0,0,0,0,0,-1,1294,813,0,0
77,211,0,0,0,0,0,0,0,0,0,-1,1301,813,0,0
84,211,0,0,0,0,0,0,0,0,0,-1,1308,813,0,0
91,211,0,0,0,0,0,0,0,0,0,-1,1315,813,0,0
98,211,0,0,0,0,0,0,0,0,0,-1,1322,813,0,0
105,211,0,0,0,0,0,0,0,0,0,-1,1329,813,0,0
112,211,0,0,0,0,0,0,0,0,0,-1,1336,813,0,0
119,211,0,0,0,0,0,0,0,0,0,-1,1343,813,0,0
126,211,0,0,0,0,0,0,0,0,0,-1,1350,813,0,0
133,211,0,0,0,0,0,0,0,0,0,-1,1357,813,0,0
140,211,0,0,0,0,0,0,0,0,0,-1,1364,813,0,0
147,211,0,0,0,0,0,0,0,0,0,-1,1371,813,0,0
154,211,0,0,0,0,0,0,0,0,0,-1,1378,813,0,0
161,211,0,0,0,0,0,0,0,0,0,-1,1385,813,0,0
168,211,0,0,0,0,0,0,0,0,0,-1,1392,813,0,0
175,211,0,0,0,0,0,0,0,0,0,-1,1399,813,0,0
182,211,0,0,0,0,0,0,0,0,0,-1,1406,813,0,0
189,211,0,0,0,0,0,0,0,0,0,-1,1413,813,0,0
196,211,0,0,0,0,0,0,0,0,0,-1,1420,813,0,0
203,211,0,0,0,0,0,0,0,0,0,-1,1427,813,0,0
210,211,0,0,0,0,0,0,0,0,0,-1,1434,813,0,0
217,211,0,0,0,0,0,0,0,0,0,-1,1441,813,0,0
224,211,0,0,0,0,0,0,0,0,0,-1,1448,813,0,0
231,211,0,0,0,0,0,0,0,0,0,-1,1455,813,0,0
238,211,0,0,0,0,0,0,0,0,0,-1,1462,813,0,0
245,211,0,0,0,0,0,0,0,0,0,-1,1469,813,0,0
252,211,0,0,0,0,0,0,0,0,0,-1,1476,813,0,0
259,211,0,0,0,0,0,0,0,0,0,-1,1483,813,0,0
266,211,0,0,0,0,0,0,0,0,0,-1,1490,813,0,0
273,211,0,0,0,0,0,0,0,0,0,-1,1497,813,0,0
280,211,0,0,0,0,0,0,0,0,0,-1,1504,813,0,0
287,211,0,0,0,0,0,0,0,0,0,-1,1511,813,0,0
294,211,0,0,0,0,0,0,0,0,0,-1,1518,813,0,0
301,211,0,0,0,0,0,0,0,0,0,-1,1525,813,0,0
308,211,0,0,0,0,0,0,0,0,0,-1,1532,813,0,0
315,211,0,0,0,0,0,0,0,0,0,-1,1539,813,0,0
322,211,0,0,0,0,0,0,0,0,0,-1,1546,813,0,0
329,211,0,0,0,0,0,0,0,0,0,-1,1553,813,0,0
336,211,0,0,0,0,0,0,0,0,0,-1,1560,813,0,0
343,211,0,0,0,0,0,0,0,0,0,-1,1567,813,0,0
350,211,0,0,0,0,0,0,0,0,0,-1,1574,813,0,0
357,211,0,0,0,0,0,0,0,0,0,-1,1581,813,0,0
364,211,0,0,0,0,0,0,0,0,0,-1,1588,813,0,0
371,211,0,0,0,0,0,0,0,0,0,-1,1595,813,0,0
378,211,0,0,0,0,0,0,0,0,0,-1,1602,813,0,0
385,211,0,0,0,0,0,0,0,0,0,-1,1609,813,0,0
392,211,0,0,0,0,0,0,0,0,0,-1,1616,813,0,0
399,211,0,0,0,0,0,0,0,0,0,-1,1623,813,0,0
406,211,0,0,0,0,0,0,0,0,0,-1,1630,813,0,0
413,211,0,0,0,0,0,0,0,0,0,-1,1637,813,0,0
420,211,0,0,0,0,0,0,0,0,0,-1,1644,813,0,0
427,211,0,0,0,0,0,0,0,0,0,-1,1651,813,0,0
434,211,0,0,0,0,0,0,0,0,0,-1,1658,813,0,0
441,211,0,0,0,0,0,0,0,0,0,-1,1665,813,0,0
448,211,0,0,0,0,0,0,0,0,0,-1,1672,813,0,0
455,211,0,0,0,0,0,0,0,0,0,-1,1679,813,0,0
462,211,0,0,0,0,0,0,0,0,0,-1,1686,813,0,0
469,211,0,0,0,0,0,0,0,0,0,-1,1693,813,0,0
476,211,0,0,0,0,0,0,0,0,0,-1,1700,813,0,0
483,211,0,0,0,0,0,0,0,0,0,-1,1707,813,0,0
490,211,0,0,0,0,0,0,0,0,0,-1,1714,813,0,0
497,211,0,0,0,0,0,0,0,0,0,-1,1721,813,0,0
504,211,0,0,0,0,0,0,0,0,0,-1,1728,813,0,0
511,211,0,0,0,0,0,0,0,0,0,-1,1735,813,0,0
518,211,0,0,0,0,0,0,0,0,0,-1,1742,813,0,0
525,211,0,0,0,0,0,0,0,0,0,-1,1749,813,0,0
532,211,0,0,0,0,0,0,0,0,0,-1,1756,813,0,0
539,211,0,0,0,0,0,0,0,0,0,-1,1763,813,0,0
546,211,0,0,0,0,0,0,0,0,0,-1,1770,813,0,0
553,211,0,0,0,0,0,0,0,0,0,-1,1777,813,0,0
560,211,0,0,0,0,0,0,0,0,0,-1,1784,813,0,0
567,211,0,0,0,0,0,0,0,0,0,-1,1791,813,0,0
574,211,0,0,0,0,0,0,0,0,0,-1,1798,813,0,0
581,211,0,0,0,0,0,0,0,0,0,-1,1805,813,0,0
588,211,0,0,0,0,0,0,0,0,0,-1,1812,813,0,0
595,211,23.946,2.75067,0.00498625,0.00729959,0.000511047,0.00740746,0.00487838,1.36278,0.0043478,0.0384822,1819,813,23.946,-2.75069
602,211,23.9681,2.85382,0.00585508,0.00485122,0.00266557,0.00806556,0.00264073,0.692338,0.00474823,0.0383749,1826,813,23.9682,-2.8538
609,211,23.9707,2.88647,0.00454901,0.00240522,0.00311364,0.00677009,0.000184135,0.619623,0.00445329,0.0392288,1833,813,23.9707,-2.88646
616,211,23.9183,2.81409,0.00241912,0.000260834,0.00259899,0.0041541,-0.00147415,0.588621,0.00337003,0.0333097,1840,813,23.9183,-2.81411
623,211,23.8773,2.80542,2.83033e-05,-0.00121391,0.00156868,0.00109436,-0.00227997,0.596896,0.00198786,0.0326173,1847,813,23.8773,-2.80544
630,211,23.895,2.79541,-0.00200405,-0.00214416,0.000414066,-0.00165415,-0.00249406,0.701598,0.0014653,0.036194,1854,813,23.8951,-2.7954
637,211,23.9493,2.7774,-0.00348016,-0.00269344,-0.000551081,-0.00240974,-0.00376387,-1.09536,0.00220137,0.0397553,1861,813,23.9494,-2.77738
644,211,23.6566,2.98035,-0.00439148,-0.00292097,-0.00127429,-0.00218503,-0.00512742,-1.04706,0.00297106,0.0405871,1868,813,23.6566,-2.98033
651,211,22.9309,2.88135,-0.00483906,-0.00298515,-0.00178283,-0.00190269,-0.00592152,-1.02513,0.0034908,0.0417566,1875,813,22.9309,-2.88136
658,211,22.2524,2.5321,0,0,0,0,0,0,0,-1,1882,813,22.2524,-2.53211
665,211,18.5568,1.70361,0,0,0,0,0,0,0,-1,1889,813,18.5567,-1.70362
672,211,18.302,1.85895,-0.00493626,-0.00243629,-0.00271143,-0.000700591,-0.00667196,-1.00138,0.00423381,0.0206929,1896,813,18.302,-1.85894
679,211,18.3292,2.06659,-0.00433761,-0.0024196,-0.00267094,-0.000540725,-0.00621649,-0.957756,0.00397636,0.0130127,1903,813,18.3292,-2.06657
686,211,18.3223,2.33972,-0.00320873,-0.00145629,-0.00230802,0.000136237,-0.00480125,-0.966815,0.0032472,0.0103355,1910,813,18.3222,-2.3397
693,211,18.3231,2.58557,-0.00180672,-0.000551645,-0.00159561,0.000535393,-0.00289376,-0.972753,0.00213018,0.0116621,1917,813,18.3231,-2.58558
700,211,18.2552,2.8089,-0.000172529,2.73382e-05,-0.000994597,0.000927009,-0.0010722,-0.835468,0.00115526,0.0137449,1924,813,18.2553,-2.80889
707,211,18.2631,3.08575,0.00142721,0.000951188,-0.000160796,0.00147643,0.000901963,-0.297076,0.000859382,0.019832,1931,813,18.263,-3.08575
714,211,18.3077,3.35602,0.00275387,0.00211177,0.000450185,0.00298576,0.00187988,0.47565,0.00174303,0.0226418,1938,813,18.3078,-3.35602
721,211,18.3304,3.56268,0.00447466,0.00345788,0.00116324,0.00523575,0.00269679,0.579384,0.00302332,0.0178648,1945,813,18.3305,-3.56267
728,211,18.348,3.79614,0.00666407,0.00509505,0.00214088,0.00815965,0.00359946,0.609775,0.00472185,0.0157208,1952,813,18.348,-3.79615
735,211,18.3132,4.0188,0.00947116,0.00701273,0.00331683,0.0117792,0.00470467,0.607944,0.00684646,0.0240164,1959,813,18.3132,-4.01879
742,211,18.309,4.11871,0.0131924,0.00947752,0.0050338,0.0167005,0.0059694,0.608651,0.00977182,0.0457197,1966,813,18.309,-4.11872
749,211,18.2574,4.27466,0.0181723,0.0128281,0.00758653,0.0235436,0.00745687,0.616074,0.0138939,0.048285,1973,813,18.2575,-4.27469
756,211,18.2994,4.30573,0,0,0,0,0,0,0,-1,1980,813,18.2994,-4.30575
763,211,25.2355,1.07587,0,0,0,0,0,0,0,-1,1987,813,25.2355,-1.07588
770,211,19.1138,4.67523,0,0,0,0,0,0,0,-1,1994,813,19.1137,-4.67525
777,211,0,0,0,0,0,0,0,0,0,-1,2001,813,0,0
784,211,0,0,0,0,0,0,0,0,0,-1,2008,813,0,0
791,211,0,0,0,0,0,0,0,0,0,-1,2015,813,0,0
798,211,0,0,0,0,0,0,0,0,0,-1,2022,813,0,0
805,211,0,0,0,0,0,0,0,0,0,-1,2029,813,0,0
812,211,0,0,0,0,0,0,0,0,0,-1,2036,813,0,0
-700,204,0,0,0,0,0,0,0,0,0,-1,524,820,0,0
-693,204,0,0,0,0,0,0,0,0,0,-1,531,820,0,0
-686,204,0,0,0,0,0,0,0,0,0,-1,538,820,0,0
-679,204,0,0,0,0,0,0,0,0,0,-1,545,820,0,0
-672,204,0,0,0,0,0,0,0,0,0,-1,552,820,0,0
-665,204,0,0,0,0,0,0,0,0,0,-1,559,820,0,0
-658,204,0,0,0,0,0,0,0,0,0,-1,566,820,0,0
-651,204,-12.5715,4.67682,0.0126654,-0.0631383,-0.0136885,0.0150616,-0.0655344,-0.17329,0.0494802,0.0445928,573,820,-12.5715,-4.6768
-644,204,-12.3922,4.0921,0.0105466,-0.0449794,-0.0100815,0.0123204,-0.0467532,-0.174161,0.0359856,0.0456156,580,820,-12.3922,-4.09211
-637,204,-12.5707,3.66846,0.00891059,-0.0314201,-0.00666589,0.00998378,-0.0324933,-0.159627,0.0256463,0.0480325,587,820,-12.5707,-3.66845
-630,204,-12.1304,3.3031,0,0,0,0,0,0,0,-1,594,820,-12.1304,-3.30308
-623,204,-12.0596,2.70215,0,0,0,0,0,0,0,-1,601,820,-12.0596,-2.70214
-616,204,-11.9153,2.37689,0.00536708,-0.00832252,0.000267048,0.00537229,-0.00832773,0.0194975,0.00797082,0.0446601,608,820,-11.9153,-2.37688
-609,204,-11.8408,1.94946,0.0044571,-0.00425243,0.00112282,0.00459952,-0.00439485,0.12617,0.00519335,0.03138,615,820,-11.8407,-1.94945
-602,204,-11.9633,1.63245,0.00345633,-0.00174853,0.00165995,0.00394065,-0.00223286,0.283891,0.00360945,0.013272,622,820,-11.9633,-1.63242
-595,204,-11.9869,1.4129,0.00247176,9.45087e-05,0.00208345,0.0036818,-0.00111553,0.526172,0.00289883,0.0135927,629,820,-11.9869,-1.41292
-588,204,-11.999,1.19501,0.0014738,0.00160937,0.00272256,0.00426499,-0.00118182,0.797844,0.00330839,0.0109609,636,820,-11.999,-1.19502
-581,204,-12.0073,0.971252,0.00140611,0.000970049,0.00260823,0.00380541,-0.00142925,0.743698,0.0031243,0.0111725,643,820,-12.0073,-0.971232
-574,204,-12.0192,0.768494,0.000983892,-0.000544877,0.00169426,0.00207822,-0.0016392,0.573489,0.00215124,0.0138469,650,820,-12.0191,-0.768514
-567,204,-11.9976,0.535339,0.000440738,-0.000873873,0.00132259,0.00126036,-0.00169349,0.554783,0.0017115,0.0141446,657,820,-11.9976,-0.535324
-560,204,-12.0163,0.287354,-0.00021865,-0.00128907,0.00145242,0.00079403,-0.00230175,0.60887,0.00185666,0.0130006,664,820,-12.0163,-0.287358
-553,204,-11.9861,0.0762329,-0.000998873,-0.0011238,0.00182421,0.000763939,-0.00288661,0.768284,0.00222324,0.0110668,671,820,-11.9861,-0.0762425
-546,204,-12.012,-0.0863647,-0.00181188,-0.00130587,0.00202232,0.000479214,-0.00359696,0.847627,0.00257264,0.0176759,678,820,-12.012,0.0863853
-539,204,-12.0533,-0.341553,-0.00251897,-0.00171535,0.00199112,-8.5898e-05,-0.00414842,0.884961,0.00273743,0.0310649,685,820,-12.0533,0.341558
-532,204,-12.0215,-0.686951,0,0,0,0,0,0,0,-1,692,820,-12.0215,0.686933
-525,204,-16.2388,1.12921,0,0,0,0,0,0,0,-1,699,820,-16.2388,-1.12922
-518,204,-16.233,1.17999,-0.00398764,-0.00105956,0.00176071,-0.00023373,-0.00481347,1.13223,0.00313397,0.0467882,706,820,-16.233,-1.17997
-511,204,-16.2191,1.18335,-0.00440111,-0.000665349,0.00140018,-0.000198816,-0.00486765,1.24917,0.0031809,0.0451852,713,820,-16.219,-1.18337
-504,204,-16.2231,1.1853,-0.00450502,-5.76158e-05,0.00070827,5.24551e-05,-0.00461509,1.41662,0.00309436,0.0471055,720,820,-16.2231,-1.18531
-497,204,-16.3801,1.07306,-0.00402611,0.000939502,-0.00049566,0.000988495,-0.0040751,-1.47227,0.00309923,0.0418977,727,820,-16.3801,-1.07308
-490,204,-16.4471,0.985901,-0.00248578,0.00250664,-0.00238054,0.00345978,-0.00343892,-1.18995,0.00398298,0.0347053,734,820,-16.4471,-0.985894
-483,204,-16.4255,0.932739,0.000564377,0.00479476,-0.00511675,0.00821627,-0.00285714,-0.981394,0.00663812,0.0369962,741,820,-16.4255,-0.932763
-476,204,0,0,0,0,0,0,0,0,0,-1,748,820,0,0
-469,204,0,0,0,0,0,0,0,0,0,-1,755,820,0,0
-462,204,0,0,0,0,0,0,0,0,0,-1,762,820,0,0
-455,204,0,0,0,0,0,0,0,0,0,-1,769,820,0,0
-448,204,0,0,0,0,0,0,0,0,0,-1,776,820,0,0
-441,204,0,0,0,0,0,0,0,0,0,-1,783,820,0,0
-434,204,0,0,0,0,0,0,0,0,0,-1,790,820,0,0
-427,204,0,0,0,0,0,0,0,0,0,-1,797,820,0,0
-420,204,0,0,0,0,0,0,0,0,0,-1,804,820,0,0
-413,204,0,0,0,0,0,0,0,0,0,-1,811,820,0,0
-406,204,0,0,0,0,0,0,0,0,0,-1,818,820,0,0
-399,204,0,0,0,0,0,0,0,0,0,-1,825,820,0,0
-392,204,0,0,0,0,0,0,0,0,0,-1,832,820,0,0
-385,204,0,0,0,0,0,0,0,0,0,-1,839,820,0,0
-378,204,0,0,0,0,0,0,0,0,0,-1,846,820,0,0
-371,204,0,0,0,0,0,0,0,0,0,-1,853,820,0,0
-364,204,0,0,0,0,0,0,0,0,0,-1,860,820,0,0
-357,204,0,0,0,0,0,0,0,0,0,-1,867,820,0,0
-350,204,0,0,0,0,0,0,0,0,0,-1,874,820,0,0
-343,204,0,0,0,0,0,0,0,0,0,-1,881,820,0,0
-336,204,0,0,0,0,0,0,0,0,0,-1,888,820,0,0
-329,204,0,0,0,0,0,0,0,0,0,-1,895,820,0,0
-322,204,0,0,0,0,0,0,0,0,0,-1,902,820,0,0
-315,204,0,0,0,0,0,0,0,0,0,-1,909,820,0,0
-308,204,0,0,0,0,0,0,0,0,0,-1,916,820,0,0
-301,204,0,0,0,0,0,0,0,0,0,-1,923,820,0,0
-294,204,0,0,0,0,0,0,0,0,0,-1,930,820,0,0
-287,204,0,0,0,0,0,0,0,0,0,-1,937,820,0,0
-280,204,0,0,0,0,0,0,0,0,0,-1,944,820,0,0
-273,204,0,0,0,0,0,0,0,0,0,-1,951,820,0,0
-266,204,0,0,0,0,0,0,0,0,0,-1,958,820,0,0
-259,204,0,0,0,0,0,0,0,0,0,-1,965,820,0,0
-252,204,0,0,0,0,0,0,0,0,0,-1,972,820,0,0
-245,204,0,0,0,0,0,0,0,0,0,-1,979,820,0,0
-238,204,0,0,0,0,0,0,0,0,0,-1,986,820,0,0
-231,204,0,0,0,0,0,0,0,0,0,-1,993,820,0,0
-224,204,0,0,0,0,0,0,0,0,0,-1,1000,820,0,0
-217,204,0,0,0,0,0,0,0,0,0,-1,1007,820,0,0
-210,204,0,0,0,0,0,0,0,0,0,-1,1014,820,0,0
-203,204,0,0,0,0,0,0,0,0,0,-1,1021,820,0,0
-196,204,0,0,0,0,0,0,0,0,0,-1,1028,820,0,0
-189,204,0,0,0,0,0,0,0,0,0,-1,1035,820,0,0
-182,204,0,0,0,0,0,0,0,0,0,-1,1042,820,0,0
-175,204,0,0,0,0,0,0,0,0,0,-1,1049,820,0,0
-168,204,0,0,0,0,0,0,0,0,0,-1,1056,820,0,0
-161,204,0,0,0,0,0,0,0,0,0,-1,1063,820,0,0
-154,204,0,0,0,0,0,0,0,0,0,-1,1070,820,0,0
-147,204,0,0,0,0,0,0,0,0,0,-1,1077,820,0,0
-140,204,0,0,0,0,0,0,0,0,0,-1,1084,820,0,0
-133,204,0,0,0,0,0,0,0,0,0,-1,1091,820,0,0
-126,204,0,0,0,0,0,0,0,0,0,-1,1098,820,0,0
-119,204,0,0,0,0,0,0,0,0,0,-1,1105,820,0,0
-112,204,0,0,0,0,0,0,0,0,0,-1,1112,820,0,0
-105,204,0,0,0,0,0,0,0,0,0,-1,1119,820,0,0
-98,204,0,0,0,0,0,0,0,0,0,-1,1126,820,0,0
-91,204,0,0,0,0,0,0,0,0,0,-1,1133,820,0,0
-84,204,0,0,0,0,0,0,0,0,0,-1,1140,820,0,0
-77,204,0,0,0,0,0,0,0,0,0,-1,1147,820,0,0
-70,204,0,0,0,0,0,0,0,0,0,-1,1154,820,0,0
-63,204,0,0,0,0,0,0,0,0,0,-1,1161,820,0,0
-56,204,0,0,0,0,0,0,0,0,0,-1,1168,820,0,0
-49,204,0,0,0,0,0,0,0,0,0,-1,1175,820,0,0
-42,204,0,0,0,0,0,0,0,0,0,-1,1182,820,0,0
-35,204,0,0,0,0,0,0,0,0,0,-1,1189,820,0,0
-28,204,0,0,0,0,0,0,0,0,0,-1,1196,820,0,0
-21,204,0,0,0,0,0,0,0,0,0,-1,1203,820,0,0
-14,204,0,0,0,0,0,0,0,0,0,-1,1210,820,0,0
-7,204,0,0,0,0,0,0,0,0,0,-1,1217,820,0,0
0,204,0,0,0,0,0,0,0,0,0,-1,1224,820,0,0
7,204,0,0,0,0,0,0,0,0,0,-1,1231,820,0,0
14,204,0,0,0,0,0,0,0,0,0,-1,1238,820,0,0
21,204,0,0,0,0,0,0,0,0,0,-1,1245,820,0,0
28,204,0,0,0,0,0,0,0,0,0,-1,1252,820,0,0
35,204,0,0,0,0,0,0,0,0,0,-1,1259,820,0,0
42,204,0,0,0,0,0,0,0,0,0,-1,1266,820,0,0
49,204,0,0,0,0,0,0,0,0,0,-1,1273,820,0,0
56,204,0,0,0,0,0,0,0,0,0,-1,1280,820,0,0
63,204,0,0,0,0,0,0,0,0,0,-1,1287,820,0,0
70,204,0,0,0,0,0,0,0,0,0,-1,1294,820,0,0
77,204,0,0,0,0,0,0,0,0,0,-1,1301,820,0,0
84,204,0,0,0,0,0,0,0,0,0,-1,1308,820,0,0
91,204,0,0,0,0,0,0,0,0,0,-1,1315,820,0,0
98,204,0,0,0,0,0,0,0,0,0,-1,1322,820,0,0
105,204,0,0,0,0,0,0,0,0,0,-1,1329,820,0,0
112,204,0,0,0,0,0,0,0,0,0,-1,1336,820,0,0
119,204,0,0,0,0,0,0,0,0,0,-1,1343,820,0,0
126,204,0,0,0,0,0,0,0,0,0,-1,1350,820,0,0
133,204,0,0,0,0,0,0,0,0,0,-1,1357,820,0,0
140,204,0,0,0,0,0,0,0,0,0,-1,1364,820,0,0
147,204,0,0,0,0,0,0,0,0,0,-1,1371,820,0,0
154,204,0,0,0,0,0,0,0,0,0,-1,1378,820,0,0
161,204,0,0,0,0,0,0,0,0,0,-1,1385,820,0,0
168,204,0,0,0,0,0,0,0,0,0,-1,1392,820,0,0
175,204,0,0,0,0,0,0,0,0,0,-1,1399,820,0,0
182,204,0,0,0,0,0,0,0,0,0,-1,1406,820,0,0
189,204,0,0,0,0,0,0,0,0,0,-1,1413,820,0,0
196,204,0,0,0,0,0,0,0,0,0,-1,1420,820,0,0
203,204,0,0,0,0,0,0,0,0,0,-1,1427,820,0,0
210,204,0,0,0,0,0,0,0,0,0,-1,1434,820,0,0
217,204,0,0,0,0,0,0,0,0,0,-1,1441,820,0,0
224,204,0,0,0,0,0,0,0,0,0,-1,1448,820,0,0
231,204,0,0,0,0,0,0,0,0,0,-1,1455,820,0,0
238,204,0,0,0,0,0,0,0,0,0,-1,1462,820,0,0
245,204,0,0,0,0,0,0,0,0,0,-1,1469,820,0,0
252,204,0,0,0,0,0,0,0,0,0,-1,1476,820,0,0
259,204,0,0,0,0,0,0,0,0,0,-1,1483,820,0,0
266,204,0,0,0,0,0,0,0,0,0,-1,1490,820,0,0
273,204,0,0,0,0,0,0,0,0,0,-1,1497,820,0,0
280,204,0,0,0,0,0,0,0,0,0,-1,1504,820,0,0
287,204,0,0,0,0,0,0,0,0,0,-1,1511,820,0,0
294,204,0,0,0,0,0,0,0,0,0,-1,1518,820,0,0
301,204,0,0,0,0,0,0,0,0,0,-1,1525,820,0,0
308,204,0,0,0,0,0,0,0,0,0,-1,1532,820,0,0
315,204,0,0,0,0,0,0,0,0,0,-1,1539,820,0,0
322,204,0,0,0,0,0,0,0,0,0,-1,1546,820,0,0
329,204,0,0,0,0,0,0,0,0,0,-1,1553,820,0,0
336,204,0,0,0,0,0,0,0,0,0,-1,1560,820,0,0
343,204,0,0,0,0,0,0,0,0,0,-1,1567,820,0,0
350,204,0,0,0,0,0,0,0,0,0,-1,1574,820,0,0
357,204,0,0,0,0,0,0,0,0,0,-1,1581,820,0,0
364,204,0,0,0,0,0,0,0,0,0,-1,1588,820,0,0
371,204,0,0,0,0,0,0,0,0,0,-1,1595,820,0,0
378,204,0,0,0,0,0,0,0,0,0,-1,1602,820,0,0
385,204,0,0,0,0,0,0,0,0,0,-1,1609,820,0,0
392,204,0,0,0,0,0,0,0,0,0,-1,1616,820,0,0
399,204,0,0,0,0,0,0,0,0,0,-1,1623,820,0,0
406,204,0,0,0,0,0,0,0,0,0,-1,1630,820,0,0
413,204,0,0,0,0,0,0,0,0,0,-1,1637,820,0,0
420,204,0,0,0,0,0,0,0,0,0,-1,1644,820,0,0
427,204,0,0,0,0,0,0,0,0,0,-1,1651,820,0,0
434,204,0,0,0,0,0,0,0,0,0,-1,1658,820,0,0
441,204,0,0,0,0,0,0,0,0,0,-1,1665,820,0,0
448,204,0,0,0,0,0,0,0,0,0,-1,1672,820,0,0
455,204,0,0,0,0,0,0,0,0,0,-1,1679,820,0,0
462,204,0,0,0,0,0,0,0,0,0,-1,1686,820,0,0
469,204,0,0,0,0,0,0,0,0,0,-1,1693,820,0,0
476,204,0,0,0,0,0,0,0,0,0,-1,1700,820,0,0
483,204,0,0,0,0,0,0,0,0,0,-1,1707,820,0,0
490,204,0,0,0,0,0,0,0,0,0,-1,1714,820,0,0
497,204,0,0,0,0,0,0,0,0,0,-1,1721,820,0,0
504,204,0,0,0,0,0,0,0,0,0,-1,1728,820,0,0
511,204,0,0,0,0,0,0,0,0,0,-1,1735,820,0,0
518,204,0,0,0,0,0,0,0,0,0,-1,1742,820,0,0
525,204,0,0,0,0,0,0,0,0,0,-1,1749,820,0,0
532,204,0,0,0,0,0,0,0,0,0,-1,1756,820,0,0
539,204,0,0,0,0,0,0,0,0,0,-1,1763,820,0,0
546,204,0,0,0,0,0,0,0,0,0,-1,1770,820,0,0
553,204,0,0,0,0,0,0,0,0,0,-1,1777,820,0,0
560,204,0,0,0,0,0,0,0,0,0,-1,1784,820,0,0
567,204,0,0,0,0,0,0,0,0,0,-1,1791,820,0,0
574,204,0,0,0,0,0,0,0,0,0,-1,1798,820,0,0
581,204,0,0,0,0,0,0,0,0,0,-1,1805,820,0,0
588,204,0,0,0,0,0,0,0,0,0,-1,1812,820,0,0
595,204,0,0,0,0,0,0,0,0,0,-1,1819,820,0,0
602,204,23.9222,2.91559,0.00666498,0.0053787,0.00319982,0.00928565,0.00275803,0.686223,0.00550636,0.0395646,1826,820,23.9222,-2.9156
609,204,23.9717,2.9928,0.00478692,0.00337095,0.00332812,0.00748153,0.000676339,0.680596,0.00477822,0.042854,1833,820,23.9717,-2.99277
616,204,23.8885,2.89081,0.00237814,0.00141362,0.0026093,0.00454938,-0.000757616,0.694017,0.00331445,0.0389697,1840,820,23.8885,-2.89079
623,204,23.8268,2.82758,-0.000166379,-0.000106656,0.00144254,0.00130633,-0.00157937,0.795747,0.00166854,0.0285704,1847,820,23.8267,-2.82758
630,204,23.8429,2.82739,-0.00227792,-0.00112016,0.000224186,-0.00107827,-0.00231982,1.38605,0.00134045,0.0279322,1854,820,23.843,-2.82737
637,204,23.8875,2.81738,-0.00371829,-0.00177837,-0.000754515,-0.00151946,-0.0039772,-1.24024,0.00231744,0.0336572,1861,820,23.8875,-2.8174
644,204,23.8291,2.88391,-0.00449638,-0.00211834,-0.00143739,-0.00144193,-0.0051728,-1.13095,0.00308244,0.0387389,1868,820,23.8292,-2.88393
651,204,23.4033,2.4986,-0.00479332,-0.00230122,-0.00188482,-0.0012878,-0.00580674,-1.07747,0.00352128,0.0413867,1875,820,23.4033,-2.49857
658,204,23.1235,2.32507,0,0,0,0,0,0,0,-1,1882,820,23.1235,-2.32504
665,204,18.5458,1.60944,0,0,0,0,0,0,0,-1,1889,820,18.5457,-1.60942
672,204,18.5298,1.73541,-0.0046472,-0.00211487,-0.00260572,-0.000483975,-0.0062781,-1.01156,0.00403376,0.0420331,1896,820,18.5298,-1.73541
679,204,18.5588,1.99469,-0.00410528,-0.00224118,-0.00253956,-0.000468031,-0.00587843,-0.961272,0.00377263,0.0231344,1903,820,18.5589,-1.99466
686,204,18.5757,2.34485,-0.00311071,-0.00146129,-0.00226706,0.000126408,-0.00469841,-0.959846,0.00317525,0.0112447,1910,820,18.5757,-2.34487
693,204,18.5443,2.57642,-0.00185973,-0.000738373,-0.00169525,0.000486509,-0.00308461,-0.945103,0.00223629,0.01656,1917,820,18.5443,-2.57644
700,204,18.5721,2.81805,-0.000331344,-0.000317106,-0.00120163,0.000877423,-0.00152587,-0.78836,0.00140428,0.018224,1924,820,18.5722,-2.81804
707,204,18.5431,3.10632,0.00122428,0.000444965,-0.000455028,0.00143369,0.000235553,-0.431317,0.000887755,0.0147321,1931,820,18.5431,-3.10632
714,204,18.5597,3.39093,0.0024656,0.00146925,6.04468e-05,0.00246925,0.0014656,0.0603734,0.00143391,0.0236274,1938,820,18.5597,-3.39091
721,204,18.5662,3.58356,0.00416208,0.00269784,0.000753007,0.00448021,0.00237971,0.39973,0.00258832,0.0232911,1945,820,18.5661,-3.58353
728,204,18.578,3.78271,0.00637691,0.00468678,0.00160521,0.00734591,0.00371778,0.543107,0.00424127,0.0132468,1952,820,18.578,-3.78274
735,204,18.5433,3.99988,0.00917664,0.00684777,0.00268911,0.0109426,0.00508181,0.581077,0.00632304,0.0143547,1959,820,18.5433,-3.99987
742,204,18.5348,4.17871,0.0128564,0.00982877,0.00424277,0.0158473,0.00683783,0.61404,0.00917805,0.0295581,1966,820,18.5348,-4.17868
749,204,18.7479,4.15057,0.0177739,0.0141931,0.00652483,0.0227495,0.00921748,0.651498,0.0132129,0.0454175,1973,820,18.748,-4.15057
756,204,18.9376,4.12775,0,0,0,0,0,0,0,-1,1980,820,18.9376,-4.12773
763,204,19.0804,4.57184,0,0,0,0,0,0,0,-1,1987,820,19.0805,-4.57181
770,204,19.3291,4.84851,0,0,0,0,0,0,0,-1,1994,820,19.3291,-4.84851
777,204,0,0,0,0,0,0,0,0,0,-1,2001,820,0,0
784,204,0,0,0,0,0,0,0,0,0,-1,2008,820,0,0
791,204,0,0,0,0,0,0,0,0,0,-1,2015,820,0,0
798,204,0,0,0,0,0,0,0,0,0,-1,2022,820,0,0
805,204,0,0,0,0,0,0,0,0,0,-1,2029,820,0,0
812,204,0,0,0,0,0,0,0,0,0,-1,2036,820,0,0
-700,197,0,0,0,0,0,0,0,0,0,-1,524,827,0,0
-693,197,0,0,0,0,0,0,0,0,0,-1,531,827,0,0
-686,197,0,0,0,0,0,0,0,0,0,-1,538,827,0,0
-679,197,0,0,0,0,0,0,0,0,0,-1,545,827,0,0
-672,197,0,0,0,0,0,0,0,0,0,-1,552,827,0,0
-665,197,0,0,0,0,0,0,0,0,0,-1,559,827,0,0
-658,197,-13.3129,6.2002,0.0153144,-0.0826533,-0.0116838,0.0166885,-0.0840275,-0.117074,0.0623303,0.0493037,566,827,-13.3129,-6.20021
-651,197,-13.0341,5.22748,0.0132956,-0.0601711,-0.012068,0.0152272,-0.0621026,-0.15871,0.0473016,0.0495116,573,827,-13.0341,-5.22745
-644,197,-12.6744,4.49811,0.0110982,-0.0431936,-0.0107536,0.0131506,-0.045246,-0.188588,0.035372,0.0455834,580,827,-12.6744,-4.49814
-637,197,-12.4382,3.95813,0.00923947,-0.0302667,-0.00868321,0.0110637,-0.032091,-0.207081,0.0258825,0.0453328,587,827,-12.4382,-3.95814
-630,197,-12.2727,3.22614,0.0076391,-0.0204709,-0.00642523,0.00903812,-0.0218699,-0.214392,0.0183502,0.0419964,594,827,-12.2727,-3.22616
-623,197,-12.3314,2.63721,0.00623597,-0.0131913,-0.00428294,0.00713828,-0.0140936,-0.207639,0.0124756,0.0411555,601,827,-12.3314,-2.63721
-616,197,-12.1764,2.27661,0.00502226,-0.00797169,-0.00246489,0.00547413,-0.00842356,-0.181307,0.00808384,0.0422637,608,827,-12.1764,-2.27661
-609,197,-12.1001,1.91602,0.00404002,-0.00394997,-0.00140479,0.00427981,-0.00418976,-0.169067,0.00489,0.0294992,615,827,-12.1001,-1.91601
-602,197,-12.2199,1.61487,0.00298435,-0.0015333,-0.000464561,0.00303163,-0.00158058,-0.101418,0.00270643,0.0154475,622,827,-12.2199,-1.61486
-595,197,-12.2249,1.41187,0.00200124,0.000196261,0.00046978,0.00211618,8.13123e-05,0.239972,0.00138448,0.0174271,629,827,-12.2248,-1.41185
-588,197,-12.2177,1.18604,0.000913125,0.00146547,0.00163155,0.00284405,-0.000465458,0.869238,0.00206871,0.0171201,636,827,-12.2177,-1.18606
-581,197,-12.228,0.974121,0.000753076,0.000515133,0.00199393,0.00263158,-0.00136337,0.7556,0.00234491,0.0103647,643,827,-12.228,-0.974133
-574,197,-12.2278,0.777954,0.000292286,-0.000988595,0.001539,0.00131878,-0.00201509,0.588226,0.00193875,0.0127559,650,827,-12.2278,-0.777947
-567,197,-12.2305,0.526428,-0.000197356,-0.00122923,0.00149588,0.000869067,-0.00229565,0.619335,0.00188802,0.0145553,657,827,-12.2305,-0.526451
-560,197,-12.252,0.306702,-0.000709693,-0.00159263,0.00175586,0.000659346,-0.00296167,0.662239,0.002227,0.0144029,664,827,-12.252,-0.306685
-553,197,-12.2719,0.11145,-0.00130313,-0.00139992,0.00211381,0.000762837,-0.00346589,0.773952,0.00260241,0.0152524,671,827,-12.2719,-0.111459
-546,197,-12.2138,-0.109863,-0.00194739,-0.00152975,0.00225027,0.000521373,-0.00399851,0.831665,0.00285538,0.0267048,678,827,-12.2138,0.109889
-539,197,-12.0181,-0.111938,0,0,0,0,0,0,0,-1,685,827,-12.0181,0.111931
-532,197,-12.6214,-0.0128174,0,0,0,0,0,0,0,-1,692,827,-12.6214,0.012821
-525,197,-16.3786,1.19086,0,0,0,0,0,0,0,-1,699,827,-16.3786,-1.19085
-518,197,-16.293,1.18433,-0.0034463,-0.000985242,0.00165893,-0.000150277,-0.00428126,1.1045,0.00280543,0.0456207,706,827,-16.293,-1.18432
-511,197,-16.2841,1.08167,-0.00364689,-0.0005373,0.0011918,-0.000133073,-0.00405111,1.2438,0.0026575,0.0428366,713,827,-16.2841,-1.08166
-504,197,-16.247,1.17096,-0.00352603,6.7342e-05,0.000355246,0.000102126,-0.00356081,1.47319,0.00240864,0.0398608,720,827,-16.247,-1.17093
-497,197,-16.4121,1.14716,-0.00282215,0.000961384,-0.001069,0.00124253,-0.00310329,-1.31362,0.00258459,0.0408684,727,827,-16.4121,-1.14713
-490,197,-16.4813,1.00549,-0.00109588,0.00222652,-0.00318194,0.00415479,-0.00302415,-1.02597,0.00416186,0.0383139,734,827,-16.4813,-1.00551
-483,197,-16.327,0.853027,0.00212331,0.00389147,-0.00618144,0.00925173,-0.00323695,-0.856428,0.0074839,0.0405998,741,827,-16.327,-0.853055
-476,197,0,0,0,0,0,0,0,0,0,-1,748,827,0,0
-469,197,0,0,0,0,0,0,0,0,0,-1,755,827,0,0
-462,197,0,0,0,0,0,0,0,0,0,-1,762,827,0,0
-455,197,0,0,0,0,0,0,0,0,0,-1,769,827,0,0
-448,197,0,0,0,0,0,0,0,0,0,-1,776,827,0,0
-441,197,0,0,0,0,0,0,0,0,0,-1,783,827,0,0
-434,197,0,0,0,0,0,0,0,0,0,-1,790,827,0,0
-427,197,0,0,0,0,0,0,0,0,0,-1,797,827,0,0
-420,197,0,0,0,0,0,0,0,0,0,-1,804,827,0,0
-413,197,0,0,0,0,0,0,0,0,0,-1,811,827,0,0
-406,197,0,0,0,0,0,0,0,0,0,-1,818,827,0,0
-399,197,0,0,0,0,0,0,0,0,0,-1,825,827,0,0
-392,197,0,0,0,0,0,0,0,0,0,-1,832,827,0,0
-385,197,0,0,0,0,0,0,0,0,0,-1,839,827,0,0
-378,197,0,0,0,0,0,0,0,0,0,-1,846,827,0,0
-371,197,0,0,0,0,0,0,0,0,0,-1,853,827,0,0
-364,197,0,0,0,0,0,0,0,0,0,-1,860,827,0,0
-357,197,0,0,0,0,0,0,0,0,0,-1,867,827,0,0
-350,197,0,0,0,0,0,0,0,0,0,-1,874,827,0,0
-343,197,0,0,0,0,0,0,0,0,0,-1,881,827,0,0
-336,197,0,0,0,0,0,0,0,0,0,-1,888,827,0,0
-329,197,0,0,0,0,0,0,0,0,0,-1,895,827,0,0
-322,197,0,0,0,0,0,0,0,0,0,-1,902,827,0,0
-315,197,0,0,0,0,0,0,0,0,0,-1,909,827,0,0
-308,197,0,0,0,0,0,0,0,0,0,-1,916,827,0,0
-301,197,0,0,0,0,0,0,0,0,0,-1,923,827,0,0
-294,197,0,0,0,0,0,0,0,0,0,-1,930,827,0,0
-287,197,0,0,0,0,0,0,0,0,0,-1,937,827,0,0
-280,197,0,0,0,0,0,0,0,0,0,-1,944,827,0,0
-273,197,0,0,0,0,0,0,0,0,0,-1,951,827,0,0
-266,197,0,0,0,0,0,0,0,0,0,-1,958,827,0,0
-259,197,0,0,0,0,0,0,0,0,0,-1,965,827,0,0
-252,197,0,0,0,0,0,0,0,0,0,-1,972,827,0,0
-245,197,0,0,0,0,0,0,0,0,0,-1,979,827,0,0
-238,197,0,0,0,0,0,0,0,0,0,-1,986,827,0,0
-231,197,0,0,0,0,0,0,0,0,0,-1,993,827,0,0
-224,197,0,0,0,0,0,0,0,0,0,-1,1000,827,0,0
-217,197,0,0,0,0,0,0,0,0,0,-1,1007,827,0,0
-210,197,0,0,0,0,0,0,0,0,0,-1,1014,827,0,0
-203,197,0,0,0,0,0,0,0,0,0,-1,1021,827,0,0
-196,197,0,0,0,0,0,0,0,0,0,-1,1028,827,0,0
-189,197,0,0,0,0,0,0,0,0,0,-1,1035,827,0,0
-182,197,0,0,0,0,0,0,0,0,0,-1,1042,827,0,0
-175,197,0,0,0,0,0,0,0,0,0,-1,1049,827,0,0
-168,197,0,0,0,0,0,0,0,0,0,-1,1056,827,0,0
-161,197,0,0,0,0,0,0,0,0,0,-1,1063,827,0,0
-154,197,0,0,0,0,0,0,0,0,0,-1,1070,827,0,0
-147,197,0,0,0,0,0,0,0,0,0,-1,1077,827,0,0
-140,197,0,0,0,0,0,0,0,0,0,-1,1084,827,0,0
-133,197,0,0,0,0,0,0,0,0,0,-1,1091,827,0,0
-126,197,0,0,0,0,0,0,0,0,0,-1,1098,827,0,0
-119,197,0,0,0,0,0,0,0,0,0,-1,1105,827,0,0
-112,197,0,0,0,0,0,0,0,0,0,-1,1112,827,0,0
-105,197,0,0,0,0,0,0,0,0,0,-1,1119,827,0,0
-98,197,0,0,0,0,0,0,0,0,0,-1,1126,827,0,0
-91,197,0,0,0,0,0,0,0,0,0,-1,1133,827,0,0
-84,197,0,0,0,0,0,0,0,0,0,-1,1140,827,0,0
-77,197,0,0,0,0,0,0,0,0,0,-1,1147,827,0,0
-70,197,0,0,0,0,0,0,0,0,0,-1,1154,827,0,0
-63,197,0,0,0,0,0,0,0,0,0,-1,1161,827,0,0
-56,197,0,0,0,0,0,0,0,0,0,-1,1168,827,0,0
-49,197,0,0,0,0,0,0,0,0,0,-1,1175,827,0,0
-42,197,0,0,0,0,0,0,0,0,0,-1,1182,827,0,0
-35,197,0,0,0,0,0,0,0,0,0,-1,1189,827,0,0
-28,197,0,0,0,0,0,0,0,0,0,-1,1196,827,0,0
-21,197,0,0,0,0,0,0,0,0,0,-1,1203,827,0,0
-14,197,0,0,0,0,0,0,0,0,0,-1,1210,827,0,0
-7,197,0,0,0,0,0,0,0,0,0,-1,1217,827,0,0
0,197,0,0,0,0,0,0,0,0,0,-1,1224,827,0,0
7,197,0,0,0,0,0,0,0,0,0,-1,1231,827,0,0
14,197,0,0,0,0,0,0,0,0,0,-1,1238,827,0,0
21,197,0,0,0,0,0,0,0,0,0,-1,1245,827,0,0
28,197,0,0,0,0,0,0,0,0,0,-1,1252,827,0,0
35,197,0,0,0,0,0,0,0,0,0,-1,1259,827,0,0
42,197,0,0,0,0,0,0,0,0,0,-1,1266,827,0,0
49,197,0,0,0,0,0,0,0,0,0,-1,1273,827,0,0
56,197,0,0,0,0,0,0,0,0,0,-1,1280,827,0,0
63,197,0,0,0,0,0,0,0,0,0,-1,1287,827,0,0
70,197,0,0,0,0,0,0,0,0,0,-1,1294,827,0,0
77,197,0,0,0,0,0,0,0,0,0,-1,1301,827,0,0
84,197,0,0,0,0,0,0,0,0,0,-1,1308,827,0,0
91,197,0,0,0,0,0,0,0,0,0,-1,1315,827,0,0
98,197,0,0,0,0,0,0,0,0,0,-1,1322,827,0,0
105,197,0,0,0,0,0,0,0,0,0,-1,1329,827,0,0
112,197,0,0,0,0,0,0,0,0,0,-1,1336,827,0,0
119,197,0,0,0,0,0,0,0,0,0,-1,1343,827,0,0
126,197,0,0,0,0,0,0,0,0,0,-1,1350,827,0,0
133,197,0,0,0,0,0,0,0,0,0,-1,1357,827,0,0
140,197,0,0,0,0,0,0,0,0,0,-1,1364,827,0,0
147,197,0,0,0,0,0,0,0,0,0,-1,1371,827,0,0
154,197,0,0,0,0,0,0,0,0,0,-1,1378,827,0,0
161,197,0,0,0,0,0,0,0,0,0,-1,1385,827,0,0
168,197,0,0,0,0,0,0,0,0,0,-1,1392,827,0,0
175,197,0,0,0,0,0,0,0,0,0,-1,1399,827,0,0
182,197,0,0,0,0,0,0,0,0,0,-1,1406,827,0,0
189,197,0,0,0,0,0,0,0,0,0,-1,1413,827,0,0
196,197,0,0,0,0,0,0,0,0,0,-1,1420,827,0,0
203,197,0,0,0,0,0,0,0,0,0,-1,1427,827,0,0
210,197,0,0,0,0,0,0,0,0,0,-1,1434,827,0,0
217,197,0,0,0,0,0,0,0,0,0,-1,1441,827,0,0
224,197,0,0,0,0,0,0,0,0,0,-1,1448,827,0,0
231,197,0,0,0,0,0,0,0,0,0,-1,1455,827,0,0
238,197,0,0,0,0,0,0,0,0,0,-1,1462,827,0,0
245,197,0,0,0,0,0,0,0,0,0,-1,1469,827,0,0
252,197,0,0,0,0,0,0,0,0,0,-1,1476,827,0,0
259,197,0,0,0,0,0,0,0,0,0,-1,1483,827,0,0
266,197,0,0,0,0,0,0,0,0,0,-1,1490,827,0,0
273,197,0,0,0,0,0,0,0,0,0,-1,1497,827,0,0
280,197,0,0,0,0,0,0,0,0,0,-1,1504,827,0,0
287,197,0,0,0,0,0,0,0,0,0,-1,1511,827,0,0
294,197,0,0,0,0,0,0,0,0,0,-1,1518,827,0,0
301,197,0,0,0,0,0,0,0,0,0,-1,1525,827,0,0
308,197,0,0,0,0,0,0,0,0,0,-1,1532,827,0,0
315,197,0,0,0,0,0,0,0,0,0,-1,1539,827,0,0
322,197,0,0,0,0,0,0,0,0,0,-1,1546,827,0,0
329,197,0,0,0,0,0,0,0,0,0,-1,1553,827,0,0
336,197,0,0,0,0,0,0,0,0,0,-1,1560,827,0,0
343,197,0,0,0,0,0,0,0,0,0,-1,1567,827,0,0
350,197,0,0,0,0,0,0,0,0,0,-1,1574,827,0,0
357,197,0,0,0,0,0,0,0,0,0,-1,1581,827,0,0
364,197,0,0,0,0,0,0,0,0,0,-1,1588,827,0,0
371,197,0,0,0,0,0,0,0,0,0,-1,1595,827,0,0
378,197,0,0,0,0,0,0,0,0,0,-1,1602,827,0,0
385,197,0,0,0,0,0,0,0,0,0,-1,1609,827,0,0
392,197,0,0,0,0,0,0,0,0,0,-1,1616,827,0,0
399,197,0,0,0,0,0,0,0,0,0,-1,1623,827,0,0
406,197,0,0,0,0,0,0,0,0,0,-1,1630,827,0,0
413,197,0,0,0,0,0,0,0,0,0,-1,1637,827,0,0
420,197,0,0,0,0,0,0,0,0,0,-1,1644,827,0,0
427,197,0,0,0,0,0,0,0,0,0,-1,1651,827,0,0
434,197,0,0,0,0,0,0,0,0,0,-1,1658,827,0,0
441,197,0,0,0,0,0,0,0,0,0,-1,1665,827,0,0
448,197,0,0,0,0,0,0,0,0,0,-1,1672,827,0,0
455,197,0,0,0,0,0,0,0,0,0,-1,1679,827,0,0
462,197,0,0,0,0,0,0,0,0,0,-1,1686,827,0,0
469,197,0,0,0,0,0,0,0,0,0,-1,1693,827,0,0
476,197,0,0,0,0,0,0,0,0,0,-1,1700,827,0,0
483,197,0,0,0,0,0,0,0,0,0,-1,1707,827,0,0
490,197,0,0,0,0,0,0,0,0,0,-1,1714,827,0,0
497,197,0,0,0,0,0,0,0,0,0,-1,1721,827,0,0
504,197,0,0,0,0,0,0,0,0,0,-1,1728,827,0,0
511,197,0,0,0,0,0,0,0,0,0,-1,1735,827,0,0
518,197,0,0,0,0,0,0,0,0,0,-1,1742,827,0,0
525,197,0,0,0,0,0,0,0,0,0,-1,1749,827,0,0
532,197,0,0,0,0,0,0,0,0,0,-1,1756,827,0,0
539,197,0,0,0,0,0,0,0,0,0,-1,1763,827,0,0
546,197,0,0,0,0,0,0,0,0,0,-1,1770,827,0,0
553,197,0,0,0,0,0,0,0,0,0,-1,1777,827,0,0
560,197,0,0,0,0,0,0,0,0,0,-1,1784,827,0,0
567,197,0,0,0,0,0,0,0,0,0,-1,1791,827,0,0
574,197,0,0,0,0,0,0,0,0,0,-1,1798,827,0,0
581,197,0,0,0,0,0,0,0,0,0,-1,1805,827,0,0
588,197,0,0,0,0,0,0,0,0,0,-1,1812,827,0,0
595,197,0,0,0,0,0,0,0,0,0,-1,1819,827,0,0
602,197,23.8308,2.86823,0.00818914,0.00637405,0.00379301,0.0111817,0.00338152,0.667972,0.00662163,0.0387058,1826,827,23.8309,-2.86823
609,197,23.8262,2.94604,0.00539557,0.00473838,0.00342348,0.0085062,0.00162776,0.737553,0.00521361,0.0390051,1833,827,23.8262,-2.94605
616,197,23.8403,2.83453,0.00249113,0.00296005,0.00242695,0.00516384,0.000287346,0.833552,0.00335089,0.0380438,1840,827,23.8403,-2.83456
623,197,23.8336,2.72906,-0.000313058,0.00136515,0.00111277,0.00191974,-0.00086764,1.10845,0.00164706,0.0354577,1847,827,23.8336,-2.72907
630,197,23.8702,2.74786,-0.00249779,0.000195439,-0.00014342,0.000203055,-0.0025054,-1.51774,0.0017419,0.031121,1854,827,23.8703,-2.74786
637,197,23.8665,2.76923,-0.003883,-0.000643851,-0.0010949,-0.000308475,-0.00421838,-1.27356,0.00271528,0.028027,1861,827,23.8664,-2.76923
644,197,23.8712,2.80853,-0.00450291,-0.00115965,-0.00168768,-0.000455863,-0.0052067,-1.17571,0.0033296,0.0318652,1868,827,23.8713,-2.80855
651,197,23.6377,2.99493,-0.00463674,-0.00151644,-0.00203468,-0.000512616,-0.00564057,-1.11248,0.00360169,0.040589,1875,827,23.6378,-2.99493
658,197,23.931,3.30322,0,0,0,0,0,0,0,-1,1882,827,23.931,-3.30322
665,197,14.0618,1.80304,0,0,0,0,0,0,0,-1,1889,827,14.0617,-1.80303
672,197,18.9259,1.70129,0,0,0,0,0,0,0,-1,1896,827,18.9259,-1.70132
679,197,18.894,2.1001,-0.00358557,-0.00204682,-0.00233853,-0.000354356,-0.00527803,-0.944321,0.00340672,0.0292547,1903,827,18.894,-2.10009
686,197,18.8268,2.36029,-0.00273317,-0.0014501,-0.00212036,0.000123653,-0.00430692,-0.9323,0.00291337,0.016579,1910,827,18.8268,-2.36028
693,197,18.7964,2.60797,-0.00167396,-0.000901849,-0.00166427,0.000420553,-0.00299636,-0.899366,0.00215151,0.0153324,1917,827,18.7964,-2.60799
700,197,18.8005,2.86536,-0.000311455,-0.000617683,-0.00125887,0.000803581,-0.00173272,-0.724881,0.00149673,0.020791,1924,827,18.8005,-2.86537
707,197,18.8291,3.08887,0.00115494,-6.80191e-06,-0.000602197,0.00141076,-0.000262622,-0.401711,0.00103917,0.00877975,1931,827,18.8291,-3.08887
714,197,18.8105,3.34113,0.00233909,0.000873881,-0.000170639,0.0023587,0.000854271,-0.11442,0.00137893,0.011247,1938,827,18.8105,-3.34113
721,197,18.8159,3.5694,0.00439954,0.00194135,0.000339178,0.00444548,0.00189541,0.134628,0.00257586,0.0126609,1945,827,18.8159,-3.56941
728,197,18.8186,3.79456,0.00741385,0.00429063,0.000711511,0.0075683,0.00413617,0.213762,0.00437586,0.0104404,1952,827,18.8186,-3.79456
735,197,18.803,4.03149,0.0111734,0.0065409,0.00145398,0.011592,0.00612236,0.280278,0.00669615,0.0107234,1959,827,18.8029,-4.0315
742,197,18.7898,4.2627,0.0162165,0.00978008,0.0023625,0.0169905,0.00900601,0.316626,0.0098154,0.0198262,1966,827,18.7898,-4.26272
749,197,18.8032,4.4599,0.0232048,0.0145629,0.00366304,0.0245485,0.0132192,0.351591,0.0141871,0.043424,1973,827,18.8032,-4.4599
756,197,19.6276,4.6189,0,0,0,0,0,0,0,-1,1980,827,19.6276,-4.61887
763,197,20.1771,4.82355,0,0,0,0,0,0,0,-1,1987,827,20.1771,-4.82355
770,197,19.5439,4.64844,0,0,0,0,0,0,0,-1,1994,827,19.5439,-4.64845
777,197,0,0,0,0,0,0,0,0,0,-1,2001,827,0,0
784,197,0,0,0,0,0,0,0,0,0,-1,2008,827,0,0
791,197,0,0,0,0,0,0,0,0,0,-1,2015,827,0,0
798,197,0,0,0,0,0,0,0,0,0,-1,2022,827,0,0
805,197,0,0,0,0,0,0,0,0,0,-1,2029,827,0,0
812,197,0,0,0,0,0,0,0,0,0,-1,2036,827,0,0
-700,190,0,0,0,0,0,0,0,0,0,-1,524,834,0,0
-693,190,0,0,0,0,0,0,0,0,0,-1,531,834,0,0
-686,190,0,0,0,0,0,0,0,0,0,-1,538,834,0,0
-679,190,0,0,0,0,0,0,0,0,0,-1,545,834,0,0
-672,190,0,0,0,0,0,0,0,0,0,-1,552,834,0,0
-665,190,0,0,0,0,0,0,0,0,0,-1,559,834,0,0
-658,190,-13.8823,6.41998,0,0,0,0,0,0,0,-1,566,834,-13.8823,-6.42
-651,190,-13.4822,5.75854,0,0,0,0,0,0,0,-1,573,834,-13.4823,-5.75855
-644,190,-12.5459,4.87561,0.0123703,-0.042082,-0.00799729,0.0135206,-0.0432322,-0.14285,0.0342303,0.0470611,580,834,-12.5459,-4.87559
-637,190,-11.366,1.72028,0.01012,-0.029589,-0.00764229,0.0115401,-0.031009,-0.183717,0.0254085,0.0472219,587,834,-11.366,-1.72029
-630,190,-12.6398,3.09271,0.00809744,-0.0200058,-0.00655976,0.00955318,-0.0214616,-0.218382,0.0183411,0.0465532,594,834,-12.6398,-3.09273
-623,190,-12.6542,2.63269,0.00633415,-0.0128503,-0.00512859,0.00761911,-0.0141352,-0.245496,0.0127463,0.046698,601,834,-12.6542,-2.6327
-616,190,-12.5407,2.21509,0.00483973,-0.00772938,-0.00364857,0.00582207,-0.00871171,-0.263002,0.00844618,0.0435411,608,834,-12.5407,-2.21509
-609,190,-12.4816,1.7616,0.00366107,-0.00371412,-0.00277373,0.00458779,-0.00464084,-0.322447,0.00532818,0.0227341,615,834,-12.4816,-1.76161
-602,190,-12.4746,1.59491,0.0024413,-0.00136023,-0.00173581,0.00311463,-0.00203355,-0.370035,0.00299407,0.0148823,622,834,-12.4746,-1.5949
-595,190,-12.4645,1.40503,0.00141329,0.000291789,-0.000558793,0.00164418,6.09015e-05,-0.391825,0.00107639,0.0181159,629,834,-12.4645,-1.40501
-588,190,-12.45,1.18939,0.000308767,0.00127834,0.000931088,0.00184329,-0.000256182,1.02542,0.00132255,0.0156086,636,834,-12.45,-1.18938
-581,190,-12.4429,0.978394,9.92272e-05,9.89788e-05,0.00161544,0.00171455,-0.00151634,0.78536,0.00186652,0.010899,643,834,-12.4429,-0.978385
-574,190,-12.4293,0.765808,-0.00033375,-0.0013435,0.00148506,0.000729905,-0.00240716,0.621542,0.00189551,0.0106095,650,834,-12.4293,-0.765818
-567,190,-12.4205,0.528198,-0.00071093,-0.00148013,0.00163515,0.000584245,-0.00277531,0.669894,0.00207259,0.0128174,657,834,-12.4205,-0.528222
-560,190,-12.4747,0.301575,-0.00102371,-0.00176254,0.00195025,0.000591799,-0.00337805,0.691798,0.00247302,0.0225911,664,834,-12.4747,-0.301575
-553,190,-12.5167,0.102051,-0.00137656,-0.00153026,0.00227625,0.000824137,-0.00373095,0.768524,0.0028027,0.0203613,671,834,-12.5167,-0.102071
-546,190,-12.4495,-0.118713,-0.00183183,-0.00159531,0.00235529,0.000644688,-0.00407183,0.810482,0.002953,0.0376507,678,834,-12.4494,0.118714
-539,190,-12.4341,-0.0446777,0,0,0,0,0,0,0,-1,685,834,-12.4341,0.0446773
-532,190,-13.665,0.153564,0,0,0,0,0,0,0,-1,692,834,-13.6651,-0.153588
-525,190,-14.8783,0.129211,0,0,0,0,0,0,0,-1,699,834,-14.8783,-0.129237
-518,190,-16.5071,0.829224,-0.00273273,-0.000912228,0.0015505,-2.45378e-05,-0.00362042,1.05083,0.00240548,0.0453134,706,834,-16.5071,-0.829201
-511,190,-16.3198,0.92981,-0.00275177,-0.000516574,0.00101532,-0.000124242,-0.0031441,1.20206,0.00205591,0.0409029,713,834,-16.3197,-0.929827
-504,190,-16.1851,1.16827,-0.0024709,-4.41424e-05,6.04738e-05,-4.26363e-05,-0.00247241,1.5459,0.00163425,0.0418669,720,834,-16.1852,-1.16828
-497,190,-16.24,1.17969,-0.00167159,0.000495901,-0.00152444,0.00128257,-0.00245825,-1.0944,0.00219503,0.0440631,727,834,-16.24,-1.17969
-490,190,-16.3566,0.951538,0.000232376,0.0011626,-0.00393434,0.00465922,-0.00326425,-0.844234,0.00459819,0.0415268,734,834,-16.3566,-0.95153
-483,190,0,0,0,0,0,0,0,0,0,-1,741,834,0,0
-476,190,0,0,0,0,0,0,0,0,0,-1,748,834,0,0
-469,190,0,0,0,0,0,0,0,0,0,-1,755,834,0,0
-462,190,0,0,0,0,0,0,0,0,0,-1,762,834,0,0
-455,190,0,0,0,0,0,0,0,0,0,-1,769,834,0,0
-448,190,0,0,0,0,0,0,0,0,0,-1,776,834,0,0
-441,190,0,0,0,0,0,0,0,0,0,-1,783,834,0,0
-434,190,0,0,0,0,0,0,0,0,0,-1,790,834,0,0
-427,190,0,0,0,0,0,0,0,0,0,-1,797,834,0,0
-420,190,0,0,0,0,0,0,0,0,0,-1,804,834,0,0
-413,190,0,0,0,0,0,0,0,0,0,-1,811,834,0,0
-406,190,0,0,0,0,0,0,0,0,0,-1,818,834,0,0
-399,190,0,0,0,0,0,0,0,0,0,-1,825,834,0,0
-392,190,0,0,0,0,0,0,0,0,0,-1,832,834,0,0
-385,190,0,0,0,0,0,0,0,0,0,-1,839,834,0,0
-378,190,0,0,0,0,0,0,0,0,0,-1,846,834,0,0
-371,190,0,0,0,0,0,0,0,0,0,-1,853,834,0,0
-364,190,0,0,0,0,0,0,0,0,0,-1,860,834,0,0
-357,190,0,0,0,0,0,0,0,0,0,-1,867,834,0,0
-350,190,0,0,0,0,0,0,0,0,0,-1,874,834,0,0
-343,190,0,0,0,0,0,0,0,0,0,-1,881,834,0,0
-336,190,0,0,0,0,0,0,0,0,0,-1,888,834,0,0
-329,190,0,0,0,0,0,0,0,0,0,-1,895,834,0,0
-322,190,0,0,0,0,0,0,0,0,0,-1,902,834,0,0
-315,190,0,0,0,0,0,0,0,0,0,-1,909,834,0,0
-308,190,0,0,0,0,0,0,0,0,0,-1,916,834,0,0
-301,190,0,0,0,0,0,0,0,0,0,-1,923,834,0,0
-294,190,0,0,0,0,0,0,0,0,0,-1,930,834,0,0
-287,190,0,0,0,0,0,0,0,0,0,-1,937,834,0,0
-280,190,0,0,0,0,0,0,0,0,0,-1,944,834,0,0
-273,190,0,0,0,0,0,0,0,0,0,-1,951,834,0,0
-266,190,0,0,0,0,0,0,0,0,0,-1,958,834,0,0
-259,190,0,0,0,0,0,0,0,0,0,-1,965,834,0,0
-252,190,0,0,0,0,0,0,0,0,0,-1,972,834,0,0
-245,190,0,0,0,0,0,0,0,0,0,-1,979,834,0,0
-238,190,0,0,0,0,0,0,0,0,0,-1,986,834,0,0
-231,190,0,0,0,0,0,0,0,0,0,-1,993,834,0,0
-224,190,0,0,0,0,0,0,0,0,0,-1,1000,834,0,0
-217,190,0,0,0,0,0,0,0,0,0,-1,1007,834,0,0
-210,190,0,0,0,0,0,0,0,0,0,-1,1014,834,0,0
-203,190,0,0,0,0,0,0,0,0,0,-1,1021,834,0,0
-196,190,0,0,0,0,0,0,0,0,0,-1,1028,834,0,0
-189,190,0,0,0,0,0,0,0,0,0,-1,1035,834,0,0
-182,190,0,0,0,0,0,0,0,0,0,-1,1042,834,0,0
-175,190,0,0,0,0,0,0,0,0,0,-1,1049,834,0,0
-168,190,0,0,0,0,0,0,0,0,0,-1,1056,834,0,0
-161,190,0,0,0,0,0,0,0,0,0,-1,1063,834,0,0
-154,190,0,0,0,0,0,0,0,0,0,-1,1070,834,0,0
-147,190,0,0,0,0,0,0,0,0,0,-1,1077,834,0,0
-140,190,0,0,0,0,0,0,0,0,0,-1,1084,834,0,0
-133,190,0,0,0,0,0,0,0,0,0,-1,1091,834,0,0
-126,190,0,0,0,0,0,0,0,0,0,-1,1098,834,0,0
-119,190,0,0,0,0,0,0,0,0,0,-1,1105,834,0,0
-112,190,0,0,0,0,0,0,0,0,0,-1,1112,834,0,0
-105,190,0,0,0,0,0,0,0,0,0,-1,1119,834,0,0
-98,190,0,0,0,0,0,0,0,0,0,-1,1126,834,0,0
-91,190,0,0,0,0,0,0,0,0,0,-1,1133,834,0,0
-84,190,0,0,0,0,0,0,0,0,0,-1,1140,834,0,0
-77,190,0,0,0,0,0,0,0,0,0,-1,1147,834,0,0
-70,190,0,0,0,0,0,0,0,0,0,-1,1154,834,0,0
-63,190,0,0,0,0,0,0,0,0,0,-1,1161,834,0,0
-56,190,0,0,0,0,0,0,0,0,0,-1,1168,834,0,0
-49,190,0,0,0,0,0,0,0,0,0,-1,1175,834,0,0
-42,190,0,0,0,0,0,0,0,0,0,-1,1182,834,0,0
-35,190,0,0,0,0,0,0,0,0,0,-1,1189,834,0,0
-28,190,0,0,0,0,0,0,0,0,0,-1,1196,834,0,0
-21,190,0,0,0,0,0,0,0,0,0,-1,1203,834,0,0
-14,190,0,0,0,0,0,0,0,0,0,-1,1210,834,0,0
-7,190,0,0,0,0,0,0,0,0,0,-1,1217,834,0,0
0,190,0,0,0,0,0,0,0,0,0,-1,1224,834,0,0
7,190,0,0,0,0,0,0,0,0,0,-1,1231,834,0,0
14,190,0,0,0,0,0,0,0,0,0,-1,1238,834,0,0
21,190,0,0,0,0,0,0,0,0,0,-1,1245,834,0,0
28,190,0,0,0,0,0,0,0,0,0,-1,1252,834,0,0
35,190,0,0,0,0,0,0,0,0,0,-1,1259,834,0,0
42,190,0,0,0,0,0,0,0,0,0,-1,1266,834,0,0
49,190,0,0,0,0,0,0,0,0,0,-1,1273,834,0,0
56,190,0,0,0,0,0,0,0,0,0,-1,1280,834,0,0
63,190,0,0,0,0,0,0,0,0,0,-1,1287,834,0,0
70,190,0,0,0,0,0,0,0,0,0,-1,1294,834,0,0
77,190,0,0,0,0,0,0,0,0,0,-1,1301,834,0,0
84,190,0,0,0,0,0,0,0,0,0,-1,1308,834,0,0
91,190,0,0,0,0,0,0,0,0,0,-1,1315,834,0,0
98,190,0,0,0,0,0,0,0,0,0,-1,1322,834,0,0
105,190,0,0,0,0,0,0,0,0,0,-1,1329,834,0,0
112,190,0,0,0,0,0,0,0,0,0,-1,1336,834,0,0
119,190,0,0,0,0,0,0,0,0,0,-1,1343,834,0,0
126,190,0,0,0,0,0,0,0,0,0,-1,1350,834,0,0
133,190,0,0,0,0,0,0,0,0,0,-1,1357,834,0,0
140,190,0,0,0,0,0,0,0,0,0,-1,1364,834,0,0
147,190,0,0,0,0,0,0,0,0,0,-1,1371,834,0,0
154,190,0,0,0,0,0,0,0,0,0,-1,1378,834,0,0
161,190,0,0,0,0,0,0,0,0,0,-1,1385,834,0,0
168,190,0,0,0,0,0,0,0,0,0,-1,1392,834,0,0
175,190,0,0,0,0,0,0,0,0,0,-1,1399,834,0,0
182,190,0,0,0,0,0,0,0,0,0,-1,1406,834,0,0
189,190,0,0,0,0,0,0,0,0,0,-1,1413,834,0,0
196,190,0,0,0,0,0,0,0,0,0,-1,1420,834,0,0
203,190,0,0,0,0,0,0,0,0,0,-1,1427,834,0,0
210,190,0,0,0,0,0,0,0,0,0,-1,1434,834,0,0
217,190,0,0,0,0,0,0,0,0,0,-1,1441,834,0,0
224,190,0,0,0,0,0,0,0,0,0,-1,1448,834,0,0
231,190,0,0,0,0,0,0,0,0,0,-1,1455,834,0,0
238,190,0,0,0,0,0,0,0,0,0,-1,1462,834,0,0
245,190,0,0,0,0,0,0,0,0,0,-1,1469,834,0,0
252,190,0,0,0,0,0,0,0,0,0,-1,1476,834,0,0
259,190,0,0,0,0,0,0,0,0,0,-1,1483,834,0,0
266,190,0,0,0,0,0,0,0,0,0,-1,1490,834,0,0
273,190,0,0,0,0,0,0,0,0,0,-1,1497,834,0,0
280,190,0,0,0,0,0,0,0,0,0,-1,1504,834,0,0
287,190,0,0,0,0,0,0,0,0,0,-1,1511,834,0,0
294,190,0,0,0,0,0,0,0,0,0,-1,1518,834,0,0
301,190,0,0,0,0,0,0,0,0,0,-1,1525,834,0,0
308,190,0,0,0,0,0,0,0,0,0,-1,1532,834,0,0
315,190,0,0,0,0,0,0,0,0,0,-1,1539,834,0,0
322,190,0,0,0,0,0,0,0,0,0,-1,1546,834,0,0
329,190,0,0,0,0,0,0,0,0,0,-1,1553,834,0,0
336,190,0,0,0,0,0,0,0,0,0,-1,1560,834,0,0
343,190,0,0,0,0,0,0,0,0,0,-1,1567,834,0,0
350,190,0,0,0,0,0,0,0,0,0,-1,1574,834,0,0
357,190,0,0,0,0,0,0,0,0,0,-1,1581,834,0,0
364,190,0,0,0,0,0,0,0,0,0,-1,1588,834,0,0
371,190,0,0,0,0,0,0,0,0,0,-1,1595,834,0,0
378,190,0,0,0,0,0,0,0,0,0,-1,1602,834,0,0
385,190,0,0,0,0,0,0,0,0,0,-1,1609,834,0,0
392,190,0,0,0,0,0,0,0,0,0,-1,1616,834,0,0
399,190,0,0,0,0,0,0,0,0,0,-1,1623,834,0,0
406,190,0,0,0,0,0,0,0,0,0,-1,1630,834,0,0
413,190,0,0,0,0,0,0,0,0,0,-1,1637,834,0,0
420,190,0,0,0,0,0,0,0,0,0,-1,1644,834,0,0
427,190,0,0,0,0,0,0,0,0,0,-1,1651,834,0,0
434,190,0,0,0,0,0,0,0,0,0,-1,1658,834,0,0
441,190,0,0,0,0,0,0,0,0,0,-1,1665,834,0,0
448,190,0,0,0,0,0,0,0,0,0,-1,1672,834,0,0
455,190,0,0,0,0,0,0,0,0,0,-1,1679,834,0,0
462,190,0,0,0,0,0,0,0,0,0,-1,1686,834,0,0
469,190,0,0,0,0,0,0,0,0,0,-1,1693,834,0,0
476,190,0,0,0,0,0,0,0,0,0,-1,1700,834,0,0
483,190,0,0,0,0,0,0,0,0,0,-1,1707,834,0,0
490,190,0,0,0,0,0,0,0,0,0,-1,1714,834,0,0
497,190,0,0,0,0,0,0,0,0,0,-1,1721,834,0,0
504,190,0,0,0,0,0,0,0,0,0,-1,1728,834,0,0
511,190,0,0,0,0,0,0,0,0,0,-1,1735,834,0,0
518,190,0,0,0,0,0,0,0,0,0,-1,1742,834,0,0
525,190,0,0,0,0,0,0,0,0,0,-1,1749,834,0,0
532,190,0,0,0,0,0,0,0,0,0,-1,1756,834,0,0
539,190,0,0,0,0,0,0,0,0,0,-1,1763,834,0,0
546,190,0,0,0,0,0,0,0,0,0,-1,1770,834,0,0
553,190,0,0,0,0,0,0,0,0,0,-1,1777,834,0,0
560,190,0,0,0,0,0,0,0,0,0,-1,1784,834,0,0
567,190,0,0,0,0,0,0,0,0,0,-1,1791,834,0,0
574,190,0,0,0,0,0,0,0,0,0,-1,1798,834,0,0
581,190,0,0,0,0,0,0,0,0,0,-1,1805,834,0,0
588,190,0,0,0,0,0,0,0,0,0,-1,1812,834,0,0
595,190,0,0,0,0,0,0,0,0,0,-1,1819,834,0,0
602,190,23.7506,2.79285,0.0093426,0.0072269,0.00482367,0.0132231,0.00334645,0.677455,0.00793859,0.0398752,1826,834,23.7506,-2.79282
609,190,23.63,2.85303,0.00631203,0.00589996,0.00385053,0.00996204,0.00224996,0.75867,0.00603289,0.0394538,1833,834,23.63,-2.85304
616,190,23.7394,2.95654,0.00337612,0.00432723,0.0025311,0.00642705,0.00127629,0.878258,0.00392899,0.0411952,1840,834,23.7393,-2.95657
623,190,23.9109,2.64331,0,0,0,0,0,0,0,-1,1847,834,23.9108,-2.6433
630,190,23.9119,2.67944,-0.00167565,0.00141908,-0.000242902,0.00143803,-0.00169459,-1.49294,0.00181064,0.0409371,1854,834,23.9119,-2.67944
637,190,23.8975,2.68817,-0.00309297,0.00039883,-0.00118053,0.000760489,-0.00345463,-1.27352,0.00259401,0.0335892,1861,834,23.8974,-2.68815
644,190,23.8756,2.74963,-0.0037131,-0.000290378,-0.00171548,0.000421406,-0.00442489,-1.1775,0.00309996,0.0266268,1868,834,23.8756,-2.74963
651,190,23.7336,3.065,0,0,0,0,0,0,0,-1,1875,834,23.7336,-3.06497
658,190,24.0746,2.98541,0,0,0,0,0,0,0,-1,1882,834,24.0745,-2.98539
665,190,24.4155,2.90582,0,0,0,0,0,0,0,-1,1889,834,24.4155,-2.90581
672,190,19.3519,2.1026,0,0,0,0,0,0,0,-1,1896,834,19.3519,-2.10261
679,190,19.162,2.31635,-0.00294,-0.0017973,-0.00207668,-0.000214807,-0.0045225,-0.91964,0.00294601,0.0357394,1903,834,19.1619,-2.31634
686,190,19.0234,2.42468,-0.00225876,-0.00139019,-0.00190755,0.000131886,-0.00378083,-0.897324,0.00256565,0.0150414,1910,834,19.0234,-2.42466
693,190,19.0331,2.62311,-0.0014193,-0.000992268,-0.00154193,0.000350857,-0.00276243,-0.854198,0.00196902,0.0124631,1917,834,19.0331,-2.62308
700,190,19.0334,2.86176,-0.000277178,-0.000805924,-0.00121554,0.000702409,-0.00178551,-0.678319,0.00148108,0.0104462,1924,834,19.0335,-2.86175
707,190,19.0507,3.09442,0.00105514,-0.00034297,-0.00065672,0.00131523,-0.00060306,-0.377092,0.00113268,0.0123662,1931,834,19.0506,-3.09445
714,190,19.059,3.32556,0.0021796,0.000372606,-0.000299155,0.00222783,0.000324367,-0.159874,0.00138978,0.0119564,1938,834,19.059,-3.32559
721,190,19.0575,3.56641,0.00434131,0.00127567,0.000138505,0.00434755,0.00126943,0.0450576,0.00258145,0.0108762,1945,834,19.0575,-3.56639
728,190,19.0559,3.78333,0.00767023,0.0036767,0.000414937,0.00771288,0.00363404,0.102444,0.0044555,0.0120262,1952,834,19.0559,-3.78331
735,190,19.0614,4.02124,0.0117883,0.0057807,0.00121329,0.0120241,0.00554492,0.191939,0.00694909,0.0114488,1959,834,19.0613,-4.02126
742,190,19.0344,4.28149,0.0172097,0.0087065,0.00221505,0.0177522,0.00816409,0.240149,0.0102602,0.0158302,1966,834,19.0345,-4.28148
749,190,19.0059,4.50977,0.0245791,0.0130659,0.00361484,0.02562,0.0120251,0.280358,0.014801,0.0398182,1973,834,19.0059,-4.50975
756,190,19.3406,4.59473,0.0343132,0.0192524,0.00562439,0.0361818,0.0173838,0.320754,0.0208949,0.0473778,1980,834,19.3406,-4.59473
763,190,20.3114,5.06207,0,0,0,0,0,0,0,-1,1987,834,20.3114,-5.06208
770,190,20.9171,5.48798,0,0,0,0,0,0,0,-1,1994,834,20.9171,-5.488
777,190,22.332,7.49432,0,0,0,0,0,0,0,-1,2001,834,22.332,-7.49435
784,190,0,0,0,0,0,0,0,0,0,-1,2008,834,0,0
791,190,0,0,0,0,0,0,0,0,0,-1,2015,834,0,0
798,190,0,0,0,0,0,0,0,0,0,-1,2022,834,0,0
805,190,0,0,0,0,0,0,0,0,0,-1,2029,834,0,0
812,190,0,0,0,0,0,0,0,0,0,-1,2036,834,0,0
-700,183,0,0,0,0,0,0,0,0,0,-1,524,841,0,0
-693,183,0,0,0,0,0,0,0,0,0,-1,531,841,0,0
-686,183,0,0,0,0,0,0,0,0,0,-1,538,841,0,0
-679,183,0,0,0,0,0,0,0,0,0,-1,545,841,0,0
-672,183,0,0,0,0,0,0,0,0,0,-1,552,841,0,0
-665,183,0,0,0,0,0,0,0,0,0,-1,559,841,0,0
-658,183,-14.1696,6.51245,0,0,0,0,0,0,0,-1,566,841,-14.1696,-6.51242
-651,183,-13.547,6.57556,0,0,0,0,0,0,0,-1,573,841,-13.547,-6.57559
-644,183,-12.0115,2.57623,0,0,0,0,0,0,0,-1,580,841,-12.0115,-2.57625
-637,183,-12.1741,1.97601,0.0111592,-0.0295224,-0.0051335,0.011797,-0.0301602,-0.123606,0.0249854,0.0457884,587,841,-12.1742,-1.97603
-630,183,-12.2211,1.60901,0.00871937,-0.0200525,-0.0052153,0.00963554,-0.0209687,-0.173896,0.0180687,0.0460721,594,841,-12.2211,-1.60901
-623,183,-12.7039,2.17316,0,0,0,0,0,0,0,-1,601,841,-12.7039,-2.17318
-616,183,-12.6943,1.97968,0.00480521,-0.00773793,-0.00371169,0.00582125,-0.00875397,-0.267194,0.0084716,0.04054,608,841,-12.6943,-1.97965
-609,183,-12.6848,1.79169,0.00338091,-0.00362629,-0.00322972,0.00464242,-0.0048878,-0.372373,0.00550288,0.0161061,615,841,-12.6848,-1.79171
-602,183,-12.6924,1.59882,0.00196979,-0.00124467,-0.0023154,0.00318112,-0.002456,-0.482005,0.00326355,0.0105337,622,841,-12.6924,-1.59883
-595,183,-12.6937,1.3764,0.000878799,0.000389504,-0.0010847,0.0017461,-0.0004778,-0.674483,0.00135178,0.0101769,629,841,-12.6937,-1.3764
-588,183,-12.6676,1.17053,-0.000191592,0.00112341,0.000548556,0.00132219,-0.000390374,1.22314,0.00103639,0.0109049,636,841,-12.6676,-1.1705
-581,183,-12.6793,0.966248,-0.000442915,-0.000181965,0.00141798,0.00111153,-0.00173641,0.831276,0.0016574,0.0116048,643,841,-12.6793,-0.966225
-574,183,-12.6586,0.769653,-0.000855097,-0.00152376,0.00152601,0.000372776,-0.00275163,0.677558,0.00197047,0.0114009,650,841,-12.6586,-0.769665
-567,183,-12.5982,0.545471,-0.00113547,-0.00160158,0.0017868,0.000433405,-0.00317046,0.720548,0.00227193,0.0190245,657,841,-12.5982,-0.54548
-560,183,-12.7111,0.372925,-0.00128762,-0.00185072,0.00214494,0.000594174,-0.00373251,0.72014,0.00270821,0.0236612,664,841,-12.7111,-0.372934
-553,183,-12.6757,0.0719604,-0.00146994,-0.00163516,0.00245216,0.000900995,-0.0040061,0.768561,0.00301626,0.0202482,671,841,-12.6757,-0.0719567
-546,183,-12.535,-0.126038,-0.00178111,-0.00167576,0.00250149,0.000773606,-0.00423048,0.795926,0.00311042,0.0462841,678,841,-12.535,0.126041
-539,183,-12.8502,0.022583,0,0,0,0,0,0,0,-1,685,841,-12.8502,-0.022576
-532,183,-14.7087,0.320007,0,0,0,0,0,0,0,-1,692,841,-14.7087,-0.319998
-525,183,-16.5231,0.750122,-0.00212996,-0.00131428,0.00193441,0.00025482,-0.00369905,0.889294,0.00255521,0.0472045,699,841,-16.5231,-0.750135
-518,183,-16.5018,0.699219,-0.00223002,-0.00102863,0.00157177,5.33212e-05,-0.00331197,0.967923,0.00222597,0.0423201,706,841,-16.5018,-0.699212
-511,183,-16.4233,0.699768,-0.0021128,-0.000770767,0.000977879,-0.000255819,-0.00262774,1.0861,0.00167309,0.0384496,713,841,-16.4233,-0.699794
-504,183,-16.4724,1.0415,-0.00169257,-0.0005661,-8.51012e-05,-0.000559708,-0.00169897,-1.49582,0.000999742,0.0401216,720,841,-16.4724,-1.0415
-497,183,-16.3118,1.28418,-0.000827419,-0.000613834,-0.00177228,0.00105487,-0.00249612,-0.81549,0.0021057,0.0441007,727,841,-16.3118,-1.28416
-490,183,-16.265,1.05103,0.00133879,-0.000883308,-0.00447598,0.00483955,-0.00438407,-0.663745,0.00532742,0.0413958,734,841,-16.265,-1.05101
-483,183,0,0,0,0,0,0,0,0,0,-1,741,841,0,0
-476,183,0,0,0,0,0,0,0,0,0,-1,748,841,0,0
-469,183,0,0,0,0,0,0,0,0,0,-1,755,841,0,0
-462,183,0,0,0,0,0,0,0,0,0,-1,762,841,0,0
-455,183,0,0,0,0,0,0,0,0,0,-1,769,841,0,0
-448,183,0,0,0,0,0,0,0,0,0,-1,776,841,0,0
-441,183,0,0,0,0,0,0,0,0,0,-1,783,841,0,0
-434,183,0,0,0,0,0,0,0,0,0,-1,790,841,0,0
-427,183,0,0,0,0,0,0,0,0,0,-1,797,841,0,0
-420,183,0,0,0,0,0,0,0,0,0,-1,804,841,0,0
-413,183,0,0,0,0,0,0,0,0,0,-1,811,841,0,0
-406,183,0,0,0,0,0,0,0,0,0,-1,818,841,0,0
-399,183,0,0,0,0,0,0,0,0,0,-1,825,841,0,0
-392,183,0,0,0,0,0,0,0,0,0,-1,832,841,0,0
-385,183,0,0,0,0,0,0,0,0,0,-1,839,841,0,0
-378,183,0,0,0,0,0,0,0,0,0,-1,846,841,0,0
-371,183,0,0,0,0,0,0,0,0,0,-1,853,841,0,0
-364,183,0,0,0,0,0,0,0,0,0,-1,860,841,0,0
-357,183,0,0,0,0,0,0,0,0,0,-1,867,841,0,0
-350,183,0,0,0,0,0,0,0,0,0,-1,874,841,0,0
-343,183,0,0,0,0,0,0,0,0,0,-1,881,841,0,0
-336,183,0,0,0,0,0,0,0,0,0,-1,888,841,0,0
-329,183,0,0,0,0,0,0,0,0,0,-1,895,841,0,0
-322,183,0,0,0,0,0,0,0,0,0,-1,902,841,0,0
-315,183,0,0,0,0,0,0,0,0,0,-1,909,841,0,0
-308,183,0,0,0,0,0,0,0,0,0,-1,916,841,0,0
-301,183,0,0,0,0,0,0,0,0,0,-1,923,841,0,0
-294,183,0,0,0,0,0,0,0,0,0,-1,930,841,0,0
-287,183,0,0,0,0,0,0,0,0,0,-1,937,841,0,0
-280,183,0,0,0,0,0,0,0,0,0,-1,944,841,0,0
-273,183,0,0,0,0,0,0,0,0,0,-1,951,841,0,0
-266,183,0,0,0,0,0,0,0,0,0,-1,958,841,0,0
-259,183,0,0,0,0,0,0,0,0,0,-1,965,841,0,0
-252,183,0,0,0,0,0,0,0,0,0,-1,972,841,0,0
-245,183,0,0,0,0,0,0,0,0,0,-1,979,841,0,0
-238,183,0,0,0,0,0,0,0,0,0,-1,986,841,0,0
-231,183,0,0,0,0,0,0,0,0,0,-1,993,841,0,0
-224,183,0,0,0,0,0,0,0,0,0,-1,1000,841,0,0
-217,183,0,0,0,0,0,0,0,0,0,-1,1007,841,0,0
-210,183,0,0,0,0,0,0,0,0,0,-1,1014,841,0,0
-203,183,0,0,0,0,0,0,0,0,0,-1,1021,841,0,0
-196,183,0,0,0,0,0,0,0,0,0,-1,1028,841,0,0
-189,183,0,0,0,0,0,0,0,0,0,-1,1035,841,0,0
-182,183,0,0,0,0,0,0,0,0,0,-1,1042,841,0,0
-175,183,0,0,0,0,0,0,0,0,0,-1,1049,841,0,0
-168,183,0,0,0,0,0,0,0,0,0,-1,1056,841,0,0
-161,183,0,0,0,0,0,0,0,0,0,-1,1063,841,0,0
-154,183,0,0,0,0,0,0,0,0,0,-1,1070,841,0,0
-147,183,0,0,0,0,0,0,0,0,0,-1,1077,841,0,0
-140,183,0,0,0,0,0,0,0,0,0,-1,1084,841,0,0
-133,183,0,0,0,0,0,0,0,0,0,-1,1091,841,0,0
-126,183,0,0,0,0,0,0,0,0,0,-1,1098,841,0,0
-119,183,0,0,0,0,0,0,0,0,0,-1,1105,841,0,0
-112,183,0,0,0,0,0,0,0,0,0,-1,1112,841,0,0
-105,183,0,0,0,0,0,0,0,0,0,-1,1119,841,0,0
-98,183,0,0,0,0,0,0,0,0,0,-1,1126,841,0,0
-91,183,0,0,0,0,0,0,0,0,0,-1,1133,841,0,0
-84,183,0,0,0,0,0,0,0,0,0,-1,1140,841,0,0
-77,183,0,0,0,0,0,0,0,0,0,-1,1147,841,0,0
-70,183,0,0,0,0,0,0,0,0,0,-1,1154,841,0,0
-63,183,0,0,0,0,0,0,0,0,0,-1,1161,841,0,0
-56,183,0,0,0,0,0,0,0,0,0,-1,1168,841,0,0
-49,183,0,0,0,0,0,0,0,0,0,-1,1175,841,0,0
-42,183,0,0,0,0,0,0,0,0,0,-1,1182,841,0,0
-35,183,0,0,0,0,0,0,0,0,0,-1,1189,841,0,0
-28,183,0,0,0,0,0,0,0,0,0,-1,1196,841,0,0
-21,183,0,0,0,0,0,0,0,0,0,-1,1203,841,0,0
-14,183,0,0,0,0,0,0,0,0,0,-1,1210,841,0,0
-7,183,0,0,0,0,0,0,0,0,0,-1,1217,841,0,0
0,183,0,0,0,0,0,0,0,0,0,-1,1224,841,0,0
7,183,0,0,0,0,0,0,0,0,0,-1,1231,841,0,0
14,183,0,0,0,0,0,0,0,0,0,-1,1238,841,0,0
21,183,0,0,0,0,0,0,0,0,0,-1,1245,841,0,0
28,183,0,0,0,0,0,0,0,0,0,-1,1252,841,0,0
35,183,0,0,0,0,0,0,0,0,0,-1,1259,841,0,0
42,183,0,0,0,0,0,0,0,0,0,-1,1266,841,0,0
49,183,0,0,0,0,0,0,0,0,0,-1,1273,841,0,0
56,183,0,0,0,0,0,0,0,0,0,-1,1280,841,0,0
63,183,0,0,0,0,0,0,0,0,0,-1,1287,841,0,0
70,183,0,0,0,0,0,0,0,0,0,-1,1294,841,0,0
77,183,0,0,0,0,0,0,0,0,0,-1,1301,841,0,0
84,183,0,0,0,0,0,0,0,0,0,-1,1308,841,0,0
91,183,0,0,0,0,0,0,0,0,0,-1,1315,841,0,0
98,183,0,0,0,0,0,0,0,0,0,-1,1322,841,0,0
105,183,0,0,0,0,0,0,0,0,0,-1,1329,841,0,0
112,183,0,0,0,0,0,0,0,0,0,-1,1336,841,0,0
119,183,0,0,0,0,0,0,0,0,0,-1,1343,841,0,0
126,183,0,0,0,0,0,0,0,0,0,-1,1350,841,0,0
133,183,0,0,0,0,0,0,0,0,0,-1,1357,841,0,0
140,183,0,0,0,0,0,0,0,0,0,-1,1364,841,0,0
147,183,0,0,0,0,0,0,0,0,0,-1,1371,841,0,0
154,183,0,0,0,0,0,0,0,0,0,-1,1378,841,0,0
161,183,0,0,0,0,0,0,0,0,0,-1,1385,841,0,0
168,183,0,0,0,0,0,0,0,0,0,-1,1392,841,0,0
175,183,0,0,0,0,0,0,0,0,0,-1,1399,841,0,0
182,183,0,0,0,0,0,0,0,0,0,-1,1406,841,0,0
189,183,0,0,0,0,0,0,0,0,0,-1,1413,841,0,0
196,183,0,0,0,0,0,0,0,0,0,-1,1420,841,0,0
203,183,0,0,0,0,0,0,0,0,0,-1,1427,841,0,0
210,183,0,0,0,0,0,0,0,0,0,-1,1434,841,0,0
217,183,0,0,0,0,0,0,0,0,0,-1,1441,841,0,0
224,183,0,0,0,0,0,0,0,0,0,-1,1448,841,0,0
231,183,0,0,0,0,0,0,0,0,0,-1,1455,841,0,0
238,183,0,0,0,0,0,0,0,0,0,-1,1462,841,0,0
245,183,0,0,0,0,0,0,0,0,0,-1,1469,841,0,0
252,183,0,0,0,0,0,0,0,0,0,-1,1476,841,0,0
259,183,0,0,0,0,0,0,0,0,0,-1,1483,841,0,0
266,183,0,0,0,0,0,0,0,0,0,-1,1490,841,0,0
273,183,0,0,0,0,0,0,0,0,0,-1,1497,841,0,0
280,183,0,0,0,0,0,0,0,0,0,-1,1504,841,0,0
287,183,0,0,0,0,0,0,0,0,0,-1,1511,841,0,0
294,183,0,0,0,0,0,0,0,0,0,-1,1518,841,0,0
301,183,0,0,0,0,0,0,0,0,0,-1,1525,841,0,0
308,183,0,0,0,0,0,0,0,0,0,-1,1532,841,0,0
315,183,0,0,0,0,0,0,0,0,0,-1,1539,841,0,0
322,183,0,0,0,0,0,0,0,0,0,-1,1546,841,0,0
329,183,0,0,0,0,0,0,0,0,0,-1,1553,841,0,0
336,183,0,0,0,0,0,0,0,0,0,-1,1560,841,0,0
343,183,0,0,0,0,0,0,0,0,0,-1,1567,841,0,0
350,183,0,0,0,0,0,0,0,0,0,-1,1574,841,0,0
357,183,0,0,0,0,0,0,0,0,0,-1,1581,841,0,0
364,183,0,0,0,0,0,0,0,0,0,-1,1588,841,0,0
371,183,0,0,0,0,0,0,0,0,0,-1,1595,841,0,0
378,183,0,0,0,0,0,0,0,0,0,-1,1602,841,0,0
385,183,0,0,0,0,0,0,0,0,0,-1,1609,841,0,0
392,183,0,0,0,0,0,0,0,0,0,-1,1616,841,0,0
399,183,0,0,0,0,0,0,0,0,0,-1,1623,841,0,0
406,183,0,0,0,0,0,0,0,0,0,-1,1630,841,0,0
413,183,0,0,0,0,0,0,0,0,0,-1,1637,841,0,0
420,183,0,0,0,0,0,0,0,0,0,-1,1644,841,0,0
427,183,0,0,0,0,0,0,0,0,0,-1,1651,841,0,0
434,183,0,0,0,0,0,0,0,0,0,-1,1658,841,0,0
441,183,0,0,0,0,0,0,0,0,0,-1,1665,841,0,0
448,183,0,0,0,0,0,0,0,0,0,-1,1672,841,0,0
455,183,0,0,0,0,0,0,0,0,0,-1,1679,841,0,0
462,183,0,0,0,0,0,0,0,0,0,-1,1686,841,0,0
469,183,0,0,0,0,0,0,0,0,0,-1,1693,841,0,0
476,183,0,0,0,0,0,0,0,0,0,-1,1700,841,0,0
483,183,0,0,0,0,0,0,0,0,0,-1,1707,841,0,0
490,183,0,0,0,0,0,0,0,0,0,-1,1714,841,0,0
497,183,0,0,0,0,0,0,0,0,0,-1,1721,841,0,0
504,183,0,0,0,0,0,0,0,0,0,-1,1728,841,0,0
511,183,0,0,0,0,0,0,0,0,0,-1,1735,841,0,0
518,183,0,0,0,0,0,0,0,0,0,-1,1742,841,0,0
525,183,0,0,0,0,0,0,0,0,0,-1,1749,841,0,0
532,183,0,0,0,0,0,0,0,0,0,-1,1756,841,0,0
539,183,0,0,0,0,0,0,0,0,0,-1,1763,841,0,0
546,183,0,0,0,0,0,0,0,0,0,-1,1770,841,0,0
553,183,0,0,0,0,0,0,0,0,0,-1,1777,841,0,0
560,183,0,0,0,0,0,0,0,0,0,-1,1784,841,0,0
567,183,0,0,0,0,0,0,0,0,0,-1,1791,841,0,0
574,183,0,0,0,0,0,0,0,0,0,-1,1798,841,0,0
581,183,0,0,0,0,0,0,0,0,0,-1,1805,841,0,0
588,183,0,0,0,0,0,0,0,0,0,-1,1812,841,0,0
595,183,0,0,0,0,0,0,0,0,0,-1,1819,841,0,0
602,183,0,0,0,0,0,0,0,0,0,-1,1826,841,0,0
609,183,23.6842,2.8139,0.00759581,0.00580052,0.00432891,0.0111192,0.00227717,0.683167,0.00678237,0.0410373,1833,841,23.6842,-2.81389
616,183,23.699,3.1474,0.00456588,0.00451365,0.0027181,0.00725799,0.00182154,0.780595,0.00436021,0.0423381,1840,841,23.699,-3.14739
623,183,23.7084,3.33588,0.00164022,0.00306949,0.00111655,0.00368052,0.00102919,1.07007,0.00219267,0.0432843,1847,841,23.7084,-3.33586
630,183,23.7877,3.17328,-0.000675801,0.00181777,-0.000202421,0.0018341,-0.000692126,-1.49032,0.00150737,0.0395704,1854,841,23.7878,-3.17331
637,183,23.8611,2.74744,-0.00218919,0.000751262,-0.00111624,0.00112699,-0.00256492,-1.24611,0.00218476,0.0340112,1861,841,23.8611,-2.74744
644,183,23.827,2.75177,-0.00285582,-6.68497e-06,-0.00159663,0.000708515,-0.00357102,-1.14965,0.00264863,0.0270084,1868,841,23.827,-2.75175
651,183,23.882,2.75409,-0.0030185,-0.000568479,-0.00181444,0.000395769,-0.00398275,-1.08232,0.00279644,0.0245125,1875,841,23.8819,-2.75408
658,183,24.0281,2.78497,-0.00293147,-0.000915445,-0.00193808,0.00026109,-0.00410801,-1.0252,0.00282972,0.0418547,1882,841,24.028,-2.78497
665,183,24.1683,2.81781,0,0,0,0,0,0,0,-1,1889,841,24.1683,-2.81783
672,183,19.4529,2.07013,0,0,0,0,0,0,0,-1,1896,841,19.4529,-2.07014
679,183,19.3848,2.24695,-0.00232827,-0.00170298,-0.0017543,-0.00023368,-0.00379757,-0.873581,0.00245753,0.040581,1903,841,19.3848,-2.24697
686,183,19.311,2.43048,-0.00176108,-0.00142574,-0.00162056,3.58053e-05,-0.00322262,-0.836947,0.00216045,0.0182012,1910,841,19.3111,-2.43046
693,183,19.312,2.64569,-0.0011412,-0.00112538,-0.00134797,0.000214707,-0.00248129,-0.788331,0.00173021,0.0143214,1917,841,19.312,-2.6457
700,183,19.2906,2.88226,-0.000228778,-0.000970809,-0.00109834,0.000559519,-0.00175911,-0.622517,0.0013971,0.0143838,1924,841,19.2906,-2.88228
707,183,19.2708,3.11499,0.000921362,-0.000603232,-0.00063988,0.00115433,-0.000836196,-0.349157,0.00115411,0.0120634,1931,841,19.2708,-3.11498
714,183,19.2765,3.34009,0.00195807,7.54088e-06,-0.000345512,0.00201746,-5.18538e-05,-0.170239,0.00136259,0.0158194,1938,841,19.2765,-3.34006
721,183,19.281,3.55652,0.00422442,0.000786301,3.11754e-05,0.0042247,0.000786018,0.00906657,0.00259446,0.0139636,1945,841,19.281,-3.55652
728,183,19.2803,3.77319,0.00779023,0.00330881,0.000159202,0.00779588,0.00330316,0.0354652,0.00451839,0.0120396,1952,841,19.2803,-3.77321
735,183,19.2825,4.00281,0.0121988,0.00541944,0.000897599,0.0123156,0.00530261,0.129432,0.00713324,0.0120648,1959,841,19.2825,-4.0028
742,183,19.2722,4.25311,0.0179403,0.00838434,0.00178991,0.0182645,0.00806008,0.179218,0.0105692,0.0117636,1966,841,19.2722,-4.25313
749,183,19.2194,4.48792,0.0256493,0.0128042,0.00299565,0.0263136,0.01214,0.218216,0.0152073,0.0333665,1973,841,19.2193,-4.48789
756,183,19.4872,4.85077,0.0357321,0.0190368,0.00472256,0.0369754,0.0177935,0.257421,0.0213528,0.0480642,1980,841,19.4872,-4.85079
763,183,20.4456,5.3006,0,0,0,0,0,0,0,-1,1987,841,20.4456,-5.30062
770,183,21.6438,7.05029,0,0,0,0,0,0,0,-1,1994,841,21.6438,-7.05026
777,183,22.1395,7.46057,0,0,0,0,0,0,0,-1,2001,841,22.1395,-7.46055
784,183,0,0,0,0,0,0,0,0,0,-1,2008,841,0,0
791,183,0,0,0,0,0,0,0,0,0,-1,2015,841,0,0
798,183,0,0,0,0,0,0,0,0,0,-1,2022,841,0,0
805,183,0,0,0,0,0,0,0,0,0,-1,2029,841,0,0
812,183,0,0,0,0,0,0,0,0,0,-1,2036,841,0,0
-700,176,0,0,0,0,0,0,0,0,0,-1,524,848,0,0
-693,176,0,0,0,0,0,0,0,0,0,-1,531,848,0,0
-686,176,0,0,0,0,0,0,0,0,0,-1,538,848,0,0
-679,176,0,0,0,0,0,0,0,0,0,-1,545,848,0,0
-672,176,0,0,0,0,0,0,0,0,0,-1,552,848,0,0
-665,176,-11.0511,-2.28223,0,0,0,0,0,0,0,-1,559,848,-11.0511,2.28224
-658,176,-11.1754,-2.43347,0,0,0,0,0,0,0,-1,566,848,-11.1753,2.43345
-651,176,-15.8181,1.50153,0,0,0,0,0,0,0,-1,573,848,-15.818,-1.50155
-644,176,-11.2247,3.67554,0,0,0,0,0,0,0,-1,580,848,-11.2247,-3.67556
-637,176,-12.9016,1.66858,0,0,0,0,0,0,0,-1,587,848,-12.9016,-1.66856
-630,176,-12.8853,1.63391,0.011308,-0.0182278,-0.00252578,0.0115224,-0.0184422,-0.0846966,0.0174532,0.0436637,594,848,-12.8853,-1.63392
-623,176,-12.7149,1.80109,0,0,0,0,0,0,0,-1,601,848,-12.7149,-1.80111
-616,176,-12.855,2.01434,0.00630459,-0.00695025,-0.00207473,0.00662175,-0.00726741,-0.151694,0.0080218,0.0282792,608,848,-12.855,-2.01437
-609,176,-12.8663,1.81958,0.00441674,-0.00303597,-0.00215135,0.00499318,-0.00361241,-0.261793,0.00498971,0.0116755,615,848,-12.8663,-1.8196
-602,176,-12.8898,1.59692,0.00253471,-0.000814018,-0.00160006,0.00317631,-0.00145561,-0.381354,0.00273506,0.011744,622,848,-12.8898,-1.59694
-595,176,-12.9075,1.38647,0.00106077,0.000646061,-0.000613024,0.00150056,0.000206274,-0.622313,0.000939197,0.010342,629,848,-12.9075,-1.38648
-588,176,-12.8765,1.16498,-0.000244224,0.00102913,0.000828309,0.00143718,-0.000652274,1.11306,0.00123439,0.0111898,636,848,-12.8765,-1.165
-581,176,-12.8865,0.97876,-0.000757313,-0.00047435,0.00164545,0.00103569,-0.00226735,0.828285,0.0019507,0.0107341,643,848,-12.8865,-0.978736
-574,176,-12.887,0.781311,-0.00125821,-0.0017285,0.00179566,0.000317639,-0.00330434,0.720292,0.00231605,0.0127475,650,848,-12.887,-0.781305
-567,176,-12.8301,0.632935,-0.00155275,-0.00182705,0.00203736,0.00035207,-0.00373187,0.75179,0.00261319,0.0256173,657,848,-12.8301,-0.632947
-560,176,-12.9611,0.39325,-0.00165057,-0.00208578,0.00238316,0.000524902,-0.00426125,0.73987,0.00303099,0.0208506,664,848,-12.961,-0.393255
-553,176,-12.8535,0.0864868,-0.00172085,-0.00192302,0.00265225,0.000832239,-0.00447611,0.766351,0.00329669,0.0364499,671,848,-12.8535,-0.0864895
-546,176,-12.6443,-0.259399,0,0,0,0,0,0,0,-1,678,848,-12.6444,0.259409
-539,176,-16.3195,0.847656,0,0,0,0,0,0,0,-1,685,848,-16.3195,-0.847637
-532,176,-16.3904,0.807312,-0.00203675,-0.0015814,0.0023197,0.000521771,-0.00413993,0.834316,0.0029493,0.0437305,692,848,-16.3904,-0.807324
-525,176,-16.4668,0.785828,-0.00202528,-0.00133744,0.00206378,0.000410877,-0.0037736,0.867963,0.00266327,0.0492071,699,848,-16.4668,-0.785802
-518,176,-16.4855,0.947083,0,0,0,0,0,0,0,-1,706,848,-16.4855,-0.947101
-511,176,-16.5425,0.521484,-0.00181981,-0.000804346,0.000964041,-0.000222506,-0.00240165,1.02778,0.00153233,0.0392634,713,848,-16.5425,-0.521471
-504,176,-16.7437,0.898071,-0.0013569,-0.000778806,-0.000263613,-0.00067665,-0.00145905,-1.20109,0.000843122,0.0406491,720,848,-16.7436,-0.898056
-497,176,-16.9108,1.25592,0,0,0,0,0,0,0,-1,727,848,-16.9108,-1.25591
-490,176,-16.3843,0.845215,0,0,0,0,0,0,0,-1,734,848,-16.3843,-0.8452
-483,176,0,0,0,0,0,0,0,0,0,-1,741,848,0,0
-476,176,0,0,0,0,0,0,0,0,0,-1,748,848,0,0
-469,176,0,0,0,0,0,0,0,0,0,-1,755,848,0,0
-462,176,0,0,0,0,0,0,0,0,0,-1,762,848,0,0
-455,176,0,0,0,0,0,0,0,0,0,-1,769,848,0,0
-448,176,0,0,0,0,0,0,0,0,0,-1,776,848,0,0
-441,176,0,0,0,0,0,0,0,0,0,-1,783,848,0,0
-434,176,0,0,0,0,0,0,0,0,0,-1,790,848,0,0
-427,176,0,0,0,0,0,0,0,0,0,-1,797,848,0,0
-420,176,0,0,0,0,0,0,0,0,0,-1,804,848,0,0
-413,176,0,0,0,0,0,0,0,0,0,-1,811,848,0,0
-406,176,0,0,0,0,0,0,0,0,0,-1,818,848,0,0
-399,176,0,0,0,0,0,0,0,0,0,-1,825,848,0,0
-392,176,0,0,0,0,0,0,0,0,0,-1,832,848,0,0
-385,176,0,0,0,0,0,0,0,0,0,-1,839,848,0,0
-378,176,0,0,0,0,0,0,0,0,0,-1,846,848,0,0
-371,176,0,0,0,0,0,0,0,0,0,-1,853,848,0,0
-364,176,0,0,0,0,0,0,0,0,0,-1,860,848,0,0
-357,176,0,0,0,0,0,0,0,0,0,-1,867,848,0,0
-350,176,0,0,0,0,0,0,0,0,0,-1,874,848,0,0
-343,176,0,0,0,0,0,0,0,0,0,-1,881,848,0,0
-336,176,0,0,0,0,0,0,0,0,0,-1,888,848,0,0
-329,176,0,0,0,0,0,0,0,0,0,-1,895,848,0,0
-322,176,0,0,0,0,0,0,0,0,0,-1,902,848,0,0
-315,176,0,0,0,0,0,0,0,0,0,-1,909,848,0,0
-308,176,0,0,0,0,0,0,0,0,0,-1,916,848,0,0
-301,176,0,0,0,0,0,0,0,0,0,-1,923,848,0,0
-294,176,0,0,0,0,0,0,0,0,0,-1,930,848,0,0
-287,176,0,0,0,0,0,0,0,0,0,-1,937,848,0,0
-280,176,0,0,0,0,0,0,0,0,0,-1,944,848,0,0
-273,176,0,0,0,0,0,0,0,0,0,-1,951,848,0,0
-266,176,0,0,0,0,0,0,0,0,0,-1,958,848,0,0
-259,176,0,0,0,0,0,0,0,0,0,-1,965,848,0,0
-252,176,0,0,0,0,0,0,0,0,0,-1,972,848,0,0
-245,176,0,0,0,0,0,0,0,0,0,-1,979,848,0,0
-238,176,0,0,0,0,0,0,0,0,0,-1,986,848,0,0
-231,176,0,0,0,0,0,0,0,0,0,-1,993,848,0,0
-224,176,0,0,0,0,0,0,0,0,0,-1,1000,848,0,0
-217,176,0,0,0,0,0,0,0,0,0,-1,1007,848,0,0
-210,176,0,0,0,0,0,0,0,0,0,-1,1014,848,0,0
-203,176,0,0,0,0,0,0,0,0,0,-1,1021,848,0,0
-196,176,0,0,0,0,0,0,0,0,0,-1,1028,848,0,0
-189,176,0,0,0,0,0,0,0,0,0,-1,1035,848,0,0
-182,176,0,0,0,0,0,0,0,0,0,-1,1042,848,0,0
-175,176,0,0,0,0,0,0,0,0,0,-1,1049,848,0,0
-168,176,0,0,0,0,0,0,0,0,0,-1,1056,848,0,0
-161,176,0,0,0,0,0,0,0,0,0,-1,1063,848,0,0
-154,176,0,0,0,0,0,0,0,0,0,-1,1070,848,0,0
-147,176,0,0,0,0,0,0,0,0,0,-1,1077,848,0,0
-140,176,0,0,0,0,0,0,0,0,0,-1,1084,848,0,0
-133,176,0,0,0,0,0,0,0,0,0,-1,1091,848,0,0
-126,176,0,0,0,0,0,0,0,0,0,-1,1098,848,0,0
-119,176,0,0,0,0,0,0,0,0,0,-1,1105,848,0,0
-112,176,0,0,0,0,0,0,0,0,0,-1,1112,848,0,0
-105,176,0,0,0,0,0,0,0,0,0,-1,1119,848,0,0
-98,176,0,0,0,0,0,0,0,0,0,-1,1126,848,0,0
-91,176,0,0,0,0,0,0,0,0,0,-1,1133,848,0,0
-84,176,0,0,0,0,0,0,0,0,0,-1,1140,848,0,0
-77,176,0,0,0,0,0,0,0,0,0,-1,1147,848,0,0
-70,176,0,0,0,0,0,0,0,0,0,-1,1154,848,0,0
-63,176,0,0,0,0,0,0,0,0,0,-1,1161,848,0,0
-56,176,0,0,0,0,0,0,0,0,0,-1,1168,848,0,0
-49,176,0,0,0,0,0,0,0,0,0,-1,1175,848,0,0
-42,176,0,0,0,0,0,0,0,0,0,-1,1182,848,0,0
-35,176,0,0,0,0,0,0,0,0,0,-1,1189,848,0,0
-28,176,0,0,0,0,0,0,0,0,0,-1,1196,848,0,0
-21,176,0,0,0,0,0,0,0,0,0,-1,1203,848,0,0
-14,176,0,0,0,0,0,0,0,0,0,-1,1210,848,0,0
-7,176,0,0,0,0,0,0,0,0,0,-1,1217,848,0,0
0,176,0,0,0,0,0,0,0,0,0,-1,1224,848,0,0
7,176,0,0,0,0,0,0,0,0,0,-1,1231,848,0,0
14,176,0,0,0,0,0,0,0,0,0,-1,1238,848,0,0
21,176,0,0,0,0,0,0,0,0,0,-1,1245,848,0,0
28,176,0,0,0,0,0,0,0,0,0,-1,1252,848,0,0
35,176,0,0,0,0,0,0,0,0,0,-1,1259,848,0,0
42,176,0,0,0,0,0,0,0,0,0,-1,1266,848,0,0
49,176,0,0,0,0,0,0,0,0,0,-1,1273,848,0,0
56,176,0,0,0,0,0,0,0,0,0,-1,1280,848,0,0
63,176,0,0,0,0,0,0,0,0,0,-1,1287,848,0,0
70,176,0,0,0,0,0,0,0,0,0,-1,1294,848,0,0
77,176,0,0,0,0,0,0,0,0,0,-1,1301,848,0,0
84,176,0,0,0,0,0,0,0,0,0,-1,1308,848,0,0
91,176,0,0,0,0,0,0,0,0,0,-1,1315,848,0,0
98,176,0,0,0,0,0,0,0,0,0,-1,1322,848,0,0
105,176,0,0,0,0,0,0,0,0,0,-1,1329,848,0,0
112,176,0,0,0,0,0,0,0,0,0,-1,1336,848,0,0
119,176,0,0,0,0,0,0,0,0,0,-1,1343,848,0,0
126,176,0,0,0,0,0,0,0,0,0,-1,1350,848,0,0
133,176,0,0,0,0,0,0,0,0,0,-1,1357,848,0,0
140,176,0,0,0,0,0,0,0,0,0,-1,1364,848,0,0
147,176,0,0,0,0,0,0,0,0,0,-1,1371,848,0,0
154,176,0,0,0,0,0,0,0,0,0,-1,1378,848,0,0
161,176,0,0,0,0,0,0,0,0,0,-1,1385,848,0,0
168,176,0,0,0,0,0,0,0,0,0,-1,1392,848,0,0
175,176,0,0,0,0,0,0,0,0,0,-1,1399,848,0,0
182,176,0,0,0,0,0,0,0,0,0,-1,1406,848,0,0
189,176,0,0,0,0,0,0,0,0,0,-1,1413,848,0,0
196,176,0,0,0,0,0,0,0,0,0,-1,1420,848,0,0
203,176,0,0,0,0,0,0,0,0,0,-1,1427,848,0,0
210,176,0,0,0,0,0,0,0,0,0,-1,1434,848,0,0
217,176,0,0,0,0,0,0,0,0,0,-1,1441,848,0,0
224,176,0,0,0,0,0,0,0,0,0,-1,1448,848,0,0
231,176,0,0,0,0,0,0,0,0,0,-1,1455,848,0,0
238,176,0,0,0,0,0,0,0,0,0,-1,1462,848,0,0
245,176,0,0,0,0,0,0,0,0,0,-1,1469,848,0,0
252,176,0,0,0,0,0,0,0,0,0,-1,1476,848,0,0
259,176,0,0,0,0,0,0,0,0,0,-1,1483,848,0,0
266,176,0,0,0,0,0,0,0,0,0,-1,1490,848,0,0
273,176,0,0,0,0,0,0,0,0,0,-1,1497,848,0,0
280,176,0,0,0,0,0,0,0,0,0,-1,1504,848,0,0
287,176,0,0,0,0,0,0,0,0,0,-1,1511,848,0,0
294,176,0,0,0,0,0,0,0,0,0,-1,1518,848,0,0
301,176,0,0,0,0,0,0,0,0,0,-1,1525,848,0,0
308,176,0,0,0,0,0,0,0,0,0,-1,1532,848,0,0
315,176,0,0,0,0,0,0,0,0,0,-1,1539,848,0,0
322,176,0,0,0,0,0,0,0,0,0,-1,1546,848,0,0
329,176,0,0,0,0,0,0,0,0,0,-1,1553,848,0,0
336,176,0,0,0,0,0,0,0,0,0,-1,1560,848,0,0
343,176,0,0,0,0,0,0,0,0,0,-1,1567,848,0,0
350,176,0,0,0,0,0,0,0,0,0,-1,1574,848,0,0
357,176,0,0,0,0,0,0,0,0,0,-1,1581,848,0,0
364,176,0,0,0,0,0,0,0,0,0,-1,1588,848,0,0
371,176,0,0,0,0,0,0,0,0,0,-1,1595,848,0,0
378,176,0,0,0,0,0,0,0,0,0,-1,1602,848,0,0
385,176,0,0,0,0,0,0,0,0,0,-1,1609,848,0,0
392,176,0,0,0,0,0,0,0,0,0,-1,1616,848,0,0
399,176,0,0,0,0,0,0,0,0,0,-1,1623,848,0,0
406,176,0,0,0,0,0,0,0,0,0,-1,1630,848,0,0
413,176,0,0,0,0,0,0,0,0,0,-1,1637,848,0,0
420,176,0,0,0,0,0,0,0,0,0,-1,1644,848,0,0
427,176,0,0,0,0,0,0,0,0,0,-1,1651,848,0,0
434,176,0,0,0,0,0,0,0,0,0,-1,1658,848,0,0
441,176,0,0,0,0,0,0,0,0,0,-1,1665,848,0,0
448,176,0,0,0,0,0,0,0,0,0,-1,1672,848,0,0
455,176,0,0,0,0,0,0,0,0,0,-1,1679,848,0,0
462,176,0,0,0,0,0,0,0,0,0,-1,1686,848,0,0
469,176,0,0,0,0,0,0,0,0,0,-1,1693,848,0,0
476,176,0,0,0,0,0,0,0,0,0,-1,1700,848,0,0
483,176,0,0,0,0,0,0,0,0,0,-1,1707,848,0,0
490,176,0,0,0,0,0,0,0,0,0,-1,1714,848,0,0
497,176,0,0,0,0,0,0,0,0,0,-1,1721,848,0,0
504,176,0,0,0,0,0,0,0,0,0,-1,1728,848,0,0
511,176,0,0,0,0,0,0,0,0,0,-1,1735,848,0,0
518,176,0,0,0,0,0,0,0,0,0,-1,1742,848,0,0
525,176,0,0,0,0,0,0,0,0,0,-1,1749,848,0,0
532,176,0,0,0,0,0,0,0,0,0,-1,1756,848,0,0
539,176,0,0,0,0,0,0,0,0,0,-1,1763,848,0,0
546,176,0,0,0,0,0,0,0,0,0,-1,1770,848,0,0
553,176,0,0,0,0,0,0,0,0,0,-1,1777,848,0,0
560,176,0,0,0,0,0,0,0,0,0,-1,1784,848,0,0
567,176,0,0,0,0,0,0,0,0,0,-1,1791,848,0,0
574,176,0,0,0,0,0,0,0,0,0,-1,1798,848,0,0
581,176,0,0,0,0,0,0,0,0,0,-1,1805,848,0,0
588,176,0,0,0,0,0,0,0,0,0,-1,1812,848,0,0
595,176,0,0,0,0,0,0,0,0,0,-1,1819,848,0,0
602,176,0,0,0,0,0,0,0,0,0,-1,1826,848,0,0
609,176,23.7952,2.82001,0.00872292,0.00460083,0.00450529,0.0116162,0.00170753,0.570873,0.00724238,0.0390067,1833,848,23.7951,-2.81998
616,176,23.8512,2.74597,0.00575977,0.00388502,0.00292169,0.00789077,0.00175402,0.630169,0.00478425,0.0406451,1840,848,23.8512,-2.74598
623,176,24.0496,2.72961,0.00292327,0.00294918,0.00145968,0.00439596,0.00147649,0.789834,0.00258318,0.0436517,1847,848,24.0496,-2.7296
630,176,23.9851,2.8277,0.000630241,0.00206252,0.000277916,0.00211455,0.000578205,1.3857,0.00126192,0.0397059,1854,848,23.9851,-2.82772
637,176,23.8639,2.85443,-0.00094579,0.00115755,-0.000557086,0.00129599,-0.00108423,-1.32723,0.00137603,0.0315892,1861,848,23.8639,-2.85442
644,176,23.7935,2.76843,-0.00182983,0.000417341,-0.00103193,0.000819314,-0.0022318,-1.19934,0.0018234,0.0300746,1868,848,23.7934,-2.76846
651,176,23.8438,2.70575,-0.00222153,-0.000169866,-0.00127926,0.000444067,-0.00283547,-1.12335,0.00205439,0.0313013,1875,848,23.8438,-2.70574
658,176,23.8921,2.7168,-0.00231967,-0.000576439,-0.0014351,0.000230998,-0.00312711,-1.0583,0.00216585,0.0367712,1882,848,23.8921,-2.71682
665,176,23.9408,2.73444,0,0,0,0,0,0,0,-1,1889,848,23.9408,-2.73444
672,176,16.9304,2.80719,0,0,0,0,0,0,0,-1,1896,848,16.9305,-2.80719
679,176,19.7603,2.2821,0,0,0,0,0,0,0,-1,1903,848,19.7602,-2.28209
686,176,19.6552,2.48877,-0.00186445,-0.00140613,-0.0013702,-0.000246065,-0.00302452,-0.868253,0.00193953,0.026499,1910,848,19.6551,-2.48877
693,176,19.5842,2.698,-0.00148309,-0.00125612,-0.0012485,-0.000115955,-0.00262326,-0.830723,0.0017115,0.0132404,1917,848,19.5843,-2.69799
700,176,19.542,2.91028,-0.000813757,-0.00110671,-0.00108823,0.000137808,-0.00205828,-0.7185,0.00142035,0.0148906,1924,848,19.542,-2.91027
707,176,19.5352,3.14459,0.000189401,-0.000801585,-0.000734107,0.000579587,-0.00119177,-0.488537,0.00104285,0.012977,1931,848,19.5351,-3.14459
714,176,19.526,3.34961,0.001252,-0.000216204,-0.000463938,0.00138631,-0.000350516,-0.281801,0.00106054,0.0113717,1938,848,19.526,-3.34964
721,176,19.5278,3.56116,0.00376072,0.000547244,-0.000101812,0.00376394,0.000544021,-0.0316404,0.00234905,0.0111283,1945,848,19.5278,-3.56113
728,176,19.5121,3.79358,0.00771113,0.00326774,-8.63009e-05,0.00771281,0.00326606,-0.0194125,0.00447035,0.0136834,1952,848,19.5121,-3.79356
735,176,19.5037,4.01123,0.012554,0.00548719,0.000601884,0.0126049,0.00543629,0.0843608,0.00730031,0.0138138,1959,848,19.5036,-4.01121
742,176,19.5298,4.22723,0.0187232,0.00857607,0.00137293,0.0189057,0.00839359,0.132137,0.010938,0.0172665,1966,848,19.5298,-4.22724
749,176,19.4904,4.46832,0.0267454,0.0131158,0.00231874,0.0271291,0.0127321,0.163981,0.0156728,0.0271553,1973,848,19.4903,-4.46835
756,176,19.8588,5.07825,0.0371107,0.0194153,0.00365195,0.0378347,0.0186912,0.195728,0.0218444,0.0427899,1980,848,19.8588,-5.07825
763,176,20.2329,5.64252,0.05005,0.0279082,0.00557656,0.0513752,0.026583,0.233307,0.0296675,0.0482983,1987,848,20.2329,-5.64249
770,176,21.1997,6.151,0,0,0,0,0,0,0,-1,1994,848,21.1998,-6.15098
777,176,21.6489,6.7254,0,0,0,0,0,0,0,-1,2001,848,21.649,-6.72542
784,176,0,0,0,0,0,0,0,0,0,-1,2008,848,0,0
791,176,0,0,0,0,0,0,0,0,0,-1,2015,848,0,0
798,176,0,0,0,0,0,0,0,0,0,-1,2022,848,0,0
805,176,0,0,0,0,0,0,0,0,0,-1,2029,848,0,0
812,176,0,0,0,0,0,0,0,0,0,-1,2036,848,0,0
-700,169,0,0,0,0,0,0,0,0,0,-1,524,855,0,0
-693,169,0,0,0,0,0,0,0,0,0,-1,531,855,0,0
-686,169,0,0,0,0,0,0,0,0,0,-1,538,855,0,0
-679,169,0,0,0,0,0,0,0,0,0,-1,545,855,0,0
-672,169,0,0,0,0,0,0,0,0,0,-1,552,855,0,0
-665,169,-12.3341,-1.47473,0.0214694,-0.0708236,0.0137025,0.0234608,-0.072815,0.144321,0.0579683,0.0458896,559,855,-12.3341,1.47472
-658,169,-12.3385,-1.55798,0.0227352,-0.0577704,0.00984168,0.0239209,-0.058956,0.119896,0.0492535,0.0484124,566,855,-12.3385,1.558
-651,169,-13.2645,-1.92578,0,0,0,0,0,0,0,-1,573,855,-13.2646,1.92577
-644,169,-13.572,-1.89355,0,0,0,0,0,0,0,-1,580,855,-13.572,1.89354
-637,169,-12.3372,2.46906,0,0,0,0,0,0,0,-1,587,855,-12.3372,-2.46903
-630,169,-13.5543,1.65631,0,0,0,0,0,0,0,-1,594,855,-13.5543,-1.65633
-623,169,-13.1729,1.80994,0,0,0,0,0,0,0,-1,601,855,-13.1728,-1.80992
-616,169,-13.0947,1.9494,0.00786461,-0.00722284,0.000292311,0.00787027,-0.0072285,0.0193648,0.00871991,0.022013,608,855,-13.0947,-1.94938
-609,169,-13.0777,1.79968,0.00555402,-0.00335985,-0.000511746,0.0055833,-0.00338913,-0.0571597,0.00523161,0.0137772,615,855,-13.0777,-1.79966
-602,169,-13.0905,1.58246,0.0031608,-0.00113337,-0.000483426,0.00321455,-0.00118712,-0.110731,0.00262963,0.0133553,622,855,-13.0905,-1.58244
-595,169,-13.1003,1.37878,0.0012528,0.000340796,9.68607e-05,0.00126297,0.000330623,0.104651,0.00075626,0.0115932,629,855,-13.1003,-1.37876
-588,169,-13.0859,1.18335,-0.000300034,0.00057526,0.00120837,0.0014228,-0.00114757,0.95914,0.00148684,0.00986856,636,855,-13.0859,-1.18335
-581,169,-13.0969,0.991943,-0.00106004,-0.000817866,0.00185771,0.000922702,-0.00280061,0.817942,0.00223894,0.0103918,643,855,-13.0969,-0.991969
-574,169,-13.1713,0.800354,-0.00164494,-0.00194683,0.00198198,0.000191836,-0.0037836,0.747391,0.00258872,0.0134562,650,855,-13.1713,-0.80035
-567,169,-13.0878,0.659851,-0.00196474,-0.00205191,0.00219827,0.000190373,-0.00420702,0.775487,0.00287024,0.0239593,657,855,-13.0878,-0.659874
-560,169,-13.1534,0.458801,-0.00206618,-0.00233979,0.00251269,0.000313424,-0.0047194,0.758202,0.00325577,0.0240604,664,855,-13.1535,-0.458822
-553,169,-13.0526,0.13092,-0.00209841,-0.00223777,0.00272628,0.000559086,-0.00489526,0.772621,0.00346494,0.0337229,671,855,-13.0526,-0.130914
-546,169,-12.7336,-0.257324,0,0,0,0,0,0,0,-1,678,855,-12.7336,0.257332
-539,169,-16.4434,0.904175,0,0,0,0,0,0,0,-1,685,855,-16.4434,-0.904183
-532,169,-16.3928,0.931152,-0.00206508,-0.00173938,0.00236312,0.000466497,-0.00427095,0.8198,0.00301486,0.0372266,692,855,-16.3928,-0.931126
-525,169,-16.3944,0.904724,-0.00192392,-0.00140177,0.00209362,0.000446985,-0.00377268,0.847428,0.00267658,0.0469178,699,855,-16.3944,-0.904703
-518,169,-16.5562,1.01526,-0.00173847,-0.00100737,0.00167288,0.000339438,-0.00308528,0.892964,0.00217883,0.0440367,706,855,-16.5562,-1.01523
-511,169,-16.4713,0.951843,-0.00128501,-0.000675336,0.000950525,1.80377e-05,-0.00197838,0.940568,0.00132497,0.0422394,713,855,-16.4713,-0.951872
-504,169,-16.5811,0.995056,-0.000645694,-0.000645403,-0.000293952,-0.000351596,-0.000939501,-0.785646,0.000548111,0.041141,720,855,-16.581,-0.995052
-497,169,-16.6394,0.934082,0,0,0,0,0,0,0,-1,727,855,-16.6394,-0.934092
-490,169,0,0,0,0,0,0,0,0,0,-1,734,855,0,0
-483,169,0,0,0,0,0,0,0,0,0,-1,741,855,0,0
-476,169,0,0,0,0,0,0,0,0,0,-1,748,855,0,0
-469,169,0,0,0,0,0,0,0,0,0,-1,755,855,0,0
-462,169,0,0,0,0,0,0,0,0,0,-1,762,855,0,0
-455,169,0,0,0,0,0,0,0,0,0,-1,769,855,0,0
-448,169,0,0,0,0,0,0,0,0,0,-1,776,855,0,0
-441,169,0,0,0,0,0,0,0,0,0,-1,783,855,0,0
-434,169,0,0,0,0,0,0,0,0,0,-1,790,855,0,0
-427,169,0,0,0,0,0,0,0,0,0,-1,797,855,0,0
-420,169,0,0,0,0,0,0,0,0,0,-1,804,855,0,0
-413,169,0,0,0,0,0,0,0,0,0,-1,811,855,0,0
-406,169,0,0,0,0,0,0,0,0,0,-1,818,855,0,0
-399,169,0,0,0,0,0,0,0,0,0,-1,825,855,0,0
-392,169,0,0,0,0,0,0,0,0,0,-1,832,855,0,0
-385,169,0,0,0,0,0,0,0,0,0,-1,839,855,0,0
-378,169,0,0,0,0,0,0,0,0,0,-1,846,855,0,0
-371,169,0,0,0,0,0,0,0,0,0,-1,853,855,0,0
-364,169,0,0,0,0,0,0,0,0,0,-1,860,855,0,0
-357,169,0,0,0,0,0,0,0,0,0,-1,867,855,0,0
-350,169,0,0,0,0,0,0,0,0,0,-1,874,855,0,0
-343,169,0,0,0,0,0,0,0,0,0,-1,881,855,0,0
-336,169,0,0,0,0,0,0,0,0,0,-1,888,855,0,0
-329,169,0,0,0,0,0,0,0,0,0,-1,895,855,0,0
-322,169,0,0,0,0,0,0,0,0,0,-1,902,855,0,0
-315,169,0,0,0,0,0,0,0,0,0,-1,909,855,0,0
-308,169,0,0,0,0,0,0,0,0,0,-1,916,855,0,0
-301,169,0,0,0,0,0,0,0,0,0,-1,923,855,0,0
-294,169,0,0,0,0,0,0,0,0,0,-1,930,855,0,0
-287,169,0,0,0,0,0,0,0,0,0,-1,937,855,0,0
-280,169,0,0,0,0,0,0,0,0,0,-1,944,855,0,0
-273,169,0,0,0,0,0,0,0,0,0,-1,951,855,0,0
-266,169,0,0,0,0,0,0,0,0,0,-1,958,855,0,0
-259,169,0,0,0,0,0,0,0,0,0,-1,965,855,0,0
-252,169,0,0,0,0,0,0,0,0,0,-1,972,855,0,0
-245,169,0,0,0,0,0,0,0,0,0,-1,979,855,0,0
-238,169,0,0,0,0,0,0,0,0,0,-1,986,855,0,0
-231,169,0,0,0,0,0,0,0,0,0,-1,993,855,0,0
-224,169,0,0,0,0,0,0,0,0,0,-1,1000,855,0,0
-217,169,0,0,0,0,0,0,0,0,0,-1,1007,855,0,0
-210,169,0,0,0,0,0,0,0,0,0,-1,1014,855,0,0
-203,169,0,0,0,0,0,0,0,0,0,-1,1021,855,0,0
-196,169,0,0,0,0,0,0,0,0,0,-1,1028,855,0,0
-189,169,0,0,0,0,0,0,0,0,0,-1,1035,855,0,0
-182,169,0,0,0,0,0,0,0,0,0,-1,1042,855,0,0
-175,169,0,0,0,0,0,0,0,0,0,-1,1049,855,0,0
-168,169,0,0,0,0,0,0,0,0,0,-1,1056,855,0,0
-161,169,0,0,0,0,0,0,0,0,0,-1,1063,855,0,0
-154,169,0,0,0,0,0,0,0,0,0,-1,1070,855,0,0
-147,169,0,0,0,0,0,0,0,0,0,-1,1077,855,0,0
-140,169,0,0,0,0,0,0,0,0,0,-1,1084,855,0,0
-133,169,0,0,0,0,0,0,0,0,0,-1,1091,855,0,0
-126,169,0,0,0,0,0,0,0,0,0,-1,1098,855,0,0
-119,169,0,0,0,0,0,0,0,0,0,-1,1105,855,0,0
-112,169,0,0,0,0,0,0,0,0,0,-1,1112,855,0,0
-105,169,0,0,0,0,0,0,0,0,0,-1,1119,855,0,0
-98,169,0,0,0,0,0,0,0,0,0,-1,1126,855,0,0
-91,169,0,0,0,0,0,0,0,0,0,-1,1133,855,0,0
-84,169,0,0,0,0,0,0,0,0,0,-1,1140,855,0,0
-77,169,0,0,0,0,0,0,0,0,0,-1,1147,855,0,0
-70,169,0,0,0,0,0,0,0,0,0,-1,1154,855,0,0
-63,169,0,0,0,0,0,0,0,0,0,-1,1161,855,0,0
-56,169,0,0,0,0,0,0,0,0,0,-1,1168,855,0,0
-49,169,0,0,0,0,0,0,0,0,0,-1,1175,855,0,0
-42,169,0,0,0,0,0,0,0,0,0,-1,1182,855,0,0
-35,169,0,0,0,0,0,0,0,0,0,-1,1189,855,0,0
-28,169,0,0,0,0,0,0,0,0,0,-1,1196,855,0,0
-21,169,0,0,0,0,0,0,0,0,0,-1,1203,855,0,0
-14,169,0,0,0,0,0,0,0,0,0,-1,1210,855,0,0
-7,169,0,0,0,0,0,0,0,0,0,-1,1217,855,0,0
0,169,0,0,0,0,0,0,0,0,0,-1,1224,855,0,0
7,169,0,0,0,0,0,0,0,0,0,-1,1231,855,0,0
14,169,0,0,0,0,0,0,0,0,0,-1,1238,855,0,0
21,169,0,0,0,0,0,0,0,0,0,-1,1245,855,0,0
28,169,0,0,0,0,0,0,0,0,0,-1,1252,855,0,0
35,169,0,0,0,0,0,0,0,0,0,-1,1259,855,0,0
42,169,0,0,0,0,0,0,0,0,0,-1,1266,855,0,0
49,169,0,0,0,0,0,0,0,0,0,-1,1273,855,0,0
56,169,0,0,0,0,0,0,0,0,0,-1,1280,855,0,0
63,169,0,0,0,0,0,0,0,0,0,-1,1287,855,0,0
70,169,0,0,0,0,0,0,0,0,0,-1,1294,855,0,0
77,169,0,0,0,0,0,0,0,0,0,-1,1301,855,0,0
84,169,0,0,0,0,0,0,0,0,0,-1,1308,855,0,0
91,169,0,0,0,0,0,0,0,0,0,-1,1315,855,0,0
98,169,0,0,0,0,0,0,0,0,0,-1,1322,855,0,0
105,169,0,0,0,0,0,0,0,0,0,-1,1329,855,0,0
112,169,0,0,0,0,0,0,0,0,0,-1,1336,855,0,0
119,169,0,0,0,0,0,0,0,0,0,-1,1343,855,0,0
126,169,0,0,0,0,0,0,0,0,0,-1,1350,855,0,0
133,169,0,0,0,0,0,0,0,0,0,-1,1357,855,0,0
140,169,0,0,0,0,0,0,0,0,0,-1,1364,855,0,0
147,169,0,0,0,0,0,0,0,0,0,-1,1371,855,0,0
154,169,0,0,0,0,0,0,0,0,0,-1,1378,855,0,0
161,169,0,0,0,0,0,0,0,0,0,-1,1385,855,0,0
168,169,0,0,0,0,0,0,0,0,0,-1,1392,855,0,0
175,169,0,0,0,0,0,0,0,0,0,-1,1399,855,0,0
182,169,0,0,0,0,0,0,0,0,0,-1,1406,855,0,0
189,169,0,0,0,0,0,0,0,0,0,-1,1413,855,0,0
196,169,0,0,0,0,0,0,0,0,0,-1,1420,855,0,0
203,169,0,0,0,0,0,0,0,0,0,-1,1427,855,0,0
210,169,0,0,0,0,0,0,0,0,0,-1,1434,855,0,0
217,169,0,0,0,0,0,0,0,0,0,-1,1441,855,0,0
224,169,0,0,0,0,0,0,0,0,0,-1,1448,855,0,0
231,169,0,0,0,0,0,0,0,0,0,-1,1455,855,0,0
238,169,0,0,0,0,0,0,0,0,0,-1,1462,855,0,0
245,169,0,0,0,0,0,0,0,0,0,-1,1469,855,0,0
252,169,0,0,0,0,0,0,0,0,0,-1,1476,855,0,0
259,169,0,0,0,0,0,0,0,0,0,-1,1483,855,0,0
266,169,0,0,0,0,0,0,0,0,0,-1,1490,855,0,0
273,169,0,0,0,0,0,0,0,0,0,-1,1497,855,0,0
280,169,0,0,0,0,0,0,0,0,0,-1,1504,855,0,0
287,169,0,0,0,0,0,0,0,0,0,-1,1511,855,0,0
294,169,0,0,0,0,0,0,0,0,0,-1,1518,855,0,0
301,169,0,0,0,0,0,0,0,0,0,-1,1525,855,0,0
308,169,0,0,0,0,0,0,0,0,0,-1,1532,855,0,0
315,169,0,0,0,0,0,0,0,0,0,-1,1539,855,0,0
322,169,0,0,0,0,0,0,0,0,0,-1,1546,855,0,0
329,169,0,0,0,0,0,0,0,0,0,-1,1553,855,0,0
336,169,0,0,0,0,0,0,0,0,0,-1,1560,855,0,0
343,169,0,0,0,0,0,0,0,0,0,-1,1567,855,0,0
350,169,0,0,0,0,0,0,0,0,0,-1,1574,855,0,0
357,169,0,0,0,0,0,0,0,0,0,-1,1581,855,0,0
364,169,0,0,0,0,0,0,0,0,0,-1,1588,855,0,0
371,169,0,0,0,0,0,0,0,0,0,-1,1595,855,0,0
378,169,0,0,0,0,0,0,0,0,0,-1,1602,855,0,0
385,169,0,0,0,0,0,0,0,0,0,-1,1609,855,0,0
392,169,0,0,0,0,0,0,0,0,0,-1,1616,855,0,0
399,169,0,0,0,0,0,0,0,0,0,-1,1623,855,0,0
406,169,0,0,0,0,0,0,0,0,0,-1,1630,855,0,0
413,169,0,0,0,0,0,0,0,0,0,-1,1637,855,0,0
420,169,0,0,0,0,0,0,0,0,0,-1,1644,855,0,0
427,169,0,0,0,0,0,0,0,0,0,-1,1651,855,0,0
434,169,0,0,0,0,0,0,0,0,0,-1,1658,855,0,0
441,169,0,0,0,0,0,0,0,0,0,-1,1665,855,0,0
448,169,0,0,0,0,0,0,0,0,0,-1,1672,855,0,0
455,169,0,0,0,0,0,0,0,0,0,-1,1679,855,0,0
462,169,0,0,0,0,0,0,0,0,0,-1,1686,855,0,0
469,169,0,0,0,0,0,0,0,0,0,-1,1693,855,0,0
476,169,0,0,0,0,0,0,0,0,0,-1,1700,855,0,0
483,169,0,0,0,0,0,0,0,0,0,-1,1707,855,0,0
490,169,0,0,0,0,0,0,0,0,0,-1,1714,855,0,0
497,169,0,0,0,0,0,0,0,0,0,-1,1721,855,0,0
504,169,0,0,0,0,0,0,0,0,0,-1,1728,855,0,0
511,169,0,0,0,0,0,0,0,0,0,-1,1735,855,0,0
518,169,0,0,0,0,0,0,0,0,0,-1,1742,855,0,0
525,169,0,0,0,0,0,0,0,0,0,-1,1749,855,0,0
532,169,0,0,0,0,0,0,0,0,0,-1,1756,855,0,0
539,169,0,0,0,0,0,0,0,0,0,-1,1763,855,0,0
546,169,0,0,0,0,0,0,0,0,0,-1,1770,855,0,0
553,169,0,0,0,0,0,0,0,0,0,-1,1777,855,0,0
560,169,0,0,0,0,0,0,0,0,0,-1,1784,855,0,0
567,169,0,0,0,0,0,0,0,0,0,-1,1791,855,0,0
574,169,0,0,0,0,0,0,0,0,0,-1,1798,855,0,0
581,169,0,0,0,0,0,0,0,0,0,-1,1805,855,0,0
588,169,0,0,0,0,0,0,0,0,0,-1,1812,855,0,0
595,169,0,0,0,0,0,0,0,0,0,-1,1819,855,0,0
602,169,0,0,0,0,0,0,0,0,0,-1,1826,855,0,0
609,169,0,0,0,0,0,0,0,0,0,-1,1833,855,0,0
616,169,23.7797,2.62781,0.00604994,0.00325298,0.00319332,0.00813759,0.00116534,0.579009,0.00508135,0.0448176,1840,855,23.7796,-2.62781
623,169,24.1637,2.5307,0.00362402,0.00244018,0.00187625,0.00499951,0.00106469,0.6326,0.00304089,0.0461973,1847,855,24.1636,-2.5307
630,169,24.0593,2.59869,0.00171397,0.00170879,0.000813518,0.0025249,0.000897858,0.783806,0.00147788,0.0417655,1854,855,24.0593,-2.59866
637,169,23.9393,2.79169,0.000327272,0.000934345,2.06949e-05,0.000935049,0.000326567,1.53676,0.000547969,0.0363787,1861,855,23.9394,-2.79171
644,169,23.8011,2.85303,-0.00069302,0.000257822,-0.000504357,0.000475511,-0.000910709,-1.16333,0.000813375,0.0346149,1868,855,23.8012,-2.85302
651,169,23.8037,2.79846,-0.00135514,-0.000276496,-0.000837135,0.000180004,-0.00181164,-1.07156,0.00127202,0.0345502,1875,855,23.8037,-2.79849
658,169,23.8507,2.724,-0.0017142,-0.000657941,-0.00105885,-2.82063e-06,-0.00236932,-1.01673,0.00157861,0.0331246,1882,855,23.8508,-2.724
665,169,23.9548,2.70984,-0.00196384,-0.000908713,-0.00118539,-0.000138787,-0.00273376,-0.994764,0.00177805,0.0458201,1889,855,23.9549,-2.70983
672,169,24.0658,2.72632,0,0,0,0,0,0,0,-1,1896,855,24.0658,-2.72634
679,169,19.7056,2.32458,0,0,0,0,0,0,0,-1,1903,855,19.7056,-2.32461
686,169,19.7645,2.51569,-0.00224585,-0.00139361,-0.00131619,-0.000436279,-0.00320318,-0.941949,0.00200591,0.026447,1910,855,19.7645,-2.51569
693,169,19.8121,2.71832,-0.00219094,-0.00124674,-0.00128704,-0.000347946,-0.00308973,-0.961184,0.00195419,0.0132426,1917,855,19.8121,-2.7183
700,169,19.8199,2.95575,-0.00185063,-0.00108856,-0.00120496,-0.000205826,-0.00273337,-0.938535,0.00175766,0.0128007,1924,855,19.82,-2.95576
707,169,19.7942,3.15753,-0.00103294,-0.000784383,-0.000890908,-9.12533e-06,-0.00180819,-0.854698,0.00120243,0.0139787,1931,855,19.7942,-3.15753
714,169,19.7671,3.34979,3.30581e-05,-0.000221031,-0.000624405,0.000543213,-0.000731185,-0.685036,0.000738437,0.013283,1938,855,19.7671,-3.34977
721,169,19.7482,3.57605,0.0027304,0.000537684,-0.000262566,0.0027614,0.000506681,-0.117531,0.00169744,0.0149736,1945,855,19.7482,-3.57603
728,169,19.7533,3.80756,0.00702747,0.00339906,-0.000322797,0.00705596,0.00337057,-0.0880425,0.00407511,0.0122562,1952,855,19.7533,-3.80755
735,169,19.749,4.0155,0.0122855,0.00568706,0.000324509,0.0123014,0.00567114,0.049022,0.00710941,0.0174176,1959,855,19.7491,-4.01552
742,169,19.7562,4.2146,0.0188626,0.0088177,0.000978546,0.0189571,0.00872326,0.0962117,0.0109564,0.0136119,1966,855,19.7562,-4.21463
749,169,19.7241,4.44037,0.0271902,0.013326,0.00166541,0.0273875,0.0131288,0.117889,0.0158167,0.0221536,1973,855,19.7242,-4.44036
756,169,19.9867,4.92548,0.037772,0.0194657,0.00258021,0.0381287,0.0191089,0.137381,0.0220137,0.0427242,1980,855,19.9867,-4.92548
763,169,20.4436,5.32526,0.0510529,0.0275731,0.00392883,0.0516929,0.0269331,0.16147,0.0298537,0.0480849,1987,855,20.4436,-5.32524
770,169,20.7209,5.64966,0.0671654,0.0379011,0.00592064,0.0683179,0.0367486,0.192246,0.0394811,0.0472433,1994,855,20.7209,-5.64967
777,169,21.0461,5.94464,0.0859648,0.0505028,0.00892236,0.0880832,0.0483844,0.233105,0.0509372,0.0458041,2001,855,21.0462,-5.94466
784,169,21.3458,6.2901,0,0,0,0,0,0,0,-1,2008,855,21.3458,-6.29011
791,169,0,0,0,0,0,0,0,0,0,-1,2015,855,0,0
798,169,0,0,0,0,0,0,0,0,0,-1,2022,855,0,0
805,169,0,0,0,0,0,0,0,0,0,-1,2029,855,0,0
812,169,0,0,0,0,0,0,0,0,0,-1,2036,855,0,0
-700,162,0,0,0,0,0,0,0,0,0,-1,524,862,0,0
-693,162,0,0,0,0,0,0,0,0,0,-1,531,862,0,0
-686,162,0,0,0,0,0,0,0,0,0,-1,538,862,0,0
-679,162,0,0,0,0,0,0,0,0,0,-1,545,862,0,0
-672,162,0,0,0,0,0,0,0,0,0,-1,552,862,0,0
-665,162,-13.2112,-0.414368,0.0259515,-0.0618007,0.01802,0.0295078,-0.065357,0.194849,0.0560587,0.0440572,559,862,-13.2112,0.414381
-658,162,-13.351,-0.728882,0.0274123,-0.0515981,0.0147679,0.0300824,-0.0542682,0.178869,0.0493626,0.0440106,566,862,-13.351,0.72887
-651,162,-13.6566,-0.859314,0.0261934,-0.0414254,0.0115837,0.0281227,-0.0433547,0.165042,0.0415787,0.0470348,573,862,-13.6566,0.859298
-644,162,-13.924,-0.818726,0.0235992,-0.0319897,0.00873851,0.0249405,-0.033331,0.152306,0.0337592,0.0469822,580,862,-13.9239,0.818745
-637,162,-14.1918,-0.785217,0,0,0,0,0,0,0,-1,587,862,-14.1918,0.785247
-630,162,-13.525,2.26819,0.0164999,-0.0165571,0.00442351,0.0170816,-0.0171388,0.130751,0.0197571,0.0443442,594,862,-13.525,-2.2682
-623,162,-13.3868,2.13672,0.0129055,-0.0111819,0.0032356,0.0133325,-0.011609,0.131229,0.0144114,0.0331571,601,862,-13.3868,-2.13671
-616,162,-13.292,1.97992,0.0095855,-0.00694222,0.00226718,0.00989085,-0.00724758,0.13388,0.00993403,0.0189139,608,862,-13.292,-1.97992
-609,162,-13.2952,1.78711,0.00666976,-0.00322201,0.000830643,0.00673903,-0.00329128,0.0831968,0.00590393,0.0131391,615,862,-13.2952,-1.78711
-602,162,-13.3013,1.57721,0.00371455,-0.00107036,0.000392127,0.00374647,-0.00110229,0.0812285,0.00293491,0.0118593,622,862,-13.3013,-1.57723
-595,162,-13.296,1.39807,0.00137838,0.000360006,0.000594904,0.00165225,8.61333e-05,0.431439,0.00107394,0.0111417,629,862,-13.296,-1.39808
-588,162,-13.303,1.19971,-0.000341479,0.00038243,0.00143518,0.0015006,-0.00145965,0.908923,0.00170915,0.0116207,636,862,-13.3031,-1.19968
-581,162,-13.3728,0.993225,-0.00126512,-0.000930379,0.0019605,0.000869882,-0.00306538,0.827981,0.00238698,0.0136482,643,862,-13.3728,-0.993238
-574,162,-13.4644,0.797363,-0.00190466,-0.00194245,0.00210681,0.000183338,-0.00403045,0.780914,0.00275012,0.0186363,650,862,-13.4644,-0.79735
-567,162,-13.3964,0.612549,-0.00225612,-0.00208158,0.00232914,0.000161921,-0.00449962,0.804123,0.00305515,0.0286539,657,862,-13.3964,-0.612527
-560,162,-13.3609,0.2995,-0.00238072,-0.00239252,0.00262459,0.000237981,-0.00501122,0.784274,0.0034229,0.0249362,664,862,-13.3609,-0.299499
-553,162,-13.2332,0.0550537,-0.00238743,-0.00239394,0.00281088,0.000420195,-0.00520157,0.784819,0.00361593,0.0305877,671,862,-13.2332,-0.055026
-546,162,-14.6044,0.439026,0,0,0,0,0,0,0,-1,678,862,-14.6044,-0.439012
-539,162,-15.8691,0.741394,0,0,0,0,0,0,0,-1,685,862,-15.8691,-0.741371
-532,162,-16.3651,0.895386,-0.00214695,-0.00190869,0.00246209,0.000437148,-0.0044928,0.809572,0.00315104,0.038217,692,862,-16.3651,-0.895399
-525,162,-16.3726,0.88092,-0.00190829,-0.00151505,0.00215878,0.000456049,-0.00387939,0.830812,0.00275091,0.0416171,699,862,-16.3726,-0.880895
-518,162,-16.5749,0.848267,-0.00154944,-0.00104103,0.00167813,0.000402039,-0.00299251,0.860567,0.00214163,0.0416087,706,862,-16.5749,-0.848281
-511,162,-16.4365,0.898193,0,0,0,0,0,0,0,-1,713,862,-16.4365,-0.898179
-504,162,-16.3289,0.934814,0,0,0,0,0,0,0,-1,720,862,-16.3289,-0.934844
-497,162,-16.3229,1.18726,0,0,0,0,0,0,0,-1,727,862,-16.323,-1.18725
-490,162,0,0,0,0,0,0,0,0,0,-1,734,862,0,0
-483,162,0,0,0,0,0,0,0,0,0,-1,741,862,0,0
-476,162,0,0,0,0,0,0,0,0,0,-1,748,862,0,0
-469,162,0,0,0,0,0,0,0,0,0,-1,755,862,0,0
-462,162,0,0,0,0,0,0,0,0,0,-1,762,862,0,0
-455,162,0,0,0,0,0,0,0,0,0,-1,769,862,0,0
-448,162,0,0,0,0,0,0,0,0,0,-1,776,862,0,0
-441,162,0,0,0,0,0,0,0,0,0,-1,783,862,0,0
-434,162,0,0,0,0,0,0,0,0,0,-1,790,862,0,0
-427,162,0,0,0,0,0,0,0,0,0,-1,797,862,0,0
-420,162,0,0,0,0,0,0,0,0,0,-1,804,862,0,0
-413,162,0,0,0,0,0,0,0,0,0,-1,811,862,0,0
-406,162,0,0,0,0,0,0,0,0,0,-1,818,862,0,0
-399,162,0,0,0,0,0,0,0,0,0,-1,825,862,0,0
-392,162,0,0,0,0,0,0,0,0,0,-1,832,862,0,0
-385,162,0,0,0,0,0,0,0,0,0,-1,839,862,0,0
-378,162,0,0,0,0,0,0,0,0,0,-1,846,862,0,0
-371,162,0,0,0,0,0,0,0,0,0,-1,853,862,0,0
-364,162,0,0,0,0,0,0,0,0,0,-1,860,862,0,0
-357,162,0,0,0,0,0,0,0,0,0,-1,867,862,0,0
-350,162,0,0,0,0,0,0,0,0,0,-1,874,862,0,0
-343,162,0,0,0,0,0,0,0,0,0,-1,881,862,0,0
-336,162,0,0,0,0,0,0,0,0,0,-1,888,862,0,0
-329,162,0,0,0,0,0,0,0,0,0,-1,895,862,0,0
-322,162,0,0,0,0,0,0,0,0,0,-1,902,862,0,0
-315,162,0,0,0,0,0,0,0,0,0,-1,909,862,0,0
-308,162,0,0,0,0,0,0,0,0,0,-1,916,862,0,0
-301,162,0,0,0,0,0,0,0,0,0,-1,923,862,0,0
-294,162,0,0,0,0,0,0,0,0,0,-1,930,862,0,0
-287,162,0,0,0,0,0,0,0,0,0,-1,937,862,0,0
-280,162,0,0,0,0,0,0,0,0,0,-1,944,862,0,0
-273,162,0,0,0,0,0,0,0,0,0,-1,951,862,0,0
-266,162,0,0,0,0,0,0,0,0,0,-1,958,862,0,0
-259,162,0,0,0,0,0,0,0,0,0,-1,965,862,0,0
-252,162,0,0,0,0,0,0,0,0,0,-1,972,862,0,0
-245,162,0,0,0,0,0,0,0,0,0,-1,979,862,0,0
-238,162,0,0,0,0,0,0,0,0,0,-1,986,862,0,0
-231,162,0,0,0,0,0,0,0,0,0,-1,993,862,0,0
-224,162,0,0,0,0,0,0,0,0,0,-1,1000,862,0,0
-217,162,0,0,0,0,0,0,0,0,0,-1,1007,862,0,0
-210,162,0,0,0,0,0,0,0,0,0,-1,1014,862,0,0
-203,162,0,0,0,0,0,0,0,0,0,-1,1021,862,0,0
-196,162,0,0,0,0,0,0,0,0,0,-1,1028,862,0,0
-189,162,0,0,0,0,0,0,0,0,0,-1,1035,862,0,0
-182,162,0,0,0,0,0,0,0,0,0,-1,1042,862,0,0
-175,162,0,0,0,0,0,0,0,0,0,-1,1049,862,0,0
-168,162,0,0,0,0,0,0,0,0,0,-1,1056,862,0,0
-161,162,0,0,0,0,0,0,0,0,0,-1,1063,862,0,0
-154,162,0,0,0,0,0,0,0,0,0,-1,1070,862,0,0
-147,162,0,0,0,0,0,0,0,0,0,-1,1077,862,0,0
-140,162,0,0,0,0,0,0,0,0,0,-1,1084,862,0,0
-133,162,0,0,0,0,0,0,0,0,0,-1,1091,862,0,0
-126,162,0,0,0,0,0,0,0,0,0,-1,1098,862,0,0
-119,162,0,0,0,0,0,0,0,0,0,-1,1105,862,0,0
-112,162,0,0,0,0,0,0,0,0,0,-1,1112,862,0,0
-105,162,0,0,0,0,0,0,0,0,0,-1,1119,862,0,0
-98,162,0,0,0,0,0,0,0,0,0,-1,1126,862,0,0
-91,162,0,0,0,0,0,0,0,0,0,-1,1133,862,0,0
-84,162,0,0,0,0,0,0,0,0,0,-1,1140,862,0,0
-77,162,0,0,0,0,0,0,0,0,0,-1,1147,862,0,0
-70,162,0,0,0,0,0,0,0,0,0,-1,1154,862,0,0
-63,162,0,0,0,0,0,0,0,0,0,-1,1161,862,0,0
-56,162,0,0,0,0,0,0,0,0,0,-1,1168,862,0,0
-49,162,0,0,0,0,0,0,0,0,0,-1,1175,862,0,0
-42,162,0,0,0,0,0,0,0,0,0,-1,1182,862,0,0
-35,162,0,0,0,0,0,0,0,0,0,-1,1189,862,0,0
-28,162,0,0,0,0,0,0,0,0,0,-1,1196,862,0,0
-21,162,0,0,0,0,0,0,0,0,0,-1,1203,862,0,0
-14,162,0,0,0,0,0,0,0,0,0,-1,1210,862,0,0
-7,162,0,0,0,0,0,0,0,0,0,-1,1217,862,0,0
0,162,0,0,0,0,0,0,0,0,0,-1,1224,862,0,0
7,162,0,0,0,0,0,0,0,0,0,-1,1231,862,0,0
14,162,0,0,0,0,0,0,0,0,0,-1,1238,862,0,0
21,162,0,0,0,0,0,0,0,0,0,-1,1245,862,0,0
28,162,0,0,0,0,0,0,0,0,0,-1,1252,862,0,0
35,162,0,0,0,0,0,0,0,0,0,-1,1259,862,0,0
42,162,0,0,0,0,0,0,0,0,0,-1,1266,862,0,0
49,162,0,0,0,0,0,0,0,0,0,-1,1273,862,0,0
56,162,0,0,0,0,0,0,0,0,0,-1,1280,862,0,0
63,162,0,0,0,0,0,0,0,0,0,-1,1287,862,0,0
70,162,0,0,0,0,0,0,0,0,0,-1,1294,862,0,0
77,162,0,0,0,0,0,0,0,0,0,-1,1301,862,0,0
84,162,0,0,0,0,0,0,0,0,0,-1,1308,862,0,0
91,162,0,0,0,0,0,0,0,0,0,-1,1315,862,0,0
98,162,0,0,0,0,0,0,0,0,0,-1,1322,862,0,0
105,162,0,0,0,0,0,0,0,0,0,-1,1329,862,0,0
112,162,0,0,0,0,0,0,0,0,0,-1,1336,862,0,0
119,162,0,0,0,0,0,0,0,0,0,-1,1343,862,0,0
126,162,0,0,0,0,0,0,0,0,0,-1,1350,862,0,0
133,162,0,0,0,0,0,0,0,0,0,-1,1357,862,0,0
140,162,0,0,0,0,0,0,0,0,0,-1,1364,862,0,0
147,162,0,0,0,0,0,0,0,0,0,-1,1371,862,0,0
154,162,0,0,0,0,0,0,0,0,0,-1,1378,862,0,0
161,162,0,0,0,0,0,0,0,0,0,-1,1385,862,0,0
168,162,0,0,0,0,0,0,0,0,0,-1,1392,862,0,0
175,162,0,0,0,0,0,0,0,0,0,-1,1399,862,0,0
182,162,0,0,0,0,0,0,0,0,0,-1,1406,862,0,0
189,162,0,0,0,0,0,0,0,0,0,-1,1413,862,0,0
196,162,0,0,0,0,0,0,0,0,0,-1,1420,862,0,0
203,162,0,0,0,0,0,0,0,0,0,-1,1427,862,0,0
210,162,0,0,0,0,0,0,0,0,0,-1,1434,862,0,0
217,162,0,0,0,0,0,0,0,0,0,-1,1441,862,0,0
224,162,0,0,0,0,0,0,0,0,0,-1,1448,862,0,0
231,162,0,0,0,0,0,0,0,0,0,-1,1455,862,0,0
238,162,0,0,0,0,0,0,0,0,0,-1,1462,862,0,0
245,162,0,0,0,0,0,0,0,0,0,-1,1469,862,0,0
252,162,0,0,0,0,0,0,0,0,0,-1,1476,862,0,0
259,162,0,0,0,0,0,0,0,0,0,-1,1483,862,0,0
266,162,0,0,0,0,0,0,0,0,0,-1,1490,862,0,0
273,162,0,0,0,0,0,0,0,0,0,-1,1497,862,0,0
280,162,0,0,0,0,0,0,0,0,0,-1,1504,862,0,0
287,162,0,0,0,0,0,0,0,0,0,-1,1511,862,0,0
294,162,0,0,0,0,0,0,0,0,0,-1,1518,862,0,0
301,162,0,0,0,0,0,0,0,0,0,-1,1525,862,0,0
308,162,0,0,0,0,0,0,0,0,0,-1,1532,862,0,0
315,162,0,0,0,0,0,0,0,0,0,-1,1539,862,0,0
322,162,0,0,0,0,0,0,0,0,0,-1,1546,862,0,0
329,162,0,0,0,0,0,0,0,0,0,-1,1553,862,0,0
336,162,0,0,0,0,0,0,0,0,0,-1,1560,862,0,0
343,162,0,0,0,0,0,0,0,0,0,-1,1567,862,0,0
350,162,0,0,0,0,0,0,0,0,0,-1,1574,862,0,0
357,162,0,0,0,0,0,0,0,0,0,-1,1581,862,0,0
364,162,0,0,0,0,0,0,0,0,0,-1,1588,862,0,0
371,162,0,0,0,0,0,0,0,0,0,-1,1595,862,0,0
378,162,0,0,0,0,0,0,0,0,0,-1,1602,862,0,0
385,162,0,0,0,0,0,0,0,0,0,-1,1609,862,0,0
392,162,0,0,0,0,0,0,0,0,0,-1,1616,862,0,0
399,162,0,0,0,0,0,0,0,0,0,-1,1623,862,0,0
406,162,0,0,0,0,0,0,0,0,0,-1,1630,862,0,0
413,162,0,0,0,0,0,0,0,0,0,-1,1637,862,0,0
420,162,0,0,0,0,0,0,0,0,0,-1,1644,862,0,0
427,162,0,0,0,0,0,0,0,0,0,-1,1651,862,0,0
434,162,0,0,0,0,0,0,0,0,0,-1,1658,862,0,0
441,162,0,0,0,0,0,0,0,0,0,-1,1665,862,0,0
448,162,0,0,0,0,0,0,0,0,0,-1,1672,862,0,0
455,162,0,0,0,0,0,0,0,0,0,-1,1679,862,0,0
462,162,0,0,0,0,0,0,0,0,0,-1,1686,862,0,0
469,162,0,0,0,0,0,0,0,0,0,-1,1693,862,0,0
476,162,0,0,0,0,0,0,0,0,0,-1,1700,862,0,0
483,162,0,0,0,0,0,0,0,0,0,-1,1707,862,0,0
490,162,0,0,0,0,0,0,0,0,0,-1,1714,862,0,0
497,162,0,0,0,0,0,0,0,0,0,-1,1721,862,0,0
504,162,0,0,0,0,0,0,0,0,0,-1,1728,862,0,0
511,162,0,0,0,0,0,0,0,0,0,-1,1735,862,0,0
518,162,0,0,0,0,0,0,0,0,0,-1,1742,862,0,0
525,162,0,0,0,0,0,0,0,0,0,-1,1749,862,0,0
532,162,0,0,0,0,0,0,0,0,0,-1,1756,862,0,0
539,162,0,0,0,0,0,0,0,0,0,-1,1763,862,0,0
546,162,0,0,0,0,0,0,0,0,0,-1,1770,862,0,0
553,162,0,0,0,0,0,0,0,0,0,-1,1777,862,0,0
560,162,0,0,0,0,0,0,0,0,0,-1,1784,862,0,0
567,162,0,0,0,0,0,0,0,0,0,-1,1791,862,0,0
574,162,0,0,0,0,0,0,0,0,0,-1,1798,862,0,0
581,162,0,0,0,0,0,0,0,0,0,-1,1805,862,0,0
588,162,0,0,0,0,0,0,0,0,0,-1,1812,862,0,0
595,162,0,0,0,0,0,0,0,0,0,-1,1819,862,0,0
602,162,0,0,0,0,0,0,0,0,0,-1,1826,862,0,0
609,162,0,0,0,0,0,0,0,0,0,-1,1833,862,0,0
616,162,23.9187,2.68756,0.0056325,0.00260869,0.00378173,0.00819336,4.78351e-05,0.595235,0.00544636,0.0458413,1840,862,23.9187,-2.68754
623,162,23.9662,2.65424,0.00362531,0.00180342,0.00232733,0.00521362,0.000215105,0.598857,0.00340631,0.0443911,1847,862,23.9661,-2.65424
630,162,23.8763,2.6745,0.00217161,0.00112615,0.00114917,0.00291135,0.000386406,0.571947,0.00182578,0.0406331,1854,862,23.8764,-2.67448
637,162,23.8384,2.72089,0.00107368,0.00045775,0.000242248,0.00115754,0.00037389,0.333261,0.000682121,0.0386126,1861,862,23.8383,-2.72088
644,162,23.8074,2.7356,9.3638e-05,-0.000143071,-0.000392929,0.000385651,-0.000435083,-0.639115,0.000474137,0.036194,1868,862,23.8074,-2.73562
651,162,23.8086,2.7594,-0.000812163,-0.000595827,-0.000838134,0.00014109,-0.00154908,-0.849573,0.00108282,0.0335322,1875,862,23.8086,-2.75943
658,162,23.868,2.72198,-0.00144433,-0.00090672,-0.00111705,-2.65839e-05,-0.00232446,-0.903472,0.00154086,0.0328548,1882,862,23.868,-2.72198
665,162,23.8848,2.68951,-0.00192685,-0.00109501,-0.00127445,-0.000170332,-0.00285153,-0.943125,0.00184686,0.040059,1889,862,23.8848,-2.68948
672,162,23.9753,2.58752,0,0,0,0,0,0,0,-1,1896,862,23.9754,-2.58754
679,162,20.0204,2.52856,0,0,0,0,0,0,0,-1,1903,862,20.0204,-2.52858
686,162,19.988,2.5907,-0.00283862,-0.00136528,-0.00150196,-0.000429063,-0.00377484,-1.0134,0.00238643,0.0361257,1910,862,19.9881,-2.59068
693,162,19.9867,2.7345,-0.00305684,-0.00115316,-0.00148057,-0.00034487,-0.00386514,-1.07108,0.00246984,0.0177686,1917,862,19.9867,-2.73452
700,162,20.0369,2.95349,-0.0030123,-0.000964693,-0.00138252,-0.000268162,-0.00370883,-1.1041,0.00238819,0.0167046,1924,862,20.0369,-2.95348
707,162,20.0365,3.14331,-0.00237337,-0.00065598,-0.00108331,-0.000132318,-0.00289703,-1.12052,0.00188879,0.0121264,1931,862,20.0365,-3.14333
714,162,20.0028,3.34198,-0.00130908,-0.00011062,-0.000802461,0.000291659,-0.00171136,-1.1061,0.00124952,0.0156379,1938,862,20.0028,-3.34198
721,162,19.9374,3.62067,0.00148844,0.000588046,-0.000478451,0.0016952,0.000381285,-0.407907,0.00102691,0.027493,1945,862,19.9374,-3.62068
728,162,19.9431,3.83551,0.00595868,0.00345308,-0.000631896,0.00610902,0.00330274,-0.233576,0.00353092,0.0215313,1952,862,19.9431,-3.8355
735,162,19.9779,4.00574,0.0114971,0.00569948,-6.30234e-05,0.0114978,0.00569879,-0.0108688,0.00663836,0.0109424,1959,862,19.9779,-4.00575
742,162,19.958,4.20837,0.018367,0.00873582,0.000450792,0.0183881,0.00871477,0.0466695,0.0106212,0.0118001,1966,862,19.958,-4.20837
749,162,19.9148,4.42041,0.0269053,0.013025,0.000893836,0.0269626,0.0129677,0.0640434,0.0155707,0.0165404,1973,862,19.9148,-4.42044
756,162,19.9158,4.6319,0.0375005,0.0187482,0.00142557,0.0376082,0.0186404,0.0754432,0.0217134,0.0376872,1980,862,19.9158,-4.63191
763,162,20.2627,4.79315,0.0507523,0.0261708,0.00224282,0.0509553,0.0259678,0.0902471,0.0294208,0.0458071,1987,862,20.2627,-4.79314
770,162,20.2598,5.09277,0.0670331,0.0354226,0.00353178,0.0674229,0.0350328,0.109922,0.0389366,0.0435631,1994,862,20.2597,-5.0928
777,162,20.4979,5.55908,0.0862651,0.0464206,0.0055868,0.0870337,0.0456521,0.136704,0.0502691,0.0452754,2001,862,20.498,-5.55909
784,162,20.4827,5.94446,0,0,0,0,0,0,0,-1,2008,862,20.4827,-5.94444
791,162,0,0,0,0,0,0,0,0,0,-1,2015,862,0,0
798,162,0,0,0,0,0,0,0,0,0,-1,2022,862,0,0
805,162,0,0,0,0,0,0,0,0,0,-1,2029,862,0,0
812,162,0,0,0,0,0,0,0,0,0,-1,2036,862,0,0
-700,155,0,0,0,0,0,0,0,0,0,-1,524,869,0,0
-693,155,0,0,0,0,0,0,0,0,0,-1,531,869,0,0
-686,155,0,0,0,0,0,0,0,0,0,-1,538,869,0,0
-679,155,0,0,0,0,0,0,0,0,0,-1,545,869,0,0
-672,155,0,0,0,0,0,0,0,0,0,-1,552,869,0,0
-665,155,-14.6347,2.20807,0,0,0,0,0,0,0,-1,559,869,-14.6347,-2.20805
-658,155,-14.9916,1.83606,0,0,0,0,0,0,0,-1,566,869,-14.9916,-1.83605
-651,155,-14.0015,0.229065,0.0306242,-0.0378644,0.016025,0.0341883,-0.0414285,0.218844,0.043724,0.0459222,573,869,-14.0016,-0.229044
-644,155,-14.2657,0.253296,0.0275908,-0.0296436,0.0128304,0.0303355,-0.0323882,0.210739,0.03622,0.045248,580,869,-14.2658,-0.253304
-637,155,-14.8413,0.322571,0,0,0,0,0,0,0,-1,587,869,-14.8413,-0.322561
-630,155,-13.6529,2.3526,0.0192771,-0.0157327,0.00742691,0.0207874,-0.017243,0.200629,0.0219887,0.0404046,594,869,-13.6529,-2.35262
-623,155,-13.5051,2.18475,0.0150974,-0.0108512,0.00570131,0.0162948,-0.0120486,0.207015,0.0164252,0.0239116,601,869,-13.5051,-2.18476
-616,155,-13.4805,1.98877,0.011164,-0.00687916,0.00416862,0.0120805,-0.0077957,0.216424,0.0115641,0.0140108,608,869,-13.4804,-1.98874
-609,155,-13.4902,1.78857,0.00758274,-0.00330777,0.00218894,0.00800624,-0.00373127,0.191111,0.00692486,0.0130594,615,869,-13.4902,-1.78858
-602,155,-13.5121,1.59082,0.00401215,-0.0011883,0.00131812,0.00432716,-0.00150332,0.234586,0.00349535,0.0116289,622,869,-13.5121,-1.59083
-595,155,-13.5223,1.39966,0.00119365,0.000251695,0.00113681,0.00195318,-0.000507836,0.589012,0.00150033,0.0107335,629,869,-13.5223,-1.39964
-588,155,-13.502,1.21057,-0.000686994,0.000224677,0.00171141,0.00153992,-0.00200223,0.915552,0.00205086,0.0120643,636,869,-13.502,-1.21054
-581,155,-13.6057,1.04333,-0.00177236,-0.000945263,0.00211203,0.000793324,-0.00351095,0.882078,0.00264503,0.0181332,643,869,-13.6056,-1.04335
-574,155,-13.6617,0.888611,-0.00247461,-0.00184202,0.0022677,0.00013134,-0.00444796,0.85469,0.00301004,0.0233799,650,869,-13.6617,-0.8886
-567,155,-13.6054,0.578918,-0.00283835,-0.00201017,0.00248837,9.83307e-05,-0.00494685,0.867848,0.00333116,0.0238581,657,869,-13.6054,-0.578907
-560,155,-13.5804,0.284729,-0.00295308,-0.00236305,0.00277292,0.000130505,-0.00544663,0.838395,0.00367536,0.0223959,664,869,-13.5804,-0.28473
-553,155,-13.5323,0.274109,-0.00291497,-0.00246584,0.00292895,0.00024714,-0.00562795,0.823659,0.003837,0.0493758,671,869,-13.5324,-0.274133
-546,155,-13.5535,0.337891,0,0,0,0,0,0,0,-1,678,869,-13.5535,-0.337893
-539,155,-16.454,0.722351,-0.00271128,-0.002406,0.00280461,0.000250116,-0.0053674,0.812584,0.00366449,0.0460687,685,869,-16.454,-0.722369
-532,155,-16.3435,0.940735,-0.0023596,-0.0021187,0.00257277,0.000336437,-0.00481474,0.808789,0.00332765,0.0368899,692,869,-16.3435,-0.940717
-525,155,-16.3089,0.968079,-0.00194996,-0.00173189,0.00221848,0.000380232,-0.00406208,0.809952,0.00284329,0.0385426,699,869,-16.3089,-0.968053
-518,155,-16.3703,0.950378,-0.00130556,-0.00123281,0.00164272,0.000373935,-0.00291231,0.796467,0.00207743,0.0410784,706,869,-16.3703,-0.950355
-511,155,-16.3228,0.994019,-0.000313823,-0.000636022,0.000672405,0.000216512,-0.00116636,0.667821,0.000858887,0.0414866,713,869,-16.3227,-0.993999
-504,155,-16.2567,0.909058,0.000492101,-0.000401196,-0.000738375,0.000908408,-0.000817503,-0.513388,0.000996916,0.0434253,720,869,-16.2567,-0.909039
-497,155,0,0,0,0,0,0,0,0,0,-1,727,869,0,0
-490,155,0,0,0,0,0,0,0,0,0,-1,734,869,0,0
-483,155,0,0,0,0,0,0,0,0,0,-1,741,869,0,0
-476,155,0,0,0,0,0,0,0,0,0,-1,748,869,0,0
-469,155,0,0,0,0,0,0,0,0,0,-1,755,869,0,0
-462,155,0,0,0,0,0,0,0,0,0,-1,762,869,0,0
-455,155,0,0,0,0,0,0,0,0,0,-1,769,869,0,0
-448,155,0,0,0,0,0,0,0,0,0,-1,776,869,0,0
-441,155,0,0,0,0,0,0,0,0,0,-1,783,869,0,0
-434,155,0,0,0,0,0,0,0,0,0,-1,790,869,0,0
-427,155,0,0,0,0,0,0,0,0,0,-1,797,869,0,0
-420,155,0,0,0,0,0,0,0,0,0,-1,804,869,0,0
-413,155,0,0,0,0,0,0,0,0,0,-1,811,869,0,0
-406,155,0,0,0,0,0,0,0,0,0,-1,818,869,0,0
-399,155,0,0,0,0,0,0,0,0,0,-1,825,869,0,0
-392,155,0,0,0,0,0,0,0,0,0,-1,832,869,0,0
-385,155,0,0,0,0,0,0,0,0,0,-1,839,869,0,0
-378,155,0,0,0,0,0,0,0,0,0,-1,846,869,0,0
-371,155,0,0,0,0,0,0,0,0,0,-1,853,869,0,0
-364,155,0,0,0,0,0,0,0,0,0,-1,860,869,0,0
-357,155,0,0,0,0,0,0,0,0,0,-1,867,869,0,0
-350,155,0,0,0,0,0,0,0,0,0,-1,874,869,0,0
-343,155,0,0,0,0,0,0,0,0,0,-1,881,869,0,0
-336,155,0,0,0,0,0,0,0,0,0,-1,888,869,0,0
-329,155,0,0,0,0,0,0,0,0,0,-1,895,869,0,0
-322,155,0,0,0,0,0,0,0,0,0,-1,902,869,0,0
-315,155,0,0,0,0,0,0,0,0,0,-1,909,869,0,0
-308,155,0,0,0,0,0,0,0,0,0,-1,916,869,0,0
-301,155,0,0,0,0,0,0,0,0,0,-1,923,869,0,0
-294,155,0,0,0,0,0,0,0,0,0,-1,930,869,0,0
-287,155,0,0,0,0,0,0,0,0,0,-1,937,869,0,0
-280,155,0,0,0,0,0,0,0,0,0,-1,944,869,0,0
-273,155,0,0,0,0,0,0,0,0,0,-1,951,869,0,0
-266,155,0,0,0,0,0,0,0,0,0,-1,958,869,0,0
-259,155,0,0,0,0,0,0,0,0,0,-1,965,869,0,0
-252,155,0,0,0,0,0,0,0,0,0,-1,972,869,0,0
-245,155,0,0,0,0,0,0,0,0,0,-1,979,869,0,0
-238,155,0,0,0,0,0,0,0,0,0,-1,986,869,0,0
-231,155,0,0,0,0,0,0,0,0,0,-1,993,869,0,0
-224,155,0,0,0,0,0,0,0,0,0,-1,1000,869,0,0
-217,155,0,0,0,0,0,0,0,0,0,-1,1007,869,0,0
-210,155,0,0,0,0,0,0,0,0,0,-1,1014,869,0,0
-203,155,0,0,0,0,0,0,0,0,0,-1,1021,869,0,0
-196,155,0,0,0,0,0,0,0,0,0,-1,1028,869,0,0
-189,155,0,0,0,0,0,0,0,0,0,-1,1035,869,0,0
-182,155,0,0,0,0,0,0,0,0,0,-1,1042,869,0,0
-175,155,0,0,0,0,0,0,0,0,0,-1,1049,869,0,0
-168,155,0,0,0,0,0,0,0,0,0,-1,1056,869,0,0
-161,155,0,0,0,0,0,0,0,0,0,-1,1063,869,0,0
-154,155,0,0,0,0,0,0,0,0,0,-1,1070,869,0,0
-147,155,0,0,0,0,0,0,0,0,0,-1,1077,869,0,0
-140,155,0,0,0,0,0,0,0,0,0,-1,1084,869,0,0
-133,155,0,0,0,0,0,0,0,0,0,-1,1091,869,0,0
-126,155,0,0,0,0,0,0,0,0,0,-1,1098,869,0,0
-119,155,0,0,0,0,0,0,0,0,0,-1,1105,869,0,0
-112,155,0,0,0,0,0,0,0,0,0,-1,1112,869,0,0
-105,155,0,0,0,0,0,0,0,0,0,-1,1119,869,0,0
-98,155,0,0,0,0,0,0,0,0,0,-1,1126,869,0,0
-91,155,0,0,0,0,0,0,0,0,0,-1,1133,869,0,0
-84,155,0,0,0,0,0,0,0,0,0,-1,1140,869,0,0
-77,155,0,0,0,0,0,0,0,0,0,-1,1147,869,0,0
-70,155,0,0,0,0,0,0,0,0,0,-1,1154,869,0,0
-63,155,0,0,0,0,0,0,0,0,0,-1,1161,869,0,0
-56,155,0,0,0,0,0,0,0,0,0,-1,1168,869,0,0
-49,155,0,0,0,0,0,0,0,0,0,-1,1175,869,0,0
-42,155,0,0,0,0,0,0,0,0,0,-1,1182,869,0,0
-35,155,0,0,0,0,0,0,0,0,0,-1,1189,869,0,0
-28,155,0,0,0,0,0,0,0,0,0,-1,1196,869,0,0
-21,155,0,0,0,0,0,0,0,0,0,-1,1203,869,0,0
-14,155,0,0,0,0,0,0,0,0,0,-1,1210,869,0,0
-7,155,0,0,0,0,0,0,0,0,0,-1,1217,869,0,0
0,155,0,0,0,0,0,0,0,0,0,-1,1224,869,0,0
7,155,0,0,0,0,0,0,0,0,0,-1,1231,869,0,0
14,155,0,0,0,0,0,0,0,0,0,-1,1238,869,0,0
21,155,0,0,0,0,0,0,0,0,0,-1,1245,869,0,0
28,155,0,0,0,0,0,0,0,0,0,-1,1252,869,0,0
35,155,0,0,0,0,0,0,0,0,0,-1,1259,869,0,0
42,155,0,0,0,0,0,0,0,0,0,-1,1266,869,0,0
49,155,0,0,0,0,0,0,0,0,0,-1,1273,869,0,0
56,155,0,0,0,0,0,0,0,0,0,-1,1280,869,0,0
63,155,0,0,0,0,0,0,0,0,0,-1,1287,869,0,0
70,155,0,0,0,0,0,0,0,0,0,-1,1294,869,0,0
77,155,0,0,0,0,0,0,0,0,0,-1,1301,869,0,0
84,155,0,0,0,0,0,0,0,0,0,-1,1308,869,0,0
91,155,0,0,0,0,0,0,0,0,0,-1,1315,869,0,0
98,155,0,0,0,0,0,0,0,0,0,-1,1322,869,0,0
105,155,0,0,0,0,0,0,0,0,0,-1,1329,869,0,0
112,155,0,0,0,0,0,0,0,0,0,-1,1336,869,0,0
119,155,0,0,0,0,0,0,0,0,0,-1,1343,869,0,0
126,155,0,0,0,0,0,0,0,0,0,-1,1350,869,0,0
133,155,0,0,0,0,0,0,0,0,0,-1,1357,869,0,0
140,155,0,0,0,0,0,0,0,0,0,-1,1364,869,0,0
147,155,0,0,0,0,0,0,0,0,0,-1,1371,869,0,0
154,155,0,0,0,0,0,0,0,0,0,-1,1378,869,0,0
161,155,0,0,0,0,0,0,0,0,0,-1,1385,869,0,0
168,155,0,0,0,0,0,0,0,0,0,-1,1392,869,0,0
175,155,0,0,0,0,0,0,0,0,0,-1,1399,869,0,0
182,155,0,0,0,0,0,0,0,0,0,-1,1406,869,0,0
189,155,0,0,0,0,0,0,0,0,0,-1,1413,869,0,0
196,155,0,0,0,0,0,0,0,0,0,-1,1420,869,0,0
203,155,0,0,0,0,0,0,0,0,0,-1,1427,869,0,0
210,155,0,0,0,0,0,0,0,0,0,-1,1434,869,0,0
217,155,0,0,0,0,0,0,0,0,0,-1,1441,869,0,0
224,155,0,0,0,0,0,0,0,0,0,-1,1448,869,0,0
231,155,0,0,0,0,0,0,0,0,0,-1,1455,869,0,0
238,155,0,0,0,0,0,0,0,0,0,-1,1462,869,0,0
245,155,0,0,0,0,0,0,0,0,0,-1,1469,869,0,0
252,155,0,0,0,0,0,0,0,0,0,-1,1476,869,0,0
259,155,0,0,0,0,0,0,0,0,0,-1,1483,869,0,0
266,155,0,0,0,0,0,0,0,0,0,-1,1490,869,0,0
273,155,0,0,0,0,0,0,0,0,0,-1,1497,869,0,0
280,155,0,0,0,0,0,0,0,0,0,-1,1504,869,0,0
287,155,0,0,0,0,0,0,0,0,0,-1,1511,869,0,0
294,155,0,0,0,0,0,0,0,0,0,-1,1518,869,0,0
301,155,0,0,0,0,0,0,0,0,0,-1,1525,869,0,0
308,155,0,0,0,0,0,0,0,0,0,-1,1532,869,0,0
315,155,0,0,0,0,0,0,0,0,0,-1,1539,869,0,0
322,155,0,0,0,0,0,0,0,0,0,-1,1546,869,0,0
329,155,0,0,0,0,0,0,0,0,0,-1,1553,869,0,0
336,155,0,0,0,0,0,0,0,0,0,-1,1560,869,0,0
343,155,0,0,0,0,0,0,0,0,0,-1,1567,869,0,0
350,155,0,0,0,0,0,0,0,0,0,-1,1574,869,0,0
357,155,0,0,0,0,0,0,0,0,0,-1,1581,869,0,0
364,155,0,0,0,0,0,0,0,0,0,-1,1588,869,0,0
371,155,0,0,0,0,0,0,0,0,0,-1,1595,869,0,0
378,155,0,0,0,0,0,0,0,0,0,-1,1602,869,0,0
385,155,0,0,0,0,0,0,0,0,0,-1,1609,869,0,0
392,155,0,0,0,0,0,0,0,0,0,-1,1616,869,0,0
399,155,0,0,0,0,0,0,0,0,0,-1,1623,869,0,0
406,155,0,0,0,0,0,0,0,0,0,-1,1630,869,0,0
413,155,0,0,0,0,0,0,0,0,0,-1,1637,869,0,0
420,155,0,0,0,0,0,0,0,0,0,-1,1644,869,0,0
427,155,0,0,0,0,0,0,0,0,0,-1,1651,869,0,0
434,155,0,0,0,0,0,0,0,0,0,-1,1658,869,0,0
441,155,0,0,0,0,0,0,0,0,0,-1,1665,869,0,0
448,155,0,0,0,0,0,0,0,0,0,-1,1672,869,0,0
455,155,0,0,0,0,0,0,0,0,0,-1,1679,869,0,0
462,155,0,0,0,0,0,0,0,0,0,-1,1686,869,0,0
469,155,0,0,0,0,0,0,0,0,0,-1,1693,869,0,0
476,155,0,0,0,0,0,0,0,0,0,-1,1700,869,0,0
483,155,0,0,0,0,0,0,0,0,0,-1,1707,869,0,0
490,155,0,0,0,0,0,0,0,0,0,-1,1714,869,0,0
497,155,0,0,0,0,0,0,0,0,0,-1,1721,869,0,0
504,155,0,0,0,0,0,0,0,0,0,-1,1728,869,0,0
511,155,0,0,0,0,0,0,0,0,0,-1,1735,869,0,0
518,155,0,0,0,0,0,0,0,0,0,-1,1742,869,0,0
525,155,0,0,0,0,0,0,0,0,0,-1,1749,869,0,0
532,155,0,0,0,0,0,0,0,0,0,-1,1756,869,0,0
539,155,0,0,0,0,0,0,0,0,0,-1,1763,869,0,0
546,155,0,0,0,0,0,0,0,0,0,-1,1770,869,0,0
553,155,0,0,0,0,0,0,0,0,0,-1,1777,869,0,0
560,155,0,0,0,0,0,0,0,0,0,-1,1784,869,0,0
567,155,0,0,0,0,0,0,0,0,0,-1,1791,869,0,0
574,155,0,0,0,0,0,0,0,0,0,-1,1798,869,0,0
581,155,0,0,0,0,0,0,0,0,0,-1,1805,869,0,0
588,155,0,0,0,0,0,0,0,0,0,-1,1812,869,0,0
595,155,0,0,0,0,0,0,0,0,0,-1,1819,869,0,0
602,155,0,0,0,0,0,0,0,0,0,-1,1826,869,0,0
609,155,0,0,0,0,0,0,0,0,0,-1,1833,869,0,0
616,155,23.7114,2.80334,0.00486225,0.00231323,0.00391673,0.00770662,-0.000531132,0.6281,0.00532363,0.0455338,1840,869,23.7114,-2.80335
623,155,23.9652,2.76001,0.00336276,0.00149956,0.00243143,0.00503495,-0.000172626,0.60245,0.00341563,0.0451518,1847,869,23.9652,-2.76002
630,155,23.8135,2.97443,0.00245377,0.000778533,0.00125507,0.00312506,0.000107245,0.491147,0.00204856,0.0433721,1854,869,23.8135,-2.97443
637,155,23.7845,2.86395,0.00175177,0.000109451,0.000332114,0.00181639,4.48328e-05,0.192166,0.00119626,0.0393909,1861,869,23.7845,-2.86397
644,155,23.798,2.70435,0.000904385,-0.000505624,-0.000356442,0.00098937,-0.000590608,-0.234054,0.000921834,0.0363301,1868,869,23.7979,-2.70436
651,155,23.8629,2.71564,-0.000170691,-0.000938859,-0.000874389,0.000400252,-0.0015098,-0.578455,0.00116314,0.0339167,1875,869,23.8629,-2.71563
658,155,23.9028,2.73199,-0.00108543,-0.00121933,-0.00120582,5.53037e-05,-0.00236006,-0.757666,0.00159213,0.0281579,1882,869,23.9028,-2.73199
665,155,23.8585,2.71271,-0.00183566,-0.00137026,-0.00139614,-0.000187562,-0.00301836,-0.867974,0.00195272,0.0323196,1889,869,23.8586,-2.71269
672,155,23.8969,2.66058,-0.00264483,-0.0014279,-0.00151034,-0.000408068,-0.00366467,-0.976885,0.00231909,0.0411184,1896,869,23.8968,-2.66061
679,155,23.9677,2.61066,0,0,0,0,0,0,0,-1,1903,869,23.9677,-2.61065
686,155,20.0566,2.46747,0,0,0,0,0,0,0,-1,1910,869,20.0566,-2.46748
693,155,20.151,2.698,-0.00381115,-0.00120656,-0.00169032,-0.000375044,-0.00464267,-1.11363,0.00297798,0.0242067,1917,869,20.1511,-2.69799
700,155,20.2546,2.95007,-0.0040036,-0.000969483,-0.00158481,-0.000292668,-0.00468041,-1.16718,0.00302744,0.0169629,1924,869,20.2546,-2.95005
707,155,20.3243,3.21051,-0.00355752,-0.000612936,-0.00131412,-0.000111764,-0.00405869,-1.20645,0.00266932,0.0123234,1931,869,20.3243,-3.21049
714,155,20.2607,3.34857,-0.00248433,-7.82636e-05,-0.00101156,0.0002905,-0.00285309,-1.22122,0.00200592,0.0214871,1938,869,20.2607,-3.34858
721,155,20.1621,3.5863,0.000318958,0.000555301,-0.00072049,0.00116725,-0.000292987,-0.866682,0.000892012,0.0260466,1945,869,20.1621,-3.58631
728,155,20.1688,3.82227,0.00475433,0.00329453,-0.000949743,0.00522225,0.00282661,-0.457772,0.00301849,0.0201526,1952,869,20.1688,-3.82226
735,155,20.198,3.99268,0.0102623,0.00535466,-0.000446681,0.0103026,0.00531434,-0.0900315,0.00594922,0.0159758,1959,869,20.198,-3.9927
742,155,20.1819,4.20099,0.0169999,0.00809725,-6.0629e-05,0.0170003,0.00809684,-0.00680982,0.0098188,0.0163494,1966,869,20.1818,-4.201
749,155,20.1686,4.41101,0.025301,0.0119133,0.000190058,0.0253037,0.0119106,0.0141926,0.0146174,0.0136332,1973,869,20.1685,-4.41102
756,155,20.1927,4.58398,0.0352957,0.0168543,0.000436624,0.035306,0.016844,0.0236587,0.0203911,0.0248845,1980,869,20.1927,-4.58399
763,155,19.9768,4.51007,0.0475494,0.0231114,0.000842404,0.0475784,0.0230824,0.0344166,0.0274735,0.0426916,1987,869,19.9768,-4.51009
770,155,19.6874,4.7132,0.062461,0.0306824,0.00161724,0.0625431,0.0306003,0.0507161,0.036112,0.0465567,1994,869,19.6874,-4.71319
777,155,19.9359,5.21167,0.0799178,0.0393582,0.00303527,0.0801437,0.0391323,0.0742833,0.0462752,0.0477021,2001,869,19.9359,-5.21167
784,155,20.0778,5.57861,0,0,0,0,0,0,0,-1,2008,869,20.0777,-5.57859
791,155,0,0,0,0,0,0,0,0,0,-1,2015,869,0,0
798,155,0,0,0,0,0,0,0,0,0,-1,2022,869,0,0
805,155,0,0,0,0,0,0,0,0,0,-1,2029,869,0,0
812,155,0,0,0,0,0,0,0,0,0,-1,2036,869,0,0
-700,148,0,0,0,0,0,0,0,0,0,-1,524,876,0,0
-693,148,0,0,0,0,0,0,0,0,0,-1,531,876,0,0
-686,148,0,0,0,0,0,0,0,0,0,-1,538,876,0,0
-679,148,0,0,0,0,0,0,0,0,0,-1,545,876,0,0
-672,148,-15.5656,2.49536,0,0,0,0,0,0,0,-1,552,876,-15.5656,-2.49534
-665,148,-15.7368,2.23517,0.0367608,-0.0471805,0.0240575,0.0431668,-0.0535865,0.260239,0.0559684,0.0464875,559,876,-15.7368,-2.23515
-658,148,-15.7267,2.08759,0.0374092,-0.041546,0.021833,0.0430443,-0.0471812,0.25259,0.05211,0.0488554,566,876,-15.7267,-2.08759
-651,148,-14.9415,1.69635,0,0,0,0,0,0,0,-1,573,876,-14.9415,-1.69632
-644,148,-14.7371,1.29102,0,0,0,0,0,0,0,-1,580,876,-14.7371,-1.29102
-637,148,-13.8464,2.63361,0,0,0,0,0,0,0,-1,587,876,-13.8463,-2.63359
-630,148,-13.7309,2.40723,0.021786,-0.0151684,0.00949137,0.0240812,-0.0174636,0.237266,0.0240871,0.0427189,594,876,-13.7309,-2.40724
-623,148,-13.5912,2.16064,0.0170246,-0.0107513,0.00745162,0.0188974,-0.0126241,0.24623,0.0183187,0.0205164,601,876,-13.5912,-2.16066
-616,148,-13.6749,1.96094,0.0124916,-0.00702906,0.00555204,0.0139602,-0.00849767,0.258595,0.0130933,0.0122061,608,876,-13.6749,-1.96094
-609,148,-13.6985,1.77094,0.00825437,-0.00358438,0.00321571,0.00907144,-0.00440145,0.248823,0.00793281,0.0119823,615,876,-13.6985,-1.77096
-602,148,-13.7259,1.5741,0.00409476,-0.00149727,0.00201097,0.00474283,-0.00214534,0.311758,0.00407005,0.0122861,622,876,-13.7259,-1.57412
-595,148,-13.7377,1.39276,0.000818126,-3.48321e-05,0.00150006,0.00195115,-0.00116786,0.646898,0.00181959,0.0106677,629,876,-13.7377,-1.39279
-588,148,-13.7298,1.17767,-0.00116838,-4.40584e-05,0.00185259,0.00132978,-0.00254223,0.932706,0.00227174,0.0145905,636,876,-13.7298,-1.17765
-581,148,-13.8036,1.01526,-0.00233336,-0.00103405,0.00214029,0.000553008,-0.00392042,0.932746,0.00281611,0.0230407,643,876,-13.8036,-1.01524
-574,148,-13.6647,0.863708,-0.0030498,-0.0018156,0.00228349,-6.72992e-05,-0.0047981,0.917368,0.00317654,0.0251529,650,876,-13.6647,-0.863713
-567,148,-13.7529,0.638428,-0.00338045,-0.00200861,0.00246584,-0.000135067,-0.00525399,0.921053,0.00345852,0.0321106,657,876,-13.7529,-0.638428
-560,148,-13.7426,0.331116,-0.00346527,-0.00236022,0.00272453,-0.000132758,-0.00569273,0.88544,0.00375168,0.0331189,664,876,-13.7425,-0.331132
-553,148,-14.7168,0.657227,-0.00336283,-0.00251399,0.00284103,-6.58524e-05,-0.00581096,0.859545,0.00385221,0.0407316,671,876,-14.7168,-0.657244
-546,148,-15.8212,1.07068,0,0,0,0,0,0,0,-1,678,876,-15.8212,-1.07065
-539,148,-16.3506,0.878052,-0.00292631,-0.00249236,0.00271299,1.2317e-05,-0.00543098,0.825301,0.00362477,0.0360202,685,876,-16.3506,-0.878078
-532,148,-16.3086,0.981873,-0.00242166,-0.00224195,0.00245795,0.000127791,-0.0047914,0.803669,0.0032377,0.0343058,692,876,-16.3086,-0.981861
-525,148,-16.2944,0.999146,-0.001801,-0.00186211,0.00203476,0.000203439,-0.00386654,0.77789,0.00264812,0.035282,699,876,-16.2944,-0.999139
-518,148,-16.3312,1.09821,-0.000844046,-0.00133508,0.00134403,0.000276706,-0.00245583,0.695058,0.00173682,0.0405533,706,876,-16.3312,-1.09819
-511,148,-16.284,1.12341,0.000413243,-0.000608349,0.000220739,0.000458898,-0.000654005,0.203954,0.000645818,0.0431531,713,876,-16.284,-1.12338
-504,148,-16.191,1.10681,0.00126332,-0.000372375,-0.00121353,0.00190887,-0.00101793,-0.488887,0.00171569,0.0451545,720,876,-16.191,-1.10683
-497,148,0,0,0,0,0,0,0,0,0,-1,727,876,0,0
-490,148,0,0,0,0,0,0,0,0,0,-1,734,876,0,0
-483,148,0,0,0,0,0,0,0,0,0,-1,741,876,0,0
-476,148,0,0,0,0,0,0,0,0,0,-1,748,876,0,0
-469,148,0,0,0,0,0,0,0,0,0,-1,755,876,0,0
-462,148,0,0,0,0,0,0,0,0,0,-1,762,876,0,0
-455,148,0,0,0,0,0,0,0,0,0,-1,769,876,0,0
-448,148,0,0,0,0,0,0,0,0,0,-1,776,876,0,0
-441,148,0,0,0,0,0,0,0,0,0,-1,783,876,0,0
-434,148,0,0,0,0,0,0,0,0,0,-1,790,876,0,0
-427,148,0,0,0,0,0,0,0,0,0,-1,797,876,0,0
-420,148,0,0,0,0,0,0,0,0,0,-1,804,876,0,0
-413,148,0,0,0,0,0,0,0,0,0,-1,811,876,0,0
-406,148,0,0,0,0,0,0,0,0,0,-1,818,876,0,0
-399,148,0,0,0,0,0,0,0,0,0,-1,825,876,0,0
-392,148,0,0,0,0,0,0,0,0,0,-1,832,876,0,0
-385,148,0,0,0,0,0,0,0,0,0,-1,839,876,0,0
-378,148,0,0,0,0,0,0,0,0,0,-1,846,876,0,0
-371,148,0,0,0,0,0,0,0,0,0,-1,853,876,0,0
-364,148,0,0,0,0,0,0,0,0,0,-1,860,876,0,0
-357,148,0,0,0,0,0,0,0,0,0,-1,867,876,0,0
-350,148,0,0,0,0,0,0,0,0,0,-1,874,876,0,0
-343,148,0,0,0,0,0,0,0,0,0,-1,881,876,0,0
-336,148,0,0,0,0,0,0,0,0,0,-1,888,876,0,0
-329,148,0,0,0,0,0,0,0,0,0,-1,895,876,0,0
-322,148,0,0,0,0,0,0,0,0,0,-1,902,876,0,0
-315,148,0,0,0,0,0,0,0,0,0,-1,909,876,0,0
-308,148,0,0,0,0,0,0,0,0,0,-1,916,876,0,0
-301,148,0,0,0,0,0,0,0,0,0,-1,923,876,0,0
-294,148,0,0,0,0,0,0,0,0,0,-1,930,876,0,0
-287,148,0,0,0,0,0,0,0,0,0,-1,937,876,0,0
-280,148,0,0,0,0,0,0,0,0,0,-1,944,876,0,0
-273,148,0,0,0,0,0,0,0,0,0,-1,951,876,0,0
-266,148,0,0,0,0,0,0,0,0,0,-1,958,876,0,0
-259,148,0,0,0,0,0,0,0,0,0,-1,965,876,0,0
-252,148,0,0,0,0,0,0,0,0,0,-1,972,876,0,0
-245,148,0,0,0,0,0,0,0,0,0,-1,979,876,0,0
-238,148,0,0,0,0,0,0,0,0,0,-1,986,876,0,0
-231,148,0,0,0,0,0,0,0,0,0,-1,993,876,0,0
-224,148,0,0,0,0,0,0,0,0,0,-1,1000,876,0,0
-217,148,0,0,0,0,0,0,0,0,0,-1,1007,876,0,0
-210,148,0,0,0,0,0,0,0,0,0,-1,1014,876,0,0
-203,148,0,0,0,0,0,0,0,0,0,-1,1021,876,0,0
-196,148,0,0,0,0,0,0,0,0,0,-1,1028,876,0,0
-189,148,0,0,0,0,0,0,0,0,0,-1,1035,876,0,0
-182,148,0,0,0,0,0,0,0,0,0,-1,1042,876,0,0
-175,148,0,0,0,0,0,0,0,0,0,-1,1049,876,0,0
-168,148,0,0,0,0,0,0,0,0,0,-1,1056,876,0,0
-161,148,0,0,0,0,0,0,0,0,0,-1,1063,876,0,0
-154,148,0,0,0,0,0,0,0,0,0,-1,1070,876,0,0
-147,148,0,0,0,0,0,0,0,0,0,-1,1077,876,0,0
-140,148,0,0,0,0,0,0,0,0,0,-1,1084,876,0,0
-133,148,0,0,0,0,0,0,0,0,0,-1,1091,876,0,0
-126,148,0,0,0,0,0,0,0,0,0,-1,1098,876,0,0
-119,148,0,0,0,0,0,0,0,0,0,-1,1105,876,0,0
-112,148,0,0,0,0,0,0,0,0,0,-1,1112,876,0,0
-105,148,0,0,0,0,0,0,0,0,0,-1,1119,876,0,0
-98,148,0,0,0,0,0,0,0,0,0,-1,1126,876,0,0
-91,148,0,0,0,0,0,0,0,0,0,-1,1133,876,0,0
-84,148,0,0,0,0,0,0,0,0,0,-1,1140,876,0,0
-77,148,0,0,0,0,0,0,0,0,0,-1,1147,876,0,0
-70,148,0,0,0,0,0,0,0,0,0,-1,1154,876,0,0
-63,148,0,0,0,0,0,0,0,0,0,-1,1161,876,0,0
-56,148,0,0,0,0,0,0,0,0,0,-1,1168,876,0,0
-49,148,0,0,0,0,0,0,0,0,0,-1,1175,876,0,0
-42,148,0,0,0,0,0,0,0,0,0,-1,1182,876,0,0
-35,148,0,0,0,0,0,0,0,0,0,-1,1189,876,0,0
-28,148,0,0,0,0,0,0,0,0,0,-1,1196,876,0,0
-21,148,0,0,0,0,0,0,0,0,0,-1,1203,876,0,0
-14,148,0,0,0,0,0,0,0,0,0,-1,1210,876,0,0
-7,148,0,0,0,0,0,0,0,0,0,-1,1217,876,0,0
0,148,0,0,0,0,0,0,0,0,0,-1,1224,876,0,0
7,148,0,0,0,0,0,0,0,0,0,-1,1231,876,0,0
14,148,0,0,0,0,0,0,0,0,0,-1,1238,876,0,0
21,148,0,0,0,0,0,0,0,0,0,-1,1245,876,0,0
28,148,0,0,0,0,0,0,0,0,0,-1,1252,876,0,0
35,148,0,0,0,0,0,0,0,0,0,-1,1259,876,0,0
42,148,0,0,0,0,0,0,0,0,0,-1,1266,876,0,0
49,148,0,0,0,0,0,0,0,0,0,-1,1273,876,0,0
56,148,0,0,0,0,0,0,0,0,0,-1,1280,876,0,0
63,148,0,0,0,0,0,0,0,0,0,-1,1287,876,0,0
70,148,0,0,0,0,0,0,0,0,0,-1,1294,876,0,0
77,148,0,0,0,0,0,0,0,0,0,-1,1301,876,0,0
84,148,0,0,0,0,0,0,0,0,0,-1,1308,876,0,0
91,148,0,0,0,0,0,0,0,0,0,-1,1315,876,0,0
98,148,0,0,0,0,0,0,0,0,0,-1,1322,876,0,0
105,148,0,0,0,0,0,0,0,0,0,-1,1329,876,0,0
112,148,0,0,0,0,0,0,0,0,0,-1,1336,876,0,0
119,148,0,0,0,0,0,0,0,0,0,-1,1343,876,0,0
126,148,0,0,0,0,0,0,0,0,0,-1,1350,876,0,0
133,148,0,0,0,0,0,0,0,0,0,-1,1357,876,0,0
140,148,0,0,0,0,0,0,0,0,0,-1,1364,876,0,0
147,148,0,0,0,0,0,0,0,0,0,-1,1371,876,0,0
154,148,0,0,0,0,0,0,0,0,0,-1,1378,876,0,0
161,148,0,0,0,0,0,0,0,0,0,-1,1385,876,0,0
168,148,0,0,0,0,0,0,0,0,0,-1,1392,876,0,0
175,148,0,0,0,0,0,0,0,0,0,-1,1399,876,0,0
182,148,0,0,0,0,0,0,0,0,0,-1,1406,876,0,0
189,148,0,0,0,0,0,0,0,0,0,-1,1413,876,0,0
196,148,0,0,0,0,0,0,0,0,0,-1,1420,876,0,0
203,148,0,0,0,0,0,0,0,0,0,-1,1427,876,0,0
210,148,0,0,0,0,0,0,0,0,0,-1,1434,876,0,0
217,148,0,0,0,0,0,0,0,0,0,-1,1441,876,0,0
224,148,0,0,0,0,0,0,0,0,0,-1,1448,876,0,0
231,148,0,0,0,0,0,0,0,0,0,-1,1455,876,0,0
238,148,0,0,0,0,0,0,0,0,0,-1,1462,876,0,0
245,148,0,0,0,0,0,0,0,0,0,-1,1469,876,0,0
252,148,0,0,0,0,0,0,0,0,0,-1,1476,876,0,0
259,148,0,0,0,0,0,0,0,0,0,-1,1483,876,0,0
266,148,0,0,0,0,0,0,0,0,0,-1,1490,876,0,0
273,148,0,0,0,0,0,0,0,0,0,-1,1497,876,0,0
280,148,0,0,0,0,0,0,0,0,0,-1,1504,876,0,0
287,148,0,0,0,0,0,0,0,0,0,-1,1511,876,0,0
294,148,0,0,0,0,0,0,0,0,0,-1,1518,876,0,0
301,148,0,0,0,0,0,0,0,0,0,-1,1525,876,0,0
308,148,0,0,0,0,0,0,0,0,0,-1,1532,876,0,0
315,148,0,0,0,0,0,0,0,0,0,-1,1539,876,0,0
322,148,0,0,0,0,0,0,0,0,0,-1,1546,876,0,0
329,148,0,0,0,0,0,0,0,0,0,-1,1553,876,0,0
336,148,0,0,0,0,0,0,0,0,0,-1,1560,876,0,0
343,148,0,0,0,0,0,0,0,0,0,-1,1567,876,0,0
350,148,0,0,0,0,0,0,0,0,0,-1,1574,876,0,0
357,148,0,0,0,0,0,0,0,0,0,-1,1581,876,0,0
364,148,0,0,0,0,0,0,0,0,0,-1,1588,876,0,0
371,148,0,0,0,0,0,0,0,0,0,-1,1595,876,0,0
378,148,0,0,0,0,0,0,0,0,0,-1,1602,876,0,0
385,148,0,0,0,0,0,0,0,0,0,-1,1609,876,0,0
392,148,0,0,0,0,0,0,0,0,0,-1,1616,876,0,0
399,148,0,0,0,0,0,0,0,0,0,-1,1623,876,0,0
406,148,0,0,0,0,0,0,0,0,0,-1,1630,876,0,0
413,148,0,0,0,0,0,0,0,0,0,-1,1637,876,0,0
420,148,0,0,0,0,0,0,0,0,0,-1,1644,876,0,0
427,148,0,0,0,0,0,0,0,0,0,-1,1651,876,0,0
434,148,0,0,0,0,0,0,0,0,0,-1,1658,876,0,0
441,148,0,0,0,0,0,0,0,0,0,-1,1665,876,0,0
448,148,0,0,0,0,0,0,0,0,0,-1,1672,876,0,0
455,148,0,0,0,0,0,0,0,0,0,-1,1679,876,0,0
462,148,0,0,0,0,0,0,0,0,0,-1,1686,876,0,0
469,148,0,0,0,0,0,0,0,0,0,-1,1693,876,0,0
476,148,0,0,0,0,0,0,0,0,0,-1,1700,876,0,0
483,148,0,0,0,0,0,0,0,0,0,-1,1707,876,0,0
490,148,0,0,0,0,0,0,0,0,0,-1,1714,876,0,0
497,148,0,0,0,0,0,0,0,0,0,-1,1721,876,0,0
504,148,0,0,0,0,0,0,0,0,0,-1,1728,876,0,0
511,148,0,0,0,0,0,0,0,0,0,-1,1735,876,0,0
518,148,0,0,0,0,0,0,0,0,0,-1,1742,876,0,0
525,148,0,0,0,0,0,0,0,0,0,-1,1749,876,0,0
532,148,0,0,0,0,0,0,0,0,0,-1,1756,876,0,0
539,148,0,0,0,0,0,0,0,0,0,-1,1763,876,0,0
546,148,0,0,0,0,0,0,0,0,0,-1,1770,876,0,0
553,148,0,0,0,0,0,0,0,0,0,-1,1777,876,0,0
560,148,0,0,0,0,0,0,0,0,0,-1,1784,876,0,0
567,148,0,0,0,0,0,0,0,0,0,-1,1791,876,0,0
574,148,0,0,0,0,0,0,0,0,0,-1,1798,876,0,0
581,148,0,0,0,0,0,0,0,0,0,-1,1805,876,0,0
588,148,0,0,0,0,0,0,0,0,0,-1,1812,876,0,0
595,148,0,0,0,0,0,0,0,0,0,-1,1819,876,0,0
602,148,0,0,0,0,0,0,0,0,0,-1,1826,876,0,0
609,148,0,0,0,0,0,0,0,0,0,-1,1833,876,0,0
616,148,0,0,0,0,0,0,0,0,0,-1,1840,876,0,0
623,148,23.7168,3.23718,0.00275783,0.00126484,0.00242885,0.0045523,-0.000529641,0.636307,0.00322594,0.0449178,1847,876,23.7168,-3.23717
630,148,23.6663,3.13916,0.00220578,0.000539816,0.00131763,0.00293164,-0.000186047,0.503524,0.0020193,0.044791,1854,876,23.6663,-3.13915
637,148,23.7401,2.94794,0.00180023,-9.08162e-05,0.000437894,0.00189671,-0.000187294,0.216857,0.0013313,0.0390611,1861,876,23.7401,-2.94794
644,148,23.8363,2.75403,0.00110278,-0.000703912,-0.000270095,0.0011423,-0.000743426,-0.145266,0.00109681,0.0374433,1868,876,23.8364,-2.75401
651,148,23.9174,2.68921,-0.000136363,-0.00113138,-0.000859929,0.000359602,-0.00162735,-0.52315,0.00122253,0.0376612,1875,876,23.9173,-2.6892
658,148,23.9114,2.7276,-0.00136587,-0.00139371,-0.00126051,-0.000119201,-0.00264037,-0.779877,0.00172189,0.0330582,1882,876,23.9114,-2.72762
665,148,23.8014,2.80579,-0.00240138,-0.00153456,-0.00149998,-0.000406626,-0.00352931,-0.926041,0.00222973,0.0247793,1889,876,23.8014,-2.8058
672,148,23.8185,2.73743,-0.00341852,-0.00156759,-0.00165681,-0.00059529,-0.00439082,-1.0401,0.00275034,0.0278606,1896,876,23.8185,-2.73741
679,148,23.8317,2.78821,0,0,0,0,0,0,0,-1,1903,876,23.8317,-2.78819
686,148,20.2317,2.45636,0,0,0,0,0,0,0,-1,1910,876,20.2317,-2.45635
693,148,20.3127,2.69696,-0.00508065,-0.00127197,-0.00191238,-0.000477474,-0.00587514,-1.17704,0.0037677,0.0437777,1917,876,20.3127,-2.69695
700,148,20.49,3.00018,-0.00544099,-0.00100762,-0.00181156,-0.000361541,-0.00608707,-1.22821,0.00394306,0.0176119,1924,876,20.49,-3.00018
707,148,20.5796,3.29779,-0.00512415,-0.000656625,-0.00156951,-0.000160357,-0.00562042,-1.26455,0.00369466,0.0143367,1931,876,20.5796,-3.29777
714,148,20.5023,3.43103,-0.00404204,-0.000123239,-0.00124904,0.00024101,-0.00440629,-1.28704,0.00302107,0.0138822,1938,876,20.5023,-3.43104
721,148,20.405,3.5882,-0.00126026,0.000479562,-0.000972438,0.000914405,-0.0016951,-1.1503,0.00152891,0.0167366,1945,876,20.405,-3.58823
728,148,20.4061,3.80847,0.00301656,0.00302967,-0.00122876,0.0042519,0.00179433,-0.788065,0.00246477,0.0193885,1952,876,20.4061,-3.8085
735,148,20.4215,3.99615,0.00830352,0.00484116,-0.000763357,0.00846435,0.00468033,-0.20765,0.00489602,0.0182304,1959,876,20.4215,-3.99614
742,148,20.4032,4.23444,0.0147098,0.00721316,-0.000464566,0.0147385,0.00718448,-0.0616557,0.00851015,0.0196756,1966,876,20.4032,-4.23442
749,148,20.3983,4.43335,0.0225353,0.0104598,-0.000330048,0.0225443,0.0104507,-0.0273048,0.0130275,0.0158803,1973,876,20.3983,-4.43334
756,148,20.3982,4.57239,0.0316111,0.0145138,-0.000265444,0.0316153,0.0145097,-0.0155205,0.0182736,0.0202958,1980,876,20.3982,-4.57242
763,148,20.687,4.78448,0.0423806,0.0194952,-0.00013994,0.0423815,0.0194944,-0.00611453,0.0244951,0.0436896,1987,876,20.687,-4.78448
770,148,20.9479,5.42157,0.0552656,0.0253021,0.000287732,0.0552683,0.0252993,0.00960158,0.0319471,0.0492893,1994,876,20.9479,-5.42158
777,148,24.8041,2.7146,0.0701456,0.0316545,0.00127049,0.0701875,0.0316126,0.0329596,0.0405892,0.0433161,2001,876,24.8041,-2.71463
784,148,25.4686,2.92462,0.0862516,0.0378779,0.00317059,0.0864585,0.0376709,0.0651719,0.0500542,0.0454511,2008,876,25.4686,-2.92464
791,148,25.6228,2.94147,0,0,0,0,0,0,0,-1,2015,876,25.6228,-2.94145
798,148,0,0,0,0,0,0,0,0,0,-1,2022,876,0,0
805,148,0,0,0,0,0,0,0,0,0,-1,2029,876,0,0
812,148,0,0,0,0,0,0,0,0,0,-1,2036,876,0,0
-700,141,0,0,0,0,0,0,0,0,0,-1,524,883,0,0
-693,141,0,0,0,0,0,0,0,0,0,-1,531,883,0,0
-686,141,0,0,0,0,0,0,0,0,0,-1,538,883,0,0
-679,141,0,0,0,0,0,0,0,0,0,-1,545,883,0,0
-672,141,-16.6512,2.43909,0,0,0,0,0,0,0,-1,552,883,-16.6512,-2.4391
-665,141,-16.6924,2.40009,0.0430381,-0.041137,0.0258913,0.0503643,-0.0484632,0.275752,0.0570616,0.0447827,559,883,-16.6925,-2.40011
-658,141,-16.4174,2.33972,0.0425067,-0.0376361,0.0242619,0.0492793,-0.0444086,0.272215,0.0541151,0.0477408,566,883,-16.4174,-2.33975
-651,141,-15.6555,1.99323,0.0393759,-0.0323103,0.0213602,0.0452579,-0.0381923,0.268713,0.0482376,0.0454466,573,883,-15.6555,-1.9932
-644,141,-15.3335,1.86176,0,0,0,0,0,0,0,-1,580,883,-15.3335,-1.86177
-637,141,-13.8654,2.48193,0,0,0,0,0,0,0,-1,587,883,-13.8654,-2.48196
-630,141,-13.8185,2.30853,0.0236902,-0.0152045,0.0114132,0.0267919,-0.0183062,0.265357,0.0261906,0.0409976,594,883,-13.8186,-2.30851
-623,141,-13.751,2.09595,0.0184042,-0.0111252,0.00905813,0.0209614,-0.0136823,0.275143,0.0201482,0.0215314,601,883,-13.751,-2.09594
-616,141,-13.8646,1.93396,0.0133368,-0.00753867,0.00679641,0.0153545,-0.00955635,0.288587,0.0145116,0.0124694,608,883,-13.8646,-1.93393
-609,141,-13.907,1.75488,0.00851061,-0.00414453,0.00410484,0.00972544,-0.00535937,0.287738,0.00882998,0.0135527,615,883,-13.9071,-1.75487
-602,141,-13.9182,1.56738,0.003876,-0.00202876,0.00256673,0.00483574,-0.0029885,0.357818,0.0045591,0.0126589,622,883,-13.9182,-1.56739
-595,141,-13.9317,1.39026,0.000239654,-0.00051698,0.00176582,0.00166723,-0.00194455,0.679871,0.00208731,0.0112153,629,883,-13.9317,-1.39029
-588,141,-14.0485,1.2146,-0.00183584,-0.00046271,0.00191244,0.000882665,-0.00318122,0.957734,0.00246822,0.0166516,636,883,-14.0485,-1.21458
-581,141,-14.0269,1.0564,-0.00305858,-0.00120576,0.00207746,0.000142491,-0.00440683,0.995132,0.00298652,0.022689,643,883,-14.0269,-1.05642
-574,141,-13.8401,0.922607,-0.00377611,-0.00186089,0.00219897,-0.000420063,-0.00521693,0.990756,0.00334673,0.0268864,650,883,-13.8401,-0.922577
-567,141,-13.8712,0.78894,-0.00404977,-0.00208936,0.00235456,-0.000519125,-0.00562,0.982639,0.00358617,0.0305127,657,883,-13.8712,-0.788925
-560,141,-14.1286,0.698242,-0.00409564,-0.00241339,0.00259776,-0.000523972,-0.00598506,0.941966,0.00382736,0.0390255,664,883,-14.1286,-0.698245
-553,141,-14.8141,1.02344,0,0,0,0,0,0,0,-1,671,883,-14.8141,-1.02341
-546,141,-16.293,0.965027,-0.00366075,-0.00265172,0.00273388,-0.000376188,-0.00593628,0.876642,0.00383827,0.0370922,678,883,-16.293,-0.965003
-539,141,-16.3495,0.865356,-0.00319722,-0.00255439,0.00260162,-0.000254408,-0.0054972,0.846858,0.00358301,0.030712,685,883,-16.3495,-0.865347
-532,141,-16.3215,0.934021,-0.00251579,-0.00231574,0.00236539,-4.82581e-05,-0.00478327,0.806529,0.00317288,0.0293507,692,883,-16.3216,-0.933996
-525,141,-16.2784,0.92627,-0.00165029,-0.00191644,0.00192804,0.00014926,-0.00371599,0.750942,0.00252855,0.0360212,699,883,-16.2784,-0.926266
-518,141,-16.3171,1.00781,-0.000396063,-0.00133293,0.00120806,0.000431203,-0.00216019,0.600445,0.00160331,0.0393888,706,883,-16.3171,-1.00784
-511,141,-16.2671,1.04395,0.000968179,-0.000436012,9.23965e-05,0.000974232,-0.000442065,0.0654246,0.00083672,0.0407126,713,883,-16.2671,-1.04393
-504,141,-16.0917,1.01349,0.00165807,-0.000160582,-0.00110204,0.0021775,-0.000680018,-0.440459,0.00172365,0.0439954,720,883,-16.0917,-1.01347
-497,141,0,0,0,0,0,0,0,0,0,-1,727,883,0,0
-490,141,0,0,0,0,0,0,0,0,0,-1,734,883,0,0
-483,141,0,0,0,0,0,0,0,0,0,-1,741,883,0,0
-476,141,0,0,0,0,0,0,0,0,0,-1,748,883,0,0
-469,141,0,0,0,0,0,0,0,0,0,-1,755,883,0,0
-462,141,0,0,0,0,0,0,0,0,0,-1,762,883,0,0
-455,141,0,0,0,0,0,0,0,0,0,-1,769,883,0,0
-448,141,0,0,0,0,0,0,0,0,0,-1,776,883,0,0
-441,141,0,0,0,0,0,0,0,0,0,-1,783,883,0,0
-434,141,0,0,0,0,0,0,0,0,0,-1,790,883,0,0
-427,141,0,0,0,0,0,0,0,0,0,-1,797,883,0,0
-420,141,0,0,0,0,0,0,0,0,0,-1,804,883,0,0
-413,141,0,0,0,0,0,0,0,0,0,-1,811,883,0,0
-406,141,0,0,0,0,0,0,0,0,0,-1,818,883,0,0
-399,141,0,0,0,0,0,0,0,0,0,-1,825,883,0,0
-392,141,0,0,0,0,0,0,0,0,0,-1,832,883,0,0
-385,141,0,0,0,0,0,0,0,0,0,-1,839,883,0,0
-378,141,0,0,0,0,0,0,0,0,0,-1,846,883,0,0
-371,141,0,0,0,0,0,0,0,0,0,-1,853,883,0,0
-364,141,0,0,0,0,0,0,0,0,0,-1,860,883,0,0
-357,141,0,0,0,0,0,0,0,0,0,-1,867,883,0,0
-350,141,0,0,0,0,0,0,0,0,0,-1,874,883,0,0
-343,141,0,0,0,0,0,0,0,0,0,-1,881,883,0,0
-336,141,0,0,0,0,0,0,0,0,0,-1,888,883,0,0
-329,141,0,0,0,0,0,0,0,0,0,-1,895,883,0,0
-322,141,0,0,0,0,0,0,0,0,0,-1,902,883,0,0
-315,141,0,0,0,0,0,0,0,0,0,-1,909,883,0,0
-308,141,0,0,0,0,0,0,0,0,0,-1,916,883,0,0
-301,141,0,0,0,0,0,0,0,0,0,-1,923,883,0,0
-294,141,0,0,0,0,0,0,0,0,0,-1,930,883,0,0
-287,141,0,0,0,0,0,0,0,0,0,-1,937,883,0,0
-280,141,0,0,0,0,0,0,0,0,0,-1,944,883,0,0
-273,141,0,0,0,0,0,0,0,0,0,-1,951,883,0,0
-266,141,0,0,0,0,0,0,0,0,0,-1,958,883,0,0
-259,141,0,0,0,0,0,0,0,0,0,-1,965,883,0,0
-252,141,0,0,0,0,0,0,0,0,0,-1,972,883,0,0
-245,141,0,0,0,0,0,0,0,0,0,-1,979,883,0,0
-238,141,0,0,0,0,0,0,0,0,0,-1,986,883,0,0
-231,141,0,0,0,0,0,0,0,0,0,-1,993,883,0,0
-224,141,0,0,0,0,0,0,0,0,0,-1,1000,883,0,0
-217,141,0,0,0,0,0,0,0,0,0,-1,1007,883,0,0
-210,141,0,0,0,0,0,0,0,0,0,-1,1014,883,0,0
-203,141,0,0,0,0,0,0,0,0,0,-1,1021,883,0,0
-196,141,0,0,0,0,0,0,0,0,0,-1,1028,883,0,0
-189,141,0,0,0,0,0,0,0,0,0,-1,1035,883,0,0
-182,141,0,0,0,0,0,0,0,0,0,-1,1042,883,0,0
-175,141,0,0,0,0,0,0,0,0,0,-1,1049,883,0,0
-168,141,0,0,0,0,0,0,0,0,0,-1,1056,883,0,0
-161,141,0,0,0,0,0,0,0,0,0,-1,1063,883,0,0
-154,141,0,0,0,0,0,0,0,0,0,-1,1070,883,0,0
-147,141,0,0,0,0,0,0,0,0,0,-1,1077,883,0,0
-140,141,0,0,0,0,0,0,0,0,0,-1,1084,883,0,0
-133,141,0,0,0,0,0,0,0,0,0,-1,1091,883,0,0
-126,141,0,0,0,0,0,0,0,0,0,-1,1098,883,0,0
-119,141,0,0,0,0,0,0,0,0,0,-1,1105,883,0,0
-112,141,0,0,0,0,0,0,0,0,0,-1,1112,883,0,0
-105,141,0,0,0,0,0,0,0,0,0,-1,1119,883,0,0
-98,141,0,0,0,0,0,0,0,0,0,-1,1126,883,0,0
-91,141,0,0,0,0,0,0,0,0,0,-1,1133,883,0,0
-84,141,0,0,0,0,0,0,0,0,0,-1,1140,883,0,0
-77,141,0,0,0,0,0,0,0,0,0,-1,1147,883,0,0
-70,141,0,0,0,0,0,0,0,0,0,-1,1154,883,0,0
-63,141,0,0,0,0,0,0,0,0,0,-1,1161,883,0,0
-56,141,0,0,0,0,0,0,0,0,0,-1,1168,883,0,0
-49,141,0,0,0,0,0,0,0,0,0,-1,1175,883,0,0
-42,141,0,0,0,0,0,0,0,0,0,-1,1182,883,0,0
-35,141,0,0,0,0,0,0,0,0,0,-1,1189,883,0,0
-28,141,0,0,0,0,0,0,0,0,0,-1,1196,883,0,0
-21,141,0,0,0,0,0,0,0,0,0,-1,1203,883,0,0
-14,141,0,0,0,0,0,0,0,0,0,-1,1210,883,0,0
-7,141,0,0,0,0,0,0,0,0,0,-1,1217,883,0,0
0,141,0,0,0,0,0,0,0,0,0,-1,1224,883,0,0
7,141,0,0,0,0,0,0,0,0,0,-1,1231,883,0,0
14,141,0,0,0,0,0,0,0,0,0,-1,1238,883,0,0
21,141,0,0,0,0,0,0,0,0,0,-1,1245,883,0,0
28,141,0,0,0,0,0,0,0,0,0,-1,1252,883,0,0
35,141,0,0,0,0,0,0,0,0,0,-1,1259,883,0,0
42,141,0,0,0,0,0,0,0,0,0,-1,1266,883,0,0
49,141,0,0,0,0,0,0,0,0,0,-1,1273,883,0,0
56,141,0,0,0,0,0,0,0,0,0,-1,1280,883,0,0
63,141,0,0,0,0,0,0,0,0,0,-1,1287,883,0,0
70,141,0,0,0,0,0,0,0,0,0,-1,1294,883,0,0
77,141,0,0,0,0,0,0,0,0,0,-1,1301,883,0,0
84,141,0,0,0,0,0,0,0,0,0,-1,1308,883,0,0
91,141,0,0,0,0,0,0,0,0,0,-1,1315,883,0,0
98,141,0,0,0,0,0,0,0,0,0,-1,1322,883,0,0
105,141,0,0,0,0,0,0,0,0,0,-1,1329,883,0,0
112,141,0,0,0,0,0,0,0,0,0,-1,1336,883,0,0
119,141,0,0,0,0,0,0,0,0,0,-1,1343,883,0,0
126,141,0,0,0,0,0,0,0,0,0,-1,1350,883,0,0
133,141,0,0,0,0,0,0,0,0,0,-1,1357,883,0,0
140,141,0,0,0,0,0,0,0,0,0,-1,1364,883,0,0
147,141,0,0,0,0,0,0,0,0,0,-1,1371,883,0,0
154,141,0,0,0,0,0,0,0,0,0,-1,1378,883,0,0
161,141,0,0,0,0,0,0,0,0,0,-1,1385,883,0,0
168,141,0,0,0,0,0,0,0,0,0,-1,1392,883,0,0
175,141,0,0,0,0,0,0,0,0,0,-1,1399,883,0,0
182,141,0,0,0,0,0,0,0,0,0,-1,1406,883,0,0
189,141,0,0,0,0,0,0,0,0,0,-1,1413,883,0,0
196,141,0,0,0,0,0,0,0,0,0,-1,1420,883,0,0
203,141,0,0,0,0,0,0,0,0,0,-1,1427,883,0,0
210,141,0,0,0,0,0,0,0,0,0,-1,1434,883,0,0
217,141,0,0,0,0,0,0,0,0,0,-1,1441,883,0,0
224,141,0,0,0,0,0,0,0,0,0,-1,1448,883,0,0
231,141,0,0,0,0,0,0,0,0,0,-1,1455,883,0,0
238,141,0,0,0,0,0,0,0,0,0,-1,1462,883,0,0
245,141,0,0,0,0,0,0,0,0,0,-1,1469,883,0,0
252,141,0,0,0,0,0,0,0,0,0,-1,1476,883,0,0
259,141,0,0,0,0,0,0,0,0,0,-1,1483,883,0,0
266,141,0,0,0,0,0,0,0,0,0,-1,1490,883,0,0
273,141,0,0,0,0,0,0,0,0,0,-1,1497,883,0,0
280,141,0,0,0,0,0,0,0,0,0,-1,1504,883,0,0
287,141,0,0,0,0,0,0,0,0,0,-1,1511,883,0,0
294,141,0,0,0,0,0,0,0,0,0,-1,1518,883,0,0
301,141,0,0,0,0,0,0,0,0,0,-1,1525,883,0,0
308,141,0,0,0,0,0,0,0,0,0,-1,1532,883,0,0
315,141,0,0,0,0,0,0,0,0,0,-1,1539,883,0,0
322,141,0,0,0,0,0,0,0,0,0,-1,1546,883,0,0
329,141,0,0,0,0,0,0,0,0,0,-1,1553,883,0,0
336,141,0,0,0,0,0,0,0,0,0,-1,1560,883,0,0
343,141,0,0,0,0,0,0,0,0,0,-1,1567,883,0,0
350,141,0,0,0,0,0,0,0,0,0,-1,1574,883,0,0
357,141,0,0,0,0,0,0,0,0,0,-1,1581,883,0,0
364,141,0,0,0,0,0,0,0,0,0,-1,1588,883,0,0
371,141,0,0,0,0,0,0,0,0,0,-1,1595,883,0,0
378,141,0,0,0,0,0,0,0,0,0,-1,1602,883,0,0
385,141,0,0,0,0,0,0,0,0,0,-1,1609,883,0,0
392,141,0,0,0,0,0,0,0,0,0,-1,1616,883,0,0
399,141,0,0,0,0,0,0,0,0,0,-1,1623,883,0,0
406,141,0,0,0,0,0,0,0,0,0,-1,1630,883,0,0
413,141,0,0,0,0,0,0,0,0,0,-1,1637,883,0,0
420,141,0,0,0,0,0,0,0,0,0,-1,1644,883,0,0
427,141,0,0,0,0,0,0,0,0,0,-1,1651,883,0,0
434,141,0,0,0,0,0,0,0,0,0,-1,1658,883,0,0
441,141,0,0,0,0,0,0,0,0,0,-1,1665,883,0,0
448,141,0,0,0,0,0,0,0,0,0,-1,1672,883,0,0
455,141,0,0,0,0,0,0,0,0,0,-1,1679,883,0,0
462,141,0,0,0,0,0,0,0,0,0,-1,1686,883,0,0
469,141,0,0,0,0,0,0,0,0,0,-1,1693,883,0,0
476,141,0,0,0,0,0,0,0,0,0,-1,1700,883,0,0
483,141,0,0,0,0,0,0,0,0,0,-1,1707,883,0,0
490,141,0,0,0,0,0,0,0,0,0,-1,1714,883,0,0
497,141,0,0,0,0,0,0,0,0,0,-1,1721,883,0,0
504,141,0,0,0,0,0,0,0,0,0,-1,1728,883,0,0
511,141,0,0,0,0,0,0,0,0,0,-1,1735,883,0,0
518,141,0,0,0,0,0,0,0,0,0,-1,1742,883,0,0
525,141,0,0,0,0,0,0,0,0,0,-1,1749,883,0,0
532,141,0,0,0,0,0,0,0,0,0,-1,1756,883,0,0
539,141,0,0,0,0,0,0,0,0,0,-1,1763,883,0,0
546,141,0,0,0,0,0,0,0,0,0,-1,1770,883,0,0
553,141,0,0,0,0,0,0,0,0,0,-1,1777,883,0,0
560,141,0,0,0,0,0,0,0,0,0,-1,1784,883,0,0
567,141,0,0,0,0,0,0,0,0,0,-1,1791,883,0,0
574,141,0,0,0,0,0,0,0,0,0,-1,1798,883,0,0
581,141,0,0,0,0,0,0,0,0,0,-1,1805,883,0,0
588,141,0,0,0,0,0,0,0,0,0,-1,1812,883,0,0
595,141,0,0,0,0,0,0,0,0,0,-1,1819,883,0,0
602,141,0,0,0,0,0,0,0,0,0,-1,1826,883,0,0
609,141,0,0,0,0,0,0,0,0,0,-1,1833,883,0,0
616,141,0,0,0,0,0,0,0,0,0,-1,1840,883,0,0
623,141,23.7756,2.60693,0.00225979,0.000770672,0.00267057,0.00428765,-0.00125719,0.64945,0.00335691,0.0468302,1847,883,23.7756,-2.60692
630,141,23.6161,3.02069,0.00188756,0.000235627,0.00146766,0.00274571,-0.000622528,0.529099,0.00206943,0.0469738,1854,883,23.616,-3.02069
637,141,23.7703,2.93994,0.0016731,-0.000170124,0.000526369,0.00181282,-0.000309848,0.259465,0.00132397,0.0420692,1861,883,23.7703,-2.93995
644,141,23.8694,2.72797,0.00117157,-0.000625885,-0.000243771,0.00120404,-0.000658358,-0.132434,0.00109053,0.0391307,1868,883,23.8694,-2.72794
651,141,23.9879,2.729,-0.000188759,-0.000956634,-0.000920266,0.000424448,-0.00156984,-0.587774,0.00121305,0.0377278,1875,883,23.988,-2.72903
658,141,23.9834,2.71539,-0.00172679,-0.00116222,-0.00139869,-1.76193e-05,-0.0028714,-0.884972,0.00190842,0.0352382,1882,883,23.9834,-2.71538
665,141,23.7867,2.81909,-0.00302702,-0.00129371,-0.00168324,-0.00026712,-0.00405362,-1.02314,0.00261792,0.0269942,1889,883,23.7867,-2.81909
672,141,23.8231,2.75549,-0.00423364,-0.00133215,-0.00187351,-0.000413353,-0.00515243,-1.11485,0.00330579,0.0201573,1896,883,23.8231,-2.75547
679,141,23.864,2.69202,-0.00500714,-0.00143022,-0.00204803,-0.000499673,-0.00593769,-1.14432,0.00380286,0.0257043,1903,883,23.864,-2.692
686,141,23.8961,2.61328,0,0,0,0,0,0,0,-1,1910,883,23.8961,-2.61326
693,141,20.4951,2.76288,0,0,0,0,0,0,0,-1,1917,883,20.4951,-2.76289
700,141,20.6765,3.01422,-0.00669858,-0.000860074,-0.00204678,-0.000214027,-0.00734462,-1.26505,0.00482666,0.0184842,1924,883,20.6766,-3.0142
707,141,20.6847,3.22797,-0.00643591,-0.000604759,-0.00180881,-8.92447e-05,-0.00695143,-1.29316,0.00460483,0.0153423,1931,883,20.6847,-3.228
714,141,20.5851,3.39038,-0.00532804,-0.000123455,-0.00151319,0.000284514,-0.00573601,-1.30745,0.00392229,0.0150197,1938,883,20.585,-3.39038
721,141,20.6086,3.59363,-0.00259335,0.000398013,-0.00126983,0.000864354,-0.00305969,-1.21884,0.0023808,0.0121139,1945,883,20.6087,-3.59361
728,141,20.6355,3.76343,0.00144111,0.00268148,-0.00150401,0.00368816,0.000434433,-0.980954,0.00232751,0.0144336,1952,883,20.6355,-3.76342
735,141,20.6216,4.0011,0.00640971,0.00422356,-0.00105641,0.00683677,0.0037965,-0.384172,0.00395525,0.0152645,1959,883,20.6216,-4.00112
742,141,20.6129,4.2301,0.0124074,0.00623238,-0.000788179,0.0125064,0.00613337,-0.124971,0.00722103,0.0168983,1966,883,20.613,-4.23009
749,141,20.6121,4.42352,0.01971,0.00895226,-0.000666695,0.0197512,0.0089111,-0.0616589,0.0114215,0.0142233,1973,883,20.612,-4.42352
756,141,20.5773,4.60614,0.0278893,0.0122349,-0.000632221,0.0279148,0.0122094,-0.0402987,0.0161587,0.0203287,1980,883,20.5773,-4.60616
763,141,20.7461,4.84937,0.0372299,0.0161237,-0.000571606,0.0372453,0.0161082,-0.027056,0.0215688,0.043213,1987,883,20.7461,-4.84937
770,141,21.4706,5.09485,0,0,0,0,0,0,0,-1,1994,883,21.4706,-5.09483
777,141,24.2327,3.0799,0.0606815,0.0249083,0.000656694,0.0606935,0.0248963,0.0183489,0.0352293,0.0428978,2001,883,24.2327,-3.07991
784,141,24.7062,3.32825,0.0737789,0.0287622,0.00241038,0.0739076,0.0286335,0.0533409,0.0430296,0.0461308,2008,883,24.7061,-3.32826
791,141,25.0627,3.51373,0.0858171,0.0307366,0.0057371,0.0864083,0.0301454,0.10269,0.0506418,0.0483561,2015,883,25.0627,-3.51372
798,141,0,0,0,0,0,0,0,0,0,-1,2022,883,0,0
805,141,0,0,0,0,0,0,0,0,0,-1,2029,883,0,0
812,141,0,0,0,0,0,0,0,0,0,-1,2036,883,0,0
-700,134,0,0,0,0,0,0,0,0,0,-1,524,890,0,0
-693,134,0,0,0,0,0,0,0,0,0,-1,531,890,0,0
-686,134,0,0,0,0,0,0,0,0,0,-1,538,890,0,0
-679,134,0,0,0,0,0,0,0,0,0,-1,545,890,0,0
-672,134,-18.2112,2.77026,0,0,0,0,0,0,0,-1,552,890,-18.2112,-2.77025
-665,134,-17.6963,2.68848,0.0523275,-0.0252572,0.028786,0.0618412,-0.034771,0.319198,0.0565042,0.0450571,559,890,-17.6963,-2.68846
-658,134,-17.2006,2.58429,0.0492541,-0.0261417,0.0269466,0.0578947,-0.0347823,0.310296,0.0540588,0.0433146,566,890,-17.2006,-2.58429
-651,134,-16.6392,2.49567,0.0442226,-0.0242738,0.0238425,0.0517045,-0.0317558,0.304074,0.0486425,0.0432138,573,890,-16.6392,-2.49566
-644,134,-15.3224,2.38959,0,0,0,0,0,0,0,-1,580,890,-15.3224,-2.38956
-637,134,-13.8976,2.09949,0,0,0,0,0,0,0,-1,587,890,-13.8976,-2.0995
-630,134,-13.9417,2.11182,0.0251394,-0.0132818,0.0129853,0.0291164,-0.0172588,0.297198,0.0270649,0.0407428,594,890,-13.9417,-2.11179
-623,134,-13.9923,2.08331,0.0192321,-0.0101744,0.0102097,0.0224292,-0.0133716,0.303472,0.0208889,0.0209893,601,890,-13.9923,-2.08333
-616,134,-14.0671,1.92828,0.0136674,-0.00780011,0.00759767,0.0160842,-0.0102169,0.30798,0.0153104,0.0121853,608,890,-14.0671,-1.92831
-609,134,-14.1086,1.75403,0.00831618,-0.00454912,0.00470314,0.00985213,-0.00608506,0.315659,0.00928663,0.0114593,615,890,-14.1086,-1.75404
-602,134,-14.1082,1.56335,0.00333009,-0.00246192,0.00295562,0.00457202,-0.00370385,0.397793,0.00478683,0.0114198,622,890,-14.1081,-1.56337
-595,134,-14.1035,1.41095,-0.000550616,-0.000916413,0.00194722,0.00122228,-0.00268931,0.738572,0.00231069,0.0120039,629,890,-14.1035,-1.41097
-588,134,-14.2842,1.29529,-0.00257396,-0.000807596,0.00186709,0.000374661,-0.00375621,1.00632,0.00263791,0.020645,636,890,-14.2842,-1.29529
-581,134,-14.2477,1.03009,-0.00382215,-0.00133081,0.00194304,-0.000268431,-0.00488453,1.07044,0.00317067,0.0273777,643,890,-14.2477,-1.03007
-574,134,-14.1987,0.826111,-0.0045454,-0.00181574,0.00204933,-0.000718348,-0.00564279,1.07916,0.00354674,0.028933,650,890,-14.1987,-0.82609
-567,134,-14.042,0.696411,-0.00476883,-0.0020575,0.00217325,-0.000851751,-0.00597457,1.06427,0.00373168,0.0233649,657,890,-14.042,-0.696416
-560,134,-14.0172,0.59198,0,0,0,0,0,0,0,-1,664,890,-14.0172,-0.592007
-553,134,-16.3159,0.683105,0,0,0,0,0,0,0,-1,671,890,-16.3158,-0.683095
-546,134,-16.3118,0.859924,-0.00415468,-0.00253677,0.00247711,-0.000739869,-0.00595158,0.943225,0.00374554,0.0271676,678,890,-16.3119,-0.859947
-539,134,-16.3513,0.833313,-0.00351265,-0.00243168,0.00236365,-0.000547505,-0.00539682,0.897799,0.00342998,0.0185907,685,890,-16.3513,-0.833315
-532,134,-16.3429,0.878845,-0.00263151,-0.00218092,0.0021179,-0.000276362,-0.00453607,0.838388,0.00293626,0.0232659,692,890,-16.3429,-0.878851
-525,134,-16.2942,0.92926,-0.00151235,-0.00175729,0.00165774,2.74399e-05,-0.00329708,0.748526,0.00220726,0.0348735,699,890,-16.2942,-0.929264
-518,134,-16.3239,1.04944,-5.51829e-06,-0.00111985,0.000913346,0.000507191,-0.00163256,0.511517,0.00129109,0.0403142,706,890,-16.3239,-1.04944
-511,134,-16.3165,1.09973,0.00132971,-6.21095e-05,-0.000154105,0.00134657,-7.89682e-05,-0.108964,0.000925159,0.0432804,713,890,-16.3165,-1.09971
-504,134,0,0,0,0,0,0,0,0,0,-1,720,890,0,0
-497,134,0,0,0,0,0,0,0,0,0,-1,727,890,0,0
-490,134,0,0,0,0,0,0,0,0,0,-1,734,890,0,0
-483,134,0,0,0,0,0,0,0,0,0,-1,741,890,0,0
-476,134,0,0,0,0,0,0,0,0,0,-1,748,890,0,0
-469,134,0,0,0,0,0,0,0,0,0,-1,755,890,0,0
-462,134,0,0,0,0,0,0,0,0,0,-1,762,890,0,0
-455,134,0,0,0,0,0,0,0,0,0,-1,769,890,0,0
-448,134,0,0,0,0,0,0,0,0,0,-1,776,890,0,0
-441,134,0,0,0,0,0,0,0,0,0,-1,783,890,0,0
-434,134,0,0,0,0,0,0,0,0,0,-1,790,890,0,0
-427,134,0,0,0,0,0,0,0,0,0,-1,797,890,0,0
-420,134,0,0,0,0,0,0,0,0,0,-1,804,890,0,0
-413,134,0,0,0,0,0,0,0,0,0,-1,811,890,0,0
-406,134,0,0,0,0,0,0,0,0,0,-1,818,890,0,0
-399,134,0,0,0,0,0,0,0,0,0,-1,825,890,0,0
-392,134,0,0,0,0,0,0,0,0,0,-1,832,890,0,0
-385,134,0,0,0,0,0,0,0,0,0,-1,839,890,0,0
-378,134,0,0,0,0,0,0,0,0,0,-1,846,890,0,0
-371,134,0,0,0,0,0,0,0,0,0,-1,853,890,0,0
-364,134,0,0,0,0,0,0,0,0,0,-1,860,890,0,0
-357,134,0,0,0,0,0,0,0,0,0,-1,867,890,0,0
-350,134,0,0,0,0,0,0,0,0,0,-1,874,890,0,0
-343,134,0,0,0,0,0,0,0,0,0,-1,881,890,0,0
-336,134,0,0,0,0,0,0,0,0,0,-1,888,890,0,0
-329,134,0,0,0,0,0,0,0,0,0,-1,895,890,0,0
-322,134,0,0,0,0,0,0,0,0,0,-1,902,890,0,0
-315,134,0,0,0,0,0,0,0,0,0,-1,909,890,0,0
-308,134,0,0,0,0,0,0,0,0,0,-1,916,890,0,0
-301,134,0,0,0,0,0,0,0,0,0,-1,923,890,0,0
-294,134,0,0,0,0,0,0,0,0,0,-1,930,890,0,0
-287,134,0,0,0,0,0,0,0,0,0,-1,937,890,0,0
-280,134,0,0,0,0,0,0,0,0,0,-1,944,890,0,0
-273,134,0,0,0,0,0,0,0,0,0,-1,951,890,0,0
-266,134,0,0,0,0,0,0,0,0,0,-1,958,890,0,0
-259,134,0,0,0,0,0,0,0,0,0,-1,965,890,0,0
-252,134,0,0,0,0,0,0,0,0,0,-1,972,890,0,0
-245,134,0,0,0,0,0,0,0,0,0,-1,979,890,0,0
-238,134,0,0,0,0,0,0,0,0,0,-1,986,890,0,0
-231,134,0,0,0,0,0,0,0,0,0,-1,993,890,0,0
-224,134,0,0,0,0,0,0,0,0,0,-1,1000,890,0,0
-217,134,0,0,0,0,0,0,0,0,0,-1,1007,890,0,0
-210,134,0,0,0,0,0,0,0,0,0,-1,1014,890,0,0
-203,134,0,0,0,0,0,0,0,0,0,-1,1021,890,0,0
-196,134,0,0,0,0,0,0,0,0,0,-1,1028,890,0,0
-189,134,0,0,0,0,0,0,0,0,0,-1,1035,890,0,0
-182,134,0,0,0,0,0,0,0,0,0,-1,1042,890,0,0
-175,134,0,0,0,0,0,0,0,0,0,-1,1049,890,0,0
-168,134,0,0,0,0,0,0,0,0,0,-1,1056,890,0,0
-161,134,0,0,0,0,0,0,0,0,0,-1,1063,890,0,0
-154,134,0,0,0,0,0,0,0,0,0,-1,1070,890,0,0
-147,134,0,0,0,0,0,0,0,0,0,-1,1077,890,0,0
-140,134,0,0,0,0,0,0,0,0,0,-1,1084,890,0,0
-133,134,0,0,0,0,0,0,0,0,0,-1,1091,890,0,0
-126,134,0,0,0,0,0,0,0,0,0,-1,1098,890,0,0
-119,134,0,0,0,0,0,0,0,0,0,-1,1105,890,0,0
-112,134,0,0,0,0,0,0,0,0,0,-1,1112,890,0,0
-105,134,0,0,0,0,0,0,0,0,0,-1,1119,890,0,0
-98,134,0,0,0,0,0,0,0,0,0,-1,1126,890,0,0
-91,134,0,0,0,0,0,0,0,0,0,-1,1133,890,0,0
-84,134,0,0,0,0,0,0,0,0,0,-1,1140,890,0,0
-77,134,0,0,0,0,0,0,0,0,0,-1,1147,890,0,0
-70,134,0,0,0,0,0,0,0,0,0,-1,1154,890,0,0
-63,134,0,0,0,0,0,0,0,0,0,-1,1161,890,0,0
-56,134,0,0,0,0,0,0,0,0,0,-1,1168,890,0,0
-49,134,0,0,0,0,0,0,0,0,0,-1,1175,890,0,0
-42,134,0,0,0,0,0,0,0,0,0,-1,1182,890,0,0
-35,134,0,0,0,0,0,0,0,0,0,-1,1189,890,0,0
-28,134,0,0,0,0,0,0,0,0,0,-1,1196,890,0,0
-21,134,0,0,0,0,0,0,0,0,0,-1,1203,890,0,0
-14,134,0,0,0,0,0,0,0,0,0,-1,1210,890,0,0
-7,134,0,0,0,0,0,0,0,0,0,-1,1217,890,0,0
0,134,0,0,0,0,0,0,0,0,0,-1,1224,890,0,0
7,134,0,0,0,0,0,0,0,0,0,-1,1231,890,0,0
14,134,0,0,0,0,0,0,0,0,0,-1,1238,890,0,0
21,134,0,0,0,0,0,0,0,0,0,-1,1245,890,0,0
28,134,0,0,0,0,0,0,0,0,0,-1,1252,890,0,0
35,134,0,0,0,0,0,0,0,0,0,-1,1259,890,0,0
42,134,0,0,0,0,0,0,0,0,0,-1,1266,890,0,0
49,134,0,0,0,0,0,0,0,0,0,-1,1273,890,0,0
56,134,0,0,0,0,0,0,0,0,0,-1,1280,890,0,0
63,134,0,0,0,0,0,0,0,0,0,-1,1287,890,0,0
70,134,0,0,0,0,0,0,0,0,0,-1,1294,890,0,0
77,134,0,0,0,0,0,0,0,0,0,-1,1301,890,0,0
84,134,0,0,0,0,0,0,0,0,0,-1,1308,890,0,0
91,134,0,0,0,0,0,0,0,0,0,-1,1315,890,0,0
98,134,0,0,0,0,0,0,0,0,0,-1,1322,890,0,0
105,134,0,0,0,0,0,0,0,0,0,-1,1329,890,0,0
112,134,0,0,0,0,0,0,0,0,0,-1,1336,890,0,0
119,134,0,0,0,0,0,0,0,0,0,-1,1343,890,0,0
126,134,0,0,0,0,0,0,0,0,0,-1,1350,890,0,0
133,134,0,0,0,0,0,0,0,0,0,-1,1357,890,0,0
140,134,0,0,0,0,0,0,0,0,0,-1,1364,890,0,0
147,134,0,0,0,0,0,0,0,0,0,-1,1371,890,0,0
154,134,0,0,0,0,0,0,0,0,0,-1,1378,890,0,0
161,134,0,0,0,0,0,0,0,0,0,-1,1385,890,0,0
168,134,0,0,0,0,0,0,0,0,0,-1,1392,890,0,0
175,134,0,0,0,0,0,0,0,0,0,-1,1399,890,0,0
182,134,0,0,0,0,0,0,0,0,0,-1,1406,890,0,0
189,134,0,0,0,0,0,0,0,0,0,-1,1413,890,0,0
196,134,0,0,0,0,0,0,0,0,0,-1,1420,890,0,0
203,134,0,0,0,0,0,0,0,0,0,-1,1427,890,0,0
210,134,0,0,0,0,0,0,0,0,0,-1,1434,890,0,0
217,134,0,0,0,0,0,0,0,0,0,-1,1441,890,0,0
224,134,0,0,0,0,0,0,0,0,0,-1,1448,890,0,0
231,134,0,0,0,0,0,0,0,0,0,-1,1455,890,0,0
238,134,0,0,0,0,0,0,0,0,0,-1,1462,890,0,0
245,134,0,0,0,0,0,0,0,0,0,-1,1469,890,0,0
252,134,0,0,0,0,0,0,0,0,0,-1,1476,890,0,0
259,134,0,0,0,0,0,0,0,0,0,-1,1483,890,0,0
266,134,0,0,0,0,0,0,0,0,0,-1,1490,890,0,0
273,134,0,0,0,0,0,0,0,0,0,-1,1497,890,0,0
280,134,0,0,0,0,0,0,0,0,0,-1,1504,890,0,0
287,134,0,0,0,0,0,0,0,0,0,-1,1511,890,0,0
294,134,0,0,0,0,0,0,0,0,0,-1,1518,890,0,0
301,134,0,0,0,0,0,0,0,0,0,-1,1525,890,0,0
308,134,0,0,0,0,0,0,0,0,0,-1,1532,890,0,0
315,134,0,0,0,0,0,0,0,0,0,-1,1539,890,0,0
322,134,0,0,0,0,0,0,0,0,0,-1,1546,890,0,0
329,134,0,0,0,0,0,0,0,0,0,-1,1553,890,0,0
336,134,0,0,0,0,0,0,0,0,0,-1,1560,890,0,0
343,134,0,0,0,0,0,0,0,0,0,-1,1567,890,0,0
350,134,0,0,0,0,0,0,0,0,0,-1,1574,890,0,0
357,134,0,0,0,0,0,0,0,0,0,-1,1581,890,0,0
364,134,0,0,0,0,0,0,0,0,0,-1,1588,890,0,0
371,134,0,0,0,0,0,0,0,0,0,-1,1595,890,0,0
378,134,0,0,0,0,0,0,0,0,0,-1,1602,890,0,0
385,134,0,0,0,0,0,0,0,0,0,-1,1609,890,0,0
392,134,0,0,0,0,0,0,0,0,0,-1,1616,890,0,0
399,134,0,0,0,0,0,0,0,0,0,-1,1623,890,0,0
406,134,0,0,0,0,0,0,0,0,0,-1,1630,890,0,0
413,134,0,0,0,0,0,0,0,0,0,-1,1637,890,0,0
420,134,0,0,0,0,0,0,0,0,0,-1,1644,890,0,0
427,134,0,0,0,0,0,0,0,0,0,-1,1651,890,0,0
434,134,0,0,0,0,0,0,0,0,0,-1,1658,890,0,0
441,134,0,0,0,0,0,0,0,0,0,-1,1665,890,0,0
448,134,0,0,0,0,0,0,0,0,0,-1,1672,890,0,0
455,134,0,0,0,0,0,0,0,0,0,-1,1679,890,0,0
462,134,0,0,0,0,0,0,0,0,0,-1,1686,890,0,0
469,134,0,0,0,0,0,0,0,0,0,-1,1693,890,0,0
476,134,0,0,0,0,0,0,0,0,0,-1,1700,890,0,0
483,134,0,0,0,0,0,0,0,0,0,-1,1707,890,0,0
490,134,0,0,0,0,0,0,0,0,0,-1,1714,890,0,0
497,134,0,0,0,0,0,0,0,0,0,-1,1721,890,0,0
504,134,0,0,0,0,0,0,0,0,0,-1,1728,890,0,0
511,134,0,0,0,0,0,0,0,0,0,-1,1735,890,0,0
518,134,0,0,0,0,0,0,0,0,0,-1,1742,890,0,0
525,134,0,0,0,0,0,0,0,0,0,-1,1749,890,0,0
532,134,0,0,0,0,0,0,0,0,0,-1,1756,890,0,0
539,134,0,0,0,0,0,0,0,0,0,-1,1763,890,0,0
546,134,0,0,0,0,0,0,0,0,0,-1,1770,890,0,0
553,134,0,0,0,0,0,0,0,0,0,-1,1777,890,0,0
560,134,0,0,0,0,0,0,0,0,0,-1,1784,890,0,0
567,134,0,0,0,0,0,0,0,0,0,-1,1791,890,0,0
574,134,0,0,0,0,0,0,0,0,0,-1,1798,890,0,0
581,134,0,0,0,0,0,0,0,0,0,-1,1805,890,0,0
588,134,0,0,0,0,0,0,0,0,0,-1,1812,890,0,0
595,134,0,0,0,0,0,0,0,0,0,-1,1819,890,0,0
602,134,0,0,0,0,0,0,0,0,0,-1,1826,890,0,0
609,134,0,0,0,0,0,0,0,0,0,-1,1833,890,0,0
616,134,0,0,0,0,0,0,0,0,0,-1,1840,890,0,0
623,134,23.8423,2.74854,0.00197152,0.000883357,0.0025935,0.00407739,-0.00122251,0.682004,0.00320447,0.045588,1847,890,23.8423,-2.74855
630,134,23.7693,2.797,0.00161887,0.000521299,0.00133348,0.00251207,-0.000371903,0.590189,0.00181145,0.0458032,1854,890,23.7693,-2.79701
637,134,23.9188,2.86859,0.00146885,0.00024423,0.000395639,0.00158555,0.000127532,0.286828,0.00101719,0.0422574,1861,890,23.9188,-2.86859
644,134,23.9495,2.92804,0.00118422,-0.000135092,-0.000342291,0.00126774,-0.000218611,-0.239324,0.000926665,0.0384427,1868,890,23.9494,-2.92803
651,134,23.9541,2.91943,-0.00024306,-0.000447052,-0.00102895,0.00068894,-0.00137905,-0.735996,0.00121591,0.03929,1875,890,23.9541,-2.91944
658,134,23.8745,2.90051,-0.00208496,-0.000653341,-0.00154799,0.00033633,-0.00307463,-1.00196,0.00217057,0.0370463,1882,890,23.8745,-2.90054
665,134,23.8103,2.79688,-0.0036727,-0.000814733,-0.00186142,0.000102959,-0.00459039,-1.11276,0.00309515,0.0314953,1889,890,23.8104,-2.79687
672,134,23.8412,2.70892,-0.0050719,-0.000901218,-0.00206085,-5.47091e-05,-0.00591841,-1.18105,0.0039275,0.0210893,1896,890,23.8412,-2.70895
679,134,23.8479,2.68054,-0.00601401,-0.00100829,-0.00223964,-0.000152542,-0.00686977,-1.20582,0.00452985,0.0167079,1903,890,23.8479,-2.68053
686,134,23.8621,2.69006,0,0,0,0,0,0,0,-1,1910,890,23.8621,-2.69005
693,134,20.7551,2.85449,0,0,0,0,0,0,0,-1,1917,890,20.7551,-2.8545
700,134,20.7684,2.95648,-0.00790081,-0.000623382,-0.00222449,2.71481e-06,-0.0085269,-1.29644,0.00568551,0.0225257,1924,890,20.7685,-2.95649
707,134,20.6351,3.0509,-0.00769177,-0.000422943,-0.00200173,9.1848e-05,-0.00820656,-1.31908,0.00550191,0.0198988,1931,890,20.6351,-3.05088
714,134,20.6781,3.32538,-0.00659784,-3.16922e-05,-0.00174181,0.000401747,-0.00703128,-1.32691,0.00482701,0.0183943,1938,890,20.6782,-3.32538
721,134,20.8301,3.59308,-0.00401878,0.000364534,-0.00152629,0.000843631,-0.00449788,-1.26664,0.00331577,0.015219,1945,890,20.83,-3.59307
728,134,20.8602,3.7912,-0.000393498,0.00231361,-0.00172879,0.00315569,-0.00123558,-1.11753,0.00261484,0.015129,1952,890,20.8602,-3.79118
735,134,20.8462,4.00305,0.00404741,0.00356147,-0.00129611,0.00512312,0.00248575,-0.692744,0.00295827,0.021435,1959,890,20.8462,-4.00304
742,134,20.8123,4.20026,0.00941976,0.00523643,-0.0010375,0.00966293,0.00499326,-0.230227,0.00557994,0.0158946,1966,890,20.8123,-4.20028
749,134,20.8158,4.38715,0.0160258,0.00755132,-0.000885063,0.0161172,0.00745987,-0.102959,0.00931384,0.0136004,1973,890,20.8158,-4.38716
756,134,20.7802,4.5899,0.023152,0.0102526,-0.000825073,0.0232046,0.0102001,-0.0636167,0.0134297,0.0173997,1980,890,20.7802,-4.5899
763,134,20.811,4.76013,0.0309805,0.0133936,-0.000758735,0.0310132,0.0133609,-0.0430353,0.0179625,0.0357153,1987,890,20.811,-4.76015
770,134,21.6667,4.76074,0.0400361,0.0168073,-0.000415575,0.0400436,0.0167998,-0.0178828,0.0232187,0.041022,1994,890,21.6668,-4.76077
777,134,22.681,4.65613,0,0,0,0,0,0,0,-1,2001,890,22.681,-4.65613
784,134,23.6473,4.10773,0,0,0,0,0,0,0,-1,2008,890,23.6473,-4.10773
791,134,24.5176,4.13177,0,0,0,0,0,0,0,-1,2015,890,24.5176,-4.13179
798,134,0,0,0,0,0,0,0,0,0,-1,2022,890,0,0
805,134,0,0,0,0,0,0,0,0,0,-1,2029,890,0,0
812,134,0,0,0,0,0,0,0,0,0,-1,2036,890,0,0
-700,127,0,0,0,0,0,0,0,0,0,-1,524,897,0,0
-693,127,0,0,0,0,0,0,0,0,0,-1,531,897,0,0
-686,127,0,0,0,0,0,0,0,0,0,-1,538,897,0,0
-679,127,-18.5373,3.19537,0.0605432,0.0154066,0.0209516,0.0687694,0.00718046,0.374133,0.0436501,0.0425701,545,897,-18.5373,-3.19535
-672,127,-18.2416,3.01837,0.0651187,-0.000936497,0.0261635,0.074226,-0.0100438,0.334974,0.0531492,0.0458604,552,897,-18.2416,-3.01834
-665,127,-17.8763,2.89948,0.0628543,-0.0098405,0.0268186,0.0716774,-0.0186636,0.317837,0.0550706,0.0446891,559,897,-17.8763,-2.8995
-658,127,-17.6389,2.82617,0.0573537,-0.0138392,0.0251609,0.0653483,-0.0218338,0.30765,0.0523829,0.0441752,566,897,-17.6389,-2.82616
-651,127,-17.0225,2.77606,0.050359,-0.0148466,0.022346,0.0572819,-0.0217696,0.30043,0.0471505,0.044343,573,897,-17.0225,-2.77604
-644,127,-16.0175,2.50775,0.0427099,-0.0140224,0.0190291,0.0485014,-0.0198139,0.295442,0.0405845,0.0458028,580,897,-16.0175,-2.50774
-637,127,-14.9456,2.23218,0.0348995,-0.0121542,0.0155919,0.0395971,-0.0168518,0.292635,0.0334611,0.0463699,587,897,-14.9456,-2.23218
-630,127,-14.2167,2.09796,0.0272673,-0.0098528,0.0123286,0.0309889,-0.0135743,0.293165,0.0263753,0.0325245,594,897,-14.2167,-2.09795
-623,127,-14.2293,2.03607,0.0204951,-0.00789556,0.00968697,0.0234853,-0.0108858,0.29941,0.0202838,0.0128519,601,897,-14.2293,-2.03605
-616,127,-14.2682,1.91736,0.0141978,-0.00690635,0.00723841,0.0164419,-0.0091504,0.300623,0.0149743,0.00980039,608,897,-14.2682,-1.91737
-609,127,-14.2839,1.74493,0.00823808,-0.00404888,0.00448557,0.00970135,-0.00551215,0.315333,0.00889382,0.0129132,615,897,-14.2839,-1.74492
-602,127,-14.2796,1.57068,0.0028877,-0.00223173,0.00281419,0.00413217,-0.0034762,0.416358,0.00439814,0.014082,622,897,-14.2796,-1.57065
-595,127,-14.2623,1.41235,-0.00124022,-0.000843284,0.00182689,0.00079589,-0.00287939,0.839504,0.00223269,0.015126,629,897,-14.2623,-1.41233
-588,127,-14.3511,1.27795,-0.00336288,-0.000743362,0.00175503,0.000136762,-0.004243,1.10596,0.00287534,0.0198286,636,897,-14.3511,-1.27794
-581,127,-14.4185,1.03369,-0.00461417,-0.00117345,0.00180669,-0.000399057,-0.00538856,1.16586,0.00346701,0.0299928,643,897,-14.4185,-1.0337
-574,127,-14.4016,0.831177,-0.00525499,-0.00150744,0.00186796,-0.00073541,-0.00602703,1.17887,0.0037967,0.0277804,650,897,-14.4016,-0.831183
-567,127,-14.299,0.635071,-0.00540223,-0.00172873,0.00197232,-0.000870352,-0.00626061,1.16031,0.003916,0.0484896,657,897,-14.299,-0.635052
-560,127,-14.8321,0.536255,0,0,0,0,0,0,0,-1,664,897,-14.8321,-0.53626
-553,127,-16.3286,0.834106,-0.00497935,-0.00205991,0.00218391,-0.000892797,-0.00614646,1.08,0.00383484,0.0441527,671,897,-16.3286,-0.834108
-546,127,-16.3102,0.875122,-0.0044128,-0.00207621,0.00219149,-0.000761056,-0.00572795,1.03029,0.00359193,0.0243716,678,897,-16.3102,-0.875098
-539,127,-16.3142,0.861755,-0.00352828,-0.00196917,0.00206163,-0.00054463,-0.00495282,0.966153,0.00313614,0.020511,685,897,-16.3142,-0.861762
-532,127,-16.296,0.869446,-0.00236145,-0.00172474,0.00176055,-0.000253995,-0.0038322,0.874845,0.00247448,0.0162535,692,897,-16.2959,-0.869448
-525,127,-16.3401,0.942017,-0.000912121,-0.0013264,0.00119005,8.86875e-05,-0.0023272,0.699233,0.00158186,0.0319523,699,897,-16.3401,-0.94203
-518,127,-16.358,1.09424,0.000802915,-0.000725623,0.000264062,0.000847247,-0.000769955,0.166334,0.000934048,0.0403895,706,897,-16.358,-1.09425
-511,127,-16.5085,1.1792,0.00186344,0.000367173,-0.00102357,0.00238314,-0.000152524,-0.469813,0.00164196,0.0434809,713,897,-16.5086,-1.17919
-504,127,0,0,0,0,0,0,0,0,0,-1,720,897,0,0
-497,127,0,0,0,0,0,0,0,0,0,-1,727,897,0,0
-490,127,0,0,0,0,0,0,0,0,0,-1,734,897,0,0
-483,127,0,0,0,0,0,0,0,0,0,-1,741,897,0,0
-476,127,0,0,0,0,0,0,0,0,0,-1,748,897,0,0
-469,127,0,0,0,0,0,0,0,0,0,-1,755,897,0,0
-462,127,0,0,0,0,0,0,0,0,0,-1,762,897,0,0
-455,127,0,0,0,0,0,0,0,0,0,-1,769,897,0,0
-448,127,0,0,0,0,0,0,0,0,0,-1,776,897,0,0
-441,127,0,0,0,0,0,0,0,0,0,-1,783,897,0,0
-434,127,0,0,0,0,0,0,0,0,0,-1,790,897,0,0
-427,127,0,0,0,0,0,0,0,0,0,-1,797,897,0,0
-420,127,0,0,0,0,0,0,0,0,0,-1,804,897,0,0
-413,127,0,0,0,0,0,0,0,0,0,-1,811,897,0,0
-406,127,0,0,0,0,0,0,0,0,0,-1,818,897,0,0
-399,127,0,0,0,0,0,0,0,0,0,-1,825,897,0,0
-392,127,0,0,0,0,0,0,0,0,0,-1,832,897,0,0
-385,127,0,0,0,0,0,0,0,0,0,-1,839,897,0,0
-378,127,0,0,0,0,0,0,0,0,0,-1,846,897,0,0
-371,127,0,0,0,0,0,0,0,0,0,-1,853,897,0,0
-364,127,0,0,0,0,0,0,0,0,0,-1,860,897,0,0
-357,127,0,0,0,0,0,0,0,0,0,-1,867,897,0,0
-350,127,0,0,0,0,0,0,0,0,0,-1,874,897,0,0
-343,127,0,0,0,0,0,0,0,0,0,-1,881,897,0,0
-336,127,0,0,0,0,0,0,0,0,0,-1,888,897,0,0
-329,127,0,0,0,0,0,0,0,0,0,-1,895,897,0,0
-322,127,0,0,0,0,0,0,0,0,0,-1,902,897,0,0
-315,127,0,0,0,0,0,0,0,0,0,-1,909,897,0,0
-308,127,0,0,0,0,0,0,0,0,0,-1,916,897,0,0
-301,127,0,0,0,0,0,0,0,0,0,-1,923,897,0,0
-294,127,0,0,0,0,0,0,0,0,0,-1,930,897,0,0
-287,127,0,0,0,0,0,0,0,0,0,-1,937,897,0,0
-280,127,0,0,0,0,0,0,0,0,0,-1,944,897,0,0
-273,127,0,0,0,0,0,0,0,0,0,-1,951,897,0,0
-266,127,0,0,0,0,0,0,0,0,0,-1,958,897,0,0
-259,127,0,0,0,0,0,0,0,0,0,-1,965,897,0,0
-252,127,0,0,0,0,0,0,0,0,0,-1,972,897,0,0
-245,127,0,0,0,0,0,0,0,0,0,-1,979,897,0,0
-238,127,0,0,0,0,0,0,0,0,0,-1,986,897,0,0
-231,127,0,0,0,0,0,0,0,0,0,-1,993,897,0,0
-224,127,0,0,0,0,0,0,0,0,0,-1,1000,897,0,0
-217,127,0,0,0,0,0,0,0,0,0,-1,1007,897,0,0
-210,127,0,0,0,0,0,0,0,0,0,-1,1014,897,0,0
-203,127,0,0,0,0,0,0,0,0,0,-1,1021,897,0,0
-196,127,0,0,0,0,0,0,0,0,0,-1,1028,897,0,0
-189,127,0,0,0,0,0,0,0,0,0,-1,1035,897,0,0
-182,127,0,0,0,0,0,0,0,0,0,-1,1042,897,0,0
-175,127,0,0,0,0,0,0,0,0,0,-1,1049,897,0,0
-168,127,0,0,0,0,0,0,0,0,0,-1,1056,897,0,0
-161,127,0,0,0,0,0,0,0,0,0,-1,1063,897,0,0
-154,127,0,0,0,0,0,0,0,0,0,-1,1070,897,0,0
-147,127,0,0,0,0,0,0,0,0,0,-1,1077,897,0,0
-140,127,0,0,0,0,0,0,0,0,0,-1,1084,897,0,0
-133,127,0,0,0,0,0,0,0,0,0,-1,1091,897,0,0
-126,127,0,0,0,0,0,0,0,0,0,-1,1098,897,0,0
-119,127,0,0,0,0,0,0,0,0,0,-1,1105,897,0,0
-112,127,0,0,0,0,0,0,0,0,0,-1,1112,897,0,0
-105,127,0,0,0,0,0,0,0,0,0,-1,1119,897,0,0
-98,127,0,0,0,0,0,0,0,0,0,-1,1126,897,0,0
-91,127,0,0,0,0,0,0,0,0,0,-1,1133,897,0,0
-84,127,0,0,0,0,0,0,0,0,0,-1,1140,897,0,0
-77,127,0,0,0,0,0,0,0,0,0,-1,1147,897,0,0
-70,127,0,0,0,0,0,0,0,0,0,-1,1154,897,0,0
-63,127,0,0,0,0,0,0,0,0,0,-1,1161,897,0,0
-56,127,0,0,0,0,0,0,0,0,0,-1,1168,897,0,0
-49,127,0,0,0,0,0,0,0,0,0,-1,1175,897,0,0
-42,127,0,0,0,0,0,0,0,0,0,-1,1182,897,0,0
-35,127,0,0,0,0,0,0,0,0,0,-1,1189,897,0,0
-28,127,0,0,0,0,0,0,0,0,0,-1,1196,897,0,0
-21,127,0,0,0,0,0,0,0,0,0,-1,1203,897,0,0
-14,127,0,0,0,0,0,0,0,0,0,-1,1210,897,0,0
-7,127,0,0,0,0,0,0,0,0,0,-1,1217,897,0,0
0,127,0,0,0,0,0,0,0,0,0,-1,1224,897,0,0
7,127,0,0,0,0,0,0,0,0,0,-1,1231,897,0,0
14,127,0,0,0,0,0,0,0,0,0,-1,1238,897,0,0
21,127,0,0,0,0,0,0,0,0,0,-1,1245,897,0,0
28,127,0,0,0,0,0,0,0,0,0,-1,1252,897,0,0
35,127,0,0,0,0,0,0,0,0,0,-1,1259,897,0,0
42,127,0,0,0,0,0,0,0,0,0,-1,1266,897,0,0
49,127,0,0,0,0,0,0,0,0,0,-1,1273,897,0,0
56,127,0,0,0,0,0,0,0,0,0,-1,1280,897,0,0
63,127,0,0,0,0,0,0,0,0,0,-1,1287,897,0,0
70,127,0,0,0,0,0,0,0,0,0,-1,1294,897,0,0
77,127,0,0,0,0,0,0,0,0,0,-1,1301,897,0,0
84,127,0,0,0,0,0,0,0,0,0,-1,1308,897,0,0
91,127,0,0,0,0,0,0,0,0,0,-1,1315,897,0,0
98,127,0,0,0,0,0,0,0,0,0,-1,1322,897,0,0
105,127,0,0,0,0,0,0,0,0,0,-1,1329,897,0,0
112,127,0,0,0,0,0,0,0,0,0,-1,1336,897,0,0
119,127,0,0,0,0,0,0,0,0,0,-1,1343,897,0,0
126,127,0,0,0,0,0,0,0,0,0,-1,1350,897,0,0
133,127,0,0,0,0,0,0,0,0,0,-1,1357,897,0,0
140,127,0,0,0,0,0,0,0,0,0,-1,1364,897,0,0
147,127,0,0,0,0,0,0,0,0,0,-1,1371,897,0,0
154,127,0,0,0,0,0,0,0,0,0,-1,1378,897,0,0
161,127,0,0,0,0,0,0,0,0,0,-1,1385,897,0,0
168,127,0,0,0,0,0,0,0,0,0,-1,1392,897,0,0
175,127,0,0,0,0,0,0,0,0,0,-1,1399,897,0,0
182,127,0,0,0,0,0,0,0,0,0,-1,1406,897,0,0
189,127,0,0,0,0,0,0,0,0,0,-1,1413,897,0,0
196,127,0,0,0,0,0,0,0,0,0,-1,1420,897,0,0
203,127,0,0,0,0,0,0,0,0,0,-1,1427,897,0,0
210,127,0,0,0,0,0,0,0,0,0,-1,1434,897,0,0
217,127,0,0,0,0,0,0,0,0,0,-1,1441,897,0,0
224,127,0,0,0,0,0,0,0,0,0,-1,1448,897,0,0
231,127,0,0,0,0,0,0,0,0,0,-1,1455,897,0,0
238,127,0,0,0,0,0,0,0,0,0,-1,1462,897,0,0
245,127,0,0,0,0,0,0,0,0,0,-1,1469,897,0,0
252,127,0,0,0,0,0,0,0,0,0,-1,1476,897,0,0
259,127,0,0,0,0,0,0,0,0,0,-1,1483,897,0,0
266,127,0,0,0,0,0,0,0,0,0,-1,1490,897,0,0
273,127,0,0,0,0,0,0,0,0,0,-1,1497,897,0,0
280,127,0,0,0,0,0,0,0,0,0,-1,1504,897,0,0
287,127,0,0,0,0,0,0,0,0,0,-1,1511,897,0,0
294,127,0,0,0,0,0,0,0,0,0,-1,1518,897,0,0
301,127,0,0,0,0,0,0,0,0,0,-1,1525,897,0,0
308,127,0,0,0,0,0,0,0,0,0,-1,1532,897,0,0
315,127,0,0,0,0,0,0,0,0,0,-1,1539,897,0,0
322,127,0,0,0,0,0,0,0,0,0,-1,1546,897,0,0
329,127,0,0,0,0,0,0,0,0,0,-1,1553,897,0,0
336,127,0,0,0,0,0,0,0,0,0,-1,1560,897,0,0
343,127,0,0,0,0,0,0,0,0,0,-1,1567,897,0,0
350,127,0,0,0,0,0,0,0,0,0,-1,1574,897,0,0
357,127,0,0,0,0,0,0,0,0,0,-1,1581,897,0,0
364,127,0,0,0,0,0,0,0,0,0,-1,1588,897,0,0
371,127,0,0,0,0,0,0,0,0,0,-1,1595,897,0,0
378,127,0,0,0,0,0,0,0,0,0,-1,1602,897,0,0
385,127,0,0,0,0,0,0,0,0,0,-1,1609,897,0,0
392,127,0,0,0,0,0,0,0,0,0,-1,1616,897,0,0
399,127,0,0,0,0,0,0,0,0,0,-1,1623,897,0,0
406,127,0,0,0,0,0,0,0,0,0,-1,1630,897,0,0
413,127,0,0,0,0,0,0,0,0,0,-1,1637,897,0,0
420,127,0,0,0,0,0,0,0,0,0,-1,1644,897,0,0
427,127,0,0,0,0,0,0,0,0,0,-1,1651,897,0,0
434,127,0,0,0,0,0,0,0,0,0,-1,1658,897,0,0
441,127,0,0,0,0,0,0,0,0,0,-1,1665,897,0,0
448,127,0,0,0,0,0,0,0,0,0,-1,1672,897,0,0
455,127,0,0,0,0,0,0,0,0,0,-1,1679,897,0,0
462,127,0,0,0,0,0,0,0,0,0,-1,1686,897,0,0
469,127,0,0,0,0,0,0,0,0,0,-1,1693,897,0,0
476,127,0,0,0,0,0,0,0,0,0,-1,1700,897,0,0
483,127,0,0,0,0,0,0,0,0,0,-1,1707,897,0,0
490,127,0,0,0,0,0,0,0,0,0,-1,1714,897,0,0
497,127,0,0,0,0,0,0,0,0,0,-1,1721,897,0,0
504,127,0,0,0,0,0,0,0,0,0,-1,1728,897,0,0
511,127,0,0,0,0,0,0,0,0,0,-1,1735,897,0,0
518,127,0,0,0,0,0,0,0,0,0,-1,1742,897,0,0
525,127,0,0,0,0,0,0,0,0,0,-1,1749,897,0,0
532,127,0,0,0,0,0,0,0,0,0,-1,1756,897,0,0
539,127,0,0,0,0,0,0,0,0,0,-1,1763,897,0,0
546,127,0,0,0,0,0,0,0,0,0,-1,1770,897,0,0
553,127,0,0,0,0,0,0,0,0,0,-1,1777,897,0,0
560,127,0,0,0,0,0,0,0,0,0,-1,1784,897,0,0
567,127,0,0,0,0,0,0,0,0,0,-1,1791,897,0,0
574,127,0,0,0,0,0,0,0,0,0,-1,1798,897,0,0
581,127,0,0,0,0,0,0,0,0,0,-1,1805,897,0,0
588,127,0,0,0,0,0,0,0,0,0,-1,1812,897,0,0
595,127,0,0,0,0,0,0,0,0,0,-1,1819,897,0,0
602,127,0,0,0,0,0,0,0,0,0,-1,1826,897,0,0
609,127,0,0,0,0,0,0,0,0,0,-1,1833,897,0,0
616,127,0,0,0,0,0,0,0,0,0,-1,1840,897,0,0
623,127,0,0,0,0,0,0,0,0,0,-1,1847,897,0,0
630,127,23.7908,3.05719,0.00159053,0.000682497,0.000893367,0.00213863,0.000134398,0.550302,0.00138313,0.0425605,1854,897,23.7907,-3.05718
637,127,23.7671,2.9256,0.00141252,0.000578014,1.88868e-05,0.00141295,0.000577587,0.0226169,0.000820277,0.0408751,1861,897,23.7671,-2.92559
644,127,23.7444,3.1344,0.00130512,0.000313822,-0.00061675,0.0016007,1.82386e-05,-0.446918,0.00106111,0.0379576,1868,897,23.7443,-3.13437
651,127,23.7649,3.21191,-0.000162212,4.432e-05,-0.00124577,0.0011911,-0.00130899,-0.82675,0.00144396,0.0403789,1875,897,23.7649,-3.21193
658,127,23.672,3.10492,-0.00227355,-0.0001334,-0.00175193,0.000849409,-0.00325636,-1.05956,0.00250256,0.0431712,1882,897,23.672,-3.10489
665,127,23.7448,2.74487,-0.0041617,-0.000296586,-0.00205916,0.000594844,-0.00505313,-1.16224,0.00358353,0.0378956,1889,897,23.7447,-2.74484
672,127,23.8151,2.6557,-0.00576904,-0.000398577,-0.00224291,0.000414919,-0.00658254,-1.22285,0.004533,0.0299281,1896,897,23.8151,-2.65569
679,127,23.8577,2.67365,-0.00688903,-0.000485479,-0.00240877,0.000319433,-0.00769394,-1.2483,0.00523902,0.0226613,1903,897,23.8576,-2.67363
686,127,23.765,2.68231,0,0,0,0,0,0,0,-1,1910,897,23.765,-2.68229
693,127,22.2856,2.81958,-0.00843814,-0.00038132,-0.00245682,0.00030875,-0.00912821,-1.29697,0.00619096,0.0413234,1917,897,22.2857,-2.81957
700,127,21.0283,2.96313,-0.0089173,-0.000291746,-0.00231256,0.000289143,-0.00949819,-1.3247,0.00643067,0.0318705,1924,897,21.0284,-2.96311
707,127,20.8378,3.08984,-0.00870692,-0.000138761,-0.00208422,0.000341331,-0.00918701,-1.3444,0.00624156,0.0241567,1931,897,20.8378,-3.08986
714,127,20.8955,3.32025,-0.00760525,0.000164792,-0.00183598,0.000576771,-0.00801723,-1.35006,0.00554708,0.0203161,1938,897,20.8955,-3.32026
721,127,21.0768,3.64996,-0.00519486,0.000447513,-0.0016309,0.000884996,-0.00563234,-1.30872,0.004082,0.0148062,1945,897,21.0768,-3.64998
728,127,21.057,3.79425,-0.00198093,0.00203108,-0.00178625,0.0027111,-0.00266096,-1.20704,0.00310161,0.0135961,1952,897,21.057,-3.79427
735,127,21.041,3.98889,0.00190247,0.0029633,-0.00136182,0.00389435,0.000971413,-0.971106,0.00234062,0.0206722,1959,897,21.0411,-3.98892
742,127,21.0341,4.19324,0.00659115,0.00429768,-0.00112916,0.00705376,0.00383507,-0.388837,0.00407767,0.0193446,1966,897,21.0341,-4.19322
749,127,21.0239,4.3681,0.0124199,0.00623838,-0.000934472,0.0125581,0.0061002,-0.146802,0.00725141,0.0137447,1973,897,21.024,-4.36808
756,127,21.0082,4.54486,0.0184356,0.00856927,-0.000807894,0.0185013,0.00850355,-0.0811635,0.0106933,0.0149391,1980,897,21.0081,-4.54488
763,127,20.9834,4.66425,0.0247642,0.0112656,-0.000689811,0.0247994,0.0112305,-0.0509256,0.0143391,0.0205139,1987,897,20.9834,-4.66423
770,127,21.4559,4.60858,0.0319189,0.0142877,-0.000317361,0.0319246,0.014282,-0.0179922,0.0184657,0.0387744,1994,897,21.4559,-4.6086
777,127,22.1646,4.63507,0,0,0,0,0,0,0,-1,2001,897,22.1645,-4.63509
784,127,23.2556,4.72589,0,0,0,0,0,0,0,-1,2008,897,23.2556,-4.72591
791,127,23.9619,4.76556,0,0,0,0,0,0,0,-1,2015,897,23.9619,-4.76555
798,127,0,0,0,0,0,0,0,0,0,-1,2022,897,0,0
805,127,0,0,0,0,0,0,0,0,0,-1,2029,897,0,0
812,127,0,0,0,0,0,0,0,0,0,-1,2036,897,0,0
-700,120,0,0,0,0,0,0,0,0,0,-1,524,904,0,0
-693,120,0,0,0,0,0,0,0,0,0,-1,531,904,0,0
-686,120,0,0,0,0,0,0,0,0,0,-1,538,904,0,0
-679,120,-17.9193,2.90533,0.0751086,0.0284454,0.0222085,0.0839885,0.0195655,0.380371,0.0507438,0.0427198,545,904,-17.9192,-2.90534
-672,120,-17.7815,2.72211,0.0759562,0.0134853,0.0265063,0.085687,0.0037544,0.35184,0.0559153,0.0468227,552,904,-17.7815,-2.72213
-665,120,-18.3051,2.43494,0.0710676,0.0038318,0.0266997,0.0803803,-0.0054809,0.3356,0.0555041,0.0444356,559,904,-18.3051,-2.43494
-658,120,-17.7976,2.86554,0.0635075,-0.00201566,0.0248082,0.0718405,-0.0103487,0.324058,0.0516897,0.0413104,566,904,-17.7976,-2.86553
-651,120,-17.4052,3.02643,0.0548232,-0.00518245,0.0218751,0.0619511,-0.0123103,0.314996,0.0459571,0.0433136,573,904,-17.4052,-3.02643
-644,120,-16.4369,2.70917,0.045794,-0.00645875,0.0185101,0.0516866,-0.0123513,0.308198,0.0392284,0.0448457,580,904,-16.4369,-2.70919
-637,120,-15.44,2.28967,0.0369053,-0.00646683,0.0150702,0.0416275,-0.0111891,0.303657,0.0321373,0.0405076,587,904,-15.44,-2.28967
-630,120,-14.5135,2.07361,0.0284459,-0.00571313,0.0119242,0.0321965,-0.00946379,0.304744,0.025218,0.022566,594,904,-14.5136,-2.0736
-623,120,-14.4621,2.02222,0.020969,-0.00496355,0.00925918,0.0239356,-0.00793015,0.310062,0.0191557,0.0099836,601,904,-14.4621,-2.02219
-616,120,-14.4536,1.88715,0.0139728,-0.00537154,0.00681258,0.0161312,-0.00752992,0.306819,0.0139584,0.0101672,608,904,-14.4535,-1.88716
-609,120,-14.4492,1.72748,0.00751767,-0.00328796,0.00407571,0.00888256,-0.00465285,0.323146,0.00794084,0.0129533,615,904,-14.4492,-1.72746
-602,120,-14.4622,1.57996,0.00204841,-0.00181398,0.00250088,0.00327695,-0.00304251,0.456617,0.00364938,0.0131363,622,904,-14.4622,-1.57993
-595,120,-14.4416,1.43292,-0.00214005,-0.000681821,0.00157137,0.000321353,-0.00314323,1.00262,0.0022104,0.0184557,629,904,-14.4416,-1.43295
-588,120,-14.4781,1.25049,-0.00427963,-0.000658783,0.0015233,-0.00010318,-0.00483523,1.22105,0.00318965,0.0233553,636,904,-14.4781,-1.25046
-581,120,-14.6221,1.06244,-0.00549336,-0.00102107,0.0015531,-0.000534632,-0.0059798,1.26727,0.00382081,0.0293637,643,904,-14.6221,-1.06242
-574,120,-14.5063,0.822449,-0.00603462,-0.00127167,0.00160341,-0.000782192,-0.00652409,1.27451,0.00411353,0.0230746,650,904,-14.5063,-0.822466
-567,120,-14.5384,0.770081,0,0,0,0,0,0,0,-1,657,904,-14.5384,-0.770079
-560,120,-16.2836,0.912781,0,0,0,0,0,0,0,-1,664,904,-16.2836,-0.912779
-553,120,-16.2479,1.00195,-0.00539251,-0.0015829,0.00185334,-0.000830044,-0.00614537,1.18494,0.00385017,0.0420116,671,904,-16.2479,-1.00196
-546,120,-16.2165,1.04236,-0.00455366,-0.00149616,0.00184941,-0.000625457,-0.00542437,1.13078,0.00342684,0.0333612,678,904,-16.2165,-1.04238
-539,120,-16.2511,0.923096,-0.00331917,-0.00128299,0.00170492,-0.000315313,-0.00428685,1.05456,0.00275881,0.0250033,685,904,-16.2511,-0.92312
-532,120,-16.1918,0.858765,-0.00173322,-0.000929629,0.00137222,9.84085e-05,-0.00276125,0.92782,0.0018745,0.0260094,692,904,-16.1918,-0.858786
-525,120,-16.2472,0.869263,0.000194505,-0.000421598,0.000721455,0.000670923,-0.000898016,0.583622,0.000908985,0.0332973,699,904,-16.2472,-0.869256
-518,120,-16.3204,0.933167,0.00221077,0.000292663,-0.000350713,0.00227288,0.000230549,-0.17529,0.00144455,0.0386886,706,904,-16.3204,-0.933174
-511,120,-16.465,1.15918,0.00302018,0.00154212,-0.00184055,0.00426453,0.000297767,-0.594488,0.00274914,0.0412681,713,904,-16.465,-1.15917
-504,120,0,0,0,0,0,0,0,0,0,-1,720,904,0,0
-497,120,0,0,0,0,0,0,0,0,0,-1,727,904,0,0
-490,120,0,0,0,0,0,0,0,0,0,-1,734,904,0,0
-483,120,0,0,0,0,0,0,0,0,0,-1,741,904,0,0
-476,120,0,0,0,0,0,0,0,0,0,-1,748,904,0,0
-469,120,0,0,0,0,0,0,0,0,0,-1,755,904,0,0
-462,120,0,0,0,0,0,0,0,0,0,-1,762,904,0,0
-455,120,0,0,0,0,0,0,0,0,0,-1,769,904,0,0
-448,120,0,0,0,0,0,0,0,0,0,-1,776,904,0,0
-441,120,0,0,0,0,0,0,0,0,0,-1,783,904,0,0
-434,120,0,0,0,0,0,0,0,0,0,-1,790,904,0,0
-427,120,0,0,0,0,0,0,0,0,0,-1,797,904,0,0
-420,120,0,0,0,0,0,0,0,0,0,-1,804,904,0,0
-413,120,0,0,0,0,0,0,0,0,0,-1,811,904,0,0
-406,120,0,0,0,0,0,0,0,0,0,-1,818,904,0,0
-399,120,0,0,0,0,0,0,0,0,0,-1,825,904,0,0
-392,120,0,0,0,0,0,0,0,0,0,-1,832,904,0,0
-385,120,0,0,0,0,0,0,0,0,0,-1,839,904,0,0
-378,120,0,0,0,0,0,0,0,0,0,-1,846,904,0,0
-371,120,0,0,0,0,0,0,0,0,0,-1,853,904,0,0
-364,120,0,0,0,0,0,0,0,0,0,-1,860,904,0,0
-357,120,0,0,0,0,0,0,0,0,0,-1,867,904,0,0
-350,120,0,0,0,0,0,0,0,0,0,-1,874,904,0,0
-343,120,0,0,0,0,0,0,0,0,0,-1,881,904,0,0
-336,120,0,0,0,0,0,0,0,0,0,-1,888,904,0,0
-329,120,0,0,0,0,0,0,0,0,0,-1,895,904,0,0
-322,120,0,0,0,0,0,0,0,0,0,-1,902,904,0,0
-315,120,0,0,0,0,0,0,0,0,0,-1,909,904,0,0
-308,120,0,0,0,0,0,0,0,0,0,-1,916,904,0,0
-301,120,0,0,0,0,0,0,0,0,0,-1,923,904,0,0
-294,120,0,0,0,0,0,0,0,0,0,-1,930,904,0,0
-287,120,0,0,0,0,0,0,0,0,0,-1,937,904,0,0
-280,120,0,0,0,0,0,0,0,0,0,-1,944,904,0,0
-273,120,0,0,0,0,0,0,0,0,0,-1,951,904,0,0
-266,120,0,0,0,0,0,0,0,0,0,-1,958,904,0,0
-259,120,0,0,0,0,0,0,0,0,0,-1,965,904,0,0
-252,120,0,0,0,0,0,0,0,0,0,-1,972,904,0,0
-245,120,0,0,0,0,0,0,0,0,0,-1,979,904,0,0
-238,120,0,0,0,0,0,0,0,0,0,-1,986,904,0,0
-231,120,0,0,0,0,0,0,0,0,0,-1,993,904,0,0
-224,120,0,0,0,0,0,0,0,0,0,-1,1000,904,0,0
-217,120,0,0,0,0,0,0,0,0,0,-1,1007,904,0,0
-210,120,0,0,0,0,0,0,0,0,0,-1,1014,904,0,0
-203,120,0,0,0,0,0,0,0,0,0,-1,1021,904,0,0
-196,120,0,0,0,0,0,0,0,0,0,-1,1028,904,0,0
-189,120,0,0,0,0,0,0,0,0,0,-1,1035,904,0,0
-182,120,0,0,0,0,0,0,0,0,0,-1,1042,904,0,0
-175,120,0,0,0,0,0,0,0,0,0,-1,1049,904,0,0
-168,120,0,0,0,0,0,0,0,0,0,-1,1056,904,0,0
-161,120,0,0,0,0,0,0,0,0,0,-1,1063,904,0,0
-154,120,0,0,0,0,0,0,0,0,0,-1,1070,904,0,0
-147,120,0,0,0,0,0,0,0,0,0,-1,1077,904,0,0
-140,120,0,0,0,0,0,0,0,0,0,-1,1084,904,0,0
-133,120,0,0,0,0,0,0,0,0,0,-1,1091,904,0,0
-126,120,0,0,0,0,0,0,0,0,0,-1,1098,904,0,0
-119,120,0,0,0,0,0,0,0,0,0,-1,1105,904,0,0
-112,120,0,0,0,0,0,0,0,0,0,-1,1112,904,0,0
-105,120,0,0,0,0,0,0,0,0,0,-1,1119,904,0,0
-98,120,0,0,0,0,0,0,0,0,0,-1,1126,904,0,0
-91,120,0,0,0,0,0,0,0,0,0,-1,1133,904,0,0
-84,120,0,0,0,0,0,0,0,0,0,-1,1140,904,0,0
-77,120,0,0,0,0,0,0,0,0,0,-1,1147,904,0,0
-70,120,0,0,0,0,0,0,0,0,0,-1,1154,904,0,0
-63,120,0,0,0,0,0,0,0,0,0,-1,1161,904,0,0
-56,120,0,0,0,0,0,0,0,0,0,-1,1168,904,0,0
-49,120,0,0,0,0,0,0,0,0,0,-1,1175,904,0,0
-42,120,0,0,0,0,0,0,0,0,0,-1,1182,904,0,0
-35,120,0,0,0,0,0,0,0,0,0,-1,1189,904,0,0
-28,120,0,0,0,0,0,0,0,0,0,-1,1196,904,0,0
-21,120,0,0,0,0,0,0,0,0,0,-1,1203,904,0,0
-14,120,0,0,0,0,0,0,0,0,0,-1,1210,904,0,0
-7,120,0,0,0,0,0,0,0,0,0,-1,1217,904,0,0
0,120,0,0,0,0,0,0,0,0,0,-1,1224,904,0,0
7,120,0,0,0,0,0,0,0,0,0,-1,1231,904,0,0
14,120,0,0,0,0,0,0,0,0,0,-1,1238,904,0,0
21,120,0,0,0,0,0,0,0,0,0,-1,1245,904,0,0
28,120,0,0,0,0,0,0,0,0,0,-1,1252,904,0,0
35,120,0,0,0,0,0,0,0,0,0,-1,1259,904,0,0
42,120,0,0,0,0,0,0,0,0,0,-1,1266,904,0,0
49,120,0,0,0,0,0,0,0,0,0,-1,1273,904,0,0
56,120,0,0,0,0,0,0,0,0,0,-1,1280,904,0,0
63,120,0,0,0,0,0,0,0,0,0,-1,1287,904,0,0
70,120,0,0,0,0,0,0,0,0,0,-1,1294,904,0,0
77,120,0,0,0,0,0,0,0,0,0,-1,1301,904,0,0
84,120,0,0,0,0,0,0,0,0,0,-1,1308,904,0,0
91,120,0,0,0,0,0,0,0,0,0,-1,1315,904,0,0
98,120,0,0,0,0,0,0,0,0,0,-1,1322,904,0,0
105,120,0,0,0,0,0,0,0,0,0,-1,1329,904,0,0
112,120,0,0,0,0,0,0,0,0,0,-1,1336,904,0,0
119,120,0,0,0,0,0,0,0,0,0,-1,1343,904,0,0
126,120,0,0,0,0,0,0,0,0,0,-1,1350,904,0,0
133,120,0,0,0,0,0,0,0,0,0,-1,1357,904,0,0
140,120,0,0,0,0,0,0,0,0,0,-1,1364,904,0,0
147,120,0,0,0,0,0,0,0,0,0,-1,1371,904,0,0
154,120,0,0,0,0,0,0,0,0,0,-1,1378,904,0,0
161,120,0,0,0,0,0,0,0,0,0,-1,1385,904,0,0
168,120,0,0,0,0,0,0,0,0,0,-1,1392,904,0,0
175,120,0,0,0,0,0,0,0,0,0,-1,1399,904,0,0
182,120,0,0,0,0,0,0,0,0,0,-1,1406,904,0,0
189,120,0,0,0,0,0,0,0,0,0,-1,1413,904,0,0
196,120,0,0,0,0,0,0,0,0,0,-1,1420,904,0,0
203,120,0,0,0,0,0,0,0,0,0,-1,1427,904,0,0
210,120,0,0,0,0,0,0,0,0,0,-1,1434,904,0,0
217,120,0,0,0,0,0,0,0,0,0,-1,1441,904,0,0
224,120,0,0,0,0,0,0,0,0,0,-1,1448,904,0,0
231,120,0,0,0,0,0,0,0,0,0,-1,1455,904,0,0
238,120,0,0,0,0,0,0,0,0,0,-1,1462,904,0,0
245,120,0,0,0,0,0,0,0,0,0,-1,1469,904,0,0
252,120,0,0,0,0,0,0,0,0,0,-1,1476,904,0,0
259,120,0,0,0,0,0,0,0,0,0,-1,1483,904,0,0
266,120,0,0,0,0,0,0,0,0,0,-1,1490,904,0,0
273,120,0,0,0,0,0,0,0,0,0,-1,1497,904,0,0
280,120,0,0,0,0,0,0,0,0,0,-1,1504,904,0,0
287,120,0,0,0,0,0,0,0,0,0,-1,1511,904,0,0
294,120,0,0,0,0,0,0,0,0,0,-1,1518,904,0,0
301,120,0,0,0,0,0,0,0,0,0,-1,1525,904,0,0
308,120,0,0,0,0,0,0,0,0,0,-1,1532,904,0,0
315,120,0,0,0,0,0,0,0,0,0,-1,1539,904,0,0
322,120,0,0,0,0,0,0,0,0,0,-1,1546,904,0,0
329,120,0,0,0,0,0,0,0,0,0,-1,1553,904,0,0
336,120,0,0,0,0,0,0,0,0,0,-1,1560,904,0,0
343,120,0,0,0,0,0,0,0,0,0,-1,1567,904,0,0
350,120,0,0,0,0,0,0,0,0,0,-1,1574,904,0,0
357,120,0,0,0,0,0,0,0,0,0,-1,1581,904,0,0
364,120,0,0,0,0,0,0,0,0,0,-1,1588,904,0,0
371,120,0,0,0,0,0,0,0,0,0,-1,1595,904,0,0
378,120,0,0,0,0,0,0,0,0,0,-1,1602,904,0,0
385,120,0,0,0,0,0,0,0,0,0,-1,1609,904,0,0
392,120,0,0,0,0,0,0,0,0,0,-1,1616,904,0,0
399,120,0,0,0,0,0,0,0,0,0,-1,1623,904,0,0
406,120,0,0,0,0,0,0,0,0,0,-1,1630,904,0,0
413,120,0,0,0,0,0,0,0,0,0,-1,1637,904,0,0
420,120,0,0,0,0,0,0,0,0,0,-1,1644,904,0,0
427,120,0,0,0,0,0,0,0,0,0,-1,1651,904,0,0
434,120,0,0,0,0,0,0,0,0,0,-1,1658,904,0,0
441,120,0,0,0,0,0,0,0,0,0,-1,1665,904,0,0
448,120,0,0,0,0,0,0,0,0,0,-1,1672,904,0,0
455,120,0,0,0,0,0,0,0,0,0,-1,1679,904,0,0
462,120,0,0,0,0,0,0,0,0,0,-1,1686,904,0,0
469,120,0,0,0,0,0,0,0,0,0,-1,1693,904,0,0
476,120,0,0,0,0,0,0,0,0,0,-1,1700,904,0,0
483,120,0,0,0,0,0,0,0,0,0,-1,1707,904,0,0
490,120,0,0,0,0,0,0,0,0,0,-1,1714,904,0,0
497,120,0,0,0,0,0,0,0,0,0,-1,1721,904,0,0
504,120,0,0,0,0,0,0,0,0,0,-1,1728,904,0,0
511,120,0,0,0,0,0,0,0,0,0,-1,1735,904,0,0
518,120,0,0,0,0,0,0,0,0,0,-1,1742,904,0,0
525,120,0,0,0,0,0,0,0,0,0,-1,1749,904,0,0
532,120,0,0,0,0,0,0,0,0,0,-1,1756,904,0,0
539,120,0,0,0,0,0,0,0,0,0,-1,1763,904,0,0
546,120,0,0,0,0,0,0,0,0,0,-1,1770,904,0,0
553,120,0,0,0,0,0,0,0,0,0,-1,1777,904,0,0
560,120,0,0,0,0,0,0,0,0,0,-1,1784,904,0,0
567,120,0,0,0,0,0,0,0,0,0,-1,1791,904,0,0
574,120,0,0,0,0,0,0,0,0,0,-1,1798,904,0,0
581,120,0,0,0,0,0,0,0,0,0,-1,1805,904,0,0
588,120,0,0,0,0,0,0,0,0,0,-1,1812,904,0,0
595,120,0,0,0,0,0,0,0,0,0,-1,1819,904,0,0
602,120,0,0,0,0,0,0,0,0,0,-1,1826,904,0,0
609,120,0,0,0,0,0,0,0,0,0,-1,1833,904,0,0
616,120,0,0,0,0,0,0,0,0,0,-1,1840,904,0,0
623,120,0,0,0,0,0,0,0,0,0,-1,1847,904,0,0
630,120,23.7872,2.97717,0.00180813,0.00101847,0.00041624,0.00198702,0.000839587,0.405894,0.00115178,0.0399301,1854,904,23.7872,-2.97715
637,120,23.6162,2.96729,0.00164058,0.00107019,-0.000444384,0.00188342,0.000827361,-0.500113,0.00109006,0.0421926,1861,904,23.6163,-2.96728
644,120,23.6056,3.22687,0.0017202,0.000885122,-0.000973781,0.00236218,0.000243139,-0.582863,0.00150032,0.0398135,1868,904,23.6056,-3.22689
651,120,23.6915,2.97534,0.000291752,0.000606733,-0.00150607,0.00196352,-0.00106504,-0.837494,0.001774,0.0406148,1875,904,23.6916,-2.97535
658,120,23.606,2.85107,-0.00202339,0.000412837,-0.00195824,0.00150092,-0.00311146,-1.06363,0.00271653,0.0438719,1882,904,23.606,-2.85107
665,120,23.7284,2.86389,-0.004199,0.000217396,-0.00224355,0.00115716,-0.00513877,-1.17413,0.00386967,0.0383277,1889,904,23.7284,-2.86388
672,120,23.8002,2.77814,-0.00602833,8.25516e-05,-0.00239348,0.000908409,-0.00685419,-1.23854,0.00490041,0.0346922,1896,904,23.8002,-2.77813
679,120,23.8104,2.6778,-0.00735233,-3.6356e-05,-0.00250992,0.000741934,-0.00813062,-1.27011,0.00568389,0.030341,1903,904,23.8104,-2.67777
686,120,24.1837,2.74963,0,0,0,0,0,0,0,-1,1910,904,24.1837,-2.74966
693,120,23.0062,2.89642,-0.00906097,-6.78249e-05,-0.00246738,0.000564652,-0.00969345,-1.31986,0.0066585,0.04676,1917,904,23.0062,-2.89644
700,120,21.7212,2.98248,-0.00954936,-5.56092e-05,-0.00229742,0.000471124,-0.0100761,-1.34542,0.00687982,0.0364354,1924,904,21.7212,-2.98251
707,120,21.1326,3.23138,-0.00936392,3.34491e-05,-0.00207393,0.000470798,-0.00980127,-1.36296,0.00669663,0.0226103,1931,904,21.1326,-3.2314
714,120,21.2368,3.45313,-0.00832134,0.000242987,-0.00185241,0.000626479,-0.00870483,-1.36666,0.00602292,0.0178971,1938,904,21.2368,-3.45313
721,120,21.2604,3.64233,-0.00614342,0.000441492,-0.00164823,0.000831011,-0.00653294,-1.33873,0.00465707,0.0140886,1945,904,21.2604,-3.64233
728,120,21.2498,3.82587,-0.00339796,0.00170456,-0.00174368,0.0022435,-0.0039369,-1.27103,0.00361263,0.0102118,1952,904,21.2498,-3.82586
735,120,21.2344,4.00092,-0.000142531,0.00238052,-0.00133893,0.00295861,-0.00072062,-1.16322,0.00225139,0.0124053,1959,904,21.2343,-4.00094
742,120,21.2407,4.20026,0.0037474,0.00346642,-0.00114918,0.00476464,0.00244918,-0.724576,0.00275123,0.0135847,1966,904,21.2407,-4.20024
749,120,21.2285,4.35529,0.00869345,0.00515682,-0.000943643,0.00892948,0.00492079,-0.245098,0.00516439,0.0111067,1973,904,21.2285,-4.3553
756,120,21.215,4.49432,0.0136213,0.00725342,-0.000798718,0.01372,0.00715477,-0.122893,0.00792366,0.0121005,1980,904,21.215,-4.49434
763,120,21.1655,4.60291,0.018566,0.00972285,-0.000682362,0.0186183,0.0096705,-0.0765589,0.010752,0.0206057,1987,904,21.1655,-4.60288
770,120,21.1573,4.80402,0.0240269,0.012634,-0.00036403,0.0240385,0.0126224,-0.031909,0.0138845,0.0425233,1994,904,21.1574,-4.80404
777,120,21.2491,4.97083,0,0,0,0,0,0,0,-1,2001,904,21.2491,-4.9708
784,120,22.8639,5.34412,0,0,0,0,0,0,0,-1,2008,904,22.8638,-5.3441
791,120,23.4822,5.26483,0,0,0,0,0,0,0,-1,2015,904,23.4822,-5.26482
798,120,24.0917,4.81116,0,0,0,0,0,0,0,-1,2022,904,24.0916,-4.81115
805,120,0,0,0,0,0,0,0,0,0,-1,2029,904,0,0
812,120,0,0,0,0,0,0,0,0,0,-1,2036,904,0,0
-700,113,0,0,0,0,0,0,0,0,0,-1,524,911,0,0
-693,113,0,0,0,0,0,0,0,0,0,-1,531,911,0,0
-686,113,0,0,0,0,0,0,0,0,0,-1,538,911,0,0
-679,113,-17.6024,2.565,0,0,0,0,0,0,0,-1,545,911,-17.6024,-2.56498
-672,113,-20.3475,2.95856,0,0,0,0,0,0,0,-1,552,911,-20.3476,-2.95858
-665,113,-19.2557,3.15704,0.0772586,0.0166426,0.0264346,0.0871671,0.0067341,0.358621,0.0560018,0.0498777,559,911,-19.2557,-3.15702
-658,113,-18.4309,3.06073,0.0682385,0.00942009,0.0245717,0.0771526,0.000506043,0.348011,0.0512672,0.0415722,566,911,-18.4309,-3.06075
-651,113,-17.7593,3.27728,0.0582648,0.00442098,0.0216534,0.0658922,-0.00320645,0.33868,0.045035,0.043345,573,911,-17.7593,-3.27729
-644,113,-16.9719,3.26508,0,0,0,0,0,0,0,-1,580,911,-16.9719,-3.26506
-637,113,-15.6348,2.224,0,0,0,0,0,0,0,-1,587,911,-15.6347,-2.22398
-630,113,-14.6484,2.13098,0.0291613,-0.00141713,0.0117848,0.033176,-0.00543182,0.328337,0.0241326,0.0168943,594,911,-14.6484,-2.13096
-623,113,-14.6298,2.01379,0.0210471,-0.00190285,0.00905007,0.0241865,-0.00504221,0.3339,0.0180415,0.0105924,601,911,-14.6297,-2.01379
-616,113,-14.6309,1.87415,0.0134916,-0.00381394,0.00657426,0.0157058,-0.00602815,0.324867,0.0129561,0.00989005,608,911,-14.6308,-1.87412
-609,113,-14.6335,1.74023,0.0066084,-0.00255081,0.00381647,0.00799019,-0.0039326,0.347378,0.00701525,0.011116,615,911,-14.6335,-1.74025
-602,113,-14.6384,1.57599,0.000982428,-0.0014608,0.00221896,0.00229382,-0.00277219,0.533771,0.0029292,0.0144705,622,911,-14.6384,-1.57599
-595,113,-14.6467,1.46179,-0.00314318,-0.000607337,0.00133407,-3.47788e-05,-0.00371574,1.16539,0.00246565,0.0180595,629,911,-14.6468,-1.46178
-588,113,-14.6448,1.2959,-0.00523945,-0.000689476,0.00127367,-0.000357204,-0.00557172,1.31561,0.00360132,0.0194551,636,911,-14.6448,-1.29592
-581,113,-14.6667,1.10938,-0.00641346,-0.00101255,0.00125184,-0.000736502,-0.00668951,1.35376,0.00423557,0.0209893,643,911,-14.6667,-1.10938
-574,113,-14.567,0.857422,-0.00689731,-0.00120194,0.00123029,-0.000947547,-0.00715171,1.36689,0.00448544,0.0209305,650,911,-14.567,-0.857429
-567,113,-14.7004,0.611328,0,0,0,0,0,0,0,-1,657,911,-14.7004,-0.611343
-560,113,-16.2679,1.01434,0,0,0,0,0,0,0,-1,664,911,-16.2679,-1.01433
-553,113,-16.2687,0.980469,-0.00598639,-0.00132179,0.00142926,-0.00091869,-0.00638949,1.2959,0.00398885,0.0415365,671,911,-16.2687,-0.980458
-546,113,-16.2267,0.935547,-0.00490948,-0.00113077,0.00142345,-0.000654569,-0.00538568,1.24796,0.00339338,0.0369499,678,911,-16.2267,-0.935564
-539,113,-16.1918,0.848022,-0.00336537,-0.000790169,0.00128856,-0.000256146,-0.0038994,1.17791,0.00251856,0.0366989,685,911,-16.1918,-0.84804
-532,113,-16.1699,0.773376,-0.00140383,-0.000276853,0.000965694,0.000277731,-0.00195841,1.0495,0.00140735,0.0381453,692,911,-16.1699,-0.773402
-525,113,-16.2316,0.822144,0.000926893,0.000430185,0.000304259,0.00107129,0.000285788,0.44311,0.000640547,0.0359729,699,911,-16.2316,-0.82212
-518,113,-16.2657,0.965027,0.00305103,0.00140653,-0.000801308,0.00337691,0.00108065,-0.386249,0.00199132,0.0373983,706,911,-16.2658,-0.965
-511,113,-16.364,0.970764,0.00330335,0.00299013,-0.00234227,0.00549424,0.00079924,-0.752016,0.00342761,0.0417969,713,911,-16.364,-0.970772
-504,113,0,0,0,0,0,0,0,0,0,-1,720,911,0,0
-497,113,0,0,0,0,0,0,0,0,0,-1,727,911,0,0
-490,113,0,0,0,0,0,0,0,0,0,-1,734,911,0,0
-483,113,0,0,0,0,0,0,0,0,0,-1,741,911,0,0
-476,113,0,0,0,0,0,0,0,0,0,-1,748,911,0,0
-469,113,0,0,0,0,0,0,0,0,0,-1,755,911,0,0
-462,113,0,0,0,0,0,0,0,0,0,-1,762,911,0,0
-455,113,0,0,0,0,0,0,0,0,0,-1,769,911,0,0
-448,113,0,0,0,0,0,0,0,0,0,-1,776,911,0,0
-441,113,0,0,0,0,0,0,0,0,0,-1,783,911,0,0
-434,113,0,0,0,0,0,0,0,0,0,-1,790,911,0,0
-427,113,0,0,0,0,0,0,0,0,0,-1,797,911,0,0
-420,113,0,0,0,0,0,0,0,0,0,-1,804,911,0,0
-413,113,0,0,0,0,0,0,0,0,0,-1,811,911,0,0
-406,113,0,0,0,0,0,0,0,0,0,-1,818,911,0,0
-399,113,0,0,0,0,0,0,0,0,0,-1,825,911,0,0
-392,113,0,0,0,0,0,0,0,0,0,-1,832,911,0,0
-385,113,0,0,0,0,0,0,0,0,0,-1,839,911,0,0
-378,113,0,0,0,0,0,0,0,0,0,-1,846,911,0,0
-371,113,0,0,0,0,0,0,0,0,0,-1,853,911,0,0
-364,113,0,0,0,0,0,0,0,0,0,-1,860,911,0,0
-357,113,0,0,0,0,0,0,0,0,0,-1,867,911,0,0
-350,113,0,0,0,0,0,0,0,0,0,-1,874,911,0,0
-343,113,0,0,0,0,0,0,0,0,0,-1,881,911,0,0
-336,113,0,0,0,0,0,0,0,0,0,-1,888,911,0,0
-329,113,0,0,0,0,0,0,0,0,0,-1,895,911,0,0
-322,113,0,0,0,0,0,0,0,0,0,-1,902,911,0,0
-315,113,0,0,0,0,0,0,0,0,0,-1,909,911,0,0
-308,113,0,0,0,0,0,0,0,0,0,-1,916,911,0,0
-301,113,0,0,0,0,0,0,0,0,0,-1,923,911,0,0
-294,113,0,0,0,0,0,0,0,0,0,-1,930,911,0,0
-287,113,0,0,0,0,0,0,0,0,0,-1,937,911,0,0
-280,113,0,0,0,0,0,0,0,0,0,-1,944,911,0,0
-273,113,0,0,0,0,0,0,0,0,0,-1,951,911,0,0
-266,113,0,0,0,0,0,0,0,0,0,-1,958,911,0,0
-259,113,0,0,0,0,0,0,0,0,0,-1,965,911,0,0
-252,113,0,0,0,0,0,0,0,0,0,-1,972,911,0,0
-245,113,0,0,0,0,0,0,0,0,0,-1,979,911,0,0
-238,113,0,0,0,0,0,0,0,0,0,-1,986,911,0,0
-231,113,0,0,0,0,0,0,0,0,0,-1,993,911,0,0
-224,113,0,0,0,0,0,0,0,0,0,-1,1000,911,0,0
-217,113,0,0,0,0,0,0,0,0,0,-1,1007,911,0,0
-210,113,0,0,0,0,0,0,0,0,0,-1,1014,911,0,0
-203,113,0,0,0,0,0,0,0,0,0,-1,1021,911,0,0
-196,113,0,0,0,0,0,0,0,0,0,-1,1028,911,0,0
-189,113,0,0,0,0,0,0,0,0,0,-1,1035,911,0,0
-182,113,0,0,0,0,0,0,0,0,0,-1,1042,911,0,0
-175,113,0,0,0,0,0,0,0,0,0,-1,1049,911,0,0
-168,113,0,0,0,0,0,0,0,0,0,-1,1056,911,0,0
-161,113,0,0,0,0,0,0,0,0,0,-1,1063,911,0,0
-154,113,0,0,0,0,0,0,0,0,0,-1,1070,911,0,0
-147,113,0,0,0,0,0,0,0,0,0,-1,1077,911,0,0
-140,113,0,0,0,0,0,0,0,0,0,-1,1084,911,0,0
-133,113,0,0,0,0,0,0,0,0,0,-1,1091,911,0,0
-126,113,0,0,0,0,0,0,0,0,0,-1,1098,911,0,0
-119,113,0,0,0,0,0,0,0,0,0,-1,1105,911,0,0
-112,113,0,0,0,0,0,0,0,0,0,-1,1112,911,0,0
-105,113,0,0,0,0,0,0,0,0,0,-1,1119,911,0,0
-98,113,0,0,0,0,0,0,0,0,0,-1,1126,911,0,0
-91,113,0,0,0,0,0,0,0,0,0,-1,1133,911,0,0
-84,113,0,0,0,0,0,0,0,0,0,-1,1140,911,0,0
-77,113,0,0,0,0,0,0,0,0,0,-1,1147,911,0,0
-70,113,0,0,0,0,0,0,0,0,0,-1,1154,911,0,0
-63,113,0,0,0,0,0,0,0,0,0,-1,1161,911,0,0
-56,113,0,0,0,0,0,0,0,0,0,-1,1168,911,0,0
-49,113,0,0,0,0,0,0,0,0,0,-1,1175,911,0,0
-42,113,0,0,0,0,0,0,0,0,0,-1,1182,911,0,0
-35,113,0,0,0,0,0,0,0,0,0,-1,1189,911,0,0
-28,113,0,0,0,0,0,0,0,0,0,-1,1196,911,0,0
-21,113,0,0,0,0,0,0,0,0,0,-1,1203,911,0,0
-14,113,0,0,0,0,0,0,0,0,0,-1,1210,911,0,0
-7,113,0,0,0,0,0,0,0,0,0,-1,1217,911,0,0
0,113,0,0,0,0,0,0,0,0,0,-1,1224,911,0,0
7,113,0,0,0,0,0,0,0,0,0,-1,1231,911,0,0
14,113,0,0,0,0,0,0,0,0,0,-1,1238,911,0,0
21,113,0,0,0,0,0,0,0,0,0,-1,1245,911,0,0
28,113,0,0,0,0,0,0,0,0,0,-1,1252,911,0,0
35,113,0,0,0,0,0,0,0,0,0,-1,1259,911,0,0
42,113,0,0,0,0,0,0,0,0,0,-1,1266,911,0,0
49,113,0,0,0,0,0,0,0,0,0,-1,1273,911,0,0
56,113,0,0,0,0,0,0,0,0,0,-1,1280,911,0,0
63,113,0,0,0,0,0,0,0,0,0,-1,1287,911,0,0
70,113,0,0,0,0,0,0,0,0,0,-1,1294,911,0,0
77,113,0,0,0,0,0,0,0,0,0,-1,1301,911,0,0
84,113,0,0,0,0,0,0,0,0,0,-1,1308,911,0,0
91,113,0,0,0,0,0,0,0,0,0,-1,1315,911,0,0
98,113,0,0,0,0,0,0,0,0,0,-1,1322,911,0,0
105,113,0,0,0,0,0,0,0,0,0,-1,1329,911,0,0
112,113,0,0,0,0,0,0,0,0,0,-1,1336,911,0,0
119,113,0,0,0,0,0,0,0,0,0,-1,1343,911,0,0
126,113,0,0,0,0,0,0,0,0,0,-1,1350,911,0,0
133,113,0,0,0,0,0,0,0,0,0,-1,1357,911,0,0
140,113,0,0,0,0,0,0,0,0,0,-1,1364,911,0,0
147,113,0,0,0,0,0,0,0,0,0,-1,1371,911,0,0
154,113,0,0,0,0,0,0,0,0,0,-1,1378,911,0,0
161,113,0,0,0,0,0,0,0,0,0,-1,1385,911,0,0
168,113,0,0,0,0,0,0,0,0,0,-1,1392,911,0,0
175,113,0,0,0,0,0,0,0,0,0,-1,1399,911,0,0
182,113,0,0,0,0,0,0,0,0,0,-1,1406,911,0,0
189,113,0,0,0,0,0,0,0,0,0,-1,1413,911,0,0
196,113,0,0,0,0,0,0,0,0,0,-1,1420,911,0,0
203,113,0,0,0,0,0,0,0,0,0,-1,1427,911,0,0
210,113,0,0,0,0,0,0,0,0,0,-1,1434,911,0,0
217,113,0,0,0,0,0,0,0,0,0,-1,1441,911,0,0
224,113,0,0,0,0,0,0,0,0,0,-1,1448,911,0,0
231,113,0,0,0,0,0,0,0,0,0,-1,1455,911,0,0
238,113,0,0,0,0,0,0,0,0,0,-1,1462,911,0,0
245,113,0,0,0,0,0,0,0,0,0,-1,1469,911,0,0
252,113,0,0,0,0,0,0,0,0,0,-1,1476,911,0,0
259,113,0,0,0,0,0,0,0,0,0,-1,1483,911,0,0
266,113,0,0,0,0,0,0,0,0,0,-1,1490,911,0,0
273,113,0,0,0,0,0,0,0,0,0,-1,1497,911,0,0
280,113,0,0,0,0,0,0,0,0,0,-1,1504,911,0,0
287,113,0,0,0,0,0,0,0,0,0,-1,1511,911,0,0
294,113,0,0,0,0,0,0,0,0,0,-1,1518,911,0,0
301,113,0,0,0,0,0,0,0,0,0,-1,1525,911,0,0
308,113,0,0,0,0,0,0,0,0,0,-1,1532,911,0,0
315,113,0,0,0,0,0,0,0,0,0,-1,1539,911,0,0
322,113,0,0,0,0,0,0,0,0,0,-1,1546,911,0,0
329,113,0,0,0,0,0,0,0,0,0,-1,1553,911,0,0
336,113,0,0,0,0,0,0,0,0,0,-1,1560,911,0,0
343,113,0,0,0,0,0,0,0,0,0,-1,1567,911,0,0
350,113,0,0,0,0,0,0,0,0,0,-1,1574,911,0,0
357,113,0,0,0,0,0,0,0,0,0,-1,1581,911,0,0
364,113,0,0,0,0,0,0,0,0,0,-1,1588,911,0,0
371,113,0,0,0,0,0,0,0,0,0,-1,1595,911,0,0
378,113,0,0,0,0,0,0,0,0,0,-1,1602,911,0,0
385,113,0,0,0,0,0,0,0,0,0,-1,1609,911,0,0
392,113,0,0,0,0,0,0,0,0,0,-1,1616,911,0,0
399,113,0,0,0,0,0,0,0,0,0,-1,1623,911,0,0
406,113,0,0,0,0,0,0,0,0,0,-1,1630,911,0,0
413,113,0,0,0,0,0,0,0,0,0,-1,1637,911,0,0
420,113,0,0,0,0,0,0,0,0,0,-1,1644,911,0,0
427,113,0,0,0,0,0,0,0,0,0,-1,1651,911,0,0
434,113,0,0,0,0,0,0,0,0,0,-1,1658,911,0,0
441,113,0,0,0,0,0,0,0,0,0,-1,1665,911,0,0
448,113,0,0,0,0,0,0,0,0,0,-1,1672,911,0,0
455,113,0,0,0,0,0,0,0,0,0,-1,1679,911,0,0
462,113,0,0,0,0,0,0,0,0,0,-1,1686,911,0,0
469,113,0,0,0,0,0,0,0,0,0,-1,1693,911,0,0
476,113,0,0,0,0,0,0,0,0,0,-1,1700,911,0,0
483,113,0,0,0,0,0,0,0,0,0,-1,1707,911,0,0
490,113,0,0,0,0,0,0,0,0,0,-1,1714,911,0,0
497,113,0,0,0,0,0,0,0,0,0,-1,1721,911,0,0
504,113,0,0,0,0,0,0,0,0,0,-1,1728,911,0,0
511,113,0,0,0,0,0,0,0,0,0,-1,1735,911,0,0
518,113,0,0,0,0,0,0,0,0,0,-1,1742,911,0,0
525,113,0,0,0,0,0,0,0,0,0,-1,1749,911,0,0
532,113,0,0,0,0,0,0,0,0,0,-1,1756,911,0,0
539,113,0,0,0,0,0,0,0,0,0,-1,1763,911,0,0
546,113,0,0,0,0,0,0,0,0,0,-1,1770,911,0,0
553,113,0,0,0,0,0,0,0,0,0,-1,1777,911,0,0
560,113,0,0,0,0,0,0,0,0,0,-1,1784,911,0,0
567,113,0,0,0,0,0,0,0,0,0,-1,1791,911,0,0
574,113,0,0,0,0,0,0,0,0,0,-1,1798,911,0,0
581,113,0,0,0,0,0,0,0,0,0,-1,1805,911,0,0
588,113,0,0,0,0,0,0,0,0,0,-1,1812,911,0,0
595,113,0,0,0,0,0,0,0,0,0,-1,1819,911,0,0
602,113,0,0,0,0,0,0,0,0,0,-1,1826,911,0,0
609,113,0,0,0,0,0,0,0,0,0,-1,1833,911,0,0
616,113,0,0,0,0,0,0,0,0,0,-1,1840,911,0,0
623,113,0,0,0,0,0,0,0,0,0,-1,1847,911,0,0
630,113,23.7886,2.95038,0.00198776,0.00190284,-0.000300962,0.00224925,0.00164136,-0.71532,0.00134352,0.0390045,1854,911,23.7886,-2.9504
637,113,23.6061,3.15472,0.00189786,0.00188852,-0.000975875,0.00286908,0.000917307,-0.783005,0.00169197,0.0398096,1861,911,23.606,-3.15472
644,113,23.7222,3.16632,0.0021546,0.00162243,-0.00129345,0.00320905,0.000567985,-0.683955,0.00197742,0.0396963,1868,911,23.7222,-3.1663
651,113,23.7992,2.88617,0.000822127,0.00121287,-0.00165215,0.00268116,-0.000646166,-0.844251,0.00203728,0.0417603,1875,911,23.7992,-2.88616
658,113,23.7161,2.64258,-0.00160741,0.000911947,-0.00199373,0.00201061,-0.00270607,-1.06714,0.00273302,0.0427086,1882,911,23.7161,-2.64256
665,113,23.7368,2.75507,-0.00400225,0.000624816,-0.00221548,0.00151453,-0.00489196,-1.18892,0.00386633,0.0362405,1889,911,23.7368,-2.75505
672,113,23.7788,2.78552,-0.00600482,0.000410425,-0.00232043,0.00116175,-0.00675614,-1.25766,0.00493711,0.0357728,1896,911,23.7788,-2.78554
679,113,23.7736,2.69208,-0.00750625,0.000222351,-0.00238117,0.000897081,-0.00818098,-1.29467,0.00577628,0.0318021,1903,911,23.7735,-2.69206
686,113,23.7938,2.66052,-0.00852797,0.000140311,-0.00240065,0.000760753,-0.00914841,-1.31788,0.00636769,0.0258546,1910,911,23.7938,-2.66053
693,113,23.5317,2.74139,0,0,0,0,0,0,0,-1,1917,911,23.5317,-2.74137
700,113,22.4116,3.01898,-0.00981515,2.34096e-05,-0.00209058,0.000449205,-0.0102409,-1.36987,0.00698185,0.0481066,1924,911,22.4116,-3.01901
707,113,21.3633,3.2016,-0.00965308,5.02779e-05,-0.00189838,0.000408458,-0.0100113,-1.38431,0.00681441,0.034341,1931,911,21.3633,-3.20157
714,113,21.3926,3.40674,-0.00869266,0.000184373,-0.00172879,0.00050917,-0.00901746,-1.38509,0.00618835,0.018398,1938,911,21.3926,-3.40673
721,113,21.407,3.59131,-0.00678097,0.000298712,-0.00155902,0.000626818,-0.00710907,-1.36337,0.00496154,0.0165027,1945,911,21.407,-3.59132
728,113,21.4318,3.81451,-0.00451373,0.00126329,-0.00164317,0.00169795,-0.00494839,-1.31219,0.0039873,0.016285,1952,911,21.4317,-3.8145
735,113,21.4298,4.00549,-0.00185879,0.00168667,-0.00128707,0.00210463,-0.00227675,-1.2568,0.00253025,0.0152487,1959,911,21.4298,-4.00549
742,113,21.4158,4.17194,0.00129473,0.002508,-0.00116578,0.00321554,0.000587191,-1.0253,0.00197724,0.0118227,1966,911,21.4157,-4.17194
749,113,21.4104,4.33594,0.00542836,0.00394013,-0.00097396,0.00590993,0.00345856,-0.459194,0.00342858,0.0089695,1973,911,21.4104,-4.33591
756,113,21.4022,4.48242,0.0094301,0.00574627,-0.000804983,0.00959832,0.00557805,-0.20601,0.00556587,0.0104294,1980,911,21.4023,-4.48244
763,113,21.3555,4.66473,0.013279,0.00790625,-0.000682568,0.0133644,0.00782089,-0.12441,0.00775318,0.0192759,1987,911,21.3555,-4.66471
770,113,21.3148,4.89722,0.0174488,0.0105818,-0.000362487,0.0174679,0.0105628,-0.0525925,0.0101585,0.0410298,1994,911,21.3148,-4.89719
777,113,21.0743,5.19751,0.0224621,0.0139009,0.000274099,0.0224709,0.0138921,0.0319727,0.0130939,0.0469967,2001,911,21.0743,-5.19752
784,113,21.4734,5.10187,0,0,0,0,0,0,0,-1,2008,911,21.4734,-5.10186
791,113,20.6688,4.94403,0,0,0,0,0,0,0,-1,2015,911,20.6689,-4.94401
798,113,23.8265,4.95001,0,0,0,0,0,0,0,-1,2022,911,23.8265,-4.95002
805,113,0,0,0,0,0,0,0,0,0,-1,2029,911,0,0
812,113,0,0,0,0,0,0,0,0,0,-1,2036,911,0,0
-700,106,0,0,0,0,0,0,0,0,0,-1,524,918,0,0
-693,106,0,0,0,0,0,0,0,0,0,-1,531,918,0,0
-686,106,0,0,0,0,0,0,0,0,0,-1,538,918,0,0
-679,106,-17.5272,2.35138,0,0,0,0,0,0,0,-1,545,918,-17.5272,-2.35139
-672,106,-20.96,3.18195,0,0,0,0,0,0,0,-1,552,918,-20.96,-3.18196
-665,106,-19.8901,3.37598,0.0809833,0.0285935,0.0257334,0.0915087,0.0180681,0.388256,0.0559639,0.0463574,559,918,-19.8901,-3.37596
-658,106,-18.9916,3.50342,0.0706048,0.0202146,0.0236931,0.0799952,0.0108242,0.377343,0.0501132,0.04585,566,918,-18.9916,-3.50342
-651,106,-18.1914,3.5141,0.0596336,0.013687,0.0207568,0.0676219,0.00569876,0.367378,0.0433068,0.0450458,573,918,-18.1914,-3.51409
-644,106,-17.3837,3.51917,0,0,0,0,0,0,0,-1,580,918,-17.3837,-3.51915
-637,106,-14.6937,2.27509,0.0384186,0.00535187,0.0140995,0.0436142,0.000156235,0.353057,0.0290242,0.0290803,587,918,-14.6938,-2.27506
-630,106,-14.7674,2.17462,0.0288424,0.00317011,0.0112128,0.0330501,-0.00103758,0.358999,0.0223873,0.0124888,594,918,-14.7674,-2.17464
-623,106,-14.7792,2.01013,0.020427,0.00152117,0.00850839,0.0236922,-0.00174403,0.36643,0.0164071,0.0103152,601,918,-14.7792,-2.01015
-616,106,-14.7856,1.85736,0.0125785,-0.00189619,0.00610412,0.014809,-0.00412666,0.350331,0.0114978,0.0104722,608,918,-14.7856,-1.85739
-609,106,-14.7973,1.72906,0.00553418,-0.00144231,0.00344849,0.00695103,-0.00285916,0.389833,0.00582583,0.0106422,615,918,-14.7973,-1.72905
-602,106,-14.8172,1.57922,-2.58228e-05,-0.000753622,0.00189815,0.00154299,-0.00232244,0.690691,0.00224678,0.0129119,622,918,-14.8172,-1.57925
-595,106,-14.8846,1.43964,-0.00404774,-0.0003073,0.00108059,-1.75685e-05,-0.00433747,1.30883,0.00288581,0.0164656,629,918,-14.8847,-1.43966
-588,106,-14.8561,1.26807,-0.00605956,-0.000526068,0.00100294,-0.000349895,-0.00623573,1.39691,0.00404557,0.0186359,636,918,-14.8561,-1.26809
-581,106,-14.7603,1.08173,-0.00714359,-0.000808531,0.000912074,-0.000679832,-0.00727229,1.43062,0.00463822,0.0142915,643,918,-14.7603,-1.08174
-574,106,-14.8041,0.924438,-0.00754166,-0.000947364,0.000797168,-0.000852365,-0.00763666,1.45219,0.00483211,0.0226877,650,918,-14.8041,-0.924421
-567,106,-15.5129,0.86615,-0.00746479,-0.00109394,0.000785635,-0.000998492,-0.00756024,1.44989,0.0047425,0.0423524,657,918,-15.5129,-0.86616
-560,106,-16.3898,0.809753,0,0,0,0,0,0,0,-1,664,918,-16.3898,-0.809781
-553,106,-16.3596,0.886658,-0.00630961,-0.000950211,0.000840004,-0.000821638,-0.00643818,1.41891,0.00404614,0.0363607,671,918,-16.3595,-0.886661
-546,106,-16.3834,0.791382,-0.00500544,-0.000715601,0.000779223,-0.000578445,-0.0051426,1.39656,0.00325277,0.0398517,678,918,-16.3834,-0.791402
-539,106,-16.3099,0.840576,-0.00318809,-0.000336017,0.000585769,-0.000220397,-0.00330371,1.37592,0.00213281,0.0417792,685,918,-16.3099,-0.840549
-532,106,-16.1699,1.1167,-0.000917707,0.000210151,0.000183162,0.000239151,-0.000946707,1.41377,0.00072414,0.0411091,692,918,-16.1698,-1.11672
-525,106,-16.266,0.813171,0.00167608,0.000946236,-0.000606323,0.00201883,0.00060349,-0.514504,0.00119657,0.038333,699,918,-16.266,-0.813184
-518,106,-16.2758,0.87854,0.00362385,0.0019756,-0.00189725,0.00486824,0.000731215,-0.580505,0.0030313,0.0357641,706,918,-16.2758,-0.878517
-511,106,0,0,0,0,0,0,0,0,0,-1,713,918,0,0
-504,106,0,0,0,0,0,0,0,0,0,-1,720,918,0,0
-497,106,0,0,0,0,0,0,0,0,0,-1,727,918,0,0
-490,106,0,0,0,0,0,0,0,0,0,-1,734,918,0,0
-483,106,0,0,0,0,0,0,0,0,0,-1,741,918,0,0
-476,106,0,0,0,0,0,0,0,0,0,-1,748,918,0,0
-469,106,0,0,0,0,0,0,0,0,0,-1,755,918,0,0
-462,106,0,0,0,0,0,0,0,0,0,-1,762,918,0,0
-455,106,0,0,0,0,0,0,0,0,0,-1,769,918,0,0
-448,106,0,0,0,0,0,0,0,0,0,-1,776,918,0,0
-441,106,0,0,0,0,0,0,0,0,0,-1,783,918,0,0
-434,106,0,0,0,0,0,0,0,0,0,-1,790,918,0,0
-427,106,0,0,0,0,0,0,0,0,0,-1,797,918,0,0
-420,106,0,0,0,0,0,0,0,0,0,-1,804,918,0,0
-413,106,0,0,0,0,0,0,0,0,0,-1,811,918,0,0
-406,106,0,0,0,0,0,0,0,0,0,-1,818,918,0,0
-399,106,0,0,0,0,0,0,0,0,0,-1,825,918,0,0
-392,106,0,0,0,0,0,0,0,0,0,-1,832,918,0,0
-385,106,0,0,0,0,0,0,0,0,0,-1,839,918,0,0
-378,106,0,0,0,0,0,0,0,0,0,-1,846,918,0,0
-371,106,0,0,0,0,0,0,0,0,0,-1,853,918,0,0
-364,106,0,0,0,0,0,0,0,0,0,-1,860,918,0,0
-357,106,0,0,0,0,0,0,0,0,0,-1,867,918,0,0
-350,106,0,0,0,0,0,0,0,0,0,-1,874,918,0,0
-343,106,0,0,0,0,0,0,0,0,0,-1,881,918,0,0
-336,106,0,0,0,0,0,0,0,0,0,-1,888,918,0,0
-329,106,0,0,0,0,0,0,0,0,0,-1,895,918,0,0
-322,106,0,0,0,0,0,0,0,0,0,-1,902,918,0,0
-315,106,0,0,0,0,0,0,0,0,0,-1,909,918,0,0
-308,106,0,0,0,0,0,0,0,0,0,-1,916,918,0,0
-301,106,0,0,0,0,0,0,0,0,0,-1,923,918,0,0
-294,106,0,0,0,0,0,0,0,0,0,-1,930,918,0,0
-287,106,0,0,0,0,0,0,0,0,0,-1,937,918,0,0
-280,106,0,0,0,0,0,0,0,0,0,-1,944,918,0,0
-273,106,0,0,0,0,0,0,0,0,0,-1,951,918,0,0
-266,106,0,0,0,0,0,0,0,0,0,-1,958,918,0,0
-259,106,0,0,0,0,0,0,0,0,0,-1,965,918,0,0
-252,106,0,0,0,0,0,0,0,0,0,-1,972,918,0,0
-245,106,0,0,0,0,0,0,0,0,0,-1,979,918,0,0
-238,106,0,0,0,0,0,0,0,0,0,-1,986,918,0,0
-231,106,0,0,0,0,0,0,0,0,0,-1,993,918,0,0
-224,106,0,0,0,0,0,0,0,0,0,-1,1000,918,0,0
-217,106,0,0,0,0,0,0,0,0,0,-1,1007,918,0,0
-210,106,0,0,0,0,0,0,0,0,0,-1,1014,918,0,0
-203,106,0,0,0,0,0,0,0,0,0,-1,1021,918,0,0
-196,106,0,0,0,0,0,0,0,0,0,-1,1028,918,0,0
-189,106,0,0,0,0,0,0,0,0,0,-1,1035,918,0,0
-182,106,0,0,0,0,0,0,0,0,0,-1,1042,918,0,0
-175,106,0,0,0,0,0,0,0,0,0,-1,1049,918,0,0
-168,106,0,0,0,0,0,0,0,0,0,-1,1056,918,0,0
-161,106,0,0,0,0,0,0,0,0,0,-1,1063,918,0,0
-154,106,0,0,0,0,0,0,0,0,0,-1,1070,918,0,0
-147,106,0,0,0,0,0,0,0,0,0,-1,1077,918,0,0
-140,106,0,0,0,0,0,0,0,0,0,-1,1084,918,0,0
-133,106,0,0,0,0,0,0,0,0,0,-1,1091,918,0,0
-126,106,0,0,0,0,0,0,0,0,0,-1,1098,918,0,0
-119,106,0,0,0,0,0,0,0,0,0,-1,1105,918,0,0
-112,106,0,0,0,0,0,0,0,0,0,-1,1112,918,0,0
-105,106,0,0,0,0,0,0,0,0,0,-1,1119,918,0,0
-98,106,0,0,0,0,0,0,0,0,0,-1,1126,918,0,0
-91,106,0,0,0,0,0,0,0,0,0,-1,1133,918,0,0
-84,106,0,0,0,0,0,0,0,0,0,-1,1140,918,0,0
-77,106,0,0,0,0,0,0,0,0,0,-1,1147,918,0,0
-70,106,0,0,0,0,0,0,0,0,0,-1,1154,918,0,0
-63,106,0,0,0,0,0,0,0,0,0,-1,1161,918,0,0
-56,106,0,0,0,0,0,0,0,0,0,-1,1168,918,0,0
-49,106,0,0,0,0,0,0,0,0,0,-1,1175,918,0,0
-42,106,0,0,0,0,0,0,0,0,0,-1,1182,918,0,0
-35,106,0,0,0,0,0,0,0,0,0,-1,1189,918,0,0
-28,106,0,0,0,0,0,0,0,0,0,-1,1196,918,0,0
-21,106,0,0,0,0,0,0,0,0,0,-1,1203,918,0,0
-14,106,0,0,0,0,0,0,0,0,0,-1,1210,918,0,0
-7,106,0,0,0,0,0,0,0,0,0,-1,1217,918,0,0
0,106,0,0,0,0,0,0,0,0,0,-1,1224,918,0,0
7,106,0,0,0,0,0,0,0,0,0,-1,1231,918,0,0
14,106,0,0,0,0,0,0,0,0,0,-1,1238,918,0,0
21,106,0,0,0,0,0,0,0,0,0,-1,1245,918,0,0
28,106,0,0,0,0,0,0,0,0,0,-1,1252,918,0,0
35,106,0,0,0,0,0,0,0,0,0,-1,1259,918,0,0
42,106,0,0,0,0,0,0,0,0,0,-1,1266,918,0,0
49,106,0,0,0,0,0,0,0,0,0,-1,1273,918,0,0
56,106,0,0,0,0,0,0,0,0,0,-1,1280,918,0,0
63,106,0,0,0,0,0,0,0,0,0,-1,1287,918,0,0
70,106,0,0,0,0,0,0,0,0,0,-1,1294,918,0,0
77,106,0,0,0,0,0,0,0,0,0,-1,1301,918,0,0
84,106,0,0,0,0,0,0,0,0,0,-1,1308,918,0,0
91,106,0,0,0,0,0,0,0,0,0,-1,1315,918,0,0
98,106,0,0,0,0,0,0,0,0,0,-1,1322,918,0,0
105,106,0,0,0,0,0,0,0,0,0,-1,1329,918,0,0
112,106,0,0,0,0,0,0,0,0,0,-1,1336,918,0,0
119,106,0,0,0,0,0,0,0,0,0,-1,1343,918,0,0
126,106,0,0,0,0,0,0,0,0,0,-1,1350,918,0,0
133,106,0,0,0,0,0,0,0,0,0,-1,1357,918,0,0
140,106,0,0,0,0,0,0,0,0,0,-1,1364,918,0,0
147,106,0,0,0,0,0,0,0,0,0,-1,1371,918,0,0
154,106,0,0,0,0,0,0,0,0,0,-1,1378,918,0,0
161,106,0,0,0,0,0,0,0,0,0,-1,1385,918,0,0
168,106,0,0,0,0,0,0,0,0,0,-1,1392,918,0,0
175,106,0,0,0,0,0,0,0,0,0,-1,1399,918,0,0
182,106,0,0,0,0,0,0,0,0,0,-1,1406,918,0,0
189,106,0,0,0,0,0,0,0,0,0,-1,1413,918,0,0
196,106,0,0,0,0,0,0,0,0,0,-1,1420,918,0,0
203,106,0,0,0,0,0,0,0,0,0,-1,1427,918,0,0
210,106,0,0,0,0,0,0,0,0,0,-1,1434,918,0,0
217,106,0,0,0,0,0,0,0,0,0,-1,1441,918,0,0
224,106,0,0,0,0,0,0,0,0,0,-1,1448,918,0,0
231,106,0,0,0,0,0,0,0,0,0,-1,1455,918,0,0
238,106,0,0,0,0,0,0,0,0,0,-1,1462,918,0,0
245,106,0,0,0,0,0,0,0,0,0,-1,1469,918,0,0
252,106,0,0,0,0,0,0,0,0,0,-1,1476,918,0,0
259,106,0,0,0,0,0,0,0,0,0,-1,1483,918,0,0
266,106,0,0,0,0,0,0,0,0,0,-1,1490,918,0,0
273,106,0,0,0,0,0,0,0,0,0,-1,1497,918,0,0
280,106,0,0,0,0,0,0,0,0,0,-1,1504,918,0,0
287,106,0,0,0,0,0,0,0,0,0,-1,1511,918,0,0
294,106,0,0,0,0,0,0,0,0,0,-1,1518,918,0,0
301,106,0,0,0,0,0,0,0,0,0,-1,1525,918,0,0
308,106,0,0,0,0,0,0,0,0,0,-1,1532,918,0,0
315,106,0,0,0,0,0,0,0,0,0,-1,1539,918,0,0
322,106,0,0,0,0,0,0,0,0,0,-1,1546,918,0,0
329,106,0,0,0,0,0,0,0,0,0,-1,1553,918,0,0
336,106,0,0,0,0,0,0,0,0,0,-1,1560,918,0,0
343,106,0,0,0,0,0,0,0,0,0,-1,1567,918,0,0
350,106,0,0,0,0,0,0,0,0,0,-1,1574,918,0,0
357,106,0,0,0,0,0,0,0,0,0,-1,1581,918,0,0
364,106,0,0,0,0,0,0,0,0,0,-1,1588,918,0,0
371,106,0,0,0,0,0,0,0,0,0,-1,1595,918,0,0
378,106,0,0,0,0,0,0,0,0,0,-1,1602,918,0,0
385,106,0,0,0,0,0,0,0,0,0,-1,1609,918,0,0
392,106,0,0,0,0,0,0,0,0,0,-1,1616,918,0,0
399,106,0,0,0,0,0,0,0,0,0,-1,1623,918,0,0
406,106,0,0,0,0,0,0,0,0,0,-1,1630,918,0,0
413,106,0,0,0,0,0,0,0,0,0,-1,1637,918,0,0
420,106,0,0,0,0,0,0,0,0,0,-1,1644,918,0,0
427,106,0,0,0,0,0,0,0,0,0,-1,1651,918,0,0
434,106,0,0,0,0,0,0,0,0,0,-1,1658,918,0,0
441,106,0,0,0,0,0,0,0,0,0,-1,1665,918,0,0
448,106,0,0,0,0,0,0,0,0,0,-1,1672,918,0,0
455,106,0,0,0,0,0,0,0,0,0,-1,1679,918,0,0
462,106,0,0,0,0,0,0,0,0,0,-1,1686,918,0,0
469,106,0,0,0,0,0,0,0,0,0,-1,1693,918,0,0
476,106,0,0,0,0,0,0,0,0,0,-1,1700,918,0,0
483,106,0,0,0,0,0,0,0,0,0,-1,1707,918,0,0
490,106,0,0,0,0,0,0,0,0,0,-1,1714,918,0,0
497,106,0,0,0,0,0,0,0,0,0,-1,1721,918,0,0
504,106,0,0,0,0,0,0,0,0,0,-1,1728,918,0,0
511,106,0,0,0,0,0,0,0,0,0,-1,1735,918,0,0
518,106,0,0,0,0,0,0,0,0,0,-1,1742,918,0,0
525,106,0,0,0,0,0,0,0,0,0,-1,1749,918,0,0
532,106,0,0,0,0,0,0,0,0,0,-1,1756,918,0,0
539,106,0,0,0,0,0,0,0,0,0,-1,1763,918,0,0
546,106,0,0,0,0,0,0,0,0,0,-1,1770,918,0,0
553,106,0,0,0,0,0,0,0,0,0,-1,1777,918,0,0
560,106,0,0,0,0,0,0,0,0,0,-1,1784,918,0,0
567,106,0,0,0,0,0,0,0,0,0,-1,1791,918,0,0
574,106,0,0,0,0,0,0,0,0,0,-1,1798,918,0,0
581,106,0,0,0,0,0,0,0,0,0,-1,1805,918,0,0
588,106,0,0,0,0,0,0,0,0,0,-1,1812,918,0,0
595,106,0,0,0,0,0,0,0,0,0,-1,1819,918,0,0
602,106,0,0,0,0,0,0,0,0,0,-1,1826,918,0,0
609,106,0,0,0,0,0,0,0,0,0,-1,1833,918,0,0
616,106,0,0,0,0,0,0,0,0,0,-1,1840,918,0,0
623,106,0,0,0,0,0,0,0,0,0,-1,1847,918,0,0
630,106,23.703,3.01935,0.00286371,0.00311123,-0.00121211,0.00420589,0.00176906,-0.836272,0.00243845,0.0399316,1854,918,23.7031,-3.01937
637,106,23.8129,3.10181,0.00257705,0.00292923,-0.00157368,0.00433665,0.00116964,-0.841115,0.00259078,0.0402128,1861,918,23.8128,-3.10179
644,106,23.9093,2.98419,0.00281074,0.00255468,-0.00160049,0.00428831,0.0010771,-0.745487,0.00257603,0.0383639,1868,918,23.9093,-2.98419
651,106,23.9198,2.80426,0.00155943,0.00200816,-0.00172204,0.00352038,4.72018e-05,-0.850178,0.00233135,0.0391373,1875,918,23.9197,-2.80426
658,106,23.8038,2.5929,-0.000896805,0.00159503,-0.00189213,0.00261461,-0.00191638,-1.07655,0.0026263,0.0388845,1882,918,23.8039,-2.59292
665,106,23.6838,2.62872,-0.00342686,0.00121526,-0.00200236,0.00195961,-0.00417121,-1.21489,0.00361559,0.036293,1889,918,23.6838,-2.62874
672,106,23.7985,2.78625,-0.00556367,0.000905747,-0.00202682,0.00148828,-0.0061462,-1.29093,0.00467324,0.0372654,1896,918,23.7985,-2.78626
679,106,23.8408,2.76538,-0.0071959,0.000634693,-0.002017,0.00112369,-0.0076849,-1.33295,0.00553598,0.0347541,1903,918,23.8408,-2.76541
686,106,23.7515,2.66888,-0.00828672,0.000472014,-0.00200505,0.00090919,-0.0087239,-1.35612,0.00614147,0.0314732,1910,918,23.7515,-2.66889
693,106,23.8229,2.60938,-0.00909098,0.000328402,-0.00184819,0.000678058,-0.00944064,-1.38382,0.00653152,0.0264804,1917,918,23.8229,-2.6094
700,106,23.0403,2.84058,0,0,0,0,0,0,0,-1,1924,918,23.0403,-2.84059
707,106,21.7751,3.19904,-0.0094186,0.000214114,-0.00150946,0.00044511,-0.0096496,-1.41894,0.00658645,0.0434911,1931,918,21.7751,-3.19902
714,106,21.5773,3.4043,-0.00856921,0.000272325,-0.00140395,0.000489904,-0.00878679,-1.41704,0.0060278,0.0206284,1938,918,21.5773,-3.40427
721,106,21.6097,3.59204,-0.00696033,0.000313537,-0.00127971,0.000532112,-0.0071789,-1.40163,0.0049728,0.0173496,1945,918,21.6097,-3.59207
728,106,21.6481,3.81274,-0.00516156,0.00102162,-0.00134253,0.00130053,-0.00544047,-1.36596,0.00412934,0.0163182,1952,918,21.648,-3.81272
735,106,21.639,3.99738,-0.00307136,0.00125573,-0.000995525,0.00147378,-0.00328941,-1.35517,0.00281584,0.0153549,1959,918,21.6391,-3.99737
742,106,21.6084,4.15985,-0.000572187,0.00192963,-0.000907369,0.00222407,-0.000866623,-1.25702,0.00184089,0.0109953,1966,918,21.6084,-4.15986
749,106,21.6006,4.32843,0.00281856,0.00324626,-0.000656426,0.00372279,0.00234202,-0.942868,0.00217311,0.00837584,1973,918,21.6006,-4.32841
756,106,21.5929,4.4718,0.00602408,0.00495697,-0.000357272,0.00613265,0.0048484,-0.295018,0.00373469,0.00975502,1980,918,21.5929,-4.47182
763,106,21.5546,4.67761,0.0089784,0.00701179,-9.73525e-05,0.00898321,0.00700698,-0.0493418,0.00545081,0.0167211,1987,918,21.5545,-4.67759
770,106,21.4927,4.94391,0.0120863,0.00968888,0.000375469,0.0121437,0.00963145,0.151774,0.0074019,0.033647,1994,918,21.4927,-4.94393
777,106,21.3951,5.18042,0.0158954,0.0131218,0.00115361,0.0163125,0.0127047,0.346932,0.00989416,0.0422075,2001,918,21.3952,-5.18044
784,106,21.1776,5.30347,0.0205051,0.0174722,0.00230664,0.0217491,0.0162282,0.494605,0.0130542,0.0452113,2008,918,21.1776,-5.30347
791,106,20.5333,5.25311,0.026081,0.0229769,0.00379568,0.0286297,0.0204282,0.591325,0.0170244,0.0448559,2015,918,20.5334,-5.25312
798,106,19.6151,5.30548,0,0,0,0,0,0,0,-1,2022,918,19.6152,-5.30548
805,106,0,0,0,0,0,0,0,0,0,-1,2029,918,0,0
812,106,0,0,0,0,0,0,0,0,0,-1,2036,918,0,0
-700,99,0,0,0,0,0,0,0,0,0,-1,524,925,0,0
-693,99,0,0,0,0,0,0,0,0,0,-1,531,925,0,0
-686,99,0,0,0,0,0,0,0,0,0,-1,538,925,0,0
-679,99,-17.4406,2.10938,0,0,0,0,0,0,0,-1,545,925,-17.4406,-2.10939
-672,99,-20.8409,3.79675,0,0,0,0,0,0,0,-1,552,925,-20.8409,-3.79673
-665,99,-20.0053,3.74622,0.0819905,0.0377176,0.0260942,0.0940729,0.0256352,0.433637,0.0561557,0.0495868,559,925,-20.0053,-3.74622
-658,99,-19.3074,3.74207,0.0705343,0.0285728,0.0237701,0.0812586,0.0178486,0.423824,0.0493116,0.0493302,566,925,-19.3075,-3.74208
-651,99,-18.581,3.80237,0.0588713,0.0209181,0.0206714,0.0679557,0.0118338,0.414059,0.0419197,0.047634,573,925,-18.581,-3.80234
-644,99,-17.7799,3.81903,0,0,0,0,0,0,0,-1,580,925,-17.7799,-3.81905
-637,99,-14.8044,2.28601,0.037067,0.0100237,0.0138694,0.0429153,0.00417539,0.399046,0.0273249,0.028463,587,925,-14.8044,-2.28601
-630,99,-14.9077,2.16193,0.0274057,0.00677688,0.0110266,0.0321901,0.00199248,0.40938,0.0208277,0.0125451,594,925,-14.9077,-2.16196
-623,99,-14.9672,2.01849,0.0189325,0.00424719,0.00822092,0.0226125,0.000567226,0.420884,0.0148895,0.00762568,601,925,-14.9671,-2.01848
-616,99,-14.9763,1.86298,0.0110625,-0.000384893,0.00579197,0.0134817,-0.00280415,0.395664,0.0100537,0.0090709,608,925,-14.9763,-1.86299
-609,99,-14.9689,1.72241,0.00418506,-0.000561444,0.00313573,0.00574438,-0.00212077,0.461465,0.00469884,0.010087,615,925,-14.9689,-1.72242
-602,99,-14.973,1.59015,-0.0011514,-0.000120023,0.0015787,0.00102508,-0.0022965,0.943262,0.00196399,0.0113591,622,925,-14.973,-1.59014
-595,99,-15.0375,1.45142,-0.00496248,3.10421e-05,0.000804035,0.000157311,-0.00508875,1.41502,0.00344613,0.0150564,629,925,-15.0375,-1.45145
-588,99,-15.0206,1.29083,-0.0068845,-0.000225418,0.000688699,-0.000154937,-0.00695498,1.46881,0.00458588,0.0148659,636,925,-15.0206,-1.29084
-581,99,-14.9257,1.11389,-0.00789721,-0.000415449,0.000527945,-0.000378379,-0.00793428,1.5007,0.00516801,0.0108211,643,925,-14.9257,-1.11389
-574,99,-15.0575,0.942017,-0.00824512,-0.000455869,0.000315632,-0.0004431,-0.00825788,1.53036,0.00536366,0.0196686,650,925,-15.0575,-0.942046
-567,99,-15.6306,0.657288,-0.00814173,-0.000518612,0.000247268,-0.000510599,-0.00814975,1.53841,0.00527121,0.0444939,657,925,-15.6305,-0.657299
-560,99,-16.1486,0.376343,0,0,0,0,0,0,0,-1,664,925,-16.1485,-0.376359
-553,99,-16.3293,0.795105,-0.00676812,-0.000157325,0.000196567,-0.000151485,-0.00677396,1.5411,0.00446633,0.0381225,671,925,-16.3293,-0.795115
-546,99,-16.4528,0.671753,-0.00522442,0.0001713,7.45291e-05,0.000172329,-0.00522545,1.55699,0.00354247,0.042174,678,925,-16.4528,-0.671774
-539,99,-16.3547,0.889709,-0.00308673,0.000628771,-0.000188543,0.000638315,-0.00309627,-1.52022,0.00230658,0.039754,685,925,-16.3547,-0.889712
-532,99,-16.2314,1.21466,-0.000413643,0.00122565,-0.000688816,0.00147665,-0.000664646,-1.22135,0.00126556,0.0414539,692,925,-16.2314,-1.21467
-525,99,-16.1634,1.19623,0.00255215,0.00198953,-0.00163415,0.00392902,0.000612646,-0.700161,0.0024409,0.0437782,699,925,-16.1634,-1.19625
-518,99,-16.0983,0.811829,0.0044386,0.0030421,-0.00312301,0.00694046,0.000540236,-0.675415,0.00445782,0.0417729,706,925,-16.0983,-0.811823
-511,99,0,0,0,0,0,0,0,0,0,-1,713,925,0,0
-504,99,0,0,0,0,0,0,0,0,0,-1,720,925,0,0
-497,99,0,0,0,0,0,0,0,0,0,-1,727,925,0,0
-490,99,0,0,0,0,0,0,0,0,0,-1,734,925,0,0
-483,99,0,0,0,0,0,0,0,0,0,-1,741,925,0,0
-476,99,0,0,0,0,0,0,0,0,0,-1,748,925,0,0
-469,99,0,0,0,0,0,0,0,0,0,-1,755,925,0,0
-462,99,0,0,0,0,0,0,0,0,0,-1,762,925,0,0
-455,99,0,0,0,0,0,0,0,0,0,-1,769,925,0,0
-448,99,0,0,0,0,0,0,0,0,0,-1,776,925,0,0
-441,99,0,0,0,0,0,0,0,0,0,-1,783,925,0,0
-434,99,0,0,0,0,0,0,0,0,0,-1,790,925,0,0
-427,99,0,0,0,0,0,0,0,0,0,-1,797,925,0,0
-420,99,0,0,0,0,0,0,0,0,0,-1,804,925,0,0
-413,99,0,0,0,0,0,0,0,0,0,-1,811,925,0,0
-406,99,0,0,0,0,0,0,0,0,0,-1,818,925,0,0
-399,99,0,0,0,0,0,0,0,0,0,-1,825,925,0,0
-392,99,0,0,0,0,0,0,0,0,0,-1,832,925,0,0
-385,99,0,0,0,0,0,0,0,0,0,-1,839,925,0,0
-378,99,0,0,0,0,0,0,0,0,0,-1,846,925,0,0
-371,99,0,0,0,0,0,0,0,0,0,-1,853,925,0,0
-364,99,0,0,0,0,0,0,0,0,0,-1,860,925,0,0
-357,99,0,0,0,0,0,0,0,0,0,-1,867,925,0,0
-350,99,0,0,0,0,0,0,0,0,0,-1,874,925,0,0
-343,99,0,0,0,0,0,0,0,0,0,-1,881,925,0,0
-336,99,0,0,0,0,0,0,0,0,0,-1,888,925,0,0
-329,99,0,0,0,0,0,0,0,0,0,-1,895,925,0,0
-322,99,0,0,0,0,0,0,0,0,0,-1,902,925,0,0
-315,99,0,0,0,0,0,0,0,0,0,-1,909,925,0,0
-308,99,0,0,0,0,0,0,0,0,0,-1,916,925,0,0
-301,99,0,0,0,0,0,0,0,0,0,-1,923,925,0,0
-294,99,0,0,0,0,0,0,0,0,0,-1,930,925,0,0
-287,99,0,0,0,0,0,0,0,0,0,-1,937,925,0,0
-280,99,0,0,0,0,0,0,0,0,0,-1,944,925,0,0
-273,99,0,0,0,0,0,0,0,0,0,-1,951,925,0,0
-266,99,0,0,0,0,0,0,0,0,0,-1,958,925,0,0
-259,99,0,0,0,0,0,0,0,0,0,-1,965,925,0,0
-252,99,0,0,0,0,0,0,0,0,0,-1,972,925,0,0
-245,99,0,0,0,0,0,0,0,0,0,-1,979,925,0,0
-238,99,0,0,0,0,0,0,0,0,0,-1,986,925,0,0
-231,99,0,0,0,0,0,0,0,0,0,-1,993,925,0,0
-224,99,0,0,0,0,0,0,0,0,0,-1,1000,925,0,0
-217,99,0,0,0,0,0,0,0,0,0,-1,1007,925,0,0
-210,99,0,0,0,0,0,0,0,0,0,-1,1014,925,0,0
-203,99,0,0,0,0,0,0,0,0,0,-1,1021,925,0,0
-196,99,0,0,0,0,0,0,0,0,0,-1,1028,925,0,0
-189,99,0,0,0,0,0,0,0,0,0,-1,1035,925,0,0
-182,99,0,0,0,0,0,0,0,0,0,-1,1042,925,0,0
-175,99,0,0,0,0,0,0,0,0,0,-1,1049,925,0,0
-168,99,0,0,0,0,0,0,0,0,0,-1,1056,925,0,0
-161,99,0,0,0,0,0,0,0,0,0,-1,1063,925,0,0
-154,99,0,0,0,0,0,0,0,0,0,-1,1070,925,0,0
-147,99,0,0,0,0,0,0,0,0,0,-1,1077,925,0,0
-140,99,0,0,0,0,0,0,0,0,0,-1,1084,925,0,0
-133,99,0,0,0,0,0,0,0,0,0,-1,1091,925,0,0
-126,99,0,0,0,0,0,0,0,0,0,-1,1098,925,0,0
-119,99,0,0,0,0,0,0,0,0,0,-1,1105,925,0,0
-112,99,0,0,0,0,0,0,0,0,0,-1,1112,925,0,0
-105,99,0,0,0,0,0,0,0,0,0,-1,1119,925,0,0
-98,99,0,0,0,0,0,0,0,0,0,-1,1126,925,0,0
-91,99,0,0,0,0,0,0,0,0,0,-1,1133,925,0,0
-84,99,0,0,0,0,0,0,0,0,0,-1,1140,925,0,0
-77,99,0,0,0,0,0,0,0,0,0,-1,1147,925,0,0
-70,99,0,0,0,0,0,0,0,0,0,-1,1154,925,0,0
-63,99,0,0,0,0,0,0,0,0,0,-1,1161,925,0,0
-56,99,0,0,0,0,0,0,0,0,0,-1,1168,925,0,0
-49,99,0,0,0,0,0,0,0,0,0,-1,1175,925,0,0
-42,99,0,0,0,0,0,0,0,0,0,-1,1182,925,0,0
-35,99,0,0,0,0,0,0,0,0,0,-1,1189,925,0,0
-28,99,0,0,0,0,0,0,0,0,0,-1,1196,925,0,0
-21,99,0,0,0,0,0,0,0,0,0,-1,1203,925,0,0
-14,99,0,0,0,0,0,0,0,0,0,-1,1210,925,0,0
-7,99,0,0,0,0,0,0,0,0,0,-1,1217,925,0,0
0,99,0,0,0,0,0,0,0,0,0,-1,1224,925,0,0
7,99,0,0,0,0,0,0,0,0,0,-1,1231,925,0,0
14,99,0,0,0,0,0,0,0,0,0,-1,1238,925,0,0
21,99,0,0,0,0,0,0,0,0,0,-1,1245,925,0,0
28,99,0,0,0,0,0,0,0,0,0,-1,1252,925,0,0
35,99,0,0,0,0,0,0,0,0,0,-1,1259,925,0,0
42,99,0,0,0,0,0,0,0,0,0,-1,1266,925,0,0
49,99,0,0,0,0,0,0,0,0,0,-1,1273,925,0,0
56,99,0,0,0,0,0,0,0,0,0,-1,1280,925,0,0
63,99,0,0,0,0,0,0,0,0,0,-1,1287,925,0,0
70,99,0,0,0,0,0,0,0,0,0,-1,1294,925,0,0
77,99,0,0,0,0,0,0,0,0,0,-1,1301,925,0,0
84,99,0,0,0,0,0,0,0,0,0,-1,1308,925,0,0
91,99,0,0,0,0,0,0,0,0,0,-1,1315,925,0,0
98,99,0,0,0,0,0,0,0,0,0,-1,1322,925,0,0
105,99,0,0,0,0,0,0,0,0,0,-1,1329,925,0,0
112,99,0,0,0,0,0,0,0,0,0,-1,1336,925,0,0
119,99,0,0,0,0,0,0,0,0,0,-1,1343,925,0,0
126,99,0,0,0,0,0,0,0,0,0,-1,1350,925,0,0
133,99,0,0,0,0,0,0,0,0,0,-1,1357,925,0,0
140,99,0,0,0,0,0,0,0,0,0,-1,1364,925,0,0
147,99,0,0,0,0,0,0,0,0,0,-1,1371,925,0,0
154,99,0,0,0,0,0,0,0,0,0,-1,1378,925,0,0
161,99,0,0,0,0,0,0,0,0,0,-1,1385,925,0,0
168,99,0,0,0,0,0,0,0,0,0,-1,1392,925,0,0
175,99,0,0,0,0,0,0,0,0,0,-1,1399,925,0,0
182,99,0,0,0,0,0,0,0,0,0,-1,1406,925,0,0
189,99,0,0,0,0,0,0,0,0,0,-1,1413,925,0,0
196,99,0,0,0,0,0,0,0,0,0,-1,1420,925,0,0
203,99,0,0,0,0,0,0,0,0,0,-1,1427,925,0,0
210,99,0,0,0,0,0,0,0,0,0,-1,1434,925,0,0
217,99,0,0,0,0,0,0,0,0,0,-1,1441,925,0,0
224,99,0,0,0,0,0,0,0,0,0,-1,1448,925,0,0
231,99,0,0,0,0,0,0,0,0,0,-1,1455,925,0,0
238,99,0,0,0,0,0,0,0,0,0,-1,1462,925,0,0
245,99,0,0,0,0,0,0,0,0,0,-1,1469,925,0,0
252,99,0,0,0,0,0,0,0,0,0,-1,1476,925,0,0
259,99,0,0,0,0,0,0,0,0,0,-1,1483,925,0,0
266,99,0,0,0,0,0,0,0,0,0,-1,1490,925,0,0
273,99,0,0,0,0,0,0,0,0,0,-1,1497,925,0,0
280,99,0,0,0,0,0,0,0,0,0,-1,1504,925,0,0
287,99,0,0,0,0,0,0,0,0,0,-1,1511,925,0,0
294,99,0,0,0,0,0,0,0,0,0,-1,1518,925,0,0
301,99,0,0,0,0,0,0,0,0,0,-1,1525,925,0,0
308,99,0,0,0,0,0,0,0,0,0,-1,1532,925,0,0
315,99,0,0,0,0,0,0,0,0,0,-1,1539,925,0,0
322,99,0,0,0,0,0,0,0,0,0,-1,1546,925,0,0
329,99,0,0,0,0,0,0,0,0,0,-1,1553,925,0,0
336,99,0,0,0,0,0,0,0,0,0,-1,1560,925,0,0
343,99,0,0,0,0,0,0,0,0,0,-1,1567,925,0,0
350,99,0,0,0,0,0,0,0,0,0,-1,1574,925,0,0
357,99,0,0,0,0,0,0,0,0,0,-1,1581,925,0,0
364,99,0,0,0,0,0,0,0,0,0,-1,1588,925,0,0
371,99,0,0,0,0,0,0,0,0,0,-1,1595,925,0,0
378,99,0,0,0,0,0,0,0,0,0,-1,1602,925,0,0
385,99,0,0,0,0,0,0,0,0,0,-1,1609,925,0,0
392,99,0,0,0,0,0,0,0,0,0,-1,1616,925,0,0
399,99,0,0,0,0,0,0,0,0,0,-1,1623,925,0,0
406,99,0,0,0,0,0,0,0,0,0,-1,1630,925,0,0
413,99,0,0,0,0,0,0,0,0,0,-1,1637,925,0,0
420,99,0,0,0,0,0,0,0,0,0,-1,1644,925,0,0
427,99,0,0,0,0,0,0,0,0,0,-1,1651,925,0,0
434,99,0,0,0,0,0,0,0,0,0,-1,1658,925,0,0
441,99,0,0,0,0,0,0,0,0,0,-1,1665,925,0,0
448,99,0,0,0,0,0,0,0,0,0,-1,1672,925,0,0
455,99,0,0,0,0,0,0,0,0,0,-1,1679,925,0,0
462,99,0,0,0,0,0,0,0,0,0,-1,1686,925,0,0
469,99,0,0,0,0,0,0,0,0,0,-1,1693,925,0,0
476,99,0,0,0,0,0,0,0,0,0,-1,1700,925,0,0
483,99,0,0,0,0,0,0,0,0,0,-1,1707,925,0,0
490,99,0,0,0,0,0,0,0,0,0,-1,1714,925,0,0
497,99,0,0,0,0,0,0,0,0,0,-1,1721,925,0,0
504,99,0,0,0,0,0,0,0,0,0,-1,1728,925,0,0
511,99,0,0,0,0,0,0,0,0,0,-1,1735,925,0,0
518,99,0,0,0,0,0,0,0,0,0,-1,1742,925,0,0
525,99,0,0,0,0,0,0,0,0,0,-1,1749,925,0,0
532,99,0,0,0,0,0,0,0,0,0,-1,1756,925,0,0
539,99,0,0,0,0,0,0,0,0,0,-1,1763,925,0,0
546,99,0,0,0,0,0,0,0,0,0,-1,1770,925,0,0
553,99,0,0,0,0,0,0,0,0,0,-1,1777,925,0,0
560,99,0,0,0,0,0,0,0,0,0,-1,1784,925,0,0
567,99,0,0,0,0,0,0,0,0,0,-1,1791,925,0,0
574,99,0,0,0,0,0,0,0,0,0,-1,1798,925,0,0
581,99,0,0,0,0,0,0,0,0,0,-1,1805,925,0,0
588,99,0,0,0,0,0,0,0,0,0,-1,1812,925,0,0
595,99,0,0,0,0,0,0,0,0,0,-1,1819,925,0,0
602,99,0,0,0,0,0,0,0,0,0,-1,1826,925,0,0
609,99,0,0,0,0,0,0,0,0,0,-1,1833,925,0,0
616,99,0,0,0,0,0,0,0,0,0,-1,1840,925,0,0
623,99,0,0,0,0,0,0,0,0,0,-1,1847,925,0,0
630,99,0,0,0,0,0,0,0,0,0,-1,1854,925,0,0
637,99,23.8945,2.92438,0.00294696,0.00395234,-0.00252005,0.00601935,0.000879945,-0.883844,0.00375412,0.0439458,1861,925,23.8946,-2.92441
644,99,23.912,2.8382,0.00320311,0.0034729,-0.00213521,0.00547748,0.00119854,-0.816944,0.00332494,0.0393513,1868,925,23.912,-2.8382
651,99,23.9451,2.72162,0.0021202,0.00282262,-0.00194719,0.00445002,0.000492799,-0.874622,0.00281682,0.036196,1875,925,23.945,-2.72163
658,99,23.9254,2.63165,-0.000205123,0.00232833,-0.00188078,0.00332919,-0.00120598,-1.08176,0.00271235,0.0358767,1882,925,23.9254,-2.63166
665,99,23.8323,2.61847,-0.0027268,0.00188876,-0.00182315,0.00252203,-0.00336006,-1.23649,0.00340749,0.0377264,1889,925,23.8323,-2.61846
672,99,23.8521,2.77673,-0.00488121,0.00150701,-0.00172346,0.00194231,-0.00531652,-1.32339,0.00433919,0.0409241,1896,925,23.852,-2.77676
679,99,23.8171,2.79877,-0.00655142,0.00116319,-0.00162178,0.00149026,-0.00687849,-1.37179,0.00515473,0.0392189,1903,925,23.8172,-2.79876
686,99,23.7587,2.78894,-0.00765967,0.000931524,-0.00156482,0.00120767,-0.00793582,-1.39612,0.00573564,0.0310656,1910,925,23.7587,-2.78896
693,99,23.7649,2.70026,-0.00843669,0.00071844,-0.00138195,0.000922494,-0.00864075,-1.4242,0.00609133,0.0265999,1917,925,23.7649,-2.70024
700,99,23.5264,2.72443,0,0,0,0,0,0,0,-1,1924,925,23.5264,-2.72442
707,99,22.2537,3.198,-0.00873457,0.000532622,-0.0010595,0.00065221,-0.00885416,-1.4584,0.00613175,0.0466412,1931,925,22.2537,-3.19797
714,99,21.8411,3.4281,-0.00800156,0.000546026,-0.000989179,0.000659006,-0.00811454,-1.45707,0.00564221,0.0198886,1938,925,21.8411,-3.4281
721,99,21.7736,3.58472,-0.00669931,0.000565096,-0.000871939,0.000668288,-0.0068025,-1.453,0.00477339,0.019674,1945,925,21.7736,-3.58474
728,99,21.8126,3.79303,-0.00532572,0.000966029,-0.000809028,0.00106839,-0.00542808,-1.44494,0.00402243,0.0160775,1952,925,21.8126,-3.79305
735,99,21.8088,3.98431,-0.00375139,0.00108301,-0.000397944,0.00111555,-0.00378393,-1.48921,0.00296526,0.014048,1959,925,21.8089,-3.98429
742,99,21.7957,4.15106,-0.00180962,0.00167357,-0.000221615,0.00168761,-0.00182366,-1.50751,0.00202774,0.0113258,1966,925,21.7957,-4.15106
749,99,21.7847,4.32153,0.000940523,0.00289941,0.000274368,0.00293711,0.00090282,1.43423,0.00173718,0.00923688,1973,925,21.7846,-4.32156
756,99,21.7721,4.45581,0.00349983,0.0044739,0.000955862,0.00505965,0.00291408,1.02102,0.0029324,0.0101126,1980,925,21.7721,-4.45584
763,99,21.7689,4.59393,0.00577909,0.00635308,0.00167594,0.00776642,0.00436575,0.870199,0.00449547,0.0129513,1987,925,21.7689,-4.59394
770,99,21.7745,4.84283,0.00809735,0.00888571,0.002683,0.0112033,0.00577972,0.858335,0.00646933,0.0249487,1994,925,21.7745,-4.84286
777,99,21.7673,5.47186,0.0109625,0.0121447,0.00405367,0.0156501,0.00745702,0.857796,0.00903892,0.0382525,2001,925,21.7673,-5.47188
784,99,20.9673,5.48132,0.014605,0.0163113,0.00581797,0.0213383,0.00957793,0.858202,0.0123411,0.042475,2008,925,20.9673,-5.48135
791,99,20.6151,5.32184,0.0192334,0.0216094,0.00788688,0.0283973,0.0124456,0.860152,0.0164368,0.0440056,2015,925,20.6151,-5.32181
798,99,23.7601,6.56891,0,0,0,0,0,0,0,-1,2022,925,23.7602,-6.56891
805,99,0,0,0,0,0,0,0,0,0,-1,2029,925,0,0
812,99,0,0,0,0,0,0,0,0,0,-1,2036,925,0,0
-700,92,0,0,0,0,0,0,0,0,0,-1,524,932,0,0
-693,92,0,0,0,0,0,0,0,0,0,-1,531,932,0,0
-686,92,-20.04,-0.0874023,0,0,0,0,0,0,0,-1,538,932,-20.04,0.0874305
-679,92,-17.2674,1.84924,0,0,0,0,0,0,0,-1,545,932,-17.2674,-1.84926
-672,92,-20.5856,4.82855,0,0,0,0,0,0,0,-1,552,932,-20.5856,-4.82853
-665,92,-20.0045,4.40619,0,0,0,0,0,0,0,-1,559,932,-20.0045,-4.40617
-658,92,-19.7129,4.08667,0,0,0,0,0,0,0,-1,566,932,-19.7129,-4.08667
-651,92,-18.9651,4.01514,0,0,0,0,0,0,0,-1,573,932,-18.9651,-4.01515
-644,92,-18.2173,3.9436,0,0,0,0,0,0,0,-1,580,932,-18.2173,-3.94363
-637,92,-14.9963,2.26758,0.0347479,0.0129023,0.0137972,0.0414226,0.00622763,0.450578,0.025791,0.0236497,587,932,-14.9963,-2.26759
-630,92,-15.0754,2.13092,0.025201,0.0089705,0.0109655,0.0307276,0.00344394,0.466839,0.019439,0.0116304,594,932,-15.0754,-2.13091
-623,92,-15.1102,2.00525,0.0168706,0.00588694,0.00804517,0.0211197,0.00163788,0.485913,0.0135668,0.0083148,601,932,-15.1102,-2.00524
-616,92,-15.1321,1.8595,0.00920143,0.000515162,0.00555186,0.0119071,-0.00219053,0.453476,0.00876003,0.00799501,608,932,-15.1321,-1.85947
-609,92,-15.1282,1.71277,0.00269562,-0.000108567,0.00284279,0.00446328,-0.00187623,0.556298,0.00376033,0.00863527,615,932,-15.1282,-1.71278
-602,92,-15.1096,1.57764,-0.00220206,0.000207785,0.00121663,0.000715177,-0.00270945,1.17568,0.00208597,0.00968852,622,932,-15.1096,-1.57765
-595,92,-15.0736,1.40857,-0.00559956,0.000266815,0.000439364,0.000299539,-0.00563228,1.49645,0.00385858,0.0163223,629,932,-15.0736,-1.40854
-588,92,-15.065,1.27747,-0.00727087,8.36868e-05,0.000255201,9.25316e-05,-0.00727972,1.53615,0.00488428,0.0181763,636,932,-15.065,-1.27748
-581,92,-15.064,1.14508,-0.00813009,7.91565e-07,2.03243e-05,8.42381e-07,-0.00813014,1.5683,0.00542037,0.0154831,643,932,-15.064,-1.14509
-574,92,-15.3577,1.01758,-0.00836788,7.99436e-05,-0.000286983,8.96817e-05,-0.00837762,-1.53688,0.00561521,0.0258823,650,932,-15.3577,-1.01755
-567,92,-15.9385,0.764404,-0.00819048,0.000111722,-0.000415833,0.000132497,-0.00821125,-1.52088,0.00551886,0.0461877,657,932,-15.9385,-0.76442
-560,92,-16.1883,0.817566,-0.00768226,0.000361165,-0.000468726,0.000388387,-0.00770948,-1.51278,0.00527389,0.0342057,664,932,-16.1883,-0.817581
-553,92,-16.2967,0.755249,-0.0065326,0.000683394,-0.000574084,0.000728781,-0.00657798,-1.4919,0.00464734,0.0376777,671,932,-16.2967,-0.755239
-546,92,-16.308,0.736145,-0.004782,0.00111081,-0.000746761,0.00120397,-0.00487516,-1.44669,0.00371701,0.0411905,678,932,-16.308,-0.736135
-539,92,-16.316,0.9375,-0.00242545,0.00165343,-0.00106249,0.0019136,-0.00268562,-1.33066,0.0026678,0.040151,685,932,-16.3161,-0.937494
-532,92,-16.2727,1.12299,0.000453315,0.00231423,-0.00163999,0.00326933,-0.000501778,-1.04343,0.00236462,0.0429354,692,932,-16.2727,-1.12299
-525,92,-16.2411,1.15442,0.00341609,0.00313675,-0.00271741,0.00599742,0.000555427,-0.759721,0.0038266,0.0429565,699,932,-16.2411,-1.15442
-518,92,-16.1273,1.02411,0.00470408,0.00425053,-0.00439021,0.00887336,8.12416e-05,-0.759594,0.00588868,0.0432629,706,932,-16.1273,-1.02411
-511,92,0,0,0,0,0,0,0,0,0,-1,713,932,0,0
-504,92,0,0,0,0,0,0,0,0,0,-1,720,932,0,0
-497,92,0,0,0,0,0,0,0,0,0,-1,727,932,0,0
-490,92,0,0,0,0,0,0,0,0,0,-1,734,932,0,0
-483,92,0,0,0,0,0,0,0,0,0,-1,741,932,0,0
-476,92,0,0,0,0,0,0,0,0,0,-1,748,932,0,0
-469,92,0,0,0,0,0,0,0,0,0,-1,755,932,0,0
-462,92,0,0,0,0,0,0,0,0,0,-1,762,932,0,0
-455,92,0,0,0,0,0,0,0,0,0,-1,769,932,0,0
-448,92,0,0,0,0,0,0,0,0,0,-1,776,932,0,0
-441,92,0,0,0,0,0,0,0,0,0,-1,783,932,0,0
-434,92,0,0,0,0,0,0,0,0,0,-1,790,932,0,0
-427,92,0,0,0,0,0,0,0,0,0,-1,797,932,0,0
-420,92,0,0,0,0,0,0,0,0,0,-1,804,932,0,0
-413,92,0,0,0,0,0,0,0,0,0,-1,811,932,0,0
-406,92,0,0,0,0,0,0,0,0,0,-1,818,932,0,0
-399,92,0,0,0,0,0,0,0,0,0,-1,825,932,0,0
-392,92,0,0,0,0,0,0,0,0,0,-1,832,932,0,0
-385,92,0,0,0,0,0,0,0,0,0,-1,839,932,0,0
-378,92,0,0,0,0,0,0,0,0,0,-1,846,932,0,0
-371,92,0,0,0,0,0,0,0,0,0,-1,853,932,0,0
-364,92,0,0,0,0,0,0,0,0,0,-1,860,932,0,0
-357,92,0,0,0,0,0,0,0,0,0,-1,867,932,0,0
-350,92,0,0,0,0,0,0,0,0,0,-1,874,932,0,0
-343,92,0,0,0,0,0,0,0,0,0,-1,881,932,0,0
-336,92,0,0,0,0,0,0,0,0,0,-1,888,932,0,0
-329,92,0,0,0,0,0,0,0,0,0,-1,895,932,0,0
-322,92,0,0,0,0,0,0,0,0,0,-1,902,932,0,0
-315,92,0,0,0,0,0,0,0,0,0,-1,909,932,0,0
-308,92,0,0,0,0,0,0,0,0,0,-1,916,932,0,0
-301,92,0,0,0,0,0,0,0,0,0,-1,923,932,0,0
-294,92,0,0,0,0,0,0,0,0,0,-1,930,932,0,0
-287,92,0,0,0,0,0,0,0,0,0,-1,937,932,0,0
-280,92,0,0,0,0,0,0,0,0,0,-1,944,932,0,0
-273,92,0,0,0,0,0,0,0,0,0,-1,951,932,0,0
-266,92,0,0,0,0,0,0,0,0,0,-1,958,932,0,0
-259,92,0,0,0,0,0,0,0,0,0,-1,965,932,0,0
-252,92,0,0,0,0,0,0,0,0,0,-1,972,932,0,0
-245,92,0,0,0,0,0,0,0,0,0,-1,979,932,0,0
-238,92,0,0,0,0,0,0,0,0,0,-1,986,932,0,0
-231,92,0,0,0,0,0,0,0,0,0,-1,993,932,0,0
-224,92,0,0,0,0,0,0,0,0,0,-1,1000,932,0,0
-217,92,0,0,0,0,0,0,0,0,0,-1,1007,932,0,0
-210,92,0,0,0,0,0,0,0,0,0,-1,1014,932,0,0
-203,92,0,0,0,0,0,0,0,0,0,-1,1021,932,0,0
-196,92,0,0,0,0,0,0,0,0,0,-1,1028,932,0,0
-189,92,0,0,0,0,0,0,0,0,0,-1,1035,932,0,0
-182,92,0,0,0,0,0,0,0,0,0,-1,1042,932,0,0
-175,92,0,0,0,0,0,0,0,0,0,-1,1049,932,0,0
-168,92,0,0,0,0,0,0,0,0,0,-1,1056,932,0,0
-161,92,0,0,0,0,0,0,0,0,0,-1,1063,932,0,0
-154,92,0,0,0,0,0,0,0,0,0,-1,1070,932,0,0
-147,92,0,0,0,0,0,0,0,0,0,-1,1077,932,0,0
-140,92,0,0,0,0,0,0,0,0,0,-1,1084,932,0,0
-133,92,0,0,0,0,0,0,0,0,0,-1,1091,932,0,0
-126,92,0,0,0,0,0,0,0,0,0,-1,1098,932,0,0
-119,92,0,0,0,0,0,0,0,0,0,-1,1105,932,0,0
-112,92,0,0,0,0,0,0,0,0,0,-1,1112,932,0,0
-105,92,0,0,0,0,0,0,0,0,0,-1,1119,932,0,0
-98,92,0,0,0,0,0,0,0,0,0,-1,1126,932,0,0
-91,92,0,0,0,0,0,0,0,0,0,-1,1133,932,0,0
-84,92,0,0,0,0,0,0,0,0,0,-1,1140,932,0,0
-77,92,0,0,0,0,0,0,0,0,0,-1,1147,932,0,0
-70,92,0,0,0,0,0,0,0,0,0,-1,1154,932,0,0
-63,92,0,0,0,0,0,0,0,0,0,-1,1161,932,0,0
-56,92,0,0,0,0,0,0,0,0,0,-1,1168,932,0,0
-49,92,0,0,0,0,0,0,0,0,0,-1,1175,932,0,0
-42,92,0,0,0,0,0,0,0,0,0,-1,1182,932,0,0
-35,92,0,0,0,0,0,0,0,0,0,-1,1189,932,0,0
-28,92,0,0,0,0,0,0,0,0,0,-1,1196,932,0,0
-21,92,0,0,0,0,0,0,0,0,0,-1,1203,932,0,0
-14,92,0,0,0,0,0,0,0,0,0,-1,1210,932,0,0
-7,92,0,0,0,0,0,0,0,0,0,-1,1217,932,0,0
0,92,0,0,0,0,0,0,0,0,0,-1,1224,932,0,0
7,92,0,0,0,0,0,0,0,0,0,-1,1231,932,0,0
14,92,0,0,0,0,0,0,0,0,0,-1,1238,932,0,0
21,92,0,0,0,0,0,0,0,0,0,-1,1245,932,0,0
28,92,0,0,0,0,0,0,0,0,0,-1,1252,932,0,0
35,92,0,0,0,0,0,0,0,0,0,-1,1259,932,0,0
42,92,0,0,0,0,0,0,0,0,0,-1,1266,932,0,0
49,92,0,0,0,0,0,0,0,0,0,-1,1273,932,0,0
56,92,0,0,0,0,0,0,0,0,0,-1,1280,932,0,0
63,92,0,0,0,0,0,0,0,0,0,-1,1287,932,0,0
70,92,0,0,0,0,0,0,0,0,0,-1,1294,932,0,0
77,92,0,0,0,0,0,0,0,0,0,-1,1301,932,0,0
84,92,0,0,0,0,0,0,0,0,0,-1,1308,932,0,0
91,92,0,0,0,0,0,0,0,0,0,-1,1315,932,0,0
98,92,0,0,0,0,0,0,0,0,0,-1,1322,932,0,0
105,92,0,0,0,0,0,0,0,0,0,-1,1329,932,0,0
112,92,0,0,0,0,0,0,0,0,0,-1,1336,932,0,0
119,92,0,0,0,0,0,0,0,0,0,-1,1343,932,0,0
126,92,0,0,0,0,0,0,0,0,0,-1,1350,932,0,0
133,92,0,0,0,0,0,0,0,0,0,-1,1357,932,0,0
140,92,0,0,0,0,0,0,0,0,0,-1,1364,932,0,0
147,92,0,0,0,0,0,0,0,0,0,-1,1371,932,0,0
154,92,0,0,0,0,0,0,0,0,0,-1,1378,932,0,0
161,92,0,0,0,0,0,0,0,0,0,-1,1385,932,0,0
168,92,0,0,0,0,0,0,0,0,0,-1,1392,932,0,0
175,92,0,0,0,0,0,0,0,0,0,-1,1399,932,0,0
182,92,0,0,0,0,0,0,0,0,0,-1,1406,932,0,0
189,92,0,0,0,0,0,0,0,0,0,-1,1413,932,0,0
196,92,0,0,0,0,0,0,0,0,0,-1,1420,932,0,0
203,92,0,0,0,0,0,0,0,0,0,-1,1427,932,0,0
210,92,0,0,0,0,0,0,0,0,0,-1,1434,932,0,0
217,92,0,0,0,0,0,0,0,0,0,-1,1441,932,0,0
224,92,0,0,0,0,0,0,0,0,0,-1,1448,932,0,0
231,92,0,0,0,0,0,0,0,0,0,-1,1455,932,0,0
238,92,0,0,0,0,0,0,0,0,0,-1,1462,932,0,0
245,92,0,0,0,0,0,0,0,0,0,-1,1469,932,0,0
252,92,0,0,0,0,0,0,0,0,0,-1,1476,932,0,0
259,92,0,0,0,0,0,0,0,0,0,-1,1483,932,0,0
266,92,0,0,0,0,0,0,0,0,0,-1,1490,932,0,0
273,92,0,0,0,0,0,0,0,0,0,-1,1497,932,0,0
280,92,0,0,0,0,0,0,0,0,0,-1,1504,932,0,0
287,92,0,0,0,0,0,0,0,0,0,-1,1511,932,0,0
294,92,0,0,0,0,0,0,0,0,0,-1,1518,932,0,0
301,92,0,0,0,0,0,0,0,0,0,-1,1525,932,0,0
308,92,0,0,0,0,0,0,0,0,0,-1,1532,932,0,0
315,92,0,0,0,0,0,0,0,0,0,-1,1539,932,0,0
322,92,0,0,0,0,0,0,0,0,0,-1,1546,932,0,0
329,92,0,0,0,0,0,0,0,0,0,-1,1553,932,0,0
336,92,0,0,0,0,0,0,0,0,0,-1,1560,932,0,0
343,92,0,0,0,0,0,0,0,0,0,-1,1567,932,0,0
350,92,0,0,0,0,0,0,0,0,0,-1,1574,932,0,0
357,92,0,0,0,0,0,0,0,0,0,-1,1581,932,0,0
364,92,0,0,0,0,0,0,0,0,0,-1,1588,932,0,0
371,92,0,0,0,0,0,0,0,0,0,-1,1595,932,0,0
378,92,0,0,0,0,0,0,0,0,0,-1,1602,932,0,0
385,92,0,0,0,0,0,0,0,0,0,-1,1609,932,0,0
392,92,0,0,0,0,0,0,0,0,0,-1,1616,932,0,0
399,92,0,0,0,0,0,0,0,0,0,-1,1623,932,0,0
406,92,0,0,0,0,0,0,0,0,0,-1,1630,932,0,0
413,92,0,0,0,0,0,0,0,0,0,-1,1637,932,0,0
420,92,0,0,0,0,0,0,0,0,0,-1,1644,932,0,0
427,92,0,0,0,0,0,0,0,0,0,-1,1651,932,0,0
434,92,0,0,0,0,0,0,0,0,0,-1,1658,932,0,0
441,92,0,0,0,0,0,0,0,0,0,-1,1665,932,0,0
448,92,0,0,0,0,0,0,0,0,0,-1,1672,932,0,0
455,92,0,0,0,0,0,0,0,0,0,-1,1679,932,0,0
462,92,0,0,0,0,0,0,0,0,0,-1,1686,932,0,0
469,92,0,0,0,0,0,0,0,0,0,-1,1693,932,0,0
476,92,0,0,0,0,0,0,0,0,0,-1,1700,932,0,0
483,92,0,0,0,0,0,0,0,0,0,-1,1707,932,0,0
490,92,0,0,0,0,0,0,0,0,0,-1,1714,932,0,0
497,92,0,0,0,0,0,0,0,0,0,-1,1721,932,0,0
504,92,0,0,0,0,0,0,0,0,0,-1,1728,932,0,0
511,92,0,0,0,0,0,0,0,0,0,-1,1735,932,0,0
518,92,0,0,0,0,0,0,0,0,0,-1,1742,932,0,0
525,92,0,0,0,0,0,0,0,0,0,-1,1749,932,0,0
532,92,0,0,0,0,0,0,0,0,0,-1,1756,932,0,0
539,92,0,0,0,0,0,0,0,0,0,-1,1763,932,0,0
546,92,0,0,0,0,0,0,0,0,0,-1,1770,932,0,0
553,92,0,0,0,0,0,0,0,0,0,-1,1777,932,0,0
560,92,0,0,0,0,0,0,0,0,0,-1,1784,932,0,0
567,92,0,0,0,0,0,0,0,0,0,-1,1791,932,0,0
574,92,0,0,0,0,0,0,0,0,0,-1,1798,932,0,0
581,92,0,0,0,0,0,0,0,0,0,-1,1805,932,0,0
588,92,0,0,0,0,0,0,0,0,0,-1,1812,932,0,0
595,92,0,0,0,0,0,0,0,0,0,-1,1819,932,0,0
602,92,0,0,0,0,0,0,0,0,0,-1,1826,932,0,0
609,92,0,0,0,0,0,0,0,0,0,-1,1833,932,0,0
616,92,0,0,0,0,0,0,0,0,0,-1,1840,932,0,0
623,92,0,0,0,0,0,0,0,0,0,-1,1847,932,0,0
630,92,0,0,0,0,0,0,0,0,0,-1,1854,932,0,0
637,92,23.6798,2.85748,0.00369601,0.00363273,-0.00350563,0.00717014,0.000158601,-0.780885,0.00472811,0.0454006,1861,932,23.6798,-2.85746
644,92,23.7561,2.7619,0.0037767,0.00327377,-0.00271716,0.00625401,0.00079646,-0.739257,0.00393084,0.0391912,1868,932,23.7561,-2.7619
651,92,23.8556,2.70282,0.00276655,0.00271981,-0.00222732,0.00497062,0.000515739,-0.780153,0.00315591,0.0370611,1875,932,23.8556,-2.70283
658,92,23.9171,2.62152,0.000597728,0.00230849,-0.00190495,0.00354129,-0.000635072,-0.996422,0.00259855,0.0398604,1882,932,23.9171,-2.62151
665,92,23.8265,2.89429,-0.00184993,0.00194767,-0.00165323,0.00256653,-0.00246879,-1.21261,0.00290733,0.0414516,1889,932,23.8265,-2.89428
672,92,23.7571,2.95184,-0.00401918,0.00161231,-0.00139867,0.00194056,-0.00434743,-1.34028,0.00371796,0.04343,1896,932,23.7571,-2.95184
679,92,23.7408,2.9292,-0.00573529,0.0013017,-0.00118046,0.00149444,-0.00592804,-1.40895,0.00453304,0.0400191,1903,932,23.7409,-2.92921
686,92,23.759,2.86847,-0.0068741,0.00106975,-0.00105843,0.00120835,-0.00701271,-1.44058,0.00512562,0.0297144,1910,932,23.759,-2.8685
693,92,23.7677,2.82483,-0.00766837,0.000832366,-0.000839384,0.000914457,-0.00775046,-1.47331,0.0054972,0.0236313,1917,932,23.7677,-2.82481
700,92,23.7427,2.83014,-0.00810752,0.000710116,-0.000630774,0.000755011,-0.00815242,-1.49974,0.0057033,0.043018,1924,932,23.7427,-2.83015
707,92,22.4994,3.16016,0,0,0,0,0,0,0,-1,1931,932,22.4994,-3.16015
714,92,21.9603,3.50427,-0.00756807,0.000674744,-0.000478607,0.000702441,-0.00759577,-1.51299,0.00531349,0.0399923,1938,932,21.9603,-3.50428
721,92,22.0166,3.62604,-0.00678191,0.00073907,-0.000311429,0.000751943,-0.00679478,-1.52948,0.00480017,0.0225915,1945,932,22.0166,-3.62602
728,92,21.9647,3.83289,-0.00603407,0.000985906,-8.27959e-05,0.000986883,-0.00603505,-1.559,0.00438946,0.0177994,1952,932,21.9648,-3.83288
735,92,21.9664,3.9978,-0.00515081,0.00111675,0.000386873,0.00114054,-0.0051746,1.50938,0.00388611,0.0155784,1959,932,21.9665,-3.99781
742,92,21.9958,4.13538,-0.0039617,0.00177757,0.000679024,0.00185681,-0.00404095,1.45462,0.00348203,0.015859,1966,932,21.9959,-4.1354
749,92,21.9543,4.29633,-0.00218728,0.00311038,0.00149666,0.00350397,-0.00258087,1.31364,0.00352653,0.013622,1973,932,21.9543,-4.29633
756,92,21.9164,4.44788,-0.000742089,0.004753,0.00266946,0.00583625,-0.00182534,1.1853,0.00462105,0.0124238,1980,932,21.9164,-4.44789
763,92,21.9506,4.59705,0.000279473,0.00683185,0.00405815,0.00877122,-0.00165989,1.12499,0.00647212,0.014764,1987,932,21.9506,-4.59703
770,92,21.9861,4.78204,0.00117808,0.00959512,0.00583735,0.0125829,-0.00180967,1.09773,0.0090523,0.0243933,1994,932,21.986,-4.78204
777,92,22.1504,5.37787,0.00240829,0.0130971,0.00809,0.0174486,-0.00194322,1.0773,0.0123313,0.0417735,2001,932,22.1504,-5.37788
784,92,22.3347,6.0014,0,0,0,0,0,0,0,-1,2008,932,22.3347,-6.00141
791,92,23.4048,6.09753,0,0,0,0,0,0,0,-1,2015,932,23.4048,-6.09755
798,92,23.4338,6.14648,0,0,0,0,0,0,0,-1,2022,932,23.4338,-6.14646
805,92,0,0,0,0,0,0,0,0,0,-1,2029,932,0,0
812,92,0,0,0,0,0,0,0,0,0,-1,2036,932,0,0
-700,85,0,0,0,0,0,0,0,0,0,-1,524,939,0,0
-693,85,0,0,0,0,0,0,0,0,0,-1,531,939,0,0
-686,85,-20.2008,-0.158752,0.105718,0.0755474,0.0104194,0.108966,0.0722988,0.302231,0.0640231,0.0469202,538,939,-20.2008,0.158765
-679,85,-19.1067,0.25885,0.0990543,0.067041,0.0185397,0.107541,0.0585542,0.429294,0.0621708,0.0485874,545,939,-19.1067,-0.258833
-672,85,-19.9765,5.30591,0.0886616,0.0567357,0.0217262,0.0996587,0.0457386,0.468569,0.0576026,0.0467133,552,939,-19.9765,-5.30594
-665,85,-20.0264,4.8595,0,0,0,0,0,0,0,-1,559,939,-20.0264,-4.85949
-658,85,-19.6347,4.36902,0,0,0,0,0,0,0,-1,566,939,-19.6347,-4.369
-651,85,-19.2696,4.12054,0,0,0,0,0,0,0,-1,573,939,-19.2696,-4.12056
-644,85,-15.0391,2.36078,0.0414919,0.0207011,0.0156357,0.0498725,0.0123205,0.492025,0.0299971,0.0296734,580,939,-15.0392,-2.3608
-637,85,-15.1906,2.22437,0.0315205,0.0147153,0.0127683,0.0384029,0.00783285,0.49438,0.0234316,0.0157576,587,939,-15.1905,-2.22437
-630,85,-15.2424,2.08722,0.0224703,0.0104487,0.0103086,0.0283926,0.00452644,0.521453,0.0176145,0.0100354,594,939,-15.2424,-2.08725
-623,85,-15.2635,1.96167,0.0145974,0.00705709,0.00759281,0.0193045,0.00234993,0.55496,0.0121623,0.00883457,601,939,-15.2635,-1.96165
-616,85,-15.2753,1.83887,0.00737135,0.00136411,0.00519136,0.0103654,-0.00162993,0.523138,0.00751274,0.00895848,608,939,-15.2753,-1.83889
-609,85,-15.2768,1.70972,0.00136263,0.000330303,0.002413,0.00331406,-0.00162112,0.680031,0.00290467,0.0115512,615,939,-15.2768,-1.70973
-602,85,-15.2667,1.5885,-0.00312302,0.000509637,0.000769519,0.000665923,-0.00327931,1.37043,0.00243868,0.0151582,622,939,-15.2667,-1.5885
-595,85,-15.2122,1.46869,-0.00614364,0.000420879,3.61793e-05,0.000421078,-0.00614383,1.56529,0.00424322,0.0165698,629,939,-15.2122,-1.46866
-588,85,-15.2087,1.31201,-0.00762129,0.000264239,-0.00018138,0.000268409,-0.00762546,-1.54781,0.00517543,0.0170773,636,939,-15.2087,-1.31198
-581,85,-15.2273,1.18622,-0.00838838,0.000238371,-0.000451785,0.000261967,-0.00841197,-1.51862,0.00569731,0.018673,643,939,-15.2273,-1.18621
-574,85,-15.5383,1.09833,-0.00859749,0.000402117,-0.000811933,0.000474782,-0.00867015,-1.48154,0.00594469,0.0306836,650,939,-15.5383,-1.0983
-567,85,-16.1045,0.99408,-0.00839787,0.000494727,-0.000963059,0.00059783,-0.00850098,-1.46414,0.00587674,0.039372,657,939,-16.1045,-0.994057
-560,85,-16.1834,0.853394,-0.00780125,0.000805802,-0.00105653,0.000933595,-0.00792904,-1.45043,0.00562312,0.0353289,664,939,-16.1834,-0.853365
-553,85,-16.1949,0.764343,-0.00652104,0.00118983,-0.00119947,0.0013721,-0.00670332,-1.41999,0.00498953,0.0396006,671,939,-16.195,-0.764372
-546,85,-16.3401,0.853027,-0.00457036,0.00168704,-0.00144271,0.00200365,-0.00488697,-1.35477,0.00409275,0.0412619,678,939,-16.3401,-0.853023
-539,85,-16.3928,1.10492,-0.00196619,0.00229673,-0.00187369,0.0030032,-0.00267266,-1.21023,0.00327881,0.0389933,685,939,-16.3927,-1.10492
-532,85,-16.3346,1.14294,0.00117804,0.00302278,-0.0026543,0.00491041,-0.000709585,-0.952621,0.00353396,0.0388218,692,939,-16.3346,-1.14293
-525,85,-16.1434,0.92334,0.00420425,0.00392917,-0.0040723,0.00814134,-7.91345e-06,-0.768517,0.0054302,0.0375395,699,939,-16.1434,-0.923356
-518,85,-16.19,1.08807,0.00509479,0.00512726,-0.00629587,0.0114069,-0.00118487,-0.786687,0.00802877,0.0371968,706,939,-16.19,-1.0881
-511,85,0,0,0,0,0,0,0,0,0,-1,713,939,0,0
-504,85,0,0,0,0,0,0,0,0,0,-1,720,939,0,0
-497,85,0,0,0,0,0,0,0,0,0,-1,727,939,0,0
-490,85,0,0,0,0,0,0,0,0,0,-1,734,939,0,0
-483,85,0,0,0,0,0,0,0,0,0,-1,741,939,0,0
-476,85,0,0,0,0,0,0,0,0,0,-1,748,939,0,0
-469,85,0,0,0,0,0,0,0,0,0,-1,755,939,0,0
-462,85,0,0,0,0,0,0,0,0,0,-1,762,939,0,0
-455,85,0,0,0,0,0,0,0,0,0,-1,769,939,0,0
-448,85,0,0,0,0,0,0,0,0,0,-1,776,939,0,0
-441,85,0,0,0,0,0,0,0,0,0,-1,783,939,0,0
-434,85,0,0,0,0,0,0,0,0,0,-1,790,939,0,0
-427,85,0,0,0,0,0,0,0,0,0,-1,797,939,0,0
-420,85,0,0,0,0,0,0,0,0,0,-1,804,939,0,0
-413,85,0,0,0,0,0,0,0,0,0,-1,811,939,0,0
-406,85,0,0,0,0,0,0,0,0,0,-1,818,939,0,0
-399,85,0,0,0,0,0,0,0,0,0,-1,825,939,0,0
-392,85,0,0,0,0,0,0,0,0,0,-1,832,939,0,0
-385,85,0,0,0,0,0,0,0,0,0,-1,839,939,0,0
-378,85,0,0,0,0,0,0,0,0,0,-1,846,939,0,0
-371,85,0,0,0,0,0,0,0,0,0,-1,853,939,0,0
-364,85,0,0,0,0,0,0,0,0,0,-1,860,939,0,0
-357,85,0,0,0,0,0,0,0,0,0,-1,867,939,0,0
-350,85,0,0,0,0,0,0,0,0,0,-1,874,939,0,0
-343,85,0,0,0,0,0,0,0,0,0,-1,881,939,0,0
-336,85,0,0,0,0,0,0,0,0,0,-1,888,939,0,0
-329,85,0,0,0,0,0,0,0,0,0,-1,895,939,0,0
-322,85,0,0,0,0,0,0,0,0,0,-1,902,939,0,0
-315,85,0,0,0,0,0,0,0,0,0,-1,909,939,0,0
-308,85,0,0,0,0,0,0,0,0,0,-1,916,939,0,0
-301,85,0,0,0,0,0,0,0,0,0,-1,923,939,0,0
-294,85,0,0,0,0,0,0,0,0,0,-1,930,939,0,0
-287,85,0,0,0,0,0,0,0,0,0,-1,937,939,0,0
-280,85,0,0,0,0,0,0,0,0,0,-1,944,939,0,0
-273,85,0,0,0,0,0,0,0,0,0,-1,951,939,0,0
-266,85,0,0,0,0,0,0,0,0,0,-1,958,939,0,0
-259,85,0,0,0,0,0,0,0,0,0,-1,965,939,0,0
-252,85,0,0,0,0,0,0,0,0,0,-1,972,939,0,0
-245,85,0,0,0,0,0,0,0,0,0,-1,979,939,0,0
-238,85,0,0,0,0,0,0,0,0,0,-1,986,939,0,0
-231,85,0,0,0,0,0,0,0,0,0,-1,993,939,0,0
-224,85,0,0,0,0,0,0,0,0,0,-1,1000,939,0,0
-217,85,0,0,0,0,0,0,0,0,0,-1,1007,939,0,0
-210,85,0,0,0,0,0,0,0,0,0,-1,1014,939,0,0
-203,85,0,0,0,0,0,0,0,0,0,-1,1021,939,0,0
-196,85,0,0,0,0,0,0,0,0,0,-1,1028,939,0,0
-189,85,0,0,0,0,0,0,0,0,0,-1,1035,939,0,0
-182,85,0,0,0,0,0,0,0,0,0,-1,1042,939,0,0
-175,85,0,0,0,0,0,0,0,0,0,-1,1049,939,0,0
-168,85,0,0,0,0,0,0,0,0,0,-1,1056,939,0,0
-161,85,0,0,0,0,0,0,0,0,0,-1,1063,939,0,0
-154,85,0,0,0,0,0,0,0,0,0,-1,1070,939,0,0
-147,85,0,0,0,0,0,0,0,0,0,-1,1077,939,0,0
-140,85,0,0,0,0,0,0,0,0,0,-1,1084,939,0,0
-133,85,0,0,0,0,0,0,0,0,0,-1,1091,939,0,0
-126,85,0,0,0,0,0,0,0,0,0,-1,1098,939,0,0
-119,85,0,0,0,0,0,0,0,0,0,-1,1105,939,0,0
-112,85,0,0,0,0,0,0,0,0,0,-1,1112,939,0,0
-105,85,0,0,0,0,0,0,0,0,0,-1,1119,939,0,0
-98,85,0,0,0,0,0,0,0,0,0,-1,1126,939,0,0
-91,85,0,0,0,0,0,0,0,0,0,-1,1133,939,0,0
-84,85,0,0,0,0,0,0,0,0,0,-1,1140,939,0,0
-77,85,0,0,0,0,0,0,0,0,0,-1,1147,939,0,0
-70,85,0,0,0,0,0,0,0,0,0,-1,1154,939,0,0
-63,85,0,0,0,0,0,0,0,0,0,-1,1161,939,0,0
-56,85,0,0,0,0,0,0,0,0,0,-1,1168,939,0,0
-49,85,0,0,0,0,0,0,0,0,0,-1,1175,939,0,0
-42,85,0,0,0,0,0,0,0,0,0,-1,1182,939,0,0
-35,85,0,0,0,0,0,0,0,0,0,-1,1189,939,0,0
-28,85,0,0,0,0,0,0,0,0,0,-1,1196,939,0,0
-21,85,0,0,0,0,0,0,0,0,0,-1,1203,939,0,0
-14,85,0,0,0,0,0,0,0,0,0,-1,1210,939,0,0
-7,85,0,0,0,0,0,0,0,0,0,-1,1217,939,0,0
0,85,0,0,0,0,0,0,0,0,0,-1,1224,939,0,0
7,85,0,0,0,0,0,0,0,0,0,-1,1231,939,0,0
14,85,0,0,0,0,0,0,0,0,0,-1,1238,939,0,0
21,85,0,0,0,0,0,0,0,0,0,-1,1245,939,0,0
28,85,0,0,0,0,0,0,0,0,0,-1,1252,939,0,0
35,85,0,0,0,0,0,0,0,0,0,-1,1259,939,0,0
42,85,0,0,0,0,0,0,0,0,0,-1,1266,939,0,0
49,85,0,0,0,0,0,0,0,0,0,-1,1273,939,0,0
56,85,0,0,0,0,0,0,0,0,0,-1,1280,939,0,0
63,85,0,0,0,0,0,0,0,0,0,-1,1287,939,0,0
70,85,0,0,0,0,0,0,0,0,0,-1,1294,939,0,0
77,85,0,0,0,0,0,0,0,0,0,-1,1301,939,0,0
84,85,0,0,0,0,0,0,0,0,0,-1,1308,939,0,0
91,85,0,0,0,0,0,0,0,0,0,-1,1315,939,0,0
98,85,0,0,0,0,0,0,0,0,0,-1,1322,939,0,0
105,85,0,0,0,0,0,0,0,0,0,-1,1329,939,0,0
112,85,0,0,0,0,0,0,0,0,0,-1,1336,939,0,0
119,85,0,0,0,0,0,0,0,0,0,-1,1343,939,0,0
126,85,0,0,0,0,0,0,0,0,0,-1,1350,939,0,0
133,85,0,0,0,0,0,0,0,0,0,-1,1357,939,0,0
140,85,0,0,0,0,0,0,0,0,0,-1,1364,939,0,0
147,85,0,0,0,0,0,0,0,0,0,-1,1371,939,0,0
154,85,0,0,0,0,0,0,0,0,0,-1,1378,939,0,0
161,85,0,0,0,0,0,0,0,0,0,-1,1385,939,0,0
168,85,0,0,0,0,0,0,0,0,0,-1,1392,939,0,0
175,85,0,0,0,0,0,0,0,0,0,-1,1399,939,0,0
182,85,0,0,0,0,0,0,0,0,0,-1,1406,939,0,0
189,85,0,0,0,0,0,0,0,0,0,-1,1413,939,0,0
196,85,0,0,0,0,0,0,0,0,0,-1,1420,939,0,0
203,85,0,0,0,0,0,0,0,0,0,-1,1427,939,0,0
210,85,0,0,0,0,0,0,0,0,0,-1,1434,939,0,0
217,85,0,0,0,0,0,0,0,0,0,-1,1441,939,0,0
224,85,0,0,0,0,0,0,0,0,0,-1,1448,939,0,0
231,85,0,0,0,0,0,0,0,0,0,-1,1455,939,0,0
238,85,0,0,0,0,0,0,0,0,0,-1,1462,939,0,0
245,85,0,0,0,0,0,0,0,0,0,-1,1469,939,0,0
252,85,0,0,0,0,0,0,0,0,0,-1,1476,939,0,0
259,85,0,0,0,0,0,0,0,0,0,-1,1483,939,0,0
266,85,0,0,0,0,0,0,0,0,0,-1,1490,939,0,0
273,85,0,0,0,0,0,0,0,0,0,-1,1497,939,0,0
280,85,0,0,0,0,0,0,0,0,0,-1,1504,939,0,0
287,85,0,0,0,0,0,0,0,0,0,-1,1511,939,0,0
294,85,0,0,0,0,0,0,0,0,0,-1,1518,939,0,0
301,85,0,0,0,0,0,0,0,0,0,-1,1525,939,0,0
308,85,0,0,0,0,0,0,0,0,0,-1,1532,939,0,0
315,85,0,0,0,0,0,0,0,0,0,-1,1539,939,0,0
322,85,0,0,0,0,0,0,0,0,0,-1,1546,939,0,0
329,85,0,0,0,0,0,0,0,0,0,-1,1553,939,0,0
336,85,0,0,0,0,0,0,0,0,0,-1,1560,939,0,0
343,85,0,0,0,0,0,0,0,0,0,-1,1567,939,0,0
350,85,0,0,0,0,0,0,0,0,0,-1,1574,939,0,0
357,85,0,0,0,0,0,0,0,0,0,-1,1581,939,0,0
364,85,0,0,0,0,0,0,0,0,0,-1,1588,939,0,0
371,85,0,0,0,0,0,0,0,0,0,-1,1595,939,0,0
378,85,0,0,0,0,0,0,0,0,0,-1,1602,939,0,0
385,85,0,0,0,0,0,0,0,0,0,-1,1609,939,0,0
392,85,0,0,0,0,0,0,0,0,0,-1,1616,939,0,0
399,85,0,0,0,0,0,0,0,0,0,-1,1623,939,0,0
406,85,0,0,0,0,0,0,0,0,0,-1,1630,939,0,0
413,85,0,0,0,0,0,0,0,0,0,-1,1637,939,0,0
420,85,0,0,0,0,0,0,0,0,0,-1,1644,939,0,0
427,85,0,0,0,0,0,0,0,0,0,-1,1651,939,0,0
434,85,0,0,0,0,0,0,0,0,0,-1,1658,939,0,0
441,85,0,0,0,0,0,0,0,0,0,-1,1665,939,0,0
448,85,0,0,0,0,0,0,0,0,0,-1,1672,939,0,0
455,85,0,0,0,0,0,0,0,0,0,-1,1679,939,0,0
462,85,0,0,0,0,0,0,0,0,0,-1,1686,939,0,0
469,85,0,0,0,0,0,0,0,0,0,-1,1693,939,0,0
476,85,0,0,0,0,0,0,0,0,0,-1,1700,939,0,0
483,85,0,0,0,0,0,0,0,0,0,-1,1707,939,0,0
490,85,0,0,0,0,0,0,0,0,0,-1,1714,939,0,0
497,85,0,0,0,0,0,0,0,0,0,-1,1721,939,0,0
504,85,0,0,0,0,0,0,0,0,0,-1,1728,939,0,0
511,85,0,0,0,0,0,0,0,0,0,-1,1735,939,0,0
518,85,0,0,0,0,0,0,0,0,0,-1,1742,939,0,0
525,85,0,0,0,0,0,0,0,0,0,-1,1749,939,0,0
532,85,0,0,0,0,0,0,0,0,0,-1,1756,939,0,0
539,85,0,0,0,0,0,0,0,0,0,-1,1763,939,0,0
546,85,0,0,0,0,0,0,0,0,0,-1,1770,939,0,0
553,85,0,0,0,0,0,0,0,0,0,-1,1777,939,0,0
560,85,0,0,0,0,0,0,0,0,0,-1,1784,939,0,0
567,85,0,0,0,0,0,0,0,0,0,-1,1791,939,0,0
574,85,0,0,0,0,0,0,0,0,0,-1,1798,939,0,0
581,85,0,0,0,0,0,0,0,0,0,-1,1805,939,0,0
588,85,0,0,0,0,0,0,0,0,0,-1,1812,939,0,0
595,85,0,0,0,0,0,0,0,0,0,-1,1819,939,0,0
602,85,0,0,0,0,0,0,0,0,0,-1,1826,939,0,0
609,85,0,0,0,0,0,0,0,0,0,-1,1833,939,0,0
616,85,0,0,0,0,0,0,0,0,0,-1,1840,939,0,0
623,85,0,0,0,0,0,0,0,0,0,-1,1847,939,0,0
630,85,0,0,0,0,0,0,0,0,0,-1,1854,939,0,0
637,85,23.6155,2.88641,0.00403545,0.00256114,-0.00464384,0.00800028,-0.00140369,-0.706686,0.00585775,0.0464972,1861,939,23.6155,-2.88644
644,85,23.6631,2.69733,0.00391753,0.00239247,-0.00337227,0.00661241,-0.000302406,-0.674209,0.00451245,0.0399196,1868,939,23.6631,-2.69731
651,85,23.7856,2.54865,0.00302818,0.00199144,-0.00254372,0.00510581,-8.61967e-05,-0.684882,0.00343297,0.0424025,1875,939,23.7857,-2.54864
658,85,23.67,2.75018,0.00114526,0.00170284,-0.00192825,0.00337235,-0.000524252,-0.857192,0.00244181,0.0432172,1882,939,23.6701,-2.75017
665,85,23.7931,2.716,-0.00106864,0.00145122,-0.00142668,0.00209467,-0.00171209,-1.1471,0.00220153,0.0403111,1889,939,23.7931,-2.71598
672,85,23.7831,2.68713,-0.00312983,0.00119226,-0.000964285,0.00139764,-0.00333521,-1.36095,0.0028078,0.0409101,1896,939,23.7831,-2.68712
679,85,23.661,2.82477,-0.00481886,0.000953068,-0.000579261,0.00101063,-0.00487642,-1.47175,0.00363496,0.0387876,1903,939,23.661,-2.82479
686,85,23.6735,2.82953,-0.00595555,0.000758921,-0.000358237,0.00077798,-0.00597461,-1.51764,0.00426611,0.0314105,1910,939,23.6735,-2.82953
693,85,23.7776,2.8056,-0.00676778,0.000527547,-9.04817e-05,0.000528669,-0.0067689,-1.5584,0.00469875,0.0264616,1917,939,23.7776,-2.80563
700,85,23.7745,2.77283,-0.00723421,0.000419554,0.000140163,0.000422119,-0.00723678,1.55249,0.0049712,0.0325546,1924,939,23.7746,-2.77286
707,85,23.7813,2.76239,0,0,0,0,0,0,0,-1,1931,939,23.7813,-2.76241
714,85,22.113,3.47559,0,0,0,0,0,0,0,-1,1938,939,22.113,-3.47561
721,85,22.1731,3.65918,-0.0064913,0.000568244,0.000336793,0.000584275,-0.00650733,1.52323,0.00454551,0.0229923,1945,939,22.1731,-3.65919
728,85,22.1343,3.88159,-0.005984,0.000871601,0.000458048,0.000902069,-0.00601446,1.50438,0.00434168,0.0176842,1952,939,22.1343,-3.8816
735,85,22.134,4.0127,-0.00538883,0.00110259,0.000783495,0.00119582,-0.00548206,1.45237,0.00411169,0.0161497,1959,939,22.134,-4.01268
742,85,22.1676,4.14771,-0.00447422,0.0019701,0.000879619,0.00208801,-0.00459213,1.43755,0.00394607,0.0142095,1966,939,22.1676,-4.14768
749,85,22.1299,4.29053,-0.00299535,0.00357391,0.00163984,0.0039605,-0.00338194,1.33927,0.00424355,0.0126085,1973,939,22.1299,-4.29055
756,85,22.0848,4.43469,-0.00172414,0.00557288,0.00273786,0.00648589,-0.00263716,1.24892,0.00542118,0.0120844,1980,939,22.0849,-4.43468
763,85,22.0999,4.60217,-0.000733264,0.00822482,0.00401998,0.00976425,-0.0022727,1.20508,0.00738458,0.0127145,1987,939,22.0998,-4.60217
770,85,22.1042,4.72534,0.000134766,0.0117072,0.00576086,0.014086,-0.00224405,1.1792,0.0102211,0.0181667,1994,939,22.1042,-4.72536
777,85,21.7965,4.75439,0.00129126,0.0160524,0.00796662,0.0195318,-0.00218819,1.15901,0.0138085,0.0389086,2001,939,21.7965,-4.75439
784,85,21.3547,4.82959,0,0,0,0,0,0,0,-1,2008,939,21.3548,-4.82959
791,85,22.5004,6.04419,0.0055812,0.0283595,0.0135329,0.034658,-0.000717277,1.13519,0.0233481,0.0462191,2015,939,22.5004,-6.04422
798,85,23.1221,5.74371,0.00914808,0.0368212,0.0165553,0.0445608,0.00140852,1.13349,0.029249,0.0476769,2022,939,23.1221,-5.74372
805,85,23.1663,5.78107,0,0,0,0,0,0,0,-1,2029,939,23.1663,-5.78105
812,85,0,0,0,0,0,0,0,0,0,-1,2036,939,0,0
-700,78,0,0,0,0,0,0,0,0,0,-1,524,946,0,0
-693,78,0,0,0,0,0,0,0,0,0,-1,531,946,0,0
-686,78,-20.1121,-0.343689,0.0985017,0.0741132,0.0022309,0.098704,0.0739108,0.0904732,0.0592921,0.0436611,538,946,-20.1121,0.343702
-679,78,-19.1336,0.327698,0.0918777,0.0664128,0.0117834,0.0964935,0.061797,0.373353,0.0564382,0.0488873,545,946,-19.1336,-0.327687
-672,78,-18.2933,0.716553,0.0819247,0.0568319,0.0163334,0.0899742,0.0487824,0.457891,0.0520082,0.046641,552,946,-18.2933,-0.71658
-665,78,-20.0459,5.29218,0,0,0,0,0,0,0,-1,559,946,-20.0459,-5.29217
-658,78,-15.7344,2.5954,0.0590935,0.0375618,0.0175345,0.0689034,0.0277519,0.510079,0.0400314,0.0485237,566,946,-15.7344,-2.59539
-651,78,-15.3968,2.42401,0.0479142,0.0290776,0.0160209,0.0570801,0.0199117,0.51967,0.0334534,0.0428815,573,946,-15.3968,-2.42403
-644,78,-15.2922,2.25574,0.0375514,0.0217334,0.013836,0.0455793,0.0137054,0.525751,0.0270031,0.0251853,580,946,-15.2922,-2.25576
-637,78,-15.3449,2.17053,0.0283305,0.015626,0.0115834,0.0351891,0.00876735,0.534595,0.0211516,0.0126763,587,946,-15.3449,-2.17054
-630,78,-15.3893,2.05481,0.0199165,0.0112321,0.00950136,0.0260209,0.00512774,0.571064,0.0159158,0.0112363,594,946,-15.3893,-2.05481
-623,78,-15.4119,1.93115,0.0126027,0.00771988,0.00699543,0.0175705,0.00275207,0.617506,0.0109126,0.0107806,601,946,-15.4119,-1.93115
-616,78,-15.4147,1.81531,0.00587848,0.0020808,0.00472744,0.00907417,-0.00111489,0.594428,0.00645326,0.0101718,608,946,-15.4147,-1.81532
-609,78,-15.3867,1.69946,0.000362067,0.000675468,0.00192773,0.00245286,-0.00141532,0.825953,0.00225991,0.0115997,615,946,-15.3867,-1.69946
-602,78,-15.3979,1.57678,-0.00378753,0.000730168,0.000286251,0.000748233,-0.00380559,1.50777,0.00281976,0.015285,622,946,-15.3979,-1.57675
-595,78,-15.3615,1.42822,-0.00645904,0.000458952,-0.000408464,0.000482985,-0.00648307,-1.51202,0.00449171,0.0148486,629,946,-15.3614,-1.42825
-588,78,-15.3559,1.33978,-0.00774869,0.000268778,-0.000654011,0.000321777,-0.00780169,-1.48994,0.00531163,0.0127294,636,946,-15.3559,-1.33978
-581,78,-15.4297,1.24341,-0.00843299,0.000251818,-0.000955881,0.000355781,-0.00853695,-1.46246,0.00581352,0.0209897,643,946,-15.4297,-1.24339
-574,78,-15.7657,1.07507,-0.00862901,0.000443451,-0.00136356,0.000643958,-0.00882952,-1.4248,0.00611232,0.0262461,650,946,-15.7657,-1.07508
-567,78,-16.1672,0.933838,0,0,0,0,0,0,0,-1,657,946,-16.1672,-0.93384
-560,78,-16.2283,0.794617,-0.00772351,0.000911682,-0.00169583,0.00123278,-0.00804461,-1.38367,0.0058177,0.0333066,664,946,-16.2283,-0.794596
-553,78,-16.2015,0.599121,-0.00630187,0.00134843,-0.00191275,0.0018,-0.00675344,-1.33895,0.00520706,0.0409062,671,946,-16.2015,-0.599125
-546,78,-16.264,0.659729,-0.00414792,0.00191423,-0.00226691,0.00266816,-0.00490186,-1.24972,0.00443352,0.0425693,678,946,-16.264,-0.659709
-539,78,-16.4157,1.09332,-0.00127771,0.00260704,-0.00286731,0.00412794,-0.00279861,-1.0831,0.00402352,0.0379666,685,946,-16.4157,-1.09333
-532,78,-16.3762,1.22845,0.00216625,0.00343751,-0.0039198,0.00677288,-0.00116912,-0.865778,0.00495119,0.0378254,692,946,-16.3762,-1.22846
-525,78,-16.0687,0.822815,0.00536596,0.00449454,-0.00575918,0.0107059,-0.000845389,-0.747643,0.00743509,0.0383164,699,946,-16.0687,-0.822823
-518,78,-15.8528,0.465393,0,0,0,0,0,0,0,-1,706,946,-15.8528,-0.465366
-511,78,0,0,0,0,0,0,0,0,0,-1,713,946,0,0
-504,78,0,0,0,0,0,0,0,0,0,-1,720,946,0,0
-497,78,0,0,0,0,0,0,0,0,0,-1,727,946,0,0
-490,78,0,0,0,0,0,0,0,0,0,-1,734,946,0,0
-483,78,0,0,0,0,0,0,0,0,0,-1,741,946,0,0
-476,78,0,0,0,0,0,0,0,0,0,-1,748,946,0,0
-469,78,0,0,0,0,0,0,0,0,0,-1,755,946,0,0
-462,78,0,0,0,0,0,0,0,0,0,-1,762,946,0,0
-455,78,0,0,0,0,0,0,0,0,0,-1,769,946,0,0
-448,78,0,0,0,0,0,0,0,0,0,-1,776,946,0,0
-441,78,0,0,0,0,0,0,0,0,0,-1,783,946,0,0
-434,78,0,0,0,0,0,0,0,0,0,-1,790,946,0,0
-427,78,0,0,0,0,0,0,0,0,0,-1,797,946,0,0
-420,78,0,0,0,0,0,0,0,0,0,-1,804,946,0,0
-413,78,0,0,0,0,0,0,0,0,0,-1,811,946,0,0
-406,78,0,0,0,0,0,0,0,0,0,-1,818,946,0,0
-399,78,0,0,0,0,0,0,0,0,0,-1,825,946,0,0
-392,78,0,0,0,0,0,0,0,0,0,-1,832,946,0,0
-385,78,0,0,0,0,0,0,0,0,0,-1,839,946,0,0
-378,78,0,0,0,0,0,0,0,0,0,-1,846,946,0,0
-371,78,0,0,0,0,0,0,0,0,0,-1,853,946,0,0
-364,78,0,0,0,0,0,0,0,0,0,-1,860,946,0,0
-357,78,0,0,0,0,0,0,0,0,0,-1,867,946,0,0
-350,78,0,0,0,0,0,0,0,0,0,-1,874,946,0,0
-343,78,0,0,0,0,0,0,0,0,0,-1,881,946,0,0
-336,78,0,0,0,0,0,0,0,0,0,-1,888,946,0,0
-329,78,0,0,0,0,0,0,0,0,0,-1,895,946,0,0
-322,78,0,0,0,0,0,0,0,0,0,-1,902,946,0,0
-315,78,0,0,0,0,0,0,0,0,0,-1,909,946,0,0
-308,78,0,0,0,0,0,0,0,0,0,-1,916,946,0,0
-301,78,0,0,0,0,0,0,0,0,0,-1,923,946,0,0
-294,78,0,0,0,0,0,0,0,0,0,-1,930,946,0,0
-287,78,0,0,0,0,0,0,0,0,0,-1,937,946,0,0
-280,78,0,0,0,0,0,0,0,0,0,-1,944,946,0,0
-273,78,0,0,0,0,0,0,0,0,0,-1,951,946,0,0
-266,78,0,0,0,0,0,0,0,0,0,-1,958,946,0,0
-259,78,0,0,0,0,0,0,0,0,0,-1,965,946,0,0
-252,78,0,0,0,0,0,0,0,0,0,-1,972,946,0,0
-245,78,0,0,0,0,0,0,0,0,0,-1,979,946,0,0
-238,78,0,0,0,0,0,0,0,0,0,-1,986,946,0,0
-231,78,0,0,0,0,0,0,0,0,0,-1,993,946,0,0
-224,78,0,0,0,0,0,0,0,0,0,-1,1000,946,0,0
-217,78,0,0,0,0,0,0,0,0,0,-1,1007,946,0,0
-210,78,0,0,0,0,0,0,0,0,0,-1,1014,946,0,0
-203,78,0,0,0,0,0,0,0,0,0,-1,1021,946,0,0
-196,78,0,0,0,0,0,0,0,0,0,-1,1028,946,0,0
-189,78,0,0,0,0,0,0,0,0,0,-1,1035,946,0,0
-182,78,0,0,0,0,0,0,0,0,0,-1,1042,946,0,0
-175,78,0,0,0,0,0,0,0,0,0,-1,1049,946,0,0
-168,78,0,0,0,0,0,0,0,0,0,-1,1056,946,0,0
-161,78,0,0,0,0,0,0,0,0,0,-1,1063,946,0,0
-154,78,0,0,0,0,0,0,0,0,0,-1,1070,946,0,0
-147,78,0,0,0,0,0,0,0,0,0,-1,1077,946,0,0
-140,78,0,0,0,0,0,0,0,0,0,-1,1084,946,0,0
-133,78,0,0,0,0,0,0,0,0,0,-1,1091,946,0,0
-126,78,0,0,0,0,0,0,0,0,0,-1,1098,946,0,0
-119,78,0,0,0,0,0,0,0,0,0,-1,1105,946,0,0
-112,78,0,0,0,0,0,0,0,0,0,-1,1112,946,0,0
-105,78,0,0,0,0,0,0,0,0,0,-1,1119,946,0,0
-98,78,0,0,0,0,0,0,0,0,0,-1,1126,946,0,0
-91,78,0,0,0,0,0,0,0,0,0,-1,1133,946,0,0
-84,78,0,0,0,0,0,0,0,0,0,-1,1140,946,0,0
-77,78,0,0,0,0,0,0,0,0,0,-1,1147,946,0,0
-70,78,0,0,0,0,0,0,0,0,0,-1,1154,946,0,0
-63,78,0,0,0,0,0,0,0,0,0,-1,1161,946,0,0
-56,78,0,0,0,0,0,0,0,0,0,-1,1168,946,0,0
-49,78,0,0,0,0,0,0,0,0,0,-1,1175,946,0,0
-42,78,0,0,0,0,0,0,0,0,0,-1,1182,946,0,0
-35,78,0,0,0,0,0,0,0,0,0,-1,1189,946,0,0
-28,78,0,0,0,0,0,0,0,0,0,-1,1196,946,0,0
-21,78,0,0,0,0,0,0,0,0,0,-1,1203,946,0,0
-14,78,0,0,0,0,0,0,0,0,0,-1,1210,946,0,0
-7,78,0,0,0,0,0,0,0,0,0,-1,1217,946,0,0
0,78,0,0,0,0,0,0,0,0,0,-1,1224,946,0,0
7,78,0,0,0,0,0,0,0,0,0,-1,1231,946,0,0
14,78,0,0,0,0,0,0,0,0,0,-1,1238,946,0,0
21,78,0,0,0,0,0,0,0,0,0,-1,1245,946,0,0
28,78,0,0,0,0,0,0,0,0,0,-1,1252,946,0,0
35,78,0,0,0,0,0,0,0,0,0,-1,1259,946,0,0
42,78,0,0,0,0,0,0,0,0,0,-1,1266,946,0,0
49,78,0,0,0,0,0,0,0,0,0,-1,1273,946,0,0
56,78,0,0,0,0,0,0,0,0,0,-1,1280,946,0,0
63,78,0,0,0,0,0,0,0,0,0,-1,1287,946,0,0
70,78,0,0,0,0,0,0,0,0,0,-1,1294,946,0,0
77,78,0,0,0,0,0,0,0,0,0,-1,1301,946,0,0
84,78,0,0,0,0,0,0,0,0,0,-1,1308,946,0,0
91,78,0,0,0,0,0,0,0,0,0,-1,1315,946,0,0
98,78,0,0,0,0,0,0,0,0,0,-1,1322,946,0,0
105,78,0,0,0,0,0,0,0,0,0,-1,1329,946,0,0
112,78,0,0,0,0,0,0,0,0,0,-1,1336,946,0,0
119,78,0,0,0,0,0,0,0,0,0,-1,1343,946,0,0
126,78,0,0,0,0,0,0,0,0,0,-1,1350,946,0,0
133,78,0,0,0,0,0,0,0,0,0,-1,1357,946,0,0
140,78,0,0,0,0,0,0,0,0,0,-1,1364,946,0,0
147,78,0,0,0,0,0,0,0,0,0,-1,1371,946,0,0
154,78,0,0,0,0,0,0,0,0,0,-1,1378,946,0,0
161,78,0,0,0,0,0,0,0,0,0,-1,1385,946,0,0
168,78,0,0,0,0,0,0,0,0,0,-1,1392,946,0,0
175,78,0,0,0,0,0,0,0,0,0,-1,1399,946,0,0
182,78,0,0,0,0,0,0,0,0,0,-1,1406,946,0,0
189,78,0,0,0,0,0,0,0,0,0,-1,1413,946,0,0
196,78,0,0,0,0,0,0,0,0,0,-1,1420,946,0,0
203,78,0,0,0,0,0,0,0,0,0,-1,1427,946,0,0
210,78,0,0,0,0,0,0,0,0,0,-1,1434,946,0,0
217,78,0,0,0,0,0,0,0,0,0,-1,1441,946,0,0
224,78,0,0,0,0,0,0,0,0,0,-1,1448,946,0,0
231,78,0,0,0,0,0,0,0,0,0,-1,1455,946,0,0
238,78,0,0,0,0,0,0,0,0,0,-1,1462,946,0,0
245,78,0,0,0,0,0,0,0,0,0,-1,1469,946,0,0
252,78,0,0,0,0,0,0,0,0,0,-1,1476,946,0,0
259,78,0,0,0,0,0,0,0,0,0,-1,1483,946,0,0
266,78,0,0,0,0,0,0,0,0,0,-1,1490,946,0,0
273,78,0,0,0,0,0,0,0,0,0,-1,1497,946,0,0
280,78,0,0,0,0,0,0,0,0,0,-1,1504,946,0,0
287,78,0,0,0,0,0,0,0,0,0,-1,1511,946,0,0
294,78,0,0,0,0,0,0,0,0,0,-1,1518,946,0,0
301,78,0,0,0,0,0,0,0,0,0,-1,1525,946,0,0
308,78,0,0,0,0,0,0,0,0,0,-1,1532,946,0,0
315,78,0,0,0,0,0,0,0,0,0,-1,1539,946,0,0
322,78,0,0,0,0,0,0,0,0,0,-1,1546,946,0,0
329,78,0,0,0,0,0,0,0,0,0,-1,1553,946,0,0
336,78,0,0,0,0,0,0,0,0,0,-1,1560,946,0,0
343,78,0,0,0,0,0,0,0,0,0,-1,1567,946,0,0
350,78,0,0,0,0,0,0,0,0,0,-1,1574,946,0,0
357,78,0,0,0,0,0,0,0,0,0,-1,1581,946,0,0
364,78,0,0,0,0,0,0,0,0,0,-1,1588,946,0,0
371,78,0,0,0,0,0,0,0,0,0,-1,1595,946,0,0
378,78,0,0,0,0,0,0,0,0,0,-1,1602,946,0,0
385,78,0,0,0,0,0,0,0,0,0,-1,1609,946,0,0
392,78,0,0,0,0,0,0,0,0,0,-1,1616,946,0,0
399,78,0,0,0,0,0,0,0,0,0,-1,1623,946,0,0
406,78,0,0,0,0,0,0,0,0,0,-1,1630,946,0,0
413,78,0,0,0,0,0,0,0,0,0,-1,1637,946,0,0
420,78,0,0,0,0,0,0,0,0,0,-1,1644,946,0,0
427,78,0,0,0,0,0,0,0,0,0,-1,1651,946,0,0
434,78,0,0,0,0,0,0,0,0,0,-1,1658,946,0,0
441,78,0,0,0,0,0,0,0,0,0,-1,1665,946,0,0
448,78,0,0,0,0,0,0,0,0,0,-1,1672,946,0,0
455,78,0,0,0,0,0,0,0,0,0,-1,1679,946,0,0
462,78,0,0,0,0,0,0,0,0,0,-1,1686,946,0,0
469,78,0,0,0,0,0,0,0,0,0,-1,1693,946,0,0
476,78,0,0,0,0,0,0,0,0,0,-1,1700,946,0,0
483,78,0,0,0,0,0,0,0,0,0,-1,1707,946,0,0
490,78,0,0,0,0,0,0,0,0,0,-1,1714,946,0,0
497,78,0,0,0,0,0,0,0,0,0,-1,1721,946,0,0
504,78,0,0,0,0,0,0,0,0,0,-1,1728,946,0,0
511,78,0,0,0,0,0,0,0,0,0,-1,1735,946,0,0
518,78,0,0,0,0,0,0,0,0,0,-1,1742,946,0,0
525,78,0,0,0,0,0,0,0,0,0,-1,1749,946,0,0
532,78,0,0,0,0,0,0,0,0,0,-1,1756,946,0,0
539,78,0,0,0,0,0,0,0,0,0,-1,1763,946,0,0
546,78,0,0,0,0,0,0,0,0,0,-1,1770,946,0,0
553,78,0,0,0,0,0,0,0,0,0,-1,1777,946,0,0
560,78,0,0,0,0,0,0,0,0,0,-1,1784,946,0,0
567,78,0,0,0,0,0,0,0,0,0,-1,1791,946,0,0
574,78,0,0,0,0,0,0,0,0,0,-1,1798,946,0,0
581,78,0,0,0,0,0,0,0,0,0,-1,1805,946,0,0
588,78,0,0,0,0,0,0,0,0,0,-1,1812,946,0,0
595,78,0,0,0,0,0,0,0,0,0,-1,1819,946,0,0
602,78,0,0,0,0,0,0,0,0,0,-1,1826,946,0,0
609,78,0,0,0,0,0,0,0,0,0,-1,1833,946,0,0
616,78,0,0,0,0,0,0,0,0,0,-1,1840,946,0,0
623,78,0,0,0,0,0,0,0,0,0,-1,1847,946,0,0
630,78,0,0,0,0,0,0,0,0,0,-1,1854,946,0,0
637,78,23.5463,2.98511,0.00400036,0.00279079,-0.00519733,0.00862798,-0.00183682,-0.727476,0.00645201,0.0465341,1861,946,23.5462,-2.98511
644,78,23.6436,2.57941,0.00379889,0.00243737,-0.00366059,0.00684148,-0.000605224,-0.693464,0.00477553,0.043358,1868,946,23.6436,-2.5794
651,78,23.7114,2.50006,0.00305123,0.0019143,-0.00265841,0.00520128,-0.000235749,-0.680067,0.00354871,0.0440147,1875,946,23.7114,-2.50004
658,78,23.7284,2.67078,0.00150713,0.00154444,-0.0018536,0.00337947,-0.000327905,-0.79043,0.00236986,0.0425604,1882,946,23.7285,-2.67077
665,78,23.8044,2.58929,-0.000393686,0.00128275,-0.00115011,0.00186768,-0.000978618,-1.1003,0.00166982,0.0401554,1889,946,23.8044,-2.58929
672,78,23.7815,2.59094,-0.00229448,0.00102412,-0.000490051,0.00109497,-0.00236533,-1.42721,0.00204219,0.0398106,1896,946,23.7815,-2.59091
679,78,23.6683,2.67596,-0.00393105,0.00079236,6.04162e-05,0.000793132,-0.00393183,1.55801,0.0029217,0.0385026,1903,946,23.6683,-2.67597
686,78,23.6594,2.67761,-0.00506466,0.000610736,0.000401921,0.000639058,-0.00509298,1.50045,0.00362716,0.0338842,1910,946,23.6594,-2.67761
693,78,23.7435,2.68317,-0.00590785,0.00038742,0.000742289,0.000473761,-0.00599419,1.455,0.00416304,0.029715,1917,946,23.7435,-2.68316
700,78,23.7527,2.71735,-0.00641907,0.000287576,0.00100243,0.000434201,-0.0065657,1.42556,0.00452881,0.0268545,1924,946,23.7527,-2.71733
707,78,23.5266,3.13391,-0.00661563,0.000271524,0.00108808,0.000439336,-0.00678345,1.41777,0.00467563,0.0443039,1931,946,23.5266,-3.13391
714,78,22.2241,3.5871,0,0,0,0,0,0,0,-1,1938,946,22.2241,-3.58711
721,78,22.2871,3.72327,-0.00632131,0.000477069,0.00109964,0.000650512,-0.00649475,1.41436,0.00456215,0.0232432,1945,946,22.2871,-3.72326
728,78,22.3401,3.91711,-0.00601377,0.00079066,0.00116484,0.000984542,-0.00620765,1.40586,0.00450264,0.019991,1952,946,22.34,-3.9171
735,78,22.3192,4.0224,-0.00564083,0.00105978,0.00141251,0.00134537,-0.00592642,1.3713,0.00446744,0.0135943,1959,946,22.3192,-4.02238
742,78,22.3257,4.15521,-0.00493529,0.00199467,0.00141044,0.00227074,-0.00521136,1.37751,0.00442961,0.0126763,1966,946,22.3257,-4.15523
749,78,22.3009,4.27777,-0.00369176,0.00367769,0.00216247,0.00426537,-0.00427944,1.30544,0.00493335,0.0121153,1973,946,22.3009,-4.27779
756,78,22.281,4.39691,-0.00258472,0.00581576,0.00325693,0.00693056,-0.00369952,1.24101,0.00623107,0.0128378,1980,946,22.281,-4.39689
763,78,22.2808,4.55487,-0.00162952,0.00869025,0.00458906,0.0104357,-0.00337499,1.20734,0.00831371,0.012472,1987,946,22.2808,-4.55486
770,78,22.2607,4.68848,-0.000699753,0.0124565,0.00651116,0.015134,-0.00337727,1.18066,0.0113833,0.0159669,1994,946,22.2608,-4.68847
777,78,22.1591,4.93567,0.000510536,0.0170672,0.00896192,0.0209891,-0.00341142,1.15828,0.0152575,0.0372377,2001,946,22.1591,-4.93568
784,78,22.0387,5.20166,0,0,0,0,0,0,0,-1,2008,946,22.0386,-5.20164
791,78,22.2113,5.65338,0.00476398,0.0298788,0.0153795,0.0371762,-0.0025335,1.12776,0.0256704,0.0429523,2015,946,22.2113,-5.65336
798,78,22.8165,5.30768,0.00833688,0.0384642,0.0190514,0.0476878,-0.000886681,1.11992,0.0320915,0.0457678,2022,946,22.8166,-5.30768
805,78,22.8208,5.34869,0.0129294,0.0488588,0.0228462,0.0599575,0.00183075,1.11857,0.0393756,0.0488369,2029,946,22.8209,-5.3487
812,78,0,0,0,0,0,0,0,0,0,-1,2036,946,0,0
-700,71,0,0,0,0,0,0,0,0,0,-1,524,953,0,0
-693,71,0,0,0,0,0,0,0,0,0,-1,531,953,0,0
-686,71,-18.9081,0.103149,0.0899952,0.0723658,-0.00391334,0.0908248,0.0715362,-0.208909,0.0552542,0.0415064,538,953,-18.9081,-0.103157
-679,71,-18.684,0.368958,0.0831735,0.0653122,0.00674497,0.0854344,0.0630513,0.32343,0.0511545,0.046989,545,953,-18.684,-0.368944
-672,71,-18.2017,0.649597,0.0734756,0.0563654,0.0122837,0.0798898,0.0499512,0.481226,0.0466043,0.0450881,552,953,-18.2016,-0.649572
-665,71,-15.8467,2.51611,0.0627294,0.0469771,0.014654,0.0714898,0.0382168,0.53881,0.0413075,0.0497129,559,953,-15.8468,-2.51613
-658,71,-15.7957,2.49933,0.0518909,0.037912,0.0149955,0.0614459,0.028357,0.567316,0.0355108,0.0493522,566,953,-15.7957,-2.49933
-651,71,-15.6017,2.36249,0.0415332,0.0296133,0.0140439,0.0508295,0.0203171,0.584725,0.0295425,0.0454011,573,953,-15.6018,-2.36251
-644,71,-15.4883,2.21143,0.0320749,0.0223441,0.0123124,0.0404484,0.0139706,0.597232,0.0237221,0.0315099,580,953,-15.4883,-2.21144
-637,71,-15.5011,2.13452,0.02384,0.0162112,0.0105716,0.0312643,0.00878685,0.61226,0.0186184,0.0135433,587,953,-15.5011,-2.13455
-630,71,-15.5237,2.04016,0.0163136,0.0118018,0.00876565,0.023109,0.00500643,0.659455,0.014038,0.0123902,594,953,-15.5237,-2.04014
-623,71,-15.5435,1.91632,0.0098271,0.00825233,0.00640541,0.0154933,0.00258609,0.724243,0.00958388,0.012042,601,953,-15.5435,-1.91633
-616,71,-15.5453,1.79626,0.00389157,0.00284994,0.00423393,0.0076366,-0.000895083,0.7242,0.00541415,0.012297,608,953,-15.5454,-1.79626
-609,71,-15.5167,1.71802,-0.000904394,0.00113909,0.00142656,0.00187207,-0.00163737,1.09616,0.00202768,0.0139704,615,953,-15.5167,-1.718
-602,71,-15.4908,1.59003,-0.00453567,0.00110893,-0.000205052,0.00111637,-0.00454311,-1.53453,0.0034614,0.0157218,622,953,-15.4908,-1.59004
-595,71,-15.499,1.48859,-0.00670715,0.000700291,-0.000890004,0.000805724,-0.00681258,-1.45288,0.00483274,0.0162619,629,953,-15.499,-1.48862
-588,71,-15.4946,1.39227,-0.00765908,0.000474213,-0.00117387,0.000640247,-0.00782511,-1.43029,0.00544273,0.0171628,636,953,-15.4946,-1.39227
-581,71,-15.6431,1.19153,-0.00815037,0.000490333,-0.00150801,0.000745955,-0.00840599,-1.40288,0.00586847,0.0250651,643,953,-15.6431,-1.19155
-574,71,-16.0452,0.994873,-0.00828649,0.000700625,-0.0019523,0.00110641,-0.00869227,-1.36587,0.00619666,0.0296841,650,953,-16.0452,-0.994871
-567,71,-16.2388,0.82312,-0.00803345,0.000843565,-0.00216096,0.00134167,-0.00853155,-1.34425,0.00618363,0.0202765,657,953,-16.2388,-0.823096
-560,71,-16.2594,0.771667,-0.00725076,0.00119511,-0.00237055,0.00181497,-0.00787062,-1.31504,0.00594515,0.0284308,664,953,-16.2594,-0.771697
-553,71,-16.2791,0.569824,-0.00571959,0.00164844,-0.00266555,0.00251164,-0.00658279,-1.25762,0.0054232,0.0414232,671,953,-16.2791,-0.569808
-546,71,-16.374,0.635437,-0.00341691,0.00223254,-0.0031399,0.00363133,-0.00481569,-1.1517,0.00489284,0.0425521,678,953,-16.374,-0.635427
-539,71,-16.3917,1.0011,-0.000348907,0.00294807,-0.00392688,0.00555845,-0.00295928,-0.984125,0.00499345,0.0388842,685,953,-16.3917,-1.00109
-532,71,-16.3329,1.14435,0.00331916,0.00382756,-0.00528486,0.00886432,-0.00171761,-0.809429,0.0065575,0.0433341,692,953,-16.3329,-1.14434
-525,71,-16.3117,0.763672,0.00666725,0.00500466,-0.00761238,0.0134936,-0.00182167,-0.731012,0.00966037,0.0427413,699,953,-16.3117,-0.763679
-518,71,0,0,0,0,0,0,0,0,0,-1,706,953,0,0
-511,71,0,0,0,0,0,0,0,0,0,-1,713,953,0,0
-504,71,0,0,0,0,0,0,0,0,0,-1,720,953,0,0
-497,71,0,0,0,0,0,0,0,0,0,-1,727,953,0,0
-490,71,0,0,0,0,0,0,0,0,0,-1,734,953,0,0
-483,71,0,0,0,0,0,0,0,0,0,-1,741,953,0,0
-476,71,0,0,0,0,0,0,0,0,0,-1,748,953,0,0
-469,71,0,0,0,0,0,0,0,0,0,-1,755,953,0,0
-462,71,0,0,0,0,0,0,0,0,0,-1,762,953,0,0
-455,71,0,0,0,0,0,0,0,0,0,-1,769,953,0,0
-448,71,0,0,0,0,0,0,0,0,0,-1,776,953,0,0
-441,71,0,0,0,0,0,0,0,0,0,-1,783,953,0,0
-434,71,0,0,0,0,0,0,0,0,0,-1,790,953,0,0
-427,71,0,0,0,0,0,0,0,0,0,-1,797,953,0,0
-420,71,0,0,0,0,0,0,0,0,0,-1,804,953,0,0
-413,71,0,0,0,0,0,0,0,0,0,-1,811,953,0,0
-406,71,0,0,0,0,0,0,0,0,0,-1,818,953,0,0
-399,71,0,0,0,0,0,0,0,0,0,-1,825,953,0,0
-392,71,0,0,0,0,0,0,0,0,0,-1,832,953,0,0
-385,71,0,0,0,0,0,0,0,0,0,-1,839,953,0,0
-378,71,0,0,0,0,0,0,0,0,0,-1,846,953,0,0
-371,71,0,0,0,0,0,0,0,0,0,-1,853,953,0,0
-364,71,0,0,0,0,0,0,0,0,0,-1,860,953,0,0
-357,71,0,0,0,0,0,0,0,0,0,-1,867,953,0,0
-350,71,0,0,0,0,0,0,0,0,0,-1,874,953,0,0
-343,71,0,0,0,0,0,0,0,0,0,-1,881,953,0,0
-336,71,0,0,0,0,0,0,0,0,0,-1,888,953,0,0
-329,71,0,0,0,0,0,0,0,0,0,-1,895,953,0,0
-322,71,0,0,0,0,0,0,0,0,0,-1,902,953,0,0
-315,71,0,0,0,0,0,0,0,0,0,-1,909,953,0,0
-308,71,0,0,0,0,0,0,0,0,0,-1,916,953,0,0
-301,71,0,0,0,0,0,0,0,0,0,-1,923,953,0,0
-294,71,0,0,0,0,0,0,0,0,0,-1,930,953,0,0
-287,71,0,0,0,0,0,0,0,0,0,-1,937,953,0,0
-280,71,0,0,0,0,0,0,0,0,0,-1,944,953,0,0
-273,71,0,0,0,0,0,0,0,0,0,-1,951,953,0,0
-266,71,0,0,0,0,0,0,0,0,0,-1,958,953,0,0
-259,71,0,0,0,0,0,0,0,0,0,-1,965,953,0,0
-252,71,0,0,0,0,0,0,0,0,0,-1,972,953,0,0
-245,71,0,0,0,0,0,0,0,0,0,-1,979,953,0,0
-238,71,0,0,0,0,0,0,0,0,0,-1,986,953,0,0
-231,71,0,0,0,0,0,0,0,0,0,-1,993,953,0,0
-224,71,0,0,0,0,0,0,0,0,0,-1,1000,953,0,0
-217,71,0,0,0,0,0,0,0,0,0,-1,1007,953,0,0
-210,71,0,0,0,0,0,0,0,0,0,-1,1014,953,0,0
-203,71,0,0,0,0,0,0,0,0,0,-1,1021,953,0,0
-196,71,0,0,0,0,0,0,0,0,0,-1,1028,953,0,0
-189,71,0,0,0,0,0,0,0,0,0,-1,1035,953,0,0
-182,71,0,0,0,0,0,0,0,0,0,-1,1042,953,0,0
-175,71,0,0,0,0,0,0,0,0,0,-1,1049,953,0,0
-168,71,0,0,0,0,0,0,0,0,0,-1,1056,953,0,0
-161,71,0,0,0,0,0,0,0,0,0,-1,1063,953,0,0
-154,71,0,0,0,0,0,0,0,0,0,-1,1070,953,0,0
-147,71,0,0,0,0,0,0,0,0,0,-1,1077,953,0,0
-140,71,0,0,0,0,0,0,0,0,0,-1,1084,953,0,0
-133,71,0,0,0,0,0,0,0,0,0,-1,1091,953,0,0
-126,71,0,0,0,0,0,0,0,0,0,-1,1098,953,0,0
-119,71,0,0,0,0,0,0,0,0,0,-1,1105,953,0,0
-112,71,0,0,0,0,0,0,0,0,0,-1,1112,953,0,0
-105,71,0,0,0,0,0,0,0,0,0,-1,1119,953,0,0
-98,71,0,0,0,0,0,0,0,0,0,-1,1126,953,0,0
-91,71,0,0,0,0,0,0,0,0,0,-1,1133,953,0,0
-84,71,0,0,0,0,0,0,0,0,0,-1,1140,953,0,0
-77,71,0,0,0,0,0,0,0,0,0,-1,1147,953,0,0
-70,71,0,0,0,0,0,0,0,0,0,-1,1154,953,0,0
-63,71,0,0,0,0,0,0,0,0,0,-1,1161,953,0,0
-56,71,0,0,0,0,0,0,0,0,0,-1,1168,953,0,0
-49,71,0,0,0,0,0,0,0,0,0,-1,1175,953,0,0
-42,71,0,0,0,0,0,0,0,0,0,-1,1182,953,0,0
-35,71,0,0,0,0,0,0,0,0,0,-1,1189,953,0,0
-28,71,0,0,0,0,0,0,0,0,0,-1,1196,953,0,0
-21,71,0,0,0,0,0,0,0,0,0,-1,1203,953,0,0
-14,71,0,0,0,0,0,0,0,0,0,-1,1210,953,0,0
-7,71,0,0,0,0,0,0,0,0,0,-1,1217,953,0,0
0,71,0,0,0,0,0,0,0,0,0,-1,1224,953,0,0
7,71,0,0,0,0,0,0,0,0,0,-1,1231,953,0,0
14,71,0,0,0,0,0,0,0,0,0,-1,1238,953,0,0
21,71,0,0,0,0,0,0,0,0,0,-1,1245,953,0,0
28,71,0,0,0,0,0,0,0,0,0,-1,1252,953,0,0
35,71,0,0,0,0,0,0,0,0,0,-1,1259,953,0,0
42,71,0,0,0,0,0,0,0,0,0,-1,1266,953,0,0
49,71,0,0,0,0,0,0,0,0,0,-1,1273,953,0,0
56,71,0,0,0,0,0,0,0,0,0,-1,1280,953,0,0
63,71,0,0,0,0,0,0,0,0,0,-1,1287,953,0,0
70,71,0,0,0,0,0,0,0,0,0,-1,1294,953,0,0
77,71,0,0,0,0,0,0,0,0,0,-1,1301,953,0,0
84,71,0,0,0,0,0,0,0,0,0,-1,1308,953,0,0
91,71,0,0,0,0,0,0,0,0,0,-1,1315,953,0,0
98,71,0,0,0,0,0,0,0,0,0,-1,1322,953,0,0
105,71,0,0,0,0,0,0,0,0,0,-1,1329,953,0,0
112,71,0,0,0,0,0,0,0,0,0,-1,1336,953,0,0
119,71,0,0,0,0,0,0,0,0,0,-1,1343,953,0,0
126,71,0,0,0,0,0,0,0,0,0,-1,1350,953,0,0
133,71,0,0,0,0,0,0,0,0,0,-1,1357,953,0,0
140,71,0,0,0,0,0,0,0,0,0,-1,1364,953,0,0
147,71,0,0,0,0,0,0,0,0,0,-1,1371,953,0,0
154,71,0,0,0,0,0,0,0,0,0,-1,1378,953,0,0
161,71,0,0,0,0,0,0,0,0,0,-1,1385,953,0,0
168,71,0,0,0,0,0,0,0,0,0,-1,1392,953,0,0
175,71,0,0,0,0,0,0,0,0,0,-1,1399,953,0,0
182,71,0,0,0,0,0,0,0,0,0,-1,1406,953,0,0
189,71,0,0,0,0,0,0,0,0,0,-1,1413,953,0,0
196,71,0,0,0,0,0,0,0,0,0,-1,1420,953,0,0
203,71,0,0,0,0,0,0,0,0,0,-1,1427,953,0,0
210,71,0,0,0,0,0,0,0,0,0,-1,1434,953,0,0
217,71,0,0,0,0,0,0,0,0,0,-1,1441,953,0,0
224,71,0,0,0,0,0,0,0,0,0,-1,1448,953,0,0
231,71,0,0,0,0,0,0,0,0,0,-1,1455,953,0,0
238,71,0,0,0,0,0,0,0,0,0,-1,1462,953,0,0
245,71,0,0,0,0,0,0,0,0,0,-1,1469,953,0,0
252,71,0,0,0,0,0,0,0,0,0,-1,1476,953,0,0
259,71,0,0,0,0,0,0,0,0,0,-1,1483,953,0,0
266,71,0,0,0,0,0,0,0,0,0,-1,1490,953,0,0
273,71,0,0,0,0,0,0,0,0,0,-1,1497,953,0,0
280,71,0,0,0,0,0,0,0,0,0,-1,1504,953,0,0
287,71,0,0,0,0,0,0,0,0,0,-1,1511,953,0,0
294,71,0,0,0,0,0,0,0,0,0,-1,1518,953,0,0
301,71,0,0,0,0,0,0,0,0,0,-1,1525,953,0,0
308,71,0,0,0,0,0,0,0,0,0,-1,1532,953,0,0
315,71,0,0,0,0,0,0,0,0,0,-1,1539,953,0,0
322,71,0,0,0,0,0,0,0,0,0,-1,1546,953,0,0
329,71,0,0,0,0,0,0,0,0,0,-1,1553,953,0,0
336,71,0,0,0,0,0,0,0,0,0,-1,1560,953,0,0
343,71,0,0,0,0,0,0,0,0,0,-1,1567,953,0,0
350,71,0,0,0,0,0,0,0,0,0,-1,1574,953,0,0
357,71,0,0,0,0,0,0,0,0,0,-1,1581,953,0,0
364,71,0,0,0,0,0,0,0,0,0,-1,1588,953,0,0
371,71,0,0,0,0,0,0,0,0,0,-1,1595,953,0,0
378,71,0,0,0,0,0,0,0,0,0,-1,1602,953,0,0
385,71,0,0,0,0,0,0,0,0,0,-1,1609,953,0,0
392,71,0,0,0,0,0,0,0,0,0,-1,1616,953,0,0
399,71,0,0,0,0,0,0,0,0,0,-1,1623,953,0,0
406,71,0,0,0,0,0,0,0,0,0,-1,1630,953,0,0
413,71,0,0,0,0,0,0,0,0,0,-1,1637,953,0,0
420,71,0,0,0,0,0,0,0,0,0,-1,1644,953,0,0
427,71,0,0,0,0,0,0,0,0,0,-1,1651,953,0,0
434,71,0,0,0,0,0,0,0,0,0,-1,1658,953,0,0
441,71,0,0,0,0,0,0,0,0,0,-1,1665,953,0,0
448,71,0,0,0,0,0,0,0,0,0,-1,1672,953,0,0
455,71,0,0,0,0,0,0,0,0,0,-1,1679,953,0,0
462,71,0,0,0,0,0,0,0,0,0,-1,1686,953,0,0
469,71,0,0,0,0,0,0,0,0,0,-1,1693,953,0,0
476,71,0,0,0,0,0,0,0,0,0,-1,1700,953,0,0
483,71,0,0,0,0,0,0,0,0,0,-1,1707,953,0,0
490,71,0,0,0,0,0,0,0,0,0,-1,1714,953,0,0
497,71,0,0,0,0,0,0,0,0,0,-1,1721,953,0,0
504,71,0,0,0,0,0,0,0,0,0,-1,1728,953,0,0
511,71,0,0,0,0,0,0,0,0,0,-1,1735,953,0,0
518,71,0,0,0,0,0,0,0,0,0,-1,1742,953,0,0
525,71,0,0,0,0,0,0,0,0,0,-1,1749,953,0,0
532,71,0,0,0,0,0,0,0,0,0,-1,1756,953,0,0
539,71,0,0,0,0,0,0,0,0,0,-1,1763,953,0,0
546,71,0,0,0,0,0,0,0,0,0,-1,1770,953,0,0
553,71,0,0,0,0,0,0,0,0,0,-1,1777,953,0,0
560,71,0,0,0,0,0,0,0,0,0,-1,1784,953,0,0
567,71,0,0,0,0,0,0,0,0,0,-1,1791,953,0,0
574,71,0,0,0,0,0,0,0,0,0,-1,1798,953,0,0
581,71,0,0,0,0,0,0,0,0,0,-1,1805,953,0,0
588,71,0,0,0,0,0,0,0,0,0,-1,1812,953,0,0
595,71,0,0,0,0,0,0,0,0,0,-1,1819,953,0,0
602,71,0,0,0,0,0,0,0,0,0,-1,1826,953,0,0
609,71,0,0,0,0,0,0,0,0,0,-1,1833,953,0,0
616,71,0,0,0,0,0,0,0,0,0,-1,1840,953,0,0
623,71,0,0,0,0,0,0,0,0,0,-1,1847,953,0,0
630,71,0,0,0,0,0,0,0,0,0,-1,1854,953,0,0
637,71,23.6761,2.72736,0.00390377,0.0032051,-0.00563566,0.0092009,-0.00209204,-0.754444,0.00693724,0.0439113,1861,953,23.6761,-2.72736
644,71,23.7222,2.50598,0.00343488,0.00267089,-0.00391815,0.00698961,-0.00088384,-0.736805,0.00498056,0.0425784,1868,953,23.7222,-2.50598
651,71,23.8256,2.52716,0.00284222,0.00206913,-0.00276769,0.00525023,-0.000338877,-0.716016,0.0036184,0.0418815,1875,953,23.8255,-2.52717
658,71,23.9344,2.64136,0.00172086,0.00164848,-0.00179502,0.00348005,-0.000110722,-0.775319,0.00235781,0.0406504,1882,953,23.9344,-2.64138
665,71,23.9215,2.63281,0.000275771,0.00142643,-0.000904981,0.00192348,-0.000221277,-1.06854,0.00136208,0.0391823,1889,953,23.9216,-2.63283
672,71,23.8733,2.59357,-0.00130949,0.00121444,-5.76461e-05,0.00121576,-0.00131081,-1.54797,0.00145906,0.0397744,1896,953,23.8732,-2.59359
679,71,23.8453,2.5321,-0.00276348,0.00102769,0.000651164,0.00113641,-0.0028722,1.40535,0.00238561,0.0397139,1903,953,23.8454,-2.53209
686,71,23.7581,2.53064,-0.00380945,0.000859886,0.00111005,0.00111035,-0.00405991,1.34888,0.0031428,0.0349498,1910,953,23.758,-2.53065
693,71,23.7552,2.5293,-0.00463274,0.000642519,0.00151854,0.00104841,-0.00503864,1.30961,0.00375764,0.0325503,1917,953,23.7552,-2.52932
700,71,23.7471,2.61713,-0.00516771,0.000545688,0.00179986,0.00106541,-0.00568743,1.28968,0.00419213,0.0332134,1924,953,23.747,-2.61712
707,71,23.6637,2.97449,-0.00547542,0.000528665,0.00187321,0.00106515,-0.00601191,1.29186,0.00440611,0.0340006,1931,953,23.6637,-2.97448
714,71,22.6609,3.60797,0,0,0,0,0,0,0,-1,1938,953,22.6608,-3.608
721,71,22.5309,3.73071,-0.00565316,0.000676921,0.00178591,0.00114602,-0.00612226,1.31393,0.00451229,0.0323281,1945,953,22.5309,-3.7307
728,71,22.4384,3.92255,-0.00554916,0.000955442,0.00179344,0.00141716,-0.00601087,1.31882,0.00455374,0.0179579,1952,953,22.4384,-3.92252
735,71,22.4376,4.03894,-0.0053967,0.00124222,0.00197348,0.00178455,-0.00593903,1.30261,0.0046693,0.0122022,1959,953,22.4376,-4.03892
742,71,22.4557,4.1366,-0.00498744,0.00220516,0.00185928,0.00265735,-0.00543963,1.33222,0.0047659,0.0129529,1966,953,22.4557,-4.1366
749,71,22.4575,4.25281,-0.00407319,0.00389794,0.00260447,0.00467347,-0.00484871,1.28139,0.00549794,0.0152811,1973,953,22.4575,-4.25282
756,71,22.4369,4.38159,-0.00316881,0.00605598,0.00371303,0.0073648,-0.00447763,1.2319,0.00690463,0.015121,1980,953,22.4368,-4.38162
763,71,22.4277,4.54041,-0.00227991,0.00903514,0.00510566,0.0109983,-0.0042431,1.20371,0.00908318,0.0132356,1987,953,22.4278,-4.5404
770,71,22.3969,4.67029,-0.00132704,0.0129522,0.00722801,0.0159723,-0.00434706,1.17502,0.0123548,0.0148796,1994,953,22.3969,-4.67031
777,71,22.3845,4.86389,-7.93515e-05,0.0176745,0.00995674,0.0221369,-0.00454171,1.14946,0.0164817,0.0346991,2001,953,22.3845,-4.86387
784,71,22.4552,5.09229,0.00160031,0.0234815,0.0133863,0.0298293,-0.00474751,1.128,0.021643,0.04685,2008,953,22.4552,-5.09226
791,71,22.4581,5.12817,0.00412212,0.0305021,0.0173929,0.0391407,-0.00451649,1.10981,0.0277222,0.0463552,2015,953,22.4582,-5.12815
798,71,22.5024,4.88641,0.00768047,0.0388989,0.021871,0.0501596,-0.00358016,1.09533,0.0346947,0.0458433,2022,953,22.5025,-4.88641
805,71,22.6313,4.69037,0.0123194,0.0488739,0.026734,0.0629813,-0.00178803,1.08524,0.0425961,0.0465591,2029,953,22.6314,-4.69037
812,71,0,0,0,0,0,0,0,0,0,-1,2036,953,0,0
-700,64,0,0,0,0,0,0,0,0,0,-1,524,960,0,0
-693,64,0,0,0,0,0,0,0,0,0,-1,531,960,0,0
-686,64,-18.2595,-0.0490723,0.0795128,0.0714206,-0.0131365,0.0892122,0.0617213,-0.636006,0.0527554,0.0443938,538,960,-18.2594,0.0490581
-679,64,-18.1083,0.372437,0.073328,0.0643881,-0.000748401,0.0733902,0.0643258,-0.0829452,0.0462027,0.0443012,545,960,-18.1083,-0.372441
-672,64,-17.79,0.541321,0.0644713,0.0557003,0.00631388,0.0677733,0.0523983,0.481858,0.0410289,0.0451231,552,960,-17.79,-0.541308
-665,64,-17.5033,0.609131,0.0546513,0.0465922,0.00996387,0.0613696,0.0398739,0.593245,0.0359575,0.0425714,559,960,-17.5033,-0.609118
-658,64,-16.1441,2.55579,0.0447803,0.0377561,0.0113646,0.0531631,0.0293733,0.635535,0.0307501,0.0476544,566,960,-16.1441,-2.55578
-651,64,-15.7622,2.27118,0,0,0,0,0,0,0,-1,573,960,-15.7622,-2.27117
-644,64,-15.6564,2.16638,0.0269783,0.0224573,0.0102376,0.035202,0.0142336,0.676737,0.0204475,0.030773,580,960,-15.6564,-2.1664
-637,64,-15.622,2.09106,0.0197328,0.0163837,0.00911574,0.0273266,0.00879002,0.694562,0.016108,0.0146972,587,960,-15.622,-2.09106
-630,64,-15.6526,2.01648,0.0131531,0.0119348,0.00772434,0.0202922,0.0047956,0.74605,0.0122467,0.0126739,594,960,-15.6526,-2.01648
-623,64,-15.6541,1.91809,0.00752318,0.00840995,0.00566214,0.013646,0.00228709,0.824472,0.00843894,0.0127993,601,960,-15.6541,-1.91812
-616,64,-15.6456,1.79309,0.00239732,0.0035124,0.00366981,0.00666678,-0.00075706,0.860785,0.00471717,0.0159331,608,960,-15.6457,-1.79307
-609,64,-15.6342,1.71106,-0.00169964,0.00161309,0.000906618,0.00184498,-0.00193153,1.32039,0.00218056,0.015688,615,960,-15.6342,-1.71106
-602,64,-15.613,1.60785,-0.00484848,0.00151786,-0.000746381,0.00160419,-0.00493481,-1.45564,0.00393515,0.0161487,622,960,-15.613,-1.60783
-595,64,-15.6291,1.52026,-0.00657075,0.00102985,-0.00146356,0.00130193,-0.00684283,-1.38699,0.0050521,0.0167307,629,960,-15.6291,-1.52027
-588,64,-15.6378,1.46094,-0.00722634,0.000795929,-0.0017997,0.00118117,-0.00761159,-1.35992,0.00551048,0.0243352,636,960,-15.6378,-1.46094
-581,64,-15.8155,1.25397,-0.00754314,0.000831589,-0.00215994,0.00135585,-0.0080674,-1.33268,0.00588253,0.0304328,643,960,-15.8155,-1.25395
-574,64,-16.1206,1.03845,-0.00759777,0.00104229,-0.00262372,0.00177662,-0.0083321,-1.2979,0.00623193,0.03256,650,960,-16.1206,-1.03844
-567,64,-16.2078,0.810791,-0.00729395,0.00119277,-0.00283862,0.00205469,-0.00815586,-1.276,0.00623601,0.0259385,657,960,-16.2078,-0.810812
-560,64,-16.2067,0.834656,-0.00644418,0.00152335,-0.00306979,0.0025689,-0.00748973,-1.24253,0.00603455,0.0343303,664,960,-16.2067,-0.834683
-553,64,-16.2567,0.824707,-0.00486121,0.00196289,-0.00340496,0.0033712,-0.00626952,-1.17862,0.00564929,0.0392935,671,960,-16.2566,-0.824725
-546,64,-16.4672,0.945679,-0.00250959,0.00253047,-0.00395855,0.00470306,-0.00468218,-1.06885,0.00541857,0.0407491,678,960,-16.4672,-0.945682
-539,64,-16.3231,1.0069,0.000608595,0.00323133,-0.00489665,0.00698918,-0.00314925,-0.916233,0.00599174,0.0394295,685,960,-16.3231,-1.00691
-532,64,-16.3611,0.880554,0.00429501,0.00414003,-0.00654089,0.0107589,-0.00232383,-0.779475,0.00805965,0.0422375,692,960,-16.3611,-0.880579
-525,64,-16.591,0.575562,0.00755654,0.00542687,-0.00933538,0.0158876,-0.00290421,-0.728611,0.0116808,0.0432137,699,960,-16.591,-0.575564
-518,64,0,0,0,0,0,0,0,0,0,-1,706,960,0,0
-511,64,0,0,0,0,0,0,0,0,0,-1,713,960,0,0
-504,64,0,0,0,0,0,0,0,0,0,-1,720,960,0,0
-497,64,0,0,0,0,0,0,0,0,0,-1,727,960,0,0
-490,64,0,0,0,0,0,0,0,0,0,-1,734,960,0,0
-483,64,0,0,0,0,0,0,0,0,0,-1,741,960,0,0
-476,64,0,0,0,0,0,0,0,0,0,-1,748,960,0,0
-469,64,0,0,0,0,0,0,0,0,0,-1,755,960,0,0
-462,64,0,0,0,0,0,0,0,0,0,-1,762,960,0,0
-455,64,0,0,0,0,0,0,0,0,0,-1,769,960,0,0
-448,64,0,0,0,0,0,0,0,0,0,-1,776,960,0,0
-441,64,0,0,0,0,0,0,0,0,0,-1,783,960,0,0
-434,64,0,0,0,0,0,0,0,0,0,-1,790,960,0,0
-427,64,0,0,0,0,0,0,0,0,0,-1,797,960,0,0
-420,64,0,0,0,0,0,0,0,0,0,-1,804,960,0,0
-413,64,0,0,0,0,0,0,0,0,0,-1,811,960,0,0
-406,64,0,0,0,0,0,0,0,0,0,-1,818,960,0,0
-399,64,0,0,0,0,0,0,0,0,0,-1,825,960,0,0
-392,64,0,0,0,0,0,0,0,0,0,-1,832,960,0,0
-385,64,0,0,0,0,0,0,0,0,0,-1,839,960,0,0
-378,64,0,0,0,0,0,0,0,0,0,-1,846,960,0,0
-371,64,0,0,0,0,0,0,0,0,0,-1,853,960,0,0
-364,64,0,0,0,0,0,0,0,0,0,-1,860,960,0,0
-357,64,0,0,0,0,0,0,0,0,0,-1,867,960,0,0
-350,64,0,0,0,0,0,0,0,0,0,-1,874,960,0,0
-343,64,0,0,0,0,0,0,0,0,0,-1,881,960,0,0
-336,64,0,0,0,0,0,0,0,0,0,-1,888,960,0,0
-329,64,0,0,0,0,0,0,0,0,0,-1,895,960,0,0
-322,64,0,0,0,0,0,0,0,0,0,-1,902,960,0,0
-315,64,0,0,0,0,0,0,0,0,0,-1,909,960,0,0
-308,64,0,0,0,0,0,0,0,0,0,-1,916,960,0,0
-301,64,0,0,0,0,0,0,0,0,0,-1,923,960,0,0
-294,64,0,0,0,0,0,0,0,0,0,-1,930,960,0,0
-287,64,0,0,0,0,0,0,0,0,0,-1,937,960,0,0
-280,64,0,0,0,0,0,0,0,0,0,-1,944,960,0,0
-273,64,0,0,0,0,0,0,0,0,0,-1,951,960,0,0
-266,64,0,0,0,0,0,0,0,0,0,-1,958,960,0,0
-259,64,0,0,0,0,0,0,0,0,0,-1,965,960,0,0
-252,64,0,0,0,0,0,0,0,0,0,-1,972,960,0,0
-245,64,0,0,0,0,0,0,0,0,0,-1,979,960,0,0
-238,64,0,0,0,0,0,0,0,0,0,-1,986,960,0,0
-231,64,0,0,0,0,0,0,0,0,0,-1,993,960,0,0
-224,64,0,0,0,0,0,0,0,0,0,-1,1000,960,0,0
-217,64,0,0,0,0,0,0,0,0,0,-1,1007,960,0,0
-210,64,0,0,0,0,0,0,0,0,0,-1,1014,960,0,0
-203,64,0,0,0,0,0,0,0,0,0,-1,1021,960,0,0
-196,64,0,0,0,0,0,0,0,0,0,-1,1028,960,0,0
-189,64,0,0,0,0,0,0,0,0,0,-1,1035,960,0,0
-182,64,0,0,0,0,0,0,0,0,0,-1,1042,960,0,0
-175,64,0,0,0,0,0,0,0,0,0,-1,1049,960,0,0
-168,64,0,0,0,0,0,0,0,0,0,-1,1056,960,0,0
-161,64,0,0,0,0,0,0,0,0,0,-1,1063,960,0,0
-154,64,0,0,0,0,0,0,0,0,0,-1,1070,960,0,0
-147,64,0,0,0,0,0,0,0,0,0,-1,1077,960,0,0
-140,64,0,0,0,0,0,0,0,0,0,-1,1084,960,0,0
-133,64,0,0,0,0,0,0,0,0,0,-1,1091,960,0,0
-126,64,0,0,0,0,0,0,0,0,0,-1,1098,960,0,0
-119,64,0,0,0,0,0,0,0,0,0,-1,1105,960,0,0
-112,64,0,0,0,0,0,0,0,0,0,-1,1112,960,0,0
-105,64,0,0,0,0,0,0,0,0,0,-1,1119,960,0,0
-98,64,0,0,0,0,0,0,0,0,0,-1,1126,960,0,0
-91,64,0,0,0,0,0,0,0,0,0,-1,1133,960,0,0
-84,64,0,0,0,0,0,0,0,0,0,-1,1140,960,0,0
-77,64,0,0,0,0,0,0,0,0,0,-1,1147,960,0,0
-70,64,0,0,0,0,0,0,0,0,0,-1,1154,960,0,0
-63,64,0,0,0,0,0,0,0,0,0,-1,1161,960,0,0
-56,64,0,0,0,0,0,0,0,0,0,-1,1168,960,0,0
-49,64,0,0,0,0,0,0,0,0,0,-1,1175,960,0,0
-42,64,0,0,0,0,0,0,0,0,0,-1,1182,960,0,0
-35,64,0,0,0,0,0,0,0,0,0,-1,1189,960,0,0
-28,64,0,0,0,0,0,0,0,0,0,-1,1196,960,0,0
-21,64,0,0,0,0,0,0,0,0,0,-1,1203,960,0,0
-14,64,0,0,0,0,0,0,0,0,0,-1,1210,960,0,0
-7,64,0,0,0,0,0,0,0,0,0,-1,1217,960,0,0
0,64,0,0,0,0,0,0,0,0,0,-1,1224,960,0,0
7,64,0,0,0,0,0,0,0,0,0,-1,1231,960,0,0
14,64,0,0,0,0,0,0,0,0,0,-1,1238,960,0,0
21,64,0,0,0,0,0,0,0,0,0,-1,1245,960,0,0
28,64,0,0,0,0,0,0,0,0,0,-1,1252,960,0,0
35,64,0,0,0,0,0,0,0,0,0,-1,1259,960,0,0
42,64,0,0,0,0,0,0,0,0,0,-1,1266,960,0,0
49,64,0,0,0,0,0,0,0,0,0,-1,1273,960,0,0
56,64,0,0,0,0,0,0,0,0,0,-1,1280,960,0,0
63,64,0,0,0,0,0,0,0,0,0,-1,1287,960,0,0
70,64,0,0,0,0,0,0,0,0,0,-1,1294,960,0,0
77,64,0,0,0,0,0,0,0,0,0,-1,1301,960,0,0
84,64,0,0,0,0,0,0,0,0,0,-1,1308,960,0,0
91,64,0,0,0,0,0,0,0,0,0,-1,1315,960,0,0
98,64,0,0,0,0,0,0,0,0,0,-1,1322,960,0,0
105,64,0,0,0,0,0,0,0,0,0,-1,1329,960,0,0
112,64,0,0,0,0,0,0,0,0,0,-1,1336,960,0,0
119,64,0,0,0,0,0,0,0,0,0,-1,1343,960,0,0
126,64,0,0,0,0,0,0,0,0,0,-1,1350,960,0,0
133,64,0,0,0,0,0,0,0,0,0,-1,1357,960,0,0
140,64,0,0,0,0,0,0,0,0,0,-1,1364,960,0,0
147,64,0,0,0,0,0,0,0,0,0,-1,1371,960,0,0
154,64,0,0,0,0,0,0,0,0,0,-1,1378,960,0,0
161,64,0,0,0,0,0,0,0,0,0,-1,1385,960,0,0
168,64,0,0,0,0,0,0,0,0,0,-1,1392,960,0,0
175,64,0,0,0,0,0,0,0,0,0,-1,1399,960,0,0
182,64,0,0,0,0,0,0,0,0,0,-1,1406,960,0,0
189,64,0,0,0,0,0,0,0,0,0,-1,1413,960,0,0
196,64,0,0,0,0,0,0,0,0,0,-1,1420,960,0,0
203,64,0,0,0,0,0,0,0,0,0,-1,1427,960,0,0
210,64,0,0,0,0,0,0,0,0,0,-1,1434,960,0,0
217,64,0,0,0,0,0,0,0,0,0,-1,1441,960,0,0
224,64,0,0,0,0,0,0,0,0,0,-1,1448,960,0,0
231,64,0,0,0,0,0,0,0,0,0,-1,1455,960,0,0
238,64,0,0,0,0,0,0,0,0,0,-1,1462,960,0,0
245,64,0,0,0,0,0,0,0,0,0,-1,1469,960,0,0
252,64,0,0,0,0,0,0,0,0,0,-1,1476,960,0,0
259,64,0,0,0,0,0,0,0,0,0,-1,1483,960,0,0
266,64,0,0,0,0,0,0,0,0,0,-1,1490,960,0,0
273,64,0,0,0,0,0,0,0,0,0,-1,1497,960,0,0
280,64,0,0,0,0,0,0,0,0,0,-1,1504,960,0,0
287,64,0,0,0,0,0,0,0,0,0,-1,1511,960,0,0
294,64,0,0,0,0,0,0,0,0,0,-1,1518,960,0,0
301,64,0,0,0,0,0,0,0,0,0,-1,1525,960,0,0
308,64,0,0,0,0,0,0,0,0,0,-1,1532,960,0,0
315,64,0,0,0,0,0,0,0,0,0,-1,1539,960,0,0
322,64,0,0,0,0,0,0,0,0,0,-1,1546,960,0,0
329,64,0,0,0,0,0,0,0,0,0,-1,1553,960,0,0
336,64,0,0,0,0,0,0,0,0,0,-1,1560,960,0,0
343,64,0,0,0,0,0,0,0,0,0,-1,1567,960,0,0
350,64,0,0,0,0,0,0,0,0,0,-1,1574,960,0,0
357,64,0,0,0,0,0,0,0,0,0,-1,1581,960,0,0
364,64,0,0,0,0,0,0,0,0,0,-1,1588,960,0,0
371,64,0,0,0,0,0,0,0,0,0,-1,1595,960,0,0
378,64,0,0,0,0,0,0,0,0,0,-1,1602,960,0,0
385,64,0,0,0,0,0,0,0,0,0,-1,1609,960,0,0
392,64,0,0,0,0,0,0,0,0,0,-1,1616,960,0,0
399,64,0,0,0,0,0,0,0,0,0,-1,1623,960,0,0
406,64,0,0,0,0,0,0,0,0,0,-1,1630,960,0,0
413,64,0,0,0,0,0,0,0,0,0,-1,1637,960,0,0
420,64,0,0,0,0,0,0,0,0,0,-1,1644,960,0,0
427,64,0,0,0,0,0,0,0,0,0,-1,1651,960,0,0
434,64,0,0,0,0,0,0,0,0,0,-1,1658,960,0,0
441,64,0,0,0,0,0,0,0,0,0,-1,1665,960,0,0
448,64,0,0,0,0,0,0,0,0,0,-1,1672,960,0,0
455,64,0,0,0,0,0,0,0,0,0,-1,1679,960,0,0
462,64,0,0,0,0,0,0,0,0,0,-1,1686,960,0,0
469,64,0,0,0,0,0,0,0,0,0,-1,1693,960,0,0
476,64,0,0,0,0,0,0,0,0,0,-1,1700,960,0,0
483,64,0,0,0,0,0,0,0,0,0,-1,1707,960,0,0
490,64,0,0,0,0,0,0,0,0,0,-1,1714,960,0,0
497,64,0,0,0,0,0,0,0,0,0,-1,1721,960,0,0
504,64,0,0,0,0,0,0,0,0,0,-1,1728,960,0,0
511,64,0,0,0,0,0,0,0,0,0,-1,1735,960,0,0
518,64,0,0,0,0,0,0,0,0,0,-1,1742,960,0,0
525,64,0,0,0,0,0,0,0,0,0,-1,1749,960,0,0
532,64,0,0,0,0,0,0,0,0,0,-1,1756,960,0,0
539,64,0,0,0,0,0,0,0,0,0,-1,1763,960,0,0
546,64,0,0,0,0,0,0,0,0,0,-1,1770,960,0,0
553,64,0,0,0,0,0,0,0,0,0,-1,1777,960,0,0
560,64,0,0,0,0,0,0,0,0,0,-1,1784,960,0,0
567,64,0,0,0,0,0,0,0,0,0,-1,1791,960,0,0
574,64,0,0,0,0,0,0,0,0,0,-1,1798,960,0,0
581,64,0,0,0,0,0,0,0,0,0,-1,1805,960,0,0
588,64,0,0,0,0,0,0,0,0,0,-1,1812,960,0,0
595,64,0,0,0,0,0,0,0,0,0,-1,1819,960,0,0
602,64,0,0,0,0,0,0,0,0,0,-1,1826,960,0,0
609,64,0,0,0,0,0,0,0,0,0,-1,1833,960,0,0
616,64,0,0,0,0,0,0,0,0,0,-1,1840,960,0,0
623,64,0,0,0,0,0,0,0,0,0,-1,1847,960,0,0
630,64,0,0,0,0,0,0,0,0,0,-1,1854,960,0,0
637,64,0,0,0,0,0,0,0,0,0,-1,1861,960,0,0
644,64,23.7834,2.54584,0.00312014,0.00256868,-0.00400208,0.00685598,-0.00116716,-0.751004,0.00500528,0.041563,1868,960,23.7835,-2.54586
651,64,23.7808,2.56934,0.00258678,0.00201022,-0.00273847,0.0050521,-0.000455105,-0.732956,0.00352956,0.0394693,1875,960,23.7807,-2.56931
658,64,23.9177,2.65259,0.00178984,0.0016279,-0.00164566,0.00335652,6.12127e-05,-0.760817,0.00221756,0.0362891,1882,960,23.9177,-2.6526
665,64,23.9602,2.68103,0.000758307,0.00149118,-0.000629692,0.00185329,0.000396191,-1.04891,0.00112692,0.0393455,1889,960,23.9602,-2.68105
672,64,23.8549,2.84277,-0.000503948,0.00135871,0.000359877,0.00142582,-0.00057106,1.38643,0.00118759,0.04277,1896,960,23.8548,-2.84279
679,64,23.8038,2.89996,-0.00176949,0.00123372,0.00119817,0.00165316,-0.00218893,1.23406,0.00222541,0.0403024,1903,960,23.8038,-2.89999
686,64,23.8568,2.59869,-0.00272639,0.00108978,0.00176226,0.00177906,-0.00341568,1.19795,0.0030484,0.0353487,1910,960,23.8568,-2.59872
693,64,23.7836,2.55286,-0.00351813,0.000871737,0.00222564,0.0018027,-0.00444909,1.17462,0.0037157,0.0325031,1917,960,23.7836,-2.55283
700,64,23.7849,2.67108,-0.00406613,0.000781884,0.00251526,0.00185106,-0.00513531,1.16886,0.00417951,0.0325121,1924,960,23.7849,-2.67109
707,64,23.7172,2.9043,-0.00446091,0.000763485,0.00257661,0.00182041,-0.00551783,1.18153,0.00441236,0.0385454,1931,960,23.7172,-2.90427
714,64,23.184,3.69861,0,0,0,0,0,0,0,-1,1938,960,23.1839,-3.6986
721,64,22.6704,3.72046,-0.00496915,0.000869889,0.0024104,0.00173635,-0.00583561,1.22571,0.00458024,0.0327879,1945,960,22.6704,-3.72044
728,64,22.5371,3.93823,-0.00502043,0.00110777,0.00235771,0.00190987,-0.00582253,1.24288,0.00465091,0.014586,1952,960,22.5371,-3.93822
735,64,22.5336,4.07874,-0.00501745,0.00141434,0.00246213,0.00224864,-0.00585174,1.24409,0.00482851,0.0177969,1959,960,22.5336,-4.07873
742,64,22.5802,4.14026,-0.00480095,0.00238625,0.00226103,0.00303838,-0.00545308,1.29,0.00496818,0.0160481,1966,960,22.5802,-4.14026
749,64,22.5653,4.25214,-0.00413016,0.00405899,0.0030075,0.00504483,-0.005116,1.25404,0.0058664,0.0137369,1973,960,22.5654,-4.25213
756,64,22.564,4.38336,-0.00339338,0.00620319,0.00412105,0.00772998,-0.00492017,1.21599,0.00736338,0.0152144,1980,960,22.564,-4.38334
763,64,22.5664,4.52838,-0.00257657,0.00924475,0.00556397,0.0114516,-0.00478341,1.1932,0.00963321,0.0138592,1987,960,22.5664,-4.52838
770,64,22.521,4.62659,-0.00162605,0.0132212,0.0078605,0.0166095,-0.00501434,1.16381,0.0130691,0.0134245,1994,960,22.521,-4.62657
777,64,22.4915,4.82001,-0.000405128,0.0179708,0.0108439,0.0229958,-0.00543015,1.13686,0.0174249,0.0308337,2001,960,22.4915,-4.81998
784,64,22.6886,4.95135,0.00111434,0.0237259,0.0146504,0.0309257,-0.00608544,1.11402,0.0229166,0.046823,2008,960,22.6886,-4.95136
791,64,22.6821,5.02625,0,0,0,0,0,0,0,-1,2015,960,22.6822,-5.02624
798,64,22.1887,4.43292,0.00642215,0.03874,0.0242971,0.0517609,-0.00659872,1.07884,0.036904,0.0459852,2022,960,22.1887,-4.43295
805,64,22.3008,4.69562,0.0104418,0.0482612,0.0299461,0.0647683,-0.00606528,1.06701,0.0453361,0.0467196,2029,960,22.3009,-4.69564
812,64,0,0,0,0,0,0,0,0,0,-1,2036,960,0,0
-700,57,0,0,0,0,0,0,0,0,0,-1,524,967,0,0
-693,57,0,0,0,0,0,0,0,0,0,-1,531,967,0,0
-686,57,-17.235,-0.311951,0,0,0,0,0,0,0,-1,538,967,-17.2351,0.311931
-679,57,-16.9913,0.0891724,0.0571738,0.0612475,-0.0101037,0.0695177,0.0489037,-0.884863,0.0412289,0.0457866,545,967,-16.9913,-0.0891626
-672,57,-17.1295,0.416077,0.0508105,0.0527714,-0.00122655,0.0533612,0.0502207,-1.12257,0.0345749,0.0447705,552,967,-17.1295,-0.41609
-665,57,-16.9683,0.489258,0.0433949,0.0440907,0.00403736,0.0477951,0.0396905,0.828376,0.0295349,0.045292,559,967,-16.9683,-0.489251
-658,57,-15.8606,2.33893,0,0,0,0,0,0,0,-1,566,967,-15.8606,-2.33892
-651,57,-15.818,2.25537,0.0283814,0.0280662,0.00785789,0.0360832,0.0203643,0.77537,0.0208901,0.0478274,573,967,-15.818,-2.25536
-644,57,-15.7208,2.11151,0.0216835,0.0213159,0.00769827,0.0292002,0.0137992,0.773464,0.0168672,0.0298277,580,967,-15.7208,-2.11149
-637,57,-15.7148,2.03363,0.0158823,0.015574,0.00732296,0.0230527,0.00840357,0.774873,0.0134713,0.0153173,587,967,-15.7148,-2.03364
-630,57,-15.7688,1.98273,0.0105591,0.0112579,0.00635824,0.0172763,0.00454064,0.812845,0.0103418,0.0125171,594,967,-15.7688,-1.9827
-623,57,-15.7682,1.92188,0.00598039,0.00788416,0.00470672,0.0117343,0.00213027,0.885172,0.00721832,0.0115901,601,967,-15.7683,-1.92188
-616,57,-15.7617,1.79767,0.0017423,0.00372342,0.00296527,0.0058592,-0.000393486,0.946598,0.00404368,0.0133404,608,967,-15.7617,-1.79765
-609,57,-15.7709,1.68457,-0.00167929,0.00175652,0.00031511,0.00178518,-0.00170795,1.48009,0.00201692,0.0137885,615,967,-15.7709,-1.68458
-602,57,-15.7679,1.60895,-0.00446374,0.00160761,-0.00134701,0.00189304,-0.00474918,-1.36198,0.00395129,0.0106836,622,967,-15.7679,-1.60898
-595,57,-15.7505,1.5332,-0.00591239,0.00108324,-0.00210594,0.00166828,-0.00649743,-1.29983,0.00498171,0.0119637,629,967,-15.7505,-1.53319
-588,57,-15.774,1.49701,-0.00643578,0.000890433,-0.00251987,0.00167346,-0.00721881,-1.26952,0.00545657,0.0183743,636,967,-15.774,-1.49701
-581,57,-15.9463,1.25836,-0.00664566,0.000945068,-0.00294387,0.00195295,-0.00765354,-1.24094,0.00586279,0.0258924,643,967,-15.9463,-1.25836
-574,57,-16.1524,0.94696,-0.00664117,0.00116746,-0.00344581,0.00247057,-0.00794428,-1.20925,0.00628375,0.0282644,650,967,-16.1524,-0.946963
-567,57,-16.1999,0.777222,-0.00627286,0.0013587,-0.00368863,0.0028501,-0.00776425,-1.18657,0.00634335,0.0322588,657,967,-16.1999,-0.777238
-560,57,-16.2106,0.658447,-0.00535876,0.00171075,-0.00395234,0.0034784,-0.00712642,-1.15024,0.00624228,0.0415812,664,967,-16.2106,-0.658424
-553,57,-16.1085,1.12054,-0.0037355,0.00219048,-0.00434768,0.00448883,-0.00603385,-1.0845,0.00609706,0.0412678,671,967,-16.1086,-1.12053
-546,57,-16.3383,1.13837,-0.0013624,0.00280337,-0.0049985,0.0061356,-0.00469463,-0.982809,0.00627125,0.0416853,678,967,-16.3383,-1.13839
-539,57,-16.2083,1.01611,0.00177167,0.00355168,-0.00610686,0.00883305,-0.00350971,-0.857758,0.0073437,0.041752,685,967,-16.2083,-1.01613
-532,57,-16.2674,0.677246,0.00543004,0.00453526,-0.00805497,0.01305,-0.00308474,-0.757656,0.00988994,0.040139,692,967,-16.2674,-0.677241
-525,57,-16.4619,0.525452,0.00860814,0.00594518,-0.0112865,0.0186414,-0.00408809,-0.726684,0.0139908,0.0410045,699,967,-16.4619,-0.525445
-518,57,0,0,0,0,0,0,0,0,0,-1,706,967,0,0
-511,57,0,0,0,0,0,0,0,0,0,-1,713,967,0,0
-504,57,0,0,0,0,0,0,0,0,0,-1,720,967,0,0
-497,57,0,0,0,0,0,0,0,0,0,-1,727,967,0,0
-490,57,0,0,0,0,0,0,0,0,0,-1,734,967,0,0
-483,57,0,0,0,0,0,0,0,0,0,-1,741,967,0,0
-476,57,0,0,0,0,0,0,0,0,0,-1,748,967,0,0
-469,57,0,0,0,0,0,0,0,0,0,-1,755,967,0,0
-462,57,0,0,0,0,0,0,0,0,0,-1,762,967,0,0
-455,57,0,0,0,0,0,0,0,0,0,-1,769,967,0,0
-448,57,0,0,0,0,0,0,0,0,0,-1,776,967,0,0
-441,57,0,0,0,0,0,0,0,0,0,-1,783,967,0,0
-434,57,0,0,0,0,0,0,0,0,0,-1,790,967,0,0
-427,57,0,0,0,0,0,0,0,0,0,-1,797,967,0,0
-420,57,0,0,0,0,0,0,0,0,0,-1,804,967,0,0
-413,57,0,0,0,0,0,0,0,0,0,-1,811,967,0,0
-406,57,0,0,0,0,0,0,0,0,0,-1,818,967,0,0
-399,57,0,0,0,0,0,0,0,0,0,-1,825,967,0,0
-392,57,0,0,0,0,0,0,0,0,0,-1,832,967,0,0
-385,57,0,0,0,0,0,0,0,0,0,-1,839,967,0,0
-378,57,0,0,0,0,0,0,0,0,0,-1,846,967,0,0
-371,57,0,0,0,0,0,0,0,0,0,-1,853,967,0,0
-364,57,0,0,0,0,0,0,0,0,0,-1,860,967,0,0
-357,57,0,0,0,0,0,0,0,0,0,-1,867,967,0,0
-350,57,0,0,0,0,0,0,0,0,0,-1,874,967,0,0
-343,57,0,0,0,0,0,0,0,0,0,-1,881,967,0,0
-336,57,0,0,0,0,0,0,0,0,0,-1,888,967,0,0
-329,57,0,0,0,0,0,0,0,0,0,-1,895,967,0,0
-322,57,0,0,0,0,0,0,0,0,0,-1,902,967,0,0
-315,57,0,0,0,0,0,0,0,0,0,-1,909,967,0,0
-308,57,0,0,0,0,0,0,0,0,0,-1,916,967,0,0
-301,57,0,0,0,0,0,0,0,0,0,-1,923,967,0,0
-294,57,0,0,0,0,0,0,0,0,0,-1,930,967,0,0
-287,57,0,0,0,0,0,0,0,0,0,-1,937,967,0,0
-280,57,0,0,0,0,0,0,0,0,0,-1,944,967,0,0
-273,57,0,0,0,0,0,0,0,0,0,-1,951,967,0,0
-266,57,0,0,0,0,0,0,0,0,0,-1,958,967,0,0
-259,57,0,0,0,0,0,0,0,0,0,-1,965,967,0,0
-252,57,0,0,0,0,0,0,0,0,0,-1,972,967,0,0
-245,57,0,0,0,0,0,0,0,0,0,-1,979,967,0,0
-238,57,0,0,0,0,0,0,0,0,0,-1,986,967,0,0
-231,57,0,0,0,0,0,0,0,0,0,-1,993,967,0,0
-224,57,0,0,0,0,0,0,0,0,0,-1,1000,967,0,0
-217,57,0,0,0,0,0,0,0,0,0,-1,1007,967,0,0
-210,57,0,0,0,0,0,0,0,0,0,-1,1014,967,0,0
-203,57,0,0,0,0,0,0,0,0,0,-1,1021,967,0,0
-196,57,0,0,0,0,0,0,0,0,0,-1,1028,967,0,0
-189,57,0,0,0,0,0,0,0,0,0,-1,1035,967,0,0
-182,57,0,0,0,0,0,0,0,0,0,-1,1042,967,0,0
-175,57,0,0,0,0,0,0,0,0,0,-1,1049,967,0,0
-168,57,0,0,0,0,0,0,0,0,0,-1,1056,967,0,0
-161,57,0,0,0,0,0,0,0,0,0,-1,1063,967,0,0
-154,57,0,0,0,0,0,0,0,0,0,-1,1070,967,0,0
-147,57,0,0,0,0,0,0,0,0,0,-1,1077,967,0,0
-140,57,0,0,0,0,0,0,0,0,0,-1,1084,967,0,0
-133,57,0,0,0,0,0,0,0,0,0,-1,1091,967,0,0
-126,57,0,0,0,0,0,0,0,0,0,-1,1098,967,0,0
-119,57,0,0,0,0,0,0,0,0,0,-1,1105,967,0,0
-112,57,0,0,0,0,0,0,0,0,0,-1,1112,967,0,0
-105,57,0,0,0,0,0,0,0,0,0,-1,1119,967,0,0
-98,57,0,0,0,0,0,0,0,0,0,-1,1126,967,0,0
-91,57,0,0,0,0,0,0,0,0,0,-1,1133,967,0,0
-84,57,0,0,0,0,0,0,0,0,0,-1,1140,967,0,0
-77,57,0,0,0,0,0,0,0,0,0,-1,1147,967,0,0
-70,57,0,0,0,0,0,0,0,0,0,-1,1154,967,0,0
-63,57,0,0,0,0,0,0,0,0,0,-1,1161,967,0,0
-56,57,0,0,0,0,0,0,0,0,0,-1,1168,967,0,0
-49,57,0,0,0,0,0,0,0,0,0,-1,1175,967,0,0
-42,57,0,0,0,0,0,0,0,0,0,-1,1182,967,0,0
-35,57,0,0,0,0,0,0,0,0,0,-1,1189,967,0,0
-28,57,0,0,0,0,0,0,0,0,0,-1,1196,967,0,0
-21,57,0,0,0,0,0,0,0,0,0,-1,1203,967,0,0
-14,57,0,0,0,0,0,0,0,0,0,-1,1210,967,0,0
-7,57,0,0,0,0,0,0,0,0,0,-1,1217,967,0,0
0,57,0,0,0,0,0,0,0,0,0,-1,1224,967,0,0
7,57,0,0,0,0,0,0,0,0,0,-1,1231,967,0,0
14,57,0,0,0,0,0,0,0,0,0,-1,1238,967,0,0
21,57,0,0,0,0,0,0,0,0,0,-1,1245,967,0,0
28,57,0,0,0,0,0,0,0,0,0,-1,1252,967,0,0
35,57,0,0,0,0,0,0,0,0,0,-1,1259,967,0,0
42,57,0,0,0,0,0,0,0,0,0,-1,1266,967,0,0
49,57,0,0,0,0,0,0,0,0,0,-1,1273,967,0,0
56,57,0,0,0,0,0,0,0,0,0,-1,1280,967,0,0
63,57,0,0,0,0,0,0,0,0,0,-1,1287,967,0,0
70,57,0,0,0,0,0,0,0,0,0,-1,1294,967,0,0
77,57,0,0,0,0,0,0,0,0,0,-1,1301,967,0,0
84,57,0,0,0,0,0,0,0,0,0,-1,1308,967,0,0
91,57,0,0,0,0,0,0,0,0,0,-1,1315,967,0,0
98,57,0,0,0,0,0,0,0,0,0,-1,1322,967,0,0
105,57,0,0,0,0,0,0,0,0,0,-1,1329,967,0,0
112,57,0,0,0,0,0,0,0,0,0,-1,1336,967,0,0
119,57,0,0,0,0,0,0,0,0,0,-1,1343,967,0,0
126,57,0,0,0,0,0,0,0,0,0,-1,1350,967,0,0
133,57,0,0,0,0,0,0,0,0,0,-1,1357,967,0,0
140,57,0,0,0,0,0,0,0,0,0,-1,1364,967,0,0
147,57,0,0,0,0,0,0,0,0,0,-1,1371,967,0,0
154,57,0,0,0,0,0,0,0,0,0,-1,1378,967,0,0
161,57,0,0,0,0,0,0,0,0,0,-1,1385,967,0,0
168,57,0,0,0,0,0,0,0,0,0,-1,1392,967,0,0
175,57,0,0,0,0,0,0,0,0,0,-1,1399,967,0,0
182,57,0,0,0,0,0,0,0,0,0,-1,1406,967,0,0
189,57,0,0,0,0,0,0,0,0,0,-1,1413,967,0,0
196,57,0,0,0,0,0,0,0,0,0,-1,1420,967,0,0
203,57,0,0,0,0,0,0,0,0,0,-1,1427,967,0,0
210,57,0,0,0,0,0,0,0,0,0,-1,1434,967,0,0
217,57,0,0,0,0,0,0,0,0,0,-1,1441,967,0,0
224,57,0,0,0,0,0,0,0,0,0,-1,1448,967,0,0
231,57,0,0,0,0,0,0,0,0,0,-1,1455,967,0,0
238,57,0,0,0,0,0,0,0,0,0,-1,1462,967,0,0
245,57,0,0,0,0,0,0,0,0,0,-1,1469,967,0,0
252,57,0,0,0,0,0,0,0,0,0,-1,1476,967,0,0
259,57,0,0,0,0,0,0,0,0,0,-1,1483,967,0,0
266,57,0,0,0,0,0,0,0,0,0,-1,1490,967,0,0
273,57,0,0,0,0,0,0,0,0,0,-1,1497,967,0,0
280,57,0,0,0,0,0,0,0,0,0,-1,1504,967,0,0
287,57,0,0,0,0,0,0,0,0,0,-1,1511,967,0,0
294,57,0,0,0,0,0,0,0,0,0,-1,1518,967,0,0
301,57,0,0,0,0,0,0,0,0,0,-1,1525,967,0,0
308,57,0,0,0,0,0,0,0,0,0,-1,1532,967,0,0
315,57,0,0,0,0,0,0,0,0,0,-1,1539,967,0,0
322,57,0,0,0,0,0,0,0,0,0,-1,1546,967,0,0
329,57,0,0,0,0,0,0,0,0,0,-1,1553,967,0,0
336,57,0,0,0,0,0,0,0,0,0,-1,1560,967,0,0
343,57,0,0,0,0,0,0,0,0,0,-1,1567,967,0,0
350,57,0,0,0,0,0,0,0,0,0,-1,1574,967,0,0
357,57,0,0,0,0,0,0,0,0,0,-1,1581,967,0,0
364,57,0,0,0,0,0,0,0,0,0,-1,1588,967,0,0
371,57,0,0,0,0,0,0,0,0,0,-1,1595,967,0,0
378,57,0,0,0,0,0,0,0,0,0,-1,1602,967,0,0
385,57,0,0,0,0,0,0,0,0,0,-1,1609,967,0,0
392,57,0,0,0,0,0,0,0,0,0,-1,1616,967,0,0
399,57,0,0,0,0,0,0,0,0,0,-1,1623,967,0,0
406,57,0,0,0,0,0,0,0,0,0,-1,1630,967,0,0
413,57,0,0,0,0,0,0,0,0,0,-1,1637,967,0,0
420,57,0,0,0,0,0,0,0,0,0,-1,1644,967,0,0
427,57,0,0,0,0,0,0,0,0,0,-1,1651,967,0,0
434,57,0,0,0,0,0,0,0,0,0,-1,1658,967,0,0
441,57,0,0,0,0,0,0,0,0,0,-1,1665,967,0,0
448,57,0,0,0,0,0,0,0,0,0,-1,1672,967,0,0
455,57,0,0,0,0,0,0,0,0,0,-1,1679,967,0,0
462,57,0,0,0,0,0,0,0,0,0,-1,1686,967,0,0
469,57,0,0,0,0,0,0,0,0,0,-1,1693,967,0,0
476,57,0,0,0,0,0,0,0,0,0,-1,1700,967,0,0
483,57,0,0,0,0,0,0,0,0,0,-1,1707,967,0,0
490,57,0,0,0,0,0,0,0,0,0,-1,1714,967,0,0
497,57,0,0,0,0,0,0,0,0,0,-1,1721,967,0,0
504,57,0,0,0,0,0,0,0,0,0,-1,1728,967,0,0
511,57,0,0,0,0,0,0,0,0,0,-1,1735,967,0,0
518,57,0,0,0,0,0,0,0,0,0,-1,1742,967,0,0
525,57,0,0,0,0,0,0,0,0,0,-1,1749,967,0,0
532,57,0,0,0,0,0,0,0,0,0,-1,1756,967,0,0
539,57,0,0,0,0,0,0,0,0,0,-1,1763,967,0,0
546,57,0,0,0,0,0,0,0,0,0,-1,1770,967,0,0
553,57,0,0,0,0,0,0,0,0,0,-1,1777,967,0,0
560,57,0,0,0,0,0,0,0,0,0,-1,1784,967,0,0
567,57,0,0,0,0,0,0,0,0,0,-1,1791,967,0,0
574,57,0,0,0,0,0,0,0,0,0,-1,1798,967,0,0
581,57,0,0,0,0,0,0,0,0,0,-1,1805,967,0,0
588,57,0,0,0,0,0,0,0,0,0,-1,1812,967,0,0
595,57,0,0,0,0,0,0,0,0,0,-1,1819,967,0,0
602,57,0,0,0,0,0,0,0,0,0,-1,1826,967,0,0
609,57,0,0,0,0,0,0,0,0,0,-1,1833,967,0,0
616,57,0,0,0,0,0,0,0,0,0,-1,1840,967,0,0
623,57,0,0,0,0,0,0,0,0,0,-1,1847,967,0,0
630,57,0,0,0,0,0,0,0,0,0,-1,1854,967,0,0
637,57,0,0,0,0,0,0,0,0,0,-1,1861,967,0,0
644,57,23.7595,2.66119,0.00258094,0.00216532,-0.00398422,0.00636277,-0.0016165,-0.759342,0.00487093,0.0409846,1868,967,23.7596,-2.66117
651,57,23.7052,2.70245,0.00211134,0.00170174,-0.0026576,0.00457203,-0.000758943,-0.746943,0.00332995,0.0353109,1875,967,23.7052,-2.70248
658,57,23.7212,2.71796,0.00155426,0.00139289,-0.00151982,0.00299553,-4.83876e-05,-0.75888,0.00201335,0.0333847,1882,967,23.7212,-2.71798
665,57,23.7903,2.69037,0.000853392,0.00133955,-0.000455269,0.00161257,0.000580374,-1.03061,0.000943121,0.0413821,1889,967,23.7903,-2.69035
672,57,23.7996,2.92676,-0.00013813,0.00128389,0.000612726,0.00151148,-0.00036572,1.21515,0.00114912,0.0439347,1896,967,23.7995,-2.92677
679,57,23.7921,2.81995,-0.00125422,0.00122118,0.00154235,0.00196104,-0.00199408,1.12352,0.00228351,0.0415146,1903,967,23.7921,-2.81997
686,57,23.7753,2.63843,-0.00213893,0.00110474,0.00219547,0.00221246,-0.00324664,1.10352,0.00317061,0.0375121,1910,967,23.7752,-2.63843
693,57,23.7369,2.61694,-0.00289318,0.000905245,0.00270192,0.00230866,-0.0042966,1.09174,0.00387069,0.0317779,1917,967,23.737,-2.61692
700,57,23.7544,2.70624,-0.00342733,0.000839001,0.00300568,0.00239155,-0.00497988,1.09401,0.00434247,0.026275,1924,967,23.7543,-2.70623
707,57,23.7335,2.87177,-0.00386125,0.000825631,0.0030742,0.00234773,-0.00538336,1.11106,0.0045768,0.0416107,1931,967,23.7336,-2.87174
714,57,23.3712,3.76581,0,0,0,0,0,0,0,-1,1938,967,23.3712,-3.76583
721,57,22.8241,3.72705,-0.00457131,0.00094309,0.00289334,0.00218258,-0.00581081,1.16605,0.00477082,0.0391827,1945,967,22.8241,-3.72706
728,57,22.6683,3.95276,-0.00470155,0.00116993,0.00280229,0.00229269,-0.00582431,1.18972,0.00483195,0.0194708,1952,967,22.6684,-3.95277
735,57,22.7058,4.07465,-0.00477993,0.00150803,0.002838,0.00259948,-0.00587138,1.20365,0.00501078,0.0205457,1959,967,22.7058,-4.07465
742,57,22.7408,4.15228,-0.00471058,0.00248149,0.00256603,0.00330315,-0.00553224,1.26091,0.00515494,0.0160011,1966,967,22.7408,-4.1523
749,57,22.6984,4.28137,-0.0041874,0.00411103,0.00332794,0.00528076,-0.00535713,1.2328,0.00614184,0.0138596,1973,967,22.6984,-4.28135
756,57,22.6699,4.36945,-0.00365016,0.00621205,0.00442614,0.00790715,-0.00534525,1.20505,0.00769878,0.011617,1980,967,22.6699,-4.36946
763,57,22.6615,4.46863,-0.00299671,0.00927215,0.00587593,0.0116323,-0.00535686,1.18886,0.0100293,0.0114989,1987,967,22.6615,-4.4686
770,57,22.6519,4.56976,-0.00217647,0.0132254,0.00826719,0.0168228,-0.0057738,1.16037,0.013556,0.0110107,1994,967,22.6518,-4.56979
777,57,22.606,4.78143,-0.00113035,0.0179459,0.0114251,0.0232909,-0.00647543,1.13321,0.0180766,0.0275031,2001,967,22.6059,-4.78141
784,57,22.359,5.60663,4.90179e-05,0.0236034,0.015494,0.0312881,-0.00763571,1.11037,0.0238155,0.0443221,2008,967,22.3589,-5.60664
791,57,22.4397,6.52441,0,0,0,0,0,0,0,-1,2015,967,22.4397,-6.52442
798,57,21.8375,4.04694,0.00412565,0.0381916,0.0259302,0.0521827,-0.00986552,1.076,0.0385007,0.0458604,2022,967,21.8375,-4.04693
805,57,21.8481,4.35626,0.00724196,0.0473342,0.032105,0.0651375,-0.0105614,1.06448,0.0473398,0.0447486,2029,967,21.8481,-4.35624
812,57,0,0,0,0,0,0,0,0,0,-1,2036,967,0,0
-700,50,0,0,0,0,0,0,0,0,0,-1,524,974,0,0
-693,50,-15.6949,2.37891,0,0,0,0,0,0,0,-1,531,974,-15.695,-2.37889
-686,50,-14.9963,5.2171,0,0,0,0,0,0,0,-1,538,974,-14.9963,-5.21711
-679,50,-17.1378,-0.0145264,0.0428734,0.0565013,-0.0188729,0.0697527,0.0296221,-0.958638,0.0404238,0.0428582,545,974,-17.1378,0.0145065
-672,50,-16.7458,0.376831,0.0384879,0.0483253,-0.00832252,0.053074,0.0337392,-1.05229,0.0310162,0.0460021,552,974,-16.7458,-0.376819
-665,50,-15.6508,0.45105,0,0,0,0,0,0,0,-1,559,974,-15.6508,-0.451042
-658,50,-15.5876,1.05341,0,0,0,0,0,0,0,-1,566,974,-15.5877,-1.05342
-651,50,-15.6998,1.46783,0.0219697,0.0255578,0.00466332,0.0287603,0.0187672,0.96903,0.0168604,0.0430576,573,974,-15.6999,-1.46785
-644,50,-15.8015,2.00549,0.0168896,0.0194149,0.00533825,0.0236378,0.0126667,0.901529,0.013659,0.0262434,580,974,-15.8015,-2.0055
-637,50,-15.8284,1.97656,0.0124139,0.0141667,0.00564519,0.0190031,0.0075775,0.862408,0.0110462,0.0139702,587,974,-15.8284,-1.97658
-630,50,-15.8464,1.9599,0.00819335,0.0101745,0.00509139,0.0143708,0.00399706,0.881476,0.00856491,0.0095212,594,974,-15.8465,-1.95988
-623,50,-15.8626,1.90356,0.00465208,0.00701413,0.00381473,0.00982647,0.00183974,0.935517,0.00603199,0.0100955,601,974,-15.8626,-1.90358
-616,50,-15.859,1.82214,0.00138194,0.00358806,0.00226349,0.00500296,-3.29593e-05,1.01213,0.00334635,0.010769,608,974,-15.859,-1.82217
-609,50,-15.85,1.71515,-0.00137632,0.00167014,-0.000280301,0.00169572,-0.00140189,-1.47981,0.00179108,0.0102096,615,974,-15.8501,-1.71516
-602,50,-15.8719,1.62219,-0.00375351,0.00149521,-0.00195644,0.00214422,-0.00440252,-1.25049,0.00385399,0.0108108,622,974,-15.8719,-1.62218
-595,50,-15.8463,1.5459,-0.00491387,0.000981002,-0.00277587,0.00208237,-0.00601524,-1.19308,0.00485548,0.0110172,629,974,-15.8462,-1.54592
-588,50,-15.8757,1.44434,-0.00528035,0.000823827,-0.00325864,0.00223649,-0.00669301,-1.16174,0.0053652,0.0124874,636,974,-15.8757,-1.44435
-581,50,-16.0584,1.12653,-0.00536729,0.000883883,-0.00371572,0.00261379,-0.00709719,-1.13507,0.0058024,0.0193093,643,974,-16.0584,-1.12653
-574,50,-16.1659,0.819092,-0.0053028,0.00112733,-0.00421869,0.00321641,-0.00739188,-1.111,0.00628086,0.0254685,650,974,-16.1659,-0.819082
-567,50,-16.1639,0.698364,-0.00491102,0.00135385,-0.00444758,0.00366137,-0.00721854,-1.0922,0.00639245,0.0334744,657,974,-16.164,-0.698342
-560,50,-16.1728,0.656189,-0.00402392,0.00174187,-0.00469235,0.00436617,-0.00664823,-1.06086,0.0064045,0.0413317,664,974,-16.1728,-0.656198
-553,50,-16.2077,0.71759,-0.00251041,0.00226039,-0.0050697,0.00547784,-0.00572786,-1.00529,0.00647015,0.0424491,671,974,-16.2077,-0.717616
-546,50,-16.2274,1.19208,-0.000331125,0.00291103,-0.00571485,0.00723027,-0.00465037,-0.923598,0.00691299,0.0405193,678,974,-16.2274,-1.19206
-539,50,-16.0775,0.931274,0.00252762,0.00368778,-0.00685919,0.00999137,-0.00377597,-0.827582,0.00821415,0.0440229,685,974,-16.0774,-0.931265
-532,50,-16.1463,0.781738,0.00578245,0.00471358,-0.00895186,0.0142158,-0.00371979,-0.755583,0.0109302,0.0440488,692,974,-16.1463,-0.781735
-525,50,-16.1455,0.61322,0.0084714,0.00621762,-0.0124378,0.0198333,-0.00514423,-0.740221,0.0152293,0.0419376,699,974,-16.1455,-0.613203
-518,50,0,0,0,0,0,0,0,0,0,-1,706,974,0,0
-511,50,0,0,0,0,0,0,0,0,0,-1,713,974,0,0
-504,50,0,0,0,0,0,0,0,0,0,-1,720,974,0,0
-497,50,0,0,0,0,0,0,0,0,0,-1,727,974,0,0
-490,50,0,0,0,0,0,0,0,0,0,-1,734,974,0,0
-483,50,0,0,0,0,0,0,0,0,0,-1,741,974,0,0
-476,50,0,0,0,0,0,0,0,0,0,-1,748,974,0,0
-469,50,0,0,0,0,0,0,0,0,0,-1,755,974,0,0
-462,50,0,0,0,0,0,0,0,0,0,-1,762,974,0,0
-455,50,0,0,0,0,0,0,0,0,0,-1,769,974,0,0
-448,50,0,0,0,0,0,0,0,0,0,-1,776,974,0,0
-441,50,0,0,0,0,0,0,0,0,0,-1,783,974,0,0
-434,50,0,0,0,0,0,0,0,0,0,-1,790,974,0,0
-427,50,0,0,0,0,0,0,0,0,0,-1,797,974,0,0
-420,50,0,0,0,0,0,0,0,0,0,-1,804,974,0,0
-413,50,0,0,0,0,0,0,0,0,0,-1,811,974,0,0
-406,50,0,0,0,0,0,0,0,0,0,-1,818,974,0,0
-399,50,0,0,0,0,0,0,0,0,0,-1,825,974,0,0
-392,50,0,0,0,0,0,0,0,0,0,-1,832,974,0,0
-385,50,0,0,0,0,0,0,0,0,0,-1,839,974,0,0
-378,50,0,0,0,0,0,0,0,0,0,-1,846,974,0,0
-371,50,0,0,0,0,0,0,0,0,0,-1,853,974,0,0
-364,50,0,0,0,0,0,0,0,0,0,-1,860,974,0,0
-357,50,0,0,0,0,0,0,0,0,0,-1,867,974,0,0
-350,50,0,0,0,0,0,0,0,0,0,-1,874,974,0,0
-343,50,0,0,0,0,0,0,0,0,0,-1,881,974,0,0
-336,50,0,0,0,0,0,0,0,0,0,-1,888,974,0,0
-329,50,0,0,0,0,0,0,0,0,0,-1,895,974,0,0
-322,50,0,0,0,0,0,0,0,0,0,-1,902,974,0,0
-315,50,0,0,0,0,0,0,0,0,0,-1,909,974,0,0
-308,50,0,0,0,0,0,0,0,0,0,-1,916,974,0,0
-301,50,0,0,0,0,0,0,0,0,0,-1,923,974,0,0
-294,50,0,0,0,0,0,0,0,0,0,-1,930,974,0,0
-287,50,0,0,0,0,0,0,0,0,0,-1,937,974,0,0
-280,50,0,0,0,0,0,0,0,0,0,-1,944,974,0,0
-273,50,0,0,0,0,0,0,0,0,0,-1,951,974,0,0
-266,50,0,0,0,0,0,0,0,0,0,-1,958,974,0,0
-259,50,0,0,0,0,0,0,0,0,0,-1,965,974,0,0
-252,50,0,0,0,0,0,0,0,0,0,-1,972,974,0,0
-245,50,0,0,0,0,0,0,0,0,0,-1,979,974,0,0
-238,50,0,0,0,0,0,0,0,0,0,-1,986,974,0,0
-231,50,0,0,0,0,0,0,0,0,0,-1,993,974,0,0
-224,50,0,0,0,0,0,0,0,0,0,-1,1000,974,0,0
-217,50,0,0,0,0,0,0,0,0,0,-1,1007,974,0,0
-210,50,0,0,0,0,0,0,0,0,0,-1,1014,974,0,0
-203,50,0,0,0,0,0,0,0,0,0,-1,1021,974,0,0
-196,50,0,0,0,0,0,0,0,0,0,-1,1028,974,0,0
-189,50,0,0,0,0,0,0,0,0,0,-1,1035,974,0,0
-182,50,0,0,0,0,0,0,0,0,0,-1,1042,974,0,0
-175,50,0,0,0,0,0,0,0,0,0,-1,1049,974,0,0
-168,50,0,0,0,0,0,0,0,0,0,-1,1056,974,0,0
-161,50,0,0,0,0,0,0,0,0,0,-1,1063,974,0,0
-154,50,0,0,0,0,0,0,0,0,0,-1,1070,974,0,0
-147,50,0,0,0,0,0,0,0,0,0,-1,1077,974,0,0
-140,50,0,0,0,0,0,0,0,0,0,-1,1084,974,0,0
-133,50,0,0,0,0,0,0,0,0,0,-1,1091,974,0,0
-126,50,0,0,0,0,0,0,0,0,0,-1,1098,974,0,0
-119,50,0,0,0,0,0,0,0,0,0,-1,1105,974,0,0
-112,50,0,0,0,0,0,0,0,0,0,-1,1112,974,0,0
-105,50,0,0,0,0,0,0,0,0,0,-1,1119,974,0,0
-98,50,0,0,0,0,0,0,0,0,0,-1,1126,974,0,0
-91,50,0,0,0,0,0,0,0,0,0,-1,1133,974,0,0
-84,50,0,0,0,0,0,0,0,0,0,-1,1140,974,0,0
-77,50,0,0,0,0,0,0,0,0,0,-1,1147,974,0,0
-70,50,0,0,0,0,0,0,0,0,0,-1,1154,974,0,0
-63,50,0,0,0,0,0,0,0,0,0,-1,1161,974,0,0
-56,50,0,0,0,0,0,0,0,0,0,-1,1168,974,0,0
-49,50,0,0,0,0,0,0,0,0,0,-1,1175,974,0,0
-42,50,0,0,0,0,0,0,0,0,0,-1,1182,974,0,0
-35,50,0,0,0,0,0,0,0,0,0,-1,1189,974,0,0
-28,50,0,0,0,0,0,0,0,0,0,-1,1196,974,0,0
-21,50,0,0,0,0,0,0,0,0,0,-1,1203,974,0,0
-14,50,0,0,0,0,0,0,0,0,0,-1,1210,974,0,0
-7,50,0,0,0,0,0,0,0,0,0,-1,1217,974,0,0
0,50,0,0,0,0,0,0,0,0,0,-1,1224,974,0,0
7,50,0,0,0,0,0,0,0,0,0,-1,1231,974,0,0
14,50,0,0,0,0,0,0,0,0,0,-1,1238,974,0,0
21,50,0,0,0,0,0,0,0,0,0,-1,1245,974,0,0
28,50,0,0,0,0,0,0,0,0,0,-1,1252,974,0,0
35,50,0,0,0,0,0,0,0,0,0,-1,1259,974,0,0
42,50,0,0,0,0,0,0,0,0,0,-1,1266,974,0,0
49,50,0,0,0,0,0,0,0,0,0,-1,1273,974,0,0
56,50,0,0,0,0,0,0,0,0,0,-1,1280,974,0,0
63,50,0,0,0,0,0,0,0,0,0,-1,1287,974,0,0
70,50,0,0,0,0,0,0,0,0,0,-1,1294,974,0,0
77,50,0,0,0,0,0,0,0,0,0,-1,1301,974,0,0
84,50,0,0,0,0,0,0,0,0,0,-1,1308,974,0,0
91,50,0,0,0,0,0,0,0,0,0,-1,1315,974,0,0
98,50,0,0,0,0,0,0,0,0,0,-1,1322,974,0,0
105,50,0,0,0,0,0,0,0,0,0,-1,1329,974,0,0
112,50,0,0,0,0,0,0,0,0,0,-1,1336,974,0,0
119,50,0,0,0,0,0,0,0,0,0,-1,1343,974,0,0
126,50,0,0,0,0,0,0,0,0,0,-1,1350,974,0,0
133,50,0,0,0,0,0,0,0,0,0,-1,1357,974,0,0
140,50,0,0,0,0,0,0,0,0,0,-1,1364,974,0,0
147,50,0,0,0,0,0,0,0,0,0,-1,1371,974,0,0
154,50,0,0,0,0,0,0,0,0,0,-1,1378,974,0,0
161,50,0,0,0,0,0,0,0,0,0,-1,1385,974,0,0
168,50,0,0,0,0,0,0,0,0,0,-1,1392,974,0,0
175,50,0,0,0,0,0,0,0,0,0,-1,1399,974,0,0
182,50,0,0,0,0,0,0,0,0,0,-1,1406,974,0,0
189,50,0,0,0,0,0,0,0,0,0,-1,1413,974,0,0
196,50,0,0,0,0,0,0,0,0,0,-1,1420,974,0,0
203,50,0,0,0,0,0,0,0,0,0,-1,1427,974,0,0
210,50,0,0,0,0,0,0,0,0,0,-1,1434,974,0,0
217,50,0,0,0,0,0,0,0,0,0,-1,1441,974,0,0
224,50,0,0,0,0,0,0,0,0,0,-1,1448,974,0,0
231,50,0,0,0,0,0,0,0,0,0,-1,1455,974,0,0
238,50,0,0,0,0,0,0,0,0,0,-1,1462,974,0,0
245,50,0,0,0,0,0,0,0,0,0,-1,1469,974,0,0
252,50,0,0,0,0,0,0,0,0,0,-1,1476,974,0,0
259,50,0,0,0,0,0,0,0,0,0,-1,1483,974,0,0
266,50,0,0,0,0,0,0,0,0,0,-1,1490,974,0,0
273,50,0,0,0,0,0,0,0,0,0,-1,1497,974,0,0
280,50,0,0,0,0,0,0,0,0,0,-1,1504,974,0,0
287,50,0,0,0,0,0,0,0,0,0,-1,1511,974,0,0
294,50,0,0,0,0,0,0,0,0,0,-1,1518,974,0,0
301,50,0,0,0,0,0,0,0,0,0,-1,1525,974,0,0
308,50,0,0,0,0,0,0,0,0,0,-1,1532,974,0,0
315,50,0,0,0,0,0,0,0,0,0,-1,1539,974,0,0
322,50,0,0,0,0,0,0,0,0,0,-1,1546,974,0,0
329,50,0,0,0,0,0,0,0,0,0,-1,1553,974,0,0
336,50,0,0,0,0,0,0,0,0,0,-1,1560,974,0,0
343,50,0,0,0,0,0,0,0,0,0,-1,1567,974,0,0
350,50,0,0,0,0,0,0,0,0,0,-1,1574,974,0,0
357,50,0,0,0,0,0,0,0,0,0,-1,1581,974,0,0
364,50,0,0,0,0,0,0,0,0,0,-1,1588,974,0,0
371,50,0,0,0,0,0,0,0,0,0,-1,1595,974,0,0
378,50,0,0,0,0,0,0,0,0,0,-1,1602,974,0,0
385,50,0,0,0,0,0,0,0,0,0,-1,1609,974,0,0
392,50,0,0,0,0,0,0,0,0,0,-1,1616,974,0,0
399,50,0,0,0,0,0,0,0,0,0,-1,1623,974,0,0
406,50,0,0,0,0,0,0,0,0,0,-1,1630,974,0,0
413,50,0,0,0,0,0,0,0,0,0,-1,1637,974,0,0
420,50,0,0,0,0,0,0,0,0,0,-1,1644,974,0,0
427,50,0,0,0,0,0,0,0,0,0,-1,1651,974,0,0
434,50,0,0,0,0,0,0,0,0,0,-1,1658,974,0,0
441,50,0,0,0,0,0,0,0,0,0,-1,1665,974,0,0
448,50,0,0,0,0,0,0,0,0,0,-1,1672,974,0,0
455,50,0,0,0,0,0,0,0,0,0,-1,1679,974,0,0
462,50,0,0,0,0,0,0,0,0,0,-1,1686,974,0,0
469,50,0,0,0,0,0,0,0,0,0,-1,1693,974,0,0
476,50,0,0,0,0,0,0,0,0,0,-1,1700,974,0,0
483,50,0,0,0,0,0,0,0,0,0,-1,1707,974,0,0
490,50,0,0,0,0,0,0,0,0,0,-1,1714,974,0,0
497,50,0,0,0,0,0,0,0,0,0,-1,1721,974,0,0
504,50,0,0,0,0,0,0,0,0,0,-1,1728,974,0,0
511,50,0,0,0,0,0,0,0,0,0,-1,1735,974,0,0
518,50,0,0,0,0,0,0,0,0,0,-1,1742,974,0,0
525,50,0,0,0,0,0,0,0,0,0,-1,1749,974,0,0
532,50,0,0,0,0,0,0,0,0,0,-1,1756,974,0,0
539,50,0,0,0,0,0,0,0,0,0,-1,1763,974,0,0
546,50,0,0,0,0,0,0,0,0,0,-1,1770,974,0,0
553,50,0,0,0,0,0,0,0,0,0,-1,1777,974,0,0
560,50,0,0,0,0,0,0,0,0,0,-1,1784,974,0,0
567,50,0,0,0,0,0,0,0,0,0,-1,1791,974,0,0
574,50,0,0,0,0,0,0,0,0,0,-1,1798,974,0,0
581,50,0,0,0,0,0,0,0,0,0,-1,1805,974,0,0
588,50,0,0,0,0,0,0,0,0,0,-1,1812,974,0,0
595,50,0,0,0,0,0,0,0,0,0,-1,1819,974,0,0
602,50,0,0,0,0,0,0,0,0,0,-1,1826,974,0,0
609,50,0,0,0,0,0,0,0,0,0,-1,1833,974,0,0
616,50,0,0,0,0,0,0,0,0,0,-1,1840,974,0,0
623,50,0,0,0,0,0,0,0,0,0,-1,1847,974,0,0
630,50,0,0,0,0,0,0,0,0,0,-1,1854,974,0,0
637,50,0,0,0,0,0,0,0,0,0,-1,1861,974,0,0
644,50,23.7452,2.90997,0.00158006,0.0016972,-0.0038054,0.00544449,-0.00216722,-0.793093,0.00452837,0.0384569,1868,974,23.7452,-2.90997
651,50,23.5887,2.73199,0.00149721,0.00134172,-0.00252854,0.0039492,-0.00111027,-0.77003,0.00307055,0.032932,1875,974,23.5888,-2.73202
658,50,23.6167,2.59045,0.00119301,0.00111143,-0.00145836,0.00261115,-0.000306708,-0.771417,0.00185149,0.0367513,1882,974,23.6168,-2.59044
665,50,23.8125,2.51312,0.000739195,0.00113359,-0.000421883,0.00140209,0.000470697,-1.00402,0.000823932,0.0428099,1889,974,23.8125,-2.51314
672,50,23.8257,2.68506,-7.03719e-05,0.00114685,0.000703002,0.00146809,-0.000391609,1.14218,0.00113207,0.0419845,1896,974,23.8257,-2.68504
679,50,23.7714,2.79712,-0.00113171,0.00112567,0.0017521,0.00208116,-0.0020872,1.07154,0.0024066,0.0420616,1903,974,23.7713,-2.79709
686,50,23.78,2.67535,-0.0020119,0.00103001,0.00253525,0.00246554,-0.00344743,1.05558,0.00342951,0.0423678,1910,974,23.7801,-2.67534
693,50,23.6611,2.625,-0.00278498,0.000855945,0.00313585,0.00266145,-0.00459048,1.04839,0.00423599,0.0385308,1917,974,23.6612,-2.62497
700,50,23.6655,2.73633,-0.00334005,0.000790898,0.00350876,0.00279698,-0.00534613,1.05142,0.0047776,0.0220455,1924,974,23.6655,-2.7363
707,50,23.7367,2.77466,-0.00381683,0.000771675,0.0036421,0.00278189,-0.00582705,1.06647,0.00507296,0.0337028,1931,974,23.7368,-2.77467
714,50,23.7776,2.82849,0,0,0,0,0,0,0,-1,1938,974,23.7776,-2.82851
721,50,22.8236,3.74951,0,0,0,0,0,0,0,-1,1945,974,22.8236,-3.74949
728,50,22.8064,3.91827,-0.00479454,0.00110643,0.00343735,0.00268593,-0.00637404,1.14006,0.0053733,0.0200825,1952,974,22.8064,-3.9183
735,50,22.8458,4.03516,-0.00487397,0.00149865,0.0033852,0.00296123,-0.00633654,1.16297,0.00548471,0.0175694,1959,974,22.8459,-4.03514
742,50,22.8615,4.14722,-0.00484075,0.00245242,0.00300092,0.00352845,-0.00591678,1.22651,0.00551101,0.0147967,1966,974,22.8614,-4.14719
749,50,22.8165,4.23718,-0.00433011,0.00425514,0.0036092,0.0055708,-0.00564578,1.22123,0.00647595,0.0162887,1973,974,22.8165,-4.23717
756,50,22.7922,4.34888,-0.00377065,0.00669037,0.00442532,0.00831126,-0.00539154,1.2197,0.00797095,0.0124368,1980,974,22.7923,-4.34889
763,50,22.7885,4.44836,-0.00314174,0.0101094,0.00557758,0.0121445,-0.00517687,1.22093,0.0102666,0.0110644,1987,974,22.7884,-4.44835
770,50,22.7645,4.52692,-0.00231495,0.0145632,0.00758878,0.0174735,-0.00522521,1.2046,0.0137263,0.0105376,1994,974,22.7646,-4.52691
777,50,22.7518,4.69464,-0.00127239,0.0199598,0.0103696,0.0241839,-0.00549643,1.18397,0.018233,0.0233284,2001,974,22.7518,-4.69467
784,50,22.5721,5.33319,-0.000211982,0.0264488,0.0140174,0.0324623,-0.00622548,1.16554,0.0239875,0.0390507,2008,974,22.5721,-5.3332
791,50,22.4386,5.88641,0,0,0,0,0,0,0,-1,2015,974,22.4386,-5.88641
798,50,21.4229,3.75287,0.0032267,0.0432211,0.0233672,0.0539797,-0.00753182,1.13932,0.0387419,0.0456304,2022,974,21.4229,-3.75289
805,50,21.4841,4.00494,0.00577223,0.0536647,0.0288972,0.0672481,-0.00781111,1.13139,0.0476496,0.0455539,2029,974,21.4841,-4.00492
812,50,0,0,0,0,0,0,0,0,0,-1,2036,974,0,0
-700,43,0,0,0,0,0,0,0,0,0,-1,524,981,0,0
-693,43,-14.8203,6.23987,0,0,0,0,0,0,0,-1,531,981,-14.8203,-6.23985
-686,43,-14.8866,5.15076,0,0,0,0,0,0,0,-1,538,981,-14.8866,-5.15073
-679,43,-16.8398,0.0418701,0,0,0,0,0,0,0,-1,545,981,-16.8398,-0.0418469
-672,43,-16.4687,0.308411,0.0266726,0.0443503,-0.0147429,0.0527009,0.018322,-1.05544,0.0308941,0.0477862,552,981,-16.4687,-0.308426
-665,43,-16.0638,0.580627,0.0234867,0.0365177,-0.0065898,0.0392692,0.0207352,-1.17526,0.022684,0.0491783,559,981,-16.0638,-0.580648
-658,43,-15.9172,0.966675,0.0198358,0.0293307,-0.00133339,0.0295143,0.0196521,-1.43389,0.0173498,0.0456234,566,981,-15.9172,-0.966692
-651,43,-15.8513,1.58014,0.0161009,0.0229073,0.00175018,0.023331,0.0156773,1.3333,0.0137331,0.0392624,573,981,-15.8513,-1.58012
-644,43,-15.9572,1.99963,0.0125322,0.017317,0.00315846,0.0188868,0.0109623,1.10953,0.0109512,0.0195096,580,981,-15.9572,-1.99965
-637,43,-15.9398,1.98438,0.00927612,0.0125742,0.00404184,0.0152904,0.00655985,0.979085,0.00885754,0.0124288,587,981,-15.9398,-1.98435
-630,43,-15.9174,1.93597,0.00612417,0.00889933,0.0038179,0.011574,0.00344952,0.959697,0.00686154,0.0110759,594,981,-15.9174,-1.93599
-623,43,-15.9254,1.86792,0.00353004,0.00602373,0.00285107,0.00788867,0.00166509,0.99153,0.00480131,0.0110713,601,981,-15.9254,-1.86792
-616,43,-15.9166,1.79803,0.00111516,0.00337555,0.00148666,0.00411284,0.000377873,1.1104,0.00262502,0.0102512,608,981,-15.9166,-1.79806
-609,43,-15.9136,1.72437,-0.00103668,0.00163493,-0.000908135,0.00191439,-0.00131614,-1.27226,0.00187578,0.0123068,615,981,-15.9137,-1.72437
-602,43,-15.931,1.62665,-0.00302739,0.00149651,-0.00256546,0.0026548,-0.00418567,-1.1467,0.00398218,0.0145359,622,981,-15.931,-1.62663
-595,43,-15.9172,1.54651,-0.00394222,0.00105008,-0.00341751,0.00278597,-0.00567811,-1.10082,0.00498092,0.0126583,629,981,-15.9172,-1.5465
-588,43,-15.9191,1.36542,-0.00416716,0.000901087,-0.00392918,0.00304246,-0.00630853,-1.07181,0.00550747,0.0130116,636,981,-15.9191,-1.36539
-581,43,-16.075,1.0401,-0.00415285,0.000900745,-0.0043898,0.00343903,-0.00669114,-1.04654,0.00594827,0.0180891,643,981,-16.075,-1.04009
-574,43,-16.1648,0.773254,-0.00405346,0.00110034,-0.00485253,0.00401775,-0.00697088,-1.02948,0.0064202,0.0256584,650,981,-16.1648,-0.773232
-567,43,-16.1358,0.655029,-0.00367305,0.00127985,-0.00501249,0.00439427,-0.00678748,-1.01484,0.00650489,0.0357632,657,981,-16.1358,-0.655059
-560,43,-16.1287,0.646606,-0.00285526,0.00157509,-0.00517913,0.00499289,-0.00627306,-0.987481,0.00651838,0.0418129,664,981,-16.1287,-0.646577
-553,43,-16.2714,0.751953,-0.00149887,0.00196164,-0.00546523,0.00596396,-0.0055012,-0.938703,0.00662121,0.0422372,671,981,-16.2713,-0.751926
-546,43,-16.3074,0.819885,0.000433275,0.00243653,-0.00601443,0.00753217,-0.00466236,-0.86791,0.0071052,0.0425872,678,981,-16.3074,-0.819896
-539,43,-16.1085,0.689514,0.00295034,0.00298577,-0.00708761,0.0100557,-0.00411958,-0.786648,0.00841989,0.0453978,685,981,-16.1085,-0.68949
-532,43,-16.0665,0.609375,0.00572473,0.00378537,-0.00920406,0.0140101,-0.00449995,-0.732915,0.011147,0.0479554,692,981,-16.0665,-0.60939
-525,43,-16.0234,0.530884,0.00788746,0.00508689,-0.0127869,0.0193505,-0.00637617,-0.730861,0.0154701,0.0469006,699,981,-16.0234,-0.530865
-518,43,0,0,0,0,0,0,0,0,0,-1,706,981,0,0
-511,43,0,0,0,0,0,0,0,0,0,-1,713,981,0,0
-504,43,0,0,0,0,0,0,0,0,0,-1,720,981,0,0
-497,43,0,0,0,0,0,0,0,0,0,-1,727,981,0,0
-490,43,0,0,0,0,0,0,0,0,0,-1,734,981,0,0
-483,43,0,0,0,0,0,0,0,0,0,-1,741,981,0,0
-476,43,0,0,0,0,0,0,0,0,0,-1,748,981,0,0
-469,43,0,0,0,0,0,0,0,0,0,-1,755,981,0,0
-462,43,0,0,0,0,0,0,0,0,0,-1,762,981,0,0
-455,43,0,0,0,0,0,0,0,0,0,-1,769,981,0,0
-448,43,0,0,0,0,0,0,0,0,0,-1,776,981,0,0
-441,43,0,0,0,0,0,0,0,0,0,-1,783,981,0,0
-434,43,0,0,0,0,0,0,0,0,0,-1,790,981,0,0
-427,43,0,0,0,0,0,0,0,0,0,-1,797,981,0,0
-420,43,0,0,0,0,0,0,0,0,0,-1,804,981,0,0
-413,43,0,0,0,0,0,0,0,0,0,-1,811,981,0,0
-406,43,0,0,0,0,0,0,0,0,0,-1,818,981,0,0
-399,43,0,0,0,0,0,0,0,0,0,-1,825,981,0,0
-392,43,0,0,0,0,0,0,0,0,0,-1,832,981,0,0
-385,43,0,0,0,0,0,0,0,0,0,-1,839,981,0,0
-378,43,0,0,0,0,0,0,0,0,0,-1,846,981,0,0
-371,43,0,0,0,0,0,0,0,0,0,-1,853,981,0,0
-364,43,0,0,0,0,0,0,0,0,0,-1,860,981,0,0
-357,43,0,0,0,0,0,0,0,0,0,-1,867,981,0,0
-350,43,0,0,0,0,0,0,0,0,0,-1,874,981,0,0
-343,43,0,0,0,0,0,0,0,0,0,-1,881,981,0,0
-336,43,0,0,0,0,0,0,0,0,0,-1,888,981,0,0
-329,43,0,0,0,0,0,0,0,0,0,-1,895,981,0,0
-322,43,0,0,0,0,0,0,0,0,0,-1,902,981,0,0
-315,43,0,0,0,0,0,0,0,0,0,-1,909,981,0,0
-308,43,0,0,0,0,0,0,0,0,0,-1,916,981,0,0
-301,43,0,0,0,0,0,0,0,0,0,-1,923,981,0,0
-294,43,0,0,0,0,0,0,0,0,0,-1,930,981,0,0
-287,43,0,0,0,0,0,0,0,0,0,-1,937,981,0,0
-280,43,0,0,0,0,0,0,0,0,0,-1,944,981,0,0
-273,43,0,0,0,0,0,0,0,0,0,-1,951,981,0,0
-266,43,0,0,0,0,0,0,0,0,0,-1,958,981,0,0
-259,43,0,0,0,0,0,0,0,0,0,-1,965,981,0,0
-252,43,0,0,0,0,0,0,0,0,0,-1,972,981,0,0
-245,43,0,0,0,0,0,0,0,0,0,-1,979,981,0,0
-238,43,0,0,0,0,0,0,0,0,0,-1,986,981,0,0
-231,43,0,0,0,0,0,0,0,0,0,-1,993,981,0,0
-224,43,0,0,0,0,0,0,0,0,0,-1,1000,981,0,0
-217,43,0,0,0,0,0,0,0,0,0,-1,1007,981,0,0
-210,43,0,0,0,0,0,0,0,0,0,-1,1014,981,0,0
-203,43,0,0,0,0,0,0,0,0,0,-1,1021,981,0,0
-196,43,0,0,0,0,0,0,0,0,0,-1,1028,981,0,0
-189,43,0,0,0,0,0,0,0,0,0,-1,1035,981,0,0
-182,43,0,0,0,0,0,0,0,0,0,-1,1042,981,0,0
-175,43,0,0,0,0,0,0,0,0,0,-1,1049,981,0,0
-168,43,0,0,0,0,0,0,0,0,0,-1,1056,981,0,0
-161,43,0,0,0,0,0,0,0,0,0,-1,1063,981,0,0
-154,43,0,0,0,0,0,0,0,0,0,-1,1070,981,0,0
-147,43,0,0,0,0,0,0,0,0,0,-1,1077,981,0,0
-140,43,0,0,0,0,0,0,0,0,0,-1,1084,981,0,0
-133,43,0,0,0,0,0,0,0,0,0,-1,1091,981,0,0
-126,43,0,0,0,0,0,0,0,0,0,-1,1098,981,0,0
-119,43,0,0,0,0,0,0,0,0,0,-1,1105,981,0,0
-112,43,0,0,0,0,0,0,0,0,0,-1,1112,981,0,0
-105,43,0,0,0,0,0,0,0,0,0,-1,1119,981,0,0
-98,43,0,0,0,0,0,0,0,0,0,-1,1126,981,0,0
-91,43,0,0,0,0,0,0,0,0,0,-1,1133,981,0,0
-84,43,0,0,0,0,0,0,0,0,0,-1,1140,981,0,0
-77,43,0,0,0,0,0,0,0,0,0,-1,1147,981,0,0
-70,43,0,0,0,0,0,0,0,0,0,-1,1154,981,0,0
-63,43,0,0,0,0,0,0,0,0,0,-1,1161,981,0,0
-56,43,0,0,0,0,0,0,0,0,0,-1,1168,981,0,0
-49,43,0,0,0,0,0,0,0,0,0,-1,1175,981,0,0
-42,43,0,0,0,0,0,0,0,0,0,-1,1182,981,0,0
-35,43,0,0,0,0,0,0,0,0,0,-1,1189,981,0,0
-28,43,0,0,0,0,0,0,0,0,0,-1,1196,981,0,0
-21,43,0,0,0,0,0,0,0,0,0,-1,1203,981,0,0
-14,43,0,0,0,0,0,0,0,0,0,-1,1210,981,0,0
-7,43,0,0,0,0,0,0,0,0,0,-1,1217,981,0,0
0,43,0,0,0,0,0,0,0,0,0,-1,1224,981,0,0
7,43,0,0,0,0,0,0,0,0,0,-1,1231,981,0,0
14,43,0,0,0,0,0,0,0,0,0,-1,1238,981,0,0
21,43,0,0,0,0,0,0,0,0,0,-1,1245,981,0,0
28,43,0,0,0,0,0,0,0,0,0,-1,1252,981,0,0
35,43,0,0,0,0,0,0,0,0,0,-1,1259,981,0,0
42,43,0,0,0,0,0,0,0,0,0,-1,1266,981,0,0
49,43,0,0,0,0,0,0,0,0,0,-1,1273,981,0,0
56,43,0,0,0,0,0,0,0,0,0,-1,1280,981,0,0
63,43,0,0,0,0,0,0,0,0,0,-1,1287,981,0,0
70,43,0,0,0,0,0,0,0,0,0,-1,1294,981,0,0
77,43,0,0,0,0,0,0,0,0,0,-1,1301,981,0,0
84,43,0,0,0,0,0,0,0,0,0,-1,1308,981,0,0
91,43,0,0,0,0,0,0,0,0,0,-1,1315,981,0,0
98,43,0,0,0,0,0,0,0,0,0,-1,1322,981,0,0
105,43,0,0,0,0,0,0,0,0,0,-1,1329,981,0,0
112,43,0,0,0,0,0,0,0,0,0,-1,1336,981,0,0
119,43,0,0,0,0,0,0,0,0,0,-1,1343,981,0,0
126,43,0,0,0,0,0,0,0,0,0,-1,1350,981,0,0
133,43,0,0,0,0,0,0,0,0,0,-1,1357,981,0,0
140,43,0,0,0,0,0,0,0,0,0,-1,1364,981,0,0
147,43,0,0,0,0,0,0,0,0,0,-1,1371,981,0,0
154,43,0,0,0,0,0,0,0,0,0,-1,1378,981,0,0
161,43,0,0,0,0,0,0,0,0,0,-1,1385,981,0,0
168,43,0,0,0,0,0,0,0,0,0,-1,1392,981,0,0
175,43,0,0,0,0,0,0,0,0,0,-1,1399,981,0,0
182,43,0,0,0,0,0,0,0,0,0,-1,1406,981,0,0
189,43,0,0,0,0,0,0,0,0,0,-1,1413,981,0,0
196,43,0,0,0,0,0,0,0,0,0,-1,1420,981,0,0
203,43,0,0,0,0,0,0,0,0,0,-1,1427,981,0,0
210,43,0,0,0,0,0,0,0,0,0,-1,1434,981,0,0
217,43,0,0,0,0,0,0,0,0,0,-1,1441,981,0,0
224,43,0,0,0,0,0,0,0,0,0,-1,1448,981,0,0
231,43,0,0,0,0,0,0,0,0,0,-1,1455,981,0,0
238,43,0,0,0,0,0,0,0,0,0,-1,1462,981,0,0
245,43,0,0,0,0,0,0,0,0,0,-1,1469,981,0,0
252,43,0,0,0,0,0,0,0,0,0,-1,1476,981,0,0
259,43,0,0,0,0,0,0,0,0,0,-1,1483,981,0,0
266,43,0,0,0,0,0,0,0,0,0,-1,1490,981,0,0
273,43,0,0,0,0,0,0,0,0,0,-1,1497,981,0,0
280,43,0,0,0,0,0,0,0,0,0,-1,1504,981,0,0
287,43,0,0,0,0,0,0,0,0,0,-1,1511,981,0,0
294,43,0,0,0,0,0,0,0,0,0,-1,1518,981,0,0
301,43,0,0,0,0,0,0,0,0,0,-1,1525,981,0,0
308,43,0,0,0,0,0,0,0,0,0,-1,1532,981,0,0
315,43,0,0,0,0,0,0,0,0,0,-1,1539,981,0,0
322,43,0,0,0,0,0,0,0,0,0,-1,1546,981,0,0
329,43,0,0,0,0,0,0,0,0,0,-1,1553,981,0,0
336,43,0,0,0,0,0,0,0,0,0,-1,1560,981,0,0
343,43,0,0,0,0,0,0,0,0,0,-1,1567,981,0,0
350,43,0,0,0,0,0,0,0,0,0,-1,1574,981,0,0
357,43,0,0,0,0,0,0,0,0,0,-1,1581,981,0,0
364,43,0,0,0,0,0,0,0,0,0,-1,1588,981,0,0
371,43,0,0,0,0,0,0,0,0,0,-1,1595,981,0,0
378,43,0,0,0,0,0,0,0,0,0,-1,1602,981,0,0
385,43,0,0,0,0,0,0,0,0,0,-1,1609,981,0,0
392,43,0,0,0,0,0,0,0,0,0,-1,1616,981,0,0
399,43,0,0,0,0,0,0,0,0,0,-1,1623,981,0,0
406,43,0,0,0,0,0,0,0,0,0,-1,1630,981,0,0
413,43,0,0,0,0,0,0,0,0,0,-1,1637,981,0,0
420,43,0,0,0,0,0,0,0,0,0,-1,1644,981,0,0
427,43,0,0,0,0,0,0,0,0,0,-1,1651,981,0,0
434,43,0,0,0,0,0,0,0,0,0,-1,1658,981,0,0
441,43,0,0,0,0,0,0,0,0,0,-1,1665,981,0,0
448,43,0,0,0,0,0,0,0,0,0,-1,1672,981,0,0
455,43,0,0,0,0,0,0,0,0,0,-1,1679,981,0,0
462,43,0,0,0,0,0,0,0,0,0,-1,1686,981,0,0
469,43,0,0,0,0,0,0,0,0,0,-1,1693,981,0,0
476,43,0,0,0,0,0,0,0,0,0,-1,1700,981,0,0
483,43,0,0,0,0,0,0,0,0,0,-1,1707,981,0,0
490,43,0,0,0,0,0,0,0,0,0,-1,1714,981,0,0
497,43,0,0,0,0,0,0,0,0,0,-1,1721,981,0,0
504,43,0,0,0,0,0,0,0,0,0,-1,1728,981,0,0
511,43,0,0,0,0,0,0,0,0,0,-1,1735,981,0,0
518,43,0,0,0,0,0,0,0,0,0,-1,1742,981,0,0
525,43,0,0,0,0,0,0,0,0,0,-1,1749,981,0,0
532,43,0,0,0,0,0,0,0,0,0,-1,1756,981,0,0
539,43,0,0,0,0,0,0,0,0,0,-1,1763,981,0,0
546,43,0,0,0,0,0,0,0,0,0,-1,1770,981,0,0
553,43,0,0,0,0,0,0,0,0,0,-1,1777,981,0,0
560,43,0,0,0,0,0,0,0,0,0,-1,1784,981,0,0
567,43,0,0,0,0,0,0,0,0,0,-1,1791,981,0,0
574,43,0,0,0,0,0,0,0,0,0,-1,1798,981,0,0
581,43,0,0,0,0,0,0,0,0,0,-1,1805,981,0,0
588,43,0,0,0,0,0,0,0,0,0,-1,1812,981,0,0
595,43,0,0,0,0,0,0,0,0,0,-1,1819,981,0,0
602,43,0,0,0,0,0,0,0,0,0,-1,1826,981,0,0
609,43,0,0,0,0,0,0,0,0,0,-1,1833,981,0,0
616,43,0,0,0,0,0,0,0,0,0,-1,1840,981,0,0
623,43,0,0,0,0,0,0,0,0,0,-1,1847,981,0,0
630,43,0,0,0,0,0,0,0,0,0,-1,1854,981,0,0
637,43,0,0,0,0,0,0,0,0,0,-1,1861,981,0,0
644,43,23.662,3.04779,0.0010808,0.00145101,-0.00355902,0.00482974,-0.00229792,-0.81138,0.0042008,0.0383087,1868,981,23.662,-3.04777
651,43,23.6489,2.76337,0.00122161,0.00122333,-0.00241865,0.00364112,-0.00119619,-0.785576,0.0029093,0.0373823,1875,981,23.6489,-2.76337
658,43,23.5934,2.55017,0.00104387,0.00106926,-0.00145589,0.00251251,-0.000399382,-0.789758,0.00182278,0.0389499,1882,981,23.5934,-2.55019
665,43,23.7758,2.46704,0.000754476,0.00112835,-0.000480621,0.00145711,0.000425716,-0.970868,0.000865146,0.0420786,1889,981,23.7757,-2.46705
672,43,23.8599,2.56396,9.10006e-05,0.00115586,0.000685995,0.0014918,-0.000244942,1.11541,0.00108543,0.0418537,1896,981,23.8599,-2.56394
679,43,23.7534,2.64148,-0.000917447,0.0011188,0.00185982,0.00222094,-0.00201958,1.03583,0.00244919,0.0412964,1903,981,23.7535,-2.64146
686,43,23.8452,2.81702,-0.00178931,0.000998688,0.00277269,0.00270808,-0.00349871,1.01833,0.00359317,0.0419531,1910,981,23.8452,-2.817
693,43,23.8545,2.64087,-0.00257223,0.000807871,0.00348917,0.00299475,-0.00475911,1.01093,0.00451516,0.0387739,1917,981,23.8545,-2.6409
700,43,23.6504,2.63837,-0.0031426,0.000702279,0.00395063,0.00317339,-0.00561371,1.01184,0.00513803,0.0332325,1924,981,23.6504,-2.63835
707,43,23.7332,2.71881,-0.00365773,0.000650753,0.00416511,0.00318574,-0.00619272,1.02406,0.00550665,0.0289387,1931,981,23.7331,-2.71883
714,43,23.8108,2.6795,0,0,0,0,0,0,0,-1,1938,981,23.8108,-2.67948
721,43,23.4711,3.49451,-0.00461248,0.000706315,0.00415343,0.00297879,-0.00688495,1.07016,0.00584179,0.0327306,1945,981,23.4711,-3.49452
728,43,23.0408,3.90613,-0.00477607,0.000922723,0.0040381,0.00301552,-0.00686887,1.09265,0.00584952,0.0196052,1952,981,23.0407,-3.90615
735,43,22.9604,4.05157,-0.00487367,0.00136116,0.00389812,0.0032351,-0.00674761,1.12268,0.00588124,0.0130145,1959,981,22.9605,-4.05158
742,43,22.939,4.1322,-0.00487896,0.00227309,0.00333203,0.00358484,-0.00619071,1.19575,0.00571037,0.0151834,1966,981,22.939,-4.1322
749,43,22.9089,4.21185,-0.0043169,0.00431028,0.00357812,0.00560115,-0.00560777,1.22456,0.00647148,0.0172845,1973,981,22.9089,-4.21184
756,43,22.9393,4.31934,-0.00366829,0.0069295,0.00394579,0.00823723,-0.00497603,1.25076,0.00770574,0.0158105,1980,981,22.9394,-4.31932
763,43,22.9399,4.40985,-0.00298504,0.0106232,0.00456659,0.0120136,-0.00437542,1.27525,0.00979875,0.0174255,1987,981,22.9399,-4.40984
770,43,22.8741,4.50171,-0.0020049,0.0154646,0.00583657,0.0172351,-0.00377545,1.27626,0.0129336,0.0142757,1994,981,22.8742,-4.50171
777,43,22.8503,4.59393,-0.000775669,0.0214068,0.00779145,0.02387,-0.00323884,1.2646,0.0170955,0.0197639,2001,981,22.8503,-4.59393
784,43,22.7717,4.7937,0.000444648,0.0285682,0.0104811,0.0320446,-0.00303174,1.25053,0.022442,0.0400581,2008,981,22.7717,-4.79372
791,43,22.6685,4.98065,0,0,0,0,0,0,0,-1,2015,981,22.6684,-4.98062
798,43,20.8639,3.76587,0.00411822,0.0472233,0.0173012,0.0533085,-0.00196696,1.23259,0.0362125,0.0445191,2022,981,20.8638,-3.76585
805,43,20.7603,4.42578,0.0066987,0.0589261,0.0212514,0.0664806,-0.000855789,1.22925,0.0446084,0.0448702,2029,981,20.7603,-4.42576
812,43,20.749,5.0614,0.00993681,0.0722798,0.0253224,0.0812691,0.000947557,1.22968,0.0538663,0.0487602,2036,981,20.7491,-5.0614
-700,36,0,0,0,0,0,0,0,0,0,-1,524,988,0,0
-693,36,-14.9121,6.54047,0.0169577,0.0689959,-0.0770286,0.124281,-0.0383275,-0.948274,0.0981568,0.0455696,531,988,-14.9121,-6.54049
-686,36,-14.7527,5.06683,0.0192678,0.0586358,-0.0516649,0.0942394,-0.0163359,-0.967406,0.06892,0.0457823,538,988,-14.7527,-5.06686
-679,36,-14.7978,4.0174,0.0193664,0.0489908,-0.033423,0.0707367,-0.00237961,-0.993979,0.0479707,0.0459478,545,988,-14.7978,-4.01737
-672,36,-16.4814,0.151306,0.0182274,0.0402627,-0.0203033,0.0523451,0.00614501,-1.03399,0.0330394,0.0444954,552,988,-16.4814,-0.151276
-665,36,-16.4651,0.71228,0.0163637,0.0324913,-0.01108,0.0381311,0.0107238,-1.09996,0.0227066,0.0431892,559,988,-16.4651,-0.712268
-658,36,-16.4042,1.13019,0.014095,0.0256785,-0.00485405,0.0274436,0.0123298,-1.22202,0.0158717,0.0418376,566,988,-16.4042,-1.13017
-651,36,-16.2695,1.77332,0.0116707,0.0198022,-0.000952525,0.0199123,0.0115606,-1.45573,0.011546,0.0363909,573,988,-16.2695,-1.77333
-644,36,-16.0356,2.00214,0.00926083,0.0148102,0.00108405,0.0150145,0.00905658,1.38457,0.00872994,0.0199557,580,988,-16.0357,-2.00212
-637,36,-16.0264,1.95758,0.00696293,0.0106435,0.00241979,0.0118433,0.00576315,1.1105,0.00683854,0.0140608,587,988,-16.0264,-1.9576
-630,36,-15.9971,1.91473,0.00453101,0.00737716,0.00252192,0.00884981,0.00305836,1.04227,0.00519002,0.0120552,594,988,-15.9972,-1.91475
-623,36,-15.9943,1.84711,0.00277198,0.00483237,0.00180569,0.00588107,0.00172328,1.04463,0.00349107,0.0127583,601,988,-15.9943,-1.84713
-616,36,-15.9874,1.7912,0.00110317,0.00290832,0.000591205,0.00308471,0.000926784,1.28085,0.00182763,0.0107638,608,988,-15.9874,-1.79121
-609,36,-15.9926,1.74231,-0.000550289,0.00145575,-0.00160494,0.00234532,-0.00143986,-1.06468,0.00220612,0.0151938,615,988,-15.9925,-1.74231
-602,36,-15.9901,1.65057,-0.00222427,0.00138106,-0.00321296,0.00326251,-0.00410572,-1.04105,0.00426332,0.0185624,622,988,-15.9901,-1.65056
-595,36,-15.9667,1.57086,-0.00297338,0.00103723,-0.00409328,0.00359002,-0.00552617,-1.01317,0.00530265,0.0190864,629,988,-15.9667,-1.57089
-588,36,-16.0019,1.28912,-0.0030461,0.000903429,-0.00460476,0.003939,-0.00608167,-0.987963,0.00582936,0.0199618,636,988,-16.0019,-1.28912
-581,36,-16.1041,0.923218,-0.00289415,0.000838557,-0.0050445,0.00435088,-0.00640648,-0.962579,0.00624845,0.0224707,643,988,-16.1041,-0.923205
-574,36,-16.1522,0.791687,-0.00272508,0.000968737,-0.00544729,0.0048737,-0.00663004,-0.948842,0.00666744,0.0256934,650,988,-16.1522,-0.791657
-567,36,-16.1455,0.685547,-0.00231472,0.00109223,-0.00553744,0.00518229,-0.00640478,-0.934619,0.0067022,0.0339112,657,988,-16.1455,-0.685547
-560,36,-16.1518,0.724854,-0.00151624,0.00127817,-0.0056145,0.0056667,-0.00590477,-0.907349,0.00668127,0.0396109,664,988,-16.1518,-0.724875
-553,36,-16.2544,0.747803,-0.000251044,0.00150247,-0.00580467,0.00649623,-0.0052448,-0.860353,0.00679151,0.0430165,671,988,-16.2544,-0.747814
-546,36,-16.3694,0.552124,0.00151299,0.00175076,-0.00626352,0.00789652,-0.00463278,-0.794887,0.00731514,0.0437985,678,988,-16.3694,-0.552121
-539,36,-16.1935,0.533569,0.00378286,0.00199241,-0.00729774,0.0102401,-0.00446481,-0.724367,0.00870539,0.043668,685,988,-16.1935,-0.533573
-532,36,-15.9767,0.540955,0.00621709,0.00244495,-0.00952294,0.0140389,-0.0053769,-0.687636,0.0115756,0.0473303,692,988,-15.9767,-0.540966
-525,36,-16.0291,0.298096,0.00806905,0.00336304,-0.0133293,0.0192514,-0.00781931,-0.698034,0.0160871,0.0478065,699,988,-16.029,-0.298109
-518,36,0,0,0,0,0,0,0,0,0,-1,706,988,0,0
-511,36,0,0,0,0,0,0,0,0,0,-1,713,988,0,0
-504,36,0,0,0,0,0,0,0,0,0,-1,720,988,0,0
-497,36,0,0,0,0,0,0,0,0,0,-1,727,988,0,0
-490,36,0,0,0,0,0,0,0,0,0,-1,734,988,0,0
-483,36,0,0,0,0,0,0,0,0,0,-1,741,988,0,0
-476,36,0,0,0,0,0,0,0,0,0,-1,748,988,0,0
-469,36,0,0,0,0,0,0,0,0,0,-1,755,988,0,0
-462,36,0,0,0,0,0,0,0,0,0,-1,762,988,0,0
-455,36,0,0,0,0,0,0,0,0,0,-1,769,988,0,0
-448,36,0,0,0,0,0,0,0,0,0,-1,776,988,0,0
-441,36,0,0,0,0,0,0,0,0,0,-1,783,988,0,0
-434,36,0,0,0,0,0,0,0,0,0,-1,790,988,0,0
-427,36,0,0,0,0,0,0,0,0,0,-1,797,988,0,0
-420,36,0,0,0,0,0,0,0,0,0,-1,804,988,0,0
-413,36,0,0,0,0,0,0,0,0,0,-1,811,988,0,0
-406,36,0,0,0,0,0,0,0,0,0,-1,818,988,0,0
-399,36,0,0,0,0,0,0,0,0,0,-1,825,988,0,0
-392,36,0,0,0,0,0,0,0,0,0,-1,832,988,0,0
-385,36,0,0,0,0,0,0,0,0,0,-1,839,988,0,0
-378,36,0,0,0,0,0,0,0,0,0,-1,846,988,0,0
-371,36,0,0,0,0,0,0,0,0,0,-1,853,988,0,0
-364,36,0,0,0,0,0,0,0,0,0,-1,860,988,0,0
-357,36,0,0,0,0,0,0,0,0,0,-1,867,988,0,0
-350,36,0,0,0,0,0,0,0,0,0,-1,874,988,0,0
-343,36,0,0,0,0,0,0,0,0,0,-1,881,988,0,0
-336,36,0,0,0,0,0,0,0,0,0,-1,888,988,0,0
-329,36,0,0,0,0,0,0,0,0,0,-1,895,988,0,0
-322,36,0,0,0,0,0,0,0,0,0,-1,902,988,0,0
-315,36,0,0,0,0,0,0,0,0,0,-1,909,988,0,0
-308,36,0,0,0,0,0,0,0,0,0,-1,916,988,0,0
-301,36,0,0,0,0,0,0,0,0,0,-1,923,988,0,0
-294,36,0,0,0,0,0,0,0,0,0,-1,930,988,0,0
-287,36,0,0,0,0,0,0,0,0,0,-1,937,988,0,0
-280,36,0,0,0,0,0,0,0,0,0,-1,944,988,0,0
-273,36,0,0,0,0,0,0,0,0,0,-1,951,988,0,0
-266,36,0,0,0,0,0,0,0,0,0,-1,958,988,0,0
-259,36,0,0,0,0,0,0,0,0,0,-1,965,988,0,0
-252,36,0,0,0,0,0,0,0,0,0,-1,972,988,0,0
-245,36,0,0,0,0,0,0,0,0,0,-1,979,988,0,0
-238,36,0,0,0,0,0,0,0,0,0,-1,986,988,0,0
-231,36,0,0,0,0,0,0,0,0,0,-1,993,988,0,0
-224,36,0,0,0,0,0,0,0,0,0,-1,1000,988,0,0
-217,36,0,0,0,0,0,0,0,0,0,-1,1007,988,0,0
-210,36,0,0,0,0,0,0,0,0,0,-1,1014,988,0,0
-203,36,0,0,0,0,0,0,0,0,0,-1,1021,988,0,0
-196,36,0,0,0,0,0,0,0,0,0,-1,1028,988,0,0
-189,36,0,0,0,0,0,0,0,0,0,-1,1035,988,0,0
-182,36,0,0,0,0,0,0,0,0,0,-1,1042,988,0,0
-175,36,0,0,0,0,0,0,0,0,0,-1,1049,988,0,0
-168,36,0,0,0,0,0,0,0,0,0,-1,1056,988,0,0
-161,36,0,0,0,0,0,0,0,0,0,-1,1063,988,0,0
-154,36,0,0,0,0,0,0,0,0,0,-1,1070,988,0,0
-147,36,0,0,0,0,0,0,0,0,0,-1,1077,988,0,0
-140,36,0,0,0,0,0,0,0,0,0,-1,1084,988,0,0
-133,36,0,0,0,0,0,0,0,0,0,-1,1091,988,0,0
-126,36,0,0,0,0,0,0,0,0,0,-1,1098,988,0,0
-119,36,0,0,0,0,0,0,0,0,0,-1,1105,988,0,0
-112,36,0,0,0,0,0,0,0,0,0,-1,1112,988,0,0
-105,36,0,0,0,0,0,0,0,0,0,-1,1119,988,0,0
-98,36,0,0,0,0,0,0,0,0,0,-1,1126,988,0,0
-91,36,0,0,0,0,0,0,0,0,0,-1,1133,988,0,0
-84,36,0,0,0,0,0,0,0,0,0,-1,1140,988,0,0
-77,36,0,0,0,0,0,0,0,0,0,-1,1147,988,0,0
-70,36,0,0,0,0,0,0,0,0,0,-1,1154,988,0,0
-63,36,0,0,0,0,0,0,0,0,0,-1,1161,988,0,0
-56,36,0,0,0,0,0,0,0,0,0,-1,1168,988,0,0
-49,36,0,0,0,0,0,0,0,0,0,-1,1175,988,0,0
-42,36,0,0,0,0,0,0,0,0,0,-1,1182,988,0,0
-35,36,0,0,0,0,0,0,0,0,0,-1,1189,988,0,0
-28,36,0,0,0,0,0,0,0,0,0,-1,1196,988,0,0
-21,36,0,0,0,0,0,0,0,0,0,-1,1203,988,0,0
-14,36,0,0,0,0,0,0,0,0,0,-1,1210,988,0,0
-7,36,0,0,0,0,0,0,0,0,0,-1,1217,988,0,0
0,36,0,0,0,0,0,0,0,0,0,-1,1224,988,0,0
7,36,0,0,0,0,0,0,0,0,0,-1,1231,988,0,0
14,36,0,0,0,0,0,0,0,0,0,-1,1238,988,0,0
21,36,0,0,0,0,0,0,0,0,0,-1,1245,988,0,0
28,36,0,0,0,0,0,0,0,0,0,-1,1252,988,0,0
35,36,0,0,0,0,0,0,0,0,0,-1,1259,988,0,0
42,36,0,0,0,0,0,0,0,0,0,-1,1266,988,0,0
49,36,0,0,0,0,0,0,0,0,0,-1,1273,988,0,0
56,36,0,0,0,0,0,0,0,0,0,-1,1280,988,0,0
63,36,0,0,0,0,0,0,0,0,0,-1,1287,988,0,0
70,36,0,0,0,0,0,0,0,0,0,-1,1294,988,0,0
77,36,0,0,0,0,0,0,0,0,0,-1,1301,988,0,0
84,36,0,0,0,0,0,0,0,0,0,-1,1308,988,0,0
91,36,0,0,0,0,0,0,0,0,0,-1,1315,988,0,0
98,36,0,0,0,0,0,0,0,0,0,-1,1322,988,0,0
105,36,0,0,0,0,0,0,0,0,0,-1,1329,988,0,0
112,36,0,0,0,0,0,0,0,0,0,-1,1336,988,0,0
119,36,0,0,0,0,0,0,0,0,0,-1,1343,988,0,0
126,36,0,0,0,0,0,0,0,0,0,-1,1350,988,0,0
133,36,0,0,0,0,0,0,0,0,0,-1,1357,988,0,0
140,36,0,0,0,0,0,0,0,0,0,-1,1364,988,0,0
147,36,0,0,0,0,0,0,0,0,0,-1,1371,988,0,0
154,36,0,0,0,0,0,0,0,0,0,-1,1378,988,0,0
161,36,0,0,0,0,0,0,0,0,0,-1,1385,988,0,0
168,36,0,0,0,0,0,0,0,0,0,-1,1392,988,0,0
175,36,0,0,0,0,0,0,0,0,0,-1,1399,988,0,0
182,36,0,0,0,0,0,0,0,0,0,-1,1406,988,0,0
189,36,0,0,0,0,0,0,0,0,0,-1,1413,988,0,0
196,36,0,0,0,0,0,0,0,0,0,-1,1420,988,0,0
203,36,0,0,0,0,0,0,0,0,0,-1,1427,988,0,0
210,36,0,0,0,0,0,0,0,0,0,-1,1434,988,0,0
217,36,0,0,0,0,0,0,0,0,0,-1,1441,988,0,0
224,36,0,0,0,0,0,0,0,0,0,-1,1448,988,0,0
231,36,0,0,0,0,0,0,0,0,0,-1,1455,988,0,0
238,36,0,0,0,0,0,0,0,0,0,-1,1462,988,0,0
245,36,0,0,0,0,0,0,0,0,0,-1,1469,988,0,0
252,36,0,0,0,0,0,0,0,0,0,-1,1476,988,0,0
259,36,0,0,0,0,0,0,0,0,0,-1,1483,988,0,0
266,36,0,0,0,0,0,0,0,0,0,-1,1490,988,0,0
273,36,0,0,0,0,0,0,0,0,0,-1,1497,988,0,0
280,36,0,0,0,0,0,0,0,0,0,-1,1504,988,0,0
287,36,0,0,0,0,0,0,0,0,0,-1,1511,988,0,0
294,36,0,0,0,0,0,0,0,0,0,-1,1518,988,0,0
301,36,0,0,0,0,0,0,0,0,0,-1,1525,988,0,0
308,36,0,0,0,0,0,0,0,0,0,-1,1532,988,0,0
315,36,0,0,0,0,0,0,0,0,0,-1,1539,988,0,0
322,36,0,0,0,0,0,0,0,0,0,-1,1546,988,0,0
329,36,0,0,0,0,0,0,0,0,0,-1,1553,988,0,0
336,36,0,0,0,0,0,0,0,0,0,-1,1560,988,0,0
343,36,0,0,0,0,0,0,0,0,0,-1,1567,988,0,0
350,36,0,0,0,0,0,0,0,0,0,-1,1574,988,0,0
357,36,0,0,0,0,0,0,0,0,0,-1,1581,988,0,0
364,36,0,0,0,0,0,0,0,0,0,-1,1588,988,0,0
371,36,0,0,0,0,0,0,0,0,0,-1,1595,988,0,0
378,36,0,0,0,0,0,0,0,0,0,-1,1602,988,0,0
385,36,0,0,0,0,0,0,0,0,0,-1,1609,988,0,0
392,36,0,0,0,0,0,0,0,0,0,-1,1616,988,0,0
399,36,0,0,0,0,0,0,0,0,0,-1,1623,988,0,0
406,36,0,0,0,0,0,0,0,0,0,-1,1630,988,0,0
413,36,0,0,0,0,0,0,0,0,0,-1,1637,988,0,0
420,36,0,0,0,0,0,0,0,0,0,-1,1644,988,0,0
427,36,0,0,0,0,0,0,0,0,0,-1,1651,988,0,0
434,36,0,0,0,0,0,0,0,0,0,-1,1658,988,0,0
441,36,0,0,0,0,0,0,0,0,0,-1,1665,988,0,0
448,36,0,0,0,0,0,0,0,0,0,-1,1672,988,0,0
455,36,0,0,0,0,0,0,0,0,0,-1,1679,988,0,0
462,36,0,0,0,0,0,0,0,0,0,-1,1686,988,0,0
469,36,0,0,0,0,0,0,0,0,0,-1,1693,988,0,0
476,36,0,0,0,0,0,0,0,0,0,-1,1700,988,0,0
483,36,0,0,0,0,0,0,0,0,0,-1,1707,988,0,0
490,36,0,0,0,0,0,0,0,0,0,-1,1714,988,0,0
497,36,0,0,0,0,0,0,0,0,0,-1,1721,988,0,0
504,36,0,0,0,0,0,0,0,0,0,-1,1728,988,0,0
511,36,0,0,0,0,0,0,0,0,0,-1,1735,988,0,0
518,36,0,0,0,0,0,0,0,0,0,-1,1742,988,0,0
525,36,0,0,0,0,0,0,0,0,0,-1,1749,988,0,0
532,36,0,0,0,0,0,0,0,0,0,-1,1756,988,0,0
539,36,0,0,0,0,0,0,0,0,0,-1,1763,988,0,0
546,36,0,0,0,0,0,0,0,0,0,-1,1770,988,0,0
553,36,0,0,0,0,0,0,0,0,0,-1,1777,988,0,0
560,36,0,0,0,0,0,0,0,0,0,-1,1784,988,0,0
567,36,0,0,0,0,0,0,0,0,0,-1,1791,988,0,0
574,36,0,0,0,0,0,0,0,0,0,-1,1798,988,0,0
581,36,0,0,0,0,0,0,0,0,0,-1,1805,988,0,0
588,36,0,0,0,0,0,0,0,0,0,-1,1812,988,0,0
595,36,0,0,0,0,0,0,0,0,0,-1,1819,988,0,0
602,36,0,0,0,0,0,0,0,0,0,-1,1826,988,0,0
609,36,0,0,0,0,0,0,0,0,0,-1,1833,988,0,0
616,36,0,0,0,0,0,0,0,0,0,-1,1840,988,0,0
623,36,0,0,0,0,0,0,0,0,0,-1,1847,988,0,0
630,36,0,0,0,0,0,0,0,0,0,-1,1854,988,0,0
637,36,0,0,0,0,0,0,0,0,0,-1,1861,988,0,0
644,36,23.8339,2.98944,0.000453038,0.00160115,-0.00332439,0.00440069,-0.0023465,-0.870895,0.00395521,0.0401582,1868,988,23.8338,-2.98944
651,36,23.6619,2.94806,0.000800099,0.00135414,-0.00232331,0.00341689,-0.00126265,-0.844736,0.00279553,0.0392682,1875,988,23.6618,-2.94809
658,36,23.6951,2.91162,0.000775762,0.00117216,-0.00145259,0.00244001,-0.000492087,-0.853202,0.0018131,0.0377264,1882,988,23.6951,-2.9116
665,36,23.8101,2.75287,0.000624222,0.00119371,-0.000548318,0.00152681,0.000291122,-1.02489,0.000936049,0.0390939,1889,988,23.81,-2.75286
672,36,23.769,2.62921,7.40893e-05,0.00120591,0.000630546,0.00148726,-0.000207256,1.15111,0.00106732,0.0397588,1896,988,23.769,-2.62921
679,36,23.7156,2.68976,-0.000898482,0.00114382,0.0019063,0.00228524,-0.00203991,1.03129,0.00249846,0.0391477,1903,988,23.7156,-2.68979
686,36,23.7325,2.93842,-0.0017782,0.0010074,0.00293144,0.0028601,-0.00363089,1.00717,0.00375637,0.03729,1910,988,23.7325,-2.93843
693,36,23.8645,2.75397,-0.00257812,0.00080677,0.00375304,0.00323133,-0.00500268,0.997221,0.00479043,0.0390427,1917,988,23.8646,-2.75399
700,36,23.7628,2.72119,-0.0031655,0.000673642,0.00429578,0.00345922,-0.00595108,0.995514,0.00549617,0.0363627,1924,988,23.7628,-2.72121
707,36,23.7451,2.72839,-0.00370239,0.000606081,0.00458884,0.00352118,-0.00661749,1.00485,0.00594386,0.0254638,1931,988,23.7452,-2.72842
714,36,23.7924,2.83533,-0.00426695,0.0005917,0.00471592,0.00346723,-0.00714248,1.02324,0.00624683,0.0305376,1938,988,23.7924,-2.83535
721,36,23.5308,3.52264,-0.00473355,0.000646584,0.00467716,0.0033521,-0.00743906,1.04637,0.00637748,0.0355729,1945,988,23.5308,-3.52264
728,36,23.2216,3.94177,-0.00493595,0.000834058,0.00451951,0.00331088,-0.00741277,1.06947,0.00634048,0.0222456,1952,988,23.2216,-3.94177
735,36,23.0325,4.10004,-0.00507474,0.00126758,0.0042848,0.00342706,-0.00723423,1.10396,0.00628476,0.0169844,1959,988,23.0324,-4.10005
742,36,23.0428,4.15948,-0.00517462,0.00207431,0.00356386,0.00353294,-0.00663325,1.18231,0.00595974,0.0143536,1966,988,23.0428,-4.15951
749,36,23.0215,4.23816,-0.00467521,0.00415527,0.00349557,0.00537149,-0.00589143,1.23596,0.00650496,0.015597,1973,988,23.0215,-4.23815
756,36,23.0002,4.31732,-0.00406496,0.00671546,0.00344087,0.00772009,-0.00506959,1.28672,0.00743679,0.0138804,1980,988,23.0003,-4.31734
763,36,23.0039,4.37732,-0.00346059,0.010363,0.00355979,0.0112259,-0.00432344,1.333,0.00926755,0.0154274,1987,988,23.0039,-4.37734
770,36,22.9694,4.44867,-0.00253976,0.0151707,0.00410925,0.0160777,-0.00344675,1.35356,0.0120331,0.0125044,1994,988,22.9693,-4.44868
777,36,22.9225,4.54926,-0.0013598,0.0211622,0.00523042,0.0223176,-0.00251522,1.35338,0.0157837,0.0201354,2001,988,22.9225,-4.54926
784,36,22.8175,4.74316,-0.000176277,0.0284016,0.00698275,0.0300165,-0.00179119,1.34352,0.020634,0.0412741,2008,988,22.8175,-4.74315
791,36,22.8146,4.42114,0,0,0,0,0,0,0,-1,2015,988,22.8146,-4.42112
798,36,20.3835,3.71765,0.00361921,0.047308,0.0114225,0.0501142,0.000813022,1.3299,0.0331418,0.0413296,2022,988,20.3836,-3.71763
805,36,20.2761,5.01666,0.00646318,0.0591669,0.0139315,0.0626229,0.0030072,1.32764,0.0407832,0.0470092,2029,988,20.2762,-5.01665
812,36,20.5339,4.47235,0.0101329,0.0726408,0.0164516,0.0767063,0.00606733,1.32853,0.0492399,0.0478356,2036,988,20.5338,-4.47237
-700,29,0,0,0,0,0,0,0,0,0,-1,524,995,0,0
-693,29,-14.4444,6.05414,0.0151186,0.0643723,-0.078714,0.122222,-0.0427311,-0.937007,0.0988531,0.0457833,531,995,-14.4444,-6.05417
-686,29,-14.4774,4.89697,0.0148088,0.0527856,-0.0550604,0.0920399,-0.0244455,-0.951445,0.0709268,0.0446761,538,995,-14.4774,-4.89698
-679,29,-14.6559,3.89185,0.0138368,0.0427764,-0.0373958,0.0684043,-0.0117911,-0.969995,0.0499988,0.0451849,545,995,-14.656,-3.89184
-672,29,-14.958,3.10217,0.0125599,0.0342205,-0.0242295,0.04993,-0.0031497,-0.995571,0.0343847,0.0427985,552,995,-14.958,-3.10219
-665,29,-16.7532,0.982788,0,0,0,0,0,0,0,-1,559,995,-16.7532,-0.982783
-658,29,-16.7349,1.43646,0.0095818,0.0208985,-0.00788402,0.0249445,0.00553578,-1.09665,0.0151259,0.0441648,566,995,-16.7349,-1.43647
-651,29,-15.9981,2.16193,0.00800885,0.0158564,-0.0034323,0.0171457,0.00671949,-1.21145,0.00997589,0.0359464,573,995,-15.9981,-2.1619
-644,29,-15.9849,1.94135,0.00645095,0.011692,-0.000909543,0.0118454,0.00629759,-1.40376,0.00684351,0.0181933,580,995,-15.9849,-1.94137
-637,29,-16.0735,1.89404,0.00480789,0.00828831,0.00076219,0.00844791,0.00464829,1.36439,0.0048856,0.0123316,587,995,-16.0735,-1.89404
-630,29,-16.074,1.89398,0.00302,0.00554231,0.00111453,0.00596422,0.0025981,1.20892,0.00345295,0.0111635,594,995,-16.0739,-1.89399
-623,29,-16.0723,1.86108,0.00205263,0.00337049,0.000713305,0.00368264,0.00174048,1.1583,0.00212724,0.0113731,601,995,-16.0722,-1.86107
-616,29,-16.0661,1.78711,0.00105172,0.00237006,-0.000315802,0.0024418,0.000979978,-1.34741,0.00141889,0.0130096,608,995,-16.0661,-1.78709
-609,29,-16.0505,1.74133,-0.000167997,0.00116414,-0.00230334,0.00289578,-0.00189964,-0.926147,0.00278848,0.0195057,615,995,-16.0506,-1.74134
-602,29,-16.0368,1.67609,-0.00154719,0.00113428,-0.00383471,0.00385588,-0.00426879,-0.953571,0.0046928,0.0207123,622,995,-16.0368,-1.67608
-595,29,-16.0042,1.59338,-0.00214656,0.000900725,-0.00472098,0.00433784,-0.00558367,-0.941491,0.00574322,0.0195135,629,995,-16.0041,-1.59336
-588,29,-16.0554,1.25995,-0.00209572,0.000820174,-0.00521077,0.00477312,-0.00604867,-0.921807,0.00626241,0.0253331,636,995,-16.0554,-1.25996
-581,29,-16.125,0.961914,-0.0018385,0.000743773,-0.00559044,0.00519024,-0.00628497,-0.898886,0.00663526,0.0350899,643,995,-16.125,-0.961884
-574,29,-16.1224,0.883972,-0.00161692,0.000868604,-0.00589427,0.0056497,-0.00639801,-0.889297,0.00696022,0.0309543,650,995,-16.1224,-0.883952
-567,29,-16.1076,0.768494,-0.00118217,0.00101996,-0.00588501,0.00590603,-0.00606823,-0.877877,0.00691355,0.031357,657,995,-16.1076,-0.768497
-560,29,-16.1708,0.745789,-0.000408362,0.00121684,-0.00582915,0.00628975,-0.00548128,-0.854653,0.00680135,0.0346305,664,995,-16.1708,-0.745791
-553,29,-16.242,0.716125,0.000777532,0.00143134,-0.00587235,0.00698588,-0.004777,-0.813204,0.0068311,0.040803,671,995,-16.242,-0.716108
-546,29,-16.3109,0.542542,0.00240968,0.00163067,-0.00618165,0.00821409,-0.00417374,-0.753935,0.00727781,0.0433169,678,995,-16.3109,-0.542536
-539,29,-16.2789,0.599609,0.00450046,0.00175813,-0.00712291,0.010383,-0.00412439,-0.690311,0.00863173,0.0430726,685,995,-16.2789,-0.59959
-532,29,-16.0657,0.682861,0.00672484,0.0020593,-0.00941547,0.0140922,-0.00530807,-0.663964,0.0115772,0.0455656,692,995,-16.0657,-0.68287
-525,29,-15.9713,0.364258,0.00849792,0.00276824,-0.0133861,0.0193223,-0.00805614,-0.67998,0.0162469,0.0452412,699,995,-15.9713,-0.364233
-518,29,0,0,0,0,0,0,0,0,0,-1,706,995,0,0
-511,29,0,0,0,0,0,0,0,0,0,-1,713,995,0,0
-504,29,0,0,0,0,0,0,0,0,0,-1,720,995,0,0
-497,29,0,0,0,0,0,0,0,0,0,-1,727,995,0,0
-490,29,0,0,0,0,0,0,0,0,0,-1,734,995,0,0
-483,29,0,0,0,0,0,0,0,0,0,-1,741,995,0,0
-476,29,0,0,0,0,0,0,0,0,0,-1,748,995,0,0
-469,29,0,0,0,0,0,0,0,0,0,-1,755,995,0,0
-462,29,0,0,0,0,0,0,0,0,0,-1,762,995,0,0
-455,29,0,0,0,0,0,0,0,0,0,-1,769,995,0,0
-448,29,0,0,0,0,0,0,0,0,0,-1,776,995,0,0
-441,29,0,0,0,0,0,0,0,0,0,-1,783,995,0,0
-434,29,0,0,0,0,0,0,0,0,0,-1,790,995,0,0
-427,29,0,0,0,0,0,0,0,0,0,-1,797,995,0,0
-420,29,0,0,0,0,0,0,0,0,0,-1,804,995,0,0
-413,29,0,0,0,0,0,0,0,0,0,-1,811,995,0,0
-406,29,0,0,0,0,0,0,0,0,0,-1,818,995,0,0
-399,29,0,0,0,0,0,0,0,0,0,-1,825,995,0,0
-392,29,0,0,0,0,0,0,0,0,0,-1,832,995,0,0
-385,29,0,0,0,0,0,0,0,0,0,-1,839,995,0,0
-378,29,0,0,0,0,0,0,0,0,0,-1,846,995,0,0
-371,29,0,0,0,0,0,0,0,0,0,-1,853,995,0,0
-364,29,0,0,0,0,0,0,0,0,0,-1,860,995,0,0
-357,29,0,0,0,0,0,0,0,0,0,-1,867,995,0,0
-350,29,0,0,0,0,0,0,0,0,0,-1,874,995,0,0
-343,29,0,0,0,0,0,0,0,0,0,-1,881,995,0,0
-336,29,0,0,0,0,0,0,0,0,0,-1,888,995,0,0
-329,29,0,0,0,0,0,0,0,0,0,-1,895,995,0,0
-322,29,0,0,0,0,0,0,0,0,0,-1,902,995,0,0
-315,29,0,0,0,0,0,0,0,0,0,-1,909,995,0,0
-308,29,0,0,0,0,0,0,0,0,0,-1,916,995,0,0
-301,29,0,0,0,0,0,0,0,0,0,-1,923,995,0,0
-294,29,0,0,0,0,0,0,0,0,0,-1,930,995,0,0
-287,29,0,0,0,0,0,0,0,0,0,-1,937,995,0,0
-280,29,0,0,0,0,0,0,0,0,0,-1,944,995,0,0
-273,29,0,0,0,0,0,0,0,0,0,-1,951,995,0,0
-266,29,0,0,0,0,0,0,0,0,0,-1,958,995,0,0
-259,29,0,0,0,0,0,0,0,0,0,-1,965,995,0,0
-252,29,0,0,0,0,0,0,0,0,0,-1,972,995,0,0
-245,29,0,0,0,0,0,0,0,0,0,-1,979,995,0,0
-238,29,0,0,0,0,0,0,0,0,0,-1,986,995,0,0
-231,29,0,0,0,0,0,0,0,0,0,-1,993,995,0,0
-224,29,0,0,0,0,0,0,0,0,0,-1,1000,995,0,0
-217,29,0,0,0,0,0,0,0,0,0,-1,1007,995,0,0
-210,29,0,0,0,0,0,0,0,0,0,-1,1014,995,0,0
-203,29,0,0,0,0,0,0,0,0,0,-1,1021,995,0,0
-196,29,0,0,0,0,0,0,0,0,0,-1,1028,995,0,0
-189,29,0,0,0,0,0,0,0,0,0,-1,1035,995,0,0
-182,29,0,0,0,0,0,0,0,0,0,-1,1042,995,0,0
-175,29,0,0,0,0,0,0,0,0,0,-1,1049,995,0,0
-168,29,0,0,0,0,0,0,0,0,0,-1,1056,995,0,0
-161,29,0,0,0,0,0,0,0,0,0,-1,1063,995,0,0
-154,29,0,0,0,0,0,0,0,0,0,-1,1070,995,0,0
-147,29,0,0,0,0,0,0,0,0,0,-1,1077,995,0,0
-140,29,0,0,0,0,0,0,0,0,0,-1,1084,995,0,0
-133,29,0,0,0,0,0,0,0,0,0,-1,1091,995,0,0
-126,29,0,0,0,0,0,0,0,0,0,-1,1098,995,0,0
-119,29,0,0,0,0,0,0,0,0,0,-1,1105,995,0,0
-112,29,0,0,0,0,0,0,0,0,0,-1,1112,995,0,0
-105,29,0,0,0,0,0,0,0,0,0,-1,1119,995,0,0
-98,29,0,0,0,0,0,0,0,0,0,-1,1126,995,0,0
-91,29,0,0,0,0,0,0,0,0,0,-1,1133,995,0,0
-84,29,0,0,0,0,0,0,0,0,0,-1,1140,995,0,0
-77,29,0,0,0,0,0,0,0,0,0,-1,1147,995,0,0
-70,29,0,0,0,0,0,0,0,0,0,-1,1154,995,0,0
-63,29,0,0,0,0,0,0,0,0,0,-1,1161,995,0,0
-56,29,0,0,0,0,0,0,0,0,0,-1,1168,995,0,0
-49,29,0,0,0,0,0,0,0,0,0,-1,1175,995,0,0
-42,29,0,0,0,0,0,0,0,0,0,-1,1182,995,0,0
-35,29,0,0,0,0,0,0,0,0,0,-1,1189,995,0,0
-28,29,0,0,0,0,0,0,0,0,0,-1,1196,995,0,0
-21,29,0,0,0,0,0,0,0,0,0,-1,1203,995,0,0
-14,29,0,0,0,0,0,0,0,0,0,-1,1210,995,0,0
-7,29,0,0,0,0,0,0,0,0,0,-1,1217,995,0,0
0,29,0,0,0,0,0,0,0,0,0,-1,1224,995,0,0
7,29,0,0,0,0,0,0,0,0,0,-1,1231,995,0,0
14,29,0,0,0,0,0,0,0,0,0,-1,1238,995,0,0
21,29,0,0,0,0,0,0,0,0,0,-1,1245,995,0,0
28,29,0,0,0,0,0,0,0,0,0,-1,1252,995,0,0
35,29,0,0,0,0,0,0,0,0,0,-1,1259,995,0,0
42,29,0,0,0,0,0,0,0,0,0,-1,1266,995,0,0
49,29,0,0,0,0,0,0,0,0,0,-1,1273,995,0,0
56,29,0,0,0,0,0,0,0,0,0,-1,1280,995,0,0
63,29,0,0,0,0,0,0,0,0,0,-1,1287,995,0,0
70,29,0,0,0,0,0,0,0,0,0,-1,1294,995,0,0
77,29,0,0,0,0,0,0,0,0,0,-1,1301,995,0,0
84,29,0,0,0,0,0,0,0,0,0,-1,1308,995,0,0
91,29,0,0,0,0,0,0,0,0,0,-1,1315,995,0,0
98,29,0,0,0,0,0,0,0,0,0,-1,1322,995,0,0
105,29,0,0,0,0,0,0,0,0,0,-1,1329,995,0,0
112,29,0,0,0,0,0,0,0,0,0,-1,1336,995,0,0
119,29,0,0,0,0,0,0,0,0,0,-1,1343,995,0,0
126,29,0,0,0,0,0,0,0,0,0,-1,1350,995,0,0
133,29,0,0,0,0,0,0,0,0,0,-1,1357,995,0,0
140,29,0,0,0,0,0,0,0,0,0,-1,1364,995,0,0
147,29,0,0,0,0,0,0,0,0,0,-1,1371,995,0,0
154,29,0,0,0,0,0,0,0,0,0,-1,1378,995,0,0
161,29,0,0,0,0,0,0,0,0,0,-1,1385,995,0,0
168,29,0,0,0,0,0,0,0,0,0,-1,1392,995,0,0
175,29,0,0,0,0,0,0,0,0,0,-1,1399,995,0,0
182,29,0,0,0,0,0,0,0,0,0,-1,1406,995,0,0
189,29,0,0,0,0,0,0,0,0,0,-1,1413,995,0,0
196,29,0,0,0,0,0,0,0,0,0,-1,1420,995,0,0
203,29,0,0,0,0,0,0,0,0,0,-1,1427,995,0,0
210,29,0,0,0,0,0,0,0,0,0,-1,1434,995,0,0
217,29,0,0,0,0,0,0,0,0,0,-1,1441,995,0,0
224,29,0,0,0,0,0,0,0,0,0,-1,1448,995,0,0
231,29,0,0,0,0,0,0,0,0,0,-1,1455,995,0,0
238,29,0,0,0,0,0,0,0,0,0,-1,1462,995,0,0
245,29,0,0,0,0,0,0,0,0,0,-1,1469,995,0,0
252,29,0,0,0,0,0,0,0,0,0,-1,1476,995,0,0
259,29,0,0,0,0,0,0,0,0,0,-1,1483,995,0,0
266,29,0,0,0,0,0,0,0,0,0,-1,1490,995,0,0
273,29,0,0,0,0,0,0,0,0,0,-1,1497,995,0,0
280,29,0,0,0,0,0,0,0,0,0,-1,1504,995,0,0
287,29,0,0,0,0,0,0,0,0,0,-1,1511,995,0,0
294,29,0,0,0,0,0,0,0,0,0,-1,1518,995,0,0
301,29,0,0,0,0,0,0,0,0,0,-1,1525,995,0,0
308,29,0,0,0,0,0,0,0,0,0,-1,1532,995,0,0
315,29,0,0,0,0,0,0,0,0,0,-1,1539,995,0,0
322,29,0,0,0,0,0,0,0,0,0,-1,1546,995,0,0
329,29,0,0,0,0,0,0,0,0,0,-1,1553,995,0,0
336,29,0,0,0,0,0,0,0,0,0,-1,1560,995,0,0
343,29,0,0,0,0,0,0,0,0,0,-1,1567,995,0,0
350,29,0,0,0,0,0,0,0,0,0,-1,1574,995,0,0
357,29,0,0,0,0,0,0,0,0,0,-1,1581,995,0,0
364,29,0,0,0,0,0,0,0,0,0,-1,1588,995,0,0
371,29,0,0,0,0,0,0,0,0,0,-1,1595,995,0,0
378,29,0,0,0,0,0,0,0,0,0,-1,1602,995,0,0
385,29,0,0,0,0,0,0,0,0,0,-1,1609,995,0,0
392,29,0,0,0,0,0,0,0,0,0,-1,1616,995,0,0
399,29,0,0,0,0,0,0,0,0,0,-1,1623,995,0,0
406,29,0,0,0,0,0,0,0,0,0,-1,1630,995,0,0
413,29,0,0,0,0,0,0,0,0,0,-1,1637,995,0,0
420,29,0,0,0,0,0,0,0,0,0,-1,1644,995,0,0
427,29,0,0,0,0,0,0,0,0,0,-1,1651,995,0,0
434,29,0,0,0,0,0,0,0,0,0,-1,1658,995,0,0
441,29,0,0,0,0,0,0,0,0,0,-1,1665,995,0,0
448,29,0,0,0,0,0,0,0,0,0,-1,1672,995,0,0
455,29,0,0,0,0,0,0,0,0,0,-1,1679,995,0,0
462,29,0,0,0,0,0,0,0,0,0,-1,1686,995,0,0
469,29,0,0,0,0,0,0,0,0,0,-1,1693,995,0,0
476,29,0,0,0,0,0,0,0,0,0,-1,1700,995,0,0
483,29,0,0,0,0,0,0,0,0,0,-1,1707,995,0,0
490,29,0,0,0,0,0,0,0,0,0,-1,1714,995,0,0
497,29,0,0,0,0,0,0,0,0,0,-1,1721,995,0,0
504,29,0,0,0,0,0,0,0,0,0,-1,1728,995,0,0
511,29,0,0,0,0,0,0,0,0,0,-1,1735,995,0,0
518,29,0,0,0,0,0,0,0,0,0,-1,1742,995,0,0
525,29,0,0,0,0,0,0,0,0,0,-1,1749,995,0,0
532,29,0,0,0,0,0,0,0,0,0,-1,1756,995,0,0
539,29,0,0,0,0,0,0,0,0,0,-1,1763,995,0,0
546,29,0,0,0,0,0,0,0,0,0,-1,1770,995,0,0
553,29,0,0,0,0,0,0,0,0,0,-1,1777,995,0,0
560,29,0,0,0,0,0,0,0,0,0,-1,1784,995,0,0
567,29,0,0,0,0,0,0,0,0,0,-1,1791,995,0,0
574,29,0,0,0,0,0,0,0,0,0,-1,1798,995,0,0
581,29,0,0,0,0,0,0,0,0,0,-1,1805,995,0,0
588,29,0,0,0,0,0,0,0,0,0,-1,1812,995,0,0
595,29,0,0,0,0,0,0,0,0,0,-1,1819,995,0,0
602,29,0,0,0,0,0,0,0,0,0,-1,1826,995,0,0
609,29,0,0,0,0,0,0,0,0,0,-1,1833,995,0,0
616,29,0,0,0,0,0,0,0,0,0,-1,1840,995,0,0
623,29,0,0,0,0,0,0,0,0,0,-1,1847,995,0,0
630,29,0,0,0,0,0,0,0,0,0,-1,1854,995,0,0
637,29,0,0,0,0,0,0,0,0,0,-1,1861,995,0,0
644,29,23.7109,2.88,3.83119e-05,0.00173775,-0.00281501,0.00382849,-0.00205243,-0.931976,0.00344658,0.0388228,1868,995,23.7109,-2.87998
651,29,23.5626,2.98248,0.000478059,0.00135052,-0.00204633,0.0030066,-0.00117802,-0.890414,0.0024917,0.0386541,1875,995,23.5626,-2.98249
658,29,23.6404,3.10449,0.000533573,0.00108868,-0.00133342,0.00217313,-0.000550878,-0.888009,0.00166308,0.040326,1882,995,23.6404,-3.1045
665,29,23.6699,3.06299,0.000471532,0.00105469,-0.000549069,0.00138479,0.000141423,-1.02948,0.000879852,0.0406057,1889,995,23.6699,-3.06298
672,29,23.7371,2.6814,4.01337e-05,0.00106753,0.000578602,0.00132757,-0.000219902,1.14842,0.000966721,0.037974,1896,995,23.737,-2.68139
679,29,23.6808,2.76117,-0.000853572,0.00101707,0.00190289,0.00220208,-0.00203858,1.01382,0.00244896,0.0368233,1903,995,23.6808,-2.76115
686,29,23.6415,2.91547,-0.00168964,0.000907621,0.00300777,0.00288513,-0.00366716,0.989189,0.00379194,0.0358585,1910,995,23.6414,-2.91546
693,29,23.6698,2.97729,-0.00245702,0.000737193,0.0039114,0.00336499,-0.00508482,0.979228,0.00491207,0.0379975,1917,995,23.6698,-2.97729
700,29,23.6803,2.90326,-0.00302881,0.000608775,0.00452367,0.00366559,-0.00608563,0.976539,0.00568737,0.0345109,1924,995,23.6803,-2.90324
707,29,23.7,2.74377,-0.0035544,0.000550681,0.00489057,0.00380197,-0.00680568,0.984082,0.00620563,0.0222443,1931,995,23.7,-2.7438
714,29,23.739,2.94434,-0.00410881,0.000558138,0.0050847,0.00381924,-0.00736991,1.00052,0.00656759,0.0270879,1938,995,23.739,-2.94436
721,29,23.5562,3.56726,-0.00456383,0.000639408,0.00508486,0.00374955,-0.00767397,1.02186,0.00672385,0.0326661,1945,995,23.5561,-3.56723
728,29,23.2365,3.92804,-0.00474619,0.000833803,0.00492485,0.00370404,-0.00761643,1.04311,0.00666472,0.0227141,1952,995,23.2365,-3.92802
735,29,23.0868,4.12469,-0.0048949,0.00126793,0.00461432,0.00373512,-0.00736209,1.07979,0.00652005,0.014992,1959,995,23.0868,-4.12472
742,29,23.1064,4.17035,-0.00506787,0.00196324,0.00375954,0.00359485,-0.00669948,1.16133,0.00603286,0.0126381,1966,995,23.1065,-4.17038
749,29,23.1166,4.24896,-0.00461273,0.00411047,0.0033369,0.00524054,-0.0057428,1.24426,0.00634345,0.0126475,1973,995,23.1166,-4.24894
756,29,23.0878,4.3302,-0.0039944,0.00669754,0.00282867,0.00739977,-0.00469663,1.32746,0.00704174,0.0118904,1980,995,23.0878,-4.33021
763,29,23.0991,4.34973,-0.00342868,0.0103117,0.00244452,0.0107336,-0.00385063,1.39987,0.00872721,0.0117442,1987,995,23.0991,-4.34975
770,29,23.0535,4.40009,-0.00252844,0.01513,0.00223835,0.0154093,-0.00280775,1.44665,0.0113254,0.0124937,1994,995,23.0534,-4.40011
777,29,23.0021,4.55652,-0.00134525,0.0212224,0.0024775,0.0214912,-0.00161403,1.46273,0.0148946,0.0203378,2001,995,23.0021,-4.55653
784,29,22.9325,4.771,-0.000131696,0.0285891,0.00325062,0.0289524,-0.000495005,1.45949,0.0194687,0.0390866,2008,995,22.9325,-4.77102
791,29,22.7928,4.89563,0.00151999,0.0373826,0.00424316,0.0378778,0.00102478,1.45462,0.0249173,0.0416146,2015,995,22.7929,-4.89562
798,29,19.9636,3.56293,0,0,0,0,0,0,0,-1,2022,995,19.9636,-3.5629
805,29,20.6804,4.09338,0.00703024,0.0596019,0.00655587,0.0604071,0.00622503,1.44859,0.0383651,0.0436981,2029,995,20.6804,-4.0934
812,29,20.3037,3.94232,0.0111,0.0729288,0.00778961,0.0738951,0.0101338,1.44738,0.046257,0.0460332,2036,995,20.3038,-3.94232
-700,22,0,0,0,0,0,0,0,0,0,-1,524,1002,0,0
-693,22,-14.0201,5.59296,0.0225556,0.0574491,-0.0707625,0.112884,-0.0328792,-0.906264,0.0882807,0.0461145,531,1002,-14.0201,-5.59296
-686,22,-14.2986,4.42023,0.0178708,0.0472013,-0.0507145,0.0853284,-0.0202563,-0.926145,0.0647034,0.0480598,538,1002,-14.2986,-4.4202
-679,22,-14.9271,3.6181,0.0141376,0.0381855,-0.0353487,0.0634993,-0.0111762,-0.949336,0.046508,0.047827,545,1002,-14.9271,-3.61813
-672,22,-15.4098,2.92114,0.0112518,0.0303994,-0.0236041,0.0462974,-0.00464612,-0.97806,0.0325244,0.0442327,552,1002,-15.4098,-2.92113
-665,22,-15.8044,2.37201,0.00902371,0.0237859,-0.0148354,0.0329749,-0.000165302,-1.01623,0.0220386,0.0435797,559,1002,-15.8045,-2.37202
-658,22,-15.822,2.05646,0.00724899,0.0182622,-0.00851875,0.0228992,0.00261204,-1.07232,0.0144742,0.0441283,566,1002,-15.822,-2.05645
-651,22,-15.8406,1.95441,0.00579255,0.0137115,-0.00424332,0.0155558,0.00394831,-1.1608,0.00933695,0.0366534,573,1002,-15.8406,-1.95438
-644,22,-16.0056,1.90717,0.00445405,0.0100255,-0.00178285,0.0105472,0.00393239,-1.28614,0.0061547,0.0188555,580,1002,-16.0056,-1.90716
-637,22,-16.0975,1.89417,0.00311324,0.00700951,-0.000171579,0.00701705,0.0031057,-1.52687,0.00406019,0.013283,587,1002,-16.0976,-1.89414
-630,22,-16.1113,1.87952,0.00166573,0.00449302,0.000180608,0.00450451,0.00165424,1.50726,0.00263106,0.0111643,594,1002,-16.1113,-1.8795
-623,22,-16.1156,1.85046,0.00132933,0.00243407,-0.00016158,0.00245722,0.00130618,-1.42851,0.00141962,0.010275,601,1002,-16.1156,-1.85045
-616,22,-16.1203,1.77289,0.000904045,0.00176525,-0.00117445,0.00258554,8.37487e-05,-0.961109,0.00169647,0.0156576,608,1002,-16.1203,-1.77291
-609,22,-16.0972,1.70844,6.06916e-05,0.000772702,-0.00296953,0.00340749,-0.00257409,-0.845056,0.00346462,0.0254512,615,1002,-16.0972,-1.70843
-602,22,-16.0842,1.66119,-0.00100953,0.000774897,-0.00443045,0.00440208,-0.00463671,-0.88476,0.00521914,0.0250845,622,1002,-16.0842,-1.66121
-595,22,-16.1031,1.57324,-0.00143727,0.000621763,-0.00532627,0.0050171,-0.00583262,-0.880866,0.00626999,0.0218275,629,1002,-16.1032,-1.57323
-588,22,-16.101,1.27118,-0.00127167,0.000557713,-0.00579405,0.00550883,-0.00622279,-0.863686,0.00677743,0.0308574,636,1002,-16.1009,-1.27121
-581,22,-16.1369,1.01038,-0.000939757,0.000457552,-0.00610193,0.00590069,-0.0063829,-0.842399,0.00709376,0.040524,643,1002,-16.1369,-1.0104
-574,22,-16.1238,0.885925,-0.000696097,0.000585828,-0.00629285,0.00627027,-0.00638054,-0.836151,0.00730405,0.0354989,650,1002,-16.1239,-0.885946
-567,22,-16.1135,0.845154,-0.00026894,0.000764671,-0.00615155,0.00642109,-0.00592536,-0.827306,0.00713014,0.0320712,657,1002,-16.1135,-0.845165
-560,22,-16.1477,0.843079,0.000447758,0.000991234,-0.00591578,0.00664151,-0.00520252,-0.808349,0.00685496,0.0362085,664,1002,-16.1477,-0.843105
-553,22,-16.2675,0.88031,0.0015133,0.00122517,-0.00573002,0.00710106,-0.00436259,-0.77283,0.00668119,0.0411346,671,1002,-16.2675,-0.88034
-546,22,-16.3411,0.952576,0.00295494,0.00141467,-0.00575633,0.00799243,-0.00362282,-0.718898,0.00686242,0.0427758,678,1002,-16.3412,-0.952558
-539,22,-16.2438,0.925598,0.00477858,0.00147287,-0.00639695,0.00973276,-0.00348131,-0.658973,0.00790861,0.0423164,685,1002,-16.2438,-0.925602
-532,22,-16.0441,0.659424,0.00667542,0.00165676,-0.00844887,0.0129797,-0.00464754,-0.641046,0.0105493,0.0420934,692,1002,-16.0441,-0.65944
-525,22,0,0,0,0,0,0,0,0,0,-1,699,1002,0,0
-518,22,0,0,0,0,0,0,0,0,0,-1,706,1002,0,0
-511,22,0,0,0,0,0,0,0,0,0,-1,713,1002,0,0
-504,22,0,0,0,0,0,0,0,0,0,-1,720,1002,0,0
-497,22,0,0,0,0,0,0,0,0,0,-1,727,1002,0,0
-490,22,0,0,0,0,0,0,0,0,0,-1,734,1002,0,0
-483,22,0,0,0,0,0,0,0,0,0,-1,741,1002,0,0
-476,22,0,0,0,0,0,0,0,0,0,-1,748,1002,0,0
-469,22,0,0,0,0,0,0,0,0,0,-1,755,1002,0,0
-462,22,0,0,0,0,0,0,0,0,0,-1,762,1002,0,0
-455,22,0,0,0,0,0,0,0,0,0,-1,769,1002,0,0
-448,22,0,0,0,0,0,0,0,0,0,-1,776,1002,0,0
-441,22,0,0,0,0,0,0,0,0,0,-1,783,1002,0,0
-434,22,0,0,0,0,0,0,0,0,0,-1,790,1002,0,0
-427,22,0,0,0,0,0,0,0,0,0,-1,797,1002,0,0
-420,22,0,0,0,0,0,0,0,0,0,-1,804,1002,0,0
-413,22,0,0,0,0,0,0,0,0,0,-1,811,1002,0,0
-406,22,0,0,0,0,0,0,0,0,0,-1,818,1002,0,0
-399,22,0,0,0,0,0,0,0,0,0,-1,825,1002,0,0
-392,22,0,0,0,0,0,0,0,0,0,-1,832,1002,0,0
-385,22,0,0,0,0,0,0,0,0,0,-1,839,1002,0,0
-378,22,0,0,0,0,0,0,0,0,0,-1,846,1002,0,0
-371,22,0,0,0,0,0,0,0,0,0,-1,853,1002,0,0
-364,22,0,0,0,0,0,0,0,0,0,-1,860,1002,0,0
-357,22,0,0,0,0,0,0,0,0,0,-1,867,1002,0,0
-350,22,0,0,0,0,0,0,0,0,0,-1,874,1002,0,0
-343,22,0,0,0,0,0,0,0,0,0,-1,881,1002,0,0
-336,22,0,0,0,0,0,0,0,0,0,-1,888,1002,0,0
-329,22,0,0,0,0,0,0,0,0,0,-1,895,1002,0,0
-322,22,0,0,0,0,0,0,0,0,0,-1,902,1002,0,0
-315,22,0,0,0,0,0,0,0,0,0,-1,909,1002,0,0
-308,22,0,0,0,0,0,0,0,0,0,-1,916,1002,0,0
-301,22,0,0,0,0,0,0,0,0,0,-1,923,1002,0,0
-294,22,0,0,0,0,0,0,0,0,0,-1,930,1002,0,0
-287,22,0,0,0,0,0,0,0,0,0,-1,937,1002,0,0
-280,22,0,0,0,0,0,0,0,0,0,-1,944,1002,0,0
-273,22,0,0,0,0,0,0,0,0,0,-1,951,1002,0,0
-266,22,0,0,0,0,0,0,0,0,0,-1,958,1002,0,0
-259,22,0,0,0,0,0,0,0,0,0,-1,965,1002,0,0
-252,22,0,0,0,0,0,0,0,0,0,-1,972,1002,0,0
-245,22,0,0,0,0,0,0,0,0,0,-1,979,1002,0,0
-238,22,0,0,0,0,0,0,0,0,0,-1,986,1002,0,0
-231,22,0,0,0,0,0,0,0,0,0,-1,993,1002,0,0
-224,22,0,0,0,0,0,0,0,0,0,-1,1000,1002,0,0
-217,22,0,0,0,0,0,0,0,0,0,-1,1007,1002,0,0
-210,22,0,0,0,0,0,0,0,0,0,-1,1014,1002,0,0
-203,22,0,0,0,0,0,0,0,0,0,-1,1021,1002,0,0
-196,22,0,0,0,0,0,0,0,0,0,-1,1028,1002,0,0
-189,22,0,0,0,0,0,0,0,0,0,-1,1035,1002,0,0
-182,22,0,0,0,0,0,0,0,0,0,-1,1042,1002,0,0
-175,22,0,0,0,0,0,0,0,0,0,-1,1049,1002,0,0
-168,22,0,0,0,0,0,0,0,0,0,-1,1056,1002,0,0
-161,22,0,0,0,0,0,0,0,0,0,-1,1063,1002,0,0
-154,22,0,0,0,0,0,0,0,0,0,-1,1070,1002,0,0
-147,22,0,0,0,0,0,0,0,0,0,-1,1077,1002,0,0
-140,22,0,0,0,0,0,0,0,0,0,-1,1084,1002,0,0
-133,22,0,0,0,0,0,0,0,0,0,-1,1091,1002,0,0
-126,22,0,0,0,0,0,0,0,0,0,-1,1098,1002,0,0
-119,22,0,0,0,0,0,0,0,0,0,-1,1105,1002,0,0
-112,22,0,0,0,0,0,0,0,0,0,-1,1112,1002,0,0
-105,22,0,0,0,0,0,0,0,0,0,-1,1119,1002,0,0
-98,22,0,0,0,0,0,0,0,0,0,-1,1126,1002,0,0
-91,22,0,0,0,0,0,0,0,0,0,-1,1133,1002,0,0
-84,22,0,0,0,0,0,0,0,0,0,-1,1140,1002,0,0
-77,22,0,0,0,0,0,0,0,0,0,-1,1147,1002,0,0
-70,22,0,0,0,0,0,0,0,0,0,-1,1154,1002,0,0
-63,22,0,0,0,0,0,0,0,0,0,-1,1161,1002,0,0
-56,22,0,0,0,0,0,0,0,0,0,-1,1168,1002,0,0
-49,22,0,0,0,0,0,0,0,0,0,-1,1175,1002,0,0
-42,22,0,0,0,0,0,0,0,0,0,-1,1182,1002,0,0
-35,22,0,0,0,0,0,0,0,0,0,-1,1189,1002,0,0
-28,22,0,0,0,0,0,0,0,0,0,-1,1196,1002,0,0
-21,22,0,0,0,0,0,0,0,0,0,-1,1203,1002,0,0
-14,22,0,0,0,0,0,0,0,0,0,-1,1210,1002,0,0
-7,22,0,0,0,0,0,0,0,0,0,-1,1217,1002,0,0
0,22,0,0,0,0,0,0,0,0,0,-1,1224,1002,0,0
7,22,0,0,0,0,0,0,0,0,0,-1,1231,1002,0,0
14,22,0,0,0,0,0,0,0,0,0,-1,1238,1002,0,0
21,22,0,0,0,0,0,0,0,0,0,-1,1245,1002,0,0
28,22,0,0,0,0,0,0,0,0,0,-1,1252,1002,0,0
35,22,0,0,0,0,0,0,0,0,0,-1,1259,1002,0,0
42,22,0,0,0,0,0,0,0,0,0,-1,1266,1002,0,0
49,22,0,0,0,0,0,0,0,0,0,-1,1273,1002,0,0
56,22,0,0,0,0,0,0,0,0,0,-1,1280,1002,0,0
63,22,0,0,0,0,0,0,0,0,0,-1,1287,1002,0,0
70,22,0,0,0,0,0,0,0,0,0,-1,1294,1002,0,0
77,22,0,0,0,0,0,0,0,0,0,-1,1301,1002,0,0
84,22,0,0,0,0,0,0,0,0,0,-1,1308,1002,0,0
91,22,0,0,0,0,0,0,0,0,0,-1,1315,1002,0,0
98,22,0,0,0,0,0,0,0,0,0,-1,1322,1002,0,0
105,22,0,0,0,0,0,0,0,0,0,-1,1329,1002,0,0
112,22,0,0,0,0,0,0,0,0,0,-1,1336,1002,0,0
119,22,0,0,0,0,0,0,0,0,0,-1,1343,1002,0,0
126,22,0,0,0,0,0,0,0,0,0,-1,1350,1002,0,0
133,22,0,0,0,0,0,0,0,0,0,-1,1357,1002,0,0
140,22,0,0,0,0,0,0,0,0,0,-1,1364,1002,0,0
147,22,0,0,0,0,0,0,0,0,0,-1,1371,1002,0,0
154,22,0,0,0,0,0,0,0,0,0,-1,1378,1002,0,0
161,22,0,0,0,0,0,0,0,0,0,-1,1385,1002,0,0
168,22,0,0,0,0,0,0,0,0,0,-1,1392,1002,0,0
175,22,0,0,0,0,0,0,0,0,0,-1,1399,1002,0,0
182,22,0,0,0,0,0,0,0,0,0,-1,1406,1002,0,0
189,22,0,0,0,0,0,0,0,0,0,-1,1413,1002,0,0
196,22,0,0,0,0,0,0,0,0,0,-1,1420,1002,0,0
203,22,0,0,0,0,0,0,0,0,0,-1,1427,1002,0,0
210,22,0,0,0,0,0,0,0,0,0,-1,1434,1002,0,0
217,22,0,0,0,0,0,0,0,0,0,-1,1441,1002,0,0
224,22,0,0,0,0,0,0,0,0,0,-1,1448,1002,0,0
231,22,0,0,0,0,0,0,0,0,0,-1,1455,1002,0,0
238,22,0,0,0,0,0,0,0,0,0,-1,1462,1002,0,0
245,22,0,0,0,0,0,0,0,0,0,-1,1469,1002,0,0
252,22,0,0,0,0,0,0,0,0,0,-1,1476,1002,0,0
259,22,0,0,0,0,0,0,0,0,0,-1,1483,1002,0,0
266,22,0,0,0,0,0,0,0,0,0,-1,1490,1002,0,0
273,22,0,0,0,0,0,0,0,0,0,-1,1497,1002,0,0
280,22,0,0,0,0,0,0,0,0,0,-1,1504,1002,0,0
287,22,0,0,0,0,0,0,0,0,0,-1,1511,1002,0,0
294,22,0,0,0,0,0,0,0,0,0,-1,1518,1002,0,0
301,22,0,0,0,0,0,0,0,0,0,-1,1525,1002,0,0
308,22,0,0,0,0,0,0,0,0,0,-1,1532,1002,0,0
315,22,0,0,0,0,0,0,0,0,0,-1,1539,1002,0,0
322,22,0,0,0,0,0,0,0,0,0,-1,1546,1002,0,0
329,22,0,0,0,0,0,0,0,0,0,-1,1553,1002,0,0
336,22,0,0,0,0,0,0,0,0,0,-1,1560,1002,0,0
343,22,0,0,0,0,0,0,0,0,0,-1,1567,1002,0,0
350,22,0,0,0,0,0,0,0,0,0,-1,1574,1002,0,0
357,22,0,0,0,0,0,0,0,0,0,-1,1581,1002,0,0
364,22,0,0,0,0,0,0,0,0,0,-1,1588,1002,0,0
371,22,0,0,0,0,0,0,0,0,0,-1,1595,1002,0,0
378,22,0,0,0,0,0,0,0,0,0,-1,1602,1002,0,0
385,22,0,0,0,0,0,0,0,0,0,-1,1609,1002,0,0
392,22,0,0,0,0,0,0,0,0,0,-1,1616,1002,0,0
399,22,0,0,0,0,0,0,0,0,0,-1,1623,1002,0,0
406,22,0,0,0,0,0,0,0,0,0,-1,1630,1002,0,0
413,22,0,0,0,0,0,0,0,0,0,-1,1637,1002,0,0
420,22,0,0,0,0,0,0,0,0,0,-1,1644,1002,0,0
427,22,0,0,0,0,0,0,0,0,0,-1,1651,1002,0,0
434,22,0,0,0,0,0,0,0,0,0,-1,1658,1002,0,0
441,22,0,0,0,0,0,0,0,0,0,-1,1665,1002,0,0
448,22,0,0,0,0,0,0,0,0,0,-1,1672,1002,0,0
455,22,0,0,0,0,0,0,0,0,0,-1,1679,1002,0,0
462,22,0,0,0,0,0,0,0,0,0,-1,1686,1002,0,0
469,22,0,0,0,0,0,0,0,0,0,-1,1693,1002,0,0
476,22,0,0,0,0,0,0,0,0,0,-1,1700,1002,0,0
483,22,0,0,0,0,0,0,0,0,0,-1,1707,1002,0,0
490,22,0,0,0,0,0,0,0,0,0,-1,1714,1002,0,0
497,22,0,0,0,0,0,0,0,0,0,-1,1721,1002,0,0
504,22,0,0,0,0,0,0,0,0,0,-1,1728,1002,0,0
511,22,0,0,0,0,0,0,0,0,0,-1,1735,1002,0,0
518,22,0,0,0,0,0,0,0,0,0,-1,1742,1002,0,0
525,22,0,0,0,0,0,0,0,0,0,-1,1749,1002,0,0
532,22,0,0,0,0,0,0,0,0,0,-1,1756,1002,0,0
539,22,0,0,0,0,0,0,0,0,0,-1,1763,1002,0,0
546,22,0,0,0,0,0,0,0,0,0,-1,1770,1002,0,0
553,22,0,0,0,0,0,0,0,0,0,-1,1777,1002,0,0
560,22,0,0,0,0,0,0,0,0,0,-1,1784,1002,0,0
567,22,0,0,0,0,0,0,0,0,0,-1,1791,1002,0,0
574,22,0,0,0,0,0,0,0,0,0,-1,1798,1002,0,0
581,22,0,0,0,0,0,0,0,0,0,-1,1805,1002,0,0
588,22,0,0,0,0,0,0,0,0,0,-1,1812,1002,0,0
595,22,0,0,0,0,0,0,0,0,0,-1,1819,1002,0,0
602,22,0,0,0,0,0,0,0,0,0,-1,1826,1002,0,0
609,22,0,0,0,0,0,0,0,0,0,-1,1833,1002,0,0
616,22,0,0,0,0,0,0,0,0,0,-1,1840,1002,0,0
623,22,0,0,0,0,0,0,0,0,0,-1,1847,1002,0,0
630,22,0,0,0,0,0,0,0,0,0,-1,1854,1002,0,0
637,22,0,0,0,0,0,0,0,0,0,-1,1861,1002,0,0
644,22,23.5775,2.69238,-0.000366528,0.00162271,-0.00234699,0.00317713,-0.00192096,-0.985818,0.00297302,0.0385713,1868,1002,23.5775,-2.69235
651,22,23.5712,2.82855,0.000108919,0.00118187,-0.00185622,0.00257758,-0.0012868,-0.926072,0.00227221,0.0399049,1875,1002,23.5711,-2.82852
658,22,23.6366,2.88849,0.000211777,0.000898252,-0.00132243,0.00192127,-0.000811237,-0.912371,0.00162042,0.040834,1882,1002,23.6367,-2.88851
665,22,23.6611,2.77289,0.000244269,0.000817528,-0.000673538,0.00126289,-0.000201092,-0.98657,0.000916341,0.0399156,1889,1002,23.6611,-2.77287
672,22,23.6445,2.6908,-3.72112e-05,0.0008197,0.000394703,0.000973794,-0.000191305,1.19859,0.000721469,0.0384307,1896,1002,23.6445,-2.69081
679,22,23.6832,2.76563,-0.000808396,0.000754516,0.00176611,0.00190433,-0.00195821,0.993687,0.00223011,0.0352728,1903,1002,23.6832,-2.76563
686,22,23.6897,2.84863,-0.00155888,0.000644334,0.00295634,0.00269764,-0.00361219,0.963741,0.00365572,0.0351899,1910,1002,23.6897,-2.84861
693,22,23.6683,2.94421,-0.00225478,0.000488799,0.0039474,0.00329598,-0.00506196,0.952629,0.00486123,0.0373066,1917,1002,23.6683,-2.9442
700,22,23.6876,2.78345,-0.00279272,0.000353261,0.00464011,0.00367975,-0.00611921,0.948819,0.00571557,0.0340513,1924,1002,23.6876,-2.78345
707,22,23.6292,2.73071,-0.00329305,0.000292489,0.00508323,0.00388982,-0.00689038,0.95493,0.00630381,0.0310572,1931,1002,23.6291,-2.7307
714,22,23.6974,2.79517,-0.00381563,0.000329539,0.0053557,0.00399969,-0.00748579,0.970017,0.00673219,0.0289342,1938,1002,23.6974,-2.79515
721,22,23.8225,2.98108,0,0,0,0,0,0,0,-1,1945,1002,23.8225,-2.98107
728,22,23.1248,4.04199,0,0,0,0,0,0,0,-1,1952,1002,23.1248,-4.04202
735,22,23.17,4.12354,-0.00460994,0.00112655,0.00487836,0.00391738,-0.00740077,1.05116,0.0066369,0.0149437,1959,1002,23.17,-4.12353
742,22,23.1886,4.18622,-0.00483923,0.00178278,0.00391101,0.0035961,-0.00665255,1.13665,0.00600413,0.0152924,1966,1002,23.1886,-4.18623
749,22,23.1862,4.25171,-0.00440093,0.0040819,0.00311472,0.00510272,-0.00542174,1.25409,0.00607723,0.0111438,1973,1002,23.1861,-4.25171
756,22,23.1782,4.30139,-0.00377331,0.00671429,0.00214815,0.00713723,-0.00419626,1.3764,0.00661642,0.0152733,1980,1002,23.1782,-4.30142
763,22,23.1558,4.34766,-0.00323634,0.0103043,0.00128503,0.0104251,-0.00335721,1.47701,0.00829869,0.0174631,1987,1002,23.1558,-4.34764
770,22,23.1364,4.37463,-0.00232458,0.0151276,0.000352212,0.0151347,-0.00233169,1.55063,0.0109501,0.0117285,1994,1002,23.1363,-4.37465
777,22,23.0815,4.45929,-0.00109587,0.0212662,-0.000254811,0.0212691,-0.00109877,-1.5594,0.0145595,0.0196926,2001,1002,23.0815,-4.45927
784,22,23.0251,4.53888,0.000171111,0.0286275,-0.000355858,0.028632,0.000166662,-1.55829,0.0190327,0.0406555,2008,1002,23.0252,-4.53887
791,22,22.8564,4.59851,0.00187609,0.0373198,-0.000273274,0.0373219,0.00187398,-1.56309,0.0242807,0.0467274,2015,1002,22.8565,-4.59853
798,22,21.0614,3.61426,0,0,0,0,0,0,0,-1,2022,1002,21.0614,-3.61425
805,22,20.7417,3.47864,0,0,0,0,0,0,0,-1,2029,1002,20.7416,-3.47863
812,22,20.0779,3.32574,0,0,0,0,0,0,0,-1,2036,1002,20.078,-3.32572
-700,15,0,0,0,0,0,0,0,0,0,-1,524,1009,0,0
-693,15,-13.6382,5.1145,0,0,0,0,0,0,0,-1,531,1009,-13.6382,-5.11449
-686,15,-14.986,4.43256,0.0254476,0.0426353,-0.0454224,0.0802697,-0.0121868,-0.878892,0.0580037,0.048789,538,1009,-14.9859,-4.43258
-679,15,-15.4211,3.1817,0.0181133,0.0347113,-0.0326871,0.0601365,-0.00731189,-0.909717,0.0427373,0.0498064,545,1009,-15.4211,-3.18172
-672,15,-15.7302,2.28772,0.0126863,0.0277198,-0.0227058,0.0441207,-0.00371462,-0.945245,0.030727,0.0444959,552,1009,-15.7302,-2.28774
-665,15,-16.4211,1.59839,0.00881959,0.0216743,-0.0150252,0.0315892,-0.00109524,-0.987507,0.0214339,0.0429988,559,1009,-16.4211,-1.59841
-658,15,-16.2194,1.64307,0.00612381,0.0165651,-0.00929724,0.0220072,0.000681719,-1.04122,0.0144496,0.0421449,566,1009,-16.2193,-1.64305
-651,15,-15.9566,1.83966,0.00428025,0.0123354,-0.00526446,0.0149362,0.00167941,-1.11193,0.00944758,0.0370657,573,1009,-15.9566,-1.83965
-644,15,-16.1019,1.86572,0.00278319,0.00896314,-0.00283541,0.0100669,0.00167942,-1.19957,0.00622741,0.0217951,580,1009,-16.1019,-1.86575
-637,15,-16.1034,1.90332,0.00150337,0.00618714,-0.00128542,0.00651672,0.00117378,-1.3198,0.00401089,0.0168031,587,1009,-16.1034,-1.9033
-630,15,-16.121,1.85797,0.000262737,0.00378398,-0.000890667,0.00399645,5.02709e-05,-1.33663,0.0026477,0.0114911,594,1009,-16.121,-1.85795
-623,15,-16.1456,1.82178,0.000479554,0.00176358,-0.00114795,0.00243686,-0.000193719,-1.04036,0.00169284,0.00874653,601,1009,-16.1456,-1.82176
-616,15,-16.175,1.7771,0.000644541,0.00110612,-0.00206934,0.0029575,-0.00120684,-0.840933,0.00247408,0.0132864,608,1009,-16.175,-1.77708
-609,15,-16.135,1.74762,0.000258029,0.000422288,-0.00359113,0.00393222,-0.00325191,-0.796831,0.00415395,0.0208331,615,1009,-16.135,-1.74759
-602,15,-16.1104,1.7005,-0.000495986,0.00041096,-0.00495795,0.00493613,-0.00502115,-0.831003,0.00574891,0.0200904,622,1009,-16.1104,-1.7005
-595,15,-16.118,1.36969,-0.000743874,0.00029823,-0.00582833,0.00562875,-0.00607439,-0.82998,0.00675844,0.0249315,629,1009,-16.118,-1.36967
-588,15,-16.1316,1.04956,-0.000477966,0.000215134,-0.00624835,0.00612654,-0.00638937,-0.813101,0.00722659,0.0321232,636,1009,-16.1316,-1.04959
-581,15,-16.133,0.834595,-7.36118e-05,6.27587e-05,-0.0064747,0.00646963,-0.00648049,-0.790663,0.00747676,0.0385041,643,1009,-16.133,-0.834584
-574,15,-16.1172,0.797852,0.000214006,0.000155251,-0.00654935,0.00673404,-0.00636478,-0.783155,0.00756361,0.033825,650,1009,-16.1172,-0.797867
-567,15,-16.159,0.778198,0.000639853,0.000318011,-0.0062678,0.0067488,-0.00579093,-0.772564,0.00724686,0.0336517,657,1009,-16.159,-0.778221
-560,15,-16.1381,0.832336,0.00131061,0.000522173,-0.00584008,0.00676977,-0.00493698,-0.751698,0.00678645,0.0379048,664,1009,-16.1381,-0.832341
-553,15,-16.1172,0.911377,0.00227368,0.000709519,-0.00540733,0.0069552,-0.003972,-0.71358,0.00638671,0.0410668,671,1009,-16.1172,-0.911388
-546,15,-16.1191,1.00458,0.00354909,0.000808217,-0.00512716,0.00748581,-0.0031285,-0.654806,0.00629794,0.0433606,678,1009,-16.1191,-1.0046
-539,15,-16.1052,1.07562,0,0,0,0,0,0,0,-1,685,1009,-16.1052,-1.07563
-532,15,-15.8989,0.297424,0,0,0,0,0,0,0,-1,692,1009,-15.8988,-0.297433
-525,15,0,0,0,0,0,0,0,0,0,-1,699,1009,0,0
-518,15,0,0,0,0,0,0,0,0,0,-1,706,1009,0,0
-511,15,0,0,0,0,0,0,0,0,0,-1,713,1009,0,0
-504,15,0,0,0,0,0,0,0,0,0,-1,720,1009,0,0
-497,15,0,0,0,0,0,0,0,0,0,-1,727,1009,0,0
-490,15,0,0,0,0,0,0,0,0,0,-1,734,1009,0,0
-483,15,0,0,0,0,0,0,0,0,0,-1,741,1009,0,0
-476,15,0,0,0,0,0,0,0,0,0,-1,748,1009,0,0
-469,15,0,0,0,0,0,0,0,0,0,-1,755,1009,0,0
-462,15,0,0,0,0,0,0,0,0,0,-1,762,1009,0,0
-455,15,0,0,0,0,0,0,0,0,0,-1,769,1009,0,0
-448,15,0,0,0,0,0,0,0,0,0,-1,776,1009,0,0
-441,15,0,0,0,0,0,0,0,0,0,-1,783,1009,0,0
-434,15,0,0,0,0,0,0,0,0,0,-1,790,1009,0,0
-427,15,0,0,0,0,0,0,0,0,0,-1,797,1009,0,0
-420,15,0,0,0,0,0,0,0,0,0,-1,804,1009,0,0
-413,15,0,0,0,0,0,0,0,0,0,-1,811,1009,0,0
-406,15,0,0,0,0,0,0,0,0,0,-1,818,1009,0,0
-399,15,0,0,0,0,0,0,0,0,0,-1,825,1009,0,0
-392,15,0,0,0,0,0,0,0,0,0,-1,832,1009,0,0
-385,15,0,0,0,0,0,0,0,0,0,-1,839,1009,0,0
-378,15,0,0,0,0,0,0,0,0,0,-1,846,1009,0,0
-371,15,0,0,0,0,0,0,0,0,0,-1,853,1009,0,0
-364,15,0,0,0,0,0,0,0,0,0,-1,860,1009,0,0
-357,15,0,0,0,0,0,0,0,0,0,-1,867,1009,0,0
-350,15,0,0,0,0,0,0,0,0,0,-1,874,1009,0,0
-343,15,0,0,0,0,0,0,0,0,0,-1,881,1009,0,0
-336,15,0,0,0,0,0,0,0,0,0,-1,888,1009,0,0
-329,15,0,0,0,0,0,0,0,0,0,-1,895,1009,0,0
-322,15,0,0,0,0,0,0,0,0,0,-1,902,1009,0,0
-315,15,0,0,0,0,0,0,0,0,0,-1,909,1009,0,0
-308,15,0,0,0,0,0,0,0,0,0,-1,916,1009,0,0
-301,15,0,0,0,0,0,0,0,0,0,-1,923,1009,0,0
-294,15,0,0,0,0,0,0,0,0,0,-1,930,1009,0,0
-287,15,0,0,0,0,0,0,0,0,0,-1,937,1009,0,0
-280,15,0,0,0,0,0,0,0,0,0,-1,944,1009,0,0
-273,15,0,0,0,0,0,0,0,0,0,-1,951,1009,0,0
-266,15,0,0,0,0,0,0,0,0,0,-1,958,1009,0,0
-259,15,0,0,0,0,0,0,0,0,0,-1,965,1009,0,0
-252,15,0,0,0,0,0,0,0,0,0,-1,972,1009,0,0
-245,15,0,0,0,0,0,0,0,0,0,-1,979,1009,0,0
-238,15,0,0,0,0,0,0,0,0,0,-1,986,1009,0,0
-231,15,0,0,0,0,0,0,0,0,0,-1,993,1009,0,0
-224,15,0,0,0,0,0,0,0,0,0,-1,1000,1009,0,0
-217,15,0,0,0,0,0,0,0,0,0,-1,1007,1009,0,0
-210,15,0,0,0,0,0,0,0,0,0,-1,1014,1009,0,0
-203,15,0,0,0,0,0,0,0,0,0,-1,1021,1009,0,0
-196,15,0,0,0,0,0,0,0,0,0,-1,1028,1009,0,0
-189,15,0,0,0,0,0,0,0,0,0,-1,1035,1009,0,0
-182,15,0,0,0,0,0,0,0,0,0,-1,1042,1009,0,0
-175,15,0,0,0,0,0,0,0,0,0,-1,1049,1009,0,0
-168,15,0,0,0,0,0,0,0,0,0,-1,1056,1009,0,0
-161,15,0,0,0,0,0,0,0,0,0,-1,1063,1009,0,0
-154,15,0,0,0,0,0,0,0,0,0,-1,1070,1009,0,0
-147,15,0,0,0,0,0,0,0,0,0,-1,1077,1009,0,0
-140,15,0,0,0,0,0,0,0,0,0,-1,1084,1009,0,0
-133,15,0,0,0,0,0,0,0,0,0,-1,1091,1009,0,0
-126,15,0,0,0,0,0,0,0,0,0,-1,1098,1009,0,0
-119,15,0,0,0,0,0,0,0,0,0,-1,1105,1009,0,0
-112,15,0,0,0,0,0,0,0,0,0,-1,1112,1009,0,0
-105,15,0,0,0,0,0,0,0,0,0,-1,1119,1009,0,0
-98,15,0,0,0,0,0,0,0,0,0,-1,1126,1009,0,0
-91,15,0,0,0,0,0,0,0,0,0,-1,1133,1009,0,0
-84,15,0,0,0,0,0,0,0,0,0,-1,1140,1009,0,0
-77,15,0,0,0,0,0,0,0,0,0,-1,1147,1009,0,0
-70,15,0,0,0,0,0,0,0,0,0,-1,1154,1009,0,0
-63,15,0,0,0,0,0,0,0,0,0,-1,1161,1009,0,0
-56,15,0,0,0,0,0,0,0,0,0,-1,1168,1009,0,0
-49,15,0,0,0,0,0,0,0,0,0,-1,1175,1009,0,0
-42,15,0,0,0,0,0,0,0,0,0,-1,1182,1009,0,0
-35,15,0,0,0,0,0,0,0,0,0,-1,1189,1009,0,0
-28,15,0,0,0,0,0,0,0,0,0,-1,1196,1009,0,0
-21,15,0,0,0,0,0,0,0,0,0,-1,1203,1009,0,0
-14,15,0,0,0,0,0,0,0,0,0,-1,1210,1009,0,0
-7,15,0,0,0,0,0,0,0,0,0,-1,1217,1009,0,0
0,15,0,0,0,0,0,0,0,0,0,-1,1224,1009,0,0
7,15,0,0,0,0,0,0,0,0,0,-1,1231,1009,0,0
14,15,0,0,0,0,0,0,0,0,0,-1,1238,1009,0,0
21,15,0,0,0,0,0,0,0,0,0,-1,1245,1009,0,0
28,15,0,0,0,0,0,0,0,0,0,-1,1252,1009,0,0
35,15,0,0,0,0,0,0,0,0,0,-1,1259,1009,0,0
42,15,0,0,0,0,0,0,0,0,0,-1,1266,1009,0,0
49,15,0,0,0,0,0,0,0,0,0,-1,1273,1009,0,0
56,15,0,0,0,0,0,0,0,0,0,-1,1280,1009,0,0
63,15,0,0,0,0,0,0,0,0,0,-1,1287,1009,0,0
70,15,0,0,0,0,0,0,0,0,0,-1,1294,1009,0,0
77,15,0,0,0,0,0,0,0,0,0,-1,1301,1009,0,0
84,15,0,0,0,0,0,0,0,0,0,-1,1308,1009,0,0
91,15,0,0,0,0,0,0,0,0,0,-1,1315,1009,0,0
98,15,0,0,0,0,0,0,0,0,0,-1,1322,1009,0,0
105,15,0,0,0,0,0,0,0,0,0,-1,1329,1009,0,0
112,15,0,0,0,0,0,0,0,0,0,-1,1336,1009,0,0
119,15,0,0,0,0,0,0,0,0,0,-1,1343,1009,0,0
126,15,0,0,0,0,0,0,0,0,0,-1,1350,1009,0,0
133,15,0,0,0,0,0,0,0,0,0,-1,1357,1009,0,0
140,15,0,0,0,0,0,0,0,0,0,-1,1364,1009,0,0
147,15,0,0,0,0,0,0,0,0,0,-1,1371,1009,0,0
154,15,0,0,0,0,0,0,0,0,0,-1,1378,1009,0,0
161,15,0,0,0,0,0,0,0,0,0,-1,1385,1009,0,0
168,15,0,0,0,0,0,0,0,0,0,-1,1392,1009,0,0
175,15,0,0,0,0,0,0,0,0,0,-1,1399,1009,0,0
182,15,0,0,0,0,0,0,0,0,0,-1,1406,1009,0,0
189,15,0,0,0,0,0,0,0,0,0,-1,1413,1009,0,0
196,15,0,0,0,0,0,0,0,0,0,-1,1420,1009,0,0
203,15,0,0,0,0,0,0,0,0,0,-1,1427,1009,0,0
210,15,0,0,0,0,0,0,0,0,0,-1,1434,1009,0,0
217,15,0,0,0,0,0,0,0,0,0,-1,1441,1009,0,0
224,15,0,0,0,0,0,0,0,0,0,-1,1448,1009,0,0
231,15,0,0,0,0,0,0,0,0,0,-1,1455,1009,0,0
238,15,0,0,0,0,0,0,0,0,0,-1,1462,1009,0,0
245,15,0,0,0,0,0,0,0,0,0,-1,1469,1009,0,0
252,15,0,0,0,0,0,0,0,0,0,-1,1476,1009,0,0
259,15,0,0,0,0,0,0,0,0,0,-1,1483,1009,0,0
266,15,0,0,0,0,0,0,0,0,0,-1,1490,1009,0,0
273,15,0,0,0,0,0,0,0,0,0,-1,1497,1009,0,0
280,15,0,0,0,0,0,0,0,0,0,-1,1504,1009,0,0
287,15,0,0,0,0,0,0,0,0,0,-1,1511,1009,0,0
294,15,0,0,0,0,0,0,0,0,0,-1,1518,1009,0,0
301,15,0,0,0,0,0,0,0,0,0,-1,1525,1009,0,0
308,15,0,0,0,0,0,0,0,0,0,-1,1532,1009,0,0
315,15,0,0,0,0,0,0,0,0,0,-1,1539,1009,0,0
322,15,0,0,0,0,0,0,0,0,0,-1,1546,1009,0,0
329,15,0,0,0,0,0,0,0,0,0,-1,1553,1009,0,0
336,15,0,0,0,0,0,0,0,0,0,-1,1560,1009,0,0
343,15,0,0,0,0,0,0,0,0,0,-1,1567,1009,0,0
350,15,0,0,0,0,0,0,0,0,0,-1,1574,1009,0,0
357,15,0,0,0,0,0,0,0,0,0,-1,1581,1009,0,0
364,15,0,0,0,0,0,0,0,0,0,-1,1588,1009,0,0
371,15,0,0,0,0,0,0,0,0,0,-1,1595,1009,0,0
378,15,0,0,0,0,0,0,0,0,0,-1,1602,1009,0,0
385,15,0,0,0,0,0,0,0,0,0,-1,1609,1009,0,0
392,15,0,0,0,0,0,0,0,0,0,-1,1616,1009,0,0
399,15,0,0,0,0,0,0,0,0,0,-1,1623,1009,0,0
406,15,0,0,0,0,0,0,0,0,0,-1,1630,1009,0,0
413,15,0,0,0,0,0,0,0,0,0,-1,1637,1009,0,0
420,15,0,0,0,0,0,0,0,0,0,-1,1644,1009,0,0
427,15,0,0,0,0,0,0,0,0,0,-1,1651,1009,0,0
434,15,0,0,0,0,0,0,0,0,0,-1,1658,1009,0,0
441,15,0,0,0,0,0,0,0,0,0,-1,1665,1009,0,0
448,15,0,0,0,0,0,0,0,0,0,-1,1672,1009,0,0
455,15,0,0,0,0,0,0,0,0,0,-1,1679,1009,0,0
462,15,0,0,0,0,0,0,0,0,0,-1,1686,1009,0,0
469,15,0,0,0,0,0,0,0,0,0,-1,1693,1009,0,0
476,15,0,0,0,0,0,0,0,0,0,-1,1700,1009,0,0
483,15,0,0,0,0,0,0,0,0,0,-1,1707,1009,0,0
490,15,0,0,0,0,0,0,0,0,0,-1,1714,1009,0,0
497,15,0,0,0,0,0,0,0,0,0,-1,1721,1009,0,0
504,15,0,0,0,0,0,0,0,0,0,-1,1728,1009,0,0
511,15,0,0,0,0,0,0,0,0,0,-1,1735,1009,0,0
518,15,0,0,0,0,0,0,0,0,0,-1,1742,1009,0,0
525,15,0,0,0,0,0,0,0,0,0,-1,1749,1009,0,0
532,15,0,0,0,0,0,0,0,0,0,-1,1756,1009,0,0
539,15,0,0,0,0,0,0,0,0,0,-1,1763,1009,0,0
546,15,0,0,0,0,0,0,0,0,0,-1,1770,1009,0,0
553,15,0,0,0,0,0,0,0,0,0,-1,1777,1009,0,0
560,15,0,0,0,0,0,0,0,0,0,-1,1784,1009,0,0
567,15,0,0,0,0,0,0,0,0,0,-1,1791,1009,0,0
574,15,0,0,0,0,0,0,0,0,0,-1,1798,1009,0,0
581,15,0,0,0,0,0,0,0,0,0,-1,1805,1009,0,0
588,15,0,0,0,0,0,0,0,0,0,-1,1812,1009,0,0
595,15,0,0,0,0,0,0,0,0,0,-1,1819,1009,0,0
602,15,0,0,0,0,0,0,0,0,0,-1,1826,1009,0,0
609,15,0,0,0,0,0,0,0,0,0,-1,1833,1009,0,0
616,15,0,0,0,0,0,0,0,0,0,-1,1840,1009,0,0
623,15,0,0,0,0,0,0,0,0,0,-1,1847,1009,0,0
630,15,0,0,0,0,0,0,0,0,0,-1,1854,1009,0,0
637,15,0,0,0,0,0,0,0,0,0,-1,1861,1009,0,0
644,15,23.6136,2.51483,-0.000168948,0.00214056,-0.00198239,0.00328,-0.00130839,-1.04913,0.00272941,0.0392591,1868,1009,23.6136,-2.51484
651,15,23.7118,2.64606,9.89394e-05,0.00159369,-0.0017564,0.00275511,-0.00106248,-0.986552,0.00227516,0.0377455,1875,1009,23.7118,-2.64608
658,15,23.6542,2.64642,8.79071e-05,0.00122856,-0.00137362,0.00214555,-0.000829081,-0.982168,0.00177258,0.0380492,1882,1009,23.6542,-2.64641
665,15,23.6449,2.4743,8.19201e-05,0.00103559,-0.000833904,0.00151936,-0.000401853,-1.04512,0.00117009,0.0389871,1889,1009,23.6449,-2.47428
672,15,23.7048,2.52069,-0.000140521,0.000965848,0.000177004,0.000993476,-0.000168149,1.41596,0.000724897,0.0374079,1896,1009,23.7049,-2.52068
679,15,23.7375,2.58521,-0.000844199,0.000806948,0.00160394,0.00178531,-0.00182256,1.02307,0.00208305,0.0361656,1903,1009,23.7375,-2.58522
686,15,23.6608,2.6701,-0.0015448,0.000626763,0.00289003,0.00262824,-0.00354628,0.96509,0.00357797,0.0397909,1910,1009,23.6607,-2.67013
693,15,23.6444,2.62341,-0.00218623,0.000426894,0.00397905,0.0033084,-0.00506773,0.944032,0.00487139,0.0404958,1917,1009,23.6444,-2.62342
700,15,23.6953,2.60913,-0.00269267,0.000238483,0.00476161,0.00375496,-0.00620914,0.934692,0.00581065,0.0326218,1924,1009,23.6953,-2.60916
707,15,23.6753,2.76385,-0.00316833,0.000112006,0.00527212,0.0039932,-0.00704952,0.936204,0.0064564,0.0286649,1931,1009,23.6753,-2.76383
714,15,23.7114,2.71234,-0.00365721,0.000125408,0.00561712,0.00416108,-0.00769289,0.947789,0.00694441,0.0309497,1938,1009,23.7114,-2.71232
721,15,23.845,2.58856,0,0,0,0,0,0,0,-1,1945,1009,23.845,-2.58859
728,15,23.2596,4.05884,0,0,0,0,0,0,0,-1,1952,1009,23.2597,-4.05887
735,15,23.2439,4.14502,-0.0044218,0.000895927,0.00513533,0.0040199,-0.00754577,1.02427,0.00678008,0.0162638,1959,1009,23.244,-4.14502
742,15,23.2574,4.21375,-0.00461516,0.00147294,0.00404035,0.00348761,-0.00662984,1.10824,0.00593447,0.0182155,1966,1009,23.2575,-4.21376
749,15,23.2327,4.24677,-0.00411957,0.00390537,0.0028645,0.00482293,-0.00503713,1.2608,0.00569316,0.0109687,1973,1009,23.2327,-4.24674
756,15,23.2416,4.28265,-0.00341782,0.00659184,0.00146186,0.00680097,-0.00362695,1.4287,0.00611282,0.0120198,1980,1009,23.2415,-4.28267
763,15,23.2191,4.31024,-0.00278549,0.0101661,0.000112869,0.0101671,-0.00278647,1.56208,0.00787301,0.0116246,1987,1009,23.2191,-4.31023
770,15,23.1876,4.32562,-0.00172351,0.0150179,-0.00152928,0.0151565,-0.00186206,-1.48045,0.0107788,0.0105622,1994,1009,23.1877,-4.32563
777,15,23.1266,4.3526,-0.000281295,0.0212525,-0.00299014,0.02166,-0.000688788,-1.43535,0.014675,0.0189524,2001,1009,23.1266,-4.35261
784,15,23.0338,4.34656,0.00122158,0.0286988,-0.00398525,0.0292651,0.000655239,-1.42963,0.0192954,0.0395183,2008,1009,23.0339,-4.34659
791,15,22.9387,4.34753,0,0,0,0,0,0,0,-1,2015,1009,22.9387,-4.34751
798,15,21.136,3.06152,0,0,0,0,0,0,0,-1,2022,1009,21.136,-3.06151
805,15,20.8093,2.87042,0,0,0,0,0,0,0,-1,2029,1009,20.8094,-2.8704
812,15,23.7966,5.78314,0,0,0,0,0,0,0,-1,2036,1009,23.7965,-5.78314
-700,8,0,0,0,0,0,0,0,0,0,-1,524,1016,0,0
-693,8,-15.1524,2.14203,0,0,0,0,0,0,0,-1,531,1016,-15.1524,-2.14204
-686,8,-15.195,1.90527,0.0344718,0.0382203,-0.0390908,0.0754817,-0.00278964,-0.809353,0.0512763,0.0472538,538,1016,-15.195,-1.9053
-679,8,-15.5829,1.755,0.0245308,0.0315086,-0.0286278,0.0568593,-0.000819931,-0.846035,0.0381824,0.0458623,545,1016,-15.5829,-1.75499
-672,8,-15.9104,1.66522,0.0167823,0.0254557,-0.0203824,0.0419577,0.000280302,-0.890219,0.0278788,0.0452231,552,1016,-15.9104,-1.6652
-665,8,-16.1685,1.4892,0.0110336,0.020093,-0.0139455,0.030226,0.000900554,-0.942431,0.0198573,0.0473854,559,1016,-16.1685,-1.4892
-658,8,-16.1164,1.58942,0.00695801,0.0154548,-0.00904119,0.021196,0.00121683,-1.00504,0.013743,0.0360058,566,1016,-16.1164,-1.58944
-651,8,-16.0488,1.70068,0.00422243,0.0115405,-0.00549559,0.0144837,0.00127918,-1.0791,0.00925891,0.0210376,573,1016,-16.0488,-1.70067
-644,8,-16.0361,1.77374,0.00214069,0.00843317,-0.00329875,0.00984551,0.000728355,-1.16627,0.00633486,0.0229875,580,1016,-16.0361,-1.77374
-637,8,-16.0773,1.82086,0.000567007,0.0058173,-0.00200897,0.0064978,-0.0001135,-1.24419,0.00437019,0.0195964,587,1016,-16.0773,-1.82085
-630,8,-16.1542,1.81281,-0.000789317,0.00345004,-0.00166532,0.00402597,-0.00136525,-1.23783,0.00323652,0.0139638,594,1016,-16.1542,-1.81281
-623,8,-16.1592,1.81067,-0.000225523,0.00144591,-0.00195208,0.00273364,-0.00151326,-0.987652,0.00248546,0.0125582,601,1016,-16.1592,-1.81065
-616,8,-16.1497,1.79926,0.000282699,0.000718044,-0.00288013,0.00338871,-0.00238797,-0.823115,0.00335181,0.0118231,608,1016,-16.1497,-1.79927
-609,8,-16.1374,1.77216,0.000248936,0.000164404,-0.00421961,0.00442649,-0.00401315,-0.78039,0.00487458,0.0149552,615,1016,-16.1374,-1.77216
-602,8,-16.127,1.75574,-0.000130015,0.000102532,-0.00543889,0.00542639,-0.00545387,-0.796086,0.00628173,0.0212105,622,1016,-16.127,-1.75571
-595,8,-16.0302,1.38464,-0.000234143,2.13561e-05,-0.00627134,0.00616624,-0.00637903,-0.795582,0.00724337,0.0324755,629,1016,-16.0301,-1.38465
-588,8,-16.0622,0.892639,0.000107711,-6.09859e-05,-0.00662412,0.00664802,-0.00660129,-0.779032,0.00764951,0.0306201,636,1016,-16.0622,-0.892614
-581,8,-16.0864,0.818237,0.000580374,-0.000247701,-0.0067484,0.00692742,-0.00659475,-0.75476,0.00780782,0.0285069,643,1016,-16.0864,-0.818254
-574,8,-16.1176,0.853455,0.000937324,-0.000161903,-0.00668117,0.00709145,-0.00631603,-0.744359,0.00774513,0.0339594,650,1016,-16.1176,-0.853425
-567,8,-16.1326,0.876648,0.00139674,1.36577e-05,-0.00622848,0.00697195,-0.00556156,-0.73011,0.00725148,0.0405142,657,1016,-16.1326,-0.876619
-560,8,-16.046,0.916321,0.00207383,0.000228617,-0.0055677,0.00679485,-0.0044924,-0.703291,0.00656173,0.0416933,664,1016,-16.046,-0.916312
-553,8,-15.9318,1.1615,0,0,0,0,0,0,0,-1,671,1016,-15.9318,-1.16151
-546,8,-15.9904,0.853943,0.00420404,0.000451644,-0.00417549,0.00690549,-0.0022498,-0.574247,0.00550891,0.0407153,678,1016,-15.9904,-0.853961
-539,8,-16.1329,0.995178,0.00567898,0.000186579,-0.0040864,0.00785622,-0.00199066,-0.489543,0.00601191,0.0406001,685,1016,-16.1329,-0.995204
-532,8,-15.8448,0.288635,0.00721941,-0.000171031,-0.005582,0.0102185,-0.00317009,-0.49302,0.00807906,0.0436461,692,1016,-15.8448,-0.288614
-525,8,0,0,0,0,0,0,0,0,0,-1,699,1016,0,0
-518,8,0,0,0,0,0,0,0,0,0,-1,706,1016,0,0
-511,8,0,0,0,0,0,0,0,0,0,-1,713,1016,0,0
-504,8,0,0,0,0,0,0,0,0,0,-1,720,1016,0,0
-497,8,0,0,0,0,0,0,0,0,0,-1,727,1016,0,0
-490,8,0,0,0,0,0,0,0,0,0,-1,734,1016,0,0
-483,8,0,0,0,0,0,0,0,0,0,-1,741,1016,0,0
-476,8,0,0,0,0,0,0,0,0,0,-1,748,1016,0,0
-469,8,0,0,0,0,0,0,0,0,0,-1,755,1016,0,0
-462,8,0,0,0,0,0,0,0,0,0,-1,762,1016,0,0
-455,8,0,0,0,0,0,0,0,0,0,-1,769,1016,0,0
-448,8,0,0,0,0,0,0,0,0,0,-1,776,1016,0,0
-441,8,0,0,0,0,0,0,0,0,0,-1,783,1016,0,0
-434,8,0,0,0,0,0,0,0,0,0,-1,790,1016,0,0
-427,8,0,0,0,0,0,0,0,0,0,-1,797,1016,0,0
-420,8,0,0,0,0,0,0,0,0,0,-1,804,1016,0,0
-413,8,0,0,0,0,0,0,0,0,0,-1,811,1016,0,0
-406,8,0,0,0,0,0,0,0,0,0,-1,818,1016,0,0
-399,8,0,0,0,0,0,0,0,0,0,-1,825,1016,0,0
-392,8,0,0,0,0,0,0,0,0,0,-1,832,1016,0,0
-385,8,0,0,0,0,0,0,0,0,0,-1,839,1016,0,0
-378,8,0,0,0,0,0,0,0,0,0,-1,846,1016,0,0
-371,8,0,0,0,0,0,0,0,0,0,-1,853,1016,0,0
-364,8,0,0,0,0,0,0,0,0,0,-1,860,1016,0,0
-357,8,0,0,0,0,0,0,0,0,0,-1,867,1016,0,0
-350,8,0,0,0,0,0,0,0,0,0,-1,874,1016,0,0
-343,8,0,0,0,0,0,0,0,0,0,-1,881,1016,0,0
-336,8,0,0,0,0,0,0,0,0,0,-1,888,1016,0,0
-329,8,0,0,0,0,0,0,0,0,0,-1,895,1016,0,0
-322,8,0,0,0,0,0,0,0,0,0,-1,902,1016,0,0
-315,8,0,0,0,0,0,0,0,0,0,-1,909,1016,0,0
-308,8,0,0,0,0,0,0,0,0,0,-1,916,1016,0,0
-301,8,0,0,0,0,0,0,0,0,0,-1,923,1016,0,0
-294,8,0,0,0,0,0,0,0,0,0,-1,930,1016,0,0
-287,8,0,0,0,0,0,0,0,0,0,-1,937,1016,0,0
-280,8,0,0,0,0,0,0,0,0,0,-1,944,1016,0,0
-273,8,0,0,0,0,0,0,0,0,0,-1,951,1016,0,0
-266,8,0,0,0,0,0,0,0,0,0,-1,958,1016,0,0
-259,8,0,0,0,0,0,0,0,0,0,-1,965,1016,0,0
-252,8,0,0,0,0,0,0,0,0,0,-1,972,1016,0,0
-245,8,0,0,0,0,0,0,0,0,0,-1,979,1016,0,0
-238,8,0,0,0,0,0,0,0,0,0,-1,986,1016,0,0
-231,8,0,0,0,0,0,0,0,0,0,-1,993,1016,0,0
-224,8,0,0,0,0,0,0,0,0,0,-1,1000,1016,0,0
-217,8,0,0,0,0,0,0,0,0,0,-1,1007,1016,0,0
-210,8,0,0,0,0,0,0,0,0,0,-1,1014,1016,0,0
-203,8,0,0,0,0,0,0,0,0,0,-1,1021,1016,0,0
-196,8,0,0,0,0,0,0,0,0,0,-1,1028,1016,0,0
-189,8,0,0,0,0,0,0,0,0,0,-1,1035,1016,0,0
-182,8,0,0,0,0,0,0,0,0,0,-1,1042,1016,0,0
-175,8,0,0,0,0,0,0,0,0,0,-1,1049,1016,0,0
-168,8,0,0,0,0,0,0,0,0,0,-1,1056,1016,0,0
-161,8,0,0,0,0,0,0,0,0,0,-1,1063,1016,0,0
-154,8,0,0,0,0,0,0,0,0,0,-1,1070,1016,0,0
-147,8,0,0,0,0,0,0,0,0,0,-1,1077,1016,0,0
-140,8,0,0,0,0,0,0,0,0,0,-1,1084,1016,0,0
-133,8,0,0,0,0,0,0,0,0,0,-1,1091,1016,0,0
-126,8,0,0,0,0,0,0,0,0,0,-1,1098,1016,0,0
-119,8,0,0,0,0,0,0,0,0,0,-1,1105,1016,0,0
-112,8,0,0,0,0,0,0,0,0,0,-1,1112,1016,0,0
-105,8,0,0,0,0,0,0,0,0,0,-1,1119,1016,0,0
-98,8,0,0,0,0,0,0,0,0,0,-1,1126,1016,0,0
-91,8,0,0,0,0,0,0,0,0,0,-1,1133,1016,0,0
-84,8,0,0,0,0,0,0,0,0,0,-1,1140,1016,0,0
-77,8,0,0,0,0,0,0,0,0,0,-1,1147,1016,0,0
-70,8,0,0,0,0,0,0,0,0,0,-1,1154,1016,0,0
-63,8,0,0,0,0,0,0,0,0,0,-1,1161,1016,0,0
-56,8,0,0,0,0,0,0,0,0,0,-1,1168,1016,0,0
-49,8,0,0,0,0,0,0,0,0,0,-1,1175,1016,0,0
-42,8,0,0,0,0,0,0,0,0,0,-1,1182,1016,0,0
-35,8,0,0,0,0,0,0,0,0,0,-1,1189,1016,0,0
-28,8,0,0,0,0,0,0,0,0,0,-1,1196,1016,0,0
-21,8,0,0,0,0,0,0,0,0,0,-1,1203,1016,0,0
-14,8,0,0,0,0,0,0,0,0,0,-1,1210,1016,0,0
-7,8,0,0,0,0,0,0,0,0,0,-1,1217,1016,0,0
0,8,0,0,0,0,0,0,0,0,0,-1,1224,1016,0,0
7,8,0,0,0,0,0,0,0,0,0,-1,1231,1016,0,0
14,8,0,0,0,0,0,0,0,0,0,-1,1238,1016,0,0
21,8,0,0,0,0,0,0,0,0,0,-1,1245,1016,0,0
28,8,0,0,0,0,0,0,0,0,0,-1,1252,1016,0,0
35,8,0,0,0,0,0,0,0,0,0,-1,1259,1016,0,0
42,8,0,0,0,0,0,0,0,0,0,-1,1266,1016,0,0
49,8,0,0,0,0,0,0,0,0,0,-1,1273,1016,0,0
56,8,0,0,0,0,0,0,0,0,0,-1,1280,1016,0,0
63,8,0,0,0,0,0,0,0,0,0,-1,1287,1016,0,0
70,8,0,0,0,0,0,0,0,0,0,-1,1294,1016,0,0
77,8,0,0,0,0,0,0,0,0,0,-1,1301,1016,0,0
84,8,0,0,0,0,0,0,0,0,0,-1,1308,1016,0,0
91,8,0,0,0,0,0,0,0,0,0,-1,1315,1016,0,0
98,8,0,0,0,0,0,0,0,0,0,-1,1322,1016,0,0
105,8,0,0,0,0,0,0,0,0,0,-1,1329,1016,0,0
112,8,0,0,0,0,0,0,0,0,0,-1,1336,1016,0,0
119,8,0,0,0,0,0,0,0,0,0,-1,1343,1016,0,0
126,8,0,0,0,0,0,0,0,0,0,-1,1350,1016,0,0
133,8,0,0,0,0,0,0,0,0,0,-1,1357,1016,0,0
140,8,0,0,0,0,0,0,0,0,0,-1,1364,1016,0,0
147,8,0,0,0,0,0,0,0,0,0,-1,1371,1016,0,0
154,8,0,0,0,0,0,0,0,0,0,-1,1378,1016,0,0
161,8,0,0,0,0,0,0,0,0,0,-1,1385,1016,0,0
168,8,0,0,0,0,0,0,0,0,0,-1,1392,1016,0,0
175,8,0,0,0,0,0,0,0,0,0,-1,1399,1016,0,0
182,8,0,0,0,0,0,0,0,0,0,-1,1406,1016,0,0
189,8,0,0,0,0,0,0,0,0,0,-1,1413,1016,0,0
196,8,0,0,0,0,0,0,0,0,0,-1,1420,1016,0,0
203,8,0,0,0,0,0,0,0,0,0,-1,1427,1016,0,0
210,8,0,0,0,0,0,0,0,0,0,-1,1434,1016,0,0
217,8,0,0,0,0,0,0,0,0,0,-1,1441,1016,0,0
224,8,0,0,0,0,0,0,0,0,0,-1,1448,1016,0,0
231,8,0,0,0,0,0,0,0,0,0,-1,1455,1016,0,0
238,8,0,0,0,0,0,0,0,0,0,-1,1462,1016,0,0
245,8,0,0,0,0,0,0,0,0,0,-1,1469,1016,0,0
252,8,0,0,0,0,0,0,0,0,0,-1,1476,1016,0,0
259,8,0,0,0,0,0,0,0,0,0,-1,1483,1016,0,0
266,8,0,0,0,0,0,0,0,0,0,-1,1490,1016,0,0
273,8,0,0,0,0,0,0,0,0,0,-1,1497,1016,0,0
280,8,0,0,0,0,0,0,0,0,0,-1,1504,1016,0,0
287,8,0,0,0,0,0,0,0,0,0,-1,1511,1016,0,0
294,8,0,0,0,0,0,0,0,0,0,-1,1518,1016,0,0
301,8,0,0,0,0,0,0,0,0,0,-1,1525,1016,0,0
308,8,0,0,0,0,0,0,0,0,0,-1,1532,1016,0,0
315,8,0,0,0,0,0,0,0,0,0,-1,1539,1016,0,0
322,8,0,0,0,0,0,0,0,0,0,-1,1546,1016,0,0
329,8,0,0,0,0,0,0,0,0,0,-1,1553,1016,0,0
336,8,0,0,0,0,0,0,0,0,0,-1,1560,1016,0,0
343,8,0,0,0,0,0,0,0,0,0,-1,1567,1016,0,0
350,8,0,0,0,0,0,0,0,0,0,-1,1574,1016,0,0
357,8,0,0,0,0,0,0,0,0,0,-1,1581,1016,0,0
364,8,0,0,0,0,0,0,0,0,0,-1,1588,1016,0,0
371,8,0,0,0,0,0,0,0,0,0,-1,1595,1016,0,0
378,8,0,0,0,0,0,0,0,0,0,-1,1602,1016,0,0
385,8,0,0,0,0,0,0,0,0,0,-1,1609,1016,0,0
392,8,0,0,0,0,0,0,0,0,0,-1,1616,1016,0,0
399,8,0,0,0,0,0,0,0,0,0,-1,1623,1016,0,0
406,8,0,0,0,0,0,0,0,0,0,-1,1630,1016,0,0
413,8,0,0,0,0,0,0,0,0,0,-1,1637,1016,0,0
420,8,0,0,0,0,0,0,0,0,0,-1,1644,1016,0,0
427,8,0,0,0,0,0,0,0,0,0,-1,1651,1016,0,0
434,8,0,0,0,0,0,0,0,0,0,-1,1658,1016,0,0
441,8,0,0,0,0,0,0,0,0,0,-1,1665,1016,0,0
448,8,0,0,0,0,0,0,0,0,0,-1,1672,1016,0,0
455,8,0,0,0,0,0,0,0,0,0,-1,1679,1016,0,0
462,8,0,0,0,0,0,0,0,0,0,-1,1686,1016,0,0
469,8,0,0,0,0,0,0,0,0,0,-1,1693,1016,0,0
476,8,0,0,0,0,0,0,0,0,0,-1,1700,1016,0,0
483,8,0,0,0,0,0,0,0,0,0,-1,1707,1016,0,0
490,8,0,0,0,0,0,0,0,0,0,-1,1714,1016,0,0
497,8,0,0,0,0,0,0,0,0,0,-1,1721,1016,0,0
504,8,0,0,0,0,0,0,0,0,0,-1,1728,1016,0,0
511,8,0,0,0,0,0,0,0,0,0,-1,1735,1016,0,0
518,8,0,0,0,0,0,0,0,0,0,-1,1742,1016,0,0
525,8,0,0,0,0,0,0,0,0,0,-1,1749,1016,0,0
532,8,0,0,0,0,0,0,0,0,0,-1,1756,1016,0,0
539,8,0,0,0,0,0,0,0,0,0,-1,1763,1016,0,0
546,8,0,0,0,0,0,0,0,0,0,-1,1770,1016,0,0
553,8,0,0,0,0,0,0,0,0,0,-1,1777,1016,0,0
560,8,0,0,0,0,0,0,0,0,0,-1,1784,1016,0,0
567,8,0,0,0,0,0,0,0,0,0,-1,1791,1016,0,0
574,8,0,0,0,0,0,0,0,0,0,-1,1798,1016,0,0
581,8,0,0,0,0,0,0,0,0,0,-1,1805,1016,0,0
588,8,0,0,0,0,0,0,0,0,0,-1,1812,1016,0,0
595,8,0,0,0,0,0,0,0,0,0,-1,1819,1016,0,0
602,8,0,0,0,0,0,0,0,0,0,-1,1826,1016,0,0
609,8,0,0,0,0,0,0,0,0,0,-1,1833,1016,0,0
616,8,0,0,0,0,0,0,0,0,0,-1,1840,1016,0,0
623,8,0,0,0,0,0,0,0,0,0,-1,1847,1016,0,0
630,8,0,0,0,0,0,0,0,0,0,-1,1854,1016,0,0
637,8,0,0,0,0,0,0,0,0,0,-1,1861,1016,0,0
644,8,23.7283,2.59735,0.000897492,0.00318182,-0.00178079,0.00415525,-7.59382e-05,-1.07054,0.00279582,0.0399062,1868,1016,23.7283,-2.59735
651,8,23.7545,2.60083,0.000690144,0.00231552,-0.00174535,0.00342811,-0.000422446,-1.00329,0.00243845,0.0359882,1875,1016,23.7545,-2.6008
658,8,23.5891,2.4892,0.000382183,0.00175708,-0.00146424,0.00268722,-0.000547954,-1.00487,0.00199932,0.0363766,1882,1016,23.5891,-2.48919
665,8,23.5701,2.37238,0.000197199,0.00140545,-0.000997118,0.00196717,-0.000364529,-1.05776,0.00144833,0.0389366,1889,1016,23.5701,-2.37239
672,8,23.6893,2.42133,-7.80213e-05,0.00124854,-3.81916e-05,0.00124964,-7.91199e-05,-1.54204,0.000860678,0.0383031,1896,1016,23.6893,-2.42131
679,8,23.6323,2.35223,-0.000781004,0.000997245,0.00142913,0.00179126,-0.00157502,1.06367,0.00194486,0.0376653,1903,1016,23.6323,-2.35222
686,8,23.6375,2.51611,-0.00147049,0.000749919,0.00279019,0.00264267,-0.00336324,0.974744,0.00347582,0.0403556,1910,1016,23.6375,-2.51612
693,8,23.6523,2.58496,-0.00207808,0.000492165,0.0039651,0.0033752,-0.00496112,0.942111,0.00484192,0.0391075,1917,1016,23.6523,-2.58493
700,8,23.7498,2.63104,-0.00256183,0.000255228,0.00482636,0.0038744,-0.006181,0.927375,0.00585618,0.0308872,1924,1016,23.7498,-2.63105
707,8,23.7256,2.74451,-0.00302265,5.91847e-05,0.00539068,0.00412486,-0.00708833,0.92461,0.00654887,0.0241029,1931,1016,23.7256,-2.74454
714,8,23.7346,2.71429,-0.00348359,3.22416e-05,0.00579352,0.00432868,-0.00778003,0.932698,0.00708499,0.0266304,1938,1016,23.7346,-2.71432
721,8,23.8586,2.56989,0,0,0,0,0,0,0,-1,1945,1016,23.8586,-2.56988
728,8,23.28,4.11945,0,0,0,0,0,0,0,-1,1952,1016,23.2801,-4.11947
735,8,23.2422,4.15009,-0.00419474,0.000730943,0.00531482,0.00412582,-0.00758962,1.00237,0.00686175,0.0181623,1959,1016,23.2422,-4.15008
742,8,23.2632,4.15179,-0.00434216,0.0012357,0.0041109,0.00341443,-0.00652088,1.08345,0.00582887,0.0182999,1966,1016,23.2631,-4.1518
749,8,23.2607,4.21478,-0.00380751,0.00374143,0.00258394,0.00454117,-0.00460725,1.27064,0.00528189,0.0130971,1973,1016,23.2607,-4.21477
756,8,23.2584,4.23523,-0.00304088,0.00644965,0.000785657,0.00651425,-0.00310548,1.48876,0.005669,0.0134314,1980,1016,23.2584,-4.23525
763,8,23.2627,4.25714,-0.0023144,0.00996478,-0.00102175,0.0100492,-0.00239884,-1.48834,0.00762591,0.0134841,1987,1016,23.2627,-4.25713
770,8,23.2412,4.26599,-0.00111011,0.0148043,-0.00334521,0.0154788,-0.00178468,-1.37181,0.0109626,0.0139715,1994,1016,23.2412,-4.26597
777,8,23.1742,4.31683,0.000541822,0.0210707,-0.00568532,0.0225401,-0.000927514,-1.31789,0.0153452,0.0166567,2001,1016,23.1742,-4.31684
784,8,23.0828,4.28192,0.00229009,0.0285296,-0.00764546,0.0305947,0.000224948,-1.30698,0.0203219,0.034684,2008,1016,23.0827,-4.28193
791,8,23.0013,4.22021,0,0,0,0,0,0,0,-1,2015,1016,23.0014,-4.22019
798,8,22.7524,5.20996,0,0,0,0,0,0,0,-1,2022,1016,22.7524,-5.20996
805,8,23.1406,4.40869,0,0,0,0,0,0,0,-1,2029,1016,23.1406,-4.40868
812,8,23.8865,4.05048,0,0,0,0,0,0,0,-1,2036,1016,23.8864,-4.0505
-700,1,0,0,0,0,0,0,0,0,0,-1,524,1023,0,0
-693,1,-17.7833,1.41705,0,0,0,0,0,0,0,-1,531,1023,-17.7833,-1.41707
-686,1,-16.6313,2.79742,0.0458748,0.0360721,-0.0337182,0.075046,0.00690091,-0.713223,0.0478964,0.0491326,538,1023,-16.6313,-2.79745
-679,1,-15.8495,1.23242,0.0337168,0.0305891,-0.0248677,0.0570698,0.00723615,-0.753996,0.0358785,0.0478221,545,1023,-15.8495,-1.23242
-672,1,-16.5157,1.20367,0.0238436,0.0252546,-0.0178147,0.0423778,0.0067204,-0.805189,0.0262995,0.0476513,552,1023,-16.5157,-1.2037
-665,1,-16.1416,1.51611,0,0,0,0,0,0,0,-1,559,1023,-16.1416,-1.51614
-658,1,-16.085,1.64142,0.0104412,0.0157557,-0.00799392,0.0215224,0.00467444,-0.945858,0.0130718,0.0328205,566,1023,-16.0849,-1.64141
-651,1,-16.0873,1.76904,0.00640294,0.0118302,-0.00489269,0.0147114,0.00352173,-1.03859,0.00886988,0.016308,573,1023,-16.0873,-1.76904
-644,1,-16.0251,1.85541,0.00326563,0.00871214,-0.00298159,0.010027,0.00195081,-1.15547,0.00613858,0.0224274,580,1023,-16.0251,-1.8554
-637,1,-16.0953,1.80322,0.000940667,0.00602885,-0.00204769,0.00675056,0.000218963,-1.23194,0.00442919,0.0192765,587,1023,-16.0953,-1.80324
-630,1,-16.1967,1.77728,-0.00096995,0.00355666,-0.00183707,0.00420839,-0.00162167,-1.22989,0.00347467,0.0180771,594,1023,-16.1967,-1.77726
-623,1,-16.1753,1.79095,-0.000444013,0.00132389,-0.00225391,0.00286099,-0.00198111,-0.972275,0.00281093,0.0132335,601,1023,-16.1753,-1.79097
-616,1,-16.163,1.78522,0.000179479,0.00044461,-0.00330876,0.00362346,-0.00299937,-0.80542,0.00382935,0.0146504,608,1023,-16.163,-1.78522
-609,1,-16.1302,1.776,0.000283148,-5.70422e-05,-0.00465571,0.00477187,-0.00454576,-0.767139,0.00538006,0.0150597,615,1023,-16.1303,-1.77599
-602,1,-16.116,1.76727,7.86045e-05,-0.000151262,-0.00587719,0.00584199,-0.00591465,-0.775622,0.00678774,0.0131122,622,1023,-16.116,-1.7673
-595,1,-16.0948,1.74365,0.000103913,-0.000153142,-0.00670038,0.006677,-0.00672623,-0.775808,0.00773838,0.0194996,629,1023,-16.0948,-1.74363
-588,1,-16.0972,1.30829,0.000486293,-0.000214504,-0.00698792,0.00713259,-0.0068608,-0.760347,0.0080796,0.0266721,636,1023,-16.0972,-1.30827
-581,1,-16.0904,0.869507,0.000973109,-0.000391732,-0.00700348,0.00732733,-0.00674596,-0.736831,0.00812753,0.0260157,643,1023,-16.0904,-0.869516
-574,1,-16.1066,0.882996,0.0013611,-0.00026044,-0.00678616,0.00738476,-0.0062841,-0.725943,0.00790024,0.0341227,650,1023,-16.1067,-0.882988
-567,1,-16.0503,0.805847,0.00181707,-2.75802e-05,-0.00613932,0.00710296,-0.00531347,-0.71084,0.00719341,0.0430658,657,1023,-16.0503,-0.805869
-560,1,-15.9852,0.972351,0.00245401,0.000249633,-0.00520122,0.00666854,-0.0039649,-0.680988,0.00620501,0.0441411,664,1023,-15.9852,-0.972331
-553,1,-15.9888,1.2442,0,0,0,0,0,0,0,-1,671,1023,-15.9888,-1.2442
-546,1,-15.8718,0.573486,0.00433034,0.000564346,-0.0029365,0.00593571,-0.00104102,-0.500303,0.00434591,0.0392272,678,1023,-15.8719,-0.573473
-539,1,-15.9965,0.578735,0.00556536,0.000276453,-0.00228882,0.00641831,-0.000576498,-0.356717,0.00448341,0.0402167,685,1023,-15.9965,-0.578746
-532,1,-16.0001,0.502625,0.00683879,-0.000220864,-0.00328585,0.00813146,-0.00151354,-0.374809,0.00598957,0.0432393,692,1023,-16.0001,-0.502596
-525,1,0,0,0,0,0,0,0,0,0,-1,699,1023,0,0
-518,1,0,0,0,0,0,0,0,0,0,-1,706,1023,0,0
-511,1,0,0,0,0,0,0,0,0,0,-1,713,1023,0,0
-504,1,0,0,0,0,0,0,0,0,0,-1,720,1023,0,0
-497,1,0,0,0,0,0,0,0,0,0,-1,727,1023,0,0
-490,1,0,0,0,0,0,0,0,0,0,-1,734,1023,0,0
-483,1,0,0,0,0,0,0,0,0,0,-1,741,1023,0,0
-476,1,0,0,0,0,0,0,0,0,0,-1,748,1023,0,0
-469,1,0,0,0,0,0,0,0,0,0,-1,755,1023,0,0
-462,1,0,0,0,0,0,0,0,0,0,-1,762,1023,0,0
-455,1,0,0,0,0,0,0,0,0,0,-1,769,1023,0,0
-448,1,0,0,0,0,0,0,0,0,0,-1,776,1023,0,0
-441,1,0,0,0,0,0,0,0,0,0,-1,783,1023,0,0
-434,1,0,0,0,0,0,0,0,0,0,-1,790,1023,0,0
-427,1,0,0,0,0,0,0,0,0,0,-1,797,1023,0,0
-420,1,0,0,0,0,0,0,0,0,0,-1,804,1023,0,0
-413,1,0,0,0,0,0,0,0,0,0,-1,811,1023,0,0
-406,1,0,0,0,0,0,0,0,0,0,-1,818,1023,0,0
-399,1,0,0,0,0,0,0,0,0,0,-1,825,1023,0,0
-392,1,0,0,0,0,0,0,0,0,0,-1,832,1023,0,0
-385,1,0,0,0,0,0,0,0,0,0,-1,839,1023,0,0
-378,1,0,0,0,0,0,0,0,0,0,-1,846,1023,0,0
-371,1,0,0,0,0,0,0,0,0,0,-1,853,1023,0,0
-364,1,0,0,0,0,0,0,0,0,0,-1,860,1023,0,0
-357,1,0,0,0,0,0,0,0,0,0,-1,867,1023,0,0
-350,1,0,0,0,0,0,0,0,0,0,-1,874,1023,0,0
-343,1,0,0,0,0,0,0,0,0,0,-1,881,1023,0,0
-336,1,0,0,0,0,0,0,0,0,0,-1,888,1023,0,0
-329,1,0,0,0,0,0,0,0,0,0,-1,895,1023,0,0
-322,1,0,0,0,0,0,0,0,0,0,-1,902,1023,0,0
-315,1,0,0,0,0,0,0,0,0,0,-1,909,1023,0,0
-308,1,0,0,0,0,0,0,0,0,0,-1,916,1023,0,0
-301,1,0,0,0,0,0,0,0,0,0,-1,923,1023,0,0
-294,1,0,0,0,0,0,0,0,0,0,-1,930,1023,0,0
-287,1,0,0,0,0,0,0,0,0,0,-1,937,1023,0,0
-280,1,0,0,0,0,0,0,0,0,0,-1,944,1023,0,0
-273,1,0,0,0,0,0,0,0,0,0,-1,951,1023,0,0
-266,1,0,0,0,0,0,0,0,0,0,-1,958,1023,0,0
-259,1,0,0,0,0,0,0,0,0,0,-1,965,1023,0,0
-252,1,0,0,0,0,0,0,0,0,0,-1,972,1023,0,0
-245,1,0,0,0,0,0,0,0,0,0,-1,979,1023,0,0
-238,1,0,0,0,0,0,0,0,0,0,-1,986,1023,0,0
-231,1,0,0,0,0,0,0,0,0,0,-1,993,1023,0,0
-224,1,0,0,0,0,0,0,0,0,0,-1,1000,1023,0,0
-217,1,0,0,0,0,0,0,0,0,0,-1,1007,1023,0,0
-210,1,0,0,0,0,0,0,0,0,0,-1,1014,1023,0,0
-203,1,0,0,0,0,0,0,0,0,0,-1,1021,1023,0,0
-196,1,0,0,0,0,0,0,0,0,0,-1,1028,1023,0,0
-189,1,0,0,0,0,0,0,0,0,0,-1,1035,1023,0,0
-182,1,0,0,0,0,0,0,0,0,0,-1,1042,1023,0,0
-175,1,0,0,0,0,0,0,0,0,0,-1,1049,1023,0,0
-168,1,0,0,0,0,0,0,0,0,0,-1,1056,1023,0,0
-161,1,0,0,0,0,0,0,0,0,0,-1,1063,1023,0,0
-154,1,0,0,0,0,0,0,0,0,0,-1,1070,1023,0,0
-147,1,0,0,0,0,0,0,0,0,0,-1,1077,1023,0,0
-140,1,0,0,0,0,0,0,0,0,0,-1,1084,1023,0,0
-133,1,0,0,0,0,0,0,0,0,0,-1,1091,1023,0,0
-126,1,0,0,0,0,0,0,0,0,0,-1,1098,1023,0,0
-119,1,0,0,0,0,0,0,0,0,0,-1,1105,1023,0,0
-112,1,0,0,0,0,0,0,0,0,0,-1,1112,1023,0,0
-105,1,0,0,0,0,0,0,0,0,0,-1,1119,1023,0,0
-98,1,0,0,0,0,0,0,0,0,0,-1,1126,1023,0,0
-91,1,0,0,0,0,0,0,0,0,0,-1,1133,1023,0,0
-84,1,0,0,0,0,0,0,0,0,0,-1,1140,1023,0,0
-77,1,0,0,0,0,0,0,0,0,0,-1,1147,1023,0,0
-70,1,0,0,0,0,0,0,0,0,0,-1,1154,1023,0,0
-63,1,0,0,0,0,0,0,0,0,0,-1,1161,1023,0,0
-56,1,0,0,0,0,0,0,0,0,0,-1,1168,1023,0,0
-49,1,0,0,0,0,0,0,0,0,0,-1,1175,1023,0,0
-42,1,0,0,0,0,0,0,0,0,0,-1,1182,1023,0,0
-35,1,0,0,0,0,0,0,0,0,0,-1,1189,1023,0,0
-28,1,0,0,0,0,0,0,0,0,0,-1,1196,1023,0,0
-21,1,0,0,0,0,0,0,0,0,0,-1,1203,1023,0,0
-14,1,0,0,0,0,0,0,0,0,0,-1,1210,1023,0,0
-7,1,0,0,0,0,0,0,0,0,0,-1,1217,1023,0,0
0,1,0,0,0,0,0,0,0,0,0,-1,1224,1023,0,0
7,1,0,0,0,0,0,0,0,0,0,-1,1231,1023,0,0
14,1,0,0,0,0,0,0,0,0,0,-1,1238,1023,0,0
21,1,0,0,0,0,0,0,0,0,0,-1,1245,1023,0,0
28,1,0,0,0,0,0,0,0,0,0,-1,1252,1023,0,0
35,1,0,0,0,0,0,0,0,0,0,-1,1259,1023,0,0
42,1,0,0,0,0,0,0,0,0,0,-1,1266,1023,0,0
49,1,0,0,0,0,0,0,0,0,0,-1,1273,1023,0,0
56,1,0,0,0,0,0,0,0,0,0,-1,1280,1023,0,0
63,1,0,0,0,0,0,0,0,0,0,-1,1287,1023,0,0
70,1,0,0,0,0,0,0,0,0,0,-1,1294,1023,0,0
77,1,0,0,0,0,0,0,0,0,0,-1,1301,1023,0,0
84,1,0,0,0,0,0,0,0,0,0,-1,1308,1023,0,0
91,1,0,0,0,0,0,0,0,0,0,-1,1315,1023,0,0
98,1,0,0,0,0,0,0,0,0,0,-1,1322,1023,0,0
105,1,0,0,0,0,0,0,0,0,0,-1,1329,1023,0,0
112,1,0,0,0,0,0,0,0,0,0,-1,1336,1023,0,0
119,1,0,0,0,0,0,0,0,0,0,-1,1343,1023,0,0
126,1,0,0,0,0,0,0,0,0,0,-1,1350,1023,0,0
133,1,0,0,0,0,0,0,0,0,0,-1,1357,1023,0,0
140,1,0,0,0,0,0,0,0,0,0,-1,1364,1023,0,0
147,1,0,0,0,0,0,0,0,0,0,-1,1371,1023,0,0
154,1,0,0,0,0,0,0,0,0,0,-1,1378,1023,0,0
161,1,0,0,0,0,0,0,0,0,0,-1,1385,1023,0,0
168,1,0,0,0,0,0,0,0,0,0,-1,1392,1023,0,0
175,1,0,0,0,0,0,0,0,0,0,-1,1399,1023,0,0
182,1,0,0,0,0,0,0,0,0,0,-1,1406,1023,0,0
189,1,0,0,0,0,0,0,0,0,0,-1,1413,1023,0,0
196,1,0,0,0,0,0,0,0,0,0,-1,1420,1023,0,0
203,1,0,0,0,0,0,0,0,0,0,-1,1427,1023,0,0
210,1,0,0,0,0,0,0,0,0,0,-1,1434,1023,0,0
217,1,0,0,0,0,0,0,0,0,0,-1,1441,1023,0,0
224,1,0,0,0,0,0,0,0,0,0,-1,1448,1023,0,0
231,1,0,0,0,0,0,0,0,0,0,-1,1455,1023,0,0
238,1,0,0,0,0,0,0,0,0,0,-1,1462,1023,0,0
245,1,0,0,0,0,0,0,0,0,0,-1,1469,1023,0,0
252,1,0,0,0,0,0,0,0,0,0,-1,1476,1023,0,0
259,1,0,0,0,0,0,0,0,0,0,-1,1483,1023,0,0
266,1,0,0,0,0,0,0,0,0,0,-1,1490,1023,0,0
273,1,0,0,0,0,0,0,0,0,0,-1,1497,1023,0,0
280,1,0,0,0,0,0,0,0,0,0,-1,1504,1023,0,0
287,1,0,0,0,0,0,0,0,0,0,-1,1511,1023,0,0
294,1,0,0,0,0,0,0,0,0,0,-1,1518,1023,0,0
301,1,0,0,0,0,0,0,0,0,0,-1,1525,1023,0,0
308,1,0,0,0,0,0,0,0,0,0,-1,1532,1023,0,0
315,1,0,0,0,0,0,0,0,0,0,-1,1539,1023,0,0
322,1,0,0,0,0,0,0,0,0,0,-1,1546,1023,0,0
329,1,0,0,0,0,0,0,0,0,0,-1,1553,1023,0,0
336,1,0,0,0,0,0,0,0,0,0,-1,1560,1023,0,0
343,1,0,0,0,0,0,0,0,0,0,-1,1567,1023,0,0
350,1,0,0,0,0,0,0,0,0,0,-1,1574,1023,0,0
357,1,0,0,0,0,0,0,0,0,0,-1,1581,1023,0,0
364,1,0,0,0,0,0,0,0,0,0,-1,1588,1023,0,0
371,1,0,0,0,0,0,0,0,0,0,-1,1595,1023,0,0
378,1,0,0,0,0,0,0,0,0,0,-1,1602,1023,0,0
385,1,0,0,0,0,0,0,0,0,0,-1,1609,1023,0,0
392,1,0,0,0,0,0,0,0,0,0,-1,1616,1023,0,0
399,1,0,0,0,0,0,0,0,0,0,-1,1623,1023,0,0
406,1,0,0,0,0,0,0,0,0,0,-1,1630,1023,0,0
413,1,0,0,0,0,0,0,0,0,0,-1,1637,1023,0,0
420,1,0,0,0,0,0,0,0,0,0,-1,1644,1023,0,0
427,1,0,0,0,0,0,0,0,0,0,-1,1651,1023,0,0
434,1,0,0,0,0,0,0,0,0,0,-1,1658,1023,0,0
441,1,0,0,0,0,0,0,0,0,0,-1,1665,1023,0,0
448,1,0,0,0,0,0,0,0,0,0,-1,1672,1023,0,0
455,1,0,0,0,0,0,0,0,0,0,-1,1679,1023,0,0
462,1,0,0,0,0,0,0,0,0,0,-1,1686,1023,0,0
469,1,0,0,0,0,0,0,0,0,0,-1,1693,1023,0,0
476,1,0,0,0,0,0,0,0,0,0,-1,1700,1023,0,0
483,1,0,0,0,0,0,0,0,0,0,-1,1707,1023,0,0
490,1,0,0,0,0,0,0,0,0,0,-1,1714,1023,0,0
497,1,0,0,0,0,0,0,0,0,0,-1,1721,1023,0,0
504,1,0,0,0,0,0,0,0,0,0,-1,1728,1023,0,0
511,1,0,0,0,0,0,0,0,0,0,-1,1735,1023,0,0
518,1,0,0,0,0,0,0,0,0,0,-1,1742,1023,0,0
525,1,0,0,0,0,0,0,0,0,0,-1,1749,1023,0,0
532,1,0,0,0,0,0,0,0,0,0,-1,1756,1023,0,0
539,1,0,0,0,0,0,0,0,0,0,-1,1763,1023,0,0
546,1,0,0,0,0,0,0,0,0,0,-1,1770,1023,0,0
553,1,0,0,0,0,0,0,0,0,0,-1,1777,1023,0,0
560,1,0,0,0,0,0,0,0,0,0,-1,1784,1023,0,0
567,1,0,0,0,0,0,0,0,0,0,-1,1791,1023,0,0
574,1,0,0,0,0,0,0,0,0,0,-1,1798,1023,0,0
581,1,0,0,0,0,0,0,0,0,0,-1,1805,1023,0,0
588,1,0,0,0,0,0,0,0,0,0,-1,1812,1023,0,0
595,1,0,0,0,0,0,0,0,0,0,-1,1819,1023,0,0
602,1,0,0,0,0,0,0,0,0,0,-1,1826,1023,0,0
609,1,0,0,0,0,0,0,0,0,0,-1,1833,1023,0,0
616,1,0,0,0,0,0,0,0,0,0,-1,1840,1023,0,0
623,1,0,0,0,0,0,0,0,0,0,-1,1847,1023,0,0
630,1,0,0,0,0,0,0,0,0,0,-1,1854,1023,0,0
637,1,0,0,0,0,0,0,0,0,0,-1,1861,1023,0,0
644,1,0,0,0,0,0,0,0,0,0,-1,1868,1023,0,0
651,1,23.7175,2.56982,0.00137821,0.00251896,-0.00158109,0.00362941,0.000267759,-0.958507,0.00233547,0.0358499,1875,1023,23.7176,-2.56982
658,1,23.7311,2.57745,0.000728798,0.0017101,-0.00141508,0.00271718,-0.000278282,-0.952277,0.00191098,0.0351463,1882,1023,23.7311,-2.57746
665,1,23.7595,2.53546,0.000321034,0.00118936,-0.00103167,0.0018745,-0.000364112,-0.984566,0.00138706,0.0384919,1889,1023,23.7595,-2.53547
672,1,23.7423,2.58118,-6.31273e-05,0.000956629,-0.000140092,0.000975524,-8.20228e-05,-1.43673,0.000679343,0.0409656,1896,1023,23.7423,-2.5812
679,1,23.5222,2.42255,-0.000818697,0.000657227,0.00135675,0.00146372,-0.00162519,1.03448,0.0017842,0.0386684,1903,1023,23.5222,-2.42255
686,1,23.6711,2.43768,-0.00153451,0.000394828,0.0027844,0.00237693,-0.00351661,0.952155,0.00342378,0.0370944,1910,1023,23.6712,-2.43769
693,1,23.7625,2.58441,-0.00213815,0.000140425,0.00403754,0.00319634,-0.00519407,0.92291,0.00488976,0.0336737,1917,1023,23.7624,-2.58439
700,1,23.7722,2.68799,-0.0026123,-9.12896e-05,0.00497801,0.00378332,-0.00648692,0.909399,0.00599762,0.0285587,1924,1023,23.7722,-2.68798
707,1,23.7283,2.7038,-0.00306417,-0.000295943,0.00559805,0.00408657,-0.00744669,0.906592,0.00675227,0.0258408,1931,1023,23.7282,-2.7038
714,1,23.7008,2.62207,-0.00349626,-0.000303402,0.00605747,0.00436447,-0.00816413,0.914242,0.00734344,0.0280051,1938,1023,23.7008,-2.62208
721,1,23.7162,3.14618,-0.0038547,-0.000204034,0.00625218,0.00448382,-0.00854256,0.927426,0.0076415,0.0346313,1945,1023,23.7162,-3.14616
728,1,23.3457,3.93982,-0.00395764,1.32138e-05,0.0061335,0.00447463,-0.00841905,0.941927,0.00755939,0.0284201,1952,1023,23.3457,-3.93982
735,1,23.2413,4.14948,-0.00406517,0.000443519,0.00553969,0.00417,-0.00779165,0.978637,0.00701078,0.0165842,1959,1023,23.2413,-4.14949
742,1,23.2592,4.15411,-0.00410733,0.000923873,0.00423845,0.00333703,-0.00652049,1.05322,0.00578933,0.0169848,1966,1023,23.2591,-4.15411
749,1,23.2534,4.18878,-0.00346879,0.00347767,0.00240313,0.00422799,-0.00421911,1.26816,0.00487694,0.0147795,1973,1023,23.2534,-4.18878
756,1,23.2567,4.21399,-0.00257947,0.00613708,0.000241528,0.00614376,-0.00258616,1.54312,0.00517785,0.0129605,1980,1023,23.2567,-4.21399
763,1,23.2651,4.24188,-0.00169943,0.00952542,-0.00198707,0.00986679,-0.0020408,-1.40066,0.00735315,0.0139982,1987,1023,23.2651,-4.24186
770,1,23.276,4.27124,-0.000288986,0.0142517,-0.0049185,0.0157591,-0.00179643,-1.2734,0.0111532,0.0134855,1994,1023,23.276,-4.27125
777,1,23.2257,4.26654,0.00163033,0.0203648,-0.00804247,0.0233436,-0.00134855,-1.21607,0.0160309,0.0142302,2001,1023,23.2258,-4.26654
784,1,23.1672,4.24225,0.00367657,0.0276321,-0.0108682,0.0318279,-0.000519264,-1.20236,0.0213938,0.033014,2008,1023,23.1673,-4.24224
791,1,23.1644,3.7901,0.00613174,0.0360783,-0.0136943,0.0413962,0.000813803,-1.20039,0.0273302,0.043818,2015,1023,23.1644,-3.79013
798,1,23.3522,3.25653,0.00929816,0.0457444,-0.016518,0.0521165,0.00292603,-1.20262,0.0338112,0.0476582,2022,1023,23.3521,-3.25654
805,1,23.6943,2.31213,0.0131381,0.0563656,-0.0190102,0.0635362,0.00596749,-1.2101,0.0405151,0.0462539,2029,1023,23.6943,-2.31211
812,1,24.1116,1.31995,0,0,0,0,0,0,0,-1,2036,1023,24.1117,-1.31995
-700,-6,0,0,0,0,0,0,0,0,0,-1,524,1030,0,0
-693,-6,-18.1572,1.61243,0,0,0,0,0,0,0,-1,531,1030,-18.1572,-1.61238
-686,-6,-17.0511,2.93616,0,0,0,0,0,0,0,-1,538,1030,-17.0511,-2.93617
-679,-6,-16.272,1.49268,0,0,0,0,0,0,0,-1,545,1030,-16.272,-1.49264
-672,-6,-16.0469,1.54211,0,0,0,0,0,0,0,-1,552,1030,-16.0469,-1.54214
-665,-6,-16.0187,1.62927,0.0213181,0.0196109,-0.01138,0.0318765,0.00905256,-0.747963,0.0189677,0.0480666,559,1030,-16.0187,-1.62928
-658,-6,-16.004,1.75085,0.014197,0.0153771,-0.00752641,0.0223366,0.00723755,-0.824519,0.0131596,0.0390385,566,1030,-16.004,-1.75084
-651,-6,-16.1129,1.77661,0.00895229,0.01161,-0.00469831,0.0151638,0.00539854,-0.923218,0.00887499,0.0348968,573,1030,-16.1129,-1.77659
-644,-6,-16.0719,1.7561,0.00477084,0.00861604,-0.00292809,0.0101963,0.00319057,-1.0759,0.00602264,0.0379029,580,1030,-16.0719,-1.75606
-637,-6,-16.1355,1.83044,0.00160626,0.00597704,-0.00224183,0.00692243,0.000660878,-1.17172,0.00441119,0.0227441,587,1030,-16.1355,-1.83045
-630,-6,-16.181,1.79187,-0.000962452,0.003509,-0.00206329,0.00431558,-0.00176903,-1.19814,0.00361405,0.0152824,594,1030,-16.181,-1.79193
-623,-6,-16.1672,1.77991,-0.000559503,0.00106158,-0.00255745,0.00293386,-0.00243179,-0.938857,0.00310238,0.0138759,601,1030,-16.1672,-1.77992
-616,-6,-16.1505,1.77075,0.000103706,0.000156386,-0.00374588,0.00387602,-0.00361593,-0.788914,0.00432634,0.0137843,608,1030,-16.1504,-1.77072
-609,-6,-16.1165,1.76587,0.000267526,-0.000259963,-0.00508668,0.00509729,-0.00508973,-0.759496,0.00588148,0.0146787,615,1030,-16.1165,-1.7659
-602,-6,-16.1271,1.78345,0.000184457,-0.000415249,-0.00629658,0.00618832,-0.00641911,-0.761605,0.00727931,0.012337,622,1030,-16.1272,-1.78343
-595,-6,-16.0521,1.77966,0,0,0,0,0,0,0,-1,629,1030,-16.0521,-1.7797
-588,-6,-16.0844,1.26294,0.000669789,-0.00052016,-0.00732179,0.00742073,-0.0072711,-0.744857,0.00848248,0.0181031,636,1030,-16.0844,-1.26294
-581,-6,-16.1127,0.86499,0.001141,-0.000691364,-0.00725686,0.00753929,-0.00708965,-0.722605,0.00844735,0.0233392,643,1030,-16.1127,-0.864964
-574,-6,-16.0954,0.804932,0.00152689,-0.000548505,-0.00691829,0.00748487,-0.00650648,-0.710956,0.00808449,0.0321692,650,1030,-16.0954,-0.804913
-567,-6,-16.0797,0.71875,0.00195863,-0.000291963,-0.00610673,0.00704288,-0.00537622,-0.694285,0.00719166,0.0416192,657,1030,-16.0797,-0.718691
-560,-6,-16.014,0.720215,0.00253453,1.42787e-05,-0.00492559,0.00635863,-0.00380983,-0.660168,0.00593192,0.0431716,664,1030,-16.014,-0.720195
-553,-6,-15.8908,0.684814,0.00325521,0.000280566,-0.00347759,0.00555018,-0.00201441,-0.583326,0.00452365,0.0417255,671,1030,-15.8908,-0.684819
-546,-6,-15.9388,0.537354,0.0040906,0.000379395,-0.00186929,0.00486892,-0.000398919,-0.394537,0.00338676,0.0408868,678,1030,-15.9388,-0.537317
-539,-6,-16.0512,0.810425,0.0050279,9.32177e-05,-0.000715555,0.00512956,-8.44733e-06,-0.141134,0.00342253,0.0410845,685,1030,-16.0512,-0.810404
-532,-6,-16.1615,0.858276,0.00592205,-0.000509558,-0.00128267,0.00616842,-0.000755928,-0.189764,0.00438602,0.0449409,692,1030,-16.1615,-0.858247
-525,-6,0,0,0,0,0,0,0,0,0,-1,699,1030,0,0
-518,-6,0,0,0,0,0,0,0,0,0,-1,706,1030,0,0
-511,-6,0,0,0,0,0,0,0,0,0,-1,713,1030,0,0
-504,-6,0,0,0,0,0,0,0,0,0,-1,720,1030,0,0
-497,-6,0,0,0,0,0,0,0,0,0,-1,727,1030,0,0
-490,-6,0,0,0,0,0,0,0,0,0,-1,734,1030,0,0
-483,-6,0,0,0,0,0,0,0,0,0,-1,741,1030,0,0
-476,-6,0,0,0,0,0,0,0,0,0,-1,748,1030,0,0
-469,-6,0,0,0,0,0,0,0,0,0,-1,755,1030,0,0
-462,-6,0,0,0,0,0,0,0,0,0,-1,762,1030,0,0
-455,-6,0,0,0,0,0,0,0,0,0,-1,769,1030,0,0
-448,-6,0,0,0,0,0,0,0,0,0,-1,776,1030,0,0
-441,-6,0,0,0,0,0,0,0,0,0,-1,783,1030,0,0
-434,-6,0,0,0,0,0,0,0,0,0,-1,790,1030,0,0
-427,-6,0,0,0,0,0,0,0,0,0,-1,797,1030,0,0
-420,-6,0,0,0,0,0,0,0,0,0,-1,804,1030,0,0
-413,-6,0,0,0,0,0,0,0,0,0,-1,811,1030,0,0
-406,-6,0,0,0,0,0,0,0,0,0,-1,818,1030,0,0
-399,-6,0,0,0,0,0,0,0,0,0,-1,825,1030,0,0
-392,-6,0,0,0,0,0,0,0,0,0,-1,832,1030,0,0
-385,-6,0,0,0,0,0,0,0,0,0,-1,839,1030,0,0
-378,-6,0,0,0,0,0,0,0,0,0,-1,846,1030,0,0
-371,-6,0,0,0,0,0,0,0,0,0,-1,853,1030,0,0
-364,-6,0,0,0,0,0,0,0,0,0,-1,860,1030,0,0
-357,-6,0,0,0,0,0,0,0,0,0,-1,867,1030,0,0
-350,-6,0,0,0,0,0,0,0,0,0,-1,874,1030,0,0
-343,-6,0,0,0,0,0,0,0,0,0,-1,881,1030,0,0
-336,-6,0,0,0,0,0,0,0,0,0,-1,888,1030,0,0
-329,-6,0,0,0,0,0,0,0,0,0,-1,895,1030,0,0
-322,-6,0,0,0,0,0,0,0,0,0,-1,902,1030,0,0
-315,-6,0,0,0,0,0,0,0,0,0,-1,909,1030,0,0
-308,-6,0,0,0,0,0,0,0,0,0,-1,916,1030,0,0
-301,-6,0,0,0,0,0,0,0,0,0,-1,923,1030,0,0
-294,-6,0,0,0,0,0,0,0,0,0,-1,930,1030,0,0
-287,-6,0,0,0,0,0,0,0,0,0,-1,937,1030,0,0
-280,-6,0,0,0,0,0,0,0,0,0,-1,944,1030,0,0
-273,-6,0,0,0,0,0,0,0,0,0,-1,951,1030,0,0
-266,-6,0,0,0,0,0,0,0,0,0,-1,958,1030,0,0
-259,-6,0,0,0,0,0,0,0,0,0,-1,965,1030,0,0
-252,-6,0,0,0,0,0,0,0,0,0,-1,972,1030,0,0
-245,-6,0,0,0,0,0,0,0,0,0,-1,979,1030,0,0
-238,-6,0,0,0,0,0,0,0,0,0,-1,986,1030,0,0
-231,-6,0,0,0,0,0,0,0,0,0,-1,993,1030,0,0
-224,-6,0,0,0,0,0,0,0,0,0,-1,1000,1030,0,0
-217,-6,0,0,0,0,0,0,0,0,0,-1,1007,1030,0,0
-210,-6,0,0,0,0,0,0,0,0,0,-1,1014,1030,0,0
-203,-6,0,0,0,0,0,0,0,0,0,-1,1021,1030,0,0
-196,-6,0,0,0,0,0,0,0,0,0,-1,1028,1030,0,0
-189,-6,0,0,0,0,0,0,0,0,0,-1,1035,1030,0,0
-182,-6,0,0,0,0,0,0,0,0,0,-1,1042,1030,0,0
-175,-6,0,0,0,0,0,0,0,0,0,-1,1049,1030,0,0
-168,-6,0,0,0,0,0,0,0,0,0,-1,1056,1030,0,0
-161,-6,0,0,0,0,0,0,0,0,0,-1,1063,1030,0,0
-154,-6,0,0,0,0,0,0,0,0,0,-1,1070,1030,0,0
-147,-6,0,0,0,0,0,0,0,0,0,-1,1077,1030,0,0
-140,-6,0,0,0,0,0,0,0,0,0,-1,1084,1030,0,0
-133,-6,0,0,0,0,0,0,0,0,0,-1,1091,1030,0,0
-126,-6,0,0,0,0,0,0,0,0,0,-1,1098,1030,0,0
-119,-6,0,0,0,0,0,0,0,0,0,-1,1105,1030,0,0
-112,-6,0,0,0,0,0,0,0,0,0,-1,1112,1030,0,0
-105,-6,0,0,0,0,0,0,0,0,0,-1,1119,1030,0,0
-98,-6,0,0,0,0,0,0,0,0,0,-1,1126,1030,0,0
-91,-6,0,0,0,0,0,0,0,0,0,-1,1133,1030,0,0
-84,-6,0,0,0,0,0,0,0,0,0,-1,1140,1030,0,0
-77,-6,0,0,0,0,0,0,0,0,0,-1,1147,1030,0,0
-70,-6,0,0,0,0,0,0,0,0,0,-1,1154,1030,0,0
-63,-6,0,0,0,0,0,0,0,0,0,-1,1161,1030,0,0
-56,-6,0,0,0,0,0,0,0,0,0,-1,1168,1030,0,0
-49,-6,0,0,0,0,0,0,0,0,0,-1,1175,1030,0,0
-42,-6,0,0,0,0,0,0,0,0,0,-1,1182,1030,0,0
-35,-6,0,0,0,0,0,0,0,0,0,-1,1189,1030,0,0
-28,-6,0,0,0,0,0,0,0,0,0,-1,1196,1030,0,0
-21,-6,0,0,0,0,0,0,0,0,0,-1,1203,1030,0,0
-14,-6,0,0,0,0,0,0,0,0,0,-1,1210,1030,0,0
-7,-6,0,0,0,0,0,0,0,0,0,-1,1217,1030,0,0
0,-6,0,0,0,0,0,0,0,0,0,-1,1224,1030,0,0
7,-6,0,0,0,0,0,0,0,0,0,-1,1231,1030,0,0
14,-6,0,0,0,0,0,0,0,0,0,-1,1238,1030,0,0
21,-6,0,0,0,0,0,0,0,0,0,-1,1245,1030,0,0
28,-6,0,0,0,0,0,0,0,0,0,-1,1252,1030,0,0
35,-6,0,0,0,0,0,0,0,0,0,-1,1259,1030,0,0
42,-6,0,0,0,0,0,0,0,0,0,-1,1266,1030,0,0
49,-6,0,0,0,0,0,0,0,0,0,-1,1273,1030,0,0
56,-6,0,0,0,0,0,0,0,0,0,-1,1280,1030,0,0
63,-6,0,0,0,0,0,0,0,0,0,-1,1287,1030,0,0
70,-6,0,0,0,0,0,0,0,0,0,-1,1294,1030,0,0
77,-6,0,0,0,0,0,0,0,0,0,-1,1301,1030,0,0
84,-6,0,0,0,0,0,0,0,0,0,-1,1308,1030,0,0
91,-6,0,0,0,0,0,0,0,0,0,-1,1315,1030,0,0
98,-6,0,0,0,0,0,0,0,0,0,-1,1322,1030,0,0
105,-6,0,0,0,0,0,0,0,0,0,-1,1329,1030,0,0
112,-6,0,0,0,0,0,0,0,0,0,-1,1336,1030,0,0
119,-6,0,0,0,0,0,0,0,0,0,-1,1343,1030,0,0
126,-6,0,0,0,0,0,0,0,0,0,-1,1350,1030,0,0
133,-6,0,0,0,0,0,0,0,0,0,-1,1357,1030,0,0
140,-6,0,0,0,0,0,0,0,0,0,-1,1364,1030,0,0
147,-6,0,0,0,0,0,0,0,0,0,-1,1371,1030,0,0
154,-6,0,0,0,0,0,0,0,0,0,-1,1378,1030,0,0
161,-6,0,0,0,0,0,0,0,0,0,-1,1385,1030,0,0
168,-6,0,0,0,0,0,0,0,0,0,-1,1392,1030,0,0
175,-6,0,0,0,0,0,0,0,0,0,-1,1399,1030,0,0
182,-6,0,0,0,0,0,0,0,0,0,-1,1406,1030,0,0
189,-6,0,0,0,0,0,0,0,0,0,-1,1413,1030,0,0
196,-6,0,0,0,0,0,0,0,0,0,-1,1420,1030,0,0
203,-6,0,0,0,0,0,0,0,0,0,-1,1427,1030,0,0
210,-6,0,0,0,0,0,0,0,0,0,-1,1434,1030,0,0
217,-6,0,0,0,0,0,0,0,0,0,-1,1441,1030,0,0
224,-6,0,0,0,0,0,0,0,0,0,-1,1448,1030,0,0
231,-6,0,0,0,0,0,0,0,0,0,-1,1455,1030,0,0
238,-6,0,0,0,0,0,0,0,0,0,-1,1462,1030,0,0
245,-6,0,0,0,0,0,0,0,0,0,-1,1469,1030,0,0
252,-6,0,0,0,0,0,0,0,0,0,-1,1476,1030,0,0
259,-6,0,0,0,0,0,0,0,0,0,-1,1483,1030,0,0
266,-6,0,0,0,0,0,0,0,0,0,-1,1490,1030,0,0
273,-6,0,0,0,0,0,0,0,0,0,-1,1497,1030,0,0
280,-6,0,0,0,0,0,0,0,0,0,-1,1504,1030,0,0
287,-6,0,0,0,0,0,0,0,0,0,-1,1511,1030,0,0
294,-6,0,0,0,0,0,0,0,0,0,-1,1518,1030,0,0
301,-6,0,0,0,0,0,0,0,0,0,-1,1525,1030,0,0
308,-6,0,0,0,0,0,0,0,0,0,-1,1532,1030,0,0
315,-6,0,0,0,0,0,0,0,0,0,-1,1539,1030,0,0
322,-6,0,0,0,0,0,0,0,0,0,-1,1546,1030,0,0
329,-6,0,0,0,0,0,0,0,0,0,-1,1553,1030,0,0
336,-6,0,0,0,0,0,0,0,0,0,-1,1560,1030,0,0
343,-6,0,0,0,0,0,0,0,0,0,-1,1567,1030,0,0
350,-6,0,0,0,0,0,0,0,0,0,-1,1574,1030,0,0
357,-6,0,0,0,0,0,0,0,0,0,-1,1581,1030,0,0
364,-6,0,0,0,0,0,0,0,0,0,-1,1588,1030,0,0
371,-6,0,0,0,0,0,0,0,0,0,-1,1595,1030,0,0
378,-6,0,0,0,0,0,0,0,0,0,-1,1602,1030,0,0
385,-6,0,0,0,0,0,0,0,0,0,-1,1609,1030,0,0
392,-6,0,0,0,0,0,0,0,0,0,-1,1616,1030,0,0
399,-6,0,0,0,0,0,0,0,0,0,-1,1623,1030,0,0
406,-6,0,0,0,0,0,0,0,0,0,-1,1630,1030,0,0
413,-6,0,0,0,0,0,0,0,0,0,-1,1637,1030,0,0
420,-6,0,0,0,0,0,0,0,0,0,-1,1644,1030,0,0
427,-6,0,0,0,0,0,0,0,0,0,-1,1651,1030,0,0
434,-6,0,0,0,0,0,0,0,0,0,-1,1658,1030,0,0
441,-6,0,0,0,0,0,0,0,0,0,-1,1665,1030,0,0
448,-6,0,0,0,0,0,0,0,0,0,-1,1672,1030,0,0
455,-6,0,0,0,0,0,0,0,0,0,-1,1679,1030,0,0
462,-6,0,0,0,0,0,0,0,0,0,-1,1686,1030,0,0
469,-6,0,0,0,0,0,0,0,0,0,-1,1693,1030,0,0
476,-6,0,0,0,0,0,0,0,0,0,-1,1700,1030,0,0
483,-6,0,0,0,0,0,0,0,0,0,-1,1707,1030,0,0
490,-6,0,0,0,0,0,0,0,0,0,-1,1714,1030,0,0
497,-6,0,0,0,0,0,0,0,0,0,-1,1721,1030,0,0
504,-6,0,0,0,0,0,0,0,0,0,-1,1728,1030,0,0
511,-6,0,0,0,0,0,0,0,0,0,-1,1735,1030,0,0
518,-6,0,0,0,0,0,0,0,0,0,-1,1742,1030,0,0
525,-6,0,0,0,0,0,0,0,0,0,-1,1749,1030,0,0
532,-6,0,0,0,0,0,0,0,0,0,-1,1756,1030,0,0
539,-6,0,0,0,0,0,0,0,0,0,-1,1763,1030,0,0
546,-6,0,0,0,0,0,0,0,0,0,-1,1770,1030,0,0
553,-6,0,0,0,0,0,0,0,0,0,-1,1777,1030,0,0
560,-6,0,0,0,0,0,0,0,0,0,-1,1784,1030,0,0
567,-6,0,0,0,0,0,0,0,0,0,-1,1791,1030,0,0
574,-6,0,0,0,0,0,0,0,0,0,-1,1798,1030,0,0
581,-6,0,0,0,0,0,0,0,0,0,-1,1805,1030,0,0
588,-6,0,0,0,0,0,0,0,0,0,-1,1812,1030,0,0
595,-6,0,0,0,0,0,0,0,0,0,-1,1819,1030,0,0
602,-6,0,0,0,0,0,0,0,0,0,-1,1826,1030,0,0
609,-6,0,0,0,0,0,0,0,0,0,-1,1833,1030,0,0
616,-6,0,0,0,0,0,0,0,0,0,-1,1840,1030,0,0
623,-6,0,0,0,0,0,0,0,0,0,-1,1847,1030,0,0
630,-6,0,0,0,0,0,0,0,0,0,-1,1854,1030,0,0
637,-6,0,0,0,0,0,0,0,0,0,-1,1861,1030,0,0
644,-6,0,0,0,0,0,0,0,0,0,-1,1868,1030,0,0
651,-6,23.7253,2.60974,0.00188615,0.0023753,-0.00112458,0.00328159,0.000979863,-0.892472,0.00194519,0.0361941,1875,1030,23.7253,-2.6097
658,-6,23.855,2.70142,0.000942939,0.00131025,-0.0011399,0.0022812,-2.80091e-05,-0.86527,0.00153022,0.0349581,1882,1030,23.855,-2.70144
665,-6,23.9813,2.6051,0.000338011,0.000633236,-0.000877488,0.00137544,-0.000404194,-0.868729,0.00107727,0.0409672,1889,1030,23.9813,-2.60505
672,-6,23.954,2.63062,-0.000141213,0.000345313,-7.22284e-05,0.000355809,-0.000151709,-1.42648,0.00030081,0.0446348,1896,1030,23.954,-2.63057
679,-6,23.6707,2.66467,-0.0009544,4.18619e-05,0.00142907,0.00105713,-0.00196967,0.953098,0.0017738,0.0434752,1903,1030,23.6707,-2.6647
686,-6,23.7483,2.62549,-0.00170393,-0.000191854,0.00290665,0.00205547,-0.00395126,0.912632,0.00352509,0.0375884,1910,1030,23.7482,-2.62546
693,-6,23.75,2.64319,-0.0023179,-0.000398166,0.0042245,0.00297414,-0.00569021,0.897109,0.00508363,0.032536,1917,1030,23.75,-2.64324
700,-6,23.7185,2.68323,-0.00279886,-0.000582161,0.00523446,0.00366,-0.00704102,0.889728,0.00628019,0.0283992,1924,1030,23.7185,-2.68322
707,-6,23.6937,2.71851,-0.00325397,-0.000761209,0.00590199,0.00402457,-0.00803975,0.889459,0.00709276,0.0281777,1931,1030,23.6937,-2.71848
714,-6,23.642,2.11279,0,0,0,0,0,0,0,-1,1938,1030,23.6419,-2.11277
721,-6,23.5813,3.22559,-0.00396632,-0.000555597,0.00662479,0.00457981,-0.00910172,0.911374,0.00804156,0.0431612,1945,1030,23.5812,-3.22555
728,-6,23.2913,4.11035,-0.00402342,-0.00029398,0.00650702,0.00461023,-0.00892764,0.924944,0.00794748,0.0356913,1952,1030,23.2913,-4.1104
735,-6,23.2733,4.15637,-0.00406478,0.000124565,0.00586765,0.00426022,-0.00820043,0.956841,0.00731307,0.0171379,1959,1030,23.2733,-4.15632
742,-6,23.2975,4.16907,-0.00401603,0.000585871,0.00449207,0.00333201,-0.00676217,1.02209,0.00593898,0.0142759,1966,1030,23.2975,-4.16913
749,-6,23.2849,4.20947,-0.00329045,0.00313566,0.00243502,0.00395411,-0.0041089,1.24654,0.00465547,0.0128819,1973,1030,23.2849,-4.20951
756,-6,23.304,4.20532,-0.00229977,0.0057021,3.83628e-05,0.00570228,-0.00229996,1.566,0.00475725,0.013423,1980,1030,23.3039,-4.20534
763,-6,23.2844,4.19751,-0.00129785,0.0088806,-0.00246033,0.00944411,-0.00186136,-1.34564,0.00699952,0.01297,1987,1030,23.2844,-4.19748
770,-6,23.277,4.22839,0.000246968,0.0133535,-0.00576647,0.0155293,-0.00192889,-1.20999,0.0110521,0.011547,1994,1030,23.277,-4.22844
777,-6,23.225,4.25061,0.00232326,0.0191412,-0.00936446,0.0233181,-0.00185363,-1.15124,0.0161987,0.0137155,2001,1030,23.225,-4.25067
784,-6,23.1997,4.23438,0.00454068,0.026039,-0.0127345,0.0319546,-0.00137488,-1.13593,0.0217758,0.0335795,2008,1030,23.1998,-4.23441
791,-6,22.9956,3.96741,0.00715602,0.034016,-0.0161723,0.0416076,-0.000435617,-1.13191,0.0278847,0.0448758,2015,1030,22.9957,-3.9674
798,-6,23.9001,1.23279,0.0104698,0.0431062,-0.0196755,0.0523499,0.00122606,-1.13159,0.0344985,0.0481664,2022,1030,23.9002,-1.23282
805,-6,24.3782,0.224609,0.0144352,0.0530078,-0.0228545,0.0636262,0.00381687,-1.13586,0.0412042,0.0494136,2029,1030,24.3782,-0.224562
812,-6,24.7122,-1.37,0,0,0,0,0,0,0,-1,2036,1030,24.7123,1.36998
-700,-13,0,0,0,0,0,0,0,0,0,-1,524,1037,0,0
-693,-13,-19.5338,1.6106,0,0,0,0,0,0,0,-1,531,1037,-19.5338,-1.61056
-686,-13,-17.6497,2.9408,0.0642238,0.030177,-0.0272389,0.0793213,0.0150794,-0.506111,0.0486399,0.0420068,538,1037,-17.6497,-2.94078
-679,-13,-15.9291,1.27551,0,0,0,0,0,0,0,-1,545,1037,-15.9291,-1.27555
-672,-13,-15.8922,1.70752,0,0,0,0,0,0,0,-1,552,1037,-15.8922,-1.70757
-665,-13,-15.9516,1.80225,0.0257129,0.0182063,-0.0112229,0.0337935,0.0101257,-0.624028,0.0200261,0.0478415,559,1037,-15.9516,-1.80221
-658,-13,-16.0782,1.88757,0.0174302,0.0143882,-0.00770139,0.0237593,0.00805905,-0.687905,0.0139519,0.0465639,566,1037,-16.0783,-1.88759
-651,-13,-16.2067,1.88635,0.0111832,0.0109471,-0.00503828,0.0161049,0.00602553,-0.773685,0.00939582,0.0395087,573,1037,-16.2067,-1.88637
-644,-13,-16.0714,1.70715,0.00607384,0.00816556,-0.00330019,0.0105816,0.00365776,-0.938847,0.00620556,0.0290719,580,1037,-16.0713,-1.70718
-637,-13,-16.121,1.71729,0.00212725,0.00571815,-0.00269438,0.00716049,0.0006849,-1.0793,0.00456253,0.020102,587,1037,-16.121,-1.71733
-630,-13,-16.1556,1.74597,-0.00103016,0.0033501,-0.00248317,0.00447098,-0.00215105,-1.14679,0.00390065,0.0132992,594,1037,-16.1556,-1.74595
-623,-13,-16.1331,1.77759,-0.000769038,0.000841474,-0.00301305,0.00315501,-0.00308258,-0.915975,0.00360136,0.0118025,601,1037,-16.1331,-1.77756
-616,-13,-16.1027,1.77576,-0.00011296,-4.6512e-05,-0.00422284,0.00414323,-0.00430271,-0.789332,0.00487656,0.0111337,608,1037,-16.1026,-1.77572
-609,-13,-16.0822,1.73682,0.000101883,-0.000407233,-0.00551943,0.00537262,-0.00567797,-0.762354,0.00638087,0.0156499,615,1037,-16.0822,-1.73679
-602,-13,-16.1083,1.78406,0.000121726,-0.000649044,-0.00667235,0.00641981,-0.00694713,-0.756551,0.00771941,0.0110341,622,1037,-16.1083,-1.78402
-595,-13,-16.0773,1.79517,0.000282667,-0.000746416,-0.00743703,0.00722293,-0.00768668,-0.75086,0.00860946,0.0173914,629,1037,-16.0774,-1.7952
-588,-13,-16.0007,1.19153,0.000683441,-0.000858522,-0.00763207,0.00758337,-0.00775845,-0.73506,0.0088578,0.0194112,636,1037,-16.0008,-1.19147
-581,-13,-16.0888,0.826538,0.00115867,-0.00100133,-0.00752455,0.00768033,-0.00752299,-0.71412,0.0087778,0.0179528,643,1037,-16.0888,-0.826575
-574,-13,-16.0812,0.765015,0.00157188,-0.000852128,-0.00710989,0.00757233,-0.00685258,-0.700976,0.00833168,0.0340654,650,1037,-16.0812,-0.765067
-567,-13,-16.096,0.724731,0.00203009,-0.000562652,-0.00618139,0.00704958,-0.00558214,-0.682035,0.00730931,0.0426874,657,1037,-16.096,-0.724707
-560,-13,-15.9737,0.716187,0.00261802,-0.000210983,-0.00482085,0.0062276,-0.00382057,-0.642697,0.00585653,0.0441654,664,1037,-15.9737,-0.716182
-553,-13,-15.8731,0.723267,0.00331583,0.000106113,-0.00312208,0.00522137,-0.00179943,-0.547992,0.0042109,0.0435419,671,1037,-15.8731,-0.723213
-546,-13,-16.3627,1.03601,0,0,0,0,0,0,0,-1,678,1037,-16.3627,-1.03606
-539,-13,-16.1381,1.15674,0.00483115,5.06596e-06,0.000335991,0.00485443,-1.82134e-05,0.0691751,0.00324237,0.0400271,685,1037,-16.1381,-1.1567
-532,-13,-16.049,1.19885,0.00543954,-0.000698006,4.60356e-08,0.00543954,-0.000698006,7.50066e-06,0.00388001,0.0433662,692,1037,-16.049,-1.19886
-525,-13,0,0,0,0,0,0,0,0,0,-1,699,1037,0,0
-518,-13,0,0,0,0,0,0,0,0,0,-1,706,1037,0,0
-511,-13,0,0,0,0,0,0,0,0,0,-1,713,1037,0,0
-504,-13,0,0,0,0,0,0,0,0,0,-1,720,1037,0,0
-497,-13,0,0,0,0,0,0,0,0,0,-1,727,1037,0,0
-490,-13,0,0,0,0,0,0,0,0,0,-1,734,1037,0,0
-483,-13,0,0,0,0,0,0,0,0,0,-1,741,1037,0,0
-476,-13,0,0,0,0,0,0,0,0,0,-1,748,1037,0,0
-469,-13,0,0,0,0,0,0,0,0,0,-1,755,1037,0,0
-462,-13,0,0,0,0,0,0,0,0,0,-1,762,1037,0,0
-455,-13,0,0,0,0,0,0,0,0,0,-1,769,1037,0,0
-448,-13,0,0,0,0,0,0,0,0,0,-1,776,1037,0,0
-441,-13,0,0,0,0,0,0,0,0,0,-1,783,1037,0,0
-434,-13,0,0,0,0,0,0,0,0,0,-1,790,1037,0,0
-427,-13,0,0,0,0,0,0,0,0,0,-1,797,1037,0,0
-420,-13,0,0,0,0,0,0,0,0,0,-1,804,1037,0,0
-413,-13,0,0,0,0,0,0,0,0,0,-1,811,1037,0,0
-406,-13,0,0,0,0,0,0,0,0,0,-1,818,1037,0,0
-399,-13,0,0,0,0,0,0,0,0,0,-1,825,1037,0,0
-392,-13,0,0,0,0,0,0,0,0,0,-1,832,1037,0,0
-385,-13,0,0,0,0,0,0,0,0,0,-1,839,1037,0,0
-378,-13,0,0,0,0,0,0,0,0,0,-1,846,1037,0,0
-371,-13,0,0,0,0,0,0,0,0,0,-1,853,1037,0,0
-364,-13,0,0,0,0,0,0,0,0,0,-1,860,1037,0,0
-357,-13,0,0,0,0,0,0,0,0,0,-1,867,1037,0,0
-350,-13,0,0,0,0,0,0,0,0,0,-1,874,1037,0,0
-343,-13,0,0,0,0,0,0,0,0,0,-1,881,1037,0,0
-336,-13,0,0,0,0,0,0,0,0,0,-1,888,1037,0,0
-329,-13,0,0,0,0,0,0,0,0,0,-1,895,1037,0,0
-322,-13,0,0,0,0,0,0,0,0,0,-1,902,1037,0,0
-315,-13,0,0,0,0,0,0,0,0,0,-1,909,1037,0,0
-308,-13,0,0,0,0,0,0,0,0,0,-1,916,1037,0,0
-301,-13,0,0,0,0,0,0,0,0,0,-1,923,1037,0,0
-294,-13,0,0,0,0,0,0,0,0,0,-1,930,1037,0,0
-287,-13,0,0,0,0,0,0,0,0,0,-1,937,1037,0,0
-280,-13,0,0,0,0,0,0,0,0,0,-1,944,1037,0,0
-273,-13,0,0,0,0,0,0,0,0,0,-1,951,1037,0,0
-266,-13,0,0,0,0,0,0,0,0,0,-1,958,1037,0,0
-259,-13,0,0,0,0,0,0,0,0,0,-1,965,1037,0,0
-252,-13,0,0,0,0,0,0,0,0,0,-1,972,1037,0,0
-245,-13,0,0,0,0,0,0,0,0,0,-1,979,1037,0,0
-238,-13,0,0,0,0,0,0,0,0,0,-1,986,1037,0,0
-231,-13,0,0,0,0,0,0,0,0,0,-1,993,1037,0,0
-224,-13,0,0,0,0,0,0,0,0,0,-1,1000,1037,0,0
-217,-13,0,0,0,0,0,0,0,0,0,-1,1007,1037,0,0
-210,-13,0,0,0,0,0,0,0,0,0,-1,1014,1037,0,0
-203,-13,0,0,0,0,0,0,0,0,0,-1,1021,1037,0,0
-196,-13,0,0,0,0,0,0,0,0,0,-1,1028,1037,0,0
-189,-13,0,0,0,0,0,0,0,0,0,-1,1035,1037,0,0
-182,-13,0,0,0,0,0,0,0,0,0,-1,1042,1037,0,0
-175,-13,0,0,0,0,0,0,0,0,0,-1,1049,1037,0,0
-168,-13,0,0,0,0,0,0,0,0,0,-1,1056,1037,0,0
-161,-13,0,0,0,0,0,0,0,0,0,-1,1063,1037,0,0
-154,-13,0,0,0,0,0,0,0,0,0,-1,1070,1037,0,0
-147,-13,0,0,0,0,0,0,0,0,0,-1,1077,1037,0,0
-140,-13,0,0,0,0,0,0,0,0,0,-1,1084,1037,0,0
-133,-13,0,0,0,0,0,0,0,0,0,-1,1091,1037,0,0
-126,-13,0,0,0,0,0,0,0,0,0,-1,1098,1037,0,0
-119,-13,0,0,0,0,0,0,0,0,0,-1,1105,1037,0,0
-112,-13,0,0,0,0,0,0,0,0,0,-1,1112,1037,0,0
-105,-13,0,0,0,0,0,0,0,0,0,-1,1119,1037,0,0
-98,-13,0,0,0,0,0,0,0,0,0,-1,1126,1037,0,0
-91,-13,0,0,0,0,0,0,0,0,0,-1,1133,1037,0,0
-84,-13,0,0,0,0,0,0,0,0,0,-1,1140,1037,0,0
-77,-13,0,0,0,0,0,0,0,0,0,-1,1147,1037,0,0
-70,-13,0,0,0,0,0,0,0,0,0,-1,1154,1037,0,0
-63,-13,0,0,0,0,0,0,0,0,0,-1,1161,1037,0,0
-56,-13,0,0,0,0,0,0,0,0,0,-1,1168,1037,0,0
-49,-13,0,0,0,0,0,0,0,0,0,-1,1175,1037,0,0
-42,-13,0,0,0,0,0,0,0,0,0,-1,1182,1037,0,0
-35,-13,0,0,0,0,0,0,0,0,0,-1,1189,1037,0,0
-28,-13,0,0,0,0,0,0,0,0,0,-1,1196,1037,0,0
-21,-13,0,0,0,0,0,0,0,0,0,-1,1203,1037,0,0
-14,-13,0,0,0,0,0,0,0,0,0,-1,1210,1037,0,0
-7,-13,0,0,0,0,0,0,0,0,0,-1,1217,1037,0,0
0,-13,0,0,0,0,0,0,0,0,0,-1,1224,1037,0,0
7,-13,0,0,0,0,0,0,0,0,0,-1,1231,1037,0,0
14,-13,0,0,0,0,0,0,0,0,0,-1,1238,1037,0,0
21,-13,0,0,0,0,0,0,0,0,0,-1,1245,1037,0,0
28,-13,0,0,0,0,0,0,0,0,0,-1,1252,1037,0,0
35,-13,0,0,0,0,0,0,0,0,0,-1,1259,1037,0,0
42,-13,0,0,0,0,0,0,0,0,0,-1,1266,1037,0,0
49,-13,0,0,0,0,0,0,0,0,0,-1,1273,1037,0,0
56,-13,0,0,0,0,0,0,0,0,0,-1,1280,1037,0,0
63,-13,0,0,0,0,0,0,0,0,0,-1,1287,1037,0,0
70,-13,0,0,0,0,0,0,0,0,0,-1,1294,1037,0,0
77,-13,0,0,0,0,0,0,0,0,0,-1,1301,1037,0,0
84,-13,0,0,0,0,0,0,0,0,0,-1,1308,1037,0,0
91,-13,0,0,0,0,0,0,0,0,0,-1,1315,1037,0,0
98,-13,0,0,0,0,0,0,0,0,0,-1,1322,1037,0,0
105,-13,0,0,0,0,0,0,0,0,0,-1,1329,1037,0,0
112,-13,0,0,0,0,0,0,0,0,0,-1,1336,1037,0,0
119,-13,0,0,0,0,0,0,0,0,0,-1,1343,1037,0,0
126,-13,0,0,0,0,0,0,0,0,0,-1,1350,1037,0,0
133,-13,0,0,0,0,0,0,0,0,0,-1,1357,1037,0,0
140,-13,0,0,0,0,0,0,0,0,0,-1,1364,1037,0,0
147,-13,0,0,0,0,0,0,0,0,0,-1,1371,1037,0,0
154,-13,0,0,0,0,0,0,0,0,0,-1,1378,1037,0,0
161,-13,0,0,0,0,0,0,0,0,0,-1,1385,1037,0,0
168,-13,0,0,0,0,0,0,0,0,0,-1,1392,1037,0,0
175,-13,0,0,0,0,0,0,0,0,0,-1,1399,1037,0,0
182,-13,0,0,0,0,0,0,0,0,0,-1,1406,1037,0,0
189,-13,0,0,0,0,0,0,0,0,0,-1,1413,1037,0,0
196,-13,0,0,0,0,0,0,0,0,0,-1,1420,1037,0,0
203,-13,0,0,0,0,0,0,0,0,0,-1,1427,1037,0,0
210,-13,0,0,0,0,0,0,0,0,0,-1,1434,1037,0,0
217,-13,0,0,0,0,0,0,0,0,0,-1,1441,1037,0,0
224,-13,0,0,0,0,0,0,0,0,0,-1,1448,1037,0,0
231,-13,0,0,0,0,0,0,0,0,0,-1,1455,1037,0,0
238,-13,0,0,0,0,0,0,0,0,0,-1,1462,1037,0,0
245,-13,0,0,0,0,0,0,0,0,0,-1,1469,1037,0,0
252,-13,0,0,0,0,0,0,0,0,0,-1,1476,1037,0,0
259,-13,0,0,0,0,0,0,0,0,0,-1,1483,1037,0,0
266,-13,0,0,0,0,0,0,0,0,0,-1,1490,1037,0,0
273,-13,0,0,0,0,0,0,0,0,0,-1,1497,1037,0,0
280,-13,0,0,0,0,0,0,0,0,0,-1,1504,1037,0,0
287,-13,0,0,0,0,0,0,0,0,0,-1,1511,1037,0,0
294,-13,0,0,0,0,0,0,0,0,0,-1,1518,1037,0,0
301,-13,0,0,0,0,0,0,0,0,0,-1,1525,1037,0,0
308,-13,0,0,0,0,0,0,0,0,0,-1,1532,1037,0,0
315,-13,0,0,0,0,0,0,0,0,0,-1,1539,1037,0,0
322,-13,0,0,0,0,0,0,0,0,0,-1,1546,1037,0,0
329,-13,0,0,0,0,0,0,0,0,0,-1,1553,1037,0,0
336,-13,0,0,0,0,0,0,0,0,0,-1,1560,1037,0,0
343,-13,0,0,0,0,0,0,0,0,0,-1,1567,1037,0,0
350,-13,0,0,0,0,0,0,0,0,0,-1,1574,1037,0,0
357,-13,0,0,0,0,0,0,0,0,0,-1,1581,1037,0,0
364,-13,0,0,0,0,0,0,0,0,0,-1,1588,1037,0,0
371,-13,0,0,0,0,0,0,0,0,0,-1,1595,1037,0,0
378,-13,0,0,0,0,0,0,0,0,0,-1,1602,1037,0,0
385,-13,0,0,0,0,0,0,0,0,0,-1,1609,1037,0,0
392,-13,0,0,0,0,0,0,0,0,0,-1,1616,1037,0,0
399,-13,0,0,0,0,0,0,0,0,0,-1,1623,1037,0,0
406,-13,0,0,0,0,0,0,0,0,0,-1,1630,1037,0,0
413,-13,0,0,0,0,0,0,0,0,0,-1,1637,1037,0,0
420,-13,0,0,0,0,0,0,0,0,0,-1,1644,1037,0,0
427,-13,0,0,0,0,0,0,0,0,0,-1,1651,1037,0,0
434,-13,0,0,0,0,0,0,0,0,0,-1,1658,1037,0,0
441,-13,0,0,0,0,0,0,0,0,0,-1,1665,1037,0,0
448,-13,0,0,0,0,0,0,0,0,0,-1,1672,1037,0,0
455,-13,0,0,0,0,0,0,0,0,0,-1,1679,1037,0,0
462,-13,0,0,0,0,0,0,0,0,0,-1,1686,1037,0,0
469,-13,0,0,0,0,0,0,0,0,0,-1,1693,1037,0,0
476,-13,0,0,0,0,0,0,0,0,0,-1,1700,1037,0,0
483,-13,0,0,0,0,0,0,0,0,0,-1,1707,1037,0,0
490,-13,0,0,0,0,0,0,0,0,0,-1,1714,1037,0,0
497,-13,0,0,0,0,0,0,0,0,0,-1,1721,1037,0,0
504,-13,0,0,0,0,0,0,0,0,0,-1,1728,1037,0,0
511,-13,0,0,0,0,0,0,0,0,0,-1,1735,1037,0,0
518,-13,0,0,0,0,0,0,0,0,0,-1,1742,1037,0,0
525,-13,0,0,0,0,0,0,0,0,0,-1,1749,1037,0,0
532,-13,0,0,0,0,0,0,0,0,0,-1,1756,1037,0,0
539,-13,0,0,0,0,0,0,0,0,0,-1,1763,1037,0,0
546,-13,0,0,0,0,0,0,0,0,0,-1,1770,1037,0,0
553,-13,0,0,0,0,0,0,0,0,0,-1,1777,1037,0,0
560,-13,0,0,0,0,0,0,0,0,0,-1,1784,1037,0,0
567,-13,0,0,0,0,0,0,0,0,0,-1,1791,1037,0,0
574,-13,0,0,0,0,0,0,0,0,0,-1,1798,1037,0,0
581,-13,0,0,0,0,0,0,0,0,0,-1,1805,1037,0,0
588,-13,0,0,0,0,0,0,0,0,0,-1,1812,1037,0,0
595,-13,0,0,0,0,0,0,0,0,0,-1,1819,1037,0,0
602,-13,0,0,0,0,0,0,0,0,0,-1,1826,1037,0,0
609,-13,0,0,0,0,0,0,0,0,0,-1,1833,1037,0,0
616,-13,0,0,0,0,0,0,0,0,0,-1,1840,1037,0,0
623,-13,0,0,0,0,0,0,0,0,0,-1,1847,1037,0,0
630,-13,0,0,0,0,0,0,0,0,0,-1,1854,1037,0,0
637,-13,0,0,0,0,0,0,0,0,0,-1,1861,1037,0,0
644,-13,0,0,0,0,0,0,0,0,0,-1,1868,1037,0,0
651,-13,23.7507,2.67151,0.00183202,0.00286037,7.65852e-05,0.00286604,0.00182635,1.49687,0.00167536,0.0390763,1875,1037,23.7507,-2.67151
658,-13,23.7666,2.7074,0.000783471,0.00155465,-0.000302045,0.00165886,0.000679254,-1.23855,0.000962964,0.0421532,1882,1037,23.7667,-2.70738
665,-13,23.8987,2.70337,0.000117734,0.000707765,-0.000304042,0.000836395,-1.08965e-05,-1.17056,0.000561264,0.0435976,1889,1037,23.8987,-2.70342
672,-13,23.7997,2.677,-0.000348094,0.000318336,0.000274701,0.000416969,-0.000446727,1.22608,0.000498754,0.0409069,1896,1037,23.7997,-2.67699
679,-13,23.7776,2.70789,-0.00109767,-3.68366e-05,0.00161876,0.00113619,-0.0022707,0.94372,0.00200299,0.0404008,1903,1037,23.7776,-2.70788
686,-13,23.7311,2.8175,-0.0017847,-0.000300738,0.00300809,0.00205553,-0.00414097,0.906316,0.00364446,0.0391755,1910,1037,23.731,-2.81748
693,-13,23.6639,2.70544,-0.00233125,-0.000518178,0.004272,0.00294242,-0.00579184,0.889949,0.00513139,0.0367348,1917,1037,23.6639,-2.70545
700,-13,23.6752,2.61267,-0.00275295,-0.000694839,0.00526047,0.00363628,-0.00708407,0.881989,0.00629519,0.0354746,1924,1037,23.6752,-2.61262
707,-13,23.7034,2.73914,-0.00316335,-0.000897041,0.00589769,0.00397537,-0.00803576,0.880309,0.00706547,0.0320615,1931,1037,23.7034,-2.73917
714,-13,23.7129,2.81592,0,0,0,0,0,0,0,-1,1938,1037,23.7129,-2.81587
721,-13,23.5574,3.56287,-0.00377159,-0.00068659,0.00661519,0.00456356,-0.00902174,0.899939,0.00798301,0.0402992,1945,1037,23.5573,-3.56285
728,-13,23.3151,4.19312,-0.00380047,-0.000416146,0.00650977,0.0046178,-0.00883442,0.912555,0.0078928,0.0314551,1952,1037,23.315,-4.19306
735,-13,23.3096,4.19189,-0.00380453,-8.0996e-06,0.00587895,0.00427149,-0.00808412,0.941556,0.00724584,0.0171295,1959,1037,23.3096,-4.19194
742,-13,23.2946,4.21216,-0.00370197,0.00043638,0.00452618,0.00334393,-0.00660952,0.999793,0.00584881,0.0107476,1966,1037,23.2946,-4.21211
749,-13,23.3121,4.19678,-0.00296575,0.00289263,0.00240138,0.00375116,-0.00382427,1.22744,0.00437375,0.0154888,1973,1037,23.3121,-4.19673
756,-13,23.308,4.19641,-0.00197215,0.00533993,-5.17669e-05,0.0053403,-0.00197252,-1.56372,0.00436875,0.0135001,1980,1037,23.3079,-4.19641
763,-13,23.2957,4.19849,-0.00094063,0.00826309,-0.00267282,0.00898299,-0.00166052,-1.3077,0.00661204,0.0131743,1987,1037,23.2956,-4.19848
770,-13,23.2654,4.21228,0.000632342,0.0124399,-0.00612536,0.0150434,-0.00197121,-1.16889,0.0107465,0.0115893,1994,1037,23.2654,-4.21233
777,-13,23.2192,4.21423,0.00274652,0.0178338,-0.00995166,0.0227779,-0.00219751,-1.10971,0.0159682,0.0112088,2001,1037,23.2193,-4.21428
784,-13,23.2461,4.21692,0.00503247,0.0242345,-0.0136436,0.0313166,-0.00204966,-1.092,0.0215934,0.0256993,2008,1037,23.2461,-4.2169
791,-13,23.2748,4.20898,0.00772239,0.0315846,-0.0175118,0.0408434,-0.00153645,-1.08444,0.0277553,0.0448919,2015,1037,23.2748,-4.20899
798,-13,24.2504,-0.635986,0,0,0,0,0,0,0,-1,2022,1037,24.2504,0.636024
805,-13,23.8564,3.36584,0.0151229,0.0488182,-0.0253929,0.0624442,0.00149693,-1.07829,0.0411395,0.0458693,2029,1037,23.8564,-3.36584
812,-13,23.9175,3.1499,0.0194078,0.0576183,-0.0282586,0.0726241,0.00440206,-1.08265,0.0470174,0.0451856,2036,1037,23.9174,-3.14993
-700,-20,-19.3846,1.35242,0,0,0,0,0,0,0,-1,524,1044,-19.3846,-1.35238
-693,-20,-18.9914,1.88306,0.0922866,0.0317905,-0.0263645,0.102164,0.0219134,-0.358453,0.062107,0.0460153,531,1044,-18.9914,-1.88311
-686,-20,-17.8141,3.11499,0.0724208,0.0296426,-0.0215646,0.0814048,0.0206586,-0.394742,0.0488618,0.0457457,538,1044,-17.8141,-3.11501
-679,-20,-16.4794,4.61853,0,0,0,0,0,0,0,-1,545,1044,-16.4794,-4.6185
-672,-20,-16.1439,1.87378,0,0,0,0,0,0,0,-1,552,1044,-16.1439,-1.87379
-665,-20,-16.1399,1.96423,0.0295199,0.0186126,-0.0095953,0.0351031,0.0130294,-0.526981,0.0204898,0.049659,559,1044,-16.1399,-1.96424
-658,-20,-16.1077,2.02161,0.0202224,0.0148433,-0.0067324,0.0247826,0.0102831,-0.595362,0.0143771,0.0485157,566,1044,-16.1077,-2.02157
-651,-20,-16.0685,2.06934,0,0,0,0,0,0,0,-1,573,1044,-16.0685,-2.06929
-644,-20,-16.0179,1.63147,0.00710054,0.00849673,-0.00309611,0.0109725,0.0046248,-0.896281,0.00636093,0.0252645,580,1044,-16.0179,-1.63147
-637,-20,-16.0695,1.63818,0.00248469,0.00604914,-0.00273293,0.00752961,0.00100421,-1.07433,0.00472074,0.0167852,587,1044,-16.0694,-1.63813
-630,-20,-16.1112,1.71362,-0.00110521,0.0036368,-0.00260913,0.0047913,-0.00225971,-1.15421,0.00415745,0.0138757,594,1044,-16.1112,-1.71362
-623,-20,-16.088,1.75439,-0.00103735,0.000949429,-0.00330978,0.00341168,-0.0034996,-0.93119,0.00399033,0.0129894,601,1044,-16.088,-1.75445
-616,-20,-16.0652,1.77161,-0.00044805,-5.55475e-05,-0.00462838,0.00438074,-0.00488433,-0.806586,0.00535182,0.0127202,608,1044,-16.0652,-1.77165
-609,-20,-16.085,1.76245,-0.000217989,-0.000409571,-0.00591511,0.00560211,-0.00622967,-0.777302,0.00683428,0.0140505,615,1044,-16.085,-1.76246
-602,-20,-16.0864,1.80664,-0.000127512,-0.000723686,-0.0070394,0.00662011,-0.00747131,-0.764238,0.00814063,0.0104427,622,1044,-16.0864,-1.80668
-595,-20,-16.0938,1.80286,9.80086e-05,-0.000870169,-0.0077977,0.00742663,-0.00819879,-0.754397,0.00902501,0.0138311,629,1044,-16.0937,-1.80283
-588,-20,-16.0804,1.26135,0.000521645,-0.000974273,-0.00798607,0.0077947,-0.00824733,-0.738705,0.0092631,0.015551,636,1044,-16.0804,-1.2613
-581,-20,-16.0921,0.827515,0.00102021,-0.0010523,-0.00785282,0.00790485,-0.00793693,-0.719797,0.00914627,0.0221812,643,1044,-16.0921,-0.827458
-574,-20,-16.0975,0.7677,0.00149958,-0.000860273,-0.00736998,0.00778349,-0.00714419,-0.706022,0.00862113,0.037538,650,1044,-16.0975,-0.76767
-567,-20,-16.1846,0.854614,0.00204632,-0.000501843,-0.00633268,0.00723182,-0.00568734,-0.686128,0.00747663,0.0462125,657,1044,-16.1846,-0.854584
-560,-20,-16.1788,0.856201,0.00274133,-5.44575e-05,-0.0047983,0.00634121,-0.00365434,-0.643656,0.00584002,0.0455276,664,1044,-16.1788,-0.85617
-553,-20,-16.0865,0.752075,0.00355114,0.000386183,-0.00285038,0.00522887,-0.00129154,-0.531992,0.00398678,0.0430065,671,1044,-16.0865,-0.752045
-546,-20,-16.0953,0.750122,0.00439868,0.000686361,-0.000560871,0.00448156,0.000603473,-0.146722,0.00280825,0.0410149,678,1044,-16.0953,-0.750171
-539,-20,-15.9481,0.908691,0.00520828,0.000618813,0.00132915,0.00556542,0.000261671,0.262499,0.00362621,0.0417215,685,1044,-15.9481,-0.908707
-532,-20,-15.9086,1.13904,0.00577246,2.19975e-05,0.00127194,0.00604124,-0.00024678,0.208249,0.00411222,0.0430853,692,1044,-15.9086,-1.13906
-525,-20,0,0,0,0,0,0,0,0,0,-1,699,1044,0,0
-518,-20,0,0,0,0,0,0,0,0,0,-1,706,1044,0,0
-511,-20,0,0,0,0,0,0,0,0,0,-1,713,1044,0,0
-504,-20,0,0,0,0,0,0,0,0,0,-1,720,1044,0,0
-497,-20,0,0,0,0,0,0,0,0,0,-1,727,1044,0,0
-490,-20,0,0,0,0,0,0,0,0,0,-1,734,1044,0,0
-483,-20,0,0,0,0,0,0,0,0,0,-1,741,1044,0,0
-476,-20,0,0,0,0,0,0,0,0,0,-1,748,1044,0,0
-469,-20,0,0,0,0,0,0,0,0,0,-1,755,1044,0,0
-462,-20,0,0,0,0,0,0,0,0,0,-1,762,1044,0,0
-455,-20,0,0,0,0,0,0,0,0,0,-1,769,1044,0,0
-448,-20,0,0,0,0,0,0,0,0,0,-1,776,1044,0,0
-441,-20,0,0,0,0,0,0,0,0,0,-1,783,1044,0,0
-434,-20,0,0,0,0,0,0,0,0,0,-1,790,1044,0,0
-427,-20,0,0,0,0,0,0,0,0,0,-1,797,1044,0,0
-420,-20,0,0,0,0,0,0,0,0,0,-1,804,1044,0,0
-413,-20,0,0,0,0,0,0,0,0,0,-1,811,1044,0,0
-406,-20,0,0,0,0,0,0,0,0,0,-1,818,1044,0,0
-399,-20,0,0,0,0,0,0,0,0,0,-1,825,1044,0,0
-392,-20,0,0,0,0,0,0,0,0,0,-1,832,1044,0,0
-385,-20,0,0,0,0,0,0,0,0,0,-1,839,1044,0,0
-378,-20,0,0,0,0,0,0,0,0,0,-1,846,1044,0,0
-371,-20,0,0,0,0,0,0,0,0,0,-1,853,1044,0,0
-364,-20,0,0,0,0,0,0,0,0,0,-1,860,1044,0,0
-357,-20,0,0,0,0,0,0,0,0,0,-1,867,1044,0,0
-350,-20,0,0,0,0,0,0,0,0,0,-1,874,1044,0,0
-343,-20,0,0,0,0,0,0,0,0,0,-1,881,1044,0,0
-336,-20,0,0,0,0,0,0,0,0,0,-1,888,1044,0,0
-329,-20,0,0,0,0,0,0,0,0,0,-1,895,1044,0,0
-322,-20,0,0,0,0,0,0,0,0,0,-1,902,1044,0,0
-315,-20,0,0,0,0,0,0,0,0,0,-1,909,1044,0,0
-308,-20,0,0,0,0,0,0,0,0,0,-1,916,1044,0,0
-301,-20,0,0,0,0,0,0,0,0,0,-1,923,1044,0,0
-294,-20,0,0,0,0,0,0,0,0,0,-1,930,1044,0,0
-287,-20,0,0,0,0,0,0,0,0,0,-1,937,1044,0,0
-280,-20,0,0,0,0,0,0,0,0,0,-1,944,1044,0,0
-273,-20,0,0,0,0,0,0,0,0,0,-1,951,1044,0,0
-266,-20,0,0,0,0,0,0,0,0,0,-1,958,1044,0,0
-259,-20,0,0,0,0,0,0,0,0,0,-1,965,1044,0,0
-252,-20,0,0,0,0,0,0,0,0,0,-1,972,1044,0,0
-245,-20,0,0,0,0,0,0,0,0,0,-1,979,1044,0,0
-238,-20,0,0,0,0,0,0,0,0,0,-1,986,1044,0,0
-231,-20,0,0,0,0,0,0,0,0,0,-1,993,1044,0,0
-224,-20,0,0,0,0,0,0,0,0,0,-1,1000,1044,0,0
-217,-20,0,0,0,0,0,0,0,0,0,-1,1007,1044,0,0
-210,-20,0,0,0,0,0,0,0,0,0,-1,1014,1044,0,0
-203,-20,0,0,0,0,0,0,0,0,0,-1,1021,1044,0,0
-196,-20,0,0,0,0,0,0,0,0,0,-1,1028,1044,0,0
-189,-20,0,0,0,0,0,0,0,0,0,-1,1035,1044,0,0
-182,-20,0,0,0,0,0,0,0,0,0,-1,1042,1044,0,0
-175,-20,0,0,0,0,0,0,0,0,0,-1,1049,1044,0,0
-168,-20,0,0,0,0,0,0,0,0,0,-1,1056,1044,0,0
-161,-20,0,0,0,0,0,0,0,0,0,-1,1063,1044,0,0
-154,-20,0,0,0,0,0,0,0,0,0,-1,1070,1044,0,0
-147,-20,0,0,0,0,0,0,0,0,0,-1,1077,1044,0,0
-140,-20,0,0,0,0,0,0,0,0,0,-1,1084,1044,0,0
-133,-20,0,0,0,0,0,0,0,0,0,-1,1091,1044,0,0
-126,-20,0,0,0,0,0,0,0,0,0,-1,1098,1044,0,0
-119,-20,0,0,0,0,0,0,0,0,0,-1,1105,1044,0,0
-112,-20,0,0,0,0,0,0,0,0,0,-1,1112,1044,0,0
-105,-20,0,0,0,0,0,0,0,0,0,-1,1119,1044,0,0
-98,-20,0,0,0,0,0,0,0,0,0,-1,1126,1044,0,0
-91,-20,0,0,0,0,0,0,0,0,0,-1,1133,1044,0,0
-84,-20,0,0,0,0,0,0,0,0,0,-1,1140,1044,0,0
-77,-20,0,0,0,0,0,0,0,0,0,-1,1147,1044,0,0
-70,-20,0,0,0,0,0,0,0,0,0,-1,1154,1044,0,0
-63,-20,0,0,0,0,0,0,0,0,0,-1,1161,1044,0,0
-56,-20,0,0,0,0,0,0,0,0,0,-1,1168,1044,0,0
-49,-20,0,0,0,0,0,0,0,0,0,-1,1175,1044,0,0
-42,-20,0,0,0,0,0,0,0,0,0,-1,1182,1044,0,0
-35,-20,0,0,0,0,0,0,0,0,0,-1,1189,1044,0,0
-28,-20,0,0,0,0,0,0,0,0,0,-1,1196,1044,0,0
-21,-20,0,0,0,0,0,0,0,0,0,-1,1203,1044,0,0
-14,-20,0,0,0,0,0,0,0,0,0,-1,1210,1044,0,0
-7,-20,0,0,0,0,0,0,0,0,0,-1,1217,1044,0,0
0,-20,0,0,0,0,0,0,0,0,0,-1,1224,1044,0,0
7,-20,0,0,0,0,0,0,0,0,0,-1,1231,1044,0,0
14,-20,0,0,0,0,0,0,0,0,0,-1,1238,1044,0,0
21,-20,0,0,0,0,0,0,0,0,0,-1,1245,1044,0,0
28,-20,0,0,0,0,0,0,0,0,0,-1,1252,1044,0,0
35,-20,0,0,0,0,0,0,0,0,0,-1,1259,1044,0,0
42,-20,0,0,0,0,0,0,0,0,0,-1,1266,1044,0,0
49,-20,0,0,0,0,0,0,0,0,0,-1,1273,1044,0,0
56,-20,0,0,0,0,0,0,0,0,0,-1,1280,1044,0,0
63,-20,0,0,0,0,0,0,0,0,0,-1,1287,1044,0,0
70,-20,0,0,0,0,0,0,0,0,0,-1,1294,1044,0,0
77,-20,0,0,0,0,0,0,0,0,0,-1,1301,1044,0,0
84,-20,0,0,0,0,0,0,0,0,0,-1,1308,1044,0,0
91,-20,0,0,0,0,0,0,0,0,0,-1,1315,1044,0,0
98,-20,0,0,0,0,0,0,0,0,0,-1,1322,1044,0,0
105,-20,0,0,0,0,0,0,0,0,0,-1,1329,1044,0,0
112,-20,0,0,0,0,0,0,0,0,0,-1,1336,1044,0,0
119,-20,0,0,0,0,0,0,0,0,0,-1,1343,1044,0,0
126,-20,0,0,0,0,0,0,0,0,0,-1,1350,1044,0,0
133,-20,0,0,0,0,0,0,0,0,0,-1,1357,1044,0,0
140,-20,0,0,0,0,0,0,0,0,0,-1,1364,1044,0,0
147,-20,0,0,0,0,0,0,0,0,0,-1,1371,1044,0,0
154,-20,0,0,0,0,0,0,0,0,0,-1,1378,1044,0,0
161,-20,0,0,0,0,0,0,0,0,0,-1,1385,1044,0,0
168,-20,0,0,0,0,0,0,0,0,0,-1,1392,1044,0,0
175,-20,0,0,0,0,0,0,0,0,0,-1,1399,1044,0,0
182,-20,0,0,0,0,0,0,0,0,0,-1,1406,1044,0,0
189,-20,0,0,0,0,0,0,0,0,0,-1,1413,1044,0,0
196,-20,0,0,0,0,0,0,0,0,0,-1,1420,1044,0,0
203,-20,0,0,0,0,0,0,0,0,0,-1,1427,1044,0,0
210,-20,0,0,0,0,0,0,0,0,0,-1,1434,1044,0,0
217,-20,0,0,0,0,0,0,0,0,0,-1,1441,1044,0,0
224,-20,0,0,0,0,0,0,0,0,0,-1,1448,1044,0,0
231,-20,0,0,0,0,0,0,0,0,0,-1,1455,1044,0,0
238,-20,0,0,0,0,0,0,0,0,0,-1,1462,1044,0,0
245,-20,0,0,0,0,0,0,0,0,0,-1,1469,1044,0,0
252,-20,0,0,0,0,0,0,0,0,0,-1,1476,1044,0,0
259,-20,0,0,0,0,0,0,0,0,0,-1,1483,1044,0,0
266,-20,0,0,0,0,0,0,0,0,0,-1,1490,1044,0,0
273,-20,0,0,0,0,0,0,0,0,0,-1,1497,1044,0,0
280,-20,0,0,0,0,0,0,0,0,0,-1,1504,1044,0,0
287,-20,0,0,0,0,0,0,0,0,0,-1,1511,1044,0,0
294,-20,0,0,0,0,0,0,0,0,0,-1,1518,1044,0,0
301,-20,0,0,0,0,0,0,0,0,0,-1,1525,1044,0,0
308,-20,0,0,0,0,0,0,0,0,0,-1,1532,1044,0,0
315,-20,0,0,0,0,0,0,0,0,0,-1,1539,1044,0,0
322,-20,0,0,0,0,0,0,0,0,0,-1,1546,1044,0,0
329,-20,0,0,0,0,0,0,0,0,0,-1,1553,1044,0,0
336,-20,0,0,0,0,0,0,0,0,0,-1,1560,1044,0,0
343,-20,0,0,0,0,0,0,0,0,0,-1,1567,1044,0,0
350,-20,0,0,0,0,0,0,0,0,0,-1,1574,1044,0,0
357,-20,0,0,0,0,0,0,0,0,0,-1,1581,1044,0,0
364,-20,0,0,0,0,0,0,0,0,0,-1,1588,1044,0,0
371,-20,0,0,0,0,0,0,0,0,0,-1,1595,1044,0,0
378,-20,0,0,0,0,0,0,0,0,0,-1,1602,1044,0,0
385,-20,0,0,0,0,0,0,0,0,0,-1,1609,1044,0,0
392,-20,0,0,0,0,0,0,0,0,0,-1,1616,1044,0,0
399,-20,0,0,0,0,0,0,0,0,0,-1,1623,1044,0,0
406,-20,0,0,0,0,0,0,0,0,0,-1,1630,1044,0,0
413,-20,0,0,0,0,0,0,0,0,0,-1,1637,1044,0,0
420,-20,0,0,0,0,0,0,0,0,0,-1,1644,1044,0,0
427,-20,0,0,0,0,0,0,0,0,0,-1,1651,1044,0,0
434,-20,0,0,0,0,0,0,0,0,0,-1,1658,1044,0,0
441,-20,0,0,0,0,0,0,0,0,0,-1,1665,1044,0,0
448,-20,0,0,0,0,0,0,0,0,0,-1,1672,1044,0,0
455,-20,0,0,0,0,0,0,0,0,0,-1,1679,1044,0,0
462,-20,0,0,0,0,0,0,0,0,0,-1,1686,1044,0,0
469,-20,0,0,0,0,0,0,0,0,0,-1,1693,1044,0,0
476,-20,0,0,0,0,0,0,0,0,0,-1,1700,1044,0,0
483,-20,0,0,0,0,0,0,0,0,0,-1,1707,1044,0,0
490,-20,0,0,0,0,0,0,0,0,0,-1,1714,1044,0,0
497,-20,0,0,0,0,0,0,0,0,0,-1,1721,1044,0,0
504,-20,0,0,0,0,0,0,0,0,0,-1,1728,1044,0,0
511,-20,0,0,0,0,0,0,0,0,0,-1,1735,1044,0,0
518,-20,0,0,0,0,0,0,0,0,0,-1,1742,1044,0,0
525,-20,0,0,0,0,0,0,0,0,0,-1,1749,1044,0,0
532,-20,0,0,0,0,0,0,0,0,0,-1,1756,1044,0,0
539,-20,0,0,0,0,0,0,0,0,0,-1,1763,1044,0,0
546,-20,0,0,0,0,0,0,0,0,0,-1,1770,1044,0,0
553,-20,0,0,0,0,0,0,0,0,0,-1,1777,1044,0,0
560,-20,0,0,0,0,0,0,0,0,0,-1,1784,1044,0,0
567,-20,0,0,0,0,0,0,0,0,0,-1,1791,1044,0,0
574,-20,0,0,0,0,0,0,0,0,0,-1,1798,1044,0,0
581,-20,0,0,0,0,0,0,0,0,0,-1,1805,1044,0,0
588,-20,0,0,0,0,0,0,0,0,0,-1,1812,1044,0,0
595,-20,0,0,0,0,0,0,0,0,0,-1,1819,1044,0,0
602,-20,0,0,0,0,0,0,0,0,0,-1,1826,1044,0,0
609,-20,0,0,0,0,0,0,0,0,0,-1,1833,1044,0,0
616,-20,0,0,0,0,0,0,0,0,0,-1,1840,1044,0,0
623,-20,0,0,0,0,0,0,0,0,0,-1,1847,1044,0,0
630,-20,0,0,0,0,0,0,0,0,0,-1,1854,1044,0,0
637,-20,0,0,0,0,0,0,0,0,0,-1,1861,1044,0,0
644,-20,0,0,0,0,0,0,0,0,0,-1,1868,1044,0,0
651,-20,23.7488,2.67029,0.0019226,0.00372539,0.000863726,0.00407241,0.00157558,1.18877,0.00237118,0.0416486,1875,1044,23.7488,-2.67029
658,-20,23.7078,2.69507,0.000748222,0.00224955,0.000264462,0.00229477,0.000702998,1.40143,0.00135761,0.0422556,1882,1044,23.7078,-2.69501
665,-20,23.7609,2.84265,2.34201e-05,0.00125336,0.000100913,0.00126158,1.51955e-05,1.48947,0.000836035,0.0404579,1889,1044,23.7609,-2.84267
672,-20,23.7284,2.77356,-0.000427594,0.000758239,0.000503587,0.000943236,-0.000612591,1.21874,0.000904993,0.0273534,1896,1044,23.7284,-2.7736
679,-20,23.6854,2.6853,-0.00114744,0.000327356,0.00170317,0.00144591,-0.00226599,0.989693,0.00216043,0.028674,1903,1044,23.6854,-2.68526
686,-20,23.6461,2.64307,-0.00181732,-7.75758e-06,0.00299765,0.00221869,-0.00404376,0.931965,0.00366645,0.0381808,1910,1044,23.6461,-2.64309
693,-20,23.6666,2.56787,-0.00234787,-0.000282536,0.00419241,0.00300252,-0.00563292,0.906153,0.00506219,0.0418735,1917,1044,23.6666,-2.56781
700,-20,23.6763,2.66016,-0.00276027,-0.000495134,0.00514968,0.00364505,-0.00690045,0.89364,0.00618439,0.0388301,1924,1044,23.6762,-2.66016
707,-20,23.676,2.71277,-0.00315715,-0.000753269,0.00575986,0.00392872,-0.00783915,0.88826,0.00691809,0.032749,1931,1044,23.6761,-2.71274
714,-20,23.7096,2.80212,-0.00348336,-0.000763342,0.00623126,0.0042546,-0.0085013,0.892841,0.00749943,0.0273393,1938,1044,23.7095,-2.80213
721,-20,23.7213,3.06982,-0.00371652,-0.000644221,0.00645267,0.00445263,-0.00881337,0.902255,0.00779584,0.0250059,1945,1044,23.7214,-3.0698
728,-20,23.3062,4.12561,0,0,0,0,0,0,0,-1,1952,1044,23.3062,-4.1256
735,-20,23.2888,4.18054,-0.00373195,-1.13529e-05,0.00575324,0.00417488,-0.00791818,0.941767,0.00709255,0.0155163,1959,1044,23.2888,-4.18056
742,-20,23.3013,4.21912,-0.00349508,0.000424777,0.00450561,0.00337828,-0.00644859,0.990552,0.00576512,0.0148525,1966,1044,23.3012,-4.21909
749,-20,23.3237,4.19897,-0.00271366,0.0026997,0.00242536,0.00362737,-0.00364133,1.20548,0.00419659,0.016488,1973,1044,23.3237,-4.19898
756,-20,23.3109,4.19043,-0.00169766,0.00492166,7.47112e-05,0.0049225,-0.0016985,1.55951,0.00397083,0.0126674,1980,1044,23.311,-4.19042
763,-20,23.275,4.17456,-0.00061634,0.00754627,-0.0024337,0.00821681,-0.00128687,-1.30195,0.00595337,0.0146614,1987,1044,23.275,-4.17451
770,-20,23.2574,4.20642,0.00101837,0.0113183,-0.00571193,0.0138592,-0.00152245,-1.15225,0.00978648,0.0131062,1994,1044,23.2575,-4.20648
777,-20,23.2292,4.19006,0.00317326,0.0161521,-0.00931989,0.0210193,-0.00169395,-1.08952,0.0146103,0.0114147,2001,1044,23.2293,-4.19007
784,-20,23.2532,4.19275,0.00545042,0.0217959,-0.0127442,0.0287629,-0.0015165,-1.07051,0.0197002,0.0161479,2008,1044,23.2532,-4.19271
791,-20,23.3503,3.97974,0.00805156,0.0281601,-0.0162794,0.0372397,-0.00102807,-1.06203,0.0251762,0.0335117,2015,1044,23.3503,-3.9797
798,-20,23.436,3.68713,0.0112249,0.0351847,-0.0198903,0.0464242,-1.46423e-05,-1.05645,0.0309544,0.0429331,2022,1044,23.436,-3.68716
805,-20,23.7483,3.28772,0.0148827,0.0424765,-0.0231157,0.0555997,0.00175953,-1.05445,0.0364941,0.0432591,2029,1044,23.7484,-3.28778
812,-20,23.7627,3.05383,0.0185394,0.0491941,-0.0251251,0.063298,0.00443553,-1.05928,0.0408006,0.0437519,2036,1044,23.7627,-3.05387
-700,-27,-19.3111,1.86426,0.124524,0.0289159,-0.0260546,0.131163,0.0222767,-0.249509,0.0810437,0.0475968,524,1051,-19.3111,-1.8642
-693,-27,-18.3808,2.33789,0.0989354,0.0302342,-0.0228738,0.105854,0.0233153,-0.293733,0.0642243,0.0437433,531,1051,-18.3808,-2.33791
-686,-27,-17.3708,3.62732,0.0772119,0.0287966,-0.0192351,0.0839235,0.022085,-0.335716,0.0502326,0.0481131,538,1051,-17.3708,-3.62727
-679,-27,-16.2607,4.93884,0,0,0,0,0,0,0,-1,545,1051,-16.2607,-4.93886
-672,-27,-16.0703,2.01147,0,0,0,0,0,0,0,-1,552,1051,-16.0703,-2.01148
-665,-27,-16.1118,2.12329,0.0311671,0.0188129,-0.00908491,0.035976,0.014004,-0.486833,0.0209399,0.0486922,559,1051,-16.1118,-2.12327
-658,-27,-15.8066,2.24109,0.021305,0.0151513,-0.00648744,0.0254083,0.0110481,-0.563968,0.014711,0.042651,566,1051,-15.8066,-2.24106
-651,-27,-15.8593,1.09131,0,0,0,0,0,0,0,-1,573,1051,-15.8593,-1.0913
-644,-27,-15.9948,1.58069,0.00733931,0.0088002,-0.00310416,0.0112587,0.00488082,-0.900953,0.00651934,0.0159067,580,1051,-15.9948,-1.58073
-637,-27,-16.042,1.59021,0.0024076,0.00632726,-0.00284235,0.00781995,0.000914909,-1.08722,0.00493667,0.012911,587,1051,-16.042,-1.59023
-630,-27,-16.0941,1.71338,-0.00138293,0.00390126,-0.00273953,0.00506517,-0.00254684,-1.16905,0.00447425,0.0176784,594,1051,-16.0941,-1.71342
-623,-27,-16.0325,1.74463,-0.00145602,0.00110519,-0.00350076,0.00355222,-0.00390305,-0.960742,0.00430589,0.0160368,601,1051,-16.0325,-1.74468
-616,-27,-16.0001,1.76013,-0.000925202,4.55426e-05,-0.00489792,0.00448208,-0.00536174,-0.834786,0.00569089,0.0141135,608,1051,-16.0001,-1.76012
-609,-27,-16.0396,1.81897,-0.000682494,-0.000311561,-0.00625058,0.00575631,-0.00675036,-0.80023,0.00722833,0.0136007,615,1051,-16.0396,-1.81903
-602,-27,-16.0345,1.88611,-0.000512698,-0.000700678,-0.00740476,0.00679867,-0.00801204,-0.779052,0.00856053,0.0111855,622,1051,-16.0345,-1.88615
-595,-27,-16.0754,2.11536,0,0,0,0,0,0,0,-1,629,1051,-16.0754,-2.11534
-588,-27,-16.0756,1.36438,0.000166449,-0.000920439,-0.00838452,0.00802512,-0.00877911,-0.753036,0.00970518,0.0143297,636,1051,-16.0756,-1.36441
-581,-27,-16.0762,0.821533,0.000673735,-0.000924794,-0.00823251,0.00814569,-0.00839675,-0.737007,0.00955115,0.0187919,643,1051,-16.0762,-0.821579
-574,-27,-16.1149,0.796265,0.00120605,-0.00066157,-0.00769138,0.0080201,-0.00747562,-0.724989,0.0089483,0.0345487,650,1051,-16.1149,-0.796245
-567,-27,-16.1777,0.811035,0.0018499,-0.000220481,-0.00655589,0.00745183,-0.00582241,-0.707093,0.00768311,0.0449916,657,1051,-16.1777,-0.811012
-560,-27,-16.1835,0.760254,0.00267185,0.000333285,-0.00485729,0.00649862,-0.00349348,-0.667282,0.00585527,0.0445684,664,1051,-16.1835,-0.760287
-553,-27,-16.0305,0.633545,0.00362648,0.000908865,-0.00266573,0.00525974,-0.000724396,-0.549697,0.00377122,0.0416645,671,1051,-16.0304,-0.633581
-546,-27,-15.8693,0.420044,0.00461621,0.00137722,-3.52043e-05,0.0046166,0.00137684,-0.0108672,0.00273677,0.0429192,678,1051,-15.8693,-0.420029
-539,-27,-15.7096,0.561157,0.00550627,0.00152439,0.0022578,0.00652557,0.000505094,0.424062,0.00419217,0.0441784,685,1051,-15.7096,-0.561138
-532,-27,-15.8226,0.9104,0.00600984,0.00111239,0.0025306,0.00708251,3.97239e-05,0.40092,0.00470848,0.0447318,692,1051,-15.8226,-0.910378
-525,-27,0,0,0,0,0,0,0,0,0,-1,699,1051,0,0
-518,-27,0,0,0,0,0,0,0,0,0,-1,706,1051,0,0
-511,-27,0,0,0,0,0,0,0,0,0,-1,713,1051,0,0
-504,-27,0,0,0,0,0,0,0,0,0,-1,720,1051,0,0
-497,-27,0,0,0,0,0,0,0,0,0,-1,727,1051,0,0
-490,-27,0,0,0,0,0,0,0,0,0,-1,734,1051,0,0
-483,-27,0,0,0,0,0,0,0,0,0,-1,741,1051,0,0
-476,-27,0,0,0,0,0,0,0,0,0,-1,748,1051,0,0
-469,-27,0,0,0,0,0,0,0,0,0,-1,755,1051,0,0
-462,-27,0,0,0,0,0,0,0,0,0,-1,762,1051,0,0
-455,-27,0,0,0,0,0,0,0,0,0,-1,769,1051,0,0
-448,-27,0,0,0,0,0,0,0,0,0,-1,776,1051,0,0
-441,-27,0,0,0,0,0,0,0,0,0,-1,783,1051,0,0
-434,-27,0,0,0,0,0,0,0,0,0,-1,790,1051,0,0
-427,-27,0,0,0,0,0,0,0,0,0,-1,797,1051,0,0
-420,-27,0,0,0,0,0,0,0,0,0,-1,804,1051,0,0
-413,-27,0,0,0,0,0,0,0,0,0,-1,811,1051,0,0
-406,-27,0,0,0,0,0,0,0,0,0,-1,818,1051,0,0
-399,-27,0,0,0,0,0,0,0,0,0,-1,825,1051,0,0
-392,-27,0,0,0,0,0,0,0,0,0,-1,832,1051,0,0
-385,-27,0,0,0,0,0,0,0,0,0,-1,839,1051,0,0
-378,-27,0,0,0,0,0,0,0,0,0,-1,846,1051,0,0
-371,-27,0,0,0,0,0,0,0,0,0,-1,853,1051,0,0
-364,-27,0,0,0,0,0,0,0,0,0,-1,860,1051,0,0
-357,-27,0,0,0,0,0,0,0,0,0,-1,867,1051,0,0
-350,-27,0,0,0,0,0,0,0,0,0,-1,874,1051,0,0
-343,-27,0,0,0,0,0,0,0,0,0,-1,881,1051,0,0
-336,-27,0,0,0,0,0,0,0,0,0,-1,888,1051,0,0
-329,-27,0,0,0,0,0,0,0,0,0,-1,895,1051,0,0
-322,-27,0,0,0,0,0,0,0,0,0,-1,902,1051,0,0
-315,-27,0,0,0,0,0,0,0,0,0,-1,909,1051,0,0
-308,-27,0,0,0,0,0,0,0,0,0,-1,916,1051,0,0
-301,-27,0,0,0,0,0,0,0,0,0,-1,923,1051,0,0
-294,-27,0,0,0,0,0,0,0,0,0,-1,930,1051,0,0
-287,-27,0,0,0,0,0,0,0,0,0,-1,937,1051,0,0
-280,-27,0,0,0,0,0,0,0,0,0,-1,944,1051,0,0
-273,-27,0,0,0,0,0,0,0,0,0,-1,951,1051,0,0
-266,-27,0,0,0,0,0,0,0,0,0,-1,958,1051,0,0
-259,-27,0,0,0,0,0,0,0,0,0,-1,965,1051,0,0
-252,-27,0,0,0,0,0,0,0,0,0,-1,972,1051,0,0
-245,-27,0,0,0,0,0,0,0,0,0,-1,979,1051,0,0
-238,-27,0,0,0,0,0,0,0,0,0,-1,986,1051,0,0
-231,-27,0,0,0,0,0,0,0,0,0,-1,993,1051,0,0
-224,-27,0,0,0,0,0,0,0,0,0,-1,1000,1051,0,0
-217,-27,0,0,0,0,0,0,0,0,0,-1,1007,1051,0,0
-210,-27,0,0,0,0,0,0,0,0,0,-1,1014,1051,0,0
-203,-27,0,0,0,0,0,0,0,0,0,-1,1021,1051,0,0
-196,-27,0,0,0,0,0,0,0,0,0,-1,1028,1051,0,0
-189,-27,0,0,0,0,0,0,0,0,0,-1,1035,1051,0,0
-182,-27,0,0,0,0,0,0,0,0,0,-1,1042,1051,0,0
-175,-27,0,0,0,0,0,0,0,0,0,-1,1049,1051,0,0
-168,-27,0,0,0,0,0,0,0,0,0,-1,1056,1051,0,0
-161,-27,0,0,0,0,0,0,0,0,0,-1,1063,1051,0,0
-154,-27,0,0,0,0,0,0,0,0,0,-1,1070,1051,0,0
-147,-27,0,0,0,0,0,0,0,0,0,-1,1077,1051,0,0
-140,-27,0,0,0,0,0,0,0,0,0,-1,1084,1051,0,0
-133,-27,0,0,0,0,0,0,0,0,0,-1,1091,1051,0,0
-126,-27,0,0,0,0,0,0,0,0,0,-1,1098,1051,0,0
-119,-27,0,0,0,0,0,0,0,0,0,-1,1105,1051,0,0
-112,-27,0,0,0,0,0,0,0,0,0,-1,1112,1051,0,0
-105,-27,0,0,0,0,0,0,0,0,0,-1,1119,1051,0,0
-98,-27,0,0,0,0,0,0,0,0,0,-1,1126,1051,0,0
-91,-27,0,0,0,0,0,0,0,0,0,-1,1133,1051,0,0
-84,-27,0,0,0,0,0,0,0,0,0,-1,1140,1051,0,0
-77,-27,0,0,0,0,0,0,0,0,0,-1,1147,1051,0,0
-70,-27,0,0,0,0,0,0,0,0,0,-1,1154,1051,0,0
-63,-27,0,0,0,0,0,0,0,0,0,-1,1161,1051,0,0
-56,-27,0,0,0,0,0,0,0,0,0,-1,1168,1051,0,0
-49,-27,0,0,0,0,0,0,0,0,0,-1,1175,1051,0,0
-42,-27,0,0,0,0,0,0,0,0,0,-1,1182,1051,0,0
-35,-27,0,0,0,0,0,0,0,0,0,-1,1189,1051,0,0
-28,-27,0,0,0,0,0,0,0,0,0,-1,1196,1051,0,0
-21,-27,0,0,0,0,0,0,0,0,0,-1,1203,1051,0,0
-14,-27,0,0,0,0,0,0,0,0,0,-1,1210,1051,0,0
-7,-27,0,0,0,0,0,0,0,0,0,-1,1217,1051,0,0
0,-27,0,0,0,0,0,0,0,0,0,-1,1224,1051,0,0
7,-27,0,0,0,0,0,0,0,0,0,-1,1231,1051,0,0
14,-27,0,0,0,0,0,0,0,0,0,-1,1238,1051,0,0
21,-27,0,0,0,0,0,0,0,0,0,-1,1245,1051,0,0
28,-27,0,0,0,0,0,0,0,0,0,-1,1252,1051,0,0
35,-27,0,0,0,0,0,0,0,0,0,-1,1259,1051,0,0
42,-27,0,0,0,0,0,0,0,0,0,-1,1266,1051,0,0
49,-27,0,0,0,0,0,0,0,0,0,-1,1273,1051,0,0
56,-27,0,0,0,0,0,0,0,0,0,-1,1280,1051,0,0
63,-27,0,0,0,0,0,0,0,0,0,-1,1287,1051,0,0
70,-27,0,0,0,0,0,0,0,0,0,-1,1294,1051,0,0
77,-27,0,0,0,0,0,0,0,0,0,-1,1301,1051,0,0
84,-27,0,0,0,0,0,0,0,0,0,-1,1308,1051,0,0
91,-27,0,0,0,0,0,0,0,0,0,-1,1315,1051,0,0
98,-27,0,0,0,0,0,0,0,0,0,-1,1322,1051,0,0
105,-27,0,0,0,0,0,0,0,0,0,-1,1329,1051,0,0
112,-27,0,0,0,0,0,0,0,0,0,-1,1336,1051,0,0
119,-27,0,0,0,0,0,0,0,0,0,-1,1343,1051,0,0
126,-27,0,0,0,0,0,0,0,0,0,-1,1350,1051,0,0
133,-27,0,0,0,0,0,0,0,0,0,-1,1357,1051,0,0
140,-27,0,0,0,0,0,0,0,0,0,-1,1364,1051,0,0
147,-27,0,0,0,0,0,0,0,0,0,-1,1371,1051,0,0
154,-27,0,0,0,0,0,0,0,0,0,-1,1378,1051,0,0
161,-27,0,0,0,0,0,0,0,0,0,-1,1385,1051,0,0
168,-27,0,0,0,0,0,0,0,0,0,-1,1392,1051,0,0
175,-27,0,0,0,0,0,0,0,0,0,-1,1399,1051,0,0
182,-27,0,0,0,0,0,0,0,0,0,-1,1406,1051,0,0
189,-27,0,0,0,0,0,0,0,0,0,-1,1413,1051,0,0
196,-27,0,0,0,0,0,0,0,0,0,-1,1420,1051,0,0
203,-27,0,0,0,0,0,0,0,0,0,-1,1427,1051,0,0
210,-27,0,0,0,0,0,0,0,0,0,-1,1434,1051,0,0
217,-27,0,0,0,0,0,0,0,0,0,-1,1441,1051,0,0
224,-27,0,0,0,0,0,0,0,0,0,-1,1448,1051,0,0
231,-27,0,0,0,0,0,0,0,0,0,-1,1455,1051,0,0
238,-27,0,0,0,0,0,0,0,0,0,-1,1462,1051,0,0
245,-27,0,0,0,0,0,0,0,0,0,-1,1469,1051,0,0
252,-27,0,0,0,0,0,0,0,0,0,-1,1476,1051,0,0
259,-27,0,0,0,0,0,0,0,0,0,-1,1483,1051,0,0
266,-27,0,0,0,0,0,0,0,0,0,-1,1490,1051,0,0
273,-27,0,0,0,0,0,0,0,0,0,-1,1497,1051,0,0
280,-27,0,0,0,0,0,0,0,0,0,-1,1504,1051,0,0
287,-27,0,0,0,0,0,0,0,0,0,-1,1511,1051,0,0
294,-27,0,0,0,0,0,0,0,0,0,-1,1518,1051,0,0
301,-27,0,0,0,0,0,0,0,0,0,-1,1525,1051,0,0
308,-27,0,0,0,0,0,0,0,0,0,-1,1532,1051,0,0
315,-27,0,0,0,0,0,0,0,0,0,-1,1539,1051,0,0
322,-27,0,0,0,0,0,0,0,0,0,-1,1546,1051,0,0
329,-27,0,0,0,0,0,0,0,0,0,-1,1553,1051,0,0
336,-27,0,0,0,0,0,0,0,0,0,-1,1560,1051,0,0
343,-27,0,0,0,0,0,0,0,0,0,-1,1567,1051,0,0
350,-27,0,0,0,0,0,0,0,0,0,-1,1574,1051,0,0
357,-27,0,0,0,0,0,0,0,0,0,-1,1581,1051,0,0
364,-27,0,0,0,0,0,0,0,0,0,-1,1588,1051,0,0
371,-27,0,0,0,0,0,0,0,0,0,-1,1595,1051,0,0
378,-27,0,0,0,0,0,0,0,0,0,-1,1602,1051,0,0
385,-27,0,0,0,0,0,0,0,0,0,-1,1609,1051,0,0
392,-27,0,0,0,0,0,0,0,0,0,-1,1616,1051,0,0
399,-27,0,0,0,0,0,0,0,0,0,-1,1623,1051,0,0
406,-27,0,0,0,0,0,0,0,0,0,-1,1630,1051,0,0
413,-27,0,0,0,0,0,0,0,0,0,-1,1637,1051,0,0
420,-27,0,0,0,0,0,0,0,0,0,-1,1644,1051,0,0
427,-27,0,0,0,0,0,0,0,0,0,-1,1651,1051,0,0
434,-27,0,0,0,0,0,0,0,0,0,-1,1658,1051,0,0
441,-27,0,0,0,0,0,0,0,0,0,-1,1665,1051,0,0
448,-27,0,0,0,0,0,0,0,0,0,-1,1672,1051,0,0
455,-27,0,0,0,0,0,0,0,0,0,-1,1679,1051,0,0
462,-27,0,0,0,0,0,0,0,0,0,-1,1686,1051,0,0
469,-27,0,0,0,0,0,0,0,0,0,-1,1693,1051,0,0
476,-27,0,0,0,0,0,0,0,0,0,-1,1700,1051,0,0
483,-27,0,0,0,0,0,0,0,0,0,-1,1707,1051,0,0
490,-27,0,0,0,0,0,0,0,0,0,-1,1714,1051,0,0
497,-27,0,0,0,0,0,0,0,0,0,-1,1721,1051,0,0
504,-27,0,0,0,0,0,0,0,0,0,-1,1728,1051,0,0
511,-27,0,0,0,0,0,0,0,0,0,-1,1735,1051,0,0
518,-27,0,0,0,0,0,0,0,0,0,-1,1742,1051,0,0
525,-27,0,0,0,0,0,0,0,0,0,-1,1749,1051,0,0
532,-27,0,0,0,0,0,0,0,0,0,-1,1756,1051,0,0
539,-27,0,0,0,0,0,0,0,0,0,-1,1763,1051,0,0
546,-27,0,0,0,0,0,0,0,0,0,-1,1770,1051,0,0
553,-27,0,0,0,0,0,0,0,0,0,-1,1777,1051,0,0
560,-27,0,0,0,0,0,0,0,0,0,-1,1784,1051,0,0
567,-27,0,0,0,0,0,0,0,0,0,-1,1791,1051,0,0
574,-27,0,0,0,0,0,0,0,0,0,-1,1798,1051,0,0
581,-27,0,0,0,0,0,0,0,0,0,-1,1805,1051,0,0
588,-27,0,0,0,0,0,0,0,0,0,-1,1812,1051,0,0
595,-27,0,0,0,0,0,0,0,0,0,-1,1819,1051,0,0
602,-27,0,0,0,0,0,0,0,0,0,-1,1826,1051,0,0
609,-27,0,0,0,0,0,0,0,0,0,-1,1833,1051,0,0
616,-27,0,0,0,0,0,0,0,0,0,-1,1840,1051,0,0
623,-27,0,0,0,0,0,0,0,0,0,-1,1847,1051,0,0
630,-27,0,0,0,0,0,0,0,0,0,-1,1854,1051,0,0
637,-27,0,0,0,0,0,0,0,0,0,-1,1861,1051,0,0
644,-27,0,0,0,0,0,0,0,0,0,-1,1868,1051,0,0
651,-27,23.785,2.81384,0,0,0,0,0,0,0,-1,1875,1051,23.785,-2.81383
658,-27,23.8668,3.06201,0.000482471,0.00189456,0.000494687,0.00205061,0.000326417,1.26522,0.0012723,0.0388171,1882,1051,23.8668,-3.062
665,-27,23.8263,2.81921,-0.000206538,0.000936874,0.000265225,0.0009954,-0.000265064,1.35361,0.000767369,0.0380401,1889,1051,23.8263,-2.81927
672,-27,23.6824,2.81897,-0.00060598,0.000470192,0.000582656,0.000725217,-0.000861005,1.15822,0.000916923,0.0300388,1896,1051,23.6824,-2.819
679,-27,23.6489,2.68542,-0.00131581,5.73115e-05,0.00173664,0.00123817,-0.00249668,0.97364,0.00219674,0.0286607,1903,1051,23.6489,-2.68547
686,-27,23.6862,2.65063,-0.0020064,-0.000277092,0.00301985,0.00199945,-0.00428294,0.924829,0.00370614,0.0419542,1910,1051,23.6861,-2.65066
693,-27,23.7719,2.49133,-0.00256926,-0.000551375,0.00421145,0.0027703,-0.00589093,0.902968,0.00510761,0.0431937,1917,1051,23.7719,-2.49134
700,-27,23.6965,2.63843,-0.00301157,-0.000756322,0.00518883,0.003426,-0.00719389,0.892393,0.00625871,0.0379621,1924,1051,23.6966,-2.63847
707,-27,23.6294,2.70935,-0.00341946,-0.00101868,0.0058078,0.00371148,-0.00814963,0.887306,0.00700599,0.0253273,1931,1051,23.6294,-2.70931
714,-27,23.6992,2.78882,-0.00374829,-0.00102025,0.00628422,0.00404628,-0.00881483,0.892268,0.00759359,0.0221109,1938,1051,23.6992,-2.78882
721,-27,23.7549,3.05396,-0.00396259,-0.000898515,0.00650782,0.00425517,-0.00911628,0.901001,0.00788823,0.0247653,1945,1051,23.7549,-3.05398
728,-27,23.3087,4.1322,0,0,0,0,0,0,0,-1,1952,1051,23.3088,-4.13224
735,-27,23.2848,4.20923,-0.00396613,-0.000277173,0.00583276,0.00399579,-0.0082391,0.938537,0.00720404,0.0172184,1959,1051,23.2848,-4.20925
742,-27,23.2792,4.2428,-0.00367186,0.000153855,0.00465142,0.00327038,-0.00678839,0.980478,0.00592465,0.0168122,1966,1051,23.2791,-4.24274
749,-27,23.3052,4.22717,-0.00288047,0.00219957,0.00271199,0.00337527,-0.00405617,1.16173,0.00429655,0.0117904,1973,1051,23.3052,-4.22712
756,-27,23.282,4.18591,-0.00184378,0.00416578,0.000604116,0.0042259,-0.00190391,1.47159,0.0036227,0.0109221,1980,1051,23.2819,-4.18596
763,-27,23.2626,4.14575,-0.000699581,0.00653267,-0.00160728,0.00687377,-0.00104069,-1.36167,0.0049659,0.0133197,1987,1051,23.2626,-4.14577
770,-27,23.2537,4.11584,0.000962783,0.00989101,-0.00443419,0.011719,-0.000865191,-1.17978,0.00811644,0.0148927,1994,1051,23.2537,-4.11583
777,-27,23.238,4.14233,0.00312291,0.0141603,-0.00738364,0.0178597,-0.000576539,-1.10632,0.0121032,0.0146393,2001,1051,23.238,-4.14234
784,-27,23.2382,4.11914,0.0053673,0.0190907,-0.00989848,0.0242732,0.000184787,-1.08847,0.0161209,0.0213743,2008,1051,23.2382,-4.11909
791,-27,23.3478,3.73938,0.00791282,0.0246077,-0.0122079,0.0310492,0.00147132,-1.08527,0.0202269,0.0395325,2015,1051,23.3478,-3.7394
798,-27,23.3691,3.49719,0.0110217,0.0306866,-0.0142073,0.038132,0.00357627,-1.08809,0.0243171,0.047273,2022,1051,23.3691,-3.49722
805,-27,23.3093,3.43274,0.0146501,0.037021,-0.0153637,0.0448397,0.00683141,-1.10005,0.0278962,0.0440224,2029,1051,23.3093,-3.43273
812,-27,23.1582,3.28015,0.0183253,0.0429409,-0.0147538,0.0498465,0.0114196,-1.13303,0.0301541,0.0455068,2036,1051,23.1582,-3.28015
-700,-34,-19.0797,2.31812,0.130285,0.027769,-0.0250409,0.136074,0.0219794,-0.227214,0.0843497,0.0458875,524,1058,-19.0797,-2.31814
-693,-34,-18.1092,2.69019,0.10395,0.0284192,-0.0222223,0.110003,0.0223661,-0.265933,0.0671338,0.04644,531,1058,-18.1092,-2.69017
-686,-34,-18.072,2.79138,0,0,0,0,0,0,0,-1,538,1058,-18.072,-2.79137
-679,-34,-15.2668,0.963013,0,0,0,0,0,0,0,-1,545,1058,-15.2668,-0.963038
-672,-34,-15.9987,2.13794,0,0,0,0,0,0,0,-1,552,1058,-15.9987,-2.1379
-665,-34,-16.0536,2.26587,0,0,0,0,0,0,0,-1,559,1058,-16.0536,-2.26589
-658,-34,-15.6058,2.63733,0,0,0,0,0,0,0,-1,566,1058,-15.6058,-2.63727
-651,-34,-15.8412,1.53833,0.0149239,0.0111339,-0.00456612,0.0179726,0.00808514,-0.588707,0.0103939,0.0288252,573,1058,-15.8413,-1.53836
-644,-34,-15.9884,1.53455,0.00805335,0.00832632,-0.00323504,0.0114278,0.00495192,-0.80648,0.00661734,0.0116194,580,1058,-15.9884,-1.53454
-637,-34,-16.0197,1.56921,0.00276936,0.00598929,-0.0029868,0.0077724,0.000986251,-1.03259,0.00488614,0.0125351,587,1058,-16.0197,-1.56917
-630,-34,-16.0337,1.67578,-0.00125946,0.00368074,-0.00283489,0.00497069,-0.00254941,-1.14377,0.00441612,0.0161009,594,1058,-16.0337,-1.67578
-623,-34,-15.9809,1.75232,-0.00161552,0.000925976,-0.00364304,0.00351354,-0.00420308,-0.953208,0.00446111,0.0138897,601,1058,-15.9809,-1.75226
-616,-34,-15.9291,1.81116,-0.00125705,-2.33613e-05,-0.00511086,0.00450774,-0.00578816,-0.845454,0.00595964,0.0203667,608,1058,-15.9291,-1.81116
-609,-34,-15.9332,1.86292,-0.00109638,-0.000355418,-0.00655898,0.00584354,-0.00729533,-0.81361,0.00760115,0.0184563,615,1058,-15.9331,-1.86294
-602,-34,-15.9575,1.91309,-0.000972233,-0.000834825,-0.00779211,0.00688888,-0.00869594,-0.789807,0.00901804,0.0145138,622,1058,-15.9575,-1.91312
-595,-34,-16.0433,2.11035,0,0,0,0,0,0,0,-1,629,1058,-16.0433,-2.11041
-588,-34,-16.0593,1.38306,-0.00037108,-0.00107376,-0.00882116,0.00810573,-0.00955057,-0.765494,0.0102052,0.019133,636,1058,-16.0592,-1.38309
-581,-34,-16.0608,0.831787,0.000142756,-0.0010278,-0.00866112,0.00823835,-0.00912339,-0.751662,0.0100281,0.0211884,643,1058,-16.0608,-0.831807
-574,-34,-16.0769,0.902954,0.000727922,-0.000721049,-0.00809061,0.00812642,-0.00811954,-0.740744,0.00937961,0.0358028,650,1058,-16.0769,-0.902959
-567,-34,-16.0439,0.911499,0.00147894,-0.000221645,-0.00687802,0.00755902,-0.00630173,-0.723898,0.00801348,0.0412822,657,1058,-16.044,-0.911538
-560,-34,-16.0481,0.758789,0.00245476,0.00040754,-0.00504735,0.00658124,-0.00371895,-0.685354,0.00602287,0.0417816,664,1058,-16.0481,-0.758743
-553,-34,-15.9031,0.540039,0.00360899,0.00107836,-0.00266223,0.0052913,-0.000603946,-0.563558,0.00374512,0.0447894,671,1058,-15.9031,-0.540053
-546,-34,-15.837,0.531128,0.00483996,0.00166661,0.000229506,0.00485647,0.00165009,0.0718247,0.00285147,0.0473593,678,1058,-15.837,-0.531102
-539,-34,-15.7986,0.701416,0.00595865,0.00196408,0.00283486,0.00742916,0.000493571,0.478513,0.00479672,0.0428001,685,1058,-15.7986,-0.701453
-532,-34,-15.8151,0.760132,0.00657721,0.00164338,0.00333847,0.00826132,-4.07374e-05,0.467207,0.00552118,0.0398461,692,1058,-15.8151,-0.760093
-525,-34,0,0,0,0,0,0,0,0,0,-1,699,1058,0,0
-518,-34,0,0,0,0,0,0,0,0,0,-1,706,1058,0,0
-511,-34,0,0,0,0,0,0,0,0,0,-1,713,1058,0,0
-504,-34,0,0,0,0,0,0,0,0,0,-1,720,1058,0,0
-497,-34,0,0,0,0,0,0,0,0,0,-1,727,1058,0,0
-490,-34,0,0,0,0,0,0,0,0,0,-1,734,1058,0,0
-483,-34,0,0,0,0,0,0,0,0,0,-1,741,1058,0,0
-476,-34,0,0,0,0,0,0,0,0,0,-1,748,1058,0,0
-469,-34,0,0,0,0,0,0,0,0,0,-1,755,1058,0,0
-462,-34,0,0,0,0,0,0,0,0,0,-1,762,1058,0,0
-455,-34,0,0,0,0,0,0,0,0,0,-1,769,1058,0,0
-448,-34,0,0,0,0,0,0,0,0,0,-1,776,1058,0,0
-441,-34,0,0,0,0,0,0,0,0,0,-1,783,1058,0,0
-434,-34,0,0,0,0,0,0,0,0,0,-1,790,1058,0,0
-427,-34,0,0,0,0,0,0,0,0,0,-1,797,1058,0,0
-420,-34,0,0,0,0,0,0,0,0,0,-1,804,1058,0,0
-413,-34,0,0,0,0,0,0,0,0,0,-1,811,1058,0,0
-406,-34,0,0,0,0,0,0,0,0,0,-1,818,1058,0,0
-399,-34,0,0,0,0,0,0,0,0,0,-1,825,1058,0,0
-392,-34,0,0,0,0,0,0,0,0,0,-1,832,1058,0,0
-385,-34,0,0,0,0,0,0,0,0,0,-1,839,1058,0,0
-378,-34,0,0,0,0,0,0,0,0,0,-1,846,1058,0,0
-371,-34,0,0,0,0,0,0,0,0,0,-1,853,1058,0,0
-364,-34,0,0,0,0,0,0,0,0,0,-1,860,1058,0,0
-357,-34,0,0,0,0,0,0,0,0,0,-1,867,1058,0,0
-350,-34,0,0,0,0,0,0,0,0,0,-1,874,1058,0,0
-343,-34,0,0,0,0,0,0,0,0,0,-1,881,1058,0,0
-336,-34,0,0,0,0,0,0,0,0,0,-1,888,1058,0,0
-329,-34,0,0,0,0,0,0,0,0,0,-1,895,1058,0,0
-322,-34,0,0,0,0,0,0,0,0,0,-1,902,1058,0,0
-315,-34,0,0,0,0,0,0,0,0,0,-1,909,1058,0,0
-308,-34,0,0,0,0,0,0,0,0,0,-1,916,1058,0,0
-301,-34,0,0,0,0,0,0,0,0,0,-1,923,1058,0,0
-294,-34,0,0,0,0,0,0,0,0,0,-1,930,1058,0,0
-287,-34,0,0,0,0,0,0,0,0,0,-1,937,1058,0,0
-280,-34,0,0,0,0,0,0,0,0,0,-1,944,1058,0,0
-273,-34,0,0,0,0,0,0,0,0,0,-1,951,1058,0,0
-266,-34,0,0,0,0,0,0,0,0,0,-1,958,1058,0,0
-259,-34,0,0,0,0,0,0,0,0,0,-1,965,1058,0,0
-252,-34,0,0,0,0,0,0,0,0,0,-1,972,1058,0,0
-245,-34,0,0,0,0,0,0,0,0,0,-1,979,1058,0,0
-238,-34,0,0,0,0,0,0,0,0,0,-1,986,1058,0,0
-231,-34,0,0,0,0,0,0,0,0,0,-1,993,1058,0,0
-224,-34,0,0,0,0,0,0,0,0,0,-1,1000,1058,0,0
-217,-34,0,0,0,0,0,0,0,0,0,-1,1007,1058,0,0
-210,-34,0,0,0,0,0,0,0,0,0,-1,1014,1058,0,0
-203,-34,0,0,0,0,0,0,0,0,0,-1,1021,1058,0,0
-196,-34,0,0,0,0,0,0,0,0,0,-1,1028,1058,0,0
-189,-34,0,0,0,0,0,0,0,0,0,-1,1035,1058,0,0
-182,-34,0,0,0,0,0,0,0,0,0,-1,1042,1058,0,0
-175,-34,0,0,0,0,0,0,0,0,0,-1,1049,1058,0,0
-168,-34,0,0,0,0,0,0,0,0,0,-1,1056,1058,0,0
-161,-34,0,0,0,0,0,0,0,0,0,-1,1063,1058,0,0
-154,-34,0,0,0,0,0,0,0,0,0,-1,1070,1058,0,0
-147,-34,0,0,0,0,0,0,0,0,0,-1,1077,1058,0,0
-140,-34,0,0,0,0,0,0,0,0,0,-1,1084,1058,0,0
-133,-34,0,0,0,0,0,0,0,0,0,-1,1091,1058,0,0
-126,-34,0,0,0,0,0,0,0,0,0,-1,1098,1058,0,0
-119,-34,0,0,0,0,0,0,0,0,0,-1,1105,1058,0,0
-112,-34,0,0,0,0,0,0,0,0,0,-1,1112,1058,0,0
-105,-34,0,0,0,0,0,0,0,0,0,-1,1119,1058,0,0
-98,-34,0,0,0,0,0,0,0,0,0,-1,1126,1058,0,0
-91,-34,0,0,0,0,0,0,0,0,0,-1,1133,1058,0,0
-84,-34,0,0,0,0,0,0,0,0,0,-1,1140,1058,0,0
-77,-34,0,0,0,0,0,0,0,0,0,-1,1147,1058,0,0
-70,-34,0,0,0,0,0,0,0,0,0,-1,1154,1058,0,0
-63,-34,0,0,0,0,0,0,0,0,0,-1,1161,1058,0,0
-56,-34,0,0,0,0,0,0,0,0,0,-1,1168,1058,0,0
-49,-34,0,0,0,0,0,0,0,0,0,-1,1175,1058,0,0
-42,-34,0,0,0,0,0,0,0,0,0,-1,1182,1058,0,0
-35,-34,0,0,0,0,0,0,0,0,0,-1,1189,1058,0,0
-28,-34,0,0,0,0,0,0,0,0,0,-1,1196,1058,0,0
-21,-34,0,0,0,0,0,0,0,0,0,-1,1203,1058,0,0
-14,-34,0,0,0,0,0,0,0,0,0,-1,1210,1058,0,0
-7,-34,0,0,0,0,0,0,0,0,0,-1,1217,1058,0,0
0,-34,0,0,0,0,0,0,0,0,0,-1,1224,1058,0,0
7,-34,0,0,0,0,0,0,0,0,0,-1,1231,1058,0,0
14,-34,0,0,0,0,0,0,0,0,0,-1,1238,1058,0,0
21,-34,0,0,0,0,0,0,0,0,0,-1,1245,1058,0,0
28,-34,0,0,0,0,0,0,0,0,0,-1,1252,1058,0,0
35,-34,0,0,0,0,0,0,0,0,0,-1,1259,1058,0,0
42,-34,0,0,0,0,0,0,0,0,0,-1,1266,1058,0,0
49,-34,0,0,0,0,0,0,0,0,0,-1,1273,1058,0,0
56,-34,0,0,0,0,0,0,0,0,0,-1,1280,1058,0,0
63,-34,0,0,0,0,0,0,0,0,0,-1,1287,1058,0,0
70,-34,0,0,0,0,0,0,0,0,0,-1,1294,1058,0,0
77,-34,0,0,0,0,0,0,0,0,0,-1,1301,1058,0,0
84,-34,0,0,0,0,0,0,0,0,0,-1,1308,1058,0,0
91,-34,0,0,0,0,0,0,0,0,0,-1,1315,1058,0,0
98,-34,0,0,0,0,0,0,0,0,0,-1,1322,1058,0,0
105,-34,0,0,0,0,0,0,0,0,0,-1,1329,1058,0,0
112,-34,0,0,0,0,0,0,0,0,0,-1,1336,1058,0,0
119,-34,0,0,0,0,0,0,0,0,0,-1,1343,1058,0,0
126,-34,0,0,0,0,0,0,0,0,0,-1,1350,1058,0,0
133,-34,0,0,0,0,0,0,0,0,0,-1,1357,1058,0,0
140,-34,0,0,0,0,0,0,0,0,0,-1,1364,1058,0,0
147,-34,0,0,0,0,0,0,0,0,0,-1,1371,1058,0,0
154,-34,0,0,0,0,0,0,0,0,0,-1,1378,1058,0,0
161,-34,0,0,0,0,0,0,0,0,0,-1,1385,1058,0,0
168,-34,0,0,0,0,0,0,0,0,0,-1,1392,1058,0,0
175,-34,0,0,0,0,0,0,0,0,0,-1,1399,1058,0,0
182,-34,0,0,0,0,0,0,0,0,0,-1,1406,1058,0,0
189,-34,0,0,0,0,0,0,0,0,0,-1,1413,1058,0,0
196,-34,0,0,0,0,0,0,0,0,0,-1,1420,1058,0,0
203,-34,0,0,0,0,0,0,0,0,0,-1,1427,1058,0,0
210,-34,0,0,0,0,0,0,0,0,0,-1,1434,1058,0,0
217,-34,0,0,0,0,0,0,0,0,0,-1,1441,1058,0,0
224,-34,0,0,0,0,0,0,0,0,0,-1,1448,1058,0,0
231,-34,0,0,0,0,0,0,0,0,0,-1,1455,1058,0,0
238,-34,0,0,0,0,0,0,0,0,0,-1,1462,1058,0,0
245,-34,0,0,0,0,0,0,0,0,0,-1,1469,1058,0,0
252,-34,0,0,0,0,0,0,0,0,0,-1,1476,1058,0,0
259,-34,0,0,0,0,0,0,0,0,0,-1,1483,1058,0,0
266,-34,0,0,0,0,0,0,0,0,0,-1,1490,1058,0,0
273,-34,0,0,0,0,0,0,0,0,0,-1,1497,1058,0,0
280,-34,0,0,0,0,0,0,0,0,0,-1,1504,1058,0,0
287,-34,0,0,0,0,0,0,0,0,0,-1,1511,1058,0,0
294,-34,0,0,0,0,0,0,0,0,0,-1,1518,1058,0,0
301,-34,0,0,0,0,0,0,0,0,0,-1,1525,1058,0,0
308,-34,0,0,0,0,0,0,0,0,0,-1,1532,1058,0,0
315,-34,0,0,0,0,0,0,0,0,0,-1,1539,1058,0,0
322,-34,0,0,0,0,0,0,0,0,0,-1,1546,1058,0,0
329,-34,0,0,0,0,0,0,0,0,0,-1,1553,1058,0,0
336,-34,0,0,0,0,0,0,0,0,0,-1,1560,1058,0,0
343,-34,0,0,0,0,0,0,0,0,0,-1,1567,1058,0,0
350,-34,0,0,0,0,0,0,0,0,0,-1,1574,1058,0,0
357,-34,0,0,0,0,0,0,0,0,0,-1,1581,1058,0,0
364,-34,0,0,0,0,0,0,0,0,0,-1,1588,1058,0,0
371,-34,0,0,0,0,0,0,0,0,0,-1,1595,1058,0,0
378,-34,0,0,0,0,0,0,0,0,0,-1,1602,1058,0,0
385,-34,0,0,0,0,0,0,0,0,0,-1,1609,1058,0,0
392,-34,0,0,0,0,0,0,0,0,0,-1,1616,1058,0,0
399,-34,0,0,0,0,0,0,0,0,0,-1,1623,1058,0,0
406,-34,0,0,0,0,0,0,0,0,0,-1,1630,1058,0,0
413,-34,0,0,0,0,0,0,0,0,0,-1,1637,1058,0,0
420,-34,0,0,0,0,0,0,0,0,0,-1,1644,1058,0,0
427,-34,0,0,0,0,0,0,0,0,0,-1,1651,1058,0,0
434,-34,0,0,0,0,0,0,0,0,0,-1,1658,1058,0,0
441,-34,0,0,0,0,0,0,0,0,0,-1,1665,1058,0,0
448,-34,0,0,0,0,0,0,0,0,0,-1,1672,1058,0,0
455,-34,0,0,0,0,0,0,0,0,0,-1,1679,1058,0,0
462,-34,0,0,0,0,0,0,0,0,0,-1,1686,1058,0,0
469,-34,0,0,0,0,0,0,0,0,0,-1,1693,1058,0,0
476,-34,0,0,0,0,0,0,0,0,0,-1,1700,1058,0,0
483,-34,0,0,0,0,0,0,0,0,0,-1,1707,1058,0,0
490,-34,0,0,0,0,0,0,0,0,0,-1,1714,1058,0,0
497,-34,0,0,0,0,0,0,0,0,0,-1,1721,1058,0,0
504,-34,0,0,0,0,0,0,0,0,0,-1,1728,1058,0,0
511,-34,0,0,0,0,0,0,0,0,0,-1,1735,1058,0,0
518,-34,0,0,0,0,0,0,0,0,0,-1,1742,1058,0,0
525,-34,0,0,0,0,0,0,0,0,0,-1,1749,1058,0,0
532,-34,0,0,0,0,0,0,0,0,0,-1,1756,1058,0,0
539,-34,0,0,0,0,0,0,0,0,0,-1,1763,1058,0,0
546,-34,0,0,0,0,0,0,0,0,0,-1,1770,1058,0,0
553,-34,0,0,0,0,0,0,0,0,0,-1,1777,1058,0,0
560,-34,0,0,0,0,0,0,0,0,0,-1,1784,1058,0,0
567,-34,0,0,0,0,0,0,0,0,0,-1,1791,1058,0,0
574,-34,0,0,0,0,0,0,0,0,0,-1,1798,1058,0,0
581,-34,0,0,0,0,0,0,0,0,0,-1,1805,1058,0,0
588,-34,0,0,0,0,0,0,0,0,0,-1,1812,1058,0,0
595,-34,0,0,0,0,0,0,0,0,0,-1,1819,1058,0,0
602,-34,0,0,0,0,0,0,0,0,0,-1,1826,1058,0,0
609,-34,0,0,0,0,0,0,0,0,0,-1,1833,1058,0,0
616,-34,0,0,0,0,0,0,0,0,0,-1,1840,1058,0,0
623,-34,0,0,0,0,0,0,0,0,0,-1,1847,1058,0,0
630,-34,0,0,0,0,0,0,0,0,0,-1,1854,1058,0,0
637,-34,0,0,0,0,0,0,0,0,0,-1,1861,1058,0,0
644,-34,0,0,0,0,0,0,0,0,0,-1,1868,1058,0,0
651,-34,23.8783,3.03638,0.00135353,0.00238822,0.00198379,0.00392101,-0.000179264,0.912949,0.00267577,0.0409348,1875,1058,23.8783,-3.03642
658,-34,23.9843,3.02441,0.000214443,0.000959928,0.00106483,0.00171537,-0.000541001,0.953757,0.00136026,0.0422006,1882,1058,23.9842,-3.02444
665,-34,23.9749,2.89331,-0.000422097,5.58229e-05,0.000661807,0.000520489,-0.000886764,0.95865,0.0008216,0.041497,1889,1058,23.9748,-2.8933
672,-34,23.9415,2.77673,-0.000782672,-0.000367325,0.000843914,0.000294093,-0.00144409,0.906043,0.00107426,0.0380641,1896,1058,23.9415,-2.77676
679,-34,23.725,2.73804,-0.00151907,-0.00075058,0.00191065,0.000814079,-0.00308372,0.884628,0.00237416,0.037848,1903,1058,23.725,-2.73801
686,-34,23.6201,2.71509,-0.00226808,-0.00105312,0.00314193,0.00153952,-0.00486072,0.880893,0.00385745,0.0435806,1910,1058,23.6201,-2.71511
693,-34,23.6307,2.67249,-0.00289319,-0.00128293,0.00430725,0.00229379,-0.00646991,0.877794,0.00524772,0.0432041,1917,1058,23.6308,-2.67246
700,-34,23.6168,2.71362,-0.00339972,-0.00143155,0.005278,0.00295332,-0.00778459,0.877565,0.00640528,0.0403015,1924,1058,23.6168,-2.71365
707,-34,23.6267,2.75403,-0.00384072,-0.00164672,0.00589415,0.00325164,-0.00873908,0.877404,0.00716042,0.0251678,1931,1058,23.6267,-2.75401
714,-34,23.6787,2.81433,-0.00418339,-0.00159417,0.00636936,0.00361082,-0.00938838,0.88566,0.00774824,0.0190682,1938,1058,23.6787,-2.81429
721,-34,23.7633,3.36597,0,0,0,0,0,0,0,-1,1945,1058,23.7633,-3.36596
728,-34,23.5385,3.92615,-0.00438611,-0.0011315,0.00652092,0.0039621,-0.00947971,0.907676,0.00797559,0.0276069,1952,1058,23.5385,-3.92618
735,-34,23.2603,4.25952,-0.00438623,-0.000705275,0.00595079,0.00368316,-0.00877466,0.935374,0.00739005,0.01466,1959,1058,23.2602,-4.25954
742,-34,23.2278,4.23657,-0.00389448,-0.000255361,0.004894,0.00314638,-0.00729623,0.963377,0.0061857,0.0144687,1966,1058,23.2277,-4.23653
749,-34,23.2522,4.20142,-0.00291719,0.00158799,0.00318778,0.00323875,-0.00456795,1.09298,0.00452892,0.0117975,1973,1058,23.2522,-4.20147
756,-34,23.2628,4.17163,-0.00174578,0.00340452,0.00140267,0.00376176,-0.00210301,1.32142,0.00343087,0.00942584,1980,1058,23.2628,-4.17164
763,-34,23.2396,4.13501,-0.000400027,0.0056159,-0.00036992,0.00563856,-0.000422688,-1.50961,0.00390757,0.0103708,1987,1058,23.2397,-4.135
770,-34,23.2321,4.09241,0.0014992,0.0086731,-0.00256033,0.00949313,0.000679169,-1.26084,0.00611495,0.0153881,1994,1058,23.232,-4.09238
777,-34,23.2108,4.0824,0.0038814,0.0125489,-0.00461191,0.0145437,0.00188655,-1.16255,0.00913214,0.016346,2001,1058,23.2108,-4.08238
784,-34,23.1605,4.04382,0.00629363,0.0170193,-0.00594008,0.0196593,0.00365369,-1.15258,0.012074,0.0325312,2008,1058,23.1605,-4.04385
791,-34,23.0979,3.25854,0.00894274,0.022084,-0.00671477,0.0249081,0.00611862,-1.17267,0.0149881,0.0461042,2015,1058,23.0979,-3.25851
798,-34,23.3157,3.14697,0.0120842,0.0278011,-0.00678398,0.0303242,0.00956103,-1.21472,0.0179015,0.0494996,2022,1058,23.3157,-3.147
805,-34,23.2212,3.04492,0.0156437,0.0340168,-0.00559889,0.0355885,0.0140719,-1.29712,0.0206963,0.0460369,2029,1058,23.2213,-3.04496
812,-34,23.2043,2.9386,0,0,0,0,0,0,0,-1,2036,1058,23.2043,-2.93864
-700,-41,-18.1915,2.35168,0.127628,0.0283671,-0.0276829,0.134826,0.0211686,-0.254399,0.0837248,0.0451302,524,1065,-18.1915,-2.35165
-693,-41,-17.8744,2.4552,0.102306,0.0271534,-0.0239268,0.109277,0.0201823,-0.283503,0.0671427,0.0459207,531,1065,-17.8744,-2.45517
-686,-41,-17.5958,2.47583,0.0803064,0.0249082,-0.0199866,0.0867643,0.0184503,-0.312525,0.0527789,0.0473263,538,1065,-17.5958,-2.4758
-679,-41,-15.8729,2.11633,0,0,0,0,0,0,0,-1,545,1065,-15.8729,-2.11637
-672,-41,-15.9124,1.36328,0,0,0,0,0,0,0,-1,552,1065,-15.9124,-1.36333
-665,-41,-15.8756,0.860229,0,0,0,0,0,0,0,-1,559,1065,-15.8756,-0.860242
-658,-41,-15.7913,1.13562,0.0224616,0.0129355,-0.00684265,0.0260357,0.00936141,-0.481353,0.0152281,0.0402587,566,1065,-15.7913,-1.13562
-651,-41,-15.7755,1.46692,0.0145874,0.010121,-0.00469127,0.0175499,0.00715854,-0.563254,0.0101896,0.0272769,573,1065,-15.7754,-1.46687
-644,-41,-15.9294,1.51001,0.00771479,0.00749167,-0.00331357,0.0109187,0.00428778,-0.768571,0.0063521,0.0118054,580,1065,-15.9294,-1.50998
-637,-41,-15.9354,1.55383,0.00244948,0.00532809,-0.00298502,0.00720269,0.000574882,-1.01004,0.0046221,0.0121903,587,1065,-15.9354,-1.55386
-630,-41,-15.9188,1.64026,-0.00150564,0.00332912,-0.00283732,0.00463922,-0.00281574,-1.13822,0.00434683,0.0124057,594,1065,-15.9188,-1.64031
-623,-41,-15.9152,1.74683,-0.00200034,0.000715982,-0.00373614,0.00333316,-0.00461752,-0.959732,0.00461025,0.0117639,601,1065,-15.9152,-1.74677
-616,-41,-15.8893,1.82544,-0.0017576,-0.000120914,-0.00531355,0.00443694,-0.00631545,-0.861803,0.0062394,0.0153,608,1065,-15.8893,-1.8254
-609,-41,-15.877,1.85583,-0.00167456,-0.00050452,-0.00684822,0.00578362,-0.0079627,-0.828008,0.00796961,0.0197697,615,1065,-15.877,-1.85588
-602,-41,-15.8961,1.91736,-0.00160047,-0.0010974,-0.00813312,0.00678808,-0.00948595,-0.800857,0.00943875,0.0119391,622,1065,-15.8961,-1.91732
-595,-41,-15.9498,1.96985,-0.00145872,-0.00137252,-0.00899697,0.00758145,-0.0104127,-0.787793,0.0104317,0.0143,629,1065,-15.9498,-1.96983
-588,-41,-16.0229,1.39294,-0.00111326,-0.00147763,-0.00924961,0.00795596,-0.0105469,-0.775551,0.0107175,0.0235758,636,1065,-16.0229,-1.39292
-581,-41,-16.027,0.849243,-0.000585415,-0.00141011,-0.00913415,0.00814569,-0.0101412,-0.762842,0.0105789,0.0348384,643,1065,-16.027,-0.849201
-574,-41,-16.0964,0.999878,4.59273e-05,-0.00112237,-0.0085849,0.00806653,-0.00914297,-0.751429,0.00994238,0.039264,650,1065,-16.0964,-0.999833
-567,-41,-16.1667,1.18677,0.000915906,-0.000624696,-0.00736752,0.00755328,-0.00726208,-0.733311,0.0085542,0.0419617,657,1065,-16.1668,-1.18673
-560,-41,-15.9888,0.926147,0.00208341,2.97004e-05,-0.00550534,0.00665684,-0.00454374,-0.693198,0.00650491,0.0414496,664,1065,-15.9888,-0.926114
-553,-41,-15.9251,0.758911,0.00351383,0.000767652,-0.00306446,0.00549876,-0.00121728,-0.574775,0.00413181,0.0446642,671,1065,-15.9251,-0.758852
-546,-41,-15.928,0.834595,0.00512052,0.00148895,-9.70296e-05,0.00512311,0.00148636,-0.026693,0.00304344,0.0428477,678,1065,-15.928,-0.834603
-539,-41,-15.9484,0.833496,0.00668936,0.00201409,0.00261834,0.00786175,0.000841706,0.420989,0.00498434,0.0402952,685,1065,-15.9484,-0.833442
-532,-41,-15.8867,0.71167,0.00771397,0.00194366,0.00311994,0.0090783,0.000579325,0.412238,0.00586863,0.036358,692,1065,-15.8867,-0.71163
-525,-41,0,0,0,0,0,0,0,0,0,-1,699,1065,0,0
-518,-41,0,0,0,0,0,0,0,0,0,-1,706,1065,0,0
-511,-41,0,0,0,0,0,0,0,0,0,-1,713,1065,0,0
-504,-41,0,0,0,0,0,0,0,0,0,-1,720,1065,0,0
-497,-41,0,0,0,0,0,0,0,0,0,-1,727,1065,0,0
-490,-41,0,0,0,0,0,0,0,0,0,-1,734,1065,0,0
-483,-41,0,0,0,0,0,0,0,0,0,-1,741,1065,0,0
-476,-41,0,0,0,0,0,0,0,0,0,-1,748,1065,0,0
-469,-41,0,0,0,0,0,0,0,0,0,-1,755,1065,0,0
-462,-41,0,0,0,0,0,0,0,0,0,-1,762,1065,0,0
-455,-41,0,0,0,0,0,0,0,0,0,-1,769,1065,0,0
-448,-41,0,0,0,0,0,0,0,0,0,-1,776,1065,0,0
-441,-41,0,0,0,0,0,0,0,0,0,-1,783,1065,0,0
-434,-41,0,0,0,0,0,0,0,0,0,-1,790,1065,0,0
-427,-41,0,0,0,0,0,0,0,0,0,-1,797,1065,0,0
-420,-41,0,0,0,0,0,0,0,0,0,-1,804,1065,0,0
-413,-41,0,0,0,0,0,0,0,0,0,-1,811,1065,0,0
-406,-41,0,0,0,0,0,0,0,0,0,-1,818,1065,0,0
-399,-41,0,0,0,0,0,0,0,0,0,-1,825,1065,0,0
-392,-41,0,0,0,0,0,0,0,0,0,-1,832,1065,0,0
-385,-41,0,0,0,0,0,0,0,0,0,-1,839,1065,0,0
-378,-41,0,0,0,0,0,0,0,0,0,-1,846,1065,0,0
-371,-41,0,0,0,0,0,0,0,0,0,-1,853,1065,0,0
-364,-41,0,0,0,0,0,0,0,0,0,-1,860,1065,0,0
-357,-41,0,0,0,0,0,0,0,0,0,-1,867,1065,0,0
-350,-41,0,0,0,0,0,0,0,0,0,-1,874,1065,0,0
-343,-41,0,0,0,0,0,0,0,0,0,-1,881,1065,0,0
-336,-41,0,0,0,0,0,0,0,0,0,-1,888,1065,0,0
-329,-41,0,0,0,0,0,0,0,0,0,-1,895,1065,0,0
-322,-41,0,0,0,0,0,0,0,0,0,-1,902,1065,0,0
-315,-41,0,0,0,0,0,0,0,0,0,-1,909,1065,0,0
-308,-41,0,0,0,0,0,0,0,0,0,-1,916,1065,0,0
-301,-41,0,0,0,0,0,0,0,0,0,-1,923,1065,0,0
-294,-41,0,0,0,0,0,0,0,0,0,-1,930,1065,0,0
-287,-41,0,0,0,0,0,0,0,0,0,-1,937,1065,0,0
-280,-41,0,0,0,0,0,0,0,0,0,-1,944,1065,0,0
-273,-41,0,0,0,0,0,0,0,0,0,-1,951,1065,0,0
-266,-41,0,0,0,0,0,0,0,0,0,-1,958,1065,0,0
-259,-41,0,0,0,0,0,0,0,0,0,-1,965,1065,0,0
-252,-41,0,0,0,0,0,0,0,0,0,-1,972,1065,0,0
-245,-41,0,0,0,0,0,0,0,0,0,-1,979,1065,0,0
-238,-41,0,0,0,0,0,0,0,0,0,-1,986,1065,0,0
-231,-41,0,0,0,0,0,0,0,0,0,-1,993,1065,0,0
-224,-41,0,0,0,0,0,0,0,0,0,-1,1000,1065,0,0
-217,-41,0,0,0,0,0,0,0,0,0,-1,1007,1065,0,0
-210,-41,0,0,0,0,0,0,0,0,0,-1,1014,1065,0,0
-203,-41,0,0,0,0,0,0,0,0,0,-1,1021,1065,0,0
-196,-41,0,0,0,0,0,0,0,0,0,-1,1028,1065,0,0
-189,-41,0,0,0,0,0,0,0,0,0,-1,1035,1065,0,0
-182,-41,0,0,0,0,0,0,0,0,0,-1,1042,1065,0,0
-175,-41,0,0,0,0,0,0,0,0,0,-1,1049,1065,0,0
-168,-41,0,0,0,0,0,0,0,0,0,-1,1056,1065,0,0
-161,-41,0,0,0,0,0,0,0,0,0,-1,1063,1065,0,0
-154,-41,0,0,0,0,0,0,0,0,0,-1,1070,1065,0,0
-147,-41,0,0,0,0,0,0,0,0,0,-1,1077,1065,0,0
-140,-41,0,0,0,0,0,0,0,0,0,-1,1084,1065,0,0
-133,-41,0,0,0,0,0,0,0,0,0,-1,1091,1065,0,0
-126,-41,0,0,0,0,0,0,0,0,0,-1,1098,1065,0,0
-119,-41,0,0,0,0,0,0,0,0,0,-1,1105,1065,0,0
-112,-41,0,0,0,0,0,0,0,0,0,-1,1112,1065,0,0
-105,-41,0,0,0,0,0,0,0,0,0,-1,1119,1065,0,0
-98,-41,0,0,0,0,0,0,0,0,0,-1,1126,1065,0,0
-91,-41,0,0,0,0,0,0,0,0,0,-1,1133,1065,0,0
-84,-41,0,0,0,0,0,0,0,0,0,-1,1140,1065,0,0
-77,-41,0,0,0,0,0,0,0,0,0,-1,1147,1065,0,0
-70,-41,0,0,0,0,0,0,0,0,0,-1,1154,1065,0,0
-63,-41,0,0,0,0,0,0,0,0,0,-1,1161,1065,0,0
-56,-41,0,0,0,0,0,0,0,0,0,-1,1168,1065,0,0
-49,-41,0,0,0,0,0,0,0,0,0,-1,1175,1065,0,0
-42,-41,0,0,0,0,0,0,0,0,0,-1,1182,1065,0,0
-35,-41,0,0,0,0,0,0,0,0,0,-1,1189,1065,0,0
-28,-41,0,0,0,0,0,0,0,0,0,-1,1196,1065,0,0
-21,-41,0,0,0,0,0,0,0,0,0,-1,1203,1065,0,0
-14,-41,0,0,0,0,0,0,0,0,0,-1,1210,1065,0,0
-7,-41,0,0,0,0,0,0,0,0,0,-1,1217,1065,0,0
0,-41,0,0,0,0,0,0,0,0,0,-1,1224,1065,0,0
7,-41,0,0,0,0,0,0,0,0,0,-1,1231,1065,0,0
14,-41,0,0,0,0,0,0,0,0,0,-1,1238,1065,0,0
21,-41,0,0,0,0,0,0,0,0,0,-1,1245,1065,0,0
28,-41,0,0,0,0,0,0,0,0,0,-1,1252,1065,0,0
35,-41,0,0,0,0,0,0,0,0,0,-1,1259,1065,0,0
42,-41,0,0,0,0,0,0,0,0,0,-1,1266,1065,0,0
49,-41,0,0,0,0,0,0,0,0,0,-1,1273,1065,0,0
56,-41,0,0,0,0,0,0,0,0,0,-1,1280,1065,0,0
63,-41,0,0,0,0,0,0,0,0,0,-1,1287,1065,0,0
70,-41,0,0,0,0,0,0,0,0,0,-1,1294,1065,0,0
77,-41,0,0,0,0,0,0,0,0,0,-1,1301,1065,0,0
84,-41,0,0,0,0,0,0,0,0,0,-1,1308,1065,0,0
91,-41,0,0,0,0,0,0,0,0,0,-1,1315,1065,0,0
98,-41,0,0,0,0,0,0,0,0,0,-1,1322,1065,0,0
105,-41,0,0,0,0,0,0,0,0,0,-1,1329,1065,0,0
112,-41,0,0,0,0,0,0,0,0,0,-1,1336,1065,0,0
119,-41,0,0,0,0,0,0,0,0,0,-1,1343,1065,0,0
126,-41,0,0,0,0,0,0,0,0,0,-1,1350,1065,0,0
133,-41,0,0,0,0,0,0,0,0,0,-1,1357,1065,0,0
140,-41,0,0,0,0,0,0,0,0,0,-1,1364,1065,0,0
147,-41,0,0,0,0,0,0,0,0,0,-1,1371,1065,0,0
154,-41,0,0,0,0,0,0,0,0,0,-1,1378,1065,0,0
161,-41,0,0,0,0,0,0,0,0,0,-1,1385,1065,0,0
168,-41,0,0,0,0,0,0,0,0,0,-1,1392,1065,0,0
175,-41,0,0,0,0,0,0,0,0,0,-1,1399,1065,0,0
182,-41,0,0,0,0,0,0,0,0,0,-1,1406,1065,0,0
189,-41,0,0,0,0,0,0,0,0,0,-1,1413,1065,0,0
196,-41,0,0,0,0,0,0,0,0,0,-1,1420,1065,0,0
203,-41,0,0,0,0,0,0,0,0,0,-1,1427,1065,0,0
210,-41,0,0,0,0,0,0,0,0,0,-1,1434,1065,0,0
217,-41,0,0,0,0,0,0,0,0,0,-1,1441,1065,0,0
224,-41,0,0,0,0,0,0,0,0,0,-1,1448,1065,0,0
231,-41,0,0,0,0,0,0,0,0,0,-1,1455,1065,0,0
238,-41,0,0,0,0,0,0,0,0,0,-1,1462,1065,0,0
245,-41,0,0,0,0,0,0,0,0,0,-1,1469,1065,0,0
252,-41,0,0,0,0,0,0,0,0,0,-1,1476,1065,0,0
259,-41,0,0,0,0,0,0,0,0,0,-1,1483,1065,0,0
266,-41,0,0,0,0,0,0,0,0,0,-1,1490,1065,0,0
273,-41,0,0,0,0,0,0,0,0,0,-1,1497,1065,0,0
280,-41,0,0,0,0,0,0,0,0,0,-1,1504,1065,0,0
287,-41,0,0,0,0,0,0,0,0,0,-1,1511,1065,0,0
294,-41,0,0,0,0,0,0,0,0,0,-1,1518,1065,0,0
301,-41,0,0,0,0,0,0,0,0,0,-1,1525,1065,0,0
308,-41,0,0,0,0,0,0,0,0,0,-1,1532,1065,0,0
315,-41,0,0,0,0,0,0,0,0,0,-1,1539,1065,0,0
322,-41,0,0,0,0,0,0,0,0,0,-1,1546,1065,0,0
329,-41,0,0,0,0,0,0,0,0,0,-1,1553,1065,0,0
336,-41,0,0,0,0,0,0,0,0,0,-1,1560,1065,0,0
343,-41,0,0,0,0,0,0,0,0,0,-1,1567,1065,0,0
350,-41,0,0,0,0,0,0,0,0,0,-1,1574,1065,0,0
357,-41,0,0,0,0,0,0,0,0,0,-1,1581,1065,0,0
364,-41,0,0,0,0,0,0,0,0,0,-1,1588,1065,0,0
371,-41,0,0,0,0,0,0,0,0,0,-1,1595,1065,0,0
378,-41,0,0,0,0,0,0,0,0,0,-1,1602,1065,0,0
385,-41,0,0,0,0,0,0,0,0,0,-1,1609,1065,0,0
392,-41,0,0,0,0,0,0,0,0,0,-1,1616,1065,0,0
399,-41,0,0,0,0,0,0,0,0,0,-1,1623,1065,0,0
406,-41,0,0,0,0,0,0,0,0,0,-1,1630,1065,0,0
413,-41,0,0,0,0,0,0,0,0,0,-1,1637,1065,0,0
420,-41,0,0,0,0,0,0,0,0,0,-1,1644,1065,0,0
427,-41,0,0,0,0,0,0,0,0,0,-1,1651,1065,0,0
434,-41,0,0,0,0,0,0,0,0,0,-1,1658,1065,0,0
441,-41,0,0,0,0,0,0,0,0,0,-1,1665,1065,0,0
448,-41,0,0,0,0,0,0,0,0,0,-1,1672,1065,0,0
455,-41,0,0,0,0,0,0,0,0,0,-1,1679,1065,0,0
462,-41,0,0,0,0,0,0,0,0,0,-1,1686,1065,0,0
469,-41,0,0,0,0,0,0,0,0,0,-1,1693,1065,0,0
476,-41,0,0,0,0,0,0,0,0,0,-1,1700,1065,0,0
483,-41,0,0,0,0,0,0,0,0,0,-1,1707,1065,0,0
490,-41,0,0,0,0,0,0,0,0,0,-1,1714,1065,0,0
497,-41,0,0,0,0,0,0,0,0,0,-1,1721,1065,0,0
504,-41,0,0,0,0,0,0,0,0,0,-1,1728,1065,0,0
511,-41,0,0,0,0,0,0,0,0,0,-1,1735,1065,0,0
518,-41,0,0,0,0,0,0,0,0,0,-1,1742,1065,0,0
525,-41,0,0,0,0,0,0,0,0,0,-1,1749,1065,0,0
532,-41,0,0,0,0,0,0,0,0,0,-1,1756,1065,0,0
539,-41,0,0,0,0,0,0,0,0,0,-1,1763,1065,0,0
546,-41,0,0,0,0,0,0,0,0,0,-1,1770,1065,0,0
553,-41,0,0,0,0,0,0,0,0,0,-1,1777,1065,0,0
560,-41,0,0,0,0,0,0,0,0,0,-1,1784,1065,0,0
567,-41,0,0,0,0,0,0,0,0,0,-1,1791,1065,0,0
574,-41,0,0,0,0,0,0,0,0,0,-1,1798,1065,0,0
581,-41,0,0,0,0,0,0,0,0,0,-1,1805,1065,0,0
588,-41,0,0,0,0,0,0,0,0,0,-1,1812,1065,0,0
595,-41,0,0,0,0,0,0,0,0,0,-1,1819,1065,0,0
602,-41,0,0,0,0,0,0,0,0,0,-1,1826,1065,0,0
609,-41,0,0,0,0,0,0,0,0,0,-1,1833,1065,0,0
616,-41,0,0,0,0,0,0,0,0,0,-1,1840,1065,0,0
623,-41,0,0,0,0,0,0,0,0,0,-1,1847,1065,0,0
630,-41,0,0,0,0,0,0,0,0,0,-1,1854,1065,0,0
637,-41,0,0,0,0,0,0,0,0,0,-1,1861,1065,0,0
644,-41,0,0,0,0,0,0,0,0,0,-1,1868,1065,0,0
651,-41,23.6992,2.68567,0.00110721,0.00231284,0.00322454,0.00499043,-0.00157038,0.877805,0.00395572,0.0365616,1875,1065,23.6992,-2.68567
658,-41,23.8284,2.67175,4.40022e-05,0.000723121,0.00196727,0.00237992,-0.00161279,0.870858,0.00231933,0.0395796,1882,1065,23.8284,-2.67178
665,-41,23.9899,2.86157,-0.000539813,-0.000277182,0.00129035,0.000888521,-0.00170552,0.836107,0.00152223,0.0405915,1889,1065,23.9898,-2.86154
672,-41,24.0997,2.76038,-0.000876165,-0.000772096,0.00125204,0.000428991,-0.00207725,0.806166,0.00154778,0.0416781,1896,1065,24.0997,-2.76039
679,-41,23.8785,2.79199,-0.00165901,-0.00122083,0.00213896,0.00071023,-0.00359008,0.836434,0.0026619,0.0421374,1903,1065,23.8786,-2.79205
686,-41,23.5627,2.75623,0,0,0,0,0,0,0,-1,1910,1065,23.5627,-2.75623
693,-41,23.573,2.65991,-0.00317513,-0.00179292,0.00430032,0.00187147,-0.00683952,0.865072,0.00529492,0.0456361,1917,1065,23.5731,-2.65988
700,-41,23.6301,2.698,-0.00374839,-0.00192756,0.00520339,0.00244445,-0.00812041,0.872004,0.00638632,0.0411168,1924,1065,23.6301,-2.69803
707,-41,23.6744,2.74927,-0.00423036,-0.00211632,0.00578205,0.00270454,-0.00905121,0.875805,0.00710925,0.0291761,1931,1065,23.6744,-2.74927
714,-41,23.6625,2.7478,-0.00459349,-0.00204279,0.00623078,0.00304183,-0.00967811,0.886347,0.00766979,0.0168342,1938,1065,23.6625,-2.74782
721,-41,23.7233,3.62842,0,0,0,0,0,0,0,-1,1945,1065,23.7233,-3.62837
728,-41,23.416,4.15991,-0.00478036,-0.00150104,0.00639548,0.00346162,-0.00974302,0.910884,0.007906,0.0315211,1952,1065,23.4161,-4.15994
735,-41,23.2325,4.27808,-0.00478776,-0.00101741,0.00585953,0.00325274,-0.0090579,0.941033,0.00736625,0.014934,1959,1065,23.2326,-4.27813
742,-41,23.1925,4.24304,-0.00422871,-0.000507426,0.00492685,0.00289841,-0.00763455,0.965946,0.00628279,0.0130095,1966,1065,23.1925,-4.24303
749,-41,23.2244,4.2019,-0.00318138,0.00116919,0.00349583,0.00311127,-0.00512346,1.06371,0.00480141,0.0125377,1973,1065,23.2243,-4.20196
756,-41,23.2397,4.1709,-0.00197423,0.00292022,0.00208174,0.00368587,-0.00273988,1.21836,0.00372328,0.0125015,1980,1065,23.2398,-4.17091
763,-41,23.2031,4.13965,-0.000574867,0.00517856,0.000806101,0.00528937,-0.000685674,1.43419,0.00377562,0.0102324,1987,1065,23.2032,-4.13962
770,-41,23.1888,4.09241,0.00134152,0.00817813,-0.000701819,0.00824944,0.00127021,-1.46955,0.00512892,0.011366,1994,1065,23.1889,-4.09244
777,-41,23.1759,4.04993,0.00368885,0.0120172,-0.00179833,0.0123889,0.00331713,-1.36696,0.00740548,0.0130711,2001,1065,23.176,-4.04992
784,-41,23.1213,4.00439,0.00599336,0.016512,-0.00189641,0.0168435,0.0056619,-1.39776,0.00989712,0.0257491,2008,1065,23.1214,-4.00437
791,-41,23.0662,3.95166,0.00848207,0.021793,-0.00111433,0.0218856,0.00838942,-1.48785,0.0127498,0.0490969,2015,1065,23.0661,-3.95162
798,-41,23.0109,3.90002,0,0,0,0,0,0,0,-1,2022,1065,23.0109,-3.90004
805,-41,22.8325,2.72656,0.0147992,0.0353105,0.00410945,0.0361032,0.0140065,1.38024,0.0210179,0.0435105,2029,1065,22.8325,-2.72656
812,-41,22.7878,2.68384,0,0,0,0,0,0,0,-1,2036,1065,22.7878,-2.68383
-700,-48,-17.7983,2.18481,0.119357,0.0317047,-0.0316721,0.129603,0.0214582,-0.312892,0.080212,0.0451472,524,1072,-17.7983,-2.18478
-693,-48,-17.5001,2.07764,0.0958599,0.0284386,-0.027055,0.105374,0.0189244,-0.338152,0.064868,0.040648,531,1072,-17.5,-2.07759
-686,-48,-16.8607,1.70496,0.0752248,0.0251248,-0.0223678,0.0837578,0.0165918,-0.364446,0.0512118,0.0474906,538,1072,-16.8607,-1.70494
-679,-48,-15.5199,0.612305,0.0574652,0.0218072,-0.0179308,0.0649223,0.0143501,-0.394123,0.0393795,0.0450872,545,1072,-15.5199,-0.612341
-672,-48,-15.644,0.612427,0.0425189,0.018557,-0.0138881,0.0488797,0.0121962,-0.429494,0.0293775,0.044835,552,1072,-15.644,-0.612456
-665,-48,-15.7941,0.697632,0.0302608,0.0154385,-0.0103548,0.0355833,0.010116,-0.474797,0.0211718,0.0460985,559,1072,-15.7941,-0.697621
-658,-48,-15.7462,0.868164,0.0205312,0.0125098,-0.0073772,0.0249175,0.00812356,-0.536416,0.0146735,0.0453777,566,1072,-15.7462,-0.868165
-651,-48,-15.755,1.23352,0.0131513,0.00982201,-0.00499174,0.0167487,0.00622468,-0.624455,0.00977547,0.0305503,573,1072,-15.755,-1.23347
-644,-48,-15.8171,1.5022,0.00663916,0.00721513,-0.00348949,0.0104285,0.00342579,-0.826569,0.00613782,0.0143499,580,1072,-15.8171,-1.50221
-637,-48,-15.8086,1.52295,0.00168628,0.00511362,-0.00302669,0.00687809,-7.81994e-05,-1.04299,0.00461168,0.0147583,587,1072,-15.8086,-1.52297
-630,-48,-15.779,1.62354,-0.00195828,0.00330394,-0.00283378,0.00453975,-0.00319409,-1.15956,0.00448761,0.016262,594,1072,-15.779,-1.62352
-623,-48,-15.8126,1.71692,-0.00249073,0.000831648,-0.0038026,0.00332007,-0.00497916,-0.991333,0.00482337,0.0102858,601,1072,-15.8125,-1.71687
-616,-48,-15.8221,1.78076,-0.00232637,5.56143e-05,-0.00546731,0.00446015,-0.0067309,-0.892642,0.00650534,0.00939683,608,1072,-15.8221,-1.78081
-609,-48,-15.8135,1.85449,-0.00235686,-0.000422836,-0.00709977,0.00577547,-0.00855517,-0.853083,0.00832552,0.0108184,615,1072,-15.8135,-1.85448
-602,-48,-15.8375,1.94104,-0.00239572,-0.00112697,-0.00846504,0.00672743,-0.0102501,-0.822798,0.00987208,0.0110586,622,1072,-15.8375,-1.9411
-595,-48,-15.8835,2.00793,-0.00236692,-0.00147877,-0.00939494,0.00748259,-0.0113283,-0.809014,0.0109359,0.0155452,629,1072,-15.8835,-2.00796
-588,-48,-15.9671,1.396,-0.00209341,-0.00163866,-0.00970476,0.00784139,-0.0115735,-0.79711,0.011278,0.0297612,636,1072,-15.9671,-1.39597
-581,-48,-15.9971,0.754272,-0.00157854,-0.00155614,-0.00962369,0.00805636,-0.011191,-0.78598,0.0111615,0.0374044,643,1072,-15.9971,-0.754234
-574,-48,-16.0532,0.849365,-0.000914246,-0.00130853,-0.00909094,0.00798168,-0.0102045,-0.774557,0.0105259,0.04165,650,1072,-16.0532,-0.849367
-567,-48,-16.0381,1.1355,7.62435e-05,-0.000849762,-0.00786024,0.0074871,-0.00826062,-0.75598,0.00909561,0.0426182,657,1072,-16.0382,-1.13549
-560,-48,-15.9742,0.989014,0.001446,-0.000220255,-0.0059504,0.00662131,-0.00539557,-0.715844,0.00694997,0.0411654,664,1072,-15.9743,-0.988979
-553,-48,-15.9284,0.637939,0.003172,0.000523366,-0.0034243,0.00551915,-0.00182378,-0.600886,0.00441477,0.0401731,671,1072,-15.9284,-0.637932
-546,-48,-15.9738,0.554321,0.00518024,0.00130802,-0.000335167,0.00520904,0.00127922,-0.0857072,0.00313454,0.0391338,678,1072,-15.9738,-0.55437
-539,-48,-16.0356,0.832153,0.00722469,0.00200834,0.00255736,0.00826928,0.000963758,0.38778,0.00522133,0.0399233,685,1072,-16.0356,-0.832118
-532,-48,-16.1439,0.885132,0.00861925,0.00217899,0.00312871,0.0098889,0.000909348,0.3855,0.00631136,0.0383029,692,1072,-16.1439,-0.885126
-525,-48,0,0,0,0,0,0,0,0,0,-1,699,1072,0,0
-518,-48,0,0,0,0,0,0,0,0,0,-1,706,1072,0,0
-511,-48,0,0,0,0,0,0,0,0,0,-1,713,1072,0,0
-504,-48,0,0,0,0,0,0,0,0,0,-1,720,1072,0,0
-497,-48,0,0,0,0,0,0,0,0,0,-1,727,1072,0,0
-490,-48,0,0,0,0,0,0,0,0,0,-1,734,1072,0,0
-483,-48,0,0,0,0,0,0,0,0,0,-1,741,1072,0,0
-476,-48,0,0,0,0,0,0,0,0,0,-1,748,1072,0,0
-469,-48,0,0,0,0,0,0,0,0,0,-1,755,1072,0,0
-462,-48,0,0,0,0,0,0,0,0,0,-1,762,1072,0,0
-455,-48,0,0,0,0,0,0,0,0,0,-1,769,1072,0,0
-448,-48,0,0,0,0,0,0,0,0,0,-1,776,1072,0,0
-441,-48,0,0,0,0,0,0,0,0,0,-1,783,1072,0,0
-434,-48,0,0,0,0,0,0,0,0,0,-1,790,1072,0,0
-427,-48,0,0,0,0,0,0,0,0,0,-1,797,1072,0,0
-420,-48,0,0,0,0,0,0,0,0,0,-1,804,1072,0,0
-413,-48,0,0,0,0,0,0,0,0,0,-1,811,1072,0,0
-406,-48,0,0,0,0,0,0,0,0,0,-1,818,1072,0,0
-399,-48,0,0,0,0,0,0,0,0,0,-1,825,1072,0,0
-392,-48,0,0,0,0,0,0,0,0,0,-1,832,1072,0,0
-385,-48,0,0,0,0,0,0,0,0,0,-1,839,1072,0,0
-378,-48,0,0,0,0,0,0,0,0,0,-1,846,1072,0,0
-371,-48,0,0,0,0,0,0,0,0,0,-1,853,1072,0,0
-364,-48,0,0,0,0,0,0,0,0,0,-1,860,1072,0,0
-357,-48,0,0,0,0,0,0,0,0,0,-1,867,1072,0,0
-350,-48,0,0,0,0,0,0,0,0,0,-1,874,1072,0,0
-343,-48,0,0,0,0,0,0,0,0,0,-1,881,1072,0,0
-336,-48,0,0,0,0,0,0,0,0,0,-1,888,1072,0,0
-329,-48,0,0,0,0,0,0,0,0,0,-1,895,1072,0,0
-322,-48,0,0,0,0,0,0,0,0,0,-1,902,1072,0,0
-315,-48,0,0,0,0,0,0,0,0,0,-1,909,1072,0,0
-308,-48,0,0,0,0,0,0,0,0,0,-1,916,1072,0,0
-301,-48,0,0,0,0,0,0,0,0,0,-1,923,1072,0,0
-294,-48,0,0,0,0,0,0,0,0,0,-1,930,1072,0,0
-287,-48,0,0,0,0,0,0,0,0,0,-1,937,1072,0,0
-280,-48,0,0,0,0,0,0,0,0,0,-1,944,1072,0,0
-273,-48,0,0,0,0,0,0,0,0,0,-1,951,1072,0,0
-266,-48,0,0,0,0,0,0,0,0,0,-1,958,1072,0,0
-259,-48,0,0,0,0,0,0,0,0,0,-1,965,1072,0,0
-252,-48,0,0,0,0,0,0,0,0,0,-1,972,1072,0,0
-245,-48,0,0,0,0,0,0,0,0,0,-1,979,1072,0,0
-238,-48,0,0,0,0,0,0,0,0,0,-1,986,1072,0,0
-231,-48,0,0,0,0,0,0,0,0,0,-1,993,1072,0,0
-224,-48,0,0,0,0,0,0,0,0,0,-1,1000,1072,0,0
-217,-48,0,0,0,0,0,0,0,0,0,-1,1007,1072,0,0
-210,-48,0,0,0,0,0,0,0,0,0,-1,1014,1072,0,0
-203,-48,0,0,0,0,0,0,0,0,0,-1,1021,1072,0,0
-196,-48,0,0,0,0,0,0,0,0,0,-1,1028,1072,0,0
-189,-48,0,0,0,0,0,0,0,0,0,-1,1035,1072,0,0
-182,-48,0,0,0,0,0,0,0,0,0,-1,1042,1072,0,0
-175,-48,0,0,0,0,0,0,0,0,0,-1,1049,1072,0,0
-168,-48,0,0,0,0,0,0,0,0,0,-1,1056,1072,0,0
-161,-48,0,0,0,0,0,0,0,0,0,-1,1063,1072,0,0
-154,-48,0,0,0,0,0,0,0,0,0,-1,1070,1072,0,0
-147,-48,0,0,0,0,0,0,0,0,0,-1,1077,1072,0,0
-140,-48,0,0,0,0,0,0,0,0,0,-1,1084,1072,0,0
-133,-48,0,0,0,0,0,0,0,0,0,-1,1091,1072,0,0
-126,-48,0,0,0,0,0,0,0,0,0,-1,1098,1072,0,0
-119,-48,0,0,0,0,0,0,0,0,0,-1,1105,1072,0,0
-112,-48,0,0,0,0,0,0,0,0,0,-1,1112,1072,0,0
-105,-48,0,0,0,0,0,0,0,0,0,-1,1119,1072,0,0
-98,-48,0,0,0,0,0,0,0,0,0,-1,1126,1072,0,0
-91,-48,0,0,0,0,0,0,0,0,0,-1,1133,1072,0,0
-84,-48,0,0,0,0,0,0,0,0,0,-1,1140,1072,0,0
-77,-48,0,0,0,0,0,0,0,0,0,-1,1147,1072,0,0
-70,-48,0,0,0,0,0,0,0,0,0,-1,1154,1072,0,0
-63,-48,0,0,0,0,0,0,0,0,0,-1,1161,1072,0,0
-56,-48,0,0,0,0,0,0,0,0,0,-1,1168,1072,0,0
-49,-48,0,0,0,0,0,0,0,0,0,-1,1175,1072,0,0
-42,-48,0,0,0,0,0,0,0,0,0,-1,1182,1072,0,0
-35,-48,0,0,0,0,0,0,0,0,0,-1,1189,1072,0,0
-28,-48,0,0,0,0,0,0,0,0,0,-1,1196,1072,0,0
-21,-48,0,0,0,0,0,0,0,0,0,-1,1203,1072,0,0
-14,-48,0,0,0,0,0,0,0,0,0,-1,1210,1072,0,0
-7,-48,0,0,0,0,0,0,0,0,0,-1,1217,1072,0,0
0,-48,0,0,0,0,0,0,0,0,0,-1,1224,1072,0,0
7,-48,0,0,0,0,0,0,0,0,0,-1,1231,1072,0,0
14,-48,0,0,0,0,0,0,0,0,0,-1,1238,1072,0,0
21,-48,0,0,0,0,0,0,0,0,0,-1,1245,1072,0,0
28,-48,0,0,0,0,0,0,0,0,0,-1,1252,1072,0,0
35,-48,0,0,0,0,0,0,0,0,0,-1,1259,1072,0,0
42,-48,0,0,0,0,0,0,0,0,0,-1,1266,1072,0,0
49,-48,0,0,0,0,0,0,0,0,0,-1,1273,1072,0,0
56,-48,0,0,0,0,0,0,0,0,0,-1,1280,1072,0,0
63,-48,0,0,0,0,0,0,0,0,0,-1,1287,1072,0,0
70,-48,0,0,0,0,0,0,0,0,0,-1,1294,1072,0,0
77,-48,0,0,0,0,0,0,0,0,0,-1,1301,1072,0,0
84,-48,0,0,0,0,0,0,0,0,0,-1,1308,1072,0,0
91,-48,0,0,0,0,0,0,0,0,0,-1,1315,1072,0,0
98,-48,0,0,0,0,0,0,0,0,0,-1,1322,1072,0,0
105,-48,0,0,0,0,0,0,0,0,0,-1,1329,1072,0,0
112,-48,0,0,0,0,0,0,0,0,0,-1,1336,1072,0,0
119,-48,0,0,0,0,0,0,0,0,0,-1,1343,1072,0,0
126,-48,0,0,0,0,0,0,0,0,0,-1,1350,1072,0,0
133,-48,0,0,0,0,0,0,0,0,0,-1,1357,1072,0,0
140,-48,0,0,0,0,0,0,0,0,0,-1,1364,1072,0,0
147,-48,0,0,0,0,0,0,0,0,0,-1,1371,1072,0,0
154,-48,0,0,0,0,0,0,0,0,0,-1,1378,1072,0,0
161,-48,0,0,0,0,0,0,0,0,0,-1,1385,1072,0,0
168,-48,0,0,0,0,0,0,0,0,0,-1,1392,1072,0,0
175,-48,0,0,0,0,0,0,0,0,0,-1,1399,1072,0,0
182,-48,0,0,0,0,0,0,0,0,0,-1,1406,1072,0,0
189,-48,0,0,0,0,0,0,0,0,0,-1,1413,1072,0,0
196,-48,0,0,0,0,0,0,0,0,0,-1,1420,1072,0,0
203,-48,0,0,0,0,0,0,0,0,0,-1,1427,1072,0,0
210,-48,0,0,0,0,0,0,0,0,0,-1,1434,1072,0,0
217,-48,0,0,0,0,0,0,0,0,0,-1,1441,1072,0,0
224,-48,0,0,0,0,0,0,0,0,0,-1,1448,1072,0,0
231,-48,0,0,0,0,0,0,0,0,0,-1,1455,1072,0,0
238,-48,0,0,0,0,0,0,0,0,0,-1,1462,1072,0,0
245,-48,0,0,0,0,0,0,0,0,0,-1,1469,1072,0,0
252,-48,0,0,0,0,0,0,0,0,0,-1,1476,1072,0,0
259,-48,0,0,0,0,0,0,0,0,0,-1,1483,1072,0,0
266,-48,0,0,0,0,0,0,0,0,0,-1,1490,1072,0,0
273,-48,0,0,0,0,0,0,0,0,0,-1,1497,1072,0,0
280,-48,0,0,0,0,0,0,0,0,0,-1,1504,1072,0,0
287,-48,0,0,0,0,0,0,0,0,0,-1,1511,1072,0,0
294,-48,0,0,0,0,0,0,0,0,0,-1,1518,1072,0,0
301,-48,0,0,0,0,0,0,0,0,0,-1,1525,1072,0,0
308,-48,0,0,0,0,0,0,0,0,0,-1,1532,1072,0,0
315,-48,0,0,0,0,0,0,0,0,0,-1,1539,1072,0,0
322,-48,0,0,0,0,0,0,0,0,0,-1,1546,1072,0,0
329,-48,0,0,0,0,0,0,0,0,0,-1,1553,1072,0,0
336,-48,0,0,0,0,0,0,0,0,0,-1,1560,1072,0,0
343,-48,0,0,0,0,0,0,0,0,0,-1,1567,1072,0,0
350,-48,0,0,0,0,0,0,0,0,0,-1,1574,1072,0,0
357,-48,0,0,0,0,0,0,0,0,0,-1,1581,1072,0,0
364,-48,0,0,0,0,0,0,0,0,0,-1,1588,1072,0,0
371,-48,0,0,0,0,0,0,0,0,0,-1,1595,1072,0,0
378,-48,0,0,0,0,0,0,0,0,0,-1,1602,1072,0,0
385,-48,0,0,0,0,0,0,0,0,0,-1,1609,1072,0,0
392,-48,0,0,0,0,0,0,0,0,0,-1,1616,1072,0,0
399,-48,0,0,0,0,0,0,0,0,0,-1,1623,1072,0,0
406,-48,0,0,0,0,0,0,0,0,0,-1,1630,1072,0,0
413,-48,0,0,0,0,0,0,0,0,0,-1,1637,1072,0,0
420,-48,0,0,0,0,0,0,0,0,0,-1,1644,1072,0,0
427,-48,0,0,0,0,0,0,0,0,0,-1,1651,1072,0,0
434,-48,0,0,0,0,0,0,0,0,0,-1,1658,1072,0,0
441,-48,0,0,0,0,0,0,0,0,0,-1,1665,1072,0,0
448,-48,0,0,0,0,0,0,0,0,0,-1,1672,1072,0,0
455,-48,0,0,0,0,0,0,0,0,0,-1,1679,1072,0,0
462,-48,0,0,0,0,0,0,0,0,0,-1,1686,1072,0,0
469,-48,0,0,0,0,0,0,0,0,0,-1,1693,1072,0,0
476,-48,0,0,0,0,0,0,0,0,0,-1,1700,1072,0,0
483,-48,0,0,0,0,0,0,0,0,0,-1,1707,1072,0,0
490,-48,0,0,0,0,0,0,0,0,0,-1,1714,1072,0,0
497,-48,0,0,0,0,0,0,0,0,0,-1,1721,1072,0,0
504,-48,0,0,0,0,0,0,0,0,0,-1,1728,1072,0,0
511,-48,0,0,0,0,0,0,0,0,0,-1,1735,1072,0,0
518,-48,0,0,0,0,0,0,0,0,0,-1,1742,1072,0,0
525,-48,0,0,0,0,0,0,0,0,0,-1,1749,1072,0,0
532,-48,0,0,0,0,0,0,0,0,0,-1,1756,1072,0,0
539,-48,0,0,0,0,0,0,0,0,0,-1,1763,1072,0,0
546,-48,0,0,0,0,0,0,0,0,0,-1,1770,1072,0,0
553,-48,0,0,0,0,0,0,0,0,0,-1,1777,1072,0,0
560,-48,0,0,0,0,0,0,0,0,0,-1,1784,1072,0,0
567,-48,0,0,0,0,0,0,0,0,0,-1,1791,1072,0,0
574,-48,0,0,0,0,0,0,0,0,0,-1,1798,1072,0,0
581,-48,0,0,0,0,0,0,0,0,0,-1,1805,1072,0,0
588,-48,0,0,0,0,0,0,0,0,0,-1,1812,1072,0,0
595,-48,0,0,0,0,0,0,0,0,0,-1,1819,1072,0,0
602,-48,0,0,0,0,0,0,0,0,0,-1,1826,1072,0,0
609,-48,0,0,0,0,0,0,0,0,0,-1,1833,1072,0,0
616,-48,0,0,0,0,0,0,0,0,0,-1,1840,1072,0,0
623,-48,0,0,0,0,0,0,0,0,0,-1,1847,1072,0,0
630,-48,0,0,0,0,0,0,0,0,0,-1,1854,1072,0,0
637,-48,0,0,0,0,0,0,0,0,0,-1,1861,1072,0,0
644,-48,0,0,0,0,0,0,0,0,0,-1,1868,1072,0,0
651,-48,23.6628,2.61609,0.00111677,0.00263443,0.00460646,0.00654414,-0.00279294,0.867031,0.00553389,0.0328339,1875,1072,23.6628,-2.61605
658,-48,23.6908,2.70618,9.80548e-05,0.00104842,0.00295382,0.00356504,-0.00241856,0.86515,0.00347571,0.0364467,1882,1072,23.6908,-2.7062
665,-48,23.7538,2.74622,-0.000468224,2.64108e-05,0.0019768,0.0017713,-0.00221311,0.84763,0.00230511,0.04109,1889,1072,23.7538,-2.74618
672,-48,23.7476,2.76929,-0.000869649,-0.000539895,0.00176971,0.0010726,-0.00248215,0.831847,0.00210543,0.0410161,1896,1072,23.7475,-2.76932
679,-48,23.7979,2.75244,-0.00178539,-0.00108712,0.00253454,0.00112222,-0.00399473,0.853843,0.00310557,0.0406895,1903,1072,23.7979,-2.75248
686,-48,23.8854,2.73792,-0.00274452,-0.00151454,0.00354095,0.00146442,-0.00572349,0.87138,0.00438606,0.0410981,1910,1072,23.8854,-2.7379
693,-48,23.6775,2.57886,-0.00356676,-0.00182525,0.00455298,0.00193949,-0.0073315,0.879882,0.00564631,0.0406146,1917,1072,23.6775,-2.57892
700,-48,23.6908,2.63953,-0.00424921,-0.00202506,0.00540984,0.00238583,-0.0086601,0.886769,0.00671155,0.0353231,1924,1072,23.6908,-2.63955
707,-48,23.7081,2.70215,-0.00479277,-0.00223976,0.00597243,0.00259106,-0.00962358,0.890681,0.00743153,0.0287958,1931,1072,23.7082,-2.70215
714,-48,23.6703,2.82642,0,0,0,0,0,0,0,-1,1938,1072,23.6703,-2.82636
721,-48,23.5389,3.72522,-0.00537574,-0.00202813,0.00660242,0.00310935,-0.0105132,0.90954,0.00824312,0.0434215,1945,1072,23.5389,-3.72516
728,-48,23.1279,4.40198,-0.005357,-0.00170992,0.00652145,0.00323815,-0.0103051,0.921727,0.0081663,0.0371207,1952,1072,23.1279,-4.402
735,-48,23.1958,4.33179,-0.00534917,-0.00122096,0.00598368,0.00304462,-0.00961475,0.951485,0.00762995,0.0158609,1959,1072,23.1958,-4.3318
742,-48,23.1423,4.27661,-0.00463902,-0.000723931,0.0051486,0.0028267,-0.00818965,0.967063,0.00660674,0.0130833,1966,1072,23.1423,-4.27658
749,-48,23.1771,4.19629,-0.00339996,0.000789496,0.00397339,0.0031865,-0.00579697,1.02798,0.0052591,0.0124452,1973,1072,23.1771,-4.19629
756,-48,23.1832,4.16211,-0.00203512,0.00253552,0.00289177,0.00393599,-0.00343559,1.11979,0.00425925,0.0118758,1980,1072,23.1832,-4.16206
763,-48,23.1603,4.1394,-0.000450725,0.00502735,0.00203935,0.00570318,-0.00112655,1.25079,0.00422796,0.0123208,1987,1072,23.1603,-4.1394
770,-48,23.1528,4.07764,0.00167801,0.00816038,0.0011438,0.00835628,0.00148211,1.40117,0.00514843,0.0122424,1994,1072,23.1528,-4.07766
777,-48,23.1285,4.01599,0.00421074,0.0122612,0.000908437,0.0123624,0.0041095,1.45981,0.00726984,0.0103015,2001,1072,23.1285,-4.016
784,-48,23.067,3.96057,0.00665863,0.0172378,0.00187845,0.0175615,0.006335,1.40018,0.0102694,0.0229571,2008,1072,23.067,-3.96052
791,-48,22.9891,3.88354,0.00926856,0.0233814,0.0039275,0.0244007,0.00824919,1.31685,0.0143319,0.0435576,2015,1072,22.9891,-3.88355
798,-48,22.916,3.81152,0,0,0,0,0,0,0,-1,2022,1072,22.9161,-3.81155
805,-48,21.3474,3.81445,0,0,0,0,0,0,0,-1,2029,1072,21.3474,-3.81443
812,-48,20.8354,4.09668,0,0,0,0,0,0,0,-1,2036,1072,20.8354,-4.09673
-700,-55,-17.3677,1.83289,0.105605,0.0360879,-0.0328752,0.11869,0.0230037,-0.378779,0.0726822,0.0447279,524,1079,-17.3677,-1.83285
-693,-55,-17.0762,1.67334,0.0840161,0.0314488,-0.0279719,0.0961155,0.0193494,-0.408253,0.0587,0.042987,531,1079,-17.0762,-1.6733
-686,-55,-16.4141,1.47986,0.065319,0.0271859,-0.023001,0.0761285,0.0163763,-0.439327,0.0462699,0.045729,538,1079,-16.4142,-1.47985
-679,-55,-15.3693,-0.935303,0.0493877,0.0232071,-0.0183258,0.0588183,0.0137765,-0.475266,0.035522,0.0458814,545,1079,-15.3693,0.935265
-672,-55,-15.5108,-0.12915,0.0360937,0.0195025,-0.014096,0.044154,0.0114422,-0.519436,0.0264599,0.0439062,552,1079,-15.5108,0.12915
-665,-55,-15.5888,0.439697,0.0252993,0.0160795,-0.0104263,0.0320893,0.00928943,-0.577249,0.0190663,0.0493019,559,1079,-15.5888,-0.439692
-658,-55,-16.032,1.42517,0,0,0,0,0,0,0,-1,566,1079,-16.032,-1.42519
-651,-55,-15.8046,1.16064,0.0105212,0.0101551,-0.00492158,0.0152631,0.00541312,-0.766809,0.0089354,0.0362687,573,1079,-15.8047,-1.16063
-644,-55,-15.736,1.44299,0.00480316,0.007422,-0.00344119,0.00979448,0.00243069,-0.967196,0.00588908,0.0160788,580,1079,-15.736,-1.44294
-637,-55,-15.7347,1.49792,0.000478595,0.00524712,-0.00294521,0.00665218,-0.000926468,-1.12566,0.00477367,0.0138489,587,1079,-15.7347,-1.49794
-630,-55,-15.7123,1.60852,-0.00257374,0.00339147,-0.00284054,0.00452767,-0.00370994,-1.19029,0.00476379,0.01554,594,1079,-15.7123,-1.60846
-623,-55,-15.757,1.71594,-0.00301376,0.00102651,-0.00391899,0.00341539,-0.00540264,-1.02337,0.00513401,0.0141305,601,1079,-15.7569,-1.71593
-616,-55,-15.7537,1.77686,-0.00291601,0.000268565,-0.00565699,0.00455309,-0.00720053,-0.922585,0.0068431,0.012967,608,1079,-15.7537,-1.77687
-609,-55,-15.7371,1.88647,-0.00306067,-0.000341144,-0.00737219,0.00579563,-0.00919744,-0.876596,0.00873021,0.0127542,615,1079,-15.7371,-1.88642
-602,-55,-15.7406,1.9762,-0.00322837,-0.00115464,-0.00880947,0.00667878,-0.0110618,-0.843978,0.0103462,0.0127068,622,1079,-15.7406,-1.97615
-595,-55,-15.7521,2.04858,-0.0033436,-0.00158263,-0.00981766,0.00739395,-0.0123202,-0.830121,0.0114998,0.0162369,629,1079,-15.7522,-2.0486
-588,-55,-15.7982,1.40833,-0.00315698,-0.00176239,-0.0102113,0.00777536,-0.0126947,-0.819489,0.0119316,0.030493,636,1079,-15.7982,-1.40836
-581,-55,-16.0098,0.679932,-0.00263691,-0.00167594,-0.0101969,0.00805182,-0.0123647,-0.808941,0.0118748,0.0376577,643,1079,-16.0098,-0.679908
-574,-55,-15.9961,0.69104,-0.00193323,-0.00147554,-0.00970291,0.00800122,-0.01141,-0.797188,0.0112645,0.0410895,650,1079,-15.9961,-0.691093
-567,-55,-15.9588,0.732056,-0.000813705,-0.00104548,-0.00850023,0.00757143,-0.00943061,-0.778582,0.00983568,0.0424021,657,1079,-15.9588,-0.732034
-560,-55,-16.0361,0.72937,0.000770951,-0.000436869,-0.00659739,0.00679202,-0.00645793,-0.739756,0.00765067,0.0417709,664,1079,-16.0361,-0.729418
-553,-55,-16.0237,0.670288,0.0028098,0.000295832,-0.00405912,0.00580211,-0.00269647,-0.635246,0.00501467,0.0397308,671,1079,-16.0237,-0.670297
-546,-55,-16.0671,0.532959,0.00525324,0.00108439,-0.000941181,0.00545588,0.000881757,-0.212063,0.00338187,0.0386327,678,1079,-16.0672,-0.532924
-539,-55,-16.0752,0.803223,0.00784061,0.00183444,0.0020352,0.00846528,0.00120978,0.297803,0.0052866,0.0393673,685,1079,-16.0752,-0.803168
-532,-55,-16.1097,0.875,0.00965468,0.00198954,0.0026612,0.010488,0.00115622,0.303467,0.00664024,0.0399883,692,1079,-16.1097,-0.875059
-525,-55,0,0,0,0,0,0,0,0,0,-1,699,1079,0,0
-518,-55,0,0,0,0,0,0,0,0,0,-1,706,1079,0,0
-511,-55,0,0,0,0,0,0,0,0,0,-1,713,1079,0,0
-504,-55,0,0,0,0,0,0,0,0,0,-1,720,1079,0,0
-497,-55,0,0,0,0,0,0,0,0,0,-1,727,1079,0,0
-490,-55,0,0,0,0,0,0,0,0,0,-1,734,1079,0,0
-483,-55,0,0,0,0,0,0,0,0,0,-1,741,1079,0,0
-476,-55,0,0,0,0,0,0,0,0,0,-1,748,1079,0,0
-469,-55,0,0,0,0,0,0,0,0,0,-1,755,1079,0,0
-462,-55,0,0,0,0,0,0,0,0,0,-1,762,1079,0,0
-455,-55,0,0,0,0,0,0,0,0,0,-1,769,1079,0,0
-448,-55,0,0,0,0,0,0,0,0,0,-1,776,1079,0,0
-441,-55,0,0,0,0,0,0,0,0,0,-1,783,1079,0,0
-434,-55,0,0,0,0,0,0,0,0,0,-1,790,1079,0,0
-427,-55,0,0,0,0,0,0,0,0,0,-1,797,1079,0,0
-420,-55,0,0,0,0,0,0,0,0,0,-1,804,1079,0,0
-413,-55,0,0,0,0,0,0,0,0,0,-1,811,1079,0,0
-406,-55,0,0,0,0,0,0,0,0,0,-1,818,1079,0,0
-399,-55,0,0,0,0,0,0,0,0,0,-1,825,1079,0,0
-392,-55,0,0,0,0,0,0,0,0,0,-1,832,1079,0,0
-385,-55,0,0,0,0,0,0,0,0,0,-1,839,1079,0,0
-378,-55,0,0,0,0,0,0,0,0,0,-1,846,1079,0,0
-371,-55,0,0,0,0,0,0,0,0,0,-1,853,1079,0,0
-364,-55,0,0,0,0,0,0,0,0,0,-1,860,1079,0,0
-357,-55,0,0,0,0,0,0,0,0,0,-1,867,1079,0,0
-350,-55,0,0,0,0,0,0,0,0,0,-1,874,1079,0,0
-343,-55,0,0,0,0,0,0,0,0,0,-1,881,1079,0,0
-336,-55,0,0,0,0,0,0,0,0,0,-1,888,1079,0,0
-329,-55,0,0,0,0,0,0,0,0,0,-1,895,1079,0,0
-322,-55,0,0,0,0,0,0,0,0,0,-1,902,1079,0,0
-315,-55,0,0,0,0,0,0,0,0,0,-1,909,1079,0,0
-308,-55,0,0,0,0,0,0,0,0,0,-1,916,1079,0,0
-301,-55,0,0,0,0,0,0,0,0,0,-1,923,1079,0,0
-294,-55,0,0,0,0,0,0,0,0,0,-1,930,1079,0,0
-287,-55,0,0,0,0,0,0,0,0,0,-1,937,1079,0,0
-280,-55,0,0,0,0,0,0,0,0,0,-1,944,1079,0,0
-273,-55,0,0,0,0,0,0,0,0,0,-1,951,1079,0,0
-266,-55,0,0,0,0,0,0,0,0,0,-1,958,1079,0,0
-259,-55,0,0,0,0,0,0,0,0,0,-1,965,1079,0,0
-252,-55,0,0,0,0,0,0,0,0,0,-1,972,1079,0,0
-245,-55,0,0,0,0,0,0,0,0,0,-1,979,1079,0,0
-238,-55,0,0,0,0,0,0,0,0,0,-1,986,1079,0,0
-231,-55,0,0,0,0,0,0,0,0,0,-1,993,1079,0,0
-224,-55,0,0,0,0,0,0,0,0,0,-1,1000,1079,0,0
-217,-55,0,0,0,0,0,0,0,0,0,-1,1007,1079,0,0
-210,-55,0,0,0,0,0,0,0,0,0,-1,1014,1079,0,0
-203,-55,0,0,0,0,0,0,0,0,0,-1,1021,1079,0,0
-196,-55,0,0,0,0,0,0,0,0,0,-1,1028,1079,0,0
-189,-55,0,0,0,0,0,0,0,0,0,-1,1035,1079,0,0
-182,-55,0,0,0,0,0,0,0,0,0,-1,1042,1079,0,0
-175,-55,0,0,0,0,0,0,0,0,0,-1,1049,1079,0,0
-168,-55,0,0,0,0,0,0,0,0,0,-1,1056,1079,0,0
-161,-55,0,0,0,0,0,0,0,0,0,-1,1063,1079,0,0
-154,-55,0,0,0,0,0,0,0,0,0,-1,1070,1079,0,0
-147,-55,0,0,0,0,0,0,0,0,0,-1,1077,1079,0,0
-140,-55,0,0,0,0,0,0,0,0,0,-1,1084,1079,0,0
-133,-55,0,0,0,0,0,0,0,0,0,-1,1091,1079,0,0
-126,-55,0,0,0,0,0,0,0,0,0,-1,1098,1079,0,0
-119,-55,0,0,0,0,0,0,0,0,0,-1,1105,1079,0,0
-112,-55,0,0,0,0,0,0,0,0,0,-1,1112,1079,0,0
-105,-55,0,0,0,0,0,0,0,0,0,-1,1119,1079,0,0
-98,-55,0,0,0,0,0,0,0,0,0,-1,1126,1079,0,0
-91,-55,0,0,0,0,0,0,0,0,0,-1,1133,1079,0,0
-84,-55,0,0,0,0,0,0,0,0,0,-1,1140,1079,0,0
-77,-55,0,0,0,0,0,0,0,0,0,-1,1147,1079,0,0
-70,-55,0,0,0,0,0,0,0,0,0,-1,1154,1079,0,0
-63,-55,0,0,0,0,0,0,0,0,0,-1,1161,1079,0,0
-56,-55,0,0,0,0,0,0,0,0,0,-1,1168,1079,0,0
-49,-55,0,0,0,0,0,0,0,0,0,-1,1175,1079,0,0
-42,-55,0,0,0,0,0,0,0,0,0,-1,1182,1079,0,0
-35,-55,0,0,0,0,0,0,0,0,0,-1,1189,1079,0,0
-28,-55,0,0,0,0,0,0,0,0,0,-1,1196,1079,0,0
-21,-55,0,0,0,0,0,0,0,0,0,-1,1203,1079,0,0
-14,-55,0,0,0,0,0,0,0,0,0,-1,1210,1079,0,0
-7,-55,0,0,0,0,0,0,0,0,0,-1,1217,1079,0,0
0,-55,0,0,0,0,0,0,0,0,0,-1,1224,1079,0,0
7,-55,0,0,0,0,0,0,0,0,0,-1,1231,1079,0,0
14,-55,0,0,0,0,0,0,0,0,0,-1,1238,1079,0,0
21,-55,0,0,0,0,0,0,0,0,0,-1,1245,1079,0,0
28,-55,0,0,0,0,0,0,0,0,0,-1,1252,1079,0,0
35,-55,0,0,0,0,0,0,0,0,0,-1,1259,1079,0,0
42,-55,0,0,0,0,0,0,0,0,0,-1,1266,1079,0,0
49,-55,0,0,0,0,0,0,0,0,0,-1,1273,1079,0,0
56,-55,0,0,0,0,0,0,0,0,0,-1,1280,1079,0,0
63,-55,0,0,0,0,0,0,0,0,0,-1,1287,1079,0,0
70,-55,0,0,0,0,0,0,0,0,0,-1,1294,1079,0,0
77,-55,0,0,0,0,0,0,0,0,0,-1,1301,1079,0,0
84,-55,0,0,0,0,0,0,0,0,0,-1,1308,1079,0,0
91,-55,0,0,0,0,0,0,0,0,0,-1,1315,1079,0,0
98,-55,0,0,0,0,0,0,0,0,0,-1,1322,1079,0,0
105,-55,0,0,0,0,0,0,0,0,0,-1,1329,1079,0,0
112,-55,0,0,0,0,0,0,0,0,0,-1,1336,1079,0,0
119,-55,0,0,0,0,0,0,0,0,0,-1,1343,1079,0,0
126,-55,0,0,0,0,0,0,0,0,0,-1,1350,1079,0,0
133,-55,0,0,0,0,0,0,0,0,0,-1,1357,1079,0,0
140,-55,0,0,0,0,0,0,0,0,0,-1,1364,1079,0,0
147,-55,0,0,0,0,0,0,0,0,0,-1,1371,1079,0,0
154,-55,0,0,0,0,0,0,0,0,0,-1,1378,1079,0,0
161,-55,0,0,0,0,0,0,0,0,0,-1,1385,1079,0,0
168,-55,0,0,0,0,0,0,0,0,0,-1,1392,1079,0,0
175,-55,0,0,0,0,0,0,0,0,0,-1,1399,1079,0,0
182,-55,0,0,0,0,0,0,0,0,0,-1,1406,1079,0,0
189,-55,0,0,0,0,0,0,0,0,0,-1,1413,1079,0,0
196,-55,0,0,0,0,0,0,0,0,0,-1,1420,1079,0,0
203,-55,0,0,0,0,0,0,0,0,0,-1,1427,1079,0,0
210,-55,0,0,0,0,0,0,0,0,0,-1,1434,1079,0,0
217,-55,0,0,0,0,0,0,0,0,0,-1,1441,1079,0,0
224,-55,0,0,0,0,0,0,0,0,0,-1,1448,1079,0,0
231,-55,0,0,0,0,0,0,0,0,0,-1,1455,1079,0,0
238,-55,0,0,0,0,0,0,0,0,0,-1,1462,1079,0,0
245,-55,0,0,0,0,0,0,0,0,0,-1,1469,1079,0,0
252,-55,0,0,0,0,0,0,0,0,0,-1,1476,1079,0,0
259,-55,0,0,0,0,0,0,0,0,0,-1,1483,1079,0,0
266,-55,0,0,0,0,0,0,0,0,0,-1,1490,1079,0,0
273,-55,0,0,0,0,0,0,0,0,0,-1,1497,1079,0,0
280,-55,0,0,0,0,0,0,0,0,0,-1,1504,1079,0,0
287,-55,0,0,0,0,0,0,0,0,0,-1,1511,1079,0,0
294,-55,0,0,0,0,0,0,0,0,0,-1,1518,1079,0,0
301,-55,0,0,0,0,0,0,0,0,0,-1,1525,1079,0,0
308,-55,0,0,0,0,0,0,0,0,0,-1,1532,1079,0,0
315,-55,0,0,0,0,0,0,0,0,0,-1,1539,1079,0,0
322,-55,0,0,0,0,0,0,0,0,0,-1,1546,1079,0,0
329,-55,0,0,0,0,0,0,0,0,0,-1,1553,1079,0,0
336,-55,0,0,0,0,0,0,0,0,0,-1,1560,1079,0,0
343,-55,0,0,0,0,0,0,0,0,0,-1,1567,1079,0,0
350,-55,0,0,0,0,0,0,0,0,0,-1,1574,1079,0,0
357,-55,0,0,0,0,0,0,0,0,0,-1,1581,1079,0,0
364,-55,0,0,0,0,0,0,0,0,0,-1,1588,1079,0,0
371,-55,0,0,0,0,0,0,0,0,0,-1,1595,1079,0,0
378,-55,0,0,0,0,0,0,0,0,0,-1,1602,1079,0,0
385,-55,0,0,0,0,0,0,0,0,0,-1,1609,1079,0,0
392,-55,0,0,0,0,0,0,0,0,0,-1,1616,1079,0,0
399,-55,0,0,0,0,0,0,0,0,0,-1,1623,1079,0,0
406,-55,0,0,0,0,0,0,0,0,0,-1,1630,1079,0,0
413,-55,0,0,0,0,0,0,0,0,0,-1,1637,1079,0,0
420,-55,0,0,0,0,0,0,0,0,0,-1,1644,1079,0,0
427,-55,0,0,0,0,0,0,0,0,0,-1,1651,1079,0,0
434,-55,0,0,0,0,0,0,0,0,0,-1,1658,1079,0,0
441,-55,0,0,0,0,0,0,0,0,0,-1,1665,1079,0,0
448,-55,0,0,0,0,0,0,0,0,0,-1,1672,1079,0,0
455,-55,0,0,0,0,0,0,0,0,0,-1,1679,1079,0,0
462,-55,0,0,0,0,0,0,0,0,0,-1,1686,1079,0,0
469,-55,0,0,0,0,0,0,0,0,0,-1,1693,1079,0,0
476,-55,0,0,0,0,0,0,0,0,0,-1,1700,1079,0,0
483,-55,0,0,0,0,0,0,0,0,0,-1,1707,1079,0,0
490,-55,0,0,0,0,0,0,0,0,0,-1,1714,1079,0,0
497,-55,0,0,0,0,0,0,0,0,0,-1,1721,1079,0,0
504,-55,0,0,0,0,0,0,0,0,0,-1,1728,1079,0,0
511,-55,0,0,0,0,0,0,0,0,0,-1,1735,1079,0,0
518,-55,0,0,0,0,0,0,0,0,0,-1,1742,1079,0,0
525,-55,0,0,0,0,0,0,0,0,0,-1,1749,1079,0,0
532,-55,0,0,0,0,0,0,0,0,0,-1,1756,1079,0,0
539,-55,0,0,0,0,0,0,0,0,0,-1,1763,1079,0,0
546,-55,0,0,0,0,0,0,0,0,0,-1,1770,1079,0,0
553,-55,0,0,0,0,0,0,0,0,0,-1,1777,1079,0,0
560,-55,0,0,0,0,0,0,0,0,0,-1,1784,1079,0,0
567,-55,0,0,0,0,0,0,0,0,0,-1,1791,1079,0,0
574,-55,0,0,0,0,0,0,0,0,0,-1,1798,1079,0,0
581,-55,0,0,0,0,0,0,0,0,0,-1,1805,1079,0,0
588,-55,0,0,0,0,0,0,0,0,0,-1,1812,1079,0,0
595,-55,0,0,0,0,0,0,0,0,0,-1,1819,1079,0,0
602,-55,0,0,0,0,0,0,0,0,0,-1,1826,1079,0,0
609,-55,0,0,0,0,0,0,0,0,0,-1,1833,1079,0,0
616,-55,0,0,0,0,0,0,0,0,0,-1,1840,1079,0,0
623,-55,0,0,0,0,0,0,0,0,0,-1,1847,1079,0,0
630,-55,0,0,0,0,0,0,0,0,0,-1,1854,1079,0,0
637,-55,0,0,0,0,0,0,0,0,0,-1,1861,1079,0,0
644,-55,0,0,0,0,0,0,0,0,0,-1,1868,1079,0,0
651,-55,23.8237,2.69824,0.00139504,0.00253515,0.00540079,0.00739588,-0.0034657,0.837979,0.00640631,0.0342738,1875,1079,23.8237,-2.69828
658,-55,23.8146,2.77686,0.000393312,0.00121649,0.00356893,0.00439748,-0.00278768,0.842808,0.00418292,0.0341268,1882,1079,23.8146,-2.77681
665,-55,23.6268,2.7782,-0.000208461,0.000338591,0.00244908,0.00252937,-0.00239924,0.84101,0.00284586,0.0394713,1889,1079,23.6269,-2.77824
672,-55,23.6707,2.80566,-0.000775676,-0.000227919,0.00220249,0.00171766,-0.00272125,0.847255,0.00258455,0.0390121,1896,1079,23.6707,-2.80562
679,-55,23.767,2.80859,-0.00188039,-0.00083038,0.00290703,0.00159867,-0.00430944,0.874734,0.00352871,0.0369717,1903,1079,23.7669,-2.8086
686,-55,23.73,2.81897,-0.0030052,-0.00133641,0.00384864,0.00176724,-0.00610885,0.892147,0.004772,0.0386728,1910,1079,23.73,-2.81901
693,-55,23.769,2.77747,-0.00396451,-0.0017223,0.00480764,0.00209322,-0.00778004,0.899947,0.00600725,0.0391044,1917,1079,23.769,-2.77741
700,-55,23.7172,2.66162,-0.00476387,-0.0019815,0.00561037,0.00240759,-0.00915297,0.90693,0.00704304,0.0331673,1924,1079,23.7172,-2.6616
707,-55,23.7004,2.75586,-0.00535712,-0.00223449,0.00614957,0.00254887,-0.0101405,0.909716,0.00775093,0.0270118,1931,1079,23.7004,-2.75587
714,-55,23.6696,2.8656,-0.00576789,-0.00226284,0.00652924,0.00274499,-0.0107757,0.916514,0.00825241,0.0326879,1938,1079,23.6696,-2.86563
721,-55,23.5365,3.75732,-0.00594225,-0.00212077,0.0066937,0.00292956,-0.0109926,0.924428,0.00847539,0.0422191,1945,1079,23.5365,-3.7573
728,-55,23.0076,4.44836,-0.00590753,-0.00182864,0.006578,0.00301882,-0.010755,0.935719,0.00835997,0.0341747,1952,1079,23.0076,-4.44837
735,-55,23.1234,4.32959,-0.00587964,-0.00134782,0.00603342,0.00283115,-0.0100586,0.965029,0.00782215,0.0157109,1959,1079,23.1234,-4.32963
742,-55,23.1046,4.26855,-0.00503308,-0.000883893,0.00529141,0.00272509,-0.00864206,0.972223,0.00685279,0.0148048,1966,1079,23.1047,-4.26855
749,-55,23.1292,4.18884,-0.00362739,0.00037625,0.00439838,0.00320693,-0.00645807,0.998953,0.00568435,0.0112977,1973,1079,23.1291,-4.18882
756,-55,23.1207,4.14685,-0.00211489,0.00193154,0.00372779,0.00414976,-0.00433312,1.03402,0.00489797,0.0106939,1980,1079,23.1207,-4.14688
763,-55,23.093,4.12427,-0.000346482,0.00439755,0.00335035,0.00613057,-0.0020795,1.09343,0.00492868,0.0143518,1987,1079,23.0931,-4.12425
770,-55,23.0776,4.05164,0.00198506,0.00732545,0.00316141,0.00879343,0.000517084,1.13608,0.00569775,0.0143638,1994,1079,23.0776,-4.05162
777,-55,23.0643,3.99548,0.00466952,0.0111802,0.00390622,0.0130098,0.00284001,1.13278,0.00789857,0.0120197,2001,1079,23.0643,-3.99551
784,-55,23.1093,3.91724,0.00724393,0.0159311,0.006058,0.0190418,0.00413325,1.09642,0.0115656,0.0281087,2008,1079,23.1093,-3.91719
791,-55,22.9254,3.82605,0.00998789,0.0219439,0.00949804,0.0271886,0.00474319,1.06627,0.0167698,0.0424295,2015,1079,22.9254,-3.82606
798,-55,22.441,3.80212,0,0,0,0,0,0,0,-1,2022,1079,22.4411,-3.80207
805,-55,21.8054,4.11914,0,0,0,0,0,0,0,-1,2029,1079,21.8054,-4.11917
812,-55,21.2371,4.41699,0,0,0,0,0,0,0,-1,2036,1079,21.2369,-4.41705
-700,-62,-17.0885,1.39307,0.0889892,0.0364568,-0.0308731,0.103258,0.0221883,-0.432925,0.0627636,0.0436764,524,1086,-17.0885,-1.39305
-693,-62,-16.3997,1.30408,0.0690342,0.0315596,-0.0264114,0.0826797,0.0179141,-0.476882,0.0502249,0.0458279,531,1086,-16.3997,-1.30406
-686,-62,-15.6552,1.36267,0.0526251,0.0271555,-0.0217006,0.0650516,0.014729,-0.520054,0.039387,0.0482944,538,1086,-15.6551,-1.36266
-679,-62,-15.2021,2.09253,0,0,0,0,0,0,0,-1,545,1086,-15.2022,-2.09254
-672,-62,-15.5788,1.66309,0.0281113,0.0194387,-0.0131734,0.0376437,0.00990628,-0.626398,0.0225317,0.0433084,552,1086,-15.5788,-1.66308
-665,-62,-15.6741,1.37659,0.0193556,0.0160595,-0.00966512,0.0275122,0.00790296,-0.700953,0.0163564,0.0447362,559,1086,-15.6741,-1.37661
-658,-62,-15.7421,1.41699,0.0126113,0.0129895,-0.00674748,0.0195505,0.00605026,-0.799404,0.0115574,0.0485535,566,1086,-15.7421,-1.41703
-651,-62,-15.6901,1.35693,0.00767434,0.0102307,-0.00444254,0.0135753,0.00432977,-0.925472,0.00800715,0.0364414,573,1086,-15.69,-1.35697
-644,-62,-15.6587,1.39575,0.0029669,0.00745993,-0.00310397,0.00904505,0.00138178,-1.09864,0.00562629,0.011966,580,1086,-15.6587,-1.39579
-637,-62,-15.66,1.49207,-0.000590706,0.00524068,-0.00269673,0.00629659,-0.00164661,-1.19759,0.00484086,0.010515,587,1086,-15.66,-1.49208
-630,-62,-15.6705,1.60535,-0.00311092,0.00340674,-0.00273893,0.00440487,-0.00410905,-1.22133,0.0049165,0.0117408,594,1086,-15.6705,-1.60532
-623,-62,-15.6902,1.71411,-0.00345692,0.00109448,-0.00393668,0.00336589,-0.00572833,-1.04747,0.00530928,0.0132803,601,1086,-15.6902,-1.71408
-616,-62,-15.6715,1.80432,-0.00339381,0.000281108,-0.00579179,0.00451992,-0.00763262,-0.939002,0.00709258,0.0132395,608,1086,-15.6715,-1.80437
-609,-62,-15.6497,1.88757,-0.00368991,-0.000492421,-0.00760125,0.0056764,-0.00985873,-0.88905,0.00907691,0.012512,615,1086,-15.6496,-1.88752
-602,-62,-15.6306,1.97583,-0.00401365,-0.00141026,-0.0091312,0.00651155,-0.0119355,-0.856198,0.0108028,0.0138857,622,1086,-15.6305,-1.97584
-595,-62,-15.6033,2.05542,-0.00431819,-0.00189462,-0.0102325,0.00719759,-0.0134104,-0.844336,0.0120769,0.0187725,629,1086,-15.6034,-2.05537
-588,-62,-15.729,1.62952,-0.00424372,-0.00207946,-0.0107217,0.00761455,-0.0139377,-0.835692,0.0126205,0.0298875,636,1086,-15.729,-1.62951
-581,-62,-16.0092,0.942627,-0.00372201,-0.00200097,-0.0107638,0.00793669,-0.0136597,-0.825286,0.0126138,0.036372,643,1086,-16.0092,-0.942644
-574,-62,-15.9756,0.811401,-0.00299799,-0.00185007,-0.0103024,0.00789435,-0.0127424,-0.813225,0.0120237,0.0362128,650,1086,-15.9756,-0.811343
-567,-62,-16.0444,0.891968,-0.00178206,-0.00144666,-0.00912634,0.00751352,-0.0107422,-0.794585,0.0105948,0.0404671,657,1086,-16.0444,-0.892011
-560,-62,-16.1237,0.550903,-2.70644e-05,-0.000864343,-0.00723132,0.00679772,-0.00768913,-0.756484,0.00836927,0.0407123,664,1086,-16.1237,-0.55094
-553,-62,-16.0225,0.775513,0.00226303,-0.000162147,-0.00468549,0.0058903,-0.00378941,-0.658778,0.00563229,0.0370172,671,1086,-16.0225,-0.77546
-546,-62,-16.0654,0.803955,0.00506799,0.00058449,-0.00154721,0.00555008,0.000102398,-0.302053,0.0036664,0.031892,678,1086,-16.0654,-0.803944
-539,-62,-15.9852,0.911377,0.00815192,0.00127264,0.00153975,0.00848083,0.000943734,0.210449,0.00536704,0.03842,685,1086,-15.9852,-0.911403
-532,-62,-15.7921,0.791992,0.0103563,0.00122937,0.00228004,0.0108942,0.000691487,0.231676,0.00704361,0.0406001,692,1086,-15.7921,-0.791967
-525,-62,0,0,0,0,0,0,0,0,0,-1,699,1086,0,0
-518,-62,0,0,0,0,0,0,0,0,0,-1,706,1086,0,0
-511,-62,0,0,0,0,0,0,0,0,0,-1,713,1086,0,0
-504,-62,0,0,0,0,0,0,0,0,0,-1,720,1086,0,0
-497,-62,0,0,0,0,0,0,0,0,0,-1,727,1086,0,0
-490,-62,0,0,0,0,0,0,0,0,0,-1,734,1086,0,0
-483,-62,0,0,0,0,0,0,0,0,0,-1,741,1086,0,0
-476,-62,0,0,0,0,0,0,0,0,0,-1,748,1086,0,0
-469,-62,0,0,0,0,0,0,0,0,0,-1,755,1086,0,0
-462,-62,0,0,0,0,0,0,0,0,0,-1,762,1086,0,0
-455,-62,0,0,0,0,0,0,0,0,0,-1,769,1086,0,0
-448,-62,0,0,0,0,0,0,0,0,0,-1,776,1086,0,0
-441,-62,0,0,0,0,0,0,0,0,0,-1,783,1086,0,0
-434,-62,0,0,0,0,0,0,0,0,0,-1,790,1086,0,0
-427,-62,0,0,0,0,0,0,0,0,0,-1,797,1086,0,0
-420,-62,0,0,0,0,0,0,0,0,0,-1,804,1086,0,0
-413,-62,0,0,0,0,0,0,0,0,0,-1,811,1086,0,0
-406,-62,0,0,0,0,0,0,0,0,0,-1,818,1086,0,0
-399,-62,0,0,0,0,0,0,0,0,0,-1,825,1086,0,0
-392,-62,0,0,0,0,0,0,0,0,0,-1,832,1086,0,0
-385,-62,0,0,0,0,0,0,0,0,0,-1,839,1086,0,0
-378,-62,0,0,0,0,0,0,0,0,0,-1,846,1086,0,0
-371,-62,0,0,0,0,0,0,0,0,0,-1,853,1086,0,0
-364,-62,0,0,0,0,0,0,0,0,0,-1,860,1086,0,0
-357,-62,0,0,0,0,0,0,0,0,0,-1,867,1086,0,0
-350,-62,0,0,0,0,0,0,0,0,0,-1,874,1086,0,0
-343,-62,0,0,0,0,0,0,0,0,0,-1,881,1086,0,0
-336,-62,0,0,0,0,0,0,0,0,0,-1,888,1086,0,0
-329,-62,0,0,0,0,0,0,0,0,0,-1,895,1086,0,0
-322,-62,0,0,0,0,0,0,0,0,0,-1,902,1086,0,0
-315,-62,0,0,0,0,0,0,0,0,0,-1,909,1086,0,0
-308,-62,0,0,0,0,0,0,0,0,0,-1,916,1086,0,0
-301,-62,0,0,0,0,0,0,0,0,0,-1,923,1086,0,0
-294,-62,0,0,0,0,0,0,0,0,0,-1,930,1086,0,0
-287,-62,0,0,0,0,0,0,0,0,0,-1,937,1086,0,0
-280,-62,0,0,0,0,0,0,0,0,0,-1,944,1086,0,0
-273,-62,0,0,0,0,0,0,0,0,0,-1,951,1086,0,0
-266,-62,0,0,0,0,0,0,0,0,0,-1,958,1086,0,0
-259,-62,0,0,0,0,0,0,0,0,0,-1,965,1086,0,0
-252,-62,0,0,0,0,0,0,0,0,0,-1,972,1086,0,0
-245,-62,0,0,0,0,0,0,0,0,0,-1,979,1086,0,0
-238,-62,0,0,0,0,0,0,0,0,0,-1,986,1086,0,0
-231,-62,0,0,0,0,0,0,0,0,0,-1,993,1086,0,0
-224,-62,0,0,0,0,0,0,0,0,0,-1,1000,1086,0,0
-217,-62,0,0,0,0,0,0,0,0,0,-1,1007,1086,0,0
-210,-62,0,0,0,0,0,0,0,0,0,-1,1014,1086,0,0
-203,-62,0,0,0,0,0,0,0,0,0,-1,1021,1086,0,0
-196,-62,0,0,0,0,0,0,0,0,0,-1,1028,1086,0,0
-189,-62,0,0,0,0,0,0,0,0,0,-1,1035,1086,0,0
-182,-62,0,0,0,0,0,0,0,0,0,-1,1042,1086,0,0
-175,-62,0,0,0,0,0,0,0,0,0,-1,1049,1086,0,0
-168,-62,0,0,0,0,0,0,0,0,0,-1,1056,1086,0,0
-161,-62,0,0,0,0,0,0,0,0,0,-1,1063,1086,0,0
-154,-62,0,0,0,0,0,0,0,0,0,-1,1070,1086,0,0
-147,-62,0,0,0,0,0,0,0,0,0,-1,1077,1086,0,0
-140,-62,0,0,0,0,0,0,0,0,0,-1,1084,1086,0,0
-133,-62,0,0,0,0,0,0,0,0,0,-1,1091,1086,0,0
-126,-62,0,0,0,0,0,0,0,0,0,-1,1098,1086,0,0
-119,-62,0,0,0,0,0,0,0,0,0,-1,1105,1086,0,0
-112,-62,0,0,0,0,0,0,0,0,0,-1,1112,1086,0,0
-105,-62,0,0,0,0,0,0,0,0,0,-1,1119,1086,0,0
-98,-62,0,0,0,0,0,0,0,0,0,-1,1126,1086,0,0
-91,-62,0,0,0,0,0,0,0,0,0,-1,1133,1086,0,0
-84,-62,0,0,0,0,0,0,0,0,0,-1,1140,1086,0,0
-77,-62,0,0,0,0,0,0,0,0,0,-1,1147,1086,0,0
-70,-62,0,0,0,0,0,0,0,0,0,-1,1154,1086,0,0
-63,-62,0,0,0,0,0,0,0,0,0,-1,1161,1086,0,0
-56,-62,0,0,0,0,0,0,0,0,0,-1,1168,1086,0,0
-49,-62,0,0,0,0,0,0,0,0,0,-1,1175,1086,0,0
-42,-62,0,0,0,0,0,0,0,0,0,-1,1182,1086,0,0
-35,-62,0,0,0,0,0,0,0,0,0,-1,1189,1086,0,0
-28,-62,0,0,0,0,0,0,0,0,0,-1,1196,1086,0,0
-21,-62,0,0,0,0,0,0,0,0,0,-1,1203,1086,0,0
-14,-62,0,0,0,0,0,0,0,0,0,-1,1210,1086,0,0
-7,-62,0,0,0,0,0,0,0,0,0,-1,1217,1086,0,0
0,-62,0,0,0,0,0,0,0,0,0,-1,1224,1086,0,0
7,-62,0,0,0,0,0,0,0,0,0,-1,1231,1086,0,0
14,-62,0,0,0,0,0,0,0,0,0,-1,1238,1086,0,0
21,-62,0,0,0,0,0,0,0,0,0,-1,1245,1086,0,0
28,-62,0,0,0,0,0,0,0,0,0,-1,1252,1086,0,0
35,-62,0,0,0,0,0,0,0,0,0,-1,1259,1086,0,0
42,-62,0,0,0,0,0,0,0,0,0,-1,1266,1086,0,0
49,-62,0,0,0,0,0,0,0,0,0,-1,1273,1086,0,0
56,-62,0,0,0,0,0,0,0,0,0,-1,1280,1086,0,0
63,-62,0,0,0,0,0,0,0,0,0,-1,1287,1086,0,0
70,-62,0,0,0,0,0,0,0,0,0,-1,1294,1086,0,0
77,-62,0,0,0,0,0,0,0,0,0,-1,1301,1086,0,0
84,-62,0,0,0,0,0,0,0,0,0,-1,1308,1086,0,0
91,-62,0,0,0,0,0,0,0,0,0,-1,1315,1086,0,0
98,-62,0,0,0,0,0,0,0,0,0,-1,1322,1086,0,0
105,-62,0,0,0,0,0,0,0,0,0,-1,1329,1086,0,0
112,-62,0,0,0,0,0,0,0,0,0,-1,1336,1086,0,0
119,-62,0,0,0,0,0,0,0,0,0,-1,1343,1086,0,0
126,-62,0,0,0,0,0,0,0,0,0,-1,1350,1086,0,0
133,-62,0,0,0,0,0,0,0,0,0,-1,1357,1086,0,0
140,-62,0,0,0,0,0,0,0,0,0,-1,1364,1086,0,0
147,-62,0,0,0,0,0,0,0,0,0,-1,1371,1086,0,0
154,-62,0,0,0,0,0,0,0,0,0,-1,1378,1086,0,0
161,-62,0,0,0,0,0,0,0,0,0,-1,1385,1086,0,0
168,-62,0,0,0,0,0,0,0,0,0,-1,1392,1086,0,0
175,-62,0,0,0,0,0,0,0,0,0,-1,1399,1086,0,0
182,-62,0,0,0,0,0,0,0,0,0,-1,1406,1086,0,0
189,-62,0,0,0,0,0,0,0,0,0,-1,1413,1086,0,0
196,-62,0,0,0,0,0,0,0,0,0,-1,1420,1086,0,0
203,-62,0,0,0,0,0,0,0,0,0,-1,1427,1086,0,0
210,-62,0,0,0,0,0,0,0,0,0,-1,1434,1086,0,0
217,-62,0,0,0,0,0,0,0,0,0,-1,1441,1086,0,0
224,-62,0,0,0,0,0,0,0,0,0,-1,1448,1086,0,0
231,-62,0,0,0,0,0,0,0,0,0,-1,1455,1086,0,0
238,-62,0,0,0,0,0,0,0,0,0,-1,1462,1086,0,0
245,-62,0,0,0,0,0,0,0,0,0,-1,1469,1086,0,0
252,-62,0,0,0,0,0,0,0,0,0,-1,1476,1086,0,0
259,-62,0,0,0,0,0,0,0,0,0,-1,1483,1086,0,0
266,-62,0,0,0,0,0,0,0,0,0,-1,1490,1086,0,0
273,-62,0,0,0,0,0,0,0,0,0,-1,1497,1086,0,0
280,-62,0,0,0,0,0,0,0,0,0,-1,1504,1086,0,0
287,-62,0,0,0,0,0,0,0,0,0,-1,1511,1086,0,0
294,-62,0,0,0,0,0,0,0,0,0,-1,1518,1086,0,0
301,-62,0,0,0,0,0,0,0,0,0,-1,1525,1086,0,0
308,-62,0,0,0,0,0,0,0,0,0,-1,1532,1086,0,0
315,-62,0,0,0,0,0,0,0,0,0,-1,1539,1086,0,0
322,-62,0,0,0,0,0,0,0,0,0,-1,1546,1086,0,0
329,-62,0,0,0,0,0,0,0,0,0,-1,1553,1086,0,0
336,-62,0,0,0,0,0,0,0,0,0,-1,1560,1086,0,0
343,-62,0,0,0,0,0,0,0,0,0,-1,1567,1086,0,0
350,-62,0,0,0,0,0,0,0,0,0,-1,1574,1086,0,0
357,-62,0,0,0,0,0,0,0,0,0,-1,1581,1086,0,0
364,-62,0,0,0,0,0,0,0,0,0,-1,1588,1086,0,0
371,-62,0,0,0,0,0,0,0,0,0,-1,1595,1086,0,0
378,-62,0,0,0,0,0,0,0,0,0,-1,1602,1086,0,0
385,-62,0,0,0,0,0,0,0,0,0,-1,1609,1086,0,0
392,-62,0,0,0,0,0,0,0,0,0,-1,1616,1086,0,0
399,-62,0,0,0,0,0,0,0,0,0,-1,1623,1086,0,0
406,-62,0,0,0,0,0,0,0,0,0,-1,1630,1086,0,0
413,-62,0,0,0,0,0,0,0,0,0,-1,1637,1086,0,0
420,-62,0,0,0,0,0,0,0,0,0,-1,1644,1086,0,0
427,-62,0,0,0,0,0,0,0,0,0,-1,1651,1086,0,0
434,-62,0,0,0,0,0,0,0,0,0,-1,1658,1086,0,0
441,-62,0,0,0,0,0,0,0,0,0,-1,1665,1086,0,0
448,-62,0,0,0,0,0,0,0,0,0,-1,1672,1086,0,0
455,-62,0,0,0,0,0,0,0,0,0,-1,1679,1086,0,0
462,-62,0,0,0,0,0,0,0,0,0,-1,1686,1086,0,0
469,-62,0,0,0,0,0,0,0,0,0,-1,1693,1086,0,0
476,-62,0,0,0,0,0,0,0,0,0,-1,1700,1086,0,0
483,-62,0,0,0,0,0,0,0,0,0,-1,1707,1086,0,0
490,-62,0,0,0,0,0,0,0,0,0,-1,1714,1086,0,0
497,-62,0,0,0,0,0,0,0,0,0,-1,1721,1086,0,0
504,-62,0,0,0,0,0,0,0,0,0,-1,1728,1086,0,0
511,-62,0,0,0,0,0,0,0,0,0,-1,1735,1086,0,0
518,-62,0,0,0,0,0,0,0,0,0,-1,1742,1086,0,0
525,-62,0,0,0,0,0,0,0,0,0,-1,1749,1086,0,0
532,-62,0,0,0,0,0,0,0,0,0,-1,1756,1086,0,0
539,-62,0,0,0,0,0,0,0,0,0,-1,1763,1086,0,0
546,-62,0,0,0,0,0,0,0,0,0,-1,1770,1086,0,0
553,-62,0,0,0,0,0,0,0,0,0,-1,1777,1086,0,0
560,-62,0,0,0,0,0,0,0,0,0,-1,1784,1086,0,0
567,-62,0,0,0,0,0,0,0,0,0,-1,1791,1086,0,0
574,-62,0,0,0,0,0,0,0,0,0,-1,1798,1086,0,0
581,-62,0,0,0,0,0,0,0,0,0,-1,1805,1086,0,0
588,-62,0,0,0,0,0,0,0,0,0,-1,1812,1086,0,0
595,-62,0,0,0,0,0,0,0,0,0,-1,1819,1086,0,0
602,-62,0,0,0,0,0,0,0,0,0,-1,1826,1086,0,0
609,-62,0,0,0,0,0,0,0,0,0,-1,1833,1086,0,0
616,-62,0,0,0,0,0,0,0,0,0,-1,1840,1086,0,0
623,-62,0,0,0,0,0,0,0,0,0,-1,1847,1086,0,0
630,-62,0,0,0,0,0,0,0,0,0,-1,1854,1086,0,0
637,-62,0,0,0,0,0,0,0,0,0,-1,1861,1086,0,0
644,-62,0,0,0,0,0,0,0,0,0,-1,1868,1086,0,0
651,-62,23.869,2.65088,0.00175081,0.00239363,0.00526816,0.00735017,-0.00320573,0.815865,0.00624907,0.0390932,1875,1086,23.8691,-2.65083
658,-62,23.7008,2.98291,0.000712269,0.00129477,0.00355903,0.00457445,-0.00256741,0.826224,0.00417728,0.0419122,1882,1086,23.7008,-2.9829
665,-62,23.5583,2.99829,7.68003e-05,0.000541032,0.00246692,0.00278674,-0.0021689,0.832306,0.00286854,0.0409442,1889,1086,23.5583,-2.99831
672,-62,23.6523,2.86731,-0.000664739,-4.28251e-05,0.00233627,0.00200309,-0.00271066,0.851559,0.00273169,0.0384282,1896,1086,23.6523,-2.86732
679,-62,23.7646,2.77441,-0.00194763,-0.000696042,0.00309589,0.00183667,-0.00448034,0.885123,0.00375208,0.0383558,1903,1086,23.7647,-2.77445
686,-62,23.7522,2.88135,-0.00322512,-0.00127041,0.00405956,0.00192778,-0.00642332,0.903527,0.00504901,0.0392461,1910,1086,23.7522,-2.88131
693,-62,23.7217,2.84741,-0.00431252,-0.00171728,0.0050272,0.00217707,-0.00820688,0.911701,0.00632313,0.0390223,1917,1086,23.7217,-2.84745
700,-62,23.6934,2.71082,-0.00523961,-0.00202072,0.00583565,0.00242336,-0.00968369,0.919951,0.00739711,0.032927,1924,1086,23.6933,-2.71081
707,-62,23.6671,2.76147,-0.00588126,-0.00230471,0.00638084,0.00253371,-0.0107197,0.922021,0.00812381,0.0248427,1931,1086,23.6671,-2.76145
714,-62,23.7035,2.79041,-0.00630429,-0.00236673,0.00673239,0.00267884,-0.0113499,0.927649,0.00859975,0.0275632,1938,1086,23.7035,-2.79044
721,-62,23.566,4.29712,0,0,0,0,0,0,0,-1,1945,1086,23.566,-4.29713
728,-62,23.1028,4.41614,-0.00640505,-0.00197938,0.00671282,0.00287592,-0.0112604,0.944611,0.00862684,0.0328019,1952,1086,23.1027,-4.41612
735,-62,23.0654,4.3446,-0.00633301,-0.00149183,0.00612812,0.00267644,-0.0105013,0.973491,0.00804284,0.0167047,1959,1086,23.0654,-4.34465
742,-62,23.0343,4.28381,-0.00538213,-0.00105242,0.00547887,0.00267378,-0.00910833,0.973548,0.00713254,0.0143337,1966,1086,23.0343,-4.2838
749,-62,23.0326,4.19031,-0.00383764,6.24425e-05,0.00488292,0.0033703,-0.00714551,0.975376,0.00620035,0.0123873,1973,1086,23.0326,-4.19029
756,-62,23.0203,4.16272,-0.00217974,0.00170611,0.00458328,0.00474128,-0.00521491,0.985874,0.00575038,0.012863,1980,1086,23.0203,-4.16266
763,-62,23.0189,4.09473,-0.000241736,0.00437852,0.00466919,0.00727781,-0.00314103,1.01512,0.00617135,0.0136134,1987,1086,23.0189,-4.0947
770,-62,23.017,4.00488,0.00225342,0.00744829,0.00515736,0.0106254,-0.000923654,1.01867,0.00741068,0.0111073,1994,1086,23.0169,-4.0049
777,-62,22.9768,3.90222,0.00501806,0.0115281,0.00687249,0.0158774,0.000668712,1.00656,0.0103692,0.0129449,2001,1086,22.9768,-3.90228
784,-62,23.0315,3.7489,0.0076152,0.0166633,0.0102096,0.0233063,0.000972224,0.993957,0.0152238,0.02679,2008,1086,23.0315,-3.74889
791,-62,22.9142,3.75183,0.0103305,0.0233065,0.015051,0.0332083,0.000428725,0.988898,0.0219974,0.0428016,2015,1086,22.9142,-3.75184
798,-62,22.8391,3.78662,0,0,0,0,0,0,0,-1,2022,1086,22.8392,-3.78665
805,-62,22.2634,4.42395,0,0,0,0,0,0,0,-1,2029,1086,22.2635,-4.42391
812,-62,21.6384,4.7373,0,0,0,0,0,0,0,-1,2036,1086,21.6385,-4.73736
-700,-69,-16.8932,0.528687,0.0711173,0.0331522,-0.0268511,0.0850182,0.0192513,-0.477709,0.0514759,0.0457716,524,1093,-16.8932,-0.528732
-693,-69,-15.3605,1.5658,0.0529645,0.0286304,-0.0229061,0.0667344,0.0148605,-0.541262,0.0404563,0.0470669,531,1093,-15.3605,-1.56583
-686,-69,-15.0074,1.3407,0.0390507,0.0247138,-0.0186761,0.0518869,0.0118777,-0.602154,0.0313902,0.0451213,538,1093,-15.0075,-1.34069
-679,-69,-14.8473,1.49353,0.0281703,0.021187,-0.0146809,0.039769,0.00958829,-0.66865,0.0239647,0.0449642,545,1093,-14.8473,-1.49353
-672,-69,-15.1685,1.22253,0.0196548,0.0179711,-0.0110752,0.0299202,0.00770576,-0.747466,0.0179386,0.0428739,552,1093,-15.1685,-1.22257
-665,-69,-15.4692,1.36633,0.0130883,0.0150094,-0.00798267,0.0220891,0.0060086,-0.845276,0.0131877,0.0431077,559,1093,-15.4692,-1.36636
-658,-69,-15.5399,1.38013,0.00817807,0.0122859,-0.00543758,0.0160445,0.00441943,-0.965978,0.00956965,0.044101,566,1093,-15.5399,-1.38013
-651,-69,-15.5505,1.35095,0.00470236,0.009794,-0.00345038,0.0115361,0.00296026,-1.10323,0.00691841,0.0325077,573,1093,-15.5506,-1.3509
-644,-69,-15.5557,1.38782,0.00107685,0.00716206,-0.00235504,0.00796701,0.000271908,-1.24145,0.00522306,0.0102209,580,1093,-15.5557,-1.38777
-637,-69,-15.5629,1.50269,-0.00164217,0.00503212,-0.00210962,0.00564301,-0.00225307,-1.28893,0.00469676,0.0118212,587,1093,-15.5629,-1.50267
-630,-69,-15.573,1.5929,-0.00343842,0.00329625,-0.00243234,0.00408286,-0.00422503,-1.25802,0.00479679,0.0133001,594,1093,-15.573,-1.59287
-623,-69,-15.5645,1.69934,-0.00366987,0.00114938,-0.00378591,0.00322745,-0.00574794,-1.0688,0.00524961,0.0125777,601,1093,-15.5645,-1.69935
-616,-69,-15.5495,1.78235,-0.00364899,0.000305572,-0.00574565,0.00440466,-0.00774807,-0.951118,0.00710434,0.0129675,608,1093,-15.5495,-1.7823
-609,-69,-15.5508,1.86133,-0.00409602,-0.000592654,-0.00761473,0.00546928,-0.010158,-0.898451,0.00915675,0.012111,615,1093,-15.5508,-1.8613
-602,-69,-15.5403,1.98621,-0.0045825,-0.0015847,-0.00920485,0.0062425,-0.0124097,-0.866109,0.0109633,0.0160451,622,1093,-15.5403,-1.9862
-595,-69,-15.5084,2.07678,-0.00504751,-0.00211905,-0.0103466,0.00686642,-0.014033,-0.85569,0.0123005,0.0204161,629,1093,-15.5084,-2.07683
-588,-69,-15.6752,1.78369,-0.00508777,-0.00234518,-0.0108904,0.00725991,-0.0146929,-0.848027,0.0129143,0.0283842,636,1093,-15.6752,-1.78373
-581,-69,-15.9364,1.16064,-0.00460903,-0.00233117,-0.0109661,0.00755502,-0.0144952,-0.837142,0.0129392,0.0356427,643,1093,-15.9364,-1.16067
-574,-69,-15.965,0.895874,-0.00394104,-0.00229533,-0.010538,0.00745194,-0.0136883,-0.824361,0.0123811,0.0315059,650,1093,-15.9649,-0.895908
-567,-69,-16.1016,0.666016,-0.00275584,-0.00200886,-0.00940843,0.00703348,-0.0117982,-0.805236,0.0109879,0.0365777,657,1093,-16.1016,-0.666033
-560,-69,-16.0956,0.551636,-0.00101125,-0.00157434,-0.00755487,0.00626731,-0.00885291,-0.766773,0.00877211,0.040238,664,1093,-16.0957,-0.551654
-553,-69,-16.0443,0.721924,0.00129057,-0.00105796,-0.0050412,0.00529247,-0.00505985,-0.670971,0.00597742,0.0382897,671,1093,-16.0443,-0.721896
-546,-69,-16.0065,0.802856,0.00415262,-0.000542539,-0.00191915,0.00483725,-0.00122716,-0.342661,0.00370231,0.0333754,678,1093,-16.0065,-0.802805
-539,-69,-15.8859,0.794067,0.00737364,-0.000144149,0.00125682,0.00757819,-0.000348699,0.161337,0.00517228,0.0378865,685,1093,-15.8859,-0.794063
-532,-69,-15.5561,0.542969,0.00966006,-0.000609206,0.00218976,0.0101075,-0.00105664,0.201557,0.00711674,0.0409158,692,1093,-15.5561,-0.54296
-525,-69,0,0,0,0,0,0,0,0,0,-1,699,1093,0,0
-518,-69,0,0,0,0,0,0,0,0,0,-1,706,1093,0,0
-511,-69,0,0,0,0,0,0,0,0,0,-1,713,1093,0,0
-504,-69,0,0,0,0,0,0,0,0,0,-1,720,1093,0,0
-497,-69,0,0,0,0,0,0,0,0,0,-1,727,1093,0,0
-490,-69,0,0,0,0,0,0,0,0,0,-1,734,1093,0,0
-483,-69,0,0,0,0,0,0,0,0,0,-1,741,1093,0,0
-476,-69,0,0,0,0,0,0,0,0,0,-1,748,1093,0,0
-469,-69,0,0,0,0,0,0,0,0,0,-1,755,1093,0,0
-462,-69,0,0,0,0,0,0,0,0,0,-1,762,1093,0,0
-455,-69,0,0,0,0,0,0,0,0,0,-1,769,1093,0,0
-448,-69,0,0,0,0,0,0,0,0,0,-1,776,1093,0,0
-441,-69,0,0,0,0,0,0,0,0,0,-1,783,1093,0,0
-434,-69,0,0,0,0,0,0,0,0,0,-1,790,1093,0,0
-427,-69,0,0,0,0,0,0,0,0,0,-1,797,1093,0,0
-420,-69,0,0,0,0,0,0,0,0,0,-1,804,1093,0,0
-413,-69,0,0,0,0,0,0,0,0,0,-1,811,1093,0,0
-406,-69,0,0,0,0,0,0,0,0,0,-1,818,1093,0,0
-399,-69,0,0,0,0,0,0,0,0,0,-1,825,1093,0,0
-392,-69,0,0,0,0,0,0,0,0,0,-1,832,1093,0,0
-385,-69,0,0,0,0,0,0,0,0,0,-1,839,1093,0,0
-378,-69,0,0,0,0,0,0,0,0,0,-1,846,1093,0,0
-371,-69,0,0,0,0,0,0,0,0,0,-1,853,1093,0,0
-364,-69,0,0,0,0,0,0,0,0,0,-1,860,1093,0,0
-357,-69,0,0,0,0,0,0,0,0,0,-1,867,1093,0,0
-350,-69,0,0,0,0,0,0,0,0,0,-1,874,1093,0,0
-343,-69,0,0,0,0,0,0,0,0,0,-1,881,1093,0,0
-336,-69,0,0,0,0,0,0,0,0,0,-1,888,1093,0,0
-329,-69,0,0,0,0,0,0,0,0,0,-1,895,1093,0,0
-322,-69,0,0,0,0,0,0,0,0,0,-1,902,1093,0,0
-315,-69,0,0,0,0,0,0,0,0,0,-1,909,1093,0,0
-308,-69,0,0,0,0,0,0,0,0,0,-1,916,1093,0,0
-301,-69,0,0,0,0,0,0,0,0,0,-1,923,1093,0,0
-294,-69,0,0,0,0,0,0,0,0,0,-1,930,1093,0,0
-287,-69,0,0,0,0,0,0,0,0,0,-1,937,1093,0,0
-280,-69,0,0,0,0,0,0,0,0,0,-1,944,1093,0,0
-273,-69,0,0,0,0,0,0,0,0,0,-1,951,1093,0,0
-266,-69,0,0,0,0,0,0,0,0,0,-1,958,1093,0,0
-259,-69,0,0,0,0,0,0,0,0,0,-1,965,1093,0,0
-252,-69,0,0,0,0,0,0,0,0,0,-1,972,1093,0,0
-245,-69,0,0,0,0,0,0,0,0,0,-1,979,1093,0,0
-238,-69,0,0,0,0,0,0,0,0,0,-1,986,1093,0,0
-231,-69,0,0,0,0,0,0,0,0,0,-1,993,1093,0,0
-224,-69,0,0,0,0,0,0,0,0,0,-1,1000,1093,0,0
-217,-69,0,0,0,0,0,0,0,0,0,-1,1007,1093,0,0
-210,-69,0,0,0,0,0,0,0,0,0,-1,1014,1093,0,0
-203,-69,0,0,0,0,0,0,0,0,0,-1,1021,1093,0,0
-196,-69,0,0,0,0,0,0,0,0,0,-1,1028,1093,0,0
-189,-69,0,0,0,0,0,0,0,0,0,-1,1035,1093,0,0
-182,-69,0,0,0,0,0,0,0,0,0,-1,1042,1093,0,0
-175,-69,0,0,0,0,0,0,0,0,0,-1,1049,1093,0,0
-168,-69,0,0,0,0,0,0,0,0,0,-1,1056,1093,0,0
-161,-69,0,0,0,0,0,0,0,0,0,-1,1063,1093,0,0
-154,-69,0,0,0,0,0,0,0,0,0,-1,1070,1093,0,0
-147,-69,0,0,0,0,0,0,0,0,0,-1,1077,1093,0,0
-140,-69,0,0,0,0,0,0,0,0,0,-1,1084,1093,0,0
-133,-69,0,0,0,0,0,0,0,0,0,-1,1091,1093,0,0
-126,-69,0,0,0,0,0,0,0,0,0,-1,1098,1093,0,0
-119,-69,0,0,0,0,0,0,0,0,0,-1,1105,1093,0,0
-112,-69,0,0,0,0,0,0,0,0,0,-1,1112,1093,0,0
-105,-69,0,0,0,0,0,0,0,0,0,-1,1119,1093,0,0
-98,-69,0,0,0,0,0,0,0,0,0,-1,1126,1093,0,0
-91,-69,0,0,0,0,0,0,0,0,0,-1,1133,1093,0,0
-84,-69,0,0,0,0,0,0,0,0,0,-1,1140,1093,0,0
-77,-69,0,0,0,0,0,0,0,0,0,-1,1147,1093,0,0
-70,-69,0,0,0,0,0,0,0,0,0,-1,1154,1093,0,0
-63,-69,0,0,0,0,0,0,0,0,0,-1,1161,1093,0,0
-56,-69,0,0,0,0,0,0,0,0,0,-1,1168,1093,0,0
-49,-69,0,0,0,0,0,0,0,0,0,-1,1175,1093,0,0
-42,-69,0,0,0,0,0,0,0,0,0,-1,1182,1093,0,0
-35,-69,0,0,0,0,0,0,0,0,0,-1,1189,1093,0,0
-28,-69,0,0,0,0,0,0,0,0,0,-1,1196,1093,0,0
-21,-69,0,0,0,0,0,0,0,0,0,-1,1203,1093,0,0
-14,-69,0,0,0,0,0,0,0,0,0,-1,1210,1093,0,0
-7,-69,0,0,0,0,0,0,0,0,0,-1,1217,1093,0,0
0,-69,0,0,0,0,0,0,0,0,0,-1,1224,1093,0,0
7,-69,0,0,0,0,0,0,0,0,0,-1,1231,1093,0,0
14,-69,0,0,0,0,0,0,0,0,0,-1,1238,1093,0,0
21,-69,0,0,0,0,0,0,0,0,0,-1,1245,1093,0,0
28,-69,0,0,0,0,0,0,0,0,0,-1,1252,1093,0,0
35,-69,0,0,0,0,0,0,0,0,0,-1,1259,1093,0,0
42,-69,0,0,0,0,0,0,0,0,0,-1,1266,1093,0,0
49,-69,0,0,0,0,0,0,0,0,0,-1,1273,1093,0,0
56,-69,0,0,0,0,0,0,0,0,0,-1,1280,1093,0,0
63,-69,0,0,0,0,0,0,0,0,0,-1,1287,1093,0,0
70,-69,0,0,0,0,0,0,0,0,0,-1,1294,1093,0,0
77,-69,0,0,0,0,0,0,0,0,0,-1,1301,1093,0,0
84,-69,0,0,0,0,0,0,0,0,0,-1,1308,1093,0,0
91,-69,0,0,0,0,0,0,0,0,0,-1,1315,1093,0,0
98,-69,0,0,0,0,0,0,0,0,0,-1,1322,1093,0,0
105,-69,0,0,0,0,0,0,0,0,0,-1,1329,1093,0,0
112,-69,0,0,0,0,0,0,0,0,0,-1,1336,1093,0,0
119,-69,0,0,0,0,0,0,0,0,0,-1,1343,1093,0,0
126,-69,0,0,0,0,0,0,0,0,0,-1,1350,1093,0,0
133,-69,0,0,0,0,0,0,0,0,0,-1,1357,1093,0,0
140,-69,0,0,0,0,0,0,0,0,0,-1,1364,1093,0,0
147,-69,0,0,0,0,0,0,0,0,0,-1,1371,1093,0,0
154,-69,0,0,0,0,0,0,0,0,0,-1,1378,1093,0,0
161,-69,0,0,0,0,0,0,0,0,0,-1,1385,1093,0,0
168,-69,0,0,0,0,0,0,0,0,0,-1,1392,1093,0,0
175,-69,0,0,0,0,0,0,0,0,0,-1,1399,1093,0,0
182,-69,0,0,0,0,0,0,0,0,0,-1,1406,1093,0,0
189,-69,0,0,0,0,0,0,0,0,0,-1,1413,1093,0,0
196,-69,0,0,0,0,0,0,0,0,0,-1,1420,1093,0,0
203,-69,0,0,0,0,0,0,0,0,0,-1,1427,1093,0,0
210,-69,0,0,0,0,0,0,0,0,0,-1,1434,1093,0,0
217,-69,0,0,0,0,0,0,0,0,0,-1,1441,1093,0,0
224,-69,0,0,0,0,0,0,0,0,0,-1,1448,1093,0,0
231,-69,0,0,0,0,0,0,0,0,0,-1,1455,1093,0,0
238,-69,0,0,0,0,0,0,0,0,0,-1,1462,1093,0,0
245,-69,0,0,0,0,0,0,0,0,0,-1,1469,1093,0,0
252,-69,0,0,0,0,0,0,0,0,0,-1,1476,1093,0,0
259,-69,0,0,0,0,0,0,0,0,0,-1,1483,1093,0,0
266,-69,0,0,0,0,0,0,0,0,0,-1,1490,1093,0,0
273,-69,0,0,0,0,0,0,0,0,0,-1,1497,1093,0,0
280,-69,0,0,0,0,0,0,0,0,0,-1,1504,1093,0,0
287,-69,0,0,0,0,0,0,0,0,0,-1,1511,1093,0,0
294,-69,0,0,0,0,0,0,0,0,0,-1,1518,1093,0,0
301,-69,0,0,0,0,0,0,0,0,0,-1,1525,1093,0,0
308,-69,0,0,0,0,0,0,0,0,0,-1,1532,1093,0,0
315,-69,0,0,0,0,0,0,0,0,0,-1,1539,1093,0,0
322,-69,0,0,0,0,0,0,0,0,0,-1,1546,1093,0,0
329,-69,0,0,0,0,0,0,0,0,0,-1,1553,1093,0,0
336,-69,0,0,0,0,0,0,0,0,0,-1,1560,1093,0,0
343,-69,0,0,0,0,0,0,0,0,0,-1,1567,1093,0,0
350,-69,0,0,0,0,0,0,0,0,0,-1,1574,1093,0,0
357,-69,0,0,0,0,0,0,0,0,0,-1,1581,1093,0,0
364,-69,0,0,0,0,0,0,0,0,0,-1,1588,1093,0,0
371,-69,0,0,0,0,0,0,0,0,0,-1,1595,1093,0,0
378,-69,0,0,0,0,0,0,0,0,0,-1,1602,1093,0,0
385,-69,0,0,0,0,0,0,0,0,0,-1,1609,1093,0,0
392,-69,0,0,0,0,0,0,0,0,0,-1,1616,1093,0,0
399,-69,0,0,0,0,0,0,0,0,0,-1,1623,1093,0,0
406,-69,0,0,0,0,0,0,0,0,0,-1,1630,1093,0,0
413,-69,0,0,0,0,0,0,0,0,0,-1,1637,1093,0,0
420,-69,0,0,0,0,0,0,0,0,0,-1,1644,1093,0,0
427,-69,0,0,0,0,0,0,0,0,0,-1,1651,1093,0,0
434,-69,0,0,0,0,0,0,0,0,0,-1,1658,1093,0,0
441,-69,0,0,0,0,0,0,0,0,0,-1,1665,1093,0,0
448,-69,0,0,0,0,0,0,0,0,0,-1,1672,1093,0,0
455,-69,0,0,0,0,0,0,0,0,0,-1,1679,1093,0,0
462,-69,0,0,0,0,0,0,0,0,0,-1,1686,1093,0,0
469,-69,0,0,0,0,0,0,0,0,0,-1,1693,1093,0,0
476,-69,0,0,0,0,0,0,0,0,0,-1,1700,1093,0,0
483,-69,0,0,0,0,0,0,0,0,0,-1,1707,1093,0,0
490,-69,0,0,0,0,0,0,0,0,0,-1,1714,1093,0,0
497,-69,0,0,0,0,0,0,0,0,0,-1,1721,1093,0,0
504,-69,0,0,0,0,0,0,0,0,0,-1,1728,1093,0,0
511,-69,0,0,0,0,0,0,0,0,0,-1,1735,1093,0,0
518,-69,0,0,0,0,0,0,0,0,0,-1,1742,1093,0,0
525,-69,0,0,0,0,0,0,0,0,0,-1,1749,1093,0,0
532,-69,0,0,0,0,0,0,0,0,0,-1,1756,1093,0,0
539,-69,0,0,0,0,0,0,0,0,0,-1,1763,1093,0,0
546,-69,0,0,0,0,0,0,0,0,0,-1,1770,1093,0,0
553,-69,0,0,0,0,0,0,0,0,0,-1,1777,1093,0,0
560,-69,0,0,0,0,0,0,0,0,0,-1,1784,1093,0,0
567,-69,0,0,0,0,0,0,0,0,0,-1,1791,1093,0,0
574,-69,0,0,0,0,0,0,0,0,0,-1,1798,1093,0,0
581,-69,0,0,0,0,0,0,0,0,0,-1,1805,1093,0,0
588,-69,0,0,0,0,0,0,0,0,0,-1,1812,1093,0,0
595,-69,0,0,0,0,0,0,0,0,0,-1,1819,1093,0,0
602,-69,0,0,0,0,0,0,0,0,0,-1,1826,1093,0,0
609,-69,0,0,0,0,0,0,0,0,0,-1,1833,1093,0,0
616,-69,0,0,0,0,0,0,0,0,0,-1,1840,1093,0,0
623,-69,0,0,0,0,0,0,0,0,0,-1,1847,1093,0,0
630,-69,0,0,0,0,0,0,0,0,0,-1,1854,1093,0,0
637,-69,0,0,0,0,0,0,0,0,0,-1,1861,1093,0,0
644,-69,0,0,0,0,0,0,0,0,0,-1,1868,1093,0,0
651,-69,23.725,2.58813,0.00225785,0.00219849,0.00476947,0.00699773,-0.00254139,0.782287,0.00570422,0.0392444,1875,1093,23.7249,-2.58817
658,-69,23.6563,2.57324,0.00112653,0.00125455,0.00328631,0.00447747,-0.00209639,0.795135,0.00387752,0.0436365,1882,1093,23.6562,-2.57319
665,-69,23.5925,2.8927,0.00038923,0.000577872,0.00231618,0.00280165,-0.00183455,0.805748,0.00269606,0.0454745,1889,1093,23.5925,-2.89276
672,-69,23.3807,2.86145,-0.000550808,-5.28e-05,0.00234269,0.00205408,-0.00265769,0.838344,0.00272777,0.0404837,1896,1093,23.3808,-2.86146
679,-69,23.4642,2.7135,-0.00199745,-0.000767798,0.00318048,0.00185674,-0.00462198,0.880877,0.00385239,0.0381812,1903,1093,23.4642,-2.71351
686,-69,23.7261,2.72656,-0.00339936,-0.00141107,0.00417875,0.00189016,-0.00670059,0.90218,0.00521263,0.0370859,1910,1093,23.7261,-2.7266
693,-69,23.6775,2.7052,-0.00458188,-0.00191223,0.00516436,0.00208702,-0.00858113,0.911865,0.00652858,0.0359714,1917,1093,23.6774,-2.70525
700,-69,23.6444,2.62451,-0.00560141,-0.00225536,0.00599211,0.00229291,-0.0101497,0.921534,0.00764622,0.0297795,1924,1093,23.6444,-2.62453
707,-69,23.6606,2.69617,-0.00627436,-0.00254399,0.00654014,0.00239173,-0.0112101,0.924306,0.00838512,0.0230916,1931,1093,23.6606,-2.69618
714,-69,23.7357,2.75708,-0.00669805,-0.00262243,0.00686796,0.00250367,-0.0118242,0.929617,0.00883635,0.0253926,1938,1093,23.7358,-2.75707
721,-69,23.6852,4.27869,0,0,0,0,0,0,0,-1,1945,1093,23.6852,-4.27865
728,-69,23.1915,4.33191,-0.00673895,-0.00224881,0.00679853,0.00266575,-0.0116535,0.944875,0.00879333,0.0318967,1952,1093,23.1915,-4.33194
735,-69,22.9647,4.38171,-0.00660698,-0.00174449,0.006199,0.00248299,-0.0108344,0.97228,0.00817727,0.0193014,1959,1093,22.9648,-4.38167
742,-69,22.9497,4.30322,-0.00551632,-0.00132606,0.00558606,0.00254485,-0.00938722,0.964812,0.00725673,0.014054,1966,1093,22.9497,-4.30326
749,-69,22.9065,4.20618,-0.003741,-0.000150476,0.00509719,0.00345836,-0.00734983,0.954718,0.00637351,0.0154542,1973,1093,22.9065,-4.20619
756,-69,22.9454,4.14758,-0.00182078,0.00174557,0.00495753,0.00523086,-0.00530608,0.958039,0.00608356,0.0143499,1980,1093,22.9455,-4.14762
763,-69,22.9448,4.07092,0.000432479,0.00482936,0.00527333,0.00834417,-0.00308233,0.982892,0.00682627,0.014164,1987,1093,22.9449,-4.07097
770,-69,22.9386,3.98914,0.00330747,0.00836061,0.00609082,0.0124281,-0.000760017,0.982005,0.00855001,0.0134515,1994,1093,22.9386,-3.98908
777,-69,22.9041,3.86926,0.00645,0.0131042,0.00830956,0.018728,0.000826207,0.975821,0.0122192,0.0186174,2001,1093,22.904,-3.86926
784,-69,22.9053,3.51843,0.00946714,0.0192129,0.0122805,0.027552,0.00112804,0.97427,0.0180038,0.0343064,2008,1093,22.9052,-3.51839
791,-69,22.6953,3.52393,0.0126436,0.0272888,0.01789,0.0392968,0.000635562,0.979653,0.0259886,0.0454734,2015,1093,22.6954,-3.52393
798,-69,24.7883,5.09668,0,0,0,0,0,0,0,-1,2022,1093,24.7884,-5.09669
805,-69,25.0232,5.69263,0,0,0,0,0,0,0,-1,2029,1093,25.0231,-5.69266
812,-69,25.085,6.18164,0,0,0,0,0,0,0,-1,2036,1093,25.085,-6.18165
-700,-76,0,0,0,0,0,0,0,0,0,-1,524,1100,0,0
-693,-76,-14.467,1.19141,0.0363275,0.0261761,-0.0175405,0.0495119,0.0129917,-0.64456,0.029642,0.0470905,531,1100,-14.467,-1.19141
-686,-76,-14.5006,1.26868,0.024921,0.0224074,-0.0143045,0.0380238,0.00930455,-0.74158,0.022887,0.0495314,538,1100,-14.5006,-1.26868
-679,-76,-14.6302,1.20874,0.0166716,0.0191837,-0.0111552,0.0291533,0.00670191,-0.841462,0.0176314,0.0478297,545,1100,-14.6302,-1.2088
-672,-76,-14.826,1.1156,0.0106484,0.0163396,-0.00826538,0.0222355,0.00475249,-0.951182,0.0135208,0.0449657,552,1100,-14.8261,-1.11555
-665,-76,-15.014,1.00208,0.00629442,0.0137549,-0.00577911,0.0169031,0.00314624,-1.07199,0.0103802,0.0459167,559,1100,-15.014,-1.00202
-658,-76,-15.345,1.36694,0.00326026,0.0113776,-0.00374607,0.0128421,0.00179572,-1.19811,0.00803006,0.0463581,566,1100,-15.345,-1.36694
-651,-76,-15.3947,1.34705,0.00131058,0.00918087,-0.00217879,0.00974378,0.000747674,-1.31797,0.00626153,0.028999,573,1100,-15.3947,-1.347
-644,-76,-15.3923,1.38782,-0.00109428,0.00675721,-0.00139287,0.00699699,-0.00133405,-1.40032,0.00516707,0.0108526,580,1100,-15.3923,-1.38785
-637,-76,-15.4241,1.46191,-0.00274681,0.00471613,-0.00138357,0.00496438,-0.00299506,-1.39326,0.00464203,0.0141061,587,1100,-15.4241,-1.46193
-630,-76,-15.434,1.55994,-0.0038387,0.00309796,-0.00195616,0.00361157,-0.00435231,-1.31403,0.00460457,0.0144544,594,1100,-15.434,-1.55995
-623,-76,-15.4317,1.67859,-0.00388423,0.00120048,-0.00352168,0.0030016,-0.00568535,-1.09804,0.00509457,0.013117,601,1100,-15.4317,-1.67862
-616,-76,-15.4427,1.77893,-0.00386132,0.000336133,-0.00559686,0.00421483,-0.00774001,-0.964776,0.00700144,0.0117475,608,1100,-15.4427,-1.77896
-609,-76,-15.4401,1.87952,-0.00438827,-0.000662665,-0.00750748,0.00520966,-0.0102606,-0.907005,0.00908906,0.0124809,615,1100,-15.4401,-1.87956
-602,-76,-15.4174,2.00525,-0.0049598,-0.00171081,-0.00911603,0.00592433,-0.0125949,-0.873574,0.0109209,0.0165968,622,1100,-15.4173,-2.00525
-595,-76,-15.4042,2.09766,-0.00555614,-0.00231181,-0.0102741,0.00646744,-0.0143354,-0.863696,0.0122935,0.0209415,629,1100,-15.4042,-2.09765
-588,-76,-15.5668,1.81641,-0.00570712,-0.00261338,-0.010838,0.00678762,-0.0151081,-0.856282,0.0129422,0.0304001,636,1100,-15.5668,-1.81646
-581,-76,-15.8569,1.01465,-0.00526961,-0.0027072,-0.0109176,0.00700411,-0.0149809,-0.843807,0.0129686,0.0344687,643,1100,-15.8569,-1.01467
-574,-76,-15.9943,0.710083,-0.00465475,-0.00281205,-0.0105043,0.00681118,-0.014278,-0.829142,0.0124276,0.0355201,650,1100,-15.9942,-0.710067
-567,-76,-16.04,0.940796,-0.00352752,-0.00267916,-0.00941702,0.00632323,-0.0125299,-0.807905,0.0110797,0.0399527,657,1100,-16.0401,-0.940846
-560,-76,-16.1174,0.779419,-0.00183042,-0.00243135,-0.00762013,0.00549517,-0.00975694,-0.765693,0.00891966,0.0424525,664,1100,-16.1174,-0.779479
-553,-76,-16.0567,0.674072,0.000440996,-0.00213966,-0.00517929,0.00448827,-0.00618693,-0.663317,0.00618929,0.0442188,671,1100,-16.0567,-0.674069
-546,-76,-15.9584,0.770508,0.0033206,-0.00188647,-0.0021443,0.00408996,-0.00265583,-0.344486,0.00392391,0.0396846,678,1100,-15.9584,-0.7705
-539,-76,-15.9179,0.775391,0.00668604,-0.00180708,0.00101775,0.0068063,-0.00192734,0.117614,0.00529815,0.0386637,685,1100,-15.9179,-0.775433
-532,-76,-15.7437,0.65625,0.00918672,-0.0026725,0.00204297,0.00952879,-0.00301457,0.1659,0.00756045,0.040009,692,1100,-15.7437,-0.65619
-525,-76,0,0,0,0,0,0,0,0,0,-1,699,1100,0,0
-518,-76,0,0,0,0,0,0,0,0,0,-1,706,1100,0,0
-511,-76,0,0,0,0,0,0,0,0,0,-1,713,1100,0,0
-504,-76,0,0,0,0,0,0,0,0,0,-1,720,1100,0,0
-497,-76,0,0,0,0,0,0,0,0,0,-1,727,1100,0,0
-490,-76,0,0,0,0,0,0,0,0,0,-1,734,1100,0,0
-483,-76,0,0,0,0,0,0,0,0,0,-1,741,1100,0,0
-476,-76,0,0,0,0,0,0,0,0,0,-1,748,1100,0,0
-469,-76,0,0,0,0,0,0,0,0,0,-1,755,1100,0,0
-462,-76,0,0,0,0,0,0,0,0,0,-1,762,1100,0,0
-455,-76,0,0,0,0,0,0,0,0,0,-1,769,1100,0,0
-448,-76,0,0,0,0,0,0,0,0,0,-1,776,1100,0,0
-441,-76,0,0,0,0,0,0,0,0,0,-1,783,1100,0,0
-434,-76,0,0,0,0,0,0,0,0,0,-1,790,1100,0,0
-427,-76,0,0,0,0,0,0,0,0,0,-1,797,1100,0,0
-420,-76,0,0,0,0,0,0,0,0,0,-1,804,1100,0,0
-413,-76,0,0,0,0,0,0,0,0,0,-1,811,1100,0,0
-406,-76,0,0,0,0,0,0,0,0,0,-1,818,1100,0,0
-399,-76,0,0,0,0,0,0,0,0,0,-1,825,1100,0,0
-392,-76,0,0,0,0,0,0,0,0,0,-1,832,1100,0,0
-385,-76,0,0,0,0,0,0,0,0,0,-1,839,1100,0,0
-378,-76,0,0,0,0,0,0,0,0,0,-1,846,1100,0,0
-371,-76,0,0,0,0,0,0,0,0,0,-1,853,1100,0,0
-364,-76,0,0,0,0,0,0,0,0,0,-1,860,1100,0,0
-357,-76,0,0,0,0,0,0,0,0,0,-1,867,1100,0,0
-350,-76,0,0,0,0,0,0,0,0,0,-1,874,1100,0,0
-343,-76,0,0,0,0,0,0,0,0,0,-1,881,1100,0,0
-336,-76,0,0,0,0,0,0,0,0,0,-1,888,1100,0,0
-329,-76,0,0,0,0,0,0,0,0,0,-1,895,1100,0,0
-322,-76,0,0,0,0,0,0,0,0,0,-1,902,1100,0,0
-315,-76,0,0,0,0,0,0,0,0,0,-1,909,1100,0,0
-308,-76,0,0,0,0,0,0,0,0,0,-1,916,1100,0,0
-301,-76,0,0,0,0,0,0,0,0,0,-1,923,1100,0,0
-294,-76,0,0,0,0,0,0,0,0,0,-1,930,1100,0,0
-287,-76,0,0,0,0,0,0,0,0,0,-1,937,1100,0,0
-280,-76,0,0,0,0,0,0,0,0,0,-1,944,1100,0,0
-273,-76,0,0,0,0,0,0,0,0,0,-1,951,1100,0,0
-266,-76,0,0,0,0,0,0,0,0,0,-1,958,1100,0,0
-259,-76,0,0,0,0,0,0,0,0,0,-1,965,1100,0,0
-252,-76,0,0,0,0,0,0,0,0,0,-1,972,1100,0,0
-245,-76,0,0,0,0,0,0,0,0,0,-1,979,1100,0,0
-238,-76,0,0,0,0,0,0,0,0,0,-1,986,1100,0,0
-231,-76,0,0,0,0,0,0,0,0,0,-1,993,1100,0,0
-224,-76,0,0,0,0,0,0,0,0,0,-1,1000,1100,0,0
-217,-76,0,0,0,0,0,0,0,0,0,-1,1007,1100,0,0
-210,-76,0,0,0,0,0,0,0,0,0,-1,1014,1100,0,0
-203,-76,0,0,0,0,0,0,0,0,0,-1,1021,1100,0,0
-196,-76,0,0,0,0,0,0,0,0,0,-1,1028,1100,0,0
-189,-76,0,0,0,0,0,0,0,0,0,-1,1035,1100,0,0
-182,-76,0,0,0,0,0,0,0,0,0,-1,1042,1100,0,0
-175,-76,0,0,0,0,0,0,0,0,0,-1,1049,1100,0,0
-168,-76,0,0,0,0,0,0,0,0,0,-1,1056,1100,0,0
-161,-76,0,0,0,0,0,0,0,0,0,-1,1063,1100,0,0
-154,-76,0,0,0,0,0,0,0,0,0,-1,1070,1100,0,0
-147,-76,0,0,0,0,0,0,0,0,0,-1,1077,1100,0,0
-140,-76,0,0,0,0,0,0,0,0,0,-1,1084,1100,0,0
-133,-76,0,0,0,0,0,0,0,0,0,-1,1091,1100,0,0
-126,-76,0,0,0,0,0,0,0,0,0,-1,1098,1100,0,0
-119,-76,0,0,0,0,0,0,0,0,0,-1,1105,1100,0,0
-112,-76,0,0,0,0,0,0,0,0,0,-1,1112,1100,0,0
-105,-76,0,0,0,0,0,0,0,0,0,-1,1119,1100,0,0
-98,-76,0,0,0,0,0,0,0,0,0,-1,1126,1100,0,0
-91,-76,0,0,0,0,0,0,0,0,0,-1,1133,1100,0,0
-84,-76,0,0,0,0,0,0,0,0,0,-1,1140,1100,0,0
-77,-76,0,0,0,0,0,0,0,0,0,-1,1147,1100,0,0
-70,-76,0,0,0,0,0,0,0,0,0,-1,1154,1100,0,0
-63,-76,0,0,0,0,0,0,0,0,0,-1,1161,1100,0,0
-56,-76,0,0,0,0,0,0,0,0,0,-1,1168,1100,0,0
-49,-76,0,0,0,0,0,0,0,0,0,-1,1175,1100,0,0
-42,-76,0,0,0,0,0,0,0,0,0,-1,1182,1100,0,0
-35,-76,0,0,0,0,0,0,0,0,0,-1,1189,1100,0,0
-28,-76,0,0,0,0,0,0,0,0,0,-1,1196,1100,0,0
-21,-76,0,0,0,0,0,0,0,0,0,-1,1203,1100,0,0
-14,-76,0,0,0,0,0,0,0,0,0,-1,1210,1100,0,0
-7,-76,0,0,0,0,0,0,0,0,0,-1,1217,1100,0,0
0,-76,0,0,0,0,0,0,0,0,0,-1,1224,1100,0,0
7,-76,0,0,0,0,0,0,0,0,0,-1,1231,1100,0,0
14,-76,0,0,0,0,0,0,0,0,0,-1,1238,1100,0,0
21,-76,0,0,0,0,0,0,0,0,0,-1,1245,1100,0,0
28,-76,0,0,0,0,0,0,0,0,0,-1,1252,1100,0,0
35,-76,0,0,0,0,0,0,0,0,0,-1,1259,1100,0,0
42,-76,0,0,0,0,0,0,0,0,0,-1,1266,1100,0,0
49,-76,0,0,0,0,0,0,0,0,0,-1,1273,1100,0,0
56,-76,0,0,0,0,0,0,0,0,0,-1,1280,1100,0,0
63,-76,0,0,0,0,0,0,0,0,0,-1,1287,1100,0,0
70,-76,0,0,0,0,0,0,0,0,0,-1,1294,1100,0,0
77,-76,0,0,0,0,0,0,0,0,0,-1,1301,1100,0,0
84,-76,0,0,0,0,0,0,0,0,0,-1,1308,1100,0,0
91,-76,0,0,0,0,0,0,0,0,0,-1,1315,1100,0,0
98,-76,0,0,0,0,0,0,0,0,0,-1,1322,1100,0,0
105,-76,0,0,0,0,0,0,0,0,0,-1,1329,1100,0,0
112,-76,0,0,0,0,0,0,0,0,0,-1,1336,1100,0,0
119,-76,0,0,0,0,0,0,0,0,0,-1,1343,1100,0,0
126,-76,0,0,0,0,0,0,0,0,0,-1,1350,1100,0,0
133,-76,0,0,0,0,0,0,0,0,0,-1,1357,1100,0,0
140,-76,0,0,0,0,0,0,0,0,0,-1,1364,1100,0,0
147,-76,0,0,0,0,0,0,0,0,0,-1,1371,1100,0,0
154,-76,0,0,0,0,0,0,0,0,0,-1,1378,1100,0,0
161,-76,0,0,0,0,0,0,0,0,0,-1,1385,1100,0,0
168,-76,0,0,0,0,0,0,0,0,0,-1,1392,1100,0,0
175,-76,0,0,0,0,0,0,0,0,0,-1,1399,1100,0,0
182,-76,0,0,0,0,0,0,0,0,0,-1,1406,1100,0,0
189,-76,0,0,0,0,0,0,0,0,0,-1,1413,1100,0,0
196,-76,0,0,0,0,0,0,0,0,0,-1,1420,1100,0,0
203,-76,0,0,0,0,0,0,0,0,0,-1,1427,1100,0,0
210,-76,0,0,0,0,0,0,0,0,0,-1,1434,1100,0,0
217,-76,0,0,0,0,0,0,0,0,0,-1,1441,1100,0,0
224,-76,0,0,0,0,0,0,0,0,0,-1,1448,1100,0,0
231,-76,0,0,0,0,0,0,0,0,0,-1,1455,1100,0,0
238,-76,0,0,0,0,0,0,0,0,0,-1,1462,1100,0,0
245,-76,0,0,0,0,0,0,0,0,0,-1,1469,1100,0,0
252,-76,0,0,0,0,0,0,0,0,0,-1,1476,1100,0,0
259,-76,0,0,0,0,0,0,0,0,0,-1,1483,1100,0,0
266,-76,0,0,0,0,0,0,0,0,0,-1,1490,1100,0,0
273,-76,0,0,0,0,0,0,0,0,0,-1,1497,1100,0,0
280,-76,0,0,0,0,0,0,0,0,0,-1,1504,1100,0,0
287,-76,0,0,0,0,0,0,0,0,0,-1,1511,1100,0,0
294,-76,0,0,0,0,0,0,0,0,0,-1,1518,1100,0,0
301,-76,0,0,0,0,0,0,0,0,0,-1,1525,1100,0,0
308,-76,0,0,0,0,0,0,0,0,0,-1,1532,1100,0,0
315,-76,0,0,0,0,0,0,0,0,0,-1,1539,1100,0,0
322,-76,0,0,0,0,0,0,0,0,0,-1,1546,1100,0,0
329,-76,0,0,0,0,0,0,0,0,0,-1,1553,1100,0,0
336,-76,0,0,0,0,0,0,0,0,0,-1,1560,1100,0,0
343,-76,0,0,0,0,0,0,0,0,0,-1,1567,1100,0,0
350,-76,0,0,0,0,0,0,0,0,0,-1,1574,1100,0,0
357,-76,0,0,0,0,0,0,0,0,0,-1,1581,1100,0,0
364,-76,0,0,0,0,0,0,0,0,0,-1,1588,1100,0,0
371,-76,0,0,0,0,0,0,0,0,0,-1,1595,1100,0,0
378,-76,0,0,0,0,0,0,0,0,0,-1,1602,1100,0,0
385,-76,0,0,0,0,0,0,0,0,0,-1,1609,1100,0,0
392,-76,0,0,0,0,0,0,0,0,0,-1,1616,1100,0,0
399,-76,0,0,0,0,0,0,0,0,0,-1,1623,1100,0,0
406,-76,0,0,0,0,0,0,0,0,0,-1,1630,1100,0,0
413,-76,0,0,0,0,0,0,0,0,0,-1,1637,1100,0,0
420,-76,0,0,0,0,0,0,0,0,0,-1,1644,1100,0,0
427,-76,0,0,0,0,0,0,0,0,0,-1,1651,1100,0,0
434,-76,0,0,0,0,0,0,0,0,0,-1,1658,1100,0,0
441,-76,0,0,0,0,0,0,0,0,0,-1,1665,1100,0,0
448,-76,0,0,0,0,0,0,0,0,0,-1,1672,1100,0,0
455,-76,0,0,0,0,0,0,0,0,0,-1,1679,1100,0,0
462,-76,0,0,0,0,0,0,0,0,0,-1,1686,1100,0,0
469,-76,0,0,0,0,0,0,0,0,0,-1,1693,1100,0,0
476,-76,0,0,0,0,0,0,0,0,0,-1,1700,1100,0,0
483,-76,0,0,0,0,0,0,0,0,0,-1,1707,1100,0,0
490,-76,0,0,0,0,0,0,0,0,0,-1,1714,1100,0,0
497,-76,0,0,0,0,0,0,0,0,0,-1,1721,1100,0,0
504,-76,0,0,0,0,0,0,0,0,0,-1,1728,1100,0,0
511,-76,0,0,0,0,0,0,0,0,0,-1,1735,1100,0,0
518,-76,0,0,0,0,0,0,0,0,0,-1,1742,1100,0,0
525,-76,0,0,0,0,0,0,0,0,0,-1,1749,1100,0,0
532,-76,0,0,0,0,0,0,0,0,0,-1,1756,1100,0,0
539,-76,0,0,0,0,0,0,0,0,0,-1,1763,1100,0,0
546,-76,0,0,0,0,0,0,0,0,0,-1,1770,1100,0,0
553,-76,0,0,0,0,0,0,0,0,0,-1,1777,1100,0,0
560,-76,0,0,0,0,0,0,0,0,0,-1,1784,1100,0,0
567,-76,0,0,0,0,0,0,0,0,0,-1,1791,1100,0,0
574,-76,0,0,0,0,0,0,0,0,0,-1,1798,1100,0,0
581,-76,0,0,0,0,0,0,0,0,0,-1,1805,1100,0,0
588,-76,0,0,0,0,0,0,0,0,0,-1,1812,1100,0,0
595,-76,0,0,0,0,0,0,0,0,0,-1,1819,1100,0,0
602,-76,0,0,0,0,0,0,0,0,0,-1,1826,1100,0,0
609,-76,0,0,0,0,0,0,0,0,0,-1,1833,1100,0,0
616,-76,0,0,0,0,0,0,0,0,0,-1,1840,1100,0,0
623,-76,0,0,0,0,0,0,0,0,0,-1,1847,1100,0,0
630,-76,0,0,0,0,0,0,0,0,0,-1,1854,1100,0,0
637,-76,0,0,0,0,0,0,0,0,0,-1,1861,1100,0,0
644,-76,0,0,0,0,0,0,0,0,0,-1,1868,1100,0,0
651,-76,23.769,2.59448,0.00249736,0.00201171,0.00457655,0.00683752,-0.00232846,0.758894,0.00550129,0.0385095,1875,1100,23.769,-2.59448
658,-76,23.7001,2.64966,0.00136221,0.00114296,0.00324647,0.0045009,-0.00199573,0.76852,0.00384266,0.0419753,1882,1100,23.7001,-2.6496
665,-76,23.7264,2.64954,0.000573278,0.00049534,0.00235939,0.00289402,-0.0018254,0.777141,0.00274794,0.0403564,1889,1100,23.7265,-2.64948
672,-76,23.4786,2.78699,-0.000540854,-0.000211548,0.00251431,0.0021435,-0.0028959,0.818095,0.00292028,0.0389005,1896,1100,23.4787,-2.78695
679,-76,23.5707,2.73157,-0.00211869,-0.000987355,0.00340315,0.00189682,-0.00500287,0.867755,0.00411588,0.0373849,1903,1100,23.5707,-2.73155
686,-76,23.7142,2.66296,-0.00362226,-0.00168632,0.00441237,0.00186301,-0.00717159,0.893376,0.00550811,0.0358022,1910,1100,23.7142,-2.66291
693,-76,23.7076,2.62,-0.0048825,-0.00222276,0.00539786,0.00200664,-0.0091119,0.906178,0.00684227,0.0375186,1917,1100,23.7077,-2.61994
700,-76,23.6388,2.5686,-0.00596128,-0.00258638,0.00621797,0.00216905,-0.0107167,0.917898,0.00796653,0.0317052,1924,1100,23.6387,-2.56865
707,-76,23.6488,2.703,-0.00665979,-0.00285883,0.00676025,0.002263,-0.0117816,0.922424,0.00870733,0.0238515,1931,1100,23.6488,-2.70298
714,-76,23.6707,3.18298,0,0,0,0,0,0,0,-1,1938,1100,23.6707,-3.18294
721,-76,23.3876,3.88318,-0.00722917,-0.00284288,0.00714537,0.00243835,-0.0125104,0.934301,0.00926068,0.0416949,1945,1100,23.3876,-3.8832
728,-76,23.0405,4.39709,-0.00709004,-0.00254199,0.00693311,0.0024805,-0.0121125,0.943868,0.00901632,0.026389,1952,1100,23.0406,-4.39713
735,-76,22.911,4.38184,0,0,0,0,0,0,0,-1,1959,1100,22.911,-4.3818
742,-76,22.8601,4.30432,-0.00571786,-0.00160955,0.00576987,0.00246091,-0.00978832,0.95641,0.00748199,0.0145657,1966,1100,22.8602,-4.30436
749,-76,22.8344,4.20288,-0.00380722,-0.000351935,0.00543623,0.00362458,-0.00778373,0.939252,0.00673092,0.0145345,1973,1100,22.8344,-4.20293
756,-76,22.8711,4.12598,-0.00171797,0.00165962,0.00548232,0.00570736,-0.00576572,0.934808,0.00662401,0.0145575,1980,1100,22.871,-4.12594
763,-76,22.8748,4.03064,0.000742017,0.0050402,0.00603815,0.00930031,-0.0035181,0.956367,0.00764758,0.0149192,1987,1100,22.8748,-4.03059
770,-76,22.85,3.96716,0.00383396,0.00885717,0.00721905,0.013989,-0.00129792,0.952806,0.0097874,0.0134388,1994,1100,22.85,-3.9672
777,-76,22.8383,3.90393,0.00714607,0.0139785,0.00993744,0.0210705,5.40297e-05,0.950955,0.014029,0.0173901,2001,1100,22.8383,-3.90395
784,-76,22.8459,3.57532,0.0103783,0.0206632,0.0145158,0.0309205,0.000120991,0.955634,0.0205735,0.0336849,2008,1100,22.8459,-3.5753
791,-76,22.568,3.32251,0.0138277,0.0296386,0.020844,0.0440259,-0.000559634,0.966652,0.0295389,0.0439677,2015,1100,22.5679,-3.32254
798,-76,22.3533,2.99817,0,0,0,0,0,0,0,-1,2022,1100,22.3532,-2.99821
805,-76,24.7258,5.25244,0.0216266,0.0575965,0.0395919,0.0830969,-0.00387382,0.998593,0.0567333,0.0440591,2029,1100,24.726,-5.2524
812,-76,24.7925,6.06067,0.0250548,0.0784604,0.0526668,0.110807,-0.00729174,1.02002,0.076418,0.0465925,2036,1100,24.7925,-6.06067
-700,-83,0,0,0,0,0,0,0,0,0,-1,524,1107,0,0
-693,-83,-14.3276,1.05371,0.0221381,0.0252825,-0.0124581,0.0362672,0.0111534,-0.848166,0.0214497,0.0480659,531,1107,-14.3276,-1.0537
-686,-83,-14.2866,1.16223,0.0126766,0.020842,-0.00972858,0.0273098,0.00620876,-0.984068,0.0165303,0.047948,538,1107,-14.2866,-1.16219
-679,-83,-14.3335,1.41382,0.0065783,0.0173955,-0.00720248,0.0209941,0.00297976,-1.10745,0.0131161,0.0456381,545,1107,-14.3335,-1.4138
-672,-83,-14.7928,0.750366,0,0,0,0,0,0,0,-1,552,1107,-14.7929,-0.750338
-665,-83,-14.9212,0.781982,0.000203231,0.0122061,-0.00309215,0.0129558,-0.00054653,-1.33291,0.00882503,0.0470905,559,1107,-14.9212,-0.78195
-658,-83,-15.0587,0.842529,-0.00119282,0.0100969,-0.00163503,0.010329,-0.00142485,-1.42983,0.00740674,0.0450406,566,1107,-15.0587,-0.842504
-651,-83,-15.2678,1.22522,-0.00179704,0.00818953,-0.000572479,0.00822224,-0.00182975,-1.51372,0.00618234,0.0317192,573,1107,-15.2678,-1.22521
-644,-83,-15.2563,1.33313,-0.00300068,0.00600624,-0.000147822,0.00600867,-0.00300311,-1.55439,0.00529853,0.0145877,580,1107,-15.2564,-1.33308
-637,-83,-15.2691,1.4447,-0.00374096,0.00412944,-0.000452656,0.00415539,-0.00376691,-1.51353,0.00457577,0.0119015,587,1107,-15.2691,-1.44467
-630,-83,-15.2949,1.57813,-0.00426105,0.00265973,-0.00135456,0.00291541,-0.00451672,-1.38424,0.00432401,0.0165586,594,1107,-15.2949,-1.57819
-623,-83,-15.3035,1.67419,-0.00415075,0.00107235,-0.00316092,0.00256099,-0.0056394,-1.13065,0.00484442,0.0153197,601,1107,-15.3035,-1.67416
-616,-83,-15.3271,1.76575,-0.00415153,0.000242737,-0.00534843,0.00382774,-0.00773653,-0.980289,0.00680258,0.0120274,608,1107,-15.3271,-1.76574
-609,-83,-15.3242,1.87878,-0.0047834,-0.000822805,-0.00729995,0.00476069,-0.0103669,-0.917848,0.0089316,0.0116089,615,1107,-15.3241,-1.87877
-602,-83,-15.3116,2.01953,-0.00547188,-0.00188855,-0.00891829,0.00541627,-0.0127767,-0.884527,0.0107865,0.0140948,622,1107,-15.3116,-2.01959
-595,-83,-15.276,2.14819,-0.00621181,-0.00249509,-0.0100827,0.00589911,-0.014606,-0.876531,0.0121892,0.0170934,629,1107,-15.276,-2.14818
-588,-83,-15.4617,1.83521,-0.00647828,-0.00283716,-0.0106562,0.0061529,-0.0154683,-0.870004,0.0128634,0.0345867,636,1107,-15.4617,-1.83521
-581,-83,-15.8551,1.0188,-0.00609743,-0.00300053,-0.0107372,0.00629929,-0.0153972,-0.857011,0.0128884,0.0387027,643,1107,-15.8551,-1.01878
-574,-83,-15.9955,0.523926,-0.00553776,-0.00315943,-0.0103508,0.00607028,-0.0147675,-0.842591,0.0123751,0.0361471,650,1107,-15.9955,-0.523945
-567,-83,-15.9626,0.762939,-0.00446808,-0.00308542,-0.00932661,0.00557544,-0.0131289,-0.822393,0.0110886,0.0411859,657,1107,-15.9626,-0.762903
-560,-83,-15.9902,0.743042,-0.00280926,-0.0028967,-0.00762483,0.00477198,-0.0104779,-0.782531,0.00900764,0.0439607,664,1107,-15.9902,-0.743065
-553,-83,-15.9205,0.556152,-0.000547574,-0.0026618,-0.00531878,0.00381813,-0.0070275,-0.687301,0.00635246,0.0442153,671,1107,-15.9206,-0.556124
-546,-83,-15.9171,0.873535,0.00237058,-0.00246328,-0.00246574,0.00340639,-0.00349909,-0.397697,0.003987,0.0401366,678,1107,-15.9171,-0.87351
-539,-83,-15.9797,0.87561,0.00591453,-0.0024499,0.000560411,0.00595191,-0.00248728,0.0666026,0.00500736,0.0407992,685,1107,-15.9798,-0.87557
-532,-83,-15.8326,0.711426,0.0086837,-0.00338741,0.00157532,0.0088859,-0.0035896,0.127655,0.00741594,0.0437737,692,1107,-15.8326,-0.711481
-525,-83,0,0,0,0,0,0,0,0,0,-1,699,1107,0,0
-518,-83,0,0,0,0,0,0,0,0,0,-1,706,1107,0,0
-511,-83,0,0,0,0,0,0,0,0,0,-1,713,1107,0,0
-504,-83,0,0,0,0,0,0,0,0,0,-1,720,1107,0,0
-497,-83,0,0,0,0,0,0,0,0,0,-1,727,1107,0,0
-490,-83,0,0,0,0,0,0,0,0,0,-1,734,1107,0,0
-483,-83,0,0,0,0,0,0,0,0,0,-1,741,1107,0,0
-476,-83,0,0,0,0,0,0,0,0,0,-1,748,1107,0,0
-469,-83,0,0,0,0,0,0,0,0,0,-1,755,1107,0,0
-462,-83,0,0,0,0,0,0,0,0,0,-1,762,1107,0,0
-455,-83,0,0,0,0,0,0,0,0,0,-1,769,1107,0,0
-448,-83,0,0,0,0,0,0,0,0,0,-1,776,1107,0,0
-441,-83,0,0,0,0,0,0,0,0,0,-1,783,1107,0,0
-434,-83,0,0,0,0,0,0,0,0,0,-1,790,1107,0,0
-427,-83,0,0,0,0,0,0,0,0,0,-1,797,1107,0,0
-420,-83,0,0,0,0,0,0,0,0,0,-1,804,1107,0,0
-413,-83,0,0,0,0,0,0,0,0,0,-1,811,1107,0,0
-406,-83,0,0,0,0,0,0,0,0,0,-1,818,1107,0,0
-399,-83,0,0,0,0,0,0,0,0,0,-1,825,1107,0,0
-392,-83,0,0,0,0,0,0,0,0,0,-1,832,1107,0,0
-385,-83,0,0,0,0,0,0,0,0,0,-1,839,1107,0,0
-378,-83,0,0,0,0,0,0,0,0,0,-1,846,1107,0,0
-371,-83,0,0,0,0,0,0,0,0,0,-1,853,1107,0,0
-364,-83,0,0,0,0,0,0,0,0,0,-1,860,1107,0,0
-357,-83,0,0,0,0,0,0,0,0,0,-1,867,1107,0,0
-350,-83,0,0,0,0,0,0,0,0,0,-1,874,1107,0,0
-343,-83,0,0,0,0,0,0,0,0,0,-1,881,1107,0,0
-336,-83,0,0,0,0,0,0,0,0,0,-1,888,1107,0,0
-329,-83,0,0,0,0,0,0,0,0,0,-1,895,1107,0,0
-322,-83,0,0,0,0,0,0,0,0,0,-1,902,1107,0,0
-315,-83,0,0,0,0,0,0,0,0,0,-1,909,1107,0,0
-308,-83,0,0,0,0,0,0,0,0,0,-1,916,1107,0,0
-301,-83,0,0,0,0,0,0,0,0,0,-1,923,1107,0,0
-294,-83,0,0,0,0,0,0,0,0,0,-1,930,1107,0,0
-287,-83,0,0,0,0,0,0,0,0,0,-1,937,1107,0,0
-280,-83,0,0,0,0,0,0,0,0,0,-1,944,1107,0,0
-273,-83,0,0,0,0,0,0,0,0,0,-1,951,1107,0,0
-266,-83,0,0,0,0,0,0,0,0,0,-1,958,1107,0,0
-259,-83,0,0,0,0,0,0,0,0,0,-1,965,1107,0,0
-252,-83,0,0,0,0,0,0,0,0,0,-1,972,1107,0,0
-245,-83,0,0,0,0,0,0,0,0,0,-1,979,1107,0,0
-238,-83,0,0,0,0,0,0,0,0,0,-1,986,1107,0,0
-231,-83,0,0,0,0,0,0,0,0,0,-1,993,1107,0,0
-224,-83,0,0,0,0,0,0,0,0,0,-1,1000,1107,0,0
-217,-83,0,0,0,0,0,0,0,0,0,-1,1007,1107,0,0
-210,-83,0,0,0,0,0,0,0,0,0,-1,1014,1107,0,0
-203,-83,0,0,0,0,0,0,0,0,0,-1,1021,1107,0,0
-196,-83,0,0,0,0,0,0,0,0,0,-1,1028,1107,0,0
-189,-83,0,0,0,0,0,0,0,0,0,-1,1035,1107,0,0
-182,-83,0,0,0,0,0,0,0,0,0,-1,1042,1107,0,0
-175,-83,0,0,0,0,0,0,0,0,0,-1,1049,1107,0,0
-168,-83,0,0,0,0,0,0,0,0,0,-1,1056,1107,0,0
-161,-83,0,0,0,0,0,0,0,0,0,-1,1063,1107,0,0
-154,-83,0,0,0,0,0,0,0,0,0,-1,1070,1107,0,0
-147,-83,0,0,0,0,0,0,0,0,0,-1,1077,1107,0,0
-140,-83,0,0,0,0,0,0,0,0,0,-1,1084,1107,0,0
-133,-83,0,0,0,0,0,0,0,0,0,-1,1091,1107,0,0
-126,-83,0,0,0,0,0,0,0,0,0,-1,1098,1107,0,0
-119,-83,0,0,0,0,0,0,0,0,0,-1,1105,1107,0,0
-112,-83,0,0,0,0,0,0,0,0,0,-1,1112,1107,0,0
-105,-83,0,0,0,0,0,0,0,0,0,-1,1119,1107,0,0
-98,-83,0,0,0,0,0,0,0,0,0,-1,1126,1107,0,0
-91,-83,0,0,0,0,0,0,0,0,0,-1,1133,1107,0,0
-84,-83,0,0,0,0,0,0,0,0,0,-1,1140,1107,0,0
-77,-83,0,0,0,0,0,0,0,0,0,-1,1147,1107,0,0
-70,-83,0,0,0,0,0,0,0,0,0,-1,1154,1107,0,0
-63,-83,0,0,0,0,0,0,0,0,0,-1,1161,1107,0,0
-56,-83,0,0,0,0,0,0,0,0,0,-1,1168,1107,0,0
-49,-83,0,0,0,0,0,0,0,0,0,-1,1175,1107,0,0
-42,-83,0,0,0,0,0,0,0,0,0,-1,1182,1107,0,0
-35,-83,0,0,0,0,0,0,0,0,0,-1,1189,1107,0,0
-28,-83,0,0,0,0,0,0,0,0,0,-1,1196,1107,0,0
-21,-83,0,0,0,0,0,0,0,0,0,-1,1203,1107,0,0
-14,-83,0,0,0,0,0,0,0,0,0,-1,1210,1107,0,0
-7,-83,0,0,0,0,0,0,0,0,0,-1,1217,1107,0,0
0,-83,0,0,0,0,0,0,0,0,0,-1,1224,1107,0,0
7,-83,0,0,0,0,0,0,0,0,0,-1,1231,1107,0,0
14,-83,0,0,0,0,0,0,0,0,0,-1,1238,1107,0,0
21,-83,0,0,0,0,0,0,0,0,0,-1,1245,1107,0,0
28,-83,0,0,0,0,0,0,0,0,0,-1,1252,1107,0,0
35,-83,0,0,0,0,0,0,0,0,0,-1,1259,1107,0,0
42,-83,0,0,0,0,0,0,0,0,0,-1,1266,1107,0,0
49,-83,0,0,0,0,0,0,0,0,0,-1,1273,1107,0,0
56,-83,0,0,0,0,0,0,0,0,0,-1,1280,1107,0,0
63,-83,0,0,0,0,0,0,0,0,0,-1,1287,1107,0,0
70,-83,0,0,0,0,0,0,0,0,0,-1,1294,1107,0,0
77,-83,0,0,0,0,0,0,0,0,0,-1,1301,1107,0,0
84,-83,0,0,0,0,0,0,0,0,0,-1,1308,1107,0,0
91,-83,0,0,0,0,0,0,0,0,0,-1,1315,1107,0,0
98,-83,0,0,0,0,0,0,0,0,0,-1,1322,1107,0,0
105,-83,0,0,0,0,0,0,0,0,0,-1,1329,1107,0,0
112,-83,0,0,0,0,0,0,0,0,0,-1,1336,1107,0,0
119,-83,0,0,0,0,0,0,0,0,0,-1,1343,1107,0,0
126,-83,0,0,0,0,0,0,0,0,0,-1,1350,1107,0,0
133,-83,0,0,0,0,0,0,0,0,0,-1,1357,1107,0,0
140,-83,0,0,0,0,0,0,0,0,0,-1,1364,1107,0,0
147,-83,0,0,0,0,0,0,0,0,0,-1,1371,1107,0,0
154,-83,0,0,0,0,0,0,0,0,0,-1,1378,1107,0,0
161,-83,0,0,0,0,0,0,0,0,0,-1,1385,1107,0,0
168,-83,0,0,0,0,0,0,0,0,0,-1,1392,1107,0,0
175,-83,0,0,0,0,0,0,0,0,0,-1,1399,1107,0,0
182,-83,0,0,0,0,0,0,0,0,0,-1,1406,1107,0,0
189,-83,0,0,0,0,0,0,0,0,0,-1,1413,1107,0,0
196,-83,0,0,0,0,0,0,0,0,0,-1,1420,1107,0,0
203,-83,0,0,0,0,0,0,0,0,0,-1,1427,1107,0,0
210,-83,0,0,0,0,0,0,0,0,0,-1,1434,1107,0,0
217,-83,0,0,0,0,0,0,0,0,0,-1,1441,1107,0,0
224,-83,0,0,0,0,0,0,0,0,0,-1,1448,1107,0,0
231,-83,0,0,0,0,0,0,0,0,0,-1,1455,1107,0,0
238,-83,0,0,0,0,0,0,0,0,0,-1,1462,1107,0,0
245,-83,0,0,0,0,0,0,0,0,0,-1,1469,1107,0,0
252,-83,0,0,0,0,0,0,0,0,0,-1,1476,1107,0,0
259,-83,0,0,0,0,0,0,0,0,0,-1,1483,1107,0,0
266,-83,0,0,0,0,0,0,0,0,0,-1,1490,1107,0,0
273,-83,0,0,0,0,0,0,0,0,0,-1,1497,1107,0,0
280,-83,0,0,0,0,0,0,0,0,0,-1,1504,1107,0,0
287,-83,0,0,0,0,0,0,0,0,0,-1,1511,1107,0,0
294,-83,0,0,0,0,0,0,0,0,0,-1,1518,1107,0,0
301,-83,0,0,0,0,0,0,0,0,0,-1,1525,1107,0,0
308,-83,0,0,0,0,0,0,0,0,0,-1,1532,1107,0,0
315,-83,0,0,0,0,0,0,0,0,0,-1,1539,1107,0,0
322,-83,0,0,0,0,0,0,0,0,0,-1,1546,1107,0,0
329,-83,0,0,0,0,0,0,0,0,0,-1,1553,1107,0,0
336,-83,0,0,0,0,0,0,0,0,0,-1,1560,1107,0,0
343,-83,0,0,0,0,0,0,0,0,0,-1,1567,1107,0,0
350,-83,0,0,0,0,0,0,0,0,0,-1,1574,1107,0,0
357,-83,0,0,0,0,0,0,0,0,0,-1,1581,1107,0,0
364,-83,0,0,0,0,0,0,0,0,0,-1,1588,1107,0,0
371,-83,0,0,0,0,0,0,0,0,0,-1,1595,1107,0,0
378,-83,0,0,0,0,0,0,0,0,0,-1,1602,1107,0,0
385,-83,0,0,0,0,0,0,0,0,0,-1,1609,1107,0,0
392,-83,0,0,0,0,0,0,0,0,0,-1,1616,1107,0,0
399,-83,0,0,0,0,0,0,0,0,0,-1,1623,1107,0,0
406,-83,0,0,0,0,0,0,0,0,0,-1,1630,1107,0,0
413,-83,0,0,0,0,0,0,0,0,0,-1,1637,1107,0,0
420,-83,0,0,0,0,0,0,0,0,0,-1,1644,1107,0,0
427,-83,0,0,0,0,0,0,0,0,0,-1,1651,1107,0,0
434,-83,0,0,0,0,0,0,0,0,0,-1,1658,1107,0,0
441,-83,0,0,0,0,0,0,0,0,0,-1,1665,1107,0,0
448,-83,0,0,0,0,0,0,0,0,0,-1,1672,1107,0,0
455,-83,0,0,0,0,0,0,0,0,0,-1,1679,1107,0,0
462,-83,0,0,0,0,0,0,0,0,0,-1,1686,1107,0,0
469,-83,0,0,0,0,0,0,0,0,0,-1,1693,1107,0,0
476,-83,0,0,0,0,0,0,0,0,0,-1,1700,1107,0,0
483,-83,0,0,0,0,0,0,0,0,0,-1,1707,1107,0,0
490,-83,0,0,0,0,0,0,0,0,0,-1,1714,1107,0,0
497,-83,0,0,0,0,0,0,0,0,0,-1,1721,1107,0,0
504,-83,0,0,0,0,0,0,0,0,0,-1,1728,1107,0,0
511,-83,0,0,0,0,0,0,0,0,0,-1,1735,1107,0,0
518,-83,0,0,0,0,0,0,0,0,0,-1,1742,1107,0,0
525,-83,0,0,0,0,0,0,0,0,0,-1,1749,1107,0,0
532,-83,0,0,0,0,0,0,0,0,0,-1,1756,1107,0,0
539,-83,0,0,0,0,0,0,0,0,0,-1,1763,1107,0,0
546,-83,0,0,0,0,0,0,0,0,0,-1,1770,1107,0,0
553,-83,0,0,0,0,0,0,0,0,0,-1,1777,1107,0,0
560,-83,0,0,0,0,0,0,0,0,0,-1,1784,1107,0,0
567,-83,0,0,0,0,0,0,0,0,0,-1,1791,1107,0,0
574,-83,0,0,0,0,0,0,0,0,0,-1,1798,1107,0,0
581,-83,0,0,0,0,0,0,0,0,0,-1,1805,1107,0,0
588,-83,0,0,0,0,0,0,0,0,0,-1,1812,1107,0,0
595,-83,0,0,0,0,0,0,0,0,0,-1,1819,1107,0,0
602,-83,0,0,0,0,0,0,0,0,0,-1,1826,1107,0,0
609,-83,0,0,0,0,0,0,0,0,0,-1,1833,1107,0,0
616,-83,0,0,0,0,0,0,0,0,0,-1,1840,1107,0,0
623,-83,0,0,0,0,0,0,0,0,0,-1,1847,1107,0,0
630,-83,0,0,0,0,0,0,0,0,0,-1,1854,1107,0,0
637,-83,0,0,0,0,0,0,0,0,0,-1,1861,1107,0,0
644,-83,23.7161,2.68835,0.00495374,0.00268338,0.00558081,0.00951365,-0.00187653,0.685063,0.00705167,0.035392,1868,1107,23.716,-2.68835
651,-83,23.8771,2.80627,0.00295985,0.00189035,0.00460183,0.00705789,-0.00220769,0.727556,0.00558845,0.0412087,1875,1107,23.8771,-2.8063
658,-83,23.84,2.89966,0.00177904,0.00115331,0.00339286,0.00487343,-0.00194107,0.739422,0.00405396,0.0447457,1882,1107,23.84,-2.89964
665,-83,23.7852,2.9126,0.000884802,0.00056745,0.00257114,0.00330216,-0.00184991,0.75458,0.00301368,0.0405234,1889,1107,23.7852,-2.91258
672,-83,23.6484,2.79224,-0.000426295,-0.000170245,0.00280776,0.0025124,-0.00310894,0.808181,0.00325157,0.0388805,1896,1107,23.6485,-2.79228
679,-83,23.6613,2.81726,-0.00212044,-0.000958202,0.00368362,0.00218986,-0.0052685,0.863632,0.00442668,0.0378918,1903,1107,23.6612,-2.8172
686,-83,23.7208,2.72217,-0.00370592,-0.00167769,0.00464883,0.00206634,-0.00744996,0.892788,0.00577988,0.0349733,1910,1107,23.7208,-2.7222
693,-83,23.7408,2.60327,-0.00502243,-0.00223059,0.00558641,0.00213167,-0.00938468,0.90783,0.00707488,0.0352182,1917,1107,23.7409,-2.60332
700,-83,23.6829,2.63489,-0.00613341,-0.00260706,0.00636035,0.00222998,-0.0109704,0.920609,0.00815918,0.0302666,1924,1107,23.6829,-2.63489
707,-83,23.6445,2.69543,-0.00684601,-0.00287926,0.0068735,0.0022913,-0.0120166,0.92586,0.00887397,0.022616,1931,1107,23.6446,-2.69548
714,-83,23.5835,3.4679,0,0,0,0,0,0,0,-1,1938,1107,23.5835,-3.46791
721,-83,23.0492,4.1582,-0.00742665,-0.00288662,0.00718146,0.00237506,-0.0126883,0.938476,0.00935165,0.0289364,1945,1107,23.0492,-4.15824
728,-83,22.7629,4.44897,-0.00726554,-0.00259268,0.0069473,0.00240054,-0.0122588,0.947611,0.0090791,0.0221408,1952,1107,22.763,-4.44896
735,-83,22.6528,4.36218,-0.00705763,-0.0020883,0.00634455,0.00224076,-0.0113867,0.97203,0.00843782,0.0236903,1959,1107,22.6528,-4.3622
742,-83,22.736,4.31091,-0.00586195,-0.00172619,0.00584412,0.00240511,-0.00999325,0.955444,0.00759194,0.0146529,1966,1107,22.7359,-4.31091
749,-83,22.7788,4.23669,-0.00392898,-0.000412922,0.00566454,0.00376013,-0.00810203,0.935864,0.00699988,0.0117734,1973,1107,22.7789,-4.23667
756,-83,22.7906,4.14087,-0.00176481,0.00165961,0.00586587,0.00605805,-0.00616325,0.9274,0.00705606,0.0137844,1980,1107,22.7906,-4.14091
763,-83,22.7804,4.03564,0.000816527,0.00525713,0.00659848,0.00999884,-0.00392518,0.947691,0.00829005,0.0115365,1987,1107,22.7804,-4.03562
770,-83,22.7583,3.96252,0.00400862,0.00928449,0.00805147,0.0151191,-0.00182604,0.943705,0.01074,0.0128632,1994,1107,22.7583,-3.96253
777,-83,22.7522,3.88477,0.00738935,0.0146748,0.0111269,0.0227401,-0.000675905,0.943591,0.0153903,0.0141596,2001,1107,22.7522,-3.88472
784,-83,22.7219,3.81604,0.0108016,0.0218076,0.0161121,0.0333306,-0.000721376,0.94996,0.0224647,0.023879,2008,1107,22.722,-3.81609
791,-83,22.5092,3.73206,0.0145805,0.0314984,0.0229041,0.0474557,-0.00137673,0.962289,0.0321059,0.0421911,2015,1107,22.5092,-3.73203
798,-83,24.2644,4.50342,0.018912,0.0446045,0.0316848,0.0659481,-0.00243165,0.977991,0.044798,0.044685,2022,1107,24.2645,-4.50336
805,-83,24.3237,4.92639,0.023664,0.0620763,0.0427414,0.0897285,-0.0039882,0.996557,0.0611917,0.0447347,2029,1107,24.3237,-4.92638
812,-83,24.4089,5.33899,0.0282348,0.0851852,0.0563976,0.119888,-0.0064685,1.01918,0.0821667,0.047234,2036,1107,24.4089,-5.33898
-700,-90,0,0,0,0,0,0,0,0,0,-1,524,1114,0,0
-693,-90,-14.0906,1.01733,0,0,0,0,0,0,0,-1,531,1114,-14.0906,-1.01737
-686,-90,-13.5161,1.60815,0.000189344,0.0180434,-0.00421889,0.0189901,-0.000757374,-1.35005,0.0129199,0.0440798,538,1114,-13.5161,-1.60815
-679,-90,-13.9604,1.75305,-0.0033178,0.0145517,-0.00250516,0.0148963,-0.00366236,-1.43411,0.0113503,0.0422006,545,1114,-13.9604,-1.75306
-672,-90,-14.1595,2.15833,-0.00490325,0.0119612,-0.00109421,0.0120319,-0.00497395,-1.50627,0.0100962,0.0410707,552,1114,-14.1595,-2.15831
-665,-90,-14.8381,0.57019,0,0,0,0,0,0,0,-1,559,1114,-14.8381,-0.570173
-658,-90,-14.9606,0.6521,-0.00509775,0.00822746,0.000720308,0.00826628,-0.00513657,1.51695,0.00780815,0.0463303,566,1114,-14.9606,-0.652103
-651,-90,-15.1451,1.01392,-0.0044241,0.00672815,0.00116752,0.00684907,-0.00454502,1.4676,0.00662306,0.029375,573,1114,-15.1451,-1.01396
-644,-90,-15.1644,1.26855,-0.00447274,0.00492863,0.00115384,0.00506817,-0.00461228,1.45044,0.00559108,0.0129155,580,1114,-15.1644,-1.2686
-637,-90,-15.1578,1.43066,-0.00438323,0.00332839,0.000499721,0.00336064,-0.00441548,1.50635,0.00450329,0.0115132,587,1114,-15.1578,-1.4307
-630,-90,-15.1636,1.55603,-0.00447635,0.00209113,-0.000741747,0.00217386,-0.00455908,-1.45972,0.00396774,0.0117462,594,1114,-15.1636,-1.55601
-623,-90,-15.1734,1.67065,-0.00423734,0.000807539,-0.0027514,0.00201778,-0.00544758,-1.1564,0.00445918,0.00920786,601,1114,-15.1734,-1.67068
-616,-90,-15.1862,1.80786,-0.00424297,1.30495e-05,-0.00500049,0.00331949,-0.00754941,-0.986571,0.00643162,0.0080109,608,1114,-15.1862,-1.80782
-609,-90,-15.199,1.91785,-0.00494623,-0.00105234,-0.00694566,0.0042141,-0.0102127,-0.922047,0.00856593,0.0110954,615,1114,-15.199,-1.91786
-602,-90,-15.2143,2.03833,-0.0057291,-0.00207856,-0.00854475,0.0048337,-0.0126414,-0.890623,0.0104195,0.0116021,622,1114,-15.2143,-2.03833
-595,-90,-15.1517,2.18689,-0.00653953,-0.0026423,-0.00969654,0.00529948,-0.0144813,-0.884557,0.0118235,0.0126956,629,1114,-15.1517,-2.18691
-588,-90,-15.2606,2.05432,-0.0068743,-0.00297633,-0.0102596,0.0055178,-0.0153684,-0.879263,0.0124977,0.0289885,636,1114,-15.2606,-2.05427
-581,-90,-15.8623,1.23828,-0.006551,-0.00315971,-0.010337,0.00561975,-0.0153305,-0.866693,0.0125212,0.037363,643,1114,-15.8623,-1.23826
-574,-90,-15.9893,0.714233,-0.00605239,-0.00330651,-0.0100046,0.0054189,-0.0147778,-0.853588,0.0120707,0.0319863,650,1114,-15.9893,-0.714227
-567,-90,-15.9361,0.595459,-0.00507868,-0.00321864,-0.00907529,0.00497416,-0.0132715,-0.836459,0.0108912,0.0346697,657,1114,-15.9361,-0.595433
-560,-90,-15.9047,0.623901,-0.00353075,-0.00300269,-0.0075107,0.00424862,-0.0107821,-0.802968,0.00894707,0.0391955,664,1114,-15.9047,-0.623917
-553,-90,-15.8425,0.795166,-0.00139115,-0.00272402,-0.0053809,0.00336442,-0.0074796,-0.723786,0.00640931,0.0410304,671,1114,-15.8425,-0.795109
-546,-90,-15.9727,0.999268,0.00140191,-0.00247309,-0.00274101,0.00282105,-0.00389223,-0.477742,0.00389233,0.0410623,678,1114,-15.9727,-0.999323
-539,-90,-16.0473,0.831665,0.00489616,-0.00240969,0.00013157,0.00489853,-0.00241206,0.0180011,0.00430138,0.040207,685,1114,-16.0473,-0.831701
-532,-90,-15.9341,0.624756,0.00774823,-0.00327843,0.00121657,0.00788086,-0.00341106,0.10859,0.00668748,0.0417245,692,1114,-15.9342,-0.624746
-525,-90,0,0,0,0,0,0,0,0,0,-1,699,1114,0,0
-518,-90,0,0,0,0,0,0,0,0,0,-1,706,1114,0,0
-511,-90,0,0,0,0,0,0,0,0,0,-1,713,1114,0,0
-504,-90,0,0,0,0,0,0,0,0,0,-1,720,1114,0,0
-497,-90,0,0,0,0,0,0,0,0,0,-1,727,1114,0,0
-490,-90,0,0,0,0,0,0,0,0,0,-1,734,1114,0,0
-483,-90,0,0,0,0,0,0,0,0,0,-1,741,1114,0,0
-476,-90,0,0,0,0,0,0,0,0,0,-1,748,1114,0,0
-469,-90,0,0,0,0,0,0,0,0,0,-1,755,1114,0,0
-462,-90,0,0,0,0,0,0,0,0,0,-1,762,1114,0,0
-455,-90,0,0,0,0,0,0,0,0,0,-1,769,1114,0,0
-448,-90,0,0,0,0,0,0,0,0,0,-1,776,1114,0,0
-441,-90,0,0,0,0,0,0,0,0,0,-1,783,1114,0,0
-434,-90,0,0,0,0,0,0,0,0,0,-1,790,1114,0,0
-427,-90,0,0,0,0,0,0,0,0,0,-1,797,1114,0,0
-420,-90,0,0,0,0,0,0,0,0,0,-1,804,1114,0,0
-413,-90,0,0,0,0,0,0,0,0,0,-1,811,1114,0,0
-406,-90,0,0,0,0,0,0,0,0,0,-1,818,1114,0,0
-399,-90,0,0,0,0,0,0,0,0,0,-1,825,1114,0,0
-392,-90,0,0,0,0,0,0,0,0,0,-1,832,1114,0,0
-385,-90,0,0,0,0,0,0,0,0,0,-1,839,1114,0,0
-378,-90,0,0,0,0,0,0,0,0,0,-1,846,1114,0,0
-371,-90,0,0,0,0,0,0,0,0,0,-1,853,1114,0,0
-364,-90,0,0,0,0,0,0,0,0,0,-1,860,1114,0,0
-357,-90,0,0,0,0,0,0,0,0,0,-1,867,1114,0,0
-350,-90,0,0,0,0,0,0,0,0,0,-1,874,1114,0,0
-343,-90,0,0,0,0,0,0,0,0,0,-1,881,1114,0,0
-336,-90,0,0,0,0,0,0,0,0,0,-1,888,1114,0,0
-329,-90,0,0,0,0,0,0,0,0,0,-1,895,1114,0,0
-322,-90,0,0,0,0,0,0,0,0,0,-1,902,1114,0,0
-315,-90,0,0,0,0,0,0,0,0,0,-1,909,1114,0,0
-308,-90,0,0,0,0,0,0,0,0,0,-1,916,1114,0,0
-301,-90,0,0,0,0,0,0,0,0,0,-1,923,1114,0,0
-294,-90,0,0,0,0,0,0,0,0,0,-1,930,1114,0,0
-287,-90,0,0,0,0,0,0,0,0,0,-1,937,1114,0,0
-280,-90,0,0,0,0,0,0,0,0,0,-1,944,1114,0,0
-273,-90,0,0,0,0,0,0,0,0,0,-1,951,1114,0,0
-266,-90,0,0,0,0,0,0,0,0,0,-1,958,1114,0,0
-259,-90,0,0,0,0,0,0,0,0,0,-1,965,1114,0,0
-252,-90,0,0,0,0,0,0,0,0,0,-1,972,1114,0,0
-245,-90,0,0,0,0,0,0,0,0,0,-1,979,1114,0,0
-238,-90,0,0,0,0,0,0,0,0,0,-1,986,1114,0,0
-231,-90,0,0,0,0,0,0,0,0,0,-1,993,1114,0,0
-224,-90,0,0,0,0,0,0,0,0,0,-1,1000,1114,0,0
-217,-90,0,0,0,0,0,0,0,0,0,-1,1007,1114,0,0
-210,-90,0,0,0,0,0,0,0,0,0,-1,1014,1114,0,0
-203,-90,0,0,0,0,0,0,0,0,0,-1,1021,1114,0,0
-196,-90,0,0,0,0,0,0,0,0,0,-1,1028,1114,0,0
-189,-90,0,0,0,0,0,0,0,0,0,-1,1035,1114,0,0
-182,-90,0,0,0,0,0,0,0,0,0,-1,1042,1114,0,0
-175,-90,0,0,0,0,0,0,0,0,0,-1,1049,1114,0,0
-168,-90,0,0,0,0,0,0,0,0,0,-1,1056,1114,0,0
-161,-90,0,0,0,0,0,0,0,0,0,-1,1063,1114,0,0
-154,-90,0,0,0,0,0,0,0,0,0,-1,1070,1114,0,0
-147,-90,0,0,0,0,0,0,0,0,0,-1,1077,1114,0,0
-140,-90,0,0,0,0,0,0,0,0,0,-1,1084,1114,0,0
-133,-90,0,0,0,0,0,0,0,0,0,-1,1091,1114,0,0
-126,-90,0,0,0,0,0,0,0,0,0,-1,1098,1114,0,0
-119,-90,0,0,0,0,0,0,0,0,0,-1,1105,1114,0,0
-112,-90,0,0,0,0,0,0,0,0,0,-1,1112,1114,0,0
-105,-90,0,0,0,0,0,0,0,0,0,-1,1119,1114,0,0
-98,-90,0,0,0,0,0,0,0,0,0,-1,1126,1114,0,0
-91,-90,0,0,0,0,0,0,0,0,0,-1,1133,1114,0,0
-84,-90,0,0,0,0,0,0,0,0,0,-1,1140,1114,0,0
-77,-90,0,0,0,0,0,0,0,0,0,-1,1147,1114,0,0
-70,-90,0,0,0,0,0,0,0,0,0,-1,1154,1114,0,0
-63,-90,0,0,0,0,0,0,0,0,0,-1,1161,1114,0,0
-56,-90,0,0,0,0,0,0,0,0,0,-1,1168,1114,0,0
-49,-90,0,0,0,0,0,0,0,0,0,-1,1175,1114,0,0
-42,-90,0,0,0,0,0,0,0,0,0,-1,1182,1114,0,0
-35,-90,0,0,0,0,0,0,0,0,0,-1,1189,1114,0,0
-28,-90,0,0,0,0,0,0,0,0,0,-1,1196,1114,0,0
-21,-90,0,0,0,0,0,0,0,0,0,-1,1203,1114,0,0
-14,-90,0,0,0,0,0,0,0,0,0,-1,1210,1114,0,0
-7,-90,0,0,0,0,0,0,0,0,0,-1,1217,1114,0,0
0,-90,0,0,0,0,0,0,0,0,0,-1,1224,1114,0,0
7,-90,0,0,0,0,0,0,0,0,0,-1,1231,1114,0,0
14,-90,0,0,0,0,0,0,0,0,0,-1,1238,1114,0,0
21,-90,0,0,0,0,0,0,0,0,0,-1,1245,1114,0,0
28,-90,0,0,0,0,0,0,0,0,0,-1,1252,1114,0,0
35,-90,0,0,0,0,0,0,0,0,0,-1,1259,1114,0,0
42,-90,0,0,0,0,0,0,0,0,0,-1,1266,1114,0,0
49,-90,0,0,0,0,0,0,0,0,0,-1,1273,1114,0,0
56,-90,0,0,0,0,0,0,0,0,0,-1,1280,1114,0,0
63,-90,0,0,0,0,0,0,0,0,0,-1,1287,1114,0,0
70,-90,0,0,0,0,0,0,0,0,0,-1,1294,1114,0,0
77,-90,0,0,0,0,0,0,0,0,0,-1,1301,1114,0,0
84,-90,0,0,0,0,0,0,0,0,0,-1,1308,1114,0,0
91,-90,0,0,0,0,0,0,0,0,0,-1,1315,1114,0,0
98,-90,0,0,0,0,0,0,0,0,0,-1,1322,1114,0,0
105,-90,0,0,0,0,0,0,0,0,0,-1,1329,1114,0,0
112,-90,0,0,0,0,0,0,0,0,0,-1,1336,1114,0,0
119,-90,0,0,0,0,0,0,0,0,0,-1,1343,1114,0,0
126,-90,0,0,0,0,0,0,0,0,0,-1,1350,1114,0,0
133,-90,0,0,0,0,0,0,0,0,0,-1,1357,1114,0,0
140,-90,0,0,0,0,0,0,0,0,0,-1,1364,1114,0,0
147,-90,0,0,0,0,0,0,0,0,0,-1,1371,1114,0,0
154,-90,0,0,0,0,0,0,0,0,0,-1,1378,1114,0,0
161,-90,0,0,0,0,0,0,0,0,0,-1,1385,1114,0,0
168,-90,0,0,0,0,0,0,0,0,0,-1,1392,1114,0,0
175,-90,0,0,0,0,0,0,0,0,0,-1,1399,1114,0,0
182,-90,0,0,0,0,0,0,0,0,0,-1,1406,1114,0,0
189,-90,0,0,0,0,0,0,0,0,0,-1,1413,1114,0,0
196,-90,0,0,0,0,0,0,0,0,0,-1,1420,1114,0,0
203,-90,0,0,0,0,0,0,0,0,0,-1,1427,1114,0,0
210,-90,0,0,0,0,0,0,0,0,0,-1,1434,1114,0,0
217,-90,0,0,0,0,0,0,0,0,0,-1,1441,1114,0,0
224,-90,0,0,0,0,0,0,0,0,0,-1,1448,1114,0,0
231,-90,0,0,0,0,0,0,0,0,0,-1,1455,1114,0,0
238,-90,0,0,0,0,0,0,0,0,0,-1,1462,1114,0,0
245,-90,0,0,0,0,0,0,0,0,0,-1,1469,1114,0,0
252,-90,0,0,0,0,0,0,0,0,0,-1,1476,1114,0,0
259,-90,0,0,0,0,0,0,0,0,0,-1,1483,1114,0,0
266,-90,0,0,0,0,0,0,0,0,0,-1,1490,1114,0,0
273,-90,0,0,0,0,0,0,0,0,0,-1,1497,1114,0,0
280,-90,0,0,0,0,0,0,0,0,0,-1,1504,1114,0,0
287,-90,0,0,0,0,0,0,0,0,0,-1,1511,1114,0,0
294,-90,0,0,0,0,0,0,0,0,0,-1,1518,1114,0,0
301,-90,0,0,0,0,0,0,0,0,0,-1,1525,1114,0,0
308,-90,0,0,0,0,0,0,0,0,0,-1,1532,1114,0,0
315,-90,0,0,0,0,0,0,0,0,0,-1,1539,1114,0,0
322,-90,0,0,0,0,0,0,0,0,0,-1,1546,1114,0,0
329,-90,0,0,0,0,0,0,0,0,0,-1,1553,1114,0,0
336,-90,0,0,0,0,0,0,0,0,0,-1,1560,1114,0,0
343,-90,0,0,0,0,0,0,0,0,0,-1,1567,1114,0,0
350,-90,0,0,0,0,0,0,0,0,0,-1,1574,1114,0,0
357,-90,0,0,0,0,0,0,0,0,0,-1,1581,1114,0,0
364,-90,0,0,0,0,0,0,0,0,0,-1,1588,1114,0,0
371,-90,0,0,0,0,0,0,0,0,0,-1,1595,1114,0,0
378,-90,0,0,0,0,0,0,0,0,0,-1,1602,1114,0,0
385,-90,0,0,0,0,0,0,0,0,0,-1,1609,1114,0,0
392,-90,0,0,0,0,0,0,0,0,0,-1,1616,1114,0,0
399,-90,0,0,0,0,0,0,0,0,0,-1,1623,1114,0,0
406,-90,0,0,0,0,0,0,0,0,0,-1,1630,1114,0,0
413,-90,0,0,0,0,0,0,0,0,0,-1,1637,1114,0,0
420,-90,0,0,0,0,0,0,0,0,0,-1,1644,1114,0,0
427,-90,0,0,0,0,0,0,0,0,0,-1,1651,1114,0,0
434,-90,0,0,0,0,0,0,0,0,0,-1,1658,1114,0,0
441,-90,0,0,0,0,0,0,0,0,0,-1,1665,1114,0,0
448,-90,0,0,0,0,0,0,0,0,0,-1,1672,1114,0,0
455,-90,0,0,0,0,0,0,0,0,0,-1,1679,1114,0,0
462,-90,0,0,0,0,0,0,0,0,0,-1,1686,1114,0,0
469,-90,0,0,0,0,0,0,0,0,0,-1,1693,1114,0,0
476,-90,0,0,0,0,0,0,0,0,0,-1,1700,1114,0,0
483,-90,0,0,0,0,0,0,0,0,0,-1,1707,1114,0,0
490,-90,0,0,0,0,0,0,0,0,0,-1,1714,1114,0,0
497,-90,0,0,0,0,0,0,0,0,0,-1,1721,1114,0,0
504,-90,0,0,0,0,0,0,0,0,0,-1,1728,1114,0,0
511,-90,0,0,0,0,0,0,0,0,0,-1,1735,1114,0,0
518,-90,0,0,0,0,0,0,0,0,0,-1,1742,1114,0,0
525,-90,0,0,0,0,0,0,0,0,0,-1,1749,1114,0,0
532,-90,0,0,0,0,0,0,0,0,0,-1,1756,1114,0,0
539,-90,0,0,0,0,0,0,0,0,0,-1,1763,1114,0,0
546,-90,0,0,0,0,0,0,0,0,0,-1,1770,1114,0,0
553,-90,0,0,0,0,0,0,0,0,0,-1,1777,1114,0,0
560,-90,0,0,0,0,0,0,0,0,0,-1,1784,1114,0,0
567,-90,0,0,0,0,0,0,0,0,0,-1,1791,1114,0,0
574,-90,0,0,0,0,0,0,0,0,0,-1,1798,1114,0,0
581,-90,0,0,0,0,0,0,0,0,0,-1,1805,1114,0,0
588,-90,0,0,0,0,0,0,0,0,0,-1,1812,1114,0,0
595,-90,0,0,0,0,0,0,0,0,0,-1,1819,1114,0,0
602,-90,0,0,0,0,0,0,0,0,0,-1,1826,1114,0,0
609,-90,0,0,0,0,0,0,0,0,0,-1,1833,1114,0,0
616,-90,0,0,0,0,0,0,0,0,0,-1,1840,1114,0,0
623,-90,0,0,0,0,0,0,0,0,0,-1,1847,1114,0,0
630,-90,0,0,0,0,0,0,0,0,0,-1,1854,1114,0,0
637,-90,0,0,0,0,0,0,0,0,0,-1,1861,1114,0,0
644,-90,23.5952,2.67859,0.00543336,0.00148301,0.00460405,0.00846803,-0.00155167,0.582768,0.00622735,0.0354777,1868,1114,23.5953,-2.67858
651,-90,23.7061,2.77576,0.00339017,0.00120579,0.00402593,0.00646943,-0.00187348,0.652942,0.00505454,0.039891,1875,1114,23.7061,-2.77577
658,-90,23.8613,2.8252,0.00224904,0.000834977,0.00301917,0.00464287,-0.00155885,0.67038,0.00372521,0.0439608,1882,1114,23.8613,-2.82515
665,-90,23.8016,2.95215,0.00118432,0.000461388,0.00244297,0.00329242,-0.00164671,0.71195,0.00290389,0.0448526,1889,1114,23.8016,-2.95215
672,-90,23.7618,2.953,-0.000397023,-0.000180882,0.00292092,0.00263397,-0.00321187,0.803889,0.00338059,0.0443604,1896,1114,23.7618,-2.95297
679,-90,23.6804,2.94238,-0.00225227,-0.000890394,0.00389586,0.00238359,-0.00552625,0.871917,0.00468536,0.0394478,1903,1114,23.6804,-2.94238
686,-90,23.6782,2.94263,-0.00394802,-0.00157952,0.00490351,0.00228071,-0.00780825,0.903885,0.00610933,0.0326568,1910,1114,23.6782,-2.94265
693,-90,23.7322,2.82239,-0.0053359,-0.00212615,0.00584763,0.00233284,-0.00979489,0.919325,0.00743062,0.0303447,1917,1114,23.7322,-2.82242
700,-90,23.7296,2.72144,-0.0064832,-0.0025054,0.00661556,0.00241377,-0.0114024,0.93142,0.00852089,0.0271682,1924,1114,23.7296,-2.72142
707,-90,23.6377,2.65356,-0.0071966,-0.00276238,0.00711297,0.002471,-0.01243,0.936476,0.00922135,0.0231039,1931,1114,23.6377,-2.65358
714,-90,23.6089,4.16614,0,0,0,0,0,0,0,-1,1938,1114,23.6089,-4.16613
721,-90,22.9192,4.45276,-0.00772601,-0.00280893,0.00732329,0.00245748,-0.0129924,0.947345,0.00958636,0.027155,1945,1114,22.9192,-4.45281
728,-90,22.6654,4.51514,-0.00749791,-0.00253991,0.00703768,0.00244262,-0.0124804,0.954736,0.00924272,0.0193627,1952,1114,22.6654,-4.51511
735,-90,22.6292,4.4137,-0.00719021,-0.00205915,0.00641296,0.00228242,-0.0115318,0.975675,0.00855081,0.0219217,1959,1114,22.6291,-4.41369
742,-90,22.6449,4.32031,-0.00594782,-0.00170532,0.0059198,0.00246181,-0.0101149,0.957437,0.00769628,0.0192836,1966,1114,22.6449,-4.32035
749,-90,22.717,4.19116,-0.00361625,-0.000290982,0.00585653,0.00413435,-0.00804158,0.923706,0.0071494,0.0140872,1973,1114,22.717,-4.19118
756,-90,22.7136,4.11377,-0.000791836,0.00180167,0.00611549,0.00675638,-0.00574655,0.889873,0.00722641,0.0135137,1980,1114,22.7136,-4.11373
763,-90,22.6899,4.02625,0.00242616,0.00551334,0.00692964,0.0110692,-0.00312973,0.894985,0.00861438,0.0112111,1987,1114,22.6899,-4.02627
770,-90,22.6655,3.93494,0.00648158,0.0096161,0.00854133,0.0167328,-0.000635093,0.876134,0.0113728,0.0128365,1994,1114,22.6655,-3.935
777,-90,22.6558,3.8623,0.0109266,0.0150503,0.0118047,0.0249719,0.00100504,0.871857,0.0163232,0.0120994,2001,1114,22.6558,-3.86232
784,-90,22.6248,3.71887,0.0157797,0.0222684,0.0169511,0.0362828,0.00176523,0.879951,0.0236221,0.0250665,2008,1114,22.6248,-3.7189
791,-90,23.9429,3.86462,0,0,0,0,0,0,0,-1,2015,1114,23.9428,-3.86457
798,-90,23.9636,4.25171,0.027948,0.0452713,0.0326358,0.0703753,0.00284406,0.915109,0.0459981,0.0412926,2022,1114,23.9636,-4.25166
805,-90,24.0322,4.60034,0.0352458,0.0628165,0.0435818,0.0947412,0.0033211,0.938574,0.0620834,0.0430723,2029,1114,24.0321,-4.60038
812,-90,24.0513,5.04248,0.0426368,0.0859834,0.0569284,0.125225,0.00339561,0.967282,0.0823745,0.0450439,2036,1114,24.0514,-5.04245
-700,-97,0,0,0,0,0,0,0,0,0,-1,524,1121,0,0
-693,-97,-12.7484,1.66187,0,0,0,0,0,0,0,-1,531,1121,-12.7484,-1.66182
-686,-97,-13.4116,1.86487,-0.00996259,0.0161731,0.00194415,0.016317,-0.0101064,1.49695,0.0153954,0.0484019,538,1121,-13.4116,-1.86488
-679,-97,-14.0726,2.10034,-0.0111831,0.0125162,0.00268896,0.0128175,-0.0114843,1.45922,0.0140377,0.0442174,545,1121,-14.0726,-2.10039
-672,-97,-14.7339,2.44702,-0.0108108,0.00997641,0.00314793,0.0104427,-0.0112771,1.42375,0.012543,0.0417659,552,1121,-14.734,-2.44697
-665,-97,-14.9439,-0.0714111,0,0,0,0,0,0,0,-1,559,1121,-14.9439,0.0713732
-658,-97,-15.0471,0.484741,-0.00806917,0.00669243,0.00328598,0.00739085,-0.00876759,1.36137,0.00934036,0.0431417,566,1121,-15.0471,-0.484755
-651,-97,-15.0893,1.02466,-0.0064115,0.00548541,0.00305223,0.00622278,-0.00714886,1.33375,0.00772629,0.028424,573,1121,-15.0893,-1.02468
-644,-97,-15.0408,1.26514,-0.00556824,0.00402525,0.0025339,0.00465339,-0.00619638,1.3278,0.0062852,0.0105829,580,1121,-15.0408,-1.26514
-637,-97,-15.0238,1.4021,-0.00480898,0.00266204,0.00150679,0.00295449,-0.00510142,1.37909,0.00470582,0.0116757,587,1121,-15.0238,-1.40211
-630,-97,-15.0233,1.5387,-0.00451973,0.00163175,-8.32083e-05,0.00163288,-0.00452085,-1.55727,0.00368096,0.00983259,594,1121,-15.0233,-1.53872
-623,-97,-15.0366,1.69458,-0.00420142,0.000586826,-0.00228174,0.00149999,-0.00511459,-1.19011,0.00400449,0.0105995,601,1121,-15.0366,-1.69456
-616,-97,-15.0418,1.82556,-0.00423737,-0.000200328,-0.00460147,0.00280589,-0.00724359,-0.992093,0.00598766,0.0121395,608,1121,-15.0418,-1.8256
-609,-97,-15.0665,1.94666,-0.0049961,-0.00123952,-0.00654045,0.003687,-0.00992263,-0.925225,0.00812779,0.0152506,615,1121,-15.0665,-1.94671
-602,-97,-15.0926,2.04688,-0.00584396,-0.00220547,-0.00809903,0.00427612,-0.0123256,-0.895877,0.00995345,0.0133237,622,1121,-15.0926,-2.04686
-595,-97,-15.0408,2.18066,-0.00668439,-0.00274397,-0.00921545,0.00470953,-0.0141379,-0.89071,0.0113263,0.0165596,629,1121,-15.0407,-2.18067
-588,-97,-15.0696,2.19092,-0.00708261,-0.00307414,-0.00973999,0.00486569,-0.0150224,-0.886869,0.0119711,0.0279975,636,1121,-15.0696,-2.19088
-581,-97,-15.7149,1.35413,-0.00683546,-0.0032703,-0.00979653,0.00490451,-0.0150103,-0.875394,0.0119811,0.0394452,643,1121,-15.7149,-1.35409
-574,-97,-16.1496,0.595581,0,0,0,0,0,0,0,-1,650,1121,-16.1496,-0.595602
-567,-97,-15.8539,0.811157,-0.00556486,-0.00335996,-0.0086664,0.00427383,-0.0131986,-0.848664,0.0105173,0.0350608,657,1121,-15.854,-0.811135
-560,-97,-15.895,0.910034,-0.00418397,-0.00315418,-0.00722681,0.00357606,-0.0109142,-0.820962,0.00871622,0.039095,664,1121,-15.895,-0.910022
-553,-97,-15.7963,1.00977,-0.00223753,-0.0028781,-0.00525268,0.00270462,-0.00782025,-0.754948,0.00631126,0.0424695,671,1121,-15.7963,-1.00973
-546,-97,-15.8642,0.947876,0.000338086,-0.00262149,-0.00278817,0.00201483,-0.00429823,-0.541431,0.00372347,0.0445531,678,1121,-15.8642,-0.947838
-539,-97,-15.9434,0.648682,0.00365897,-0.00254604,-2.37911e-05,0.00365906,-0.00254614,-0.0038341,0.00360173,0.0406497,685,1121,-15.9434,-0.648644
-532,-97,-15.8917,0.528931,0.00656029,-0.00335324,0.0012537,0.00671638,-0.00350933,0.123866,0.00599982,0.0369145,692,1121,-15.8917,-0.528885
-525,-97,0,0,0,0,0,0,0,0,0,-1,699,1121,0,0
-518,-97,0,0,0,0,0,0,0,0,0,-1,706,1121,0,0
-511,-97,0,0,0,0,0,0,0,0,0,-1,713,1121,0,0
-504,-97,0,0,0,0,0,0,0,0,0,-1,720,1121,0,0
-497,-97,0,0,0,0,0,0,0,0,0,-1,727,1121,0,0
-490,-97,0,0,0,0,0,0,0,0,0,-1,734,1121,0,0
-483,-97,0,0,0,0,0,0,0,0,0,-1,741,1121,0,0
-476,-97,0,0,0,0,0,0,0,0,0,-1,748,1121,0,0
-469,-97,0,0,0,0,0,0,0,0,0,-1,755,1121,0,0
-462,-97,0,0,0,0,0,0,0,0,0,-1,762,1121,0,0
-455,-97,0,0,0,0,0,0,0,0,0,-1,769,1121,0,0
-448,-97,0,0,0,0,0,0,0,0,0,-1,776,1121,0,0
-441,-97,0,0,0,0,0,0,0,0,0,-1,783,1121,0,0
-434,-97,0,0,0,0,0,0,0,0,0,-1,790,1121,0,0
-427,-97,0,0,0,0,0,0,0,0,0,-1,797,1121,0,0
-420,-97,0,0,0,0,0,0,0,0,0,-1,804,1121,0,0
-413,-97,0,0,0,0,0,0,0,0,0,-1,811,1121,0,0
-406,-97,0,0,0,0,0,0,0,0,0,-1,818,1121,0,0
-399,-97,0,0,0,0,0,0,0,0,0,-1,825,1121,0,0
-392,-97,0,0,0,0,0,0,0,0,0,-1,832,1121,0,0
-385,-97,0,0,0,0,0,0,0,0,0,-1,839,1121,0,0
-378,-97,0,0,0,0,0,0,0,0,0,-1,846,1121,0,0
-371,-97,0,0,0,0,0,0,0,0,0,-1,853,1121,0,0
-364,-97,0,0,0,0,0,0,0,0,0,-1,860,1121,0,0
-357,-97,0,0,0,0,0,0,0,0,0,-1,867,1121,0,0
-350,-97,0,0,0,0,0,0,0,0,0,-1,874,1121,0,0
-343,-97,0,0,0,0,0,0,0,0,0,-1,881,1121,0,0
-336,-97,0,0,0,0,0,0,0,0,0,-1,888,1121,0,0
-329,-97,0,0,0,0,0,0,0,0,0,-1,895,1121,0,0
-322,-97,0,0,0,0,0,0,0,0,0,-1,902,1121,0,0
-315,-97,0,0,0,0,0,0,0,0,0,-1,909,1121,0,0
-308,-97,0,0,0,0,0,0,0,0,0,-1,916,1121,0,0
-301,-97,0,0,0,0,0,0,0,0,0,-1,923,1121,0,0
-294,-97,0,0,0,0,0,0,0,0,0,-1,930,1121,0,0
-287,-97,0,0,0,0,0,0,0,0,0,-1,937,1121,0,0
-280,-97,0,0,0,0,0,0,0,0,0,-1,944,1121,0,0
-273,-97,0,0,0,0,0,0,0,0,0,-1,951,1121,0,0
-266,-97,0,0,0,0,0,0,0,0,0,-1,958,1121,0,0
-259,-97,0,0,0,0,0,0,0,0,0,-1,965,1121,0,0
-252,-97,0,0,0,0,0,0,0,0,0,-1,972,1121,0,0
-245,-97,0,0,0,0,0,0,0,0,0,-1,979,1121,0,0
-238,-97,0,0,0,0,0,0,0,0,0,-1,986,1121,0,0
-231,-97,0,0,0,0,0,0,0,0,0,-1,993,1121,0,0
-224,-97,0,0,0,0,0,0,0,0,0,-1,1000,1121,0,0
-217,-97,0,0,0,0,0,0,0,0,0,-1,1007,1121,0,0
-210,-97,0,0,0,0,0,0,0,0,0,-1,1014,1121,0,0
-203,-97,0,0,0,0,0,0,0,0,0,-1,1021,1121,0,0
-196,-97,0,0,0,0,0,0,0,0,0,-1,1028,1121,0,0
-189,-97,0,0,0,0,0,0,0,0,0,-1,1035,1121,0,0
-182,-97,0,0,0,0,0,0,0,0,0,-1,1042,1121,0,0
-175,-97,0,0,0,0,0,0,0,0,0,-1,1049,1121,0,0
-168,-97,0,0,0,0,0,0,0,0,0,-1,1056,1121,0,0
-161,-97,0,0,0,0,0,0,0,0,0,-1,1063,1121,0,0
-154,-97,0,0,0,0,0,0,0,0,0,-1,1070,1121,0,0
-147,-97,0,0,0,0,0,0,0,0,0,-1,1077,1121,0,0
-140,-97,0,0,0,0,0,0,0,0,0,-1,1084,1121,0,0
-133,-97,0,0,0,0,0,0,0,0,0,-1,1091,1121,0,0
-126,-97,0,0,0,0,0,0,0,0,0,-1,1098,1121,0,0
-119,-97,0,0,0,0,0,0,0,0,0,-1,1105,1121,0,0
-112,-97,0,0,0,0,0,0,0,0,0,-1,1112,1121,0,0
-105,-97,0,0,0,0,0,0,0,0,0,-1,1119,1121,0,0
-98,-97,0,0,0,0,0,0,0,0,0,-1,1126,1121,0,0
-91,-97,0,0,0,0,0,0,0,0,0,-1,1133,1121,0,0
-84,-97,0,0,0,0,0,0,0,0,0,-1,1140,1121,0,0
-77,-97,0,0,0,0,0,0,0,0,0,-1,1147,1121,0,0
-70,-97,0,0,0,0,0,0,0,0,0,-1,1154,1121,0,0
-63,-97,0,0,0,0,0,0,0,0,0,-1,1161,1121,0,0
-56,-97,0,0,0,0,0,0,0,0,0,-1,1168,1121,0,0
-49,-97,0,0,0,0,0,0,0,0,0,-1,1175,1121,0,0
-42,-97,0,0,0,0,0,0,0,0,0,-1,1182,1121,0,0
-35,-97,0,0,0,0,0,0,0,0,0,-1,1189,1121,0,0
-28,-97,0,0,0,0,0,0,0,0,0,-1,1196,1121,0,0
-21,-97,0,0,0,0,0,0,0,0,0,-1,1203,1121,0,0
-14,-97,0,0,0,0,0,0,0,0,0,-1,1210,1121,0,0
-7,-97,0,0,0,0,0,0,0,0,0,-1,1217,1121,0,0
0,-97,0,0,0,0,0,0,0,0,0,-1,1224,1121,0,0
7,-97,0,0,0,0,0,0,0,0,0,-1,1231,1121,0,0
14,-97,0,0,0,0,0,0,0,0,0,-1,1238,1121,0,0
21,-97,0,0,0,0,0,0,0,0,0,-1,1245,1121,0,0
28,-97,0,0,0,0,0,0,0,0,0,-1,1252,1121,0,0
35,-97,0,0,0,0,0,0,0,0,0,-1,1259,1121,0,0
42,-97,0,0,0,0,0,0,0,0,0,-1,1266,1121,0,0
49,-97,0,0,0,0,0,0,0,0,0,-1,1273,1121,0,0
56,-97,0,0,0,0,0,0,0,0,0,-1,1280,1121,0,0
63,-97,0,0,0,0,0,0,0,0,0,-1,1287,1121,0,0
70,-97,0,0,0,0,0,0,0,0,0,-1,1294,1121,0,0
77,-97,0,0,0,0,0,0,0,0,0,-1,1301,1121,0,0
84,-97,0,0,0,0,0,0,0,0,0,-1,1308,1121,0,0
91,-97,0,0,0,0,0,0,0,0,0,-1,1315,1121,0,0
98,-97,0,0,0,0,0,0,0,0,0,-1,1322,1121,0,0
105,-97,0,0,0,0,0,0,0,0,0,-1,1329,1121,0,0
112,-97,0,0,0,0,0,0,0,0,0,-1,1336,1121,0,0
119,-97,0,0,0,0,0,0,0,0,0,-1,1343,1121,0,0
126,-97,0,0,0,0,0,0,0,0,0,-1,1350,1121,0,0
133,-97,0,0,0,0,0,0,0,0,0,-1,1357,1121,0,0
140,-97,0,0,0,0,0,0,0,0,0,-1,1364,1121,0,0
147,-97,0,0,0,0,0,0,0,0,0,-1,1371,1121,0,0
154,-97,0,0,0,0,0,0,0,0,0,-1,1378,1121,0,0
161,-97,0,0,0,0,0,0,0,0,0,-1,1385,1121,0,0
168,-97,0,0,0,0,0,0,0,0,0,-1,1392,1121,0,0
175,-97,0,0,0,0,0,0,0,0,0,-1,1399,1121,0,0
182,-97,0,0,0,0,0,0,0,0,0,-1,1406,1121,0,0
189,-97,0,0,0,0,0,0,0,0,0,-1,1413,1121,0,0
196,-97,0,0,0,0,0,0,0,0,0,-1,1420,1121,0,0
203,-97,0,0,0,0,0,0,0,0,0,-1,1427,1121,0,0
210,-97,0,0,0,0,0,0,0,0,0,-1,1434,1121,0,0
217,-97,0,0,0,0,0,0,0,0,0,-1,1441,1121,0,0
224,-97,0,0,0,0,0,0,0,0,0,-1,1448,1121,0,0
231,-97,0,0,0,0,0,0,0,0,0,-1,1455,1121,0,0
238,-97,0,0,0,0,0,0,0,0,0,-1,1462,1121,0,0
245,-97,0,0,0,0,0,0,0,0,0,-1,1469,1121,0,0
252,-97,0,0,0,0,0,0,0,0,0,-1,1476,1121,0,0
259,-97,0,0,0,0,0,0,0,0,0,-1,1483,1121,0,0
266,-97,0,0,0,0,0,0,0,0,0,-1,1490,1121,0,0
273,-97,0,0,0,0,0,0,0,0,0,-1,1497,1121,0,0
280,-97,0,0,0,0,0,0,0,0,0,-1,1504,1121,0,0
287,-97,0,0,0,0,0,0,0,0,0,-1,1511,1121,0,0
294,-97,0,0,0,0,0,0,0,0,0,-1,1518,1121,0,0
301,-97,0,0,0,0,0,0,0,0,0,-1,1525,1121,0,0
308,-97,0,0,0,0,0,0,0,0,0,-1,1532,1121,0,0
315,-97,0,0,0,0,0,0,0,0,0,-1,1539,1121,0,0
322,-97,0,0,0,0,0,0,0,0,0,-1,1546,1121,0,0
329,-97,0,0,0,0,0,0,0,0,0,-1,1553,1121,0,0
336,-97,0,0,0,0,0,0,0,0,0,-1,1560,1121,0,0
343,-97,0,0,0,0,0,0,0,0,0,-1,1567,1121,0,0
350,-97,0,0,0,0,0,0,0,0,0,-1,1574,1121,0,0
357,-97,0,0,0,0,0,0,0,0,0,-1,1581,1121,0,0
364,-97,0,0,0,0,0,0,0,0,0,-1,1588,1121,0,0
371,-97,0,0,0,0,0,0,0,0,0,-1,1595,1121,0,0
378,-97,0,0,0,0,0,0,0,0,0,-1,1602,1121,0,0
385,-97,0,0,0,0,0,0,0,0,0,-1,1609,1121,0,0
392,-97,0,0,0,0,0,0,0,0,0,-1,1616,1121,0,0
399,-97,0,0,0,0,0,0,0,0,0,-1,1623,1121,0,0
406,-97,0,0,0,0,0,0,0,0,0,-1,1630,1121,0,0
413,-97,0,0,0,0,0,0,0,0,0,-1,1637,1121,0,0
420,-97,0,0,0,0,0,0,0,0,0,-1,1644,1121,0,0
427,-97,0,0,0,0,0,0,0,0,0,-1,1651,1121,0,0
434,-97,0,0,0,0,0,0,0,0,0,-1,1658,1121,0,0
441,-97,0,0,0,0,0,0,0,0,0,-1,1665,1121,0,0
448,-97,0,0,0,0,0,0,0,0,0,-1,1672,1121,0,0
455,-97,0,0,0,0,0,0,0,0,0,-1,1679,1121,0,0
462,-97,0,0,0,0,0,0,0,0,0,-1,1686,1121,0,0
469,-97,0,0,0,0,0,0,0,0,0,-1,1693,1121,0,0
476,-97,0,0,0,0,0,0,0,0,0,-1,1700,1121,0,0
483,-97,0,0,0,0,0,0,0,0,0,-1,1707,1121,0,0
490,-97,0,0,0,0,0,0,0,0,0,-1,1714,1121,0,0
497,-97,0,0,0,0,0,0,0,0,0,-1,1721,1121,0,0
504,-97,0,0,0,0,0,0,0,0,0,-1,1728,1121,0,0
511,-97,0,0,0,0,0,0,0,0,0,-1,1735,1121,0,0
518,-97,0,0,0,0,0,0,0,0,0,-1,1742,1121,0,0
525,-97,0,0,0,0,0,0,0,0,0,-1,1749,1121,0,0
532,-97,0,0,0,0,0,0,0,0,0,-1,1756,1121,0,0
539,-97,0,0,0,0,0,0,0,0,0,-1,1763,1121,0,0
546,-97,0,0,0,0,0,0,0,0,0,-1,1770,1121,0,0
553,-97,0,0,0,0,0,0,0,0,0,-1,1777,1121,0,0
560,-97,0,0,0,0,0,0,0,0,0,-1,1784,1121,0,0
567,-97,0,0,0,0,0,0,0,0,0,-1,1791,1121,0,0
574,-97,0,0,0,0,0,0,0,0,0,-1,1798,1121,0,0
581,-97,0,0,0,0,0,0,0,0,0,-1,1805,1121,0,0
588,-97,0,0,0,0,0,0,0,0,0,-1,1812,1121,0,0
595,-97,0,0,0,0,0,0,0,0,0,-1,1819,1121,0,0
602,-97,0,0,0,0,0,0,0,0,0,-1,1826,1121,0,0
609,-97,0,0,0,0,0,0,0,0,0,-1,1833,1121,0,0
616,-97,0,0,0,0,0,0,0,0,0,-1,1840,1121,0,0
623,-97,0,0,0,0,0,0,0,0,0,-1,1847,1121,0,0
630,-97,0,0,0,0,0,0,0,0,0,-1,1854,1121,0,0
637,-97,0,0,0,0,0,0,0,0,0,-1,1861,1121,0,0
644,-97,23.5648,2.65198,0.0051971,0.000877465,0.0033812,0.00704943,-0.000974863,0.501177,0.005056,0.0380081,1868,1121,23.5648,-2.65198
651,-97,23.5909,2.71155,0.00328038,0.000831179,0.0031549,0.00544001,-0.00132846,0.60027,0.00414114,0.0379446,1875,1121,23.5909,-2.71158
658,-97,23.6727,2.67871,0.00228946,0.000659259,0.0023806,0.00399063,-0.00104192,0.620458,0.00306729,0.0397754,1882,1121,23.6727,-2.6787
665,-97,23.7412,2.80811,0.00112194,0.000359723,0.00212369,0.00289845,-0.00141678,0.696615,0.00253988,0.0434629,1889,1121,23.7413,-2.80805
672,-97,23.8129,3.0343,-0.000631618,-0.00025775,0.00287158,0.00243297,-0.00332234,0.817901,0.00333603,0.043971,1896,1121,23.8128,-3.03427
679,-97,23.7444,3.0249,-0.00256102,-0.000923942,0.00396489,0.00230602,-0.00579098,0.887192,0.00481698,0.0412877,1903,1121,23.7443,-3.02488
686,-97,23.6746,3.05261,-0.0043057,-0.00158596,0.00503654,0.00227106,-0.00816273,0.917254,0.006336,0.0359744,1910,1121,23.6746,-3.05258
693,-97,23.7057,2.84399,-0.00570856,-0.00211053,0.00599451,0.0023491,-0.0101682,0.931177,0.00768249,0.0302183,1917,1121,23.7057,-2.84398
700,-97,23.6932,2.69885,-0.00684877,-0.00247823,0.00676423,0.00244496,-0.011772,0.941637,0.00877722,0.025543,1924,1121,23.6932,-2.69889
707,-97,23.6229,2.67542,-0.00754098,-0.00270937,0.00724722,0.00251409,-0.0127644,0.946277,0.00945968,0.0218224,1931,1121,23.623,-2.67544
714,-97,23.4424,3.54553,-0.00791409,-0.00280253,0.00743225,0.0025011,-0.0132177,0.951003,0.00975301,0.0475641,1938,1121,23.4424,-3.54552
721,-97,22.8312,4.49878,-0.00799413,-0.00274288,0.00738866,0.00247281,-0.0132098,0.956119,0.00973606,0.0305821,1945,1121,22.8311,-4.49883
728,-97,22.6222,4.52112,-0.00770325,-0.00247768,0.00705788,0.00243552,-0.0126164,0.962673,0.00932938,0.0186338,1952,1121,22.6222,-4.52114
735,-97,22.5802,4.42542,-0.00729515,-0.00201096,0.00639932,0.00227024,-0.0115763,0.981175,0.00857507,0.0196771,1959,1121,22.5803,-4.4254
742,-97,22.563,4.32764,-0.00604344,-0.00163092,0.00588877,0.00245132,-0.0101257,0.964633,0.00769876,0.0157192,1966,1121,22.563,-4.32768
749,-97,22.5925,4.198,-0.0035829,-0.000122502,0.00586794,0.004265,-0.00797041,0.928764,0.00717128,0.0171329,1973,1121,22.5925,-4.198
756,-97,22.5881,4.07446,-0.000465173,0.00199818,0.00610774,0.00699719,-0.00546418,0.884893,0.0072127,0.0143046,1980,1121,22.5882,-4.07447
763,-97,22.5724,3.99512,0.00306136,0.0057625,0.00688637,0.0114295,-0.00260563,0.88223,0.00862048,0.0114603,1987,1121,22.5724,-3.99514
770,-97,22.5699,3.91333,0.00743243,0.00988418,0.00852104,0.0172671,4.95361e-05,0.85684,0.0114949,0.00928454,1994,1121,22.57,-3.91333
777,-97,22.5791,3.83203,0.0122501,0.0153011,0.0118163,0.0256899,0.00186125,0.849594,0.0165412,0.0122505,2001,1121,22.5791,-3.83206
784,-97,22.5563,3.64954,0.0177508,0.0225445,0.0169285,0.037245,0.00305031,0.855724,0.0238783,0.0309296,2008,1121,22.5562,-3.64957
791,-97,22.5896,3.3634,0.0243506,0.032381,0.0237009,0.0524045,0.00432721,0.869307,0.033587,0.0430617,2015,1121,22.5896,-3.36341
798,-97,23.3823,3.72742,0.032266,0.0456106,0.0323013,0.0719215,0.00595511,0.887247,0.046091,0.0433139,2022,1121,23.3824,-3.72737
805,-97,23.6484,3.95544,0.0414549,0.0631583,0.0429379,0.0965945,0.00801868,0.909172,0.0618968,0.04261,2029,1121,23.6483,-3.95542
812,-97,23.5813,3.63965,0.0514629,0.08631,0.0558016,0.127345,0.010428,0.936723,0.0816429,0.046227,2036,1121,23.5812,-3.63968
-700,-104,0,0,0,0,0,0,0,0,0,-1,524,1128,0,0
-693,-104,-13.0959,0.160278,0,0,0,0,0,0,0,-1,531,1128,-13.0959,-0.160333
-686,-104,-13.7375,2.06616,0,0,0,0,0,0,0,-1,538,1128,-13.7376,-2.06614
-679,-104,-14.3453,2.33887,-0.0191411,0.0103078,0.00765282,0.0121778,-0.0210111,1.33114,0.0193865,0.0459657,545,1128,-14.3453,-2.33881
-672,-104,-15.0013,2.59778,-0.016878,0.00765211,0.00724449,0.00963185,-0.0188577,1.30403,0.0167335,0.0459397,552,1128,-15.0013,-2.59774
-665,-104,-15.5662,2.83777,0,0,0,0,0,0,0,-1,559,1128,-15.5662,-2.83776
-658,-104,-15.1162,0.65918,0,0,0,0,0,0,0,-1,566,1128,-15.1162,-0.659179
-651,-104,-15.0046,0.934082,-0.00859548,0.00386717,0.00492412,0.00557791,-0.0103062,1.23642,0.00930516,0.0344779,573,1128,-15.0047,-0.934102
-644,-104,-14.9054,1.24707,-0.00683947,0.00282806,0.00388737,0.00419727,-0.00820869,1.23214,0.00728633,0.0140605,580,1128,-14.9054,-1.2471
-637,-104,-14.8672,1.37939,-0.00537385,0.00176542,0.00247669,0.00254047,-0.0061489,1.26751,0.00515899,0.0103433,587,1128,-14.8673,-1.37936
-630,-104,-14.8889,1.51221,-0.00458566,0.000973244,0.000582323,0.00103359,-0.00464601,1.46754,0.00349322,0.0120648,594,1128,-14.8889,-1.51224
-623,-104,-14.9188,1.68311,-0.00409061,0.000313875,-0.00177281,0.000938774,-0.0047155,-1.2319,0.00349883,0.0148009,601,1128,-14.9187,-1.68305
-616,-104,-14.9568,1.83948,-0.00410683,-0.000412841,-0.00410878,0.00224499,-0.00676466,-0.996627,0.0054155,0.0159242,608,1128,-14.9568,-1.83947
-609,-104,-15.0097,1.8949,-0.00483986,-0.00140899,-0.00599998,0.00311597,-0.00936481,-0.924637,0.0075008,0.0185325,615,1128,-15.0097,-1.89488
-602,-104,-14.9386,2.05347,-0.00568964,-0.00233897,-0.00746927,0.00364054,-0.0116692,-0.895721,0.00923531,0.0149817,622,1128,-14.9386,-2.05344
-595,-104,-14.8884,2.22778,-0.00650073,-0.00288564,-0.00851159,0.00400822,-0.0133946,-0.890025,0.0105234,0.0151491,629,1128,-14.8884,-2.2278
-588,-104,-14.9953,2.25317,-0.006937,-0.00323136,-0.00897486,0.00407994,-0.0142483,-0.887191,0.0111114,0.0317814,636,1128,-14.9953,-2.25322
-581,-104,-15.517,1.46582,-0.00675129,-0.00345018,-0.00900183,0.00405117,-0.0142526,-0.87607,0.0111013,0.046338,643,1128,-15.517,-1.46587
-574,-104,-15.9741,0.879272,0,0,0,0,0,0,0,-1,650,1128,-15.9741,-0.879245
-567,-104,-15.847,0.930054,-0.00567462,-0.00361447,-0.00801542,0.00343679,-0.0127259,-0.849304,0.00983183,0.0355506,657,1128,-15.847,-0.930035
-560,-104,-15.8136,0.780273,-0.0044877,-0.00344134,-0.00673521,0.00279098,-0.01072,-0.82416,0.00823617,0.041369,664,1128,-15.8136,-0.780245
-553,-104,-15.8304,0.855225,-0.00277589,-0.00318009,-0.00497419,0.0020003,-0.00795628,-0.765094,0.00608162,0.0453648,671,1128,-15.8305,-0.855195
-546,-104,-15.8441,0.701538,-0.000475053,-0.00291212,-0.00276782,0.00133059,-0.00471776,-0.57804,0.00367001,0.0456312,678,1128,-15.8441,-0.701483
-539,-104,-15.942,0.444824,0.00258541,-0.0027894,-0.000236608,0.00259581,-0.00279979,-0.0439085,0.00311589,0.0407344,685,1128,-15.942,-0.444876
-532,-104,-16.0455,0.571167,0.00549304,-0.00343101,0.0011066,0.00562822,-0.00356619,0.121549,0.00535271,0.0385445,692,1128,-16.0455,-0.571211
-525,-104,-16.0714,0.609863,0.00502272,-0.00560711,-0.00199888,0.00538617,-0.00597056,-0.179862,0.0065597,0.036092,699,1128,-16.0714,-0.609866
-518,-104,0,0,0,0,0,0,0,0,0,-1,706,1128,0,0
-511,-104,0,0,0,0,0,0,0,0,0,-1,713,1128,0,0
-504,-104,0,0,0,0,0,0,0,0,0,-1,720,1128,0,0
-497,-104,0,0,0,0,0,0,0,0,0,-1,727,1128,0,0
-490,-104,0,0,0,0,0,0,0,0,0,-1,734,1128,0,0
-483,-104,0,0,0,0,0,0,0,0,0,-1,741,1128,0,0
-476,-104,0,0,0,0,0,0,0,0,0,-1,748,1128,0,0
-469,-104,0,0,0,0,0,0,0,0,0,-1,755,1128,0,0
-462,-104,0,0,0,0,0,0,0,0,0,-1,762,1128,0,0
-455,-104,0,0,0,0,0,0,0,0,0,-1,769,1128,0,0
-448,-104,0,0,0,0,0,0,0,0,0,-1,776,1128,0,0
-441,-104,0,0,0,0,0,0,0,0,0,-1,783,1128,0,0
-434,-104,0,0,0,0,0,0,0,0,0,-1,790,1128,0,0
-427,-104,0,0,0,0,0,0,0,0,0,-1,797,1128,0,0
-420,-104,0,0,0,0,0,0,0,0,0,-1,804,1128,0,0
-413,-104,0,0,0,0,0,0,0,0,0,-1,811,1128,0,0
-406,-104,0,0,0,0,0,0,0,0,0,-1,818,1128,0,0
-399,-104,0,0,0,0,0,0,0,0,0,-1,825,1128,0,0
-392,-104,0,0,0,0,0,0,0,0,0,-1,832,1128,0,0
-385,-104,0,0,0,0,0,0,0,0,0,-1,839,1128,0,0
-378,-104,0,0,0,0,0,0,0,0,0,-1,846,1128,0,0
-371,-104,0,0,0,0,0,0,0,0,0,-1,853,1128,0,0
-364,-104,0,0,0,0,0,0,0,0,0,-1,860,1128,0,0
-357,-104,0,0,0,0,0,0,0,0,0,-1,867,1128,0,0
-350,-104,0,0,0,0,0,0,0,0,0,-1,874,1128,0,0
-343,-104,0,0,0,0,0,0,0,0,0,-1,881,1128,0,0
-336,-104,0,0,0,0,0,0,0,0,0,-1,888,1128,0,0
-329,-104,0,0,0,0,0,0,0,0,0,-1,895,1128,0,0
-322,-104,0,0,0,0,0,0,0,0,0,-1,902,1128,0,0
-315,-104,0,0,0,0,0,0,0,0,0,-1,909,1128,0,0
-308,-104,0,0,0,0,0,0,0,0,0,-1,916,1128,0,0
-301,-104,0,0,0,0,0,0,0,0,0,-1,923,1128,0,0
-294,-104,0,0,0,0,0,0,0,0,0,-1,930,1128,0,0
-287,-104,0,0,0,0,0,0,0,0,0,-1,937,1128,0,0
-280,-104,0,0,0,0,0,0,0,0,0,-1,944,1128,0,0
-273,-104,0,0,0,0,0,0,0,0,0,-1,951,1128,0,0
-266,-104,0,0,0,0,0,0,0,0,0,-1,958,1128,0,0
-259,-104,0,0,0,0,0,0,0,0,0,-1,965,1128,0,0
-252,-104,0,0,0,0,0,0,0,0,0,-1,972,1128,0,0
-245,-104,0,0,0,0,0,0,0,0,0,-1,979,1128,0,0
-238,-104,0,0,0,0,0,0,0,0,0,-1,986,1128,0,0
-231,-104,0,0,0,0,0,0,0,0,0,-1,993,1128,0,0
-224,-104,0,0,0,0,0,0,0,0,0,-1,1000,1128,0,0
-217,-104,0,0,0,0,0,0,0,0,0,-1,1007,1128,0,0
-210,-104,0,0,0,0,0,0,0,0,0,-1,1014,1128,0,0
-203,-104,0,0,0,0,0,0,0,0,0,-1,1021,1128,0,0
-196,-104,0,0,0,0,0,0,0,0,0,-1,1028,1128,0,0
-189,-104,0,0,0,0,0,0,0,0,0,-1,1035,1128,0,0
-182,-104,0,0,0,0,0,0,0,0,0,-1,1042,1128,0,0
-175,-104,0,0,0,0,0,0,0,0,0,-1,1049,1128,0,0
-168,-104,0,0,0,0,0,0,0,0,0,-1,1056,1128,0,0
-161,-104,0,0,0,0,0,0,0,0,0,-1,1063,1128,0,0
-154,-104,0,0,0,0,0,0,0,0,0,-1,1070,1128,0,0
-147,-104,0,0,0,0,0,0,0,0,0,-1,1077,1128,0,0
-140,-104,0,0,0,0,0,0,0,0,0,-1,1084,1128,0,0
-133,-104,0,0,0,0,0,0,0,0,0,-1,1091,1128,0,0
-126,-104,0,0,0,0,0,0,0,0,0,-1,1098,1128,0,0
-119,-104,0,0,0,0,0,0,0,0,0,-1,1105,1128,0,0
-112,-104,0,0,0,0,0,0,0,0,0,-1,1112,1128,0,0
-105,-104,0,0,0,0,0,0,0,0,0,-1,1119,1128,0,0
-98,-104,0,0,0,0,0,0,0,0,0,-1,1126,1128,0,0
-91,-104,0,0,0,0,0,0,0,0,0,-1,1133,1128,0,0
-84,-104,0,0,0,0,0,0,0,0,0,-1,1140,1128,0,0
-77,-104,0,0,0,0,0,0,0,0,0,-1,1147,1128,0,0
-70,-104,0,0,0,0,0,0,0,0,0,-1,1154,1128,0,0
-63,-104,0,0,0,0,0,0,0,0,0,-1,1161,1128,0,0
-56,-104,0,0,0,0,0,0,0,0,0,-1,1168,1128,0,0
-49,-104,0,0,0,0,0,0,0,0,0,-1,1175,1128,0,0
-42,-104,0,0,0,0,0,0,0,0,0,-1,1182,1128,0,0
-35,-104,0,0,0,0,0,0,0,0,0,-1,1189,1128,0,0
-28,-104,0,0,0,0,0,0,0,0,0,-1,1196,1128,0,0
-21,-104,0,0,0,0,0,0,0,0,0,-1,1203,1128,0,0
-14,-104,0,0,0,0,0,0,0,0,0,-1,1210,1128,0,0
-7,-104,0,0,0,0,0,0,0,0,0,-1,1217,1128,0,0
0,-104,0,0,0,0,0,0,0,0,0,-1,1224,1128,0,0
7,-104,0,0,0,0,0,0,0,0,0,-1,1231,1128,0,0
14,-104,0,0,0,0,0,0,0,0,0,-1,1238,1128,0,0
21,-104,0,0,0,0,0,0,0,0,0,-1,1245,1128,0,0
28,-104,0,0,0,0,0,0,0,0,0,-1,1252,1128,0,0
35,-104,0,0,0,0,0,0,0,0,0,-1,1259,1128,0,0
42,-104,0,0,0,0,0,0,0,0,0,-1,1266,1128,0,0
49,-104,0,0,0,0,0,0,0,0,0,-1,1273,1128,0,0
56,-104,0,0,0,0,0,0,0,0,0,-1,1280,1128,0,0
63,-104,0,0,0,0,0,0,0,0,0,-1,1287,1128,0,0
70,-104,0,0,0,0,0,0,0,0,0,-1,1294,1128,0,0
77,-104,0,0,0,0,0,0,0,0,0,-1,1301,1128,0,0
84,-104,0,0,0,0,0,0,0,0,0,-1,1308,1128,0,0
91,-104,0,0,0,0,0,0,0,0,0,-1,1315,1128,0,0
98,-104,0,0,0,0,0,0,0,0,0,-1,1322,1128,0,0
105,-104,0,0,0,0,0,0,0,0,0,-1,1329,1128,0,0
112,-104,0,0,0,0,0,0,0,0,0,-1,1336,1128,0,0
119,-104,0,0,0,0,0,0,0,0,0,-1,1343,1128,0,0
126,-104,0,0,0,0,0,0,0,0,0,-1,1350,1128,0,0
133,-104,0,0,0,0,0,0,0,0,0,-1,1357,1128,0,0
140,-104,0,0,0,0,0,0,0,0,0,-1,1364,1128,0,0
147,-104,0,0,0,0,0,0,0,0,0,-1,1371,1128,0,0
154,-104,0,0,0,0,0,0,0,0,0,-1,1378,1128,0,0
161,-104,0,0,0,0,0,0,0,0,0,-1,1385,1128,0,0
168,-104,0,0,0,0,0,0,0,0,0,-1,1392,1128,0,0
175,-104,0,0,0,0,0,0,0,0,0,-1,1399,1128,0,0
182,-104,0,0,0,0,0,0,0,0,0,-1,1406,1128,0,0
189,-104,0,0,0,0,0,0,0,0,0,-1,1413,1128,0,0
196,-104,0,0,0,0,0,0,0,0,0,-1,1420,1128,0,0
203,-104,0,0,0,0,0,0,0,0,0,-1,1427,1128,0,0
210,-104,0,0,0,0,0,0,0,0,0,-1,1434,1128,0,0
217,-104,0,0,0,0,0,0,0,0,0,-1,1441,1128,0,0
224,-104,0,0,0,0,0,0,0,0,0,-1,1448,1128,0,0
231,-104,0,0,0,0,0,0,0,0,0,-1,1455,1128,0,0
238,-104,0,0,0,0,0,0,0,0,0,-1,1462,1128,0,0
245,-104,0,0,0,0,0,0,0,0,0,-1,1469,1128,0,0
252,-104,0,0,0,0,0,0,0,0,0,-1,1476,1128,0,0
259,-104,0,0,0,0,0,0,0,0,0,-1,1483,1128,0,0
266,-104,0,0,0,0,0,0,0,0,0,-1,1490,1128,0,0
273,-104,0,0,0,0,0,0,0,0,0,-1,1497,1128,0,0
280,-104,0,0,0,0,0,0,0,0,0,-1,1504,1128,0,0
287,-104,0,0,0,0,0,0,0,0,0,-1,1511,1128,0,0
294,-104,0,0,0,0,0,0,0,0,0,-1,1518,1128,0,0
301,-104,0,0,0,0,0,0,0,0,0,-1,1525,1128,0,0
308,-104,0,0,0,0,0,0,0,0,0,-1,1532,1128,0,0
315,-104,0,0,0,0,0,0,0,0,0,-1,1539,1128,0,0
322,-104,0,0,0,0,0,0,0,0,0,-1,1546,1128,0,0
329,-104,0,0,0,0,0,0,0,0,0,-1,1553,1128,0,0
336,-104,0,0,0,0,0,0,0,0,0,-1,1560,1128,0,0
343,-104,0,0,0,0,0,0,0,0,0,-1,1567,1128,0,0
350,-104,0,0,0,0,0,0,0,0,0,-1,1574,1128,0,0
357,-104,0,0,0,0,0,0,0,0,0,-1,1581,1128,0,0
364,-104,0,0,0,0,0,0,0,0,0,-1,1588,1128,0,0
371,-104,0,0,0,0,0,0,0,0,0,-1,1595,1128,0,0
378,-104,0,0,0,0,0,0,0,0,0,-1,1602,1128,0,0
385,-104,0,0,0,0,0,0,0,0,0,-1,1609,1128,0,0
392,-104,0,0,0,0,0,0,0,0,0,-1,1616,1128,0,0
399,-104,0,0,0,0,0,0,0,0,0,-1,1623,1128,0,0
406,-104,0,0,0,0,0,0,0,0,0,-1,1630,1128,0,0
413,-104,0,0,0,0,0,0,0,0,0,-1,1637,1128,0,0
420,-104,0,0,0,0,0,0,0,0,0,-1,1644,1128,0,0
427,-104,0,0,0,0,0,0,0,0,0,-1,1651,1128,0,0
434,-104,0,0,0,0,0,0,0,0,0,-1,1658,1128,0,0
441,-104,0,0,0,0,0,0,0,0,0,-1,1665,1128,0,0
448,-104,0,0,0,0,0,0,0,0,0,-1,1672,1128,0,0
455,-104,0,0,0,0,0,0,0,0,0,-1,1679,1128,0,0
462,-104,0,0,0,0,0,0,0,0,0,-1,1686,1128,0,0
469,-104,0,0,0,0,0,0,0,0,0,-1,1693,1128,0,0
476,-104,0,0,0,0,0,0,0,0,0,-1,1700,1128,0,0
483,-104,0,0,0,0,0,0,0,0,0,-1,1707,1128,0,0
490,-104,0,0,0,0,0,0,0,0,0,-1,1714,1128,0,0
497,-104,0,0,0,0,0,0,0,0,0,-1,1721,1128,0,0
504,-104,0,0,0,0,0,0,0,0,0,-1,1728,1128,0,0
511,-104,0,0,0,0,0,0,0,0,0,-1,1735,1128,0,0
518,-104,0,0,0,0,0,0,0,0,0,-1,1742,1128,0,0
525,-104,0,0,0,0,0,0,0,0,0,-1,1749,1128,0,0
532,-104,0,0,0,0,0,0,0,0,0,-1,1756,1128,0,0
539,-104,0,0,0,0,0,0,0,0,0,-1,1763,1128,0,0
546,-104,0,0,0,0,0,0,0,0,0,-1,1770,1128,0,0
553,-104,0,0,0,0,0,0,0,0,0,-1,1777,1128,0,0
560,-104,0,0,0,0,0,0,0,0,0,-1,1784,1128,0,0
567,-104,0,0,0,0,0,0,0,0,0,-1,1791,1128,0,0
574,-104,0,0,0,0,0,0,0,0,0,-1,1798,1128,0,0
581,-104,0,0,0,0,0,0,0,0,0,-1,1805,1128,0,0
588,-104,0,0,0,0,0,0,0,0,0,-1,1812,1128,0,0
595,-104,0,0,0,0,0,0,0,0,0,-1,1819,1128,0,0
602,-104,0,0,0,0,0,0,0,0,0,-1,1826,1128,0,0
609,-104,0,0,0,0,0,0,0,0,0,-1,1833,1128,0,0
616,-104,0,0,0,0,0,0,0,0,0,-1,1840,1128,0,0
623,-104,0,0,0,0,0,0,0,0,0,-1,1847,1128,0,0
630,-104,0,0,0,0,0,0,0,0,0,-1,1854,1128,0,0
637,-104,0,0,0,0,0,0,0,0,0,-1,1861,1128,0,0
644,-104,23.4541,2.72559,0.00499324,0.00107992,0.00259999,0.00629058,-0.000217412,0.462829,0.00426804,0.0369415,1868,1128,23.4541,-2.7256
651,-104,23.6072,2.7948,0.00319543,0.000978805,0.00259243,0.00490652,-0.000732286,0.583397,0.00354044,0.0397302,1875,1128,23.6071,-2.79484
658,-104,23.6742,2.63171,0.00230451,0.000803142,0.00200113,0.00369113,-0.000583474,0.605956,0.00267653,0.0422693,1882,1128,23.6743,-2.63174
665,-104,23.7788,2.78894,0.00106978,0.000459232,0.00197727,0.0027652,-0.00123619,0.708807,0.00236576,0.0434438,1889,1128,23.7788,-2.78898
672,-104,23.8538,2.99622,-0.000729075,-0.000178414,0.00285112,0.00241064,-0.00331813,0.833533,0.00332131,0.0424964,1896,1128,23.8538,-2.99621
679,-104,23.7148,2.90161,-0.00261474,-0.000822096,0.00393629,0.00231864,-0.00575547,0.897343,0.0048003,0.0412577,1903,1128,23.7148,-2.90164
686,-104,23.6415,2.82959,-0.00431788,-0.00145074,0.00496876,0.00228712,-0.00805574,0.925843,0.00627341,0.0389283,1910,1128,23.6415,-2.82959
693,-104,23.6764,2.78479,-0.00566191,-0.00193791,0.00585775,0.00234665,-0.00994648,0.939283,0.00753599,0.0335804,1917,1128,23.6764,-2.7848
700,-104,23.6782,2.73108,-0.0067414,-0.00229595,0.00657425,0.00242116,-0.0114585,0.948414,0.00856095,0.0274728,1924,1128,23.6782,-2.73103
707,-104,23.6409,2.72412,-0.00739802,-0.00250678,0.00700634,0.0024685,-0.0123733,0.953316,0.00918297,0.0289313,1931,1128,23.6409,-2.72417
714,-104,23.1859,3.66626,-0.007749,-0.0025827,0.0071499,0.00243636,-0.0127681,0.958744,0.00942967,0.044984,1938,1128,23.1859,-3.66625
721,-104,22.5596,4.57983,-0.00782909,-0.00252066,0.00707727,0.00238373,-0.0127335,0.964798,0.00938503,0.0253846,1945,1128,22.5596,-4.57979
728,-104,22.5826,4.49658,-0.00752361,-0.00227993,0.00673802,0.00232837,-0.0121319,0.97094,0.00896542,0.021183,1952,1128,22.5827,-4.4966
735,-104,22.5315,4.40967,-0.00706903,-0.00183674,0.00610574,0.00218973,-0.0110955,0.987803,0.00822465,0.020903,1959,1128,22.5315,-4.40969
742,-104,22.4669,4.31262,-0.00588888,-0.00147282,0.00562857,0.00236532,-0.00972702,0.972319,0.00740021,0.0135879,1966,1128,22.4669,-4.31265
749,-104,22.458,4.21057,-0.00337385,5.47336e-05,0.00567784,0.00427144,-0.00759056,0.93201,0.00693732,0.0155227,1973,1128,22.458,-4.21058
756,-104,22.4418,4.09167,-6.57786e-06,0.00209304,0.00590433,0.00704016,-0.0049537,0.87338,0.0069595,0.0158038,1980,1128,22.4417,-4.09164
763,-104,22.4413,3.99792,0.00379831,0.00571835,0.00663534,0.0114628,-0.0019461,0.857241,0.00836633,0.0141658,1987,1128,22.4412,-3.9979
770,-104,22.4536,3.90942,0.00846954,0.00963005,0.00822136,0.0172916,0.000807981,0.820629,0.0112681,0.0118886,1994,1128,22.4536,-3.9094
777,-104,22.4558,3.83057,0.0137151,0.014731,0.0113916,0.025626,0.00282016,0.80768,0.0162258,0.0187592,2001,1128,22.4558,-3.83053
784,-104,22.4087,3.75366,0.0199622,0.0215586,0.0161967,0.0369768,0.00454406,0.810019,0.0232848,0.0362466,2008,1128,22.4088,-3.75362
791,-104,22.3545,3.59631,0.0276652,0.0308047,0.0224883,0.0517779,0.00669194,0.820244,0.0325183,0.0448183,2015,1128,22.3545,-3.59632
798,-104,22.6462,3.34485,0.037153,0.0432104,0.0304149,0.070747,0.00961634,0.835024,0.0443085,0.047292,2022,1128,22.6463,-3.34483
805,-104,22.999,3.12024,0.0485615,0.0596403,0.0401319,0.0946133,0.0135885,0.85398,0.0590693,0.0450649,2029,1128,22.999,-3.12021
812,-104,23.1819,2.93628,0,0,0,0,0,0,0,-1,2036,1128,23.1819,-2.93622
-700,-111,0,0,0,0,0,0,0,0,0,-1,524,1135,0,0
-693,-111,-13.6844,0.262573,-0.0320134,0.0195574,0.0142694,0.0232423,-0.0356984,1.31808,0.0342818,0.0451994,531,1135,-13.6844,-0.262629
-686,-111,-13.9722,0.493774,0,0,0,0,0,0,0,-1,538,1135,-13.9722,-0.493759
-679,-111,-14.5464,2.59448,0,0,0,0,0,0,0,-1,545,1135,-14.5464,-2.5945
-672,-111,-15.0759,2.78174,0,0,0,0,0,0,0,-1,552,1135,-15.0759,-2.78177
-665,-111,-15.4758,2.83398,0,0,0,0,0,0,0,-1,559,1135,-15.4758,-2.83403
-658,-111,-15.408,0.402588,0,0,0,0,0,0,0,-1,566,1135,-15.408,-0.402554
-651,-111,-15.0543,0.798706,-0.0111764,0.00268568,0.00675018,0.00542958,-0.0139203,1.18471,0.0115246,0.0354605,573,1135,-15.0543,-0.79871
-644,-111,-14.7366,1.25671,-0.00843177,0.00200374,0.00516795,0.00412987,-0.0105579,1.1805,0.0087465,0.0220576,580,1135,-14.7365,-1.25669
-637,-111,-14.7508,1.37744,-0.00623079,0.00115503,0.00336978,0.00246142,-0.00753718,1.20096,0.00601553,0.00917869,587,1135,-14.7508,-1.37741
-630,-111,-14.7728,1.48291,-0.00494297,0.000492708,0.00117822,0.000737105,-0.00518737,1.36627,0.00372832,0.0148805,594,1135,-14.7727,-1.48285
-623,-111,-14.7875,1.64685,-0.00426597,7.74159e-05,-0.00132147,0.000447875,-0.00463643,-1.29747,0.00325054,0.0142263,601,1135,-14.7875,-1.64687
-616,-111,-14.8165,1.78259,-0.00427946,-0.000735275,-0.00369559,0.00159113,-0.00660586,-1.00896,0.00501907,0.0144678,608,1135,-14.8165,-1.78257
-609,-111,-14.8844,1.91077,-0.00498852,-0.00172579,-0.00561002,0.00248525,-0.00919956,-0.926893,0.00710779,0.0174389,615,1135,-14.8844,-1.91081
-602,-111,-14.836,2.05688,-0.00585897,-0.00261886,-0.00709366,0.00303739,-0.0115152,-0.897663,0.00886446,0.016807,622,1135,-14.836,-2.05685
-595,-111,-14.7784,2.25281,-0.00671718,-0.00322326,-0.00814117,0.00335627,-0.0132967,-0.891087,0.0101696,0.0122702,629,1135,-14.7784,-2.25279
-588,-111,-14.7475,2.43396,-0.00727895,-0.00363635,-0.00861169,0.00334453,-0.0142598,-0.889609,0.0107955,0.0341107,636,1135,-14.7475,-2.43394
-581,-111,-15.2632,1.52856,-0.00721848,-0.00391259,-0.00866842,0.00325907,-0.0143901,-0.87961,0.0108443,0.0496255,643,1135,-15.2633,-1.52859
-574,-111,-15.978,0.99646,0,0,0,0,0,0,0,-1,650,1135,-15.978,-0.996421
-567,-111,-15.8799,0.877197,-0.0062925,-0.00407274,-0.00786115,0.0027565,-0.0131217,-0.855527,0.00979678,0.0379152,657,1135,-15.8799,-0.877205
-560,-111,-15.8221,0.75415,-0.00521989,-0.00384749,-0.00670717,0.00220849,-0.0112759,-0.836375,0.00835132,0.0409481,664,1135,-15.8221,-0.754198
-553,-111,-15.9517,0.707886,-0.00359959,-0.00345016,-0.00507054,0.00154621,-0.00859597,-0.792765,0.00630952,0.0445486,671,1135,-15.9517,-0.707929
-546,-111,-15.9098,0.701904,-0.00136391,-0.00294154,-0.00296994,0.00092018,-0.00522563,-0.655595,0.00382753,0.0421464,678,1135,-15.9098,-0.701851
-539,-111,-15.9826,0.617676,0.00169055,-0.00243974,-0.000458129,0.00174075,-0.00248994,-0.109152,0.00245533,0.0409478,685,1135,-15.9826,-0.617629
-532,-111,-16.0858,0.828857,0.00495901,-0.00241716,0.00128993,0.00517809,-0.00263624,0.168229,0.00459047,0.0401173,692,1135,-16.0857,-0.828852
-525,-111,-16.1379,0.86792,0.00516023,-0.00370858,-0.00105798,0.00528469,-0.00383304,-0.117103,0.00528632,0.0384412,699,1135,-16.1379,-0.86787
-518,-111,0,0,0,0,0,0,0,0,0,-1,706,1135,0,0
-511,-111,0,0,0,0,0,0,0,0,0,-1,713,1135,0,0
-504,-111,0,0,0,0,0,0,0,0,0,-1,720,1135,0,0
-497,-111,0,0,0,0,0,0,0,0,0,-1,727,1135,0,0
-490,-111,0,0,0,0,0,0,0,0,0,-1,734,1135,0,0
-483,-111,0,0,0,0,0,0,0,0,0,-1,741,1135,0,0
-476,-111,0,0,0,0,0,0,0,0,0,-1,748,1135,0,0
-469,-111,0,0,0,0,0,0,0,0,0,-1,755,1135,0,0
-462,-111,0,0,0,0,0,0,0,0,0,-1,762,1135,0,0
-455,-111,0,0,0,0,0,0,0,0,0,-1,769,1135,0,0
-448,-111,0,0,0,0,0,0,0,0,0,-1,776,1135,0,0
-441,-111,0,0,0,0,0,0,0,0,0,-1,783,1135,0,0
-434,-111,0,0,0,0,0,0,0,0,0,-1,790,1135,0,0
-427,-111,0,0,0,0,0,0,0,0,0,-1,797,1135,0,0
-420,-111,0,0,0,0,0,0,0,0,0,-1,804,1135,0,0
-413,-111,0,0,0,0,0,0,0,0,0,-1,811,1135,0,0
-406,-111,0,0,0,0,0,0,0,0,0,-1,818,1135,0,0
-399,-111,0,0,0,0,0,0,0,0,0,-1,825,1135,0,0
-392,-111,0,0,0,0,0,0,0,0,0,-1,832,1135,0,0
-385,-111,0,0,0,0,0,0,0,0,0,-1,839,1135,0,0
-378,-111,0,0,0,0,0,0,0,0,0,-1,846,1135,0,0
-371,-111,0,0,0,0,0,0,0,0,0,-1,853,1135,0,0
-364,-111,0,0,0,0,0,0,0,0,0,-1,860,1135,0,0
-357,-111,0,0,0,0,0,0,0,0,0,-1,867,1135,0,0
-350,-111,0,0,0,0,0,0,0,0,0,-1,874,1135,0,0
-343,-111,0,0,0,0,0,0,0,0,0,-1,881,1135,0,0
-336,-111,0,0,0,0,0,0,0,0,0,-1,888,1135,0,0
-329,-111,0,0,0,0,0,0,0,0,0,-1,895,1135,0,0
-322,-111,0,0,0,0,0,0,0,0,0,-1,902,1135,0,0
-315,-111,0,0,0,0,0,0,0,0,0,-1,909,1135,0,0
-308,-111,0,0,0,0,0,0,0,0,0,-1,916,1135,0,0
-301,-111,0,0,0,0,0,0,0,0,0,-1,923,1135,0,0
-294,-111,0,0,0,0,0,0,0,0,0,-1,930,1135,0,0
-287,-111,0,0,0,0,0,0,0,0,0,-1,937,1135,0,0
-280,-111,0,0,0,0,0,0,0,0,0,-1,944,1135,0,0
-273,-111,0,0,0,0,0,0,0,0,0,-1,951,1135,0,0
-266,-111,0,0,0,0,0,0,0,0,0,-1,958,1135,0,0
-259,-111,0,0,0,0,0,0,0,0,0,-1,965,1135,0,0
-252,-111,0,0,0,0,0,0,0,0,0,-1,972,1135,0,0
-245,-111,0,0,0,0,0,0,0,0,0,-1,979,1135,0,0
-238,-111,0,0,0,0,0,0,0,0,0,-1,986,1135,0,0
-231,-111,0,0,0,0,0,0,0,0,0,-1,993,1135,0,0
-224,-111,0,0,0,0,0,0,0,0,0,-1,1000,1135,0,0
-217,-111,0,0,0,0,0,0,0,0,0,-1,1007,1135,0,0
-210,-111,0,0,0,0,0,0,0,0,0,-1,1014,1135,0,0
-203,-111,0,0,0,0,0,0,0,0,0,-1,1021,1135,0,0
-196,-111,0,0,0,0,0,0,0,0,0,-1,1028,1135,0,0
-189,-111,0,0,0,0,0,0,0,0,0,-1,1035,1135,0,0
-182,-111,0,0,0,0,0,0,0,0,0,-1,1042,1135,0,0
-175,-111,0,0,0,0,0,0,0,0,0,-1,1049,1135,0,0
-168,-111,0,0,0,0,0,0,0,0,0,-1,1056,1135,0,0
-161,-111,0,0,0,0,0,0,0,0,0,-1,1063,1135,0,0
-154,-111,0,0,0,0,0,0,0,0,0,-1,1070,1135,0,0
-147,-111,0,0,0,0,0,0,0,0,0,-1,1077,1135,0,0
-140,-111,0,0,0,0,0,0,0,0,0,-1,1084,1135,0,0
-133,-111,0,0,0,0,0,0,0,0,0,-1,1091,1135,0,0
-126,-111,0,0,0,0,0,0,0,0,0,-1,1098,1135,0,0
-119,-111,0,0,0,0,0,0,0,0,0,-1,1105,1135,0,0
-112,-111,0,0,0,0,0,0,0,0,0,-1,1112,1135,0,0
-105,-111,0,0,0,0,0,0,0,0,0,-1,1119,1135,0,0
-98,-111,0,0,0,0,0,0,0,0,0,-1,1126,1135,0,0
-91,-111,0,0,0,0,0,0,0,0,0,-1,1133,1135,0,0
-84,-111,0,0,0,0,0,0,0,0,0,-1,1140,1135,0,0
-77,-111,0,0,0,0,0,0,0,0,0,-1,1147,1135,0,0
-70,-111,0,0,0,0,0,0,0,0,0,-1,1154,1135,0,0
-63,-111,0,0,0,0,0,0,0,0,0,-1,1161,1135,0,0
-56,-111,0,0,0,0,0,0,0,0,0,-1,1168,1135,0,0
-49,-111,0,0,0,0,0,0,0,0,0,-1,1175,1135,0,0
-42,-111,0,0,0,0,0,0,0,0,0,-1,1182,1135,0,0
-35,-111,0,0,0,0,0,0,0,0,0,-1,1189,1135,0,0
-28,-111,0,0,0,0,0,0,0,0,0,-1,1196,1135,0,0
-21,-111,0,0,0,0,0,0,0,0,0,-1,1203,1135,0,0
-14,-111,0,0,0,0,0,0,0,0,0,-1,1210,1135,0,0
-7,-111,0,0,0,0,0,0,0,0,0,-1,1217,1135,0,0
0,-111,0,0,0,0,0,0,0,0,0,-1,1224,1135,0,0
7,-111,0,0,0,0,0,0,0,0,0,-1,1231,1135,0,0
14,-111,0,0,0,0,0,0,0,0,0,-1,1238,1135,0,0
21,-111,0,0,0,0,0,0,0,0,0,-1,1245,1135,0,0
28,-111,0,0,0,0,0,0,0,0,0,-1,1252,1135,0,0
35,-111,0,0,0,0,0,0,0,0,0,-1,1259,1135,0,0
42,-111,0,0,0,0,0,0,0,0,0,-1,1266,1135,0,0
49,-111,0,0,0,0,0,0,0,0,0,-1,1273,1135,0,0
56,-111,0,0,0,0,0,0,0,0,0,-1,1280,1135,0,0
63,-111,0,0,0,0,0,0,0,0,0,-1,1287,1135,0,0
70,-111,0,0,0,0,0,0,0,0,0,-1,1294,1135,0,0
77,-111,0,0,0,0,0,0,0,0,0,-1,1301,1135,0,0
84,-111,0,0,0,0,0,0,0,0,0,-1,1308,1135,0,0
91,-111,0,0,0,0,0,0,0,0,0,-1,1315,1135,0,0
98,-111,0,0,0,0,0,0,0,0,0,-1,1322,1135,0,0
105,-111,0,0,0,0,0,0,0,0,0,-1,1329,1135,0,0
112,-111,0,0,0,0,0,0,0,0,0,-1,1336,1135,0,0
119,-111,0,0,0,0,0,0,0,0,0,-1,1343,1135,0,0
126,-111,0,0,0,0,0,0,0,0,0,-1,1350,1135,0,0
133,-111,0,0,0,0,0,0,0,0,0,-1,1357,1135,0,0
140,-111,0,0,0,0,0,0,0,0,0,-1,1364,1135,0,0
147,-111,0,0,0,0,0,0,0,0,0,-1,1371,1135,0,0
154,-111,0,0,0,0,0,0,0,0,0,-1,1378,1135,0,0
161,-111,0,0,0,0,0,0,0,0,0,-1,1385,1135,0,0
168,-111,0,0,0,0,0,0,0,0,0,-1,1392,1135,0,0
175,-111,0,0,0,0,0,0,0,0,0,-1,1399,1135,0,0
182,-111,0,0,0,0,0,0,0,0,0,-1,1406,1135,0,0
189,-111,0,0,0,0,0,0,0,0,0,-1,1413,1135,0,0
196,-111,0,0,0,0,0,0,0,0,0,-1,1420,1135,0,0
203,-111,0,0,0,0,0,0,0,0,0,-1,1427,1135,0,0
210,-111,0,0,0,0,0,0,0,0,0,-1,1434,1135,0,0
217,-111,0,0,0,0,0,0,0,0,0,-1,1441,1135,0,0
224,-111,0,0,0,0,0,0,0,0,0,-1,1448,1135,0,0
231,-111,0,0,0,0,0,0,0,0,0,-1,1455,1135,0,0
238,-111,0,0,0,0,0,0,0,0,0,-1,1462,1135,0,0
245,-111,0,0,0,0,0,0,0,0,0,-1,1469,1135,0,0
252,-111,0,0,0,0,0,0,0,0,0,-1,1476,1135,0,0
259,-111,0,0,0,0,0,0,0,0,0,-1,1483,1135,0,0
266,-111,0,0,0,0,0,0,0,0,0,-1,1490,1135,0,0
273,-111,0,0,0,0,0,0,0,0,0,-1,1497,1135,0,0
280,-111,0,0,0,0,0,0,0,0,0,-1,1504,1135,0,0
287,-111,0,0,0,0,0,0,0,0,0,-1,1511,1135,0,0
294,-111,0,0,0,0,0,0,0,0,0,-1,1518,1135,0,0
301,-111,0,0,0,0,0,0,0,0,0,-1,1525,1135,0,0
308,-111,0,0,0,0,0,0,0,0,0,-1,1532,1135,0,0
315,-111,0,0,0,0,0,0,0,0,0,-1,1539,1135,0,0
322,-111,0,0,0,0,0,0,0,0,0,-1,1546,1135,0,0
329,-111,0,0,0,0,0,0,0,0,0,-1,1553,1135,0,0
336,-111,0,0,0,0,0,0,0,0,0,-1,1560,1135,0,0
343,-111,0,0,0,0,0,0,0,0,0,-1,1567,1135,0,0
350,-111,0,0,0,0,0,0,0,0,0,-1,1574,1135,0,0
357,-111,0,0,0,0,0,0,0,0,0,-1,1581,1135,0,0
364,-111,0,0,0,0,0,0,0,0,0,-1,1588,1135,0,0
371,-111,0,0,0,0,0,0,0,0,0,-1,1595,1135,0,0
378,-111,0,0,0,0,0,0,0,0,0,-1,1602,1135,0,0
385,-111,0,0,0,0,0,0,0,0,0,-1,1609,1135,0,0
392,-111,0,0,0,0,0,0,0,0,0,-1,1616,1135,0,0
399,-111,0,0,0,0,0,0,0,0,0,-1,1623,1135,0,0
406,-111,0,0,0,0,0,0,0,0,0,-1,1630,1135,0,0
413,-111,0,0,0,0,0,0,0,0,0,-1,1637,1135,0,0
420,-111,0,0,0,0,0,0,0,0,0,-1,1644,1135,0,0
427,-111,0,0,0,0,0,0,0,0,0,-1,1651,1135,0,0
434,-111,0,0,0,0,0,0,0,0,0,-1,1658,1135,0,0
441,-111,0,0,0,0,0,0,0,0,0,-1,1665,1135,0,0
448,-111,0,0,0,0,0,0,0,0,0,-1,1672,1135,0,0
455,-111,0,0,0,0,0,0,0,0,0,-1,1679,1135,0,0
462,-111,0,0,0,0,0,0,0,0,0,-1,1686,1135,0,0
469,-111,0,0,0,0,0,0,0,0,0,-1,1693,1135,0,0
476,-111,0,0,0,0,0,0,0,0,0,-1,1700,1135,0,0
483,-111,0,0,0,0,0,0,0,0,0,-1,1707,1135,0,0
490,-111,0,0,0,0,0,0,0,0,0,-1,1714,1135,0,0
497,-111,0,0,0,0,0,0,0,0,0,-1,1721,1135,0,0
504,-111,0,0,0,0,0,0,0,0,0,-1,1728,1135,0,0
511,-111,0,0,0,0,0,0,0,0,0,-1,1735,1135,0,0
518,-111,0,0,0,0,0,0,0,0,0,-1,1742,1135,0,0
525,-111,0,0,0,0,0,0,0,0,0,-1,1749,1135,0,0
532,-111,0,0,0,0,0,0,0,0,0,-1,1756,1135,0,0
539,-111,0,0,0,0,0,0,0,0,0,-1,1763,1135,0,0
546,-111,0,0,0,0,0,0,0,0,0,-1,1770,1135,0,0
553,-111,0,0,0,0,0,0,0,0,0,-1,1777,1135,0,0
560,-111,0,0,0,0,0,0,0,0,0,-1,1784,1135,0,0
567,-111,0,0,0,0,0,0,0,0,0,-1,1791,1135,0,0
574,-111,0,0,0,0,0,0,0,0,0,-1,1798,1135,0,0
581,-111,0,0,0,0,0,0,0,0,0,-1,1805,1135,0,0
588,-111,0,0,0,0,0,0,0,0,0,-1,1812,1135,0,0
595,-111,0,0,0,0,0,0,0,0,0,-1,1819,1135,0,0
602,-111,0,0,0,0,0,0,0,0,0,-1,1826,1135,0,0
609,-111,0,0,0,0,0,0,0,0,0,-1,1833,1135,0,0
616,-111,0,0,0,0,0,0,0,0,0,-1,1840,1135,0,0
623,-111,0,0,0,0,0,0,0,0,0,-1,1847,1135,0,0
630,-111,0,0,0,0,0,0,0,0,0,-1,1854,1135,0,0
637,-111,0,0,0,0,0,0,0,0,0,-1,1861,1135,0,0
644,-111,23.541,3.01746,0.00475595,0.00115678,0.00220573,0.00580307,0.000109655,0.443227,0.00383269,0.0403682,1868,1135,23.541,-3.01748
651,-111,23.8096,2.61401,0.00311816,0.00104815,0.00231968,0.00462327,-0.000456953,0.57556,0.00324524,0.0440118,1875,1135,23.8096,-2.61404
658,-111,23.7507,2.67761,0.00232633,0.000906202,0.00184716,0.0035952,-0.00036267,0.601901,0.00252638,0.0451606,1882,1135,23.7507,-2.67757
665,-111,23.895,2.85132,0.00102763,0.000552506,0.0019822,0.00278646,-0.00120632,0.725758,0.00236464,0.0452772,1889,1135,23.8951,-2.8513
672,-111,23.7495,2.87671,-0.000789711,-6.81527e-05,0.0028646,0.0024583,-0.00331616,0.84804,0.00334612,0.0432731,1896,1135,23.7495,-2.87667
679,-111,23.5819,2.97217,-0.00261929,-0.000680498,0.00386303,0.00233291,-0.00563269,0.908331,0.00472865,0.0410767,1903,1135,23.5819,-2.97213
686,-111,23.5083,2.85828,-0.00427568,-0.00127557,0.0047923,0.00224596,-0.00779721,0.937074,0.00608653,0.0388013,1910,1135,23.5083,-2.85829
693,-111,23.5918,2.8053,-0.00555722,-0.00173295,0.00556908,0.00224312,-0.00953328,0.950767,0.00722032,0.0355186,1917,1135,23.5918,-2.80525
700,-111,23.6865,2.75867,-0.00656731,-0.00209169,0.0061995,0.00226153,-0.0109205,0.958604,0.0081396,0.0288093,1924,1135,23.6866,-2.7587
707,-111,23.6443,2.72559,0,0,0,0,0,0,0,-1,1931,1135,23.6443,-2.72553
714,-111,22.8932,3.88855,-0.00753252,-0.00234281,0.00665491,0.00220524,-0.0120806,0.97129,0.00888054,0.0310912,1938,1135,22.8932,-3.88855
721,-111,22.3923,4.62915,-0.00762089,-0.0023072,0.00657201,0.00212469,-0.0120528,0.977488,0.00882905,0.0133241,1945,1135,22.3923,-4.6292
728,-111,22.4113,4.52539,-0.00733872,-0.00208323,0.00624609,0.00206536,-0.0114873,0.984511,0.0084314,0.0160902,1952,1135,22.4112,-4.52539
735,-111,22.3992,4.42273,-0.00688361,-0.00163422,0.00568454,0.00200231,-0.0105201,1.00168,0.00776738,0.0162148,1959,1135,22.3992,-4.42279
742,-111,22.3545,4.31836,-0.00576798,-0.00124387,0.00529033,0.00224773,-0.00925957,0.987427,0.00704288,0.0110645,1966,1135,22.3545,-4.31839
749,-111,22.3373,4.22876,-0.00318784,0.000301386,0.00543695,0.00426678,-0.00715323,0.940649,0.00666318,0.0135504,1973,1135,22.3373,-4.22882
756,-111,22.3287,4.09741,0.000473127,0.00223716,0.00569,0.0071131,-0.00440282,0.862292,0.00670982,0.0146265,1980,1135,22.3288,-4.09739
763,-111,22.3329,3.9856,0.00461889,0.00567533,0.0064131,0.0115819,-0.0012877,0.826488,0.00818436,0.0126677,1987,1135,22.3329,-3.98554
770,-111,22.3469,3.90955,0.00968846,0.00932354,0.00801401,0.0175221,0.00148992,0.774016,0.0112178,0.0108058,1994,1135,22.347,-3.90953
777,-111,22.3025,3.82874,0.0155307,0.0139893,0.0110861,0.0258729,0.00364716,0.750695,0.0161706,0.0225086,2001,1135,22.3025,-3.82876
784,-111,22.4352,3.41516,0.0227793,0.0201847,0.0156094,0.0371452,0.00581881,0.743939,0.0230698,0.0383896,2008,1135,22.4352,-3.41512
791,-111,22.0808,3.56677,0,0,0,0,0,0,0,-1,2015,1135,22.0808,-3.56682
798,-111,22.0319,3.00623,0.0435076,0.0395372,0.0287761,0.0703669,0.0126779,0.750958,0.0433084,0.0499719,2022,1135,22.0318,-3.00627
805,-111,22.2698,2.98633,0.057823,0.0540751,0.0376529,0.0936485,0.0182496,0.760534,0.0573258,0.0494303,2029,1135,22.2698,-2.98633
812,-111,22.5249,2.94446,0,0,0,0,0,0,0,-1,2036,1135,22.5249,-2.94449
-700,-118,0,0,0,0,0,0,0,0,0,-1,524,1142,0,0
-693,-118,-14.1963,0.154541,0,0,0,0,0,0,0,-1,531,1142,-14.1963,-0.154522
-686,-118,-14.7551,0.424316,0,0,0,0,0,0,0,-1,538,1142,-14.7551,-0.424267
-679,-118,-15.6197,1.27563,0,0,0,0,0,0,0,-1,545,1142,-15.6197,-1.27568
-672,-118,-15.0818,3.02979,0,0,0,0,0,0,0,-1,552,1142,-15.0818,-3.02981
-665,-118,-14.4302,-0.233887,0,0,0,0,0,0,0,-1,559,1142,-14.4303,0.23385
-658,-118,-15.0239,0.164673,-0.0179509,0.00291787,0.0106316,0.00738005,-0.0224131,1.17342,0.0179161,0.0413583,566,1142,-15.0239,-0.164655
-651,-118,-14.5898,1.09229,-0.0132898,0.00229194,0.00846604,0.00600635,-0.0170042,1.15734,0.0137817,0.0371601,573,1142,-14.5899,-1.09225
-644,-118,-14.5573,1.23633,-0.00969261,0.00174406,0.00640699,0.00461344,-0.012562,1.14973,0.0102641,0.0250044,580,1142,-14.5573,-1.23628
-637,-118,-14.5941,1.37378,-0.00689218,0.000920184,0.00426503,0.00279749,-0.00876948,1.15615,0.00696857,0.0147058,587,1142,-14.594,-1.37377
-630,-118,-14.6379,1.50476,-0.00523464,0.000273902,0.00188378,0.000856494,-0.00581723,1.27086,0.00419292,0.018286,594,1142,-14.6378,-1.50474
-623,-118,-14.6276,1.63831,-0.00447493,-7.25595e-05,-0.00070303,3.69842e-05,-0.00458448,-1.41622,0.00306872,0.016073,601,1142,-14.6276,-1.63829
-616,-118,-14.6314,1.78015,-0.0045536,-0.000928017,-0.0031655,0.000907009,-0.00638863,-1.04544,0.00459138,0.0144822,608,1142,-14.6314,-1.78013
-609,-118,-14.6687,1.89197,-0.00524409,-0.00184387,-0.00512609,0.00185668,-0.00894465,-0.945519,0.00666871,0.0169162,615,1142,-14.6687,-1.892
-602,-118,-14.6646,2.08215,-0.00616694,-0.00268143,-0.00663477,0.00243566,-0.011284,-0.913832,0.00845237,0.0160907,622,1142,-14.6646,-2.08217
-595,-118,-14.7052,2.21619,-0.00712522,-0.00331052,-0.00767368,0.00268931,-0.013125,-0.907208,0.00977062,0.013517,629,1142,-14.7052,-2.21621
-588,-118,-14.5374,2.422,-0.00786354,-0.00376746,-0.00813336,0.00257176,-0.0142028,-0.908737,0.010432,0.0242628,636,1142,-14.5373,-2.422
-581,-118,-14.3965,2.58118,0,0,0,0,0,0,0,-1,643,1142,-14.3966,-2.58122
-574,-118,-15.9514,0.995239,0,0,0,0,0,0,0,-1,650,1142,-15.9513,-0.995215
-567,-118,-15.9113,0.827393,-0.00725227,-0.00419464,-0.00756376,0.00199326,-0.0134402,-0.885116,0.00969309,0.0438126,657,1142,-15.9112,-0.827374
-560,-118,-15.811,0.723511,-0.00630406,-0.00392836,-0.00653078,0.00152172,-0.0117541,-0.875357,0.00838946,0.0401113,664,1142,-15.811,-0.72346
-553,-118,-15.8129,0.687378,-0.00475803,-0.00342849,-0.00501711,0.000967702,-0.00915423,-0.851265,0.00644963,0.0410325,671,1142,-15.8129,-0.687337
-546,-118,-15.8167,0.873413,-0.00253837,-0.0027353,-0.00302412,0.000388883,-0.00566256,-0.769124,0.00391112,0.040362,678,1142,-15.8167,-0.873395
-539,-118,-16.0117,1.03088,0.000574546,-0.00192758,-0.000546867,0.000688848,-0.00204188,-0.206047,0.00163983,0.0410409,685,1142,-16.0117,-1.03087
-532,-118,-16.1105,1.15063,0.00427713,-0.00133821,0.00155609,0.00467951,-0.00174059,0.253042,0.00383392,0.0409147,692,1142,-16.1106,-1.15066
-525,-118,-16.1784,1.13293,0.00540175,-0.00180984,0.000133148,0.0054042,-0.0018123,0.0184546,0.00433507,0.0422035,699,1142,-16.1784,-1.13288
-518,-118,0,0,0,0,0,0,0,0,0,-1,706,1142,0,0
-511,-118,0,0,0,0,0,0,0,0,0,-1,713,1142,0,0
-504,-118,0,0,0,0,0,0,0,0,0,-1,720,1142,0,0
-497,-118,0,0,0,0,0,0,0,0,0,-1,727,1142,0,0
-490,-118,0,0,0,0,0,0,0,0,0,-1,734,1142,0,0
-483,-118,0,0,0,0,0,0,0,0,0,-1,741,1142,0,0
-476,-118,0,0,0,0,0,0,0,0,0,-1,748,1142,0,0
-469,-118,0,0,0,0,0,0,0,0,0,-1,755,1142,0,0
-462,-118,0,0,0,0,0,0,0,0,0,-1,762,1142,0,0
-455,-118,0,0,0,0,0,0,0,0,0,-1,769,1142,0,0
-448,-118,0,0,0,0,0,0,0,0,0,-1,776,1142,0,0
-441,-118,0,0,0,0,0,0,0,0,0,-1,783,1142,0,0
-434,-118,0,0,0,0,0,0,0,0,0,-1,790,1142,0,0
-427,-118,0,0,0,0,0,0,0,0,0,-1,797,1142,0,0
-420,-118,0,0,0,0,0,0,0,0,0,-1,804,1142,0,0
-413,-118,0,0,0,0,0,0,0,0,0,-1,811,1142,0,0
-406,-118,0,0,0,0,0,0,0,0,0,-1,818,1142,0,0
-399,-118,0,0,0,0,0,0,0,0,0,-1,825,1142,0,0
-392,-118,0,0,0,0,0,0,0,0,0,-1,832,1142,0,0
-385,-118,0,0,0,0,0,0,0,0,0,-1,839,1142,0,0
-378,-118,0,0,0,0,0,0,0,0,0,-1,846,1142,0,0
-371,-118,0,0,0,0,0,0,0,0,0,-1,853,1142,0,0
-364,-118,0,0,0,0,0,0,0,0,0,-1,860,1142,0,0
-357,-118,0,0,0,0,0,0,0,0,0,-1,867,1142,0,0
-350,-118,0,0,0,0,0,0,0,0,0,-1,874,1142,0,0
-343,-118,0,0,0,0,0,0,0,0,0,-1,881,1142,0,0
-336,-118,0,0,0,0,0,0,0,0,0,-1,888,1142,0,0
-329,-118,0,0,0,0,0,0,0,0,0,-1,895,1142,0,0
-322,-118,0,0,0,0,0,0,0,0,0,-1,902,1142,0,0
-315,-118,0,0,0,0,0,0,0,0,0,-1,909,1142,0,0
-308,-118,0,0,0,0,0,0,0,0,0,-1,916,1142,0,0
-301,-118,0,0,0,0,0,0,0,0,0,-1,923,1142,0,0
-294,-118,0,0,0,0,0,0,0,0,0,-1,930,1142,0,0
-287,-118,0,0,0,0,0,0,0,0,0,-1,937,1142,0,0
-280,-118,0,0,0,0,0,0,0,0,0,-1,944,1142,0,0
-273,-118,0,0,0,0,0,0,0,0,0,-1,951,1142,0,0
-266,-118,0,0,0,0,0,0,0,0,0,-1,958,1142,0,0
-259,-118,0,0,0,0,0,0,0,0,0,-1,965,1142,0,0
-252,-118,0,0,0,0,0,0,0,0,0,-1,972,1142,0,0
-245,-118,0,0,0,0,0,0,0,0,0,-1,979,1142,0,0
-238,-118,0,0,0,0,0,0,0,0,0,-1,986,1142,0,0
-231,-118,0,0,0,0,0,0,0,0,0,-1,993,1142,0,0
-224,-118,0,0,0,0,0,0,0,0,0,-1,1000,1142,0,0
-217,-118,0,0,0,0,0,0,0,0,0,-1,1007,1142,0,0
-210,-118,0,0,0,0,0,0,0,0,0,-1,1014,1142,0,0
-203,-118,0,0,0,0,0,0,0,0,0,-1,1021,1142,0,0
-196,-118,0,0,0,0,0,0,0,0,0,-1,1028,1142,0,0
-189,-118,0,0,0,0,0,0,0,0,0,-1,1035,1142,0,0
-182,-118,0,0,0,0,0,0,0,0,0,-1,1042,1142,0,0
-175,-118,0,0,0,0,0,0,0,0,0,-1,1049,1142,0,0
-168,-118,0,0,0,0,0,0,0,0,0,-1,1056,1142,0,0
-161,-118,0,0,0,0,0,0,0,0,0,-1,1063,1142,0,0
-154,-118,0,0,0,0,0,0,0,0,0,-1,1070,1142,0,0
-147,-118,0,0,0,0,0,0,0,0,0,-1,1077,1142,0,0
-140,-118,0,0,0,0,0,0,0,0,0,-1,1084,1142,0,0
-133,-118,0,0,0,0,0,0,0,0,0,-1,1091,1142,0,0
-126,-118,0,0,0,0,0,0,0,0,0,-1,1098,1142,0,0
-119,-118,0,0,0,0,0,0,0,0,0,-1,1105,1142,0,0
-112,-118,0,0,0,0,0,0,0,0,0,-1,1112,1142,0,0
-105,-118,0,0,0,0,0,0,0,0,0,-1,1119,1142,0,0
-98,-118,0,0,0,0,0,0,0,0,0,-1,1126,1142,0,0
-91,-118,0,0,0,0,0,0,0,0,0,-1,1133,1142,0,0
-84,-118,0,0,0,0,0,0,0,0,0,-1,1140,1142,0,0
-77,-118,0,0,0,0,0,0,0,0,0,-1,1147,1142,0,0
-70,-118,0,0,0,0,0,0,0,0,0,-1,1154,1142,0,0
-63,-118,0,0,0,0,0,0,0,0,0,-1,1161,1142,0,0
-56,-118,0,0,0,0,0,0,0,0,0,-1,1168,1142,0,0
-49,-118,0,0,0,0,0,0,0,0,0,-1,1175,1142,0,0
-42,-118,0,0,0,0,0,0,0,0,0,-1,1182,1142,0,0
-35,-118,0,0,0,0,0,0,0,0,0,-1,1189,1142,0,0
-28,-118,0,0,0,0,0,0,0,0,0,-1,1196,1142,0,0
-21,-118,0,0,0,0,0,0,0,0,0,-1,1203,1142,0,0
-14,-118,0,0,0,0,0,0,0,0,0,-1,1210,1142,0,0
-7,-118,0,0,0,0,0,0,0,0,0,-1,1217,1142,0,0
0,-118,0,0,0,0,0,0,0,0,0,-1,1224,1142,0,0
7,-118,0,0,0,0,0,0,0,0,0,-1,1231,1142,0,0
14,-118,0,0,0,0,0,0,0,0,0,-1,1238,1142,0,0
21,-118,0,0,0,0,0,0,0,0,0,-1,1245,1142,0,0
28,-118,0,0,0,0,0,0,0,0,0,-1,1252,1142,0,0
35,-118,0,0,0,0,0,0,0,0,0,-1,1259,1142,0,0
42,-118,0,0,0,0,0,0,0,0,0,-1,1266,1142,0,0
49,-118,0,0,0,0,0,0,0,0,0,-1,1273,1142,0,0
56,-118,0,0,0,0,0,0,0,0,0,-1,1280,1142,0,0
63,-118,0,0,0,0,0,0,0,0,0,-1,1287,1142,0,0
70,-118,0,0,0,0,0,0,0,0,0,-1,1294,1142,0,0
77,-118,0,0,0,0,0,0,0,0,0,-1,1301,1142,0,0
84,-118,0,0,0,0,0,0,0,0,0,-1,1308,1142,0,0
91,-118,0,0,0,0,0,0,0,0,0,-1,1315,1142,0,0
98,-118,0,0,0,0,0,0,0,0,0,-1,1322,1142,0,0
105,-118,0,0,0,0,0,0,0,0,0,-1,1329,1142,0,0
112,-118,0,0,0,0,0,0,0,0,0,-1,1336,1142,0,0
119,-118,0,0,0,0,0,0,0,0,0,-1,1343,1142,0,0
126,-118,0,0,0,0,0,0,0,0,0,-1,1350,1142,0,0
133,-118,0,0,0,0,0,0,0,0,0,-1,1357,1142,0,0
140,-118,0,0,0,0,0,0,0,0,0,-1,1364,1142,0,0
147,-118,0,0,0,0,0,0,0,0,0,-1,1371,1142,0,0
154,-118,0,0,0,0,0,0,0,0,0,-1,1378,1142,0,0
161,-118,0,0,0,0,0,0,0,0,0,-1,1385,1142,0,0
168,-118,0,0,0,0,0,0,0,0,0,-1,1392,1142,0,0
175,-118,0,0,0,0,0,0,0,0,0,-1,1399,1142,0,0
182,-118,0,0,0,0,0,0,0,0,0,-1,1406,1142,0,0
189,-118,0,0,0,0,0,0,0,0,0,-1,1413,1142,0,0
196,-118,0,0,0,0,0,0,0,0,0,-1,1420,1142,0,0
203,-118,0,0,0,0,0,0,0,0,0,-1,1427,1142,0,0
210,-118,0,0,0,0,0,0,0,0,0,-1,1434,1142,0,0
217,-118,0,0,0,0,0,0,0,0,0,-1,1441,1142,0,0
224,-118,0,0,0,0,0,0,0,0,0,-1,1448,1142,0,0
231,-118,0,0,0,0,0,0,0,0,0,-1,1455,1142,0,0
238,-118,0,0,0,0,0,0,0,0,0,-1,1462,1142,0,0
245,-118,0,0,0,0,0,0,0,0,0,-1,1469,1142,0,0
252,-118,0,0,0,0,0,0,0,0,0,-1,1476,1142,0,0
259,-118,0,0,0,0,0,0,0,0,0,-1,1483,1142,0,0
266,-118,0,0,0,0,0,0,0,0,0,-1,1490,1142,0,0
273,-118,0,0,0,0,0,0,0,0,0,-1,1497,1142,0,0
280,-118,0,0,0,0,0,0,0,0,0,-1,1504,1142,0,0
287,-118,0,0,0,0,0,0,0,0,0,-1,1511,1142,0,0
294,-118,0,0,0,0,0,0,0,0,0,-1,1518,1142,0,0
301,-118,0,0,0,0,0,0,0,0,0,-1,1525,1142,0,0
308,-118,0,0,0,0,0,0,0,0,0,-1,1532,1142,0,0
315,-118,0,0,0,0,0,0,0,0,0,-1,1539,1142,0,0
322,-118,0,0,0,0,0,0,0,0,0,-1,1546,1142,0,0
329,-118,0,0,0,0,0,0,0,0,0,-1,1553,1142,0,0
336,-118,0,0,0,0,0,0,0,0,0,-1,1560,1142,0,0
343,-118,0,0,0,0,0,0,0,0,0,-1,1567,1142,0,0
350,-118,0,0,0,0,0,0,0,0,0,-1,1574,1142,0,0
357,-118,0,0,0,0,0,0,0,0,0,-1,1581,1142,0,0
364,-118,0,0,0,0,0,0,0,0,0,-1,1588,1142,0,0
371,-118,0,0,0,0,0,0,0,0,0,-1,1595,1142,0,0
378,-118,0,0,0,0,0,0,0,0,0,-1,1602,1142,0,0
385,-118,0,0,0,0,0,0,0,0,0,-1,1609,1142,0,0
392,-118,0,0,0,0,0,0,0,0,0,-1,1616,1142,0,0
399,-118,0,0,0,0,0,0,0,0,0,-1,1623,1142,0,0
406,-118,0,0,0,0,0,0,0,0,0,-1,1630,1142,0,0
413,-118,0,0,0,0,0,0,0,0,0,-1,1637,1142,0,0
420,-118,0,0,0,0,0,0,0,0,0,-1,1644,1142,0,0
427,-118,0,0,0,0,0,0,0,0,0,-1,1651,1142,0,0
434,-118,0,0,0,0,0,0,0,0,0,-1,1658,1142,0,0
441,-118,0,0,0,0,0,0,0,0,0,-1,1665,1142,0,0
448,-118,0,0,0,0,0,0,0,0,0,-1,1672,1142,0,0
455,-118,0,0,0,0,0,0,0,0,0,-1,1679,1142,0,0
462,-118,0,0,0,0,0,0,0,0,0,-1,1686,1142,0,0
469,-118,0,0,0,0,0,0,0,0,0,-1,1693,1142,0,0
476,-118,0,0,0,0,0,0,0,0,0,-1,1700,1142,0,0
483,-118,0,0,0,0,0,0,0,0,0,-1,1707,1142,0,0
490,-118,0,0,0,0,0,0,0,0,0,-1,1714,1142,0,0
497,-118,0,0,0,0,0,0,0,0,0,-1,1721,1142,0,0
504,-118,0,0,0,0,0,0,0,0,0,-1,1728,1142,0,0
511,-118,0,0,0,0,0,0,0,0,0,-1,1735,1142,0,0
518,-118,0,0,0,0,0,0,0,0,0,-1,1742,1142,0,0
525,-118,0,0,0,0,0,0,0,0,0,-1,1749,1142,0,0
532,-118,0,0,0,0,0,0,0,0,0,-1,1756,1142,0,0
539,-118,0,0,0,0,0,0,0,0,0,-1,1763,1142,0,0
546,-118,0,0,0,0,0,0,0,0,0,-1,1770,1142,0,0
553,-118,0,0,0,0,0,0,0,0,0,-1,1777,1142,0,0
560,-118,0,0,0,0,0,0,0,0,0,-1,1784,1142,0,0
567,-118,0,0,0,0,0,0,0,0,0,-1,1791,1142,0,0
574,-118,0,0,0,0,0,0,0,0,0,-1,1798,1142,0,0
581,-118,0,0,0,0,0,0,0,0,0,-1,1805,1142,0,0
588,-118,0,0,0,0,0,0,0,0,0,-1,1812,1142,0,0
595,-118,0,0,0,0,0,0,0,0,0,-1,1819,1142,0,0
602,-118,0,0,0,0,0,0,0,0,0,-1,1826,1142,0,0
609,-118,0,0,0,0,0,0,0,0,0,-1,1833,1142,0,0
616,-118,0,0,0,0,0,0,0,0,0,-1,1840,1142,0,0
623,-118,0,0,0,0,0,0,0,0,0,-1,1847,1142,0,0
630,-118,0,0,0,0,0,0,0,0,0,-1,1854,1142,0,0
637,-118,0,0,0,0,0,0,0,0,0,-1,1861,1142,0,0
644,-118,23.7316,2.94971,0.00450368,0.00053921,0.00203597,0.005363,-0.000320113,0.399386,0.00368667,0.0401578,1868,1142,23.7315,-2.94967
651,-118,23.8477,2.49121,0.0030354,0.000606755,0.0021632,0.00430181,-0.000659654,0.529639,0.00311116,0.0424609,1875,1142,23.8477,-2.49124
658,-118,23.6338,2.68738,0.00230374,0.000625972,0.00175988,0.00341445,-0.00048473,0.562992,0.00245389,0.0436342,1882,1142,23.6337,-2.6874
665,-118,23.739,2.6969,0.000975718,0.000366984,0.00199523,0.00268967,-0.00134697,0.709708,0.00237314,0.0425886,1889,1142,23.739,-2.69695
672,-118,23.6644,2.74231,-0.000792399,-0.000151526,0.00283897,0.00238503,-0.00332896,0.841596,0.00331394,0.0437546,1896,1142,23.6644,-2.74231
679,-118,23.5734,2.96387,-0.00252941,-0.000683633,0.00374616,0.00225164,-0.00546469,0.906171,0.00458196,0.0406362,1903,1142,23.5734,-2.96386
686,-118,23.5524,2.92493,-0.00410265,-0.00121202,0.00457588,0.00214138,-0.00745604,0.938367,0.00581738,0.0369634,1910,1142,23.5523,-2.92488
693,-118,23.5887,2.802,-0.00530162,-0.00161255,0.0052475,0.00210516,-0.00901933,0.954407,0.00682372,0.0356941,1917,1142,23.5887,-2.80205
700,-118,23.6749,2.78442,-0.00623284,-0.00194838,0.00579823,0.0020907,-0.0102719,0.962352,0.0076408,0.0228731,1924,1142,23.6749,-2.78447
707,-118,23.7118,2.80261,0,0,0,0,0,0,0,-1,1931,1142,23.7117,-2.80265
714,-118,22.9834,4.23401,0,0,0,0,0,0,0,-1,1938,1142,22.9834,-4.23405
721,-118,22.2699,4.65662,-0.00732148,-0.00214261,0.00610995,0.00190397,-0.0113681,0.985828,0.00828659,0.0108839,1945,1142,22.2699,-4.65666
728,-118,22.2732,4.56226,-0.00712194,-0.00193595,0.00578159,0.00180749,-0.0108654,0.996198,0.00791518,0.014411,1952,1142,22.2732,-4.56225
735,-118,22.2622,4.4458,-0.00671031,-0.00148004,0.00529072,0.00180657,-0.00999693,1.01493,0.00734128,0.0141869,1959,1142,22.2622,-4.44585
742,-118,22.2428,4.32666,-0.00570609,-0.00105539,0.00496169,0.00209882,-0.00886031,1.00453,0.00671669,0.0200546,1966,1142,22.2428,-4.32665
749,-118,22.2384,4.2218,-0.00309605,0.000469957,0.00516918,0.00415499,-0.00678109,0.951474,0.00637434,0.01927,1973,1142,22.2384,-4.2218
756,-118,22.2383,4.11206,0.000818692,0.00222435,0.00543304,0.00699983,-0.00395679,0.849722,0.00640662,0.0162999,1980,1142,22.2383,-4.11204
763,-118,22.2457,3.97595,0.00522763,0.00533371,0.0061242,0.0114051,-0.000843757,0.789729,0.00789968,0.00944419,1987,1142,22.2457,-3.97599
770,-118,22.2312,3.89514,0.0106522,0.00854407,0.00771224,0.0173821,0.00181421,0.717482,0.0110331,0.0112454,1994,1142,22.2312,-3.89508
777,-118,22.1819,3.81445,0.0171025,0.0125745,0.0106781,0.025754,0.00392301,0.680934,0.0160226,0.0226986,2001,1142,22.1818,-3.81441
784,-118,22.4078,3.59863,0.0253896,0.0178611,0.0149701,0.0370615,0.00618924,0.662227,0.0229248,0.0392046,2008,1142,22.4078,-3.59864
791,-118,22.6382,3.32532,0,0,0,0,0,0,0,-1,2015,1142,22.6382,-3.32535
798,-118,22.5238,3.78369,0,0,0,0,0,0,0,-1,2022,1142,22.5238,-3.78374
805,-118,21.5959,2.77783,0,0,0,0,0,0,0,-1,2029,1142,21.596,-2.7778
812,-118,21.4814,2.75671,0,0,0,0,0,0,0,-1,2036,1142,21.4814,-2.75674
-700,-125,0,0,0,0,0,0,0,0,0,-1,524,1149,0,0
-693,-125,-14.535,-0.103516,-0.0605923,0.0209353,0.023128,0.0270393,-0.0666964,1.31276,0.0557094,0.0499513,531,1149,-14.535,0.103575
-686,-125,-15.0327,0.217896,-0.0504502,0.0126812,0.0222434,0.0197311,-0.0575001,1.26387,0.0463327,0.0496124,538,1149,-15.0327,-0.217929
-679,-125,-15.7563,0.410645,0,0,0,0,0,0,0,-1,545,1149,-15.7563,-0.41064
-672,-125,-13.9849,-0.311279,0,0,0,0,0,0,0,-1,552,1149,-13.9849,0.311338
-665,-125,-14.153,-0.0424805,-0.0238639,0.00270971,0.0152944,0.00968269,-0.0308369,1.14303,0.0244336,0.0463066,559,1149,-14.153,0.0424598
-658,-125,-14.3014,0.213501,-0.0172912,0.00172122,0.0125983,0.00799747,-0.0235674,1.10861,0.0189486,0.0435106,566,1149,-14.3014,-0.21349
-651,-125,-14.3758,0.635376,-0.0120527,0.00121115,0.00998529,0.00656623,-0.0174078,1.07853,0.0143054,0.0381468,573,1149,-14.3758,-0.635395
-644,-125,-14.387,1.20813,-0.00804827,0.00093418,0.00758285,0.00525605,-0.0123701,1.05276,0.0104491,0.0252873,580,1149,-14.387,-1.20815
-637,-125,-14.4227,1.3551,-0.00520286,0.00025783,0.00514812,0.00335483,-0.00829986,1.02922,0.00692779,0.0132836,587,1149,-14.4227,-1.35508
-630,-125,-14.4416,1.50061,-0.00380223,-0.000271382,0.00259873,0.00110487,-0.00517847,1.08376,0.00387349,0.0143943,594,1149,-14.4416,-1.50059
-623,-125,-14.4419,1.6571,-0.0034881,-0.000458537,-7.02871e-05,-0.000456907,-0.00348973,-1.54761,0.00219013,0.0130813,601,1149,-14.4419,-1.65715
-616,-125,-14.4315,1.80042,-0.00404688,-0.00124879,-0.00261565,0.000318468,-0.00561414,-1.03098,0.00385331,0.0130007,608,1149,-14.4315,-1.80044
-609,-125,-14.4991,1.90417,-0.00501137,-0.00201967,-0.00462011,0.00134071,-0.00837175,-0.941957,0.00607757,0.0170489,615,1149,-14.4991,-1.90421
-602,-125,-14.5471,2.09631,-0.00638216,-0.00283956,-0.00618302,0.00182088,-0.0110426,-0.924901,0.00803774,0.0156807,622,1149,-14.5471,-2.09636
-595,-125,-14.5217,2.25842,-0.00771667,-0.00348349,-0.00723913,0.00194213,-0.0131423,-0.927625,0.00947549,0.0140647,629,1149,-14.5217,-2.25843
-588,-125,-14.3493,2.45679,-0.00866276,-0.00395653,-0.00770579,0.00174742,-0.0143667,-0.933586,0.0102102,0.0202504,636,1149,-14.3493,-2.45683
-581,-125,-14.2006,2.67224,0,0,0,0,0,0,0,-1,643,1149,-14.2007,-2.6723
-574,-125,-15.4702,0.302979,0,0,0,0,0,0,0,-1,650,1149,-15.4702,-0.30292
-567,-125,-15.9183,0.821533,-0.00843611,-0.00431464,-0.00731598,0.00122529,-0.013976,-0.922679,0.00975149,0.0404287,657,1149,-15.9183,-0.821591
-560,-125,-15.8949,0.827393,-0.00759907,-0.00398843,-0.00639857,0.000854626,-0.0124421,-0.922896,0.0085938,0.0403845,664,1149,-15.8949,-0.827431
-553,-125,-15.8832,0.898315,-0.00609274,-0.0033691,-0.00500402,0.000455095,-0.00991694,-0.918254,0.00676809,0.0404154,671,1149,-15.8832,-0.898312
-546,-125,-16.0062,0.944702,-0.00382534,-0.00247522,-0.00312062,4.25251e-05,-0.00634308,-0.891918,0.00424297,0.0392167,678,1149,-16.0062,-0.944662
-539,-125,-16.1456,1.25952,-0.000578829,-0.00134867,-0.000705332,-0.00016022,-0.00176727,-0.53562,0.00112857,0.0408529,685,1149,-16.1456,-1.25948
-532,-125,-16.1743,1.26538,0.00360774,-0.000206666,0.00166291,0.0042309,-0.00082982,0.358539,0.00313404,0.0400349,692,1149,-16.1743,-1.26532
-525,-125,-16.0238,1.28601,0.00576925,7.02295e-05,0.00114478,0.00599061,-0.000151129,0.191006,0.00404506,0.042429,699,1149,-16.0238,-1.28605
-518,-125,0,0,0,0,0,0,0,0,0,-1,706,1149,0,0
-511,-125,0,0,0,0,0,0,0,0,0,-1,713,1149,0,0
-504,-125,0,0,0,0,0,0,0,0,0,-1,720,1149,0,0
-497,-125,0,0,0,0,0,0,0,0,0,-1,727,1149,0,0
-490,-125,0,0,0,0,0,0,0,0,0,-1,734,1149,0,0
-483,-125,0,0,0,0,0,0,0,0,0,-1,741,1149,0,0
-476,-125,0,0,0,0,0,0,0,0,0,-1,748,1149,0,0
-469,-125,0,0,0,0,0,0,0,0,0,-1,755,1149,0,0
-462,-125,0,0,0,0,0,0,0,0,0,-1,762,1149,0,0
-455,-125,0,0,0,0,0,0,0,0,0,-1,769,1149,0,0
-448,-125,0,0,0,0,0,0,0,0,0,-1,776,1149,0,0
-441,-125,0,0,0,0,0,0,0,0,0,-1,783,1149,0,0
-434,-125,0,0,0,0,0,0,0,0,0,-1,790,1149,0,0
-427,-125,0,0,0,0,0,0,0,0,0,-1,797,1149,0,0
-420,-125,0,0,0,0,0,0,0,0,0,-1,804,1149,0,0
-413,-125,0,0,0,0,0,0,0,0,0,-1,811,1149,0,0
-406,-125,0,0,0,0,0,0,0,0,0,-1,818,1149,0,0
-399,-125,0,0,0,0,0,0,0,0,0,-1,825,1149,0,0
-392,-125,0,0,0,0,0,0,0,0,0,-1,832,1149,0,0
-385,-125,0,0,0,0,0,0,0,0,0,-1,839,1149,0,0
-378,-125,0,0,0,0,0,0,0,0,0,-1,846,1149,0,0
-371,-125,0,0,0,0,0,0,0,0,0,-1,853,1149,0,0
-364,-125,0,0,0,0,0,0,0,0,0,-1,860,1149,0,0
-357,-125,0,0,0,0,0,0,0,0,0,-1,867,1149,0,0
-350,-125,0,0,0,0,0,0,0,0,0,-1,874,1149,0,0
-343,-125,0,0,0,0,0,0,0,0,0,-1,881,1149,0,0
-336,-125,0,0,0,0,0,0,0,0,0,-1,888,1149,0,0
-329,-125,0,0,0,0,0,0,0,0,0,-1,895,1149,0,0
-322,-125,0,0,0,0,0,0,0,0,0,-1,902,1149,0,0
-315,-125,0,0,0,0,0,0,0,0,0,-1,909,1149,0,0
-308,-125,0,0,0,0,0,0,0,0,0,-1,916,1149,0,0
-301,-125,0,0,0,0,0,0,0,0,0,-1,923,1149,0,0
-294,-125,0,0,0,0,0,0,0,0,0,-1,930,1149,0,0
-287,-125,0,0,0,0,0,0,0,0,0,-1,937,1149,0,0
-280,-125,0,0,0,0,0,0,0,0,0,-1,944,1149,0,0
-273,-125,0,0,0,0,0,0,0,0,0,-1,951,1149,0,0
-266,-125,0,0,0,0,0,0,0,0,0,-1,958,1149,0,0
-259,-125,0,0,0,0,0,0,0,0,0,-1,965,1149,0,0
-252,-125,0,0,0,0,0,0,0,0,0,-1,972,1149,0,0
-245,-125,0,0,0,0,0,0,0,0,0,-1,979,1149,0,0
-238,-125,0,0,0,0,0,0,0,0,0,-1,986,1149,0,0
-231,-125,0,0,0,0,0,0,0,0,0,-1,993,1149,0,0
-224,-125,0,0,0,0,0,0,0,0,0,-1,1000,1149,0,0
-217,-125,0,0,0,0,0,0,0,0,0,-1,1007,1149,0,0
-210,-125,0,0,0,0,0,0,0,0,0,-1,1014,1149,0,0
-203,-125,0,0,0,0,0,0,0,0,0,-1,1021,1149,0,0
-196,-125,0,0,0,0,0,0,0,0,0,-1,1028,1149,0,0
-189,-125,0,0,0,0,0,0,0,0,0,-1,1035,1149,0,0
-182,-125,0,0,0,0,0,0,0,0,0,-1,1042,1149,0,0
-175,-125,0,0,0,0,0,0,0,0,0,-1,1049,1149,0,0
-168,-125,0,0,0,0,0,0,0,0,0,-1,1056,1149,0,0
-161,-125,0,0,0,0,0,0,0,0,0,-1,1063,1149,0,0
-154,-125,0,0,0,0,0,0,0,0,0,-1,1070,1149,0,0
-147,-125,0,0,0,0,0,0,0,0,0,-1,1077,1149,0,0
-140,-125,0,0,0,0,0,0,0,0,0,-1,1084,1149,0,0
-133,-125,0,0,0,0,0,0,0,0,0,-1,1091,1149,0,0
-126,-125,0,0,0,0,0,0,0,0,0,-1,1098,1149,0,0
-119,-125,0,0,0,0,0,0,0,0,0,-1,1105,1149,0,0
-112,-125,0,0,0,0,0,0,0,0,0,-1,1112,1149,0,0
-105,-125,0,0,0,0,0,0,0,0,0,-1,1119,1149,0,0
-98,-125,0,0,0,0,0,0,0,0,0,-1,1126,1149,0,0
-91,-125,0,0,0,0,0,0,0,0,0,-1,1133,1149,0,0
-84,-125,0,0,0,0,0,0,0,0,0,-1,1140,1149,0,0
-77,-125,0,0,0,0,0,0,0,0,0,-1,1147,1149,0,0
-70,-125,0,0,0,0,0,0,0,0,0,-1,1154,1149,0,0
-63,-125,0,0,0,0,0,0,0,0,0,-1,1161,1149,0,0
-56,-125,0,0,0,0,0,0,0,0,0,-1,1168,1149,0,0
-49,-125,0,0,0,0,0,0,0,0,0,-1,1175,1149,0,0
-42,-125,0,0,0,0,0,0,0,0,0,-1,1182,1149,0,0
-35,-125,0,0,0,0,0,0,0,0,0,-1,1189,1149,0,0
-28,-125,0,0,0,0,0,0,0,0,0,-1,1196,1149,0,0
-21,-125,0,0,0,0,0,0,0,0,0,-1,1203,1149,0,0
-14,-125,0,0,0,0,0,0,0,0,0,-1,1210,1149,0,0
-7,-125,0,0,0,0,0,0,0,0,0,-1,1217,1149,0,0
0,-125,0,0,0,0,0,0,0,0,0,-1,1224,1149,0,0
7,-125,0,0,0,0,0,0,0,0,0,-1,1231,1149,0,0
14,-125,0,0,0,0,0,0,0,0,0,-1,1238,1149,0,0
21,-125,0,0,0,0,0,0,0,0,0,-1,1245,1149,0,0
28,-125,0,0,0,0,0,0,0,0,0,-1,1252,1149,0,0
35,-125,0,0,0,0,0,0,0,0,0,-1,1259,1149,0,0
42,-125,0,0,0,0,0,0,0,0,0,-1,1266,1149,0,0
49,-125,0,0,0,0,0,0,0,0,0,-1,1273,1149,0,0
56,-125,0,0,0,0,0,0,0,0,0,-1,1280,1149,0,0
63,-125,0,0,0,0,0,0,0,0,0,-1,1287,1149,0,0
70,-125,0,0,0,0,0,0,0,0,0,-1,1294,1149,0,0
77,-125,0,0,0,0,0,0,0,0,0,-1,1301,1149,0,0
84,-125,0,0,0,0,0,0,0,0,0,-1,1308,1149,0,0
91,-125,0,0,0,0,0,0,0,0,0,-1,1315,1149,0,0
98,-125,0,0,0,0,0,0,0,0,0,-1,1322,1149,0,0
105,-125,0,0,0,0,0,0,0,0,0,-1,1329,1149,0,0
112,-125,0,0,0,0,0,0,0,0,0,-1,1336,1149,0,0
119,-125,0,0,0,0,0,0,0,0,0,-1,1343,1149,0,0
126,-125,0,0,0,0,0,0,0,0,0,-1,1350,1149,0,0
133,-125,0,0,0,0,0,0,0,0,0,-1,1357,1149,0,0
140,-125,0,0,0,0,0,0,0,0,0,-1,1364,1149,0,0
147,-125,0,0,0,0,0,0,0,0,0,-1,1371,1149,0,0
154,-125,0,0,0,0,0,0,0,0,0,-1,1378,1149,0,0
161,-125,0,0,0,0,0,0,0,0,0,-1,1385,1149,0,0
168,-125,0,0,0,0,0,0,0,0,0,-1,1392,1149,0,0
175,-125,0,0,0,0,0,0,0,0,0,-1,1399,1149,0,0
182,-125,0,0,0,0,0,0,0,0,0,-1,1406,1149,0,0
189,-125,0,0,0,0,0,0,0,0,0,-1,1413,1149,0,0
196,-125,0,0,0,0,0,0,0,0,0,-1,1420,1149,0,0
203,-125,0,0,0,0,0,0,0,0,0,-1,1427,1149,0,0
210,-125,0,0,0,0,0,0,0,0,0,-1,1434,1149,0,0
217,-125,0,0,0,0,0,0,0,0,0,-1,1441,1149,0,0
224,-125,0,0,0,0,0,0,0,0,0,-1,1448,1149,0,0
231,-125,0,0,0,0,0,0,0,0,0,-1,1455,1149,0,0
238,-125,0,0,0,0,0,0,0,0,0,-1,1462,1149,0,0
245,-125,0,0,0,0,0,0,0,0,0,-1,1469,1149,0,0
252,-125,0,0,0,0,0,0,0,0,0,-1,1476,1149,0,0
259,-125,0,0,0,0,0,0,0,0,0,-1,1483,1149,0,0
266,-125,0,0,0,0,0,0,0,0,0,-1,1490,1149,0,0
273,-125,0,0,0,0,0,0,0,0,0,-1,1497,1149,0,0
280,-125,0,0,0,0,0,0,0,0,0,-1,1504,1149,0,0
287,-125,0,0,0,0,0,0,0,0,0,-1,1511,1149,0,0
294,-125,0,0,0,0,0,0,0,0,0,-1,1518,1149,0,0
301,-125,0,0,0,0,0,0,0,0,0,-1,1525,1149,0,0
308,-125,0,0,0,0,0,0,0,0,0,-1,1532,1149,0,0
315,-125,0,0,0,0,0,0,0,0,0,-1,1539,1149,0,0
322,-125,0,0,0,0,0,0,0,0,0,-1,1546,1149,0,0
329,-125,0,0,0,0,0,0,0,0,0,-1,1553,1149,0,0
336,-125,0,0,0,0,0,0,0,0,0,-1,1560,1149,0,0
343,-125,0,0,0,0,0,0,0,0,0,-1,1567,1149,0,0
350,-125,0,0,0,0,0,0,0,0,0,-1,1574,1149,0,0
357,-125,0,0,0,0,0,0,0,0,0,-1,1581,1149,0,0
364,-125,0,0,0,0,0,0,0,0,0,-1,1588,1149,0,0
371,-125,0,0,0,0,0,0,0,0,0,-1,1595,1149,0,0
378,-125,0,0,0,0,0,0,0,0,0,-1,1602,1149,0,0
385,-125,0,0,0,0,0,0,0,0,0,-1,1609,1149,0,0
392,-125,0,0,0,0,0,0,0,0,0,-1,1616,1149,0,0
399,-125,0,0,0,0,0,0,0,0,0,-1,1623,1149,0,0
406,-125,0,0,0,0,0,0,0,0,0,-1,1630,1149,0,0
413,-125,0,0,0,0,0,0,0,0,0,-1,1637,1149,0,0
420,-125,0,0,0,0,0,0,0,0,0,-1,1644,1149,0,0
427,-125,0,0,0,0,0,0,0,0,0,-1,1651,1149,0,0
434,-125,0,0,0,0,0,0,0,0,0,-1,1658,1149,0,0
441,-125,0,0,0,0,0,0,0,0,0,-1,1665,1149,0,0
448,-125,0,0,0,0,0,0,0,0,0,-1,1672,1149,0,0
455,-125,0,0,0,0,0,0,0,0,0,-1,1679,1149,0,0
462,-125,0,0,0,0,0,0,0,0,0,-1,1686,1149,0,0
469,-125,0,0,0,0,0,0,0,0,0,-1,1693,1149,0,0
476,-125,0,0,0,0,0,0,0,0,0,-1,1700,1149,0,0
483,-125,0,0,0,0,0,0,0,0,0,-1,1707,1149,0,0
490,-125,0,0,0,0,0,0,0,0,0,-1,1714,1149,0,0
497,-125,0,0,0,0,0,0,0,0,0,-1,1721,1149,0,0
504,-125,0,0,0,0,0,0,0,0,0,-1,1728,1149,0,0
511,-125,0,0,0,0,0,0,0,0,0,-1,1735,1149,0,0
518,-125,0,0,0,0,0,0,0,0,0,-1,1742,1149,0,0
525,-125,0,0,0,0,0,0,0,0,0,-1,1749,1149,0,0
532,-125,0,0,0,0,0,0,0,0,0,-1,1756,1149,0,0
539,-125,0,0,0,0,0,0,0,0,0,-1,1763,1149,0,0
546,-125,0,0,0,0,0,0,0,0,0,-1,1770,1149,0,0
553,-125,0,0,0,0,0,0,0,0,0,-1,1777,1149,0,0
560,-125,0,0,0,0,0,0,0,0,0,-1,1784,1149,0,0
567,-125,0,0,0,0,0,0,0,0,0,-1,1791,1149,0,0
574,-125,0,0,0,0,0,0,0,0,0,-1,1798,1149,0,0
581,-125,0,0,0,0,0,0,0,0,0,-1,1805,1149,0,0
588,-125,0,0,0,0,0,0,0,0,0,-1,1812,1149,0,0
595,-125,0,0,0,0,0,0,0,0,0,-1,1819,1149,0,0
602,-125,0,0,0,0,0,0,0,0,0,-1,1826,1149,0,0
609,-125,0,0,0,0,0,0,0,0,0,-1,1833,1149,0,0
616,-125,0,0,0,0,0,0,0,0,0,-1,1840,1149,0,0
623,-125,0,0,0,0,0,0,0,0,0,-1,1847,1149,0,0
630,-125,0,0,0,0,0,0,0,0,0,-1,1854,1149,0,0
637,-125,0,0,0,0,0,0,0,0,0,-1,1861,1149,0,0
644,-125,23.8549,2.68054,0.00405687,-0.000336447,0.00213268,0.00492185,-0.00120143,0.385311,0.00374648,0.0413388,1868,1149,23.8549,-2.6806
651,-125,23.7074,2.69519,0.002803,-2.23053e-05,0.00219695,0.00400228,-0.00122158,0.499676,0.00315521,0.0396622,1875,1149,23.7074,-2.69525
658,-125,23.5303,2.69385,0.00216091,0.00020098,0.00181266,0.00324154,-0.000879653,0.537591,0.00250624,0.0420406,1882,1149,23.5303,-2.69384
665,-125,23.448,2.70728,0.000853563,8.93791e-05,0.00207408,0.00258045,-0.00163751,0.694308,0.00245544,0.0438384,1889,1149,23.4481,-2.70729
672,-125,23.4923,2.73877,-0.000809485,-0.000281952,0.00280203,0.0022687,-0.00336014,0.832327,0.00327011,0.0452866,1896,1149,23.4923,-2.73879
679,-125,23.6135,2.96619,-0.00241406,-0.000698846,0.00355725,0.00210271,-0.00521562,0.903685,0.00435079,0.0410426,1903,1149,23.6136,-2.96618
686,-125,23.6263,2.86292,-0.00387253,-0.00113232,0.00424129,0.00195467,-0.00695952,0.941628,0.00541025,0.0369111,1910,1149,23.6263,-2.86292
693,-125,23.6132,2.79089,-0.00496995,-0.0014472,0.00477358,0.0018796,-0.00829675,0.962141,0.00625259,0.034312,1917,1149,23.6132,-2.79095
700,-125,23.6637,2.80212,-0.00581653,-0.00173876,0.00522372,0.00182988,-0.00938517,0.971462,0.00694754,0.0167708,1924,1149,23.6637,-2.8021
707,-125,23.4786,4.13721,0,0,0,0,0,0,0,-1,1931,1149,23.4787,-4.1372
714,-125,22.7046,4.47253,0,0,0,0,0,0,0,-1,1938,1149,22.7046,-4.47249
721,-125,22.0978,4.70679,-0.00689193,-0.0019134,0.00547149,0.00160846,-0.0104138,0.998881,0.00753612,0.0191734,1945,1149,22.0978,-4.70684
728,-125,22.1198,4.5658,-0.00680247,-0.0017271,0.00512585,0.00145485,-0.00998441,1.01525,0.00719045,0.0140314,1952,1149,22.1198,-4.56582
735,-125,22.1132,4.43469,-0.00645059,-0.00127214,0.00464999,0.0014609,-0.00918363,1.03943,0.00666299,0.0170067,1959,1149,22.1132,-4.43472
742,-125,22.0945,4.30591,-0.00558081,-0.000834445,0.0043438,0.00174217,-0.00815743,1.03541,0.00610248,0.0244039,1966,1149,22.0945,-4.30591
749,-125,22.114,4.1853,-0.00298948,0.000604139,0.00456132,0.0037098,-0.00609514,0.973027,0.00571645,0.0265042,1973,1149,22.114,-4.18532
756,-125,22.1328,4.09961,0.00108893,0.00210171,0.00478061,0.00640267,-0.00321204,0.838164,0.00565202,0.0200824,1980,1149,22.1328,-4.09962
763,-125,22.1254,3.97278,0.00563835,0.00475131,0.00535649,0.0105697,-0.000179994,0.744092,0.0071072,0.0107475,1987,1149,22.1253,-3.97277
770,-125,22.1223,3.84583,0.0112728,0.0073876,0.00680704,0.016409,0.00225141,0.646401,0.0102715,0.0127879,1994,1149,22.1223,-3.84583
777,-125,22.0758,3.76782,0.0181799,0.0106313,0.00951266,0.0246397,0.00417153,0.59654,0.0152276,0.0229809,2001,1149,22.0757,-3.76788
784,-125,21.955,3.66345,0.027313,0.0148034,0.0134145,0.0358593,0.00625715,0.567247,0.0221175,0.0403259,2008,1149,21.9549,-3.66351
791,-125,21.8887,3.62793,0.0393425,0.0202328,0.0184862,0.0505972,0.00897813,0.546875,0.0311727,0.0441229,2015,1149,21.8887,-3.62797
798,-125,21.6278,3.56067,0.0550795,0.0272678,0.0248336,0.0696355,0.0127117,0.530169,0.0428201,0.0439782,2022,1149,21.6278,-3.56063
805,-125,21.3818,3.55713,0,0,0,0,0,0,0,-1,2029,1149,21.3819,-3.55716
812,-125,21.2415,2.29431,0,0,0,0,0,0,0,-1,2036,1149,21.2414,-2.29431
-700,-132,0,0,0,0,0,0,0,0,0,-1,524,1156,0,0
-693,-132,-14.8261,-0.44751,-0.0633407,0.0244383,0.0267918,0.0319695,-0.0708719,1.29677,0.0607751,0.0489461,531,1156,-14.8261,0.447519
-686,-132,-15.0416,-0.345459,-0.0519558,0.0142182,0.0257994,0.0230878,-0.0608255,1.23966,0.0500538,0.0495557,538,1156,-15.0416,0.345424
-679,-132,-13.4,-0.431519,0,0,0,0,0,0,0,-1,545,1156,-13.4,0.43151
-672,-132,-13.8293,-0.105103,-0.0314574,0.00406766,0.0205565,0.0134727,-0.0408624,1.14171,0.0326719,0.0462462,552,1156,-13.8293,0.105098
-665,-132,-14.0009,-0.0266113,-0.023153,0.00183738,0.017422,0.0107817,-0.0320974,1.09649,0.0257557,0.0460596,559,1156,-14.0009,0.0266614
-658,-132,-14.0837,0.29187,-0.0163049,0.000665799,0.0142272,0.00874588,-0.024385,1.05429,0.0198258,0.0451742,566,1156,-14.0837,-0.291916
-651,-132,-14.174,0.720093,-0.0109773,0.000142483,0.0111688,0.00705872,-0.0178935,1.01634,0.014852,0.041255,573,1156,-14.174,-0.720051
-644,-132,-14.2708,1.15027,-0.00703218,-3.37223e-05,0.00840844,0.00557454,-0.0126404,0.982576,0.010777,0.0225008,580,1156,-14.2708,-1.15023
-637,-132,-14.2545,1.33252,-0.0042283,-0.000523035,0.00575978,0.00367473,-0.00842607,0.940998,0.00716367,0.0120922,587,1156,-14.2545,-1.33256
-630,-132,-14.2643,1.48694,-0.00295882,-0.000904554,0.00312256,0.00135547,-0.00521885,0.944294,0.00400819,0.0107975,594,1156,-14.2643,-1.48699
-623,-132,-14.273,1.66797,-0.00290898,-0.000965474,0.000415975,-0.000880184,-0.00299427,1.36856,0.001777,0.015712,601,1156,-14.273,-1.66798
-616,-132,-14.249,1.81738,-0.00377194,-0.0016996,-0.00218016,-0.000321906,-0.00514964,-1.00723,0.00333098,0.0201986,608,1156,-14.249,-1.81737
-609,-132,-14.234,1.92627,-0.00492543,-0.00234445,-0.00421825,0.000776294,-0.00804618,-0.933842,0.00564072,0.0159539,615,1156,-14.234,-1.92625
-602,-132,-14.3375,2.05701,-0.00656659,-0.00313324,-0.00579095,0.00119013,-0.01089,-0.929492,0.00768745,0.0143304,622,1156,-14.3376,-2.05697
-595,-132,-14.3408,2.26196,-0.00814611,-0.00379891,-0.00685377,0.00121767,-0.0131627,-0.938951,0.0092079,0.0168239,629,1156,-14.3408,-2.26191
-588,-132,-14.2427,2.48096,-0.00929522,-0.0042726,-0.00732912,0.000963524,-0.0145313,-0.950453,0.0100242,0.0175247,636,1156,-14.2427,-2.48094
-581,-132,-14.7924,2.2655,-0.00976764,-0.0045519,-0.00752094,0.000800477,-0.01512,-0.952286,0.0103572,0.0474621,643,1156,-14.7923,-2.26546
-574,-132,-15.5487,1.91833,0,0,0,0,0,0,0,-1,650,1156,-15.5487,-1.91833
-567,-132,-15.9305,0.852295,-0.00933432,-0.00454647,-0.0071217,0.000572891,-0.0144537,-0.947538,0.00983232,0.0378642,657,1156,-15.9306,-0.852352
-560,-132,-15.9886,0.793579,-0.00856719,-0.00414771,-0.00632917,0.000346377,-0.0130613,-0.95335,0.00882524,0.035148,664,1156,-15.9886,-0.793573
-553,-132,-16.0743,0.875732,-0.00705254,-0.00339365,-0.0050747,0.00017129,-0.0106175,-0.958399,0.0071361,0.036741,671,1156,-16.0743,-0.875741
-546,-132,-16.0378,0.826904,-0.0046714,-0.00228518,-0.0033353,6.39958e-05,-0.00702057,-0.957167,0.00470186,0.0397225,678,1156,-16.0379,-0.826952
-539,-132,-16.0253,1.19324,-0.00120723,-0.000837531,-0.00104691,4.0728e-05,-0.00208549,-0.87278,0.0014041,0.0422952,685,1156,-16.0252,-1.19325
-532,-132,-16.0159,1.14026,0.00353075,0.000815429,0.00143679,0.00414986,0.000196324,0.406853,0.00270351,0.0399201,692,1156,-16.0159,-1.14022
-525,-132,-15.9314,1.01721,0.0069222,0.00180462,0.0016517,0.00740898,0.00131783,0.286603,0.00456391,0.0395946,699,1156,-15.9314,-1.01721
-518,-132,0,0,0,0,0,0,0,0,0,-1,706,1156,0,0
-511,-132,0,0,0,0,0,0,0,0,0,-1,713,1156,0,0
-504,-132,0,0,0,0,0,0,0,0,0,-1,720,1156,0,0
-497,-132,0,0,0,0,0,0,0,0,0,-1,727,1156,0,0
-490,-132,0,0,0,0,0,0,0,0,0,-1,734,1156,0,0
-483,-132,0,0,0,0,0,0,0,0,0,-1,741,1156,0,0
-476,-132,0,0,0,0,0,0,0,0,0,-1,748,1156,0,0
-469,-132,0,0,0,0,0,0,0,0,0,-1,755,1156,0,0
-462,-132,0,0,0,0,0,0,0,0,0,-1,762,1156,0,0
-455,-132,0,0,0,0,0,0,0,0,0,-1,769,1156,0,0
-448,-132,0,0,0,0,0,0,0,0,0,-1,776,1156,0,0
-441,-132,0,0,0,0,0,0,0,0,0,-1,783,1156,0,0
-434,-132,0,0,0,0,0,0,0,0,0,-1,790,1156,0,0
-427,-132,0,0,0,0,0,0,0,0,0,-1,797,1156,0,0
-420,-132,0,0,0,0,0,0,0,0,0,-1,804,1156,0,0
-413,-132,0,0,0,0,0,0,0,0,0,-1,811,1156,0,0
-406,-132,0,0,0,0,0,0,0,0,0,-1,818,1156,0,0
-399,-132,0,0,0,0,0,0,0,0,0,-1,825,1156,0,0
-392,-132,0,0,0,0,0,0,0,0,0,-1,832,1156,0,0
-385,-132,0,0,0,0,0,0,0,0,0,-1,839,1156,0,0
-378,-132,0,0,0,0,0,0,0,0,0,-1,846,1156,0,0
-371,-132,0,0,0,0,0,0,0,0,0,-1,853,1156,0,0
-364,-132,0,0,0,0,0,0,0,0,0,-1,860,1156,0,0
-357,-132,0,0,0,0,0,0,0,0,0,-1,867,1156,0,0
-350,-132,0,0,0,0,0,0,0,0,0,-1,874,1156,0,0
-343,-132,0,0,0,0,0,0,0,0,0,-1,881,1156,0,0
-336,-132,0,0,0,0,0,0,0,0,0,-1,888,1156,0,0
-329,-132,0,0,0,0,0,0,0,0,0,-1,895,1156,0,0
-322,-132,0,0,0,0,0,0,0,0,0,-1,902,1156,0,0
-315,-132,0,0,0,0,0,0,0,0,0,-1,909,1156,0,0
-308,-132,0,0,0,0,0,0,0,0,0,-1,916,1156,0,0
-301,-132,0,0,0,0,0,0,0,0,0,-1,923,1156,0,0
-294,-132,0,0,0,0,0,0,0,0,0,-1,930,1156,0,0
-287,-132,0,0,0,0,0,0,0,0,0,-1,937,1156,0,0
-280,-132,0,0,0,0,0,0,0,0,0,-1,944,1156,0,0
-273,-132,0,0,0,0,0,0,0,0,0,-1,951,1156,0,0
-266,-132,0,0,0,0,0,0,0,0,0,-1,958,1156,0,0
-259,-132,0,0,0,0,0,0,0,0,0,-1,965,1156,0,0
-252,-132,0,0,0,0,0,0,0,0,0,-1,972,1156,0,0
-245,-132,0,0,0,0,0,0,0,0,0,-1,979,1156,0,0
-238,-132,0,0,0,0,0,0,0,0,0,-1,986,1156,0,0
-231,-132,0,0,0,0,0,0,0,0,0,-1,993,1156,0,0
-224,-132,0,0,0,0,0,0,0,0,0,-1,1000,1156,0,0
-217,-132,0,0,0,0,0,0,0,0,0,-1,1007,1156,0,0
-210,-132,0,0,0,0,0,0,0,0,0,-1,1014,1156,0,0
-203,-132,0,0,0,0,0,0,0,0,0,-1,1021,1156,0,0
-196,-132,0,0,0,0,0,0,0,0,0,-1,1028,1156,0,0
-189,-132,0,0,0,0,0,0,0,0,0,-1,1035,1156,0,0
-182,-132,0,0,0,0,0,0,0,0,0,-1,1042,1156,0,0
-175,-132,0,0,0,0,0,0,0,0,0,-1,1049,1156,0,0
-168,-132,0,0,0,0,0,0,0,0,0,-1,1056,1156,0,0
-161,-132,0,0,0,0,0,0,0,0,0,-1,1063,1156,0,0
-154,-132,0,0,0,0,0,0,0,0,0,-1,1070,1156,0,0
-147,-132,0,0,0,0,0,0,0,0,0,-1,1077,1156,0,0
-140,-132,0,0,0,0,0,0,0,0,0,-1,1084,1156,0,0
-133,-132,0,0,0,0,0,0,0,0,0,-1,1091,1156,0,0
-126,-132,0,0,0,0,0,0,0,0,0,-1,1098,1156,0,0
-119,-132,0,0,0,0,0,0,0,0,0,-1,1105,1156,0,0
-112,-132,0,0,0,0,0,0,0,0,0,-1,1112,1156,0,0
-105,-132,0,0,0,0,0,0,0,0,0,-1,1119,1156,0,0
-98,-132,0,0,0,0,0,0,0,0,0,-1,1126,1156,0,0
-91,-132,0,0,0,0,0,0,0,0,0,-1,1133,1156,0,0
-84,-132,0,0,0,0,0,0,0,0,0,-1,1140,1156,0,0
-77,-132,0,0,0,0,0,0,0,0,0,-1,1147,1156,0,0
-70,-132,0,0,0,0,0,0,0,0,0,-1,1154,1156,0,0
-63,-132,0,0,0,0,0,0,0,0,0,-1,1161,1156,0,0
-56,-132,0,0,0,0,0,0,0,0,0,-1,1168,1156,0,0
-49,-132,0,0,0,0,0,0,0,0,0,-1,1175,1156,0,0
-42,-132,0,0,0,0,0,0,0,0,0,-1,1182,1156,0,0
-35,-132,0,0,0,0,0,0,0,0,0,-1,1189,1156,0,0
-28,-132,0,0,0,0,0,0,0,0,0,-1,1196,1156,0,0
-21,-132,0,0,0,0,0,0,0,0,0,-1,1203,1156,0,0
-14,-132,0,0,0,0,0,0,0,0,0,-1,1210,1156,0,0
-7,-132,0,0,0,0,0,0,0,0,0,-1,1217,1156,0,0
0,-132,0,0,0,0,0,0,0,0,0,-1,1224,1156,0,0
7,-132,0,0,0,0,0,0,0,0,0,-1,1231,1156,0,0
14,-132,0,0,0,0,0,0,0,0,0,-1,1238,1156,0,0
21,-132,0,0,0,0,0,0,0,0,0,-1,1245,1156,0,0
28,-132,0,0,0,0,0,0,0,0,0,-1,1252,1156,0,0
35,-132,0,0,0,0,0,0,0,0,0,-1,1259,1156,0,0
42,-132,0,0,0,0,0,0,0,0,0,-1,1266,1156,0,0
49,-132,0,0,0,0,0,0,0,0,0,-1,1273,1156,0,0
56,-132,0,0,0,0,0,0,0,0,0,-1,1280,1156,0,0
63,-132,0,0,0,0,0,0,0,0,0,-1,1287,1156,0,0
70,-132,0,0,0,0,0,0,0,0,0,-1,1294,1156,0,0
77,-132,0,0,0,0,0,0,0,0,0,-1,1301,1156,0,0
84,-132,0,0,0,0,0,0,0,0,0,-1,1308,1156,0,0
91,-132,0,0,0,0,0,0,0,0,0,-1,1315,1156,0,0
98,-132,0,0,0,0,0,0,0,0,0,-1,1322,1156,0,0
105,-132,0,0,0,0,0,0,0,0,0,-1,1329,1156,0,0
112,-132,0,0,0,0,0,0,0,0,0,-1,1336,1156,0,0
119,-132,0,0,0,0,0,0,0,0,0,-1,1343,1156,0,0
126,-132,0,0,0,0,0,0,0,0,0,-1,1350,1156,0,0
133,-132,0,0,0,0,0,0,0,0,0,-1,1357,1156,0,0
140,-132,0,0,0,0,0,0,0,0,0,-1,1364,1156,0,0
147,-132,0,0,0,0,0,0,0,0,0,-1,1371,1156,0,0
154,-132,0,0,0,0,0,0,0,0,0,-1,1378,1156,0,0
161,-132,0,0,0,0,0,0,0,0,0,-1,1385,1156,0,0
168,-132,0,0,0,0,0,0,0,0,0,-1,1392,1156,0,0
175,-132,0,0,0,0,0,0,0,0,0,-1,1399,1156,0,0
182,-132,0,0,0,0,0,0,0,0,0,-1,1406,1156,0,0
189,-132,0,0,0,0,0,0,0,0,0,-1,1413,1156,0,0
196,-132,0,0,0,0,0,0,0,0,0,-1,1420,1156,0,0
203,-132,0,0,0,0,0,0,0,0,0,-1,1427,1156,0,0
210,-132,0,0,0,0,0,0,0,0,0,-1,1434,1156,0,0
217,-132,0,0,0,0,0,0,0,0,0,-1,1441,1156,0,0
224,-132,0,0,0,0,0,0,0,0,0,-1,1448,1156,0,0
231,-132,0,0,0,0,0,0,0,0,0,-1,1455,1156,0,0
238,-132,0,0,0,0,0,0,0,0,0,-1,1462,1156,0,0
245,-132,0,0,0,0,0,0,0,0,0,-1,1469,1156,0,0
252,-132,0,0,0,0,0,0,0,0,0,-1,1476,1156,0,0
259,-132,0,0,0,0,0,0,0,0,0,-1,1483,1156,0,0
266,-132,0,0,0,0,0,0,0,0,0,-1,1490,1156,0,0
273,-132,0,0,0,0,0,0,0,0,0,-1,1497,1156,0,0
280,-132,0,0,0,0,0,0,0,0,0,-1,1504,1156,0,0
287,-132,0,0,0,0,0,0,0,0,0,-1,1511,1156,0,0
294,-132,0,0,0,0,0,0,0,0,0,-1,1518,1156,0,0
301,-132,0,0,0,0,0,0,0,0,0,-1,1525,1156,0,0
308,-132,0,0,0,0,0,0,0,0,0,-1,1532,1156,0,0
315,-132,0,0,0,0,0,0,0,0,0,-1,1539,1156,0,0
322,-132,0,0,0,0,0,0,0,0,0,-1,1546,1156,0,0
329,-132,0,0,0,0,0,0,0,0,0,-1,1553,1156,0,0
336,-132,0,0,0,0,0,0,0,0,0,-1,1560,1156,0,0
343,-132,0,0,0,0,0,0,0,0,0,-1,1567,1156,0,0
350,-132,0,0,0,0,0,0,0,0,0,-1,1574,1156,0,0
357,-132,0,0,0,0,0,0,0,0,0,-1,1581,1156,0,0
364,-132,0,0,0,0,0,0,0,0,0,-1,1588,1156,0,0
371,-132,0,0,0,0,0,0,0,0,0,-1,1595,1156,0,0
378,-132,0,0,0,0,0,0,0,0,0,-1,1602,1156,0,0
385,-132,0,0,0,0,0,0,0,0,0,-1,1609,1156,0,0
392,-132,0,0,0,0,0,0,0,0,0,-1,1616,1156,0,0
399,-132,0,0,0,0,0,0,0,0,0,-1,1623,1156,0,0
406,-132,0,0,0,0,0,0,0,0,0,-1,1630,1156,0,0
413,-132,0,0,0,0,0,0,0,0,0,-1,1637,1156,0,0
420,-132,0,0,0,0,0,0,0,0,0,-1,1644,1156,0,0
427,-132,0,0,0,0,0,0,0,0,0,-1,1651,1156,0,0
434,-132,0,0,0,0,0,0,0,0,0,-1,1658,1156,0,0
441,-132,0,0,0,0,0,0,0,0,0,-1,1665,1156,0,0
448,-132,0,0,0,0,0,0,0,0,0,-1,1672,1156,0,0
455,-132,0,0,0,0,0,0,0,0,0,-1,1679,1156,0,0
462,-132,0,0,0,0,0,0,0,0,0,-1,1686,1156,0,0
469,-132,0,0,0,0,0,0,0,0,0,-1,1693,1156,0,0
476,-132,0,0,0,0,0,0,0,0,0,-1,1700,1156,0,0
483,-132,0,0,0,0,0,0,0,0,0,-1,1707,1156,0,0
490,-132,0,0,0,0,0,0,0,0,0,-1,1714,1156,0,0
497,-132,0,0,0,0,0,0,0,0,0,-1,1721,1156,0,0
504,-132,0,0,0,0,0,0,0,0,0,-1,1728,1156,0,0
511,-132,0,0,0,0,0,0,0,0,0,-1,1735,1156,0,0
518,-132,0,0,0,0,0,0,0,0,0,-1,1742,1156,0,0
525,-132,0,0,0,0,0,0,0,0,0,-1,1749,1156,0,0
532,-132,0,0,0,0,0,0,0,0,0,-1,1756,1156,0,0
539,-132,0,0,0,0,0,0,0,0,0,-1,1763,1156,0,0
546,-132,0,0,0,0,0,0,0,0,0,-1,1770,1156,0,0
553,-132,0,0,0,0,0,0,0,0,0,-1,1777,1156,0,0
560,-132,0,0,0,0,0,0,0,0,0,-1,1784,1156,0,0
567,-132,0,0,0,0,0,0,0,0,0,-1,1791,1156,0,0
574,-132,0,0,0,0,0,0,0,0,0,-1,1798,1156,0,0
581,-132,0,0,0,0,0,0,0,0,0,-1,1805,1156,0,0
588,-132,0,0,0,0,0,0,0,0,0,-1,1812,1156,0,0
595,-132,0,0,0,0,0,0,0,0,0,-1,1819,1156,0,0
602,-132,0,0,0,0,0,0,0,0,0,-1,1826,1156,0,0
609,-132,0,0,0,0,0,0,0,0,0,-1,1833,1156,0,0
616,-132,0,0,0,0,0,0,0,0,0,-1,1840,1156,0,0
623,-132,0,0,0,0,0,0,0,0,0,-1,1847,1156,0,0
630,-132,0,0,0,0,0,0,0,0,0,-1,1854,1156,0,0
637,-132,0,0,0,0,0,0,0,0,0,-1,1861,1156,0,0
644,-132,23.5864,2.54431,0.00297499,-0.000291807,0.00252034,0.00434494,-0.00166175,0.497883,0.00358144,0.0426181,1868,1156,23.5864,-2.54427
651,-132,23.5095,2.60522,0.00213117,3.42271e-05,0.00245354,0.00375087,-0.00158547,0.583477,0.00316436,0.0397106,1875,1156,23.5095,-2.60517
658,-132,23.4902,2.77905,0.00170822,0.000281882,0.00203453,0.00315096,-0.00116086,0.616824,0.0025763,0.0412781,1882,1156,23.4902,-2.77907
665,-132,23.4996,2.84265,0.00056431,0.000205609,0.00224418,0.0026363,-0.00186638,0.745524,0.00261226,0.0443176,1889,1156,23.4996,-2.84269
672,-132,23.5658,2.93335,-0.000867515,-8.01014e-05,0.00277193,0.00232595,-0.00327356,0.855943,0.00324827,0.0448218,1896,1156,23.5659,-2.9334
679,-132,23.6035,2.94702,-0.00226507,-0.000421632,0.00330912,0.00209174,-0.00477844,0.921225,0.00406635,0.0419237,1903,1156,23.6035,-2.94703
686,-132,23.6299,2.87695,-0.00354637,-0.000791317,0.00379958,0.00187274,-0.00621042,0.959303,0.00488567,0.0355746,1910,1156,23.6299,-2.87699
693,-132,23.6127,2.80115,-0.00451551,-0.00104498,0.00417007,0.00173646,-0.00729695,0.982562,0.005535,0.0299957,1917,1156,23.6127,-2.80114
700,-132,23.6696,2.78894,-0.0052689,-0.00130148,0.00449354,0.00162674,-0.00819712,0.993262,0.00607997,0.0335155,1924,1156,23.6695,-2.78892
707,-132,22.8796,3.91931,0,0,0,0,0,0,0,-1,1931,1156,22.8796,-3.91937
714,-132,21.9299,4.89795,0,0,0,0,0,0,0,-1,1938,1156,21.93,-4.8979
721,-132,21.9784,4.74133,-0.00629728,-0.00149432,0.00463178,0.00132153,-0.00911313,1.02456,0.00656045,0.0243589,1945,1156,21.9784,-4.74129
728,-132,21.9895,4.57141,-0.00623287,-0.00131992,0.00426365,0.00114427,-0.00869707,1.04674,0.00621469,0.0140503,1952,1156,21.9895,-4.57146
735,-132,21.9802,4.42175,-0.00584823,-0.00087214,0.00376629,0.00115372,-0.00787409,1.0773,0.00567321,0.0166867,1959,1156,21.9803,-4.42173
742,-132,21.9302,4.26953,-0.00492051,-0.000406989,0.00349592,0.00149731,-0.00682481,1.07202,0.00512245,0.0220104,1966,1156,21.9302,-4.26955
749,-132,21.9597,4.14807,-0.00220182,0.000948287,0.00371656,0.00340976,-0.0046633,0.985822,0.00467968,0.0255181,1973,1156,21.9597,-4.14804
756,-132,21.9839,4.05847,0.00221855,0.00219294,0.0038753,0.00608106,-0.00166957,0.783746,0.00471025,0.0220186,1980,1156,21.9839,-4.05852
763,-132,21.9924,3.96191,0.00714235,0.00435725,0.00430126,0.0102709,0.00122873,0.628846,0.00647663,0.0124564,1987,1156,21.9925,-3.96192
770,-132,22.0112,3.87305,0.0132583,0.00644692,0.00558033,0.0163901,0.00331511,0.511419,0.0100064,0.0125936,1994,1156,22.0113,-3.87306
777,-132,21.9634,3.74011,0.0209549,0.00893425,0.00797026,0.0249271,0.00496214,0.462339,0.0152358,0.0214951,2001,1156,21.9634,-3.74009
784,-132,21.7999,3.68237,0.0312694,0.0120192,0.0113852,0.0365529,0.00673573,0.434487,0.0224625,0.0422096,2008,1156,21.7999,-3.68242
791,-132,21.0634,3.55115,0.04496,0.0158752,0.0158722,0.0519445,0.00889068,0.414546,0.0320795,0.048759,2015,1156,21.0634,-3.55109
798,-132,20.7504,3.30737,0.0629767,0.0206912,0.0215342,0.0720124,0.0116555,0.397285,0.0446333,0.0481825,2022,1156,20.7504,-3.30743
805,-132,20.4473,3.1665,0,0,0,0,0,0,0,-1,2029,1156,20.4473,-3.16649
812,-132,21.4265,4.93079,0,0,0,0,0,0,0,-1,2036,1156,21.4265,-4.93076
-700,-139,0,0,0,0,0,0,0,0,0,-1,524,1163,0,0
-693,-139,-14.805,-0.889038,0,0,0,0,0,0,0,-1,531,1163,-14.805,0.889014
-686,-139,-14.7097,-0.979004,0,0,0,0,0,0,0,-1,538,1163,-14.7096,0.978995
-679,-139,-13.2634,0.0939941,0,0,0,0,0,0,0,-1,545,1163,-13.2634,-0.0939727
-672,-139,-13.7463,0.151489,-0.0307641,0.00398681,0.0220908,0.0147167,-0.041494,1.11864,0.0336584,0.0439464,552,1163,-13.7464,-0.151454
-665,-139,-14.1316,0.0632324,-0.0220114,0.00132136,0.0185182,0.0115417,-0.0322317,1.06649,0.0261967,0.0431112,559,1163,-14.1316,-0.0632046
-658,-139,-13.7519,0.917847,0,0,0,0,0,0,0,-1,566,1163,-13.7519,-0.917836
-651,-139,-13.9042,1.04968,-0.00957308,-0.000619119,0.0115641,0.00730439,-0.0174966,0.970086,0.0147164,0.0446452,573,1163,-13.9042,-1.04963
-644,-139,-14.0815,1.17371,-0.00574648,-0.000735101,0.00857659,0.00569433,-0.0121759,0.92752,0.0105412,0.0237447,580,1163,-14.0815,-1.17365
-637,-139,-14.0847,1.32288,-0.00305656,-0.00107142,0.00584968,0.0038693,-0.00799728,0.869438,0.00698799,0.0132225,587,1163,-14.0847,-1.32289
-630,-139,-14.1018,1.48193,-0.00195564,-0.00131859,0.00324105,0.00161955,-0.00489378,0.83438,0.00391565,0.0109875,594,1163,-14.1018,-1.48193
-623,-139,-14.1087,1.65442,-0.00218666,-0.00127645,0.000620401,-0.000962126,-0.00250098,1.10185,0.00145668,0.0161058,601,1163,-14.1087,-1.65436
-616,-139,-14.1182,1.78149,-0.00338388,-0.00196744,-0.00194174,-0.000608799,-0.00474252,-0.960268,0.00297955,0.0178579,608,1163,-14.1182,-1.78155
-609,-139,-14.0767,1.94067,-0.00476413,-0.00250189,-0.00397123,0.000496167,-0.00776219,-0.924139,0.00534786,0.0242011,615,1163,-14.0766,-1.94062
-602,-139,-14.1644,2.09827,-0.00673927,-0.00326018,-0.00554614,0.000812824,-0.0108123,-0.937364,0.00749383,0.0173069,622,1163,-14.1644,-2.0983
-595,-139,-14.2112,2.30127,-0.00859483,-0.00394547,-0.00660397,0.000731031,-0.0132713,-0.954631,0.00910102,0.0158498,629,1163,-14.2112,-2.30123
-588,-139,-14.1353,2.49768,-0.0099551,-0.00443369,-0.00708016,0.000404959,-0.0147938,-0.971292,0.0100002,0.016972,636,1163,-14.1353,-2.49769
-581,-139,-14.2938,2.49805,-0.0105925,-0.00471088,-0.00733015,0.000246388,-0.0155498,-0.976165,0.0104496,0.0445433,643,1163,-14.2938,-2.49799
-574,-139,-14.5957,2.38403,0,0,0,0,0,0,0,-1,650,1163,-14.5957,-2.38399
-567,-139,-15.9401,0.932373,-0.0102356,-0.0046924,-0.00705802,0.000118715,-0.0150467,-0.972491,0.0100709,0.0400891,657,1163,-15.9401,-0.932367
-560,-139,-15.9946,0.908447,-0.00952433,-0.00427777,-0.00639405,1.0211e-05,-0.0138123,-0.980062,0.00921161,0.0322761,664,1163,-15.9946,-0.908469
-553,-139,-15.9695,0.799316,-0.0079881,-0.00347699,-0.00527501,4.46476e-06,-0.0114696,-0.98743,0.00764786,0.0358466,671,1163,-15.9696,-0.79928
-546,-139,-15.9164,0.748413,-0.00548041,-0.00228344,-0.00365809,0.000110167,-0.00787402,-0.991382,0.00528645,0.0401254,678,1163,-15.9164,-0.748434
-539,-139,-15.8634,1.10132,-0.00179872,-0.000693936,-0.00145731,0.000312157,-0.00280481,-0.966556,0.00198214,0.042301,685,1163,-15.8634,-1.10131
-532,-139,-15.8719,0.932739,0.00342159,0.00123142,0.00116985,0.00392894,0.000724082,0.409199,0.0024144,0.0395949,692,1163,-15.8719,-0.932692
-525,-139,-15.8005,0.695557,0.00801144,0.00276939,0.00220087,0.00881293,0.0019679,0.349241,0.00534155,0.038675,699,1163,-15.8005,-0.695511
-518,-139,0,0,0,0,0,0,0,0,0,-1,706,1163,0,0
-511,-139,0,0,0,0,0,0,0,0,0,-1,713,1163,0,0
-504,-139,0,0,0,0,0,0,0,0,0,-1,720,1163,0,0
-497,-139,0,0,0,0,0,0,0,0,0,-1,727,1163,0,0
-490,-139,0,0,0,0,0,0,0,0,0,-1,734,1163,0,0
-483,-139,0,0,0,0,0,0,0,0,0,-1,741,1163,0,0
-476,-139,0,0,0,0,0,0,0,0,0,-1,748,1163,0,0
-469,-139,0,0,0,0,0,0,0,0,0,-1,755,1163,0,0
-462,-139,0,0,0,0,0,0,0,0,0,-1,762,1163,0,0
-455,-139,0,0,0,0,0,0,0,0,0,-1,769,1163,0,0
-448,-139,0,0,0,0,0,0,0,0,0,-1,776,1163,0,0
-441,-139,0,0,0,0,0,0,0,0,0,-1,783,1163,0,0
-434,-139,0,0,0,0,0,0,0,0,0,-1,790,1163,0,0
-427,-139,0,0,0,0,0,0,0,0,0,-1,797,1163,0,0
-420,-139,0,0,0,0,0,0,0,0,0,-1,804,1163,0,0
-413,-139,0,0,0,0,0,0,0,0,0,-1,811,1163,0,0
-406,-139,0,0,0,0,0,0,0,0,0,-1,818,1163,0,0
-399,-139,0,0,0,0,0,0,0,0,0,-1,825,1163,0,0
-392,-139,0,0,0,0,0,0,0,0,0,-1,832,1163,0,0
-385,-139,0,0,0,0,0,0,0,0,0,-1,839,1163,0,0
-378,-139,0,0,0,0,0,0,0,0,0,-1,846,1163,0,0
-371,-139,0,0,0,0,0,0,0,0,0,-1,853,1163,0,0
-364,-139,0,0,0,0,0,0,0,0,0,-1,860,1163,0,0
-357,-139,0,0,0,0,0,0,0,0,0,-1,867,1163,0,0
-350,-139,0,0,0,0,0,0,0,0,0,-1,874,1163,0,0
-343,-139,0,0,0,0,0,0,0,0,0,-1,881,1163,0,0
-336,-139,0,0,0,0,0,0,0,0,0,-1,888,1163,0,0
-329,-139,0,0,0,0,0,0,0,0,0,-1,895,1163,0,0
-322,-139,0,0,0,0,0,0,0,0,0,-1,902,1163,0,0
-315,-139,0,0,0,0,0,0,0,0,0,-1,909,1163,0,0
-308,-139,0,0,0,0,0,0,0,0,0,-1,916,1163,0,0
-301,-139,0,0,0,0,0,0,0,0,0,-1,923,1163,0,0
-294,-139,0,0,0,0,0,0,0,0,0,-1,930,1163,0,0
-287,-139,0,0,0,0,0,0,0,0,0,-1,937,1163,0,0
-280,-139,0,0,0,0,0,0,0,0,0,-1,944,1163,0,0
-273,-139,0,0,0,0,0,0,0,0,0,-1,951,1163,0,0
-266,-139,0,0,0,0,0,0,0,0,0,-1,958,1163,0,0
-259,-139,0,0,0,0,0,0,0,0,0,-1,965,1163,0,0
-252,-139,0,0,0,0,0,0,0,0,0,-1,972,1163,0,0
-245,-139,0,0,0,0,0,0,0,0,0,-1,979,1163,0,0
-238,-139,0,0,0,0,0,0,0,0,0,-1,986,1163,0,0
-231,-139,0,0,0,0,0,0,0,0,0,-1,993,1163,0,0
-224,-139,0,0,0,0,0,0,0,0,0,-1,1000,1163,0,0
-217,-139,0,0,0,0,0,0,0,0,0,-1,1007,1163,0,0
-210,-139,0,0,0,0,0,0,0,0,0,-1,1014,1163,0,0
-203,-139,0,0,0,0,0,0,0,0,0,-1,1021,1163,0,0
-196,-139,0,0,0,0,0,0,0,0,0,-1,1028,1163,0,0
-189,-139,0,0,0,0,0,0,0,0,0,-1,1035,1163,0,0
-182,-139,0,0,0,0,0,0,0,0,0,-1,1042,1163,0,0
-175,-139,0,0,0,0,0,0,0,0,0,-1,1049,1163,0,0
-168,-139,0,0,0,0,0,0,0,0,0,-1,1056,1163,0,0
-161,-139,0,0,0,0,0,0,0,0,0,-1,1063,1163,0,0
-154,-139,0,0,0,0,0,0,0,0,0,-1,1070,1163,0,0
-147,-139,0,0,0,0,0,0,0,0,0,-1,1077,1163,0,0
-140,-139,0,0,0,0,0,0,0,0,0,-1,1084,1163,0,0
-133,-139,0,0,0,0,0,0,0,0,0,-1,1091,1163,0,0
-126,-139,0,0,0,0,0,0,0,0,0,-1,1098,1163,0,0
-119,-139,0,0,0,0,0,0,0,0,0,-1,1105,1163,0,0
-112,-139,0,0,0,0,0,0,0,0,0,-1,1112,1163,0,0
-105,-139,0,0,0,0,0,0,0,0,0,-1,1119,1163,0,0
-98,-139,0,0,0,0,0,0,0,0,0,-1,1126,1163,0,0
-91,-139,0,0,0,0,0,0,0,0,0,-1,1133,1163,0,0
-84,-139,0,0,0,0,0,0,0,0,0,-1,1140,1163,0,0
-77,-139,0,0,0,0,0,0,0,0,0,-1,1147,1163,0,0
-70,-139,0,0,0,0,0,0,0,0,0,-1,1154,1163,0,0
-63,-139,0,0,0,0,0,0,0,0,0,-1,1161,1163,0,0
-56,-139,0,0,0,0,0,0,0,0,0,-1,1168,1163,0,0
-49,-139,0,0,0,0,0,0,0,0,0,-1,1175,1163,0,0
-42,-139,0,0,0,0,0,0,0,0,0,-1,1182,1163,0,0
-35,-139,0,0,0,0,0,0,0,0,0,-1,1189,1163,0,0
-28,-139,0,0,0,0,0,0,0,0,0,-1,1196,1163,0,0
-21,-139,0,0,0,0,0,0,0,0,0,-1,1203,1163,0,0
-14,-139,0,0,0,0,0,0,0,0,0,-1,1210,1163,0,0
-7,-139,0,0,0,0,0,0,0,0,0,-1,1217,1163,0,0
0,-139,0,0,0,0,0,0,0,0,0,-1,1224,1163,0,0
7,-139,0,0,0,0,0,0,0,0,0,-1,1231,1163,0,0
14,-139,0,0,0,0,0,0,0,0,0,-1,1238,1163,0,0
21,-139,0,0,0,0,0,0,0,0,0,-1,1245,1163,0,0
28,-139,0,0,0,0,0,0,0,0,0,-1,1252,1163,0,0
35,-139,0,0,0,0,0,0,0,0,0,-1,1259,1163,0,0
42,-139,0,0,0,0,0,0,0,0,0,-1,1266,1163,0,0
49,-139,0,0,0,0,0,0,0,0,0,-1,1273,1163,0,0
56,-139,0,0,0,0,0,0,0,0,0,-1,1280,1163,0,0
63,-139,0,0,0,0,0,0,0,0,0,-1,1287,1163,0,0
70,-139,0,0,0,0,0,0,0,0,0,-1,1294,1163,0,0
77,-139,0,0,0,0,0,0,0,0,0,-1,1301,1163,0,0
84,-139,0,0,0,0,0,0,0,0,0,-1,1308,1163,0,0
91,-139,0,0,0,0,0,0,0,0,0,-1,1315,1163,0,0
98,-139,0,0,0,0,0,0,0,0,0,-1,1322,1163,0,0
105,-139,0,0,0,0,0,0,0,0,0,-1,1329,1163,0,0
112,-139,0,0,0,0,0,0,0,0,0,-1,1336,1163,0,0
119,-139,0,0,0,0,0,0,0,0,0,-1,1343,1163,0,0
126,-139,0,0,0,0,0,0,0,0,0,-1,1350,1163,0,0
133,-139,0,0,0,0,0,0,0,0,0,-1,1357,1163,0,0
140,-139,0,0,0,0,0,0,0,0,0,-1,1364,1163,0,0
147,-139,0,0,0,0,0,0,0,0,0,-1,1371,1163,0,0
154,-139,0,0,0,0,0,0,0,0,0,-1,1378,1163,0,0
161,-139,0,0,0,0,0,0,0,0,0,-1,1385,1163,0,0
168,-139,0,0,0,0,0,0,0,0,0,-1,1392,1163,0,0
175,-139,0,0,0,0,0,0,0,0,0,-1,1399,1163,0,0
182,-139,0,0,0,0,0,0,0,0,0,-1,1406,1163,0,0
189,-139,0,0,0,0,0,0,0,0,0,-1,1413,1163,0,0
196,-139,0,0,0,0,0,0,0,0,0,-1,1420,1163,0,0
203,-139,0,0,0,0,0,0,0,0,0,-1,1427,1163,0,0
210,-139,0,0,0,0,0,0,0,0,0,-1,1434,1163,0,0
217,-139,0,0,0,0,0,0,0,0,0,-1,1441,1163,0,0
224,-139,0,0,0,0,0,0,0,0,0,-1,1448,1163,0,0
231,-139,0,0,0,0,0,0,0,0,0,-1,1455,1163,0,0
238,-139,0,0,0,0,0,0,0,0,0,-1,1462,1163,0,0
245,-139,0,0,0,0,0,0,0,0,0,-1,1469,1163,0,0
252,-139,0,0,0,0,0,0,0,0,0,-1,1476,1163,0,0
259,-139,0,0,0,0,0,0,0,0,0,-1,1483,1163,0,0
266,-139,0,0,0,0,0,0,0,0,0,-1,1490,1163,0,0
273,-139,0,0,0,0,0,0,0,0,0,-1,1497,1163,0,0
280,-139,0,0,0,0,0,0,0,0,0,-1,1504,1163,0,0
287,-139,0,0,0,0,0,0,0,0,0,-1,1511,1163,0,0
294,-139,0,0,0,0,0,0,0,0,0,-1,1518,1163,0,0
301,-139,0,0,0,0,0,0,0,0,0,-1,1525,1163,0,0
308,-139,0,0,0,0,0,0,0,0,0,-1,1532,1163,0,0
315,-139,0,0,0,0,0,0,0,0,0,-1,1539,1163,0,0
322,-139,0,0,0,0,0,0,0,0,0,-1,1546,1163,0,0
329,-139,0,0,0,0,0,0,0,0,0,-1,1553,1163,0,0
336,-139,0,0,0,0,0,0,0,0,0,-1,1560,1163,0,0
343,-139,0,0,0,0,0,0,0,0,0,-1,1567,1163,0,0
350,-139,0,0,0,0,0,0,0,0,0,-1,1574,1163,0,0
357,-139,0,0,0,0,0,0,0,0,0,-1,1581,1163,0,0
364,-139,0,0,0,0,0,0,0,0,0,-1,1588,1163,0,0
371,-139,0,0,0,0,0,0,0,0,0,-1,1595,1163,0,0
378,-139,0,0,0,0,0,0,0,0,0,-1,1602,1163,0,0
385,-139,0,0,0,0,0,0,0,0,0,-1,1609,1163,0,0
392,-139,0,0,0,0,0,0,0,0,0,-1,1616,1163,0,0
399,-139,0,0,0,0,0,0,0,0,0,-1,1623,1163,0,0
406,-139,0,0,0,0,0,0,0,0,0,-1,1630,1163,0,0
413,-139,0,0,0,0,0,0,0,0,0,-1,1637,1163,0,0
420,-139,0,0,0,0,0,0,0,0,0,-1,1644,1163,0,0
427,-139,0,0,0,0,0,0,0,0,0,-1,1651,1163,0,0
434,-139,0,0,0,0,0,0,0,0,0,-1,1658,1163,0,0
441,-139,0,0,0,0,0,0,0,0,0,-1,1665,1163,0,0
448,-139,0,0,0,0,0,0,0,0,0,-1,1672,1163,0,0
455,-139,0,0,0,0,0,0,0,0,0,-1,1679,1163,0,0
462,-139,0,0,0,0,0,0,0,0,0,-1,1686,1163,0,0
469,-139,0,0,0,0,0,0,0,0,0,-1,1693,1163,0,0
476,-139,0,0,0,0,0,0,0,0,0,-1,1700,1163,0,0
483,-139,0,0,0,0,0,0,0,0,0,-1,1707,1163,0,0
490,-139,0,0,0,0,0,0,0,0,0,-1,1714,1163,0,0
497,-139,0,0,0,0,0,0,0,0,0,-1,1721,1163,0,0
504,-139,0,0,0,0,0,0,0,0,0,-1,1728,1163,0,0
511,-139,0,0,0,0,0,0,0,0,0,-1,1735,1163,0,0
518,-139,0,0,0,0,0,0,0,0,0,-1,1742,1163,0,0
525,-139,0,0,0,0,0,0,0,0,0,-1,1749,1163,0,0
532,-139,0,0,0,0,0,0,0,0,0,-1,1756,1163,0,0
539,-139,0,0,0,0,0,0,0,0,0,-1,1763,1163,0,0
546,-139,0,0,0,0,0,0,0,0,0,-1,1770,1163,0,0
553,-139,0,0,0,0,0,0,0,0,0,-1,1777,1163,0,0
560,-139,0,0,0,0,0,0,0,0,0,-1,1784,1163,0,0
567,-139,0,0,0,0,0,0,0,0,0,-1,1791,1163,0,0
574,-139,0,0,0,0,0,0,0,0,0,-1,1798,1163,0,0
581,-139,0,0,0,0,0,0,0,0,0,-1,1805,1163,0,0
588,-139,0,0,0,0,0,0,0,0,0,-1,1812,1163,0,0
595,-139,0,0,0,0,0,0,0,0,0,-1,1819,1163,0,0
602,-139,0,0,0,0,0,0,0,0,0,-1,1826,1163,0,0
609,-139,0,0,0,0,0,0,0,0,0,-1,1833,1163,0,0
616,-139,0,0,0,0,0,0,0,0,0,-1,1840,1163,0,0
623,-139,0,0,0,0,0,0,0,0,0,-1,1847,1163,0,0
630,-139,0,0,0,0,0,0,0,0,0,-1,1854,1163,0,0
637,-139,0,0,0,0,0,0,0,0,0,-1,1861,1163,0,0
644,-139,23.4664,2.52319,0.00170653,-1.79918e-05,0.00267905,0.00365867,-0.00197012,0.629706,0.00329816,0.0404784,1868,1163,23.4665,-2.52317
651,-139,23.4755,2.48706,0.00132618,0.000281616,0.00254269,0.00339967,-0.00179188,0.684105,0.00304488,0.040641,1875,1163,23.4755,-2.48702
658,-139,23.5852,2.6333,0.00117487,0.000540711,0.00214025,0.00302139,-0.00130582,0.711858,0.00256293,0.0415025,1882,1163,23.5852,-2.63333
665,-139,23.6594,2.75403,0.000271381,0.00048683,0.00232821,0.0027098,-0.00195159,0.808516,0.0027031,0.0403237,1889,1163,23.6595,-2.75399
672,-139,23.6697,2.80078,-0.000886374,0.000256927,0.00270632,0.00245131,-0.00308075,0.889482,0.00320082,0.0391097,1896,1163,23.6697,-2.80073
679,-139,23.661,2.83215,-0.00207327,-4.53148e-05,0.00309932,0.00220168,-0.00432027,0.94349,0.0038311,0.0353406,1903,1163,23.6611,-2.83215
686,-139,23.6365,2.81665,-0.00317966,-0.00039065,0.00345913,0.00194449,-0.0055148,0.977002,0.00446804,0.0332938,1910,1163,23.6365,-2.81664
693,-139,23.5967,2.75183,-0.00403042,-0.00061923,0.00371694,0.00176475,-0.00641441,1.0005,0.00497008,0.024225,1917,1163,23.5967,-2.75184
700,-139,23.5348,3.19458,0,0,0,0,0,0,0,-1,1924,1163,23.5348,-3.19459
707,-139,22.7119,4.00977,-0.00520748,-0.0009829,0.00402628,0.00145153,-0.00764192,1.02697,0.00564105,0.0344092,1931,1163,22.7119,-4.00973
714,-139,21.9141,4.88928,-0.00557116,-0.00105141,0.00409127,0.00136263,-0.0079852,1.03773,0.00583099,0.0299866,1938,1163,21.9141,-4.8893
721,-139,21.8773,4.6908,-0.00569901,-0.00109265,0.00403254,0.0012481,-0.00803975,1.04487,0.00582064,0.0221337,1945,1163,21.8773,-4.6908
728,-139,21.8348,4.55896,-0.00563219,-0.000958059,0.00364094,0.00103134,-0.00762159,1.07072,0.00545742,0.0217335,1952,1163,21.8348,-4.55892
735,-139,21.8442,4.4801,-0.00520933,-0.000544974,0.00311611,0.00101504,-0.00676935,1.10664,0.00488651,0.0172178,1959,1163,21.8442,-4.48006
742,-139,21.8274,4.29834,-0.00422193,-3.88489e-05,0.00280821,0.00137112,-0.0056319,1.10548,0.00428539,0.0233304,1966,1163,21.8274,-4.2983
749,-139,21.8158,4.1637,-0.00141233,0.00123083,0.00292053,0.00311488,-0.00329639,0.997869,0.00370204,0.0198873,1973,1163,21.8158,-4.16364
756,-139,21.8217,4.0603,0.00324777,0.00225256,0.00294355,0.00573548,-0.000235149,0.701665,0.0039044,0.0107161,1980,1163,21.8216,-4.06029
763,-139,21.8473,3.94495,0.0084272,0.00402228,0.00313545,0.0100564,0.00239305,0.479217,0.00606604,0.0103658,1987,1163,21.8473,-3.94492
770,-139,21.8452,3.83313,0.0148602,0.00566663,0.0041288,0.0164422,0.00408463,0.365908,0.00988533,0.0119079,1994,1163,21.8452,-3.83308
777,-139,21.8021,3.72559,0.023081,0.00752921,0.00609592,0.0251856,0.00542458,0.332439,0.0153061,0.0228008,2001,1163,21.8021,-3.72557
784,-139,21.7593,3.6062,0.0341558,0.00970602,0.00897178,0.0370947,0.00676711,0.316557,0.0228112,0.0420923,2008,1163,21.7593,-3.60625
791,-139,20.2963,3.36877,0,0,0,0,0,0,0,-1,2015,1163,20.2963,-3.3688
798,-139,19.5781,2.79578,0.0684069,0.0151865,0.0179126,0.0738742,0.00971924,0.296238,0.0463506,0.0491305,2022,1163,19.5782,-2.79583
805,-139,22.55,1.9248,0.0939307,0.0185559,0.0243136,0.101093,0.0113936,0.286475,0.0639367,0.0440896,2029,1163,22.55,-1.92485
812,-139,0,0,0,0,0,0,0,0,0,-1,2036,1163,0,0
-700,-146,0,0,0,0,0,0,0,0,0,-1,524,1170,0,0
-693,-146,-14.2532,-1.09045,0,0,0,0,0,0,0,-1,531,1170,-14.2532,1.0904
-686,-146,-14.3657,-1.02173,0,0,0,0,0,0,0,-1,538,1170,-14.3656,1.02167
-679,-146,-14.1671,-0.531738,0,0,0,0,0,0,0,-1,545,1170,-14.1671,0.531794
-672,-146,-14.2926,-0.250122,-0.0280051,0.00375816,0.0228479,0.0157019,-0.0399488,1.08911,0.0331309,0.0446093,552,1170,-14.2926,0.250065
-665,-146,-14.3932,0.0515137,-0.0193644,0.00095629,0.018948,0.0122962,-0.0307043,1.0315,0.0255734,0.0422645,559,1170,-14.3933,-0.0515432
-658,-146,-13.7572,0.943237,0,0,0,0,0,0,0,-1,566,1170,-13.7572,-0.94326
-651,-146,-13.8246,1.04309,-0.00748784,-0.000999857,0.0115417,0.00774505,-0.0162327,0.922397,0.0141297,0.0388249,573,1170,-13.8246,-1.04312
-644,-146,-13.9123,1.15576,-0.00405358,-0.00105407,0.00843264,0.00601114,-0.0111188,0.873404,0.0100354,0.0196978,580,1170,-13.9123,-1.15578
-637,-146,-13.9066,1.31409,-0.00171017,-0.00126681,0.00571175,0.00422756,-0.00720454,0.804794,0.00667451,0.0110431,587,1170,-13.9066,-1.31409
-630,-146,-13.9235,1.48254,-0.000916436,-0.00141272,0.00319186,0.00203692,-0.00436607,0.746605,0.00377741,0.0107492,594,1170,-13.9235,-1.48255
-623,-146,-13.9425,1.64355,-0.00148251,-0.00131453,0.00070311,-0.000690415,-0.00210663,0.844845,0.00124009,0.012641,601,1170,-13.9425,-1.6436
-616,-146,-14.0128,1.80615,-0.00304929,-0.00198701,-0.00178361,-0.00065714,-0.00437917,-0.930112,0.00272692,0.0190503,608,1170,-14.0128,-1.80621
-609,-146,-13.9114,1.95166,-0.00466705,-0.00241593,-0.0038083,0.00042966,-0.00751264,-0.929085,0.00515762,0.0185171,615,1170,-13.9114,-1.95162
-602,-146,-14.0046,2.22668,-0.00699691,-0.00313998,-0.00540515,0.000670418,-0.0108073,-0.956751,0.00743843,0.0262522,622,1170,-14.0046,-2.22666
-595,-146,-14.0916,2.3241,-0.009144,-0.00381186,-0.00647259,0.000522239,-0.0134781,-0.98076,0.00916444,0.0154875,629,1170,-14.0915,-2.32411
-588,-146,-14.0024,2.51538,-0.0106948,-0.0042887,-0.00696521,0.00017464,-0.0151582,-1.00091,0.0101642,0.0173995,636,1170,-14.0024,-2.51533
-581,-146,-13.8907,2.68811,-0.0114725,-0.00455349,-0.00727619,4.37349e-05,-0.0160698,-1.00731,0.0107278,0.0337727,643,1170,-13.8907,-2.68814
-574,-146,-14.889,1.72351,0,0,0,0,0,0,0,-1,650,1170,-14.8891,-1.72348
-567,-146,-16.0032,0.980835,0,0,0,0,0,0,0,-1,657,1170,-16.0032,-0.980815
-560,-146,-15.9478,0.85498,-0.0105522,-0.00405326,-0.00650705,-2.9441e-05,-0.014576,-1.01697,0.00970755,0.0349343,664,1170,-15.9478,-0.854944
-553,-146,-15.9496,0.872192,-0.00902096,-0.00324206,-0.00547456,5.87865e-05,-0.0123218,-1.02822,0.0082342,0.0346415,671,1170,-15.9496,-0.872249
-546,-146,-15.897,0.774658,-0.00643611,-0.00204239,-0.00391124,0.000246725,-0.00872523,-1.04128,0.00590078,0.0377174,678,1170,-15.897,-0.774615
-539,-146,-15.9622,0.919067,-0.0026175,-0.000444054,-0.00170961,0.000494987,-0.00355654,-1.06851,0.00255207,0.0396689,685,1170,-15.9622,-0.919038
-532,-146,-16.0887,0.884277,0.00290508,0.00153118,0.00112049,0.00353244,0.000903821,0.510407,0.00211894,0.0394878,692,1170,-16.0888,-0.884277
-525,-146,-15.9724,0.695801,0.00846847,0.00333111,0.00301348,0.00985948,0.0019401,0.432456,0.00603122,0.0415565,699,1170,-15.9724,-0.695854
-518,-146,0,0,0,0,0,0,0,0,0,-1,706,1170,0,0
-511,-146,0,0,0,0,0,0,0,0,0,-1,713,1170,0,0
-504,-146,0,0,0,0,0,0,0,0,0,-1,720,1170,0,0
-497,-146,0,0,0,0,0,0,0,0,0,-1,727,1170,0,0
-490,-146,0,0,0,0,0,0,0,0,0,-1,734,1170,0,0
-483,-146,0,0,0,0,0,0,0,0,0,-1,741,1170,0,0
-476,-146,0,0,0,0,0,0,0,0,0,-1,748,1170,0,0
-469,-146,0,0,0,0,0,0,0,0,0,-1,755,1170,0,0
-462,-146,0,0,0,0,0,0,0,0,0,-1,762,1170,0,0
-455,-146,0,0,0,0,0,0,0,0,0,-1,769,1170,0,0
-448,-146,0,0,0,0,0,0,0,0,0,-1,776,1170,0,0
-441,-146,0,0,0,0,0,0,0,0,0,-1,783,1170,0,0
-434,-146,0,0,0,0,0,0,0,0,0,-1,790,1170,0,0
-427,-146,0,0,0,0,0,0,0,0,0,-1,797,1170,0,0
-420,-146,0,0,0,0,0,0,0,0,0,-1,804,1170,0,0
-413,-146,0,0,0,0,0,0,0,0,0,-1,811,1170,0,0
-406,-146,0,0,0,0,0,0,0,0,0,-1,818,1170,0,0
-399,-146,0,0,0,0,0,0,0,0,0,-1,825,1170,0,0
-392,-146,0,0,0,0,0,0,0,0,0,-1,832,1170,0,0
-385,-146,0,0,0,0,0,0,0,0,0,-1,839,1170,0,0
-378,-146,0,0,0,0,0,0,0,0,0,-1,846,1170,0,0
-371,-146,0,0,0,0,0,0,0,0,0,-1,853,1170,0,0
-364,-146,0,0,0,0,0,0,0,0,0,-1,860,1170,0,0
-357,-146,0,0,0,0,0,0,0,0,0,-1,867,1170,0,0
-350,-146,0,0,0,0,0,0,0,0,0,-1,874,1170,0,0
-343,-146,0,0,0,0,0,0,0,0,0,-1,881,1170,0,0
-336,-146,0,0,0,0,0,0,0,0,0,-1,888,1170,0,0
-329,-146,0,0,0,0,0,0,0,0,0,-1,895,1170,0,0
-322,-146,0,0,0,0,0,0,0,0,0,-1,902,1170,0,0
-315,-146,0,0,0,0,0,0,0,0,0,-1,909,1170,0,0
-308,-146,0,0,0,0,0,0,0,0,0,-1,916,1170,0,0
-301,-146,0,0,0,0,0,0,0,0,0,-1,923,1170,0,0
-294,-146,0,0,0,0,0,0,0,0,0,-1,930,1170,0,0
-287,-146,0,0,0,0,0,0,0,0,0,-1,937,1170,0,0
-280,-146,0,0,0,0,0,0,0,0,0,-1,944,1170,0,0
-273,-146,0,0,0,0,0,0,0,0,0,-1,951,1170,0,0
-266,-146,0,0,0,0,0,0,0,0,0,-1,958,1170,0,0
-259,-146,0,0,0,0,0,0,0,0,0,-1,965,1170,0,0
-252,-146,0,0,0,0,0,0,0,0,0,-1,972,1170,0,0
-245,-146,0,0,0,0,0,0,0,0,0,-1,979,1170,0,0
-238,-146,0,0,0,0,0,0,0,0,0,-1,986,1170,0,0
-231,-146,0,0,0,0,0,0,0,0,0,-1,993,1170,0,0
-224,-146,0,0,0,0,0,0,0,0,0,-1,1000,1170,0,0
-217,-146,0,0,0,0,0,0,0,0,0,-1,1007,1170,0,0
-210,-146,0,0,0,0,0,0,0,0,0,-1,1014,1170,0,0
-203,-146,0,0,0,0,0,0,0,0,0,-1,1021,1170,0,0
-196,-146,0,0,0,0,0,0,0,0,0,-1,1028,1170,0,0
-189,-146,0,0,0,0,0,0,0,0,0,-1,1035,1170,0,0
-182,-146,0,0,0,0,0,0,0,0,0,-1,1042,1170,0,0
-175,-146,0,0,0,0,0,0,0,0,0,-1,1049,1170,0,0
-168,-146,0,0,0,0,0,0,0,0,0,-1,1056,1170,0,0
-161,-146,0,0,0,0,0,0,0,0,0,-1,1063,1170,0,0
-154,-146,0,0,0,0,0,0,0,0,0,-1,1070,1170,0,0
-147,-146,0,0,0,0,0,0,0,0,0,-1,1077,1170,0,0
-140,-146,0,0,0,0,0,0,0,0,0,-1,1084,1170,0,0
-133,-146,0,0,0,0,0,0,0,0,0,-1,1091,1170,0,0
-126,-146,0,0,0,0,0,0,0,0,0,-1,1098,1170,0,0
-119,-146,0,0,0,0,0,0,0,0,0,-1,1105,1170,0,0
-112,-146,0,0,0,0,0,0,0,0,0,-1,1112,1170,0,0
-105,-146,0,0,0,0,0,0,0,0,0,-1,1119,1170,0,0
-98,-146,0,0,0,0,0,0,0,0,0,-1,1126,1170,0,0
-91,-146,0,0,0,0,0,0,0,0,0,-1,1133,1170,0,0
-84,-146,0,0,0,0,0,0,0,0,0,-1,1140,1170,0,0
-77,-146,0,0,0,0,0,0,0,0,0,-1,1147,1170,0,0
-70,-146,0,0,0,0,0,0,0,0,0,-1,1154,1170,0,0
-63,-146,0,0,0,0,0,0,0,0,0,-1,1161,1170,0,0
-56,-146,0,0,0,0,0,0,0,0,0,-1,1168,1170,0,0
-49,-146,0,0,0,0,0,0,0,0,0,-1,1175,1170,0,0
-42,-146,0,0,0,0,0,0,0,0,0,-1,1182,1170,0,0
-35,-146,0,0,0,0,0,0,0,0,0,-1,1189,1170,0,0
-28,-146,0,0,0,0,0,0,0,0,0,-1,1196,1170,0,0
-21,-146,0,0,0,0,0,0,0,0,0,-1,1203,1170,0,0
-14,-146,0,0,0,0,0,0,0,0,0,-1,1210,1170,0,0
-7,-146,0,0,0,0,0,0,0,0,0,-1,1217,1170,0,0
0,-146,0,0,0,0,0,0,0,0,0,-1,1224,1170,0,0
7,-146,0,0,0,0,0,0,0,0,0,-1,1231,1170,0,0
14,-146,0,0,0,0,0,0,0,0,0,-1,1238,1170,0,0
21,-146,0,0,0,0,0,0,0,0,0,-1,1245,1170,0,0
28,-146,0,0,0,0,0,0,0,0,0,-1,1252,1170,0,0
35,-146,0,0,0,0,0,0,0,0,0,-1,1259,1170,0,0
42,-146,0,0,0,0,0,0,0,0,0,-1,1266,1170,0,0
49,-146,0,0,0,0,0,0,0,0,0,-1,1273,1170,0,0
56,-146,0,0,0,0,0,0,0,0,0,-1,1280,1170,0,0
63,-146,0,0,0,0,0,0,0,0,0,-1,1287,1170,0,0
70,-146,0,0,0,0,0,0,0,0,0,-1,1294,1170,0,0
77,-146,0,0,0,0,0,0,0,0,0,-1,1301,1170,0,0
84,-146,0,0,0,0,0,0,0,0,0,-1,1308,1170,0,0
91,-146,0,0,0,0,0,0,0,0,0,-1,1315,1170,0,0
98,-146,0,0,0,0,0,0,0,0,0,-1,1322,1170,0,0
105,-146,0,0,0,0,0,0,0,0,0,-1,1329,1170,0,0
112,-146,0,0,0,0,0,0,0,0,0,-1,1336,1170,0,0
119,-146,0,0,0,0,0,0,0,0,0,-1,1343,1170,0,0
126,-146,0,0,0,0,0,0,0,0,0,-1,1350,1170,0,0
133,-146,0,0,0,0,0,0,0,0,0,-1,1357,1170,0,0
140,-146,0,0,0,0,0,0,0,0,0,-1,1364,1170,0,0
147,-146,0,0,0,0,0,0,0,0,0,-1,1371,1170,0,0
154,-146,0,0,0,0,0,0,0,0,0,-1,1378,1170,0,0
161,-146,0,0,0,0,0,0,0,0,0,-1,1385,1170,0,0
168,-146,0,0,0,0,0,0,0,0,0,-1,1392,1170,0,0
175,-146,0,0,0,0,0,0,0,0,0,-1,1399,1170,0,0
182,-146,0,0,0,0,0,0,0,0,0,-1,1406,1170,0,0
189,-146,0,0,0,0,0,0,0,0,0,-1,1413,1170,0,0
196,-146,0,0,0,0,0,0,0,0,0,-1,1420,1170,0,0
203,-146,0,0,0,0,0,0,0,0,0,-1,1427,1170,0,0
210,-146,0,0,0,0,0,0,0,0,0,-1,1434,1170,0,0
217,-146,0,0,0,0,0,0,0,0,0,-1,1441,1170,0,0
224,-146,0,0,0,0,0,0,0,0,0,-1,1448,1170,0,0
231,-146,0,0,0,0,0,0,0,0,0,-1,1455,1170,0,0
238,-146,0,0,0,0,0,0,0,0,0,-1,1462,1170,0,0
245,-146,0,0,0,0,0,0,0,0,0,-1,1469,1170,0,0
252,-146,0,0,0,0,0,0,0,0,0,-1,1476,1170,0,0
259,-146,0,0,0,0,0,0,0,0,0,-1,1483,1170,0,0
266,-146,0,0,0,0,0,0,0,0,0,-1,1490,1170,0,0
273,-146,0,0,0,0,0,0,0,0,0,-1,1497,1170,0,0
280,-146,0,0,0,0,0,0,0,0,0,-1,1504,1170,0,0
287,-146,0,0,0,0,0,0,0,0,0,-1,1511,1170,0,0
294,-146,0,0,0,0,0,0,0,0,0,-1,1518,1170,0,0
301,-146,0,0,0,0,0,0,0,0,0,-1,1525,1170,0,0
308,-146,0,0,0,0,0,0,0,0,0,-1,1532,1170,0,0
315,-146,0,0,0,0,0,0,0,0,0,-1,1539,1170,0,0
322,-146,0,0,0,0,0,0,0,0,0,-1,1546,1170,0,0
329,-146,0,0,0,0,0,0,0,0,0,-1,1553,1170,0,0
336,-146,0,0,0,0,0,0,0,0,0,-1,1560,1170,0,0
343,-146,0,0,0,0,0,0,0,0,0,-1,1567,1170,0,0
350,-146,0,0,0,0,0,0,0,0,0,-1,1574,1170,0,0
357,-146,0,0,0,0,0,0,0,0,0,-1,1581,1170,0,0
364,-146,0,0,0,0,0,0,0,0,0,-1,1588,1170,0,0
371,-146,0,0,0,0,0,0,0,0,0,-1,1595,1170,0,0
378,-146,0,0,0,0,0,0,0,0,0,-1,1602,1170,0,0
385,-146,0,0,0,0,0,0,0,0,0,-1,1609,1170,0,0
392,-146,0,0,0,0,0,0,0,0,0,-1,1616,1170,0,0
399,-146,0,0,0,0,0,0,0,0,0,-1,1623,1170,0,0
406,-146,0,0,0,0,0,0,0,0,0,-1,1630,1170,0,0
413,-146,0,0,0,0,0,0,0,0,0,-1,1637,1170,0,0
420,-146,0,0,0,0,0,0,0,0,0,-1,1644,1170,0,0
427,-146,0,0,0,0,0,0,0,0,0,-1,1651,1170,0,0
434,-146,0,0,0,0,0,0,0,0,0,-1,1658,1170,0,0
441,-146,0,0,0,0,0,0,0,0,0,-1,1665,1170,0,0
448,-146,0,0,0,0,0,0,0,0,0,-1,1672,1170,0,0
455,-146,0,0,0,0,0,0,0,0,0,-1,1679,1170,0,0
462,-146,0,0,0,0,0,0,0,0,0,-1,1686,1170,0,0
469,-146,0,0,0,0,0,0,0,0,0,-1,1693,1170,0,0
476,-146,0,0,0,0,0,0,0,0,0,-1,1700,1170,0,0
483,-146,0,0,0,0,0,0,0,0,0,-1,1707,1170,0,0
490,-146,0,0,0,0,0,0,0,0,0,-1,1714,1170,0,0
497,-146,0,0,0,0,0,0,0,0,0,-1,1721,1170,0,0
504,-146,0,0,0,0,0,0,0,0,0,-1,1728,1170,0,0
511,-146,0,0,0,0,0,0,0,0,0,-1,1735,1170,0,0
518,-146,0,0,0,0,0,0,0,0,0,-1,1742,1170,0,0
525,-146,0,0,0,0,0,0,0,0,0,-1,1749,1170,0,0
532,-146,0,0,0,0,0,0,0,0,0,-1,1756,1170,0,0
539,-146,0,0,0,0,0,0,0,0,0,-1,1763,1170,0,0
546,-146,0,0,0,0,0,0,0,0,0,-1,1770,1170,0,0
553,-146,0,0,0,0,0,0,0,0,0,-1,1777,1170,0,0
560,-146,0,0,0,0,0,0,0,0,0,-1,1784,1170,0,0
567,-146,0,0,0,0,0,0,0,0,0,-1,1791,1170,0,0
574,-146,0,0,0,0,0,0,0,0,0,-1,1798,1170,0,0
581,-146,0,0,0,0,0,0,0,0,0,-1,1805,1170,0,0
588,-146,0,0,0,0,0,0,0,0,0,-1,1812,1170,0,0
595,-146,0,0,0,0,0,0,0,0,0,-1,1819,1170,0,0
602,-146,0,0,0,0,0,0,0,0,0,-1,1826,1170,0,0
609,-146,0,0,0,0,0,0,0,0,0,-1,1833,1170,0,0
616,-146,0,0,0,0,0,0,0,0,0,-1,1840,1170,0,0
623,-146,0,0,0,0,0,0,0,0,0,-1,1847,1170,0,0
630,-146,0,0,0,0,0,0,0,0,0,-1,1854,1170,0,0
637,-146,23.6545,2.52771,0.000982321,-0.000860094,0.00275175,0.00296297,-0.00284074,0.623876,0.00335102,0.0364636,1861,1170,23.6546,-2.52769
644,-146,23.6191,2.59119,0.000682788,-0.000473363,0.00287941,0.00304158,-0.00283215,0.686334,0.00339192,0.036965,1868,1170,23.6192,-2.59122
651,-146,23.5959,2.72388,0.000706008,-8.84432e-06,0.00254689,0.00292043,-0.00222326,0.715684,0.00297879,0.0369726,1875,1170,23.5959,-2.72391
658,-146,23.6501,2.59668,0.000756006,0.000371758,0.00213044,0.00270297,-0.0015752,0.74043,0.00249845,0.0384827,1882,1170,23.6502,-2.59662
665,-146,23.6719,2.56311,7.115e-05,0.000427948,0.00226672,0.00252327,-0.00202418,0.824669,0.00263074,0.0385932,1889,1170,23.6719,-2.56311
672,-146,23.7017,2.68518,-0.000842875,0.000293841,0.00252625,0.00231488,-0.00286391,0.896046,0.00299557,0.0368389,1896,1170,23.7016,-2.68524
679,-146,23.6628,2.72998,-0.00185528,5.16533e-05,0.00283534,0.00208954,-0.00389317,0.947598,0.00350606,0.0295763,1903,1170,23.6629,-2.72994
686,-146,23.5789,2.72888,-0.00280689,-0.000255012,0.00311335,0.00183371,-0.00489561,0.979873,0.004017,0.0248884,1910,1170,23.5789,-2.7289
693,-146,23.6434,2.70386,-0.00355525,-0.000443874,0.00331346,0.00166093,-0.00566005,1.00488,0.00443199,0.0179236,1917,1170,23.6434,-2.70386
700,-146,23.4126,3.44971,0,0,0,0,0,0,0,-1,1924,1170,23.4126,-3.44968
707,-146,22.4817,4.22546,-0.0046448,-0.000766365,0.00353233,0.00132405,-0.00673522,1.03643,0.00499039,0.039855,1931,1170,22.4817,-4.22551
714,-146,21.822,4.86157,-0.00501407,-0.000831825,0.0036174,0.00125538,-0.00710127,1.04747,0.00520337,0.03014,1938,1170,21.822,-4.86161
721,-146,21.7644,4.72815,-0.00513304,-0.000882908,0.00358066,0.00115581,-0.00717175,1.05321,0.00520935,0.0379799,1945,1170,21.7645,-4.72815
728,-146,21.8302,4.51587,-0.00501559,-0.000772607,0.0031717,0.000921708,-0.00670991,1.08017,0.00481004,0.0274676,1952,1170,21.8302,-4.51584
735,-146,21.7089,4.48706,-0.00451316,-0.000370514,0.0025914,0.000875651,-0.00575932,1.12256,0.00416225,0.0172782,1959,1170,21.7088,-4.48701
742,-146,21.7006,4.33777,-0.00332772,0.000167487,0.00219746,0.00122754,-0.00438777,1.12133,0.00340885,0.0177763,1966,1170,21.7005,-4.33778
749,-146,21.7002,4.19763,-0.000261566,0.00133027,0.0021591,0.00283548,-0.00176678,0.961987,0.00268089,0.0156764,1973,1170,21.7003,-4.19759
756,-146,21.6989,4.05176,0.00474079,0.00211487,0.00199493,0.00581605,0.00103961,0.494357,0.00358148,0.0115086,1980,1170,21.6989,-4.0517
763,-146,21.7069,3.91699,0.0102913,0.00342795,0.00192289,0.0107933,0.00292594,0.255373,0.00644553,0.0105538,1987,1170,21.707,-3.91698
770,-146,21.7021,3.79041,0.0171656,0.0045489,0.00259604,0.0176789,0.00403561,0.195201,0.0106975,0.0116619,1994,1170,21.7021,-3.79046
777,-146,21.6298,3.68933,0.0260035,0.00565452,0.00410744,0.0268014,0.00485671,0.191846,0.0164888,0.0210201,2001,1170,21.6297,-3.68935
784,-146,21.5854,3.47949,0.0378377,0.00671955,0.00643754,0.0391169,0.00544037,0.196151,0.0244669,0.0411352,2008,1170,21.5855,-3.47953
791,-146,21.6224,3.15344,0.0534972,0.00765387,0.00976035,0.0554887,0.00566234,0.20128,0.0352569,0.045909,2015,1170,21.6224,-3.15338
798,-146,21.6771,3.01196,0,0,0,0,0,0,0,-1,2022,1170,21.6771,-3.01195
805,-146,22.4514,2.36792,0,0,0,0,0,0,0,-1,2029,1170,22.4515,-2.36794
812,-146,0,0,0,0,0,0,0,0,0,-1,2036,1170,0,0
-700,-153,0,0,0,0,0,0,0,0,0,-1,524,1177,0,0
-693,-153,0,0,0,0,0,0,0,0,0,-1,531,1177,0,0
-686,-153,-14.0547,-1.03235,0,0,0,0,0,0,0,-1,538,1177,-14.0547,1.03237
-679,-153,-14.1939,-0.49939,-0.0339998,0.00731628,0.0274789,0.0210362,-0.0477198,1.10772,0.0406805,0.0483736,545,1177,-14.1939,0.499351
-672,-153,-14.4037,-0.313965,-0.0234362,0.0027052,0.0234279,0.0164619,-0.037193,1.03985,0.0317391,0.0459858,552,1177,-14.4037,0.313987
-665,-153,-14.6313,-0.0800781,-0.015125,0.000145713,0.0192492,0.0132186,-0.0281978,0.974209,0.0244275,0.0449867,559,1177,-14.6314,0.0801135
-658,-153,-13.6638,0.766235,0,0,0,0,0,0,0,-1,566,1177,-13.6638,-0.766214
-651,-153,-13.6884,0.92395,-0.00436505,-0.00138418,0.0114806,0.00870233,-0.0144516,0.849948,0.0135046,0.0468472,573,1177,-13.6884,-0.92389
-644,-153,-13.7335,1.12183,-0.00157737,-0.0012804,0.00828512,0.00685757,-0.00971534,0.794358,0.00961567,0.0258799,580,1177,-13.7335,-1.12178
-637,-153,-13.7278,1.29053,0.000180562,-0.00132519,0.00557164,0.00504996,-0.00619459,0.718242,0.00650325,0.0111341,587,1177,-13.7278,-1.29054
-630,-153,-13.7415,1.46655,0.00048406,-0.00134851,0.00315285,0.00285107,-0.00371553,0.643983,0.00380216,0.0102815,594,1177,-13.7415,-1.46651
-623,-153,-13.7648,1.63599,-0.000523269,-0.0012492,0.000778436,-2.73362e-05,-0.00174513,0.567245,0.00115442,0.0102038,601,1177,-13.7648,-1.63593
-616,-153,-13.7787,1.7876,-0.00251928,-0.00192224,-0.00166379,-0.000530407,-0.00391112,-0.874165,0.00244982,0.0135571,608,1177,-13.7787,-1.78756
-609,-153,-13.7538,1.94202,-0.00441481,-0.00230243,-0.00369884,0.000488062,-0.0072053,-0.92447,0.00497421,0.0181041,615,1177,-13.7538,-1.94204
-602,-153,-13.7867,2.12891,-0.0071249,-0.00306111,-0.00533535,0.000616158,-0.0108022,-0.967337,0.00741537,0.0286235,622,1177,-13.7867,-2.12892
-595,-153,-13.8989,2.30896,-0.00959369,-0.00374921,-0.00642516,0.000387035,-0.0137299,-0.998822,0.00928499,0.0242568,629,1177,-13.8989,-2.309
-588,-153,-13.8663,2.50757,-0.0113459,-0.00421456,-0.00696094,4.08054e-05,-0.0156013,-1.02209,0.0104145,0.0158272,636,1177,-13.8664,-2.50752
-581,-153,-13.763,2.61646,-0.0122865,-0.00446673,-0.00735007,-5.1314e-05,-0.0167019,-1.02984,0.0111176,0.0231985,643,1177,-13.763,-2.61643
-574,-153,-14.4625,1.93811,0,0,0,0,0,0,0,-1,650,1177,-14.4625,-1.93808
-567,-153,-15.0042,0.655273,0,0,0,0,0,0,0,-1,657,1177,-15.0041,-0.655317
-560,-153,-15.8933,0.826416,-0.0115584,-0.00388574,-0.00660932,-8.00476e-05,-0.0153641,-1.04836,0.0102162,0.040447,664,1177,-15.8933,-0.826438
-553,-153,-15.9133,0.944824,-0.0100836,-0.00305742,-0.00560537,4.47743e-05,-0.0131858,-1.06532,0.00880549,0.0353762,671,1177,-15.9133,-0.944807
-546,-153,-15.7502,0.716797,-0.00750809,-0.00186096,-0.0040376,0.000242416,-0.00961146,-1.09053,0.00648996,0.0360405,678,1177,-15.7502,-0.716777
-539,-153,-15.9988,0.708008,-0.00367157,-0.00028932,-0.00178388,0.00047763,-0.00443852,-1.16475,0.00313039,0.0396399,685,1177,-15.9988,-0.707954
-532,-153,-16.2247,0.786865,0.00194511,0.00164085,0.00123548,0.00303779,0.000548168,0.724139,0.00186946,0.0416447,692,1177,-16.2248,-0.786908
-525,-153,-16.0659,0.830688,0.0082222,0.00349103,0.00388541,0.0104055,0.00130772,0.511952,0.00654479,0.0423102,699,1177,-16.0659,-0.830673
-518,-153,0,0,0,0,0,0,0,0,0,-1,706,1177,0,0
-511,-153,0,0,0,0,0,0,0,0,0,-1,713,1177,0,0
-504,-153,0,0,0,0,0,0,0,0,0,-1,720,1177,0,0
-497,-153,0,0,0,0,0,0,0,0,0,-1,727,1177,0,0
-490,-153,0,0,0,0,0,0,0,0,0,-1,734,1177,0,0
-483,-153,0,0,0,0,0,0,0,0,0,-1,741,1177,0,0
-476,-153,0,0,0,0,0,0,0,0,0,-1,748,1177,0,0
-469,-153,0,0,0,0,0,0,0,0,0,-1,755,1177,0,0
-462,-153,0,0,0,0,0,0,0,0,0,-1,762,1177,0,0
-455,-153,0,0,0,0,0,0,0,0,0,-1,769,1177,0,0
-448,-153,0,0,0,0,0,0,0,0,0,-1,776,1177,0,0
-441,-153,0,0,0,0,0,0,0,0,0,-1,783,1177,0,0
-434,-153,0,0,0,0,0,0,0,0,0,-1,790,1177,0,0
-427,-153,0,0,0,0,0,0,0,0,0,-1,797,1177,0,0
-420,-153,0,0,0,0,0,0,0,0,0,-1,804,1177,0,0
-413,-153,0,0,0,0,0,0,0,0,0,-1,811,1177,0,0
-406,-153,0,0,0,0,0,0,0,0,0,-1,818,1177,0,0
-399,-153,0,0,0,0,0,0,0,0,0,-1,825,1177,0,0
-392,-153,0,0,0,0,0,0,0,0,0,-1,832,1177,0,0
-385,-153,0,0,0,0,0,0,0,0,0,-1,839,1177,0,0
-378,-153,0,0,0,0,0,0,0,0,0,-1,846,1177,0,0
-371,-153,0,0,0,0,0,0,0,0,0,-1,853,1177,0,0
-364,-153,0,0,0,0,0,0,0,0,0,-1,860,1177,0,0
-357,-153,0,0,0,0,0,0,0,0,0,-1,867,1177,0,0
-350,-153,0,0,0,0,0,0,0,0,0,-1,874,1177,0,0
-343,-153,0,0,0,0,0,0,0,0,0,-1,881,1177,0,0
-336,-153,0,0,0,0,0,0,0,0,0,-1,888,1177,0,0
-329,-153,0,0,0,0,0,0,0,0,0,-1,895,1177,0,0
-322,-153,0,0,0,0,0,0,0,0,0,-1,902,1177,0,0
-315,-153,0,0,0,0,0,0,0,0,0,-1,909,1177,0,0
-308,-153,0,0,0,0,0,0,0,0,0,-1,916,1177,0,0
-301,-153,0,0,0,0,0,0,0,0,0,-1,923,1177,0,0
-294,-153,0,0,0,0,0,0,0,0,0,-1,930,1177,0,0
-287,-153,0,0,0,0,0,0,0,0,0,-1,937,1177,0,0
-280,-153,0,0,0,0,0,0,0,0,0,-1,944,1177,0,0
-273,-153,0,0,0,0,0,0,0,0,0,-1,951,1177,0,0
-266,-153,0,0,0,0,0,0,0,0,0,-1,958,1177,0,0
-259,-153,0,0,0,0,0,0,0,0,0,-1,965,1177,0,0
-252,-153,0,0,0,0,0,0,0,0,0,-1,972,1177,0,0
-245,-153,0,0,0,0,0,0,0,0,0,-1,979,1177,0,0
-238,-153,0,0,0,0,0,0,0,0,0,-1,986,1177,0,0
-231,-153,0,0,0,0,0,0,0,0,0,-1,993,1177,0,0
-224,-153,0,0,0,0,0,0,0,0,0,-1,1000,1177,0,0
-217,-153,0,0,0,0,0,0,0,0,0,-1,1007,1177,0,0
-210,-153,0,0,0,0,0,0,0,0,0,-1,1014,1177,0,0
-203,-153,0,0,0,0,0,0,0,0,0,-1,1021,1177,0,0
-196,-153,0,0,0,0,0,0,0,0,0,-1,1028,1177,0,0
-189,-153,0,0,0,0,0,0,0,0,0,-1,1035,1177,0,0
-182,-153,0,0,0,0,0,0,0,0,0,-1,1042,1177,0,0
-175,-153,0,0,0,0,0,0,0,0,0,-1,1049,1177,0,0
-168,-153,0,0,0,0,0,0,0,0,0,-1,1056,1177,0,0
-161,-153,0,0,0,0,0,0,0,0,0,-1,1063,1177,0,0
-154,-153,0,0,0,0,0,0,0,0,0,-1,1070,1177,0,0
-147,-153,0,0,0,0,0,0,0,0,0,-1,1077,1177,0,0
-140,-153,0,0,0,0,0,0,0,0,0,-1,1084,1177,0,0
-133,-153,0,0,0,0,0,0,0,0,0,-1,1091,1177,0,0
-126,-153,0,0,0,0,0,0,0,0,0,-1,1098,1177,0,0
-119,-153,0,0,0,0,0,0,0,0,0,-1,1105,1177,0,0
-112,-153,0,0,0,0,0,0,0,0,0,-1,1112,1177,0,0
-105,-153,0,0,0,0,0,0,0,0,0,-1,1119,1177,0,0
-98,-153,0,0,0,0,0,0,0,0,0,-1,1126,1177,0,0
-91,-153,0,0,0,0,0,0,0,0,0,-1,1133,1177,0,0
-84,-153,0,0,0,0,0,0,0,0,0,-1,1140,1177,0,0
-77,-153,0,0,0,0,0,0,0,0,0,-1,1147,1177,0,0
-70,-153,0,0,0,0,0,0,0,0,0,-1,1154,1177,0,0
-63,-153,0,0,0,0,0,0,0,0,0,-1,1161,1177,0,0
-56,-153,0,0,0,0,0,0,0,0,0,-1,1168,1177,0,0
-49,-153,0,0,0,0,0,0,0,0,0,-1,1175,1177,0,0
-42,-153,0,0,0,0,0,0,0,0,0,-1,1182,1177,0,0
-35,-153,0,0,0,0,0,0,0,0,0,-1,1189,1177,0,0
-28,-153,0,0,0,0,0,0,0,0,0,-1,1196,1177,0,0
-21,-153,0,0,0,0,0,0,0,0,0,-1,1203,1177,0,0
-14,-153,0,0,0,0,0,0,0,0,0,-1,1210,1177,0,0
-7,-153,0,0,0,0,0,0,0,0,0,-1,1217,1177,0,0
0,-153,0,0,0,0,0,0,0,0,0,-1,1224,1177,0,0
7,-153,0,0,0,0,0,0,0,0,0,-1,1231,1177,0,0
14,-153,0,0,0,0,0,0,0,0,0,-1,1238,1177,0,0
21,-153,0,0,0,0,0,0,0,0,0,-1,1245,1177,0,0
28,-153,0,0,0,0,0,0,0,0,0,-1,1252,1177,0,0
35,-153,0,0,0,0,0,0,0,0,0,-1,1259,1177,0,0
42,-153,0,0,0,0,0,0,0,0,0,-1,1266,1177,0,0
49,-153,0,0,0,0,0,0,0,0,0,-1,1273,1177,0,0
56,-153,0,0,0,0,0,0,0,0,0,-1,1280,1177,0,0
63,-153,0,0,0,0,0,0,0,0,0,-1,1287,1177,0,0
70,-153,0,0,0,0,0,0,0,0,0,-1,1294,1177,0,0
77,-153,0,0,0,0,0,0,0,0,0,-1,1301,1177,0,0
84,-153,0,0,0,0,0,0,0,0,0,-1,1308,1177,0,0
91,-153,0,0,0,0,0,0,0,0,0,-1,1315,1177,0,0
98,-153,0,0,0,0,0,0,0,0,0,-1,1322,1177,0,0
105,-153,0,0,0,0,0,0,0,0,0,-1,1329,1177,0,0
112,-153,0,0,0,0,0,0,0,0,0,-1,1336,1177,0,0
119,-153,0,0,0,0,0,0,0,0,0,-1,1343,1177,0,0
126,-153,0,0,0,0,0,0,0,0,0,-1,1350,1177,0,0
133,-153,0,0,0,0,0,0,0,0,0,-1,1357,1177,0,0
140,-153,0,0,0,0,0,0,0,0,0,-1,1364,1177,0,0
147,-153,0,0,0,0,0,0,0,0,0,-1,1371,1177,0,0
154,-153,0,0,0,0,0,0,0,0,0,-1,1378,1177,0,0
161,-153,0,0,0,0,0,0,0,0,0,-1,1385,1177,0,0
168,-153,0,0,0,0,0,0,0,0,0,-1,1392,1177,0,0
175,-153,0,0,0,0,0,0,0,0,0,-1,1399,1177,0,0
182,-153,0,0,0,0,0,0,0,0,0,-1,1406,1177,0,0
189,-153,0,0,0,0,0,0,0,0,0,-1,1413,1177,0,0
196,-153,0,0,0,0,0,0,0,0,0,-1,1420,1177,0,0
203,-153,0,0,0,0,0,0,0,0,0,-1,1427,1177,0,0
210,-153,0,0,0,0,0,0,0,0,0,-1,1434,1177,0,0
217,-153,0,0,0,0,0,0,0,0,0,-1,1441,1177,0,0
224,-153,0,0,0,0,0,0,0,0,0,-1,1448,1177,0,0
231,-153,0,0,0,0,0,0,0,0,0,-1,1455,1177,0,0
238,-153,0,0,0,0,0,0,0,0,0,-1,1462,1177,0,0
245,-153,0,0,0,0,0,0,0,0,0,-1,1469,1177,0,0
252,-153,0,0,0,0,0,0,0,0,0,-1,1476,1177,0,0
259,-153,0,0,0,0,0,0,0,0,0,-1,1483,1177,0,0
266,-153,0,0,0,0,0,0,0,0,0,-1,1490,1177,0,0
273,-153,0,0,0,0,0,0,0,0,0,-1,1497,1177,0,0
280,-153,0,0,0,0,0,0,0,0,0,-1,1504,1177,0,0
287,-153,0,0,0,0,0,0,0,0,0,-1,1511,1177,0,0
294,-153,0,0,0,0,0,0,0,0,0,-1,1518,1177,0,0
301,-153,0,0,0,0,0,0,0,0,0,-1,1525,1177,0,0
308,-153,0,0,0,0,0,0,0,0,0,-1,1532,1177,0,0
315,-153,0,0,0,0,0,0,0,0,0,-1,1539,1177,0,0
322,-153,0,0,0,0,0,0,0,0,0,-1,1546,1177,0,0
329,-153,0,0,0,0,0,0,0,0,0,-1,1553,1177,0,0
336,-153,0,0,0,0,0,0,0,0,0,-1,1560,1177,0,0
343,-153,0,0,0,0,0,0,0,0,0,-1,1567,1177,0,0
350,-153,0,0,0,0,0,0,0,0,0,-1,1574,1177,0,0
357,-153,0,0,0,0,0,0,0,0,0,-1,1581,1177,0,0
364,-153,0,0,0,0,0,0,0,0,0,-1,1588,1177,0,0
371,-153,0,0,0,0,0,0,0,0,0,-1,1595,1177,0,0
378,-153,0,0,0,0,0,0,0,0,0,-1,1602,1177,0,0
385,-153,0,0,0,0,0,0,0,0,0,-1,1609,1177,0,0
392,-153,0,0,0,0,0,0,0,0,0,-1,1616,1177,0,0
399,-153,0,0,0,0,0,0,0,0,0,-1,1623,1177,0,0
406,-153,0,0,0,0,0,0,0,0,0,-1,1630,1177,0,0
413,-153,0,0,0,0,0,0,0,0,0,-1,1637,1177,0,0
420,-153,0,0,0,0,0,0,0,0,0,-1,1644,1177,0,0
427,-153,0,0,0,0,0,0,0,0,0,-1,1651,1177,0,0
434,-153,0,0,0,0,0,0,0,0,0,-1,1658,1177,0,0
441,-153,0,0,0,0,0,0,0,0,0,-1,1665,1177,0,0
448,-153,0,0,0,0,0,0,0,0,0,-1,1672,1177,0,0
455,-153,0,0,0,0,0,0,0,0,0,-1,1679,1177,0,0
462,-153,0,0,0,0,0,0,0,0,0,-1,1686,1177,0,0
469,-153,0,0,0,0,0,0,0,0,0,-1,1693,1177,0,0
476,-153,0,0,0,0,0,0,0,0,0,-1,1700,1177,0,0
483,-153,0,0,0,0,0,0,0,0,0,-1,1707,1177,0,0
490,-153,0,0,0,0,0,0,0,0,0,-1,1714,1177,0,0
497,-153,0,0,0,0,0,0,0,0,0,-1,1721,1177,0,0
504,-153,0,0,0,0,0,0,0,0,0,-1,1728,1177,0,0
511,-153,0,0,0,0,0,0,0,0,0,-1,1735,1177,0,0
518,-153,0,0,0,0,0,0,0,0,0,-1,1742,1177,0,0
525,-153,0,0,0,0,0,0,0,0,0,-1,1749,1177,0,0
532,-153,0,0,0,0,0,0,0,0,0,-1,1756,1177,0,0
539,-153,0,0,0,0,0,0,0,0,0,-1,1763,1177,0,0
546,-153,0,0,0,0,0,0,0,0,0,-1,1770,1177,0,0
553,-153,0,0,0,0,0,0,0,0,0,-1,1777,1177,0,0
560,-153,0,0,0,0,0,0,0,0,0,-1,1784,1177,0,0
567,-153,0,0,0,0,0,0,0,0,0,-1,1791,1177,0,0
574,-153,0,0,0,0,0,0,0,0,0,-1,1798,1177,0,0
581,-153,0,0,0,0,0,0,0,0,0,-1,1805,1177,0,0
588,-153,0,0,0,0,0,0,0,0,0,-1,1812,1177,0,0
595,-153,0,0,0,0,0,0,0,0,0,-1,1819,1177,0,0
602,-153,0,0,0,0,0,0,0,0,0,-1,1826,1177,0,0
609,-153,0,0,0,0,0,0,0,0,0,-1,1833,1177,0,0
616,-153,0,0,0,0,0,0,0,0,0,-1,1840,1177,0,0
623,-153,0,0,0,0,0,0,0,0,0,-1,1847,1177,0,0
630,-153,0,0,0,0,0,0,0,0,0,-1,1854,1177,0,0
637,-153,23.6395,2.53271,0.000135768,-0.0012505,0.00334419,0.0028579,-0.00397264,0.683213,0.00396108,0.0383636,1861,1177,23.6395,-2.53271
644,-153,23.666,2.59106,0.000174011,-0.000805428,0.00309674,0.00281951,-0.00345093,0.706977,0.00362635,0.0346573,1868,1177,23.666,-2.59101
651,-153,23.6353,2.74792,0.000451475,-0.000254623,0.00253206,0.00265498,-0.00245812,0.716129,0.00295278,0.0293774,1875,1177,23.6352,-2.74796
658,-153,23.6404,2.66492,0.000626944,0.000148069,0.00203285,0.00243441,-0.00165939,0.726776,0.00237763,0.0339786,1882,1177,23.6404,-2.66487
665,-153,23.6543,2.72668,0.000158508,0.000244953,0.00200869,0.00221088,-0.00180742,0.796155,0.00232386,0.0384062,1889,1177,23.6542,-2.72673
672,-153,23.626,2.87207,-0.00051888,0.000147924,0.00208223,0.00192328,-0.00229423,0.864783,0.00243812,0.0373684,1896,1177,23.626,-2.87208
679,-153,23.5675,2.80432,-0.00136331,-6.632e-05,0.0022709,0.00164687,-0.00307649,0.92448,0.00276836,0.0279656,1903,1177,23.5675,-2.80427
686,-153,23.587,2.74316,-0.00216217,-0.000343326,0.00244301,0.00135404,-0.00385954,0.963579,0.00312378,0.0192653,1910,1177,23.587,-2.74314
693,-153,23.7058,2.71936,-0.00280988,-0.00049528,0.00258091,0.00117593,-0.00448109,0.996163,0.00344689,0.0309692,1917,1177,23.7058,-2.71931
700,-153,23.8665,2.67432,0,0,0,0,0,0,0,-1,1924,1177,23.8665,-2.67438
707,-153,21.6207,4.99976,0,0,0,0,0,0,0,-1,1931,1177,21.6208,-4.99974
714,-153,21.7228,4.76331,-0.00418924,-0.00082643,0.00279193,0.000751305,-0.00576698,1.05643,0.00411799,0.0313943,1938,1177,21.7228,-4.76328
721,-153,21.7239,4.65515,-0.00430115,-0.000860869,0.00279046,0.000697029,-0.00585905,1.06161,0.0041579,0.0246397,1945,1177,21.7239,-4.6551
728,-153,21.7814,4.52454,-0.00418899,-0.000743123,0.00240066,0.000488883,-0.00542099,1.09665,0.00378749,0.0290949,1952,1177,21.7813,-4.52454
735,-153,21.5651,4.4552,-0.00364013,-0.000295734,0.00180913,0.00049564,-0.00443151,1.15844,0.00313265,0.0160257,1959,1177,21.565,-4.45518
742,-153,21.5629,4.33728,-0.00230932,0.000329837,0.00135955,0.000904899,-0.00288438,1.17064,0.00228508,0.013994,1966,1177,21.5628,-4.33731
749,-153,21.5753,4.21545,0.000896948,0.00140304,0.00120958,0.00238576,-8.57679e-05,0.888513,0.00161985,0.0152895,1973,1177,21.5753,-4.21541
756,-153,21.5693,4.05908,0.00606288,0.00198352,0.000931191,0.00626539,0.00178101,0.214139,0.00372787,0.0113103,1980,1177,21.5693,-4.05902
763,-153,21.5543,3.91528,0.0117594,0.0028573,0.000713484,0.0118163,0.00280047,0.0794714,0.00712976,0.0112072,1987,1177,21.5543,-3.91533
770,-153,21.5588,3.78259,0.0188077,0.00348394,0.00114769,0.0188931,0.00339846,0.0743433,0.0116293,0.0103788,1994,1177,21.5589,-3.78262
777,-153,21.5439,3.68945,0.0278884,0.00384587,0.00229262,0.0281051,0.0036292,0.0942255,0.0176518,0.0217074,2001,1177,21.5439,-3.68942
784,-153,21.4622,3.62476,0.0399344,0.00376913,0.00421944,0.0404201,0.00328336,0.11462,0.0259217,0.0449942,2008,1177,21.4621,-3.62475
791,-153,21.4669,3.07556,0.0557591,0.00299096,0.00719026,0.0567213,0.00202876,0.133031,0.0371564,0.0463732,2015,1177,21.4669,-3.07553
798,-153,22.1104,2.97766,0.076636,0.00112483,0.011463,0.0783378,-0.000576973,0.147384,0.0524186,0.046881,2022,1177,22.1104,-2.97763
805,-153,22.374,2.82104,0.104069,-0.00242144,0.0174947,0.10687,-0.0052219,0.158728,0.0730494,0.0435289,2029,1177,22.374,-2.8211
812,-153,0,0,0,0,0,0,0,0,0,-1,2036,1177,0,0
-700,-160,0,0,0,0,0,0,0,0,0,-1,524,1184,0,0
-693,-160,0,0,0,0,0,0,0,0,0,-1,531,1184,0,0
-686,-160,-13.8358,-1.07983,0,0,0,0,0,0,0,-1,538,1184,-13.8358,1.07978
-679,-160,-14.1774,-0.501099,-0.0293672,0.00541781,0.0278734,0.0208799,-0.0448293,1.06433,0.0387681,0.0475018,545,1184,-14.1774,0.501138
-672,-160,-14.5043,-0.341919,-0.0185181,0.00142659,0.0237133,0.0171791,-0.0342707,0.984441,0.030246,0.0460609,552,1184,-14.5043,0.341861
-665,-160,-15.1262,0.209839,-0.0104766,-0.000615156,0.0193871,0.0144584,-0.0255501,0.909923,0.0233929,0.0451144,559,1184,-15.1262,-0.20985
-658,-160,-15.6591,-0.0897217,-0.00467887,-0.00140021,0.0152035,0.0122521,-0.0183312,0.839103,0.0177732,0.0493585,566,1184,-15.6591,0.0897161
-651,-160,-13.4708,0.859253,0,0,0,0,0,0,0,-1,573,1184,-13.4708,-0.859201
-644,-160,-13.5913,1.17175,0.00119402,-0.0011975,0.00816126,0.00824666,-0.00825014,0.712657,0.00952443,0.0371111,580,1184,-13.5913,-1.17177
-637,-160,-13.5347,1.27441,0.0022829,-0.00109315,0.00546568,0.00631529,-0.00512553,0.635624,0.00661725,0.0137849,587,1184,-13.5347,-1.27441
-630,-160,-13.5705,1.43286,0.00208063,-0.00101427,0.00314531,0.00403855,-0.00297218,0.55679,0.00406322,0.00870384,594,1184,-13.5705,-1.43287
-623,-160,-13.606,1.5979,0.000595367,-0.000974418,0.000878875,0.000988811,-0.00136786,0.420913,0.00136648,0.0115125,601,1184,-13.6059,-1.59792
-616,-160,-13.6177,1.771,-0.00187254,-0.00169931,-0.00150618,-0.000277257,-0.00329459,-0.814119,0.00211006,0.0107787,608,1184,-13.6177,-1.77099
-609,-160,-13.5919,1.98279,-0.00411327,-0.00211113,-0.00352542,0.000552594,-0.00677699,-0.923736,0.004713,0.0131007,615,1184,-13.5919,-1.98284
-602,-160,-13.5796,2.19971,-0.00722507,-0.00297834,-0.00519061,0.000506424,-0.0107098,-0.979552,0.00731454,0.021121,622,1184,-13.5796,-2.19976
-595,-160,-13.5547,2.40112,-0.0100388,-0.00373174,-0.00631577,0.00017402,-0.0139446,-1.01695,0.00935495,0.0260442,629,1184,-13.5548,-2.40117
-588,-160,-13.6938,2.51978,-0.0120095,-0.00423566,-0.00692336,-0.000182748,-0.0160624,-1.04118,0.0106479,0.0247603,636,1184,-13.6938,-2.51972
-581,-160,-13.6013,2.68347,-0.0131026,-0.00450654,-0.00738569,-0.000259314,-0.0173499,-1.04892,0.0114811,0.0191385,643,1184,-13.6013,-2.68342
-574,-160,-14.1818,2.1261,-0.0131228,-0.00450904,-0.00745302,-0.000207989,-0.0174239,-1.04739,0.0115472,0.0493034,650,1184,-14.1818,-2.12616
-567,-160,-15.1036,1.18689,-0.013013,-0.00437848,-0.00713164,-0.000359134,-0.0170324,-1.05758,0.0112371,0.0499423,657,1184,-15.1036,-1.18685
-560,-160,-15.9974,0.923096,0,0,0,0,0,0,0,-1,664,1184,-15.9974,-0.92307
-553,-160,-15.9059,0.988037,-0.011124,-0.00317407,-0.00566137,-0.000231554,-0.0140665,-1.09147,0.00930144,0.037458,671,1184,-15.9059,-0.988098
-546,-160,-15.7615,0.794189,-0.00861367,-0.00204448,-0.00412386,-5.69937e-05,-0.0106012,-1.1217,0.00704851,0.0368591,678,1184,-15.7615,-0.794131
-539,-160,-15.9116,0.650513,-0.00485148,-0.000556783,-0.00189236,0.000158058,-0.00556632,-1.20962,0.00376467,0.0416518,685,1184,-15.9116,-0.650458
-532,-160,-16.1886,0.749146,0.000698648,0.00129999,0.00117185,0.00220913,-0.000210484,0.910979,0.00154769,0.0452131,692,1184,-16.1886,-0.749186
-525,-160,-15.9705,0.804688,0.00743267,0.00323549,0.00434491,0.0101593,0.000508904,0.56042,0.00660974,0.043506,699,1184,-15.9705,-0.804697
-518,-160,-15.8359,0.937012,0.0116837,0.00354837,0.0058359,0.0147296,0.000502407,0.481042,0.00965665,0.0412124,706,1184,-15.836,-0.936961
-511,-160,0,0,0,0,0,0,0,0,0,-1,713,1184,0,0
-504,-160,0,0,0,0,0,0,0,0,0,-1,720,1184,0,0
-497,-160,0,0,0,0,0,0,0,0,0,-1,727,1184,0,0
-490,-160,0,0,0,0,0,0,0,0,0,-1,734,1184,0,0
-483,-160,0,0,0,0,0,0,0,0,0,-1,741,1184,0,0
-476,-160,0,0,0,0,0,0,0,0,0,-1,748,1184,0,0
-469,-160,0,0,0,0,0,0,0,0,0,-1,755,1184,0,0
-462,-160,0,0,0,0,0,0,0,0,0,-1,762,1184,0,0
-455,-160,0,0,0,0,0,0,0,0,0,-1,769,1184,0,0
-448,-160,0,0,0,0,0,0,0,0,0,-1,776,1184,0,0
-441,-160,0,0,0,0,0,0,0,0,0,-1,783,1184,0,0
-434,-160,0,0,0,0,0,0,0,0,0,-1,790,1184,0,0
-427,-160,0,0,0,0,0,0,0,0,0,-1,797,1184,0,0
-420,-160,0,0,0,0,0,0,0,0,0,-1,804,1184,0,0
-413,-160,0,0,0,0,0,0,0,0,0,-1,811,1184,0,0
-406,-160,0,0,0,0,0,0,0,0,0,-1,818,1184,0,0
-399,-160,0,0,0,0,0,0,0,0,0,-1,825,1184,0,0
-392,-160,0,0,0,0,0,0,0,0,0,-1,832,1184,0,0
-385,-160,0,0,0,0,0,0,0,0,0,-1,839,1184,0,0
-378,-160,0,0,0,0,0,0,0,0,0,-1,846,1184,0,0
-371,-160,0,0,0,0,0,0,0,0,0,-1,853,1184,0,0
-364,-160,0,0,0,0,0,0,0,0,0,-1,860,1184,0,0
-357,-160,0,0,0,0,0,0,0,0,0,-1,867,1184,0,0
-350,-160,0,0,0,0,0,0,0,0,0,-1,874,1184,0,0
-343,-160,0,0,0,0,0,0,0,0,0,-1,881,1184,0,0
-336,-160,0,0,0,0,0,0,0,0,0,-1,888,1184,0,0
-329,-160,0,0,0,0,0,0,0,0,0,-1,895,1184,0,0
-322,-160,0,0,0,0,0,0,0,0,0,-1,902,1184,0,0
-315,-160,0,0,0,0,0,0,0,0,0,-1,909,1184,0,0
-308,-160,0,0,0,0,0,0,0,0,0,-1,916,1184,0,0
-301,-160,0,0,0,0,0,0,0,0,0,-1,923,1184,0,0
-294,-160,0,0,0,0,0,0,0,0,0,-1,930,1184,0,0
-287,-160,0,0,0,0,0,0,0,0,0,-1,937,1184,0,0
-280,-160,0,0,0,0,0,0,0,0,0,-1,944,1184,0,0
-273,-160,0,0,0,0,0,0,0,0,0,-1,951,1184,0,0
-266,-160,0,0,0,0,0,0,0,0,0,-1,958,1184,0,0
-259,-160,0,0,0,0,0,0,0,0,0,-1,965,1184,0,0
-252,-160,0,0,0,0,0,0,0,0,0,-1,972,1184,0,0
-245,-160,0,0,0,0,0,0,0,0,0,-1,979,1184,0,0
-238,-160,0,0,0,0,0,0,0,0,0,-1,986,1184,0,0
-231,-160,0,0,0,0,0,0,0,0,0,-1,993,1184,0,0
-224,-160,0,0,0,0,0,0,0,0,0,-1,1000,1184,0,0
-217,-160,0,0,0,0,0,0,0,0,0,-1,1007,1184,0,0
-210,-160,0,0,0,0,0,0,0,0,0,-1,1014,1184,0,0
-203,-160,0,0,0,0,0,0,0,0,0,-1,1021,1184,0,0
-196,-160,0,0,0,0,0,0,0,0,0,-1,1028,1184,0,0
-189,-160,0,0,0,0,0,0,0,0,0,-1,1035,1184,0,0
-182,-160,0,0,0,0,0,0,0,0,0,-1,1042,1184,0,0
-175,-160,0,0,0,0,0,0,0,0,0,-1,1049,1184,0,0
-168,-160,0,0,0,0,0,0,0,0,0,-1,1056,1184,0,0
-161,-160,0,0,0,0,0,0,0,0,0,-1,1063,1184,0,0
-154,-160,0,0,0,0,0,0,0,0,0,-1,1070,1184,0,0
-147,-160,0,0,0,0,0,0,0,0,0,-1,1077,1184,0,0
-140,-160,0,0,0,0,0,0,0,0,0,-1,1084,1184,0,0
-133,-160,0,0,0,0,0,0,0,0,0,-1,1091,1184,0,0
-126,-160,0,0,0,0,0,0,0,0,0,-1,1098,1184,0,0
-119,-160,0,0,0,0,0,0,0,0,0,-1,1105,1184,0,0
-112,-160,0,0,0,0,0,0,0,0,0,-1,1112,1184,0,0
-105,-160,0,0,0,0,0,0,0,0,0,-1,1119,1184,0,0
-98,-160,0,0,0,0,0,0,0,0,0,-1,1126,1184,0,0
-91,-160,0,0,0,0,0,0,0,0,0,-1,1133,1184,0,0
-84,-160,0,0,0,0,0,0,0,0,0,-1,1140,1184,0,0
-77,-160,0,0,0,0,0,0,0,0,0,-1,1147,1184,0,0
-70,-160,0,0,0,0,0,0,0,0,0,-1,1154,1184,0,0
-63,-160,0,0,0,0,0,0,0,0,0,-1,1161,1184,0,0
-56,-160,0,0,0,0,0,0,0,0,0,-1,1168,1184,0,0
-49,-160,0,0,0,0,0,0,0,0,0,-1,1175,1184,0,0
-42,-160,0,0,0,0,0,0,0,0,0,-1,1182,1184,0,0
-35,-160,0,0,0,0,0,0,0,0,0,-1,1189,1184,0,0
-28,-160,0,0,0,0,0,0,0,0,0,-1,1196,1184,0,0
-21,-160,0,0,0,0,0,0,0,0,0,-1,1203,1184,0,0
-14,-160,0,0,0,0,0,0,0,0,0,-1,1210,1184,0,0
-7,-160,0,0,0,0,0,0,0,0,0,-1,1217,1184,0,0
0,-160,0,0,0,0,0,0,0,0,0,-1,1224,1184,0,0
7,-160,0,0,0,0,0,0,0,0,0,-1,1231,1184,0,0
14,-160,0,0,0,0,0,0,0,0,0,-1,1238,1184,0,0
21,-160,0,0,0,0,0,0,0,0,0,-1,1245,1184,0,0
28,-160,0,0,0,0,0,0,0,0,0,-1,1252,1184,0,0
35,-160,0,0,0,0,0,0,0,0,0,-1,1259,1184,0,0
42,-160,0,0,0,0,0,0,0,0,0,-1,1266,1184,0,0
49,-160,0,0,0,0,0,0,0,0,0,-1,1273,1184,0,0
56,-160,0,0,0,0,0,0,0,0,0,-1,1280,1184,0,0
63,-160,0,0,0,0,0,0,0,0,0,-1,1287,1184,0,0
70,-160,0,0,0,0,0,0,0,0,0,-1,1294,1184,0,0
77,-160,0,0,0,0,0,0,0,0,0,-1,1301,1184,0,0
84,-160,0,0,0,0,0,0,0,0,0,-1,1308,1184,0,0
91,-160,0,0,0,0,0,0,0,0,0,-1,1315,1184,0,0
98,-160,0,0,0,0,0,0,0,0,0,-1,1322,1184,0,0
105,-160,0,0,0,0,0,0,0,0,0,-1,1329,1184,0,0
112,-160,0,0,0,0,0,0,0,0,0,-1,1336,1184,0,0
119,-160,0,0,0,0,0,0,0,0,0,-1,1343,1184,0,0
126,-160,0,0,0,0,0,0,0,0,0,-1,1350,1184,0,0
133,-160,0,0,0,0,0,0,0,0,0,-1,1357,1184,0,0
140,-160,0,0,0,0,0,0,0,0,0,-1,1364,1184,0,0
147,-160,0,0,0,0,0,0,0,0,0,-1,1371,1184,0,0
154,-160,0,0,0,0,0,0,0,0,0,-1,1378,1184,0,0
161,-160,0,0,0,0,0,0,0,0,0,-1,1385,1184,0,0
168,-160,0,0,0,0,0,0,0,0,0,-1,1392,1184,0,0
175,-160,0,0,0,0,0,0,0,0,0,-1,1399,1184,0,0
182,-160,0,0,0,0,0,0,0,0,0,-1,1406,1184,0,0
189,-160,0,0,0,0,0,0,0,0,0,-1,1413,1184,0,0
196,-160,0,0,0,0,0,0,0,0,0,-1,1420,1184,0,0
203,-160,0,0,0,0,0,0,0,0,0,-1,1427,1184,0,0
210,-160,0,0,0,0,0,0,0,0,0,-1,1434,1184,0,0
217,-160,0,0,0,0,0,0,0,0,0,-1,1441,1184,0,0
224,-160,0,0,0,0,0,0,0,0,0,-1,1448,1184,0,0
231,-160,0,0,0,0,0,0,0,0,0,-1,1455,1184,0,0
238,-160,0,0,0,0,0,0,0,0,0,-1,1462,1184,0,0
245,-160,0,0,0,0,0,0,0,0,0,-1,1469,1184,0,0
252,-160,0,0,0,0,0,0,0,0,0,-1,1476,1184,0,0
259,-160,0,0,0,0,0,0,0,0,0,-1,1483,1184,0,0
266,-160,0,0,0,0,0,0,0,0,0,-1,1490,1184,0,0
273,-160,0,0,0,0,0,0,0,0,0,-1,1497,1184,0,0
280,-160,0,0,0,0,0,0,0,0,0,-1,1504,1184,0,0
287,-160,0,0,0,0,0,0,0,0,0,-1,1511,1184,0,0
294,-160,0,0,0,0,0,0,0,0,0,-1,1518,1184,0,0
301,-160,0,0,0,0,0,0,0,0,0,-1,1525,1184,0,0
308,-160,0,0,0,0,0,0,0,0,0,-1,1532,1184,0,0
315,-160,0,0,0,0,0,0,0,0,0,-1,1539,1184,0,0
322,-160,0,0,0,0,0,0,0,0,0,-1,1546,1184,0,0
329,-160,0,0,0,0,0,0,0,0,0,-1,1553,1184,0,0
336,-160,0,0,0,0,0,0,0,0,0,-1,1560,1184,0,0
343,-160,0,0,0,0,0,0,0,0,0,-1,1567,1184,0,0
350,-160,0,0,0,0,0,0,0,0,0,-1,1574,1184,0,0
357,-160,0,0,0,0,0,0,0,0,0,-1,1581,1184,0,0
364,-160,0,0,0,0,0,0,0,0,0,-1,1588,1184,0,0
371,-160,0,0,0,0,0,0,0,0,0,-1,1595,1184,0,0
378,-160,0,0,0,0,0,0,0,0,0,-1,1602,1184,0,0
385,-160,0,0,0,0,0,0,0,0,0,-1,1609,1184,0,0
392,-160,0,0,0,0,0,0,0,0,0,-1,1616,1184,0,0
399,-160,0,0,0,0,0,0,0,0,0,-1,1623,1184,0,0
406,-160,0,0,0,0,0,0,0,0,0,-1,1630,1184,0,0
413,-160,0,0,0,0,0,0,0,0,0,-1,1637,1184,0,0
420,-160,0,0,0,0,0,0,0,0,0,-1,1644,1184,0,0
427,-160,0,0,0,0,0,0,0,0,0,-1,1651,1184,0,0
434,-160,0,0,0,0,0,0,0,0,0,-1,1658,1184,0,0
441,-160,0,0,0,0,0,0,0,0,0,-1,1665,1184,0,0
448,-160,0,0,0,0,0,0,0,0,0,-1,1672,1184,0,0
455,-160,0,0,0,0,0,0,0,0,0,-1,1679,1184,0,0
462,-160,0,0,0,0,0,0,0,0,0,-1,1686,1184,0,0
469,-160,0,0,0,0,0,0,0,0,0,-1,1693,1184,0,0
476,-160,0,0,0,0,0,0,0,0,0,-1,1700,1184,0,0
483,-160,0,0,0,0,0,0,0,0,0,-1,1707,1184,0,0
490,-160,0,0,0,0,0,0,0,0,0,-1,1714,1184,0,0
497,-160,0,0,0,0,0,0,0,0,0,-1,1721,1184,0,0
504,-160,0,0,0,0,0,0,0,0,0,-1,1728,1184,0,0
511,-160,0,0,0,0,0,0,0,0,0,-1,1735,1184,0,0
518,-160,0,0,0,0,0,0,0,0,0,-1,1742,1184,0,0
525,-160,0,0,0,0,0,0,0,0,0,-1,1749,1184,0,0
532,-160,0,0,0,0,0,0,0,0,0,-1,1756,1184,0,0
539,-160,0,0,0,0,0,0,0,0,0,-1,1763,1184,0,0
546,-160,0,0,0,0,0,0,0,0,0,-1,1770,1184,0,0
553,-160,0,0,0,0,0,0,0,0,0,-1,1777,1184,0,0
560,-160,0,0,0,0,0,0,0,0,0,-1,1784,1184,0,0
567,-160,0,0,0,0,0,0,0,0,0,-1,1791,1184,0,0
574,-160,0,0,0,0,0,0,0,0,0,-1,1798,1184,0,0
581,-160,0,0,0,0,0,0,0,0,0,-1,1805,1184,0,0
588,-160,0,0,0,0,0,0,0,0,0,-1,1812,1184,0,0
595,-160,0,0,0,0,0,0,0,0,0,-1,1819,1184,0,0
602,-160,0,0,0,0,0,0,0,0,0,-1,1826,1184,0,0
609,-160,0,0,0,0,0,0,0,0,0,-1,1833,1184,0,0
616,-160,0,0,0,0,0,0,0,0,0,-1,1840,1184,0,0
623,-160,0,0,0,0,0,0,0,0,0,-1,1847,1184,0,0
630,-160,0,0,0,0,0,0,0,0,0,-1,1854,1184,0,0
637,-160,23.6299,2.56946,-0.000858652,-0.00124702,0.00385943,0.00281147,-0.00491715,0.760262,0.00451699,0.0419314,1861,1184,23.6298,-2.56945
644,-160,23.6733,2.40784,-0.000412708,-0.00079305,0.00335671,0.00275921,-0.00396497,0.757101,0.00390296,0.0390715,1868,1184,23.6733,-2.40788
651,-160,23.624,2.79553,0.000181527,-0.000221375,0.00261236,0.00260019,-0.00264004,0.746917,0.00302548,0.0381453,1875,1184,23.6241,-2.79555
658,-160,23.7217,2.99524,0.000531271,0.000127456,0.00203901,0.00237835,-0.00171962,0.736048,0.00237613,0.0397459,1882,1184,23.7217,-2.99529
665,-160,23.6799,2.94861,0.000315802,0.000200008,0.0018478,0.00210661,-0.0015908,0.769737,0.00214162,0.039164,1889,1184,23.6799,-2.94856
672,-160,23.6143,2.89612,-0.000139046,8.42662e-05,0.00175149,0.00172765,-0.00178243,0.81723,0.00202663,0.0341773,1896,1184,23.6142,-2.89607
679,-160,23.5861,2.81897,-0.000823324,-0.000132811,0.001819,0.00137341,-0.00232955,0.879185,0.00216153,0.0261598,1903,1184,23.586,-2.81894
686,-160,23.6284,2.73132,-0.00147061,-0.000403954,0.001886,0.00102267,-0.00289724,0.923192,0.00234784,0.0178178,1910,1184,23.6285,-2.7313
693,-160,23.6931,2.72839,-0.00202447,-0.000542218,0.00195662,0.000808931,-0.00337562,0.966438,0.00256297,0.0478497,1917,1184,23.6931,-2.72834
700,-160,22.4987,4.25366,0,0,0,0,0,0,0,-1,1924,1184,22.4986,-4.25363
707,-160,21.6118,5.33655,0,0,0,0,0,0,0,-1,1931,1184,21.6118,-5.3365
714,-160,21.6228,4.90845,-0.00335095,-0.000850423,0.0020398,0.000291789,-0.00449316,1.06034,0.00309729,0.0400053,1938,1184,21.6228,-4.9084
721,-160,21.6125,4.58813,-0.00347382,-0.000877719,0.00206321,0.000261802,-0.00461334,1.06618,0.00316644,0.0186052,1945,1184,21.6126,-4.58812
728,-160,21.5792,4.55042,-0.00332232,-0.0006904,0.00173079,0.000167895,-0.00418061,1.11044,0.00284469,0.0157878,1952,1184,21.5792,-4.55042
735,-160,21.4348,4.45764,-0.00267017,-0.000156961,0.00116163,0.000297701,-0.00312483,1.19772,0.00218921,0.0126685,1959,1184,21.4348,-4.45765
742,-160,21.4315,4.31091,-0.00108133,0.000593367,0.000707503,0.000852245,-0.00134021,1.22002,0.00127622,0.0150317,1966,1184,21.4315,-4.31089
749,-160,21.431,4.1958,0.0023704,0.00161689,0.000515025,0.00263176,0.00135552,0.469609,0.00151968,0.0165834,1973,1184,21.431,-4.19584
756,-160,21.4333,4.05371,0.0077108,0.00211776,0.000208005,0.00771852,0.00211003,0.0371216,0.00460635,0.0113472,1980,1184,21.4334,-4.05372
763,-160,21.4221,3.91479,0.0135531,0.00287615,-5.92795e-05,0.0135534,0.00287582,-0.00555188,0.00824589,0.011829,1987,1184,21.4221,-3.91485
770,-160,21.4009,3.78552,0.0207617,0.00331457,0.000221775,0.0207645,0.00331175,0.0127085,0.0128818,0.0176038,1994,1184,21.4009,-3.78549
777,-160,21.4044,3.74902,0.0299647,0.00336145,0.00108968,0.0300093,0.00331689,0.0408693,0.0189973,0.0311547,2001,1184,21.4045,-3.74902
784,-160,20.8674,3.13232,0.0419036,0.00276571,0.00267863,0.0420861,0.00258323,0.068018,0.0272372,0.0427101,2008,1184,20.8674,-3.13231
791,-160,21.1285,3.16809,0.0572716,0.00118645,0.00528385,0.0577651,0.000692993,0.0931193,0.0382812,0.0441498,2015,1184,21.1285,-3.16806
798,-160,21.9406,3.0105,0.0772097,-0.00187904,0.00919977,0.0782657,-0.00293507,0.114289,0.0531825,0.0452201,2022,1184,21.9405,-3.01052
805,-160,22.4739,3.08386,0.103013,-0.00719076,0.0149453,0.105004,-0.00918159,0.132429,0.0732552,0.045458,2029,1184,22.4739,-3.08387
812,-160,0,0,0,0,0,0,0,0,0,-1,2036,1184,0,0
-700,-167,0,0,0,0,0,0,0,0,0,-1,524,1191,0,0
-693,-167,0,0,0,0,0,0,0,0,0,-1,531,1191,0,0
-686,-167,-13.263,-3.68274,0,0,0,0,0,0,0,-1,538,1191,-13.263,3.68273
-679,-167,-14.1015,1.80847,0,0,0,0,0,0,0,-1,545,1191,-14.1015,-1.8085
-672,-167,-14.7175,-0.39563,0,0,0,0,0,0,0,-1,552,1191,-14.7175,0.395622
-665,-167,-15.953,0.704956,-0.00703973,-0.000943837,0.019186,0.0154348,-0.0234184,0.864171,0.0225892,0.0433038,559,1191,-15.953,-0.704928
-658,-167,-16.498,0.598267,-0.00159308,-0.00127266,0.0150131,0.0135811,-0.0164469,0.790734,0.017363,0.0463444,566,1191,-16.498,-0.598212
-651,-167,-13.515,1.04517,0,0,0,0,0,0,0,-1,573,1191,-13.515,-1.04517
-644,-167,-13.408,1.15649,0.00325427,-0.000640455,0.00803513,0.00957465,-0.00696083,0.666512,0.00958644,0.0393286,580,1191,-13.408,-1.15654
-637,-167,-13.3466,1.25977,0.00378159,-0.00043238,0.00541719,0.00748712,-0.00413791,0.599928,0.00680393,0.0161489,587,1191,-13.3466,-1.25973
-630,-167,-13.3912,1.42419,0.00321378,-0.000337312,0.00321199,0.00510831,-0.00223184,0.532908,0.00434495,0.0084095,594,1191,-13.3911,-1.42416
-623,-167,-13.4146,1.5813,0.00147486,-0.000406107,0.00106308,0.00195376,-0.000885008,0.423256,0.00167723,0.0110412,601,1191,-13.4146,-1.58128
-616,-167,-13.4316,1.7699,-0.00126487,-0.00122012,-0.00123859,-3.70503e-06,-0.00248129,-0.794428,0.00165296,0.0148621,608,1191,-13.4317,-1.76988
-609,-167,-13.418,1.9751,-0.00377005,-0.00172742,-0.00321562,0.000625173,-0.00612265,-0.939165,0.00430531,0.0147442,615,1191,-13.4181,-1.97513
-602,-167,-13.4304,2.13098,-0.00716443,-0.00272891,-0.00488348,0.000416802,-0.0103101,-0.998542,0.00701649,0.0153011,622,1191,-13.4303,-2.13095
-595,-167,-13.4175,2.36609,-0.0102191,-0.00351973,-0.00605319,4.87873e-05,-0.0137876,-1.03811,0.00920803,0.0212674,629,1191,-13.4175,-2.36605
-588,-167,-13.4484,2.56274,-0.0123308,-0.00403628,-0.00673785,-0.000271623,-0.0160954,-1.06127,0.0106409,0.0207682,636,1191,-13.4484,-2.5627
-581,-167,-13.4491,2.64966,-0.0135201,-0.00434896,-0.00728383,-0.000327468,-0.0175416,-1.06633,0.0115868,0.0217429,643,1191,-13.4491,-2.64969
-574,-167,-13.6569,2.71985,-0.013578,-0.00433623,-0.00735204,-0.000273506,-0.0176407,-1.06596,0.0116704,0.0465671,650,1191,-13.6569,-2.7199
-567,-167,-14.9885,1.95264,-0.0135083,-0.0042142,-0.00701923,-0.000443128,-0.0172793,-1.0778,0.0113747,0.0447656,657,1191,-14.9885,-1.95259
-560,-167,-16.1656,1.21228,0,0,0,0,0,0,0,-1,664,1191,-16.1656,-1.21226
-553,-167,-15.8275,0.824463,-0.0117673,-0.00309512,-0.00572001,-0.000253455,-0.014609,-1.10972,0.00965596,0.0372942,671,1191,-15.8275,-0.82445
-546,-167,-15.8223,0.855591,-0.00941998,-0.00206813,-0.00431494,-7.56262e-05,-0.0114125,-1.1382,0.00758324,0.0342691,678,1191,-15.8223,-0.855626
-539,-167,-15.9077,0.840332,-0.00586493,-0.000706312,-0.00226416,0.000146471,-0.00671771,-1.21058,0.00452809,0.0388577,685,1191,-15.9076,-0.840302
-532,-167,-15.9179,0.741089,-0.000572071,0.00102786,0.000584987,0.00121893,-0.000763142,1.2551,0.00115439,0.0438844,692,1191,-15.9179,-0.741144
-525,-167,-15.7841,0.592651,0.00633702,0.0030014,0.00385599,0.00887043,0.000467988,0.581285,0.00576396,0.0432726,699,1191,-15.7841,-0.592669
-518,-167,-15.7891,0.813232,0.0115525,0.00374658,0.00569231,0.0145514,0.000747696,0.484882,0.00946155,0.0421167,706,1191,-15.7891,-0.813249
-511,-167,0,0,0,0,0,0,0,0,0,-1,713,1191,0,0
-504,-167,0,0,0,0,0,0,0,0,0,-1,720,1191,0,0
-497,-167,0,0,0,0,0,0,0,0,0,-1,727,1191,0,0
-490,-167,0,0,0,0,0,0,0,0,0,-1,734,1191,0,0
-483,-167,0,0,0,0,0,0,0,0,0,-1,741,1191,0,0
-476,-167,0,0,0,0,0,0,0,0,0,-1,748,1191,0,0
-469,-167,0,0,0,0,0,0,0,0,0,-1,755,1191,0,0
-462,-167,0,0,0,0,0,0,0,0,0,-1,762,1191,0,0
-455,-167,0,0,0,0,0,0,0,0,0,-1,769,1191,0,0
-448,-167,0,0,0,0,0,0,0,0,0,-1,776,1191,0,0
-441,-167,0,0,0,0,0,0,0,0,0,-1,783,1191,0,0
-434,-167,0,0,0,0,0,0,0,0,0,-1,790,1191,0,0
-427,-167,0,0,0,0,0,0,0,0,0,-1,797,1191,0,0
-420,-167,0,0,0,0,0,0,0,0,0,-1,804,1191,0,0
-413,-167,0,0,0,0,0,0,0,0,0,-1,811,1191,0,0
-406,-167,0,0,0,0,0,0,0,0,0,-1,818,1191,0,0
-399,-167,0,0,0,0,0,0,0,0,0,-1,825,1191,0,0
-392,-167,0,0,0,0,0,0,0,0,0,-1,832,1191,0,0
-385,-167,0,0,0,0,0,0,0,0,0,-1,839,1191,0,0
-378,-167,0,0,0,0,0,0,0,0,0,-1,846,1191,0,0
-371,-167,0,0,0,0,0,0,0,0,0,-1,853,1191,0,0
-364,-167,0,0,0,0,0,0,0,0,0,-1,860,1191,0,0
-357,-167,0,0,0,0,0,0,0,0,0,-1,867,1191,0,0
-350,-167,0,0,0,0,0,0,0,0,0,-1,874,1191,0,0
-343,-167,0,0,0,0,0,0,0,0,0,-1,881,1191,0,0
-336,-167,0,0,0,0,0,0,0,0,0,-1,888,1191,0,0
-329,-167,0,0,0,0,0,0,0,0,0,-1,895,1191,0,0
-322,-167,0,0,0,0,0,0,0,0,0,-1,902,1191,0,0
-315,-167,0,0,0,0,0,0,0,0,0,-1,909,1191,0,0
-308,-167,0,0,0,0,0,0,0,0,0,-1,916,1191,0,0
-301,-167,0,0,0,0,0,0,0,0,0,-1,923,1191,0,0
-294,-167,0,0,0,0,0,0,0,0,0,-1,930,1191,0,0
-287,-167,0,0,0,0,0,0,0,0,0,-1,937,1191,0,0
-280,-167,0,0,0,0,0,0,0,0,0,-1,944,1191,0,0
-273,-167,0,0,0,0,0,0,0,0,0,-1,951,1191,0,0
-266,-167,0,0,0,0,0,0,0,0,0,-1,958,1191,0,0
-259,-167,0,0,0,0,0,0,0,0,0,-1,965,1191,0,0
-252,-167,0,0,0,0,0,0,0,0,0,-1,972,1191,0,0
-245,-167,0,0,0,0,0,0,0,0,0,-1,979,1191,0,0
-238,-167,0,0,0,0,0,0,0,0,0,-1,986,1191,0,0
-231,-167,0,0,0,0,0,0,0,0,0,-1,993,1191,0,0
-224,-167,0,0,0,0,0,0,0,0,0,-1,1000,1191,0,0
-217,-167,0,0,0,0,0,0,0,0,0,-1,1007,1191,0,0
-210,-167,0,0,0,0,0,0,0,0,0,-1,1014,1191,0,0
-203,-167,0,0,0,0,0,0,0,0,0,-1,1021,1191,0,0
-196,-167,0,0,0,0,0,0,0,0,0,-1,1028,1191,0,0
-189,-167,0,0,0,0,0,0,0,0,0,-1,1035,1191,0,0
-182,-167,0,0,0,0,0,0,0,0,0,-1,1042,1191,0,0
-175,-167,0,0,0,0,0,0,0,0,0,-1,1049,1191,0,0
-168,-167,0,0,0,0,0,0,0,0,0,-1,1056,1191,0,0
-161,-167,0,0,0,0,0,0,0,0,0,-1,1063,1191,0,0
-154,-167,0,0,0,0,0,0,0,0,0,-1,1070,1191,0,0
-147,-167,0,0,0,0,0,0,0,0,0,-1,1077,1191,0,0
-140,-167,0,0,0,0,0,0,0,0,0,-1,1084,1191,0,0
-133,-167,0,0,0,0,0,0,0,0,0,-1,1091,1191,0,0
-126,-167,0,0,0,0,0,0,0,0,0,-1,1098,1191,0,0
-119,-167,0,0,0,0,0,0,0,0,0,-1,1105,1191,0,0
-112,-167,0,0,0,0,0,0,0,0,0,-1,1112,1191,0,0
-105,-167,0,0,0,0,0,0,0,0,0,-1,1119,1191,0,0
-98,-167,0,0,0,0,0,0,0,0,0,-1,1126,1191,0,0
-91,-167,0,0,0,0,0,0,0,0,0,-1,1133,1191,0,0
-84,-167,0,0,0,0,0,0,0,0,0,-1,1140,1191,0,0
-77,-167,0,0,0,0,0,0,0,0,0,-1,1147,1191,0,0
-70,-167,0,0,0,0,0,0,0,0,0,-1,1154,1191,0,0
-63,-167,0,0,0,0,0,0,0,0,0,-1,1161,1191,0,0
-56,-167,0,0,0,0,0,0,0,0,0,-1,1168,1191,0,0
-49,-167,0,0,0,0,0,0,0,0,0,-1,1175,1191,0,0
-42,-167,0,0,0,0,0,0,0,0,0,-1,1182,1191,0,0
-35,-167,0,0,0,0,0,0,0,0,0,-1,1189,1191,0,0
-28,-167,0,0,0,0,0,0,0,0,0,-1,1196,1191,0,0
-21,-167,0,0,0,0,0,0,0,0,0,-1,1203,1191,0,0
-14,-167,0,0,0,0,0,0,0,0,0,-1,1210,1191,0,0
-7,-167,0,0,0,0,0,0,0,0,0,-1,1217,1191,0,0
0,-167,0,0,0,0,0,0,0,0,0,-1,1224,1191,0,0
7,-167,0,0,0,0,0,0,0,0,0,-1,1231,1191,0,0
14,-167,0,0,0,0,0,0,0,0,0,-1,1238,1191,0,0
21,-167,0,0,0,0,0,0,0,0,0,-1,1245,1191,0,0
28,-167,0,0,0,0,0,0,0,0,0,-1,1252,1191,0,0
35,-167,0,0,0,0,0,0,0,0,0,-1,1259,1191,0,0
42,-167,0,0,0,0,0,0,0,0,0,-1,1266,1191,0,0
49,-167,0,0,0,0,0,0,0,0,0,-1,1273,1191,0,0
56,-167,0,0,0,0,0,0,0,0,0,-1,1280,1191,0,0
63,-167,0,0,0,0,0,0,0,0,0,-1,1287,1191,0,0
70,-167,0,0,0,0,0,0,0,0,0,-1,1294,1191,0,0
77,-167,0,0,0,0,0,0,0,0,0,-1,1301,1191,0,0
84,-167,0,0,0,0,0,0,0,0,0,-1,1308,1191,0,0
91,-167,0,0,0,0,0,0,0,0,0,-1,1315,1191,0,0
98,-167,0,0,0,0,0,0,0,0,0,-1,1322,1191,0,0
105,-167,0,0,0,0,0,0,0,0,0,-1,1329,1191,0,0
112,-167,0,0,0,0,0,0,0,0,0,-1,1336,1191,0,0
119,-167,0,0,0,0,0,0,0,0,0,-1,1343,1191,0,0
126,-167,0,0,0,0,0,0,0,0,0,-1,1350,1191,0,0
133,-167,0,0,0,0,0,0,0,0,0,-1,1357,1191,0,0
140,-167,0,0,0,0,0,0,0,0,0,-1,1364,1191,0,0
147,-167,0,0,0,0,0,0,0,0,0,-1,1371,1191,0,0
154,-167,0,0,0,0,0,0,0,0,0,-1,1378,1191,0,0
161,-167,0,0,0,0,0,0,0,0,0,-1,1385,1191,0,0
168,-167,0,0,0,0,0,0,0,0,0,-1,1392,1191,0,0
175,-167,0,0,0,0,0,0,0,0,0,-1,1399,1191,0,0
182,-167,0,0,0,0,0,0,0,0,0,-1,1406,1191,0,0
189,-167,0,0,0,0,0,0,0,0,0,-1,1413,1191,0,0
196,-167,0,0,0,0,0,0,0,0,0,-1,1420,1191,0,0
203,-167,0,0,0,0,0,0,0,0,0,-1,1427,1191,0,0
210,-167,0,0,0,0,0,0,0,0,0,-1,1434,1191,0,0
217,-167,0,0,0,0,0,0,0,0,0,-1,1441,1191,0,0
224,-167,0,0,0,0,0,0,0,0,0,-1,1448,1191,0,0
231,-167,0,0,0,0,0,0,0,0,0,-1,1455,1191,0,0
238,-167,0,0,0,0,0,0,0,0,0,-1,1462,1191,0,0
245,-167,0,0,0,0,0,0,0,0,0,-1,1469,1191,0,0
252,-167,0,0,0,0,0,0,0,0,0,-1,1476,1191,0,0
259,-167,0,0,0,0,0,0,0,0,0,-1,1483,1191,0,0
266,-167,0,0,0,0,0,0,0,0,0,-1,1490,1191,0,0
273,-167,0,0,0,0,0,0,0,0,0,-1,1497,1191,0,0
280,-167,0,0,0,0,0,0,0,0,0,-1,1504,1191,0,0
287,-167,0,0,0,0,0,0,0,0,0,-1,1511,1191,0,0
294,-167,0,0,0,0,0,0,0,0,0,-1,1518,1191,0,0
301,-167,0,0,0,0,0,0,0,0,0,-1,1525,1191,0,0
308,-167,0,0,0,0,0,0,0,0,0,-1,1532,1191,0,0
315,-167,0,0,0,0,0,0,0,0,0,-1,1539,1191,0,0
322,-167,0,0,0,0,0,0,0,0,0,-1,1546,1191,0,0
329,-167,0,0,0,0,0,0,0,0,0,-1,1553,1191,0,0
336,-167,0,0,0,0,0,0,0,0,0,-1,1560,1191,0,0
343,-167,0,0,0,0,0,0,0,0,0,-1,1567,1191,0,0
350,-167,0,0,0,0,0,0,0,0,0,-1,1574,1191,0,0
357,-167,0,0,0,0,0,0,0,0,0,-1,1581,1191,0,0
364,-167,0,0,0,0,0,0,0,0,0,-1,1588,1191,0,0
371,-167,0,0,0,0,0,0,0,0,0,-1,1595,1191,0,0
378,-167,0,0,0,0,0,0,0,0,0,-1,1602,1191,0,0
385,-167,0,0,0,0,0,0,0,0,0,-1,1609,1191,0,0
392,-167,0,0,0,0,0,0,0,0,0,-1,1616,1191,0,0
399,-167,0,0,0,0,0,0,0,0,0,-1,1623,1191,0,0
406,-167,0,0,0,0,0,0,0,0,0,-1,1630,1191,0,0
413,-167,0,0,0,0,0,0,0,0,0,-1,1637,1191,0,0
420,-167,0,0,0,0,0,0,0,0,0,-1,1644,1191,0,0
427,-167,0,0,0,0,0,0,0,0,0,-1,1651,1191,0,0
434,-167,0,0,0,0,0,0,0,0,0,-1,1658,1191,0,0
441,-167,0,0,0,0,0,0,0,0,0,-1,1665,1191,0,0
448,-167,0,0,0,0,0,0,0,0,0,-1,1672,1191,0,0
455,-167,0,0,0,0,0,0,0,0,0,-1,1679,1191,0,0
462,-167,0,0,0,0,0,0,0,0,0,-1,1686,1191,0,0
469,-167,0,0,0,0,0,0,0,0,0,-1,1693,1191,0,0
476,-167,0,0,0,0,0,0,0,0,0,-1,1700,1191,0,0
483,-167,0,0,0,0,0,0,0,0,0,-1,1707,1191,0,0
490,-167,0,0,0,0,0,0,0,0,0,-1,1714,1191,0,0
497,-167,0,0,0,0,0,0,0,0,0,-1,1721,1191,0,0
504,-167,0,0,0,0,0,0,0,0,0,-1,1728,1191,0,0
511,-167,0,0,0,0,0,0,0,0,0,-1,1735,1191,0,0
518,-167,0,0,0,0,0,0,0,0,0,-1,1742,1191,0,0
525,-167,0,0,0,0,0,0,0,0,0,-1,1749,1191,0,0
532,-167,0,0,0,0,0,0,0,0,0,-1,1756,1191,0,0
539,-167,0,0,0,0,0,0,0,0,0,-1,1763,1191,0,0
546,-167,0,0,0,0,0,0,0,0,0,-1,1770,1191,0,0
553,-167,0,0,0,0,0,0,0,0,0,-1,1777,1191,0,0
560,-167,0,0,0,0,0,0,0,0,0,-1,1784,1191,0,0
567,-167,0,0,0,0,0,0,0,0,0,-1,1791,1191,0,0
574,-167,0,0,0,0,0,0,0,0,0,-1,1798,1191,0,0
581,-167,0,0,0,0,0,0,0,0,0,-1,1805,1191,0,0
588,-167,0,0,0,0,0,0,0,0,0,-1,1812,1191,0,0
595,-167,0,0,0,0,0,0,0,0,0,-1,1819,1191,0,0
602,-167,0,0,0,0,0,0,0,0,0,-1,1826,1191,0,0
609,-167,0,0,0,0,0,0,0,0,0,-1,1833,1191,0,0
616,-167,0,0,0,0,0,0,0,0,0,-1,1840,1191,0,0
623,-167,0,0,0,0,0,0,0,0,0,-1,1847,1191,0,0
630,-167,0,0,0,0,0,0,0,0,0,-1,1854,1191,0,0
637,-167,23.5641,2.56409,-0.00134416,-0.0014313,0.00443789,0.00305037,-0.00582583,0.78049,0.00520752,0.0427279,1861,1191,23.5641,-2.56414
644,-167,23.6382,2.45154,-0.000575226,-0.000900439,0.00361367,0.0028795,-0.00435516,0.762915,0.00420579,0.0440175,1868,1191,23.6382,-2.45154
651,-167,23.5651,2.96484,0.000232793,-0.000265537,0.00265766,0.00265294,-0.00268568,0.738658,0.00308227,0.0449132,1875,1191,23.5651,-2.96488
658,-167,23.6208,3.21667,0.000652306,7.62482e-05,0.00200445,0.00238931,-0.00166076,0.714039,0.00235089,0.0440559,1882,1191,23.6208,-3.21662
665,-167,23.7098,2.96191,0.000580233,0.00016312,0.00168947,0.00207397,-0.00133062,0.723986,0.00198119,0.0382609,1889,1191,23.7098,-2.9619
672,-167,23.6511,2.8446,0.000236642,5.2574e-05,0.00150233,0.00164976,-0.00136054,0.754806,0.00174067,0.0275598,1896,1191,23.6511,-2.84465
679,-167,23.6217,2.77869,-0.000358545,-0.000140566,0.00151003,0.00126441,-0.00176352,0.821424,0.00175607,0.0220347,1903,1191,23.6217,-2.77874
686,-167,23.6224,2.70203,-0.000910848,-0.000389524,0.00152072,0.000892716,-0.00219309,0.870277,0.00183356,0.0320193,1910,1191,23.6224,-2.70199
693,-167,23.4989,3.52161,0,0,0,0,0,0,0,-1,1917,1191,23.4989,-3.52159
700,-167,22.3212,4.34583,0,0,0,0,0,0,0,-1,1924,1191,22.3212,-4.34577
707,-167,21.2533,5.146,-0.00231189,-0.000712223,0.00145039,0.000144256,-0.00316837,1.03738,0.00216194,0.0407736,1931,1191,21.2533,-5.14596
714,-167,21.5033,4.95239,-0.0027062,-0.000789653,0.0015683,8.99633e-05,-0.00358581,1.05964,0.00242109,0.0294735,1938,1191,21.5033,-4.95236
721,-167,21.5222,4.64233,-0.00275805,-0.000790875,0.0015797,8.64216e-05,-0.00363535,1.06385,0.00245288,0.0240205,1945,1191,21.5222,-4.64234
728,-167,21.3976,4.5918,-0.00244685,-0.00052072,0.00123928,8.57078e-05,-0.00305328,1.11571,0.00206468,0.0164581,1952,1191,21.3976,-4.59179
735,-167,21.2947,4.50684,-0.00156631,0.000134265,0.00064456,0.000350958,-0.001783,1.24648,0.00132128,0.0138101,1959,1191,21.2947,-4.5068
742,-167,21.2865,4.34021,0.000447569,0.00102568,8.95015e-05,0.00103922,0.00043403,1.42066,0.000602698,0.0148695,1966,1191,21.2865,-4.34022
749,-167,21.2783,4.17834,0.00428334,0.00207325,-0.000258766,0.00431324,0.00204336,-0.115012,0.00249139,0.0142061,1973,1191,21.2784,-4.17836
756,-167,21.2794,4.04016,0.00989754,0.0026631,-0.000709105,0.00996639,0.00259425,-0.0967906,0.00597044,0.0106749,1980,1191,21.2794,-4.04014
763,-167,21.2706,3.89697,0.0159809,0.00348185,-0.00114665,0.0160852,0.00337753,-0.0907299,0.00979372,0.0118812,1987,1191,21.2706,-3.89695
770,-167,21.2419,3.82764,0.0234226,0.00395174,-0.00113428,0.0234885,0.00388588,-0.057994,0.0145378,0.0225486,1994,1191,21.2419,-3.82763
777,-167,20.7383,3.12891,0.0327487,0.00394826,-0.000639731,0.0327629,0.00393406,-0.022198,0.0206558,0.0405824,2001,1191,20.7383,-3.12885
784,-167,20.2621,2.67419,0.0444705,0.00315642,0.000526183,0.0444772,0.00314972,0.0127334,0.0286593,0.043827,2008,1191,20.2621,-2.67423
791,-167,20.7437,3.02905,0.059107,0.00116736,0.00267841,0.0592305,0.00104381,0.0460966,0.0391437,0.0425391,2015,1191,20.7437,-3.029
798,-167,21.2914,3.27905,0.0775719,-0.00262795,0.00615302,0.0780412,-0.00309727,0.0761274,0.05309,0.045769,2022,1191,21.2914,-3.27909
805,-167,21.7905,3.57837,0.100806,-0.00915118,0.011547,0.102006,-0.0103507,0.103509,0.0717035,0.0476742,2029,1191,21.7905,-3.57836
812,-167,0,0,0,0,0,0,0,0,0,-1,2036,1191,0,0
-700,-174,0,0,0,0,0,0,0,0,0,-1,524,1198,0,0
-693,-174,0,0,0,0,0,0,0,0,0,-1,531,1198,0,0
-686,-174,-14.2018,3.13831,0,0,0,0,0,0,0,-1,538,1198,-14.2018,-3.13828
-679,-174,-14.9116,2.49878,0,0,0,0,0,0,0,-1,545,1198,-14.9115,-2.49876
-672,-174,-15.5193,2.00305,0,0,0,0,0,0,0,-1,552,1198,-15.5193,-2.00304
-665,-174,-16.4928,1.2428,-0.00226265,-0.00041175,0.0194749,0.0181597,-0.0208341,0.80914,0.0225307,0.0423314,559,1198,-16.4928,-1.24283
-658,-174,-17.3765,0.284424,0.00262614,-0.000412798,0.015354,0.0165357,-0.0143223,0.736078,0.0178312,0.0447204,566,1198,-17.3765,-0.28443
-651,-174,-13.384,0.996826,0.00530427,-4.90212e-05,0.0116247,0.0145565,-0.00930122,0.672242,0.0138852,0.0489578,573,1198,-13.384,-0.996814
-644,-174,-13.2443,1.13342,0.00620076,0.000395523,0.00844006,0.0122234,-0.00562709,0.619779,0.0105379,0.043496,580,1198,-13.2443,-1.13339
-637,-174,-13.1344,1.26453,0.00608315,0.000582526,0.00582975,0.00977878,-0.00311311,0.564993,0.0077677,0.0218995,587,1198,-13.1344,-1.26447
-630,-174,-13.1981,1.40686,0.00501947,0.000615685,0.00366019,0.00708903,-0.00145388,0.514608,0.00527782,0.0112491,594,1198,-13.1981,-1.40691
-623,-174,-13.2346,1.57532,0.00294242,0.000408081,0.00154725,0.00367518,-0.000324673,0.442293,0.0025652,0.0131773,601,1198,-13.2346,-1.5753
-616,-174,-13.2379,1.77649,-9.68203e-05,-0.000497119,-0.000739207,0.000468854,-0.00106279,-0.653187,0.000906188,0.0185834,608,1198,-13.2379,-1.77647
-609,-174,-13.2294,1.96301,-0.00288083,-0.00111882,-0.00273675,0.000875233,-0.00487488,-0.941118,0.00357753,0.0222718,615,1198,-13.2294,-1.96306
-602,-174,-13.2448,2.1145,-0.00653473,-0.00222984,-0.0044619,0.000571661,-0.00933623,-1.01013,0.00642319,0.0161313,622,1198,-13.2448,-2.11451
-595,-174,-13.2542,2.33789,-0.00977424,-0.00303215,-0.00572143,0.000237491,-0.0130439,-1.05162,0.00877615,0.0138053,629,1198,-13.2542,-2.33788
-588,-174,-13.3447,2.51538,-0.0119686,-0.00357416,-0.00650874,-2.6674e-05,-0.0155161,-1.07177,0.0103352,0.0165392,636,1198,-13.3447,-2.51541
-581,-174,-13.317,2.67908,-0.0132274,-0.00397932,-0.00715815,-8.15783e-05,-0.0171252,-1.07217,0.0113897,0.019838,643,1198,-13.317,-2.67902
-574,-174,-13.8268,2.65588,-0.0133326,-0.00396221,-0.0072426,-2.15061e-05,-0.0172733,-1.07249,0.0115084,0.0487663,650,1198,-13.8268,-2.65586
-567,-174,-14.7129,2.12415,-0.0133069,-0.00383942,-0.00688097,-0.000221143,-0.0169251,-1.08669,0.0112104,0.0468446,657,1198,-14.7129,-2.12417
-560,-174,-15.9284,1.33435,0,0,0,0,0,0,0,-1,664,1198,-15.9284,-1.33431
-553,-174,-15.7418,0.720215,-0.0118568,-0.00278421,-0.00572397,-1.69603e-05,-0.0146241,-1.12048,0.00974373,0.0362483,671,1198,-15.7418,-0.720194
-546,-174,-15.8127,0.857056,-0.00987445,-0.00186342,-0.00447,0.000133153,-0.011871,-1.15072,0.00795877,0.0282986,678,1198,-15.8127,-0.85711
-539,-174,-15.9482,0.858032,-0.00685009,-0.000635819,-0.00264023,0.000334436,-0.00782035,-1.21863,0.00532854,0.0347442,685,1198,-15.9482,-0.858047
-532,-174,-15.8557,0.690674,-0.002325,0.000953872,-7.91306e-05,0.000955781,-0.00232691,-1.54668,0.00194959,0.0456916,692,1198,-15.8557,-0.69063
-525,-174,-15.8436,0.62915,0.00387651,0.00289567,0.0030764,0.00650133,0.000270847,0.706356,0.00424682,0.0426706,699,1198,-15.8436,-0.629165
-518,-174,-15.8845,0.771973,0.00923718,0.00405758,0.00528702,0.0125346,0.000760136,0.557654,0.00811491,0.0419421,706,1198,-15.8845,-0.77193
-511,-174,0,0,0,0,0,0,0,0,0,-1,713,1198,0,0
-504,-174,0,0,0,0,0,0,0,0,0,-1,720,1198,0,0
-497,-174,0,0,0,0,0,0,0,0,0,-1,727,1198,0,0
-490,-174,0,0,0,0,0,0,0,0,0,-1,734,1198,0,0
-483,-174,0,0,0,0,0,0,0,0,0,-1,741,1198,0,0
-476,-174,0,0,0,0,0,0,0,0,0,-1,748,1198,0,0
-469,-174,0,0,0,0,0,0,0,0,0,-1,755,1198,0,0
-462,-174,0,0,0,0,0,0,0,0,0,-1,762,1198,0,0
-455,-174,0,0,0,0,0,0,0,0,0,-1,769,1198,0,0
-448,-174,0,0,0,0,0,0,0,0,0,-1,776,1198,0,0
-441,-174,0,0,0,0,0,0,0,0,0,-1,783,1198,0,0
-434,-174,0,0,0,0,0,0,0,0,0,-1,790,1198,0,0
-427,-174,0,0,0,0,0,0,0,0,0,-1,797,1198,0,0
-420,-174,0,0,0,0,0,0,0,0,0,-1,804,1198,0,0
-413,-174,0,0,0,0,0,0,0,0,0,-1,811,1198,0,0
-406,-174,0,0,0,0,0,0,0,0,0,-1,818,1198,0,0
-399,-174,0,0,0,0,0,0,0,0,0,-1,825,1198,0,0
-392,-174,0,0,0,0,0,0,0,0,0,-1,832,1198,0,0
-385,-174,0,0,0,0,0,0,0,0,0,-1,839,1198,0,0
-378,-174,0,0,0,0,0,0,0,0,0,-1,846,1198,0,0
-371,-174,0,0,0,0,0,0,0,0,0,-1,853,1198,0,0
-364,-174,0,0,0,0,0,0,0,0,0,-1,860,1198,0,0
-357,-174,0,0,0,0,0,0,0,0,0,-1,867,1198,0,0
-350,-174,0,0,0,0,0,0,0,0,0,-1,874,1198,0,0
-343,-174,0,0,0,0,0,0,0,0,0,-1,881,1198,0,0
-336,-174,0,0,0,0,0,0,0,0,0,-1,888,1198,0,0
-329,-174,0,0,0,0,0,0,0,0,0,-1,895,1198,0,0
-322,-174,0,0,0,0,0,0,0,0,0,-1,902,1198,0,0
-315,-174,0,0,0,0,0,0,0,0,0,-1,909,1198,0,0
-308,-174,0,0,0,0,0,0,0,0,0,-1,916,1198,0,0
-301,-174,0,0,0,0,0,0,0,0,0,-1,923,1198,0,0
-294,-174,0,0,0,0,0,0,0,0,0,-1,930,1198,0,0
-287,-174,0,0,0,0,0,0,0,0,0,-1,937,1198,0,0
-280,-174,0,0,0,0,0,0,0,0,0,-1,944,1198,0,0
-273,-174,0,0,0,0,0,0,0,0,0,-1,951,1198,0,0
-266,-174,0,0,0,0,0,0,0,0,0,-1,958,1198,0,0
-259,-174,0,0,0,0,0,0,0,0,0,-1,965,1198,0,0
-252,-174,0,0,0,0,0,0,0,0,0,-1,972,1198,0,0
-245,-174,0,0,0,0,0,0,0,0,0,-1,979,1198,0,0
-238,-174,0,0,0,0,0,0,0,0,0,-1,986,1198,0,0
-231,-174,0,0,0,0,0,0,0,0,0,-1,993,1198,0,0
-224,-174,0,0,0,0,0,0,0,0,0,-1,1000,1198,0,0
-217,-174,0,0,0,0,0,0,0,0,0,-1,1007,1198,0,0
-210,-174,0,0,0,0,0,0,0,0,0,-1,1014,1198,0,0
-203,-174,0,0,0,0,0,0,0,0,0,-1,1021,1198,0,0
-196,-174,0,0,0,0,0,0,0,0,0,-1,1028,1198,0,0
-189,-174,0,0,0,0,0,0,0,0,0,-1,1035,1198,0,0
-182,-174,0,0,0,0,0,0,0,0,0,-1,1042,1198,0,0
-175,-174,0,0,0,0,0,0,0,0,0,-1,1049,1198,0,0
-168,-174,0,0,0,0,0,0,0,0,0,-1,1056,1198,0,0
-161,-174,0,0,0,0,0,0,0,0,0,-1,1063,1198,0,0
-154,-174,0,0,0,0,0,0,0,0,0,-1,1070,1198,0,0
-147,-174,0,0,0,0,0,0,0,0,0,-1,1077,1198,0,0
-140,-174,0,0,0,0,0,0,0,0,0,-1,1084,1198,0,0
-133,-174,0,0,0,0,0,0,0,0,0,-1,1091,1198,0,0
-126,-174,0,0,0,0,0,0,0,0,0,-1,1098,1198,0,0
-119,-174,0,0,0,0,0,0,0,0,0,-1,1105,1198,0,0
-112,-174,0,0,0,0,0,0,0,0,0,-1,1112,1198,0,0
-105,-174,0,0,0,0,0,0,0,0,0,-1,1119,1198,0,0
-98,-174,0,0,0,0,0,0,0,0,0,-1,1126,1198,0,0
-91,-174,0,0,0,0,0,0,0,0,0,-1,1133,1198,0,0
-84,-174,0,0,0,0,0,0,0,0,0,-1,1140,1198,0,0
-77,-174,0,0,0,0,0,0,0,0,0,-1,1147,1198,0,0
-70,-174,0,0,0,0,0,0,0,0,0,-1,1154,1198,0,0
-63,-174,0,0,0,0,0,0,0,0,0,-1,1161,1198,0,0
-56,-174,0,0,0,0,0,0,0,0,0,-1,1168,1198,0,0
-49,-174,0,0,0,0,0,0,0,0,0,-1,1175,1198,0,0
-42,-174,0,0,0,0,0,0,0,0,0,-1,1182,1198,0,0
-35,-174,0,0,0,0,0,0,0,0,0,-1,1189,1198,0,0
-28,-174,0,0,0,0,0,0,0,0,0,-1,1196,1198,0,0
-21,-174,0,0,0,0,0,0,0,0,0,-1,1203,1198,0,0
-14,-174,0,0,0,0,0,0,0,0,0,-1,1210,1198,0,0
-7,-174,0,0,0,0,0,0,0,0,0,-1,1217,1198,0,0
0,-174,0,0,0,0,0,0,0,0,0,-1,1224,1198,0,0
7,-174,0,0,0,0,0,0,0,0,0,-1,1231,1198,0,0
14,-174,0,0,0,0,0,0,0,0,0,-1,1238,1198,0,0
21,-174,0,0,0,0,0,0,0,0,0,-1,1245,1198,0,0
28,-174,0,0,0,0,0,0,0,0,0,-1,1252,1198,0,0
35,-174,0,0,0,0,0,0,0,0,0,-1,1259,1198,0,0
42,-174,0,0,0,0,0,0,0,0,0,-1,1266,1198,0,0
49,-174,0,0,0,0,0,0,0,0,0,-1,1273,1198,0,0
56,-174,0,0,0,0,0,0,0,0,0,-1,1280,1198,0,0
63,-174,0,0,0,0,0,0,0,0,0,-1,1287,1198,0,0
70,-174,0,0,0,0,0,0,0,0,0,-1,1294,1198,0,0
77,-174,0,0,0,0,0,0,0,0,0,-1,1301,1198,0,0
84,-174,0,0,0,0,0,0,0,0,0,-1,1308,1198,0,0
91,-174,0,0,0,0,0,0,0,0,0,-1,1315,1198,0,0
98,-174,0,0,0,0,0,0,0,0,0,-1,1322,1198,0,0
105,-174,0,0,0,0,0,0,0,0,0,-1,1329,1198,0,0
112,-174,0,0,0,0,0,0,0,0,0,-1,1336,1198,0,0
119,-174,0,0,0,0,0,0,0,0,0,-1,1343,1198,0,0
126,-174,0,0,0,0,0,0,0,0,0,-1,1350,1198,0,0
133,-174,0,0,0,0,0,0,0,0,0,-1,1357,1198,0,0
140,-174,0,0,0,0,0,0,0,0,0,-1,1364,1198,0,0
147,-174,0,0,0,0,0,0,0,0,0,-1,1371,1198,0,0
154,-174,0,0,0,0,0,0,0,0,0,-1,1378,1198,0,0
161,-174,0,0,0,0,0,0,0,0,0,-1,1385,1198,0,0
168,-174,0,0,0,0,0,0,0,0,0,-1,1392,1198,0,0
175,-174,0,0,0,0,0,0,0,0,0,-1,1399,1198,0,0
182,-174,0,0,0,0,0,0,0,0,0,-1,1406,1198,0,0
189,-174,0,0,0,0,0,0,0,0,0,-1,1413,1198,0,0
196,-174,0,0,0,0,0,0,0,0,0,-1,1420,1198,0,0
203,-174,0,0,0,0,0,0,0,0,0,-1,1427,1198,0,0
210,-174,0,0,0,0,0,0,0,0,0,-1,1434,1198,0,0
217,-174,0,0,0,0,0,0,0,0,0,-1,1441,1198,0,0
224,-174,0,0,0,0,0,0,0,0,0,-1,1448,1198,0,0
231,-174,0,0,0,0,0,0,0,0,0,-1,1455,1198,0,0
238,-174,0,0,0,0,0,0,0,0,0,-1,1462,1198,0,0
245,-174,0,0,0,0,0,0,0,0,0,-1,1469,1198,0,0
252,-174,0,0,0,0,0,0,0,0,0,-1,1476,1198,0,0
259,-174,0,0,0,0,0,0,0,0,0,-1,1483,1198,0,0
266,-174,0,0,0,0,0,0,0,0,0,-1,1490,1198,0,0
273,-174,0,0,0,0,0,0,0,0,0,-1,1497,1198,0,0
280,-174,0,0,0,0,0,0,0,0,0,-1,1504,1198,0,0
287,-174,0,0,0,0,0,0,0,0,0,-1,1511,1198,0,0
294,-174,0,0,0,0,0,0,0,0,0,-1,1518,1198,0,0
301,-174,0,0,0,0,0,0,0,0,0,-1,1525,1198,0,0
308,-174,0,0,0,0,0,0,0,0,0,-1,1532,1198,0,0
315,-174,0,0,0,0,0,0,0,0,0,-1,1539,1198,0,0
322,-174,0,0,0,0,0,0,0,0,0,-1,1546,1198,0,0
329,-174,0,0,0,0,0,0,0,0,0,-1,1553,1198,0,0
336,-174,0,0,0,0,0,0,0,0,0,-1,1560,1198,0,0
343,-174,0,0,0,0,0,0,0,0,0,-1,1567,1198,0,0
350,-174,0,0,0,0,0,0,0,0,0,-1,1574,1198,0,0
357,-174,0,0,0,0,0,0,0,0,0,-1,1581,1198,0,0
364,-174,0,0,0,0,0,0,0,0,0,-1,1588,1198,0,0
371,-174,0,0,0,0,0,0,0,0,0,-1,1595,1198,0,0
378,-174,0,0,0,0,0,0,0,0,0,-1,1602,1198,0,0
385,-174,0,0,0,0,0,0,0,0,0,-1,1609,1198,0,0
392,-174,0,0,0,0,0,0,0,0,0,-1,1616,1198,0,0
399,-174,0,0,0,0,0,0,0,0,0,-1,1623,1198,0,0
406,-174,0,0,0,0,0,0,0,0,0,-1,1630,1198,0,0
413,-174,0,0,0,0,0,0,0,0,0,-1,1637,1198,0,0
420,-174,0,0,0,0,0,0,0,0,0,-1,1644,1198,0,0
427,-174,0,0,0,0,0,0,0,0,0,-1,1651,1198,0,0
434,-174,0,0,0,0,0,0,0,0,0,-1,1658,1198,0,0
441,-174,0,0,0,0,0,0,0,0,0,-1,1665,1198,0,0
448,-174,0,0,0,0,0,0,0,0,0,-1,1672,1198,0,0
455,-174,0,0,0,0,0,0,0,0,0,-1,1679,1198,0,0
462,-174,0,0,0,0,0,0,0,0,0,-1,1686,1198,0,0
469,-174,0,0,0,0,0,0,0,0,0,-1,1693,1198,0,0
476,-174,0,0,0,0,0,0,0,0,0,-1,1700,1198,0,0
483,-174,0,0,0,0,0,0,0,0,0,-1,1707,1198,0,0
490,-174,0,0,0,0,0,0,0,0,0,-1,1714,1198,0,0
497,-174,0,0,0,0,0,0,0,0,0,-1,1721,1198,0,0
504,-174,0,0,0,0,0,0,0,0,0,-1,1728,1198,0,0
511,-174,0,0,0,0,0,0,0,0,0,-1,1735,1198,0,0
518,-174,0,0,0,0,0,0,0,0,0,-1,1742,1198,0,0
525,-174,0,0,0,0,0,0,0,0,0,-1,1749,1198,0,0
532,-174,0,0,0,0,0,0,0,0,0,-1,1756,1198,0,0
539,-174,0,0,0,0,0,0,0,0,0,-1,1763,1198,0,0
546,-174,0,0,0,0,0,0,0,0,0,-1,1770,1198,0,0
553,-174,0,0,0,0,0,0,0,0,0,-1,1777,1198,0,0
560,-174,0,0,0,0,0,0,0,0,0,-1,1784,1198,0,0
567,-174,0,0,0,0,0,0,0,0,0,-1,1791,1198,0,0
574,-174,0,0,0,0,0,0,0,0,0,-1,1798,1198,0,0
581,-174,0,0,0,0,0,0,0,0,0,-1,1805,1198,0,0
588,-174,0,0,0,0,0,0,0,0,0,-1,1812,1198,0,0
595,-174,0,0,0,0,0,0,0,0,0,-1,1819,1198,0,0
602,-174,0,0,0,0,0,0,0,0,0,-1,1826,1198,0,0
609,-174,0,0,0,0,0,0,0,0,0,-1,1833,1198,0,0
616,-174,0,0,0,0,0,0,0,0,0,-1,1840,1198,0,0
623,-174,0,0,0,0,0,0,0,0,0,-1,1847,1198,0,0
630,-174,0,0,0,0,0,0,0,0,0,-1,1854,1198,0,0
637,-174,23.4435,2.75513,-0.00130622,-0.00168229,0.00413851,0.00264852,-0.00563703,0.762696,0.00488629,0.0412664,1861,1198,23.4435,-2.75517
644,-174,23.5508,2.77942,-0.000237555,-0.00093881,0.00324607,0.00267677,-0.00385314,0.731599,0.00379038,0.0428095,1868,1198,23.5508,-2.77947
651,-174,23.5912,2.83374,0.000753687,-0.000165109,0.0023019,0.00264158,-0.002053,0.686905,0.00271751,0.0441776,1875,1198,23.5912,-2.83375
658,-174,23.5243,2.9198,0.00122603,0.000211552,0.00172473,0.00251656,-0.00107898,0.642382,0.00213047,0.0413294,1882,1198,23.5243,-2.91977
665,-174,23.4746,2.76917,0.00120775,0.000296749,0.00144502,0.00226736,-0.000762865,0.632718,0.00181996,0.033593,1889,1198,23.4746,-2.76912
672,-174,23.5769,2.74023,0.000867023,0.000168628,0.00129553,0.00185959,-0.00082394,0.653756,0.00158733,0.0255086,1896,1198,23.5769,-2.74018
679,-174,23.6061,2.72656,0.00028625,-2.65542e-05,0.00133345,0.00147244,-0.00121275,0.727019,0.00155271,0.02293,1903,1198,23.606,-2.72655
686,-174,23.6139,2.67249,0,0,0,0,0,0,0,-1,1910,1198,23.6139,-2.67252
693,-174,23.0997,2.96606,0,0,0,0,0,0,0,-1,1917,1198,23.0998,-2.96607
700,-174,21.0765,5.37451,0,0,0,0,0,0,0,-1,1924,1198,21.0765,-5.3745
707,-174,21.2631,5.17078,-0.00173377,-0.000651762,0.00127104,0.000188625,-0.00257415,0.986603,0.00178231,0.0414555,1931,1198,21.2631,-5.17081
714,-174,21.3762,4.96118,-0.00220099,-0.000759497,0.00141693,0.000109458,-0.00306995,1.02068,0.00208408,0.0265002,1938,1198,21.3762,-4.96118
721,-174,21.3352,4.75195,-0.00228629,-0.000772033,0.00144744,0.000104337,-0.00316266,1.02637,0.00214407,0.0202781,1945,1198,21.3352,-4.7519
728,-174,21.1774,4.64636,-0.00185853,-0.000443804,0.00111507,0.000169344,-0.00247168,1.06805,0.00170703,0.0134595,1952,1198,21.1773,-4.64635
735,-174,21.1384,4.51538,-0.000745832,0.000332321,0.000449599,0.000495201,-0.000908712,1.22323,0.000822186,0.0113641,1959,1198,21.1385,-4.51532
742,-174,21.1418,4.3457,0.00168798,0.0013737,-0.000256126,0.00183133,0.00123035,-0.510245,0.00107793,0.0192294,1966,1198,21.1419,-4.34568
749,-174,21.1426,4.17932,0.00585498,0.00246615,-0.000782157,0.00602679,0.00229434,-0.216233,0.00351243,0.017851,1973,1198,21.1425,-4.17934
756,-174,21.1158,4.01709,0.0116387,0.0031901,-0.00136683,0.0118543,0.00297447,-0.156465,0.00712157,0.0106141,1980,1198,21.1158,-4.01712
763,-174,21.0948,3.86926,0.0178946,0.00410951,-0.00197156,0.018171,0.00383308,-0.139302,0.01106,0.0124764,1987,1198,21.0949,-3.86924
770,-174,21.1212,3.76318,0.0255151,0.00470518,-0.00223577,0.0257526,0.00446768,-0.105829,0.0158899,0.0246353,1994,1198,21.1212,-3.76321
777,-174,21.4766,3.71484,0.0348995,0.00481108,-0.00209981,0.0350453,0.00466524,-0.0693401,0.0219742,0.0441905,2001,1198,21.4766,-3.71481
784,-174,20.0682,2.71692,0.0463112,0.00408984,-0.00134224,0.0463538,0.00404721,-0.0317478,0.0296457,0.0482386,2008,1198,20.0682,-2.71691
791,-174,20.6998,3.24646,0.0600732,0.0021076,0.000351215,0.0600753,0.00210547,0.00605873,0.0393672,0.0452057,2015,1198,20.6999,-3.2464
798,-174,21.1349,3.63904,0.0768095,-0.00179275,0.00335465,0.0769524,-0.00193566,0.0425756,0.0519588,0.0454843,2022,1198,21.1349,-3.63898
805,-174,21.5591,3.79382,0.097021,-0.00862598,0.00835019,0.0976769,-0.0092819,0.0783899,0.0684221,0.0448437,2029,1198,21.5591,-3.79386
812,-174,0,0,0,0,0,0,0,0,0,-1,2036,1198,0,0
-700,-181,0,0,0,0,0,0,0,0,0,-1,524,1205,0,0
-693,-181,0,0,0,0,0,0,0,0,0,-1,531,1205,0,0
-686,-181,-12.923,-5.29749,0,0,0,0,0,0,0,-1,538,1205,-12.923,5.29754
-679,-181,-15.7216,3.18896,0,0,0,0,0,0,0,-1,545,1205,-15.7216,-3.18902
-672,-181,-16.1202,2.6167,0,0,0,0,0,0,0,-1,552,1205,-16.1202,-2.6167
-665,-181,-17.3171,1.62622,0,0,0,0,0,0,0,-1,559,1205,-17.3171,-1.6262
-658,-181,-17.9266,0.794556,0,0,0,0,0,0,0,-1,566,1205,-17.9266,-0.794536
-651,-181,-13.5942,1.1239,0.0103518,0.00145725,0.0121606,0.0188529,-0.00704381,0.610097,0.015461,0.0446487,573,1205,-13.5942,-1.12395
-644,-181,-13.3173,1.39966,0.0104166,0.00195025,0.00902386,0.0161508,-0.00378402,0.566084,0.0122254,0.0395651,580,1205,-13.3172,-1.39971
-637,-181,-12.9414,1.2533,0.00939613,0.00211265,0.00644673,0.0131586,-0.00164984,0.528294,0.0093709,0.0227271,587,1205,-12.9414,-1.25331
-630,-181,-13.0031,1.39368,0.00761406,0.00203178,0.00430024,0.00994957,-0.000303722,0.497539,0.00673657,0.0119744,594,1205,-13.003,-1.39369
-623,-181,-13.0526,1.56299,0.00510022,0.00159045,0.00222175,0.00617655,0.000514112,0.451133,0.00395748,0.0144942,601,1205,-13.0526,-1.56298
-616,-181,-13.038,1.7655,0.00171962,0.00053007,-2.57372e-05,0.00172018,0.000529513,-0.0216226,0.0010173,0.014024,608,1205,-13.038,-1.76551
-609,-181,-13.0271,1.95691,-0.00138509,-0.000277808,-0.00202315,0.00126609,-0.00292899,-0.918955,0.00248464,0.0145434,615,1205,-13.0271,-1.95694
-602,-181,-13.0355,2.14453,-0.00526729,-0.00152921,-0.0037821,0.000820467,-0.00761697,-1.01489,0.0053724,0.0136143,622,1205,-13.0355,-2.14454
-595,-181,-13.0761,2.328,-0.00862101,-0.00237138,-0.00510662,0.000490629,-0.011483,-1.05996,0.00782402,0.0126787,629,1205,-13.0761,-2.32804
-588,-181,-13.1111,2.54749,-0.0108742,-0.002976,-0.00598153,0.000242481,-0.0140927,-1.07716,0.00947696,0.0138398,636,1205,-13.1112,-2.54744
-581,-181,-13.078,2.80737,-0.0121766,-0.00341818,-0.00682753,0.00031388,-0.0159087,-1.07055,0.0107119,0.0161392,643,1205,-13.078,-2.80742
-574,-181,-13.4331,2.7998,-0.0123817,-0.00336896,-0.00700707,0.000455712,-0.0162064,-1.07116,0.0109593,0.0395879,650,1205,-13.4331,-2.79976
-567,-181,-14.041,2.69678,0,0,0,0,0,0,0,-1,657,1205,-14.041,-2.69676
-560,-181,-14.5295,0.80188,0,0,0,0,0,0,0,-1,664,1205,-14.5295,-0.801844
-553,-181,-15.7442,0.73938,-0.011391,-0.00211279,-0.00585907,0.000721395,-0.0142252,-1.12025,0.00973283,0.0412421,671,1205,-15.7442,-0.739362
-546,-181,-15.7943,0.839722,-0.0098801,-0.00125957,-0.00489179,0.000949982,-0.0120896,-1.14654,0.00839436,0.0336428,678,1205,-15.7943,-0.839706
-539,-181,-15.9092,0.825806,-0.00755643,-0.000177722,-0.00342985,0.0011703,-0.00890445,-1.19631,0.00636238,0.0379958,685,1205,-15.9092,-0.825749
-532,-181,-15.8453,0.721191,0,0,0,0,0,0,0,-1,692,1205,-15.8453,-0.721131
-525,-181,-16.0001,0.757935,0.000955516,0.00272639,0.00158115,0.00365315,2.87591e-05,1.04064,0.0024259,0.042405,699,1205,-16.0002,-0.757958
-518,-181,-15.8672,0.821289,0.00570499,0.00352814,0.0042091,0.00896412,0.000269015,0.658875,0.00588846,0.0386383,706,1205,-15.8672,-0.821348
-511,-181,0,0,0,0,0,0,0,0,0,-1,713,1205,0,0
-504,-181,0,0,0,0,0,0,0,0,0,-1,720,1205,0,0
-497,-181,0,0,0,0,0,0,0,0,0,-1,727,1205,0,0
-490,-181,0,0,0,0,0,0,0,0,0,-1,734,1205,0,0
-483,-181,0,0,0,0,0,0,0,0,0,-1,741,1205,0,0
-476,-181,0,0,0,0,0,0,0,0,0,-1,748,1205,0,0
-469,-181,0,0,0,0,0,0,0,0,0,-1,755,1205,0,0
-462,-181,0,0,0,0,0,0,0,0,0,-1,762,1205,0,0
-455,-181,0,0,0,0,0,0,0,0,0,-1,769,1205,0,0
-448,-181,0,0,0,0,0,0,0,0,0,-1,776,1205,0,0
-441,-181,0,0,0,0,0,0,0,0,0,-1,783,1205,0,0
-434,-181,0,0,0,0,0,0,0,0,0,-1,790,1205,0,0
-427,-181,0,0,0,0,0,0,0,0,0,-1,797,1205,0,0
-420,-181,0,0,0,0,0,0,0,0,0,-1,804,1205,0,0
-413,-181,0,0,0,0,0,0,0,0,0,-1,811,1205,0,0
-406,-181,0,0,0,0,0,0,0,0,0,-1,818,1205,0,0
-399,-181,0,0,0,0,0,0,0,0,0,-1,825,1205,0,0
-392,-181,0,0,0,0,0,0,0,0,0,-1,832,1205,0,0
-385,-181,0,0,0,0,0,0,0,0,0,-1,839,1205,0,0
-378,-181,0,0,0,0,0,0,0,0,0,-1,846,1205,0,0
-371,-181,0,0,0,0,0,0,0,0,0,-1,853,1205,0,0
-364,-181,0,0,0,0,0,0,0,0,0,-1,860,1205,0,0
-357,-181,0,0,0,0,0,0,0,0,0,-1,867,1205,0,0
-350,-181,0,0,0,0,0,0,0,0,0,-1,874,1205,0,0
-343,-181,0,0,0,0,0,0,0,0,0,-1,881,1205,0,0
-336,-181,0,0,0,0,0,0,0,0,0,-1,888,1205,0,0
-329,-181,0,0,0,0,0,0,0,0,0,-1,895,1205,0,0
-322,-181,0,0,0,0,0,0,0,0,0,-1,902,1205,0,0
-315,-181,0,0,0,0,0,0,0,0,0,-1,909,1205,0,0
-308,-181,0,0,0,0,0,0,0,0,0,-1,916,1205,0,0
-301,-181,0,0,0,0,0,0,0,0,0,-1,923,1205,0,0
-294,-181,0,0,0,0,0,0,0,0,0,-1,930,1205,0,0
-287,-181,0,0,0,0,0,0,0,0,0,-1,937,1205,0,0
-280,-181,0,0,0,0,0,0,0,0,0,-1,944,1205,0,0
-273,-181,0,0,0,0,0,0,0,0,0,-1,951,1205,0,0
-266,-181,0,0,0,0,0,0,0,0,0,-1,958,1205,0,0
-259,-181,0,0,0,0,0,0,0,0,0,-1,965,1205,0,0
-252,-181,0,0,0,0,0,0,0,0,0,-1,972,1205,0,0
-245,-181,0,0,0,0,0,0,0,0,0,-1,979,1205,0,0
-238,-181,0,0,0,0,0,0,0,0,0,-1,986,1205,0,0
-231,-181,0,0,0,0,0,0,0,0,0,-1,993,1205,0,0
-224,-181,0,0,0,0,0,0,0,0,0,-1,1000,1205,0,0
-217,-181,0,0,0,0,0,0,0,0,0,-1,1007,1205,0,0
-210,-181,0,0,0,0,0,0,0,0,0,-1,1014,1205,0,0
-203,-181,0,0,0,0,0,0,0,0,0,-1,1021,1205,0,0
-196,-181,0,0,0,0,0,0,0,0,0,-1,1028,1205,0,0
-189,-181,0,0,0,0,0,0,0,0,0,-1,1035,1205,0,0
-182,-181,0,0,0,0,0,0,0,0,0,-1,1042,1205,0,0
-175,-181,0,0,0,0,0,0,0,0,0,-1,1049,1205,0,0
-168,-181,0,0,0,0,0,0,0,0,0,-1,1056,1205,0,0
-161,-181,0,0,0,0,0,0,0,0,0,-1,1063,1205,0,0
-154,-181,0,0,0,0,0,0,0,0,0,-1,1070,1205,0,0
-147,-181,0,0,0,0,0,0,0,0,0,-1,1077,1205,0,0
-140,-181,0,0,0,0,0,0,0,0,0,-1,1084,1205,0,0
-133,-181,0,0,0,0,0,0,0,0,0,-1,1091,1205,0,0
-126,-181,0,0,0,0,0,0,0,0,0,-1,1098,1205,0,0
-119,-181,0,0,0,0,0,0,0,0,0,-1,1105,1205,0,0
-112,-181,0,0,0,0,0,0,0,0,0,-1,1112,1205,0,0
-105,-181,0,0,0,0,0,0,0,0,0,-1,1119,1205,0,0
-98,-181,0,0,0,0,0,0,0,0,0,-1,1126,1205,0,0
-91,-181,0,0,0,0,0,0,0,0,0,-1,1133,1205,0,0
-84,-181,0,0,0,0,0,0,0,0,0,-1,1140,1205,0,0
-77,-181,0,0,0,0,0,0,0,0,0,-1,1147,1205,0,0
-70,-181,0,0,0,0,0,0,0,0,0,-1,1154,1205,0,0
-63,-181,0,0,0,0,0,0,0,0,0,-1,1161,1205,0,0
-56,-181,0,0,0,0,0,0,0,0,0,-1,1168,1205,0,0
-49,-181,0,0,0,0,0,0,0,0,0,-1,1175,1205,0,0
-42,-181,0,0,0,0,0,0,0,0,0,-1,1182,1205,0,0
-35,-181,0,0,0,0,0,0,0,0,0,-1,1189,1205,0,0
-28,-181,0,0,0,0,0,0,0,0,0,-1,1196,1205,0,0
-21,-181,0,0,0,0,0,0,0,0,0,-1,1203,1205,0,0
-14,-181,0,0,0,0,0,0,0,0,0,-1,1210,1205,0,0
-7,-181,0,0,0,0,0,0,0,0,0,-1,1217,1205,0,0
0,-181,0,0,0,0,0,0,0,0,0,-1,1224,1205,0,0
7,-181,0,0,0,0,0,0,0,0,0,-1,1231,1205,0,0
14,-181,0,0,0,0,0,0,0,0,0,-1,1238,1205,0,0
21,-181,0,0,0,0,0,0,0,0,0,-1,1245,1205,0,0
28,-181,0,0,0,0,0,0,0,0,0,-1,1252,1205,0,0
35,-181,0,0,0,0,0,0,0,0,0,-1,1259,1205,0,0
42,-181,0,0,0,0,0,0,0,0,0,-1,1266,1205,0,0
49,-181,0,0,0,0,0,0,0,0,0,-1,1273,1205,0,0
56,-181,0,0,0,0,0,0,0,0,0,-1,1280,1205,0,0
63,-181,0,0,0,0,0,0,0,0,0,-1,1287,1205,0,0
70,-181,0,0,0,0,0,0,0,0,0,-1,1294,1205,0,0
77,-181,0,0,0,0,0,0,0,0,0,-1,1301,1205,0,0
84,-181,0,0,0,0,0,0,0,0,0,-1,1308,1205,0,0
91,-181,0,0,0,0,0,0,0,0,0,-1,1315,1205,0,0
98,-181,0,0,0,0,0,0,0,0,0,-1,1322,1205,0,0
105,-181,0,0,0,0,0,0,0,0,0,-1,1329,1205,0,0
112,-181,0,0,0,0,0,0,0,0,0,-1,1336,1205,0,0
119,-181,0,0,0,0,0,0,0,0,0,-1,1343,1205,0,0
126,-181,0,0,0,0,0,0,0,0,0,-1,1350,1205,0,0
133,-181,0,0,0,0,0,0,0,0,0,-1,1357,1205,0,0
140,-181,0,0,0,0,0,0,0,0,0,-1,1364,1205,0,0
147,-181,0,0,0,0,0,0,0,0,0,-1,1371,1205,0,0
154,-181,0,0,0,0,0,0,0,0,0,-1,1378,1205,0,0
161,-181,0,0,0,0,0,0,0,0,0,-1,1385,1205,0,0
168,-181,0,0,0,0,0,0,0,0,0,-1,1392,1205,0,0
175,-181,0,0,0,0,0,0,0,0,0,-1,1399,1205,0,0
182,-181,0,0,0,0,0,0,0,0,0,-1,1406,1205,0,0
189,-181,0,0,0,0,0,0,0,0,0,-1,1413,1205,0,0
196,-181,0,0,0,0,0,0,0,0,0,-1,1420,1205,0,0
203,-181,0,0,0,0,0,0,0,0,0,-1,1427,1205,0,0
210,-181,0,0,0,0,0,0,0,0,0,-1,1434,1205,0,0
217,-181,0,0,0,0,0,0,0,0,0,-1,1441,1205,0,0
224,-181,0,0,0,0,0,0,0,0,0,-1,1448,1205,0,0
231,-181,0,0,0,0,0,0,0,0,0,-1,1455,1205,0,0
238,-181,0,0,0,0,0,0,0,0,0,-1,1462,1205,0,0
245,-181,0,0,0,0,0,0,0,0,0,-1,1469,1205,0,0
252,-181,0,0,0,0,0,0,0,0,0,-1,1476,1205,0,0
259,-181,0,0,0,0,0,0,0,0,0,-1,1483,1205,0,0
266,-181,0,0,0,0,0,0,0,0,0,-1,1490,1205,0,0
273,-181,0,0,0,0,0,0,0,0,0,-1,1497,1205,0,0
280,-181,0,0,0,0,0,0,0,0,0,-1,1504,1205,0,0
287,-181,0,0,0,0,0,0,0,0,0,-1,1511,1205,0,0
294,-181,0,0,0,0,0,0,0,0,0,-1,1518,1205,0,0
301,-181,0,0,0,0,0,0,0,0,0,-1,1525,1205,0,0
308,-181,0,0,0,0,0,0,0,0,0,-1,1532,1205,0,0
315,-181,0,0,0,0,0,0,0,0,0,-1,1539,1205,0,0
322,-181,0,0,0,0,0,0,0,0,0,-1,1546,1205,0,0
329,-181,0,0,0,0,0,0,0,0,0,-1,1553,1205,0,0
336,-181,0,0,0,0,0,0,0,0,0,-1,1560,1205,0,0
343,-181,0,0,0,0,0,0,0,0,0,-1,1567,1205,0,0
350,-181,0,0,0,0,0,0,0,0,0,-1,1574,1205,0,0
357,-181,0,0,0,0,0,0,0,0,0,-1,1581,1205,0,0
364,-181,0,0,0,0,0,0,0,0,0,-1,1588,1205,0,0
371,-181,0,0,0,0,0,0,0,0,0,-1,1595,1205,0,0
378,-181,0,0,0,0,0,0,0,0,0,-1,1602,1205,0,0
385,-181,0,0,0,0,0,0,0,0,0,-1,1609,1205,0,0
392,-181,0,0,0,0,0,0,0,0,0,-1,1616,1205,0,0
399,-181,0,0,0,0,0,0,0,0,0,-1,1623,1205,0,0
406,-181,0,0,0,0,0,0,0,0,0,-1,1630,1205,0,0
413,-181,0,0,0,0,0,0,0,0,0,-1,1637,1205,0,0
420,-181,0,0,0,0,0,0,0,0,0,-1,1644,1205,0,0
427,-181,0,0,0,0,0,0,0,0,0,-1,1651,1205,0,0
434,-181,0,0,0,0,0,0,0,0,0,-1,1658,1205,0,0
441,-181,0,0,0,0,0,0,0,0,0,-1,1665,1205,0,0
448,-181,0,0,0,0,0,0,0,0,0,-1,1672,1205,0,0
455,-181,0,0,0,0,0,0,0,0,0,-1,1679,1205,0,0
462,-181,0,0,0,0,0,0,0,0,0,-1,1686,1205,0,0
469,-181,0,0,0,0,0,0,0,0,0,-1,1693,1205,0,0
476,-181,0,0,0,0,0,0,0,0,0,-1,1700,1205,0,0
483,-181,0,0,0,0,0,0,0,0,0,-1,1707,1205,0,0
490,-181,0,0,0,0,0,0,0,0,0,-1,1714,1205,0,0
497,-181,0,0,0,0,0,0,0,0,0,-1,1721,1205,0,0
504,-181,0,0,0,0,0,0,0,0,0,-1,1728,1205,0,0
511,-181,0,0,0,0,0,0,0,0,0,-1,1735,1205,0,0
518,-181,0,0,0,0,0,0,0,0,0,-1,1742,1205,0,0
525,-181,0,0,0,0,0,0,0,0,0,-1,1749,1205,0,0
532,-181,0,0,0,0,0,0,0,0,0,-1,1756,1205,0,0
539,-181,0,0,0,0,0,0,0,0,0,-1,1763,1205,0,0
546,-181,0,0,0,0,0,0,0,0,0,-1,1770,1205,0,0
553,-181,0,0,0,0,0,0,0,0,0,-1,1777,1205,0,0
560,-181,0,0,0,0,0,0,0,0,0,-1,1784,1205,0,0
567,-181,0,0,0,0,0,0,0,0,0,-1,1791,1205,0,0
574,-181,0,0,0,0,0,0,0,0,0,-1,1798,1205,0,0
581,-181,0,0,0,0,0,0,0,0,0,-1,1805,1205,0,0
588,-181,0,0,0,0,0,0,0,0,0,-1,1812,1205,0,0
595,-181,0,0,0,0,0,0,0,0,0,-1,1819,1205,0,0
602,-181,0,0,0,0,0,0,0,0,0,-1,1826,1205,0,0
609,-181,0,0,0,0,0,0,0,0,0,-1,1833,1205,0,0
616,-181,0,0,0,0,0,0,0,0,0,-1,1840,1205,0,0
623,-181,0,0,0,0,0,0,0,0,0,-1,1847,1205,0,0
630,-181,23.7253,2.82568,-0.0027707,-0.00217454,0.00397148,0.00151003,-0.00645526,0.822855,0.00488527,0.0360803,1854,1205,23.7253,-2.82563
637,-181,23.5951,2.90552,-0.001137,-0.00139771,0.0033533,0.00208848,-0.00462319,0.765971,0.00396602,0.0371232,1861,1205,23.5952,-2.90557
644,-181,23.5822,3.01929,0.000332747,-0.000479859,0.00248353,0.00244299,-0.0025901,0.704317,0.00290627,0.0411447,1868,1205,23.5821,-3.01927
651,-181,23.6967,2.71301,0,0,0,0,0,0,0,-1,1875,1205,23.6966,-2.71304
658,-181,23.6534,2.70972,0.00211948,0.000702108,0.00124554,0.00284384,-2.22486e-05,0.52675,0.00190335,0.0370434,1882,1205,23.6535,-2.70975
665,-181,23.5571,2.69055,0.00213899,0.000724363,0.00106214,0.00270778,0.000155577,0.491651,0.00175562,0.0312915,1889,1205,23.5571,-2.69058
672,-181,23.5538,2.73035,0.00177891,0.000521955,0.000988777,0.00232204,-2.11758e-05,0.502302,0.00155513,0.02354,1896,1205,23.5538,-2.73031
679,-181,23.6481,2.77234,0.00118998,0.000277803,0.00108368,0.00190963,-0.000441853,0.586215,0.0014431,0.0298083,1903,1205,23.6481,-2.77235
686,-181,23.7881,2.84192,0,0,0,0,0,0,0,-1,1910,1205,23.7881,-2.84192
693,-181,22.354,3.15625,0,0,0,0,0,0,0,-1,1917,1205,22.354,-3.15626
700,-181,21.3828,5.20398,0,0,0,0,0,0,0,-1,1924,1205,21.3828,-5.20403
707,-181,21.2627,5.06995,-0.00103504,-0.0005397,0.00112181,0.000361457,-0.0019362,0.894043,0.00142663,0.033239,1931,1205,21.2627,-5.06999
714,-181,21.2267,4.91394,-0.00162441,-0.00071218,0.00128932,0.000199323,-0.00253591,0.955411,0.00176081,0.0246993,1938,1205,21.2267,-4.91399
721,-181,21.0946,4.776,-0.00165298,-0.000779843,0.00125363,0.000111064,-0.00254388,0.952951,0.00173413,0.016017,1945,1205,21.0947,-4.77602
728,-181,20.9698,4.67065,-0.000836454,-0.000299191,0.000786216,0.00026302,-0.00139866,0.950019,0.00103136,0.0105272,1952,1205,20.9698,-4.67063
735,-181,20.9717,4.50928,0.000803568,0.000765919,-1.97084e-05,0.000811997,0.000757489,-0.40417,0.000524108,0.0102155,1959,1205,20.9716,-4.50929
742,-181,20.9653,4.36755,0.00400586,0.0021422,-0.00102725,0.00446095,0.00168711,-0.417031,0.00260088,0.0154555,1966,1205,20.9654,-4.36761
749,-181,20.9714,4.18921,0.00886657,0.0035052,-0.00191154,0.00947831,0.00289347,-0.309724,0.00560893,0.0152183,1973,1205,20.9714,-4.18915
756,-181,20.967,4.0022,0.015263,0.00469379,-0.00283239,0.0159742,0.00398261,-0.246004,0.00960131,0.0113205,1980,1205,20.9671,-4.00217
763,-181,20.9495,3.85291,0.0222278,0.00608472,-0.00380349,0.023079,0.00523346,-0.220181,0.0139721,0.0112975,1987,1205,20.9495,-3.85286
770,-181,20.9883,3.71362,0.0305505,0.00721537,-0.00450581,0.0313903,0.00637557,-0.184269,0.0191586,0.023905,1994,1205,20.9883,-3.71363
777,-181,21.6498,3.41663,0.0404518,0.0078742,-0.00482789,0.0411522,0.00717378,-0.144073,0.0253837,0.0435367,2001,1205,21.6498,-3.41659
784,-181,22.4213,3.13379,0.0519337,0.00767172,-0.00449162,0.0523849,0.00722052,-0.100118,0.0327826,0.0473352,2008,1205,22.4212,-3.13377
791,-181,20.698,3.5686,0,0,0,0,0,0,0,-1,2015,1205,20.6981,-3.56861
798,-181,20.952,4.18823,0,0,0,0,0,0,0,-1,2022,1205,20.952,-4.18823
805,-181,0,0,0,0,0,0,0,0,0,-1,2029,1205,0,0
812,-181,0,0,0,0,0,0,0,0,0,-1,2036,1205,0,0
-700,-188,0,0,0,0,0,0,0,0,0,-1,524,1212,0,0
-693,-188,0,0,0,0,0,0,0,0,0,-1,531,1212,0,0
-686,-188,0,0,0,0,0,0,0,0,0,-1,538,1212,0,0
-679,-188,-11.5219,-4.45703,0,0,0,0,0,0,0,-1,545,1212,-11.5219,4.45707
-672,-188,-17.4534,2.70813,0,0,0,0,0,0,0,-1,552,1212,-17.4534,-2.70813
-665,-188,-18.3521,1.80713,0,0,0,0,0,0,0,-1,559,1212,-18.3521,-1.80718
-658,-188,-19.4077,0.836792,0,0,0,0,0,0,0,-1,566,1212,-19.4077,-0.836803
-651,-188,-13.4114,1.54492,0,0,0,0,0,0,0,-1,573,1212,-13.4114,-1.54496
-644,-188,-13.1192,1.44397,0.0162324,0.00403899,0.0104858,0.0222651,-0.00199371,0.522074,0.0155506,0.0403785,580,1212,-13.1192,-1.44394
-637,-188,-12.7943,1.2644,0.0141146,0.00404527,0.00781191,0.0183737,-0.000213819,0.499154,0.012321,0.0209139,587,1212,-12.7943,-1.26445
-630,-188,-12.8321,1.40625,0.0114325,0.00369817,0.00557248,0.0143483,0.000782459,0.482061,0.00931564,0.010061,594,1212,-12.8321,-1.40626
-623,-188,-12.8388,1.58862,0.00828625,0.00294077,0.0034374,0.00996774,0.00125928,0.454949,0.00626771,0.0112497,601,1212,-12.8388,-1.58858
-616,-188,-12.8106,1.77612,0.00442964,0.00165364,0.00115858,0.00484964,0.00123364,0.347776,0.00291038,0.0106424,608,1212,-12.8106,-1.77614
-609,-188,-12.7816,1.98328,0.000962608,0.000619763,-0.000872581,0.00168045,-9.80744e-05,-0.688406,0.00115438,0.0133172,615,1212,-12.7815,-1.98328
-602,-188,-12.7875,2.21558,-0.0031113,-0.000793435,-0.00266716,0.000955699,-0.00486044,-0.990351,0.00360138,0.0162953,622,1212,-12.7875,-2.21563
-595,-188,-12.8398,2.38074,-0.00656711,-0.00170076,-0.00405452,0.000594645,-0.00886252,-1.05565,0.0061162,0.0123051,629,1212,-12.8398,-2.38075
-588,-188,-12.8552,2.56873,-0.00894017,-0.00236426,-0.00501296,0.000342815,-0.0116472,-1.07565,0.00788159,0.0106323,636,1212,-12.8552,-2.56878
-581,-188,-12.8657,2.79089,-0.0104799,-0.00271294,-0.00607829,0.000616558,-0.0138094,-1.06967,0.0094185,0.0111404,643,1212,-12.8657,-2.79092
-574,-188,-12.9824,2.9115,-0.011011,-0.00253935,-0.00634731,0.000855717,-0.0144061,-1.07963,0.00990164,0.0289118,650,1212,-12.9824,-2.91155
-567,-188,-13.0905,2.96863,0,0,0,0,0,0,0,-1,657,1212,-13.0905,-2.96869
-560,-188,-14.259,1.08313,0,0,0,0,0,0,0,-1,664,1212,-14.2591,-1.08309
-553,-188,-15.7488,0.720337,0,0,0,0,0,0,0,-1,671,1212,-15.7488,-0.720377
-546,-188,-15.7822,0.857666,-0.0102756,-0.00018815,-0.00485291,0.0017674,-0.0122312,-1.18774,0.00880259,0.0429124,678,1212,-15.7822,-0.857702
-539,-188,-15.8416,0.875,-0.00885924,0.000771127,-0.00375376,0.00206141,-0.0101495,-1.23972,0.0075479,0.0364472,685,1212,-15.8416,-0.875031
-532,-188,-15.8593,0.721069,-0.00652352,0.00178068,-0.00207181,0.00226888,-0.00701172,-1.33938,0.00558652,0.0410396,692,1212,-15.8592,-0.721021
-525,-188,-15.9244,0.964966,-0.00274782,0.00268852,0.000416102,0.00272018,-0.00277949,1.49485,0.0031753,0.0405044,699,1212,-15.9244,-0.964936
-518,-188,-15.8516,1.17236,0.00158696,0.00242525,0.00321095,0.00524429,-0.00123209,0.850299,0.00397112,0.0413069,706,1212,-15.8516,-1.17232
-511,-188,-15.7488,0.966187,0,0,0,0,0,0,0,-1,713,1212,-15.7488,-0.966237
-504,-188,0,0,0,0,0,0,0,0,0,-1,720,1212,0,0
-497,-188,0,0,0,0,0,0,0,0,0,-1,727,1212,0,0
-490,-188,0,0,0,0,0,0,0,0,0,-1,734,1212,0,0
-483,-188,0,0,0,0,0,0,0,0,0,-1,741,1212,0,0
-476,-188,0,0,0,0,0,0,0,0,0,-1,748,1212,0,0
-469,-188,0,0,0,0,0,0,0,0,0,-1,755,1212,0,0
-462,-188,0,0,0,0,0,0,0,0,0,-1,762,1212,0,0
-455,-188,0,0,0,0,0,0,0,0,0,-1,769,1212,0,0
-448,-188,0,0,0,0,0,0,0,0,0,-1,776,1212,0,0
-441,-188,0,0,0,0,0,0,0,0,0,-1,783,1212,0,0
-434,-188,0,0,0,0,0,0,0,0,0,-1,790,1212,0,0
-427,-188,0,0,0,0,0,0,0,0,0,-1,797,1212,0,0
-420,-188,0,0,0,0,0,0,0,0,0,-1,804,1212,0,0
-413,-188,0,0,0,0,0,0,0,0,0,-1,811,1212,0,0
-406,-188,0,0,0,0,0,0,0,0,0,-1,818,1212,0,0
-399,-188,0,0,0,0,0,0,0,0,0,-1,825,1212,0,0
-392,-188,0,0,0,0,0,0,0,0,0,-1,832,1212,0,0
-385,-188,0,0,0,0,0,0,0,0,0,-1,839,1212,0,0
-378,-188,0,0,0,0,0,0,0,0,0,-1,846,1212,0,0
-371,-188,0,0,0,0,0,0,0,0,0,-1,853,1212,0,0
-364,-188,0,0,0,0,0,0,0,0,0,-1,860,1212,0,0
-357,-188,0,0,0,0,0,0,0,0,0,-1,867,1212,0,0
-350,-188,0,0,0,0,0,0,0,0,0,-1,874,1212,0,0
-343,-188,0,0,0,0,0,0,0,0,0,-1,881,1212,0,0
-336,-188,0,0,0,0,0,0,0,0,0,-1,888,1212,0,0
-329,-188,0,0,0,0,0,0,0,0,0,-1,895,1212,0,0
-322,-188,0,0,0,0,0,0,0,0,0,-1,902,1212,0,0
-315,-188,0,0,0,0,0,0,0,0,0,-1,909,1212,0,0
-308,-188,0,0,0,0,0,0,0,0,0,-1,916,1212,0,0
-301,-188,0,0,0,0,0,0,0,0,0,-1,923,1212,0,0
-294,-188,0,0,0,0,0,0,0,0,0,-1,930,1212,0,0
-287,-188,0,0,0,0,0,0,0,0,0,-1,937,1212,0,0
-280,-188,0,0,0,0,0,0,0,0,0,-1,944,1212,0,0
-273,-188,0,0,0,0,0,0,0,0,0,-1,951,1212,0,0
-266,-188,0,0,0,0,0,0,0,0,0,-1,958,1212,0,0
-259,-188,0,0,0,0,0,0,0,0,0,-1,965,1212,0,0
-252,-188,0,0,0,0,0,0,0,0,0,-1,972,1212,0,0
-245,-188,0,0,0,0,0,0,0,0,0,-1,979,1212,0,0
-238,-188,0,0,0,0,0,0,0,0,0,-1,986,1212,0,0
-231,-188,0,0,0,0,0,0,0,0,0,-1,993,1212,0,0
-224,-188,0,0,0,0,0,0,0,0,0,-1,1000,1212,0,0
-217,-188,0,0,0,0,0,0,0,0,0,-1,1007,1212,0,0
-210,-188,0,0,0,0,0,0,0,0,0,-1,1014,1212,0,0
-203,-188,0,0,0,0,0,0,0,0,0,-1,1021,1212,0,0
-196,-188,0,0,0,0,0,0,0,0,0,-1,1028,1212,0,0
-189,-188,0,0,0,0,0,0,0,0,0,-1,1035,1212,0,0
-182,-188,0,0,0,0,0,0,0,0,0,-1,1042,1212,0,0
-175,-188,0,0,0,0,0,0,0,0,0,-1,1049,1212,0,0
-168,-188,0,0,0,0,0,0,0,0,0,-1,1056,1212,0,0
-161,-188,0,0,0,0,0,0,0,0,0,-1,1063,1212,0,0
-154,-188,0,0,0,0,0,0,0,0,0,-1,1070,1212,0,0
-147,-188,0,0,0,0,0,0,0,0,0,-1,1077,1212,0,0
-140,-188,0,0,0,0,0,0,0,0,0,-1,1084,1212,0,0
-133,-188,0,0,0,0,0,0,0,0,0,-1,1091,1212,0,0
-126,-188,0,0,0,0,0,0,0,0,0,-1,1098,1212,0,0
-119,-188,0,0,0,0,0,0,0,0,0,-1,1105,1212,0,0
-112,-188,0,0,0,0,0,0,0,0,0,-1,1112,1212,0,0
-105,-188,0,0,0,0,0,0,0,0,0,-1,1119,1212,0,0
-98,-188,0,0,0,0,0,0,0,0,0,-1,1126,1212,0,0
-91,-188,0,0,0,0,0,0,0,0,0,-1,1133,1212,0,0
-84,-188,0,0,0,0,0,0,0,0,0,-1,1140,1212,0,0
-77,-188,0,0,0,0,0,0,0,0,0,-1,1147,1212,0,0
-70,-188,0,0,0,0,0,0,0,0,0,-1,1154,1212,0,0
-63,-188,0,0,0,0,0,0,0,0,0,-1,1161,1212,0,0
-56,-188,0,0,0,0,0,0,0,0,0,-1,1168,1212,0,0
-49,-188,0,0,0,0,0,0,0,0,0,-1,1175,1212,0,0
-42,-188,0,0,0,0,0,0,0,0,0,-1,1182,1212,0,0
-35,-188,0,0,0,0,0,0,0,0,0,-1,1189,1212,0,0
-28,-188,0,0,0,0,0,0,0,0,0,-1,1196,1212,0,0
-21,-188,0,0,0,0,0,0,0,0,0,-1,1203,1212,0,0
-14,-188,0,0,0,0,0,0,0,0,0,-1,1210,1212,0,0
-7,-188,0,0,0,0,0,0,0,0,0,-1,1217,1212,0,0
0,-188,0,0,0,0,0,0,0,0,0,-1,1224,1212,0,0
7,-188,0,0,0,0,0,0,0,0,0,-1,1231,1212,0,0
14,-188,0,0,0,0,0,0,0,0,0,-1,1238,1212,0,0
21,-188,0,0,0,0,0,0,0,0,0,-1,1245,1212,0,0
28,-188,0,0,0,0,0,0,0,0,0,-1,1252,1212,0,0
35,-188,0,0,0,0,0,0,0,0,0,-1,1259,1212,0,0
42,-188,0,0,0,0,0,0,0,0,0,-1,1266,1212,0,0
49,-188,0,0,0,0,0,0,0,0,0,-1,1273,1212,0,0
56,-188,0,0,0,0,0,0,0,0,0,-1,1280,1212,0,0
63,-188,0,0,0,0,0,0,0,0,0,-1,1287,1212,0,0
70,-188,0,0,0,0,0,0,0,0,0,-1,1294,1212,0,0
77,-188,0,0,0,0,0,0,0,0,0,-1,1301,1212,0,0
84,-188,0,0,0,0,0,0,0,0,0,-1,1308,1212,0,0
91,-188,0,0,0,0,0,0,0,0,0,-1,1315,1212,0,0
98,-188,0,0,0,0,0,0,0,0,0,-1,1322,1212,0,0
105,-188,0,0,0,0,0,0,0,0,0,-1,1329,1212,0,0
112,-188,0,0,0,0,0,0,0,0,0,-1,1336,1212,0,0
119,-188,0,0,0,0,0,0,0,0,0,-1,1343,1212,0,0
126,-188,0,0,0,0,0,0,0,0,0,-1,1350,1212,0,0
133,-188,0,0,0,0,0,0,0,0,0,-1,1357,1212,0,0
140,-188,0,0,0,0,0,0,0,0,0,-1,1364,1212,0,0
147,-188,0,0,0,0,0,0,0,0,0,-1,1371,1212,0,0
154,-188,0,0,0,0,0,0,0,0,0,-1,1378,1212,0,0
161,-188,0,0,0,0,0,0,0,0,0,-1,1385,1212,0,0
168,-188,0,0,0,0,0,0,0,0,0,-1,1392,1212,0,0
175,-188,0,0,0,0,0,0,0,0,0,-1,1399,1212,0,0
182,-188,0,0,0,0,0,0,0,0,0,-1,1406,1212,0,0
189,-188,0,0,0,0,0,0,0,0,0,-1,1413,1212,0,0
196,-188,0,0,0,0,0,0,0,0,0,-1,1420,1212,0,0
203,-188,0,0,0,0,0,0,0,0,0,-1,1427,1212,0,0
210,-188,0,0,0,0,0,0,0,0,0,-1,1434,1212,0,0
217,-188,0,0,0,0,0,0,0,0,0,-1,1441,1212,0,0
224,-188,0,0,0,0,0,0,0,0,0,-1,1448,1212,0,0
231,-188,0,0,0,0,0,0,0,0,0,-1,1455,1212,0,0
238,-188,0,0,0,0,0,0,0,0,0,-1,1462,1212,0,0
245,-188,0,0,0,0,0,0,0,0,0,-1,1469,1212,0,0
252,-188,0,0,0,0,0,0,0,0,0,-1,1476,1212,0,0
259,-188,0,0,0,0,0,0,0,0,0,-1,1483,1212,0,0
266,-188,0,0,0,0,0,0,0,0,0,-1,1490,1212,0,0
273,-188,0,0,0,0,0,0,0,0,0,-1,1497,1212,0,0
280,-188,0,0,0,0,0,0,0,0,0,-1,1504,1212,0,0
287,-188,0,0,0,0,0,0,0,0,0,-1,1511,1212,0,0
294,-188,0,0,0,0,0,0,0,0,0,-1,1518,1212,0,0
301,-188,0,0,0,0,0,0,0,0,0,-1,1525,1212,0,0
308,-188,0,0,0,0,0,0,0,0,0,-1,1532,1212,0,0
315,-188,0,0,0,0,0,0,0,0,0,-1,1539,1212,0,0
322,-188,0,0,0,0,0,0,0,0,0,-1,1546,1212,0,0
329,-188,0,0,0,0,0,0,0,0,0,-1,1553,1212,0,0
336,-188,0,0,0,0,0,0,0,0,0,-1,1560,1212,0,0
343,-188,0,0,0,0,0,0,0,0,0,-1,1567,1212,0,0
350,-188,0,0,0,0,0,0,0,0,0,-1,1574,1212,0,0
357,-188,0,0,0,0,0,0,0,0,0,-1,1581,1212,0,0
364,-188,0,0,0,0,0,0,0,0,0,-1,1588,1212,0,0
371,-188,0,0,0,0,0,0,0,0,0,-1,1595,1212,0,0
378,-188,0,0,0,0,0,0,0,0,0,-1,1602,1212,0,0
385,-188,0,0,0,0,0,0,0,0,0,-1,1609,1212,0,0
392,-188,0,0,0,0,0,0,0,0,0,-1,1616,1212,0,0
399,-188,0,0,0,0,0,0,0,0,0,-1,1623,1212,0,0
406,-188,0,0,0,0,0,0,0,0,0,-1,1630,1212,0,0
413,-188,0,0,0,0,0,0,0,0,0,-1,1637,1212,0,0
420,-188,0,0,0,0,0,0,0,0,0,-1,1644,1212,0,0
427,-188,0,0,0,0,0,0,0,0,0,-1,1651,1212,0,0
434,-188,0,0,0,0,0,0,0,0,0,-1,1658,1212,0,0
441,-188,0,0,0,0,0,0,0,0,0,-1,1665,1212,0,0
448,-188,0,0,0,0,0,0,0,0,0,-1,1672,1212,0,0
455,-188,0,0,0,0,0,0,0,0,0,-1,1679,1212,0,0
462,-188,0,0,0,0,0,0,0,0,0,-1,1686,1212,0,0
469,-188,0,0,0,0,0,0,0,0,0,-1,1693,1212,0,0
476,-188,0,0,0,0,0,0,0,0,0,-1,1700,1212,0,0
483,-188,0,0,0,0,0,0,0,0,0,-1,1707,1212,0,0
490,-188,0,0,0,0,0,0,0,0,0,-1,1714,1212,0,0
497,-188,0,0,0,0,0,0,0,0,0,-1,1721,1212,0,0
504,-188,0,0,0,0,0,0,0,0,0,-1,1728,1212,0,0
511,-188,0,0,0,0,0,0,0,0,0,-1,1735,1212,0,0
518,-188,0,0,0,0,0,0,0,0,0,-1,1742,1212,0,0
525,-188,0,0,0,0,0,0,0,0,0,-1,1749,1212,0,0
532,-188,0,0,0,0,0,0,0,0,0,-1,1756,1212,0,0
539,-188,0,0,0,0,0,0,0,0,0,-1,1763,1212,0,0
546,-188,0,0,0,0,0,0,0,0,0,-1,1770,1212,0,0
553,-188,0,0,0,0,0,0,0,0,0,-1,1777,1212,0,0
560,-188,0,0,0,0,0,0,0,0,0,-1,1784,1212,0,0
567,-188,0,0,0,0,0,0,0,0,0,-1,1791,1212,0,0
574,-188,0,0,0,0,0,0,0,0,0,-1,1798,1212,0,0
581,-188,0,0,0,0,0,0,0,0,0,-1,1805,1212,0,0
588,-188,0,0,0,0,0,0,0,0,0,-1,1812,1212,0,0
595,-188,0,0,0,0,0,0,0,0,0,-1,1819,1212,0,0
602,-188,0,0,0,0,0,0,0,0,0,-1,1826,1212,0,0
609,-188,0,0,0,0,0,0,0,0,0,-1,1833,1212,0,0
616,-188,0,0,0,0,0,0,0,0,0,-1,1840,1212,0,0
623,-188,0,0,0,0,0,0,0,0,0,-1,1847,1212,0,0
630,-188,23.7477,2.71704,-0.0028117,-0.00161242,0.00308977,0.000935362,-0.00535948,0.881243,0.00392213,0.039409,1854,1212,23.7477,-2.71707
637,-188,23.6296,2.71484,-0.000935923,-0.000755328,0.00246529,0.00162132,-0.00331257,0.803704,0.00290383,0.0382763,1861,1212,23.6296,-2.7148
644,-188,23.5258,2.77698,0.000666648,0.000169791,0.00175296,0.0021887,-0.00135226,0.715007,0.0020633,0.0358559,1868,1212,23.5258,-2.77701
651,-188,23.5669,2.70947,0.00184949,0.000867372,0.00119967,0.00265471,6.21483e-05,0.591137,0.00174946,0.0324518,1875,1212,23.5669,-2.70942
658,-188,23.6434,2.65173,0.00234294,0.00105768,0.00097414,0.00286732,0.000533296,0.493821,0.00176091,0.0321392,1882,1212,23.6434,-2.65177
665,-188,23.5863,2.65833,0.00233699,0.000956787,0.000912592,0.00279104,0.000502746,0.461669,0.00171781,0.0301778,1889,1212,23.5863,-2.65832
672,-188,23.605,2.74438,0.00197,0.00065602,0.00091864,0.00244241,0.000183615,0.474978,0.00157065,0.0252793,1896,1212,23.605,-2.74443
679,-188,23.7014,2.80627,0.0014259,0.000360501,0.00105373,0.00207392,-0.000287525,0.551364,0.00148775,0.0472135,1903,1212,23.7014,-2.80626
686,-188,23.5813,3.19666,0,0,0,0,0,0,0,-1,1910,1212,23.5813,-3.19661
693,-188,22.3925,3.86975,0,0,0,0,0,0,0,-1,1917,1212,22.3925,-3.86976
700,-188,21.1166,4.97717,0,0,0,0,0,0,0,-1,1924,1212,21.1165,-4.97714
707,-188,20.9476,5.07458,-0.00069858,-0.00058449,0.00115344,0.000513318,-0.00179639,0.810106,0.00140042,0.0182916,1931,1212,20.9477,-5.07455
714,-188,20.9207,4.96094,-0.00129773,-0.000783163,0.00131437,0.000298864,-0.00237976,0.88205,0.00169493,0.0143388,1938,1212,20.9206,-4.96097
721,-188,20.835,4.823,-0.00127425,-0.000843988,0.00119515,0.00015524,-0.00227348,0.874446,0.00156996,0.0120081,1945,1212,20.8349,-4.82299
728,-188,20.801,4.67053,-9.58476e-05,-0.000123045,0.000666398,0.000557091,-0.000775983,0.775197,0.000773102,0.00914052,1952,1212,20.8011,-4.67057
735,-188,20.7897,4.5072,0.00210909,0.0013575,-0.000178569,0.00214936,0.00131724,-0.221798,0.00125142,0.0120272,1959,1212,20.7897,-4.50721
742,-188,20.7828,4.33704,0.00604738,0.00319789,-0.00130905,0.00655746,0.00268782,-0.371552,0.00380639,0.0130737,1966,1212,20.7828,-4.337
749,-188,20.7866,4.16077,0.0114802,0.00498739,-0.00232367,0.0122261,0.00424148,-0.310614,0.00716819,0.0129422,1973,1212,20.7866,-4.16075
756,-188,20.7932,3.98474,0.018348,0.0068477,-0.00331856,0.0192369,0.0059588,-0.261715,0.0113712,0.011895,1980,1212,20.7933,-3.98472
763,-188,20.7926,3.84412,0.0259547,0.00896614,-0.00437291,0.0270142,0.00790661,-0.237711,0.0160373,0.0135226,1987,1212,20.7926,-3.8441
770,-188,20.8192,3.69226,0.0349667,0.0109602,-0.00521805,0.0360519,0.0098751,-0.205038,0.0215122,0.0211866,1994,1212,20.8192,-3.69224
777,-188,21.6951,3.54468,0.0454286,0.0125815,-0.00570963,0.0463928,0.0116174,-0.16729,0.027875,0.0419409,2001,1212,21.6951,-3.54469
784,-188,22.3649,3.354,0.0571345,0.01339,-0.00555336,0.0578285,0.0126961,-0.124323,0.0350943,0.0441919,2008,1212,22.3649,-3.35398
791,-188,22.6007,2.92786,0.0699053,0.0128094,-0.00441738,0.0702451,0.0124697,-0.076759,0.0432765,0.04837,2015,1212,22.6007,-2.9278
798,-188,23.1233,2.6405,0.0835346,0.00990216,-0.00181338,0.0835793,0.00985752,-0.0246076,0.0527416,0.0478532,2022,1212,23.1233,-2.64047
805,-188,0,0,0,0,0,0,0,0,0,-1,2029,1212,0,0
812,-188,0,0,0,0,0,0,0,0,0,-1,2036,1212,0,0
-700,-195,0,0,0,0,0,0,0,0,0,-1,524,1219,0,0
-693,-195,0,0,0,0,0,0,0,0,0,-1,531,1219,0,0
-686,-195,0,0,0,0,0,0,0,0,0,-1,538,1219,0,0
-679,-195,-10.6544,-4.56091,0,0,0,0,0,0,0,-1,545,1219,-10.6544,4.56093
-672,-195,-10.3664,-3.99731,0,0,0,0,0,0,0,-1,552,1219,-10.3664,3.99727
-665,-195,-19.3543,1.98083,0,0,0,0,0,0,0,-1,559,1219,-19.3543,-1.98081
-658,-195,-12.6963,0.557007,0,0,0,0,0,0,0,-1,566,1219,-12.6963,-0.55706
-651,-195,-12.3762,0.984497,0,0,0,0,0,0,0,-1,573,1219,-12.3762,-0.98449
-644,-195,-12.4393,1.11462,0.0177245,0.00376529,0.00471916,0.0191702,0.00231962,0.297264,0.0120814,0.0428638,580,1219,-12.4393,-1.11468
-637,-195,-12.5259,1.24219,0.015928,0.00406128,0.00402775,0.017166,0.00282334,0.298188,0.0106286,0.0213234,587,1219,-12.5259,-1.24213
-630,-195,-12.6157,1.39429,0.0133064,0.00386805,0.00321029,0.0142948,0.00287964,0.298679,0.00872976,0.00780054,594,1219,-12.6157,-1.39424
-623,-195,-12.6268,1.58533,0.0101337,0.00322819,0.00211434,0.0107297,0.00263225,0.27473,0.00645707,0.00824329,601,1219,-12.6268,-1.58532
-616,-195,-12.6024,1.79773,0.00625915,0.00209004,0.000650258,0.00635822,0.00199097,0.151188,0.0037554,0.00986307,608,1219,-12.6023,-1.79775
-609,-195,-12.5811,2.0304,0.00276118,0.00109933,-0.000778637,0.00306899,0.000791519,-0.376461,0.00183981,0.016145,615,1219,-12.5811,-2.03034
-602,-195,-12.5994,2.24512,-0.00107439,-0.000235847,-0.00208054,0.00146725,-0.00277749,-0.884827,0.00248931,0.0191274,622,1219,-12.5994,-2.24516
-595,-195,-12.6428,2.42761,-0.0045209,-0.00103654,-0.0032138,0.00087692,-0.00643436,-1.03377,0.00460976,0.0135454,629,1219,-12.6427,-2.42763
-588,-195,-12.6414,2.58289,-0.00699271,-0.00169181,-0.004119,0.000555806,-0.00924032,-1.07128,0.00635359,0.00772844,636,1219,-12.6414,-2.58294
-581,-195,-12.6752,2.71692,-0.00862433,-0.00199035,-0.00529603,0.000941692,-0.0115564,-1.06517,0.00803655,0.0112624,643,1219,-12.6752,-2.71689
-574,-195,-12.7557,2.74207,-0.00945108,-0.0016802,-0.00558367,0.00123687,-0.0123681,-1.08937,0.00868711,0.0271323,650,1219,-12.7557,-2.74202
-567,-195,-12.8105,2.75439,0,0,0,0,0,0,0,-1,657,1219,-12.8105,-2.75438
-560,-195,-15.0869,0.962646,0,0,0,0,0,0,0,-1,664,1219,-15.0869,-0.962705
-553,-195,-15.6738,0.808594,0,0,0,0,0,0,0,-1,671,1219,-15.6738,-0.808536
-546,-195,-15.6866,0.833618,-0.0103492,0.000911594,-0.00457748,0.00253756,-0.0119751,-1.22949,0.00894999,0.0478994,678,1219,-15.6866,-0.833565
-539,-195,-15.7782,0.897583,-0.00977977,0.00183753,-0.00381706,0.00297945,-0.0109217,-1.28011,0.00845119,0.0358342,685,1219,-15.7782,-0.897584
-532,-195,-15.8652,0.853271,-0.0085743,0.00273072,-0.00260481,0.00330203,-0.00914561,-1.35489,0.00744594,0.0337619,692,1219,-15.8652,-0.853274
-525,-195,-15.8011,0.968384,-0.00617402,0.00339494,-0.000692213,0.00344475,-0.00622384,-1.49896,0.00565851,0.0367121,699,1219,-15.8011,-0.968376
-518,-195,-15.9469,1.21899,-0.00281828,0.00292372,0.00174545,0.00341266,-0.00330723,1.29767,0.00387989,0.0403498,706,1219,-15.9469,-1.21898
-511,-195,-16.2125,1.51172,0,0,0,0,0,0,0,-1,713,1219,-16.2124,-1.51172
-504,-195,0,0,0,0,0,0,0,0,0,-1,720,1219,0,0
-497,-195,0,0,0,0,0,0,0,0,0,-1,727,1219,0,0
-490,-195,0,0,0,0,0,0,0,0,0,-1,734,1219,0,0
-483,-195,0,0,0,0,0,0,0,0,0,-1,741,1219,0,0
-476,-195,0,0,0,0,0,0,0,0,0,-1,748,1219,0,0
-469,-195,0,0,0,0,0,0,0,0,0,-1,755,1219,0,0
-462,-195,0,0,0,0,0,0,0,0,0,-1,762,1219,0,0
-455,-195,0,0,0,0,0,0,0,0,0,-1,769,1219,0,0
-448,-195,0,0,0,0,0,0,0,0,0,-1,776,1219,0,0
-441,-195,0,0,0,0,0,0,0,0,0,-1,783,1219,0,0
-434,-195,0,0,0,0,0,0,0,0,0,-1,790,1219,0,0
-427,-195,0,0,0,0,0,0,0,0,0,-1,797,1219,0,0
-420,-195,0,0,0,0,0,0,0,0,0,-1,804,1219,0,0
-413,-195,0,0,0,0,0,0,0,0,0,-1,811,1219,0,0
-406,-195,0,0,0,0,0,0,0,0,0,-1,818,1219,0,0
-399,-195,0,0,0,0,0,0,0,0,0,-1,825,1219,0,0
-392,-195,0,0,0,0,0,0,0,0,0,-1,832,1219,0,0
-385,-195,0,0,0,0,0,0,0,0,0,-1,839,1219,0,0
-378,-195,0,0,0,0,0,0,0,0,0,-1,846,1219,0,0
-371,-195,0,0,0,0,0,0,0,0,0,-1,853,1219,0,0
-364,-195,0,0,0,0,0,0,0,0,0,-1,860,1219,0,0
-357,-195,0,0,0,0,0,0,0,0,0,-1,867,1219,0,0
-350,-195,0,0,0,0,0,0,0,0,0,-1,874,1219,0,0
-343,-195,0,0,0,0,0,0,0,0,0,-1,881,1219,0,0
-336,-195,0,0,0,0,0,0,0,0,0,-1,888,1219,0,0
-329,-195,0,0,0,0,0,0,0,0,0,-1,895,1219,0,0
-322,-195,0,0,0,0,0,0,0,0,0,-1,902,1219,0,0
-315,-195,0,0,0,0,0,0,0,0,0,-1,909,1219,0,0
-308,-195,0,0,0,0,0,0,0,0,0,-1,916,1219,0,0
-301,-195,0,0,0,0,0,0,0,0,0,-1,923,1219,0,0
-294,-195,0,0,0,0,0,0,0,0,0,-1,930,1219,0,0
-287,-195,0,0,0,0,0,0,0,0,0,-1,937,1219,0,0
-280,-195,0,0,0,0,0,0,0,0,0,-1,944,1219,0,0
-273,-195,0,0,0,0,0,0,0,0,0,-1,951,1219,0,0
-266,-195,0,0,0,0,0,0,0,0,0,-1,958,1219,0,0
-259,-195,0,0,0,0,0,0,0,0,0,-1,965,1219,0,0
-252,-195,0,0,0,0,0,0,0,0,0,-1,972,1219,0,0
-245,-195,0,0,0,0,0,0,0,0,0,-1,979,1219,0,0
-238,-195,0,0,0,0,0,0,0,0,0,-1,986,1219,0,0
-231,-195,0,0,0,0,0,0,0,0,0,-1,993,1219,0,0
-224,-195,0,0,0,0,0,0,0,0,0,-1,1000,1219,0,0
-217,-195,0,0,0,0,0,0,0,0,0,-1,1007,1219,0,0
-210,-195,0,0,0,0,0,0,0,0,0,-1,1014,1219,0,0
-203,-195,0,0,0,0,0,0,0,0,0,-1,1021,1219,0,0
-196,-195,0,0,0,0,0,0,0,0,0,-1,1028,1219,0,0
-189,-195,0,0,0,0,0,0,0,0,0,-1,1035,1219,0,0
-182,-195,0,0,0,0,0,0,0,0,0,-1,1042,1219,0,0
-175,-195,0,0,0,0,0,0,0,0,0,-1,1049,1219,0,0
-168,-195,0,0,0,0,0,0,0,0,0,-1,1056,1219,0,0
-161,-195,0,0,0,0,0,0,0,0,0,-1,1063,1219,0,0
-154,-195,0,0,0,0,0,0,0,0,0,-1,1070,1219,0,0
-147,-195,0,0,0,0,0,0,0,0,0,-1,1077,1219,0,0
-140,-195,0,0,0,0,0,0,0,0,0,-1,1084,1219,0,0
-133,-195,0,0,0,0,0,0,0,0,0,-1,1091,1219,0,0
-126,-195,0,0,0,0,0,0,0,0,0,-1,1098,1219,0,0
-119,-195,0,0,0,0,0,0,0,0,0,-1,1105,1219,0,0
-112,-195,0,0,0,0,0,0,0,0,0,-1,1112,1219,0,0
-105,-195,0,0,0,0,0,0,0,0,0,-1,1119,1219,0,0
-98,-195,0,0,0,0,0,0,0,0,0,-1,1126,1219,0,0
-91,-195,0,0,0,0,0,0,0,0,0,-1,1133,1219,0,0
-84,-195,0,0,0,0,0,0,0,0,0,-1,1140,1219,0,0
-77,-195,0,0,0,0,0,0,0,0,0,-1,1147,1219,0,0
-70,-195,0,0,0,0,0,0,0,0,0,-1,1154,1219,0,0
-63,-195,0,0,0,0,0,0,0,0,0,-1,1161,1219,0,0
-56,-195,0,0,0,0,0,0,0,0,0,-1,1168,1219,0,0
-49,-195,0,0,0,0,0,0,0,0,0,-1,1175,1219,0,0
-42,-195,0,0,0,0,0,0,0,0,0,-1,1182,1219,0,0
-35,-195,0,0,0,0,0,0,0,0,0,-1,1189,1219,0,0
-28,-195,0,0,0,0,0,0,0,0,0,-1,1196,1219,0,0
-21,-195,0,0,0,0,0,0,0,0,0,-1,1203,1219,0,0
-14,-195,0,0,0,0,0,0,0,0,0,-1,1210,1219,0,0
-7,-195,0,0,0,0,0,0,0,0,0,-1,1217,1219,0,0
0,-195,0,0,0,0,0,0,0,0,0,-1,1224,1219,0,0
7,-195,0,0,0,0,0,0,0,0,0,-1,1231,1219,0,0
14,-195,0,0,0,0,0,0,0,0,0,-1,1238,1219,0,0
21,-195,0,0,0,0,0,0,0,0,0,-1,1245,1219,0,0
28,-195,0,0,0,0,0,0,0,0,0,-1,1252,1219,0,0
35,-195,0,0,0,0,0,0,0,0,0,-1,1259,1219,0,0
42,-195,0,0,0,0,0,0,0,0,0,-1,1266,1219,0,0
49,-195,0,0,0,0,0,0,0,0,0,-1,1273,1219,0,0
56,-195,0,0,0,0,0,0,0,0,0,-1,1280,1219,0,0
63,-195,0,0,0,0,0,0,0,0,0,-1,1287,1219,0,0
70,-195,0,0,0,0,0,0,0,0,0,-1,1294,1219,0,0
77,-195,0,0,0,0,0,0,0,0,0,-1,1301,1219,0,0
84,-195,0,0,0,0,0,0,0,0,0,-1,1308,1219,0,0
91,-195,0,0,0,0,0,0,0,0,0,-1,1315,1219,0,0
98,-195,0,0,0,0,0,0,0,0,0,-1,1322,1219,0,0
105,-195,0,0,0,0,0,0,0,0,0,-1,1329,1219,0,0
112,-195,0,0,0,0,0,0,0,0,0,-1,1336,1219,0,0
119,-195,0,0,0,0,0,0,0,0,0,-1,1343,1219,0,0
126,-195,0,0,0,0,0,0,0,0,0,-1,1350,1219,0,0
133,-195,0,0,0,0,0,0,0,0,0,-1,1357,1219,0,0
140,-195,0,0,0,0,0,0,0,0,0,-1,1364,1219,0,0
147,-195,0,0,0,0,0,0,0,0,0,-1,1371,1219,0,0
154,-195,0,0,0,0,0,0,0,0,0,-1,1378,1219,0,0
161,-195,0,0,0,0,0,0,0,0,0,-1,1385,1219,0,0
168,-195,0,0,0,0,0,0,0,0,0,-1,1392,1219,0,0
175,-195,0,0,0,0,0,0,0,0,0,-1,1399,1219,0,0
182,-195,0,0,0,0,0,0,0,0,0,-1,1406,1219,0,0
189,-195,0,0,0,0,0,0,0,0,0,-1,1413,1219,0,0
196,-195,0,0,0,0,0,0,0,0,0,-1,1420,1219,0,0
203,-195,0,0,0,0,0,0,0,0,0,-1,1427,1219,0,0
210,-195,0,0,0,0,0,0,0,0,0,-1,1434,1219,0,0
217,-195,0,0,0,0,0,0,0,0,0,-1,1441,1219,0,0
224,-195,0,0,0,0,0,0,0,0,0,-1,1448,1219,0,0
231,-195,0,0,0,0,0,0,0,0,0,-1,1455,1219,0,0
238,-195,0,0,0,0,0,0,0,0,0,-1,1462,1219,0,0
245,-195,0,0,0,0,0,0,0,0,0,-1,1469,1219,0,0
252,-195,0,0,0,0,0,0,0,0,0,-1,1476,1219,0,0
259,-195,0,0,0,0,0,0,0,0,0,-1,1483,1219,0,0
266,-195,0,0,0,0,0,0,0,0,0,-1,1490,1219,0,0
273,-195,0,0,0,0,0,0,0,0,0,-1,1497,1219,0,0
280,-195,0,0,0,0,0,0,0,0,0,-1,1504,1219,0,0
287,-195,0,0,0,0,0,0,0,0,0,-1,1511,1219,0,0
294,-195,0,0,0,0,0,0,0,0,0,-1,1518,1219,0,0
301,-195,0,0,0,0,0,0,0,0,0,-1,1525,1219,0,0
308,-195,0,0,0,0,0,0,0,0,0,-1,1532,1219,0,0
315,-195,0,0,0,0,0,0,0,0,0,-1,1539,1219,0,0
322,-195,0,0,0,0,0,0,0,0,0,-1,1546,1219,0,0
329,-195,0,0,0,0,0,0,0,0,0,-1,1553,1219,0,0
336,-195,0,0,0,0,0,0,0,0,0,-1,1560,1219,0,0
343,-195,0,0,0,0,0,0,0,0,0,-1,1567,1219,0,0
350,-195,0,0,0,0,0,0,0,0,0,-1,1574,1219,0,0
357,-195,0,0,0,0,0,0,0,0,0,-1,1581,1219,0,0
364,-195,0,0,0,0,0,0,0,0,0,-1,1588,1219,0,0
371,-195,0,0,0,0,0,0,0,0,0,-1,1595,1219,0,0
378,-195,0,0,0,0,0,0,0,0,0,-1,1602,1219,0,0
385,-195,0,0,0,0,0,0,0,0,0,-1,1609,1219,0,0
392,-195,0,0,0,0,0,0,0,0,0,-1,1616,1219,0,0
399,-195,0,0,0,0,0,0,0,0,0,-1,1623,1219,0,0
406,-195,0,0,0,0,0,0,0,0,0,-1,1630,1219,0,0
413,-195,0,0,0,0,0,0,0,0,0,-1,1637,1219,0,0
420,-195,0,0,0,0,0,0,0,0,0,-1,1644,1219,0,0
427,-195,0,0,0,0,0,0,0,0,0,-1,1651,1219,0,0
434,-195,0,0,0,0,0,0,0,0,0,-1,1658,1219,0,0
441,-195,0,0,0,0,0,0,0,0,0,-1,1665,1219,0,0
448,-195,0,0,0,0,0,0,0,0,0,-1,1672,1219,0,0
455,-195,0,0,0,0,0,0,0,0,0,-1,1679,1219,0,0
462,-195,0,0,0,0,0,0,0,0,0,-1,1686,1219,0,0
469,-195,0,0,0,0,0,0,0,0,0,-1,1693,1219,0,0
476,-195,0,0,0,0,0,0,0,0,0,-1,1700,1219,0,0
483,-195,0,0,0,0,0,0,0,0,0,-1,1707,1219,0,0
490,-195,0,0,0,0,0,0,0,0,0,-1,1714,1219,0,0
497,-195,0,0,0,0,0,0,0,0,0,-1,1721,1219,0,0
504,-195,0,0,0,0,0,0,0,0,0,-1,1728,1219,0,0
511,-195,0,0,0,0,0,0,0,0,0,-1,1735,1219,0,0
518,-195,0,0,0,0,0,0,0,0,0,-1,1742,1219,0,0
525,-195,0,0,0,0,0,0,0,0,0,-1,1749,1219,0,0
532,-195,0,0,0,0,0,0,0,0,0,-1,1756,1219,0,0
539,-195,0,0,0,0,0,0,0,0,0,-1,1763,1219,0,0
546,-195,0,0,0,0,0,0,0,0,0,-1,1770,1219,0,0
553,-195,0,0,0,0,0,0,0,0,0,-1,1777,1219,0,0
560,-195,0,0,0,0,0,0,0,0,0,-1,1784,1219,0,0
567,-195,0,0,0,0,0,0,0,0,0,-1,1791,1219,0,0
574,-195,0,0,0,0,0,0,0,0,0,-1,1798,1219,0,0
581,-195,0,0,0,0,0,0,0,0,0,-1,1805,1219,0,0
588,-195,0,0,0,0,0,0,0,0,0,-1,1812,1219,0,0
595,-195,0,0,0,0,0,0,0,0,0,-1,1819,1219,0,0
602,-195,0,0,0,0,0,0,0,0,0,-1,1826,1219,0,0
609,-195,0,0,0,0,0,0,0,0,0,-1,1833,1219,0,0
616,-195,0,0,0,0,0,0,0,0,0,-1,1840,1219,0,0
623,-195,0,0,0,0,0,0,0,0,0,-1,1847,1219,0,0
630,-195,23.6223,2.59253,-0.00294369,-0.00102173,0.00257957,0.000770048,-0.00473547,0.963702,0.00344249,0.0398832,1854,1219,23.6223,-2.59259
637,-195,23.5732,2.61438,-0.00100258,4.2743e-05,0.001668,0.00126806,-0.00222789,0.937226,0.00204359,0.0365334,1861,1219,23.5733,-2.61438
644,-195,23.5319,2.66309,0.000662982,0.00102462,0.000885818,0.00174788,-6.02845e-05,0.886077,0.00118586,0.0317,1868,1219,23.5318,-2.66311
651,-195,23.5454,2.68677,0.00183503,0.00155859,0.000456152,0.00217344,0.00122017,0.638289,0.00125799,0.0265732,1875,1219,23.5454,-2.68679
658,-195,23.5934,2.67395,0.00241997,0.00158886,0.000326356,0.0025328,0.00147603,0.332873,0.00146898,0.0246583,1882,1219,23.5934,-2.67393
665,-195,23.6011,2.67725,0.00254067,0.00134095,0.000352076,0.00263636,0.00124526,0.265377,0.00152288,0.0236627,1889,1219,23.601,-2.67726
672,-195,23.6569,2.68408,0.00229156,0.000929544,0.000436349,0.00241936,0.000801743,0.284919,0.00142305,0.036798,1896,1219,23.6569,-2.68404
679,-195,23.6752,2.68982,0.00188575,0.000573616,0.000623239,0.00213459,0.00032478,0.379871,0.0013281,0.0493115,1903,1219,23.6752,-2.68982
686,-195,23.756,2.73901,0,0,0,0,0,0,0,-1,1910,1219,23.756,-2.739
693,-195,20.937,5.14746,0,0,0,0,0,0,0,-1,1917,1219,20.937,-5.14746
700,-195,20.7931,5.18677,0.000754994,-0.000329494,0.000870417,0.00123825,-0.000812752,0.506829,0.00119261,0.0402507,1924,1219,20.7931,-5.18679
707,-195,20.6426,5.18555,0.000148514,-0.000613081,0.000914695,0.000758511,-0.00122308,0.588154,0.0011545,0.0184427,1931,1219,20.6426,-5.18556
714,-195,20.6398,4.99536,-0.000477623,-0.000795964,0.00105963,0.000434729,-0.00170832,0.710849,0.00130809,0.0177399,1938,1219,20.6398,-4.99534
721,-195,20.6333,4.84326,-0.000457986,-0.000816918,0.000885601,0.00026615,-0.00154105,0.685427,0.00112661,0.012314,1945,1219,20.6333,-4.84324
728,-195,20.6277,4.6853,0.00104387,0.000224534,0.000327293,0.00115855,0.000109846,0.337043,0.000738483,0.0106327,1952,1219,20.6276,-4.68535
735,-195,20.6169,4.49817,0.00374711,0.00222038,-0.000465031,0.0038776,0.00208989,-0.273574,0.002241,0.0128372,1959,1219,20.6169,-4.49812
742,-195,20.6215,4.31641,0.00822775,0.00463729,-0.00156935,0.008817,0.00404805,-0.359183,0.00509616,0.0133273,1966,1219,20.6215,-4.31645
749,-195,20.6218,4.1405,0.0138186,0.0070181,-0.00258642,0.0146905,0.0061462,-0.325143,0.00851914,0.0134252,1973,1219,20.6219,-4.14046
756,-195,20.6166,3.97607,0.0206864,0.00981032,-0.00351769,0.0217249,0.00877175,-0.287085,0.0126201,0.0128141,1980,1219,20.6165,-3.97609
763,-195,20.618,3.81458,0.0285696,0.012992,-0.00451469,0.0297834,0.0117781,-0.262657,0.0173203,0.0144731,1987,1219,20.618,-3.81462
770,-195,20.7904,3.60229,0,0,0,0,0,0,0,-1,1994,1219,20.7905,-3.60234
777,-195,21.6594,3.49524,0.0481471,0.0194135,-0.0057809,0.0492665,0.0182941,-0.191278,0.0287563,0.0438724,2001,1219,21.6595,-3.4953
784,-195,22.5514,3.3739,0.0592414,0.0218931,-0.0055431,0.0600467,0.0210878,-0.144274,0.0351761,0.0445833,2008,1219,22.5514,-3.3739
791,-195,22.9038,2.5957,0.0705906,0.0230699,-0.00428822,0.0709744,0.022686,-0.089278,0.0418564,0.0478467,2015,1219,22.9038,-2.59569
798,-195,23.1932,2.25867,0.0814951,0.0218165,-0.00147093,0.0815313,0.0217802,-0.0246275,0.048744,0.0463267,2022,1219,23.1933,-2.25868
805,-195,0,0,0,0,0,0,0,0,0,-1,2029,1219,0,0
812,-195,0,0,0,0,0,0,0,0,0,-1,2036,1219,0,0
-700,-202,0,0,0,0,0,0,0,0,0,-1,524,1226,0,0
-693,-202,0,0,0,0,0,0,0,0,0,-1,531,1226,0,0
-686,-202,0,0,0,0,0,0,0,0,0,-1,538,1226,0,0
-679,-202,-12.6296,-6.97437,0,0,0,0,0,0,0,-1,545,1226,-12.6296,6.97438
-672,-202,-13.4484,-7.44568,0,0,0,0,0,0,0,-1,552,1226,-13.4484,7.44562
-665,-202,-12.7605,0.465942,0,0,0,0,0,0,0,-1,559,1226,-12.7605,-0.465987
-658,-202,-12.6096,0.527466,0.0123825,-0.00316176,-0.0106744,0.0178145,-0.00859377,-0.470727,0.0155535,0.0456391,566,1226,-12.6096,-0.527464
-651,-202,-12.4394,0.614502,0.0164404,0.000105032,-0.00652135,0.0187245,-0.00217903,-0.336892,0.0132691,0.0462406,573,1226,-12.4394,-0.614536
-644,-202,-12.2994,1.00073,0.0171792,0.0021163,-0.00364811,0.0180163,0.00127928,-0.225538,0.0116079,0.0439302,580,1226,-12.2994,-1.00068
-637,-202,-12.2844,1.18384,0.0159156,0.00314157,-0.00176587,0.0161552,0.00290195,-0.13487,0.00994498,0.0322135,587,1226,-12.2844,-1.18382
-630,-202,-12.3677,1.36682,0.013611,0.00343283,-0.000659338,0.0136535,0.00339029,-0.0644209,0.00820902,0.0134949,594,1226,-12.3677,-1.36681
-623,-202,-12.3928,1.57727,0.0106838,0.00312665,-0.000308582,0.0106964,0.00311407,-0.0407426,0.00635263,0.0081229,601,1226,-12.3928,-1.57729
-616,-202,-12.403,1.77942,0.00713285,0.00228844,-0.00059858,0.00720571,0.00221558,-0.121134,0.00426178,0.0084663,608,1226,-12.403,-1.77939
-609,-202,-12.3907,2.00549,0.00394947,0.00144504,-0.00112208,0.00437865,0.00101585,-0.36532,0.0026463,0.0194426,615,1226,-12.3907,-2.00553
-602,-202,-12.4051,2.19763,0.000591802,0.000249873,-0.00176335,0.00219245,-0.00135078,-0.737072,0.00206483,0.0204279,622,1226,-12.4051,-2.19767
-595,-202,-12.4476,2.43164,-0.00259532,-0.000416902,-0.00243867,0.00116474,-0.00417696,-0.995427,0.00324337,0.0150514,629,1226,-12.4476,-2.4317
-588,-202,-12.4019,2.61108,-0.00496275,-0.0010689,-0.0031988,0.000728888,-0.00676054,-1.05877,0.00476859,0.00774729,636,1226,-12.4019,-2.6111
-581,-202,-12.3994,2.72229,-0.00659585,-0.00131435,-0.00451023,0.00127135,-0.00918155,-1.05024,0.00658585,0.0139943,643,1226,-12.3994,-2.7223
-574,-202,-12.4949,2.71484,-0.00762552,-0.000865461,-0.0048977,0.00170531,-0.0101963,-1.08743,0.00743148,0.0234137,650,1226,-12.4949,-2.71487
-567,-202,-12.57,2.68555,0,0,0,0,0,0,0,-1,657,1226,-12.57,-2.68559
-560,-202,-10.929,2.73096,0,0,0,0,0,0,0,-1,664,1226,-10.929,-2.73092
-553,-202,-15.513,0.467773,0,0,0,0,0,0,0,-1,671,1226,-15.513,-0.467772
-546,-202,-15.4933,0.504883,-0.00984723,0.00245437,-0.00455086,0.00395489,-0.0113477,-1.2523,0.00917222,0.0491232,678,1226,-15.4933,-0.504874
-539,-202,-15.5975,0.638794,-0.0100248,0.00359688,-0.00416157,0.00476766,-0.0111955,-1.29655,0.00946214,0.0390424,685,1226,-15.5975,-0.638751
-532,-202,-15.796,0.941284,0,0,0,0,0,0,0,-1,692,1226,-15.796,-0.941237
-525,-202,-15.7883,0.840454,-0.00877003,0.00566741,-0.00213931,0.00597774,-0.00908036,-1.42674,0.00875509,0.0356612,699,1226,-15.7883,-0.840476
-518,-202,-15.9253,1.13977,-0.00669785,0.00574141,-0.000187228,0.00574423,-0.00670067,-1.55575,0.00719214,0.0422758,706,1226,-15.9253,-1.13977
-511,-202,-16.1764,1.61963,0,0,0,0,0,0,0,-1,713,1226,-16.1764,-1.61965
-504,-202,0,0,0,0,0,0,0,0,0,-1,720,1226,0,0
-497,-202,0,0,0,0,0,0,0,0,0,-1,727,1226,0,0
-490,-202,0,0,0,0,0,0,0,0,0,-1,734,1226,0,0
-483,-202,0,0,0,0,0,0,0,0,0,-1,741,1226,0,0
-476,-202,0,0,0,0,0,0,0,0,0,-1,748,1226,0,0
-469,-202,0,0,0,0,0,0,0,0,0,-1,755,1226,0,0
-462,-202,0,0,0,0,0,0,0,0,0,-1,762,1226,0,0
-455,-202,0,0,0,0,0,0,0,0,0,-1,769,1226,0,0
-448,-202,0,0,0,0,0,0,0,0,0,-1,776,1226,0,0
-441,-202,0,0,0,0,0,0,0,0,0,-1,783,1226,0,0
-434,-202,0,0,0,0,0,0,0,0,0,-1,790,1226,0,0
-427,-202,0,0,0,0,0,0,0,0,0,-1,797,1226,0,0
-420,-202,0,0,0,0,0,0,0,0,0,-1,804,1226,0,0
-413,-202,0,0,0,0,0,0,0,0,0,-1,811,1226,0,0
-406,-202,0,0,0,0,0,0,0,0,0,-1,818,1226,0,0
-399,-202,0,0,0,0,0,0,0,0,0,-1,825,1226,0,0
-392,-202,0,0,0,0,0,0,0,0,0,-1,832,1226,0,0
-385,-202,0,0,0,0,0,0,0,0,0,-1,839,1226,0,0
-378,-202,0,0,0,0,0,0,0,0,0,-1,846,1226,0,0
-371,-202,0,0,0,0,0,0,0,0,0,-1,853,1226,0,0
-364,-202,0,0,0,0,0,0,0,0,0,-1,860,1226,0,0
-357,-202,0,0,0,0,0,0,0,0,0,-1,867,1226,0,0
-350,-202,0,0,0,0,0,0,0,0,0,-1,874,1226,0,0
-343,-202,0,0,0,0,0,0,0,0,0,-1,881,1226,0,0
-336,-202,0,0,0,0,0,0,0,0,0,-1,888,1226,0,0
-329,-202,0,0,0,0,0,0,0,0,0,-1,895,1226,0,0
-322,-202,0,0,0,0,0,0,0,0,0,-1,902,1226,0,0
-315,-202,0,0,0,0,0,0,0,0,0,-1,909,1226,0,0
-308,-202,0,0,0,0,0,0,0,0,0,-1,916,1226,0,0
-301,-202,0,0,0,0,0,0,0,0,0,-1,923,1226,0,0
-294,-202,0,0,0,0,0,0,0,0,0,-1,930,1226,0,0
-287,-202,0,0,0,0,0,0,0,0,0,-1,937,1226,0,0
-280,-202,0,0,0,0,0,0,0,0,0,-1,944,1226,0,0
-273,-202,0,0,0,0,0,0,0,0,0,-1,951,1226,0,0
-266,-202,0,0,0,0,0,0,0,0,0,-1,958,1226,0,0
-259,-202,0,0,0,0,0,0,0,0,0,-1,965,1226,0,0
-252,-202,0,0,0,0,0,0,0,0,0,-1,972,1226,0,0
-245,-202,0,0,0,0,0,0,0,0,0,-1,979,1226,0,0
-238,-202,0,0,0,0,0,0,0,0,0,-1,986,1226,0,0
-231,-202,0,0,0,0,0,0,0,0,0,-1,993,1226,0,0
-224,-202,0,0,0,0,0,0,0,0,0,-1,1000,1226,0,0
-217,-202,0,0,0,0,0,0,0,0,0,-1,1007,1226,0,0
-210,-202,0,0,0,0,0,0,0,0,0,-1,1014,1226,0,0
-203,-202,0,0,0,0,0,0,0,0,0,-1,1021,1226,0,0
-196,-202,0,0,0,0,0,0,0,0,0,-1,1028,1226,0,0
-189,-202,0,0,0,0,0,0,0,0,0,-1,1035,1226,0,0
-182,-202,0,0,0,0,0,0,0,0,0,-1,1042,1226,0,0
-175,-202,0,0,0,0,0,0,0,0,0,-1,1049,1226,0,0
-168,-202,0,0,0,0,0,0,0,0,0,-1,1056,1226,0,0
-161,-202,0,0,0,0,0,0,0,0,0,-1,1063,1226,0,0
-154,-202,0,0,0,0,0,0,0,0,0,-1,1070,1226,0,0
-147,-202,0,0,0,0,0,0,0,0,0,-1,1077,1226,0,0
-140,-202,0,0,0,0,0,0,0,0,0,-1,1084,1226,0,0
-133,-202,0,0,0,0,0,0,0,0,0,-1,1091,1226,0,0
-126,-202,0,0,0,0,0,0,0,0,0,-1,1098,1226,0,0
-119,-202,0,0,0,0,0,0,0,0,0,-1,1105,1226,0,0
-112,-202,0,0,0,0,0,0,0,0,0,-1,1112,1226,0,0
-105,-202,0,0,0,0,0,0,0,0,0,-1,1119,1226,0,0
-98,-202,0,0,0,0,0,0,0,0,0,-1,1126,1226,0,0
-91,-202,0,0,0,0,0,0,0,0,0,-1,1133,1226,0,0
-84,-202,0,0,0,0,0,0,0,0,0,-1,1140,1226,0,0
-77,-202,0,0,0,0,0,0,0,0,0,-1,1147,1226,0,0
-70,-202,0,0,0,0,0,0,0,0,0,-1,1154,1226,0,0
-63,-202,0,0,0,0,0,0,0,0,0,-1,1161,1226,0,0
-56,-202,0,0,0,0,0,0,0,0,0,-1,1168,1226,0,0
-49,-202,0,0,0,0,0,0,0,0,0,-1,1175,1226,0,0
-42,-202,0,0,0,0,0,0,0,0,0,-1,1182,1226,0,0
-35,-202,0,0,0,0,0,0,0,0,0,-1,1189,1226,0,0
-28,-202,0,0,0,0,0,0,0,0,0,-1,1196,1226,0,0
-21,-202,0,0,0,0,0,0,0,0,0,-1,1203,1226,0,0
-14,-202,0,0,0,0,0,0,0,0,0,-1,1210,1226,0,0
-7,-202,0,0,0,0,0,0,0,0,0,-1,1217,1226,0,0
0,-202,0,0,0,0,0,0,0,0,0,-1,1224,1226,0,0
7,-202,0,0,0,0,0,0,0,0,0,-1,1231,1226,0,0
14,-202,0,0,0,0,0,0,0,0,0,-1,1238,1226,0,0
21,-202,0,0,0,0,0,0,0,0,0,-1,1245,1226,0,0
28,-202,0,0,0,0,0,0,0,0,0,-1,1252,1226,0,0
35,-202,0,0,0,0,0,0,0,0,0,-1,1259,1226,0,0
42,-202,0,0,0,0,0,0,0,0,0,-1,1266,1226,0,0
49,-202,0,0,0,0,0,0,0,0,0,-1,1273,1226,0,0
56,-202,0,0,0,0,0,0,0,0,0,-1,1280,1226,0,0
63,-202,0,0,0,0,0,0,0,0,0,-1,1287,1226,0,0
70,-202,0,0,0,0,0,0,0,0,0,-1,1294,1226,0,0
77,-202,0,0,0,0,0,0,0,0,0,-1,1301,1226,0,0
84,-202,0,0,0,0,0,0,0,0,0,-1,1308,1226,0,0
91,-202,0,0,0,0,0,0,0,0,0,-1,1315,1226,0,0
98,-202,0,0,0,0,0,0,0,0,0,-1,1322,1226,0,0
105,-202,0,0,0,0,0,0,0,0,0,-1,1329,1226,0,0
112,-202,0,0,0,0,0,0,0,0,0,-1,1336,1226,0,0
119,-202,0,0,0,0,0,0,0,0,0,-1,1343,1226,0,0
126,-202,0,0,0,0,0,0,0,0,0,-1,1350,1226,0,0
133,-202,0,0,0,0,0,0,0,0,0,-1,1357,1226,0,0
140,-202,0,0,0,0,0,0,0,0,0,-1,1364,1226,0,0
147,-202,0,0,0,0,0,0,0,0,0,-1,1371,1226,0,0
154,-202,0,0,0,0,0,0,0,0,0,-1,1378,1226,0,0
161,-202,0,0,0,0,0,0,0,0,0,-1,1385,1226,0,0
168,-202,0,0,0,0,0,0,0,0,0,-1,1392,1226,0,0
175,-202,0,0,0,0,0,0,0,0,0,-1,1399,1226,0,0
182,-202,0,0,0,0,0,0,0,0,0,-1,1406,1226,0,0
189,-202,0,0,0,0,0,0,0,0,0,-1,1413,1226,0,0
196,-202,0,0,0,0,0,0,0,0,0,-1,1420,1226,0,0
203,-202,0,0,0,0,0,0,0,0,0,-1,1427,1226,0,0
210,-202,0,0,0,0,0,0,0,0,0,-1,1434,1226,0,0
217,-202,0,0,0,0,0,0,0,0,0,-1,1441,1226,0,0
224,-202,0,0,0,0,0,0,0,0,0,-1,1448,1226,0,0
231,-202,0,0,0,0,0,0,0,0,0,-1,1455,1226,0,0
238,-202,0,0,0,0,0,0,0,0,0,-1,1462,1226,0,0
245,-202,0,0,0,0,0,0,0,0,0,-1,1469,1226,0,0
252,-202,0,0,0,0,0,0,0,0,0,-1,1476,1226,0,0
259,-202,0,0,0,0,0,0,0,0,0,-1,1483,1226,0,0
266,-202,0,0,0,0,0,0,0,0,0,-1,1490,1226,0,0
273,-202,0,0,0,0,0,0,0,0,0,-1,1497,1226,0,0
280,-202,0,0,0,0,0,0,0,0,0,-1,1504,1226,0,0
287,-202,0,0,0,0,0,0,0,0,0,-1,1511,1226,0,0
294,-202,0,0,0,0,0,0,0,0,0,-1,1518,1226,0,0
301,-202,0,0,0,0,0,0,0,0,0,-1,1525,1226,0,0
308,-202,0,0,0,0,0,0,0,0,0,-1,1532,1226,0,0
315,-202,0,0,0,0,0,0,0,0,0,-1,1539,1226,0,0
322,-202,0,0,0,0,0,0,0,0,0,-1,1546,1226,0,0
329,-202,0,0,0,0,0,0,0,0,0,-1,1553,1226,0,0
336,-202,0,0,0,0,0,0,0,0,0,-1,1560,1226,0,0
343,-202,0,0,0,0,0,0,0,0,0,-1,1567,1226,0,0
350,-202,0,0,0,0,0,0,0,0,0,-1,1574,1226,0,0
357,-202,0,0,0,0,0,0,0,0,0,-1,1581,1226,0,0
364,-202,0,0,0,0,0,0,0,0,0,-1,1588,1226,0,0
371,-202,0,0,0,0,0,0,0,0,0,-1,1595,1226,0,0
378,-202,0,0,0,0,0,0,0,0,0,-1,1602,1226,0,0
385,-202,0,0,0,0,0,0,0,0,0,-1,1609,1226,0,0
392,-202,0,0,0,0,0,0,0,0,0,-1,1616,1226,0,0
399,-202,0,0,0,0,0,0,0,0,0,-1,1623,1226,0,0
406,-202,0,0,0,0,0,0,0,0,0,-1,1630,1226,0,0
413,-202,0,0,0,0,0,0,0,0,0,-1,1637,1226,0,0
420,-202,0,0,0,0,0,0,0,0,0,-1,1644,1226,0,0
427,-202,0,0,0,0,0,0,0,0,0,-1,1651,1226,0,0
434,-202,0,0,0,0,0,0,0,0,0,-1,1658,1226,0,0
441,-202,0,0,0,0,0,0,0,0,0,-1,1665,1226,0,0
448,-202,0,0,0,0,0,0,0,0,0,-1,1672,1226,0,0
455,-202,0,0,0,0,0,0,0,0,0,-1,1679,1226,0,0
462,-202,0,0,0,0,0,0,0,0,0,-1,1686,1226,0,0
469,-202,0,0,0,0,0,0,0,0,0,-1,1693,1226,0,0
476,-202,0,0,0,0,0,0,0,0,0,-1,1700,1226,0,0
483,-202,0,0,0,0,0,0,0,0,0,-1,1707,1226,0,0
490,-202,0,0,0,0,0,0,0,0,0,-1,1714,1226,0,0
497,-202,0,0,0,0,0,0,0,0,0,-1,1721,1226,0,0
504,-202,0,0,0,0,0,0,0,0,0,-1,1728,1226,0,0
511,-202,0,0,0,0,0,0,0,0,0,-1,1735,1226,0,0
518,-202,0,0,0,0,0,0,0,0,0,-1,1742,1226,0,0
525,-202,0,0,0,0,0,0,0,0,0,-1,1749,1226,0,0
532,-202,0,0,0,0,0,0,0,0,0,-1,1756,1226,0,0
539,-202,0,0,0,0,0,0,0,0,0,-1,1763,1226,0,0
546,-202,0,0,0,0,0,0,0,0,0,-1,1770,1226,0,0
553,-202,0,0,0,0,0,0,0,0,0,-1,1777,1226,0,0
560,-202,0,0,0,0,0,0,0,0,0,-1,1784,1226,0,0
567,-202,0,0,0,0,0,0,0,0,0,-1,1791,1226,0,0
574,-202,0,0,0,0,0,0,0,0,0,-1,1798,1226,0,0
581,-202,0,0,0,0,0,0,0,0,0,-1,1805,1226,0,0
588,-202,0,0,0,0,0,0,0,0,0,-1,1812,1226,0,0
595,-202,0,0,0,0,0,0,0,0,0,-1,1819,1226,0,0
602,-202,0,0,0,0,0,0,0,0,0,-1,1826,1226,0,0
609,-202,0,0,0,0,0,0,0,0,0,-1,1833,1226,0,0
616,-202,0,0,0,0,0,0,0,0,0,-1,1840,1226,0,0
623,-202,0,0,0,0,0,0,0,0,0,-1,1847,1226,0,0
630,-202,23.4945,2.68713,-0.00276266,-0.000519184,0.00212105,0.000758487,-0.00404033,1.02863,0.00297875,0.0389994,1854,1226,23.4945,-2.68711
637,-202,23.5547,2.76428,-0.000801401,0.000973243,0.000706824,0.00122036,-0.00104851,1.23447,0.00131118,0.0341513,1861,1226,23.5546,-2.76425
644,-202,23.5857,2.698,0.000872961,0.00212579,-0.000267657,0.00218057,0.000818174,-1.36889,0.00127196,0.0291511,1868,1226,23.5857,-2.69802
651,-202,23.6252,2.67944,0.00199325,0.00255906,-0.000621754,0.00295925,0.00159307,-0.998905,0.0017102,0.0246665,1875,1226,23.6253,-2.67948
658,-202,23.6002,2.67407,0.00260905,0.00246328,-0.000639216,0.00317952,0.00189281,-0.728632,0.00184678,0.0217497,1882,1226,23.6002,-2.67413
665,-202,23.6146,2.65967,0.00278704,0.00208415,-0.000477839,0.00302876,0.00184243,-0.468327,0.00176228,0.0213527,1889,1226,23.6146,-2.65961
672,-202,23.7399,2.68811,0.00259854,0.00155839,-0.000271434,0.00266511,0.00149182,-0.240512,0.00154236,0.044376,1896,1226,23.7398,-2.68806
679,-202,23.7998,2.59949,0.00228541,0.00112533,1.49506e-05,0.00228561,0.00112514,0.0128846,0.00131965,0.0459959,1903,1226,23.7997,-2.59944
686,-202,23.9838,2.66492,0,0,0,0,0,0,0,-1,1910,1226,23.9838,-2.66495
693,-202,20.4182,5.56396,0,0,0,0,0,0,0,-1,1917,1226,20.4182,-5.56395
700,-202,20.3966,5.37488,0.00140604,-7.92845e-05,0.000583299,0.00160772,-0.000280965,0.332892,0.00117671,0.0299704,1924,1226,20.3966,-5.3749
707,-202,20.4122,5.16125,0.000813625,-0.00050298,0.000741333,0.00114675,-0.000836109,0.422326,0.00114948,0.0240106,1931,1226,20.4122,-5.16124
714,-202,20.4564,5.01013,0.00013968,-0.000707282,0.000870869,0.000684574,-0.00125218,0.559095,0.00113408,0.015619,1938,1226,20.4564,-5.01013
721,-202,20.4713,4.84692,0.000193301,-0.000636375,0.000659108,0.000557253,-0.00100033,0.504522,0.000911317,0.0121946,1945,1226,20.4713,-4.8469
728,-202,20.4634,4.67175,0.00210834,0.000844731,8.88815e-05,0.00211456,0.00083851,0.0698809,0.00122952,0.0102516,1952,1226,20.4633,-4.67177
735,-202,20.4556,4.49377,0.00542648,0.00358089,-0.000566595,0.00558654,0.00342083,-0.275325,0.00325241,0.0112024,1959,1226,20.4556,-4.49383
742,-202,20.451,4.32068,0.0105027,0.0068534,-0.00154654,0.0110699,0.00628616,-0.351547,0.0064108,0.0100883,1966,1226,20.451,-4.32071
749,-202,20.4543,4.15271,0.0166718,0.0102274,-0.00240911,0.0174729,0.00942636,-0.321,0.0100984,0.00980917,1973,1226,20.4543,-4.15266
756,-202,20.4381,3.96924,0.02424,0.0143567,-0.00314742,0.0251572,0.0134395,-0.283561,0.0145358,0.0106564,1980,1226,20.4381,-3.96925
763,-202,20.4396,3.79541,0.0330769,0.0191391,-0.00389595,0.034092,0.018124,-0.254881,0.0196962,0.0151874,1987,1226,20.4396,-3.79545
770,-202,20.4987,3.66602,0,0,0,0,0,0,0,-1,1994,1226,20.4987,-3.66598
777,-202,21.5792,3.32007,0,0,0,0,0,0,0,-1,2001,1226,21.5792,-3.3201
784,-202,22.4531,3.03137,0.0670812,0.0346143,-0.00387123,0.0675364,0.0341591,-0.11705,0.038993,0.0472817,2008,1226,22.4531,-3.03139
791,-202,22.8638,2.61877,0.0793007,0.0383714,-0.00215734,0.0794141,0.038258,-0.0525149,0.0458599,0.0491922,2015,1226,22.8638,-2.61874
798,-202,22.8491,2.44055,0.0905053,0.0396062,0.00118659,0.0905329,0.0395785,0.0232958,0.0524066,0.044983,2022,1226,22.8491,-2.44051
805,-202,0,0,0,0,0,0,0,0,0,-1,2029,1226,0,0
812,-202,0,0,0,0,0,0,0,0,0,-1,2036,1226,0,0
-700,-209,0,0,0,0,0,0,0,0,0,-1,524,1233,0,0
-693,-209,0,0,0,0,0,0,0,0,0,-1,531,1233,0,0
-686,-209,0,0,0,0,0,0,0,0,0,-1,538,1233,0,0
-679,-209,-13.023,-5.6377,0,0,0,0,0,0,0,-1,545,1233,-13.023,5.63766
-672,-209,-12.9376,0.38501,0,0,0,0,0,0,0,-1,552,1233,-12.9375,-0.385005
-665,-209,-12.7741,0.471802,0,0,0,0,0,0,0,-1,559,1233,-12.7741,-0.471763
-658,-209,-12.5325,0.518188,0.0102244,-0.00489244,-0.0239167,0.0277486,-0.0224166,-0.632349,0.0290174,0.045813,566,1233,-12.5325,-0.518179
-651,-209,-12.354,0.54541,0.0152559,-0.000664074,-0.0158693,0.0250497,-0.0104579,-0.552936,0.0210694,0.0446966,573,1233,-12.354,-0.545462
-644,-209,-12.3728,0.796021,0.0165582,0.00192289,-0.0100405,0.0216647,-0.00318362,-0.470497,0.0156129,0.0474163,580,1233,-12.3728,-0.795996
-637,-209,-12.1466,1.1051,0.0156439,0.00328468,-0.00598094,0.0180643,0.000864346,-0.38453,0.0117653,0.0436461,587,1233,-12.1466,-1.10515
-630,-209,-12.1317,1.28418,0.0135666,0.00375176,-0.00331737,0.0145827,0.00273569,-0.297214,0.00895037,0.0225535,594,1233,-12.1316,-1.28414
-623,-209,-12.1716,1.56042,0.0108043,0.00353668,-0.00184753,0.011247,0.00309398,-0.235185,0.00670883,0.0113423,601,1233,-12.1716,-1.56039
-616,-209,-12.1877,1.76184,0.00757433,0.00278482,-0.00129063,0.00789998,0.00245917,-0.247157,0.00466808,0.011946,608,1233,-12.1877,-1.76185
-609,-209,-12.2046,1.95984,0.00473698,0.00194736,-0.00116438,0.00515911,0.00152523,-0.3478,0.00306042,0.0135116,615,1233,-12.2046,-1.95982
-602,-209,-12.2028,2.18005,0.00191753,0.000788412,-0.00128941,0.00276056,-5.46146e-05,-0.579048,0.00185885,0.0160696,622,1233,-12.2028,-2.1801
-595,-209,-12.1895,2.38464,-0.00095404,0.000153331,-0.00163156,0.0013226,-0.0021233,-0.94898,0.00200731,0.0121304,629,1233,-12.1895,-2.38468
-588,-209,-12.1797,2.57959,-0.00315957,-0.000566777,-0.00230102,0.000777912,-0.00450426,-1.04194,0.00329292,0.0128122,636,1233,-12.1797,-2.57964
-581,-209,-12.119,2.79663,-0.00471851,-0.000742618,-0.00373765,0.00150287,-0.00696399,-1.02981,0.00521629,0.01461,643,1233,-12.119,-2.79669
-574,-209,-12.2424,2.92859,-0.00592181,-0.000145881,-0.00425048,0.00210492,-0.00817261,-1.0838,0.00626897,0.0210342,650,1233,-12.2424,-2.92861
-567,-209,-12.5153,3.26013,-0.00696291,0.000472218,-0.00409389,0.00228459,-0.00877529,-1.15403,0.00674201,0.046401,657,1233,-12.5153,-3.26016
-560,-209,-12.8341,3.77429,0,0,0,0,0,0,0,-1,664,1233,-12.8341,-3.77434
-553,-209,-16.1137,0.461792,0,0,0,0,0,0,0,-1,671,1233,-16.1137,-0.461769
-546,-209,-15.5413,0.247681,0,0,0,0,0,0,0,-1,678,1233,-15.5413,-0.247635
-539,-209,-14.9689,0.0334473,0,0,0,0,0,0,0,-1,685,1233,-14.9689,-0.0335008
-532,-209,-15.7204,0.873901,-0.0111992,0.00720426,-0.00415855,0.00810032,-0.0120953,-1.35857,0.0117357,0.0314403,692,1233,-15.7204,-0.873925
-525,-209,-15.8217,0.949097,-0.0114441,0.00861817,-0.00338508,0.00917393,-0.0119999,-1.40807,0.0122609,0.0364776,699,1233,-15.8217,-0.949109
-518,-209,-15.9226,1.16699,-0.0108575,0.00939838,-0.00190791,0.00957652,-0.0110356,-1.4777,0.0119104,0.045393,706,1233,-15.9226,-1.16704
-511,-209,-16.001,1.25867,-0.00828576,0.008192,0.000656052,0.00821808,-0.00831184,1.53107,0.00954361,0.0443947,713,1233,-16.001,-1.25866
-504,-209,0,0,0,0,0,0,0,0,0,-1,720,1233,0,0
-497,-209,0,0,0,0,0,0,0,0,0,-1,727,1233,0,0
-490,-209,0,0,0,0,0,0,0,0,0,-1,734,1233,0,0
-483,-209,0,0,0,0,0,0,0,0,0,-1,741,1233,0,0
-476,-209,0,0,0,0,0,0,0,0,0,-1,748,1233,0,0
-469,-209,0,0,0,0,0,0,0,0,0,-1,755,1233,0,0
-462,-209,0,0,0,0,0,0,0,0,0,-1,762,1233,0,0
-455,-209,0,0,0,0,0,0,0,0,0,-1,769,1233,0,0
-448,-209,0,0,0,0,0,0,0,0,0,-1,776,1233,0,0
-441,-209,0,0,0,0,0,0,0,0,0,-1,783,1233,0,0
-434,-209,0,0,0,0,0,0,0,0,0,-1,790,1233,0,0
-427,-209,0,0,0,0,0,0,0,0,0,-1,797,1233,0,0
-420,-209,0,0,0,0,0,0,0,0,0,-1,804,1233,0,0
-413,-209,0,0,0,0,0,0,0,0,0,-1,811,1233,0,0
-406,-209,0,0,0,0,0,0,0,0,0,-1,818,1233,0,0
-399,-209,0,0,0,0,0,0,0,0,0,-1,825,1233,0,0
-392,-209,0,0,0,0,0,0,0,0,0,-1,832,1233,0,0
-385,-209,0,0,0,0,0,0,0,0,0,-1,839,1233,0,0
-378,-209,0,0,0,0,0,0,0,0,0,-1,846,1233,0,0
-371,-209,0,0,0,0,0,0,0,0,0,-1,853,1233,0,0
-364,-209,0,0,0,0,0,0,0,0,0,-1,860,1233,0,0
-357,-209,0,0,0,0,0,0,0,0,0,-1,867,1233,0,0
-350,-209,0,0,0,0,0,0,0,0,0,-1,874,1233,0,0
-343,-209,0,0,0,0,0,0,0,0,0,-1,881,1233,0,0
-336,-209,0,0,0,0,0,0,0,0,0,-1,888,1233,0,0
-329,-209,0,0,0,0,0,0,0,0,0,-1,895,1233,0,0
-322,-209,0,0,0,0,0,0,0,0,0,-1,902,1233,0,0
-315,-209,0,0,0,0,0,0,0,0,0,-1,909,1233,0,0
-308,-209,0,0,0,0,0,0,0,0,0,-1,916,1233,0,0
-301,-209,0,0,0,0,0,0,0,0,0,-1,923,1233,0,0
-294,-209,0,0,0,0,0,0,0,0,0,-1,930,1233,0,0
-287,-209,0,0,0,0,0,0,0,0,0,-1,937,1233,0,0
-280,-209,0,0,0,0,0,0,0,0,0,-1,944,1233,0,0
-273,-209,0,0,0,0,0,0,0,0,0,-1,951,1233,0,0
-266,-209,0,0,0,0,0,0,0,0,0,-1,958,1233,0,0
-259,-209,0,0,0,0,0,0,0,0,0,-1,965,1233,0,0
-252,-209,0,0,0,0,0,0,0,0,0,-1,972,1233,0,0
-245,-209,0,0,0,0,0,0,0,0,0,-1,979,1233,0,0
-238,-209,0,0,0,0,0,0,0,0,0,-1,986,1233,0,0
-231,-209,0,0,0,0,0,0,0,0,0,-1,993,1233,0,0
-224,-209,0,0,0,0,0,0,0,0,0,-1,1000,1233,0,0
-217,-209,0,0,0,0,0,0,0,0,0,-1,1007,1233,0,0
-210,-209,0,0,0,0,0,0,0,0,0,-1,1014,1233,0,0
-203,-209,0,0,0,0,0,0,0,0,0,-1,1021,1233,0,0
-196,-209,0,0,0,0,0,0,0,0,0,-1,1028,1233,0,0
-189,-209,0,0,0,0,0,0,0,0,0,-1,1035,1233,0,0
-182,-209,0,0,0,0,0,0,0,0,0,-1,1042,1233,0,0
-175,-209,0,0,0,0,0,0,0,0,0,-1,1049,1233,0,0
-168,-209,0,0,0,0,0,0,0,0,0,-1,1056,1233,0,0
-161,-209,0,0,0,0,0,0,0,0,0,-1,1063,1233,0,0
-154,-209,0,0,0,0,0,0,0,0,0,-1,1070,1233,0,0
-147,-209,0,0,0,0,0,0,0,0,0,-1,1077,1233,0,0
-140,-209,0,0,0,0,0,0,0,0,0,-1,1084,1233,0,0
-133,-209,0,0,0,0,0,0,0,0,0,-1,1091,1233,0,0
-126,-209,0,0,0,0,0,0,0,0,0,-1,1098,1233,0,0
-119,-209,0,0,0,0,0,0,0,0,0,-1,1105,1233,0,0
-112,-209,0,0,0,0,0,0,0,0,0,-1,1112,1233,0,0
-105,-209,0,0,0,0,0,0,0,0,0,-1,1119,1233,0,0
-98,-209,0,0,0,0,0,0,0,0,0,-1,1126,1233,0,0
-91,-209,0,0,0,0,0,0,0,0,0,-1,1133,1233,0,0
-84,-209,0,0,0,0,0,0,0,0,0,-1,1140,1233,0,0
-77,-209,0,0,0,0,0,0,0,0,0,-1,1147,1233,0,0
-70,-209,0,0,0,0,0,0,0,0,0,-1,1154,1233,0,0
-63,-209,0,0,0,0,0,0,0,0,0,-1,1161,1233,0,0
-56,-209,0,0,0,0,0,0,0,0,0,-1,1168,1233,0,0
-49,-209,0,0,0,0,0,0,0,0,0,-1,1175,1233,0,0
-42,-209,0,0,0,0,0,0,0,0,0,-1,1182,1233,0,0
-35,-209,0,0,0,0,0,0,0,0,0,-1,1189,1233,0,0
-28,-209,0,0,0,0,0,0,0,0,0,-1,1196,1233,0,0
-21,-209,0,0,0,0,0,0,0,0,0,-1,1203,1233,0,0
-14,-209,0,0,0,0,0,0,0,0,0,-1,1210,1233,0,0
-7,-209,0,0,0,0,0,0,0,0,0,-1,1217,1233,0,0
0,-209,0,0,0,0,0,0,0,0,0,-1,1224,1233,0,0
7,-209,0,0,0,0,0,0,0,0,0,-1,1231,1233,0,0
14,-209,0,0,0,0,0,0,0,0,0,-1,1238,1233,0,0
21,-209,0,0,0,0,0,0,0,0,0,-1,1245,1233,0,0
28,-209,0,0,0,0,0,0,0,0,0,-1,1252,1233,0,0
35,-209,0,0,0,0,0,0,0,0,0,-1,1259,1233,0,0
42,-209,0,0,0,0,0,0,0,0,0,-1,1266,1233,0,0
49,-209,0,0,0,0,0,0,0,0,0,-1,1273,1233,0,0
56,-209,0,0,0,0,0,0,0,0,0,-1,1280,1233,0,0
63,-209,0,0,0,0,0,0,0,0,0,-1,1287,1233,0,0
70,-209,0,0,0,0,0,0,0,0,0,-1,1294,1233,0,0
77,-209,0,0,0,0,0,0,0,0,0,-1,1301,1233,0,0
84,-209,0,0,0,0,0,0,0,0,0,-1,1308,1233,0,0
91,-209,0,0,0,0,0,0,0,0,0,-1,1315,1233,0,0
98,-209,0,0,0,0,0,0,0,0,0,-1,1322,1233,0,0
105,-209,0,0,0,0,0,0,0,0,0,-1,1329,1233,0,0
112,-209,0,0,0,0,0,0,0,0,0,-1,1336,1233,0,0
119,-209,0,0,0,0,0,0,0,0,0,-1,1343,1233,0,0
126,-209,0,0,0,0,0,0,0,0,0,-1,1350,1233,0,0
133,-209,0,0,0,0,0,0,0,0,0,-1,1357,1233,0,0
140,-209,0,0,0,0,0,0,0,0,0,-1,1364,1233,0,0
147,-209,0,0,0,0,0,0,0,0,0,-1,1371,1233,0,0
154,-209,0,0,0,0,0,0,0,0,0,-1,1378,1233,0,0
161,-209,0,0,0,0,0,0,0,0,0,-1,1385,1233,0,0
168,-209,0,0,0,0,0,0,0,0,0,-1,1392,1233,0,0
175,-209,0,0,0,0,0,0,0,0,0,-1,1399,1233,0,0
182,-209,0,0,0,0,0,0,0,0,0,-1,1406,1233,0,0
189,-209,0,0,0,0,0,0,0,0,0,-1,1413,1233,0,0
196,-209,0,0,0,0,0,0,0,0,0,-1,1420,1233,0,0
203,-209,0,0,0,0,0,0,0,0,0,-1,1427,1233,0,0
210,-209,0,0,0,0,0,0,0,0,0,-1,1434,1233,0,0
217,-209,0,0,0,0,0,0,0,0,0,-1,1441,1233,0,0
224,-209,0,0,0,0,0,0,0,0,0,-1,1448,1233,0,0
231,-209,0,0,0,0,0,0,0,0,0,-1,1455,1233,0,0
238,-209,0,0,0,0,0,0,0,0,0,-1,1462,1233,0,0
245,-209,0,0,0,0,0,0,0,0,0,-1,1469,1233,0,0
252,-209,0,0,0,0,0,0,0,0,0,-1,1476,1233,0,0
259,-209,0,0,0,0,0,0,0,0,0,-1,1483,1233,0,0
266,-209,0,0,0,0,0,0,0,0,0,-1,1490,1233,0,0
273,-209,0,0,0,0,0,0,0,0,0,-1,1497,1233,0,0
280,-209,0,0,0,0,0,0,0,0,0,-1,1504,1233,0,0
287,-209,0,0,0,0,0,0,0,0,0,-1,1511,1233,0,0
294,-209,0,0,0,0,0,0,0,0,0,-1,1518,1233,0,0
301,-209,0,0,0,0,0,0,0,0,0,-1,1525,1233,0,0
308,-209,0,0,0,0,0,0,0,0,0,-1,1532,1233,0,0
315,-209,0,0,0,0,0,0,0,0,0,-1,1539,1233,0,0
322,-209,0,0,0,0,0,0,0,0,0,-1,1546,1233,0,0
329,-209,0,0,0,0,0,0,0,0,0,-1,1553,1233,0,0
336,-209,0,0,0,0,0,0,0,0,0,-1,1560,1233,0,0
343,-209,0,0,0,0,0,0,0,0,0,-1,1567,1233,0,0
350,-209,0,0,0,0,0,0,0,0,0,-1,1574,1233,0,0
357,-209,0,0,0,0,0,0,0,0,0,-1,1581,1233,0,0
364,-209,0,0,0,0,0,0,0,0,0,-1,1588,1233,0,0
371,-209,0,0,0,0,0,0,0,0,0,-1,1595,1233,0,0
378,-209,0,0,0,0,0,0,0,0,0,-1,1602,1233,0,0
385,-209,0,0,0,0,0,0,0,0,0,-1,1609,1233,0,0
392,-209,0,0,0,0,0,0,0,0,0,-1,1616,1233,0,0
399,-209,0,0,0,0,0,0,0,0,0,-1,1623,1233,0,0
406,-209,0,0,0,0,0,0,0,0,0,-1,1630,1233,0,0
413,-209,0,0,0,0,0,0,0,0,0,-1,1637,1233,0,0
420,-209,0,0,0,0,0,0,0,0,0,-1,1644,1233,0,0
427,-209,0,0,0,0,0,0,0,0,0,-1,1651,1233,0,0
434,-209,0,0,0,0,0,0,0,0,0,-1,1658,1233,0,0
441,-209,0,0,0,0,0,0,0,0,0,-1,1665,1233,0,0
448,-209,0,0,0,0,0,0,0,0,0,-1,1672,1233,0,0
455,-209,0,0,0,0,0,0,0,0,0,-1,1679,1233,0,0
462,-209,0,0,0,0,0,0,0,0,0,-1,1686,1233,0,0
469,-209,0,0,0,0,0,0,0,0,0,-1,1693,1233,0,0
476,-209,0,0,0,0,0,0,0,0,0,-1,1700,1233,0,0
483,-209,0,0,0,0,0,0,0,0,0,-1,1707,1233,0,0
490,-209,0,0,0,0,0,0,0,0,0,-1,1714,1233,0,0
497,-209,0,0,0,0,0,0,0,0,0,-1,1721,1233,0,0
504,-209,0,0,0,0,0,0,0,0,0,-1,1728,1233,0,0
511,-209,0,0,0,0,0,0,0,0,0,-1,1735,1233,0,0
518,-209,0,0,0,0,0,0,0,0,0,-1,1742,1233,0,0
525,-209,0,0,0,0,0,0,0,0,0,-1,1749,1233,0,0
532,-209,0,0,0,0,0,0,0,0,0,-1,1756,1233,0,0
539,-209,0,0,0,0,0,0,0,0,0,-1,1763,1233,0,0
546,-209,0,0,0,0,0,0,0,0,0,-1,1770,1233,0,0
553,-209,0,0,0,0,0,0,0,0,0,-1,1777,1233,0,0
560,-209,0,0,0,0,0,0,0,0,0,-1,1784,1233,0,0
567,-209,0,0,0,0,0,0,0,0,0,-1,1791,1233,0,0
574,-209,0,0,0,0,0,0,0,0,0,-1,1798,1233,0,0
581,-209,0,0,0,0,0,0,0,0,0,-1,1805,1233,0,0
588,-209,0,0,0,0,0,0,0,0,0,-1,1812,1233,0,0
595,-209,0,0,0,0,0,0,0,0,0,-1,1819,1233,0,0
602,-209,0,0,0,0,0,0,0,0,0,-1,1826,1233,0,0
609,-209,0,0,0,0,0,0,0,0,0,-1,1833,1233,0,0
616,-209,0,0,0,0,0,0,0,0,0,-1,1840,1233,0,0
623,-209,23.5682,2.80981,-0.00410007,-0.00170941,0.00307643,0.000395752,-0.00620523,0.970695,0.00427485,0.0358701,1847,1233,23.5683,-2.80978
630,-209,23.5214,2.69592,-0.00244591,0.000216995,0.00112057,0.000625785,-0.0028547,1.22099,0.00214242,0.0393204,1854,1233,23.5214,-2.69595
637,-209,23.5623,2.68262,-0.000630198,0.00210019,-0.000574842,0.00221627,-0.000746287,-1.37153,0.00177924,0.0359809,1861,1233,23.5623,-2.6826
644,-209,23.5885,2.72888,0.000861229,0.00333978,-0.00149777,0.0040445,0.000156506,-1.13102,0.00264571,0.0285129,1868,1233,23.5885,-2.72894
651,-209,23.6027,2.69446,0.00183105,0.00364125,-0.00164671,0.00461521,0.000857089,-1.03668,0.00283464,0.0240502,1875,1233,23.6027,-2.6945
658,-209,23.5978,2.67261,0.00236519,0.00340484,-0.00146234,0.004437,0.00133303,-0.956169,0.00262884,0.0219727,1882,1233,23.5978,-2.67259
665,-209,23.7164,2.77844,0.00252667,0.00291797,-0.00111993,0.00385921,0.00158543,-0.871875,0.0022399,0.0364754,1889,1233,23.7164,-2.7784
672,-209,23.7328,2.62634,0,0,0,0,0,0,0,-1,1896,1233,23.7328,-2.62629
679,-209,23.8624,2.59045,0,0,0,0,0,0,0,-1,1903,1233,23.8624,-2.59047
686,-209,24.3955,2.74011,0,0,0,0,0,0,0,-1,1910,1233,24.3956,-2.74012
693,-209,20.3431,5.60278,0,0,0,0,0,0,0,-1,1917,1233,20.3432,-5.60274
700,-209,20.2179,5.46997,0.00151139,0.000228491,0.000560032,0.00172147,1.8417e-05,0.358868,0.00114156,0.0261546,1924,1233,20.2179,-5.47001
707,-209,20.2526,5.20923,0.00151937,-0.0003268,0.000600902,0.00169772,-0.000505155,0.288529,0.00133251,0.0205527,1931,1233,20.2526,-5.20924
714,-209,20.2693,5.03882,0.00103099,-0.000590297,0.000636505,0.00125102,-0.000810324,0.332821,0.00119915,0.0125001,1938,1233,20.2692,-5.03879
721,-209,20.2777,4.85852,0.00161892,-0.000512419,0.00018712,0.00163522,-0.000528722,0.0869086,0.00130266,0.0121966,1945,1233,20.2777,-4.85854
728,-209,20.3031,4.67615,0.00474837,0.0013756,-0.000712255,0.00489262,0.00123135,-0.199814,0.00293859,0.012028,1952,1233,20.3031,-4.67616
735,-209,20.2904,4.49866,0.00950915,0.00479449,-0.00155422,0.0099754,0.00432824,-0.291447,0.00577606,0.012647,1959,1233,20.2904,-4.49869
742,-209,20.2751,4.32983,0.0160778,0.00878163,-0.00280881,0.0170338,0.00782559,-0.328071,0.00984529,0.0106492,1966,1233,20.2752,-4.32984
749,-209,20.2815,4.16528,0.0236037,0.0130487,-0.0038766,0.0248744,0.0117779,-0.316772,0.014368,0.0093618,1973,1233,20.2815,-4.16524
756,-209,20.2629,3.98413,0.0326102,0.0184675,-0.00474426,0.0340542,0.0170234,-0.295468,0.0196612,0.00999325,1980,1233,20.263,-3.98418
763,-209,20.233,3.8147,0.0429161,0.0249012,-0.00546709,0.0444454,0.0233719,-0.272757,0.025672,0.0162706,1987,1233,20.233,-3.81471
770,-209,21.3624,1.74597,0,0,0,0,0,0,0,-1,1994,1233,21.3624,-1.746
777,-209,21.7311,2.13464,0.0671649,0.0400233,-0.00544002,0.0682146,0.0389735,-0.190625,0.0395171,0.0469968,2001,1233,21.7311,-2.13469
784,-209,22.0624,2.63904,0.0799812,0.047839,-0.0040736,0.0804894,0.0473307,-0.124123,0.0467101,0.0445809,2008,1233,22.0623,-2.63903
791,-209,22.6522,2.70386,0.0921459,0.0547697,-0.00131274,0.092192,0.0547236,-0.0350647,0.0535369,0.0446191,2015,1233,22.6523,-2.70384
798,-209,22.9437,2.80737,0.102041,0.0592197,0.00353522,0.102331,0.0589298,0.0818193,0.0593071,0.0417116,2022,1233,22.9437,-2.80741
805,-209,0,0,0,0,0,0,0,0,0,-1,2029,1233,0,0
812,-209,0,0,0,0,0,0,0,0,0,-1,2036,1233,0,0
-700,-216,0,0,0,0,0,0,0,0,0,-1,524,1240,0,0
-693,-216,0,0,0,0,0,0,0,0,0,-1,531,1240,0,0
-686,-216,0,0,0,0,0,0,0,0,0,-1,538,1240,0,0
-679,-216,-13.1852,-4.3584,0,0,0,0,0,0,0,-1,545,1240,-13.1853,4.35844
-672,-216,-13.1575,-4.80737,0,0,0,0,0,0,0,-1,552,1240,-13.1575,4.80735
-665,-216,-12.7122,0.506714,0,0,0,0,0,0,0,-1,559,1240,-12.7122,-0.506665
-658,-216,-12.0923,0.273438,0.00845816,-0.00565322,-0.0403519,0.0423666,-0.0395617,-0.698846,0.0473105,0.0483805,566,1240,-12.0924,-0.273435
-651,-216,-12.2419,0.479492,0.0137833,-0.000850787,-0.0273991,0.0348255,-0.0218931,-0.654917,0.033029,0.0455613,573,1240,-12.242,-0.479542
-644,-216,-12.3307,0.510742,0,0,0,0,0,0,0,-1,580,1240,-12.3308,-0.510735
-637,-216,-11.954,1.01746,0.0146306,0.00361067,-0.0112725,0.0216677,-0.00342641,-0.558075,0.0157123,0.0438262,587,1240,-11.954,-1.01751
-630,-216,-11.9717,1.17468,0.0127823,0.00416409,-0.00674374,0.0164761,0.000470291,-0.501105,0.0108307,0.0273839,594,1240,-11.9718,-1.17469
-623,-216,-11.9598,1.53894,0.0102559,0.00399305,-0.0039165,0.0121389,0.00211002,-0.448166,0.00748903,0.0124704,601,1240,-11.9598,-1.53888
-616,-216,-11.9829,1.76416,0.00747715,0.00333415,-0.00231005,0.00850846,0.00230283,-0.419895,0.00508171,0.0138193,608,1240,-11.9829,-1.76421
-609,-216,-12.0036,1.96838,0.00518226,0.00254314,-0.00136307,0.00575986,0.00196555,-0.400807,0.00338086,0.0135857,615,1240,-12.0036,-1.96843
-602,-216,-12.0099,2.14746,0.00313361,0.00147799,-0.000773881,0.00343901,0.00117259,-0.375871,0.00201871,0.0135051,622,1240,-12.0099,-2.14745
-595,-216,-11.9551,2.34094,0.000840373,0.00098059,-0.000600359,0.00151492,0.000306042,-0.843524,0.000924966,0.0183705,629,1240,-11.9551,-2.34091
-588,-216,-11.9567,2.57324,-0.00101244,0.0002953,-0.00104068,0.000870483,-0.00158762,-1.06588,0.00143918,0.019607,636,1240,-11.9567,-2.57318
-581,-216,-11.9678,2.82153,-0.00239118,0.000252226,-0.0025038,0.00176176,-0.00390071,-1.02825,0.00334607,0.0163266,643,1240,-11.9678,-2.8215
-574,-216,-11.957,3.12732,-0.00374991,0.000975681,-0.00313197,0.00253615,-0.00531039,-1.10856,0.00462362,0.0194595,650,1240,-11.957,-3.12727
-567,-216,-12.0499,3.38062,-0.0050921,0.00168057,-0.00313058,0.00290594,-0.00631747,-1.19771,0.0054452,0.0335585,657,1240,-12.0498,-3.38065
-560,-216,-12.1939,3.69934,0,0,0,0,0,0,0,-1,664,1240,-12.1939,-3.69934
-553,-216,-14.8184,-0.0878906,0,0,0,0,0,0,0,-1,671,1240,-14.8184,0.0878798
-546,-216,-15.2518,-0.188965,0,0,0,0,0,0,0,-1,678,1240,-15.2518,0.189022
-539,-216,-15.5396,0.874146,-0.0105487,0.00775605,-0.00432105,0.00872481,-0.0115174,-1.35025,0.0117239,0.0417038,685,1240,-15.5396,-0.874193
-532,-216,-15.6448,0.948853,-0.012287,0.00956572,-0.00438977,0.0104146,-0.0131358,-1.37978,0.013627,0.0400735,692,1240,-15.6448,-0.948891
-525,-216,-15.7396,0.934204,-0.0138103,0.0112809,-0.00409646,0.0119328,-0.0144622,-1.41299,0.0152624,0.0400172,699,1240,-15.7396,-0.93421
-518,-216,-16.0531,1.33679,0,0,0,0,0,0,0,-1,706,1240,-16.0531,-1.33678
-511,-216,-16.1147,1.41699,-0.0139721,0.0119258,-0.000953111,0.0119609,-0.0140071,-1.53406,0.0150081,0.0432302,713,1240,-16.1147,-1.41704
-504,-216,-15.9441,1.25659,-0.00634783,0.00816277,0.00471556,0.00956056,-0.00774562,1.28263,0.01001,0.0455612,720,1240,-15.9441,-1.25653
-497,-216,0,0,0,0,0,0,0,0,0,-1,727,1240,0,0
-490,-216,0,0,0,0,0,0,0,0,0,-1,734,1240,0,0
-483,-216,0,0,0,0,0,0,0,0,0,-1,741,1240,0,0
-476,-216,0,0,0,0,0,0,0,0,0,-1,748,1240,0,0
-469,-216,0,0,0,0,0,0,0,0,0,-1,755,1240,0,0
-462,-216,0,0,0,0,0,0,0,0,0,-1,762,1240,0,0
-455,-216,0,0,0,0,0,0,0,0,0,-1,769,1240,0,0
-448,-216,0,0,0,0,0,0,0,0,0,-1,776,1240,0,0
-441,-216,0,0,0,0,0,0,0,0,0,-1,783,1240,0,0
-434,-216,0,0,0,0,0,0,0,0,0,-1,790,1240,0,0
-427,-216,0,0,0,0,0,0,0,0,0,-1,797,1240,0,0
-420,-216,0,0,0,0,0,0,0,0,0,-1,804,1240,0,0
-413,-216,0,0,0,0,0,0,0,0,0,-1,811,1240,0,0
-406,-216,0,0,0,0,0,0,0,0,0,-1,818,1240,0,0
-399,-216,0,0,0,0,0,0,0,0,0,-1,825,1240,0,0
-392,-216,0,0,0,0,0,0,0,0,0,-1,832,1240,0,0
-385,-216,0,0,0,0,0,0,0,0,0,-1,839,1240,0,0
-378,-216,0,0,0,0,0,0,0,0,0,-1,846,1240,0,0
-371,-216,0,0,0,0,0,0,0,0,0,-1,853,1240,0,0
-364,-216,0,0,0,0,0,0,0,0,0,-1,860,1240,0,0
-357,-216,0,0,0,0,0,0,0,0,0,-1,867,1240,0,0
-350,-216,0,0,0,0,0,0,0,0,0,-1,874,1240,0,0
-343,-216,0,0,0,0,0,0,0,0,0,-1,881,1240,0,0
-336,-216,0,0,0,0,0,0,0,0,0,-1,888,1240,0,0
-329,-216,0,0,0,0,0,0,0,0,0,-1,895,1240,0,0
-322,-216,0,0,0,0,0,0,0,0,0,-1,902,1240,0,0
-315,-216,0,0,0,0,0,0,0,0,0,-1,909,1240,0,0
-308,-216,0,0,0,0,0,0,0,0,0,-1,916,1240,0,0
-301,-216,0,0,0,0,0,0,0,0,0,-1,923,1240,0,0
-294,-216,0,0,0,0,0,0,0,0,0,-1,930,1240,0,0
-287,-216,0,0,0,0,0,0,0,0,0,-1,937,1240,0,0
-280,-216,0,0,0,0,0,0,0,0,0,-1,944,1240,0,0
-273,-216,0,0,0,0,0,0,0,0,0,-1,951,1240,0,0
-266,-216,0,0,0,0,0,0,0,0,0,-1,958,1240,0,0
-259,-216,0,0,0,0,0,0,0,0,0,-1,965,1240,0,0
-252,-216,0,0,0,0,0,0,0,0,0,-1,972,1240,0,0
-245,-216,0,0,0,0,0,0,0,0,0,-1,979,1240,0,0
-238,-216,0,0,0,0,0,0,0,0,0,-1,986,1240,0,0
-231,-216,0,0,0,0,0,0,0,0,0,-1,993,1240,0,0
-224,-216,0,0,0,0,0,0,0,0,0,-1,1000,1240,0,0
-217,-216,0,0,0,0,0,0,0,0,0,-1,1007,1240,0,0
-210,-216,0,0,0,0,0,0,0,0,0,-1,1014,1240,0,0
-203,-216,0,0,0,0,0,0,0,0,0,-1,1021,1240,0,0
-196,-216,0,0,0,0,0,0,0,0,0,-1,1028,1240,0,0
-189,-216,0,0,0,0,0,0,0,0,0,-1,1035,1240,0,0
-182,-216,0,0,0,0,0,0,0,0,0,-1,1042,1240,0,0
-175,-216,0,0,0,0,0,0,0,0,0,-1,1049,1240,0,0
-168,-216,0,0,0,0,0,0,0,0,0,-1,1056,1240,0,0
-161,-216,0,0,0,0,0,0,0,0,0,-1,1063,1240,0,0
-154,-216,0,0,0,0,0,0,0,0,0,-1,1070,1240,0,0
-147,-216,0,0,0,0,0,0,0,0,0,-1,1077,1240,0,0
-140,-216,0,0,0,0,0,0,0,0,0,-1,1084,1240,0,0
-133,-216,0,0,0,0,0,0,0,0,0,-1,1091,1240,0,0
-126,-216,0,0,0,0,0,0,0,0,0,-1,1098,1240,0,0
-119,-216,0,0,0,0,0,0,0,0,0,-1,1105,1240,0,0
-112,-216,0,0,0,0,0,0,0,0,0,-1,1112,1240,0,0
-105,-216,0,0,0,0,0,0,0,0,0,-1,1119,1240,0,0
-98,-216,0,0,0,0,0,0,0,0,0,-1,1126,1240,0,0
-91,-216,0,0,0,0,0,0,0,0,0,-1,1133,1240,0,0
-84,-216,0,0,0,0,0,0,0,0,0,-1,1140,1240,0,0
-77,-216,0,0,0,0,0,0,0,0,0,-1,1147,1240,0,0
-70,-216,0,0,0,0,0,0,0,0,0,-1,1154,1240,0,0
-63,-216,0,0,0,0,0,0,0,0,0,-1,1161,1240,0,0
-56,-216,0,0,0,0,0,0,0,0,0,-1,1168,1240,0,0
-49,-216,0,0,0,0,0,0,0,0,0,-1,1175,1240,0,0
-42,-216,0,0,0,0,0,0,0,0,0,-1,1182,1240,0,0
-35,-216,0,0,0,0,0,0,0,0,0,-1,1189,1240,0,0
-28,-216,0,0,0,0,0,0,0,0,0,-1,1196,1240,0,0
-21,-216,0,0,0,0,0,0,0,0,0,-1,1203,1240,0,0
-14,-216,0,0,0,0,0,0,0,0,0,-1,1210,1240,0,0
-7,-216,0,0,0,0,0,0,0,0,0,-1,1217,1240,0,0
0,-216,0,0,0,0,0,0,0,0,0,-1,1224,1240,0,0
7,-216,0,0,0,0,0,0,0,0,0,-1,1231,1240,0,0
14,-216,0,0,0,0,0,0,0,0,0,-1,1238,1240,0,0
21,-216,0,0,0,0,0,0,0,0,0,-1,1245,1240,0,0
28,-216,0,0,0,0,0,0,0,0,0,-1,1252,1240,0,0
35,-216,0,0,0,0,0,0,0,0,0,-1,1259,1240,0,0
42,-216,0,0,0,0,0,0,0,0,0,-1,1266,1240,0,0
49,-216,0,0,0,0,0,0,0,0,0,-1,1273,1240,0,0
56,-216,0,0,0,0,0,0,0,0,0,-1,1280,1240,0,0
63,-216,0,0,0,0,0,0,0,0,0,-1,1287,1240,0,0
70,-216,0,0,0,0,0,0,0,0,0,-1,1294,1240,0,0
77,-216,0,0,0,0,0,0,0,0,0,-1,1301,1240,0,0
84,-216,0,0,0,0,0,0,0,0,0,-1,1308,1240,0,0
91,-216,0,0,0,0,0,0,0,0,0,-1,1315,1240,0,0
98,-216,0,0,0,0,0,0,0,0,0,-1,1322,1240,0,0
105,-216,0,0,0,0,0,0,0,0,0,-1,1329,1240,0,0
112,-216,0,0,0,0,0,0,0,0,0,-1,1336,1240,0,0
119,-216,0,0,0,0,0,0,0,0,0,-1,1343,1240,0,0
126,-216,0,0,0,0,0,0,0,0,0,-1,1350,1240,0,0
133,-216,0,0,0,0,0,0,0,0,0,-1,1357,1240,0,0
140,-216,0,0,0,0,0,0,0,0,0,-1,1364,1240,0,0
147,-216,0,0,0,0,0,0,0,0,0,-1,1371,1240,0,0
154,-216,0,0,0,0,0,0,0,0,0,-1,1378,1240,0,0
161,-216,0,0,0,0,0,0,0,0,0,-1,1385,1240,0,0
168,-216,0,0,0,0,0,0,0,0,0,-1,1392,1240,0,0
175,-216,0,0,0,0,0,0,0,0,0,-1,1399,1240,0,0
182,-216,0,0,0,0,0,0,0,0,0,-1,1406,1240,0,0
189,-216,0,0,0,0,0,0,0,0,0,-1,1413,1240,0,0
196,-216,0,0,0,0,0,0,0,0,0,-1,1420,1240,0,0
203,-216,0,0,0,0,0,0,0,0,0,-1,1427,1240,0,0
210,-216,0,0,0,0,0,0,0,0,0,-1,1434,1240,0,0
217,-216,0,0,0,0,0,0,0,0,0,-1,1441,1240,0,0
224,-216,0,0,0,0,0,0,0,0,0,-1,1448,1240,0,0
231,-216,0,0,0,0,0,0,0,0,0,-1,1455,1240,0,0
238,-216,0,0,0,0,0,0,0,0,0,-1,1462,1240,0,0
245,-216,0,0,0,0,0,0,0,0,0,-1,1469,1240,0,0
252,-216,0,0,0,0,0,0,0,0,0,-1,1476,1240,0,0
259,-216,0,0,0,0,0,0,0,0,0,-1,1483,1240,0,0
266,-216,0,0,0,0,0,0,0,0,0,-1,1490,1240,0,0
273,-216,0,0,0,0,0,0,0,0,0,-1,1497,1240,0,0
280,-216,0,0,0,0,0,0,0,0,0,-1,1504,1240,0,0
287,-216,0,0,0,0,0,0,0,0,0,-1,1511,1240,0,0
294,-216,0,0,0,0,0,0,0,0,0,-1,1518,1240,0,0
301,-216,0,0,0,0,0,0,0,0,0,-1,1525,1240,0,0
308,-216,0,0,0,0,0,0,0,0,0,-1,1532,1240,0,0
315,-216,0,0,0,0,0,0,0,0,0,-1,1539,1240,0,0
322,-216,0,0,0,0,0,0,0,0,0,-1,1546,1240,0,0
329,-216,0,0,0,0,0,0,0,0,0,-1,1553,1240,0,0
336,-216,0,0,0,0,0,0,0,0,0,-1,1560,1240,0,0
343,-216,0,0,0,0,0,0,0,0,0,-1,1567,1240,0,0
350,-216,0,0,0,0,0,0,0,0,0,-1,1574,1240,0,0
357,-216,0,0,0,0,0,0,0,0,0,-1,1581,1240,0,0
364,-216,0,0,0,0,0,0,0,0,0,-1,1588,1240,0,0
371,-216,0,0,0,0,0,0,0,0,0,-1,1595,1240,0,0
378,-216,0,0,0,0,0,0,0,0,0,-1,1602,1240,0,0
385,-216,0,0,0,0,0,0,0,0,0,-1,1609,1240,0,0
392,-216,0,0,0,0,0,0,0,0,0,-1,1616,1240,0,0
399,-216,0,0,0,0,0,0,0,0,0,-1,1623,1240,0,0
406,-216,0,0,0,0,0,0,0,0,0,-1,1630,1240,0,0
413,-216,0,0,0,0,0,0,0,0,0,-1,1637,1240,0,0
420,-216,0,0,0,0,0,0,0,0,0,-1,1644,1240,0,0
427,-216,0,0,0,0,0,0,0,0,0,-1,1651,1240,0,0
434,-216,0,0,0,0,0,0,0,0,0,-1,1658,1240,0,0
441,-216,0,0,0,0,0,0,0,0,0,-1,1665,1240,0,0
448,-216,0,0,0,0,0,0,0,0,0,-1,1672,1240,0,0
455,-216,0,0,0,0,0,0,0,0,0,-1,1679,1240,0,0
462,-216,0,0,0,0,0,0,0,0,0,-1,1686,1240,0,0
469,-216,0,0,0,0,0,0,0,0,0,-1,1693,1240,0,0
476,-216,0,0,0,0,0,0,0,0,0,-1,1700,1240,0,0
483,-216,0,0,0,0,0,0,0,0,0,-1,1707,1240,0,0
490,-216,0,0,0,0,0,0,0,0,0,-1,1714,1240,0,0
497,-216,0,0,0,0,0,0,0,0,0,-1,1721,1240,0,0
504,-216,0,0,0,0,0,0,0,0,0,-1,1728,1240,0,0
511,-216,0,0,0,0,0,0,0,0,0,-1,1735,1240,0,0
518,-216,0,0,0,0,0,0,0,0,0,-1,1742,1240,0,0
525,-216,0,0,0,0,0,0,0,0,0,-1,1749,1240,0,0
532,-216,0,0,0,0,0,0,0,0,0,-1,1756,1240,0,0
539,-216,0,0,0,0,0,0,0,0,0,-1,1763,1240,0,0
546,-216,0,0,0,0,0,0,0,0,0,-1,1770,1240,0,0
553,-216,0,0,0,0,0,0,0,0,0,-1,1777,1240,0,0
560,-216,0,0,0,0,0,0,0,0,0,-1,1784,1240,0,0
567,-216,0,0,0,0,0,0,0,0,0,-1,1791,1240,0,0
574,-216,0,0,0,0,0,0,0,0,0,-1,1798,1240,0,0
581,-216,0,0,0,0,0,0,0,0,0,-1,1805,1240,0,0
588,-216,0,0,0,0,0,0,0,0,0,-1,1812,1240,0,0
595,-216,0,0,0,0,0,0,0,0,0,-1,1819,1240,0,0
602,-216,0,0,0,0,0,0,0,0,0,-1,1826,1240,0,0
609,-216,0,0,0,0,0,0,0,0,0,-1,1833,1240,0,0
616,-216,0,0,0,0,0,0,0,0,0,-1,1840,1240,0,0
623,-216,23.3802,2.86853,-0.00336022,-0.00101579,0.00244539,0.000523823,-0.00489983,1.0089,0.00345443,0.0397087,1847,1240,23.3802,-2.86858
630,-216,23.3961,2.78516,-0.00211291,0.00134603,-7.3845e-05,0.00134761,-0.00211448,-1.54946,0.00201512,0.0379588,1854,1240,23.3961,-2.78512
637,-216,23.546,2.67249,-0.000631021,0.00347374,-0.00199564,0.00428403,-0.00144131,-1.1851,0.00343866,0.0337597,1861,1240,23.546,-2.6725
644,-216,23.5598,2.73547,0.000600028,0.00463398,-0.00279422,0.00606314,-0.000829133,-1.09801,0.00434492,0.0253291,1868,1240,23.5598,-2.73549
651,-216,23.5645,2.73767,0.00143208,0.00472482,-0.00272496,0.00626215,-0.000105253,-1.05714,0.00421029,0.0230813,1875,1240,23.5645,-2.73772
658,-216,23.6139,2.72168,0.00192472,0.0043173,-0.00234792,0.00575613,0.000485888,-1.02101,0.00368615,0.0348,1882,1240,23.6139,-2.72165
665,-216,23.6519,2.73816,0.00211551,0.0037173,-0.00182388,0.00490838,0.000924427,-0.992282,0.00301178,0.0456981,1889,1240,23.6519,-2.7382
672,-216,24.1959,3.48474,0,0,0,0,0,0,0,-1,1896,1240,24.196,-3.48473
679,-216,23.6763,2.75378,0,0,0,0,0,0,0,-1,1903,1240,23.6763,-2.75378
686,-216,20.1761,5.6488,0,0,0,0,0,0,0,-1,1910,1240,20.1761,-5.64876
693,-216,20.1351,5.59619,0.00176301,0.00122803,0.000164231,0.0018094,0.00118164,0.275315,0.00106085,0.0458201,1917,1240,20.1352,-5.59625
700,-216,20.0762,5.4895,0.00166575,0.000509429,0.000557581,0.00189082,0.000284368,0.383639,0.00117726,0.021435,1924,1240,20.0761,-5.4895
707,-216,20.1,5.24622,0.00189157,-0.000167264,0.000645112,0.002077,-0.000352701,0.279902,0.00151597,0.0170641,1931,1240,20.1,-5.24618
714,-216,20.1254,5.04944,0.00153999,-0.000452494,0.000599205,0.00170631,-0.000618812,0.270748,0.00139049,0.0127593,1938,1240,20.1253,-5.04948
721,-216,20.1096,4.88147,0.00254432,-0.000297752,-6.44646e-05,0.00254578,-0.000299214,-0.0226667,0.00180521,0.0129422,1945,1240,20.1096,-4.88152
728,-216,20.1423,4.68054,0.00665765,0.00206246,-0.00120707,0.00695543,0.00176468,-0.241866,0.00417495,0.0113393,1952,1240,20.1423,-4.68052
735,-216,20.1329,4.49329,0.0125121,0.00619567,-0.00208578,0.0131387,0.00556907,-0.291837,0.00761489,0.00980947,1959,1240,20.133,-4.49325
742,-216,20.1061,4.34192,0.0200636,0.0108904,-0.00343206,0.0212055,0.00974849,-0.3212,0.0122563,0.00994764,1966,1240,20.1061,-4.34198
749,-216,20.1096,4.1626,0.0285692,0.0161327,-0.00454859,0.0300553,0.0146466,-0.315773,0.0173543,0.00834487,1973,1240,20.1096,-4.16258
756,-216,20.0892,3.98169,0.03874,0.0230029,-0.0054262,0.0404296,0.0213134,-0.301858,0.0233535,0.00886641,1980,1240,20.0893,-3.98169
763,-216,20.0638,3.81689,0.0504529,0.0313738,-0.00602529,0.0521964,0.0296303,-0.28167,0.0302274,0.0146297,1987,1240,20.0639,-3.81691
770,-216,20.061,3.72864,0.0635886,0.0411792,-0.00606315,0.0651239,0.039644,-0.248002,0.0378946,0.0374757,1994,1240,20.0611,-3.72864
777,-216,21.4971,1.51624,0.0775431,0.052106,-0.00521361,0.0785702,0.0510789,-0.194515,0.0460389,0.0492182,2001,1240,21.4971,-1.51628
784,-216,21.783,2.01086,0.0915332,0.0636462,-0.0031121,0.0918763,0.0633031,-0.109797,0.0542933,0.0462044,2008,1240,21.7829,-2.01092
791,-216,22.0388,2.48767,0,0,0,0,0,0,0,-1,2015,1240,22.0388,-2.48761
798,-216,0,0,0,0,0,0,0,0,0,-1,2022,1240,0,0
805,-216,0,0,0,0,0,0,0,0,0,-1,2029,1240,0,0
812,-216,0,0,0,0,0,0,0,0,0,-1,2036,1240,0,0
-700,-223,0,0,0,0,0,0,0,0,0,-1,524,1247,0,0
-693,-223,0,0,0,0,0,0,0,0,0,-1,531,1247,0,0
-686,-223,0,0,0,0,0,0,0,0,0,-1,538,1247,0,0
-679,-223,0,0,0,0,0,0,0,0,0,-1,545,1247,0,0
-672,-223,-13.0599,-3.47363,0,0,0,0,0,0,0,-1,552,1247,-13.0599,3.4736
-665,-223,-13.2565,-3.95703,0,0,0,0,0,0,0,-1,559,1247,-13.2566,3.95707
-658,-223,-11.9458,0.156372,0,0,0,0,0,0,0,-1,566,1247,-11.9458,-0.156429
-651,-223,-12.2177,0.530396,0,0,0,0,0,0,0,-1,573,1247,-12.2176,-0.530439
-644,-223,-12.9651,-0.038208,0,0,0,0,0,0,0,-1,580,1247,-12.9651,0.0382024
-637,-223,-12.5885,0.424561,0.0117222,0.00453675,-0.0167619,0.0252721,-0.00901314,-0.679826,0.0205231,0.0451754,587,1247,-12.5885,-0.424517
-630,-223,-12.0402,1.01587,0.0105296,0.00503313,-0.0104637,0.0185999,-0.00303716,-0.656975,0.0135265,0.0357007,594,1247,-12.0402,-1.01589
-623,-223,-11.7859,1.52405,0.00860687,0.00479645,-0.00630921,0.0132923,0.000111065,-0.638765,0.00882472,0.0202909,601,1247,-11.7859,-1.52405
-616,-223,-11.7783,1.77063,0.00651807,0.00409227,-0.00367954,0.00917946,0.00143088,-0.62619,0.00570283,0.0156849,608,1247,-11.7782,-1.77068
-609,-223,-11.771,1.95728,0.00488008,0.00320229,-0.00194123,0.00615592,0.00192645,-0.581444,0.00363608,0.0122912,615,1247,-11.771,-1.95727
-602,-223,-11.7857,2.15491,0.00374105,0.00211861,-0.000650699,0.00396977,0.00188988,-0.338017,0.00229283,0.0150199,622,1247,-11.7857,-2.1549
-595,-223,-11.7407,2.38855,0.00217953,0.00159474,4.47479e-05,0.00218293,0.00159133,0.0759301,0.00130363,0.0201528,629,1247,-11.7407,-2.38858
-588,-223,-11.7523,2.61853,0.00078211,0.000851723,-0.000185689,0.00100584,0.000627993,-0.878045,0.000586677,0.0219479,636,1247,-11.7523,-2.61857
-581,-223,-11.8004,2.86853,-0.000314719,0.000845156,-0.00166414,0.00202752,-0.00149708,-0.953063,0.00204259,0.0196008,643,1247,-11.8004,-2.86859
-574,-223,-11.7473,3.08899,-0.00172815,0.00168526,-0.00239563,0.00291996,-0.00296286,-1.09491,0.00339648,0.0165803,650,1247,-11.7473,-3.08902
-567,-223,-11.5121,3.35632,-0.00331744,0.00252005,-0.0025553,0.00348056,-0.00427795,-1.21125,0.00448726,0.026181,657,1247,-11.5121,-3.35633
-560,-223,-11.2411,3.67944,-0.00464566,0.00374889,-0.00290817,0.00465795,-0.00555471,-1.26783,0.00590385,0.0482314,664,1247,-11.2411,-3.67943
-553,-223,-10.7595,4.09558,0,0,0,0,0,0,0,-1,671,1247,-10.7595,-4.09558
-546,-223,-15.3039,0.819214,0,0,0,0,0,0,0,-1,678,1247,-15.3039,-0.819246
-539,-223,-15.2621,1.10168,-0.0107154,0.00970521,-0.00433122,0.0105859,-0.0115961,-1.3702,0.0128112,0.0447704,685,1247,-15.2621,-1.10166
-532,-223,-15.4072,1.20764,-0.0133854,0.0118306,-0.00462486,0.0126521,-0.0142068,-1.39501,0.0155157,0.0434159,692,1247,-15.4072,-1.20765
-525,-223,-15.5433,0.802002,-0.0160349,0.0139397,-0.0046278,0.0146379,-0.0167331,-1.42105,0.0181255,0.0448616,699,1247,-15.5433,-0.801944
-518,-223,-15.6878,0.81311,-0.0184656,0.0156231,-0.00406402,0.0161009,-0.0189435,-1.45376,0.0202551,0.0407187,706,1247,-15.6878,-0.813059
-511,-223,-15.9276,1.18982,-0.0195721,0.015875,-0.00240798,0.0160378,-0.019735,-1.50328,0.0206902,0.0421405,713,1247,-15.9276,-1.18979
-504,-223,-15.8471,1.17139,-0.0148586,0.0127759,0.00228387,0.0129634,-0.0150461,1.48889,0.0161862,0.043302,720,1247,-15.8471,-1.17142
-497,-223,0,0,0,0,0,0,0,0,0,-1,727,1247,0,0
-490,-223,0,0,0,0,0,0,0,0,0,-1,734,1247,0,0
-483,-223,0,0,0,0,0,0,0,0,0,-1,741,1247,0,0
-476,-223,0,0,0,0,0,0,0,0,0,-1,748,1247,0,0
-469,-223,0,0,0,0,0,0,0,0,0,-1,755,1247,0,0
-462,-223,0,0,0,0,0,0,0,0,0,-1,762,1247,0,0
-455,-223,0,0,0,0,0,0,0,0,0,-1,769,1247,0,0
-448,-223,0,0,0,0,0,0,0,0,0,-1,776,1247,0,0
-441,-223,0,0,0,0,0,0,0,0,0,-1,783,1247,0,0
-434,-223,0,0,0,0,0,0,0,0,0,-1,790,1247,0,0
-427,-223,0,0,0,0,0,0,0,0,0,-1,797,1247,0,0
-420,-223,0,0,0,0,0,0,0,0,0,-1,804,1247,0,0
-413,-223,0,0,0,0,0,0,0,0,0,-1,811,1247,0,0
-406,-223,0,0,0,0,0,0,0,0,0,-1,818,1247,0,0
-399,-223,0,0,0,0,0,0,0,0,0,-1,825,1247,0,0
-392,-223,0,0,0,0,0,0,0,0,0,-1,832,1247,0,0
-385,-223,0,0,0,0,0,0,0,0,0,-1,839,1247,0,0
-378,-223,0,0,0,0,0,0,0,0,0,-1,846,1247,0,0
-371,-223,0,0,0,0,0,0,0,0,0,-1,853,1247,0,0
-364,-223,0,0,0,0,0,0,0,0,0,-1,860,1247,0,0
-357,-223,0,0,0,0,0,0,0,0,0,-1,867,1247,0,0
-350,-223,0,0,0,0,0,0,0,0,0,-1,874,1247,0,0
-343,-223,0,0,0,0,0,0,0,0,0,-1,881,1247,0,0
-336,-223,0,0,0,0,0,0,0,0,0,-1,888,1247,0,0
-329,-223,0,0,0,0,0,0,0,0,0,-1,895,1247,0,0
-322,-223,0,0,0,0,0,0,0,0,0,-1,902,1247,0,0
-315,-223,0,0,0,0,0,0,0,0,0,-1,909,1247,0,0
-308,-223,0,0,0,0,0,0,0,0,0,-1,916,1247,0,0
-301,-223,0,0,0,0,0,0,0,0,0,-1,923,1247,0,0
-294,-223,0,0,0,0,0,0,0,0,0,-1,930,1247,0,0
-287,-223,0,0,0,0,0,0,0,0,0,-1,937,1247,0,0
-280,-223,0,0,0,0,0,0,0,0,0,-1,944,1247,0,0
-273,-223,0,0,0,0,0,0,0,0,0,-1,951,1247,0,0
-266,-223,0,0,0,0,0,0,0,0,0,-1,958,1247,0,0
-259,-223,0,0,0,0,0,0,0,0,0,-1,965,1247,0,0
-252,-223,0,0,0,0,0,0,0,0,0,-1,972,1247,0,0
-245,-223,0,0,0,0,0,0,0,0,0,-1,979,1247,0,0
-238,-223,0,0,0,0,0,0,0,0,0,-1,986,1247,0,0
-231,-223,0,0,0,0,0,0,0,0,0,-1,993,1247,0,0
-224,-223,0,0,0,0,0,0,0,0,0,-1,1000,1247,0,0
-217,-223,0,0,0,0,0,0,0,0,0,-1,1007,1247,0,0
-210,-223,0,0,0,0,0,0,0,0,0,-1,1014,1247,0,0
-203,-223,0,0,0,0,0,0,0,0,0,-1,1021,1247,0,0
-196,-223,0,0,0,0,0,0,0,0,0,-1,1028,1247,0,0
-189,-223,0,0,0,0,0,0,0,0,0,-1,1035,1247,0,0
-182,-223,0,0,0,0,0,0,0,0,0,-1,1042,1247,0,0
-175,-223,0,0,0,0,0,0,0,0,0,-1,1049,1247,0,0
-168,-223,0,0,0,0,0,0,0,0,0,-1,1056,1247,0,0
-161,-223,0,0,0,0,0,0,0,0,0,-1,1063,1247,0,0
-154,-223,0,0,0,0,0,0,0,0,0,-1,1070,1247,0,0
-147,-223,0,0,0,0,0,0,0,0,0,-1,1077,1247,0,0
-140,-223,0,0,0,0,0,0,0,0,0,-1,1084,1247,0,0
-133,-223,0,0,0,0,0,0,0,0,0,-1,1091,1247,0,0
-126,-223,0,0,0,0,0,0,0,0,0,-1,1098,1247,0,0
-119,-223,0,0,0,0,0,0,0,0,0,-1,1105,1247,0,0
-112,-223,0,0,0,0,0,0,0,0,0,-1,1112,1247,0,0
-105,-223,0,0,0,0,0,0,0,0,0,-1,1119,1247,0,0
-98,-223,0,0,0,0,0,0,0,0,0,-1,1126,1247,0,0
-91,-223,0,0,0,0,0,0,0,0,0,-1,1133,1247,0,0
-84,-223,0,0,0,0,0,0,0,0,0,-1,1140,1247,0,0
-77,-223,0,0,0,0,0,0,0,0,0,-1,1147,1247,0,0
-70,-223,0,0,0,0,0,0,0,0,0,-1,1154,1247,0,0
-63,-223,0,0,0,0,0,0,0,0,0,-1,1161,1247,0,0
-56,-223,0,0,0,0,0,0,0,0,0,-1,1168,1247,0,0
-49,-223,0,0,0,0,0,0,0,0,0,-1,1175,1247,0,0
-42,-223,0,0,0,0,0,0,0,0,0,-1,1182,1247,0,0
-35,-223,0,0,0,0,0,0,0,0,0,-1,1189,1247,0,0
-28,-223,0,0,0,0,0,0,0,0,0,-1,1196,1247,0,0
-21,-223,0,0,0,0,0,0,0,0,0,-1,1203,1247,0,0
-14,-223,0,0,0,0,0,0,0,0,0,-1,1210,1247,0,0
-7,-223,0,0,0,0,0,0,0,0,0,-1,1217,1247,0,0
0,-223,0,0,0,0,0,0,0,0,0,-1,1224,1247,0,0
7,-223,0,0,0,0,0,0,0,0,0,-1,1231,1247,0,0
14,-223,0,0,0,0,0,0,0,0,0,-1,1238,1247,0,0
21,-223,0,0,0,0,0,0,0,0,0,-1,1245,1247,0,0
28,-223,0,0,0,0,0,0,0,0,0,-1,1252,1247,0,0
35,-223,0,0,0,0,0,0,0,0,0,-1,1259,1247,0,0
42,-223,0,0,0,0,0,0,0,0,0,-1,1266,1247,0,0
49,-223,0,0,0,0,0,0,0,0,0,-1,1273,1247,0,0
56,-223,0,0,0,0,0,0,0,0,0,-1,1280,1247,0,0
63,-223,0,0,0,0,0,0,0,0,0,-1,1287,1247,0,0
70,-223,0,0,0,0,0,0,0,0,0,-1,1294,1247,0,0
77,-223,0,0,0,0,0,0,0,0,0,-1,1301,1247,0,0
84,-223,0,0,0,0,0,0,0,0,0,-1,1308,1247,0,0
91,-223,0,0,0,0,0,0,0,0,0,-1,1315,1247,0,0
98,-223,0,0,0,0,0,0,0,0,0,-1,1322,1247,0,0
105,-223,0,0,0,0,0,0,0,0,0,-1,1329,1247,0,0
112,-223,0,0,0,0,0,0,0,0,0,-1,1336,1247,0,0
119,-223,0,0,0,0,0,0,0,0,0,-1,1343,1247,0,0
126,-223,0,0,0,0,0,0,0,0,0,-1,1350,1247,0,0
133,-223,0,0,0,0,0,0,0,0,0,-1,1357,1247,0,0
140,-223,0,0,0,0,0,0,0,0,0,-1,1364,1247,0,0
147,-223,0,0,0,0,0,0,0,0,0,-1,1371,1247,0,0
154,-223,0,0,0,0,0,0,0,0,0,-1,1378,1247,0,0
161,-223,0,0,0,0,0,0,0,0,0,-1,1385,1247,0,0
168,-223,0,0,0,0,0,0,0,0,0,-1,1392,1247,0,0
175,-223,0,0,0,0,0,0,0,0,0,-1,1399,1247,0,0
182,-223,0,0,0,0,0,0,0,0,0,-1,1406,1247,0,0
189,-223,0,0,0,0,0,0,0,0,0,-1,1413,1247,0,0
196,-223,0,0,0,0,0,0,0,0,0,-1,1420,1247,0,0
203,-223,0,0,0,0,0,0,0,0,0,-1,1427,1247,0,0
210,-223,0,0,0,0,0,0,0,0,0,-1,1434,1247,0,0
217,-223,0,0,0,0,0,0,0,0,0,-1,1441,1247,0,0
224,-223,0,0,0,0,0,0,0,0,0,-1,1448,1247,0,0
231,-223,0,0,0,0,0,0,0,0,0,-1,1455,1247,0,0
238,-223,0,0,0,0,0,0,0,0,0,-1,1462,1247,0,0
245,-223,0,0,0,0,0,0,0,0,0,-1,1469,1247,0,0
252,-223,0,0,0,0,0,0,0,0,0,-1,1476,1247,0,0
259,-223,0,0,0,0,0,0,0,0,0,-1,1483,1247,0,0
266,-223,0,0,0,0,0,0,0,0,0,-1,1490,1247,0,0
273,-223,0,0,0,0,0,0,0,0,0,-1,1497,1247,0,0
280,-223,0,0,0,0,0,0,0,0,0,-1,1504,1247,0,0
287,-223,0,0,0,0,0,0,0,0,0,-1,1511,1247,0,0
294,-223,0,0,0,0,0,0,0,0,0,-1,1518,1247,0,0
301,-223,0,0,0,0,0,0,0,0,0,-1,1525,1247,0,0
308,-223,0,0,0,0,0,0,0,0,0,-1,1532,1247,0,0
315,-223,0,0,0,0,0,0,0,0,0,-1,1539,1247,0,0
322,-223,0,0,0,0,0,0,0,0,0,-1,1546,1247,0,0
329,-223,0,0,0,0,0,0,0,0,0,-1,1553,1247,0,0
336,-223,0,0,0,0,0,0,0,0,0,-1,1560,1247,0,0
343,-223,0,0,0,0,0,0,0,0,0,-1,1567,1247,0,0
350,-223,0,0,0,0,0,0,0,0,0,-1,1574,1247,0,0
357,-223,0,0,0,0,0,0,0,0,0,-1,1581,1247,0,0
364,-223,0,0,0,0,0,0,0,0,0,-1,1588,1247,0,0
371,-223,0,0,0,0,0,0,0,0,0,-1,1595,1247,0,0
378,-223,0,0,0,0,0,0,0,0,0,-1,1602,1247,0,0
385,-223,0,0,0,0,0,0,0,0,0,-1,1609,1247,0,0
392,-223,0,0,0,0,0,0,0,0,0,-1,1616,1247,0,0
399,-223,0,0,0,0,0,0,0,0,0,-1,1623,1247,0,0
406,-223,0,0,0,0,0,0,0,0,0,-1,1630,1247,0,0
413,-223,0,0,0,0,0,0,0,0,0,-1,1637,1247,0,0
420,-223,0,0,0,0,0,0,0,0,0,-1,1644,1247,0,0
427,-223,0,0,0,0,0,0,0,0,0,-1,1651,1247,0,0
434,-223,0,0,0,0,0,0,0,0,0,-1,1658,1247,0,0
441,-223,0,0,0,0,0,0,0,0,0,-1,1665,1247,0,0
448,-223,0,0,0,0,0,0,0,0,0,-1,1672,1247,0,0
455,-223,0,0,0,0,0,0,0,0,0,-1,1679,1247,0,0
462,-223,0,0,0,0,0,0,0,0,0,-1,1686,1247,0,0
469,-223,0,0,0,0,0,0,0,0,0,-1,1693,1247,0,0
476,-223,0,0,0,0,0,0,0,0,0,-1,1700,1247,0,0
483,-223,0,0,0,0,0,0,0,0,0,-1,1707,1247,0,0
490,-223,0,0,0,0,0,0,0,0,0,-1,1714,1247,0,0
497,-223,0,0,0,0,0,0,0,0,0,-1,1721,1247,0,0
504,-223,0,0,0,0,0,0,0,0,0,-1,1728,1247,0,0
511,-223,0,0,0,0,0,0,0,0,0,-1,1735,1247,0,0
518,-223,0,0,0,0,0,0,0,0,0,-1,1742,1247,0,0
525,-223,0,0,0,0,0,0,0,0,0,-1,1749,1247,0,0
532,-223,0,0,0,0,0,0,0,0,0,-1,1756,1247,0,0
539,-223,0,0,0,0,0,0,0,0,0,-1,1763,1247,0,0
546,-223,0,0,0,0,0,0,0,0,0,-1,1770,1247,0,0
553,-223,0,0,0,0,0,0,0,0,0,-1,1777,1247,0,0
560,-223,0,0,0,0,0,0,0,0,0,-1,1784,1247,0,0
567,-223,0,0,0,0,0,0,0,0,0,-1,1791,1247,0,0
574,-223,0,0,0,0,0,0,0,0,0,-1,1798,1247,0,0
581,-223,0,0,0,0,0,0,0,0,0,-1,1805,1247,0,0
588,-223,0,0,0,0,0,0,0,0,0,-1,1812,1247,0,0
595,-223,0,0,0,0,0,0,0,0,0,-1,1819,1247,0,0
602,-223,0,0,0,0,0,0,0,0,0,-1,1826,1247,0,0
609,-223,0,0,0,0,0,0,0,0,0,-1,1833,1247,0,0
616,-223,0,0,0,0,0,0,0,0,0,-1,1840,1247,0,0
623,-223,23.4203,2.96533,-0.00286694,0.000146003,0.00140507,0.000699548,-0.00342049,1.1955,0.00254575,0.03764,1847,1247,23.4202,-2.96531
630,-223,23.4263,2.80981,-0.00196571,0.00287821,-0.00161363,0.00336652,-0.00245402,-1.27694,0.00337423,0.0346995,1854,1247,23.4263,-2.80984
637,-223,23.4824,2.66699,-0.000810624,0.00500566,-0.0036047,0.00672906,-0.00253402,-1.12482,0.00552784,0.0304976,1861,1247,23.4824,-2.66698
644,-223,23.4978,2.67566,0.000181828,0.00587298,-0.00418683,0.0080897,-0.00203489,-1.08387,0.00618406,0.0227727,1868,1247,23.4978,-2.67562
651,-223,23.5492,2.70618,0.000899506,0.00567325,-0.00389287,0.00785274,-0.00127998,-1.06041,0.00570984,0.0277296,1875,1247,23.5492,-2.70613
658,-223,23.7114,2.84558,0.00135026,0.00506613,-0.00331756,0.00701058,-0.000594185,-1.04065,0.00488384,0.049272,1882,1247,23.7115,-2.84564
665,-223,23.9423,2.89355,0.00156002,0.00433719,-0.00262991,0.00592259,-2.53874e-05,-1.02829,0.00395688,0.0420714,1889,1247,23.9422,-2.89359
672,-223,24.1815,3.19128,0,0,0,0,0,0,0,-1,1896,1247,24.1815,-3.19126
679,-223,24.4447,3.42993,0,0,0,0,0,0,0,-1,1903,1247,24.4447,-3.42996
686,-223,19.8173,5.64771,0,0,0,0,0,0,0,-1,1910,1247,19.8173,-5.64771
693,-223,19.8914,5.56824,0.00161627,0.00144198,-3.29256e-05,0.00162228,0.00143596,-0.180621,0.00102507,0.0286814,1917,1247,19.8914,-5.56824
700,-223,19.9358,5.42102,0.00164673,0.000593525,0.00053223,0.00186885,0.00037141,0.395355,0.0011424,0.0129049,1924,1247,19.9358,-5.42103
707,-223,19.9303,5.22974,0.00210023,-0.000139973,0.000666736,0.00228365,-0.000323392,0.268459,0.00164089,0.013107,1931,1247,19.9303,-5.22973
714,-223,19.9468,5.04822,0.00199844,-0.000347408,0.000496074,0.00209903,-0.000447998,0.200061,0.00157014,0.0108378,1938,1247,19.9467,-5.04821
721,-223,19.9407,4.86548,0.00359529,-2.59798e-05,-0.000412579,0.0036417,-7.23908e-05,-0.112019,0.00245229,0.0134115,1945,1247,19.9407,-4.86546
728,-223,19.9194,4.67554,0.00881782,0.00290311,-0.00177931,0.00931183,0.0024091,-0.270819,0.00558095,0.0146627,1952,1247,19.9195,-4.67557
735,-223,19.9189,4.49512,0.0158289,0.00784906,-0.00266131,0.016635,0.00704293,-0.29412,0.00964173,0.0123859,1959,1247,19.9189,-4.49513
742,-223,19.9039,4.33093,0.024455,0.0133329,-0.00407117,0.0257859,0.012002,-0.31597,0.0148994,0.0104706,1966,1247,19.9039,-4.33096
749,-223,19.9131,4.13733,0.0341478,0.0197367,-0.0052092,0.0358336,0.018051,-0.31298,0.0206887,0.00907488,1973,1247,19.9131,-4.13728
756,-223,19.9152,3.95435,0.0458035,0.0283598,-0.00605962,0.0477019,0.0264614,-0.303602,0.0275957,0.01064,1980,1247,19.9152,-3.9543
763,-223,19.9159,3.77856,0.059251,0.0391018,-0.00645293,0.0611404,0.0372123,-0.284839,0.0355761,0.0144647,1987,1247,19.9159,-3.77855
770,-223,19.8605,3.54492,0.0741727,0.051976,-0.00607772,0.0757278,0.0504208,-0.250509,0.0445157,0.0367115,1994,1247,19.8605,-3.5449
777,-223,21.2806,0.902222,0,0,0,0,0,0,0,-1,2001,1247,21.2806,-0.902247
784,-223,21.8766,1.21289,0,0,0,0,0,0,0,-1,2008,1247,21.8765,-1.21295
791,-223,22.3622,2.18457,0,0,0,0,0,0,0,-1,2015,1247,22.3622,-2.18452
798,-223,0,0,0,0,0,0,0,0,0,-1,2022,1247,0,0
805,-223,0,0,0,0,0,0,0,0,0,-1,2029,1247,0,0
812,-223,0,0,0,0,0,0,0,0,0,-1,2036,1247,0,0
-700,-230,0,0,0,0,0,0,0,0,0,-1,524,1254,0,0
-693,-230,0,0,0,0,0,0,0,0,0,-1,531,1254,0,0
-686,-230,0,0,0,0,0,0,0,0,0,-1,538,1254,0,0
-679,-230,0,0,0,0,0,0,0,0,0,-1,545,1254,0,0
-672,-230,-12.7479,-2.39294,0,0,0,0,0,0,0,-1,552,1254,-12.7479,2.3929
-665,-230,-12.702,-2.78357,0,0,0,0,0,0,0,-1,559,1254,-12.702,2.78361
-658,-230,-11.697,1.12036,0,0,0,0,0,0,0,-1,566,1254,-11.697,-1.12039
-651,-230,-12.4305,0.688599,0,0,0,0,0,0,0,-1,573,1254,-12.4305,-0.688577
-644,-230,-13.1641,0.256714,0,0,0,0,0,0,0,-1,580,1254,-13.1641,-0.256766
-637,-230,-12.8383,0.169312,0.00552207,0.00621616,-0.0228961,0.0287678,-0.0170296,-0.792976,0.0267291,0.0489926,587,1254,-12.8383,-0.169296
-630,-230,-12.1134,0.815674,0.00605467,0.00662543,-0.0148149,0.0211577,-0.00847758,-0.795028,0.0176243,0.0410655,594,1254,-12.1134,-0.815683
-623,-230,-11.5762,1.53381,0.00550947,0.00626742,-0.00924151,0.0151377,-0.00336083,-0.80589,0.0113788,0.0266182,601,1254,-11.5762,-1.53379
-616,-230,-11.5617,1.75903,0.00458365,0.00541483,-0.00549336,0.0105083,-0.000509817,-0.823153,0.0071815,0.0158348,608,1254,-11.5617,-1.75901
-609,-230,-11.5326,1.95264,0.00384685,0.00431439,-0.00292145,0.0070114,0.00114983,-0.825322,0.00434204,0.0119518,615,1254,-11.5326,-1.95265
-602,-230,-11.5413,2.18237,0.00386837,0.00309844,-0.000856786,0.0044227,0.00254411,-0.574257,0.00256307,0.0117106,622,1254,-11.5412,-2.18238
-595,-230,-11.5433,2.40759,0.00314693,0.00236501,0.000462635,0.00336168,0.00215026,0.434584,0.00196593,0.0185294,629,1254,-11.5433,-2.4076
-588,-230,-11.5292,2.57678,0.00215228,0.00141356,0.000494499,0.00240013,0.00116571,0.464631,0.00138591,0.024268,636,1254,-11.5292,-2.57681
-581,-230,-11.5473,2.83862,0.0013384,0.00126304,-0.00096446,0.00226591,0.000335522,-0.765875,0.00141212,0.0219128,643,1254,-11.5473,-2.83868
-574,-230,-11.5524,3.08325,-4.90554e-05,0.00214543,-0.00178915,0.003147,-0.00105062,-1.06046,0.00252223,0.016645,650,1254,-11.5523,-3.0833
-567,-230,-11.3835,3.33423,-0.00182359,0.00309014,-0.00210848,0.00387085,-0.0026043,-1.21618,0.00376219,0.0225864,657,1254,-11.3835,-3.33417
-560,-230,-11.1523,3.68604,-0.00342504,0.00442855,-0.00259976,0.00521115,-0.00420765,-1.27839,0.00544822,0.0386519,664,1254,-11.1523,-3.68598
-553,-230,-10.6396,4.01868,0,0,0,0,0,0,0,-1,671,1254,-10.6397,-4.01871
-546,-230,-10.7707,1.62012,0,0,0,0,0,0,0,-1,678,1254,-10.7707,-1.62008
-539,-230,-15.0379,1.24036,0,0,0,0,0,0,0,-1,685,1254,-15.0379,-1.24032
-532,-230,-15.3218,1.35156,-0.0145819,0.0137936,-0.00455667,0.0145074,-0.0152957,-1.41541,0.0172088,0.0476799,692,1254,-15.3219,-1.35153
-525,-230,-15.1846,0.577271,-0.0181698,0.0163445,-0.00464846,0.0169596,-0.0187849,-1.43924,0.020646,0.0471668,699,1254,-15.1846,-0.577273
-518,-230,-15.5411,0.647095,-0.0218161,0.01865,-0.00426627,0.0190949,-0.022261,-1.46689,0.0239002,0.0429204,706,1254,-15.5411,-0.647065
-511,-230,-15.8292,0.967041,-0.0247655,0.0199585,-0.00303514,0.0201635,-0.0249705,-1.50334,0.0261074,0.039135,713,1254,-15.8292,-0.967047
-504,-230,-15.7206,0.867676,-0.0235862,0.0186478,0.000403371,0.0186517,-0.02359,1.56125,0.0244437,0.0373169,720,1254,-15.7206,-0.86771
-497,-230,0,0,0,0,0,0,0,0,0,-1,727,1254,0,0
-490,-230,0,0,0,0,0,0,0,0,0,-1,734,1254,0,0
-483,-230,0,0,0,0,0,0,0,0,0,-1,741,1254,0,0
-476,-230,0,0,0,0,0,0,0,0,0,-1,748,1254,0,0
-469,-230,0,0,0,0,0,0,0,0,0,-1,755,1254,0,0
-462,-230,0,0,0,0,0,0,0,0,0,-1,762,1254,0,0
-455,-230,0,0,0,0,0,0,0,0,0,-1,769,1254,0,0
-448,-230,0,0,0,0,0,0,0,0,0,-1,776,1254,0,0
-441,-230,0,0,0,0,0,0,0,0,0,-1,783,1254,0,0
-434,-230,0,0,0,0,0,0,0,0,0,-1,790,1254,0,0
-427,-230,0,0,0,0,0,0,0,0,0,-1,797,1254,0,0
-420,-230,0,0,0,0,0,0,0,0,0,-1,804,1254,0,0
-413,-230,0,0,0,0,0,0,0,0,0,-1,811,1254,0,0
-406,-230,0,0,0,0,0,0,0,0,0,-1,818,1254,0,0
-399,-230,0,0,0,0,0,0,0,0,0,-1,825,1254,0,0
-392,-230,0,0,0,0,0,0,0,0,0,-1,832,1254,0,0
-385,-230,0,0,0,0,0,0,0,0,0,-1,839,1254,0,0
-378,-230,0,0,0,0,0,0,0,0,0,-1,846,1254,0,0
-371,-230,0,0,0,0,0,0,0,0,0,-1,853,1254,0,0
-364,-230,0,0,0,0,0,0,0,0,0,-1,860,1254,0,0
-357,-230,0,0,0,0,0,0,0,0,0,-1,867,1254,0,0
-350,-230,0,0,0,0,0,0,0,0,0,-1,874,1254,0,0
-343,-230,0,0,0,0,0,0,0,0,0,-1,881,1254,0,0
-336,-230,0,0,0,0,0,0,0,0,0,-1,888,1254,0,0
-329,-230,0,0,0,0,0,0,0,0,0,-1,895,1254,0,0
-322,-230,0,0,0,0,0,0,0,0,0,-1,902,1254,0,0
-315,-230,0,0,0,0,0,0,0,0,0,-1,909,1254,0,0
-308,-230,0,0,0,0,0,0,0,0,0,-1,916,1254,0,0
-301,-230,0,0,0,0,0,0,0,0,0,-1,923,1254,0,0
-294,-230,0,0,0,0,0,0,0,0,0,-1,930,1254,0,0
-287,-230,0,0,0,0,0,0,0,0,0,-1,937,1254,0,0
-280,-230,0,0,0,0,0,0,0,0,0,-1,944,1254,0,0
-273,-230,0,0,0,0,0,0,0,0,0,-1,951,1254,0,0
-266,-230,0,0,0,0,0,0,0,0,0,-1,958,1254,0,0
-259,-230,0,0,0,0,0,0,0,0,0,-1,965,1254,0,0
-252,-230,0,0,0,0,0,0,0,0,0,-1,972,1254,0,0
-245,-230,0,0,0,0,0,0,0,0,0,-1,979,1254,0,0
-238,-230,0,0,0,0,0,0,0,0,0,-1,986,1254,0,0
-231,-230,0,0,0,0,0,0,0,0,0,-1,993,1254,0,0
-224,-230,0,0,0,0,0,0,0,0,0,-1,1000,1254,0,0
-217,-230,0,0,0,0,0,0,0,0,0,-1,1007,1254,0,0
-210,-230,0,0,0,0,0,0,0,0,0,-1,1014,1254,0,0
-203,-230,0,0,0,0,0,0,0,0,0,-1,1021,1254,0,0
-196,-230,0,0,0,0,0,0,0,0,0,-1,1028,1254,0,0
-189,-230,0,0,0,0,0,0,0,0,0,-1,1035,1254,0,0
-182,-230,0,0,0,0,0,0,0,0,0,-1,1042,1254,0,0
-175,-230,0,0,0,0,0,0,0,0,0,-1,1049,1254,0,0
-168,-230,0,0,0,0,0,0,0,0,0,-1,1056,1254,0,0
-161,-230,0,0,0,0,0,0,0,0,0,-1,1063,1254,0,0
-154,-230,0,0,0,0,0,0,0,0,0,-1,1070,1254,0,0
-147,-230,0,0,0,0,0,0,0,0,0,-1,1077,1254,0,0
-140,-230,0,0,0,0,0,0,0,0,0,-1,1084,1254,0,0
-133,-230,0,0,0,0,0,0,0,0,0,-1,1091,1254,0,0
-126,-230,0,0,0,0,0,0,0,0,0,-1,1098,1254,0,0
-119,-230,0,0,0,0,0,0,0,0,0,-1,1105,1254,0,0
-112,-230,0,0,0,0,0,0,0,0,0,-1,1112,1254,0,0
-105,-230,0,0,0,0,0,0,0,0,0,-1,1119,1254,0,0
-98,-230,0,0,0,0,0,0,0,0,0,-1,1126,1254,0,0
-91,-230,0,0,0,0,0,0,0,0,0,-1,1133,1254,0,0
-84,-230,0,0,0,0,0,0,0,0,0,-1,1140,1254,0,0
-77,-230,0,0,0,0,0,0,0,0,0,-1,1147,1254,0,0
-70,-230,0,0,0,0,0,0,0,0,0,-1,1154,1254,0,0
-63,-230,0,0,0,0,0,0,0,0,0,-1,1161,1254,0,0
-56,-230,0,0,0,0,0,0,0,0,0,-1,1168,1254,0,0
-49,-230,0,0,0,0,0,0,0,0,0,-1,1175,1254,0,0
-42,-230,0,0,0,0,0,0,0,0,0,-1,1182,1254,0,0
-35,-230,0,0,0,0,0,0,0,0,0,-1,1189,1254,0,0
-28,-230,0,0,0,0,0,0,0,0,0,-1,1196,1254,0,0
-21,-230,0,0,0,0,0,0,0,0,0,-1,1203,1254,0,0
-14,-230,0,0,0,0,0,0,0,0,0,-1,1210,1254,0,0
-7,-230,0,0,0,0,0,0,0,0,0,-1,1217,1254,0,0
0,-230,0,0,0,0,0,0,0,0,0,-1,1224,1254,0,0
7,-230,0,0,0,0,0,0,0,0,0,-1,1231,1254,0,0
14,-230,0,0,0,0,0,0,0,0,0,-1,1238,1254,0,0
21,-230,0,0,0,0,0,0,0,0,0,-1,1245,1254,0,0
28,-230,0,0,0,0,0,0,0,0,0,-1,1252,1254,0,0
35,-230,0,0,0,0,0,0,0,0,0,-1,1259,1254,0,0
42,-230,0,0,0,0,0,0,0,0,0,-1,1266,1254,0,0
49,-230,0,0,0,0,0,0,0,0,0,-1,1273,1254,0,0
56,-230,0,0,0,0,0,0,0,0,0,-1,1280,1254,0,0
63,-230,0,0,0,0,0,0,0,0,0,-1,1287,1254,0,0
70,-230,0,0,0,0,0,0,0,0,0,-1,1294,1254,0,0
77,-230,0,0,0,0,0,0,0,0,0,-1,1301,1254,0,0
84,-230,0,0,0,0,0,0,0,0,0,-1,1308,1254,0,0
91,-230,0,0,0,0,0,0,0,0,0,-1,1315,1254,0,0
98,-230,0,0,0,0,0,0,0,0,0,-1,1322,1254,0,0
105,-230,0,0,0,0,0,0,0,0,0,-1,1329,1254,0,0
112,-230,0,0,0,0,0,0,0,0,0,-1,1336,1254,0,0
119,-230,0,0,0,0,0,0,0,0,0,-1,1343,1254,0,0
126,-230,0,0,0,0,0,0,0,0,0,-1,1350,1254,0,0
133,-230,0,0,0,0,0,0,0,0,0,-1,1357,1254,0,0
140,-230,0,0,0,0,0,0,0,0,0,-1,1364,1254,0,0
147,-230,0,0,0,0,0,0,0,0,0,-1,1371,1254,0,0
154,-230,0,0,0,0,0,0,0,0,0,-1,1378,1254,0,0
161,-230,0,0,0,0,0,0,0,0,0,-1,1385,1254,0,0
168,-230,0,0,0,0,0,0,0,0,0,-1,1392,1254,0,0
175,-230,0,0,0,0,0,0,0,0,0,-1,1399,1254,0,0
182,-230,0,0,0,0,0,0,0,0,0,-1,1406,1254,0,0
189,-230,0,0,0,0,0,0,0,0,0,-1,1413,1254,0,0
196,-230,0,0,0,0,0,0,0,0,0,-1,1420,1254,0,0
203,-230,0,0,0,0,0,0,0,0,0,-1,1427,1254,0,0
210,-230,0,0,0,0,0,0,0,0,0,-1,1434,1254,0,0
217,-230,0,0,0,0,0,0,0,0,0,-1,1441,1254,0,0
224,-230,0,0,0,0,0,0,0,0,0,-1,1448,1254,0,0
231,-230,0,0,0,0,0,0,0,0,0,-1,1455,1254,0,0
238,-230,0,0,0,0,0,0,0,0,0,-1,1462,1254,0,0
245,-230,0,0,0,0,0,0,0,0,0,-1,1469,1254,0,0
252,-230,0,0,0,0,0,0,0,0,0,-1,1476,1254,0,0
259,-230,0,0,0,0,0,0,0,0,0,-1,1483,1254,0,0
266,-230,0,0,0,0,0,0,0,0,0,-1,1490,1254,0,0
273,-230,0,0,0,0,0,0,0,0,0,-1,1497,1254,0,0
280,-230,0,0,0,0,0,0,0,0,0,-1,1504,1254,0,0
287,-230,0,0,0,0,0,0,0,0,0,-1,1511,1254,0,0
294,-230,0,0,0,0,0,0,0,0,0,-1,1518,1254,0,0
301,-230,0,0,0,0,0,0,0,0,0,-1,1525,1254,0,0
308,-230,0,0,0,0,0,0,0,0,0,-1,1532,1254,0,0
315,-230,0,0,0,0,0,0,0,0,0,-1,1539,1254,0,0
322,-230,0,0,0,0,0,0,0,0,0,-1,1546,1254,0,0
329,-230,0,0,0,0,0,0,0,0,0,-1,1553,1254,0,0
336,-230,0,0,0,0,0,0,0,0,0,-1,1560,1254,0,0
343,-230,0,0,0,0,0,0,0,0,0,-1,1567,1254,0,0
350,-230,0,0,0,0,0,0,0,0,0,-1,1574,1254,0,0
357,-230,0,0,0,0,0,0,0,0,0,-1,1581,1254,0,0
364,-230,0,0,0,0,0,0,0,0,0,-1,1588,1254,0,0
371,-230,0,0,0,0,0,0,0,0,0,-1,1595,1254,0,0
378,-230,0,0,0,0,0,0,0,0,0,-1,1602,1254,0,0
385,-230,0,0,0,0,0,0,0,0,0,-1,1609,1254,0,0
392,-230,0,0,0,0,0,0,0,0,0,-1,1616,1254,0,0
399,-230,0,0,0,0,0,0,0,0,0,-1,1623,1254,0,0
406,-230,0,0,0,0,0,0,0,0,0,-1,1630,1254,0,0
413,-230,0,0,0,0,0,0,0,0,0,-1,1637,1254,0,0
420,-230,0,0,0,0,0,0,0,0,0,-1,1644,1254,0,0
427,-230,0,0,0,0,0,0,0,0,0,-1,1651,1254,0,0
434,-230,0,0,0,0,0,0,0,0,0,-1,1658,1254,0,0
441,-230,0,0,0,0,0,0,0,0,0,-1,1665,1254,0,0
448,-230,0,0,0,0,0,0,0,0,0,-1,1672,1254,0,0
455,-230,0,0,0,0,0,0,0,0,0,-1,1679,1254,0,0
462,-230,0,0,0,0,0,0,0,0,0,-1,1686,1254,0,0
469,-230,0,0,0,0,0,0,0,0,0,-1,1693,1254,0,0
476,-230,0,0,0,0,0,0,0,0,0,-1,1700,1254,0,0
483,-230,0,0,0,0,0,0,0,0,0,-1,1707,1254,0,0
490,-230,0,0,0,0,0,0,0,0,0,-1,1714,1254,0,0
497,-230,0,0,0,0,0,0,0,0,0,-1,1721,1254,0,0
504,-230,0,0,0,0,0,0,0,0,0,-1,1728,1254,0,0
511,-230,0,0,0,0,0,0,0,0,0,-1,1735,1254,0,0
518,-230,0,0,0,0,0,0,0,0,0,-1,1742,1254,0,0
525,-230,0,0,0,0,0,0,0,0,0,-1,1749,1254,0,0
532,-230,0,0,0,0,0,0,0,0,0,-1,1756,1254,0,0
539,-230,0,0,0,0,0,0,0,0,0,-1,1763,1254,0,0
546,-230,0,0,0,0,0,0,0,0,0,-1,1770,1254,0,0
553,-230,0,0,0,0,0,0,0,0,0,-1,1777,1254,0,0
560,-230,0,0,0,0,0,0,0,0,0,-1,1784,1254,0,0
567,-230,0,0,0,0,0,0,0,0,0,-1,1791,1254,0,0
574,-230,0,0,0,0,0,0,0,0,0,-1,1798,1254,0,0
581,-230,0,0,0,0,0,0,0,0,0,-1,1805,1254,0,0
588,-230,0,0,0,0,0,0,0,0,0,-1,1812,1254,0,0
595,-230,0,0,0,0,0,0,0,0,0,-1,1819,1254,0,0
602,-230,0,0,0,0,0,0,0,0,0,-1,1826,1254,0,0
609,-230,0,0,0,0,0,0,0,0,0,-1,1833,1254,0,0
616,-230,23.6887,2.85608,-0.00245991,-0.00144116,0.00368337,0.00176789,-0.00566896,0.854108,0.00448626,0.0375698,1840,1254,23.6888,-2.8561
623,-230,23.6578,2.98645,-0.00237793,0.00182174,-0.000107521,0.00182449,-0.00238068,-1.54522,0.00243492,0.0347421,1847,1254,23.6578,-2.98646
630,-230,23.6042,2.87134,-0.00194767,0.00467316,-0.00341334,0.00611771,-0.00339222,-1.17044,0.00556522,0.0301303,1854,1254,23.6043,-2.87132
637,-230,23.5052,2.71814,-0.00133988,0.00644691,-0.00517627,0.00903057,-0.00392355,-1.10784,0.00767036,0.0274692,1861,1254,23.5053,-2.7182
644,-230,23.4502,2.6554,-0.000709734,0.00684795,-0.00541565,0.00967281,-0.0035346,-1.09001,0.00789504,0.0220434,1868,1254,23.4502,-2.65538
651,-230,23.4719,2.64233,-0.000156,0.00634263,-0.0048765,0.00895321,-0.00276657,-1.07928,0.00707369,0.0436231,1875,1254,23.4719,-2.64236
658,-230,23.7202,2.74146,0.000254341,0.00554897,-0.00412006,0.00779891,-0.0019956,-1.07096,0.00597658,0.0495504,1882,1254,23.7202,-2.74151
665,-230,24.1439,2.33496,0.000507015,0.00471054,-0.003302,0.00652293,-0.00130538,-1.06882,0.00484275,0.0424817,1889,1254,24.1439,-2.33502
672,-230,24.167,2.89783,0,0,0,0,0,0,0,-1,1896,1254,24.167,-2.8978
679,-230,19.139,6.00427,0,0,0,0,0,0,0,-1,1903,1254,19.139,-6.0043
686,-230,19.619,5.64832,0,0,0,0,0,0,0,-1,1910,1254,19.6191,-5.64827
693,-230,19.6897,5.55566,0.00114416,0.00142216,-0.000158823,0.00149422,0.00107211,-1.14486,0.000889479,0.0227233,1917,1254,19.6897,-5.55567
700,-230,19.7542,5.43335,0.00140985,0.000477513,0.000533315,0.00165202,0.000235348,0.426238,0.00103188,0.0102862,1924,1254,19.7542,-5.43333
707,-230,19.7463,5.23279,0.00227076,-0.000226322,0.000641512,0.00242593,-0.000381487,0.237317,0.0017583,0.00931416,1931,1254,19.7464,-5.23283
714,-230,19.7437,5.03271,0.00270192,-0.000236721,0.000306294,0.0027335,-0.000268306,0.102758,0.00191804,0.0121933,1938,1254,19.7436,-5.03277
721,-230,19.7465,4.84363,0.00515816,0.00036936,-0.000845285,0.00530298,0.000224536,-0.169684,0.0034629,0.0123661,1945,1254,19.7465,-4.84369
728,-230,19.7333,4.66711,0.0115996,0.00397409,-0.00235375,0.0122676,0.00330608,-0.276533,0.00732931,0.0134619,1952,1254,19.7333,-4.66716
735,-230,19.7238,4.49866,0.0197957,0.00975135,-0.00310092,0.0206759,0.00887116,-0.276573,0.0119772,0.0134974,1959,1254,19.7237,-4.49866
742,-230,19.7147,4.31116,0.0295128,0.0160936,-0.00441321,0.0308341,0.0147724,-0.290901,0.0178073,0.0102335,1966,1254,19.7147,-4.31117
749,-230,19.7181,4.11108,0.0405392,0.023816,-0.00539342,0.0421278,0.0222275,-0.286434,0.0243348,0.00961048,1973,1254,19.7181,-4.11104
756,-230,19.7312,3.9325,0.0538557,0.03437,-0.00596594,0.0555372,0.0326885,-0.274722,0.0322317,0.0124858,1980,1254,19.7312,-3.93251
763,-230,19.7385,3.72534,0.069182,0.047705,-0.00585803,0.0706759,0.0462111,-0.249698,0.0414436,0.025708,1987,1254,19.7385,-3.7254
770,-230,19.7233,3.45337,0.0860681,0.0639523,-0.00470784,0.0870285,0.0629919,-0.201251,0.0518967,0.0411602,1994,1254,19.7232,-3.45341
777,-230,21.9343,-1.08215,0.103704,0.0829772,-0.00208428,0.103912,0.0827697,-0.0992344,0.0634131,0.0463808,2001,1254,21.9344,1.08221
784,-230,22.4673,0.298828,0.120965,0.104361,0.00249584,0.121332,0.103994,0.146018,0.0757728,0.0455373,2008,1254,22.4672,-0.298827
791,-230,22.9934,1.6748,0,0,0,0,0,0,0,-1,2015,1254,22.9934,-1.67477
798,-230,0,0,0,0,0,0,0,0,0,-1,2022,1254,0,0
805,-230,0,0,0,0,0,0,0,0,0,-1,2029,1254,0,0
812,-230,0,0,0,0,0,0,0,0,0,-1,2036,1254,0,0
-700,-237,0,0,0,0,0,0,0,0,0,-1,524,1261,0,0
-693,-237,0,0,0,0,0,0,0,0,0,-1,531,1261,0,0
-686,-237,0,0,0,0,0,0,0,0,0,-1,538,1261,0,0
-679,-237,0,0,0,0,0,0,0,0,0,-1,545,1261,0,0
-672,-237,-12.7062,-1.4635,0,0,0,0,0,0,0,-1,552,1261,-12.7062,1.46353
-665,-237,-12.3812,-1.56299,0,0,0,0,0,0,0,-1,559,1261,-12.3812,1.56295
-658,-237,-10.8753,0.164795,0,0,0,0,0,0,0,-1,566,1261,-10.8753,-0.164836
-651,-237,-12.7444,0.852173,0,0,0,0,0,0,0,-1,573,1261,-12.7445,-0.852169
-644,-237,-13.832,-2.02966,-0.0023628,0.00936544,-0.0403509,0.0442761,-0.0372735,-0.857557,0.0471405,0.0463109,580,1261,-13.832,2.02961
-637,-237,-13.0336,-0.736328,0.00094778,0.0108988,-0.0272208,0.0335951,-0.0217485,-0.875792,0.0321957,0.0440123,587,1261,-13.0337,0.736362
-630,-237,-12.0195,0.674316,0.00238541,0.0110881,-0.0176404,0.0249059,-0.0114324,-0.906318,0.0214553,0.0424865,594,1261,-12.0196,-0.67434
-623,-237,-11.3135,1.52673,0.0026833,0.0103252,-0.0109154,0.0180691,-0.00506064,-0.953758,0.0140403,0.0283825,601,1261,-11.3135,-1.52672
-616,-237,-11.3152,1.75696,0.00252302,0.00894209,-0.00633795,0.0128368,-0.00137172,-1.01977,0.00904985,0.0132746,608,1261,-11.3152,-1.75702
-609,-237,-11.3119,1.96033,0.0024674,0.00723588,-0.00321307,0.00885269,0.000850586,-1.10459,0.00563969,0.0154588,615,1261,-11.3119,-1.96037
-602,-237,-11.3115,2.18579,0.00322462,0.00543618,-0.00066761,0.00562209,0.00303871,-1.29921,0.00324946,0.0121897,622,1261,-11.3115,-2.18581
-595,-237,-11.3257,2.40234,0.00308491,0.00404267,0.00104877,0.00471672,0.00241086,0.999567,0.00272342,0.0155191,629,1261,-11.3257,-2.40231
-588,-237,-11.3242,2.60632,0.00247972,0.00254023,0.00118595,0.00369631,0.00132364,0.798149,0.00216252,0.0249486,636,1261,-11.3242,-2.60633
-581,-237,-11.306,2.84583,0.00200349,0.00192546,-0.000318715,0.00228557,0.00164338,-0.72449,0.00136112,0.0233399,643,1261,-11.306,-2.84586
-574,-237,-11.3344,3.0575,0.000772567,0.00261914,-0.00123171,0.00323519,0.000156517,-1.10702,0.00210656,0.0157855,650,1261,-11.3344,-3.05747
-567,-237,-11.288,3.3175,-0.0010574,0.00354379,-0.00174415,0.0041302,-0.00164381,-1.24645,0.00343511,0.0157159,657,1261,-11.288,-3.31749
-560,-237,-11.0551,3.65125,-0.00284834,0.00494423,-0.00235762,0.005602,-0.00350611,-1.29872,0.00530477,0.0306676,664,1261,-11.0551,-3.6512
-553,-237,-10.8055,3.92505,0,0,0,0,0,0,0,-1,671,1261,-10.8055,-3.92506
-546,-237,-11.192,1.14014,0,0,0,0,0,0,0,-1,678,1261,-11.192,-1.14011
-539,-237,-13.6089,-0.213135,0,0,0,0,0,0,0,-1,685,1261,-13.6089,0.213103
-532,-237,-14.1795,0.209106,-0.0162663,0.0154966,-0.00406454,0.0160084,-0.0167781,-1.44552,0.0189311,0.0461514,692,1261,-14.1795,-0.209151
-525,-237,-14.9099,0.329834,-0.0206503,0.0184191,-0.00403835,0.0188322,-0.0210633,-1.46887,0.0230457,0.0458028,699,1261,-14.9099,-0.329785
-518,-237,-15.33,0.56543,-0.025312,0.0212378,-0.00361664,0.0215172,-0.0255913,-1.49372,0.027232,0.0429126,706,1261,-15.33,-0.565473
-511,-237,-15.7152,0.868652,-0.0298226,0.0234409,-0.00256767,0.0235644,-0.0299461,-1.52274,0.0309674,0.0400456,713,1261,-15.7152,-0.86867
-504,-237,-15.7039,0.838135,-0.0319681,0.0238812,-9.20926e-05,0.0238813,-0.0319683,-1.56915,0.0323573,0.0393506,720,1261,-15.7039,-0.838179
-497,-237,-15.6251,0.849487,-0.0273273,0.0198989,0.00438465,0.0203025,-0.027731,1.479,0.0278425,0.0422792,727,1261,-15.625,-0.849475
-490,-237,0,0,0,0,0,0,0,0,0,-1,734,1261,0,0
-483,-237,0,0,0,0,0,0,0,0,0,-1,741,1261,0,0
-476,-237,0,0,0,0,0,0,0,0,0,-1,748,1261,0,0
-469,-237,0,0,0,0,0,0,0,0,0,-1,755,1261,0,0
-462,-237,0,0,0,0,0,0,0,0,0,-1,762,1261,0,0
-455,-237,0,0,0,0,0,0,0,0,0,-1,769,1261,0,0
-448,-237,0,0,0,0,0,0,0,0,0,-1,776,1261,0,0
-441,-237,0,0,0,0,0,0,0,0,0,-1,783,1261,0,0
-434,-237,0,0,0,0,0,0,0,0,0,-1,790,1261,0,0
-427,-237,0,0,0,0,0,0,0,0,0,-1,797,1261,0,0
-420,-237,0,0,0,0,0,0,0,0,0,-1,804,1261,0,0
-413,-237,0,0,0,0,0,0,0,0,0,-1,811,1261,0,0
-406,-237,0,0,0,0,0,0,0,0,0,-1,818,1261,0,0
-399,-237,0,0,0,0,0,0,0,0,0,-1,825,1261,0,0
-392,-237,0,0,0,0,0,0,0,0,0,-1,832,1261,0,0
-385,-237,0,0,0,0,0,0,0,0,0,-1,839,1261,0,0
-378,-237,0,0,0,0,0,0,0,0,0,-1,846,1261,0,0
-371,-237,0,0,0,0,0,0,0,0,0,-1,853,1261,0,0
-364,-237,0,0,0,0,0,0,0,0,0,-1,860,1261,0,0
-357,-237,0,0,0,0,0,0,0,0,0,-1,867,1261,0,0
-350,-237,0,0,0,0,0,0,0,0,0,-1,874,1261,0,0
-343,-237,0,0,0,0,0,0,0,0,0,-1,881,1261,0,0
-336,-237,0,0,0,0,0,0,0,0,0,-1,888,1261,0,0
-329,-237,0,0,0,0,0,0,0,0,0,-1,895,1261,0,0
-322,-237,0,0,0,0,0,0,0,0,0,-1,902,1261,0,0
-315,-237,0,0,0,0,0,0,0,0,0,-1,909,1261,0,0
-308,-237,0,0,0,0,0,0,0,0,0,-1,916,1261,0,0
-301,-237,0,0,0,0,0,0,0,0,0,-1,923,1261,0,0
-294,-237,0,0,0,0,0,0,0,0,0,-1,930,1261,0,0
-287,-237,0,0,0,0,0,0,0,0,0,-1,937,1261,0,0
-280,-237,0,0,0,0,0,0,0,0,0,-1,944,1261,0,0
-273,-237,0,0,0,0,0,0,0,0,0,-1,951,1261,0,0
-266,-237,0,0,0,0,0,0,0,0,0,-1,958,1261,0,0
-259,-237,0,0,0,0,0,0,0,0,0,-1,965,1261,0,0
-252,-237,0,0,0,0,0,0,0,0,0,-1,972,1261,0,0
-245,-237,0,0,0,0,0,0,0,0,0,-1,979,1261,0,0
-238,-237,0,0,0,0,0,0,0,0,0,-1,986,1261,0,0
-231,-237,0,0,0,0,0,0,0,0,0,-1,993,1261,0,0
-224,-237,0,0,0,0,0,0,0,0,0,-1,1000,1261,0,0
-217,-237,0,0,0,0,0,0,0,0,0,-1,1007,1261,0,0
-210,-237,0,0,0,0,0,0,0,0,0,-1,1014,1261,0,0
-203,-237,0,0,0,0,0,0,0,0,0,-1,1021,1261,0,0
-196,-237,0,0,0,0,0,0,0,0,0,-1,1028,1261,0,0
-189,-237,0,0,0,0,0,0,0,0,0,-1,1035,1261,0,0
-182,-237,0,0,0,0,0,0,0,0,0,-1,1042,1261,0,0
-175,-237,0,0,0,0,0,0,0,0,0,-1,1049,1261,0,0
-168,-237,0,0,0,0,0,0,0,0,0,-1,1056,1261,0,0
-161,-237,0,0,0,0,0,0,0,0,0,-1,1063,1261,0,0
-154,-237,0,0,0,0,0,0,0,0,0,-1,1070,1261,0,0
-147,-237,0,0,0,0,0,0,0,0,0,-1,1077,1261,0,0
-140,-237,0,0,0,0,0,0,0,0,0,-1,1084,1261,0,0
-133,-237,0,0,0,0,0,0,0,0,0,-1,1091,1261,0,0
-126,-237,0,0,0,0,0,0,0,0,0,-1,1098,1261,0,0
-119,-237,0,0,0,0,0,0,0,0,0,-1,1105,1261,0,0
-112,-237,0,0,0,0,0,0,0,0,0,-1,1112,1261,0,0
-105,-237,0,0,0,0,0,0,0,0,0,-1,1119,1261,0,0
-98,-237,0,0,0,0,0,0,0,0,0,-1,1126,1261,0,0
-91,-237,0,0,0,0,0,0,0,0,0,-1,1133,1261,0,0
-84,-237,0,0,0,0,0,0,0,0,0,-1,1140,1261,0,0
-77,-237,0,0,0,0,0,0,0,0,0,-1,1147,1261,0,0
-70,-237,0,0,0,0,0,0,0,0,0,-1,1154,1261,0,0
-63,-237,0,0,0,0,0,0,0,0,0,-1,1161,1261,0,0
-56,-237,0,0,0,0,0,0,0,0,0,-1,1168,1261,0,0
-49,-237,0,0,0,0,0,0,0,0,0,-1,1175,1261,0,0
-42,-237,0,0,0,0,0,0,0,0,0,-1,1182,1261,0,0
-35,-237,0,0,0,0,0,0,0,0,0,-1,1189,1261,0,0
-28,-237,0,0,0,0,0,0,0,0,0,-1,1196,1261,0,0
-21,-237,0,0,0,0,0,0,0,0,0,-1,1203,1261,0,0
-14,-237,0,0,0,0,0,0,0,0,0,-1,1210,1261,0,0
-7,-237,0,0,0,0,0,0,0,0,0,-1,1217,1261,0,0
0,-237,0,0,0,0,0,0,0,0,0,-1,1224,1261,0,0
7,-237,0,0,0,0,0,0,0,0,0,-1,1231,1261,0,0
14,-237,0,0,0,0,0,0,0,0,0,-1,1238,1261,0,0
21,-237,0,0,0,0,0,0,0,0,0,-1,1245,1261,0,0
28,-237,0,0,0,0,0,0,0,0,0,-1,1252,1261,0,0
35,-237,0,0,0,0,0,0,0,0,0,-1,1259,1261,0,0
42,-237,0,0,0,0,0,0,0,0,0,-1,1266,1261,0,0
49,-237,0,0,0,0,0,0,0,0,0,-1,1273,1261,0,0
56,-237,0,0,0,0,0,0,0,0,0,-1,1280,1261,0,0
63,-237,0,0,0,0,0,0,0,0,0,-1,1287,1261,0,0
70,-237,0,0,0,0,0,0,0,0,0,-1,1294,1261,0,0
77,-237,0,0,0,0,0,0,0,0,0,-1,1301,1261,0,0
84,-237,0,0,0,0,0,0,0,0,0,-1,1308,1261,0,0
91,-237,0,0,0,0,0,0,0,0,0,-1,1315,1261,0,0
98,-237,0,0,0,0,0,0,0,0,0,-1,1322,1261,0,0
105,-237,0,0,0,0,0,0,0,0,0,-1,1329,1261,0,0
112,-237,0,0,0,0,0,0,0,0,0,-1,1336,1261,0,0
119,-237,0,0,0,0,0,0,0,0,0,-1,1343,1261,0,0
126,-237,0,0,0,0,0,0,0,0,0,-1,1350,1261,0,0
133,-237,0,0,0,0,0,0,0,0,0,-1,1357,1261,0,0
140,-237,0,0,0,0,0,0,0,0,0,-1,1364,1261,0,0
147,-237,0,0,0,0,0,0,0,0,0,-1,1371,1261,0,0
154,-237,0,0,0,0,0,0,0,0,0,-1,1378,1261,0,0
161,-237,0,0,0,0,0,0,0,0,0,-1,1385,1261,0,0
168,-237,0,0,0,0,0,0,0,0,0,-1,1392,1261,0,0
175,-237,0,0,0,0,0,0,0,0,0,-1,1399,1261,0,0
182,-237,0,0,0,0,0,0,0,0,0,-1,1406,1261,0,0
189,-237,0,0,0,0,0,0,0,0,0,-1,1413,1261,0,0
196,-237,0,0,0,0,0,0,0,0,0,-1,1420,1261,0,0
203,-237,0,0,0,0,0,0,0,0,0,-1,1427,1261,0,0
210,-237,0,0,0,0,0,0,0,0,0,-1,1434,1261,0,0
217,-237,0,0,0,0,0,0,0,0,0,-1,1441,1261,0,0
224,-237,0,0,0,0,0,0,0,0,0,-1,1448,1261,0,0
231,-237,0,0,0,0,0,0,0,0,0,-1,1455,1261,0,0
238,-237,0,0,0,0,0,0,0,0,0,-1,1462,1261,0,0
245,-237,0,0,0,0,0,0,0,0,0,-1,1469,1261,0,0
252,-237,0,0,0,0,0,0,0,0,0,-1,1476,1261,0,0
259,-237,0,0,0,0,0,0,0,0,0,-1,1483,1261,0,0
266,-237,0,0,0,0,0,0,0,0,0,-1,1490,1261,0,0
273,-237,0,0,0,0,0,0,0,0,0,-1,1497,1261,0,0
280,-237,0,0,0,0,0,0,0,0,0,-1,1504,1261,0,0
287,-237,0,0,0,0,0,0,0,0,0,-1,1511,1261,0,0
294,-237,0,0,0,0,0,0,0,0,0,-1,1518,1261,0,0
301,-237,0,0,0,0,0,0,0,0,0,-1,1525,1261,0,0
308,-237,0,0,0,0,0,0,0,0,0,-1,1532,1261,0,0
315,-237,0,0,0,0,0,0,0,0,0,-1,1539,1261,0,0
322,-237,0,0,0,0,0,0,0,0,0,-1,1546,1261,0,0
329,-237,0,0,0,0,0,0,0,0,0,-1,1553,1261,0,0
336,-237,0,0,0,0,0,0,0,0,0,-1,1560,1261,0,0
343,-237,0,0,0,0,0,0,0,0,0,-1,1567,1261,0,0
350,-237,0,0,0,0,0,0,0,0,0,-1,1574,1261,0,0
357,-237,0,0,0,0,0,0,0,0,0,-1,1581,1261,0,0
364,-237,0,0,0,0,0,0,0,0,0,-1,1588,1261,0,0
371,-237,0,0,0,0,0,0,0,0,0,-1,1595,1261,0,0
378,-237,0,0,0,0,0,0,0,0,0,-1,1602,1261,0,0
385,-237,0,0,0,0,0,0,0,0,0,-1,1609,1261,0,0
392,-237,0,0,0,0,0,0,0,0,0,-1,1616,1261,0,0
399,-237,0,0,0,0,0,0,0,0,0,-1,1623,1261,0,0
406,-237,0,0,0,0,0,0,0,0,0,-1,1630,1261,0,0
413,-237,0,0,0,0,0,0,0,0,0,-1,1637,1261,0,0
420,-237,0,0,0,0,0,0,0,0,0,-1,1644,1261,0,0
427,-237,0,0,0,0,0,0,0,0,0,-1,1651,1261,0,0
434,-237,0,0,0,0,0,0,0,0,0,-1,1658,1261,0,0
441,-237,0,0,0,0,0,0,0,0,0,-1,1665,1261,0,0
448,-237,0,0,0,0,0,0,0,0,0,-1,1672,1261,0,0
455,-237,0,0,0,0,0,0,0,0,0,-1,1679,1261,0,0
462,-237,0,0,0,0,0,0,0,0,0,-1,1686,1261,0,0
469,-237,0,0,0,0,0,0,0,0,0,-1,1693,1261,0,0
476,-237,0,0,0,0,0,0,0,0,0,-1,1700,1261,0,0
483,-237,0,0,0,0,0,0,0,0,0,-1,1707,1261,0,0
490,-237,0,0,0,0,0,0,0,0,0,-1,1714,1261,0,0
497,-237,0,0,0,0,0,0,0,0,0,-1,1721,1261,0,0
504,-237,0,0,0,0,0,0,0,0,0,-1,1728,1261,0,0
511,-237,0,0,0,0,0,0,0,0,0,-1,1735,1261,0,0
518,-237,0,0,0,0,0,0,0,0,0,-1,1742,1261,0,0
525,-237,0,0,0,0,0,0,0,0,0,-1,1749,1261,0,0
532,-237,0,0,0,0,0,0,0,0,0,-1,1756,1261,0,0
539,-237,0,0,0,0,0,0,0,0,0,-1,1763,1261,0,0
546,-237,0,0,0,0,0,0,0,0,0,-1,1770,1261,0,0
553,-237,0,0,0,0,0,0,0,0,0,-1,1777,1261,0,0
560,-237,0,0,0,0,0,0,0,0,0,-1,1784,1261,0,0
567,-237,0,0,0,0,0,0,0,0,0,-1,1791,1261,0,0
574,-237,0,0,0,0,0,0,0,0,0,-1,1798,1261,0,0
581,-237,0,0,0,0,0,0,0,0,0,-1,1805,1261,0,0
588,-237,0,0,0,0,0,0,0,0,0,-1,1812,1261,0,0
595,-237,0,0,0,0,0,0,0,0,0,-1,1819,1261,0,0
602,-237,0,0,0,0,0,0,0,0,0,-1,1826,1261,0,0
609,-237,0,0,0,0,0,0,0,0,0,-1,1833,1261,0,0
616,-237,23.6034,2.76965,-0.000729143,0.00056222,0.00118451,0.0012656,-0.00143252,1.03494,0.00155875,0.0355513,1840,1261,23.6033,-2.76963
623,-237,23.6265,2.83386,-0.001697,0.00349382,-0.00256047,0.00454425,-0.00274743,-1.18149,0.00425225,0.0302968,1847,1261,23.6264,-2.83387
630,-237,23.5889,2.80261,-0.00247538,0.00574714,-0.00531904,0.00835858,-0.00508681,-1.11441,0.00783894,0.0246933,1854,1261,23.5889,-2.80258
637,-237,23.4601,2.69336,-0.00272392,0.00685474,-0.00630778,0.00998537,-0.00585455,-1.1101,0.00924826,0.0215167,1861,1261,23.46,-2.69335
644,-237,23.3307,2.55945,-0.00245343,0.00686046,-0.00603121,0.0098234,-0.00541637,-1.11416,0.00892047,0.0434054,1868,1261,23.3307,-2.55946
651,-237,23.4353,2.64722,0,0,0,0,0,0,0,-1,1875,1261,23.4353,-2.64719
658,-237,23.6122,2.62512,-0.00150289,0.00541798,-0.00432134,0.00749367,-0.00357858,-1.12301,0.00652441,0.04828,1882,1261,23.6122,-2.62516
665,-237,23.5721,2.38354,-0.00111871,0.00460818,-0.00343876,0.00621959,-0.00273013,-1.13258,0.00529642,0.0461314,1889,1261,23.5722,-2.38358
672,-237,23.6628,2.08264,0,0,0,0,0,0,0,-1,1896,1261,23.6629,-2.08262
679,-237,20.0983,6.05811,0,0,0,0,0,0,0,-1,1903,1261,20.0983,-6.05815
686,-237,19.8441,5.81201,-0.000167837,0.00226292,-0.000980631,0.0026092,-0.000514118,-1.23134,0.00193376,0.0376707,1910,1261,19.8441,-5.81205
693,-237,19.5381,5.60889,0.000503083,0.00141622,-3.55767e-05,0.0014176,0.000501699,-1.53191,0.000830016,0.020541,1917,1261,19.5381,-5.60892
700,-237,19.5479,5.43884,0.00104302,0.000446243,0.000677731,0.00148514,4.12291e-06,0.578028,0.000988725,0.0103549,1924,1261,19.5478,-5.43884
707,-237,19.5488,5.25513,0.00243688,-0.000226673,0.000624493,0.00257603,-0.000365821,0.219237,0.00185138,0.0098953,1931,1261,19.5488,-5.25517
714,-237,19.5348,5.05359,0.0035848,-1.19622e-05,-1.24475e-05,0.00358484,-1.20052e-05,-0.00346069,0.00239391,0.0126828,1938,1261,19.5348,-5.05357
721,-237,19.5155,4.86829,0.00699714,0.000889791,-0.00145117,0.00732441,0.000562517,-0.221814,0.00470666,0.0137871,1945,1261,19.5155,-4.86823
728,-237,19.5557,4.67957,0.0144224,0.00508358,-0.00309463,0.0153548,0.00415119,-0.292642,0.00917147,0.013958,1952,1261,19.5556,-4.67959
735,-237,19.5487,4.50464,0.0234969,0.0115602,-0.00375549,0.0245801,0.010477,-0.28082,0.0142427,0.0188084,1959,1261,19.5487,-4.50465
742,-237,19.543,4.32739,0.034076,0.0186538,-0.00498323,0.0355461,0.0171837,-0.286864,0.0205263,0.0139573,1966,1261,19.543,-4.32734
749,-237,19.5269,4.13025,0.0462312,0.0275726,-0.00579884,0.0478865,0.0259172,-0.278066,0.0276786,0.00929854,1973,1261,19.5269,-4.13027
756,-237,19.5205,3.92627,0.0609334,0.039842,-0.00604152,0.0625414,0.038234,-0.260123,0.0364055,0.0136877,1980,1261,19.5205,-3.92622
763,-237,19.5145,3.66309,0.0778352,0.0555464,-0.00535035,0.079053,0.0543286,-0.223798,0.0466959,0.0289378,1987,1261,19.5145,-3.66308
770,-237,21.9879,-3.62793,0,0,0,0,0,0,0,-1,1994,1261,21.9879,3.62792
777,-237,22.5487,-2.34412,0.115879,0.0979929,0.000764261,0.115912,0.0979603,0.0426261,0.07204,0.0416495,2001,1261,22.5487,2.34409
784,-237,23.1848,-0.895996,0.135001,0.124498,0.00737735,0.138805,0.120694,0.476081,0.0871296,0.045881,2008,1261,23.1848,0.89601
791,-237,24.0978,0.45166,0,0,0,0,0,0,0,-1,2015,1261,24.0978,-0.451683
798,-237,0,0,0,0,0,0,0,0,0,-1,2022,1261,0,0
805,-237,0,0,0,0,0,0,0,0,0,-1,2029,1261,0,0
812,-237,0,0,0,0,0,0,0,0,0,-1,2036,1261,0,0
-700,-244,0,0,0,0,0,0,0,0,0,-1,524,1268,0,0
-693,-244,0,0,0,0,0,0,0,0,0,-1,531,1268,0,0
-686,-244,0,0,0,0,0,0,0,0,0,-1,538,1268,0,0
-679,-244,0,0,0,0,0,0,0,0,0,-1,545,1268,0,0
-672,-244,-14.0414,1.27966,0,0,0,0,0,0,0,-1,552,1268,-14.0414,-1.27971
-665,-244,-9.755,-0.371338,0,0,0,0,0,0,0,-1,559,1268,-9.75502,0.371393
-658,-244,-9.92853,0.258789,-0.0274907,0.00368286,-0.0886653,0.078121,-0.101929,-0.872406,0.104254,0.0494298,566,1268,-9.92853,-0.258817
-651,-244,-14.1971,-2.79285,-0.0154928,0.0107422,-0.0634792,0.062445,-0.0671957,-0.887286,0.0748648,0.0457032,573,1268,-14.1972,2.7929
-644,-244,-13.0522,-1.61792,-0.00799886,0.0146181,-0.0441093,0.0488454,-0.0422262,-0.910883,0.0526265,0.044505,580,1268,-13.0522,1.61793
-637,-244,-11.7489,1.64722,0,0,0,0,0,0,0,-1,587,1268,-11.7489,-1.64718
-630,-244,-11.378,1.5033,-0.00092703,0.0160211,-0.0189142,0.0282727,-0.0131787,-0.996004,0.0244551,0.042098,594,1268,-11.378,-1.50336
-623,-244,-11.1167,1.52551,0.000352997,0.0147175,-0.0114329,0.0210369,-0.00596643,-1.06585,0.0163797,0.0322443,601,1268,-11.1167,-1.52556
-616,-244,-11.0795,1.75061,0.000995016,0.0126849,-0.0063623,0.0154795,-0.00179962,-1.15692,0.0109689,0.0162445,608,1268,-11.0795,-1.7506
-609,-244,-11.0844,1.95337,0.0015424,0.0102862,-0.00296889,0.011199,0.000629621,-1.27252,0.0072652,0.0141059,615,1268,-11.0844,-1.95337
-602,-244,-11.0884,2.18591,0.00281531,0.00786286,-0.000209425,0.00787153,0.00280664,-1.5294,0.00460655,0.0151459,622,1268,-11.0884,-2.18593
-595,-244,-11.0851,2.42102,0.00304076,0.0057701,0.00169902,0.00658465,0.00222621,1.12375,0.00386752,0.0165666,629,1268,-11.0851,-2.42103
-588,-244,-11.0849,2.66724,0.00265545,0.00366145,0.00185653,0.00508191,0.00123498,0.917689,0.0030605,0.0207036,636,1268,-11.0849,-2.6672
-581,-244,-11.0938,2.88489,0.00240929,0.00242871,0.000318053,0.0027372,0.0021008,0.800657,0.001654,0.0178107,643,1268,-11.0938,-2.88489
-574,-244,-11.1232,3.09192,0.00137914,0.00277742,-0.000659795,0.00303959,0.00111697,-1.19257,0.00177534,0.0136363,650,1268,-11.1232,-3.0919
-567,-244,-11.1122,3.32214,-0.00042671,0.00359913,-0.00135505,0.00401274,-0.000840312,-1.27455,0.00299482,0.0105699,657,1268,-11.1122,-3.32217
-560,-244,-11.0541,3.56616,-0.00241946,0.00506457,-0.0020819,0.00560473,-0.00295962,-1.31694,0.00502262,0.0181006,664,1268,-11.0541,-3.56612
-553,-244,-10.8136,3.80249,-0.00472688,0.00810085,-0.00323836,0.00887201,-0.00549804,-1.33702,0.00837244,0.0481651,671,1268,-10.8136,-3.80244
-546,-244,-10.4429,3.96973,0,0,0,0,0,0,0,-1,678,1268,-10.4429,-3.96969
-539,-244,-11.9272,0.703125,0,0,0,0,0,0,0,-1,685,1268,-11.9272,-0.703171
-532,-244,-14.2081,-0.0926514,0,0,0,0,0,0,0,-1,692,1268,-14.2081,0.0926409
-525,-244,-14.5509,0.131714,-0.0228947,0.0197718,-0.00318613,0.0200084,-0.0231313,-1.49667,0.0249285,0.0476516,699,1268,-14.5509,-0.13166
-518,-244,-15.1467,0.560425,-0.0283988,0.0229414,-0.00264175,0.023077,-0.0285344,-1.51952,0.0298533,0.0435536,706,1268,-15.1467,-0.560421
-511,-244,-15.5495,0.776978,-0.0341298,0.0257633,-0.0016375,0.0258081,-0.0341745,-1.54348,0.0347431,0.0448137,713,1268,-15.5495,-0.776958
-504,-244,-15.72,0.931519,-0.0388406,0.0275021,0.000270234,0.0275032,-0.0388416,1.56672,0.0384903,0.0443477,720,1268,-15.72,-0.931572
-497,-244,-15.7062,0.962402,-0.0390211,0.0260437,0.00361221,0.0262436,-0.0392211,1.51551,0.0380428,0.0455717,727,1268,-15.7062,-0.962425
-490,-244,0,0,0,0,0,0,0,0,0,-1,734,1268,0,0
-483,-244,0,0,0,0,0,0,0,0,0,-1,741,1268,0,0
-476,-244,0,0,0,0,0,0,0,0,0,-1,748,1268,0,0
-469,-244,0,0,0,0,0,0,0,0,0,-1,755,1268,0,0
-462,-244,0,0,0,0,0,0,0,0,0,-1,762,1268,0,0
-455,-244,0,0,0,0,0,0,0,0,0,-1,769,1268,0,0
-448,-244,0,0,0,0,0,0,0,0,0,-1,776,1268,0,0
-441,-244,0,0,0,0,0,0,0,0,0,-1,783,1268,0,0
-434,-244,0,0,0,0,0,0,0,0,0,-1,790,1268,0,0
-427,-244,0,0,0,0,0,0,0,0,0,-1,797,1268,0,0
-420,-244,0,0,0,0,0,0,0,0,0,-1,804,1268,0,0
-413,-244,0,0,0,0,0,0,0,0,0,-1,811,1268,0,0
-406,-244,0,0,0,0,0,0,0,0,0,-1,818,1268,0,0
-399,-244,0,0,0,0,0,0,0,0,0,-1,825,1268,0,0
-392,-244,0,0,0,0,0,0,0,0,0,-1,832,1268,0,0
-385,-244,0,0,0,0,0,0,0,0,0,-1,839,1268,0,0
-378,-244,0,0,0,0,0,0,0,0,0,-1,846,1268,0,0
-371,-244,0,0,0,0,0,0,0,0,0,-1,853,1268,0,0
-364,-244,0,0,0,0,0,0,0,0,0,-1,860,1268,0,0
-357,-244,0,0,0,0,0,0,0,0,0,-1,867,1268,0,0
-350,-244,0,0,0,0,0,0,0,0,0,-1,874,1268,0,0
-343,-244,0,0,0,0,0,0,0,0,0,-1,881,1268,0,0
-336,-244,0,0,0,0,0,0,0,0,0,-1,888,1268,0,0
-329,-244,0,0,0,0,0,0,0,0,0,-1,895,1268,0,0
-322,-244,0,0,0,0,0,0,0,0,0,-1,902,1268,0,0
-315,-244,0,0,0,0,0,0,0,0,0,-1,909,1268,0,0
-308,-244,0,0,0,0,0,0,0,0,0,-1,916,1268,0,0
-301,-244,0,0,0,0,0,0,0,0,0,-1,923,1268,0,0
-294,-244,0,0,0,0,0,0,0,0,0,-1,930,1268,0,0
-287,-244,0,0,0,0,0,0,0,0,0,-1,937,1268,0,0
-280,-244,0,0,0,0,0,0,0,0,0,-1,944,1268,0,0
-273,-244,0,0,0,0,0,0,0,0,0,-1,951,1268,0,0
-266,-244,0,0,0,0,0,0,0,0,0,-1,958,1268,0,0
-259,-244,0,0,0,0,0,0,0,0,0,-1,965,1268,0,0
-252,-244,0,0,0,0,0,0,0,0,0,-1,972,1268,0,0
-245,-244,0,0,0,0,0,0,0,0,0,-1,979,1268,0,0
-238,-244,0,0,0,0,0,0,0,0,0,-1,986,1268,0,0
-231,-244,0,0,0,0,0,0,0,0,0,-1,993,1268,0,0
-224,-244,0,0,0,0,0,0,0,0,0,-1,1000,1268,0,0
-217,-244,0,0,0,0,0,0,0,0,0,-1,1007,1268,0,0
-210,-244,0,0,0,0,0,0,0,0,0,-1,1014,1268,0,0
-203,-244,0,0,0,0,0,0,0,0,0,-1,1021,1268,0,0
-196,-244,0,0,0,0,0,0,0,0,0,-1,1028,1268,0,0
-189,-244,0,0,0,0,0,0,0,0,0,-1,1035,1268,0,0
-182,-244,0,0,0,0,0,0,0,0,0,-1,1042,1268,0,0
-175,-244,0,0,0,0,0,0,0,0,0,-1,1049,1268,0,0
-168,-244,0,0,0,0,0,0,0,0,0,-1,1056,1268,0,0
-161,-244,0,0,0,0,0,0,0,0,0,-1,1063,1268,0,0
-154,-244,0,0,0,0,0,0,0,0,0,-1,1070,1268,0,0
-147,-244,0,0,0,0,0,0,0,0,0,-1,1077,1268,0,0
-140,-244,0,0,0,0,0,0,0,0,0,-1,1084,1268,0,0
-133,-244,0,0,0,0,0,0,0,0,0,-1,1091,1268,0,0
-126,-244,0,0,0,0,0,0,0,0,0,-1,1098,1268,0,0
-119,-244,0,0,0,0,0,0,0,0,0,-1,1105,1268,0,0
-112,-244,0,0,0,0,0,0,0,0,0,-1,1112,1268,0,0
-105,-244,0,0,0,0,0,0,0,0,0,-1,1119,1268,0,0
-98,-244,0,0,0,0,0,0,0,0,0,-1,1126,1268,0,0
-91,-244,0,0,0,0,0,0,0,0,0,-1,1133,1268,0,0
-84,-244,0,0,0,0,0,0,0,0,0,-1,1140,1268,0,0
-77,-244,0,0,0,0,0,0,0,0,0,-1,1147,1268,0,0
-70,-244,0,0,0,0,0,0,0,0,0,-1,1154,1268,0,0
-63,-244,0,0,0,0,0,0,0,0,0,-1,1161,1268,0,0
-56,-244,0,0,0,0,0,0,0,0,0,-1,1168,1268,0,0
-49,-244,0,0,0,0,0,0,0,0,0,-1,1175,1268,0,0
-42,-244,0,0,0,0,0,0,0,0,0,-1,1182,1268,0,0
-35,-244,0,0,0,0,0,0,0,0,0,-1,1189,1268,0,0
-28,-244,0,0,0,0,0,0,0,0,0,-1,1196,1268,0,0
-21,-244,0,0,0,0,0,0,0,0,0,-1,1203,1268,0,0
-14,-244,0,0,0,0,0,0,0,0,0,-1,1210,1268,0,0
-7,-244,0,0,0,0,0,0,0,0,0,-1,1217,1268,0,0
0,-244,0,0,0,0,0,0,0,0,0,-1,1224,1268,0,0
7,-244,0,0,0,0,0,0,0,0,0,-1,1231,1268,0,0
14,-244,0,0,0,0,0,0,0,0,0,-1,1238,1268,0,0
21,-244,0,0,0,0,0,0,0,0,0,-1,1245,1268,0,0
28,-244,0,0,0,0,0,0,0,0,0,-1,1252,1268,0,0
35,-244,0,0,0,0,0,0,0,0,0,-1,1259,1268,0,0
42,-244,0,0,0,0,0,0,0,0,0,-1,1266,1268,0,0
49,-244,0,0,0,0,0,0,0,0,0,-1,1273,1268,0,0
56,-244,0,0,0,0,0,0,0,0,0,-1,1280,1268,0,0
63,-244,0,0,0,0,0,0,0,0,0,-1,1287,1268,0,0
70,-244,0,0,0,0,0,0,0,0,0,-1,1294,1268,0,0
77,-244,0,0,0,0,0,0,0,0,0,-1,1301,1268,0,0
84,-244,0,0,0,0,0,0,0,0,0,-1,1308,1268,0,0
91,-244,0,0,0,0,0,0,0,0,0,-1,1315,1268,0,0
98,-244,0,0,0,0,0,0,0,0,0,-1,1322,1268,0,0
105,-244,0,0,0,0,0,0,0,0,0,-1,1329,1268,0,0
112,-244,0,0,0,0,0,0,0,0,0,-1,1336,1268,0,0
119,-244,0,0,0,0,0,0,0,0,0,-1,1343,1268,0,0
126,-244,0,0,0,0,0,0,0,0,0,-1,1350,1268,0,0
133,-244,0,0,0,0,0,0,0,0,0,-1,1357,1268,0,0
140,-244,0,0,0,0,0,0,0,0,0,-1,1364,1268,0,0
147,-244,0,0,0,0,0,0,0,0,0,-1,1371,1268,0,0
154,-244,0,0,0,0,0,0,0,0,0,-1,1378,1268,0,0
161,-244,0,0,0,0,0,0,0,0,0,-1,1385,1268,0,0
168,-244,0,0,0,0,0,0,0,0,0,-1,1392,1268,0,0
175,-244,0,0,0,0,0,0,0,0,0,-1,1399,1268,0,0
182,-244,0,0,0,0,0,0,0,0,0,-1,1406,1268,0,0
189,-244,0,0,0,0,0,0,0,0,0,-1,1413,1268,0,0
196,-244,0,0,0,0,0,0,0,0,0,-1,1420,1268,0,0
203,-244,0,0,0,0,0,0,0,0,0,-1,1427,1268,0,0
210,-244,0,0,0,0,0,0,0,0,0,-1,1434,1268,0,0
217,-244,0,0,0,0,0,0,0,0,0,-1,1441,1268,0,0
224,-244,0,0,0,0,0,0,0,0,0,-1,1448,1268,0,0
231,-244,0,0,0,0,0,0,0,0,0,-1,1455,1268,0,0
238,-244,0,0,0,0,0,0,0,0,0,-1,1462,1268,0,0
245,-244,0,0,0,0,0,0,0,0,0,-1,1469,1268,0,0
252,-244,0,0,0,0,0,0,0,0,0,-1,1476,1268,0,0
259,-244,0,0,0,0,0,0,0,0,0,-1,1483,1268,0,0
266,-244,0,0,0,0,0,0,0,0,0,-1,1490,1268,0,0
273,-244,0,0,0,0,0,0,0,0,0,-1,1497,1268,0,0
280,-244,0,0,0,0,0,0,0,0,0,-1,1504,1268,0,0
287,-244,0,0,0,0,0,0,0,0,0,-1,1511,1268,0,0
294,-244,0,0,0,0,0,0,0,0,0,-1,1518,1268,0,0
301,-244,0,0,0,0,0,0,0,0,0,-1,1525,1268,0,0
308,-244,0,0,0,0,0,0,0,0,0,-1,1532,1268,0,0
315,-244,0,0,0,0,0,0,0,0,0,-1,1539,1268,0,0
322,-244,0,0,0,0,0,0,0,0,0,-1,1546,1268,0,0
329,-244,0,0,0,0,0,0,0,0,0,-1,1553,1268,0,0
336,-244,0,0,0,0,0,0,0,0,0,-1,1560,1268,0,0
343,-244,0,0,0,0,0,0,0,0,0,-1,1567,1268,0,0
350,-244,0,0,0,0,0,0,0,0,0,-1,1574,1268,0,0
357,-244,0,0,0,0,0,0,0,0,0,-1,1581,1268,0,0
364,-244,0,0,0,0,0,0,0,0,0,-1,1588,1268,0,0
371,-244,0,0,0,0,0,0,0,0,0,-1,1595,1268,0,0
378,-244,0,0,0,0,0,0,0,0,0,-1,1602,1268,0,0
385,-244,0,0,0,0,0,0,0,0,0,-1,1609,1268,0,0
392,-244,0,0,0,0,0,0,0,0,0,-1,1616,1268,0,0
399,-244,0,0,0,0,0,0,0,0,0,-1,1623,1268,0,0
406,-244,0,0,0,0,0,0,0,0,0,-1,1630,1268,0,0
413,-244,0,0,0,0,0,0,0,0,0,-1,1637,1268,0,0
420,-244,0,0,0,0,0,0,0,0,0,-1,1644,1268,0,0
427,-244,0,0,0,0,0,0,0,0,0,-1,1651,1268,0,0
434,-244,0,0,0,0,0,0,0,0,0,-1,1658,1268,0,0
441,-244,0,0,0,0,0,0,0,0,0,-1,1665,1268,0,0
448,-244,0,0,0,0,0,0,0,0,0,-1,1672,1268,0,0
455,-244,0,0,0,0,0,0,0,0,0,-1,1679,1268,0,0
462,-244,0,0,0,0,0,0,0,0,0,-1,1686,1268,0,0
469,-244,0,0,0,0,0,0,0,0,0,-1,1693,1268,0,0
476,-244,0,0,0,0,0,0,0,0,0,-1,1700,1268,0,0
483,-244,0,0,0,0,0,0,0,0,0,-1,1707,1268,0,0
490,-244,0,0,0,0,0,0,0,0,0,-1,1714,1268,0,0
497,-244,0,0,0,0,0,0,0,0,0,-1,1721,1268,0,0
504,-244,0,0,0,0,0,0,0,0,0,-1,1728,1268,0,0
511,-244,0,0,0,0,0,0,0,0,0,-1,1735,1268,0,0
518,-244,0,0,0,0,0,0,0,0,0,-1,1742,1268,0,0
525,-244,0,0,0,0,0,0,0,0,0,-1,1749,1268,0,0
532,-244,0,0,0,0,0,0,0,0,0,-1,1756,1268,0,0
539,-244,0,0,0,0,0,0,0,0,0,-1,1763,1268,0,0
546,-244,0,0,0,0,0,0,0,0,0,-1,1770,1268,0,0
553,-244,0,0,0,0,0,0,0,0,0,-1,1777,1268,0,0
560,-244,0,0,0,0,0,0,0,0,0,-1,1784,1268,0,0
567,-244,0,0,0,0,0,0,0,0,0,-1,1791,1268,0,0
574,-244,0,0,0,0,0,0,0,0,0,-1,1798,1268,0,0
581,-244,0,0,0,0,0,0,0,0,0,-1,1805,1268,0,0
588,-244,0,0,0,0,0,0,0,0,0,-1,1812,1268,0,0
595,-244,0,0,0,0,0,0,0,0,0,-1,1819,1268,0,0
602,-244,0,0,0,0,0,0,0,0,0,-1,1826,1268,0,0
609,-244,0,0,0,0,0,0,0,0,0,-1,1833,1268,0,0
616,-244,23.5535,2.71497,-0.000173813,0.00261121,-0.00153521,0.00329137,-0.000853972,-1.15375,0.00252746,0.0323717,1840,1268,23.5534,-2.71493
623,-244,23.5457,2.74963,-0.0021885,0.00461721,-0.00479013,0.00709013,-0.00466143,-1.09423,0.00683289,0.0259026,1847,1268,23.5457,-2.74962
630,-244,23.5558,2.78821,-0.0038742,0.00592243,-0.0066618,0.00929292,-0.00724468,-1.10241,0.00957237,0.0236902,1854,1268,23.5558,-2.78826
637,-244,23.4795,2.6897,-0.00458634,0.00636545,-0.00688808,0.00968905,-0.00790993,-1.12123,0.0101781,0.039023,1861,1268,23.4795,-2.68973
644,-244,23.1975,2.25537,-0.00444219,0.00611066,-0.00622775,0.00899668,-0.00732821,-1.13684,0.00944158,0.0478697,1868,1268,23.1975,-2.25541
651,-244,22.8817,1.72009,-0.00393342,0.00547586,-0.00524608,0.00781785,-0.00627542,-1.15092,0.00815298,0.0455075,1875,1268,22.8817,-1.72015
658,-244,23.4694,2.65601,0,0,0,0,0,0,0,-1,1882,1268,23.4693,-2.65597
665,-244,23.0768,2.58008,0,0,0,0,0,0,0,-1,1889,1268,23.0768,-2.5801
672,-244,17.7415,5.33276,0,0,0,0,0,0,0,-1,1896,1268,17.7415,-5.33278
679,-244,19.2928,5.9303,0,0,0,0,0,0,0,-1,1903,1268,19.2928,-5.93026
686,-244,19.3479,5.89575,-0.00133976,0.0019993,-0.000874822,0.00221461,-0.00155507,-1.32947,0.00218751,0.0326068,1910,1268,19.348,-5.8957
693,-244,19.3231,5.69055,-0.000279393,0.00127911,9.72782e-05,0.00128515,-0.000285442,1.5087,0.000966077,0.0124908,1917,1268,19.3232,-5.69049
700,-244,19.332,5.4679,0.000546369,0.000360276,0.000783645,0.00124247,-0.000335827,0.726307,0.00096004,0.00869562,1924,1268,19.3321,-5.46786
707,-244,19.3442,5.26965,0.00257157,-0.000222511,0.000512409,0.00266258,-0.000313518,0.175773,0.00188825,0.010029,1931,1268,19.3442,-5.26969
714,-244,19.3621,5.06982,0.00457626,0.000219845,-0.000419518,0.00461629,0.000179814,-0.095134,0.00301938,0.0110364,1938,1268,19.3621,-5.06986
721,-244,19.3218,4.89746,0.00898432,0.00140892,-0.00211206,0.00953338,0.000859859,-0.254334,0.00608924,0.0130987,1945,1268,19.3218,-4.8974
728,-244,19.3251,4.68713,0.0172942,0.00603107,-0.00386526,0.0184931,0.00483221,-0.300755,0.0110751,0.0171949,1952,1268,19.325,-4.68719
735,-244,19.3115,4.46521,0.0272597,0.0130016,-0.0045363,0.0285806,0.0116807,-0.283347,0.0165924,0.0227967,1959,1268,19.3115,-4.46516
742,-244,19.356,4.31323,0.0388449,0.0207234,-0.00572745,0.0405033,0.019065,-0.28185,0.023398,0.0153815,1966,1268,19.356,-4.31318
749,-244,19.3262,4.11072,0.0523852,0.0308039,-0.00642866,0.0541551,0.029034,-0.268648,0.0312936,0.0182587,1973,1268,19.3261,-4.1107
756,-244,19.2539,3.92285,0.0687959,0.0448147,-0.00638325,0.0703891,0.0432215,-0.244598,0.04099,0.024652,1980,1268,19.2539,-3.92284
763,-244,19.2664,3.69934,0.0876073,0.0630018,-0.00510101,0.0886229,0.0619862,-0.196524,0.0525057,0.0401705,1987,1268,19.2664,-3.69933
770,-244,22.8521,-4.82263,0,0,0,0,0,0,0,-1,1994,1268,22.8521,4.82265
777,-244,23.3175,-3.62317,0.1297,0.113206,0.00374901,0.130512,0.112394,0.213333,0.0816414,0.0473779,2001,1268,23.3175,3.62314
784,-244,24.1403,-2.16113,0.1507,0.145281,0.0129225,0.161194,0.134787,0.682059,0.0998312,0.0458654,2008,1268,24.1403,2.16113
791,-244,0,0,0,0,0,0,0,0,0,-1,2015,1268,0,0
798,-244,0,0,0,0,0,0,0,0,0,-1,2022,1268,0,0
805,-244,0,0,0,0,0,0,0,0,0,-1,2029,1268,0,0
812,-244,0,0,0,0,0,0,0,0,0,-1,2036,1268,0,0
-700,-251,0,0,0,0,0,0,0,0,0,-1,524,1275,0,0
-693,-251,0,0,0,0,0,0,0,0,0,-1,531,1275,0,0
-686,-251,0,0,0,0,0,0,0,0,0,-1,538,1275,0,0
-679,-251,0,0,0,0,0,0,0,0,0,-1,545,1275,0,0
-672,-251,0,0,0,0,0,0,0,0,0,-1,552,1275,0,0
-665,-251,-8.78943,-0.237061,0,0,0,0,0,0,0,-1,559,1275,-8.7894,0.23705
-658,-251,-9.01025,0.348633,-0.0348268,0.0108254,-0.0943471,0.0850684,-0.10907,-0.904086,0.112371,0.0456046,566,1275,-9.01024,-0.348644
-651,-251,-9.33063,0.727173,-0.0217379,0.0187693,-0.0668891,0.068404,-0.0713725,-0.932407,0.0807061,0.0480061,573,1275,-9.3306,-0.727127
-644,-251,-9.47839,1.06018,-0.0130318,0.0226783,-0.0458184,0.0539977,-0.0443512,-0.971192,0.0568728,0.0478005,580,1275,-9.47838,-1.06023
-637,-251,-9.57269,1.1958,-0.00731632,0.0237331,-0.0300232,0.042008,-0.0255912,-1.02401,0.0394101,0.0453318,587,1275,-9.57267,-1.19575
-630,-251,-9.95496,1.40906,-0.00365635,0.0227883,-0.0185457,0.0323425,-0.0132106,-1.09508,0.0270623,0.0441138,594,1275,-9.95498,-1.40902
-623,-251,-10.5659,1.53992,-0.00141924,0.0205154,-0.0105283,0.024751,-0.00565477,-1.18831,0.0186732,0.0384157,601,1275,-10.5659,-1.53995
-616,-251,-10.8463,1.73706,-3.26245e-05,0.0174748,-0.00518708,0.0188962,-0.00145404,-1.30333,0.0131091,0.0203192,608,1275,-10.8463,-1.73705
-609,-251,-10.8583,1.9458,0.00102042,0.0140995,-0.00175212,0.0143301,0.000789763,-1.43991,0.00930134,0.0200755,615,1275,-10.8583,-1.9458
-602,-251,-10.8557,2.1626,0.00263933,0.0108517,0.000982988,0.0109677,0.00252331,1.45331,0.0066327,0.0149959,622,1275,-10.8556,-2.16264
-595,-251,-10.8673,2.39612,0.0030952,0.00785154,0.00280433,0.00915032,0.00179642,1.13707,0.00559832,0.0136458,629,1275,-10.8673,-2.39615
-588,-251,-10.8647,2.61743,0.00281281,0.0049527,0.00279926,0.00687952,0.000885987,0.967942,0.0043214,0.0160398,636,1275,-10.8647,-2.61739
-581,-251,-10.8842,2.86353,0.00267575,0.0029003,0.00111744,0.00391109,0.00166496,0.835467,0.00226636,0.0141036,643,1275,-10.8842,-2.86352
-574,-251,-10.8746,3.10986,0.00182129,0.0026444,-1.86986e-05,0.00264482,0.00182087,-1.54809,0.00156273,0.0127892,650,1275,-10.8746,-3.1099
-567,-251,-10.8522,3.3396,9.89122e-05,0.00313779,-0.000987719,0.00343061,-0.000193908,-1.28259,0.00235438,0.0110797,657,1275,-10.8522,-3.3396
-560,-251,-10.8232,3.5874,-0.0021881,0.00463348,-0.00193565,0.00514445,-0.00269908,-1.3127,0.00460124,0.0161204,664,1275,-10.8232,-3.58738
-553,-251,-10.733,3.59741,-0.00502072,0.00779126,-0.00331851,0.00859979,-0.00582925,-1.33181,0.00838164,0.0397452,671,1275,-10.7329,-3.59743
-546,-251,-10.7343,3.51538,0,0,0,0,0,0,0,-1,678,1275,-10.7343,-3.51539
-539,-251,-10.7916,0.366333,0,0,0,0,0,0,0,-1,685,1275,-10.7916,-0.366282
-532,-251,-10.7391,-0.00769043,0,0,0,0,0,0,0,-1,692,1275,-10.7391,0.00773227
-525,-251,-14.1703,-0.101685,0,0,0,0,0,0,0,-1,699,1275,-14.1703,0.101685
-518,-251,-14.8488,0.494263,0,0,0,0,0,0,0,-1,706,1275,-14.8488,-0.494232
-511,-251,-15.217,1.11743,0,0,0,0,0,0,0,-1,713,1275,-15.217,-1.11742
-504,-251,-15.2375,0.43042,-0.0433153,0.0274875,-0.000467267,0.0274906,-0.0433184,-1.5642,0.0412206,0.0465047,720,1275,-15.2376,-0.430395
-497,-251,-15.5472,0.749512,-0.0461175,0.0280412,0.00278245,0.0281455,-0.0462218,1.53335,0.0433567,0.0487076,727,1275,-15.5472,-0.749461
-490,-251,0,0,0,0,0,0,0,0,0,-1,734,1275,0,0
-483,-251,0,0,0,0,0,0,0,0,0,-1,741,1275,0,0
-476,-251,0,0,0,0,0,0,0,0,0,-1,748,1275,0,0
-469,-251,0,0,0,0,0,0,0,0,0,-1,755,1275,0,0
-462,-251,0,0,0,0,0,0,0,0,0,-1,762,1275,0,0
-455,-251,0,0,0,0,0,0,0,0,0,-1,769,1275,0,0
-448,-251,0,0,0,0,0,0,0,0,0,-1,776,1275,0,0
-441,-251,0,0,0,0,0,0,0,0,0,-1,783,1275,0,0
-434,-251,0,0,0,0,0,0,0,0,0,-1,790,1275,0,0
-427,-251,0,0,0,0,0,0,0,0,0,-1,797,1275,0,0
-420,-251,0,0,0,0,0,0,0,0,0,-1,804,1275,0,0
-413,-251,0,0,0,0,0,0,0,0,0,-1,811,1275,0,0
-406,-251,0,0,0,0,0,0,0,0,0,-1,818,1275,0,0
-399,-251,0,0,0,0,0,0,0,0,0,-1,825,1275,0,0
-392,-251,0,0,0,0,0,0,0,0,0,-1,832,1275,0,0
-385,-251,0,0,0,0,0,0,0,0,0,-1,839,1275,0,0
-378,-251,0,0,0,0,0,0,0,0,0,-1,846,1275,0,0
-371,-251,0,0,0,0,0,0,0,0,0,-1,853,1275,0,0
-364,-251,0,0,0,0,0,0,0,0,0,-1,860,1275,0,0
-357,-251,0,0,0,0,0,0,0,0,0,-1,867,1275,0,0
-350,-251,0,0,0,0,0,0,0,0,0,-1,874,1275,0,0
-343,-251,0,0,0,0,0,0,0,0,0,-1,881,1275,0,0
-336,-251,0,0,0,0,0,0,0,0,0,-1,888,1275,0,0
-329,-251,0,0,0,0,0,0,0,0,0,-1,895,1275,0,0
-322,-251,0,0,0,0,0,0,0,0,0,-1,902,1275,0,0
-315,-251,0,0,0,0,0,0,0,0,0,-1,909,1275,0,0
-308,-251,0,0,0,0,0,0,0,0,0,-1,916,1275,0,0
-301,-251,0,0,0,0,0,0,0,0,0,-1,923,1275,0,0
-294,-251,0,0,0,0,0,0,0,0,0,-1,930,1275,0,0
-287,-251,0,0,0,0,0,0,0,0,0,-1,937,1275,0,0
-280,-251,0,0,0,0,0,0,0,0,0,-1,944,1275,0,0
-273,-251,0,0,0,0,0,0,0,0,0,-1,951,1275,0,0
-266,-251,0,0,0,0,0,0,0,0,0,-1,958,1275,0,0
-259,-251,0,0,0,0,0,0,0,0,0,-1,965,1275,0,0
-252,-251,0,0,0,0,0,0,0,0,0,-1,972,1275,0,0
-245,-251,0,0,0,0,0,0,0,0,0,-1,979,1275,0,0
-238,-251,0,0,0,0,0,0,0,0,0,-1,986,1275,0,0
-231,-251,0,0,0,0,0,0,0,0,0,-1,993,1275,0,0
-224,-251,0,0,0,0,0,0,0,0,0,-1,1000,1275,0,0
-217,-251,0,0,0,0,0,0,0,0,0,-1,1007,1275,0,0
-210,-251,0,0,0,0,0,0,0,0,0,-1,1014,1275,0,0
-203,-251,0,0,0,0,0,0,0,0,0,-1,1021,1275,0,0
-196,-251,0,0,0,0,0,0,0,0,0,-1,1028,1275,0,0
-189,-251,0,0,0,0,0,0,0,0,0,-1,1035,1275,0,0
-182,-251,0,0,0,0,0,0,0,0,0,-1,1042,1275,0,0
-175,-251,0,0,0,0,0,0,0,0,0,-1,1049,1275,0,0
-168,-251,0,0,0,0,0,0,0,0,0,-1,1056,1275,0,0
-161,-251,0,0,0,0,0,0,0,0,0,-1,1063,1275,0,0
-154,-251,0,0,0,0,0,0,0,0,0,-1,1070,1275,0,0
-147,-251,0,0,0,0,0,0,0,0,0,-1,1077,1275,0,0
-140,-251,0,0,0,0,0,0,0,0,0,-1,1084,1275,0,0
-133,-251,0,0,0,0,0,0,0,0,0,-1,1091,1275,0,0
-126,-251,0,0,0,0,0,0,0,0,0,-1,1098,1275,0,0
-119,-251,0,0,0,0,0,0,0,0,0,-1,1105,1275,0,0
-112,-251,0,0,0,0,0,0,0,0,0,-1,1112,1275,0,0
-105,-251,0,0,0,0,0,0,0,0,0,-1,1119,1275,0,0
-98,-251,0,0,0,0,0,0,0,0,0,-1,1126,1275,0,0
-91,-251,0,0,0,0,0,0,0,0,0,-1,1133,1275,0,0
-84,-251,0,0,0,0,0,0,0,0,0,-1,1140,1275,0,0
-77,-251,0,0,0,0,0,0,0,0,0,-1,1147,1275,0,0
-70,-251,0,0,0,0,0,0,0,0,0,-1,1154,1275,0,0
-63,-251,0,0,0,0,0,0,0,0,0,-1,1161,1275,0,0
-56,-251,0,0,0,0,0,0,0,0,0,-1,1168,1275,0,0
-49,-251,0,0,0,0,0,0,0,0,0,-1,1175,1275,0,0
-42,-251,0,0,0,0,0,0,0,0,0,-1,1182,1275,0,0
-35,-251,0,0,0,0,0,0,0,0,0,-1,1189,1275,0,0
-28,-251,0,0,0,0,0,0,0,0,0,-1,1196,1275,0,0
-21,-251,0,0,0,0,0,0,0,0,0,-1,1203,1275,0,0
-14,-251,0,0,0,0,0,0,0,0,0,-1,1210,1275,0,0
-7,-251,0,0,0,0,0,0,0,0,0,-1,1217,1275,0,0
0,-251,0,0,0,0,0,0,0,0,0,-1,1224,1275,0,0
7,-251,0,0,0,0,0,0,0,0,0,-1,1231,1275,0,0
14,-251,0,0,0,0,0,0,0,0,0,-1,1238,1275,0,0
21,-251,0,0,0,0,0,0,0,0,0,-1,1245,1275,0,0
28,-251,0,0,0,0,0,0,0,0,0,-1,1252,1275,0,0
35,-251,0,0,0,0,0,0,0,0,0,-1,1259,1275,0,0
42,-251,0,0,0,0,0,0,0,0,0,-1,1266,1275,0,0
49,-251,0,0,0,0,0,0,0,0,0,-1,1273,1275,0,0
56,-251,0,0,0,0,0,0,0,0,0,-1,1280,1275,0,0
63,-251,0,0,0,0,0,0,0,0,0,-1,1287,1275,0,0
70,-251,0,0,0,0,0,0,0,0,0,-1,1294,1275,0,0
77,-251,0,0,0,0,0,0,0,0,0,-1,1301,1275,0,0
84,-251,0,0,0,0,0,0,0,0,0,-1,1308,1275,0,0
91,-251,0,0,0,0,0,0,0,0,0,-1,1315,1275,0,0
98,-251,0,0,0,0,0,0,0,0,0,-1,1322,1275,0,0
105,-251,0,0,0,0,0,0,0,0,0,-1,1329,1275,0,0
112,-251,0,0,0,0,0,0,0,0,0,-1,1336,1275,0,0
119,-251,0,0,0,0,0,0,0,0,0,-1,1343,1275,0,0
126,-251,0,0,0,0,0,0,0,0,0,-1,1350,1275,0,0
133,-251,0,0,0,0,0,0,0,0,0,-1,1357,1275,0,0
140,-251,0,0,0,0,0,0,0,0,0,-1,1364,1275,0,0
147,-251,0,0,0,0,0,0,0,0,0,-1,1371,1275,0,0
154,-251,0,0,0,0,0,0,0,0,0,-1,1378,1275,0,0
161,-251,0,0,0,0,0,0,0,0,0,-1,1385,1275,0,0
168,-251,0,0,0,0,0,0,0,0,0,-1,1392,1275,0,0
175,-251,0,0,0,0,0,0,0,0,0,-1,1399,1275,0,0
182,-251,0,0,0,0,0,0,0,0,0,-1,1406,1275,0,0
189,-251,0,0,0,0,0,0,0,0,0,-1,1413,1275,0,0
196,-251,0,0,0,0,0,0,0,0,0,-1,1420,1275,0,0
203,-251,0,0,0,0,0,0,0,0,0,-1,1427,1275,0,0
210,-251,0,0,0,0,0,0,0,0,0,-1,1434,1275,0,0
217,-251,0,0,0,0,0,0,0,0,0,-1,1441,1275,0,0
224,-251,0,0,0,0,0,0,0,0,0,-1,1448,1275,0,0
231,-251,0,0,0,0,0,0,0,0,0,-1,1455,1275,0,0
238,-251,0,0,0,0,0,0,0,0,0,-1,1462,1275,0,0
245,-251,0,0,0,0,0,0,0,0,0,-1,1469,1275,0,0
252,-251,0,0,0,0,0,0,0,0,0,-1,1476,1275,0,0
259,-251,0,0,0,0,0,0,0,0,0,-1,1483,1275,0,0
266,-251,0,0,0,0,0,0,0,0,0,-1,1490,1275,0,0
273,-251,0,0,0,0,0,0,0,0,0,-1,1497,1275,0,0
280,-251,0,0,0,0,0,0,0,0,0,-1,1504,1275,0,0
287,-251,0,0,0,0,0,0,0,0,0,-1,1511,1275,0,0
294,-251,0,0,0,0,0,0,0,0,0,-1,1518,1275,0,0
301,-251,0,0,0,0,0,0,0,0,0,-1,1525,1275,0,0
308,-251,0,0,0,0,0,0,0,0,0,-1,1532,1275,0,0
315,-251,0,0,0,0,0,0,0,0,0,-1,1539,1275,0,0
322,-251,0,0,0,0,0,0,0,0,0,-1,1546,1275,0,0
329,-251,0,0,0,0,0,0,0,0,0,-1,1553,1275,0,0
336,-251,0,0,0,0,0,0,0,0,0,-1,1560,1275,0,0
343,-251,0,0,0,0,0,0,0,0,0,-1,1567,1275,0,0
350,-251,0,0,0,0,0,0,0,0,0,-1,1574,1275,0,0
357,-251,0,0,0,0,0,0,0,0,0,-1,1581,1275,0,0
364,-251,0,0,0,0,0,0,0,0,0,-1,1588,1275,0,0
371,-251,0,0,0,0,0,0,0,0,0,-1,1595,1275,0,0
378,-251,0,0,0,0,0,0,0,0,0,-1,1602,1275,0,0
385,-251,0,0,0,0,0,0,0,0,0,-1,1609,1275,0,0
392,-251,0,0,0,0,0,0,0,0,0,-1,1616,1275,0,0
399,-251,0,0,0,0,0,0,0,0,0,-1,1623,1275,0,0
406,-251,0,0,0,0,0,0,0,0,0,-1,1630,1275,0,0
413,-251,0,0,0,0,0,0,0,0,0,-1,1637,1275,0,0
420,-251,0,0,0,0,0,0,0,0,0,-1,1644,1275,0,0
427,-251,0,0,0,0,0,0,0,0,0,-1,1651,1275,0,0
434,-251,0,0,0,0,0,0,0,0,0,-1,1658,1275,0,0
441,-251,0,0,0,0,0,0,0,0,0,-1,1665,1275,0,0
448,-251,0,0,0,0,0,0,0,0,0,-1,1672,1275,0,0
455,-251,0,0,0,0,0,0,0,0,0,-1,1679,1275,0,0
462,-251,0,0,0,0,0,0,0,0,0,-1,1686,1275,0,0
469,-251,0,0,0,0,0,0,0,0,0,-1,1693,1275,0,0
476,-251,0,0,0,0,0,0,0,0,0,-1,1700,1275,0,0
483,-251,0,0,0,0,0,0,0,0,0,-1,1707,1275,0,0
490,-251,0,0,0,0,0,0,0,0,0,-1,1714,1275,0,0
497,-251,0,0,0,0,0,0,0,0,0,-1,1721,1275,0,0
504,-251,0,0,0,0,0,0,0,0,0,-1,1728,1275,0,0
511,-251,0,0,0,0,0,0,0,0,0,-1,1735,1275,0,0
518,-251,0,0,0,0,0,0,0,0,0,-1,1742,1275,0,0
525,-251,0,0,0,0,0,0,0,0,0,-1,1749,1275,0,0
532,-251,0,0,0,0,0,0,0,0,0,-1,1756,1275,0,0
539,-251,0,0,0,0,0,0,0,0,0,-1,1763,1275,0,0
546,-251,0,0,0,0,0,0,0,0,0,-1,1770,1275,0,0
553,-251,0,0,0,0,0,0,0,0,0,-1,1777,1275,0,0
560,-251,0,0,0,0,0,0,0,0,0,-1,1784,1275,0,0
567,-251,0,0,0,0,0,0,0,0,0,-1,1791,1275,0,0
574,-251,0,0,0,0,0,0,0,0,0,-1,1798,1275,0,0
581,-251,0,0,0,0,0,0,0,0,0,-1,1805,1275,0,0
588,-251,0,0,0,0,0,0,0,0,0,-1,1812,1275,0,0
595,-251,0,0,0,0,0,0,0,0,0,-1,1819,1275,0,0
602,-251,0,0,0,0,0,0,0,0,0,-1,1826,1275,0,0
609,-251,23.5969,2.66846,0.00341597,0.005727,0.000946185,0.00606497,0.003078,1.22773,0.00350174,0.0313264,1833,1275,23.5969,-2.6684
616,-251,23.5752,2.68677,-0.00030684,0.00602129,-0.00367696,0.00770813,-0.00199369,-1.14068,0.00591637,0.0266914,1840,1275,23.5751,-2.68682
623,-251,23.5498,2.76416,-0.00279234,0.00650906,-0.00627353,0.00966773,-0.005951,-1.10436,0.00910219,0.0237694,1847,1275,23.5498,-2.76418
630,-251,23.6129,2.83203,-0.00481918,0.00652362,-0.00731884,0.0101113,-0.00840684,-1.11502,0.0107065,0.0351552,1854,1275,23.6129,-2.832
637,-251,23.5934,2.604,-0.00571887,0.00616768,-0.00699365,0.00940229,-0.00895348,-1.13759,0.0105988,0.0408204,1861,1275,23.5934,-2.60398
644,-251,23.2698,2.05322,-0.00568609,0.00556394,-0.00609985,0.00823645,-0.0083586,-1.15786,0.00958124,0.0452373,1868,1275,23.2698,-2.05324
651,-251,23.2452,1.36047,-0.00520401,0.00485938,-0.00504669,0.00695418,-0.00729882,-1.17735,0.00822978,0.0473185,1875,1275,23.2452,-1.36047
658,-251,23.0095,1.06091,0,0,0,0,0,0,0,-1,1882,1275,23.0095,-1.06094
665,-251,19.865,2.42078,0,0,0,0,0,0,0,-1,1889,1275,19.865,-2.42081
672,-251,18.2826,5.42896,0,0,0,0,0,0,0,-1,1896,1275,18.2827,-5.42892
679,-251,18.9875,6.05627,0,0,0,0,0,0,0,-1,1903,1275,18.9875,-6.05629
686,-251,19.0747,5.9032,-0.0024343,0.00164775,-0.000586807,0.00173043,-0.00251698,-1.43082,0.00246622,0.0294253,1910,1275,19.0747,-5.90314
693,-251,19.146,5.70105,-0.00105064,0.00100628,0.000394385,0.0010793,-0.00112366,1.38771,0.00127197,0.0100231,1917,1275,19.1459,-5.70104
700,-251,19.1503,5.4845,3.65785e-05,0.000187585,0.000999456,0.00111439,-0.000890223,0.823099,0.00115977,0.00840687,1924,1275,19.1503,-5.48449
707,-251,19.1475,5.2644,0.00274928,-0.000228608,0.000450092,0.00281582,-0.00029515,0.146778,0.00198293,0.0101525,1931,1275,19.1474,-5.26444
714,-251,19.161,5.06824,0.00559348,0.000502224,-0.000748094,0.00570113,0.000394578,-0.142914,0.00367629,0.0113363,1938,1275,19.1611,-5.06829
721,-251,19.1166,4.87512,0.0109155,0.00200764,-0.00261398,0.0116259,0.00129724,-0.265362,0.00735645,0.0133246,1945,1275,19.1166,-4.87515
728,-251,19.0863,4.66931,0.0199155,0.00694694,-0.00440646,0.021271,0.0055914,-0.298438,0.0127329,0.015083,1952,1275,19.0863,-4.66935
735,-251,19.1176,4.45972,0.0306565,0.0142484,-0.00508545,0.0321048,0.0128001,-0.277451,0.0186621,0.0148969,1959,1275,19.1176,-4.45976
742,-251,19.1499,4.3031,0.043277,0.0225648,-0.00622609,0.0450045,0.0208373,-0.27065,0.0260071,0.0148073,1966,1275,19.1499,-4.30306
749,-251,19.0958,4.11401,0.0583564,0.0338456,-0.00681519,0.0601239,0.0320781,-0.253756,0.0347385,0.0226118,1973,1275,19.0958,-4.11402
756,-251,19.2283,3.85046,0.0765811,0.0496121,-0.00647472,0.078055,0.0481382,-0.223825,0.0454725,0.0387659,1980,1275,19.2283,-3.8505
763,-251,23.479,-7.31091,0,0,0,0,0,0,0,-1,1987,1275,23.479,7.31094
770,-251,24.0012,-6.26965,0.120102,0.0966729,-0.000274844,0.120105,0.0966697,-0.0117288,0.0735141,0.0472853,1994,1275,24.0012,6.2697
777,-251,24.2944,-5.11414,0.143558,0.128899,0.00730667,0.146578,0.125879,0.391922,0.0916018,0.0495213,2001,1275,24.2944,5.11415
784,-251,25.0916,-3.21191,0.16619,0.167097,0.0193311,0.18598,0.147307,0.797126,0.113317,0.0484044,2008,1275,25.0916,3.21186
791,-251,0,0,0,0,0,0,0,0,0,-1,2015,1275,0,0
798,-251,0,0,0,0,0,0,0,0,0,-1,2022,1275,0,0
805,-251,0,0,0,0,0,0,0,0,0,-1,2029,1275,0,0
812,-251,0,0,0,0,0,0,0,0,0,-1,2036,1275,0,0
-700,-258,0,0,0,0,0,0,0,0,0,-1,524,1282,0,0
-693,-258,0,0,0,0,0,0,0,0,0,-1,531,1282,0,0
-686,-258,0,0,0,0,0,0,0,0,0,-1,538,1282,0,0
-679,-258,0,0,0,0,0,0,0,0,0,-1,545,1282,0,0
-672,-258,0,0,0,0,0,0,0,0,0,-1,552,1282,0,0
-665,-258,-9.97461,1.95618,0,0,0,0,0,0,0,-1,559,1282,-9.97459,-1.95612
-658,-258,-8.9325,1.86438,0,0,0,0,0,0,0,-1,566,1282,-8.93252,-1.8644
-651,-258,-8.41473,0.669556,0,0,0,0,0,0,0,-1,573,1282,-8.41476,-0.669548
-644,-258,-8.53717,0.824341,0,0,0,0,0,0,0,-1,580,1282,-8.53717,-0.824366
-637,-258,-8.98773,0.946289,-0.0129717,0.0344487,-0.0302466,0.0491707,-0.0276937,-1.11782,0.0449514,0.0455937,587,1282,-8.98775,-0.946314
-630,-258,-9.4649,1.04773,-0.00828008,0.0325386,-0.0180287,0.0393611,-0.0151026,-1.20903,0.0324677,0.0470093,594,1282,-9.46492,-1.04775
-623,-258,-10.056,1.32959,-0.00501173,0.0289805,-0.00957,0.0314896,-0.00752081,-1.31439,0.0238978,0.0460271,601,1282,-10.056,-1.32963
-616,-258,-10.5562,1.71619,-0.00270415,0.0245406,-0.0040161,0.0251203,-0.00328382,-1.42745,0.0179419,0.0320774,608,1282,-10.5561,-1.71624
-609,-258,-10.5927,1.93384,-0.000908013,0.0197785,-0.000559646,0.0197936,-0.000923143,-1.54377,0.013514,0.0174345,615,1282,-10.5927,-1.93389
-602,-258,-10.5857,2.16248,0.00126059,0.0153467,0.00214161,0.0156651,0.000942183,1.4232,0.0101439,0.0137536,622,1282,-10.5857,-2.16247
-595,-258,-10.6209,2.39185,0.00221704,0.0110585,0.00383052,0.0124872,0.000788349,1.2138,0.00807484,0.0109526,629,1282,-10.6209,-2.3919
-588,-258,-10.6539,2.61475,0.00234023,0.0070132,0.00369513,0.00904858,0.000304859,1.06732,0.00593338,0.0120836,636,1282,-10.6539,-2.61479
-581,-258,-10.6547,2.86462,0.00254617,0.0038269,0.00193007,0.00522006,0.00115301,0.945574,0.00316647,0.0136003,643,1282,-10.6547,-2.86458
-574,-258,-10.6172,3.11145,0.00205173,0.00264777,0.00062263,0.00304003,0.00165947,1.00861,0.00175762,0.0138982,650,1282,-10.6173,-3.11145
-567,-258,-10.5994,3.33728,0.000573948,0.00255074,-0.000627169,0.00273293,0.00039176,-1.28808,0.00170642,0.0137031,657,1282,-10.5994,-3.33728
-560,-258,-10.5985,3.57983,-0.00185001,0.00394017,-0.00174147,0.00442358,-0.00233342,-1.30003,0.00396288,0.0224389,664,1282,-10.5985,-3.57981
-553,-258,-10.576,3.76855,-0.00513528,0.00705475,-0.00329407,0.00788795,-0.00596847,-1.32305,0.00802555,0.0353781,671,1282,-10.576,-3.76854
-546,-258,-10.6981,3.65552,0,0,0,0,0,0,0,-1,678,1282,-10.6981,-3.65557
-539,-258,-10.2228,4.05823,0,0,0,0,0,0,0,-1,685,1282,-10.2228,-4.05823
-532,-258,-10.2173,-0.353882,0,0,0,0,0,0,0,-1,692,1282,-10.2173,0.353836
-525,-258,-14.5815,-0.285278,0,0,0,0,0,0,0,-1,699,1282,-14.5815,0.28528
-518,-258,-14.7004,0.549194,0,0,0,0,0,0,0,-1,706,1282,-14.7004,-0.549244
-511,-258,-13.8355,-0.587891,0,0,0,0,0,0,0,-1,713,1282,-13.8355,0.58787
-504,-258,-14.306,-0.358765,-0.0461906,0.0262059,-0.000939582,0.0262181,-0.0462028,-1.55782,0.0423395,0.0461521,720,1282,-14.306,0.358785
-497,-258,-14.9043,0.038208,-0.0504019,0.0276685,0.00185915,0.0277128,-0.0504461,1.547,0.0457569,0.0487157,727,1282,-14.9043,-0.0382629
-490,-258,-15.4346,0.632935,-0.0493098,0.0269805,0.00693859,0.0276064,-0.0499357,1.48083,0.0453835,0.0439008,734,1282,-15.4346,-0.632917
-483,-258,0,0,0,0,0,0,0,0,0,-1,741,1282,0,0
-476,-258,0,0,0,0,0,0,0,0,0,-1,748,1282,0,0
-469,-258,0,0,0,0,0,0,0,0,0,-1,755,1282,0,0
-462,-258,0,0,0,0,0,0,0,0,0,-1,762,1282,0,0
-455,-258,0,0,0,0,0,0,0,0,0,-1,769,1282,0,0
-448,-258,0,0,0,0,0,0,0,0,0,-1,776,1282,0,0
-441,-258,0,0,0,0,0,0,0,0,0,-1,783,1282,0,0
-434,-258,0,0,0,0,0,0,0,0,0,-1,790,1282,0,0
-427,-258,0,0,0,0,0,0,0,0,0,-1,797,1282,0,0
-420,-258,0,0,0,0,0,0,0,0,0,-1,804,1282,0,0
-413,-258,0,0,0,0,0,0,0,0,0,-1,811,1282,0,0
-406,-258,0,0,0,0,0,0,0,0,0,-1,818,1282,0,0
-399,-258,0,0,0,0,0,0,0,0,0,-1,825,1282,0,0
-392,-258,0,0,0,0,0,0,0,0,0,-1,832,1282,0,0
-385,-258,0,0,0,0,0,0,0,0,0,-1,839,1282,0,0
-378,-258,0,0,0,0,0,0,0,0,0,-1,846,1282,0,0
-371,-258,0,0,0,0,0,0,0,0,0,-1,853,1282,0,0
-364,-258,0,0,0,0,0,0,0,0,0,-1,860,1282,0,0
-357,-258,0,0,0,0,0,0,0,0,0,-1,867,1282,0,0
-350,-258,0,0,0,0,0,0,0,0,0,-1,874,1282,0,0
-343,-258,0,0,0,0,0,0,0,0,0,-1,881,1282,0,0
-336,-258,0,0,0,0,0,0,0,0,0,-1,888,1282,0,0
-329,-258,0,0,0,0,0,0,0,0,0,-1,895,1282,0,0
-322,-258,0,0,0,0,0,0,0,0,0,-1,902,1282,0,0
-315,-258,0,0,0,0,0,0,0,0,0,-1,909,1282,0,0
-308,-258,0,0,0,0,0,0,0,0,0,-1,916,1282,0,0
-301,-258,0,0,0,0,0,0,0,0,0,-1,923,1282,0,0
-294,-258,0,0,0,0,0,0,0,0,0,-1,930,1282,0,0
-287,-258,0,0,0,0,0,0,0,0,0,-1,937,1282,0,0
-280,-258,0,0,0,0,0,0,0,0,0,-1,944,1282,0,0
-273,-258,0,0,0,0,0,0,0,0,0,-1,951,1282,0,0
-266,-258,0,0,0,0,0,0,0,0,0,-1,958,1282,0,0
-259,-258,0,0,0,0,0,0,0,0,0,-1,965,1282,0,0
-252,-258,0,0,0,0,0,0,0,0,0,-1,972,1282,0,0
-245,-258,0,0,0,0,0,0,0,0,0,-1,979,1282,0,0
-238,-258,0,0,0,0,0,0,0,0,0,-1,986,1282,0,0
-231,-258,0,0,0,0,0,0,0,0,0,-1,993,1282,0,0
-224,-258,0,0,0,0,0,0,0,0,0,-1,1000,1282,0,0
-217,-258,0,0,0,0,0,0,0,0,0,-1,1007,1282,0,0
-210,-258,0,0,0,0,0,0,0,0,0,-1,1014,1282,0,0
-203,-258,0,0,0,0,0,0,0,0,0,-1,1021,1282,0,0
-196,-258,0,0,0,0,0,0,0,0,0,-1,1028,1282,0,0
-189,-258,0,0,0,0,0,0,0,0,0,-1,1035,1282,0,0
-182,-258,0,0,0,0,0,0,0,0,0,-1,1042,1282,0,0
-175,-258,0,0,0,0,0,0,0,0,0,-1,1049,1282,0,0
-168,-258,0,0,0,0,0,0,0,0,0,-1,1056,1282,0,0
-161,-258,0,0,0,0,0,0,0,0,0,-1,1063,1282,0,0
-154,-258,0,0,0,0,0,0,0,0,0,-1,1070,1282,0,0
-147,-258,0,0,0,0,0,0,0,0,0,-1,1077,1282,0,0
-140,-258,0,0,0,0,0,0,0,0,0,-1,1084,1282,0,0
-133,-258,0,0,0,0,0,0,0,0,0,-1,1091,1282,0,0
-126,-258,0,0,0,0,0,0,0,0,0,-1,1098,1282,0,0
-119,-258,0,0,0,0,0,0,0,0,0,-1,1105,1282,0,0
-112,-258,0,0,0,0,0,0,0,0,0,-1,1112,1282,0,0
-105,-258,0,0,0,0,0,0,0,0,0,-1,1119,1282,0,0
-98,-258,0,0,0,0,0,0,0,0,0,-1,1126,1282,0,0
-91,-258,0,0,0,0,0,0,0,0,0,-1,1133,1282,0,0
-84,-258,0,0,0,0,0,0,0,0,0,-1,1140,1282,0,0
-77,-258,0,0,0,0,0,0,0,0,0,-1,1147,1282,0,0
-70,-258,0,0,0,0,0,0,0,0,0,-1,1154,1282,0,0
-63,-258,0,0,0,0,0,0,0,0,0,-1,1161,1282,0,0
-56,-258,0,0,0,0,0,0,0,0,0,-1,1168,1282,0,0
-49,-258,0,0,0,0,0,0,0,0,0,-1,1175,1282,0,0
-42,-258,0,0,0,0,0,0,0,0,0,-1,1182,1282,0,0
-35,-258,0,0,0,0,0,0,0,0,0,-1,1189,1282,0,0
-28,-258,0,0,0,0,0,0,0,0,0,-1,1196,1282,0,0
-21,-258,0,0,0,0,0,0,0,0,0,-1,1203,1282,0,0
-14,-258,0,0,0,0,0,0,0,0,0,-1,1210,1282,0,0
-7,-258,0,0,0,0,0,0,0,0,0,-1,1217,1282,0,0
0,-258,0,0,0,0,0,0,0,0,0,-1,1224,1282,0,0
7,-258,0,0,0,0,0,0,0,0,0,-1,1231,1282,0,0
14,-258,0,0,0,0,0,0,0,0,0,-1,1238,1282,0,0
21,-258,0,0,0,0,0,0,0,0,0,-1,1245,1282,0,0
28,-258,0,0,0,0,0,0,0,0,0,-1,1252,1282,0,0
35,-258,0,0,0,0,0,0,0,0,0,-1,1259,1282,0,0
42,-258,0,0,0,0,0,0,0,0,0,-1,1266,1282,0,0
49,-258,0,0,0,0,0,0,0,0,0,-1,1273,1282,0,0
56,-258,0,0,0,0,0,0,0,0,0,-1,1280,1282,0,0
63,-258,0,0,0,0,0,0,0,0,0,-1,1287,1282,0,0
70,-258,0,0,0,0,0,0,0,0,0,-1,1294,1282,0,0
77,-258,0,0,0,0,0,0,0,0,0,-1,1301,1282,0,0
84,-258,0,0,0,0,0,0,0,0,0,-1,1308,1282,0,0
91,-258,0,0,0,0,0,0,0,0,0,-1,1315,1282,0,0
98,-258,0,0,0,0,0,0,0,0,0,-1,1322,1282,0,0
105,-258,0,0,0,0,0,0,0,0,0,-1,1329,1282,0,0
112,-258,0,0,0,0,0,0,0,0,0,-1,1336,1282,0,0
119,-258,0,0,0,0,0,0,0,0,0,-1,1343,1282,0,0
126,-258,0,0,0,0,0,0,0,0,0,-1,1350,1282,0,0
133,-258,0,0,0,0,0,0,0,0,0,-1,1357,1282,0,0
140,-258,0,0,0,0,0,0,0,0,0,-1,1364,1282,0,0
147,-258,0,0,0,0,0,0,0,0,0,-1,1371,1282,0,0
154,-258,0,0,0,0,0,0,0,0,0,-1,1378,1282,0,0
161,-258,0,0,0,0,0,0,0,0,0,-1,1385,1282,0,0
168,-258,0,0,0,0,0,0,0,0,0,-1,1392,1282,0,0
175,-258,0,0,0,0,0,0,0,0,0,-1,1399,1282,0,0
182,-258,0,0,0,0,0,0,0,0,0,-1,1406,1282,0,0
189,-258,0,0,0,0,0,0,0,0,0,-1,1413,1282,0,0
196,-258,0,0,0,0,0,0,0,0,0,-1,1420,1282,0,0
203,-258,0,0,0,0,0,0,0,0,0,-1,1427,1282,0,0
210,-258,0,0,0,0,0,0,0,0,0,-1,1434,1282,0,0
217,-258,0,0,0,0,0,0,0,0,0,-1,1441,1282,0,0
224,-258,0,0,0,0,0,0,0,0,0,-1,1448,1282,0,0
231,-258,0,0,0,0,0,0,0,0,0,-1,1455,1282,0,0
238,-258,0,0,0,0,0,0,0,0,0,-1,1462,1282,0,0
245,-258,0,0,0,0,0,0,0,0,0,-1,1469,1282,0,0
252,-258,0,0,0,0,0,0,0,0,0,-1,1476,1282,0,0
259,-258,0,0,0,0,0,0,0,0,0,-1,1483,1282,0,0
266,-258,0,0,0,0,0,0,0,0,0,-1,1490,1282,0,0
273,-258,0,0,0,0,0,0,0,0,0,-1,1497,1282,0,0
280,-258,0,0,0,0,0,0,0,0,0,-1,1504,1282,0,0
287,-258,0,0,0,0,0,0,0,0,0,-1,1511,1282,0,0
294,-258,0,0,0,0,0,0,0,0,0,-1,1518,1282,0,0
301,-258,0,0,0,0,0,0,0,0,0,-1,1525,1282,0,0
308,-258,0,0,0,0,0,0,0,0,0,-1,1532,1282,0,0
315,-258,0,0,0,0,0,0,0,0,0,-1,1539,1282,0,0
322,-258,0,0,0,0,0,0,0,0,0,-1,1546,1282,0,0
329,-258,0,0,0,0,0,0,0,0,0,-1,1553,1282,0,0
336,-258,0,0,0,0,0,0,0,0,0,-1,1560,1282,0,0
343,-258,0,0,0,0,0,0,0,0,0,-1,1567,1282,0,0
350,-258,0,0,0,0,0,0,0,0,0,-1,1574,1282,0,0
357,-258,0,0,0,0,0,0,0,0,0,-1,1581,1282,0,0
364,-258,0,0,0,0,0,0,0,0,0,-1,1588,1282,0,0
371,-258,0,0,0,0,0,0,0,0,0,-1,1595,1282,0,0
378,-258,0,0,0,0,0,0,0,0,0,-1,1602,1282,0,0
385,-258,0,0,0,0,0,0,0,0,0,-1,1609,1282,0,0
392,-258,0,0,0,0,0,0,0,0,0,-1,1616,1282,0,0
399,-258,0,0,0,0,0,0,0,0,0,-1,1623,1282,0,0
406,-258,0,0,0,0,0,0,0,0,0,-1,1630,1282,0,0
413,-258,0,0,0,0,0,0,0,0,0,-1,1637,1282,0,0
420,-258,0,0,0,0,0,0,0,0,0,-1,1644,1282,0,0
427,-258,0,0,0,0,0,0,0,0,0,-1,1651,1282,0,0
434,-258,0,0,0,0,0,0,0,0,0,-1,1658,1282,0,0
441,-258,0,0,0,0,0,0,0,0,0,-1,1665,1282,0,0
448,-258,0,0,0,0,0,0,0,0,0,-1,1672,1282,0,0
455,-258,0,0,0,0,0,0,0,0,0,-1,1679,1282,0,0
462,-258,0,0,0,0,0,0,0,0,0,-1,1686,1282,0,0
469,-258,0,0,0,0,0,0,0,0,0,-1,1693,1282,0,0
476,-258,0,0,0,0,0,0,0,0,0,-1,1700,1282,0,0
483,-258,0,0,0,0,0,0,0,0,0,-1,1707,1282,0,0
490,-258,0,0,0,0,0,0,0,0,0,-1,1714,1282,0,0
497,-258,0,0,0,0,0,0,0,0,0,-1,1721,1282,0,0
504,-258,0,0,0,0,0,0,0,0,0,-1,1728,1282,0,0
511,-258,0,0,0,0,0,0,0,0,0,-1,1735,1282,0,0
518,-258,0,0,0,0,0,0,0,0,0,-1,1742,1282,0,0
525,-258,0,0,0,0,0,0,0,0,0,-1,1749,1282,0,0
532,-258,0,0,0,0,0,0,0,0,0,-1,1756,1282,0,0
539,-258,0,0,0,0,0,0,0,0,0,-1,1763,1282,0,0
546,-258,0,0,0,0,0,0,0,0,0,-1,1770,1282,0,0
553,-258,0,0,0,0,0,0,0,0,0,-1,1777,1282,0,0
560,-258,0,0,0,0,0,0,0,0,0,-1,1784,1282,0,0
567,-258,0,0,0,0,0,0,0,0,0,-1,1791,1282,0,0
574,-258,0,0,0,0,0,0,0,0,0,-1,1798,1282,0,0
581,-258,0,0,0,0,0,0,0,0,0,-1,1805,1282,0,0
588,-258,0,0,0,0,0,0,0,0,0,-1,1812,1282,0,0
595,-258,0,0,0,0,0,0,0,0,0,-1,1819,1282,0,0
602,-258,0,0,0,0,0,0,0,0,0,-1,1826,1282,0,0
609,-258,23.5823,2.7511,0.0031076,0.010261,-0.000456333,0.01029,0.00307861,-1.50735,0.00609857,0.026093,1833,1282,23.5823,-2.7511
616,-258,23.5295,2.74475,-0.000965904,0.00897842,-0.00448477,0.0107022,-0.00268967,-1.20384,0.0081801,0.0250725,1840,1282,23.5295,-2.74471
623,-258,23.5159,2.76807,-0.00403039,0.00799931,-0.00643001,0.0107892,-0.00682028,-1.16142,0.0102526,0.034578,1847,1282,23.5159,-2.76803
630,-258,23.6208,2.54846,-0.00630361,0.00693918,-0.00688984,0.00987355,-0.00923798,-1.16816,0.0110361,0.0430183,1854,1282,23.6209,-2.54843
637,-258,23.5973,2.3313,-0.00725108,0.00598081,-0.00631593,0.00851155,-0.00978181,-1.1897,0.0105702,0.0441398,1861,1282,23.5973,-2.3313
644,-258,23.3214,2.02209,-0.00723566,0.00507766,-0.00540477,0.00711344,-0.00927144,-1.21057,0.00948712,0.0497527,1868,1282,23.3214,-2.0221
651,-258,23.4293,1.10864,0,0,0,0,0,0,0,-1,1875,1282,23.4294,-1.10864
658,-258,20.4335,2.62952,0,0,0,0,0,0,0,-1,1882,1282,20.4335,-2.62955
665,-258,19.6635,2.51111,0,0,0,0,0,0,0,-1,1889,1282,19.6634,-2.51109
672,-258,19.3839,6.04443,0,0,0,0,0,0,0,-1,1896,1282,19.3839,-6.04446
679,-258,19.0077,6.0896,-0.00462678,0.00181196,-0.00111081,0.00199821,-0.00481303,-1.40467,0.00404286,0.0465638,1903,1282,19.0077,-6.08956
686,-258,18.8931,5.94495,-0.0036546,0.00124357,-3.2929e-05,0.00124379,-0.00365482,-1.56407,0.00294018,0.0285251,1910,1282,18.893,-5.94492
693,-258,18.9678,5.69287,-0.0018905,0.000741734,0.000907409,0.00102423,-0.00217299,1.26899,0.00188521,0.0100791,1917,1282,18.9678,-5.69286
700,-258,18.9611,5.46143,-0.000433981,8.40649e-05,0.00136351,0.00121294,-0.00156286,0.879263,0.00160685,0.00829391,1924,1282,18.9611,-5.46142
707,-258,18.9524,5.26563,0.00316497,-6.99279e-05,0.000486802,0.00323663,-0.000141596,0.146173,0.00220647,0.00965717,1931,1282,18.9525,-5.26564
714,-258,18.9589,5.07092,0.00705714,0.00105705,-0.000936458,0.0071999,0.000914286,-0.151282,0.00452606,0.00988307,1938,1282,18.9588,-5.07097
721,-258,18.9462,4.87549,0.0134691,0.00296835,-0.00290698,0.0142202,0.00221731,-0.252828,0.00883426,0.0118538,1945,1282,18.9461,-4.87546
728,-258,18.9227,4.67932,0.0233678,0.00816764,-0.00468904,0.0246979,0.00683753,-0.276404,0.0147251,0.0117574,1952,1282,18.9227,-4.67937
735,-258,18.9331,4.4939,0.0351301,0.0156715,-0.00541433,0.0365351,0.0142664,-0.25391,0.0212616,0.0147964,1959,1282,18.9331,-4.49394
742,-258,18.9479,4.33252,0.0491575,0.0245401,-0.00654325,0.0507886,0.022909,-0.244302,0.0293696,0.0160899,1966,1282,18.9479,-4.3325
749,-258,18.9055,4.17456,0.0662125,0.0369524,-0.00706481,0.067829,0.0353359,-0.224936,0.0391726,0.0274167,1973,1282,18.9056,-4.1746
756,-258,19.1892,3.95825,0.0866164,0.0543116,-0.00647091,0.0878643,0.0530636,-0.190519,0.0510925,0.0409412,1980,1282,19.1892,-3.95827
763,-258,24.1429,-8.77393,0,0,0,0,0,0,0,-1,1987,1282,24.143,8.77394
770,-258,24.7484,-7.77454,0,0,0,0,0,0,0,-1,1994,1282,24.7484,7.77451
777,-258,25.1394,-6.48132,0,0,0,0,0,0,0,-1,2001,1282,25.1394,6.48138
784,-258,26.0251,-4.15137,0,0,0,0,0,0,0,-1,2008,1282,26.0252,4.15135
791,-258,0,0,0,0,0,0,0,0,0,-1,2015,1282,0,0
798,-258,0,0,0,0,0,0,0,0,0,-1,2022,1282,0,0
805,-258,0,0,0,0,0,0,0,0,0,-1,2029,1282,0,0
812,-258,0,0,0,0,0,0,0,0,0,-1,2036,1282,0,0
-700,-265,0,0,0,0,0,0,0,0,0,-1,524,1289,0,0
-693,-265,0,0,0,0,0,0,0,0,0,-1,531,1289,0,0
-686,-265,0,0,0,0,0,0,0,0,0,-1,538,1289,0,0
-679,-265,0,0,0,0,0,0,0,0,0,-1,545,1289,0,0
-672,-265,0,0,0,0,0,0,0,0,0,-1,552,1289,0,0
-665,-265,-9.15424,2.29919,0,0,0,0,0,0,0,-1,559,1289,-9.15421,-2.29917
-658,-265,-8.76349,1.78149,0,0,0,0,0,0,0,-1,566,1289,-8.76351,-1.7815
-651,-265,-8.51941,1.88477,0,0,0,0,0,0,0,-1,573,1289,-8.5194,-1.88477
-644,-265,-8.71112,1.17676,-0.0263352,0.0479066,-0.0458616,0.0697878,-0.0482164,-1.12563,0.0685082,0.0481834,580,1289,-8.71112,-1.1768
-637,-265,-8.86444,0.926392,-0.0187538,0.0479247,-0.0283992,0.0583806,-0.0292098,-1.21802,0.0514967,0.0460424,587,1289,-8.86443,-0.926412
-630,-265,-9.23767,0.959351,-0.0129816,0.0446887,-0.0160052,0.0488329,-0.0171257,-1.31744,0.0395206,0.0467709,594,1289,-9.23766,-0.959309
-623,-265,-9.74573,1.12732,-0.00864115,0.039463,-0.00758217,0.0406298,-0.00980795,-1.41811,0.0308795,0.0460942,601,1289,-9.74575,-1.12726
-616,-265,-10.2612,1.6554,-0.0053666,0.0332308,-0.00218441,0.033354,-0.00548984,-1.51444,0.0242738,0.0385241,608,1289,-10.2612,-1.65543
-609,-265,-10.3518,1.92554,-0.00280669,0.0267339,0.00102016,0.0267691,-0.00284188,1.53632,0.0188648,0.0175609,615,1289,-10.3518,-1.92559
-602,-265,-10.354,2.16479,-0.000126708,0.0208513,0.0034792,0.0214133,-0.00068868,1.41066,0.0145105,0.0139373,622,1289,-10.354,-2.16476
-595,-265,-10.3634,2.41736,0.00129677,0.015089,0.00486764,0.0166339,-0.000248102,1.26347,0.0111729,0.011187,629,1289,-10.3634,-2.41738
-588,-265,-10.3815,2.65234,0.00181805,0.00980165,0.00453659,0.0118526,-0.000232931,1.1462,0.00798053,0.0101945,636,1289,-10.3815,-2.65232
-581,-265,-10.3876,2.88879,0.00243511,0.00531494,0.00269639,0.00693179,0.000818249,1.03064,0.00437403,0.0116949,643,1289,-10.3877,-2.88882
-574,-265,-10.4015,3.14929,0.00231713,0.00306695,0.001254,0.00400088,0.00138319,0.930654,0.00234628,0.0133342,650,1289,-10.4015,-3.14932
-567,-265,-10.4274,3.39197,0.00107404,0.00229035,-0.000242939,0.00233708,0.00102732,-1.38077,0.00135259,0.018473,657,1289,-10.4274,-3.39199
-560,-265,-10.4366,3.62427,-0.00131731,0.00355077,-0.00149162,0.00397146,-0.001738,-1.2959,0.00337938,0.0198749,664,1289,-10.4367,-3.62427
-553,-265,-10.3594,3.89832,-0.00495227,0.00649565,-0.00316201,0.00731096,-0.00576757,-1.31845,0.0075684,0.0265343,671,1289,-10.3594,-3.89836
-546,-265,-10.3237,4.1521,-0.0105204,0.00917695,-0.00327043,0.00970576,-0.0110492,-1.41049,0.0119913,0.0379406,678,1289,-10.3237,-4.15216
-539,-265,-10.35,4.39551,0,0,0,0,0,0,0,-1,685,1289,-10.35,-4.39557
-532,-265,-8.53998,3.41467,0,0,0,0,0,0,0,-1,692,1289,-8.53996,-3.41473
-525,-265,-12.1317,0.514648,0,0,0,0,0,0,0,-1,699,1289,-12.1317,-0.514634
-518,-265,-14.6229,0.321533,0,0,0,0,0,0,0,-1,706,1289,-14.6229,-0.321571
-511,-265,-13.1094,-1.38953,0,0,0,0,0,0,0,-1,713,1289,-13.1095,1.38957
-504,-265,-13.6251,-1.08972,0,0,0,0,0,0,0,-1,720,1289,-13.6251,1.08973
-497,-265,-14.4535,-0.0441895,-0.0536895,0.0263635,0.000634896,0.0263685,-0.0536945,1.56287,0.0471133,0.0476365,727,1289,-14.4535,0.0442016
-490,-265,-15.1696,0.492676,-0.0546122,0.0271703,0.005055,0.0274815,-0.0549234,1.5093,0.0484479,0.0439082,734,1289,-15.1696,-0.492688
-483,-265,0,0,0,0,0,0,0,0,0,-1,741,1289,0,0
-476,-265,0,0,0,0,0,0,0,0,0,-1,748,1289,0,0
-469,-265,0,0,0,0,0,0,0,0,0,-1,755,1289,0,0
-462,-265,0,0,0,0,0,0,0,0,0,-1,762,1289,0,0
-455,-265,0,0,0,0,0,0,0,0,0,-1,769,1289,0,0
-448,-265,0,0,0,0,0,0,0,0,0,-1,776,1289,0,0
-441,-265,0,0,0,0,0,0,0,0,0,-1,783,1289,0,0
-434,-265,0,0,0,0,0,0,0,0,0,-1,790,1289,0,0
-427,-265,0,0,0,0,0,0,0,0,0,-1,797,1289,0,0
-420,-265,0,0,0,0,0,0,0,0,0,-1,804,1289,0,0
-413,-265,0,0,0,0,0,0,0,0,0,-1,811,1289,0,0
-406,-265,0,0,0,0,0,0,0,0,0,-1,818,1289,0,0
-399,-265,0,0,0,0,0,0,0,0,0,-1,825,1289,0,0
-392,-265,0,0,0,0,0,0,0,0,0,-1,832,1289,0,0
-385,-265,0,0,0,0,0,0,0,0,0,-1,839,1289,0,0
-378,-265,0,0,0,0,0,0,0,0,0,-1,846,1289,0,0
-371,-265,0,0,0,0,0,0,0,0,0,-1,853,1289,0,0
-364,-265,0,0,0,0,0,0,0,0,0,-1,860,1289,0,0
-357,-265,0,0,0,0,0,0,0,0,0,-1,867,1289,0,0
-350,-265,0,0,0,0,0,0,0,0,0,-1,874,1289,0,0
-343,-265,0,0,0,0,0,0,0,0,0,-1,881,1289,0,0
-336,-265,0,0,0,0,0,0,0,0,0,-1,888,1289,0,0
-329,-265,0,0,0,0,0,0,0,0,0,-1,895,1289,0,0
-322,-265,0,0,0,0,0,0,0,0,0,-1,902,1289,0,0
-315,-265,0,0,0,0,0,0,0,0,0,-1,909,1289,0,0
-308,-265,0,0,0,0,0,0,0,0,0,-1,916,1289,0,0
-301,-265,0,0,0,0,0,0,0,0,0,-1,923,1289,0,0
-294,-265,0,0,0,0,0,0,0,0,0,-1,930,1289,0,0
-287,-265,0,0,0,0,0,0,0,0,0,-1,937,1289,0,0
-280,-265,0,0,0,0,0,0,0,0,0,-1,944,1289,0,0
-273,-265,0,0,0,0,0,0,0,0,0,-1,951,1289,0,0
-266,-265,0,0,0,0,0,0,0,0,0,-1,958,1289,0,0
-259,-265,0,0,0,0,0,0,0,0,0,-1,965,1289,0,0
-252,-265,0,0,0,0,0,0,0,0,0,-1,972,1289,0,0
-245,-265,0,0,0,0,0,0,0,0,0,-1,979,1289,0,0
-238,-265,0,0,0,0,0,0,0,0,0,-1,986,1289,0,0
-231,-265,0,0,0,0,0,0,0,0,0,-1,993,1289,0,0
-224,-265,0,0,0,0,0,0,0,0,0,-1,1000,1289,0,0
-217,-265,0,0,0,0,0,0,0,0,0,-1,1007,1289,0,0
-210,-265,0,0,0,0,0,0,0,0,0,-1,1014,1289,0,0
-203,-265,0,0,0,0,0,0,0,0,0,-1,1021,1289,0,0
-196,-265,0,0,0,0,0,0,0,0,0,-1,1028,1289,0,0
-189,-265,0,0,0,0,0,0,0,0,0,-1,1035,1289,0,0
-182,-265,0,0,0,0,0,0,0,0,0,-1,1042,1289,0,0
-175,-265,0,0,0,0,0,0,0,0,0,-1,1049,1289,0,0
-168,-265,0,0,0,0,0,0,0,0,0,-1,1056,1289,0,0
-161,-265,0,0,0,0,0,0,0,0,0,-1,1063,1289,0,0
-154,-265,0,0,0,0,0,0,0,0,0,-1,1070,1289,0,0
-147,-265,0,0,0,0,0,0,0,0,0,-1,1077,1289,0,0
-140,-265,0,0,0,0,0,0,0,0,0,-1,1084,1289,0,0
-133,-265,0,0,0,0,0,0,0,0,0,-1,1091,1289,0,0
-126,-265,0,0,0,0,0,0,0,0,0,-1,1098,1289,0,0
-119,-265,0,0,0,0,0,0,0,0,0,-1,1105,1289,0,0
-112,-265,0,0,0,0,0,0,0,0,0,-1,1112,1289,0,0
-105,-265,0,0,0,0,0,0,0,0,0,-1,1119,1289,0,0
-98,-265,0,0,0,0,0,0,0,0,0,-1,1126,1289,0,0
-91,-265,0,0,0,0,0,0,0,0,0,-1,1133,1289,0,0
-84,-265,0,0,0,0,0,0,0,0,0,-1,1140,1289,0,0
-77,-265,0,0,0,0,0,0,0,0,0,-1,1147,1289,0,0
-70,-265,0,0,0,0,0,0,0,0,0,-1,1154,1289,0,0
-63,-265,0,0,0,0,0,0,0,0,0,-1,1161,1289,0,0
-56,-265,0,0,0,0,0,0,0,0,0,-1,1168,1289,0,0
-49,-265,0,0,0,0,0,0,0,0,0,-1,1175,1289,0,0
-42,-265,0,0,0,0,0,0,0,0,0,-1,1182,1289,0,0
-35,-265,0,0,0,0,0,0,0,0,0,-1,1189,1289,0,0
-28,-265,0,0,0,0,0,0,0,0,0,-1,1196,1289,0,0
-21,-265,0,0,0,0,0,0,0,0,0,-1,1203,1289,0,0
-14,-265,0,0,0,0,0,0,0,0,0,-1,1210,1289,0,0
-7,-265,0,0,0,0,0,0,0,0,0,-1,1217,1289,0,0
0,-265,0,0,0,0,0,0,0,0,0,-1,1224,1289,0,0
7,-265,0,0,0,0,0,0,0,0,0,-1,1231,1289,0,0
14,-265,0,0,0,0,0,0,0,0,0,-1,1238,1289,0,0
21,-265,0,0,0,0,0,0,0,0,0,-1,1245,1289,0,0
28,-265,0,0,0,0,0,0,0,0,0,-1,1252,1289,0,0
35,-265,0,0,0,0,0,0,0,0,0,-1,1259,1289,0,0
42,-265,0,0,0,0,0,0,0,0,0,-1,1266,1289,0,0
49,-265,0,0,0,0,0,0,0,0,0,-1,1273,1289,0,0
56,-265,0,0,0,0,0,0,0,0,0,-1,1280,1289,0,0
63,-265,0,0,0,0,0,0,0,0,0,-1,1287,1289,0,0
70,-265,0,0,0,0,0,0,0,0,0,-1,1294,1289,0,0
77,-265,0,0,0,0,0,0,0,0,0,-1,1301,1289,0,0
84,-265,0,0,0,0,0,0,0,0,0,-1,1308,1289,0,0
91,-265,0,0,0,0,0,0,0,0,0,-1,1315,1289,0,0
98,-265,0,0,0,0,0,0,0,0,0,-1,1322,1289,0,0
105,-265,0,0,0,0,0,0,0,0,0,-1,1329,1289,0,0
112,-265,0,0,0,0,0,0,0,0,0,-1,1336,1289,0,0
119,-265,0,0,0,0,0,0,0,0,0,-1,1343,1289,0,0
126,-265,0,0,0,0,0,0,0,0,0,-1,1350,1289,0,0
133,-265,0,0,0,0,0,0,0,0,0,-1,1357,1289,0,0
140,-265,0,0,0,0,0,0,0,0,0,-1,1364,1289,0,0
147,-265,0,0,0,0,0,0,0,0,0,-1,1371,1289,0,0
154,-265,0,0,0,0,0,0,0,0,0,-1,1378,1289,0,0
161,-265,0,0,0,0,0,0,0,0,0,-1,1385,1289,0,0
168,-265,0,0,0,0,0,0,0,0,0,-1,1392,1289,0,0
175,-265,0,0,0,0,0,0,0,0,0,-1,1399,1289,0,0
182,-265,0,0,0,0,0,0,0,0,0,-1,1406,1289,0,0
189,-265,0,0,0,0,0,0,0,0,0,-1,1413,1289,0,0
196,-265,0,0,0,0,0,0,0,0,0,-1,1420,1289,0,0
203,-265,0,0,0,0,0,0,0,0,0,-1,1427,1289,0,0
210,-265,0,0,0,0,0,0,0,0,0,-1,1434,1289,0,0
217,-265,0,0,0,0,0,0,0,0,0,-1,1441,1289,0,0
224,-265,0,0,0,0,0,0,0,0,0,-1,1448,1289,0,0
231,-265,0,0,0,0,0,0,0,0,0,-1,1455,1289,0,0
238,-265,0,0,0,0,0,0,0,0,0,-1,1462,1289,0,0
245,-265,0,0,0,0,0,0,0,0,0,-1,1469,1289,0,0
252,-265,0,0,0,0,0,0,0,0,0,-1,1476,1289,0,0
259,-265,0,0,0,0,0,0,0,0,0,-1,1483,1289,0,0
266,-265,0,0,0,0,0,0,0,0,0,-1,1490,1289,0,0
273,-265,0,0,0,0,0,0,0,0,0,-1,1497,1289,0,0
280,-265,0,0,0,0,0,0,0,0,0,-1,1504,1289,0,0
287,-265,0,0,0,0,0,0,0,0,0,-1,1511,1289,0,0
294,-265,0,0,0,0,0,0,0,0,0,-1,1518,1289,0,0
301,-265,0,0,0,0,0,0,0,0,0,-1,1525,1289,0,0
308,-265,0,0,0,0,0,0,0,0,0,-1,1532,1289,0,0
315,-265,0,0,0,0,0,0,0,0,0,-1,1539,1289,0,0
322,-265,0,0,0,0,0,0,0,0,0,-1,1546,1289,0,0
329,-265,0,0,0,0,0,0,0,0,0,-1,1553,1289,0,0
336,-265,0,0,0,0,0,0,0,0,0,-1,1560,1289,0,0
343,-265,0,0,0,0,0,0,0,0,0,-1,1567,1289,0,0
350,-265,0,0,0,0,0,0,0,0,0,-1,1574,1289,0,0
357,-265,0,0,0,0,0,0,0,0,0,-1,1581,1289,0,0
364,-265,0,0,0,0,0,0,0,0,0,-1,1588,1289,0,0
371,-265,0,0,0,0,0,0,0,0,0,-1,1595,1289,0,0
378,-265,0,0,0,0,0,0,0,0,0,-1,1602,1289,0,0
385,-265,0,0,0,0,0,0,0,0,0,-1,1609,1289,0,0
392,-265,0,0,0,0,0,0,0,0,0,-1,1616,1289,0,0
399,-265,0,0,0,0,0,0,0,0,0,-1,1623,1289,0,0
406,-265,0,0,0,0,0,0,0,0,0,-1,1630,1289,0,0
413,-265,0,0,0,0,0,0,0,0,0,-1,1637,1289,0,0
420,-265,0,0,0,0,0,0,0,0,0,-1,1644,1289,0,0
427,-265,0,0,0,0,0,0,0,0,0,-1,1651,1289,0,0
434,-265,0,0,0,0,0,0,0,0,0,-1,1658,1289,0,0
441,-265,0,0,0,0,0,0,0,0,0,-1,1665,1289,0,0
448,-265,0,0,0,0,0,0,0,0,0,-1,1672,1289,0,0
455,-265,0,0,0,0,0,0,0,0,0,-1,1679,1289,0,0
462,-265,0,0,0,0,0,0,0,0,0,-1,1686,1289,0,0
469,-265,0,0,0,0,0,0,0,0,0,-1,1693,1289,0,0
476,-265,0,0,0,0,0,0,0,0,0,-1,1700,1289,0,0
483,-265,0,0,0,0,0,0,0,0,0,-1,1707,1289,0,0
490,-265,0,0,0,0,0,0,0,0,0,-1,1714,1289,0,0
497,-265,0,0,0,0,0,0,0,0,0,-1,1721,1289,0,0
504,-265,0,0,0,0,0,0,0,0,0,-1,1728,1289,0,0
511,-265,0,0,0,0,0,0,0,0,0,-1,1735,1289,0,0
518,-265,0,0,0,0,0,0,0,0,0,-1,1742,1289,0,0
525,-265,0,0,0,0,0,0,0,0,0,-1,1749,1289,0,0
532,-265,0,0,0,0,0,0,0,0,0,-1,1756,1289,0,0
539,-265,0,0,0,0,0,0,0,0,0,-1,1763,1289,0,0
546,-265,0,0,0,0,0,0,0,0,0,-1,1770,1289,0,0
553,-265,0,0,0,0,0,0,0,0,0,-1,1777,1289,0,0
560,-265,0,0,0,0,0,0,0,0,0,-1,1784,1289,0,0
567,-265,0,0,0,0,0,0,0,0,0,-1,1791,1289,0,0
574,-265,0,0,0,0,0,0,0,0,0,-1,1798,1289,0,0
581,-265,0,0,0,0,0,0,0,0,0,-1,1805,1289,0,0
588,-265,0,0,0,0,0,0,0,0,0,-1,1812,1289,0,0
595,-265,0,0,0,0,0,0,0,0,0,-1,1819,1289,0,0
602,-265,23.5905,2.77771,0.00796996,0.0154309,0.00492173,0.0178762,0.00552469,1.10969,0.0105687,0.0260466,1826,1289,23.5905,-2.77768
609,-265,23.5613,2.74854,0.0030275,0.0137318,-0.000781779,0.0137886,0.0029707,-1.49827,0.00837956,0.0294526,1833,1289,23.5612,-2.74851
616,-265,23.5303,2.77454,-0.00139552,0.0108212,-0.00406216,0.0120486,-0.00262291,-1.27737,0.00903451,0.0352771,1840,1289,23.5302,-2.77454
623,-265,23.5702,2.65161,-0.00497469,0.00840893,-0.00537167,0.0102982,-0.00686398,-1.2326,0.0099745,0.0430274,1847,1289,23.5702,-2.65166
630,-265,23.6932,2.42322,-0.00741065,0.00649024,-0.00548784,0.00839558,-0.00931599,-1.23662,0.0102304,0.0418496,1854,1289,23.6932,-2.4232
637,-265,23.5958,2.1731,-0.00842384,0.00509722,-0.00493541,0.00670706,-0.0100337,-1.2555,0.00972867,0.0454471,1861,1289,23.5958,-2.17308
644,-265,23.3618,1.95703,-0.0084924,0.00399016,-0.00415869,0.00524877,-0.00975101,-1.27691,0.0087892,0.0486166,1868,1289,23.3618,-1.95709
651,-265,23.0597,1.42712,0,0,0,0,0,0,0,-1,1875,1289,23.0597,-1.42707
658,-265,22.031,2.80542,0,0,0,0,0,0,0,-1,1882,1289,22.031,-2.80543
665,-265,18.2394,2.09839,0,0,0,0,0,0,0,-1,1889,1289,18.2394,-2.09836
672,-265,18.7327,5.97083,0,0,0,0,0,0,0,-1,1896,1289,18.7327,-5.97077
679,-265,18.7219,6.01221,-0.00601684,0.000890946,-0.000336071,0.000907258,-0.00603316,-1.5223,0.00435613,0.0424888,1903,1289,18.7219,-6.01215
686,-265,18.7332,5.91675,-0.00479353,0.000487053,0.000713959,0.000581881,-0.00488836,1.43875,0.00346917,0.016632,1910,1289,18.7331,-5.91675
693,-265,18.7649,5.70056,-0.00262794,0.000254053,0.00148841,0.000884732,-0.00325862,1.17,0.00251964,0.00990309,1917,1289,18.7648,-5.70062
700,-265,18.7566,5.48596,-0.000707965,-9.0076e-05,0.00166666,0.00129603,-0.00209408,0.877042,0.00197528,0.00977281,1924,1289,18.7566,-5.48595
707,-265,18.7751,5.27087,0.00388808,0.000162238,0.000390962,0.00392866,0.000121656,0.103432,0.00257951,0.00995979,1931,1289,18.7752,-5.27091
714,-265,18.7515,5.07397,0.00874587,0.00179267,-0.001229,0.00895671,0.00158183,-0.169897,0.00551994,0.00983526,1938,1289,18.7514,-5.07398
721,-265,18.7373,4.89038,0.0160245,0.00412319,-0.00327159,0.0168646,0.00328314,-0.251339,0.0103242,0.00927616,1945,1289,18.7374,-4.89037
728,-265,18.7352,4.69568,0.0265284,0.00943359,-0.00511252,0.0279407,0.00802128,-0.269524,0.016612,0.0123104,1952,1289,18.7353,-4.69564
735,-265,18.7185,4.49817,0.0390968,0.0170033,-0.00604416,0.0406422,0.0154579,-0.250324,0.0236877,0.016605,1959,1289,18.7186,-4.49818
742,-265,18.7386,4.30579,0.0543321,0.0263133,-0.00736438,0.0561498,0.0244956,-0.241988,0.0325058,0.0201203,1966,1289,18.7387,-4.30578
749,-265,18.8868,4.17676,0.0730718,0.0396716,-0.00807925,0.0749235,0.03782,-0.225296,0.0432578,0.0389786,1973,1289,18.8868,-4.17671
756,-265,19.3114,3.98718,0.0952799,0.0583618,-0.00756124,0.0967685,0.0568732,-0.194387,0.0561552,0.0431467,1980,1289,19.3114,-3.98715
763,-265,19.8179,3.53333,0,0,0,0,0,0,0,-1,1987,1289,19.8179,-3.53338
770,-265,25.5658,-9.08252,0,0,0,0,0,0,0,-1,1994,1289,25.5658,9.08255
777,-265,25.9467,-7.92969,0,0,0,0,0,0,0,-1,2001,1289,25.9466,7.9297
784,-265,0,0,0,0,0,0,0,0,0,-1,2008,1289,0,0
791,-265,0,0,0,0,0,0,0,0,0,-1,2015,1289,0,0
798,-265,0,0,0,0,0,0,0,0,0,-1,2022,1289,0,0
805,-265,0,0,0,0,0,0,0,0,0,-1,2029,1289,0,0
812,-265,0,0,0,0,0,0,0,0,0,-1,2036,1289,0,0
-700,-272,0,0,0,0,0,0,0,0,0,-1,524,1296,0,0
-693,-272,0,0,0,0,0,0,0,0,0,-1,531,1296,0,0
-686,-272,0,0,0,0,0,0,0,0,0,-1,538,1296,0,0
-679,-272,0,0,0,0,0,0,0,0,0,-1,545,1296,0,0
-672,-272,0,0,0,0,0,0,0,0,0,-1,552,1296,0,0
-665,-272,0,0,0,0,0,0,0,0,0,-1,559,1296,0,0
-658,-272,-8.40375,1.85242,-0.0560213,0.0492873,-0.0963668,0.106447,-0.113181,-1.03543,0.126822,0.0450658,566,1296,-8.40377,-1.85236
-651,-272,-8.47388,1.39905,-0.0426392,0.0617499,-0.0653016,0.093153,-0.0740424,-1.12255,0.0967402,0.0448516,573,1296,-8.47385,-1.39906
-644,-272,-8.65552,0.963867,-0.0320367,0.0662099,-0.0415362,0.0814167,-0.0472435,-1.21984,0.0751503,0.0486522,580,1296,-8.65549,-0.963918
-637,-272,-8.84583,0.672974,-0.0236152,0.0648542,-0.0243255,0.0711015,-0.0298626,-1.31941,0.0598906,0.049525,587,1296,-8.84585,-0.672958
-630,-272,-9.08948,0.633789,-0.0168766,0.0596534,-0.0123836,0.0616074,-0.0188305,-1.4143,0.0485805,0.0488588,594,1296,-9.08949,-0.633793
-623,-272,-9.46259,0.886353,-0.0115958,0.0522031,-0.00448694,0.0525171,-0.0119098,-1.50093,0.0395831,0.0478997,601,1296,-9.46257,-0.886399
-616,-272,-9.82904,1.65417,-0.00749992,0.0436999,0.000388127,0.0437028,-0.00750286,1.56322,0.0319314,0.0375774,608,1296,-9.82906,-1.65414
-609,-272,-10.1222,1.97949,-0.00430955,0.0350641,0.00308654,0.0353046,-0.00455004,1.49304,0.0251904,0.0206729,615,1296,-10.1222,-1.9795
-602,-272,-10.1372,2.16418,-0.00128453,0.0274146,0.00512077,0.0283009,-0.00217085,1.39941,0.019631,0.0138982,622,1296,-10.1372,-2.16414
-595,-272,-10.1364,2.42578,0.000477548,0.0199135,0.00605911,0.0216476,-0.00125664,1.29204,0.0148684,0.0111947,629,1296,-10.1363,-2.4258
-588,-272,-10.1149,2.67798,0.00133862,0.0131351,0.00545142,0.0152685,-0.000794785,1.19777,0.010454,0.0102813,636,1296,-10.1149,-2.67796
-581,-272,-10.1295,2.89929,0.00226335,0.00720611,0.00352844,0.00904258,0.000426874,1.0909,0.00589125,0.00950786,643,1296,-10.1295,-2.89927
-574,-272,-10.1678,3.16016,0.00247795,0.00363687,0.00197844,0.00511896,0.00099586,0.927858,0.00313388,0.014107,650,1296,-10.1679,-3.16013
-567,-272,-10.1827,3.401,0.00138699,0.00201567,0.000264611,0.00211222,0.00129044,1.22094,0.00122946,0.0194139,657,1296,-10.1827,-3.40103
-560,-272,-10.1896,3.64941,-0.000997178,0.00306225,-0.00101071,0.00329997,-0.0012349,-1.33979,0.00270719,0.0193088,664,1296,-10.1897,-3.64945
-553,-272,-10.1368,3.89197,-0.00485626,0.00575446,-0.00265849,0.00638328,-0.00548507,-1.33853,0.00685873,0.0150794,671,1296,-10.1368,-3.89202
-546,-272,-10.0835,4.12354,-0.0109062,0.00829606,-0.00275506,0.00868353,-0.0112937,-1.43107,0.0115666,0.0226678,678,1296,-10.0835,-4.12356
-539,-272,-10.0895,4.2804,0,0,0,0,0,0,0,-1,685,1296,-10.0894,-4.28046
-532,-272,-9.61139,4.50598,0,0,0,0,0,0,0,-1,692,1296,-9.61136,-4.50594
-525,-272,-11.9599,0.0393066,0,0,0,0,0,0,0,-1,699,1296,-11.9599,-0.0393577
-518,-272,-14.7915,0.260254,0,0,0,0,0,0,0,-1,706,1296,-14.7915,-0.260206
-511,-272,-14.6191,0.552002,0,0,0,0,0,0,0,-1,713,1296,-14.6191,-0.552
-504,-272,-13.4428,-0.668579,0,0,0,0,0,0,0,-1,720,1296,-13.4428,0.668521
-497,-272,-14.1154,-0.147827,-0.0561965,0.0246748,-3.02892e-07,0.0246748,-0.0561965,-1.57079,0.0478587,0.0449937,727,1296,-14.1154,0.147771
-490,-272,-14.7272,0.464966,-0.0585946,0.0258808,0.00324431,0.0260052,-0.058719,1.53247,0.0501163,0.044568,734,1296,-14.7272,-0.464958
-483,-272,-15.3736,0.792603,-0.0529302,0.0257132,0.0096554,0.0268812,-0.0540983,1.4504,0.0476256,0.0415032,741,1296,-15.3736,-0.79263
-476,-272,0,0,0,0,0,0,0,0,0,-1,748,1296,0,0
-469,-272,0,0,0,0,0,0,0,0,0,-1,755,1296,0,0
-462,-272,0,0,0,0,0,0,0,0,0,-1,762,1296,0,0
-455,-272,0,0,0,0,0,0,0,0,0,-1,769,1296,0,0
-448,-272,0,0,0,0,0,0,0,0,0,-1,776,1296,0,0
-441,-272,0,0,0,0,0,0,0,0,0,-1,783,1296,0,0
-434,-272,0,0,0,0,0,0,0,0,0,-1,790,1296,0,0
-427,-272,0,0,0,0,0,0,0,0,0,-1,797,1296,0,0
-420,-272,0,0,0,0,0,0,0,0,0,-1,804,1296,0,0
-413,-272,0,0,0,0,0,0,0,0,0,-1,811,1296,0,0
-406,-272,0,0,0,0,0,0,0,0,0,-1,818,1296,0,0
-399,-272,0,0,0,0,0,0,0,0,0,-1,825,1296,0,0
-392,-272,0,0,0,0,0,0,0,0,0,-1,832,1296,0,0
-385,-272,0,0,0,0,0,0,0,0,0,-1,839,1296,0,0
-378,-272,0,0,0,0,0,0,0,0,0,-1,846,1296,0,0
-371,-272,0,0,0,0,0,0,0,0,0,-1,853,1296,0,0
-364,-272,0,0,0,0,0,0,0,0,0,-1,860,1296,0,0
-357,-272,0,0,0,0,0,0,0,0,0,-1,867,1296,0,0
-350,-272,0,0,0,0,0,0,0,0,0,-1,874,1296,0,0
-343,-272,0,0,0,0,0,0,0,0,0,-1,881,1296,0,0
-336,-272,0,0,0,0,0,0,0,0,0,-1,888,1296,0,0
-329,-272,0,0,0,0,0,0,0,0,0,-1,895,1296,0,0
-322,-272,0,0,0,0,0,0,0,0,0,-1,902,1296,0,0
-315,-272,0,0,0,0,0,0,0,0,0,-1,909,1296,0,0
-308,-272,0,0,0,0,0,0,0,0,0,-1,916,1296,0,0
-301,-272,0,0,0,0,0,0,0,0,0,-1,923,1296,0,0
-294,-272,0,0,0,0,0,0,0,0,0,-1,930,1296,0,0
-287,-272,0,0,0,0,0,0,0,0,0,-1,937,1296,0,0
-280,-272,0,0,0,0,0,0,0,0,0,-1,944,1296,0,0
-273,-272,0,0,0,0,0,0,0,0,0,-1,951,1296,0,0
-266,-272,0,0,0,0,0,0,0,0,0,-1,958,1296,0,0
-259,-272,0,0,0,0,0,0,0,0,0,-1,965,1296,0,0
-252,-272,0,0,0,0,0,0,0,0,0,-1,972,1296,0,0
-245,-272,0,0,0,0,0,0,0,0,0,-1,979,1296,0,0
-238,-272,0,0,0,0,0,0,0,0,0,-1,986,1296,0,0
-231,-272,0,0,0,0,0,0,0,0,0,-1,993,1296,0,0
-224,-272,0,0,0,0,0,0,0,0,0,-1,1000,1296,0,0
-217,-272,0,0,0,0,0,0,0,0,0,-1,1007,1296,0,0
-210,-272,0,0,0,0,0,0,0,0,0,-1,1014,1296,0,0
-203,-272,0,0,0,0,0,0,0,0,0,-1,1021,1296,0,0
-196,-272,0,0,0,0,0,0,0,0,0,-1,1028,1296,0,0
-189,-272,0,0,0,0,0,0,0,0,0,-1,1035,1296,0,0
-182,-272,0,0,0,0,0,0,0,0,0,-1,1042,1296,0,0
-175,-272,0,0,0,0,0,0,0,0,0,-1,1049,1296,0,0
-168,-272,0,0,0,0,0,0,0,0,0,-1,1056,1296,0,0
-161,-272,0,0,0,0,0,0,0,0,0,-1,1063,1296,0,0
-154,-272,0,0,0,0,0,0,0,0,0,-1,1070,1296,0,0
-147,-272,0,0,0,0,0,0,0,0,0,-1,1077,1296,0,0
-140,-272,0,0,0,0,0,0,0,0,0,-1,1084,1296,0,0
-133,-272,0,0,0,0,0,0,0,0,0,-1,1091,1296,0,0
-126,-272,0,0,0,0,0,0,0,0,0,-1,1098,1296,0,0
-119,-272,0,0,0,0,0,0,0,0,0,-1,1105,1296,0,0
-112,-272,0,0,0,0,0,0,0,0,0,-1,1112,1296,0,0
-105,-272,0,0,0,0,0,0,0,0,0,-1,1119,1296,0,0
-98,-272,0,0,0,0,0,0,0,0,0,-1,1126,1296,0,0
-91,-272,0,0,0,0,0,0,0,0,0,-1,1133,1296,0,0
-84,-272,0,0,0,0,0,0,0,0,0,-1,1140,1296,0,0
-77,-272,0,0,0,0,0,0,0,0,0,-1,1147,1296,0,0
-70,-272,0,0,0,0,0,0,0,0,0,-1,1154,1296,0,0
-63,-272,0,0,0,0,0,0,0,0,0,-1,1161,1296,0,0
-56,-272,0,0,0,0,0,0,0,0,0,-1,1168,1296,0,0
-49,-272,0,0,0,0,0,0,0,0,0,-1,1175,1296,0,0
-42,-272,0,0,0,0,0,0,0,0,0,-1,1182,1296,0,0
-35,-272,0,0,0,0,0,0,0,0,0,-1,1189,1296,0,0
-28,-272,0,0,0,0,0,0,0,0,0,-1,1196,1296,0,0
-21,-272,0,0,0,0,0,0,0,0,0,-1,1203,1296,0,0
-14,-272,0,0,0,0,0,0,0,0,0,-1,1210,1296,0,0
-7,-272,0,0,0,0,0,0,0,0,0,-1,1217,1296,0,0
0,-272,0,0,0,0,0,0,0,0,0,-1,1224,1296,0,0
7,-272,0,0,0,0,0,0,0,0,0,-1,1231,1296,0,0
14,-272,0,0,0,0,0,0,0,0,0,-1,1238,1296,0,0
21,-272,0,0,0,0,0,0,0,0,0,-1,1245,1296,0,0
28,-272,0,0,0,0,0,0,0,0,0,-1,1252,1296,0,0
35,-272,0,0,0,0,0,0,0,0,0,-1,1259,1296,0,0
42,-272,0,0,0,0,0,0,0,0,0,-1,1266,1296,0,0
49,-272,0,0,0,0,0,0,0,0,0,-1,1273,1296,0,0
56,-272,0,0,0,0,0,0,0,0,0,-1,1280,1296,0,0
63,-272,0,0,0,0,0,0,0,0,0,-1,1287,1296,0,0
70,-272,0,0,0,0,0,0,0,0,0,-1,1294,1296,0,0
77,-272,0,0,0,0,0,0,0,0,0,-1,1301,1296,0,0
84,-272,0,0,0,0,0,0,0,0,0,-1,1308,1296,0,0
91,-272,0,0,0,0,0,0,0,0,0,-1,1315,1296,0,0
98,-272,0,0,0,0,0,0,0,0,0,-1,1322,1296,0,0
105,-272,0,0,0,0,0,0,0,0,0,-1,1329,1296,0,0
112,-272,0,0,0,0,0,0,0,0,0,-1,1336,1296,0,0
119,-272,0,0,0,0,0,0,0,0,0,-1,1343,1296,0,0
126,-272,0,0,0,0,0,0,0,0,0,-1,1350,1296,0,0
133,-272,0,0,0,0,0,0,0,0,0,-1,1357,1296,0,0
140,-272,0,0,0,0,0,0,0,0,0,-1,1364,1296,0,0
147,-272,0,0,0,0,0,0,0,0,0,-1,1371,1296,0,0
154,-272,0,0,0,0,0,0,0,0,0,-1,1378,1296,0,0
161,-272,0,0,0,0,0,0,0,0,0,-1,1385,1296,0,0
168,-272,0,0,0,0,0,0,0,0,0,-1,1392,1296,0,0
175,-272,0,0,0,0,0,0,0,0,0,-1,1399,1296,0,0
182,-272,0,0,0,0,0,0,0,0,0,-1,1406,1296,0,0
189,-272,0,0,0,0,0,0,0,0,0,-1,1413,1296,0,0
196,-272,0,0,0,0,0,0,0,0,0,-1,1420,1296,0,0
203,-272,0,0,0,0,0,0,0,0,0,-1,1427,1296,0,0
210,-272,0,0,0,0,0,0,0,0,0,-1,1434,1296,0,0
217,-272,0,0,0,0,0,0,0,0,0,-1,1441,1296,0,0
224,-272,0,0,0,0,0,0,0,0,0,-1,1448,1296,0,0
231,-272,0,0,0,0,0,0,0,0,0,-1,1455,1296,0,0
238,-272,0,0,0,0,0,0,0,0,0,-1,1462,1296,0,0
245,-272,0,0,0,0,0,0,0,0,0,-1,1469,1296,0,0
252,-272,0,0,0,0,0,0,0,0,0,-1,1476,1296,0,0
259,-272,0,0,0,0,0,0,0,0,0,-1,1483,1296,0,0
266,-272,0,0,0,0,0,0,0,0,0,-1,1490,1296,0,0
273,-272,0,0,0,0,0,0,0,0,0,-1,1497,1296,0,0
280,-272,0,0,0,0,0,0,0,0,0,-1,1504,1296,0,0
287,-272,0,0,0,0,0,0,0,0,0,-1,1511,1296,0,0
294,-272,0,0,0,0,0,0,0,0,0,-1,1518,1296,0,0
301,-272,0,0,0,0,0,0,0,0,0,-1,1525,1296,0,0
308,-272,0,0,0,0,0,0,0,0,0,-1,1532,1296,0,0
315,-272,0,0,0,0,0,0,0,0,0,-1,1539,1296,0,0
322,-272,0,0,0,0,0,0,0,0,0,-1,1546,1296,0,0
329,-272,0,0,0,0,0,0,0,0,0,-1,1553,1296,0,0
336,-272,0,0,0,0,0,0,0,0,0,-1,1560,1296,0,0
343,-272,0,0,0,0,0,0,0,0,0,-1,1567,1296,0,0
350,-272,0,0,0,0,0,0,0,0,0,-1,1574,1296,0,0
357,-272,0,0,0,0,0,0,0,0,0,-1,1581,1296,0,0
364,-272,0,0,0,0,0,0,0,0,0,-1,1588,1296,0,0
371,-272,0,0,0,0,0,0,0,0,0,-1,1595,1296,0,0
378,-272,0,0,0,0,0,0,0,0,0,-1,1602,1296,0,0
385,-272,0,0,0,0,0,0,0,0,0,-1,1609,1296,0,0
392,-272,0,0,0,0,0,0,0,0,0,-1,1616,1296,0,0
399,-272,0,0,0,0,0,0,0,0,0,-1,1623,1296,0,0
406,-272,0,0,0,0,0,0,0,0,0,-1,1630,1296,0,0
413,-272,0,0,0,0,0,0,0,0,0,-1,1637,1296,0,0
420,-272,0,0,0,0,0,0,0,0,0,-1,1644,1296,0,0
427,-272,0,0,0,0,0,0,0,0,0,-1,1651,1296,0,0
434,-272,0,0,0,0,0,0,0,0,0,-1,1658,1296,0,0
441,-272,0,0,0,0,0,0,0,0,0,-1,1665,1296,0,0
448,-272,0,0,0,0,0,0,0,0,0,-1,1672,1296,0,0
455,-272,0,0,0,0,0,0,0,0,0,-1,1679,1296,0,0
462,-272,0,0,0,0,0,0,0,0,0,-1,1686,1296,0,0
469,-272,0,0,0,0,0,0,0,0,0,-1,1693,1296,0,0
476,-272,0,0,0,0,0,0,0,0,0,-1,1700,1296,0,0
483,-272,0,0,0,0,0,0,0,0,0,-1,1707,1296,0,0
490,-272,0,0,0,0,0,0,0,0,0,-1,1714,1296,0,0
497,-272,0,0,0,0,0,0,0,0,0,-1,1721,1296,0,0
504,-272,0,0,0,0,0,0,0,0,0,-1,1728,1296,0,0
511,-272,0,0,0,0,0,0,0,0,0,-1,1735,1296,0,0
518,-272,0,0,0,0,0,0,0,0,0,-1,1742,1296,0,0
525,-272,0,0,0,0,0,0,0,0,0,-1,1749,1296,0,0
532,-272,0,0,0,0,0,0,0,0,0,-1,1756,1296,0,0
539,-272,0,0,0,0,0,0,0,0,0,-1,1763,1296,0,0
546,-272,0,0,0,0,0,0,0,0,0,-1,1770,1296,0,0
553,-272,0,0,0,0,0,0,0,0,0,-1,1777,1296,0,0
560,-272,0,0,0,0,0,0,0,0,0,-1,1784,1296,0,0
567,-272,0,0,0,0,0,0,0,0,0,-1,1791,1296,0,0
574,-272,0,0,0,0,0,0,0,0,0,-1,1798,1296,0,0
581,-272,0,0,0,0,0,0,0,0,0,-1,1805,1296,0,0
588,-272,0,0,0,0,0,0,0,0,0,-1,1812,1296,0,0
595,-272,0,0,0,0,0,0,0,0,0,-1,1819,1296,0,0
602,-272,23.5574,2.74585,0.00835947,0.0198578,0.00495289,0.021697,0.00652022,1.21523,0.0128548,0.0317719,1826,1296,23.5573,-2.7459
609,-272,23.5096,2.72913,0.00317188,0.0163558,-0.000194249,0.0163586,0.00316902,-1.55607,0.0100179,0.0405719,1833,1296,23.5096,-2.72911
616,-272,23.5317,2.70691,-0.00156753,0.0118999,-0.00272872,0.0124318,-0.00209941,-1.37829,0.00906902,0.044795,1840,1296,23.5317,-2.70687
623,-272,23.5488,2.49707,-0.00545722,0.00830196,-0.00360215,0.00918795,-0.00634321,-1.32962,0.00901692,0.0418792,1847,1296,23.5488,-2.49712
630,-272,23.568,2.30042,-0.00794955,0.00577577,-0.00361368,0.00666907,-0.00884284,-1.32846,0.00898507,0.0447915,1854,1296,23.5679,-2.30041
637,-272,23.574,2.04077,-0.00902898,0.00405296,-0.00322591,0.00480519,-0.00978122,-1.34171,0.00858326,0.0481275,1861,1296,23.574,-2.04073
644,-272,23.4182,1.88367,0,0,0,0,0,0,0,-1,1868,1296,23.4182,-1.88369
651,-272,21.5923,2.67212,0,0,0,0,0,0,0,-1,1875,1296,21.5922,-2.6721
658,-272,20.2897,3.00378,0,0,0,0,0,0,0,-1,1882,1296,20.2896,-3.00373
665,-272,17.4078,3.08142,0,0,0,0,0,0,0,-1,1889,1296,17.4079,-3.08142
672,-272,18.2753,5.86157,0,0,0,0,0,0,0,-1,1896,1296,18.2753,-5.86158
679,-272,18.5227,5.99011,-0.00707074,-0.000202641,0.000535686,-0.000161111,-0.00711227,1.49342,0.00468873,0.0322278,1903,1296,18.5227,-5.99016
686,-272,18.5592,5.92065,-0.00556719,-0.000384083,0.00148868,1.30639e-05,-0.00596434,1.31009,0.00398059,0.014442,1910,1296,18.5592,-5.92067
693,-272,18.5703,5.70886,-0.00301967,-0.000299152,0.00200011,0.000759422,-0.00407824,1.08402,0.00300414,0.0117329,1917,1296,18.5704,-5.70891
700,-272,18.5576,5.50952,-0.000584984,-0.000277879,0.00183626,0.00141124,-0.0022741,0.827112,0.00214708,0.0109664,1924,1296,18.5576,-5.50948
707,-272,18.5648,5.28979,0.00489264,0.000375837,0.000242557,0.00490563,0.000362848,0.0534959,0.00315643,0.0110504,1931,1296,18.5649,-5.28984
714,-272,18.5535,5.073,0.0105637,0.00243768,-0.00146135,0.0108185,0.00218287,-0.172632,0.00660607,0.0111668,1938,1296,18.5535,-5.073
721,-272,18.5176,4.89343,0.0185128,0.0050571,-0.00342361,0.0193337,0.00423611,-0.23536,0.0117348,0.0115279,1945,1296,18.5175,-4.89346
728,-272,18.5234,4.69702,0.0294531,0.0103069,-0.00511631,0.0307346,0.00902544,-0.245411,0.0182413,0.0137936,1952,1296,18.5234,-4.69704
735,-272,18.5292,4.47192,0.042758,0.0177334,-0.00607504,0.0441548,0.0163365,-0.226,0.0257785,0.0138882,1959,1296,18.5291,-4.47195
742,-272,18.5146,4.23291,0.0590326,0.0271302,-0.00728616,0.0606179,0.0255449,-0.214238,0.0351416,0.022994,1966,1296,18.5146,-4.23288
749,-272,18.6753,4.07471,0.078999,0.0406292,-0.00784022,0.0805392,0.039089,-0.193978,0.046506,0.041781,1973,1296,18.6753,-4.07476
756,-272,18.9967,3.98962,0,0,0,0,0,0,0,-1,1980,1296,18.9967,-3.98963
763,-272,19.8867,3.92664,0,0,0,0,0,0,0,-1,1987,1296,19.8867,-3.92665
770,-272,26.4883,-10.531,0,0,0,0,0,0,0,-1,1994,1296,26.4883,10.531
777,-272,26.8661,-9.28601,0,0,0,0,0,0,0,-1,2001,1296,26.8661,9.28605
784,-272,0,0,0,0,0,0,0,0,0,-1,2008,1296,0,0
791,-272,0,0,0,0,0,0,0,0,0,-1,2015,1296,0,0
798,-272,0,0,0,0,0,0,0,0,0,-1,2022,1296,0,0
805,-272,0,0,0,0,0,0,0,0,0,-1,2029,1296,0,0
812,-272,0,0,0,0,0,0,0,0,0,-1,2036,1296,0,0
-700,-279,0,0,0,0,0,0,0,0,0,-1,524,1303,0,0
-693,-279,0,0,0,0,0,0,0,0,0,-1,531,1303,0,0
-686,-279,0,0,0,0,0,0,0,0,0,-1,538,1303,0,0
-679,-279,0,0,0,0,0,0,0,0,0,-1,545,1303,0,0
-672,-279,0,0,0,0,0,0,0,0,0,-1,552,1303,0,0
-665,-279,0,0,0,0,0,0,0,0,0,-1,559,1303,0,0
-658,-279,-8.19421,1.65869,-0.0632609,0.076747,-0.0847454,0.116663,-0.103177,-1.13061,0.127004,0.0448129,566,1303,-8.19421,-1.65867
-651,-279,-8.48492,0.865234,-0.0495985,0.0872443,-0.0557102,0.107056,-0.0694104,-1.22912,0.102653,0.0413476,573,1303,-8.48493,-0.86521
-644,-279,-8.69098,0.440674,-0.0381431,0.0892526,-0.0334886,0.0975193,-0.0464098,-1.32878,0.084826,0.0457512,580,1303,-8.69098,-0.440687
-637,-279,-8.56427,0.12439,-0.0286352,0.0850796,-0.0176455,0.0877547,-0.0313104,-1.42034,0.0712706,0.04875,587,1303,-8.56427,-0.124361
-630,-279,-8.80328,0.0996094,0,0,0,0,0,0,0,-1,594,1303,-8.80331,-0.099617
-623,-279,-9.2381,0.532471,0,0,0,0,0,0,0,-1,601,1303,-9.2381,-0.532529
-616,-279,-10.0743,1.35852,-0.00952667,0.0550115,0.00373997,0.0552275,-0.00974268,1.5131,0.0404588,0.0432076,608,1303,-10.0743,-1.35852
-609,-279,-9.97369,1.79053,-0.00572087,0.043813,0.00564413,0.044448,-0.00635585,1.45876,0.031962,0.0314175,615,1303,-9.97367,-1.79056
-602,-279,-9.89197,2.1615,-0.00240014,0.0341265,0.00705719,0.0354426,-0.00371621,1.38643,0.0249595,0.0136362,622,1303,-9.89198,-2.16144
-595,-279,-9.90527,2.42603,-0.00036042,0.0247831,0.00739136,0.0267949,-0.00237226,1.30505,0.0187042,0.0106426,629,1303,-9.9053,-2.426
-588,-279,-9.88293,2.68921,0.000783955,0.0164665,0.00641782,0.0187581,-0.00150759,1.22785,0.013037,0.0100722,636,1303,-9.88292,-2.68927
-581,-279,-9.89252,2.89758,0.00196934,0.00909583,0.00435857,0.0111623,-9.71467e-05,1.12807,0.00747413,0.0118267,643,1303,-9.89253,-2.89763
-574,-279,-9.92157,3.12756,0.0024417,0.0042065,0.00265619,0.00612302,0.000525178,0.945766,0.0039187,0.0123574,650,1303,-9.92158,-3.12757
-567,-279,-9.9201,3.37256,0.0013923,0.00166468,0.000643538,0.00218628,0.000870701,0.889671,0.00127093,0.0156059,657,1303,-9.92012,-3.3725
-560,-279,-9.92206,3.6394,-0.000970139,0.00239061,-0.000756159,0.0025529,-0.00113243,-1.35937,0.00217978,0.0162961,664,1303,-9.92203,-3.63945
-553,-279,-9.90912,3.91431,-0.0048113,0.00460562,-0.00240289,0.00518332,-0.005389,-1.33486,0.00610431,0.0123837,671,1303,-9.90911,-3.91425
-546,-279,-9.91199,4.12085,-0.0110817,0.00688147,-0.0025728,0.0072427,-0.0114429,-1.43131,0.0108786,0.0150969,678,1303,-9.91198,-4.12086
-539,-279,-9.89496,4.3446,-0.0182258,0.00911917,-0.00251684,0.00934889,-0.0184556,-1.47978,0.0163374,0.0481434,685,1303,-9.89495,-4.34456
-532,-279,-9.86432,4.56836,0,0,0,0,0,0,0,-1,692,1303,-9.8643,-4.56839
-525,-279,-11.7063,-0.539185,0,0,0,0,0,0,0,-1,699,1303,-11.7063,0.539166
-518,-279,-15.0099,0.104492,0,0,0,0,0,0,0,-1,706,1303,-15.0099,-0.104444
-511,-279,-13.4995,2.44275,0,0,0,0,0,0,0,-1,713,1303,-13.4995,-2.44275
-504,-279,-13.1187,-1.10254,0,0,0,0,0,0,0,-1,720,1303,-13.1187,1.10255
-497,-279,-13.7728,-0.434814,-0.057732,0.022515,-0.000777771,0.0225225,-0.0577396,-1.56111,0.0478031,0.0427992,727,1303,-13.7728,0.434844
-490,-279,-14.2626,0.385986,-0.0614855,0.0240572,0.00155278,0.0240853,-0.0615137,1.55265,0.0509711,0.0425286,734,1303,-14.2626,-0.385938
-483,-279,-14.9331,0.736816,-0.0592048,0.0252607,0.00632854,0.0257323,-0.0596764,1.49643,0.0505922,0.0424584,741,1303,-14.9331,-0.736782
-476,-279,0,0,0,0,0,0,0,0,0,-1,748,1303,0,0
-469,-279,0,0,0,0,0,0,0,0,0,-1,755,1303,0,0
-462,-279,0,0,0,0,0,0,0,0,0,-1,762,1303,0,0
-455,-279,0,0,0,0,0,0,0,0,0,-1,769,1303,0,0
-448,-279,0,0,0,0,0,0,0,0,0,-1,776,1303,0,0
-441,-279,0,0,0,0,0,0,0,0,0,-1,783,1303,0,0
-434,-279,0,0,0,0,0,0,0,0,0,-1,790,1303,0,0
-427,-279,0,0,0,0,0,0,0,0,0,-1,797,1303,0,0
-420,-279,0,0,0,0,0,0,0,0,0,-1,804,1303,0,0
-413,-279,0,0,0,0,0,0,0,0,0,-1,811,1303,0,0
-406,-279,0,0,0,0,0,0,0,0,0,-1,818,1303,0,0
-399,-279,0,0,0,0,0,0,0,0,0,-1,825,1303,0,0
-392,-279,0,0,0,0,0,0,0,0,0,-1,832,1303,0,0
-385,-279,0,0,0,0,0,0,0,0,0,-1,839,1303,0,0
-378,-279,0,0,0,0,0,0,0,0,0,-1,846,1303,0,0
-371,-279,0,0,0,0,0,0,0,0,0,-1,853,1303,0,0
-364,-279,0,0,0,0,0,0,0,0,0,-1,860,1303,0,0
-357,-279,0,0,0,0,0,0,0,0,0,-1,867,1303,0,0
-350,-279,0,0,0,0,0,0,0,0,0,-1,874,1303,0,0
-343,-279,0,0,0,0,0,0,0,0,0,-1,881,1303,0,0
-336,-279,0,0,0,0,0,0,0,0,0,-1,888,1303,0,0
-329,-279,0,0,0,0,0,0,0,0,0,-1,895,1303,0,0
-322,-279,0,0,0,0,0,0,0,0,0,-1,902,1303,0,0
-315,-279,0,0,0,0,0,0,0,0,0,-1,909,1303,0,0
-308,-279,0,0,0,0,0,0,0,0,0,-1,916,1303,0,0
-301,-279,0,0,0,0,0,0,0,0,0,-1,923,1303,0,0
-294,-279,0,0,0,0,0,0,0,0,0,-1,930,1303,0,0
-287,-279,0,0,0,0,0,0,0,0,0,-1,937,1303,0,0
-280,-279,0,0,0,0,0,0,0,0,0,-1,944,1303,0,0
-273,-279,0,0,0,0,0,0,0,0,0,-1,951,1303,0,0
-266,-279,0,0,0,0,0,0,0,0,0,-1,958,1303,0,0
-259,-279,0,0,0,0,0,0,0,0,0,-1,965,1303,0,0
-252,-279,0,0,0,0,0,0,0,0,0,-1,972,1303,0,0
-245,-279,0,0,0,0,0,0,0,0,0,-1,979,1303,0,0
-238,-279,0,0,0,0,0,0,0,0,0,-1,986,1303,0,0
-231,-279,0,0,0,0,0,0,0,0,0,-1,993,1303,0,0
-224,-279,0,0,0,0,0,0,0,0,0,-1,1000,1303,0,0
-217,-279,0,0,0,0,0,0,0,0,0,-1,1007,1303,0,0
-210,-279,0,0,0,0,0,0,0,0,0,-1,1014,1303,0,0
-203,-279,0,0,0,0,0,0,0,0,0,-1,1021,1303,0,0
-196,-279,0,0,0,0,0,0,0,0,0,-1,1028,1303,0,0
-189,-279,0,0,0,0,0,0,0,0,0,-1,1035,1303,0,0
-182,-279,0,0,0,0,0,0,0,0,0,-1,1042,1303,0,0
-175,-279,0,0,0,0,0,0,0,0,0,-1,1049,1303,0,0
-168,-279,0,0,0,0,0,0,0,0,0,-1,1056,1303,0,0
-161,-279,0,0,0,0,0,0,0,0,0,-1,1063,1303,0,0
-154,-279,0,0,0,0,0,0,0,0,0,-1,1070,1303,0,0
-147,-279,0,0,0,0,0,0,0,0,0,-1,1077,1303,0,0
-140,-279,0,0,0,0,0,0,0,0,0,-1,1084,1303,0,0
-133,-279,0,0,0,0,0,0,0,0,0,-1,1091,1303,0,0
-126,-279,0,0,0,0,0,0,0,0,0,-1,1098,1303,0,0
-119,-279,0,0,0,0,0,0,0,0,0,-1,1105,1303,0,0
-112,-279,0,0,0,0,0,0,0,0,0,-1,1112,1303,0,0
-105,-279,0,0,0,0,0,0,0,0,0,-1,1119,1303,0,0
-98,-279,0,0,0,0,0,0,0,0,0,-1,1126,1303,0,0
-91,-279,0,0,0,0,0,0,0,0,0,-1,1133,1303,0,0
-84,-279,0,0,0,0,0,0,0,0,0,-1,1140,1303,0,0
-77,-279,0,0,0,0,0,0,0,0,0,-1,1147,1303,0,0
-70,-279,0,0,0,0,0,0,0,0,0,-1,1154,1303,0,0
-63,-279,0,0,0,0,0,0,0,0,0,-1,1161,1303,0,0
-56,-279,0,0,0,0,0,0,0,0,0,-1,1168,1303,0,0
-49,-279,0,0,0,0,0,0,0,0,0,-1,1175,1303,0,0
-42,-279,0,0,0,0,0,0,0,0,0,-1,1182,1303,0,0
-35,-279,0,0,0,0,0,0,0,0,0,-1,1189,1303,0,0
-28,-279,0,0,0,0,0,0,0,0,0,-1,1196,1303,0,0
-21,-279,0,0,0,0,0,0,0,0,0,-1,1203,1303,0,0
-14,-279,0,0,0,0,0,0,0,0,0,-1,1210,1303,0,0
-7,-279,0,0,0,0,0,0,0,0,0,-1,1217,1303,0,0
0,-279,0,0,0,0,0,0,0,0,0,-1,1224,1303,0,0
7,-279,0,0,0,0,0,0,0,0,0,-1,1231,1303,0,0
14,-279,0,0,0,0,0,0,0,0,0,-1,1238,1303,0,0
21,-279,0,0,0,0,0,0,0,0,0,-1,1245,1303,0,0
28,-279,0,0,0,0,0,0,0,0,0,-1,1252,1303,0,0
35,-279,0,0,0,0,0,0,0,0,0,-1,1259,1303,0,0
42,-279,0,0,0,0,0,0,0,0,0,-1,1266,1303,0,0
49,-279,0,0,0,0,0,0,0,0,0,-1,1273,1303,0,0
56,-279,0,0,0,0,0,0,0,0,0,-1,1280,1303,0,0
63,-279,0,0,0,0,0,0,0,0,0,-1,1287,1303,0,0
70,-279,0,0,0,0,0,0,0,0,0,-1,1294,1303,0,0
77,-279,0,0,0,0,0,0,0,0,0,-1,1301,1303,0,0
84,-279,0,0,0,0,0,0,0,0,0,-1,1308,1303,0,0
91,-279,0,0,0,0,0,0,0,0,0,-1,1315,1303,0,0
98,-279,0,0,0,0,0,0,0,0,0,-1,1322,1303,0,0
105,-279,0,0,0,0,0,0,0,0,0,-1,1329,1303,0,0
112,-279,0,0,0,0,0,0,0,0,0,-1,1336,1303,0,0
119,-279,0,0,0,0,0,0,0,0,0,-1,1343,1303,0,0
126,-279,0,0,0,0,0,0,0,0,0,-1,1350,1303,0,0
133,-279,0,0,0,0,0,0,0,0,0,-1,1357,1303,0,0
140,-279,0,0,0,0,0,0,0,0,0,-1,1364,1303,0,0
147,-279,0,0,0,0,0,0,0,0,0,-1,1371,1303,0,0
154,-279,0,0,0,0,0,0,0,0,0,-1,1378,1303,0,0
161,-279,0,0,0,0,0,0,0,0,0,-1,1385,1303,0,0
168,-279,0,0,0,0,0,0,0,0,0,-1,1392,1303,0,0
175,-279,0,0,0,0,0,0,0,0,0,-1,1399,1303,0,0
182,-279,0,0,0,0,0,0,0,0,0,-1,1406,1303,0,0
189,-279,0,0,0,0,0,0,0,0,0,-1,1413,1303,0,0
196,-279,0,0,0,0,0,0,0,0,0,-1,1420,1303,0,0
203,-279,0,0,0,0,0,0,0,0,0,-1,1427,1303,0,0
210,-279,0,0,0,0,0,0,0,0,0,-1,1434,1303,0,0
217,-279,0,0,0,0,0,0,0,0,0,-1,1441,1303,0,0
224,-279,0,0,0,0,0,0,0,0,0,-1,1448,1303,0,0
231,-279,0,0,0,0,0,0,0,0,0,-1,1455,1303,0,0
238,-279,0,0,0,0,0,0,0,0,0,-1,1462,1303,0,0
245,-279,0,0,0,0,0,0,0,0,0,-1,1469,1303,0,0
252,-279,0,0,0,0,0,0,0,0,0,-1,1476,1303,0,0
259,-279,0,0,0,0,0,0,0,0,0,-1,1483,1303,0,0
266,-279,0,0,0,0,0,0,0,0,0,-1,1490,1303,0,0
273,-279,0,0,0,0,0,0,0,0,0,-1,1497,1303,0,0
280,-279,0,0,0,0,0,0,0,0,0,-1,1504,1303,0,0
287,-279,0,0,0,0,0,0,0,0,0,-1,1511,1303,0,0
294,-279,0,0,0,0,0,0,0,0,0,-1,1518,1303,0,0
301,-279,0,0,0,0,0,0,0,0,0,-1,1525,1303,0,0
308,-279,0,0,0,0,0,0,0,0,0,-1,1532,1303,0,0
315,-279,0,0,0,0,0,0,0,0,0,-1,1539,1303,0,0
322,-279,0,0,0,0,0,0,0,0,0,-1,1546,1303,0,0
329,-279,0,0,0,0,0,0,0,0,0,-1,1553,1303,0,0
336,-279,0,0,0,0,0,0,0,0,0,-1,1560,1303,0,0
343,-279,0,0,0,0,0,0,0,0,0,-1,1567,1303,0,0
350,-279,0,0,0,0,0,0,0,0,0,-1,1574,1303,0,0
357,-279,0,0,0,0,0,0,0,0,0,-1,1581,1303,0,0
364,-279,0,0,0,0,0,0,0,0,0,-1,1588,1303,0,0
371,-279,0,0,0,0,0,0,0,0,0,-1,1595,1303,0,0
378,-279,0,0,0,0,0,0,0,0,0,-1,1602,1303,0,0
385,-279,0,0,0,0,0,0,0,0,0,-1,1609,1303,0,0
392,-279,0,0,0,0,0,0,0,0,0,-1,1616,1303,0,0
399,-279,0,0,0,0,0,0,0,0,0,-1,1623,1303,0,0
406,-279,0,0,0,0,0,0,0,0,0,-1,1630,1303,0,0
413,-279,0,0,0,0,0,0,0,0,0,-1,1637,1303,0,0
420,-279,0,0,0,0,0,0,0,0,0,-1,1644,1303,0,0
427,-279,0,0,0,0,0,0,0,0,0,-1,1651,1303,0,0
434,-279,0,0,0,0,0,0,0,0,0,-1,1658,1303,0,0
441,-279,0,0,0,0,0,0,0,0,0,-1,1665,1303,0,0
448,-279,0,0,0,0,0,0,0,0,0,-1,1672,1303,0,0
455,-279,0,0,0,0,0,0,0,0,0,-1,1679,1303,0,0
462,-279,0,0,0,0,0,0,0,0,0,-1,1686,1303,0,0
469,-279,0,0,0,0,0,0,0,0,0,-1,1693,1303,0,0
476,-279,0,0,0,0,0,0,0,0,0,-1,1700,1303,0,0
483,-279,0,0,0,0,0,0,0,0,0,-1,1707,1303,0,0
490,-279,0,0,0,0,0,0,0,0,0,-1,1714,1303,0,0
497,-279,0,0,0,0,0,0,0,0,0,-1,1721,1303,0,0
504,-279,0,0,0,0,0,0,0,0,0,-1,1728,1303,0,0
511,-279,0,0,0,0,0,0,0,0,0,-1,1735,1303,0,0
518,-279,0,0,0,0,0,0,0,0,0,-1,1742,1303,0,0
525,-279,0,0,0,0,0,0,0,0,0,-1,1749,1303,0,0
532,-279,0,0,0,0,0,0,0,0,0,-1,1756,1303,0,0
539,-279,0,0,0,0,0,0,0,0,0,-1,1763,1303,0,0
546,-279,0,0,0,0,0,0,0,0,0,-1,1770,1303,0,0
553,-279,0,0,0,0,0,0,0,0,0,-1,1777,1303,0,0
560,-279,0,0,0,0,0,0,0,0,0,-1,1784,1303,0,0
567,-279,0,0,0,0,0,0,0,0,0,-1,1791,1303,0,0
574,-279,0,0,0,0,0,0,0,0,0,-1,1798,1303,0,0
581,-279,0,0,0,0,0,0,0,0,0,-1,1805,1303,0,0
588,-279,0,0,0,0,0,0,0,0,0,-1,1812,1303,0,0
595,-279,0,0,0,0,0,0,0,0,0,-1,1819,1303,0,0
602,-279,23.5361,2.71265,0.00902416,0.0234253,0.00563074,0.0253655,0.00708397,1.23897,0.0151129,0.0432092,1826,1303,23.5361,-2.71259
609,-279,23.5177,2.61951,0.00361668,0.0182612,0.00114687,0.0183505,0.00352741,1.49311,0.0112438,0.0486048,1833,1303,23.5177,-2.61948
616,-279,23.6,2.65088,-0.00131109,0.0126096,-0.000716913,0.0126464,-0.00134791,-1.51948,0.00891428,0.0458813,1840,1303,23.6,-2.65085
623,-279,23.5867,2.43311,-0.00533458,0.00814292,-0.00132739,0.00827241,-0.00546407,-1.47355,0.00798582,0.0453727,1847,1303,23.5866,-2.43312
630,-279,23.3451,2.16248,0,0,0,0,0,0,0,-1,1854,1303,23.3451,-2.16248
637,-279,23.5118,1.95007,0,0,0,0,0,0,0,-1,1861,1303,23.5118,-1.95012
644,-279,21.6617,2.6051,0,0,0,0,0,0,0,-1,1868,1303,21.6617,-2.60509
651,-279,20.5229,2.6499,0,0,0,0,0,0,0,-1,1875,1303,20.523,-2.64987
658,-279,19.2148,6.17822,0,0,0,0,0,0,0,-1,1882,1303,19.2148,-6.17828
665,-279,18.9794,6.09607,0,0,0,0,0,0,0,-1,1889,1303,18.9793,-6.09601
672,-279,18.6959,6.12976,-0.00886413,-0.00165934,0.000493979,-0.00162563,-0.00889784,1.50266,0.00547112,0.0472726,1896,1303,18.6959,-6.12972
679,-279,18.4086,6.18213,-0.00798928,-0.00153001,0.00144103,-0.00122311,-0.00829619,1.36096,0.00517153,0.0320964,1903,1303,18.4086,-6.18216
686,-279,18.3424,5.91479,-0.00622393,-0.00139015,0.00220616,-0.000534656,-0.00707942,1.20087,0.00455187,0.0220733,1910,1303,18.3424,-5.91483
693,-279,18.3391,5.70471,-0.00331185,-0.000893967,0.00236782,0.000555683,-0.0047615,1.02143,0.00337485,0.0164985,1917,1303,18.3391,-5.70476
700,-279,18.3512,5.50928,-0.000306368,-0.00041265,0.00185457,0.00149583,-0.00221484,0.771075,0.00215572,0.0107194,1924,1303,18.3512,-5.50927
707,-279,18.3434,5.28979,0.00577323,0.000689597,0.00011136,0.00577567,0.000687158,0.0218916,0.00364306,0.00897431,1931,1303,18.3433,-5.28977
714,-279,18.3235,5.0752,0.0119395,0.00316069,-0.00152292,0.0121962,0.00290401,-0.166978,0.00735643,0.0103597,1938,1303,18.3235,-5.07517
721,-279,18.3136,4.87903,0.0202673,0.00603591,-0.00329083,0.0209914,0.00531179,-0.21659,0.0126025,0.0122848,1945,1303,18.3135,-4.87908
728,-279,18.3276,4.68652,0.031356,0.0112009,-0.00473423,0.0324126,0.0101443,-0.219591,0.0191448,0.0131769,1952,1303,18.3276,-4.68648
735,-279,18.3405,4.47754,0.0449608,0.0184513,-0.00552546,0.0460664,0.0173458,-0.197481,0.0268653,0.0127784,1959,1303,18.3405,-4.4776
742,-279,18.2686,4.19885,0.0617528,0.0278022,-0.00641777,0.0629254,0.0266295,-0.180728,0.0364726,0.0235439,1966,1303,18.2685,-4.19888
749,-279,18.6908,3.77258,0.0822518,0.041156,-0.00656159,0.0832741,0.0401338,-0.154548,0.0480887,0.0419654,1973,1303,18.6908,-3.77259
756,-279,19.3918,3.51819,0.10617,0.0598376,-0.00518825,0.106743,0.0592637,-0.110162,0.0617534,0.046305,1980,1303,19.3918,-3.5182
763,-279,20.1082,3.79041,0.132545,0.0852958,-0.00120789,0.132576,0.0852649,-0.0255419,0.0775812,0.0470201,1987,1303,20.1082,-3.79043
770,-279,20.5697,3.98291,0,0,0,0,0,0,0,-1,1994,1303,20.5697,-3.98292
777,-279,15.3864,1.55225,0,0,0,0,0,0,0,-1,2001,1303,15.3863,-1.55222
784,-279,0,0,0,0,0,0,0,0,0,-1,2008,1303,0,0
791,-279,0,0,0,0,0,0,0,0,0,-1,2015,1303,0,0
798,-279,0,0,0,0,0,0,0,0,0,-1,2022,1303,0,0
805,-279,0,0,0,0,0,0,0,0,0,-1,2029,1303,0,0
812,-279,0,0,0,0,0,0,0,0,0,-1,2036,1303,0,0
-700,-286,0,0,0,0,0,0,0,0,0,-1,524,1310,0,0
-693,-286,0,0,0,0,0,0,0,0,0,-1,531,1310,0,0
-686,-286,0,0,0,0,0,0,0,0,0,-1,538,1310,0,0
-679,-286,0,0,0,0,0,0,0,0,0,-1,545,1310,0,0
-672,-286,0,0,0,0,0,0,0,0,0,-1,552,1310,0,0
-665,-286,0,0,0,0,0,0,0,0,0,-1,559,1310,0,0
-658,-286,-7.90417,1.38159,-0.0707453,0.107233,-0.0726746,0.133138,-0.0966503,-1.22838,0.133225,0.0444437,566,1310,-7.90416,-1.38161
-651,-286,-8.62408,-0.0281982,-0.0566237,0.115981,-0.045302,0.127148,-0.0677912,-1.3291,0.114274,0.045504,573,1310,-8.62408,0.0282474
-644,-286,-9.01721,-0.63855,-0.0442101,0.11541,-0.024536,0.119096,-0.0478965,-1.42167,0.0992915,0.0482398,580,1310,-9.01719,0.638492
-637,-286,-8.39191,-0.190063,-0.0336232,0.107771,-0.0103699,0.108528,-0.0343797,-1.49798,0.08613,0.0466565,587,1310,-8.39192,0.190069
-630,-286,-10.5514,-0.660889,-0.0247156,0.0958073,-0.00129731,0.0958213,-0.0247295,-1.56003,0.0735236,0.0451248,594,1310,-10.5514,0.660918
-623,-286,-9.68567,-0.292969,-0.017472,0.0817613,0.0041114,0.0819313,-0.017642,1.52946,0.061353,0.046064,601,1310,-9.68567,0.29292
-616,-286,-9.65845,0.351685,-0.0117552,0.0671557,0.00692683,0.0677591,-0.0123586,1.4839,0.049806,0.0438315,608,1310,-9.65844,-0.351681
-609,-286,-9.698,1.22864,-0.00736598,0.0530874,0.00794358,0.0541137,-0.00839235,1.4423,0.0391741,0.0370633,615,1310,-9.69802,-1.22862
-602,-286,-9.66693,2.12793,-0.00374482,0.0411307,0.00869574,0.0427568,-0.00537091,1.38593,0.0304531,0.0160463,622,1310,-9.66692,-2.12792
-595,-286,-9.67542,2.42493,-0.00140134,0.0298488,0.00842625,0.031976,-0.00352859,1.32351,0.0225856,0.0114435,629,1310,-9.67542,-2.42498
-588,-286,-9.64069,2.67786,7.09588e-05,0.019993,0.00711954,0.0222758,-0.00221178,1.26052,0.01564,0.0116629,636,1310,-9.64069,-2.67784
-581,-286,-9.63702,2.896,0.00156386,0.0111603,0.00498579,0.0132817,-0.000557533,1.16851,0.00904603,0.0134933,643,1310,-9.63701,-2.89605
-574,-286,-9.66296,3.12842,0.00235327,0.00487219,0.00323052,0.00708008,0.000145388,0.971267,0.00467234,0.0135213,650,1310,-9.66294,-3.12847
-567,-286,-9.67963,3.39063,0.00134144,0.0012094,0.00103071,0.00230824,0.000242598,0.753416,0.00146467,0.0129074,657,1310,-9.67964,-3.39068
-560,-286,-9.68317,3.65442,-0.00110034,0.00144076,-0.000399738,0.00150216,-0.00116174,-1.41839,0.00154219,0.0131765,664,1310,-9.68319,-3.65439
-553,-286,-9.65271,3.90857,-0.0048229,0.00282049,-0.0018999,0.00326669,-0.00526911,-1.34012,0.00497314,0.0101874,671,1310,-9.65269,-3.90857
-546,-286,-9.65479,4.15747,-0.0111351,0.00461947,-0.00217183,0.00491338,-0.011429,-1.43628,0.00968205,0.0131562,678,1310,-9.65477,-4.15746
-539,-286,-9.6781,4.40515,-0.0184462,0.00660945,-0.00221388,0.00680356,-0.0186403,-1.48334,0.0152107,0.0328829,685,1310,-9.6781,-4.40515
-532,-286,-9.66809,4.64417,0,0,0,0,0,0,0,-1,692,1310,-9.66809,-4.6442
-525,-286,-11.4528,-1.11768,0,0,0,0,0,0,0,-1,699,1310,-11.4528,1.11769
-518,-286,-11.0701,1.37329,0,0,0,0,0,0,0,-1,706,1310,-11.0701,-1.37332
-511,-286,-12.5867,1.32056,0,0,0,0,0,0,0,-1,713,1310,-12.5867,-1.32051
-504,-286,-12.8685,-1.54395,0,0,0,0,0,0,0,-1,720,1310,-12.8684,1.54394
-497,-286,-13.5206,-0.774414,-0.0582037,0.0200525,-0.00129079,0.0200738,-0.058225,-1.55431,0.0469605,0.0437657,727,1310,-13.5206,0.774359
-490,-286,-13.923,0.170776,-0.062601,0.0223388,0.00029948,0.0223399,-0.0626021,1.56727,0.0508445,0.0441645,734,1310,-13.923,-0.170776
-483,-286,-14.7314,0.420166,-0.0625686,0.0251648,0.00375237,0.025325,-0.0627288,1.52813,0.0523444,0.0452589,741,1310,-14.7314,-0.420166
-476,-286,-15.3409,0.904541,0,0,0,0,0,0,0,-1,748,1310,-15.3409,-0.904512
-469,-286,0,0,0,0,0,0,0,0,0,-1,755,1310,0,0
-462,-286,0,0,0,0,0,0,0,0,0,-1,762,1310,0,0
-455,-286,0,0,0,0,0,0,0,0,0,-1,769,1310,0,0
-448,-286,0,0,0,0,0,0,0,0,0,-1,776,1310,0,0
-441,-286,0,0,0,0,0,0,0,0,0,-1,783,1310,0,0
-434,-286,0,0,0,0,0,0,0,0,0,-1,790,1310,0,0
-427,-286,0,0,0,0,0,0,0,0,0,-1,797,1310,0,0
-420,-286,0,0,0,0,0,0,0,0,0,-1,804,1310,0,0
-413,-286,0,0,0,0,0,0,0,0,0,-1,811,1310,0,0
-406,-286,0,0,0,0,0,0,0,0,0,-1,818,1310,0,0
-399,-286,0,0,0,0,0,0,0,0,0,-1,825,1310,0,0
-392,-286,0,0,0,0,0,0,0,0,0,-1,832,1310,0,0
-385,-286,0,0,0,0,0,0,0,0,0,-1,839,1310,0,0
-378,-286,0,0,0,0,0,0,0,0,0,-1,846,1310,0,0
-371,-286,0,0,0,0,0,0,0,0,0,-1,853,1310,0,0
-364,-286,0,0,0,0,0,0,0,0,0,-1,860,1310,0,0
-357,-286,0,0,0,0,0,0,0,0,0,-1,867,1310,0,0
-350,-286,0,0,0,0,0,0,0,0,0,-1,874,1310,0,0
-343,-286,0,0,0,0,0,0,0,0,0,-1,881,1310,0,0
-336,-286,0,0,0,0,0,0,0,0,0,-1,888,1310,0,0
-329,-286,0,0,0,0,0,0,0,0,0,-1,895,1310,0,0
-322,-286,0,0,0,0,0,0,0,0,0,-1,902,1310,0,0
-315,-286,0,0,0,0,0,0,0,0,0,-1,909,1310,0,0
-308,-286,0,0,0,0,0,0,0,0,0,-1,916,1310,0,0
-301,-286,0,0,0,0,0,0,0,0,0,-1,923,1310,0,0
-294,-286,0,0,0,0,0,0,0,0,0,-1,930,1310,0,0
-287,-286,0,0,0,0,0,0,0,0,0,-1,937,1310,0,0
-280,-286,0,0,0,0,0,0,0,0,0,-1,944,1310,0,0
-273,-286,0,0,0,0,0,0,0,0,0,-1,951,1310,0,0
-266,-286,0,0,0,0,0,0,0,0,0,-1,958,1310,0,0
-259,-286,0,0,0,0,0,0,0,0,0,-1,965,1310,0,0
-252,-286,0,0,0,0,0,0,0,0,0,-1,972,1310,0,0
-245,-286,0,0,0,0,0,0,0,0,0,-1,979,1310,0,0
-238,-286,0,0,0,0,0,0,0,0,0,-1,986,1310,0,0
-231,-286,0,0,0,0,0,0,0,0,0,-1,993,1310,0,0
-224,-286,0,0,0,0,0,0,0,0,0,-1,1000,1310,0,0
-217,-286,0,0,0,0,0,0,0,0,0,-1,1007,1310,0,0
-210,-286,0,0,0,0,0,0,0,0,0,-1,1014,1310,0,0
-203,-286,0,0,0,0,0,0,0,0,0,-1,1021,1310,0,0
-196,-286,0,0,0,0,0,0,0,0,0,-1,1028,1310,0,0
-189,-286,0,0,0,0,0,0,0,0,0,-1,1035,1310,0,0
-182,-286,0,0,0,0,0,0,0,0,0,-1,1042,1310,0,0
-175,-286,0,0,0,0,0,0,0,0,0,-1,1049,1310,0,0
-168,-286,0,0,0,0,0,0,0,0,0,-1,1056,1310,0,0
-161,-286,0,0,0,0,0,0,0,0,0,-1,1063,1310,0,0
-154,-286,0,0,0,0,0,0,0,0,0,-1,1070,1310,0,0
-147,-286,0,0,0,0,0,0,0,0,0,-1,1077,1310,0,0
-140,-286,0,0,0,0,0,0,0,0,0,-1,1084,1310,0,0
-133,-286,0,0,0,0,0,0,0,0,0,-1,1091,1310,0,0
-126,-286,0,0,0,0,0,0,0,0,0,-1,1098,1310,0,0
-119,-286,0,0,0,0,0,0,0,0,0,-1,1105,1310,0,0
-112,-286,0,0,0,0,0,0,0,0,0,-1,1112,1310,0,0
-105,-286,0,0,0,0,0,0,0,0,0,-1,1119,1310,0,0
-98,-286,0,0,0,0,0,0,0,0,0,-1,1126,1310,0,0
-91,-286,0,0,0,0,0,0,0,0,0,-1,1133,1310,0,0
-84,-286,0,0,0,0,0,0,0,0,0,-1,1140,1310,0,0
-77,-286,0,0,0,0,0,0,0,0,0,-1,1147,1310,0,0
-70,-286,0,0,0,0,0,0,0,0,0,-1,1154,1310,0,0
-63,-286,0,0,0,0,0,0,0,0,0,-1,1161,1310,0,0
-56,-286,0,0,0,0,0,0,0,0,0,-1,1168,1310,0,0
-49,-286,0,0,0,0,0,0,0,0,0,-1,1175,1310,0,0
-42,-286,0,0,0,0,0,0,0,0,0,-1,1182,1310,0,0
-35,-286,0,0,0,0,0,0,0,0,0,-1,1189,1310,0,0
-28,-286,0,0,0,0,0,0,0,0,0,-1,1196,1310,0,0
-21,-286,0,0,0,0,0,0,0,0,0,-1,1203,1310,0,0
-14,-286,0,0,0,0,0,0,0,0,0,-1,1210,1310,0,0
-7,-286,0,0,0,0,0,0,0,0,0,-1,1217,1310,0,0
0,-286,0,0,0,0,0,0,0,0,0,-1,1224,1310,0,0
7,-286,0,0,0,0,0,0,0,0,0,-1,1231,1310,0,0
14,-286,0,0,0,0,0,0,0,0,0,-1,1238,1310,0,0
21,-286,0,0,0,0,0,0,0,0,0,-1,1245,1310,0,0
28,-286,0,0,0,0,0,0,0,0,0,-1,1252,1310,0,0
35,-286,0,0,0,0,0,0,0,0,0,-1,1259,1310,0,0
42,-286,0,0,0,0,0,0,0,0,0,-1,1266,1310,0,0
49,-286,0,0,0,0,0,0,0,0,0,-1,1273,1310,0,0
56,-286,0,0,0,0,0,0,0,0,0,-1,1280,1310,0,0
63,-286,0,0,0,0,0,0,0,0,0,-1,1287,1310,0,0
70,-286,0,0,0,0,0,0,0,0,0,-1,1294,1310,0,0
77,-286,0,0,0,0,0,0,0,0,0,-1,1301,1310,0,0
84,-286,0,0,0,0,0,0,0,0,0,-1,1308,1310,0,0
91,-286,0,0,0,0,0,0,0,0,0,-1,1315,1310,0,0
98,-286,0,0,0,0,0,0,0,0,0,-1,1322,1310,0,0
105,-286,0,0,0,0,0,0,0,0,0,-1,1329,1310,0,0
112,-286,0,0,0,0,0,0,0,0,0,-1,1336,1310,0,0
119,-286,0,0,0,0,0,0,0,0,0,-1,1343,1310,0,0
126,-286,0,0,0,0,0,0,0,0,0,-1,1350,1310,0,0
133,-286,0,0,0,0,0,0,0,0,0,-1,1357,1310,0,0
140,-286,0,0,0,0,0,0,0,0,0,-1,1364,1310,0,0
147,-286,0,0,0,0,0,0,0,0,0,-1,1371,1310,0,0
154,-286,0,0,0,0,0,0,0,0,0,-1,1378,1310,0,0
161,-286,0,0,0,0,0,0,0,0,0,-1,1385,1310,0,0
168,-286,0,0,0,0,0,0,0,0,0,-1,1392,1310,0,0
175,-286,0,0,0,0,0,0,0,0,0,-1,1399,1310,0,0
182,-286,0,0,0,0,0,0,0,0,0,-1,1406,1310,0,0
189,-286,0,0,0,0,0,0,0,0,0,-1,1413,1310,0,0
196,-286,0,0,0,0,0,0,0,0,0,-1,1420,1310,0,0
203,-286,0,0,0,0,0,0,0,0,0,-1,1427,1310,0,0
210,-286,0,0,0,0,0,0,0,0,0,-1,1434,1310,0,0
217,-286,0,0,0,0,0,0,0,0,0,-1,1441,1310,0,0
224,-286,0,0,0,0,0,0,0,0,0,-1,1448,1310,0,0
231,-286,0,0,0,0,0,0,0,0,0,-1,1455,1310,0,0
238,-286,0,0,0,0,0,0,0,0,0,-1,1462,1310,0,0
245,-286,0,0,0,0,0,0,0,0,0,-1,1469,1310,0,0
252,-286,0,0,0,0,0,0,0,0,0,-1,1476,1310,0,0
259,-286,0,0,0,0,0,0,0,0,0,-1,1483,1310,0,0
266,-286,0,0,0,0,0,0,0,0,0,-1,1490,1310,0,0
273,-286,0,0,0,0,0,0,0,0,0,-1,1497,1310,0,0
280,-286,0,0,0,0,0,0,0,0,0,-1,1504,1310,0,0
287,-286,0,0,0,0,0,0,0,0,0,-1,1511,1310,0,0
294,-286,0,0,0,0,0,0,0,0,0,-1,1518,1310,0,0
301,-286,0,0,0,0,0,0,0,0,0,-1,1525,1310,0,0
308,-286,0,0,0,0,0,0,0,0,0,-1,1532,1310,0,0
315,-286,0,0,0,0,0,0,0,0,0,-1,1539,1310,0,0
322,-286,0,0,0,0,0,0,0,0,0,-1,1546,1310,0,0
329,-286,0,0,0,0,0,0,0,0,0,-1,1553,1310,0,0
336,-286,0,0,0,0,0,0,0,0,0,-1,1560,1310,0,0
343,-286,0,0,0,0,0,0,0,0,0,-1,1567,1310,0,0
350,-286,0,0,0,0,0,0,0,0,0,-1,1574,1310,0,0
357,-286,0,0,0,0,0,0,0,0,0,-1,1581,1310,0,0
364,-286,0,0,0,0,0,0,0,0,0,-1,1588,1310,0,0
371,-286,0,0,0,0,0,0,0,0,0,-1,1595,1310,0,0
378,-286,0,0,0,0,0,0,0,0,0,-1,1602,1310,0,0
385,-286,0,0,0,0,0,0,0,0,0,-1,1609,1310,0,0
392,-286,0,0,0,0,0,0,0,0,0,-1,1616,1310,0,0
399,-286,0,0,0,0,0,0,0,0,0,-1,1623,1310,0,0
406,-286,0,0,0,0,0,0,0,0,0,-1,1630,1310,0,0
413,-286,0,0,0,0,0,0,0,0,0,-1,1637,1310,0,0
420,-286,0,0,0,0,0,0,0,0,0,-1,1644,1310,0,0
427,-286,0,0,0,0,0,0,0,0,0,-1,1651,1310,0,0
434,-286,0,0,0,0,0,0,0,0,0,-1,1658,1310,0,0
441,-286,0,0,0,0,0,0,0,0,0,-1,1665,1310,0,0
448,-286,0,0,0,0,0,0,0,0,0,-1,1672,1310,0,0
455,-286,0,0,0,0,0,0,0,0,0,-1,1679,1310,0,0
462,-286,0,0,0,0,0,0,0,0,0,-1,1686,1310,0,0
469,-286,0,0,0,0,0,0,0,0,0,-1,1693,1310,0,0
476,-286,0,0,0,0,0,0,0,0,0,-1,1700,1310,0,0
483,-286,0,0,0,0,0,0,0,0,0,-1,1707,1310,0,0
490,-286,0,0,0,0,0,0,0,0,0,-1,1714,1310,0,0
497,-286,0,0,0,0,0,0,0,0,0,-1,1721,1310,0,0
504,-286,0,0,0,0,0,0,0,0,0,-1,1728,1310,0,0
511,-286,0,0,0,0,0,0,0,0,0,-1,1735,1310,0,0
518,-286,0,0,0,0,0,0,0,0,0,-1,1742,1310,0,0
525,-286,0,0,0,0,0,0,0,0,0,-1,1749,1310,0,0
532,-286,0,0,0,0,0,0,0,0,0,-1,1756,1310,0,0
539,-286,0,0,0,0,0,0,0,0,0,-1,1763,1310,0,0
546,-286,0,0,0,0,0,0,0,0,0,-1,1770,1310,0,0
553,-286,0,0,0,0,0,0,0,0,0,-1,1777,1310,0,0
560,-286,0,0,0,0,0,0,0,0,0,-1,1784,1310,0,0
567,-286,0,0,0,0,0,0,0,0,0,-1,1791,1310,0,0
574,-286,0,0,0,0,0,0,0,0,0,-1,1798,1310,0,0
581,-286,0,0,0,0,0,0,0,0,0,-1,1805,1310,0,0
588,-286,0,0,0,0,0,0,0,0,0,-1,1812,1310,0,0
595,-286,23.6556,2.81091,0.0141258,0.0314834,0.00966328,0.0357931,0.00981615,1.15129,0.0213558,0.0391712,1819,1310,23.6556,-2.81089
602,-286,23.5923,2.65356,0.0100802,0.0253381,0.00708284,0.0281191,0.00729914,1.19665,0.0168486,0.0441665,1826,1310,23.5923,-2.65362
609,-286,23.6841,2.49536,0.00449328,0.018901,0.00357403,0.0197388,0.00365542,1.34052,0.0121258,0.0444177,1833,1310,23.6841,-2.49533
616,-286,23.6984,2.62097,-0.000486463,0.0126753,0.00219931,0.0130331,-0.000844239,1.40953,0.00898336,0.0461331,1840,1310,23.6984,-2.62099
623,-286,23.7942,2.4137,-0.00448575,0.00783653,0.00154991,0.00802849,-0.00467771,1.44757,0.00742047,0.0466042,1847,1310,23.7942,-2.41369
630,-286,23.5547,2.06677,-0.00702594,0.00455547,0.00120993,0.00468052,-0.00715099,1.46781,0.00688038,0.0448086,1854,1310,23.5546,-2.06671
637,-286,22.713,2.09399,-0.00839791,0.00224912,0.000833919,0.00231404,-0.00846283,1.4931,0.00655092,0.0465131,1861,1310,22.7131,-2.09397
644,-286,22.1676,2.08484,0,0,0,0,0,0,0,-1,1868,1310,22.1675,-2.08479
651,-286,18.3739,6.07556,0,0,0,0,0,0,0,-1,1875,1310,18.3738,-6.07553
658,-286,18.7969,6.12524,-0.0103877,-0.00248294,0.00119041,-0.00230756,-0.010563,1.42452,0.00641276,0.0479347,1882,1310,18.7968,-6.12518
665,-286,18.7469,6.47546,-0.0101755,-0.00337313,0.00121722,-0.00316188,-0.0103868,1.39896,0.00614782,0.0497915,1889,1310,18.7469,-6.47552
672,-286,18.3616,6.3855,-0.0095824,-0.00332413,0.00152743,-0.00297123,-0.0099353,1.34374,0.00588853,0.0332591,1896,1310,18.3616,-6.38549
679,-286,18.0983,6.19482,-0.00857562,-0.0028446,0.00237097,-0.00199088,-0.00942934,1.22518,0.00573889,0.0243784,1903,1310,18.0982,-6.19484
686,-286,18.1003,5.92725,-0.00658794,-0.00228116,0.00286467,-0.000850775,-0.00801832,1.10769,0.00508573,0.0221471,1910,1310,18.1003,-5.92721
693,-286,18.0945,5.69995,-0.00335432,-0.00131989,0.00259966,0.000454486,-0.0051287,0.971884,0.00358025,0.0161581,1917,1310,18.0945,-5.69994
700,-286,18.1189,5.49561,0.000256554,-0.000336571,0.00175002,0.00173496,-0.00181498,0.701465,0.00204974,0.0107039,1924,1310,18.1189,-5.49565
707,-286,18.1252,5.30469,0.00672398,0.00124222,-4.18579e-05,0.0067243,0.0012419,-0.00763527,0.00413159,0.00908841,1931,1310,18.1252,-5.30468
714,-286,18.1107,5.0957,0.013266,0.00410935,-0.00157672,0.0135299,0.00384545,-0.165833,0.00805031,0.00925915,1938,1310,18.1108,-5.09574
721,-286,18.1096,4.87756,0.0216784,0.00726415,-0.00303742,0.0222923,0.00665024,-0.199429,0.0132149,0.0112035,1945,1310,18.1096,-4.87751
728,-286,18.1046,4.6781,0.0325391,0.0122742,-0.00403478,0.0333129,0.0115004,-0.189479,0.0195379,0.0126971,1952,1310,18.1046,-4.67807
735,-286,18.1229,4.47571,0.0460952,0.0191977,-0.00453838,0.0468403,0.0184526,-0.162729,0.0272453,0.0139984,1959,1310,18.1229,-4.47576
742,-286,18.1154,4.21252,0.0628269,0.0283189,-0.00485404,0.0634967,0.0276491,-0.13712,0.0367616,0.0271916,1966,1310,18.1154,-4.21253
749,-286,18.5524,3.65405,0.0830765,0.0412111,-0.00422622,0.0834989,0.0407887,-0.0996086,0.0482124,0.0411745,1973,1310,18.5524,-3.65403
756,-286,19.124,3.14697,0.106476,0.0591908,-0.0018195,0.106546,0.0591209,-0.0384038,0.0616376,0.0476834,1980,1310,19.124,-3.14698
763,-286,19.4144,2.83569,0.131904,0.0837944,0.00355989,0.132166,0.0835325,0.0734623,0.0771877,0.0497134,1987,1310,19.4144,-2.83571
770,-286,19.6971,2.56433,0,0,0,0,0,0,0,-1,1994,1310,19.6971,-2.56427
777,-286,0,0,0,0,0,0,0,0,0,-1,2001,1310,0,0
784,-286,0,0,0,0,0,0,0,0,0,-1,2008,1310,0,0
791,-286,0,0,0,0,0,0,0,0,0,-1,2015,1310,0,0
798,-286,0,0,0,0,0,0,0,0,0,-1,2022,1310,0,0
805,-286,0,0,0,0,0,0,0,0,0,-1,2029,1310,0,0
812,-286,0,0,0,0,0,0,0,0,0,-1,2036,1310,0,0
-700,-293,0,0,0,0,0,0,0,0,0,-1,524,1317,0,0
-693,-293,0,0,0,0,0,0,0,0,0,-1,531,1317,0,0
-686,-293,0,0,0,0,0,0,0,0,0,-1,538,1317,0,0
-679,-293,0,0,0,0,0,0,0,0,0,-1,545,1317,0,0
-672,-293,0,0,0,0,0,0,0,0,0,-1,552,1317,0,0
-665,-293,0,0,0,0,0,0,0,0,0,-1,559,1317,0,0
-658,-293,0,0,0,0,0,0,0,0,0,-1,566,1317,0,0
-651,-293,-8.74939,-0.894531,0,0,0,0,0,0,0,-1,573,1317,-8.74939,0.894486
-644,-293,-9.15582,-1.58716,-0.0510381,0.144073,-0.0161197,0.145396,-0.0523609,-1.48892,0.118312,0.0487724,580,1317,-9.15584,1.58714
-637,-293,-9.68512,-1.5531,-0.0394806,0.132361,-0.00381145,0.132445,-0.0395651,-1.54863,0.104024,0.0465223,587,1317,-9.68514,1.55309
-630,-293,-10.2875,-1.5592,-0.0296719,0.116096,0.00354057,0.116182,-0.0297578,1.54653,0.0890468,0.0472037,594,1317,-10.2875,1.55923
-623,-293,-11.3631,-1.75769,-0.0215798,0.0980212,0.00753773,0.0984944,-0.022053,1.5081,0.0741157,0.0441756,601,1317,-11.3631,1.75765
-616,-293,-9.25482,-0.181152,-0.0151078,0.0798324,0.00928465,0.0807318,-0.0160072,1.47422,0.0598745,0.0438461,608,1317,-9.25481,0.181106
-609,-293,-9.18396,1.82837,0,0,0,0,0,0,0,-1,615,1317,-9.18397,-1.8284
-602,-293,-9.34064,2.0415,-0.00605362,0.0482731,0.00973731,0.0499657,-0.00774617,1.3987,0.03617,0.0301773,622,1317,-9.34061,-2.04145
-595,-293,-9.42584,2.41565,-0.00327029,0.0349762,0.00899804,0.0369873,-0.00528145,1.3509,0.0265941,0.0157219,629,1317,-9.42583,-2.41562
-588,-293,-9.3924,2.65051,-0.00127969,0.0235265,0.00747085,0.0256027,-0.00335591,1.29973,0.01829,0.0156928,636,1317,-9.39242,-2.65054
-581,-293,-9.38068,2.87781,0.000723127,0.0133139,0.0053226,0.0152624,-0.00122539,1.21987,0.010607,0.0168461,643,1317,-9.38069,-2.87776
-574,-293,-9.40137,3.14209,0.00209072,0.00565367,0.00354334,0.00783817,-9.3777e-05,1.01833,0.00525699,0.0144528,650,1317,-9.40138,-3.14211
-567,-293,-9.4317,3.41138,0.00142288,0.000871631,0.00118212,0.00236108,-6.65783e-05,0.670865,0.00159671,0.0146761,657,1317,-9.4317,-3.41137
-560,-293,-9.44336,3.67029,-0.000746376,0.000615316,-0.000358077,0.000703737,-0.000834796,-1.32871,0.000889346,0.0156786,664,1317,-9.44334,-3.67034
-553,-293,-9.40686,3.91663,-0.00384873,0.00107353,-0.00181109,0.00166808,-0.00444328,-1.2536,0.00364765,0.0106066,671,1317,-9.40684,-3.91663
-546,-293,-9.41663,4.18213,-0.00987948,0.00228099,-0.0023169,0.00270747,-0.010306,-1.38876,0.00792874,0.00996417,678,1317,-9.41664,-4.18214
-539,-293,-9.41132,4.41272,-0.0171601,0.00393524,-0.00257243,0.0042444,-0.0174693,-1.45119,0.0132889,0.0246162,685,1317,-9.4113,-4.41267
-532,-293,-9.7301,4.42468,0,0,0,0,0,0,0,-1,692,1317,-9.73007,-4.42466
-525,-293,-8.20642,3.62256,0,0,0,0,0,0,0,-1,699,1317,-8.20639,-3.6226
-518,-293,-10.1053,0.314209,0,0,0,0,0,0,0,-1,706,1317,-10.1053,-0.314234
-511,-293,-11.6276,0.235352,0,0,0,0,0,0,0,-1,713,1317,-11.6276,-0.235372
-504,-293,-12.7952,-0.503662,0,0,0,0,0,0,0,-1,720,1317,-12.7952,0.503708
-497,-293,-13.2831,-0.993774,0,0,0,0,0,0,0,-1,727,1317,-13.2832,0.993781
-490,-293,-13.5778,-0.0212402,0,0,0,0,0,0,0,-1,734,1317,-13.5778,0.0211991
-483,-293,-14.1409,0.455566,0,0,0,0,0,0,0,-1,741,1317,-14.1409,-0.455583
-476,-293,-13.4256,0.298706,0,0,0,0,0,0,0,-1,748,1317,-13.4256,-0.298756
-469,-293,0,0,0,0,0,0,0,0,0,-1,755,1317,0,0
-462,-293,0,0,0,0,0,0,0,0,0,-1,762,1317,0,0
-455,-293,0,0,0,0,0,0,0,0,0,-1,769,1317,0,0
-448,-293,0,0,0,0,0,0,0,0,0,-1,776,1317,0,0
-441,-293,0,0,0,0,0,0,0,0,0,-1,783,1317,0,0
-434,-293,0,0,0,0,0,0,0,0,0,-1,790,1317,0,0
-427,-293,0,0,0,0,0,0,0,0,0,-1,797,1317,0,0
-420,-293,0,0,0,0,0,0,0,0,0,-1,804,1317,0,0
-413,-293,0,0,0,0,0,0,0,0,0,-1,811,1317,0,0
-406,-293,0,0,0,0,0,0,0,0,0,-1,818,1317,0,0
-399,-293,0,0,0,0,0,0,0,0,0,-1,825,1317,0,0
-392,-293,0,0,0,0,0,0,0,0,0,-1,832,1317,0,0
-385,-293,0,0,0,0,0,0,0,0,0,-1,839,1317,0,0
-378,-293,0,0,0,0,0,0,0,0,0,-1,846,1317,0,0
-371,-293,0,0,0,0,0,0,0,0,0,-1,853,1317,0,0
-364,-293,0,0,0,0,0,0,0,0,0,-1,860,1317,0,0
-357,-293,0,0,0,0,0,0,0,0,0,-1,867,1317,0,0
-350,-293,0,0,0,0,0,0,0,0,0,-1,874,1317,0,0
-343,-293,0,0,0,0,0,0,0,0,0,-1,881,1317,0,0
-336,-293,0,0,0,0,0,0,0,0,0,-1,888,1317,0,0
-329,-293,0,0,0,0,0,0,0,0,0,-1,895,1317,0,0
-322,-293,0,0,0,0,0,0,0,0,0,-1,902,1317,0,0
-315,-293,0,0,0,0,0,0,0,0,0,-1,909,1317,0,0
-308,-293,0,0,0,0,0,0,0,0,0,-1,916,1317,0,0
-301,-293,0,0,0,0,0,0,0,0,0,-1,923,1317,0,0
-294,-293,0,0,0,0,0,0,0,0,0,-1,930,1317,0,0
-287,-293,0,0,0,0,0,0,0,0,0,-1,937,1317,0,0
-280,-293,0,0,0,0,0,0,0,0,0,-1,944,1317,0,0
-273,-293,0,0,0,0,0,0,0,0,0,-1,951,1317,0,0
-266,-293,0,0,0,0,0,0,0,0,0,-1,958,1317,0,0
-259,-293,0,0,0,0,0,0,0,0,0,-1,965,1317,0,0
-252,-293,0,0,0,0,0,0,0,0,0,-1,972,1317,0,0
-245,-293,0,0,0,0,0,0,0,0,0,-1,979,1317,0,0
-238,-293,0,0,0,0,0,0,0,0,0,-1,986,1317,0,0
-231,-293,0,0,0,0,0,0,0,0,0,-1,993,1317,0,0
-224,-293,0,0,0,0,0,0,0,0,0,-1,1000,1317,0,0
-217,-293,0,0,0,0,0,0,0,0,0,-1,1007,1317,0,0
-210,-293,0,0,0,0,0,0,0,0,0,-1,1014,1317,0,0
-203,-293,0,0,0,0,0,0,0,0,0,-1,1021,1317,0,0
-196,-293,0,0,0,0,0,0,0,0,0,-1,1028,1317,0,0
-189,-293,0,0,0,0,0,0,0,0,0,-1,1035,1317,0,0
-182,-293,0,0,0,0,0,0,0,0,0,-1,1042,1317,0,0
-175,-293,0,0,0,0,0,0,0,0,0,-1,1049,1317,0,0
-168,-293,0,0,0,0,0,0,0,0,0,-1,1056,1317,0,0
-161,-293,0,0,0,0,0,0,0,0,0,-1,1063,1317,0,0
-154,-293,0,0,0,0,0,0,0,0,0,-1,1070,1317,0,0
-147,-293,0,0,0,0,0,0,0,0,0,-1,1077,1317,0,0
-140,-293,0,0,0,0,0,0,0,0,0,-1,1084,1317,0,0
-133,-293,0,0,0,0,0,0,0,0,0,-1,1091,1317,0,0
-126,-293,0,0,0,0,0,0,0,0,0,-1,1098,1317,0,0
-119,-293,0,0,0,0,0,0,0,0,0,-1,1105,1317,0,0
-112,-293,0,0,0,0,0,0,0,0,0,-1,1112,1317,0,0
-105,-293,0,0,0,0,0,0,0,0,0,-1,1119,1317,0,0
-98,-293,0,0,0,0,0,0,0,0,0,-1,1126,1317,0,0
-91,-293,0,0,0,0,0,0,0,0,0,-1,1133,1317,0,0
-84,-293,0,0,0,0,0,0,0,0,0,-1,1140,1317,0,0
-77,-293,0,0,0,0,0,0,0,0,0,-1,1147,1317,0,0
-70,-293,0,0,0,0,0,0,0,0,0,-1,1154,1317,0,0
-63,-293,0,0,0,0,0,0,0,0,0,-1,1161,1317,0,0
-56,-293,0,0,0,0,0,0,0,0,0,-1,1168,1317,0,0
-49,-293,0,0,0,0,0,0,0,0,0,-1,1175,1317,0,0
-42,-293,0,0,0,0,0,0,0,0,0,-1,1182,1317,0,0
-35,-293,0,0,0,0,0,0,0,0,0,-1,1189,1317,0,0
-28,-293,0,0,0,0,0,0,0,0,0,-1,1196,1317,0,0
-21,-293,0,0,0,0,0,0,0,0,0,-1,1203,1317,0,0
-14,-293,0,0,0,0,0,0,0,0,0,-1,1210,1317,0,0
-7,-293,0,0,0,0,0,0,0,0,0,-1,1217,1317,0,0
0,-293,0,0,0,0,0,0,0,0,0,-1,1224,1317,0,0
7,-293,0,0,0,0,0,0,0,0,0,-1,1231,1317,0,0
14,-293,0,0,0,0,0,0,0,0,0,-1,1238,1317,0,0
21,-293,0,0,0,0,0,0,0,0,0,-1,1245,1317,0,0
28,-293,0,0,0,0,0,0,0,0,0,-1,1252,1317,0,0
35,-293,0,0,0,0,0,0,0,0,0,-1,1259,1317,0,0
42,-293,0,0,0,0,0,0,0,0,0,-1,1266,1317,0,0
49,-293,0,0,0,0,0,0,0,0,0,-1,1273,1317,0,0
56,-293,0,0,0,0,0,0,0,0,0,-1,1280,1317,0,0
63,-293,0,0,0,0,0,0,0,0,0,-1,1287,1317,0,0
70,-293,0,0,0,0,0,0,0,0,0,-1,1294,1317,0,0
77,-293,0,0,0,0,0,0,0,0,0,-1,1301,1317,0,0
84,-293,0,0,0,0,0,0,0,0,0,-1,1308,1317,0,0
91,-293,0,0,0,0,0,0,0,0,0,-1,1315,1317,0,0
98,-293,0,0,0,0,0,0,0,0,0,-1,1322,1317,0,0
105,-293,0,0,0,0,0,0,0,0,0,-1,1329,1317,0,0
112,-293,0,0,0,0,0,0,0,0,0,-1,1336,1317,0,0
119,-293,0,0,0,0,0,0,0,0,0,-1,1343,1317,0,0
126,-293,0,0,0,0,0,0,0,0,0,-1,1350,1317,0,0
133,-293,0,0,0,0,0,0,0,0,0,-1,1357,1317,0,0
140,-293,0,0,0,0,0,0,0,0,0,-1,1364,1317,0,0
147,-293,0,0,0,0,0,0,0,0,0,-1,1371,1317,0,0
154,-293,0,0,0,0,0,0,0,0,0,-1,1378,1317,0,0
161,-293,0,0,0,0,0,0,0,0,0,-1,1385,1317,0,0
168,-293,0,0,0,0,0,0,0,0,0,-1,1392,1317,0,0
175,-293,0,0,0,0,0,0,0,0,0,-1,1399,1317,0,0
182,-293,0,0,0,0,0,0,0,0,0,-1,1406,1317,0,0
189,-293,0,0,0,0,0,0,0,0,0,-1,1413,1317,0,0
196,-293,0,0,0,0,0,0,0,0,0,-1,1420,1317,0,0
203,-293,0,0,0,0,0,0,0,0,0,-1,1427,1317,0,0
210,-293,0,0,0,0,0,0,0,0,0,-1,1434,1317,0,0
217,-293,0,0,0,0,0,0,0,0,0,-1,1441,1317,0,0
224,-293,0,0,0,0,0,0,0,0,0,-1,1448,1317,0,0
231,-293,0,0,0,0,0,0,0,0,0,-1,1455,1317,0,0
238,-293,0,0,0,0,0,0,0,0,0,-1,1462,1317,0,0
245,-293,0,0,0,0,0,0,0,0,0,-1,1469,1317,0,0
252,-293,0,0,0,0,0,0,0,0,0,-1,1476,1317,0,0
259,-293,0,0,0,0,0,0,0,0,0,-1,1483,1317,0,0
266,-293,0,0,0,0,0,0,0,0,0,-1,1490,1317,0,0
273,-293,0,0,0,0,0,0,0,0,0,-1,1497,1317,0,0
280,-293,0,0,0,0,0,0,0,0,0,-1,1504,1317,0,0
287,-293,0,0,0,0,0,0,0,0,0,-1,1511,1317,0,0
294,-293,0,0,0,0,0,0,0,0,0,-1,1518,1317,0,0
301,-293,0,0,0,0,0,0,0,0,0,-1,1525,1317,0,0
308,-293,0,0,0,0,0,0,0,0,0,-1,1532,1317,0,0
315,-293,0,0,0,0,0,0,0,0,0,-1,1539,1317,0,0
322,-293,0,0,0,0,0,0,0,0,0,-1,1546,1317,0,0
329,-293,0,0,0,0,0,0,0,0,0,-1,1553,1317,0,0
336,-293,0,0,0,0,0,0,0,0,0,-1,1560,1317,0,0
343,-293,0,0,0,0,0,0,0,0,0,-1,1567,1317,0,0
350,-293,0,0,0,0,0,0,0,0,0,-1,1574,1317,0,0
357,-293,0,0,0,0,0,0,0,0,0,-1,1581,1317,0,0
364,-293,0,0,0,0,0,0,0,0,0,-1,1588,1317,0,0
371,-293,0,0,0,0,0,0,0,0,0,-1,1595,1317,0,0
378,-293,0,0,0,0,0,0,0,0,0,-1,1602,1317,0,0
385,-293,0,0,0,0,0,0,0,0,0,-1,1609,1317,0,0
392,-293,0,0,0,0,0,0,0,0,0,-1,1616,1317,0,0
399,-293,0,0,0,0,0,0,0,0,0,-1,1623,1317,0,0
406,-293,0,0,0,0,0,0,0,0,0,-1,1630,1317,0,0
413,-293,0,0,0,0,0,0,0,0,0,-1,1637,1317,0,0
420,-293,0,0,0,0,0,0,0,0,0,-1,1644,1317,0,0
427,-293,0,0,0,0,0,0,0,0,0,-1,1651,1317,0,0
434,-293,0,0,0,0,0,0,0,0,0,-1,1658,1317,0,0
441,-293,0,0,0,0,0,0,0,0,0,-1,1665,1317,0,0
448,-293,0,0,0,0,0,0,0,0,0,-1,1672,1317,0,0
455,-293,0,0,0,0,0,0,0,0,0,-1,1679,1317,0,0
462,-293,0,0,0,0,0,0,0,0,0,-1,1686,1317,0,0
469,-293,0,0,0,0,0,0,0,0,0,-1,1693,1317,0,0
476,-293,0,0,0,0,0,0,0,0,0,-1,1700,1317,0,0
483,-293,0,0,0,0,0,0,0,0,0,-1,1707,1317,0,0
490,-293,0,0,0,0,0,0,0,0,0,-1,1714,1317,0,0
497,-293,0,0,0,0,0,0,0,0,0,-1,1721,1317,0,0
504,-293,0,0,0,0,0,0,0,0,0,-1,1728,1317,0,0
511,-293,0,0,0,0,0,0,0,0,0,-1,1735,1317,0,0
518,-293,0,0,0,0,0,0,0,0,0,-1,1742,1317,0,0
525,-293,0,0,0,0,0,0,0,0,0,-1,1749,1317,0,0
532,-293,0,0,0,0,0,0,0,0,0,-1,1756,1317,0,0
539,-293,0,0,0,0,0,0,0,0,0,-1,1763,1317,0,0
546,-293,0,0,0,0,0,0,0,0,0,-1,1770,1317,0,0
553,-293,0,0,0,0,0,0,0,0,0,-1,1777,1317,0,0
560,-293,0,0,0,0,0,0,0,0,0,-1,1784,1317,0,0
567,-293,0,0,0,0,0,0,0,0,0,-1,1791,1317,0,0
574,-293,0,0,0,0,0,0,0,0,0,-1,1798,1317,0,0
581,-293,0,0,0,0,0,0,0,0,0,-1,1805,1317,0,0
588,-293,0,0,0,0,0,0,0,0,0,-1,1812,1317,0,0
595,-293,23.7424,2.76929,0,0,0,0,0,0,0,-1,1819,1317,23.7425,-2.76929
602,-293,23.6256,2.57166,0,0,0,0,0,0,0,-1,1826,1317,23.6256,-2.57161
609,-293,23.8439,2.79651,0,0,0,0,0,0,0,-1,1833,1317,23.8439,-2.79647
616,-293,23.6892,2.72351,0.000977898,0.0130141,0.00563604,0.0152411,-0.00124915,1.19448,0.0106017,0.0488031,1840,1317,23.6893,-2.72347
623,-293,23.7747,2.39099,-0.00272174,0.00810823,0.00467643,0.00984804,-0.00446155,1.21463,0.0084545,0.0486176,1847,1317,23.7746,-2.39102
630,-293,23.6127,2.19604,-0.00520388,0.00462355,0.00388713,0.00597516,-0.0065555,1.23616,0.00723717,0.0483073,1854,1317,23.6126,-2.19606
637,-293,22.9714,2.63147,-0.00672686,0.00205143,0.00289966,0.00292277,-0.00759819,1.27889,0.00627102,0.0499962,1861,1317,22.9714,-2.63142
644,-293,22.5355,3.37354,0,0,0,0,0,0,0,-1,1868,1317,22.5355,-3.37358
651,-293,18.551,6.34119,0,0,0,0,0,0,0,-1,1875,1317,18.5511,-6.34114
658,-293,18.3579,6.39368,-0.00991731,-0.00376842,0.00229783,-0.0030046,-0.0106811,1.24988,0.00636035,0.0402508,1882,1317,18.3579,-6.39372
665,-293,18.2063,6.39709,-0.00978744,-0.00479195,0.00209192,-0.00403165,-0.0105477,1.22219,0.00614579,0.0342035,1889,1317,18.2064,-6.39706
672,-293,17.9573,6.37524,-0.00907511,-0.00458697,0.00224695,-0.00365541,-0.0100067,1.17778,0.00584682,0.0169034,1896,1317,17.9573,-6.37524
679,-293,17.9185,6.15295,-0.00791517,-0.00369735,0.00292303,-0.00220187,-0.00941065,1.0979,0.0056838,0.0125485,1903,1317,17.9184,-6.15301
686,-293,17.903,5.92175,-0.00585723,-0.00271655,0.00311556,-0.000797954,-0.00777583,1.01883,0.00493944,0.0148716,1910,1317,17.9029,-5.92173
693,-293,17.9102,5.70593,-0.00253079,-0.00138616,0.00246626,0.000573318,-0.00449027,0.899409,0.00320178,0.0115085,1917,1317,17.9101,-5.70592
700,-293,17.9081,5.48962,0.00146374,-1.68633e-05,0.0014023,0.00230915,-0.000862276,0.542532,0.00189348,0.0103372,1924,1317,17.9081,-5.4896
707,-293,17.9103,5.31018,0.00794676,0.0018666,-0.000290288,0.00796059,0.00185277,-0.0475991,0.00480992,0.0110557,1931,1317,17.9103,-5.31021
714,-293,17.9045,5.1062,0.0146639,0.00497644,-0.00167692,0.014946,0.00469437,-0.166644,0.00882565,0.00824658,1938,1317,17.9045,-5.10617
721,-293,17.9105,4.87769,0.0232525,0.00829732,-0.00292994,0.023806,0.00774379,-0.186722,0.0140213,0.00923939,1945,1317,17.9105,-4.87774
728,-293,17.9008,4.65515,0.034287,0.0131397,-0.00382526,0.0349576,0.012469,-0.173562,0.0204573,0.0100885,1952,1317,17.9007,-4.65517
735,-293,17.9149,4.43066,0.0481666,0.0197076,-0.00431611,0.0488068,0.0190674,-0.14725,0.0284023,0.0147875,1959,1317,17.9149,-4.43072
742,-293,17.913,4.17944,0.065433,0.0284618,-0.00456291,0.0659878,0.027907,-0.120999,0.0382487,0.0295449,1966,1317,17.9129,-4.17948
749,-293,18.4594,3.66882,0.0863589,0.0406158,-0.00395735,0.0866987,0.040276,-0.0856644,0.0500974,0.0415555,1973,1317,18.4594,-3.66881
756,-293,19.1677,3.07495,0,0,0,0,0,0,0,-1,1980,1317,19.1677,-3.07496
763,-293,19.5724,2.77686,0,0,0,0,0,0,0,-1,1987,1317,19.5724,-2.77686
770,-293,18.6544,1.7428,0,0,0,0,0,0,0,-1,1994,1317,18.6544,-1.74274
777,-293,0,0,0,0,0,0,0,0,0,-1,2001,1317,0,0
784,-293,0,0,0,0,0,0,0,0,0,-1,2008,1317,0,0
791,-293,0,0,0,0,0,0,0,0,0,-1,2015,1317,0,0
798,-293,0,0,0,0,0,0,0,0,0,-1,2022,1317,0,0
805,-293,0,0,0,0,0,0,0,0,0,-1,2029,1317,0,0
812,-293,0,0,0,0,0,0,0,0,0,-1,2036,1317,0,0
-700,-300,0,0,0,0,0,0,0,0,0,-1,524,1324,0,0
-693,-300,0,0,0,0,0,0,0,0,0,-1,531,1324,0,0
-686,-300,0,0,0,0,0,0,0,0,0,-1,538,1324,0,0
-679,-300,0,0,0,0,0,0,0,0,0,-1,545,1324,0,0
-672,-300,0,0,0,0,0,0,0,0,0,-1,552,1324,0,0
-665,-300,0,0,0,0,0,0,0,0,0,-1,559,1324,0,0
-658,-300,0,0,0,0,0,0,0,0,0,-1,566,1324,0,0
-651,-300,-9.28979,-2.52283,0,0,0,0,0,0,0,-1,573,1324,-9.28979,2.52288
-644,-300,-9.52692,-2.5238,-0.0581492,0.175033,-0.00829868,0.175328,-0.0584442,-1.53527,0.140479,0.0495852,580,1324,-9.52693,2.52379
-637,-300,-9.9209,-2.52283,-0.0457105,0.159055,0.00229323,0.159081,-0.0457362,1.5596,0.12414,0.0488446,587,1324,-9.92089,2.52287
-630,-300,-10.1252,-2.33801,-0.0350425,0.138017,0.00792302,0.138379,-0.0354045,1.52514,0.106043,0.0480289,594,1324,-10.1252,2.33807
-623,-300,-11.5741,-2.62061,-0.0260673,0.115538,0.0105857,0.116325,-0.0268543,1.49659,0.0878799,0.0454765,601,1324,-11.5741,2.62058
-616,-300,-9.5755,1.1178,-0.0187538,0.0935002,0.0113885,0.094644,-0.0198975,1.4707,0.0706685,0.0447938,608,1324,-9.5755,-1.11779
-609,-300,-9.05469,1.5415,-0.0129929,0.0730453,0.0109677,0.0744214,-0.014369,1.44598,0.0550328,0.0434442,615,1324,-9.0547,-1.54154
-602,-300,-9.03149,1.99182,-0.00848421,0.0558951,0.010619,0.0576015,-0.0101905,1.41147,0.0422099,0.0361885,622,1324,-9.03146,-1.99182
-595,-300,-9.18799,2.38379,-0.00516436,0.0402898,0.00934557,0.0421363,-0.00701084,1.37573,0.0306958,0.0211751,629,1324,-9.18801,-2.38384
-588,-300,-9.14081,2.65247,-0.00258396,0.0271207,0.00759827,0.0289515,-0.00441472,1.33436,0.0209283,0.0214012,636,1324,-9.14079,-2.65245
-581,-300,-9.14795,2.89941,-0.000174993,0.0155753,0.00540548,0.017252,-0.00185166,1.27003,0.0121656,0.0198092,643,1324,-9.14793,-2.89946
-574,-300,-9.16254,3.15161,0.00164871,0.00667552,0.00359701,0.00855024,-0.000226017,1.09034,0.00577697,0.0148981,650,1324,-9.16256,-3.15163
-567,-300,-9.17438,3.41687,0.00120156,0.000981033,0.0011288,0.00222547,-4.28761e-05,0.736712,0.00149814,0.015452,657,1324,-9.17435,-3.41691
-560,-300,-9.18732,3.68848,-0.000851461,0.000583874,-0.000511894,0.000747729,-0.00101532,-1.26101,0.0010218,0.0135604,664,1324,-9.18732,-3.6885
-553,-300,-9.16699,3.93787,-0.00335624,0.000425995,-0.0019159,0.0012269,-0.00415714,-1.17484,0.00325833,0.00930494,671,1324,-9.16698,-3.93786
-546,-300,-9.16302,4.18408,-0.00877623,0.00103513,-0.00267762,0.00171831,-0.00945941,-1.32098,0.00695021,0.00812572,678,1324,-9.16305,-4.18403
-539,-300,-9.15393,4.44104,-0.01568,0.00224984,-0.00320419,0.00280525,-0.0162355,-1.39916,0.0118697,0.0150278,685,1324,-9.15394,-4.44108
-532,-300,-9.32092,4.52258,-0.0225109,0.00389706,-0.00380839,0.00443531,-0.0230492,-1.43039,0.0170381,0.0389832,692,1324,-9.32094,-4.52256
-525,-300,-9.48407,4.4679,0,0,0,0,0,0,0,-1,699,1324,-9.48409,-4.4679
-518,-300,-9.8349,-0.537109,0,0,0,0,0,0,0,-1,706,1324,-9.83487,0.537068
-511,-300,-10.9606,-0.611328,-0.0424406,0.0104575,-0.00428154,0.0108018,-0.0427849,-1.49055,0.0327236,0.0456992,713,1324,-10.9606,0.611334
-504,-300,-11.9684,-0.761963,-0.0493487,0.013059,-0.00394502,0.0133074,-0.0495971,-1.50792,0.0382795,0.044794,720,1324,-11.9684,0.761981
-497,-300,-12.8073,-0.66626,-0.0558406,0.0157961,-0.00344667,0.0159616,-0.056006,-1.52283,0.0436419,0.0470849,727,1324,-12.8073,0.666219
-490,-300,-13.2748,-0.221191,0,0,0,0,0,0,0,-1,734,1324,-13.2748,0.221223
-483,-300,-13.2533,0.178101,-0.0647596,0.0234886,-9.91887e-06,0.0234886,-0.0647596,-1.57068,0.0527747,0.0408769,741,1324,-13.2533,-0.178142
-476,-300,-13.1127,0.436401,-0.0645922,0.0295741,0.00436554,0.0297761,-0.0647942,1.52457,0.0558339,0.0443376,748,1324,-13.1126,-0.436348
-469,-300,0,0,0,0,0,0,0,0,0,-1,755,1324,0,0
-462,-300,0,0,0,0,0,0,0,0,0,-1,762,1324,0,0
-455,-300,0,0,0,0,0,0,0,0,0,-1,769,1324,0,0
-448,-300,0,0,0,0,0,0,0,0,0,-1,776,1324,0,0
-441,-300,0,0,0,0,0,0,0,0,0,-1,783,1324,0,0
-434,-300,0,0,0,0,0,0,0,0,0,-1,790,1324,0,0
-427,-300,0,0,0,0,0,0,0,0,0,-1,797,1324,0,0
-420,-300,0,0,0,0,0,0,0,0,0,-1,804,1324,0,0
-413,-300,0,0,0,0,0,0,0,0,0,-1,811,1324,0,0
-406,-300,0,0,0,0,0,0,0,0,0,-1,818,1324,0,0
-399,-300,0,0,0,0,0,0,0,0,0,-1,825,1324,0,0
-392,-300,0,0,0,0,0,0,0,0,0,-1,832,1324,0,0
-385,-300,0,0,0,0,0,0,0,0,0,-1,839,1324,0,0
-378,-300,0,0,0,0,0,0,0,0,0,-1,846,1324,0,0
-371,-300,0,0,0,0,0,0,0,0,0,-1,853,1324,0,0
-364,-300,0,0,0,0,0,0,0,0,0,-1,860,1324,0,0
-357,-300,0,0,0,0,0,0,0,0,0,-1,867,1324,0,0
-350,-300,0,0,0,0,0,0,0,0,0,-1,874,1324,0,0
-343,-300,0,0,0,0,0,0,0,0,0,-1,881,1324,0,0
-336,-300,0,0,0,0,0,0,0,0,0,-1,888,1324,0,0
-329,-300,0,0,0,0,0,0,0,0,0,-1,895,1324,0,0
-322,-300,0,0,0,0,0,0,0,0,0,-1,902,1324,0,0
-315,-300,0,0,0,0,0,0,0,0,0,-1,909,1324,0,0
-308,-300,0,0,0,0,0,0,0,0,0,-1,916,1324,0,0
-301,-300,0,0,0,0,0,0,0,0,0,-1,923,1324,0,0
-294,-300,0,0,0,0,0,0,0,0,0,-1,930,1324,0,0
-287,-300,0,0,0,0,0,0,0,0,0,-1,937,1324,0,0
-280,-300,0,0,0,0,0,0,0,0,0,-1,944,1324,0,0
-273,-300,0,0,0,0,0,0,0,0,0,-1,951,1324,0,0
-266,-300,0,0,0,0,0,0,0,0,0,-1,958,1324,0,0
-259,-300,0,0,0,0,0,0,0,0,0,-1,965,1324,0,0
-252,-300,0,0,0,0,0,0,0,0,0,-1,972,1324,0,0
-245,-300,0,0,0,0,0,0,0,0,0,-1,979,1324,0,0
-238,-300,0,0,0,0,0,0,0,0,0,-1,986,1324,0,0
-231,-300,0,0,0,0,0,0,0,0,0,-1,993,1324,0,0
-224,-300,0,0,0,0,0,0,0,0,0,-1,1000,1324,0,0
-217,-300,0,0,0,0,0,0,0,0,0,-1,1007,1324,0,0
-210,-300,0,0,0,0,0,0,0,0,0,-1,1014,1324,0,0
-203,-300,0,0,0,0,0,0,0,0,0,-1,1021,1324,0,0
-196,-300,0,0,0,0,0,0,0,0,0,-1,1028,1324,0,0
-189,-300,0,0,0,0,0,0,0,0,0,-1,1035,1324,0,0
-182,-300,0,0,0,0,0,0,0,0,0,-1,1042,1324,0,0
-175,-300,0,0,0,0,0,0,0,0,0,-1,1049,1324,0,0
-168,-300,0,0,0,0,0,0,0,0,0,-1,1056,1324,0,0
-161,-300,0,0,0,0,0,0,0,0,0,-1,1063,1324,0,0
-154,-300,0,0,0,0,0,0,0,0,0,-1,1070,1324,0,0
-147,-300,0,0,0,0,0,0,0,0,0,-1,1077,1324,0,0
-140,-300,0,0,0,0,0,0,0,0,0,-1,1084,1324,0,0
-133,-300,0,0,0,0,0,0,0,0,0,-1,1091,1324,0,0
-126,-300,0,0,0,0,0,0,0,0,0,-1,1098,1324,0,0
-119,-300,0,0,0,0,0,0,0,0,0,-1,1105,1324,0,0
-112,-300,0,0,0,0,0,0,0,0,0,-1,1112,1324,0,0
-105,-300,0,0,0,0,0,0,0,0,0,-1,1119,1324,0,0
-98,-300,0,0,0,0,0,0,0,0,0,-1,1126,1324,0,0
-91,-300,0,0,0,0,0,0,0,0,0,-1,1133,1324,0,0
-84,-300,0,0,0,0,0,0,0,0,0,-1,1140,1324,0,0
-77,-300,0,0,0,0,0,0,0,0,0,-1,1147,1324,0,0
-70,-300,0,0,0,0,0,0,0,0,0,-1,1154,1324,0,0
-63,-300,0,0,0,0,0,0,0,0,0,-1,1161,1324,0,0
-56,-300,0,0,0,0,0,0,0,0,0,-1,1168,1324,0,0
-49,-300,0,0,0,0,0,0,0,0,0,-1,1175,1324,0,0
-42,-300,0,0,0,0,0,0,0,0,0,-1,1182,1324,0,0
-35,-300,0,0,0,0,0,0,0,0,0,-1,1189,1324,0,0
-28,-300,0,0,0,0,0,0,0,0,0,-1,1196,1324,0,0
-21,-300,0,0,0,0,0,0,0,0,0,-1,1203,1324,0,0
-14,-300,0,0,0,0,0,0,0,0,0,-1,1210,1324,0,0
-7,-300,0,0,0,0,0,0,0,0,0,-1,1217,1324,0,0
0,-300,0,0,0,0,0,0,0,0,0,-1,1224,1324,0,0
7,-300,0,0,0,0,0,0,0,0,0,-1,1231,1324,0,0
14,-300,0,0,0,0,0,0,0,0,0,-1,1238,1324,0,0
21,-300,0,0,0,0,0,0,0,0,0,-1,1245,1324,0,0
28,-300,0,0,0,0,0,0,0,0,0,-1,1252,1324,0,0
35,-300,0,0,0,0,0,0,0,0,0,-1,1259,1324,0,0
42,-300,0,0,0,0,0,0,0,0,0,-1,1266,1324,0,0
49,-300,0,0,0,0,0,0,0,0,0,-1,1273,1324,0,0
56,-300,0,0,0,0,0,0,0,0,0,-1,1280,1324,0,0
63,-300,0,0,0,0,0,0,0,0,0,-1,1287,1324,0,0
70,-300,0,0,0,0,0,0,0,0,0,-1,1294,1324,0,0
77,-300,0,0,0,0,0,0,0,0,0,-1,1301,1324,0,0
84,-300,0,0,0,0,0,0,0,0,0,-1,1308,1324,0,0
91,-300,0,0,0,0,0,0,0,0,0,-1,1315,1324,0,0
98,-300,0,0,0,0,0,0,0,0,0,-1,1322,1324,0,0
105,-300,0,0,0,0,0,0,0,0,0,-1,1329,1324,0,0
112,-300,0,0,0,0,0,0,0,0,0,-1,1336,1324,0,0
119,-300,0,0,0,0,0,0,0,0,0,-1,1343,1324,0,0
126,-300,0,0,0,0,0,0,0,0,0,-1,1350,1324,0,0
133,-300,0,0,0,0,0,0,0,0,0,-1,1357,1324,0,0
140,-300,0,0,0,0,0,0,0,0,0,-1,1364,1324,0,0
147,-300,0,0,0,0,0,0,0,0,0,-1,1371,1324,0,0
154,-300,0,0,0,0,0,0,0,0,0,-1,1378,1324,0,0
161,-300,0,0,0,0,0,0,0,0,0,-1,1385,1324,0,0
168,-300,0,0,0,0,0,0,0,0,0,-1,1392,1324,0,0
175,-300,0,0,0,0,0,0,0,0,0,-1,1399,1324,0,0
182,-300,0,0,0,0,0,0,0,0,0,-1,1406,1324,0,0
189,-300,0,0,0,0,0,0,0,0,0,-1,1413,1324,0,0
196,-300,0,0,0,0,0,0,0,0,0,-1,1420,1324,0,0
203,-300,0,0,0,0,0,0,0,0,0,-1,1427,1324,0,0
210,-300,0,0,0,0,0,0,0,0,0,-1,1434,1324,0,0
217,-300,0,0,0,0,0,0,0,0,0,-1,1441,1324,0,0
224,-300,0,0,0,0,0,0,0,0,0,-1,1448,1324,0,0
231,-300,0,0,0,0,0,0,0,0,0,-1,1455,1324,0,0
238,-300,0,0,0,0,0,0,0,0,0,-1,1462,1324,0,0
245,-300,0,0,0,0,0,0,0,0,0,-1,1469,1324,0,0
252,-300,0,0,0,0,0,0,0,0,0,-1,1476,1324,0,0
259,-300,0,0,0,0,0,0,0,0,0,-1,1483,1324,0,0
266,-300,0,0,0,0,0,0,0,0,0,-1,1490,1324,0,0
273,-300,0,0,0,0,0,0,0,0,0,-1,1497,1324,0,0
280,-300,0,0,0,0,0,0,0,0,0,-1,1504,1324,0,0
287,-300,0,0,0,0,0,0,0,0,0,-1,1511,1324,0,0
294,-300,0,0,0,0,0,0,0,0,0,-1,1518,1324,0,0
301,-300,0,0,0,0,0,0,0,0,0,-1,1525,1324,0,0
308,-300,0,0,0,0,0,0,0,0,0,-1,1532,1324,0,0
315,-300,0,0,0,0,0,0,0,0,0,-1,1539,1324,0,0
322,-300,0,0,0,0,0,0,0,0,0,-1,1546,1324,0,0
329,-300,0,0,0,0,0,0,0,0,0,-1,1553,1324,0,0
336,-300,0,0,0,0,0,0,0,0,0,-1,1560,1324,0,0
343,-300,0,0,0,0,0,0,0,0,0,-1,1567,1324,0,0
350,-300,0,0,0,0,0,0,0,0,0,-1,1574,1324,0,0
357,-300,0,0,0,0,0,0,0,0,0,-1,1581,1324,0,0
364,-300,0,0,0,0,0,0,0,0,0,-1,1588,1324,0,0
371,-300,0,0,0,0,0,0,0,0,0,-1,1595,1324,0,0
378,-300,0,0,0,0,0,0,0,0,0,-1,1602,1324,0,0
385,-300,0,0,0,0,0,0,0,0,0,-1,1609,1324,0,0
392,-300,0,0,0,0,0,0,0,0,0,-1,1616,1324,0,0
399,-300,0,0,0,0,0,0,0,0,0,-1,1623,1324,0,0
406,-300,0,0,0,0,0,0,0,0,0,-1,1630,1324,0,0
413,-300,0,0,0,0,0,0,0,0,0,-1,1637,1324,0,0
420,-300,0,0,0,0,0,0,0,0,0,-1,1644,1324,0,0
427,-300,0,0,0,0,0,0,0,0,0,-1,1651,1324,0,0
434,-300,0,0,0,0,0,0,0,0,0,-1,1658,1324,0,0
441,-300,0,0,0,0,0,0,0,0,0,-1,1665,1324,0,0
448,-300,0,0,0,0,0,0,0,0,0,-1,1672,1324,0,0
455,-300,0,0,0,0,0,0,0,0,0,-1,1679,1324,0,0
462,-300,0,0,0,0,0,0,0,0,0,-1,1686,1324,0,0
469,-300,0,0,0,0,0,0,0,0,0,-1,1693,1324,0,0
476,-300,0,0,0,0,0,0,0,0,0,-1,1700,1324,0,0
483,-300,0,0,0,0,0,0,0,0,0,-1,1707,1324,0,0
490,-300,0,0,0,0,0,0,0,0,0,-1,1714,1324,0,0
497,-300,0,0,0,0,0,0,0,0,0,-1,1721,1324,0,0
504,-300,0,0,0,0,0,0,0,0,0,-1,1728,1324,0,0
511,-300,0,0,0,0,0,0,0,0,0,-1,1735,1324,0,0
518,-300,0,0,0,0,0,0,0,0,0,-1,1742,1324,0,0
525,-300,0,0,0,0,0,0,0,0,0,-1,1749,1324,0,0
532,-300,0,0,0,0,0,0,0,0,0,-1,1756,1324,0,0
539,-300,0,0,0,0,0,0,0,0,0,-1,1763,1324,0,0
546,-300,0,0,0,0,0,0,0,0,0,-1,1770,1324,0,0
553,-300,0,0,0,0,0,0,0,0,0,-1,1777,1324,0,0
560,-300,0,0,0,0,0,0,0,0,0,-1,1784,1324,0,0
567,-300,0,0,0,0,0,0,0,0,0,-1,1791,1324,0,0
574,-300,0,0,0,0,0,0,0,0,0,-1,1798,1324,0,0
581,-300,0,0,0,0,0,0,0,0,0,-1,1805,1324,0,0
588,-300,23.6748,2.36597,0,0,0,0,0,0,0,-1,1812,1324,23.6748,-2.36599
595,-300,23.8076,2.73865,0,0,0,0,0,0,0,-1,1819,1324,23.8076,-2.73864
602,-300,23.3137,2.49268,0.0125866,0.0274053,0.0131365,0.0350779,0.00491401,1.04217,0.0219316,0.0474869,1826,1324,23.3137,-2.4927
609,-300,23.6176,2.71777,0.00751738,0.0198121,0.0109739,0.0262431,0.00108636,1.04071,0.0171448,0.0468538,1833,1324,23.6176,-2.71776
616,-300,23.6412,2.82776,0.00323433,0.0138678,0.00948971,0.0194287,-0.00232653,1.04074,0.0137935,0.046822,1840,1324,23.6413,-2.82781
623,-300,23.4491,2.80139,-0.000229853,0.00909788,0.00803769,0.0137268,-0.00485879,1.04828,0.0111301,0.0483536,1847,1324,23.4491,-2.80136
630,-300,23.8656,2.49426,-0.00278182,0.00542887,0.006706,0.00918637,-0.00653932,1.06007,0.009122,0.0477743,1854,1324,23.8656,-2.4943
637,-300,23.5313,3.25256,0,0,0,0,0,0,0,-1,1861,1324,23.5312,-3.25255
644,-300,19.2581,3.37158,0,0,0,0,0,0,0,-1,1868,1324,19.2581,-3.37159
651,-300,18.2344,6.52832,0,0,0,0,0,0,0,-1,1875,1324,18.2344,-6.52834
658,-300,17.8978,6.6394,-0.00919666,-0.00472957,0.00361161,-0.00271665,-0.0112096,1.06233,0.00675219,0.0433898,1882,1324,17.8978,-6.63934
665,-300,17.761,6.58704,-0.00912869,-0.00594461,0.00320913,-0.00395432,-0.011119,1.01566,0.00650813,0.0295888,1889,1324,17.761,-6.587
672,-300,17.6866,6.41174,-0.00829259,-0.00559373,0.00316404,-0.00350338,-0.0103829,0.986964,0.00609932,0.0107665,1896,1324,17.6866,-6.4117
679,-300,17.701,6.16211,-0.00704059,-0.0043066,0.0035511,-0.00186847,-0.00947873,0.96913,0.00579758,0.0110758,1903,1324,17.701,-6.16214
686,-300,17.7131,5.95471,-0.00501727,-0.00295401,0.00333911,-0.000490804,-0.00748048,0.935224,0.0048317,0.0116754,1910,1324,17.7131,-5.95469
693,-300,17.693,5.73633,-0.00167626,-0.00132684,0.00227431,0.000779464,-0.00378256,0.823733,0.0028177,0.0103001,1917,1324,17.693,-5.73635
700,-300,17.6877,5.50623,0.0026706,0.000374278,0.00102996,0.00306487,-1.99899e-05,0.365591,0.00204994,0.0114328,1924,1324,17.6877,-5.50624
707,-300,17.7004,5.29846,0.00907829,0.0025302,-0.000519336,0.00911922,0.00248927,-0.0786557,0.00544289,0.00810122,1931,1324,17.7004,-5.29847
714,-300,17.7115,5.0874,0.0159068,0.00577062,-0.00172982,0.0161939,0.00548354,-0.164459,0.00951049,0.0101427,1938,1324,17.7115,-5.0874
721,-300,17.7083,4.88147,0.0246142,0.009219,-0.00276032,0.0250941,0.00873905,-0.172156,0.0147088,0.0114504,1945,1324,17.7082,-4.88148
728,-300,17.7075,4.6499,0.0357571,0.01392,-0.00347405,0.0362965,0.0133806,-0.154025,0.0211954,0.00964339,1952,1324,17.7075,-4.64985
735,-300,17.6415,4.48816,0.0498455,0.0201896,-0.00382596,0.0503312,0.019704,-0.126258,0.0292859,0.0174758,1959,1324,17.6414,-4.48816
742,-300,17.7631,4.20764,0,0,0,0,0,0,0,-1,1966,1324,17.763,-4.20763
749,-300,18.417,3.60229,0,0,0,0,0,0,0,-1,1973,1324,18.417,-3.60225
756,-300,21.4149,4.13062,0,0,0,0,0,0,0,-1,1980,1324,21.4149,-4.13061
763,-300,22.6136,5.1571,0,0,0,0,0,0,0,-1,1987,1324,22.6136,-5.15706
770,-300,16.4082,5.24438,0,0,0,0,0,0,0,-1,1994,1324,16.4082,-5.24439
777,-300,0,0,0,0,0,0,0,0,0,-1,2001,1324,0,0
784,-300,0,0,0,0,0,0,0,0,0,-1,2008,1324,0,0
791,-300,0,0,0,0,0,0,0,0,0,-1,2015,1324,0,0
798,-300,0,0,0,0,0,0,0,0,0,-1,2022,1324,0,0
805,-300,0,0,0,0,0,0,0,0,0,-1,2029,1324,0,0
812,-300,0,0,0,0,0,0,0,0,0,-1,2036,1324,0,0
-700,-307,0,0,0,0,0,0,0,0,0,-1,524,1331,0,0
-693,-307,0,0,0,0,0,0,0,0,0,-1,531,1331,0,0
-686,-307,0,0,0,0,0,0,0,0,0,-1,538,1331,0,0
-679,-307,0,0,0,0,0,0,0,0,0,-1,545,1331,0,0
-672,-307,0,0,0,0,0,0,0,0,0,-1,552,1331,0,0
-665,-307,0,0,0,0,0,0,0,0,0,-1,559,1331,0,0
-658,-307,0,0,0,0,0,0,0,0,0,-1,566,1331,0,0
-651,-307,-9.31384,-3.41101,0,0,0,0,0,0,0,-1,573,1331,-9.31385,3.41099
-644,-307,-9.79364,-3.47278,-0.0718915,0.206694,-0.00723052,0.206882,-0.072079,-1.54487,0.167209,0.0483701,580,1331,-9.79367,3.47273
-637,-307,-10.3242,-3.97095,-0.0570385,0.184874,0.00284474,0.184908,-0.057072,1.55904,0.146061,0.0499148,587,1331,-10.3242,3.971
-630,-307,-11.215,-4.1936,-0.0443379,0.158541,0.00816514,0.158869,-0.044666,1.53064,0.123524,0.0483901,594,1331,-11.215,4.19359
-623,-307,-12.0624,-4.39124,-0.0335195,0.131592,0.0107706,0.132292,-0.0342191,1.50593,0.101541,0.0478919,601,1331,-12.0624,4.39121
-616,-307,-12.8339,-4.58374,0,0,0,0,0,0,0,-1,608,1331,-12.8339,4.58379
-609,-307,-8.71149,1.22278,-0.0174695,0.0823479,0.0113717,0.083627,-0.0187487,1.45878,0.0629387,0.0487787,615,1331,-8.7115,-1.22273
-602,-307,-8.90393,2.02661,-0.0118694,0.0626165,0.0110736,0.0642279,-0.0134808,1.42629,0.0479481,0.0394174,622,1331,-8.90394,-2.02663
-595,-307,-8.95874,2.38525,-0.0077236,0.0448309,0.00958289,0.0465237,-0.00941643,1.39595,0.0345846,0.0216109,629,1331,-8.95875,-2.38526
-588,-307,-8.89453,2.68738,-0.00450485,0.0300594,0.00772246,0.0317063,-0.00615175,1.36068,0.0234585,0.0197481,636,1331,-8.89455,-2.68739
-581,-307,-8.88867,2.93262,-0.00158614,0.0173705,0.00554893,0.0188753,-0.00309095,1.30598,0.0137303,0.0166734,643,1331,-8.88866,-2.93266
-574,-307,-8.91675,3.15369,0.000681948,0.00755669,0.00379522,0.00923979,-0.00100115,1.15338,0.00651925,0.0134812,650,1331,-8.91677,-3.15369
-567,-307,-8.92987,3.40955,0.000506215,0.00121674,0.00132848,0.00223664,-0.000513687,0.91605,0.00168857,0.0136183,657,1331,-8.92987,-3.40952
-560,-307,-8.92169,3.67786,-0.00138974,0.000821004,-0.000354398,0.000876427,-0.00144516,-1.41567,0.00135371,0.012292,664,1331,-8.9217,-3.67784
-553,-307,-8.90265,3.92761,-0.00324388,0.000202327,-0.00163917,0.000857452,-0.00389901,-1.19058,0.00292732,0.00958211,671,1331,-8.90266,-3.92767
-546,-307,-8.88879,4.16565,-0.00769238,0.000165831,-0.00257392,0.000933844,-0.00846039,-1.28082,0.00597592,0.00976508,678,1331,-8.88881,-4.16564
-539,-307,-8.88098,4.44373,-0.0137593,0.000754673,-0.00332327,0.00147941,-0.0144841,-1.35608,0.0101851,0.0125377,685,1331,-8.88098,-4.44368
-532,-307,-8.86957,4.64832,-0.0201182,0.00179714,-0.00414439,0.00255469,-0.0208757,-1.39,0.0148422,0.0331729,692,1331,-8.86956,-4.64833
-525,-307,-8.99188,4.83704,0,0,0,0,0,0,0,-1,699,1331,-8.99189,-4.83707
-518,-307,-9.77777,-1.56653,0,0,0,0,0,0,0,-1,706,1331,-9.77777,1.56651
-511,-307,-10.3354,-1.02979,-0.0396371,0.00762055,-0.00510279,0.00816526,-0.0401818,-1.46445,0.0298838,0.0494338,713,1331,-10.3354,1.02976
-504,-307,-11.1548,-0.647827,-0.0463657,0.0102502,-0.00478063,0.0106511,-0.0467665,-1.48715,0.0352683,0.0424333,720,1331,-11.1548,0.647776
-497,-307,-11.8691,-0.187988,-0.052683,0.0131387,-0.00435237,0.0134253,-0.0529696,-1.50505,0.0405361,0.0491434,727,1331,-11.8691,0.187963
-490,-307,-12.9172,-0.579102,0,0,0,0,0,0,0,-1,734,1331,-12.9172,0.579057
-483,-307,-12.8444,0.123901,-0.0629128,0.0216515,-0.00137407,0.0216739,-0.0629352,-1.55455,0.0507483,0.0401343,741,1331,-12.8444,-0.123895
-476,-307,-12.8369,0.472534,-0.0652071,0.0280918,0.00221883,0.0281445,-0.0652599,1.54703,0.055328,0.042068,748,1331,-12.8368,-0.472485
-469,-307,-12.987,0.623047,-0.0643447,0.0362044,0.00811723,0.0368555,-0.0649957,1.49076,0.0595472,0.0432366,755,1331,-12.987,-0.622992
-462,-307,0,0,0,0,0,0,0,0,0,-1,762,1331,0,0
-455,-307,0,0,0,0,0,0,0,0,0,-1,769,1331,0,0
-448,-307,0,0,0,0,0,0,0,0,0,-1,776,1331,0,0
-441,-307,0,0,0,0,0,0,0,0,0,-1,783,1331,0,0
-434,-307,0,0,0,0,0,0,0,0,0,-1,790,1331,0,0
-427,-307,0,0,0,0,0,0,0,0,0,-1,797,1331,0,0
-420,-307,0,0,0,0,0,0,0,0,0,-1,804,1331,0,0
-413,-307,0,0,0,0,0,0,0,0,0,-1,811,1331,0,0
-406,-307,0,0,0,0,0,0,0,0,0,-1,818,1331,0,0
-399,-307,0,0,0,0,0,0,0,0,0,-1,825,1331,0,0
-392,-307,0,0,0,0,0,0,0,0,0,-1,832,1331,0,0
-385,-307,0,0,0,0,0,0,0,0,0,-1,839,1331,0,0
-378,-307,0,0,0,0,0,0,0,0,0,-1,846,1331,0,0
-371,-307,0,0,0,0,0,0,0,0,0,-1,853,1331,0,0
-364,-307,0,0,0,0,0,0,0,0,0,-1,860,1331,0,0
-357,-307,0,0,0,0,0,0,0,0,0,-1,867,1331,0,0
-350,-307,0,0,0,0,0,0,0,0,0,-1,874,1331,0,0
-343,-307,0,0,0,0,0,0,0,0,0,-1,881,1331,0,0
-336,-307,0,0,0,0,0,0,0,0,0,-1,888,1331,0,0
-329,-307,0,0,0,0,0,0,0,0,0,-1,895,1331,0,0
-322,-307,0,0,0,0,0,0,0,0,0,-1,902,1331,0,0
-315,-307,0,0,0,0,0,0,0,0,0,-1,909,1331,0,0
-308,-307,0,0,0,0,0,0,0,0,0,-1,916,1331,0,0
-301,-307,0,0,0,0,0,0,0,0,0,-1,923,1331,0,0
-294,-307,0,0,0,0,0,0,0,0,0,-1,930,1331,0,0
-287,-307,0,0,0,0,0,0,0,0,0,-1,937,1331,0,0
-280,-307,0,0,0,0,0,0,0,0,0,-1,944,1331,0,0
-273,-307,0,0,0,0,0,0,0,0,0,-1,951,1331,0,0
-266,-307,0,0,0,0,0,0,0,0,0,-1,958,1331,0,0
-259,-307,0,0,0,0,0,0,0,0,0,-1,965,1331,0,0
-252,-307,0,0,0,0,0,0,0,0,0,-1,972,1331,0,0
-245,-307,0,0,0,0,0,0,0,0,0,-1,979,1331,0,0
-238,-307,0,0,0,0,0,0,0,0,0,-1,986,1331,0,0
-231,-307,0,0,0,0,0,0,0,0,0,-1,993,1331,0,0
-224,-307,0,0,0,0,0,0,0,0,0,-1,1000,1331,0,0
-217,-307,0,0,0,0,0,0,0,0,0,-1,1007,1331,0,0
-210,-307,0,0,0,0,0,0,0,0,0,-1,1014,1331,0,0
-203,-307,0,0,0,0,0,0,0,0,0,-1,1021,1331,0,0
-196,-307,0,0,0,0,0,0,0,0,0,-1,1028,1331,0,0
-189,-307,0,0,0,0,0,0,0,0,0,-1,1035,1331,0,0
-182,-307,0,0,0,0,0,0,0,0,0,-1,1042,1331,0,0
-175,-307,0,0,0,0,0,0,0,0,0,-1,1049,1331,0,0
-168,-307,0,0,0,0,0,0,0,0,0,-1,1056,1331,0,0
-161,-307,0,0,0,0,0,0,0,0,0,-1,1063,1331,0,0
-154,-307,0,0,0,0,0,0,0,0,0,-1,1070,1331,0,0
-147,-307,0,0,0,0,0,0,0,0,0,-1,1077,1331,0,0
-140,-307,0,0,0,0,0,0,0,0,0,-1,1084,1331,0,0
-133,-307,0,0,0,0,0,0,0,0,0,-1,1091,1331,0,0
-126,-307,0,0,0,0,0,0,0,0,0,-1,1098,1331,0,0
-119,-307,0,0,0,0,0,0,0,0,0,-1,1105,1331,0,0
-112,-307,0,0,0,0,0,0,0,0,0,-1,1112,1331,0,0
-105,-307,0,0,0,0,0,0,0,0,0,-1,1119,1331,0,0
-98,-307,0,0,0,0,0,0,0,0,0,-1,1126,1331,0,0
-91,-307,0,0,0,0,0,0,0,0,0,-1,1133,1331,0,0
-84,-307,0,0,0,0,0,0,0,0,0,-1,1140,1331,0,0
-77,-307,0,0,0,0,0,0,0,0,0,-1,1147,1331,0,0
-70,-307,0,0,0,0,0,0,0,0,0,-1,1154,1331,0,0
-63,-307,0,0,0,0,0,0,0,0,0,-1,1161,1331,0,0
-56,-307,0,0,0,0,0,0,0,0,0,-1,1168,1331,0,0
-49,-307,0,0,0,0,0,0,0,0,0,-1,1175,1331,0,0
-42,-307,0,0,0,0,0,0,0,0,0,-1,1182,1331,0,0
-35,-307,0,0,0,0,0,0,0,0,0,-1,1189,1331,0,0
-28,-307,0,0,0,0,0,0,0,0,0,-1,1196,1331,0,0
-21,-307,0,0,0,0,0,0,0,0,0,-1,1203,1331,0,0
-14,-307,0,0,0,0,0,0,0,0,0,-1,1210,1331,0,0
-7,-307,0,0,0,0,0,0,0,0,0,-1,1217,1331,0,0
0,-307,0,0,0,0,0,0,0,0,0,-1,1224,1331,0,0
7,-307,0,0,0,0,0,0,0,0,0,-1,1231,1331,0,0
14,-307,0,0,0,0,0,0,0,0,0,-1,1238,1331,0,0
21,-307,0,0,0,0,0,0,0,0,0,-1,1245,1331,0,0
28,-307,0,0,0,0,0,0,0,0,0,-1,1252,1331,0,0
35,-307,0,0,0,0,0,0,0,0,0,-1,1259,1331,0,0
42,-307,0,0,0,0,0,0,0,0,0,-1,1266,1331,0,0
49,-307,0,0,0,0,0,0,0,0,0,-1,1273,1331,0,0
56,-307,0,0,0,0,0,0,0,0,0,-1,1280,1331,0,0
63,-307,0,0,0,0,0,0,0,0,0,-1,1287,1331,0,0
70,-307,0,0,0,0,0,0,0,0,0,-1,1294,1331,0,0
77,-307,0,0,0,0,0,0,0,0,0,-1,1301,1331,0,0
84,-307,0,0,0,0,0,0,0,0,0,-1,1308,1331,0,0
91,-307,0,0,0,0,0,0,0,0,0,-1,1315,1331,0,0
98,-307,0,0,0,0,0,0,0,0,0,-1,1322,1331,0,0
105,-307,0,0,0,0,0,0,0,0,0,-1,1329,1331,0,0
112,-307,0,0,0,0,0,0,0,0,0,-1,1336,1331,0,0
119,-307,0,0,0,0,0,0,0,0,0,-1,1343,1331,0,0
126,-307,0,0,0,0,0,0,0,0,0,-1,1350,1331,0,0
133,-307,0,0,0,0,0,0,0,0,0,-1,1357,1331,0,0
140,-307,0,0,0,0,0,0,0,0,0,-1,1364,1331,0,0
147,-307,0,0,0,0,0,0,0,0,0,-1,1371,1331,0,0
154,-307,0,0,0,0,0,0,0,0,0,-1,1378,1331,0,0
161,-307,0,0,0,0,0,0,0,0,0,-1,1385,1331,0,0
168,-307,0,0,0,0,0,0,0,0,0,-1,1392,1331,0,0
175,-307,0,0,0,0,0,0,0,0,0,-1,1399,1331,0,0
182,-307,0,0,0,0,0,0,0,0,0,-1,1406,1331,0,0
189,-307,0,0,0,0,0,0,0,0,0,-1,1413,1331,0,0
196,-307,0,0,0,0,0,0,0,0,0,-1,1420,1331,0,0
203,-307,0,0,0,0,0,0,0,0,0,-1,1427,1331,0,0
210,-307,0,0,0,0,0,0,0,0,0,-1,1434,1331,0,0
217,-307,0,0,0,0,0,0,0,0,0,-1,1441,1331,0,0
224,-307,0,0,0,0,0,0,0,0,0,-1,1448,1331,0,0
231,-307,0,0,0,0,0,0,0,0,0,-1,1455,1331,0,0
238,-307,0,0,0,0,0,0,0,0,0,-1,1462,1331,0,0
245,-307,0,0,0,0,0,0,0,0,0,-1,1469,1331,0,0
252,-307,0,0,0,0,0,0,0,0,0,-1,1476,1331,0,0
259,-307,0,0,0,0,0,0,0,0,0,-1,1483,1331,0,0
266,-307,0,0,0,0,0,0,0,0,0,-1,1490,1331,0,0
273,-307,0,0,0,0,0,0,0,0,0,-1,1497,1331,0,0
280,-307,0,0,0,0,0,0,0,0,0,-1,1504,1331,0,0
287,-307,0,0,0,0,0,0,0,0,0,-1,1511,1331,0,0
294,-307,0,0,0,0,0,0,0,0,0,-1,1518,1331,0,0
301,-307,0,0,0,0,0,0,0,0,0,-1,1525,1331,0,0
308,-307,0,0,0,0,0,0,0,0,0,-1,1532,1331,0,0
315,-307,0,0,0,0,0,0,0,0,0,-1,1539,1331,0,0
322,-307,0,0,0,0,0,0,0,0,0,-1,1546,1331,0,0
329,-307,0,0,0,0,0,0,0,0,0,-1,1553,1331,0,0
336,-307,0,0,0,0,0,0,0,0,0,-1,1560,1331,0,0
343,-307,0,0,0,0,0,0,0,0,0,-1,1567,1331,0,0
350,-307,0,0,0,0,0,0,0,0,0,-1,1574,1331,0,0
357,-307,0,0,0,0,0,0,0,0,0,-1,1581,1331,0,0
364,-307,0,0,0,0,0,0,0,0,0,-1,1588,1331,0,0
371,-307,0,0,0,0,0,0,0,0,0,-1,1595,1331,0,0
378,-307,0,0,0,0,0,0,0,0,0,-1,1602,1331,0,0
385,-307,0,0,0,0,0,0,0,0,0,-1,1609,1331,0,0
392,-307,0,0,0,0,0,0,0,0,0,-1,1616,1331,0,0
399,-307,0,0,0,0,0,0,0,0,0,-1,1623,1331,0,0
406,-307,0,0,0,0,0,0,0,0,0,-1,1630,1331,0,0
413,-307,0,0,0,0,0,0,0,0,0,-1,1637,1331,0,0
420,-307,0,0,0,0,0,0,0,0,0,-1,1644,1331,0,0
427,-307,0,0,0,0,0,0,0,0,0,-1,1651,1331,0,0
434,-307,0,0,0,0,0,0,0,0,0,-1,1658,1331,0,0
441,-307,0,0,0,0,0,0,0,0,0,-1,1665,1331,0,0
448,-307,0,0,0,0,0,0,0,0,0,-1,1672,1331,0,0
455,-307,0,0,0,0,0,0,0,0,0,-1,1679,1331,0,0
462,-307,0,0,0,0,0,0,0,0,0,-1,1686,1331,0,0
469,-307,0,0,0,0,0,0,0,0,0,-1,1693,1331,0,0
476,-307,0,0,0,0,0,0,0,0,0,-1,1700,1331,0,0
483,-307,0,0,0,0,0,0,0,0,0,-1,1707,1331,0,0
490,-307,0,0,0,0,0,0,0,0,0,-1,1714,1331,0,0
497,-307,0,0,0,0,0,0,0,0,0,-1,1721,1331,0,0
504,-307,0,0,0,0,0,0,0,0,0,-1,1728,1331,0,0
511,-307,0,0,0,0,0,0,0,0,0,-1,1735,1331,0,0
518,-307,0,0,0,0,0,0,0,0,0,-1,1742,1331,0,0
525,-307,0,0,0,0,0,0,0,0,0,-1,1749,1331,0,0
532,-307,0,0,0,0,0,0,0,0,0,-1,1756,1331,0,0
539,-307,0,0,0,0,0,0,0,0,0,-1,1763,1331,0,0
546,-307,0,0,0,0,0,0,0,0,0,-1,1770,1331,0,0
553,-307,0,0,0,0,0,0,0,0,0,-1,1777,1331,0,0
560,-307,0,0,0,0,0,0,0,0,0,-1,1784,1331,0,0
567,-307,0,0,0,0,0,0,0,0,0,-1,1791,1331,0,0
574,-307,0,0,0,0,0,0,0,0,0,-1,1798,1331,0,0
581,-307,0,0,0,0,0,0,0,0,0,-1,1805,1331,0,0
588,-307,23.4022,1.84692,0.0214712,0.0422041,0.0216293,0.0558228,0.00785245,1.00886,0.0348935,0.0426133,1812,1331,23.4023,-1.84694
595,-307,23.354,1.5415,0.0193959,0.0354918,0.0195785,0.0486118,0.00627579,0.980401,0.0305317,0.0403454,1819,1331,23.354,-1.54148
602,-307,23.5837,1.44275,0.0150236,0.027705,0.0174079,0.039891,0.00283759,0.96005,0.0257004,0.0457185,1826,1331,23.5837,-1.4427
609,-307,23.6062,2.02173,0.0100444,0.0204526,0.0151468,0.0312644,-0.000767304,0.950869,0.0211033,0.0443954,1833,1331,23.6063,-2.0217
616,-307,23.4142,2.61292,0.00586783,0.0149285,0.0131008,0.0242602,-0.00346382,0.951865,0.0174431,0.0423335,1840,1331,23.4142,-2.61298
623,-307,23.193,3.17932,0,0,0,0,0,0,0,-1,1847,1331,23.193,-3.17931
630,-307,23.9779,2.86987,0,0,0,0,0,0,0,-1,1854,1331,23.9778,-2.86989
637,-307,16.6766,1.98096,0,0,0,0,0,0,0,-1,1861,1331,16.6766,-1.98096
644,-307,16.6293,5.94641,0,0,0,0,0,0,0,-1,1868,1331,16.6293,-5.94645
651,-307,17.5013,5.80078,0,0,0,0,0,0,0,-1,1875,1331,17.5014,-5.80072
658,-307,17.522,6.81384,0,0,0,0,0,0,0,-1,1882,1331,17.522,-6.81383
665,-307,17.4857,6.59253,-0.00846558,-0.00669246,0.0043316,-0.00315762,-0.0120004,0.88634,0.00718294,0.0198815,1889,1331,17.4857,-6.59256
672,-307,17.4911,6.40295,-0.0074792,-0.00615755,0.00398295,-0.00278097,-0.0108558,0.867606,0.00651125,0.00906205,1896,1331,17.4911,-6.40299
679,-307,17.4899,6.17871,-0.00613465,-0.00452691,0.00394601,-0.00130373,-0.00935784,0.885882,0.00585259,0.00954214,1903,1331,17.4899,-6.17873
686,-307,17.4807,5.96008,-0.00415288,-0.00288938,0.00329048,-0.000170557,-0.0068717,0.880241,0.00452536,0.00963297,1910,1331,17.4807,-5.9601
693,-307,17.4604,5.73364,-0.000794047,-0.00104949,0.00184191,0.000924564,-0.0027681,0.750782,0.00221876,0.0111908,1917,1331,17.4604,-5.73361
700,-307,17.4703,5.5033,0.00387032,0.000879721,0.000521048,0.0039585,0.000791539,0.16765,0.00241872,0.0115912,1924,1331,17.4704,-5.50333
707,-307,17.4701,5.28625,0.0101311,0.00325587,-0.000792698,0.0102213,0.00316566,-0.113317,0.00604205,0.0129364,1931,1331,17.47,-5.28627
714,-307,17.4811,5.07715,0.0169714,0.00656278,-0.00179448,0.0172721,0.0062621,-0.166019,0.0100969,0.0127185,1938,1331,17.4811,-5.07717
721,-307,17.5073,4.87683,0.0256983,0.00997682,-0.00259323,0.026115,0.00956012,-0.159327,0.0152567,0.0145444,1945,1331,17.5073,-4.87689
728,-307,17.4658,4.7196,0.0368387,0.0144468,-0.00306162,0.0372498,0.0140357,-0.133466,0.0217227,0.0217354,1952,1331,17.4658,-4.71957
735,-307,17.3252,4.45105,0.0509147,0.020282,-0.00321656,0.0512488,0.0199479,-0.1035,0.0298295,0.0318437,1959,1331,17.3252,-4.45107
742,-307,17.3752,4.16516,0.0683987,0.0278775,-0.00294145,0.0686112,0.0276651,-0.0720867,0.0398593,0.0389845,1966,1331,17.3753,-4.16514
749,-307,19.5923,4.0155,0.0896087,0.0376709,-0.00196592,0.089683,0.0375966,-0.0377793,0.0520033,0.0474598,1973,1331,19.5923,-4.01553
756,-307,20.2983,3.10876,0,0,0,0,0,0,0,-1,1980,1331,20.2983,-3.10882
763,-307,21.2723,4.4834,0,0,0,0,0,0,0,-1,1987,1331,21.2723,-4.48338
770,-307,0,0,0,0,0,0,0,0,0,-1,1994,1331,0,0
777,-307,0,0,0,0,0,0,0,0,0,-1,2001,1331,0,0
784,-307,0,0,0,0,0,0,0,0,0,-1,2008,1331,0,0
791,-307,0,0,0,0,0,0,0,0,0,-1,2015,1331,0,0
798,-307,0,0,0,0,0,0,0,0,0,-1,2022,1331,0,0
805,-307,0,0,0,0,0,0,0,0,0,-1,2029,1331,0,0
812,-307,0,0,0,0,0,0,0,0,0,-1,2036,1331,0,0
-700,-314,0,0,0,0,0,0,0,0,0,-1,524,1338,0,0
-693,-314,0,0,0,0,0,0,0,0,0,-1,531,1338,0,0
-686,-314,0,0,0,0,0,0,0,0,0,-1,538,1338,0,0
-679,-314,0,0,0,0,0,0,0,0,0,-1,545,1338,0,0
-672,-314,0,0,0,0,0,0,0,0,0,-1,552,1338,0,0
-665,-314,0,0,0,0,0,0,0,0,0,-1,559,1338,0,0
-658,-314,0,0,0,0,0,0,0,0,0,-1,566,1338,0,0
-651,-314,0,0,0,0,0,0,0,0,0,-1,573,1338,0,0
-644,-314,-10.086,-4.38721,0,0,0,0,0,0,0,-1,580,1338,-10.086,4.38722
-637,-314,-10.7723,-5.3269,-0.0742518,0.208941,-0.00098701,0.208945,-0.0742552,-1.56731,0.169557,0.0495574,587,1338,-10.7723,5.32696
-630,-314,-11.6743,-5.57129,-0.0580976,0.17644,0.004951,0.176545,-0.0582021,1.5497,0.141155,0.0458494,594,1338,-11.6743,5.57124
-623,-314,-12.3889,-6.0636,-0.044231,0.144987,0.00833346,0.145353,-0.0445973,1.52687,0.114696,0.0495584,601,1338,-12.3889,6.06356
-616,-314,-13.0955,-6.53992,0,0,0,0,0,0,0,-1,608,1338,-13.0955,6.53997
-609,-314,-8.30389,0.548218,0,0,0,0,0,0,0,-1,615,1338,-8.30392,-0.54819
-602,-314,-8.77087,1.91248,0,0,0,0,0,0,0,-1,622,1338,-8.7709,-1.91249
-595,-314,-8.52637,2.43408,-0.0111596,0.0481859,0.00930495,0.0496106,-0.0125843,1.41886,0.0379701,0.0384,629,1338,-8.52638,-2.43412
-588,-314,-8.67267,2.6582,-0.0071029,0.0321706,0.00760684,0.0335925,-0.00852477,1.38601,0.0257121,0.0171601,636,1338,-8.67265,-2.65823
-581,-314,-8.6366,2.91956,-0.00358924,0.0185373,0.00550383,0.0198307,-0.00488267,1.33998,0.0151133,0.0132496,643,1338,-8.63662,-2.91959
-574,-314,-8.67053,3.13416,-0.000808656,0.00806321,0.00384271,0.00949617,-0.00224161,1.21386,0.00719533,0.0126817,650,1338,-8.67052,-3.13421
-567,-314,-8.68304,3.40491,-0.000546919,0.00136757,0.00146241,0.00215817,-0.00133752,1.07519,0.00203669,0.013974,657,1338,-8.68302,-3.40495
-560,-314,-8.65277,3.67725,-0.00202332,0.00101691,-0.000216222,0.00103221,-0.00203862,-1.50015,0.0018044,0.0146228,664,1338,-8.65277,-3.67721
-553,-314,-8.63544,3.922,-0.00308236,0.000169597,-0.00138092,0.000676869,-0.00358964,-1.21876,0.00264771,0.0165879,671,1338,-8.63544,-3.922
-546,-314,-8.65222,4.17798,-0.00638086,-0.000280039,-0.00240527,0.00055418,-0.00721508,-1.23695,0.00500502,0.0170139,678,1338,-8.65222,-4.17803
-539,-314,-8.65564,4.44592,-0.0112956,-0.000245837,-0.00334221,0.000686424,-0.0122278,-1.29877,0.00839007,0.015591,685,1338,-8.65564,-4.44593
-532,-314,-8.50214,4.72913,-0.0169025,0.000219491,-0.00434794,0.00126033,-0.0179434,-1.33583,0.0124037,0.0286631,692,1338,-8.50214,-4.72917
-525,-314,-8.56519,5.12317,0,0,0,0,0,0,0,-1,699,1338,-8.56516,-5.12315
-518,-314,-8.52753,4.70032,0,0,0,0,0,0,0,-1,706,1338,-8.52755,-4.70034
-511,-314,-9.62854,-1.08521,0,0,0,0,0,0,0,-1,713,1338,-9.62852,1.08521
-504,-314,-10.2526,-0.388672,-0.0424708,0.00861195,-0.00525719,0.00914739,-0.0430062,-1.4693,0.0321566,0.0466001,720,1338,-10.2526,0.388728
-497,-314,-10.8138,0.151123,-0.0487334,0.0118551,-0.00480026,0.012233,-0.0491114,-1.49222,0.0374899,0.0481453,727,1338,-10.8138,-0.151183
-490,-314,-11.5034,0.731689,-0.0547061,0.0160165,-0.0038048,0.0162206,-0.0549102,-1.5172,0.0430448,0.047324,734,1338,-11.5034,-0.731652
-483,-314,-12.3753,1.21509,0,0,0,0,0,0,0,-1,741,1338,-12.3753,-1.21503
-476,-314,-12.684,0.322632,-0.0645692,0.0282093,0.00100464,0.0282201,-0.0645801,1.55997,0.054932,0.0425834,748,1338,-12.684,-0.322641
-469,-314,-12.9529,0.492676,-0.0669989,0.0363339,0.00572511,0.0366502,-0.0673151,1.51562,0.0608885,0.0422671,755,1338,-12.9529,-0.492656
-462,-314,0,0,0,0,0,0,0,0,0,-1,762,1338,0,0
-455,-314,0,0,0,0,0,0,0,0,0,-1,769,1338,0,0
-448,-314,0,0,0,0,0,0,0,0,0,-1,776,1338,0,0
-441,-314,0,0,0,0,0,0,0,0,0,-1,783,1338,0,0
-434,-314,0,0,0,0,0,0,0,0,0,-1,790,1338,0,0
-427,-314,0,0,0,0,0,0,0,0,0,-1,797,1338,0,0
-420,-314,0,0,0,0,0,0,0,0,0,-1,804,1338,0,0
-413,-314,0,0,0,0,0,0,0,0,0,-1,811,1338,0,0
-406,-314,0,0,0,0,0,0,0,0,0,-1,818,1338,0,0
-399,-314,0,0,0,0,0,0,0,0,0,-1,825,1338,0,0
-392,-314,0,0,0,0,0,0,0,0,0,-1,832,1338,0,0
-385,-314,0,0,0,0,0,0,0,0,0,-1,839,1338,0,0
-378,-314,0,0,0,0,0,0,0,0,0,-1,846,1338,0,0
-371,-314,0,0,0,0,0,0,0,0,0,-1,853,1338,0,0
-364,-314,0,0,0,0,0,0,0,0,0,-1,860,1338,0,0
-357,-314,0,0,0,0,0,0,0,0,0,-1,867,1338,0,0
-350,-314,0,0,0,0,0,0,0,0,0,-1,874,1338,0,0
-343,-314,0,0,0,0,0,0,0,0,0,-1,881,1338,0,0
-336,-314,0,0,0,0,0,0,0,0,0,-1,888,1338,0,0
-329,-314,0,0,0,0,0,0,0,0,0,-1,895,1338,0,0
-322,-314,0,0,0,0,0,0,0,0,0,-1,902,1338,0,0
-315,-314,0,0,0,0,0,0,0,0,0,-1,909,1338,0,0
-308,-314,0,0,0,0,0,0,0,0,0,-1,916,1338,0,0
-301,-314,0,0,0,0,0,0,0,0,0,-1,923,1338,0,0
-294,-314,0,0,0,0,0,0,0,0,0,-1,930,1338,0,0
-287,-314,0,0,0,0,0,0,0,0,0,-1,937,1338,0,0
-280,-314,0,0,0,0,0,0,0,0,0,-1,944,1338,0,0
-273,-314,0,0,0,0,0,0,0,0,0,-1,951,1338,0,0
-266,-314,0,0,0,0,0,0,0,0,0,-1,958,1338,0,0
-259,-314,0,0,0,0,0,0,0,0,0,-1,965,1338,0,0
-252,-314,0,0,0,0,0,0,0,0,0,-1,972,1338,0,0
-245,-314,0,0,0,0,0,0,0,0,0,-1,979,1338,0,0
-238,-314,0,0,0,0,0,0,0,0,0,-1,986,1338,0,0
-231,-314,0,0,0,0,0,0,0,0,0,-1,993,1338,0,0
-224,-314,0,0,0,0,0,0,0,0,0,-1,1000,1338,0,0
-217,-314,0,0,0,0,0,0,0,0,0,-1,1007,1338,0,0
-210,-314,0,0,0,0,0,0,0,0,0,-1,1014,1338,0,0
-203,-314,0,0,0,0,0,0,0,0,0,-1,1021,1338,0,0
-196,-314,0,0,0,0,0,0,0,0,0,-1,1028,1338,0,0
-189,-314,0,0,0,0,0,0,0,0,0,-1,1035,1338,0,0
-182,-314,0,0,0,0,0,0,0,0,0,-1,1042,1338,0,0
-175,-314,0,0,0,0,0,0,0,0,0,-1,1049,1338,0,0
-168,-314,0,0,0,0,0,0,0,0,0,-1,1056,1338,0,0
-161,-314,0,0,0,0,0,0,0,0,0,-1,1063,1338,0,0
-154,-314,0,0,0,0,0,0,0,0,0,-1,1070,1338,0,0
-147,-314,0,0,0,0,0,0,0,0,0,-1,1077,1338,0,0
-140,-314,0,0,0,0,0,0,0,0,0,-1,1084,1338,0,0
-133,-314,0,0,0,0,0,0,0,0,0,-1,1091,1338,0,0
-126,-314,0,0,0,0,0,0,0,0,0,-1,1098,1338,0,0
-119,-314,0,0,0,0,0,0,0,0,0,-1,1105,1338,0,0
-112,-314,0,0,0,0,0,0,0,0,0,-1,1112,1338,0,0
-105,-314,0,0,0,0,0,0,0,0,0,-1,1119,1338,0,0
-98,-314,0,0,0,0,0,0,0,0,0,-1,1126,1338,0,0
-91,-314,0,0,0,0,0,0,0,0,0,-1,1133,1338,0,0
-84,-314,0,0,0,0,0,0,0,0,0,-1,1140,1338,0,0
-77,-314,0,0,0,0,0,0,0,0,0,-1,1147,1338,0,0
-70,-314,0,0,0,0,0,0,0,0,0,-1,1154,1338,0,0
-63,-314,0,0,0,0,0,0,0,0,0,-1,1161,1338,0,0
-56,-314,0,0,0,0,0,0,0,0,0,-1,1168,1338,0,0
-49,-314,0,0,0,0,0,0,0,0,0,-1,1175,1338,0,0
-42,-314,0,0,0,0,0,0,0,0,0,-1,1182,1338,0,0
-35,-314,0,0,0,0,0,0,0,0,0,-1,1189,1338,0,0
-28,-314,0,0,0,0,0,0,0,0,0,-1,1196,1338,0,0
-21,-314,0,0,0,0,0,0,0,0,0,-1,1203,1338,0,0
-14,-314,0,0,0,0,0,0,0,0,0,-1,1210,1338,0,0
-7,-314,0,0,0,0,0,0,0,0,0,-1,1217,1338,0,0
0,-314,0,0,0,0,0,0,0,0,0,-1,1224,1338,0,0
7,-314,0,0,0,0,0,0,0,0,0,-1,1231,1338,0,0
14,-314,0,0,0,0,0,0,0,0,0,-1,1238,1338,0,0
21,-314,0,0,0,0,0,0,0,0,0,-1,1245,1338,0,0
28,-314,0,0,0,0,0,0,0,0,0,-1,1252,1338,0,0
35,-314,0,0,0,0,0,0,0,0,0,-1,1259,1338,0,0
42,-314,0,0,0,0,0,0,0,0,0,-1,1266,1338,0,0
49,-314,0,0,0,0,0,0,0,0,0,-1,1273,1338,0,0
56,-314,0,0,0,0,0,0,0,0,0,-1,1280,1338,0,0
63,-314,0,0,0,0,0,0,0,0,0,-1,1287,1338,0,0
70,-314,0,0,0,0,0,0,0,0,0,-1,1294,1338,0,0
77,-314,0,0,0,0,0,0,0,0,0,-1,1301,1338,0,0
84,-314,0,0,0,0,0,0,0,0,0,-1,1308,1338,0,0
91,-314,0,0,0,0,0,0,0,0,0,-1,1315,1338,0,0
98,-314,0,0,0,0,0,0,0,0,0,-1,1322,1338,0,0
105,-314,0,0,0,0,0,0,0,0,0,-1,1329,1338,0,0
112,-314,0,0,0,0,0,0,0,0,0,-1,1336,1338,0,0
119,-314,0,0,0,0,0,0,0,0,0,-1,1343,1338,0,0
126,-314,0,0,0,0,0,0,0,0,0,-1,1350,1338,0,0
133,-314,0,0,0,0,0,0,0,0,0,-1,1357,1338,0,0
140,-314,0,0,0,0,0,0,0,0,0,-1,1364,1338,0,0
147,-314,0,0,0,0,0,0,0,0,0,-1,1371,1338,0,0
154,-314,0,0,0,0,0,0,0,0,0,-1,1378,1338,0,0
161,-314,0,0,0,0,0,0,0,0,0,-1,1385,1338,0,0
168,-314,0,0,0,0,0,0,0,0,0,-1,1392,1338,0,0
175,-314,0,0,0,0,0,0,0,0,0,-1,1399,1338,0,0
182,-314,0,0,0,0,0,0,0,0,0,-1,1406,1338,0,0
189,-314,0,0,0,0,0,0,0,0,0,-1,1413,1338,0,0
196,-314,0,0,0,0,0,0,0,0,0,-1,1420,1338,0,0
203,-314,0,0,0,0,0,0,0,0,0,-1,1427,1338,0,0
210,-314,0,0,0,0,0,0,0,0,0,-1,1434,1338,0,0
217,-314,0,0,0,0,0,0,0,0,0,-1,1441,1338,0,0
224,-314,0,0,0,0,0,0,0,0,0,-1,1448,1338,0,0
231,-314,0,0,0,0,0,0,0,0,0,-1,1455,1338,0,0
238,-314,0,0,0,0,0,0,0,0,0,-1,1462,1338,0,0
245,-314,0,0,0,0,0,0,0,0,0,-1,1469,1338,0,0
252,-314,0,0,0,0,0,0,0,0,0,-1,1476,1338,0,0
259,-314,0,0,0,0,0,0,0,0,0,-1,1483,1338,0,0
266,-314,0,0,0,0,0,0,0,0,0,-1,1490,1338,0,0
273,-314,0,0,0,0,0,0,0,0,0,-1,1497,1338,0,0
280,-314,0,0,0,0,0,0,0,0,0,-1,1504,1338,0,0
287,-314,0,0,0,0,0,0,0,0,0,-1,1511,1338,0,0
294,-314,0,0,0,0,0,0,0,0,0,-1,1518,1338,0,0
301,-314,0,0,0,0,0,0,0,0,0,-1,1525,1338,0,0
308,-314,0,0,0,0,0,0,0,0,0,-1,1532,1338,0,0
315,-314,0,0,0,0,0,0,0,0,0,-1,1539,1338,0,0
322,-314,0,0,0,0,0,0,0,0,0,-1,1546,1338,0,0
329,-314,0,0,0,0,0,0,0,0,0,-1,1553,1338,0,0
336,-314,0,0,0,0,0,0,0,0,0,-1,1560,1338,0,0
343,-314,0,0,0,0,0,0,0,0,0,-1,1567,1338,0,0
350,-314,0,0,0,0,0,0,0,0,0,-1,1574,1338,0,0
357,-314,0,0,0,0,0,0,0,0,0,-1,1581,1338,0,0
364,-314,0,0,0,0,0,0,0,0,0,-1,1588,1338,0,0
371,-314,0,0,0,0,0,0,0,0,0,-1,1595,1338,0,0
378,-314,0,0,0,0,0,0,0,0,0,-1,1602,1338,0,0
385,-314,0,0,0,0,0,0,0,0,0,-1,1609,1338,0,0
392,-314,0,0,0,0,0,0,0,0,0,-1,1616,1338,0,0
399,-314,0,0,0,0,0,0,0,0,0,-1,1623,1338,0,0
406,-314,0,0,0,0,0,0,0,0,0,-1,1630,1338,0,0
413,-314,0,0,0,0,0,0,0,0,0,-1,1637,1338,0,0
420,-314,0,0,0,0,0,0,0,0,0,-1,1644,1338,0,0
427,-314,0,0,0,0,0,0,0,0,0,-1,1651,1338,0,0
434,-314,0,0,0,0,0,0,0,0,0,-1,1658,1338,0,0
441,-314,0,0,0,0,0,0,0,0,0,-1,1665,1338,0,0
448,-314,0,0,0,0,0,0,0,0,0,-1,1672,1338,0,0
455,-314,0,0,0,0,0,0,0,0,0,-1,1679,1338,0,0
462,-314,0,0,0,0,0,0,0,0,0,-1,1686,1338,0,0
469,-314,0,0,0,0,0,0,0,0,0,-1,1693,1338,0,0
476,-314,0,0,0,0,0,0,0,0,0,-1,1700,1338,0,0
483,-314,0,0,0,0,0,0,0,0,0,-1,1707,1338,0,0
490,-314,0,0,0,0,0,0,0,0,0,-1,1714,1338,0,0
497,-314,0,0,0,0,0,0,0,0,0,-1,1721,1338,0,0
504,-314,0,0,0,0,0,0,0,0,0,-1,1728,1338,0,0
511,-314,0,0,0,0,0,0,0,0,0,-1,1735,1338,0,0
518,-314,0,0,0,0,0,0,0,0,0,-1,1742,1338,0,0
525,-314,0,0,0,0,0,0,0,0,0,-1,1749,1338,0,0
532,-314,0,0,0,0,0,0,0,0,0,-1,1756,1338,0,0
539,-314,0,0,0,0,0,0,0,0,0,-1,1763,1338,0,0
546,-314,0,0,0,0,0,0,0,0,0,-1,1770,1338,0,0
553,-314,0,0,0,0,0,0,0,0,0,-1,1777,1338,0,0
560,-314,0,0,0,0,0,0,0,0,0,-1,1784,1338,0,0
567,-314,0,0,0,0,0,0,0,0,0,-1,1791,1338,0,0
574,-314,0,0,0,0,0,0,0,0,0,-1,1798,1338,0,0
581,-314,23.0055,1.40686,0.0210691,0.0440227,0.0300372,0.064701,0.000390783,0.967883,0.0430043,0.043468,1805,1338,23.0055,-1.4069
588,-314,22.97,1.44238,0.0255237,0.0419283,0.0270357,0.0619786,0.00547351,0.932679,0.0396208,0.0401977,1812,1338,22.97,-1.44244
595,-314,22.9363,1.30066,0.0231335,0.0348871,0.0247751,0.0544729,0.00354782,0.901849,0.0351923,0.0418863,1819,1338,22.9362,-1.30065
602,-314,23.3743,1.52539,0.0184752,0.0276655,0.0216218,0.0451751,0.000965651,0.890102,0.0298001,0.0414183,1826,1338,23.3743,-1.52534
609,-314,23.5848,1.78027,0.0135015,0.0212583,0.0186051,0.0363849,-0.00162517,0.888156,0.0248161,0.0407608,1833,1338,23.5849,-1.78026
616,-314,23.3794,2.49658,0.00925904,0.0161309,0.0157956,0.0288599,-0.00347002,0.892491,0.0204948,0.0439469,1840,1338,23.3794,-2.49656
623,-314,22.9819,3.48425,0,0,0,0,0,0,0,-1,1847,1338,22.982,-3.48422
630,-314,22.0704,4.40393,0,0,0,0,0,0,0,-1,1854,1338,22.0704,-4.40399
637,-314,20.881,5.42261,0,0,0,0,0,0,0,-1,1861,1338,20.881,-5.42265
644,-314,17.0294,5.60413,0,0,0,0,0,0,0,-1,1868,1338,17.0295,-5.60408
651,-314,17.6151,6.323,0,0,0,0,0,0,0,-1,1875,1338,17.6152,-6.32298
658,-314,17.4351,6.54016,-0.00739766,-0.00562436,0.00559337,-0.000847802,-0.0121742,0.864003,0.00784882,0.0418928,1882,1338,17.435,-6.54015
665,-314,17.2119,6.6521,-0.00724005,-0.00686562,0.00467728,-0.00237181,-0.0117339,0.805401,0.00716406,0.0170437,1889,1338,17.2119,-6.65207
672,-314,17.2688,6.43738,-0.00615303,-0.0061145,0.00400791,-0.00212581,-0.0101417,0.787802,0.00617573,0.0120168,1896,1338,17.2689,-6.43744
679,-314,17.2765,6.19556,-0.00484387,-0.00427076,0.00362087,-0.000925126,-0.0081895,0.824886,0.00517891,0.0103042,1903,1338,17.2765,-6.19555
686,-314,17.2548,5.95032,-0.0030318,-0.00253396,0.00270579,-6.56662e-05,-0.0055001,0.831267,0.00364504,0.0120419,1910,1338,17.2547,-5.95032
693,-314,17.2448,5.72192,0.000192585,-0.000652088,0.00112092,0.000968089,-0.00142759,0.605234,0.0013916,0.0118506,1917,1338,17.2448,-5.72197
700,-314,17.2517,5.49146,0.00497444,0.0013829,-9.8861e-05,0.00497716,0.00138018,-0.0274983,0.00296705,0.0118807,1924,1338,17.2517,-5.49151
707,-314,17.2577,5.27722,0.0103344,0.00387161,-0.000867721,0.0104489,0.00375713,-0.13117,0.00611144,0.0127841,1931,1338,17.2577,-5.27721
714,-314,17.2444,5.08521,0.016752,0.00717907,-0.00152766,0.0169899,0.0069412,-0.154472,0.00986365,0.0118655,1938,1338,17.2444,-5.08524
721,-314,17.285,4.8844,0.0248734,0.0107552,-0.00184257,0.0251099,0.0105187,-0.127662,0.0145606,0.0169026,1945,1338,17.285,-4.88439
728,-314,17.1434,4.70789,0.0351387,0.0154092,-0.00165873,0.0352772,0.0152707,-0.0832943,0.0204284,0.0319596,1952,1338,17.1434,-4.70787
735,-314,17.0651,4.28381,0.0479256,0.0214437,-0.00090891,0.0479567,0.0214125,-0.0342681,0.0277406,0.0404468,1959,1338,17.0651,-4.28385
742,-314,17.611,3.64368,0.0633811,0.0291709,0.000634993,0.0633929,0.0291591,0.018553,0.036639,0.0424139,1966,1338,17.611,-3.6437
749,-314,19.2404,3.44263,0.0814765,0.0389473,0.00335241,0.0817392,0.0386847,0.0781827,0.0472146,0.0463258,1973,1338,19.2403,-3.44266
756,-314,19.8494,2.5752,0.102014,0.0513113,0.00777872,0.10318,0.0501447,0.148859,0.0595791,0.0484913,1980,1338,19.8493,-2.57523
763,-314,20.5903,1.67786,0,0,0,0,0,0,0,-1,1987,1338,20.5903,-1.67791
770,-314,0,0,0,0,0,0,0,0,0,-1,1994,1338,0,0
777,-314,0,0,0,0,0,0,0,0,0,-1,2001,1338,0,0
784,-314,0,0,0,0,0,0,0,0,0,-1,2008,1338,0,0
791,-314,0,0,0,0,0,0,0,0,0,-1,2015,1338,0,0
798,-314,0,0,0,0,0,0,0,0,0,-1,2022,1338,0,0
805,-314,0,0,0,0,0,0,0,0,0,-1,2029,1338,0,0
812,-314,0,0,0,0,0,0,0,0,0,-1,2036,1338,0,0
-700,-321,0,0,0,0,0,0,0,0,0,-1,524,1345,0,0
-693,-321,0,0,0,0,0,0,0,0,0,-1,531,1345,0,0
-686,-321,0,0,0,0,0,0,0,0,0,-1,538,1345,0,0
-679,-321,0,0,0,0,0,0,0,0,0,-1,545,1345,0,0
-672,-321,0,0,0,0,0,0,0,0,0,-1,552,1345,0,0
-665,-321,0,0,0,0,0,0,0,0,0,-1,559,1345,0,0
-658,-321,0,0,0,0,0,0,0,0,0,-1,566,1345,0,0
-651,-321,0,0,0,0,0,0,0,0,0,-1,573,1345,0,0
-644,-321,-9.83881,4.51257,0,0,0,0,0,0,0,-1,580,1345,-9.8388,-4.51252
-637,-321,-11.2002,-6.62048,0,0,0,0,0,0,0,-1,587,1345,-11.2002,6.62048
-630,-321,-11.9179,-7.16077,-0.0758897,0.192408,-0.000766198,0.19241,-0.0758919,-1.56794,0.159699,0.0478297,594,1345,-11.9179,7.16077
-623,-321,-12.563,-7.71069,-0.0575504,0.156955,0.00434312,0.157043,-0.0576383,1.55056,0.128299,0.0479622,601,1345,-12.563,7.71072
-616,-321,-13.175,-8.27014,0,0,0,0,0,0,0,-1,608,1345,-13.175,8.27013
-609,-321,-7.95209,1.14758,0,0,0,0,0,0,0,-1,615,1345,-7.95208,-1.14757
-602,-321,-7.64496,2.17578,0,0,0,0,0,0,0,-1,622,1345,-7.64493,-2.17581
-595,-321,-8.10205,2.50916,0,0,0,0,0,0,0,-1,629,1345,-8.10206,-2.50919
-588,-321,-8.44397,2.62988,-0.0101641,0.0337944,0.007061,0.0349008,-0.0112705,1.41537,0.0277964,0.0217516,636,1345,-8.44394,-2.62989
-581,-321,-8.40881,2.91907,-0.00597131,0.0192909,0.00508366,0.0202755,-0.00695595,1.37948,0.016337,0.0124242,643,1345,-8.40881,-2.91903
-574,-321,-8.41144,3.15076,-0.00266052,0.00830109,0.00356618,0.00935916,-0.00371859,1.28237,0.00778102,0.0143743,650,1345,-8.41147,-3.15081
-567,-321,-8.41907,3.38794,-0.0018709,0.00143542,0.00140129,0.00194941,-0.00238489,1.21923,0.00250662,0.0202938,657,1345,-8.41908,-3.38789
-560,-321,-8.40497,3.67737,-0.00276419,0.00107631,-0.000154494,0.00108251,-0.0027704,-1.53066,0.00229453,0.0241261,664,1345,-8.40497,-3.67737
-553,-321,-8.41345,3.90234,-0.0031304,0.000231189,-0.00117184,0.000599366,-0.00349858,-1.26638,0.00255571,0.0258606,671,1345,-8.41345,-3.9023
-546,-321,-8.44525,4.14893,-0.00533083,-0.00033157,-0.00220188,0.000499933,-0.00616233,-1.20972,0.0042846,0.0260461,678,1345,-8.44527,-4.14898
-539,-321,-8.46613,4.43091,-0.00898973,-0.000556367,-0.00320593,0.000523966,-0.0100701,-1.24577,0.00689467,0.0226943,685,1345,-8.46612,-4.43087
-532,-321,-8.34357,4.69861,-0.0136042,-0.000420483,-0.00433547,0.000877456,-0.0149021,-1.27991,0.0102398,0.0185697,692,1345,-8.34358,-4.69861
-525,-321,-8.32904,5.05798,-0.0190017,0.000238783,-0.00540071,0.00165107,-0.020414,-1.31502,0.0141917,0.0389459,699,1345,-8.32904,-5.05802
-518,-321,-8.44897,5.36658,0,0,0,0,0,0,0,-1,706,1345,-8.44898,-5.36658
-511,-321,-8.7052,5.00562,0,0,0,0,0,0,0,-1,713,1345,-8.70519,-5.00561
-504,-321,-8.73346,5.01123,0,0,0,0,0,0,0,-1,720,1345,-8.73345,-5.01118
-497,-321,-9.73969,0.28894,0,0,0,0,0,0,0,-1,727,1345,-9.73969,-0.288964
-490,-321,-10.5172,0.833252,0,0,0,0,0,0,0,-1,734,1345,-10.5172,-0.833304
-483,-321,-11.4693,1.27173,0,0,0,0,0,0,0,-1,741,1345,-11.4693,-1.27173
-476,-321,-12.3351,0.269897,-0.063031,0.0303682,0.0012438,0.0303847,-0.0630476,1.55748,0.0550309,0.0446704,748,1345,-12.3351,-0.269887
-469,-321,-12.7842,0.195679,-0.0682129,0.0386254,0.00520004,0.0388779,-0.0684654,1.52228,0.0627545,0.0420565,755,1345,-12.7842,-0.195644
-462,-321,-13.8533,0.309937,0,0,0,0,0,0,0,-1,762,1345,-13.8533,-0.309916
-455,-321,0,0,0,0,0,0,0,0,0,-1,769,1345,0,0
-448,-321,0,0,0,0,0,0,0,0,0,-1,776,1345,0,0
-441,-321,0,0,0,0,0,0,0,0,0,-1,783,1345,0,0
-434,-321,0,0,0,0,0,0,0,0,0,-1,790,1345,0,0
-427,-321,0,0,0,0,0,0,0,0,0,-1,797,1345,0,0
-420,-321,0,0,0,0,0,0,0,0,0,-1,804,1345,0,0
-413,-321,0,0,0,0,0,0,0,0,0,-1,811,1345,0,0
-406,-321,0,0,0,0,0,0,0,0,0,-1,818,1345,0,0
-399,-321,0,0,0,0,0,0,0,0,0,-1,825,1345,0,0
-392,-321,0,0,0,0,0,0,0,0,0,-1,832,1345,0,0
-385,-321,0,0,0,0,0,0,0,0,0,-1,839,1345,0,0
-378,-321,0,0,0,0,0,0,0,0,0,-1,846,1345,0,0
-371,-321,0,0,0,0,0,0,0,0,0,-1,853,1345,0,0
-364,-321,0,0,0,0,0,0,0,0,0,-1,860,1345,0,0
-357,-321,0,0,0,0,0,0,0,0,0,-1,867,1345,0,0
-350,-321,0,0,0,0,0,0,0,0,0,-1,874,1345,0,0
-343,-321,0,0,0,0,0,0,0,0,0,-1,881,1345,0,0
-336,-321,0,0,0,0,0,0,0,0,0,-1,888,1345,0,0
-329,-321,0,0,0,0,0,0,0,0,0,-1,895,1345,0,0
-322,-321,0,0,0,0,0,0,0,0,0,-1,902,1345,0,0
-315,-321,0,0,0,0,0,0,0,0,0,-1,909,1345,0,0
-308,-321,0,0,0,0,0,0,0,0,0,-1,916,1345,0,0
-301,-321,0,0,0,0,0,0,0,0,0,-1,923,1345,0,0
-294,-321,0,0,0,0,0,0,0,0,0,-1,930,1345,0,0
-287,-321,0,0,0,0,0,0,0,0,0,-1,937,1345,0,0
-280,-321,0,0,0,0,0,0,0,0,0,-1,944,1345,0,0
-273,-321,0,0,0,0,0,0,0,0,0,-1,951,1345,0,0
-266,-321,0,0,0,0,0,0,0,0,0,-1,958,1345,0,0
-259,-321,0,0,0,0,0,0,0,0,0,-1,965,1345,0,0
-252,-321,0,0,0,0,0,0,0,0,0,-1,972,1345,0,0
-245,-321,0,0,0,0,0,0,0,0,0,-1,979,1345,0,0
-238,-321,0,0,0,0,0,0,0,0,0,-1,986,1345,0,0
-231,-321,0,0,0,0,0,0,0,0,0,-1,993,1345,0,0
-224,-321,0,0,0,0,0,0,0,0,0,-1,1000,1345,0,0
-217,-321,0,0,0,0,0,0,0,0,0,-1,1007,1345,0,0
-210,-321,0,0,0,0,0,0,0,0,0,-1,1014,1345,0,0
-203,-321,0,0,0,0,0,0,0,0,0,-1,1021,1345,0,0
-196,-321,0,0,0,0,0,0,0,0,0,-1,1028,1345,0,0
-189,-321,0,0,0,0,0,0,0,0,0,-1,1035,1345,0,0
-182,-321,0,0,0,0,0,0,0,0,0,-1,1042,1345,0,0
-175,-321,0,0,0,0,0,0,0,0,0,-1,1049,1345,0,0
-168,-321,0,0,0,0,0,0,0,0,0,-1,1056,1345,0,0
-161,-321,0,0,0,0,0,0,0,0,0,-1,1063,1345,0,0
-154,-321,0,0,0,0,0,0,0,0,0,-1,1070,1345,0,0
-147,-321,0,0,0,0,0,0,0,0,0,-1,1077,1345,0,0
-140,-321,0,0,0,0,0,0,0,0,0,-1,1084,1345,0,0
-133,-321,0,0,0,0,0,0,0,0,0,-1,1091,1345,0,0
-126,-321,0,0,0,0,0,0,0,0,0,-1,1098,1345,0,0
-119,-321,0,0,0,0,0,0,0,0,0,-1,1105,1345,0,0
-112,-321,0,0,0,0,0,0,0,0,0,-1,1112,1345,0,0
-105,-321,0,0,0,0,0,0,0,0,0,-1,1119,1345,0,0
-98,-321,0,0,0,0,0,0,0,0,0,-1,1126,1345,0,0
-91,-321,0,0,0,0,0,0,0,0,0,-1,1133,1345,0,0
-84,-321,0,0,0,0,0,0,0,0,0,-1,1140,1345,0,0
-77,-321,0,0,0,0,0,0,0,0,0,-1,1147,1345,0,0
-70,-321,0,0,0,0,0,0,0,0,0,-1,1154,1345,0,0
-63,-321,0,0,0,0,0,0,0,0,0,-1,1161,1345,0,0
-56,-321,0,0,0,0,0,0,0,0,0,-1,1168,1345,0,0
-49,-321,0,0,0,0,0,0,0,0,0,-1,1175,1345,0,0
-42,-321,0,0,0,0,0,0,0,0,0,-1,1182,1345,0,0
-35,-321,0,0,0,0,0,0,0,0,0,-1,1189,1345,0,0
-28,-321,0,0,0,0,0,0,0,0,0,-1,1196,1345,0,0
-21,-321,0,0,0,0,0,0,0,0,0,-1,1203,1345,0,0
-14,-321,0,0,0,0,0,0,0,0,0,-1,1210,1345,0,0
-7,-321,0,0,0,0,0,0,0,0,0,-1,1217,1345,0,0
0,-321,0,0,0,0,0,0,0,0,0,-1,1224,1345,0,0
7,-321,0,0,0,0,0,0,0,0,0,-1,1231,1345,0,0
14,-321,0,0,0,0,0,0,0,0,0,-1,1238,1345,0,0
21,-321,0,0,0,0,0,0,0,0,0,-1,1245,1345,0,0
28,-321,0,0,0,0,0,0,0,0,0,-1,1252,1345,0,0
35,-321,0,0,0,0,0,0,0,0,0,-1,1259,1345,0,0
42,-321,0,0,0,0,0,0,0,0,0,-1,1266,1345,0,0
49,-321,0,0,0,0,0,0,0,0,0,-1,1273,1345,0,0
56,-321,0,0,0,0,0,0,0,0,0,-1,1280,1345,0,0
63,-321,0,0,0,0,0,0,0,0,0,-1,1287,1345,0,0
70,-321,0,0,0,0,0,0,0,0,0,-1,1294,1345,0,0
77,-321,0,0,0,0,0,0,0,0,0,-1,1301,1345,0,0
84,-321,0,0,0,0,0,0,0,0,0,-1,1308,1345,0,0
91,-321,0,0,0,0,0,0,0,0,0,-1,1315,1345,0,0
98,-321,0,0,0,0,0,0,0,0,0,-1,1322,1345,0,0
105,-321,0,0,0,0,0,0,0,0,0,-1,1329,1345,0,0
112,-321,0,0,0,0,0,0,0,0,0,-1,1336,1345,0,0
119,-321,0,0,0,0,0,0,0,0,0,-1,1343,1345,0,0
126,-321,0,0,0,0,0,0,0,0,0,-1,1350,1345,0,0
133,-321,0,0,0,0,0,0,0,0,0,-1,1357,1345,0,0
140,-321,0,0,0,0,0,0,0,0,0,-1,1364,1345,0,0
147,-321,0,0,0,0,0,0,0,0,0,-1,1371,1345,0,0
154,-321,0,0,0,0,0,0,0,0,0,-1,1378,1345,0,0
161,-321,0,0,0,0,0,0,0,0,0,-1,1385,1345,0,0
168,-321,0,0,0,0,0,0,0,0,0,-1,1392,1345,0,0
175,-321,0,0,0,0,0,0,0,0,0,-1,1399,1345,0,0
182,-321,0,0,0,0,0,0,0,0,0,-1,1406,1345,0,0
189,-321,0,0,0,0,0,0,0,0,0,-1,1413,1345,0,0
196,-321,0,0,0,0,0,0,0,0,0,-1,1420,1345,0,0
203,-321,0,0,0,0,0,0,0,0,0,-1,1427,1345,0,0
210,-321,0,0,0,0,0,0,0,0,0,-1,1434,1345,0,0
217,-321,0,0,0,0,0,0,0,0,0,-1,1441,1345,0,0
224,-321,0,0,0,0,0,0,0,0,0,-1,1448,1345,0,0
231,-321,0,0,0,0,0,0,0,0,0,-1,1455,1345,0,0
238,-321,0,0,0,0,0,0,0,0,0,-1,1462,1345,0,0
245,-321,0,0,0,0,0,0,0,0,0,-1,1469,1345,0,0
252,-321,0,0,0,0,0,0,0,0,0,-1,1476,1345,0,0
259,-321,0,0,0,0,0,0,0,0,0,-1,1483,1345,0,0
266,-321,0,0,0,0,0,0,0,0,0,-1,1490,1345,0,0
273,-321,0,0,0,0,0,0,0,0,0,-1,1497,1345,0,0
280,-321,0,0,0,0,0,0,0,0,0,-1,1504,1345,0,0
287,-321,0,0,0,0,0,0,0,0,0,-1,1511,1345,0,0
294,-321,0,0,0,0,0,0,0,0,0,-1,1518,1345,0,0
301,-321,0,0,0,0,0,0,0,0,0,-1,1525,1345,0,0
308,-321,0,0,0,0,0,0,0,0,0,-1,1532,1345,0,0
315,-321,0,0,0,0,0,0,0,0,0,-1,1539,1345,0,0
322,-321,0,0,0,0,0,0,0,0,0,-1,1546,1345,0,0
329,-321,0,0,0,0,0,0,0,0,0,-1,1553,1345,0,0
336,-321,0,0,0,0,0,0,0,0,0,-1,1560,1345,0,0
343,-321,0,0,0,0,0,0,0,0,0,-1,1567,1345,0,0
350,-321,0,0,0,0,0,0,0,0,0,-1,1574,1345,0,0
357,-321,0,0,0,0,0,0,0,0,0,-1,1581,1345,0,0
364,-321,0,0,0,0,0,0,0,0,0,-1,1588,1345,0,0
371,-321,0,0,0,0,0,0,0,0,0,-1,1595,1345,0,0
378,-321,0,0,0,0,0,0,0,0,0,-1,1602,1345,0,0
385,-321,0,0,0,0,0,0,0,0,0,-1,1609,1345,0,0
392,-321,0,0,0,0,0,0,0,0,0,-1,1616,1345,0,0
399,-321,0,0,0,0,0,0,0,0,0,-1,1623,1345,0,0
406,-321,0,0,0,0,0,0,0,0,0,-1,1630,1345,0,0
413,-321,0,0,0,0,0,0,0,0,0,-1,1637,1345,0,0
420,-321,0,0,0,0,0,0,0,0,0,-1,1644,1345,0,0
427,-321,0,0,0,0,0,0,0,0,0,-1,1651,1345,0,0
434,-321,0,0,0,0,0,0,0,0,0,-1,1658,1345,0,0
441,-321,0,0,0,0,0,0,0,0,0,-1,1665,1345,0,0
448,-321,0,0,0,0,0,0,0,0,0,-1,1672,1345,0,0
455,-321,0,0,0,0,0,0,0,0,0,-1,1679,1345,0,0
462,-321,0,0,0,0,0,0,0,0,0,-1,1686,1345,0,0
469,-321,0,0,0,0,0,0,0,0,0,-1,1693,1345,0,0
476,-321,0,0,0,0,0,0,0,0,0,-1,1700,1345,0,0
483,-321,0,0,0,0,0,0,0,0,0,-1,1707,1345,0,0
490,-321,0,0,0,0,0,0,0,0,0,-1,1714,1345,0,0
497,-321,0,0,0,0,0,0,0,0,0,-1,1721,1345,0,0
504,-321,0,0,0,0,0,0,0,0,0,-1,1728,1345,0,0
511,-321,0,0,0,0,0,0,0,0,0,-1,1735,1345,0,0
518,-321,0,0,0,0,0,0,0,0,0,-1,1742,1345,0,0
525,-321,0,0,0,0,0,0,0,0,0,-1,1749,1345,0,0
532,-321,0,0,0,0,0,0,0,0,0,-1,1756,1345,0,0
539,-321,0,0,0,0,0,0,0,0,0,-1,1763,1345,0,0
546,-321,0,0,0,0,0,0,0,0,0,-1,1770,1345,0,0
553,-321,0,0,0,0,0,0,0,0,0,-1,1777,1345,0,0
560,-321,0,0,0,0,0,0,0,0,0,-1,1784,1345,0,0
567,-321,0,0,0,0,0,0,0,0,0,-1,1791,1345,0,0
574,-321,0,0,0,0,0,0,0,0,0,-1,1798,1345,0,0
581,-321,22.4183,1.21851,0.0287586,0.043582,0.0360161,0.0729411,-0.000600465,0.886876,0.0488288,0.0439445,1805,1345,22.4183,-1.2185
588,-321,22.4537,1.31885,0.0309933,0.040016,0.0326217,0.0684368,0.00257245,0.854109,0.0447917,0.0423786,1812,1345,22.4537,-1.3188
595,-321,22.6436,1.04382,0.0271374,0.0333223,0.0291874,0.0595806,0.000879057,0.838177,0.0394307,0.0436999,1819,1345,22.6436,-1.04378
602,-321,23.4576,1.52075,0.0216502,0.0271366,0.0248712,0.0494154,-0.00062865,0.840324,0.0331551,0.0424142,1826,1345,23.4577,-1.52072
609,-321,23.3571,1.81775,0.0163071,0.0215035,0.0209824,0.040048,-0.00223733,0.846998,0.0274748,0.040966,1833,1345,23.357,-1.81776
616,-321,23.3228,2.43689,0,0,0,0,0,0,0,-1,1840,1345,23.3228,-2.43692
623,-321,22.8599,3.69189,0,0,0,0,0,0,0,-1,1847,1345,22.8598,-3.69185
630,-321,21.9241,4.78845,0,0,0,0,0,0,0,-1,1854,1345,21.9241,-4.78843
637,-321,20.9064,5.73108,0,0,0,0,0,0,0,-1,1861,1345,20.9064,-5.73106
644,-321,16.8844,6.71973,0,0,0,0,0,0,0,-1,1868,1345,16.8844,-6.71971
651,-321,17.3992,6.71204,0,0,0,0,0,0,0,-1,1875,1345,17.3992,-6.71204
658,-321,17.0801,6.81458,-0.00647791,-0.00586058,0.00608969,-7.1744e-05,-0.0122667,0.81072,0.00815402,0.0339604,1882,1345,17.08,-6.81454
665,-321,16.9978,6.6748,-0.00612933,-0.00678286,0.0048351,-0.00160997,-0.0113022,0.751659,0.00705962,0.01686,1889,1345,16.9978,-6.67477
672,-321,17.0492,6.43457,-0.00491215,-0.00575714,0.00382644,-0.00148495,-0.00918434,0.730413,0.00569284,0.0125574,1896,1345,17.0492,-6.4346
679,-321,17.0521,6.19421,-0.00360369,-0.00380995,0.00313352,-0.0005716,-0.00684204,0.768948,0.00438327,0.0113134,1903,1345,17.0521,-6.19419
686,-321,17.0253,5.96533,-0.00186545,-0.00209034,0.0020472,7.23882e-05,-0.00402818,0.757963,0.0027099,0.0112086,1910,1345,17.0252,-5.96536
693,-321,17.0231,5.7395,0.00127275,-0.000306126,0.000455316,0.00139464,-0.000428019,0.261578,0.00110054,0.0114183,1917,1345,17.0231,-5.73951
700,-321,17.033,5.49524,0.00609676,0.00172561,-0.000591353,0.00617535,0.00164702,-0.132122,0.00369244,0.0108651,1924,1345,17.033,-5.49522
707,-321,17.043,5.28076,0.0114649,0.00423405,-0.00112375,0.0116355,0.00406344,-0.150678,0.00681879,0.0125523,1931,1345,17.0429,-5.28073
714,-321,17.0238,5.08301,0.0179565,0.00744525,-0.0015961,0.0181935,0.00720823,-0.147421,0.0105792,0.0127528,1938,1345,17.0238,-5.08307
721,-321,17.0334,4.83521,0.0262033,0.0111068,-0.00167812,0.0263876,0.0109225,-0.10938,0.01531,0.0218768,1945,1345,17.0334,-4.83515
728,-321,16.8571,4.66748,0.0365985,0.0158695,-0.00121509,0.0366695,0.0157985,-0.0583516,0.0212386,0.0328694,1952,1345,16.8571,-4.6675
735,-321,16.9481,4.08594,0.0494208,0.022005,-9.30073e-05,0.0494211,0.0220047,-0.00339242,0.0285903,0.0432616,1959,1345,16.9481,-4.08596
742,-321,17.9872,3.83044,0.06466,0.0297422,0.00197632,0.0647715,0.0296307,0.0563592,0.0374409,0.0470674,1966,1345,17.9872,-3.83039
749,-321,18.6279,3.13513,0.0821659,0.0393418,0.00538534,0.0828327,0.038675,0.1232,0.0478584,0.0430689,1973,1345,18.628,-3.1351
756,-321,19.4642,2.01196,0.101683,0.0512342,0.0106664,0.103845,0.0490717,0.200028,0.0599853,0.0472604,1980,1345,19.4643,-2.01201
763,-321,20.1373,1.16846,0,0,0,0,0,0,0,-1,1987,1345,20.1374,-1.16851
770,-321,0,0,0,0,0,0,0,0,0,-1,1994,1345,0,0
777,-321,0,0,0,0,0,0,0,0,0,-1,2001,1345,0,0
784,-321,0,0,0,0,0,0,0,0,0,-1,2008,1345,0,0
791,-321,0,0,0,0,0,0,0,0,0,-1,2015,1345,0,0
798,-321,0,0,0,0,0,0,0,0,0,-1,2022,1345,0,0
805,-321,0,0,0,0,0,0,0,0,0,-1,2029,1345,0,0
812,-321,0,0,0,0,0,0,0,0,0,-1,2036,1345,0,0
-700,-328,0,0,0,0,0,0,0,0,0,-1,524,1352,0,0
-693,-328,0,0,0,0,0,0,0,0,0,-1,531,1352,0,0
-686,-328,0,0,0,0,0,0,0,0,0,-1,538,1352,0,0
-679,-328,0,0,0,0,0,0,0,0,0,-1,545,1352,0,0
-672,-328,0,0,0,0,0,0,0,0,0,-1,552,1352,0,0
-665,-328,0,0,0,0,0,0,0,0,0,-1,559,1352,0,0
-658,-328,0,0,0,0,0,0,0,0,0,-1,566,1352,0,0
-651,-328,0,0,0,0,0,0,0,0,0,-1,573,1352,0,0
-644,-328,0,0,0,0,0,0,0,0,0,-1,580,1352,0,0
-637,-328,-9.35089,4.17566,0,0,0,0,0,0,0,-1,587,1352,-9.35091,-4.1757
-630,-328,-12.1945,-8.73376,0,0,0,0,0,0,0,-1,594,1352,-12.1945,8.73372
-623,-328,-12.8938,-9.27209,0,0,0,0,0,0,0,-1,601,1352,-12.8938,9.27212
-616,-328,-8.22198,-0.25708,0,0,0,0,0,0,0,-1,608,1352,-8.22201,0.257067
-609,-328,-7.87439,0.192871,0,0,0,0,0,0,0,-1,615,1352,-7.87441,-0.192822
-602,-328,-7.63062,1.31665,0,0,0,0,0,0,0,-1,622,1352,-7.63064,-1.3166
-595,-328,-8.34753,2.18469,0,0,0,0,0,0,0,-1,629,1352,-8.34753,-2.18469
-588,-328,-8.10992,2.52722,-0.013696,0.0348782,0.0063264,0.0356887,-0.0145065,1.44339,0.0298279,0.0425937,636,1352,-8.10992,-2.52724
-581,-328,-8.15308,2.90295,-0.00877808,0.0196659,0.00447877,0.0203545,-0.00946664,1.41825,0.0175956,0.0151878,643,1352,-8.15309,-2.90292
-574,-328,-8.1358,3.15393,-0.00491447,0.00837213,0.00312675,0.00907117,-0.00561352,1.35084,0.00855619,0.0139834,650,1352,-8.1358,-3.15393
-567,-328,-8.14325,3.40942,-0.00349946,0.00154065,0.0012592,0.00183773,-0.00379655,1.3391,0.00331784,0.0190964,657,1352,-8.14327,-3.40943
-560,-328,-8.13324,3.68176,-0.00365812,0.00113341,-8.75735e-05,0.00113501,-0.00365972,-1.55253,0.00289333,0.0264787,664,1352,-8.13321,-3.68179
-553,-328,-8.18573,3.92358,-0.00329135,0.000291259,-0.000934553,0.000520391,-0.00352048,-1.33036,0.00253829,0.0282844,671,1352,-8.18573,-3.92364
-546,-328,-8.23865,4.17456,-0.00439596,-0.000361512,-0.00187123,0.000372757,-0.00513023,-1.19686,0.00355093,0.0277341,678,1352,-8.23864,-4.1746
-539,-328,-8.20923,4.42944,-0.0067804,-0.000798663,-0.00280966,0.000314063,-0.00789312,-1.19371,0.00536983,0.023106,685,1352,-8.20921,-4.42947
-532,-328,-8.14417,4.68591,-0.0101985,-0.000962075,-0.00395924,0.000502758,-0.0116633,-1.21644,0.00794845,0.0155654,692,1352,-8.14416,-4.68593
-525,-328,-8.11188,4.98999,-0.0149611,-0.000495921,-0.00507047,0.00110439,-0.0165614,-1.26508,0.0114268,0.0142579,699,1352,-8.1119,-4.99
-518,-328,-8.00287,5.26355,-0.0207808,0.00208517,-0.00525763,0.00323613,-0.0219318,-1.35528,0.0158107,0.0408575,706,1352,-8.00286,-5.26358
-511,-328,-8.31635,5.021,-0.0272536,0.00503474,-0.00540494,0.00591548,-0.0281343,-1.40926,0.0210075,0.0468768,713,1352,-8.31637,-5.02103
-504,-328,-8.37158,4.92834,0,0,0,0,0,0,0,-1,720,1352,-8.37156,-4.92839
-497,-328,-8.28729,5.14795,0,0,0,0,0,0,0,-1,727,1352,-8.28729,-5.14791
-490,-328,-9.54718,0.767334,0,0,0,0,0,0,0,-1,734,1352,-9.54719,-0.767333
-483,-328,-11.28,-0.205811,0,0,0,0,0,0,0,-1,741,1352,-11.28,0.205839
-476,-328,-12.1125,-0.0240479,-0.0606069,0.0328957,0.00291681,0.0329866,-0.0606978,1.53964,0.0548717,0.048419,748,1352,-12.1125,0.024076
-469,-328,-12.9481,0.130005,-0.0678934,0.0416131,0.00660725,0.0420103,-0.0682906,1.51075,0.0642819,0.0442294,755,1352,-12.9481,-0.130043
-462,-328,-13.758,0.238892,-0.0744812,0.0509963,0.011254,0.0519977,-0.0754826,1.48205,0.0740159,0.0448137,762,1352,-13.758,-0.238923
-455,-328,0,0,0,0,0,0,0,0,0,-1,769,1352,0,0
-448,-328,0,0,0,0,0,0,0,0,0,-1,776,1352,0,0
-441,-328,0,0,0,0,0,0,0,0,0,-1,783,1352,0,0
-434,-328,0,0,0,0,0,0,0,0,0,-1,790,1352,0,0
-427,-328,0,0,0,0,0,0,0,0,0,-1,797,1352,0,0
-420,-328,0,0,0,0,0,0,0,0,0,-1,804,1352,0,0
-413,-328,0,0,0,0,0,0,0,0,0,-1,811,1352,0,0
-406,-328,0,0,0,0,0,0,0,0,0,-1,818,1352,0,0
-399,-328,0,0,0,0,0,0,0,0,0,-1,825,1352,0,0
-392,-328,0,0,0,0,0,0,0,0,0,-1,832,1352,0,0
-385,-328,0,0,0,0,0,0,0,0,0,-1,839,1352,0,0
-378,-328,0,0,0,0,0,0,0,0,0,-1,846,1352,0,0
-371,-328,0,0,0,0,0,0,0,0,0,-1,853,1352,0,0
-364,-328,0,0,0,0,0,0,0,0,0,-1,860,1352,0,0
-357,-328,0,0,0,0,0,0,0,0,0,-1,867,1352,0,0
-350,-328,0,0,0,0,0,0,0,0,0,-1,874,1352,0,0
-343,-328,0,0,0,0,0,0,0,0,0,-1,881,1352,0,0
-336,-328,0,0,0,0,0,0,0,0,0,-1,888,1352,0,0
-329,-328,0,0,0,0,0,0,0,0,0,-1,895,1352,0,0
-322,-328,0,0,0,0,0,0,0,0,0,-1,902,1352,0,0
-315,-328,0,0,0,0,0,0,0,0,0,-1,909,1352,0,0
-308,-328,0,0,0,0,0,0,0,0,0,-1,916,1352,0,0
-301,-328,0,0,0,0,0,0,0,0,0,-1,923,1352,0,0
-294,-328,0,0,0,0,0,0,0,0,0,-1,930,1352,0,0
-287,-328,0,0,0,0,0,0,0,0,0,-1,937,1352,0,0
-280,-328,0,0,0,0,0,0,0,0,0,-1,944,1352,0,0
-273,-328,0,0,0,0,0,0,0,0,0,-1,951,1352,0,0
-266,-328,0,0,0,0,0,0,0,0,0,-1,958,1352,0,0
-259,-328,0,0,0,0,0,0,0,0,0,-1,965,1352,0,0
-252,-328,0,0,0,0,0,0,0,0,0,-1,972,1352,0,0
-245,-328,0,0,0,0,0,0,0,0,0,-1,979,1352,0,0
-238,-328,0,0,0,0,0,0,0,0,0,-1,986,1352,0,0
-231,-328,0,0,0,0,0,0,0,0,0,-1,993,1352,0,0
-224,-328,0,0,0,0,0,0,0,0,0,-1,1000,1352,0,0
-217,-328,0,0,0,0,0,0,0,0,0,-1,1007,1352,0,0
-210,-328,0,0,0,0,0,0,0,0,0,-1,1014,1352,0,0
-203,-328,0,0,0,0,0,0,0,0,0,-1,1021,1352,0,0
-196,-328,0,0,0,0,0,0,0,0,0,-1,1028,1352,0,0
-189,-328,0,0,0,0,0,0,0,0,0,-1,1035,1352,0,0
-182,-328,0,0,0,0,0,0,0,0,0,-1,1042,1352,0,0
-175,-328,0,0,0,0,0,0,0,0,0,-1,1049,1352,0,0
-168,-328,0,0,0,0,0,0,0,0,0,-1,1056,1352,0,0
-161,-328,0,0,0,0,0,0,0,0,0,-1,1063,1352,0,0
-154,-328,0,0,0,0,0,0,0,0,0,-1,1070,1352,0,0
-147,-328,0,0,0,0,0,0,0,0,0,-1,1077,1352,0,0
-140,-328,0,0,0,0,0,0,0,0,0,-1,1084,1352,0,0
-133,-328,0,0,0,0,0,0,0,0,0,-1,1091,1352,0,0
-126,-328,0,0,0,0,0,0,0,0,0,-1,1098,1352,0,0
-119,-328,0,0,0,0,0,0,0,0,0,-1,1105,1352,0,0
-112,-328,0,0,0,0,0,0,0,0,0,-1,1112,1352,0,0
-105,-328,0,0,0,0,0,0,0,0,0,-1,1119,1352,0,0
-98,-328,0,0,0,0,0,0,0,0,0,-1,1126,1352,0,0
-91,-328,0,0,0,0,0,0,0,0,0,-1,1133,1352,0,0
-84,-328,0,0,0,0,0,0,0,0,0,-1,1140,1352,0,0
-77,-328,0,0,0,0,0,0,0,0,0,-1,1147,1352,0,0
-70,-328,0,0,0,0,0,0,0,0,0,-1,1154,1352,0,0
-63,-328,0,0,0,0,0,0,0,0,0,-1,1161,1352,0,0
-56,-328,0,0,0,0,0,0,0,0,0,-1,1168,1352,0,0
-49,-328,0,0,0,0,0,0,0,0,0,-1,1175,1352,0,0
-42,-328,0,0,0,0,0,0,0,0,0,-1,1182,1352,0,0
-35,-328,0,0,0,0,0,0,0,0,0,-1,1189,1352,0,0
-28,-328,0,0,0,0,0,0,0,0,0,-1,1196,1352,0,0
-21,-328,0,0,0,0,0,0,0,0,0,-1,1203,1352,0,0
-14,-328,0,0,0,0,0,0,0,0,0,-1,1210,1352,0,0
-7,-328,0,0,0,0,0,0,0,0,0,-1,1217,1352,0,0
0,-328,0,0,0,0,0,0,0,0,0,-1,1224,1352,0,0
7,-328,0,0,0,0,0,0,0,0,0,-1,1231,1352,0,0
14,-328,0,0,0,0,0,0,0,0,0,-1,1238,1352,0,0
21,-328,0,0,0,0,0,0,0,0,0,-1,1245,1352,0,0
28,-328,0,0,0,0,0,0,0,0,0,-1,1252,1352,0,0
35,-328,0,0,0,0,0,0,0,0,0,-1,1259,1352,0,0
42,-328,0,0,0,0,0,0,0,0,0,-1,1266,1352,0,0
49,-328,0,0,0,0,0,0,0,0,0,-1,1273,1352,0,0
56,-328,0,0,0,0,0,0,0,0,0,-1,1280,1352,0,0
63,-328,0,0,0,0,0,0,0,0,0,-1,1287,1352,0,0
70,-328,0,0,0,0,0,0,0,0,0,-1,1294,1352,0,0
77,-328,0,0,0,0,0,0,0,0,0,-1,1301,1352,0,0
84,-328,0,0,0,0,0,0,0,0,0,-1,1308,1352,0,0
91,-328,0,0,0,0,0,0,0,0,0,-1,1315,1352,0,0
98,-328,0,0,0,0,0,0,0,0,0,-1,1322,1352,0,0
105,-328,0,0,0,0,0,0,0,0,0,-1,1329,1352,0,0
112,-328,0,0,0,0,0,0,0,0,0,-1,1336,1352,0,0
119,-328,0,0,0,0,0,0,0,0,0,-1,1343,1352,0,0
126,-328,0,0,0,0,0,0,0,0,0,-1,1350,1352,0,0
133,-328,0,0,0,0,0,0,0,0,0,-1,1357,1352,0,0
140,-328,0,0,0,0,0,0,0,0,0,-1,1364,1352,0,0
147,-328,0,0,0,0,0,0,0,0,0,-1,1371,1352,0,0
154,-328,0,0,0,0,0,0,0,0,0,-1,1378,1352,0,0
161,-328,0,0,0,0,0,0,0,0,0,-1,1385,1352,0,0
168,-328,0,0,0,0,0,0,0,0,0,-1,1392,1352,0,0
175,-328,0,0,0,0,0,0,0,0,0,-1,1399,1352,0,0
182,-328,0,0,0,0,0,0,0,0,0,-1,1406,1352,0,0
189,-328,0,0,0,0,0,0,0,0,0,-1,1413,1352,0,0
196,-328,0,0,0,0,0,0,0,0,0,-1,1420,1352,0,0
203,-328,0,0,0,0,0,0,0,0,0,-1,1427,1352,0,0
210,-328,0,0,0,0,0,0,0,0,0,-1,1434,1352,0,0
217,-328,0,0,0,0,0,0,0,0,0,-1,1441,1352,0,0
224,-328,0,0,0,0,0,0,0,0,0,-1,1448,1352,0,0
231,-328,0,0,0,0,0,0,0,0,0,-1,1455,1352,0,0
238,-328,0,0,0,0,0,0,0,0,0,-1,1462,1352,0,0
245,-328,0,0,0,0,0,0,0,0,0,-1,1469,1352,0,0
252,-328,0,0,0,0,0,0,0,0,0,-1,1476,1352,0,0
259,-328,0,0,0,0,0,0,0,0,0,-1,1483,1352,0,0
266,-328,0,0,0,0,0,0,0,0,0,-1,1490,1352,0,0
273,-328,0,0,0,0,0,0,0,0,0,-1,1497,1352,0,0
280,-328,0,0,0,0,0,0,0,0,0,-1,1504,1352,0,0
287,-328,0,0,0,0,0,0,0,0,0,-1,1511,1352,0,0
294,-328,0,0,0,0,0,0,0,0,0,-1,1518,1352,0,0
301,-328,0,0,0,0,0,0,0,0,0,-1,1525,1352,0,0
308,-328,0,0,0,0,0,0,0,0,0,-1,1532,1352,0,0
315,-328,0,0,0,0,0,0,0,0,0,-1,1539,1352,0,0
322,-328,0,0,0,0,0,0,0,0,0,-1,1546,1352,0,0
329,-328,0,0,0,0,0,0,0,0,0,-1,1553,1352,0,0
336,-328,0,0,0,0,0,0,0,0,0,-1,1560,1352,0,0
343,-328,0,0,0,0,0,0,0,0,0,-1,1567,1352,0,0
350,-328,0,0,0,0,0,0,0,0,0,-1,1574,1352,0,0
357,-328,0,0,0,0,0,0,0,0,0,-1,1581,1352,0,0
364,-328,0,0,0,0,0,0,0,0,0,-1,1588,1352,0,0
371,-328,0,0,0,0,0,0,0,0,0,-1,1595,1352,0,0
378,-328,0,0,0,0,0,0,0,0,0,-1,1602,1352,0,0
385,-328,0,0,0,0,0,0,0,0,0,-1,1609,1352,0,0
392,-328,0,0,0,0,0,0,0,0,0,-1,1616,1352,0,0
399,-328,0,0,0,0,0,0,0,0,0,-1,1623,1352,0,0
406,-328,0,0,0,0,0,0,0,0,0,-1,1630,1352,0,0
413,-328,0,0,0,0,0,0,0,0,0,-1,1637,1352,0,0
420,-328,0,0,0,0,0,0,0,0,0,-1,1644,1352,0,0
427,-328,0,0,0,0,0,0,0,0,0,-1,1651,1352,0,0
434,-328,0,0,0,0,0,0,0,0,0,-1,1658,1352,0,0
441,-328,0,0,0,0,0,0,0,0,0,-1,1665,1352,0,0
448,-328,0,0,0,0,0,0,0,0,0,-1,1672,1352,0,0
455,-328,0,0,0,0,0,0,0,0,0,-1,1679,1352,0,0
462,-328,0,0,0,0,0,0,0,0,0,-1,1686,1352,0,0
469,-328,0,0,0,0,0,0,0,0,0,-1,1693,1352,0,0
476,-328,0,0,0,0,0,0,0,0,0,-1,1700,1352,0,0
483,-328,0,0,0,0,0,0,0,0,0,-1,1707,1352,0,0
490,-328,0,0,0,0,0,0,0,0,0,-1,1714,1352,0,0
497,-328,0,0,0,0,0,0,0,0,0,-1,1721,1352,0,0
504,-328,0,0,0,0,0,0,0,0,0,-1,1728,1352,0,0
511,-328,0,0,0,0,0,0,0,0,0,-1,1735,1352,0,0
518,-328,0,0,0,0,0,0,0,0,0,-1,1742,1352,0,0
525,-328,0,0,0,0,0,0,0,0,0,-1,1749,1352,0,0
532,-328,0,0,0,0,0,0,0,0,0,-1,1756,1352,0,0
539,-328,0,0,0,0,0,0,0,0,0,-1,1763,1352,0,0
546,-328,0,0,0,0,0,0,0,0,0,-1,1770,1352,0,0
553,-328,0,0,0,0,0,0,0,0,0,-1,1777,1352,0,0
560,-328,0,0,0,0,0,0,0,0,0,-1,1784,1352,0,0
567,-328,0,0,0,0,0,0,0,0,0,-1,1791,1352,0,0
574,-328,22.1354,0.497803,0,0,0,0,0,0,0,-1,1798,1352,22.1354,-0.497802
581,-328,21.9353,0.918457,0.0371754,0.0399343,0.0417352,0.0803128,-0.00320315,0.801919,0.0546409,0.047075,1805,1352,21.9354,-0.918506
588,-328,21.8862,1.21008,0.0361191,0.0364885,0.0367023,0.0730066,-0.000398941,0.787914,0.0488046,0.0466486,1812,1352,21.8862,-1.21006
595,-328,22.5599,0.421387,0.0308898,0.0313973,0.03173,0.0628745,-0.000587441,0.789397,0.0421135,0.0489201,1819,1352,22.5599,-0.421431
602,-328,23.3566,1.1842,0,0,0,0,0,0,0,-1,1826,1352,23.3566,-1.18416
609,-328,22.329,0.704224,0,0,0,0,0,0,0,-1,1833,1352,22.3289,-0.704244
616,-328,20.8577,2.55371,0,0,0,0,0,0,0,-1,1840,1352,20.8577,-2.55375
623,-328,20.3517,2.93738,0,0,0,0,0,0,0,-1,1847,1352,20.3516,-2.93733
630,-328,21.7172,5.328,0,0,0,0,0,0,0,-1,1854,1352,21.7172,-5.32794
637,-328,16.8966,7.19812,0,0,0,0,0,0,0,-1,1861,1352,16.8966,-7.19806
644,-328,16.9579,6.3396,0,0,0,0,0,0,0,-1,1868,1352,16.9579,-6.33959
651,-328,16.965,6.77576,0,0,0,0,0,0,0,-1,1875,1352,16.965,-6.77574
658,-328,16.7806,6.86987,-0.00556941,-0.00573682,0.0061273,0.000474761,-0.011781,0.778568,0.00801693,0.0249999,1882,1352,16.7807,-6.86983
665,-328,16.8154,6.66211,-0.00501961,-0.00619358,0.00458006,-0.000989076,-0.0102241,0.721665,0.00651147,0.0139243,1889,1352,16.8154,-6.66211
672,-328,16.8199,6.42932,-0.00372016,-0.00498237,0.00335437,-0.00093804,-0.00776449,0.692413,0.00489371,0.0113885,1896,1352,16.82,-6.42935
679,-328,16.8217,6.19592,-0.00243427,-0.00314661,0.00251351,-0.000251823,-0.00532906,0.715016,0.00347181,0.0134832,1903,1352,16.8217,-6.19594
686,-328,16.8044,5.97058,-0.000749914,-0.0016187,0.00141574,0.000296582,-0.00266519,0.636543,0.00188346,0.0116275,1910,1352,16.8044,-5.97054
693,-328,16.8076,5.74829,0.00229913,-5.77594e-05,-6.34868e-05,0.00230084,-5.94683e-05,-0.0269106,0.0015541,0.00821316,1917,1352,16.8076,-5.74829
700,-328,16.8109,5.51831,0.00707744,0.00184397,-0.000887608,0.00722389,0.00169753,-0.163513,0.00436162,0.0119701,1924,1352,16.811,-5.51831
707,-328,16.8197,5.29858,0.0124099,0.00427014,-0.00118681,0.0125795,0.00410063,-0.141869,0.00740793,0.0138215,1931,1352,16.8197,-5.29857
714,-328,16.8177,5.07495,0.0189154,0.00729123,-0.00144467,0.0190922,0.00711437,-0.121813,0.0111415,0.0130327,1938,1352,16.8178,-5.07494
721,-328,16.7316,4.86316,0.0272027,0.0109469,-0.00126215,0.0273001,0.0108495,-0.0770281,0.0158719,0.0287322,1945,1352,16.7315,-4.86312
728,-328,16.7976,4.59692,0.0375771,0.015732,-0.000473394,0.0375874,0.0157217,-0.0216569,0.0217975,0.0375835,1952,1352,16.7977,-4.59689
735,-328,17.0281,4.15796,0.0501291,0.021888,0.00108625,0.0501709,0.0218463,0.0383877,0.0290465,0.0455892,1959,1352,17.028,-4.158
742,-328,17.1958,3.65332,0.0646627,0.0295329,0.00376425,0.0650615,0.0291341,0.105556,0.0376315,0.0469581,1966,1352,17.1958,-3.65333
749,-328,17.2413,3.1106,0.0808384,0.0388157,0.00796666,0.0822981,0.0373561,0.181206,0.047582,0.041523,1973,1352,17.2413,-3.11055
756,-328,17.3129,2.81262,0.0982753,0.0500183,0.0141959,0.102142,0.046152,0.265903,0.0590626,0.042154,1980,1352,17.3129,-2.81259
763,-328,0,0,0,0,0,0,0,0,0,-1,1987,1352,0,0
770,-328,0,0,0,0,0,0,0,0,0,-1,1994,1352,0,0
777,-328,0,0,0,0,0,0,0,0,0,-1,2001,1352,0,0
784,-328,0,0,0,0,0,0,0,0,0,-1,2008,1352,0,0
791,-328,0,0,0,0,0,0,0,0,0,-1,2015,1352,0,0
798,-328,0,0,0,0,0,0,0,0,0,-1,2022,1352,0,0
805,-328,0,0,0,0,0,0,0,0,0,-1,2029,1352,0,0
812,-328,0,0,0,0,0,0,0,0,0,-1,2036,1352,0,0
-700,-335,0,0,0,0,0,0,0,0,0,-1,524,1359,0,0
-693,-335,0,0,0,0,0,0,0,0,0,-1,531,1359,0,0
-686,-335,0,0,0,0,0,0,0,0,0,-1,538,1359,0,0
-679,-335,0,0,0,0,0,0,0,0,0,-1,545,1359,0,0
-672,-335,0,0,0,0,0,0,0,0,0,-1,552,1359,0,0
-665,-335,0,0,0,0,0,0,0,0,0,-1,559,1359,0,0
-658,-335,0,0,0,0,0,0,0,0,0,-1,566,1359,0,0
-651,-335,0,0,0,0,0,0,0,0,0,-1,573,1359,0,0
-644,-335,0,0,0,0,0,0,0,0,0,-1,580,1359,0,0
-637,-335,-9.02472,4.46582,0,0,0,0,0,0,0,-1,587,1359,-9.02471,-4.46582
-630,-335,-8.73334,2.80054,0,0,0,0,0,0,0,-1,594,1359,-8.73331,-2.80056
-623,-335,-8.43304,1.09509,0,0,0,0,0,0,0,-1,601,1359,-8.43301,-1.09507
-616,-335,-7.80927,-0.485352,0,0,0,0,0,0,0,-1,608,1359,-7.80926,0.485291
-609,-335,-7.12256,-2.03601,0,0,0,0,0,0,0,-1,615,1359,-7.12253,2.03601
-602,-335,-7.30859,1.81482,0,0,0,0,0,0,0,-1,622,1359,-7.3086,-1.81476
-595,-335,-7.42542,2.2406,-0.0239104,0.055784,0.00749025,0.0564819,-0.0246082,1.47789,0.0480078,0.0483531,629,1359,-7.42541,-2.2406
-588,-335,-7.61328,2.67151,-0.0171394,0.0360265,0.00599206,0.0366935,-0.0178064,1.45994,0.0320892,0.042366,636,1359,-7.61328,-2.67157
-581,-335,-7.88348,2.94006,-0.0116119,0.0203176,0.00411179,0.0208386,-0.0121329,1.44476,0.019256,0.0221307,643,1359,-7.88346,-2.94011
-574,-335,-7.89069,3.14417,-0.00728043,0.00896959,0.00283054,0.00944852,-0.00775936,1.40318,0.00995091,0.0121771,650,1359,-7.89066,-3.14419
-567,-335,-7.87512,3.40442,-0.00521351,0.00228584,0.00119719,0.00247232,-0.00539999,1.41627,0.00464867,0.0165669,657,1359,-7.87513,-3.40445
-560,-335,-7.85419,3.62512,-0.00457558,0.00168434,2.09184e-05,0.00168441,-0.00457565,1.56745,0.00374054,0.0248493,664,1359,-7.85416,-3.62509
-553,-335,-7.90985,3.91968,-0.00354358,0.000719327,-0.000697315,0.000830493,-0.00365475,-1.41271,0.00275537,0.0276025,671,1359,-7.90984,-3.91966
-546,-335,-7.93097,4.22754,-0.00370454,-0.000112108,-0.00152208,0.000446061,-0.00426271,-1.21931,0.00300156,0.0249585,678,1359,-7.93094,-4.22754
-539,-335,-7.90674,4.42383,-0.0049127,-0.00080015,-0.00233994,0.000258634,-0.00597149,-1.14588,0.00406994,0.0209301,685,1359,-7.90674,-4.42378
-532,-335,-7.90485,4.67957,-0.00710052,-0.00127845,-0.00343086,0.000309956,-0.00868892,-1.13721,0.00589865,0.0164753,692,1359,-7.90484,-4.6795
-525,-335,-7.8465,4.98364,-0.0110324,-0.00105681,-0.00450701,0.000677844,-0.0127671,-1.20339,0.00874608,0.0114101,699,1359,-7.8465,-4.98364
-518,-335,-7.81763,5.24109,-0.016473,0.00150693,-0.00468802,0.00265585,-0.0176219,-1.33046,0.0127259,0.0207962,706,1359,-7.81763,-5.2411
-511,-335,-8.00385,5.18469,-0.0227285,0.0046303,-0.00475203,0.00543219,-0.0235304,-1.40362,0.0177765,0.0468718,713,1359,-8.00386,-5.18475
-504,-335,-8.0097,4.84558,0,0,0,0,0,0,0,-1,720,1359,-8.00968,-4.8456
-497,-335,-9.02789,6.17371,0,0,0,0,0,0,0,-1,727,1359,-9.02792,-6.17367
-490,-335,-10.8923,4.43506,0,0,0,0,0,0,0,-1,734,1359,-10.8923,-4.43506
-483,-335,-10.9349,4.52917,0,0,0,0,0,0,0,-1,741,1359,-10.9349,-4.52922
-476,-335,-11.9938,-0.173462,0,0,0,0,0,0,0,-1,748,1359,-11.9938,0.173429
-469,-335,-12.8704,-0.204102,-0.0657103,0.0443208,0.00934539,0.0451089,-0.0664984,1.48667,0.0648298,0.0463592,755,1359,-12.8704,0.204117
-462,-335,-13.486,0.0218506,-0.0748012,0.0544789,0.0140071,0.0559791,-0.0763014,1.4641,0.076672,0.041862,762,1359,-13.4859,-0.0217908
-455,-335,-14.1504,0.549561,-0.084861,0.0661674,0.0190241,0.0685269,-0.0872204,1.4474,0.0901364,0.0464367,769,1359,-14.1504,-0.549583
-448,-335,0,0,0,0,0,0,0,0,0,-1,776,1359,0,0
-441,-335,0,0,0,0,0,0,0,0,0,-1,783,1359,0,0
-434,-335,0,0,0,0,0,0,0,0,0,-1,790,1359,0,0
-427,-335,0,0,0,0,0,0,0,0,0,-1,797,1359,0,0
-420,-335,0,0,0,0,0,0,0,0,0,-1,804,1359,0,0
-413,-335,0,0,0,0,0,0,0,0,0,-1,811,1359,0,0
-406,-335,0,0,0,0,0,0,0,0,0,-1,818,1359,0,0
-399,-335,0,0,0,0,0,0,0,0,0,-1,825,1359,0,0
-392,-335,0,0,0,0,0,0,0,0,0,-1,832,1359,0,0
-385,-335,0,0,0,0,0,0,0,0,0,-1,839,1359,0,0
-378,-335,0,0,0,0,0,0,0,0,0,-1,846,1359,0,0
-371,-335,0,0,0,0,0,0,0,0,0,-1,853,1359,0,0
-364,-335,0,0,0,0,0,0,0,0,0,-1,860,1359,0,0
-357,-335,0,0,0,0,0,0,0,0,0,-1,867,1359,0,0
-350,-335,0,0,0,0,0,0,0,0,0,-1,874,1359,0,0
-343,-335,0,0,0,0,0,0,0,0,0,-1,881,1359,0,0
-336,-335,0,0,0,0,0,0,0,0,0,-1,888,1359,0,0
-329,-335,0,0,0,0,0,0,0,0,0,-1,895,1359,0,0
-322,-335,0,0,0,0,0,0,0,0,0,-1,902,1359,0,0
-315,-335,0,0,0,0,0,0,0,0,0,-1,909,1359,0,0
-308,-335,0,0,0,0,0,0,0,0,0,-1,916,1359,0,0
-301,-335,0,0,0,0,0,0,0,0,0,-1,923,1359,0,0
-294,-335,0,0,0,0,0,0,0,0,0,-1,930,1359,0,0
-287,-335,0,0,0,0,0,0,0,0,0,-1,937,1359,0,0
-280,-335,0,0,0,0,0,0,0,0,0,-1,944,1359,0,0
-273,-335,0,0,0,0,0,0,0,0,0,-1,951,1359,0,0
-266,-335,0,0,0,0,0,0,0,0,0,-1,958,1359,0,0
-259,-335,0,0,0,0,0,0,0,0,0,-1,965,1359,0,0
-252,-335,0,0,0,0,0,0,0,0,0,-1,972,1359,0,0
-245,-335,0,0,0,0,0,0,0,0,0,-1,979,1359,0,0
-238,-335,0,0,0,0,0,0,0,0,0,-1,986,1359,0,0
-231,-335,0,0,0,0,0,0,0,0,0,-1,993,1359,0,0
-224,-335,0,0,0,0,0,0,0,0,0,-1,1000,1359,0,0
-217,-335,0,0,0,0,0,0,0,0,0,-1,1007,1359,0,0
-210,-335,0,0,0,0,0,0,0,0,0,-1,1014,1359,0,0
-203,-335,0,0,0,0,0,0,0,0,0,-1,1021,1359,0,0
-196,-335,0,0,0,0,0,0,0,0,0,-1,1028,1359,0,0
-189,-335,0,0,0,0,0,0,0,0,0,-1,1035,1359,0,0
-182,-335,0,0,0,0,0,0,0,0,0,-1,1042,1359,0,0
-175,-335,0,0,0,0,0,0,0,0,0,-1,1049,1359,0,0
-168,-335,0,0,0,0,0,0,0,0,0,-1,1056,1359,0,0
-161,-335,0,0,0,0,0,0,0,0,0,-1,1063,1359,0,0
-154,-335,0,0,0,0,0,0,0,0,0,-1,1070,1359,0,0
-147,-335,0,0,0,0,0,0,0,0,0,-1,1077,1359,0,0
-140,-335,0,0,0,0,0,0,0,0,0,-1,1084,1359,0,0
-133,-335,0,0,0,0,0,0,0,0,0,-1,1091,1359,0,0
-126,-335,0,0,0,0,0,0,0,0,0,-1,1098,1359,0,0
-119,-335,0,0,0,0,0,0,0,0,0,-1,1105,1359,0,0
-112,-335,0,0,0,0,0,0,0,0,0,-1,1112,1359,0,0
-105,-335,0,0,0,0,0,0,0,0,0,-1,1119,1359,0,0
-98,-335,0,0,0,0,0,0,0,0,0,-1,1126,1359,0,0
-91,-335,0,0,0,0,0,0,0,0,0,-1,1133,1359,0,0
-84,-335,0,0,0,0,0,0,0,0,0,-1,1140,1359,0,0
-77,-335,0,0,0,0,0,0,0,0,0,-1,1147,1359,0,0
-70,-335,0,0,0,0,0,0,0,0,0,-1,1154,1359,0,0
-63,-335,0,0,0,0,0,0,0,0,0,-1,1161,1359,0,0
-56,-335,0,0,0,0,0,0,0,0,0,-1,1168,1359,0,0
-49,-335,0,0,0,0,0,0,0,0,0,-1,1175,1359,0,0
-42,-335,0,0,0,0,0,0,0,0,0,-1,1182,1359,0,0
-35,-335,0,0,0,0,0,0,0,0,0,-1,1189,1359,0,0
-28,-335,0,0,0,0,0,0,0,0,0,-1,1196,1359,0,0
-21,-335,0,0,0,0,0,0,0,0,0,-1,1203,1359,0,0
-14,-335,0,0,0,0,0,0,0,0,0,-1,1210,1359,0,0
-7,-335,0,0,0,0,0,0,0,0,0,-1,1217,1359,0,0
0,-335,0,0,0,0,0,0,0,0,0,-1,1224,1359,0,0
7,-335,0,0,0,0,0,0,0,0,0,-1,1231,1359,0,0
14,-335,0,0,0,0,0,0,0,0,0,-1,1238,1359,0,0
21,-335,0,0,0,0,0,0,0,0,0,-1,1245,1359,0,0
28,-335,0,0,0,0,0,0,0,0,0,-1,1252,1359,0,0
35,-335,0,0,0,0,0,0,0,0,0,-1,1259,1359,0,0
42,-335,0,0,0,0,0,0,0,0,0,-1,1266,1359,0,0
49,-335,0,0,0,0,0,0,0,0,0,-1,1273,1359,0,0
56,-335,0,0,0,0,0,0,0,0,0,-1,1280,1359,0,0
63,-335,0,0,0,0,0,0,0,0,0,-1,1287,1359,0,0
70,-335,0,0,0,0,0,0,0,0,0,-1,1294,1359,0,0
77,-335,0,0,0,0,0,0,0,0,0,-1,1301,1359,0,0
84,-335,0,0,0,0,0,0,0,0,0,-1,1308,1359,0,0
91,-335,0,0,0,0,0,0,0,0,0,-1,1315,1359,0,0
98,-335,0,0,0,0,0,0,0,0,0,-1,1322,1359,0,0
105,-335,0,0,0,0,0,0,0,0,0,-1,1329,1359,0,0
112,-335,0,0,0,0,0,0,0,0,0,-1,1336,1359,0,0
119,-335,0,0,0,0,0,0,0,0,0,-1,1343,1359,0,0
126,-335,0,0,0,0,0,0,0,0,0,-1,1350,1359,0,0
133,-335,0,0,0,0,0,0,0,0,0,-1,1357,1359,0,0
140,-335,0,0,0,0,0,0,0,0,0,-1,1364,1359,0,0
147,-335,0,0,0,0,0,0,0,0,0,-1,1371,1359,0,0
154,-335,0,0,0,0,0,0,0,0,0,-1,1378,1359,0,0
161,-335,0,0,0,0,0,0,0,0,0,-1,1385,1359,0,0
168,-335,0,0,0,0,0,0,0,0,0,-1,1392,1359,0,0
175,-335,0,0,0,0,0,0,0,0,0,-1,1399,1359,0,0
182,-335,0,0,0,0,0,0,0,0,0,-1,1406,1359,0,0
189,-335,0,0,0,0,0,0,0,0,0,-1,1413,1359,0,0
196,-335,0,0,0,0,0,0,0,0,0,-1,1420,1359,0,0
203,-335,0,0,0,0,0,0,0,0,0,-1,1427,1359,0,0
210,-335,0,0,0,0,0,0,0,0,0,-1,1434,1359,0,0
217,-335,0,0,0,0,0,0,0,0,0,-1,1441,1359,0,0
224,-335,0,0,0,0,0,0,0,0,0,-1,1448,1359,0,0
231,-335,0,0,0,0,0,0,0,0,0,-1,1455,1359,0,0
238,-335,0,0,0,0,0,0,0,0,0,-1,1462,1359,0,0
245,-335,0,0,0,0,0,0,0,0,0,-1,1469,1359,0,0
252,-335,0,0,0,0,0,0,0,0,0,-1,1476,1359,0,0
259,-335,0,0,0,0,0,0,0,0,0,-1,1483,1359,0,0
266,-335,0,0,0,0,0,0,0,0,0,-1,1490,1359,0,0
273,-335,0,0,0,0,0,0,0,0,0,-1,1497,1359,0,0
280,-335,0,0,0,0,0,0,0,0,0,-1,1504,1359,0,0
287,-335,0,0,0,0,0,0,0,0,0,-1,1511,1359,0,0
294,-335,0,0,0,0,0,0,0,0,0,-1,1518,1359,0,0
301,-335,0,0,0,0,0,0,0,0,0,-1,1525,1359,0,0
308,-335,0,0,0,0,0,0,0,0,0,-1,1532,1359,0,0
315,-335,0,0,0,0,0,0,0,0,0,-1,1539,1359,0,0
322,-335,0,0,0,0,0,0,0,0,0,-1,1546,1359,0,0
329,-335,0,0,0,0,0,0,0,0,0,-1,1553,1359,0,0
336,-335,0,0,0,0,0,0,0,0,0,-1,1560,1359,0,0
343,-335,0,0,0,0,0,0,0,0,0,-1,1567,1359,0,0
350,-335,0,0,0,0,0,0,0,0,0,-1,1574,1359,0,0
357,-335,0,0,0,0,0,0,0,0,0,-1,1581,1359,0,0
364,-335,0,0,0,0,0,0,0,0,0,-1,1588,1359,0,0
371,-335,0,0,0,0,0,0,0,0,0,-1,1595,1359,0,0
378,-335,0,0,0,0,0,0,0,0,0,-1,1602,1359,0,0
385,-335,0,0,0,0,0,0,0,0,0,-1,1609,1359,0,0
392,-335,0,0,0,0,0,0,0,0,0,-1,1616,1359,0,0
399,-335,0,0,0,0,0,0,0,0,0,-1,1623,1359,0,0
406,-335,0,0,0,0,0,0,0,0,0,-1,1630,1359,0,0
413,-335,0,0,0,0,0,0,0,0,0,-1,1637,1359,0,0
420,-335,0,0,0,0,0,0,0,0,0,-1,1644,1359,0,0
427,-335,0,0,0,0,0,0,0,0,0,-1,1651,1359,0,0
434,-335,0,0,0,0,0,0,0,0,0,-1,1658,1359,0,0
441,-335,0,0,0,0,0,0,0,0,0,-1,1665,1359,0,0
448,-335,0,0,0,0,0,0,0,0,0,-1,1672,1359,0,0
455,-335,0,0,0,0,0,0,0,0,0,-1,1679,1359,0,0
462,-335,0,0,0,0,0,0,0,0,0,-1,1686,1359,0,0
469,-335,0,0,0,0,0,0,0,0,0,-1,1693,1359,0,0
476,-335,0,0,0,0,0,0,0,0,0,-1,1700,1359,0,0
483,-335,0,0,0,0,0,0,0,0,0,-1,1707,1359,0,0
490,-335,0,0,0,0,0,0,0,0,0,-1,1714,1359,0,0
497,-335,0,0,0,0,0,0,0,0,0,-1,1721,1359,0,0
504,-335,0,0,0,0,0,0,0,0,0,-1,1728,1359,0,0
511,-335,0,0,0,0,0,0,0,0,0,-1,1735,1359,0,0
518,-335,0,0,0,0,0,0,0,0,0,-1,1742,1359,0,0
525,-335,0,0,0,0,0,0,0,0,0,-1,1749,1359,0,0
532,-335,0,0,0,0,0,0,0,0,0,-1,1756,1359,0,0
539,-335,0,0,0,0,0,0,0,0,0,-1,1763,1359,0,0
546,-335,0,0,0,0,0,0,0,0,0,-1,1770,1359,0,0
553,-335,0,0,0,0,0,0,0,0,0,-1,1777,1359,0,0
560,-335,0,0,0,0,0,0,0,0,0,-1,1784,1359,0,0
567,-335,0,0,0,0,0,0,0,0,0,-1,1791,1359,0,0
574,-335,20.5347,1.25708,0,0,0,0,0,0,0,-1,1798,1359,20.5347,-1.25705
581,-335,20.8627,1.09106,0.0438786,0.0339717,0.0446828,0.0838816,-0.00603138,0.730195,0.0580361,0.0476462,1805,1359,20.8627,-1.09107
588,-335,21.2842,0.932007,0.0397228,0.0324806,0.0383018,0.0745743,-0.00237089,0.738268,0.050525,0.045299,1812,1359,21.2841,-0.931964
595,-335,21.6985,0.684937,0,0,0,0,0,0,0,-1,1819,1359,21.6985,-0.68491
602,-335,18.4363,2.41272,0,0,0,0,0,0,0,-1,1826,1359,18.4363,-2.41274
609,-335,20.9849,2.70349,0,0,0,0,0,0,0,-1,1833,1359,20.9848,-2.70344
616,-335,20.4086,3.1228,0,0,0,0,0,0,0,-1,1840,1359,20.4086,-3.12281
623,-335,20.153,3.948,0,0,0,0,0,0,0,-1,1847,1359,20.1529,-3.94804
630,-335,19.8549,4.85107,0,0,0,0,0,0,0,-1,1854,1359,19.8548,-4.85111
637,-335,16.7556,6.72754,0,0,0,0,0,0,0,-1,1861,1359,16.7556,-6.72754
644,-335,16.7498,7.30017,0,0,0,0,0,0,0,-1,1868,1359,16.7498,-7.30018
651,-335,16.6276,7.09082,-0.003241,-0.00365832,0.00716191,0.00371529,-0.0106146,0.770835,0.00858706,0.025103,1875,1359,16.6276,-7.09081
658,-335,16.552,6.91638,-0.00434916,-0.00508391,0.0057459,0.0010411,-0.0104742,0.753473,0.00735442,0.0157521,1882,1359,16.552,-6.91634
665,-335,16.5858,6.67126,-0.00362012,-0.00510564,0.00401656,-0.000278223,-0.00844754,0.693968,0.00554128,0.0145181,1889,1359,16.5858,-6.67123
672,-335,16.5923,6.43091,-0.00236485,-0.00393146,0.00274279,-0.000295712,-0.00600061,0.646307,0.00390557,0.0169541,1896,1359,16.5923,-6.4309
679,-335,16.6035,6.2168,-0.00121068,-0.00241482,0.00189434,0.000174962,-0.00380046,0.631534,0.00259393,0.0144166,1903,1359,16.6035,-6.21685
686,-335,16.594,5.99097,0.000329667,-0.00122048,0.000896258,0.000739506,-0.00163032,0.42889,0.00140007,0.0105123,1910,1359,16.594,-5.99103
693,-335,16.5853,5.74939,0.00315837,4.14294e-05,-0.000382397,0.0032046,-4.79864e-06,-0.120307,0.002138,0.00915125,1917,1359,16.5854,-5.74936
700,-335,16.58,5.53723,0.00769575,0.00175101,-0.000957316,0.00784611,0.00160065,-0.155791,0.00478723,0.0103087,1924,1359,16.58,-5.53727
707,-335,16.5845,5.30859,0.0128276,0.00402459,-0.00101777,0.0129438,0.00390845,-0.113618,0.007666,0.0136064,1931,1359,16.5845,-5.30863
714,-335,16.6046,4.99207,0.0191615,0.0067104,-0.00108138,0.0192547,0.00661718,-0.0859918,0.0112964,0.0225512,1938,1359,16.6046,-4.99209
721,-335,16.432,4.77124,0.0273324,0.010262,-0.000617973,0.0273548,0.0102397,-0.0361384,0.0159587,0.0410106,1945,1359,16.432,-4.77126
728,-335,16.636,4.40442,0.0375138,0.0149891,0.00048876,0.0375244,0.0149785,0.0216852,0.0218111,0.0481746,1952,1359,16.636,-4.40444
735,-335,16.8801,4.177,0,0,0,0,0,0,0,-1,1959,1359,16.8801,-4.17697
742,-335,16.6941,3.34204,0,0,0,0,0,0,0,-1,1966,1359,16.6941,-3.34209
749,-335,16.4022,2.81763,0.0773254,0.037345,0.0109062,0.080107,0.0345634,0.249721,0.0463944,0.0461271,1973,1359,16.4023,-2.81764
756,-335,16.5243,2.35791,0.0918407,0.0477685,0.0180842,0.0983112,0.041298,0.343606,0.0570012,0.0448551,1980,1359,16.5242,-2.35794
763,-335,0,0,0,0,0,0,0,0,0,-1,1987,1359,0,0
770,-335,0,0,0,0,0,0,0,0,0,-1,1994,1359,0,0
777,-335,0,0,0,0,0,0,0,0,0,-1,2001,1359,0,0
784,-335,0,0,0,0,0,0,0,0,0,-1,2008,1359,0,0
791,-335,0,0,0,0,0,0,0,0,0,-1,2015,1359,0,0
798,-335,0,0,0,0,0,0,0,0,0,-1,2022,1359,0,0
805,-335,0,0,0,0,0,0,0,0,0,-1,2029,1359,0,0
812,-335,0,0,0,0,0,0,0,0,0,-1,2036,1359,0,0
-700,-342,0,0,0,0,0,0,0,0,0,-1,524,1366,0,0
-693,-342,0,0,0,0,0,0,0,0,0,-1,531,1366,0,0
-686,-342,0,0,0,0,0,0,0,0,0,-1,538,1366,0,0
-679,-342,0,0,0,0,0,0,0,0,0,-1,545,1366,0,0
-672,-342,0,0,0,0,0,0,0,0,0,-1,552,1366,0,0
-665,-342,0,0,0,0,0,0,0,0,0,-1,559,1366,0,0
-658,-342,0,0,0,0,0,0,0,0,0,-1,566,1366,0,0
-651,-342,0,0,0,0,0,0,0,0,0,-1,573,1366,0,0
-644,-342,0,0,0,0,0,0,0,0,0,-1,580,1366,0,0
-637,-342,-8.67786,-4.58557,0,0,0,0,0,0,0,-1,587,1366,-8.67788,4.5856
-630,-342,-8.60132,2.71777,0,0,0,0,0,0,0,-1,594,1366,-8.60135,-2.71779
-623,-342,-8.41168,0.662476,0,0,0,0,0,0,0,-1,601,1366,-8.41168,-0.662442
-616,-342,-6.625,-1.28015,0,0,0,0,0,0,0,-1,608,1366,-6.62499,1.28011
-609,-342,-6.84503,2.71887,0,0,0,0,0,0,0,-1,615,1366,-6.84506,-2.7189
-602,-342,-6.21393,1.7146,0,0,0,0,0,0,0,-1,622,1366,-6.21392,-1.71461
-595,-342,-6.54407,2.09888,-0.0287577,0.0559821,0.00684271,0.0565311,-0.0293067,1.49074,0.0503825,0.0435475,629,1366,-6.54404,-2.09891
-588,-342,-7.00751,2.53577,-0.0211885,0.0354504,0.00537421,0.0359558,-0.0216939,1.47703,0.0336219,0.0449129,636,1366,-7.00748,-2.53577
-581,-342,-7.60327,2.8844,-0.0150961,0.0197952,0.00368206,0.0201795,-0.0154805,1.46679,0.0206478,0.0381928,643,1366,-7.60325,-2.8844
-574,-342,-7.66455,3.16724,-0.0102442,0.00895735,0.00252674,0.00928428,-0.0105711,1.44212,0.0114715,0.0113047,650,1366,-7.66457,-3.16729
-567,-342,-7.6192,3.42224,-0.00735967,0.00296178,0.00130672,0.00312464,-0.00752253,1.4468,0.00631953,0.0161291,657,1366,-7.61923,-3.42227
-560,-342,-7.65405,3.63281,-0.00585101,0.00225407,0.000291001,0.0022645,-0.00586145,1.53495,0.0048423,0.0244247,664,1366,-7.65405,-3.63277
-553,-342,-7.66785,3.87732,-0.00413793,0.00123271,-0.00032773,0.00125263,-0.00415785,-1.51007,0.00327041,0.0278393,671,1366,-7.66786,-3.87733
-546,-342,-7.61945,4.14429,-0.00340425,0.000280322,-0.00105451,0.000560771,-0.0036847,-1.31086,0.00266314,0.027399,678,1366,-7.61945,-4.14429
-539,-342,-7.60669,4.44714,-0.00351692,-0.00059694,-0.00176384,0.000232764,-0.00434662,-1.13111,0.00297837,0.0233275,685,1366,-7.60668,-4.44709
-532,-342,-7.63068,4.73462,-0.00445656,-0.00137252,-0.002785,0.000268858,-0.00609795,-1.03823,0.00415782,0.0193304,692,1366,-7.63071,-4.73468
-525,-342,-7.57599,5.01025,-0.00734267,-0.00143811,-0.00379062,0.000414271,-0.00919505,-1.11625,0.00627269,0.0122443,699,1366,-7.57596,-5.01025
-518,-342,-7.55847,5.2926,-0.0121759,0.000909741,-0.00400155,0.0020364,-0.0133026,-1.29635,0.0096193,0.0145679,706,1366,-7.55844,-5.29256
-511,-342,-7.59735,5.41138,-0.018086,0.00401256,-0.0040599,0.00473483,-0.0188083,-1.39474,0.0143794,0.0443683,713,1366,-7.59734,-5.41138
-504,-342,-7.52411,5.5033,0,0,0,0,0,0,0,-1,720,1366,-7.5241,-5.5033
-497,-342,-6.69183,5.16785,0,0,0,0,0,0,0,-1,727,1366,-6.69185,-5.16783
-490,-342,-10.7191,5.06116,0,0,0,0,0,0,0,-1,734,1366,-10.719,-5.06113
-483,-342,-10.5609,5.42004,0,0,0,0,0,0,0,-1,741,1366,-10.5609,-5.42006
-476,-342,-11.6371,-0.736328,0,0,0,0,0,0,0,-1,748,1366,-11.6371,0.736281
-469,-342,-12.6245,-0.987549,-0.0621865,0.0450756,0.011679,0.0463326,-0.0634434,1.46359,0.0636353,0.0459205,755,1366,-12.6245,0.987553
-462,-342,-13.0912,-0.533203,-0.072402,0.0561161,0.0171112,0.0583553,-0.0746413,1.44067,0.0769773,0.0458155,762,1366,-13.0912,0.533224
-455,-342,-13.7612,0.122925,-0.0860147,0.0697405,0.0233577,0.0731679,-0.0894421,1.4251,0.0940395,0.0475815,769,1366,-13.7612,-0.122896
-448,-342,-14.5278,0.826904,0,0,0,0,0,0,0,-1,776,1366,-14.5277,-0.826861
-441,-342,0,0,0,0,0,0,0,0,0,-1,783,1366,0,0
-434,-342,0,0,0,0,0,0,0,0,0,-1,790,1366,0,0
-427,-342,0,0,0,0,0,0,0,0,0,-1,797,1366,0,0
-420,-342,0,0,0,0,0,0,0,0,0,-1,804,1366,0,0
-413,-342,0,0,0,0,0,0,0,0,0,-1,811,1366,0,0
-406,-342,0,0,0,0,0,0,0,0,0,-1,818,1366,0,0
-399,-342,0,0,0,0,0,0,0,0,0,-1,825,1366,0,0
-392,-342,0,0,0,0,0,0,0,0,0,-1,832,1366,0,0
-385,-342,0,0,0,0,0,0,0,0,0,-1,839,1366,0,0
-378,-342,0,0,0,0,0,0,0,0,0,-1,846,1366,0,0
-371,-342,0,0,0,0,0,0,0,0,0,-1,853,1366,0,0
-364,-342,0,0,0,0,0,0,0,0,0,-1,860,1366,0,0
-357,-342,0,0,0,0,0,0,0,0,0,-1,867,1366,0,0
-350,-342,0,0,0,0,0,0,0,0,0,-1,874,1366,0,0
-343,-342,0,0,0,0,0,0,0,0,0,-1,881,1366,0,0
-336,-342,0,0,0,0,0,0,0,0,0,-1,888,1366,0,0
-329,-342,0,0,0,0,0,0,0,0,0,-1,895,1366,0,0
-322,-342,0,0,0,0,0,0,0,0,0,-1,902,1366,0,0
-315,-342,0,0,0,0,0,0,0,0,0,-1,909,1366,0,0
-308,-342,0,0,0,0,0,0,0,0,0,-1,916,1366,0,0
-301,-342,0,0,0,0,0,0,0,0,0,-1,923,1366,0,0
-294,-342,0,0,0,0,0,0,0,0,0,-1,930,1366,0,0
-287,-342,0,0,0,0,0,0,0,0,0,-1,937,1366,0,0
-280,-342,0,0,0,0,0,0,0,0,0,-1,944,1366,0,0
-273,-342,0,0,0,0,0,0,0,0,0,-1,951,1366,0,0
-266,-342,0,0,0,0,0,0,0,0,0,-1,958,1366,0,0
-259,-342,0,0,0,0,0,0,0,0,0,-1,965,1366,0,0
-252,-342,0,0,0,0,0,0,0,0,0,-1,972,1366,0,0
-245,-342,0,0,0,0,0,0,0,0,0,-1,979,1366,0,0
-238,-342,0,0,0,0,0,0,0,0,0,-1,986,1366,0,0
-231,-342,0,0,0,0,0,0,0,0,0,-1,993,1366,0,0
-224,-342,0,0,0,0,0,0,0,0,0,-1,1000,1366,0,0
-217,-342,0,0,0,0,0,0,0,0,0,-1,1007,1366,0,0
-210,-342,0,0,0,0,0,0,0,0,0,-1,1014,1366,0,0
-203,-342,0,0,0,0,0,0,0,0,0,-1,1021,1366,0,0
-196,-342,0,0,0,0,0,0,0,0,0,-1,1028,1366,0,0
-189,-342,0,0,0,0,0,0,0,0,0,-1,1035,1366,0,0
-182,-342,0,0,0,0,0,0,0,0,0,-1,1042,1366,0,0
-175,-342,0,0,0,0,0,0,0,0,0,-1,1049,1366,0,0
-168,-342,0,0,0,0,0,0,0,0,0,-1,1056,1366,0,0
-161,-342,0,0,0,0,0,0,0,0,0,-1,1063,1366,0,0
-154,-342,0,0,0,0,0,0,0,0,0,-1,1070,1366,0,0
-147,-342,0,0,0,0,0,0,0,0,0,-1,1077,1366,0,0
-140,-342,0,0,0,0,0,0,0,0,0,-1,1084,1366,0,0
-133,-342,0,0,0,0,0,0,0,0,0,-1,1091,1366,0,0
-126,-342,0,0,0,0,0,0,0,0,0,-1,1098,1366,0,0
-119,-342,0,0,0,0,0,0,0,0,0,-1,1105,1366,0,0
-112,-342,0,0,0,0,0,0,0,0,0,-1,1112,1366,0,0
-105,-342,0,0,0,0,0,0,0,0,0,-1,1119,1366,0,0
-98,-342,0,0,0,0,0,0,0,0,0,-1,1126,1366,0,0
-91,-342,0,0,0,0,0,0,0,0,0,-1,1133,1366,0,0
-84,-342,0,0,0,0,0,0,0,0,0,-1,1140,1366,0,0
-77,-342,0,0,0,0,0,0,0,0,0,-1,1147,1366,0,0
-70,-342,0,0,0,0,0,0,0,0,0,-1,1154,1366,0,0
-63,-342,0,0,0,0,0,0,0,0,0,-1,1161,1366,0,0
-56,-342,0,0,0,0,0,0,0,0,0,-1,1168,1366,0,0
-49,-342,0,0,0,0,0,0,0,0,0,-1,1175,1366,0,0
-42,-342,0,0,0,0,0,0,0,0,0,-1,1182,1366,0,0
-35,-342,0,0,0,0,0,0,0,0,0,-1,1189,1366,0,0
-28,-342,0,0,0,0,0,0,0,0,0,-1,1196,1366,0,0
-21,-342,0,0,0,0,0,0,0,0,0,-1,1203,1366,0,0
-14,-342,0,0,0,0,0,0,0,0,0,-1,1210,1366,0,0
-7,-342,0,0,0,0,0,0,0,0,0,-1,1217,1366,0,0
0,-342,0,0,0,0,0,0,0,0,0,-1,1224,1366,0,0
7,-342,0,0,0,0,0,0,0,0,0,-1,1231,1366,0,0
14,-342,0,0,0,0,0,0,0,0,0,-1,1238,1366,0,0
21,-342,0,0,0,0,0,0,0,0,0,-1,1245,1366,0,0
28,-342,0,0,0,0,0,0,0,0,0,-1,1252,1366,0,0
35,-342,0,0,0,0,0,0,0,0,0,-1,1259,1366,0,0
42,-342,0,0,0,0,0,0,0,0,0,-1,1266,1366,0,0
49,-342,0,0,0,0,0,0,0,0,0,-1,1273,1366,0,0
56,-342,0,0,0,0,0,0,0,0,0,-1,1280,1366,0,0
63,-342,0,0,0,0,0,0,0,0,0,-1,1287,1366,0,0
70,-342,0,0,0,0,0,0,0,0,0,-1,1294,1366,0,0
77,-342,0,0,0,0,0,0,0,0,0,-1,1301,1366,0,0
84,-342,0,0,0,0,0,0,0,0,0,-1,1308,1366,0,0
91,-342,0,0,0,0,0,0,0,0,0,-1,1315,1366,0,0
98,-342,0,0,0,0,0,0,0,0,0,-1,1322,1366,0,0
105,-342,0,0,0,0,0,0,0,0,0,-1,1329,1366,0,0
112,-342,0,0,0,0,0,0,0,0,0,-1,1336,1366,0,0
119,-342,0,0,0,0,0,0,0,0,0,-1,1343,1366,0,0
126,-342,0,0,0,0,0,0,0,0,0,-1,1350,1366,0,0
133,-342,0,0,0,0,0,0,0,0,0,-1,1357,1366,0,0
140,-342,0,0,0,0,0,0,0,0,0,-1,1364,1366,0,0
147,-342,0,0,0,0,0,0,0,0,0,-1,1371,1366,0,0
154,-342,0,0,0,0,0,0,0,0,0,-1,1378,1366,0,0
161,-342,0,0,0,0,0,0,0,0,0,-1,1385,1366,0,0
168,-342,0,0,0,0,0,0,0,0,0,-1,1392,1366,0,0
175,-342,0,0,0,0,0,0,0,0,0,-1,1399,1366,0,0
182,-342,0,0,0,0,0,0,0,0,0,-1,1406,1366,0,0
189,-342,0,0,0,0,0,0,0,0,0,-1,1413,1366,0,0
196,-342,0,0,0,0,0,0,0,0,0,-1,1420,1366,0,0
203,-342,0,0,0,0,0,0,0,0,0,-1,1427,1366,0,0
210,-342,0,0,0,0,0,0,0,0,0,-1,1434,1366,0,0
217,-342,0,0,0,0,0,0,0,0,0,-1,1441,1366,0,0
224,-342,0,0,0,0,0,0,0,0,0,-1,1448,1366,0,0
231,-342,0,0,0,0,0,0,0,0,0,-1,1455,1366,0,0
238,-342,0,0,0,0,0,0,0,0,0,-1,1462,1366,0,0
245,-342,0,0,0,0,0,0,0,0,0,-1,1469,1366,0,0
252,-342,0,0,0,0,0,0,0,0,0,-1,1476,1366,0,0
259,-342,0,0,0,0,0,0,0,0,0,-1,1483,1366,0,0
266,-342,0,0,0,0,0,0,0,0,0,-1,1490,1366,0,0
273,-342,0,0,0,0,0,0,0,0,0,-1,1497,1366,0,0
280,-342,0,0,0,0,0,0,0,0,0,-1,1504,1366,0,0
287,-342,0,0,0,0,0,0,0,0,0,-1,1511,1366,0,0
294,-342,0,0,0,0,0,0,0,0,0,-1,1518,1366,0,0
301,-342,0,0,0,0,0,0,0,0,0,-1,1525,1366,0,0
308,-342,0,0,0,0,0,0,0,0,0,-1,1532,1366,0,0
315,-342,0,0,0,0,0,0,0,0,0,-1,1539,1366,0,0
322,-342,0,0,0,0,0,0,0,0,0,-1,1546,1366,0,0
329,-342,0,0,0,0,0,0,0,0,0,-1,1553,1366,0,0
336,-342,0,0,0,0,0,0,0,0,0,-1,1560,1366,0,0
343,-342,0,0,0,0,0,0,0,0,0,-1,1567,1366,0,0
350,-342,0,0,0,0,0,0,0,0,0,-1,1574,1366,0,0
357,-342,0,0,0,0,0,0,0,0,0,-1,1581,1366,0,0
364,-342,0,0,0,0,0,0,0,0,0,-1,1588,1366,0,0
371,-342,0,0,0,0,0,0,0,0,0,-1,1595,1366,0,0
378,-342,0,0,0,0,0,0,0,0,0,-1,1602,1366,0,0
385,-342,0,0,0,0,0,0,0,0,0,-1,1609,1366,0,0
392,-342,0,0,0,0,0,0,0,0,0,-1,1616,1366,0,0
399,-342,0,0,0,0,0,0,0,0,0,-1,1623,1366,0,0
406,-342,0,0,0,0,0,0,0,0,0,-1,1630,1366,0,0
413,-342,0,0,0,0,0,0,0,0,0,-1,1637,1366,0,0
420,-342,0,0,0,0,0,0,0,0,0,-1,1644,1366,0,0
427,-342,0,0,0,0,0,0,0,0,0,-1,1651,1366,0,0
434,-342,0,0,0,0,0,0,0,0,0,-1,1658,1366,0,0
441,-342,0,0,0,0,0,0,0,0,0,-1,1665,1366,0,0
448,-342,0,0,0,0,0,0,0,0,0,-1,1672,1366,0,0
455,-342,0,0,0,0,0,0,0,0,0,-1,1679,1366,0,0
462,-342,0,0,0,0,0,0,0,0,0,-1,1686,1366,0,0
469,-342,0,0,0,0,0,0,0,0,0,-1,1693,1366,0,0
476,-342,0,0,0,0,0,0,0,0,0,-1,1700,1366,0,0
483,-342,0,0,0,0,0,0,0,0,0,-1,1707,1366,0,0
490,-342,0,0,0,0,0,0,0,0,0,-1,1714,1366,0,0
497,-342,0,0,0,0,0,0,0,0,0,-1,1721,1366,0,0
504,-342,0,0,0,0,0,0,0,0,0,-1,1728,1366,0,0
511,-342,0,0,0,0,0,0,0,0,0,-1,1735,1366,0,0
518,-342,0,0,0,0,0,0,0,0,0,-1,1742,1366,0,0
525,-342,0,0,0,0,0,0,0,0,0,-1,1749,1366,0,0
532,-342,0,0,0,0,0,0,0,0,0,-1,1756,1366,0,0
539,-342,0,0,0,0,0,0,0,0,0,-1,1763,1366,0,0
546,-342,0,0,0,0,0,0,0,0,0,-1,1770,1366,0,0
553,-342,0,0,0,0,0,0,0,0,0,-1,1777,1366,0,0
560,-342,0,0,0,0,0,0,0,0,0,-1,1784,1366,0,0
567,-342,19.0521,6.35071,0,0,0,0,0,0,0,-1,1791,1366,19.0521,-6.35065
574,-342,20.968,-1.98267,0,0,0,0,0,0,0,-1,1798,1366,20.968,1.98261
581,-342,20.4924,0.520996,0,0,0,0,0,0,0,-1,1805,1366,20.4924,-0.521004
588,-342,20.8124,0.507202,0,0,0,0,0,0,0,-1,1812,1366,20.8124,-0.507172
595,-342,16.799,1.90161,0,0,0,0,0,0,0,-1,1819,1366,16.7989,-1.90156
602,-342,20.436,3.20898,0,0,0,0,0,0,0,-1,1826,1366,20.4361,-3.20903
609,-342,20.4921,3.50903,0,0,0,0,0,0,0,-1,1833,1366,20.492,-3.50909
616,-342,19.7004,3.62073,0,0,0,0,0,0,0,-1,1840,1366,19.7005,-3.6207
623,-342,18.9089,3.7323,0,0,0,0,0,0,0,-1,1847,1366,18.9089,-3.73231
630,-342,15.5282,6.36682,0,0,0,0,0,0,0,-1,1854,1366,15.5281,-6.36686
637,-342,16.196,6.76172,0,0,0,0,0,0,0,-1,1861,1366,16.1961,-6.76174
644,-342,16.2871,7.40515,0,0,0,0,0,0,0,-1,1868,1366,16.2871,-7.40514
651,-342,16.3678,7.20227,-0.00154617,-0.00330828,0.00698354,0.00461167,-0.00946612,0.722649,0.00828733,0.0223366,1875,1366,16.3678,-7.20227
658,-342,16.3387,6.93408,-0.00246262,-0.00423804,0.00516161,0.00188706,-0.00858772,0.70024,0.00644689,0.018656,1882,1366,16.3388,-6.93402
665,-342,16.3252,6.68323,-0.00186719,-0.00403365,0.00331184,0.000534064,-0.00643491,0.627343,0.00447859,0.0156196,1889,1366,16.3251,-6.68322
672,-342,16.3555,6.45349,-0.000900628,-0.00306854,0.00208833,0.000368301,-0.00433747,0.546011,0.0030219,0.0127148,1896,1366,16.3555,-6.4535
679,-342,16.3671,6.22913,-1.35756e-05,-0.00193416,0.00132311,0.000660998,-0.00260874,0.471487,0.00199631,0.0129145,1903,1366,16.367,-6.22908
686,-342,16.3557,6.00439,0.0013219,-0.001092,0.000477398,0.00141288,-0.00118298,0.188329,0.00150068,0.0102174,1910,1366,16.3558,-6.0044
693,-342,16.3464,5.75024,0.00390114,-0.000165323,-0.000539283,0.00397144,-0.000235626,-0.129632,0.00272956,0.0106263,1917,1366,16.3464,-5.75029
700,-342,16.3491,5.52747,0.00817734,0.00133195,-0.000837095,0.00827821,0.00123107,-0.119932,0.00515766,0.0128572,1924,1366,16.3492,-5.52748
707,-342,16.354,5.30188,0.0131582,0.00343312,-0.000615459,0.013197,0.00339432,-0.0629508,0.00791308,0.0131779,1931,1366,16.354,-5.30184
714,-342,16.3628,5.07922,0.0194075,0.00579276,-0.000397135,0.0194191,0.00578118,-0.0291364,0.0115134,0.0346408,1938,1366,16.3628,-5.07919
721,-342,16.3431,4.80566,0.0275408,0.00919291,0.000405188,0.0275497,0.00918396,0.0220693,0.0161976,0.0452937,1945,1366,16.3431,-4.80572
728,-342,16.7222,4.37,0,0,0,0,0,0,0,-1,1952,1366,16.7222,-4.36998
735,-342,18.6583,5.3772,0,0,0,0,0,0,0,-1,1959,1366,18.6583,-5.37722
742,-342,17.8635,4.41125,0,0,0,0,0,0,0,-1,1966,1366,17.8635,-4.41127
749,-342,15.611,2.42639,0,0,0,0,0,0,0,-1,1973,1366,15.611,-2.42645
756,-342,0,0,0,0,0,0,0,0,0,-1,1980,1366,0,0
763,-342,0,0,0,0,0,0,0,0,0,-1,1987,1366,0,0
770,-342,0,0,0,0,0,0,0,0,0,-1,1994,1366,0,0
777,-342,0,0,0,0,0,0,0,0,0,-1,2001,1366,0,0
784,-342,0,0,0,0,0,0,0,0,0,-1,2008,1366,0,0
791,-342,0,0,0,0,0,0,0,0,0,-1,2015,1366,0,0
798,-342,0,0,0,0,0,0,0,0,0,-1,2022,1366,0,0
805,-342,0,0,0,0,0,0,0,0,0,-1,2029,1366,0,0
812,-342,0,0,0,0,0,0,0,0,0,-1,2036,1366,0,0
-700,-349,0,0,0,0,0,0,0,0,0,-1,524,1373,0,0
-693,-349,0,0,0,0,0,0,0,0,0,-1,531,1373,0,0
-686,-349,0,0,0,0,0,0,0,0,0,-1,538,1373,0,0
-679,-349,0,0,0,0,0,0,0,0,0,-1,545,1373,0,0
-672,-349,0,0,0,0,0,0,0,0,0,-1,552,1373,0,0
-665,-349,0,0,0,0,0,0,0,0,0,-1,559,1373,0,0
-658,-349,0,0,0,0,0,0,0,0,0,-1,566,1373,0,0
-651,-349,0,0,0,0,0,0,0,0,0,-1,573,1373,0,0
-644,-349,0,0,0,0,0,0,0,0,0,-1,580,1373,0,0
-637,-349,0,0,0,0,0,0,0,0,0,-1,587,1373,0,0
-630,-349,-7.64117,-5.06177,0,0,0,0,0,0,0,-1,594,1373,-7.64118,5.0618
-623,-349,-8.63507,0.51123,0,0,0,0,0,0,0,-1,601,1373,-8.63505,-0.511275
-616,-349,-5.2066,-0.188232,0,0,0,0,0,0,0,-1,608,1373,-5.20659,0.188211
-609,-349,-6.83978,0.513672,0,0,0,0,0,0,0,-1,615,1373,-6.83978,-0.513629
-602,-349,-6.55878,2.51794,0,0,0,0,0,0,0,-1,622,1373,-6.5588,-2.518
-595,-349,-6.00348,1.72754,0,0,0,0,0,0,0,-1,629,1373,-6.00347,-1.72752
-588,-349,-7.03668,3.04089,0,0,0,0,0,0,0,-1,636,1373,-7.03667,-3.04091
-581,-349,-7.14343,3.11353,-0.0193247,0.0199109,0.00371844,0.0202602,-0.019674,1.47714,0.0230568,0.0430576,643,1373,-7.14345,-3.11349
-574,-349,-7.34723,3.14722,-0.0136657,0.00961838,0.00260725,0.00990676,-0.0139541,1.46064,0.013842,0.0212834,650,1373,-7.34724,-3.14718
-567,-349,-7.38147,3.46338,-0.00970719,0.00412579,0.00164087,0.00431777,-0.00989917,1.45433,0.00841636,0.0158479,657,1373,-7.38145,-3.4634
-560,-349,-7.42035,3.73096,-0.00706352,0.00303723,0.000753954,0.0030932,-0.00711948,1.4967,0.00604711,0.0205097,664,1373,-7.42036,-3.73099
-553,-349,-7.39545,3.92065,-0.00481491,0.00185881,0.000129556,0.00186132,-0.00481743,1.55139,0.00397989,0.0276324,671,1373,-7.39543,-3.92065
-546,-349,-7.3418,4.15356,-0.00338643,0.00081978,-0.00049359,0.000876925,-0.00344358,-1.45553,0.00263708,0.0295066,678,1373,-7.34181,-4.1535
-539,-349,-7.34064,4.46899,-0.00266767,-0.000140742,-0.00102775,0.00022448,-0.00303289,-1.22935,0.00210076,0.0220468,685,1373,-7.34066,-4.46896
-532,-349,-7.36743,4.77429,-0.00267871,-0.000994587,-0.0018531,0.000198799,-0.00387209,-0.998654,0.00265015,0.016717,692,1373,-7.36741,-4.7743
-525,-349,-7.34229,5.02966,-0.00448517,-0.001254,-0.00264995,0.000234021,-0.00597319,-1.05915,0.00406238,0.0124163,699,1373,-7.34229,-5.02968
-518,-349,-7.34058,5.32239,-0.00841683,0.000717259,-0.00281206,0.00151357,-0.00921314,-1.29484,0.00670381,0.0127932,706,1373,-7.34059,-5.32241
-511,-349,-7.2019,5.59143,-0.013679,0.00356167,-0.00284808,0.00401998,-0.0141373,-1.41125,0.0110122,0.0376574,713,1373,-7.20192,-5.59142
-504,-349,-7.0481,5.755,0,0,0,0,0,0,0,-1,720,1373,-7.04813,-5.75505
-497,-349,-7.9339,5.58789,0,0,0,0,0,0,0,-1,727,1373,-7.93388,-5.58785
-490,-349,-6.74347,4.78418,0,0,0,0,0,0,0,-1,734,1373,-6.74346,-4.78422
-483,-349,-5.66974,3.7395,0,0,0,0,0,0,0,-1,741,1373,-5.66975,-3.73949
-476,-349,-10.8496,1.15759,0,0,0,0,0,0,0,-1,748,1373,-10.8496,-1.15756
-469,-349,-12.3314,-1.74878,0,0,0,0,0,0,0,-1,755,1373,-12.3314,1.74882
-462,-349,-12.6559,-0.995361,0,0,0,0,0,0,0,-1,762,1373,-12.656,0.995351
-455,-349,-13.2897,-0.234253,-0.0825321,0.0666402,0.0239004,0.0703759,-0.0862678,1.41575,0.0905933,0.049224,769,1373,-13.2897,0.234261
-448,-349,-14.045,0.712891,0,0,0,0,0,0,0,-1,776,1373,-14.045,-0.712838
-441,-349,0,0,0,0,0,0,0,0,0,-1,783,1373,0,0
-434,-349,0,0,0,0,0,0,0,0,0,-1,790,1373,0,0
-427,-349,0,0,0,0,0,0,0,0,0,-1,797,1373,0,0
-420,-349,0,0,0,0,0,0,0,0,0,-1,804,1373,0,0
-413,-349,0,0,0,0,0,0,0,0,0,-1,811,1373,0,0
-406,-349,0,0,0,0,0,0,0,0,0,-1,818,1373,0,0
-399,-349,0,0,0,0,0,0,0,0,0,-1,825,1373,0,0
-392,-349,0,0,0,0,0,0,0,0,0,-1,832,1373,0,0
-385,-349,0,0,0,0,0,0,0,0,0,-1,839,1373,0,0
-378,-349,0,0,0,0,0,0,0,0,0,-1,846,1373,0,0
-371,-349,0,0,0,0,0,0,0,0,0,-1,853,1373,0,0
-364,-349,0,0,0,0,0,0,0,0,0,-1,860,1373,0,0
-357,-349,0,0,0,0,0,0,0,0,0,-1,867,1373,0,0
-350,-349,0,0,0,0,0,0,0,0,0,-1,874,1373,0,0
-343,-349,0,0,0,0,0,0,0,0,0,-1,881,1373,0,0
-336,-349,0,0,0,0,0,0,0,0,0,-1,888,1373,0,0
-329,-349,0,0,0,0,0,0,0,0,0,-1,895,1373,0,0
-322,-349,0,0,0,0,0,0,0,0,0,-1,902,1373,0,0
-315,-349,0,0,0,0,0,0,0,0,0,-1,909,1373,0,0
-308,-349,0,0,0,0,0,0,0,0,0,-1,916,1373,0,0
-301,-349,0,0,0,0,0,0,0,0,0,-1,923,1373,0,0
-294,-349,0,0,0,0,0,0,0,0,0,-1,930,1373,0,0
-287,-349,0,0,0,0,0,0,0,0,0,-1,937,1373,0,0
-280,-349,0,0,0,0,0,0,0,0,0,-1,944,1373,0,0
-273,-349,0,0,0,0,0,0,0,0,0,-1,951,1373,0,0
-266,-349,0,0,0,0,0,0,0,0,0,-1,958,1373,0,0
-259,-349,0,0,0,0,0,0,0,0,0,-1,965,1373,0,0
-252,-349,0,0,0,0,0,0,0,0,0,-1,972,1373,0,0
-245,-349,0,0,0,0,0,0,0,0,0,-1,979,1373,0,0
-238,-349,0,0,0,0,0,0,0,0,0,-1,986,1373,0,0
-231,-349,0,0,0,0,0,0,0,0,0,-1,993,1373,0,0
-224,-349,0,0,0,0,0,0,0,0,0,-1,1000,1373,0,0
-217,-349,0,0,0,0,0,0,0,0,0,-1,1007,1373,0,0
-210,-349,0,0,0,0,0,0,0,0,0,-1,1014,1373,0,0
-203,-349,0,0,0,0,0,0,0,0,0,-1,1021,1373,0,0
-196,-349,0,0,0,0,0,0,0,0,0,-1,1028,1373,0,0
-189,-349,0,0,0,0,0,0,0,0,0,-1,1035,1373,0,0
-182,-349,0,0,0,0,0,0,0,0,0,-1,1042,1373,0,0
-175,-349,0,0,0,0,0,0,0,0,0,-1,1049,1373,0,0
-168,-349,0,0,0,0,0,0,0,0,0,-1,1056,1373,0,0
-161,-349,0,0,0,0,0,0,0,0,0,-1,1063,1373,0,0
-154,-349,0,0,0,0,0,0,0,0,0,-1,1070,1373,0,0
-147,-349,0,0,0,0,0,0,0,0,0,-1,1077,1373,0,0
-140,-349,0,0,0,0,0,0,0,0,0,-1,1084,1373,0,0
-133,-349,0,0,0,0,0,0,0,0,0,-1,1091,1373,0,0
-126,-349,0,0,0,0,0,0,0,0,0,-1,1098,1373,0,0
-119,-349,0,0,0,0,0,0,0,0,0,-1,1105,1373,0,0
-112,-349,0,0,0,0,0,0,0,0,0,-1,1112,1373,0,0
-105,-349,0,0,0,0,0,0,0,0,0,-1,1119,1373,0,0
-98,-349,0,0,0,0,0,0,0,0,0,-1,1126,1373,0,0
-91,-349,0,0,0,0,0,0,0,0,0,-1,1133,1373,0,0
-84,-349,0,0,0,0,0,0,0,0,0,-1,1140,1373,0,0
-77,-349,0,0,0,0,0,0,0,0,0,-1,1147,1373,0,0
-70,-349,0,0,0,0,0,0,0,0,0,-1,1154,1373,0,0
-63,-349,0,0,0,0,0,0,0,0,0,-1,1161,1373,0,0
-56,-349,0,0,0,0,0,0,0,0,0,-1,1168,1373,0,0
-49,-349,0,0,0,0,0,0,0,0,0,-1,1175,1373,0,0
-42,-349,0,0,0,0,0,0,0,0,0,-1,1182,1373,0,0
-35,-349,0,0,0,0,0,0,0,0,0,-1,1189,1373,0,0
-28,-349,0,0,0,0,0,0,0,0,0,-1,1196,1373,0,0
-21,-349,0,0,0,0,0,0,0,0,0,-1,1203,1373,0,0
-14,-349,0,0,0,0,0,0,0,0,0,-1,1210,1373,0,0
-7,-349,0,0,0,0,0,0,0,0,0,-1,1217,1373,0,0
0,-349,0,0,0,0,0,0,0,0,0,-1,1224,1373,0,0
7,-349,0,0,0,0,0,0,0,0,0,-1,1231,1373,0,0
14,-349,0,0,0,0,0,0,0,0,0,-1,1238,1373,0,0
21,-349,0,0,0,0,0,0,0,0,0,-1,1245,1373,0,0
28,-349,0,0,0,0,0,0,0,0,0,-1,1252,1373,0,0
35,-349,0,0,0,0,0,0,0,0,0,-1,1259,1373,0,0
42,-349,0,0,0,0,0,0,0,0,0,-1,1266,1373,0,0
49,-349,0,0,0,0,0,0,0,0,0,-1,1273,1373,0,0
56,-349,0,0,0,0,0,0,0,0,0,-1,1280,1373,0,0
63,-349,0,0,0,0,0,0,0,0,0,-1,1287,1373,0,0
70,-349,0,0,0,0,0,0,0,0,0,-1,1294,1373,0,0
77,-349,0,0,0,0,0,0,0,0,0,-1,1301,1373,0,0
84,-349,0,0,0,0,0,0,0,0,0,-1,1308,1373,0,0
91,-349,0,0,0,0,0,0,0,0,0,-1,1315,1373,0,0
98,-349,0,0,0,0,0,0,0,0,0,-1,1322,1373,0,0
105,-349,0,0,0,0,0,0,0,0,0,-1,1329,1373,0,0
112,-349,0,0,0,0,0,0,0,0,0,-1,1336,1373,0,0
119,-349,0,0,0,0,0,0,0,0,0,-1,1343,1373,0,0
126,-349,0,0,0,0,0,0,0,0,0,-1,1350,1373,0,0
133,-349,0,0,0,0,0,0,0,0,0,-1,1357,1373,0,0
140,-349,0,0,0,0,0,0,0,0,0,-1,1364,1373,0,0
147,-349,0,0,0,0,0,0,0,0,0,-1,1371,1373,0,0
154,-349,0,0,0,0,0,0,0,0,0,-1,1378,1373,0,0
161,-349,0,0,0,0,0,0,0,0,0,-1,1385,1373,0,0
168,-349,0,0,0,0,0,0,0,0,0,-1,1392,1373,0,0
175,-349,0,0,0,0,0,0,0,0,0,-1,1399,1373,0,0
182,-349,0,0,0,0,0,0,0,0,0,-1,1406,1373,0,0
189,-349,0,0,0,0,0,0,0,0,0,-1,1413,1373,0,0
196,-349,0,0,0,0,0,0,0,0,0,-1,1420,1373,0,0
203,-349,0,0,0,0,0,0,0,0,0,-1,1427,1373,0,0
210,-349,0,0,0,0,0,0,0,0,0,-1,1434,1373,0,0
217,-349,0,0,0,0,0,0,0,0,0,-1,1441,1373,0,0
224,-349,0,0,0,0,0,0,0,0,0,-1,1448,1373,0,0
231,-349,0,0,0,0,0,0,0,0,0,-1,1455,1373,0,0
238,-349,0,0,0,0,0,0,0,0,0,-1,1462,1373,0,0
245,-349,0,0,0,0,0,0,0,0,0,-1,1469,1373,0,0
252,-349,0,0,0,0,0,0,0,0,0,-1,1476,1373,0,0
259,-349,0,0,0,0,0,0,0,0,0,-1,1483,1373,0,0
266,-349,0,0,0,0,0,0,0,0,0,-1,1490,1373,0,0
273,-349,0,0,0,0,0,0,0,0,0,-1,1497,1373,0,0
280,-349,0,0,0,0,0,0,0,0,0,-1,1504,1373,0,0
287,-349,0,0,0,0,0,0,0,0,0,-1,1511,1373,0,0
294,-349,0,0,0,0,0,0,0,0,0,-1,1518,1373,0,0
301,-349,0,0,0,0,0,0,0,0,0,-1,1525,1373,0,0
308,-349,0,0,0,0,0,0,0,0,0,-1,1532,1373,0,0
315,-349,0,0,0,0,0,0,0,0,0,-1,1539,1373,0,0
322,-349,0,0,0,0,0,0,0,0,0,-1,1546,1373,0,0
329,-349,0,0,0,0,0,0,0,0,0,-1,1553,1373,0,0
336,-349,0,0,0,0,0,0,0,0,0,-1,1560,1373,0,0
343,-349,0,0,0,0,0,0,0,0,0,-1,1567,1373,0,0
350,-349,0,0,0,0,0,0,0,0,0,-1,1574,1373,0,0
357,-349,0,0,0,0,0,0,0,0,0,-1,1581,1373,0,0
364,-349,0,0,0,0,0,0,0,0,0,-1,1588,1373,0,0
371,-349,0,0,0,0,0,0,0,0,0,-1,1595,1373,0,0
378,-349,0,0,0,0,0,0,0,0,0,-1,1602,1373,0,0
385,-349,0,0,0,0,0,0,0,0,0,-1,1609,1373,0,0
392,-349,0,0,0,0,0,0,0,0,0,-1,1616,1373,0,0
399,-349,0,0,0,0,0,0,0,0,0,-1,1623,1373,0,0
406,-349,0,0,0,0,0,0,0,0,0,-1,1630,1373,0,0
413,-349,0,0,0,0,0,0,0,0,0,-1,1637,1373,0,0
420,-349,0,0,0,0,0,0,0,0,0,-1,1644,1373,0,0
427,-349,0,0,0,0,0,0,0,0,0,-1,1651,1373,0,0
434,-349,0,0,0,0,0,0,0,0,0,-1,1658,1373,0,0
441,-349,0,0,0,0,0,0,0,0,0,-1,1665,1373,0,0
448,-349,0,0,0,0,0,0,0,0,0,-1,1672,1373,0,0
455,-349,0,0,0,0,0,0,0,0,0,-1,1679,1373,0,0
462,-349,0,0,0,0,0,0,0,0,0,-1,1686,1373,0,0
469,-349,0,0,0,0,0,0,0,0,0,-1,1693,1373,0,0
476,-349,0,0,0,0,0,0,0,0,0,-1,1700,1373,0,0
483,-349,0,0,0,0,0,0,0,0,0,-1,1707,1373,0,0
490,-349,0,0,0,0,0,0,0,0,0,-1,1714,1373,0,0
497,-349,0,0,0,0,0,0,0,0,0,-1,1721,1373,0,0
504,-349,0,0,0,0,0,0,0,0,0,-1,1728,1373,0,0
511,-349,0,0,0,0,0,0,0,0,0,-1,1735,1373,0,0
518,-349,0,0,0,0,0,0,0,0,0,-1,1742,1373,0,0
525,-349,0,0,0,0,0,0,0,0,0,-1,1749,1373,0,0
532,-349,0,0,0,0,0,0,0,0,0,-1,1756,1373,0,0
539,-349,0,0,0,0,0,0,0,0,0,-1,1763,1373,0,0
546,-349,0,0,0,0,0,0,0,0,0,-1,1770,1373,0,0
553,-349,0,0,0,0,0,0,0,0,0,-1,1777,1373,0,0
560,-349,20.231,3.6106,0,0,0,0,0,0,0,-1,1784,1373,20.231,-3.61055
567,-349,20.3247,3.48193,0,0,0,0,0,0,0,-1,1791,1373,20.3247,-3.48192
574,-349,18.3553,5.01379,0,0,0,0,0,0,0,-1,1798,1373,18.3553,-5.01381
581,-349,16.1492,6.32056,0,0,0,0,0,0,0,-1,1805,1373,16.1492,-6.32053
588,-349,19.1313,1.23157,0,0,0,0,0,0,0,-1,1812,1373,19.1314,-1.23155
595,-349,19.0753,1.89917,0,0,0,0,0,0,0,-1,1819,1373,19.0754,-1.8992
602,-349,18.9071,2.76489,0,0,0,0,0,0,0,-1,1826,1373,18.907,-2.76491
609,-349,19.9764,3.80725,0,0,0,0,0,0,0,-1,1833,1373,19.9764,-3.8072
616,-349,19.0972,3.85474,0,0,0,0,0,0,0,-1,1840,1373,19.0972,-3.85479
623,-349,18.218,3.90234,0,0,0,0,0,0,0,-1,1847,1373,18.218,-3.90237
630,-349,15.4948,6.47644,0,0,0,0,0,0,0,-1,1854,1373,15.4947,-6.4765
637,-349,16.3606,6.86267,0,0,0,0,0,0,0,-1,1861,1373,16.3606,-6.86267
644,-349,16.1248,7.5802,0,0,0,0,0,0,0,-1,1868,1373,16.1247,-7.58025
651,-349,16.2028,7.15356,-0.000306152,-0.00259871,0.00617059,0.00482372,-0.00772858,0.693563,0.00731148,0.0224114,1875,1373,16.2028,-7.15351
658,-349,16.1013,6.92615,-0.00108061,-0.00318648,0.00432016,0.00231308,-0.00658017,0.665865,0.00532789,0.0238888,1882,1373,16.1013,-6.92621
665,-349,16.089,6.68799,-0.000685526,-0.00300235,0.00268584,0.00108106,-0.00476894,0.581799,0.00359426,0.0183101,1889,1373,16.089,-6.68803
672,-349,16.1205,6.44702,2.66107e-05,-0.00239212,0.00168974,0.000895174,-0.00326069,0.474802,0.00252563,0.0141045,1896,1373,16.1205,-6.44703
679,-349,16.1189,6.22461,0.000726832,-0.00172626,0.00114927,0.00118113,-0.00218056,0.376442,0.00196926,0.0134437,1903,1373,16.1188,-6.22463
686,-349,16.1198,6.00366,0.00192831,-0.00128366,0.000543814,0.00201789,-0.00137324,0.163249,0.00196962,0.0119525,1910,1373,16.1198,-6.00364
693,-349,16.1333,5.76953,0.0042964,-0.000751217,-0.000152627,0.00430101,-0.000755827,-0.0302007,0.00314966,0.0138966,1917,1373,16.1334,-5.76952
700,-349,16.1472,5.56238,0.00828542,0.000439427,-0.000170602,0.00828913,0.000435719,-0.0217301,0.00538673,0.0153901,1924,1373,16.1472,-5.56242
707,-349,16.1692,5.29773,0.0131385,0.00230779,0.000326073,0.0131484,0.00229798,0.0300699,0.00810885,0.0233728,1931,1373,16.1692,-5.29773
714,-349,16.1123,5.09827,0.0193094,0.00443388,0.00088106,0.0193614,0.00438188,0.058954,0.0117232,0.0367088,1938,1373,16.1123,-5.09825
721,-349,16.2819,4.85266,0.027421,0.00770012,0.00206853,0.0276357,0.00748549,0.103391,0.0165045,0.0457566,1945,1373,16.2818,-4.85269
728,-349,16.7209,4.47546,0,0,0,0,0,0,0,-1,1952,1373,16.721,-4.47546
735,-349,18.7469,1.53979,0,0,0,0,0,0,0,-1,1959,1373,18.747,-1.53976
742,-349,17.6019,4.22961,0,0,0,0,0,0,0,-1,1966,1373,17.6019,-4.22967
749,-349,17.5042,5.23792,0,0,0,0,0,0,0,-1,1973,1373,17.5041,-5.23793
756,-349,0,0,0,0,0,0,0,0,0,-1,1980,1373,0,0
763,-349,0,0,0,0,0,0,0,0,0,-1,1987,1373,0,0
770,-349,0,0,0,0,0,0,0,0,0,-1,1994,1373,0,0
777,-349,0,0,0,0,0,0,0,0,0,-1,2001,1373,0,0
784,-349,0,0,0,0,0,0,0,0,0,-1,2008,1373,0,0
791,-349,0,0,0,0,0,0,0,0,0,-1,2015,1373,0,0
798,-349,0,0,0,0,0,0,0,0,0,-1,2022,1373,0,0
805,-349,0,0,0,0,0,0,0,0,0,-1,2029,1373,0,0
812,-349,0,0,0,0,0,0,0,0,0,-1,2036,1373,0,0
-700,-356,0,0,0,0,0,0,0,0,0,-1,524,1380,0,0
-693,-356,0,0,0,0,0,0,0,0,0,-1,531,1380,0,0
-686,-356,0,0,0,0,0,0,0,0,0,-1,538,1380,0,0
-679,-356,0,0,0,0,0,0,0,0,0,-1,545,1380,0,0
-672,-356,0,0,0,0,0,0,0,0,0,-1,552,1380,0,0
-665,-356,0,0,0,0,0,0,0,0,0,-1,559,1380,0,0
-658,-356,0,0,0,0,0,0,0,0,0,-1,566,1380,0,0
-651,-356,0,0,0,0,0,0,0,0,0,-1,573,1380,0,0
-644,-356,0,0,0,0,0,0,0,0,0,-1,580,1380,0,0
-637,-356,0,0,0,0,0,0,0,0,0,-1,587,1380,0,0
-630,-356,-8.23126,-5.01917,0,0,0,0,0,0,0,-1,594,1380,-8.23124,5.0192
-623,-356,-0.263855,-0.675781,0,0,0,0,0,0,0,-1,601,1380,-0.263835,0.675841
-616,-356,-8.26532,-3.43945,0,0,0,0,0,0,0,-1,608,1380,-8.2653,3.43948
-609,-356,-4.88483,0.734497,0,0,0,0,0,0,0,-1,615,1380,-4.88485,-0.734532
-602,-356,-6.26038,2.27795,0,0,0,0,0,0,0,-1,622,1380,-6.26035,-2.27793
-595,-356,-6.33105,0.76062,0,0,0,0,0,0,0,-1,629,1380,-6.33103,-0.760587
-588,-356,-6.41107,1.70959,-0.0318626,0.0350731,0.00458815,0.0353862,-0.0321756,1.50268,0.0390215,0.0457284,636,1380,-6.41106,-1.70964
-581,-356,-6.70013,2.63916,-0.0234492,0.020314,0.00346821,0.0205871,-0.0237224,1.4922,0.0256034,0.0410498,643,1380,-6.70012,-2.63911
-574,-356,-6.94019,3.24011,-0.01689,0.0107126,0.00257606,0.0109509,-0.0171283,1.47853,0.0163418,0.0297919,650,1380,-6.94016,-3.24012
-567,-356,-7.12036,3.42358,-0.0119043,0.00557684,0.00188066,0.00577687,-0.0121044,1.46483,0.010537,0.0157939,657,1380,-7.12038,-3.42359
-560,-356,-7.1109,3.73755,-0.00836165,0.00394189,0.00112042,0.00404309,-0.00846285,1.48072,0.00736908,0.0173723,664,1380,-7.1109,-3.7376
-553,-356,-7.10638,3.96912,-0.00552247,0.0025571,0.000514005,0.00258967,-0.00555504,1.50752,0.00480512,0.0214352,671,1380,-7.10636,-3.96917
-546,-356,-7.08612,4.19299,-0.00333876,0.00136357,4.86876e-05,0.00136408,-0.00333926,1.56044,0.00279415,0.0220506,678,1380,-7.08609,-4.193
-539,-356,-7.0899,4.47278,-0.00172746,0.000284193,-0.000248161,0.000314354,-0.00175762,-1.44985,0.00128937,0.0140927,685,1380,-7.08992,-4.47283
-532,-356,-7.11469,4.75513,-0.00071677,-0.000686488,-0.000777964,7.64822e-05,-0.00147974,-0.795128,0.00101295,0.0137826,692,1380,-7.11467,-4.75507
-525,-356,-7.1109,5.02124,-0.00134225,-0.00113613,-0.00124988,1.49374e-05,-0.00249331,-0.826534,0.00166721,0.0122992,699,1380,-7.11093,-5.02129
-518,-356,-7.09137,5.32544,-0.00430516,0.000451083,-0.00128232,0.000774775,-0.00462885,-1.32353,0.00337395,0.0122718,706,1380,-7.0914,-5.3254
-511,-356,-6.98267,5.63,-0.00897296,0.00298186,-0.00133084,0.00312822,-0.00911932,-1.46126,0.00734771,0.0256815,713,1380,-6.98265,-5.62998
-504,-356,-6.87384,5.9812,0,0,0,0,0,0,0,-1,720,1380,-6.87383,-5.98121
-497,-356,-5.68604,4.96387,0,0,0,0,0,0,0,-1,727,1380,-5.68605,-4.96385
-490,-356,-7.95288,5.5625,0,0,0,0,0,0,0,-1,734,1380,-7.95285,-5.56246
-483,-356,-7.2627,4.07446,0,0,0,0,0,0,0,-1,741,1380,-7.2627,-4.07441
-476,-356,-5.1936,4.16016,0,0,0,0,0,0,0,-1,748,1380,-5.1936,-4.16012
-469,-356,-10.0883,0.536011,0,0,0,0,0,0,0,-1,755,1380,-10.0883,-0.535989
-462,-356,-12.3481,-0.215698,0,0,0,0,0,0,0,-1,762,1380,-12.3481,0.215641
-455,-356,-13.1367,-0.264648,0,0,0,0,0,0,0,-1,769,1380,-13.1367,0.264647
-448,-356,-13.9116,-0.310181,0,0,0,0,0,0,0,-1,776,1380,-13.9115,0.310207
-441,-356,-13.1602,3.05603,0,0,0,0,0,0,0,-1,783,1380,-13.1602,-3.05609
-434,-356,0,0,0,0,0,0,0,0,0,-1,790,1380,0,0
-427,-356,0,0,0,0,0,0,0,0,0,-1,797,1380,0,0
-420,-356,0,0,0,0,0,0,0,0,0,-1,804,1380,0,0
-413,-356,0,0,0,0,0,0,0,0,0,-1,811,1380,0,0
-406,-356,0,0,0,0,0,0,0,0,0,-1,818,1380,0,0
-399,-356,0,0,0,0,0,0,0,0,0,-1,825,1380,0,0
-392,-356,0,0,0,0,0,0,0,0,0,-1,832,1380,0,0
-385,-356,0,0,0,0,0,0,0,0,0,-1,839,1380,0,0
-378,-356,0,0,0,0,0,0,0,0,0,-1,846,1380,0,0
-371,-356,0,0,0,0,0,0,0,0,0,-1,853,1380,0,0
-364,-356,0,0,0,0,0,0,0,0,0,-1,860,1380,0,0
-357,-356,0,0,0,0,0,0,0,0,0,-1,867,1380,0,0
-350,-356,0,0,0,0,0,0,0,0,0,-1,874,1380,0,0
-343,-356,0,0,0,0,0,0,0,0,0,-1,881,1380,0,0
-336,-356,0,0,0,0,0,0,0,0,0,-1,888,1380,0,0
-329,-356,0,0,0,0,0,0,0,0,0,-1,895,1380,0,0
-322,-356,0,0,0,0,0,0,0,0,0,-1,902,1380,0,0
-315,-356,0,0,0,0,0,0,0,0,0,-1,909,1380,0,0
-308,-356,0,0,0,0,0,0,0,0,0,-1,916,1380,0,0
-301,-356,0,0,0,0,0,0,0,0,0,-1,923,1380,0,0
-294,-356,0,0,0,0,0,0,0,0,0,-1,930,1380,0,0
-287,-356,0,0,0,0,0,0,0,0,0,-1,937,1380,0,0
-280,-356,0,0,0,0,0,0,0,0,0,-1,944,1380,0,0
-273,-356,0,0,0,0,0,0,0,0,0,-1,951,1380,0,0
-266,-356,0,0,0,0,0,0,0,0,0,-1,958,1380,0,0
-259,-356,0,0,0,0,0,0,0,0,0,-1,965,1380,0,0
-252,-356,0,0,0,0,0,0,0,0,0,-1,972,1380,0,0
-245,-356,0,0,0,0,0,0,0,0,0,-1,979,1380,0,0
-238,-356,0,0,0,0,0,0,0,0,0,-1,986,1380,0,0
-231,-356,0,0,0,0,0,0,0,0,0,-1,993,1380,0,0
-224,-356,0,0,0,0,0,0,0,0,0,-1,1000,1380,0,0
-217,-356,0,0,0,0,0,0,0,0,0,-1,1007,1380,0,0
-210,-356,0,0,0,0,0,0,0,0,0,-1,1014,1380,0,0
-203,-356,0,0,0,0,0,0,0,0,0,-1,1021,1380,0,0
-196,-356,0,0,0,0,0,0,0,0,0,-1,1028,1380,0,0
-189,-356,0,0,0,0,0,0,0,0,0,-1,1035,1380,0,0
-182,-356,0,0,0,0,0,0,0,0,0,-1,1042,1380,0,0
-175,-356,0,0,0,0,0,0,0,0,0,-1,1049,1380,0,0
-168,-356,0,0,0,0,0,0,0,0,0,-1,1056,1380,0,0
-161,-356,0,0,0,0,0,0,0,0,0,-1,1063,1380,0,0
-154,-356,0,0,0,0,0,0,0,0,0,-1,1070,1380,0,0
-147,-356,0,0,0,0,0,0,0,0,0,-1,1077,1380,0,0
-140,-356,0,0,0,0,0,0,0,0,0,-1,1084,1380,0,0
-133,-356,0,0,0,0,0,0,0,0,0,-1,1091,1380,0,0
-126,-356,0,0,0,0,0,0,0,0,0,-1,1098,1380,0,0
-119,-356,0,0,0,0,0,0,0,0,0,-1,1105,1380,0,0
-112,-356,0,0,0,0,0,0,0,0,0,-1,1112,1380,0,0
-105,-356,0,0,0,0,0,0,0,0,0,-1,1119,1380,0,0
-98,-356,0,0,0,0,0,0,0,0,0,-1,1126,1380,0,0
-91,-356,0,0,0,0,0,0,0,0,0,-1,1133,1380,0,0
-84,-356,0,0,0,0,0,0,0,0,0,-1,1140,1380,0,0
-77,-356,0,0,0,0,0,0,0,0,0,-1,1147,1380,0,0
-70,-356,0,0,0,0,0,0,0,0,0,-1,1154,1380,0,0
-63,-356,0,0,0,0,0,0,0,0,0,-1,1161,1380,0,0
-56,-356,0,0,0,0,0,0,0,0,0,-1,1168,1380,0,0
-49,-356,0,0,0,0,0,0,0,0,0,-1,1175,1380,0,0
-42,-356,0,0,0,0,0,0,0,0,0,-1,1182,1380,0,0
-35,-356,0,0,0,0,0,0,0,0,0,-1,1189,1380,0,0
-28,-356,0,0,0,0,0,0,0,0,0,-1,1196,1380,0,0
-21,-356,0,0,0,0,0,0,0,0,0,-1,1203,1380,0,0
-14,-356,0,0,0,0,0,0,0,0,0,-1,1210,1380,0,0
-7,-356,0,0,0,0,0,0,0,0,0,-1,1217,1380,0,0
0,-356,0,0,0,0,0,0,0,0,0,-1,1224,1380,0,0
7,-356,0,0,0,0,0,0,0,0,0,-1,1231,1380,0,0
14,-356,0,0,0,0,0,0,0,0,0,-1,1238,1380,0,0
21,-356,0,0,0,0,0,0,0,0,0,-1,1245,1380,0,0
28,-356,0,0,0,0,0,0,0,0,0,-1,1252,1380,0,0
35,-356,0,0,0,0,0,0,0,0,0,-1,1259,1380,0,0
42,-356,0,0,0,0,0,0,0,0,0,-1,1266,1380,0,0
49,-356,0,0,0,0,0,0,0,0,0,-1,1273,1380,0,0
56,-356,0,0,0,0,0,0,0,0,0,-1,1280,1380,0,0
63,-356,0,0,0,0,0,0,0,0,0,-1,1287,1380,0,0
70,-356,0,0,0,0,0,0,0,0,0,-1,1294,1380,0,0
77,-356,0,0,0,0,0,0,0,0,0,-1,1301,1380,0,0
84,-356,0,0,0,0,0,0,0,0,0,-1,1308,1380,0,0
91,-356,0,0,0,0,0,0,0,0,0,-1,1315,1380,0,0
98,-356,0,0,0,0,0,0,0,0,0,-1,1322,1380,0,0
105,-356,0,0,0,0,0,0,0,0,0,-1,1329,1380,0,0
112,-356,0,0,0,0,0,0,0,0,0,-1,1336,1380,0,0
119,-356,0,0,0,0,0,0,0,0,0,-1,1343,1380,0,0
126,-356,0,0,0,0,0,0,0,0,0,-1,1350,1380,0,0
133,-356,0,0,0,0,0,0,0,0,0,-1,1357,1380,0,0
140,-356,0,0,0,0,0,0,0,0,0,-1,1364,1380,0,0
147,-356,0,0,0,0,0,0,0,0,0,-1,1371,1380,0,0
154,-356,0,0,0,0,0,0,0,0,0,-1,1378,1380,0,0
161,-356,0,0,0,0,0,0,0,0,0,-1,1385,1380,0,0
168,-356,0,0,0,0,0,0,0,0,0,-1,1392,1380,0,0
175,-356,0,0,0,0,0,0,0,0,0,-1,1399,1380,0,0
182,-356,0,0,0,0,0,0,0,0,0,-1,1406,1380,0,0
189,-356,0,0,0,0,0,0,0,0,0,-1,1413,1380,0,0
196,-356,0,0,0,0,0,0,0,0,0,-1,1420,1380,0,0
203,-356,0,0,0,0,0,0,0,0,0,-1,1427,1380,0,0
210,-356,0,0,0,0,0,0,0,0,0,-1,1434,1380,0,0
217,-356,0,0,0,0,0,0,0,0,0,-1,1441,1380,0,0
224,-356,0,0,0,0,0,0,0,0,0,-1,1448,1380,0,0
231,-356,0,0,0,0,0,0,0,0,0,-1,1455,1380,0,0
238,-356,0,0,0,0,0,0,0,0,0,-1,1462,1380,0,0
245,-356,0,0,0,0,0,0,0,0,0,-1,1469,1380,0,0
252,-356,0,0,0,0,0,0,0,0,0,-1,1476,1380,0,0
259,-356,0,0,0,0,0,0,0,0,0,-1,1483,1380,0,0
266,-356,0,0,0,0,0,0,0,0,0,-1,1490,1380,0,0
273,-356,0,0,0,0,0,0,0,0,0,-1,1497,1380,0,0
280,-356,0,0,0,0,0,0,0,0,0,-1,1504,1380,0,0
287,-356,0,0,0,0,0,0,0,0,0,-1,1511,1380,0,0
294,-356,0,0,0,0,0,0,0,0,0,-1,1518,1380,0,0
301,-356,0,0,0,0,0,0,0,0,0,-1,1525,1380,0,0
308,-356,0,0,0,0,0,0,0,0,0,-1,1532,1380,0,0
315,-356,0,0,0,0,0,0,0,0,0,-1,1539,1380,0,0
322,-356,0,0,0,0,0,0,0,0,0,-1,1546,1380,0,0
329,-356,0,0,0,0,0,0,0,0,0,-1,1553,1380,0,0
336,-356,0,0,0,0,0,0,0,0,0,-1,1560,1380,0,0
343,-356,0,0,0,0,0,0,0,0,0,-1,1567,1380,0,0
350,-356,0,0,0,0,0,0,0,0,0,-1,1574,1380,0,0
357,-356,0,0,0,0,0,0,0,0,0,-1,1581,1380,0,0
364,-356,0,0,0,0,0,0,0,0,0,-1,1588,1380,0,0
371,-356,0,0,0,0,0,0,0,0,0,-1,1595,1380,0,0
378,-356,0,0,0,0,0,0,0,0,0,-1,1602,1380,0,0
385,-356,0,0,0,0,0,0,0,0,0,-1,1609,1380,0,0
392,-356,0,0,0,0,0,0,0,0,0,-1,1616,1380,0,0
399,-356,0,0,0,0,0,0,0,0,0,-1,1623,1380,0,0
406,-356,0,0,0,0,0,0,0,0,0,-1,1630,1380,0,0
413,-356,0,0,0,0,0,0,0,0,0,-1,1637,1380,0,0
420,-356,0,0,0,0,0,0,0,0,0,-1,1644,1380,0,0
427,-356,0,0,0,0,0,0,0,0,0,-1,1651,1380,0,0
434,-356,0,0,0,0,0,0,0,0,0,-1,1658,1380,0,0
441,-356,0,0,0,0,0,0,0,0,0,-1,1665,1380,0,0
448,-356,0,0,0,0,0,0,0,0,0,-1,1672,1380,0,0
455,-356,0,0,0,0,0,0,0,0,0,-1,1679,1380,0,0
462,-356,0,0,0,0,0,0,0,0,0,-1,1686,1380,0,0
469,-356,0,0,0,0,0,0,0,0,0,-1,1693,1380,0,0
476,-356,0,0,0,0,0,0,0,0,0,-1,1700,1380,0,0
483,-356,0,0,0,0,0,0,0,0,0,-1,1707,1380,0,0
490,-356,0,0,0,0,0,0,0,0,0,-1,1714,1380,0,0
497,-356,0,0,0,0,0,0,0,0,0,-1,1721,1380,0,0
504,-356,0,0,0,0,0,0,0,0,0,-1,1728,1380,0,0
511,-356,0,0,0,0,0,0,0,0,0,-1,1735,1380,0,0
518,-356,0,0,0,0,0,0,0,0,0,-1,1742,1380,0,0
525,-356,0,0,0,0,0,0,0,0,0,-1,1749,1380,0,0
532,-356,0,0,0,0,0,0,0,0,0,-1,1756,1380,0,0
539,-356,0,0,0,0,0,0,0,0,0,-1,1763,1380,0,0
546,-356,0,0,0,0,0,0,0,0,0,-1,1770,1380,0,0
553,-356,0,0,0,0,0,0,0,0,0,-1,1777,1380,0,0
560,-356,20.2863,3.19324,0,0,0,0,0,0,0,-1,1784,1380,20.2863,-3.19324
567,-356,20.293,3.20374,0,0,0,0,0,0,0,-1,1791,1380,20.293,-3.20372
574,-356,14.5682,6.27368,0,0,0,0,0,0,0,-1,1798,1380,14.5682,-6.27365
581,-356,15.6521,5.05688,0,0,0,0,0,0,0,-1,1805,1380,15.6521,-5.05694
588,-356,18.3274,0.448364,0,0,0,0,0,0,0,-1,1812,1380,18.3274,-0.448374
595,-356,18.4769,1.26306,0,0,0,0,0,0,0,-1,1819,1380,18.4769,-1.26304
602,-356,17.934,2.41858,0,0,0,0,0,0,0,-1,1826,1380,17.9339,-2.41856
609,-356,17.91,3.41785,0,0,0,0,0,0,0,-1,1833,1380,17.91,-3.41785
616,-356,18.6974,4.07642,0,0,0,0,0,0,0,-1,1840,1380,18.6974,-4.07642
623,-356,15.2988,6.50769,0,0,0,0,0,0,0,-1,1847,1380,15.2988,-6.50772
630,-356,16.337,6.97119,0,0,0,0,0,0,0,-1,1854,1380,16.3371,-6.97118
637,-356,15.9788,7.17236,0.00279906,0.00103531,0.00943833,0.0113966,-0.00756226,0.738816,0.0110203,0.0484039,1861,1380,15.9787,-7.17241
644,-356,15.8647,7.47534,0.000476774,-0.0016164,0.00709312,0.0066001,-0.00773973,0.712152,0.00828781,0.0302044,1868,1380,15.8648,-7.47538
651,-356,15.9304,7.17139,-0.00119255,-0.00319649,0.0054802,0.00337653,-0.00776557,0.69498,0.00659716,0.0147945,1875,1380,15.9305,-7.17139
658,-356,15.8878,6.91187,-0.00107877,-0.00271239,0.00358455,0.00178086,-0.00557201,0.673376,0.00442928,0.0130362,1882,1380,15.8879,-6.91182
665,-356,15.8909,6.67688,-0.000403638,-0.00231829,0.0022513,0.00108542,-0.00380735,0.584364,0.00296698,0.0129645,1889,1380,15.8909,-6.67692
672,-356,15.8903,6.45679,0.000331078,-0.0019709,0.00152096,0.00108747,-0.00272729,0.461494,0.00226927,0.0147296,1896,1380,15.8903,-6.45676
679,-356,15.8754,6.22717,0.00111292,-0.00167988,0.00116211,0.00153323,-0.00210018,0.34704,0.00210625,0.0158789,1903,1380,15.8754,-6.22711
686,-356,15.8689,5.99133,0.00236659,-0.00157051,0.000749919,0.00250459,-0.00170851,0.181988,0.00244687,0.0144642,1910,1380,15.8689,-5.99138
693,-356,15.9078,5.78516,0.00464266,-0.00142363,0.000350528,0.00466285,-0.00144382,0.0575276,0.00368535,0.0129266,1917,1380,15.9078,-5.7851
700,-356,15.9391,5.56702,0.00845309,-0.000617815,0.000561738,0.00848775,-0.00065247,0.0616137,0.00588805,0.0178544,1924,1380,15.9391,-5.567
707,-356,15.9717,5.09009,0.0132407,0.000899785,0.00130478,0.0133771,0.000763341,0.104193,0.00867484,0.0439165,1931,1380,15.9717,-5.09007
714,-356,16.0778,4.61365,0,0,0,0,0,0,0,-1,1938,1380,16.0777,-4.61359
721,-356,16.2283,4.35791,0,0,0,0,0,0,0,-1,1945,1380,16.2282,-4.35787
728,-356,13.2661,3.90723,0,0,0,0,0,0,0,-1,1952,1380,13.2661,-3.90722
735,-356,18.5663,2.40906,0,0,0,0,0,0,0,-1,1959,1380,18.5663,-2.40912
742,-356,17.9935,1.47119,0,0,0,0,0,0,0,-1,1966,1380,17.9935,-1.47116
749,-356,17.4208,0.533203,0,0,0,0,0,0,0,-1,1973,1380,17.4207,-0.533201
756,-356,0,0,0,0,0,0,0,0,0,-1,1980,1380,0,0
763,-356,0,0,0,0,0,0,0,0,0,-1,1987,1380,0,0
770,-356,0,0,0,0,0,0,0,0,0,-1,1994,1380,0,0
777,-356,0,0,0,0,0,0,0,0,0,-1,2001,1380,0,0
784,-356,0,0,0,0,0,0,0,0,0,-1,2008,1380,0,0
791,-356,0,0,0,0,0,0,0,0,0,-1,2015,1380,0,0
798,-356,0,0,0,0,0,0,0,0,0,-1,2022,1380,0,0
805,-356,0,0,0,0,0,0,0,0,0,-1,2029,1380,0,0
812,-356,0,0,0,0,0,0,0,0,0,-1,2036,1380,0,0
-700,-363,0,0,0,0,0,0,0,0,0,-1,524,1387,0,0
-693,-363,0,0,0,0,0,0,0,0,0,-1,531,1387,0,0
-686,-363,0,0,0,0,0,0,0,0,0,-1,538,1387,0,0
-679,-363,0,0,0,0,0,0,0,0,0,-1,545,1387,0,0
-672,-363,0,0,0,0,0,0,0,0,0,-1,552,1387,0,0
-665,-363,0,0,0,0,0,0,0,0,0,-1,559,1387,0,0
-658,-363,0,0,0,0,0,0,0,0,0,-1,566,1387,0,0
-651,-363,0,0,0,0,0,0,0,0,0,-1,573,1387,0,0
-644,-363,0,0,0,0,0,0,0,0,0,-1,580,1387,0,0
-637,-363,0,0,0,0,0,0,0,0,0,-1,587,1387,0,0
-630,-363,0,0,0,0,0,0,0,0,0,-1,594,1387,0,0
-623,-363,-9.67566,-5.91846,0,0,0,0,0,0,0,-1,601,1387,-9.67563,5.91847
-616,-363,-9.02985,-2.98083,0,0,0,0,0,0,0,-1,608,1387,-9.02987,2.98079
-609,-363,-4.90265,0.195679,0,0,0,0,0,0,0,-1,615,1387,-4.90263,-0.195721
-602,-363,-5.97473,0.249878,0,0,0,0,0,0,0,-1,622,1387,-5.97471,-0.249856
-595,-363,-6.04059,1.03687,0,0,0,0,0,0,0,-1,629,1387,-6.04056,-1.03688
-588,-363,-6.15997,1.82556,-0.03227,0.0320737,0.00636427,0.0326972,-0.0328934,1.47315,0.0378688,0.0449131,636,1387,-6.15998,-1.82553
-581,-363,-6.52533,2.72607,-0.0246106,0.0195909,0.00461662,0.0200679,-0.0250877,1.46783,0.0261242,0.0403586,643,1387,-6.52535,-2.72604
-574,-363,-6.67896,3.31934,-0.0184576,0.0114223,0.00330136,0.0117827,-0.018818,1.46206,0.0178223,0.03328,650,1387,-6.67895,-3.31935
-567,-363,-6.83838,3.44617,-0.013566,0.00684988,0.00226063,0.0070972,-0.0138133,1.46183,0.0122785,0.0234842,657,1387,-6.83837,-3.44616
-560,-363,-6.82776,3.69324,-0.00981854,0.00485997,0.00134377,0.00498197,-0.00994054,1.48025,0.00877263,0.0133288,664,1387,-6.82775,-3.6932
-553,-363,-6.83008,3.97205,-0.0066682,0.00321413,0.000687798,0.00326177,-0.00671584,1.50164,0.00587451,0.0132653,671,1387,-6.83008,-3.97206
-546,-363,-6.82263,4.20532,-0.00398194,0.00183632,0.000271783,0.00184899,-0.0039946,1.52422,0.00344877,0.0129109,678,1387,-6.82261,-4.20533
-539,-363,-6.79224,4.4574,-0.00172493,0.00065919,8.55421e-05,0.000662255,-0.00172799,1.53498,0.001425,0.0142356,685,1387,-6.79225,-4.45745
-532,-363,-6.82587,4.75037,9.43322e-05,-0.000394964,-0.000291462,0.000230214,-0.000530845,-0.43625,0.00045068,0.0127499,692,1387,-6.82587,-4.75033
-525,-363,-6.84058,5.0177,0.000676926,-0.000985225,-0.000525975,0.000829383,-0.00113768,-0.282125,0.00114033,0.0103304,699,1387,-6.84056,-5.01769
-518,-363,-6.82867,5.30249,-0.000964667,0.000108494,-0.000466915,0.0002832,-0.00113937,-1.21275,0.000869494,0.00921609,706,1387,-6.82868,-5.30245
-511,-363,-6.79315,5.58948,-0.00451738,0.00217846,-0.000527943,0.00221983,-0.00455875,-1.49259,0.00399052,0.0158194,713,1387,-6.79313,-5.58947
-504,-363,-6.67615,5.88586,-0.010284,0.00552374,0.000343799,0.00553121,-0.0102915,1.54906,0.00927202,0.0436337,720,1387,-6.67617,-5.88583
-497,-363,-6.37311,6.07935,0,0,0,0,0,0,0,-1,727,1387,-6.37309,-6.0793
-490,-363,-5.42413,4.6958,0,0,0,0,0,0,0,-1,734,1387,-5.42412,-4.69583
-483,-363,-6.28375,4.1394,0,0,0,0,0,0,0,-1,741,1387,-6.28374,-4.13944
-476,-363,-5.83807,4.31018,0,0,0,0,0,0,0,-1,748,1387,-5.8381,-4.31013
-469,-363,-10.7125,0.697754,0,0,0,0,0,0,0,-1,755,1387,-10.7125,-0.697811
-462,-363,-9.55951,-0.0830078,0,0,0,0,0,0,0,-1,762,1387,-9.55949,0.0830163
-455,-363,-13.1008,-0.290894,0,0,0,0,0,0,0,-1,769,1387,-13.1008,0.290921
-448,-363,-11.7324,2.46606,0,0,0,0,0,0,0,-1,776,1387,-11.7324,-2.46605
-441,-363,-12.4464,2.5354,0,0,0,0,0,0,0,-1,783,1387,-12.4463,-2.53537
-434,-363,-13.6918,2.14661,0,0,0,0,0,0,0,-1,790,1387,-13.6918,-2.14662
-427,-363,0,0,0,0,0,0,0,0,0,-1,797,1387,0,0
-420,-363,0,0,0,0,0,0,0,0,0,-1,804,1387,0,0
-413,-363,0,0,0,0,0,0,0,0,0,-1,811,1387,0,0
-406,-363,0,0,0,0,0,0,0,0,0,-1,818,1387,0,0
-399,-363,0,0,0,0,0,0,0,0,0,-1,825,1387,0,0
-392,-363,0,0,0,0,0,0,0,0,0,-1,832,1387,0,0
-385,-363,0,0,0,0,0,0,0,0,0,-1,839,1387,0,0
-378,-363,0,0,0,0,0,0,0,0,0,-1,846,1387,0,0
-371,-363,0,0,0,0,0,0,0,0,0,-1,853,1387,0,0
-364,-363,0,0,0,0,0,0,0,0,0,-1,860,1387,0,0
-357,-363,0,0,0,0,0,0,0,0,0,-1,867,1387,0,0
-350,-363,0,0,0,0,0,0,0,0,0,-1,874,1387,0,0
-343,-363,0,0,0,0,0,0,0,0,0,-1,881,1387,0,0
-336,-363,0,0,0,0,0,0,0,0,0,-1,888,1387,0,0
-329,-363,0,0,0,0,0,0,0,0,0,-1,895,1387,0,0
-322,-363,0,0,0,0,0,0,0,0,0,-1,902,1387,0,0
-315,-363,0,0,0,0,0,0,0,0,0,-1,909,1387,0,0
-308,-363,0,0,0,0,0,0,0,0,0,-1,916,1387,0,0
-301,-363,0,0,0,0,0,0,0,0,0,-1,923,1387,0,0
-294,-363,0,0,0,0,0,0,0,0,0,-1,930,1387,0,0
-287,-363,0,0,0,0,0,0,0,0,0,-1,937,1387,0,0
-280,-363,0,0,0,0,0,0,0,0,0,-1,944,1387,0,0
-273,-363,0,0,0,0,0,0,0,0,0,-1,951,1387,0,0
-266,-363,0,0,0,0,0,0,0,0,0,-1,958,1387,0,0
-259,-363,0,0,0,0,0,0,0,0,0,-1,965,1387,0,0
-252,-363,0,0,0,0,0,0,0,0,0,-1,972,1387,0,0
-245,-363,0,0,0,0,0,0,0,0,0,-1,979,1387,0,0
-238,-363,0,0,0,0,0,0,0,0,0,-1,986,1387,0,0
-231,-363,0,0,0,0,0,0,0,0,0,-1,993,1387,0,0
-224,-363,0,0,0,0,0,0,0,0,0,-1,1000,1387,0,0
-217,-363,0,0,0,0,0,0,0,0,0,-1,1007,1387,0,0
-210,-363,0,0,0,0,0,0,0,0,0,-1,1014,1387,0,0
-203,-363,0,0,0,0,0,0,0,0,0,-1,1021,1387,0,0
-196,-363,0,0,0,0,0,0,0,0,0,-1,1028,1387,0,0
-189,-363,0,0,0,0,0,0,0,0,0,-1,1035,1387,0,0
-182,-363,0,0,0,0,0,0,0,0,0,-1,1042,1387,0,0
-175,-363,0,0,0,0,0,0,0,0,0,-1,1049,1387,0,0
-168,-363,0,0,0,0,0,0,0,0,0,-1,1056,1387,0,0
-161,-363,0,0,0,0,0,0,0,0,0,-1,1063,1387,0,0
-154,-363,0,0,0,0,0,0,0,0,0,-1,1070,1387,0,0
-147,-363,0,0,0,0,0,0,0,0,0,-1,1077,1387,0,0
-140,-363,0,0,0,0,0,0,0,0,0,-1,1084,1387,0,0
-133,-363,0,0,0,0,0,0,0,0,0,-1,1091,1387,0,0
-126,-363,0,0,0,0,0,0,0,0,0,-1,1098,1387,0,0
-119,-363,0,0,0,0,0,0,0,0,0,-1,1105,1387,0,0
-112,-363,0,0,0,0,0,0,0,0,0,-1,1112,1387,0,0
-105,-363,0,0,0,0,0,0,0,0,0,-1,1119,1387,0,0
-98,-363,0,0,0,0,0,0,0,0,0,-1,1126,1387,0,0
-91,-363,0,0,0,0,0,0,0,0,0,-1,1133,1387,0,0
-84,-363,0,0,0,0,0,0,0,0,0,-1,1140,1387,0,0
-77,-363,0,0,0,0,0,0,0,0,0,-1,1147,1387,0,0
-70,-363,0,0,0,0,0,0,0,0,0,-1,1154,1387,0,0
-63,-363,0,0,0,0,0,0,0,0,0,-1,1161,1387,0,0
-56,-363,0,0,0,0,0,0,0,0,0,-1,1168,1387,0,0
-49,-363,0,0,0,0,0,0,0,0,0,-1,1175,1387,0,0
-42,-363,0,0,0,0,0,0,0,0,0,-1,1182,1387,0,0
-35,-363,0,0,0,0,0,0,0,0,0,-1,1189,1387,0,0
-28,-363,0,0,0,0,0,0,0,0,0,-1,1196,1387,0,0
-21,-363,0,0,0,0,0,0,0,0,0,-1,1203,1387,0,0
-14,-363,0,0,0,0,0,0,0,0,0,-1,1210,1387,0,0
-7,-363,0,0,0,0,0,0,0,0,0,-1,1217,1387,0,0
0,-363,0,0,0,0,0,0,0,0,0,-1,1224,1387,0,0
7,-363,0,0,0,0,0,0,0,0,0,-1,1231,1387,0,0
14,-363,0,0,0,0,0,0,0,0,0,-1,1238,1387,0,0
21,-363,0,0,0,0,0,0,0,0,0,-1,1245,1387,0,0
28,-363,0,0,0,0,0,0,0,0,0,-1,1252,1387,0,0
35,-363,0,0,0,0,0,0,0,0,0,-1,1259,1387,0,0
42,-363,0,0,0,0,0,0,0,0,0,-1,1266,1387,0,0
49,-363,0,0,0,0,0,0,0,0,0,-1,1273,1387,0,0
56,-363,0,0,0,0,0,0,0,0,0,-1,1280,1387,0,0
63,-363,0,0,0,0,0,0,0,0,0,-1,1287,1387,0,0
70,-363,0,0,0,0,0,0,0,0,0,-1,1294,1387,0,0
77,-363,0,0,0,0,0,0,0,0,0,-1,1301,1387,0,0
84,-363,0,0,0,0,0,0,0,0,0,-1,1308,1387,0,0
91,-363,0,0,0,0,0,0,0,0,0,-1,1315,1387,0,0
98,-363,0,0,0,0,0,0,0,0,0,-1,1322,1387,0,0
105,-363,0,0,0,0,0,0,0,0,0,-1,1329,1387,0,0
112,-363,0,0,0,0,0,0,0,0,0,-1,1336,1387,0,0
119,-363,0,0,0,0,0,0,0,0,0,-1,1343,1387,0,0
126,-363,0,0,0,0,0,0,0,0,0,-1,1350,1387,0,0
133,-363,0,0,0,0,0,0,0,0,0,-1,1357,1387,0,0
140,-363,0,0,0,0,0,0,0,0,0,-1,1364,1387,0,0
147,-363,0,0,0,0,0,0,0,0,0,-1,1371,1387,0,0
154,-363,0,0,0,0,0,0,0,0,0,-1,1378,1387,0,0
161,-363,0,0,0,0,0,0,0,0,0,-1,1385,1387,0,0
168,-363,0,0,0,0,0,0,0,0,0,-1,1392,1387,0,0
175,-363,0,0,0,0,0,0,0,0,0,-1,1399,1387,0,0
182,-363,0,0,0,0,0,0,0,0,0,-1,1406,1387,0,0
189,-363,0,0,0,0,0,0,0,0,0,-1,1413,1387,0,0
196,-363,0,0,0,0,0,0,0,0,0,-1,1420,1387,0,0
203,-363,0,0,0,0,0,0,0,0,0,-1,1427,1387,0,0
210,-363,0,0,0,0,0,0,0,0,0,-1,1434,1387,0,0
217,-363,0,0,0,0,0,0,0,0,0,-1,1441,1387,0,0
224,-363,0,0,0,0,0,0,0,0,0,-1,1448,1387,0,0
231,-363,0,0,0,0,0,0,0,0,0,-1,1455,1387,0,0
238,-363,0,0,0,0,0,0,0,0,0,-1,1462,1387,0,0
245,-363,0,0,0,0,0,0,0,0,0,-1,1469,1387,0,0
252,-363,0,0,0,0,0,0,0,0,0,-1,1476,1387,0,0
259,-363,0,0,0,0,0,0,0,0,0,-1,1483,1387,0,0
266,-363,0,0,0,0,0,0,0,0,0,-1,1490,1387,0,0
273,-363,0,0,0,0,0,0,0,0,0,-1,1497,1387,0,0
280,-363,0,0,0,0,0,0,0,0,0,-1,1504,1387,0,0
287,-363,0,0,0,0,0,0,0,0,0,-1,1511,1387,0,0
294,-363,0,0,0,0,0,0,0,0,0,-1,1518,1387,0,0
301,-363,0,0,0,0,0,0,0,0,0,-1,1525,1387,0,0
308,-363,0,0,0,0,0,0,0,0,0,-1,1532,1387,0,0
315,-363,0,0,0,0,0,0,0,0,0,-1,1539,1387,0,0
322,-363,0,0,0,0,0,0,0,0,0,-1,1546,1387,0,0
329,-363,0,0,0,0,0,0,0,0,0,-1,1553,1387,0,0
336,-363,0,0,0,0,0,0,0,0,0,-1,1560,1387,0,0
343,-363,0,0,0,0,0,0,0,0,0,-1,1567,1387,0,0
350,-363,0,0,0,0,0,0,0,0,0,-1,1574,1387,0,0
357,-363,0,0,0,0,0,0,0,0,0,-1,1581,1387,0,0
364,-363,0,0,0,0,0,0,0,0,0,-1,1588,1387,0,0
371,-363,0,0,0,0,0,0,0,0,0,-1,1595,1387,0,0
378,-363,0,0,0,0,0,0,0,0,0,-1,1602,1387,0,0
385,-363,0,0,0,0,0,0,0,0,0,-1,1609,1387,0,0
392,-363,0,0,0,0,0,0,0,0,0,-1,1616,1387,0,0
399,-363,0,0,0,0,0,0,0,0,0,-1,1623,1387,0,0
406,-363,0,0,0,0,0,0,0,0,0,-1,1630,1387,0,0
413,-363,0,0,0,0,0,0,0,0,0,-1,1637,1387,0,0
420,-363,0,0,0,0,0,0,0,0,0,-1,1644,1387,0,0
427,-363,0,0,0,0,0,0,0,0,0,-1,1651,1387,0,0
434,-363,0,0,0,0,0,0,0,0,0,-1,1658,1387,0,0
441,-363,0,0,0,0,0,0,0,0,0,-1,1665,1387,0,0
448,-363,0,0,0,0,0,0,0,0,0,-1,1672,1387,0,0
455,-363,0,0,0,0,0,0,0,0,0,-1,1679,1387,0,0
462,-363,0,0,0,0,0,0,0,0,0,-1,1686,1387,0,0
469,-363,0,0,0,0,0,0,0,0,0,-1,1693,1387,0,0
476,-363,0,0,0,0,0,0,0,0,0,-1,1700,1387,0,0
483,-363,0,0,0,0,0,0,0,0,0,-1,1707,1387,0,0
490,-363,0,0,0,0,0,0,0,0,0,-1,1714,1387,0,0
497,-363,0,0,0,0,0,0,0,0,0,-1,1721,1387,0,0
504,-363,0,0,0,0,0,0,0,0,0,-1,1728,1387,0,0
511,-363,0,0,0,0,0,0,0,0,0,-1,1735,1387,0,0
518,-363,0,0,0,0,0,0,0,0,0,-1,1742,1387,0,0
525,-363,0,0,0,0,0,0,0,0,0,-1,1749,1387,0,0
532,-363,0,0,0,0,0,0,0,0,0,-1,1756,1387,0,0
539,-363,0,0,0,0,0,0,0,0,0,-1,1763,1387,0,0
546,-363,0,0,0,0,0,0,0,0,0,-1,1770,1387,0,0
553,-363,20.5176,1.28699,0,0,0,0,0,0,0,-1,1777,1387,20.5176,-1.28699
560,-363,20.1282,2.86011,0,0,0,0,0,0,0,-1,1784,1387,20.1282,-2.86016
567,-363,20.1196,3.49683,0,0,0,0,0,0,0,-1,1791,1387,20.1196,-3.49686
574,-363,13.896,5.84314,0,0,0,0,0,0,0,-1,1798,1387,13.896,-5.84314
581,-363,15.1686,4.47595,0,0,0,0,0,0,0,-1,1805,1387,15.1686,-4.47596
588,-363,16.2867,3.32141,0,0,0,0,0,0,0,-1,1812,1387,16.2868,-3.32145
595,-363,17.8364,0.548096,0,0,0,0,0,0,0,-1,1819,1387,17.8364,-0.548141
602,-363,14.0654,6.11243,0,0,0,0,0,0,0,-1,1826,1387,14.0654,-6.11239
609,-363,14.3435,6.41492,0,0,0,0,0,0,0,-1,1833,1387,14.3435,-6.41488
616,-363,15.0624,6.46265,0,0,0,0,0,0,0,-1,1840,1387,15.0624,-6.46262
623,-363,15.1372,6.729,0,0,0,0,0,0,0,-1,1847,1387,15.1372,-6.72902
630,-363,15.4254,7.65881,0,0,0,0,0,0,0,-1,1854,1387,15.4254,-7.65875
637,-363,15.4761,7.52869,0.000768613,-0.0027984,0.00829563,0.0074703,-0.00950008,0.679513,0.00982119,0.0380323,1861,1387,15.4761,-7.52872
644,-363,15.6545,7.41785,-0.000684396,-0.00379755,0.00578783,0.00375252,-0.00823446,0.654037,0.0070801,0.012125,1868,1387,15.6546,-7.41781
651,-363,15.6757,7.13257,-0.00121365,-0.00380686,0.00418014,0.00186636,-0.00688687,0.635012,0.00532356,0.0113851,1875,1387,15.6757,-7.13253
658,-363,15.6741,6.89575,-0.000676506,-0.00272098,0.00270744,0.00119525,-0.00459274,0.604888,0.00352838,0.0116381,1882,1387,15.6741,-6.89578
665,-363,15.6549,6.69849,6.39188e-06,-0.00222026,0.00190961,0.00110352,-0.00331739,0.52148,0.00265695,0.0115378,1889,1387,15.6549,-6.69845
672,-363,15.6705,6.4646,0.000658558,-0.00202061,0.0015169,0.0013427,-0.00270475,0.423697,0.0023805,0.0136146,1896,1387,15.6706,-6.46463
679,-363,15.6458,6.2196,0.00145219,-0.0019787,0.00135663,0.0019238,-0.00245031,0.334564,0.00253149,0.0145788,1903,1387,15.6458,-6.21966
686,-363,15.6385,5.99304,0.00271243,-0.00218483,0.001185,0.0029841,-0.00245649,0.22536,0.00314605,0.0138217,1910,1387,15.6385,-5.99304
693,-363,15.6499,5.7467,0.00476345,-0.00253887,0.00113669,0.0049363,-0.00271172,0.150906,0.00447742,0.0128808,1917,1387,15.6499,-5.74672
700,-363,15.7404,5.50183,0.00791985,-0.00231825,0.00158058,0.00815831,-0.00255671,0.149739,0.00646197,0.0182603,1924,1387,15.7404,-5.50182
707,-363,15.6624,5.14648,0.0123139,-0.00135787,0.00260255,0.0127926,-0.00183653,0.181887,0.00920186,0.0451936,1931,1387,15.6624,-5.14654
714,-363,15.6797,5.12146,0,0,0,0,0,0,0,-1,1938,1387,15.6797,-5.12146
721,-363,14.4045,4.51685,0,0,0,0,0,0,0,-1,1945,1387,14.4045,-4.51685
728,-363,13.8644,4.52063,0,0,0,0,0,0,0,-1,1952,1387,13.8644,-4.52064
735,-363,14.8151,4.4552,0,0,0,0,0,0,0,-1,1959,1387,14.8151,-4.45516
742,-363,18.7352,1.20129,0,0,0,0,0,0,0,-1,1966,1387,18.7353,-1.20129
749,-363,0,0,0,0,0,0,0,0,0,-1,1973,1387,0,0
756,-363,0,0,0,0,0,0,0,0,0,-1,1980,1387,0,0
763,-363,0,0,0,0,0,0,0,0,0,-1,1987,1387,0,0
770,-363,0,0,0,0,0,0,0,0,0,-1,1994,1387,0,0
777,-363,0,0,0,0,0,0,0,0,0,-1,2001,1387,0,0
784,-363,0,0,0,0,0,0,0,0,0,-1,2008,1387,0,0
791,-363,0,0,0,0,0,0,0,0,0,-1,2015,1387,0,0
798,-363,0,0,0,0,0,0,0,0,0,-1,2022,1387,0,0
805,-363,0,0,0,0,0,0,0,0,0,-1,2029,1387,0,0
812,-363,0,0,0,0,0,0,0,0,0,-1,2036,1387,0,0
-700,-370,0,0,0,0,0,0,0,0,0,-1,524,1394,0,0
-693,-370,0,0,0,0,0,0,0,0,0,-1,531,1394,0,0
-686,-370,0,0,0,0,0,0,0,0,0,-1,538,1394,0,0
-679,-370,0,0,0,0,0,0,0,0,0,-1,545,1394,0,0
-672,-370,0,0,0,0,0,0,0,0,0,-1,552,1394,0,0
-665,-370,0,0,0,0,0,0,0,0,0,-1,559,1394,0,0
-658,-370,0,0,0,0,0,0,0,0,0,-1,566,1394,0,0
-651,-370,0,0,0,0,0,0,0,0,0,-1,573,1394,0,0
-644,-370,0,0,0,0,0,0,0,0,0,-1,580,1394,0,0
-637,-370,0,0,0,0,0,0,0,0,0,-1,587,1394,0,0
-630,-370,0,0,0,0,0,0,0,0,0,-1,594,1394,0,0
-623,-370,-10.1758,-7.10486,0,0,0,0,0,0,0,-1,601,1394,-10.1758,7.10483
-616,-370,-8.85925,-1.61475,0,0,0,0,0,0,0,-1,608,1394,-8.85925,1.61476
-609,-370,-5.39325,0.0421143,0,0,0,0,0,0,0,-1,615,1394,-5.39328,-0.0421372
-602,-370,-7.19305,0.585815,0,0,0,0,0,0,0,-1,622,1394,-7.19304,-0.585771
-595,-370,-5.75885,1.39246,0,0,0,0,0,0,0,-1,629,1394,-5.75887,-1.39252
-588,-370,-5.87018,2.19373,0,0,0,0,0,0,0,-1,636,1394,-5.8702,-2.19375
-581,-370,-6.26208,2.82935,-0.0253464,0.0193338,0.00661204,0.0202917,-0.0263043,1.42692,0.0269768,0.0465021,643,1394,-6.26211,-2.82933
-574,-370,-6.4566,3.25293,-0.0198383,0.0123772,0.00423459,0.0129245,-0.0203856,1.44226,0.0193917,0.0385103,650,1394,-6.45659,-3.25294
-567,-370,-6.49255,3.48535,-0.0151591,0.00807829,0.0025485,0.0083545,-0.0154353,1.46283,0.0139364,0.0276529,657,1394,-6.49258,-3.48539
-560,-370,-6.58698,3.67297,-0.0113325,0.00561415,0.00135739,0.00572218,-0.0114406,1.49137,0.0100906,0.0159228,664,1394,-6.58698,-3.67294
-553,-370,-6.58209,3.95996,-0.0080847,0.00367729,0.000561139,0.003704,-0.00811141,1.52323,0.00697804,0.0107788,671,1394,-6.58207,-3.95995
-546,-370,-6.54901,4.2168,-0.00517439,0.00217614,0.0001372,0.0021787,-0.00517695,1.55214,0.0043628,0.0141099,678,1394,-6.54902,-4.21682
-539,-370,-6.50928,4.52026,-0.00252597,0.000993598,4.39442e-05,0.000994147,-0.00252652,1.55831,0.00209586,0.0181713,685,1394,-6.50925,-4.52031
-532,-370,-6.5365,4.76453,-0.000219719,-1.86777e-05,-0.000192738,9.81773e-05,-0.000336574,-1.02576,0.000263283,0.0202024,692,1394,-6.53648,-4.76458
-525,-370,-6.55157,5.01575,0.00134729,-0.000572366,-0.000160911,0.00136069,-0.000585761,-0.0830506,0.00115309,0.0133222,699,1394,-6.5516,-5.0157
-518,-370,-6.55243,5.27332,0.00116214,0.000105979,9.74947e-05,0.00117107,9.70545e-05,0.0912824,0.000750455,0.00960569,706,1394,-6.5524,-5.27329
-511,-370,-6.53278,5.5426,-0.000844923,0.00162711,0.000150045,0.00163618,-0.000853997,1.51039,0.00146116,0.0127673,713,1394,-6.53277,-5.54265
-504,-370,-6.47253,5.86255,-0.00524659,0.004378,0.000947716,0.00447043,-0.00533902,1.47357,0.00567089,0.0258933,720,1394,-6.47255,-5.8626
-497,-370,-6.39392,6.1499,0,0,0,0,0,0,0,-1,727,1394,-6.39393,-6.14993
-490,-370,-5.30695,4.5271,0,0,0,0,0,0,0,-1,734,1394,-5.30698,-4.52704
-483,-370,-6.02997,4.59253,0,0,0,0,0,0,0,-1,741,1394,-6.02994,-4.5925
-476,-370,-6.75293,4.65796,0,0,0,0,0,0,0,-1,748,1394,-6.7529,-4.65795
-469,-370,-10.584,1.14294,0,0,0,0,0,0,0,-1,755,1394,-10.584,-1.14293
-462,-370,-9.54462,0.387207,0,0,0,0,0,0,0,-1,762,1394,-9.5446,-0.387176
-455,-370,-8.50525,-0.36853,0,0,0,0,0,0,0,-1,769,1394,-8.50523,0.368582
-448,-370,-10.9543,2.28833,0,0,0,0,0,0,0,-1,776,1394,-10.9543,-2.28835
-441,-370,-11.8699,1.8313,0,0,0,0,0,0,0,-1,783,1394,-11.8699,-1.83127
-434,-370,-12.7855,1.37415,0,0,0,0,0,0,0,-1,790,1394,-12.7855,-1.37419
-427,-370,0,0,0,0,0,0,0,0,0,-1,797,1394,0,0
-420,-370,0,0,0,0,0,0,0,0,0,-1,804,1394,0,0
-413,-370,0,0,0,0,0,0,0,0,0,-1,811,1394,0,0
-406,-370,0,0,0,0,0,0,0,0,0,-1,818,1394,0,0
-399,-370,0,0,0,0,0,0,0,0,0,-1,825,1394,0,0
-392,-370,0,0,0,0,0,0,0,0,0,-1,832,1394,0,0
-385,-370,0,0,0,0,0,0,0,0,0,-1,839,1394,0,0
-378,-370,0,0,0,0,0,0,0,0,0,-1,846,1394,0,0
-371,-370,0,0,0,0,0,0,0,0,0,-1,853,1394,0,0
-364,-370,0,0,0,0,0,0,0,0,0,-1,860,1394,0,0
-357,-370,0,0,0,0,0,0,0,0,0,-1,867,1394,0,0
-350,-370,0,0,0,0,0,0,0,0,0,-1,874,1394,0,0
-343,-370,0,0,0,0,0,0,0,0,0,-1,881,1394,0,0
-336,-370,0,0,0,0,0,0,0,0,0,-1,888,1394,0,0
-329,-370,0,0,0,0,0,0,0,0,0,-1,895,1394,0,0
-322,-370,0,0,0,0,0,0,0,0,0,-1,902,1394,0,0
-315,-370,0,0,0,0,0,0,0,0,0,-1,909,1394,0,0
-308,-370,0,0,0,0,0,0,0,0,0,-1,916,1394,0,0
-301,-370,0,0,0,0,0,0,0,0,0,-1,923,1394,0,0
-294,-370,0,0,0,0,0,0,0,0,0,-1,930,1394,0,0
-287,-370,0,0,0,0,0,0,0,0,0,-1,937,1394,0,0
-280,-370,0,0,0,0,0,0,0,0,0,-1,944,1394,0,0
-273,-370,0,0,0,0,0,0,0,0,0,-1,951,1394,0,0
-266,-370,0,0,0,0,0,0,0,0,0,-1,958,1394,0,0
-259,-370,0,0,0,0,0,0,0,0,0,-1,965,1394,0,0
-252,-370,0,0,0,0,0,0,0,0,0,-1,972,1394,0,0
-245,-370,0,0,0,0,0,0,0,0,0,-1,979,1394,0,0
-238,-370,0,0,0,0,0,0,0,0,0,-1,986,1394,0,0
-231,-370,0,0,0,0,0,0,0,0,0,-1,993,1394,0,0
-224,-370,0,0,0,0,0,0,0,0,0,-1,1000,1394,0,0
-217,-370,0,0,0,0,0,0,0,0,0,-1,1007,1394,0,0
-210,-370,0,0,0,0,0,0,0,0,0,-1,1014,1394,0,0
-203,-370,0,0,0,0,0,0,0,0,0,-1,1021,1394,0,0
-196,-370,0,0,0,0,0,0,0,0,0,-1,1028,1394,0,0
-189,-370,0,0,0,0,0,0,0,0,0,-1,1035,1394,0,0
-182,-370,0,0,0,0,0,0,0,0,0,-1,1042,1394,0,0
-175,-370,0,0,0,0,0,0,0,0,0,-1,1049,1394,0,0
-168,-370,0,0,0,0,0,0,0,0,0,-1,1056,1394,0,0
-161,-370,0,0,0,0,0,0,0,0,0,-1,1063,1394,0,0
-154,-370,0,0,0,0,0,0,0,0,0,-1,1070,1394,0,0
-147,-370,0,0,0,0,0,0,0,0,0,-1,1077,1394,0,0
-140,-370,0,0,0,0,0,0,0,0,0,-1,1084,1394,0,0
-133,-370,0,0,0,0,0,0,0,0,0,-1,1091,1394,0,0
-126,-370,0,0,0,0,0,0,0,0,0,-1,1098,1394,0,0
-119,-370,0,0,0,0,0,0,0,0,0,-1,1105,1394,0,0
-112,-370,0,0,0,0,0,0,0,0,0,-1,1112,1394,0,0
-105,-370,0,0,0,0,0,0,0,0,0,-1,1119,1394,0,0
-98,-370,0,0,0,0,0,0,0,0,0,-1,1126,1394,0,0
-91,-370,0,0,0,0,0,0,0,0,0,-1,1133,1394,0,0
-84,-370,0,0,0,0,0,0,0,0,0,-1,1140,1394,0,0
-77,-370,0,0,0,0,0,0,0,0,0,-1,1147,1394,0,0
-70,-370,0,0,0,0,0,0,0,0,0,-1,1154,1394,0,0
-63,-370,0,0,0,0,0,0,0,0,0,-1,1161,1394,0,0
-56,-370,0,0,0,0,0,0,0,0,0,-1,1168,1394,0,0
-49,-370,0,0,0,0,0,0,0,0,0,-1,1175,1394,0,0
-42,-370,0,0,0,0,0,0,0,0,0,-1,1182,1394,0,0
-35,-370,0,0,0,0,0,0,0,0,0,-1,1189,1394,0,0
-28,-370,0,0,0,0,0,0,0,0,0,-1,1196,1394,0,0
-21,-370,0,0,0,0,0,0,0,0,0,-1,1203,1394,0,0
-14,-370,0,0,0,0,0,0,0,0,0,-1,1210,1394,0,0
-7,-370,0,0,0,0,0,0,0,0,0,-1,1217,1394,0,0
0,-370,0,0,0,0,0,0,0,0,0,-1,1224,1394,0,0
7,-370,0,0,0,0,0,0,0,0,0,-1,1231,1394,0,0
14,-370,0,0,0,0,0,0,0,0,0,-1,1238,1394,0,0
21,-370,0,0,0,0,0,0,0,0,0,-1,1245,1394,0,0
28,-370,0,0,0,0,0,0,0,0,0,-1,1252,1394,0,0
35,-370,0,0,0,0,0,0,0,0,0,-1,1259,1394,0,0
42,-370,0,0,0,0,0,0,0,0,0,-1,1266,1394,0,0
49,-370,0,0,0,0,0,0,0,0,0,-1,1273,1394,0,0
56,-370,0,0,0,0,0,0,0,0,0,-1,1280,1394,0,0
63,-370,0,0,0,0,0,0,0,0,0,-1,1287,1394,0,0
70,-370,0,0,0,0,0,0,0,0,0,-1,1294,1394,0,0
77,-370,0,0,0,0,0,0,0,0,0,-1,1301,1394,0,0
84,-370,0,0,0,0,0,0,0,0,0,-1,1308,1394,0,0
91,-370,0,0,0,0,0,0,0,0,0,-1,1315,1394,0,0
98,-370,0,0,0,0,0,0,0,0,0,-1,1322,1394,0,0
105,-370,0,0,0,0,0,0,0,0,0,-1,1329,1394,0,0
112,-370,0,0,0,0,0,0,0,0,0,-1,1336,1394,0,0
119,-370,0,0,0,0,0,0,0,0,0,-1,1343,1394,0,0
126,-370,0,0,0,0,0,0,0,0,0,-1,1350,1394,0,0
133,-370,0,0,0,0,0,0,0,0,0,-1,1357,1394,0,0
140,-370,0,0,0,0,0,0,0,0,0,-1,1364,1394,0,0
147,-370,0,0,0,0,0,0,0,0,0,-1,1371,1394,0,0
154,-370,0,0,0,0,0,0,0,0,0,-1,1378,1394,0,0
161,-370,0,0,0,0,0,0,0,0,0,-1,1385,1394,0,0
168,-370,0,0,0,0,0,0,0,0,0,-1,1392,1394,0,0
175,-370,0,0,0,0,0,0,0,0,0,-1,1399,1394,0,0
182,-370,0,0,0,0,0,0,0,0,0,-1,1406,1394,0,0
189,-370,0,0,0,0,0,0,0,0,0,-1,1413,1394,0,0
196,-370,0,0,0,0,0,0,0,0,0,-1,1420,1394,0,0
203,-370,0,0,0,0,0,0,0,0,0,-1,1427,1394,0,0
210,-370,0,0,0,0,0,0,0,0,0,-1,1434,1394,0,0
217,-370,0,0,0,0,0,0,0,0,0,-1,1441,1394,0,0
224,-370,0,0,0,0,0,0,0,0,0,-1,1448,1394,0,0
231,-370,0,0,0,0,0,0,0,0,0,-1,1455,1394,0,0
238,-370,0,0,0,0,0,0,0,0,0,-1,1462,1394,0,0
245,-370,0,0,0,0,0,0,0,0,0,-1,1469,1394,0,0
252,-370,0,0,0,0,0,0,0,0,0,-1,1476,1394,0,0
259,-370,0,0,0,0,0,0,0,0,0,-1,1483,1394,0,0
266,-370,0,0,0,0,0,0,0,0,0,-1,1490,1394,0,0
273,-370,0,0,0,0,0,0,0,0,0,-1,1497,1394,0,0
280,-370,0,0,0,0,0,0,0,0,0,-1,1504,1394,0,0
287,-370,0,0,0,0,0,0,0,0,0,-1,1511,1394,0,0
294,-370,0,0,0,0,0,0,0,0,0,-1,1518,1394,0,0
301,-370,0,0,0,0,0,0,0,0,0,-1,1525,1394,0,0
308,-370,0,0,0,0,0,0,0,0,0,-1,1532,1394,0,0
315,-370,0,0,0,0,0,0,0,0,0,-1,1539,1394,0,0
322,-370,0,0,0,0,0,0,0,0,0,-1,1546,1394,0,0
329,-370,0,0,0,0,0,0,0,0,0,-1,1553,1394,0,0
336,-370,0,0,0,0,0,0,0,0,0,-1,1560,1394,0,0
343,-370,0,0,0,0,0,0,0,0,0,-1,1567,1394,0,0
350,-370,0,0,0,0,0,0,0,0,0,-1,1574,1394,0,0
357,-370,0,0,0,0,0,0,0,0,0,-1,1581,1394,0,0
364,-370,0,0,0,0,0,0,0,0,0,-1,1588,1394,0,0
371,-370,0,0,0,0,0,0,0,0,0,-1,1595,1394,0,0
378,-370,0,0,0,0,0,0,0,0,0,-1,1602,1394,0,0
385,-370,0,0,0,0,0,0,0,0,0,-1,1609,1394,0,0
392,-370,0,0,0,0,0,0,0,0,0,-1,1616,1394,0,0
399,-370,0,0,0,0,0,0,0,0,0,-1,1623,1394,0,0
406,-370,0,0,0,0,0,0,0,0,0,-1,1630,1394,0,0
413,-370,0,0,0,0,0,0,0,0,0,-1,1637,1394,0,0
420,-370,0,0,0,0,0,0,0,0,0,-1,1644,1394,0,0
427,-370,0,0,0,0,0,0,0,0,0,-1,1651,1394,0,0
434,-370,0,0,0,0,0,0,0,0,0,-1,1658,1394,0,0
441,-370,0,0,0,0,0,0,0,0,0,-1,1665,1394,0,0
448,-370,0,0,0,0,0,0,0,0,0,-1,1672,1394,0,0
455,-370,0,0,0,0,0,0,0,0,0,-1,1679,1394,0,0
462,-370,0,0,0,0,0,0,0,0,0,-1,1686,1394,0,0
469,-370,0,0,0,0,0,0,0,0,0,-1,1693,1394,0,0
476,-370,0,0,0,0,0,0,0,0,0,-1,1700,1394,0,0
483,-370,0,0,0,0,0,0,0,0,0,-1,1707,1394,0,0
490,-370,0,0,0,0,0,0,0,0,0,-1,1714,1394,0,0
497,-370,0,0,0,0,0,0,0,0,0,-1,1721,1394,0,0
504,-370,0,0,0,0,0,0,0,0,0,-1,1728,1394,0,0
511,-370,0,0,0,0,0,0,0,0,0,-1,1735,1394,0,0
518,-370,0,0,0,0,0,0,0,0,0,-1,1742,1394,0,0
525,-370,0,0,0,0,0,0,0,0,0,-1,1749,1394,0,0
532,-370,0,0,0,0,0,0,0,0,0,-1,1756,1394,0,0
539,-370,0,0,0,0,0,0,0,0,0,-1,1763,1394,0,0
546,-370,21.7084,0.258667,0,0,0,0,0,0,0,-1,1770,1394,21.7084,-0.258678
553,-370,20.9537,1.46118,0,0,0,0,0,0,0,-1,1777,1394,20.9537,-1.46115
560,-370,20.2441,2.65051,0,0,0,0,0,0,0,-1,1784,1394,20.2442,-2.65048
567,-370,19.6786,3.53052,0,0,0,0,0,0,0,-1,1791,1394,19.6786,-3.53051
574,-370,13.203,4.47705,0,0,0,0,0,0,0,-1,1798,1394,13.203,-4.47703
581,-370,14.5411,3.60901,0,0,0,0,0,0,0,-1,1805,1394,14.5411,-3.60901
588,-370,15.6494,2.86951,0,0,0,0,0,0,0,-1,1812,1394,15.6494,-2.86946
595,-370,14.8816,2.97034,0,0,0,0,0,0,0,-1,1819,1394,14.8816,-2.97028
602,-370,13.8323,4.88599,0,0,0,0,0,0,0,-1,1826,1394,13.8323,-4.88596
609,-370,14.3762,6.26929,0,0,0,0,0,0,0,-1,1833,1394,14.3763,-6.26928
616,-370,14.4376,6.76196,0,0,0,0,0,0,0,-1,1840,1394,14.4377,-6.76201
623,-370,15.6938,7.35352,0,0,0,0,0,0,0,-1,1847,1394,15.6938,-7.35357
630,-370,15.5006,7.64758,-0.000472334,-0.00432299,0.0101041,0.00788822,-0.0126835,0.691252,0.0119842,0.0422935,1854,1394,15.5006,-7.64762
637,-370,15.264,7.67419,-0.00118284,-0.00460991,0.00649591,0.00382173,-0.00961449,0.656442,0.00799411,0.0297271,1861,1394,15.2641,-7.67424
644,-370,15.4176,7.40247,-0.00149414,-0.00426246,0.00429164,0.00163103,-0.00738763,0.629402,0.00554925,0.0118591,1868,1394,15.4176,-7.40244
651,-370,15.4435,7.13733,-0.00107257,-0.00340994,0.00298309,0.000962596,-0.00544511,0.598703,0.00398983,0.0121846,1875,1394,15.4435,-7.1373
658,-370,15.443,6.92737,-0.000274374,-0.00236723,0.00200744,0.000943004,-0.0035846,0.545137,0.00275833,0.0123824,1882,1394,15.443,-6.92738
665,-370,15.4155,6.71301,0.000358415,-0.00204002,0.00170752,0.00124576,-0.00292736,0.479259,0.0024737,0.0127844,1889,1394,15.4156,-6.71299
672,-370,15.4294,6.46912,0.000866712,-0.00207515,0.00167619,0.00162586,-0.0028343,0.425264,0.00260639,0.0140828,1896,1394,15.4295,-6.46914
679,-370,15.4431,6.21387,0.00158664,-0.00234238,0.00180852,0.00229235,-0.00304808,0.37204,0.00309357,0.0132751,1903,1394,15.4431,-6.21392
686,-370,15.4124,5.97839,0.00273184,-0.00295088,0.00199872,0.00336441,-0.00358345,0.306514,0.00401201,0.0127513,1910,1394,15.4124,-5.97843
693,-370,15.3976,5.7251,0.00451385,-0.00386451,0.00244862,0.00517699,-0.00452765,0.264476,0.00560715,0.0113088,1917,1394,15.3976,-5.72513
700,-370,15.4937,5.47705,0.0072644,-0.0043175,0.00330075,0.00813904,-0.00519214,0.259028,0.00775919,0.0188777,1924,1394,15.4936,-5.47703
707,-370,15.384,5.34155,0.0112113,-0.00425449,0.00486094,0.0126122,-0.0056554,0.280594,0.0107987,0.0307304,1931,1394,15.384,-5.34159
714,-370,15.8616,5.0929,0.0164963,-0.00403145,0.00677668,0.0185316,-0.00606678,0.291772,0.0147972,0.0452914,1938,1394,15.8616,-5.09287
721,-370,16.4565,4.82263,0,0,0,0,0,0,0,-1,1945,1394,16.4566,-4.82268
728,-370,14.614,4.88318,0,0,0,0,0,0,0,-1,1952,1394,14.6141,-4.88324
735,-370,15.9586,5.35278,0,0,0,0,0,0,0,-1,1959,1394,15.9586,-5.35274
742,-370,12.6914,4.10376,0,0,0,0,0,0,0,-1,1966,1394,12.6914,-4.10374
749,-370,0,0,0,0,0,0,0,0,0,-1,1973,1394,0,0
756,-370,0,0,0,0,0,0,0,0,0,-1,1980,1394,0,0
763,-370,0,0,0,0,0,0,0,0,0,-1,1987,1394,0,0
770,-370,0,0,0,0,0,0,0,0,0,-1,1994,1394,0,0
777,-370,0,0,0,0,0,0,0,0,0,-1,2001,1394,0,0
784,-370,0,0,0,0,0,0,0,0,0,-1,2008,1394,0,0
791,-370,0,0,0,0,0,0,0,0,0,-1,2015,1394,0,0
798,-370,0,0,0,0,0,0,0,0,0,-1,2022,1394,0,0
805,-370,0,0,0,0,0,0,0,0,0,-1,2029,1394,0,0
812,-370,0,0,0,0,0,0,0,0,0,-1,2036,1394,0,0
-700,-377,0,0,0,0,0,0,0,0,0,-1,524,1401,0,0
-693,-377,0,0,0,0,0,0,0,0,0,-1,531,1401,0,0
-686,-377,0,0,0,0,0,0,0,0,0,-1,538,1401,0,0
-679,-377,0,0,0,0,0,0,0,0,0,-1,545,1401,0,0
-672,-377,0,0,0,0,0,0,0,0,0,-1,552,1401,0,0
-665,-377,0,0,0,0,0,0,0,0,0,-1,559,1401,0,0
-658,-377,0,0,0,0,0,0,0,0,0,-1,566,1401,0,0
-651,-377,0,0,0,0,0,0,0,0,0,-1,573,1401,0,0
-644,-377,0,0,0,0,0,0,0,0,0,-1,580,1401,0,0
-637,-377,0,0,0,0,0,0,0,0,0,-1,587,1401,0,0
-630,-377,0,0,0,0,0,0,0,0,0,-1,594,1401,0,0
-623,-377,0,0,0,0,0,0,0,0,0,-1,601,1401,0,0
-616,-377,-9.43915,-2.4906,0,0,0,0,0,0,0,-1,608,1401,-9.43915,2.49062
-609,-377,-7.2821,-1.35278,0,0,0,0,0,0,0,-1,615,1401,-7.28208,1.35279
-602,-377,-5.72253,0.430298,0,0,0,0,0,0,0,-1,622,1401,-5.72251,-0.430334
-595,-377,-6.73059,1.52393,0,0,0,0,0,0,0,-1,629,1401,-6.73059,-1.52392
-588,-377,-5.74945,2.85767,0,0,0,0,0,0,0,-1,636,1401,-5.74945,-2.85762
-581,-377,-5.93353,2.83655,0,0,0,0,0,0,0,-1,643,1401,-5.93353,-2.8365
-574,-377,-6.03979,3.19348,-0.0213597,0.0140607,0.00523869,0.0148192,-0.0221182,1.427,0.0214642,0.0443478,650,1401,-6.03981,-3.19354
-567,-377,-6.16797,3.49719,-0.0168519,0.00972533,0.00287971,0.0100338,-0.0171604,1.46409,0.0158792,0.0301917,657,1401,-6.168,-3.49717
-560,-377,-6.34875,3.71729,-0.0129311,0.00666258,0.0014194,0.00676487,-0.0130334,1.49886,0.01162,0.0231572,664,1401,-6.34876,-3.71727
-553,-377,-6.29968,3.94983,-0.00957962,0.00434784,0.000474582,0.00436399,-0.00959577,1.53677,0.00824619,0.0126963,671,1401,-6.29968,-3.94983
-546,-377,-6.2948,4.27112,-0.00654471,0.0026315,-8.07244e-06,0.00263151,-0.00654472,-1.56992,0.00545612,0.0154884,678,1401,-6.29483,-4.27111
-539,-377,-6.27808,4.50635,-0.00376034,0.00134885,-0.000104476,0.00135098,-0.00376247,-1.55036,0.00305973,0.0199546,685,1401,-6.27806,-4.50631
-532,-377,-6.28326,4.72852,-0.0013203,0.000235409,-0.00034033,0.000306602,-0.00139149,-1.36458,0.00104497,0.0200231,692,1401,-6.28329,-4.72854
-525,-377,-6.23218,5.03748,0.000693197,-0.000390989,-0.000207571,0.000731578,-0.00042937,-0.182842,0.000677802,0.0175675,699,1401,-6.23218,-5.03751
-518,-377,-6.26971,5.28894,0.00146961,-0.00021562,0.000132629,0.00147998,-0.000225995,0.0780607,0.00106997,0.0115395,706,1401,-6.26973,-5.28889
-511,-377,-6.27667,5.56311,0.000769589,0.000535568,0.000234855,0.000914968,0.000390188,0.554285,0.000530159,0.01097,713,1401,-6.27667,-5.56305
-504,-377,-6.28632,5.85217,-0.00197355,0.00236677,0.000889691,0.00254206,-0.00214884,1.37626,0.00271146,0.0114122,720,1401,-6.28634,-5.85221
-497,-377,-6.06873,6.15186,-0.00567739,0.00450252,0.00127355,0.00465943,-0.0058343,1.44821,0.0060712,0.0253755,727,1401,-6.06873,-6.15191
-490,-377,-5.93921,6.53735,0,0,0,0,0,0,0,-1,734,1401,-5.93918,-6.53731
-483,-377,-5.6524,5.07324,0,0,0,0,0,0,0,-1,741,1401,-5.6524,-5.07325
-476,-377,-6.11682,5.10535,0,0,0,0,0,0,0,-1,748,1401,-6.11681,-5.10537
-469,-377,-10.3211,1.9281,0,0,0,0,0,0,0,-1,755,1401,-10.3211,-1.92808
-462,-377,-9.2204,1.0022,0,0,0,0,0,0,0,-1,762,1401,-9.22039,-1.00218
-455,-377,-8.11969,0.0762939,0,0,0,0,0,0,0,-1,769,1401,-8.11968,-0.0762759
-448,-377,-9.05334,0.877319,0,0,0,0,0,0,0,-1,776,1401,-9.05332,-0.877324
-441,-377,-11.212,0.763428,0,0,0,0,0,0,0,-1,783,1401,-11.212,-0.763415
-434,-377,-11.0984,0.996216,0,0,0,0,0,0,0,-1,790,1401,-11.0984,-0.996265
-427,-377,-11.1733,1.25732,0,0,0,0,0,0,0,-1,797,1401,-11.1733,-1.25732
-420,-377,0,0,0,0,0,0,0,0,0,-1,804,1401,0,0
-413,-377,0,0,0,0,0,0,0,0,0,-1,811,1401,0,0
-406,-377,0,0,0,0,0,0,0,0,0,-1,818,1401,0,0
-399,-377,0,0,0,0,0,0,0,0,0,-1,825,1401,0,0
-392,-377,0,0,0,0,0,0,0,0,0,-1,832,1401,0,0
-385,-377,0,0,0,0,0,0,0,0,0,-1,839,1401,0,0
-378,-377,0,0,0,0,0,0,0,0,0,-1,846,1401,0,0
-371,-377,0,0,0,0,0,0,0,0,0,-1,853,1401,0,0
-364,-377,0,0,0,0,0,0,0,0,0,-1,860,1401,0,0
-357,-377,0,0,0,0,0,0,0,0,0,-1,867,1401,0,0
-350,-377,0,0,0,0,0,0,0,0,0,-1,874,1401,0,0
-343,-377,0,0,0,0,0,0,0,0,0,-1,881,1401,0,0
-336,-377,0,0,0,0,0,0,0,0,0,-1,888,1401,0,0
-329,-377,0,0,0,0,0,0,0,0,0,-1,895,1401,0,0
-322,-377,0,0,0,0,0,0,0,0,0,-1,902,1401,0,0
-315,-377,0,0,0,0,0,0,0,0,0,-1,909,1401,0,0
-308,-377,0,0,0,0,0,0,0,0,0,-1,916,1401,0,0
-301,-377,0,0,0,0,0,0,0,0,0,-1,923,1401,0,0
-294,-377,0,0,0,0,0,0,0,0,0,-1,930,1401,0,0
-287,-377,0,0,0,0,0,0,0,0,0,-1,937,1401,0,0
-280,-377,0,0,0,0,0,0,0,0,0,-1,944,1401,0,0
-273,-377,0,0,0,0,0,0,0,0,0,-1,951,1401,0,0
-266,-377,0,0,0,0,0,0,0,0,0,-1,958,1401,0,0
-259,-377,0,0,0,0,0,0,0,0,0,-1,965,1401,0,0
-252,-377,0,0,0,0,0,0,0,0,0,-1,972,1401,0,0
-245,-377,0,0,0,0,0,0,0,0,0,-1,979,1401,0,0
-238,-377,0,0,0,0,0,0,0,0,0,-1,986,1401,0,0
-231,-377,0,0,0,0,0,0,0,0,0,-1,993,1401,0,0
-224,-377,0,0,0,0,0,0,0,0,0,-1,1000,1401,0,0
-217,-377,0,0,0,0,0,0,0,0,0,-1,1007,1401,0,0
-210,-377,0,0,0,0,0,0,0,0,0,-1,1014,1401,0,0
-203,-377,0,0,0,0,0,0,0,0,0,-1,1021,1401,0,0
-196,-377,0,0,0,0,0,0,0,0,0,-1,1028,1401,0,0
-189,-377,0,0,0,0,0,0,0,0,0,-1,1035,1401,0,0
-182,-377,0,0,0,0,0,0,0,0,0,-1,1042,1401,0,0
-175,-377,0,0,0,0,0,0,0,0,0,-1,1049,1401,0,0
-168,-377,0,0,0,0,0,0,0,0,0,-1,1056,1401,0,0
-161,-377,0,0,0,0,0,0,0,0,0,-1,1063,1401,0,0
-154,-377,0,0,0,0,0,0,0,0,0,-1,1070,1401,0,0
-147,-377,0,0,0,0,0,0,0,0,0,-1,1077,1401,0,0
-140,-377,0,0,0,0,0,0,0,0,0,-1,1084,1401,0,0
-133,-377,0,0,0,0,0,0,0,0,0,-1,1091,1401,0,0
-126,-377,0,0,0,0,0,0,0,0,0,-1,1098,1401,0,0
-119,-377,0,0,0,0,0,0,0,0,0,-1,1105,1401,0,0
-112,-377,0,0,0,0,0,0,0,0,0,-1,1112,1401,0,0
-105,-377,0,0,0,0,0,0,0,0,0,-1,1119,1401,0,0
-98,-377,0,0,0,0,0,0,0,0,0,-1,1126,1401,0,0
-91,-377,0,0,0,0,0,0,0,0,0,-1,1133,1401,0,0
-84,-377,0,0,0,0,0,0,0,0,0,-1,1140,1401,0,0
-77,-377,0,0,0,0,0,0,0,0,0,-1,1147,1401,0,0
-70,-377,0,0,0,0,0,0,0,0,0,-1,1154,1401,0,0
-63,-377,0,0,0,0,0,0,0,0,0,-1,1161,1401,0,0
-56,-377,0,0,0,0,0,0,0,0,0,-1,1168,1401,0,0
-49,-377,0,0,0,0,0,0,0,0,0,-1,1175,1401,0,0
-42,-377,0,0,0,0,0,0,0,0,0,-1,1182,1401,0,0
-35,-377,0,0,0,0,0,0,0,0,0,-1,1189,1401,0,0
-28,-377,0,0,0,0,0,0,0,0,0,-1,1196,1401,0,0
-21,-377,0,0,0,0,0,0,0,0,0,-1,1203,1401,0,0
-14,-377,0,0,0,0,0,0,0,0,0,-1,1210,1401,0,0
-7,-377,0,0,0,0,0,0,0,0,0,-1,1217,1401,0,0
0,-377,0,0,0,0,0,0,0,0,0,-1,1224,1401,0,0
7,-377,0,0,0,0,0,0,0,0,0,-1,1231,1401,0,0
14,-377,0,0,0,0,0,0,0,0,0,-1,1238,1401,0,0
21,-377,0,0,0,0,0,0,0,0,0,-1,1245,1401,0,0
28,-377,0,0,0,0,0,0,0,0,0,-1,1252,1401,0,0
35,-377,0,0,0,0,0,0,0,0,0,-1,1259,1401,0,0
42,-377,0,0,0,0,0,0,0,0,0,-1,1266,1401,0,0
49,-377,0,0,0,0,0,0,0,0,0,-1,1273,1401,0,0
56,-377,0,0,0,0,0,0,0,0,0,-1,1280,1401,0,0
63,-377,0,0,0,0,0,0,0,0,0,-1,1287,1401,0,0
70,-377,0,0,0,0,0,0,0,0,0,-1,1294,1401,0,0
77,-377,0,0,0,0,0,0,0,0,0,-1,1301,1401,0,0
84,-377,0,0,0,0,0,0,0,0,0,-1,1308,1401,0,0
91,-377,0,0,0,0,0,0,0,0,0,-1,1315,1401,0,0
98,-377,0,0,0,0,0,0,0,0,0,-1,1322,1401,0,0
105,-377,0,0,0,0,0,0,0,0,0,-1,1329,1401,0,0
112,-377,0,0,0,0,0,0,0,0,0,-1,1336,1401,0,0
119,-377,0,0,0,0,0,0,0,0,0,-1,1343,1401,0,0
126,-377,0,0,0,0,0,0,0,0,0,-1,1350,1401,0,0
133,-377,0,0,0,0,0,0,0,0,0,-1,1357,1401,0,0
140,-377,0,0,0,0,0,0,0,0,0,-1,1364,1401,0,0
147,-377,0,0,0,0,0,0,0,0,0,-1,1371,1401,0,0
154,-377,0,0,0,0,0,0,0,0,0,-1,1378,1401,0,0
161,-377,0,0,0,0,0,0,0,0,0,-1,1385,1401,0,0
168,-377,0,0,0,0,0,0,0,0,0,-1,1392,1401,0,0
175,-377,0,0,0,0,0,0,0,0,0,-1,1399,1401,0,0
182,-377,0,0,0,0,0,0,0,0,0,-1,1406,1401,0,0
189,-377,0,0,0,0,0,0,0,0,0,-1,1413,1401,0,0
196,-377,0,0,0,0,0,0,0,0,0,-1,1420,1401,0,0
203,-377,0,0,0,0,0,0,0,0,0,-1,1427,1401,0,0
210,-377,0,0,0,0,0,0,0,0,0,-1,1434,1401,0,0
217,-377,0,0,0,0,0,0,0,0,0,-1,1441,1401,0,0
224,-377,0,0,0,0,0,0,0,0,0,-1,1448,1401,0,0
231,-377,0,0,0,0,0,0,0,0,0,-1,1455,1401,0,0
238,-377,0,0,0,0,0,0,0,0,0,-1,1462,1401,0,0
245,-377,0,0,0,0,0,0,0,0,0,-1,1469,1401,0,0
252,-377,0,0,0,0,0,0,0,0,0,-1,1476,1401,0,0
259,-377,0,0,0,0,0,0,0,0,0,-1,1483,1401,0,0
266,-377,0,0,0,0,0,0,0,0,0,-1,1490,1401,0,0
273,-377,0,0,0,0,0,0,0,0,0,-1,1497,1401,0,0
280,-377,0,0,0,0,0,0,0,0,0,-1,1504,1401,0,0
287,-377,0,0,0,0,0,0,0,0,0,-1,1511,1401,0,0
294,-377,0,0,0,0,0,0,0,0,0,-1,1518,1401,0,0
301,-377,0,0,0,0,0,0,0,0,0,-1,1525,1401,0,0
308,-377,0,0,0,0,0,0,0,0,0,-1,1532,1401,0,0
315,-377,0,0,0,0,0,0,0,0,0,-1,1539,1401,0,0
322,-377,0,0,0,0,0,0,0,0,0,-1,1546,1401,0,0
329,-377,0,0,0,0,0,0,0,0,0,-1,1553,1401,0,0
336,-377,0,0,0,0,0,0,0,0,0,-1,1560,1401,0,0
343,-377,0,0,0,0,0,0,0,0,0,-1,1567,1401,0,0
350,-377,0,0,0,0,0,0,0,0,0,-1,1574,1401,0,0
357,-377,0,0,0,0,0,0,0,0,0,-1,1581,1401,0,0
364,-377,0,0,0,0,0,0,0,0,0,-1,1588,1401,0,0
371,-377,0,0,0,0,0,0,0,0,0,-1,1595,1401,0,0
378,-377,0,0,0,0,0,0,0,0,0,-1,1602,1401,0,0
385,-377,0,0,0,0,0,0,0,0,0,-1,1609,1401,0,0
392,-377,0,0,0,0,0,0,0,0,0,-1,1616,1401,0,0
399,-377,0,0,0,0,0,0,0,0,0,-1,1623,1401,0,0
406,-377,0,0,0,0,0,0,0,0,0,-1,1630,1401,0,0
413,-377,0,0,0,0,0,0,0,0,0,-1,1637,1401,0,0
420,-377,0,0,0,0,0,0,0,0,0,-1,1644,1401,0,0
427,-377,0,0,0,0,0,0,0,0,0,-1,1651,1401,0,0
434,-377,0,0,0,0,0,0,0,0,0,-1,1658,1401,0,0
441,-377,0,0,0,0,0,0,0,0,0,-1,1665,1401,0,0
448,-377,0,0,0,0,0,0,0,0,0,-1,1672,1401,0,0
455,-377,0,0,0,0,0,0,0,0,0,-1,1679,1401,0,0
462,-377,0,0,0,0,0,0,0,0,0,-1,1686,1401,0,0
469,-377,0,0,0,0,0,0,0,0,0,-1,1693,1401,0,0
476,-377,0,0,0,0,0,0,0,0,0,-1,1700,1401,0,0
483,-377,0,0,0,0,0,0,0,0,0,-1,1707,1401,0,0
490,-377,0,0,0,0,0,0,0,0,0,-1,1714,1401,0,0
497,-377,0,0,0,0,0,0,0,0,0,-1,1721,1401,0,0
504,-377,0,0,0,0,0,0,0,0,0,-1,1728,1401,0,0
511,-377,0,0,0,0,0,0,0,0,0,-1,1735,1401,0,0
518,-377,0,0,0,0,0,0,0,0,0,-1,1742,1401,0,0
525,-377,0,0,0,0,0,0,0,0,0,-1,1749,1401,0,0
532,-377,0,0,0,0,0,0,0,0,0,-1,1756,1401,0,0
539,-377,0,0,0,0,0,0,0,0,0,-1,1763,1401,0,0
546,-377,22.3663,0.877319,0,0,0,0,0,0,0,-1,1770,1401,22.3663,-0.877268
553,-377,21.2521,1.89001,0,0,0,0,0,0,0,-1,1777,1401,21.252,-1.89003
560,-377,20.1377,2.90283,0,0,0,0,0,0,0,-1,1784,1401,20.1378,-2.90279
567,-377,15.1582,2.81689,0,0,0,0,0,0,0,-1,1791,1401,15.1583,-2.81688
574,-377,12.252,3.49695,0,0,0,0,0,0,0,-1,1798,1401,12.2519,-3.49692
581,-377,13.7461,2.83679,0,0,0,0,0,0,0,-1,1805,1401,13.7461,-2.8368
588,-377,15.2402,2.17664,0,0,0,0,0,0,0,-1,1812,1401,15.2402,-2.17669
595,-377,13.0044,2.7074,0,0,0,0,0,0,0,-1,1819,1401,13.0044,-2.70745
602,-377,13.0537,3.23193,0,0,0,0,0,0,0,-1,1826,1401,13.0537,-3.23191
609,-377,15.0223,4.76135,0,0,0,0,0,0,0,-1,1833,1401,15.0224,-4.76129
616,-377,14.1842,5.78992,0,0,0,0,0,0,0,-1,1840,1401,14.1842,-5.78987
623,-377,15.3353,8.40002,0,0,0,0,0,0,0,-1,1847,1401,15.3353,-8.39998
630,-377,15.1599,7.99426,-0.00422318,-0.00675352,0.00863629,0.00324012,-0.0142168,0.712668,0.0107224,0.0437755,1854,1401,15.16,-7.99425
637,-377,15.1254,7.66589,-0.00325358,-0.00550947,0.00545267,0.00118659,-0.00994964,0.683406,0.00706193,0.015168,1861,1401,15.1254,-7.66594
644,-377,15.1641,7.40454,-0.00230522,-0.00422647,0.0036192,0.000478671,-0.00701036,0.655677,0.00484103,0.0109286,1868,1401,15.1641,-7.40456
651,-377,15.1833,7.1488,-0.00119255,-0.0029394,0.00252541,0.000606205,-0.00473815,0.61891,0.00337901,0.0122493,1875,1401,15.1834,-7.14877
658,-377,15.2006,6.92566,-0.000303566,-0.002075,0.00189805,0.000905255,-0.00328382,0.567093,0.00254521,0.0133437,1882,1401,15.2006,-6.92565
665,-377,15.1913,6.70276,0.000236131,-0.00197566,0.00195724,0.0013783,-0.00311783,0.528244,0.00265982,0.0151461,1889,1401,15.1913,-6.70271
672,-377,15.2003,6.45886,0.000585874,-0.00223463,0.00221606,0.00180236,-0.00345112,0.502029,0.00308248,0.0160231,1896,1401,15.2003,-6.4589
679,-377,15.1877,6.22522,0.00115693,-0.00278019,0.00268102,0.00251449,-0.00413775,0.468723,0.0038786,0.0163552,1903,1401,15.1878,-6.2252
686,-377,15.1555,5.97754,0.00206692,-0.00376389,0.0032866,0.00354484,-0.00524181,0.422588,0.00510441,0.0136564,1910,1401,15.1555,-5.97752
693,-377,15.1858,5.71777,0.00355099,-0.00521673,0.00425577,0.00527694,-0.00694268,0.385286,0.00707682,0.0118266,1917,1401,15.1858,-5.7178
700,-377,15.1924,5.52673,0.00593571,-0.00633323,0.00555615,0.00807787,-0.00847539,0.367985,0.00955795,0.0260364,1924,1401,15.1924,-5.52675
707,-377,15.0348,5.46619,0.00920177,-0.00709341,0.00755754,0.0121672,-0.0100589,0.373923,0.0128515,0.0404405,1931,1401,15.0347,-5.46618
714,-377,15.4675,5.18103,0.0137817,-0.00769326,0.010028,0.0177362,-0.0116477,0.375622,0.0170858,0.0471329,1938,1401,15.4675,-5.18107
721,-377,16.0759,4.95422,0,0,0,0,0,0,0,-1,1945,1401,16.0759,-4.95428
728,-377,14.5396,2.79724,0,0,0,0,0,0,0,-1,1952,1401,14.5396,-2.7972
735,-377,16.2814,5.49353,0,0,0,0,0,0,0,-1,1959,1401,16.2814,-5.49358
742,-377,0,0,0,0,0,0,0,0,0,-1,1966,1401,0,0
749,-377,0,0,0,0,0,0,0,0,0,-1,1973,1401,0,0
756,-377,0,0,0,0,0,0,0,0,0,-1,1980,1401,0,0
763,-377,0,0,0,0,0,0,0,0,0,-1,1987,1401,0,0
770,-377,0,0,0,0,0,0,0,0,0,-1,1994,1401,0,0
777,-377,0,0,0,0,0,0,0,0,0,-1,2001,1401,0,0
784,-377,0,0,0,0,0,0,0,0,0,-1,2008,1401,0,0
791,-377,0,0,0,0,0,0,0,0,0,-1,2015,1401,0,0
798,-377,0,0,0,0,0,0,0,0,0,-1,2022,1401,0,0
805,-377,0,0,0,0,0,0,0,0,0,-1,2029,1401,0,0
812,-377,0,0,0,0,0,0,0,0,0,-1,2036,1401,0,0
-700,-384,0,0,0,0,0,0,0,0,0,-1,524,1408,0,0
-693,-384,0,0,0,0,0,0,0,0,0,-1,531,1408,0,0
-686,-384,0,0,0,0,0,0,0,0,0,-1,538,1408,0,0
-679,-384,0,0,0,0,0,0,0,0,0,-1,545,1408,0,0
-672,-384,0,0,0,0,0,0,0,0,0,-1,552,1408,0,0
-665,-384,0,0,0,0,0,0,0,0,0,-1,559,1408,0,0
-658,-384,0,0,0,0,0,0,0,0,0,-1,566,1408,0,0
-651,-384,0,0,0,0,0,0,0,0,0,-1,573,1408,0,0
-644,-384,0,0,0,0,0,0,0,0,0,-1,580,1408,0,0
-637,-384,0,0,0,0,0,0,0,0,0,-1,587,1408,0,0
-630,-384,0,0,0,0,0,0,0,0,0,-1,594,1408,0,0
-623,-384,0,0,0,0,0,0,0,0,0,-1,601,1408,0,0
-616,-384,-10.019,-3.36646,0,0,0,0,0,0,0,-1,608,1408,-10.019,3.36648
-609,-384,-7.72357,-2.3418,0,0,0,0,0,0,0,-1,615,1408,-7.72358,2.34182
-602,-384,-5.59833,-1.04639,0,0,0,0,0,0,0,-1,622,1408,-5.59835,1.04638
-595,-384,-6.1037,1.25085,0,0,0,0,0,0,0,-1,629,1408,-6.10367,-1.2509
-588,-384,-5.93872,1.86292,-0.0316034,0.0343268,0.0165868,0.0382645,-0.0355412,1.33771,0.0426214,0.0476748,636,1408,-5.93873,-1.86289
-581,-384,-5.77057,2.3833,0,0,0,0,0,0,0,-1,643,1408,-5.77056,-2.38332
-574,-384,-5.68384,3.12512,-0.0229042,0.0167968,0.00583806,0.0176375,-0.0237449,1.42778,0.0239787,0.0495508,650,1408,-5.68384,-3.12516
-567,-384,-5.76282,3.13,-0.0184684,0.011407,0.00305557,0.0117163,-0.0187777,1.46991,0.0177623,0.0406916,657,1408,-5.76283,-3.13
-560,-384,-5.94354,3.67371,-0.0144863,0.00765735,0.00135736,0.00774024,-0.0145692,1.5098,0.0130799,0.0316815,664,1408,-5.94356,-3.67369
-553,-384,-6.00073,3.94348,-0.0109968,0.00494465,0.000329867,0.00495148,-0.0110036,1.55012,0.00942998,0.0202964,671,1408,-6.00074,-3.94347
-546,-384,-6.00159,4.25757,-0.00781848,0.00302888,-0.000153825,0.00303106,-0.00782066,-1.55662,0.00646546,0.0138614,678,1408,-6.00161,-4.25756
-539,-384,-6.06116,4.51294,-0.00489371,0.00167337,-0.000206167,0.00167984,-0.00490018,-1.53944,0.00394772,0.0147563,685,1408,-6.06118,-4.51297
-532,-384,-6.02472,4.75073,-0.00233756,0.000490479,-0.000386131,0.000542252,-0.00238934,-1.43751,0.00180106,0.0222434,692,1408,-6.02469,-4.75073
-525,-384,-5.96277,5.07654,1.0761e-05,-0.000139945,-0.000157564,0.000110063,-0.000239247,-0.562355,0.00020622,0.0212372,699,1408,-5.96277,-5.07651
-518,-384,-6.01001,5.2981,0.00153193,-0.00029663,0.000228289,0.00156,-0.0003247,0.122345,0.00116344,0.0121864,706,1408,-6.01001,-5.2981
-511,-384,-6.02997,5.58984,0.00208412,-0.00019292,0.000350974,0.00213699,-0.00024579,0.149514,0.00151326,0.0101243,713,1408,-6.02998,-5.58984
-504,-384,-6.01917,5.88135,0.00105144,0.000780885,0.000820398,0.00174764,8.46865e-05,0.703687,0.00113792,0.0110357,720,1408,-6.01913,-5.88131
-497,-384,-5.98492,6.17249,-0.000628779,0.00170849,0.000921197,0.00202791,-0.000948201,1.23702,0.00175554,0.0156996,727,1408,-5.9849,-6.17248
-490,-384,-5.84869,6.46582,-0.00372725,0.00303002,0.000948984,0.00316076,-0.003858,1.43388,0.00405894,0.0419711,734,1408,-5.84867,-6.46585
-483,-384,-5.70746,6.5282,0,0,0,0,0,0,0,-1,741,1408,-5.70744,-6.52818
-476,-384,-6.02734,5.67761,0,0,0,0,0,0,0,-1,748,1408,-6.02736,-5.6776
-469,-384,-10.206,2.63721,0,0,0,0,0,0,0,-1,755,1408,-10.206,-2.6372
-462,-384,-9.04291,1.43542,0,0,0,0,0,0,0,-1,762,1408,-9.04293,-1.43545
-455,-384,-7.87988,0.233765,0,0,0,0,0,0,0,-1,769,1408,-7.87986,-0.233709
-448,-384,-9.35529,7.19226,0,0,0,0,0,0,0,-1,776,1408,-9.35531,-7.19226
-441,-384,-10.4697,1.79004,0,0,0,0,0,0,0,-1,783,1408,-10.4697,-1.79003
-434,-384,-10.6449,0.552246,0,0,0,0,0,0,0,-1,790,1408,-10.6449,-0.552216
-427,-384,-10.968,1.10583,0,0,0,0,0,0,0,-1,797,1408,-10.968,-1.10588
-420,-384,-12.5607,4.54858,0,0,0,0,0,0,0,-1,804,1408,-12.5607,-4.54859
-413,-384,0,0,0,0,0,0,0,0,0,-1,811,1408,0,0
-406,-384,0,0,0,0,0,0,0,0,0,-1,818,1408,0,0
-399,-384,0,0,0,0,0,0,0,0,0,-1,825,1408,0,0
-392,-384,0,0,0,0,0,0,0,0,0,-1,832,1408,0,0
-385,-384,0,0,0,0,0,0,0,0,0,-1,839,1408,0,0
-378,-384,0,0,0,0,0,0,0,0,0,-1,846,1408,0,0
-371,-384,0,0,0,0,0,0,0,0,0,-1,853,1408,0,0
-364,-384,0,0,0,0,0,0,0,0,0,-1,860,1408,0,0
-357,-384,0,0,0,0,0,0,0,0,0,-1,867,1408,0,0
-350,-384,0,0,0,0,0,0,0,0,0,-1,874,1408,0,0
-343,-384,0,0,0,0,0,0,0,0,0,-1,881,1408,0,0
-336,-384,0,0,0,0,0,0,0,0,0,-1,888,1408,0,0
-329,-384,0,0,0,0,0,0,0,0,0,-1,895,1408,0,0
-322,-384,0,0,0,0,0,0,0,0,0,-1,902,1408,0,0
-315,-384,0,0,0,0,0,0,0,0,0,-1,909,1408,0,0
-308,-384,0,0,0,0,0,0,0,0,0,-1,916,1408,0,0
-301,-384,0,0,0,0,0,0,0,0,0,-1,923,1408,0,0
-294,-384,0,0,0,0,0,0,0,0,0,-1,930,1408,0,0
-287,-384,0,0,0,0,0,0,0,0,0,-1,937,1408,0,0
-280,-384,0,0,0,0,0,0,0,0,0,-1,944,1408,0,0
-273,-384,0,0,0,0,0,0,0,0,0,-1,951,1408,0,0
-266,-384,0,0,0,0,0,0,0,0,0,-1,958,1408,0,0
-259,-384,0,0,0,0,0,0,0,0,0,-1,965,1408,0,0
-252,-384,0,0,0,0,0,0,0,0,0,-1,972,1408,0,0
-245,-384,0,0,0,0,0,0,0,0,0,-1,979,1408,0,0
-238,-384,0,0,0,0,0,0,0,0,0,-1,986,1408,0,0
-231,-384,0,0,0,0,0,0,0,0,0,-1,993,1408,0,0
-224,-384,0,0,0,0,0,0,0,0,0,-1,1000,1408,0,0
-217,-384,0,0,0,0,0,0,0,0,0,-1,1007,1408,0,0
-210,-384,0,0,0,0,0,0,0,0,0,-1,1014,1408,0,0
-203,-384,0,0,0,0,0,0,0,0,0,-1,1021,1408,0,0
-196,-384,0,0,0,0,0,0,0,0,0,-1,1028,1408,0,0
-189,-384,0,0,0,0,0,0,0,0,0,-1,1035,1408,0,0
-182,-384,0,0,0,0,0,0,0,0,0,-1,1042,1408,0,0
-175,-384,0,0,0,0,0,0,0,0,0,-1,1049,1408,0,0
-168,-384,0,0,0,0,0,0,0,0,0,-1,1056,1408,0,0
-161,-384,0,0,0,0,0,0,0,0,0,-1,1063,1408,0,0
-154,-384,0,0,0,0,0,0,0,0,0,-1,1070,1408,0,0
-147,-384,0,0,0,0,0,0,0,0,0,-1,1077,1408,0,0
-140,-384,0,0,0,0,0,0,0,0,0,-1,1084,1408,0,0
-133,-384,0,0,0,0,0,0,0,0,0,-1,1091,1408,0,0
-126,-384,0,0,0,0,0,0,0,0,0,-1,1098,1408,0,0
-119,-384,0,0,0,0,0,0,0,0,0,-1,1105,1408,0,0
-112,-384,0,0,0,0,0,0,0,0,0,-1,1112,1408,0,0
-105,-384,0,0,0,0,0,0,0,0,0,-1,1119,1408,0,0
-98,-384,0,0,0,0,0,0,0,0,0,-1,1126,1408,0,0
-91,-384,0,0,0,0,0,0,0,0,0,-1,1133,1408,0,0
-84,-384,0,0,0,0,0,0,0,0,0,-1,1140,1408,0,0
-77,-384,0,0,0,0,0,0,0,0,0,-1,1147,1408,0,0
-70,-384,0,0,0,0,0,0,0,0,0,-1,1154,1408,0,0
-63,-384,0,0,0,0,0,0,0,0,0,-1,1161,1408,0,0
-56,-384,0,0,0,0,0,0,0,0,0,-1,1168,1408,0,0
-49,-384,0,0,0,0,0,0,0,0,0,-1,1175,1408,0,0
-42,-384,0,0,0,0,0,0,0,0,0,-1,1182,1408,0,0
-35,-384,0,0,0,0,0,0,0,0,0,-1,1189,1408,0,0
-28,-384,0,0,0,0,0,0,0,0,0,-1,1196,1408,0,0
-21,-384,0,0,0,0,0,0,0,0,0,-1,1203,1408,0,0
-14,-384,0,0,0,0,0,0,0,0,0,-1,1210,1408,0,0
-7,-384,0,0,0,0,0,0,0,0,0,-1,1217,1408,0,0
0,-384,0,0,0,0,0,0,0,0,0,-1,1224,1408,0,0
7,-384,0,0,0,0,0,0,0,0,0,-1,1231,1408,0,0
14,-384,0,0,0,0,0,0,0,0,0,-1,1238,1408,0,0
21,-384,0,0,0,0,0,0,0,0,0,-1,1245,1408,0,0
28,-384,0,0,0,0,0,0,0,0,0,-1,1252,1408,0,0
35,-384,0,0,0,0,0,0,0,0,0,-1,1259,1408,0,0
42,-384,0,0,0,0,0,0,0,0,0,-1,1266,1408,0,0
49,-384,0,0,0,0,0,0,0,0,0,-1,1273,1408,0,0
56,-384,0,0,0,0,0,0,0,0,0,-1,1280,1408,0,0
63,-384,0,0,0,0,0,0,0,0,0,-1,1287,1408,0,0
70,-384,0,0,0,0,0,0,0,0,0,-1,1294,1408,0,0
77,-384,0,0,0,0,0,0,0,0,0,-1,1301,1408,0,0
84,-384,0,0,0,0,0,0,0,0,0,-1,1308,1408,0,0
91,-384,0,0,0,0,0,0,0,0,0,-1,1315,1408,0,0
98,-384,0,0,0,0,0,0,0,0,0,-1,1322,1408,0,0
105,-384,0,0,0,0,0,0,0,0,0,-1,1329,1408,0,0
112,-384,0,0,0,0,0,0,0,0,0,-1,1336,1408,0,0
119,-384,0,0,0,0,0,0,0,0,0,-1,1343,1408,0,0
126,-384,0,0,0,0,0,0,0,0,0,-1,1350,1408,0,0
133,-384,0,0,0,0,0,0,0,0,0,-1,1357,1408,0,0
140,-384,0,0,0,0,0,0,0,0,0,-1,1364,1408,0,0
147,-384,0,0,0,0,0,0,0,0,0,-1,1371,1408,0,0
154,-384,0,0,0,0,0,0,0,0,0,-1,1378,1408,0,0
161,-384,0,0,0,0,0,0,0,0,0,-1,1385,1408,0,0
168,-384,0,0,0,0,0,0,0,0,0,-1,1392,1408,0,0
175,-384,0,0,0,0,0,0,0,0,0,-1,1399,1408,0,0
182,-384,0,0,0,0,0,0,0,0,0,-1,1406,1408,0,0
189,-384,0,0,0,0,0,0,0,0,0,-1,1413,1408,0,0
196,-384,0,0,0,0,0,0,0,0,0,-1,1420,1408,0,0
203,-384,0,0,0,0,0,0,0,0,0,-1,1427,1408,0,0
210,-384,0,0,0,0,0,0,0,0,0,-1,1434,1408,0,0
217,-384,0,0,0,0,0,0,0,0,0,-1,1441,1408,0,0
224,-384,0,0,0,0,0,0,0,0,0,-1,1448,1408,0,0
231,-384,0,0,0,0,0,0,0,0,0,-1,1455,1408,0,0
238,-384,0,0,0,0,0,0,0,0,0,-1,1462,1408,0,0
245,-384,0,0,0,0,0,0,0,0,0,-1,1469,1408,0,0
252,-384,0,0,0,0,0,0,0,0,0,-1,1476,1408,0,0
259,-384,0,0,0,0,0,0,0,0,0,-1,1483,1408,0,0
266,-384,0,0,0,0,0,0,0,0,0,-1,1490,1408,0,0
273,-384,0,0,0,0,0,0,0,0,0,-1,1497,1408,0,0
280,-384,0,0,0,0,0,0,0,0,0,-1,1504,1408,0,0
287,-384,0,0,0,0,0,0,0,0,0,-1,1511,1408,0,0
294,-384,0,0,0,0,0,0,0,0,0,-1,1518,1408,0,0
301,-384,0,0,0,0,0,0,0,0,0,-1,1525,1408,0,0
308,-384,0,0,0,0,0,0,0,0,0,-1,1532,1408,0,0
315,-384,0,0,0,0,0,0,0,0,0,-1,1539,1408,0,0
322,-384,0,0,0,0,0,0,0,0,0,-1,1546,1408,0,0
329,-384,0,0,0,0,0,0,0,0,0,-1,1553,1408,0,0
336,-384,0,0,0,0,0,0,0,0,0,-1,1560,1408,0,0
343,-384,0,0,0,0,0,0,0,0,0,-1,1567,1408,0,0
350,-384,0,0,0,0,0,0,0,0,0,-1,1574,1408,0,0
357,-384,0,0,0,0,0,0,0,0,0,-1,1581,1408,0,0
364,-384,0,0,0,0,0,0,0,0,0,-1,1588,1408,0,0
371,-384,0,0,0,0,0,0,0,0,0,-1,1595,1408,0,0
378,-384,0,0,0,0,0,0,0,0,0,-1,1602,1408,0,0
385,-384,0,0,0,0,0,0,0,0,0,-1,1609,1408,0,0
392,-384,0,0,0,0,0,0,0,0,0,-1,1616,1408,0,0
399,-384,0,0,0,0,0,0,0,0,0,-1,1623,1408,0,0
406,-384,0,0,0,0,0,0,0,0,0,-1,1630,1408,0,0
413,-384,0,0,0,0,0,0,0,0,0,-1,1637,1408,0,0
420,-384,0,0,0,0,0,0,0,0,0,-1,1644,1408,0,0
427,-384,0,0,0,0,0,0,0,0,0,-1,1651,1408,0,0
434,-384,0,0,0,0,0,0,0,0,0,-1,1658,1408,0,0
441,-384,0,0,0,0,0,0,0,0,0,-1,1665,1408,0,0
448,-384,0,0,0,0,0,0,0,0,0,-1,1672,1408,0,0
455,-384,0,0,0,0,0,0,0,0,0,-1,1679,1408,0,0
462,-384,0,0,0,0,0,0,0,0,0,-1,1686,1408,0,0
469,-384,0,0,0,0,0,0,0,0,0,-1,1693,1408,0,0
476,-384,0,0,0,0,0,0,0,0,0,-1,1700,1408,0,0
483,-384,0,0,0,0,0,0,0,0,0,-1,1707,1408,0,0
490,-384,0,0,0,0,0,0,0,0,0,-1,1714,1408,0,0
497,-384,0,0,0,0,0,0,0,0,0,-1,1721,1408,0,0
504,-384,0,0,0,0,0,0,0,0,0,-1,1728,1408,0,0
511,-384,0,0,0,0,0,0,0,0,0,-1,1735,1408,0,0
518,-384,0,0,0,0,0,0,0,0,0,-1,1742,1408,0,0
525,-384,0,0,0,0,0,0,0,0,0,-1,1749,1408,0,0
532,-384,0,0,0,0,0,0,0,0,0,-1,1756,1408,0,0
539,-384,23.4208,1.19556,0,0,0,0,0,0,0,-1,1763,1408,23.4207,-1.19561
546,-384,22.3715,1.52161,0,0,0,0,0,0,0,-1,1770,1408,22.3715,-1.52159
553,-384,21.0801,2.1532,0,0,0,0,0,0,0,-1,1777,1408,21.0801,-2.15317
560,-384,19.7887,2.78479,0,0,0,0,0,0,0,-1,1784,1408,19.7887,-2.78475
567,-384,19.0348,2.75549,0,0,0,0,0,0,0,-1,1791,1408,19.0348,-2.75544
574,-384,11.5477,2.34216,0,0,0,0,0,0,0,-1,1798,1408,11.5477,-2.34214
581,-384,13.024,2.0072,0,0,0,0,0,0,0,-1,1805,1408,13.024,-2.00726
588,-384,14.5002,1.67236,0,0,0,0,0,0,0,-1,1812,1408,14.5002,-1.67238
595,-384,17.2017,4.63574,0,0,0,0,0,0,0,-1,1819,1408,17.2016,-4.63576
602,-384,14.5807,4.99976,0,0,0,0,0,0,0,-1,1826,1408,14.5806,-4.99972
609,-384,14.158,5.49475,0,0,0,0,0,0,0,-1,1833,1408,14.158,-5.49474
616,-384,14.7997,7.6908,0,0,0,0,0,0,0,-1,1840,1408,14.7996,-7.69079
623,-384,14.8242,8.25256,0,0,0,0,0,0,0,-1,1847,1408,14.8243,-8.25262
630,-384,14.9722,7.87549,-0.00684041,-0.00813882,0.00799405,0.000530757,-0.01551,0.744881,0.0105214,0.0275057,1854,1408,14.9721,-7.87545
637,-384,14.9349,7.66431,-0.0044749,-0.00574769,0.00517781,0.000105474,-0.0103281,0.724251,0.0069208,0.0149959,1861,1408,14.935,-7.66428
644,-384,14.9398,7.41675,-0.00276794,-0.00397375,0.00348787,0.000168746,-0.00691044,0.699815,0.00466422,0.0150182,1868,1408,14.9399,-7.41675
651,-384,14.9349,7.151,-0.00142856,-0.00256616,0.0024031,0.000472133,-0.00446686,0.66919,0.00314711,0.0141374,1875,1408,14.9349,-7.15096
658,-384,14.938,6.91895,-0.000703926,-0.00191441,0.00201022,0.000790192,-0.00340853,0.639173,0.00257647,0.0137461,1882,1408,14.9379,-6.919
665,-384,14.9552,6.70276,-0.000339111,-0.0020133,0.00233441,0.00130375,-0.00365616,0.613245,0.00296903,0.014998,1889,1408,14.9552,-6.70282
672,-384,14.9706,6.44861,-0.000249529,-0.00246842,0.00287686,0.0017244,-0.00444235,0.601363,0.00367383,0.0146015,1896,1408,14.9705,-6.44866
679,-384,14.9323,6.19873,4.25936e-05,-0.00327511,0.00367749,0.00241806,-0.00565058,0.573521,0.00478142,0.0152832,1903,1408,14.9323,-6.19869
686,-384,14.9143,5.96936,0.000654557,-0.00460833,0.00473883,0.00344354,-0.00739731,0.531949,0.00639622,0.0118511,1910,1408,14.9143,-5.96942
693,-384,14.9583,5.71594,0.00194316,-0.00665711,0.0062349,0.00521701,-0.00993096,0.483513,0.00888572,0.0180489,1917,1408,14.9582,-5.71595
700,-384,14.832,5.79883,0.00436191,-0.00859171,0.00796008,0.00814726,-0.0123771,0.44389,0.0119333,0.0442259,1924,1408,14.8321,-5.7988
707,-384,14.7711,5.64038,0,0,0,0,0,0,0,-1,1931,1408,14.7711,-5.64032
714,-384,15.1219,5.41553,0,0,0,0,0,0,0,-1,1938,1408,15.1219,-5.41558
721,-384,13.8843,2.8717,0,0,0,0,0,0,0,-1,1945,1408,13.8843,-2.87171
728,-384,15.4409,6.25745,0,0,0,0,0,0,0,-1,1952,1408,15.4409,-6.2574
735,-384,16.7598,6.71289,0,0,0,0,0,0,0,-1,1959,1408,16.7598,-6.71287
742,-384,0,0,0,0,0,0,0,0,0,-1,1966,1408,0,0
749,-384,0,0,0,0,0,0,0,0,0,-1,1973,1408,0,0
756,-384,0,0,0,0,0,0,0,0,0,-1,1980,1408,0,0
763,-384,0,0,0,0,0,0,0,0,0,-1,1987,1408,0,0
770,-384,0,0,0,0,0,0,0,0,0,-1,1994,1408,0,0
777,-384,0,0,0,0,0,0,0,0,0,-1,2001,1408,0,0
784,-384,0,0,0,0,0,0,0,0,0,-1,2008,1408,0,0
791,-384,0,0,0,0,0,0,0,0,0,-1,2015,1408,0,0
798,-384,0,0,0,0,0,0,0,0,0,-1,2022,1408,0,0
805,-384,0,0,0,0,0,0,0,0,0,-1,2029,1408,0,0
812,-384,0,0,0,0,0,0,0,0,0,-1,2036,1408,0,0
-700,-391,0,0,0,0,0,0,0,0,0,-1,524,1415,0,0
-693,-391,0,0,0,0,0,0,0,0,0,-1,531,1415,0,0
-686,-391,0,0,0,0,0,0,0,0,0,-1,538,1415,0,0
-679,-391,0,0,0,0,0,0,0,0,0,-1,545,1415,0,0
-672,-391,0,0,0,0,0,0,0,0,0,-1,552,1415,0,0
-665,-391,0,0,0,0,0,0,0,0,0,-1,559,1415,0,0
-658,-391,0,0,0,0,0,0,0,0,0,-1,566,1415,0,0
-651,-391,0,0,0,0,0,0,0,0,0,-1,573,1415,0,0
-644,-391,0,0,0,0,0,0,0,0,0,-1,580,1415,0,0
-637,-391,0,0,0,0,0,0,0,0,0,-1,587,1415,0,0
-630,-391,0,0,0,0,0,0,0,0,0,-1,594,1415,0,0
-623,-391,0,0,0,0,0,0,0,0,0,-1,601,1415,0,0
-616,-391,0,0,0,0,0,0,0,0,0,-1,608,1415,0,0
-609,-391,-7.71753,-3.69763,0,0,0,0,0,0,0,-1,615,1415,-7.71751,3.69759
-602,-391,-3.36749,-2.07458,0,0,0,0,0,0,0,-1,622,1415,-3.36751,2.07453
-595,-391,-6.75244,0.376343,0,0,0,0,0,0,0,-1,629,1415,-6.75247,-0.376343
-588,-391,-6.10651,0.953491,0,0,0,0,0,0,0,-1,636,1415,-6.10648,-0.953547
-581,-391,-5.86963,1.52576,0,0,0,0,0,0,0,-1,643,1415,-5.86965,-1.5257
-574,-391,-5.33215,3.06763,0,0,0,0,0,0,0,-1,650,1415,-5.33217,-3.06768
-567,-391,-5.07452,2.76794,-0.0201974,0.0128288,0.00319464,0.013135,-0.0205036,1.47525,0.019576,0.0481183,657,1415,-5.07451,-2.76798
-560,-391,-5.45471,3.61853,-0.0161784,0.00838417,0.00122971,0.00844558,-0.0162398,1.5209,0.014487,0.0407854,664,1415,-5.45472,-3.61849
-553,-391,-5.68274,3.92407,-0.01254,0.00531489,0.000116761,0.00531565,-0.0125408,1.56426,0.010587,0.0280195,671,1415,-5.68277,-3.92406
-546,-391,-5.74438,4.22754,-0.00921367,0.0032549,-0.000372089,0.00326599,-0.00922477,-1.54099,0.00748008,0.0119063,678,1415,-5.74439,-4.22751
-539,-391,-5.74438,4.50476,-0.00615228,0.00188122,-0.00040581,0.00190166,-0.00617272,-1.52045,0.0048743,0.0137374,685,1415,-5.74436,-4.50474
-532,-391,-5.73431,4.79102,-0.00350243,0.000672398,-0.000528999,0.000738385,-0.00356842,-1.4467,0.00265946,0.0253495,692,1415,-5.73434,-4.79101
-525,-391,-5.71667,5.06982,-0.00103759,0.000133865,-0.0002309,0.000177734,-0.00108146,-1.38304,0.000786935,0.0239896,699,1415,-5.71669,-5.06985
-518,-391,-5.76044,5.30908,0.00083109,-0.000230848,0.000183159,0.000861793,-0.000261551,0.166085,0.000678724,0.0139201,706,1415,-5.76047,-5.30912
-511,-391,-5.76373,5.58179,0.00202487,-0.000619646,0.000280367,0.00205426,-0.000649043,0.104471,0.00162953,0.0125901,713,1415,-5.76372,-5.58175
-504,-391,-5.75385,5.87183,0.00229667,-0.000495603,0.000533957,0.00239529,-0.000594226,0.182644,0.00182743,0.0114054,720,1415,-5.75385,-5.87183
-497,-391,-5.75232,6.14087,0.0020473,-0.00073598,0.000378287,0.0020978,-0.000786478,0.132708,0.00172165,0.00949217,727,1415,-5.75233,-6.1409
-490,-391,-5.71716,6.45337,0.000786811,-0.00132813,-2.46826e-05,0.000787099,-0.00132842,-0.0116684,0.00123465,0.0185536,734,1415,-5.71715,-6.45339
-483,-391,-5.68878,6.61084,-0.0016422,-0.00141516,-0.000502512,-0.0010135,-0.00204385,-0.896483,0.00118003,0.0481714,741,1415,-5.68875,-6.61078
-476,-391,-5.51886,6.83997,0,0,0,0,0,0,0,-1,748,1415,-5.51885,-6.83994
-469,-391,-3.88953,5.0979,0,0,0,0,0,0,0,-1,755,1415,-3.88955,-5.09794
-462,-391,-8.67688,2.03125,0,0,0,0,0,0,0,-1,762,1415,-8.67685,-2.03121
-455,-391,-8.65576,6.46997,0,0,0,0,0,0,0,-1,769,1415,-8.65579,-6.46999
-448,-391,-8.39618,4.38403,0,0,0,0,0,0,0,-1,776,1415,-8.39617,-4.38405
-441,-391,-9.77704,2.5946,0,0,0,0,0,0,0,-1,783,1415,-9.77702,-2.5946
-434,-391,-11.5403,2.12878,0,0,0,0,0,0,0,-1,790,1415,-11.5403,-2.12881
-427,-391,-10.5311,2.50403,0,0,0,0,0,0,0,-1,797,1415,-10.5311,-2.504
-420,-391,-14.7087,1.24365,0,0,0,0,0,0,0,-1,804,1415,-14.7088,-1.24365
-413,-391,0,0,0,0,0,0,0,0,0,-1,811,1415,0,0
-406,-391,0,0,0,0,0,0,0,0,0,-1,818,1415,0,0
-399,-391,0,0,0,0,0,0,0,0,0,-1,825,1415,0,0
-392,-391,0,0,0,0,0,0,0,0,0,-1,832,1415,0,0
-385,-391,0,0,0,0,0,0,0,0,0,-1,839,1415,0,0
-378,-391,0,0,0,0,0,0,0,0,0,-1,846,1415,0,0
-371,-391,0,0,0,0,0,0,0,0,0,-1,853,1415,0,0
-364,-391,0,0,0,0,0,0,0,0,0,-1,860,1415,0,0
-357,-391,0,0,0,0,0,0,0,0,0,-1,867,1415,0,0
-350,-391,0,0,0,0,0,0,0,0,0,-1,874,1415,0,0
-343,-391,0,0,0,0,0,0,0,0,0,-1,881,1415,0,0
-336,-391,0,0,0,0,0,0,0,0,0,-1,888,1415,0,0
-329,-391,0,0,0,0,0,0,0,0,0,-1,895,1415,0,0
-322,-391,0,0,0,0,0,0,0,0,0,-1,902,1415,0,0
-315,-391,0,0,0,0,0,0,0,0,0,-1,909,1415,0,0
-308,-391,0,0,0,0,0,0,0,0,0,-1,916,1415,0,0
-301,-391,0,0,0,0,0,0,0,0,0,-1,923,1415,0,0
-294,-391,0,0,0,0,0,0,0,0,0,-1,930,1415,0,0
-287,-391,0,0,0,0,0,0,0,0,0,-1,937,1415,0,0
-280,-391,0,0,0,0,0,0,0,0,0,-1,944,1415,0,0
-273,-391,0,0,0,0,0,0,0,0,0,-1,951,1415,0,0
-266,-391,0,0,0,0,0,0,0,0,0,-1,958,1415,0,0
-259,-391,0,0,0,0,0,0,0,0,0,-1,965,1415,0,0
-252,-391,0,0,0,0,0,0,0,0,0,-1,972,1415,0,0
-245,-391,0,0,0,0,0,0,0,0,0,-1,979,1415,0,0
-238,-391,0,0,0,0,0,0,0,0,0,-1,986,1415,0,0
-231,-391,0,0,0,0,0,0,0,0,0,-1,993,1415,0,0
-224,-391,0,0,0,0,0,0,0,0,0,-1,1000,1415,0,0
-217,-391,0,0,0,0,0,0,0,0,0,-1,1007,1415,0,0
-210,-391,0,0,0,0,0,0,0,0,0,-1,1014,1415,0,0
-203,-391,0,0,0,0,0,0,0,0,0,-1,1021,1415,0,0
-196,-391,0,0,0,0,0,0,0,0,0,-1,1028,1415,0,0
-189,-391,0,0,0,0,0,0,0,0,0,-1,1035,1415,0,0
-182,-391,0,0,0,0,0,0,0,0,0,-1,1042,1415,0,0
-175,-391,0,0,0,0,0,0,0,0,0,-1,1049,1415,0,0
-168,-391,0,0,0,0,0,0,0,0,0,-1,1056,1415,0,0
-161,-391,0,0,0,0,0,0,0,0,0,-1,1063,1415,0,0
-154,-391,0,0,0,0,0,0,0,0,0,-1,1070,1415,0,0
-147,-391,0,0,0,0,0,0,0,0,0,-1,1077,1415,0,0
-140,-391,0,0,0,0,0,0,0,0,0,-1,1084,1415,0,0
-133,-391,0,0,0,0,0,0,0,0,0,-1,1091,1415,0,0
-126,-391,0,0,0,0,0,0,0,0,0,-1,1098,1415,0,0
-119,-391,0,0,0,0,0,0,0,0,0,-1,1105,1415,0,0
-112,-391,0,0,0,0,0,0,0,0,0,-1,1112,1415,0,0
-105,-391,0,0,0,0,0,0,0,0,0,-1,1119,1415,0,0
-98,-391,0,0,0,0,0,0,0,0,0,-1,1126,1415,0,0
-91,-391,0,0,0,0,0,0,0,0,0,-1,1133,1415,0,0
-84,-391,0,0,0,0,0,0,0,0,0,-1,1140,1415,0,0
-77,-391,0,0,0,0,0,0,0,0,0,-1,1147,1415,0,0
-70,-391,0,0,0,0,0,0,0,0,0,-1,1154,1415,0,0
-63,-391,0,0,0,0,0,0,0,0,0,-1,1161,1415,0,0
-56,-391,0,0,0,0,0,0,0,0,0,-1,1168,1415,0,0
-49,-391,0,0,0,0,0,0,0,0,0,-1,1175,1415,0,0
-42,-391,0,0,0,0,0,0,0,0,0,-1,1182,1415,0,0
-35,-391,0,0,0,0,0,0,0,0,0,-1,1189,1415,0,0
-28,-391,0,0,0,0,0,0,0,0,0,-1,1196,1415,0,0
-21,-391,0,0,0,0,0,0,0,0,0,-1,1203,1415,0,0
-14,-391,0,0,0,0,0,0,0,0,0,-1,1210,1415,0,0
-7,-391,0,0,0,0,0,0,0,0,0,-1,1217,1415,0,0
0,-391,0,0,0,0,0,0,0,0,0,-1,1224,1415,0,0
7,-391,0,0,0,0,0,0,0,0,0,-1,1231,1415,0,0
14,-391,0,0,0,0,0,0,0,0,0,-1,1238,1415,0,0
21,-391,0,0,0,0,0,0,0,0,0,-1,1245,1415,0,0
28,-391,0,0,0,0,0,0,0,0,0,-1,1252,1415,0,0
35,-391,0,0,0,0,0,0,0,0,0,-1,1259,1415,0,0
42,-391,0,0,0,0,0,0,0,0,0,-1,1266,1415,0,0
49,-391,0,0,0,0,0,0,0,0,0,-1,1273,1415,0,0
56,-391,0,0,0,0,0,0,0,0,0,-1,1280,1415,0,0
63,-391,0,0,0,0,0,0,0,0,0,-1,1287,1415,0,0
70,-391,0,0,0,0,0,0,0,0,0,-1,1294,1415,0,0
77,-391,0,0,0,0,0,0,0,0,0,-1,1301,1415,0,0
84,-391,0,0,0,0,0,0,0,0,0,-1,1308,1415,0,0
91,-391,0,0,0,0,0,0,0,0,0,-1,1315,1415,0,0
98,-391,0,0,0,0,0,0,0,0,0,-1,1322,1415,0,0
105,-391,0,0,0,0,0,0,0,0,0,-1,1329,1415,0,0
112,-391,0,0,0,0,0,0,0,0,0,-1,1336,1415,0,0
119,-391,0,0,0,0,0,0,0,0,0,-1,1343,1415,0,0
126,-391,0,0,0,0,0,0,0,0,0,-1,1350,1415,0,0
133,-391,0,0,0,0,0,0,0,0,0,-1,1357,1415,0,0
140,-391,0,0,0,0,0,0,0,0,0,-1,1364,1415,0,0
147,-391,0,0,0,0,0,0,0,0,0,-1,1371,1415,0,0
154,-391,0,0,0,0,0,0,0,0,0,-1,1378,1415,0,0
161,-391,0,0,0,0,0,0,0,0,0,-1,1385,1415,0,0
168,-391,0,0,0,0,0,0,0,0,0,-1,1392,1415,0,0
175,-391,0,0,0,0,0,0,0,0,0,-1,1399,1415,0,0
182,-391,0,0,0,0,0,0,0,0,0,-1,1406,1415,0,0
189,-391,0,0,0,0,0,0,0,0,0,-1,1413,1415,0,0
196,-391,0,0,0,0,0,0,0,0,0,-1,1420,1415,0,0
203,-391,0,0,0,0,0,0,0,0,0,-1,1427,1415,0,0
210,-391,0,0,0,0,0,0,0,0,0,-1,1434,1415,0,0
217,-391,0,0,0,0,0,0,0,0,0,-1,1441,1415,0,0
224,-391,0,0,0,0,0,0,0,0,0,-1,1448,1415,0,0
231,-391,0,0,0,0,0,0,0,0,0,-1,1455,1415,0,0
238,-391,0,0,0,0,0,0,0,0,0,-1,1462,1415,0,0
245,-391,0,0,0,0,0,0,0,0,0,-1,1469,1415,0,0
252,-391,0,0,0,0,0,0,0,0,0,-1,1476,1415,0,0
259,-391,0,0,0,0,0,0,0,0,0,-1,1483,1415,0,0
266,-391,0,0,0,0,0,0,0,0,0,-1,1490,1415,0,0
273,-391,0,0,0,0,0,0,0,0,0,-1,1497,1415,0,0
280,-391,0,0,0,0,0,0,0,0,0,-1,1504,1415,0,0
287,-391,0,0,0,0,0,0,0,0,0,-1,1511,1415,0,0
294,-391,0,0,0,0,0,0,0,0,0,-1,1518,1415,0,0
301,-391,0,0,0,0,0,0,0,0,0,-1,1525,1415,0,0
308,-391,0,0,0,0,0,0,0,0,0,-1,1532,1415,0,0
315,-391,0,0,0,0,0,0,0,0,0,-1,1539,1415,0,0
322,-391,0,0,0,0,0,0,0,0,0,-1,1546,1415,0,0
329,-391,0,0,0,0,0,0,0,0,0,-1,1553,1415,0,0
336,-391,0,0,0,0,0,0,0,0,0,-1,1560,1415,0,0
343,-391,0,0,0,0,0,0,0,0,0,-1,1567,1415,0,0
350,-391,0,0,0,0,0,0,0,0,0,-1,1574,1415,0,0
357,-391,0,0,0,0,0,0,0,0,0,-1,1581,1415,0,0
364,-391,0,0,0,0,0,0,0,0,0,-1,1588,1415,0,0
371,-391,0,0,0,0,0,0,0,0,0,-1,1595,1415,0,0
378,-391,0,0,0,0,0,0,0,0,0,-1,1602,1415,0,0
385,-391,0,0,0,0,0,0,0,0,0,-1,1609,1415,0,0
392,-391,0,0,0,0,0,0,0,0,0,-1,1616,1415,0,0
399,-391,0,0,0,0,0,0,0,0,0,-1,1623,1415,0,0
406,-391,0,0,0,0,0,0,0,0,0,-1,1630,1415,0,0
413,-391,0,0,0,0,0,0,0,0,0,-1,1637,1415,0,0
420,-391,0,0,0,0,0,0,0,0,0,-1,1644,1415,0,0
427,-391,0,0,0,0,0,0,0,0,0,-1,1651,1415,0,0
434,-391,0,0,0,0,0,0,0,0,0,-1,1658,1415,0,0
441,-391,0,0,0,0,0,0,0,0,0,-1,1665,1415,0,0
448,-391,0,0,0,0,0,0,0,0,0,-1,1672,1415,0,0
455,-391,0,0,0,0,0,0,0,0,0,-1,1679,1415,0,0
462,-391,0,0,0,0,0,0,0,0,0,-1,1686,1415,0,0
469,-391,0,0,0,0,0,0,0,0,0,-1,1693,1415,0,0
476,-391,0,0,0,0,0,0,0,0,0,-1,1700,1415,0,0
483,-391,0,0,0,0,0,0,0,0,0,-1,1707,1415,0,0
490,-391,0,0,0,0,0,0,0,0,0,-1,1714,1415,0,0
497,-391,0,0,0,0,0,0,0,0,0,-1,1721,1415,0,0
504,-391,0,0,0,0,0,0,0,0,0,-1,1728,1415,0,0
511,-391,0,0,0,0,0,0,0,0,0,-1,1735,1415,0,0
518,-391,0,0,0,0,0,0,0,0,0,-1,1742,1415,0,0
525,-391,0,0,0,0,0,0,0,0,0,-1,1749,1415,0,0
532,-391,23.3541,1.15771,0,0,0,0,0,0,0,-1,1756,1415,23.3541,-1.15771
539,-391,22.6211,1.52905,0,0,0,0,0,0,0,-1,1763,1415,22.6211,-1.529
546,-391,21.671,2.0199,0,0,0,0,0,0,0,-1,1770,1415,21.671,-2.01994
553,-391,20.5422,2.27222,0,0,0,0,0,0,0,-1,1777,1415,20.5423,-2.27224
560,-391,19.1654,2.27197,0,0,0,0,0,0,0,-1,1784,1415,19.1654,-2.27193
567,-391,18.4855,3.01099,0,0,0,0,0,0,0,-1,1791,1415,18.4854,-3.01096
574,-391,17.8459,3.70581,0,0,0,0,0,0,0,-1,1798,1415,17.8459,-3.70584
581,-391,12.551,1.32678,0,0,0,0,0,0,0,-1,1805,1415,12.5511,-1.32684
588,-391,16.6328,4.5874,0,0,0,0,0,0,0,-1,1812,1415,16.6328,-4.5874
595,-391,18.2269,5.96387,0,0,0,0,0,0,0,-1,1819,1415,18.2269,-5.96392
602,-391,15.1635,5.69849,0,0,0,0,0,0,0,-1,1826,1415,15.1635,-5.69847
609,-391,14.8285,7.50476,0,0,0,0,0,0,0,-1,1833,1415,14.8285,-7.50479
616,-391,14.5856,8.54309,0,0,0,0,0,0,0,-1,1840,1415,14.5856,-8.54313
623,-391,14.739,8.1073,-0.0123541,-0.0110726,0.0105006,-0.00119322,-0.0222335,0.815869,0.014441,0.0267691,1847,1415,14.739,-8.10731
630,-391,14.7357,7.85449,-0.00755558,-0.00751674,0.00684098,-0.000695152,-0.0143772,0.786818,0.00936167,0.0185341,1854,1415,14.7358,-7.85446
637,-391,14.705,7.64636,-0.00463911,-0.00505004,0.00457489,-0.000265079,-0.00942408,0.762958,0.00619625,0.0152749,1861,1415,14.7049,-7.64637
644,-391,14.7029,7.40454,-0.00284165,-0.00335928,0.00319842,0.000108407,-0.00630934,0.745027,0.00424282,0.0153335,1868,1415,14.7029,-7.4045
651,-391,14.702,7.16614,-0.0016696,-0.00217323,0.00227976,0.000372205,-0.00421504,0.730393,0.00294195,0.0151508,1875,1415,14.702,-7.16613
658,-391,14.7034,6.95178,-0.00112137,-0.00171532,0.00206126,0.000664199,-0.00350089,0.713854,0.00258394,0.0145404,1882,1415,14.7034,-6.95184
665,-391,14.7122,6.72058,-0.000959557,-0.00198452,0.0025829,0.00116121,-0.00410529,0.687464,0.00319506,0.0120731,1889,1415,14.7121,-6.7206
672,-391,14.7142,6.45471,-0.00115121,-0.00262497,0.00337475,0.00156617,-0.00534236,0.677909,0.00418254,0.0117684,1896,1415,14.7143,-6.45472
679,-391,14.6941,6.21326,-0.00118813,-0.0037024,0.00449357,0.00222084,-0.00711137,0.649004,0.00562917,0.0120243,1903,1415,14.6941,-6.21326
686,-391,14.697,5.97949,-0.000934872,-0.00542273,0.00597214,0.00320099,-0.00955859,0.605692,0.0076655,0.0134044,1910,1415,14.697,-5.97952
693,-391,14.6727,5.82275,3.12526e-05,-0.00803751,0.00805194,0.00500298,-0.0130092,0.553157,0.0107363,0.0302751,1917,1415,14.6727,-5.82272
700,-391,14.4653,6.01074,0,0,0,0,0,0,0,-1,1924,1415,14.4653,-6.01077
707,-391,12.9524,5.96851,0,0,0,0,0,0,0,-1,1931,1415,12.9524,-5.96849
714,-391,15.6875,7.67896,0,0,0,0,0,0,0,-1,1938,1415,15.6875,-7.67893
721,-391,14.1808,8.08435,0,0,0,0,0,0,0,-1,1945,1415,14.1808,-8.08439
728,-391,13.8102,7.28174,0,0,0,0,0,0,0,-1,1952,1415,13.8102,-7.28174
735,-391,0,0,0,0,0,0,0,0,0,-1,1959,1415,0,0
742,-391,0,0,0,0,0,0,0,0,0,-1,1966,1415,0,0
749,-391,0,0,0,0,0,0,0,0,0,-1,1973,1415,0,0
756,-391,0,0,0,0,0,0,0,0,0,-1,1980,1415,0,0
763,-391,0,0,0,0,0,0,0,0,0,-1,1987,1415,0,0
770,-391,0,0,0,0,0,0,0,0,0,-1,1994,1415,0,0
777,-391,0,0,0,0,0,0,0,0,0,-1,2001,1415,0,0
784,-391,0,0,0,0,0,0,0,0,0,-1,2008,1415,0,0
791,-391,0,0,0,0,0,0,0,0,0,-1,2015,1415,0,0
798,-391,0,0,0,0,0,0,0,0,0,-1,2022,1415,0,0
805,-391,0,0,0,0,0,0,0,0,0,-1,2029,1415,0,0
812,-391,0,0,0,0,0,0,0,0,0,-1,2036,1415,0,0
-700,-398,0,0,0,0,0,0,0,0,0,-1,524,1422,0,0
-693,-398,0,0,0,0,0,0,0,0,0,-1,531,1422,0,0
-686,-398,0,0,0,0,0,0,0,0,0,-1,538,1422,0,0
-679,-398,0,0,0,0,0,0,0,0,0,-1,545,1422,0,0
-672,-398,0,0,0,0,0,0,0,0,0,-1,552,1422,0,0
-665,-398,0,0,0,0,0,0,0,0,0,-1,559,1422,0,0
-658,-398,0,0,0,0,0,0,0,0,0,-1,566,1422,0,0
-651,-398,0,0,0,0,0,0,0,0,0,-1,573,1422,0,0
-644,-398,0,0,0,0,0,0,0,0,0,-1,580,1422,0,0
-637,-398,0,0,0,0,0,0,0,0,0,-1,587,1422,0,0
-630,-398,0,0,0,0,0,0,0,0,0,-1,594,1422,0,0
-623,-398,0,0,0,0,0,0,0,0,0,-1,601,1422,0,0
-616,-398,0,0,0,0,0,0,0,0,0,-1,608,1422,0,0
-609,-398,-7.47125,-4.05322,0,0,0,0,0,0,0,-1,615,1422,-7.47128,4.05317
-602,-398,-4.58868,-2.77026,0,0,0,0,0,0,0,-1,622,1422,-4.58869,2.77023
-595,-398,-6.81061,-0.749756,0,0,0,0,0,0,0,-1,629,1422,-6.81059,0.749791
-588,-398,-5.95917,0.279175,0,0,0,0,0,0,0,-1,636,1422,-5.95918,-0.279172
-581,-398,-5.16003,1.26099,0,0,0,0,0,0,0,-1,643,1422,-5.16002,-1.26093
-574,-398,-4.52551,2.22119,0,0,0,0,0,0,0,-1,650,1422,-4.52551,-2.22113
-567,-398,-5.00842,2.72815,0,0,0,0,0,0,0,-1,657,1422,-5.0084,-2.72819
-560,-398,-5.17993,3.38757,-0.0176948,0.00856215,0.000771106,0.00858478,-0.0177174,1.54146,0.0154877,0.0420693,664,1422,-5.17994,-3.38754
-553,-398,-5.41113,4.01917,-0.013998,0.00524713,-0.000377204,0.00525452,-0.0140054,-1.55121,0.0114959,0.0339105,671,1422,-5.41116,-4.01913
-546,-398,-5.48859,4.23669,-0.0105922,0.00313927,-0.000838207,0.00319025,-0.0106432,-1.51005,0.00836422,0.0167271,678,1422,-5.48857,-4.23674
-539,-398,-5.45612,4.52881,-0.00746882,0.00181646,-0.000830648,0.00189019,-0.00754254,-1.48227,0.0057627,0.0122384,685,1422,-5.45612,-4.52878
-532,-398,-5.46344,4.79407,-0.00477993,0.000659648,-0.000870346,0.000795512,-0.00491579,-1.41594,0.00357202,0.0204129,692,1422,-5.46343,-4.79404
-525,-398,-5.46362,5.05554,-0.00224965,0.000247662,-0.000492202,0.00034117,-0.00234315,-1.38305,0.00168736,0.020429,699,1422,-5.46361,-5.0555
-518,-398,-5.46985,5.32397,-0.000213721,-0.000185879,-5.32481e-05,-0.000144762,-0.000254838,-0.913258,0.000147584,0.0174256,706,1422,-5.46985,-5.32401
-511,-398,-5.48181,5.56995,0.00130705,-0.000864965,2.5754e-05,0.00130735,-0.00086527,0.011855,0.00126299,0.013156,713,1422,-5.48182,-5.5699
-504,-398,-5.48206,5.85828,0.00235204,-0.00130387,0.000102062,0.00235489,-0.00130672,0.027888,0.00214271,0.013482,720,1422,-5.48204,-5.85829
-497,-398,-5.48999,6.14319,0.00300934,-0.00230493,-0.000236224,0.00301982,-0.00231541,-0.0443343,0.00308923,0.00980703,727,1422,-5.48997,-6.1432
-490,-398,-5.4884,6.42615,0.00305321,-0.00431495,-0.000994707,0.00318513,-0.00444687,-0.131857,0.00442637,0.0104486,734,1422,-5.48842,-6.42616
-483,-398,-5.37573,6.76746,0.00252798,-0.00654341,-0.00213897,0.00300703,-0.00702247,-0.22033,0.00594322,0.023941,741,1422,-5.37572,-6.76747
-476,-398,-5.40454,6.73096,0.0013257,-0.00954482,-0.00360574,0.00241297,-0.0106321,-0.292868,0.0080144,0.0481381,748,1422,-5.40457,-6.73091
-469,-398,-5.13336,7.04138,0,0,0,0,0,0,0,-1,755,1422,-5.13336,-7.04137
-462,-398,-5.85559,7.13269,0,0,0,0,0,0,0,-1,762,1422,-5.85557,-7.13263
-455,-398,-7.46521,7.30774,0,0,0,0,0,0,0,-1,769,1422,-7.46523,-7.30778
-448,-398,-7.4505,5.25293,0,0,0,0,0,0,0,-1,776,1422,-7.4505,-5.25291
-441,-398,-7.61639,3.32141,0,0,0,0,0,0,0,-1,783,1422,-7.61637,-3.32145
-434,-398,-10.7618,3.297,0,0,0,0,0,0,0,-1,790,1422,-10.7618,-3.29704
-427,-398,-11.9061,2.24939,0,0,0,0,0,0,0,-1,797,1422,-11.9061,-2.24941
-420,-398,-13.467,2.32788,0,0,0,0,0,0,0,-1,804,1422,-13.467,-2.32787
-413,-398,-14.7983,2.15515,0,0,0,0,0,0,0,-1,811,1422,-14.7983,-2.15516
-406,-398,0,0,0,0,0,0,0,0,0,-1,818,1422,0,0
-399,-398,0,0,0,0,0,0,0,0,0,-1,825,1422,0,0
-392,-398,0,0,0,0,0,0,0,0,0,-1,832,1422,0,0
-385,-398,0,0,0,0,0,0,0,0,0,-1,839,1422,0,0
-378,-398,0,0,0,0,0,0,0,0,0,-1,846,1422,0,0
-371,-398,0,0,0,0,0,0,0,0,0,-1,853,1422,0,0
-364,-398,0,0,0,0,0,0,0,0,0,-1,860,1422,0,0
-357,-398,0,0,0,0,0,0,0,0,0,-1,867,1422,0,0
-350,-398,0,0,0,0,0,0,0,0,0,-1,874,1422,0,0
-343,-398,0,0,0,0,0,0,0,0,0,-1,881,1422,0,0
-336,-398,0,0,0,0,0,0,0,0,0,-1,888,1422,0,0
-329,-398,0,0,0,0,0,0,0,0,0,-1,895,1422,0,0
-322,-398,0,0,0,0,0,0,0,0,0,-1,902,1422,0,0
-315,-398,0,0,0,0,0,0,0,0,0,-1,909,1422,0,0
-308,-398,0,0,0,0,0,0,0,0,0,-1,916,1422,0,0
-301,-398,0,0,0,0,0,0,0,0,0,-1,923,1422,0,0
-294,-398,0,0,0,0,0,0,0,0,0,-1,930,1422,0,0
-287,-398,0,0,0,0,0,0,0,0,0,-1,937,1422,0,0
-280,-398,0,0,0,0,0,0,0,0,0,-1,944,1422,0,0
-273,-398,0,0,0,0,0,0,0,0,0,-1,951,1422,0,0
-266,-398,0,0,0,0,0,0,0,0,0,-1,958,1422,0,0
-259,-398,0,0,0,0,0,0,0,0,0,-1,965,1422,0,0
-252,-398,0,0,0,0,0,0,0,0,0,-1,972,1422,0,0
-245,-398,0,0,0,0,0,0,0,0,0,-1,979,1422,0,0
-238,-398,0,0,0,0,0,0,0,0,0,-1,986,1422,0,0
-231,-398,0,0,0,0,0,0,0,0,0,-1,993,1422,0,0
-224,-398,0,0,0,0,0,0,0,0,0,-1,1000,1422,0,0
-217,-398,0,0,0,0,0,0,0,0,0,-1,1007,1422,0,0
-210,-398,0,0,0,0,0,0,0,0,0,-1,1014,1422,0,0
-203,-398,0,0,0,0,0,0,0,0,0,-1,1021,1422,0,0
-196,-398,0,0,0,0,0,0,0,0,0,-1,1028,1422,0,0
-189,-398,0,0,0,0,0,0,0,0,0,-1,1035,1422,0,0
-182,-398,0,0,0,0,0,0,0,0,0,-1,1042,1422,0,0
-175,-398,0,0,0,0,0,0,0,0,0,-1,1049,1422,0,0
-168,-398,0,0,0,0,0,0,0,0,0,-1,1056,1422,0,0
-161,-398,0,0,0,0,0,0,0,0,0,-1,1063,1422,0,0
-154,-398,0,0,0,0,0,0,0,0,0,-1,1070,1422,0,0
-147,-398,0,0,0,0,0,0,0,0,0,-1,1077,1422,0,0
-140,-398,0,0,0,0,0,0,0,0,0,-1,1084,1422,0,0
-133,-398,0,0,0,0,0,0,0,0,0,-1,1091,1422,0,0
-126,-398,0,0,0,0,0,0,0,0,0,-1,1098,1422,0,0
-119,-398,0,0,0,0,0,0,0,0,0,-1,1105,1422,0,0
-112,-398,0,0,0,0,0,0,0,0,0,-1,1112,1422,0,0
-105,-398,0,0,0,0,0,0,0,0,0,-1,1119,1422,0,0
-98,-398,0,0,0,0,0,0,0,0,0,-1,1126,1422,0,0
-91,-398,0,0,0,0,0,0,0,0,0,-1,1133,1422,0,0
-84,-398,0,0,0,0,0,0,0,0,0,-1,1140,1422,0,0
-77,-398,0,0,0,0,0,0,0,0,0,-1,1147,1422,0,0
-70,-398,0,0,0,0,0,0,0,0,0,-1,1154,1422,0,0
-63,-398,0,0,0,0,0,0,0,0,0,-1,1161,1422,0,0
-56,-398,0,0,0,0,0,0,0,0,0,-1,1168,1422,0,0
-49,-398,0,0,0,0,0,0,0,0,0,-1,1175,1422,0,0
-42,-398,0,0,0,0,0,0,0,0,0,-1,1182,1422,0,0
-35,-398,0,0,0,0,0,0,0,0,0,-1,1189,1422,0,0
-28,-398,0,0,0,0,0,0,0,0,0,-1,1196,1422,0,0
-21,-398,0,0,0,0,0,0,0,0,0,-1,1203,1422,0,0
-14,-398,0,0,0,0,0,0,0,0,0,-1,1210,1422,0,0
-7,-398,0,0,0,0,0,0,0,0,0,-1,1217,1422,0,0
0,-398,0,0,0,0,0,0,0,0,0,-1,1224,1422,0,0
7,-398,0,0,0,0,0,0,0,0,0,-1,1231,1422,0,0
14,-398,0,0,0,0,0,0,0,0,0,-1,1238,1422,0,0
21,-398,0,0,0,0,0,0,0,0,0,-1,1245,1422,0,0
28,-398,0,0,0,0,0,0,0,0,0,-1,1252,1422,0,0
35,-398,0,0,0,0,0,0,0,0,0,-1,1259,1422,0,0
42,-398,0,0,0,0,0,0,0,0,0,-1,1266,1422,0,0
49,-398,0,0,0,0,0,0,0,0,0,-1,1273,1422,0,0
56,-398,0,0,0,0,0,0,0,0,0,-1,1280,1422,0,0
63,-398,0,0,0,0,0,0,0,0,0,-1,1287,1422,0,0
70,-398,0,0,0,0,0,0,0,0,0,-1,1294,1422,0,0
77,-398,0,0,0,0,0,0,0,0,0,-1,1301,1422,0,0
84,-398,0,0,0,0,0,0,0,0,0,-1,1308,1422,0,0
91,-398,0,0,0,0,0,0,0,0,0,-1,1315,1422,0,0
98,-398,0,0,0,0,0,0,0,0,0,-1,1322,1422,0,0
105,-398,0,0,0,0,0,0,0,0,0,-1,1329,1422,0,0
112,-398,0,0,0,0,0,0,0,0,0,-1,1336,1422,0,0
119,-398,0,0,0,0,0,0,0,0,0,-1,1343,1422,0,0
126,-398,0,0,0,0,0,0,0,0,0,-1,1350,1422,0,0
133,-398,0,0,0,0,0,0,0,0,0,-1,1357,1422,0,0
140,-398,0,0,0,0,0,0,0,0,0,-1,1364,1422,0,0
147,-398,0,0,0,0,0,0,0,0,0,-1,1371,1422,0,0
154,-398,0,0,0,0,0,0,0,0,0,-1,1378,1422,0,0
161,-398,0,0,0,0,0,0,0,0,0,-1,1385,1422,0,0
168,-398,0,0,0,0,0,0,0,0,0,-1,1392,1422,0,0
175,-398,0,0,0,0,0,0,0,0,0,-1,1399,1422,0,0
182,-398,0,0,0,0,0,0,0,0,0,-1,1406,1422,0,0
189,-398,0,0,0,0,0,0,0,0,0,-1,1413,1422,0,0
196,-398,0,0,0,0,0,0,0,0,0,-1,1420,1422,0,0
203,-398,0,0,0,0,0,0,0,0,0,-1,1427,1422,0,0
210,-398,0,0,0,0,0,0,0,0,0,-1,1434,1422,0,0
217,-398,0,0,0,0,0,0,0,0,0,-1,1441,1422,0,0
224,-398,0,0,0,0,0,0,0,0,0,-1,1448,1422,0,0
231,-398,0,0,0,0,0,0,0,0,0,-1,1455,1422,0,0
238,-398,0,0,0,0,0,0,0,0,0,-1,1462,1422,0,0
245,-398,0,0,0,0,0,0,0,0,0,-1,1469,1422,0,0
252,-398,0,0,0,0,0,0,0,0,0,-1,1476,1422,0,0
259,-398,0,0,0,0,0,0,0,0,0,-1,1483,1422,0,0
266,-398,0,0,0,0,0,0,0,0,0,-1,1490,1422,0,0
273,-398,0,0,0,0,0,0,0,0,0,-1,1497,1422,0,0
280,-398,0,0,0,0,0,0,0,0,0,-1,1504,1422,0,0
287,-398,0,0,0,0,0,0,0,0,0,-1,1511,1422,0,0
294,-398,0,0,0,0,0,0,0,0,0,-1,1518,1422,0,0
301,-398,0,0,0,0,0,0,0,0,0,-1,1525,1422,0,0
308,-398,0,0,0,0,0,0,0,0,0,-1,1532,1422,0,0
315,-398,0,0,0,0,0,0,0,0,0,-1,1539,1422,0,0
322,-398,0,0,0,0,0,0,0,0,0,-1,1546,1422,0,0
329,-398,0,0,0,0,0,0,0,0,0,-1,1553,1422,0,0
336,-398,0,0,0,0,0,0,0,0,0,-1,1560,1422,0,0
343,-398,0,0,0,0,0,0,0,0,0,-1,1567,1422,0,0
350,-398,0,0,0,0,0,0,0,0,0,-1,1574,1422,0,0
357,-398,0,0,0,0,0,0,0,0,0,-1,1581,1422,0,0
364,-398,0,0,0,0,0,0,0,0,0,-1,1588,1422,0,0
371,-398,0,0,0,0,0,0,0,0,0,-1,1595,1422,0,0
378,-398,0,0,0,0,0,0,0,0,0,-1,1602,1422,0,0
385,-398,0,0,0,0,0,0,0,0,0,-1,1609,1422,0,0
392,-398,0,0,0,0,0,0,0,0,0,-1,1616,1422,0,0
399,-398,0,0,0,0,0,0,0,0,0,-1,1623,1422,0,0
406,-398,0,0,0,0,0,0,0,0,0,-1,1630,1422,0,0
413,-398,0,0,0,0,0,0,0,0,0,-1,1637,1422,0,0
420,-398,0,0,0,0,0,0,0,0,0,-1,1644,1422,0,0
427,-398,0,0,0,0,0,0,0,0,0,-1,1651,1422,0,0
434,-398,0,0,0,0,0,0,0,0,0,-1,1658,1422,0,0
441,-398,0,0,0,0,0,0,0,0,0,-1,1665,1422,0,0
448,-398,0,0,0,0,0,0,0,0,0,-1,1672,1422,0,0
455,-398,0,0,0,0,0,0,0,0,0,-1,1679,1422,0,0
462,-398,0,0,0,0,0,0,0,0,0,-1,1686,1422,0,0
469,-398,0,0,0,0,0,0,0,0,0,-1,1693,1422,0,0
476,-398,0,0,0,0,0,0,0,0,0,-1,1700,1422,0,0
483,-398,0,0,0,0,0,0,0,0,0,-1,1707,1422,0,0
490,-398,0,0,0,0,0,0,0,0,0,-1,1714,1422,0,0
497,-398,0,0,0,0,0,0,0,0,0,-1,1721,1422,0,0
504,-398,0,0,0,0,0,0,0,0,0,-1,1728,1422,0,0
511,-398,0,0,0,0,0,0,0,0,0,-1,1735,1422,0,0
518,-398,0,0,0,0,0,0,0,0,0,-1,1742,1422,0,0
525,-398,0,0,0,0,0,0,0,0,0,-1,1749,1422,0,0
532,-398,23.488,1.61963,0,0,0,0,0,0,0,-1,1756,1422,23.4881,-1.61959
539,-398,21.8323,1.8689,0,0,0,0,0,0,0,-1,1763,1422,21.8322,-1.86887
546,-398,20.865,2.10522,0,0,0,0,0,0,0,-1,1770,1422,20.865,-2.10518
553,-398,19.873,2.31494,0,0,0,0,0,0,0,-1,1777,1422,19.873,-2.31496
560,-398,18.7664,2.58093,0,0,0,0,0,0,0,-1,1784,1422,18.7664,-2.58089
567,-398,17.8256,3.19897,0,0,0,0,0,0,0,-1,1791,1422,17.8255,-3.199
574,-398,17.1724,3.84631,0,0,0,0,0,0,0,-1,1798,1422,17.1723,-3.84628
581,-398,16.6462,4.40747,0,0,0,0,0,0,0,-1,1805,1422,16.6463,-4.40747
588,-398,18.2119,6.75757,0,0,0,0,0,0,0,-1,1812,1422,18.2119,-6.75756
595,-398,17.0194,6.8916,0,0,0,0,0,0,0,-1,1819,1422,17.0194,-6.89162
602,-398,15.599,7.94006,0,0,0,0,0,0,0,-1,1826,1422,15.599,-7.94008
609,-398,14.6119,8.66077,0,0,0,0,0,0,0,-1,1833,1422,14.6119,-8.66071
616,-398,14.5229,8.3811,-0.0173054,-0.0138878,0.013567,-0.00192237,-0.0292708,0.848045,0.0189057,0.0214146,1840,1422,14.5229,-8.38109
623,-398,14.4614,8.15942,-0.0114049,-0.00932924,0.00932731,-0.000982199,-0.0197519,0.840804,0.0128531,0.0110716,1847,1422,14.4615,-8.15939
630,-398,14.4768,7.90393,-0.00719471,-0.00635559,0.0061298,-0.000631011,-0.0129193,0.819568,0.00841042,0.0116058,1854,1422,14.4768,-7.90388
637,-398,14.4669,7.65552,-0.00451755,-0.00422396,0.00410403,-0.000264105,-0.00847741,0.803275,0.00556566,0.0135643,1861,1422,14.467,-7.65557
644,-398,14.3947,7.42847,-0.00285686,-0.0028658,0.00292254,6.12172e-05,-0.00578388,0.784634,0.00387648,0.0182755,1868,1422,14.3947,-7.42852
651,-398,14.4242,7.20288,-0.00176554,-0.0018966,0.00212201,0.000291953,-0.0039541,0.769963,0.00273858,0.024817,1875,1422,14.4242,-7.20284
658,-398,14.4882,6.98547,-0.00132514,-0.00162634,0.00202489,0.000554741,-0.00350622,0.748279,0.00254265,0.0198938,1882,1422,14.4882,-6.98551
665,-398,14.4709,6.72375,-0.00131442,-0.00203312,0.0026603,0.0010107,-0.00435823,0.718265,0.00329447,0.0138993,1889,1422,14.4709,-6.72376
672,-398,14.465,6.47229,-0.00171378,-0.00281905,0.00362656,0.00140201,-0.00593484,0.709787,0.00449734,0.0125809,1896,1422,14.465,-6.47226
679,-398,14.4525,6.22314,-0.00201102,-0.00407534,0.00496251,0.00202553,-0.00811189,0.682864,0.00619449,0.0119189,1903,1422,14.4525,-6.2231
686,-398,14.4895,6.0022,-0.00211123,-0.00608064,0.00677923,0.00296784,-0.0111597,0.642996,0.00860149,0.0200106,1910,1422,14.4895,-6.00222
693,-398,14.2816,6.2384,-0.00153313,-0.00910356,0.00935438,0.00477285,-0.0154095,0.593145,0.0121798,0.0491804,1917,1422,14.2816,-6.23838
700,-398,14.0787,6.53918,0,0,0,0,0,0,0,-1,1924,1422,14.0787,-6.53921
707,-398,10.9731,5.479,0,0,0,0,0,0,0,-1,1931,1422,10.9732,-5.47896
714,-398,11.7313,6.17346,0,0,0,0,0,0,0,-1,1938,1422,11.7313,-6.17348
721,-398,13.9371,8.05103,0,0,0,0,0,0,0,-1,1945,1422,13.9372,-8.05102
728,-398,14.786,7.0282,0,0,0,0,0,0,0,-1,1952,1422,14.786,-7.0282
735,-398,0,0,0,0,0,0,0,0,0,-1,1959,1422,0,0
742,-398,0,0,0,0,0,0,0,0,0,-1,1966,1422,0,0
749,-398,0,0,0,0,0,0,0,0,0,-1,1973,1422,0,0
756,-398,0,0,0,0,0,0,0,0,0,-1,1980,1422,0,0
763,-398,0,0,0,0,0,0,0,0,0,-1,1987,1422,0,0
770,-398,0,0,0,0,0,0,0,0,0,-1,1994,1422,0,0
777,-398,0,0,0,0,0,0,0,0,0,-1,2001,1422,0,0
784,-398,0,0,0,0,0,0,0,0,0,-1,2008,1422,0,0
791,-398,0,0,0,0,0,0,0,0,0,-1,2015,1422,0,0
798,-398,0,0,0,0,0,0,0,0,0,-1,2022,1422,0,0
805,-398,0,0,0,0,0,0,0,0,0,-1,2029,1422,0,0
812,-398,0,0,0,0,0,0,0,0,0,-1,2036,1422,0,0
-700,-405,0,0,0,0,0,0,0,0,0,-1,524,1429,0,0
-693,-405,0,0,0,0,0,0,0,0,0,-1,531,1429,0,0
-686,-405,0,0,0,0,0,0,0,0,0,-1,538,1429,0,0
-679,-405,0,0,0,0,0,0,0,0,0,-1,545,1429,0,0
-672,-405,0,0,0,0,0,0,0,0,0,-1,552,1429,0,0
-665,-405,0,0,0,0,0,0,0,0,0,-1,559,1429,0,0
-658,-405,0,0,0,0,0,0,0,0,0,-1,566,1429,0,0
-651,-405,0,0,0,0,0,0,0,0,0,-1,573,1429,0,0
-644,-405,0,0,0,0,0,0,0,0,0,-1,580,1429,0,0
-637,-405,0,0,0,0,0,0,0,0,0,-1,587,1429,0,0
-630,-405,0,0,0,0,0,0,0,0,0,-1,594,1429,0,0
-623,-405,0,0,0,0,0,0,0,0,0,-1,601,1429,0,0
-616,-405,0,0,0,0,0,0,0,0,0,-1,608,1429,0,0
-609,-405,0,0,0,0,0,0,0,0,0,-1,615,1429,0,0
-602,-405,-5.80988,-3.46594,0,0,0,0,0,0,0,-1,622,1429,-5.80987,3.46592
-595,-405,-9.35413,2.01477,0,0,0,0,0,0,0,-1,629,1429,-9.35411,-2.01476
-588,-405,-6.00085,-0.543335,0,0,0,0,0,0,0,-1,636,1429,-6.00088,0.543394
-581,-405,-5.81323,0.708984,0,0,0,0,0,0,0,-1,643,1429,-5.81325,-0.708986
-574,-405,-5.17365,1.98779,0,0,0,0,0,0,0,-1,650,1429,-5.17367,-1.9878
-567,-405,-5.01068,3.2876,0,0,0,0,0,0,0,-1,657,1429,-5.01069,-3.28766
-560,-405,-4.92444,3.32935,0,0,0,0,0,0,0,-1,664,1429,-4.92444,-3.32929
-553,-405,-5.00092,4.0155,-0.013905,0.00540754,0.000458201,0.0054184,-0.0139158,1.54709,0.0115164,0.0467676,671,1429,-5.00095,-4.01552
-546,-405,-5.2027,4.23218,-0.0104423,0.0033285,-3.94622e-05,0.00332861,-0.0104424,-1.56793,0.0082968,0.0247491,678,1429,-5.20269,-4.23214
-539,-405,-5.21252,4.50073,-0.00735019,0.00205471,-0.000107566,0.00205594,-0.00735142,-1.55936,0.00571098,0.0109325,685,1429,-5.21255,-4.50078
-532,-405,-5.21136,4.78052,-0.00479792,0.000935507,-0.000235803,0.000945189,-0.0048076,-1.52976,0.00356217,0.0148784,692,1429,-5.21137,-4.7805
-525,-405,-5.21204,5.07385,-0.00247436,0.000593818,-1.28322e-05,0.000593871,-0.00247441,-1.56661,0.00187911,0.0153892,699,1429,-5.21205,-5.07384
-518,-405,-5.19977,5.34302,-0.000678425,0.000158639,0.000230573,0.000217949,-0.000737735,1.31903,0.000578329,0.016053,706,1429,-5.1998,-5.34306
-511,-405,-5.22693,5.59839,0.000621584,-0.000557093,0.000130347,0.000635826,-0.000571335,0.108835,0.000697287,0.0152725,713,1429,-5.2269,-5.59838
-504,-405,-5.21588,5.8656,0.00167343,-0.00110962,-9.42002e-05,0.00167661,-0.00111281,-0.0337963,0.0016214,0.0164646,720,1429,-5.21589,-5.86556
-497,-405,-5.18677,6.1615,0.00240833,-0.0021238,-0.000650081,0.00249973,-0.00221521,-0.139687,0.00272382,0.0140286,727,1429,-5.18676,-6.1615
-490,-405,-5.21588,6.43896,0.00271621,-0.00425874,-0.00163477,0.00308036,-0.00462288,-0.21917,0.00447709,0.0114828,734,1429,-5.21586,-6.43898
-483,-405,-5.18732,6.72791,0.00276556,-0.00669973,-0.00315096,0.00371855,-0.00765273,-0.293699,0.0066949,0.0117697,741,1429,-5.18734,-6.72795
-476,-405,-5.11633,6.96643,0.00282211,-0.0101382,-0.00501839,0.0045381,-0.0118542,-0.329476,0.00977323,0.0300944,748,1429,-5.11631,-6.96647
-469,-405,-5.1391,7.11011,0.0028294,-0.0148677,-0.00755989,0.00561909,-0.0176574,-0.353511,0.014025,0.0407789,755,1429,-5.13908,-7.11009
-462,-405,-5.3927,7.24072,0.00238916,-0.0216369,-0.0114744,0.00698863,-0.0262364,-0.381235,0.020227,0.0447741,762,1429,-5.3927,-7.24072
-455,-405,-5.49945,7.42383,0,0,0,0,0,0,0,-1,769,1429,-5.49947,-7.42388
-448,-405,-6.44812,6.12097,0,0,0,0,0,0,0,-1,776,1429,-6.44811,-6.12098
-441,-405,-6.6712,4.23767,0,0,0,0,0,0,0,-1,783,1429,-6.67121,-4.23764
-434,-405,-9.62549,3.94189,0,0,0,0,0,0,0,-1,790,1429,-9.62546,-3.94191
-427,-405,-10.9764,3.73926,0,0,0,0,0,0,0,-1,797,1429,-10.9764,-3.73923
-420,-405,-12.1187,3.68506,0,0,0,0,0,0,0,-1,804,1429,-12.1187,-3.68512
-413,-405,-13.5353,3.75659,0,0,0,0,0,0,0,-1,811,1429,-13.5353,-3.75655
-406,-405,-14.7374,3.99817,0,0,0,0,0,0,0,-1,818,1429,-14.7374,-3.99814
-399,-405,0,0,0,0,0,0,0,0,0,-1,825,1429,0,0
-392,-405,0,0,0,0,0,0,0,0,0,-1,832,1429,0,0
-385,-405,0,0,0,0,0,0,0,0,0,-1,839,1429,0,0
-378,-405,0,0,0,0,0,0,0,0,0,-1,846,1429,0,0
-371,-405,0,0,0,0,0,0,0,0,0,-1,853,1429,0,0
-364,-405,0,0,0,0,0,0,0,0,0,-1,860,1429,0,0
-357,-405,0,0,0,0,0,0,0,0,0,-1,867,1429,0,0
-350,-405,0,0,0,0,0,0,0,0,0,-1,874,1429,0,0
-343,-405,0,0,0,0,0,0,0,0,0,-1,881,1429,0,0
-336,-405,0,0,0,0,0,0,0,0,0,-1,888,1429,0,0
-329,-405,0,0,0,0,0,0,0,0,0,-1,895,1429,0,0
-322,-405,0,0,0,0,0,0,0,0,0,-1,902,1429,0,0
-315,-405,0,0,0,0,0,0,0,0,0,-1,909,1429,0,0
-308,-405,0,0,0,0,0,0,0,0,0,-1,916,1429,0,0
-301,-405,0,0,0,0,0,0,0,0,0,-1,923,1429,0,0
-294,-405,0,0,0,0,0,0,0,0,0,-1,930,1429,0,0
-287,-405,0,0,0,0,0,0,0,0,0,-1,937,1429,0,0
-280,-405,0,0,0,0,0,0,0,0,0,-1,944,1429,0,0
-273,-405,0,0,0,0,0,0,0,0,0,-1,951,1429,0,0
-266,-405,0,0,0,0,0,0,0,0,0,-1,958,1429,0,0
-259,-405,0,0,0,0,0,0,0,0,0,-1,965,1429,0,0
-252,-405,0,0,0,0,0,0,0,0,0,-1,972,1429,0,0
-245,-405,0,0,0,0,0,0,0,0,0,-1,979,1429,0,0
-238,-405,0,0,0,0,0,0,0,0,0,-1,986,1429,0,0
-231,-405,0,0,0,0,0,0,0,0,0,-1,993,1429,0,0
-224,-405,0,0,0,0,0,0,0,0,0,-1,1000,1429,0,0
-217,-405,0,0,0,0,0,0,0,0,0,-1,1007,1429,0,0
-210,-405,0,0,0,0,0,0,0,0,0,-1,1014,1429,0,0
-203,-405,0,0,0,0,0,0,0,0,0,-1,1021,1429,0,0
-196,-405,0,0,0,0,0,0,0,0,0,-1,1028,1429,0,0
-189,-405,0,0,0,0,0,0,0,0,0,-1,1035,1429,0,0
-182,-405,0,0,0,0,0,0,0,0,0,-1,1042,1429,0,0
-175,-405,0,0,0,0,0,0,0,0,0,-1,1049,1429,0,0
-168,-405,0,0,0,0,0,0,0,0,0,-1,1056,1429,0,0
-161,-405,0,0,0,0,0,0,0,0,0,-1,1063,1429,0,0
-154,-405,0,0,0,0,0,0,0,0,0,-1,1070,1429,0,0
-147,-405,0,0,0,0,0,0,0,0,0,-1,1077,1429,0,0
-140,-405,0,0,0,0,0,0,0,0,0,-1,1084,1429,0,0
-133,-405,0,0,0,0,0,0,0,0,0,-1,1091,1429,0,0
-126,-405,0,0,0,0,0,0,0,0,0,-1,1098,1429,0,0
-119,-405,0,0,0,0,0,0,0,0,0,-1,1105,1429,0,0
-112,-405,0,0,0,0,0,0,0,0,0,-1,1112,1429,0,0
-105,-405,0,0,0,0,0,0,0,0,0,-1,1119,1429,0,0
-98,-405,0,0,0,0,0,0,0,0,0,-1,1126,1429,0,0
-91,-405,0,0,0,0,0,0,0,0,0,-1,1133,1429,0,0
-84,-405,0,0,0,0,0,0,0,0,0,-1,1140,1429,0,0
-77,-405,0,0,0,0,0,0,0,0,0,-1,1147,1429,0,0
-70,-405,0,0,0,0,0,0,0,0,0,-1,1154,1429,0,0
-63,-405,0,0,0,0,0,0,0,0,0,-1,1161,1429,0,0
-56,-405,0,0,0,0,0,0,0,0,0,-1,1168,1429,0,0
-49,-405,0,0,0,0,0,0,0,0,0,-1,1175,1429,0,0
-42,-405,0,0,0,0,0,0,0,0,0,-1,1182,1429,0,0
-35,-405,0,0,0,0,0,0,0,0,0,-1,1189,1429,0,0
-28,-405,0,0,0,0,0,0,0,0,0,-1,1196,1429,0,0
-21,-405,0,0,0,0,0,0,0,0,0,-1,1203,1429,0,0
-14,-405,0,0,0,0,0,0,0,0,0,-1,1210,1429,0,0
-7,-405,0,0,0,0,0,0,0,0,0,-1,1217,1429,0,0
0,-405,0,0,0,0,0,0,0,0,0,-1,1224,1429,0,0
7,-405,0,0,0,0,0,0,0,0,0,-1,1231,1429,0,0
14,-405,0,0,0,0,0,0,0,0,0,-1,1238,1429,0,0
21,-405,0,0,0,0,0,0,0,0,0,-1,1245,1429,0,0
28,-405,0,0,0,0,0,0,0,0,0,-1,1252,1429,0,0
35,-405,0,0,0,0,0,0,0,0,0,-1,1259,1429,0,0
42,-405,0,0,0,0,0,0,0,0,0,-1,1266,1429,0,0
49,-405,0,0,0,0,0,0,0,0,0,-1,1273,1429,0,0
56,-405,0,0,0,0,0,0,0,0,0,-1,1280,1429,0,0
63,-405,0,0,0,0,0,0,0,0,0,-1,1287,1429,0,0
70,-405,0,0,0,0,0,0,0,0,0,-1,1294,1429,0,0
77,-405,0,0,0,0,0,0,0,0,0,-1,1301,1429,0,0
84,-405,0,0,0,0,0,0,0,0,0,-1,1308,1429,0,0
91,-405,0,0,0,0,0,0,0,0,0,-1,1315,1429,0,0
98,-405,0,0,0,0,0,0,0,0,0,-1,1322,1429,0,0
105,-405,0,0,0,0,0,0,0,0,0,-1,1329,1429,0,0
112,-405,0,0,0,0,0,0,0,0,0,-1,1336,1429,0,0
119,-405,0,0,0,0,0,0,0,0,0,-1,1343,1429,0,0
126,-405,0,0,0,0,0,0,0,0,0,-1,1350,1429,0,0
133,-405,0,0,0,0,0,0,0,0,0,-1,1357,1429,0,0
140,-405,0,0,0,0,0,0,0,0,0,-1,1364,1429,0,0
147,-405,0,0,0,0,0,0,0,0,0,-1,1371,1429,0,0
154,-405,0,0,0,0,0,0,0,0,0,-1,1378,1429,0,0
161,-405,0,0,0,0,0,0,0,0,0,-1,1385,1429,0,0
168,-405,0,0,0,0,0,0,0,0,0,-1,1392,1429,0,0
175,-405,0,0,0,0,0,0,0,0,0,-1,1399,1429,0,0
182,-405,0,0,0,0,0,0,0,0,0,-1,1406,1429,0,0
189,-405,0,0,0,0,0,0,0,0,0,-1,1413,1429,0,0
196,-405,0,0,0,0,0,0,0,0,0,-1,1420,1429,0,0
203,-405,0,0,0,0,0,0,0,0,0,-1,1427,1429,0,0
210,-405,0,0,0,0,0,0,0,0,0,-1,1434,1429,0,0
217,-405,0,0,0,0,0,0,0,0,0,-1,1441,1429,0,0
224,-405,0,0,0,0,0,0,0,0,0,-1,1448,1429,0,0
231,-405,0,0,0,0,0,0,0,0,0,-1,1455,1429,0,0
238,-405,0,0,0,0,0,0,0,0,0,-1,1462,1429,0,0
245,-405,0,0,0,0,0,0,0,0,0,-1,1469,1429,0,0
252,-405,0,0,0,0,0,0,0,0,0,-1,1476,1429,0,0
259,-405,0,0,0,0,0,0,0,0,0,-1,1483,1429,0,0
266,-405,0,0,0,0,0,0,0,0,0,-1,1490,1429,0,0
273,-405,0,0,0,0,0,0,0,0,0,-1,1497,1429,0,0
280,-405,0,0,0,0,0,0,0,0,0,-1,1504,1429,0,0
287,-405,0,0,0,0,0,0,0,0,0,-1,1511,1429,0,0
294,-405,0,0,0,0,0,0,0,0,0,-1,1518,1429,0,0
301,-405,0,0,0,0,0,0,0,0,0,-1,1525,1429,0,0
308,-405,0,0,0,0,0,0,0,0,0,-1,1532,1429,0,0
315,-405,0,0,0,0,0,0,0,0,0,-1,1539,1429,0,0
322,-405,0,0,0,0,0,0,0,0,0,-1,1546,1429,0,0
329,-405,0,0,0,0,0,0,0,0,0,-1,1553,1429,0,0
336,-405,0,0,0,0,0,0,0,0,0,-1,1560,1429,0,0
343,-405,0,0,0,0,0,0,0,0,0,-1,1567,1429,0,0
350,-405,0,0,0,0,0,0,0,0,0,-1,1574,1429,0,0
357,-405,0,0,0,0,0,0,0,0,0,-1,1581,1429,0,0
364,-405,0,0,0,0,0,0,0,0,0,-1,1588,1429,0,0
371,-405,0,0,0,0,0,0,0,0,0,-1,1595,1429,0,0
378,-405,0,0,0,0,0,0,0,0,0,-1,1602,1429,0,0
385,-405,0,0,0,0,0,0,0,0,0,-1,1609,1429,0,0
392,-405,0,0,0,0,0,0,0,0,0,-1,1616,1429,0,0
399,-405,0,0,0,0,0,0,0,0,0,-1,1623,1429,0,0
406,-405,0,0,0,0,0,0,0,0,0,-1,1630,1429,0,0
413,-405,0,0,0,0,0,0,0,0,0,-1,1637,1429,0,0
420,-405,0,0,0,0,0,0,0,0,0,-1,1644,1429,0,0
427,-405,0,0,0,0,0,0,0,0,0,-1,1651,1429,0,0
434,-405,0,0,0,0,0,0,0,0,0,-1,1658,1429,0,0
441,-405,0,0,0,0,0,0,0,0,0,-1,1665,1429,0,0
448,-405,0,0,0,0,0,0,0,0,0,-1,1672,1429,0,0
455,-405,0,0,0,0,0,0,0,0,0,-1,1679,1429,0,0
462,-405,0,0,0,0,0,0,0,0,0,-1,1686,1429,0,0
469,-405,0,0,0,0,0,0,0,0,0,-1,1693,1429,0,0
476,-405,0,0,0,0,0,0,0,0,0,-1,1700,1429,0,0
483,-405,0,0,0,0,0,0,0,0,0,-1,1707,1429,0,0
490,-405,0,0,0,0,0,0,0,0,0,-1,1714,1429,0,0
497,-405,0,0,0,0,0,0,0,0,0,-1,1721,1429,0,0
504,-405,0,0,0,0,0,0,0,0,0,-1,1728,1429,0,0
511,-405,0,0,0,0,0,0,0,0,0,-1,1735,1429,0,0
518,-405,0,0,0,0,0,0,0,0,0,-1,1742,1429,0,0
525,-405,14.6423,1.7583,0,0,0,0,0,0,0,-1,1749,1429,14.6424,-1.75824
532,-405,22.7542,1.85034,0,0,0,0,0,0,0,-1,1756,1429,22.7541,-1.85038
539,-405,21.1149,1.93384,0,0,0,0,0,0,0,-1,1763,1429,21.1149,-1.93381
546,-405,20.1537,2.11157,0,0,0,0,0,0,0,-1,1770,1429,20.1537,-2.11163
553,-405,19.1523,2.2356,0,0,0,0,0,0,0,-1,1777,1429,19.1523,-2.23566
560,-405,17.9702,2.44043,0,0,0,0,0,0,0,-1,1784,1429,17.9703,-2.44041
567,-405,16.8976,3.23425,0,0,0,0,0,0,0,-1,1791,1429,16.8976,-3.2343
574,-405,16.168,4.06287,0,0,0,0,0,0,0,-1,1798,1429,16.168,-4.06291
581,-405,15.5306,4.74963,0,0,0,0,0,0,0,-1,1805,1429,15.5306,-4.74958
588,-405,17.1189,7.43933,0,0,0,0,0,0,0,-1,1812,1429,17.1189,-7.43928
595,-405,15.8348,8.05542,0,0,0,0,0,0,0,-1,1819,1429,15.8349,-8.05547
602,-405,15.0325,8.26855,-0.0288301,-0.0240463,0.0218759,-0.00443191,-0.0484445,0.839852,0.0309251,0.0439052,1826,1429,15.0325,-8.26859
609,-405,14.2634,8.58496,-0.0211988,-0.0171856,0.0161167,-0.00295111,-0.0354333,0.847332,0.0227026,0.0214579,1833,1429,14.2634,-8.58498
616,-405,14.2164,8.43677,-0.0150066,-0.011734,0.0115551,-0.00169989,-0.0250407,0.855735,0.016157,0.00996681,1840,1429,14.2164,-8.43675
623,-405,14.1975,8.18396,-0.0100448,-0.00780493,0.00800783,-0.000839117,-0.0170106,0.854876,0.0110713,0.00893339,1847,1429,14.1975,-8.18396
630,-405,14.2174,7.91748,-0.00651055,-0.00534957,0.00533708,-0.000561511,-0.0112986,0.839568,0.00735239,0.0101772,1854,1429,14.2174,-7.91746
637,-405,14.223,7.66077,-0.00418003,-0.00353075,0.00359299,-0.000247768,-0.00746301,0.830453,0.00489484,0.0111328,1861,1429,14.223,-7.66077
644,-405,14.1334,7.44739,-0.00277832,-0.00245301,0.00264156,3.08931e-05,-0.00526223,0.816147,0.00351849,0.0282419,1868,1429,14.1335,-7.44733
651,-405,14.1096,7.20715,-0.00192246,-0.00168876,0.00203632,0.00023406,-0.00384528,0.814057,0.002645,0.03086,1875,1429,14.1097,-7.20713
658,-405,14.1989,6.96277,-0.00176789,-0.00160138,0.00214413,0.000461114,-0.00383038,0.804803,0.00272035,0.0213149,1882,1429,14.1989,-6.96273
665,-405,14.2411,6.73132,-0.00208865,-0.00211883,0.00295218,0.000848477,-0.00505595,0.782842,0.00368616,0.0176016,1889,1429,14.2411,-6.73131
672,-405,14.2584,6.48901,-0.0028922,-0.00302255,0.00415767,0.0012008,-0.00711556,0.777561,0.00519048,0.0220446,1896,1429,14.2584,-6.48902
679,-405,14.2693,6.21692,-0.00366888,-0.00443454,0.00578146,0.0017424,-0.00984583,0.752338,0.00721516,0.0209774,1903,1429,14.2693,-6.21693
686,-405,14.187,5.98364,-0.00441233,-0.00670304,0.00802629,0.00254991,-0.0136653,0.714527,0.0100684,0.0365882,1910,1429,14.187,-5.9837
693,-405,14.0591,5.91687,0,0,0,0,0,0,0,-1,1917,1429,14.0591,-5.91685
700,-405,9.1958,4.02026,0,0,0,0,0,0,0,-1,1924,1429,9.19579,-4.02025
707,-405,7.40308,3.83191,0,0,0,0,0,0,0,-1,1931,1429,7.40311,-3.83194
714,-405,7.33252,3.47388,0,0,0,0,0,0,0,-1,1938,1429,7.33255,-3.47383
721,-405,9.23523,0.993896,0,0,0,0,0,0,0,-1,1945,1429,9.23523,-0.993884
728,-405,0,0,0,0,0,0,0,0,0,-1,1952,1429,0,0
735,-405,0,0,0,0,0,0,0,0,0,-1,1959,1429,0,0
742,-405,0,0,0,0,0,0,0,0,0,-1,1966,1429,0,0
749,-405,0,0,0,0,0,0,0,0,0,-1,1973,1429,0,0
756,-405,0,0,0,0,0,0,0,0,0,-1,1980,1429,0,0
763,-405,0,0,0,0,0,0,0,0,0,-1,1987,1429,0,0
770,-405,0,0,0,0,0,0,0,0,0,-1,1994,1429,0,0
777,-405,0,0,0,0,0,0,0,0,0,-1,2001,1429,0,0
784,-405,0,0,0,0,0,0,0,0,0,-1,2008,1429,0,0
791,-405,0,0,0,0,0,0,0,0,0,-1,2015,1429,0,0
798,-405,0,0,0,0,0,0,0,0,0,-1,2022,1429,0,0
805,-405,0,0,0,0,0,0,0,0,0,-1,2029,1429,0,0
812,-405,0,0,0,0,0,0,0,0,0,-1,2036,1429,0,0
-700,-412,0,0,0,0,0,0,0,0,0,-1,524,1436,0,0
-693,-412,0,0,0,0,0,0,0,0,0,-1,531,1436,0,0
-686,-412,0,0,0,0,0,0,0,0,0,-1,538,1436,0,0
-679,-412,0,0,0,0,0,0,0,0,0,-1,545,1436,0,0
-672,-412,0,0,0,0,0,0,0,0,0,-1,552,1436,0,0
-665,-412,0,0,0,0,0,0,0,0,0,-1,559,1436,0,0
-658,-412,0,0,0,0,0,0,0,0,0,-1,566,1436,0,0
-651,-412,0,0,0,0,0,0,0,0,0,-1,573,1436,0,0
-644,-412,0,0,0,0,0,0,0,0,0,-1,580,1436,0,0
-637,-412,0,0,0,0,0,0,0,0,0,-1,587,1436,0,0
-630,-412,0,0,0,0,0,0,0,0,0,-1,594,1436,0,0
-623,-412,0,0,0,0,0,0,0,0,0,-1,601,1436,0,0
-616,-412,0,0,0,0,0,0,0,0,0,-1,608,1436,0,0
-609,-412,0,0,0,0,0,0,0,0,0,-1,615,1436,0,0
-602,-412,-3.72766,-3.50012,0,0,0,0,0,0,0,-1,622,1436,-3.72764,3.50017
-595,-412,-10.3706,0.65564,0,0,0,0,0,0,0,-1,629,1436,-10.3706,-0.655672
-588,-412,-8.17957,1.94934,0,0,0,0,0,0,0,-1,636,1436,-8.17956,-1.94939
-581,-412,-6.60065,-0.0554199,0,0,0,0,0,0,0,-1,643,1436,-6.60063,0.0554733
-574,-412,-5.41547,3.68811,0,0,0,0,0,0,0,-1,650,1436,-5.41549,-3.68817
-567,-412,-4.06519,2.4209,0,0,0,0,0,0,0,-1,657,1436,-4.06521,-2.42089
-560,-412,-4.45642,3.76404,0,0,0,0,0,0,0,-1,664,1436,-4.45644,-3.76401
-553,-412,-4.52002,4.12,-0.0102127,0.00664255,0.00283154,0.00710551,-0.0106756,1.40873,0.0103347,0.0451263,671,1436,-4.52005,-4.12005
-546,-412,-4.7453,4.36951,-0.00731944,0.00441997,0.00213628,0.00479663,-0.0076961,1.39627,0.00727715,0.0362982,678,1436,-4.74533,-4.36949
-539,-412,-4.92157,4.46936,-0.00482041,0.00303575,0.00179698,0.00342727,-0.00521193,1.35627,0.00502319,0.0164668,685,1436,-4.92158,-4.46931
-532,-412,-4.92395,4.78418,-0.00289266,0.00181517,0.00141599,0.00220825,-0.00328573,1.30002,0.00319222,0.0131622,692,1436,-4.92393,-4.78417
-525,-412,-4.93182,5.08081,-0.00119846,0.00139849,0.00130472,0.00194076,-0.00174073,1.1769,0.00212656,0.0159345,699,1436,-4.93183,-5.08084
-518,-412,-4.92535,5.35498,1.56574e-05,0.000835022,0.00116707,0.00166223,-0.000811552,0.954196,0.00145612,0.0167321,706,1436,-4.92533,-5.35503
-511,-412,-4.95654,5.61804,0.000834065,1.15763e-05,0.000750711,0.00127879,-0.000433152,0.534819,0.0010278,0.0189164,713,1436,-4.95656,-5.61808
-504,-412,-4.95496,5.90222,0.00145768,-0.000652642,0.000235341,0.0014836,-0.000678568,0.109723,0.00127685,0.0185668,720,1436,-4.95498,-5.90221
-497,-412,-4.93176,6.18726,0.0019269,-0.00166128,-0.000481566,0.00199041,-0.00172478,-0.131118,0.00214679,0.0144202,727,1436,-4.93179,-6.18726
-490,-412,-4.94128,6.4397,0.00206973,-0.00377799,-0.00151678,0.00243974,-0.004148,-0.239271,0.00384582,0.0117823,734,1436,-4.94131,-6.43969
-483,-412,-4.93317,6.69873,0.0021453,-0.00611943,-0.00296563,0.00309933,-0.00707346,-0.31124,0.0060208,0.00861741,741,1436,-4.93315,-6.69878
-476,-412,-4.84143,7.04907,0.0023573,-0.0093983,-0.00461498,0.00395256,-0.0109936,-0.332811,0.00894262,0.0172978,748,1436,-4.8414,-7.04912
-469,-412,-4.84882,7.23682,0.00272947,-0.0136837,-0.00664255,0.00508089,-0.0160352,-0.340228,0.0127264,0.0291637,755,1436,-4.84884,-7.23686
-462,-412,-4.85468,7.32764,0.00285447,-0.0194098,-0.0097464,0.00651817,-0.0230735,-0.359562,0.0179539,0.0382381,762,1436,-4.85466,-7.32766
-455,-412,-4.86206,7.47644,0,0,0,0,0,0,0,-1,769,1436,-4.86206,-7.47643
-448,-412,-5.81293,6.79871,0,0,0,0,0,0,0,-1,776,1436,-5.81292,-6.79867
-441,-412,-5.73053,5.97913,0,0,0,0,0,0,0,-1,783,1436,-5.73056,-5.97912
-434,-412,-7.16119,5.89392,0,0,0,0,0,0,0,-1,790,1436,-7.16121,-5.89396
-427,-412,-10.0004,5.15271,0,0,0,0,0,0,0,-1,797,1436,-10.0004,-5.15266
-420,-412,-10.4468,4.9043,0,0,0,0,0,0,0,-1,804,1436,-10.4468,-4.90429
-413,-412,-11.5704,4.97766,0,0,0,0,0,0,0,-1,811,1436,-11.5704,-4.97771
-406,-412,-13.1968,5.70093,0,0,0,0,0,0,0,-1,818,1436,-13.1968,-5.70096
-399,-412,-10.5506,0.771973,0,0,0,0,0,0,0,-1,825,1436,-10.5506,-0.771954
-392,-412,0,0,0,0,0,0,0,0,0,-1,832,1436,0,0
-385,-412,0,0,0,0,0,0,0,0,0,-1,839,1436,0,0
-378,-412,0,0,0,0,0,0,0,0,0,-1,846,1436,0,0
-371,-412,0,0,0,0,0,0,0,0,0,-1,853,1436,0,0
-364,-412,0,0,0,0,0,0,0,0,0,-1,860,1436,0,0
-357,-412,0,0,0,0,0,0,0,0,0,-1,867,1436,0,0
-350,-412,0,0,0,0,0,0,0,0,0,-1,874,1436,0,0
-343,-412,0,0,0,0,0,0,0,0,0,-1,881,1436,0,0
-336,-412,0,0,0,0,0,0,0,0,0,-1,888,1436,0,0
-329,-412,0,0,0,0,0,0,0,0,0,-1,895,1436,0,0
-322,-412,0,0,0,0,0,0,0,0,0,-1,902,1436,0,0
-315,-412,0,0,0,0,0,0,0,0,0,-1,909,1436,0,0
-308,-412,0,0,0,0,0,0,0,0,0,-1,916,1436,0,0
-301,-412,0,0,0,0,0,0,0,0,0,-1,923,1436,0,0
-294,-412,0,0,0,0,0,0,0,0,0,-1,930,1436,0,0
-287,-412,0,0,0,0,0,0,0,0,0,-1,937,1436,0,0
-280,-412,0,0,0,0,0,0,0,0,0,-1,944,1436,0,0
-273,-412,0,0,0,0,0,0,0,0,0,-1,951,1436,0,0
-266,-412,0,0,0,0,0,0,0,0,0,-1,958,1436,0,0
-259,-412,0,0,0,0,0,0,0,0,0,-1,965,1436,0,0
-252,-412,0,0,0,0,0,0,0,0,0,-1,972,1436,0,0
-245,-412,0,0,0,0,0,0,0,0,0,-1,979,1436,0,0
-238,-412,0,0,0,0,0,0,0,0,0,-1,986,1436,0,0
-231,-412,0,0,0,0,0,0,0,0,0,-1,993,1436,0,0
-224,-412,0,0,0,0,0,0,0,0,0,-1,1000,1436,0,0
-217,-412,0,0,0,0,0,0,0,0,0,-1,1007,1436,0,0
-210,-412,0,0,0,0,0,0,0,0,0,-1,1014,1436,0,0
-203,-412,0,0,0,0,0,0,0,0,0,-1,1021,1436,0,0
-196,-412,0,0,0,0,0,0,0,0,0,-1,1028,1436,0,0
-189,-412,0,0,0,0,0,0,0,0,0,-1,1035,1436,0,0
-182,-412,0,0,0,0,0,0,0,0,0,-1,1042,1436,0,0
-175,-412,0,0,0,0,0,0,0,0,0,-1,1049,1436,0,0
-168,-412,0,0,0,0,0,0,0,0,0,-1,1056,1436,0,0
-161,-412,0,0,0,0,0,0,0,0,0,-1,1063,1436,0,0
-154,-412,0,0,0,0,0,0,0,0,0,-1,1070,1436,0,0
-147,-412,0,0,0,0,0,0,0,0,0,-1,1077,1436,0,0
-140,-412,0,0,0,0,0,0,0,0,0,-1,1084,1436,0,0
-133,-412,0,0,0,0,0,0,0,0,0,-1,1091,1436,0,0
-126,-412,0,0,0,0,0,0,0,0,0,-1,1098,1436,0,0
-119,-412,0,0,0,0,0,0,0,0,0,-1,1105,1436,0,0
-112,-412,0,0,0,0,0,0,0,0,0,-1,1112,1436,0,0
-105,-412,0,0,0,0,0,0,0,0,0,-1,1119,1436,0,0
-98,-412,0,0,0,0,0,0,0,0,0,-1,1126,1436,0,0
-91,-412,0,0,0,0,0,0,0,0,0,-1,1133,1436,0,0
-84,-412,0,0,0,0,0,0,0,0,0,-1,1140,1436,0,0
-77,-412,0,0,0,0,0,0,0,0,0,-1,1147,1436,0,0
-70,-412,0,0,0,0,0,0,0,0,0,-1,1154,1436,0,0
-63,-412,0,0,0,0,0,0,0,0,0,-1,1161,1436,0,0
-56,-412,0,0,0,0,0,0,0,0,0,-1,1168,1436,0,0
-49,-412,0,0,0,0,0,0,0,0,0,-1,1175,1436,0,0
-42,-412,0,0,0,0,0,0,0,0,0,-1,1182,1436,0,0
-35,-412,0,0,0,0,0,0,0,0,0,-1,1189,1436,0,0
-28,-412,0,0,0,0,0,0,0,0,0,-1,1196,1436,0,0
-21,-412,0,0,0,0,0,0,0,0,0,-1,1203,1436,0,0
-14,-412,0,0,0,0,0,0,0,0,0,-1,1210,1436,0,0
-7,-412,0,0,0,0,0,0,0,0,0,-1,1217,1436,0,0
0,-412,0,0,0,0,0,0,0,0,0,-1,1224,1436,0,0
7,-412,0,0,0,0,0,0,0,0,0,-1,1231,1436,0,0
14,-412,0,0,0,0,0,0,0,0,0,-1,1238,1436,0,0
21,-412,0,0,0,0,0,0,0,0,0,-1,1245,1436,0,0
28,-412,0,0,0,0,0,0,0,0,0,-1,1252,1436,0,0
35,-412,0,0,0,0,0,0,0,0,0,-1,1259,1436,0,0
42,-412,0,0,0,0,0,0,0,0,0,-1,1266,1436,0,0
49,-412,0,0,0,0,0,0,0,0,0,-1,1273,1436,0,0
56,-412,0,0,0,0,0,0,0,0,0,-1,1280,1436,0,0
63,-412,0,0,0,0,0,0,0,0,0,-1,1287,1436,0,0
70,-412,0,0,0,0,0,0,0,0,0,-1,1294,1436,0,0
77,-412,0,0,0,0,0,0,0,0,0,-1,1301,1436,0,0
84,-412,0,0,0,0,0,0,0,0,0,-1,1308,1436,0,0
91,-412,0,0,0,0,0,0,0,0,0,-1,1315,1436,0,0
98,-412,0,0,0,0,0,0,0,0,0,-1,1322,1436,0,0
105,-412,0,0,0,0,0,0,0,0,0,-1,1329,1436,0,0
112,-412,0,0,0,0,0,0,0,0,0,-1,1336,1436,0,0
119,-412,0,0,0,0,0,0,0,0,0,-1,1343,1436,0,0
126,-412,0,0,0,0,0,0,0,0,0,-1,1350,1436,0,0
133,-412,0,0,0,0,0,0,0,0,0,-1,1357,1436,0,0
140,-412,0,0,0,0,0,0,0,0,0,-1,1364,1436,0,0
147,-412,0,0,0,0,0,0,0,0,0,-1,1371,1436,0,0
154,-412,0,0,0,0,0,0,0,0,0,-1,1378,1436,0,0
161,-412,0,0,0,0,0,0,0,0,0,-1,1385,1436,0,0
168,-412,0,0,0,0,0,0,0,0,0,-1,1392,1436,0,0
175,-412,0,0,0,0,0,0,0,0,0,-1,1399,1436,0,0
182,-412,0,0,0,0,0,0,0,0,0,-1,1406,1436,0,0
189,-412,0,0,0,0,0,0,0,0,0,-1,1413,1436,0,0
196,-412,0,0,0,0,0,0,0,0,0,-1,1420,1436,0,0
203,-412,0,0,0,0,0,0,0,0,0,-1,1427,1436,0,0
210,-412,0,0,0,0,0,0,0,0,0,-1,1434,1436,0,0
217,-412,0,0,0,0,0,0,0,0,0,-1,1441,1436,0,0
224,-412,0,0,0,0,0,0,0,0,0,-1,1448,1436,0,0
231,-412,0,0,0,0,0,0,0,0,0,-1,1455,1436,0,0
238,-412,0,0,0,0,0,0,0,0,0,-1,1462,1436,0,0
245,-412,0,0,0,0,0,0,0,0,0,-1,1469,1436,0,0
252,-412,0,0,0,0,0,0,0,0,0,-1,1476,1436,0,0
259,-412,0,0,0,0,0,0,0,0,0,-1,1483,1436,0,0
266,-412,0,0,0,0,0,0,0,0,0,-1,1490,1436,0,0
273,-412,0,0,0,0,0,0,0,0,0,-1,1497,1436,0,0
280,-412,0,0,0,0,0,0,0,0,0,-1,1504,1436,0,0
287,-412,0,0,0,0,0,0,0,0,0,-1,1511,1436,0,0
294,-412,0,0,0,0,0,0,0,0,0,-1,1518,1436,0,0
301,-412,0,0,0,0,0,0,0,0,0,-1,1525,1436,0,0
308,-412,0,0,0,0,0,0,0,0,0,-1,1532,1436,0,0
315,-412,0,0,0,0,0,0,0,0,0,-1,1539,1436,0,0
322,-412,0,0,0,0,0,0,0,0,0,-1,1546,1436,0,0
329,-412,0,0,0,0,0,0,0,0,0,-1,1553,1436,0,0
336,-412,0,0,0,0,0,0,0,0,0,-1,1560,1436,0,0
343,-412,0,0,0,0,0,0,0,0,0,-1,1567,1436,0,0
350,-412,0,0,0,0,0,0,0,0,0,-1,1574,1436,0,0
357,-412,0,0,0,0,0,0,0,0,0,-1,1581,1436,0,0
364,-412,0,0,0,0,0,0,0,0,0,-1,1588,1436,0,0
371,-412,0,0,0,0,0,0,0,0,0,-1,1595,1436,0,0
378,-412,0,0,0,0,0,0,0,0,0,-1,1602,1436,0,0
385,-412,0,0,0,0,0,0,0,0,0,-1,1609,1436,0,0
392,-412,0,0,0,0,0,0,0,0,0,-1,1616,1436,0,0
399,-412,0,0,0,0,0,0,0,0,0,-1,1623,1436,0,0
406,-412,0,0,0,0,0,0,0,0,0,-1,1630,1436,0,0
413,-412,0,0,0,0,0,0,0,0,0,-1,1637,1436,0,0
420,-412,0,0,0,0,0,0,0,0,0,-1,1644,1436,0,0
427,-412,0,0,0,0,0,0,0,0,0,-1,1651,1436,0,0
434,-412,0,0,0,0,0,0,0,0,0,-1,1658,1436,0,0
441,-412,0,0,0,0,0,0,0,0,0,-1,1665,1436,0,0
448,-412,0,0,0,0,0,0,0,0,0,-1,1672,1436,0,0
455,-412,0,0,0,0,0,0,0,0,0,-1,1679,1436,0,0
462,-412,0,0,0,0,0,0,0,0,0,-1,1686,1436,0,0
469,-412,0,0,0,0,0,0,0,0,0,-1,1693,1436,0,0
476,-412,0,0,0,0,0,0,0,0,0,-1,1700,1436,0,0
483,-412,0,0,0,0,0,0,0,0,0,-1,1707,1436,0,0
490,-412,0,0,0,0,0,0,0,0,0,-1,1714,1436,0,0
497,-412,0,0,0,0,0,0,0,0,0,-1,1721,1436,0,0
504,-412,0,0,0,0,0,0,0,0,0,-1,1728,1436,0,0
511,-412,0,0,0,0,0,0,0,0,0,-1,1735,1436,0,0
518,-412,13.5378,1.3866,0,0,0,0,0,0,0,-1,1742,1436,13.5379,-1.38663
525,-412,22.8384,2.03333,0,0,0,0,0,0,0,-1,1749,1436,22.8384,-2.03331
532,-412,21.8945,2.29199,0,0,0,0,0,0,0,-1,1756,1436,21.8946,-2.29203
539,-412,20.7961,2.47241,0,0,0,0,0,0,0,-1,1763,1436,20.7962,-2.47239
546,-412,19.4315,2.4071,0,0,0,0,0,0,0,-1,1770,1436,19.4315,-2.40706
553,-412,18.1896,2.19727,0,0,0,0,0,0,0,-1,1777,1436,18.1896,-2.19725
560,-412,16.8402,2.41418,0,0,0,0,0,0,0,-1,1784,1436,16.8402,-2.41425
567,-412,15.9099,3.43774,0,0,0,0,0,0,0,-1,1791,1436,15.9099,-3.43772
574,-412,15.1012,4.30872,0,0,0,0,0,0,0,-1,1798,1436,15.1012,-4.30869
581,-412,13.5082,7.22974,0,0,0,0,0,0,0,-1,1805,1436,13.5082,-7.22971
588,-412,15.8129,7.99829,0,0,0,0,0,0,0,-1,1812,1436,15.8129,-7.99834
595,-412,15.0865,8.34631,-0.0317393,-0.0278795,0.0236808,-0.00605012,-0.0535687,0.826056,0.0338763,0.0448655,1819,1436,15.0866,-8.34628
602,-412,14.2791,8.85168,-0.0240928,-0.0200784,0.017865,-0.00410815,-0.040063,0.841339,0.0254501,0.0255534,1826,1436,14.279,-8.85166
609,-412,14.007,8.66479,-0.0178712,-0.014376,0.0132437,-0.00276506,-0.0294821,0.850997,0.018801,0.0094851,1833,1436,14.007,-8.66476
616,-412,13.9741,8.43408,-0.0127299,-0.00970161,0.00949781,-0.00159802,-0.0208335,0.864444,0.0133882,0.00733151,1840,1436,13.9741,-8.43406
623,-412,13.9583,8.17456,-0.00861995,-0.00633305,0.00653599,-0.000841241,-0.0141118,0.871995,0.00914034,0.008239,1847,1436,13.9583,-8.17458
630,-412,13.9807,7.90039,-0.00572738,-0.00432218,0.00436224,-0.000606321,-0.00944323,0.865244,0.00610343,0.0109412,1854,1436,13.9807,-7.9004
637,-412,13.9857,7.66772,-0.00373579,-0.00278708,0.00289693,-0.000325922,-0.00619695,0.86655,0.00402706,0.0133895,1861,1436,13.9857,-7.66773
644,-412,13.9865,7.41882,-0.00259974,-0.00196115,0.00217494,-8.21946e-05,-0.00447869,0.858281,0.00295878,0.01478,1868,1436,13.9865,-7.41884
651,-412,13.9622,7.1698,-0.00201879,-0.00141693,0.00180409,0.000111153,-0.00354687,0.86804,0.00240249,0.0240148,1875,1436,13.9621,-7.16975
658,-412,13.9779,6.94568,-0.00221551,-0.0015236,0.00216631,0.000324202,-0.00406331,0.864579,0.00282316,0.0155152,1882,1436,13.978,-6.94569
665,-412,13.9923,6.74048,-0.00292648,-0.00215074,0.00317722,0.000662194,-0.00573941,0.846137,0.00406503,0.02101,1889,1436,13.9923,-6.74051
672,-412,14.0369,6.50281,-0.0041648,-0.00316882,0.00463401,0.00099388,-0.0083275,0.838925,0.00591088,0.0271689,1896,1436,14.0369,-6.50278
679,-412,14.0468,6.18945,-0.00550998,-0.00472445,0.00657942,0.00147391,-0.0117083,0.815211,0.00834039,0.0361109,1903,1436,14.0468,-6.18939
686,-412,13.8574,5.79968,0,0,0,0,0,0,0,-1,1910,1436,13.8574,-5.79966
693,-412,11.9346,6.02344,0,0,0,0,0,0,0,-1,1917,1436,11.9346,-6.02343
700,-412,8.82764,5.8844,0,0,0,0,0,0,0,-1,1924,1436,8.82761,-5.88444
707,-412,6.59998,1.68994,0,0,0,0,0,0,0,-1,1931,1436,6.60002,-1.68995
714,-412,4.77283,-2.39832,0,0,0,0,0,0,0,-1,1938,1436,4.77288,2.39835
721,-412,0,0,0,0,0,0,0,0,0,-1,1945,1436,0,0
728,-412,0,0,0,0,0,0,0,0,0,-1,1952,1436,0,0
735,-412,0,0,0,0,0,0,0,0,0,-1,1959,1436,0,0
742,-412,0,0,0,0,0,0,0,0,0,-1,1966,1436,0,0
749,-412,0,0,0,0,0,0,0,0,0,-1,1973,1436,0,0
756,-412,0,0,0,0,0,0,0,0,0,-1,1980,1436,0,0
763,-412,0,0,0,0,0,0,0,0,0,-1,1987,1436,0,0
770,-412,0,0,0,0,0,0,0,0,0,-1,1994,1436,0,0
777,-412,0,0,0,0,0,0,0,0,0,-1,2001,1436,0,0
784,-412,0,0,0,0,0,0,0,0,0,-1,2008,1436,0,0
791,-412,0,0,0,0,0,0,0,0,0,-1,2015,1436,0,0
798,-412,0,0,0,0,0,0,0,0,0,-1,2022,1436,0,0
805,-412,0,0,0,0,0,0,0,0,0,-1,2029,1436,0,0
812,-412,0,0,0,0,0,0,0,0,0,-1,2036,1436,0,0
-700,-419,0,0,0,0,0,0,0,0,0,-1,524,1443,0,0
-693,-419,0,0,0,0,0,0,0,0,0,-1,531,1443,0,0
-686,-419,0,0,0,0,0,0,0,0,0,-1,538,1443,0,0
-679,-419,0,0,0,0,0,0,0,0,0,-1,545,1443,0,0
-672,-419,0,0,0,0,0,0,0,0,0,-1,552,1443,0,0
-665,-419,0,0,0,0,0,0,0,0,0,-1,559,1443,0,0
-658,-419,0,0,0,0,0,0,0,0,0,-1,566,1443,0,0
-651,-419,0,0,0,0,0,0,0,0,0,-1,573,1443,0,0
-644,-419,0,0,0,0,0,0,0,0,0,-1,580,1443,0,0
-637,-419,0,0,0,0,0,0,0,0,0,-1,587,1443,0,0
-630,-419,0,0,0,0,0,0,0,0,0,-1,594,1443,0,0
-623,-419,0,0,0,0,0,0,0,0,0,-1,601,1443,0,0
-616,-419,0,0,0,0,0,0,0,0,0,-1,608,1443,0,0
-609,-419,0,0,0,0,0,0,0,0,0,-1,615,1443,0,0
-602,-419,0,0,0,0,0,0,0,0,0,-1,622,1443,0,0
-595,-419,-11.4904,-0.622681,0,0,0,0,0,0,0,-1,629,1443,-11.4903,0.622714
-588,-419,-9.09369,0.742432,0,0,0,0,0,0,0,-1,636,1443,-9.09366,-0.742482
-581,-419,-6.39172,2.14673,0,0,0,0,0,0,0,-1,643,1443,-6.39175,-2.14668
-574,-419,-4.09772,3.54773,0,0,0,0,0,0,0,-1,650,1443,-4.09772,-3.54767
-567,-419,-6.14038,3.22498,0,0,0,0,0,0,0,-1,657,1443,-6.14037,-3.22497
-560,-419,-3.96478,4.41797,0,0,0,0,0,0,0,-1,664,1443,-3.96478,-4.41799
-553,-419,-4.09521,4.51172,-0.0028159,0.00915547,0.00662298,0.0120968,-0.00575727,1.15285,0.0105225,0.0458629,671,1443,-4.09519,-4.51172
-546,-419,-4.28326,4.55164,-0.0011348,0.00661334,0.00547605,0.00944714,-0.0039686,1.09325,0.00795795,0.0429801,678,1443,-4.28329,-4.55165
-539,-419,-4.51495,4.54736,0.000247026,0.00498349,0.00462894,0.00781483,-0.00258432,1.02185,0.00625198,0.0340094,685,1443,-4.51498,-4.54731
-532,-419,-4.64838,4.79004,0.00111122,0.00355204,0.00379782,0.00632071,-0.00165746,0.940859,0.00486141,0.0163077,692,1443,-4.6484,-4.79001
-525,-419,-4.64038,5.09949,0.00181184,0.00290041,0.0031931,0.00559529,-0.00088303,0.869815,0.0040567,0.0138796,699,1443,-4.64037,-5.09944
-518,-419,-4.63324,5.3584,0.00214494,0.00210619,0.00256952,0.00469516,-0.000444024,0.781628,0.00328812,0.0169811,706,1443,-4.63322,-5.35838
-511,-419,-4.64819,5.62207,0.00222144,0.00108272,0.00177329,0.00351453,-0.000210371,0.63006,0.0024162,0.0183818,713,1443,-4.64821,-5.62201
-504,-419,-4.65369,5.90979,0.00218181,0.0002073,0.000939994,0.00255773,-0.000168625,0.38044,0.00176405,0.0188209,720,1443,-4.65371,-5.90983
-497,-419,-4.65576,6.18311,0.0021829,-0.000905384,4.70278e-05,0.00218362,-0.0009061,0.0152231,0.00183397,0.013266,727,1443,-4.65575,-6.18305
-490,-419,-4.65607,6.43518,0.00198772,-0.00307912,-0.00105624,0.00219909,-0.00329049,-0.197504,0.00319022,0.0102369,734,1443,-4.65604,-6.43518
-483,-419,-4.6535,6.7063,0.0018661,-0.00539881,-0.00248178,0.00263296,-0.00616567,-0.299689,0.00521459,0.00906921,741,1443,-4.65349,-6.70633
-476,-419,-4.6394,6.99219,0.00203782,-0.0085516,-0.00397862,0.00336605,-0.00987983,-0.322209,0.00794977,0.00964996,748,1443,-4.63938,-6.99216
-469,-419,-4.60156,7.29822,0.00244272,-0.0124995,-0.0057145,0.00437762,-0.0144344,-0.326478,0.0113667,0.0149435,755,1443,-4.60155,-7.29821
-462,-419,-4.54639,7.48633,0.00303816,-0.0171917,-0.0082931,0.00600326,-0.0201568,-0.343374,0.0158232,0.0291593,762,1443,-4.54639,-7.48637
-455,-419,-4.77191,7.42529,0,0,0,0,0,0,0,-1,769,1443,-4.77192,-7.42535
-448,-419,-4.61316,6.51074,0,0,0,0,0,0,0,-1,776,1443,-4.61314,-6.51076
-441,-419,-6.3941,6.66577,0,0,0,0,0,0,0,-1,783,1443,-6.39411,-6.66578
-434,-419,-6.47729,6.44324,0,0,0,0,0,0,0,-1,790,1443,-6.47729,-6.44323
-427,-419,-5.86658,7.24878,0,0,0,0,0,0,0,-1,797,1443,-5.86657,-7.24873
-420,-419,-8.74091,6.36597,0,0,0,0,0,0,0,-1,804,1443,-8.74089,-6.366
-413,-419,-9.88391,6.53955,0,0,0,0,0,0,0,-1,811,1443,-9.8839,-6.53955
-406,-419,-10.3372,2.75195,0,0,0,0,0,0,0,-1,818,1443,-10.3372,-2.75201
-399,-419,-11.5999,1.40002,0,0,0,0,0,0,0,-1,825,1443,-11.5999,-1.39998
-392,-419,0,0,0,0,0,0,0,0,0,-1,832,1443,0,0
-385,-419,0,0,0,0,0,0,0,0,0,-1,839,1443,0,0
-378,-419,0,0,0,0,0,0,0,0,0,-1,846,1443,0,0
-371,-419,0,0,0,0,0,0,0,0,0,-1,853,1443,0,0
-364,-419,0,0,0,0,0,0,0,0,0,-1,860,1443,0,0
-357,-419,0,0,0,0,0,0,0,0,0,-1,867,1443,0,0
-350,-419,0,0,0,0,0,0,0,0,0,-1,874,1443,0,0
-343,-419,0,0,0,0,0,0,0,0,0,-1,881,1443,0,0
-336,-419,0,0,0,0,0,0,0,0,0,-1,888,1443,0,0
-329,-419,0,0,0,0,0,0,0,0,0,-1,895,1443,0,0
-322,-419,0,0,0,0,0,0,0,0,0,-1,902,1443,0,0
-315,-419,0,0,0,0,0,0,0,0,0,-1,909,1443,0,0
-308,-419,0,0,0,0,0,0,0,0,0,-1,916,1443,0,0
-301,-419,0,0,0,0,0,0,0,0,0,-1,923,1443,0,0
-294,-419,0,0,0,0,0,0,0,0,0,-1,930,1443,0,0
-287,-419,0,0,0,0,0,0,0,0,0,-1,937,1443,0,0
-280,-419,0,0,0,0,0,0,0,0,0,-1,944,1443,0,0
-273,-419,0,0,0,0,0,0,0,0,0,-1,951,1443,0,0
-266,-419,0,0,0,0,0,0,0,0,0,-1,958,1443,0,0
-259,-419,0,0,0,0,0,0,0,0,0,-1,965,1443,0,0
-252,-419,0,0,0,0,0,0,0,0,0,-1,972,1443,0,0
-245,-419,0,0,0,0,0,0,0,0,0,-1,979,1443,0,0
-238,-419,0,0,0,0,0,0,0,0,0,-1,986,1443,0,0
-231,-419,0,0,0,0,0,0,0,0,0,-1,993,1443,0,0
-224,-419,0,0,0,0,0,0,0,0,0,-1,1000,1443,0,0
-217,-419,0,0,0,0,0,0,0,0,0,-1,1007,1443,0,0
-210,-419,0,0,0,0,0,0,0,0,0,-1,1014,1443,0,0
-203,-419,0,0,0,0,0,0,0,0,0,-1,1021,1443,0,0
-196,-419,0,0,0,0,0,0,0,0,0,-1,1028,1443,0,0
-189,-419,0,0,0,0,0,0,0,0,0,-1,1035,1443,0,0
-182,-419,0,0,0,0,0,0,0,0,0,-1,1042,1443,0,0
-175,-419,0,0,0,0,0,0,0,0,0,-1,1049,1443,0,0
-168,-419,0,0,0,0,0,0,0,0,0,-1,1056,1443,0,0
-161,-419,0,0,0,0,0,0,0,0,0,-1,1063,1443,0,0
-154,-419,0,0,0,0,0,0,0,0,0,-1,1070,1443,0,0
-147,-419,0,0,0,0,0,0,0,0,0,-1,1077,1443,0,0
-140,-419,0,0,0,0,0,0,0,0,0,-1,1084,1443,0,0
-133,-419,0,0,0,0,0,0,0,0,0,-1,1091,1443,0,0
-126,-419,0,0,0,0,0,0,0,0,0,-1,1098,1443,0,0
-119,-419,0,0,0,0,0,0,0,0,0,-1,1105,1443,0,0
-112,-419,0,0,0,0,0,0,0,0,0,-1,1112,1443,0,0
-105,-419,0,0,0,0,0,0,0,0,0,-1,1119,1443,0,0
-98,-419,0,0,0,0,0,0,0,0,0,-1,1126,1443,0,0
-91,-419,0,0,0,0,0,0,0,0,0,-1,1133,1443,0,0
-84,-419,0,0,0,0,0,0,0,0,0,-1,1140,1443,0,0
-77,-419,0,0,0,0,0,0,0,0,0,-1,1147,1443,0,0
-70,-419,0,0,0,0,0,0,0,0,0,-1,1154,1443,0,0
-63,-419,0,0,0,0,0,0,0,0,0,-1,1161,1443,0,0
-56,-419,0,0,0,0,0,0,0,0,0,-1,1168,1443,0,0
-49,-419,0,0,0,0,0,0,0,0,0,-1,1175,1443,0,0
-42,-419,0,0,0,0,0,0,0,0,0,-1,1182,1443,0,0
-35,-419,0,0,0,0,0,0,0,0,0,-1,1189,1443,0,0
-28,-419,0,0,0,0,0,0,0,0,0,-1,1196,1443,0,0
-21,-419,0,0,0,0,0,0,0,0,0,-1,1203,1443,0,0
-14,-419,0,0,0,0,0,0,0,0,0,-1,1210,1443,0,0
-7,-419,0,0,0,0,0,0,0,0,0,-1,1217,1443,0,0
0,-419,0,0,0,0,0,0,0,0,0,-1,1224,1443,0,0
7,-419,0,0,0,0,0,0,0,0,0,-1,1231,1443,0,0
14,-419,0,0,0,0,0,0,0,0,0,-1,1238,1443,0,0
21,-419,0,0,0,0,0,0,0,0,0,-1,1245,1443,0,0
28,-419,0,0,0,0,0,0,0,0,0,-1,1252,1443,0,0
35,-419,0,0,0,0,0,0,0,0,0,-1,1259,1443,0,0
42,-419,0,0,0,0,0,0,0,0,0,-1,1266,1443,0,0
49,-419,0,0,0,0,0,0,0,0,0,-1,1273,1443,0,0
56,-419,0,0,0,0,0,0,0,0,0,-1,1280,1443,0,0
63,-419,0,0,0,0,0,0,0,0,0,-1,1287,1443,0,0
70,-419,0,0,0,0,0,0,0,0,0,-1,1294,1443,0,0
77,-419,0,0,0,0,0,0,0,0,0,-1,1301,1443,0,0
84,-419,0,0,0,0,0,0,0,0,0,-1,1308,1443,0,0
91,-419,0,0,0,0,0,0,0,0,0,-1,1315,1443,0,0
98,-419,0,0,0,0,0,0,0,0,0,-1,1322,1443,0,0
105,-419,0,0,0,0,0,0,0,0,0,-1,1329,1443,0,0
112,-419,0,0,0,0,0,0,0,0,0,-1,1336,1443,0,0
119,-419,0,0,0,0,0,0,0,0,0,-1,1343,1443,0,0
126,-419,0,0,0,0,0,0,0,0,0,-1,1350,1443,0,0
133,-419,0,0,0,0,0,0,0,0,0,-1,1357,1443,0,0
140,-419,0,0,0,0,0,0,0,0,0,-1,1364,1443,0,0
147,-419,0,0,0,0,0,0,0,0,0,-1,1371,1443,0,0
154,-419,0,0,0,0,0,0,0,0,0,-1,1378,1443,0,0
161,-419,0,0,0,0,0,0,0,0,0,-1,1385,1443,0,0
168,-419,0,0,0,0,0,0,0,0,0,-1,1392,1443,0,0
175,-419,0,0,0,0,0,0,0,0,0,-1,1399,1443,0,0
182,-419,0,0,0,0,0,0,0,0,0,-1,1406,1443,0,0
189,-419,0,0,0,0,0,0,0,0,0,-1,1413,1443,0,0
196,-419,0,0,0,0,0,0,0,0,0,-1,1420,1443,0,0
203,-419,0,0,0,0,0,0,0,0,0,-1,1427,1443,0,0
210,-419,0,0,0,0,0,0,0,0,0,-1,1434,1443,0,0
217,-419,0,0,0,0,0,0,0,0,0,-1,1441,1443,0,0
224,-419,0,0,0,0,0,0,0,0,0,-1,1448,1443,0,0
231,-419,0,0,0,0,0,0,0,0,0,-1,1455,1443,0,0
238,-419,0,0,0,0,0,0,0,0,0,-1,1462,1443,0,0
245,-419,0,0,0,0,0,0,0,0,0,-1,1469,1443,0,0
252,-419,0,0,0,0,0,0,0,0,0,-1,1476,1443,0,0
259,-419,0,0,0,0,0,0,0,0,0,-1,1483,1443,0,0
266,-419,0,0,0,0,0,0,0,0,0,-1,1490,1443,0,0
273,-419,0,0,0,0,0,0,0,0,0,-1,1497,1443,0,0
280,-419,0,0,0,0,0,0,0,0,0,-1,1504,1443,0,0
287,-419,0,0,0,0,0,0,0,0,0,-1,1511,1443,0,0
294,-419,0,0,0,0,0,0,0,0,0,-1,1518,1443,0,0
301,-419,0,0,0,0,0,0,0,0,0,-1,1525,1443,0,0
308,-419,0,0,0,0,0,0,0,0,0,-1,1532,1443,0,0
315,-419,0,0,0,0,0,0,0,0,0,-1,1539,1443,0,0
322,-419,0,0,0,0,0,0,0,0,0,-1,1546,1443,0,0
329,-419,0,0,0,0,0,0,0,0,0,-1,1553,1443,0,0
336,-419,0,0,0,0,0,0,0,0,0,-1,1560,1443,0,0
343,-419,0,0,0,0,0,0,0,0,0,-1,1567,1443,0,0
350,-419,0,0,0,0,0,0,0,0,0,-1,1574,1443,0,0
357,-419,0,0,0,0,0,0,0,0,0,-1,1581,1443,0,0
364,-419,0,0,0,0,0,0,0,0,0,-1,1588,1443,0,0
371,-419,0,0,0,0,0,0,0,0,0,-1,1595,1443,0,0
378,-419,0,0,0,0,0,0,0,0,0,-1,1602,1443,0,0
385,-419,0,0,0,0,0,0,0,0,0,-1,1609,1443,0,0
392,-419,0,0,0,0,0,0,0,0,0,-1,1616,1443,0,0
399,-419,0,0,0,0,0,0,0,0,0,-1,1623,1443,0,0
406,-419,0,0,0,0,0,0,0,0,0,-1,1630,1443,0,0
413,-419,0,0,0,0,0,0,0,0,0,-1,1637,1443,0,0
420,-419,0,0,0,0,0,0,0,0,0,-1,1644,1443,0,0
427,-419,0,0,0,0,0,0,0,0,0,-1,1651,1443,0,0
434,-419,0,0,0,0,0,0,0,0,0,-1,1658,1443,0,0
441,-419,0,0,0,0,0,0,0,0,0,-1,1665,1443,0,0
448,-419,0,0,0,0,0,0,0,0,0,-1,1672,1443,0,0
455,-419,0,0,0,0,0,0,0,0,0,-1,1679,1443,0,0
462,-419,0,0,0,0,0,0,0,0,0,-1,1686,1443,0,0
469,-419,0,0,0,0,0,0,0,0,0,-1,1693,1443,0,0
476,-419,0,0,0,0,0,0,0,0,0,-1,1700,1443,0,0
483,-419,0,0,0,0,0,0,0,0,0,-1,1707,1443,0,0
490,-419,0,0,0,0,0,0,0,0,0,-1,1714,1443,0,0
497,-419,0,0,0,0,0,0,0,0,0,-1,1721,1443,0,0
504,-419,0,0,0,0,0,0,0,0,0,-1,1728,1443,0,0
511,-419,20.3005,3.7959,0,0,0,0,0,0,0,-1,1735,1443,20.3005,-3.79584
518,-419,21.3154,2.03027,0,0,0,0,0,0,0,-1,1742,1443,21.3155,-2.03029
525,-419,20.1991,2.2738,0,0,0,0,0,0,0,-1,1749,1443,20.1991,-2.2738
532,-419,21.035,2.73364,0,0,0,0,0,0,0,-1,1756,1443,21.035,-2.73368
539,-419,20.0294,2.92896,0,0,0,0,0,0,0,-1,1763,1443,20.0294,-2.929
546,-419,18.7786,2.69104,0,0,0,0,0,0,0,-1,1770,1443,18.7785,-2.69107
553,-419,17.1881,2.40491,0,0,0,0,0,0,0,-1,1777,1443,17.1881,-2.40488
560,-419,11.8199,8.26343,0,0,0,0,0,0,0,-1,1784,1443,11.82,-8.26341
567,-419,15.7008,5.70764,0,0,0,0,0,0,0,-1,1791,1443,15.7009,-5.70764
574,-419,13.748,7.5249,0,0,0,0,0,0,0,-1,1798,1443,13.7481,-7.5249
581,-419,13.1829,7.57349,0,0,0,0,0,0,0,-1,1805,1443,13.1829,-7.57347
588,-419,14.4912,9.14783,0,0,0,0,0,0,0,-1,1812,1443,14.4912,-9.14785
595,-419,14.1519,9.03333,-0.025672,-0.0230202,0.0191075,-0.00519263,-0.0434996,0.820038,0.0274331,0.0417059,1819,1443,14.1518,-9.03332
602,-419,13.7837,8.93616,-0.0197433,-0.0166598,0.0145755,-0.00354476,-0.0328584,0.838091,0.0208248,0.0160558,1826,1443,13.7837,-8.93611
609,-419,13.7368,8.68018,-0.0147459,-0.0119142,0.0108681,-0.00237015,-0.02429,0.850171,0.015464,0.0108947,1833,1443,13.7368,-8.68013
616,-419,13.736,8.45703,-0.0105373,-0.00793331,0.00780593,-0.00132152,-0.017149,0.868034,0.0110186,0.0112432,1840,1443,13.7359,-8.457
623,-419,13.7358,8.18311,-0.00721535,-0.00507519,0.00534513,-0.000694078,-0.0115965,0.884191,0.00751032,0.00877154,1847,1443,13.7359,-8.18308
630,-419,13.7506,7.91174,-0.00493825,-0.00345735,0.00360771,-0.00051489,-0.00788071,0.886613,0.00509086,0.0114966,1854,1443,13.7507,-7.91174
637,-419,13.7378,7.68799,-0.00327266,-0.00218621,0.00236948,-0.000298482,-0.00516038,0.898081,0.0033452,0.0132276,1861,1443,13.7378,-7.68801
644,-419,13.7291,7.4502,-0.00238057,-0.00157064,0.00180702,-0.000123759,-0.00382745,0.895629,0.0025114,0.0118601,1868,1443,13.7291,-7.45018
651,-419,13.7321,7.203,-0.00206968,-0.00123635,0.0016177,1.74826e-05,-0.00332351,0.911441,0.00222152,0.0111276,1875,1443,13.7321,-7.203
658,-419,13.7231,6.95276,-0.00259363,-0.00148963,0.00215049,0.000178578,-0.00426183,0.911029,0.00290258,0.012142,1882,1443,13.7232,-6.95272
665,-419,13.7441,6.72791,-0.00365382,-0.00216606,0.00325667,0.000430608,-0.00625049,0.89768,0.00431769,0.0191606,1889,1443,13.7441,-6.72785
672,-419,13.8007,6.45654,-0.00527696,-0.00322089,0.00484582,0.000704746,-0.00920259,0.889923,0.00638296,0.025758,1896,1443,13.8007,-6.45654
679,-419,13.6555,6.41394,-0.00717468,-0.00482357,0.0069922,0.00109121,-0.0130895,0.868681,0.00911185,0.0466166,1903,1443,13.6555,-6.41397
686,-419,13.3768,6.57983,0,0,0,0,0,0,0,-1,1910,1443,13.3768,-6.5798
693,-419,8.76086,5.60535,0,0,0,0,0,0,0,-1,1917,1443,8.76091,-5.6054
700,-419,11.0498,4.85156,0,0,0,0,0,0,0,-1,1924,1443,11.0498,-4.85153
707,-419,9.5752,1.80042,0,0,0,0,0,0,0,-1,1931,1443,9.57523,-1.80037
714,-419,5.77576,-1.25061,0,0,0,0,0,0,0,-1,1938,1443,5.7757,1.25056
721,-419,0,0,0,0,0,0,0,0,0,-1,1945,1443,0,0
728,-419,0,0,0,0,0,0,0,0,0,-1,1952,1443,0,0
735,-419,0,0,0,0,0,0,0,0,0,-1,1959,1443,0,0
742,-419,0,0,0,0,0,0,0,0,0,-1,1966,1443,0,0
749,-419,0,0,0,0,0,0,0,0,0,-1,1973,1443,0,0
756,-419,0,0,0,0,0,0,0,0,0,-1,1980,1443,0,0
763,-419,0,0,0,0,0,0,0,0,0,-1,1987,1443,0,0
770,-419,0,0,0,0,0,0,0,0,0,-1,1994,1443,0,0
777,-419,0,0,0,0,0,0,0,0,0,-1,2001,1443,0,0
784,-419,0,0,0,0,0,0,0,0,0,-1,2008,1443,0,0
791,-419,0,0,0,0,0,0,0,0,0,-1,2015,1443,0,0
798,-419,0,0,0,0,0,0,0,0,0,-1,2022,1443,0,0
805,-419,0,0,0,0,0,0,0,0,0,-1,2029,1443,0,0
812,-419,0,0,0,0,0,0,0,0,0,-1,2036,1443,0,0
-700,-426,0,0,0,0,0,0,0,0,0,-1,524,1450,0,0
-693,-426,0,0,0,0,0,0,0,0,0,-1,531,1450,0,0
-686,-426,0,0,0,0,0,0,0,0,0,-1,538,1450,0,0
-679,-426,0,0,0,0,0,0,0,0,0,-1,545,1450,0,0
-672,-426,0,0,0,0,0,0,0,0,0,-1,552,1450,0,0
-665,-426,0,0,0,0,0,0,0,0,0,-1,559,1450,0,0
-658,-426,0,0,0,0,0,0,0,0,0,-1,566,1450,0,0
-651,-426,0,0,0,0,0,0,0,0,0,-1,573,1450,0,0
-644,-426,0,0,0,0,0,0,0,0,0,-1,580,1450,0,0
-637,-426,0,0,0,0,0,0,0,0,0,-1,587,1450,0,0
-630,-426,0,0,0,0,0,0,0,0,0,-1,594,1450,0,0
-623,-426,0,0,0,0,0,0,0,0,0,-1,601,1450,0,0
-616,-426,0,0,0,0,0,0,0,0,0,-1,608,1450,0,0
-609,-426,0,0,0,0,0,0,0,0,0,-1,615,1450,0,0
-602,-426,0,0,0,0,0,0,0,0,0,-1,622,1450,0,0
-595,-426,0,0,0,0,0,0,0,0,0,-1,629,1450,0,0
-588,-426,-10.184,-0.554321,0,0,0,0,0,0,0,-1,636,1450,-10.184,0.554321
-581,-426,-7.3349,1.48157,0,0,0,0,0,0,0,-1,643,1450,-7.33491,-1.48152
-574,-426,-5.02856,2.89319,0,0,0,0,0,0,0,-1,650,1450,-5.02858,-2.89319
-567,-426,-3.04797,1.72644,0,0,0,0,0,0,0,-1,657,1450,-3.04797,-1.72639
-560,-426,-5.55682,3.44397,0,0,0,0,0,0,0,-1,664,1450,-5.55684,-3.44399
-553,-426,-3.8136,4.69397,0,0,0,0,0,0,0,-1,671,1450,-3.81359,-4.69399
-546,-426,-3.93896,4.73303,0,0,0,0,0,0,0,-1,678,1450,-3.93896,-4.73308
-539,-426,-4.16254,4.55469,0.00551893,0.00759153,0.00832795,0.0149474,-0.00183694,0.847298,0.0106303,0.0437275,685,1450,-4.16254,-4.55469
-532,-426,-4.30127,4.80981,0.00530936,0.0059478,0.00683428,0.0124703,-0.00121316,0.808735,0.00874602,0.0287164,692,1450,-4.30127,-4.80983
-525,-426,-4.37976,5.06616,0.00502435,0.00499016,0.00562598,0.0106333,-0.000618754,0.783879,0.00730383,0.0145695,699,1450,-4.37973,-5.0661
-518,-426,-4.36609,5.34753,0.0045276,0.00389917,0.00445689,0.00868133,-0.000254565,0.750206,0.00587425,0.0154981,706,1450,-4.36612,-5.34754
-511,-426,-4.37781,5.61462,0.00392538,0.00261411,0.00323826,0.00657371,-3.42154e-05,0.685516,0.00439392,0.014529,713,1450,-4.37782,-5.61456
-504,-426,-4.39862,5.90002,0.00329669,0.00146289,0.00205063,0.00462607,0.000133504,0.575166,0.00304053,0.0157559,720,1450,-4.39861,-5.90008
-497,-426,-4.37823,6.15735,0.00288696,0.000183287,0.000933036,0.00317769,-0.000107441,0.302059,0.00215517,0.0124871,727,1450,-4.37822,-6.15733
-490,-426,-4.36945,6.41711,0.0024096,-0.00207481,-0.000302278,0.00242989,-0.0020951,-0.0670023,0.00261488,0.0112773,734,1450,-4.36943,-6.41715
-483,-426,-4.38867,6.71265,0.00206027,-0.00441091,-0.00181304,0.00253361,-0.00488425,-0.255375,0.00435379,0.0114001,741,1450,-4.38866,-6.7127
-476,-426,-4.38507,7.00024,0.00207402,-0.00745351,-0.00330659,0.00310914,-0.00848862,-0.303382,0.00693191,0.00917769,748,1450,-4.38509,-7.00029
-469,-426,-4.37958,7.26489,0.00245398,-0.0111003,-0.00487939,0.00402777,-0.0126741,-0.312005,0.0100643,0.00711552,755,1450,-4.37956,-7.26487
-462,-426,-4.28809,7.58081,0.00324755,-0.015025,-0.00702172,0.00563413,-0.0174116,-0.327635,0.0138725,0.0163247,762,1450,-4.28806,-7.58082
-455,-426,-4.51508,7.44385,0,0,0,0,0,0,0,-1,769,1450,-4.51507,-7.44384
-448,-426,-4.2251,6.88989,0,0,0,0,0,0,0,-1,776,1450,-4.2251,-6.88988
-441,-426,-3.93512,6.33594,0,0,0,0,0,0,0,-1,783,1450,-3.93514,-6.33593
-434,-426,-5.75415,6.97974,0,0,0,0,0,0,0,-1,790,1450,-5.75415,-6.97976
-427,-426,-5.40454,7.28113,0,0,0,0,0,0,0,-1,797,1450,-5.40452,-7.28111
-420,-426,-5.00806,7.83728,0,0,0,0,0,0,0,-1,804,1450,-5.00805,-7.83733
-413,-426,-10.1148,5.0415,0,0,0,0,0,0,0,-1,811,1450,-10.1148,-5.04152
-406,-426,-11.4199,3.6438,0,0,0,0,0,0,0,-1,818,1450,-11.4198,-3.64382
-399,-426,-12.7595,2.29004,0,0,0,0,0,0,0,-1,825,1450,-12.7595,-2.29003
-392,-426,-12.4147,0.537354,0,0,0,0,0,0,0,-1,832,1450,-12.4147,-0.53731
-385,-426,0,0,0,0,0,0,0,0,0,-1,839,1450,0,0
-378,-426,0,0,0,0,0,0,0,0,0,-1,846,1450,0,0
-371,-426,0,0,0,0,0,0,0,0,0,-1,853,1450,0,0
-364,-426,0,0,0,0,0,0,0,0,0,-1,860,1450,0,0
-357,-426,0,0,0,0,0,0,0,0,0,-1,867,1450,0,0
-350,-426,0,0,0,0,0,0,0,0,0,-1,874,1450,0,0
-343,-426,0,0,0,0,0,0,0,0,0,-1,881,1450,0,0
-336,-426,0,0,0,0,0,0,0,0,0,-1,888,1450,0,0
-329,-426,0,0,0,0,0,0,0,0,0,-1,895,1450,0,0
-322,-426,0,0,0,0,0,0,0,0,0,-1,902,1450,0,0
-315,-426,0,0,0,0,0,0,0,0,0,-1,909,1450,0,0
-308,-426,0,0,0,0,0,0,0,0,0,-1,916,1450,0,0
-301,-426,0,0,0,0,0,0,0,0,0,-1,923,1450,0,0
-294,-426,0,0,0,0,0,0,0,0,0,-1,930,1450,0,0
-287,-426,0,0,0,0,0,0,0,0,0,-1,937,1450,0,0
-280,-426,0,0,0,0,0,0,0,0,0,-1,944,1450,0,0
-273,-426,0,0,0,0,0,0,0,0,0,-1,951,1450,0,0
-266,-426,0,0,0,0,0,0,0,0,0,-1,958,1450,0,0
-259,-426,0,0,0,0,0,0,0,0,0,-1,965,1450,0,0
-252,-426,0,0,0,0,0,0,0,0,0,-1,972,1450,0,0
-245,-426,0,0,0,0,0,0,0,0,0,-1,979,1450,0,0
-238,-426,0,0,0,0,0,0,0,0,0,-1,986,1450,0,0
-231,-426,0,0,0,0,0,0,0,0,0,-1,993,1450,0,0
-224,-426,0,0,0,0,0,0,0,0,0,-1,1000,1450,0,0
-217,-426,0,0,0,0,0,0,0,0,0,-1,1007,1450,0,0
-210,-426,0,0,0,0,0,0,0,0,0,-1,1014,1450,0,0
-203,-426,0,0,0,0,0,0,0,0,0,-1,1021,1450,0,0
-196,-426,0,0,0,0,0,0,0,0,0,-1,1028,1450,0,0
-189,-426,0,0,0,0,0,0,0,0,0,-1,1035,1450,0,0
-182,-426,0,0,0,0,0,0,0,0,0,-1,1042,1450,0,0
-175,-426,0,0,0,0,0,0,0,0,0,-1,1049,1450,0,0
-168,-426,0,0,0,0,0,0,0,0,0,-1,1056,1450,0,0
-161,-426,0,0,0,0,0,0,0,0,0,-1,1063,1450,0,0
-154,-426,0,0,0,0,0,0,0,0,0,-1,1070,1450,0,0
-147,-426,0,0,0,0,0,0,0,0,0,-1,1077,1450,0,0
-140,-426,0,0,0,0,0,0,0,0,0,-1,1084,1450,0,0
-133,-426,0,0,0,0,0,0,0,0,0,-1,1091,1450,0,0
-126,-426,0,0,0,0,0,0,0,0,0,-1,1098,1450,0,0
-119,-426,0,0,0,0,0,0,0,0,0,-1,1105,1450,0,0
-112,-426,0,0,0,0,0,0,0,0,0,-1,1112,1450,0,0
-105,-426,0,0,0,0,0,0,0,0,0,-1,1119,1450,0,0
-98,-426,0,0,0,0,0,0,0,0,0,-1,1126,1450,0,0
-91,-426,0,0,0,0,0,0,0,0,0,-1,1133,1450,0,0
-84,-426,0,0,0,0,0,0,0,0,0,-1,1140,1450,0,0
-77,-426,0,0,0,0,0,0,0,0,0,-1,1147,1450,0,0
-70,-426,0,0,0,0,0,0,0,0,0,-1,1154,1450,0,0
-63,-426,0,0,0,0,0,0,0,0,0,-1,1161,1450,0,0
-56,-426,0,0,0,0,0,0,0,0,0,-1,1168,1450,0,0
-49,-426,0,0,0,0,0,0,0,0,0,-1,1175,1450,0,0
-42,-426,0,0,0,0,0,0,0,0,0,-1,1182,1450,0,0
-35,-426,0,0,0,0,0,0,0,0,0,-1,1189,1450,0,0
-28,-426,0,0,0,0,0,0,0,0,0,-1,1196,1450,0,0
-21,-426,0,0,0,0,0,0,0,0,0,-1,1203,1450,0,0
-14,-426,0,0,0,0,0,0,0,0,0,-1,1210,1450,0,0
-7,-426,0,0,0,0,0,0,0,0,0,-1,1217,1450,0,0
0,-426,0,0,0,0,0,0,0,0,0,-1,1224,1450,0,0
7,-426,0,0,0,0,0,0,0,0,0,-1,1231,1450,0,0
14,-426,0,0,0,0,0,0,0,0,0,-1,1238,1450,0,0
21,-426,0,0,0,0,0,0,0,0,0,-1,1245,1450,0,0
28,-426,0,0,0,0,0,0,0,0,0,-1,1252,1450,0,0
35,-426,0,0,0,0,0,0,0,0,0,-1,1259,1450,0,0
42,-426,0,0,0,0,0,0,0,0,0,-1,1266,1450,0,0
49,-426,0,0,0,0,0,0,0,0,0,-1,1273,1450,0,0
56,-426,0,0,0,0,0,0,0,0,0,-1,1280,1450,0,0
63,-426,0,0,0,0,0,0,0,0,0,-1,1287,1450,0,0
70,-426,0,0,0,0,0,0,0,0,0,-1,1294,1450,0,0
77,-426,0,0,0,0,0,0,0,0,0,-1,1301,1450,0,0
84,-426,0,0,0,0,0,0,0,0,0,-1,1308,1450,0,0
91,-426,0,0,0,0,0,0,0,0,0,-1,1315,1450,0,0
98,-426,0,0,0,0,0,0,0,0,0,-1,1322,1450,0,0
105,-426,0,0,0,0,0,0,0,0,0,-1,1329,1450,0,0
112,-426,0,0,0,0,0,0,0,0,0,-1,1336,1450,0,0
119,-426,0,0,0,0,0,0,0,0,0,-1,1343,1450,0,0
126,-426,0,0,0,0,0,0,0,0,0,-1,1350,1450,0,0
133,-426,0,0,0,0,0,0,0,0,0,-1,1357,1450,0,0
140,-426,0,0,0,0,0,0,0,0,0,-1,1364,1450,0,0
147,-426,0,0,0,0,0,0,0,0,0,-1,1371,1450,0,0
154,-426,0,0,0,0,0,0,0,0,0,-1,1378,1450,0,0
161,-426,0,0,0,0,0,0,0,0,0,-1,1385,1450,0,0
168,-426,0,0,0,0,0,0,0,0,0,-1,1392,1450,0,0
175,-426,0,0,0,0,0,0,0,0,0,-1,1399,1450,0,0
182,-426,0,0,0,0,0,0,0,0,0,-1,1406,1450,0,0
189,-426,0,0,0,0,0,0,0,0,0,-1,1413,1450,0,0
196,-426,0,0,0,0,0,0,0,0,0,-1,1420,1450,0,0
203,-426,0,0,0,0,0,0,0,0,0,-1,1427,1450,0,0
210,-426,0,0,0,0,0,0,0,0,0,-1,1434,1450,0,0
217,-426,0,0,0,0,0,0,0,0,0,-1,1441,1450,0,0
224,-426,0,0,0,0,0,0,0,0,0,-1,1448,1450,0,0
231,-426,0,0,0,0,0,0,0,0,0,-1,1455,1450,0,0
238,-426,0,0,0,0,0,0,0,0,0,-1,1462,1450,0,0
245,-426,0,0,0,0,0,0,0,0,0,-1,1469,1450,0,0
252,-426,0,0,0,0,0,0,0,0,0,-1,1476,1450,0,0
259,-426,0,0,0,0,0,0,0,0,0,-1,1483,1450,0,0
266,-426,0,0,0,0,0,0,0,0,0,-1,1490,1450,0,0
273,-426,0,0,0,0,0,0,0,0,0,-1,1497,1450,0,0
280,-426,0,0,0,0,0,0,0,0,0,-1,1504,1450,0,0
287,-426,0,0,0,0,0,0,0,0,0,-1,1511,1450,0,0
294,-426,0,0,0,0,0,0,0,0,0,-1,1518,1450,0,0
301,-426,0,0,0,0,0,0,0,0,0,-1,1525,1450,0,0
308,-426,0,0,0,0,0,0,0,0,0,-1,1532,1450,0,0
315,-426,0,0,0,0,0,0,0,0,0,-1,1539,1450,0,0
322,-426,0,0,0,0,0,0,0,0,0,-1,1546,1450,0,0
329,-426,0,0,0,0,0,0,0,0,0,-1,1553,1450,0,0
336,-426,0,0,0,0,0,0,0,0,0,-1,1560,1450,0,0
343,-426,0,0,0,0,0,0,0,0,0,-1,1567,1450,0,0
350,-426,0,0,0,0,0,0,0,0,0,-1,1574,1450,0,0
357,-426,0,0,0,0,0,0,0,0,0,-1,1581,1450,0,0
364,-426,0,0,0,0,0,0,0,0,0,-1,1588,1450,0,0
371,-426,0,0,0,0,0,0,0,0,0,-1,1595,1450,0,0
378,-426,0,0,0,0,0,0,0,0,0,-1,1602,1450,0,0
385,-426,0,0,0,0,0,0,0,0,0,-1,1609,1450,0,0
392,-426,0,0,0,0,0,0,0,0,0,-1,1616,1450,0,0
399,-426,0,0,0,0,0,0,0,0,0,-1,1623,1450,0,0
406,-426,0,0,0,0,0,0,0,0,0,-1,1630,1450,0,0
413,-426,0,0,0,0,0,0,0,0,0,-1,1637,1450,0,0
420,-426,0,0,0,0,0,0,0,0,0,-1,1644,1450,0,0
427,-426,0,0,0,0,0,0,0,0,0,-1,1651,1450,0,0
434,-426,0,0,0,0,0,0,0,0,0,-1,1658,1450,0,0
441,-426,0,0,0,0,0,0,0,0,0,-1,1665,1450,0,0
448,-426,0,0,0,0,0,0,0,0,0,-1,1672,1450,0,0
455,-426,0,0,0,0,0,0,0,0,0,-1,1679,1450,0,0
462,-426,0,0,0,0,0,0,0,0,0,-1,1686,1450,0,0
469,-426,0,0,0,0,0,0,0,0,0,-1,1693,1450,0,0
476,-426,0,0,0,0,0,0,0,0,0,-1,1700,1450,0,0
483,-426,0,0,0,0,0,0,0,0,0,-1,1707,1450,0,0
490,-426,0,0,0,0,0,0,0,0,0,-1,1714,1450,0,0
497,-426,0,0,0,0,0,0,0,0,0,-1,1721,1450,0,0
504,-426,20.6873,3.38367,0,0,0,0,0,0,0,-1,1728,1450,20.6873,-3.38361
511,-426,19.6676,3.53748,0,0,0,0,0,0,0,-1,1735,1450,19.6676,-3.53749
518,-426,18.6853,3.32288,0,0,0,0,0,0,0,-1,1742,1450,18.6853,-3.3229
525,-426,18.9552,2.71033,0,0,0,0,0,0,0,-1,1749,1450,18.9552,-2.71034
532,-426,17.764,2.81616,0,0,0,0,0,0,0,-1,1756,1450,17.764,-2.81611
539,-426,16.9565,3.07593,0,0,0,0,0,0,0,-1,1763,1450,16.9566,-3.07593
546,-426,16.1915,3.49744,0,0,0,0,0,0,0,-1,1770,1450,16.1916,-3.4975
553,-426,14.5302,8.90405,0,0,0,0,0,0,0,-1,1777,1450,14.5302,-8.90409
560,-426,13.6835,9.19165,0,0,0,0,0,0,0,-1,1784,1450,13.6835,-9.19164
567,-426,11.1727,8.76721,0,0,0,0,0,0,0,-1,1791,1450,11.1727,-8.76724
574,-426,12.8683,8.1709,0,0,0,0,0,0,0,-1,1798,1450,12.8683,-8.17084
581,-426,13.9272,8.80432,0,0,0,0,0,0,0,-1,1805,1450,13.9272,-8.80431
588,-426,13.5209,9.47961,0,0,0,0,0,0,0,-1,1812,1450,13.5209,-9.4796
595,-426,13.5123,9.17004,-0.0200625,-0.0188272,0.0152456,-0.00418674,-0.034703,0.805644,0.0218737,0.0288447,1819,1450,13.5123,-9.17007
602,-426,13.4948,8.90796,-0.0155592,-0.0135878,0.0116824,-0.00284961,-0.0262974,0.827487,0.0166631,0.0151878,1826,1450,13.4948,-8.908
609,-426,13.4846,8.64783,-0.0115571,-0.00964586,0.00868449,-0.00186458,-0.0193384,0.840197,0.0123179,0.0117581,1833,1450,13.4846,-8.64785
616,-426,13.4979,8.422,-0.00811298,-0.00629339,0.0061886,-0.000948072,-0.0134583,0.858381,0.00867347,0.0141141,1840,1450,13.498,-8.42204
623,-426,13.5083,8.16504,-0.0054675,-0.00391821,0.00414862,-0.000472534,-0.00891318,0.877697,0.00579104,0.0115169,1847,1450,13.5083,-8.16508
630,-426,13.509,7.9198,-0.00374681,-0.00266446,0.00279472,-0.000359006,-0.00605226,0.881035,0.00392066,0.0119166,1854,1450,13.509,-7.91974
637,-426,13.4974,7.67834,-0.00241761,-0.00167336,0.00176836,-0.000238393,-0.00385258,0.889102,0.00249272,0.0125638,1861,1450,13.4974,-7.67831
644,-426,13.4628,7.45361,-0.00179823,-0.00127154,0.00134338,-0.000165942,-0.00290383,0.882188,0.00188301,0.0117626,1868,1450,13.4628,-7.45357
651,-426,13.4512,7.22314,-0.00182063,-0.00117104,0.00132125,-0.000135253,-0.00285642,0.905921,0.00186084,0.0113088,1875,1450,13.4511,-7.22319
658,-426,13.4684,6.92358,-0.00278202,-0.00158115,0.0019778,-0.00011465,-0.00424852,0.93277,0.00279491,0.0112909,1882,1450,13.4684,-6.92357
665,-426,13.5137,6.60864,-0.00440143,-0.00228723,0.00310536,-6.39805e-05,-0.00662468,0.949452,0.00439528,0.0180454,1889,1450,13.5137,-6.60859
672,-426,13.4745,6.30212,-0.00665547,-0.00334111,0.00473279,1.62465e-05,-0.0100128,0.953802,0.00668064,0.0343508,1896,1450,13.4745,-6.30218
679,-426,13.0854,6.54602,-0.00954707,-0.00493415,0.00697251,0.000103479,-0.0145847,0.94513,0.00975781,0.0484551,1903,1450,13.0855,-6.54598
686,-426,12.791,6.83154,0,0,0,0,0,0,0,-1,1910,1450,12.791,-6.83154
693,-426,11.8607,6.45215,0,0,0,0,0,0,0,-1,1917,1450,11.8607,-6.45215
700,-426,9.24304,2.95447,0,0,0,0,0,0,0,-1,1924,1450,9.24305,-2.95442
707,-426,8.44519,-1.21448,0,0,0,0,0,0,0,-1,1931,1450,8.44514,1.21454
714,-426,0,0,0,0,0,0,0,0,0,-1,1938,1450,0,0
721,-426,0,0,0,0,0,0,0,0,0,-1,1945,1450,0,0
728,-426,0,0,0,0,0,0,0,0,0,-1,1952,1450,0,0
735,-426,0,0,0,0,0,0,0,0,0,-1,1959,1450,0,0
742,-426,0,0,0,0,0,0,0,0,0,-1,1966,1450,0,0
749,-426,0,0,0,0,0,0,0,0,0,-1,1973,1450,0,0
756,-426,0,0,0,0,0,0,0,0,0,-1,1980,1450,0,0
763,-426,0,0,0,0,0,0,0,0,0,-1,1987,1450,0,0
770,-426,0,0,0,0,0,0,0,0,0,-1,1994,1450,0,0
777,-426,0,0,0,0,0,0,0,0,0,-1,2001,1450,0,0
784,-426,0,0,0,0,0,0,0,0,0,-1,2008,1450,0,0
791,-426,0,0,0,0,0,0,0,0,0,-1,2015,1450,0,0
798,-426,0,0,0,0,0,0,0,0,0,-1,2022,1450,0,0
805,-426,0,0,0,0,0,0,0,0,0,-1,2029,1450,0,0
812,-426,0,0,0,0,0,0,0,0,0,-1,2036,1450,0,0
-700,-433,0,0,0,0,0,0,0,0,0,-1,524,1457,0,0
-693,-433,0,0,0,0,0,0,0,0,0,-1,531,1457,0,0
-686,-433,0,0,0,0,0,0,0,0,0,-1,538,1457,0,0
-679,-433,0,0,0,0,0,0,0,0,0,-1,545,1457,0,0
-672,-433,0,0,0,0,0,0,0,0,0,-1,552,1457,0,0
-665,-433,0,0,0,0,0,0,0,0,0,-1,559,1457,0,0
-658,-433,0,0,0,0,0,0,0,0,0,-1,566,1457,0,0
-651,-433,0,0,0,0,0,0,0,0,0,-1,573,1457,0,0
-644,-433,0,0,0,0,0,0,0,0,0,-1,580,1457,0,0
-637,-433,0,0,0,0,0,0,0,0,0,-1,587,1457,0,0
-630,-433,0,0,0,0,0,0,0,0,0,-1,594,1457,0,0
-623,-433,0,0,0,0,0,0,0,0,0,-1,601,1457,0,0
-616,-433,0,0,0,0,0,0,0,0,0,-1,608,1457,0,0
-609,-433,0,0,0,0,0,0,0,0,0,-1,615,1457,0,0
-602,-433,0,0,0,0,0,0,0,0,0,-1,622,1457,0,0
-595,-433,0,0,0,0,0,0,0,0,0,-1,629,1457,0,0
-588,-433,-10.3756,-0.467041,0,0,0,0,0,0,0,-1,636,1457,-10.3756,0.467081
-581,-433,-8.12201,0.884033,0,0,0,0,0,0,0,-1,643,1457,-8.12204,-0.884056
-574,-433,-5.86847,2.23523,0,0,0,0,0,0,0,-1,650,1457,-5.86844,-2.23519
-567,-433,-5.42255,1.16833,0,0,0,0,0,0,0,-1,657,1457,-5.42254,-1.1683
-560,-433,-6.84027,1.86414,0,0,0,0,0,0,0,-1,664,1457,-6.84026,-1.86412
-553,-433,-5.74017,1.79163,0,0,0,0,0,0,0,-1,671,1457,-5.74015,-1.79166
-546,-433,-4.16309,4.02649,0,0,0,0,0,0,0,-1,678,1457,-4.16309,-4.02655
-539,-433,-4.0769,4.44592,0.0133418,0.010456,0.0134207,0.0253969,-0.00159912,0.731848,0.0174887,0.0467234,685,1457,-4.07688,-4.44593
-532,-433,-3.96344,4.80652,0.0114571,0.00855118,0.0108338,0.0209349,-0.000926683,0.71874,0.0142755,0.0315488,692,1457,-3.96342,-4.80651
-525,-433,-4.06677,5.09119,0.00969652,0.00720868,0.0086637,0.0172051,-0.000299949,0.714096,0.0115714,0.0204085,699,1457,-4.06679,-5.09118
-518,-433,-4.08533,5.3407,0.00797644,0.00574671,0.00670484,0.0136585,6.46804e-05,0.703013,0.00908416,0.0167041,706,1457,-4.08531,-5.34065
-511,-433,-4.11377,5.61169,0.00638861,0.00417158,0.00490336,0.0103072,0.000252992,0.67423,0.00678871,0.0156754,713,1457,-4.11378,-5.61173
-504,-433,-4.11871,5.89014,0.00496002,0.00273055,0.00326861,0.00729875,0.000391821,0.621062,0.00474063,0.0130824,720,1457,-4.11873,-5.89008
-497,-433,-4.09839,6.15137,0.00396684,0.00129261,0.00187802,0.00493512,0.00032433,0.476037,0.00318747,0.0134151,727,1457,-4.0984,-6.15137
-490,-433,-4.09637,6.41675,0.00308109,-0.000987437,0.000492754,0.00313992,-0.00104627,0.118825,0.00251564,0.0145757,734,1457,-4.09636,-6.41676
-483,-433,-4.12122,6.73169,0.00239001,-0.00328791,-0.00110322,0.00259683,-0.00349473,-0.18532,0.00352968,0.015713,741,1457,-4.12119,-6.7317
-476,-433,-4.09668,7.02039,0.00214753,-0.0061653,-0.0025852,0.00288591,-0.00690368,-0.278212,0.00580853,0.0110398,748,1457,-4.0967,-7.0204
-469,-433,-4.09393,7.28809,0.0024134,-0.00949264,-0.00399479,0.00362953,-0.0107088,-0.295516,0.00860798,0.0102951,755,1457,-4.09393,-7.28813
-462,-433,-4.11493,7.55896,0.00325185,-0.0128512,-0.00573823,0.0050874,-0.0146867,-0.309596,0.0118565,0.00945442,762,1457,-4.11496,-7.55892
-455,-433,-4.13794,7.84998,0,0,0,0,0,0,0,-1,769,1457,-4.13795,-7.84999
-448,-433,-3.87195,7.45068,0.00550948,-0.0236612,-0.010624,0.00896855,-0.0271203,-0.314767,0.0216966,0.0365272,776,1457,-3.87194,-7.45063
-441,-433,-3.60803,6.92798,0.00702563,-0.0309537,-0.0140953,0.0116851,-0.0356132,-0.319264,0.0284487,0.0438805,783,1457,-3.60804,-6.92792
-434,-433,-3.25446,6.44165,0,0,0,0,0,0,0,-1,790,1457,-3.25446,-6.44169
-427,-433,-4.9519,7.66504,0,0,0,0,0,0,0,-1,797,1457,-4.95191,-7.66508
-420,-433,-4.82281,7.77942,0,0,0,0,0,0,0,-1,804,1457,-4.8228,-7.77938
-413,-433,-3.63074,5.5813,0,0,0,0,0,0,0,-1,811,1457,-3.63072,-5.58129
-406,-433,-12.3472,4.69373,0,0,0,0,0,0,0,-1,818,1457,-12.3472,-4.69374
-399,-433,-12.055,2.83594,0,0,0,0,0,0,0,-1,825,1457,-12.055,-2.83594
-392,-433,-12.9772,1.6228,0,0,0,0,0,0,0,-1,832,1457,-12.9772,-1.62282
-385,-433,-13.7999,0.514771,0,0,0,0,0,0,0,-1,839,1457,-13.7999,-0.514788
-378,-433,0,0,0,0,0,0,0,0,0,-1,846,1457,0,0
-371,-433,0,0,0,0,0,0,0,0,0,-1,853,1457,0,0
-364,-433,0,0,0,0,0,0,0,0,0,-1,860,1457,0,0
-357,-433,0,0,0,0,0,0,0,0,0,-1,867,1457,0,0
-350,-433,0,0,0,0,0,0,0,0,0,-1,874,1457,0,0
-343,-433,0,0,0,0,0,0,0,0,0,-1,881,1457,0,0
-336,-433,0,0,0,0,0,0,0,0,0,-1,888,1457,0,0
-329,-433,0,0,0,0,0,0,0,0,0,-1,895,1457,0,0
-322,-433,0,0,0,0,0,0,0,0,0,-1,902,1457,0,0
-315,-433,0,0,0,0,0,0,0,0,0,-1,909,1457,0,0
-308,-433,0,0,0,0,0,0,0,0,0,-1,916,1457,0,0
-301,-433,0,0,0,0,0,0,0,0,0,-1,923,1457,0,0
-294,-433,0,0,0,0,0,0,0,0,0,-1,930,1457,0,0
-287,-433,0,0,0,0,0,0,0,0,0,-1,937,1457,0,0
-280,-433,0,0,0,0,0,0,0,0,0,-1,944,1457,0,0
-273,-433,0,0,0,0,0,0,0,0,0,-1,951,1457,0,0
-266,-433,0,0,0,0,0,0,0,0,0,-1,958,1457,0,0
-259,-433,0,0,0,0,0,0,0,0,0,-1,965,1457,0,0
-252,-433,0,0,0,0,0,0,0,0,0,-1,972,1457,0,0
-245,-433,0,0,0,0,0,0,0,0,0,-1,979,1457,0,0
-238,-433,0,0,0,0,0,0,0,0,0,-1,986,1457,0,0
-231,-433,0,0,0,0,0,0,0,0,0,-1,993,1457,0,0
-224,-433,0,0,0,0,0,0,0,0,0,-1,1000,1457,0,0
-217,-433,0,0,0,0,0,0,0,0,0,-1,1007,1457,0,0
-210,-433,0,0,0,0,0,0,0,0,0,-1,1014,1457,0,0
-203,-433,0,0,0,0,0,0,0,0,0,-1,1021,1457,0,0
-196,-433,0,0,0,0,0,0,0,0,0,-1,1028,1457,0,0
-189,-433,0,0,0,0,0,0,0,0,0,-1,1035,1457,0,0
-182,-433,0,0,0,0,0,0,0,0,0,-1,1042,1457,0,0
-175,-433,0,0,0,0,0,0,0,0,0,-1,1049,1457,0,0
-168,-433,0,0,0,0,0,0,0,0,0,-1,1056,1457,0,0
-161,-433,0,0,0,0,0,0,0,0,0,-1,1063,1457,0,0
-154,-433,0,0,0,0,0,0,0,0,0,-1,1070,1457,0,0
-147,-433,0,0,0,0,0,0,0,0,0,-1,1077,1457,0,0
-140,-433,0,0,0,0,0,0,0,0,0,-1,1084,1457,0,0
-133,-433,0,0,0,0,0,0,0,0,0,-1,1091,1457,0,0
-126,-433,0,0,0,0,0,0,0,0,0,-1,1098,1457,0,0
-119,-433,0,0,0,0,0,0,0,0,0,-1,1105,1457,0,0
-112,-433,0,0,0,0,0,0,0,0,0,-1,1112,1457,0,0
-105,-433,0,0,0,0,0,0,0,0,0,-1,1119,1457,0,0
-98,-433,0,0,0,0,0,0,0,0,0,-1,1126,1457,0,0
-91,-433,0,0,0,0,0,0,0,0,0,-1,1133,1457,0,0
-84,-433,0,0,0,0,0,0,0,0,0,-1,1140,1457,0,0
-77,-433,0,0,0,0,0,0,0,0,0,-1,1147,1457,0,0
-70,-433,0,0,0,0,0,0,0,0,0,-1,1154,1457,0,0
-63,-433,0,0,0,0,0,0,0,0,0,-1,1161,1457,0,0
-56,-433,0,0,0,0,0,0,0,0,0,-1,1168,1457,0,0
-49,-433,0,0,0,0,0,0,0,0,0,-1,1175,1457,0,0
-42,-433,0,0,0,0,0,0,0,0,0,-1,1182,1457,0,0
-35,-433,0,0,0,0,0,0,0,0,0,-1,1189,1457,0,0
-28,-433,0,0,0,0,0,0,0,0,0,-1,1196,1457,0,0
-21,-433,0,0,0,0,0,0,0,0,0,-1,1203,1457,0,0
-14,-433,0,0,0,0,0,0,0,0,0,-1,1210,1457,0,0
-7,-433,0,0,0,0,0,0,0,0,0,-1,1217,1457,0,0
0,-433,0,0,0,0,0,0,0,0,0,-1,1224,1457,0,0
7,-433,0,0,0,0,0,0,0,0,0,-1,1231,1457,0,0
14,-433,0,0,0,0,0,0,0,0,0,-1,1238,1457,0,0
21,-433,0,0,0,0,0,0,0,0,0,-1,1245,1457,0,0
28,-433,0,0,0,0,0,0,0,0,0,-1,1252,1457,0,0
35,-433,0,0,0,0,0,0,0,0,0,-1,1259,1457,0,0
42,-433,0,0,0,0,0,0,0,0,0,-1,1266,1457,0,0
49,-433,0,0,0,0,0,0,0,0,0,-1,1273,1457,0,0
56,-433,0,0,0,0,0,0,0,0,0,-1,1280,1457,0,0
63,-433,0,0,0,0,0,0,0,0,0,-1,1287,1457,0,0
70,-433,0,0,0,0,0,0,0,0,0,-1,1294,1457,0,0
77,-433,0,0,0,0,0,0,0,0,0,-1,1301,1457,0,0
84,-433,0,0,0,0,0,0,0,0,0,-1,1308,1457,0,0
91,-433,0,0,0,0,0,0,0,0,0,-1,1315,1457,0,0
98,-433,0,0,0,0,0,0,0,0,0,-1,1322,1457,0,0
105,-433,0,0,0,0,0,0,0,0,0,-1,1329,1457,0,0
112,-433,0,0,0,0,0,0,0,0,0,-1,1336,1457,0,0
119,-433,0,0,0,0,0,0,0,0,0,-1,1343,1457,0,0
126,-433,0,0,0,0,0,0,0,0,0,-1,1350,1457,0,0
133,-433,0,0,0,0,0,0,0,0,0,-1,1357,1457,0,0
140,-433,0,0,0,0,0,0,0,0,0,-1,1364,1457,0,0
147,-433,0,0,0,0,0,0,0,0,0,-1,1371,1457,0,0
154,-433,0,0,0,0,0,0,0,0,0,-1,1378,1457,0,0
161,-433,0,0,0,0,0,0,0,0,0,-1,1385,1457,0,0
168,-433,0,0,0,0,0,0,0,0,0,-1,1392,1457,0,0
175,-433,0,0,0,0,0,0,0,0,0,-1,1399,1457,0,0
182,-433,0,0,0,0,0,0,0,0,0,-1,1406,1457,0,0
189,-433,0,0,0,0,0,0,0,0,0,-1,1413,1457,0,0
196,-433,0,0,0,0,0,0,0,0,0,-1,1420,1457,0,0
203,-433,0,0,0,0,0,0,0,0,0,-1,1427,1457,0,0
210,-433,0,0,0,0,0,0,0,0,0,-1,1434,1457,0,0
217,-433,0,0,0,0,0,0,0,0,0,-1,1441,1457,0,0
224,-433,0,0,0,0,0,0,0,0,0,-1,1448,1457,0,0
231,-433,0,0,0,0,0,0,0,0,0,-1,1455,1457,0,0
238,-433,0,0,0,0,0,0,0,0,0,-1,1462,1457,0,0
245,-433,0,0,0,0,0,0,0,0,0,-1,1469,1457,0,0
252,-433,0,0,0,0,0,0,0,0,0,-1,1476,1457,0,0
259,-433,0,0,0,0,0,0,0,0,0,-1,1483,1457,0,0
266,-433,0,0,0,0,0,0,0,0,0,-1,1490,1457,0,0
273,-433,0,0,0,0,0,0,0,0,0,-1,1497,1457,0,0
280,-433,0,0,0,0,0,0,0,0,0,-1,1504,1457,0,0
287,-433,0,0,0,0,0,0,0,0,0,-1,1511,1457,0,0
294,-433,0,0,0,0,0,0,0,0,0,-1,1518,1457,0,0
301,-433,0,0,0,0,0,0,0,0,0,-1,1525,1457,0,0
308,-433,0,0,0,0,0,0,0,0,0,-1,1532,1457,0,0
315,-433,0,0,0,0,0,0,0,0,0,-1,1539,1457,0,0
322,-433,0,0,0,0,0,0,0,0,0,-1,1546,1457,0,0
329,-433,0,0,0,0,0,0,0,0,0,-1,1553,1457,0,0
336,-433,0,0,0,0,0,0,0,0,0,-1,1560,1457,0,0
343,-433,0,0,0,0,0,0,0,0,0,-1,1567,1457,0,0
350,-433,0,0,0,0,0,0,0,0,0,-1,1574,1457,0,0
357,-433,0,0,0,0,0,0,0,0,0,-1,1581,1457,0,0
364,-433,0,0,0,0,0,0,0,0,0,-1,1588,1457,0,0
371,-433,0,0,0,0,0,0,0,0,0,-1,1595,1457,0,0
378,-433,0,0,0,0,0,0,0,0,0,-1,1602,1457,0,0
385,-433,0,0,0,0,0,0,0,0,0,-1,1609,1457,0,0
392,-433,0,0,0,0,0,0,0,0,0,-1,1616,1457,0,0
399,-433,0,0,0,0,0,0,0,0,0,-1,1623,1457,0,0
406,-433,0,0,0,0,0,0,0,0,0,-1,1630,1457,0,0
413,-433,0,0,0,0,0,0,0,0,0,-1,1637,1457,0,0
420,-433,0,0,0,0,0,0,0,0,0,-1,1644,1457,0,0
427,-433,0,0,0,0,0,0,0,0,0,-1,1651,1457,0,0
434,-433,0,0,0,0,0,0,0,0,0,-1,1658,1457,0,0
441,-433,0,0,0,0,0,0,0,0,0,-1,1665,1457,0,0
448,-433,0,0,0,0,0,0,0,0,0,-1,1672,1457,0,0
455,-433,0,0,0,0,0,0,0,0,0,-1,1679,1457,0,0
462,-433,0,0,0,0,0,0,0,0,0,-1,1686,1457,0,0
469,-433,0,0,0,0,0,0,0,0,0,-1,1693,1457,0,0
476,-433,0,0,0,0,0,0,0,0,0,-1,1700,1457,0,0
483,-433,0,0,0,0,0,0,0,0,0,-1,1707,1457,0,0
490,-433,0,0,0,0,0,0,0,0,0,-1,1714,1457,0,0
497,-433,0,0,0,0,0,0,0,0,0,-1,1721,1457,0,0
504,-433,19.9058,3.03662,0,0,0,0,0,0,0,-1,1728,1457,19.9058,-3.03656
511,-433,19.0145,3.07837,0,0,0,0,0,0,0,-1,1735,1457,19.0146,-3.07834
518,-433,18.071,3.06433,0,0,0,0,0,0,0,-1,1742,1457,18.071,-3.06432
525,-433,17.2048,3.37085,0,0,0,0,0,0,0,-1,1749,1457,17.2049,-3.37083
532,-433,16.5637,3.36646,0,0,0,0,0,0,0,-1,1756,1457,16.5637,-3.36643
539,-433,15.9193,3.30396,0,0,0,0,0,0,0,-1,1763,1457,15.9193,-3.30394
546,-433,14.5652,8.74915,0,0,0,0,0,0,0,-1,1770,1457,14.5652,-8.74918
553,-433,14.1697,8.86621,0,0,0,0,0,0,0,-1,1777,1457,14.1697,-8.86616
560,-433,13.6595,8.94287,0,0,0,0,0,0,0,-1,1784,1457,13.6595,-8.9429
567,-433,13.4116,8.54578,0,0,0,0,0,0,0,-1,1791,1457,13.4116,-8.54577
574,-433,13.6859,9.56909,0,0,0,0,0,0,0,-1,1798,1457,13.686,-9.56908
581,-433,13.6008,9.32349,-0.0238382,-0.0288387,0.0184124,-0.00775707,-0.0449198,0.717915,0.0277249,0.0442793,1805,1457,13.6009,-9.32348
588,-433,13.3956,9.23035,-0.0193652,-0.0211234,0.0151236,-0.00509518,-0.0353934,0.756368,0.0220939,0.0401261,1812,1457,13.3956,-9.2304
595,-433,13.2363,9.1709,-0.0154133,-0.0153636,0.0120006,-0.00338785,-0.027389,0.786433,0.0172414,0.0240357,1819,1457,13.2364,-9.17095
602,-433,13.251,8.90942,-0.011937,-0.0110496,0.00922255,-0.00226008,-0.0207265,0.809435,0.0131293,0.0201101,1826,1457,13.251,-8.90939
609,-433,13.2432,8.64172,-0.00872549,-0.00778031,0.00681751,-0.00141903,-0.0150868,0.820003,0.00961979,0.0149182,1833,1457,13.2431,-8.64173
616,-433,13.2598,8.41724,-0.00590801,-0.00497957,0.0047985,-0.000622883,-0.0102647,0.83362,0.00664524,0.0128389,1840,1457,13.2598,-8.41719
623,-433,13.2438,8.16931,-0.00380969,-0.00303142,0.0031006,-0.000295628,-0.00654548,0.847824,0.00426853,0.0108054,1847,1457,13.2438,-8.16929
630,-433,13.2316,7.92285,-0.00253869,-0.00207122,0.00205954,-0.000232198,-0.00437771,0.841901,0.00284424,0.0132451,1854,1457,13.2315,-7.92282
637,-433,13.2305,7.6897,-0.00149447,-0.00132397,0.0012067,-0.000199514,-0.00261892,0.820664,0.00168339,0.014116,1861,1457,13.2305,-7.68976
644,-433,13.219,7.4707,-0.001088,-0.00108914,0.000861666,-0.000226902,-0.00195023,0.785068,0.00123151,0.0144433,1868,1457,13.2189,-7.47076
651,-433,13.2222,7.24036,-0.0013891,-0.00117839,0.000942317,-0.000335556,-0.00223193,0.841069,0.00138967,0.0112648,1875,1457,13.2222,-7.24037
658,-433,13.2139,6.93066,-0.00270519,-0.00169621,0.00161505,-0.000508686,-0.00389271,0.93678,0.00244329,0.0147546,1882,1457,13.2139,-6.93072
665,-433,13.1559,6.59338,-0.0047747,-0.00236021,0.00262419,-0.00067889,-0.00645602,1.00099,0.00409651,0.0221424,1889,1457,13.1559,-6.59333
672,-433,13.0626,6.52673,-0.00757014,-0.0033108,0.00410913,-0.000812252,-0.0100687,1.02448,0.00645876,0.0424254,1896,1457,13.0626,-6.5267
679,-433,12.605,6.47827,-0.0114666,-0.00474059,0.00622913,-0.00102461,-0.0151825,1.03292,0.00979803,0.0463976,1903,1457,12.605,-6.47824
686,-433,12.2634,6.41077,0,0,0,0,0,0,0,-1,1910,1457,12.2634,-6.41079
693,-433,13.7253,7.20483,0,0,0,0,0,0,0,-1,1917,1457,13.7253,-7.2048
700,-433,7.16809,-1.5166,0,0,0,0,0,0,0,-1,1924,1457,7.16806,1.51656
707,-433,8.68359,-2.82202,0,0,0,0,0,0,0,-1,1931,1457,8.68359,2.82197
714,-433,0,0,0,0,0,0,0,0,0,-1,1938,1457,0,0
721,-433,0,0,0,0,0,0,0,0,0,-1,1945,1457,0,0
728,-433,0,0,0,0,0,0,0,0,0,-1,1952,1457,0,0
735,-433,0,0,0,0,0,0,0,0,0,-1,1959,1457,0,0
742,-433,0,0,0,0,0,0,0,0,0,-1,1966,1457,0,0
749,-433,0,0,0,0,0,0,0,0,0,-1,1973,1457,0,0
756,-433,0,0,0,0,0,0,0,0,0,-1,1980,1457,0,0
763,-433,0,0,0,0,0,0,0,0,0,-1,1987,1457,0,0
770,-433,0,0,0,0,0,0,0,0,0,-1,1994,1457,0,0
777,-433,0,0,0,0,0,0,0,0,0,-1,2001,1457,0,0
784,-433,0,0,0,0,0,0,0,0,0,-1,2008,1457,0,0
791,-433,0,0,0,0,0,0,0,0,0,-1,2015,1457,0,0
798,-433,0,0,0,0,0,0,0,0,0,-1,2022,1457,0,0
805,-433,0,0,0,0,0,0,0,0,0,-1,2029,1457,0,0
812,-433,0,0,0,0,0,0,0,0,0,-1,2036,1457,0,0
-700,-440,0,0,0,0,0,0,0,0,0,-1,524,1464,0,0
-693,-440,0,0,0,0,0,0,0,0,0,-1,531,1464,0,0
-686,-440,0,0,0,0,0,0,0,0,0,-1,538,1464,0,0
-679,-440,0,0,0,0,0,0,0,0,0,-1,545,1464,0,0
-672,-440,0,0,0,0,0,0,0,0,0,-1,552,1464,0,0
-665,-440,0,0,0,0,0,0,0,0,0,-1,559,1464,0,0
-658,-440,0,0,0,0,0,0,0,0,0,-1,566,1464,0,0
-651,-440,0,0,0,0,0,0,0,0,0,-1,573,1464,0,0
-644,-440,0,0,0,0,0,0,0,0,0,-1,580,1464,0,0
-637,-440,0,0,0,0,0,0,0,0,0,-1,587,1464,0,0
-630,-440,0,0,0,0,0,0,0,0,0,-1,594,1464,0,0
-623,-440,0,0,0,0,0,0,0,0,0,-1,601,1464,0,0
-616,-440,0,0,0,0,0,0,0,0,0,-1,608,1464,0,0
-609,-440,0,0,0,0,0,0,0,0,0,-1,615,1464,0,0
-602,-440,0,0,0,0,0,0,0,0,0,-1,622,1464,0,0
-595,-440,0,0,0,0,0,0,0,0,0,-1,629,1464,0,0
-588,-440,0,0,0,0,0,0,0,0,0,-1,636,1464,0,0
-581,-440,-8.97278,0.254517,0,0,0,0,0,0,0,-1,643,1464,-8.97276,-0.254526
-574,-440,-7.00818,-0.918579,0,0,0,0,0,0,0,-1,650,1464,-7.00817,0.918538
-567,-440,-6.12152,-0.0766602,0,0,0,0,0,0,0,-1,657,1464,-6.12151,0.0767097
-560,-440,-5.46747,0.82251,0,0,0,0,0,0,0,-1,664,1464,-5.46748,-0.822551
-553,-440,-6.84729,0.0831299,0,0,0,0,0,0,0,-1,671,1464,-6.84732,-0.083136
-546,-440,-5.63446,-0.153198,0,0,0,0,0,0,0,-1,678,1464,-5.63447,0.153147
-539,-440,-3.87402,4.21277,0,0,0,0,0,0,0,-1,685,1464,-3.87404,-4.21274
-532,-440,-3.81317,4.70105,0.0195742,0.0117601,0.0159275,0.0320668,-0.000732509,0.665122,0.0216262,0.0378396,692,1464,-3.81315,-4.70101
-525,-440,-3.8429,5.10095,0.0158378,0.00982808,0.0124074,0.025599,6.68457e-05,0.666595,0.0170438,0.0215738,699,1464,-3.84287,-5.10092
-518,-440,-3.8432,5.32019,0.0125101,0.00781129,0.00936656,0.0198174,0.000503964,0.66252,0.0130468,0.0145308,706,1464,-3.84321,-5.32013
-511,-440,-3.82611,5.61145,0.00965,0.00581266,0.00679254,0.0147897,0.000673017,0.647751,0.00964326,0.0153216,713,1464,-3.82614,-5.61143
-504,-440,-3.83203,5.87476,0.00722914,0.00398369,0.00461146,0.0104951,0.000717773,0.616219,0.00677014,0.0181826,720,1464,-3.83203,-5.87476
-497,-440,-3.83344,6.12012,0.00549132,0.0023213,0.00287907,0.00719285,0.000619774,0.533773,0.00460257,0.0209009,727,1464,-3.83341,-6.12016
-490,-440,-3.82629,6.3822,0.00408187,1.58589e-05,0.00130137,0.00446272,-0.000364989,0.284701,0.00310397,0.0208219,734,1464,-3.82629,-6.38218
-483,-440,-3.84143,6.69238,0.00294815,-0.00224828,-0.000406348,0.00297974,-0.00227987,-0.0775691,0.00304558,0.0185747,741,1464,-3.8414,-6.6924
-476,-440,-3.8399,6.99854,0.00235916,-0.00494107,-0.00190436,0.00282607,-0.00540798,-0.240439,0.00483121,0.0130145,748,1464,-3.83994,-6.99851
-469,-440,-3.83942,7.29138,0.00243934,-0.00792852,-0.0031876,0.00334096,-0.00883014,-0.275652,0.0072613,0.0119551,755,1464,-3.83941,-7.29135
-462,-440,-3.84711,7.57971,0.00325097,-0.0107579,-0.00458335,0.00461727,-0.0121242,-0.289713,0.00998436,0.0128766,762,1464,-3.84713,-7.57969
-455,-440,-3.77643,7.87463,0.00423834,-0.0145744,-0.00627818,0.00614106,-0.0164771,-0.294269,0.0135055,0.0181308,769,1464,-3.77643,-7.8746
-448,-440,-3.57159,8.06006,0.00565148,-0.0194474,-0.00841911,0.00821396,-0.0220099,-0.295455,0.0180455,0.033064,776,1464,-3.57156,-8.06005
-441,-440,-3.90381,7.755,0.0073678,-0.0252375,-0.0111314,0.0108056,-0.0286753,-0.299544,0.0235598,0.0400063,783,1464,-3.90379,-7.75501
-434,-440,-4.13293,7.62573,0,0,0,0,0,0,0,-1,790,1464,-4.13296,-7.62579
-427,-440,-4.33429,8.35107,0,0,0,0,0,0,0,-1,797,1464,-4.33431,-8.35108
-420,-440,-3.36182,6.51855,0,0,0,0,0,0,0,-1,804,1464,-3.3618,-6.51852
-413,-440,-3.46796,5.72278,0,0,0,0,0,0,0,-1,811,1464,-3.46797,-5.72276
-406,-440,-5.2887,5.20264,0,0,0,0,0,0,0,-1,818,1464,-5.2887,-5.20261
-399,-440,-12.7318,3.94421,0,0,0,0,0,0,0,-1,825,1464,-12.7318,-3.94419
-392,-440,-13.5565,2.51855,0,0,0,0,0,0,0,-1,832,1464,-13.5565,-2.51861
-385,-440,-14.6741,1.39795,0,0,0,0,0,0,0,-1,839,1464,-14.6741,-1.39801
-378,-440,-15.8063,0.293457,0,0,0,0,0,0,0,-1,846,1464,-15.8063,-0.293412
-371,-440,0,0,0,0,0,0,0,0,0,-1,853,1464,0,0
-364,-440,0,0,0,0,0,0,0,0,0,-1,860,1464,0,0
-357,-440,0,0,0,0,0,0,0,0,0,-1,867,1464,0,0
-350,-440,0,0,0,0,0,0,0,0,0,-1,874,1464,0,0
-343,-440,0,0,0,0,0,0,0,0,0,-1,881,1464,0,0
-336,-440,0,0,0,0,0,0,0,0,0,-1,888,1464,0,0
-329,-440,0,0,0,0,0,0,0,0,0,-1,895,1464,0,0
-322,-440,0,0,0,0,0,0,0,0,0,-1,902,1464,0,0
-315,-440,0,0,0,0,0,0,0,0,0,-1,909,1464,0,0
-308,-440,0,0,0,0,0,0,0,0,0,-1,916,1464,0,0
-301,-440,0,0,0,0,0,0,0,0,0,-1,923,1464,0,0
-294,-440,0,0,0,0,0,0,0,0,0,-1,930,1464,0,0
-287,-440,0,0,0,0,0,0,0,0,0,-1,937,1464,0,0
-280,-440,0,0,0,0,0,0,0,0,0,-1,944,1464,0,0
-273,-440,0,0,0,0,0,0,0,0,0,-1,951,1464,0,0
-266,-440,0,0,0,0,0,0,0,0,0,-1,958,1464,0,0
-259,-440,0,0,0,0,0,0,0,0,0,-1,965,1464,0,0
-252,-440,0,0,0,0,0,0,0,0,0,-1,972,1464,0,0
-245,-440,0,0,0,0,0,0,0,0,0,-1,979,1464,0,0
-238,-440,0,0,0,0,0,0,0,0,0,-1,986,1464,0,0
-231,-440,0,0,0,0,0,0,0,0,0,-1,993,1464,0,0
-224,-440,0,0,0,0,0,0,0,0,0,-1,1000,1464,0,0
-217,-440,0,0,0,0,0,0,0,0,0,-1,1007,1464,0,0
-210,-440,0,0,0,0,0,0,0,0,0,-1,1014,1464,0,0
-203,-440,0,0,0,0,0,0,0,0,0,-1,1021,1464,0,0
-196,-440,0,0,0,0,0,0,0,0,0,-1,1028,1464,0,0
-189,-440,0,0,0,0,0,0,0,0,0,-1,1035,1464,0,0
-182,-440,0,0,0,0,0,0,0,0,0,-1,1042,1464,0,0
-175,-440,0,0,0,0,0,0,0,0,0,-1,1049,1464,0,0
-168,-440,0,0,0,0,0,0,0,0,0,-1,1056,1464,0,0
-161,-440,0,0,0,0,0,0,0,0,0,-1,1063,1464,0,0
-154,-440,0,0,0,0,0,0,0,0,0,-1,1070,1464,0,0
-147,-440,0,0,0,0,0,0,0,0,0,-1,1077,1464,0,0
-140,-440,0,0,0,0,0,0,0,0,0,-1,1084,1464,0,0
-133,-440,0,0,0,0,0,0,0,0,0,-1,1091,1464,0,0
-126,-440,0,0,0,0,0,0,0,0,0,-1,1098,1464,0,0
-119,-440,0,0,0,0,0,0,0,0,0,-1,1105,1464,0,0
-112,-440,0,0,0,0,0,0,0,0,0,-1,1112,1464,0,0
-105,-440,0,0,0,0,0,0,0,0,0,-1,1119,1464,0,0
-98,-440,0,0,0,0,0,0,0,0,0,-1,1126,1464,0,0
-91,-440,0,0,0,0,0,0,0,0,0,-1,1133,1464,0,0
-84,-440,0,0,0,0,0,0,0,0,0,-1,1140,1464,0,0
-77,-440,0,0,0,0,0,0,0,0,0,-1,1147,1464,0,0
-70,-440,0,0,0,0,0,0,0,0,0,-1,1154,1464,0,0
-63,-440,0,0,0,0,0,0,0,0,0,-1,1161,1464,0,0
-56,-440,0,0,0,0,0,0,0,0,0,-1,1168,1464,0,0
-49,-440,0,0,0,0,0,0,0,0,0,-1,1175,1464,0,0
-42,-440,0,0,0,0,0,0,0,0,0,-1,1182,1464,0,0
-35,-440,0,0,0,0,0,0,0,0,0,-1,1189,1464,0,0
-28,-440,0,0,0,0,0,0,0,0,0,-1,1196,1464,0,0
-21,-440,0,0,0,0,0,0,0,0,0,-1,1203,1464,0,0
-14,-440,0,0,0,0,0,0,0,0,0,-1,1210,1464,0,0
-7,-440,0,0,0,0,0,0,0,0,0,-1,1217,1464,0,0
0,-440,0,0,0,0,0,0,0,0,0,-1,1224,1464,0,0
7,-440,0,0,0,0,0,0,0,0,0,-1,1231,1464,0,0
14,-440,0,0,0,0,0,0,0,0,0,-1,1238,1464,0,0
21,-440,0,0,0,0,0,0,0,0,0,-1,1245,1464,0,0
28,-440,0,0,0,0,0,0,0,0,0,-1,1252,1464,0,0
35,-440,0,0,0,0,0,0,0,0,0,-1,1259,1464,0,0
42,-440,0,0,0,0,0,0,0,0,0,-1,1266,1464,0,0
49,-440,0,0,0,0,0,0,0,0,0,-1,1273,1464,0,0
56,-440,0,0,0,0,0,0,0,0,0,-1,1280,1464,0,0
63,-440,0,0,0,0,0,0,0,0,0,-1,1287,1464,0,0
70,-440,0,0,0,0,0,0,0,0,0,-1,1294,1464,0,0
77,-440,0,0,0,0,0,0,0,0,0,-1,1301,1464,0,0
84,-440,0,0,0,0,0,0,0,0,0,-1,1308,1464,0,0
91,-440,0,0,0,0,0,0,0,0,0,-1,1315,1464,0,0
98,-440,0,0,0,0,0,0,0,0,0,-1,1322,1464,0,0
105,-440,0,0,0,0,0,0,0,0,0,-1,1329,1464,0,0
112,-440,0,0,0,0,0,0,0,0,0,-1,1336,1464,0,0
119,-440,0,0,0,0,0,0,0,0,0,-1,1343,1464,0,0
126,-440,0,0,0,0,0,0,0,0,0,-1,1350,1464,0,0
133,-440,0,0,0,0,0,0,0,0,0,-1,1357,1464,0,0
140,-440,0,0,0,0,0,0,0,0,0,-1,1364,1464,0,0
147,-440,0,0,0,0,0,0,0,0,0,-1,1371,1464,0,0
154,-440,0,0,0,0,0,0,0,0,0,-1,1378,1464,0,0
161,-440,0,0,0,0,0,0,0,0,0,-1,1385,1464,0,0
168,-440,0,0,0,0,0,0,0,0,0,-1,1392,1464,0,0
175,-440,0,0,0,0,0,0,0,0,0,-1,1399,1464,0,0
182,-440,0,0,0,0,0,0,0,0,0,-1,1406,1464,0,0
189,-440,0,0,0,0,0,0,0,0,0,-1,1413,1464,0,0
196,-440,0,0,0,0,0,0,0,0,0,-1,1420,1464,0,0
203,-440,0,0,0,0,0,0,0,0,0,-1,1427,1464,0,0
210,-440,0,0,0,0,0,0,0,0,0,-1,1434,1464,0,0
217,-440,0,0,0,0,0,0,0,0,0,-1,1441,1464,0,0
224,-440,0,0,0,0,0,0,0,0,0,-1,1448,1464,0,0
231,-440,0,0,0,0,0,0,0,0,0,-1,1455,1464,0,0
238,-440,0,0,0,0,0,0,0,0,0,-1,1462,1464,0,0
245,-440,0,0,0,0,0,0,0,0,0,-1,1469,1464,0,0
252,-440,0,0,0,0,0,0,0,0,0,-1,1476,1464,0,0
259,-440,0,0,0,0,0,0,0,0,0,-1,1483,1464,0,0
266,-440,0,0,0,0,0,0,0,0,0,-1,1490,1464,0,0
273,-440,0,0,0,0,0,0,0,0,0,-1,1497,1464,0,0
280,-440,0,0,0,0,0,0,0,0,0,-1,1504,1464,0,0
287,-440,0,0,0,0,0,0,0,0,0,-1,1511,1464,0,0
294,-440,0,0,0,0,0,0,0,0,0,-1,1518,1464,0,0
301,-440,0,0,0,0,0,0,0,0,0,-1,1525,1464,0,0
308,-440,0,0,0,0,0,0,0,0,0,-1,1532,1464,0,0
315,-440,0,0,0,0,0,0,0,0,0,-1,1539,1464,0,0
322,-440,0,0,0,0,0,0,0,0,0,-1,1546,1464,0,0
329,-440,0,0,0,0,0,0,0,0,0,-1,1553,1464,0,0
336,-440,0,0,0,0,0,0,0,0,0,-1,1560,1464,0,0
343,-440,0,0,0,0,0,0,0,0,0,-1,1567,1464,0,0
350,-440,0,0,0,0,0,0,0,0,0,-1,1574,1464,0,0
357,-440,0,0,0,0,0,0,0,0,0,-1,1581,1464,0,0
364,-440,0,0,0,0,0,0,0,0,0,-1,1588,1464,0,0
371,-440,0,0,0,0,0,0,0,0,0,-1,1595,1464,0,0
378,-440,0,0,0,0,0,0,0,0,0,-1,1602,1464,0,0
385,-440,0,0,0,0,0,0,0,0,0,-1,1609,1464,0,0
392,-440,0,0,0,0,0,0,0,0,0,-1,1616,1464,0,0
399,-440,0,0,0,0,0,0,0,0,0,-1,1623,1464,0,0
406,-440,0,0,0,0,0,0,0,0,0,-1,1630,1464,0,0
413,-440,0,0,0,0,0,0,0,0,0,-1,1637,1464,0,0
420,-440,0,0,0,0,0,0,0,0,0,-1,1644,1464,0,0
427,-440,0,0,0,0,0,0,0,0,0,-1,1651,1464,0,0
434,-440,0,0,0,0,0,0,0,0,0,-1,1658,1464,0,0
441,-440,0,0,0,0,0,0,0,0,0,-1,1665,1464,0,0
448,-440,0,0,0,0,0,0,0,0,0,-1,1672,1464,0,0
455,-440,0,0,0,0,0,0,0,0,0,-1,1679,1464,0,0
462,-440,0,0,0,0,0,0,0,0,0,-1,1686,1464,0,0
469,-440,0,0,0,0,0,0,0,0,0,-1,1693,1464,0,0
476,-440,0,0,0,0,0,0,0,0,0,-1,1700,1464,0,0
483,-440,0,0,0,0,0,0,0,0,0,-1,1707,1464,0,0
490,-440,0,0,0,0,0,0,0,0,0,-1,1714,1464,0,0
497,-440,16.965,-0.528442,0,0,0,0,0,0,0,-1,1721,1464,16.965,0.528492
504,-440,15.8052,0.670166,0,0,0,0,0,0,0,-1,1728,1464,15.8052,-0.670145
511,-440,17.5754,2.77832,0,0,0,0,0,0,0,-1,1735,1464,17.5754,-2.77826
518,-440,16.9017,3.07861,0,0,0,0,0,0,0,-1,1742,1464,16.9018,-3.07859
525,-440,18.4495,12.0867,0,0,0,0,0,0,0,-1,1749,1464,18.4495,-12.0867
532,-440,15.4319,3.64392,0,0,0,0,0,0,0,-1,1756,1464,15.4318,-3.64391
539,-440,14.8214,3.41321,0,0,0,0,0,0,0,-1,1763,1464,14.8214,-3.4132
546,-440,14.0995,9.54028,0,0,0,0,0,0,0,-1,1770,1464,14.0995,-9.54025
553,-440,13.6787,9.01892,0,0,0,0,0,0,0,-1,1777,1464,13.6787,-9.01893
560,-440,13.451,8.99316,-0.0313405,-0.0534458,0.0229985,-0.0168767,-0.0679097,0.561401,0.0408273,0.0442321,1784,1464,13.451,-8.99318
567,-440,13.1638,9.00195,-0.0263783,-0.0411863,0.0200492,-0.0124097,-0.0551549,0.608519,0.0334106,0.0479744,1791,1464,13.1638,-9.00194
574,-440,13.2426,9.70959,0,0,0,0,0,0,0,-1,1798,1464,13.2426,-9.70963
581,-440,13.1284,9.53967,-0.0178557,-0.0234234,0.014095,-0.00627226,-0.0350068,0.687899,0.0215535,0.0411225,1805,1464,13.1284,-9.53971
588,-440,12.962,9.47571,-0.0144367,-0.0170504,0.0116004,-0.00406979,-0.0274173,0.729308,0.0170839,0.0314949,1812,1464,12.962,-9.47569
595,-440,12.9711,9.1958,-0.0114312,-0.0123289,0.00920219,-0.00266695,-0.0210932,0.761029,0.0132628,0.0200166,1819,1464,12.971,-9.19582
602,-440,13.0049,8.89807,-0.00876149,-0.00882634,0.00703993,-0.0017539,-0.0158339,0.783095,0.0100226,0.0185693,1826,1464,13.0049,-8.89802
609,-440,13.0007,8.65771,-0.0062062,-0.00615117,0.00512644,-0.00105217,-0.0113052,0.788081,0.0072117,0.0153395,1833,1464,13.0007,-8.65772
616,-440,13.0118,8.45044,-0.00391869,-0.00386236,0.00351132,-0.00037909,-0.00740196,0.789409,0.00481326,0.0160594,1840,1464,13.0119,-8.45041
623,-440,13.0123,8.18433,-0.00226806,-0.00231623,0.00210085,-0.00019116,-0.00439313,0.779666,0.00286716,0.0131098,1847,1464,13.0124,-8.18435
630,-440,12.9819,7.91272,-0.00135873,-0.0016007,0.00132356,-0.000150638,-0.00280879,0.739819,0.00182439,0.0110525,1854,1464,12.9819,-7.91267
637,-440,12.9791,7.6897,-0.000565153,-0.00107248,0.000634155,-0.000135812,-0.00150183,0.595142,0.000959157,0.0150525,1861,1464,12.9791,-7.68969
644,-440,12.9902,7.47327,-0.000324522,-0.000971924,0.000342239,-0.00017715,-0.0011193,0.406615,0.000694717,0.0138468,1868,1464,12.9902,-7.47327
651,-440,13.0217,7.21692,-0.000840225,-0.00120991,0.000476852,-0.000513643,-0.00153649,0.600499,0.000903187,0.0126548,1875,1464,13.0217,-7.21693
658,-440,12.9702,6.96826,-0.00237208,-0.00180705,0.00109305,-0.000960595,-0.00321854,0.911861,0.00190788,0.0202197,1882,1464,12.9702,-6.96829
665,-440,13.0404,6.6842,-0.00455686,-0.00240628,0.00186119,-0.00133208,-0.00563105,1.04735,0.00339818,0.0325576,1889,1464,13.0405,-6.68419
672,-440,12.8898,6.52759,-0.0074804,-0.00320262,0.00298385,-0.00167024,-0.00901278,1.09636,0.0055364,0.0464857,1896,1464,12.8898,-6.52754
679,-440,12.8403,6.35107,0,0,0,0,0,0,0,-1,1903,1464,12.8403,-6.3511
686,-440,13.1689,6.35303,0,0,0,0,0,0,0,-1,1910,1464,13.1689,-6.35308
693,-440,9.88635,2.89795,0,0,0,0,0,0,0,-1,1917,1464,9.88638,-2.89798
700,-440,7.07825,-2.62061,0,0,0,0,0,0,0,-1,1924,1464,7.07829,2.62057
707,-440,0,0,0,0,0,0,0,0,0,-1,1931,1464,0,0
714,-440,0,0,0,0,0,0,0,0,0,-1,1938,1464,0,0
721,-440,0,0,0,0,0,0,0,0,0,-1,1945,1464,0,0
728,-440,0,0,0,0,0,0,0,0,0,-1,1952,1464,0,0
735,-440,0,0,0,0,0,0,0,0,0,-1,1959,1464,0,0
742,-440,0,0,0,0,0,0,0,0,0,-1,1966,1464,0,0
749,-440,0,0,0,0,0,0,0,0,0,-1,1973,1464,0,0
756,-440,0,0,0,0,0,0,0,0,0,-1,1980,1464,0,0
763,-440,0,0,0,0,0,0,0,0,0,-1,1987,1464,0,0
770,-440,0,0,0,0,0,0,0,0,0,-1,1994,1464,0,0
777,-440,0,0,0,0,0,0,0,0,0,-1,2001,1464,0,0
784,-440,0,0,0,0,0,0,0,0,0,-1,2008,1464,0,0
791,-440,0,0,0,0,0,0,0,0,0,-1,2015,1464,0,0
798,-440,0,0,0,0,0,0,0,0,0,-1,2022,1464,0,0
805,-440,0,0,0,0,0,0,0,0,0,-1,2029,1464,0,0
812,-440,0,0,0,0,0,0,0,0,0,-1,2036,1464,0,0
-700,-447,0,0,0,0,0,0,0,0,0,-1,524,1471,0,0
-693,-447,0,0,0,0,0,0,0,0,0,-1,531,1471,0,0
-686,-447,0,0,0,0,0,0,0,0,0,-1,538,1471,0,0
-679,-447,0,0,0,0,0,0,0,0,0,-1,545,1471,0,0
-672,-447,0,0,0,0,0,0,0,0,0,-1,552,1471,0,0
-665,-447,0,0,0,0,0,0,0,0,0,-1,559,1471,0,0
-658,-447,0,0,0,0,0,0,0,0,0,-1,566,1471,0,0
-651,-447,0,0,0,0,0,0,0,0,0,-1,573,1471,0,0
-644,-447,0,0,0,0,0,0,0,0,0,-1,580,1471,0,0
-637,-447,0,0,0,0,0,0,0,0,0,-1,587,1471,0,0
-630,-447,0,0,0,0,0,0,0,0,0,-1,594,1471,0,0
-623,-447,0,0,0,0,0,0,0,0,0,-1,601,1471,0,0
-616,-447,0,0,0,0,0,0,0,0,0,-1,608,1471,0,0
-609,-447,0,0,0,0,0,0,0,0,0,-1,615,1471,0,0
-602,-447,0,0,0,0,0,0,0,0,0,-1,622,1471,0,0
-595,-447,0,0,0,0,0,0,0,0,0,-1,629,1471,0,0
-588,-447,0,0,0,0,0,0,0,0,0,-1,636,1471,0,0
-581,-447,-7.06482,-1.50476,0,0,0,0,0,0,0,-1,643,1471,-7.0648,1.50474
-574,-447,-6.88092,-0.00585938,0,0,0,0,0,0,0,-1,650,1471,-6.88095,0.00589852
-567,-447,-6.8205,-1.32178,0,0,0,0,0,0,0,-1,657,1471,-6.82047,1.32172
-560,-447,-8.85748,2.80774,0,0,0,0,0,0,0,-1,664,1471,-8.85748,-2.80775
-553,-447,-7.60486,3.26794,0,0,0,0,0,0,0,-1,671,1471,-7.60487,-3.26799
-546,-447,-3.94501,1.8656,0,0,0,0,0,0,0,-1,678,1471,-3.945,-1.86554
-539,-447,-4.17047,3.69226,0,0,0,0,0,0,0,-1,685,1471,-4.1705,-3.69227
-532,-447,-3.85504,4.38904,0,0,0,0,0,0,0,-1,692,1471,-3.85502,-4.38898
-525,-447,-3.53955,5.08569,0,0,0,0,0,0,0,-1,699,1471,-3.53955,-5.08569
-518,-447,-3.552,5.31909,0.0178684,0.0101399,0.0122898,0.0268871,0.00112113,0.633079,0.017563,0.0236406,706,1471,-3.55199,-5.31905
-511,-447,-3.55554,5.61121,0.0133643,0.00752619,0.00881168,0.0197278,0.00116264,0.625452,0.012782,0.0163539,713,1471,-3.55552,-5.61117
-504,-447,-3.55127,5.90784,0.00975433,0.0052019,0.00600098,0.0138963,0.00105995,0.604127,0.00893186,0.0199577,720,1471,-3.5513,-5.90778
-497,-447,-3.56952,6.16968,0.00714608,0.0032445,0.00386843,0.00952776,0.000862813,0.551864,0.00608466,0.0243445,727,1471,-3.56953,-6.16967
-490,-447,-3.56219,6.44165,0.00515713,0.000905714,0.00206967,0.00599827,6.45758e-05,0.386021,0.00397749,0.0236232,734,1471,-3.56216,-6.44166
-483,-447,-3.57037,6.70874,0.00355373,-0.0013239,0.000241836,0.00356569,-0.00133586,0.0494191,0.0029259,0.0207579,741,1471,-3.57034,-6.70876
-476,-447,-3.58124,6.98743,0.0026158,-0.00381465,-0.00127701,0.00286011,-0.00405896,-0.189035,0.00401467,0.0136561,748,1471,-3.58124,-6.98744
-469,-447,-3.57861,7.2998,0.00251739,-0.00646189,-0.00244776,0.0031413,-0.00708581,-0.249576,0.00604925,0.0120301,755,1471,-3.57864,-7.29979
-462,-447,-3.58069,7.58765,0.00326094,-0.00882221,-0.00353349,0.00421838,-0.00977965,-0.264607,0.00829164,0.0113982,762,1471,-3.58069,-7.58769
-455,-447,-3.58435,7.85889,0.00420458,-0.0118452,-0.00485468,0.00555875,-0.0131994,-0.272027,0.0111254,0.0123573,769,1471,-3.58434,-7.8589
-448,-447,-3.51624,8.16248,0.00558448,-0.0155714,-0.00646873,0.00740562,-0.0173925,-0.274427,0.0146991,0.0200116,776,1471,-3.51626,-8.16252
-441,-447,-3.51886,8.35815,0.00731906,-0.0200186,-0.00852483,0.00975954,-0.0224591,-0.278821,0.019077,0.0308348,783,1471,-3.51884,-8.35814
-434,-447,-3.57123,8.32886,0.00929812,-0.0249457,-0.0109664,0.012509,-0.0281566,-0.284831,0.0240507,0.0409388,790,1471,-3.5712,-8.32882
-427,-447,-3.43573,8.26868,0,0,0,0,0,0,0,-1,797,1471,-3.4357,-8.26865
-420,-447,-4.10352,8.23914,0,0,0,0,0,0,0,-1,804,1471,-4.10352,-8.23916
-413,-447,-4.52795,7.78223,0,0,0,0,0,0,0,-1,811,1471,-4.52796,-7.78222
-406,-447,-1.04279,6.18591,0,0,0,0,0,0,0,-1,818,1471,-1.04276,-6.18586
-399,-447,0.0134888,0.687622,0,0,0,0,0,0,0,-1,825,1471,0.0134841,-0.68767
-392,-447,-14.0646,3.76147,0,0,0,0,0,0,0,-1,832,1471,-14.0646,-3.7615
-385,-447,-15.1695,2.61865,0,0,0,0,0,0,0,-1,839,1471,-15.1695,-2.61871
-378,-447,-15.9424,1.49316,0,0,0,0,0,0,0,-1,846,1471,-15.9424,-1.49313
-371,-447,-17.3655,0.73291,0,0,0,0,0,0,0,-1,853,1471,-17.3655,-0.732946
-364,-447,0,0,0,0,0,0,0,0,0,-1,860,1471,0,0
-357,-447,0,0,0,0,0,0,0,0,0,-1,867,1471,0,0
-350,-447,0,0,0,0,0,0,0,0,0,-1,874,1471,0,0
-343,-447,0,0,0,0,0,0,0,0,0,-1,881,1471,0,0
-336,-447,0,0,0,0,0,0,0,0,0,-1,888,1471,0,0
-329,-447,0,0,0,0,0,0,0,0,0,-1,895,1471,0,0
-322,-447,0,0,0,0,0,0,0,0,0,-1,902,1471,0,0
-315,-447,0,0,0,0,0,0,0,0,0,-1,909,1471,0,0
-308,-447,0,0,0,0,0,0,0,0,0,-1,916,1471,0,0
-301,-447,0,0,0,0,0,0,0,0,0,-1,923,1471,0,0
-294,-447,0,0,0,0,0,0,0,0,0,-1,930,1471,0,0
-287,-447,0,0,0,0,0,0,0,0,0,-1,937,1471,0,0
-280,-447,0,0,0,0,0,0,0,0,0,-1,944,1471,0,0
-273,-447,0,0,0,0,0,0,0,0,0,-1,951,1471,0,0
-266,-447,0,0,0,0,0,0,0,0,0,-1,958,1471,0,0
-259,-447,0,0,0,0,0,0,0,0,0,-1,965,1471,0,0
-252,-447,0,0,0,0,0,0,0,0,0,-1,972,1471,0,0
-245,-447,0,0,0,0,0,0,0,0,0,-1,979,1471,0,0
-238,-447,0,0,0,0,0,0,0,0,0,-1,986,1471,0,0
-231,-447,0,0,0,0,0,0,0,0,0,-1,993,1471,0,0
-224,-447,0,0,0,0,0,0,0,0,0,-1,1000,1471,0,0
-217,-447,0,0,0,0,0,0,0,0,0,-1,1007,1471,0,0
-210,-447,0,0,0,0,0,0,0,0,0,-1,1014,1471,0,0
-203,-447,0,0,0,0,0,0,0,0,0,-1,1021,1471,0,0
-196,-447,0,0,0,0,0,0,0,0,0,-1,1028,1471,0,0
-189,-447,0,0,0,0,0,0,0,0,0,-1,1035,1471,0,0
-182,-447,0,0,0,0,0,0,0,0,0,-1,1042,1471,0,0
-175,-447,0,0,0,0,0,0,0,0,0,-1,1049,1471,0,0
-168,-447,0,0,0,0,0,0,0,0,0,-1,1056,1471,0,0
-161,-447,0,0,0,0,0,0,0,0,0,-1,1063,1471,0,0
-154,-447,0,0,0,0,0,0,0,0,0,-1,1070,1471,0,0
-147,-447,0,0,0,0,0,0,0,0,0,-1,1077,1471,0,0
-140,-447,0,0,0,0,0,0,0,0,0,-1,1084,1471,0,0
-133,-447,0,0,0,0,0,0,0,0,0,-1,1091,1471,0,0
-126,-447,0,0,0,0,0,0,0,0,0,-1,1098,1471,0,0
-119,-447,0,0,0,0,0,0,0,0,0,-1,1105,1471,0,0
-112,-447,0,0,0,0,0,0,0,0,0,-1,1112,1471,0,0
-105,-447,0,0,0,0,0,0,0,0,0,-1,1119,1471,0,0
-98,-447,0,0,0,0,0,0,0,0,0,-1,1126,1471,0,0
-91,-447,0,0,0,0,0,0,0,0,0,-1,1133,1471,0,0
-84,-447,0,0,0,0,0,0,0,0,0,-1,1140,1471,0,0
-77,-447,0,0,0,0,0,0,0,0,0,-1,1147,1471,0,0
-70,-447,0,0,0,0,0,0,0,0,0,-1,1154,1471,0,0
-63,-447,0,0,0,0,0,0,0,0,0,-1,1161,1471,0,0
-56,-447,0,0,0,0,0,0,0,0,0,-1,1168,1471,0,0
-49,-447,0,0,0,0,0,0,0,0,0,-1,1175,1471,0,0
-42,-447,0,0,0,0,0,0,0,0,0,-1,1182,1471,0,0
-35,-447,0,0,0,0,0,0,0,0,0,-1,1189,1471,0,0
-28,-447,0,0,0,0,0,0,0,0,0,-1,1196,1471,0,0
-21,-447,0,0,0,0,0,0,0,0,0,-1,1203,1471,0,0
-14,-447,0,0,0,0,0,0,0,0,0,-1,1210,1471,0,0
-7,-447,0,0,0,0,0,0,0,0,0,-1,1217,1471,0,0
0,-447,0,0,0,0,0,0,0,0,0,-1,1224,1471,0,0
7,-447,0,0,0,0,0,0,0,0,0,-1,1231,1471,0,0
14,-447,0,0,0,0,0,0,0,0,0,-1,1238,1471,0,0
21,-447,0,0,0,0,0,0,0,0,0,-1,1245,1471,0,0
28,-447,0,0,0,0,0,0,0,0,0,-1,1252,1471,0,0
35,-447,0,0,0,0,0,0,0,0,0,-1,1259,1471,0,0
42,-447,0,0,0,0,0,0,0,0,0,-1,1266,1471,0,0
49,-447,0,0,0,0,0,0,0,0,0,-1,1273,1471,0,0
56,-447,0,0,0,0,0,0,0,0,0,-1,1280,1471,0,0
63,-447,0,0,0,0,0,0,0,0,0,-1,1287,1471,0,0
70,-447,0,0,0,0,0,0,0,0,0,-1,1294,1471,0,0
77,-447,0,0,0,0,0,0,0,0,0,-1,1301,1471,0,0
84,-447,0,0,0,0,0,0,0,0,0,-1,1308,1471,0,0
91,-447,0,0,0,0,0,0,0,0,0,-1,1315,1471,0,0
98,-447,0,0,0,0,0,0,0,0,0,-1,1322,1471,0,0
105,-447,0,0,0,0,0,0,0,0,0,-1,1329,1471,0,0
112,-447,0,0,0,0,0,0,0,0,0,-1,1336,1471,0,0
119,-447,0,0,0,0,0,0,0,0,0,-1,1343,1471,0,0
126,-447,0,0,0,0,0,0,0,0,0,-1,1350,1471,0,0
133,-447,0,0,0,0,0,0,0,0,0,-1,1357,1471,0,0
140,-447,0,0,0,0,0,0,0,0,0,-1,1364,1471,0,0
147,-447,0,0,0,0,0,0,0,0,0,-1,1371,1471,0,0
154,-447,0,0,0,0,0,0,0,0,0,-1,1378,1471,0,0
161,-447,0,0,0,0,0,0,0,0,0,-1,1385,1471,0,0
168,-447,0,0,0,0,0,0,0,0,0,-1,1392,1471,0,0
175,-447,0,0,0,0,0,0,0,0,0,-1,1399,1471,0,0
182,-447,0,0,0,0,0,0,0,0,0,-1,1406,1471,0,0
189,-447,0,0,0,0,0,0,0,0,0,-1,1413,1471,0,0
196,-447,0,0,0,0,0,0,0,0,0,-1,1420,1471,0,0
203,-447,0,0,0,0,0,0,0,0,0,-1,1427,1471,0,0
210,-447,0,0,0,0,0,0,0,0,0,-1,1434,1471,0,0
217,-447,0,0,0,0,0,0,0,0,0,-1,1441,1471,0,0
224,-447,0,0,0,0,0,0,0,0,0,-1,1448,1471,0,0
231,-447,0,0,0,0,0,0,0,0,0,-1,1455,1471,0,0
238,-447,0,0,0,0,0,0,0,0,0,-1,1462,1471,0,0
245,-447,0,0,0,0,0,0,0,0,0,-1,1469,1471,0,0
252,-447,0,0,0,0,0,0,0,0,0,-1,1476,1471,0,0
259,-447,0,0,0,0,0,0,0,0,0,-1,1483,1471,0,0
266,-447,0,0,0,0,0,0,0,0,0,-1,1490,1471,0,0
273,-447,0,0,0,0,0,0,0,0,0,-1,1497,1471,0,0
280,-447,0,0,0,0,0,0,0,0,0,-1,1504,1471,0,0
287,-447,0,0,0,0,0,0,0,0,0,-1,1511,1471,0,0
294,-447,0,0,0,0,0,0,0,0,0,-1,1518,1471,0,0
301,-447,0,0,0,0,0,0,0,0,0,-1,1525,1471,0,0
308,-447,0,0,0,0,0,0,0,0,0,-1,1532,1471,0,0
315,-447,0,0,0,0,0,0,0,0,0,-1,1539,1471,0,0
322,-447,0,0,0,0,0,0,0,0,0,-1,1546,1471,0,0
329,-447,0,0,0,0,0,0,0,0,0,-1,1553,1471,0,0
336,-447,0,0,0,0,0,0,0,0,0,-1,1560,1471,0,0
343,-447,0,0,0,0,0,0,0,0,0,-1,1567,1471,0,0
350,-447,0,0,0,0,0,0,0,0,0,-1,1574,1471,0,0
357,-447,0,0,0,0,0,0,0,0,0,-1,1581,1471,0,0
364,-447,0,0,0,0,0,0,0,0,0,-1,1588,1471,0,0
371,-447,0,0,0,0,0,0,0,0,0,-1,1595,1471,0,0
378,-447,0,0,0,0,0,0,0,0,0,-1,1602,1471,0,0
385,-447,0,0,0,0,0,0,0,0,0,-1,1609,1471,0,0
392,-447,0,0,0,0,0,0,0,0,0,-1,1616,1471,0,0
399,-447,0,0,0,0,0,0,0,0,0,-1,1623,1471,0,0
406,-447,0,0,0,0,0,0,0,0,0,-1,1630,1471,0,0
413,-447,0,0,0,0,0,0,0,0,0,-1,1637,1471,0,0
420,-447,0,0,0,0,0,0,0,0,0,-1,1644,1471,0,0
427,-447,0,0,0,0,0,0,0,0,0,-1,1651,1471,0,0
434,-447,0,0,0,0,0,0,0,0,0,-1,1658,1471,0,0
441,-447,0,0,0,0,0,0,0,0,0,-1,1665,1471,0,0
448,-447,0,0,0,0,0,0,0,0,0,-1,1672,1471,0,0
455,-447,0,0,0,0,0,0,0,0,0,-1,1679,1471,0,0
462,-447,0,0,0,0,0,0,0,0,0,-1,1686,1471,0,0
469,-447,0,0,0,0,0,0,0,0,0,-1,1693,1471,0,0
476,-447,0,0,0,0,0,0,0,0,0,-1,1700,1471,0,0
483,-447,0,0,0,0,0,0,0,0,0,-1,1707,1471,0,0
490,-447,18.2214,-0.810303,0,0,0,0,0,0,0,-1,1714,1471,18.2215,0.810307
497,-447,17.0237,0.352417,0,0,0,0,0,0,0,-1,1721,1471,17.0237,-0.352442
504,-447,15.8998,1.53479,0,0,0,0,0,0,0,-1,1728,1471,15.8997,-1.53478
511,-447,14.7201,2.76111,0,0,0,0,0,0,0,-1,1735,1471,14.7201,-2.76107
518,-447,17.7618,13.2864,0,0,0,0,0,0,0,-1,1742,1471,17.7619,-13.2863
525,-447,17.1191,11.9014,0,0,0,0,0,0,0,-1,1749,1471,17.1191,-11.9013
532,-447,16.3959,10.0455,0,0,0,0,0,0,0,-1,1756,1471,16.3959,-10.0456
539,-447,14.1699,10.0204,0,0,0,0,0,0,0,-1,1763,1471,14.1699,-10.0204
546,-447,14.1384,9.80762,0,0,0,0,0,0,0,-1,1770,1471,14.1384,-9.80762
553,-447,12.8047,8.60205,0,0,0,0,0,0,0,-1,1777,1471,12.8047,-8.60201
560,-447,13.1891,9.54688,-0.0236145,-0.0438749,0.0180595,-0.013038,-0.0544514,0.529798,0.0328296,0.0441581,1784,1471,13.1891,-9.54693
567,-447,12.9496,9.60156,-0.0197202,-0.0335654,0.0155449,-0.00962613,-0.0436594,0.575916,0.0264872,0.0450051,1791,1471,12.9495,-9.60152
574,-447,12.8881,9.75793,-0.0162422,-0.0253564,0.0130745,-0.00695337,-0.0346452,0.617708,0.0211632,0.033692,1798,1471,12.8881,-9.758
581,-447,12.7627,9.72913,-0.0132034,-0.0188469,0.0107349,-0.00492551,-0.0271247,0.656878,0.0166854,0.0177517,1805,1471,12.7627,-9.72915
588,-447,12.7715,9.43188,-0.010558,-0.013557,0.00879427,-0.00313632,-0.0209787,0.700957,0.0130664,0.0136683,1812,1471,12.7715,-9.43193
595,-447,12.7644,9.17676,-0.00825384,-0.00968733,0.00693923,-0.00199444,-0.0159467,0.733936,0.0100326,0.0123094,1819,1471,12.7644,-9.17679
602,-447,12.7678,8.91052,-0.0061988,-0.00686359,0.00525166,-0.00126903,-0.0117934,0.753793,0.00747523,0.0105963,1826,1471,12.7678,-8.91053
609,-447,12.7655,8.65979,-0.00416275,-0.00470163,0.00373211,-0.000690371,-0.00817402,0.749363,0.00523442,0.011537,1833,1471,12.7656,-8.65981
616,-447,12.7821,8.41992,-0.00229528,-0.00287923,0.00244473,-0.000125149,-0.00504936,0.725965,0.00332531,0.0136268,1840,1471,12.7821,-8.41994
623,-447,12.783,8.18726,-0.000975182,-0.00171089,0.00126216,-2.83624e-05,-0.00265771,0.643603,0.00176243,0.0157112,1847,1471,12.783,-8.18726
630,-447,12.7552,7.9408,-0.000312645,-0.00120902,0.000683893,5.68356e-05,-0.0015785,0.495335,0.00107178,0.00920308,1854,1471,12.7552,-7.94082
637,-447,12.7582,7.69128,0.000305326,-0.000892437,0.000126067,0.000318451,-0.000905562,0.103738,0.000733282,0.00928572,1861,1471,12.7582,-7.69128
644,-447,12.777,7.44922,0.000449688,-0.000907924,-0.000145203,0.000465045,-0.00092328,-0.105367,0.000815974,0.010102,1868,1471,12.7769,-7.44924
651,-447,12.8273,7.20996,-0.000197923,-0.00133045,2.66672e-05,-0.000197296,-0.00133108,0.0235292,0.000829481,0.0220012,1875,1471,12.8273,-7.21
658,-447,12.7738,7.04504,0,0,0,0,0,0,0,-1,1882,1471,12.7739,-7.04501
665,-447,12.9897,6.68274,-0.00400483,-0.00265514,0.00101828,-0.00210838,-0.00455159,1.07803,0.00263023,0.0476853,1889,1471,12.9898,-6.68276
672,-447,13.292,6.41772,-0.006891,-0.00339018,0.00167318,-0.00271913,-0.00756205,1.18937,0.00442297,0.0490546,1896,1471,13.292,-6.41768
679,-447,13.3717,6.01794,0,0,0,0,0,0,0,-1,1903,1471,13.3717,-6.0179
686,-447,9.81079,4.30859,0,0,0,0,0,0,0,-1,1910,1471,9.8108,-4.30864
693,-447,10.48,2.08643,0,0,0,0,0,0,0,-1,1917,1471,10.48,-2.08642
700,-447,0,0,0,0,0,0,0,0,0,-1,1924,1471,0,0
707,-447,0,0,0,0,0,0,0,0,0,-1,1931,1471,0,0
714,-447,0,0,0,0,0,0,0,0,0,-1,1938,1471,0,0
721,-447,0,0,0,0,0,0,0,0,0,-1,1945,1471,0,0
728,-447,0,0,0,0,0,0,0,0,0,-1,1952,1471,0,0
735,-447,0,0,0,0,0,0,0,0,0,-1,1959,1471,0,0
742,-447,0,0,0,0,0,0,0,0,0,-1,1966,1471,0,0
749,-447,0,0,0,0,0,0,0,0,0,-1,1973,1471,0,0
756,-447,0,0,0,0,0,0,0,0,0,-1,1980,1471,0,0
763,-447,0,0,0,0,0,0,0,0,0,-1,1987,1471,0,0
770,-447,0,0,0,0,0,0,0,0,0,-1,1994,1471,0,0
777,-447,0,0,0,0,0,0,0,0,0,-1,2001,1471,0,0
784,-447,0,0,0,0,0,0,0,0,0,-1,2008,1471,0,0
791,-447,0,0,0,0,0,0,0,0,0,-1,2015,1471,0,0
798,-447,0,0,0,0,0,0,0,0,0,-1,2022,1471,0,0
805,-447,0,0,0,0,0,0,0,0,0,-1,2029,1471,0,0
812,-447,0,0,0,0,0,0,0,0,0,-1,2036,1471,0,0
-700,-454,0,0,0,0,0,0,0,0,0,-1,524,1478,0,0
-693,-454,0,0,0,0,0,0,0,0,0,-1,531,1478,0,0
-686,-454,0,0,0,0,0,0,0,0,0,-1,538,1478,0,0
-679,-454,0,0,0,0,0,0,0,0,0,-1,545,1478,0,0
-672,-454,0,0,0,0,0,0,0,0,0,-1,552,1478,0,0
-665,-454,0,0,0,0,0,0,0,0,0,-1,559,1478,0,0
-658,-454,0,0,0,0,0,0,0,0,0,-1,566,1478,0,0
-651,-454,0,0,0,0,0,0,0,0,0,-1,573,1478,0,0
-644,-454,0,0,0,0,0,0,0,0,0,-1,580,1478,0,0
-637,-454,0,0,0,0,0,0,0,0,0,-1,587,1478,0,0
-630,-454,0,0,0,0,0,0,0,0,0,-1,594,1478,0,0
-623,-454,0,0,0,0,0,0,0,0,0,-1,601,1478,0,0
-616,-454,0,0,0,0,0,0,0,0,0,-1,608,1478,0,0
-609,-454,0,0,0,0,0,0,0,0,0,-1,615,1478,0,0
-602,-454,0,0,0,0,0,0,0,0,0,-1,622,1478,0,0
-595,-454,0,0,0,0,0,0,0,0,0,-1,629,1478,0,0
-588,-454,0,0,0,0,0,0,0,0,0,-1,636,1478,0,0
-581,-454,0,0,0,0,0,0,0,0,0,-1,643,1478,0,0
-574,-454,-8.4881,-0.465942,0,0,0,0,0,0,0,-1,650,1478,-8.4881,0.465885
-567,-454,-8.10046,0.922974,0,0,0,0,0,0,0,-1,657,1478,-8.10047,-0.923034
-560,-454,-10.656,3.51172,0,0,0,0,0,0,0,-1,664,1478,-10.656,-3.51176
-553,-454,-9.01129,3.95251,0,0,0,0,0,0,0,-1,671,1478,-9.0113,-3.95256
-546,-454,-7.63965,4.38733,0,0,0,0,0,0,0,-1,678,1478,-7.63964,-4.3873
-539,-454,-4.83545,3.25732,0,0,0,0,0,0,0,-1,685,1478,-4.83545,-3.25729
-532,-454,-4.13434,3.99646,0.041213,0.0208989,0.0281253,0.0609591,0.0011528,0.612118,0.0402606,0.0453765,692,1478,-4.13434,-3.99648
-525,-454,-3.57471,4.88245,0.0317004,0.0167535,0.0210903,0.0466022,0.00185161,0.615124,0.0304697,0.0423036,699,1478,-3.5747,-4.88239
-518,-454,-3.16974,5.4397,0,0,0,0,0,0,0,-1,706,1478,-3.16972,-5.4397
-511,-454,-3.30634,5.61084,0.0173952,0.00940869,0.0107494,0.0248691,0.00193477,0.607555,0.0159736,0.0189793,713,1478,-3.30636,-5.61083
-504,-454,-3.26837,5.90796,0.0124112,0.00651076,0.00721898,0.0172595,0.00166241,0.591417,0.0109942,0.0158625,720,1478,-3.26838,-5.90797
-497,-454,-3.263,6.17773,0.0087966,0.00420581,0.00463621,0.0116745,0.00132788,0.555537,0.00738032,0.0197035,727,1478,-3.26302,-6.17774
-490,-454,-3.26282,6.49036,0.00614986,0.00181816,0.00260027,0.00736814,0.000599883,0.438148,0.00472484,0.0181735,734,1478,-3.26283,-6.4904
-483,-454,-3.28302,6.7605,0.00403586,-0.000396897,0.000664845,0.00413343,-0.000494466,0.145714,0.00293436,0.0161266,741,1478,-3.28302,-6.76049
-476,-454,-3.30603,7.01282,0.00274623,-0.00270178,-0.00085261,0.00287654,-0.00283209,-0.15167,0.00329592,0.0128298,748,1478,-3.306,-7.01287
-469,-454,-3.31122,7.29663,0.00248456,-0.00505831,-0.00189126,0.0029322,-0.00550595,-0.232412,0.00494673,0.00912174,755,1478,-3.31122,-7.29668
-462,-454,-3.3075,7.56897,0.00314399,-0.00706626,-0.00268863,0.00380871,-0.00773097,-0.242371,0.00678951,0.00906066,762,1478,-3.30749,-7.56895
-455,-454,-3.30109,7.84363,0.00402969,-0.00944357,-0.00367154,0.00496524,-0.0103791,-0.249503,0.00904101,0.0100603,769,1478,-3.3011,-7.8436
-448,-454,-3.29333,8.13123,0.00535842,-0.0122153,-0.00480654,0.00658714,-0.013444,-0.250274,0.0117887,0.0121295,776,1478,-3.29334,-8.13122
-441,-454,-3.15741,8.41516,0.00705385,-0.0154714,-0.00624726,0.00867047,-0.017088,-0.253218,0.0151341,0.0226779,783,1478,-3.15744,-8.41519
-434,-454,-2.98346,8.52563,0.00897435,-0.0192357,-0.00805171,0.0111107,-0.0213721,-0.259351,0.0190633,0.0313961,790,1478,-2.98345,-8.52563
-427,-454,-2.8783,8.2439,0.0112106,-0.0227941,-0.0100126,0.0139397,-0.0255233,-0.266107,0.0231088,0.04242,797,1478,-2.87831,-8.24396
-420,-454,-3.27753,8.51294,0,0,0,0,0,0,0,-1,804,1478,-3.27751,-8.51297
-413,-454,-3.10095,9.88684,0,0,0,0,0,0,0,-1,811,1478,-3.10094,-9.88688
-406,-454,-2.38208,10.0308,0,0,0,0,0,0,0,-1,818,1478,-2.38209,-10.0308
-399,-454,-1.21033,6.95447,0,0,0,0,0,0,0,-1,825,1478,-1.21035,-6.95452
-392,-454,0.0967407,0.985474,0,0,0,0,0,0,0,-1,832,1478,0.0967364,-0.985529
-385,-454,2.38629,3.297,0,0,0,0,0,0,0,-1,839,1478,2.38629,-3.29702
-378,-454,-15.9756,2.83997,0,0,0,0,0,0,0,-1,846,1478,-15.9756,-2.83994
-371,-454,-17.2753,2.01453,0,0,0,0,0,0,0,-1,853,1478,-17.2753,-2.01455
-364,-454,1.08124,0.819458,0,0,0,0,0,0,0,-1,860,1478,1.08124,-0.819513
-357,-454,0,0,0,0,0,0,0,0,0,-1,867,1478,0,0
-350,-454,0,0,0,0,0,0,0,0,0,-1,874,1478,0,0
-343,-454,0,0,0,0,0,0,0,0,0,-1,881,1478,0,0
-336,-454,0,0,0,0,0,0,0,0,0,-1,888,1478,0,0
-329,-454,0,0,0,0,0,0,0,0,0,-1,895,1478,0,0
-322,-454,0,0,0,0,0,0,0,0,0,-1,902,1478,0,0
-315,-454,0,0,0,0,0,0,0,0,0,-1,909,1478,0,0
-308,-454,0,0,0,0,0,0,0,0,0,-1,916,1478,0,0
-301,-454,0,0,0,0,0,0,0,0,0,-1,923,1478,0,0
-294,-454,0,0,0,0,0,0,0,0,0,-1,930,1478,0,0
-287,-454,0,0,0,0,0,0,0,0,0,-1,937,1478,0,0
-280,-454,0,0,0,0,0,0,0,0,0,-1,944,1478,0,0
-273,-454,0,0,0,0,0,0,0,0,0,-1,951,1478,0,0
-266,-454,0,0,0,0,0,0,0,0,0,-1,958,1478,0,0
-259,-454,0,0,0,0,0,0,0,0,0,-1,965,1478,0,0
-252,-454,0,0,0,0,0,0,0,0,0,-1,972,1478,0,0
-245,-454,0,0,0,0,0,0,0,0,0,-1,979,1478,0,0
-238,-454,0,0,0,0,0,0,0,0,0,-1,986,1478,0,0
-231,-454,0,0,0,0,0,0,0,0,0,-1,993,1478,0,0
-224,-454,0,0,0,0,0,0,0,0,0,-1,1000,1478,0,0
-217,-454,0,0,0,0,0,0,0,0,0,-1,1007,1478,0,0
-210,-454,0,0,0,0,0,0,0,0,0,-1,1014,1478,0,0
-203,-454,0,0,0,0,0,0,0,0,0,-1,1021,1478,0,0
-196,-454,0,0,0,0,0,0,0,0,0,-1,1028,1478,0,0
-189,-454,0,0,0,0,0,0,0,0,0,-1,1035,1478,0,0
-182,-454,0,0,0,0,0,0,0,0,0,-1,1042,1478,0,0
-175,-454,0,0,0,0,0,0,0,0,0,-1,1049,1478,0,0
-168,-454,0,0,0,0,0,0,0,0,0,-1,1056,1478,0,0
-161,-454,0,0,0,0,0,0,0,0,0,-1,1063,1478,0,0
-154,-454,0,0,0,0,0,0,0,0,0,-1,1070,1478,0,0
-147,-454,0,0,0,0,0,0,0,0,0,-1,1077,1478,0,0
-140,-454,0,0,0,0,0,0,0,0,0,-1,1084,1478,0,0
-133,-454,0,0,0,0,0,0,0,0,0,-1,1091,1478,0,0
-126,-454,0,0,0,0,0,0,0,0,0,-1,1098,1478,0,0
-119,-454,0,0,0,0,0,0,0,0,0,-1,1105,1478,0,0
-112,-454,0,0,0,0,0,0,0,0,0,-1,1112,1478,0,0
-105,-454,0,0,0,0,0,0,0,0,0,-1,1119,1478,0,0
-98,-454,0,0,0,0,0,0,0,0,0,-1,1126,1478,0,0
-91,-454,0,0,0,0,0,0,0,0,0,-1,1133,1478,0,0
-84,-454,0,0,0,0,0,0,0,0,0,-1,1140,1478,0,0
-77,-454,0,0,0,0,0,0,0,0,0,-1,1147,1478,0,0
-70,-454,0,0,0,0,0,0,0,0,0,-1,1154,1478,0,0
-63,-454,0,0,0,0,0,0,0,0,0,-1,1161,1478,0,0
-56,-454,0,0,0,0,0,0,0,0,0,-1,1168,1478,0,0
-49,-454,0,0,0,0,0,0,0,0,0,-1,1175,1478,0,0
-42,-454,0,0,0,0,0,0,0,0,0,-1,1182,1478,0,0
-35,-454,0,0,0,0,0,0,0,0,0,-1,1189,1478,0,0
-28,-454,0,0,0,0,0,0,0,0,0,-1,1196,1478,0,0
-21,-454,0,0,0,0,0,0,0,0,0,-1,1203,1478,0,0
-14,-454,0,0,0,0,0,0,0,0,0,-1,1210,1478,0,0
-7,-454,0,0,0,0,0,0,0,0,0,-1,1217,1478,0,0
0,-454,0,0,0,0,0,0,0,0,0,-1,1224,1478,0,0
7,-454,0,0,0,0,0,0,0,0,0,-1,1231,1478,0,0
14,-454,0,0,0,0,0,0,0,0,0,-1,1238,1478,0,0
21,-454,0,0,0,0,0,0,0,0,0,-1,1245,1478,0,0
28,-454,0,0,0,0,0,0,0,0,0,-1,1252,1478,0,0
35,-454,0,0,0,0,0,0,0,0,0,-1,1259,1478,0,0
42,-454,0,0,0,0,0,0,0,0,0,-1,1266,1478,0,0
49,-454,0,0,0,0,0,0,0,0,0,-1,1273,1478,0,0
56,-454,0,0,0,0,0,0,0,0,0,-1,1280,1478,0,0
63,-454,0,0,0,0,0,0,0,0,0,-1,1287,1478,0,0
70,-454,0,0,0,0,0,0,0,0,0,-1,1294,1478,0,0
77,-454,0,0,0,0,0,0,0,0,0,-1,1301,1478,0,0
84,-454,0,0,0,0,0,0,0,0,0,-1,1308,1478,0,0
91,-454,0,0,0,0,0,0,0,0,0,-1,1315,1478,0,0
98,-454,0,0,0,0,0,0,0,0,0,-1,1322,1478,0,0
105,-454,0,0,0,0,0,0,0,0,0,-1,1329,1478,0,0
112,-454,0,0,0,0,0,0,0,0,0,-1,1336,1478,0,0
119,-454,0,0,0,0,0,0,0,0,0,-1,1343,1478,0,0
126,-454,0,0,0,0,0,0,0,0,0,-1,1350,1478,0,0
133,-454,0,0,0,0,0,0,0,0,0,-1,1357,1478,0,0
140,-454,0,0,0,0,0,0,0,0,0,-1,1364,1478,0,0
147,-454,0,0,0,0,0,0,0,0,0,-1,1371,1478,0,0
154,-454,0,0,0,0,0,0,0,0,0,-1,1378,1478,0,0
161,-454,0,0,0,0,0,0,0,0,0,-1,1385,1478,0,0
168,-454,0,0,0,0,0,0,0,0,0,-1,1392,1478,0,0
175,-454,0,0,0,0,0,0,0,0,0,-1,1399,1478,0,0
182,-454,0,0,0,0,0,0,0,0,0,-1,1406,1478,0,0
189,-454,0,0,0,0,0,0,0,0,0,-1,1413,1478,0,0
196,-454,0,0,0,0,0,0,0,0,0,-1,1420,1478,0,0
203,-454,0,0,0,0,0,0,0,0,0,-1,1427,1478,0,0
210,-454,0,0,0,0,0,0,0,0,0,-1,1434,1478,0,0
217,-454,0,0,0,0,0,0,0,0,0,-1,1441,1478,0,0
224,-454,0,0,0,0,0,0,0,0,0,-1,1448,1478,0,0
231,-454,0,0,0,0,0,0,0,0,0,-1,1455,1478,0,0
238,-454,0,0,0,0,0,0,0,0,0,-1,1462,1478,0,0
245,-454,0,0,0,0,0,0,0,0,0,-1,1469,1478,0,0
252,-454,0,0,0,0,0,0,0,0,0,-1,1476,1478,0,0
259,-454,0,0,0,0,0,0,0,0,0,-1,1483,1478,0,0
266,-454,0,0,0,0,0,0,0,0,0,-1,1490,1478,0,0
273,-454,0,0,0,0,0,0,0,0,0,-1,1497,1478,0,0
280,-454,0,0,0,0,0,0,0,0,0,-1,1504,1478,0,0
287,-454,0,0,0,0,0,0,0,0,0,-1,1511,1478,0,0
294,-454,0,0,0,0,0,0,0,0,0,-1,1518,1478,0,0
301,-454,0,0,0,0,0,0,0,0,0,-1,1525,1478,0,0
308,-454,0,0,0,0,0,0,0,0,0,-1,1532,1478,0,0
315,-454,0,0,0,0,0,0,0,0,0,-1,1539,1478,0,0
322,-454,0,0,0,0,0,0,0,0,0,-1,1546,1478,0,0
329,-454,0,0,0,0,0,0,0,0,0,-1,1553,1478,0,0
336,-454,0,0,0,0,0,0,0,0,0,-1,1560,1478,0,0
343,-454,0,0,0,0,0,0,0,0,0,-1,1567,1478,0,0
350,-454,0,0,0,0,0,0,0,0,0,-1,1574,1478,0,0
357,-454,0,0,0,0,0,0,0,0,0,-1,1581,1478,0,0
364,-454,0,0,0,0,0,0,0,0,0,-1,1588,1478,0,0
371,-454,0,0,0,0,0,0,0,0,0,-1,1595,1478,0,0
378,-454,0,0,0,0,0,0,0,0,0,-1,1602,1478,0,0
385,-454,0,0,0,0,0,0,0,0,0,-1,1609,1478,0,0
392,-454,0,0,0,0,0,0,0,0,0,-1,1616,1478,0,0
399,-454,0,0,0,0,0,0,0,0,0,-1,1623,1478,0,0
406,-454,0,0,0,0,0,0,0,0,0,-1,1630,1478,0,0
413,-454,0,0,0,0,0,0,0,0,0,-1,1637,1478,0,0
420,-454,0,0,0,0,0,0,0,0,0,-1,1644,1478,0,0
427,-454,0,0,0,0,0,0,0,0,0,-1,1651,1478,0,0
434,-454,0,0,0,0,0,0,0,0,0,-1,1658,1478,0,0
441,-454,0,0,0,0,0,0,0,0,0,-1,1665,1478,0,0
448,-454,0,0,0,0,0,0,0,0,0,-1,1672,1478,0,0
455,-454,0,0,0,0,0,0,0,0,0,-1,1679,1478,0,0
462,-454,0,0,0,0,0,0,0,0,0,-1,1686,1478,0,0
469,-454,0,0,0,0,0,0,0,0,0,-1,1693,1478,0,0
476,-454,0,0,0,0,0,0,0,0,0,-1,1700,1478,0,0
483,-454,14.2399,3.97498,0,0,0,0,0,0,0,-1,1707,1478,14.2399,-3.97502
490,-454,18.1821,-0.175781,0,0,0,0,0,0,0,-1,1714,1478,18.1821,0.175822
497,-454,16.8854,1.01208,0,0,0,0,0,0,0,-1,1721,1478,16.8854,-1.01209
504,-454,15.587,2.05994,0,0,0,0,0,0,0,-1,1728,1478,15.5871,-2.05998
511,-454,17.0273,14.5258,0,0,0,0,0,0,0,-1,1735,1478,17.0273,-14.5258
518,-454,16.4158,13.1039,0,0,0,0,0,0,0,-1,1742,1478,16.4157,-13.1038
525,-454,15.7842,11.6628,0,0,0,0,0,0,0,-1,1749,1478,15.7841,-11.6629
532,-454,15.1094,10.2476,0,0,0,0,0,0,0,-1,1756,1478,15.1094,-10.2475
539,-454,13.7905,10.9373,0,0,0,0,0,0,0,-1,1763,1478,13.7906,-10.9372
546,-454,13.1571,9.6261,0,0,0,0,0,0,0,-1,1770,1478,13.1571,-9.62611
553,-454,12.722,9.54651,0,0,0,0,0,0,0,-1,1777,1478,12.722,-9.54646
560,-454,12.2869,9.4668,0,0,0,0,0,0,0,-1,1784,1478,12.2869,-9.46682
567,-454,12.6034,10.1364,-0.0149165,-0.0272595,0.0120369,-0.0075612,-0.0346148,0.548515,0.0210146,0.0321772,1791,1478,12.6033,-10.1364
574,-454,12.5216,9.88135,-0.0120059,-0.0204172,0.0100211,-0.00534371,-0.0270793,0.586721,0.0165616,0.0156368,1798,1478,12.5217,-9.88129
581,-454,12.524,9.6676,-0.00965116,-0.0150635,0.00813766,-0.00378151,-0.0209332,0.624875,0.0128813,0.0111672,1805,1478,12.524,-9.6676
588,-454,12.5375,9.41589,-0.00754053,-0.0106447,0.00660263,-0.00231003,-0.0158752,0.669957,0.0099037,0.0128977,1812,1478,12.5374,-9.41588
595,-454,12.5166,9.16199,-0.00573106,-0.00746084,0.00514858,-0.00137523,-0.0118167,0.702182,0.00746174,0.0123666,1819,1478,12.5166,-9.16194
602,-454,12.5168,8.91907,-0.00412345,-0.00519455,0.00382099,-0.000800661,-0.00851734,0.715772,0.00543105,0.00844577,1826,1478,12.5169,-8.91903
609,-454,12.5287,8.69141,-0.0024801,-0.00347251,0.00261376,-0.000315859,-0.00563675,0.691592,0.0036571,0.0100981,1833,1478,12.5287,-8.69143
616,-454,12.5398,8.44678,-0.000933773,-0.00207329,0.00159294,0.000188239,-0.0031953,0.613649,0.00219564,0.0134717,1840,1478,12.5398,-8.44682
623,-454,12.5325,8.19202,0.000158152,-0.00126193,0.000596067,0.000375178,-0.00147896,0.349178,0.00113195,0.011453,1847,1478,12.5324,-8.19196
630,-454,12.5222,7.9502,0.000673973,-0.000953735,0.000168527,0.000691238,-0.000971001,0.102094,0.000964214,0.0098484,1854,1478,12.5223,-7.95025
637,-454,12.5161,7.71375,0.00119118,-0.000847461,-0.00029478,0.00123295,-0.000889229,-0.140756,0.00123059,0.00902811,1861,1478,12.5161,-7.71374
644,-454,12.5743,7.46399,0.00133573,-0.00096466,-0.000613001,0.00148888,-0.00111781,-0.244831,0.00151005,0.0164717,1868,1478,12.5743,-7.464
651,-454,12.4534,7.32227,0.000679762,-0.00155735,-0.000489697,0.00078226,-0.00165984,-0.206329,0.00143997,0.029694,1875,1478,12.4534,-7.32226
658,-454,12.5388,7.12744,0,0,0,0,0,0,0,-1,1882,1478,12.5389,-7.1274
665,-454,13.0548,6.57129,0,0,0,0,0,0,0,-1,1889,1478,13.0548,-6.57125
672,-454,13.7886,6.72791,0,0,0,0,0,0,0,-1,1896,1478,13.7885,-6.72792
679,-454,14.2161,5.45007,0,0,0,0,0,0,0,-1,1903,1478,14.2161,-5.45013
686,-454,10.3767,2.12842,0,0,0,0,0,0,0,-1,1910,1478,10.3767,-2.12839
693,-454,11.1857,1.48486,0,0,0,0,0,0,0,-1,1917,1478,11.1857,-1.48487
700,-454,0,0,0,0,0,0,0,0,0,-1,1924,1478,0,0
707,-454,0,0,0,0,0,0,0,0,0,-1,1931,1478,0,0
714,-454,0,0,0,0,0,0,0,0,0,-1,1938,1478,0,0
721,-454,0,0,0,0,0,0,0,0,0,-1,1945,1478,0,0
728,-454,0,0,0,0,0,0,0,0,0,-1,1952,1478,0,0
735,-454,0,0,0,0,0,0,0,0,0,-1,1959,1478,0,0
742,-454,0,0,0,0,0,0,0,0,0,-1,1966,1478,0,0
749,-454,0,0,0,0,0,0,0,0,0,-1,1973,1478,0,0
756,-454,0,0,0,0,0,0,0,0,0,-1,1980,1478,0,0
763,-454,0,0,0,0,0,0,0,0,0,-1,1987,1478,0,0
770,-454,0,0,0,0,0,0,0,0,0,-1,1994,1478,0,0
777,-454,0,0,0,0,0,0,0,0,0,-1,2001,1478,0,0
784,-454,0,0,0,0,0,0,0,0,0,-1,2008,1478,0,0
791,-454,0,0,0,0,0,0,0,0,0,-1,2015,1478,0,0
798,-454,0,0,0,0,0,0,0,0,0,-1,2022,1478,0,0
805,-454,0,0,0,0,0,0,0,0,0,-1,2029,1478,0,0
812,-454,0,0,0,0,0,0,0,0,0,-1,2036,1478,0,0
-700,-461,0,0,0,0,0,0,0,0,0,-1,524,1485,0,0
-693,-461,0,0,0,0,0,0,0,0,0,-1,531,1485,0,0
-686,-461,0,0,0,0,0,0,0,0,0,-1,538,1485,0,0
-679,-461,0,0,0,0,0,0,0,0,0,-1,545,1485,0,0
-672,-461,0,0,0,0,0,0,0,0,0,-1,552,1485,0,0
-665,-461,0,0,0,0,0,0,0,0,0,-1,559,1485,0,0
-658,-461,0,0,0,0,0,0,0,0,0,-1,566,1485,0,0
-651,-461,0,0,0,0,0,0,0,0,0,-1,573,1485,0,0
-644,-461,0,0,0,0,0,0,0,0,0,-1,580,1485,0,0
-637,-461,0,0,0,0,0,0,0,0,0,-1,587,1485,0,0
-630,-461,0,0,0,0,0,0,0,0,0,-1,594,1485,0,0
-623,-461,0,0,0,0,0,0,0,0,0,-1,601,1485,0,0
-616,-461,0,0,0,0,0,0,0,0,0,-1,608,1485,0,0
-609,-461,0,0,0,0,0,0,0,0,0,-1,615,1485,0,0
-602,-461,0,0,0,0,0,0,0,0,0,-1,622,1485,0,0
-595,-461,0,0,0,0,0,0,0,0,0,-1,629,1485,0,0
-588,-461,0,0,0,0,0,0,0,0,0,-1,636,1485,0,0
-581,-461,0,0,0,0,0,0,0,0,0,-1,643,1485,0,0
-574,-461,0,0,0,0,0,0,0,0,0,-1,650,1485,0,0
-567,-461,-9.69031,0.513306,0,0,0,0,0,0,0,-1,657,1485,-9.69032,-0.513305
-560,-461,-7.28815,1.54004,0,0,0,0,0,0,0,-1,664,1485,-7.28817,-1.54005
-553,-461,-10.1774,4.61963,0,0,0,0,0,0,0,-1,671,1485,-10.1774,-4.61957
-546,-461,-5.84113,2.38074,0,0,0,0,0,0,0,-1,678,1485,-5.8411,-2.38071
-539,-461,-5.02014,3.17517,0.0685516,0.032421,0.0462282,0.100119,0.000853647,0.599129,0.0664632,0.0441267,685,1485,-5.02011,-3.17515
-532,-461,-4.34564,3.84485,0.0536083,0.0267382,0.0353226,0.0779646,0.00238193,0.60367,0.0512009,0.0420073,692,1485,-4.34566,-3.84487
-525,-461,-3.80951,4.47644,0.0406525,0.0210272,0.0260726,0.0586978,0.00298186,0.605417,0.0381768,0.0447701,699,1485,-3.80949,-4.47646
-518,-461,-3.18945,5.07996,0,0,0,0,0,0,0,-1,706,1485,-3.18943,-5.07994
-511,-461,-2.98016,5.69214,0.0214535,0.0114646,0.0127989,0.030198,0.00272015,0.599372,0.0192893,0.0214123,713,1485,-2.98017,-5.69214
-504,-461,-3.01855,5.9043,0.0149752,0.00788788,0.00845589,0.0205999,0.00226313,0.586978,0.0130445,0.012531,720,1485,-3.01854,-5.90428
-497,-461,-2.99164,6.20117,0.0102388,0.00518297,0.00536212,0.013639,0.00178276,0.565129,0.00856052,0.0110257,727,1485,-2.99164,-6.20122
-490,-461,-3.00903,6.48706,0.00689222,0.00271798,0.00307309,0.00851993,0.00109028,0.487097,0.00535366,0.0121775,734,1485,-3.00901,-6.4871
-483,-461,-3.0163,6.76465,0.00428337,0.000492433,0.00102905,0.00454469,0.000231112,0.248688,0.00295577,0.0120773,741,1485,-3.01632,-6.76471
-476,-461,-3.02722,7.04431,0.00270493,-0.00165451,-0.000490145,0.00275936,-0.00170894,-0.110594,0.00260343,0.0104273,748,1485,-3.02725,-7.04435
-469,-461,-3.03949,7.30933,0.00235227,-0.00377511,-0.00142083,0.0026657,-0.00408854,-0.21712,0.0039283,0.0122282,755,1485,-3.0395,-7.30927
-462,-461,-3.03674,7.55994,0.00296783,-0.00554057,-0.00200246,0.00341556,-0.00598829,-0.219968,0.00549663,0.0176507,762,1485,-3.03675,-7.5599
-455,-461,-3.04498,7.83533,0.00383429,-0.00743043,-0.00274248,0.00446649,-0.00806263,-0.226563,0.00733234,0.0204218,769,1485,-3.045,-7.83539
-448,-461,-2.99573,8.13342,0.00512559,-0.00948542,-0.00353238,0.00593477,-0.0102946,-0.22519,0.00948206,0.0176421,776,1485,-2.99573,-8.13348
-441,-461,-2.99646,8.41187,0.00678707,-0.0118573,-0.00450857,0.0078201,-0.0128904,-0.225236,0.012076,0.0141534,783,1485,-2.99643,-8.41187
-434,-461,-2.82794,8.61841,0.00863192,-0.0147012,-0.00579278,0.0099909,-0.0160602,-0.230433,0.015176,0.0190004,790,1485,-2.82795,-8.61845
-427,-461,-2.75043,8.7312,0.0106397,-0.0173366,-0.00716378,0.0123674,-0.0190643,-0.236653,0.0182839,0.0271393,797,1485,-2.7504,-8.73119
-420,-461,-2.97766,8.81567,0.0129762,-0.0197694,-0.00864057,0.0151163,-0.0219095,-0.242796,0.0214965,0.0486647,804,1485,-2.97769,-8.81566
-413,-461,-2.87653,9.54919,0.0157173,-0.0219453,-0.0100635,0.0182376,-0.0244656,-0.245395,0.024742,0.0483206,811,1485,-2.87652,-9.54919
-406,-461,-2.55133,9.60498,0,0,0,0,0,0,0,-1,818,1485,-2.55134,-9.60499
-399,-461,-1.93439,9.82849,0,0,0,0,0,0,0,-1,825,1485,-1.9344,-9.82846
-392,-461,-0.357544,5.55225,0,0,0,0,0,0,0,-1,832,1485,-0.357536,-5.55228
-385,-461,1.71509,3.35254,0,0,0,0,0,0,0,-1,839,1485,1.71511,-3.35255
-378,-461,1.95996,3.01111,0,0,0,0,0,0,0,-1,846,1485,1.95993,-3.01111
-371,-461,0.702881,2.33459,0,0,0,0,0,0,0,-1,853,1485,0.702859,-2.33459
-364,-461,-1.93097,2.56458,0,0,0,0,0,0,0,-1,860,1485,-1.93095,-2.56456
-357,-461,-2.41516,3.49487,0,0,0,0,0,0,0,-1,867,1485,-2.41517,-3.49487
-350,-461,0,0,0,0,0,0,0,0,0,-1,874,1485,0,0
-343,-461,0,0,0,0,0,0,0,0,0,-1,881,1485,0,0
-336,-461,0,0,0,0,0,0,0,0,0,-1,888,1485,0,0
-329,-461,0,0,0,0,0,0,0,0,0,-1,895,1485,0,0
-322,-461,0,0,0,0,0,0,0,0,0,-1,902,1485,0,0
-315,-461,0,0,0,0,0,0,0,0,0,-1,909,1485,0,0
-308,-461,0,0,0,0,0,0,0,0,0,-1,916,1485,0,0
-301,-461,0,0,0,0,0,0,0,0,0,-1,923,1485,0,0
-294,-461,0,0,0,0,0,0,0,0,0,-1,930,1485,0,0
-287,-461,0,0,0,0,0,0,0,0,0,-1,937,1485,0,0
-280,-461,0,0,0,0,0,0,0,0,0,-1,944,1485,0,0
-273,-461,0,0,0,0,0,0,0,0,0,-1,951,1485,0,0
-266,-461,0,0,0,0,0,0,0,0,0,-1,958,1485,0,0
-259,-461,0,0,0,0,0,0,0,0,0,-1,965,1485,0,0
-252,-461,0,0,0,0,0,0,0,0,0,-1,972,1485,0,0
-245,-461,0,0,0,0,0,0,0,0,0,-1,979,1485,0,0
-238,-461,0,0,0,0,0,0,0,0,0,-1,986,1485,0,0
-231,-461,0,0,0,0,0,0,0,0,0,-1,993,1485,0,0
-224,-461,0,0,0,0,0,0,0,0,0,-1,1000,1485,0,0
-217,-461,0,0,0,0,0,0,0,0,0,-1,1007,1485,0,0
-210,-461,0,0,0,0,0,0,0,0,0,-1,1014,1485,0,0
-203,-461,0,0,0,0,0,0,0,0,0,-1,1021,1485,0,0
-196,-461,0,0,0,0,0,0,0,0,0,-1,1028,1485,0,0
-189,-461,0,0,0,0,0,0,0,0,0,-1,1035,1485,0,0
-182,-461,0,0,0,0,0,0,0,0,0,-1,1042,1485,0,0
-175,-461,0,0,0,0,0,0,0,0,0,-1,1049,1485,0,0
-168,-461,0,0,0,0,0,0,0,0,0,-1,1056,1485,0,0
-161,-461,0,0,0,0,0,0,0,0,0,-1,1063,1485,0,0
-154,-461,0,0,0,0,0,0,0,0,0,-1,1070,1485,0,0
-147,-461,0,0,0,0,0,0,0,0,0,-1,1077,1485,0,0
-140,-461,0,0,0,0,0,0,0,0,0,-1,1084,1485,0,0
-133,-461,0,0,0,0,0,0,0,0,0,-1,1091,1485,0,0
-126,-461,0,0,0,0,0,0,0,0,0,-1,1098,1485,0,0
-119,-461,0,0,0,0,0,0,0,0,0,-1,1105,1485,0,0
-112,-461,0,0,0,0,0,0,0,0,0,-1,1112,1485,0,0
-105,-461,0,0,0,0,0,0,0,0,0,-1,1119,1485,0,0
-98,-461,0,0,0,0,0,0,0,0,0,-1,1126,1485,0,0
-91,-461,0,0,0,0,0,0,0,0,0,-1,1133,1485,0,0
-84,-461,0,0,0,0,0,0,0,0,0,-1,1140,1485,0,0
-77,-461,0,0,0,0,0,0,0,0,0,-1,1147,1485,0,0
-70,-461,0,0,0,0,0,0,0,0,0,-1,1154,1485,0,0
-63,-461,0,0,0,0,0,0,0,0,0,-1,1161,1485,0,0
-56,-461,0,0,0,0,0,0,0,0,0,-1,1168,1485,0,0
-49,-461,0,0,0,0,0,0,0,0,0,-1,1175,1485,0,0
-42,-461,0,0,0,0,0,0,0,0,0,-1,1182,1485,0,0
-35,-461,0,0,0,0,0,0,0,0,0,-1,1189,1485,0,0
-28,-461,0,0,0,0,0,0,0,0,0,-1,1196,1485,0,0
-21,-461,0,0,0,0,0,0,0,0,0,-1,1203,1485,0,0
-14,-461,0,0,0,0,0,0,0,0,0,-1,1210,1485,0,0
-7,-461,0,0,0,0,0,0,0,0,0,-1,1217,1485,0,0
0,-461,0,0,0,0,0,0,0,0,0,-1,1224,1485,0,0
7,-461,0,0,0,0,0,0,0,0,0,-1,1231,1485,0,0
14,-461,0,0,0,0,0,0,0,0,0,-1,1238,1485,0,0
21,-461,0,0,0,0,0,0,0,0,0,-1,1245,1485,0,0
28,-461,0,0,0,0,0,0,0,0,0,-1,1252,1485,0,0
35,-461,0,0,0,0,0,0,0,0,0,-1,1259,1485,0,0
42,-461,0,0,0,0,0,0,0,0,0,-1,1266,1485,0,0
49,-461,0,0,0,0,0,0,0,0,0,-1,1273,1485,0,0
56,-461,0,0,0,0,0,0,0,0,0,-1,1280,1485,0,0
63,-461,0,0,0,0,0,0,0,0,0,-1,1287,1485,0,0
70,-461,0,0,0,0,0,0,0,0,0,-1,1294,1485,0,0
77,-461,0,0,0,0,0,0,0,0,0,-1,1301,1485,0,0
84,-461,0,0,0,0,0,0,0,0,0,-1,1308,1485,0,0
91,-461,0,0,0,0,0,0,0,0,0,-1,1315,1485,0,0
98,-461,0,0,0,0,0,0,0,0,0,-1,1322,1485,0,0
105,-461,0,0,0,0,0,0,0,0,0,-1,1329,1485,0,0
112,-461,0,0,0,0,0,0,0,0,0,-1,1336,1485,0,0
119,-461,0,0,0,0,0,0,0,0,0,-1,1343,1485,0,0
126,-461,0,0,0,0,0,0,0,0,0,-1,1350,1485,0,0
133,-461,0,0,0,0,0,0,0,0,0,-1,1357,1485,0,0
140,-461,0,0,0,0,0,0,0,0,0,-1,1364,1485,0,0
147,-461,0,0,0,0,0,0,0,0,0,-1,1371,1485,0,0
154,-461,0,0,0,0,0,0,0,0,0,-1,1378,1485,0,0
161,-461,0,0,0,0,0,0,0,0,0,-1,1385,1485,0,0
168,-461,0,0,0,0,0,0,0,0,0,-1,1392,1485,0,0
175,-461,0,0,0,0,0,0,0,0,0,-1,1399,1485,0,0
182,-461,0,0,0,0,0,0,0,0,0,-1,1406,1485,0,0
189,-461,0,0,0,0,0,0,0,0,0,-1,1413,1485,0,0
196,-461,0,0,0,0,0,0,0,0,0,-1,1420,1485,0,0
203,-461,0,0,0,0,0,0,0,0,0,-1,1427,1485,0,0
210,-461,0,0,0,0,0,0,0,0,0,-1,1434,1485,0,0
217,-461,0,0,0,0,0,0,0,0,0,-1,1441,1485,0,0
224,-461,0,0,0,0,0,0,0,0,0,-1,1448,1485,0,0
231,-461,0,0,0,0,0,0,0,0,0,-1,1455,1485,0,0
238,-461,0,0,0,0,0,0,0,0,0,-1,1462,1485,0,0
245,-461,0,0,0,0,0,0,0,0,0,-1,1469,1485,0,0
252,-461,0,0,0,0,0,0,0,0,0,-1,1476,1485,0,0
259,-461,0,0,0,0,0,0,0,0,0,-1,1483,1485,0,0
266,-461,0,0,0,0,0,0,0,0,0,-1,1490,1485,0,0
273,-461,0,0,0,0,0,0,0,0,0,-1,1497,1485,0,0
280,-461,0,0,0,0,0,0,0,0,0,-1,1504,1485,0,0
287,-461,0,0,0,0,0,0,0,0,0,-1,1511,1485,0,0
294,-461,0,0,0,0,0,0,0,0,0,-1,1518,1485,0,0
301,-461,0,0,0,0,0,0,0,0,0,-1,1525,1485,0,0
308,-461,0,0,0,0,0,0,0,0,0,-1,1532,1485,0,0
315,-461,0,0,0,0,0,0,0,0,0,-1,1539,1485,0,0
322,-461,0,0,0,0,0,0,0,0,0,-1,1546,1485,0,0
329,-461,0,0,0,0,0,0,0,0,0,-1,1553,1485,0,0
336,-461,0,0,0,0,0,0,0,0,0,-1,1560,1485,0,0
343,-461,0,0,0,0,0,0,0,0,0,-1,1567,1485,0,0
350,-461,0,0,0,0,0,0,0,0,0,-1,1574,1485,0,0
357,-461,0,0,0,0,0,0,0,0,0,-1,1581,1485,0,0
364,-461,0,0,0,0,0,0,0,0,0,-1,1588,1485,0,0
371,-461,0,0,0,0,0,0,0,0,0,-1,1595,1485,0,0
378,-461,0,0,0,0,0,0,0,0,0,-1,1602,1485,0,0
385,-461,0,0,0,0,0,0,0,0,0,-1,1609,1485,0,0
392,-461,0,0,0,0,0,0,0,0,0,-1,1616,1485,0,0
399,-461,0,0,0,0,0,0,0,0,0,-1,1623,1485,0,0
406,-461,0,0,0,0,0,0,0,0,0,-1,1630,1485,0,0
413,-461,0,0,0,0,0,0,0,0,0,-1,1637,1485,0,0
420,-461,0,0,0,0,0,0,0,0,0,-1,1644,1485,0,0
427,-461,0,0,0,0,0,0,0,0,0,-1,1651,1485,0,0
434,-461,0,0,0,0,0,0,0,0,0,-1,1658,1485,0,0
441,-461,0,0,0,0,0,0,0,0,0,-1,1665,1485,0,0
448,-461,0,0,0,0,0,0,0,0,0,-1,1672,1485,0,0
455,-461,0,0,0,0,0,0,0,0,0,-1,1679,1485,0,0
462,-461,0,0,0,0,0,0,0,0,0,-1,1686,1485,0,0
469,-461,0,0,0,0,0,0,0,0,0,-1,1693,1485,0,0
476,-461,14.1906,0.690552,0,0,0,0,0,0,0,-1,1700,1485,14.1906,-0.690525
483,-461,10.6361,3.09106,0,0,0,0,0,0,0,-1,1707,1485,10.6361,-3.091
490,-461,17.9972,0.665894,0,0,0,0,0,0,0,-1,1714,1485,17.9972,-0.665876
497,-461,16.6829,1.87732,0,0,0,0,0,0,0,-1,1721,1485,16.6828,-1.87736
504,-461,15.3884,3.09216,0,0,0,0,0,0,0,-1,1728,1485,15.3885,-3.09212
511,-461,15.4292,14.3512,0,0,0,0,0,0,0,-1,1735,1485,15.4292,-14.3512
518,-461,14.8081,10.0085,0,0,0,0,0,0,0,-1,1742,1485,14.8081,-10.0086
525,-461,14.0022,10.8033,0,0,0,0,0,0,0,-1,1749,1485,14.0022,-10.8033
532,-461,13.4395,9.64661,0,0,0,0,0,0,0,-1,1756,1485,13.4394,-9.64658
539,-461,12.6163,8.87024,0,0,0,0,0,0,0,-1,1763,1485,12.6163,-8.87027
546,-461,12.6986,10.3583,0,0,0,0,0,0,0,-1,1770,1485,12.6987,-10.3583
553,-461,12.5221,10.2449,-0.0186963,-0.0376615,0.0141024,-0.0111848,-0.0451729,0.489415,0.0271657,0.0449163,1777,1485,12.5221,-10.2449
560,-461,12.1975,10.2501,-0.0143428,-0.0289085,0.0113432,-0.00814574,-0.0351055,0.500018,0.0212163,0.0337818,1784,1485,12.1975,-10.2502
567,-461,12.2832,10.0846,-0.0109528,-0.0218527,0.00919246,-0.00571617,-0.0270894,0.517818,0.0164878,0.0151589,1791,1485,12.2832,-10.0846
574,-461,12.2961,9.87903,-0.00846865,-0.0161853,0.00749647,-0.00389586,-0.0207581,0.547735,0.0127402,0.0147977,1798,1485,12.2961,-9.87899
581,-461,12.3044,9.65393,-0.00658931,-0.0117681,0.00593967,-0.00269914,-0.0156582,0.579846,0.00966556,0.0135328,1805,1485,12.3044,-9.65395
588,-461,12.2886,9.42627,-0.00486954,-0.00806065,0.00469711,-0.00150439,-0.0114258,0.621668,0.00716855,0.01133,1812,1485,12.2886,-9.42623
595,-461,12.2668,9.18884,-0.00343807,-0.00544762,0.00355787,-0.000745812,-0.00813987,0.647777,0.00519585,0.00913301,1819,1485,12.2669,-9.18881
602,-461,12.2732,8.94226,-0.00220453,-0.00366428,0.00253993,-0.000291687,-0.00557712,0.645488,0.00362476,0.00911583,1826,1485,12.2732,-8.94228
609,-461,12.286,8.68188,-0.000936979,-0.00235035,0.00162964,0.000132602,-0.00341993,0.580813,0.00232541,0.0108185,1833,1485,12.286,-8.68188
616,-461,12.3018,8.4364,0.000258642,-0.00136955,0.000886498,0.000648137,-0.00175905,0.413973,0.00143828,0.0133937,1840,1485,12.3017,-8.43642
623,-461,12.2745,8.20081,0.00107875,-0.000939022,0.000116905,0.0010855,-0.000945773,0.0576803,0.00117368,0.0128331,1847,1485,12.2745,-8.20083
630,-461,12.2701,7.95813,0.0014019,-0.000861508,-0.000122417,0.0014085,-0.00086811,-0.0538757,0.00132669,0.0107689,1854,1485,12.2701,-7.95812
637,-461,12.287,7.72119,0.00174155,-0.00101345,-0.000419313,0.00180396,-0.00107585,-0.147745,0.00168028,0.0119521,1861,1485,12.287,-7.72121
644,-461,12.308,7.51123,0.001777,-0.00136136,-0.000667215,0.00191296,-0.00149732,-0.20102,0.00197379,0.0241589,1868,1485,12.308,-7.51128
651,-461,12.3733,7.21594,0,0,0,0,0,0,0,-1,1875,1485,12.3732,-7.21588
658,-461,12.3673,7.10352,0,0,0,0,0,0,0,-1,1882,1485,12.3674,-7.10353
665,-461,12.3534,6.12317,0,0,0,0,0,0,0,-1,1889,1485,12.3534,-6.12313
672,-461,14.4877,6.89429,0,0,0,0,0,0,0,-1,1896,1485,14.4876,-6.89431
679,-461,10.0535,2.16321,0,0,0,0,0,0,0,-1,1903,1485,10.0535,-2.16317
686,-461,10.8195,1.84192,0,0,0,0,0,0,0,-1,1910,1485,10.8194,-1.84195
693,-461,0,0,0,0,0,0,0,0,0,-1,1917,1485,0,0
700,-461,0,0,0,0,0,0,0,0,0,-1,1924,1485,0,0
707,-461,0,0,0,0,0,0,0,0,0,-1,1931,1485,0,0
714,-461,0,0,0,0,0,0,0,0,0,-1,1938,1485,0,0
721,-461,0,0,0,0,0,0,0,0,0,-1,1945,1485,0,0
728,-461,0,0,0,0,0,0,0,0,0,-1,1952,1485,0,0
735,-461,0,0,0,0,0,0,0,0,0,-1,1959,1485,0,0
742,-461,0,0,0,0,0,0,0,0,0,-1,1966,1485,0,0
749,-461,0,0,0,0,0,0,0,0,0,-1,1973,1485,0,0
756,-461,0,0,0,0,0,0,0,0,0,-1,1980,1485,0,0
763,-461,0,0,0,0,0,0,0,0,0,-1,1987,1485,0,0
770,-461,0,0,0,0,0,0,0,0,0,-1,1994,1485,0,0
777,-461,0,0,0,0,0,0,0,0,0,-1,2001,1485,0,0
784,-461,0,0,0,0,0,0,0,0,0,-1,2008,1485,0,0
791,-461,0,0,0,0,0,0,0,0,0,-1,2015,1485,0,0
798,-461,0,0,0,0,0,0,0,0,0,-1,2022,1485,0,0
805,-461,0,0,0,0,0,0,0,0,0,-1,2029,1485,0,0
812,-461,0,0,0,0,0,0,0,0,0,-1,2036,1485,0,0
-700,-468,0,0,0,0,0,0,0,0,0,-1,524,1492,0,0
-693,-468,0,0,0,0,0,0,0,0,0,-1,531,1492,0,0
-686,-468,0,0,0,0,0,0,0,0,0,-1,538,1492,0,0
-679,-468,0,0,0,0,0,0,0,0,0,-1,545,1492,0,0
-672,-468,0,0,0,0,0,0,0,0,0,-1,552,1492,0,0
-665,-468,0,0,0,0,0,0,0,0,0,-1,559,1492,0,0
-658,-468,0,0,0,0,0,0,0,0,0,-1,566,1492,0,0
-651,-468,0,0,0,0,0,0,0,0,0,-1,573,1492,0,0
-644,-468,0,0,0,0,0,0,0,0,0,-1,580,1492,0,0
-637,-468,0,0,0,0,0,0,0,0,0,-1,587,1492,0,0
-630,-468,0,0,0,0,0,0,0,0,0,-1,594,1492,0,0
-623,-468,0,0,0,0,0,0,0,0,0,-1,601,1492,0,0
-616,-468,0,0,0,0,0,0,0,0,0,-1,608,1492,0,0
-609,-468,0,0,0,0,0,0,0,0,0,-1,615,1492,0,0
-602,-468,0,0,0,0,0,0,0,0,0,-1,622,1492,0,0
-595,-468,0,0,0,0,0,0,0,0,0,-1,629,1492,0,0
-588,-468,0,0,0,0,0,0,0,0,0,-1,636,1492,0,0
-581,-468,0,0,0,0,0,0,0,0,0,-1,643,1492,0,0
-574,-468,0,0,0,0,0,0,0,0,0,-1,650,1492,0,0
-567,-468,-11.2603,1.8042,0,0,0,0,0,0,0,-1,657,1492,-11.2603,-1.80424
-560,-468,-8.77441,2.23694,0,0,0,0,0,0,0,-1,664,1492,-8.77443,-2.23692
-553,-468,-5.94061,9.26318,0,0,0,0,0,0,0,-1,671,1492,-5.94062,-9.26322
-546,-468,-6.10699,2.10571,0,0,0,0,0,0,0,-1,678,1492,-6.107,-2.10576
-539,-468,-5.27203,2.92822,0.0859211,0.0407745,0.0561941,0.123906,0.00278931,0.594412,0.0816903,0.0443923,685,1492,-5.27201,-2.92827
-532,-468,-4.58636,3.6051,0.0663727,0.0330794,0.0423871,0.0952648,0.00418732,0.598287,0.0621611,0.0420795,692,1492,-4.58639,-3.60506
-525,-468,-3.8103,4.57507,0,0,0,0,0,0,0,-1,699,1492,-3.81032,-4.57503
-518,-468,-3.27618,5.16064,0.0361249,0.0190565,0.0217773,0.0509805,0.00420089,0.598653,0.0326769,0.040228,706,1492,-3.27621,-5.16068
-511,-468,-2.75714,5.58228,0.0254584,0.0135967,0.0147607,0.0354352,0.0036199,0.594369,0.022514,0.0341301,713,1492,-2.75712,-5.58225
-504,-468,-2.70911,5.92615,0.0174242,0.00926695,0.00963132,0.0238049,0.00288624,0.58511,0.0150007,0.0167021,720,1492,-2.70912,-5.92611
-497,-468,-2.73523,6.20752,0.0115262,0.00608597,0.00604512,0.015435,0.00217717,0.573984,0.00964652,0.00950351,727,1492,-2.73523,-6.20755
-490,-468,-2.73541,6.50732,0.00745155,0.00349942,0.00351545,0.00950826,0.00144272,0.529352,0.00591685,0.00757774,734,1492,-2.73542,-6.50728
-483,-468,-2.74927,6.7821,0.00433756,0.0012375,0.0013732,0.00485835,0.000716715,0.362491,0.0030284,0.00816828,741,1492,-2.74927,-6.78207
-476,-468,-2.75043,7.052,0.00246107,-0.000764036,-0.000144472,0.00246753,-0.000770495,-0.0446768,0.00195319,0.00891766,748,1492,-2.75041,-7.05197
-469,-468,-2.76019,7.30737,0.00196764,-0.00265903,-0.000994773,0.00217245,-0.00286385,-0.203056,0.00291683,0.0133058,755,1492,-2.7602,-7.30743
-462,-468,-2.75403,7.58142,0.00245531,-0.00422014,-0.00143206,0.00274955,-0.00451438,-0.202649,0.00423489,0.0228339,762,1492,-2.75401,-7.58142
-455,-468,-2.77112,7.82898,0.00322765,-0.00569229,-0.00200769,0.0036587,-0.00612335,-0.211492,0.00570711,0.0228518,769,1492,-2.77112,-7.82901
-448,-468,-2.75061,8.099,0.00439746,-0.00715246,-0.00255798,0.00493863,-0.00769363,-0.208485,0.00735083,0.0142454,776,1492,-2.7506,-8.09896
-441,-468,-2.74304,8.38647,0.0059526,-0.00880191,-0.00319826,0.00661604,-0.00946535,-0.204537,0.00933305,0.0125295,783,1492,-2.74305,-8.38653
-434,-468,-2.71826,8.66663,0.00769452,-0.0108831,-0.00409005,0.00855512,-0.0117437,-0.207387,0.0117676,0.0126097,790,1492,-2.71829,-8.6666
-427,-468,-2.65533,8.88855,0.00956004,-0.0128716,-0.00504422,0.0106421,-0.0139537,-0.211319,0.0142433,0.0175235,797,1492,-2.65535,-8.8885
-420,-468,-2.58856,9.08887,0.0116774,-0.014883,-0.0061845,0.0130468,-0.0162524,-0.217914,0.0169496,0.0315417,804,1492,-2.58856,-9.08892
-413,-468,-2.46783,9.2749,0.0140629,-0.0169211,-0.00734884,0.0157175,-0.0185757,-0.221465,0.0198221,0.0487543,811,1492,-2.46786,-9.27488
-406,-468,-2.2356,9.396,0,0,0,0,0,0,0,-1,818,1492,-2.2356,-9.396
-399,-468,-0.940369,8.1936,0,0,0,0,0,0,0,-1,825,1492,-0.940365,-8.19357
-392,-468,-0.35144,8.14673,0,0,0,0,0,0,0,-1,832,1492,-0.351449,-8.14674
-385,-468,0.465759,5.35864,0,0,0,0,0,0,0,-1,839,1492,0.465732,-5.35864
-378,-468,1.99835,3.25391,0,0,0,0,0,0,0,-1,846,1492,1.99837,-3.2539
-371,-468,-0.31842,3.1532,0,0,0,0,0,0,0,-1,853,1492,-0.318441,-3.15324
-364,-468,-0.966736,2.14563,0,0,0,0,0,0,0,-1,860,1492,-0.966735,-2.14557
-357,-468,-3.06787,3.22742,0,0,0,0,0,0,0,-1,867,1492,-3.06784,-3.2274
-350,-468,-3.18658,4.12659,0,0,0,0,0,0,0,-1,874,1492,-3.18659,-4.12658
-343,-468,0,0,0,0,0,0,0,0,0,-1,881,1492,0,0
-336,-468,0,0,0,0,0,0,0,0,0,-1,888,1492,0,0
-329,-468,0,0,0,0,0,0,0,0,0,-1,895,1492,0,0
-322,-468,0,0,0,0,0,0,0,0,0,-1,902,1492,0,0
-315,-468,0,0,0,0,0,0,0,0,0,-1,909,1492,0,0
-308,-468,0,0,0,0,0,0,0,0,0,-1,916,1492,0,0
-301,-468,0,0,0,0,0,0,0,0,0,-1,923,1492,0,0
-294,-468,0,0,0,0,0,0,0,0,0,-1,930,1492,0,0
-287,-468,0,0,0,0,0,0,0,0,0,-1,937,1492,0,0
-280,-468,0,0,0,0,0,0,0,0,0,-1,944,1492,0,0
-273,-468,0,0,0,0,0,0,0,0,0,-1,951,1492,0,0
-266,-468,0,0,0,0,0,0,0,0,0,-1,958,1492,0,0
-259,-468,0,0,0,0,0,0,0,0,0,-1,965,1492,0,0
-252,-468,0,0,0,0,0,0,0,0,0,-1,972,1492,0,0
-245,-468,0,0,0,0,0,0,0,0,0,-1,979,1492,0,0
-238,-468,0,0,0,0,0,0,0,0,0,-1,986,1492,0,0
-231,-468,0,0,0,0,0,0,0,0,0,-1,993,1492,0,0
-224,-468,0,0,0,0,0,0,0,0,0,-1,1000,1492,0,0
-217,-468,0,0,0,0,0,0,0,0,0,-1,1007,1492,0,0
-210,-468,0,0,0,0,0,0,0,0,0,-1,1014,1492,0,0
-203,-468,0,0,0,0,0,0,0,0,0,-1,1021,1492,0,0
-196,-468,0,0,0,0,0,0,0,0,0,-1,1028,1492,0,0
-189,-468,0,0,0,0,0,0,0,0,0,-1,1035,1492,0,0
-182,-468,0,0,0,0,0,0,0,0,0,-1,1042,1492,0,0
-175,-468,0,0,0,0,0,0,0,0,0,-1,1049,1492,0,0
-168,-468,0,0,0,0,0,0,0,0,0,-1,1056,1492,0,0
-161,-468,0,0,0,0,0,0,0,0,0,-1,1063,1492,0,0
-154,-468,0,0,0,0,0,0,0,0,0,-1,1070,1492,0,0
-147,-468,0,0,0,0,0,0,0,0,0,-1,1077,1492,0,0
-140,-468,0,0,0,0,0,0,0,0,0,-1,1084,1492,0,0
-133,-468,0,0,0,0,0,0,0,0,0,-1,1091,1492,0,0
-126,-468,0,0,0,0,0,0,0,0,0,-1,1098,1492,0,0
-119,-468,0,0,0,0,0,0,0,0,0,-1,1105,1492,0,0
-112,-468,0,0,0,0,0,0,0,0,0,-1,1112,1492,0,0
-105,-468,0,0,0,0,0,0,0,0,0,-1,1119,1492,0,0
-98,-468,0,0,0,0,0,0,0,0,0,-1,1126,1492,0,0
-91,-468,0,0,0,0,0,0,0,0,0,-1,1133,1492,0,0
-84,-468,0,0,0,0,0,0,0,0,0,-1,1140,1492,0,0
-77,-468,0,0,0,0,0,0,0,0,0,-1,1147,1492,0,0
-70,-468,0,0,0,0,0,0,0,0,0,-1,1154,1492,0,0
-63,-468,0,0,0,0,0,0,0,0,0,-1,1161,1492,0,0
-56,-468,0,0,0,0,0,0,0,0,0,-1,1168,1492,0,0
-49,-468,0,0,0,0,0,0,0,0,0,-1,1175,1492,0,0
-42,-468,0,0,0,0,0,0,0,0,0,-1,1182,1492,0,0
-35,-468,0,0,0,0,0,0,0,0,0,-1,1189,1492,0,0
-28,-468,0,0,0,0,0,0,0,0,0,-1,1196,1492,0,0
-21,-468,0,0,0,0,0,0,0,0,0,-1,1203,1492,0,0
-14,-468,0,0,0,0,0,0,0,0,0,-1,1210,1492,0,0
-7,-468,0,0,0,0,0,0,0,0,0,-1,1217,1492,0,0
0,-468,0,0,0,0,0,0,0,0,0,-1,1224,1492,0,0
7,-468,0,0,0,0,0,0,0,0,0,-1,1231,1492,0,0
14,-468,0,0,0,0,0,0,0,0,0,-1,1238,1492,0,0
21,-468,0,0,0,0,0,0,0,0,0,-1,1245,1492,0,0
28,-468,0,0,0,0,0,0,0,0,0,-1,1252,1492,0,0
35,-468,0,0,0,0,0,0,0,0,0,-1,1259,1492,0,0
42,-468,0,0,0,0,0,0,0,0,0,-1,1266,1492,0,0
49,-468,0,0,0,0,0,0,0,0,0,-1,1273,1492,0,0
56,-468,0,0,0,0,0,0,0,0,0,-1,1280,1492,0,0
63,-468,0,0,0,0,0,0,0,0,0,-1,1287,1492,0,0
70,-468,0,0,0,0,0,0,0,0,0,-1,1294,1492,0,0
77,-468,0,0,0,0,0,0,0,0,0,-1,1301,1492,0,0
84,-468,0,0,0,0,0,0,0,0,0,-1,1308,1492,0,0
91,-468,0,0,0,0,0,0,0,0,0,-1,1315,1492,0,0
98,-468,0,0,0,0,0,0,0,0,0,-1,1322,1492,0,0
105,-468,0,0,0,0,0,0,0,0,0,-1,1329,1492,0,0
112,-468,0,0,0,0,0,0,0,0,0,-1,1336,1492,0,0
119,-468,0,0,0,0,0,0,0,0,0,-1,1343,1492,0,0
126,-468,0,0,0,0,0,0,0,0,0,-1,1350,1492,0,0
133,-468,0,0,0,0,0,0,0,0,0,-1,1357,1492,0,0
140,-468,0,0,0,0,0,0,0,0,0,-1,1364,1492,0,0
147,-468,0,0,0,0,0,0,0,0,0,-1,1371,1492,0,0
154,-468,0,0,0,0,0,0,0,0,0,-1,1378,1492,0,0
161,-468,0,0,0,0,0,0,0,0,0,-1,1385,1492,0,0
168,-468,0,0,0,0,0,0,0,0,0,-1,1392,1492,0,0
175,-468,0,0,0,0,0,0,0,0,0,-1,1399,1492,0,0
182,-468,0,0,0,0,0,0,0,0,0,-1,1406,1492,0,0
189,-468,0,0,0,0,0,0,0,0,0,-1,1413,1492,0,0
196,-468,0,0,0,0,0,0,0,0,0,-1,1420,1492,0,0
203,-468,0,0,0,0,0,0,0,0,0,-1,1427,1492,0,0
210,-468,0,0,0,0,0,0,0,0,0,-1,1434,1492,0,0
217,-468,0,0,0,0,0,0,0,0,0,-1,1441,1492,0,0
224,-468,0,0,0,0,0,0,0,0,0,-1,1448,1492,0,0
231,-468,0,0,0,0,0,0,0,0,0,-1,1455,1492,0,0
238,-468,0,0,0,0,0,0,0,0,0,-1,1462,1492,0,0
245,-468,0,0,0,0,0,0,0,0,0,-1,1469,1492,0,0
252,-468,0,0,0,0,0,0,0,0,0,-1,1476,1492,0,0
259,-468,0,0,0,0,0,0,0,0,0,-1,1483,1492,0,0
266,-468,0,0,0,0,0,0,0,0,0,-1,1490,1492,0,0
273,-468,0,0,0,0,0,0,0,0,0,-1,1497,1492,0,0
280,-468,0,0,0,0,0,0,0,0,0,-1,1504,1492,0,0
287,-468,0,0,0,0,0,0,0,0,0,-1,1511,1492,0,0
294,-468,0,0,0,0,0,0,0,0,0,-1,1518,1492,0,0
301,-468,0,0,0,0,0,0,0,0,0,-1,1525,1492,0,0
308,-468,0,0,0,0,0,0,0,0,0,-1,1532,1492,0,0
315,-468,0,0,0,0,0,0,0,0,0,-1,1539,1492,0,0
322,-468,0,0,0,0,0,0,0,0,0,-1,1546,1492,0,0
329,-468,0,0,0,0,0,0,0,0,0,-1,1553,1492,0,0
336,-468,0,0,0,0,0,0,0,0,0,-1,1560,1492,0,0
343,-468,0,0,0,0,0,0,0,0,0,-1,1567,1492,0,0
350,-468,0,0,0,0,0,0,0,0,0,-1,1574,1492,0,0
357,-468,0,0,0,0,0,0,0,0,0,-1,1581,1492,0,0
364,-468,0,0,0,0,0,0,0,0,0,-1,1588,1492,0,0
371,-468,0,0,0,0,0,0,0,0,0,-1,1595,1492,0,0
378,-468,0,0,0,0,0,0,0,0,0,-1,1602,1492,0,0
385,-468,0,0,0,0,0,0,0,0,0,-1,1609,1492,0,0
392,-468,0,0,0,0,0,0,0,0,0,-1,1616,1492,0,0
399,-468,0,0,0,0,0,0,0,0,0,-1,1623,1492,0,0
406,-468,0,0,0,0,0,0,0,0,0,-1,1630,1492,0,0
413,-468,0,0,0,0,0,0,0,0,0,-1,1637,1492,0,0
420,-468,0,0,0,0,0,0,0,0,0,-1,1644,1492,0,0
427,-468,0,0,0,0,0,0,0,0,0,-1,1651,1492,0,0
434,-468,0,0,0,0,0,0,0,0,0,-1,1658,1492,0,0
441,-468,0,0,0,0,0,0,0,0,0,-1,1665,1492,0,0
448,-468,0,0,0,0,0,0,0,0,0,-1,1672,1492,0,0
455,-468,0,0,0,0,0,0,0,0,0,-1,1679,1492,0,0
462,-468,0,0,0,0,0,0,0,0,0,-1,1686,1492,0,0
469,-468,15.6879,1.2677,0,0,0,0,0,0,0,-1,1693,1492,15.6879,-1.26772
476,-468,14.9318,1.61865,0,0,0,0,0,0,0,-1,1700,1492,14.9318,-1.61869
483,-468,11.265,4.64795,0,0,0,0,0,0,0,-1,1707,1492,11.265,-4.64798
490,-468,12.1316,3.51624,0,0,0,0,0,0,0,-1,1714,1492,12.1316,-3.51628
497,-468,16.5355,3.14587,0,0,0,0,0,0,0,-1,1721,1492,16.5356,-3.14583
504,-468,15.0642,4.10437,0,0,0,0,0,0,0,-1,1728,1492,15.0643,-4.10431
511,-468,15.6575,9.59875,0,0,0,0,0,0,0,-1,1735,1492,15.6575,-9.59878
518,-468,14.371,10.0905,0,0,0,0,0,0,0,-1,1742,1492,14.371,-10.0904
525,-468,13.3622,10.6064,0,0,0,0,0,0,0,-1,1749,1492,13.3622,-10.6064
532,-468,11.5667,9.51038,0,0,0,0,0,0,0,-1,1756,1492,11.5667,-9.51035
539,-468,11.4941,9.79956,0,0,0,0,0,0,0,-1,1763,1492,11.4942,-9.79961
546,-468,11.811,10.264,0,0,0,0,0,0,0,-1,1770,1492,11.8111,-10.2641
553,-468,12.2515,10.4016,-0.0152033,-0.0302107,0.0117378,-0.00877574,-0.0366383,0.500998,0.0220892,0.0366645,1777,1492,12.2515,-10.4017
560,-468,12.0597,10.3378,-0.0110582,-0.0230669,0.00895794,-0.00627847,-0.0278466,0.490149,0.0168657,0.0207573,1784,1492,12.0597,-10.3378
567,-468,12.0244,10.1307,-0.00793209,-0.0172981,0.00693375,-0.00424805,-0.0209821,0.488389,0.0128091,0.0136675,1791,1492,12.0244,-10.1307
574,-468,12.0514,9.88037,-0.00575602,-0.0125956,0.00546167,-0.00273183,-0.0156197,0.505689,0.00963256,0.0138717,1798,1492,12.0514,-9.88039
581,-468,12.0631,9.64392,-0.00420527,-0.00893033,0.00413006,-0.00180976,-0.0113258,0.525597,0.00702544,0.0140509,1805,1492,12.0631,-9.64395
588,-468,12.0427,9.4126,-0.00275445,-0.00581405,0.00308359,-0.00084204,-0.00772646,0.555132,0.0048945,0.0122498,1812,1492,12.0427,-9.41262
595,-468,12.0338,9.18408,-0.0015864,-0.00367687,0.00217625,-0.000217392,-0.00504588,0.561519,0.00329385,0.0102633,1819,1492,12.0338,-9.18408
602,-468,12.0328,8.93262,-0.00061678,-0.00229855,0.00140425,0.000179099,-0.00309442,0.515624,0.00212517,0.00872496,1826,1492,12.0329,-8.9326
609,-468,12.0356,8.66797,0.00036212,-0.00133955,0.000750051,0.000645524,-0.00162295,0.361263,0.00134962,0.00943354,1833,1492,12.0357,-8.66796
616,-468,12.0424,8.41821,0.00126353,-0.000743812,0.000260824,0.00129686,-0.000777148,0.127123,0.0012099,0.00990481,1840,1492,12.0424,-8.41827
623,-468,12.0287,8.20044,0.00186498,-0.000685793,-0.000278825,0.0018951,-0.000715916,-0.107617,0.00155787,0.0109602,1847,1492,12.0287,-8.2005
630,-468,12.0378,7.96497,0.00204672,-0.000828185,-0.000338925,0.00208613,-0.000867601,-0.115776,0.00175304,0.0113175,1854,1492,12.0379,-7.96498
637,-468,12.0619,7.69934,0.00222596,-0.00123597,-0.000454418,0.00228461,-0.00129462,-0.128365,0.00209265,0.0145525,1861,1492,12.0619,-7.69936
644,-468,12.0536,7.4967,0.00217014,-0.00181792,-0.000630607,0.00226748,-0.00191526,-0.153148,0.00241776,0.0351359,1868,1492,12.0536,-7.49672
651,-468,12.1257,7.14819,0,0,0,0,0,0,0,-1,1875,1492,12.1258,-7.14821
658,-468,11.9617,6.75916,0,0,0,0,0,0,0,-1,1882,1492,11.9617,-6.75921
665,-468,12.2195,6.47363,0,0,0,0,0,0,0,-1,1889,1492,12.2195,-6.47369
672,-468,9.96814,3.61133,0,0,0,0,0,0,0,-1,1896,1492,9.96817,-3.61139
679,-468,11.2191,1.91968,0,0,0,0,0,0,0,-1,1903,1492,11.2191,-1.91965
686,-468,11.9252,1.42285,0,0,0,0,0,0,0,-1,1910,1492,11.9252,-1.42291
693,-468,0,0,0,0,0,0,0,0,0,-1,1917,1492,0,0
700,-468,0,0,0,0,0,0,0,0,0,-1,1924,1492,0,0
707,-468,0,0,0,0,0,0,0,0,0,-1,1931,1492,0,0
714,-468,0,0,0,0,0,0,0,0,0,-1,1938,1492,0,0
721,-468,0,0,0,0,0,0,0,0,0,-1,1945,1492,0,0
728,-468,0,0,0,0,0,0,0,0,0,-1,1952,1492,0,0
735,-468,0,0,0,0,0,0,0,0,0,-1,1959,1492,0,0
742,-468,0,0,0,0,0,0,0,0,0,-1,1966,1492,0,0
749,-468,0,0,0,0,0,0,0,0,0,-1,1973,1492,0,0
756,-468,0,0,0,0,0,0,0,0,0,-1,1980,1492,0,0
763,-468,0,0,0,0,0,0,0,0,0,-1,1987,1492,0,0
770,-468,0,0,0,0,0,0,0,0,0,-1,1994,1492,0,0
777,-468,0,0,0,0,0,0,0,0,0,-1,2001,1492,0,0
784,-468,0,0,0,0,0,0,0,0,0,-1,2008,1492,0,0
791,-468,0,0,0,0,0,0,0,0,0,-1,2015,1492,0,0
798,-468,0,0,0,0,0,0,0,0,0,-1,2022,1492,0,0
805,-468,0,0,0,0,0,0,0,0,0,-1,2029,1492,0,0
812,-468,0,0,0,0,0,0,0,0,0,-1,2036,1492,0,0
-700,-475,0,0,0,0,0,0,0,0,0,-1,524,1499,0,0
-693,-475,0,0,0,0,0,0,0,0,0,-1,531,1499,0,0
-686,-475,0,0,0,0,0,0,0,0,0,-1,538,1499,0,0
-679,-475,0,0,0,0,0,0,0,0,0,-1,545,1499,0,0
-672,-475,0,0,0,0,0,0,0,0,0,-1,552,1499,0,0
-665,-475,0,0,0,0,0,0,0,0,0,-1,559,1499,0,0
-658,-475,0,0,0,0,0,0,0,0,0,-1,566,1499,0,0
-651,-475,0,0,0,0,0,0,0,0,0,-1,573,1499,0,0
-644,-475,0,0,0,0,0,0,0,0,0,-1,580,1499,0,0
-637,-475,0,0,0,0,0,0,0,0,0,-1,587,1499,0,0
-630,-475,0,0,0,0,0,0,0,0,0,-1,594,1499,0,0
-623,-475,0,0,0,0,0,0,0,0,0,-1,601,1499,0,0
-616,-475,0,0,0,0,0,0,0,0,0,-1,608,1499,0,0
-609,-475,0,0,0,0,0,0,0,0,0,-1,615,1499,0,0
-602,-475,0,0,0,0,0,0,0,0,0,-1,622,1499,0,0
-595,-475,0,0,0,0,0,0,0,0,0,-1,629,1499,0,0
-588,-475,0,0,0,0,0,0,0,0,0,-1,636,1499,0,0
-581,-475,0,0,0,0,0,0,0,0,0,-1,643,1499,0,0
-574,-475,0,0,0,0,0,0,0,0,0,-1,650,1499,0,0
-567,-475,0,0,0,0,0,0,0,0,0,-1,657,1499,0,0
-560,-475,-9.42731,9.29517,0,0,0,0,0,0,0,-1,664,1499,-9.42731,-9.29519
-553,-475,-8.15131,8.78369,0,0,0,0,0,0,0,-1,671,1499,-8.15131,-8.78367
-546,-475,-8.41254,8.20654,0,0,0,0,0,0,0,-1,678,1499,-8.41251,-8.20655
-539,-475,-5.51855,2.62939,0,0,0,0,0,0,0,-1,685,1499,-5.51853,-2.62945
-532,-475,-4.59869,3.56152,0,0,0,0,0,0,0,-1,692,1499,-4.59871,-3.56156
-525,-475,-3.65991,4.6106,0,0,0,0,0,0,0,-1,699,1499,-3.65989,-4.61054
-518,-475,-2.64539,4.57544,0.0417791,0.0221705,0.0251428,0.0589616,0.00498803,0.599494,0.037755,0.0469496,706,1499,-2.64541,-4.57545
-511,-475,-2.57037,5.31409,0.0290406,0.0155566,0.0169533,0.0405433,0.00405391,0.596145,0.025784,0.0446107,713,1499,-2.57034,-5.31406
-504,-475,-2.47107,6.01428,0.0195368,0.0104214,0.0110498,0.026932,0.00302628,0.589795,0.0170357,0.0275409,720,1499,-2.47104,-6.01423
-497,-475,-2.45758,6.24744,0.0125942,0.00671452,0.00695419,0.0172044,0.0021043,0.585419,0.0108365,0.0149709,727,1499,-2.45758,-6.24748
-490,-475,-2.46899,6.50623,0.0079031,0.00398496,0.00417121,0.0105524,0.00133568,0.565855,0.00663467,0.00837053,734,1499,-2.46897,-6.50621
-483,-475,-2.47272,6.80237,0.00438821,0.00169053,0.00191771,0.00538394,0.000694808,0.478909,0.00338157,0.00838432,741,1499,-2.4727,-6.80235
-476,-475,-2.47485,7.05823,0.00230064,-0.00015701,0.000376994,0.00235717,-0.000213539,0.148838,0.00164725,0.0098089,748,1499,-2.47486,-7.05819
-469,-475,-2.46234,7.31348,0.00169833,-0.00181326,-0.000443723,0.00175353,-0.00186846,-0.123768,0.00209151,0.011767,755,1499,-2.46232,-7.31345
-462,-475,-2.4491,7.58459,0.00204462,-0.00317791,-0.000823526,0.0021714,-0.00330469,-0.152751,0.00318411,0.0159948,762,1499,-2.44909,-7.58465
-455,-475,-2.48608,7.82935,0.00269827,-0.00428688,-0.00132536,0.00294129,-0.0045299,-0.181346,0.00434587,0.0151449,769,1499,-2.4861,-7.82937
-448,-475,-2.50256,8.10718,0.00370159,-0.0052628,-0.0017456,0.00402951,-0.00559072,-0.18569,0.00557857,0.0133031,776,1499,-2.50258,-8.10715
-441,-475,-2.48065,8.40686,0.00508249,-0.00634214,-0.0021845,0.00548594,-0.00674559,-0.18263,0.00707435,0.0155204,783,1499,-2.48068,-8.40682
-434,-475,-2.47839,8.6532,0.00662104,-0.00783697,-0.00280996,0.00714796,-0.00836389,-0.185366,0.00896494,0.0101685,790,1499,-2.4784,-8.65315
-427,-475,-2.44141,8.94482,0.0082829,-0.00932302,-0.00343688,0.00893004,-0.00997016,-0.186112,0.0109175,0.014782,797,1499,-2.44141,-8.94488
-420,-475,-2.35229,9.20239,0.0101891,-0.0109866,-0.00424226,0.0110074,-0.0118048,-0.190543,0.0131733,0.0242484,804,1499,-2.35229,-9.20237
-413,-475,-2.17834,9.22559,0.0122658,-0.0129915,-0.00516418,0.0132808,-0.0140066,-0.194089,0.0157563,0.0424938,811,1499,-2.17837,-9.22565
-406,-475,-1.80151,9.39612,0,0,0,0,0,0,0,-1,818,1499,-1.80154,-9.39607
-399,-475,-1.39667,6.1615,0,0,0,0,0,0,0,-1,825,1499,-1.39664,-6.16155
-392,-475,0.217163,8.61389,0,0,0,0,0,0,0,-1,832,1499,0.217167,-8.6139
-385,-475,1.18372,2.73999,0,0,0,0,0,0,0,-1,839,1499,1.18372,-2.73995
-378,-475,1.31409,2.90149,0,0,0,0,0,0,0,-1,846,1499,1.31411,-2.90151
-371,-475,2.3476,3.31116,0,0,0,0,0,0,0,-1,853,1499,2.34761,-3.31121
-364,-475,1.04462,9.05823,0,0,0,0,0,0,0,-1,860,1499,1.04461,-9.05825
-357,-475,-0.262756,7.97205,0,0,0,0,0,0,0,-1,867,1499,-0.262784,-7.97205
-350,-475,-2.77173,4.35486,0,0,0,0,0,0,0,-1,874,1499,-2.77175,-4.35491
-343,-475,-6.81641,-1.95203,0,0,0,0,0,0,0,-1,881,1499,-6.81643,1.95198
-336,-475,0,0,0,0,0,0,0,0,0,-1,888,1499,0,0
-329,-475,0,0,0,0,0,0,0,0,0,-1,895,1499,0,0
-322,-475,0,0,0,0,0,0,0,0,0,-1,902,1499,0,0
-315,-475,0,0,0,0,0,0,0,0,0,-1,909,1499,0,0
-308,-475,0,0,0,0,0,0,0,0,0,-1,916,1499,0,0
-301,-475,0,0,0,0,0,0,0,0,0,-1,923,1499,0,0
-294,-475,0,0,0,0,0,0,0,0,0,-1,930,1499,0,0
-287,-475,0,0,0,0,0,0,0,0,0,-1,937,1499,0,0
-280,-475,0,0,0,0,0,0,0,0,0,-1,944,1499,0,0
-273,-475,0,0,0,0,0,0,0,0,0,-1,951,1499,0,0
-266,-475,0,0,0,0,0,0,0,0,0,-1,958,1499,0,0
-259,-475,0,0,0,0,0,0,0,0,0,-1,965,1499,0,0
-252,-475,0,0,0,0,0,0,0,0,0,-1,972,1499,0,0
-245,-475,0,0,0,0,0,0,0,0,0,-1,979,1499,0,0
-238,-475,0,0,0,0,0,0,0,0,0,-1,986,1499,0,0
-231,-475,0,0,0,0,0,0,0,0,0,-1,993,1499,0,0
-224,-475,0,0,0,0,0,0,0,0,0,-1,1000,1499,0,0
-217,-475,0,0,0,0,0,0,0,0,0,-1,1007,1499,0,0
-210,-475,0,0,0,0,0,0,0,0,0,-1,1014,1499,0,0
-203,-475,0,0,0,0,0,0,0,0,0,-1,1021,1499,0,0
-196,-475,0,0,0,0,0,0,0,0,0,-1,1028,1499,0,0
-189,-475,0,0,0,0,0,0,0,0,0,-1,1035,1499,0,0
-182,-475,0,0,0,0,0,0,0,0,0,-1,1042,1499,0,0
-175,-475,0,0,0,0,0,0,0,0,0,-1,1049,1499,0,0
-168,-475,0,0,0,0,0,0,0,0,0,-1,1056,1499,0,0
-161,-475,0,0,0,0,0,0,0,0,0,-1,1063,1499,0,0
-154,-475,0,0,0,0,0,0,0,0,0,-1,1070,1499,0,0
-147,-475,0,0,0,0,0,0,0,0,0,-1,1077,1499,0,0
-140,-475,0,0,0,0,0,0,0,0,0,-1,1084,1499,0,0
-133,-475,0,0,0,0,0,0,0,0,0,-1,1091,1499,0,0
-126,-475,0,0,0,0,0,0,0,0,0,-1,1098,1499,0,0
-119,-475,0,0,0,0,0,0,0,0,0,-1,1105,1499,0,0
-112,-475,0,0,0,0,0,0,0,0,0,-1,1112,1499,0,0
-105,-475,0,0,0,0,0,0,0,0,0,-1,1119,1499,0,0
-98,-475,0,0,0,0,0,0,0,0,0,-1,1126,1499,0,0
-91,-475,0,0,0,0,0,0,0,0,0,-1,1133,1499,0,0
-84,-475,0,0,0,0,0,0,0,0,0,-1,1140,1499,0,0
-77,-475,0,0,0,0,0,0,0,0,0,-1,1147,1499,0,0
-70,-475,0,0,0,0,0,0,0,0,0,-1,1154,1499,0,0
-63,-475,0,0,0,0,0,0,0,0,0,-1,1161,1499,0,0
-56,-475,0,0,0,0,0,0,0,0,0,-1,1168,1499,0,0
-49,-475,0,0,0,0,0,0,0,0,0,-1,1175,1499,0,0
-42,-475,0,0,0,0,0,0,0,0,0,-1,1182,1499,0,0
-35,-475,0,0,0,0,0,0,0,0,0,-1,1189,1499,0,0
-28,-475,0,0,0,0,0,0,0,0,0,-1,1196,1499,0,0
-21,-475,0,0,0,0,0,0,0,0,0,-1,1203,1499,0,0
-14,-475,0,0,0,0,0,0,0,0,0,-1,1210,1499,0,0
-7,-475,0,0,0,0,0,0,0,0,0,-1,1217,1499,0,0
0,-475,0,0,0,0,0,0,0,0,0,-1,1224,1499,0,0
7,-475,0,0,0,0,0,0,0,0,0,-1,1231,1499,0,0
14,-475,0,0,0,0,0,0,0,0,0,-1,1238,1499,0,0
21,-475,0,0,0,0,0,0,0,0,0,-1,1245,1499,0,0
28,-475,0,0,0,0,0,0,0,0,0,-1,1252,1499,0,0
35,-475,0,0,0,0,0,0,0,0,0,-1,1259,1499,0,0
42,-475,0,0,0,0,0,0,0,0,0,-1,1266,1499,0,0
49,-475,0,0,0,0,0,0,0,0,0,-1,1273,1499,0,0
56,-475,0,0,0,0,0,0,0,0,0,-1,1280,1499,0,0
63,-475,0,0,0,0,0,0,0,0,0,-1,1287,1499,0,0
70,-475,0,0,0,0,0,0,0,0,0,-1,1294,1499,0,0
77,-475,0,0,0,0,0,0,0,0,0,-1,1301,1499,0,0
84,-475,0,0,0,0,0,0,0,0,0,-1,1308,1499,0,0
91,-475,0,0,0,0,0,0,0,0,0,-1,1315,1499,0,0
98,-475,0,0,0,0,0,0,0,0,0,-1,1322,1499,0,0
105,-475,0,0,0,0,0,0,0,0,0,-1,1329,1499,0,0
112,-475,0,0,0,0,0,0,0,0,0,-1,1336,1499,0,0
119,-475,0,0,0,0,0,0,0,0,0,-1,1343,1499,0,0
126,-475,0,0,0,0,0,0,0,0,0,-1,1350,1499,0,0
133,-475,0,0,0,0,0,0,0,0,0,-1,1357,1499,0,0
140,-475,0,0,0,0,0,0,0,0,0,-1,1364,1499,0,0
147,-475,0,0,0,0,0,0,0,0,0,-1,1371,1499,0,0
154,-475,0,0,0,0,0,0,0,0,0,-1,1378,1499,0,0
161,-475,0,0,0,0,0,0,0,0,0,-1,1385,1499,0,0
168,-475,0,0,0,0,0,0,0,0,0,-1,1392,1499,0,0
175,-475,0,0,0,0,0,0,0,0,0,-1,1399,1499,0,0
182,-475,0,0,0,0,0,0,0,0,0,-1,1406,1499,0,0
189,-475,0,0,0,0,0,0,0,0,0,-1,1413,1499,0,0
196,-475,0,0,0,0,0,0,0,0,0,-1,1420,1499,0,0
203,-475,0,0,0,0,0,0,0,0,0,-1,1427,1499,0,0
210,-475,0,0,0,0,0,0,0,0,0,-1,1434,1499,0,0
217,-475,0,0,0,0,0,0,0,0,0,-1,1441,1499,0,0
224,-475,0,0,0,0,0,0,0,0,0,-1,1448,1499,0,0
231,-475,0,0,0,0,0,0,0,0,0,-1,1455,1499,0,0
238,-475,0,0,0,0,0,0,0,0,0,-1,1462,1499,0,0
245,-475,0,0,0,0,0,0,0,0,0,-1,1469,1499,0,0
252,-475,0,0,0,0,0,0,0,0,0,-1,1476,1499,0,0
259,-475,0,0,0,0,0,0,0,0,0,-1,1483,1499,0,0
266,-475,0,0,0,0,0,0,0,0,0,-1,1490,1499,0,0
273,-475,0,0,0,0,0,0,0,0,0,-1,1497,1499,0,0
280,-475,0,0,0,0,0,0,0,0,0,-1,1504,1499,0,0
287,-475,0,0,0,0,0,0,0,0,0,-1,1511,1499,0,0
294,-475,0,0,0,0,0,0,0,0,0,-1,1518,1499,0,0
301,-475,0,0,0,0,0,0,0,0,0,-1,1525,1499,0,0
308,-475,0,0,0,0,0,0,0,0,0,-1,1532,1499,0,0
315,-475,0,0,0,0,0,0,0,0,0,-1,1539,1499,0,0
322,-475,0,0,0,0,0,0,0,0,0,-1,1546,1499,0,0
329,-475,0,0,0,0,0,0,0,0,0,-1,1553,1499,0,0
336,-475,0,0,0,0,0,0,0,0,0,-1,1560,1499,0,0
343,-475,0,0,0,0,0,0,0,0,0,-1,1567,1499,0,0
350,-475,0,0,0,0,0,0,0,0,0,-1,1574,1499,0,0
357,-475,0,0,0,0,0,0,0,0,0,-1,1581,1499,0,0
364,-475,0,0,0,0,0,0,0,0,0,-1,1588,1499,0,0
371,-475,0,0,0,0,0,0,0,0,0,-1,1595,1499,0,0
378,-475,0,0,0,0,0,0,0,0,0,-1,1602,1499,0,0
385,-475,0,0,0,0,0,0,0,0,0,-1,1609,1499,0,0
392,-475,0,0,0,0,0,0,0,0,0,-1,1616,1499,0,0
399,-475,0,0,0,0,0,0,0,0,0,-1,1623,1499,0,0
406,-475,0,0,0,0,0,0,0,0,0,-1,1630,1499,0,0
413,-475,0,0,0,0,0,0,0,0,0,-1,1637,1499,0,0
420,-475,0,0,0,0,0,0,0,0,0,-1,1644,1499,0,0
427,-475,0,0,0,0,0,0,0,0,0,-1,1651,1499,0,0
434,-475,0,0,0,0,0,0,0,0,0,-1,1658,1499,0,0
441,-475,0,0,0,0,0,0,0,0,0,-1,1665,1499,0,0
448,-475,0,0,0,0,0,0,0,0,0,-1,1672,1499,0,0
455,-475,0,0,0,0,0,0,0,0,0,-1,1679,1499,0,0
462,-475,12.6372,0.275391,0,0,0,0,0,0,0,-1,1686,1499,12.6372,-0.27536
469,-475,15.6437,2.28296,0,0,0,0,0,0,0,-1,1693,1499,15.6437,-2.28293
476,-475,15.3302,2.71436,0,0,0,0,0,0,0,-1,1700,1499,15.3303,-2.7143
483,-475,10.7461,5.91479,0,0,0,0,0,0,0,-1,1707,1499,10.7461,-5.91476
490,-475,11.9305,4.4364,0,0,0,0,0,0,0,-1,1714,1499,11.9305,-4.43644
497,-475,15.3451,4.3479,0,0,0,0,0,0,0,-1,1721,1499,15.3451,-4.34789
504,-475,16.1669,8.5481,0,0,0,0,0,0,0,-1,1728,1499,16.1669,-8.54806
511,-475,14.9714,9.62366,0,0,0,0,0,0,0,-1,1735,1499,14.9715,-9.62361
518,-475,13.7964,10.4025,0,0,0,0,0,0,0,-1,1742,1499,13.7964,-10.4025
525,-475,11.6169,9.69604,0,0,0,0,0,0,0,-1,1749,1499,11.617,-9.69607
532,-475,11.4827,9.84448,-0.0324995,-0.0491127,0.023146,-0.0162147,-0.0653975,0.613117,0.039324,0.0475553,1756,1499,11.4827,-9.84442
539,-475,11.4865,10.1748,-0.0239772,-0.0395008,0.0176066,-0.0124974,-0.0509806,0.577791,0.0306817,0.0450867,1763,1499,11.4864,-10.1748
546,-475,11.7284,10.4661,-0.0175129,-0.0309944,0.0133662,-0.00928388,-0.0392234,0.551851,0.0236692,0.0392437,1770,1499,11.7284,-10.4661
553,-475,11.9,10.5607,-0.0127067,-0.0241687,0.0100609,-0.00685897,-0.0300164,0.526505,0.0181616,0.0220108,1777,1499,11.9,-10.5606
560,-475,11.7582,10.3997,-0.00886617,-0.0183866,0.0073447,-0.00487399,-0.0223788,0.497874,0.0135891,0.0152172,1784,1499,11.7581,-10.3997
567,-475,11.8032,10.1296,-0.0059513,-0.0136958,0.00542593,-0.00315759,-0.0164895,0.475481,0.0101063,0.0139074,1791,1499,11.8032,-10.1297
574,-475,11.8038,9.89429,-0.00396002,-0.00977474,0.00409352,-0.00184646,-0.0118883,0.476617,0.00738737,0.013984,1798,1499,11.8038,-9.89427
581,-475,11.807,9.66431,-0.00258861,-0.00669148,0.00288325,-0.00110147,-0.00817861,0.476196,0.00512486,0.0111366,1805,1499,11.807,-9.6643
588,-475,11.7991,9.43274,-0.00126119,-0.00403995,0.00191774,-0.000282432,-0.00501871,0.471912,0.00325575,0.00982888,1812,1499,11.7991,-9.4327
595,-475,11.7972,9.20007,-0.000188614,-0.00224368,0.0011053,0.000292997,-0.00272529,0.410922,0.00192199,0.010713,1819,1499,11.7973,-9.20006
602,-475,11.8047,8.94482,0.000706659,-0.00112039,0.00042951,0.000802593,-0.00121632,0.21975,0.00117375,0.0120711,1826,1499,11.8047,-8.94484
609,-475,11.8015,8.69568,0.00158587,-0.000372185,-0.000111948,0.00159225,-0.000378565,-0.0569259,0.00120763,0.0111884,1833,1499,11.8015,-8.69564
616,-475,11.7908,8.45605,0.0023837,-1.2581e-05,-0.000491809,0.00248071,-0.000109592,-0.194752,0.00169152,0.0106423,1840,1499,11.7908,-8.45602
623,-475,11.7813,8.21777,0.00297302,-0.000191978,-0.000940846,0.00323158,-0.000450537,-0.268194,0.0023192,0.011228,1847,1499,11.7813,-8.21772
630,-475,11.8109,7.99426,0.00324087,-0.000437219,-0.000995266,0.00349291,-0.00068926,-0.248026,0.00258913,0.0150704,1854,1499,11.8109,-7.99431
637,-475,11.8896,7.77222,0.00347193,-0.00099689,-0.0010781,0.00371842,-0.00124338,-0.224774,0.00298113,0.0284786,1861,1499,11.8896,-7.77216
644,-475,11.7526,7.55322,0,0,0,0,0,0,0,-1,1868,1499,11.7526,-7.55321
651,-475,11.7965,7.57593,0,0,0,0,0,0,0,-1,1875,1499,11.7965,-7.5759
658,-475,11.9166,7.02869,0,0,0,0,0,0,0,-1,1882,1499,11.9167,-7.02864
665,-475,9.33435,5.43335,0,0,0,0,0,0,0,-1,1889,1499,9.33439,-5.43332
672,-475,9.38635,1.10474,0,0,0,0,0,0,0,-1,1896,1499,9.38629,-1.10475
679,-475,12.2594,1.31079,0,0,0,0,0,0,0,-1,1903,1499,12.2594,-1.31077
686,-475,0,0,0,0,0,0,0,0,0,-1,1910,1499,0,0
693,-475,0,0,0,0,0,0,0,0,0,-1,1917,1499,0,0
700,-475,0,0,0,0,0,0,0,0,0,-1,1924,1499,0,0
707,-475,0,0,0,0,0,0,0,0,0,-1,1931,1499,0,0
714,-475,0,0,0,0,0,0,0,0,0,-1,1938,1499,0,0
721,-475,0,0,0,0,0,0,0,0,0,-1,1945,1499,0,0
728,-475,0,0,0,0,0,0,0,0,0,-1,1952,1499,0,0
735,-475,0,0,0,0,0,0,0,0,0,-1,1959,1499,0,0
742,-475,0,0,0,0,0,0,0,0,0,-1,1966,1499,0,0
749,-475,0,0,0,0,0,0,0,0,0,-1,1973,1499,0,0
756,-475,0,0,0,0,0,0,0,0,0,-1,1980,1499,0,0
763,-475,0,0,0,0,0,0,0,0,0,-1,1987,1499,0,0
770,-475,0,0,0,0,0,0,0,0,0,-1,1994,1499,0,0
777,-475,0,0,0,0,0,0,0,0,0,-1,2001,1499,0,0
784,-475,0,0,0,0,0,0,0,0,0,-1,2008,1499,0,0
791,-475,0,0,0,0,0,0,0,0,0,-1,2015,1499,0,0
798,-475,0,0,0,0,0,0,0,0,0,-1,2022,1499,0,0
805,-475,0,0,0,0,0,0,0,0,0,-1,2029,1499,0,0
812,-475,0,0,0,0,0,0,0,0,0,-1,2036,1499,0,0
-700,-482,0,0,0,0,0,0,0,0,0,-1,524,1506,0,0
-693,-482,0,0,0,0,0,0,0,0,0,-1,531,1506,0,0
-686,-482,0,0,0,0,0,0,0,0,0,-1,538,1506,0,0
-679,-482,0,0,0,0,0,0,0,0,0,-1,545,1506,0,0
-672,-482,0,0,0,0,0,0,0,0,0,-1,552,1506,0,0
-665,-482,0,0,0,0,0,0,0,0,0,-1,559,1506,0,0
-658,-482,0,0,0,0,0,0,0,0,0,-1,566,1506,0,0
-651,-482,0,0,0,0,0,0,0,0,0,-1,573,1506,0,0
-644,-482,0,0,0,0,0,0,0,0,0,-1,580,1506,0,0
-637,-482,0,0,0,0,0,0,0,0,0,-1,587,1506,0,0
-630,-482,0,0,0,0,0,0,0,0,0,-1,594,1506,0,0
-623,-482,0,0,0,0,0,0,0,0,0,-1,601,1506,0,0
-616,-482,0,0,0,0,0,0,0,0,0,-1,608,1506,0,0
-609,-482,0,0,0,0,0,0,0,0,0,-1,615,1506,0,0
-602,-482,0,0,0,0,0,0,0,0,0,-1,622,1506,0,0
-595,-482,0,0,0,0,0,0,0,0,0,-1,629,1506,0,0
-588,-482,0,0,0,0,0,0,0,0,0,-1,636,1506,0,0
-581,-482,0,0,0,0,0,0,0,0,0,-1,643,1506,0,0
-574,-482,0,0,0,0,0,0,0,0,0,-1,650,1506,0,0
-567,-482,0,0,0,0,0,0,0,0,0,-1,657,1506,0,0
-560,-482,0,0,0,0,0,0,0,0,0,-1,664,1506,0,0
-553,-482,-9.06055,9.34314,0,0,0,0,0,0,0,-1,671,1506,-9.06056,-9.34312
-546,-482,-4.08624,8.34241,0,0,0,0,0,0,0,-1,678,1506,-4.08624,-8.3424
-539,-482,-2.54572,4.26294,0,0,0,0,0,0,0,-1,685,1506,-2.54573,-4.2629
-532,-482,-4.67255,3.53101,0,0,0,0,0,0,0,-1,692,1506,-4.67254,-3.53096
-525,-482,-3.00806,4.19128,0,0,0,0,0,0,0,-1,699,1506,-3.00808,-4.19125
-518,-482,-2.45691,4.3313,0,0,0,0,0,0,0,-1,706,1506,-2.45693,-4.33131
-511,-482,-2.53467,5.89648,0,0,0,0,0,0,0,-1,713,1506,-2.53464,-5.89651
-504,-482,-2.34491,6.12134,0.0214794,0.0109774,0.0126729,0.0299462,0.00251064,0.588991,0.0191821,0.0425268,720,1506,-2.3449,-6.12138
-497,-482,-2.13416,6.25928,0.013789,0.00696442,0.00818958,0.0192488,0.00150469,0.588003,0.0123615,0.0252337,727,1506,-2.13415,-6.25926
-490,-482,-2.20612,6.4823,0.00862024,0.00415289,0.0051754,0.0120234,0.000749712,0.581677,0.00777776,0.0148789,734,1506,-2.20612,-6.48234
-483,-482,-2.19928,6.7876,0.00476081,0.0018619,0.00278417,0.00645022,0.000172485,0.5454,0.00424382,0.00860269,741,1506,-2.19926,-6.78764
-476,-482,-2.18658,7.04382,0.00248173,0.000176858,0.00117057,0.00297196,-0.000313368,0.396602,0.00209359,0.009752,748,1506,-2.18659,-7.04379
-469,-482,-2.19257,7.3125,0.00173525,-0.00124065,0.000313918,0.001768,-0.0012734,0.103962,0.00176368,0.0110296,755,1506,-2.19258,-7.31248
-462,-482,-2.19025,7.60193,0.00188784,-0.0024157,-9.39956e-05,0.00188989,-0.00241775,-0.0218276,0.00249323,0.0122166,762,1506,-2.19023,-7.60199
-455,-482,-2.20404,7.86658,0.00236014,-0.0032222,-0.000605048,0.00242496,-0.00328702,-0.106735,0.00331031,0.0127725,769,1506,-2.20405,-7.86657
-448,-482,-2.20923,8.12732,0.00313466,-0.00382656,-0.00099036,0.00327282,-0.00396471,-0.138605,0.00418495,0.0129523,776,1506,-2.20925,-8.1273
-441,-482,-2.19537,8.40393,0.00426969,-0.00447532,-0.00133493,0.00446893,-0.00467456,-0.148156,0.00527944,0.0116817,783,1506,-2.19534,-8.40396
-434,-482,-2.20728,8.67139,0.00553799,-0.00554292,-0.00180509,0.00582462,-0.00582956,-0.157479,0.00672854,0.014089,790,1506,-2.20729,-8.67137
-427,-482,-2.22565,8.95288,0.00694008,-0.00666652,-0.00224061,0.00729954,-0.00702599,-0.159077,0.00827135,0.0165033,797,1506,-2.22562,-8.95293
-420,-482,-2.15717,9.35413,0.00858435,-0.00797298,-0.00282219,0.00905217,-0.0084408,-0.164272,0.0101016,0.0268691,804,1506,-2.15714,-9.35415
-413,-482,-2.0058,9.44006,0.0103255,-0.00974166,-0.00348066,0.0109121,-0.0103282,-0.166956,0.0122646,0.0374239,811,1506,-2.00577,-9.44004
-406,-482,-1.86871,9.64844,0,0,0,0,0,0,0,-1,818,1506,-1.86872,-9.64842
-399,-482,-1.3822,9.22595,0,0,0,0,0,0,0,-1,825,1506,-1.38221,-9.22598
-392,-482,-1.06836,9.22729,0,0,0,0,0,0,0,-1,832,1506,-1.06835,-9.2273
-385,-482,0.0647583,8.90649,0,0,0,0,0,0,0,-1,839,1506,0.0647778,-8.90644
-378,-482,0.215698,5.96948,0,0,0,0,0,0,0,-1,846,1506,0.215681,-5.9695
-371,-482,-0.10907,8.10437,0,0,0,0,0,0,0,-1,853,1506,-0.109063,-8.10433
-364,-482,-0.154968,10.5032,0,0,0,0,0,0,0,-1,860,1506,-0.154976,-10.5032
-357,-482,2.14807,4.60144,0,0,0,0,0,0,0,-1,867,1506,2.14807,-4.60144
-350,-482,-7.5813,-1.45935,0,0,0,0,0,0,0,-1,874,1506,-7.58133,1.45937
-343,-482,-7.19983,-1.26416,0,0,0,0,0,0,0,-1,881,1506,-7.19981,1.26414
-336,-482,-6.78491,-1.18127,0,0,0,0,0,0,0,-1,888,1506,-6.78488,1.18125
-329,-482,0,0,0,0,0,0,0,0,0,-1,895,1506,0,0
-322,-482,0,0,0,0,0,0,0,0,0,-1,902,1506,0,0
-315,-482,0,0,0,0,0,0,0,0,0,-1,909,1506,0,0
-308,-482,0,0,0,0,0,0,0,0,0,-1,916,1506,0,0
-301,-482,0,0,0,0,0,0,0,0,0,-1,923,1506,0,0
-294,-482,0,0,0,0,0,0,0,0,0,-1,930,1506,0,0
-287,-482,0,0,0,0,0,0,0,0,0,-1,937,1506,0,0
-280,-482,0,0,0,0,0,0,0,0,0,-1,944,1506,0,0
-273,-482,0,0,0,0,0,0,0,0,0,-1,951,1506,0,0
-266,-482,0,0,0,0,0,0,0,0,0,-1,958,1506,0,0
-259,-482,0,0,0,0,0,0,0,0,0,-1,965,1506,0,0
-252,-482,0,0,0,0,0,0,0,0,0,-1,972,1506,0,0
-245,-482,0,0,0,0,0,0,0,0,0,-1,979,1506,0,0
-238,-482,0,0,0,0,0,0,0,0,0,-1,986,1506,0,0
-231,-482,0,0,0,0,0,0,0,0,0,-1,993,1506,0,0
-224,-482,0,0,0,0,0,0,0,0,0,-1,1000,1506,0,0
-217,-482,0,0,0,0,0,0,0,0,0,-1,1007,1506,0,0
-210,-482,0,0,0,0,0,0,0,0,0,-1,1014,1506,0,0
-203,-482,0,0,0,0,0,0,0,0,0,-1,1021,1506,0,0
-196,-482,0,0,0,0,0,0,0,0,0,-1,1028,1506,0,0
-189,-482,0,0,0,0,0,0,0,0,0,-1,1035,1506,0,0
-182,-482,0,0,0,0,0,0,0,0,0,-1,1042,1506,0,0
-175,-482,0,0,0,0,0,0,0,0,0,-1,1049,1506,0,0
-168,-482,0,0,0,0,0,0,0,0,0,-1,1056,1506,0,0
-161,-482,0,0,0,0,0,0,0,0,0,-1,1063,1506,0,0
-154,-482,0,0,0,0,0,0,0,0,0,-1,1070,1506,0,0
-147,-482,0,0,0,0,0,0,0,0,0,-1,1077,1506,0,0
-140,-482,0,0,0,0,0,0,0,0,0,-1,1084,1506,0,0
-133,-482,0,0,0,0,0,0,0,0,0,-1,1091,1506,0,0
-126,-482,0,0,0,0,0,0,0,0,0,-1,1098,1506,0,0
-119,-482,0,0,0,0,0,0,0,0,0,-1,1105,1506,0,0
-112,-482,0,0,0,0,0,0,0,0,0,-1,1112,1506,0,0
-105,-482,0,0,0,0,0,0,0,0,0,-1,1119,1506,0,0
-98,-482,0,0,0,0,0,0,0,0,0,-1,1126,1506,0,0
-91,-482,0,0,0,0,0,0,0,0,0,-1,1133,1506,0,0
-84,-482,0,0,0,0,0,0,0,0,0,-1,1140,1506,0,0
-77,-482,0,0,0,0,0,0,0,0,0,-1,1147,1506,0,0
-70,-482,0,0,0,0,0,0,0,0,0,-1,1154,1506,0,0
-63,-482,0,0,0,0,0,0,0,0,0,-1,1161,1506,0,0
-56,-482,0,0,0,0,0,0,0,0,0,-1,1168,1506,0,0
-49,-482,0,0,0,0,0,0,0,0,0,-1,1175,1506,0,0
-42,-482,0,0,0,0,0,0,0,0,0,-1,1182,1506,0,0
-35,-482,0,0,0,0,0,0,0,0,0,-1,1189,1506,0,0
-28,-482,0,0,0,0,0,0,0,0,0,-1,1196,1506,0,0
-21,-482,0,0,0,0,0,0,0,0,0,-1,1203,1506,0,0
-14,-482,0,0,0,0,0,0,0,0,0,-1,1210,1506,0,0
-7,-482,0,0,0,0,0,0,0,0,0,-1,1217,1506,0,0
0,-482,0,0,0,0,0,0,0,0,0,-1,1224,1506,0,0
7,-482,0,0,0,0,0,0,0,0,0,-1,1231,1506,0,0
14,-482,0,0,0,0,0,0,0,0,0,-1,1238,1506,0,0
21,-482,0,0,0,0,0,0,0,0,0,-1,1245,1506,0,0
28,-482,0,0,0,0,0,0,0,0,0,-1,1252,1506,0,0
35,-482,0,0,0,0,0,0,0,0,0,-1,1259,1506,0,0
42,-482,0,0,0,0,0,0,0,0,0,-1,1266,1506,0,0
49,-482,0,0,0,0,0,0,0,0,0,-1,1273,1506,0,0
56,-482,0,0,0,0,0,0,0,0,0,-1,1280,1506,0,0
63,-482,0,0,0,0,0,0,0,0,0,-1,1287,1506,0,0
70,-482,0,0,0,0,0,0,0,0,0,-1,1294,1506,0,0
77,-482,0,0,0,0,0,0,0,0,0,-1,1301,1506,0,0
84,-482,0,0,0,0,0,0,0,0,0,-1,1308,1506,0,0
91,-482,0,0,0,0,0,0,0,0,0,-1,1315,1506,0,0
98,-482,0,0,0,0,0,0,0,0,0,-1,1322,1506,0,0
105,-482,0,0,0,0,0,0,0,0,0,-1,1329,1506,0,0
112,-482,0,0,0,0,0,0,0,0,0,-1,1336,1506,0,0
119,-482,0,0,0,0,0,0,0,0,0,-1,1343,1506,0,0
126,-482,0,0,0,0,0,0,0,0,0,-1,1350,1506,0,0
133,-482,0,0,0,0,0,0,0,0,0,-1,1357,1506,0,0
140,-482,0,0,0,0,0,0,0,0,0,-1,1364,1506,0,0
147,-482,0,0,0,0,0,0,0,0,0,-1,1371,1506,0,0
154,-482,0,0,0,0,0,0,0,0,0,-1,1378,1506,0,0
161,-482,0,0,0,0,0,0,0,0,0,-1,1385,1506,0,0
168,-482,0,0,0,0,0,0,0,0,0,-1,1392,1506,0,0
175,-482,0,0,0,0,0,0,0,0,0,-1,1399,1506,0,0
182,-482,0,0,0,0,0,0,0,0,0,-1,1406,1506,0,0
189,-482,0,0,0,0,0,0,0,0,0,-1,1413,1506,0,0
196,-482,0,0,0,0,0,0,0,0,0,-1,1420,1506,0,0
203,-482,0,0,0,0,0,0,0,0,0,-1,1427,1506,0,0
210,-482,0,0,0,0,0,0,0,0,0,-1,1434,1506,0,0
217,-482,0,0,0,0,0,0,0,0,0,-1,1441,1506,0,0
224,-482,0,0,0,0,0,0,0,0,0,-1,1448,1506,0,0
231,-482,0,0,0,0,0,0,0,0,0,-1,1455,1506,0,0
238,-482,0,0,0,0,0,0,0,0,0,-1,1462,1506,0,0
245,-482,0,0,0,0,0,0,0,0,0,-1,1469,1506,0,0
252,-482,0,0,0,0,0,0,0,0,0,-1,1476,1506,0,0
259,-482,0,0,0,0,0,0,0,0,0,-1,1483,1506,0,0
266,-482,0,0,0,0,0,0,0,0,0,-1,1490,1506,0,0
273,-482,0,0,0,0,0,0,0,0,0,-1,1497,1506,0,0
280,-482,0,0,0,0,0,0,0,0,0,-1,1504,1506,0,0
287,-482,0,0,0,0,0,0,0,0,0,-1,1511,1506,0,0
294,-482,0,0,0,0,0,0,0,0,0,-1,1518,1506,0,0
301,-482,0,0,0,0,0,0,0,0,0,-1,1525,1506,0,0
308,-482,0,0,0,0,0,0,0,0,0,-1,1532,1506,0,0
315,-482,0,0,0,0,0,0,0,0,0,-1,1539,1506,0,0
322,-482,0,0,0,0,0,0,0,0,0,-1,1546,1506,0,0
329,-482,0,0,0,0,0,0,0,0,0,-1,1553,1506,0,0
336,-482,0,0,0,0,0,0,0,0,0,-1,1560,1506,0,0
343,-482,0,0,0,0,0,0,0,0,0,-1,1567,1506,0,0
350,-482,0,0,0,0,0,0,0,0,0,-1,1574,1506,0,0
357,-482,0,0,0,0,0,0,0,0,0,-1,1581,1506,0,0
364,-482,0,0,0,0,0,0,0,0,0,-1,1588,1506,0,0
371,-482,0,0,0,0,0,0,0,0,0,-1,1595,1506,0,0
378,-482,0,0,0,0,0,0,0,0,0,-1,1602,1506,0,0
385,-482,0,0,0,0,0,0,0,0,0,-1,1609,1506,0,0
392,-482,0,0,0,0,0,0,0,0,0,-1,1616,1506,0,0
399,-482,0,0,0,0,0,0,0,0,0,-1,1623,1506,0,0
406,-482,0,0,0,0,0,0,0,0,0,-1,1630,1506,0,0
413,-482,0,0,0,0,0,0,0,0,0,-1,1637,1506,0,0
420,-482,0,0,0,0,0,0,0,0,0,-1,1644,1506,0,0
427,-482,0,0,0,0,0,0,0,0,0,-1,1651,1506,0,0
434,-482,0,0,0,0,0,0,0,0,0,-1,1658,1506,0,0
441,-482,0,0,0,0,0,0,0,0,0,-1,1665,1506,0,0
448,-482,4.24146,1.55383,0,0,0,0,0,0,0,-1,1672,1506,4.24149,-1.55381
455,-482,12.4122,1.09729,0,0,0,0,0,0,0,-1,1679,1506,12.4122,-1.09734
462,-482,15.0673,3.13135,0,0,0,0,0,0,0,-1,1686,1506,15.0672,-3.13134
469,-482,15.3793,3.46301,0,0,0,0,0,0,0,-1,1693,1506,15.3793,-3.46307
476,-482,8.69751,9.18738,0,0,0,0,0,0,0,-1,1700,1506,8.69753,-9.18739
483,-482,10.0902,7.17432,0,0,0,0,0,0,0,-1,1707,1506,10.0902,-7.1743
490,-482,11.6289,5.4928,0,0,0,0,0,0,0,-1,1714,1506,11.6289,-5.49283
497,-482,15.9539,7.40222,0,0,0,0,0,0,0,-1,1721,1506,15.9538,-7.40219
504,-482,16.3503,11.215,0,0,0,0,0,0,0,-1,1728,1506,16.3503,-11.215
511,-482,14.1112,9.73108,0,0,0,0,0,0,0,-1,1735,1506,14.1112,-9.73106
518,-482,14.0035,10.4705,0,0,0,0,0,0,0,-1,1742,1506,14.0035,-10.4704
525,-482,12.2979,10.6832,0,0,0,0,0,0,0,-1,1749,1506,12.2979,-10.6832
532,-482,12.0822,10.7233,-0.0291922,-0.0392265,0.0214749,-0.0121562,-0.0562625,0.670642,0.0341845,0.043914,1756,1506,12.0821,-10.7233
539,-482,11.7729,10.8241,-0.0212794,-0.0314665,0.0160493,-0.00953476,-0.0432111,0.631742,0.0262137,0.0341136,1763,1506,11.7729,-10.824
546,-482,11.6174,10.8099,-0.0153078,-0.0245603,0.0119031,-0.00716353,-0.0327046,0.60005,0.0198508,0.01832,1770,1506,11.6174,-10.8099
553,-482,11.5654,10.6191,-0.0108431,-0.0191851,0.00870998,-0.0053569,-0.0246712,0.562096,0.0149845,0.0143881,1777,1506,11.5654,-10.6192
560,-482,11.5413,10.3937,-0.0071844,-0.0144914,0.00603489,-0.00378327,-0.0178926,0.513208,0.0108886,0.0121712,1784,1506,11.5412,-10.3936
567,-482,11.5704,10.1405,-0.00439042,-0.010658,0.00417393,-0.0023048,-0.0127436,0.463391,0.00784122,0.0150123,1791,1506,11.5705,-10.1405
574,-482,11.5629,9.91797,-0.00247794,-0.00735234,0.0028983,-0.00112831,-0.00870197,0.435802,0.00546418,0.0140043,1798,1506,11.5629,-9.91802
581,-482,11.5686,9.67847,-0.00117917,-0.00472132,0.00172697,-0.000476557,-0.00542393,0.386395,0.00346803,0.00928535,1805,1506,11.5686,-9.67851
588,-482,11.568,9.44128,0.000119544,-0.00244827,0.000760218,0.000327733,-0.00265646,0.2673,0.00188971,0.00995214,1812,1506,11.568,-9.44128
595,-482,11.5538,9.17932,0.00120626,-0.000907491,-4.67424e-05,0.00120729,-0.000908524,-0.0220991,0.00122562,0.0153015,1819,1506,11.5538,-9.17937
602,-482,11.5835,8.91553,0.00214225,5.17696e-05,-0.000713584,0.0023626,-0.000168585,-0.29951,0.00163416,0.0186688,1826,1506,11.5836,-8.91553
609,-482,11.5684,8.69092,0.00302644,0.000676502,-0.00121813,0.00354392,0.000159023,-0.401715,0.00231143,0.0147751,1833,1506,11.5683,-8.69088
616,-482,11.5443,8.4574,0.00384263,0.000903766,-0.00156817,0.00452225,0.000224152,-0.408946,0.00294296,0.0110494,1840,1506,11.5443,-8.45738
623,-482,11.528,8.22778,0.00457728,0.000618043,-0.00200634,0.00541622,-0.000220898,-0.396051,0.00368665,0.0120913,1847,1506,11.528,-8.22778
630,-482,11.6086,8.00317,0.00514427,0.000316058,-0.00217014,0.0059763,-0.000515972,-0.366114,0.00416685,0.0253897,1854,1506,11.6086,-8.00314
637,-482,11.707,7.88477,0,0,0,0,0,0,0,-1,1861,1506,11.707,-7.88483
644,-482,11.149,7.69128,0,0,0,0,0,0,0,-1,1868,1506,11.1491,-7.69124
651,-482,4.03845,7.05273,0,0,0,0,0,0,0,-1,1875,1506,4.03843,-7.05279
658,-482,10.0278,5.87903,0,0,0,0,0,0,0,-1,1882,1506,10.0279,-5.87902
665,-482,8.15198,3.22229,0,0,0,0,0,0,0,-1,1889,1506,8.15199,-3.22232
672,-482,9.87415,1.3147,0,0,0,0,0,0,0,-1,1896,1506,9.87416,-1.31473
679,-482,0,0,0,0,0,0,0,0,0,-1,1903,1506,0,0
686,-482,0,0,0,0,0,0,0,0,0,-1,1910,1506,0,0
693,-482,0,0,0,0,0,0,0,0,0,-1,1917,1506,0,0
700,-482,0,0,0,0,0,0,0,0,0,-1,1924,1506,0,0
707,-482,0,0,0,0,0,0,0,0,0,-1,1931,1506,0,0
714,-482,0,0,0,0,0,0,0,0,0,-1,1938,1506,0,0
721,-482,0,0,0,0,0,0,0,0,0,-1,1945,1506,0,0
728,-482,0,0,0,0,0,0,0,0,0,-1,1952,1506,0,0
735,-482,0,0,0,0,0,0,0,0,0,-1,1959,1506,0,0
742,-482,0,0,0,0,0,0,0,0,0,-1,1966,1506,0,0
749,-482,0,0,0,0,0,0,0,0,0,-1,1973,1506,0,0
756,-482,0,0,0,0,0,0,0,0,0,-1,1980,1506,0,0
763,-482,0,0,0,0,0,0,0,0,0,-1,1987,1506,0,0
770,-482,0,0,0,0,0,0,0,0,0,-1,1994,1506,0,0
777,-482,0,0,0,0,0,0,0,0,0,-1,2001,1506,0,0
784,-482,0,0,0,0,0,0,0,0,0,-1,2008,1506,0,0
791,-482,0,0,0,0,0,0,0,0,0,-1,2015,1506,0,0
798,-482,0,0,0,0,0,0,0,0,0,-1,2022,1506,0,0
805,-482,0,0,0,0,0,0,0,0,0,-1,2029,1506,0,0
812,-482,0,0,0,0,0,0,0,0,0,-1,2036,1506,0,0
-700,-489,0,0,0,0,0,0,0,0,0,-1,524,1513,0,0
-693,-489,0,0,0,0,0,0,0,0,0,-1,531,1513,0,0
-686,-489,0,0,0,0,0,0,0,0,0,-1,538,1513,0,0
-679,-489,0,0,0,0,0,0,0,0,0,-1,545,1513,0,0
-672,-489,0,0,0,0,0,0,0,0,0,-1,552,1513,0,0
-665,-489,0,0,0,0,0,0,0,0,0,-1,559,1513,0,0
-658,-489,0,0,0,0,0,0,0,0,0,-1,566,1513,0,0
-651,-489,0,0,0,0,0,0,0,0,0,-1,573,1513,0,0
-644,-489,0,0,0,0,0,0,0,0,0,-1,580,1513,0,0
-637,-489,0,0,0,0,0,0,0,0,0,-1,587,1513,0,0
-630,-489,0,0,0,0,0,0,0,0,0,-1,594,1513,0,0
-623,-489,0,0,0,0,0,0,0,0,0,-1,601,1513,0,0
-616,-489,0,0,0,0,0,0,0,0,0,-1,608,1513,0,0
-609,-489,0,0,0,0,0,0,0,0,0,-1,615,1513,0,0
-602,-489,0,0,0,0,0,0,0,0,0,-1,622,1513,0,0
-595,-489,0,0,0,0,0,0,0,0,0,-1,629,1513,0,0
-588,-489,0,0,0,0,0,0,0,0,0,-1,636,1513,0,0
-581,-489,0,0,0,0,0,0,0,0,0,-1,643,1513,0,0
-574,-489,0,0,0,0,0,0,0,0,0,-1,650,1513,0,0
-567,-489,0,0,0,0,0,0,0,0,0,-1,657,1513,0,0
-560,-489,0,0,0,0,0,0,0,0,0,-1,664,1513,0,0
-553,-489,-9.42206,8.5116,0,0,0,0,0,0,0,-1,671,1513,-9.42205,-8.51158
-546,-489,-7.80951,8.18506,0,0,0,0,0,0,0,-1,678,1513,-7.8095,-8.18503
-539,-489,-3.61237,7.19727,0,0,0,0,0,0,0,-1,685,1513,-3.61238,-7.19723
-532,-489,-2.74719,3.00769,0,0,0,0,0,0,0,-1,692,1513,-2.74722,-3.00764
-525,-489,-3.12585,3.98181,0,0,0,0,0,0,0,-1,699,1513,-3.12586,-3.98182
-518,-489,-3.50665,4.92651,0,0,0,0,0,0,0,-1,706,1513,-3.50664,-4.9265
-511,-489,-2.3446,5.98242,0,0,0,0,0,0,0,-1,713,1513,-2.3446,-5.98238
-504,-489,-2.12408,6.16724,0.0225333,0.0115323,0.0139558,0.0320335,0.00203213,0.597678,0.0207115,0.049378,720,1513,-2.12408,-6.16718
-497,-489,-1.80963,6.40186,0.0143324,0.00715872,0.00909791,0.020525,0.000966133,0.597628,0.0133729,0.0380459,727,1513,-1.80964,-6.40188
-490,-489,-1.86761,6.52917,0.00883677,0.00424769,0.00594,0.01291,0.000174458,0.601084,0.00854911,0.0217368,734,1513,-1.8676,-6.52918
-483,-489,-1.93787,6.76599,0.00475453,0.00206701,0.00351331,0.00717229,-0.000350749,0.602744,0.00490263,0.0107795,741,1513,-1.93787,-6.76601
-476,-489,-1.93561,7.03552,0.00237359,0.000645004,0.00191512,0.00361041,-0.000591822,0.573432,0.00262654,0.00923905,748,1513,-1.9356,-7.03552
-469,-489,-1.93921,7.30139,0.00152702,-0.000461827,0.00108007,0.00200074,-0.000935539,0.413329,0.00173204,0.0103402,755,1513,-1.93919,-7.30134
-462,-489,-1.91864,7.59631,0.00151856,-0.00140223,0.000670289,0.00166504,-0.0015487,0.215147,0.00185586,0.0156934,762,1513,-1.91863,-7.59629
-455,-489,-1.92664,7.87305,0.00185019,-0.0019166,0.000171141,0.00185795,-0.00192436,0.0453098,0.00218383,0.0191431,769,1513,-1.92663,-7.8731
-448,-489,-1.94586,8.14441,0.00244212,-0.00221975,-0.000181979,0.00244921,-0.00222684,-0.0389566,0.00270074,0.016514,776,1513,-1.94589,-8.14445
-441,-489,-1.93628,8.42822,0.00338159,-0.00255439,-0.000458038,0.00341673,-0.00258953,-0.0765589,0.00347866,0.0136043,783,1513,-1.93628,-8.42822
-434,-489,-1.95276,8.68494,0.00443788,-0.00334121,-0.000828573,0.00452516,-0.00342849,-0.104944,0.00460657,0.0164008,790,1513,-1.95278,-8.68498
-427,-489,-1.9906,8.96106,0.00563596,-0.00423899,-0.00116237,0.00577094,-0.00437397,-0.115604,0.00587565,0.0185613,797,1513,-1.99058,-8.96105
-420,-489,-1.99939,9.30994,0.00704557,-0.00532546,-0.00163345,0.00725762,-0.0055375,-0.129091,0.00740948,0.0192159,804,1513,-1.99937,-9.30998
-413,-489,-1.73145,9.52747,0.00846763,-0.00688535,-0.00214465,0.00876159,-0.00717931,-0.136217,0.00921858,0.02982,811,1513,-1.73148,-9.52741
-406,-489,-1.58807,9.96509,0,0,0,0,0,0,0,-1,818,1513,-1.5881,-9.96511
-399,-489,-1.41241,9.10718,0,0,0,0,0,0,0,-1,825,1513,-1.41244,-9.10722
-392,-489,-1.0368,9.30469,0,0,0,0,0,0,0,-1,832,1513,-1.03682,-9.30466
-385,-489,-1.49188,10.4506,0,0,0,0,0,0,0,-1,839,1513,-1.49187,-10.4506
-378,-489,-0.401428,9.87048,0,0,0,0,0,0,0,-1,846,1513,-0.401415,-9.87047
-371,-489,-1.11633,10.6606,0,0,0,0,0,0,0,-1,853,1513,-1.11633,-10.6606
-364,-489,-0.503113,8.98486,0,0,0,0,0,0,0,-1,860,1513,-0.503097,-8.98482
-357,-489,-0.609924,10.9606,0,0,0,0,0,0,0,-1,867,1513,-0.609947,-10.9605
-350,-489,-7.94659,-0.358887,0,0,0,0,0,0,0,-1,874,1513,-7.94657,0.358912
-343,-489,-7.49323,-0.437866,0,0,0,0,0,0,0,-1,881,1513,-7.49322,0.437823
-336,-489,-7.02332,-0.53125,0,0,0,0,0,0,0,-1,888,1513,-7.0233,0.531295
-329,-489,-6.70221,-0.242432,0,0,0,0,0,0,0,-1,895,1513,-6.70221,0.2424
-322,-489,0,0,0,0,0,0,0,0,0,-1,902,1513,0,0
-315,-489,0,0,0,0,0,0,0,0,0,-1,909,1513,0,0
-308,-489,0,0,0,0,0,0,0,0,0,-1,916,1513,0,0
-301,-489,0,0,0,0,0,0,0,0,0,-1,923,1513,0,0
-294,-489,0,0,0,0,0,0,0,0,0,-1,930,1513,0,0
-287,-489,0,0,0,0,0,0,0,0,0,-1,937,1513,0,0
-280,-489,0,0,0,0,0,0,0,0,0,-1,944,1513,0,0
-273,-489,0,0,0,0,0,0,0,0,0,-1,951,1513,0,0
-266,-489,0,0,0,0,0,0,0,0,0,-1,958,1513,0,0
-259,-489,0,0,0,0,0,0,0,0,0,-1,965,1513,0,0
-252,-489,0,0,0,0,0,0,0,0,0,-1,972,1513,0,0
-245,-489,0,0,0,0,0,0,0,0,0,-1,979,1513,0,0
-238,-489,0,0,0,0,0,0,0,0,0,-1,986,1513,0,0
-231,-489,0,0,0,0,0,0,0,0,0,-1,993,1513,0,0
-224,-489,0,0,0,0,0,0,0,0,0,-1,1000,1513,0,0
-217,-489,0,0,0,0,0,0,0,0,0,-1,1007,1513,0,0
-210,-489,0,0,0,0,0,0,0,0,0,-1,1014,1513,0,0
-203,-489,0,0,0,0,0,0,0,0,0,-1,1021,1513,0,0
-196,-489,0,0,0,0,0,0,0,0,0,-1,1028,1513,0,0
-189,-489,0,0,0,0,0,0,0,0,0,-1,1035,1513,0,0
-182,-489,0,0,0,0,0,0,0,0,0,-1,1042,1513,0,0
-175,-489,0,0,0,0,0,0,0,0,0,-1,1049,1513,0,0
-168,-489,0,0,0,0,0,0,0,0,0,-1,1056,1513,0,0
-161,-489,0,0,0,0,0,0,0,0,0,-1,1063,1513,0,0
-154,-489,0,0,0,0,0,0,0,0,0,-1,1070,1513,0,0
-147,-489,0,0,0,0,0,0,0,0,0,-1,1077,1513,0,0
-140,-489,0,0,0,0,0,0,0,0,0,-1,1084,1513,0,0
-133,-489,0,0,0,0,0,0,0,0,0,-1,1091,1513,0,0
-126,-489,0,0,0,0,0,0,0,0,0,-1,1098,1513,0,0
-119,-489,0,0,0,0,0,0,0,0,0,-1,1105,1513,0,0
-112,-489,0,0,0,0,0,0,0,0,0,-1,1112,1513,0,0
-105,-489,0,0,0,0,0,0,0,0,0,-1,1119,1513,0,0
-98,-489,0,0,0,0,0,0,0,0,0,-1,1126,1513,0,0
-91,-489,0,0,0,0,0,0,0,0,0,-1,1133,1513,0,0
-84,-489,0,0,0,0,0,0,0,0,0,-1,1140,1513,0,0
-77,-489,0,0,0,0,0,0,0,0,0,-1,1147,1513,0,0
-70,-489,0,0,0,0,0,0,0,0,0,-1,1154,1513,0,0
-63,-489,0,0,0,0,0,0,0,0,0,-1,1161,1513,0,0
-56,-489,0,0,0,0,0,0,0,0,0,-1,1168,1513,0,0
-49,-489,0,0,0,0,0,0,0,0,0,-1,1175,1513,0,0
-42,-489,0,0,0,0,0,0,0,0,0,-1,1182,1513,0,0
-35,-489,0,0,0,0,0,0,0,0,0,-1,1189,1513,0,0
-28,-489,0,0,0,0,0,0,0,0,0,-1,1196,1513,0,0
-21,-489,0,0,0,0,0,0,0,0,0,-1,1203,1513,0,0
-14,-489,0,0,0,0,0,0,0,0,0,-1,1210,1513,0,0
-7,-489,0,0,0,0,0,0,0,0,0,-1,1217,1513,0,0
0,-489,0,0,0,0,0,0,0,0,0,-1,1224,1513,0,0
7,-489,0,0,0,0,0,0,0,0,0,-1,1231,1513,0,0
14,-489,0,0,0,0,0,0,0,0,0,-1,1238,1513,0,0
21,-489,0,0,0,0,0,0,0,0,0,-1,1245,1513,0,0
28,-489,0,0,0,0,0,0,0,0,0,-1,1252,1513,0,0
35,-489,0,0,0,0,0,0,0,0,0,-1,1259,1513,0,0
42,-489,0,0,0,0,0,0,0,0,0,-1,1266,1513,0,0
49,-489,0,0,0,0,0,0,0,0,0,-1,1273,1513,0,0
56,-489,0,0,0,0,0,0,0,0,0,-1,1280,1513,0,0
63,-489,0,0,0,0,0,0,0,0,0,-1,1287,1513,0,0
70,-489,0,0,0,0,0,0,0,0,0,-1,1294,1513,0,0
77,-489,0,0,0,0,0,0,0,0,0,-1,1301,1513,0,0
84,-489,0,0,0,0,0,0,0,0,0,-1,1308,1513,0,0
91,-489,0,0,0,0,0,0,0,0,0,-1,1315,1513,0,0
98,-489,0,0,0,0,0,0,0,0,0,-1,1322,1513,0,0
105,-489,0,0,0,0,0,0,0,0,0,-1,1329,1513,0,0
112,-489,0,0,0,0,0,0,0,0,0,-1,1336,1513,0,0
119,-489,0,0,0,0,0,0,0,0,0,-1,1343,1513,0,0
126,-489,0,0,0,0,0,0,0,0,0,-1,1350,1513,0,0
133,-489,0,0,0,0,0,0,0,0,0,-1,1357,1513,0,0
140,-489,0,0,0,0,0,0,0,0,0,-1,1364,1513,0,0
147,-489,0,0,0,0,0,0,0,0,0,-1,1371,1513,0,0
154,-489,0,0,0,0,0,0,0,0,0,-1,1378,1513,0,0
161,-489,0,0,0,0,0,0,0,0,0,-1,1385,1513,0,0
168,-489,0,0,0,0,0,0,0,0,0,-1,1392,1513,0,0
175,-489,0,0,0,0,0,0,0,0,0,-1,1399,1513,0,0
182,-489,0,0,0,0,0,0,0,0,0,-1,1406,1513,0,0
189,-489,0,0,0,0,0,0,0,0,0,-1,1413,1513,0,0
196,-489,0,0,0,0,0,0,0,0,0,-1,1420,1513,0,0
203,-489,0,0,0,0,0,0,0,0,0,-1,1427,1513,0,0
210,-489,0,0,0,0,0,0,0,0,0,-1,1434,1513,0,0
217,-489,0,0,0,0,0,0,0,0,0,-1,1441,1513,0,0
224,-489,0,0,0,0,0,0,0,0,0,-1,1448,1513,0,0
231,-489,0,0,0,0,0,0,0,0,0,-1,1455,1513,0,0
238,-489,0,0,0,0,0,0,0,0,0,-1,1462,1513,0,0
245,-489,0,0,0,0,0,0,0,0,0,-1,1469,1513,0,0
252,-489,0,0,0,0,0,0,0,0,0,-1,1476,1513,0,0
259,-489,0,0,0,0,0,0,0,0,0,-1,1483,1513,0,0
266,-489,0,0,0,0,0,0,0,0,0,-1,1490,1513,0,0
273,-489,0,0,0,0,0,0,0,0,0,-1,1497,1513,0,0
280,-489,0,0,0,0,0,0,0,0,0,-1,1504,1513,0,0
287,-489,0,0,0,0,0,0,0,0,0,-1,1511,1513,0,0
294,-489,0,0,0,0,0,0,0,0,0,-1,1518,1513,0,0
301,-489,0,0,0,0,0,0,0,0,0,-1,1525,1513,0,0
308,-489,0,0,0,0,0,0,0,0,0,-1,1532,1513,0,0
315,-489,0,0,0,0,0,0,0,0,0,-1,1539,1513,0,0
322,-489,0,0,0,0,0,0,0,0,0,-1,1546,1513,0,0
329,-489,0,0,0,0,0,0,0,0,0,-1,1553,1513,0,0
336,-489,0,0,0,0,0,0,0,0,0,-1,1560,1513,0,0
343,-489,0,0,0,0,0,0,0,0,0,-1,1567,1513,0,0
350,-489,0,0,0,0,0,0,0,0,0,-1,1574,1513,0,0
357,-489,0,0,0,0,0,0,0,0,0,-1,1581,1513,0,0
364,-489,0,0,0,0,0,0,0,0,0,-1,1588,1513,0,0
371,-489,0,0,0,0,0,0,0,0,0,-1,1595,1513,0,0
378,-489,0,0,0,0,0,0,0,0,0,-1,1602,1513,0,0
385,-489,0,0,0,0,0,0,0,0,0,-1,1609,1513,0,0
392,-489,0,0,0,0,0,0,0,0,0,-1,1616,1513,0,0
399,-489,0,0,0,0,0,0,0,0,0,-1,1623,1513,0,0
406,-489,0,0,0,0,0,0,0,0,0,-1,1630,1513,0,0
413,-489,0,0,0,0,0,0,0,0,0,-1,1637,1513,0,0
420,-489,0,0,0,0,0,0,0,0,0,-1,1644,1513,0,0
427,-489,0,0,0,0,0,0,0,0,0,-1,1651,1513,0,0
434,-489,0,0,0,0,0,0,0,0,0,-1,1658,1513,0,0
441,-489,11.4602,2.56787,0,0,0,0,0,0,0,-1,1665,1513,11.4602,-2.56786
448,-489,12.4425,1.72351,0,0,0,0,0,0,0,-1,1672,1513,12.4425,-1.72349
455,-489,12.5575,1.37463,0,0,0,0,0,0,0,-1,1679,1513,12.5575,-1.37469
462,-489,14.9784,3.84888,0,0,0,0,0,0,0,-1,1686,1513,14.9784,-3.84892
469,-489,15.1367,4.53101,0,0,0,0,0,0,0,-1,1693,1513,15.1368,-4.531
476,-489,15.5536,5.09338,0,0,0,0,0,0,0,-1,1700,1513,15.5536,-5.09339
483,-489,8.96912,8.37805,0,0,0,0,0,0,0,-1,1707,1513,8.96909,-8.37809
490,-489,10.5366,7.49561,0,0,0,0,0,0,0,-1,1714,1513,10.5367,-7.49558
497,-489,16.2567,10.9977,0,0,0,0,0,0,0,-1,1721,1513,16.2567,-10.9976
504,-489,15.4523,11.2916,0,0,0,0,0,0,0,-1,1728,1513,15.4523,-11.2917
511,-489,14.6478,11.5857,0,0,0,0,0,0,0,-1,1735,1513,14.6478,-11.5857
518,-489,11.6432,10.1964,0,0,0,0,0,0,0,-1,1742,1513,11.6432,-10.1964
525,-489,11.7585,11.13,0,0,0,0,0,0,0,-1,1749,1513,11.7586,-11.13
532,-489,11.6278,11.0076,-0.0258928,-0.0308926,0.0195601,-0.00867346,-0.0481119,0.72184,0.0296099,0.0369732,1756,1513,11.6278,-11.0076
539,-489,11.4153,11.0027,-0.0187126,-0.0247128,0.0143829,-0.0070202,-0.0364051,0.682579,0.0223014,0.0183972,1763,1513,11.4153,-11.0027
546,-489,11.3151,10.8682,-0.0132753,-0.0191585,0.0104329,-0.00537722,-0.0270566,0.647988,0.0165393,0.0116705,1770,1513,11.315,-10.8682
553,-489,11.308,10.6523,-0.00905267,-0.0149094,0.00732282,-0.0040944,-0.0198677,0.59519,0.0121132,0.0134131,1777,1513,11.308,-10.6523
560,-489,11.3135,10.4103,-0.00550782,-0.0110718,0.00470147,-0.00282692,-0.0137527,0.518239,0.00838654,0.0123773,1784,1513,11.3135,-10.4103
567,-489,11.3121,10.1796,-0.00275604,-0.00792144,0.00288777,-0.00146452,-0.00921296,0.420554,0.00571668,0.0144727,1791,1513,11.3122,-10.1795
574,-489,11.2894,9.93494,-0.000827827,-0.00511521,0.00164202,-0.000271213,-0.00567183,0.326825,0.00369413,0.0148003,1798,1513,11.2894,-9.93495
581,-489,11.3085,9.67505,0.000496912,-0.00285693,0.000485971,0.000565909,-0.00292593,0.141036,0.00216406,0.0101283,1805,1513,11.3084,-9.67508
588,-489,11.3295,9.43933,0.00184216,-0.000919745,-0.000504223,0.00193133,-0.00100892,-0.175044,0.00172517,0.0128374,1812,1513,11.3295,-9.43933
595,-489,11.3149,9.18604,0.00300952,0.000392763,-0.00133139,0.00356781,-0.000165527,-0.397057,0.00243559,0.0182145,1819,1513,11.315,-9.18601
602,-489,11.3342,8.95093,0.00404505,0.00120598,-0.00200979,0.00508608,0.000164952,-0.477924,0.00333709,0.0222878,1826,1513,11.3342,-8.95099
609,-489,11.3236,8.69531,0.00498346,0.00172004,-0.00249611,0.00633387,0.000369624,-0.495912,0.00410493,0.016281,1833,1513,11.3236,-8.69532
616,-489,11.3037,8.44287,0.00585752,0.00184307,-0.00283729,0.00732581,0.000374782,-0.477546,0.00476386,0.0101658,1840,1513,11.3037,-8.44283
623,-489,11.3125,8.21619,0.0067736,0.00148124,-0.0032497,0.00831822,-6.33807e-05,-0.443703,0.00556673,0.0162727,1847,1513,11.3125,-8.2162
630,-489,11.2797,8.04187,0.00771936,0.00107278,-0.00344737,0.00918445,-0.000392314,-0.401861,0.00625784,0.0399233,1854,1513,11.2796,-8.04183
637,-489,11.1946,7.98694,0,0,0,0,0,0,0,-1,1861,1513,11.1946,-7.987
644,-489,9.67578,8.45874,0,0,0,0,0,0,0,-1,1868,1513,9.67576,-8.45879
651,-489,6.13818,6.85095,0,0,0,0,0,0,0,-1,1875,1513,6.13823,-6.85097
658,-489,5.43848,7.75513,0,0,0,0,0,0,0,-1,1882,1513,5.43844,-7.75509
665,-489,5.48438,8.59912,0,0,0,0,0,0,0,-1,1889,1513,5.48434,-8.59907
672,-489,0,0,0,0,0,0,0,0,0,-1,1896,1513,0,0
679,-489,0,0,0,0,0,0,0,0,0,-1,1903,1513,0,0
686,-489,0,0,0,0,0,0,0,0,0,-1,1910,1513,0,0
693,-489,0,0,0,0,0,0,0,0,0,-1,1917,1513,0,0
700,-489,0,0,0,0,0,0,0,0,0,-1,1924,1513,0,0
707,-489,0,0,0,0,0,0,0,0,0,-1,1931,1513,0,0
714,-489,0,0,0,0,0,0,0,0,0,-1,1938,1513,0,0
721,-489,0,0,0,0,0,0,0,0,0,-1,1945,1513,0,0
728,-489,0,0,0,0,0,0,0,0,0,-1,1952,1513,0,0
735,-489,0,0,0,0,0,0,0,0,0,-1,1959,1513,0,0
742,-489,0,0,0,0,0,0,0,0,0,-1,1966,1513,0,0
749,-489,0,0,0,0,0,0,0,0,0,-1,1973,1513,0,0
756,-489,0,0,0,0,0,0,0,0,0,-1,1980,1513,0,0
763,-489,0,0,0,0,0,0,0,0,0,-1,1987,1513,0,0
770,-489,0,0,0,0,0,0,0,0,0,-1,1994,1513,0,0
777,-489,0,0,0,0,0,0,0,0,0,-1,2001,1513,0,0
784,-489,0,0,0,0,0,0,0,0,0,-1,2008,1513,0,0
791,-489,0,0,0,0,0,0,0,0,0,-1,2015,1513,0,0
798,-489,0,0,0,0,0,0,0,0,0,-1,2022,1513,0,0
805,-489,0,0,0,0,0,0,0,0,0,-1,2029,1513,0,0
812,-489,0,0,0,0,0,0,0,0,0,-1,2036,1513,0,0
-700,-496,0,0,0,0,0,0,0,0,0,-1,524,1520,0,0
-693,-496,0,0,0,0,0,0,0,0,0,-1,531,1520,0,0
-686,-496,0,0,0,0,0,0,0,0,0,-1,538,1520,0,0
-679,-496,0,0,0,0,0,0,0,0,0,-1,545,1520,0,0
-672,-496,0,0,0,0,0,0,0,0,0,-1,552,1520,0,0
-665,-496,0,0,0,0,0,0,0,0,0,-1,559,1520,0,0
-658,-496,0,0,0,0,0,0,0,0,0,-1,566,1520,0,0
-651,-496,0,0,0,0,0,0,0,0,0,-1,573,1520,0,0
-644,-496,0,0,0,0,0,0,0,0,0,-1,580,1520,0,0
-637,-496,0,0,0,0,0,0,0,0,0,-1,587,1520,0,0
-630,-496,0,0,0,0,0,0,0,0,0,-1,594,1520,0,0
-623,-496,0,0,0,0,0,0,0,0,0,-1,601,1520,0,0
-616,-496,0,0,0,0,0,0,0,0,0,-1,608,1520,0,0
-609,-496,0,0,0,0,0,0,0,0,0,-1,615,1520,0,0
-602,-496,0,0,0,0,0,0,0,0,0,-1,622,1520,0,0
-595,-496,0,0,0,0,0,0,0,0,0,-1,629,1520,0,0
-588,-496,0,0,0,0,0,0,0,0,0,-1,636,1520,0,0
-581,-496,0,0,0,0,0,0,0,0,0,-1,643,1520,0,0
-574,-496,0,0,0,0,0,0,0,0,0,-1,650,1520,0,0
-567,-496,0,0,0,0,0,0,0,0,0,-1,657,1520,0,0
-560,-496,0,0,0,0,0,0,0,0,0,-1,664,1520,0,0
-553,-496,0,0,0,0,0,0,0,0,0,-1,671,1520,0,0
-546,-496,-8.09711,7.94836,0,0,0,0,0,0,0,-1,678,1520,-8.09712,-7.94842
-539,-496,-3.43286,1.45349,0,0,0,0,0,0,0,-1,685,1520,-3.43288,-1.45344
-532,-496,-3.34003,2.69983,0,0,0,0,0,0,0,-1,692,1520,-3.34,-2.69981
-525,-496,-3.31244,3.69531,0,0,0,0,0,0,0,-1,699,1520,-3.31242,-3.69534
-518,-496,-3.58716,4.63257,0,0,0,0,0,0,0,-1,706,1520,-3.58716,-4.63252
-511,-496,-3.92035,5.58411,0,0,0,0,0,0,0,-1,713,1520,-3.92034,-5.58407
-504,-496,-1.90027,6.20801,0,0,0,0,0,0,0,-1,720,1520,-1.90025,-6.20798
-497,-496,-1.54224,6.55762,0.0146555,0.00742487,0.0105413,0.0221842,-0.000103851,0.620201,0.0148242,0.0483917,727,1520,-1.54221,-6.55761
-490,-496,-1.52057,6.73181,0.0089063,0.00442466,0.0072005,0.0142066,-0.000875636,0.634547,0.00977602,0.0351354,734,1520,-1.52058,-6.73186
-483,-496,-1.62109,6.82422,0.00478093,0.00236949,0.00468215,0.00841011,-0.00125969,0.659379,0.00607036,0.0194359,741,1520,-1.62111,-6.82419
-476,-496,-1.68384,7.02551,0.00243975,0.00119462,0.00304398,0.00492418,-0.00128981,0.684528,0.00378667,0.0108932,748,1520,-1.68382,-7.02553
-469,-496,-1.68585,7.32629,0.00158844,0.000327794,0.00213431,0.00318356,-0.00126733,0.641815,0.00264792,0.0098953,755,1520,-1.68583,-7.32635
-462,-496,-1.66772,7.61768,0.00148424,-0.00044943,0.00161514,0.0023998,-0.001365,0.5157,0.00220081,0.0151067,762,1520,-1.66771,-7.61766
-455,-496,-1.67352,7.88513,0.00173331,-0.000803063,0.00102666,0.00209678,-0.00116654,0.340269,0.00190943,0.0197799,769,1520,-1.67349,-7.88513
-448,-496,-1.69995,8.16211,0.00219032,-0.000965646,0.000600513,0.00230072,-0.00107605,0.181817,0.00199186,0.0177851,776,1520,-1.69997,-8.16208
-441,-496,-1.69019,8.4436,0.00296491,-0.00115525,0.000286173,0.00298469,-0.00117504,0.0690151,0.00247622,0.0132159,783,1520,-1.69017,-8.44364
-434,-496,-1.67383,8.69312,0.00383167,-0.00181681,-8.9221e-05,0.00383307,-0.00181822,-0.0157903,0.00333118,0.0131315,790,1520,-1.67382,-8.69308
-427,-496,-1.70209,8.96948,0.00484006,-0.00262223,-0.000431096,0.00486488,-0.00264705,-0.0575149,0.00439958,0.0173384,797,1520,-1.70206,-8.96954
-420,-496,-1.69232,9.24316,0.00601838,-0.00360884,-0.000896,0.00610106,-0.00369152,-0.0920164,0.00571051,0.0184553,804,1520,-1.69231,-9.24315
-413,-496,-1.62805,9.5343,0.00713295,-0.00504941,-0.0013603,0.00728299,-0.00519946,-0.109859,0.00724013,0.0180079,811,1520,-1.62805,-9.53431
-406,-496,-1.54443,9.92114,0,0,0,0,0,0,0,-1,818,1520,-1.54445,-9.92113
-399,-496,-1.34314,10.2374,0,0,0,0,0,0,0,-1,825,1520,-1.34313,-10.2375
-392,-496,-1.14288,10.3888,0,0,0,0,0,0,0,-1,832,1520,-1.1429,-10.3888
-385,-496,-1.18225,10.3312,0,0,0,0,0,0,0,-1,839,1520,-1.18224,-10.3312
-378,-496,-1.14032,10.27,0,0,0,0,0,0,0,-1,846,1520,-1.14035,-10.2701
-371,-496,0.127808,10.5314,0,0,0,0,0,0,0,-1,853,1520,0.127825,-10.5314
-364,-496,0.0881348,10.6422,0,0,0,0,0,0,0,-1,860,1520,0.0881368,-10.6423
-357,-496,0.323792,7.56812,0,0,0,0,0,0,0,-1,867,1520,0.323782,-7.56806
-350,-496,2.1535,7.18945,0,0,0,0,0,0,0,-1,874,1520,2.15348,-7.1894
-343,-496,-7.56244,0.335327,0,0,0,0,0,0,0,-1,881,1520,-7.56242,-0.335322
-336,-496,-3.99249,6.02222,0,0,0,0,0,0,0,-1,888,1520,-3.99246,-6.0222
-329,-496,-6.93689,-0.100342,0,0,0,0,0,0,0,-1,895,1520,-6.93686,0.1003
-322,-496,-6.17505,0.494385,0,0,0,0,0,0,0,-1,902,1520,-6.17507,-0.49437
-315,-496,-5.46338,1.0459,0,0,0,0,0,0,0,-1,909,1520,-5.46338,-1.04587
-308,-496,0,0,0,0,0,0,0,0,0,-1,916,1520,0,0
-301,-496,0,0,0,0,0,0,0,0,0,-1,923,1520,0,0
-294,-496,0,0,0,0,0,0,0,0,0,-1,930,1520,0,0
-287,-496,0,0,0,0,0,0,0,0,0,-1,937,1520,0,0
-280,-496,0,0,0,0,0,0,0,0,0,-1,944,1520,0,0
-273,-496,0,0,0,0,0,0,0,0,0,-1,951,1520,0,0
-266,-496,0,0,0,0,0,0,0,0,0,-1,958,1520,0,0
-259,-496,0,0,0,0,0,0,0,0,0,-1,965,1520,0,0
-252,-496,0,0,0,0,0,0,0,0,0,-1,972,1520,0,0
-245,-496,0,0,0,0,0,0,0,0,0,-1,979,1520,0,0
-238,-496,0,0,0,0,0,0,0,0,0,-1,986,1520,0,0
-231,-496,0,0,0,0,0,0,0,0,0,-1,993,1520,0,0
-224,-496,0,0,0,0,0,0,0,0,0,-1,1000,1520,0,0
-217,-496,0,0,0,0,0,0,0,0,0,-1,1007,1520,0,0
-210,-496,0,0,0,0,0,0,0,0,0,-1,1014,1520,0,0
-203,-496,0,0,0,0,0,0,0,0,0,-1,1021,1520,0,0
-196,-496,0,0,0,0,0,0,0,0,0,-1,1028,1520,0,0
-189,-496,0,0,0,0,0,0,0,0,0,-1,1035,1520,0,0
-182,-496,0,0,0,0,0,0,0,0,0,-1,1042,1520,0,0
-175,-496,0,0,0,0,0,0,0,0,0,-1,1049,1520,0,0
-168,-496,0,0,0,0,0,0,0,0,0,-1,1056,1520,0,0
-161,-496,0,0,0,0,0,0,0,0,0,-1,1063,1520,0,0
-154,-496,0,0,0,0,0,0,0,0,0,-1,1070,1520,0,0
-147,-496,0,0,0,0,0,0,0,0,0,-1,1077,1520,0,0
-140,-496,0,0,0,0,0,0,0,0,0,-1,1084,1520,0,0
-133,-496,0,0,0,0,0,0,0,0,0,-1,1091,1520,0,0
-126,-496,0,0,0,0,0,0,0,0,0,-1,1098,1520,0,0
-119,-496,0,0,0,0,0,0,0,0,0,-1,1105,1520,0,0
-112,-496,0,0,0,0,0,0,0,0,0,-1,1112,1520,0,0
-105,-496,0,0,0,0,0,0,0,0,0,-1,1119,1520,0,0
-98,-496,0,0,0,0,0,0,0,0,0,-1,1126,1520,0,0
-91,-496,0,0,0,0,0,0,0,0,0,-1,1133,1520,0,0
-84,-496,0,0,0,0,0,0,0,0,0,-1,1140,1520,0,0
-77,-496,0,0,0,0,0,0,0,0,0,-1,1147,1520,0,0
-70,-496,0,0,0,0,0,0,0,0,0,-1,1154,1520,0,0
-63,-496,0,0,0,0,0,0,0,0,0,-1,1161,1520,0,0
-56,-496,0,0,0,0,0,0,0,0,0,-1,1168,1520,0,0
-49,-496,0,0,0,0,0,0,0,0,0,-1,1175,1520,0,0
-42,-496,0,0,0,0,0,0,0,0,0,-1,1182,1520,0,0
-35,-496,0,0,0,0,0,0,0,0,0,-1,1189,1520,0,0
-28,-496,0,0,0,0,0,0,0,0,0,-1,1196,1520,0,0
-21,-496,0,0,0,0,0,0,0,0,0,-1,1203,1520,0,0
-14,-496,0,0,0,0,0,0,0,0,0,-1,1210,1520,0,0
-7,-496,0,0,0,0,0,0,0,0,0,-1,1217,1520,0,0
0,-496,0,0,0,0,0,0,0,0,0,-1,1224,1520,0,0
7,-496,0,0,0,0,0,0,0,0,0,-1,1231,1520,0,0
14,-496,0,0,0,0,0,0,0,0,0,-1,1238,1520,0,0
21,-496,0,0,0,0,0,0,0,0,0,-1,1245,1520,0,0
28,-496,0,0,0,0,0,0,0,0,0,-1,1252,1520,0,0
35,-496,0,0,0,0,0,0,0,0,0,-1,1259,1520,0,0
42,-496,0,0,0,0,0,0,0,0,0,-1,1266,1520,0,0
49,-496,0,0,0,0,0,0,0,0,0,-1,1273,1520,0,0
56,-496,0,0,0,0,0,0,0,0,0,-1,1280,1520,0,0
63,-496,0,0,0,0,0,0,0,0,0,-1,1287,1520,0,0
70,-496,0,0,0,0,0,0,0,0,0,-1,1294,1520,0,0
77,-496,0,0,0,0,0,0,0,0,0,-1,1301,1520,0,0
84,-496,0,0,0,0,0,0,0,0,0,-1,1308,1520,0,0
91,-496,0,0,0,0,0,0,0,0,0,-1,1315,1520,0,0
98,-496,0,0,0,0,0,0,0,0,0,-1,1322,1520,0,0
105,-496,0,0,0,0,0,0,0,0,0,-1,1329,1520,0,0
112,-496,0,0,0,0,0,0,0,0,0,-1,1336,1520,0,0
119,-496,0,0,0,0,0,0,0,0,0,-1,1343,1520,0,0
126,-496,0,0,0,0,0,0,0,0,0,-1,1350,1520,0,0
133,-496,0,0,0,0,0,0,0,0,0,-1,1357,1520,0,0
140,-496,0,0,0,0,0,0,0,0,0,-1,1364,1520,0,0
147,-496,0,0,0,0,0,0,0,0,0,-1,1371,1520,0,0
154,-496,0,0,0,0,0,0,0,0,0,-1,1378,1520,0,0
161,-496,0,0,0,0,0,0,0,0,0,-1,1385,1520,0,0
168,-496,0,0,0,0,0,0,0,0,0,-1,1392,1520,0,0
175,-496,0,0,0,0,0,0,0,0,0,-1,1399,1520,0,0
182,-496,0,0,0,0,0,0,0,0,0,-1,1406,1520,0,0
189,-496,0,0,0,0,0,0,0,0,0,-1,1413,1520,0,0
196,-496,0,0,0,0,0,0,0,0,0,-1,1420,1520,0,0
203,-496,0,0,0,0,0,0,0,0,0,-1,1427,1520,0,0
210,-496,0,0,0,0,0,0,0,0,0,-1,1434,1520,0,0
217,-496,0,0,0,0,0,0,0,0,0,-1,1441,1520,0,0
224,-496,0,0,0,0,0,0,0,0,0,-1,1448,1520,0,0
231,-496,0,0,0,0,0,0,0,0,0,-1,1455,1520,0,0
238,-496,0,0,0,0,0,0,0,0,0,-1,1462,1520,0,0
245,-496,0,0,0,0,0,0,0,0,0,-1,1469,1520,0,0
252,-496,0,0,0,0,0,0,0,0,0,-1,1476,1520,0,0
259,-496,0,0,0,0,0,0,0,0,0,-1,1483,1520,0,0
266,-496,0,0,0,0,0,0,0,0,0,-1,1490,1520,0,0
273,-496,0,0,0,0,0,0,0,0,0,-1,1497,1520,0,0
280,-496,0,0,0,0,0,0,0,0,0,-1,1504,1520,0,0
287,-496,0,0,0,0,0,0,0,0,0,-1,1511,1520,0,0
294,-496,0,0,0,0,0,0,0,0,0,-1,1518,1520,0,0
301,-496,0,0,0,0,0,0,0,0,0,-1,1525,1520,0,0
308,-496,0,0,0,0,0,0,0,0,0,-1,1532,1520,0,0
315,-496,0,0,0,0,0,0,0,0,0,-1,1539,1520,0,0
322,-496,0,0,0,0,0,0,0,0,0,-1,1546,1520,0,0
329,-496,0,0,0,0,0,0,0,0,0,-1,1553,1520,0,0
336,-496,0,0,0,0,0,0,0,0,0,-1,1560,1520,0,0
343,-496,0,0,0,0,0,0,0,0,0,-1,1567,1520,0,0
350,-496,0,0,0,0,0,0,0,0,0,-1,1574,1520,0,0
357,-496,0,0,0,0,0,0,0,0,0,-1,1581,1520,0,0
364,-496,0,0,0,0,0,0,0,0,0,-1,1588,1520,0,0
371,-496,0,0,0,0,0,0,0,0,0,-1,1595,1520,0,0
378,-496,0,0,0,0,0,0,0,0,0,-1,1602,1520,0,0
385,-496,0,0,0,0,0,0,0,0,0,-1,1609,1520,0,0
392,-496,0,0,0,0,0,0,0,0,0,-1,1616,1520,0,0
399,-496,0,0,0,0,0,0,0,0,0,-1,1623,1520,0,0
406,-496,0,0,0,0,0,0,0,0,0,-1,1630,1520,0,0
413,-496,0,0,0,0,0,0,0,0,0,-1,1637,1520,0,0
420,-496,0,0,0,0,0,0,0,0,0,-1,1644,1520,0,0
427,-496,0,0,0,0,0,0,0,0,0,-1,1651,1520,0,0
434,-496,11.0457,3.37732,0,0,0,0,0,0,0,-1,1658,1520,11.0456,-3.37736
441,-496,11.788,2.75488,0,0,0,0,0,0,0,-1,1665,1520,11.7879,-2.75485
448,-496,12.2146,2.18494,0,0,0,0,0,0,0,-1,1672,1520,12.2146,-2.18489
455,-496,12.3489,1.65173,0,0,0,0,0,0,0,-1,1679,1520,12.3489,-1.65178
462,-496,12.1912,1.32361,0,0,0,0,0,0,0,-1,1686,1520,12.1911,-1.32357
469,-496,14.8138,5.77954,0,0,0,0,0,0,0,-1,1693,1520,14.8138,-5.77958
476,-496,15.2449,6.27942,0,0,0,0,0,0,0,-1,1700,1520,15.2449,-6.27936
483,-496,9.19812,6.88367,0,0,0,0,0,0,0,-1,1707,1520,9.19812,-6.88361
490,-496,10.2123,7.97144,0,0,0,0,0,0,0,-1,1714,1520,10.2122,-7.97145
497,-496,15.12,11.0343,0,0,0,0,0,0,0,-1,1721,1520,15.12,-11.0343
504,-496,14.4744,11.3417,0,0,0,0,0,0,0,-1,1728,1520,14.4743,-11.3416
511,-496,13.6425,11.8126,0,0,0,0,0,0,0,-1,1735,1520,13.6424,-11.8126
518,-496,11.171,10.7198,0,0,0,0,0,0,0,-1,1742,1520,11.1711,-10.7198
525,-496,11.2012,10.974,-0.0308596,-0.0296237,0.0239174,-0.00631622,-0.054167,0.798313,0.0342009,0.048664,1749,1520,11.2012,-10.974
532,-496,11.1581,11.2638,-0.0224493,-0.023775,0.0174516,-0.00564797,-0.0405763,0.766416,0.0253786,0.0258227,1756,1520,11.1581,-11.2638
539,-496,11.0911,11.0924,-0.0160854,-0.0188938,0.0127005,-0.00471172,-0.0302676,0.73034,0.0188056,0.0121746,1763,1520,11.0911,-11.0924
546,-496,11.0404,10.8751,-0.0111529,-0.0143937,0.00898179,-0.00364651,-0.0219001,0.696153,0.0135491,0.00962375,1770,1520,11.0404,-10.8751
553,-496,11.0757,10.6508,-0.00721713,-0.0109949,0.00599161,-0.0028237,-0.0153883,0.632704,0.00945917,0.0150677,1777,1520,11.0757,-10.6507
560,-496,11.0861,10.4186,-0.00383889,-0.00783035,0.0034545,-0.00184507,-0.00982418,0.523461,0.00602928,0.0139882,1784,1520,11.086,-10.4186
567,-496,11.0795,10.1669,-0.00118331,-0.00524674,0.00170055,-0.000565546,-0.0058645,0.34845,0.00373545,0.0112368,1791,1520,11.0795,-10.1669
574,-496,11.0763,9.91504,0.000729357,-0.00288157,0.000473914,0.00079052,-0.00294273,0.128349,0.00227165,0.0125311,1798,1520,11.0763,-9.91503
581,-496,11.0657,9.67883,0.00208485,-0.000966899,-0.000686204,0.00223205,-0.0011141,-0.211307,0.00196751,0.0133675,1805,1520,11.0656,-9.67887
588,-496,11.0654,9.44067,0.00349415,0.000640362,-0.00173186,0.00431122,-0.00017671,-0.440824,0.00293482,0.0158327,1812,1520,11.0654,-9.4407
595,-496,11.0621,9.20349,0.00478598,0.00172717,-0.00263601,0.00630414,0.000209011,-0.522533,0.00413485,0.0164259,1819,1520,11.0621,-9.20348
602,-496,11.0741,8.95789,0.0060025,0.00241078,-0.0034012,0.00805284,0.00036044,-0.542497,0.00525254,0.016413,1826,1520,11.074,-8.95792
609,-496,11.0797,8.7146,0.00710419,0.00284561,-0.00396755,0.00947771,0.000472085,-0.53912,0.00616714,0.0141438,1833,1520,11.0798,-8.71455
616,-496,11.0886,8.43567,0.00818613,0.00298161,-0.00440597,0.0107009,0.000466801,-0.518651,0.00698356,0.0131793,1840,1520,11.0886,-8.43563
623,-496,11.1095,8.23059,0.00942994,0.0027013,-0.00481576,0.0119402,0.000191079,-0.480503,0.00789719,0.0293005,1847,1520,11.1095,-8.23054
630,-496,11.0762,8.03833,0.0106204,0.00226093,-0.00493311,0.0129064,-2.50712e-05,-0.433941,0.00861264,0.049519,1854,1520,11.0762,-8.03827
637,-496,10.9745,7.89685,0,0,0,0,0,0,0,-1,1861,1520,10.9745,-7.89679
644,-496,11.175,6.72961,0,0,0,0,0,0,0,-1,1868,1520,11.175,-6.72963
651,-496,8.18506,5.47803,0,0,0,0,0,0,0,-1,1875,1520,8.18505,-5.47806
658,-496,7.79993,4.02563,0,0,0,0,0,0,0,-1,1882,1520,7.79997,-4.02568
665,-496,5.47583,7.90625,0,0,0,0,0,0,0,-1,1889,1520,5.47581,-7.90628
672,-496,0,0,0,0,0,0,0,0,0,-1,1896,1520,0,0
679,-496,0,0,0,0,0,0,0,0,0,-1,1903,1520,0,0
686,-496,0,0,0,0,0,0,0,0,0,-1,1910,1520,0,0
693,-496,0,0,0,0,0,0,0,0,0,-1,1917,1520,0,0
700,-496,0,0,0,0,0,0,0,0,0,-1,1924,1520,0,0
707,-496,0,0,0,0,0,0,0,0,0,-1,1931,1520,0,0
714,-496,0,0,0,0,0,0,0,0,0,-1,1938,1520,0,0
721,-496,0,0,0,0,0,0,0,0,0,-1,1945,1520,0,0
728,-496,0,0,0,0,0,0,0,0,0,-1,1952,1520,0,0
735,-496,0,0,0,0,0,0,0,0,0,-1,1959,1520,0,0
742,-496,0,0,0,0,0,0,0,0,0,-1,1966,1520,0,0
749,-496,0,0,0,0,0,0,0,0,0,-1,1973,1520,0,0
756,-496,0,0,0,0,0,0,0,0,0,-1,1980,1520,0,0
763,-496,0,0,0,0,0,0,0,0,0,-1,1987,1520,0,0
770,-496,0,0,0,0,0,0,0,0,0,-1,1994,1520,0,0
777,-496,0,0,0,0,0,0,0,0,0,-1,2001,1520,0,0
784,-496,0,0,0,0,0,0,0,0,0,-1,2008,1520,0,0
791,-496,0,0,0,0,0,0,0,0,0,-1,2015,1520,0,0
798,-496,0,0,0,0,0,0,0,0,0,-1,2022,1520,0,0
805,-496,0,0,0,0,0,0,0,0,0,-1,2029,1520,0,0
812,-496,0,0,0,0,0,0,0,0,0,-1,2036,1520,0,0
-700,-503,0,0,0,0,0,0,0,0,0,-1,524,1527,0,0
-693,-503,0,0,0,0,0,0,0,0,0,-1,531,1527,0,0
-686,-503,0,0,0,0,0,0,0,0,0,-1,538,1527,0,0
-679,-503,0,0,0,0,0,0,0,0,0,-1,545,1527,0,0
-672,-503,0,0,0,0,0,0,0,0,0,-1,552,1527,0,0
-665,-503,0,0,0,0,0,0,0,0,0,-1,559,1527,0,0
-658,-503,0,0,0,0,0,0,0,0,0,-1,566,1527,0,0
-651,-503,0,0,0,0,0,0,0,0,0,-1,573,1527,0,0
-644,-503,0,0,0,0,0,0,0,0,0,-1,580,1527,0,0
-637,-503,0,0,0,0,0,0,0,0,0,-1,587,1527,0,0
-630,-503,0,0,0,0,0,0,0,0,0,-1,594,1527,0,0
-623,-503,0,0,0,0,0,0,0,0,0,-1,601,1527,0,0
-616,-503,0,0,0,0,0,0,0,0,0,-1,608,1527,0,0
-609,-503,0,0,0,0,0,0,0,0,0,-1,615,1527,0,0
-602,-503,0,0,0,0,0,0,0,0,0,-1,622,1527,0,0
-595,-503,0,0,0,0,0,0,0,0,0,-1,629,1527,0,0
-588,-503,0,0,0,0,0,0,0,0,0,-1,636,1527,0,0
-581,-503,0,0,0,0,0,0,0,0,0,-1,643,1527,0,0
-574,-503,0,0,0,0,0,0,0,0,0,-1,650,1527,0,0
-567,-503,0,0,0,0,0,0,0,0,0,-1,657,1527,0,0
-560,-503,0,0,0,0,0,0,0,0,0,-1,664,1527,0,0
-553,-503,0,0,0,0,0,0,0,0,0,-1,671,1527,0,0
-546,-503,0,0,0,0,0,0,0,0,0,-1,678,1527,0,0
-539,-503,3.50177,4.26428,0,0,0,0,0,0,0,-1,685,1527,3.50177,-4.26424
-532,-503,-3.62512,2.224,0,0,0,0,0,0,0,-1,692,1527,-3.62512,-2.22401
-525,-503,-3.59149,3.31226,0,0,0,0,0,0,0,-1,699,1527,-3.59147,-3.31226
-518,-503,-3.64612,4.39063,0,0,0,0,0,0,0,-1,706,1527,-3.6461,-4.39059
-511,-503,-1.33124,3.46472,0,0,0,0,0,0,0,-1,713,1527,-1.33124,-3.46471
-504,-503,-0.826477,3.94739,0,0,0,0,0,0,0,-1,720,1527,-0.826506,-3.94736
-497,-503,-1.25598,6.74402,0,0,0,0,0,0,0,-1,727,1527,-1.25595,-6.74402
-490,-503,-1.1308,6.91833,0.00891269,0.00498897,0.00927637,0.0164324,-0.00253073,0.681189,0.0118886,0.0475422,734,1527,-1.13079,-6.91838
-483,-503,-1.24048,6.91626,0.0049172,0.00303723,0.00655497,0.0105992,-0.00264481,0.714183,0.00809312,0.039032,741,1527,-1.24046,-6.91632
-476,-503,-1.35358,7.09106,0.00268507,0.00201803,0.00475678,0.00712001,-0.00241691,0.750398,0.00572497,0.0191914,748,1527,-1.35356,-7.09108
-469,-503,-1.41229,7.34521,0.00180941,0.0013007,0.00366541,0.00522928,-0.00211916,0.750757,0.00436745,0.00971383,755,1527,-1.41231,-7.34521
-462,-503,-1.40289,7.64856,0.00157349,0.000603609,0.0029406,0.00406887,-0.00189177,0.703678,0.00351706,0.0116938,762,1527,-1.40288,-7.64858
-455,-503,-1.40826,7.90955,0.00169999,0.000286436,0.00218319,0.00328796,-0.00130153,0.628854,0.00273122,0.0169769,769,1527,-1.40827,-7.90954
-448,-503,-1.41504,8.16638,0.00198942,0.000124654,0.0016041,0.00291243,-0.000798359,0.52214,0.00225534,0.0154295,776,1527,-1.41504,-8.16643
-441,-503,-1.41498,8.44421,0.00256783,-5.75798e-05,0.0011709,0.00301416,-0.000503908,0.364182,0.00219676,0.0119531,783,1527,-1.41498,-8.44424
-434,-503,-1.41724,8.69666,0.00322767,-0.00070075,0.000713666,0.0033533,-0.000826383,0.174253,0.00255592,0.0105031,790,1527,-1.41727,-8.69667
-427,-503,-1.42517,8.95325,0.00403255,-0.00148631,0.000285036,0.00404723,-0.001501,0.051465,0.00331381,0.0170353,797,1527,-1.42516,-8.95329
-420,-503,-1.38751,9.19556,0.00496974,-0.00242605,-0.000242353,0.00497767,-0.00243399,-0.0327222,0.00436232,0.0179671,804,1527,-1.38753,-9.19551
-413,-503,-1.37225,9.48706,0.00578767,-0.00377222,-0.000729349,0.00584299,-0.00382754,-0.0757087,0.00562356,0.0146899,811,1527,-1.37226,-9.48712
-406,-503,-1.37848,9.75378,0.00654137,-0.00541187,-0.00138156,0.00669897,-0.00556947,-0.113585,0.00709319,0.015762,818,1527,-1.37848,-9.75373
-399,-503,-1.30035,10.075,0.00734427,-0.00723694,-0.0021179,0.00764566,-0.00753833,-0.141358,0.00876656,0.0226188,825,1527,-1.30034,-10.0749
-392,-503,-1.11749,10.3577,0.0081407,-0.00940823,-0.00321336,0.00871058,-0.00997811,-0.175524,0.0107982,0.0416751,832,1527,-1.11751,-10.3576
-385,-503,-1.17535,10.1039,0.0089362,-0.0122825,-0.00469634,0.00992917,-0.0132755,-0.208366,0.0134436,0.0446887,839,1527,-1.17534,-10.1039
-378,-503,-1.10529,10.3458,0.00961893,-0.0156514,-0.0067228,0.0112961,-0.0173285,-0.244487,0.0166483,0.0479346,846,1527,-1.10527,-10.3458
-371,-503,-1.14996,10.5713,0,0,0,0,0,0,0,-1,853,1527,-1.14999,-10.5713
-364,-503,0.262573,10.6705,0,0,0,0,0,0,0,-1,860,1527,0.262602,-10.6706
-357,-503,0.558533,9.25452,0,0,0,0,0,0,0,-1,867,1527,0.558542,-9.25446
-350,-503,0.219971,6.84827,0,0,0,0,0,0,0,-1,874,1527,0.21996,-6.84831
-343,-503,-3.5802,4.43274,0,0,0,0,0,0,0,-1,881,1527,-3.58018,-4.43276
-336,-503,-3.2384,6.40637,0,0,0,0,0,0,0,-1,888,1527,-3.2384,-6.40643
-329,-503,-1.70691,11.886,0,0,0,0,0,0,0,-1,895,1527,-1.70689,-11.886
-322,-503,-3.31317,8.81519,0,0,0,0,0,0,0,-1,902,1527,-3.31315,-8.81524
-315,-503,-3.90265,7.73853,0,0,0,0,0,0,0,-1,909,1527,-3.90264,-7.73854
-308,-503,-4.07867,7.25977,0,0,0,0,0,0,0,-1,916,1527,-4.07868,-7.25973
-301,-503,0,0,0,0,0,0,0,0,0,-1,923,1527,0,0
-294,-503,0,0,0,0,0,0,0,0,0,-1,930,1527,0,0
-287,-503,0,0,0,0,0,0,0,0,0,-1,937,1527,0,0
-280,-503,0,0,0,0,0,0,0,0,0,-1,944,1527,0,0
-273,-503,0,0,0,0,0,0,0,0,0,-1,951,1527,0,0
-266,-503,0,0,0,0,0,0,0,0,0,-1,958,1527,0,0
-259,-503,0,0,0,0,0,0,0,0,0,-1,965,1527,0,0
-252,-503,0,0,0,0,0,0,0,0,0,-1,972,1527,0,0
-245,-503,0,0,0,0,0,0,0,0,0,-1,979,1527,0,0
-238,-503,0,0,0,0,0,0,0,0,0,-1,986,1527,0,0
-231,-503,0,0,0,0,0,0,0,0,0,-1,993,1527,0,0
-224,-503,0,0,0,0,0,0,0,0,0,-1,1000,1527,0,0
-217,-503,0,0,0,0,0,0,0,0,0,-1,1007,1527,0,0
-210,-503,0,0,0,0,0,0,0,0,0,-1,1014,1527,0,0
-203,-503,0,0,0,0,0,0,0,0,0,-1,1021,1527,0,0
-196,-503,0,0,0,0,0,0,0,0,0,-1,1028,1527,0,0
-189,-503,0,0,0,0,0,0,0,0,0,-1,1035,1527,0,0
-182,-503,0,0,0,0,0,0,0,0,0,-1,1042,1527,0,0
-175,-503,0,0,0,0,0,0,0,0,0,-1,1049,1527,0,0
-168,-503,0,0,0,0,0,0,0,0,0,-1,1056,1527,0,0
-161,-503,0,0,0,0,0,0,0,0,0,-1,1063,1527,0,0
-154,-503,0,0,0,0,0,0,0,0,0,-1,1070,1527,0,0
-147,-503,0,0,0,0,0,0,0,0,0,-1,1077,1527,0,0
-140,-503,0,0,0,0,0,0,0,0,0,-1,1084,1527,0,0
-133,-503,0,0,0,0,0,0,0,0,0,-1,1091,1527,0,0
-126,-503,0,0,0,0,0,0,0,0,0,-1,1098,1527,0,0
-119,-503,0,0,0,0,0,0,0,0,0,-1,1105,1527,0,0
-112,-503,0,0,0,0,0,0,0,0,0,-1,1112,1527,0,0
-105,-503,0,0,0,0,0,0,0,0,0,-1,1119,1527,0,0
-98,-503,0,0,0,0,0,0,0,0,0,-1,1126,1527,0,0
-91,-503,0,0,0,0,0,0,0,0,0,-1,1133,1527,0,0
-84,-503,0,0,0,0,0,0,0,0,0,-1,1140,1527,0,0
-77,-503,0,0,0,0,0,0,0,0,0,-1,1147,1527,0,0
-70,-503,0,0,0,0,0,0,0,0,0,-1,1154,1527,0,0
-63,-503,0,0,0,0,0,0,0,0,0,-1,1161,1527,0,0
-56,-503,0,0,0,0,0,0,0,0,0,-1,1168,1527,0,0
-49,-503,0,0,0,0,0,0,0,0,0,-1,1175,1527,0,0
-42,-503,0,0,0,0,0,0,0,0,0,-1,1182,1527,0,0
-35,-503,0,0,0,0,0,0,0,0,0,-1,1189,1527,0,0
-28,-503,0,0,0,0,0,0,0,0,0,-1,1196,1527,0,0
-21,-503,0,0,0,0,0,0,0,0,0,-1,1203,1527,0,0
-14,-503,0,0,0,0,0,0,0,0,0,-1,1210,1527,0,0
-7,-503,0,0,0,0,0,0,0,0,0,-1,1217,1527,0,0
0,-503,0,0,0,0,0,0,0,0,0,-1,1224,1527,0,0
7,-503,0,0,0,0,0,0,0,0,0,-1,1231,1527,0,0
14,-503,0,0,0,0,0,0,0,0,0,-1,1238,1527,0,0
21,-503,0,0,0,0,0,0,0,0,0,-1,1245,1527,0,0
28,-503,0,0,0,0,0,0,0,0,0,-1,1252,1527,0,0
35,-503,0,0,0,0,0,0,0,0,0,-1,1259,1527,0,0
42,-503,0,0,0,0,0,0,0,0,0,-1,1266,1527,0,0
49,-503,0,0,0,0,0,0,0,0,0,-1,1273,1527,0,0
56,-503,0,0,0,0,0,0,0,0,0,-1,1280,1527,0,0
63,-503,0,0,0,0,0,0,0,0,0,-1,1287,1527,0,0
70,-503,0,0,0,0,0,0,0,0,0,-1,1294,1527,0,0
77,-503,0,0,0,0,0,0,0,0,0,-1,1301,1527,0,0
84,-503,0,0,0,0,0,0,0,0,0,-1,1308,1527,0,0
91,-503,0,0,0,0,0,0,0,0,0,-1,1315,1527,0,0
98,-503,0,0,0,0,0,0,0,0,0,-1,1322,1527,0,0
105,-503,0,0,0,0,0,0,0,0,0,-1,1329,1527,0,0
112,-503,0,0,0,0,0,0,0,0,0,-1,1336,1527,0,0
119,-503,0,0,0,0,0,0,0,0,0,-1,1343,1527,0,0
126,-503,0,0,0,0,0,0,0,0,0,-1,1350,1527,0,0
133,-503,0,0,0,0,0,0,0,0,0,-1,1357,1527,0,0
140,-503,0,0,0,0,0,0,0,0,0,-1,1364,1527,0,0
147,-503,0,0,0,0,0,0,0,0,0,-1,1371,1527,0,0
154,-503,0,0,0,0,0,0,0,0,0,-1,1378,1527,0,0
161,-503,0,0,0,0,0,0,0,0,0,-1,1385,1527,0,0
168,-503,0,0,0,0,0,0,0,0,0,-1,1392,1527,0,0
175,-503,0,0,0,0,0,0,0,0,0,-1,1399,1527,0,0
182,-503,0,0,0,0,0,0,0,0,0,-1,1406,1527,0,0
189,-503,0,0,0,0,0,0,0,0,0,-1,1413,1527,0,0
196,-503,0,0,0,0,0,0,0,0,0,-1,1420,1527,0,0
203,-503,0,0,0,0,0,0,0,0,0,-1,1427,1527,0,0
210,-503,0,0,0,0,0,0,0,0,0,-1,1434,1527,0,0
217,-503,0,0,0,0,0,0,0,0,0,-1,1441,1527,0,0
224,-503,0,0,0,0,0,0,0,0,0,-1,1448,1527,0,0
231,-503,0,0,0,0,0,0,0,0,0,-1,1455,1527,0,0
238,-503,0,0,0,0,0,0,0,0,0,-1,1462,1527,0,0
245,-503,0,0,0,0,0,0,0,0,0,-1,1469,1527,0,0
252,-503,0,0,0,0,0,0,0,0,0,-1,1476,1527,0,0
259,-503,0,0,0,0,0,0,0,0,0,-1,1483,1527,0,0
266,-503,0,0,0,0,0,0,0,0,0,-1,1490,1527,0,0
273,-503,0,0,0,0,0,0,0,0,0,-1,1497,1527,0,0
280,-503,0,0,0,0,0,0,0,0,0,-1,1504,1527,0,0
287,-503,0,0,0,0,0,0,0,0,0,-1,1511,1527,0,0
294,-503,0,0,0,0,0,0,0,0,0,-1,1518,1527,0,0
301,-503,0,0,0,0,0,0,0,0,0,-1,1525,1527,0,0
308,-503,0,0,0,0,0,0,0,0,0,-1,1532,1527,0,0
315,-503,0,0,0,0,0,0,0,0,0,-1,1539,1527,0,0
322,-503,0,0,0,0,0,0,0,0,0,-1,1546,1527,0,0
329,-503,0,0,0,0,0,0,0,0,0,-1,1553,1527,0,0
336,-503,0,0,0,0,0,0,0,0,0,-1,1560,1527,0,0
343,-503,0,0,0,0,0,0,0,0,0,-1,1567,1527,0,0
350,-503,0,0,0,0,0,0,0,0,0,-1,1574,1527,0,0
357,-503,0,0,0,0,0,0,0,0,0,-1,1581,1527,0,0
364,-503,0,0,0,0,0,0,0,0,0,-1,1588,1527,0,0
371,-503,0,0,0,0,0,0,0,0,0,-1,1595,1527,0,0
378,-503,0,0,0,0,0,0,0,0,0,-1,1602,1527,0,0
385,-503,0,0,0,0,0,0,0,0,0,-1,1609,1527,0,0
392,-503,0,0,0,0,0,0,0,0,0,-1,1616,1527,0,0
399,-503,0,0,0,0,0,0,0,0,0,-1,1623,1527,0,0
406,-503,0,0,0,0,0,0,0,0,0,-1,1630,1527,0,0
413,-503,0,0,0,0,0,0,0,0,0,-1,1637,1527,0,0
420,-503,0,0,0,0,0,0,0,0,0,-1,1644,1527,0,0
427,-503,10.5968,4.9856,0,0,0,0,0,0,0,-1,1651,1527,10.5969,-4.98563
434,-503,11.4329,3.97217,0,0,0,0,0,0,0,-1,1658,1527,11.4328,-3.97222
441,-503,12.0957,2.96509,0,0,0,0,0,0,0,-1,1665,1527,12.0957,-2.96512
448,-503,12.3259,2.53894,0,0,0,0,0,0,0,-1,1672,1527,12.326,-2.53895
455,-503,12.1669,2.18762,0,0,0,0,0,0,0,-1,1679,1527,12.1668,-2.18767
462,-503,11.59,2.60791,0,0,0,0,0,0,0,-1,1686,1527,11.5899,-2.60794
469,-503,11.1625,1.61853,0,0,0,0,0,0,0,-1,1693,1527,11.1625,-1.61856
476,-503,9.07703,5.81042,0,0,0,0,0,0,0,-1,1700,1527,9.07699,-5.81047
483,-503,9.74414,6.92432,0,0,0,0,0,0,0,-1,1707,1527,9.74417,-6.9243
490,-503,10.5033,10.1071,0,0,0,0,0,0,0,-1,1714,1527,10.5032,-10.107
497,-503,13.8279,11.4531,0,0,0,0,0,0,0,-1,1721,1527,13.8279,-11.4532
504,-503,13.277,11.4779,-0.0597647,-0.0420611,0.0495984,-0.000530854,-0.101295,0.873703,0.0673537,0.0430314,1728,1527,13.277,-11.478
511,-503,12.6123,11.6599,-0.0467483,-0.0348892,0.0380485,-0.00231101,-0.0793265,0.862697,0.0521311,0.0414101,1735,1527,12.6123,-11.6599
518,-503,11.1088,11.2834,-0.035669,-0.0285309,0.0285132,-0.00336421,-0.0608357,0.84766,0.0394835,0.0442913,1742,1527,11.1087,-11.2834
525,-503,10.91,11.4426,-0.0266201,-0.0229909,0.021111,-0.00361668,-0.0459944,0.828271,0.0295313,0.0353145,1749,1527,10.91,-11.4426
532,-503,10.8387,11.3492,-0.0193211,-0.0181898,0.0152688,-0.00347616,-0.0340348,0.803913,0.0216245,0.0129457,1756,1527,10.8387,-11.3493
539,-503,10.8203,11.1193,-0.0136987,-0.0142669,0.0109582,-0.00302094,-0.0249447,0.772437,0.0157199,0.0103903,1763,1527,10.8203,-11.1192
546,-503,10.7954,10.8828,-0.0092104,-0.010549,0.00747279,-0.00237699,-0.0173824,0.740735,0.0108828,0.0105733,1770,1527,10.7954,-10.8828
553,-503,10.828,10.6597,-0.00552405,-0.00777233,0.00460528,-0.0019077,-0.0113887,0.66569,0.00704321,0.0141256,1777,1527,10.828,-10.6596
560,-503,10.8293,10.423,-0.00228529,-0.00512238,0.00216052,-0.00111924,-0.00628843,0.494906,0.00387349,0.0134371,1784,1527,10.8294,-10.4229
567,-503,10.8384,10.1758,0.000311147,-0.00297979,0.000452586,0.000372255,-0.0030409,0.134206,0.00216206,0.0115363,1791,1527,10.8383,-10.1757
574,-503,10.843,9.92639,0.00228259,-0.000960285,-0.000799224,0.00246886,-0.00114656,-0.22898,0.00213339,0.0126056,1798,1527,10.8431,-9.92643
581,-503,10.811,9.68921,0.00378586,0.000701662,-0.00201395,0.00478031,-0.000292788,-0.458659,0.00328881,0.0135257,1805,1527,10.811,-9.68925
588,-503,10.8049,9.47388,0.00539505,0.00207326,-0.00318124,0.00732287,0.000145445,-0.544816,0.00483416,0.0165883,1812,1527,10.805,-9.47382
595,-503,10.809,9.20728,0.00697504,0.00305076,-0.00425358,0.00969722,0.000328566,-0.569296,0.00635812,0.0124077,1819,1527,10.809,-9.20728
602,-503,10.8217,8.94141,0.00854938,0.00375224,-0.0052217,0.011897,0.000404568,-0.570099,0.00780001,0.0131994,1826,1527,10.8217,-8.9414
609,-503,10.8557,8.67786,0.0100227,0.00426897,-0.00600812,0.0138072,0.000484465,-0.562114,0.00904764,0.0196018,1833,1527,10.8557,-8.67786
616,-503,10.804,8.53687,0.0114113,0.00462282,-0.0066904,0.0155192,0.000514926,-0.55065,0.0101789,0.0212165,1840,1527,10.804,-8.53688
623,-503,10.8885,8.24805,0.0127939,0.00470161,-0.00713428,0.0169495,0.000545957,-0.527445,0.0111222,0.0390434,1847,1527,10.8886,-8.24804
630,-503,10.8894,7.95496,0,0,0,0,0,0,0,-1,1854,1527,10.8894,-7.95499
637,-503,11.2686,7.65515,0,0,0,0,0,0,0,-1,1861,1527,11.2686,-7.65516
644,-503,11.3779,6.95044,0,0,0,0,0,0,0,-1,1868,1527,11.378,-6.95043
651,-503,11.5718,6.5448,0,0,0,0,0,0,0,-1,1875,1527,11.5718,-6.54476
658,-503,8.25635,3.10498,0,0,0,0,0,0,0,-1,1882,1527,8.2563,-3.10493
665,-503,0,0,0,0,0,0,0,0,0,-1,1889,1527,0,0
672,-503,0,0,0,0,0,0,0,0,0,-1,1896,1527,0,0
679,-503,0,0,0,0,0,0,0,0,0,-1,1903,1527,0,0
686,-503,0,0,0,0,0,0,0,0,0,-1,1910,1527,0,0
693,-503,0,0,0,0,0,0,0,0,0,-1,1917,1527,0,0
700,-503,0,0,0,0,0,0,0,0,0,-1,1924,1527,0,0
707,-503,0,0,0,0,0,0,0,0,0,-1,1931,1527,0,0
714,-503,0,0,0,0,0,0,0,0,0,-1,1938,1527,0,0
721,-503,0,0,0,0,0,0,0,0,0,-1,1945,1527,0,0
728,-503,0,0,0,0,0,0,0,0,0,-1,1952,1527,0,0
735,-503,0,0,0,0,0,0,0,0,0,-1,1959,1527,0,0
742,-503,0,0,0,0,0,0,0,0,0,-1,1966,1527,0,0
749,-503,0,0,0,0,0,0,0,0,0,-1,1973,1527,0,0
756,-503,0,0,0,0,0,0,0,0,0,-1,1980,1527,0,0
763,-503,0,0,0,0,0,0,0,0,0,-1,1987,1527,0,0
770,-503,0,0,0,0,0,0,0,0,0,-1,1994,1527,0,0
777,-503,0,0,0,0,0,0,0,0,0,-1,2001,1527,0,0
784,-503,0,0,0,0,0,0,0,0,0,-1,2008,1527,0,0
791,-503,0,0,0,0,0,0,0,0,0,-1,2015,1527,0,0
798,-503,0,0,0,0,0,0,0,0,0,-1,2022,1527,0,0
805,-503,0,0,0,0,0,0,0,0,0,-1,2029,1527,0,0
812,-503,0,0,0,0,0,0,0,0,0,-1,2036,1527,0,0
-700,-510,0,0,0,0,0,0,0,0,0,-1,524,1534,0,0
-693,-510,0,0,0,0,0,0,0,0,0,-1,531,1534,0,0
-686,-510,0,0,0,0,0,0,0,0,0,-1,538,1534,0,0
-679,-510,0,0,0,0,0,0,0,0,0,-1,545,1534,0,0
-672,-510,0,0,0,0,0,0,0,0,0,-1,552,1534,0,0
-665,-510,0,0,0,0,0,0,0,0,0,-1,559,1534,0,0
-658,-510,0,0,0,0,0,0,0,0,0,-1,566,1534,0,0
-651,-510,0,0,0,0,0,0,0,0,0,-1,573,1534,0,0
-644,-510,0,0,0,0,0,0,0,0,0,-1,580,1534,0,0
-637,-510,0,0,0,0,0,0,0,0,0,-1,587,1534,0,0
-630,-510,0,0,0,0,0,0,0,0,0,-1,594,1534,0,0
-623,-510,0,0,0,0,0,0,0,0,0,-1,601,1534,0,0
-616,-510,0,0,0,0,0,0,0,0,0,-1,608,1534,0,0
-609,-510,0,0,0,0,0,0,0,0,0,-1,615,1534,0,0
-602,-510,0,0,0,0,0,0,0,0,0,-1,622,1534,0,0
-595,-510,0,0,0,0,0,0,0,0,0,-1,629,1534,0,0
-588,-510,0,0,0,0,0,0,0,0,0,-1,636,1534,0,0
-581,-510,0,0,0,0,0,0,0,0,0,-1,643,1534,0,0
-574,-510,0,0,0,0,0,0,0,0,0,-1,650,1534,0,0
-567,-510,0,0,0,0,0,0,0,0,0,-1,657,1534,0,0
-560,-510,0,0,0,0,0,0,0,0,0,-1,664,1534,0,0
-553,-510,0,0,0,0,0,0,0,0,0,-1,671,1534,0,0
-546,-510,0,0,0,0,0,0,0,0,0,-1,678,1534,0,0
-539,-510,0,0,0,0,0,0,0,0,0,-1,685,1534,0,0
-532,-510,2.29291,4.35352,0,0,0,0,0,0,0,-1,692,1534,2.29289,-4.35348
-525,-510,-2.76245,5.60095,0,0,0,0,0,0,0,-1,699,1534,-2.76244,-5.60094
-518,-510,-2.302,5.00061,0,0,0,0,0,0,0,-1,706,1534,-2.30202,-5.00055
-511,-510,-1.84161,4.40015,0,0,0,0,0,0,0,-1,713,1534,-1.8416,-4.40017
-504,-510,-0.332153,3.54688,0,0,0,0,0,0,0,-1,720,1534,-0.332171,-3.54682
-497,-510,0.0869751,6.0957,0,0,0,0,0,0,0,-1,727,1534,0.0869558,-6.0957
-490,-510,-0.404602,6.99512,0,0,0,0,0,0,0,-1,734,1534,-0.404574,-6.99509
-483,-510,-0.687744,6.65088,0.00519769,0.00371397,0.00876781,0.013255,-0.00434331,0.743193,0.0105857,0.0425035,741,1534,-0.687736,-6.65092
-476,-510,-1.00513,7.02991,0.00330161,0.00281093,0.00684966,0.00991032,-0.00379777,0.767497,0.00817244,0.0292324,748,1534,-1.00511,-7.02991
-469,-510,-1.13715,7.34949,0.00243174,0.00223771,0.00551366,0.00784924,-0.00317978,0.776601,0.00655508,0.0113777,755,1534,-1.13716,-7.34949
-462,-510,-1.13,7.61816,0.00198654,0.00157759,0.00445279,0.00623955,-0.00267542,0.762454,0.00528239,0.0111583,762,1534,-1.12998,-7.6182
-455,-510,-1.13507,7.90112,0.00191061,0.00124781,0.00343926,0.0050344,-0.00187599,0.737368,0.00412628,0.013712,769,1534,-1.13507,-7.90107
-448,-510,-1.12408,8.17957,0.0019551,0.00104772,0.00264224,0.00418232,-0.0011795,0.700374,0.00325345,0.0126916,776,1534,-1.12406,-8.17958
-441,-510,-1.13928,8.43542,0.00226539,0.000847712,0.00204367,0.00371965,-0.000606554,0.618467,0.00270472,0.0128639,783,1534,-1.13928,-8.43548
-434,-510,-1.15839,8.68445,0.00267257,0.000230855,0.001473,0.00336488,-0.000461462,0.439364,0.00241184,0.0136921,790,1534,-1.15841,-8.68447
-427,-510,-1.16827,8.93408,0.00323907,-0.000499081,0.000935909,0.0034603,-0.000720308,0.232117,0.0025807,0.021213,797,1534,-1.16825,-8.93412
-420,-510,-1.15021,9.17871,0.00391812,-0.00135517,0.000337736,0.00393967,-0.00137671,0.0636997,0.00318609,0.0203905,804,1534,-1.15021,-9.17866
-413,-510,-1.1261,9.49182,0.00445912,-0.00256481,-0.000182964,0.00446388,-0.00256957,-0.0260251,0.00410957,0.0106547,811,1534,-1.1261,-9.49181
-406,-510,-1.14172,9.75439,0.00495203,-0.00399616,-0.000822787,0.00502706,-0.00407119,-0.0909341,0.00526253,0.0101701,818,1534,-1.14173,-9.75436
-399,-510,-1.15466,9.99817,0.00551746,-0.00558857,-0.00152286,0.00572249,-0.0057936,-0.13383,0.00664886,0.0115828,825,1534,-1.15463,-9.99821
-392,-510,-1.04651,10.3473,0.00609463,-0.00738019,-0.0025404,0.00655766,-0.00784322,-0.180287,0.00832538,0.0247551,832,1534,-1.04648,-10.3473
-385,-510,-1.04578,10.5353,0.00678868,-0.00972493,-0.00386543,0.00764869,-0.0105849,-0.218923,0.0105726,0.0412953,839,1534,-1.0458,-10.5352
-378,-510,-1.12158,10.3535,0.00735851,-0.0125014,-0.0057127,0.00888452,-0.0140274,-0.261029,0.0133388,0.0406191,846,1534,-1.12159,-10.3535
-371,-510,-0.970886,10.5472,0.00787414,-0.0155696,-0.0079705,0.0103273,-0.0180228,-0.298577,0.0165677,0.0455897,853,1534,-0.97088,-10.5472
-364,-510,-0.617249,10.6782,0,0,0,0,0,0,0,-1,860,1534,-0.617241,-10.6782
-357,-510,-0.254395,8.89575,0,0,0,0,0,0,0,-1,867,1534,-0.254397,-8.89569
-350,-510,0.471191,6.06458,0,0,0,0,0,0,0,-1,874,1534,0.47118,-6.06453
-343,-510,-2.94617,5.00989,0,0,0,0,0,0,0,-1,881,1534,-2.94615,-5.00992
-336,-510,-1.92963,11.3776,0,0,0,0,0,0,0,-1,888,1534,-1.92962,-11.3775
-329,-510,-1.09058,11.6753,0,0,0,0,0,0,0,-1,895,1534,-1.09056,-11.6753
-322,-510,-0.251526,11.973,0,0,0,0,0,0,0,-1,902,1534,-0.251497,-11.9731
-315,-510,-1.73047,10.9796,0,0,0,0,0,0,0,-1,909,1534,-1.73049,-10.9796
-308,-510,-2.05328,9.72034,0,0,0,0,0,0,0,-1,916,1534,-2.05327,-9.72036
-301,-510,-2.11639,10.0634,0,0,0,0,0,0,0,-1,923,1534,-2.11637,-10.0633
-294,-510,0,0,0,0,0,0,0,0,0,-1,930,1534,0,0
-287,-510,0,0,0,0,0,0,0,0,0,-1,937,1534,0,0
-280,-510,0,0,0,0,0,0,0,0,0,-1,944,1534,0,0
-273,-510,0,0,0,0,0,0,0,0,0,-1,951,1534,0,0
-266,-510,0,0,0,0,0,0,0,0,0,-1,958,1534,0,0
-259,-510,0,0,0,0,0,0,0,0,0,-1,965,1534,0,0
-252,-510,0,0,0,0,0,0,0,0,0,-1,972,1534,0,0
-245,-510,0,0,0,0,0,0,0,0,0,-1,979,1534,0,0
-238,-510,0,0,0,0,0,0,0,0,0,-1,986,1534,0,0
-231,-510,0,0,0,0,0,0,0,0,0,-1,993,1534,0,0
-224,-510,0,0,0,0,0,0,0,0,0,-1,1000,1534,0,0
-217,-510,0,0,0,0,0,0,0,0,0,-1,1007,1534,0,0
-210,-510,0,0,0,0,0,0,0,0,0,-1,1014,1534,0,0
-203,-510,0,0,0,0,0,0,0,0,0,-1,1021,1534,0,0
-196,-510,0,0,0,0,0,0,0,0,0,-1,1028,1534,0,0
-189,-510,0,0,0,0,0,0,0,0,0,-1,1035,1534,0,0
-182,-510,0,0,0,0,0,0,0,0,0,-1,1042,1534,0,0
-175,-510,0,0,0,0,0,0,0,0,0,-1,1049,1534,0,0
-168,-510,0,0,0,0,0,0,0,0,0,-1,1056,1534,0,0
-161,-510,0,0,0,0,0,0,0,0,0,-1,1063,1534,0,0
-154,-510,0,0,0,0,0,0,0,0,0,-1,1070,1534,0,0
-147,-510,0,0,0,0,0,0,0,0,0,-1,1077,1534,0,0
-140,-510,0,0,0,0,0,0,0,0,0,-1,1084,1534,0,0
-133,-510,0,0,0,0,0,0,0,0,0,-1,1091,1534,0,0
-126,-510,0,0,0,0,0,0,0,0,0,-1,1098,1534,0,0
-119,-510,0,0,0,0,0,0,0,0,0,-1,1105,1534,0,0
-112,-510,0,0,0,0,0,0,0,0,0,-1,1112,1534,0,0
-105,-510,0,0,0,0,0,0,0,0,0,-1,1119,1534,0,0
-98,-510,0,0,0,0,0,0,0,0,0,-1,1126,1534,0,0
-91,-510,0,0,0,0,0,0,0,0,0,-1,1133,1534,0,0
-84,-510,0,0,0,0,0,0,0,0,0,-1,1140,1534,0,0
-77,-510,0,0,0,0,0,0,0,0,0,-1,1147,1534,0,0
-70,-510,0,0,0,0,0,0,0,0,0,-1,1154,1534,0,0
-63,-510,0,0,0,0,0,0,0,0,0,-1,1161,1534,0,0
-56,-510,0,0,0,0,0,0,0,0,0,-1,1168,1534,0,0
-49,-510,0,0,0,0,0,0,0,0,0,-1,1175,1534,0,0
-42,-510,0,0,0,0,0,0,0,0,0,-1,1182,1534,0,0
-35,-510,0,0,0,0,0,0,0,0,0,-1,1189,1534,0,0
-28,-510,0,0,0,0,0,0,0,0,0,-1,1196,1534,0,0
-21,-510,0,0,0,0,0,0,0,0,0,-1,1203,1534,0,0
-14,-510,0,0,0,0,0,0,0,0,0,-1,1210,1534,0,0
-7,-510,0,0,0,0,0,0,0,0,0,-1,1217,1534,0,0
0,-510,0,0,0,0,0,0,0,0,0,-1,1224,1534,0,0
7,-510,0,0,0,0,0,0,0,0,0,-1,1231,1534,0,0
14,-510,0,0,0,0,0,0,0,0,0,-1,1238,1534,0,0
21,-510,0,0,0,0,0,0,0,0,0,-1,1245,1534,0,0
28,-510,0,0,0,0,0,0,0,0,0,-1,1252,1534,0,0
35,-510,0,0,0,0,0,0,0,0,0,-1,1259,1534,0,0
42,-510,0,0,0,0,0,0,0,0,0,-1,1266,1534,0,0
49,-510,0,0,0,0,0,0,0,0,0,-1,1273,1534,0,0
56,-510,0,0,0,0,0,0,0,0,0,-1,1280,1534,0,0
63,-510,0,0,0,0,0,0,0,0,0,-1,1287,1534,0,0
70,-510,0,0,0,0,0,0,0,0,0,-1,1294,1534,0,0
77,-510,0,0,0,0,0,0,0,0,0,-1,1301,1534,0,0
84,-510,0,0,0,0,0,0,0,0,0,-1,1308,1534,0,0
91,-510,0,0,0,0,0,0,0,0,0,-1,1315,1534,0,0
98,-510,0,0,0,0,0,0,0,0,0,-1,1322,1534,0,0
105,-510,0,0,0,0,0,0,0,0,0,-1,1329,1534,0,0
112,-510,0,0,0,0,0,0,0,0,0,-1,1336,1534,0,0
119,-510,0,0,0,0,0,0,0,0,0,-1,1343,1534,0,0
126,-510,0,0,0,0,0,0,0,0,0,-1,1350,1534,0,0
133,-510,0,0,0,0,0,0,0,0,0,-1,1357,1534,0,0
140,-510,0,0,0,0,0,0,0,0,0,-1,1364,1534,0,0
147,-510,0,0,0,0,0,0,0,0,0,-1,1371,1534,0,0
154,-510,0,0,0,0,0,0,0,0,0,-1,1378,1534,0,0
161,-510,0,0,0,0,0,0,0,0,0,-1,1385,1534,0,0
168,-510,0,0,0,0,0,0,0,0,0,-1,1392,1534,0,0
175,-510,0,0,0,0,0,0,0,0,0,-1,1399,1534,0,0
182,-510,0,0,0,0,0,0,0,0,0,-1,1406,1534,0,0
189,-510,0,0,0,0,0,0,0,0,0,-1,1413,1534,0,0
196,-510,0,0,0,0,0,0,0,0,0,-1,1420,1534,0,0
203,-510,0,0,0,0,0,0,0,0,0,-1,1427,1534,0,0
210,-510,0,0,0,0,0,0,0,0,0,-1,1434,1534,0,0
217,-510,0,0,0,0,0,0,0,0,0,-1,1441,1534,0,0
224,-510,0,0,0,0,0,0,0,0,0,-1,1448,1534,0,0
231,-510,0,0,0,0,0,0,0,0,0,-1,1455,1534,0,0
238,-510,0,0,0,0,0,0,0,0,0,-1,1462,1534,0,0
245,-510,0,0,0,0,0,0,0,0,0,-1,1469,1534,0,0
252,-510,0,0,0,0,0,0,0,0,0,-1,1476,1534,0,0
259,-510,0,0,0,0,0,0,0,0,0,-1,1483,1534,0,0
266,-510,0,0,0,0,0,0,0,0,0,-1,1490,1534,0,0
273,-510,0,0,0,0,0,0,0,0,0,-1,1497,1534,0,0
280,-510,0,0,0,0,0,0,0,0,0,-1,1504,1534,0,0
287,-510,0,0,0,0,0,0,0,0,0,-1,1511,1534,0,0
294,-510,0,0,0,0,0,0,0,0,0,-1,1518,1534,0,0
301,-510,0,0,0,0,0,0,0,0,0,-1,1525,1534,0,0
308,-510,0,0,0,0,0,0,0,0,0,-1,1532,1534,0,0
315,-510,0,0,0,0,0,0,0,0,0,-1,1539,1534,0,0
322,-510,0,0,0,0,0,0,0,0,0,-1,1546,1534,0,0
329,-510,0,0,0,0,0,0,0,0,0,-1,1553,1534,0,0
336,-510,0,0,0,0,0,0,0,0,0,-1,1560,1534,0,0
343,-510,0,0,0,0,0,0,0,0,0,-1,1567,1534,0,0
350,-510,0,0,0,0,0,0,0,0,0,-1,1574,1534,0,0
357,-510,0,0,0,0,0,0,0,0,0,-1,1581,1534,0,0
364,-510,0,0,0,0,0,0,0,0,0,-1,1588,1534,0,0
371,-510,0,0,0,0,0,0,0,0,0,-1,1595,1534,0,0
378,-510,0,0,0,0,0,0,0,0,0,-1,1602,1534,0,0
385,-510,0,0,0,0,0,0,0,0,0,-1,1609,1534,0,0
392,-510,0,0,0,0,0,0,0,0,0,-1,1616,1534,0,0
399,-510,0,0,0,0,0,0,0,0,0,-1,1623,1534,0,0
406,-510,0,0,0,0,0,0,0,0,0,-1,1630,1534,0,0
413,-510,0,0,0,0,0,0,0,0,0,-1,1637,1534,0,0
420,-510,13.1918,5.99402,0,0,0,0,0,0,0,-1,1644,1534,13.1917,-5.994
427,-510,10.9799,5.12341,0,0,0,0,0,0,0,-1,1651,1534,10.9798,-5.12337
434,-510,11.8219,4.07898,0,0,0,0,0,0,0,-1,1658,1534,11.8219,-4.07895
441,-510,12.6812,3.02991,0,0,0,0,0,0,0,-1,1665,1534,12.6811,-3.0299
448,-510,13.2379,2.2804,0,0,0,0,0,0,0,-1,1672,1534,13.2379,-2.28037
455,-510,9.76892,2.20642,0,0,0,0,0,0,0,-1,1679,1534,9.76894,-2.20647
462,-510,9.84692,2.49182,0,0,0,0,0,0,0,-1,1686,1534,9.84695,-2.49185
469,-510,16.6072,7.26941,0,0,0,0,0,0,0,-1,1693,1534,16.6072,-7.26945
476,-510,15.9199,7.8645,0,0,0,0,0,0,0,-1,1700,1534,15.9199,-7.86455
483,-510,9.9469,7.28748,0,0,0,0,0,0,0,-1,1707,1534,9.94686,-7.28747
490,-510,10.2285,10.4934,0,0,0,0,0,0,0,-1,1714,1534,10.2286,-10.4935
497,-510,12.6975,12.0902,0,0,0,0,0,0,0,-1,1721,1534,12.6976,-12.0902
504,-510,12.1506,11.8743,-0.0489475,-0.0340459,0.0421258,0.00128292,-0.0842763,0.872928,0.0566167,0.0404308,1728,1534,12.1506,-11.8743
511,-510,11.5198,11.7919,-0.0386772,-0.0277039,0.0326801,-5.31338e-05,-0.066328,0.868567,0.044201,0.038703,1735,1534,11.5197,-11.7919
518,-510,10.798,11.6895,-0.0297821,-0.022316,0.0245412,-0.00122557,-0.0508725,0.860876,0.033514,0.0350279,1742,1534,10.798,-11.6895
525,-510,10.6001,11.6082,-0.0223077,-0.0177159,0.0181681,-0.00169924,-0.0383243,0.84825,0.0250024,0.0194433,1749,1534,10.6001,-11.6082
532,-510,10.614,11.3636,-0.0161319,-0.0137744,0.0130443,-0.00185567,-0.0280506,0.830458,0.0181135,0.0118206,1756,1534,10.614,-11.3637
539,-510,10.5939,11.1144,-0.0112639,-0.0106337,0.00923627,-0.00170716,-0.0201904,0.802449,0.0129289,0.0110242,1763,1534,10.5939,-11.1144
546,-510,10.5566,10.9004,-0.00722378,-0.00755953,0.00602997,-0.00135935,-0.013424,0.771482,0.00853236,0.0110954,1770,1534,10.5567,-10.9004
553,-510,10.5803,10.6636,-0.00378943,-0.00525537,0.00331271,-0.00112957,-0.00791523,0.676523,0.00494351,0.0129122,1777,1534,10.5803,-10.6636
560,-510,10.5854,10.4077,-0.000691686,-0.0029982,0.000976804,-0.000333603,-0.00335629,0.351373,0.00213503,0.0125772,1784,1534,10.5855,-10.4077
567,-510,10.5807,10.1615,0.00186286,-0.0011619,-0.000709609,0.00202106,-0.0013201,-0.219353,0.00194312,0.0118392,1791,1534,10.5807,-10.1615
574,-510,10.578,9.92847,0.00395458,0.000635829,-0.00206177,0.00494179,-0.000351384,-0.446559,0.00341768,0.0128304,1798,1534,10.578,-9.92841
581,-510,10.5637,9.70593,0.0057321,0.00217694,-0.00342847,0.00781641,9.26307e-05,-0.546238,0.00518034,0.0115744,1805,1534,10.5638,-9.70597
588,-510,10.5735,9.46143,0.00769822,0.00347121,-0.00484756,0.010873,0.000296455,-0.579826,0.00715188,0.0125764,1812,1534,10.5735,-9.46139
595,-510,10.6309,9.16199,0.00976539,0.00452907,-0.00626215,0.0139347,0.000359796,-0.587395,0.00917219,0.0125221,1819,1534,10.6309,-9.16195
602,-510,10.5769,8.87024,0.0119402,0.00546528,-0.00764582,0.0170058,0.000399759,-0.585127,0.0112063,0.0249151,1826,1534,10.577,-8.87019
609,-510,10.5319,8.73157,0.0140811,0.00631947,-0.00890972,0.0199185,0.000482074,-0.580003,0.0131213,0.0338836,1833,1534,10.5319,-8.73152
616,-510,10.5852,8.56128,0.0161954,0.00706358,-0.0101471,0.0227565,0.000502415,-0.573984,0.0150064,0.0419167,1840,1534,10.5852,-8.56125
623,-510,10.5574,8.36414,0,0,0,0,0,0,0,-1,1847,1534,10.5574,-8.3641
630,-510,11.6138,7.8031,0,0,0,0,0,0,0,-1,1854,1534,11.6137,-7.80305
637,-510,11.1967,7.7124,0,0,0,0,0,0,0,-1,1861,1534,11.1966,-7.71235
644,-510,11.5809,7.17126,0,0,0,0,0,0,0,-1,1868,1534,11.5809,-7.17123
651,-510,8.70471,3.5061,0,0,0,0,0,0,0,-1,1875,1534,8.70475,-3.50611
658,-510,0,0,0,0,0,0,0,0,0,-1,1882,1534,0,0
665,-510,0,0,0,0,0,0,0,0,0,-1,1889,1534,0,0
672,-510,0,0,0,0,0,0,0,0,0,-1,1896,1534,0,0
679,-510,0,0,0,0,0,0,0,0,0,-1,1903,1534,0,0
686,-510,0,0,0,0,0,0,0,0,0,-1,1910,1534,0,0
693,-510,0,0,0,0,0,0,0,0,0,-1,1917,1534,0,0
700,-510,0,0,0,0,0,0,0,0,0,-1,1924,1534,0,0
707,-510,0,0,0,0,0,0,0,0,0,-1,1931,1534,0,0
714,-510,0,0,0,0,0,0,0,0,0,-1,1938,1534,0,0
721,-510,0,0,0,0,0,0,0,0,0,-1,1945,1534,0,0
728,-510,0,0,0,0,0,0,0,0,0,-1,1952,1534,0,0
735,-510,0,0,0,0,0,0,0,0,0,-1,1959,1534,0,0
742,-510,0,0,0,0,0,0,0,0,0,-1,1966,1534,0,0
749,-510,0,0,0,0,0,0,0,0,0,-1,1973,1534,0,0
756,-510,0,0,0,0,0,0,0,0,0,-1,1980,1534,0,0
763,-510,0,0,0,0,0,0,0,0,0,-1,1987,1534,0,0
770,-510,0,0,0,0,0,0,0,0,0,-1,1994,1534,0,0
777,-510,0,0,0,0,0,0,0,0,0,-1,2001,1534,0,0
784,-510,0,0,0,0,0,0,0,0,0,-1,2008,1534,0,0
791,-510,0,0,0,0,0,0,0,0,0,-1,2015,1534,0,0
798,-510,0,0,0,0,0,0,0,0,0,-1,2022,1534,0,0
805,-510,0,0,0,0,0,0,0,0,0,-1,2029,1534,0,0
812,-510,0,0,0,0,0,0,0,0,0,-1,2036,1534,0,0
-700,-517,0,0,0,0,0,0,0,0,0,-1,524,1541,0,0
-693,-517,0,0,0,0,0,0,0,0,0,-1,531,1541,0,0
-686,-517,0,0,0,0,0,0,0,0,0,-1,538,1541,0,0
-679,-517,0,0,0,0,0,0,0,0,0,-1,545,1541,0,0
-672,-517,0,0,0,0,0,0,0,0,0,-1,552,1541,0,0
-665,-517,0,0,0,0,0,0,0,0,0,-1,559,1541,0,0
-658,-517,0,0,0,0,0,0,0,0,0,-1,566,1541,0,0
-651,-517,0,0,0,0,0,0,0,0,0,-1,573,1541,0,0
-644,-517,0,0,0,0,0,0,0,0,0,-1,580,1541,0,0
-637,-517,0,0,0,0,0,0,0,0,0,-1,587,1541,0,0
-630,-517,0,0,0,0,0,0,0,0,0,-1,594,1541,0,0
-623,-517,0,0,0,0,0,0,0,0,0,-1,601,1541,0,0
-616,-517,0,0,0,0,0,0,0,0,0,-1,608,1541,0,0
-609,-517,0,0,0,0,0,0,0,0,0,-1,615,1541,0,0
-602,-517,0,0,0,0,0,0,0,0,0,-1,622,1541,0,0
-595,-517,0,0,0,0,0,0,0,0,0,-1,629,1541,0,0
-588,-517,0,0,0,0,0,0,0,0,0,-1,636,1541,0,0
-581,-517,0,0,0,0,0,0,0,0,0,-1,643,1541,0,0
-574,-517,0,0,0,0,0,0,0,0,0,-1,650,1541,0,0
-567,-517,0,0,0,0,0,0,0,0,0,-1,657,1541,0,0
-560,-517,0,0,0,0,0,0,0,0,0,-1,664,1541,0,0
-553,-517,0,0,0,0,0,0,0,0,0,-1,671,1541,0,0
-546,-517,0,0,0,0,0,0,0,0,0,-1,678,1541,0,0
-539,-517,0,0,0,0,0,0,0,0,0,-1,685,1541,0,0
-532,-517,0,0,0,0,0,0,0,0,0,-1,692,1541,0,0
-525,-517,0.467896,4.35828,0,0,0,0,0,0,0,-1,699,1541,0.467905,-4.35823
-518,-517,-2.71826,4.89087,0,0,0,0,0,0,0,-1,706,1541,-2.71826,-4.89084
-511,-517,-2.72321,2.45251,0,0,0,0,0,0,0,-1,713,1541,-2.72323,-2.45249
-504,-517,-0.883362,4.79858,0,0,0,0,0,0,0,-1,720,1541,-0.88337,-4.79854
-497,-517,-0.874878,6.28528,0,0,0,0,0,0,0,-1,727,1541,-0.874879,-6.28524
-490,-517,-0.71875,6.66931,0.00856117,0.0061846,0.0149263,0.0223464,-0.00760061,0.745677,0.017975,0.045263,734,1541,-0.718742,-6.66926
-483,-517,-0.634583,6.58093,0.00596109,0.00479402,0.0120785,0.0174702,-0.00671507,0.761261,0.0144162,0.0443946,741,1541,-0.634578,-6.58098
-476,-517,-0.723083,6.98633,0.00442422,0.00398734,0.00984426,0.0140525,-0.0056409,0.774305,0.0117106,0.0358831,748,1541,-0.723064,-6.98629
-469,-517,-0.810303,7.33044,0.0035403,0.00345282,0.00802882,0.0115255,-0.00453238,0.782674,0.00955958,0.0152282,755,1541,-0.810333,-7.33042
-462,-517,-0.868713,7.60205,0.00289431,0.00279422,0.00644118,0.00928563,-0.00359711,0.781513,0.00767575,0.015079,762,1541,-0.868737,-7.60205
-455,-517,-0.876404,7.90869,0.00261087,0.00237221,0.00501689,0.00750985,-0.00252678,0.773507,0.00602802,0.013713,769,1541,-0.876393,-7.90873
-448,-517,-0.87207,8.18921,0.0024174,0.00203496,0.00386067,0.00609158,-0.00163922,0.760653,0.00470365,0.0133836,776,1541,-0.872059,-8.18925
-441,-517,-0.891418,8.44714,0.00246877,0.0017156,0.00296929,0.00508526,-0.000900885,0.722321,0.00372694,0.0116278,783,1541,-0.891414,-8.44718
-434,-517,-0.871948,8.69385,0.00263708,0.00104787,0.00217783,0.00416073,-0.00047578,0.610472,0.00294525,0.0137771,790,1541,-0.871957,-8.69385
-427,-517,-0.869507,8.94653,0.00295747,0.0003155,0.0014468,0.00359562,-0.000322654,0.415412,0.00251155,0.0136472,797,1541,-0.869522,-8.94658
-420,-517,-0.903687,9.22083,0.00335999,-0.000525631,0.000716469,0.00348789,-0.000653531,0.176653,0.00257094,0.0191957,804,1541,-0.903682,-9.22081
-413,-517,-0.886047,9.49915,0.0036115,-0.00167069,0.000113371,0.00361393,-0.00167312,0.0214497,0.00312028,0.0102255,811,1541,-0.886064,-9.49911
-406,-517,-0.896667,9.76526,0.00382165,-0.00297711,-0.000549627,0.0038658,-0.00302125,-0.0801487,0.00398619,0.0104071,818,1541,-0.896677,-9.76523
-399,-517,-0.896545,10.0277,0.00411499,-0.00444505,-0.00124358,0.00429199,-0.00462205,-0.141385,0.0051477,0.00983208,825,1541,-0.896518,-10.0277
-392,-517,-0.876953,10.2845,0.00442599,-0.00597407,-0.002204,0.00487379,-0.00642186,-0.200445,0.00654193,0.0114634,832,1541,-0.87698,-10.2845
-385,-517,-0.805542,10.663,0.00485797,-0.00789523,-0.00337832,0.00569761,-0.00873487,-0.243601,0.00839387,0.0203299,839,1541,-0.805567,-10.663
-378,-517,-0.85022,10.7493,0.00521916,-0.0101405,-0.00493631,0.00666879,-0.0115901,-0.285636,0.0106687,0.0415368,846,1541,-0.850212,-10.7493
-371,-517,-0.701721,10.4955,0.00560782,-0.012623,-0.00670042,0.00780551,-0.0148207,-0.316937,0.0132709,0.0486377,853,1541,-0.701731,-10.4955
-364,-517,-0.561523,10.7434,0,0,0,0,0,0,0,-1,860,1541,-0.561511,-10.7435
-357,-517,-0.947266,10.5267,0,0,0,0,0,0,0,-1,867,1541,-0.947252,-10.5268
-350,-517,0.722412,10.0829,0,0,0,0,0,0,0,-1,874,1541,0.722399,-10.0828
-343,-517,-2.56708,6.12415,0,0,0,0,0,0,0,-1,881,1541,-2.56708,-6.12418
-336,-517,-1.58478,11.4652,0,0,0,0,0,0,0,-1,888,1541,-1.58478,-11.4652
-329,-517,-0.658691,11.7365,0,0,0,0,0,0,0,-1,895,1541,-0.658693,-11.7364
-322,-517,0.267395,12.0076,0,0,0,0,0,0,0,-1,902,1541,0.267396,-12.0076
-315,-517,-0.987976,7.29749,0,0,0,0,0,0,0,-1,909,1541,-0.987993,-7.29743
-308,-517,4.07715,15.229,0,0,0,0,0,0,0,-1,916,1541,4.07714,-15.229
-301,-517,-1.69141,8.87488,0,0,0,0,0,0,0,-1,923,1541,-1.69141,-8.87485
-294,-517,-1.72583,9.92566,0,0,0,0,0,0,0,-1,930,1541,-1.72584,-9.92571
-287,-517,-2.32312,11.6124,0,0,0,0,0,0,0,-1,937,1541,-2.32315,-11.6124
-280,-517,0,0,0,0,0,0,0,0,0,-1,944,1541,0,0
-273,-517,0,0,0,0,0,0,0,0,0,-1,951,1541,0,0
-266,-517,0,0,0,0,0,0,0,0,0,-1,958,1541,0,0
-259,-517,0,0,0,0,0,0,0,0,0,-1,965,1541,0,0
-252,-517,0,0,0,0,0,0,0,0,0,-1,972,1541,0,0
-245,-517,0,0,0,0,0,0,0,0,0,-1,979,1541,0,0
-238,-517,0,0,0,0,0,0,0,0,0,-1,986,1541,0,0
-231,-517,0,0,0,0,0,0,0,0,0,-1,993,1541,0,0
-224,-517,0,0,0,0,0,0,0,0,0,-1,1000,1541,0,0
-217,-517,0,0,0,0,0,0,0,0,0,-1,1007,1541,0,0
-210,-517,0,0,0,0,0,0,0,0,0,-1,1014,1541,0,0
-203,-517,0,0,0,0,0,0,0,0,0,-1,1021,1541,0,0
-196,-517,0,0,0,0,0,0,0,0,0,-1,1028,1541,0,0
-189,-517,0,0,0,0,0,0,0,0,0,-1,1035,1541,0,0
-182,-517,0,0,0,0,0,0,0,0,0,-1,1042,1541,0,0
-175,-517,0,0,0,0,0,0,0,0,0,-1,1049,1541,0,0
-168,-517,0,0,0,0,0,0,0,0,0,-1,1056,1541,0,0
-161,-517,0,0,0,0,0,0,0,0,0,-1,1063,1541,0,0
-154,-517,0,0,0,0,0,0,0,0,0,-1,1070,1541,0,0
-147,-517,0,0,0,0,0,0,0,0,0,-1,1077,1541,0,0
-140,-517,0,0,0,0,0,0,0,0,0,-1,1084,1541,0,0
-133,-517,0,0,0,0,0,0,0,0,0,-1,1091,1541,0,0
-126,-517,0,0,0,0,0,0,0,0,0,-1,1098,1541,0,0
-119,-517,0,0,0,0,0,0,0,0,0,-1,1105,1541,0,0
-112,-517,0,0,0,0,0,0,0,0,0,-1,1112,1541,0,0
-105,-517,0,0,0,0,0,0,0,0,0,-1,1119,1541,0,0
-98,-517,0,0,0,0,0,0,0,0,0,-1,1126,1541,0,0
-91,-517,0,0,0,0,0,0,0,0,0,-1,1133,1541,0,0
-84,-517,0,0,0,0,0,0,0,0,0,-1,1140,1541,0,0
-77,-517,0,0,0,0,0,0,0,0,0,-1,1147,1541,0,0
-70,-517,0,0,0,0,0,0,0,0,0,-1,1154,1541,0,0
-63,-517,0,0,0,0,0,0,0,0,0,-1,1161,1541,0,0
-56,-517,0,0,0,0,0,0,0,0,0,-1,1168,1541,0,0
-49,-517,0,0,0,0,0,0,0,0,0,-1,1175,1541,0,0
-42,-517,0,0,0,0,0,0,0,0,0,-1,1182,1541,0,0
-35,-517,0,0,0,0,0,0,0,0,0,-1,1189,1541,0,0
-28,-517,0,0,0,0,0,0,0,0,0,-1,1196,1541,0,0
-21,-517,0,0,0,0,0,0,0,0,0,-1,1203,1541,0,0
-14,-517,0,0,0,0,0,0,0,0,0,-1,1210,1541,0,0
-7,-517,0,0,0,0,0,0,0,0,0,-1,1217,1541,0,0
0,-517,0,0,0,0,0,0,0,0,0,-1,1224,1541,0,0
7,-517,0,0,0,0,0,0,0,0,0,-1,1231,1541,0,0
14,-517,0,0,0,0,0,0,0,0,0,-1,1238,1541,0,0
21,-517,0,0,0,0,0,0,0,0,0,-1,1245,1541,0,0
28,-517,0,0,0,0,0,0,0,0,0,-1,1252,1541,0,0
35,-517,0,0,0,0,0,0,0,0,0,-1,1259,1541,0,0
42,-517,0,0,0,0,0,0,0,0,0,-1,1266,1541,0,0
49,-517,0,0,0,0,0,0,0,0,0,-1,1273,1541,0,0
56,-517,0,0,0,0,0,0,0,0,0,-1,1280,1541,0,0
63,-517,0,0,0,0,0,0,0,0,0,-1,1287,1541,0,0
70,-517,0,0,0,0,0,0,0,0,0,-1,1294,1541,0,0
77,-517,0,0,0,0,0,0,0,0,0,-1,1301,1541,0,0
84,-517,0,0,0,0,0,0,0,0,0,-1,1308,1541,0,0
91,-517,0,0,0,0,0,0,0,0,0,-1,1315,1541,0,0
98,-517,0,0,0,0,0,0,0,0,0,-1,1322,1541,0,0
105,-517,0,0,0,0,0,0,0,0,0,-1,1329,1541,0,0
112,-517,0,0,0,0,0,0,0,0,0,-1,1336,1541,0,0
119,-517,0,0,0,0,0,0,0,0,0,-1,1343,1541,0,0
126,-517,0,0,0,0,0,0,0,0,0,-1,1350,1541,0,0
133,-517,0,0,0,0,0,0,0,0,0,-1,1357,1541,0,0
140,-517,0,0,0,0,0,0,0,0,0,-1,1364,1541,0,0
147,-517,0,0,0,0,0,0,0,0,0,-1,1371,1541,0,0
154,-517,0,0,0,0,0,0,0,0,0,-1,1378,1541,0,0
161,-517,0,0,0,0,0,0,0,0,0,-1,1385,1541,0,0
168,-517,0,0,0,0,0,0,0,0,0,-1,1392,1541,0,0
175,-517,0,0,0,0,0,0,0,0,0,-1,1399,1541,0,0
182,-517,0,0,0,0,0,0,0,0,0,-1,1406,1541,0,0
189,-517,0,0,0,0,0,0,0,0,0,-1,1413,1541,0,0
196,-517,0,0,0,0,0,0,0,0,0,-1,1420,1541,0,0
203,-517,0,0,0,0,0,0,0,0,0,-1,1427,1541,0,0
210,-517,0,0,0,0,0,0,0,0,0,-1,1434,1541,0,0
217,-517,0,0,0,0,0,0,0,0,0,-1,1441,1541,0,0
224,-517,0,0,0,0,0,0,0,0,0,-1,1448,1541,0,0
231,-517,0,0,0,0,0,0,0,0,0,-1,1455,1541,0,0
238,-517,0,0,0,0,0,0,0,0,0,-1,1462,1541,0,0
245,-517,0,0,0,0,0,0,0,0,0,-1,1469,1541,0,0
252,-517,0,0,0,0,0,0,0,0,0,-1,1476,1541,0,0
259,-517,0,0,0,0,0,0,0,0,0,-1,1483,1541,0,0
266,-517,0,0,0,0,0,0,0,0,0,-1,1490,1541,0,0
273,-517,0,0,0,0,0,0,0,0,0,-1,1497,1541,0,0
280,-517,0,0,0,0,0,0,0,0,0,-1,1504,1541,0,0
287,-517,0,0,0,0,0,0,0,0,0,-1,1511,1541,0,0
294,-517,0,0,0,0,0,0,0,0,0,-1,1518,1541,0,0
301,-517,0,0,0,0,0,0,0,0,0,-1,1525,1541,0,0
308,-517,0,0,0,0,0,0,0,0,0,-1,1532,1541,0,0
315,-517,0,0,0,0,0,0,0,0,0,-1,1539,1541,0,0
322,-517,0,0,0,0,0,0,0,0,0,-1,1546,1541,0,0
329,-517,0,0,0,0,0,0,0,0,0,-1,1553,1541,0,0
336,-517,0,0,0,0,0,0,0,0,0,-1,1560,1541,0,0
343,-517,0,0,0,0,0,0,0,0,0,-1,1567,1541,0,0
350,-517,0,0,0,0,0,0,0,0,0,-1,1574,1541,0,0
357,-517,0,0,0,0,0,0,0,0,0,-1,1581,1541,0,0
364,-517,0,0,0,0,0,0,0,0,0,-1,1588,1541,0,0
371,-517,0,0,0,0,0,0,0,0,0,-1,1595,1541,0,0
378,-517,0,0,0,0,0,0,0,0,0,-1,1602,1541,0,0
385,-517,0,0,0,0,0,0,0,0,0,-1,1609,1541,0,0
392,-517,0,0,0,0,0,0,0,0,0,-1,1616,1541,0,0
399,-517,0,0,0,0,0,0,0,0,0,-1,1623,1541,0,0
406,-517,12.1469,6.22412,0,0,0,0,0,0,0,-1,1630,1541,12.1468,-6.22408
413,-517,12.2695,6.3324,0,0,0,0,0,0,0,-1,1637,1541,12.2696,-6.33243
420,-517,12.4789,6.20337,0,0,0,0,0,0,0,-1,1644,1541,12.4789,-6.20333
427,-517,11.647,4.66516,0,0,0,0,0,0,0,-1,1651,1541,11.647,-4.66519
434,-517,12.3719,3.92773,0,0,0,0,0,0,0,-1,1658,1541,12.3719,-3.92776
441,-517,13.146,3.14124,0,0,0,0,0,0,0,-1,1665,1541,13.146,-3.14121
448,-517,13.8861,2.36682,0,0,0,0,0,0,0,-1,1672,1541,13.8861,-2.36684
455,-517,13.6012,4.06335,0,0,0,0,0,0,0,-1,1679,1541,13.6012,-4.06335
462,-517,14.8956,7.0752,0,0,0,0,0,0,0,-1,1686,1541,14.8956,-7.07525
469,-517,14.3939,7.823,0,0,0,0,0,0,0,-1,1693,1541,14.3939,-7.82296
476,-517,13.8374,8.68164,0,0,0,0,0,0,0,-1,1700,1541,13.8374,-8.68166
483,-517,11.3983,8.48816,0,0,0,0,0,0,0,-1,1707,1541,11.3983,-8.4882
490,-517,11.9067,12.115,0,0,0,0,0,0,0,-1,1714,1541,11.9067,-12.115
497,-517,11.5709,12.1248,-0.0487466,-0.0340556,0.0439445,0.00315309,-0.0859553,0.86821,0.058383,0.0441565,1721,1541,11.571,-12.1247
504,-517,10.9774,12.1324,-0.0391096,-0.0274127,0.0349033,0.00212879,-0.0686511,0.868408,0.0464932,0.0387719,1728,1541,10.9774,-12.1324
511,-517,10.5464,12.1343,-0.0310745,-0.0218611,0.027262,0.00118067,-0.0541162,0.869097,0.0364774,0.0386256,1735,1541,10.5464,-12.1342
518,-517,10.3191,11.8552,-0.0240238,-0.017299,0.0204434,5.66896e-05,-0.0413795,0.866905,0.0276053,0.0265461,1742,1541,10.3191,-11.8552
525,-517,10.3361,11.585,-0.0179581,-0.0134479,0.0150861,-0.000449278,-0.0309568,0.859589,0.0204897,0.0120816,1749,1541,10.336,-11.5849
532,-517,10.3809,11.3459,-0.0128227,-0.0101725,0.0106996,-0.000716208,-0.0222789,0.847006,0.0146197,0.00994754,1756,1541,10.3808,-11.346
539,-517,10.3721,11.1123,-0.00867569,-0.00763893,0.00742207,-0.000717163,-0.0155975,0.820263,0.0101677,0.0106006,1763,1541,10.3721,-11.1123
546,-517,10.3538,10.8934,-0.00507651,-0.00507508,0.00453469,-0.000541103,-0.00961049,0.785477,0.00623446,0.0116252,1770,1541,10.3538,-10.8935
553,-517,10.3555,10.6553,-0.001905,-0.00310578,0.00200801,-0.000409542,-0.00460124,0.640129,0.0029405,0.0153796,1777,1541,10.3555,-10.6552
560,-517,10.3607,10.3984,0.00103548,-0.00113846,-0.000188228,0.00105165,-0.00115463,-0.0857337,0.00127426,0.0149326,1784,1541,10.3607,-10.3984
567,-517,10.3635,10.1709,0.00354433,0.000492661,-0.00185319,0.00441902,-0.000382024,-0.440988,0.00308126,0.0124147,1791,1541,10.3635,-10.1709
574,-517,10.3519,9.92322,0.00579151,0.00214695,-0.00334931,0.00778218,0.000156283,-0.536256,0.00513682,0.0134096,1798,1541,10.3519,-9.92321
581,-517,10.3319,9.67908,0.00795281,0.00364919,-0.00494063,0.0111899,0.000412117,-0.580019,0.00732642,0.014368,1805,1541,10.3319,-9.67908
588,-517,10.3483,9.43103,0.0104461,0.00498043,-0.00672864,0.0149757,0.000450842,-0.592498,0.00983699,0.0148092,1812,1541,10.3483,-9.43108
595,-517,10.3806,9.18713,0.0132184,0.00625485,-0.00865898,0.0190694,0.000403839,-0.594241,0.0125805,0.0190578,1819,1541,10.3806,-9.18712
602,-517,10.3062,8.94104,0.0162854,0.00757962,-0.0106706,0.0234568,0.000408225,-0.591735,0.0155036,0.0244528,1826,1541,10.3062,-8.94104
609,-517,10.5695,8.62952,0.0195241,0.0090058,-0.0127263,0.0280351,0.0004948,-0.58946,0.0185273,0.0442229,1833,1541,10.5695,-8.62956
616,-517,10.4036,8.47266,0,0,0,0,0,0,0,-1,1840,1541,10.4036,-8.47266
623,-517,11.6754,7.63049,0,0,0,0,0,0,0,-1,1847,1541,11.6754,-7.63054
630,-517,9.21375,7.09631,0,0,0,0,0,0,0,-1,1854,1541,9.21373,-7.09628
637,-517,11.5172,5.79822,0,0,0,0,0,0,0,-1,1861,1541,11.5173,-5.79825
644,-517,11.4232,3.30579,0,0,0,0,0,0,0,-1,1868,1541,11.4232,-3.30574
651,-517,0,0,0,0,0,0,0,0,0,-1,1875,1541,0,0
658,-517,0,0,0,0,0,0,0,0,0,-1,1882,1541,0,0
665,-517,0,0,0,0,0,0,0,0,0,-1,1889,1541,0,0
672,-517,0,0,0,0,0,0,0,0,0,-1,1896,1541,0,0
679,-517,0,0,0,0,0,0,0,0,0,-1,1903,1541,0,0
686,-517,0,0,0,0,0,0,0,0,0,-1,1910,1541,0,0
693,-517,0,0,0,0,0,0,0,0,0,-1,1917,1541,0,0
700,-517,0,0,0,0,0,0,0,0,0,-1,1924,1541,0,0
707,-517,0,0,0,0,0,0,0,0,0,-1,1931,1541,0,0
714,-517,0,0,0,0,0,0,0,0,0,-1,1938,1541,0,0
721,-517,0,0,0,0,0,0,0,0,0,-1,1945,1541,0,0
728,-517,0,0,0,0,0,0,0,0,0,-1,1952,1541,0,0
735,-517,0,0,0,0,0,0,0,0,0,-1,1959,1541,0,0
742,-517,0,0,0,0,0,0,0,0,0,-1,1966,1541,0,0
749,-517,0,0,0,0,0,0,0,0,0,-1,1973,1541,0,0
756,-517,0,0,0,0,0,0,0,0,0,-1,1980,1541,0,0
763,-517,0,0,0,0,0,0,0,0,0,-1,1987,1541,0,0
770,-517,0,0,0,0,0,0,0,0,0,-1,1994,1541,0,0
777,-517,0,0,0,0,0,0,0,0,0,-1,2001,1541,0,0
784,-517,0,0,0,0,0,0,0,0,0,-1,2008,1541,0,0
791,-517,0,0,0,0,0,0,0,0,0,-1,2015,1541,0,0
798,-517,0,0,0,0,0,0,0,0,0,-1,2022,1541,0,0
805,-517,0,0,0,0,0,0,0,0,0,-1,2029,1541,0,0
812,-517,0,0,0,0,0,0,0,0,0,-1,2036,1541,0,0
-700,-524,0,0,0,0,0,0,0,0,0,-1,524,1548,0,0
-693,-524,0,0,0,0,0,0,0,0,0,-1,531,1548,0,0
-686,-524,0,0,0,0,0,0,0,0,0,-1,538,1548,0,0
-679,-524,0,0,0,0,0,0,0,0,0,-1,545,1548,0,0
-672,-524,0,0,0,0,0,0,0,0,0,-1,552,1548,0,0
-665,-524,0,0,0,0,0,0,0,0,0,-1,559,1548,0,0
-658,-524,0,0,0,0,0,0,0,0,0,-1,566,1548,0,0
-651,-524,0,0,0,0,0,0,0,0,0,-1,573,1548,0,0
-644,-524,0,0,0,0,0,0,0,0,0,-1,580,1548,0,0
-637,-524,0,0,0,0,0,0,0,0,0,-1,587,1548,0,0
-630,-524,0,0,0,0,0,0,0,0,0,-1,594,1548,0,0
-623,-524,0,0,0,0,0,0,0,0,0,-1,601,1548,0,0
-616,-524,0,0,0,0,0,0,0,0,0,-1,608,1548,0,0
-609,-524,0,0,0,0,0,0,0,0,0,-1,615,1548,0,0
-602,-524,0,0,0,0,0,0,0,0,0,-1,622,1548,0,0
-595,-524,0,0,0,0,0,0,0,0,0,-1,629,1548,0,0
-588,-524,0,0,0,0,0,0,0,0,0,-1,636,1548,0,0
-581,-524,0,0,0,0,0,0,0,0,0,-1,643,1548,0,0
-574,-524,0,0,0,0,0,0,0,0,0,-1,650,1548,0,0
-567,-524,0,0,0,0,0,0,0,0,0,-1,657,1548,0,0
-560,-524,0,0,0,0,0,0,0,0,0,-1,664,1548,0,0
-553,-524,0,0,0,0,0,0,0,0,0,-1,671,1548,0,0
-546,-524,0,0,0,0,0,0,0,0,0,-1,678,1548,0,0
-539,-524,0,0,0,0,0,0,0,0,0,-1,685,1548,0,0
-532,-524,0,0,0,0,0,0,0,0,0,-1,692,1548,0,0
-525,-524,-0.215515,3.97131,0,0,0,0,0,0,0,-1,699,1548,-0.215501,-3.97136
-518,-524,-0.806274,4.35632,0,0,0,0,0,0,0,-1,706,1548,-0.806259,-4.35633
-511,-524,-1.08301,4.29004,0,0,0,0,0,0,0,-1,713,1548,-1.08301,-4.29006
-504,-524,-1.28821,3.98145,0,0,0,0,0,0,0,-1,720,1548,-1.28822,-3.98151
-497,-524,-1.04449,6.13025,0,0,0,0,0,0,0,-1,727,1548,-1.04447,-6.13028
-490,-524,-0.944824,6.43604,0.00843846,0.00704318,0.0197377,0.0274909,-0.0120092,0.767733,0.023382,0.0460184,734,1548,-0.944804,-6.43604
-483,-524,-1.06299,6.38989,0.00709467,0.00632032,0.0166037,0.0233157,-0.00990074,0.773741,0.019692,0.0473353,741,1548,-1.063,-6.38994
-476,-524,-0.886597,7.09436,0.00600148,0.00567742,0.0137544,0.0195948,-0.00791594,0.779508,0.0163535,0.0451948,748,1548,-0.886582,-7.09434
-469,-524,-0.688782,7.42078,0.00508037,0.00509828,0.0111435,0.0162328,-0.00605415,0.7858,0.0133072,0.0328123,755,1548,-0.688784,-7.4208
-462,-524,-0.48877,7.62354,0.00428911,0.00447829,0.00883624,0.0132204,-0.00445305,0.79075,0.0106141,0.025438,762,1548,-0.488779,-7.62348
-455,-524,-0.622559,7.91858,0.00377014,0.00388989,0.00689473,0.010725,-0.00306497,0.78974,0.00836106,0.0184928,769,1548,-0.622562,-7.91859
-448,-524,-0.615662,8.19287,0.00329276,0.00331916,0.00528868,0.00859465,-0.00198274,0.786646,0.0064924,0.0125467,776,1548,-0.615671,-8.19291
-441,-524,-0.625244,8.4458,0.00304376,0.00278534,0.00403003,0.00694665,-0.00111755,0.769372,0.00504505,0.0103444,783,1548,-0.625265,-8.44585
-434,-524,-0.597046,8.68542,0.00294897,0.00200231,0.00296651,0.00547967,-0.000528389,0.706285,0.00384138,0.0127552,790,1548,-0.597029,-8.68544
-427,-524,-0.588745,8.95166,0.00299358,0.00122476,0.00201802,0.00431248,-9.41376e-05,0.578876,0.00290687,0.0134542,797,1548,-0.588739,-8.95171
-420,-524,-0.616272,9.22644,0.00310222,0.000354595,0.00116233,0.00352796,-7.11416e-05,0.351102,0.00237604,0.0107327,804,1548,-0.616292,-9.22639
-413,-524,-0.612915,9.51038,0.00308028,-0.000760574,0.000495148,0.00314309,-0.00082338,0.126168,0.00241706,0.0101092,811,1548,-0.612921,-9.51037
-406,-524,-0.609131,9.78979,0.00304401,-0.00197837,-0.000168259,0.00304964,-0.001984,-0.0334519,0.0029278,0.010923,818,1548,-0.609123,-9.78983
-399,-524,-0.617126,10.0386,0.00311103,-0.00337051,-0.000842696,0.0032188,-0.00347828,-0.127198,0.00386752,0.00911261,825,1548,-0.617112,-10.0386
-392,-524,-0.612,10.2704,0.00321413,-0.00468759,-0.00173477,0.00357821,-0.00505168,-0.206871,0.00500662,0.0097932,832,1548,-0.612,-10.2703
-385,-524,-0.618774,10.5551,0.00343647,-0.0062371,-0.00275736,0.00416722,-0.00696786,-0.259065,0.00649627,0.0118242,839,1548,-0.618752,-10.5551
-378,-524,-0.581665,10.9347,0.00364812,-0.00800533,-0.00404037,0.0049119,-0.00926911,-0.303148,0.00831524,0.023776,846,1548,-0.58164,-10.9347
-371,-524,-0.446533,11.1483,0.00393442,-0.00983987,-0.00544967,0.00582974,-0.0117352,-0.334701,0.0103304,0.0486299,853,1548,-0.446519,-11.1483
-364,-524,-0.46228,10.9203,0.00340943,-0.00956045,-0.00379523,0.00443836,-0.0105894,-0.264747,0.00891524,0.0480494,860,1548,-0.462258,-10.9203
-357,-524,-0.859985,11.1569,0,0,0,0,0,0,0,-1,867,1548,-0.859957,-11.1568
-350,-524,-1.18591,11.6433,0,0,0,0,0,0,0,-1,874,1548,-1.18592,-11.6433
-343,-524,-1.2887,6.94836,0,0,0,0,0,0,0,-1,881,1548,-1.28868,-6.94831
-336,-524,-0.817383,11.87,0,0,0,0,0,0,0,-1,888,1548,-0.817363,-11.87
-329,-524,0.326172,10.9512,0,0,0,0,0,0,0,-1,895,1548,0.326178,-10.9511
-322,-524,0.915771,11.7336,0,0,0,0,0,0,0,-1,902,1548,0.915752,-11.7336
-315,-524,6.14465,15.038,0,0,0,0,0,0,0,-1,909,1548,6.14467,-15.0379
-308,-524,5.88452,15.6357,0,0,0,0,0,0,0,-1,916,1548,5.88455,-15.6358
-301,-524,4.10406,15.9458,0,0,0,0,0,0,0,-1,923,1548,4.10409,-15.9458
-294,-524,-1.52515,9.05408,0,0,0,0,0,0,0,-1,930,1548,-1.52512,-9.05411
-287,-524,-1.52618,9.99182,0,0,0,0,0,0,0,-1,937,1548,-1.52619,-9.99178
-280,-524,-1.6156,10.4597,0,0,0,0,0,0,0,-1,944,1548,-1.6156,-10.4597
-273,-524,0,0,0,0,0,0,0,0,0,-1,951,1548,0,0
-266,-524,0,0,0,0,0,0,0,0,0,-1,958,1548,0,0
-259,-524,0,0,0,0,0,0,0,0,0,-1,965,1548,0,0
-252,-524,0,0,0,0,0,0,0,0,0,-1,972,1548,0,0
-245,-524,0,0,0,0,0,0,0,0,0,-1,979,1548,0,0
-238,-524,0,0,0,0,0,0,0,0,0,-1,986,1548,0,0
-231,-524,0,0,0,0,0,0,0,0,0,-1,993,1548,0,0
-224,-524,0,0,0,0,0,0,0,0,0,-1,1000,1548,0,0
-217,-524,0,0,0,0,0,0,0,0,0,-1,1007,1548,0,0
-210,-524,0,0,0,0,0,0,0,0,0,-1,1014,1548,0,0
-203,-524,0,0,0,0,0,0,0,0,0,-1,1021,1548,0,0
-196,-524,0,0,0,0,0,0,0,0,0,-1,1028,1548,0,0
-189,-524,0,0,0,0,0,0,0,0,0,-1,1035,1548,0,0
-182,-524,0,0,0,0,0,0,0,0,0,-1,1042,1548,0,0
-175,-524,0,0,0,0,0,0,0,0,0,-1,1049,1548,0,0
-168,-524,0,0,0,0,0,0,0,0,0,-1,1056,1548,0,0
-161,-524,0,0,0,0,0,0,0,0,0,-1,1063,1548,0,0
-154,-524,0,0,0,0,0,0,0,0,0,-1,1070,1548,0,0
-147,-524,0,0,0,0,0,0,0,0,0,-1,1077,1548,0,0
-140,-524,0,0,0,0,0,0,0,0,0,-1,1084,1548,0,0
-133,-524,0,0,0,0,0,0,0,0,0,-1,1091,1548,0,0
-126,-524,0,0,0,0,0,0,0,0,0,-1,1098,1548,0,0
-119,-524,0,0,0,0,0,0,0,0,0,-1,1105,1548,0,0
-112,-524,0,0,0,0,0,0,0,0,0,-1,1112,1548,0,0
-105,-524,0,0,0,0,0,0,0,0,0,-1,1119,1548,0,0
-98,-524,0,0,0,0,0,0,0,0,0,-1,1126,1548,0,0
-91,-524,0,0,0,0,0,0,0,0,0,-1,1133,1548,0,0
-84,-524,0,0,0,0,0,0,0,0,0,-1,1140,1548,0,0
-77,-524,0,0,0,0,0,0,0,0,0,-1,1147,1548,0,0
-70,-524,0,0,0,0,0,0,0,0,0,-1,1154,1548,0,0
-63,-524,0,0,0,0,0,0,0,0,0,-1,1161,1548,0,0
-56,-524,0,0,0,0,0,0,0,0,0,-1,1168,1548,0,0
-49,-524,0,0,0,0,0,0,0,0,0,-1,1175,1548,0,0
-42,-524,0,0,0,0,0,0,0,0,0,-1,1182,1548,0,0
-35,-524,0,0,0,0,0,0,0,0,0,-1,1189,1548,0,0
-28,-524,0,0,0,0,0,0,0,0,0,-1,1196,1548,0,0
-21,-524,0,0,0,0,0,0,0,0,0,-1,1203,1548,0,0
-14,-524,0,0,0,0,0,0,0,0,0,-1,1210,1548,0,0
-7,-524,0,0,0,0,0,0,0,0,0,-1,1217,1548,0,0
0,-524,0,0,0,0,0,0,0,0,0,-1,1224,1548,0,0
7,-524,0,0,0,0,0,0,0,0,0,-1,1231,1548,0,0
14,-524,0,0,0,0,0,0,0,0,0,-1,1238,1548,0,0
21,-524,0,0,0,0,0,0,0,0,0,-1,1245,1548,0,0
28,-524,0,0,0,0,0,0,0,0,0,-1,1252,1548,0,0
35,-524,0,0,0,0,0,0,0,0,0,-1,1259,1548,0,0
42,-524,0,0,0,0,0,0,0,0,0,-1,1266,1548,0,0
49,-524,0,0,0,0,0,0,0,0,0,-1,1273,1548,0,0
56,-524,0,0,0,0,0,0,0,0,0,-1,1280,1548,0,0
63,-524,0,0,0,0,0,0,0,0,0,-1,1287,1548,0,0
70,-524,0,0,0,0,0,0,0,0,0,-1,1294,1548,0,0
77,-524,0,0,0,0,0,0,0,0,0,-1,1301,1548,0,0
84,-524,0,0,0,0,0,0,0,0,0,-1,1308,1548,0,0
91,-524,0,0,0,0,0,0,0,0,0,-1,1315,1548,0,0
98,-524,0,0,0,0,0,0,0,0,0,-1,1322,1548,0,0
105,-524,0,0,0,0,0,0,0,0,0,-1,1329,1548,0,0
112,-524,0,0,0,0,0,0,0,0,0,-1,1336,1548,0,0
119,-524,0,0,0,0,0,0,0,0,0,-1,1343,1548,0,0
126,-524,0,0,0,0,0,0,0,0,0,-1,1350,1548,0,0
133,-524,0,0,0,0,0,0,0,0,0,-1,1357,1548,0,0
140,-524,0,0,0,0,0,0,0,0,0,-1,1364,1548,0,0
147,-524,0,0,0,0,0,0,0,0,0,-1,1371,1548,0,0
154,-524,0,0,0,0,0,0,0,0,0,-1,1378,1548,0,0
161,-524,0,0,0,0,0,0,0,0,0,-1,1385,1548,0,0
168,-524,0,0,0,0,0,0,0,0,0,-1,1392,1548,0,0
175,-524,0,0,0,0,0,0,0,0,0,-1,1399,1548,0,0
182,-524,0,0,0,0,0,0,0,0,0,-1,1406,1548,0,0
189,-524,0,0,0,0,0,0,0,0,0,-1,1413,1548,0,0
196,-524,0,0,0,0,0,0,0,0,0,-1,1420,1548,0,0
203,-524,0,0,0,0,0,0,0,0,0,-1,1427,1548,0,0
210,-524,0,0,0,0,0,0,0,0,0,-1,1434,1548,0,0
217,-524,0,0,0,0,0,0,0,0,0,-1,1441,1548,0,0
224,-524,0,0,0,0,0,0,0,0,0,-1,1448,1548,0,0
231,-524,0,0,0,0,0,0,0,0,0,-1,1455,1548,0,0
238,-524,0,0,0,0,0,0,0,0,0,-1,1462,1548,0,0
245,-524,0,0,0,0,0,0,0,0,0,-1,1469,1548,0,0
252,-524,0,0,0,0,0,0,0,0,0,-1,1476,1548,0,0
259,-524,0,0,0,0,0,0,0,0,0,-1,1483,1548,0,0
266,-524,0,0,0,0,0,0,0,0,0,-1,1490,1548,0,0
273,-524,0,0,0,0,0,0,0,0,0,-1,1497,1548,0,0
280,-524,0,0,0,0,0,0,0,0,0,-1,1504,1548,0,0
287,-524,0,0,0,0,0,0,0,0,0,-1,1511,1548,0,0
294,-524,0,0,0,0,0,0,0,0,0,-1,1518,1548,0,0
301,-524,0,0,0,0,0,0,0,0,0,-1,1525,1548,0,0
308,-524,0,0,0,0,0,0,0,0,0,-1,1532,1548,0,0
315,-524,0,0,0,0,0,0,0,0,0,-1,1539,1548,0,0
322,-524,0,0,0,0,0,0,0,0,0,-1,1546,1548,0,0
329,-524,0,0,0,0,0,0,0,0,0,-1,1553,1548,0,0
336,-524,0,0,0,0,0,0,0,0,0,-1,1560,1548,0,0
343,-524,0,0,0,0,0,0,0,0,0,-1,1567,1548,0,0
350,-524,0,0,0,0,0,0,0,0,0,-1,1574,1548,0,0
357,-524,0,0,0,0,0,0,0,0,0,-1,1581,1548,0,0
364,-524,0,0,0,0,0,0,0,0,0,-1,1588,1548,0,0
371,-524,0,0,0,0,0,0,0,0,0,-1,1595,1548,0,0
378,-524,0,0,0,0,0,0,0,0,0,-1,1602,1548,0,0
385,-524,0,0,0,0,0,0,0,0,0,-1,1609,1548,0,0
392,-524,0,0,0,0,0,0,0,0,0,-1,1616,1548,0,0
399,-524,8.81848,5.05774,0,0,0,0,0,0,0,-1,1623,1548,8.81843,-5.05769
406,-524,8.64294,6.06799,0,0,0,0,0,0,0,-1,1630,1548,8.6429,-6.06805
413,-524,11.677,6.41858,0,0,0,0,0,0,0,-1,1637,1548,11.677,-6.41864
420,-524,11.4913,6.36401,0,0,0,0,0,0,0,-1,1644,1548,11.4913,-6.36402
427,-524,7.68335,6.17249,0,0,0,0,0,0,0,-1,1651,1548,7.68341,-6.17245
434,-524,10.432,11.6801,0,0,0,0,0,0,0,-1,1658,1548,10.432,-11.68
441,-524,8.78552,4.12305,0,0,0,0,0,0,0,-1,1665,1548,8.78553,-4.12301
448,-524,14.1854,4.78674,0,0,0,0,0,0,0,-1,1672,1548,14.1854,-4.78674
455,-524,12.4784,3.65576,0,0,0,0,0,0,0,-1,1679,1548,12.4784,-3.65572
462,-524,11.9464,4.95581,0,0,0,0,0,0,0,-1,1686,1548,11.9464,-4.95586
469,-524,12.1188,7.98254,0,0,0,0,0,0,0,-1,1693,1548,12.1187,-7.98256
476,-524,10.7104,8.32092,0,0,0,0,0,0,0,-1,1700,1548,10.7104,-8.32087
483,-524,11.4121,10.9104,0,0,0,0,0,0,0,-1,1707,1548,11.4121,-10.9104
490,-524,10.774,11.5038,-0.0462025,-0.0344491,0.0439243,0.00398992,-0.0846415,0.851899,0.0578036,0.0440571,1714,1548,10.7741,-11.5037
497,-524,10.2374,12.168,-0.037836,-0.0274847,0.0354319,0.00314761,-0.0684683,0.857921,0.0467301,0.0328547,1721,1548,10.2374,-12.168
504,-524,10.1166,12.1617,-0.0303021,-0.0218657,0.0282355,0.00246498,-0.0546328,0.859547,0.0372707,0.0189545,1728,1548,10.1166,-12.1617
511,-524,10.0688,12.0316,-0.0241323,-0.0170513,0.0221226,0.00181233,-0.0429959,0.864745,0.0292868,0.0181316,1735,1548,10.0689,-12.0316
518,-524,10.1228,11.7823,-0.0186753,-0.0131782,0.016494,0.000794703,-0.0326481,0.867959,0.0220351,0.0158192,1742,1548,10.1228,-11.7824
525,-524,10.1279,11.576,-0.0138937,-0.00993789,0.0120786,0.000323639,-0.0241552,0.866555,0.0162125,0.0134701,1749,1548,10.1279,-11.5761
532,-524,10.1288,11.3424,-0.00975462,-0.00720145,0.00840634,2.468e-05,-0.0169808,0.860752,0.0113287,0.00955502,1756,1548,10.1288,-11.3424
539,-524,10.1207,11.0994,-0.00632666,-0.00515135,0.00565202,-5.65234e-05,-0.0114215,0.837198,0.00759555,0.0100199,1763,1548,10.1207,-11.0993
546,-524,10.1226,10.8798,-0.00317971,-0.00301466,0.00310007,3.9828e-06,-0.00619835,0.798706,0.00413356,0.012695,1770,1548,10.1226,-10.8797
553,-524,10.1342,10.6403,-0.000288996,-0.00127998,0.000790264,0.000148265,-0.00171724,0.505381,0.00119731,0.0212559,1777,1548,10.1341,-10.6403
560,-524,10.1246,10.3967,0.00248313,0.000476076,-0.00124698,0.00308024,-0.00012103,-0.446578,0.002095,0.0291857,1784,1548,10.1246,-10.3967
567,-524,10.1206,10.1735,0.00495905,0.00198835,-0.00289782,0.00673002,0.000217378,-0.54857,0.004416,0.0174264,1791,1548,10.1206,-10.1735
574,-524,10.1251,9.92627,0.00742563,0.00356354,-0.00458788,0.0104723,0.000516876,-0.586201,0.00681577,0.0128123,1798,1548,10.1252,-9.92633
581,-524,10.1158,9.6814,0.0101259,0.00509711,-0.00648558,0.0145674,0.00065558,-0.600473,0.00950064,0.013797,1805,1548,10.1159,-9.68136
588,-524,10.1333,9.42664,0.0133894,0.0065829,-0.00877512,0.0193981,0.000574193,-0.600413,0.012745,0.0150738,1812,1548,10.1333,-9.42663
595,-524,10.126,9.19141,0.0172002,0.00822463,-0.0114311,0.0249929,0.000431894,-0.598346,0.0165199,0.0173316,1819,1548,10.126,-9.19139
602,-524,10.2889,8.84399,0.0216434,0.0101356,-0.014371,0.0313697,0.000409392,-0.59498,0.020778,0.0336366,1826,1548,10.2889,-8.84401
609,-524,10.7085,8.38147,0.0266157,0.0123727,-0.0176684,0.0385439,0.000444598,-0.593826,0.025549,0.0493742,1833,1548,10.7085,-8.38148
616,-524,11.0361,7.9657,0,0,0,0,0,0,0,-1,1840,1548,11.0361,-7.96565
623,-524,9.38452,5.15356,0,0,0,0,0,0,0,-1,1847,1548,9.38456,-5.15359
630,-524,11.0541,3.57434,0,0,0,0,0,0,0,-1,1854,1548,11.0541,-3.57438
637,-524,11.6067,3.20728,0,0,0,0,0,0,0,-1,1861,1548,11.6067,-3.20724
644,-524,12.2134,0.727173,0,0,0,0,0,0,0,-1,1868,1548,12.2134,-0.727222
651,-524,0,0,0,0,0,0,0,0,0,-1,1875,1548,0,0
658,-524,0,0,0,0,0,0,0,0,0,-1,1882,1548,0,0
665,-524,0,0,0,0,0,0,0,0,0,-1,1889,1548,0,0
672,-524,0,0,0,0,0,0,0,0,0,-1,1896,1548,0,0
679,-524,0,0,0,0,0,0,0,0,0,-1,1903,1548,0,0
686,-524,0,0,0,0,0,0,0,0,0,-1,1910,1548,0,0
693,-524,0,0,0,0,0,0,0,0,0,-1,1917,1548,0,0
700,-524,0,0,0,0,0,0,0,0,0,-1,1924,1548,0,0
707,-524,0,0,0,0,0,0,0,0,0,-1,1931,1548,0,0
714,-524,0,0,0,0,0,0,0,0,0,-1,1938,1548,0,0
721,-524,0,0,0,0,0,0,0,0,0,-1,1945,1548,0,0
728,-524,0,0,0,0,0,0,0,0,0,-1,1952,1548,0,0
735,-524,0,0,0,0,0,0,0,0,0,-1,1959,1548,0,0
742,-524,0,0,0,0,0,0,0,0,0,-1,1966,1548,0,0
749,-524,0,0,0,0,0,0,0,0,0,-1,1973,1548,0,0
756,-524,0,0,0,0,0,0,0,0,0,-1,1980,1548,0,0
763,-524,0,0,0,0,0,0,0,0,0,-1,1987,1548,0,0
770,-524,0,0,0,0,0,0,0,0,0,-1,1994,1548,0,0
777,-524,0,0,0,0,0,0,0,0,0,-1,2001,1548,0,0
784,-524,0,0,0,0,0,0,0,0,0,-1,2008,1548,0,0
791,-524,0,0,0,0,0,0,0,0,0,-1,2015,1548,0,0
798,-524,0,0,0,0,0,0,0,0,0,-1,2022,1548,0,0
805,-524,0,0,0,0,0,0,0,0,0,-1,2029,1548,0,0
812,-524,0,0,0,0,0,0,0,0,0,-1,2036,1548,0,0
-700,-531,0,0,0,0,0,0,0,0,0,-1,524,1555,0,0
-693,-531,0,0,0,0,0,0,0,0,0,-1,531,1555,0,0
-686,-531,0,0,0,0,0,0,0,0,0,-1,538,1555,0,0
-679,-531,0,0,0,0,0,0,0,0,0,-1,545,1555,0,0
-672,-531,0,0,0,0,0,0,0,0,0,-1,552,1555,0,0
-665,-531,0,0,0,0,0,0,0,0,0,-1,559,1555,0,0
-658,-531,0,0,0,0,0,0,0,0,0,-1,566,1555,0,0
-651,-531,0,0,0,0,0,0,0,0,0,-1,573,1555,0,0
-644,-531,0,0,0,0,0,0,0,0,0,-1,580,1555,0,0
-637,-531,0,0,0,0,0,0,0,0,0,-1,587,1555,0,0
-630,-531,0,0,0,0,0,0,0,0,0,-1,594,1555,0,0
-623,-531,0,0,0,0,0,0,0,0,0,-1,601,1555,0,0
-616,-531,0,0,0,0,0,0,0,0,0,-1,608,1555,0,0
-609,-531,0,0,0,0,0,0,0,0,0,-1,615,1555,0,0
-602,-531,0,0,0,0,0,0,0,0,0,-1,622,1555,0,0
-595,-531,0,0,0,0,0,0,0,0,0,-1,629,1555,0,0
-588,-531,0,0,0,0,0,0,0,0,0,-1,636,1555,0,0
-581,-531,0,0,0,0,0,0,0,0,0,-1,643,1555,0,0
-574,-531,0,0,0,0,0,0,0,0,0,-1,650,1555,0,0
-567,-531,0,0,0,0,0,0,0,0,0,-1,657,1555,0,0
-560,-531,0,0,0,0,0,0,0,0,0,-1,664,1555,0,0
-553,-531,0,0,0,0,0,0,0,0,0,-1,671,1555,0,0
-546,-531,0,0,0,0,0,0,0,0,0,-1,678,1555,0,0
-539,-531,0,0,0,0,0,0,0,0,0,-1,685,1555,0,0
-532,-531,0,0,0,0,0,0,0,0,0,-1,692,1555,0,0
-525,-531,0,0,0,0,0,0,0,0,0,-1,699,1555,0,0
-518,-531,-1.63983,4.03821,0,0,0,0,0,0,0,-1,706,1555,-1.63982,-4.03821
-511,-531,-2.9682,8.07483,0,0,0,0,0,0,0,-1,713,1555,-2.9682,-8.07479
-504,-531,-2.95978,0.557861,0,0,0,0,0,0,0,-1,720,1555,-2.95978,-0.557917
-497,-531,-1.3255,6.05652,0,0,0,0,0,0,0,-1,727,1555,-1.32549,-6.05647
-490,-531,-1.25885,6.3335,0.0110944,0.00893531,0.0261037,0.0361409,-0.0161112,0.764732,0.0308977,0.0494586,734,1555,-1.25883,-6.33346
-483,-531,-1.16626,6.58862,0.00974733,0.00873528,0.022075,0.0313221,-0.0128395,0.773939,0.0262305,0.0496167,741,1555,-1.16628,-6.58868
-476,-531,-0.955139,7.08618,0.00849782,0.00814389,0.0183709,0.0266926,-0.0100509,0.780582,0.0219272,0.0472552,748,1555,-0.955129,-7.08616
-469,-531,-0.766541,7.40564,0.00735949,0.00740304,0.0148639,0.0222452,-0.00748267,0.786131,0.0178549,0.0446617,755,1555,-0.76657,-7.4057
-462,-531,-0.352295,7.75916,0.00624141,0.00666045,0.0117412,0.018194,-0.00529218,0.79432,0.0142254,0.0437901,762,1555,-0.352319,-7.75915
-455,-531,-0.315552,7.96594,0.00533927,0.00578016,0.00917319,0.0147356,-0.00361612,0.797412,0.0112249,0.0307269,769,1555,-0.315579,-7.96595
-448,-531,-0.318665,8.19092,0.00448846,0.00487136,0.0070176,0.0117001,-0.0023403,0.799035,0.00868592,0.013386,776,1555,-0.318642,-8.19092
-441,-531,-0.351746,8.44348,0.00386925,0.00403308,0.0052982,0.00924999,-0.00134767,0.793128,0.00666148,0.0113008,783,1555,-0.351743,-8.4435
-434,-531,-0.341431,8.72107,0.00346215,0.00307709,0.00388973,0.00716411,-0.000624868,0.76067,0.0049974,0.0120029,790,1555,-0.341442,-8.7211
-427,-531,-0.334167,8.98706,0.0031839,0.00222251,0.00267373,0.0054198,-1.3395e-05,0.696457,0.00361768,0.0135989,797,1555,-0.33416,-8.98707
-420,-531,-0.347961,9.25342,0.00297986,0.00130091,0.00166252,0.00400283,0.00027794,0.551601,0.0025809,0.0120089,804,1555,-0.347978,-9.25343
-413,-531,-0.35083,9.51257,0.00271648,0.000211224,0.000904594,0.00300896,-8.12591e-05,0.312721,0.0020336,0.0102094,811,1555,-0.350824,-9.51256
-406,-531,-0.348633,9.76807,0.00249509,-0.000920448,0.000219498,0.00250914,-0.000934496,0.063914,0.0020563,0.0110906,818,1555,-0.348607,-9.76801
-399,-531,-0.353882,10.0237,0.002409,-0.00224918,-0.000457543,0.00245351,-0.0022937,-0.0969885,0.00274132,0.0134088,825,1555,-0.353899,-10.0237
-392,-531,-0.351929,10.2646,0.00238748,-0.00338212,-0.00129818,0.00266612,-0.00366075,-0.211429,0.00366784,0.0171224,832,1555,-0.351907,-10.2647
-385,-531,-0.363892,10.527,0.00248725,-0.00461227,-0.00218652,0.00310663,-0.00523164,-0.276038,0.00486594,0.014607,839,1555,-0.363869,-10.527
-378,-531,-0.374573,10.7791,0.00263713,-0.00598538,-0.00322602,0.0037105,-0.00705875,-0.321199,0.006317,0.0121075,846,1555,-0.374561,-10.7791
-371,-531,-0.32489,11.1008,0.00289667,-0.00729572,-0.00434192,0.00449551,-0.00889456,-0.352824,0.0078686,0.0184971,853,1555,-0.324879,-11.1009
-364,-531,-0.268433,11.3684,0.00256442,-0.0069313,-0.00300707,0.00343658,-0.00780347,-0.282292,0.0066507,0.0382146,860,1555,-0.268458,-11.3684
-357,-531,-0.55426,11.3254,0.00130536,-0.00455195,0.000425967,0.00133617,-0.00458277,0.0722175,0.00358457,0.0425545,867,1555,-0.554269,-11.3254
-350,-531,-0.743164,11.3552,0,0,0,0,0,0,0,-1,874,1555,-0.743138,-11.3553
-343,-531,-0.91156,12.2483,0,0,0,0,0,0,0,-1,881,1555,-0.911553,-12.2483
-336,-531,-0.41095,11.99,0,0,0,0,0,0,0,-1,888,1555,-0.410958,-11.99
-329,-531,-0.281433,12.1613,0,0,0,0,0,0,0,-1,895,1555,-0.281427,-12.1612
-322,-531,5.37701,14.1537,0,0,0,0,0,0,0,-1,902,1555,5.37702,-14.1537
-315,-531,5.09778,14.6604,-0.0249771,0.0674083,0.0616144,0.0982227,-0.0557915,1.10705,0.090038,0.0490348,909,1555,5.09778,-14.6605
-308,-531,4.86176,15.2081,-0.0333665,0.0962992,0.0793879,0.133964,-0.0710311,1.12781,0.120199,0.0459629,916,1555,4.86179,-15.2081
-301,-531,4.62329,15.7598,0,0,0,0,0,0,0,-1,923,1555,4.62328,-15.7598
-294,-531,-1.3244,8.1825,0,0,0,0,0,0,0,-1,930,1555,-1.3244,-8.18251
-287,-531,-1.41095,9.08215,0,0,0,0,0,0,0,-1,937,1555,-1.41095,-9.08216
-280,-531,-2.0166,16.6165,0,0,0,0,0,0,0,-1,944,1555,-2.01659,-16.6165
-273,-531,-3.34735,17.3546,0,0,0,0,0,0,0,-1,951,1555,-3.34733,-17.3546
-266,-531,-4.58264,18.4968,0,0,0,0,0,0,0,-1,958,1555,-4.58265,-18.4969
-259,-531,0,0,0,0,0,0,0,0,0,-1,965,1555,0,0
-252,-531,0,0,0,0,0,0,0,0,0,-1,972,1555,0,0
-245,-531,0,0,0,0,0,0,0,0,0,-1,979,1555,0,0
-238,-531,0,0,0,0,0,0,0,0,0,-1,986,1555,0,0
-231,-531,0,0,0,0,0,0,0,0,0,-1,993,1555,0,0
-224,-531,0,0,0,0,0,0,0,0,0,-1,1000,1555,0,0
-217,-531,0,0,0,0,0,0,0,0,0,-1,1007,1555,0,0
-210,-531,0,0,0,0,0,0,0,0,0,-1,1014,1555,0,0
-203,-531,0,0,0,0,0,0,0,0,0,-1,1021,1555,0,0
-196,-531,0,0,0,0,0,0,0,0,0,-1,1028,1555,0,0
-189,-531,0,0,0,0,0,0,0,0,0,-1,1035,1555,0,0
-182,-531,0,0,0,0,0,0,0,0,0,-1,1042,1555,0,0
-175,-531,0,0,0,0,0,0,0,0,0,-1,1049,1555,0,0
-168,-531,0,0,0,0,0,0,0,0,0,-1,1056,1555,0,0
-161,-531,0,0,0,0,0,0,0,0,0,-1,1063,1555,0,0
-154,-531,0,0,0,0,0,0,0,0,0,-1,1070,1555,0,0
-147,-531,0,0,0,0,0,0,0,0,0,-1,1077,1555,0,0
-140,-531,0,0,0,0,0,0,0,0,0,-1,1084,1555,0,0
-133,-531,0,0,0,0,0,0,0,0,0,-1,1091,1555,0,0
-126,-531,0,0,0,0,0,0,0,0,0,-1,1098,1555,0,0
-119,-531,0,0,0,0,0,0,0,0,0,-1,1105,1555,0,0
-112,-531,0,0,0,0,0,0,0,0,0,-1,1112,1555,0,0
-105,-531,0,0,0,0,0,0,0,0,0,-1,1119,1555,0,0
-98,-531,0,0,0,0,0,0,0,0,0,-1,1126,1555,0,0
-91,-531,0,0,0,0,0,0,0,0,0,-1,1133,1555,0,0
-84,-531,0,0,0,0,0,0,0,0,0,-1,1140,1555,0,0
-77,-531,0,0,0,0,0,0,0,0,0,-1,1147,1555,0,0
-70,-531,0,0,0,0,0,0,0,0,0,-1,1154,1555,0,0
-63,-531,0,0,0,0,0,0,0,0,0,-1,1161,1555,0,0
-56,-531,0,0,0,0,0,0,0,0,0,-1,1168,1555,0,0
-49,-531,0,0,0,0,0,0,0,0,0,-1,1175,1555,0,0
-42,-531,0,0,0,0,0,0,0,0,0,-1,1182,1555,0,0
-35,-531,0,0,0,0,0,0,0,0,0,-1,1189,1555,0,0
-28,-531,0,0,0,0,0,0,0,0,0,-1,1196,1555,0,0
-21,-531,0,0,0,0,0,0,0,0,0,-1,1203,1555,0,0
-14,-531,0,0,0,0,0,0,0,0,0,-1,1210,1555,0,0
-7,-531,0,0,0,0,0,0,0,0,0,-1,1217,1555,0,0
0,-531,0,0,0,0,0,0,0,0,0,-1,1224,1555,0,0
7,-531,0,0,0,0,0,0,0,0,0,-1,1231,1555,0,0
14,-531,0,0,0,0,0,0,0,0,0,-1,1238,1555,0,0
21,-531,0,0,0,0,0,0,0,0,0,-1,1245,1555,0,0
28,-531,0,0,0,0,0,0,0,0,0,-1,1252,1555,0,0
35,-531,0,0,0,0,0,0,0,0,0,-1,1259,1555,0,0
42,-531,0,0,0,0,0,0,0,0,0,-1,1266,1555,0,0
49,-531,0,0,0,0,0,0,0,0,0,-1,1273,1555,0,0
56,-531,0,0,0,0,0,0,0,0,0,-1,1280,1555,0,0
63,-531,0,0,0,0,0,0,0,0,0,-1,1287,1555,0,0
70,-531,0,0,0,0,0,0,0,0,0,-1,1294,1555,0,0
77,-531,0,0,0,0,0,0,0,0,0,-1,1301,1555,0,0
84,-531,0,0,0,0,0,0,0,0,0,-1,1308,1555,0,0
91,-531,0,0,0,0,0,0,0,0,0,-1,1315,1555,0,0
98,-531,0,0,0,0,0,0,0,0,0,-1,1322,1555,0,0
105,-531,0,0,0,0,0,0,0,0,0,-1,1329,1555,0,0
112,-531,0,0,0,0,0,0,0,0,0,-1,1336,1555,0,0
119,-531,0,0,0,0,0,0,0,0,0,-1,1343,1555,0,0
126,-531,0,0,0,0,0,0,0,0,0,-1,1350,1555,0,0
133,-531,0,0,0,0,0,0,0,0,0,-1,1357,1555,0,0
140,-531,0,0,0,0,0,0,0,0,0,-1,1364,1555,0,0
147,-531,0,0,0,0,0,0,0,0,0,-1,1371,1555,0,0
154,-531,0,0,0,0,0,0,0,0,0,-1,1378,1555,0,0
161,-531,0,0,0,0,0,0,0,0,0,-1,1385,1555,0,0
168,-531,0,0,0,0,0,0,0,0,0,-1,1392,1555,0,0
175,-531,0,0,0,0,0,0,0,0,0,-1,1399,1555,0,0
182,-531,0,0,0,0,0,0,0,0,0,-1,1406,1555,0,0
189,-531,0,0,0,0,0,0,0,0,0,-1,1413,1555,0,0
196,-531,0,0,0,0,0,0,0,0,0,-1,1420,1555,0,0
203,-531,0,0,0,0,0,0,0,0,0,-1,1427,1555,0,0
210,-531,0,0,0,0,0,0,0,0,0,-1,1434,1555,0,0
217,-531,0,0,0,0,0,0,0,0,0,-1,1441,1555,0,0
224,-531,0,0,0,0,0,0,0,0,0,-1,1448,1555,0,0
231,-531,0,0,0,0,0,0,0,0,0,-1,1455,1555,0,0
238,-531,0,0,0,0,0,0,0,0,0,-1,1462,1555,0,0
245,-531,0,0,0,0,0,0,0,0,0,-1,1469,1555,0,0
252,-531,0,0,0,0,0,0,0,0,0,-1,1476,1555,0,0
259,-531,0,0,0,0,0,0,0,0,0,-1,1483,1555,0,0
266,-531,0,0,0,0,0,0,0,0,0,-1,1490,1555,0,0
273,-531,0,0,0,0,0,0,0,0,0,-1,1497,1555,0,0
280,-531,0,0,0,0,0,0,0,0,0,-1,1504,1555,0,0
287,-531,0,0,0,0,0,0,0,0,0,-1,1511,1555,0,0
294,-531,0,0,0,0,0,0,0,0,0,-1,1518,1555,0,0
301,-531,0,0,0,0,0,0,0,0,0,-1,1525,1555,0,0
308,-531,0,0,0,0,0,0,0,0,0,-1,1532,1555,0,0
315,-531,0,0,0,0,0,0,0,0,0,-1,1539,1555,0,0
322,-531,0,0,0,0,0,0,0,0,0,-1,1546,1555,0,0
329,-531,0,0,0,0,0,0,0,0,0,-1,1553,1555,0,0
336,-531,0,0,0,0,0,0,0,0,0,-1,1560,1555,0,0
343,-531,0,0,0,0,0,0,0,0,0,-1,1567,1555,0,0
350,-531,0,0,0,0,0,0,0,0,0,-1,1574,1555,0,0
357,-531,0,0,0,0,0,0,0,0,0,-1,1581,1555,0,0
364,-531,0,0,0,0,0,0,0,0,0,-1,1588,1555,0,0
371,-531,0,0,0,0,0,0,0,0,0,-1,1595,1555,0,0
378,-531,0,0,0,0,0,0,0,0,0,-1,1602,1555,0,0
385,-531,3.13403,1.88721,0,0,0,0,0,0,0,-1,1609,1555,3.13401,-1.88726
392,-531,10.2916,8.5929,0,0,0,0,0,0,0,-1,1616,1555,10.2917,-8.59292
399,-531,8.26306,5.29602,0,0,0,0,0,0,0,-1,1623,1555,8.26302,-5.29607
406,-531,8.26147,5.42712,0,0,0,0,0,0,0,-1,1630,1555,8.26145,-5.42716
413,-531,8.20618,5.75012,0,0,0,0,0,0,0,-1,1637,1555,8.20619,-5.75017
420,-531,7.64868,7.09558,0,0,0,0,0,0,0,-1,1644,1555,7.64867,-7.09564
427,-531,9.93054,11.8412,0,0,0,0,0,0,0,-1,1651,1555,9.93059,-11.8412
434,-531,10.244,11.7072,0,0,0,0,0,0,0,-1,1658,1555,10.244,-11.7071
441,-531,9.03882,11.1136,0,0,0,0,0,0,0,-1,1665,1555,9.03881,-11.1137
448,-531,8.70752,11.1261,0,0,0,0,0,0,0,-1,1672,1555,8.70751,-11.126
455,-531,12.5403,6.53625,0,0,0,0,0,0,0,-1,1679,1555,12.5403,-6.53629
462,-531,11.6357,6.271,0,0,0,0,0,0,0,-1,1686,1555,11.6358,-6.27095
469,-531,11.1533,8.24194,0,0,0,0,0,0,0,-1,1693,1555,11.1534,-8.24189
476,-531,10.9094,11.5835,0,0,0,0,0,0,0,-1,1700,1555,10.9094,-11.5835
483,-531,10.3789,12.3455,0,0,0,0,0,0,0,-1,1707,1555,10.3789,-12.3454
490,-531,10.1699,12.385,-0.0353657,-0.0274723,0.0349242,0.00372745,-0.0665655,0.841663,0.0456702,0.0332727,1714,1555,10.1699,-12.3851
497,-531,9.89453,12.4631,-0.0291668,-0.0215795,0.0283246,0.0032044,-0.0539507,0.851969,0.0370815,0.0182854,1721,1555,9.89447,-12.4632
504,-531,9.86096,12.2937,-0.0234116,-0.0168997,0.0227041,0.00278073,-0.043092,0.856617,0.0296984,0.0122016,1728,1555,9.86091,-12.2937
511,-531,9.85876,12.046,-0.0186668,-0.0127283,0.0177867,0.00233529,-0.0337304,0.868104,0.0233044,0.0135797,1735,1555,9.85874,-12.0461
518,-531,9.86853,11.8086,-0.0144287,-0.00945181,0.0130966,0.00139064,-0.0252712,0.879283,0.0173296,0.0138612,1742,1555,9.86849,-11.8087
525,-531,9.87939,11.5774,-0.0106204,-0.00676,0.00940856,0.000914314,-0.0182947,0.886571,0.0125124,0.012641,1749,1555,9.87939,-11.5774
532,-531,9.90613,11.3324,-0.00722743,-0.00453144,0.00628793,0.000551363,-0.0123102,0.890989,0.00839665,0.0103536,1756,1555,9.90612,-11.3324
539,-531,9.89478,11.1006,-0.00431094,-0.00295526,0.00392255,0.000347582,-0.00761378,0.870956,0.00519559,0.0117915,1763,1555,9.89478,-11.1006
546,-531,9.86255,10.8729,-0.00144897,-0.00128836,0.00162399,0.000257309,-0.00299464,0.810102,0.00208749,0.0145037,1770,1555,9.8625,-10.8729
553,-531,9.89111,10.6359,0.00129923,0.000169729,-0.000513559,0.00149781,-2.88594e-05,-0.368981,0.0010083,0.0283855,1777,1555,9.89111,-10.6359
560,-531,9.90564,10.4235,0.00402695,0.00166437,-0.00242066,0.00553918,0.000152136,-0.558396,0.00364313,0.0316217,1784,1555,9.90561,-10.4234
567,-531,9.83557,10.2195,0.00659535,0.0030247,-0.00408549,0.00926857,0.000351476,-0.579406,0.00606528,0.0187679,1791,1555,9.83558,-10.2194
574,-531,9.85535,9.95349,0.00942963,0.0044981,-0.00601835,0.0134678,0.00045998,-0.590975,0.00882917,0.0126839,1798,1555,9.85539,-9.95347
581,-531,9.88391,9.6864,0.012891,0.00607654,-0.00829997,0.0184559,0.000511668,-0.59063,0.012137,0.0116275,1805,1555,9.88396,-9.68639
588,-531,9.90454,9.39172,0.0171823,0.00794554,-0.0111676,0.0246488,0.000479042,-0.58933,0.0162752,0.0160063,1812,1555,9.90455,-9.3917
595,-531,10.0547,9.06873,0.0223031,0.0103088,-0.0146454,0.0321317,0.000480248,-0.591068,0.0212629,0.033031,1819,1555,10.0546,-9.06872
602,-531,10.5195,8.43713,0.0284634,0.0131718,-0.0188521,0.0411611,0.000474039,-0.59275,0.0272841,0.0487893,1826,1555,10.5196,-8.43713
609,-531,10.5927,8.03894,0,0,0,0,0,0,0,-1,1833,1555,10.5926,-8.03893
616,-531,10.5723,7.17859,0,0,0,0,0,0,0,-1,1840,1555,10.5723,-7.17855
623,-531,10.0674,5.08984,0,0,0,0,0,0,0,-1,1847,1555,10.0674,-5.08981
630,-531,11.672,3.18909,0,0,0,0,0,0,0,-1,1854,1555,11.672,-3.18904
637,-531,13.2546,1.38965,0,0,0,0,0,0,0,-1,1861,1555,13.2547,-1.3896
644,-531,0,0,0,0,0,0,0,0,0,-1,1868,1555,0,0
651,-531,0,0,0,0,0,0,0,0,0,-1,1875,1555,0,0
658,-531,0,0,0,0,0,0,0,0,0,-1,1882,1555,0,0
665,-531,0,0,0,0,0,0,0,0,0,-1,1889,1555,0,0
672,-531,0,0,0,0,0,0,0,0,0,-1,1896,1555,0,0
679,-531,0,0,0,0,0,0,0,0,0,-1,1903,1555,0,0
686,-531,0,0,0,0,0,0,0,0,0,-1,1910,1555,0,0
693,-531,0,0,0,0,0,0,0,0,0,-1,1917,1555,0,0
700,-531,0,0,0,0,0,0,0,0,0,-1,1924,1555,0,0
707,-531,0,0,0,0,0,0,0,0,0,-1,1931,1555,0,0
714,-531,0,0,0,0,0,0,0,0,0,-1,1938,1555,0,0
721,-531,0,0,0,0,0,0,0,0,0,-1,1945,1555,0,0
728,-531,0,0,0,0,0,0,0,0,0,-1,1952,1555,0,0
735,-531,0,0,0,0,0,0,0,0,0,-1,1959,1555,0,0
742,-531,0,0,0,0,0,0,0,0,0,-1,1966,1555,0,0
749,-531,0,0,0,0,0,0,0,0,0,-1,1973,1555,0,0
756,-531,0,0,0,0,0,0,0,0,0,-1,1980,1555,0,0
763,-531,0,0,0,0,0,0,0,0,0,-1,1987,1555,0,0
770,-531,0,0,0,0,0,0,0,0,0,-1,1994,1555,0,0
777,-531,0,0,0,0,0,0,0,0,0,-1,2001,1555,0,0
784,-531,0,0,0,0,0,0,0,0,0,-1,2008,1555,0,0
791,-531,0,0,0,0,0,0,0,0,0,-1,2015,1555,0,0
798,-531,0,0,0,0,0,0,0,0,0,-1,2022,1555,0,0
805,-531,0,0,0,0,0,0,0,0,0,-1,2029,1555,0,0
812,-531,0,0,0,0,0,0,0,0,0,-1,2036,1555,0,0
-700,-538,0,0,0,0,0,0,0,0,0,-1,524,1562,0,0
-693,-538,0,0,0,0,0,0,0,0,0,-1,531,1562,0,0
-686,-538,0,0,0,0,0,0,0,0,0,-1,538,1562,0,0
-679,-538,0,0,0,0,0,0,0,0,0,-1,545,1562,0,0
-672,-538,0,0,0,0,0,0,0,0,0,-1,552,1562,0,0
-665,-538,0,0,0,0,0,0,0,0,0,-1,559,1562,0,0
-658,-538,0,0,0,0,0,0,0,0,0,-1,566,1562,0,0
-651,-538,0,0,0,0,0,0,0,0,0,-1,573,1562,0,0
-644,-538,0,0,0,0,0,0,0,0,0,-1,580,1562,0,0
-637,-538,0,0,0,0,0,0,0,0,0,-1,587,1562,0,0
-630,-538,0,0,0,0,0,0,0,0,0,-1,594,1562,0,0
-623,-538,0,0,0,0,0,0,0,0,0,-1,601,1562,0,0
-616,-538,0,0,0,0,0,0,0,0,0,-1,608,1562,0,0
-609,-538,0,0,0,0,0,0,0,0,0,-1,615,1562,0,0
-602,-538,0,0,0,0,0,0,0,0,0,-1,622,1562,0,0
-595,-538,0,0,0,0,0,0,0,0,0,-1,629,1562,0,0
-588,-538,0,0,0,0,0,0,0,0,0,-1,636,1562,0,0
-581,-538,0,0,0,0,0,0,0,0,0,-1,643,1562,0,0
-574,-538,0,0,0,0,0,0,0,0,0,-1,650,1562,0,0
-567,-538,0,0,0,0,0,0,0,0,0,-1,657,1562,0,0
-560,-538,0,0,0,0,0,0,0,0,0,-1,664,1562,0,0
-553,-538,0,0,0,0,0,0,0,0,0,-1,671,1562,0,0
-546,-538,0,0,0,0,0,0,0,0,0,-1,678,1562,0,0
-539,-538,0,0,0,0,0,0,0,0,0,-1,685,1562,0,0
-532,-538,0,0,0,0,0,0,0,0,0,-1,692,1562,0,0
-525,-538,0,0,0,0,0,0,0,0,0,-1,699,1562,0,0
-518,-538,0,0,0,0,0,0,0,0,0,-1,706,1562,0,0
-511,-538,-2.6582,-1.54321,0,0,0,0,0,0,0,-1,713,1562,-2.65821,1.54327
-504,-538,-2.66455,-0.71167,0,0,0,0,0,0,0,-1,720,1562,-2.66456,0.711667
-497,-538,-0.763855,6.77747,0,0,0,0,0,0,0,-1,727,1562,-0.76385,-6.77743
-490,-538,-1.6153,6.14014,0,0,0,0,0,0,0,-1,734,1562,-1.61531,-6.14014
-483,-538,-1.50995,6.37659,0,0,0,0,0,0,0,-1,741,1562,-1.50992,-6.37654
-476,-538,-0.948669,7.03052,0,0,0,0,0,0,0,-1,748,1562,-0.948681,-7.03053
-469,-538,-0.910461,7.53601,0,0,0,0,0,0,0,-1,755,1562,-0.910488,-7.53602
-462,-538,-0.1203,7.85986,0,0,0,0,0,0,0,-1,762,1562,-0.120322,-7.85984
-455,-538,-0.0489502,7.93384,0.00749104,0.00821033,0.0119323,0.0197884,-0.00408706,0.800464,0.0147447,0.0384241,769,1562,-0.0489548,-7.93383
-448,-538,-0.0275269,8.2146,0.00618589,0.00683311,0.00905259,0.0155679,-0.00254887,0.803264,0.0113242,0.0162079,776,1562,-0.0275214,-8.21459
-441,-538,-0.0544434,8.5,0.00512712,0.00557155,0.00674802,0.012101,-0.00140235,0.801857,0.00857311,0.0156282,783,1562,-0.0544215,-8.5
-434,-538,-0.0768433,8.7301,0.00435142,0.00435187,0.00490561,0.00925725,-0.000553966,0.785421,0.0063642,0.0119004,790,1562,-0.0768674,-8.73007
-427,-538,-0.0936279,9.01428,0.0036944,0.00335201,0.00336577,0.00689333,0.000153084,0.759988,0.00454539,0.0135457,797,1562,-0.0936133,-9.01434
-420,-538,-0.097229,9.25635,0.00313629,0.00232143,0.0021602,0.00492715,0.000530568,0.692189,0.00312297,0.0175951,804,1562,-0.0972291,-9.2563
-413,-538,-0.101013,9.50134,0.00261722,0.00121593,0.00127893,0.00337485,0.000458297,0.534808,0.00211376,0.0175839,811,1562,-0.100987,-9.50129
-406,-538,-0.0930786,9.7428,0.00220724,0.000125187,0.000548479,0.00234289,-1.0462e-05,0.242453,0.00156543,0.0138199,818,1562,-0.0930725,-9.74284
-399,-538,-0.0915527,10.0151,0.00196712,-0.00118756,-0.000150265,0.00197426,-0.0011947,-0.047489,0.00184796,0.0131164,825,1562,-0.0915361,-10.0151
-392,-538,-0.0977783,10.2733,0.00182253,-0.00220201,-0.000948733,0.00203496,-0.00241445,-0.220284,0.00257198,0.0141089,832,1562,-0.0977789,-10.2733
-385,-538,-0.114014,10.531,0.00180691,-0.0032017,-0.00171472,0.0023377,-0.0037325,-0.300195,0.00353534,0.0123633,839,1562,-0.114027,-10.5309
-378,-538,-0.109436,10.7985,0.00191796,-0.00428885,-0.00253285,0.00282035,-0.00519125,-0.342256,0.00469253,0.0100995,846,1562,-0.109465,-10.7984
-371,-538,-0.112244,11.0477,0.00217053,-0.00522564,-0.00340162,0.00349707,-0.00655218,-0.371833,0.00589063,0.0113561,853,1562,-0.112244,-11.0478
-364,-538,-0.0963135,11.3337,0.00199946,-0.00486056,-0.00232917,0.00271553,-0.00557664,-0.298266,0.00488155,0.0117711,860,1562,-0.0963428,-11.3337
-357,-538,-0.104248,11.5695,0.00115573,-0.00286734,0.000346723,0.00118539,-0.002897,0.0853452,0.00242504,0.0212593,867,1562,-0.104259,-11.5695
-350,-538,-0.190857,11.754,0.000462625,-0.00103877,0.00298203,0.002787,-0.00336314,0.66209,0.00355598,0.0332749,874,1562,-0.190839,-11.7541
-343,-538,-0.342163,12.0912,-0.000641177,0.00213369,0.00670874,0.00759696,-0.00610445,0.887366,0.00792614,0.0420539,881,1562,-0.342151,-12.0912
-336,-538,-0.0550537,12.1102,-0.00223275,0.00633924,0.0119382,0.0147375,-0.010631,0.95774,0.0147103,0.042752,888,1562,-0.055075,-12.1103
-329,-538,-0.055542,12.1865,-0.00720097,0.0215805,0.0219661,0.03345,-0.0190705,1.07539,0.0306992,0.0456522,895,1562,-0.0555714,-12.1865
-322,-538,0.00231934,12.2506,0,0,0,0,0,0,0,-1,902,1562,0.00231517,-12.2506
-315,-538,4.22876,14.3428,-0.01834,0.0531576,0.0456876,0.0754203,-0.0406027,1.11738,0.0679839,0.0430836,909,1562,4.22877,-14.3428
-308,-538,4.03491,14.8612,-0.0254418,0.0758517,0.0590897,0.10303,-0.0526198,1.1397,0.0914217,0.0458721,916,1562,4.03494,-14.8612
-301,-538,3.74213,15.4399,0,0,0,0,0,0,0,-1,923,1562,3.74211,-15.44
-294,-538,1.23138,14.0757,0,0,0,0,0,0,0,-1,930,1562,1.23137,-14.0757
-287,-538,-2.15009,12.8256,0,0,0,0,0,0,0,-1,937,1562,-2.15011,-12.8256
-280,-538,-3.13525,14.0911,-0.0817902,0.230337,0.109622,0.26499,-0.116443,1.26462,0.225719,0.0486938,944,1562,-3.13524,-14.091
-273,-538,-4.22534,15.1093,0,0,0,0,0,0,0,-1,951,1562,-4.22532,-15.1093
-266,-538,-5.1861,15.9336,0,0,0,0,0,0,0,-1,958,1562,-5.18609,-15.9336
-259,-538,-5.89642,16.5184,0,0,0,0,0,0,0,-1,965,1562,-5.89644,-16.5184
-252,-538,0,0,0,0,0,0,0,0,0,-1,972,1562,0,0
-245,-538,0,0,0,0,0,0,0,0,0,-1,979,1562,0,0
-238,-538,0,0,0,0,0,0,0,0,0,-1,986,1562,0,0
-231,-538,0,0,0,0,0,0,0,0,0,-1,993,1562,0,0
-224,-538,0,0,0,0,0,0,0,0,0,-1,1000,1562,0,0
-217,-538,0,0,0,0,0,0,0,0,0,-1,1007,1562,0,0
-210,-538,0,0,0,0,0,0,0,0,0,-1,1014,1562,0,0
-203,-538,0,0,0,0,0,0,0,0,0,-1,1021,1562,0,0
-196,-538,0,0,0,0,0,0,0,0,0,-1,1028,1562,0,0
-189,-538,0,0,0,0,0,0,0,0,0,-1,1035,1562,0,0
-182,-538,0,0,0,0,0,0,0,0,0,-1,1042,1562,0,0
-175,-538,0,0,0,0,0,0,0,0,0,-1,1049,1562,0,0
-168,-538,0,0,0,0,0,0,0,0,0,-1,1056,1562,0,0
-161,-538,0,0,0,0,0,0,0,0,0,-1,1063,1562,0,0
-154,-538,0,0,0,0,0,0,0,0,0,-1,1070,1562,0,0
-147,-538,0,0,0,0,0,0,0,0,0,-1,1077,1562,0,0
-140,-538,0,0,0,0,0,0,0,0,0,-1,1084,1562,0,0
-133,-538,0,0,0,0,0,0,0,0,0,-1,1091,1562,0,0
-126,-538,0,0,0,0,0,0,0,0,0,-1,1098,1562,0,0
-119,-538,0,0,0,0,0,0,0,0,0,-1,1105,1562,0,0
-112,-538,0,0,0,0,0,0,0,0,0,-1,1112,1562,0,0
-105,-538,0,0,0,0,0,0,0,0,0,-1,1119,1562,0,0
-98,-538,0,0,0,0,0,0,0,0,0,-1,1126,1562,0,0
-91,-538,0,0,0,0,0,0,0,0,0,-1,1133,1562,0,0
-84,-538,0,0,0,0,0,0,0,0,0,-1,1140,1562,0,0
-77,-538,0,0,0,0,0,0,0,0,0,-1,1147,1562,0,0
-70,-538,0,0,0,0,0,0,0,0,0,-1,1154,1562,0,0
-63,-538,0,0,0,0,0,0,0,0,0,-1,1161,1562,0,0
-56,-538,0,0,0,0,0,0,0,0,0,-1,1168,1562,0,0
-49,-538,0,0,0,0,0,0,0,0,0,-1,1175,1562,0,0
-42,-538,0,0,0,0,0,0,0,0,0,-1,1182,1562,0,0
-35,-538,0,0,0,0,0,0,0,0,0,-1,1189,1562,0,0
-28,-538,0,0,0,0,0,0,0,0,0,-1,1196,1562,0,0
-21,-538,0,0,0,0,0,0,0,0,0,-1,1203,1562,0,0
-14,-538,0,0,0,0,0,0,0,0,0,-1,1210,1562,0,0
-7,-538,0,0,0,0,0,0,0,0,0,-1,1217,1562,0,0
0,-538,0,0,0,0,0,0,0,0,0,-1,1224,1562,0,0
7,-538,0,0,0,0,0,0,0,0,0,-1,1231,1562,0,0
14,-538,0,0,0,0,0,0,0,0,0,-1,1238,1562,0,0
21,-538,0,0,0,0,0,0,0,0,0,-1,1245,1562,0,0
28,-538,0,0,0,0,0,0,0,0,0,-1,1252,1562,0,0
35,-538,0,0,0,0,0,0,0,0,0,-1,1259,1562,0,0
42,-538,0,0,0,0,0,0,0,0,0,-1,1266,1562,0,0
49,-538,0,0,0,0,0,0,0,0,0,-1,1273,1562,0,0
56,-538,0,0,0,0,0,0,0,0,0,-1,1280,1562,0,0
63,-538,0,0,0,0,0,0,0,0,0,-1,1287,1562,0,0
70,-538,0,0,0,0,0,0,0,0,0,-1,1294,1562,0,0
77,-538,0,0,0,0,0,0,0,0,0,-1,1301,1562,0,0
84,-538,0,0,0,0,0,0,0,0,0,-1,1308,1562,0,0
91,-538,0,0,0,0,0,0,0,0,0,-1,1315,1562,0,0
98,-538,0,0,0,0,0,0,0,0,0,-1,1322,1562,0,0
105,-538,0,0,0,0,0,0,0,0,0,-1,1329,1562,0,0
112,-538,0,0,0,0,0,0,0,0,0,-1,1336,1562,0,0
119,-538,0,0,0,0,0,0,0,0,0,-1,1343,1562,0,0
126,-538,0,0,0,0,0,0,0,0,0,-1,1350,1562,0,0
133,-538,0,0,0,0,0,0,0,0,0,-1,1357,1562,0,0
140,-538,0,0,0,0,0,0,0,0,0,-1,1364,1562,0,0
147,-538,0,0,0,0,0,0,0,0,0,-1,1371,1562,0,0
154,-538,0,0,0,0,0,0,0,0,0,-1,1378,1562,0,0
161,-538,0,0,0,0,0,0,0,0,0,-1,1385,1562,0,0
168,-538,0,0,0,0,0,0,0,0,0,-1,1392,1562,0,0
175,-538,0,0,0,0,0,0,0,0,0,-1,1399,1562,0,0
182,-538,0,0,0,0,0,0,0,0,0,-1,1406,1562,0,0
189,-538,0,0,0,0,0,0,0,0,0,-1,1413,1562,0,0
196,-538,0,0,0,0,0,0,0,0,0,-1,1420,1562,0,0
203,-538,0,0,0,0,0,0,0,0,0,-1,1427,1562,0,0
210,-538,0,0,0,0,0,0,0,0,0,-1,1434,1562,0,0
217,-538,0,0,0,0,0,0,0,0,0,-1,1441,1562,0,0
224,-538,0,0,0,0,0,0,0,0,0,-1,1448,1562,0,0
231,-538,0,0,0,0,0,0,0,0,0,-1,1455,1562,0,0
238,-538,0,0,0,0,0,0,0,0,0,-1,1462,1562,0,0
245,-538,0,0,0,0,0,0,0,0,0,-1,1469,1562,0,0
252,-538,0,0,0,0,0,0,0,0,0,-1,1476,1562,0,0
259,-538,0,0,0,0,0,0,0,0,0,-1,1483,1562,0,0
266,-538,0,0,0,0,0,0,0,0,0,-1,1490,1562,0,0
273,-538,0,0,0,0,0,0,0,0,0,-1,1497,1562,0,0
280,-538,0,0,0,0,0,0,0,0,0,-1,1504,1562,0,0
287,-538,0,0,0,0,0,0,0,0,0,-1,1511,1562,0,0
294,-538,0,0,0,0,0,0,0,0,0,-1,1518,1562,0,0
301,-538,0,0,0,0,0,0,0,0,0,-1,1525,1562,0,0
308,-538,0,0,0,0,0,0,0,0,0,-1,1532,1562,0,0
315,-538,0,0,0,0,0,0,0,0,0,-1,1539,1562,0,0
322,-538,0,0,0,0,0,0,0,0,0,-1,1546,1562,0,0
329,-538,0,0,0,0,0,0,0,0,0,-1,1553,1562,0,0
336,-538,0,0,0,0,0,0,0,0,0,-1,1560,1562,0,0
343,-538,0,0,0,0,0,0,0,0,0,-1,1567,1562,0,0
350,-538,0,0,0,0,0,0,0,0,0,-1,1574,1562,0,0
357,-538,0,0,0,0,0,0,0,0,0,-1,1581,1562,0,0
364,-538,0,0,0,0,0,0,0,0,0,-1,1588,1562,0,0
371,-538,0,0,0,0,0,0,0,0,0,-1,1595,1562,0,0
378,-538,9.65479,5.82434,0,0,0,0,0,0,0,-1,1602,1562,9.6548,-5.82439
385,-538,9.65552,8.01746,0,0,0,0,0,0,0,-1,1609,1562,9.65546,-8.01741
392,-538,8.20361,7.07214,0,0,0,0,0,0,0,-1,1616,1562,8.20362,-7.07211
399,-538,7.85425,4.70508,0,0,0,0,0,0,0,-1,1623,1562,7.85425,-4.70512
406,-538,7.77734,4.96094,0,0,0,0,0,0,0,-1,1630,1562,7.77729,-4.96097
413,-538,13.0446,13.1765,0,0,0,0,0,0,0,-1,1637,1562,13.0446,-13.1765
420,-538,9.96216,12.7653,0,0,0,0,0,0,0,-1,1644,1562,9.96221,-12.7653
427,-538,10.1732,14.5863,0,0,0,0,0,0,0,-1,1651,1562,10.1732,-14.5863
434,-538,8.23096,15.3043,0,0,0,0,0,0,0,-1,1658,1562,8.23101,-15.3043
441,-538,8.42896,14.5763,0,0,0,0,0,0,0,-1,1665,1562,8.4289,-14.5763
448,-538,9.1366,12.1686,0,0,0,0,0,0,0,-1,1672,1562,9.13658,-12.1686
455,-538,12.6909,12.1483,0,0,0,0,0,0,0,-1,1679,1562,12.6909,-12.1483
462,-538,11.9067,12.2902,0,0,0,0,0,0,0,-1,1686,1562,11.9067,-12.2902
469,-538,10.6924,12.1637,0,0,0,0,0,0,0,-1,1693,1562,10.6924,-12.1637
476,-538,10.4049,12.2079,-0.0372227,-0.035221,0.0386059,0.00239708,-0.0748407,0.798358,0.0507117,0.0434288,1700,1562,10.4049,-12.2078
483,-538,9.7804,12.6864,-0.0314944,-0.0281657,0.0324596,0.00267215,-0.0623323,0.811013,0.0424736,0.028896,1707,1562,9.78037,-12.6864
490,-538,9.65332,12.6425,-0.0265237,-0.0219032,0.0270172,0.00290233,-0.0513293,0.82805,0.0352269,0.0135104,1714,1562,9.65338,-12.6425
497,-538,9.64465,12.496,-0.0218104,-0.0170902,0.0219756,0.00265163,-0.0415523,0.838891,0.0286264,0.0104734,1721,1562,9.64468,-12.496
504,-538,9.64026,12.2773,-0.0172418,-0.0132336,0.0176316,0.00250743,-0.0329828,0.841988,0.0228702,0.00946226,1728,1562,9.64026,-12.2774
511,-538,9.63989,12.0538,-0.0134425,-0.00964822,0.0137114,0.00229663,-0.0253873,0.854142,0.0177401,0.01009,1735,1562,9.63995,-12.0538
518,-538,9.6394,11.8302,-0.010016,-0.00688937,0.0098396,0.00151032,-0.0184157,0.864181,0.0128103,0.0108735,1742,1562,9.63936,-11.8302
525,-538,9.63318,11.5801,-0.0068625,-0.00466173,0.00679838,0.00112474,-0.012649,0.865632,0.00883147,0.01092,1749,1562,9.63318,-11.5801
532,-538,9.65479,11.3502,-0.0040025,-0.00285284,0.00419473,0.000806263,-0.0076616,0.853492,0.0053966,0.0125727,1756,1562,9.65477,-11.3502
539,-538,9.672,11.125,-0.00147663,-0.0016371,0.00219654,0.00064114,-0.00375488,0.767143,0.00274206,0.0156468,1763,1562,9.67206,-11.125
546,-538,9.64795,10.8834,0.00113267,-0.000359262,0.000157178,0.00114905,-0.000375641,0.103833,0.000917255,0.016291,1770,1562,9.64796,-10.8835
553,-538,9.64966,10.6392,0.00370702,0.000923083,-0.00179728,0.00458833,4.17724e-05,-0.455904,0.00304506,0.0249867,1777,1562,9.64968,-10.6392
560,-538,9.64905,10.433,0.00632717,0.00224742,-0.00357981,0.0084075,0.000167084,-0.526429,0.00555015,0.0277789,1784,1562,9.64899,-10.433
567,-538,9.59521,10.2269,0.0089076,0.0035567,-0.00528144,0.0121526,0.000311702,-0.550951,0.00799986,0.0199316,1791,1562,9.59517,-10.2269
574,-538,9.61816,9.94067,0.0120414,0.00502466,-0.00751008,0.0168222,0.000243873,-0.566885,0.0111344,0.0125797,1798,1562,9.61811,-9.94066
581,-538,9.66602,9.6615,0.0162594,0.00676138,-0.0102746,0.0228295,0.000191324,-0.568919,0.0151563,0.0144685,1805,1562,9.66604,-9.66154
588,-538,9.72681,9.42004,0.0215964,0.00917999,-0.0139135,0.0306239,0.000152511,-0.575552,0.0203653,0.0306849,1812,1562,9.72682,-9.41999
595,-538,10.2959,8.9613,0.0280465,0.0125973,-0.0182964,0.0401821,0.000461699,-0.585652,0.0266355,0.0454912,1819,1562,10.2959,-8.96127
602,-538,10.6761,7.95203,0,0,0,0,0,0,0,-1,1826,1562,10.6761,-7.95204
609,-538,10.1046,7.05713,0,0,0,0,0,0,0,-1,1833,1562,10.1046,-7.05719
616,-538,9.92249,5.43506,0,0,0,0,0,0,0,-1,1840,1562,9.92254,-5.43507
623,-538,11.1711,4.31604,0,0,0,0,0,0,0,-1,1847,1562,11.1711,-4.316
630,-538,12.6112,2.61633,0,0,0,0,0,0,0,-1,1854,1562,12.6112,-2.61637
637,-538,0,0,0,0,0,0,0,0,0,-1,1861,1562,0,0
644,-538,0,0,0,0,0,0,0,0,0,-1,1868,1562,0,0
651,-538,0,0,0,0,0,0,0,0,0,-1,1875,1562,0,0
658,-538,0,0,0,0,0,0,0,0,0,-1,1882,1562,0,0
665,-538,0,0,0,0,0,0,0,0,0,-1,1889,1562,0,0
672,-538,0,0,0,0,0,0,0,0,0,-1,1896,1562,0,0
679,-538,0,0,0,0,0,0,0,0,0,-1,1903,1562,0,0
686,-538,0,0,0,0,0,0,0,0,0,-1,1910,1562,0,0
693,-538,0,0,0,0,0,0,0,0,0,-1,1917,1562,0,0
700,-538,0,0,0,0,0,0,0,0,0,-1,1924,1562,0,0
707,-538,0,0,0,0,0,0,0,0,0,-1,1931,1562,0,0
714,-538,0,0,0,0,0,0,0,0,0,-1,1938,1562,0,0
721,-538,0,0,0,0,0,0,0,0,0,-1,1945,1562,0,0
728,-538,0,0,0,0,0,0,0,0,0,-1,1952,1562,0,0
735,-538,0,0,0,0,0,0,0,0,0,-1,1959,1562,0,0
742,-538,0,0,0,0,0,0,0,0,0,-1,1966,1562,0,0
749,-538,0,0,0,0,0,0,0,0,0,-1,1973,1562,0,0
756,-538,0,0,0,0,0,0,0,0,0,-1,1980,1562,0,0
763,-538,0,0,0,0,0,0,0,0,0,-1,1987,1562,0,0
770,-538,0,0,0,0,0,0,0,0,0,-1,1994,1562,0,0
777,-538,0,0,0,0,0,0,0,0,0,-1,2001,1562,0,0
784,-538,0,0,0,0,0,0,0,0,0,-1,2008,1562,0,0
791,-538,0,0,0,0,0,0,0,0,0,-1,2015,1562,0,0
798,-538,0,0,0,0,0,0,0,0,0,-1,2022,1562,0,0
805,-538,0,0,0,0,0,0,0,0,0,-1,2029,1562,0,0
812,-538,0,0,0,0,0,0,0,0,0,-1,2036,1562,0,0
-700,-545,0,0,0,0,0,0,0,0,0,-1,524,1569,0,0
-693,-545,0,0,0,0,0,0,0,0,0,-1,531,1569,0,0
-686,-545,0,0,0,0,0,0,0,0,0,-1,538,1569,0,0
-679,-545,0,0,0,0,0,0,0,0,0,-1,545,1569,0,0
-672,-545,0,0,0,0,0,0,0,0,0,-1,552,1569,0,0
-665,-545,0,0,0,0,0,0,0,0,0,-1,559,1569,0,0
-658,-545,0,0,0,0,0,0,0,0,0,-1,566,1569,0,0
-651,-545,0,0,0,0,0,0,0,0,0,-1,573,1569,0,0
-644,-545,0,0,0,0,0,0,0,0,0,-1,580,1569,0,0
-637,-545,0,0,0,0,0,0,0,0,0,-1,587,1569,0,0
-630,-545,0,0,0,0,0,0,0,0,0,-1,594,1569,0,0
-623,-545,0,0,0,0,0,0,0,0,0,-1,601,1569,0,0
-616,-545,0,0,0,0,0,0,0,0,0,-1,608,1569,0,0
-609,-545,0,0,0,0,0,0,0,0,0,-1,615,1569,0,0
-602,-545,0,0,0,0,0,0,0,0,0,-1,622,1569,0,0
-595,-545,0,0,0,0,0,0,0,0,0,-1,629,1569,0,0
-588,-545,0,0,0,0,0,0,0,0,0,-1,636,1569,0,0
-581,-545,0,0,0,0,0,0,0,0,0,-1,643,1569,0,0
-574,-545,0,0,0,0,0,0,0,0,0,-1,650,1569,0,0
-567,-545,0,0,0,0,0,0,0,0,0,-1,657,1569,0,0
-560,-545,0,0,0,0,0,0,0,0,0,-1,664,1569,0,0
-553,-545,0,0,0,0,0,0,0,0,0,-1,671,1569,0,0
-546,-545,0,0,0,0,0,0,0,0,0,-1,678,1569,0,0
-539,-545,0,0,0,0,0,0,0,0,0,-1,685,1569,0,0
-532,-545,0,0,0,0,0,0,0,0,0,-1,692,1569,0,0
-525,-545,0,0,0,0,0,0,0,0,0,-1,699,1569,0,0
-518,-545,0,0,0,0,0,0,0,0,0,-1,706,1569,0,0
-511,-545,0,0,0,0,0,0,0,0,0,-1,713,1569,0,0
-504,-545,-3.55237,-2.5354,0,0,0,0,0,0,0,-1,720,1569,-3.55236,2.53545
-497,-545,2.26575,5.69214,0,0,0,0,0,0,0,-1,727,1569,2.26573,-5.6922
-490,-545,1.79315,6.35181,0,0,0,0,0,0,0,-1,734,1569,1.79317,-6.35185
-483,-545,-1.90613,7.68005,0,0,0,0,0,0,0,-1,741,1569,-1.90613,-7.68007
-476,-545,-1.22205,6.8396,0,0,0,0,0,0,0,-1,748,1569,-1.22206,-6.83958
-469,-545,0.222778,6.76233,0,0,0,0,0,0,0,-1,755,1569,0.222762,-6.76234
-462,-545,0.306091,7.28625,0,0,0,0,0,0,0,-1,762,1569,0.306095,-7.2863
-455,-545,0.136963,7.58667,0.0103549,0.0113802,0.0151633,0.0260395,-0.00430436,0.802297,0.0189581,0.041816,769,1569,0.136946,-7.58668
-448,-545,0.227722,8.02649,0.00850902,0.00934438,0.0114392,0.0203735,-0.00252009,0.803646,0.0144956,0.0274953,776,1569,0.2277,-8.02647
-441,-545,0.239136,8.52222,0.00685135,0.00746545,0.00843338,0.0155974,-0.00128056,0.803595,0.0108503,0.0182145,783,1569,0.239117,-8.52225
-434,-545,0.157532,8.755,0.00557768,0.0058112,0.00607333,0.0117689,-0.000380015,0.795009,0.00797562,0.0153119,790,1569,0.157533,-8.75494
-427,-545,0.168335,9.01685,0.0044345,0.00453478,0.00416062,0.00864556,0.000323718,0.791423,0.00565889,0.0172347,797,1569,0.168357,-9.01687
-420,-545,0.185059,9.2489,0.00344566,0.00330044,0.00272694,0.00610095,0.000645149,0.772088,0.00387022,0.0237096,804,1569,0.185046,-9.24896
-413,-545,0.187256,9.49744,0.00262408,0.00211405,0.0016945,0.00408265,0.00065549,0.710711,0.00253171,0.0229676,811,1569,0.187283,-9.4974
-406,-545,0.172424,9.74683,0.00199683,0.00101011,0.000897831,0.00252793,0.000479017,0.534167,0.00155048,0.0163239,818,1569,0.172407,-9.74681
-399,-545,0.179199,10.0098,0.00158592,-0.000326624,0.00015614,0.00159858,-0.000339288,0.080926,0.00119498,0.0107325,825,1569,0.179213,-10.0097
-392,-545,0.175903,10.2625,0.00131245,-0.0012699,-0.000616624,0.00145214,-0.00140958,-0.222771,0.00165227,0.0105138,832,1569,0.175922,-10.2624
-385,-545,0.158936,10.5276,0.00118852,-0.00209551,-0.0012879,0.00163334,-0.00254034,-0.332561,0.00242857,0.00953474,839,1569,0.15892,-10.5276
-378,-545,0.144226,10.8018,0.00128263,-0.00295792,-0.00192783,0.00202803,-0.00370332,-0.368947,0.00335578,0.0115316,846,1569,0.144249,-10.8017
-371,-545,0.133057,11.0591,0.00154737,-0.00361415,-0.00261692,0.00264201,-0.00470879,-0.396177,0.00429954,0.0149964,853,1569,0.133066,-11.0591
-364,-545,0.135681,11.3005,0.00152158,-0.00328394,-0.0017864,0.00211289,-0.00387526,-0.319658,0.00350682,0.00998406,860,1569,0.135701,-11.3005
-357,-545,0.161377,11.5682,0.00103667,-0.00163378,0.000284546,0.00106665,-0.00166376,0.104983,0.00158892,0.0108377,867,1569,0.161359,-11.5682
-350,-545,0.182251,11.8159,0.000717246,-0.000186016,0.00224954,0.00256004,-0.00202881,0.686332,0.00265528,0.0151742,874,1569,0.18228,-11.816
-343,-545,0.21637,12.0179,0.000118845,0.00234242,0.00487737,0.00623312,-0.00377185,0.897458,0.00583434,0.0234135,881,1569,0.216359,-12.018
-336,-545,0.224792,12.1635,-0.000930418,0.00560167,0.00851363,0.0114542,-0.00678298,0.968554,0.0106438,0.0317364,888,1569,0.224763,-12.1634
-329,-545,0.232727,12.2257,-0.00461013,0.0166613,0.0156408,0.02494,-0.0128888,1.08399,0.0222068,0.0421351,895,1569,0.232739,-12.2257
-322,-545,0.303711,12.3219,0,0,0,0,0,0,0,-1,902,1569,0.303707,-12.3219
-315,-545,3.34424,13.8644,0,0,0,0,0,0,0,-1,909,1569,3.34425,-13.8644
-308,-545,3.0495,14.51,0,0,0,0,0,0,0,-1,916,1569,3.0495,-14.51
-301,-545,2.75476,15.1556,0,0,0,0,0,0,0,-1,923,1569,2.75476,-15.1557
-294,-545,-2.69287,8.42102,0,0,0,0,0,0,0,-1,930,1569,-2.69287,-8.42097
-287,-545,-3.47784,9.96021,0,0,0,0,0,0,0,-1,937,1569,-3.47785,-9.96021
-280,-545,-4.26422,11.527,0,0,0,0,0,0,0,-1,944,1569,-4.26422,-11.527
-273,-545,-5.10333,12.864,0,0,0,0,0,0,0,-1,951,1569,-5.10331,-12.864
-266,-545,-5.78955,13.3704,0,0,0,0,0,0,0,-1,958,1569,-5.78952,-13.3703
-259,-545,-6.32184,13.8101,0,0,0,0,0,0,0,-1,965,1569,-6.32182,-13.81
-252,-545,0.369263,7.54053,0,0,0,0,0,0,0,-1,972,1569,0.369276,-7.54056
-245,-545,-0.236633,6.65564,0,0,0,0,0,0,0,-1,979,1569,-0.236605,-6.65566
-238,-545,0,0,0,0,0,0,0,0,0,-1,986,1569,0,0
-231,-545,0,0,0,0,0,0,0,0,0,-1,993,1569,0,0
-224,-545,0,0,0,0,0,0,0,0,0,-1,1000,1569,0,0
-217,-545,0,0,0,0,0,0,0,0,0,-1,1007,1569,0,0
-210,-545,0,0,0,0,0,0,0,0,0,-1,1014,1569,0,0
-203,-545,0,0,0,0,0,0,0,0,0,-1,1021,1569,0,0
-196,-545,0,0,0,0,0,0,0,0,0,-1,1028,1569,0,0
-189,-545,0,0,0,0,0,0,0,0,0,-1,1035,1569,0,0
-182,-545,0,0,0,0,0,0,0,0,0,-1,1042,1569,0,0
-175,-545,0,0,0,0,0,0,0,0,0,-1,1049,1569,0,0
-168,-545,0,0,0,0,0,0,0,0,0,-1,1056,1569,0,0
-161,-545,0,0,0,0,0,0,0,0,0,-1,1063,1569,0,0
-154,-545,0,0,0,0,0,0,0,0,0,-1,1070,1569,0,0
-147,-545,0,0,0,0,0,0,0,0,0,-1,1077,1569,0,0
-140,-545,0,0,0,0,0,0,0,0,0,-1,1084,1569,0,0
-133,-545,0,0,0,0,0,0,0,0,0,-1,1091,1569,0,0
-126,-545,0,0,0,0,0,0,0,0,0,-1,1098,1569,0,0
-119,-545,0,0,0,0,0,0,0,0,0,-1,1105,1569,0,0
-112,-545,0,0,0,0,0,0,0,0,0,-1,1112,1569,0,0
-105,-545,0,0,0,0,0,0,0,0,0,-1,1119,1569,0,0
-98,-545,0,0,0,0,0,0,0,0,0,-1,1126,1569,0,0
-91,-545,0,0,0,0,0,0,0,0,0,-1,1133,1569,0,0
-84,-545,0,0,0,0,0,0,0,0,0,-1,1140,1569,0,0
-77,-545,0,0,0,0,0,0,0,0,0,-1,1147,1569,0,0
-70,-545,0,0,0,0,0,0,0,0,0,-1,1154,1569,0,0
-63,-545,0,0,0,0,0,0,0,0,0,-1,1161,1569,0,0
-56,-545,0,0,0,0,0,0,0,0,0,-1,1168,1569,0,0
-49,-545,0,0,0,0,0,0,0,0,0,-1,1175,1569,0,0
-42,-545,0,0,0,0,0,0,0,0,0,-1,1182,1569,0,0
-35,-545,0,0,0,0,0,0,0,0,0,-1,1189,1569,0,0
-28,-545,0,0,0,0,0,0,0,0,0,-1,1196,1569,0,0
-21,-545,0,0,0,0,0,0,0,0,0,-1,1203,1569,0,0
-14,-545,0,0,0,0,0,0,0,0,0,-1,1210,1569,0,0
-7,-545,0,0,0,0,0,0,0,0,0,-1,1217,1569,0,0
0,-545,0,0,0,0,0,0,0,0,0,-1,1224,1569,0,0
7,-545,0,0,0,0,0,0,0,0,0,-1,1231,1569,0,0
14,-545,0,0,0,0,0,0,0,0,0,-1,1238,1569,0,0
21,-545,0,0,0,0,0,0,0,0,0,-1,1245,1569,0,0
28,-545,0,0,0,0,0,0,0,0,0,-1,1252,1569,0,0
35,-545,0,0,0,0,0,0,0,0,0,-1,1259,1569,0,0
42,-545,0,0,0,0,0,0,0,0,0,-1,1266,1569,0,0
49,-545,0,0,0,0,0,0,0,0,0,-1,1273,1569,0,0
56,-545,0,0,0,0,0,0,0,0,0,-1,1280,1569,0,0
63,-545,0,0,0,0,0,0,0,0,0,-1,1287,1569,0,0
70,-545,0,0,0,0,0,0,0,0,0,-1,1294,1569,0,0
77,-545,0,0,0,0,0,0,0,0,0,-1,1301,1569,0,0
84,-545,0,0,0,0,0,0,0,0,0,-1,1308,1569,0,0
91,-545,0,0,0,0,0,0,0,0,0,-1,1315,1569,0,0
98,-545,0,0,0,0,0,0,0,0,0,-1,1322,1569,0,0
105,-545,0,0,0,0,0,0,0,0,0,-1,1329,1569,0,0
112,-545,0,0,0,0,0,0,0,0,0,-1,1336,1569,0,0
119,-545,0,0,0,0,0,0,0,0,0,-1,1343,1569,0,0
126,-545,0,0,0,0,0,0,0,0,0,-1,1350,1569,0,0
133,-545,0,0,0,0,0,0,0,0,0,-1,1357,1569,0,0
140,-545,0,0,0,0,0,0,0,0,0,-1,1364,1569,0,0
147,-545,0,0,0,0,0,0,0,0,0,-1,1371,1569,0,0
154,-545,0,0,0,0,0,0,0,0,0,-1,1378,1569,0,0
161,-545,0,0,0,0,0,0,0,0,0,-1,1385,1569,0,0
168,-545,0,0,0,0,0,0,0,0,0,-1,1392,1569,0,0
175,-545,0,0,0,0,0,0,0,0,0,-1,1399,1569,0,0
182,-545,0,0,0,0,0,0,0,0,0,-1,1406,1569,0,0
189,-545,0,0,0,0,0,0,0,0,0,-1,1413,1569,0,0
196,-545,0,0,0,0,0,0,0,0,0,-1,1420,1569,0,0
203,-545,0,0,0,0,0,0,0,0,0,-1,1427,1569,0,0
210,-545,0,0,0,0,0,0,0,0,0,-1,1434,1569,0,0
217,-545,0,0,0,0,0,0,0,0,0,-1,1441,1569,0,0
224,-545,0,0,0,0,0,0,0,0,0,-1,1448,1569,0,0
231,-545,0,0,0,0,0,0,0,0,0,-1,1455,1569,0,0
238,-545,0,0,0,0,0,0,0,0,0,-1,1462,1569,0,0
245,-545,0,0,0,0,0,0,0,0,0,-1,1469,1569,0,0
252,-545,0,0,0,0,0,0,0,0,0,-1,1476,1569,0,0
259,-545,0,0,0,0,0,0,0,0,0,-1,1483,1569,0,0
266,-545,0,0,0,0,0,0,0,0,0,-1,1490,1569,0,0
273,-545,0,0,0,0,0,0,0,0,0,-1,1497,1569,0,0
280,-545,0,0,0,0,0,0,0,0,0,-1,1504,1569,0,0
287,-545,0,0,0,0,0,0,0,0,0,-1,1511,1569,0,0
294,-545,0,0,0,0,0,0,0,0,0,-1,1518,1569,0,0
301,-545,0,0,0,0,0,0,0,0,0,-1,1525,1569,0,0
308,-545,0,0,0,0,0,0,0,0,0,-1,1532,1569,0,0
315,-545,0,0,0,0,0,0,0,0,0,-1,1539,1569,0,0
322,-545,0,0,0,0,0,0,0,0,0,-1,1546,1569,0,0
329,-545,0,0,0,0,0,0,0,0,0,-1,1553,1569,0,0
336,-545,0,0,0,0,0,0,0,0,0,-1,1560,1569,0,0
343,-545,0,0,0,0,0,0,0,0,0,-1,1567,1569,0,0
350,-545,0,0,0,0,0,0,0,0,0,-1,1574,1569,0,0
357,-545,0,0,0,0,0,0,0,0,0,-1,1581,1569,0,0
364,-545,7.19495,4.88098,0,0,0,0,0,0,0,-1,1588,1569,7.19497,-4.88095
371,-545,7.82324,3.84302,0,0,0,0,0,0,0,-1,1595,1569,7.82324,-3.84307
378,-545,7.24146,4.54224,0,0,0,0,0,0,0,-1,1602,1569,7.24145,-4.54226
385,-545,8.58447,1.16125,0,0,0,0,0,0,0,-1,1609,1569,8.5845,-1.1612
392,-545,12.5654,3.89526,0,0,0,0,0,0,0,-1,1616,1569,12.5655,-3.89532
399,-545,11.5869,5.6333,0,0,0,0,0,0,0,-1,1623,1569,11.5869,-5.63326
406,-545,11.234,6.36414,0,0,0,0,0,0,0,-1,1630,1569,11.234,-6.3641
413,-545,12.1521,13.4817,0,0,0,0,0,0,0,-1,1637,1569,12.1521,-13.4817
420,-545,11.1954,13.6047,0,0,0,0,0,0,0,-1,1644,1569,11.1954,-13.6047
427,-545,8.82751,15.5083,0,0,0,0,0,0,0,-1,1651,1569,8.82758,-15.5083
434,-545,8.86316,15.0106,0,0,0,0,0,0,0,-1,1658,1569,8.86317,-15.0106
441,-545,9.00342,14.384,0,0,0,0,0,0,0,-1,1665,1569,9.00339,-14.384
448,-545,11.6178,12.8256,0,0,0,0,0,0,0,-1,1672,1569,11.6178,-12.8256
455,-545,11.2825,12.724,0,0,0,0,0,0,0,-1,1679,1569,11.2825,-12.724
462,-545,10.6024,12.5514,-0.036354,-0.0415159,0.0391272,0.000277348,-0.0781472,0.752464,0.0521908,0.0442508,1686,1569,10.6024,-12.5513
469,-545,9.927,12.6023,-0.0316601,-0.034512,0.033932,0.000875931,-0.067048,0.764399,0.0449935,0.0457304,1693,1569,9.927,-12.6023
476,-545,9.53479,12.9132,-0.0271142,-0.0280633,0.0291021,0.00151725,-0.0566947,0.777245,0.0383122,0.0363769,1700,1569,9.53481,-12.9132
483,-545,9.43408,12.8965,-0.0228941,-0.0223801,0.0244757,0.00183993,-0.0471141,0.790648,0.0320404,0.01361,1707,1569,9.43405,-12.8964
490,-545,9.41492,12.6996,-0.0192433,-0.0173499,0.0203748,0.00210018,-0.0386934,0.808614,0.0265234,0.0106186,1714,1569,9.41486,-12.6996
497,-545,9.42883,12.5013,-0.0156994,-0.0135096,0.0164935,0.00192534,-0.0311343,0.818542,0.0214268,0.0157874,1721,1569,9.42887,-12.5013
504,-545,9.43616,12.2715,-0.0121206,-0.0103874,0.0131368,0.00191139,-0.0244194,0.818333,0.0169527,0.013917,1728,1569,9.43613,-12.2715
511,-545,9.43787,12.0436,-0.00914411,-0.00736091,0.0100218,0.00180891,-0.0183139,0.829764,0.0128547,0.0104795,1735,1569,9.43788,-12.0435
518,-545,9.43469,11.8174,-0.00644949,-0.00508016,0.00685417,0.00112345,-0.0126531,0.835178,0.00883373,0.0131287,1742,1569,9.43463,-11.8173
525,-545,9.42212,11.5833,-0.00390839,-0.00327243,0.00438172,0.000802832,-0.00798365,0.821619,0.00560923,0.0128677,1749,1569,9.42218,-11.5833
532,-545,9.42749,11.3779,-0.00156014,-0.00183128,0.00226425,0.000572589,-0.00396401,0.755496,0.00285276,0.0130616,1756,1569,9.42747,-11.3779
539,-545,9.43372,11.1681,0.000594128,-0.000890463,0.000623131,0.000821005,-0.00111734,0.349173,0.00112346,0.0164442,1763,1569,9.43366,-11.1681
546,-545,9.43616,10.9183,0.00297678,6.93449e-05,-0.00113108,0.00336498,-0.000318847,-0.330609,0.0023568,0.0174407,1770,1569,9.43621,-10.9183
553,-545,9.43469,10.6256,0.00542116,0.00126166,-0.002863,0.00688007,-0.000197251,-0.471278,0.00465386,0.0236793,1777,1569,9.43465,-10.6256
560,-545,9.45496,10.3512,0.00800998,0.00250575,-0.00449399,0.0105276,-1.1872e-05,-0.510655,0.00702236,0.0271799,1784,1569,9.45496,-10.3512
567,-545,9.32397,10.2439,0.010718,0.00386106,-0.00621615,0.0143884,0.000190587,-0.533386,0.0095294,0.0417207,1791,1569,9.32392,-10.2439
574,-545,9.29688,9.94312,0.0143126,0.00541313,-0.0087496,0.019679,4.67859e-05,-0.55016,0.0131038,0.0341988,1798,1569,9.29682,-9.94307
581,-545,9.44543,9.59705,0.0195664,0.00742145,-0.0120591,0.0269956,-7.82404e-06,-0.552153,0.0179997,0.0471357,1805,1569,9.44547,-9.59703
588,-545,9.51685,9.323,0,0,0,0,0,0,0,-1,1812,1569,9.51685,-9.32294
595,-545,10.5361,8.73938,0,0,0,0,0,0,0,-1,1819,1569,10.5361,-8.73938
602,-545,8.82117,6.32214,0,0,0,0,0,0,0,-1,1826,1569,8.82121,-6.32217
609,-545,10.2406,5.22351,0,0,0,0,0,0,0,-1,1833,1569,10.2406,-5.22353
616,-545,11.701,3.93188,0,0,0,0,0,0,0,-1,1840,1569,11.701,-3.93191
623,-545,13.2139,2.32043,0,0,0,0,0,0,0,-1,1847,1569,13.2139,-2.32042
630,-545,0,0,0,0,0,0,0,0,0,-1,1854,1569,0,0
637,-545,0,0,0,0,0,0,0,0,0,-1,1861,1569,0,0
644,-545,0,0,0,0,0,0,0,0,0,-1,1868,1569,0,0
651,-545,0,0,0,0,0,0,0,0,0,-1,1875,1569,0,0
658,-545,0,0,0,0,0,0,0,0,0,-1,1882,1569,0,0
665,-545,0,0,0,0,0,0,0,0,0,-1,1889,1569,0,0
672,-545,0,0,0,0,0,0,0,0,0,-1,1896,1569,0,0
679,-545,0,0,0,0,0,0,0,0,0,-1,1903,1569,0,0
686,-545,0,0,0,0,0,0,0,0,0,-1,1910,1569,0,0
693,-545,0,0,0,0,0,0,0,0,0,-1,1917,1569,0,0
700,-545,0,0,0,0,0,0,0,0,0,-1,1924,1569,0,0
707,-545,0,0,0,0,0,0,0,0,0,-1,1931,1569,0,0
714,-545,0,0,0,0,0,0,0,0,0,-1,1938,1569,0,0
721,-545,0,0,0,0,0,0,0,0,0,-1,1945,1569,0,0
728,-545,0,0,0,0,0,0,0,0,0,-1,1952,1569,0,0
735,-545,0,0,0,0,0,0,0,0,0,-1,1959,1569,0,0
742,-545,0,0,0,0,0,0,0,0,0,-1,1966,1569,0,0
749,-545,0,0,0,0,0,0,0,0,0,-1,1973,1569,0,0
756,-545,0,0,0,0,0,0,0,0,0,-1,1980,1569,0,0
763,-545,0,0,0,0,0,0,0,0,0,-1,1987,1569,0,0
770,-545,0,0,0,0,0,0,0,0,0,-1,1994,1569,0,0
777,-545,0,0,0,0,0,0,0,0,0,-1,2001,1569,0,0
784,-545,0,0,0,0,0,0,0,0,0,-1,2008,1569,0,0
791,-545,0,0,0,0,0,0,0,0,0,-1,2015,1569,0,0
798,-545,0,0,0,0,0,0,0,0,0,-1,2022,1569,0,0
805,-545,0,0,0,0,0,0,0,0,0,-1,2029,1569,0,0
812,-545,0,0,0,0,0,0,0,0,0,-1,2036,1569,0,0
-700,-552,0,0,0,0,0,0,0,0,0,-1,524,1576,0,0
-693,-552,0,0,0,0,0,0,0,0,0,-1,531,1576,0,0
-686,-552,0,0,0,0,0,0,0,0,0,-1,538,1576,0,0
-679,-552,0,0,0,0,0,0,0,0,0,-1,545,1576,0,0
-672,-552,0,0,0,0,0,0,0,0,0,-1,552,1576,0,0
-665,-552,0,0,0,0,0,0,0,0,0,-1,559,1576,0,0
-658,-552,0,0,0,0,0,0,0,0,0,-1,566,1576,0,0
-651,-552,0,0,0,0,0,0,0,0,0,-1,573,1576,0,0
-644,-552,0,0,0,0,0,0,0,0,0,-1,580,1576,0,0
-637,-552,0,0,0,0,0,0,0,0,0,-1,587,1576,0,0
-630,-552,0,0,0,0,0,0,0,0,0,-1,594,1576,0,0
-623,-552,0,0,0,0,0,0,0,0,0,-1,601,1576,0,0
-616,-552,0,0,0,0,0,0,0,0,0,-1,608,1576,0,0
-609,-552,0,0,0,0,0,0,0,0,0,-1,615,1576,0,0
-602,-552,0,0,0,0,0,0,0,0,0,-1,622,1576,0,0
-595,-552,0,0,0,0,0,0,0,0,0,-1,629,1576,0,0
-588,-552,0,0,0,0,0,0,0,0,0,-1,636,1576,0,0
-581,-552,0,0,0,0,0,0,0,0,0,-1,643,1576,0,0
-574,-552,0,0,0,0,0,0,0,0,0,-1,650,1576,0,0
-567,-552,0,0,0,0,0,0,0,0,0,-1,657,1576,0,0
-560,-552,0,0,0,0,0,0,0,0,0,-1,664,1576,0,0
-553,-552,0,0,0,0,0,0,0,0,0,-1,671,1576,0,0
-546,-552,0,0,0,0,0,0,0,0,0,-1,678,1576,0,0
-539,-552,0,0,0,0,0,0,0,0,0,-1,685,1576,0,0
-532,-552,0,0,0,0,0,0,0,0,0,-1,692,1576,0,0
-525,-552,0,0,0,0,0,0,0,0,0,-1,699,1576,0,0
-518,-552,0,0,0,0,0,0,0,0,0,-1,706,1576,0,0
-511,-552,0,0,0,0,0,0,0,0,0,-1,713,1576,0,0
-504,-552,0,0,0,0,0,0,0,0,0,-1,720,1576,0,0
-497,-552,1.51282,3.96924,0,0,0,0,0,0,0,-1,727,1576,1.5128,-3.96924
-490,-552,1.07428,4.69812,0,0,0,0,0,0,0,-1,734,1576,1.07429,-4.69816
-483,-552,0.41156,5.25769,0,0,0,0,0,0,0,-1,741,1576,0.411537,-5.25764
-476,-552,-0.19696,5.93909,0,0,0,0,0,0,0,-1,748,1576,-0.196953,-5.93912
-469,-552,-0.0175781,4.98071,0,0,0,0,0,0,0,-1,755,1576,-0.0176045,-4.98074
-462,-552,0.287964,6.53333,0,0,0,0,0,0,0,-1,762,1576,0.287988,-6.5333
-455,-552,0.34314,7.20142,0.0139348,0.015357,0.0187819,0.0334412,-0.00414944,0.804319,0.0237982,0.0473049,769,1576,0.343151,-7.20138
-448,-552,0.284302,7.76477,0.0113453,0.012458,0.0140891,0.0260017,-0.00219837,0.805132,0.0181118,0.0423538,776,1576,0.284281,-7.7648
-441,-552,0.311462,8.40417,0.00882134,0.00974465,0.0102911,0.0195844,-0.00101844,0.807813,0.0134087,0.0361516,783,1576,0.311479,-8.40417
-434,-552,0.484497,8.77051,0.00690097,0.0074554,0.00735319,0.0145366,-0.000180227,0.804239,0.0097517,0.0207015,790,1576,0.484501,-8.77055
-427,-552,0.42749,8.96912,0.00518588,0.00571009,0.0050158,0.0104706,0.000425341,0.811503,0.00684305,0.0163679,797,1576,0.427472,-8.96914
-420,-552,0.447571,9.2616,0.00372135,0.00416212,0.00332264,0.00727167,0.000611795,0.818513,0.00465726,0.0190203,804,1576,0.447596,-9.26158
-413,-552,0.460022,9.50708,0.00257793,0.00282144,0.00211846,0.00482164,0.000577735,0.814103,0.0030402,0.0165721,811,1576,0.459993,-9.50705
-406,-552,0.439514,9.75952,0.00173211,0.00164343,0.00124183,0.0029304,0.000445149,0.767552,0.00182342,0.0124949,818,1576,0.439538,-9.75953
-399,-552,0.432739,10.0222,0.00115802,0.000245478,0.000445011,0.0013391,6.43966e-05,0.386452,0.000872064,0.0125378,825,1576,0.432731,-10.0222
-392,-552,0.417969,10.2756,0.00076399,-0.000665872,-0.000311368,0.000828851,-0.000730734,-0.205374,0.000901021,0.0142344,832,1576,0.417971,-10.2756
-385,-552,0.404907,10.5352,0.000548041,-0.00136035,-0.000909134,0.000911805,-0.00172411,-0.38061,0.00154575,0.0132862,839,1576,0.404923,-10.5352
-378,-552,0.401062,10.7815,0.000644269,-0.00203596,-0.00140511,0.00124586,-0.00263756,-0.404534,0.00228958,0.0146392,846,1576,0.401042,-10.7815
-371,-552,0.389038,11.0524,0.000935913,-0.00246819,-0.00195983,0.00182961,-0.00336189,-0.427839,0.00304052,0.019308,853,1576,0.389032,-11.0524
-364,-552,0.400269,11.313,0.00102822,-0.0021852,-0.00134271,0.0015154,-0.00267239,-0.348065,0.00244839,0.0152266,860,1576,0.400249,-11.313
-357,-552,0.412476,11.5483,0.000829541,-0.000834351,0.000238629,0.000863088,-0.000867898,0.139667,0.000999386,0.0102558,867,1576,0.412498,-11.5483
-350,-552,0.406128,11.8021,0.000831227,0.000306297,0.00168676,0.00227582,-0.0011383,0.708216,0.00200728,0.00980126,874,1576,0.406139,-11.8021
-343,-552,0.387634,12.0442,0.000624091,0.00228472,0.00348394,0.00503592,-0.00212711,0.902379,0.00424772,0.0103427,881,1576,0.387635,-12.0442
-336,-552,0.454712,12.2189,-7.13364e-06,0.00472298,0.00590617,0.00872003,-0.00400418,0.97584,0.00751262,0.0153953,888,1576,0.454709,-12.2189
-329,-552,0.53241,12.4719,-0.00265991,0.012387,0.0106947,0.0179394,-0.00821232,1.09193,0.0154429,0.0327526,895,1576,0.53241,-12.472
-322,-552,0.706177,12.8567,0,0,0,0,0,0,0,-1,902,1576,0.706202,-12.8567
-315,-552,1.25665,13.4503,0,0,0,0,0,0,0,-1,909,1576,1.25667,-13.4503
-308,-552,1.9967,14.129,0,0,0,0,0,0,0,-1,916,1576,1.99672,-14.129
-301,-552,0.89563,14.8687,0,0,0,0,0,0,0,-1,923,1576,0.895636,-14.8687
-294,-552,0.842163,13.7863,0,0,0,0,0,0,0,-1,930,1576,0.842149,-13.7863
-287,-552,-0.208252,14.2881,0,0,0,0,0,0,0,-1,937,1576,-0.208272,-14.2881
-280,-552,-5.47241,8.96765,0,0,0,0,0,0,0,-1,944,1576,-5.47239,-8.96766
-273,-552,1.64587,10.6685,0,0,0,0,0,0,0,-1,951,1576,1.6459,-10.6685
-266,-552,-1.32678,8.05688,0,0,0,0,0,0,0,-1,958,1576,-1.32677,-8.05683
-259,-552,-5.54321,8.31213,0,0,0,0,0,0,0,-1,965,1576,-5.54324,-8.31214
-252,-552,-1.93445,7.81543,0,0,0,0,0,0,0,-1,972,1576,-1.93445,-7.81546
-245,-552,-2.53613,6.92212,0,0,0,0,0,0,0,-1,979,1576,-2.53614,-6.92216
-238,-552,-6.5365,2.81885,0,0,0,0,0,0,0,-1,986,1576,-6.53649,-2.8188
-231,-552,-4.32239,4.34583,0,0,0,0,0,0,0,-1,993,1576,-4.32239,-4.34587
-224,-552,0,0,0,0,0,0,0,0,0,-1,1000,1576,0,0
-217,-552,0,0,0,0,0,0,0,0,0,-1,1007,1576,0,0
-210,-552,0,0,0,0,0,0,0,0,0,-1,1014,1576,0,0
-203,-552,0,0,0,0,0,0,0,0,0,-1,1021,1576,0,0
-196,-552,0,0,0,0,0,0,0,0,0,-1,1028,1576,0,0
-189,-552,0,0,0,0,0,0,0,0,0,-1,1035,1576,0,0
-182,-552,0,0,0,0,0,0,0,0,0,-1,1042,1576,0,0
-175,-552,0,0,0,0,0,0,0,0,0,-1,1049,1576,0,0
-168,-552,0,0,0,0,0,0,0,0,0,-1,1056,1576,0,0
-161,-552,0,0,0,0,0,0,0,0,0,-1,1063,1576,0,0
-154,-552,0,0,0,0,0,0,0,0,0,-1,1070,1576,0,0
-147,-552,0,0,0,0,0,0,0,0,0,-1,1077,1576,0,0
-140,-552,0,0,0,0,0,0,0,0,0,-1,1084,1576,0,0
-133,-552,0,0,0,0,0,0,0,0,0,-1,1091,1576,0,0
-126,-552,0,0,0,0,0,0,0,0,0,-1,1098,1576,0,0
-119,-552,0,0,0,0,0,0,0,0,0,-1,1105,1576,0,0
-112,-552,0,0,0,0,0,0,0,0,0,-1,1112,1576,0,0
-105,-552,0,0,0,0,0,0,0,0,0,-1,1119,1576,0,0
-98,-552,0,0,0,0,0,0,0,0,0,-1,1126,1576,0,0
-91,-552,0,0,0,0,0,0,0,0,0,-1,1133,1576,0,0
-84,-552,0,0,0,0,0,0,0,0,0,-1,1140,1576,0,0
-77,-552,0,0,0,0,0,0,0,0,0,-1,1147,1576,0,0
-70,-552,0,0,0,0,0,0,0,0,0,-1,1154,1576,0,0
-63,-552,0,0,0,0,0,0,0,0,0,-1,1161,1576,0,0
-56,-552,0,0,0,0,0,0,0,0,0,-1,1168,1576,0,0
-49,-552,0,0,0,0,0,0,0,0,0,-1,1175,1576,0,0
-42,-552,0,0,0,0,0,0,0,0,0,-1,1182,1576,0,0
-35,-552,0,0,0,0,0,0,0,0,0,-1,1189,1576,0,0
-28,-552,0,0,0,0,0,0,0,0,0,-1,1196,1576,0,0
-21,-552,0,0,0,0,0,0,0,0,0,-1,1203,1576,0,0
-14,-552,0,0,0,0,0,0,0,0,0,-1,1210,1576,0,0
-7,-552,0,0,0,0,0,0,0,0,0,-1,1217,1576,0,0
0,-552,0,0,0,0,0,0,0,0,0,-1,1224,1576,0,0
7,-552,0,0,0,0,0,0,0,0,0,-1,1231,1576,0,0
14,-552,0,0,0,0,0,0,0,0,0,-1,1238,1576,0,0
21,-552,0,0,0,0,0,0,0,0,0,-1,1245,1576,0,0
28,-552,0,0,0,0,0,0,0,0,0,-1,1252,1576,0,0
35,-552,0,0,0,0,0,0,0,0,0,-1,1259,1576,0,0
42,-552,0,0,0,0,0,0,0,0,0,-1,1266,1576,0,0
49,-552,0,0,0,0,0,0,0,0,0,-1,1273,1576,0,0
56,-552,0,0,0,0,0,0,0,0,0,-1,1280,1576,0,0
63,-552,0,0,0,0,0,0,0,0,0,-1,1287,1576,0,0
70,-552,0,0,0,0,0,0,0,0,0,-1,1294,1576,0,0
77,-552,0,0,0,0,0,0,0,0,0,-1,1301,1576,0,0
84,-552,0,0,0,0,0,0,0,0,0,-1,1308,1576,0,0
91,-552,0,0,0,0,0,0,0,0,0,-1,1315,1576,0,0
98,-552,0,0,0,0,0,0,0,0,0,-1,1322,1576,0,0
105,-552,0,0,0,0,0,0,0,0,0,-1,1329,1576,0,0
112,-552,0,0,0,0,0,0,0,0,0,-1,1336,1576,0,0
119,-552,0,0,0,0,0,0,0,0,0,-1,1343,1576,0,0
126,-552,0,0,0,0,0,0,0,0,0,-1,1350,1576,0,0
133,-552,0,0,0,0,0,0,0,0,0,-1,1357,1576,0,0
140,-552,0,0,0,0,0,0,0,0,0,-1,1364,1576,0,0
147,-552,0,0,0,0,0,0,0,0,0,-1,1371,1576,0,0
154,-552,0,0,0,0,0,0,0,0,0,-1,1378,1576,0,0
161,-552,0,0,0,0,0,0,0,0,0,-1,1385,1576,0,0
168,-552,0,0,0,0,0,0,0,0,0,-1,1392,1576,0,0
175,-552,0,0,0,0,0,0,0,0,0,-1,1399,1576,0,0
182,-552,0,0,0,0,0,0,0,0,0,-1,1406,1576,0,0
189,-552,0,0,0,0,0,0,0,0,0,-1,1413,1576,0,0
196,-552,0,0,0,0,0,0,0,0,0,-1,1420,1576,0,0
203,-552,0,0,0,0,0,0,0,0,0,-1,1427,1576,0,0
210,-552,0,0,0,0,0,0,0,0,0,-1,1434,1576,0,0
217,-552,0,0,0,0,0,0,0,0,0,-1,1441,1576,0,0
224,-552,0,0,0,0,0,0,0,0,0,-1,1448,1576,0,0
231,-552,0,0,0,0,0,0,0,0,0,-1,1455,1576,0,0
238,-552,0,0,0,0,0,0,0,0,0,-1,1462,1576,0,0
245,-552,0,0,0,0,0,0,0,0,0,-1,1469,1576,0,0
252,-552,0,0,0,0,0,0,0,0,0,-1,1476,1576,0,0
259,-552,0,0,0,0,0,0,0,0,0,-1,1483,1576,0,0
266,-552,0,0,0,0,0,0,0,0,0,-1,1490,1576,0,0
273,-552,0,0,0,0,0,0,0,0,0,-1,1497,1576,0,0
280,-552,0,0,0,0,0,0,0,0,0,-1,1504,1576,0,0
287,-552,0,0,0,0,0,0,0,0,0,-1,1511,1576,0,0
294,-552,0,0,0,0,0,0,0,0,0,-1,1518,1576,0,0
301,-552,0,0,0,0,0,0,0,0,0,-1,1525,1576,0,0
308,-552,0,0,0,0,0,0,0,0,0,-1,1532,1576,0,0
315,-552,0,0,0,0,0,0,0,0,0,-1,1539,1576,0,0
322,-552,0,0,0,0,0,0,0,0,0,-1,1546,1576,0,0
329,-552,0,0,0,0,0,0,0,0,0,-1,1553,1576,0,0
336,-552,0,0,0,0,0,0,0,0,0,-1,1560,1576,0,0
343,-552,0,0,0,0,0,0,0,0,0,-1,1567,1576,0,0
350,-552,4.97876,4.09888,0,0,0,0,0,0,0,-1,1574,1576,4.97875,-4.09883
357,-552,5.18469,4.10706,0,0,0,0,0,0,0,-1,1581,1576,5.1847,-4.10702
364,-552,5.80872,5.07031,0,0,0,0,0,0,0,-1,1588,1576,5.80874,-5.07037
371,-552,7.10657,5.64783,0,0,0,0,0,0,0,-1,1595,1576,7.10651,-5.64786
378,-552,6.44446,4.91492,0,0,0,0,0,0,0,-1,1602,1576,6.44448,-4.91496
385,-552,12.8276,3.16504,0,0,0,0,0,0,0,-1,1609,1576,12.8276,-3.16503
392,-552,12.1301,4.3363,0,0,0,0,0,0,0,-1,1616,1576,12.1302,-4.33631
399,-552,11.3486,5.6012,0,0,0,0,0,0,0,-1,1623,1576,11.3486,-5.60115
406,-552,10.7863,6.42542,0,0,0,0,0,0,0,-1,1630,1576,10.7863,-6.42536
413,-552,8.39307,10.365,0,0,0,0,0,0,0,-1,1637,1576,8.3931,-10.365
420,-552,10.2306,12.7225,0,0,0,0,0,0,0,-1,1644,1576,10.2305,-12.7226
427,-552,9.27246,15.494,0,0,0,0,0,0,0,-1,1651,1576,9.27251,-15.4941
434,-552,9.36902,14.8661,0,0,0,0,0,0,0,-1,1658,1576,9.36901,-14.8661
441,-552,10.4092,14.106,0,0,0,0,0,0,0,-1,1665,1576,10.4092,-14.1059
448,-552,10.1439,13.8541,0,0,0,0,0,0,0,-1,1672,1576,10.1439,-13.8542
455,-552,9.87415,13.2996,0,0,0,0,0,0,0,-1,1679,1576,9.87416,-13.2996
462,-552,9.24609,12.986,-0.0260566,-0.0325908,0.0289813,-0.000158789,-0.0584886,0.72927,0.0389396,0.0410832,1686,1576,9.24607,-12.986
469,-552,9.29272,13.2086,-0.0226489,-0.0270936,0.0251237,0.00035052,-0.0500931,0.741285,0.0335128,0.0365201,1693,1576,9.29274,-13.2086
476,-552,9.20044,13.1469,-0.019466,-0.0218994,0.0215224,0.000874039,-0.0422394,0.757162,0.0284554,0.0174547,1700,1576,9.20047,-13.1469
483,-552,9.20874,12.9307,-0.0163801,-0.0173859,0.0180644,0.00118834,-0.0349544,0.771482,0.023709,0.0137235,1707,1576,9.20879,-12.9306
490,-552,9.1991,12.7145,-0.0136562,-0.0134125,0.0149669,0.00143301,-0.0285017,0.789469,0.0194964,0.0144051,1714,1576,9.19908,-12.7145
497,-552,9.22571,12.4974,-0.0109692,-0.0104163,0.0119865,0.00129693,-0.0226824,0.796926,0.0155719,0.0221006,1721,1576,9.22573,-12.4974
504,-552,9.22766,12.2736,-0.00813863,-0.00794928,0.00941062,0.00136714,-0.0174551,0.790428,0.0121182,0.0214334,1728,1576,9.22767,-12.2735
511,-552,9.21191,12.0497,-0.00577889,-0.0054826,0.00696088,0.00133171,-0.0125932,0.796038,0.00887275,0.0151826,1735,1576,9.21186,-12.0497
518,-552,9.19995,11.8307,-0.00362876,-0.00368807,0.00440778,0.000749469,-0.0080663,0.782034,0.00564397,0.014365,1742,1576,9.1999,-11.8307
525,-552,9.19641,11.6038,-0.0015385,-0.00232583,0.00242671,0.000526271,-0.00439061,0.704988,0.00311734,0.0134476,1749,1576,9.19646,-11.6038
532,-552,9.22729,11.381,0.000437402,-0.00129246,0.000742938,0.000712674,-0.00156773,0.354835,0.00134709,0.0142846,1756,1576,9.2273,-11.3809
539,-552,9.20044,11.1561,0.00233984,-0.000661395,-0.000583183,0.00244918,-0.000770732,-0.185333,0.00194138,0.0176684,1763,1576,9.20048,-11.1561
546,-552,9.18164,10.915,0.0045936,-7.07143e-05,-0.00206548,0.00537675,-0.000853871,-0.362416,0.00390041,0.021085,1770,1576,9.18168,-10.915
553,-552,9.2406,10.62,0.00700945,0.000963816,-0.00357794,0.00867055,-0.000697284,-0.43465,0.00602626,0.0239375,1777,1576,9.24065,-10.62
560,-552,9.33472,10.2042,0,0,0,0,0,0,0,-1,1784,1576,9.33477,-10.2042
567,-552,9.27942,10.0641,0,0,0,0,0,0,0,-1,1791,1576,9.27939,-10.064
574,-552,9.2583,9.84216,0,0,0,0,0,0,0,-1,1798,1576,9.25835,-9.8422
581,-552,9.40039,9.42566,0,0,0,0,0,0,0,-1,1805,1576,9.40039,-9.42563
588,-552,10.5619,9.34924,0,0,0,0,0,0,0,-1,1812,1576,10.5619,-9.34921
595,-552,5.36194,6.62744,0,0,0,0,0,0,0,-1,1819,1576,5.36193,-6.62742
602,-552,10.6863,4.31616,0,0,0,0,0,0,0,-1,1826,1576,10.6862,-4.31619
609,-552,12.146,3.18286,0,0,0,0,0,0,0,-1,1833,1576,12.1459,-3.18281
616,-552,13.8762,2.08167,0,0,0,0,0,0,0,-1,1840,1576,13.8763,-2.08167
623,-552,0,0,0,0,0,0,0,0,0,-1,1847,1576,0,0
630,-552,0,0,0,0,0,0,0,0,0,-1,1854,1576,0,0
637,-552,0,0,0,0,0,0,0,0,0,-1,1861,1576,0,0
644,-552,0,0,0,0,0,0,0,0,0,-1,1868,1576,0,0
651,-552,0,0,0,0,0,0,0,0,0,-1,1875,1576,0,0
658,-552,0,0,0,0,0,0,0,0,0,-1,1882,1576,0,0
665,-552,0,0,0,0,0,0,0,0,0,-1,1889,1576,0,0
672,-552,0,0,0,0,0,0,0,0,0,-1,1896,1576,0,0
679,-552,0,0,0,0,0,0,0,0,0,-1,1903,1576,0,0
686,-552,0,0,0,0,0,0,0,0,0,-1,1910,1576,0,0
693,-552,0,0,0,0,0,0,0,0,0,-1,1917,1576,0,0
700,-552,0,0,0,0,0,0,0,0,0,-1,1924,1576,0,0
707,-552,0,0,0,0,0,0,0,0,0,-1,1931,1576,0,0
714,-552,0,0,0,0,0,0,0,0,0,-1,1938,1576,0,0
721,-552,0,0,0,0,0,0,0,0,0,-1,1945,1576,0,0
728,-552,0,0,0,0,0,0,0,0,0,-1,1952,1576,0,0
735,-552,0,0,0,0,0,0,0,0,0,-1,1959,1576,0,0
742,-552,0,0,0,0,0,0,0,0,0,-1,1966,1576,0,0
749,-552,0,0,0,0,0,0,0,0,0,-1,1973,1576,0,0
756,-552,0,0,0,0,0,0,0,0,0,-1,1980,1576,0,0
763,-552,0,0,0,0,0,0,0,0,0,-1,1987,1576,0,0
770,-552,0,0,0,0,0,0,0,0,0,-1,1994,1576,0,0
777,-552,0,0,0,0,0,0,0,0,0,-1,2001,1576,0,0
784,-552,0,0,0,0,0,0,0,0,0,-1,2008,1576,0,0
791,-552,0,0,0,0,0,0,0,0,0,-1,2015,1576,0,0
798,-552,0,0,0,0,0,0,0,0,0,-1,2022,1576,0,0
805,-552,0,0,0,0,0,0,0,0,0,-1,2029,1576,0,0
812,-552,0,0,0,0,0,0,0,0,0,-1,2036,1576,0,0
-700,-559,0,0,0,0,0,0,0,0,0,-1,524,1583,0,0
-693,-559,0,0,0,0,0,0,0,0,0,-1,531,1583,0,0
-686,-559,0,0,0,0,0,0,0,0,0,-1,538,1583,0,0
-679,-559,0,0,0,0,0,0,0,0,0,-1,545,1583,0,0
-672,-559,0,0,0,0,0,0,0,0,0,-1,552,1583,0,0
-665,-559,0,0,0,0,0,0,0,0,0,-1,559,1583,0,0
-658,-559,0,0,0,0,0,0,0,0,0,-1,566,1583,0,0
-651,-559,0,0,0,0,0,0,0,0,0,-1,573,1583,0,0
-644,-559,0,0,0,0,0,0,0,0,0,-1,580,1583,0,0
-637,-559,0,0,0,0,0,0,0,0,0,-1,587,1583,0,0
-630,-559,0,0,0,0,0,0,0,0,0,-1,594,1583,0,0
-623,-559,0,0,0,0,0,0,0,0,0,-1,601,1583,0,0
-616,-559,0,0,0,0,0,0,0,0,0,-1,608,1583,0,0
-609,-559,0,0,0,0,0,0,0,0,0,-1,615,1583,0,0
-602,-559,0,0,0,0,0,0,0,0,0,-1,622,1583,0,0
-595,-559,0,0,0,0,0,0,0,0,0,-1,629,1583,0,0
-588,-559,0,0,0,0,0,0,0,0,0,-1,636,1583,0,0
-581,-559,0,0,0,0,0,0,0,0,0,-1,643,1583,0,0
-574,-559,0,0,0,0,0,0,0,0,0,-1,650,1583,0,0
-567,-559,0,0,0,0,0,0,0,0,0,-1,657,1583,0,0
-560,-559,0,0,0,0,0,0,0,0,0,-1,664,1583,0,0
-553,-559,0,0,0,0,0,0,0,0,0,-1,671,1583,0,0
-546,-559,0,0,0,0,0,0,0,0,0,-1,678,1583,0,0
-539,-559,0,0,0,0,0,0,0,0,0,-1,685,1583,0,0
-532,-559,0,0,0,0,0,0,0,0,0,-1,692,1583,0,0
-525,-559,0,0,0,0,0,0,0,0,0,-1,699,1583,0,0
-518,-559,0,0,0,0,0,0,0,0,0,-1,706,1583,0,0
-511,-559,0,0,0,0,0,0,0,0,0,-1,713,1583,0,0
-504,-559,0,0,0,0,0,0,0,0,0,-1,720,1583,0,0
-497,-559,0,0,0,0,0,0,0,0,0,-1,727,1583,0,0
-490,-559,0.365601,3.07288,0,0,0,0,0,0,0,-1,734,1583,0.36563,-3.07291
-483,-559,-0.112427,4.25476,0,0,0,0,0,0,0,-1,741,1583,-0.112397,-4.25473
-476,-559,-0.671204,4.94214,0,0,0,0,0,0,0,-1,748,1583,-0.671186,-4.9422
-469,-559,-1.06,4.95776,0,0,0,0,0,0,0,-1,755,1583,-1.05997,-4.95782
-462,-559,-1.28772,5.69495,0,0,0,0,0,0,0,-1,762,1583,-1.28774,-5.69495
-455,-559,0.603699,6.78369,0,0,0,0,0,0,0,-1,769,1583,0.603699,-6.78375
-448,-559,0.413086,7.54138,0,0,0,0,0,0,0,-1,776,1583,0.413092,-7.54135
-441,-559,0.57489,8.32202,0.0115067,0.0126445,0.0124398,0.0245285,-0.000377213,0.808248,0.0164795,0.0457954,783,1583,0.574862,-8.32207
-434,-559,0.836182,8.69617,0.00876236,0.0093865,0.00879625,0.0178762,0.000272647,0.803129,0.0118276,0.0357154,790,1583,0.836167,-8.69622
-427,-559,0.729675,9.04187,0.00627234,0.00690294,0.0058985,0.0124946,0.000680717,0.8121,0.00811232,0.0235923,797,1583,0.729671,-9.04184
-420,-559,0.650452,9.26428,0.0041699,0.0049133,0.00382014,0.00837978,0.000703424,0.833896,0.00536743,0.0239559,804,1583,0.650454,-9.26424
-413,-559,0.692078,9.53247,0.00261089,0.00334627,0.00237581,0.00538267,0.000574484,0.862171,0.0034131,0.0124881,811,1583,0.692106,-9.53243
-406,-559,0.683228,9.78552,0.00148753,0.0020395,0.00137283,0.00316382,0.000363219,0.884592,0.00199917,0.00921439,818,1583,0.683257,-9.78549
-399,-559,0.681213,10.0411,0.000717528,0.00055512,0.00049156,0.00113455,0.000138102,0.70354,0.000714791,0.0115558,825,1583,0.681218,-10.0412
-392,-559,0.653564,10.2797,0.000182874,-0.000351133,-0.000263132,0.000290743,-0.000459002,-0.389048,0.000436484,0.0149507,832,1583,0.653535,-10.2797
-385,-559,0.633179,10.5371,-0.000139407,-0.000949632,-0.000802636,0.000354558,-0.0014436,-0.551687,0.0010998,0.0150761,839,1583,0.633202,-10.5371
-378,-559,0.65332,10.7836,-5.97138e-05,-0.00147559,-0.0011723,0.000601826,-0.00213713,-0.513762,0.00166209,0.0138354,846,1583,0.653294,-10.7835
-371,-559,0.641907,11.0544,0.000237808,-0.00174388,-0.00160881,0.00113642,-0.00264249,-0.50939,0.00223877,0.0214759,853,1583,0.641913,-11.0544
-364,-559,0.682251,11.3059,0.000411319,-0.00151585,-0.00113869,0.000939418,-0.00204395,-0.434251,0.00176136,0.0196823,860,1583,0.682261,-11.3059
-357,-559,0.680481,11.5372,0.000445477,-0.000421297,8.72237e-05,0.000454167,-0.000429987,0.0993037,0.00051053,0.0125032,867,1583,0.680503,-11.5373
-350,-559,0.672729,11.7802,0.000702864,0.000498671,0.00119451,0.00179963,-0.000598098,0.742766,0.0014411,0.0099933,874,1583,0.672725,-11.7801
-343,-559,0.663025,12.041,0.000796967,0.00205872,0.00243974,0.00394783,-0.00109215,0.911918,0.00306157,0.0105075,881,1583,0.663001,-12.041
-336,-559,0.627014,12.2556,0.000518026,0.00385556,0.00399574,0.006517,-0.00214342,0.983207,0.00520829,0.0128294,888,1583,0.627002,-12.2556
-329,-559,0.70105,12.5477,-0.00130546,0.00889736,0.00700551,0.0124621,-0.00487016,1.1001,0.0103218,0.0187568,895,1583,0.701052,-12.5477
-322,-559,0.833252,12.8854,-0.00321696,0.013361,0.00994224,0.0180163,-0.00787229,1.13288,0.0153245,0.0442864,902,1583,0.833246,-12.8853
-315,-559,1.06262,13.116,-0.00583725,0.0194264,0.0134303,0.0252319,-0.0116428,1.16278,0.0217662,0.0440907,909,1583,1.06263,-13.1159
-308,-559,1.06067,13.7262,-0.00913455,0.0268584,0.0168761,0.0335333,-0.0158094,1.19416,0.0290942,0.0394801,916,1583,1.06068,-13.7262
-301,-559,0.577087,14.3761,0,0,0,0,0,0,0,-1,923,1583,0.577073,-14.3761
-294,-559,0.231262,15.1615,0,0,0,0,0,0,0,-1,930,1583,0.231283,-15.1616
-287,-559,0.365417,13.9799,0,0,0,0,0,0,0,-1,937,1583,0.365441,-13.9799
-280,-559,0.212585,14.3644,0,0,0,0,0,0,0,-1,944,1583,0.212598,-14.3644
-273,-559,2.12836,10.3059,0,0,0,0,0,0,0,-1,951,1583,2.12839,-10.3059
-266,-559,-0.597046,6.68933,0,0,0,0,0,0,0,-1,958,1583,-0.597031,-6.68937
-259,-559,-7.00311,8.62756,0,0,0,0,0,0,0,-1,965,1583,-7.00312,-8.6275
-252,-559,-9.4483,2.87805,0,0,0,0,0,0,0,-1,972,1583,-9.44829,-2.87805
-245,-559,-4.80804,7.1803,0,0,0,0,0,0,0,-1,979,1583,-4.80804,-7.18027
-238,-559,-8.45764,2.54858,0,0,0,0,0,0,0,-1,986,1583,-8.45763,-2.54862
-231,-559,-5.86914,4.34021,0,0,0,0,0,0,0,-1,993,1583,-5.86914,-4.34019
-224,-559,-3.30505,6.22864,0,0,0,0,0,0,0,-1,1000,1583,-3.30505,-6.22859
-217,-559,0,0,0,0,0,0,0,0,0,-1,1007,1583,0,0
-210,-559,0,0,0,0,0,0,0,0,0,-1,1014,1583,0,0
-203,-559,0,0,0,0,0,0,0,0,0,-1,1021,1583,0,0
-196,-559,0,0,0,0,0,0,0,0,0,-1,1028,1583,0,0
-189,-559,0,0,0,0,0,0,0,0,0,-1,1035,1583,0,0
-182,-559,0,0,0,0,0,0,0,0,0,-1,1042,1583,0,0
-175,-559,0,0,0,0,0,0,0,0,0,-1,1049,1583,0,0
-168,-559,0,0,0,0,0,0,0,0,0,-1,1056,1583,0,0
-161,-559,0,0,0,0,0,0,0,0,0,-1,1063,1583,0,0
-154,-559,0,0,0,0,0,0,0,0,0,-1,1070,1583,0,0
-147,-559,0,0,0,0,0,0,0,0,0,-1,1077,1583,0,0
-140,-559,0,0,0,0,0,0,0,0,0,-1,1084,1583,0,0
-133,-559,0,0,0,0,0,0,0,0,0,-1,1091,1583,0,0
-126,-559,0,0,0,0,0,0,0,0,0,-1,1098,1583,0,0
-119,-559,0,0,0,0,0,0,0,0,0,-1,1105,1583,0,0
-112,-559,0,0,0,0,0,0,0,0,0,-1,1112,1583,0,0
-105,-559,0,0,0,0,0,0,0,0,0,-1,1119,1583,0,0
-98,-559,0,0,0,0,0,0,0,0,0,-1,1126,1583,0,0
-91,-559,0,0,0,0,0,0,0,0,0,-1,1133,1583,0,0
-84,-559,0,0,0,0,0,0,0,0,0,-1,1140,1583,0,0
-77,-559,0,0,0,0,0,0,0,0,0,-1,1147,1583,0,0
-70,-559,0,0,0,0,0,0,0,0,0,-1,1154,1583,0,0
-63,-559,0,0,0,0,0,0,0,0,0,-1,1161,1583,0,0
-56,-559,0,0,0,0,0,0,0,0,0,-1,1168,1583,0,0
-49,-559,0,0,0,0,0,0,0,0,0,-1,1175,1583,0,0
-42,-559,0,0,0,0,0,0,0,0,0,-1,1182,1583,0,0
-35,-559,0,0,0,0,0,0,0,0,0,-1,1189,1583,0,0
-28,-559,0,0,0,0,0,0,0,0,0,-1,1196,1583,0,0
-21,-559,0,0,0,0,0,0,0,0,0,-1,1203,1583,0,0
-14,-559,0,0,0,0,0,0,0,0,0,-1,1210,1583,0,0
-7,-559,0,0,0,0,0,0,0,0,0,-1,1217,1583,0,0
0,-559,0,0,0,0,0,0,0,0,0,-1,1224,1583,0,0
7,-559,0,0,0,0,0,0,0,0,0,-1,1231,1583,0,0
14,-559,0,0,0,0,0,0,0,0,0,-1,1238,1583,0,0
21,-559,0,0,0,0,0,0,0,0,0,-1,1245,1583,0,0
28,-559,0,0,0,0,0,0,0,0,0,-1,1252,1583,0,0
35,-559,0,0,0,0,0,0,0,0,0,-1,1259,1583,0,0
42,-559,0,0,0,0,0,0,0,0,0,-1,1266,1583,0,0
49,-559,0,0,0,0,0,0,0,0,0,-1,1273,1583,0,0
56,-559,0,0,0,0,0,0,0,0,0,-1,1280,1583,0,0
63,-559,0,0,0,0,0,0,0,0,0,-1,1287,1583,0,0
70,-559,0,0,0,0,0,0,0,0,0,-1,1294,1583,0,0
77,-559,0,0,0,0,0,0,0,0,0,-1,1301,1583,0,0
84,-559,0,0,0,0,0,0,0,0,0,-1,1308,1583,0,0
91,-559,0,0,0,0,0,0,0,0,0,-1,1315,1583,0,0
98,-559,0,0,0,0,0,0,0,0,0,-1,1322,1583,0,0
105,-559,0,0,0,0,0,0,0,0,0,-1,1329,1583,0,0
112,-559,0,0,0,0,0,0,0,0,0,-1,1336,1583,0,0
119,-559,0,0,0,0,0,0,0,0,0,-1,1343,1583,0,0
126,-559,0,0,0,0,0,0,0,0,0,-1,1350,1583,0,0
133,-559,0,0,0,0,0,0,0,0,0,-1,1357,1583,0,0
140,-559,0,0,0,0,0,0,0,0,0,-1,1364,1583,0,0
147,-559,0,0,0,0,0,0,0,0,0,-1,1371,1583,0,0
154,-559,0,0,0,0,0,0,0,0,0,-1,1378,1583,0,0
161,-559,0,0,0,0,0,0,0,0,0,-1,1385,1583,0,0
168,-559,0,0,0,0,0,0,0,0,0,-1,1392,1583,0,0
175,-559,0,0,0,0,0,0,0,0,0,-1,1399,1583,0,0
182,-559,0,0,0,0,0,0,0,0,0,-1,1406,1583,0,0
189,-559,0,0,0,0,0,0,0,0,0,-1,1413,1583,0,0
196,-559,0,0,0,0,0,0,0,0,0,-1,1420,1583,0,0
203,-559,0,0,0,0,0,0,0,0,0,-1,1427,1583,0,0
210,-559,0,0,0,0,0,0,0,0,0,-1,1434,1583,0,0
217,-559,0,0,0,0,0,0,0,0,0,-1,1441,1583,0,0
224,-559,0,0,0,0,0,0,0,0,0,-1,1448,1583,0,0
231,-559,0,0,0,0,0,0,0,0,0,-1,1455,1583,0,0
238,-559,0,0,0,0,0,0,0,0,0,-1,1462,1583,0,0
245,-559,0,0,0,0,0,0,0,0,0,-1,1469,1583,0,0
252,-559,0,0,0,0,0,0,0,0,0,-1,1476,1583,0,0
259,-559,0,0,0,0,0,0,0,0,0,-1,1483,1583,0,0
266,-559,0,0,0,0,0,0,0,0,0,-1,1490,1583,0,0
273,-559,0,0,0,0,0,0,0,0,0,-1,1497,1583,0,0
280,-559,0,0,0,0,0,0,0,0,0,-1,1504,1583,0,0
287,-559,0,0,0,0,0,0,0,0,0,-1,1511,1583,0,0
294,-559,0,0,0,0,0,0,0,0,0,-1,1518,1583,0,0
301,-559,0,0,0,0,0,0,0,0,0,-1,1525,1583,0,0
308,-559,0,0,0,0,0,0,0,0,0,-1,1532,1583,0,0
315,-559,0,0,0,0,0,0,0,0,0,-1,1539,1583,0,0
322,-559,0,0,0,0,0,0,0,0,0,-1,1546,1583,0,0
329,-559,0,0,0,0,0,0,0,0,0,-1,1553,1583,0,0
336,-559,5.97668,3.09827,0,0,0,0,0,0,0,-1,1560,1583,5.97667,-3.09824
343,-559,5.44824,2.88696,0,0,0,0,0,0,0,-1,1567,1583,5.44819,-2.88693
350,-559,4.69775,3.27051,0,0,0,0,0,0,0,-1,1574,1583,4.69771,-3.27048
357,-559,3.88025,3.60999,0,0,0,0,0,0,0,-1,1581,1583,3.88027,-3.60998
364,-559,5.00928,5.32605,0,0,0,0,0,0,0,-1,1588,1583,5.00928,-5.32607
371,-559,1.84436,2.52441,0,0,0,0,0,0,0,-1,1595,1583,1.84441,-2.52447
378,-559,6.34753,1.53137,0,0,0,0,0,0,0,-1,1602,1583,6.34752,-1.53139
385,-559,6.95911,1.48181,0,0,0,0,0,0,0,-1,1609,1583,6.95916,-1.48175
392,-559,11.6949,4.77734,0,0,0,0,0,0,0,-1,1616,1583,11.6949,-4.77731
399,-559,11.1104,5.56909,0,0,0,0,0,0,0,-1,1623,1583,11.1103,-5.56905
406,-559,10.3385,6.48657,0,0,0,0,0,0,0,-1,1630,1583,10.3385,-6.48661
413,-559,9.76147,6.97571,0,0,0,0,0,0,0,-1,1637,1583,9.76143,-6.97574
420,-559,7.77124,10.5851,0,0,0,0,0,0,0,-1,1644,1583,7.77128,-10.585
427,-559,10.1022,12.5565,0,0,0,0,0,0,0,-1,1651,1583,10.1021,-12.5565
434,-559,9.71606,14.8009,0,0,0,0,0,0,0,-1,1658,1583,9.71609,-14.8009
441,-559,9.8241,14.0288,0,0,0,0,0,0,0,-1,1665,1583,9.82405,-14.0288
448,-559,9.58923,13.8431,-0.0230745,-0.0360444,0.0272293,-0.0015686,-0.0575503,0.668496,0.0378548,0.0497225,1672,1583,9.58925,-13.8431
455,-559,8.79675,13.0574,-0.0206872,-0.0303853,0.0241612,-0.000893235,-0.0501792,0.686366,0.0331591,0.0441171,1679,1583,8.79671,-13.0574
462,-559,8.97705,13.3793,-0.0180664,-0.0251786,0.0210233,-0.000300614,-0.0429444,0.701616,0.0285299,0.0374318,1686,1583,8.97706,-13.3793
469,-559,8.93396,13.3998,-0.0155166,-0.0209139,0.0181978,0.000181586,-0.036612,0.711787,0.0244688,0.0190306,1693,1583,8.93394,-13.3998
476,-559,8.95642,13.1801,-0.0132288,-0.0168048,0.0155184,0.000604296,-0.0306379,0.728043,0.0206297,0.00924185,1700,1583,8.9564,-13.18
483,-559,8.97327,12.9387,-0.0108909,-0.0132756,0.0129364,0.000907969,-0.0250745,0.739443,0.017027,0.0111716,1707,1583,8.97327,-12.9387
490,-559,8.97021,12.7098,-0.00872727,-0.0101238,0.0105245,0.00112213,-0.0199732,0.752274,0.0137048,0.0156215,1714,1583,8.97019,-12.7098
497,-559,8.97241,12.489,-0.00660706,-0.00778045,0.00818792,0.00101516,-0.0154027,0.749632,0.010623,0.0188661,1721,1583,8.97237,-12.489
504,-559,8.98254,12.2813,-0.00432662,-0.00583332,0.00619091,0.00115661,-0.0113165,0.724852,0.00795797,0.0221489,1728,1583,8.98255,-12.2813
511,-559,8.96155,12.0559,-0.00244609,-0.00386676,0.0042658,0.00116812,-0.00748096,0.702896,0.00541881,0.0192591,1735,1583,8.96158,-12.0559
518,-559,8.96191,11.8357,-0.000765957,-0.00252411,0.00224986,0.000770467,-0.00406054,0.599155,0.00299704,0.0128791,1742,1583,8.96195,-11.8357
525,-559,8.96667,11.6039,0.000862999,-0.00160371,0.000711588,0.00105355,-0.00179427,0.26165,0.00166263,0.0111054,1749,1583,8.96663,-11.6039
532,-559,8.97107,11.3677,0.00238148,-0.00100526,-0.000555579,0.00247029,-0.00109407,-0.158512,0.0021084,0.0134993,1756,1583,8.9711,-11.3676
539,-559,8.96069,11.1438,0.00389044,-0.000721355,-0.00157007,0.00437421,-0.00120513,-0.298894,0.00339002,0.0177217,1763,1583,8.96073,-11.1438
546,-559,8.94189,10.9137,0.00584192,-0.000566226,-0.00275938,0.00686636,-0.00159066,-0.355483,0.00518969,0.0160016,1770,1583,8.94186,-10.9137
553,-559,9.07898,10.6041,0.00807992,0.000229926,-0.00403693,0.00978541,-0.00147556,-0.399727,0.007067,0.0262724,1777,1583,9.079,-10.6042
560,-559,9.11194,10.2633,0,0,0,0,0,0,0,-1,1784,1583,9.11189,-10.2633
567,-559,8.57544,9.39636,0,0,0,0,0,0,0,-1,1791,1583,8.57549,-9.39642
574,-559,8.79309,8.98853,0,0,0,0,0,0,0,-1,1798,1583,8.79305,-8.98848
581,-559,5.97095,5.96179,0,0,0,0,0,0,0,-1,1805,1583,5.97093,-5.96181
588,-559,5.79102,5.89954,0,0,0,0,0,0,0,-1,1812,1583,5.79098,-5.89949
595,-559,5.79089,6.24231,0,0,0,0,0,0,0,-1,1819,1583,5.7909,-6.24227
602,-559,12.478,2.35669,0,0,0,0,0,0,0,-1,1826,1583,12.4781,-2.35675
609,-559,14.0479,1.22681,0,0,0,0,0,0,0,-1,1833,1583,14.0479,-1.22681
616,-559,0,0,0,0,0,0,0,0,0,-1,1840,1583,0,0
623,-559,0,0,0,0,0,0,0,0,0,-1,1847,1583,0,0
630,-559,0,0,0,0,0,0,0,0,0,-1,1854,1583,0,0
637,-559,0,0,0,0,0,0,0,0,0,-1,1861,1583,0,0
644,-559,0,0,0,0,0,0,0,0,0,-1,1868,1583,0,0
651,-559,0,0,0,0,0,0,0,0,0,-1,1875,1583,0,0
658,-559,0,0,0,0,0,0,0,0,0,-1,1882,1583,0,0
665,-559,0,0,0,0,0,0,0,0,0,-1,1889,1583,0,0
672,-559,0,0,0,0,0,0,0,0,0,-1,1896,1583,0,0
679,-559,0,0,0,0,0,0,0,0,0,-1,1903,1583,0,0
686,-559,0,0,0,0,0,0,0,0,0,-1,1910,1583,0,0
693,-559,0,0,0,0,0,0,0,0,0,-1,1917,1583,0,0
700,-559,0,0,0,0,0,0,0,0,0,-1,1924,1583,0,0
707,-559,0,0,0,0,0,0,0,0,0,-1,1931,1583,0,0
714,-559,0,0,0,0,0,0,0,0,0,-1,1938,1583,0,0
721,-559,0,0,0,0,0,0,0,0,0,-1,1945,1583,0,0
728,-559,0,0,0,0,0,0,0,0,0,-1,1952,1583,0,0
735,-559,0,0,0,0,0,0,0,0,0,-1,1959,1583,0,0
742,-559,0,0,0,0,0,0,0,0,0,-1,1966,1583,0,0
749,-559,0,0,0,0,0,0,0,0,0,-1,1973,1583,0,0
756,-559,0,0,0,0,0,0,0,0,0,-1,1980,1583,0,0
763,-559,0,0,0,0,0,0,0,0,0,-1,1987,1583,0,0
770,-559,0,0,0,0,0,0,0,0,0,-1,1994,1583,0,0
777,-559,0,0,0,0,0,0,0,0,0,-1,2001,1583,0,0
784,-559,0,0,0,0,0,0,0,0,0,-1,2008,1583,0,0
791,-559,0,0,0,0,0,0,0,0,0,-1,2015,1583,0,0
798,-559,0,0,0,0,0,0,0,0,0,-1,2022,1583,0,0
805,-559,0,0,0,0,0,0,0,0,0,-1,2029,1583,0,0
812,-559,0,0,0,0,0,0,0,0,0,-1,2036,1583,0,0
-700,-566,0,0,0,0,0,0,0,0,0,-1,524,1590,0,0
-693,-566,0,0,0,0,0,0,0,0,0,-1,531,1590,0,0
-686,-566,0,0,0,0,0,0,0,0,0,-1,538,1590,0,0
-679,-566,0,0,0,0,0,0,0,0,0,-1,545,1590,0,0
-672,-566,0,0,0,0,0,0,0,0,0,-1,552,1590,0,0
-665,-566,0,0,0,0,0,0,0,0,0,-1,559,1590,0,0
-658,-566,0,0,0,0,0,0,0,0,0,-1,566,1590,0,0
-651,-566,0,0,0,0,0,0,0,0,0,-1,573,1590,0,0
-644,-566,0,0,0,0,0,0,0,0,0,-1,580,1590,0,0
-637,-566,0,0,0,0,0,0,0,0,0,-1,587,1590,0,0
-630,-566,0,0,0,0,0,0,0,0,0,-1,594,1590,0,0
-623,-566,0,0,0,0,0,0,0,0,0,-1,601,1590,0,0
-616,-566,0,0,0,0,0,0,0,0,0,-1,608,1590,0,0
-609,-566,0,0,0,0,0,0,0,0,0,-1,615,1590,0,0
-602,-566,0,0,0,0,0,0,0,0,0,-1,622,1590,0,0
-595,-566,0,0,0,0,0,0,0,0,0,-1,629,1590,0,0
-588,-566,0,0,0,0,0,0,0,0,0,-1,636,1590,0,0
-581,-566,0,0,0,0,0,0,0,0,0,-1,643,1590,0,0
-574,-566,0,0,0,0,0,0,0,0,0,-1,650,1590,0,0
-567,-566,0,0,0,0,0,0,0,0,0,-1,657,1590,0,0
-560,-566,0,0,0,0,0,0,0,0,0,-1,664,1590,0,0
-553,-566,0,0,0,0,0,0,0,0,0,-1,671,1590,0,0
-546,-566,0,0,0,0,0,0,0,0,0,-1,678,1590,0,0
-539,-566,0,0,0,0,0,0,0,0,0,-1,685,1590,0,0
-532,-566,0,0,0,0,0,0,0,0,0,-1,692,1590,0,0
-525,-566,0,0,0,0,0,0,0,0,0,-1,699,1590,0,0
-518,-566,0,0,0,0,0,0,0,0,0,-1,706,1590,0,0
-511,-566,0,0,0,0,0,0,0,0,0,-1,713,1590,0,0
-504,-566,0,0,0,0,0,0,0,0,0,-1,720,1590,0,0
-497,-566,0,0,0,0,0,0,0,0,0,-1,727,1590,0,0
-490,-566,0,0,0,0,0,0,0,0,0,-1,734,1590,0,0
-483,-566,-2.4743,2.07825,0,0,0,0,0,0,0,-1,741,1590,-2.47428,-2.07829
-476,-566,-1.80646,2.39294,0,0,0,0,0,0,0,-1,748,1590,-1.80644,-2.39298
-469,-566,-1.15375,3.03284,0,0,0,0,0,0,0,-1,755,1590,-1.15378,-3.03283
-462,-566,-0.459106,3.89343,0,0,0,0,0,0,0,-1,762,1590,-0.459095,-3.89341
-455,-566,0.280212,4.74023,0,0,0,0,0,0,0,-1,769,1590,0.280207,-4.74023
-448,-566,0.436951,5.51306,0,0,0,0,0,0,0,-1,776,1590,0.436971,-5.51301
-441,-566,0.951965,7.96814,0,0,0,0,0,0,0,-1,783,1590,0.951945,-7.96812
-434,-566,1.17456,8.63916,0,0,0,0,0,0,0,-1,790,1590,1.17455,-8.63919
-427,-566,0.458069,9.06262,0.00732372,0.00804008,0.00674108,0.0144325,0.000931309,0.81194,0.00932674,0.0429581,797,1590,0.458099,-9.06258
-420,-566,0.763794,9.38342,0.00455015,0.00559559,0.00425982,0.00936464,0.000781098,0.846448,0.0059997,0.0361992,804,1590,0.763784,-9.38341
-413,-566,0.923767,9.5448,0.0025655,0.00377481,0.00263267,0.00587136,0.000468941,0.898277,0.00376767,0.0175357,811,1590,0.923739,-9.5448
-406,-566,0.925476,9.80054,0.00117487,0.00230307,0.00154724,0.00338584,9.21121e-05,0.960203,0.00222715,0.00912106,818,1590,0.925476,-9.80051
-399,-566,0.929199,10.0516,0.000225681,0.000707074,0.000620383,0.00113182,-0.000199063,0.970449,0.000828905,0.00934263,825,1590,0.929191,-10.0517
-392,-566,0.891602,10.2872,-0.000421308,-0.000230518,-8.63813e-05,-0.00019722,-0.000454606,-1.20287,0.000263232,0.0112912,832,1590,0.891632,-10.2873
-385,-566,0.898987,10.5488,-0.000821119,-0.000776417,-0.000541789,-0.000256518,-0.00134102,-0.806013,0.000821958,0.0131558,839,1590,0.898983,-10.5489
-378,-566,0.901672,10.8185,-0.000742789,-0.00120168,-0.000789108,-0.000150448,-0.00179403,-0.643915,0.00114916,0.0141136,846,1590,0.901702,-10.8184
-371,-566,0.874512,11.0701,-0.000436282,-0.00138017,-0.00113436,0.00032039,-0.00213684,-0.588268,0.00154249,0.0200233,853,1590,0.874539,-11.0701
-364,-566,0.922913,11.3119,-0.000196491,-0.00123766,-0.000806858,0.000243148,-0.0016773,-0.498902,0.00120743,0.0212444,860,1590,0.92289,-11.3119
-357,-566,0.925415,11.5253,3.39883e-05,-0.000388398,0.00010141,5.70739e-05,-0.000411484,0.223832,0.000295192,0.0187018,867,1590,0.925391,-11.5253
-350,-566,0.904785,11.7714,0.000476388,0.000351687,0.000908277,0.00132445,-0.000496377,0.751128,0.00108689,0.0214059,874,1590,0.904805,-11.7713
-343,-566,0.887634,11.9875,0.000765868,0.00157401,0.00172033,0.00293709,-0.000597207,0.900748,0.00218451,0.0245701,881,1590,0.887606,-11.9876
-336,-566,0.856995,12.2532,0.000730813,0.00289872,0.00265092,0.00467874,-0.0010492,0.979475,0.00352139,0.0242903,888,1590,0.856979,-12.2532
-329,-566,0.911194,12.4664,-0.000493355,0.00611321,0.00437655,0.00829317,-0.00267331,1.10867,0.00660281,0.0158126,895,1590,0.911206,-12.4664
-322,-566,0.977905,12.7444,-0.0018564,0.0088552,0.00589793,0.0114662,-0.00446741,1.15403,0.00949049,0.0185869,902,1590,0.977892,-12.7444
-315,-566,0.968262,12.8794,-0.00371441,0.0125276,0.00763515,0.0155532,-0.00673998,1.19351,0.013202,0.0313115,909,1590,0.968265,-12.8794
-308,-566,0.872131,13.12,-0.00612,0.0168802,0.00922368,0.0201222,-0.00936197,1.2328,0.0173964,0.038598,916,1590,0.872125,-13.12
-301,-566,0.258484,13.8835,0,0,0,0,0,0,0,-1,923,1590,0.25851,-13.8836
-294,-566,0.756287,13.7618,-0.0140524,0.0269534,0.0116095,0.0300121,-0.0171111,1.31318,0.0275444,0.0439875,930,1590,0.756309,-13.7619
-287,-566,0.942139,13.6416,-0.0194776,0.0334575,0.0123816,0.0362104,-0.0222305,1.35202,0.0340611,0.0468636,937,1590,0.942116,-13.6416
-280,-566,0.842407,13.7201,0,0,0,0,0,0,0,-1,944,1590,0.842422,-13.7201
-273,-566,0.49762,11.2427,0,0,0,0,0,0,0,-1,951,1590,0.497591,-11.2426
-266,-566,0.392151,6.90295,0,0,0,0,0,0,0,-1,958,1590,0.392151,-6.90294
-259,-566,0.343628,6.47437,0,0,0,0,0,0,0,-1,965,1590,0.34363,-6.47438
-252,-566,-7.68311,1.01343,0,0,0,0,0,0,0,-1,972,1590,-7.68308,-1.01348
-245,-566,-11.1835,1.97522,0,0,0,0,0,0,0,-1,979,1590,-11.1835,-1.97527
-238,-566,-10.4883,2.40491,0,0,0,0,0,0,0,-1,986,1590,-10.4883,-2.40487
-231,-566,-7.41827,4.22803,0,0,0,0,0,0,0,-1,993,1590,-7.41827,-4.22803
-224,-566,-4.67188,6.30859,0,0,0,0,0,0,0,-1,1000,1590,-4.67185,-6.30853
-217,-566,-2.82867,7.52527,0,0,0,0,0,0,0,-1,1007,1590,-2.82869,-7.52531
-210,-566,-1.03436,8.67737,0,0,0,0,0,0,0,-1,1014,1590,-1.03439,-8.67733
-203,-566,0,0,0,0,0,0,0,0,0,-1,1021,1590,0,0
-196,-566,0,0,0,0,0,0,0,0,0,-1,1028,1590,0,0
-189,-566,0,0,0,0,0,0,0,0,0,-1,1035,1590,0,0
-182,-566,0,0,0,0,0,0,0,0,0,-1,1042,1590,0,0
-175,-566,0,0,0,0,0,0,0,0,0,-1,1049,1590,0,0
-168,-566,0,0,0,0,0,0,0,0,0,-1,1056,1590,0,0
-161,-566,0,0,0,0,0,0,0,0,0,-1,1063,1590,0,0
-154,-566,0,0,0,0,0,0,0,0,0,-1,1070,1590,0,0
-147,-566,0,0,0,0,0,0,0,0,0,-1,1077,1590,0,0
-140,-566,0,0,0,0,0,0,0,0,0,-1,1084,1590,0,0
-133,-566,0,0,0,0,0,0,0,0,0,-1,1091,1590,0,0
-126,-566,0,0,0,0,0,0,0,0,0,-1,1098,1590,0,0
-119,-566,0,0,0,0,0,0,0,0,0,-1,1105,1590,0,0
-112,-566,0,0,0,0,0,0,0,0,0,-1,1112,1590,0,0
-105,-566,0,0,0,0,0,0,0,0,0,-1,1119,1590,0,0
-98,-566,0,0,0,0,0,0,0,0,0,-1,1126,1590,0,0
-91,-566,0,0,0,0,0,0,0,0,0,-1,1133,1590,0,0
-84,-566,0,0,0,0,0,0,0,0,0,-1,1140,1590,0,0
-77,-566,0,0,0,0,0,0,0,0,0,-1,1147,1590,0,0
-70,-566,0,0,0,0,0,0,0,0,0,-1,1154,1590,0,0
-63,-566,0,0,0,0,0,0,0,0,0,-1,1161,1590,0,0
-56,-566,0,0,0,0,0,0,0,0,0,-1,1168,1590,0,0
-49,-566,0,0,0,0,0,0,0,0,0,-1,1175,1590,0,0
-42,-566,0,0,0,0,0,0,0,0,0,-1,1182,1590,0,0
-35,-566,0,0,0,0,0,0,0,0,0,-1,1189,1590,0,0
-28,-566,0,0,0,0,0,0,0,0,0,-1,1196,1590,0,0
-21,-566,0,0,0,0,0,0,0,0,0,-1,1203,1590,0,0
-14,-566,0,0,0,0,0,0,0,0,0,-1,1210,1590,0,0
-7,-566,0,0,0,0,0,0,0,0,0,-1,1217,1590,0,0
0,-566,0,0,0,0,0,0,0,0,0,-1,1224,1590,0,0
7,-566,0,0,0,0,0,0,0,0,0,-1,1231,1590,0,0
14,-566,0,0,0,0,0,0,0,0,0,-1,1238,1590,0,0
21,-566,0,0,0,0,0,0,0,0,0,-1,1245,1590,0,0
28,-566,0,0,0,0,0,0,0,0,0,-1,1252,1590,0,0
35,-566,0,0,0,0,0,0,0,0,0,-1,1259,1590,0,0
42,-566,0,0,0,0,0,0,0,0,0,-1,1266,1590,0,0
49,-566,0,0,0,0,0,0,0,0,0,-1,1273,1590,0,0
56,-566,0,0,0,0,0,0,0,0,0,-1,1280,1590,0,0
63,-566,0,0,0,0,0,0,0,0,0,-1,1287,1590,0,0
70,-566,0,0,0,0,0,0,0,0,0,-1,1294,1590,0,0
77,-566,0,0,0,0,0,0,0,0,0,-1,1301,1590,0,0
84,-566,0,0,0,0,0,0,0,0,0,-1,1308,1590,0,0
91,-566,0,0,0,0,0,0,0,0,0,-1,1315,1590,0,0
98,-566,0,0,0,0,0,0,0,0,0,-1,1322,1590,0,0
105,-566,0,0,0,0,0,0,0,0,0,-1,1329,1590,0,0
112,-566,0,0,0,0,0,0,0,0,0,-1,1336,1590,0,0
119,-566,0,0,0,0,0,0,0,0,0,-1,1343,1590,0,0
126,-566,0,0,0,0,0,0,0,0,0,-1,1350,1590,0,0
133,-566,0,0,0,0,0,0,0,0,0,-1,1357,1590,0,0
140,-566,0,0,0,0,0,0,0,0,0,-1,1364,1590,0,0
147,-566,0,0,0,0,0,0,0,0,0,-1,1371,1590,0,0
154,-566,0,0,0,0,0,0,0,0,0,-1,1378,1590,0,0
161,-566,0,0,0,0,0,0,0,0,0,-1,1385,1590,0,0
168,-566,0,0,0,0,0,0,0,0,0,-1,1392,1590,0,0
175,-566,0,0,0,0,0,0,0,0,0,-1,1399,1590,0,0
182,-566,0,0,0,0,0,0,0,0,0,-1,1406,1590,0,0
189,-566,0,0,0,0,0,0,0,0,0,-1,1413,1590,0,0
196,-566,0,0,0,0,0,0,0,0,0,-1,1420,1590,0,0
203,-566,0,0,0,0,0,0,0,0,0,-1,1427,1590,0,0
210,-566,0,0,0,0,0,0,0,0,0,-1,1434,1590,0,0
217,-566,0,0,0,0,0,0,0,0,0,-1,1441,1590,0,0
224,-566,0,0,0,0,0,0,0,0,0,-1,1448,1590,0,0
231,-566,0,0,0,0,0,0,0,0,0,-1,1455,1590,0,0
238,-566,0,0,0,0,0,0,0,0,0,-1,1462,1590,0,0
245,-566,0,0,0,0,0,0,0,0,0,-1,1469,1590,0,0
252,-566,0,0,0,0,0,0,0,0,0,-1,1476,1590,0,0
259,-566,0,0,0,0,0,0,0,0,0,-1,1483,1590,0,0
266,-566,0,0,0,0,0,0,0,0,0,-1,1490,1590,0,0
273,-566,0,0,0,0,0,0,0,0,0,-1,1497,1590,0,0
280,-566,0,0,0,0,0,0,0,0,0,-1,1504,1590,0,0
287,-566,0,0,0,0,0,0,0,0,0,-1,1511,1590,0,0
294,-566,0,0,0,0,0,0,0,0,0,-1,1518,1590,0,0
301,-566,0,0,0,0,0,0,0,0,0,-1,1525,1590,0,0
308,-566,0,0,0,0,0,0,0,0,0,-1,1532,1590,0,0
315,-566,0,0,0,0,0,0,0,0,0,-1,1539,1590,0,0
322,-566,6.07983,4.44873,0,0,0,0,0,0,0,-1,1546,1590,6.07983,-4.44873
329,-566,5.77026,3.47534,0,0,0,0,0,0,0,-1,1553,1590,5.77026,-3.47535
336,-566,5.41138,2.62915,0,0,0,0,0,0,0,-1,1560,1590,5.41138,-2.62909
343,-566,4.81873,1.79089,0,0,0,0,0,0,0,-1,1567,1590,4.81878,-1.79095
350,-566,4.41663,2.44214,0,0,0,0,0,0,0,-1,1574,1590,4.41666,-2.44214
357,-566,6.34058,5.18579,0,0,0,0,0,0,0,-1,1581,1590,6.34059,-5.1858
364,-566,6.06262,4.20251,0,0,0,0,0,0,0,-1,1588,1590,6.06259,-4.20246
371,-566,5.78455,3.21912,0,0,0,0,0,0,0,-1,1595,1590,5.7846,-3.21912
378,-566,5.7439,0.695557,0,0,0,0,0,0,0,-1,1602,1590,5.74392,-0.695531
385,-566,5.67615,-0.573975,0,0,0,0,0,0,0,-1,1609,1590,5.67612,0.573956
392,-566,5.78638,1.82434,0,0,0,0,0,0,0,-1,1616,1590,5.78637,-1.82439
399,-566,5.36621,1.7373,0,0,0,0,0,0,0,-1,1623,1590,5.36627,-1.7373
406,-566,4.30359,5.26868,0,0,0,0,0,0,0,-1,1630,1590,4.30364,-5.26867
413,-566,4.27124,5.79492,0,0,0,0,0,0,0,-1,1637,1590,4.27123,-5.7949
420,-566,7.19812,8.25146,0,0,0,0,0,0,0,-1,1644,1590,7.19817,-8.25149
427,-566,10.455,10.6842,0,0,0,0,0,0,0,-1,1651,1590,10.455,-10.6842
434,-566,8.52795,13.343,0,0,0,0,0,0,0,-1,1658,1590,8.52795,-13.343
441,-566,8.86279,14.1454,0,0,0,0,0,0,0,-1,1665,1590,8.86285,-14.1454
448,-566,9.04456,13.8738,-0.0159551,-0.0274149,0.0199455,-0.000932816,-0.0424372,0.645526,0.0279857,0.0380647,1672,1590,9.04455,-13.8738
455,-566,8.74146,13.7773,-0.0142756,-0.023074,0.0175119,-0.000618765,-0.0367308,0.662338,0.0242836,0.0280541,1679,1590,8.74148,-13.7774
462,-566,8.70398,13.6101,-0.012379,-0.0190555,0.0150524,-0.000299073,-0.0311354,0.676276,0.020658,0.0166693,1686,1590,8.70403,-13.6101
469,-566,8.74109,13.3694,-0.0105145,-0.0157559,0.0129114,3.94564e-05,-0.0263099,0.685272,0.0175531,0.012425,1693,1590,8.74105,-13.3694
476,-566,8.74719,13.1481,-0.00887373,-0.0125391,0.0108913,0.000338042,-0.0217509,0.702044,0.0146146,0.00951922,1700,1590,8.74723,-13.148
483,-566,8.73486,12.934,-0.00707854,-0.00982724,0.0089562,0.000608143,-0.0175139,0.709266,0.0118839,0.00927428,1707,1590,8.73488,-12.9339
490,-566,8.72827,12.7097,-0.00529048,-0.00738836,0.00703974,0.000778032,-0.0134569,0.711441,0.00924152,0.0107318,1714,1590,8.72829,-12.7097
497,-566,8.74402,12.4902,-0.00357324,-0.00561861,0.00519168,0.000695525,-0.00988738,0.688151,0.00683523,0.0139352,1721,1590,8.74401,-12.4902
504,-566,8.76331,12.2837,-0.00170697,-0.00414596,0.00364061,0.000912962,-0.00676589,0.623787,0.00484368,0.0186024,1728,1590,8.7633,-12.2837
511,-566,8.74658,12.0543,-0.000143854,-0.00268663,0.0021278,0.00106346,-0.00389394,0.516104,0.00301366,0.018989,1735,1590,8.74656,-12.0543
518,-566,8.74268,11.8218,0.00124569,-0.00180248,0.000577413,0.00135141,-0.0019082,0.181074,0.00189106,0.0116357,1742,1590,8.74273,-11.8218
525,-566,8.74341,11.5861,0.00259816,-0.00133158,-0.000588612,0.00268443,-0.00141785,-0.14553,0.00240579,0.0107719,1749,1590,8.74339,-11.586
532,-566,8.74243,11.3622,0.00383401,-0.00118074,-0.00149543,0.00424609,-0.00159282,-0.268889,0.00348519,0.0129964,1756,1590,8.74249,-11.3622
539,-566,8.75342,11.1141,0.00510544,-0.00125198,-0.00224756,0.00581976,-0.00196631,-0.307726,0.0046752,0.0173291,1763,1590,8.75337,-11.1142
546,-566,8.80115,10.8234,0.00687233,-0.00153943,-0.00317421,0.0079357,-0.0026028,-0.323254,0.00633877,0.0202632,1770,1590,8.8011,-10.8233
553,-566,8.83313,10.677,0.00905251,-0.00101219,-0.00425107,0.0106077,-0.00256741,-0.350718,0.00806502,0.0386394,1777,1590,8.83308,-10.677
560,-566,8.65662,10.4569,0,0,0,0,0,0,0,-1,1784,1590,8.65666,-10.4569
567,-566,8.90405,10.0139,0,0,0,0,0,0,0,-1,1791,1590,8.90405,-10.0139
574,-566,7.99548,3.14514,0,0,0,0,0,0,0,-1,1798,1590,7.99543,-3.14511
581,-566,2.54102,5.1311,0,0,0,0,0,0,0,-1,1805,1590,2.54099,-5.13111
588,-566,-1.91321,8.39197,0,0,0,0,0,0,0,-1,1812,1590,-1.91316,-8.39199
595,-566,9.0271,4.66467,0,0,0,0,0,0,0,-1,1819,1590,9.02705,-4.66468
602,-566,9.953,3.54895,0,0,0,0,0,0,0,-1,1826,1590,9.953,-3.54898
609,-566,0,0,0,0,0,0,0,0,0,-1,1833,1590,0,0
616,-566,0,0,0,0,0,0,0,0,0,-1,1840,1590,0,0
623,-566,0,0,0,0,0,0,0,0,0,-1,1847,1590,0,0
630,-566,0,0,0,0,0,0,0,0,0,-1,1854,1590,0,0
637,-566,0,0,0,0,0,0,0,0,0,-1,1861,1590,0,0
644,-566,0,0,0,0,0,0,0,0,0,-1,1868,1590,0,0
651,-566,0,0,0,0,0,0,0,0,0,-1,1875,1590,0,0
658,-566,0,0,0,0,0,0,0,0,0,-1,1882,1590,0,0
665,-566,0,0,0,0,0,0,0,0,0,-1,1889,1590,0,0
672,-566,0,0,0,0,0,0,0,0,0,-1,1896,1590,0,0
679,-566,0,0,0,0,0,0,0,0,0,-1,1903,1590,0,0
686,-566,0,0,0,0,0,0,0,0,0,-1,1910,1590,0,0
693,-566,0,0,0,0,0,0,0,0,0,-1,1917,1590,0,0
700,-566,0,0,0,0,0,0,0,0,0,-1,1924,1590,0,0
707,-566,0,0,0,0,0,0,0,0,0,-1,1931,1590,0,0
714,-566,0,0,0,0,0,0,0,0,0,-1,1938,1590,0,0
721,-566,0,0,0,0,0,0,0,0,0,-1,1945,1590,0,0
728,-566,0,0,0,0,0,0,0,0,0,-1,1952,1590,0,0
735,-566,0,0,0,0,0,0,0,0,0,-1,1959,1590,0,0
742,-566,0,0,0,0,0,0,0,0,0,-1,1966,1590,0,0
749,-566,0,0,0,0,0,0,0,0,0,-1,1973,1590,0,0
756,-566,0,0,0,0,0,0,0,0,0,-1,1980,1590,0,0
763,-566,0,0,0,0,0,0,0,0,0,-1,1987,1590,0,0
770,-566,0,0,0,0,0,0,0,0,0,-1,1994,1590,0,0
777,-566,0,0,0,0,0,0,0,0,0,-1,2001,1590,0,0
784,-566,0,0,0,0,0,0,0,0,0,-1,2008,1590,0,0
791,-566,0,0,0,0,0,0,0,0,0,-1,2015,1590,0,0
798,-566,0,0,0,0,0,0,0,0,0,-1,2022,1590,0,0
805,-566,0,0,0,0,0,0,0,0,0,-1,2029,1590,0,0
812,-566,0,0,0,0,0,0,0,0,0,-1,2036,1590,0,0
-700,-573,0,0,0,0,0,0,0,0,0,-1,524,1597,0,0
-693,-573,0,0,0,0,0,0,0,0,0,-1,531,1597,0,0
-686,-573,0,0,0,0,0,0,0,0,0,-1,538,1597,0,0
-679,-573,0,0,0,0,0,0,0,0,0,-1,545,1597,0,0
-672,-573,0,0,0,0,0,0,0,0,0,-1,552,1597,0,0
-665,-573,0,0,0,0,0,0,0,0,0,-1,559,1597,0,0
-658,-573,0,0,0,0,0,0,0,0,0,-1,566,1597,0,0
-651,-573,0,0,0,0,0,0,0,0,0,-1,573,1597,0,0
-644,-573,0,0,0,0,0,0,0,0,0,-1,580,1597,0,0
-637,-573,0,0,0,0,0,0,0,0,0,-1,587,1597,0,0
-630,-573,0,0,0,0,0,0,0,0,0,-1,594,1597,0,0
-623,-573,0,0,0,0,0,0,0,0,0,-1,601,1597,0,0
-616,-573,0,0,0,0,0,0,0,0,0,-1,608,1597,0,0
-609,-573,0,0,0,0,0,0,0,0,0,-1,615,1597,0,0
-602,-573,0,0,0,0,0,0,0,0,0,-1,622,1597,0,0
-595,-573,0,0,0,0,0,0,0,0,0,-1,629,1597,0,0
-588,-573,0,0,0,0,0,0,0,0,0,-1,636,1597,0,0
-581,-573,0,0,0,0,0,0,0,0,0,-1,643,1597,0,0
-574,-573,0,0,0,0,0,0,0,0,0,-1,650,1597,0,0
-567,-573,0,0,0,0,0,0,0,0,0,-1,657,1597,0,0
-560,-573,0,0,0,0,0,0,0,0,0,-1,664,1597,0,0
-553,-573,0,0,0,0,0,0,0,0,0,-1,671,1597,0,0
-546,-573,0,0,0,0,0,0,0,0,0,-1,678,1597,0,0
-539,-573,0,0,0,0,0,0,0,0,0,-1,685,1597,0,0
-532,-573,0,0,0,0,0,0,0,0,0,-1,692,1597,0,0
-525,-573,0,0,0,0,0,0,0,0,0,-1,699,1597,0,0
-518,-573,0,0,0,0,0,0,0,0,0,-1,706,1597,0,0
-511,-573,0,0,0,0,0,0,0,0,0,-1,713,1597,0,0
-504,-573,0,0,0,0,0,0,0,0,0,-1,720,1597,0,0
-497,-573,0,0,0,0,0,0,0,0,0,-1,727,1597,0,0
-490,-573,0,0,0,0,0,0,0,0,0,-1,734,1597,0,0
-483,-573,0,0,0,0,0,0,0,0,0,-1,741,1597,0,0
-476,-573,-1.86273,0.293091,0,0,0,0,0,0,0,-1,748,1597,-1.86276,-0.29314
-469,-573,-1.41681,1.13379,0,0,0,0,0,0,0,-1,755,1597,-1.41681,-1.13382
-462,-573,-0.748535,2.02588,0,0,0,0,0,0,0,-1,762,1597,-0.748533,-2.02584
-455,-573,-0.112976,2.70703,0,0,0,0,0,0,0,-1,769,1597,-0.112988,-2.70697
-448,-573,-1.26172,3.33252,0,0,0,0,0,0,0,-1,776,1597,-1.26173,-3.33248
-441,-573,0.108582,5.06726,0,0,0,0,0,0,0,-1,783,1597,0.108584,-5.06721
-434,-573,1.61768,7.05444,0,0,0,0,0,0,0,-1,790,1597,1.61767,-7.05446
-427,-573,0.485352,9.06689,0,0,0,0,0,0,0,-1,797,1597,0.485358,-9.06687
-420,-573,0.942749,9.20715,0.00462656,0.0058806,0.00430861,0.00960757,0.000899587,0.857655,0.00612724,0.0458929,804,1597,0.942779,-9.20719
-413,-573,1.3396,9.44336,0.00238084,0.00380715,0.00270804,0.00589436,0.000293622,0.914149,0.00383545,0.0386318,811,1597,1.33961,-9.44338
-406,-573,1.18787,9.75623,0.000842584,0.00217274,0.00167945,0.003314,-0.000298682,0.973929,0.00231533,0.0187413,818,1597,1.18784,-9.75626
-399,-573,1.16742,10.0585,-0.000204688,0.000475181,0.000794807,0.000999696,-0.000729204,0.987473,0.00100224,0.011024,825,1597,1.16742,-10.0585
-392,-573,1.1593,10.303,-0.000878317,-0.000481705,0.000215242,-0.000387343,-0.000972678,1.15763,0.000565441,0.0108723,832,1597,1.15928,-10.3029
-385,-573,1.14935,10.5446,-0.00127251,-0.000954608,-0.000100857,-0.00092531,-0.00130181,-1.28809,0.000773542,0.0120044,839,1597,1.14938,-10.5446
-378,-573,1.14197,10.8132,-0.0011413,-0.00125995,-0.000202606,-0.00098951,-0.00141174,-0.64297,0.000836714,0.013855,846,1597,1.14199,-10.8132
-371,-573,1.16559,11.0897,-0.000798718,-0.00134823,-0.000453318,-0.000543392,-0.00160356,-0.51295,0.000941704,0.0152828,853,1597,1.16558,-11.0898
-364,-573,1.16669,11.307,-0.000493211,-0.00125267,-0.000242905,-0.000422166,-0.00132371,-0.284544,0.000780771,0.0183691,860,1597,1.16667,-11.307
-357,-573,1.15845,11.5214,-0.000106394,-0.000594475,0.000389697,0.000109369,-0.000810238,0.505656,0.000580062,0.0224997,867,1597,1.15843,-11.5214
-350,-573,1.1463,11.7864,0.000438358,2.57701e-05,0.000931957,0.00118658,-0.000722452,0.676477,0.00111299,0.0187291,874,1597,1.14631,-11.7864
-343,-573,1.13934,11.9934,0.00080834,0.000987387,0.00139635,0.00229708,-0.00050135,0.817411,0.00172299,0.0222299,881,1597,1.13932,-11.9934
-336,-573,1.14111,12.2725,0.000894231,0.00196626,0.0018568,0.00336286,-0.000502374,0.925916,0.00242676,0.0172632,888,1597,1.1411,-12.2725
-329,-573,1.15997,12.5084,5.37715e-05,0.0039437,0.00267382,0.00530512,-0.00130765,1.09984,0.00404373,0.0178168,895,1597,1.15998,-12.5084
-322,-573,1.17291,12.7516,-0.000974614,0.00552216,0.00322916,0.00685411,-0.00230656,1.17958,0.00550186,0.0130178,902,1597,1.17288,-12.7515
-315,-573,1.26868,13.0325,-0.00234861,0.0075327,0.00380198,0.00882623,-0.00364215,1.24285,0.00740313,0.0204547,909,1597,1.2687,-13.0325
-308,-573,1.26868,13.1274,-0.00409374,0.00976883,0.00417124,0.0109272,-0.00525208,1.29993,0.00953071,0.0311962,916,1597,1.26866,-13.1274
-301,-573,1.28088,13.2922,-0.00653261,0.0121336,0.00438849,0.0131139,-0.00751288,1.35103,0.0120543,0.0329867,923,1597,1.28091,-13.2922
-294,-573,1.23804,13.5378,-0.00998679,0.0139707,0.00394046,0.0146022,-0.0106183,1.41189,0.0146215,0.037158,930,1597,1.23801,-13.5379
-287,-573,1.10754,13.5668,-0.0138898,0.0165449,0.00326786,0.0168919,-0.0142367,1.46503,0.0179939,0.047042,937,1597,1.10753,-13.5668
-280,-573,0.621704,12.8329,0,0,0,0,0,0,0,-1,944,1597,0.621716,-12.8329
-273,-573,-0.225037,10.6533,0,0,0,0,0,0,0,-1,951,1597,-0.225018,-10.6533
-266,-573,1.31116,7.1814,0,0,0,0,0,0,0,-1,958,1597,1.31118,-7.18142
-259,-573,1.2514,6.70959,0,0,0,0,0,0,0,-1,965,1597,1.25137,-6.70965
-252,-573,2.07874,5.27161,0,0,0,0,0,0,0,-1,972,1597,2.07875,-5.27157
-245,-573,-10.2592,1.09827,0,0,0,0,0,0,0,-1,979,1597,-10.2592,-1.09823
-238,-573,-11.5463,4.44141,0,0,0,0,0,0,0,-1,986,1597,-11.5463,-4.44146
-231,-573,-9.23431,4.14539,0,0,0,0,0,0,0,-1,993,1597,-9.23431,-4.14534
-224,-573,-6.70044,7.40857,0,0,0,0,0,0,0,-1,1000,1597,-6.70045,-7.40851
-217,-573,-4.25824,8.59119,0,0,0,0,0,0,0,-1,1007,1597,-4.25824,-8.59122
-210,-573,-2.39661,9.73914,0,0,0,0,0,0,0,-1,1014,1597,-2.39658,-9.73915
-203,-573,-0.557373,10.9005,0,0,0,0,0,0,0,-1,1021,1597,-0.557387,-10.9006
-196,-573,-1.65344,9.02246,0,0,0,0,0,0,0,-1,1028,1597,-1.65349,-9.02241
-189,-573,-6.12915,6.66882,0,0,0,0,0,0,0,-1,1035,1597,-6.12913,-6.66884
-182,-573,0,0,0,0,0,0,0,0,0,-1,1042,1597,0,0
-175,-573,0,0,0,0,0,0,0,0,0,-1,1049,1597,0,0
-168,-573,0,0,0,0,0,0,0,0,0,-1,1056,1597,0,0
-161,-573,0,0,0,0,0,0,0,0,0,-1,1063,1597,0,0
-154,-573,0,0,0,0,0,0,0,0,0,-1,1070,1597,0,0
-147,-573,0,0,0,0,0,0,0,0,0,-1,1077,1597,0,0
-140,-573,0,0,0,0,0,0,0,0,0,-1,1084,1597,0,0
-133,-573,0,0,0,0,0,0,0,0,0,-1,1091,1597,0,0
-126,-573,0,0,0,0,0,0,0,0,0,-1,1098,1597,0,0
-119,-573,0,0,0,0,0,0,0,0,0,-1,1105,1597,0,0
-112,-573,0,0,0,0,0,0,0,0,0,-1,1112,1597,0,0
-105,-573,0,0,0,0,0,0,0,0,0,-1,1119,1597,0,0
-98,-573,0,0,0,0,0,0,0,0,0,-1,1126,1597,0,0
-91,-573,0,0,0,0,0,0,0,0,0,-1,1133,1597,0,0
-84,-573,0,0,0,0,0,0,0,0,0,-1,1140,1597,0,0
-77,-573,0,0,0,0,0,0,0,0,0,-1,1147,1597,0,0
-70,-573,0,0,0,0,0,0,0,0,0,-1,1154,1597,0,0
-63,-573,0,0,0,0,0,0,0,0,0,-1,1161,1597,0,0
-56,-573,0,0,0,0,0,0,0,0,0,-1,1168,1597,0,0
-49,-573,0,0,0,0,0,0,0,0,0,-1,1175,1597,0,0
-42,-573,0,0,0,0,0,0,0,0,0,-1,1182,1597,0,0
-35,-573,0,0,0,0,0,0,0,0,0,-1,1189,1597,0,0
-28,-573,0,0,0,0,0,0,0,0,0,-1,1196,1597,0,0
-21,-573,0,0,0,0,0,0,0,0,0,-1,1203,1597,0,0
-14,-573,0,0,0,0,0,0,0,0,0,-1,1210,1597,0,0
-7,-573,0,0,0,0,0,0,0,0,0,-1,1217,1597,0,0
0,-573,0,0,0,0,0,0,0,0,0,-1,1224,1597,0,0
7,-573,0,0,0,0,0,0,0,0,0,-1,1231,1597,0,0
14,-573,0,0,0,0,0,0,0,0,0,-1,1238,1597,0,0
21,-573,0,0,0,0,0,0,0,0,0,-1,1245,1597,0,0
28,-573,0,0,0,0,0,0,0,0,0,-1,1252,1597,0,0
35,-573,0,0,0,0,0,0,0,0,0,-1,1259,1597,0,0
42,-573,0,0,0,0,0,0,0,0,0,-1,1266,1597,0,0
49,-573,0,0,0,0,0,0,0,0,0,-1,1273,1597,0,0
56,-573,0,0,0,0,0,0,0,0,0,-1,1280,1597,0,0
63,-573,0,0,0,0,0,0,0,0,0,-1,1287,1597,0,0
70,-573,0,0,0,0,0,0,0,0,0,-1,1294,1597,0,0
77,-573,0,0,0,0,0,0,0,0,0,-1,1301,1597,0,0
84,-573,0,0,0,0,0,0,0,0,0,-1,1308,1597,0,0
91,-573,0,0,0,0,0,0,0,0,0,-1,1315,1597,0,0
98,-573,0,0,0,0,0,0,0,0,0,-1,1322,1597,0,0
105,-573,0,0,0,0,0,0,0,0,0,-1,1329,1597,0,0
112,-573,0,0,0,0,0,0,0,0,0,-1,1336,1597,0,0
119,-573,0,0,0,0,0,0,0,0,0,-1,1343,1597,0,0
126,-573,0,0,0,0,0,0,0,0,0,-1,1350,1597,0,0
133,-573,0,0,0,0,0,0,0,0,0,-1,1357,1597,0,0
140,-573,0,0,0,0,0,0,0,0,0,-1,1364,1597,0,0
147,-573,0,0,0,0,0,0,0,0,0,-1,1371,1597,0,0
154,-573,0,0,0,0,0,0,0,0,0,-1,1378,1597,0,0
161,-573,0,0,0,0,0,0,0,0,0,-1,1385,1597,0,0
168,-573,0,0,0,0,0,0,0,0,0,-1,1392,1597,0,0
175,-573,0,0,0,0,0,0,0,0,0,-1,1399,1597,0,0
182,-573,0,0,0,0,0,0,0,0,0,-1,1406,1597,0,0
189,-573,0,0,0,0,0,0,0,0,0,-1,1413,1597,0,0
196,-573,0,0,0,0,0,0,0,0,0,-1,1420,1597,0,0
203,-573,0,0,0,0,0,0,0,0,0,-1,1427,1597,0,0
210,-573,0,0,0,0,0,0,0,0,0,-1,1434,1597,0,0
217,-573,0,0,0,0,0,0,0,0,0,-1,1441,1597,0,0
224,-573,0,0,0,0,0,0,0,0,0,-1,1448,1597,0,0
231,-573,0,0,0,0,0,0,0,0,0,-1,1455,1597,0,0
238,-573,0,0,0,0,0,0,0,0,0,-1,1462,1597,0,0
245,-573,0,0,0,0,0,0,0,0,0,-1,1469,1597,0,0
252,-573,0,0,0,0,0,0,0,0,0,-1,1476,1597,0,0
259,-573,0,0,0,0,0,0,0,0,0,-1,1483,1597,0,0
266,-573,0,0,0,0,0,0,0,0,0,-1,1490,1597,0,0
273,-573,0,0,0,0,0,0,0,0,0,-1,1497,1597,0,0
280,-573,0,0,0,0,0,0,0,0,0,-1,1504,1597,0,0
287,-573,0,0,0,0,0,0,0,0,0,-1,1511,1597,0,0
294,-573,0,0,0,0,0,0,0,0,0,-1,1518,1597,0,0
301,-573,0,0,0,0,0,0,0,0,0,-1,1525,1597,0,0
308,-573,5.93042,9.71143,0,0,0,0,0,0,0,-1,1532,1597,5.93046,-9.71144
315,-573,4.34204,11.719,0,0,0,0,0,0,0,-1,1539,1597,4.34205,-11.719
322,-573,10.3269,7.77563,0,0,0,0,0,0,0,-1,1546,1597,10.327,-7.77565
329,-573,4.99573,3.80273,0,0,0,0,0,0,0,-1,1553,1597,4.9957,-3.80273
336,-573,4.85693,2.53455,0,0,0,0,0,0,0,-1,1560,1597,4.8569,-2.53459
343,-573,4.11877,0.735596,0,0,0,0,0,0,0,-1,1567,1597,4.11878,-0.735585
350,-573,2.53748,1.56433,0,0,0,0,0,0,0,-1,1574,1597,2.53753,-1.5643
357,-573,7.40247,4.03613,0,0,0,0,0,0,0,-1,1581,1597,7.40244,-4.03614
364,-573,7.14551,3.02087,0,0,0,0,0,0,0,-1,1588,1597,7.14556,-3.02084
371,-573,6.88867,2.00549,0,0,0,0,0,0,0,-1,1595,1597,6.88868,-2.00553
378,-573,8.62012,6.09106,0,0,0,0,0,0,0,-1,1602,1597,8.62012,-6.09103
385,-573,6.54346,-0.951904,0,0,0,0,0,0,0,-1,1609,1597,6.54349,0.951901
392,-573,6.41833,-2.18225,0,0,0,0,0,0,0,-1,1616,1597,6.41831,2.18228
399,-573,4.26282,4.73657,0,0,0,0,0,0,0,-1,1623,1597,4.26285,-4.73652
406,-573,6.82715,10.823,0,0,0,0,0,0,0,-1,1630,1597,6.82719,-10.823
413,-573,8.90552,13.1737,0,0,0,0,0,0,0,-1,1637,1597,8.90553,-13.1737
420,-573,8.85681,13.9132,0,0,0,0,0,0,0,-1,1644,1597,8.85677,-13.9132
427,-573,8.47266,13.3215,0,0,0,0,0,0,0,-1,1651,1597,8.47263,-13.3216
434,-573,8.40027,13.6648,-0.0134987,-0.0282473,0.0192038,-0.000302004,-0.041444,0.602079,0.0275292,0.0489112,1658,1597,8.40031,-13.6648
441,-573,8.57544,14.1013,-0.0122009,-0.0244787,0.0167123,-0.000535715,-0.036144,0.609384,0.0239194,0.0326933,1665,1597,8.5754,-14.1013
448,-573,8.52844,14.0496,-0.0107496,-0.0206381,0.0144278,-0.000442349,-0.0309453,0.620325,0.0204843,0.0194468,1672,1597,8.52842,-14.0496
455,-573,8.48303,13.8153,-0.00958666,-0.0173369,0.0124647,-0.000408636,-0.0265149,0.63469,0.017542,0.015364,1679,1597,8.48308,-13.8153
462,-573,8.50879,13.5614,-0.00823007,-0.0142082,0.0104775,-0.000323638,-0.0221147,0.646446,0.0146364,0.0179036,1686,1597,8.50883,-13.5614
469,-573,8.54883,13.3541,-0.0068853,-0.0116633,0.00879993,-0.000155834,-0.0183927,0.652854,0.0122102,0.0146078,1693,1597,8.54878,-13.3541
476,-573,8.54883,13.1453,-0.00571702,-0.00914719,0.00724076,9.00682e-06,-0.0148732,0.669109,0.00991848,0.0130418,1700,1597,8.54887,-13.1453
483,-573,8.53601,12.9403,-0.00432767,-0.00708657,0.00578139,0.000236561,-0.0116508,0.668287,0.00784724,0.0103883,1707,1597,8.53599,-12.9403
490,-573,8.52222,12.7375,-0.00281012,-0.00523761,0.0042363,0.000382875,-0.00843061,0.64588,0.00575228,0.0102882,1714,1597,8.52222,-12.7375
497,-573,8.51733,12.4813,-0.00140346,-0.00393381,0.00278335,0.000388766,-0.00572603,0.572082,0.00395332,0.0159293,1721,1597,8.51734,-12.4813
504,-573,8.53882,12.2686,0.000117995,-0.00285748,0.00160466,0.000818472,-0.00355796,0.411594,0.00268668,0.0171253,1728,1597,8.53881,-12.2686
511,-573,8.53442,12.0443,0.00144878,-0.00186801,0.000445911,0.00150768,-0.00192691,0.131334,0.00198788,0.0181681,1735,1597,8.53447,-12.0443
518,-573,8.53528,11.8044,0.00265917,-0.00140839,-0.00066753,0.00276592,-0.00151513,-0.158572,0.00250658,0.0143732,1742,1597,8.53526,-11.8045
525,-573,8.52771,11.5852,0.00386657,-0.0013583,-0.00148503,0.00425915,-0.00175088,-0.258447,0.0035692,0.0167315,1749,1597,8.52767,-11.5852
532,-573,8.5376,11.3589,0.00497094,-0.00163269,-0.00205056,0.00555587,-0.00221762,-0.277873,0.00462391,0.0148639,1756,1597,8.5376,-11.3589
539,-573,8.52039,11.1194,0.00617262,-0.00204651,-0.0025619,0.00690577,-0.00277965,-0.278724,0.00575854,0.0209001,1763,1597,8.52039,-11.1193
546,-573,8.55249,10.8715,0.00791886,-0.00278079,-0.00325475,0.00883115,-0.00369308,-0.273281,0.00743093,0.0343562,1770,1597,8.55247,-10.8715
553,-573,8.2428,10.6177,0.0103555,-0.00258825,-0.0043456,0.0116791,-0.00391185,-0.295656,0.00936641,0.0471185,1777,1597,8.24279,-10.6176
560,-573,8.10132,10.374,0,0,0,0,0,0,0,-1,1784,1597,8.10133,-10.3741
567,-573,4.99597,2.77759,0,0,0,0,0,0,0,-1,1791,1597,4.99596,-2.7776
574,-573,0.83374,5.7041,0,0,0,0,0,0,0,-1,1798,1597,0.833718,-5.70405
581,-573,-0.224854,7.41602,0,0,0,0,0,0,0,-1,1805,1597,-0.224904,-7.41596
588,-573,-0.134033,7.67065,0,0,0,0,0,0,0,-1,1812,1597,-0.134037,-7.67063
595,-573,-0.0825195,8.35083,0,0,0,0,0,0,0,-1,1819,1597,-0.0824684,-8.35088
602,-573,0,0,0,0,0,0,0,0,0,-1,1826,1597,0,0
609,-573,0,0,0,0,0,0,0,0,0,-1,1833,1597,0,0
616,-573,0,0,0,0,0,0,0,0,0,-1,1840,1597,0,0
623,-573,0,0,0,0,0,0,0,0,0,-1,1847,1597,0,0
630,-573,0,0,0,0,0,0,0,0,0,-1,1854,1597,0,0
637,-573,0,0,0,0,0,0,0,0,0,-1,1861,1597,0,0
644,-573,0,0,0,0,0,0,0,0,0,-1,1868,1597,0,0
651,-573,0,0,0,0,0,0,0,0,0,-1,1875,1597,0,0
658,-573,0,0,0,0,0,0,0,0,0,-1,1882,1597,0,0
665,-573,0,0,0,0,0,0,0,0,0,-1,1889,1597,0,0
672,-573,0,0,0,0,0,0,0,0,0,-1,1896,1597,0,0
679,-573,0,0,0,0,0,0,0,0,0,-1,1903,1597,0,0
686,-573,0,0,0,0,0,0,0,0,0,-1,1910,1597,0,0
693,-573,0,0,0,0,0,0,0,0,0,-1,1917,1597,0,0
700,-573,0,0,0,0,0,0,0,0,0,-1,1924,1597,0,0
707,-573,0,0,0,0,0,0,0,0,0,-1,1931,1597,0,0
714,-573,0,0,0,0,0,0,0,0,0,-1,1938,1597,0,0
721,-573,0,0,0,0,0,0,0,0,0,-1,1945,1597,0,0
728,-573,0,0,0,0,0,0,0,0,0,-1,1952,1597,0,0
735,-573,0,0,0,0,0,0,0,0,0,-1,1959,1597,0,0
742,-573,0,0,0,0,0,0,0,0,0,-1,1966,1597,0,0
749,-573,0,0,0,0,0,0,0,0,0,-1,1973,1597,0,0
756,-573,0,0,0,0,0,0,0,0,0,-1,1980,1597,0,0
763,-573,0,0,0,0,0,0,0,0,0,-1,1987,1597,0,0
770,-573,0,0,0,0,0,0,0,0,0,-1,1994,1597,0,0
777,-573,0,0,0,0,0,0,0,0,0,-1,2001,1597,0,0
784,-573,0,0,0,0,0,0,0,0,0,-1,2008,1597,0,0
791,-573,0,0,0,0,0,0,0,0,0,-1,2015,1597,0,0
798,-573,0,0,0,0,0,0,0,0,0,-1,2022,1597,0,0
805,-573,0,0,0,0,0,0,0,0,0,-1,2029,1597,0,0
812,-573,0,0,0,0,0,0,0,0,0,-1,2036,1597,0,0
-700,-580,0,0,0,0,0,0,0,0,0,-1,524,1604,0,0
-693,-580,0,0,0,0,0,0,0,0,0,-1,531,1604,0,0
-686,-580,0,0,0,0,0,0,0,0,0,-1,538,1604,0,0
-679,-580,0,0,0,0,0,0,0,0,0,-1,545,1604,0,0
-672,-580,0,0,0,0,0,0,0,0,0,-1,552,1604,0,0
-665,-580,0,0,0,0,0,0,0,0,0,-1,559,1604,0,0
-658,-580,0,0,0,0,0,0,0,0,0,-1,566,1604,0,0
-651,-580,0,0,0,0,0,0,0,0,0,-1,573,1604,0,0
-644,-580,0,0,0,0,0,0,0,0,0,-1,580,1604,0,0
-637,-580,0,0,0,0,0,0,0,0,0,-1,587,1604,0,0
-630,-580,0,0,0,0,0,0,0,0,0,-1,594,1604,0,0
-623,-580,0,0,0,0,0,0,0,0,0,-1,601,1604,0,0
-616,-580,0,0,0,0,0,0,0,0,0,-1,608,1604,0,0
-609,-580,0,0,0,0,0,0,0,0,0,-1,615,1604,0,0
-602,-580,0,0,0,0,0,0,0,0,0,-1,622,1604,0,0
-595,-580,0,0,0,0,0,0,0,0,0,-1,629,1604,0,0
-588,-580,0,0,0,0,0,0,0,0,0,-1,636,1604,0,0
-581,-580,0,0,0,0,0,0,0,0,0,-1,643,1604,0,0
-574,-580,0,0,0,0,0,0,0,0,0,-1,650,1604,0,0
-567,-580,0,0,0,0,0,0,0,0,0,-1,657,1604,0,0
-560,-580,0,0,0,0,0,0,0,0,0,-1,664,1604,0,0
-553,-580,0,0,0,0,0,0,0,0,0,-1,671,1604,0,0
-546,-580,0,0,0,0,0,0,0,0,0,-1,678,1604,0,0
-539,-580,0,0,0,0,0,0,0,0,0,-1,685,1604,0,0
-532,-580,0,0,0,0,0,0,0,0,0,-1,692,1604,0,0
-525,-580,0,0,0,0,0,0,0,0,0,-1,699,1604,0,0
-518,-580,0,0,0,0,0,0,0,0,0,-1,706,1604,0,0
-511,-580,0,0,0,0,0,0,0,0,0,-1,713,1604,0,0
-504,-580,0,0,0,0,0,0,0,0,0,-1,720,1604,0,0
-497,-580,0,0,0,0,0,0,0,0,0,-1,727,1604,0,0
-490,-580,0,0,0,0,0,0,0,0,0,-1,734,1604,0,0
-483,-580,0,0,0,0,0,0,0,0,0,-1,741,1604,0,0
-476,-580,0,0,0,0,0,0,0,0,0,-1,748,1604,0,0
-469,-580,-1.69189,-0.38916,0,0,0,0,0,0,0,-1,755,1604,-1.69192,0.389188
-462,-580,-0.859863,0.675293,0,0,0,0,0,0,0,-1,762,1604,-0.859834,-0.675245
-455,-580,-0.730164,0.651978,0,0,0,0,0,0,0,-1,769,1604,-0.730153,-0.651957
-448,-580,-3.31891,2.07544,0,0,0,0,0,0,0,-1,776,1604,-3.3189,-2.07539
-441,-580,-1.63843,3.9469,0,0,0,0,0,0,0,-1,783,1604,-1.63842,-3.94695
-434,-580,0.23291,5.97876,0,0,0,0,0,0,0,-1,790,1604,0.232901,-5.97878
-427,-580,1.62756,8.05493,0,0,0,0,0,0,0,-1,797,1604,1.62758,-8.05488
-420,-580,1.33148,8.89331,0,0,0,0,0,0,0,-1,804,1604,1.33149,-8.8933
-413,-580,1.72266,9.36218,0,0,0,0,0,0,0,-1,811,1604,1.72263,-9.36223
-406,-580,1.54553,9.80627,-8.20476e-05,0.00148831,0.00155881,0.00244852,-0.00104226,1.0187,0.0020692,0.0420398,818,1604,1.54552,-9.80633
-399,-580,1.42041,10.0554,-0.00118208,-0.00030203,0.000699661,8.44733e-05,-0.00156858,1.0661,0.00107498,0.0171411,825,1604,1.42038,-10.0554
-392,-580,1.41235,10.312,-0.00175372,-0.00127342,0.00022832,-0.0011822,-0.00184493,1.19072,0.00107916,0.0115904,832,1604,1.41234,-10.312
-385,-580,1.40826,10.5515,-0.00202019,-0.00163922,3.35027e-05,-0.00163629,-0.00202311,1.48375,0.00124008,0.0118431,839,1604,1.40829,-10.5515
-378,-580,1.39124,10.8196,-0.00173681,-0.00178071,5.84371e-05,-0.00169634,-0.00182118,0.60575,0.00117472,0.0147022,846,1604,1.39126,-10.8196
-371,-580,1.40228,11.1003,-0.00127203,-0.00174378,-0.000102158,-0.00125086,-0.00176495,-0.204355,0.00104817,0.0136547,853,1604,1.40227,-11.1003
-364,-580,1.3985,11.324,-0.000833558,-0.00162348,3.42775e-05,-0.000832073,-0.00162497,0.0432849,0.000938266,0.0186663,860,1604,1.3985,-11.324
-357,-580,1.41388,11.5397,-0.000251531,-0.00107604,0.000473777,-3.57577e-05,-0.00129181,0.427363,0.000849538,0.0135998,867,1604,1.41386,-11.5397
-350,-580,1.41852,11.8138,0.0004154,-0.000494623,0.000851441,0.000925783,-0.00100501,0.540004,0.00111506,0.0106763,874,1604,1.41854,-11.8139
-343,-580,1.40271,12.0331,0.00086843,0.000298543,0.00112379,0.00174284,-0.000575865,0.661237,0.00139407,0.011098,881,1604,1.40271,-12.0331
-336,-580,1.39508,12.2454,0.00106585,0.00105462,0.00132038,0.00238062,-0.000260159,0.783272,0.00168053,0.0200516,888,1604,1.39508,-12.2453
-329,-580,1.40839,12.5105,0.00050867,0.00225584,0.00160097,0.00320606,-0.000441543,1.03515,0.00229873,0.0185205,895,1604,1.40837,-12.5105
-322,-580,1.40106,12.7458,-0.000286993,0.00315639,0.00163878,0.00381164,-0.000942238,1.19043,0.00290653,0.0179881,902,1604,1.40109,-12.7458
-315,-580,1.41583,12.9791,-0.00135593,0.00413949,0.00157847,0.00456061,-0.00177705,1.31008,0.00377486,0.0147016,909,1604,1.41583,-12.9792
-308,-580,1.45349,13.2583,-0.00269601,0.0050003,0.00119478,0.00518151,-0.00287722,1.42027,0.00471569,0.0181271,916,1604,1.45349,-13.2583
-301,-580,1.50928,13.4304,-0.00454526,0.0057458,0.000671893,0.00578948,-0.00458894,1.50587,0.00600533,0.0170482,923,1604,1.50925,-13.4304
-294,-580,1.52167,13.5626,-0.00714462,0.0056708,-0.000479743,0.00568874,-0.00716255,-1.53343,0.00743594,0.0206813,930,1604,1.52168,-13.5626
-287,-580,1.41687,13.5297,-0.00991962,0.00592451,-0.00191517,0.00615272,-0.0101478,-1.4522,0.00950488,0.0398499,937,1604,1.41688,-13.5297
-280,-580,1.00134,13.3511,-0.013105,0.00594677,-0.00361596,0.00660998,-0.0137682,-1.3894,0.0120049,0.0483745,944,1604,1.00134,-13.351
-273,-580,0.786377,13.4978,0,0,0,0,0,0,0,-1,951,1604,0.786374,-13.4978
-266,-580,0.494202,8.78955,0,0,0,0,0,0,0,-1,958,1604,0.494174,-8.78958
-259,-580,1.31091,9.11536,0,0,0,0,0,0,0,-1,965,1604,1.31092,-9.11539
-252,-580,1.07629,7.74097,0,0,0,0,0,0,0,-1,972,1604,1.07627,-7.74101
-245,-580,3.80304,9.16028,0,0,0,0,0,0,0,-1,979,1604,3.80306,-9.16034
-238,-580,-10.3588,1.57556,0,0,0,0,0,0,0,-1,986,1604,-10.3588,-1.5755
-231,-580,-10.576,6.43787,0,0,0,0,0,0,0,-1,993,1604,-10.576,-6.43783
-224,-580,-8.27435,7.58972,0,0,0,0,0,0,0,-1,1000,1604,-8.27435,-7.5897
-217,-580,-5.85632,9.51221,0,0,0,0,0,0,0,-1,1007,1604,-5.85632,-9.5122
-210,-580,-3.6684,11.1569,0,0,0,0,0,0,0,-1,1014,1604,-3.66839,-11.1569
-203,-580,-1.92474,12.7845,0,0,0,0,0,0,0,-1,1021,1604,-1.92477,-12.7845
-196,-580,-2.28552,10.3289,0,0,0,0,0,0,0,-1,1028,1604,-2.28552,-10.3288
-189,-580,-4.58252,7.59058,0,0,0,0,0,0,0,-1,1035,1604,-4.58256,-7.59057
-182,-580,-5.45874,7.65942,0,0,0,0,0,0,0,-1,1042,1604,-5.45876,-7.65939
-175,-580,-6.38977,7.55005,0,0,0,0,0,0,0,-1,1049,1604,-6.38981,-7.5501
-168,-580,0,0,0,0,0,0,0,0,0,-1,1056,1604,0,0
-161,-580,0,0,0,0,0,0,0,0,0,-1,1063,1604,0,0
-154,-580,0,0,0,0,0,0,0,0,0,-1,1070,1604,0,0
-147,-580,0,0,0,0,0,0,0,0,0,-1,1077,1604,0,0
-140,-580,0,0,0,0,0,0,0,0,0,-1,1084,1604,0,0
-133,-580,0,0,0,0,0,0,0,0,0,-1,1091,1604,0,0
-126,-580,0,0,0,0,0,0,0,0,0,-1,1098,1604,0,0
-119,-580,0,0,0,0,0,0,0,0,0,-1,1105,1604,0,0
-112,-580,0,0,0,0,0,0,0,0,0,-1,1112,1604,0,0
-105,-580,0,0,0,0,0,0,0,0,0,-1,1119,1604,0,0
-98,-580,0,0,0,0,0,0,0,0,0,-1,1126,1604,0,0
-91,-580,0,0,0,0,0,0,0,0,0,-1,1133,1604,0,0
-84,-580,0,0,0,0,0,0,0,0,0,-1,1140,1604,0,0
-77,-580,0,0,0,0,0,0,0,0,0,-1,1147,1604,0,0
-70,-580,0,0,0,0,0,0,0,0,0,-1,1154,1604,0,0
-63,-580,0,0,0,0,0,0,0,0,0,-1,1161,1604,0,0
-56,-580,0,0,0,0,0,0,0,0,0,-1,1168,1604,0,0
-49,-580,0,0,0,0,0,0,0,0,0,-1,1175,1604,0,0
-42,-580,0,0,0,0,0,0,0,0,0,-1,1182,1604,0,0
-35,-580,0,0,0,0,0,0,0,0,0,-1,1189,1604,0,0
-28,-580,0,0,0,0,0,0,0,0,0,-1,1196,1604,0,0
-21,-580,0,0,0,0,0,0,0,0,0,-1,1203,1604,0,0
-14,-580,0,0,0,0,0,0,0,0,0,-1,1210,1604,0,0
-7,-580,0,0,0,0,0,0,0,0,0,-1,1217,1604,0,0
0,-580,0,0,0,0,0,0,0,0,0,-1,1224,1604,0,0
7,-580,0,0,0,0,0,0,0,0,0,-1,1231,1604,0,0
14,-580,0,0,0,0,0,0,0,0,0,-1,1238,1604,0,0
21,-580,0,0,0,0,0,0,0,0,0,-1,1245,1604,0,0
28,-580,0,0,0,0,0,0,0,0,0,-1,1252,1604,0,0
35,-580,0,0,0,0,0,0,0,0,0,-1,1259,1604,0,0
42,-580,0,0,0,0,0,0,0,0,0,-1,1266,1604,0,0
49,-580,0,0,0,0,0,0,0,0,0,-1,1273,1604,0,0
56,-580,0,0,0,0,0,0,0,0,0,-1,1280,1604,0,0
63,-580,0,0,0,0,0,0,0,0,0,-1,1287,1604,0,0
70,-580,0,0,0,0,0,0,0,0,0,-1,1294,1604,0,0
77,-580,0,0,0,0,0,0,0,0,0,-1,1301,1604,0,0
84,-580,0,0,0,0,0,0,0,0,0,-1,1308,1604,0,0
91,-580,0,0,0,0,0,0,0,0,0,-1,1315,1604,0,0
98,-580,0,0,0,0,0,0,0,0,0,-1,1322,1604,0,0
105,-580,0,0,0,0,0,0,0,0,0,-1,1329,1604,0,0
112,-580,0,0,0,0,0,0,0,0,0,-1,1336,1604,0,0
119,-580,0,0,0,0,0,0,0,0,0,-1,1343,1604,0,0
126,-580,0,0,0,0,0,0,0,0,0,-1,1350,1604,0,0
133,-580,0,0,0,0,0,0,0,0,0,-1,1357,1604,0,0
140,-580,0,0,0,0,0,0,0,0,0,-1,1364,1604,0,0
147,-580,0,0,0,0,0,0,0,0,0,-1,1371,1604,0,0
154,-580,0,0,0,0,0,0,0,0,0,-1,1378,1604,0,0
161,-580,0,0,0,0,0,0,0,0,0,-1,1385,1604,0,0
168,-580,0,0,0,0,0,0,0,0,0,-1,1392,1604,0,0
175,-580,0,0,0,0,0,0,0,0,0,-1,1399,1604,0,0
182,-580,0,0,0,0,0,0,0,0,0,-1,1406,1604,0,0
189,-580,0,0,0,0,0,0,0,0,0,-1,1413,1604,0,0
196,-580,0,0,0,0,0,0,0,0,0,-1,1420,1604,0,0
203,-580,0,0,0,0,0,0,0,0,0,-1,1427,1604,0,0
210,-580,0,0,0,0,0,0,0,0,0,-1,1434,1604,0,0
217,-580,0,0,0,0,0,0,0,0,0,-1,1441,1604,0,0
224,-580,0,0,0,0,0,0,0,0,0,-1,1448,1604,0,0
231,-580,0,0,0,0,0,0,0,0,0,-1,1455,1604,0,0
238,-580,0,0,0,0,0,0,0,0,0,-1,1462,1604,0,0
245,-580,0,0,0,0,0,0,0,0,0,-1,1469,1604,0,0
252,-580,0,0,0,0,0,0,0,0,0,-1,1476,1604,0,0
259,-580,0,0,0,0,0,0,0,0,0,-1,1483,1604,0,0
266,-580,0,0,0,0,0,0,0,0,0,-1,1490,1604,0,0
273,-580,0,0,0,0,0,0,0,0,0,-1,1497,1604,0,0
280,-580,0,0,0,0,0,0,0,0,0,-1,1504,1604,0,0
287,-580,0,0,0,0,0,0,0,0,0,-1,1511,1604,0,0
294,-580,4.0437,0.177368,0,0,0,0,0,0,0,-1,1518,1604,4.04369,-0.177371
301,-580,7.55164,8.05798,0,0,0,0,0,0,0,-1,1525,1604,7.55158,-8.05802
308,-580,5.9126,9.99341,0,0,0,0,0,0,0,-1,1532,1604,5.91255,-9.99337
315,-580,4.27356,11.9287,0,0,0,0,0,0,0,-1,1539,1604,4.27352,-11.9287
322,-580,10.2366,7.50281,0,0,0,0,0,0,0,-1,1546,1604,10.2366,-7.50282
329,-580,10.5962,8.69641,0,0,0,0,0,0,0,-1,1553,1604,10.5962,-8.69642
336,-580,3.66431,1.58862,0,0,0,0,0,0,0,-1,1560,1604,3.6643,-1.58864
343,-580,3.32227,1.39636,0,0,0,0,0,0,0,-1,1567,1604,3.32222,-1.39633
350,-580,8.71277,4.0564,0,0,0,0,0,0,0,-1,1574,1604,8.71271,-4.05638
357,-580,8.52332,3.08154,0,0,0,0,0,0,0,-1,1581,1604,8.52332,-3.08157
364,-580,8.25818,2.07605,0,0,0,0,0,0,0,-1,1588,1604,8.25812,-2.07608
371,-580,7.42114,7.14282,0,0,0,0,0,0,0,-1,1595,1604,7.42119,-7.14281
378,-580,7.9718,6.6731,0,0,0,0,0,0,0,-1,1602,1604,7.9718,-6.67307
385,-580,8.52246,6.20337,0,0,0,0,0,0,0,-1,1609,1604,8.52241,-6.20334
392,-580,6.5498,-2.15625,0,0,0,0,0,0,0,-1,1616,1604,6.54984,2.15626
399,-580,6.52625,10.7247,0,0,0,0,0,0,0,-1,1623,1604,6.52628,-10.7248
406,-580,8.99756,14.0519,0,0,0,0,0,0,0,-1,1630,1604,8.99755,-14.0518
413,-580,8.31494,14.1746,0,0,0,0,0,0,0,-1,1637,1604,8.31498,-14.1746
420,-580,8.44836,14.2897,-0.0111077,-0.0282415,0.019438,0.00156754,-0.0409167,0.577839,0.027815,0.042341,1644,1604,8.44834,-14.2897
427,-580,8.59155,14.2999,-0.0102532,-0.024657,0.016977,0.00098631,-0.0358965,0.584795,0.0242665,0.0404705,1651,1604,8.59161,-14.2999
434,-580,8.3302,14.2383,-0.00918974,-0.0210711,0.014435,0.00047925,-0.0307401,0.590189,0.020655,0.0291861,1658,1604,8.33025,-14.2383
441,-580,8.28015,14.1509,-0.00815486,-0.018023,0.012244,0.000111835,-0.0262897,0.593862,0.0175639,0.012476,1665,1604,8.28018,-14.1509
448,-580,8.28638,13.9698,-0.00705816,-0.0150498,0.0102619,-4.15975e-05,-0.0220664,0.599736,0.0146971,0.0107344,1672,1604,8.28641,-13.9698
455,-580,8.28027,13.7712,-0.00627871,-0.0124916,0.00865802,-0.000186699,-0.0185836,0.613155,0.0123273,0.0173896,1679,1604,8.28025,-13.7712
462,-580,8.28699,13.5553,-0.0053372,-0.0100285,0.00703035,-0.000271515,-0.0150942,0.624382,0.00997352,0.0218383,1686,1604,8.28699,-13.5552
469,-580,8.31348,13.3452,-0.00439106,-0.0080437,0.00568805,-0.000243323,-0.0121914,0.630057,0.00804774,0.0186455,1693,1604,8.31349,-13.3452
476,-580,8.32751,13.1411,-0.00357992,-0.00606807,0.00446934,-0.000184745,-0.00946325,0.649655,0.00624816,0.0140434,1700,1604,8.32746,-13.1411
483,-580,8.30762,12.9353,-0.00251068,-0.00452831,0.00338268,1.04075e-05,-0.0070494,0.640482,0.00470307,0.0124485,1707,1604,8.30763,-12.9353
490,-580,8.27771,12.7246,-0.00119652,-0.00318467,0.00214101,0.000169937,-0.00455113,0.568057,0.00309229,0.0146238,1714,1604,8.2777,-12.7246
497,-580,8.26941,12.4994,-1.76798e-05,-0.00229243,0.00102376,0.000375208,-0.00268531,0.366437,0.00192749,0.0120931,1721,1604,8.26939,-12.4994
504,-580,8.28589,12.2559,0.00124223,-0.0016002,0.00016227,0.00125146,-0.00160944,0.0568423,0.00165605,0.0168708,1728,1604,8.28589,-12.2559
511,-580,8.30176,12.0635,0.00244959,-0.001118,-0.000699642,0.00258189,-0.0012503,-0.186891,0.0022566,0.017576,1735,1604,8.30172,-12.0634
518,-580,8.30566,11.8221,0.00363128,-0.0011512,-0.0014252,0.00402378,-0.0015437,-0.268739,0.00331899,0.0163665,1742,1604,8.30571,-11.8222
525,-580,8.26013,11.5768,0.00487013,-0.00161584,-0.00194741,0.00540992,-0.00215562,-0.270394,0.00450065,0.0180648,1749,1604,8.26013,-11.5767
532,-580,8.27759,11.3719,0.00605175,-0.00241819,-0.00223273,0.00660427,-0.00297071,-0.24259,0.00565924,0.0208859,1756,1604,8.27763,-11.3719
539,-580,8.30762,11.2321,0.00743216,-0.00333118,-0.00254937,0.00800546,-0.00390447,-0.221199,0.00701077,0.0266984,1763,1604,8.30759,-11.232
546,-580,8.35535,10.9175,0.00951403,-0.00443146,-0.00324404,0.0102317,-0.00514916,-0.21773,0.00904033,0.0430716,1770,1604,8.35533,-10.9175
553,-580,7.58813,10.4839,0,0,0,0,0,0,0,-1,1777,1604,7.58809,-10.4839
560,-580,7.09021,6.49438,0,0,0,0,0,0,0,-1,1784,1604,7.09016,-6.4944
567,-580,3.87708,4.0647,0,0,0,0,0,0,0,-1,1791,1604,3.87711,-4.06471
574,-580,2.31653,5.62952,0,0,0,0,0,0,0,-1,1798,1604,2.31654,-5.62947
581,-580,1.60876,6.67664,0,0,0,0,0,0,0,-1,1805,1604,1.60873,-6.67667
588,-580,1.38684,7.14441,0,0,0,0,0,0,0,-1,1812,1604,1.38689,-7.14443
595,-580,0,0,0,0,0,0,0,0,0,-1,1819,1604,0,0
602,-580,0,0,0,0,0,0,0,0,0,-1,1826,1604,0,0
609,-580,0,0,0,0,0,0,0,0,0,-1,1833,1604,0,0
616,-580,0,0,0,0,0,0,0,0,0,-1,1840,1604,0,0
623,-580,0,0,0,0,0,0,0,0,0,-1,1847,1604,0,0
630,-580,0,0,0,0,0,0,0,0,0,-1,1854,1604,0,0
637,-580,0,0,0,0,0,0,0,0,0,-1,1861,1604,0,0
644,-580,0,0,0,0,0,0,0,0,0,-1,1868,1604,0,0
651,-580,0,0,0,0,0,0,0,0,0,-1,1875,1604,0,0
658,-580,0,0,0,0,0,0,0,0,0,-1,1882,1604,0,0
665,-580,0,0,0,0,0,0,0,0,0,-1,1889,1604,0,0
672,-580,0,0,0,0,0,0,0,0,0,-1,1896,1604,0,0
679,-580,0,0,0,0,0,0,0,0,0,-1,1903,1604,0,0
686,-580,0,0,0,0,0,0,0,0,0,-1,1910,1604,0,0
693,-580,0,0,0,0,0,0,0,0,0,-1,1917,1604,0,0
700,-580,0,0,0,0,0,0,0,0,0,-1,1924,1604,0,0
707,-580,0,0,0,0,0,0,0,0,0,-1,1931,1604,0,0
714,-580,0,0,0,0,0,0,0,0,0,-1,1938,1604,0,0
721,-580,0,0,0,0,0,0,0,0,0,-1,1945,1604,0,0
728,-580,0,0,0,0,0,0,0,0,0,-1,1952,1604,0,0
735,-580,0,0,0,0,0,0,0,0,0,-1,1959,1604,0,0
742,-580,0,0,0,0,0,0,0,0,0,-1,1966,1604,0,0
749,-580,0,0,0,0,0,0,0,0,0,-1,1973,1604,0,0
756,-580,0,0,0,0,0,0,0,0,0,-1,1980,1604,0,0
763,-580,0,0,0,0,0,0,0,0,0,-1,1987,1604,0,0
770,-580,0,0,0,0,0,0,0,0,0,-1,1994,1604,0,0
777,-580,0,0,0,0,0,0,0,0,0,-1,2001,1604,0,0
784,-580,0,0,0,0,0,0,0,0,0,-1,2008,1604,0,0
791,-580,0,0,0,0,0,0,0,0,0,-1,2015,1604,0,0
798,-580,0,0,0,0,0,0,0,0,0,-1,2022,1604,0,0
805,-580,0,0,0,0,0,0,0,0,0,-1,2029,1604,0,0
812,-580,0,0,0,0,0,0,0,0,0,-1,2036,1604,0,0
-700,-587,0,0,0,0,0,0,0,0,0,-1,524,1611,0,0
-693,-587,0,0,0,0,0,0,0,0,0,-1,531,1611,0,0
-686,-587,0,0,0,0,0,0,0,0,0,-1,538,1611,0,0
-679,-587,0,0,0,0,0,0,0,0,0,-1,545,1611,0,0
-672,-587,0,0,0,0,0,0,0,0,0,-1,552,1611,0,0
-665,-587,0,0,0,0,0,0,0,0,0,-1,559,1611,0,0
-658,-587,0,0,0,0,0,0,0,0,0,-1,566,1611,0,0
-651,-587,0,0,0,0,0,0,0,0,0,-1,573,1611,0,0
-644,-587,0,0,0,0,0,0,0,0,0,-1,580,1611,0,0
-637,-587,0,0,0,0,0,0,0,0,0,-1,587,1611,0,0
-630,-587,0,0,0,0,0,0,0,0,0,-1,594,1611,0,0
-623,-587,0,0,0,0,0,0,0,0,0,-1,601,1611,0,0
-616,-587,0,0,0,0,0,0,0,0,0,-1,608,1611,0,0
-609,-587,0,0,0,0,0,0,0,0,0,-1,615,1611,0,0
-602,-587,0,0,0,0,0,0,0,0,0,-1,622,1611,0,0
-595,-587,0,0,0,0,0,0,0,0,0,-1,629,1611,0,0
-588,-587,0,0,0,0,0,0,0,0,0,-1,636,1611,0,0
-581,-587,0,0,0,0,0,0,0,0,0,-1,643,1611,0,0
-574,-587,0,0,0,0,0,0,0,0,0,-1,650,1611,0,0
-567,-587,0,0,0,0,0,0,0,0,0,-1,657,1611,0,0
-560,-587,0,0,0,0,0,0,0,0,0,-1,664,1611,0,0
-553,-587,0,0,0,0,0,0,0,0,0,-1,671,1611,0,0
-546,-587,0,0,0,0,0,0,0,0,0,-1,678,1611,0,0
-539,-587,0,0,0,0,0,0,0,0,0,-1,685,1611,0,0
-532,-587,0,0,0,0,0,0,0,0,0,-1,692,1611,0,0
-525,-587,0,0,0,0,0,0,0,0,0,-1,699,1611,0,0
-518,-587,0,0,0,0,0,0,0,0,0,-1,706,1611,0,0
-511,-587,0,0,0,0,0,0,0,0,0,-1,713,1611,0,0
-504,-587,0,0,0,0,0,0,0,0,0,-1,720,1611,0,0
-497,-587,0,0,0,0,0,0,0,0,0,-1,727,1611,0,0
-490,-587,0,0,0,0,0,0,0,0,0,-1,734,1611,0,0
-483,-587,0,0,0,0,0,0,0,0,0,-1,741,1611,0,0
-476,-587,0,0,0,0,0,0,0,0,0,-1,748,1611,0,0
-469,-587,0,0,0,0,0,0,0,0,0,-1,755,1611,0,0
-462,-587,-0.714355,-0.418457,0,0,0,0,0,0,0,-1,762,1611,-0.714359,0.418483
-455,-587,-0.619812,-0.522461,0,0,0,0,0,0,0,-1,769,1611,-0.619802,0.522515
-448,-587,-0.461731,-0.686523,0,0,0,0,0,0,0,-1,776,1611,-0.461739,0.686559
-441,-587,-3.56555,2.72253,0,0,0,0,0,0,0,-1,783,1611,-3.56555,-2.72259
-434,-587,-1.77319,4.76318,0,0,0,0,0,0,0,-1,790,1611,-1.77318,-4.76323
-427,-587,0.0346069,6.92944,0,0,0,0,0,0,0,-1,797,1611,0.034587,-6.92941
-420,-587,-0.647156,10.1157,0,0,0,0,0,0,0,-1,804,1611,-0.647128,-10.1158
-413,-587,2.0481,8.28052,0,0,0,0,0,0,0,-1,811,1611,2.0481,-8.28049
-406,-587,1.92297,9.83386,0,0,0,0,0,0,0,-1,818,1611,1.92296,-9.83384
-399,-587,1.88068,9.99841,-0.00278643,-0.00145414,0.000594066,-0.00122772,-0.00301285,1.20667,0.00174936,0.0354046,825,1611,1.88067,-9.99837
-392,-587,1.77173,10.2437,-0.00305874,-0.0024604,0.000263216,-0.00236109,-0.00315804,1.21002,0.00189638,0.0249831,832,1611,1.77172,-10.2436
-385,-587,1.67108,10.537,-0.00297417,-0.00272719,0.000206756,-0.00260985,-0.00309151,1.0546,0.00192069,0.0155758,839,1611,1.6711,-10.5369
-378,-587,1.62793,10.8336,-0.00237353,-0.00270008,0.000352713,-0.00214813,-0.00292547,0.568631,0.00174974,0.0131588,846,1611,1.62794,-10.8337
-371,-587,1.62,11.1169,-0.00167318,-0.00253669,0.000274649,-0.00159323,-0.00261664,0.28328,0.00152261,0.0135546,853,1611,1.62001,-11.117
-364,-587,1.64081,11.3608,-0.00103338,-0.00234375,0.000366251,-0.000937964,-0.00243917,0.254865,0.00142072,0.016208,860,1611,1.64083,-11.3609
-357,-587,1.64221,11.5525,-0.000224362,-0.00185556,0.000615532,-1.81572e-05,-0.00206176,0.323252,0.00136849,0.015223,867,1611,1.64224,-11.5525
-350,-587,1.62585,11.8099,0.000573632,-0.00127314,0.000801556,0.000873003,-0.00157251,0.357443,0.00143104,0.00937412,874,1611,1.62584,-11.81
-343,-587,1.61188,12.0482,0.00110793,-0.000597155,0.000866915,0.00147127,-0.000960495,0.396878,0.00141427,0.0120726,881,1611,1.61186,-12.0482
-336,-587,1.61481,12.2434,0.00141229,8.8136e-06,0.000804092,0.00177779,-0.000356688,0.426633,0.00132025,0.0119377,888,1611,1.6148,-12.2434
-329,-587,1.61908,12.4717,0.00106731,0.000737888,0.000650907,0.00157402,0.000231174,0.661477,0.000981406,0.0141492,895,1611,1.61906,-12.4717
-322,-587,1.63147,12.7274,0.000444382,0.00124518,0.00029247,0.00134062,0.00034894,1.25536,0.000803112,0.0172472,902,1611,1.63144,-12.7275
-315,-587,1.62921,12.9517,-0.000407275,0.0016265,-0.000209234,0.0016478,-0.000428578,-1.46933,0.00126581,0.0136985,909,1611,1.62918,-12.9516
-308,-587,1.64075,13.2012,-0.00148014,0.00171653,-0.00106578,0.00203928,-0.00180289,-1.27675,0.00221968,0.0136027,916,1611,1.64076,-13.2012
-301,-587,1.67737,13.4304,-0.00293856,0.00154279,-0.00204085,0.00233291,-0.00372867,-1.20142,0.00353045,0.0124436,923,1611,1.67739,-13.4304
-294,-587,1.72162,13.6349,-0.00492914,0.00051451,-0.00350645,0.00223155,-0.00664618,-1.11544,0.00533262,0.0131099,930,1611,1.72163,-13.6349
-287,-587,1.71857,13.8444,-0.00692856,-0.000352518,-0.00521238,0.00252225,-0.00980333,-1.06678,0.00751867,0.0223575,937,1611,1.71855,-13.8443
-280,-587,1.63,14.0143,-0.00917361,-0.00169465,-0.00713071,0.00261763,-0.0134859,-1.02689,0.00997824,0.035325,944,1611,1.63003,-14.0143
-273,-587,1.28198,13.826,-0.011797,-0.00337016,-0.00932196,0.00264637,-0.0178135,-0.997652,0.012849,0.0452902,951,1611,1.28196,-13.8261
-266,-587,1.17712,13.8873,0,0,0,0,0,0,0,-1,958,1611,1.17711,-13.8874
-259,-587,1.18408,14.1432,0,0,0,0,0,0,0,-1,965,1611,1.18409,-14.1432
-252,-587,1.30188,10.3103,0,0,0,0,0,0,0,-1,972,1611,1.30188,-10.3104
-245,-587,2.97797,12.0387,0,0,0,0,0,0,0,-1,979,1611,2.97798,-12.0387
-238,-587,2.87799,9.53821,0,0,0,0,0,0,0,-1,986,1611,2.87797,-9.53823
-231,-587,2.49548,9.14465,0,0,0,0,0,0,0,-1,993,1611,2.49551,-9.14468
-224,-587,-9.72528,9.21069,0,0,0,0,0,0,0,-1,1000,1611,-9.72529,-9.21072
-217,-587,-7.07495,10.7847,0,0,0,0,0,0,0,-1,1007,1611,-7.07495,-10.7847
-210,-587,-4.72308,12.5889,0,0,0,0,0,0,0,-1,1014,1611,-4.72307,-12.5888
-203,-587,-3.2583,13.7289,0,0,0,0,0,0,0,-1,1021,1611,-3.25828,-13.7289
-196,-587,-1.953,14.8145,0,0,0,0,0,0,0,-1,1028,1611,-1.95302,-14.8144
-189,-587,-3.04138,8.66638,0,0,0,0,0,0,0,-1,1035,1611,-3.04136,-8.66635
-182,-587,-3.97095,9.7146,0,0,0,0,0,0,0,-1,1042,1611,-3.97093,-9.71461
-175,-587,-4.80969,8.37878,0,0,0,0,0,0,0,-1,1049,1611,-4.80964,-8.37883
-168,-587,-5.91394,8.72546,0,0,0,0,0,0,0,-1,1056,1611,-5.91398,-8.72542
-161,-587,-7.06946,8.88501,0,0,0,0,0,0,0,-1,1063,1611,-7.06947,-8.885
-154,-587,-2.24731,6.56519,0,0,0,0,0,0,0,-1,1070,1611,-2.24728,-6.56517
-147,-587,0,0,0,0,0,0,0,0,0,-1,1077,1611,0,0
-140,-587,0,0,0,0,0,0,0,0,0,-1,1084,1611,0,0
-133,-587,0,0,0,0,0,0,0,0,0,-1,1091,1611,0,0
-126,-587,0,0,0,0,0,0,0,0,0,-1,1098,1611,0,0
-119,-587,0,0,0,0,0,0,0,0,0,-1,1105,1611,0,0
-112,-587,0,0,0,0,0,0,0,0,0,-1,1112,1611,0,0
-105,-587,0,0,0,0,0,0,0,0,0,-1,1119,1611,0,0
-98,-587,0,0,0,0,0,0,0,0,0,-1,1126,1611,0,0
-91,-587,0,0,0,0,0,0,0,0,0,-1,1133,1611,0,0
-84,-587,0,0,0,0,0,0,0,0,0,-1,1140,1611,0,0
-77,-587,0,0,0,0,0,0,0,0,0,-1,1147,1611,0,0
-70,-587,0,0,0,0,0,0,0,0,0,-1,1154,1611,0,0
-63,-587,0,0,0,0,0,0,0,0,0,-1,1161,1611,0,0
-56,-587,0,0,0,0,0,0,0,0,0,-1,1168,1611,0,0
-49,-587,0,0,0,0,0,0,0,0,0,-1,1175,1611,0,0
-42,-587,0,0,0,0,0,0,0,0,0,-1,1182,1611,0,0
-35,-587,0,0,0,0,0,0,0,0,0,-1,1189,1611,0,0
-28,-587,0,0,0,0,0,0,0,0,0,-1,1196,1611,0,0
-21,-587,0,0,0,0,0,0,0,0,0,-1,1203,1611,0,0
-14,-587,0,0,0,0,0,0,0,0,0,-1,1210,1611,0,0
-7,-587,0,0,0,0,0,0,0,0,0,-1,1217,1611,0,0
0,-587,0,0,0,0,0,0,0,0,0,-1,1224,1611,0,0
7,-587,0,0,0,0,0,0,0,0,0,-1,1231,1611,0,0
14,-587,0,0,0,0,0,0,0,0,0,-1,1238,1611,0,0
21,-587,0,0,0,0,0,0,0,0,0,-1,1245,1611,0,0
28,-587,0,0,0,0,0,0,0,0,0,-1,1252,1611,0,0
35,-587,0,0,0,0,0,0,0,0,0,-1,1259,1611,0,0
42,-587,0,0,0,0,0,0,0,0,0,-1,1266,1611,0,0
49,-587,0,0,0,0,0,0,0,0,0,-1,1273,1611,0,0
56,-587,0,0,0,0,0,0,0,0,0,-1,1280,1611,0,0
63,-587,0,0,0,0,0,0,0,0,0,-1,1287,1611,0,0
70,-587,0,0,0,0,0,0,0,0,0,-1,1294,1611,0,0
77,-587,0,0,0,0,0,0,0,0,0,-1,1301,1611,0,0
84,-587,0,0,0,0,0,0,0,0,0,-1,1308,1611,0,0
91,-587,0,0,0,0,0,0,0,0,0,-1,1315,1611,0,0
98,-587,0,0,0,0,0,0,0,0,0,-1,1322,1611,0,0
105,-587,0,0,0,0,0,0,0,0,0,-1,1329,1611,0,0
112,-587,0,0,0,0,0,0,0,0,0,-1,1336,1611,0,0
119,-587,0,0,0,0,0,0,0,0,0,-1,1343,1611,0,0
126,-587,0,0,0,0,0,0,0,0,0,-1,1350,1611,0,0
133,-587,0,0,0,0,0,0,0,0,0,-1,1357,1611,0,0
140,-587,0,0,0,0,0,0,0,0,0,-1,1364,1611,0,0
147,-587,0,0,0,0,0,0,0,0,0,-1,1371,1611,0,0
154,-587,0,0,0,0,0,0,0,0,0,-1,1378,1611,0,0
161,-587,0,0,0,0,0,0,0,0,0,-1,1385,1611,0,0
168,-587,0,0,0,0,0,0,0,0,0,-1,1392,1611,0,0
175,-587,0,0,0,0,0,0,0,0,0,-1,1399,1611,0,0
182,-587,0,0,0,0,0,0,0,0,0,-1,1406,1611,0,0
189,-587,0,0,0,0,0,0,0,0,0,-1,1413,1611,0,0
196,-587,0,0,0,0,0,0,0,0,0,-1,1420,1611,0,0
203,-587,0,0,0,0,0,0,0,0,0,-1,1427,1611,0,0
210,-587,0,0,0,0,0,0,0,0,0,-1,1434,1611,0,0
217,-587,0,0,0,0,0,0,0,0,0,-1,1441,1611,0,0
224,-587,0,0,0,0,0,0,0,0,0,-1,1448,1611,0,0
231,-587,0,0,0,0,0,0,0,0,0,-1,1455,1611,0,0
238,-587,0,0,0,0,0,0,0,0,0,-1,1462,1611,0,0
245,-587,0,0,0,0,0,0,0,0,0,-1,1469,1611,0,0
252,-587,0,0,0,0,0,0,0,0,0,-1,1476,1611,0,0
259,-587,0,0,0,0,0,0,0,0,0,-1,1483,1611,0,0
266,-587,0,0,0,0,0,0,0,0,0,-1,1490,1611,0,0
273,-587,10.2936,6.35083,0,0,0,0,0,0,0,-1,1497,1611,10.2936,-6.35087
280,-587,2.09204,1.1217,0,0,0,0,0,0,0,-1,1504,1611,2.092,-1.12176
287,-587,3.2865,0.671509,0,0,0,0,0,0,0,-1,1511,1611,3.28656,-0.671538
294,-587,4.24646,1.58765,0,0,0,0,0,0,0,-1,1518,1611,4.24648,-1.58761
301,-587,7.60474,8.37085,0,0,0,0,0,0,0,-1,1525,1611,7.60478,-8.37084
308,-587,5.99316,10.2291,0,0,0,0,0,0,0,-1,1532,1611,5.99315,-10.2291
315,-587,4.34558,12.3289,0,0,0,0,0,0,0,-1,1539,1611,4.34556,-12.3288
322,-587,10.4526,6.38245,0,0,0,0,0,0,0,-1,1546,1611,10.4526,-6.38245
329,-587,10.7738,8.42444,0,0,0,0,0,0,0,-1,1553,1611,10.7738,-8.42438
336,-587,7.5531,5.96619,0,0,0,0,0,0,0,-1,1560,1611,7.55311,-5.96617
343,-587,9.57495,4.38391,0,0,0,0,0,0,0,-1,1567,1611,9.57494,-4.38397
350,-587,9.50378,3.45093,0,0,0,0,0,0,0,-1,1574,1611,9.50376,-3.4509
357,-587,9.40027,2.50806,0,0,0,0,0,0,0,-1,1581,1611,9.40022,-2.50803
364,-587,9.26477,1.34131,0,0,0,0,0,0,0,-1,1588,1611,9.26479,-1.34126
371,-587,6.98926,7.87561,0,0,0,0,0,0,0,-1,1595,1611,6.98928,-7.87564
378,-587,9.25146,13.8358,0,0,0,0,0,0,0,-1,1602,1611,9.2515,-13.8359
385,-587,7.17224,7.03772,0,0,0,0,0,0,0,-1,1609,1611,7.1722,-7.03778
392,-587,5.3916,8.21436,0,0,0,0,0,0,0,-1,1616,1611,5.39157,-8.21437
399,-587,8.1781,14.7415,0,0,0,0,0,0,0,-1,1623,1611,8.17805,-14.7415
406,-587,8.57654,14.5159,-0.00998677,-0.026745,0.0195715,0.00292389,-0.0396556,0.58314,0.0274636,0.0441085,1630,1611,8.5766,-14.5159
413,-587,8.28223,14.7628,-0.00880691,-0.0238616,0.0173365,0.00256591,-0.0352344,0.580584,0.0243899,0.0335237,1637,1611,8.28229,-14.7628
420,-587,8.16553,14.7634,-0.00780291,-0.0209156,0.0148264,0.00185211,-0.0305706,0.577221,0.021025,0.0326534,1644,1611,8.16548,-14.7634
427,-587,8.19055,14.5948,-0.00705167,-0.0181305,0.0127199,0.00128265,-0.0264648,0.580036,0.0180859,0.0266717,1651,1611,8.19057,-14.5948
434,-587,8.09082,14.4075,-0.00622895,-0.0154615,0.0106622,0.000773374,-0.0224639,0.581102,0.0152402,0.0157828,1658,1611,8.09086,-14.4075
441,-587,8.07104,14.2032,-0.00543903,-0.0131022,0.00888394,0.000404373,-0.0189456,0.581804,0.0127673,0.0164728,1665,1611,8.07109,-14.2033
448,-587,8.09595,13.9833,-0.00459114,-0.01082,0.00731017,0.000240397,-0.0156515,0.584022,0.0105154,0.014855,1672,1611,8.09601,-13.9833
455,-587,8.10986,13.7798,-0.00404253,-0.00884156,0.00605709,7.30138e-05,-0.0129571,0.596807,0.00866251,0.013926,1679,1611,8.10981,-13.7798
462,-587,8.10315,13.5701,-0.00336319,-0.00690187,0.00476677,-4.79831e-05,-0.0102171,0.607689,0.00679545,0.0171349,1686,1611,8.10312,-13.5701
469,-587,8.10144,13.3739,-0.00266999,-0.0053459,0.0037158,-5.86007e-05,-0.00795729,0.612589,0.00528543,0.0154509,1693,1611,8.10143,-13.3739
476,-587,8.10217,13.1659,-0.00208191,-0.003799,0.00277084,-3.96564e-05,-0.00584126,0.635164,0.00388102,0.0105929,1700,1611,8.10219,-13.1659
483,-587,8.06348,12.9287,-0.00122601,-0.00267207,0.00196665,0.000146303,-0.00404439,0.609244,0.00274632,0.0134664,1707,1611,8.0635,-12.9288
490,-587,8.03137,12.7048,-2.74465e-05,-0.00174157,0.000935177,0.000383999,-0.00215302,0.414478,0.00157899,0.0153728,1714,1611,8.03142,-12.7049
497,-587,8.0282,12.4845,0.00101539,-0.0011655,3.75709e-05,0.00101604,-0.00116615,0.0172205,0.00126088,0.0117988,1721,1611,8.02815,-12.4845
504,-587,8.05029,12.2898,0.00208849,-0.000785654,-0.000642658,0.00222564,-0.000922807,-0.210262,0.00186891,0.0121333,1728,1611,8.05024,-12.2898
511,-587,8.05798,12.094,0.00325723,-0.000759238,-0.00137169,0.00368098,-0.00118299,-0.299624,0.00292906,0.0146118,1735,1611,8.05793,-12.0939
518,-587,8.08191,11.8522,0.00451579,-0.00125837,-0.00188889,0.0050788,-0.00182138,-0.28968,0.00412914,0.0143666,1742,1611,8.0819,-11.8522
525,-587,8.05591,11.5857,0.00589436,-0.00223426,-0.00230707,0.0065035,-0.00284341,-0.258144,0.00553264,0.0172176,1749,1611,8.05586,-11.5857
532,-587,8.19763,11.4417,0.00727618,-0.00360649,-0.00251204,0.00782805,-0.00415836,-0.216254,0.00702763,0.0327015,1756,1611,8.19767,-11.4416
539,-587,8.94128,11.5063,0.00894371,-0.00519686,-0.00277376,0.00946833,-0.00572148,-0.186931,0.00885833,0.044128,1763,1611,8.94127,-11.5063
546,-587,9.4657,11.3871,0,0,0,0,0,0,0,-1,1770,1611,9.46567,-11.3871
553,-587,7.5813,8.45068,0,0,0,0,0,0,0,-1,1777,1611,7.58125,-8.45068
560,-587,4.21179,5.23547,0,0,0,0,0,0,0,-1,1784,1611,4.21185,-5.23553
567,-587,4.03711,5.46387,0,0,0,0,0,0,0,-1,1791,1611,4.03715,-5.46382
574,-587,3.83142,5.68884,0,0,0,0,0,0,0,-1,1798,1611,3.83141,-5.68881
581,-587,3.47168,6.00977,0,0,0,0,0,0,0,-1,1805,1611,3.47167,-6.00983
588,-587,0,0,0,0,0,0,0,0,0,-1,1812,1611,0,0
595,-587,0,0,0,0,0,0,0,0,0,-1,1819,1611,0,0
602,-587,0,0,0,0,0,0,0,0,0,-1,1826,1611,0,0
609,-587,0,0,0,0,0,0,0,0,0,-1,1833,1611,0,0
616,-587,0,0,0,0,0,0,0,0,0,-1,1840,1611,0,0
623,-587,0,0,0,0,0,0,0,0,0,-1,1847,1611,0,0
630,-587,0,0,0,0,0,0,0,0,0,-1,1854,1611,0,0
637,-587,0,0,0,0,0,0,0,0,0,-1,1861,1611,0,0
644,-587,0,0,0,0,0,0,0,0,0,-1,1868,1611,0,0
651,-587,0,0,0,0,0,0,0,0,0,-1,1875,1611,0,0
658,-587,0,0,0,0,0,0,0,0,0,-1,1882,1611,0,0
665,-587,0,0,0,0,0,0,0,0,0,-1,1889,1611,0,0
672,-587,0,0,0,0,0,0,0,0,0,-1,1896,1611,0,0
679,-587,0,0,0,0,0,0,0,0,0,-1,1903,1611,0,0
686,-587,0,0,0,0,0,0,0,0,0,-1,1910,1611,0,0
693,-587,0,0,0,0,0,0,0,0,0,-1,1917,1611,0,0
700,-587,0,0,0,0,0,0,0,0,0,-1,1924,1611,0,0
707,-587,0,0,0,0,0,0,0,0,0,-1,1931,1611,0,0
714,-587,0,0,0,0,0,0,0,0,0,-1,1938,1611,0,0
721,-587,0,0,0,0,0,0,0,0,0,-1,1945,1611,0,0
728,-587,0,0,0,0,0,0,0,0,0,-1,1952,1611,0,0
735,-587,0,0,0,0,0,0,0,0,0,-1,1959,1611,0,0
742,-587,0,0,0,0,0,0,0,0,0,-1,1966,1611,0,0
749,-587,0,0,0,0,0,0,0,0,0,-1,1973,1611,0,0
756,-587,0,0,0,0,0,0,0,0,0,-1,1980,1611,0,0
763,-587,0,0,0,0,0,0,0,0,0,-1,1987,1611,0,0
770,-587,0,0,0,0,0,0,0,0,0,-1,1994,1611,0,0
777,-587,0,0,0,0,0,0,0,0,0,-1,2001,1611,0,0
784,-587,0,0,0,0,0,0,0,0,0,-1,2008,1611,0,0
791,-587,0,0,0,0,0,0,0,0,0,-1,2015,1611,0,0
798,-587,0,0,0,0,0,0,0,0,0,-1,2022,1611,0,0
805,-587,0,0,0,0,0,0,0,0,0,-1,2029,1611,0,0
812,-587,0,0,0,0,0,0,0,0,0,-1,2036,1611,0,0
-700,-594,0,0,0,0,0,0,0,0,0,-1,524,1618,0,0
-693,-594,0,0,0,0,0,0,0,0,0,-1,531,1618,0,0
-686,-594,0,0,0,0,0,0,0,0,0,-1,538,1618,0,0
-679,-594,0,0,0,0,0,0,0,0,0,-1,545,1618,0,0
-672,-594,0,0,0,0,0,0,0,0,0,-1,552,1618,0,0
-665,-594,0,0,0,0,0,0,0,0,0,-1,559,1618,0,0
-658,-594,0,0,0,0,0,0,0,0,0,-1,566,1618,0,0
-651,-594,0,0,0,0,0,0,0,0,0,-1,573,1618,0,0
-644,-594,0,0,0,0,0,0,0,0,0,-1,580,1618,0,0
-637,-594,0,0,0,0,0,0,0,0,0,-1,587,1618,0,0
-630,-594,0,0,0,0,0,0,0,0,0,-1,594,1618,0,0
-623,-594,0,0,0,0,0,0,0,0,0,-1,601,1618,0,0
-616,-594,0,0,0,0,0,0,0,0,0,-1,608,1618,0,0
-609,-594,0,0,0,0,0,0,0,0,0,-1,615,1618,0,0
-602,-594,0,0,0,0,0,0,0,0,0,-1,622,1618,0,0
-595,-594,0,0,0,0,0,0,0,0,0,-1,629,1618,0,0
-588,-594,0,0,0,0,0,0,0,0,0,-1,636,1618,0,0
-581,-594,0,0,0,0,0,0,0,0,0,-1,643,1618,0,0
-574,-594,0,0,0,0,0,0,0,0,0,-1,650,1618,0,0
-567,-594,0,0,0,0,0,0,0,0,0,-1,657,1618,0,0
-560,-594,0,0,0,0,0,0,0,0,0,-1,664,1618,0,0
-553,-594,0,0,0,0,0,0,0,0,0,-1,671,1618,0,0
-546,-594,0,0,0,0,0,0,0,0,0,-1,678,1618,0,0
-539,-594,0,0,0,0,0,0,0,0,0,-1,685,1618,0,0
-532,-594,0,0,0,0,0,0,0,0,0,-1,692,1618,0,0
-525,-594,0,0,0,0,0,0,0,0,0,-1,699,1618,0,0
-518,-594,0,0,0,0,0,0,0,0,0,-1,706,1618,0,0
-511,-594,0,0,0,0,0,0,0,0,0,-1,713,1618,0,0
-504,-594,0,0,0,0,0,0,0,0,0,-1,720,1618,0,0
-497,-594,0,0,0,0,0,0,0,0,0,-1,727,1618,0,0
-490,-594,0,0,0,0,0,0,0,0,0,-1,734,1618,0,0
-483,-594,0,0,0,0,0,0,0,0,0,-1,741,1618,0,0
-476,-594,0,0,0,0,0,0,0,0,0,-1,748,1618,0,0
-469,-594,0,0,0,0,0,0,0,0,0,-1,755,1618,0,0
-462,-594,0,0,0,0,0,0,0,0,0,-1,762,1618,0,0
-455,-594,-0.509216,-1.58411,0,0,0,0,0,0,0,-1,769,1618,-0.509245,1.58415
-448,-594,-7.71887,-0.0559082,0,0,0,0,0,0,0,-1,776,1618,-7.71885,0.055939
-441,-594,-5.78473,1.18298,0,0,0,0,0,0,0,-1,783,1618,-5.78474,-1.18295
-434,-594,-3.93628,3.06213,0,0,0,0,0,0,0,-1,790,1618,-3.93631,-3.06208
-427,-594,-3.97693,6.77759,0,0,0,0,0,0,0,-1,797,1618,-3.97695,-6.77764
-420,-594,-2.53046,7.71606,0,0,0,0,0,0,0,-1,804,1618,-2.53047,-7.71609
-413,-594,-0.860413,8.00391,0,0,0,0,0,0,0,-1,811,1618,-0.860423,-8.00389
-406,-594,3.18323,8.29382,0,0,0,0,0,0,0,-1,818,1618,3.18325,-8.29386
-399,-594,2.43579,9.91113,0,0,0,0,0,0,0,-1,825,1618,2.43578,-9.91117
-392,-594,2.21582,10.225,-0.00454643,-0.00406303,0.000389523,-0.00384631,-0.00476315,1.06308,0.00291823,0.0419288,832,1618,2.21583,-10.225
-385,-594,1.98212,10.5652,-0.00394424,-0.0042016,0.000467016,-0.0035885,-0.00455734,0.650965,0.0027723,0.0259686,839,1618,1.98212,-10.5652
-378,-594,1.86877,10.8201,-0.00293687,-0.00395192,0.00072523,-0.00255921,-0.00432957,0.480096,0.00251347,0.0111711,846,1618,1.8688,-10.8201
-371,-594,1.87018,11.0916,-0.00196224,-0.00362394,0.000730412,-0.00168683,-0.00389935,0.360578,0.0022581,0.0103381,853,1618,1.87016,-11.0916
-364,-594,1.89001,11.3395,-0.00114227,-0.00327935,0.000850286,-0.000845243,-0.00357637,0.33607,0.00215839,0.0093508,860,1618,1.89002,-11.3395
-357,-594,1.88525,11.578,-0.000167962,-0.00275384,0.00100558,0.00017705,-0.00309885,0.330513,0.00212737,0.00907166,867,1618,1.88524,-11.578
-350,-594,1.85925,11.8496,0.000691456,-0.00209523,0.00106992,0.00105485,-0.00245862,0.327424,0.00208178,0.0137994,874,1618,1.85923,-11.8496
-343,-594,1.84546,12.0933,0.00124209,-0.00144474,0.00102177,0.00158651,-0.00178916,0.325118,0.00195011,0.0161529,881,1618,1.84548,-12.0933
-336,-594,1.84344,12.266,0.00160369,-0.000874919,0.000817606,0.00184909,-0.00112032,0.291592,0.00173152,0.0122872,888,1618,1.84343,-12.2659
-329,-594,1.85492,12.502,0.00145399,-0.000551549,0.000352439,0.00151412,-0.000611681,0.16899,0.00126366,0.0125185,895,1618,1.85494,-12.5019
-322,-594,1.87225,12.7561,0.000992186,-0.000365771,-0.000255906,0.00103881,-0.000412396,-0.180217,0.000863481,0.0151618,902,1618,1.87228,-12.756
-315,-594,1.88324,12.9675,0.000348947,-0.00053983,-0.00106314,0.00105684,-0.00124772,-0.587437,0.00133206,0.0149313,909,1618,1.88327,-12.9675
-308,-594,1.88727,13.1951,-0.000450882,-0.00114732,-0.00225339,0.00148104,-0.00307924,-0.708739,0.00268623,0.0131338,916,1618,1.88725,-13.1951
-301,-594,1.88629,13.4069,-0.00148528,-0.00218855,-0.00354619,0.00172667,-0.0054005,-0.73598,0.00429323,0.0102611,923,1618,1.8863,-13.4068
-294,-594,1.90765,13.6095,-0.002887,-0.00416077,-0.00526503,0.00177952,-0.00882729,-0.725208,0.006559,0.00987541,930,1618,1.90768,-13.6095
-287,-594,1.90204,13.824,-0.00415317,-0.00611426,-0.00720688,0.00213956,-0.012407,-0.717785,0.00906903,0.0112988,937,1618,1.90204,-13.824
-280,-594,1.88556,14.0588,-0.00550345,-0.00873378,-0.00930205,0.00232262,-0.0165599,-0.699438,0.01189,0.0151269,944,1618,1.88553,-14.0588
-273,-594,1.83417,14.2262,-0.00708416,-0.0117954,-0.0116499,0.00244593,-0.0213255,-0.685643,0.0150985,0.0259138,951,1618,1.83418,-14.2262
-266,-594,1.71088,14.3257,-0.00894055,-0.0154438,-0.0140143,0.00219445,-0.0265788,-0.671405,0.0184941,0.035007,958,1618,1.71087,-14.3257
-259,-594,1.64771,14.3513,-0.0113268,-0.0191857,-0.0165724,0.00177564,-0.0322881,-0.668994,0.022141,0.0432066,965,1618,1.64772,-14.3513
-252,-594,1.65491,14.4606,0,0,0,0,0,0,0,-1,972,1618,1.65489,-14.4605
-245,-594,1.62286,13.5688,0,0,0,0,0,0,0,-1,979,1618,1.62287,-13.5689
-238,-594,2.48499,13.0104,0,0,0,0,0,0,0,-1,986,1618,2.48501,-13.0104
-231,-594,1.93774,9.35388,0,0,0,0,0,0,0,-1,993,1618,1.93776,-9.35393
-224,-594,1.81824,8.62744,0,0,0,0,0,0,0,-1,1000,1618,1.81822,-8.62745
-217,-594,-8.24066,12.0752,0,0,0,0,0,0,0,-1,1007,1618,-8.24068,-12.0751
-210,-594,-5.61438,14.2119,0,0,0,0,0,0,0,-1,1014,1618,-5.6144,-14.212
-203,-594,-3.94507,15.5768,0,0,0,0,0,0,0,-1,1021,1618,-3.94506,-15.5768
-196,-594,2.78613,10.5815,0,0,0,0,0,0,0,-1,1028,1618,2.78612,-10.5815
-189,-594,2.60913,9.48865,0,0,0,0,0,0,0,-1,1035,1618,2.6091,-9.48871
-182,-594,1.2395,9.38806,0,0,0,0,0,0,0,-1,1042,1618,1.23951,-9.38804
-175,-594,0.234863,8.73792,0,0,0,0,0,0,0,-1,1049,1618,0.234812,-8.73786
-168,-594,-0.495483,8.46289,0,0,0,0,0,0,0,-1,1056,1618,-0.495513,-8.46285
-161,-594,-1.39734,8.28699,0,0,0,0,0,0,0,-1,1063,1618,-1.39729,-8.28699
-154,-594,-0.000854492,7.68445,0,0,0,0,0,0,0,-1,1070,1618,-0.000805755,-7.6845
-147,-594,0.348267,9.3385,0,0,0,0,0,0,0,-1,1077,1618,0.348237,-9.33849
-140,-594,0.675171,11.5884,0,0,0,0,0,0,0,-1,1084,1618,0.675204,-11.5884
-133,-594,0,0,0,0,0,0,0,0,0,-1,1091,1618,0,0
-126,-594,0,0,0,0,0,0,0,0,0,-1,1098,1618,0,0
-119,-594,0,0,0,0,0,0,0,0,0,-1,1105,1618,0,0
-112,-594,0,0,0,0,0,0,0,0,0,-1,1112,1618,0,0
-105,-594,0,0,0,0,0,0,0,0,0,-1,1119,1618,0,0
-98,-594,0,0,0,0,0,0,0,0,0,-1,1126,1618,0,0
-91,-594,0,0,0,0,0,0,0,0,0,-1,1133,1618,0,0
-84,-594,0,0,0,0,0,0,0,0,0,-1,1140,1618,0,0
-77,-594,0,0,0,0,0,0,0,0,0,-1,1147,1618,0,0
-70,-594,0,0,0,0,0,0,0,0,0,-1,1154,1618,0,0
-63,-594,0,0,0,0,0,0,0,0,0,-1,1161,1618,0,0
-56,-594,0,0,0,0,0,0,0,0,0,-1,1168,1618,0,0
-49,-594,0,0,0,0,0,0,0,0,0,-1,1175,1618,0,0
-42,-594,0,0,0,0,0,0,0,0,0,-1,1182,1618,0,0
-35,-594,0,0,0,0,0,0,0,0,0,-1,1189,1618,0,0
-28,-594,0,0,0,0,0,0,0,0,0,-1,1196,1618,0,0
-21,-594,0,0,0,0,0,0,0,0,0,-1,1203,1618,0,0
-14,-594,0,0,0,0,0,0,0,0,0,-1,1210,1618,0,0
-7,-594,0,0,0,0,0,0,0,0,0,-1,1217,1618,0,0
0,-594,0,0,0,0,0,0,0,0,0,-1,1224,1618,0,0
7,-594,0,0,0,0,0,0,0,0,0,-1,1231,1618,0,0
14,-594,0,0,0,0,0,0,0,0,0,-1,1238,1618,0,0
21,-594,0,0,0,0,0,0,0,0,0,-1,1245,1618,0,0
28,-594,0,0,0,0,0,0,0,0,0,-1,1252,1618,0,0
35,-594,0,0,0,0,0,0,0,0,0,-1,1259,1618,0,0
42,-594,0,0,0,0,0,0,0,0,0,-1,1266,1618,0,0
49,-594,0,0,0,0,0,0,0,0,0,-1,1273,1618,0,0
56,-594,0,0,0,0,0,0,0,0,0,-1,1280,1618,0,0
63,-594,0,0,0,0,0,0,0,0,0,-1,1287,1618,0,0
70,-594,0,0,0,0,0,0,0,0,0,-1,1294,1618,0,0
77,-594,0,0,0,0,0,0,0,0,0,-1,1301,1618,0,0
84,-594,0,0,0,0,0,0,0,0,0,-1,1308,1618,0,0
91,-594,0,0,0,0,0,0,0,0,0,-1,1315,1618,0,0
98,-594,0,0,0,0,0,0,0,0,0,-1,1322,1618,0,0
105,-594,0,0,0,0,0,0,0,0,0,-1,1329,1618,0,0
112,-594,0,0,0,0,0,0,0,0,0,-1,1336,1618,0,0
119,-594,0,0,0,0,0,0,0,0,0,-1,1343,1618,0,0
126,-594,0,0,0,0,0,0,0,0,0,-1,1350,1618,0,0
133,-594,0,0,0,0,0,0,0,0,0,-1,1357,1618,0,0
140,-594,0,0,0,0,0,0,0,0,0,-1,1364,1618,0,0
147,-594,0,0,0,0,0,0,0,0,0,-1,1371,1618,0,0
154,-594,0,0,0,0,0,0,0,0,0,-1,1378,1618,0,0
161,-594,0,0,0,0,0,0,0,0,0,-1,1385,1618,0,0
168,-594,0,0,0,0,0,0,0,0,0,-1,1392,1618,0,0
175,-594,0,0,0,0,0,0,0,0,0,-1,1399,1618,0,0
182,-594,0,0,0,0,0,0,0,0,0,-1,1406,1618,0,0
189,-594,0,0,0,0,0,0,0,0,0,-1,1413,1618,0,0
196,-594,0,0,0,0,0,0,0,0,0,-1,1420,1618,0,0
203,-594,0,0,0,0,0,0,0,0,0,-1,1427,1618,0,0
210,-594,0,0,0,0,0,0,0,0,0,-1,1434,1618,0,0
217,-594,0,0,0,0,0,0,0,0,0,-1,1441,1618,0,0
224,-594,0,0,0,0,0,0,0,0,0,-1,1448,1618,0,0
231,-594,0,0,0,0,0,0,0,0,0,-1,1455,1618,0,0
238,-594,0,0,0,0,0,0,0,0,0,-1,1462,1618,0,0
245,-594,0,0,0,0,0,0,0,0,0,-1,1469,1618,0,0
252,-594,3.03674,1.20996,0,0,0,0,0,0,0,-1,1476,1618,3.0368,-1.20999
259,-594,4.79834,1.53113,0,0,0,0,0,0,0,-1,1483,1618,4.79837,-1.53118
266,-594,3.71606,2.68152,0,0,0,0,0,0,0,-1,1490,1618,3.71609,-2.68149
273,-594,9.7655,6.33557,0,0,0,0,0,0,0,-1,1497,1618,9.76555,-6.33554
280,-594,3.13281,0.911255,0,0,0,0,0,0,0,-1,1504,1618,3.13277,-0.911207
287,-594,4.42749,1.51563,0,0,0,0,0,0,0,-1,1511,1618,4.42747,-1.51564
294,-594,5.36475,3.34937,0,0,0,0,0,0,0,-1,1518,1618,5.36475,-3.3494
301,-594,7.97144,9.04333,0,0,0,0,0,0,0,-1,1525,1618,7.9714,-9.04328
308,-594,6.30347,10.4633,0,0,0,0,0,0,0,-1,1532,1618,6.30351,-10.4633
315,-594,4.62012,11.934,0,0,0,0,0,0,0,-1,1539,1618,4.62006,-11.934
322,-594,2.91528,13.3134,0,0,0,0,0,0,0,-1,1546,1618,2.91523,-13.3133
329,-594,4.19861,9.77258,0,0,0,0,0,0,0,-1,1553,1618,4.19865,-9.77264
336,-594,10.1353,4.66528,0,0,0,0,0,0,0,-1,1560,1618,10.1353,-4.66533
343,-594,10.5729,3.71228,0,0,0,0,0,0,0,-1,1567,1618,10.5729,-3.71232
350,-594,10.219,2.98792,0,0,0,0,0,0,0,-1,1574,1618,10.219,-2.98797
357,-594,9.83154,1.96326,0,0,0,0,0,0,0,-1,1581,1618,9.8315,-1.96321
364,-594,9.74939,0.700562,0,0,0,0,0,0,0,-1,1588,1618,9.74939,-0.700615
371,-594,8.54297,14.3988,0,0,0,0,0,0,0,-1,1595,1618,8.54296,-14.3989
378,-594,8.98047,15.6211,0,0,0,0,0,0,0,-1,1602,1618,8.98044,-15.6211
385,-594,8.62561,13.6674,0,0,0,0,0,0,0,-1,1609,1618,8.6256,-13.6674
392,-594,7.78918,15.132,0,0,0,0,0,0,0,-1,1616,1618,7.78923,-15.132
399,-594,7.90112,15.0215,-0.00813288,-0.0210939,0.0176421,0.00418134,-0.0334081,0.609383,0.0237887,0.044311,1623,1618,7.90118,-15.0215
406,-594,8.02734,15.0107,-0.00715472,-0.0193827,0.0149327,0.00286714,-0.0294046,0.59109,0.0206253,0.0272727,1630,1618,8.02732,-15.0107
413,-594,7.94128,14.8832,-0.00617814,-0.0173909,0.0130592,0.00242726,-0.0259963,0.582643,0.018194,0.0219374,1637,1618,7.94128,-14.8832
420,-594,7.92517,14.6979,-0.0053707,-0.0151911,0.0110882,0.00184585,-0.0224076,0.57696,0.0155902,0.018244,1644,1618,7.92517,-14.6979
427,-594,7.91357,14.5824,-0.00467083,-0.013118,0.00936316,0.00137726,-0.0191661,0.57352,0.0132603,0.0128765,1651,1618,7.9136,-14.5824
434,-594,7.89124,14.3834,-0.00399956,-0.0111359,0.00770524,0.000923594,-0.016059,0.568558,0.0110268,0.0161391,1658,1618,7.89122,-14.3835
441,-594,7.88586,14.1848,-0.00341194,-0.00934263,0.0063118,0.000596385,-0.013351,0.565796,0.00910595,0.0150761,1665,1618,7.88586,-14.1848
448,-594,7.90247,13.99,-0.00276061,-0.00759331,0.00509393,0.000461029,-0.0108149,0.563936,0.00736845,0.0155083,1672,1618,7.90244,-13.99
455,-594,7.89807,13.7839,-0.0023722,-0.00606028,0.00412869,0.000305555,-0.00873803,0.57537,0.00592983,0.01163,1679,1618,7.89804,-13.7839
462,-594,7.89355,13.5707,-0.00188854,-0.00453224,0.00312093,0.000178935,-0.00659971,0.58508,0.00446065,0.0124009,1686,1618,7.89352,-13.5707
469,-594,7.89856,13.3824,-0.00139046,-0.00330478,0.00231068,0.000153458,-0.0048487,0.58904,0.00328482,0.0112333,1693,1618,7.89859,-13.3825
476,-594,7.88647,13.1772,-0.000973906,-0.00210201,0.00159104,0.000150104,-0.00322602,0.615051,0.00220242,0.0119987,1700,1618,7.88651,-13.1772
483,-594,7.88708,12.947,-0.000306452,-0.0013112,0.00102333,0.000331165,-0.00194882,0.557219,0.00142251,0.0153516,1707,1618,7.88712,-12.947
490,-594,7.85291,12.7186,0.000769548,-0.000730613,0.000184667,0.000791946,-0.000753011,0.120698,0.000892076,0.0123219,1714,1618,7.85295,-12.7187
497,-594,7.83618,12.4989,0.00168323,-0.000405609,-0.000503098,0.00179809,-0.000520465,-0.224451,0.00140473,0.00886429,1721,1618,7.83623,-12.4989
504,-594,7.86182,12.2897,0.00258355,-0.000285184,-0.0010142,0.00290589,-0.000607523,-0.307729,0.00216832,0.00973834,1728,1618,7.86176,-12.2897
511,-594,7.87061,12.0729,0.003737,-0.000689506,-0.00164694,0.00428253,-0.00123504,-0.319866,0.00334362,0.0124765,1735,1618,7.87056,-12.0729
518,-594,7.87305,11.8302,0.00510569,-0.00163524,-0.00198773,0.00564816,-0.00217772,-0.266425,0.00466401,0.01536,1742,1618,7.87307,-11.8302
525,-594,7.87134,11.5804,0.0066578,-0.00310167,-0.00232318,0.0071826,-0.00362647,-0.222168,0.0063522,0.0257037,1749,1618,7.87139,-11.5804
532,-594,7.80249,11.3831,0.00850408,-0.0049144,-0.00265603,0.00901068,-0.00542101,-0.188474,0.00841762,0.0446697,1756,1618,7.80255,-11.383
539,-594,7.74402,11.0459,0,0,0,0,0,0,0,-1,1763,1618,7.74403,-11.0459
546,-594,7.48645,8.54785,0,0,0,0,0,0,0,-1,1770,1618,7.48639,-8.54789
553,-594,3.69714,5.68762,0,0,0,0,0,0,0,-1,1777,1618,3.69715,-5.68764
560,-594,6.06616,4.44482,0,0,0,0,0,0,0,-1,1784,1618,6.06621,-4.44477
567,-594,5.97266,4.73303,0,0,0,0,0,0,0,-1,1791,1618,5.97271,-4.73309
574,-594,5.9906,4.96326,0,0,0,0,0,0,0,-1,1798,1618,5.99065,-4.96326
581,-594,0,0,0,0,0,0,0,0,0,-1,1805,1618,0,0
588,-594,0,0,0,0,0,0,0,0,0,-1,1812,1618,0,0
595,-594,0,0,0,0,0,0,0,0,0,-1,1819,1618,0,0
602,-594,0,0,0,0,0,0,0,0,0,-1,1826,1618,0,0
609,-594,0,0,0,0,0,0,0,0,0,-1,1833,1618,0,0
616,-594,0,0,0,0,0,0,0,0,0,-1,1840,1618,0,0
623,-594,0,0,0,0,0,0,0,0,0,-1,1847,1618,0,0
630,-594,0,0,0,0,0,0,0,0,0,-1,1854,1618,0,0
637,-594,0,0,0,0,0,0,0,0,0,-1,1861,1618,0,0
644,-594,0,0,0,0,0,0,0,0,0,-1,1868,1618,0,0
651,-594,0,0,0,0,0,0,0,0,0,-1,1875,1618,0,0
658,-594,0,0,0,0,0,0,0,0,0,-1,1882,1618,0,0
665,-594,0,0,0,0,0,0,0,0,0,-1,1889,1618,0,0
672,-594,0,0,0,0,0,0,0,0,0,-1,1896,1618,0,0
679,-594,0,0,0,0,0,0,0,0,0,-1,1903,1618,0,0
686,-594,0,0,0,0,0,0,0,0,0,-1,1910,1618,0,0
693,-594,0,0,0,0,0,0,0,0,0,-1,1917,1618,0,0
700,-594,0,0,0,0,0,0,0,0,0,-1,1924,1618,0,0
707,-594,0,0,0,0,0,0,0,0,0,-1,1931,1618,0,0
714,-594,0,0,0,0,0,0,0,0,0,-1,1938,1618,0,0
721,-594,0,0,0,0,0,0,0,0,0,-1,1945,1618,0,0
728,-594,0,0,0,0,0,0,0,0,0,-1,1952,1618,0,0
735,-594,0,0,0,0,0,0,0,0,0,-1,1959,1618,0,0
742,-594,0,0,0,0,0,0,0,0,0,-1,1966,1618,0,0
749,-594,0,0,0,0,0,0,0,0,0,-1,1973,1618,0,0
756,-594,0,0,0,0,0,0,0,0,0,-1,1980,1618,0,0
763,-594,0,0,0,0,0,0,0,0,0,-1,1987,1618,0,0
770,-594,0,0,0,0,0,0,0,0,0,-1,1994,1618,0,0
777,-594,0,0,0,0,0,0,0,0,0,-1,2001,1618,0,0
784,-594,0,0,0,0,0,0,0,0,0,-1,2008,1618,0,0
791,-594,0,0,0,0,0,0,0,0,0,-1,2015,1618,0,0
798,-594,0,0,0,0,0,0,0,0,0,-1,2022,1618,0,0
805,-594,0,0,0,0,0,0,0,0,0,-1,2029,1618,0,0
812,-594,0,0,0,0,0,0,0,0,0,-1,2036,1618,0,0
-700,-601,0,0,0,0,0,0,0,0,0,-1,524,1625,0,0
-693,-601,0,0,0,0,0,0,0,0,0,-1,531,1625,0,0
-686,-601,0,0,0,0,0,0,0,0,0,-1,538,1625,0,0
-679,-601,0,0,0,0,0,0,0,0,0,-1,545,1625,0,0
-672,-601,0,0,0,0,0,0,0,0,0,-1,552,1625,0,0
-665,-601,0,0,0,0,0,0,0,0,0,-1,559,1625,0,0
-658,-601,0,0,0,0,0,0,0,0,0,-1,566,1625,0,0
-651,-601,0,0,0,0,0,0,0,0,0,-1,573,1625,0,0
-644,-601,0,0,0,0,0,0,0,0,0,-1,580,1625,0,0
-637,-601,0,0,0,0,0,0,0,0,0,-1,587,1625,0,0
-630,-601,0,0,0,0,0,0,0,0,0,-1,594,1625,0,0
-623,-601,0,0,0,0,0,0,0,0,0,-1,601,1625,0,0
-616,-601,0,0,0,0,0,0,0,0,0,-1,608,1625,0,0
-609,-601,0,0,0,0,0,0,0,0,0,-1,615,1625,0,0
-602,-601,0,0,0,0,0,0,0,0,0,-1,622,1625,0,0
-595,-601,0,0,0,0,0,0,0,0,0,-1,629,1625,0,0
-588,-601,0,0,0,0,0,0,0,0,0,-1,636,1625,0,0
-581,-601,0,0,0,0,0,0,0,0,0,-1,643,1625,0,0
-574,-601,0,0,0,0,0,0,0,0,0,-1,650,1625,0,0
-567,-601,0,0,0,0,0,0,0,0,0,-1,657,1625,0,0
-560,-601,0,0,0,0,0,0,0,0,0,-1,664,1625,0,0
-553,-601,0,0,0,0,0,0,0,0,0,-1,671,1625,0,0
-546,-601,0,0,0,0,0,0,0,0,0,-1,678,1625,0,0
-539,-601,0,0,0,0,0,0,0,0,0,-1,685,1625,0,0
-532,-601,0,0,0,0,0,0,0,0,0,-1,692,1625,0,0
-525,-601,0,0,0,0,0,0,0,0,0,-1,699,1625,0,0
-518,-601,0,0,0,0,0,0,0,0,0,-1,706,1625,0,0
-511,-601,0,0,0,0,0,0,0,0,0,-1,713,1625,0,0
-504,-601,0,0,0,0,0,0,0,0,0,-1,720,1625,0,0
-497,-601,0,0,0,0,0,0,0,0,0,-1,727,1625,0,0
-490,-601,0,0,0,0,0,0,0,0,0,-1,734,1625,0,0
-483,-601,0,0,0,0,0,0,0,0,0,-1,741,1625,0,0
-476,-601,0,0,0,0,0,0,0,0,0,-1,748,1625,0,0
-469,-601,0,0,0,0,0,0,0,0,0,-1,755,1625,0,0
-462,-601,0,0,0,0,0,0,0,0,0,-1,762,1625,0,0
-455,-601,0,0,0,0,0,0,0,0,0,-1,769,1625,0,0
-448,-601,-7.07623,2.7616,0,0,0,0,0,0,0,-1,776,1625,-7.07626,-2.76161
-441,-601,-6.06689,3.33447,0,0,0,0,0,0,0,-1,783,1625,-6.06691,-3.33448
-434,-601,-5.02655,3.8468,0,0,0,0,0,0,0,-1,790,1625,-5.02657,-3.84674
-427,-601,-5.78601,4.2406,0,0,0,0,0,0,0,-1,797,1625,-5.786,-4.24058
-420,-601,-5.5191,5.60364,0,0,0,0,0,0,0,-1,804,1625,-5.51907,-5.60368
-413,-601,-4.30756,5.86047,0,0,0,0,0,0,0,-1,811,1625,-4.30757,-5.86046
-406,-601,-1.67493,7.20422,0,0,0,0,0,0,0,-1,818,1625,-1.67493,-7.20428
-399,-601,3.02356,9.76392,0,0,0,0,0,0,0,-1,825,1625,3.02357,-9.76394
-392,-601,2.60034,10.2625,-0.00601382,-0.00621394,0.000811551,-0.00529619,-0.00693158,0.72406,0.00418385,0.0468869,832,1625,2.60033,-10.2624
-385,-601,2.28485,10.725,-0.00472009,-0.0061121,0.00104513,-0.00416042,-0.00667178,0.491646,0.00389098,0.0416145,839,1625,2.28483,-10.725
-378,-601,2.13403,10.887,-0.00321202,-0.00559046,0.00134883,-0.00260303,-0.00619946,0.4241,0.00359454,0.0308562,846,1625,2.13403,-10.887
-371,-601,2.09027,11.0958,-0.00195514,-0.0050132,0.00138074,-0.00142398,-0.00554436,0.367239,0.00332482,0.01323,853,1625,2.09024,-11.0958
-364,-601,2.10419,11.3367,-0.000967642,-0.00446065,0.00143396,-0.000454389,-0.00497391,0.34372,0.00317533,0.00905654,860,1625,2.10421,-11.3367
-357,-601,2.099,11.5857,0.000109214,-0.00382288,0.00147374,0.000600247,-0.00431391,0.321621,0.00309548,0.00905791,867,1625,2.09903,-11.5857
-350,-601,2.11957,11.887,0.000947644,-0.00300133,0.00145142,0.00142371,-0.0034774,0.316944,0.00291129,0.0187863,874,1625,2.11957,-11.887
-343,-601,2.08337,12.1226,0.00144077,-0.00227338,0.00136879,0.00189071,-0.00272331,0.317586,0.00267833,0.0210534,881,1625,2.08338,-12.1226
-336,-601,2.06177,12.3029,0.00180084,-0.00161952,0.00114093,0.0021465,-0.00196517,0.294166,0.00237464,0.0172955,888,1625,2.06176,-12.3028
-329,-601,2.09222,12.5441,0.00167274,-0.00113267,0.000698596,0.00183708,-0.001297,0.231037,0.0018184,0.0139155,895,1625,2.09225,-12.5441
-322,-601,2.09814,12.7762,0.001241,-0.000787759,0.000167523,0.00125474,-0.000801499,0.0818356,0.00119674,0.01126,902,1625,2.09813,-12.7763
-315,-601,2.09503,12.9714,0.000627042,-0.000876939,-0.000550566,0.000807045,-0.00105694,-0.315988,0.00107939,0.0115979,909,1625,2.09503,-12.9715
-308,-601,2.09961,13.1755,-0.000131299,-0.00135232,-0.00162563,0.000994681,-0.0024783,-0.60577,0.00206521,0.0112005,916,1625,2.09964,-13.1756
-301,-601,2.11151,13.4106,-0.00101189,-0.00216814,-0.00270007,0.00117125,-0.00435128,-0.679933,0.00336002,0.00920503,923,1625,2.11151,-13.4107
-294,-601,2.11902,13.6276,-0.00212954,-0.00375297,-0.00407556,0.00121435,-0.00709686,-0.687102,0.00518366,0.00902713,930,1625,2.11901,-13.6276
-287,-601,2.10077,13.8441,-0.00309019,-0.00524098,-0.00557781,0.00151495,-0.00984612,-0.690167,0.00712297,0.00930347,937,1625,2.10077,-13.8441
-280,-601,2.10034,14.0605,-0.00405552,-0.00727325,-0.00712393,0.00163896,-0.0129677,-0.674342,0.00924005,0.00968539,944,1625,2.10034,-14.0605
-273,-601,2.09955,14.2771,-0.00511375,-0.00959133,-0.00882276,0.00174983,-0.0164549,-0.661145,0.0115973,0.0100178,951,1625,2.09953,-14.2771
-266,-601,2.11334,14.4728,-0.0064029,-0.0122824,-0.0104778,0.00153978,-0.020225,-0.648631,0.0140248,0.0123052,958,1625,2.11335,-14.4728
-259,-601,2.15729,14.5956,-0.00812467,-0.0149349,-0.0122566,0.00119103,-0.0242506,-0.649905,0.0165784,0.0242431,965,1625,2.1573,-14.5956
-252,-601,2.18939,14.5038,-0.00915209,-0.0180964,-0.014389,0.00144368,-0.0286922,-0.634728,0.0196271,0.0447499,972,1625,2.18937,-14.5038
-245,-601,1.69568,14.3279,-0.00914084,-0.0195633,-0.0149256,0.00145713,-0.0301613,-0.617441,0.0206104,0.0452501,979,1625,1.69571,-14.3279
-238,-601,1.67963,15.3661,0,0,0,0,0,0,0,-1,986,1625,1.67965,-15.366
-231,-601,2.66772,13.7051,0,0,0,0,0,0,0,-1,993,1625,2.6677,-13.7051
-224,-601,-0.0305176,9.13684,0,0,0,0,0,0,0,-1,1000,1625,-0.030498,-9.13681
-217,-601,3.39429,10.3898,0,0,0,0,0,0,0,-1,1007,1625,3.39431,-10.3898
-210,-601,-6.53699,15.7931,0,0,0,0,0,0,0,-1,1014,1625,-6.53697,-15.7931
-203,-601,2.76324,16.6864,0,0,0,0,0,0,0,-1,1021,1625,2.76327,-16.6864
-196,-601,3.06592,16.7297,0,0,0,0,0,0,0,-1,1028,1625,3.06592,-16.7297
-189,-601,2.92981,15.1824,0,0,0,0,0,0,0,-1,1035,1625,2.92986,-15.1823
-182,-601,1.82153,13.9752,0,0,0,0,0,0,0,-1,1042,1625,1.82155,-13.9752
-175,-601,0.544922,9.28687,0,0,0,0,0,0,0,-1,1049,1625,0.544879,-9.28685
-168,-601,-0.247559,8.97461,0,0,0,0,0,0,0,-1,1056,1625,-0.247598,-8.97466
-161,-601,-1.16833,8.80078,0,0,0,0,0,0,0,-1,1063,1625,-1.16837,-8.80081
-154,-601,1.12756,7.94861,0,0,0,0,0,0,0,-1,1070,1625,1.12762,-7.94855
-147,-601,1.35352,9.55432,0,0,0,0,0,0,0,-1,1077,1625,1.35351,-9.55429
-140,-601,1.72437,11.1498,0,0,0,0,0,0,0,-1,1084,1625,1.72432,-11.1498
-133,-601,2.13281,12.8347,0,0,0,0,0,0,0,-1,1091,1625,2.13287,-12.8348
-126,-601,3.09534,15.427,0,0,0,0,0,0,0,-1,1098,1625,3.0953,-15.4271
-119,-601,1.22485,9.43457,0,0,0,0,0,0,0,-1,1105,1625,1.22489,-9.43456
-112,-601,0,0,0,0,0,0,0,0,0,-1,1112,1625,0,0
-105,-601,0,0,0,0,0,0,0,0,0,-1,1119,1625,0,0
-98,-601,0,0,0,0,0,0,0,0,0,-1,1126,1625,0,0
-91,-601,0,0,0,0,0,0,0,0,0,-1,1133,1625,0,0
-84,-601,0,0,0,0,0,0,0,0,0,-1,1140,1625,0,0
-77,-601,0,0,0,0,0,0,0,0,0,-1,1147,1625,0,0
-70,-601,0,0,0,0,0,0,0,0,0,-1,1154,1625,0,0
-63,-601,0,0,0,0,0,0,0,0,0,-1,1161,1625,0,0
-56,-601,0,0,0,0,0,0,0,0,0,-1,1168,1625,0,0
-49,-601,0,0,0,0,0,0,0,0,0,-1,1175,1625,0,0
-42,-601,0,0,0,0,0,0,0,0,0,-1,1182,1625,0,0
-35,-601,0,0,0,0,0,0,0,0,0,-1,1189,1625,0,0
-28,-601,0,0,0,0,0,0,0,0,0,-1,1196,1625,0,0
-21,-601,0,0,0,0,0,0,0,0,0,-1,1203,1625,0,0
-14,-601,0,0,0,0,0,0,0,0,0,-1,1210,1625,0,0
-7,-601,0,0,0,0,0,0,0,0,0,-1,1217,1625,0,0
0,-601,0,0,0,0,0,0,0,0,0,-1,1224,1625,0,0
7,-601,0,0,0,0,0,0,0,0,0,-1,1231,1625,0,0
14,-601,0,0,0,0,0,0,0,0,0,-1,1238,1625,0,0
21,-601,0,0,0,0,0,0,0,0,0,-1,1245,1625,0,0
28,-601,0,0,0,0,0,0,0,0,0,-1,1252,1625,0,0
35,-601,0,0,0,0,0,0,0,0,0,-1,1259,1625,0,0
42,-601,0,0,0,0,0,0,0,0,0,-1,1266,1625,0,0
49,-601,0,0,0,0,0,0,0,0,0,-1,1273,1625,0,0
56,-601,0,0,0,0,0,0,0,0,0,-1,1280,1625,0,0
63,-601,0,0,0,0,0,0,0,0,0,-1,1287,1625,0,0
70,-601,0,0,0,0,0,0,0,0,0,-1,1294,1625,0,0
77,-601,0,0,0,0,0,0,0,0,0,-1,1301,1625,0,0
84,-601,0,0,0,0,0,0,0,0,0,-1,1308,1625,0,0
91,-601,0,0,0,0,0,0,0,0,0,-1,1315,1625,0,0
98,-601,0,0,0,0,0,0,0,0,0,-1,1322,1625,0,0
105,-601,0,0,0,0,0,0,0,0,0,-1,1329,1625,0,0
112,-601,0,0,0,0,0,0,0,0,0,-1,1336,1625,0,0
119,-601,0,0,0,0,0,0,0,0,0,-1,1343,1625,0,0
126,-601,0,0,0,0,0,0,0,0,0,-1,1350,1625,0,0
133,-601,0,0,0,0,0,0,0,0,0,-1,1357,1625,0,0
140,-601,0,0,0,0,0,0,0,0,0,-1,1364,1625,0,0
147,-601,0,0,0,0,0,0,0,0,0,-1,1371,1625,0,0
154,-601,0,0,0,0,0,0,0,0,0,-1,1378,1625,0,0
161,-601,0,0,0,0,0,0,0,0,0,-1,1385,1625,0,0
168,-601,0,0,0,0,0,0,0,0,0,-1,1392,1625,0,0
175,-601,0,0,0,0,0,0,0,0,0,-1,1399,1625,0,0
182,-601,0,0,0,0,0,0,0,0,0,-1,1406,1625,0,0
189,-601,0,0,0,0,0,0,0,0,0,-1,1413,1625,0,0
196,-601,0,0,0,0,0,0,0,0,0,-1,1420,1625,0,0
203,-601,0,0,0,0,0,0,0,0,0,-1,1427,1625,0,0
210,-601,0,0,0,0,0,0,0,0,0,-1,1434,1625,0,0
217,-601,0,0,0,0,0,0,0,0,0,-1,1441,1625,0,0
224,-601,0,0,0,0,0,0,0,0,0,-1,1448,1625,0,0
231,-601,-0.0371094,0.525879,0,0,0,0,0,0,0,-1,1455,1625,-0.0371518,-0.525824
238,-601,2.03369,-1.32861,0,0,0,0,0,0,0,-1,1462,1625,2.03364,1.32858
245,-601,2.71375,2.44983,0,0,0,0,0,0,0,-1,1469,1625,2.71371,-2.44979
252,-601,4.66943,2.28381,0,0,0,0,0,0,0,-1,1476,1625,4.66947,-2.28376
259,-601,6.42712,2.61987,0,0,0,0,0,0,0,-1,1483,1625,6.42711,-2.61985
266,-601,6.75317,1.68701,0,0,0,0,0,0,0,-1,1490,1625,6.75323,-1.687
273,-601,5.4314,2.92053,0,0,0,0,0,0,0,-1,1497,1625,5.43144,-2.92051
280,-601,4.64722,1.17786,0,0,0,0,0,0,0,-1,1504,1625,4.64722,-1.1779
287,-601,5.32532,2.6217,0,0,0,0,0,0,0,-1,1511,1625,5.32535,-2.62171
294,-601,5.97693,4.22693,0,0,0,0,0,0,0,-1,1518,1625,5.97697,-4.22694
301,-601,7.28162,9.50024,0,0,0,0,0,0,0,-1,1525,1625,7.28162,-9.50025
308,-601,6.53528,10.3927,0,0,0,0,0,0,0,-1,1532,1625,6.53529,-10.3927
315,-601,4.88013,11.7184,0,0,0,0,0,0,0,-1,1539,1625,4.88015,-11.7184
322,-601,3.38098,12.7864,0,0,0,0,0,0,0,-1,1546,1625,3.38104,-12.7864
329,-601,1.8772,13.8768,0,0,0,0,0,0,0,-1,1553,1625,1.87716,-13.8768
336,-601,4.67847,9.53308,0,0,0,0,0,0,0,-1,1560,1625,4.67848,-9.53309
343,-601,11.1404,3.14575,0,0,0,0,0,0,0,-1,1567,1625,11.1404,-3.1458
350,-601,10.9462,2.37769,0,0,0,0,0,0,0,-1,1574,1625,10.9461,-2.37764
357,-601,10.7518,1.6095,0,0,0,0,0,0,0,-1,1581,1625,10.7518,-1.60948
364,-601,5.33643,9.74426,0,0,0,0,0,0,0,-1,1588,1625,5.33637,-9.74429
371,-601,8.38196,15.749,0,0,0,0,0,0,0,-1,1595,1625,8.38191,-15.749
378,-601,8.41187,15.6406,0,0,0,0,0,0,0,-1,1602,1625,8.41182,-15.6406
385,-601,8.27661,15.3435,0,0,0,0,0,0,0,-1,1609,1625,8.27663,-15.3435
392,-601,7.99475,15.1779,-0.00623742,-0.0169721,0.0148386,0.00417473,-0.0273843,0.611861,0.0197951,0.0439316,1616,1625,7.99475,-15.1779
399,-601,7.63586,15.2168,-0.00567049,-0.0151147,0.0131737,0.00360182,-0.024387,0.613307,0.017582,0.019561,1623,1625,7.63589,-15.2167
406,-601,7.70032,15.0686,-0.00480844,-0.0139049,0.011195,0.00272701,-0.0214403,0.592447,0.0152839,0.0146599,1630,1625,7.7003,-15.0686
413,-601,7.68665,14.906,-0.00403297,-0.0125272,0.00968392,0.00229425,-0.0188544,0.578743,0.0134,0.0127534,1637,1625,7.68664,-14.906
420,-601,7.67224,14.7709,-0.00339718,-0.0108707,0.00815475,0.00183619,-0.0161041,0.570559,0.0113975,0.00979609,1644,1625,7.67226,-14.7709
427,-601,7.69263,14.5994,-0.00289316,-0.00933427,0.00678818,0.00139969,-0.0136271,0.563904,0.00958544,0.0137548,1651,1625,7.69265,-14.5994
434,-601,7.69421,14.3893,-0.00246455,-0.0078261,0.00545169,0.000929831,-0.0112205,0.556893,0.00780874,0.0152062,1658,1625,7.69418,-14.3893
441,-601,7.69458,14.1749,-0.00212218,-0.00642018,0.00436262,0.000592013,-0.00913437,0.556546,0.0062962,0.0168168,1665,1625,7.69452,-14.1749
448,-601,7.6908,13.9786,-0.00170121,-0.00504838,0.00343009,0.000441801,-0.00719139,0.558432,0.00494811,0.0139284,1672,1625,7.69084,-13.9786
455,-601,7.69788,13.7661,-0.00149679,-0.00384507,0.00270288,0.000275958,-0.00561783,0.580494,0.00384051,0.0121143,1679,1625,7.69786,-13.7661
462,-601,7.70178,13.5585,-0.00122103,-0.00264748,0.00195496,0.000146745,-0.00401526,0.610487,0.00272707,0.0103698,1686,1625,7.70174,-13.5585
469,-601,7.70154,13.3793,-0.000919883,-0.00168713,0.00137982,0.000128646,-0.00273566,0.64981,0.00186813,0.0103419,1693,1625,7.70149,-13.3793
476,-601,7.6853,13.1688,-0.000655526,-0.000788037,0.000890951,0.00017163,-0.00161519,0.748284,0.00113833,0.0133324,1700,1625,7.68529,-13.1688
483,-601,7.68396,12.9395,-0.000150457,-0.000302615,0.000564293,0.000342863,-0.000795935,0.718391,0.000674607,0.017298,1707,1625,7.6839,-12.9394
490,-601,7.65784,12.7317,0.000820661,-5.08905e-05,-6.24075e-05,0.000825107,-5.53365e-05,-0.0711214,0.000569414,0.0117753,1714,1625,7.65781,-12.7317
497,-601,7.65723,12.5067,0.00167156,5.34569e-05,-0.000535341,0.00183264,-0.000107622,-0.292274,0.00125917,0.00882723,1721,1625,7.65727,-12.5067
504,-601,7.68884,12.2732,0.00252743,-5.23591e-05,-0.000888493,0.00280382,-0.00032875,-0.301589,0.00198788,0.0124598,1728,1625,7.68884,-12.2732
511,-601,7.67737,12.0658,0.00384071,-0.000899212,-0.00148573,0.00426791,-0.00132641,-0.279983,0.00337543,0.0214632,1735,1625,7.67737,-12.0658
518,-601,7.68408,11.7849,0.0055283,-0.00222709,-0.0018291,0.00593805,-0.00263683,-0.220376,0.00507153,0.0339995,1742,1625,7.68406,-11.7849
525,-601,7.7323,11.6361,0.00750753,-0.00399311,-0.00226309,0.00793683,-0.00442241,-0.187471,0.00723114,0.0427099,1749,1625,7.73231,-11.6362
532,-601,7.71753,11.6771,0.00985089,-0.00625579,-0.00279089,0.0103208,-0.00672567,-0.166799,0.00991446,0.0489626,1756,1625,7.71758,-11.6771
539,-601,7.67151,11.5184,0,0,0,0,0,0,0,-1,1763,1625,7.67154,-11.5184
546,-601,6.56873,3.62354,0,0,0,0,0,0,0,-1,1770,1625,6.56867,-3.62352
553,-601,7.03015,4.25049,0,0,0,0,0,0,0,-1,1777,1625,7.03011,-4.25048
560,-601,7.50745,4.83374,0,0,0,0,0,0,0,-1,1784,1625,7.50744,-4.83376
567,-601,7.82043,3.83301,0,0,0,0,0,0,0,-1,1791,1625,7.82041,-3.83303
574,-601,0,0,0,0,0,0,0,0,0,-1,1798,1625,0,0
581,-601,0,0,0,0,0,0,0,0,0,-1,1805,1625,0,0
588,-601,0,0,0,0,0,0,0,0,0,-1,1812,1625,0,0
595,-601,0,0,0,0,0,0,0,0,0,-1,1819,1625,0,0
602,-601,0,0,0,0,0,0,0,0,0,-1,1826,1625,0,0
609,-601,0,0,0,0,0,0,0,0,0,-1,1833,1625,0,0
616,-601,0,0,0,0,0,0,0,0,0,-1,1840,1625,0,0
623,-601,0,0,0,0,0,0,0,0,0,-1,1847,1625,0,0
630,-601,0,0,0,0,0,0,0,0,0,-1,1854,1625,0,0
637,-601,0,0,0,0,0,0,0,0,0,-1,1861,1625,0,0
644,-601,0,0,0,0,0,0,0,0,0,-1,1868,1625,0,0
651,-601,0,0,0,0,0,0,0,0,0,-1,1875,1625,0,0
658,-601,0,0,0,0,0,0,0,0,0,-1,1882,1625,0,0
665,-601,0,0,0,0,0,0,0,0,0,-1,1889,1625,0,0
672,-601,0,0,0,0,0,0,0,0,0,-1,1896,1625,0,0
679,-601,0,0,0,0,0,0,0,0,0,-1,1903,1625,0,0
686,-601,0,0,0,0,0,0,0,0,0,-1,1910,1625,0,0
693,-601,0,0,0,0,0,0,0,0,0,-1,1917,1625,0,0
700,-601,0,0,0,0,0,0,0,0,0,-1,1924,1625,0,0
707,-601,0,0,0,0,0,0,0,0,0,-1,1931,1625,0,0
714,-601,0,0,0,0,0,0,0,0,0,-1,1938,1625,0,0
721,-601,0,0,0,0,0,0,0,0,0,-1,1945,1625,0,0
728,-601,0,0,0,0,0,0,0,0,0,-1,1952,1625,0,0
735,-601,0,0,0,0,0,0,0,0,0,-1,1959,1625,0,0
742,-601,0,0,0,0,0,0,0,0,0,-1,1966,1625,0,0
749,-601,0,0,0,0,0,0,0,0,0,-1,1973,1625,0,0
756,-601,0,0,0,0,0,0,0,0,0,-1,1980,1625,0,0
763,-601,0,0,0,0,0,0,0,0,0,-1,1987,1625,0,0
770,-601,0,0,0,0,0,0,0,0,0,-1,1994,1625,0,0
777,-601,0,0,0,0,0,0,0,0,0,-1,2001,1625,0,0
784,-601,0,0,0,0,0,0,0,0,0,-1,2008,1625,0,0
791,-601,0,0,0,0,0,0,0,0,0,-1,2015,1625,0,0
798,-601,0,0,0,0,0,0,0,0,0,-1,2022,1625,0,0
805,-601,0,0,0,0,0,0,0,0,0,-1,2029,1625,0,0
812,-601,0,0,0,0,0,0,0,0,0,-1,2036,1625,0,0
-700,-608,0,0,0,0,0,0,0,0,0,-1,524,1632,0,0
-693,-608,0,0,0,0,0,0,0,0,0,-1,531,1632,0,0
-686,-608,0,0,0,0,0,0,0,0,0,-1,538,1632,0,0
-679,-608,0,0,0,0,0,0,0,0,0,-1,545,1632,0,0
-672,-608,0,0,0,0,0,0,0,0,0,-1,552,1632,0,0
-665,-608,0,0,0,0,0,0,0,0,0,-1,559,1632,0,0
-658,-608,0,0,0,0,0,0,0,0,0,-1,566,1632,0,0
-651,-608,0,0,0,0,0,0,0,0,0,-1,573,1632,0,0
-644,-608,0,0,0,0,0,0,0,0,0,-1,580,1632,0,0
-637,-608,0,0,0,0,0,0,0,0,0,-1,587,1632,0,0
-630,-608,0,0,0,0,0,0,0,0,0,-1,594,1632,0,0
-623,-608,0,0,0,0,0,0,0,0,0,-1,601,1632,0,0
-616,-608,0,0,0,0,0,0,0,0,0,-1,608,1632,0,0
-609,-608,0,0,0,0,0,0,0,0,0,-1,615,1632,0,0
-602,-608,0,0,0,0,0,0,0,0,0,-1,622,1632,0,0
-595,-608,0,0,0,0,0,0,0,0,0,-1,629,1632,0,0
-588,-608,0,0,0,0,0,0,0,0,0,-1,636,1632,0,0
-581,-608,0,0,0,0,0,0,0,0,0,-1,643,1632,0,0
-574,-608,0,0,0,0,0,0,0,0,0,-1,650,1632,0,0
-567,-608,0,0,0,0,0,0,0,0,0,-1,657,1632,0,0
-560,-608,0,0,0,0,0,0,0,0,0,-1,664,1632,0,0
-553,-608,0,0,0,0,0,0,0,0,0,-1,671,1632,0,0
-546,-608,0,0,0,0,0,0,0,0,0,-1,678,1632,0,0
-539,-608,0,0,0,0,0,0,0,0,0,-1,685,1632,0,0
-532,-608,0,0,0,0,0,0,0,0,0,-1,692,1632,0,0
-525,-608,0,0,0,0,0,0,0,0,0,-1,699,1632,0,0
-518,-608,0,0,0,0,0,0,0,0,0,-1,706,1632,0,0
-511,-608,0,0,0,0,0,0,0,0,0,-1,713,1632,0,0
-504,-608,0,0,0,0,0,0,0,0,0,-1,720,1632,0,0
-497,-608,0,0,0,0,0,0,0,0,0,-1,727,1632,0,0
-490,-608,0,0,0,0,0,0,0,0,0,-1,734,1632,0,0
-483,-608,0,0,0,0,0,0,0,0,0,-1,741,1632,0,0
-476,-608,0,0,0,0,0,0,0,0,0,-1,748,1632,0,0
-469,-608,0,0,0,0,0,0,0,0,0,-1,755,1632,0,0
-462,-608,0,0,0,0,0,0,0,0,0,-1,762,1632,0,0
-455,-608,0,0,0,0,0,0,0,0,0,-1,769,1632,0,0
-448,-608,0,0,0,0,0,0,0,0,0,-1,776,1632,0,0
-441,-608,-7.34601,2.78052,0,0,0,0,0,0,0,-1,783,1632,-7.346,-2.78056
-434,-608,-6.34558,3.27405,0,0,0,0,0,0,0,-1,790,1632,-6.34555,-3.27406
-427,-608,-7.74335,4.17688,0,0,0,0,0,0,0,-1,797,1632,-7.74334,-4.17693
-420,-608,-6.82794,4.34839,0,0,0,0,0,0,0,-1,804,1632,-6.82794,-4.34838
-413,-608,-5.41919,5.66138,0,0,0,0,0,0,0,-1,811,1632,-5.41917,-5.66133
-406,-608,-4.79681,4.98999,0,0,0,0,0,0,0,-1,818,1632,-4.79684,-4.98997
-399,-608,-2.60645,6.34167,0,0,0,0,0,0,0,-1,825,1632,-2.60643,-6.34169
-392,-608,2.86639,10.4043,0,0,0,0,0,0,0,-1,832,1632,2.8664,-10.4043
-385,-608,2.62372,10.8555,0,0,0,0,0,0,0,-1,839,1632,2.6237,-10.8555
-378,-608,2.48639,11.361,-0.00287171,-0.00764853,0.0025144,-0.00179217,-0.00872807,0.405545,0.00532286,0.0480406,846,1632,2.48636,-11.361
-371,-608,2.32312,11.158,-0.00133904,-0.00670951,0.00246634,-0.000378272,-0.00767028,0.371467,0.00499221,0.0378961,853,1632,2.32312,-11.158
-364,-608,2.34741,11.2762,-0.000284766,-0.00586774,0.00228692,0.000532401,-0.00668491,0.343184,0.00464425,0.0162095,860,1632,2.34741,-11.2762
-357,-608,2.33453,11.5275,0.00075899,-0.00507214,0.00207528,0.00142215,-0.0057353,0.309298,0.00437532,0.013387,867,1632,2.33455,-11.5274
-350,-608,2.32422,11.8009,0.00144827,-0.0040931,0.00187221,0.00202151,-0.00466634,0.297122,0.0039606,0.0174789,874,1632,2.3242,-11.801
-343,-608,2.31494,12.0498,0.00178239,-0.00325766,0.00167326,0.00228732,-0.00376259,0.293072,0.00352736,0.0231202,881,1632,2.31496,-12.0498
-336,-608,2.32715,12.3032,0.00206003,-0.0024949,0.00136495,0.00243774,-0.00287261,0.269962,0.00306935,0.0157239,888,1632,2.32715,-12.3033
-329,-608,2.32104,12.5618,0.00188922,-0.00182493,0.000916191,0.00210293,-0.00203863,0.229157,0.00239123,0.0135587,895,1632,2.32107,-12.5618
-322,-608,2.30157,12.7883,0.00144203,-0.0012993,0.000447979,0.00151338,-0.00137065,0.157945,0.00166577,0.01387,902,1632,2.30156,-12.7883
-315,-608,2.31604,12.9722,0.000823792,-0.00127039,-0.000187005,0.00084036,-0.00128695,-0.088366,0.00123719,0.0136175,909,1632,2.31603,-12.9722
-308,-608,2.32513,13.1758,7.85884e-05,-0.00157726,-0.00114975,0.000667482,-0.00216616,-0.473356,0.00171057,0.0142915,916,1632,2.32516,-13.1758
-301,-608,2.32697,13.4108,-0.000666343,-0.00213414,-0.00201993,0.00074888,-0.00354936,-0.611149,0.00265136,0.010391,923,1632,2.32696,-13.4108
-294,-608,2.33075,13.6383,-0.00152292,-0.00330405,-0.00307754,0.00079032,-0.00561729,-0.644557,0.00403419,0.010339,930,1632,2.33074,-13.6383
-287,-608,2.32318,13.8467,-0.00222291,-0.00434984,-0.00419875,0.00104496,-0.00761771,-0.661366,0.00546022,0.0104689,937,1632,2.32317,-13.8467
-280,-608,2.32562,14.0486,-0.00287155,-0.00583607,-0.00530479,0.00115417,-0.00986179,-0.649163,0.00699108,0.00891434,944,1632,2.32562,-14.0486
-273,-608,2.3222,14.2632,-0.00352113,-0.00750054,-0.00650211,0.0012889,-0.0123106,-0.636918,0.00866868,0.00885078,951,1632,2.32223,-14.2631
-266,-608,2.33923,14.4768,-0.00434633,-0.00938044,-0.00762797,0.00116914,-0.0148959,-0.626035,0.0103424,0.00821094,958,1632,2.33923,-14.4768
-259,-608,2.3642,14.6563,-0.00556121,-0.0111688,-0.00885193,0.000920363,-0.0176503,-0.632026,0.0120854,0.0109333,965,1632,2.36418,-14.6563
-252,-608,2.35767,14.8079,-0.00615728,-0.0132362,-0.0103408,0.00123307,-0.0206266,-0.620507,0.01418,0.0252423,972,1632,2.3577,-14.8078
-245,-608,2.15277,15.1945,-0.00591308,-0.0142917,-0.0106191,0.00131314,-0.021518,-0.597516,0.0148025,0.0364612,979,1632,2.15277,-15.1945
-238,-608,2.17365,15.2891,-0.00622584,-0.0157677,-0.0105338,0.000567034,-0.0225606,-0.572759,0.0152329,0.0433776,986,1632,2.17363,-15.289
-231,-608,2.61908,15.1534,0,0,0,0,0,0,0,-1,993,1632,2.61906,-15.1534
-224,-608,2.3443,12.0583,0,0,0,0,0,0,0,-1,1000,1632,2.34432,-12.0584
-217,-608,1.04419,12.8451,0,0,0,0,0,0,0,-1,1007,1632,1.04418,-12.8451
-210,-608,2.94293,16.2939,0,0,0,0,0,0,0,-1,1014,1632,2.94295,-16.294
-203,-608,3.14099,16.3833,0,0,0,0,0,0,0,-1,1021,1632,3.14103,-16.3833
-196,-608,3.40698,16.4789,0,0,0,0,0,0,0,-1,1028,1632,3.40695,-16.4789
-189,-608,3.49255,17.0035,0,0,0,0,0,0,0,-1,1035,1632,3.49259,-17.0035
-182,-608,2.85425,15.5198,0,0,0,0,0,0,0,-1,1042,1632,2.85429,-15.5198
-175,-608,0.219116,15.1643,0,0,0,0,0,0,0,-1,1049,1632,0.219173,-15.1644
-168,-608,0.000366211,9.48645,0,0,0,0,0,0,0,-1,1056,1632,0.000317105,-9.48648
-161,-608,2.08655,15.7969,0,0,0,0,0,0,0,-1,1063,1632,2.08653,-15.7969
-154,-608,0.503418,14.4747,0,0,0,0,0,0,0,-1,1070,1632,0.503374,-14.4748
-147,-608,2.4386,9.50317,0,0,0,0,0,0,0,-1,1077,1632,2.43858,-9.50313
-140,-608,2.60132,10.8401,0,0,0,0,0,0,0,-1,1084,1632,2.60134,-10.8401
-133,-608,3.2312,12.4738,0,0,0,0,0,0,0,-1,1091,1632,3.23116,-12.4738
-126,-608,3.76465,13.9644,0,0,0,0,0,0,0,-1,1098,1632,3.76466,-13.9644
-119,-608,4.28906,15.4196,0,0,0,0,0,0,0,-1,1105,1632,4.28911,-15.4195
-112,-608,0.745117,10.5587,0,0,0,0,0,0,0,-1,1112,1632,0.745145,-10.5587
-105,-608,-0.252319,1.42419,0,0,0,0,0,0,0,-1,1119,1632,-0.252331,-1.42418
-98,-608,-1.67896,0.994629,0,0,0,0,0,0,0,-1,1126,1632,-1.67895,-0.994599
-91,-608,-2.99451,0.744629,0,0,0,0,0,0,0,-1,1133,1632,-2.99453,-0.744605
-84,-608,0,0,0,0,0,0,0,0,0,-1,1140,1632,0,0
-77,-608,0,0,0,0,0,0,0,0,0,-1,1147,1632,0,0
-70,-608,0,0,0,0,0,0,0,0,0,-1,1154,1632,0,0
-63,-608,0,0,0,0,0,0,0,0,0,-1,1161,1632,0,0
-56,-608,0,0,0,0,0,0,0,0,0,-1,1168,1632,0,0
-49,-608,0,0,0,0,0,0,0,0,0,-1,1175,1632,0,0
-42,-608,0,0,0,0,0,0,0,0,0,-1,1182,1632,0,0
-35,-608,0,0,0,0,0,0,0,0,0,-1,1189,1632,0,0
-28,-608,0,0,0,0,0,0,0,0,0,-1,1196,1632,0,0
-21,-608,0,0,0,0,0,0,0,0,0,-1,1203,1632,0,0
-14,-608,0,0,0,0,0,0,0,0,0,-1,1210,1632,0,0
-7,-608,0,0,0,0,0,0,0,0,0,-1,1217,1632,0,0
0,-608,0,0,0,0,0,0,0,0,0,-1,1224,1632,0,0
7,-608,0,0,0,0,0,0,0,0,0,-1,1231,1632,0,0
14,-608,0,0,0,0,0,0,0,0,0,-1,1238,1632,0,0
21,-608,0,0,0,0,0,0,0,0,0,-1,1245,1632,0,0
28,-608,0,0,0,0,0,0,0,0,0,-1,1252,1632,0,0
35,-608,0,0,0,0,0,0,0,0,0,-1,1259,1632,0,0
42,-608,0,0,0,0,0,0,0,0,0,-1,1266,1632,0,0
49,-608,0,0,0,0,0,0,0,0,0,-1,1273,1632,0,0
56,-608,0,0,0,0,0,0,0,0,0,-1,1280,1632,0,0
63,-608,0,0,0,0,0,0,0,0,0,-1,1287,1632,0,0
70,-608,0,0,0,0,0,0,0,0,0,-1,1294,1632,0,0
77,-608,0,0,0,0,0,0,0,0,0,-1,1301,1632,0,0
84,-608,0,0,0,0,0,0,0,0,0,-1,1308,1632,0,0
91,-608,0,0,0,0,0,0,0,0,0,-1,1315,1632,0,0
98,-608,0,0,0,0,0,0,0,0,0,-1,1322,1632,0,0
105,-608,0,0,0,0,0,0,0,0,0,-1,1329,1632,0,0
112,-608,0,0,0,0,0,0,0,0,0,-1,1336,1632,0,0
119,-608,0,0,0,0,0,0,0,0,0,-1,1343,1632,0,0
126,-608,0,0,0,0,0,0,0,0,0,-1,1350,1632,0,0
133,-608,0,0,0,0,0,0,0,0,0,-1,1357,1632,0,0
140,-608,0,0,0,0,0,0,0,0,0,-1,1364,1632,0,0
147,-608,0,0,0,0,0,0,0,0,0,-1,1371,1632,0,0
154,-608,0,0,0,0,0,0,0,0,0,-1,1378,1632,0,0
161,-608,0,0,0,0,0,0,0,0,0,-1,1385,1632,0,0
168,-608,0,0,0,0,0,0,0,0,0,-1,1392,1632,0,0
175,-608,0,0,0,0,0,0,0,0,0,-1,1399,1632,0,0
182,-608,0,0,0,0,0,0,0,0,0,-1,1406,1632,0,0
189,-608,0,0,0,0,0,0,0,0,0,-1,1413,1632,0,0
196,-608,0,0,0,0,0,0,0,0,0,-1,1420,1632,0,0
203,-608,0,0,0,0,0,0,0,0,0,-1,1427,1632,0,0
210,-608,5.7157,-0.333008,0,0,0,0,0,0,0,-1,1434,1632,5.71566,0.333004
217,-608,4.49402,-0.831787,0,0,0,0,0,0,0,-1,1441,1632,4.49396,0.831738
224,-608,4.18018,-1.11792,0,0,0,0,0,0,0,-1,1448,1632,4.1802,1.11796
231,-608,0.361816,0.825195,0,0,0,0,0,0,0,-1,1455,1632,0.36185,-0.825226
238,-608,2.85388,-0.28833,0,0,0,0,0,0,0,-1,1462,1632,2.85391,0.288282
245,-608,3.87537,4.02173,0,0,0,0,0,0,0,-1,1469,1632,3.87538,-4.02168
252,-608,5.66956,3.5282,0,0,0,0,0,0,0,-1,1476,1632,5.6696,-3.52815
259,-608,7.47437,3.07178,0,0,0,0,0,0,0,-1,1483,1632,7.4744,-3.07172
266,-608,9.46936,2.34766,0,0,0,0,0,0,0,-1,1490,1632,9.46932,-2.34764
273,-608,6.03003,3.34241,0,0,0,0,0,0,0,-1,1497,1632,6.02997,-3.34245
280,-608,5.72461,2.0769,0,0,0,0,0,0,0,-1,1504,1632,5.72457,-2.07688
287,-608,6.20581,3.59338,0,0,0,0,0,0,0,-1,1511,1632,6.20585,-3.59341
294,-608,6.94922,5.17151,0,0,0,0,0,0,0,-1,1518,1632,6.94925,-5.17151
301,-608,7.60083,6.68018,0,0,0,0,0,0,0,-1,1525,1632,7.60086,-6.68013
308,-608,7.64746,9.93848,0,0,0,0,0,0,0,-1,1532,1632,7.64745,-9.93842
315,-608,5.30688,11.2054,0,0,0,0,0,0,0,-1,1539,1632,5.30694,-11.2054
322,-608,5.32617,13.7581,0,0,0,0,0,0,0,-1,1546,1632,5.32613,-13.758
329,-608,7.12231,13.9607,0,0,0,0,0,0,0,-1,1553,1632,7.12231,-13.9607
336,-608,5.48633,7.82446,0,0,0,0,0,0,0,-1,1560,1632,5.48634,-7.82446
343,-608,5.47192,5.61047,0,0,0,0,0,0,0,-1,1567,1632,5.47192,-5.61045
350,-608,11.6957,1.71387,0,0,0,0,0,0,0,-1,1574,1632,11.6957,-1.71388
357,-608,3.77002,5.10046,0,0,0,0,0,0,0,-1,1581,1632,3.77002,-5.10043
364,-608,5.6925,11.2163,0,0,0,0,0,0,0,-1,1588,1632,5.69255,-11.2163
371,-608,7.35864,16.1635,0,0,0,0,0,0,0,-1,1595,1632,7.35866,-16.1635
378,-608,7.80615,15.6875,-0.00525981,-0.0120859,0.0122769,0.00406962,-0.0214154,0.649818,0.015809,0.038413,1602,1632,7.80614,-15.6875
385,-608,7.71057,15.5868,-0.00504595,-0.0125578,0.0116216,0.00341158,-0.0210153,0.629104,0.0152749,0.0326842,1609,1632,7.71057,-15.5868
392,-608,7.49573,15.4618,-0.00449501,-0.0118441,0.0109123,0.00334484,-0.019684,0.622994,0.014368,0.02102,1616,1632,7.49572,-15.4618
399,-608,7.46252,15.3171,-0.00406078,-0.0105965,0.00976138,0.00296523,-0.0176225,0.623876,0.0128513,0.0100441,1623,1632,7.46258,-15.3172
406,-608,7.46423,15.1488,-0.00346198,-0.00975729,0.00834327,0.00230765,-0.0155269,0.605019,0.0112,0.00907105,1630,1632,7.46418,-15.1488
413,-608,7.44788,14.9655,-0.00295032,-0.00881108,0.00715461,0.00185076,-0.0136122,0.59103,0.00975042,0.00914665,1637,1632,7.44792,-14.9655
420,-608,7.44116,14.7687,-0.00249523,-0.00763316,0.0059683,0.00143351,-0.0115619,0.582166,0.00822751,0.015312,1644,1632,7.44117,-14.7687
427,-608,7.45972,14.5627,-0.00213058,-0.00658904,0.00490702,0.00102984,-0.00974946,0.572188,0.0068687,0.0176324,1651,1632,7.4597,-14.5627
434,-608,7.47656,14.3566,-0.00185875,-0.00550619,0.00383436,0.000563507,-0.00792844,0.563419,0.00548312,0.0150781,1658,1632,7.47655,-14.3566
441,-608,7.47412,14.1698,-0.00166888,-0.00444503,0.00300369,0.000251954,-0.00636586,0.568953,0.00433034,0.0135339,1665,1632,7.47411,-14.1698
448,-608,7.48889,14.0055,-0.00139509,-0.00341659,0.00233196,0.000135743,-0.00494742,0.580901,0.00334445,0.0151549,1672,1632,7.48894,-14.0055
455,-608,7.52197,13.7925,-0.00128643,-0.00251294,0.00182755,2.80134e-05,-0.00382739,0.623521,0.00256098,0.0117994,1679,1632,7.52193,-13.7925
462,-608,7.51794,13.5853,-0.00112576,-0.00161147,0.00133568,-1.1035e-05,-0.0027262,0.69547,0.0018138,0.0107627,1686,1632,7.51794,-13.5853
469,-608,7.48938,13.3761,-0.000918522,-0.000859936,0.00098567,9.68762e-05,-0.00187533,0.800253,0.00128373,0.00816714,1693,1632,7.48939,-13.3761
476,-608,7.46313,13.1666,-0.000690818,-0.000188166,0.00071118,0.00031479,-0.00119377,0.955245,0.000918931,0.00889678,1700,1632,7.46314,-13.1666
483,-608,7.45728,12.9546,-0.000240116,9.95801e-05,0.00059459,0.000548105,-0.000688641,0.924521,0.000715571,0.00878431,1707,1632,7.45725,-12.9546
490,-608,7.46375,12.7378,0.000711096,0.00016848,0.000169969,0.00075994,0.000119636,0.279831,0.000471831,0.00810782,1714,1632,7.46375,-12.7378
497,-608,7.47559,12.4996,0.00159153,0.000218919,-0.000102969,0.00159921,0.000211238,-0.074462,0.00100317,0.0123744,1721,1632,7.47555,-12.4996
504,-608,7.47156,12.2731,0.00251866,2.50339e-06,-0.000347583,0.00256579,-4.4629e-05,-0.134778,0.0017256,0.0272274,1728,1632,7.47152,-12.2731
511,-608,7.49634,12.012,0.004065,-0.00114562,-0.000955031,0.00423452,-0.00131515,-0.17568,0.00334862,0.040056,1735,1632,7.49631,-12.012
518,-608,7.51831,11.7106,0,0,0,0,0,0,0,-1,1742,1632,7.51826,-11.7106
525,-608,7.56323,11.7035,0,0,0,0,0,0,0,-1,1749,1632,7.56327,-11.7035
532,-608,8.021,11.6565,0,0,0,0,0,0,0,-1,1756,1632,8.02094,-11.6565
539,-608,9.40796,1.43457,0,0,0,0,0,0,0,-1,1763,1632,9.40801,-1.43463
546,-608,9.94031,2.1134,0,0,0,0,0,0,0,-1,1770,1632,9.94031,-2.11346
553,-608,10.363,2.81335,0,0,0,0,0,0,0,-1,1777,1632,10.3631,-2.81333
560,-608,9.23999,4.5636,0,0,0,0,0,0,0,-1,1784,1632,9.24,-4.56354
567,-608,0,0,0,0,0,0,0,0,0,-1,1791,1632,0,0
574,-608,0,0,0,0,0,0,0,0,0,-1,1798,1632,0,0
581,-608,0,0,0,0,0,0,0,0,0,-1,1805,1632,0,0
588,-608,0,0,0,0,0,0,0,0,0,-1,1812,1632,0,0
595,-608,0,0,0,0,0,0,0,0,0,-1,1819,1632,0,0
602,-608,0,0,0,0,0,0,0,0,0,-1,1826,1632,0,0
609,-608,0,0,0,0,0,0,0,0,0,-1,1833,1632,0,0
616,-608,0,0,0,0,0,0,0,0,0,-1,1840,1632,0,0
623,-608,0,0,0,0,0,0,0,0,0,-1,1847,1632,0,0
630,-608,0,0,0,0,0,0,0,0,0,-1,1854,1632,0,0
637,-608,0,0,0,0,0,0,0,0,0,-1,1861,1632,0,0
644,-608,0,0,0,0,0,0,0,0,0,-1,1868,1632,0,0
651,-608,0,0,0,0,0,0,0,0,0,-1,1875,1632,0,0
658,-608,0,0,0,0,0,0,0,0,0,-1,1882,1632,0,0
665,-608,0,0,0,0,0,0,0,0,0,-1,1889,1632,0,0
672,-608,0,0,0,0,0,0,0,0,0,-1,1896,1632,0,0
679,-608,0,0,0,0,0,0,0,0,0,-1,1903,1632,0,0
686,-608,0,0,0,0,0,0,0,0,0,-1,1910,1632,0,0
693,-608,0,0,0,0,0,0,0,0,0,-1,1917,1632,0,0
700,-608,0,0,0,0,0,0,0,0,0,-1,1924,1632,0,0
707,-608,0,0,0,0,0,0,0,0,0,-1,1931,1632,0,0
714,-608,0,0,0,0,0,0,0,0,0,-1,1938,1632,0,0
721,-608,0,0,0,0,0,0,0,0,0,-1,1945,1632,0,0
728,-608,0,0,0,0,0,0,0,0,0,-1,1952,1632,0,0
735,-608,0,0,0,0,0,0,0,0,0,-1,1959,1632,0,0
742,-608,0,0,0,0,0,0,0,0,0,-1,1966,1632,0,0
749,-608,0,0,0,0,0,0,0,0,0,-1,1973,1632,0,0
756,-608,0,0,0,0,0,0,0,0,0,-1,1980,1632,0,0
763,-608,0,0,0,0,0,0,0,0,0,-1,1987,1632,0,0
770,-608,0,0,0,0,0,0,0,0,0,-1,1994,1632,0,0
777,-608,0,0,0,0,0,0,0,0,0,-1,2001,1632,0,0
784,-608,0,0,0,0,0,0,0,0,0,-1,2008,1632,0,0
791,-608,0,0,0,0,0,0,0,0,0,-1,2015,1632,0,0
798,-608,0,0,0,0,0,0,0,0,0,-1,2022,1632,0,0
805,-608,0,0,0,0,0,0,0,0,0,-1,2029,1632,0,0
812,-608,0,0,0,0,0,0,0,0,0,-1,2036,1632,0,0
-700,-615,0,0,0,0,0,0,0,0,0,-1,524,1639,0,0
-693,-615,0,0,0,0,0,0,0,0,0,-1,531,1639,0,0
-686,-615,0,0,0,0,0,0,0,0,0,-1,538,1639,0,0
-679,-615,0,0,0,0,0,0,0,0,0,-1,545,1639,0,0
-672,-615,0,0,0,0,0,0,0,0,0,-1,552,1639,0,0
-665,-615,0,0,0,0,0,0,0,0,0,-1,559,1639,0,0
-658,-615,0,0,0,0,0,0,0,0,0,-1,566,1639,0,0
-651,-615,0,0,0,0,0,0,0,0,0,-1,573,1639,0,0
-644,-615,0,0,0,0,0,0,0,0,0,-1,580,1639,0,0
-637,-615,0,0,0,0,0,0,0,0,0,-1,587,1639,0,0
-630,-615,0,0,0,0,0,0,0,0,0,-1,594,1639,0,0
-623,-615,0,0,0,0,0,0,0,0,0,-1,601,1639,0,0
-616,-615,0,0,0,0,0,0,0,0,0,-1,608,1639,0,0
-609,-615,0,0,0,0,0,0,0,0,0,-1,615,1639,0,0
-602,-615,0,0,0,0,0,0,0,0,0,-1,622,1639,0,0
-595,-615,0,0,0,0,0,0,0,0,0,-1,629,1639,0,0
-588,-615,0,0,0,0,0,0,0,0,0,-1,636,1639,0,0
-581,-615,0,0,0,0,0,0,0,0,0,-1,643,1639,0,0
-574,-615,0,0,0,0,0,0,0,0,0,-1,650,1639,0,0
-567,-615,0,0,0,0,0,0,0,0,0,-1,657,1639,0,0
-560,-615,0,0,0,0,0,0,0,0,0,-1,664,1639,0,0
-553,-615,0,0,0,0,0,0,0,0,0,-1,671,1639,0,0
-546,-615,0,0,0,0,0,0,0,0,0,-1,678,1639,0,0
-539,-615,0,0,0,0,0,0,0,0,0,-1,685,1639,0,0
-532,-615,0,0,0,0,0,0,0,0,0,-1,692,1639,0,0
-525,-615,0,0,0,0,0,0,0,0,0,-1,699,1639,0,0
-518,-615,0,0,0,0,0,0,0,0,0,-1,706,1639,0,0
-511,-615,0,0,0,0,0,0,0,0,0,-1,713,1639,0,0
-504,-615,0,0,0,0,0,0,0,0,0,-1,720,1639,0,0
-497,-615,0,0,0,0,0,0,0,0,0,-1,727,1639,0,0
-490,-615,0,0,0,0,0,0,0,0,0,-1,734,1639,0,0
-483,-615,0,0,0,0,0,0,0,0,0,-1,741,1639,0,0
-476,-615,0,0,0,0,0,0,0,0,0,-1,748,1639,0,0
-469,-615,0,0,0,0,0,0,0,0,0,-1,755,1639,0,0
-462,-615,0,0,0,0,0,0,0,0,0,-1,762,1639,0,0
-455,-615,0,0,0,0,0,0,0,0,0,-1,769,1639,0,0
-448,-615,0,0,0,0,0,0,0,0,0,-1,776,1639,0,0
-441,-615,0,0,0,0,0,0,0,0,0,-1,783,1639,0,0
-434,-615,-7.64508,2.98596,0,0,0,0,0,0,0,-1,790,1639,-7.64505,-2.98594
-427,-615,-9.0011,2.89404,0,0,0,0,0,0,0,-1,797,1639,-9.00107,-2.89399
-420,-615,-8.07568,3.0752,0,0,0,0,0,0,0,-1,804,1639,-8.07569,-3.07514
-413,-615,-7.09149,3.396,0,0,0,0,0,0,0,-1,811,1639,-7.09147,-3.39599
-406,-615,-6.21368,3.7312,0,0,0,0,0,0,0,-1,818,1639,-6.21366,-3.73114
-399,-615,-4.84875,3.91907,0,0,0,0,0,0,0,-1,825,1639,-4.84877,-3.91901
-392,-615,1.38574,11.8627,0,0,0,0,0,0,0,-1,832,1639,1.38574,-11.8627
-385,-615,2.13043,11.8832,0,0,0,0,0,0,0,-1,839,1639,2.13042,-11.8832
-378,-615,2.63843,11.7356,0,0,0,0,0,0,0,-1,846,1639,2.63845,-11.7356
-371,-615,2.54572,11.2512,0,0,0,0,0,0,0,-1,853,1639,2.54569,-11.2512
-364,-615,2.52112,11.3428,0.00117956,-0.0072421,0.0037143,0.00258363,-0.00864618,0.361414,0.00679117,0.0351645,860,1639,2.52111,-11.3428
-357,-615,2.60773,11.6619,0.00199412,-0.00611088,0.00323311,0.0031258,-0.00724256,0.336701,0.00614145,0.0290233,867,1639,2.60773,-11.6619
-350,-615,2.53564,11.8617,0.0024333,-0.00506456,0.00270408,0.00330676,-0.00593802,0.312437,0.00540906,0.0274956,874,1639,2.53563,-11.8617
-343,-615,2.5014,12.0397,0.00252716,-0.00420562,0.00226156,0.00321629,-0.00489475,0.295775,0.00471621,0.0199789,881,1639,2.50143,-12.0397
-336,-615,2.5589,12.2939,0.00264493,-0.00341154,0.00175709,0.00311778,-0.00388438,0.26288,0.00405077,0.0114157,888,1639,2.55893,-12.2939
-329,-615,2.54492,12.5431,0.00236816,-0.00265794,0.00119896,0.00263952,-0.0029293,0.222577,0.00321661,0.0104954,895,1639,2.54493,-12.5431
-322,-615,2.52643,12.793,0.00186249,-0.00204409,0.000699469,0.00198395,-0.00216555,0.171936,0.00239648,0.0109257,902,1639,2.52644,-12.793
-315,-615,2.55011,13.0106,0.0012012,-0.00196773,6.24313e-05,0.00120243,-0.00196896,0.0196909,0.00184874,0.0137089,909,1639,2.5501,-13.0106
-308,-615,2.5235,13.2145,0.000426431,-0.00215476,-0.000855704,0.00068434,-0.00241267,-0.29274,0.00187858,0.0207222,916,1639,2.52352,-13.2145
-301,-615,2.53046,13.4237,-0.000236429,-0.00248767,-0.00159055,0.000586507,-0.0033106,-0.477464,0.00242632,0.0124379,923,1639,2.53043,-13.4237
-294,-615,2.53973,13.6381,-0.000906964,-0.00326972,-0.00239922,0.000585961,-0.00476264,-0.556623,0.00338735,0.0104866,930,1639,2.53974,-13.638
-287,-615,2.51892,13.8514,-0.0014527,-0.00392013,-0.00322359,0.000765189,-0.00613801,-0.60264,0.00436946,0.00826364,937,1639,2.51894,-13.8514
-280,-615,2.52942,14.0447,-0.00192408,-0.00492039,-0.00399742,0.000846702,-0.00769117,-0.606109,0.00543172,0.00915668,944,1639,2.52941,-14.0447
-273,-615,2.53223,14.2555,-0.00233273,-0.00600981,-0.00482009,0.000987558,-0.0093301,-0.603199,0.00657403,0.00976003,951,1639,2.53224,-14.2555
-266,-615,2.53778,14.4595,-0.00284667,-0.00720889,-0.00555055,0.000935936,-0.0109915,-0.59819,0.00765873,0.00937454,958,1639,2.53779,-14.4595
-259,-615,2.56134,14.6492,-0.00368873,-0.00825812,-0.00631633,0.000743404,-0.0126903,-0.611863,0.00871854,0.0103319,965,1639,2.56133,-14.6491
-252,-615,2.56696,14.8335,-0.00401045,-0.00939722,-0.00728085,0.00105922,-0.0144669,-0.60824,0.0100164,0.0117127,972,1639,2.56693,-14.8335
-245,-615,2.54871,15.0005,-0.00361801,-0.0101247,-0.00742771,0.00123759,-0.0149803,-0.578982,0.0104239,0.0178877,979,1639,2.54872,-15.0005
-238,-615,2.59863,15.1774,-0.00362647,-0.0110368,-0.00728636,0.00084268,-0.0155059,-0.550184,0.0106293,0.0274034,986,1639,2.59866,-15.1774
-231,-615,2.73755,15.3108,-0.00340306,-0.0118979,-0.00722072,0.000726841,-0.0160278,-0.51954,0.0109355,0.0384673,993,1639,2.73754,-15.3108
-224,-615,2.94531,15.5466,0,0,0,0,0,0,0,-1,1000,1639,2.94534,-15.5467
-217,-615,2.92975,15.6302,0,0,0,0,0,0,0,-1,1007,1639,2.92974,-15.6303
-210,-615,2.25629,16.1985,0,0,0,0,0,0,0,-1,1014,1639,2.25628,-16.1985
-203,-615,3.22888,15.9291,0,0,0,0,0,0,0,-1,1021,1639,3.22891,-15.9291
-196,-615,3.40894,16.3572,0.00298841,-0.0109723,-0.00230436,0.00335894,-0.0113428,-0.159428,0.00889549,0.0471235,1028,1639,3.4089,-16.3572
-189,-615,3.6106,16.7764,0,0,0,0,0,0,0,-1,1035,1639,3.61062,-16.7764
-182,-615,3.84949,17.2079,0,0,0,0,0,0,0,-1,1042,1639,3.84944,-17.2079
-175,-615,-0.609985,13.8434,0,0,0,0,0,0,0,-1,1049,1639,-0.610016,-13.8434
-168,-615,4.59839,16.191,0,0,0,0,0,0,0,-1,1056,1639,4.59841,-16.191
-161,-615,2.88916,16.1271,0,0,0,0,0,0,0,-1,1063,1639,2.88919,-16.1271
-154,-615,1.91504,16.6685,0,0,0,0,0,0,0,-1,1070,1639,1.915,-16.6685
-147,-615,1.44019,13.1343,0,0,0,0,0,0,0,-1,1077,1639,1.44018,-13.1343
-140,-615,3.73401,10.2349,0,0,0,0,0,0,0,-1,1084,1639,3.73402,-10.2348
-133,-615,2.6178,17.45,0,0,0,0,0,0,0,-1,1091,1639,2.61776,-17.4499
-126,-615,4.43408,12.5017,0,0,0,0,0,0,0,-1,1098,1639,4.43403,-12.5018
-119,-615,4.82983,13.9279,0,0,0,0,0,0,0,-1,1105,1639,4.82986,-13.9278
-112,-615,3.65698,14.4874,0,0,0,0,0,0,0,-1,1112,1639,3.65695,-14.4875
-105,-615,0.958496,2.45398,0,0,0,0,0,0,0,-1,1119,1639,0.958452,-2.45398
-98,-615,-0.647705,2.12109,0,0,0,0,0,0,0,-1,1126,1639,-0.647756,-2.12105
-91,-615,-1.48572,0.604492,0,0,0,0,0,0,0,-1,1133,1639,-1.48576,-0.604443
-84,-615,-2.46509,0.703247,0,0,0,0,0,0,0,-1,1140,1639,-2.46505,-0.703273
-77,-615,-3.17859,1.23755,0,0,0,0,0,0,0,-1,1147,1639,-3.17865,-1.23752
-70,-615,-4.03943,1.43335,0,0,0,0,0,0,0,-1,1154,1639,-4.03942,-1.43339
-63,-615,-4.8877,1.45544,0,0,0,0,0,0,0,-1,1161,1639,-4.88766,-1.45549
-56,-615,0,0,0,0,0,0,0,0,0,-1,1168,1639,0,0
-49,-615,0,0,0,0,0,0,0,0,0,-1,1175,1639,0,0
-42,-615,0,0,0,0,0,0,0,0,0,-1,1182,1639,0,0
-35,-615,0,0,0,0,0,0,0,0,0,-1,1189,1639,0,0
-28,-615,0,0,0,0,0,0,0,0,0,-1,1196,1639,0,0
-21,-615,0,0,0,0,0,0,0,0,0,-1,1203,1639,0,0
-14,-615,0,0,0,0,0,0,0,0,0,-1,1210,1639,0,0
-7,-615,0,0,0,0,0,0,0,0,0,-1,1217,1639,0,0
0,-615,0,0,0,0,0,0,0,0,0,-1,1224,1639,0,0
7,-615,0,0,0,0,0,0,0,0,0,-1,1231,1639,0,0
14,-615,0,0,0,0,0,0,0,0,0,-1,1238,1639,0,0
21,-615,0,0,0,0,0,0,0,0,0,-1,1245,1639,0,0
28,-615,0,0,0,0,0,0,0,0,0,-1,1252,1639,0,0
35,-615,0,0,0,0,0,0,0,0,0,-1,1259,1639,0,0
42,-615,0,0,0,0,0,0,0,0,0,-1,1266,1639,0,0
49,-615,0,0,0,0,0,0,0,0,0,-1,1273,1639,0,0
56,-615,0,0,0,0,0,0,0,0,0,-1,1280,1639,0,0
63,-615,0,0,0,0,0,0,0,0,0,-1,1287,1639,0,0
70,-615,0,0,0,0,0,0,0,0,0,-1,1294,1639,0,0
77,-615,0,0,0,0,0,0,0,0,0,-1,1301,1639,0,0
84,-615,0,0,0,0,0,0,0,0,0,-1,1308,1639,0,0
91,-615,0,0,0,0,0,0,0,0,0,-1,1315,1639,0,0
98,-615,0,0,0,0,0,0,0,0,0,-1,1322,1639,0,0
105,-615,0,0,0,0,0,0,0,0,0,-1,1329,1639,0,0
112,-615,0,0,0,0,0,0,0,0,0,-1,1336,1639,0,0
119,-615,0,0,0,0,0,0,0,0,0,-1,1343,1639,0,0
126,-615,0,0,0,0,0,0,0,0,0,-1,1350,1639,0,0
133,-615,0,0,0,0,0,0,0,0,0,-1,1357,1639,0,0
140,-615,0,0,0,0,0,0,0,0,0,-1,1364,1639,0,0
147,-615,0,0,0,0,0,0,0,0,0,-1,1371,1639,0,0
154,-615,0,0,0,0,0,0,0,0,0,-1,1378,1639,0,0
161,-615,0,0,0,0,0,0,0,0,0,-1,1385,1639,0,0
168,-615,0,0,0,0,0,0,0,0,0,-1,1392,1639,0,0
175,-615,5.39648,-2.00879,0,0,0,0,0,0,0,-1,1399,1639,5.3965,2.00881
182,-615,5.65393,-1.51025,0,0,0,0,0,0,0,-1,1406,1639,5.65388,1.51028
189,-615,5.58972,-1.35608,0,0,0,0,0,0,0,-1,1413,1639,5.58967,1.35607
196,-615,5.49915,-0.693604,0,0,0,0,0,0,0,-1,1420,1639,5.4991,0.693602
203,-615,5.33411,-0.226685,0,0,0,0,0,0,0,-1,1427,1639,5.33414,0.226689
210,-615,5.60278,0.108276,0,0,0,0,0,0,0,-1,1434,1639,5.60284,-0.10831
217,-615,6.26331,-0.307373,0,0,0,0,0,0,0,-1,1441,1639,6.26331,0.307372
224,-615,5.45422,-0.333984,0,0,0,0,0,0,0,-1,1448,1639,5.45422,0.333992
231,-615,4.92542,1.80298,0,0,0,0,0,0,0,-1,1455,1639,4.92537,-1.80297
238,-615,4.76355,1.96729,0,0,0,0,0,0,0,-1,1462,1639,4.76357,-1.96734
245,-615,4.08643,3.15906,0,0,0,0,0,0,0,-1,1469,1639,4.08638,-3.159
252,-615,6.37805,3.73889,0,0,0,0,0,0,0,-1,1476,1639,6.37806,-3.73891
259,-615,8.35974,3.16443,0,0,0,0,0,0,0,-1,1483,1639,8.35975,-3.16444
266,-615,10.3414,2.58997,0,0,0,0,0,0,0,-1,1490,1639,10.3414,-2.58996
273,-615,6.57043,1.84766,0,0,0,0,0,0,0,-1,1497,1639,6.5704,-1.84771
280,-615,7.10449,3.23438,0,0,0,0,0,0,0,-1,1504,1639,7.10447,-3.23435
287,-615,7.35779,4.68542,0,0,0,0,0,0,0,-1,1511,1639,7.35776,-4.68546
294,-615,7.63733,6.29114,0,0,0,0,0,0,0,-1,1518,1639,7.63735,-6.29109
301,-615,8.47925,11.452,0,0,0,0,0,0,0,-1,1525,1639,8.47922,-11.452
308,-615,6.8114,10.9059,0,0,0,0,0,0,0,-1,1532,1639,6.81137,-10.9058
315,-615,5.1427,14.7251,0,0,0,0,0,0,0,-1,1539,1639,5.14269,-14.7251
322,-615,7.8822,14.9136,0,0,0,0,0,0,0,-1,1546,1639,7.88221,-14.9135
329,-615,7.21948,17.4885,0,0,0,0,0,0,0,-1,1553,1639,7.21945,-17.4886
336,-615,6.45007,14.1138,0,0,0,0,0,0,0,-1,1560,1639,6.45011,-14.1138
343,-615,2.40491,6.50134,0,0,0,0,0,0,0,-1,1567,1639,2.40489,-6.50137
350,-615,6.4458,15.4594,0,0,0,0,0,0,0,-1,1574,1639,6.44578,-15.4593
357,-615,7.13489,16.4313,0,0,0,0,0,0,0,-1,1581,1639,7.13485,-16.4312
364,-615,7.18726,16.0819,0,0,0,0,0,0,0,-1,1588,1639,7.1872,-16.0819
371,-615,7.21338,16.0106,-0.00315062,-0.00763633,0.00924937,0.00412395,-0.0149109,0.666451,0.011563,0.0431646,1595,1639,7.21341,-16.0106
378,-615,7.2417,15.8425,-0.00350193,-0.00826323,0.00868461,0.00312242,-0.0148876,0.651623,0.0111131,0.0215557,1602,1639,7.24164,-15.8426
385,-615,7.24207,15.6689,-0.00355701,-0.00853243,0.00826594,0.00258746,-0.0146769,0.63923,0.0107514,0.0120361,1609,1639,7.2421,-15.669
392,-615,7.25842,15.5021,-0.00324311,-0.00804147,0.00780115,0.00251945,-0.013804,0.636217,0.0101473,0.00968388,1616,1639,7.25839,-15.5021
399,-615,7.25598,15.3436,-0.00278408,-0.00725653,0.00701813,0.00234549,-0.0123861,0.631166,0.0091401,0.011172,1623,1639,7.25598,-15.3437
406,-615,7.25537,15.1512,-0.00228056,-0.00667259,0.00602827,0.00193923,-0.0108924,0.610726,0.00798686,0.0116299,1630,1639,7.25531,-15.1512
413,-615,7.26599,14.9707,-0.00184095,-0.00609145,0.00515108,0.00160608,-0.00953847,0.589745,0.00695642,0.0116766,1637,1639,7.26603,-14.9707
420,-615,7.28296,14.7606,-0.00141132,-0.00537087,0.00428159,0.00132605,-0.00810825,0.568842,0.00589742,0.012728,1644,1639,7.28299,-14.7607
427,-615,7.28857,14.5592,-0.00107326,-0.0047825,0.00349502,0.00102874,-0.00688449,0.541466,0.0049682,0.0144821,1651,1639,7.28853,-14.5593
434,-615,7.29346,14.3668,-0.000880057,-0.00409886,0.00266686,0.0006254,-0.00560432,0.513911,0.00396117,0.0138866,1658,1639,7.29349,-14.3669
441,-615,7.29199,14.166,-0.000810437,-0.00336035,0.0020743,0.0003494,-0.00452019,0.509839,0.00313642,0.0138848,1665,1639,7.29197,-14.166
448,-615,7.27417,14.0021,-0.000704237,-0.00265087,0.00164588,0.00023458,-0.00358969,0.518374,0.00247503,0.0153654,1672,1639,7.27415,-14.0021
455,-615,7.27893,13.8187,-0.000755589,-0.0020313,0.00134463,9.48021e-05,-0.0028817,0.563929,0.0019535,0.0150515,1679,1639,7.2789,-13.8187
462,-615,7.29053,13.6111,-0.000805113,-0.0014112,0.00109023,2.3402e-05,-0.00223972,0.649837,0.00150101,0.01462,1686,1639,7.29054,-13.611
469,-615,7.27576,13.3849,-0.000812461,-0.000841782,0.000941637,0.00011463,-0.00176887,0.777614,0.00121926,0.0115797,1693,1639,7.27572,-13.3848
476,-615,7.2594,13.1691,-0.000744,-0.000349756,0.000853544,0.000329133,-0.00142289,0.898881,0.00107523,0.0104869,1700,1639,7.25941,-13.1691
483,-615,7.27246,12.9301,-0.000501877,-0.000183214,0.000905081,0.000576453,-0.00126154,0.872526,0.00108546,0.0138345,1707,1639,7.27249,-12.93
490,-615,7.28027,12.7112,0.000241472,-0.000145012,0.000692836,0.00076751,-0.00067105,0.649397,0.000831175,0.0150118,1714,1639,7.28027,-12.7111
497,-615,7.23962,12.5107,0.00102814,4.65086e-05,0.000674884,0.00137181,-0.000297163,0.471005,0.00102801,0.0237934,1721,1639,7.23963,-12.5108
504,-615,7.27075,12.2327,0.00225162,-0.000167822,0.00053674,0.00236534,-0.000281549,0.208797,0.00167863,0.0448146,1728,1639,7.27076,-12.2327
511,-615,7.34204,11.9927,0,0,0,0,0,0,0,-1,1735,1639,7.34201,-11.9927
518,-615,7.35779,10.4647,0,0,0,0,0,0,0,-1,1742,1639,7.35773,-10.4647
525,-615,4.37524,3.90491,0,0,0,0,0,0,0,-1,1749,1639,4.37518,-3.90495
532,-615,7.3645,0.848145,0,0,0,0,0,0,0,-1,1756,1639,7.36451,-0.848093
539,-615,12.8112,-0.0476074,0,0,0,0,0,0,0,-1,1763,1639,12.8111,0.0475553
546,-615,8.33813,2.94556,0,0,0,0,0,0,0,-1,1770,1639,8.33813,-2.9455
553,-615,5.82532,-2.04199,0,0,0,0,0,0,0,-1,1777,1639,5.82534,2.04195
560,-615,0,0,0,0,0,0,0,0,0,-1,1784,1639,0,0
567,-615,0,0,0,0,0,0,0,0,0,-1,1791,1639,0,0
574,-615,0,0,0,0,0,0,0,0,0,-1,1798,1639,0,0
581,-615,0,0,0,0,0,0,0,0,0,-1,1805,1639,0,0
588,-615,0,0,0,0,0,0,0,0,0,-1,1812,1639,0,0
595,-615,0,0,0,0,0,0,0,0,0,-1,1819,1639,0,0
602,-615,0,0,0,0,0,0,0,0,0,-1,1826,1639,0,0
609,-615,0,0,0,0,0,0,0,0,0,-1,1833,1639,0,0
616,-615,0,0,0,0,0,0,0,0,0,-1,1840,1639,0,0
623,-615,0,0,0,0,0,0,0,0,0,-1,1847,1639,0,0
630,-615,0,0,0,0,0,0,0,0,0,-1,1854,1639,0,0
637,-615,0,0,0,0,0,0,0,0,0,-1,1861,1639,0,0
644,-615,0,0,0,0,0,0,0,0,0,-1,1868,1639,0,0
651,-615,0,0,0,0,0,0,0,0,0,-1,1875,1639,0,0
658,-615,0,0,0,0,0,0,0,0,0,-1,1882,1639,0,0
665,-615,0,0,0,0,0,0,0,0,0,-1,1889,1639,0,0
672,-615,0,0,0,0,0,0,0,0,0,-1,1896,1639,0,0
679,-615,0,0,0,0,0,0,0,0,0,-1,1903,1639,0,0
686,-615,0,0,0,0,0,0,0,0,0,-1,1910,1639,0,0
693,-615,0,0,0,0,0,0,0,0,0,-1,1917,1639,0,0
700,-615,0,0,0,0,0,0,0,0,0,-1,1924,1639,0,0
707,-615,0,0,0,0,0,0,0,0,0,-1,1931,1639,0,0
714,-615,0,0,0,0,0,0,0,0,0,-1,1938,1639,0,0
721,-615,0,0,0,0,0,0,0,0,0,-1,1945,1639,0,0
728,-615,0,0,0,0,0,0,0,0,0,-1,1952,1639,0,0
735,-615,0,0,0,0,0,0,0,0,0,-1,1959,1639,0,0
742,-615,0,0,0,0,0,0,0,0,0,-1,1966,1639,0,0
749,-615,0,0,0,0,0,0,0,0,0,-1,1973,1639,0,0
756,-615,0,0,0,0,0,0,0,0,0,-1,1980,1639,0,0
763,-615,0,0,0,0,0,0,0,0,0,-1,1987,1639,0,0
770,-615,0,0,0,0,0,0,0,0,0,-1,1994,1639,0,0
777,-615,0,0,0,0,0,0,0,0,0,-1,2001,1639,0,0
784,-615,0,0,0,0,0,0,0,0,0,-1,2008,1639,0,0
791,-615,0,0,0,0,0,0,0,0,0,-1,2015,1639,0,0
798,-615,0,0,0,0,0,0,0,0,0,-1,2022,1639,0,0
805,-615,0,0,0,0,0,0,0,0,0,-1,2029,1639,0,0
812,-615,0,0,0,0,0,0,0,0,0,-1,2036,1639,0,0
-700,-622,0,0,0,0,0,0,0,0,0,-1,524,1646,0,0
-693,-622,0,0,0,0,0,0,0,0,0,-1,531,1646,0,0
-686,-622,0,0,0,0,0,0,0,0,0,-1,538,1646,0,0
-679,-622,0,0,0,0,0,0,0,0,0,-1,545,1646,0,0
-672,-622,0,0,0,0,0,0,0,0,0,-1,552,1646,0,0
-665,-622,0,0,0,0,0,0,0,0,0,-1,559,1646,0,0
-658,-622,0,0,0,0,0,0,0,0,0,-1,566,1646,0,0
-651,-622,0,0,0,0,0,0,0,0,0,-1,573,1646,0,0
-644,-622,0,0,0,0,0,0,0,0,0,-1,580,1646,0,0
-637,-622,0,0,0,0,0,0,0,0,0,-1,587,1646,0,0
-630,-622,0,0,0,0,0,0,0,0,0,-1,594,1646,0,0
-623,-622,0,0,0,0,0,0,0,0,0,-1,601,1646,0,0
-616,-622,0,0,0,0,0,0,0,0,0,-1,608,1646,0,0
-609,-622,0,0,0,0,0,0,0,0,0,-1,615,1646,0,0
-602,-622,0,0,0,0,0,0,0,0,0,-1,622,1646,0,0
-595,-622,0,0,0,0,0,0,0,0,0,-1,629,1646,0,0
-588,-622,0,0,0,0,0,0,0,0,0,-1,636,1646,0,0
-581,-622,0,0,0,0,0,0,0,0,0,-1,643,1646,0,0
-574,-622,0,0,0,0,0,0,0,0,0,-1,650,1646,0,0
-567,-622,0,0,0,0,0,0,0,0,0,-1,657,1646,0,0
-560,-622,0,0,0,0,0,0,0,0,0,-1,664,1646,0,0
-553,-622,0,0,0,0,0,0,0,0,0,-1,671,1646,0,0
-546,-622,0,0,0,0,0,0,0,0,0,-1,678,1646,0,0
-539,-622,0,0,0,0,0,0,0,0,0,-1,685,1646,0,0
-532,-622,0,0,0,0,0,0,0,0,0,-1,692,1646,0,0
-525,-622,0,0,0,0,0,0,0,0,0,-1,699,1646,0,0
-518,-622,0,0,0,0,0,0,0,0,0,-1,706,1646,0,0
-511,-622,0,0,0,0,0,0,0,0,0,-1,713,1646,0,0
-504,-622,0,0,0,0,0,0,0,0,0,-1,720,1646,0,0
-497,-622,0,0,0,0,0,0,0,0,0,-1,727,1646,0,0
-490,-622,0,0,0,0,0,0,0,0,0,-1,734,1646,0,0
-483,-622,0,0,0,0,0,0,0,0,0,-1,741,1646,0,0
-476,-622,0,0,0,0,0,0,0,0,0,-1,748,1646,0,0
-469,-622,0,0,0,0,0,0,0,0,0,-1,755,1646,0,0
-462,-622,0,0,0,0,0,0,0,0,0,-1,762,1646,0,0
-455,-622,0,0,0,0,0,0,0,0,0,-1,769,1646,0,0
-448,-622,0,0,0,0,0,0,0,0,0,-1,776,1646,0,0
-441,-622,0,0,0,0,0,0,0,0,0,-1,783,1646,0,0
-434,-622,0,0,0,0,0,0,0,0,0,-1,790,1646,0,0
-427,-622,-7.62891,3.48096,0,0,0,0,0,0,0,-1,797,1646,-7.62892,-3.48092
-420,-622,-9.35791,1.77185,0,0,0,0,0,0,0,-1,804,1646,-9.35789,-1.77183
-413,-622,-8.46075,1.96777,0,0,0,0,0,0,0,-1,811,1646,-8.46074,-1.96774
-406,-622,-4.44318,2.16858,0,0,0,0,0,0,0,-1,818,1646,-4.44315,-2.16859
-399,-622,-7.06976,1.51001,0,0,0,0,0,0,0,-1,825,1646,-7.06976,-1.51005
-392,-622,3.89551,5.85376,0,0,0,0,0,0,0,-1,832,1646,3.8955,-5.85379
-385,-622,1.9491,11.6946,0,0,0,0,0,0,0,-1,839,1646,1.94913,-11.6946
-378,-622,2.82385,12.1204,0,0,0,0,0,0,0,-1,846,1646,2.82383,-12.1204
-371,-622,2.04047,10.7444,0,0,0,0,0,0,0,-1,853,1646,2.04049,-10.7444
-364,-622,2.17065,11.288,0.00325832,-0.00882625,0.00544814,0.00535184,-0.0109198,0.366868,0.009576,0.043584,860,1646,2.17065,-11.288
-357,-622,2.5827,11.7114,0.00366421,-0.00702707,0.00430509,0.00518222,-0.00854508,0.338996,0.00800434,0.0419295,867,1646,2.5827,-11.7114
-350,-622,2.66608,12.0026,0.00374529,-0.00585559,0.00337129,0.00481084,-0.00692114,0.30613,0.00680989,0.0402001,874,1646,2.66607,-12.0025
-343,-622,2.63702,12.1412,0.00368159,-0.00491951,0.00266654,0.0044412,-0.00567911,0.277514,0.00585751,0.0275157,881,1646,2.63703,-12.1413
-336,-622,2.75702,12.3013,0.00370728,-0.00402846,0.00198589,0.0041873,-0.00450848,0.237168,0.00502165,0.010315,888,1646,2.75705,-12.3012
-329,-622,2.75806,12.5344,0.00330913,-0.00313435,0.00139681,0.0035989,-0.00342412,0.204549,0.00405516,0.00848747,895,1646,2.75807,-12.5344
-322,-622,2.75085,12.7748,0.00273251,-0.00239996,0.000949352,0.00290248,-0.00256993,0.177163,0.00316145,0.00950668,902,1646,2.75085,-12.7748
-315,-622,2.75568,13.0044,0.00199357,-0.00226612,0.000393646,0.00202964,-0.00230219,0.0913807,0.00250264,0.0135109,909,1646,2.75566,-13.0044
-308,-622,2.75256,13.2139,0.00113581,-0.00235815,-0.000412314,0.00118381,-0.00240614,-0.115887,0.00211233,0.0140161,916,1646,2.75258,-13.2139
-301,-622,2.75079,13.4236,0.000480924,-0.00252426,-0.000971949,0.000767876,-0.00281121,-0.287078,0.00217575,0.0129524,923,1646,2.75078,-13.4236
-294,-622,2.73987,13.6298,-0.000111825,-0.00301504,-0.00153408,0.00054857,-0.00367544,-0.406506,0.00265213,0.0103083,930,1646,2.73985,-13.6298
-287,-622,2.72559,13.8391,-0.000625723,-0.00339784,-0.00210487,0.000508461,-0.00453203,-0.494234,0.00320431,0.00810774,937,1646,2.72561,-13.8391
-280,-622,2.72601,14.0508,-0.00106132,-0.00406353,-0.00263348,0.000468834,-0.00559369,-0.526361,0.00389482,0.0088473,944,1646,2.72604,-14.0508
-273,-622,2.74884,14.2455,-0.00139762,-0.0047636,-0.00320569,0.000540011,-0.00670124,-0.543675,0.00465794,0.0126328,951,1646,2.74884,-14.2455
-266,-622,2.73291,14.467,-0.00178387,-0.0055156,-0.00369832,0.000492606,-0.00779208,-0.551771,0.00536646,0.0116602,958,1646,2.73291,-14.4671
-259,-622,2.76196,14.6918,-0.00243208,-0.00611363,-0.00421882,0.000330067,-0.00887577,-0.579686,0.00603021,0.0106826,965,1646,2.76199,-14.6917
-252,-622,2.77722,14.869,-0.0026048,-0.00672823,-0.00494794,0.000693787,-0.0100268,-0.587996,0.00692739,0.011278,972,1646,2.77725,-14.869
-245,-622,2.76917,15.0491,-0.00218362,-0.00718817,-0.00505255,0.000952335,-0.0103241,-0.555478,0.00722115,0.00852851,979,1646,2.76916,-15.0491
-238,-622,2.77643,15.2281,-0.00198902,-0.00773151,-0.00495092,0.000862988,-0.0105835,-0.522628,0.00736023,0.0095327,986,1646,2.77643,-15.2281
-231,-622,2.82422,15.4342,-0.00164488,-0.00833862,-0.00493902,0.000974438,-0.0109579,-0.487618,0.00765082,0.0142866,993,1646,2.82422,-15.4342
-224,-622,2.92468,15.6151,-0.00118725,-0.00868398,-0.00464397,0.00103236,-0.0109036,-0.445856,0.00763647,0.0263075,1000,1646,2.92466,-15.6151
-217,-622,2.93823,15.7131,-0.00045053,-0.00863178,-0.00405157,0.00121632,-0.0102986,-0.390301,0.00730502,0.0401097,1007,1646,2.93824,-15.7131
-210,-622,2.53369,16.027,0.000270103,-0.00880982,-0.00353573,0.0014845,-0.0100242,-0.330841,0.00722864,0.0476744,1014,1646,2.53366,-16.0269
-203,-622,3.38391,15.598,0,0,0,0,0,0,0,-1,1021,1646,3.3839,-15.5981
-196,-622,3.55676,16.0454,0,0,0,0,0,0,0,-1,1028,1646,3.5567,-16.0454
-189,-622,3.58496,16.2838,0,0,0,0,0,0,0,-1,1035,1646,3.58494,-16.2839
-182,-622,3.13257,15.7042,0,0,0,0,0,0,0,-1,1042,1646,3.13262,-15.7042
-175,-622,2.56091,11.0195,0,0,0,0,0,0,0,-1,1049,1646,2.56095,-11.0195
-168,-622,4.82922,16.5164,0,0,0,0,0,0,0,-1,1056,1646,4.82924,-16.5163
-161,-622,2.66431,16.7827,0,0,0,0,0,0,0,-1,1063,1646,2.66433,-16.7827
-154,-622,2.62292,16.713,0,0,0,0,0,0,0,-1,1070,1646,2.62291,-16.713
-147,-622,2.58154,16.6434,0,0,0,0,0,0,0,-1,1077,1646,2.58149,-16.6434
-140,-622,3.27515,16.0353,0,0,0,0,0,0,0,-1,1084,1646,3.27519,-16.0353
-133,-622,3.09644,17.677,0,0,0,0,0,0,0,-1,1091,1646,3.09638,-17.677
-126,-622,3.5061,19.5251,0,0,0,0,0,0,0,-1,1098,1646,3.50616,-19.5252
-119,-622,4.06384,13.1715,0,0,0,0,0,0,0,-1,1105,1646,4.06379,-13.1716
-112,-622,4.33276,14.6605,0,0,0,0,0,0,0,-1,1112,1646,4.33281,-14.6605
-105,-622,0.306519,4.38159,0,0,0,0,0,0,0,-1,1119,1646,0.306536,-4.38159
-98,-622,-0.510376,3.5033,0,0,0,0,0,0,0,-1,1126,1646,-0.510393,-3.50324
-91,-622,-1.146,0.975952,0,0,0,0,0,0,0,-1,1133,1646,-1.14599,-0.97597
-84,-622,-2.04895,1.31787,0,0,0,0,0,0,0,-1,1140,1646,-2.0489,-1.31781
-77,-622,-1.80627,0.332275,0,0,0,0,0,0,0,-1,1147,1646,-1.80622,-0.33223
-70,-622,-3.65588,2.28149,0,0,0,0,0,0,0,-1,1154,1646,-3.65589,-2.28155
-63,-622,-2.49683,1.27087,0,0,0,0,0,0,0,-1,1161,1646,-2.49679,-1.27093
-56,-622,-2.44238,-0.575562,0,0,0,0,0,0,0,-1,1168,1646,-2.44242,0.575508
-49,-622,-2.41089,1.38818,0,0,0,0,0,0,0,-1,1175,1646,-2.41088,-1.38815
-42,-622,-2.71497,2.85242,0,0,0,0,0,0,0,-1,1182,1646,-2.71491,-2.85247
-35,-622,-3.0177,4.25842,0,0,0,0,0,0,0,-1,1189,1646,-3.01773,-4.25838
-28,-622,-0.896606,0.678833,0,0,0,0,0,0,0,-1,1196,1646,-0.89661,-0.678835
-21,-622,6.63062,12.6195,0,0,0,0,0,0,0,-1,1203,1646,6.63065,-12.6195
-14,-622,3.49634,10.1812,0,0,0,0,0,0,0,-1,1210,1646,3.49637,-10.1811
-7,-622,4.18848,10.2567,0,0,0,0,0,0,0,-1,1217,1646,4.18853,-10.2567
0,-622,0,0,0,0,0,0,0,0,0,-1,1224,1646,0,0
7,-622,0,0,0,0,0,0,0,0,0,-1,1231,1646,0,0
14,-622,0,0,0,0,0,0,0,0,0,-1,1238,1646,0,0
21,-622,0,0,0,0,0,0,0,0,0,-1,1245,1646,0,0
28,-622,0,0,0,0,0,0,0,0,0,-1,1252,1646,0,0
35,-622,0,0,0,0,0,0,0,0,0,-1,1259,1646,0,0
42,-622,0,0,0,0,0,0,0,0,0,-1,1266,1646,0,0
49,-622,0,0,0,0,0,0,0,0,0,-1,1273,1646,0,0
56,-622,0,0,0,0,0,0,0,0,0,-1,1280,1646,0,0
63,-622,0,0,0,0,0,0,0,0,0,-1,1287,1646,0,0
70,-622,0,0,0,0,0,0,0,0,0,-1,1294,1646,0,0
77,-622,0,0,0,0,0,0,0,0,0,-1,1301,1646,0,0
84,-622,0,0,0,0,0,0,0,0,0,-1,1308,1646,0,0
91,-622,0,0,0,0,0,0,0,0,0,-1,1315,1646,0,0
98,-622,0,0,0,0,0,0,0,0,0,-1,1322,1646,0,0
105,-622,0,0,0,0,0,0,0,0,0,-1,1329,1646,0,0
112,-622,0,0,0,0,0,0,0,0,0,-1,1336,1646,0,0
119,-622,0,0,0,0,0,0,0,0,0,-1,1343,1646,0,0
126,-622,22.379,9.78247,0.252605,-0.0115407,0.0380542,0.257978,-0.0169137,0.140266,0.177892,0.0439783,1350,1646,22.379,-9.78246
133,-622,22.7318,9.651,0.284701,-0.0150137,0.0280668,0.287306,-0.0176194,0.0925726,0.197673,0.0479606,1357,1646,22.7318,-9.65097
140,-622,26.0778,7.4425,0.319374,-0.0128101,0.0201645,0.320594,-0.0140297,0.0604072,0.218556,0.0453642,1364,1646,26.0777,-7.44256
147,-622,28.0352,5.60693,0,0,0,0,0,0,0,-1,1371,1646,28.0352,-5.6069
154,-622,22.1956,13.4941,0,0,0,0,0,0,0,-1,1378,1646,22.1956,-13.4941
161,-622,10.6884,6.46448,0,0,0,0,0,0,0,-1,1385,1646,10.6883,-6.46442
168,-622,12.2402,5.18091,0,0,0,0,0,0,0,-1,1392,1646,12.2403,-5.1809
175,-622,5.64355,-1.77075,0,0,0,0,0,0,0,-1,1399,1646,5.64351,1.77077
182,-622,5.88586,-1.32251,0,0,0,0,0,0,0,-1,1406,1646,5.88587,1.32256
189,-622,5.97986,-1.18005,0,0,0,0,0,0,0,-1,1413,1646,5.97986,1.18003
196,-622,5.85022,-0.244507,0,0,0,0,0,0,0,-1,1420,1646,5.85026,0.244478
203,-622,5.25159,0.138794,0,0,0,0,0,0,0,-1,1427,1646,5.25162,-0.138822
210,-622,6.66833,0.0397949,0,0,0,0,0,0,0,-1,1434,1646,6.6684,-0.0398278
217,-622,6.12061,0.0506592,0,0,0,0,0,0,0,-1,1441,1646,6.12058,-0.0507181
224,-622,5.57275,0.0616455,0,0,0,0,0,0,0,-1,1448,1646,5.57276,-0.0616084
231,-622,5.31348,1.3949,0,0,0,0,0,0,0,-1,1455,1646,5.31342,-1.39495
238,-622,3.76477,2.90686,0,0,0,0,0,0,0,-1,1462,1646,3.7648,-2.90686
245,-622,5.13794,2.67993,0,0,0,0,0,0,0,-1,1469,1646,5.13796,-2.67992
252,-622,6.66528,2.53992,0,0,0,0,0,0,0,-1,1476,1646,6.66522,-2.53991
259,-622,8.93787,3.31458,0,0,0,0,0,0,0,-1,1483,1646,8.93791,-3.31454
266,-622,5.72644,3.11926,0,0,0,0,0,0,0,-1,1490,1646,5.72647,-3.1192
273,-622,7.28076,3.61218,0,0,0,0,0,0,0,-1,1497,1646,7.28071,-3.61212
280,-622,8.43127,4.4447,0,0,0,0,0,0,0,-1,1504,1646,8.43123,-4.44467
287,-622,8.60315,5.94617,0,0,0,0,0,0,0,-1,1511,1646,8.60319,-5.94622
294,-622,7.62756,11.5143,0,0,0,0,0,0,0,-1,1518,1646,7.62762,-11.5143
301,-622,7.36548,11.6569,0,0,0,0,0,0,0,-1,1525,1646,7.36549,-11.6569
308,-622,7.10339,11.7994,0,0,0,0,0,0,0,-1,1532,1646,7.10335,-11.7995
315,-622,6.18176,16.4979,0,0,0,0,0,0,0,-1,1539,1646,6.18176,-16.4979
322,-622,7.12341,17.3604,0,0,0,0,0,0,0,-1,1546,1646,7.12337,-17.3603
329,-622,7.06763,17.296,0,0,0,0,0,0,0,-1,1553,1646,7.06762,-17.296
336,-622,7.09583,16.9054,0,0,0,0,0,0,0,-1,1560,1646,7.09577,-16.9054
343,-622,7.12683,16.104,0,0,0,0,0,0,0,-1,1567,1646,7.12682,-16.1041
350,-622,7.02075,16.5846,0,0,0,0,0,0,0,-1,1574,1646,7.02079,-16.5846
357,-622,7.01624,16.3656,-0.0010854,-0.00377183,0.00686124,0.00456288,-0.0094201,0.688736,0.00823383,0.0428197,1581,1646,7.0162,-16.3656
364,-622,7.04541,16.1028,-0.00161775,-0.00454658,0.00665468,0.00373174,-0.00989607,0.677096,0.0081319,0.0337558,1588,1646,7.04546,-16.1027
371,-622,7.08301,15.9883,-0.00179064,-0.00511583,0.00646892,0.00322592,-0.0101324,0.659614,0.00804869,0.0190062,1595,1646,7.08299,-15.9882
378,-622,7.05994,15.8462,-0.00213941,-0.00558105,0.00604613,0.00242602,-0.0101465,0.646757,0.00770143,0.0107708,1602,1646,7.0599,-15.8461
385,-622,7.05859,15.6768,-0.00222278,-0.00580494,0.0057249,0.00198468,-0.0100124,0.633792,0.00742543,0.00970989,1609,1646,7.05861,-15.6768
392,-622,7.0592,15.5195,-0.00200238,-0.00554108,0.00534699,0.0018604,-0.00940386,0.625616,0.0069726,0.0107691,1616,1646,7.05926,-15.5195
399,-622,7.05798,15.3486,-0.00166028,-0.00502063,0.00472228,0.00167182,-0.00835273,0.614483,0.00620134,0.0114513,1623,1646,7.058,-15.3487
406,-622,7.05701,15.1519,-0.00133146,-0.0046223,0.00399505,0.00134375,-0.00729751,0.590052,0.00536927,0.0139359,1630,1646,7.05705,-15.1519
413,-622,7.07825,14.9512,-0.00101476,-0.00428092,0.00335072,0.00107966,-0.00637534,0.558647,0.00465206,0.0150807,1637,1646,7.07824,-14.9511
420,-622,7.09644,14.7507,-0.000692315,-0.00388441,0.00273749,0.000880425,-0.00545715,0.521473,0.0039643,0.0160107,1644,1646,7.09646,-14.7507
427,-622,7.10059,14.5659,-0.00045923,-0.00363687,0.00219148,0.00065878,-0.00475488,0.471745,0.00341078,0.0130007,1651,1646,7.10054,-14.566
434,-622,7.11157,14.3715,-0.000411178,-0.00327702,0.00161131,0.000312188,-0.00400039,0.421964,0.00277684,0.0129294,1658,1646,7.11157,-14.3714
441,-622,7.09485,14.1705,-0.000505786,-0.00280646,0.0012796,6.45347e-05,-0.00337678,0.419273,0.002273,0.0139839,1665,1646,7.09482,-14.1705
448,-622,7.06421,13.9897,-0.000588664,-0.00238077,0.00113663,-3.73576e-05,-0.00293207,0.451604,0.00194238,0.0132143,1672,1646,7.06418,-13.9898
455,-622,7.04456,13.7867,-0.000798516,-0.00202187,0.00109461,-0.000156267,-0.00266412,0.530609,0.00172635,0.0150787,1679,1646,7.04462,-13.7867
462,-622,7.06372,13.5961,-0.00103198,-0.00167258,0.00114066,-0.000167505,-0.00253706,0.648522,0.0016384,0.0166754,1686,1646,7.06369,-13.5961
469,-622,7.05737,13.3823,-0.00121468,-0.00127447,0.00126016,1.59382e-05,-0.00250509,0.77354,0.0016754,0.0171597,1693,1646,7.05738,-13.3823
476,-622,7.08386,13.1628,-0.00126388,-0.000900014,0.00142102,0.000350672,-0.00251456,0.849066,0.00180466,0.0168716,1700,1646,7.08382,-13.1628
483,-622,7.08862,12.9277,-0.00117245,-0.000775609,0.00168367,0.000721292,-0.00266935,0.844053,0.00206248,0.0238981,1707,1646,7.08868,-12.9277
490,-622,7.04565,12.6818,-0.00062314,-0.00065879,0.00173662,0.00109575,-0.00237768,0.780266,0.00205041,0.0301134,1714,1646,7.04571,-12.6818
497,-622,7.03381,12.4912,8.28033e-05,-0.000178007,0.00202468,0.00198128,-0.00207648,0.753239,0.00234296,0.0416818,1721,1646,7.03385,-12.4912
504,-622,7.01526,12.2063,0,0,0,0,0,0,0,-1,1728,1646,7.01531,-12.2063
511,-622,5.29004,4.14587,0,0,0,0,0,0,0,-1,1735,1646,5.29008,-4.14589
518,-622,5.6001,1.55359,0,0,0,0,0,0,0,-1,1742,1646,5.60015,-1.5536
525,-622,5.83093,2.01807,0,0,0,0,0,0,0,-1,1749,1646,5.83097,-2.01802
532,-622,5.44202,0.57373,0,0,0,0,0,0,0,-1,1756,1646,5.44196,-0.573705
539,-622,9.32129,1.06116,0,0,0,0,0,0,0,-1,1763,1646,9.32131,-1.0612
546,-622,6.50977,-3.45618,0,0,0,0,0,0,0,-1,1770,1646,6.50981,3.4562
553,-622,0,0,0,0,0,0,0,0,0,-1,1777,1646,0,0
560,-622,0,0,0,0,0,0,0,0,0,-1,1784,1646,0,0
567,-622,0,0,0,0,0,0,0,0,0,-1,1791,1646,0,0
574,-622,0,0,0,0,0,0,0,0,0,-1,1798,1646,0,0
581,-622,0,0,0,0,0,0,0,0,0,-1,1805,1646,0,0
588,-622,0,0,0,0,0,0,0,0,0,-1,1812,1646,0,0
595,-622,0,0,0,0,0,0,0,0,0,-1,1819,1646,0,0
602,-622,0,0,0,0,0,0,0,0,0,-1,1826,1646,0,0
609,-622,0,0,0,0,0,0,0,0,0,-1,1833,1646,0,0
616,-622,0,0,0,0,0,0,0,0,0,-1,1840,1646,0,0
623,-622,0,0,0,0,0,0,0,0,0,-1,1847,1646,0,0
630,-622,0,0,0,0,0,0,0,0,0,-1,1854,1646,0,0
637,-622,0,0,0,0,0,0,0,0,0,-1,1861,1646,0,0
644,-622,0,0,0,0,0,0,0,0,0,-1,1868,1646,0,0
651,-622,0,0,0,0,0,0,0,0,0,-1,1875,1646,0,0
658,-622,0,0,0,0,0,0,0,0,0,-1,1882,1646,0,0
665,-622,0,0,0,0,0,0,0,0,0,-1,1889,1646,0,0
672,-622,0,0,0,0,0,0,0,0,0,-1,1896,1646,0,0
679,-622,0,0,0,0,0,0,0,0,0,-1,1903,1646,0,0
686,-622,0,0,0,0,0,0,0,0,0,-1,1910,1646,0,0
693,-622,0,0,0,0,0,0,0,0,0,-1,1917,1646,0,0
700,-622,0,0,0,0,0,0,0,0,0,-1,1924,1646,0,0
707,-622,0,0,0,0,0,0,0,0,0,-1,1931,1646,0,0
714,-622,0,0,0,0,0,0,0,0,0,-1,1938,1646,0,0
721,-622,0,0,0,0,0,0,0,0,0,-1,1945,1646,0,0
728,-622,0,0,0,0,0,0,0,0,0,-1,1952,1646,0,0
735,-622,0,0,0,0,0,0,0,0,0,-1,1959,1646,0,0
742,-622,0,0,0,0,0,0,0,0,0,-1,1966,1646,0,0
749,-622,0,0,0,0,0,0,0,0,0,-1,1973,1646,0,0
756,-622,0,0,0,0,0,0,0,0,0,-1,1980,1646,0,0
763,-622,0,0,0,0,0,0,0,0,0,-1,1987,1646,0,0
770,-622,0,0,0,0,0,0,0,0,0,-1,1994,1646,0,0
777,-622,0,0,0,0,0,0,0,0,0,-1,2001,1646,0,0
784,-622,0,0,0,0,0,0,0,0,0,-1,2008,1646,0,0
791,-622,0,0,0,0,0,0,0,0,0,-1,2015,1646,0,0
798,-622,0,0,0,0,0,0,0,0,0,-1,2022,1646,0,0
805,-622,0,0,0,0,0,0,0,0,0,-1,2029,1646,0,0
812,-622,0,0,0,0,0,0,0,0,0,-1,2036,1646,0,0
-700,-629,0,0,0,0,0,0,0,0,0,-1,524,1653,0,0
-693,-629,0,0,0,0,0,0,0,0,0,-1,531,1653,0,0
-686,-629,0,0,0,0,0,0,0,0,0,-1,538,1653,0,0
-679,-629,0,0,0,0,0,0,0,0,0,-1,545,1653,0,0
-672,-629,0,0,0,0,0,0,0,0,0,-1,552,1653,0,0
-665,-629,0,0,0,0,0,0,0,0,0,-1,559,1653,0,0
-658,-629,0,0,0,0,0,0,0,0,0,-1,566,1653,0,0
-651,-629,0,0,0,0,0,0,0,0,0,-1,573,1653,0,0
-644,-629,0,0,0,0,0,0,0,0,0,-1,580,1653,0,0
-637,-629,0,0,0,0,0,0,0,0,0,-1,587,1653,0,0
-630,-629,0,0,0,0,0,0,0,0,0,-1,594,1653,0,0
-623,-629,0,0,0,0,0,0,0,0,0,-1,601,1653,0,0
-616,-629,0,0,0,0,0,0,0,0,0,-1,608,1653,0,0
-609,-629,0,0,0,0,0,0,0,0,0,-1,615,1653,0,0
-602,-629,0,0,0,0,0,0,0,0,0,-1,622,1653,0,0
-595,-629,0,0,0,0,0,0,0,0,0,-1,629,1653,0,0
-588,-629,0,0,0,0,0,0,0,0,0,-1,636,1653,0,0
-581,-629,0,0,0,0,0,0,0,0,0,-1,643,1653,0,0
-574,-629,0,0,0,0,0,0,0,0,0,-1,650,1653,0,0
-567,-629,0,0,0,0,0,0,0,0,0,-1,657,1653,0,0
-560,-629,0,0,0,0,0,0,0,0,0,-1,664,1653,0,0
-553,-629,0,0,0,0,0,0,0,0,0,-1,671,1653,0,0
-546,-629,0,0,0,0,0,0,0,0,0,-1,678,1653,0,0
-539,-629,0,0,0,0,0,0,0,0,0,-1,685,1653,0,0
-532,-629,0,0,0,0,0,0,0,0,0,-1,692,1653,0,0
-525,-629,0,0,0,0,0,0,0,0,0,-1,699,1653,0,0
-518,-629,0,0,0,0,0,0,0,0,0,-1,706,1653,0,0
-511,-629,0,0,0,0,0,0,0,0,0,-1,713,1653,0,0
-504,-629,0,0,0,0,0,0,0,0,0,-1,720,1653,0,0
-497,-629,0,0,0,0,0,0,0,0,0,-1,727,1653,0,0
-490,-629,0,0,0,0,0,0,0,0,0,-1,734,1653,0,0
-483,-629,0,0,0,0,0,0,0,0,0,-1,741,1653,0,0
-476,-629,0,0,0,0,0,0,0,0,0,-1,748,1653,0,0
-469,-629,0,0,0,0,0,0,0,0,0,-1,755,1653,0,0
-462,-629,0,0,0,0,0,0,0,0,0,-1,762,1653,0,0
-455,-629,0,0,0,0,0,0,0,0,0,-1,769,1653,0,0
-448,-629,0,0,0,0,0,0,0,0,0,-1,776,1653,0,0
-441,-629,0,0,0,0,0,0,0,0,0,-1,783,1653,0,0
-434,-629,0,0,0,0,0,0,0,0,0,-1,790,1653,0,0
-427,-629,0,0,0,0,0,0,0,0,0,-1,797,1653,0,0
-420,-629,-3.87103,3.37634,0,0,0,0,0,0,0,-1,804,1653,-3.87101,-3.37633
-413,-629,-5.69751,1.33582,0,0,0,0,0,0,0,-1,811,1653,-5.69754,-1.3358
-406,-629,2.85406,6.01501,0,0,0,0,0,0,0,-1,818,1653,2.85405,-6.01507
-399,-629,-0.455627,10.8687,0,0,0,0,0,0,0,-1,825,1653,-0.455625,-10.8687
-392,-629,1.15369,11.1295,0,0,0,0,0,0,0,-1,832,1653,1.1537,-11.1295
-385,-629,1.81976,11.6935,0,0,0,0,0,0,0,-1,839,1653,1.81975,-11.6935
-378,-629,3.08685,12.4915,0,0,0,0,0,0,0,-1,846,1653,3.08683,-12.4914
-371,-629,3.04999,12.7152,0,0,0,0,0,0,0,-1,853,1653,3.04997,-12.7152
-364,-629,2.0658,11.4514,0,0,0,0,0,0,0,-1,860,1653,2.06582,-11.4515
-357,-629,2.32861,11.7004,0,0,0,0,0,0,0,-1,867,1653,2.32864,-11.7005
-350,-629,2.59149,11.9495,0,0,0,0,0,0,0,-1,874,1653,2.59147,-11.9495
-343,-629,2.78094,12.3156,0.00458542,-0.00578052,0.00308885,0.00543604,-0.00663114,0.268722,0.00697837,0.0422947,881,1653,2.78097,-12.3156
-336,-629,2.92755,12.3289,0.00433663,-0.00469584,0.00223649,0.00486007,-0.00521928,0.229905,0.00582054,0.0192197,888,1653,2.92753,-12.3288
-329,-629,2.9809,12.538,0.00374018,-0.00352677,0.00162691,0.00408778,-0.00387438,0.210493,0.0045975,0.0109833,895,1653,2.98087,-12.5379
-322,-629,2.98627,12.7494,0.00306557,-0.00257212,0.00124701,0.00332908,-0.00283563,0.208251,0.003563,0.011013,902,1653,2.98629,-12.7494
-315,-629,2.97003,12.9738,0.0022676,-0.00229227,0.000787806,0.00239987,-0.00242454,0.166348,0.00278539,0.0144668,909,1653,2.97005,-12.9738
-308,-629,2.96155,13.2096,0.00137974,-0.00223969,8.78127e-05,0.00138186,-0.00224182,0.0242425,0.00211168,0.0116026,916,1653,2.96157,-13.2096
-301,-629,2.97308,13.4403,0.000817279,-0.00222028,-0.00033043,0.000852808,-0.00225581,-0.107112,0.00185469,0.0104535,923,1653,2.97307,-13.4403
-294,-629,2.97009,13.6459,0.000393595,-0.00243667,-0.000703271,0.000558713,-0.00260178,-0.230609,0.00194766,0.0117604,930,1653,2.97007,-13.6459
-287,-629,2.95667,13.8567,4.15073e-06,-0.00260328,-0.001098,0.000404926,-0.00300405,-0.349978,0.00215042,0.00912659,937,1653,2.95668,-13.8567
-280,-629,2.9505,14.0757,-0.000317707,-0.00301562,-0.00147457,0.000331847,-0.00366517,-0.414929,0.00256124,0.00956835,944,1653,2.95049,-14.0757
-273,-629,2.94714,14.2611,-0.000532441,-0.00345367,-0.00190201,0.000405075,-0.00439119,-0.457958,0.0030714,0.0127506,951,1653,2.94712,-14.2611
-266,-629,2.93762,14.475,-0.000768241,-0.00392487,-0.00226768,0.00041631,-0.00510942,-0.481378,0.00355319,0.0125928,958,1653,2.93763,-14.4749
-259,-629,2.95026,14.7209,-0.00123381,-0.00426728,-0.00265434,0.000306572,-0.00580767,-0.525829,0.00397791,0.0133895,965,1653,2.95023,-14.7209
-252,-629,2.96191,14.8915,-0.00132138,-0.00464189,-0.00323342,0.000653124,-0.00661639,-0.548217,0.00464397,0.01053,972,1653,2.96193,-14.8915
-245,-629,2.96368,15.0607,-0.000969438,-0.00492851,-0.00332991,0.000924891,-0.00682284,-0.517226,0.00488612,0.00803671,979,1653,2.9637,-15.0607
-238,-629,2.97839,15.2504,-0.000833462,-0.00529571,-0.00327123,0.00089507,-0.00702424,-0.486112,0.00500792,0.00940747,986,1653,2.97839,-15.2504
-231,-629,2.98126,15.4424,-0.000605602,-0.00580614,-0.00331249,0.00100531,-0.00741705,-0.452638,0.00531161,0.0103932,993,1653,2.98124,-15.4424
-224,-629,3.02979,15.658,-0.000308952,-0.00625188,-0.00320375,0.00108921,-0.00765004,-0.411498,0.00549917,0.0113028,1000,1653,3.02976,-15.6579
-217,-629,3.02557,15.8025,0.000215787,-0.00637477,-0.00287343,0.00129263,-0.00745161,-0.35856,0.00544996,0.0179352,1007,1653,3.02558,-15.8025
-210,-629,2.94366,15.9752,0.000762279,-0.0066857,-0.00259801,0.00157897,-0.00750239,-0.304571,0.00560258,0.0343986,1014,1653,2.94368,-15.9752
-203,-629,2.65393,16.1033,0.001423,-0.00744124,-0.00228226,0.0019761,-0.00799434,-0.237763,0.00609597,0.0441333,1021,1653,2.65394,-16.1033
-196,-629,3.43555,15.9709,0.00260743,-0.0080431,-0.00201352,0.00297538,-0.00841105,-0.180745,0.00681908,0.0424294,1028,1653,3.43551,-15.9709
-189,-629,3.41431,16.2982,0.00405345,-0.0076761,-0.00109704,0.00415517,-0.00777783,-0.0924594,0.00699454,0.043308,1035,1653,3.41426,-16.2982
-182,-629,3.07642,16.1635,0,0,0,0,0,0,0,-1,1042,1653,3.07645,-16.1635
-175,-629,2.90979,16.2754,0,0,0,0,0,0,0,-1,1049,1653,2.90975,-16.2754
-168,-629,4.48938,16.6179,0,0,0,0,0,0,0,-1,1056,1653,4.48937,-16.6179
-161,-629,3.65295,16.5834,0,0,0,0,0,0,0,-1,1063,1653,3.65294,-16.5834
-154,-629,3.10425,16.5604,0,0,0,0,0,0,0,-1,1070,1653,3.10421,-16.5604
-147,-629,2.82825,16.2708,0,0,0,0,0,0,0,-1,1077,1653,2.8283,-16.2708
-140,-629,3.15894,16.238,0,0,0,0,0,0,0,-1,1084,1653,3.15894,-16.238
-133,-629,3.41248,17.6686,0,0,0,0,0,0,0,-1,1091,1653,3.41243,-17.6686
-126,-629,4.01025,19.5328,0,0,0,0,0,0,0,-1,1098,1653,4.01022,-19.5328
-119,-629,4.94177,13.5525,0,0,0,0,0,0,0,-1,1105,1653,4.94172,-13.5525
-112,-629,5.63123,15.9187,0,0,0,0,0,0,0,-1,1112,1653,5.63118,-15.9187
-105,-629,2.15881,4.38342,0,0,0,0,0,0,0,-1,1119,1653,2.15878,-4.38347
-98,-629,0.825806,4.19385,0,0,0,0,0,0,0,-1,1126,1653,0.825779,-4.1939
-91,-629,-0.452271,3.64465,0,0,0,0,0,0,0,-1,1133,1653,-0.452278,-3.6446
-84,-629,-2.6084,0.466797,0,0,0,0,0,0,0,-1,1140,1653,-2.6084,-0.466786
-77,-629,-3.50903,2.10706,0,0,0,0,0,0,0,-1,1147,1653,-3.509,-2.10707
-70,-629,-1.20886,2.52502,0,0,0,0,0,0,0,-1,1154,1653,-1.20886,-2.525
-63,-629,-0.960693,4.30212,0,0,0,0,0,0,0,-1,1161,1653,-0.960691,-4.30215
-56,-629,-1.31934,5.64343,0,0,0,0,0,0,0,-1,1168,1653,-1.31928,-5.6434
-49,-629,-2.15662,2.57458,0,0,0,0,0,0,0,-1,1175,1653,-2.15656,-2.57459
-42,-629,-2.46326,3.91467,0,0,0,0,0,0,0,-1,1182,1653,-2.4633,-3.91466
-35,-629,-2.67261,5.24292,0,0,0,0,0,0,0,-1,1189,1653,-2.67257,-5.24298
-28,-629,-0.402954,-0.866577,0,0,0,0,0,0,0,-1,1196,1653,-0.402943,0.866612
-21,-629,10.063,9.59705,0,0,0,0,0,0,0,-1,1203,1653,10.063,-9.59708
-14,-629,3.48608,11.5026,0,0,0,0,0,0,0,-1,1210,1653,3.48611,-11.5026
-7,-629,4.22034,11.6071,0.176655,-0.204416,0.0141307,0.177178,-0.204939,0.0370137,0.22081,0.0445483,1217,1653,4.22031,-11.607
0,-629,4.96753,11.6969,0.159061,-0.198823,0.00869653,0.159272,-0.199034,0.0242807,0.207293,0.0454324,1224,1653,4.96747,-11.6969
7,-629,5.65784,11.8088,0.148277,-0.186499,0.00558943,0.14837,-0.186592,0.0166899,0.19381,0.0433061,1231,1653,5.65788,-11.8088
14,-629,6.75208,11.8796,0.141166,-0.171403,0.00642352,0.141298,-0.171535,0.0205391,0.180896,0.0431359,1238,1653,6.75213,-11.8796
21,-629,8.06775,11.8096,0,0,0,0,0,0,0,-1,1245,1653,8.06779,-11.8095
28,-629,9.19141,11.955,0,0,0,0,0,0,0,-1,1252,1653,9.19141,-11.955
35,-629,9.99597,11.7825,0,0,0,0,0,0,0,-1,1259,1653,9.99595,-11.7824
42,-629,6.78979,19.2301,0.123501,-0.0815173,0.0434973,0.132348,-0.090364,0.20065,0.129342,0.0478205,1266,1653,6.78976,-19.2301
49,-629,7.245,18.1946,0,0,0,0,0,0,0,-1,1273,1653,7.24497,-18.1945
56,-629,8.59729,17.4471,0.126466,-0.0422945,0.0614431,0.146466,-0.0622947,0.314692,0.123751,0.0449502,1280,1653,8.59729,-17.4472
63,-629,10.1128,17.002,0.128128,-0.022405,0.0719955,0.157017,-0.0512942,0.381595,0.125325,0.0438602,1287,1653,10.1128,-17.002
70,-629,11.47,16.6208,0.130944,-0.00841803,0.079681,0.167114,-0.0445884,0.426125,0.12887,0.0439023,1294,1653,11.47,-16.6209
77,-629,12.4817,16.1492,0.136655,-0.00945909,0.0804406,0.172263,-0.0450667,0.416731,0.132445,0.04716,1301,1653,12.4817,-16.1491
84,-629,13.6666,15.7646,0,0,0,0,0,0,0,-1,1308,1653,13.6667,-15.7647
91,-629,15.1343,15.0693,0.164849,-0.00546992,0.0760917,0.193892,-0.0345124,0.364612,0.142168,0.039674,1315,1653,15.1343,-15.0694
98,-629,16.2264,13.8927,0.178708,-0.00624513,0.0751394,0.205386,-0.0329233,0.341165,0.149115,0.0400571,1322,1653,16.2264,-13.8927
105,-629,16.9912,13.0487,0.195686,-0.00847351,0.0704407,0.217631,-0.0304186,0.30201,0.156217,0.0449492,1329,1653,16.9912,-13.0487
112,-629,18.3004,12.2195,0,0,0,0,0,0,0,-1,1336,1653,18.3004,-12.2195
119,-629,19.8091,11.2465,0.235882,-0.0142536,0.0578893,0.24863,-0.0270013,0.216749,0.175448,0.0435853,1343,1653,19.8091,-11.2465
126,-629,21.0056,10.2556,0.264974,-0.0211614,0.0489673,0.273122,-0.0293094,0.164884,0.192596,0.0437569,1350,1653,21.0056,-10.2556
133,-629,22.3684,9.10583,0.297299,-0.0267467,0.0412857,0.302476,-0.031924,0.124752,0.213091,0.0475052,1357,1653,22.3684,-9.10586
140,-629,23.9506,7.62073,0.329871,-0.0285727,0.032479,0.33279,-0.0314919,0.0896382,0.233068,0.0470195,1364,1653,23.9506,-7.62076
147,-629,23.7855,10.6184,0,0,0,0,0,0,0,-1,1371,1653,23.7855,-10.6185
154,-629,6.6217,12.814,0,0,0,0,0,0,0,-1,1378,1653,6.62165,-12.8139
161,-629,10.5461,6.83752,0,0,0,0,0,0,0,-1,1385,1653,10.5461,-6.83758
168,-629,12.0059,5.56348,0,0,0,0,0,0,0,-1,1392,1653,12.0059,-5.56352
175,-629,5.84485,-1.78845,0,0,0,0,0,0,0,-1,1399,1653,5.84479,1.7884
182,-629,5.99036,-1.27783,0,0,0,0,0,0,0,-1,1406,1653,5.99041,1.27778
189,-629,5.97668,-0.748535,0,0,0,0,0,0,0,-1,1413,1653,5.97671,0.748544
196,-629,4.52869,9.24695,0,0,0,0,0,0,0,-1,1420,1653,4.52869,-9.2469
203,-629,3.75085,6.88037,0,0,0,0,0,0,0,-1,1427,1653,3.75087,-6.88032
210,-629,3.5907,6.52637,0,0,0,0,0,0,0,-1,1434,1653,3.59067,-6.52642
217,-629,2.4585,4.84448,0,0,0,0,0,0,0,-1,1441,1653,2.45855,-4.84448
224,-629,1.31982,3.68481,0,0,0,0,0,0,0,-1,1448,1653,1.31986,-3.68487
231,-629,3.63025,1.73499,0,0,0,0,0,0,0,-1,1455,1653,3.6303,-1.735
238,-629,4.26428,2.11255,0,0,0,0,0,0,0,-1,1462,1653,4.26429,-2.11253
245,-629,5.61816,1.95361,0,0,0,0,0,0,0,-1,1469,1653,5.61815,-1.95359
252,-629,7.27136,2.18982,0,0,0,0,0,0,0,-1,1476,1653,7.27131,-2.18985
259,-629,8.67334,2.18628,0,0,0,0,0,0,0,-1,1483,1653,8.6733,-2.18633
266,-629,6.86475,3.72058,0,0,0,0,0,0,0,-1,1490,1653,6.86479,-3.72063
273,-629,7.9021,3.8717,0,0,0,0,0,0,0,-1,1497,1653,7.90205,-3.87171
280,-629,9.70837,4.39087,0,0,0,0,0,0,0,-1,1504,1653,9.7084,-4.39082
287,-629,9.82947,7.19348,0,0,0,0,0,0,0,-1,1511,1653,9.8295,-7.19347
294,-629,6.56555,11.6359,0,0,0,0,0,0,0,-1,1518,1653,6.5656,-11.6358
301,-629,6.93835,15.6102,0,0,0,0,0,0,0,-1,1525,1653,6.93835,-15.6103
308,-629,6.08264,12.1423,0,0,0,0,0,0,0,-1,1532,1653,6.08263,-12.1423
315,-629,6.93738,17.1514,0,0,0,0,0,0,0,-1,1539,1653,6.93736,-17.1514
322,-629,6.9657,17.106,0.00253738,0.00388148,0.00618257,0.00942842,-0.00300956,0.839536,0.00749305,0.0478249,1546,1653,6.96571,-17.1059
329,-629,6.92419,17.067,0.00209835,0.0023982,0.00579814,0.00804835,-0.0035518,0.798324,0.00686302,0.0404269,1553,1653,6.92419,-17.067
336,-629,6.90601,16.8436,0.00166665,0.00123025,0.00532495,0.00677787,-0.00388097,0.764921,0.00622918,0.0406187,1560,1653,6.90604,-16.8436
343,-629,6.87781,16.4001,0.000800397,-0.000231841,0.00516175,0.00547177,-0.00490321,0.735569,0.00599299,0.0397417,1567,1653,6.87783,-16.4001
350,-629,6.8783,16.3994,0.000350433,-0.00121547,0.00483889,0.0044693,-0.00533434,0.705191,0.00566748,0.0264011,1574,1653,6.87829,-16.3994
357,-629,6.90442,16.277,-0.000252173,-0.00247151,0.00484804,0.00361157,-0.00633525,0.672891,0.00581413,0.0156894,1581,1653,6.90446,-16.277
364,-629,6.91113,16.1343,-0.000696043,-0.00303119,0.00463893,0.00291999,-0.00664722,0.662114,0.00566163,0.0137135,1588,1653,6.91114,-16.1343
371,-629,6.88599,15.9963,-0.000903832,-0.00338753,0.00447357,0.00249706,-0.00678842,0.650009,0.00554853,0.0107488,1595,1653,6.88593,-15.9964
378,-629,6.87354,15.8309,-0.00118831,-0.00371333,0.00411849,0.00185684,-0.00675848,0.636672,0.00523553,0.00984936,1602,1653,6.87349,-15.8309
385,-629,6.88342,15.6676,-0.0012405,-0.0038483,0.00379011,0.00146373,-0.00655253,0.619726,0.00492925,0.0118703,1609,1653,6.88339,-15.6675
392,-629,6.87659,15.5209,-0.00103369,-0.00373954,0.00337619,0.00125057,-0.0060238,0.594832,0.00449114,0.0106429,1616,1653,6.87664,-15.5208
399,-629,6.86609,15.3494,-0.000782397,-0.00339969,0.00280579,0.00100492,-0.005187,0.56719,0.00383709,0.0107911,1623,1653,6.8661,-15.3494
406,-629,6.87573,15.147,-0.000601785,-0.00315243,0.00221941,0.000682626,-0.00443684,0.524623,0.00320972,0.0141585,1630,1653,6.87573,-15.147
413,-629,6.88306,14.9124,-0.000372995,-0.00299294,0.00170454,0.000466794,-0.00383273,0.457773,0.00272411,0.0227989,1637,1653,6.88309,-14.9124
420,-629,6.86877,14.7429,-0.000129358,-0.00287062,0.00126301,0.000363834,-0.00336381,0.37228,0.00237313,0.0215457,1644,1653,6.86881,-14.7429
427,-629,6.90186,14.5809,1.75197e-05,-0.00293633,0.000904767,0.00027262,-0.00319143,0.274817,0.00222407,0.0137407,1651,1653,6.90183,-14.581
434,-629,6.90527,14.3877,-6.08003e-05,-0.00290505,0.00055103,4.2222e-05,-0.00300807,0.184829,0.0020196,0.0104756,1658,1653,6.90532,-14.3877
441,-629,6.901,14.1841,-0.000296194,-0.00272639,0.000481444,-0.000204291,-0.00281829,0.188621,0.0018146,0.013971,1665,1653,6.90098,-14.184
448,-629,6.88306,13.9802,-0.000545178,-0.00261266,0.000657011,-0.000354058,-0.00280378,0.283081,0.00176306,0.0134407,1672,1653,6.88311,-13.9802
455,-629,6.87561,13.7773,-0.000895635,-0.00254651,0.00094187,-0.000468689,-0.00297346,0.425592,0.00184602,0.0128855,1679,1653,6.87567,-13.7774
462,-629,6.89771,13.6045,-0.00130236,-0.00251446,0.00139064,-0.000391447,-0.00342537,0.579903,0.00216492,0.0178114,1686,1653,6.89771,-13.6045
469,-629,6.87878,13.3663,-0.00166653,-0.00235662,0.0019179,-6.28821e-05,-0.00396027,0.696396,0.00261947,0.0210219,1693,1653,6.87873,-13.3664
476,-629,6.98438,13.2206,-0.00180814,-0.00206411,0.00244475,0.000511971,-0.00438423,0.759247,0.00310756,0.026709,1700,1653,6.98439,-13.2206
483,-629,6.9469,12.9324,-0.00187766,-0.00189976,0.00303456,0.00114586,-0.00492329,0.783577,0.00372339,0.040809,1707,1653,6.94693,-12.9324
490,-629,6.72034,12.4646,-0.00166431,-0.00132197,0.0034254,0.00193653,-0.00492281,0.810363,0.00408343,0.0450336,1714,1653,6.72031,-12.4646
497,-629,6.77002,12.4204,-0.00114123,-0.000254864,0.00411815,0.00344388,-0.00483997,0.839,0.00480527,0.045015,1721,1653,6.77002,-12.4204
504,-629,6.76587,12.5562,0,0,0,0,0,0,0,-1,1728,1653,6.76583,-12.5561
511,-629,6.29138,3.40295,0,0,0,0,0,0,0,-1,1735,1653,6.29137,-3.403
518,-629,5.84387,1.41858,0,0,0,0,0,0,0,-1,1742,1653,5.84391,-1.4186
525,-629,6.4729,1.02319,0,0,0,0,0,0,0,-1,1749,1653,6.47284,-1.02316
532,-629,6.86511,0.903687,0,0,0,0,0,0,0,-1,1756,1653,6.86514,-0.903691
539,-629,6.60803,0.746704,0,0,0,0,0,0,0,-1,1763,1653,6.60809,-0.746691
546,-629,0,0,0,0,0,0,0,0,0,-1,1770,1653,0,0
553,-629,0,0,0,0,0,0,0,0,0,-1,1777,1653,0,0
560,-629,0,0,0,0,0,0,0,0,0,-1,1784,1653,0,0
567,-629,0,0,0,0,0,0,0,0,0,-1,1791,1653,0,0
574,-629,0,0,0,0,0,0,0,0,0,-1,1798,1653,0,0
581,-629,0,0,0,0,0,0,0,0,0,-1,1805,1653,0,0
588,-629,0,0,0,0,0,0,0,0,0,-1,1812,1653,0,0
595,-629,0,0,0,0,0,0,0,0,0,-1,1819,1653,0,0
602,-629,0,0,0,0,0,0,0,0,0,-1,1826,1653,0,0
609,-629,0,0,0,0,0,0,0,0,0,-1,1833,1653,0,0
616,-629,0,0,0,0,0,0,0,0,0,-1,1840,1653,0,0
623,-629,0,0,0,0,0,0,0,0,0,-1,1847,1653,0,0
630,-629,0,0,0,0,0,0,0,0,0,-1,1854,1653,0,0
637,-629,0,0,0,0,0,0,0,0,0,-1,1861,1653,0,0
644,-629,0,0,0,0,0,0,0,0,0,-1,1868,1653,0,0
651,-629,0,0,0,0,0,0,0,0,0,-1,1875,1653,0,0
658,-629,0,0,0,0,0,0,0,0,0,-1,1882,1653,0,0
665,-629,0,0,0,0,0,0,0,0,0,-1,1889,1653,0,0
672,-629,0,0,0,0,0,0,0,0,0,-1,1896,1653,0,0
679,-629,0,0,0,0,0,0,0,0,0,-1,1903,1653,0,0
686,-629,0,0,0,0,0,0,0,0,0,-1,1910,1653,0,0
693,-629,0,0,0,0,0,0,0,0,0,-1,1917,1653,0,0
700,-629,0,0,0,0,0,0,0,0,0,-1,1924,1653,0,0
707,-629,0,0,0,0,0,0,0,0,0,-1,1931,1653,0,0
714,-629,0,0,0,0,0,0,0,0,0,-1,1938,1653,0,0
721,-629,0,0,0,0,0,0,0,0,0,-1,1945,1653,0,0
728,-629,0,0,0,0,0,0,0,0,0,-1,1952,1653,0,0
735,-629,0,0,0,0,0,0,0,0,0,-1,1959,1653,0,0
742,-629,0,0,0,0,0,0,0,0,0,-1,1966,1653,0,0
749,-629,0,0,0,0,0,0,0,0,0,-1,1973,1653,0,0
756,-629,0,0,0,0,0,0,0,0,0,-1,1980,1653,0,0
763,-629,0,0,0,0,0,0,0,0,0,-1,1987,1653,0,0
770,-629,0,0,0,0,0,0,0,0,0,-1,1994,1653,0,0
777,-629,0,0,0,0,0,0,0,0,0,-1,2001,1653,0,0
784,-629,0,0,0,0,0,0,0,0,0,-1,2008,1653,0,0
791,-629,0,0,0,0,0,0,0,0,0,-1,2015,1653,0,0
798,-629,0,0,0,0,0,0,0,0,0,-1,2022,1653,0,0
805,-629,0,0,0,0,0,0,0,0,0,-1,2029,1653,0,0
812,-629,0,0,0,0,0,0,0,0,0,-1,2036,1653,0,0
-700,-636,0,0,0,0,0,0,0,0,0,-1,524,1660,0,0
-693,-636,0,0,0,0,0,0,0,0,0,-1,531,1660,0,0
-686,-636,0,0,0,0,0,0,0,0,0,-1,538,1660,0,0
-679,-636,0,0,0,0,0,0,0,0,0,-1,545,1660,0,0
-672,-636,0,0,0,0,0,0,0,0,0,-1,552,1660,0,0
-665,-636,0,0,0,0,0,0,0,0,0,-1,559,1660,0,0
-658,-636,0,0,0,0,0,0,0,0,0,-1,566,1660,0,0
-651,-636,0,0,0,0,0,0,0,0,0,-1,573,1660,0,0
-644,-636,0,0,0,0,0,0,0,0,0,-1,580,1660,0,0
-637,-636,0,0,0,0,0,0,0,0,0,-1,587,1660,0,0
-630,-636,0,0,0,0,0,0,0,0,0,-1,594,1660,0,0
-623,-636,0,0,0,0,0,0,0,0,0,-1,601,1660,0,0
-616,-636,0,0,0,0,0,0,0,0,0,-1,608,1660,0,0
-609,-636,0,0,0,0,0,0,0,0,0,-1,615,1660,0,0
-602,-636,0,0,0,0,0,0,0,0,0,-1,622,1660,0,0
-595,-636,0,0,0,0,0,0,0,0,0,-1,629,1660,0,0
-588,-636,0,0,0,0,0,0,0,0,0,-1,636,1660,0,0
-581,-636,0,0,0,0,0,0,0,0,0,-1,643,1660,0,0
-574,-636,0,0,0,0,0,0,0,0,0,-1,650,1660,0,0
-567,-636,0,0,0,0,0,0,0,0,0,-1,657,1660,0,0
-560,-636,0,0,0,0,0,0,0,0,0,-1,664,1660,0,0
-553,-636,0,0,0,0,0,0,0,0,0,-1,671,1660,0,0
-546,-636,0,0,0,0,0,0,0,0,0,-1,678,1660,0,0
-539,-636,0,0,0,0,0,0,0,0,0,-1,685,1660,0,0
-532,-636,0,0,0,0,0,0,0,0,0,-1,692,1660,0,0
-525,-636,0,0,0,0,0,0,0,0,0,-1,699,1660,0,0
-518,-636,0,0,0,0,0,0,0,0,0,-1,706,1660,0,0
-511,-636,0,0,0,0,0,0,0,0,0,-1,713,1660,0,0
-504,-636,0,0,0,0,0,0,0,0,0,-1,720,1660,0,0
-497,-636,0,0,0,0,0,0,0,0,0,-1,727,1660,0,0
-490,-636,0,0,0,0,0,0,0,0,0,-1,734,1660,0,0
-483,-636,0,0,0,0,0,0,0,0,0,-1,741,1660,0,0
-476,-636,0,0,0,0,0,0,0,0,0,-1,748,1660,0,0
-469,-636,0,0,0,0,0,0,0,0,0,-1,755,1660,0,0
-462,-636,0,0,0,0,0,0,0,0,0,-1,762,1660,0,0
-455,-636,0,0,0,0,0,0,0,0,0,-1,769,1660,0,0
-448,-636,0,0,0,0,0,0,0,0,0,-1,776,1660,0,0
-441,-636,0,0,0,0,0,0,0,0,0,-1,783,1660,0,0
-434,-636,0,0,0,0,0,0,0,0,0,-1,790,1660,0,0
-427,-636,0,0,0,0,0,0,0,0,0,-1,797,1660,0,0
-420,-636,0,0,0,0,0,0,0,0,0,-1,804,1660,0,0
-413,-636,0,0,0,0,0,0,0,0,0,-1,811,1660,0,0
-406,-636,-0.591125,10.6943,0,0,0,0,0,0,0,-1,818,1660,-0.59115,-10.6943
-399,-636,0.0766602,11.2408,0,0,0,0,0,0,0,-1,825,1660,0.076685,-11.2409
-392,-636,0.75946,11.9233,0,0,0,0,0,0,0,-1,832,1660,0.759481,-11.9233
-385,-636,1.68878,12.517,0,0,0,0,0,0,0,-1,839,1660,1.6888,-12.5169
-378,-636,2.22107,13.0013,0,0,0,0,0,0,0,-1,846,1660,2.22107,-13.0014
-371,-636,2.52185,11.9684,0,0,0,0,0,0,0,-1,853,1660,2.52184,-11.9684
-364,-636,2.94617,11.7798,0,0,0,0,0,0,0,-1,860,1660,2.94618,-11.7798
-357,-636,2.08136,11.7552,0,0,0,0,0,0,0,-1,867,1660,2.08138,-11.7553
-350,-636,2.8645,11.7958,0,0,0,0,0,0,0,-1,874,1660,2.86448,-11.7957
-343,-636,2.98035,12.5225,0,0,0,0,0,0,0,-1,881,1660,2.98036,-12.5225
-336,-636,3.10895,12.3531,0.00523413,-0.00559035,0.00227282,0.00569199,-0.00604821,0.198789,0.00677925,0.0373484,888,1660,3.10892,-12.3531
-329,-636,3.21594,12.5359,0.00430074,-0.00434957,0.0015229,0.00456102,-0.00460985,0.169273,0.00529483,0.0172461,895,1660,3.21594,-12.5359
-322,-636,3.21967,12.7429,0.00351333,-0.0031858,0.0012049,0.00372345,-0.00339592,0.172653,0.00411182,0.0110265,902,1660,3.21966,-12.743
-315,-636,3.17279,12.9769,0.00266323,-0.00272376,0.000861549,0.00279766,-0.0028582,0.154789,0.00326547,0.0122546,909,1660,3.17281,-12.9769
-308,-636,3.16821,13.217,0.00175902,-0.0024723,0.000301575,0.0017804,-0.00249369,0.0707952,0.00247907,0.0111587,916,1660,3.16819,-13.217
-301,-636,3.18372,13.4447,0.00129209,-0.00220609,5.6301e-05,0.00129299,-0.00220699,0.0160888,0.00204356,0.010651,923,1660,3.18374,-13.4447
-294,-636,3.17169,13.6586,0.00101682,-0.00208826,-0.000106093,0.00102044,-0.00209188,-0.0341146,0.00183205,0.0134243,930,1660,3.17168,-13.6585
-287,-636,3.16223,13.8724,0.000710237,-0.00199764,-0.000321567,0.0007479,-0.0020353,-0.116592,0.0016632,0.0116235,937,1660,3.16223,-13.8724
-280,-636,3.15594,14.0879,0.000437116,-0.00213933,-0.000559033,0.000553185,-0.0022554,-0.204716,0.00171794,0.0109567,944,1660,3.15593,-14.0879
-273,-636,3.14966,14.2648,0.000263533,-0.00232765,-0.000868297,0.000527588,-0.0025917,-0.29522,0.00192788,0.0112623,951,1660,3.14963,-14.2647
-266,-636,3.15063,14.4603,9.09246e-05,-0.00256061,-0.00114645,0.000517872,-0.00298755,-0.356496,0.00218488,0.0125821,958,1660,3.1506,-14.4603
-259,-636,3.16144,14.6996,-0.00027664,-0.00270923,-0.00143488,0.000388087,-0.00337396,-0.43383,0.0023892,0.0143883,965,1660,3.16146,-14.6996
-252,-636,3.16528,14.8834,-0.000357545,-0.00294554,-0.00188537,0.000635171,-0.00393825,-0.48465,0.00286083,0.0110971,972,1660,3.16529,-14.8834
-245,-636,3.17261,15.0742,-0.000113584,-0.00309882,-0.00200705,0.000895027,-0.00410744,-0.465673,0.00308029,0.0100098,979,1660,3.17259,-15.0742
-238,-636,3.18945,15.2677,-4.99152e-05,-0.00335451,-0.00202437,0.000910865,-0.00431529,-0.443127,0.00322366,0.0108947,986,1660,3.18947,-15.2677
-231,-636,3.18781,15.4534,5.39299e-05,-0.00384371,-0.00211188,0.00097877,-0.00476855,-0.412766,0.00355055,0.0108089,993,1660,3.18782,-15.4534
-224,-636,3.1925,15.6372,0.000190692,-0.00441404,-0.00214279,0.00103355,-0.00525689,-0.374757,0.00389509,0.00899802,1000,1660,3.1925,-15.6373
-217,-636,3.20233,15.8253,0.000558315,-0.00464882,-0.0019762,0.00122338,-0.00531388,-0.324629,0.00401303,0.0112477,1007,1660,3.20231,-15.8253
-210,-636,3.19666,15.9854,0.000977211,-0.00501312,-0.00186475,0.00151026,-0.00554617,-0.278431,0.00429041,0.015825,1014,1660,3.19664,-15.9853
-203,-636,3.20996,16.1456,0.00147174,-0.0058051,-0.00177707,0.00188253,-0.00621589,-0.22717,0.00489366,0.019298,1021,1660,3.20996,-16.1456
-196,-636,3.35291,16.2321,0.00231782,-0.00649188,-0.00167877,0.00262688,-0.00680094,-0.182062,0.00561817,0.021002,1028,1660,3.35289,-16.2321
-189,-636,3.36084,16.4102,0.00327991,-0.00646033,-0.00110627,0.00340398,-0.00658439,-0.111682,0.00586342,0.0238286,1035,1660,3.36087,-16.4101
-182,-636,3.20642,16.2634,0.00330682,-0.00745558,-0.000985995,0.0033964,-0.00754517,-0.0906097,0.00646672,0.0393881,1042,1660,3.20639,-16.2634
-175,-636,3.03967,16.4088,0.00351979,-0.00802482,-0.00100057,0.00360587,-0.00811089,-0.0858172,0.00692935,0.0475652,1049,1660,3.03971,-16.4088
-168,-636,3.24585,17.1387,0,0,0,0,0,0,0,-1,1056,1660,3.24586,-17.1387
-161,-636,3.40063,17.1622,0,0,0,0,0,0,0,-1,1063,1660,3.40064,-17.1623
-154,-636,3.35095,16.7042,0,0,0,0,0,0,0,-1,1070,1660,3.35101,-16.7043
-147,-636,3.06543,16.426,0,0,0,0,0,0,0,-1,1077,1660,3.06543,-16.426
-140,-636,3.19312,16.6512,0,0,0,0,0,0,0,-1,1084,1660,3.19317,-16.6512
-133,-636,2.89587,17.7086,0,0,0,0,0,0,0,-1,1091,1660,2.8959,-17.7087
-126,-636,3.79028,18.2225,0,0,0,0,0,0,0,-1,1098,1660,3.79025,-18.2226
-119,-636,1.8667,13.8916,0,0,0,0,0,0,0,-1,1105,1660,1.86668,-13.8916
-112,-636,-1.24963,9.7998,0,0,0,0,0,0,0,-1,1112,1660,-1.24968,-9.79978
-105,-636,3.51624,4.72791,0,0,0,0,0,0,0,-1,1119,1660,3.51618,-4.7279
-98,-636,1.54504,5.11914,0,0,0,0,0,0,0,-1,1126,1660,1.54503,-5.11912
-91,-636,-1.87964,-2.25012,0,0,0,0,0,0,0,-1,1133,1660,-1.87966,2.25016
-84,-636,-2.84143,0.133667,0,0,0,0,0,0,0,-1,1140,1660,-2.84144,-0.133701
-77,-636,-3.57349,2.45935,0,0,0,0,0,0,0,-1,1147,1660,-3.57345,-2.45939
-70,-636,-4.23682,4.82312,0,0,0,0,0,0,0,-1,1154,1660,-4.23681,-4.82307
-63,-636,-2.21033,6.97168,0,0,0,0,0,0,0,-1,1161,1660,-2.21034,-6.97165
-56,-636,-2.51917,8.80359,0,0,0,0,0,0,0,-1,1168,1660,-2.51916,-8.80361
-49,-636,-3.13,10.4113,0,0,0,0,0,0,0,-1,1175,1660,-3.12996,-10.4112
-42,-636,-2.27771,4.90173,0,0,0,0,0,0,0,-1,1182,1660,-2.27775,-4.90173
-35,-636,-2.27698,5.89685,0,0,0,0,0,0,0,-1,1189,1660,-2.27695,-5.89686
-28,-636,-1.70654,4.83936,0,0,0,0,0,0,0,-1,1196,1660,-1.70656,-4.8393
-21,-636,4.10999,24.0377,0,0,0,0,0,0,0,-1,1203,1660,4.11004,-24.0377
-14,-636,3.52881,12.7482,0,0,0,0,0,0,0,-1,1210,1660,3.5288,-12.7482
-7,-636,4.22583,12.8896,0.160808,-0.175484,0.0232251,0.162404,-0.17708,0.0686281,0.196062,0.0432398,1217,1660,4.22587,-12.8897
0,-636,5.10132,13.0653,0.142748,-0.170123,0.0178423,0.143762,-0.171137,0.0567822,0.182036,0.0443406,1224,1660,5.10137,-13.0653
7,-636,6.05115,13.4686,0.129481,-0.159351,0.0140179,0.13016,-0.160029,0.0483814,0.167837,0.045716,1231,1660,6.05109,-13.4686
14,-636,6.82275,13.666,0.119518,-0.145975,0.0132348,0.120177,-0.146633,0.0496857,0.154295,0.0462843,1238,1660,6.82274,-13.666
21,-636,7.68506,13.6823,0,0,0,0,0,0,0,-1,1245,1660,7.68511,-13.6822
28,-636,9.63684,13.4448,0,0,0,0,0,0,0,-1,1252,1660,9.6368,-13.4448
35,-636,6.7262,19.8361,0,0,0,0,0,0,0,-1,1259,1660,6.72621,-19.8361
42,-636,6.64087,19.1573,0,0,0,0,0,0,0,-1,1266,1660,6.64082,-19.1574
49,-636,6.55542,18.4786,0,0,0,0,0,0,0,-1,1273,1660,6.55543,-18.4787
56,-636,7.94092,17.9581,0.094433,-0.0377672,0.0490744,0.110659,-0.0539928,0.319318,0.0969199,0.0421283,1280,1660,7.9409,-17.9581
63,-636,8.66846,17.6685,0.0987549,-0.0207433,0.0588552,0.122874,-0.0448624,0.388931,0.100273,0.044103,1287,1660,8.66845,-17.6685
70,-636,8.39868,16.9883,0.106364,-0.0087626,0.0664173,0.136691,-0.0390901,0.428346,0.106575,0.0432453,1294,1660,8.39869,-16.9883
77,-636,8.07764,16.3312,0.116542,-0.00961509,0.0683684,0.146486,-0.0395588,0.41281,0.113172,0.0455759,1301,1660,8.0776,-16.3312
84,-636,7.88245,15.7671,0,0,0,0,0,0,0,-1,1308,1660,7.88248,-15.7671
91,-636,14.1189,15.1605,0.150207,-0.00750342,0.0688804,0.176055,-0.0333509,0.358991,0.129921,0.0407412,1315,1660,14.1189,-15.1605
98,-636,15.1896,14.179,0.168072,-0.00895608,0.0698913,0.192339,-0.0332229,0.334186,0.140615,0.0442601,1322,1660,15.1896,-14.179
105,-636,15.4963,13.958,0.188651,-0.0120215,0.0677344,0.209374,-0.0327443,0.2969,0.15168,0.0473019,1329,1660,15.4963,-13.958
112,-636,16.5872,12.9539,0,0,0,0,0,0,0,-1,1336,1660,16.5871,-12.9539
119,-636,18.4297,12.3167,0.235591,-0.0216654,0.0592407,0.248577,-0.0346517,0.2158,0.178394,0.0451047,1343,1660,18.4297,-12.3167
126,-636,19.3738,11.0609,0.263928,-0.0298144,0.0522836,0.272956,-0.0388429,0.170998,0.196204,0.0451222,1350,1660,19.3737,-11.0609
133,-636,20.3347,11.6146,0,0,0,0,0,0,0,-1,1357,1660,20.3347,-11.6146
140,-636,21.6292,11.2875,0,0,0,0,0,0,0,-1,1364,1660,21.6291,-11.2875
147,-636,22.6979,10.3455,0,0,0,0,0,0,0,-1,1371,1660,22.6979,-10.3455
154,-636,23.7037,9.3833,0,0,0,0,0,0,0,-1,1378,1660,23.7037,-9.38335
161,-636,10.2961,7.13025,0,0,0,0,0,0,0,-1,1385,1660,10.2961,-7.13021
168,-636,11.7659,5.83899,0,0,0,0,0,0,0,-1,1392,1660,11.7658,-5.83899
175,-636,5.94592,-1.72888,0,0,0,0,0,0,0,-1,1399,1660,5.94598,1.72886
182,-636,5.93994,-1.11938,0,0,0,0,0,0,0,-1,1406,1660,5.93998,1.11936
189,-636,5.32544,11.9595,0,0,0,0,0,0,0,-1,1413,1660,5.32542,-11.9595
196,-636,5.3623,9.38025,0,0,0,0,0,0,0,-1,1420,1660,5.36225,-9.38027
203,-636,5.18542,9.02429,0,0,0,0,0,0,0,-1,1427,1660,5.18547,-9.0243
210,-636,4.09167,7.17041,0,0,0,0,0,0,0,-1,1434,1660,4.09173,-7.17041
217,-636,2.94897,5.28992,0,0,0,0,0,0,0,-1,1441,1660,2.94899,-5.28991
224,-636,1.49194,3.63916,0,0,0,0,0,0,0,-1,1448,1660,1.49197,-3.63918
231,-636,0.17749,2.24854,0,0,0,0,0,0,0,-1,1455,1660,0.177501,-2.24855
238,-636,-0.764648,1.00598,0,0,0,0,0,0,0,-1,1462,1660,-0.764704,-1.00595
245,-636,6.21204,1.18005,0,0,0,0,0,0,0,-1,1469,1660,6.21206,-1.18001
252,-636,7.70251,0.865723,0,0,0,0,0,0,0,-1,1476,1660,7.7025,-0.865692
259,-636,9.03601,0.787231,0,0,0,0,0,0,0,-1,1483,1660,9.03598,-0.787243
266,-636,10.1071,3.24109,0,0,0,0,0,0,0,-1,1490,1660,10.1071,-3.24103
273,-636,8.48535,5.02466,0,0,0,0,0,0,0,-1,1497,1660,8.48533,-5.02472
280,-636,8.81384,5.66992,0,0,0,0,0,0,0,-1,1504,1660,8.81381,-5.66998
287,-636,6.08606,11.49,0,0,0,0,0,0,0,-1,1511,1660,6.08606,-11.49
294,-636,6.69592,15.9669,0,0,0,0,0,0,0,-1,1518,1660,6.69595,-15.9669
301,-636,6.56079,17.9231,0,0,0,0,0,0,0,-1,1525,1660,6.5608,-17.9231
308,-636,6.98303,17.5568,0,0,0,0,0,0,0,-1,1532,1660,6.98299,-17.5568
315,-636,6.33252,17.097,0,0,0,0,0,0,0,-1,1539,1660,6.33252,-17.097
322,-636,6.51453,16.9028,0.00229046,0.00210936,0.00474948,0.00695026,-0.00255043,0.775867,0.00567791,0.0398601,1546,1660,6.51449,-16.9029
329,-636,6.67273,16.8689,0.00196813,0.0013093,0.00435913,0.00601027,-0.00273284,0.747686,0.0051647,0.0253207,1553,1660,6.67271,-16.8689
336,-636,6.66516,16.7571,0.00163426,0.000692709,0.00392886,0.00512045,-0.00279348,0.72577,0.00463448,0.021301,1560,1660,6.66514,-16.7571
343,-636,6.64673,16.6439,0.00101362,-0.000202107,0.00372864,0.00418362,-0.00337211,0.704596,0.00437068,0.0200331,1567,1660,6.64672,-16.6439
350,-636,6.66333,16.4901,0.000636861,-0.000796044,0.00343978,0.00343401,-0.00359319,0.682724,0.00405751,0.0114167,1574,1660,6.66331,-16.4901
357,-636,6.70251,16.3292,0.000179977,-0.00161451,0.00335499,0.00275563,-0.00419016,0.654738,0.00403856,0.0100973,1581,1660,6.70248,-16.3293
364,-636,6.72559,16.1559,-0.000150335,-0.00198255,0.00312701,0.002192,-0.00432488,0.642903,0.00382911,0.0108397,1588,1660,6.72559,-16.1559
371,-636,6.70471,16.0027,-0.00035355,-0.00216378,0.00295538,0.00183221,-0.00434954,0.636804,0.00366635,0.00927075,1595,1660,6.7047,-16.0027
378,-636,6.71118,15.8262,-0.000533927,-0.00236056,0.00263306,0.00133972,-0.00423421,0.618459,0.00335963,0.00934697,1602,1660,6.71121,-15.8261
385,-636,6.71729,15.653,-0.00044323,-0.00247909,0.00229863,0.00105278,-0.00397509,0.576956,0.00306192,0.014764,1609,1660,6.71722,-15.653
392,-636,6.70447,15.4926,-0.000147702,-0.00250591,0.00184105,0.000859459,-0.00351307,0.500581,0.00267496,0.0159773,1616,1660,6.70446,-15.4926
399,-636,6.69727,15.335,9.68421e-05,-0.00233996,0.00130033,0.000660397,-0.00290352,0.408958,0.00218927,0.0117227,1623,1660,6.69727,-15.3349
406,-636,6.71631,15.1556,0.000202411,-0.0022336,0.000814039,0.000449396,-0.00248058,0.294579,0.00182209,0.0143788,1630,1660,6.71631,-15.1557
413,-636,6.73206,14.9058,0.000409188,-0.00225073,0.000384803,0.000463738,-0.00230528,0.140822,0.00171249,0.0225575,1637,1660,6.73204,-14.9058
420,-636,6.7002,14.7161,0.000622194,-0.00241114,7.08648e-05,0.000623849,-0.00241279,0.023345,0.00185184,0.0216444,1644,1660,6.70021,-14.716
427,-636,6.70325,14.576,0.000713759,-0.00281334,-0.000141994,0.000719466,-0.00281905,-0.0401714,0.00215951,0.0127504,1651,1660,6.70321,-14.5761
434,-636,6.71167,14.3969,0.000522946,-0.00316014,-0.000307353,0.000548418,-0.00318561,-0.0826878,0.00232818,0.010937,1658,1660,6.71172,-14.3969
441,-636,6.7229,14.1805,0.000120128,-0.00331671,-0.000154663,0.000127075,-0.00332366,-0.0448805,0.00225932,0.011462,1665,1660,6.72288,-14.1806
448,-636,6.72925,13.9733,-0.000362272,-0.00358373,0.000318914,-0.000331004,-0.003615,0.0977328,0.00230759,0.0131715,1672,1660,6.72927,-13.9733
455,-636,6.73804,13.7671,-0.000930015,-0.00389308,0.000935413,-0.000659425,-0.00416367,0.281588,0.00258417,0.0140833,1679,1660,6.73809,-13.7671
462,-636,6.70752,13.5564,-0.00159823,-0.0042568,0.00180888,-0.000682732,-0.0051723,0.468525,0.00324465,0.0193633,1686,1660,6.70757,-13.5564
469,-636,6.72083,13.3823,-0.00225418,-0.0044105,0.00280272,-0.000329389,-0.00633529,0.601782,0.00411812,0.0300582,1693,1660,6.72079,-13.3823
476,-636,6.78516,13.486,-0.00264869,-0.00408337,0.00375535,0.000457223,-0.00718928,0.691026,0.0049523,0.0417307,1700,1660,6.78515,-13.486
483,-636,6.81262,12.9385,0,0,0,0,0,0,0,-1,1707,1660,6.81263,-12.9385
490,-636,6.41797,12.2748,0,0,0,0,0,0,0,-1,1714,1660,6.41795,-12.2748
497,-636,6.55469,12.1387,0,0,0,0,0,0,0,-1,1721,1660,6.55469,-12.1387
504,-636,5.95276,11.8416,0,0,0,0,0,0,0,-1,1728,1660,5.95275,-11.8416
511,-636,5.65466,9.23218,0,0,0,0,0,0,0,-1,1735,1660,5.65461,-9.23216
518,-636,6.72791,1.07605,0,0,0,0,0,0,0,-1,1742,1660,6.7279,-1.0761
525,-636,7.04309,0.93335,0,0,0,0,0,0,0,-1,1749,1660,7.04308,-0.933298
532,-636,0,0,0,0,0,0,0,0,0,-1,1756,1660,0,0
539,-636,0,0,0,0,0,0,0,0,0,-1,1763,1660,0,0
546,-636,0,0,0,0,0,0,0,0,0,-1,1770,1660,0,0
553,-636,0,0,0,0,0,0,0,0,0,-1,1777,1660,0,0
560,-636,0,0,0,0,0,0,0,0,0,-1,1784,1660,0,0
567,-636,0,0,0,0,0,0,0,0,0,-1,1791,1660,0,0
574,-636,0,0,0,0,0,0,0,0,0,-1,1798,1660,0,0
581,-636,0,0,0,0,0,0,0,0,0,-1,1805,1660,0,0
588,-636,0,0,0,0,0,0,0,0,0,-1,1812,1660,0,0
595,-636,0,0,0,0,0,0,0,0,0,-1,1819,1660,0,0
602,-636,0,0,0,0,0,0,0,0,0,-1,1826,1660,0,0
609,-636,0,0,0,0,0,0,0,0,0,-1,1833,1660,0,0
616,-636,0,0,0,0,0,0,0,0,0,-1,1840,1660,0,0
623,-636,0,0,0,0,0,0,0,0,0,-1,1847,1660,0,0
630,-636,0,0,0,0,0,0,0,0,0,-1,1854,1660,0,0
637,-636,0,0,0,0,0,0,0,0,0,-1,1861,1660,0,0
644,-636,0,0,0,0,0,0,0,0,0,-1,1868,1660,0,0
651,-636,0,0,0,0,0,0,0,0,0,-1,1875,1660,0,0
658,-636,0,0,0,0,0,0,0,0,0,-1,1882,1660,0,0
665,-636,0,0,0,0,0,0,0,0,0,-1,1889,1660,0,0
672,-636,0,0,0,0,0,0,0,0,0,-1,1896,1660,0,0
679,-636,0,0,0,0,0,0,0,0,0,-1,1903,1660,0,0
686,-636,0,0,0,0,0,0,0,0,0,-1,1910,1660,0,0
693,-636,0,0,0,0,0,0,0,0,0,-1,1917,1660,0,0
700,-636,0,0,0,0,0,0,0,0,0,-1,1924,1660,0,0
707,-636,0,0,0,0,0,0,0,0,0,-1,1931,1660,0,0
714,-636,0,0,0,0,0,0,0,0,0,-1,1938,1660,0,0
721,-636,0,0,0,0,0,0,0,0,0,-1,1945,1660,0,0
728,-636,0,0,0,0,0,0,0,0,0,-1,1952,1660,0,0
735,-636,0,0,0,0,0,0,0,0,0,-1,1959,1660,0,0
742,-636,0,0,0,0,0,0,0,0,0,-1,1966,1660,0,0
749,-636,0,0,0,0,0,0,0,0,0,-1,1973,1660,0,0
756,-636,0,0,0,0,0,0,0,0,0,-1,1980,1660,0,0
763,-636,0,0,0,0,0,0,0,0,0,-1,1987,1660,0,0
770,-636,0,0,0,0,0,0,0,0,0,-1,1994,1660,0,0
777,-636,0,0,0,0,0,0,0,0,0,-1,2001,1660,0,0
784,-636,0,0,0,0,0,0,0,0,0,-1,2008,1660,0,0
791,-636,0,0,0,0,0,0,0,0,0,-1,2015,1660,0,0
798,-636,0,0,0,0,0,0,0,0,0,-1,2022,1660,0,0
805,-636,0,0,0,0,0,0,0,0,0,-1,2029,1660,0,0
812,-636,0,0,0,0,0,0,0,0,0,-1,2036,1660,0,0
-700,-643,0,0,0,0,0,0,0,0,0,-1,524,1667,0,0
-693,-643,0,0,0,0,0,0,0,0,0,-1,531,1667,0,0
-686,-643,0,0,0,0,0,0,0,0,0,-1,538,1667,0,0
-679,-643,0,0,0,0,0,0,0,0,0,-1,545,1667,0,0
-672,-643,0,0,0,0,0,0,0,0,0,-1,552,1667,0,0
-665,-643,0,0,0,0,0,0,0,0,0,-1,559,1667,0,0
-658,-643,0,0,0,0,0,0,0,0,0,-1,566,1667,0,0
-651,-643,0,0,0,0,0,0,0,0,0,-1,573,1667,0,0
-644,-643,0,0,0,0,0,0,0,0,0,-1,580,1667,0,0
-637,-643,0,0,0,0,0,0,0,0,0,-1,587,1667,0,0
-630,-643,0,0,0,0,0,0,0,0,0,-1,594,1667,0,0
-623,-643,0,0,0,0,0,0,0,0,0,-1,601,1667,0,0
-616,-643,0,0,0,0,0,0,0,0,0,-1,608,1667,0,0
-609,-643,0,0,0,0,0,0,0,0,0,-1,615,1667,0,0
-602,-643,0,0,0,0,0,0,0,0,0,-1,622,1667,0,0
-595,-643,0,0,0,0,0,0,0,0,0,-1,629,1667,0,0
-588,-643,0,0,0,0,0,0,0,0,0,-1,636,1667,0,0
-581,-643,0,0,0,0,0,0,0,0,0,-1,643,1667,0,0
-574,-643,0,0,0,0,0,0,0,0,0,-1,650,1667,0,0
-567,-643,0,0,0,0,0,0,0,0,0,-1,657,1667,0,0
-560,-643,0,0,0,0,0,0,0,0,0,-1,664,1667,0,0
-553,-643,0,0,0,0,0,0,0,0,0,-1,671,1667,0,0
-546,-643,0,0,0,0,0,0,0,0,0,-1,678,1667,0,0
-539,-643,0,0,0,0,0,0,0,0,0,-1,685,1667,0,0
-532,-643,0,0,0,0,0,0,0,0,0,-1,692,1667,0,0
-525,-643,0,0,0,0,0,0,0,0,0,-1,699,1667,0,0
-518,-643,0,0,0,0,0,0,0,0,0,-1,706,1667,0,0
-511,-643,0,0,0,0,0,0,0,0,0,-1,713,1667,0,0
-504,-643,0,0,0,0,0,0,0,0,0,-1,720,1667,0,0
-497,-643,0,0,0,0,0,0,0,0,0,-1,727,1667,0,0
-490,-643,0,0,0,0,0,0,0,0,0,-1,734,1667,0,0
-483,-643,0,0,0,0,0,0,0,0,0,-1,741,1667,0,0
-476,-643,0,0,0,0,0,0,0,0,0,-1,748,1667,0,0
-469,-643,0,0,0,0,0,0,0,0,0,-1,755,1667,0,0
-462,-643,0,0,0,0,0,0,0,0,0,-1,762,1667,0,0
-455,-643,0,0,0,0,0,0,0,0,0,-1,769,1667,0,0
-448,-643,0,0,0,0,0,0,0,0,0,-1,776,1667,0,0
-441,-643,0,0,0,0,0,0,0,0,0,-1,783,1667,0,0
-434,-643,0,0,0,0,0,0,0,0,0,-1,790,1667,0,0
-427,-643,0,0,0,0,0,0,0,0,0,-1,797,1667,0,0
-420,-643,0,0,0,0,0,0,0,0,0,-1,804,1667,0,0
-413,-643,0,0,0,0,0,0,0,0,0,-1,811,1667,0,0
-406,-643,0,0,0,0,0,0,0,0,0,-1,818,1667,0,0
-399,-643,0.589417,11.6465,0,0,0,0,0,0,0,-1,825,1667,0.58939,-11.6465
-392,-643,0.865295,12.6523,0,0,0,0,0,0,0,-1,832,1667,0.865315,-12.6523
-385,-643,1.72968,13.2692,0,0,0,0,0,0,0,-1,839,1667,1.72967,-13.2692
-378,-643,2.66522,13.8193,0,0,0,0,0,0,0,-1,846,1667,2.66524,-13.8193
-371,-643,0.5849,3.26428,0,0,0,0,0,0,0,-1,853,1667,0.584909,-3.26426
-364,-643,1.69513,9.922,0,0,0,0,0,0,0,-1,860,1667,1.69511,-9.92205
-357,-643,1.14227,10.8429,0,0,0,0,0,0,0,-1,867,1667,1.14228,-10.8429
-350,-643,2.50061,9.96948,0,0,0,0,0,0,0,-1,874,1667,2.50059,-9.96954
-343,-643,2.61505,6.17407,0,0,0,0,0,0,0,-1,881,1667,2.61504,-6.17412
-336,-643,3.2973,12.3634,0,0,0,0,0,0,0,-1,888,1667,3.2973,-12.3634
-329,-643,3.36255,12.5294,0.0049194,-0.00514518,0.00129699,0.00508385,-0.00530964,0.126122,0.00600115,0.0365291,895,1667,3.36255,-12.5295
-322,-643,3.44653,12.7578,0.00390108,-0.0039447,0.00095363,0.00401533,-0.00405894,0.119234,0.00466171,0.02545,902,1667,3.44653,-12.7578
-315,-643,3.36768,12.9821,0.00298042,-0.00334632,0.000738248,0.00306542,-0.00343132,0.114635,0.00375288,0.0174457,909,1667,3.3677,-12.982
-308,-643,3.37634,13.2147,0.00205378,-0.00293266,0.000339787,0.00207683,-0.0029557,0.067725,0.00292027,0.0123428,916,1667,3.37632,-13.2147
-301,-643,3.3963,13.4458,0.00166384,-0.0024537,0.000277953,0.00168252,-0.00247238,0.0670988,0.00241324,0.0133375,923,1667,3.39632,-13.4457
-294,-643,3.37463,13.6343,0.00150455,-0.00204038,0.000321022,0.00153339,-0.00206921,0.089587,0.00208762,0.0126457,930,1667,3.37462,-13.6342
-287,-643,3.36456,13.8472,0.00123356,-0.00171286,0.000267739,0.00125769,-0.00173699,0.0898884,0.00173634,0.0102573,937,1667,3.36455,-13.8471
-280,-643,3.36884,14.0675,0.000958243,-0.00160866,0.000147046,0.000966639,-0.00161705,0.0570367,0.00150737,0.013182,944,1667,3.36883,-14.0675
-273,-643,3.36725,14.2753,0.000770805,-0.00157749,-6.83833e-05,0.000772794,-0.00157948,-0.0290876,0.00138445,0.0117254,951,1667,3.36722,-14.2753
-266,-643,3.34344,14.465,0.000611306,-0.00160359,-0.000287199,0.00064794,-0.00164022,-0.126872,0.00136185,0.012038,958,1667,3.34341,-14.4649
-259,-643,3.3443,14.6803,0.000296348,-0.00159975,-0.000511094,0.000425339,-0.00172874,-0.247218,0.00131737,0.0119377,965,1667,3.34428,-14.6803
-252,-643,3.36353,14.8826,0.000175806,-0.00175502,-0.00086332,0.000505516,-0.00208473,-0.364814,0.00158542,0.0129538,972,1667,3.36352,-14.8826
-245,-643,3.37616,15.0756,0.000287127,-0.00178527,-0.00104372,0.00072166,-0.0022198,-0.394506,0.00177016,0.0113684,979,1667,3.37613,-15.0756
-238,-643,3.40784,15.2653,0.000270252,-0.0019543,-0.00116997,0.000772281,-0.00245633,-0.405336,0.00194673,0.0144479,986,1667,3.40785,-15.2652
-231,-643,3.37976,15.4496,0.000295293,-0.00243245,-0.00129806,0.000814267,-0.00295142,-0.38034,0.00228786,0.0112966,993,1667,3.37978,-15.4496
-224,-643,3.37189,15.6055,0.000367547,-0.00303191,-0.00141437,0.000879046,-0.00354341,-0.34701,0.00270335,0.00964972,1000,1667,3.37187,-15.6055
-217,-643,3.37921,15.7562,0.000609772,-0.00336583,-0.00139936,0.00105293,-0.00380899,-0.306694,0.00295354,0.00864111,1007,1667,3.37924,-15.7562
-210,-643,3.38025,15.965,0.000963552,-0.00373346,-0.00138945,0.00134379,-0.0041137,-0.267121,0.00328338,0.0107609,1014,1667,3.38026,-15.965
-203,-643,3.39661,16.1727,0.00137167,-0.00445102,-0.0014058,0.00169331,-0.00477266,-0.224924,0.00387167,0.0123199,1021,1667,3.39665,-16.1727
-196,-643,3.41699,16.3289,0.0020085,-0.00508646,-0.00137951,0.00226729,-0.00534525,-0.185438,0.00451326,0.0121419,1028,1667,3.41694,-16.3289
-189,-643,3.46265,16.4792,0.00267494,-0.00517778,-0.000998515,0.00279991,-0.00530276,-0.124516,0.00475189,0.0123498,1035,1667,3.4627,-16.4792
-182,-643,3.47827,16.6046,0.0027117,-0.00586549,-0.000947846,0.0028152,-0.00596899,-0.108759,0.00517936,0.0203093,1042,1667,3.47831,-16.6046
-175,-643,3.43042,16.723,0.00296366,-0.00625476,-0.000932601,0.00305706,-0.00634816,-0.0998195,0.00553981,0.0343649,1049,1667,3.43037,-16.7231
-168,-643,3.44324,17.0033,0.00341476,-0.00660539,-0.00073664,0.00346863,-0.00665926,-0.0729928,0.00594327,0.0408736,1056,1667,3.44321,-17.0033
-161,-643,3.53809,17.115,0.00410015,-0.00659143,-0.000434133,0.00411774,-0.00660903,-0.0405162,0.00624854,0.045113,1063,1667,3.53807,-17.115
-154,-643,3.64392,16.95,0.00509296,-0.00649748,0.000172226,0.00509552,-0.00650004,0.014855,0.00671105,0.0463729,1070,1667,3.6439,-16.95
-147,-643,3.60364,17.219,0,0,0,0,0,0,0,-1,1077,1667,3.60369,-17.219
-140,-643,4.09937,17.8256,0,0,0,0,0,0,0,-1,1084,1667,4.09938,-17.8255
-133,-643,3.74841,17.6085,0,0,0,0,0,0,0,-1,1091,1667,3.74841,-17.6085
-126,-643,3.13904,17.689,0,0,0,0,0,0,0,-1,1098,1667,3.13909,-17.689
-119,-643,3.76282,14.1458,0,0,0,0,0,0,0,-1,1105,1667,3.76283,-14.1458
-112,-643,3.81458,16.2069,0,0,0,0,0,0,0,-1,1112,1667,3.81463,-16.2069
-105,-643,-2.23413,10.0996,0,0,0,0,0,0,0,-1,1119,1667,-2.23415,-10.0996
-98,-643,3.11035,4.68066,0,0,0,0,0,0,0,-1,1126,1667,3.11041,-4.68071
-91,-643,-1.74146,-2.5885,0,0,0,0,0,0,0,-1,1133,1667,-1.74146,2.58856
-84,-643,-3.07446,-0.199341,0,0,0,0,0,0,0,-1,1140,1667,-3.07449,0.199383
-77,-643,-3.63794,2.81165,0,0,0,0,0,0,0,-1,1147,1667,-3.63791,-2.8117
-70,-643,-3.36938,4.45203,0,0,0,0,0,0,0,-1,1154,1667,-3.36941,-4.452
-63,-643,-3.67822,6.26855,0,0,0,0,0,0,0,-1,1161,1667,-3.67823,-6.26856
-56,-643,-3.95142,8.1073,0,0,0,0,0,0,0,-1,1168,1667,-3.95139,-8.10732
-49,-643,-4.23535,9.90552,0,0,0,0,0,0,0,-1,1175,1667,-4.23537,-9.90557
-42,-643,-4.25195,10.7059,0,0,0,0,0,0,0,-1,1182,1667,-4.25192,-10.706
-35,-643,-4.10986,11.6588,0,0,0,0,0,0,0,-1,1189,1667,-4.10982,-11.6589
-28,-643,-1.38513,5.604,0,0,0,0,0,0,0,-1,1196,1667,-1.3851,-5.60403
-21,-643,3.97473,18.9484,0,0,0,0,0,0,0,-1,1203,1667,3.97472,-18.9483
-14,-643,3.69873,14.0221,0,0,0,0,0,0,0,-1,1210,1667,3.69878,-14.0221
-7,-643,4.33044,14.2739,0,0,0,0,0,0,0,-1,1217,1667,4.33038,-14.274
0,-643,5.29358,14.9465,0,0,0,0,0,0,0,-1,1224,1667,5.29359,-14.9466
7,-643,6.03198,14.9906,0.111052,-0.133892,0.019076,0.112529,-0.135369,0.0772583,0.143326,0.041011,1231,1667,6.03193,-14.9907
14,-643,6.91821,15.4697,0.100176,-0.122168,0.0175817,0.101558,-0.123549,0.0784246,0.130172,0.0442241,1238,1667,6.91827,-15.4697
21,-643,8.83679,18.9913,0.0904363,-0.107864,0.0186924,0.0921829,-0.10961,0.0931698,0.11665,0.0470782,1245,1667,8.83682,-18.9913
28,-643,6.81848,20.755,0,0,0,0,0,0,0,-1,1252,1667,6.81843,-20.7549
35,-643,6.70837,19.9789,0.0749625,-0.0740718,0.0281101,0.0800882,-0.0791975,0.180362,0.0919641,0.0425842,1259,1667,6.70838,-19.9788
42,-643,6.69006,19.2645,0.071517,-0.060012,0.0314682,0.078658,-0.0671531,0.223149,0.0842714,0.0439922,1266,1667,6.69003,-19.2646
49,-643,6.7356,18.7986,0.0707436,-0.0457761,0.035505,0.0807099,-0.0557425,0.273661,0.0792192,0.042988,1273,1667,6.73563,-18.7985
56,-643,7.32141,18.1803,0.0706372,-0.0322048,0.0407725,0.0848403,-0.0464078,0.335203,0.0768514,0.0442773,1280,1667,7.32143,-18.1804
63,-643,7.81079,17.8401,0.0759334,-0.0180178,0.0493102,0.0970621,-0.0391466,0.40482,0.0809751,0.043657,1287,1667,7.81077,-17.8401
70,-643,7.88562,17.3695,0.0855067,-0.0082445,0.0561184,0.111752,-0.0344893,0.43745,0.0882727,0.0456583,1294,1667,7.88568,-17.3696
77,-643,8.14844,16.9414,0,0,0,0,0,0,0,-1,1301,1667,8.1484,-16.9414
84,-643,11.7078,16.6031,0,0,0,0,0,0,0,-1,1308,1667,11.7078,-16.6031
91,-643,12.8198,15.3699,0.132436,-0.00894924,0.0611579,0.155219,-0.0317325,0.356605,0.115519,0.0474439,1315,1667,12.8198,-15.3699
98,-643,13.9227,14.2073,0.151554,-0.0109887,0.0630436,0.17314,-0.0325742,0.329879,0.127677,0.0473341,1322,1667,13.9227,-14.2073
105,-643,15.1578,12.8074,0.173279,-0.0146324,0.0623462,0.192083,-0.0334363,0.292928,0.140533,0.0460129,1329,1667,15.1578,-12.8074
112,-643,16.1735,11.5081,0.195665,-0.0191488,0.0605127,0.211538,-0.0350222,0.256535,0.154033,0.044777,1336,1667,16.1734,-11.508
119,-643,17.2394,13.1718,0.220748,-0.0258169,0.0567216,0.233171,-0.0382397,0.215608,0.169637,0.0442181,1343,1667,17.2394,-13.1717
126,-643,18.5283,12.3785,0.245765,-0.0335517,0.0514105,0.254927,-0.0427137,0.176361,0.185833,0.0414661,1350,1667,18.5284,-12.3786
133,-643,19.5231,11.6583,0.267066,-0.0384332,0.0460193,0.273848,-0.0452148,0.146312,0.199353,0.049106,1357,1667,19.5231,-11.6583
140,-643,20.5111,11.046,0,0,0,0,0,0,0,-1,1364,1667,20.5111,-11.046
147,-643,21.5925,10.0923,0,0,0,0,0,0,0,-1,1371,1667,21.5926,-10.0923
154,-643,22.6227,9.13916,0,0,0,0,0,0,0,-1,1378,1667,22.6227,-9.1392
161,-643,18.7611,11.0951,0,0,0,0,0,0,0,-1,1385,1667,18.7611,-11.0951
168,-643,10.5563,10.9818,0,0,0,0,0,0,0,-1,1392,1667,10.5562,-10.9819
175,-643,5.88525,-1.1698,0,0,0,0,0,0,0,-1,1399,1667,5.88526,1.16977
182,-643,5.80945,-0.418701,0,0,0,0,0,0,0,-1,1406,1667,5.80949,0.418712
189,-643,5.42297,12.9208,0,0,0,0,0,0,0,-1,1413,1667,5.42298,-12.9208
196,-643,5.51953,11.2415,0,0,0,0,0,0,0,-1,1420,1667,5.51948,-11.2414
203,-643,5.60828,9.82153,0,0,0,0,0,0,0,-1,1427,1667,5.60833,-9.82148
210,-643,4.73218,7.58728,0,0,0,0,0,0,0,-1,1434,1667,4.73222,-7.58728
217,-643,3.8031,5.28955,0,0,0,0,0,0,0,-1,1441,1667,3.80305,-5.28955
224,-643,2.96436,2.97095,0,0,0,0,0,0,0,-1,1448,1667,2.96432,-2.97095
231,-643,2.13403,1.08472,0,0,0,0,0,0,0,-1,1455,1667,2.13403,-1.08467
238,-643,1.18152,-0.261963,0,0,0,0,0,0,0,-1,1462,1667,1.18152,0.26192
245,-643,-0.157471,-1.79016,0,0,0,0,0,0,0,-1,1469,1667,-0.157517,1.7901
252,-643,8.08789,0.0202637,0,0,0,0,0,0,0,-1,1476,1667,8.08791,-0.0203056
259,-643,9.02979,-0.46936,0,0,0,0,0,0,0,-1,1483,1667,9.02974,0.46933
266,-643,4.55066,5.17554,0,0,0,0,0,0,0,-1,1490,1667,4.55063,-5.17556
273,-643,4.34363,6.56836,0,0,0,0,0,0,0,-1,1497,1667,4.34363,-6.5684
280,-643,5.75854,14.5217,0,0,0,0,0,0,0,-1,1504,1667,5.75854,-14.5218
287,-643,6.44958,17.9183,0,0,0,0,0,0,0,-1,1511,1667,6.44963,-17.9184
294,-643,6.41833,17.7008,0,0,0,0,0,0,0,-1,1518,1667,6.41836,-17.7008
301,-643,6.4552,17.5513,0.00251272,0.00142236,0.00512521,0.00712166,-0.00318659,0.732411,0.0060943,0.0420836,1525,1667,6.45516,-17.5513
308,-643,6.59314,17.324,0.00238163,0.00155051,0.00459741,0.00658223,-0.00265009,0.740326,0.00548906,0.0411144,1532,1667,6.59316,-17.324
315,-643,6.42786,17.1772,0.00220695,0.00133973,0.00408175,0.00587806,-0.00233138,0.732481,0.00488494,0.032738,1539,1667,6.42781,-17.1772
322,-643,6.44836,17.0386,0.00200774,0.00108134,0.00356671,0.0051412,-0.00205212,0.720826,0.00427881,0.0162001,1546,1667,6.44832,-17.0385
329,-643,6.48462,16.9075,0.00175038,0.000689217,0.00319363,0.0044572,-0.0020176,0.703081,0.00382566,0.0110385,1553,1667,6.48464,-16.9075
336,-643,6.44983,16.8051,0.00149579,0.0004215,0.00282117,0.0038305,-0.00191321,0.691325,0.00337715,0.0107726,1560,1667,6.44981,-16.8051
343,-643,6.46619,16.668,0.00105947,-0.000167298,0.00264222,0.00315857,-0.0022664,0.671345,0.00314619,0.013801,1567,1667,6.46621,-16.6679
350,-643,6.50342,16.4988,0.000747377,-0.000566321,0.0024078,0.00258631,-0.00240526,0.652238,0.00288252,0.0122696,1574,1667,6.50336,-16.4987
357,-643,6.51794,16.3495,0.000437284,-0.00108516,0.00225304,0.00205422,-0.00270209,0.622487,0.00275454,0.0103839,1581,1667,6.51791,-16.3495
364,-643,6.53186,16.1737,0.000226293,-0.00132941,0.0020065,0.00160044,-0.00270356,0.600484,0.00251198,0.00969434,1588,1667,6.53186,-16.1737
371,-643,6.526,16.0133,9.06676e-05,-0.00147152,0.00183584,0.00130467,-0.00268552,0.584263,0.00234927,0.00790887,1595,1667,6.52595,-16.0133
378,-643,6.53992,15.858,3.6775e-05,-0.00161981,0.0015492,0.000965214,-0.00254825,0.539905,0.00209601,0.00937074,1602,1667,6.53988,-15.858
385,-643,6.54114,15.681,0.000281036,-0.00179762,0.00118835,0.000820438,-0.00233702,0.426098,0.00189175,0.0154426,1609,1667,6.54114,-15.681
392,-643,6.52368,15.5072,0.000700253,-0.00198851,0.000659655,0.000853372,-0.00214163,0.22808,0.00178169,0.0167104,1616,1667,6.52368,-15.5072
399,-643,6.52441,15.3558,0.000979754,-0.0020149,0.000112319,0.00098396,-0.00201911,0.0374363,0.00176782,0.0141845,1623,1667,6.52445,-15.3558
406,-643,6.54517,15.157,0.00105175,-0.00206229,-0.000321203,0.00108454,-0.00209508,-0.10172,0.0018664,0.0130457,1630,1667,6.54514,-15.1569
413,-643,6.56238,14.9313,0.00127508,-0.00226362,-0.000717819,0.00141514,-0.00240369,-0.192704,0.00222929,0.0180477,1637,1667,6.56241,-14.9313
420,-643,6.5199,14.7322,0.00148389,-0.00271012,-0.000959568,0.00169301,-0.00291923,-0.214574,0.00269407,0.0163808,1644,1667,6.51987,-14.7321
427,-643,6.51147,14.5742,0.0015365,-0.003452,-0.00107122,0.0017568,-0.00367231,-0.202828,0.00319887,0.0136635,1651,1667,6.51148,-14.5742
434,-643,6.52991,14.4091,0.00124515,-0.00420074,-0.00109736,0.00145795,-0.00441354,-0.191546,0.00353017,0.0151449,1658,1667,6.52996,-14.4091
441,-643,6.55713,14.203,0.000670726,-0.00463427,-0.000773668,0.000781253,-0.0047448,-0.141901,0.0034532,0.015205,1665,1667,6.55718,-14.203
448,-643,6.55286,13.9757,-7.81858e-05,-0.00534107,1.05214e-06,-7.81857e-05,-0.00534107,0.000199916,0.00353494,0.0188746,1672,1667,6.55288,-13.9757
455,-643,6.44263,13.7948,-0.000923487,-0.00608744,0.000975981,-0.000745184,-0.00626575,0.180698,0.00395226,0.029514,1679,1667,6.44262,-13.7948
462,-643,6.19946,13.6085,-0.00185257,-0.00681442,0.00222275,-0.00100249,-0.0076645,0.365283,0.00481045,0.0375186,1686,1667,6.19945,-13.6085
469,-643,6.26587,13.6119,-0.00284399,-0.00739662,0.00369148,-0.000783415,-0.0094572,0.509115,0.00606056,0.0385349,1693,1667,6.26592,-13.612
476,-643,6.60181,13.6969,0,0,0,0,0,0,0,-1,1700,1667,6.60183,-13.6968
483,-643,6.19727,14.0698,0,0,0,0,0,0,0,-1,1707,1667,6.19726,-14.0698
490,-643,6.76831,12.4513,0,0,0,0,0,0,0,-1,1714,1667,6.76834,-12.4512
497,-643,7.26624,11.2289,0,0,0,0,0,0,0,-1,1721,1667,7.26629,-11.2289
504,-643,7.68323,9.87634,0,0,0,0,0,0,0,-1,1728,1667,7.6832,-9.87638
511,-643,6.32056,9.37439,0,0,0,0,0,0,0,-1,1735,1667,6.32061,-9.37435
518,-643,7.40564,0.922607,0,0,0,0,0,0,0,-1,1742,1667,7.4057,-0.922598
525,-643,0,0,0,0,0,0,0,0,0,-1,1749,1667,0,0
532,-643,0,0,0,0,0,0,0,0,0,-1,1756,1667,0,0
539,-643,0,0,0,0,0,0,0,0,0,-1,1763,1667,0,0
546,-643,0,0,0,0,0,0,0,0,0,-1,1770,1667,0,0
553,-643,0,0,0,0,0,0,0,0,0,-1,1777,1667,0,0
560,-643,0,0,0,0,0,0,0,0,0,-1,1784,1667,0,0
567,-643,0,0,0,0,0,0,0,0,0,-1,1791,1667,0,0
574,-643,0,0,0,0,0,0,0,0,0,-1,1798,1667,0,0
581,-643,0,0,0,0,0,0,0,0,0,-1,1805,1667,0,0
588,-643,0,0,0,0,0,0,0,0,0,-1,1812,1667,0,0
595,-643,0,0,0,0,0,0,0,0,0,-1,1819,1667,0,0
602,-643,0,0,0,0,0,0,0,0,0,-1,1826,1667,0,0
609,-643,0,0,0,0,0,0,0,0,0,-1,1833,1667,0,0
616,-643,0,0,0,0,0,0,0,0,0,-1,1840,1667,0,0
623,-643,0,0,0,0,0,0,0,0,0,-1,1847,1667,0,0
630,-643,0,0,0,0,0,0,0,0,0,-1,1854,1667,0,0
637,-643,0,0,0,0,0,0,0,0,0,-1,1861,1667,0,0
644,-643,0,0,0,0,0,0,0,0,0,-1,1868,1667,0,0
651,-643,0,0,0,0,0,0,0,0,0,-1,1875,1667,0,0
658,-643,0,0,0,0,0,0,0,0,0,-1,1882,1667,0,0
665,-643,0,0,0,0,0,0,0,0,0,-1,1889,1667,0,0
672,-643,0,0,0,0,0,0,0,0,0,-1,1896,1667,0,0
679,-643,0,0,0,0,0,0,0,0,0,-1,1903,1667,0,0
686,-643,0,0,0,0,0,0,0,0,0,-1,1910,1667,0,0
693,-643,0,0,0,0,0,0,0,0,0,-1,1917,1667,0,0
700,-643,0,0,0,0,0,0,0,0,0,-1,1924,1667,0,0
707,-643,0,0,0,0,0,0,0,0,0,-1,1931,1667,0,0
714,-643,0,0,0,0,0,0,0,0,0,-1,1938,1667,0,0
721,-643,0,0,0,0,0,0,0,0,0,-1,1945,1667,0,0
728,-643,0,0,0,0,0,0,0,0,0,-1,1952,1667,0,0
735,-643,0,0,0,0,0,0,0,0,0,-1,1959,1667,0,0
742,-643,0,0,0,0,0,0,0,0,0,-1,1966,1667,0,0
749,-643,0,0,0,0,0,0,0,0,0,-1,1973,1667,0,0
756,-643,0,0,0,0,0,0,0,0,0,-1,1980,1667,0,0
763,-643,0,0,0,0,0,0,0,0,0,-1,1987,1667,0,0
770,-643,0,0,0,0,0,0,0,0,0,-1,1994,1667,0,0
777,-643,0,0,0,0,0,0,0,0,0,-1,2001,1667,0,0
784,-643,0,0,0,0,0,0,0,0,0,-1,2008,1667,0,0
791,-643,0,0,0,0,0,0,0,0,0,-1,2015,1667,0,0
798,-643,0,0,0,0,0,0,0,0,0,-1,2022,1667,0,0
805,-643,0,0,0,0,0,0,0,0,0,-1,2029,1667,0,0
812,-643,0,0,0,0,0,0,0,0,0,-1,2036,1667,0,0
-700,-650,0,0,0,0,0,0,0,0,0,-1,524,1674,0,0
-693,-650,0,0,0,0,0,0,0,0,0,-1,531,1674,0,0
-686,-650,0,0,0,0,0,0,0,0,0,-1,538,1674,0,0
-679,-650,0,0,0,0,0,0,0,0,0,-1,545,1674,0,0
-672,-650,0,0,0,0,0,0,0,0,0,-1,552,1674,0,0
-665,-650,0,0,0,0,0,0,0,0,0,-1,559,1674,0,0
-658,-650,0,0,0,0,0,0,0,0,0,-1,566,1674,0,0
-651,-650,0,0,0,0,0,0,0,0,0,-1,573,1674,0,0
-644,-650,0,0,0,0,0,0,0,0,0,-1,580,1674,0,0
-637,-650,0,0,0,0,0,0,0,0,0,-1,587,1674,0,0
-630,-650,0,0,0,0,0,0,0,0,0,-1,594,1674,0,0
-623,-650,0,0,0,0,0,0,0,0,0,-1,601,1674,0,0
-616,-650,0,0,0,0,0,0,0,0,0,-1,608,1674,0,0
-609,-650,0,0,0,0,0,0,0,0,0,-1,615,1674,0,0
-602,-650,0,0,0,0,0,0,0,0,0,-1,622,1674,0,0
-595,-650,0,0,0,0,0,0,0,0,0,-1,629,1674,0,0
-588,-650,0,0,0,0,0,0,0,0,0,-1,636,1674,0,0
-581,-650,0,0,0,0,0,0,0,0,0,-1,643,1674,0,0
-574,-650,0,0,0,0,0,0,0,0,0,-1,650,1674,0,0
-567,-650,0,0,0,0,0,0,0,0,0,-1,657,1674,0,0
-560,-650,0,0,0,0,0,0,0,0,0,-1,664,1674,0,0
-553,-650,0,0,0,0,0,0,0,0,0,-1,671,1674,0,0
-546,-650,0,0,0,0,0,0,0,0,0,-1,678,1674,0,0
-539,-650,0,0,0,0,0,0,0,0,0,-1,685,1674,0,0
-532,-650,0,0,0,0,0,0,0,0,0,-1,692,1674,0,0
-525,-650,0,0,0,0,0,0,0,0,0,-1,699,1674,0,0
-518,-650,0,0,0,0,0,0,0,0,0,-1,706,1674,0,0
-511,-650,0,0,0,0,0,0,0,0,0,-1,713,1674,0,0
-504,-650,0,0,0,0,0,0,0,0,0,-1,720,1674,0,0
-497,-650,0,0,0,0,0,0,0,0,0,-1,727,1674,0,0
-490,-650,0,0,0,0,0,0,0,0,0,-1,734,1674,0,0
-483,-650,0,0,0,0,0,0,0,0,0,-1,741,1674,0,0
-476,-650,0,0,0,0,0,0,0,0,0,-1,748,1674,0,0
-469,-650,0,0,0,0,0,0,0,0,0,-1,755,1674,0,0
-462,-650,0,0,0,0,0,0,0,0,0,-1,762,1674,0,0
-455,-650,0,0,0,0,0,0,0,0,0,-1,769,1674,0,0
-448,-650,0,0,0,0,0,0,0,0,0,-1,776,1674,0,0
-441,-650,0,0,0,0,0,0,0,0,0,-1,783,1674,0,0
-434,-650,0,0,0,0,0,0,0,0,0,-1,790,1674,0,0
-427,-650,0,0,0,0,0,0,0,0,0,-1,797,1674,0,0
-420,-650,0,0,0,0,0,0,0,0,0,-1,804,1674,0,0
-413,-650,0,0,0,0,0,0,0,0,0,-1,811,1674,0,0
-406,-650,0,0,0,0,0,0,0,0,0,-1,818,1674,0,0
-399,-650,0,0,0,0,0,0,0,0,0,-1,825,1674,0,0
-392,-650,5.44415,6.85669,0,0,0,0,0,0,0,-1,832,1674,5.44414,-6.85674
-385,-650,1.74451,14.0183,0,0,0,0,0,0,0,-1,839,1674,1.74453,-14.0183
-378,-650,0.997986,4.11108,0,0,0,0,0,0,0,-1,846,1674,0.998006,-4.11113
-371,-650,-1.80096,3.78625,0,0,0,0,0,0,0,-1,853,1674,-1.80094,-3.78625
-364,-650,-2.95679,2.57507,0,0,0,0,0,0,0,-1,860,1674,-2.95681,-2.57506
-357,-650,1.97833,10.8362,0,0,0,0,0,0,0,-1,867,1674,1.97835,-10.8362
-350,-650,-5.30243,0.159912,0,0,0,0,0,0,0,-1,874,1674,-5.30244,-0.159866
-343,-650,-6.21338,-1.4425,0,0,0,0,0,0,0,-1,881,1674,-6.21341,1.44248
-336,-650,3.39105,10.7294,0,0,0,0,0,0,0,-1,888,1674,3.39105,-10.7293
-329,-650,3.68054,12.5548,0,0,0,0,0,0,0,-1,895,1674,3.68056,-12.5549
-322,-650,3.61725,12.8032,0.00430572,-0.0044866,0.00059006,0.00434514,-0.00452602,0.0667122,0.00512212,0.0451848,902,1674,3.61726,-12.8032
-315,-650,3.53986,13.0227,0.00331123,-0.00389013,0.000505892,0.0033466,-0.0039255,0.0697926,0.00420298,0.040928,909,1674,3.53988,-13.0226
-308,-650,3.58868,13.1885,0.00236341,-0.00344515,0.000266872,0.00237564,-0.00345739,0.0458159,0.00338695,0.0214996,916,1674,3.58868,-13.1885
-301,-650,3.59229,13.4445,0.00203274,-0.00283614,0.000401345,0.0020656,-0.002869,0.0816958,0.00286155,0.0108306,923,1674,3.59226,-13.4445
-294,-650,3.57623,13.6364,0.00194784,-0.00220344,0.000631874,0.00204189,-0.00229749,0.147755,0.00250679,0.0101377,930,1674,3.57625,-13.6364
-287,-650,3.5719,13.8268,0.00168,-0.00169399,0.000711731,0.00182399,-0.00183798,0.199618,0.00211424,0.0134864,937,1674,3.57193,-13.8268
-280,-650,3.56934,14.0428,0.00132868,-0.0014061,0.000661614,0.00148033,-0.00155775,0.225323,0.00175423,0.0136169,944,1674,3.56934,-14.0429
-273,-650,3.57281,14.2775,0.00105966,-0.00123128,0.000496341,0.00116257,-0.00133419,0.204443,0.00144264,0.0133139,951,1674,3.57281,-14.2775
-266,-650,3.5321,14.4863,0.000861474,-0.00113587,0.000321098,0.000911825,-0.00118623,0.155542,0.00121476,0.0114547,958,1674,3.53209,-14.4864
-259,-650,3.53815,14.6755,0.000555557,-0.00105277,0.000147806,0.000569028,-0.00106624,0.0908859,0.000958562,0.014066,965,1674,3.53813,-14.6755
-252,-650,3.54718,14.8679,0.000358686,-0.00120688,-0.000109257,0.000366274,-0.00121446,-0.0693396,0.00095543,0.0127146,972,1674,3.5472,-14.868
-245,-650,3.56372,15.0582,0.00032074,-0.00113068,-0.000344743,0.000398461,-0.0012084,-0.221741,0.000966209,0.0120018,979,1674,3.56371,-15.0583
-238,-650,3.56415,15.2551,0.000210322,-0.00121202,-0.000575669,0.000414115,-0.00141581,-0.340244,0.00110802,0.0131497,986,1674,3.56417,-15.2551
-231,-650,3.54498,15.447,0.000162121,-0.00164928,-0.000719026,0.000412834,-0.00189999,-0.335502,0.00142436,0.0176821,993,1674,3.545,-15.447
-224,-650,3.53424,15.6338,0.00020959,-0.00220343,-0.000867219,0.000488925,-0.00248277,-0.31161,0.00183993,0.0143171,1000,1674,3.53426,-15.6338
-217,-650,3.55615,15.7661,0.000396255,-0.00253272,-0.000928269,0.000665667,-0.00280213,-0.28247,0.00212502,0.00980137,1007,1674,3.55618,-15.7661
-210,-650,3.56854,15.9551,0.000699647,-0.00283195,-0.000998384,0.000962348,-0.00309466,-0.257295,0.00244778,0.00918041,1014,1674,3.56853,-15.9551
-203,-650,3.59644,16.1538,0.00105557,-0.00338646,-0.00108319,0.00130563,-0.00363652,-0.22688,0.00295724,0.0138919,1021,1674,3.59641,-16.1538
-196,-650,3.60217,16.3198,0.00156781,-0.00385829,-0.00109425,0.00178017,-0.00407065,-0.191686,0.00346318,0.0130904,1028,1674,3.60223,-16.3199
-189,-650,3.59521,16.4648,0.00206913,-0.00392185,-0.000838482,0.00218427,-0.00403698,-0.136465,0.00364455,0.0100358,1035,1674,3.59523,-16.4649
-182,-650,3.62366,16.642,0.00216725,-0.00435259,-0.000822896,0.00226951,-0.00445484,-0.123631,0.00395006,0.00939592,1042,1674,3.62361,-16.6419
-175,-650,3.64063,16.7714,0.00245611,-0.00458476,-0.000805702,0.00254713,-0.00467578,-0.112495,0.00423008,0.0148578,1049,1674,3.6406,-16.7714
-168,-650,3.62097,16.8982,0.0028733,-0.00483339,-0.000623015,0.00292334,-0.00488343,-0.0801471,0.00455435,0.0187346,1056,1674,3.62101,-16.8982
-161,-650,3.63623,17.0859,0.00343705,-0.00483367,-0.000316284,0.00344913,-0.00484574,-0.0381671,0.00481162,0.0270166,1063,1674,3.63621,-17.0859
-154,-650,3.7179,17.2266,0.00420844,-0.00472594,0.000168254,0.00421161,-0.00472911,0.0188233,0.00516481,0.0317891,1070,1674,3.71789,-17.2266
-147,-650,3.75317,17.2885,0.00422706,-0.00438441,0.000878522,0.00431577,-0.00447312,0.100636,0.00507454,0.043215,1077,1674,3.75314,-17.2884
-140,-650,4.13062,17.71,0.00393014,-0.00398543,0.000971443,0.00404762,-0.00410291,0.120346,0.00470575,0.0465983,1084,1674,4.13057,-17.7099
-133,-650,3.83228,17.5615,0.00454177,-0.0037233,0.00121943,0.00471793,-0.00389946,0.143468,0.00498273,0.0461842,1091,1674,3.83225,-17.5615
-126,-650,3.9447,17.7605,0,0,0,0,0,0,0,-1,1098,1674,3.94464,-17.7605
-119,-650,4.92798,17.2285,0,0,0,0,0,0,0,-1,1105,1674,4.92803,-17.2285
-112,-650,3.86292,14.4513,0,0,0,0,0,0,0,-1,1112,1674,3.8629,-14.4513
-105,-650,4.9259,12.0626,0,0,0,0,0,0,0,-1,1119,1674,4.92591,-12.0626
-98,-650,3.3761,6.78003,0,0,0,0,0,0,0,-1,1126,1674,3.37611,-6.78009
-91,-650,3.66809,7.04443,0,0,0,0,0,0,0,-1,1133,1674,3.66806,-7.04439
-84,-650,-3.82666,-1.59521,0,0,0,0,0,0,0,-1,1140,1674,-3.82661,1.59517
-77,-650,-4.70557,1.90198,0,0,0,0,0,0,0,-1,1147,1674,-4.7056,-1.90194
-70,-650,-4.88171,3.81653,0,0,0,0,0,0,0,-1,1154,1674,-4.88176,-3.81651
-63,-650,-5.14612,5.56543,0,0,0,0,0,0,0,-1,1161,1674,-5.14612,-5.56547
-56,-650,-5.38367,7.41101,0,0,0,0,0,0,0,-1,1168,1674,-5.38361,-7.41102
-49,-650,-5.11316,8.23706,0,0,0,0,0,0,0,-1,1175,1674,-5.11317,-8.23708
-42,-650,-4.99487,9.6792,0,0,0,0,0,0,0,-1,1182,1674,-4.99484,-9.67921
-35,-650,-4.77771,11.3369,0,0,0,0,0,0,0,-1,1189,1674,-4.77769,-11.3369
-28,-650,-4.1936,13.1501,0,0,0,0,0,0,0,-1,1196,1674,-4.19358,-13.1501
-21,-650,2.5354,14.5704,0,0,0,0,0,0,0,-1,1203,1674,2.53541,-14.5704
-14,-650,3.72583,14.9296,0.132213,-0.122315,0.0294449,0.135575,-0.125677,0.113684,0.15087,0.0497436,1210,1674,3.72586,-14.9295
-7,-650,4.66748,15.4674,0.12002,-0.123293,0.0279286,0.123185,-0.126457,0.11283,0.144135,0.0471865,1217,1674,4.66746,-15.4674
0,-650,5.4071,15.9822,0.105773,-0.118539,0.0245035,0.108418,-0.121184,0.107549,0.132629,0.0399899,1224,1674,5.40709,-15.9822
7,-650,6.11743,16.6536,0,0,0,0,0,0,0,-1,1231,1674,6.11741,-16.6535
14,-650,8.24231,19.6061,0.0828397,-0.100454,0.019713,0.0849359,-0.102551,0.105935,0.108404,0.044793,1238,1674,8.24233,-19.606
21,-650,8.04651,18.9535,0.0734146,-0.0883627,0.0199405,0.0758362,-0.0907843,0.120849,0.0963273,0.0462649,1245,1674,8.04648,-18.9535
28,-650,7.81262,18.3142,0,0,0,0,0,0,0,-1,1252,1674,7.81268,-18.3142
35,-650,6.40967,20.1261,0.0586336,-0.0608536,0.0260024,0.0640469,-0.0662669,0.205253,0.0752403,0.0478252,1259,1674,6.40968,-20.1261
42,-650,6.5332,19.5908,0.0544902,-0.0495356,0.0279842,0.0615405,-0.0565858,0.246801,0.0682202,0.0438801,1266,1674,6.53325,-19.5909
49,-650,6.73853,18.8937,0.052976,-0.0378436,0.0305113,0.0622744,-0.0471421,0.295812,0.0633727,0.0427519,1273,1674,6.7385,-18.8936
56,-650,6.7533,18.6495,0.0523883,-0.0267168,0.0344498,0.0652875,-0.039616,0.358276,0.0611676,0.0463828,1280,1674,6.75325,-18.6495
63,-650,6.80396,18.2113,0.0577517,-0.0151551,0.0416303,0.0766331,-0.0340364,0.425801,0.0654537,0.0452742,1287,1674,6.80396,-18.2113
70,-650,6.80957,17.8295,0,0,0,0,0,0,0,-1,1294,1674,6.80954,-17.8295
77,-650,7.17944,19.5712,0,0,0,0,0,0,0,-1,1301,1674,7.1794,-19.5711
84,-650,7.40479,19.373,0,0,0,0,0,0,0,-1,1308,1674,7.40475,-19.3731
91,-650,6.99023,19.5104,0,0,0,0,0,0,0,-1,1315,1674,6.99021,-19.5104
98,-650,12.6355,14.2621,0.132553,-0.0123375,0.0554635,0.151346,-0.031131,0.326703,0.112717,0.0469942,1322,1674,12.6354,-14.2621
105,-650,14.1604,12.9321,0.15373,-0.016223,0.0556089,0.170309,-0.0328011,0.289732,0.125905,0.0464446,1329,1674,14.1604,-12.9321
112,-650,15.658,11.675,0.175362,-0.0209858,0.054717,0.189581,-0.0352044,0.254233,0.139609,0.0439617,1336,1674,15.6579,-11.6751
119,-650,15.9277,13.7854,0.198282,-0.0272572,0.0522595,0.209803,-0.0387778,0.216978,0.154426,0.0427296,1343,1674,15.9278,-13.7854
126,-650,17.4171,12.7148,0.219332,-0.0336689,0.048553,0.22833,-0.0426666,0.183239,0.168255,0.0453134,1350,1674,17.4172,-12.7149
133,-650,18.8939,11.4852,0.234903,-0.0371425,0.0443152,0.24194,-0.0441792,0.157474,0.177858,0.0465949,1357,1674,18.8939,-11.4852
140,-650,20.2272,10.307,0,0,0,0,0,0,0,-1,1364,1674,20.2272,-10.3071
147,-650,20.4734,9.8175,0,0,0,0,0,0,0,-1,1371,1674,20.4734,-9.81756
154,-650,6.74219,13.8429,0,0,0,0,0,0,0,-1,1378,1674,6.74213,-13.8428
161,-650,11.2434,8.83008,0,0,0,0,0,0,0,-1,1385,1674,11.2434,-8.83004
168,-650,11.2113,7.87231,0,0,0,0,0,0,0,-1,1392,1674,11.2113,-7.87236
175,-650,5.62537,-0.230713,0,0,0,0,0,0,0,-1,1399,1674,5.62538,0.230745
182,-650,5.56006,0.421631,0,0,0,0,0,0,0,-1,1406,1674,5.56,-0.421652
189,-650,4.81543,11.0654,0,0,0,0,0,0,0,-1,1413,1674,4.81542,-11.0654
196,-650,5.39575,11.9077,0,0,0,0,0,0,0,-1,1420,1674,5.39575,-11.9078
203,-650,3.93628,11.8215,0,0,0,0,0,0,0,-1,1427,1674,3.93624,-11.8216
210,-650,5.40955,8.08594,0,0,0,0,0,0,0,-1,1434,1674,5.40958,-8.086
217,-650,5.12451,4.69739,0,0,0,0,0,0,0,-1,1441,1674,5.12451,-4.69738
224,-650,4.79041,1.45813,0,0,0,0,0,0,0,-1,1448,1674,4.79046,-1.45816
231,-650,4.04102,-0.642212,0,0,0,0,0,0,0,-1,1455,1674,4.04101,0.642209
238,-650,3.23022,-1.43396,0,0,0,0,0,0,0,-1,1462,1674,3.23023,1.43394
245,-650,1.65894,-2.55042,0,0,0,0,0,0,0,-1,1469,1674,1.65889,2.55036
252,-650,8.75342,0.355103,0,0,0,0,0,0,0,-1,1476,1674,8.75337,-0.355147
259,-650,5.61255,3.17566,0,0,0,0,0,0,0,-1,1483,1674,5.61257,-3.17572
266,-650,4.00403,6.10229,0,0,0,0,0,0,0,-1,1490,1674,4.00401,-6.10225
273,-650,5.4093,14.3718,0,0,0,0,0,0,0,-1,1497,1674,5.40929,-14.3718
280,-650,6.19202,17.7866,0,0,0,0,0,0,0,-1,1504,1674,6.19206,-17.7867
287,-650,6.31799,17.7616,0.00258591,-0.000276539,0.00442944,0.00580961,-0.00350024,0.629135,0.00542989,0.0498026,1511,1674,6.31803,-17.7616
294,-650,6.35583,17.5206,0.00233576,-4.4408e-05,0.00415285,0.00546568,-0.00317433,0.645853,0.00504645,0.0402045,1518,1674,6.35582,-17.5206
301,-650,6.3252,17.3309,0.00218206,0.000233889,0.00387578,0.00520429,-0.00278834,0.662285,0.00468429,0.03372,1525,1674,6.3252,-17.331
308,-650,6.29944,17.3129,0.00209446,0.000514604,0.00344094,0.00483498,-0.00222591,0.672569,0.00416834,0.0214291,1532,1674,6.29941,-17.3128
315,-650,6.30176,17.2362,0.00195164,0.000514904,0.00301959,0.00433714,-0.00187059,0.668617,0.00367713,0.0120319,1539,1674,6.30178,-17.2362
322,-650,6.31616,17.0916,0.00174605,0.000461266,0.00263516,0.00381598,-0.00160867,0.665842,0.00321719,0.00990317,1546,1674,6.3161,-17.0916
329,-650,6.34021,16.916,0.00150233,0.000310689,0.00232809,0.00330963,-0.00149662,0.660124,0.00283994,0.0157168,1553,1674,6.34019,-16.916
336,-650,6.32373,16.7933,0.00127339,0.000131923,0.00205059,0.00283118,-0.00142587,0.64967,0.00250206,0.0144786,1560,1674,6.32372,-16.7934
343,-650,6.32837,16.6652,0.00092786,-0.000296852,0.00190679,0.00231821,-0.0016872,0.630027,0.00232207,0.0144131,1567,1674,6.32833,-16.6651
350,-650,6.34692,16.4993,0.000623635,-0.000585605,0.00170938,0.00183217,-0.00179414,0.615411,0.00209369,0.0157315,1574,1674,6.34695,-16.4993
357,-650,6.3501,16.3384,0.000347556,-0.000960092,0.00155219,0.00137801,-0.00199055,0.586063,0.00195552,0.0127648,1581,1674,6.35012,-16.3384
364,-650,6.35046,16.1824,0.000180404,-0.00111474,0.00131339,0.000997192,-0.00193152,0.556361,0.00171934,0.00904469,1588,1674,6.35044,-16.1824
371,-650,6.34802,16.0238,8.4837e-05,-0.00124483,0.00113693,0.000737051,-0.00189704,0.520828,0.00156918,0.0107897,1595,1674,6.34807,-16.0238
378,-650,6.3573,15.8529,0.000151058,-0.00135627,0.000872437,0.000550284,-0.0017555,0.429154,0.00139054,0.0123175,1602,1674,6.35725,-15.8529
385,-650,6.36658,15.6747,0.000564298,-0.00158783,0.000465314,0.000660595,-0.00168413,0.20407,0.00139606,0.0135903,1609,1674,6.36663,-15.6747
392,-650,6.36011,15.5114,0.00115823,-0.00193743,-0.000167407,0.00116725,-0.00194645,-0.0538687,0.00181637,0.0171494,1616,1674,6.36006,-15.5114
399,-650,6.35706,15.3453,0.00156104,-0.00215405,-0.000765955,0.00171277,-0.00230577,-0.195553,0.00232851,0.0160974,1623,1674,6.35708,-15.3453
406,-650,6.35559,15.1622,0.00172391,-0.00235912,-0.00121209,0.00205662,-0.00269183,-0.267895,0.00274969,0.0148106,1630,1674,6.35554,-15.1623
413,-650,6.3689,14.9825,0.00211307,-0.0027528,-0.00165299,0.00262148,-0.00326122,-0.298392,0.00340307,0.014766,1637,1674,6.36892,-14.9825
420,-650,6.34277,14.7886,0.00247797,-0.00349705,-0.00192685,0.00304545,-0.00406453,-0.286415,0.00411898,0.0140781,1644,1674,6.34273,-14.7886
427,-650,6.31775,14.5909,0.00261945,-0.00459527,-0.00202703,0.00314995,-0.00512577,-0.255973,0.00482317,0.0131636,1651,1674,6.31774,-14.591
434,-650,6.33545,14.4084,0.00235753,-0.00578239,-0.0019989,0.0028219,-0.00624676,-0.228265,0.00535881,0.016647,1658,1674,6.33549,-14.4085
441,-650,6.39734,14.2433,0.00171426,-0.00654774,-0.00158494,0.00200787,-0.00684136,-0.183175,0.00535713,0.0278639,1665,1674,6.39736,-14.2433
448,-650,6.20325,14.1027,0.000752801,-0.00775685,-0.000561583,0.000789703,-0.00779375,-0.0656144,0.00547808,0.0435207,1672,1674,6.20324,-14.1027
455,-650,5.52673,13.7397,-0.000391286,-0.00894071,0.000723204,-0.000330541,-0.00900146,0.0837975,0.00589388,0.0487008,1679,1674,5.52678,-13.7397
462,-650,6.41772,14.2191,0,0,0,0,0,0,0,-1,1686,1674,6.4177,-14.2192
469,-650,6.09521,13.8766,0,0,0,0,0,0,0,-1,1693,1674,6.09524,-13.8766
476,-650,5.77283,13.5339,0,0,0,0,0,0,0,-1,1700,1674,5.77279,-13.534
483,-650,5.45056,15.1356,0,0,0,0,0,0,0,-1,1707,1674,5.45054,-15.1356
490,-650,6.31396,13.5673,0,0,0,0,0,0,0,-1,1714,1674,6.31397,-13.5673
497,-650,6.93799,12.0436,0,0,0,0,0,0,0,-1,1721,1674,6.93795,-12.0436
504,-650,7.48999,10.489,0,0,0,0,0,0,0,-1,1728,1674,7.48998,-10.4891
511,-650,4.76782,10.7681,0,0,0,0,0,0,0,-1,1735,1674,4.76776,-10.7681
518,-650,0,0,0,0,0,0,0,0,0,-1,1742,1674,0,0
525,-650,0,0,0,0,0,0,0,0,0,-1,1749,1674,0,0
532,-650,0,0,0,0,0,0,0,0,0,-1,1756,1674,0,0
539,-650,0,0,0,0,0,0,0,0,0,-1,1763,1674,0,0
546,-650,0,0,0,0,0,0,0,0,0,-1,1770,1674,0,0
553,-650,0,0,0,0,0,0,0,0,0,-1,1777,1674,0,0
560,-650,0,0,0,0,0,0,0,0,0,-1,1784,1674,0,0
567,-650,0,0,0,0,0,0,0,0,0,-1,1791,1674,0,0
574,-650,0,0,0,0,0,0,0,0,0,-1,1798,1674,0,0
581,-650,0,0,0,0,0,0,0,0,0,-1,1805,1674,0,0
588,-650,0,0,0,0,0,0,0,0,0,-1,1812,1674,0,0
595,-650,0,0,0,0,0,0,0,0,0,-1,1819,1674,0,0
602,-650,0,0,0,0,0,0,0,0,0,-1,1826,1674,0,0
609,-650,0,0,0,0,0,0,0,0,0,-1,1833,1674,0,0
616,-650,0,0,0,0,0,0,0,0,0,-1,1840,1674,0,0
623,-650,0,0,0,0,0,0,0,0,0,-1,1847,1674,0,0
630,-650,0,0,0,0,0,0,0,0,0,-1,1854,1674,0,0
637,-650,0,0,0,0,0,0,0,0,0,-1,1861,1674,0,0
644,-650,0,0,0,0,0,0,0,0,0,-1,1868,1674,0,0
651,-650,0,0,0,0,0,0,0,0,0,-1,1875,1674,0,0
658,-650,0,0,0,0,0,0,0,0,0,-1,1882,1674,0,0
665,-650,0,0,0,0,0,0,0,0,0,-1,1889,1674,0,0
672,-650,0,0,0,0,0,0,0,0,0,-1,1896,1674,0,0
679,-650,0,0,0,0,0,0,0,0,0,-1,1903,1674,0,0
686,-650,0,0,0,0,0,0,0,0,0,-1,1910,1674,0,0
693,-650,0,0,0,0,0,0,0,0,0,-1,1917,1674,0,0
700,-650,0,0,0,0,0,0,0,0,0,-1,1924,1674,0,0
707,-650,0,0,0,0,0,0,0,0,0,-1,1931,1674,0,0
714,-650,0,0,0,0,0,0,0,0,0,-1,1938,1674,0,0
721,-650,0,0,0,0,0,0,0,0,0,-1,1945,1674,0,0
728,-650,0,0,0,0,0,0,0,0,0,-1,1952,1674,0,0
735,-650,0,0,0,0,0,0,0,0,0,-1,1959,1674,0,0
742,-650,0,0,0,0,0,0,0,0,0,-1,1966,1674,0,0
749,-650,0,0,0,0,0,0,0,0,0,-1,1973,1674,0,0
756,-650,0,0,0,0,0,0,0,0,0,-1,1980,1674,0,0
763,-650,0,0,0,0,0,0,0,0,0,-1,1987,1674,0,0
770,-650,0,0,0,0,0,0,0,0,0,-1,1994,1674,0,0
777,-650,0,0,0,0,0,0,0,0,0,-1,2001,1674,0,0
784,-650,0,0,0,0,0,0,0,0,0,-1,2008,1674,0,0
791,-650,0,0,0,0,0,0,0,0,0,-1,2015,1674,0,0
798,-650,0,0,0,0,0,0,0,0,0,-1,2022,1674,0,0
805,-650,0,0,0,0,0,0,0,0,0,-1,2029,1674,0,0
812,-650,0,0,0,0,0,0,0,0,0,-1,2036,1674,0,0
-700,-657,0,0,0,0,0,0,0,0,0,-1,524,1681,0,0
-693,-657,0,0,0,0,0,0,0,0,0,-1,531,1681,0,0
-686,-657,0,0,0,0,0,0,0,0,0,-1,538,1681,0,0
-679,-657,0,0,0,0,0,0,0,0,0,-1,545,1681,0,0
-672,-657,0,0,0,0,0,0,0,0,0,-1,552,1681,0,0
-665,-657,0,0,0,0,0,0,0,0,0,-1,559,1681,0,0
-658,-657,0,0,0,0,0,0,0,0,0,-1,566,1681,0,0
-651,-657,0,0,0,0,0,0,0,0,0,-1,573,1681,0,0
-644,-657,0,0,0,0,0,0,0,0,0,-1,580,1681,0,0
-637,-657,0,0,0,0,0,0,0,0,0,-1,587,1681,0,0
-630,-657,0,0,0,0,0,0,0,0,0,-1,594,1681,0,0
-623,-657,0,0,0,0,0,0,0,0,0,-1,601,1681,0,0
-616,-657,0,0,0,0,0,0,0,0,0,-1,608,1681,0,0
-609,-657,0,0,0,0,0,0,0,0,0,-1,615,1681,0,0
-602,-657,0,0,0,0,0,0,0,0,0,-1,622,1681,0,0
-595,-657,0,0,0,0,0,0,0,0,0,-1,629,1681,0,0
-588,-657,0,0,0,0,0,0,0,0,0,-1,636,1681,0,0
-581,-657,0,0,0,0,0,0,0,0,0,-1,643,1681,0,0
-574,-657,0,0,0,0,0,0,0,0,0,-1,650,1681,0,0
-567,-657,0,0,0,0,0,0,0,0,0,-1,657,1681,0,0
-560,-657,0,0,0,0,0,0,0,0,0,-1,664,1681,0,0
-553,-657,0,0,0,0,0,0,0,0,0,-1,671,1681,0,0
-546,-657,0,0,0,0,0,0,0,0,0,-1,678,1681,0,0
-539,-657,0,0,0,0,0,0,0,0,0,-1,685,1681,0,0
-532,-657,0,0,0,0,0,0,0,0,0,-1,692,1681,0,0
-525,-657,0,0,0,0,0,0,0,0,0,-1,699,1681,0,0
-518,-657,0,0,0,0,0,0,0,0,0,-1,706,1681,0,0
-511,-657,0,0,0,0,0,0,0,0,0,-1,713,1681,0,0
-504,-657,0,0,0,0,0,0,0,0,0,-1,720,1681,0,0
-497,-657,0,0,0,0,0,0,0,0,0,-1,727,1681,0,0
-490,-657,0,0,0,0,0,0,0,0,0,-1,734,1681,0,0
-483,-657,0,0,0,0,0,0,0,0,0,-1,741,1681,0,0
-476,-657,0,0,0,0,0,0,0,0,0,-1,748,1681,0,0
-469,-657,0,0,0,0,0,0,0,0,0,-1,755,1681,0,0
-462,-657,0,0,0,0,0,0,0,0,0,-1,762,1681,0,0
-455,-657,0,0,0,0,0,0,0,0,0,-1,769,1681,0,0
-448,-657,0,0,0,0,0,0,0,0,0,-1,776,1681,0,0
-441,-657,0,0,0,0,0,0,0,0,0,-1,783,1681,0,0
-434,-657,0,0,0,0,0,0,0,0,0,-1,790,1681,0,0
-427,-657,0,0,0,0,0,0,0,0,0,-1,797,1681,0,0
-420,-657,0,0,0,0,0,0,0,0,0,-1,804,1681,0,0
-413,-657,0,0,0,0,0,0,0,0,0,-1,811,1681,0,0
-406,-657,0,0,0,0,0,0,0,0,0,-1,818,1681,0,0
-399,-657,0,0,0,0,0,0,0,0,0,-1,825,1681,0,0
-392,-657,0,0,0,0,0,0,0,0,0,-1,832,1681,0,0
-385,-657,1.09814,6.18896,0,0,0,0,0,0,0,-1,839,1681,1.09814,-6.18894
-378,-657,0.31488,4.46753,0,0,0,0,0,0,0,-1,846,1681,0.31487,-4.46755
-371,-657,-0.519043,2.69421,0,0,0,0,0,0,0,-1,853,1681,-0.519064,-2.69422
-364,-657,-3.42017,4.18323,0,0,0,0,0,0,0,-1,860,1681,-3.42019,-4.18319
-357,-657,-4.41913,2.97168,0,0,0,0,0,0,0,-1,867,1681,-4.41913,-2.97165
-350,-657,-5.42291,1.70276,0,0,0,0,0,0,0,-1,874,1681,-5.42291,-1.70277
-343,-657,-6.51294,0.397339,0,0,0,0,0,0,0,-1,881,1681,-6.51295,-0.397335
-336,-657,3.52148,10.3204,0,0,0,0,0,0,0,-1,888,1681,3.52147,-10.3204
-329,-657,3.46869,11.6112,0,0,0,0,0,0,0,-1,895,1681,3.46867,-11.6112
-322,-657,3.7995,12.8361,0,0,0,0,0,0,0,-1,902,1681,3.79948,-12.8361
-315,-657,4.02185,13.1251,0.00365763,-0.00421162,0.000203145,0.00366287,-0.00421686,0.0257921,0.00455311,0.0471864,909,1681,4.02185,-13.1251
-308,-657,3.93579,13.3387,0.00276791,-0.00382521,0.00017819,0.00277272,-0.00383003,0.0270003,0.00382836,0.0370325,916,1681,3.93577,-13.3388
-301,-657,3.81927,13.5029,0.00247214,-0.00321306,0.000506518,0.00251691,-0.00325783,0.0881688,0.00334319,0.026779,923,1681,3.81929,-13.5029
-294,-657,3.75409,13.6552,0.00239234,-0.00250649,0.000879831,0.00254556,-0.00265972,0.172424,0.00300551,0.0167143,930,1681,3.75412,-13.6551
-287,-657,3.75867,13.8568,0.00210037,-0.00183459,0.00106336,0.00236934,-0.00210356,0.247749,0.00258395,0.0122974,937,1681,3.75867,-13.8568
-280,-657,3.755,14.0591,0.00156376,-0.00141646,0.0010432,0.00189264,-0.00174533,0.305391,0.00210096,0.0140012,944,1681,3.75503,-14.059
-273,-657,3.75995,14.2885,0.00106563,-0.00116763,0.000903645,0.00138547,-0.00148746,0.340181,0.00165904,0.00991277,951,1681,3.75992,-14.2884
-266,-657,3.74182,14.4897,0.000747316,-0.00106105,0.000791899,0.00104507,-0.00135881,0.359646,0.00139181,0.0135692,958,1681,3.7418,-14.4897
-259,-657,3.75146,14.6803,0.00044538,-0.000976935,0.000666451,0.000708852,-0.00124041,0.376479,0.00113927,0.0176552,965,1681,3.75148,-14.6803
-252,-657,3.73376,14.8633,0.000161521,-0.00122983,0.000515498,0.000331699,-0.00140001,0.318858,0.00106133,0.0127324,972,1681,3.73375,-14.8633
-245,-657,3.75952,15.0632,-1.12914e-05,-0.00107069,0.000240126,4.0595e-05,-0.00112258,0.212808,0.000762277,0.0153697,979,1681,3.75951,-15.0632
-238,-657,3.77509,15.2209,-0.000188032,-0.00108408,-7.82509e-05,-0.00018125,-0.00109086,-0.0864569,0.000674985,0.0206168,986,1681,3.77511,-15.2209
-231,-657,3.73792,15.4399,-0.000264308,-0.00149745,-0.00021381,-0.000228288,-0.00153347,-0.166899,0.00095535,0.0207463,993,1681,3.7379,-15.44
-224,-657,3.72327,15.6646,-0.000189631,-0.00201346,-0.0003739,-0.000115955,-0.00208714,-0.194555,0.00135443,0.0153577,1000,1681,3.72325,-15.6646
-217,-657,3.73761,15.8134,5.12484e-06,-0.00230306,-0.000483226,0.000102207,-0.00240014,-0.198264,0.00163523,0.0101859,1007,1681,3.73762,-15.8134
-210,-657,3.73785,15.981,0.000318791,-0.00250092,-0.000604913,0.000443084,-0.00262522,-0.202652,0.001915,0.0101076,1014,1681,3.73783,-15.9809
-203,-657,3.74902,16.1614,0.000674549,-0.00283986,-0.000721116,0.000816758,-0.00298207,-0.19471,0.00230897,0.0124724,1021,1681,3.74899,-16.1614
-196,-657,3.76416,16.3202,0.00110011,-0.00311624,-0.000776476,0.00123856,-0.00325469,-0.176449,0.00267981,0.0138787,1028,1681,3.76418,-16.3202
-189,-657,3.76233,16.4739,0.00147167,-0.00312241,-0.000637968,0.00155862,-0.00320936,-0.135453,0.00280725,0.0100553,1035,1681,3.76233,-16.4739
-182,-657,3.76099,16.6211,0.00163745,-0.00329304,-0.000639899,0.00171915,-0.00337473,-0.126982,0.00299228,0.00821916,1042,1681,3.76097,-16.6211
-175,-657,3.77649,16.781,0.00196596,-0.00332364,-0.000619019,0.00203743,-0.00339511,-0.114957,0.00316896,0.0108231,1049,1681,3.77646,-16.781
-168,-657,3.77014,16.9374,0.00232989,-0.00342984,-0.000451766,0.00236511,-0.00346505,-0.0778012,0.00338596,0.0120073,1056,1681,3.77009,-16.9374
-161,-657,3.78601,17.0696,0.00277898,-0.00342233,-0.00017311,0.00278381,-0.00342716,-0.0278862,0.00359231,0.0112488,1063,1681,3.78604,-17.0695
-154,-657,3.82227,17.2203,0.00343021,-0.00333855,0.000183997,0.0034352,-0.00334355,0.0271565,0.00391383,0.0118718,1070,1681,3.82231,-17.2204
-147,-657,3.84131,17.3373,0.00360689,-0.00320262,0.000673452,0.00367285,-0.00326858,0.0976385,0.0040099,0.0170723,1077,1681,3.84132,-17.3373
-140,-657,3.81677,17.459,0.00359373,-0.00294309,0.000764451,0.00368194,-0.0030313,0.11488,0.00388196,0.0269302,1084,1681,3.81677,-17.459
-133,-657,3.85596,17.5629,0.00412766,-0.00295395,0.000948116,0.0042524,-0.00307869,0.130815,0.00425065,0.0362584,1091,1681,3.85598,-17.5629
-126,-657,3.88464,17.6704,0,0,0,0,0,0,0,-1,1098,1681,3.88462,-17.6704
-119,-657,4.44446,17.6097,0,0,0,0,0,0,0,-1,1105,1681,4.4444,-17.6097
-112,-657,4.33911,17.8125,0,0,0,0,0,0,0,-1,1112,1681,4.33909,-17.8125
-105,-657,3.82434,14.4906,0,0,0,0,0,0,0,-1,1119,1681,3.8244,-14.4906
-98,-657,3.78662,8.16785,0,0,0,0,0,0,0,-1,1126,1681,3.78663,-8.16786
-91,-657,3.6521,16.6017,0,0,0,0,0,0,0,-1,1133,1681,3.65215,-16.6017
-84,-657,4.08008,10.4579,0,0,0,0,0,0,0,-1,1140,1681,4.08006,-10.4579
-77,-657,-5.29846,0.396606,0,0,0,0,0,0,0,-1,1147,1681,-5.29842,-0.396573
-70,-657,-4.14893,2.14575,0,0,0,0,0,0,0,-1,1154,1681,-4.14893,-2.1458
-63,-657,-4.1239,3.177,0,0,0,0,0,0,0,-1,1161,1681,-4.12391,-3.17698
-56,-657,-6.40576,5.73987,0,0,0,0,0,0,0,-1,1168,1681,-6.40577,-5.7399
-49,-657,-5.98462,7.54053,0,0,0,0,0,0,0,-1,1175,1681,-5.98466,-7.5405
-42,-657,-5.71948,9.28955,0,0,0,0,0,0,0,-1,1182,1681,-5.71951,-9.2895
-35,-657,-5.44556,11.015,0,0,0,0,0,0,0,-1,1189,1681,-5.44555,-11.015
-28,-657,-1.3446,8.92847,0,0,0,0,0,0,0,-1,1196,1681,-1.34459,-8.92848
-21,-657,2.90698,13.8916,0,0,0,0,0,0,0,-1,1203,1681,2.90693,-13.8916
-14,-657,3.71936,14.91,0.108602,-0.101102,0.0279673,0.112268,-0.104768,0.130331,0.125331,0.0435281,1210,1681,3.71938,-14.9101
-7,-657,4.66833,16.0698,0.0991326,-0.100513,0.0268155,0.102672,-0.104052,0.131218,0.119353,0.0448031,1217,1681,4.66828,-16.0699
0,-657,5.48755,16.8705,0.0874698,-0.0961698,0.0242439,0.0906165,-0.0993165,0.129073,0.109696,0.042365,1224,1681,5.48759,-16.8705
7,-657,6.08167,17.3323,0.0768082,-0.0893766,0.0217091,0.0795973,-0.0921657,0.127776,0.0992559,0.0461852,1231,1681,6.08169,-17.3323
14,-657,6.66333,17.7606,0,0,0,0,0,0,0,-1,1238,1681,6.6633,-17.7606
21,-657,7.25366,19.1948,0.058883,-0.0709952,0.0200236,0.0619,-0.0740122,0.149547,0.0785727,0.0433034,1245,1681,7.25361,-19.1948
28,-657,6.98535,18.436,0.0517045,-0.0592995,0.0222885,0.0560126,-0.0636076,0.190934,0.0691091,0.0454828,1252,1681,6.98531,-18.436
35,-657,5.90784,20.2046,0.0456017,-0.0489348,0.0238902,0.051296,-0.0546291,0.233986,0.061166,0.0465678,1259,1681,5.90788,-20.2046
42,-657,6.11243,19.7622,0.04123,-0.0398889,0.0249748,0.0483025,-0.0469615,0.275963,0.0550025,0.0464623,1266,1681,6.11238,-19.7622
49,-657,6.17078,19.502,0.0392296,-0.0304658,0.0264117,0.0481077,-0.0393439,0.324275,0.0505746,0.045091,1273,1681,6.17082,-19.5019
56,-657,6.25256,19.1433,0.0382809,-0.0215198,0.0292758,0.0502267,-0.0334656,0.387422,0.0486417,0.0449684,1280,1681,6.25256,-19.1433
63,-657,6.32312,18.8118,0.0431931,-0.0123349,0.035096,0.0601792,-0.029321,0.450757,0.0526868,0.0486272,1287,1681,6.32306,-18.8117
70,-657,6.94922,19.712,0,0,0,0,0,0,0,-1,1294,1681,6.94922,-19.7121
77,-657,6.89661,19.6567,0.0642238,-0.00786814,0.0419219,0.0834658,-0.0271101,0.43031,0.0665474,0.0463344,1301,1681,6.89661,-19.6568
84,-657,6.84778,19.6626,0.0789433,-0.00871977,0.0432182,0.0966667,-0.0264433,0.389177,0.0748328,0.0459588,1308,1681,6.84777,-19.6626
91,-657,6.70215,19.5782,0.0952552,-0.0103147,0.0454316,0.112114,-0.0271737,0.355334,0.0852566,0.0481114,1315,1681,6.70216,-19.5782
98,-657,6.76465,19.5509,0,0,0,0,0,0,0,-1,1322,1681,6.76467,-19.5509
105,-657,13.0216,13.0895,0.132196,-0.0169012,0.0481406,0.146388,-0.0310939,0.286695,0.109439,0.0471175,1329,1681,13.0216,-13.0895
112,-657,6.07312,17.3413,0.152006,-0.0214836,0.0479101,0.164357,-0.0338349,0.252308,0.122418,0.0461816,1336,1681,6.07306,-17.3413
119,-657,14.5093,14.6146,0.17231,-0.0269883,0.0465379,0.182641,-0.0373198,0.218458,0.13592,0.0470955,1343,1681,14.5092,-14.6147
126,-657,16.0823,13.5743,0.190227,-0.0321671,0.0442469,0.198707,-0.040647,0.189354,0.147894,0.0463276,1350,1681,16.0823,-13.5744
133,-657,17.5067,12.598,0.202952,-0.0348805,0.0413111,0.209923,-0.0418518,0.167177,0.155785,0.0457366,1357,1681,17.5067,-12.5981
140,-657,19.136,11.2538,0,0,0,0,0,0,0,-1,1364,1681,19.1359,-11.2538
147,-657,20.5023,10.1635,0,0,0,0,0,0,0,-1,1371,1681,20.5024,-10.1635
154,-657,1.052,17.8698,0,0,0,0,0,0,0,-1,1378,1681,1.05199,-17.8698
161,-657,12.8524,6.43372,0,0,0,0,0,0,0,-1,1385,1681,12.8524,-6.43366
168,-657,5.21643,0.70105,0,0,0,0,0,0,0,-1,1392,1681,5.21648,-0.7011
175,-657,5.52771,0.649048,0,0,0,0,0,0,0,-1,1399,1681,5.52774,-0.649019
182,-657,5.73999,1.02612,0,0,0,0,0,0,0,-1,1406,1681,5.73995,-1.02611
189,-657,5.92126,1.44116,0,0,0,0,0,0,0,-1,1413,1681,5.92126,-1.44115
196,-657,4.92834,9.59021,0,0,0,0,0,0,0,-1,1420,1681,4.9284,-9.59018
203,-657,6.26343,5.16492,0,0,0,0,0,0,0,-1,1427,1681,6.26345,-5.16488
210,-657,3.9856,5.28088,0,0,0,0,0,0,0,-1,1434,1681,3.98555,-5.28084
217,-657,3.95178,5.2843,0,0,0,0,0,0,0,-1,1441,1681,3.95174,-5.28431
224,-657,6.66736,-0.250244,0,0,0,0,0,0,0,-1,1448,1681,6.66737,0.250229
231,-657,6.85498,-1.70752,0,0,0,0,0,0,0,-1,1455,1681,6.855,1.70758
238,-657,5.34143,-2.89819,0,0,0,0,0,0,0,-1,1462,1681,5.34143,2.89813
245,-657,8.66003,-0.102783,0,0,0,0,0,0,0,-1,1469,1681,8.66,0.102824
252,-657,4.78955,0.623779,0,0,0,0,0,0,0,-1,1476,1681,4.7895,-0.623826
259,-657,2.61523,4.31909,0,0,0,0,0,0,0,-1,1483,1681,2.61523,-4.31908
266,-657,5.35437,11.4742,0,0,0,0,0,0,0,-1,1490,1681,5.35441,-11.4742
273,-657,6.03857,17.7177,0,0,0,0,0,0,0,-1,1497,1681,6.03857,-17.7177
280,-657,6.15552,17.7618,0.00235521,-0.00187431,0.00355214,0.00437444,-0.00389354,0.516902,0.00477621,0.0397255,1504,1681,6.15555,-17.7618
287,-657,6.14148,17.6841,0.00211439,-0.00103629,0.00329593,0.00419211,-0.00311401,0.562466,0.00423347,0.032599,1511,1681,6.14144,-17.6841
294,-657,6.1311,17.6055,0.00192657,-0.000715528,0.00304925,0.00392864,-0.0027176,0.580985,0.00385838,0.0246373,1518,1681,6.13112,-17.6054
301,-657,6.11536,17.5175,0.00180698,-0.000367024,0.00279624,0.00372007,-0.00228011,0.600018,0.0034973,0.0164323,1525,1681,6.11536,-17.5175
308,-657,6.13818,17.3776,0.00170616,-4.86095e-05,0.00246167,0.00344213,-0.00178457,0.614207,0.0030678,0.011824,1532,1681,6.13821,-17.3776
315,-657,6.1571,17.2402,0.0015546,3.90342e-05,0.00215348,0.00307973,-0.0014861,0.616221,0.00268908,0.0104354,1539,1681,6.15714,-17.2402
322,-657,6.17847,17.0875,0.00135288,8.12151e-05,0.00187359,0.00269559,-0.00126149,0.621814,0.0023341,0.0133466,1546,1681,6.17849,-17.0876
329,-657,6.18689,16.9336,0.00112761,5.45147e-05,0.00164392,0.00232033,-0.00113821,0.627658,0.00203529,0.0202591,1553,1681,6.18688,-16.9336
336,-657,6.18054,16.7961,0.000903593,-0.000164331,0.00145664,0.00192105,-0.00118179,0.609718,0.0018083,0.0178072,1560,1681,6.18059,-16.7962
343,-657,6.19495,16.6559,0.000627743,-0.000569805,0.00132334,0.00148147,-0.00142353,0.572945,0.00167732,0.0135261,1567,1681,6.19496,-16.6559
350,-657,6.2146,16.4834,0.000333659,-0.000938697,0.00115011,0.00101182,-0.00161686,0.532772,0.00153101,0.0147972,1574,1681,6.21457,-16.4834
357,-657,6.20667,16.3192,5.98845e-05,-0.00139161,0.000988601,0.00056053,-0.00189226,0.468769,0.00148406,0.0140475,1581,1681,6.20666,-16.3192
364,-657,6.19849,16.1854,-0.000114302,-0.00165752,0.000734667,0.000179506,-0.00195133,0.380438,0.00136466,0.0104029,1588,1681,6.19852,-16.1854
371,-657,6.19824,16.0493,-0.000228849,-0.00197044,0.000526051,-8.22881e-05,-0.002117,0.271716,0.00138472,0.0138406,1595,1681,6.19822,-16.0493
378,-657,6.18127,15.8679,-0.00011601,-0.00223878,0.000258158,-8.50651e-05,-0.00226972,0.119298,0.0014856,0.014311,1602,1681,6.1813,-15.8679
385,-657,6.17371,15.6749,0.000390762,-0.00267042,-0.000203686,0.000404256,-0.00268391,-0.0661496,0.00193813,0.0126734,1609,1681,6.17374,-15.6749
392,-657,6.18579,15.5203,0.00110503,-0.00325353,-0.000952687,0.00130417,-0.00345266,-0.206062,0.0028382,0.0125255,1616,1681,6.1858,-15.5203
399,-657,6.19092,15.3257,0.00161726,-0.00371393,-0.00161788,0.00206983,-0.00416649,-0.272757,0.00366774,0.012543,1623,1681,6.19092,-15.3256
406,-657,6.18079,15.1477,0.00190414,-0.00408029,-0.00210907,0.00257274,-0.00474889,-0.306987,0.00428893,0.0144363,1630,1681,6.1808,-15.1477
413,-657,6.19995,14.9774,0.0025208,-0.00463392,-0.00262677,0.00338162,-0.00549474,-0.316681,0.00517295,0.0143441,1637,1681,6.19998,-14.9774
420,-657,6.19507,14.745,0.0031351,-0.0056103,-0.00298547,0.00405707,-0.00653228,-0.299528,0.00616918,0.0148788,1644,1681,6.19507,-14.7451
427,-657,6.16479,14.5017,0.00350846,-0.00699688,-0.00314389,0.00437744,-0.00786585,-0.269669,0.00716367,0.0189228,1651,1681,6.16479,-14.5018
434,-657,6.26196,14.3177,0.00360909,-0.00847324,-0.00314447,0.00437846,-0.00924261,-0.239959,0.00802954,0.0266812,1658,1681,6.26199,-14.3177
441,-657,6.39404,14.2432,0.00326151,-0.00916894,-0.0027154,0.00382879,-0.00973623,-0.205951,0.00807553,0.0438483,1665,1681,6.39408,-14.2432
448,-657,5.81262,14.2397,0,0,0,0,0,0,0,-1,1672,1681,5.81258,-14.2397
455,-657,4.82458,13.7941,0,0,0,0,0,0,0,-1,1679,1681,4.82457,-13.794
462,-657,5.24744,15.1647,0,0,0,0,0,0,0,-1,1686,1681,5.24748,-15.1647
469,-657,5.98328,13.9913,0,0,0,0,0,0,0,-1,1693,1681,5.9833,-13.9914
476,-657,8.37659,10.886,0,0,0,0,0,0,0,-1,1700,1681,8.37653,-10.886
483,-657,4.59094,16.0554,0,0,0,0,0,0,0,-1,1707,1681,4.59099,-16.0555
490,-657,5.89807,14.5964,0,0,0,0,0,0,0,-1,1714,1681,5.89807,-14.5964
497,-657,6.62158,13.0172,0,0,0,0,0,0,0,-1,1721,1681,6.62157,-13.0173
504,-657,0,0,0,0,0,0,0,0,0,-1,1728,1681,0,0
511,-657,0,0,0,0,0,0,0,0,0,-1,1735,1681,0,0
518,-657,0,0,0,0,0,0,0,0,0,-1,1742,1681,0,0
525,-657,0,0,0,0,0,0,0,0,0,-1,1749,1681,0,0
532,-657,0,0,0,0,0,0,0,0,0,-1,1756,1681,0,0
539,-657,0,0,0,0,0,0,0,0,0,-1,1763,1681,0,0
546,-657,0,0,0,0,0,0,0,0,0,-1,1770,1681,0,0
553,-657,0,0,0,0,0,0,0,0,0,-1,1777,1681,0,0
560,-657,0,0,0,0,0,0,0,0,0,-1,1784,1681,0,0
567,-657,0,0,0,0,0,0,0,0,0,-1,1791,1681,0,0
574,-657,0,0,0,0,0,0,0,0,0,-1,1798,1681,0,0
581,-657,0,0,0,0,0,0,0,0,0,-1,1805,1681,0,0
588,-657,0,0,0,0,0,0,0,0,0,-1,1812,1681,0,0
595,-657,0,0,0,0,0,0,0,0,0,-1,1819,1681,0,0
602,-657,0,0,0,0,0,0,0,0,0,-1,1826,1681,0,0
609,-657,0,0,0,0,0,0,0,0,0,-1,1833,1681,0,0
616,-657,0,0,0,0,0,0,0,0,0,-1,1840,1681,0,0
623,-657,0,0,0,0,0,0,0,0,0,-1,1847,1681,0,0
630,-657,0,0,0,0,0,0,0,0,0,-1,1854,1681,0,0
637,-657,0,0,0,0,0,0,0,0,0,-1,1861,1681,0,0
644,-657,0,0,0,0,0,0,0,0,0,-1,1868,1681,0,0
651,-657,0,0,0,0,0,0,0,0,0,-1,1875,1681,0,0
658,-657,0,0,0,0,0,0,0,0,0,-1,1882,1681,0,0
665,-657,0,0,0,0,0,0,0,0,0,-1,1889,1681,0,0
672,-657,0,0,0,0,0,0,0,0,0,-1,1896,1681,0,0
679,-657,0,0,0,0,0,0,0,0,0,-1,1903,1681,0,0
686,-657,0,0,0,0,0,0,0,0,0,-1,1910,1681,0,0
693,-657,0,0,0,0,0,0,0,0,0,-1,1917,1681,0,0
700,-657,0,0,0,0,0,0,0,0,0,-1,1924,1681,0,0
707,-657,0,0,0,0,0,0,0,0,0,-1,1931,1681,0,0
714,-657,0,0,0,0,0,0,0,0,0,-1,1938,1681,0,0
721,-657,0,0,0,0,0,0,0,0,0,-1,1945,1681,0,0
728,-657,0,0,0,0,0,0,0,0,0,-1,1952,1681,0,0
735,-657,0,0,0,0,0,0,0,0,0,-1,1959,1681,0,0
742,-657,0,0,0,0,0,0,0,0,0,-1,1966,1681,0,0
749,-657,0,0,0,0,0,0,0,0,0,-1,1973,1681,0,0
756,-657,0,0,0,0,0,0,0,0,0,-1,1980,1681,0,0
763,-657,0,0,0,0,0,0,0,0,0,-1,1987,1681,0,0
770,-657,0,0,0,0,0,0,0,0,0,-1,1994,1681,0,0
777,-657,0,0,0,0,0,0,0,0,0,-1,2001,1681,0,0
784,-657,0,0,0,0,0,0,0,0,0,-1,2008,1681,0,0
791,-657,0,0,0,0,0,0,0,0,0,-1,2015,1681,0,0
798,-657,0,0,0,0,0,0,0,0,0,-1,2022,1681,0,0
805,-657,0,0,0,0,0,0,0,0,0,-1,2029,1681,0,0
812,-657,0,0,0,0,0,0,0,0,0,-1,2036,1681,0,0
-700,-664,0,0,0,0,0,0,0,0,0,-1,524,1688,0,0
-693,-664,0,0,0,0,0,0,0,0,0,-1,531,1688,0,0
-686,-664,0,0,0,0,0,0,0,0,0,-1,538,1688,0,0
-679,-664,0,0,0,0,0,0,0,0,0,-1,545,1688,0,0
-672,-664,0,0,0,0,0,0,0,0,0,-1,552,1688,0,0
-665,-664,0,0,0,0,0,0,0,0,0,-1,559,1688,0,0
-658,-664,0,0,0,0,0,0,0,0,0,-1,566,1688,0,0
-651,-664,0,0,0,0,0,0,0,0,0,-1,573,1688,0,0
-644,-664,0,0,0,0,0,0,0,0,0,-1,580,1688,0,0
-637,-664,0,0,0,0,0,0,0,0,0,-1,587,1688,0,0
-630,-664,0,0,0,0,0,0,0,0,0,-1,594,1688,0,0
-623,-664,0,0,0,0,0,0,0,0,0,-1,601,1688,0,0
-616,-664,0,0,0,0,0,0,0,0,0,-1,608,1688,0,0
-609,-664,0,0,0,0,0,0,0,0,0,-1,615,1688,0,0
-602,-664,0,0,0,0,0,0,0,0,0,-1,622,1688,0,0
-595,-664,0,0,0,0,0,0,0,0,0,-1,629,1688,0,0
-588,-664,0,0,0,0,0,0,0,0,0,-1,636,1688,0,0
-581,-664,0,0,0,0,0,0,0,0,0,-1,643,1688,0,0
-574,-664,0,0,0,0,0,0,0,0,0,-1,650,1688,0,0
-567,-664,0,0,0,0,0,0,0,0,0,-1,657,1688,0,0
-560,-664,0,0,0,0,0,0,0,0,0,-1,664,1688,0,0
-553,-664,0,0,0,0,0,0,0,0,0,-1,671,1688,0,0
-546,-664,0,0,0,0,0,0,0,0,0,-1,678,1688,0,0
-539,-664,0,0,0,0,0,0,0,0,0,-1,685,1688,0,0
-532,-664,0,0,0,0,0,0,0,0,0,-1,692,1688,0,0
-525,-664,0,0,0,0,0,0,0,0,0,-1,699,1688,0,0
-518,-664,0,0,0,0,0,0,0,0,0,-1,706,1688,0,0
-511,-664,0,0,0,0,0,0,0,0,0,-1,713,1688,0,0
-504,-664,0,0,0,0,0,0,0,0,0,-1,720,1688,0,0
-497,-664,0,0,0,0,0,0,0,0,0,-1,727,1688,0,0
-490,-664,0,0,0,0,0,0,0,0,0,-1,734,1688,0,0
-483,-664,0,0,0,0,0,0,0,0,0,-1,741,1688,0,0
-476,-664,0,0,0,0,0,0,0,0,0,-1,748,1688,0,0
-469,-664,0,0,0,0,0,0,0,0,0,-1,755,1688,0,0
-462,-664,0,0,0,0,0,0,0,0,0,-1,762,1688,0,0
-455,-664,0,0,0,0,0,0,0,0,0,-1,769,1688,0,0
-448,-664,0,0,0,0,0,0,0,0,0,-1,776,1688,0,0
-441,-664,0,0,0,0,0,0,0,0,0,-1,783,1688,0,0
-434,-664,0,0,0,0,0,0,0,0,0,-1,790,1688,0,0
-427,-664,0,0,0,0,0,0,0,0,0,-1,797,1688,0,0
-420,-664,0,0,0,0,0,0,0,0,0,-1,804,1688,0,0
-413,-664,0,0,0,0,0,0,0,0,0,-1,811,1688,0,0
-406,-664,0,0,0,0,0,0,0,0,0,-1,818,1688,0,0
-399,-664,0,0,0,0,0,0,0,0,0,-1,825,1688,0,0
-392,-664,0,0,0,0,0,0,0,0,0,-1,832,1688,0,0
-385,-664,0,0,0,0,0,0,0,0,0,-1,839,1688,0,0
-378,-664,0,0,0,0,0,0,0,0,0,-1,846,1688,0,0
-371,-664,-1.61676,5.92737,0,0,0,0,0,0,0,-1,853,1688,-1.61675,-5.92735
-364,-664,-3.901,5.87024,0,0,0,0,0,0,0,-1,860,1688,-3.90097,-5.87027
-357,-664,-4.81012,4.53479,0,0,0,0,0,0,0,-1,867,1688,-4.81012,-4.5348
-350,-664,-5.7193,3.19934,0,0,0,0,0,0,0,-1,874,1688,-5.71927,-3.19932
-343,-664,-6.37476,1.54712,0,0,0,0,0,0,0,-1,881,1688,-6.37479,-1.54714
-336,-664,3.33313,10.5156,0,0,0,0,0,0,0,-1,888,1688,3.33311,-10.5156
-329,-664,3.43506,10.6934,0,0,0,0,0,0,0,-1,895,1688,3.43506,-10.6934
-322,-664,3.7356,11.8364,0,0,0,0,0,0,0,-1,902,1688,3.73561,-11.8365
-315,-664,4.33954,13.2892,0,0,0,0,0,0,0,-1,909,1688,4.33957,-13.2892
-308,-664,4.22906,13.4835,0,0,0,0,0,0,0,-1,916,1688,4.22903,-13.4835
-301,-664,3.76263,13.9374,0.00296807,-0.00330972,0.000761884,0.00305921,-0.00340086,0.119059,0.00373146,0.0430614,923,1688,3.76264,-13.9374
-294,-664,3.89734,13.6677,0.00287242,-0.00178357,0.000849316,0.00302251,-0.00193366,0.174911,0.00288437,0.0433686,930,1688,3.89733,-13.6677
-287,-664,3.96924,13.9017,0.00246903,-0.000441964,0.000693841,0.00262595,-0.000598883,0.222419,0.00198067,0.0320699,937,1688,3.96926,-13.9018
-280,-664,3.92023,14.1062,0.00166848,0.000297441,0.00045881,0.00180785,0.00015807,0.294907,0.00115615,0.0212945,944,1688,3.92023,-14.1062
-273,-664,3.93109,14.2695,0.000883274,0.000760588,0.000129337,0.000965078,0.000678784,0.563966,0.000572342,0.0158702,951,1688,3.93108,-14.2695
-266,-664,3.92822,14.4551,0.000390871,0.000954612,-8.19306e-05,0.000966278,0.000379205,-1.42936,0.000562167,0.0196632,958,1688,3.92822,-14.455
-259,-664,3.92212,14.6667,3.00666e-05,0.00103073,-0.0002555,0.0010922,-3.13951e-05,-1.33473,0.000738818,0.017628,965,1688,3.92211,-14.6667
-252,-664,3.93835,14.8849,-0.000357496,0.000501425,-0.000369008,0.000638182,-0.000494253,-1.21588,0.00065557,0.016299,972,1688,3.93834,-14.8849
-245,-664,3.92053,15.1097,-0.000663089,0.000562472,-0.00066515,0.000854084,-0.000954701,-1.15762,0.00104484,0.021324,979,1688,3.92051,-15.1098
-238,-664,3.97705,15.2563,-0.000908957,0.000312431,-0.000970786,0.000848633,-0.00144516,-1.06616,0.00133917,0.0244922,986,1688,3.97703,-15.2563
-231,-664,3.96515,15.4376,-0.00100443,-0.000456921,-0.000928117,0.000236972,-0.00169832,-0.928811,0.00121891,0.0200321,993,1688,3.96516,-15.4376
-224,-664,3.92157,15.6754,-0.000878042,-0.00131354,-0.000913159,-0.00015703,-0.00203455,-0.668355,0.00130717,0.0133872,1000,1688,3.92158,-15.6754
-217,-664,3.92407,15.8253,-0.000644404,-0.00191978,-0.000865,-0.000207442,-0.00235674,-0.467765,0.00150678,0.0106837,1007,1688,3.92405,-15.8253
-210,-664,3.91266,15.9878,-0.000288517,-0.00231538,-0.000831413,8.88738e-06,-0.00261278,-0.343526,0.00174483,0.0109934,1014,1688,3.91266,-15.9878
-203,-664,3.90735,16.1503,0.00010828,-0.00266615,-0.000796302,0.000320585,-0.00287846,-0.260552,0.00203427,0.0127829,1021,1688,3.90736,-16.1503
-196,-664,3.91443,16.2936,0.000527077,-0.00290312,-0.00074002,0.000679916,-0.00305596,-0.20367,0.00229773,0.0140788,1028,1688,3.91441,-16.2936
-189,-664,3.9126,16.4725,0.000887937,-0.00292633,-0.000547255,0.000964902,-0.00300329,-0.139722,0.00238967,0.00980373,1035,1688,3.91255,-16.4726
-182,-664,3.91516,16.6273,0.00112382,-0.0029034,-0.000515145,0.00118867,-0.00296826,-0.12523,0.00247222,0.00912893,1042,1688,3.91516,-16.6273
-175,-664,3.92883,16.7689,0.00150916,-0.00271611,-0.000468939,0.00156058,-0.00276753,-0.109214,0.00253102,0.0127288,1049,1688,3.92885,-16.7689
-168,-664,3.93372,16.9204,0.00187292,-0.00261375,-0.000307686,0.00189392,-0.00263476,-0.0681527,0.00262627,0.0142703,1056,1688,3.93375,-16.9204
-161,-664,3.94995,17.0543,0.0022306,-0.00245002,-8.55605e-05,0.00223216,-0.00245158,-0.0182716,0.00270515,0.0104088,1063,1688,3.94995,-17.0544
-154,-664,3.96252,17.1919,0.00272857,-0.00226851,0.000182533,0.00273523,-0.00227516,0.0364632,0.00289681,0.00949757,1070,1688,3.9625,-17.1919
-147,-664,3.96204,17.345,0.00298078,-0.00218445,0.000496149,0.003028,-0.00223167,0.0948995,0.00304826,0.010211,1077,1688,3.96204,-17.3449
-140,-664,3.98779,17.4855,0.00311693,-0.00198627,0.000543977,0.00317427,-0.00204362,0.105023,0.00303603,0.0104624,1084,1688,3.98784,-17.4855
-133,-664,4.01294,17.6068,0.00357167,-0.00213999,0.000648704,0.00364442,-0.00221274,0.11168,0.00341514,0.0118422,1091,1688,4.01295,-17.6068
-126,-664,4.08984,17.7388,0.00420097,-0.00200065,0.00103378,0.00436876,-0.00216844,0.160901,0.00384485,0.021284,1098,1688,4.0899,-17.7388
-119,-664,4.2323,17.7556,0.00512253,-0.00146196,0.00167288,0.00552317,-0.0018626,0.235064,0.00443532,0.0349552,1105,1688,4.23232,-17.7557
-112,-664,4.35327,17.7682,0,0,0,0,0,0,0,-1,1112,1688,4.3533,-17.7681
-105,-664,4.27844,17.5621,0,0,0,0,0,0,0,-1,1119,1688,4.2785,-17.5621
-98,-664,4.1123,17.1851,0,0,0,0,0,0,0,-1,1126,1688,4.11232,-17.1851
-91,-664,3.7981,16.9382,0,0,0,0,0,0,0,-1,1133,1688,3.79811,-16.9382
-84,-664,3.48389,16.6913,0,0,0,0,0,0,0,-1,1140,1688,3.4839,-16.6913
-77,-664,4.52014,11.2122,0,0,0,0,0,0,0,-1,1147,1688,4.5202,-11.2122
-70,-664,4.20374,8.24524,0,0,0,0,0,0,0,-1,1154,1688,4.20379,-8.24519
-63,-664,-4.677,2.40503,0,0,0,0,0,0,0,-1,1161,1688,-4.67702,-2.40498
-56,-664,-4.66504,3.32727,0,0,0,0,0,0,0,-1,1168,1688,-4.6651,-3.32724
-49,-664,-2.54297,3.31848,0,0,0,0,0,0,0,-1,1175,1688,-2.54297,-3.31852
-42,-664,-0.359253,4.38684,0,0,0,0,0,0,0,-1,1182,1688,-0.359261,-4.38685
-35,-664,-0.705566,3.55017,0,0,0,0,0,0,0,-1,1189,1688,-0.705567,-3.55023
-28,-664,-1.54236,10.2538,0,0,0,0,0,0,0,-1,1196,1688,-1.54236,-10.2538
-21,-664,2.65613,14.3899,0,0,0,0,0,0,0,-1,1203,1688,2.6561,-14.3899
-14,-664,3.39404,15.4125,0.0870492,-0.0812908,0.0256505,0.0908709,-0.0851125,0.147903,0.101622,0.0419545,1210,1688,3.39406,-15.4125
-7,-664,4.39258,16.6161,0.0797007,-0.080054,0.0246477,0.083417,-0.0837703,0.14965,0.0965257,0.0452838,1217,1688,4.39262,-16.6161
0,-664,6.1499,18.2198,0.0704362,-0.0762833,0.0227156,0.0738726,-0.0797197,0.150142,0.088698,0.0458487,1224,1688,6.14985,-18.2198
7,-664,5.92322,17.8628,0.0617183,-0.0706953,0.0207747,0.0649011,-0.0738782,0.152027,0.0801802,0.0438038,1231,1688,5.92316,-17.8628
14,-664,6.61975,18.2733,0,0,0,0,0,0,0,-1,1238,1688,6.6197,-18.2733
21,-664,6.42529,19.3574,0.0464936,-0.0557762,0.0192191,0.0499861,-0.0592687,0.179759,0.0631541,0.0447217,1245,1688,6.42531,-19.3574
28,-664,6.30347,18.6418,0.0403484,-0.0465717,0.0206494,0.0450046,-0.0512279,0.221779,0.0555986,0.044913,1252,1688,6.30349,-18.6418
35,-664,5.65173,19.7792,0,0,0,0,0,0,0,-1,1259,1688,5.65168,-19.7792
42,-664,5.75732,19.6323,0,0,0,0,0,0,0,-1,1266,1688,5.75735,-19.6323
49,-664,5.86304,19.4854,0,0,0,0,0,0,0,-1,1273,1688,5.86303,-19.4854
56,-664,6.76648,19.5509,0,0,0,0,0,0,0,-1,1280,1688,6.76644,-19.5509
63,-664,7.22205,19.9204,0,0,0,0,0,0,0,-1,1287,1688,7.22203,-19.9204
70,-664,6.62903,19.7513,0,0,0,0,0,0,0,-1,1294,1688,6.62909,-19.7513
77,-664,6.61536,19.6823,0.0502228,-0.00699689,0.0348054,0.0666678,-0.0234419,0.441394,0.0539833,0.0436566,1301,1688,6.61535,-19.6823
84,-664,6.53113,19.6663,0.0633034,-0.00836637,0.0359627,0.0782371,-0.0233001,0.393589,0.0614162,0.0444036,1308,1688,6.53116,-19.6662
91,-664,6.44836,19.5968,0.0774875,-0.0102872,0.0378384,0.091547,-0.0243468,0.355759,0.0705613,0.0443551,1315,1688,6.44832,-19.5968
98,-664,6.47449,19.5583,0,0,0,0,0,0,0,-1,1322,1688,6.47444,-19.5584
105,-664,4.68823,18.4342,0,0,0,0,0,0,0,-1,1329,1688,4.68825,-18.4342
112,-664,5.88892,17.6726,0,0,0,0,0,0,0,-1,1336,1688,5.88886,-17.6726
119,-664,6.42236,17.1802,0,0,0,0,0,0,0,-1,1343,1688,6.42238,-17.1802
126,-664,15.0464,14.5477,0.16013,-0.0297214,0.0388367,0.167767,-0.0373588,0.194176,0.126155,0.0496701,1350,1688,15.0464,-14.5477
133,-664,16.6174,13.8176,0.171112,-0.0319769,0.037053,0.177661,-0.038526,0.174941,0.133153,0.0488294,1357,1688,16.6174,-13.8176
140,-664,18.1815,13.0416,0,0,0,0,0,0,0,-1,1364,1688,18.1815,-13.0416
147,-664,0.767212,18.4705,0,0,0,0,0,0,0,-1,1371,1688,0.767185,-18.4705
154,-664,13.5482,5.89453,0,0,0,0,0,0,0,-1,1378,1688,13.5482,-5.8945
161,-664,4.60132,1.56238,0,0,0,0,0,0,0,-1,1385,1688,4.60134,-1.56233
168,-664,5.172,1.25488,0,0,0,0,0,0,0,-1,1392,1688,5.17203,-1.25484
175,-664,5.58313,1.16467,0,0,0,0,0,0,0,-1,1399,1688,5.58317,-1.16466
182,-664,5.74268,1.41113,0,0,0,0,0,0,0,-1,1406,1688,5.74263,-1.41115
189,-664,5.87744,1.87061,0,0,0,0,0,0,0,-1,1413,1688,5.87745,-1.87065
196,-664,6.7594,5.97473,0,0,0,0,0,0,0,-1,1420,1688,6.75943,-5.97478
203,-664,5.38452,5.22034,0,0,0,0,0,0,0,-1,1427,1688,5.38453,-5.2203
210,-664,5.25549,6.45715,0,0,0,0,0,0,0,-1,1434,1688,5.25549,-6.45721
217,-664,5.72009,6.73975,0,0,0,0,0,0,0,-1,1441,1688,5.72014,-6.73972
224,-664,5.05725,7.42908,0,0,0,0,0,0,0,-1,1448,1688,5.05723,-7.42912
231,-664,5.13318,7.60864,0,0,0,0,0,0,0,-1,1455,1688,5.13313,-7.60862
238,-664,4.23193,6.45471,0,0,0,0,0,0,0,-1,1462,1688,4.23197,-6.45476
245,-664,4.42004,6.80896,0,0,0,0,0,0,0,-1,1469,1688,4.4201,-6.80901
252,-664,3.67346,6.85461,0,0,0,0,0,0,0,-1,1476,1688,3.6734,-6.85462
259,-664,4.55823,11.7435,0,0,0,0,0,0,0,-1,1483,1688,4.55826,-11.7435
266,-664,5.86133,17.6897,0,0,0,0,0,0,0,-1,1490,1688,5.86136,-17.6897
273,-664,5.93665,17.8342,0.00194777,-0.00323099,0.00269775,0.00309774,-0.00438096,0.402946,0.00433896,0.0360698,1497,1688,5.93664,-17.8342
280,-664,5.99268,17.84,0.00197505,-0.00236356,0.00261141,0.00320065,-0.00358916,0.438806,0.00392224,0.0213256,1504,1688,5.99262,-17.84
287,-664,5.91479,17.7198,0.00184983,-0.00150775,0.00233196,0.00304443,-0.00270235,0.473417,0.00331986,0.0182886,1511,1688,5.91477,-17.7199
294,-664,5.95178,17.6077,0.00167603,-0.00108536,0.0021335,0.00283662,-0.00224595,0.498213,0.00294102,0.012746,1518,1688,5.95174,-17.6076
301,-664,5.98621,17.504,0.00152591,-0.000669642,0.00193459,0.00265249,-0.00179622,0.527329,0.00258428,0.00932703,1525,1688,5.98616,-17.504
308,-664,6.00854,17.3722,0.00135663,-0.000310034,0.00168835,0.0024061,-0.00135951,0.55615,0.00220189,0.0100858,1532,1688,6.00858,-17.3722
315,-664,6.02637,17.2369,0.00113895,-0.00015604,0.00148791,0.00211415,-0.00113124,0.580171,0.00190215,0.0115783,1539,1688,6.02633,-17.237
322,-664,6.0448,17.0941,0.000882344,-5.27882e-05,0.0013028,0.00179894,-0.000969384,0.61311,0.00162204,0.0155849,1546,1688,6.04485,-17.0942
329,-664,6.03357,16.9556,0.000573193,-6.35693e-05,0.00113006,0.00142886,-0.000919239,0.648088,0.00136628,0.0182856,1553,1688,6.03362,-16.9555
336,-664,6.03308,16.7965,0.000261449,-0.000511422,0.00100538,0.000952107,-0.00120208,0.60192,0.00124651,0.0148145,1560,1688,6.03312,-16.7965
343,-664,6.04529,16.6565,-7.04997e-05,-0.00105217,0.000905638,0.000468761,-0.00159143,0.537066,0.00124693,0.0116124,1567,1688,6.04526,-16.6565
350,-664,6.06018,16.489,-0.000407114,-0.00138689,0.00102839,0.000242113,-0.00203612,0.563118,0.00144489,0.0130148,1574,1688,6.06021,-16.489
357,-664,6.05151,16.3221,-0.000714232,-0.00188595,0.00106354,-8.58658e-05,-0.00251432,0.533647,0.00164833,0.0130322,1581,1688,6.05152,-16.3221
364,-664,6.04053,16.1733,-0.000909266,-0.00214891,0.00107479,-0.000288383,-0.00276979,0.523846,0.0017583,0.0112293,1588,1688,6.04059,-16.1733
371,-664,6.04529,16.0322,-0.00102891,-0.00243009,0.00121346,-0.00032832,-0.00313068,0.523599,0.00198675,0.0131593,1595,1688,6.04527,-16.0322
378,-664,6.02917,15.864,-0.000852623,-0.00259407,0.00140928,-6.67762e-05,-0.00337992,0.508677,0.00223135,0.0122236,1602,1688,6.02915,-15.8641
385,-664,6.02405,15.6914,-0.000209989,-0.00281202,0.00142989,0.000422184,-0.00344419,0.416277,0.00244901,0.0128139,1609,1688,6.02405,-15.6914
392,-664,5.99939,15.5284,0.000713933,-0.00312472,0.00111769,0.00101565,-0.00342644,0.263665,0.0026876,0.0154408,1616,1688,5.99939,-15.5284
399,-664,5.99634,15.3347,0.00143624,-0.0033054,0.000974242,0.00162861,-0.00349777,0.194947,0.00302458,0.0128966,1623,1688,5.99629,-15.3347
406,-664,6.00818,15.1394,0.0019796,-0.003355,0.000945247,0.00214214,-0.00351754,0.170287,0.00329962,0.0129379,1630,1688,6.00816,-15.1394
413,-664,6.03711,14.9393,0.00296138,-0.00363549,0.000774098,0.003051,-0.0037251,0.115257,0.00391863,0.0139385,1637,1688,6.03716,-14.9393
420,-664,6.05359,14.7036,0.00398943,-0.00452559,0.000578727,0.00402858,-0.00456475,0.0675514,0.00496458,0.0295257,1644,1688,6.05355,-14.7036
427,-664,6.0968,14.5665,0.004909,-0.0060719,0.00048446,0.00493034,-0.00609323,0.0440044,0.00637625,0.0470883,1651,1688,6.09678,-14.5666
434,-664,6.6532,14.729,0.0057662,-0.007555,0.000300671,0.00577298,-0.00756178,0.0225555,0.00772189,0.0432595,1658,1688,6.65315,-14.729
441,-664,6.96863,14.7234,0.00627685,-0.00750804,0.000327704,0.00628464,-0.00751583,0.0237548,0.00797827,0.049254,1665,1688,6.96859,-14.7234
448,-664,7.30664,14.696,0,0,0,0,0,0,0,-1,1672,1688,7.3066,-14.6961
455,-664,7.53198,11.3838,0,0,0,0,0,0,0,-1,1679,1688,7.53195,-11.3838
462,-664,4.3147,4.25439,0,0,0,0,0,0,0,-1,1686,1688,4.31467,-4.25435
469,-664,6.05469,7.49341,0,0,0,0,0,0,0,-1,1693,1688,6.05474,-7.49339
476,-664,9.76514,11.5648,0,0,0,0,0,0,0,-1,1700,1688,9.76511,-11.5648
483,-664,8.41895,10.9768,0,0,0,0,0,0,0,-1,1707,1688,8.41897,-10.9769
490,-664,5.38965,15.6416,0,0,0,0,0,0,0,-1,1714,1688,5.38968,-15.6416
497,-664,0,0,0,0,0,0,0,0,0,-1,1721,1688,0,0
504,-664,0,0,0,0,0,0,0,0,0,-1,1728,1688,0,0
511,-664,0,0,0,0,0,0,0,0,0,-1,1735,1688,0,0
518,-664,0,0,0,0,0,0,0,0,0,-1,1742,1688,0,0
525,-664,0,0,0,0,0,0,0,0,0,-1,1749,1688,0,0
532,-664,0,0,0,0,0,0,0,0,0,-1,1756,1688,0,0
539,-664,0,0,0,0,0,0,0,0,0,-1,1763,1688,0,0
546,-664,0,0,0,0,0,0,0,0,0,-1,1770,1688,0,0
553,-664,0,0,0,0,0,0,0,0,0,-1,1777,1688,0,0
560,-664,0,0,0,0,0,0,0,0,0,-1,1784,1688,0,0
567,-664,0,0,0,0,0,0,0,0,0,-1,1791,1688,0,0
574,-664,0,0,0,0,0,0,0,0,0,-1,1798,1688,0,0
581,-664,0,0,0,0,0,0,0,0,0,-1,1805,1688,0,0
588,-664,0,0,0,0,0,0,0,0,0,-1,1812,1688,0,0
595,-664,0,0,0,0,0,0,0,0,0,-1,1819,1688,0,0
602,-664,0,0,0,0,0,0,0,0,0,-1,1826,1688,0,0
609,-664,0,0,0,0,0,0,0,0,0,-1,1833,1688,0,0
616,-664,0,0,0,0,0,0,0,0,0,-1,1840,1688,0,0
623,-664,0,0,0,0,0,0,0,0,0,-1,1847,1688,0,0
630,-664,0,0,0,0,0,0,0,0,0,-1,1854,1688,0,0
637,-664,0,0,0,0,0,0,0,0,0,-1,1861,1688,0,0
644,-664,0,0,0,0,0,0,0,0,0,-1,1868,1688,0,0
651,-664,0,0,0,0,0,0,0,0,0,-1,1875,1688,0,0
658,-664,0,0,0,0,0,0,0,0,0,-1,1882,1688,0,0
665,-664,0,0,0,0,0,0,0,0,0,-1,1889,1688,0,0
672,-664,0,0,0,0,0,0,0,0,0,-1,1896,1688,0,0
679,-664,0,0,0,0,0,0,0,0,0,-1,1903,1688,0,0
686,-664,0,0,0,0,0,0,0,0,0,-1,1910,1688,0,0
693,-664,0,0,0,0,0,0,0,0,0,-1,1917,1688,0,0
700,-664,0,0,0,0,0,0,0,0,0,-1,1924,1688,0,0
707,-664,0,0,0,0,0,0,0,0,0,-1,1931,1688,0,0
714,-664,0,0,0,0,0,0,0,0,0,-1,1938,1688,0,0
721,-664,0,0,0,0,0,0,0,0,0,-1,1945,1688,0,0
728,-664,0,0,0,0,0,0,0,0,0,-1,1952,1688,0,0
735,-664,0,0,0,0,0,0,0,0,0,-1,1959,1688,0,0
742,-664,0,0,0,0,0,0,0,0,0,-1,1966,1688,0,0
749,-664,0,0,0,0,0,0,0,0,0,-1,1973,1688,0,0
756,-664,0,0,0,0,0,0,0,0,0,-1,1980,1688,0,0
763,-664,0,0,0,0,0,0,0,0,0,-1,1987,1688,0,0
770,-664,0,0,0,0,0,0,0,0,0,-1,1994,1688,0,0
777,-664,0,0,0,0,0,0,0,0,0,-1,2001,1688,0,0
784,-664,0,0,0,0,0,0,0,0,0,-1,2008,1688,0,0
791,-664,0,0,0,0,0,0,0,0,0,-1,2015,1688,0,0
798,-664,0,0,0,0,0,0,0,0,0,-1,2022,1688,0,0
805,-664,0,0,0,0,0,0,0,0,0,-1,2029,1688,0,0
812,-664,0,0,0,0,0,0,0,0,0,-1,2036,1688,0,0
-700,-671,0,0,0,0,0,0,0,0,0,-1,524,1695,0,0
-693,-671,0,0,0,0,0,0,0,0,0,-1,531,1695,0,0
-686,-671,0,0,0,0,0,0,0,0,0,-1,538,1695,0,0
-679,-671,0,0,0,0,0,0,0,0,0,-1,545,1695,0,0
-672,-671,0,0,0,0,0,0,0,0,0,-1,552,1695,0,0
-665,-671,0,0,0,0,0,0,0,0,0,-1,559,1695,0,0
-658,-671,0,0,0,0,0,0,0,0,0,-1,566,1695,0,0
-651,-671,0,0,0,0,0,0,0,0,0,-1,573,1695,0,0
-644,-671,0,0,0,0,0,0,0,0,0,-1,580,1695,0,0
-637,-671,0,0,0,0,0,0,0,0,0,-1,587,1695,0,0
-630,-671,0,0,0,0,0,0,0,0,0,-1,594,1695,0,0
-623,-671,0,0,0,0,0,0,0,0,0,-1,601,1695,0,0
-616,-671,0,0,0,0,0,0,0,0,0,-1,608,1695,0,0
-609,-671,0,0,0,0,0,0,0,0,0,-1,615,1695,0,0
-602,-671,0,0,0,0,0,0,0,0,0,-1,622,1695,0,0
-595,-671,0,0,0,0,0,0,0,0,0,-1,629,1695,0,0
-588,-671,0,0,0,0,0,0,0,0,0,-1,636,1695,0,0
-581,-671,0,0,0,0,0,0,0,0,0,-1,643,1695,0,0
-574,-671,0,0,0,0,0,0,0,0,0,-1,650,1695,0,0
-567,-671,0,0,0,0,0,0,0,0,0,-1,657,1695,0,0
-560,-671,0,0,0,0,0,0,0,0,0,-1,664,1695,0,0
-553,-671,0,0,0,0,0,0,0,0,0,-1,671,1695,0,0
-546,-671,0,0,0,0,0,0,0,0,0,-1,678,1695,0,0
-539,-671,0,0,0,0,0,0,0,0,0,-1,685,1695,0,0
-532,-671,0,0,0,0,0,0,0,0,0,-1,692,1695,0,0
-525,-671,0,0,0,0,0,0,0,0,0,-1,699,1695,0,0
-518,-671,0,0,0,0,0,0,0,0,0,-1,706,1695,0,0
-511,-671,0,0,0,0,0,0,0,0,0,-1,713,1695,0,0
-504,-671,0,0,0,0,0,0,0,0,0,-1,720,1695,0,0
-497,-671,0,0,0,0,0,0,0,0,0,-1,727,1695,0,0
-490,-671,0,0,0,0,0,0,0,0,0,-1,734,1695,0,0
-483,-671,0,0,0,0,0,0,0,0,0,-1,741,1695,0,0
-476,-671,0,0,0,0,0,0,0,0,0,-1,748,1695,0,0
-469,-671,0,0,0,0,0,0,0,0,0,-1,755,1695,0,0
-462,-671,0,0,0,0,0,0,0,0,0,-1,762,1695,0,0
-455,-671,0,0,0,0,0,0,0,0,0,-1,769,1695,0,0
-448,-671,0,0,0,0,0,0,0,0,0,-1,776,1695,0,0
-441,-671,0,0,0,0,0,0,0,0,0,-1,783,1695,0,0
-434,-671,0,0,0,0,0,0,0,0,0,-1,790,1695,0,0
-427,-671,0,0,0,0,0,0,0,0,0,-1,797,1695,0,0
-420,-671,0,0,0,0,0,0,0,0,0,-1,804,1695,0,0
-413,-671,0,0,0,0,0,0,0,0,0,-1,811,1695,0,0
-406,-671,0,0,0,0,0,0,0,0,0,-1,818,1695,0,0
-399,-671,0,0,0,0,0,0,0,0,0,-1,825,1695,0,0
-392,-671,0,0,0,0,0,0,0,0,0,-1,832,1695,0,0
-385,-671,0,0,0,0,0,0,0,0,0,-1,839,1695,0,0
-378,-671,0,0,0,0,0,0,0,0,0,-1,846,1695,0,0
-371,-671,0,0,0,0,0,0,0,0,0,-1,853,1695,0,0
-364,-671,-4.18738,7.51416,0,0,0,0,0,0,0,-1,860,1695,-4.18739,-7.51419
-357,-671,-5.02393,6.07129,0,0,0,0,0,0,0,-1,867,1695,-5.0239,-6.07135
-350,-671,-5.72333,4.58386,0,0,0,0,0,0,0,-1,874,1695,-5.72333,-4.58386
-343,-671,-6.4884,3.11353,0,0,0,0,0,0,0,-1,881,1695,-6.48839,-3.11349
-336,-671,-7.30127,1.64417,0,0,0,0,0,0,0,-1,888,1695,-7.30127,-1.64414
-329,-671,3.58337,10.6238,0,0,0,0,0,0,0,-1,895,1695,3.58338,-10.6238
-322,-671,3.75763,10.859,0,0,0,0,0,0,0,-1,902,1695,3.75766,-10.8591
-315,-671,3.1239,14.8561,0,0,0,0,0,0,0,-1,909,1695,3.1239,-14.856
-308,-671,3.2536,14.4983,0.00348035,-0.00313571,0.000269043,0.00349127,-0.00314663,0.0405758,0.00383412,0.0471321,916,1695,3.2536,-14.4982
-301,-671,3.36566,14.1396,0.00348443,-0.00288501,0.00116565,0.00369105,-0.00309163,0.175434,0.00392108,0.0460584,923,1695,3.36569,-14.1397
-294,-671,3.51752,13.9683,0.00297039,0.000695582,0.000635302,0.00313579,0.000530182,0.254693,0.00193812,0.0487526,930,1695,3.51755,-13.9683
-287,-671,4.10693,13.9288,0.00200374,0.00340603,-6.31516e-05,0.00340887,0.0020009,-1.52588,0.00197801,0.0472367,937,1695,4.10692,-13.9289
-280,-671,4.09265,14.1823,0.000732907,0.00457488,-0.000585879,0.00466224,0.00064555,-1.42278,0.00291689,0.039022,944,1695,4.09264,-14.1822
-273,-671,4.11963,14.2816,-0.000529389,0.00527424,-0.00112985,0.00548644,-0.000741588,-1.38515,0.00392823,0.0345585,951,1695,4.11963,-14.2816
-266,-671,4.22656,14.532,-0.0013851,0.00533929,-0.0015127,0.00566391,-0.00170972,-1.3594,0.00445654,0.024338,958,1695,4.22658,-14.532
-259,-671,4.09143,14.7163,-0.00193664,0.00505507,-0.00178393,0.00548393,-0.0023655,-1.33487,0.00464956,0.0232051,965,1695,4.09142,-14.7164
-252,-671,4.09412,14.8868,-0.00252167,0.00386961,-0.00187819,0.00438068,-0.00303274,-1.30512,0.00430366,0.017097,972,1695,4.09411,-14.8869
-245,-671,4.09265,15.1122,-0.00293418,0.00351152,-0.00218076,0.00418,-0.00360266,-1.27335,0.00449744,0.021084,979,1695,4.09268,-15.1121
-238,-671,4.12469,15.282,-0.00322989,0.00260279,-0.00249358,0.0035235,-0.00415061,-1.21709,0.00443558,0.021389,986,1695,4.12467,-15.282
-231,-671,4.12109,15.4572,-0.00325407,0.0010672,-0.00227952,0.00204736,-0.00423423,-1.16471,0.00369921,0.0154571,993,1695,4.12109,-15.4571
-224,-671,4.09155,15.6371,-0.00294597,-0.000499887,-0.00209611,0.000703903,-0.00414976,-1.04949,0.00302853,0.0119783,1000,1695,4.09155,-15.6371
-217,-671,4.09174,15.7987,-0.00252807,-0.00172838,-0.00188933,-0.000197049,-0.0040594,-0.889676,0.00264303,0.0117505,1007,1695,4.09174,-15.7987
-210,-671,4.1015,15.9922,-0.00196621,-0.00255782,-0.00167659,-0.000559527,-0.0039645,-0.698082,0.00247764,0.0113924,1014,1695,4.1015,-15.9922
-203,-671,4.08374,16.1469,-0.00135259,-0.00309438,-0.00145838,-0.000524867,-0.00392211,-0.516231,0.00245853,0.0179823,1021,1695,4.0837,-16.1469
-196,-671,4.07361,16.2933,-0.0007502,-0.0033856,-0.00124608,-0.000254323,-0.00388147,-0.378736,0.00250718,0.0152654,1028,1695,4.07356,-16.2933
-189,-671,4.06934,16.4908,-0.000195181,-0.00355863,-0.000893813,2.75887e-05,-0.0037814,-0.244259,0.00253018,0.0109169,1035,1695,4.06936,-16.4908
-182,-671,4.07275,16.6362,0.000256333,-0.00340657,-0.000731626,0.000397061,-0.0035473,-0.190028,0.00250772,0.00883387,1042,1695,4.07278,-16.6362
-175,-671,4.07556,16.7778,0.000806153,-0.00292675,-0.000607023,0.000902383,-0.00302298,-0.157219,0.00237399,0.0119014,1049,1695,4.07551,-16.7779
-168,-671,4.08972,16.9154,0.00126608,-0.00252667,-0.000400787,0.00130797,-0.00256856,-0.104139,0.00227722,0.0141749,1056,1695,4.08968,-16.9154
-161,-671,4.10071,17.0587,0.00163161,-0.0021066,-0.000180829,0.00164034,-0.00211532,-0.048223,0.0021741,0.0100005,1063,1695,4.10069,-17.0587
-154,-671,4.09253,17.1986,0.0020611,-0.00175614,6.11154e-05,0.00206208,-0.00175712,0.0160049,0.00220736,0.00852027,1070,1695,4.09249,-17.1987
-147,-671,4.11157,17.3629,0.00235077,-0.00157818,0.000308406,0.00237483,-0.00160224,0.0778603,0.00231056,0.00956388,1077,1695,4.11159,-17.363
-140,-671,4.14172,17.5121,0.00258922,-0.00136899,0.000376874,0.00262479,-0.00140455,0.0940866,0.00236163,0.0106749,1084,1695,4.14172,-17.5121
-133,-671,4.13318,17.6375,0.0029484,-0.001584,0.000413029,0.00298573,-0.00162133,0.0901389,0.00269849,0.0125765,1091,1695,4.13318,-17.6375
-126,-671,4.15405,17.7567,0.00346473,-0.00158677,0.000649806,0.00354698,-0.00166902,0.125906,0.00307583,0.0148977,1098,1695,4.15408,-17.7567
-119,-671,4.18665,17.8644,0.00424859,-0.00127281,0.00109257,0.00445693,-0.00148115,0.188421,0.00356896,0.0267685,1105,1695,4.18669,-17.8644
-112,-671,4.23364,18.0055,0.00474085,-0.00151841,0.00124169,0.00497817,-0.00175573,0.188852,0.00403348,0.0395259,1112,1695,4.23359,-18.0055
-105,-671,4.18945,18.0861,0,0,0,0,0,0,0,-1,1119,1695,4.18944,-18.0861
-98,-671,4.16138,17.9694,0,0,0,0,0,0,0,-1,1126,1695,4.16133,-17.9693
-91,-671,4.17432,17.8916,0,0,0,0,0,0,0,-1,1133,1695,4.17426,-17.8916
-84,-671,4.40002,17.9354,0,0,0,0,0,0,0,-1,1140,1695,4.40005,-17.9354
-77,-671,4.31763,16.489,0,0,0,0,0,0,0,-1,1147,1695,4.31757,-16.489
-70,-671,3.06067,10.7737,0,0,0,0,0,0,0,-1,1154,1695,3.0607,-10.7737
-63,-671,2.94592,6.90198,0,0,0,0,0,0,0,-1,1161,1695,2.94594,-6.90198
-56,-671,-3.07678,2.87976,0,0,0,0,0,0,0,-1,1168,1695,-3.07675,-2.87979
-49,-671,-1.05957,4.76917,0,0,0,0,0,0,0,-1,1175,1695,-1.05958,-4.76921
-42,-671,0.539307,3.7865,0,0,0,0,0,0,0,-1,1182,1695,0.539266,-3.78648
-35,-671,-0.272461,0.347534,0,0,0,0,0,0,0,-1,1189,1695,-0.272434,-0.347569
-28,-671,-10.4878,17.2009,0,0,0,0,0,0,0,-1,1196,1695,-10.4878,-17.2009
-21,-671,-1.48584,18.1483,0,0,0,0,0,0,0,-1,1203,1695,-1.48583,-18.1483
-14,-671,5.22546,18.6862,0,0,0,0,0,0,0,-1,1210,1695,5.22544,-18.6862
-7,-671,5.31665,18.5797,0,0,0,0,0,0,0,-1,1217,1695,5.3167,-18.5797
0,-671,5.66406,18.6052,0.0550838,-0.058895,0.0203824,0.0586191,-0.0624303,0.171738,0.0698994,0.0441923,1224,1695,5.66409,-18.6052
7,-671,5.93848,18.4619,0.0482853,-0.0544638,0.0189778,0.0516785,-0.057857,0.176926,0.0632738,0.0404954,1231,1695,5.93842,-18.462
14,-671,6.00354,19.415,0,0,0,0,0,0,0,-1,1238,1695,6.00352,-19.415
21,-671,5.89172,19.5676,0,0,0,0,0,0,0,-1,1245,1695,5.89169,-19.5676
28,-671,5.80005,19.312,0,0,0,0,0,0,0,-1,1252,1695,5.8001,-19.312
35,-671,5.4845,19.7401,0.0267113,-0.0292546,0.0193847,0.0327696,-0.035313,0.302915,0.0393167,0.047652,1259,1695,5.48452,-19.7401
42,-671,5.57458,19.5165,0.0227918,-0.0236416,0.0196,0.0299589,-0.0308087,0.350564,0.0350853,0.0481202,1266,1695,5.57459,-19.5164
49,-671,5.71338,19.4176,0,0,0,0,0,0,0,-1,1273,1695,5.71334,-19.4177
56,-671,6.44238,19.603,0.0191882,-0.0125295,0.021098,0.0297231,-0.0230644,0.463112,0.0305575,0.0462947,1280,1695,6.44244,-19.603
63,-671,6.73462,19.6859,0.0225302,-0.0072766,0.0244535,0.0362639,-0.0210104,0.511726,0.0334559,0.0492668,1287,1695,6.73462,-19.6859
70,-671,6.54541,19.8976,0.029197,-0.00459495,0.027059,0.0442019,-0.0195998,0.50631,0.0377378,0.046695,1294,1695,6.54545,-19.8975
77,-671,6.34937,19.6742,0.0380892,-0.00610129,0.0283958,0.0519734,-0.0199855,0.454771,0.042892,0.0453453,1301,1695,6.34935,-19.6742
84,-671,6.31848,19.6119,0.0492048,-0.0077866,0.0292868,0.0615714,-0.0201531,0.399544,0.049162,0.0467809,1308,1695,6.3185,-19.6119
91,-671,6.1189,19.5284,0.0609912,-0.00987294,0.0307032,0.0724432,-0.021325,0.357009,0.0567553,0.0437706,1315,1695,6.11884,-19.5285
98,-671,4.45557,19.0187,0.0738549,-0.012613,0.0321401,0.0844926,-0.0232507,0.319631,0.0654696,0.0444456,1322,1695,4.45552,-19.0187
105,-671,4.86487,18.7629,0.0883199,-0.0159514,0.0328313,0.0977961,-0.0254276,0.280996,0.0751217,0.0437348,1329,1695,4.8649,-18.7629
112,-671,5.45776,18.1473,0.102896,-0.019576,0.033189,0.111311,-0.0279917,0.248335,0.085087,0.0435966,1336,1695,5.45778,-18.1473
119,-671,5.33923,17.9664,0,0,0,0,0,0,0,-1,1343,1695,5.33924,-17.9665
126,-671,13.9393,15.3529,0.130192,-0.0266901,0.0326273,0.136707,-0.0332052,0.197089,0.103989,0.0479629,1350,1695,13.9394,-15.3529
133,-671,15.6628,14.601,0.139652,-0.0286103,0.0316841,0.145421,-0.0343787,0.180088,0.110209,0.0490497,1357,1695,15.6629,-14.601
140,-671,17.452,13.853,0,0,0,0,0,0,0,-1,1364,1695,17.4521,-13.853
147,-671,5.5647,18.5807,0,0,0,0,0,0,0,-1,1371,1695,5.56467,-18.5807
154,-671,5.9635,18.0197,0,0,0,0,0,0,0,-1,1378,1695,5.96353,-18.0196
161,-671,4.49292,4.91272,0,0,0,0,0,0,0,-1,1385,1695,4.49297,-4.91273
168,-671,5.17639,6.1416,0,0,0,0,0,0,0,-1,1392,1695,5.1764,-6.14164
175,-671,5.6731,1.64685,0,0,0,0,0,0,0,-1,1399,1695,5.67313,-1.64691
182,-671,5.56812,1.71692,0,0,0,0,0,0,0,-1,1406,1695,5.56809,-1.71686
189,-671,6.98315,6.36169,0,0,0,0,0,0,0,-1,1413,1695,6.98312,-6.36175
196,-671,5.38123,5.69775,0,0,0,0,0,0,0,-1,1420,1695,5.38125,-5.69769
203,-671,5.95117,8.11658,0,0,0,0,0,0,0,-1,1427,1695,5.9512,-8.11662
210,-671,4.73596,8.39624,0,0,0,0,0,0,0,-1,1434,1695,4.736,-8.39618
217,-671,5.37097,11.863,0,0,0,0,0,0,0,-1,1441,1695,5.37094,-11.863
224,-671,5.08167,13.6694,0,0,0,0,0,0,0,-1,1448,1695,5.08165,-13.6695
231,-671,5.66663,15.3348,0,0,0,0,0,0,0,-1,1455,1695,5.66667,-15.3349
238,-671,6.32959,16.2036,0,0,0,0,0,0,0,-1,1462,1695,6.32961,-16.2037
245,-671,6.04773,17.3136,0,0,0,0,0,0,0,-1,1469,1695,6.0477,-17.3136
252,-671,5.80945,17.9506,0,0,0,0,0,0,0,-1,1476,1695,5.80944,-17.9506
259,-671,5.7821,18.1851,0,0,0,0,0,0,0,-1,1483,1695,5.78212,-18.185
266,-671,5.80359,18.0375,0.0013894,-0.00323381,0.00204324,0.00216298,-0.00400739,0.361926,0.00361513,0.0261034,1490,1695,5.80362,-18.0375
273,-671,5.84521,17.9689,0.00140128,-0.00315325,0.00223104,0.00231204,-0.004064,0.387573,0.00372724,0.0102863,1497,1695,5.8452,-17.9689
280,-671,5.84204,17.876,0.00139764,-0.00239722,0.00209228,0.00232473,-0.0033243,0.417099,0.00327844,0.00898801,1504,1695,5.84205,-17.876
287,-671,5.82227,17.7261,0.0013118,-0.00158098,0.00180454,0.00217808,-0.00244725,0.447563,0.00267194,0.00978098,1511,1695,5.82231,-17.7261
294,-671,5.82703,17.5909,0.00121798,-0.00102541,0.00154757,0.00200762,-0.00181504,0.471807,0.00220795,0.00969032,1518,1695,5.82698,-17.591
301,-671,5.85535,17.4891,0.00112588,-0.00049562,0.0012887,0.00183764,-0.00120739,0.504618,0.00177056,0.00942575,1525,1695,5.85534,-17.4891
308,-671,5.87158,17.3571,0.000983212,-5.25652e-05,0.0010055,0.00159636,-0.000665711,0.547588,0.00134234,0.0108116,1532,1695,5.87162,-17.357
315,-671,5.88354,17.2207,0.000782684,0.000188203,0.000800765,0.0013396,-0.000368709,0.607683,0.00103803,0.0129715,1539,1695,5.88358,-17.2207
322,-671,5.88501,17.103,0.000513246,0.000376254,0.000621439,0.00106995,-0.000180452,0.730509,0.000780438,0.0154395,1546,1695,5.885,-17.1031
329,-671,5.85876,16.9697,0.00011498,0.000280466,0.000489036,0.00069371,-0.000298263,0.869203,0.000587689,0.0143356,1553,1695,5.85872,-16.9698
336,-671,5.87354,16.7941,-0.000321659,-0.000519048,0.000432781,2.35384e-05,-0.000864246,0.673292,0.000584168,0.0105527,1560,1695,5.87354,-16.794
343,-671,5.89673,16.6215,-0.000761422,-0.0012968,0.00039947,-0.000548243,-0.00150998,0.490205,0.000882616,0.010529,1567,1695,5.89668,-16.6214
350,-671,5.89966,16.4974,-0.0011946,-0.00169608,0.000867525,-0.00054231,-0.00234838,0.644717,0.00141977,0.0102299,1574,1695,5.89962,-16.4974
357,-671,5.89294,16.3235,-0.00160791,-0.00239809,0.00111744,-0.00081777,-0.00318823,0.615475,0.0019121,0.00981823,1581,1695,5.89289,-16.3235
364,-671,5.88159,16.1577,-0.00190041,-0.00284065,0.00138261,-0.00091018,-0.00383089,0.621519,0.00231107,0.0130028,1588,1695,5.88165,-16.1577
371,-671,5.88135,16.0229,-0.00210879,-0.00328475,0.00183723,-0.000767746,-0.0046258,0.63053,0.00286248,0.0150091,1595,1695,5.88133,-16.023
378,-671,5.88428,15.8641,-0.00196145,-0.00360866,0.00246726,-0.000183962,-0.00538615,0.624307,0.00353104,0.0124869,1602,1695,5.88427,-15.8641
385,-671,5.86108,15.6768,-0.00121117,-0.003757,0.00284872,0.000636093,-0.00560427,0.575288,0.00396525,0.0137046,1609,1695,5.86106,-15.6767
392,-671,5.82422,15.55,-8.42252e-05,-0.00393014,0.00287389,0.00145071,-0.00546507,0.490551,0.00421108,0.0199137,1616,1695,5.82418,-15.55
399,-671,5.79797,15.3269,0.000910498,-0.0039214,0.00314624,0.00246136,-0.00547227,0.457973,0.00468915,0.0166862,1623,1695,5.79792,-15.327
406,-671,5.82935,15.104,0.0018101,-0.00369218,0.00352766,0.00353257,-0.00541465,0.454224,0.00520364,0.0227118,1630,1695,5.82933,-15.104
413,-671,5.83643,14.9532,0.00328153,-0.00366887,0.0037371,0.00490956,-0.0052969,0.410847,0.00589412,0.0337517,1637,1695,5.83641,-14.9532
420,-671,5.90479,14.7898,0.00489034,-0.00436297,0.00380841,0.00625617,-0.00572881,0.344348,0.00692177,0.0489167,1644,1695,5.90473,-14.7898
427,-671,6.10266,14.7246,0,0,0,0,0,0,0,-1,1651,1695,6.10265,-14.7246
434,-671,6.98303,15.1794,0,0,0,0,0,0,0,-1,1658,1695,6.98303,-15.1794
441,-671,7.26965,15.2007,0,0,0,0,0,0,0,-1,1665,1695,7.26967,-15.2007
448,-671,8.0636,12.2034,0,0,0,0,0,0,0,-1,1672,1695,8.06362,-12.2034
455,-671,3.40137,9.28076,0,0,0,0,0,0,0,-1,1679,1695,3.40135,-9.28082
462,-671,5.86255,4.47961,0,0,0,0,0,0,0,-1,1686,1695,5.8625,-4.4796
469,-671,3.71301,3.76978,0,0,0,0,0,0,0,-1,1693,1695,3.71297,-3.76974
476,-671,3.75574,3.18848,0,0,0,0,0,0,0,-1,1700,1695,3.7558,-3.18847
483,-671,7.81824,12.1041,0,0,0,0,0,0,0,-1,1707,1695,7.81826,-12.1041
490,-671,0,0,0,0,0,0,0,0,0,-1,1714,1695,0,0
497,-671,0,0,0,0,0,0,0,0,0,-1,1721,1695,0,0
504,-671,0,0,0,0,0,0,0,0,0,-1,1728,1695,0,0
511,-671,0,0,0,0,0,0,0,0,0,-1,1735,1695,0,0
518,-671,0,0,0,0,0,0,0,0,0,-1,1742,1695,0,0
525,-671,0,0,0,0,0,0,0,0,0,-1,1749,1695,0,0
532,-671,0,0,0,0,0,0,0,0,0,-1,1756,1695,0,0
539,-671,0,0,0,0,0,0,0,0,0,-1,1763,1695,0,0
546,-671,0,0,0,0,0,0,0,0,0,-1,1770,1695,0,0
553,-671,0,0,0,0,0,0,0,0,0,-1,1777,1695,0,0
560,-671,0,0,0,0,0,0,0,0,0,-1,1784,1695,0,0
567,-671,0,0,0,0,0,0,0,0,0,-1,1791,1695,0,0
574,-671,0,0,0,0,0,0,0,0,0,-1,1798,1695,0,0
581,-671,0,0,0,0,0,0,0,0,0,-1,1805,1695,0,0
588,-671,0,0,0,0,0,0,0,0,0,-1,1812,1695,0,0
595,-671,0,0,0,0,0,0,0,0,0,-1,1819,1695,0,0
602,-671,0,0,0,0,0,0,0,0,0,-1,1826,1695,0,0
609,-671,0,0,0,0,0,0,0,0,0,-1,1833,1695,0,0
616,-671,0,0,0,0,0,0,0,0,0,-1,1840,1695,0,0
623,-671,0,0,0,0,0,0,0,0,0,-1,1847,1695,0,0
630,-671,0,0,0,0,0,0,0,0,0,-1,1854,1695,0,0
637,-671,0,0,0,0,0,0,0,0,0,-1,1861,1695,0,0
644,-671,0,0,0,0,0,0,0,0,0,-1,1868,1695,0,0
651,-671,0,0,0,0,0,0,0,0,0,-1,1875,1695,0,0
658,-671,0,0,0,0,0,0,0,0,0,-1,1882,1695,0,0
665,-671,0,0,0,0,0,0,0,0,0,-1,1889,1695,0,0
672,-671,0,0,0,0,0,0,0,0,0,-1,1896,1695,0,0
679,-671,0,0,0,0,0,0,0,0,0,-1,1903,1695,0,0
686,-671,0,0,0,0,0,0,0,0,0,-1,1910,1695,0,0
693,-671,0,0,0,0,0,0,0,0,0,-1,1917,1695,0,0
700,-671,0,0,0,0,0,0,0,0,0,-1,1924,1695,0,0
707,-671,0,0,0,0,0,0,0,0,0,-1,1931,1695,0,0
714,-671,0,0,0,0,0,0,0,0,0,-1,1938,1695,0,0
721,-671,0,0,0,0,0,0,0,0,0,-1,1945,1695,0,0
728,-671,0,0,0,0,0,0,0,0,0,-1,1952,1695,0,0
735,-671,0,0,0,0,0,0,0,0,0,-1,1959,1695,0,0
742,-671,0,0,0,0,0,0,0,0,0,-1,1966,1695,0,0
749,-671,0,0,0,0,0,0,0,0,0,-1,1973,1695,0,0
756,-671,0,0,0,0,0,0,0,0,0,-1,1980,1695,0,0
763,-671,0,0,0,0,0,0,0,0,0,-1,1987,1695,0,0
770,-671,0,0,0,0,0,0,0,0,0,-1,1994,1695,0,0
777,-671,0,0,0,0,0,0,0,0,0,-1,2001,1695,0,0
784,-671,0,0,0,0,0,0,0,0,0,-1,2008,1695,0,0
791,-671,0,0,0,0,0,0,0,0,0,-1,2015,1695,0,0
798,-671,0,0,0,0,0,0,0,0,0,-1,2022,1695,0,0
805,-671,0,0,0,0,0,0,0,0,0,-1,2029,1695,0,0
812,-671,0,0,0,0,0,0,0,0,0,-1,2036,1695,0,0
-700,-678,0,0,0,0,0,0,0,0,0,-1,524,1702,0,0
-693,-678,0,0,0,0,0,0,0,0,0,-1,531,1702,0,0
-686,-678,0,0,0,0,0,0,0,0,0,-1,538,1702,0,0
-679,-678,0,0,0,0,0,0,0,0,0,-1,545,1702,0,0
-672,-678,0,0,0,0,0,0,0,0,0,-1,552,1702,0,0
-665,-678,0,0,0,0,0,0,0,0,0,-1,559,1702,0,0
-658,-678,0,0,0,0,0,0,0,0,0,-1,566,1702,0,0
-651,-678,0,0,0,0,0,0,0,0,0,-1,573,1702,0,0
-644,-678,0,0,0,0,0,0,0,0,0,-1,580,1702,0,0
-637,-678,0,0,0,0,0,0,0,0,0,-1,587,1702,0,0
-630,-678,0,0,0,0,0,0,0,0,0,-1,594,1702,0,0
-623,-678,0,0,0,0,0,0,0,0,0,-1,601,1702,0,0
-616,-678,0,0,0,0,0,0,0,0,0,-1,608,1702,0,0
-609,-678,0,0,0,0,0,0,0,0,0,-1,615,1702,0,0
-602,-678,0,0,0,0,0,0,0,0,0,-1,622,1702,0,0
-595,-678,0,0,0,0,0,0,0,0,0,-1,629,1702,0,0
-588,-678,0,0,0,0,0,0,0,0,0,-1,636,1702,0,0
-581,-678,0,0,0,0,0,0,0,0,0,-1,643,1702,0,0
-574,-678,0,0,0,0,0,0,0,0,0,-1,650,1702,0,0
-567,-678,0,0,0,0,0,0,0,0,0,-1,657,1702,0,0
-560,-678,0,0,0,0,0,0,0,0,0,-1,664,1702,0,0
-553,-678,0,0,0,0,0,0,0,0,0,-1,671,1702,0,0
-546,-678,0,0,0,0,0,0,0,0,0,-1,678,1702,0,0
-539,-678,0,0,0,0,0,0,0,0,0,-1,685,1702,0,0
-532,-678,0,0,0,0,0,0,0,0,0,-1,692,1702,0,0
-525,-678,0,0,0,0,0,0,0,0,0,-1,699,1702,0,0
-518,-678,0,0,0,0,0,0,0,0,0,-1,706,1702,0,0
-511,-678,0,0,0,0,0,0,0,0,0,-1,713,1702,0,0
-504,-678,0,0,0,0,0,0,0,0,0,-1,720,1702,0,0
-497,-678,0,0,0,0,0,0,0,0,0,-1,727,1702,0,0
-490,-678,0,0,0,0,0,0,0,0,0,-1,734,1702,0,0
-483,-678,0,0,0,0,0,0,0,0,0,-1,741,1702,0,0
-476,-678,0,0,0,0,0,0,0,0,0,-1,748,1702,0,0
-469,-678,0,0,0,0,0,0,0,0,0,-1,755,1702,0,0
-462,-678,0,0,0,0,0,0,0,0,0,-1,762,1702,0,0
-455,-678,0,0,0,0,0,0,0,0,0,-1,769,1702,0,0
-448,-678,0,0,0,0,0,0,0,0,0,-1,776,1702,0,0
-441,-678,0,0,0,0,0,0,0,0,0,-1,783,1702,0,0
-434,-678,0,0,0,0,0,0,0,0,0,-1,790,1702,0,0
-427,-678,0,0,0,0,0,0,0,0,0,-1,797,1702,0,0
-420,-678,0,0,0,0,0,0,0,0,0,-1,804,1702,0,0
-413,-678,0,0,0,0,0,0,0,0,0,-1,811,1702,0,0
-406,-678,0,0,0,0,0,0,0,0,0,-1,818,1702,0,0
-399,-678,0,0,0,0,0,0,0,0,0,-1,825,1702,0,0
-392,-678,0,0,0,0,0,0,0,0,0,-1,832,1702,0,0
-385,-678,0,0,0,0,0,0,0,0,0,-1,839,1702,0,0
-378,-678,0,0,0,0,0,0,0,0,0,-1,846,1702,0,0
-371,-678,0,0,0,0,0,0,0,0,0,-1,853,1702,0,0
-364,-678,0,0,0,0,0,0,0,0,0,-1,860,1702,0,0
-357,-678,0,0,0,0,0,0,0,0,0,-1,867,1702,0,0
-350,-678,-5.79944,6.11865,0,0,0,0,0,0,0,-1,874,1702,-5.79942,-6.11864
-343,-678,-6.44891,4.52759,0,0,0,0,0,0,0,-1,881,1702,-6.4489,-4.52758
-336,-678,-6.91888,2.99438,0,0,0,0,0,0,0,-1,888,1702,-6.9189,-2.99435
-329,-678,-7.14575,1.29761,0,0,0,0,0,0,0,-1,895,1702,-7.14577,-1.29755
-322,-678,4.74548,15.4724,0,0,0,0,0,0,0,-1,902,1702,4.7455,-15.4724
-315,-678,3.44965,14.2312,0,0,0,0,0,0,0,-1,909,1702,3.44965,-14.2311
-308,-678,3.39697,14.1646,0.00346119,-0.00156008,0.000510116,0.00351249,-0.00161138,0.100227,0.00302538,0.0474826,916,1702,3.39695,-14.1646
-301,-678,3.31097,14.1681,0.00388301,-0.00174553,0.00180786,0.00441365,-0.00227618,0.285503,0.00392754,0.0447515,923,1702,3.31096,-14.168
-294,-678,3.05103,14.3041,0.00191079,0.00668722,-7.46965e-05,0.00668838,0.00190963,-1.55516,0.00397821,0.0490558,930,1702,3.051,-14.3041
-287,-678,4.25684,13.9514,0,0,0,0,0,0,0,-1,937,1702,4.25683,-13.9514
-280,-678,4.10065,13.9492,-0.00236924,0.0136854,-0.0024419,0.0140486,-0.00273243,-1.42314,0.0103969,0.0466786,944,1702,4.10063,-13.9492
-273,-678,4.19159,14.0708,-0.00416868,0.0145876,-0.00317946,0.0151119,-0.00469299,-1.40736,0.0119501,0.0440661,951,1702,4.1916,-14.0708
-266,-678,4.27332,14.4093,-0.00547422,0.0140553,-0.00369512,0.0147311,-0.00614998,-1.38992,0.0123904,0.035583,958,1702,4.27331,-14.4093
-259,-678,4.24939,14.743,-0.00623793,0.0128484,-0.00400598,0.0136551,-0.00704463,-1.37208,0.0121524,0.0237946,965,1702,4.24942,-14.7431
-252,-678,4.23413,14.8674,-0.00683034,0.0105986,-0.00401301,0.0114782,-0.00770994,-1.35502,0.0111493,0.0195921,972,1702,4.23413,-14.8675
-245,-678,4.29205,15.0717,-0.00713533,0.00932071,-0.00425687,0.0103567,-0.00817128,-1.33208,0.0107219,0.018913,979,1702,4.29204,-15.0716
-238,-678,4.29633,15.2598,-0.00719244,0.00723464,-0.00447944,0.00851231,-0.0084701,-1.29295,0.00980481,0.0155485,986,1702,4.29635,-15.2598
-231,-678,4.2514,15.4584,-0.00684234,0.00440324,-0.00402444,0.00569507,-0.00813417,-1.26019,0.0080256,0.0131767,993,1702,4.25141,-15.4583
-224,-678,4.2326,15.6163,-0.00608436,0.00167806,-0.00360795,0.00309602,-0.00750232,-1.19633,0.00629276,0.0131903,1000,1702,4.23259,-15.6164
-217,-678,4.24982,15.7865,-0.00521706,-0.000546993,-0.00318211,0.0010649,-0.00682895,-1.10192,0.00494596,0.0137363,1007,1702,4.24981,-15.7865
-210,-678,4.26721,15.9987,-0.00422124,-0.0021308,-0.00274313,-0.000240501,-0.00611154,-0.967422,0.00399661,0.0142588,1014,1702,4.26719,-15.9987
-203,-678,4.26318,16.1581,-0.00321081,-0.00309098,-0.00229961,-0.000850507,-0.00545128,-0.798422,0.00338647,0.0179409,1021,1702,4.26318,-16.158
-196,-678,4.23096,16.3046,-0.0022853,-0.0036191,-0.0019017,-0.000936952,-0.00496745,-0.616755,0.0030477,0.0171392,1028,1702,4.23095,-16.3046
-189,-678,4.22559,16.4971,-0.00139805,-0.00426095,-0.00134293,-0.000866714,-0.00479228,-0.376752,0.00294872,0.00978701,1035,1702,4.22563,-16.497
-182,-678,4.24255,16.6411,-0.000653504,-0.00414049,-0.00102527,-0.000374386,-0.00441961,-0.265796,0.00282988,0.00936495,1042,1702,4.24255,-16.6411
-175,-678,4.23083,16.7819,5.09307e-05,-0.00335396,-0.00082489,0.000240247,-0.00354327,-0.225599,0.0024462,0.0106004,1049,1702,4.23083,-16.7819
-168,-678,4.2373,16.9379,0.000605591,-0.00266517,-0.000576672,0.000704287,-0.00276386,-0.169505,0.00211676,0.010458,1056,1702,4.23733,-16.9379
-161,-678,4.23242,17.0782,0.000990471,-0.00199869,-0.000334027,0.00102734,-0.00203556,-0.10994,0.00180002,0.00901816,1063,1702,4.23247,-17.0782
-154,-678,4.23145,17.2148,0.00135269,-0.00147126,-9.06791e-05,0.0013556,-0.00147417,-0.0320667,0.00163424,0.00812101,1070,1702,4.23144,-17.2148
-147,-678,4.24695,17.3544,0.00167625,-0.00117717,0.000136646,0.00168278,-0.00118369,0.0477429,0.0016633,0.00997048,1077,1702,4.24694,-17.3544
-140,-678,4.26782,17.4982,0.00194621,-0.00103248,0.000205096,0.00196027,-0.00104653,0.0684239,0.00176249,0.0117989,1084,1702,4.26783,-17.4982
-133,-678,4.27039,17.6243,0.00229301,-0.00120132,0.000235273,0.00230878,-0.00121709,0.0669273,0.00206793,0.0124825,1091,1702,4.27033,-17.6243
-126,-678,4.26257,17.7472,0.00274049,-0.00124757,0.000383087,0.00277695,-0.00128403,0.0949022,0.00239684,0.00896743,1098,1702,4.26253,-17.7472
-119,-678,4.29333,17.9274,0.00337302,-0.0010229,0.000704847,0.00348327,-0.00113315,0.155161,0.00277803,0.0178687,1105,1702,4.29339,-17.9274
-112,-678,4.27454,18.0737,0.00379832,-0.00120188,0.000802238,0.00392388,-0.00132744,0.155252,0.00315296,0.0277655,1112,1702,4.27457,-18.0738
-105,-678,4.3219,18.1399,0.00418394,-0.00127202,0.00104657,0.00437781,-0.00146589,0.183163,0.0035107,0.0316947,1119,1702,4.32184,-18.1399
-98,-678,4.33435,18.1154,0.00468119,-0.000798733,0.00139519,0.00501595,-0.0011335,0.23549,0.0037789,0.0236124,1126,1702,4.3343,-18.1153
-91,-678,4.34631,18.2402,0.00520848,-0.000365236,0.00163055,0.00565044,-0.000807199,0.264691,0.00406284,0.0222908,1133,1702,4.34632,-18.2402
-84,-678,4.40967,18.2404,0.00602674,-0.000277567,0.00169714,0.00645458,-0.000705408,0.246949,0.00455643,0.0351513,1140,1702,4.40971,-18.2404
-77,-678,4.48608,18.3416,0,0,0,0,0,0,0,-1,1147,1702,4.48614,-18.3415
-70,-678,4.75159,19.176,0,0,0,0,0,0,0,-1,1154,1702,4.75165,-19.176
-63,-678,3.41687,11.0365,0,0,0,0,0,0,0,-1,1161,1702,3.41682,-11.0365
-56,-678,1.72388,6.13159,0,0,0,0,0,0,0,-1,1168,1702,1.72388,-6.13157
-49,-678,-0.241699,5.29895,0,0,0,0,0,0,0,-1,1175,1702,-0.241682,-5.29897
-42,-678,0.297119,3.90649,0,0,0,0,0,0,0,-1,1182,1702,0.297139,-3.90655
-35,-678,0.498413,3.64038,0,0,0,0,0,0,0,-1,1189,1702,0.498471,-3.64038
-28,-678,0.132446,3.55994,0,0,0,0,0,0,0,-1,1196,1702,0.132432,-3.55993
-21,-678,5.09045,18.783,0,0,0,0,0,0,0,-1,1203,1702,5.09041,-18.783
-14,-678,5.01648,18.8501,0.0507854,-0.0473894,0.0191463,0.0543872,-0.0509912,0.185948,0.0608508,0.0403923,1210,1702,5.01654,-18.8501
-7,-678,4.97607,18.9143,0.0468522,-0.0463436,0.0185314,0.0504018,-0.0498933,0.189255,0.0579057,0.041549,1217,1702,4.97604,-18.9143
0,-678,5.09619,18.9907,0.0417063,-0.0440459,0.0175696,0.0451665,-0.0475061,0.194453,0.0535103,0.0407528,1224,1702,5.09614,-18.9907
7,-678,5.59741,19.0701,0.0366674,-0.0406961,0.0166358,0.0400929,-0.0441217,0.203077,0.0486399,0.0388154,1231,1702,5.59737,-19.0701
14,-678,5.73877,19.364,0.0317703,-0.0365977,0.0160442,0.0353483,-0.0401756,0.219414,0.0436334,0.044058,1238,1702,5.73871,-19.364
21,-678,5.65833,19.4351,0.0272548,-0.0317393,0.0158493,0.0312432,-0.0357277,0.246527,0.0386945,0.0450322,1245,1702,5.65827,-19.435
28,-678,5.24011,19.3594,0.0233469,-0.026445,0.016461,0.0282968,-0.0313948,0.292102,0.0344784,0.0434616,1252,1702,5.24012,-19.3594
35,-678,5.27148,19.3867,0.0199888,-0.0216133,0.0169804,0.0260395,-0.027664,0.342308,0.0310105,0.0439842,1259,1702,5.27143,-19.3868
42,-678,5.44641,19.3448,0.0165803,-0.0172904,0.0170443,0.0236723,-0.0243824,0.394303,0.0277454,0.0465796,1266,1702,5.44636,-19.3449
49,-678,5.61523,19.4348,0.0143841,-0.012984,0.0169273,0.0224667,-0.0210666,0.445478,0.0251383,0.0454374,1273,1702,5.6152,-19.4348
56,-678,5.87683,19.5184,0.013113,-0.00901841,0.0177271,0.0229447,-0.0188501,0.506378,0.0241688,0.0463921,1280,1702,5.87678,-19.5184
63,-678,6.13635,19.4229,0.0156203,-0.00529896,0.0200721,0.0277945,-0.0174732,0.545204,0.0263608,0.0485414,1287,1702,6.13638,-19.4228
70,-678,6.20886,19.5778,0.020755,-0.00375579,0.0217977,0.0335063,-0.0165071,0.529305,0.029426,0.046891,1294,1702,6.20882,-19.5777
77,-678,6.08643,19.6763,0.0279716,-0.0052347,0.0226911,0.0394852,-0.0167483,0.469554,0.0333393,0.046576,1301,1702,6.08644,-19.6763
84,-678,6.06018,19.5673,0.0369395,-0.00712257,0.0233573,0.0470165,-0.0171996,0.407305,0.0383843,0.0469701,1308,1702,6.06019,-19.5672
91,-678,5.8623,19.7191,0.0460335,-0.00929714,0.0243379,0.0552152,-0.0184789,0.360751,0.0442744,0.0442327,1315,1702,5.86237,-19.7191
98,-678,4.5719,19.0105,0.0562605,-0.0119312,0.0253955,0.0646789,-0.0203495,0.320091,0.0512668,0.0420177,1322,1702,4.57188,-19.0106
105,-678,5.04236,18.8823,0.0677899,-0.01497,0.0260039,0.0752823,-0.0224624,0.280527,0.0591157,0.0385948,1329,1702,5.0424,-18.8823
112,-678,5.43665,18.6819,0.0794091,-0.0181885,0.0264778,0.0861296,-0.024909,0.248568,0.0672778,0.041486,1336,1702,5.43669,-18.6819
119,-678,5.62817,18.354,0.0910344,-0.0214792,0.0267322,0.0970627,-0.0275075,0.221798,0.0755654,0.0453555,1343,1702,5.62818,-18.354
126,-678,5.90918,18.0576,0,0,0,0,0,0,0,-1,1350,1702,5.90915,-18.0576
133,-678,5.08923,19.2019,0,0,0,0,0,0,0,-1,1357,1702,5.08919,-19.202
140,-678,5.41992,19.3245,0,0,0,0,0,0,0,-1,1364,1702,5.41997,-19.3245
147,-678,5.49084,18.9719,0,0,0,0,0,0,0,-1,1371,1702,5.49088,-18.9719
154,-678,5.45886,19.1454,0,0,0,0,0,0,0,-1,1378,1702,5.45891,-19.1454
161,-678,3.44202,4.53992,0,0,0,0,0,0,0,-1,1385,1702,3.442,-4.53996
168,-678,4.21863,5.25781,0,0,0,0,0,0,0,-1,1392,1702,4.21865,-5.25781
175,-678,5.21899,5.9635,0,0,0,0,0,0,0,-1,1399,1702,5.21894,-5.96346
182,-678,7.31262,6.75122,0,0,0,0,0,0,0,-1,1406,1702,7.3126,-6.75123
189,-678,5.96021,6.36853,0,0,0,0,0,0,0,-1,1413,1702,5.96018,-6.36851
196,-678,5.01599,8.15771,0,0,0,0,0,0,0,-1,1420,1702,5.01596,-8.15767
203,-678,4.64771,13.0559,0,0,0,0,0,0,0,-1,1427,1702,4.64766,-13.0559
210,-678,5.6532,18.5957,0,0,0,0,0,0,0,-1,1434,1702,5.65318,-18.5958
217,-678,5.75647,18.8615,0,0,0,0,0,0,0,-1,1441,1702,5.75651,-18.8615
224,-678,5.62183,18.5586,0,0,0,0,0,0,0,-1,1448,1702,5.62178,-18.5586
231,-678,5.6084,18.4801,0,0,0,0,0,0,0,-1,1455,1702,5.60844,-18.4801
238,-678,5.67029,18.485,0,0,0,0,0,0,0,-1,1462,1702,5.67032,-18.485
245,-678,5.67163,18.4355,0,0,0,0,0,0,0,-1,1469,1702,5.67161,-18.4355
252,-678,5.68701,18.2653,0.00100327,-0.00255687,0.00163412,0.00163961,-0.0031932,0.371338,0.00283787,0.0299433,1476,1702,5.68705,-18.2653
259,-678,5.67981,18.2086,0.0010516,-0.00253398,0.00160029,0.00166194,-0.00314432,0.364363,0.00281854,0.0169351,1483,1702,5.67978,-18.2086
266,-678,5.7135,18.1149,0.00101312,-0.0024072,0.00149459,0.00157418,-0.00296826,0.359118,0.00266343,0.0113812,1490,1702,5.71351,-18.1149
273,-678,5.73352,18.0076,0.00107171,-0.00231376,0.00154572,0.00167126,-0.00291332,0.370015,0.00267909,0.0107652,1497,1702,5.73355,-18.0075
280,-678,5.73523,17.8914,0.0010976,-0.00167453,0.00136442,0.00165648,-0.00223341,0.388764,0.00225405,0.0108832,1504,1702,5.73521,-17.8914
287,-678,5.73523,17.7378,0.00104085,-0.000973991,0.00109763,0.00152329,-0.00145644,0.414114,0.00172049,0.0109834,1511,1702,5.7352,-17.7378
294,-678,5.72107,17.605,0.000983867,-0.000411272,0.000832202,0.00137219,-0.000799595,0.43659,0.00126832,0.0117011,1518,1702,5.72107,-17.6049
301,-678,5.7157,17.489,0.000889572,0.0001012,0.000577414,0.00119452,-0.000203749,0.485896,0.000872232,0.0119166,1525,1702,5.71571,-17.489
308,-678,5.72461,17.3505,0.000705309,0.000495578,0.000323408,0.000940429,0.000260459,0.628621,0.000560675,0.0129819,1532,1702,5.72464,-17.3505
315,-678,5.73914,17.2186,0.000449998,0.000711579,0.000177189,0.00080102,0.000360557,1.10333,0.000463235,0.0141167,1539,1702,5.73912,-17.2186
322,-678,5.73572,17.1215,9.0172e-05,0.00090288,4.13679e-05,0.00090498,8.80717e-05,1.52007,0.000576211,0.017639,1546,1702,5.7357,-17.1215
329,-678,5.72485,16.9695,-0.00048036,0.000587061,-1.10078e-05,0.000587174,-0.000480473,-1.56049,0.000617432,0.015484,1553,1702,5.72491,-16.9694
336,-678,5.72656,16.7955,-0.0011038,-0.000738583,1.5534e-05,-0.000737923,-0.00110445,1.52836,0.000649563,0.0117852,1560,1702,5.72662,-16.7955
343,-678,5.73218,16.631,-0.00169872,-0.00187139,4.82293e-05,-0.00168617,-0.00188395,0.25472,0.00119551,0.0117,1567,1702,5.73221,-16.631
350,-678,5.74304,16.4918,-0.00225084,-0.00230298,0.000993038,-0.00128353,-0.00327029,0.772277,0.0019026,0.0108928,1574,1702,5.74309,-16.4919
357,-678,5.75122,16.3348,-0.00281063,-0.00325971,0.00152309,-0.00149562,-0.00457472,0.712214,0.00269344,0.00848263,1581,1702,5.75122,-16.3348
364,-678,5.7312,16.1759,-0.00323662,-0.00390888,0.00213619,-0.00141028,-0.00573523,0.707363,0.00345083,0.0116313,1588,1702,5.73119,-16.1759
371,-678,5.71533,16.024,-0.00355915,-0.00449807,0.00303804,-0.000954514,-0.00710271,0.70874,0.00445121,0.0131605,1595,1702,5.71534,-16.024
378,-678,5.7301,15.8328,-0.00346823,-0.00490475,0.00427848,0.000151864,-0.00852484,0.702235,0.00573452,0.0142731,1602,1702,5.73016,-15.8328
385,-678,5.72314,15.6725,-0.00264115,-0.00483761,0.00529467,0.00166799,-0.00914675,0.683137,0.00672316,0.0189018,1609,1702,5.72314,-15.6724
392,-678,5.68921,15.5811,-0.00130844,-0.00461354,0.00599464,0.00325726,-0.00917924,0.650903,0.00744662,0.0327978,1616,1702,5.68922,-15.5811
399,-678,5.64795,15.4529,1.00109e-05,-0.00406505,0.00709364,0.00535295,-0.00940798,0.645546,0.00862875,0.0411684,1623,1702,5.64791,-15.4529
406,-678,5.66528,15.0787,0.00136466,-0.00312428,0.00835226,0.00776877,-0.00952838,0.654136,0.0100037,0.0447221,1630,1702,5.66523,-15.0788
413,-678,5.776,14.7095,0.00341916,-0.00231524,0.00947947,0.0104556,-0.00935163,0.63854,0.0114416,0.0494152,1637,1702,5.77603,-14.7095
420,-678,5.90967,14.3604,0,0,0,0,0,0,0,-1,1644,1702,5.90965,-14.3604
427,-678,4.57483,10.1555,0,0,0,0,0,0,0,-1,1651,1702,4.57485,-10.1555
434,-678,5.73999,11.7773,0,0,0,0,0,0,0,-1,1658,1702,5.73994,-11.7774
441,-678,4.47729,11.1503,0,0,0,0,0,0,0,-1,1665,1702,4.47728,-11.1503
448,-678,3.25525,9.74719,0,0,0,0,0,0,0,-1,1672,1702,3.25522,-9.7472
455,-678,5.44678,5.54297,0,0,0,0,0,0,0,-1,1679,1702,5.44676,-5.54294
462,-678,3.86792,2.87402,0,0,0,0,0,0,0,-1,1686,1702,3.86796,-2.87406
469,-678,2.26587,1.98755,0,0,0,0,0,0,0,-1,1693,1702,2.26592,-1.98755
476,-678,0,0,0,0,0,0,0,0,0,-1,1700,1702,0,0
483,-678,0,0,0,0,0,0,0,0,0,-1,1707,1702,0,0
490,-678,0,0,0,0,0,0,0,0,0,-1,1714,1702,0,0
497,-678,0,0,0,0,0,0,0,0,0,-1,1721,1702,0,0
504,-678,0,0,0,0,0,0,0,0,0,-1,1728,1702,0,0
511,-678,0,0,0,0,0,0,0,0,0,-1,1735,1702,0,0
518,-678,0,0,0,0,0,0,0,0,0,-1,1742,1702,0,0
525,-678,0,0,0,0,0,0,0,0,0,-1,1749,1702,0,0
532,-678,0,0,0,0,0,0,0,0,0,-1,1756,1702,0,0
539,-678,0,0,0,0,0,0,0,0,0,-1,1763,1702,0,0
546,-678,0,0,0,0,0,0,0,0,0,-1,1770,1702,0,0
553,-678,0,0,0,0,0,0,0,0,0,-1,1777,1702,0,0
560,-678,0,0,0,0,0,0,0,0,0,-1,1784,1702,0,0
567,-678,0,0,0,0,0,0,0,0,0,-1,1791,1702,0,0
574,-678,0,0,0,0,0,0,0,0,0,-1,1798,1702,0,0
581,-678,0,0,0,0,0,0,0,0,0,-1,1805,1702,0,0
588,-678,0,0,0,0,0,0,0,0,0,-1,1812,1702,0,0
595,-678,0,0,0,0,0,0,0,0,0,-1,1819,1702,0,0
602,-678,0,0,0,0,0,0,0,0,0,-1,1826,1702,0,0
609,-678,0,0,0,0,0,0,0,0,0,-1,1833,1702,0,0
616,-678,0,0,0,0,0,0,0,0,0,-1,1840,1702,0,0
623,-678,0,0,0,0,0,0,0,0,0,-1,1847,1702,0,0
630,-678,0,0,0,0,0,0,0,0,0,-1,1854,1702,0,0
637,-678,0,0,0,0,0,0,0,0,0,-1,1861,1702,0,0
644,-678,0,0,0,0,0,0,0,0,0,-1,1868,1702,0,0
651,-678,0,0,0,0,0,0,0,0,0,-1,1875,1702,0,0
658,-678,0,0,0,0,0,0,0,0,0,-1,1882,1702,0,0
665,-678,0,0,0,0,0,0,0,0,0,-1,1889,1702,0,0
672,-678,0,0,0,0,0,0,0,0,0,-1,1896,1702,0,0
679,-678,0,0,0,0,0,0,0,0,0,-1,1903,1702,0,0
686,-678,0,0,0,0,0,0,0,0,0,-1,1910,1702,0,0
693,-678,0,0,0,0,0,0,0,0,0,-1,1917,1702,0,0
700,-678,0,0,0,0,0,0,0,0,0,-1,1924,1702,0,0
707,-678,0,0,0,0,0,0,0,0,0,-1,1931,1702,0,0
714,-678,0,0,0,0,0,0,0,0,0,-1,1938,1702,0,0
721,-678,0,0,0,0,0,0,0,0,0,-1,1945,1702,0,0
728,-678,0,0,0,0,0,0,0,0,0,-1,1952,1702,0,0
735,-678,0,0,0,0,0,0,0,0,0,-1,1959,1702,0,0
742,-678,0,0,0,0,0,0,0,0,0,-1,1966,1702,0,0
749,-678,0,0,0,0,0,0,0,0,0,-1,1973,1702,0,0
756,-678,0,0,0,0,0,0,0,0,0,-1,1980,1702,0,0
763,-678,0,0,0,0,0,0,0,0,0,-1,1987,1702,0,0
770,-678,0,0,0,0,0,0,0,0,0,-1,1994,1702,0,0
777,-678,0,0,0,0,0,0,0,0,0,-1,2001,1702,0,0
784,-678,0,0,0,0,0,0,0,0,0,-1,2008,1702,0,0
791,-678,0,0,0,0,0,0,0,0,0,-1,2015,1702,0,0
798,-678,0,0,0,0,0,0,0,0,0,-1,2022,1702,0,0
805,-678,0,0,0,0,0,0,0,0,0,-1,2029,1702,0,0
812,-678,0,0,0,0,0,0,0,0,0,-1,2036,1702,0,0
-700,-685,0,0,0,0,0,0,0,0,0,-1,524,1709,0,0
-693,-685,0,0,0,0,0,0,0,0,0,-1,531,1709,0,0
-686,-685,0,0,0,0,0,0,0,0,0,-1,538,1709,0,0
-679,-685,0,0,0,0,0,0,0,0,0,-1,545,1709,0,0
-672,-685,0,0,0,0,0,0,0,0,0,-1,552,1709,0,0
-665,-685,0,0,0,0,0,0,0,0,0,-1,559,1709,0,0
-658,-685,0,0,0,0,0,0,0,0,0,-1,566,1709,0,0
-651,-685,0,0,0,0,0,0,0,0,0,-1,573,1709,0,0
-644,-685,0,0,0,0,0,0,0,0,0,-1,580,1709,0,0
-637,-685,0,0,0,0,0,0,0,0,0,-1,587,1709,0,0
-630,-685,0,0,0,0,0,0,0,0,0,-1,594,1709,0,0
-623,-685,0,0,0,0,0,0,0,0,0,-1,601,1709,0,0
-616,-685,0,0,0,0,0,0,0,0,0,-1,608,1709,0,0
-609,-685,0,0,0,0,0,0,0,0,0,-1,615,1709,0,0
-602,-685,0,0,0,0,0,0,0,0,0,-1,622,1709,0,0
-595,-685,0,0,0,0,0,0,0,0,0,-1,629,1709,0,0
-588,-685,0,0,0,0,0,0,0,0,0,-1,636,1709,0,0
-581,-685,0,0,0,0,0,0,0,0,0,-1,643,1709,0,0
-574,-685,0,0,0,0,0,0,0,0,0,-1,650,1709,0,0
-567,-685,0,0,0,0,0,0,0,0,0,-1,657,1709,0,0
-560,-685,0,0,0,0,0,0,0,0,0,-1,664,1709,0,0
-553,-685,0,0,0,0,0,0,0,0,0,-1,671,1709,0,0
-546,-685,0,0,0,0,0,0,0,0,0,-1,678,1709,0,0
-539,-685,0,0,0,0,0,0,0,0,0,-1,685,1709,0,0
-532,-685,0,0,0,0,0,0,0,0,0,-1,692,1709,0,0
-525,-685,0,0,0,0,0,0,0,0,0,-1,699,1709,0,0
-518,-685,0,0,0,0,0,0,0,0,0,-1,706,1709,0,0
-511,-685,0,0,0,0,0,0,0,0,0,-1,713,1709,0,0
-504,-685,0,0,0,0,0,0,0,0,0,-1,720,1709,0,0
-497,-685,0,0,0,0,0,0,0,0,0,-1,727,1709,0,0
-490,-685,0,0,0,0,0,0,0,0,0,-1,734,1709,0,0
-483,-685,0,0,0,0,0,0,0,0,0,-1,741,1709,0,0
-476,-685,0,0,0,0,0,0,0,0,0,-1,748,1709,0,0
-469,-685,0,0,0,0,0,0,0,0,0,-1,755,1709,0,0
-462,-685,0,0,0,0,0,0,0,0,0,-1,762,1709,0,0
-455,-685,0,0,0,0,0,0,0,0,0,-1,769,1709,0,0
-448,-685,0,0,0,0,0,0,0,0,0,-1,776,1709,0,0
-441,-685,0,0,0,0,0,0,0,0,0,-1,783,1709,0,0
-434,-685,0,0,0,0,0,0,0,0,0,-1,790,1709,0,0
-427,-685,0,0,0,0,0,0,0,0,0,-1,797,1709,0,0
-420,-685,0,0,0,0,0,0,0,0,0,-1,804,1709,0,0
-413,-685,0,0,0,0,0,0,0,0,0,-1,811,1709,0,0
-406,-685,0,0,0,0,0,0,0,0,0,-1,818,1709,0,0
-399,-685,0,0,0,0,0,0,0,0,0,-1,825,1709,0,0
-392,-685,0,0,0,0,0,0,0,0,0,-1,832,1709,0,0
-385,-685,0,0,0,0,0,0,0,0,0,-1,839,1709,0,0
-378,-685,0,0,0,0,0,0,0,0,0,-1,846,1709,0,0
-371,-685,0,0,0,0,0,0,0,0,0,-1,853,1709,0,0
-364,-685,0,0,0,0,0,0,0,0,0,-1,860,1709,0,0
-357,-685,0,0,0,0,0,0,0,0,0,-1,867,1709,0,0
-350,-685,0,0,0,0,0,0,0,0,0,-1,874,1709,0,0
-343,-685,-5.98505,6.56335,0,0,0,0,0,0,0,-1,881,1709,-5.98505,-6.56329
-336,-685,-6.51312,5.10571,0,0,0,0,0,0,0,-1,888,1709,-6.51311,-5.10575
-329,-685,-6.81384,3.34106,0,0,0,0,0,0,0,-1,895,1709,-6.81385,-3.341
-322,-685,3.48425,16.3307,0,0,0,0,0,0,0,-1,902,1709,3.48425,-16.3307
-315,-685,4.61206,14.8948,0,0,0,0,0,0,0,-1,909,1709,4.61203,-14.8948
-308,-685,3.24878,14.1001,0,0,0,0,0,0,0,-1,916,1709,3.2488,-14.1001
-301,-685,3.20343,14.05,0,0,0,0,0,0,0,-1,923,1709,3.20346,-14.05
-294,-685,2.62756,14.6554,0,0,0,0,0,0,0,-1,930,1709,2.62756,-14.6554
-287,-685,5.05328,13.4015,0,0,0,0,0,0,0,-1,937,1709,5.0533,-13.4015
-280,-685,4.28894,13.6078,0,0,0,0,0,0,0,-1,944,1709,4.28893,-13.6078
-273,-685,4.3219,13.8571,0,0,0,0,0,0,0,-1,951,1709,4.32193,-13.8571
-266,-685,4.31616,14.2589,0,0,0,0,0,0,0,-1,958,1709,4.31618,-14.2589
-259,-685,4.54572,14.826,-0.0118237,0.0227655,-0.00776019,0.0244267,-0.0134849,-1.35991,0.0221901,0.0407397,965,1709,4.54569,-14.8261
-252,-685,4.51605,14.9548,-0.0123031,0.0190206,-0.00765536,0.0207914,-0.014074,-1.34348,0.0202537,0.0400614,972,1709,4.51603,-14.9549
-245,-685,4.53613,15.0471,-0.0124004,0.01641,-0.0077334,0.0183546,-0.014345,-1.32445,0.0189264,0.0355858,979,1709,4.53611,-15.0471
-238,-685,4.56738,15.2288,-0.0121933,0.0127572,-0.00771726,0.0149513,-0.0143873,-1.2938,0.0169397,0.0251996,986,1709,4.56739,-15.2287
-231,-685,4.45508,15.4697,-0.0114459,0.00827579,-0.00686539,0.0104303,-0.0136004,-1.2667,0.0139144,0.0168089,993,1709,4.45507,-15.4697
-224,-685,4.42108,15.6252,-0.0102133,0.00413061,-0.00606906,0.00635388,-0.0124366,-1.21965,0.0110365,0.0149308,1000,1709,4.42107,-15.6252
-217,-685,4.42316,15.8002,-0.00886301,0.000734325,-0.00528731,0.00307589,-0.0112046,-1.15389,0.00867865,0.0110235,1007,1709,4.42317,-15.8002
-210,-685,4.41724,16.009,-0.00738748,-0.00172217,-0.00449903,0.000761678,-0.00987133,-1.06635,0.00684891,0.0146893,1014,1709,4.41724,-16.0091
-203,-685,4.4165,16.1711,-0.00591179,-0.00320619,-0.00373106,-0.000590256,-0.00852773,-0.959316,0.00549897,0.0146365,1021,1709,4.41651,-16.1711
-196,-685,4.4054,16.3252,-0.00458039,-0.00403055,-0.00304796,-0.00124514,-0.0073658,-0.830375,0.00455261,0.0121996,1028,1709,4.4054,-16.3252
-189,-685,4.41003,16.4775,-0.00328147,-0.00525245,-0.00218971,-0.00186571,-0.00666821,-0.573948,0.00397241,0.00860235,1035,1709,4.41001,-16.4775
-182,-685,4.39978,16.632,-0.00216656,-0.00523545,-0.00165138,-0.00144677,-0.00595524,-0.411043,0.00358653,0.0136224,1042,1709,4.39977,-16.632
-175,-685,4.39355,16.7874,-0.0012248,-0.00415464,-0.00131918,-0.000718367,-0.00466107,-0.366548,0.00289776,0.0135685,1049,1709,4.3936,-16.7874
-168,-685,4.37817,16.9448,-0.000448834,-0.00317769,-0.000956788,-0.000146796,-0.00347973,-0.305778,0.00227247,0.0103669,1056,1709,4.37813,-16.9448
-161,-685,4.37402,17.0809,8.19932e-05,-0.00223156,-0.000638934,0.000246719,-0.00239628,-0.252319,0.00168579,0.0108569,1063,1709,4.37402,-17.0809
-154,-685,4.3927,17.2356,0.000465094,-0.00145949,-0.000358619,0.000529745,-0.00152414,-0.178364,0.00123127,0.00986198,1070,1709,4.39275,-17.2356
-147,-685,4.38367,17.3739,0.00084979,-0.000955616,-0.000118441,0.000857527,-0.000963353,-0.0652307,0.00105188,0.00912188,1077,1709,4.38372,-17.3739
-140,-685,4.39514,17.4893,0.00118035,-0.000796244,-1.02693e-05,0.0011804,-0.000796297,-0.00519527,0.00114841,0.0119496,1084,1709,4.39512,-17.4892
-133,-685,4.4104,17.6216,0.00154583,-0.000825998,6.93741e-05,0.00154786,-0.000828026,0.0292159,0.00139255,0.01094,1091,1709,4.41039,-17.6216
-126,-685,4.40454,17.7507,0.00196267,-0.000822222,0.000189815,0.00197555,-0.0008351,0.0677412,0.00166666,0.00862766,1098,1709,4.40459,-17.7508
-119,-685,4.4209,17.8724,0.00249243,-0.000607311,0.000465649,0.00256087,-0.000675751,0.145932,0.00197148,0.0123439,1105,1709,4.42094,-17.8724
-112,-685,4.42749,17.9937,0.00288676,-0.000707135,0.000578202,0.00297749,-0.000797868,0.155653,0.0022976,0.0127669,1112,1709,4.42743,-17.9936
-105,-685,4.41553,18.0879,0.00323119,-0.000753669,0.000780262,0.00337852,-0.000901002,0.186628,0.00260515,0.0116161,1119,1709,4.41553,-18.0879
-98,-685,4.48438,18.1697,0.00361318,-0.000457694,0.00106376,0.00387439,-0.000718903,0.240789,0.00285291,0.0150772,1126,1709,4.48439,-18.1697
-91,-685,4.48108,18.2803,0.00400146,-0.000146883,0.00128786,0.00436876,-0.000514178,0.277823,0.00309815,0.0169644,1133,1709,4.48106,-18.2803
-84,-685,4.4552,18.3893,0.00453817,-6.81914e-05,0.00139437,0.00492737,-0.000457389,0.272194,0.0034475,0.0162831,1140,1709,4.45517,-18.3893
-77,-685,4.52136,18.5741,0.00543501,0.000638704,0.00156249,0.00589911,0.000174598,0.288729,0.00387585,0.0184694,1147,1709,4.52133,-18.574
-70,-685,4.72449,18.8975,0.00580659,0.00074864,0.00159033,0.00626507,0.000290163,0.280679,0.00408343,0.045247,1154,1709,4.7245,-18.8975
-63,-685,4.73694,19.4669,0,0,0,0,0,0,0,-1,1161,1709,4.73689,-19.4669
-56,-685,3.93909,15.8704,0,0,0,0,0,0,0,-1,1168,1709,3.93905,-15.8704
-49,-685,3.07471,9.86011,0,0,0,0,0,0,0,-1,1175,1709,3.07467,-9.86009
-42,-685,2.70618,7.54504,0,0,0,0,0,0,0,-1,1182,1709,2.7062,-7.54504
-35,-685,2.95264,7.91516,0,0,0,0,0,0,0,-1,1189,1709,2.95262,-7.91517
-28,-685,4.61328,19.1556,0,0,0,0,0,0,0,-1,1196,1709,4.61329,-19.1556
-21,-685,4.74219,18.985,0.0377858,-0.0311847,0.0167092,0.0416206,-0.0350195,0.225598,0.0443029,0.0428986,1203,1709,4.74221,-18.985
-14,-685,4.78687,19.0205,0.0362498,-0.0325071,0.0164843,0.0399976,-0.0362549,0.223555,0.0440421,0.0259778,1210,1709,4.78689,-19.0205
-7,-685,4.70557,19.0909,0.033545,-0.0320017,0.0161001,0.0372861,-0.0357428,0.228314,0.0421664,0.0379761,1217,1709,4.70558,-19.091
0,-685,4.8241,19.2078,0.0299102,-0.0305382,0.0154312,0.0336215,-0.0342495,0.236029,0.0391859,0.0408293,1224,1709,4.82413,-19.2078
7,-685,5.08313,19.3334,0.0261862,-0.0282746,0.014806,0.0299512,-0.0320396,0.249009,0.0357972,0.0360684,1231,1709,5.08314,-19.3334
14,-685,5.33606,19.3958,0.0224229,-0.0254241,0.0143745,0.0264093,-0.0294104,0.270523,0.032243,0.0394339,1238,1709,5.336,-19.3958
21,-685,5.34949,19.3921,0.0188623,-0.0220267,0.0140927,0.0232489,-0.0264132,0.301759,0.0286918,0.0383669,1245,1709,5.34951,-19.3921
28,-685,5.09985,19.3109,0.0156939,-0.0184546,0.0142074,0.0208318,-0.0235925,0.347004,0.0256649,0.0412598,1252,1709,5.0999,-19.3109
35,-685,5.13281,19.3416,0.0129628,-0.0150601,0.014392,0.0190374,-0.0211347,0.399398,0.0232039,0.0408904,1259,1709,5.13285,-19.3416
42,-685,5.18982,19.4303,0.00983744,-0.0119747,0.0141761,0.0168172,-0.0189545,0.45752,0.0206651,0.0415452,1266,1709,5.18984,-19.4303
49,-685,5.23694,19.4535,0.00764604,-0.00902504,0.0136574,0.0153107,-0.0166897,0.511408,0.0184812,0.0420256,1273,1709,5.23698,-19.4535
56,-685,5.21716,19.3534,0.0062742,-0.00629743,0.0138609,0.015208,-0.0152312,0.572521,0.0175741,0.04411,1280,1709,5.2171,-19.3534
63,-685,5.3584,19.3358,0.00811948,-0.00387527,0.0153005,0.018556,-0.0143118,0.598615,0.0190289,0.0447373,1287,1709,5.35841,-19.3358
70,-685,5.3407,19.2866,0.0120535,-0.00318295,0.0162973,0.0224253,-0.0135547,0.566762,0.0209824,0.0436331,1294,1709,5.34075,-19.2867
77,-685,5.68433,19.6173,0.0177667,-0.0045608,0.0168509,0.0268164,-0.0136105,0.492841,0.0237519,0.0448931,1301,1709,5.68431,-19.6174
84,-685,5.67163,19.5626,0.0250394,-0.00641084,0.0173726,0.0327469,-0.0141183,0.417567,0.0277611,0.0454441,1308,1709,5.67158,-19.5626
91,-685,5.63953,20.0161,0.0321796,-0.00843131,0.0180673,0.0390539,-0.0153056,0.363568,0.0323674,0.0422414,1315,1709,5.63958,-20.0161
98,-685,5.10327,19.4243,0.0402834,-0.0107325,0.0188588,0.0464978,-0.0169469,0.318319,0.0379312,0.0377098,1322,1709,5.10321,-19.4243
105,-685,5.21631,19.0156,0.0494223,-0.0132755,0.0194647,0.0549736,-0.0188269,0.277824,0.0442796,0.037388,1329,1709,5.21628,-19.0157
112,-685,5.48206,19.0502,0.0586699,-0.0159515,0.0199978,0.0636913,-0.0209729,0.246008,0.0509127,0.0406553,1336,1709,5.48211,-19.0502
119,-685,5.33447,18.9509,0.0678927,-0.0186349,0.0204449,0.0724802,-0.0232225,0.220729,0.0576419,0.0395901,1343,1709,5.33447,-18.9509
126,-685,5.14966,19.2906,0.0757646,-0.020998,0.0208236,0.0800555,-0.025289,0.20322,0.0635013,0.0413359,1350,1709,5.14968,-19.2907
133,-685,5.14856,19.2499,0.0818131,-0.0226662,0.0209456,0.0858558,-0.0267089,0.190664,0.067914,0.0456485,1357,1709,5.14852,-19.2499
140,-685,5.34155,19.3347,0.0853163,-0.0233037,0.0209364,0.0892121,-0.0271995,0.183972,0.0703171,0.0437652,1364,1709,5.34161,-19.3347
147,-685,5.45911,19.2987,0.0861047,-0.0231892,0.0205835,0.0898527,-0.0269372,0.180114,0.0706148,0.0448683,1371,1709,5.45916,-19.2987
154,-685,5.54211,19.2465,0,0,0,0,0,0,0,-1,1378,1709,5.54211,-19.2465
161,-685,5.81165,19.3346,0,0,0,0,0,0,0,-1,1385,1709,5.81163,-19.3346
168,-685,4.37524,10.8778,0,0,0,0,0,0,0,-1,1392,1709,4.37525,-10.8778
175,-685,3.97522,8.94324,0,0,0,0,0,0,0,-1,1399,1709,3.97519,-8.94328
182,-685,3.98218,9.19739,0,0,0,0,0,0,0,-1,1406,1709,3.98221,-9.1974
189,-685,4.53479,15.2343,0,0,0,0,0,0,0,-1,1413,1709,4.53474,-15.2343
196,-685,5.4834,19.1459,0,0,0,0,0,0,0,-1,1420,1709,5.48341,-19.1458
203,-685,5.47717,18.9691,0,0,0,0,0,0,0,-1,1427,1709,5.47714,-18.9691
210,-685,5.58936,19.0375,0,0,0,0,0,0,0,-1,1434,1709,5.58932,-19.0375
217,-685,5.5885,18.7979,0.000363893,-0.00130275,0.00106835,0.000885489,-0.00182435,0.454183,0.00159552,0.0307396,1441,1709,5.58856,-18.7978
224,-685,5.54248,18.6274,0.000342873,-0.0017404,0.00119713,0.0008881,-0.00228563,0.427372,0.00189064,0.0169767,1448,1709,5.54251,-18.6274
231,-685,5.52441,18.543,0.000298086,-0.00200704,0.00127443,0.000863825,-0.00257278,0.417784,0.00206428,0.0168263,1455,1709,5.52445,-18.543
238,-685,5.54333,18.479,0.000361181,-0.00195283,0.00121245,0.000880088,-0.00247174,0.404395,0.00200659,0.0186853,1462,1709,5.54335,-18.479
245,-685,5.52002,18.3984,0.000481627,-0.00205977,0.00120239,0.000960329,-0.00253848,0.378891,0.00208741,0.0196876,1469,1709,5.52001,-18.3984
252,-685,5.54834,18.2944,0.00067282,-0.00189437,0.00109715,0.00107782,-0.00229938,0.353622,0.00199189,0.0152192,1476,1709,5.54833,-18.2945
259,-685,5.55969,18.2163,0.000783806,-0.00179084,0.00103868,0.00115059,-0.00215762,0.339453,0.00193927,0.0107884,1483,1709,5.55974,-18.2163
266,-685,5.59021,18.1165,0.000830901,-0.00160538,0.000925594,0.00114266,-0.00191714,0.324885,0.00178534,0.0122709,1490,1709,5.59018,-18.1165
273,-685,5.60938,18.0067,0.000934942,-0.00136968,0.000830096,0.0012028,-0.00163754,0.312135,0.00164626,0.0129864,1497,1709,5.60934,-18.0067
280,-685,5.61353,17.8777,0.000964714,-0.000773663,0.000610929,0.00115794,-0.000966888,0.306326,0.00122842,0.0139027,1504,1709,5.61351,-17.8777
287,-685,5.61902,17.757,0.000901997,-0.000158966,0.000379444,0.00102373,-0.000280703,0.310455,0.000792798,0.0122491,1511,1709,5.61899,-17.757
294,-685,5.60364,17.631,0.000860923,0.00043407,0.000102062,0.000884071,0.000410922,0.223031,0.00051084,0.0109493,1518,1709,5.60368,-17.631
301,-685,5.58411,17.4934,0.000746995,0.00093286,-0.000155775,0.00102132,0.000658538,-1.05435,0.000597842,0.0135291,1525,1709,5.58412,-17.4934
308,-685,5.60596,17.3469,0.000503741,0.0012785,-0.000404039,0.00145086,0.000331379,-1.16757,0.000877882,0.0137336,1532,1709,5.6059,-17.3469
315,-685,5.62292,17.2238,0.000172724,0.00148944,-0.000502394,0.00165923,2.93041e-06,-1.24488,0.00110518,0.0121861,1539,1709,5.62298,-17.2238
322,-685,5.6012,17.0952,-0.00029654,0.00170126,-0.00060161,0.00186844,-0.000463717,-1.29975,0.00142557,0.0205181,1546,1709,5.60123,-17.0952
329,-685,5.59241,16.9646,-0.0010824,0.00109605,-0.000583065,0.0012423,-0.00122864,-1.32505,0.0014266,0.0196918,1553,1709,5.59237,-16.9646
336,-685,5.60156,16.8015,-0.00195647,-0.00087101,-0.000484581,-0.000686159,-0.00214132,-1.20637,0.00126259,0.0133135,1560,1709,5.60151,-16.8016
343,-685,5.58362,16.6362,-0.00278339,-0.00246305,-0.000386919,-0.00220446,-0.00304198,-0.981642,0.00181443,0.0118743,1567,1709,5.58366,-16.6362
350,-685,5.58313,16.4696,-0.00351562,-0.00288322,0.00121363,-0.00194528,-0.00445357,0.912835,0.00257811,0.0122067,1574,1709,5.58319,-16.4695
357,-685,5.59534,16.337,-0.00431756,-0.00417638,0.00214917,-0.00209664,-0.00639729,0.801815,0.00376584,0.00982478,1581,1709,5.59528,-16.337
364,-685,5.57861,16.1714,-0.00497644,-0.0051092,0.00329255,-0.0017496,-0.00833604,0.77532,0.00507569,0.00974586,1588,1709,5.57862,-16.1714
371,-685,5.58923,15.9813,-0.00550928,-0.005864,0.00490366,-0.000779774,-0.0105935,0.767322,0.00681729,0.0158589,1595,1709,5.58921,-15.9813
378,-685,5.52002,15.8601,-0.00556528,-0.00634637,0.0070961,0.00115101,-0.0130627,0.757908,0.00911636,0.0231623,1602,1709,5.52003,-15.8601
385,-685,5.50037,15.7297,-0.00470524,-0.00586821,0.00916358,0.00389529,-0.0144687,0.753713,0.0111729,0.0411081,1609,1709,5.50036,-15.7297
392,-685,5.63171,15.6809,-0.00317412,-0.00489116,0.0110709,0.00707148,-0.0151368,0.746702,0.0131007,0.04431,1616,1709,5.63175,-15.6809
399,-685,5.57422,15.5341,0,0,0,0,0,0,0,-1,1623,1709,5.57426,-15.5341
406,-685,5.54797,15.0391,0,0,0,0,0,0,0,-1,1630,1709,5.54802,-15.0391
413,-685,5.67407,14.7061,0,0,0,0,0,0,0,-1,1637,1709,5.67403,-14.7061
420,-685,4.84631,10.3781,0,0,0,0,0,0,0,-1,1644,1709,4.84634,-10.378
427,-685,6.05151,9.21155,0,0,0,0,0,0,0,-1,1651,1709,6.05156,-9.21156
434,-685,4.87769,8.91418,0,0,0,0,0,0,0,-1,1658,1709,4.87768,-8.91413
441,-685,5.62,8.75549,0,0,0,0,0,0,0,-1,1665,1709,5.61996,-8.75545
448,-685,6.4043,8.58972,0,0,0,0,0,0,0,-1,1672,1709,6.40435,-8.58971
455,-685,2.31958,4.09802,0,0,0,0,0,0,0,-1,1679,1709,2.31957,-4.09803
462,-685,0,0,0,0,0,0,0,0,0,-1,1686,1709,0,0
469,-685,0,0,0,0,0,0,0,0,0,-1,1693,1709,0,0
476,-685,0,0,0,0,0,0,0,0,0,-1,1700,1709,0,0
483,-685,0,0,0,0,0,0,0,0,0,-1,1707,1709,0,0
490,-685,0,0,0,0,0,0,0,0,0,-1,1714,1709,0,0
497,-685,0,0,0,0,0,0,0,0,0,-1,1721,1709,0,0
504,-685,0,0,0,0,0,0,0,0,0,-1,1728,1709,0,0
511,-685,0,0,0,0,0,0,0,0,0,-1,1735,1709,0,0
518,-685,0,0,0,0,0,0,0,0,0,-1,1742,1709,0,0
525,-685,0,0,0,0,0,0,0,0,0,-1,1749,1709,0,0
532,-685,0,0,0,0,0,0,0,0,0,-1,1756,1709,0,0
539,-685,0,0,0,0,0,0,0,0,0,-1,1763,1709,0,0
546,-685,0,0,0,0,0,0,0,0,0,-1,1770,1709,0,0
553,-685,0,0,0,0,0,0,0,0,0,-1,1777,1709,0,0
560,-685,0,0,0,0,0,0,0,0,0,-1,1784,1709,0,0
567,-685,0,0,0,0,0,0,0,0,0,-1,1791,1709,0,0
574,-685,0,0,0,0,0,0,0,0,0,-1,1798,1709,0,0
581,-685,0,0,0,0,0,0,0,0,0,-1,1805,1709,0,0
588,-685,0,0,0,0,0,0,0,0,0,-1,1812,1709,0,0
595,-685,0,0,0,0,0,0,0,0,0,-1,1819,1709,0,0
602,-685,0,0,0,0,0,0,0,0,0,-1,1826,1709,0,0
609,-685,0,0,0,0,0,0,0,0,0,-1,1833,1709,0,0
616,-685,0,0,0,0,0,0,0,0,0,-1,1840,1709,0,0
623,-685,0,0,0,0,0,0,0,0,0,-1,1847,1709,0,0
630,-685,0,0,0,0,0,0,0,0,0,-1,1854,1709,0,0
637,-685,0,0,0,0,0,0,0,0,0,-1,1861,1709,0,0
644,-685,0,0,0,0,0,0,0,0,0,-1,1868,1709,0,0
651,-685,0,0,0,0,0,0,0,0,0,-1,1875,1709,0,0
658,-685,0,0,0,0,0,0,0,0,0,-1,1882,1709,0,0
665,-685,0,0,0,0,0,0,0,0,0,-1,1889,1709,0,0
672,-685,0,0,0,0,0,0,0,0,0,-1,1896,1709,0,0
679,-685,0,0,0,0,0,0,0,0,0,-1,1903,1709,0,0
686,-685,0,0,0,0,0,0,0,0,0,-1,1910,1709,0,0
693,-685,0,0,0,0,0,0,0,0,0,-1,1917,1709,0,0
700,-685,0,0,0,0,0,0,0,0,0,-1,1924,1709,0,0
707,-685,0,0,0,0,0,0,0,0,0,-1,1931,1709,0,0
714,-685,0,0,0,0,0,0,0,0,0,-1,1938,1709,0,0
721,-685,0,0,0,0,0,0,0,0,0,-1,1945,1709,0,0
728,-685,0,0,0,0,0,0,0,0,0,-1,1952,1709,0,0
735,-685,0,0,0,0,0,0,0,0,0,-1,1959,1709,0,0
742,-685,0,0,0,0,0,0,0,0,0,-1,1966,1709,0,0
749,-685,0,0,0,0,0,0,0,0,0,-1,1973,1709,0,0
756,-685,0,0,0,0,0,0,0,0,0,-1,1980,1709,0,0
763,-685,0,0,0,0,0,0,0,0,0,-1,1987,1709,0,0
770,-685,0,0,0,0,0,0,0,0,0,-1,1994,1709,0,0
777,-685,0,0,0,0,0,0,0,0,0,-1,2001,1709,0,0
784,-685,0,0,0,0,0,0,0,0,0,-1,2008,1709,0,0
791,-685,0,0,0,0,0,0,0,0,0,-1,2015,1709,0,0
798,-685,0,0,0,0,0,0,0,0,0,-1,2022,1709,0,0
805,-685,0,0,0,0,0,0,0,0,0,-1,2029,1709,0,0
812,-685,0,0,0,0,0,0,0,0,0,-1,2036,1709,0,0
-700,-692,0,0,0,0,0,0,0,0,0,-1,524,1716,0,0
-693,-692,0,0,0,0,0,0,0,0,0,-1,531,1716,0,0
-686,-692,0,0,0,0,0,0,0,0,0,-1,538,1716,0,0
-679,-692,0,0,0,0,0,0,0,0,0,-1,545,1716,0,0
-672,-692,0,0,0,0,0,0,0,0,0,-1,552,1716,0,0
-665,-692,0,0,0,0,0,0,0,0,0,-1,559,1716,0,0
-658,-692,0,0,0,0,0,0,0,0,0,-1,566,1716,0,0
-651,-692,0,0,0,0,0,0,0,0,0,-1,573,1716,0,0
-644,-692,0,0,0,0,0,0,0,0,0,-1,580,1716,0,0
-637,-692,0,0,0,0,0,0,0,0,0,-1,587,1716,0,0
-630,-692,0,0,0,0,0,0,0,0,0,-1,594,1716,0,0
-623,-692,0,0,0,0,0,0,0,0,0,-1,601,1716,0,0
-616,-692,0,0,0,0,0,0,0,0,0,-1,608,1716,0,0
-609,-692,0,0,0,0,0,0,0,0,0,-1,615,1716,0,0
-602,-692,0,0,0,0,0,0,0,0,0,-1,622,1716,0,0
-595,-692,0,0,0,0,0,0,0,0,0,-1,629,1716,0,0
-588,-692,0,0,0,0,0,0,0,0,0,-1,636,1716,0,0
-581,-692,0,0,0,0,0,0,0,0,0,-1,643,1716,0,0
-574,-692,0,0,0,0,0,0,0,0,0,-1,650,1716,0,0
-567,-692,0,0,0,0,0,0,0,0,0,-1,657,1716,0,0
-560,-692,0,0,0,0,0,0,0,0,0,-1,664,1716,0,0
-553,-692,0,0,0,0,0,0,0,0,0,-1,671,1716,0,0
-546,-692,0,0,0,0,0,0,0,0,0,-1,678,1716,0,0
-539,-692,0,0,0,0,0,0,0,0,0,-1,685,1716,0,0
-532,-692,0,0,0,0,0,0,0,0,0,-1,692,1716,0,0
-525,-692,0,0,0,0,0,0,0,0,0,-1,699,1716,0,0
-518,-692,0,0,0,0,0,0,0,0,0,-1,706,1716,0,0
-511,-692,0,0,0,0,0,0,0,0,0,-1,713,1716,0,0
-504,-692,0,0,0,0,0,0,0,0,0,-1,720,1716,0,0
-497,-692,0,0,0,0,0,0,0,0,0,-1,727,1716,0,0
-490,-692,0,0,0,0,0,0,0,0,0,-1,734,1716,0,0
-483,-692,0,0,0,0,0,0,0,0,0,-1,741,1716,0,0
-476,-692,0,0,0,0,0,0,0,0,0,-1,748,1716,0,0
-469,-692,0,0,0,0,0,0,0,0,0,-1,755,1716,0,0
-462,-692,0,0,0,0,0,0,0,0,0,-1,762,1716,0,0
-455,-692,0,0,0,0,0,0,0,0,0,-1,769,1716,0,0
-448,-692,0,0,0,0,0,0,0,0,0,-1,776,1716,0,0
-441,-692,0,0,0,0,0,0,0,0,0,-1,783,1716,0,0
-434,-692,0,0,0,0,0,0,0,0,0,-1,790,1716,0,0
-427,-692,0,0,0,0,0,0,0,0,0,-1,797,1716,0,0
-420,-692,0,0,0,0,0,0,0,0,0,-1,804,1716,0,0
-413,-692,0,0,0,0,0,0,0,0,0,-1,811,1716,0,0
-406,-692,0,0,0,0,0,0,0,0,0,-1,818,1716,0,0
-399,-692,0,0,0,0,0,0,0,0,0,-1,825,1716,0,0
-392,-692,0,0,0,0,0,0,0,0,0,-1,832,1716,0,0
-385,-692,0,0,0,0,0,0,0,0,0,-1,839,1716,0,0
-378,-692,0,0,0,0,0,0,0,0,0,-1,846,1716,0,0
-371,-692,0,0,0,0,0,0,0,0,0,-1,853,1716,0,0
-364,-692,0,0,0,0,0,0,0,0,0,-1,860,1716,0,0
-357,-692,0,0,0,0,0,0,0,0,0,-1,867,1716,0,0
-350,-692,0,0,0,0,0,0,0,0,0,-1,874,1716,0,0
-343,-692,0,0,0,0,0,0,0,0,0,-1,881,1716,0,0
-336,-692,0,0,0,0,0,0,0,0,0,-1,888,1716,0,0
-329,-692,3.12396,3.50745,0,0,0,0,0,0,0,-1,895,1716,3.12398,-3.50748
-322,-692,3.67346,17.0139,0,0,0,0,0,0,0,-1,902,1716,3.67349,-17.0139
-315,-692,3.98718,15.2626,0,0,0,0,0,0,0,-1,909,1716,3.98716,-15.2626
-308,-692,4.28339,13.5061,0,0,0,0,0,0,0,-1,916,1716,4.2834,-13.5061
-301,-692,3.78101,15.3895,0,0,0,0,0,0,0,-1,923,1716,3.78098,-15.3895
-294,-692,5.86267,14.4792,0,0,0,0,0,0,0,-1,930,1716,5.86269,-14.4793
-287,-692,5.28906,12.8888,0,0,0,0,0,0,0,-1,937,1716,5.28909,-12.8888
-280,-692,4.31818,13.1947,0,0,0,0,0,0,0,-1,944,1716,4.31818,-13.1947
-273,-692,4.72498,13.3171,0,0,0,0,0,0,0,-1,951,1716,4.72497,-13.3172
-266,-692,4.3598,14.1884,0,0,0,0,0,0,0,-1,958,1716,4.35979,-14.1883
-259,-692,4.87299,14.8936,0,0,0,0,0,0,0,-1,965,1716,4.87301,-14.8936
-252,-692,4.8493,15.0803,0,0,0,0,0,0,0,-1,972,1716,4.84928,-15.0804
-245,-692,4.79547,15.0546,0,0,0,0,0,0,0,-1,979,1716,4.79544,-15.0546
-238,-692,4.91785,15.2017,-0.0189179,0.0209001,-0.0119553,0.0242139,-0.0222316,-1.3004,0.0268235,0.04398,986,1716,4.91784,-15.2017
-231,-692,4.72681,15.4907,-0.0176119,0.0140749,-0.010632,0.0173117,-0.0208487,-1.27527,0.0220634,0.0345848,993,1716,4.72682,-15.4907
-224,-692,4.62067,15.6471,-0.0157304,0.00791565,-0.00937617,0.0111822,-0.0189969,-1.23555,0.0176176,0.0178978,1000,1716,4.62065,-15.6472
-217,-692,4.5755,15.8051,-0.0136872,0.00286013,-0.00815011,0.00620015,-0.0170273,-1.18186,0.0138875,0.0119121,1007,1716,4.57551,-15.8051
-210,-692,4.58148,15.9907,-0.01153,-0.000852964,-0.00692703,0.00255401,-0.0149369,-1.1137,0.0109094,0.0129699,1014,1716,4.5815,-15.9907
-203,-692,4.58118,16.1637,-0.00939264,-0.00314344,-0.00575081,0.000276794,-0.0128129,-1.03425,0.00863566,0.0150944,1021,1716,4.58122,-16.1637
-196,-692,4.5719,16.3416,-0.0074641,-0.00445568,-0.00469149,-0.00103316,-0.0108866,-0.940533,0.00693905,0.0161928,1028,1716,4.57185,-16.3415
-189,-692,4.55127,16.475,-0.0055783,-0.00646908,-0.00342765,-0.00256723,-0.00948016,-0.72079,0.00566182,0.0084318,1035,1716,4.55127,-16.475
-182,-692,4.54224,16.6327,-0.0039703,-0.00664768,-0.00258245,-0.00240018,-0.0082178,-0.546276,0.00487938,0.0132426,1042,1716,4.54218,-16.6327
-175,-692,4.53735,16.8107,-0.00269524,-0.00523173,-0.00204873,-0.00155397,-0.00637299,-0.508247,0.00383704,0.0147463,1049,1716,4.53734,-16.8107
-168,-692,4.55017,16.9506,-0.00153968,-0.00391249,-0.00147523,-0.000832978,-0.00461919,-0.446746,0.00284278,0.0112256,1056,1716,4.5502,-16.9506
-161,-692,4.55298,17.1012,-0.00074132,-0.00264827,-0.00100311,-0.000310833,-0.00307876,-0.405382,0.00195714,0.012755,1063,1716,4.55296,-17.1013
-154,-692,4.55359,17.281,-0.000316538,-0.00156761,-0.000663873,-2.99219e-05,-0.00185423,-0.40756,0.0012263,0.0135066,1070,1716,4.55363,-17.281
-147,-692,4.54858,17.3969,9.20497e-05,-0.000793736,-0.000376204,0.000230262,-0.000931949,-0.35208,0.0007106,0.0131146,1077,1716,4.54863,-17.3968
-140,-692,4.53113,17.5062,0.000421935,-0.00059033,-0.000243984,0.000477673,-0.000646068,-0.224594,0.000651215,0.0109293,1084,1716,4.53111,-17.5062
-133,-692,4.5343,17.6388,0.000801291,-0.000475024,-0.000144258,0.000817393,-0.000491126,-0.111159,0.000763262,0.010162,1091,1716,4.53434,-17.6388
-126,-692,4.53662,17.7671,0.00116215,-0.000452004,-5.43724e-05,0.00116398,-0.000453834,-0.0336339,0.000963575,0.00767148,1098,1716,4.53665,-17.767
-119,-692,4.53735,17.8864,0.00157393,-0.000269387,0.00018275,0.00159188,-0.000287331,0.0978724,0.00116886,0.0111156,1105,1716,4.53735,-17.8864
-112,-692,4.5592,17.9949,0.00193691,-0.000304086,0.00032385,0.00198277,-0.000349947,0.140678,0.00145262,0.0112417,1112,1716,4.55924,-17.9949
-105,-692,4.58374,18.0902,0.00224482,-0.000313584,0.000518123,0.00234577,-0.00041453,0.19242,0.00171877,0.0161807,1119,1716,4.58368,-18.0902
-98,-692,4.62097,18.1772,0.00254029,-9.7012e-05,0.000790886,0.00275928,-0.000316003,0.270125,0.00195339,0.0170982,1126,1716,4.62096,-18.1773
-91,-692,4.6073,18.2694,0.00286053,0.0001872,0.00103585,0.00321492,-0.000167188,0.32964,0.00220113,0.0190828,1133,1716,4.60725,-18.2694
-84,-692,4.59766,18.3701,0.00325526,0.000354335,0.00120745,0.00369206,-8.24684e-05,0.347111,0.00248932,0.0224129,1140,1716,4.5977,-18.3701
-77,-692,4.59119,18.5154,0.00381252,0.000878211,0.00132158,0.00431998,0.000370748,0.366622,0.00276471,0.0150446,1147,1716,4.59117,-18.5153
-70,-692,4.61902,18.6531,0.00412993,0.000978015,0.00131951,0.00460939,0.000498555,0.34853,0.00292096,0.0197637,1154,1716,4.61904,-18.6531
-63,-692,4.63171,18.7029,0.0083999,-0.000424233,0.00400653,0.00994758,-0.00197191,0.368632,0.0073774,0.0314922,1161,1716,4.63168,-18.7029
-56,-692,4.61316,18.7399,0,0,0,0,0,0,0,-1,1168,1716,4.61321,-18.7398
-49,-692,4.60156,18.9303,0,0,0,0,0,0,0,-1,1175,1716,4.60152,-18.9303
-42,-692,4.62659,19.0935,0,0,0,0,0,0,0,-1,1182,1716,4.62661,-19.0935
-35,-692,4.76733,19.1492,0,0,0,0,0,0,0,-1,1189,1716,4.76728,-19.1492
-28,-692,4.69165,19.153,0.0249502,-0.0172718,0.0124385,0.028342,-0.0206637,0.266219,0.028409,0.0442977,1196,1716,4.6917,-19.1529
-21,-692,4.79236,19.0817,0.0248354,-0.0192094,0.0128817,0.0283262,-0.0227003,0.264635,0.0295198,0.0297306,1203,1716,4.79237,-19.0817
-14,-692,4.80408,19.1128,0.0239966,-0.0203988,0.0129204,0.027483,-0.0238853,0.263563,0.0296817,0.0163301,1210,1716,4.80406,-19.1128
-7,-692,4.79749,19.2026,0.022432,-0.0203095,0.0128047,0.0259745,-0.023852,0.269905,0.028776,0.0160424,1217,1716,4.79747,-19.2027
0,-692,4.82275,19.2877,0.0201744,-0.019556,0.0124633,0.0237604,-0.023142,0.280159,0.0270799,0.0185952,1224,1716,4.82281,-19.2878
7,-692,4.85132,19.3379,0.0177604,-0.0181965,0.0121335,0.0214717,-0.0219078,0.296837,0.0250456,0.0215652,1231,1716,4.85135,-19.3379
14,-692,4.97632,19.4152,0.015263,-0.0163858,0.0119076,0.0192427,-0.0203655,0.322543,0.0228709,0.022954,1238,1716,4.97636,-19.4152
21,-692,5.03491,19.4202,0.0129127,-0.0141387,0.0117448,0.0173003,-0.0185263,0.357521,0.0206885,0.02411,1245,1716,5.03495,-19.4202
28,-692,4.9967,19.3589,0.0108352,-0.0119042,0.0117086,0.0157861,-0.0168551,0.400041,0.0188488,0.0255892,1252,1716,4.99671,-19.3589
35,-692,4.99951,19.3928,0.0090144,-0.00966276,0.0118165,0.0147369,-0.0153853,0.450998,0.0173924,0.0239933,1259,1716,4.99949,-19.3928
42,-692,5.06995,19.4575,0.00660898,-0.00757352,0.0115732,0.0130906,-0.0140552,0.510534,0.0156759,0.0201828,1266,1716,5.07,-19.4575
49,-692,5.10425,19.4503,0.00488536,-0.00573673,0.0109589,0.0117524,-0.0126037,0.559759,0.0140649,0.0227712,1273,1716,5.10428,-19.4503
56,-692,5.07532,19.4774,0.00382316,-0.0041224,0.0108725,0.0114259,-0.0117252,0.610235,0.0133667,0.0286333,1280,1716,5.07529,-19.4774
63,-692,5.13477,19.4884,0.00515855,-0.00279054,0.0116794,0.0135211,-0.0111531,0.621392,0.0142675,0.0289798,1287,1716,5.13476,-19.4885
70,-692,5.13513,19.4753,0.00790156,-0.00278373,0.0121588,0.0158397,-0.0107219,0.578393,0.0154299,0.0255695,1294,1716,5.13516,-19.4753
77,-692,5.1322,19.4912,0.0120459,-0.00402674,0.012423,0.0188053,-0.0107861,0.498305,0.0172924,0.029533,1301,1716,5.13221,-19.4912
84,-692,5.11462,19.4696,0.0174794,-0.0056948,0.0126634,0.0230569,-0.0112722,0.414875,0.0202054,0.0364065,1308,1716,5.11461,-19.4696
91,-692,5.14246,19.5482,0.0226235,-0.00744229,0.0129977,0.0274634,-0.0122822,0.356459,0.0234985,0.0328181,1315,1716,5.14246,-19.5482
98,-692,5.13,19.561,0.0284624,-0.00932248,0.0134469,0.0327592,-0.0136194,0.309288,0.0275263,0.0256508,1322,1716,5.13002,-19.5611
105,-692,5.19812,19.4144,0.0350374,-0.011264,0.013782,0.0388292,-0.0150558,0.268485,0.0321039,0.031858,1329,1716,5.19816,-19.4145
112,-692,5.31018,19.323,0.0416675,-0.0132367,0.014082,0.0450686,-0.0166378,0.236983,0.0368652,0.0361179,1336,1716,5.31018,-19.323
119,-692,5.22083,19.3593,0.0481985,-0.0151057,0.0143431,0.0512966,-0.0182039,0.212734,0.0416148,0.0304328,1343,1716,5.22084,-19.3592
126,-692,5.17456,19.382,0.0535947,-0.0166417,0.0145686,0.0564967,-0.0195436,0.196619,0.0455972,0.0286196,1350,1716,5.17456,-19.382
133,-692,5.2085,19.345,0.0575809,-0.017488,0.014704,0.0603582,-0.0202654,0.186686,0.0484286,0.0217742,1357,1716,5.20845,-19.345
140,-692,5.27942,19.3287,0.0597485,-0.017695,0.0145522,0.0623927,-0.0203392,0.179742,0.0497797,0.0252555,1364,1716,5.27936,-19.3288
147,-692,5.32605,19.3767,0.0599256,-0.0172779,0.0141465,0.0624361,-0.0197884,0.175637,0.0495552,0.0297495,1371,1716,5.326,-19.3767
154,-692,5.3252,19.3685,0.0572256,-0.0163125,0.0136842,0.0596895,-0.0187763,0.178143,0.0473105,0.027468,1378,1716,5.32525,-19.3685
161,-692,5.51489,19.3157,0.0537424,-0.0152252,0.012225,0.0558453,-0.017328,0.170345,0.0441545,0.0398173,1385,1716,5.5149,-19.3157
168,-692,5.68445,19.2786,0,0,0,0,0,0,0,-1,1392,1716,5.68449,-19.2785
175,-692,5.38623,19.1671,0,0,0,0,0,0,0,-1,1399,1716,5.38629,-19.1672
182,-692,5.38953,19.0939,0,0,0,0,0,0,0,-1,1406,1716,5.38953,-19.0939
189,-692,5.38855,19.0585,0,0,0,0,0,0,0,-1,1413,1716,5.38858,-19.0585
196,-692,5.40564,18.9945,0.00212183,-0.000400698,0.0018633,0.00311061,-0.00138947,0.487871,0.00266071,0.0287248,1420,1716,5.40568,-18.9945
203,-692,5.40552,18.9437,0.00135351,-0.000699937,0.00155071,0.00218659,-0.00153302,0.492982,0.00215854,0.0181476,1427,1716,5.40553,-18.9437
210,-692,5.46008,18.8762,0.000807128,-0.000948296,0.00137843,0.00156357,-0.00170474,0.501897,0.00188754,0.0171622,1434,1716,5.46009,-18.8762
217,-692,5.46069,18.7823,0.00036572,-0.00126758,0.00106108,0.000888025,-0.00178988,0.457421,0.00157505,0.0164277,1441,1716,5.46075,-18.7824
224,-692,5.46741,18.686,0.000340869,-0.00151072,0.00104411,0.000810516,-0.00198037,0.422693,0.00165783,0.0130686,1448,1716,5.46742,-18.6861
231,-692,5.44653,18.5803,0.00031115,-0.00159628,0.000980766,0.000725453,-0.00201059,0.39969,0.00163671,0.0115184,1455,1716,5.44659,-18.5803
238,-692,5.45776,18.4517,0.00036646,-0.0014643,0.000840098,0.000693532,-0.00179137,0.37127,0.0014806,0.016766,1462,1716,5.45775,-18.4517
245,-692,5.42725,18.375,0.00045998,-0.00138268,0.000736284,0.00071804,-0.00164074,0.337111,0.00139614,0.0200062,1469,1716,5.4273,-18.3749
252,-692,5.43066,18.3014,0.000583788,-0.00112997,0.000579681,0.000761448,-0.00130763,0.297391,0.00120838,0.0184768,1476,1716,5.43063,-18.3014
259,-692,5.44299,18.2144,0.000685139,-0.000885143,0.000471276,0.000815721,-0.00101572,0.270299,0.00105948,0.00986686,1483,1716,5.443,-18.2143
266,-692,5.45825,18.1145,0.00076154,-0.000592663,0.000320426,0.00083353,-0.000664653,0.221002,0.000866807,0.00997868,1490,1716,5.45821,-18.1145
273,-692,5.47351,17.9999,0.000862907,-7.42363e-05,8.14497e-05,0.000869933,-8.12626e-05,0.0860529,0.000608853,0.0129575,1497,1716,5.47355,-17.9999
280,-692,5.48853,17.8733,0.000859991,0.000573962,-0.000163886,0.00093449,0.000499464,-0.42665,0.000539955,0.0121876,1504,1716,5.48855,-17.8733
287,-692,5.48877,17.7548,0.000779735,0.00115263,-0.000356012,0.00136806,0.000564303,-1.02662,0.000793874,0.010812,1511,1716,5.48882,-17.7548
294,-692,5.48535,17.6465,0.000759404,0.00177297,-0.00064961,0.00209009,0.000442279,-1.11665,0.00127186,0.010408,1518,1716,5.48537,-17.6465
301,-692,5.47485,17.5134,0.000617913,0.00226287,-0.000902583,0.00266151,0.000219275,-1.1549,0.00170595,0.0128764,1525,1716,5.47479,-17.5134
308,-692,5.4679,17.384,0.000310384,0.0025393,-0.00114005,0.00301912,-0.000169442,-1.17242,0.00207154,0.0149645,1532,1716,5.46791,-17.3841
315,-692,5.48706,17.2347,-9.45623e-05,0.00275849,-0.00119996,0.00319606,-0.00053214,-1.22112,0.00232845,0.0144488,1539,1716,5.48706,-17.2347
322,-692,5.45129,17.0668,-0.000705877,0.0030041,-0.0012671,0.00339556,-0.00109733,-1.27116,0.00270473,0.0200499,1546,1716,5.4513,-17.0668
329,-692,5.43542,16.9426,-0.00176766,0.001993,-0.00118001,0.00233259,-0.00210725,-1.29058,0.00256445,0.0178204,1553,1716,5.43548,-16.9427
336,-692,5.4397,16.7925,-0.00296764,-0.000811807,-0.00102026,-0.000405525,-0.00337392,-1.19183,0.00212703,0.0123455,1560,1716,5.43968,-16.7924
343,-692,5.44617,16.6229,-0.00411217,-0.00304564,-0.000861728,-0.00256552,-0.00459229,-1.06247,0.00265743,0.0130488,1567,1716,5.44621,-16.6229
350,-692,5.45435,16.4668,-0.00507607,-0.00340044,0.00164272,-0.00239422,-0.00608229,1.02121,0.003538,0.0133589,1574,1716,5.45438,-16.4668
357,-692,5.43677,16.3456,-0.00620826,-0.00513077,0.00313308,-0.00249045,-0.00884858,0.870542,0.00526889,0.0165433,1581,1716,5.43677,-16.3456
364,-692,5.37988,16.2067,-0.00719062,-0.00641871,0.00502059,-0.00176926,-0.0118401,0.82376,0.00737472,0.0228769,1588,1716,5.37989,-16.2066
371,-692,5.40442,15.9985,-0.00801469,-0.00731462,0.00764766,-8.98587e-06,-0.0153203,0.808267,0.0102106,0.0335528,1595,1716,5.40444,-15.9985
378,-692,5.33801,15.8522,-0.00830674,-0.00776826,0.0112,0.0031657,-0.0192407,0.797415,0.0140022,0.0426696,1602,1716,5.33801,-15.8521
385,-692,5.31848,16.155,-0.00744263,-0.00652125,0.0148181,0.0078433,-0.0218072,0.800938,0.0177402,0.0456896,1609,1716,5.31853,-16.1551
392,-692,5.44128,15.8925,0,0,0,0,0,0,0,-1,1616,1716,5.44132,-15.8925
399,-692,5.2627,10.4279,0,0,0,0,0,0,0,-1,1623,1716,5.26267,-10.4278
406,-692,4.73633,10.6808,0,0,0,0,0,0,0,-1,1630,1716,4.73637,-10.6808
413,-692,4.25085,10.5685,0,0,0,0,0,0,0,-1,1637,1716,4.2508,-10.5685
420,-692,5.48901,10.4845,0,0,0,0,0,0,0,-1,1644,1716,5.48906,-10.4845
427,-692,3.79578,8.60339,0,0,0,0,0,0,0,-1,1651,1716,3.79577,-8.6034
434,-692,4.78516,8.64636,0,0,0,0,0,0,0,-1,1658,1716,4.78512,-8.64634
441,-692,5.8208,8.74036,0,0,0,0,0,0,0,-1,1665,1716,5.82084,-8.7404
448,-692,6.73792,8.51013,0,0,0,0,0,0,0,-1,1672,1716,6.73793,-8.5101
455,-692,0,0,0,0,0,0,0,0,0,-1,1679,1716,0,0
462,-692,0,0,0,0,0,0,0,0,0,-1,1686,1716,0,0
469,-692,0,0,0,0,0,0,0,0,0,-1,1693,1716,0,0
476,-692,0,0,0,0,0,0,0,0,0,-1,1700,1716,0,0
483,-692,0,0,0,0,0,0,0,0,0,-1,1707,1716,0,0
490,-692,0,0,0,0,0,0,0,0,0,-1,1714,1716,0,0
497,-692,0,0,0,0,0,0,0,0,0,-1,1721,1716,0,0
504,-692,0,0,0,0,0,0,0,0,0,-1,1728,1716,0,0
511,-692,0,0,0,0,0,0,0,0,0,-1,1735,1716,0,0
518,-692,0,0,0,0,0,0,0,0,0,-1,1742,1716,0,0
525,-692,0,0,0,0,0,0,0,0,0,-1,1749,1716,0,0
532,-692,0,0,0,0,0,0,0,0,0,-1,1756,1716,0,0
539,-692,0,0,0,0,0,0,0,0,0,-1,1763,1716,0,0
546,-692,0,0,0,0,0,0,0,0,0,-1,1770,1716,0,0
553,-692,0,0,0,0,0,0,0,0,0,-1,1777,1716,0,0
560,-692,0,0,0,0,0,0,0,0,0,-1,1784,1716,0,0
567,-692,0,0,0,0,0,0,0,0,0,-1,1791,1716,0,0
574,-692,0,0,0,0,0,0,0,0,0,-1,1798,1716,0,0
581,-692,0,0,0,0,0,0,0,0,0,-1,1805,1716,0,0
588,-692,0,0,0,0,0,0,0,0,0,-1,1812,1716,0,0
595,-692,0,0,0,0,0,0,0,0,0,-1,1819,1716,0,0
602,-692,0,0,0,0,0,0,0,0,0,-1,1826,1716,0,0
609,-692,0,0,0,0,0,0,0,0,0,-1,1833,1716,0,0
616,-692,0,0,0,0,0,0,0,0,0,-1,1840,1716,0,0
623,-692,0,0,0,0,0,0,0,0,0,-1,1847,1716,0,0
630,-692,0,0,0,0,0,0,0,0,0,-1,1854,1716,0,0
637,-692,0,0,0,0,0,0,0,0,0,-1,1861,1716,0,0
644,-692,0,0,0,0,0,0,0,0,0,-1,1868,1716,0,0
651,-692,0,0,0,0,0,0,0,0,0,-1,1875,1716,0,0
658,-692,0,0,0,0,0,0,0,0,0,-1,1882,1716,0,0
665,-692,0,0,0,0,0,0,0,0,0,-1,1889,1716,0,0
672,-692,0,0,0,0,0,0,0,0,0,-1,1896,1716,0,0
679,-692,0,0,0,0,0,0,0,0,0,-1,1903,1716,0,0
686,-692,0,0,0,0,0,0,0,0,0,-1,1910,1716,0,0
693,-692,0,0,0,0,0,0,0,0,0,-1,1917,1716,0,0
700,-692,0,0,0,0,0,0,0,0,0,-1,1924,1716,0,0
707,-692,0,0,0,0,0,0,0,0,0,-1,1931,1716,0,0
714,-692,0,0,0,0,0,0,0,0,0,-1,1938,1716,0,0
721,-692,0,0,0,0,0,0,0,0,0,-1,1945,1716,0,0
728,-692,0,0,0,0,0,0,0,0,0,-1,1952,1716,0,0
735,-692,0,0,0,0,0,0,0,0,0,-1,1959,1716,0,0
742,-692,0,0,0,0,0,0,0,0,0,-1,1966,1716,0,0
749,-692,0,0,0,0,0,0,0,0,0,-1,1973,1716,0,0
756,-692,0,0,0,0,0,0,0,0,0,-1,1980,1716,0,0
763,-692,0,0,0,0,0,0,0,0,0,-1,1987,1716,0,0
770,-692,0,0,0,0,0,0,0,0,0,-1,1994,1716,0,0
777,-692,0,0,0,0,0,0,0,0,0,-1,2001,1716,0,0
784,-692,0,0,0,0,0,0,0,0,0,-1,2008,1716,0,0
791,-692,0,0,0,0,0,0,0,0,0,-1,2015,1716,0,0
798,-692,0,0,0,0,0,0,0,0,0,-1,2022,1716,0,0
805,-692,0,0,0,0,0,0,0,0,0,-1,2029,1716,0,0
812,-692,0,0,0,0,0,0,0,0,0,-1,2036,1716,0,0
-700,-699,0,0,0,0,0,0,0,0,0,-1,524,1723,0,0
-693,-699,0,0,0,0,0,0,0,0,0,-1,531,1723,0,0
-686,-699,0,0,0,0,0,0,0,0,0,-1,538,1723,0,0
-679,-699,0,0,0,0,0,0,0,0,0,-1,545,1723,0,0
-672,-699,0,0,0,0,0,0,0,0,0,-1,552,1723,0,0
-665,-699,0,0,0,0,0,0,0,0,0,-1,559,1723,0,0
-658,-699,0,0,0,0,0,0,0,0,0,-1,566,1723,0,0
-651,-699,0,0,0,0,0,0,0,0,0,-1,573,1723,0,0
-644,-699,0,0,0,0,0,0,0,0,0,-1,580,1723,0,0
-637,-699,0,0,0,0,0,0,0,0,0,-1,587,1723,0,0
-630,-699,0,0,0,0,0,0,0,0,0,-1,594,1723,0,0
-623,-699,0,0,0,0,0,0,0,0,0,-1,601,1723,0,0
-616,-699,0,0,0,0,0,0,0,0,0,-1,608,1723,0,0
-609,-699,0,0,0,0,0,0,0,0,0,-1,615,1723,0,0
-602,-699,0,0,0,0,0,0,0,0,0,-1,622,1723,0,0
-595,-699,0,0,0,0,0,0,0,0,0,-1,629,1723,0,0
-588,-699,0,0,0,0,0,0,0,0,0,-1,636,1723,0,0
-581,-699,0,0,0,0,0,0,0,0,0,-1,643,1723,0,0
-574,-699,0,0,0,0,0,0,0,0,0,-1,650,1723,0,0
-567,-699,0,0,0,0,0,0,0,0,0,-1,657,1723,0,0
-560,-699,0,0,0,0,0,0,0,0,0,-1,664,1723,0,0
-553,-699,0,0,0,0,0,0,0,0,0,-1,671,1723,0,0
-546,-699,0,0,0,0,0,0,0,0,0,-1,678,1723,0,0
-539,-699,0,0,0,0,0,0,0,0,0,-1,685,1723,0,0
-532,-699,0,0,0,0,0,0,0,0,0,-1,692,1723,0,0
-525,-699,0,0,0,0,0,0,0,0,0,-1,699,1723,0,0
-518,-699,0,0,0,0,0,0,0,0,0,-1,706,1723,0,0
-511,-699,0,0,0,0,0,0,0,0,0,-1,713,1723,0,0
-504,-699,0,0,0,0,0,0,0,0,0,-1,720,1723,0,0
-497,-699,0,0,0,0,0,0,0,0,0,-1,727,1723,0,0
-490,-699,0,0,0,0,0,0,0,0,0,-1,734,1723,0,0
-483,-699,0,0,0,0,0,0,0,0,0,-1,741,1723,0,0
-476,-699,0,0,0,0,0,0,0,0,0,-1,748,1723,0,0
-469,-699,0,0,0,0,0,0,0,0,0,-1,755,1723,0,0
-462,-699,0,0,0,0,0,0,0,0,0,-1,762,1723,0,0
-455,-699,0,0,0,0,0,0,0,0,0,-1,769,1723,0,0
-448,-699,0,0,0,0,0,0,0,0,0,-1,776,1723,0,0
-441,-699,0,0,0,0,0,0,0,0,0,-1,783,1723,0,0
-434,-699,0,0,0,0,0,0,0,0,0,-1,790,1723,0,0
-427,-699,0,0,0,0,0,0,0,0,0,-1,797,1723,0,0
-420,-699,0,0,0,0,0,0,0,0,0,-1,804,1723,0,0
-413,-699,0,0,0,0,0,0,0,0,0,-1,811,1723,0,0
-406,-699,0,0,0,0,0,0,0,0,0,-1,818,1723,0,0
-399,-699,0,0,0,0,0,0,0,0,0,-1,825,1723,0,0
-392,-699,0,0,0,0,0,0,0,0,0,-1,832,1723,0,0
-385,-699,0,0,0,0,0,0,0,0,0,-1,839,1723,0,0
-378,-699,0,0,0,0,0,0,0,0,0,-1,846,1723,0,0
-371,-699,0,0,0,0,0,0,0,0,0,-1,853,1723,0,0
-364,-699,0,0,0,0,0,0,0,0,0,-1,860,1723,0,0
-357,-699,0,0,0,0,0,0,0,0,0,-1,867,1723,0,0
-350,-699,0,0,0,0,0,0,0,0,0,-1,874,1723,0,0
-343,-699,0,0,0,0,0,0,0,0,0,-1,881,1723,0,0
-336,-699,0,0,0,0,0,0,0,0,0,-1,888,1723,0,0
-329,-699,0,0,0,0,0,0,0,0,0,-1,895,1723,0,0
-322,-699,0,0,0,0,0,0,0,0,0,-1,902,1723,0,0
-315,-699,4.27734,16.1066,0,0,0,0,0,0,0,-1,909,1723,4.27737,-16.1066
-308,-699,4.55981,14.3354,0,0,0,0,0,0,0,-1,916,1723,4.55981,-14.3355
-301,-699,4.72729,12.8752,0,0,0,0,0,0,0,-1,923,1723,4.72732,-12.8752
-294,-699,7.30756,14.6849,0,0,0,0,0,0,0,-1,930,1723,7.30753,-14.6849
-287,-699,6.84338,13.9138,0,0,0,0,0,0,0,-1,937,1723,6.84339,-13.9138
-280,-699,6.41473,13.1276,0,0,0,0,0,0,0,-1,944,1723,6.41475,-13.1276
-273,-699,5.75165,12.9224,0,0,0,0,0,0,0,-1,951,1723,5.75165,-12.9224
-266,-699,5.02136,13.0068,0,0,0,0,0,0,0,-1,958,1723,5.02136,-13.0068
-259,-699,5.67737,10.8545,0,0,0,0,0,0,0,-1,965,1723,5.67736,-10.8545
-252,-699,5.03058,13.7029,0,0,0,0,0,0,0,-1,972,1723,5.03059,-13.7029
-245,-699,5.23596,15.5117,0,0,0,0,0,0,0,-1,979,1723,5.23594,-15.5117
-238,-699,5.21442,15.2201,0,0,0,0,0,0,0,-1,986,1723,5.21444,-15.2201
-231,-699,4.97571,15.5775,-0.0252233,0.0222356,-0.0153258,0.0267544,-0.0297421,-1.28407,0.0326335,0.044457,993,1723,4.97569,-15.5775
-224,-699,4.75256,15.7391,-0.0225457,0.0132417,-0.0135475,0.0177917,-0.0270957,-1.24678,0.0261006,0.0364546,1000,1723,4.75254,-15.7391
-217,-699,4.74792,15.7799,-0.019676,0.00585162,-0.0118242,0.0104869,-0.0243112,-1.19719,0.0206124,0.0250986,1007,1723,4.74794,-15.7799
-210,-699,4.74866,15.9615,-0.0167155,0.000342244,-0.0101126,0.00504238,-0.0214156,-1.13572,0.0162213,0.018137,1014,1723,4.74864,-15.9615
-203,-699,4.74646,16.1256,-0.0137872,-0.00313951,-0.00846465,0.00153632,-0.0184631,-1.06612,0.0128515,0.0211421,1021,1723,4.74644,-16.1256
-196,-699,4.72888,16.2928,-0.0111408,-0.00517517,-0.00694813,-0.000596657,-0.0157193,-0.988151,0.0102864,0.0176027,1028,1723,4.72886,-16.2929
-189,-699,4.70056,16.4811,-0.00853934,-0.00828553,-0.00518367,-0.00322721,-0.0135977,-0.797637,0.00820376,0.00905249,1035,1723,4.70059,-16.481
-182,-699,4.69421,16.6392,-0.00631276,-0.00876661,-0.0039411,-0.00341202,-0.0116674,-0.634495,0.00692691,0.0114192,1042,1723,4.6942,-16.6391
-175,-699,4.69397,16.8097,-0.00463119,-0.00691862,-0.00311359,-0.0024579,-0.00909191,-0.609384,0.00543066,0.0135732,1049,1723,4.69394,-16.8097
-168,-699,4.7063,16.9609,-0.00301931,-0.00519167,-0.00224482,-0.00161169,-0.00659928,-0.560071,0.0039728,0.0146386,1056,1723,4.70633,-16.961
-161,-699,4.70276,17.1047,-0.00185519,-0.00351529,-0.00151625,-0.000956654,-0.00441382,-0.534962,0.00268117,0.0125701,1063,1723,4.70275,-17.1047
-154,-699,4.69775,17.2598,-0.00132581,-0.00198873,-0.00104222,-0.000563609,-0.00275093,-0.631439,0.00167794,0.0127315,1070,1723,4.69773,-17.2598
-147,-699,4.69299,17.3909,-0.000870593,-0.000837419,-0.000644917,-0.000208876,-0.00149914,-0.798255,0.000937586,0.0145477,1077,1723,4.69302,-17.3909
-140,-699,4.66821,17.4932,-0.000520358,-0.000509813,-0.00046732,-4.77353e-05,-0.000982435,-0.791039,0.000639639,0.010566,1084,1723,4.66827,-17.4932
-133,-699,4.67334,17.6412,-7.78722e-05,-0.000182459,-0.000328442,0.000202414,-0.000462745,-0.706453,0.000393712,0.00948651,1091,1723,4.67339,-17.6413
-126,-699,4.6875,17.7681,0.000278191,-8.19364e-05,-0.00025872,0.00041334,-0.000217086,-0.481387,0.000369808,0.0111345,1098,1723,4.68745,-17.768
-119,-699,4.69873,17.8881,0.000630376,0.00010294,-6.48011e-05,0.00063822,9.50955e-05,-0.120474,0.000397591,0.0155207,1105,1723,4.69875,-17.8881
-112,-699,4.67505,18.0173,0.000999949,0.000110494,6.82917e-05,0.00100516,0.000105281,0.0761841,0.000637917,0.0111636,1112,1723,4.67504,-18.0174
-105,-699,4.67065,18.1217,0.00131231,0.000100318,0.000214432,0.00134913,6.34975e-05,0.170051,0.000879016,0.012349,1119,1723,4.67063,-18.1217
-98,-699,4.71594,18.203,0.00156995,0.000202032,0.000435369,0.00169676,7.52219e-05,0.283428,0.00110695,0.0142129,1126,1723,4.71598,-18.203
-91,-699,4.72974,18.2792,0.00186316,0.000433107,0.000661406,0.00212215,0.000174111,0.373231,0.00136045,0.0199357,1133,1723,4.72969,-18.2791
-84,-699,4.70313,18.3976,0.00217625,0.000623155,0.000846304,0.00254829,0.000251113,0.414178,0.00162165,0.0238937,1140,1723,4.70317,-18.3975
-77,-699,4.70483,18.4991,0.0025689,0.000987564,0.000940461,0.0030069,0.000549565,0.435856,0.00184884,0.0160702,1147,1723,4.70486,-18.4991
-70,-699,4.70264,18.5767,0.00282028,0.00104315,0.000942307,0.00322689,0.000636535,0.407372,0.0019736,0.0161549,1154,1723,4.70266,-18.5766
-63,-699,4.71814,18.6893,0.00509228,0.000219766,0.00239622,0.00607321,-0.000761169,0.388556,0.00432492,0.0140806,1161,1723,4.7182,-18.6894
-56,-699,4.71069,18.7634,0.00817969,-0.00157957,0.00410638,0.00967761,-0.0030775,0.34978,0.00768577,0.0106636,1168,1723,4.71073,-18.7634
-49,-699,4.68994,18.9117,0.011071,-0.00430443,0.00544016,0.0128012,-0.00603458,0.307918,0.0111063,0.0223097,1175,1723,4.68998,-18.9117
-42,-699,4.71277,19.0236,0.0130209,-0.00649492,0.00659616,0.0150412,-0.00851521,0.297212,0.0137732,0.0265328,1182,1723,4.71272,-19.0235
-35,-699,4.77087,19.0509,0.0146126,-0.008726,0.00744849,0.0167872,-0.0109006,0.284052,0.0161055,0.0248224,1189,1723,4.77086,-19.0509
-28,-699,4.8175,19.0953,0.015203,-0.010062,0.00804397,0.0175467,-0.0124057,0.283508,0.0173777,0.0190279,1196,1723,4.81752,-19.0953
-21,-699,4.80774,19.1,0.0151936,-0.0115058,0.0084729,0.0176554,-0.0139677,0.282768,0.0182989,0.013406,1203,1723,4.80776,-19.1
-14,-699,4.81482,19.167,0.0148377,-0.0125031,0.00871357,0.0173786,-0.015044,0.283735,0.0187354,0.0123127,1210,1723,4.81488,-19.167
-7,-699,4.81885,19.2341,0.0140358,-0.0125997,0.00886839,0.0167184,-0.0152823,0.293738,0.0184818,0.0092255,1217,1723,4.81887,-19.2341
0,-699,4.83362,19.2734,0.01271,-0.0122486,0.00887464,0.0155438,-0.0150824,0.309085,0.0176828,0.0105124,1224,1723,4.83356,-19.2734
7,-699,4.84863,19.3148,0.0112202,-0.0114304,0.00886692,0.0142784,-0.0144886,0.332123,0.0166088,0.0158502,1231,1723,4.84863,-19.3148
14,-699,4.88818,19.3888,0.00962612,-0.0102819,0.0089197,0.0130379,-0.0136936,0.365326,0.015435,0.0169309,1238,1723,4.88818,-19.3888
21,-699,4.90149,19.4193,0.00811575,-0.00876213,0.00902939,0.0120358,-0.0126822,0.409593,0.0142726,0.0159539,1245,1723,4.90151,-19.4193
28,-699,4.90637,19.4218,0.00677922,-0.00725437,0.00921,0.0113408,-0.011816,0.459872,0.0133705,0.0158024,1252,1723,4.90642,-19.4218
35,-699,4.94922,19.4757,0.00561364,-0.00571608,0.00948487,0.0109966,-0.011099,0.5162,0.0127569,0.0134876,1259,1723,4.94923,-19.4757
42,-699,4.97742,19.4933,0.00381205,-0.00422762,0.00945238,0.0100639,-0.0104794,0.584348,0.0118615,0.0116851,1266,1723,4.97741,-19.4933
49,-699,5.00085,19.5072,0.00240862,-0.00300874,0.00905061,0.00914719,-0.00974731,0.64,0.0109106,0.0136622,1273,1723,5.00084,-19.5072
56,-699,5.02905,19.5543,0.00147781,-0.00204712,0.00902732,0.00891311,-0.00948242,0.688992,0.0106224,0.0142366,1280,1723,5.02906,-19.5544
63,-699,5.05115,19.5497,0.00226166,-0.00142609,0.00951784,0.0101126,-0.00927702,0.689719,0.0111981,0.0133541,1287,1723,5.05116,-19.5496
70,-699,5.05481,19.5393,0.00398842,-0.00186364,0.00965789,0.0111538,-0.00902903,0.638309,0.0116741,0.0117797,1294,1723,5.05479,-19.5394
77,-699,5.05359,19.5464,0.00666536,-0.00294923,0.00976364,0.012741,-0.00902489,0.556637,0.0126275,0.0111105,1301,1723,5.05363,-19.5464
84,-699,5.04712,19.5459,0.0102891,-0.00446015,0.00970794,0.0151058,-0.00927688,0.460574,0.0142108,0.0131374,1308,1723,5.04706,-19.5459
91,-699,5.08093,19.5521,0.013597,-0.00600851,0.00964153,0.0175439,-0.00995542,0.388554,0.016077,0.0126753,1315,1723,5.0809,-19.5521
98,-699,5.12024,19.5546,0.0174219,-0.00762912,0.00967531,0.0207236,-0.0109308,0.328857,0.0185649,0.010886,1322,1723,5.1202,-19.5546
105,-699,5.12805,19.5393,0.021803,-0.0092008,0.00963789,0.0245548,-0.0119526,0.278119,0.0214921,0.0144426,1329,1723,5.12806,-19.5393
112,-699,5.14417,19.4949,0.0262496,-0.0107424,0.00963514,0.0286088,-0.0131015,0.240126,0.02463,0.0208613,1336,1723,5.14413,-19.4949
119,-699,5.14832,19.4672,0.0305883,-0.0121183,0.0096121,0.032652,-0.014182,0.211488,0.0277317,0.0159805,1343,1723,5.14826,-19.4671
126,-699,5.18408,19.4653,0.0340872,-0.0131722,0.009566,0.0359501,-0.0150351,0.192331,0.0302506,0.0167833,1350,1723,5.18413,-19.4653
133,-699,5.21021,19.4478,0.0365638,-0.0136158,0.00949293,0.0382996,-0.0153517,0.180856,0.0319061,0.0143003,1357,1723,5.21026,-19.4478
140,-699,5.24084,19.413,0.0376762,-0.0135089,0.00920787,0.0392822,-0.0151149,0.172684,0.0324229,0.016033,1364,1723,5.24084,-19.413
147,-699,5.23816,19.392,0.0374849,-0.0128635,0.00879123,0.0389758,-0.0143544,0.167988,0.0318652,0.0140197,1371,1723,5.2382,-19.3919
154,-699,5.22803,19.3539,0.0352211,-0.0116361,0.00848008,0.0367086,-0.0131236,0.173642,0.0298254,0.0132726,1378,1723,5.22801,-19.3539
161,-699,5.24768,19.2939,0.0321812,-0.0101376,0.00734214,0.0334188,-0.0113752,0.166996,0.0268854,0.00956047,1385,1723,5.24774,-19.2939
168,-699,5.26489,19.2517,0.0253785,-0.00904526,0.00465696,0.0259974,-0.00966414,0.13212,0.0212969,0.0108442,1392,1723,5.26487,-19.2517
175,-699,5.28125,19.1998,0.0173798,-0.00614593,0.00341214,0.0178647,-0.00663083,0.141164,0.0146299,0.0130684,1399,1723,5.28122,-19.1998
182,-699,5.30762,19.1415,0.00999672,-0.00317598,0.00223679,0.0103662,-0.00354544,0.163695,0.00834746,0.0135179,1406,1723,5.30761,-19.1414
189,-699,5.29236,19.0758,0.0022983,-2.32096e-05,0.00150514,0.00303828,-0.000763188,0.456933,0.00232211,0.0155419,1413,1723,5.29236,-19.0758
196,-699,5.31409,19.0054,0.00153058,-1.63241e-05,0.00123087,0.00221084,-0.000696582,0.504886,0.00175285,0.0153109,1420,1723,5.31415,-19.0054
203,-699,5.32495,18.9421,0.000990537,-0.000197902,0.00098566,0.00154724,-0.000754605,0.514137,0.00135498,0.0126392,1427,1723,5.32492,-18.9422
210,-699,5.33606,18.855,0.000603282,-0.000342002,0.000822988,0.00107969,-0.000818412,0.524744,0.00109933,0.0124493,1434,1723,5.33609,-18.855
217,-699,5.34668,18.7723,0.000281428,-0.000506084,0.000559222,0.000571611,-0.000796267,0.478657,0.000793287,0.0134487,1441,1723,5.3467,-18.7724
224,-699,5.33362,18.6981,0.000269858,-0.000603639,0.000474814,0.000478244,-0.000812024,0.413566,0.000753199,0.0152229,1448,1723,5.33364,-18.6981
231,-699,5.36145,18.6052,0.000266414,-0.000588668,0.000364422,0.000400651,-0.000722905,0.352933,0.000657519,0.0116331,1455,1723,5.36146,-18.6052
238,-699,5.3512,18.4958,0.000345018,-0.00044364,0.000222852,0.000403633,-0.000502256,0.257198,0.000524047,0.0102253,1462,1723,5.35122,-18.4959
245,-699,5.3407,18.3871,0.000450212,-0.000300762,0.00010701,0.000465162,-0.000315713,0.138815,0.000453583,0.0123214,1469,1723,5.34065,-18.3871
252,-699,5.34778,18.2947,0.000536097,-9.01493e-05,-2.79818e-05,0.000537345,-9.1397e-05,-0.0445635,0.000392261,0.0107949,1476,1723,5.34772,-18.2947
259,-699,5.36401,18.2126,0.000644403,0.000180381,-0.000127266,0.000677015,0.000147768,-0.250858,0.000411039,0.010506,1483,1723,5.36405,-18.2126
266,-699,5.3606,18.1229,0.000770384,0.000502196,-0.000285985,0.000952152,0.000320428,-0.566175,0.000559433,0.012106,1490,1723,5.36062,-18.1229
273,-699,5.35962,18.0087,0.000929457,0.00133124,-0.000666257,0.00182623,0.000434464,-0.931825,0.00110161,0.0114385,1497,1723,5.35965,-18.0087
280,-699,5.36963,17.8842,0.000919866,0.0020727,-0.000938224,0.00259743,0.000395137,-1.06086,0.00161609,0.0115311,1504,1723,5.36958,-17.8842
287,-699,5.36243,17.7385,0.00082018,0.00266552,-0.00109247,0.00317282,0.00031288,-1.13607,0.00201902,0.0101219,1511,1723,5.36237,-17.7386
294,-699,5.35999,17.6255,0.000826977,0.00337858,-0.0014182,0.00401039,0.000195173,-1.15169,0.00261097,0.0105368,1518,1723,5.35997,-17.6255
301,-699,5.35815,17.5121,0.00066967,0.00393275,-0.00169039,0.00465054,-4.81168e-05,-1.16924,0.00311652,0.011393,1525,1723,5.35818,-17.512
308,-699,5.3584,17.3833,0.000304578,0.00420936,-0.0019466,0.00501398,-0.000500038,-1.17884,0.00352119,0.0154015,1532,1723,5.35835,-17.3833
315,-699,5.38745,17.2366,-0.000186609,0.00450768,-0.00199303,0.0052397,-0.000918629,-1.2188,0.00383618,0.0184445,1539,1723,5.38742,-17.2366
322,-699,5.35864,17.0961,-0.00099054,0.0048494,-0.00204453,0.00549402,-0.00163516,-1.26537,0.00431234,0.019199,1546,1723,5.3586,-17.0961
329,-699,5.31384,16.9407,-0.00241906,0.0033215,-0.00189986,0.00389331,-0.00299087,-1.27845,0.00398595,0.0149496,1553,1723,5.3139,-16.9406
336,-699,5.30786,16.7842,-0.00405918,-0.000528832,-0.00169854,0.000155662,-0.00474368,-1.18772,0.00321559,0.0130082,1560,1723,5.3078,-16.7842
343,-699,5.33374,16.6302,-0.0056608,-0.00360519,-0.00149236,-0.00282094,-0.00644504,-1.08695,0.00373067,0.0174623,1567,1723,5.3337,-16.6303
350,-699,5.3324,16.505,-0.00693801,-0.00376796,0.00224338,-0.00260616,-0.00809981,1.09295,0.00477445,0.0271194,1574,1723,5.33239,-16.505
357,-699,5.18604,16.4401,-0.00852875,-0.00602138,0.00447008,-0.00263251,-0.0119176,0.922117,0.00722916,0.0365796,1581,1723,5.18602,-16.4401
364,-699,5.01062,16.2534,-0.00994165,-0.00769375,0.00734011,-0.00139203,-0.0162434,0.86137,0.010396,0.0399928,1588,1723,5.01057,-16.2534
371,-699,4.92493,16.0181,0,0,0,0,0,0,0,-1,1595,1723,4.92498,-16.0181
378,-699,5.17517,15.731,0,0,0,0,0,0,0,-1,1602,1723,5.17513,-15.731
385,-699,5.37671,17.0181,0,0,0,0,0,0,0,-1,1609,1723,5.37677,-17.018
392,-699,5.21069,16.861,0,0,0,0,0,0,0,-1,1616,1723,5.21066,-16.8609
399,-699,3.91516,9.81726,0,0,0,0,0,0,0,-1,1623,1723,3.9152,-9.81721
406,-699,5.50757,21.6672,0,0,0,0,0,0,0,-1,1630,1723,5.50755,-21.6672
413,-699,9.31396,23.2781,0,0,0,0,0,0,0,-1,1637,1723,9.31396,-23.278
420,-699,2.15076,7.65527,0,0,0,0,0,0,0,-1,1644,1723,2.15079,-7.65522
427,-699,3.36328,8.2428,0,0,0,0,0,0,0,-1,1651,1723,3.36332,-8.24283
434,-699,4.66455,8.90222,0,0,0,0,0,0,0,-1,1658,1723,4.66456,-8.90223
441,-699,0,0,0,0,0,0,0,0,0,-1,1665,1723,0,0
448,-699,0,0,0,0,0,0,0,0,0,-1,1672,1723,0,0
455,-699,0,0,0,0,0,0,0,0,0,-1,1679,1723,0,0
462,-699,0,0,0,0,0,0,0,0,0,-1,1686,1723,0,0
469,-699,0,0,0,0,0,0,0,0,0,-1,1693,1723,0,0
476,-699,0,0,0,0,0,0,0,0,0,-1,1700,1723,0,0
483,-699,0,0,0,0,0,0,0,0,0,-1,1707,1723,0,0
490,-699,0,0,0,0,0,0,0,0,0,-1,1714,1723,0,0
497,-699,0,0,0,0,0,0,0,0,0,-1,1721,1723,0,0
504,-699,0,0,0,0,0,0,0,0,0,-1,1728,1723,0,0
511,-699,0,0,0,0,0,0,0,0,0,-1,1735,1723,0,0
518,-699,0,0,0,0,0,0,0,0,0,-1,1742,1723,0,0
525,-699,0,0,0,0,0,0,0,0,0,-1,1749,1723,0,0
532,-699,0,0,0,0,0,0,0,0,0,-1,1756,1723,0,0
539,-699,0,0,0,0,0,0,0,0,0,-1,1763,1723,0,0
546,-699,0,0,0,0,0,0,0,0,0,-1,1770,1723,0,0
553,-699,0,0,0,0,0,0,0,0,0,-1,1777,1723,0,0
560,-699,0,0,0,0,0,0,0,0,0,-1,1784,1723,0,0
567,-699,0,0,0,0,0,0,0,0,0,-1,1791,1723,0,0
574,-699,0,0,0,0,0,0,0,0,0,-1,1798,1723,0,0
581,-699,0,0,0,0,0,0,0,0,0,-1,1805,1723,0,0
588,-699,0,0,0,0,0,0,0,0,0,-1,1812,1723,0,0
595,-699,0,0,0,0,0,0,0,0,0,-1,1819,1723,0,0
602,-699,0,0,0,0,0,0,0,0,0,-1,1826,1723,0,0
609,-699,0,0,0,0,0,0,0,0,0,-1,1833,1723,0,0
616,-699,0,0,0,0,0,0,0,0,0,-1,1840,1723,0,0
623,-699,0,0,0,0,0,0,0,0,0,-1,1847,1723,0,0
630,-699,0,0,0,0,0,0,0,0,0,-1,1854,1723,0,0
637,-699,0,0,0,0,0,0,0,0,0,-1,1861,1723,0,0
644,-699,0,0,0,0,0,0,0,0,0,-1,1868,1723,0,0
651,-699,0,0,0,0,0,0,0,0,0,-1,1875,1723,0,0
658,-699,0,0,0,0,0,0,0,0,0,-1,1882,1723,0,0
665,-699,0,0,0,0,0,0,0,0,0,-1,1889,1723,0,0
672,-699,0,0,0,0,0,0,0,0,0,-1,1896,1723,0,0
679,-699,0,0,0,0,0,0,0,0,0,-1,1903,1723,0,0
686,-699,0,0,0,0,0,0,0,0,0,-1,1910,1723,0,0
693,-699,0,0,0,0,0,0,0,0,0,-1,1917,1723,0,0
700,-699,0,0,0,0,0,0,0,0,0,-1,1924,1723,0,0
707,-699,0,0,0,0,0,0,0,0,0,-1,1931,1723,0,0
714,-699,0,0,0,0,0,0,0,0,0,-1,1938,1723,0,0
721,-699,0,0,0,0,0,0,0,0,0,-1,1945,1723,0,0
728,-699,0,0,0,0,0,0,0,0,0,-1,1952,1723,0,0
735,-699,0,0,0,0,0,0,0,0,0,-1,1959,1723,0,0
742,-699,0,0,0,0,0,0,0,0,0,-1,1966,1723,0,0
749,-699,0,0,0,0,0,0,0,0,0,-1,1973,1723,0,0
756,-699,0,0,0,0,0,0,0,0,0,-1,1980,1723,0,0
763,-699,0,0,0,0,0,0,0,0,0,-1,1987,1723,0,0
770,-699,0,0,0,0,0,0,0,0,0,-1,1994,1723,0,0
777,-699,0,0,0,0,0,0,0,0,0,-1,2001,1723,0,0
784,-699,0,0,0,0,0,0,0,0,0,-1,2008,1723,0,0
791,-699,0,0,0,0,0,0,0,0,0,-1,2015,1723,0,0
798,-699,0,0,0,0,0,0,0,0,0,-1,2022,1723,0,0
805,-699,0,0,0,0,0,0,0,0,0,-1,2029,1723,0,0
812,-699,0,0,0,0,0,0,0,0,0,-1,2036,1723,0,0
-700,-706,0,0,0,0,0,0,0,0,0,-1,524,1730,0,0
-693,-706,0,0,0,0,0,0,0,0,0,-1,531,1730,0,0
-686,-706,0,0,0,0,0,0,0,0,0,-1,538,1730,0,0
-679,-706,0,0,0,0,0,0,0,0,0,-1,545,1730,0,0
-672,-706,0,0,0,0,0,0,0,0,0,-1,552,1730,0,0
-665,-706,0,0,0,0,0,0,0,0,0,-1,559,1730,0,0
-658,-706,0,0,0,0,0,0,0,0,0,-1,566,1730,0,0
-651,-706,0,0,0,0,0,0,0,0,0,-1,573,1730,0,0
-644,-706,0,0,0,0,0,0,0,0,0,-1,580,1730,0,0
-637,-706,0,0,0,0,0,0,0,0,0,-1,587,1730,0,0
-630,-706,0,0,0,0,0,0,0,0,0,-1,594,1730,0,0
-623,-706,0,0,0,0,0,0,0,0,0,-1,601,1730,0,0
-616,-706,0,0,0,0,0,0,0,0,0,-1,608,1730,0,0
-609,-706,0,0,0,0,0,0,0,0,0,-1,615,1730,0,0
-602,-706,0,0,0,0,0,0,0,0,0,-1,622,1730,0,0
-595,-706,0,0,0,0,0,0,0,0,0,-1,629,1730,0,0
-588,-706,0,0,0,0,0,0,0,0,0,-1,636,1730,0,0
-581,-706,0,0,0,0,0,0,0,0,0,-1,643,1730,0,0
-574,-706,0,0,0,0,0,0,0,0,0,-1,650,1730,0,0
-567,-706,0,0,0,0,0,0,0,0,0,-1,657,1730,0,0
-560,-706,0,0,0,0,0,0,0,0,0,-1,664,1730,0,0
-553,-706,0,0,0,0,0,0,0,0,0,-1,671,1730,0,0
-546,-706,0,0,0,0,0,0,0,0,0,-1,678,1730,0,0
-539,-706,0,0,0,0,0,0,0,0,0,-1,685,1730,0,0
-532,-706,0,0,0,0,0,0,0,0,0,-1,692,1730,0,0
-525,-706,0,0,0,0,0,0,0,0,0,-1,699,1730,0,0
-518,-706,0,0,0,0,0,0,0,0,0,-1,706,1730,0,0
-511,-706,0,0,0,0,0,0,0,0,0,-1,713,1730,0,0
-504,-706,0,0,0,0,0,0,0,0,0,-1,720,1730,0,0
-497,-706,0,0,0,0,0,0,0,0,0,-1,727,1730,0,0
-490,-706,0,0,0,0,0,0,0,0,0,-1,734,1730,0,0
-483,-706,0,0,0,0,0,0,0,0,0,-1,741,1730,0,0
-476,-706,0,0,0,0,0,0,0,0,0,-1,748,1730,0,0
-469,-706,0,0,0,0,0,0,0,0,0,-1,755,1730,0,0
-462,-706,0,0,0,0,0,0,0,0,0,-1,762,1730,0,0
-455,-706,0,0,0,0,0,0,0,0,0,-1,769,1730,0,0
-448,-706,0,0,0,0,0,0,0,0,0,-1,776,1730,0,0
-441,-706,0,0,0,0,0,0,0,0,0,-1,783,1730,0,0
-434,-706,0,0,0,0,0,0,0,0,0,-1,790,1730,0,0
-427,-706,0,0,0,0,0,0,0,0,0,-1,797,1730,0,0
-420,-706,0,0,0,0,0,0,0,0,0,-1,804,1730,0,0
-413,-706,0,0,0,0,0,0,0,0,0,-1,811,1730,0,0
-406,-706,0,0,0,0,0,0,0,0,0,-1,818,1730,0,0
-399,-706,0,0,0,0,0,0,0,0,0,-1,825,1730,0,0
-392,-706,0,0,0,0,0,0,0,0,0,-1,832,1730,0,0
-385,-706,0,0,0,0,0,0,0,0,0,-1,839,1730,0,0
-378,-706,0,0,0,0,0,0,0,0,0,-1,846,1730,0,0
-371,-706,0,0,0,0,0,0,0,0,0,-1,853,1730,0,0
-364,-706,0,0,0,0,0,0,0,0,0,-1,860,1730,0,0
-357,-706,0,0,0,0,0,0,0,0,0,-1,867,1730,0,0
-350,-706,0,0,0,0,0,0,0,0,0,-1,874,1730,0,0
-343,-706,0,0,0,0,0,0,0,0,0,-1,881,1730,0,0
-336,-706,0,0,0,0,0,0,0,0,0,-1,888,1730,0,0
-329,-706,0,0,0,0,0,0,0,0,0,-1,895,1730,0,0
-322,-706,0,0,0,0,0,0,0,0,0,-1,902,1730,0,0
-315,-706,0,0,0,0,0,0,0,0,0,-1,909,1730,0,0
-308,-706,5.08191,14.6245,0,0,0,0,0,0,0,-1,916,1730,5.08188,-14.6245
-301,-706,5.28516,13.4028,0,0,0,0,0,0,0,-1,923,1730,5.28516,-13.4029
-294,-706,7.02759,15.9609,0,0,0,0,0,0,0,-1,930,1730,7.02759,-15.961
-287,-706,7.98651,13.4701,0,0,0,0,0,0,0,-1,937,1730,7.98652,-13.4701
-280,-706,7.68011,12.5066,0,0,0,0,0,0,0,-1,944,1730,7.68009,-12.5065
-273,-706,7.03235,12.5133,0,0,0,0,0,0,0,-1,951,1730,7.03232,-12.5132
-266,-706,5.60547,12.5319,0,0,0,0,0,0,0,-1,958,1730,5.60548,-12.5319
-259,-706,3.3598,9.72961,0,0,0,0,0,0,0,-1,965,1730,3.35979,-9.72962
-252,-706,3.05963,10.0499,0,0,0,0,0,0,0,-1,972,1730,3.05962,-10.05
-245,-706,3.87848,20.3833,0,0,0,0,0,0,0,-1,979,1730,3.87848,-20.3833
-238,-706,5.35669,15.6281,0,0,0,0,0,0,0,-1,986,1730,5.35666,-15.6281
-231,-706,5.33563,15.7627,-0.0346054,0.032919,-0.0209727,0.0389027,-0.0405892,-1.29287,0.0458981,0.0444263,993,1730,5.33564,-15.7627
-224,-706,4.96423,16.1023,-0.0310444,0.0203702,-0.018657,0.0264268,-0.0371011,-1.2569,0.03685,0.0458514,1000,1730,4.96425,-16.1023
-217,-706,4.28992,16.3511,-0.0272566,0.0100638,-0.0164288,0.0162655,-0.0334582,-1.20985,0.0292744,0.0413392,1007,1730,4.2899,-16.351
-210,-706,4.77289,16.2567,-0.0233952,0.00230561,-0.014211,0.00861472,-0.0297043,-1.15298,0.0232135,0.0420856,1014,1730,4.77287,-16.2567
-203,-706,4.91113,16.3029,-0.0195417,-0.00271229,-0.0120535,0.00357314,-0.0258272,-1.09013,0.0185244,0.0320532,1021,1730,4.91113,-16.3028
-196,-706,4.90259,16.3412,-0.0160084,-0.00571473,-0.00999902,0.000384346,-0.0221074,-1.02308,0.0148681,0.024773,1028,1730,4.90259,-16.3412
-189,-706,4.85437,16.4835,-0.0125012,-0.0102678,-0.0076296,-0.00367365,-0.0190954,-0.858064,0.0116996,0.019363,1035,1730,4.85441,-16.4835
-182,-706,4.84937,16.6451,-0.00946622,-0.0112778,-0.00588045,-0.00442219,-0.0163218,-0.708983,0.00974745,0.0135159,1042,1730,4.84935,-16.6452
-175,-706,4.8385,16.7946,-0.00713002,-0.00870785,-0.00467927,-0.00317362,-0.0126642,-0.701884,0.00760887,0.013703,1049,1730,4.83848,-16.7945
-168,-706,4.854,16.944,-0.0047847,-0.00638365,-0.00341898,-0.00207297,-0.00909539,-0.670545,0.0055043,0.0149685,1056,1730,4.85401,-16.944
-161,-706,4.83069,17.1047,-0.00303119,-0.00413267,-0.0023862,-0.001133,-0.00603086,-0.671984,0.00370117,0.0130823,1063,1730,4.83071,-17.1047
-154,-706,4.82312,17.2695,-0.00229673,-0.00195634,-0.00178344,-0.000334998,-0.00391808,-0.83297,0.00250786,0.0122586,1070,1730,4.82315,-17.2695
-147,-706,4.81934,17.3721,-0.00173922,-0.000290433,-0.00129393,0.000468079,-0.00249773,-1.04058,0.00184112,0.0116601,1077,1730,4.81939,-17.3721
-140,-706,4.82031,17.5043,-0.0013299,0.000234341,-0.00109398,0.000797026,-0.00189259,-1.09574,0.00159521,0.0108102,1084,1730,4.8203,-17.5043
-133,-706,4.8053,17.6335,-0.000793973,0.000798059,-0.000923377,0.00122117,-0.00121708,-1.14113,0.00140773,0.00857413,1091,1730,4.80528,-17.6335
-126,-706,4.79626,17.7406,-0.000422744,0.000956151,-0.000858132,0.00136749,-0.000834082,-1.12381,0.00128345,0.012853,1098,1730,4.79631,-17.7405
-119,-706,4.80835,17.8684,-0.000115234,0.00108415,-0.000670308,0.00138387,-0.000414955,-1.15032,0.00108761,0.0173646,1105,1730,4.80834,-17.8684
-112,-706,4.80676,18.0103,0.000252173,0.00101154,-0.000500611,0.00126017,3.54904e-06,-1.10984,0.000838931,0.0125369,1112,1730,4.80678,-18.0103
-105,-706,4.79956,18.1343,0.000547149,0.000872275,-0.000327749,0.00107556,0.000343862,-1.01562,0.000634291,0.00932489,1119,1730,4.79959,-18.1343
-98,-706,4.82019,18.2169,0.00074963,0.000781357,-7.52832e-05,0.00084243,0.000688557,-0.889239,0.000518004,0.0109116,1126,1730,4.8202,-18.217
-91,-706,4.82483,18.3142,0.00101737,0.000845092,0.000189222,0.00113914,0.000723325,0.571801,0.000665621,0.0142819,1133,1730,4.82484,-18.3142
-84,-706,4.79102,18.4281,0.00125611,0.000959734,0.000442491,0.00157456,0.000641275,0.623823,0.000914272,0.0164935,1140,1730,4.79103,-18.4281
-77,-706,4.80115,18.5061,0.00151949,0.00111051,0.000567242,0.00191798,0.000712027,0.6124,0.00111952,0.0152531,1147,1730,4.80119,-18.5061
-70,-706,4.79443,18.598,0.0017195,0.00107169,0.000594463,0.00207258,0.000718619,0.535949,0.0012152,0.0172207,1154,1730,4.79442,-18.598
-63,-706,4.79578,18.7056,0.00256847,0.000555675,0.00122509,0.00314754,-2.33888e-05,0.441545,0.0021062,0.0134093,1161,1730,4.7958,-18.7055
-56,-706,4.79785,18.7815,0.00395112,-0.00027725,0.00208735,0.00480793,-0.00113406,0.389506,0.00364263,0.0128892,1168,1730,4.79788,-18.7815
-49,-706,4.77344,18.879,0.00546785,-0.00170416,0.0028909,0.00648801,-0.00272432,0.339243,0.0054647,0.0129049,1175,1730,4.77341,-18.879
-42,-706,4.78748,18.9838,0.00666954,-0.00313064,0.00366792,0.00789028,-0.00435138,0.321283,0.00716549,0.0179241,1182,1730,4.78752,-18.9837
-35,-706,4.81677,19.0206,0.00779281,-0.00417005,0.00446965,0.00927833,-0.00565557,0.320871,0.00870625,0.0174807,1189,1730,4.81682,-19.0206
-28,-706,4.84302,19.0596,0.00834364,-0.005096,0.00504298,0.0100255,-0.00677782,0.321899,0.00976159,0.0105661,1196,1730,4.84307,-19.0596
-21,-706,4.84436,19.1144,0.0085,-0.00612595,0.00551465,0.0103462,-0.00797217,0.323057,0.0106057,0.0107612,1203,1730,4.84442,-19.1144
-14,-706,4.8656,19.1699,0.00851979,-0.00691935,0.00591921,0.010528,-0.00892752,0.327077,0.0112453,0.0104538,1210,1730,4.86561,-19.1699
-7,-706,4.88,19.2312,0.00830197,-0.00710154,0.00630732,0.0105551,-0.00935465,0.343094,0.0115019,0.00871343,1217,1730,4.88001,-19.2312
0,-706,4.88733,19.2858,0.0077459,-0.00697003,0.00658709,0.0102636,-0.00948776,0.365087,0.0114064,0.0126407,1224,1730,4.88737,-19.2857
7,-706,4.90759,19.3311,0.0070507,-0.00650802,0.00682315,0.00988982,-0.00934714,0.394309,0.0111079,0.0144778,1231,1730,4.90764,-19.331
14,-706,4.91101,19.3809,0.00621051,-0.00580598,0.00706274,0.00947488,-0.00907035,0.432949,0.0107079,0.0141249,1238,1730,4.91101,-19.3809
21,-706,4.91956,19.4069,0.005369,-0.00483968,0.00729303,0.0091665,-0.00863717,0.480071,0.0102805,0.0114904,1245,1730,4.91951,-19.4069
28,-706,4.94214,19.4406,0.0045941,-0.00388173,0.00752791,0.00899501,-0.00828265,0.529028,0.00997809,0.0123121,1252,1730,4.94208,-19.4406
35,-706,4.95532,19.4995,0.00389585,-0.00288332,0.00778899,0.00900083,-0.0079883,0.580169,0.00981448,0.0143574,1259,1730,4.95533,-19.4995
42,-706,4.97131,19.538,0.00274607,-0.00187917,0.00779138,0.0085608,-0.00769389,0.641131,0.0093891,0.0116532,1266,1730,4.97136,-19.538
49,-706,4.99377,19.5415,0.00165375,-0.00117385,0.00744795,0.0078209,-0.007341,0.691602,0.00875519,0.0133952,1273,1730,4.99378,-19.5415
56,-706,5.02051,19.5446,0.000836017,-0.000691909,0.0073236,0.00743539,-0.00729128,0.733429,0.00850259,0.0126048,1280,1730,5.02052,-19.5446
63,-706,5.03809,19.5493,0.00106454,-0.000580691,0.00726786,0.00755619,-0.00707234,0.729045,0.00844732,0.0118365,1287,1730,5.03811,-19.5494
70,-706,5.03455,19.5425,0.00183136,-0.00130519,0.00696273,0.00740026,-0.00687408,0.674628,0.00824316,0.0132685,1294,1730,5.03457,-19.5425
77,-706,5.03357,19.5624,0.00322469,-0.00223512,0.00671462,0.00774313,-0.00675356,0.592323,0.00837617,0.0111203,1301,1730,5.03359,-19.5624
84,-706,5.03772,19.5743,0.00525432,-0.00349218,0.00636352,0.00860245,-0.00684031,0.484344,0.00893521,0.00939109,1308,1730,5.03766,-19.5743
91,-706,5.06738,19.5819,0.00706111,-0.00479643,0.0059498,0.00953177,-0.00726709,0.393585,0.00972816,0.0108719,1315,1730,5.06735,-19.5819
98,-706,5.07776,19.5852,0.00922031,-0.00613867,0.00562072,0.0110575,-0.00797585,0.315912,0.0110368,0.0139821,1322,1730,5.07777,-19.5852
105,-706,5.07666,19.5839,0.0117549,-0.0073833,0.00527195,0.013111,-0.00873945,0.251781,0.0126993,0.0153329,1329,1730,5.07665,-19.5839
112,-706,5.08264,19.5524,0.0143447,-0.00853822,0.00500897,0.0153931,-0.00958662,0.206327,0.0145514,0.0149771,1336,1730,5.08261,-19.5523
119,-706,5.1106,19.531,0.0168695,-0.00948184,0.004777,0.0177088,-0.0103211,0.173911,0.0163693,0.0129184,1343,1730,5.11059,-19.531
126,-706,5.14063,19.4979,0.018903,-0.0100821,0.0046154,0.0196202,-0.0107992,0.154156,0.0178071,0.0140916,1350,1730,5.14057,-19.4979
133,-706,5.16418,19.4684,0.0201961,-0.0101555,0.00448893,0.0208461,-0.0108055,0.143797,0.018578,0.0117845,1357,1730,5.16415,-19.4684
140,-706,5.17883,19.4298,0.0205759,-0.00975705,0.00427491,0.0211668,-0.010348,0.137369,0.018549,0.0117654,1364,1730,5.17881,-19.4298
147,-706,5.22351,19.3745,0.0202096,-0.0089586,0.00406006,0.0207642,-0.0095132,0.135758,0.0178784,0.0204115,1371,1730,5.22353,-19.3745
154,-706,5.23169,19.3513,0.0186792,-0.00766168,0.00402782,0.0192813,-0.00826382,0.148395,0.0163217,0.0198119,1378,1730,5.23165,-19.3513
161,-706,5.19995,19.3047,0.0165507,-0.00621722,0.0034498,0.017062,-0.00672845,0.147122,0.0141607,0.0106099,1385,1730,5.1999,-19.3047
168,-706,5.20911,19.2439,0.0125931,-0.00476002,0.00252405,0.0129527,-0.00511969,0.141546,0.0107559,0.0104356,1392,1730,5.20908,-19.244
175,-706,5.23633,19.2018,0.00848811,-0.0029276,0.00195977,0.00881518,-0.00325467,0.165367,0.00721082,0.0102359,1399,1730,5.23637,-19.2017
182,-706,5.23645,19.14,0.00490228,-0.00132879,0.00128196,0.00515572,-0.00158222,0.195179,0.00406844,0.010681,1406,1730,5.23644,-19.14
189,-706,5.22192,19.0625,0.00145652,0.000230789,0.000835812,0.00188008,-0.000192775,0.469048,0.00132234,0.0134353,1413,1730,5.22197,-19.0625
196,-706,5.23474,18.9911,0.000944058,0.000318517,0.000606728,0.00131389,-5.13134e-05,0.547411,0.000893522,0.0112332,1420,1730,5.23479,-18.9911
203,-706,5.23669,18.9299,0.000613501,0.00035063,0.000386681,0.000890475,7.36568e-05,0.621571,0.000570684,0.0118486,1427,1730,5.23668,-18.93
210,-706,5.23303,18.8364,0.000381741,0.000350803,0.000209386,0.000576228,0.000156316,0.748525,0.000344093,0.0115671,1434,1730,5.23298,-18.8364
217,-706,5.22729,18.7531,0.000178943,0.000364288,-2.90655e-05,0.000368739,0.000174491,-1.41884,0.000212994,0.0130553,1441,1730,5.22734,-18.7531
224,-706,5.20984,18.6903,0.000205212,0.000406609,-0.000175134,0.00050793,0.000103891,-1.04631,0.000309851,0.0180734,1448,1730,5.20978,-18.6903
231,-706,5.25293,18.6021,0.000238388,0.000525246,-0.000322408,0.00073469,2.89445e-05,-0.994687,0.000480436,0.0136529,1455,1730,5.25296,-18.6021
238,-706,5.25037,18.5074,0.000353091,0.000695017,-0.000457448,0.0010124,3.57027e-05,-0.964228,0.000663356,0.009299,1462,1730,5.2504,-18.5074
245,-706,5.24451,18.4015,0.000488973,0.000898718,-0.000574014,0.00130332,8.43669e-05,-0.956808,0.00084217,0.0118565,1469,1730,5.24446,-18.4014
252,-706,5.2583,18.3097,0.000592184,0.00113709,-0.000699476,0.0016153,0.000113974,-0.971115,0.00104096,0.0114079,1476,1730,5.25833,-18.3097
259,-706,5.26978,18.2043,0.000722407,0.00146104,-0.000780317,0.00195503,0.000228422,-1.00642,0.00123428,0.0119337,1483,1730,5.26972,-18.2043
266,-706,5.25952,18.115,0.000906817,0.00183064,-0.000954582,0.0024292,0.000308263,-1.01074,0.00152712,0.0119687,1490,1730,5.25949,-18.115
273,-706,5.24683,18.0134,0.00115657,0.00303119,-0.00151436,0.00387484,0.000312912,-1.06252,0.0024855,0.0120426,1497,1730,5.24686,-18.0134
280,-706,5.23962,17.8831,0.00115445,0.00391638,-0.00182626,0.00482502,0.000245809,-1.10912,0.00313795,0.00987549,1504,1730,5.23967,-17.8831
287,-706,5.21838,17.735,0.00104193,0.00456989,-0.00195407,0.0054384,0.000173419,-1.15256,0.0035692,0.010266,1511,1730,5.21838,-17.7349
294,-706,5.24377,17.6251,0.00108934,0.00543072,-0.00234137,0.00645282,6.72406e-05,-1.15919,0.00427964,0.0105852,1518,1730,5.24372,-17.6252
301,-706,5.25073,17.5007,0.000918028,0.00611019,-0.00266419,0.00723399,-0.000205776,-1.17162,0.0048927,0.00960601,1525,1730,5.25071,-17.5008
308,-706,5.25549,17.3597,0.000488625,0.0064275,-0.00297044,0.00765819,-0.000742064,-1.17801,0.00536993,0.0115886,1532,1730,5.25553,-17.3597
315,-706,5.27771,17.2423,-0.000107423,0.00691275,-0.00303294,0.00804157,-0.00123624,-1.21449,0.00581708,0.0182814,1539,1730,5.27771,-17.2424
322,-706,5.26709,17.115,-0.00116792,0.0074539,-0.00308089,0.00844165,-0.00215567,-1.26054,0.00646721,0.019011,1546,1730,5.26712,-17.115
329,-706,5.22144,16.9421,-0.00307279,0.00527184,-0.00288196,0.00617042,-0.00397136,-1.26856,0.00590106,0.0164539,1553,1730,5.22147,-16.9421
336,-706,5.1908,16.7502,-0.00528164,0.000128384,-0.00265443,0.00121324,-0.00636649,-1.18282,0.00470122,0.0227636,1560,1730,5.19083,-16.7503
343,-706,5.26648,16.6338,-0.00747951,-0.00399765,-0.00239911,-0.00277437,-0.0087028,-1.09927,0.00513338,0.0320601,1567,1730,5.26647,-16.6338
350,-706,5.23938,16.5787,-0.00911184,-0.00370402,0.00297953,-0.00238441,-0.0104314,1.15387,0.00631146,0.0398754,1574,1730,5.23942,-16.5787
357,-706,5.2262,16.4816,-0.0112466,-0.00649087,0.00613644,-0.00228769,-0.0154498,0.97024,0.00962831,0.0463088,1581,1730,5.2262,-16.4816
364,-706,4.70679,16.2902,0,0,0,0,0,0,0,-1,1588,1730,4.70678,-16.2902
371,-706,6.16052,18.3176,0,0,0,0,0,0,0,-1,1595,1730,6.16057,-18.3176
378,-706,5.95264,18.1953,-0.0158279,-0.00926105,0.0237378,0.0114193,-0.0365082,0.854122,0.0289071,0.0477371,1602,1730,5.95269,-18.1953
385,-706,5.50513,18.2434,-0.0148549,-0.00485543,0.0323159,0.0228452,-0.0425555,0.862147,0.0383265,0.0469884,1609,1730,5.50513,-18.2434
392,-706,5.05701,18.6085,0,0,0,0,0,0,0,-1,1616,1730,5.05699,-18.6085
399,-706,6.0332,16.6144,0,0,0,0,0,0,0,-1,1623,1730,6.03321,-16.6143
406,-706,6.04211,18.8085,0,0,0,0,0,0,0,-1,1630,1730,6.04216,-18.8085
413,-706,6.23413,20.7725,0,0,0,0,0,0,0,-1,1637,1730,6.23413,-20.7725
420,-706,6.51294,21.9171,0,0,0,0,0,0,0,-1,1644,1730,6.51292,-21.9171
427,-706,0,0,0,0,0,0,0,0,0,-1,1651,1730,0,0
434,-706,0,0,0,0,0,0,0,0,0,-1,1658,1730,0,0
441,-706,0,0,0,0,0,0,0,0,0,-1,1665,1730,0,0
448,-706,0,0,0,0,0,0,0,0,0,-1,1672,1730,0,0
455,-706,0,0,0,0,0,0,0,0,0,-1,1679,1730,0,0
462,-706,0,0,0,0,0,0,0,0,0,-1,1686,1730,0,0
469,-706,0,0,0,0,0,0,0,0,0,-1,1693,1730,0,0
476,-706,0,0,0,0,0,0,0,0,0,-1,1700,1730,0,0
483,-706,0,0,0,0,0,0,0,0,0,-1,1707,1730,0,0
490,-706,0,0,0,0,0,0,0,0,0,-1,1714,1730,0,0
497,-706,0,0,0,0,0,0,0,0,0,-1,1721,1730,0,0
504,-706,0,0,0,0,0,0,0,0,0,-1,1728,1730,0,0
511,-706,0,0,0,0,0,0,0,0,0,-1,1735,1730,0,0
518,-706,0,0,0,0,0,0,0,0,0,-1,1742,1730,0,0
525,-706,0,0,0,0,0,0,0,0,0,-1,1749,1730,0,0
532,-706,0,0,0,0,0,0,0,0,0,-1,1756,1730,0,0
539,-706,0,0,0,0,0,0,0,0,0,-1,1763,1730,0,0
546,-706,0,0,0,0,0,0,0,0,0,-1,1770,1730,0,0
553,-706,0,0,0,0,0,0,0,0,0,-1,1777,1730,0,0
560,-706,0,0,0,0,0,0,0,0,0,-1,1784,1730,0,0
567,-706,0,0,0,0,0,0,0,0,0,-1,1791,1730,0,0
574,-706,0,0,0,0,0,0,0,0,0,-1,1798,1730,0,0
581,-706,0,0,0,0,0,0,0,0,0,-1,1805,1730,0,0
588,-706,0,0,0,0,0,0,0,0,0,-1,1812,1730,0,0
595,-706,0,0,0,0,0,0,0,0,0,-1,1819,1730,0,0
602,-706,0,0,0,0,0,0,0,0,0,-1,1826,1730,0,0
609,-706,0,0,0,0,0,0,0,0,0,-1,1833,1730,0,0
616,-706,0,0,0,0,0,0,0,0,0,-1,1840,1730,0,0
623,-706,0,0,0,0,0,0,0,0,0,-1,1847,1730,0,0
630,-706,0,0,0,0,0,0,0,0,0,-1,1854,1730,0,0
637,-706,0,0,0,0,0,0,0,0,0,-1,1861,1730,0,0
644,-706,0,0,0,0,0,0,0,0,0,-1,1868,1730,0,0
651,-706,0,0,0,0,0,0,0,0,0,-1,1875,1730,0,0
658,-706,0,0,0,0,0,0,0,0,0,-1,1882,1730,0,0
665,-706,0,0,0,0,0,0,0,0,0,-1,1889,1730,0,0
672,-706,0,0,0,0,0,0,0,0,0,-1,1896,1730,0,0
679,-706,0,0,0,0,0,0,0,0,0,-1,1903,1730,0,0
686,-706,0,0,0,0,0,0,0,0,0,-1,1910,1730,0,0
693,-706,0,0,0,0,0,0,0,0,0,-1,1917,1730,0,0
700,-706,0,0,0,0,0,0,0,0,0,-1,1924,1730,0,0
707,-706,0,0,0,0,0,0,0,0,0,-1,1931,1730,0,0
714,-706,0,0,0,0,0,0,0,0,0,-1,1938,1730,0,0
721,-706,0,0,0,0,0,0,0,0,0,-1,1945,1730,0,0
728,-706,0,0,0,0,0,0,0,0,0,-1,1952,1730,0,0
735,-706,0,0,0,0,0,0,0,0,0,-1,1959,1730,0,0
742,-706,0,0,0,0,0,0,0,0,0,-1,1966,1730,0,0
749,-706,0,0,0,0,0,0,0,0,0,-1,1973,1730,0,0
756,-706,0,0,0,0,0,0,0,0,0,-1,1980,1730,0,0
763,-706,0,0,0,0,0,0,0,0,0,-1,1987,1730,0,0
770,-706,0,0,0,0,0,0,0,0,0,-1,1994,1730,0,0
777,-706,0,0,0,0,0,0,0,0,0,-1,2001,1730,0,0
784,-706,0,0,0,0,0,0,0,0,0,-1,2008,1730,0,0
791,-706,0,0,0,0,0,0,0,0,0,-1,2015,1730,0,0
798,-706,0,0,0,0,0,0,0,0,0,-1,2022,1730,0,0
805,-706,0,0,0,0,0,0,0,0,0,-1,2029,1730,0,0
812,-706,0,0,0,0,0,0,0,0,0,-1,2036,1730,0,0
-700,-713,0,0,0,0,0,0,0,0,0,-1,524,1737,0,0
-693,-713,0,0,0,0,0,0,0,0,0,-1,531,1737,0,0
-686,-713,0,0,0,0,0,0,0,0,0,-1,538,1737,0,0
-679,-713,0,0,0,0,0,0,0,0,0,-1,545,1737,0,0
-672,-713,0,0,0,0,0,0,0,0,0,-1,552,1737,0,0
-665,-713,0,0,0,0,0,0,0,0,0,-1,559,1737,0,0
-658,-713,0,0,0,0,0,0,0,0,0,-1,566,1737,0,0
-651,-713,0,0,0,0,0,0,0,0,0,-1,573,1737,0,0
-644,-713,0,0,0,0,0,0,0,0,0,-1,580,1737,0,0
-637,-713,0,0,0,0,0,0,0,0,0,-1,587,1737,0,0
-630,-713,0,0,0,0,0,0,0,0,0,-1,594,1737,0,0
-623,-713,0,0,0,0,0,0,0,0,0,-1,601,1737,0,0
-616,-713,0,0,0,0,0,0,0,0,0,-1,608,1737,0,0
-609,-713,0,0,0,0,0,0,0,0,0,-1,615,1737,0,0
-602,-713,0,0,0,0,0,0,0,0,0,-1,622,1737,0,0
-595,-713,0,0,0,0,0,0,0,0,0,-1,629,1737,0,0
-588,-713,0,0,0,0,0,0,0,0,0,-1,636,1737,0,0
-581,-713,0,0,0,0,0,0,0,0,0,-1,643,1737,0,0
-574,-713,0,0,0,0,0,0,0,0,0,-1,650,1737,0,0
-567,-713,0,0,0,0,0,0,0,0,0,-1,657,1737,0,0
-560,-713,0,0,0,0,0,0,0,0,0,-1,664,1737,0,0
-553,-713,0,0,0,0,0,0,0,0,0,-1,671,1737,0,0
-546,-713,0,0,0,0,0,0,0,0,0,-1,678,1737,0,0
-539,-713,0,0,0,0,0,0,0,0,0,-1,685,1737,0,0
-532,-713,0,0,0,0,0,0,0,0,0,-1,692,1737,0,0
-525,-713,0,0,0,0,0,0,0,0,0,-1,699,1737,0,0
-518,-713,0,0,0,0,0,0,0,0,0,-1,706,1737,0,0
-511,-713,0,0,0,0,0,0,0,0,0,-1,713,1737,0,0
-504,-713,0,0,0,0,0,0,0,0,0,-1,720,1737,0,0
-497,-713,0,0,0,0,0,0,0,0,0,-1,727,1737,0,0
-490,-713,0,0,0,0,0,0,0,0,0,-1,734,1737,0,0
-483,-713,0,0,0,0,0,0,0,0,0,-1,741,1737,0,0
-476,-713,0,0,0,0,0,0,0,0,0,-1,748,1737,0,0
-469,-713,0,0,0,0,0,0,0,0,0,-1,755,1737,0,0
-462,-713,0,0,0,0,0,0,0,0,0,-1,762,1737,0,0
-455,-713,0,0,0,0,0,0,0,0,0,-1,769,1737,0,0
-448,-713,0,0,0,0,0,0,0,0,0,-1,776,1737,0,0
-441,-713,0,0,0,0,0,0,0,0,0,-1,783,1737,0,0
-434,-713,0,0,0,0,0,0,0,0,0,-1,790,1737,0,0
-427,-713,0,0,0,0,0,0,0,0,0,-1,797,1737,0,0
-420,-713,0,0,0,0,0,0,0,0,0,-1,804,1737,0,0
-413,-713,0,0,0,0,0,0,0,0,0,-1,811,1737,0,0
-406,-713,0,0,0,0,0,0,0,0,0,-1,818,1737,0,0
-399,-713,0,0,0,0,0,0,0,0,0,-1,825,1737,0,0
-392,-713,0,0,0,0,0,0,0,0,0,-1,832,1737,0,0
-385,-713,0,0,0,0,0,0,0,0,0,-1,839,1737,0,0
-378,-713,0,0,0,0,0,0,0,0,0,-1,846,1737,0,0
-371,-713,0,0,0,0,0,0,0,0,0,-1,853,1737,0,0
-364,-713,0,0,0,0,0,0,0,0,0,-1,860,1737,0,0
-357,-713,0,0,0,0,0,0,0,0,0,-1,867,1737,0,0
-350,-713,0,0,0,0,0,0,0,0,0,-1,874,1737,0,0
-343,-713,0,0,0,0,0,0,0,0,0,-1,881,1737,0,0
-336,-713,0,0,0,0,0,0,0,0,0,-1,888,1737,0,0
-329,-713,0,0,0,0,0,0,0,0,0,-1,895,1737,0,0
-322,-713,0,0,0,0,0,0,0,0,0,-1,902,1737,0,0
-315,-713,0,0,0,0,0,0,0,0,0,-1,909,1737,0,0
-308,-713,0,0,0,0,0,0,0,0,0,-1,916,1737,0,0
-301,-713,0,0,0,0,0,0,0,0,0,-1,923,1737,0,0
-294,-713,6.3161,13.046,0,0,0,0,0,0,0,-1,930,1737,6.31612,-13.046
-287,-713,6.56073,15.8463,0,0,0,0,0,0,0,-1,937,1737,6.56074,-15.8463
-280,-713,8.95996,11.8666,0,0,0,0,0,0,0,-1,944,1737,8.95993,-11.8666
-273,-713,5.90009,13.9349,0,0,0,0,0,0,0,-1,951,1737,5.90006,-13.9349
-266,-713,6.52106,13.4521,0,0,0,0,0,0,0,-1,958,1737,6.52105,-13.4522
-259,-713,2.67322,10.5743,0,0,0,0,0,0,0,-1,965,1737,2.67324,-10.5743
-252,-713,4.41235,19.2604,0,0,0,0,0,0,0,-1,972,1737,4.41235,-19.2604
-245,-713,4.55988,18.9458,-0.05218,0.0839009,-0.0322548,0.0911591,-0.0594381,-1.34946,0.0875879,0.044593,979,1737,4.5599,-18.9458
-238,-713,4.45544,18.3171,-0.0493948,0.0652465,-0.0303374,0.0727796,-0.056928,-1.32741,0.0750729,0.0452988,986,1737,4.45542,-18.3171
-231,-713,5.72284,15.8907,0,0,0,0,0,0,0,-1,993,1737,5.72282,-15.8908
-224,-713,5.10101,16.312,0,0,0,0,0,0,0,-1,1000,1737,5.10101,-16.312
-217,-713,4.74139,16.2728,0,0,0,0,0,0,0,-1,1007,1737,4.74141,-16.2729
-210,-713,4.75769,16.566,0,0,0,0,0,0,0,-1,1014,1737,4.75767,-16.5661
-203,-713,5.02124,16.7876,-0.0268864,-0.00169718,-0.0165771,0.00652707,-0.0351107,-1.11026,0.0258589,0.0452563,1021,1737,5.02127,-16.7876
-196,-713,5.0896,16.307,-0.022371,-0.0058018,-0.0139351,0.00212533,-0.0302982,-1.05359,0.0209432,0.045902,1028,1737,5.08958,-16.3071
-189,-713,4.99304,16.5652,-0.0178198,-0.0120858,-0.0108945,-0.00368734,-0.0262183,-0.914059,0.0163886,0.0414007,1035,1737,4.99305,-16.5652
-182,-713,4.96423,16.7002,-0.013784,-0.0139251,-0.00852826,-0.00532597,-0.0223831,-0.781262,0.0135015,0.0271223,1042,1737,4.96428,-16.7002
-175,-713,5.0166,16.7334,-0.0105591,-0.0102712,-0.00672541,-0.0036882,-0.0171421,-0.796096,0.0104186,0.0220618,1049,1737,5.01658,-16.7334
-168,-713,5.11292,16.8568,-0.00715873,-0.00718995,-0.0048201,-0.00235421,-0.0119945,-0.783779,0.00733854,0.0246906,1056,1737,5.11294,-16.8569
-161,-713,4.99585,17.1002,-0.00451136,-0.00424164,-0.00328338,-0.00109035,-0.00766264,-0.805923,0.00478656,0.0136155,1063,1737,4.9959,-17.1002
-154,-713,4.95007,17.2275,-0.00347737,-0.00120156,-0.0024635,0.000374146,-0.00505307,-1.00175,0.0035001,0.0117648,1070,1737,4.95012,-17.2276
-147,-713,4.94214,17.3606,-0.00278216,0.00110334,-0.00182366,0.00182518,-0.003504,-1.1939,0.00312728,0.0184386,1077,1737,4.94208,-17.3605
-140,-713,4.9541,17.5212,-0.00229067,0.00188779,-0.00157579,0.00241542,-0.0028183,-1.24769,0.00302468,0.0176068,1084,1737,4.9541,-17.5212
-133,-713,4.92041,17.6414,-0.00163906,0.00271492,-0.00136922,0.00310971,-0.00203385,-1.29008,0.00299121,0.0111837,1091,1737,4.92043,-17.6413
-126,-713,4.91492,17.7357,-0.00122891,0.00292528,-0.00132442,0.0033116,-0.00161523,-1.28698,0.00290017,0.0167693,1098,1737,4.91491,-17.7357
-119,-713,4.93188,17.8265,-0.00092417,0.00297304,-0.00117131,0.00329798,-0.00124911,-1.30018,0.00271265,0.0261107,1105,1737,4.93194,-17.8266
-112,-713,4.91663,18.006,-0.000522041,0.00277441,-0.00101012,0.00305931,-0.000806946,-1.29589,0.00235506,0.0137323,1112,1737,4.9166,-18.006
-105,-713,4.9259,18.1229,-0.000213643,0.00245024,-0.000853446,0.00270021,-0.000463611,-1.28587,0.00197292,0.0104236,1119,1737,4.92594,-18.1229
-98,-713,4.92712,18.212,-2.88502e-05,0.00212445,-0.000612467,0.00228647,-0.000190865,-1.31219,0.00159175,0.00972713,1126,1737,4.92707,-18.212
-91,-713,4.90344,18.314,0.000227752,0.00195519,-0.000354865,0.00202524,0.000157694,-1.37588,0.00130079,0.0101912,1133,1737,4.90345,-18.314
-84,-713,4.87622,18.4301,0.000432828,0.00186537,-8.67904e-05,0.00187061,0.000427589,-1.51051,0.0011318,0.00958112,1140,1737,4.87618,-18.43
-77,-713,4.89343,18.5482,0.000687837,0.00172586,9.41071e-05,0.00173432,0.000679374,1.48111,0.00100911,0.0122429,1147,1737,4.89345,-18.5482
-70,-713,4.89111,18.6304,0.000828259,0.00127834,0.000186836,0.00134579,0.000760809,1.22434,0.000779201,0.0137023,1154,1737,4.89114,-18.6304
-63,-713,4.88647,18.7214,0.000916015,0.000762788,0.000340164,0.00118809,0.000490717,0.674634,0.000689392,0.0124648,1161,1737,4.8865,-18.7215
-56,-713,4.89246,18.7986,0.00132968,0.000530204,0.000699239,0.00173538,0.000124507,0.525732,0.00111773,0.0125612,1168,1737,4.89244,-18.7985
-49,-713,4.84912,18.8634,0.00195997,-1.34524e-05,0.00108592,0.00244052,-0.000493993,0.416614,0.00181423,0.0148945,1175,1737,4.84907,-18.8634
-42,-713,4.87964,18.9373,0.00251786,-0.000770997,0.00147636,0.00308336,-0.0013365,0.365799,0.0026174,0.0172509,1182,1737,4.87968,-18.9373
-35,-713,4.90417,18.9972,0.00315224,-0.00144346,0.00192193,0.00385004,-0.00214126,0.348274,0.00350566,0.01411,1189,1737,4.9042,-18.9972
-28,-713,4.9032,19.0831,0.00354463,-0.0021238,0.00231573,0.00437038,-0.00294955,0.342529,0.00425262,0.0125102,1196,1737,4.90324,-19.0831
-21,-713,4.89087,19.1429,0.00376736,-0.00292673,0.00267253,0.00470344,-0.0038628,0.336905,0.00495365,0.00945968,1203,1737,4.89089,-19.143
-14,-713,4.91125,19.1846,0.00394839,-0.0036405,0.00302172,0.00500458,-0.00469669,0.336257,0.00560197,0.0105088,1210,1737,4.91124,-19.1846
-7,-713,4.94385,19.2347,0.00402157,-0.00395203,0.00343641,0.00529818,-0.00522864,0.355695,0.00607771,0.00944709,1217,1737,4.94388,-19.2348
0,-713,4.94775,19.2881,0.00393331,-0.00401896,0.00378395,0.00544607,-0.00553172,0.380319,0.00633809,0.0151036,1224,1737,4.94777,-19.2881
7,-713,4.96362,19.3333,0.00376739,-0.00385211,0.00410936,0.00556131,-0.00564603,0.411607,0.00647062,0.0177687,1231,1737,4.9636,-19.3332
14,-713,4.97571,19.374,0.00347869,-0.00347024,0.00443485,0.00563804,-0.00562958,0.453116,0.00650536,0.0123327,1238,1737,4.97568,-19.3741
21,-713,4.97375,19.4109,0.00316484,-0.00289416,0.00473738,0.00575856,-0.00548788,0.500923,0.00649376,0.0102085,1245,1737,4.97376,-19.4109
28,-713,4.97778,19.4509,0.00286382,-0.00227775,0.00503171,0.00594343,-0.00535737,0.549227,0.00652744,0.0111198,1252,1737,4.97782,-19.451
35,-713,4.98108,19.4961,0.00257881,-0.00159043,0.00532904,0.00621645,-0.00522807,0.598957,0.00661571,0.0111732,1259,1737,4.98107,-19.4961
42,-713,4.98926,19.5396,0.00199581,-0.000896302,0.00545482,0.00619299,-0.00509349,0.65583,0.00652655,0.0107014,1266,1737,4.98927,-19.5396
49,-713,5.00525,19.5345,0.00135307,-0.000463494,0.00526274,0.00578533,-0.00489576,0.699946,0.00617386,0.0107272,1273,1737,5.00524,-19.5346
56,-713,5.02271,19.5189,0.00102105,-0.000234619,0.00501323,0.00544561,-0.00465918,0.723105,0.00583989,0.0110523,1280,1737,5.02271,-19.5189
63,-713,5.02966,19.5371,0.000803555,-0.000353847,0.00467048,0.00493105,-0.00448134,0.723759,0.00543632,0.0120438,1287,1737,5.02969,-19.5371
70,-713,5.03223,19.5404,0.000560884,-0.000934794,0.00422281,0.00410156,-0.00447547,0.697759,0.00495352,0.0124255,1294,1737,5.0322,-19.5404
77,-713,5.03467,19.5537,0.000920692,-0.00163448,0.00376234,0.00361644,-0.00433023,0.621721,0.00459418,0.012223,1301,1737,5.03472,-19.5538
84,-713,5.05029,19.5656,0.00155229,-0.00255267,0.00324992,0.00334358,-0.00434397,0.503751,0.00445092,0.0126045,1308,1737,5.05027,-19.5655
91,-713,5.06592,19.5829,0.00200426,-0.00353058,0.00268763,0.00309456,-0.00462087,0.385386,0.00448347,0.0132464,1315,1737,5.06587,-19.5829
98,-713,5.06177,19.5789,0.00266135,-0.00452068,0.00218946,0.00327618,-0.00513551,0.273763,0.00489588,0.0123529,1322,1737,5.06181,-19.5789
105,-713,5.06836,19.5789,0.00352449,-0.00538253,0.0017192,0.0038448,-0.00570284,0.184204,0.00554702,0.0134417,1329,1737,5.06836,-19.5789
112,-713,5.08911,19.5665,0.00448103,-0.00611148,0.00139271,0.00466108,-0.00629154,0.12857,0.00634681,0.0131786,1336,1737,5.08908,-19.5665
119,-713,5.10364,19.5328,0.00548968,-0.00663101,0.00117251,0.00560207,-0.00674339,0.0955555,0.0071378,0.0136997,1343,1737,5.10366,-19.5329
126,-713,5.10413,19.5095,0.00639428,-0.00682396,0.00111503,0.00648768,-0.00691736,0.0835682,0.00774073,0.0134407,1350,1737,5.10407,-19.5095
133,-713,5.10815,19.4863,0.00696946,-0.00660127,0.00116758,0.00706918,-0.00670099,0.0852021,0.00795116,0.0122918,1357,1737,5.10821,-19.4863
140,-713,5.12085,19.4553,0.00716736,-0.00603922,0.00121842,0.00727883,-0.00615068,0.0912323,0.00776265,0.0131671,1364,1737,5.12088,-19.4553
147,-713,5.13635,19.3806,0.0071191,-0.00524483,0.00129501,0.00725329,-0.00537902,0.103248,0.00731997,0.014153,1371,1737,5.13631,-19.3806
154,-713,5.11914,19.3708,0.00655396,-0.00417507,0.00148437,0.00675554,-0.00437665,0.134974,0.0064759,0.0143609,1378,1737,5.11915,-19.3709
161,-713,5.13684,19.296,0.00540617,-0.00305415,0.00146951,0.00565415,-0.00330213,0.167173,0.00523001,0.0107479,1385,1737,5.13688,-19.296
168,-713,5.15613,19.2231,0.00431469,-0.0018861,0.0012943,0.00457401,-0.00214541,0.197734,0.00396302,0.0104137,1392,1737,5.1561,-19.2231
175,-713,5.19202,19.1788,0.00346459,-0.000935905,0.000941183,0.00365744,-0.00112875,0.202104,0.002889,0.0130459,1399,1737,5.192,-19.1789
182,-713,5.18103,19.1316,0.00205643,-0.000271489,0.000539451,0.00217536,-0.000390421,0.216996,0.00159638,0.0119714,1406,1737,5.18099,-19.1316
189,-713,5.16077,19.05,0.000776105,0.000368458,0.000235129,0.000883457,0.000261107,0.428298,0.000524085,0.0108257,1413,1737,5.16082,-19.0501
196,-713,5.16809,19.0016,0.000435965,0.000597045,-1.96895e-05,0.000599416,0.000433593,-1.45091,0.000357398,0.0110744,1420,1737,5.16808,-19.0016
203,-713,5.17017,18.9507,0.000252076,0.000962803,-0.000271877,0.00105488,0.000160002,-1.24426,0.00065645,0.0142966,1427,1737,5.17014,-18.9507
210,-713,5.16101,18.8348,0.000150705,0.00115249,-0.000477631,0.00134372,-4.05186e-05,-1.18998,0.000909618,0.0119521,1434,1737,5.16105,-18.8348
217,-713,5.16357,18.7396,6.19939e-05,0.00136889,-0.000715624,0.00168452,-0.000253637,-1.1554,0.0012164,0.0101047,1441,1737,5.16362,-18.7397
224,-713,5.17004,18.6686,0.000144545,0.00156219,-0.00092096,0.00201552,-0.000308784,-1.11338,0.00145755,0.011363,1448,1737,5.17002,-18.6686
231,-713,5.17554,18.6013,0.000228039,0.0018009,-0.00110034,0.00236695,-0.000338015,-1.09567,0.00170186,0.0110979,1455,1737,5.17558,-18.6013
238,-713,5.16931,18.4995,0.000403584,0.00204563,-0.00124384,0.00271498,-0.00026577,-1.07711,0.00190477,0.00860545,1462,1737,5.16928,-18.4995
245,-713,5.16638,18.4121,0.000595505,0.0023186,-0.00136449,0.00307078,-0.000156669,-1.06699,0.00210136,0.0108368,1469,1737,5.16635,-18.4121
252,-713,5.16748,18.324,0.000736127,0.00260321,-0.00147556,0.00341574,-7.64065e-05,-1.06745,0.00230305,0.0112023,1476,1737,5.16746,-18.324
259,-713,5.16919,18.2028,0.000901791,0.00298621,-0.00151952,0.00378659,0.000101408,-1.08599,0.00249128,0.0112106,1483,1737,5.16918,-18.2028
266,-713,5.16321,18.1034,0.0011648,0.00340706,-0.00170148,0.00432357,0.000248291,-1.07671,0.00280328,0.0102695,1490,1737,5.16326,-18.1034
273,-713,5.14233,18.0045,0.00153952,0.00503158,-0.00246493,0.00630623,0.000264873,-1.09355,0.0041187,0.00901352,1497,1737,5.14239,-18.0045
280,-713,5.12976,17.8723,0.00156871,0.0061059,-0.0028195,0.00745616,0.000218447,-1.12417,0.00489958,0.00964438,1504,1737,5.1298,-17.8723
287,-713,5.1145,17.7472,0.00146942,0.00687393,-0.00292961,0.00815726,0.000186102,-1.15792,0.00537721,0.0106592,1511,1737,5.11447,-17.7472
294,-713,5.11328,17.6321,0.00159438,0.00795124,-0.0034167,0.00943932,0.000106308,-1.16004,0.00625774,0.0162897,1518,1737,5.11331,-17.6321
301,-713,5.09155,17.4797,0.00143272,0.00884651,-0.0038414,0.0104779,-0.000198682,-1.16919,0.00705244,0.0166554,1525,1737,5.09159,-17.4797
308,-713,5.07617,17.3296,0.000953001,0.0092715,-0.00425906,0.0110653,-0.000840813,-1.17217,0.00767252,0.0182725,1532,1737,5.0762,-17.3296
315,-713,5.09912,17.2145,0.000250104,0.0101417,-0.0044051,0.0118191,-0.00142722,-1.20698,0.00839565,0.0253895,1539,1737,5.09915,-17.2144
322,-713,5.06616,17.0383,-0.00113596,0.0110738,-0.00448997,0.0125471,-0.0026093,-1.25373,0.00935658,0.033413,1546,1737,5.06614,-17.0383
329,-713,5.10828,16.9263,-0.00364579,0.00809206,-0.00426194,0.00947631,-0.00503004,-1.25675,0.00850537,0.0380782,1553,1737,5.10826,-16.9263
336,-713,4.76172,17.0747,-0.00654416,0.00142723,-0.00404658,0.00312137,-0.0082383,-1.17431,0.00677667,0.0394387,1560,1737,4.76167,-17.0747
343,-713,5.13281,16.6635,0,0,0,0,0,0,0,-1,1567,1737,5.13285,-16.6635
350,-713,5.12573,16.642,0,0,0,0,0,0,0,-1,1574,1737,5.12572,-16.642
357,-713,5.21008,16.5837,0,0,0,0,0,0,0,-1,1581,1737,5.21006,-16.5838
364,-713,7.07642,19.3864,0,0,0,0,0,0,0,-1,1588,1737,7.07647,-19.3863
371,-713,6.58301,19.0181,-0.0191154,-0.00922952,0.0214508,0.0078405,-0.0361854,0.898637,0.0271176,0.0458723,1595,1737,6.58296,-19.0181
378,-713,6.26428,18.7252,-0.0205366,-0.00862061,0.0321176,0.018087,-0.0472442,0.877109,0.038951,0.0458886,1602,1737,6.26428,-18.7252
385,-713,5.9928,19.4026,-0.0193952,-0.00168134,0.0442041,0.0345444,-0.0556209,0.884271,0.0525289,0.0476222,1609,1737,5.99285,-19.4026
392,-713,5.38123,20.2285,0,0,0,0,0,0,0,-1,1616,1737,5.38128,-20.2285
399,-713,2.84045,14.7314,-0.0111249,0.0271633,0.0796336,0.0899216,-0.0738832,0.903361,0.0947237,0.0445019,1623,1737,2.84046,-14.7315
406,-713,2.97656,16.4902,0,0,0,0,0,0,0,-1,1630,1737,2.97656,-16.4902
413,-713,3.24731,18.2787,0,0,0,0,0,0,0,-1,1637,1737,3.24726,-18.2787
420,-713,0,0,0,0,0,0,0,0,0,-1,1644,1737,0,0
427,-713,0,0,0,0,0,0,0,0,0,-1,1651,1737,0,0
434,-713,0,0,0,0,0,0,0,0,0,-1,1658,1737,0,0
441,-713,0,0,0,0,0,0,0,0,0,-1,1665,1737,0,0
448,-713,0,0,0,0,0,0,0,0,0,-1,1672,1737,0,0
455,-713,0,0,0,0,0,0,0,0,0,-1,1679,1737,0,0
462,-713,0,0,0,0,0,0,0,0,0,-1,1686,1737,0,0
469,-713,0,0,0,0,0,0,0,0,0,-1,1693,1737,0,0
476,-713,0,0,0,0,0,0,0,0,0,-1,1700,1737,0,0
483,-713,0,0,0,0,0,0,0,0,0,-1,1707,1737,0,0
490,-713,0,0,0,0,0,0,0,0,0,-1,1714,1737,0,0
497,-713,0,0,0,0,0,0,0,0,0,-1,1721,1737,0,0
504,-713,0,0,0,0,0,0,0,0,0,-1,1728,1737,0,0
511,-713,0,0,0,0,0,0,0,0,0,-1,1735,1737,0,0
518,-713,0,0,0,0,0,0,0,0,0,-1,1742,1737,0,0
525,-713,0,0,0,0,0,0,0,0,0,-1,1749,1737,0,0
532,-713,0,0,0,0,0,0,0,0,0,-1,1756,1737,0,0
539,-713,0,0,0,0,0,0,0,0,0,-1,1763,1737,0,0
546,-713,0,0,0,0,0,0,0,0,0,-1,1770,1737,0,0
553,-713,0,0,0,0,0,0,0,0,0,-1,1777,1737,0,0
560,-713,0,0,0,0,0,0,0,0,0,-1,1784,1737,0,0
567,-713,0,0,0,0,0,0,0,0,0,-1,1791,1737,0,0
574,-713,0,0,0,0,0,0,0,0,0,-1,1798,1737,0,0
581,-713,0,0,0,0,0,0,0,0,0,-1,1805,1737,0,0
588,-713,0,0,0,0,0,0,0,0,0,-1,1812,1737,0,0
595,-713,0,0,0,0,0,0,0,0,0,-1,1819,1737,0,0
602,-713,0,0,0,0,0,0,0,0,0,-1,1826,1737,0,0
609,-713,0,0,0,0,0,0,0,0,0,-1,1833,1737,0,0
616,-713,0,0,0,0,0,0,0,0,0,-1,1840,1737,0,0
623,-713,0,0,0,0,0,0,0,0,0,-1,1847,1737,0,0
630,-713,0,0,0,0,0,0,0,0,0,-1,1854,1737,0,0
637,-713,0,0,0,0,0,0,0,0,0,-1,1861,1737,0,0
644,-713,0,0,0,0,0,0,0,0,0,-1,1868,1737,0,0
651,-713,0,0,0,0,0,0,0,0,0,-1,1875,1737,0,0
658,-713,0,0,0,0,0,0,0,0,0,-1,1882,1737,0,0
665,-713,0,0,0,0,0,0,0,0,0,-1,1889,1737,0,0
672,-713,0,0,0,0,0,0,0,0,0,-1,1896,1737,0,0
679,-713,0,0,0,0,0,0,0,0,0,-1,1903,1737,0,0
686,-713,0,0,0,0,0,0,0,0,0,-1,1910,1737,0,0
693,-713,0,0,0,0,0,0,0,0,0,-1,1917,1737,0,0
700,-713,0,0,0,0,0,0,0,0,0,-1,1924,1737,0,0
707,-713,0,0,0,0,0,0,0,0,0,-1,1931,1737,0,0
714,-713,0,0,0,0,0,0,0,0,0,-1,1938,1737,0,0
721,-713,0,0,0,0,0,0,0,0,0,-1,1945,1737,0,0
728,-713,0,0,0,0,0,0,0,0,0,-1,1952,1737,0,0
735,-713,0,0,0,0,0,0,0,0,0,-1,1959,1737,0,0
742,-713,0,0,0,0,0,0,0,0,0,-1,1966,1737,0,0
749,-713,0,0,0,0,0,0,0,0,0,-1,1973,1737,0,0
756,-713,0,0,0,0,0,0,0,0,0,-1,1980,1737,0,0
763,-713,0,0,0,0,0,0,0,0,0,-1,1987,1737,0,0
770,-713,0,0,0,0,0,0,0,0,0,-1,1994,1737,0,0
777,-713,0,0,0,0,0,0,0,0,0,-1,2001,1737,0,0
784,-713,0,0,0,0,0,0,0,0,0,-1,2008,1737,0,0
791,-713,0,0,0,0,0,0,0,0,0,-1,2015,1737,0,0
798,-713,0,0,0,0,0,0,0,0,0,-1,2022,1737,0,0
805,-713,0,0,0,0,0,0,0,0,0,-1,2029,1737,0,0
812,-713,0,0,0,0,0,0,0,0,0,-1,2036,1737,0,0
-700,-720,0,0,0,0,0,0,0,0,0,-1,524,1744,0,0
-693,-720,0,0,0,0,0,0,0,0,0,-1,531,1744,0,0
-686,-720,0,0,0,0,0,0,0,0,0,-1,538,1744,0,0
-679,-720,0,0,0,0,0,0,0,0,0,-1,545,1744,0,0
-672,-720,0,0,0,0,0,0,0,0,0,-1,552,1744,0,0
-665,-720,0,0,0,0,0,0,0,0,0,-1,559,1744,0,0
-658,-720,0,0,0,0,0,0,0,0,0,-1,566,1744,0,0
-651,-720,0,0,0,0,0,0,0,0,0,-1,573,1744,0,0
-644,-720,0,0,0,0,0,0,0,0,0,-1,580,1744,0,0
-637,-720,0,0,0,0,0,0,0,0,0,-1,587,1744,0,0
-630,-720,0,0,0,0,0,0,0,0,0,-1,594,1744,0,0
-623,-720,0,0,0,0,0,0,0,0,0,-1,601,1744,0,0
-616,-720,0,0,0,0,0,0,0,0,0,-1,608,1744,0,0
-609,-720,0,0,0,0,0,0,0,0,0,-1,615,1744,0,0
-602,-720,0,0,0,0,0,0,0,0,0,-1,622,1744,0,0
-595,-720,0,0,0,0,0,0,0,0,0,-1,629,1744,0,0
-588,-720,0,0,0,0,0,0,0,0,0,-1,636,1744,0,0
-581,-720,0,0,0,0,0,0,0,0,0,-1,643,1744,0,0
-574,-720,0,0,0,0,0,0,0,0,0,-1,650,1744,0,0
-567,-720,0,0,0,0,0,0,0,0,0,-1,657,1744,0,0
-560,-720,0,0,0,0,0,0,0,0,0,-1,664,1744,0,0
-553,-720,0,0,0,0,0,0,0,0,0,-1,671,1744,0,0
-546,-720,0,0,0,0,0,0,0,0,0,-1,678,1744,0,0
-539,-720,0,0,0,0,0,0,0,0,0,-1,685,1744,0,0
-532,-720,0,0,0,0,0,0,0,0,0,-1,692,1744,0,0
-525,-720,0,0,0,0,0,0,0,0,0,-1,699,1744,0,0
-518,-720,0,0,0,0,0,0,0,0,0,-1,706,1744,0,0
-511,-720,0,0,0,0,0,0,0,0,0,-1,713,1744,0,0
-504,-720,0,0,0,0,0,0,0,0,0,-1,720,1744,0,0
-497,-720,0,0,0,0,0,0,0,0,0,-1,727,1744,0,0
-490,-720,0,0,0,0,0,0,0,0,0,-1,734,1744,0,0
-483,-720,0,0,0,0,0,0,0,0,0,-1,741,1744,0,0
-476,-720,0,0,0,0,0,0,0,0,0,-1,748,1744,0,0
-469,-720,0,0,0,0,0,0,0,0,0,-1,755,1744,0,0
-462,-720,0,0,0,0,0,0,0,0,0,-1,762,1744,0,0
-455,-720,0,0,0,0,0,0,0,0,0,-1,769,1744,0,0
-448,-720,0,0,0,0,0,0,0,0,0,-1,776,1744,0,0
-441,-720,0,0,0,0,0,0,0,0,0,-1,783,1744,0,0
-434,-720,0,0,0,0,0,0,0,0,0,-1,790,1744,0,0
-427,-720,0,0,0,0,0,0,0,0,0,-1,797,1744,0,0
-420,-720,0,0,0,0,0,0,0,0,0,-1,804,1744,0,0
-413,-720,0,0,0,0,0,0,0,0,0,-1,811,1744,0,0
-406,-720,0,0,0,0,0,0,0,0,0,-1,818,1744,0,0
-399,-720,0,0,0,0,0,0,0,0,0,-1,825,1744,0,0
-392,-720,0,0,0,0,0,0,0,0,0,-1,832,1744,0,0
-385,-720,0,0,0,0,0,0,0,0,0,-1,839,1744,0,0
-378,-720,0,0,0,0,0,0,0,0,0,-1,846,1744,0,0
-371,-720,0,0,0,0,0,0,0,0,0,-1,853,1744,0,0
-364,-720,0,0,0,0,0,0,0,0,0,-1,860,1744,0,0
-357,-720,0,0,0,0,0,0,0,0,0,-1,867,1744,0,0
-350,-720,0,0,0,0,0,0,0,0,0,-1,874,1744,0,0
-343,-720,0,0,0,0,0,0,0,0,0,-1,881,1744,0,0
-336,-720,0,0,0,0,0,0,0,0,0,-1,888,1744,0,0
-329,-720,0,0,0,0,0,0,0,0,0,-1,895,1744,0,0
-322,-720,0,0,0,0,0,0,0,0,0,-1,902,1744,0,0
-315,-720,0,0,0,0,0,0,0,0,0,-1,909,1744,0,0
-308,-720,0,0,0,0,0,0,0,0,0,-1,916,1744,0,0
-301,-720,0,0,0,0,0,0,0,0,0,-1,923,1744,0,0
-294,-720,0,0,0,0,0,0,0,0,0,-1,930,1744,0,0
-287,-720,0,0,0,0,0,0,0,0,0,-1,937,1744,0,0
-280,-720,6.3175,15.5583,0,0,0,0,0,0,0,-1,944,1744,6.3175,-15.5584
-273,-720,6.08392,14.9034,0,0,0,0,0,0,0,-1,951,1744,6.08392,-14.9035
-266,-720,7.28027,13.3165,0,0,0,0,0,0,0,-1,958,1744,7.28026,-13.3166
-259,-720,2.38904,5.20947,0,0,0,0,0,0,0,-1,965,1744,2.38906,-5.20952
-252,-720,6.11517,17.1084,0,0,0,0,0,0,0,-1,972,1744,6.11515,-17.1084
-245,-720,5.5979,17.2944,-0.0666375,0.112117,-0.0402196,0.120749,-0.07527,-1.35937,0.114182,0.0451893,979,1744,5.59787,-17.2944
-238,-720,4.98529,17.4607,-0.0628897,0.0861756,-0.0376999,0.0951678,-0.0718819,-1.33665,0.096758,0.0477879,986,1744,4.98526,-17.4607
-231,-720,4.32178,17.6763,0,0,0,0,0,0,0,-1,993,1744,4.32178,-17.6762
-224,-720,5.08484,16.5867,0,0,0,0,0,0,0,-1,1000,1744,5.08486,-16.5866
-217,-720,5.81378,18.399,-0.0473865,0.021415,-0.0281759,0.031481,-0.0574525,-1.22767,0.0520705,0.048637,1007,1744,5.8138,-18.3991
-210,-720,5.44043,17.8215,-0.041784,0.0084174,-0.0251474,0.0188475,-0.0522141,-1.17763,0.0425082,0.0471762,1014,1744,5.4404,-17.8215
-203,-720,5.01221,17.3491,-0.036009,-2.14848e-05,-0.0220535,0.0104476,-0.0464781,-1.12758,0.0349917,0.044864,1021,1744,5.01221,-17.3492
-196,-720,5.26819,16.2711,0,0,0,0,0,0,0,-1,1028,1744,5.26814,-16.2711
-189,-720,5.39087,17.0342,-0.0248381,-0.0133463,-0.0151435,-0.0028953,-0.0352891,-0.966723,0.0226228,0.0471441,1035,1744,5.39092,-17.0341
-182,-720,5.00977,16.9009,-0.0196355,-0.0163953,-0.0120957,-0.00581162,-0.0302191,-0.851973,0.0185154,0.0457034,1042,1744,5.00976,-16.9009
-175,-720,5.17883,16.9847,-0.0151477,-0.0116074,-0.00953331,-0.00368129,-0.0230738,-0.877193,0.0143141,0.044857,1049,1744,5.17883,-16.9847
-168,-720,5.27686,17.0084,-0.0102124,-0.00793972,-0.00678588,-0.00219568,-0.0159564,-0.868355,0.00998649,0.0371935,1056,1744,5.27687,-17.0084
-161,-720,4.98877,17.0797,-0.00623405,-0.00436428,-0.00454764,-0.00065643,-0.0099419,-0.886774,0.00642032,0.0310795,1063,1744,4.98876,-17.0797
-154,-720,5.11902,17.2446,-0.00474275,-0.000272429,-0.0034413,0.00159589,-0.00661106,-1.07341,0.00502454,0.0242775,1070,1744,5.11906,-17.2447
-147,-720,5.08582,17.4426,-0.003851,0.00276451,-0.0026098,0.0036701,-0.00475659,-1.2368,0.00487861,0.0233324,1077,1744,5.08587,-17.4426
-140,-720,5.07104,17.5817,-0.00324797,0.00383936,-0.00229934,0.00451998,-0.00392859,-1.28301,0.00488176,0.0188849,1084,1744,5.07099,-17.5816
-133,-720,5.02893,17.6554,-0.00245691,0.00493862,-0.00204765,0.00546771,-0.002986,-1.31794,0.00495036,0.0133231,1091,1744,5.02898,-17.6553
-126,-720,5.03174,17.7684,-0.00199194,0.00519825,-0.00201901,0.00572639,-0.00252009,-1.31494,0.00487959,0.0126913,1098,1744,5.03169,-17.7685
-119,-720,5.03674,17.8622,-0.00166582,0.00516746,-0.0018948,0.00565769,-0.00215605,-1.31762,0.00465982,0.0146868,1105,1744,5.03671,-17.8621
-112,-720,5.01062,17.9772,-0.00121255,0.00485159,-0.0017338,0.0053123,-0.00167326,-1.31108,0.00421158,0.0137678,1112,1744,5.01065,-17.9772
-105,-720,5.00256,18.1058,-0.000879646,0.00435691,-0.00157136,0.00479224,-0.00131498,-1.30053,0.00371163,0.0120059,1119,1744,5.00256,-18.1058
-98,-720,5.0105,18.2035,-0.000696179,0.0038132,-0.00131998,0.00417117,-0.00105415,-1.30597,0.00319074,0.00941417,1126,1744,5.01044,-18.2035
-91,-720,4.98755,18.3029,-0.000435305,0.00342215,-0.00104322,0.0036862,-0.000699361,-1.32289,0.00272072,0.00908581,1133,1744,4.98749,-18.3029
-84,-720,4.9834,18.4263,-0.00024905,0.00311701,-0.000732032,0.00326932,-0.000401357,-1.36566,0.00232491,0.0101569,1140,1744,4.98343,-18.4262
-77,-720,4.99048,18.5493,2.89631e-05,0.00267378,-0.000458223,0.00275092,-4.81755e-05,-1.40402,0.00185022,0.0127877,1147,1744,4.99047,-18.5493
-70,-720,4.97632,18.6428,0.000123373,0.0016157,-0.000261909,0.00166033,7.8741e-05,-1.40201,0.00108159,0.0110895,1154,1744,4.97633,-18.6428
-63,-720,4.95532,18.7014,-0.000165812,0.000796311,-0.000274438,0.000869087,-0.000238588,-1.31158,0.000673165,0.0106187,1161,1744,4.95528,-18.7014
-56,-720,4.9696,18.7961,-0.000153038,0.000886282,7.84762e-06,0.000886341,-0.000153098,1.56325,0.000647984,0.012461,1168,1744,4.96955,-18.7962
-49,-720,4.95935,18.8798,8.8456e-05,0.000808098,0.000178003,0.00084972,4.68344e-05,1.3411,0.000551532,0.0188768,1175,1744,4.95937,-18.8797
-42,-720,4.98267,18.9227,0.000294988,0.000430472,0.000328542,0.000698183,2.72775e-05,0.887069,0.000456634,0.0205699,1182,1744,4.9827,-18.9228
-35,-720,4.99951,18.9883,0.00064544,-1.27419e-05,0.00044148,0.00086699,-0.000234292,0.465114,0.00066989,0.0187188,1189,1744,4.9995,-18.9883
-28,-720,4.97754,19.0875,0.000848458,-0.000520468,0.000600872,0.00107478,-0.000746794,0.360227,0.00105736,0.0119534,1196,1744,4.97751,-19.0875
-21,-720,4.97168,19.166,0.000985772,-0.0011197,0.000831965,0.00127483,-0.00140876,0.334396,0.00155001,0.00987431,1203,1744,4.97171,-19.1661
-14,-720,4.979,19.2037,0.00114498,-0.00169316,0.00110352,0.00152355,-0.00207173,0.330478,0.00208377,0.0117441,1210,1744,4.979,-19.2037
-7,-720,4.98987,19.2581,0.00130187,-0.00197743,0.00147993,0.00187099,-0.00254654,0.367123,0.00256039,0.0121424,1217,1744,4.98989,-19.2581
0,-720,5.00439,19.3123,0.00142741,-0.00214241,0.00185931,0.00221989,-0.00293489,0.402905,0.00298564,0.0126115,1224,1744,5.00437,-19.3122
7,-720,5.01416,19.3534,0.00153009,-0.00219295,0.00222949,0.00257303,-0.00323589,0.437551,0.00336105,0.015223,1231,1744,5.01416,-19.3534
14,-720,5.02783,19.3848,0.00153958,-0.00207777,0.00260174,0.00289956,-0.00343775,0.481657,0.00366325,0.0141804,1238,1744,5.02784,-19.3848
21,-720,5.01831,19.4253,0.00153644,-0.00184044,0.00294848,0.0032457,-0.0035497,0.525366,0.00392464,0.0107867,1245,1744,5.01826,-19.4252
28,-720,5.01428,19.4613,0.00153416,-0.00153641,0.00325581,0.00359851,-0.00360076,0.565082,0.00415651,0.0105342,1252,1744,5.01428,-19.4613
35,-720,5.01379,19.4962,0.00150872,-0.0011552,0.00353501,0.00395438,-0.00360087,0.605228,0.00436362,0.0104085,1259,1744,5.01375,-19.4962
42,-720,5.00183,19.5292,0.00132562,-0.000806803,0.00370083,0.00411077,-0.00359195,0.645146,0.00445053,0.0105434,1266,1744,5.00187,-19.5291
49,-720,5.00476,19.5314,0.00102946,-0.000635663,0.00360445,0.00389625,-0.00350246,0.671898,0.00427366,0.0111195,1273,1744,5.00476,-19.5314
56,-720,5.02417,19.5419,0.000847082,-0.000629817,0.00338764,0.00357582,-0.00335856,0.678085,0.00400422,0.00974466,1280,1744,5.02417,-19.5419
63,-720,5.03137,19.5549,0.000657359,-0.000825002,0.00305903,0.00306371,-0.00323136,0.666542,0.00363489,0.0116995,1287,1744,5.03132,-19.555
70,-720,5.03821,19.5586,0.000454766,-0.0012199,0.00267617,0.00242154,-0.00318668,0.63378,0.00324793,0.0125047,1294,1744,5.03817,-19.5586
77,-720,5.05005,19.5618,0.000534103,-0.00164954,0.002251,0.0019441,-0.00305954,0.559595,0.00291268,0.0139048,1301,1744,5.05007,-19.5618
84,-720,5.06982,19.5544,0.000711727,-0.00220358,0.00180406,0.00157342,-0.00306528,0.445603,0.00272393,0.0145523,1308,1744,5.06986,-19.5545
91,-720,5.08313,19.5602,0.000834075,-0.00281089,0.00136891,0.00129093,-0.00326774,0.32211,0.00271318,0.0137507,1315,1744,5.08308,-19.5602
98,-720,5.0658,19.5541,0.00106952,-0.00342185,0.000993744,0.00127957,-0.0036319,0.208305,0.00294205,0.011939,1322,1744,5.06586,-19.5541
105,-720,5.05762,19.5543,0.00140078,-0.0038373,0.000632194,0.001476,-0.00391252,0.118426,0.00321533,0.0111654,1329,1744,5.05759,-19.5544
112,-720,5.07104,19.5533,0.00177908,-0.00412688,0.000421362,0.00180899,-0.00415679,0.0708669,0.00353214,0.0106727,1336,1744,5.07102,-19.5533
119,-720,5.07898,19.5317,0.00219453,-0.00428434,0.000301589,0.00220854,-0.00429835,0.0464159,0.00382079,0.0108914,1343,1744,5.07901,-19.5317
126,-720,5.08496,19.4902,0.00256694,-0.00419738,0.000319084,0.00258196,-0.00421239,0.0470324,0.00396019,0.0107138,1350,1744,5.08494,-19.4902
133,-720,5.08362,19.4708,0.00274733,-0.00384016,0.000446862,0.00277751,-0.00387034,0.0674232,0.00385538,0.012094,1357,1744,5.08357,-19.4708
140,-720,5.08325,19.4534,0.0027593,-0.00329356,0.00058053,0.00281447,-0.00334873,0.094759,0.00356278,0.0186608,1364,1744,5.08328,-19.4534
147,-720,5.06616,19.4055,0.00266439,-0.00263796,0.000710141,0.00275785,-0.00273142,0.130858,0.00316924,0.0200805,1371,1744,5.06613,-19.4055
154,-720,5.06934,19.3549,0.0023187,-0.00187707,0.000825537,0.00247529,-0.00203365,0.187449,0.0026074,0.0137771,1378,1744,5.06936,-19.3548
161,-720,5.10291,19.2828,0.00170958,-0.00114419,0.000792811,0.00191504,-0.00134965,0.253575,0.00189427,0.00993677,1385,1744,5.1029,-19.2828
168,-720,5.11707,19.2208,0.00122727,-0.000499224,0.000653269,0.00144659,-0.000718545,0.323906,0.00127338,0.00983726,1392,1744,5.11707,-19.2209
175,-720,5.11804,19.1692,0.000915682,-0.000135227,0.000387963,0.00104339,-0.000262933,0.317998,0.000797811,0.0148766,1399,1744,5.11801,-19.1692
182,-720,5.11633,19.1281,0.000560386,7.84012e-05,5.71455e-05,0.000567069,7.17185e-05,0.116413,0.000356552,0.0149803,1406,1744,5.1163,-19.1281
189,-720,5.11377,19.0677,0.000221245,0.000436059,-0.000285993,0.000634148,2.31555e-05,-0.965028,0.000415262,0.0125232,1413,1744,5.11382,-19.0677
196,-720,5.10767,19.0005,-9.78512e-06,0.000849138,-0.000644964,0.00119454,-0.000355188,-1.07912,0.000937461,0.0124767,1420,1744,5.1077,-19.0005
203,-720,5.0979,18.9242,-9.5643e-05,0.00165472,-0.00099524,0.00210485,-0.000545771,-1.14605,0.00161617,0.0139123,1427,1744,5.09793,-18.9242
210,-720,5.08911,18.8589,-8.59827e-05,0.00207789,-0.00124857,0.00264808,-0.000656169,-1.14241,0.00201995,0.0122769,1434,1744,5.08913,-18.8589
217,-720,5.08728,18.7574,-6.6724e-05,0.0025326,-0.00151417,0.00322839,-0.000762514,-1.14005,0.00244637,0.0117641,1441,1744,5.08724,-18.7575
224,-720,5.0885,18.6575,8.54686e-05,0.00290201,-0.00177892,0.00376262,-0.000775135,-1.12021,0.00280275,0.00906011,1448,1744,5.08845,-18.6574
231,-720,5.09155,18.5844,0.000228956,0.00328539,-0.00198702,0.0042639,-0.000749556,-1.11321,0.00312259,0.0096425,1455,1744,5.09153,-18.5844
238,-720,5.08398,18.4889,0.000479282,0.00363956,-0.00213455,0.00471519,-0.000596352,-1.10402,0.00335993,0.00850511,1462,1744,5.08399,-18.4889
245,-720,5.06787,18.4001,0.000750894,0.00399969,-0.0022501,0.00515047,-0.000399889,-1.09804,0.00357441,0.0103292,1469,1744,5.06793,-18.4002
252,-720,5.06848,18.3065,0.00096139,0.00433403,-0.0023376,0.00553007,-0.000234656,-1.09787,0.00376737,0.0102986,1476,1744,5.06846,-18.3066
259,-720,5.06689,18.2042,0.00119533,0.00477493,-0.00233652,0.00592838,4.18841e-05,-1.11223,0.00393836,0.00921823,1483,1744,5.06687,-18.2042
266,-720,5.05103,18.1123,0.00158024,0.00524956,-0.00252438,0.00653555,0.000294252,-1.09963,0.00426234,0.00818112,1490,1744,5.05103,-18.1123
273,-720,5.04517,17.996,0.00214271,0.00735581,-0.00352684,0.00913477,0.000363754,-1.10363,0.00597229,0.0155982,1497,1744,5.04511,-17.996
280,-720,4.99487,17.8628,0.00226651,0.00869102,-0.00394481,0.010566,0.000391515,-1.1271,0.0069172,0.0224473,1504,1744,4.99481,-17.8628
287,-720,4.94446,17.6849,0.00225708,0.00967667,-0.00407386,0.0114768,0.000456983,-1.15473,0.00750349,0.0341294,1511,1744,4.94446,-17.685
294,-720,4.9801,17.5209,0.0025486,0.0111018,-0.00473878,0.0132084,0.000441996,-1.15249,0.00866205,0.0381726,1518,1744,4.98016,-17.5209
301,-720,4.94128,17.3872,0.00245941,0.0123874,-0.00536053,0.0147293,0.00011748,-1.1589,0.00978063,0.0376471,1525,1744,4.94128,-17.3872
308,-720,4.93188,17.1667,0.00197195,0.0130574,-0.00599857,0.015682,-0.000652617,-1.15836,0.0106788,0.0393805,1532,1744,4.93185,-17.1667
315,-720,4.96948,17.1493,0.0011708,0.0146867,-0.00634609,0.0171993,-0.00134178,-1.19381,0.0119386,0.0442369,1539,1744,4.96948,-17.1493
322,-720,5.25232,16.235,-0.00064455,0.0163465,-0.00651999,0.01856,-0.0028581,-1.2435,0.0134278,0.0491976,1546,1744,5.25228,-16.235
329,-720,4.98206,16.9126,0,0,0,0,0,0,0,-1,1553,1744,4.982,-16.9126
336,-720,4.51892,17.4224,0,0,0,0,0,0,0,-1,1560,1744,4.51886,-17.4224
343,-720,5.19104,15.8707,0,0,0,0,0,0,0,-1,1567,1744,5.19098,-15.8707
350,-720,4.0741,11.1836,0,0,0,0,0,0,0,-1,1574,1744,4.07412,-11.1836
357,-720,5.23975,15.9412,0,0,0,0,0,0,0,-1,1581,1744,5.23978,-15.9412
364,-720,7.06262,19.2472,0,0,0,0,0,0,0,-1,1588,1744,7.06262,-19.2471
371,-720,6.59607,18.9454,-0.023699,-0.00732315,0.02746,0.0131437,-0.0441658,0.93029,0.0346659,0.045912,1595,1744,6.59608,-18.9454
378,-720,6.49023,19.1788,-0.0257101,-0.00648752,0.0414383,0.0264395,-0.0586372,0.899354,0.0502779,0.0453971,1602,1744,6.49029,-19.1788
385,-720,6.70081,20.3156,0,0,0,0,0,0,0,-1,1609,1744,6.70076,-20.3156
392,-720,-0.195923,11.8507,0,0,0,0,0,0,0,-1,1616,1744,-0.195951,-11.8507
399,-720,-0.429932,12.9296,0,0,0,0,0,0,0,-1,1623,1744,-0.429942,-12.9296
406,-720,0,0,0,0,0,0,0,0,0,-1,1630,1744,0,0
413,-720,0,0,0,0,0,0,0,0,0,-1,1637,1744,0,0
420,-720,0,0,0,0,0,0,0,0,0,-1,1644,1744,0,0
427,-720,0,0,0,0,0,0,0,0,0,-1,1651,1744,0,0
434,-720,0,0,0,0,0,0,0,0,0,-1,1658,1744,0,0
441,-720,0,0,0,0,0,0,0,0,0,-1,1665,1744,0,0
448,-720,0,0,0,0,0,0,0,0,0,-1,1672,1744,0,0
455,-720,0,0,0,0,0,0,0,0,0,-1,1679,1744,0,0
462,-720,0,0,0,0,0,0,0,0,0,-1,1686,1744,0,0
469,-720,0,0,0,0,0,0,0,0,0,-1,1693,1744,0,0
476,-720,0,0,0,0,0,0,0,0,0,-1,1700,1744,0,0
483,-720,0,0,0,0,0,0,0,0,0,-1,1707,1744,0,0
490,-720,0,0,0,0,0,0,0,0,0,-1,1714,1744,0,0
497,-720,0,0,0,0,0,0,0,0,0,-1,1721,1744,0,0
504,-720,0,0,0,0,0,0,0,0,0,-1,1728,1744,0,0
511,-720,0,0,0,0,0,0,0,0,0,-1,1735,1744,0,0
518,-720,0,0,0,0,0,0,0,0,0,-1,1742,1744,0,0
525,-720,0,0,0,0,0,0,0,0,0,-1,1749,1744,0,0
532,-720,0,0,0,0,0,0,0,0,0,-1,1756,1744,0,0
539,-720,0,0,0,0,0,0,0,0,0,-1,1763,1744,0,0
546,-720,0,0,0,0,0,0,0,0,0,-1,1770,1744,0,0
553,-720,0,0,0,0,0,0,0,0,0,-1,1777,1744,0,0
560,-720,0,0,0,0,0,0,0,0,0,-1,1784,1744,0,0
567,-720,0,0,0,0,0,0,0,0,0,-1,1791,1744,0,0
574,-720,0,0,0,0,0,0,0,0,0,-1,1798,1744,0,0
581,-720,0,0,0,0,0,0,0,0,0,-1,1805,1744,0,0
588,-720,0,0,0,0,0,0,0,0,0,-1,1812,1744,0,0
595,-720,0,0,0,0,0,0,0,0,0,-1,1819,1744,0,0
602,-720,0,0,0,0,0,0,0,0,0,-1,1826,1744,0,0
609,-720,0,0,0,0,0,0,0,0,0,-1,1833,1744,0,0
616,-720,0,0,0,0,0,0,0,0,0,-1,1840,1744,0,0
623,-720,0,0,0,0,0,0,0,0,0,-1,1847,1744,0,0
630,-720,0,0,0,0,0,0,0,0,0,-1,1854,1744,0,0
637,-720,0,0,0,0,0,0,0,0,0,-1,1861,1744,0,0
644,-720,0,0,0,0,0,0,0,0,0,-1,1868,1744,0,0
651,-720,0,0,0,0,0,0,0,0,0,-1,1875,1744,0,0
658,-720,0,0,0,0,0,0,0,0,0,-1,1882,1744,0,0
665,-720,0,0,0,0,0,0,0,0,0,-1,1889,1744,0,0
672,-720,0,0,0,0,0,0,0,0,0,-1,1896,1744,0,0
679,-720,0,0,0,0,0,0,0,0,0,-1,1903,1744,0,0
686,-720,0,0,0,0,0,0,0,0,0,-1,1910,1744,0,0
693,-720,0,0,0,0,0,0,0,0,0,-1,1917,1744,0,0
700,-720,0,0,0,0,0,0,0,0,0,-1,1924,1744,0,0
707,-720,0,0,0,0,0,0,0,0,0,-1,1931,1744,0,0
714,-720,0,0,0,0,0,0,0,0,0,-1,1938,1744,0,0
721,-720,0,0,0,0,0,0,0,0,0,-1,1945,1744,0,0
728,-720,0,0,0,0,0,0,0,0,0,-1,1952,1744,0,0
735,-720,0,0,0,0,0,0,0,0,0,-1,1959,1744,0,0
742,-720,0,0,0,0,0,0,0,0,0,-1,1966,1744,0,0
749,-720,0,0,0,0,0,0,0,0,0,-1,1973,1744,0,0
756,-720,0,0,0,0,0,0,0,0,0,-1,1980,1744,0,0
763,-720,0,0,0,0,0,0,0,0,0,-1,1987,1744,0,0
770,-720,0,0,0,0,0,0,0,0,0,-1,1994,1744,0,0
777,-720,0,0,0,0,0,0,0,0,0,-1,2001,1744,0,0
784,-720,0,0,0,0,0,0,0,0,0,-1,2008,1744,0,0
791,-720,0,0,0,0,0,0,0,0,0,-1,2015,1744,0,0
798,-720,0,0,0,0,0,0,0,0,0,-1,2022,1744,0,0
805,-720,0,0,0,0,0,0,0,0,0,-1,2029,1744,0,0
812,-720,0,0,0,0,0,0,0,0,0,-1,2036,1744,0,0
-700,-727,0,0,0,0,0,0,0,0,0,-1,524,1751,0,0
-693,-727,0,0,0,0,0,0,0,0,0,-1,531,1751,0,0
-686,-727,0,0,0,0,0,0,0,0,0,-1,538,1751,0,0
-679,-727,0,0,0,0,0,0,0,0,0,-1,545,1751,0,0
-672,-727,0,0,0,0,0,0,0,0,0,-1,552,1751,0,0
-665,-727,0,0,0,0,0,0,0,0,0,-1,559,1751,0,0
-658,-727,0,0,0,0,0,0,0,0,0,-1,566,1751,0,0
-651,-727,0,0,0,0,0,0,0,0,0,-1,573,1751,0,0
-644,-727,0,0,0,0,0,0,0,0,0,-1,580,1751,0,0
-637,-727,0,0,0,0,0,0,0,0,0,-1,587,1751,0,0
-630,-727,0,0,0,0,0,0,0,0,0,-1,594,1751,0,0
-623,-727,0,0,0,0,0,0,0,0,0,-1,601,1751,0,0
-616,-727,0,0,0,0,0,0,0,0,0,-1,608,1751,0,0
-609,-727,0,0,0,0,0,0,0,0,0,-1,615,1751,0,0
-602,-727,0,0,0,0,0,0,0,0,0,-1,622,1751,0,0
-595,-727,0,0,0,0,0,0,0,0,0,-1,629,1751,0,0
-588,-727,0,0,0,0,0,0,0,0,0,-1,636,1751,0,0
-581,-727,0,0,0,0,0,0,0,0,0,-1,643,1751,0,0
-574,-727,0,0,0,0,0,0,0,0,0,-1,650,1751,0,0
-567,-727,0,0,0,0,0,0,0,0,0,-1,657,1751,0,0
-560,-727,0,0,0,0,0,0,0,0,0,-1,664,1751,0,0
-553,-727,0,0,0,0,0,0,0,0,0,-1,671,1751,0,0
-546,-727,0,0,0,0,0,0,0,0,0,-1,678,1751,0,0
-539,-727,0,0,0,0,0,0,0,0,0,-1,685,1751,0,0
-532,-727,0,0,0,0,0,0,0,0,0,-1,692,1751,0,0
-525,-727,0,0,0,0,0,0,0,0,0,-1,699,1751,0,0
-518,-727,0,0,0,0,0,0,0,0,0,-1,706,1751,0,0
-511,-727,0,0,0,0,0,0,0,0,0,-1,713,1751,0,0
-504,-727,0,0,0,0,0,0,0,0,0,-1,720,1751,0,0
-497,-727,0,0,0,0,0,0,0,0,0,-1,727,1751,0,0
-490,-727,0,0,0,0,0,0,0,0,0,-1,734,1751,0,0
-483,-727,0,0,0,0,0,0,0,0,0,-1,741,1751,0,0
-476,-727,0,0,0,0,0,0,0,0,0,-1,748,1751,0,0
-469,-727,0,0,0,0,0,0,0,0,0,-1,755,1751,0,0
-462,-727,0,0,0,0,0,0,0,0,0,-1,762,1751,0,0
-455,-727,0,0,0,0,0,0,0,0,0,-1,769,1751,0,0
-448,-727,0,0,0,0,0,0,0,0,0,-1,776,1751,0,0
-441,-727,0,0,0,0,0,0,0,0,0,-1,783,1751,0,0
-434,-727,0,0,0,0,0,0,0,0,0,-1,790,1751,0,0
-427,-727,0,0,0,0,0,0,0,0,0,-1,797,1751,0,0
-420,-727,0,0,0,0,0,0,0,0,0,-1,804,1751,0,0
-413,-727,0,0,0,0,0,0,0,0,0,-1,811,1751,0,0
-406,-727,0,0,0,0,0,0,0,0,0,-1,818,1751,0,0
-399,-727,0,0,0,0,0,0,0,0,0,-1,825,1751,0,0
-392,-727,0,0,0,0,0,0,0,0,0,-1,832,1751,0,0
-385,-727,0,0,0,0,0,0,0,0,0,-1,839,1751,0,0
-378,-727,0,0,0,0,0,0,0,0,0,-1,846,1751,0,0
-371,-727,0,0,0,0,0,0,0,0,0,-1,853,1751,0,0
-364,-727,0,0,0,0,0,0,0,0,0,-1,860,1751,0,0
-357,-727,0,0,0,0,0,0,0,0,0,-1,867,1751,0,0
-350,-727,0,0,0,0,0,0,0,0,0,-1,874,1751,0,0
-343,-727,0,0,0,0,0,0,0,0,0,-1,881,1751,0,0
-336,-727,0,0,0,0,0,0,0,0,0,-1,888,1751,0,0
-329,-727,0,0,0,0,0,0,0,0,0,-1,895,1751,0,0
-322,-727,0,0,0,0,0,0,0,0,0,-1,902,1751,0,0
-315,-727,0,0,0,0,0,0,0,0,0,-1,909,1751,0,0
-308,-727,0,0,0,0,0,0,0,0,0,-1,916,1751,0,0
-301,-727,0,0,0,0,0,0,0,0,0,-1,923,1751,0,0
-294,-727,0,0,0,0,0,0,0,0,0,-1,930,1751,0,0
-287,-727,0,0,0,0,0,0,0,0,0,-1,937,1751,0,0
-280,-727,0,0,0,0,0,0,0,0,0,-1,944,1751,0,0
-273,-727,0,0,0,0,0,0,0,0,0,-1,951,1751,0,0
-266,-727,4.24805,7.61145,0,0,0,0,0,0,0,-1,958,1751,4.24802,-7.6115
-259,-727,3.65228,5.4082,0,0,0,0,0,0,0,-1,965,1751,3.65229,-5.40818
-252,-727,7.46558,15.4333,0,0,0,0,0,0,0,-1,972,1751,7.46559,-15.4333
-245,-727,6.54272,15.9471,-0.0832751,0.145888,-0.0485811,0.155762,-0.0931486,-1.37029,0.145216,0.0458381,979,1751,6.54274,-15.9472
-238,-727,5.71814,16.4174,-0.0778837,0.109172,-0.045205,0.119524,-0.0882354,-1.34568,0.120402,0.0490926,986,1751,5.71815,-16.4174
-231,-727,7.19049,20.2837,0,0,0,0,0,0,0,-1,993,1751,7.19047,-20.2837
-224,-727,6.41272,19.2012,0,0,0,0,0,0,0,-1,1000,1751,6.41269,-19.2012
-217,-727,6.03772,18.6136,-0.0598271,0.0274178,-0.0349824,0.0397121,-0.0721214,-1.23284,0.0654646,0.0480223,1007,1751,6.03773,-18.6137
-210,-727,5.50024,18.3301,-0.0535816,0.0119826,-0.0317746,0.0248545,-0.0664536,-1.1859,0.0545099,0.0446362,1014,1751,5.50022,-18.3301
-203,-727,4.99561,17.9253,0,0,0,0,0,0,0,-1,1021,1751,4.99566,-17.9253
-196,-727,4.11609,15.9137,0,0,0,0,0,0,0,-1,1028,1751,4.11607,-15.9137
-189,-727,5.91272,17.6641,0,0,0,0,0,0,0,-1,1035,1751,5.91268,-17.6641
-182,-727,5.08557,17.1924,0,0,0,0,0,0,0,-1,1042,1751,5.08562,-17.1924
-175,-727,5.33093,17.3113,0,0,0,0,0,0,0,-1,1049,1751,5.33088,-17.3113
-168,-727,5.3916,17.2526,0,0,0,0,0,0,0,-1,1056,1751,5.3916,-17.2526
-161,-727,4.91052,17.2286,0,0,0,0,0,0,0,-1,1063,1751,4.91055,-17.2286
-154,-727,5.30908,17.0712,-0.0061774,0.00178064,-0.00471529,0.00397143,-0.00836819,-1.13586,0.00727347,0.04618,1070,1751,5.30909,-17.0712
-147,-727,5.25305,17.3112,-0.00499841,0.00564855,-0.00364894,0.00677908,-0.00612894,-1.27035,0.0074556,0.0401075,1077,1751,5.25302,-17.3112
-140,-727,5.10474,17.3926,-0.00421077,0.00700885,-0.00326982,0.00789224,-0.00509417,-1.30693,0.00755549,0.028508,1084,1751,5.10477,-17.3926
-133,-727,5.16309,17.5345,-0.00322325,0.00831894,-0.00297609,0.00904112,-0.00394543,-1.33274,0.00768778,0.0210846,1091,1751,5.16307,-17.5346
-126,-727,5.10596,17.7289,-0.00265689,0.00854257,-0.002965,0.0092791,-0.00339342,-1.32732,0.00757496,0.0149248,1098,1751,5.10596,-17.7288
-119,-727,5.12195,17.89,-0.00226292,0.00834004,-0.00286724,0.00906573,-0.00298861,-1.32291,0.00724839,0.0125635,1105,1751,5.122,-17.89
-112,-727,5.11035,17.9808,-0.00174283,0.00781425,-0.00270081,0.00852468,-0.00245326,-1.31358,0.00665339,0.0134265,1112,1751,5.11032,-17.9809
-105,-727,5.0741,18.1064,-0.0013854,0.0070632,-0.00250886,0.00775206,-0.00207426,-1.30283,0.00598059,0.0120634,1119,1751,5.07404,-18.1064
-98,-727,5.08374,18.2023,-0.0012025,0.00622272,-0.00222364,0.0068377,-0.00181748,-1.30098,0.00526982,0.0103095,1126,1751,5.08375,-18.2022
-91,-727,5.09277,18.308,-0.000948319,0.00551817,-0.00190144,0.00603584,-0.00146599,-1.30499,0.00459124,0.0101667,1133,1751,5.09273,-18.308
-84,-727,5.08362,18.4058,-0.000783856,0.00489858,-0.00151348,0.00527655,-0.00116182,-1.32607,0.00396216,0.0105441,1140,1751,5.08359,-18.4058
-77,-727,5.07483,18.509,-0.000457472,0.0040543,-0.00111298,0.00431391,-0.000717087,-1.34163,0.00314236,0.0117703,1147,1751,5.07479,-18.509
-70,-727,5.05969,18.6118,-0.000397017,0.0021004,-0.000771331,0.00231942,-0.000616036,-1.29413,0.00178737,0.0126572,1154,1751,5.05964,-18.6119
-63,-727,5.05713,18.6954,-0.000879242,0.000850853,-0.000812853,0.00117283,-0.00120122,-1.19365,0.0013707,0.0104183,1161,1751,5.05707,-18.6954
-56,-727,5.04993,18.7905,-0.000863944,0.00131964,-0.000324616,0.00136688,-0.00091118,-1.4263,0.00132398,0.0108053,1168,1751,5.04991,-18.7906
-49,-727,5.03577,18.8809,-0.000583266,0.00151007,-0.000131164,0.00151825,-0.000591452,-1.50846,0.00125661,0.0138278,1175,1751,5.03572,-18.8808
-42,-727,5.0509,18.9357,-0.000432799,0.0012469,-6.37473e-05,0.00124932,-0.000435215,-1.53292,0.00100972,0.016506,1182,1751,5.05094,-18.9357
-35,-727,5.05347,19.0087,-6.55738e-05,0.000868657,-0.000137836,0.000888569,-8.54857e-05,-1.42733,0.000622833,0.0153372,1189,1751,5.05345,-19.0087
-28,-727,5.03552,19.0721,6.08906e-05,0.000411303,-0.000108369,0.000442109,3.00845e-05,-1.29383,0.00028524,0.00971884,1196,1751,5.03551,-19.0722
-21,-727,5.03577,19.1451,0.000134254,-5.96565e-05,5.25579e-05,0.000147583,-7.29857e-05,0.248373,0.000129751,0.0107537,1203,1751,5.03575,-19.1452
-14,-727,5.03638,19.2023,0.000200784,-0.000503514,0.00023879,0.000274111,-0.000576841,0.297936,0.000501553,0.0122838,1210,1751,5.03635,-19.2023
-7,-727,5.03589,19.2681,0.000250992,-0.000745958,0.000532096,0.000481628,-0.000976594,0.409005,0.000857919,0.0150849,1217,1751,5.03594,-19.2681
0,-727,5.05798,19.3157,0.000276174,-0.00095293,0.000851742,0.000711926,-0.00138868,0.472885,0.00123359,0.0141541,1224,1751,5.05795,-19.3157
7,-727,5.05432,19.338,0.000258249,-0.00118908,0.00109202,0.000844624,-0.00177546,0.492778,0.0015442,0.0143532,1231,1751,5.05434,-19.3381
14,-727,5.03833,19.3787,0.000176428,-0.00126183,0.00121862,0.000872283,-0.00195769,0.518837,0.00167346,0.0147611,1238,1751,5.03833,-19.3786
21,-727,5.03271,19.4341,0.000137012,-0.00128554,0.00130122,0.000908668,-0.0020572,0.535275,0.00175462,0.0124489,1245,1751,5.03267,-19.434
28,-727,5.04785,19.4701,0.000145851,-0.00121904,0.00137869,0.00100175,-0.00207494,0.55558,0.00181199,0.0106427,1252,1751,5.04782,-19.4701
35,-727,5.05933,19.501,0.000172924,-0.00108712,0.00140455,0.00108228,-0.00199648,0.574571,0.00180346,0.0118177,1259,1751,5.05935,-19.501
42,-727,5.02307,19.5137,0.000172412,-0.00101297,0.00134823,0.00105247,-0.00189303,0.578309,0.00172351,0.0124017,1266,1751,5.02312,-19.5137
49,-727,4.99731,19.5201,5.78454e-05,-0.00107944,0.00114992,0.000772042,-0.00179363,0.555778,0.00151993,0.0109645,1273,1751,4.99728,-19.5201
56,-727,5.00989,19.5592,-1.20573e-05,-0.00125012,0.000912239,0.000471353,-0.00173353,0.487293,0.00134072,0.00926,1280,1751,5.00988,-19.5592
63,-727,5.02466,19.5699,-4.46208e-05,-0.00155089,0.000596369,0.000162904,-0.00175842,0.334875,0.00123018,0.0107214,1287,1751,5.02469,-19.57
70,-727,5.03467,19.579,-2.88883e-06,-0.00191905,0.00025368,3.0127e-05,-0.00195206,0.12942,0.00131153,0.0121229,1294,1751,5.03462,-19.579
77,-727,5.05981,19.6067,6.82014e-05,-0.00221469,-4.91505e-05,6.92592e-05,-0.00221574,-0.0215167,0.00150078,0.0144628,1301,1751,5.05983,-19.6067
84,-727,5.06494,19.5654,8.63108e-05,-0.0025937,-0.000309546,0.000121599,-0.00262899,-0.113511,0.00179456,0.0160128,1308,1751,5.06489,-19.5654
91,-727,5.0918,19.532,0.000110201,-0.00301245,-0.000494971,0.000186781,-0.00308903,-0.153498,0.00212435,0.0162696,1315,1751,5.09185,-19.5319
98,-727,5.07837,19.536,0.000162438,-0.003414,-0.00062385,0.000268135,-0.0035197,-0.167832,0.00244076,0.0133982,1322,1751,5.07842,-19.5361
105,-727,5.06104,19.5302,0.000241506,-0.00358351,-0.000763438,0.000388251,-0.00373026,-0.1899,0.00262584,0.0125816,1329,1751,5.061,-19.5301
112,-727,5.05847,19.5352,0.000359625,-0.00358371,-0.000734214,0.000491892,-0.00371598,-0.178237,0.00265651,0.0110996,1336,1751,5.05849,-19.5351
119,-727,5.06042,19.5247,0.000504609,-0.00355152,-0.000610416,0.000594481,-0.00364139,-0.14618,0.00264809,0.00884954,1343,1751,5.06045,-19.5246
126,-727,5.06433,19.4637,0.000650233,-0.00331057,-0.000446558,0.000699956,-0.00336029,-0.11089,0.00250631,0.0100056,1350,1751,5.06438,-19.4637
133,-727,5.06348,19.4623,0.000714839,-0.00289977,-0.000253949,0.000732593,-0.00291752,-0.0697995,0.0022297,0.0144608,1357,1751,5.06346,-19.4623
140,-727,5.07471,19.4523,0.000752421,-0.00237786,-2.65521e-05,0.000752646,-0.00237809,-0.00848152,0.00188699,0.0214408,1364,1751,5.07465,-19.4523
147,-727,5.05847,19.3983,0.000767124,-0.00180503,0.000184406,0.000780278,-0.00181818,0.071208,0.0015396,0.018535,1371,1751,5.05844,-19.3983
154,-727,5.04736,19.3396,0.000699076,-0.00120455,0.000282661,0.000740161,-0.00124564,0.144338,0.00115882,0.0117485,1378,1751,5.04734,-19.3396
161,-727,5.06482,19.2827,0.000522051,-0.000669411,0.000288798,0.000588363,-0.000735723,0.225699,0.000766037,0.00925986,1385,1751,5.06487,-19.2827
168,-727,5.06189,19.2325,0.000310366,-0.000201841,0.000279607,0.000433431,-0.000324906,0.414621,0.000439318,0.011563,1392,1751,5.06192,-19.2326
175,-727,5.0708,19.1818,1.96606e-05,-7.1869e-05,0.000203829,0.000182799,-0.000235007,0.674967,0.000241848,0.0161859,1399,1751,5.07082,-19.1817
182,-727,5.07678,19.1345,-6.66763e-05,1.10238e-05,-0.000221434,0.00019699,-0.000252643,-0.872238,0.000260258,0.0182817,1406,1751,5.07684,-19.1345
189,-727,5.03979,19.0647,-0.000205473,0.000433179,-0.000735434,0.000915621,-0.000687915,-0.990217,0.000928908,0.0115835,1413,1751,5.03974,-19.0647
196,-727,5.03125,18.9915,-0.000383487,0.00107156,-0.00127184,0.00180926,-0.00112118,-1.0452,0.00170737,0.0125221,1420,1751,5.0313,-18.9915
203,-727,5.01624,18.9052,-0.000422387,0.00243177,-0.00179402,0.00329709,-0.0012877,-1.12138,0.00273046,0.0150326,1427,1751,5.0162,-18.9052
210,-727,5.01001,18.8557,-0.00032508,0.00314165,-0.00211488,0.00414275,-0.00132617,-1.12869,0.00329411,0.0148705,1434,1751,5.01,-18.8557
217,-727,5.00427,18.7753,-0.000202111,0.00387447,-0.00244168,0.00501681,-0.00134445,-1.1332,0.00387131,0.01114,1441,1751,5.00423,-18.7752
224,-727,5.00293,18.6573,2.97367e-05,0.00445292,-0.0027702,0.00578607,-0.00130341,-1.12227,0.00435732,0.0112027,1448,1751,5.00288,-18.6574
231,-727,4.99854,18.5789,0.000246039,0.00502251,-0.00301136,0.00647771,-0.00120916,-1.12065,0.00477286,0.00973915,1455,1751,4.99857,-18.5789
238,-727,4.99951,18.4751,0.00058971,0.00552555,-0.0031717,0.00707638,-0.000961117,-1.11602,0.00506842,0.0102736,1462,1751,4.99953,-18.4751
245,-727,4.98059,18.3834,0.000974149,0.00600622,-0.00328773,0.00763019,-0.000649816,-1.112,0.00531665,0.00939009,1469,1751,4.98058,-18.3834
252,-727,4.96472,18.2927,0.00129872,0.00641801,-0.00335902,0.00808149,-0.000364758,-1.11097,0.00551327,0.0103541,1476,1751,4.96473,-18.2928
259,-727,4.97546,18.1958,0.0016448,0.00693536,-0.00332643,0.0085401,4.00646e-05,-1.12131,0.00568009,0.0149853,1483,1751,4.97544,-18.1958
266,-727,5.01733,18.1388,0.00220372,0.00748381,-0.0035439,0.00926293,0.0004246,-1.10553,0.00603873,0.0239712,1490,1751,5.0173,-18.1388
273,-727,5.16553,18.0923,0.00302377,0.0101451,-0.00485325,0.0126037,0.000565093,-1.10188,0.00822061,0.044899,1497,1751,5.16555,-18.0923
280,-727,5.03333,18.0192,0,0,0,0,0,0,0,-1,1504,1751,5.03328,-18.0192
287,-727,4.75537,17.652,0,0,0,0,0,0,0,-1,1511,1751,4.75537,-17.652
294,-727,4.74854,17.4274,0,0,0,0,0,0,0,-1,1518,1751,4.74851,-17.4274
301,-727,4.80676,17.3542,0,0,0,0,0,0,0,-1,1525,1751,4.80675,-17.3543
308,-727,4.79639,16.9117,0,0,0,0,0,0,0,-1,1532,1751,4.79637,-16.9117
315,-727,4.87195,16.895,0,0,0,0,0,0,0,-1,1539,1751,4.87198,-16.895
322,-727,5.26563,15.2443,0,0,0,0,0,0,0,-1,1546,1751,5.26567,-15.2443
329,-727,6.61853,11.6267,0,0,0,0,0,0,0,-1,1553,1751,6.61859,-11.6267
336,-727,3.34875,7.61792,0,0,0,0,0,0,0,-1,1560,1751,3.34872,-7.61791
343,-727,2.41699,8.72095,0,0,0,0,0,0,0,-1,1567,1751,2.41702,-8.72098
350,-727,3.89783,7.50195,0,0,0,0,0,0,0,-1,1574,1751,3.89782,-7.50193
357,-727,4.48462,10.2948,0,0,0,0,0,0,0,-1,1581,1751,4.48464,-10.2948
364,-727,6.96729,17.2365,0,0,0,0,0,0,0,-1,1588,1751,6.96732,-17.2365
371,-727,6.8031,18.2258,0,0,0,0,0,0,0,-1,1595,1751,6.80307,-18.2258
378,-727,6.6825,19.5815,0,0,0,0,0,0,0,-1,1602,1751,6.68251,-19.5815
385,-727,3.19275,14.7679,0,0,0,0,0,0,0,-1,1609,1751,3.19274,-14.768
392,-727,0,0,0,0,0,0,0,0,0,-1,1616,1751,0,0
399,-727,0,0,0,0,0,0,0,0,0,-1,1623,1751,0,0
406,-727,0,0,0,0,0,0,0,0,0,-1,1630,1751,0,0
413,-727,0,0,0,0,0,0,0,0,0,-1,1637,1751,0,0
420,-727,0,0,0,0,0,0,0,0,0,-1,1644,1751,0,0
427,-727,0,0,0,0,0,0,0,0,0,-1,1651,1751,0,0
434,-727,0,0,0,0,0,0,0,0,0,-1,1658,1751,0,0
441,-727,0,0,0,0,0,0,0,0,0,-1,1665,1751,0,0
448,-727,0,0,0,0,0,0,0,0,0,-1,1672,1751,0,0
455,-727,0,0,0,0,0,0,0,0,0,-1,1679,1751,0,0
462,-727,0,0,0,0,0,0,0,0,0,-1,1686,1751,0,0
469,-727,0,0,0,0,0,0,0,0,0,-1,1693,1751,0,0
476,-727,0,0,0,0,0,0,0,0,0,-1,1700,1751,0,0
483,-727,0,0,0,0,0,0,0,0,0,-1,1707,1751,0,0
490,-727,0,0,0,0,0,0,0,0,0,-1,1714,1751,0,0
497,-727,0,0,0,0,0,0,0,0,0,-1,1721,1751,0,0
504,-727,0,0,0,0,0,0,0,0,0,-1,1728,1751,0,0
511,-727,0,0,0,0,0,0,0,0,0,-1,1735,1751,0,0
518,-727,0,0,0,0,0,0,0,0,0,-1,1742,1751,0,0
525,-727,0,0,0,0,0,0,0,0,0,-1,1749,1751,0,0
532,-727,0,0,0,0,0,0,0,0,0,-1,1756,1751,0,0
539,-727,0,0,0,0,0,0,0,0,0,-1,1763,1751,0,0
546,-727,0,0,0,0,0,0,0,0,0,-1,1770,1751,0,0
553,-727,0,0,0,0,0,0,0,0,0,-1,1777,1751,0,0
560,-727,0,0,0,0,0,0,0,0,0,-1,1784,1751,0,0
567,-727,0,0,0,0,0,0,0,0,0,-1,1791,1751,0,0
574,-727,0,0,0,0,0,0,0,0,0,-1,1798,1751,0,0
581,-727,0,0,0,0,0,0,0,0,0,-1,1805,1751,0,0
588,-727,0,0,0,0,0,0,0,0,0,-1,1812,1751,0,0
595,-727,0,0,0,0,0,0,0,0,0,-1,1819,1751,0,0
602,-727,0,0,0,0,0,0,0,0,0,-1,1826,1751,0,0
609,-727,0,0,0,0,0,0,0,0,0,-1,1833,1751,0,0
616,-727,0,0,0,0,0,0,0,0,0,-1,1840,1751,0,0
623,-727,0,0,0,0,0,0,0,0,0,-1,1847,1751,0,0
630,-727,0,0,0,0,0,0,0,0,0,-1,1854,1751,0,0
637,-727,0,0,0,0,0,0,0,0,0,-1,1861,1751,0,0
644,-727,0,0,0,0,0,0,0,0,0,-1,1868,1751,0,0
651,-727,0,0,0,0,0,0,0,0,0,-1,1875,1751,0,0
658,-727,0,0,0,0,0,0,0,0,0,-1,1882,1751,0,0
665,-727,0,0,0,0,0,0,0,0,0,-1,1889,1751,0,0
672,-727,0,0,0,0,0,0,0,0,0,-1,1896,1751,0,0
679,-727,0,0,0,0,0,0,0,0,0,-1,1903,1751,0,0
686,-727,0,0,0,0,0,0,0,0,0,-1,1910,1751,0,0
693,-727,0,0,0,0,0,0,0,0,0,-1,1917,1751,0,0
700,-727,0,0,0,0,0,0,0,0,0,-1,1924,1751,0,0
707,-727,0,0,0,0,0,0,0,0,0,-1,1931,1751,0,0
714,-727,0,0,0,0,0,0,0,0,0,-1,1938,1751,0,0
721,-727,0,0,0,0,0,0,0,0,0,-1,1945,1751,0,0
728,-727,0,0,0,0,0,0,0,0,0,-1,1952,1751,0,0
735,-727,0,0,0,0,0,0,0,0,0,-1,1959,1751,0,0
742,-727,0,0,0,0,0,0,0,0,0,-1,1966,1751,0,0
749,-727,0,0,0,0,0,0,0,0,0,-1,1973,1751,0,0
756,-727,0,0,0,0,0,0,0,0,0,-1,1980,1751,0,0
763,-727,0,0,0,0,0,0,0,0,0,-1,1987,1751,0,0
770,-727,0,0,0,0,0,0,0,0,0,-1,1994,1751,0,0
777,-727,0,0,0,0,0,0,0,0,0,-1,2001,1751,0,0
784,-727,0,0,0,0,0,0,0,0,0,-1,2008,1751,0,0
791,-727,0,0,0,0,0,0,0,0,0,-1,2015,1751,0,0
798,-727,0,0,0,0,0,0,0,0,0,-1,2022,1751,0,0
805,-727,0,0,0,0,0,0,0,0,0,-1,2029,1751,0,0
812,-727,0,0,0,0,0,0,0,0,0,-1,2036,1751,0,0
-700,-734,0,0,0,0,0,0,0,0,0,-1,524,1758,0,0
-693,-734,0,0,0,0,0,0,0,0,0,-1,531,1758,0,0
-686,-734,0,0,0,0,0,0,0,0,0,-1,538,1758,0,0
-679,-734,0,0,0,0,0,0,0,0,0,-1,545,1758,0,0
-672,-734,0,0,0,0,0,0,0,0,0,-1,552,1758,0,0
-665,-734,0,0,0,0,0,0,0,0,0,-1,559,1758,0,0
-658,-734,0,0,0,0,0,0,0,0,0,-1,566,1758,0,0
-651,-734,0,0,0,0,0,0,0,0,0,-1,573,1758,0,0
-644,-734,0,0,0,0,0,0,0,0,0,-1,580,1758,0,0
-637,-734,0,0,0,0,0,0,0,0,0,-1,587,1758,0,0
-630,-734,0,0,0,0,0,0,0,0,0,-1,594,1758,0,0
-623,-734,0,0,0,0,0,0,0,0,0,-1,601,1758,0,0
-616,-734,0,0,0,0,0,0,0,0,0,-1,608,1758,0,0
-609,-734,0,0,0,0,0,0,0,0,0,-1,615,1758,0,0
-602,-734,0,0,0,0,0,0,0,0,0,-1,622,1758,0,0
-595,-734,0,0,0,0,0,0,0,0,0,-1,629,1758,0,0
-588,-734,0,0,0,0,0,0,0,0,0,-1,636,1758,0,0
-581,-734,0,0,0,0,0,0,0,0,0,-1,643,1758,0,0
-574,-734,0,0,0,0,0,0,0,0,0,-1,650,1758,0,0
-567,-734,0,0,0,0,0,0,0,0,0,-1,657,1758,0,0
-560,-734,0,0,0,0,0,0,0,0,0,-1,664,1758,0,0
-553,-734,0,0,0,0,0,0,0,0,0,-1,671,1758,0,0
-546,-734,0,0,0,0,0,0,0,0,0,-1,678,1758,0,0
-539,-734,0,0,0,0,0,0,0,0,0,-1,685,1758,0,0
-532,-734,0,0,0,0,0,0,0,0,0,-1,692,1758,0,0
-525,-734,0,0,0,0,0,0,0,0,0,-1,699,1758,0,0
-518,-734,0,0,0,0,0,0,0,0,0,-1,706,1758,0,0
-511,-734,0,0,0,0,0,0,0,0,0,-1,713,1758,0,0
-504,-734,0,0,0,0,0,0,0,0,0,-1,720,1758,0,0
-497,-734,0,0,0,0,0,0,0,0,0,-1,727,1758,0,0
-490,-734,0,0,0,0,0,0,0,0,0,-1,734,1758,0,0
-483,-734,0,0,0,0,0,0,0,0,0,-1,741,1758,0,0
-476,-734,0,0,0,0,0,0,0,0,0,-1,748,1758,0,0
-469,-734,0,0,0,0,0,0,0,0,0,-1,755,1758,0,0
-462,-734,0,0,0,0,0,0,0,0,0,-1,762,1758,0,0
-455,-734,0,0,0,0,0,0,0,0,0,-1,769,1758,0,0
-448,-734,0,0,0,0,0,0,0,0,0,-1,776,1758,0,0
-441,-734,0,0,0,0,0,0,0,0,0,-1,783,1758,0,0
-434,-734,0,0,0,0,0,0,0,0,0,-1,790,1758,0,0
-427,-734,0,0,0,0,0,0,0,0,0,-1,797,1758,0,0
-420,-734,0,0,0,0,0,0,0,0,0,-1,804,1758,0,0
-413,-734,0,0,0,0,0,0,0,0,0,-1,811,1758,0,0
-406,-734,0,0,0,0,0,0,0,0,0,-1,818,1758,0,0
-399,-734,0,0,0,0,0,0,0,0,0,-1,825,1758,0,0
-392,-734,0,0,0,0,0,0,0,0,0,-1,832,1758,0,0
-385,-734,0,0,0,0,0,0,0,0,0,-1,839,1758,0,0
-378,-734,0,0,0,0,0,0,0,0,0,-1,846,1758,0,0
-371,-734,0,0,0,0,0,0,0,0,0,-1,853,1758,0,0
-364,-734,0,0,0,0,0,0,0,0,0,-1,860,1758,0,0
-357,-734,0,0,0,0,0,0,0,0,0,-1,867,1758,0,0
-350,-734,0,0,0,0,0,0,0,0,0,-1,874,1758,0,0
-343,-734,0,0,0,0,0,0,0,0,0,-1,881,1758,0,0
-336,-734,0,0,0,0,0,0,0,0,0,-1,888,1758,0,0
-329,-734,0,0,0,0,0,0,0,0,0,-1,895,1758,0,0
-322,-734,0,0,0,0,0,0,0,0,0,-1,902,1758,0,0
-315,-734,0,0,0,0,0,0,0,0,0,-1,909,1758,0,0
-308,-734,0,0,0,0,0,0,0,0,0,-1,916,1758,0,0
-301,-734,0,0,0,0,0,0,0,0,0,-1,923,1758,0,0
-294,-734,0,0,0,0,0,0,0,0,0,-1,930,1758,0,0
-287,-734,0,0,0,0,0,0,0,0,0,-1,937,1758,0,0
-280,-734,0,0,0,0,0,0,0,0,0,-1,944,1758,0,0
-273,-734,0,0,0,0,0,0,0,0,0,-1,951,1758,0,0
-266,-734,0,0,0,0,0,0,0,0,0,-1,958,1758,0,0
-259,-734,0,0,0,0,0,0,0,0,0,-1,965,1758,0,0
-252,-734,8.4599,13.8206,0,0,0,0,0,0,0,-1,972,1758,8.4599,-13.8206
-245,-734,7.52032,14.3553,0,0,0,0,0,0,0,-1,979,1758,7.52035,-14.3554
-238,-734,7.14911,19.3379,0,0,0,0,0,0,0,-1,986,1758,7.14914,-19.3379
-231,-734,7.16083,19.4672,0,0,0,0,0,0,0,-1,993,1758,7.16084,-19.4671
-224,-734,7.09003,19.3512,-0.0803232,0.0561479,-0.0450072,0.0696543,-0.0938295,-1.27925,0.0947308,0.0462592,1000,1758,7.09002,-19.3512
-217,-734,6.42877,18.7769,-0.0734868,0.0318621,-0.0420207,0.0465696,-0.0881944,-1.23411,0.0790335,0.0443476,1007,1758,6.42879,-18.7768
-210,-734,5.90106,18.2217,0,0,0,0,0,0,0,-1,1014,1758,5.90103,-18.2217
-203,-734,5.12769,17.5935,0,0,0,0,0,0,0,-1,1021,1758,5.12764,-17.5936
-196,-734,4.81323,16.4907,0,0,0,0,0,0,0,-1,1028,1758,4.81322,-16.4908
-189,-734,4.37402,15.4702,0,0,0,0,0,0,0,-1,1035,1758,4.37402,-15.4702
-182,-734,5.00012,15.8203,0,0,0,0,0,0,0,-1,1042,1758,5.00015,-15.8204
-175,-734,5.5376,15.4185,0,0,0,0,0,0,0,-1,1049,1758,5.53755,-15.4184
-168,-734,4.50208,15.4194,0,0,0,0,0,0,0,-1,1056,1758,4.50212,-15.4194
-161,-734,3.51257,9.94104,0,0,0,0,0,0,0,-1,1063,1758,3.51257,-9.94101
-154,-734,5.49817,17.052,0,0,0,0,0,0,0,-1,1070,1758,5.49823,-17.052
-147,-734,5.56299,17.3281,-0.00624591,0.0105976,-0.00509341,0.012018,-0.00766636,-1.29883,0.011457,0.0477373,1077,1758,5.56301,-17.3282
-140,-734,5.41199,17.6232,-0.00520375,0.0121566,-0.00462905,0.0133138,-0.00636093,-1.32583,0.0115932,0.0421303,1084,1758,5.41201,-17.6231
-133,-734,5.27893,17.5933,-0.00395866,0.0135202,-0.00428275,0.0145131,-0.00495162,-1.34297,0.0116812,0.0384944,1091,1758,5.27898,-17.5933
-126,-734,5.1488,17.632,-0.00324608,0.0135377,-0.00427136,0.0145622,-0.00427058,-1.33539,0.0114014,0.0357766,1098,1758,5.14879,-17.632
-119,-734,5.1803,17.8961,-0.00273735,0.0129991,-0.0041873,0.0140439,-0.00378217,-1.32627,0.0108455,0.0365528,1105,1758,5.18034,-17.8961
-112,-734,5.20496,17.9751,-0.00213491,0.0121266,-0.00401303,0.0131783,-0.00318658,-1.3145,0.0100181,0.0282507,1112,1758,5.20496,-17.9751
-105,-734,5.18762,18.0963,-0.00175024,0.0110073,-0.00378299,0.0120447,-0.00278765,-1.30315,0.00910243,0.0192102,1119,1758,5.18762,-18.0963
-98,-734,5.22314,18.1687,-0.00156194,0.00976543,-0.0034621,0.0107398,-0.00253629,-1.29646,0.0081381,0.0192465,1126,1758,5.22318,-18.1687
-91,-734,5.22107,18.2605,-0.00132467,0.00860342,-0.00309256,0.00948794,-0.00220919,-1.29222,0.00717595,0.0248985,1133,1758,5.22112,-18.2604
-84,-734,5.16821,18.3682,-0.00118296,0.0074811,-0.00260879,0.00820597,-0.00190783,-1.29978,0.00620514,0.0198959,1140,1758,5.16823,-18.3682
-77,-734,5.14844,18.4899,-0.000773392,0.00602268,-0.00203568,0.00658578,-0.0013365,-1.30093,0.00489719,0.0156776,1147,1758,5.14847,-18.4898
-70,-734,5.13574,18.5441,-0.000716425,0.00270902,-0.0014835,0.00326218,-0.00126958,-1.21389,0.0026994,0.0120198,1154,1758,5.13575,-18.5441
-63,-734,5.13672,18.6488,-0.00132016,0.000970888,-0.00148669,0.00170219,-0.00205146,-1.11365,0.0021703,0.011356,1161,1758,5.13674,-18.6488
-56,-734,5.1333,18.7769,-0.00114934,0.00198343,-0.000614928,0.00209981,-0.00126572,-1.38375,0.00196288,0.0120249,1168,1758,5.13324,-18.7768
-49,-734,5.10559,18.8787,-0.000484873,0.00250087,-0.000213709,0.00251609,-0.000500092,-1.4997,0.00186656,0.0121823,1175,1758,5.10555,-18.8787
-42,-734,5.09509,18.9446,5.5103e-06,0.00217865,-0.000144929,0.00218827,-4.11237e-06,-1.5045,0.00146022,0.0130546,1182,1758,5.09514,-18.9446
-35,-734,5.11719,19.0046,0.000713618,0.00173934,-0.000360438,0.00185333,0.000599628,-1.2645,0.00109201,0.0133763,1189,1758,5.11725,-19.0047
-28,-734,5.10901,19.0684,0.000835349,0.00130249,-0.000457806,0.00158286,0.000554971,-1.02128,0.000927363,0.00966466,1196,1758,5.109,-19.0683
-21,-734,5.15369,19.1281,0.000814294,0.000889884,-0.000452656,0.00130632,0.000397858,-0.82705,0.00077317,0.0153293,1203,1758,5.15365,-19.1281
-14,-734,5.11133,19.2205,0.000810554,0.000570117,-0.000456605,0.0011625,0.00021817,-0.656675,0.000713484,0.0159491,1210,1758,5.11136,-19.2204
-7,-734,5.0918,19.2714,0.00076582,0.000342212,-0.000327132,0.000943728,0.000164303,-0.498105,0.000582165,0.0167415,1217,1758,5.09181,-19.2714
0,-734,5.09802,19.3059,0.000663037,8.23338e-05,-0.000143892,0.000696736,4.86343e-05,-0.230053,0.000449158,0.0163827,1224,1758,5.09798,-19.3059
7,-734,5.07678,19.3561,0.00108853,-0.000337304,-7.45741e-05,0.00109242,-0.000341194,-0.0521127,0.000864745,0.0135983,1231,1758,5.07673,-19.3561
14,-734,5.06201,19.3914,0.00136205,-0.000546361,-0.000474174,0.00147337,-0.000657684,-0.230595,0.00126005,0.0143093,1238,1758,5.06207,-19.3914
21,-734,5.04504,19.4183,0.00151419,-0.000764284,-0.000823171,0.00178047,-0.00103056,-0.312855,0.00164209,0.0122193,1245,1758,5.04506,-19.4184
28,-734,5.05554,19.4648,0.00174406,-0.00090074,-0.00109232,0.00213686,-0.00129354,-0.345201,0.00200039,0.0112092,1252,1758,5.0555,-19.4649
35,-734,5.06897,19.5159,0.00197645,-0.00100424,-0.00144245,0.00256018,-0.00158797,-0.384534,0.00241676,0.0143529,1259,1758,5.06902,-19.5159
42,-734,5.05627,19.5111,0.0022479,-0.00118701,-0.00184769,0.00305306,-0.00199217,-0.410955,0.00293425,0.0127412,1266,1758,5.05626,-19.5112
49,-734,5.02063,19.5267,0.00226882,-0.00150589,-0.00226708,0.00333133,-0.00256841,-0.438273,0.0034157,0.010236,1273,1758,5.02058,-19.5267
56,-734,5.02014,19.556,0.00214752,-0.00189102,-0.00262839,0.00344275,-0.00318624,-0.457857,0.00382821,0.00890545,1280,1758,5.0201,-19.556
63,-734,5.02527,19.5708,0.00193234,-0.00233419,-0.00294362,0.00343442,-0.00383627,-0.471839,0.00419987,0.0110158,1287,1758,5.02523,-19.5708
70,-734,5.03369,19.5939,0.00167707,-0.00280954,-0.00316135,0.00331018,-0.00444264,-0.476827,0.00449198,0.0121839,1294,1758,5.03369,-19.5939
77,-734,5.04626,19.646,0.00141967,-0.00317244,-0.00325294,0.00310526,-0.00485803,-0.478081,0.00463458,0.0173908,1301,1758,5.04631,-19.646
84,-734,5.03992,19.5966,0.00105231,-0.0035989,-0.00318162,0.00266767,-0.00521425,-0.4698,0.00462912,0.0163888,1308,1758,5.03997,-19.5966
91,-734,5.05151,19.5532,0.00066426,-0.00407709,-0.00295875,0.00208493,-0.00549777,-0.447649,0.00452327,0.0173489,1315,1758,5.05148,-19.5532
98,-734,5.06165,19.5609,0.000328731,-0.00446925,-0.00267079,0.00151977,-0.00566029,-0.41948,0.00436913,0.0134176,1322,1758,5.06159,-19.5609
105,-734,5.05762,19.5531,8.13243e-05,-0.00458288,-0.00242867,0.00111629,-0.00561785,-0.40284,0.00416746,0.0144534,1329,1758,5.05764,-19.5531
112,-734,5.05859,19.5258,-0.000445965,-0.00448433,-0.00203693,0.000402984,-0.00533328,-0.394887,0.00369718,0.0126272,1336,1758,5.05863,-19.5258
119,-734,5.03784,19.4871,-0.000499679,-0.00446809,-0.00136727,-7.42194e-05,-0.00489355,-0.301678,0.00323791,0.0129834,1343,1758,5.03782,-19.487
126,-734,5.0293,19.4548,-0.0002347,-0.00421925,-0.000973621,-9.52207e-06,-0.00444443,-0.227282,0.00295979,0.0150662,1350,1758,5.02926,-19.4548
133,-734,5.01709,19.4448,-5.01979e-05,-0.00379435,-0.000720842,8.37877e-05,-0.00392833,-0.183776,0.00264726,0.0140816,1357,1758,5.01705,-19.4448
140,-734,5.03296,19.4487,0.00012521,-0.00325302,-0.000406265,0.00017338,-0.00330119,-0.118018,0.0022608,0.0199082,1364,1758,5.03294,-19.4487
147,-734,5.03027,19.3768,0.000200324,-0.00265621,-0.000111568,0.000204674,-0.00266057,-0.0389778,0.00184572,0.0141803,1371,1758,5.03023,-19.3768
154,-734,5.01135,19.3544,0.000248112,-0.0020148,2.03203e-05,0.000248295,-0.00201498,0.00897876,0.00143327,0.00954454,1378,1758,5.0113,-19.3544
161,-734,5.01636,19.3048,0.000186653,-0.00141086,7.96901e-05,0.000190619,-0.00141482,0.0497194,0.00101275,0.00863182,1385,1758,5.01633,-19.3048
168,-734,4.99023,19.238,2.02152e-06,-0.000741016,0.000199464,5.21806e-05,-0.000791175,0.246361,0.000545676,0.0133856,1392,1758,4.99019,-19.238
175,-734,4.9917,19.1847,-0.000425678,-0.000234069,0.000229057,-8.15882e-05,-0.000578159,0.98347,0.000361327,0.0165031,1399,1758,4.9917,-19.1847
182,-734,4.99878,19.1102,-0.000430374,-0.00021274,-0.000352082,4.69578e-05,-0.000690072,-0.935276,0.000476473,0.0149193,1406,1758,4.99878,-19.1102
189,-734,4.97046,19.0492,-0.000486868,0.000351797,-0.00109736,0.00110722,-0.00124229,-0.967901,0.00135723,0.0108459,1413,1758,4.97052,-19.0492
196,-734,4.96545,18.993,-0.000667122,0.0012518,-0.00189348,0.00241503,-0.00183036,-1.0199,0.00245881,0.0110659,1420,1758,4.96544,-18.9931
203,-734,4.97815,18.9052,-0.000721785,0.00329153,-0.0026748,0.0046287,-0.00205896,-1.10722,0.003955,0.0114443,1427,1758,4.97811,-18.9051
210,-734,4.97217,18.8347,-0.000567665,0.00435269,-0.00307986,0.00583434,-0.00204932,-1.1224,0.00472326,0.0124657,1434,1758,4.97222,-18.8347
217,-734,4.94434,18.7556,-0.000350002,0.00542437,-0.00350949,0.00708168,-0.0020073,-1.12961,0.0055134,0.0105627,1441,1758,4.94431,-18.7556
224,-734,4.93921,18.6523,-4.17331e-05,0.00628916,-0.0039132,0.00815692,-0.0019095,-1.12547,0.00617368,0.0117008,1448,1758,4.93917,-18.6523
231,-734,4.91736,18.5955,0.000259666,0.00712121,-0.00420223,0.00911529,-0.0017344,-1.12773,0.00672991,0.0134129,1455,1758,4.91731,-18.5955
238,-734,4.89539,18.489,0.000716973,0.00784681,-0.00439122,0.00993799,-0.00137421,-1.12635,0.00712769,0.0172898,1462,1758,4.89541,-18.489
245,-734,4.88757,18.3201,0.00124784,0.008518,-0.00451913,0.0106826,-0.000916762,-1.1241,0.00744616,0.0224031,1469,1758,4.88759,-18.3201
252,-734,4.89966,18.2515,0.00173856,0.00907997,-0.00458323,0.0112812,-0.000462705,-1.12304,0.00767971,0.0275681,1476,1758,4.89971,-18.2515
259,-734,5.06677,18.2605,0.00225458,0.00974155,-0.00453186,0.0118761,0.00012002,-1.13061,0.0078777,0.0375398,1483,1758,5.06676,-18.2605
266,-734,5.04724,18.3137,0,0,0,0,0,0,0,-1,1490,1758,5.0473,-18.3137
273,-734,5.28406,18.3293,0,0,0,0,0,0,0,-1,1497,1758,5.28408,-18.3293
280,-734,16.6191,7.38013,0,0,0,0,0,0,0,-1,1504,1758,16.6192,-7.38011
287,-734,14.848,9.10046,0,0,0,0,0,0,0,-1,1511,1758,14.848,-9.1005
294,-734,13.083,7.53845,0,0,0,0,0,0,0,-1,1518,1758,13.083,-7.53841
301,-734,11.4868,5.81018,0,0,0,0,0,0,0,-1,1525,1758,11.4868,-5.81019
308,-734,4.39807,14.5281,0,0,0,0,0,0,0,-1,1532,1758,4.39813,-14.5281
315,-734,4.76001,16.3016,0,0,0,0,0,0,0,-1,1539,1758,4.75999,-16.3017
322,-734,4.17163,11.5508,0,0,0,0,0,0,0,-1,1546,1758,4.17163,-11.5508
329,-734,5.45972,12.4125,0,0,0,0,0,0,0,-1,1553,1758,5.45969,-12.4125
336,-734,5.92188,13.8751,0,0,0,0,0,0,0,-1,1560,1758,5.92183,-13.8751
343,-734,5.54968,5.14221,0,0,0,0,0,0,0,-1,1567,1758,5.54973,-5.14225
350,-734,5.07397,6.73242,0,0,0,0,0,0,0,-1,1574,1758,5.07402,-6.73243
357,-734,5.05542,7.19189,0,0,0,0,0,0,0,-1,1581,1758,5.05541,-7.19184
364,-734,4.43896,10.4904,0,0,0,0,0,0,0,-1,1588,1758,4.43893,-10.4904
371,-734,7.36975,17.4751,0,0,0,0,0,0,0,-1,1595,1758,7.36972,-17.4752
378,-734,0,0,0,0,0,0,0,0,0,-1,1602,1758,0,0
385,-734,0,0,0,0,0,0,0,0,0,-1,1609,1758,0,0
392,-734,0,0,0,0,0,0,0,0,0,-1,1616,1758,0,0
399,-734,0,0,0,0,0,0,0,0,0,-1,1623,1758,0,0
406,-734,0,0,0,0,0,0,0,0,0,-1,1630,1758,0,0
413,-734,0,0,0,0,0,0,0,0,0,-1,1637,1758,0,0
420,-734,0,0,0,0,0,0,0,0,0,-1,1644,1758,0,0
427,-734,0,0,0,0,0,0,0,0,0,-1,1651,1758,0,0
434,-734,0,0,0,0,0,0,0,0,0,-1,1658,1758,0,0
441,-734,0,0,0,0,0,0,0,0,0,-1,1665,1758,0,0
448,-734,0,0,0,0,0,0,0,0,0,-1,1672,1758,0,0
455,-734,0,0,0,0,0,0,0,0,0,-1,1679,1758,0,0
462,-734,0,0,0,0,0,0,0,0,0,-1,1686,1758,0,0
469,-734,0,0,0,0,0,0,0,0,0,-1,1693,1758,0,0
476,-734,0,0,0,0,0,0,0,0,0,-1,1700,1758,0,0
483,-734,0,0,0,0,0,0,0,0,0,-1,1707,1758,0,0
490,-734,0,0,0,0,0,0,0,0,0,-1,1714,1758,0,0
497,-734,0,0,0,0,0,0,0,0,0,-1,1721,1758,0,0
504,-734,0,0,0,0,0,0,0,0,0,-1,1728,1758,0,0
511,-734,0,0,0,0,0,0,0,0,0,-1,1735,1758,0,0
518,-734,0,0,0,0,0,0,0,0,0,-1,1742,1758,0,0
525,-734,0,0,0,0,0,0,0,0,0,-1,1749,1758,0,0
532,-734,0,0,0,0,0,0,0,0,0,-1,1756,1758,0,0
539,-734,0,0,0,0,0,0,0,0,0,-1,1763,1758,0,0
546,-734,0,0,0,0,0,0,0,0,0,-1,1770,1758,0,0
553,-734,0,0,0,0,0,0,0,0,0,-1,1777,1758,0,0
560,-734,0,0,0,0,0,0,0,0,0,-1,1784,1758,0,0
567,-734,0,0,0,0,0,0,0,0,0,-1,1791,1758,0,0
574,-734,0,0,0,0,0,0,0,0,0,-1,1798,1758,0,0
581,-734,0,0,0,0,0,0,0,0,0,-1,1805,1758,0,0
588,-734,0,0,0,0,0,0,0,0,0,-1,1812,1758,0,0
595,-734,0,0,0,0,0,0,0,0,0,-1,1819,1758,0,0
602,-734,0,0,0,0,0,0,0,0,0,-1,1826,1758,0,0
609,-734,0,0,0,0,0,0,0,0,0,-1,1833,1758,0,0
616,-734,0,0,0,0,0,0,0,0,0,-1,1840,1758,0,0
623,-734,0,0,0,0,0,0,0,0,0,-1,1847,1758,0,0
630,-734,0,0,0,0,0,0,0,0,0,-1,1854,1758,0,0
637,-734,0,0,0,0,0,0,0,0,0,-1,1861,1758,0,0
644,-734,0,0,0,0,0,0,0,0,0,-1,1868,1758,0,0
651,-734,0,0,0,0,0,0,0,0,0,-1,1875,1758,0,0
658,-734,0,0,0,0,0,0,0,0,0,-1,1882,1758,0,0
665,-734,0,0,0,0,0,0,0,0,0,-1,1889,1758,0,0
672,-734,0,0,0,0,0,0,0,0,0,-1,1896,1758,0,0
679,-734,0,0,0,0,0,0,0,0,0,-1,1903,1758,0,0
686,-734,0,0,0,0,0,0,0,0,0,-1,1910,1758,0,0
693,-734,0,0,0,0,0,0,0,0,0,-1,1917,1758,0,0
700,-734,0,0,0,0,0,0,0,0,0,-1,1924,1758,0,0
707,-734,0,0,0,0,0,0,0,0,0,-1,1931,1758,0,0
714,-734,0,0,0,0,0,0,0,0,0,-1,1938,1758,0,0
721,-734,0,0,0,0,0,0,0,0,0,-1,1945,1758,0,0
728,-734,0,0,0,0,0,0,0,0,0,-1,1952,1758,0,0
735,-734,0,0,0,0,0,0,0,0,0,-1,1959,1758,0,0
742,-734,0,0,0,0,0,0,0,0,0,-1,1966,1758,0,0
749,-734,0,0,0,0,0,0,0,0,0,-1,1973,1758,0,0
756,-734,0,0,0,0,0,0,0,0,0,-1,1980,1758,0,0
763,-734,0,0,0,0,0,0,0,0,0,-1,1987,1758,0,0
770,-734,0,0,0,0,0,0,0,0,0,-1,1994,1758,0,0
777,-734,0,0,0,0,0,0,0,0,0,-1,2001,1758,0,0
784,-734,0,0,0,0,0,0,0,0,0,-1,2008,1758,0,0
791,-734,0,0,0,0,0,0,0,0,0,-1,2015,1758,0,0
798,-734,0,0,0,0,0,0,0,0,0,-1,2022,1758,0,0
805,-734,0,0,0,0,0,0,0,0,0,-1,2029,1758,0,0
812,-734,0,0,0,0,0,0,0,0,0,-1,2036,1758,0,0
-700,-741,0,0,0,0,0,0,0,0,0,-1,524,1765,0,0
-693,-741,0,0,0,0,0,0,0,0,0,-1,531,1765,0,0
-686,-741,0,0,0,0,0,0,0,0,0,-1,538,1765,0,0
-679,-741,0,0,0,0,0,0,0,0,0,-1,545,1765,0,0
-672,-741,0,0,0,0,0,0,0,0,0,-1,552,1765,0,0
-665,-741,0,0,0,0,0,0,0,0,0,-1,559,1765,0,0
-658,-741,0,0,0,0,0,0,0,0,0,-1,566,1765,0,0
-651,-741,0,0,0,0,0,0,0,0,0,-1,573,1765,0,0
-644,-741,0,0,0,0,0,0,0,0,0,-1,580,1765,0,0
-637,-741,0,0,0,0,0,0,0,0,0,-1,587,1765,0,0
-630,-741,0,0,0,0,0,0,0,0,0,-1,594,1765,0,0
-623,-741,0,0,0,0,0,0,0,0,0,-1,601,1765,0,0
-616,-741,0,0,0,0,0,0,0,0,0,-1,608,1765,0,0
-609,-741,0,0,0,0,0,0,0,0,0,-1,615,1765,0,0
-602,-741,0,0,0,0,0,0,0,0,0,-1,622,1765,0,0
-595,-741,0,0,0,0,0,0,0,0,0,-1,629,1765,0,0
-588,-741,0,0,0,0,0,0,0,0,0,-1,636,1765,0,0
-581,-741,0,0,0,0,0,0,0,0,0,-1,643,1765,0,0
-574,-741,0,0,0,0,0,0,0,0,0,-1,650,1765,0,0
-567,-741,0,0,0,0,0,0,0,0,0,-1,657,1765,0,0
-560,-741,0,0,0,0,0,0,0,0,0,-1,664,1765,0,0
-553,-741,0,0,0,0,0,0,0,0,0,-1,671,1765,0,0
-546,-741,0,0,0,0,0,0,0,0,0,-1,678,1765,0,0
-539,-741,0,0,0,0,0,0,0,0,0,-1,685,1765,0,0
-532,-741,0,0,0,0,0,0,0,0,0,-1,692,1765,0,0
-525,-741,0,0,0,0,0,0,0,0,0,-1,699,1765,0,0
-518,-741,0,0,0,0,0,0,0,0,0,-1,706,1765,0,0
-511,-741,0,0,0,0,0,0,0,0,0,-1,713,1765,0,0
-504,-741,0,0,0,0,0,0,0,0,0,-1,720,1765,0,0
-497,-741,0,0,0,0,0,0,0,0,0,-1,727,1765,0,0
-490,-741,0,0,0,0,0,0,0,0,0,-1,734,1765,0,0
-483,-741,0,0,0,0,0,0,0,0,0,-1,741,1765,0,0
-476,-741,0,0,0,0,0,0,0,0,0,-1,748,1765,0,0
-469,-741,0,0,0,0,0,0,0,0,0,-1,755,1765,0,0
-462,-741,0,0,0,0,0,0,0,0,0,-1,762,1765,0,0
-455,-741,0,0,0,0,0,0,0,0,0,-1,769,1765,0,0
-448,-741,0,0,0,0,0,0,0,0,0,-1,776,1765,0,0
-441,-741,0,0,0,0,0,0,0,0,0,-1,783,1765,0,0
-434,-741,0,0,0,0,0,0,0,0,0,-1,790,1765,0,0
-427,-741,0,0,0,0,0,0,0,0,0,-1,797,1765,0,0
-420,-741,0,0,0,0,0,0,0,0,0,-1,804,1765,0,0
-413,-741,0,0,0,0,0,0,0,0,0,-1,811,1765,0,0
-406,-741,0,0,0,0,0,0,0,0,0,-1,818,1765,0,0
-399,-741,0,0,0,0,0,0,0,0,0,-1,825,1765,0,0
-392,-741,0,0,0,0,0,0,0,0,0,-1,832,1765,0,0
-385,-741,0,0,0,0,0,0,0,0,0,-1,839,1765,0,0
-378,-741,0,0,0,0,0,0,0,0,0,-1,846,1765,0,0
-371,-741,0,0,0,0,0,0,0,0,0,-1,853,1765,0,0
-364,-741,0,0,0,0,0,0,0,0,0,-1,860,1765,0,0
-357,-741,0,0,0,0,0,0,0,0,0,-1,867,1765,0,0
-350,-741,0,0,0,0,0,0,0,0,0,-1,874,1765,0,0
-343,-741,0,0,0,0,0,0,0,0,0,-1,881,1765,0,0
-336,-741,0,0,0,0,0,0,0,0,0,-1,888,1765,0,0
-329,-741,0,0,0,0,0,0,0,0,0,-1,895,1765,0,0
-322,-741,0,0,0,0,0,0,0,0,0,-1,902,1765,0,0
-315,-741,0,0,0,0,0,0,0,0,0,-1,909,1765,0,0
-308,-741,0,0,0,0,0,0,0,0,0,-1,916,1765,0,0
-301,-741,0,0,0,0,0,0,0,0,0,-1,923,1765,0,0
-294,-741,0,0,0,0,0,0,0,0,0,-1,930,1765,0,0
-287,-741,0,0,0,0,0,0,0,0,0,-1,937,1765,0,0
-280,-741,0,0,0,0,0,0,0,0,0,-1,944,1765,0,0
-273,-741,0,0,0,0,0,0,0,0,0,-1,951,1765,0,0
-266,-741,0,0,0,0,0,0,0,0,0,-1,958,1765,0,0
-259,-741,0,0,0,0,0,0,0,0,0,-1,965,1765,0,0
-252,-741,0,0,0,0,0,0,0,0,0,-1,972,1765,0,0
-245,-741,0,0,0,0,0,0,0,0,0,-1,979,1765,0,0
-238,-741,1.66083,15.1331,0,0,0,0,0,0,0,-1,986,1765,1.66083,-15.1331
-231,-741,7.56659,19.473,0,0,0,0,0,0,0,-1,993,1765,7.56659,-19.473
-224,-741,7.19757,19.045,-0.0949593,0.0575205,-0.0516548,0.0733715,-0.11081,-1.27305,0.107067,0.040661,1000,1765,7.19756,-19.0451
-217,-741,6.63574,18.6545,-0.08793,0.0315682,-0.0491718,0.0492002,-0.105562,-1.2265,0.0913057,0.0415829,1007,1765,6.63577,-18.6545
-210,-741,5.91467,18.6464,0,0,0,0,0,0,0,-1,1014,1765,5.91467,-18.6463
-203,-741,5.79761,18.1439,0,0,0,0,0,0,0,-1,1021,1765,5.79762,-18.1439
-196,-741,5.52917,17.0542,0,0,0,0,0,0,0,-1,1028,1765,5.52916,-17.0542
-189,-741,5.26074,15.9645,0,0,0,0,0,0,0,-1,1035,1765,5.26071,-15.9645
-182,-741,6.32788,16.0284,0,0,0,0,0,0,0,-1,1042,1765,6.32791,-16.0284
-175,-741,5.36108,15.3015,0,0,0,0,0,0,0,-1,1049,1765,5.3611,-15.3015
-168,-741,4.49768,14.7655,0,0,0,0,0,0,0,-1,1056,1765,4.49766,-14.7656
-161,-741,3.73047,14.4974,0,0,0,0,0,0,0,-1,1063,1765,3.73043,-14.4974
-154,-741,2.46143,9.75415,0,0,0,0,0,0,0,-1,1070,1765,2.46145,-9.75416
-147,-741,5.82971,17.4467,0,0,0,0,0,0,0,-1,1077,1765,5.82974,-17.4467
-140,-741,5.56543,17.9482,0,0,0,0,0,0,0,-1,1084,1765,5.56545,-17.9482
-133,-741,5.46545,17.6696,-0.00463578,0.0212107,-0.00596822,0.0225222,-0.00594735,-1.35448,0.0173406,0.0486735,1091,1765,5.46551,-17.6696
-126,-741,5.23193,17.6371,-0.00371163,0.020829,-0.00593158,0.0221875,-0.00507012,-1.34565,0.0167396,0.0458649,1098,1765,5.23191,-17.6371
-119,-741,5.38696,17.424,-0.00300795,0.0198108,-0.00583304,0.0212154,-0.00441256,-1.33449,0.0158209,0.0447311,1105,1765,5.38697,-17.4239
-112,-741,5.73291,18.2935,-0.00230169,0.0184274,-0.00565915,0.0198718,-0.00374602,-1.32091,0.014657,0.0441162,1112,1765,5.73291,-18.2934
-105,-741,5.33411,18.0776,-0.00187388,0.016837,-0.00537335,0.0182703,-0.00330719,-1.31012,0.0134192,0.0385451,1119,1765,5.33416,-18.0776
-98,-741,5.37048,18.125,-0.0016435,0.0151362,-0.00497598,0.0165008,-0.00300814,-1.30313,0.0121282,0.0468549,1126,1765,5.37052,-18.125
-91,-741,5.26514,18.2109,0,0,0,0,0,0,0,-1,1133,1765,5.26514,-18.2109
-84,-741,5.19238,18.1888,0,0,0,0,0,0,0,-1,1140,1765,5.19236,-18.1889
-77,-741,5.20374,18.2578,0,0,0,0,0,0,0,-1,1147,1765,5.20378,-18.2579
-70,-741,5.2002,18.4016,0,0,0,0,0,0,0,-1,1154,1765,5.20024,-18.4017
-63,-741,5.17358,18.5735,0,0,0,0,0,0,0,-1,1161,1765,5.17362,-18.5735
-56,-741,5.21375,18.7343,0,0,0,0,0,0,0,-1,1168,1765,5.21374,-18.7343
-49,-741,5.18323,18.9004,0,0,0,0,0,0,0,-1,1175,1765,5.18324,-18.9004
-42,-741,5.14771,18.8245,0,0,0,0,0,0,0,-1,1182,1765,5.14772,-18.8244
-35,-741,5.17004,18.9916,0.00273584,0.00248658,-0.000228411,0.00287141,0.00235101,-0.535653,0.00176654,0.0214503,1189,1765,5.17008,-18.9916
-28,-741,5.17834,19.0782,0.00293156,0.00203433,-0.000353879,0.00305433,0.00191156,-0.333947,0.00178194,0.0138779,1196,1765,5.17838,-19.0782
-21,-741,5.21667,19.1459,0.00277765,0.00164518,-0.000483329,0.00295588,0.00146695,-0.353286,0.00170659,0.0174506,1203,1765,5.21662,-19.1459
-14,-741,5.18298,19.2062,0.00262019,0.00145122,-0.000688933,0.00293918,0.00113224,-0.433618,0.00171177,0.0178107,1210,1765,5.18299,-19.2062
-7,-741,5.14941,19.2426,0.00242228,0.00121805,-0.000711269,0.00275207,0.000888258,-0.434157,0.00162184,0.0137766,1217,1765,5.1494,-19.2426
0,-741,5.13293,19.2856,0.00211534,0.000932809,-0.000677444,0.00242325,0.000624893,-0.426611,0.00145272,0.0142006,1224,1765,5.13289,-19.2856
7,-741,5.09985,19.347,0.00256553,0.000412969,-0.000799115,0.00282975,0.000148739,-0.319336,0.00183893,0.0176292,1231,1765,5.09988,-19.3471
14,-741,5.11255,19.3845,0.00282825,0.000157116,-0.00160698,0.00358221,-0.000596846,-0.438688,0.00260993,0.016481,1238,1765,5.11254,-19.3846
21,-741,5.0946,19.3999,0.00281435,-0.000154917,-0.00229286,0.00406126,-0.00140183,-0.49809,0.00327633,0.0123431,1245,1765,5.0946,-19.3998
28,-741,5.07373,19.4648,0.0028792,-0.00038248,-0.00282729,0.00451229,-0.00201556,-0.523797,0.00385965,0.012977,1252,1765,5.07368,-19.4648
35,-741,5.07556,19.4792,0.00292838,-0.00061203,-0.00348051,0.00506298,-0.00274664,-0.550144,0.00457452,0.014977,1259,1765,5.07561,-19.4792
42,-741,5.0907,19.4985,0.00302757,-0.000968793,-0.00416811,0.00565171,-0.00359293,-0.561883,0.00538133,0.0151292,1266,1765,5.09064,-19.4985
49,-741,5.06189,19.5243,0.00277644,-0.00151985,-0.00477391,0.00586325,-0.00460666,-0.573981,0.0060593,0.00989993,1273,1765,5.06192,-19.5243
56,-741,5.04187,19.5464,0.00232999,-0.00208974,-0.00525853,0.00582413,-0.00558388,-0.58648,0.0065869,0.00937661,1280,1765,5.04185,-19.5464
63,-741,5.0387,19.5559,0.00172897,-0.00272298,-0.00560449,0.00553335,-0.00652736,-0.596363,0.00697114,0.0132696,1287,1765,5.03869,-19.5559
70,-741,5.04712,19.5927,0.0011335,-0.00335636,-0.00579175,0.00510018,-0.00732304,-0.600509,0.00721072,0.0167566,1294,1765,5.04711,-19.5926
77,-741,5.04285,19.6176,0.000639825,-0.00388076,-0.00578155,0.00458721,-0.00782814,-0.599058,0.00724896,0.0148736,1301,1765,5.04285,-19.6175
84,-741,5.01038,19.6064,8.57847e-05,-0.00446354,-0.00550005,0.00376298,-0.00814074,-0.589323,0.00702583,0.0166629,1308,1765,5.01039,-19.6065
91,-741,5.01135,19.5941,-0.000476699,-0.00514196,-0.00499546,0.00270391,-0.00832257,-0.566968,0.00663592,0.0125753,1315,1765,5.01131,-19.5942
98,-741,5.02771,19.5746,-0.000957905,-0.00560866,-0.00446263,0.00174886,-0.00831543,-0.545214,0.00620922,0.00993062,1322,1765,5.02772,-19.5745
105,-741,5.0293,19.5399,-0.00127185,-0.00576116,-0.00400519,0.00107479,-0.0081078,-0.529988,0.00579677,0.0104457,1329,1765,5.02934,-19.5399
112,-741,5.04175,19.5088,-0.00200368,-0.00568985,-0.00338028,3.33251e-06,-0.00769686,-0.535805,0.00513235,0.0106013,1336,1765,5.04171,-19.5088
119,-741,5.02136,19.4871,-0.00201597,-0.00580032,-0.00235508,-0.000887101,-0.0069292,-0.446979,0.00435399,0.0131319,1343,1765,5.02136,-19.487
126,-741,5.01868,19.4551,-0.0014998,-0.00565845,-0.0017972,-0.000830754,-0.00632749,-0.356375,0.00397049,0.0172199,1350,1765,5.01864,-19.4551
133,-741,5.00671,19.4407,-0.00107626,-0.00534086,-0.00146802,-0.000619784,-0.00579734,-0.301472,0.00367576,0.0139286,1357,1765,5.00672,-19.4407
140,-741,4.98206,19.3939,-0.000652928,-0.00487746,-0.00100867,-0.000424449,-0.00510594,-0.222756,0.00327166,0.0119328,1364,1765,4.9821,-19.3939
147,-741,4.97644,19.3657,-0.000363796,-0.00433047,-0.000519016,-0.000297011,-0.00439726,-0.127974,0.00283769,0.010854,1371,1765,4.97643,-19.3657
154,-741,4.97278,19.3512,-4.38843e-05,-0.00359503,-0.000170604,-3.57071e-05,-0.00360321,-0.0478948,0.00239032,0.0089856,1378,1765,4.97279,-19.3512
161,-741,4.97205,19.309,1.77618e-05,-0.00284735,1.10533e-05,1.78043e-05,-0.00284739,0.00385783,0.00190423,0.0103558,1385,1765,4.97209,-19.3089
168,-741,4.95984,19.2537,-5.59179e-05,-0.00175344,0.000280575,-1.07453e-05,-0.00179861,0.159631,0.00119551,0.0230325,1392,1765,4.95984,-19.2537
175,-741,4.93506,19.2214,0,0,0,0,0,0,0,-1,1399,1765,4.93512,-19.2214
182,-741,4.90979,19.1023,0,0,0,0,0,0,0,-1,1406,1765,4.90978,-19.1023
189,-741,4.89734,19.0443,0,0,0,0,0,0,0,-1,1413,1765,4.8973,-19.0443
196,-741,4.89587,19.0017,0,0,0,0,0,0,0,-1,1420,1765,4.89584,-19.0017
203,-741,4.92529,18.9105,0,0,0,0,0,0,0,-1,1427,1765,4.92527,-18.9105
210,-741,4.90393,18.804,0,0,0,0,0,0,0,-1,1434,1765,4.90397,-18.8039
217,-741,4.9187,18.6959,-0.000626777,0.00734396,-0.00495227,0.00971533,-0.00299815,-1.12422,0.00767404,0.0288653,1441,1765,4.91873,-18.696
224,-741,5.0177,18.6154,-0.000235866,0.00867925,-0.00546193,0.0112717,-0.00282831,-1.12764,0.00861343,0.0269954,1448,1765,5.01769,-18.6154
231,-741,5.01343,18.5819,0.000188685,0.00993865,-0.00582138,0.0126567,-0.00252935,-1.13397,0.00939509,0.0348131,1455,1765,5.01344,-18.5819
238,-741,4.75244,18.377,0.000810751,0.0110478,-0.00605849,0.0138605,-0.00200197,-1.13615,0.00997485,0.0371053,1462,1765,4.75245,-18.3769
245,-741,4.72473,18.1561,0.00156216,0.0120669,-0.00621694,0.0149532,-0.00132412,-1.13615,0.0104382,0.0428438,1469,1765,4.72471,-18.1562
252,-741,4.77905,17.8335,0.00233084,0.012944,-0.00629102,0.0158677,-0.000592813,-1.13576,0.0107815,0.0482292,1476,1765,4.779,-17.8335
259,-741,4.92932,17.7863,0,0,0,0,0,0,0,-1,1483,1765,4.92931,-17.7863
266,-741,4.40173,15.2345,0,0,0,0,0,0,0,-1,1490,1765,4.40175,-15.2345
273,-741,17.0328,7.54468,0,0,0,0,0,0,0,-1,1497,1765,17.0328,-7.54474
280,-741,16.2363,9.84546,0,0,0,0,0,0,0,-1,1504,1765,16.2363,-9.84547
287,-741,14.5045,8.71423,0,0,0,0,0,0,0,-1,1511,1765,14.5045,-8.71429
294,-741,12.6522,7.5741,0,0,0,0,0,0,0,-1,1518,1765,12.6522,-7.57415
301,-741,10.8335,6.44751,0,0,0,0,0,0,0,-1,1525,1765,10.8334,-6.44749
308,-741,8.27747,6.42419,0,0,0,0,0,0,0,-1,1532,1765,8.27746,-6.42424
315,-741,7.94568,6.22974,0,0,0,0,0,0,0,-1,1539,1765,7.94567,-6.22972
322,-741,3.08521,12.3561,0,0,0,0,0,0,0,-1,1546,1765,3.08526,-12.3561
329,-741,4.46472,13.5316,0,0,0,0,0,0,0,-1,1553,1765,4.46467,-13.5316
336,-741,4.74475,14.6453,0,0,0,0,0,0,0,-1,1560,1765,4.7447,-14.6452
343,-741,5.42297,5.93701,0,0,0,0,0,0,0,-1,1567,1765,5.42296,-5.937
350,-741,4.90369,5.44666,0,0,0,0,0,0,0,-1,1574,1765,4.90368,-5.44664
357,-741,4.02063,5.16626,0,0,0,0,0,0,0,-1,1581,1765,4.02058,-5.1662
364,-741,0,0,0,0,0,0,0,0,0,-1,1588,1765,0,0
371,-741,0,0,0,0,0,0,0,0,0,-1,1595,1765,0,0
378,-741,0,0,0,0,0,0,0,0,0,-1,1602,1765,0,0
385,-741,0,0,0,0,0,0,0,0,0,-1,1609,1765,0,0
392,-741,0,0,0,0,0,0,0,0,0,-1,1616,1765,0,0
399,-741,0,0,0,0,0,0,0,0,0,-1,1623,1765,0,0
406,-741,0,0,0,0,0,0,0,0,0,-1,1630,1765,0,0
413,-741,0,0,0,0,0,0,0,0,0,-1,1637,1765,0,0
420,-741,0,0,0,0,0,0,0,0,0,-1,1644,1765,0,0
427,-741,0,0,0,0,0,0,0,0,0,-1,1651,1765,0,0
434,-741,0,0,0,0,0,0,0,0,0,-1,1658,1765,0,0
441,-741,0,0,0,0,0,0,0,0,0,-1,1665,1765,0,0
448,-741,0,0,0,0,0,0,0,0,0,-1,1672,1765,0,0
455,-741,0,0,0,0,0,0,0,0,0,-1,1679,1765,0,0
462,-741,0,0,0,0,0,0,0,0,0,-1,1686,1765,0,0
469,-741,0,0,0,0,0,0,0,0,0,-1,1693,1765,0,0
476,-741,0,0,0,0,0,0,0,0,0,-1,1700,1765,0,0
483,-741,0,0,0,0,0,0,0,0,0,-1,1707,1765,0,0
490,-741,0,0,0,0,0,0,0,0,0,-1,1714,1765,0,0
497,-741,0,0,0,0,0,0,0,0,0,-1,1721,1765,0,0
504,-741,0,0,0,0,0,0,0,0,0,-1,1728,1765,0,0
511,-741,0,0,0,0,0,0,0,0,0,-1,1735,1765,0,0
518,-741,0,0,0,0,0,0,0,0,0,-1,1742,1765,0,0
525,-741,0,0,0,0,0,0,0,0,0,-1,1749,1765,0,0
532,-741,0,0,0,0,0,0,0,0,0,-1,1756,1765,0,0
539,-741,0,0,0,0,0,0,0,0,0,-1,1763,1765,0,0
546,-741,0,0,0,0,0,0,0,0,0,-1,1770,1765,0,0
553,-741,0,0,0,0,0,0,0,0,0,-1,1777,1765,0,0
560,-741,0,0,0,0,0,0,0,0,0,-1,1784,1765,0,0
567,-741,0,0,0,0,0,0,0,0,0,-1,1791,1765,0,0
574,-741,0,0,0,0,0,0,0,0,0,-1,1798,1765,0,0
581,-741,0,0,0,0,0,0,0,0,0,-1,1805,1765,0,0
588,-741,0,0,0,0,0,0,0,0,0,-1,1812,1765,0,0
595,-741,0,0,0,0,0,0,0,0,0,-1,1819,1765,0,0
602,-741,0,0,0,0,0,0,0,0,0,-1,1826,1765,0,0
609,-741,0,0,0,0,0,0,0,0,0,-1,1833,1765,0,0
616,-741,0,0,0,0,0,0,0,0,0,-1,1840,1765,0,0
623,-741,0,0,0,0,0,0,0,0,0,-1,1847,1765,0,0
630,-741,0,0,0,0,0,0,0,0,0,-1,1854,1765,0,0
637,-741,0,0,0,0,0,0,0,0,0,-1,1861,1765,0,0
644,-741,0,0,0,0,0,0,0,0,0,-1,1868,1765,0,0
651,-741,0,0,0,0,0,0,0,0,0,-1,1875,1765,0,0
658,-741,0,0,0,0,0,0,0,0,0,-1,1882,1765,0,0
665,-741,0,0,0,0,0,0,0,0,0,-1,1889,1765,0,0
672,-741,0,0,0,0,0,0,0,0,0,-1,1896,1765,0,0
679,-741,0,0,0,0,0,0,0,0,0,-1,1903,1765,0,0
686,-741,0,0,0,0,0,0,0,0,0,-1,1910,1765,0,0
693,-741,0,0,0,0,0,0,0,0,0,-1,1917,1765,0,0
700,-741,0,0,0,0,0,0,0,0,0,-1,1924,1765,0,0
707,-741,0,0,0,0,0,0,0,0,0,-1,1931,1765,0,0
714,-741,0,0,0,0,0,0,0,0,0,-1,1938,1765,0,0
721,-741,0,0,0,0,0,0,0,0,0,-1,1945,1765,0,0
728,-741,0,0,0,0,0,0,0,0,0,-1,1952,1765,0,0
735,-741,0,0,0,0,0,0,0,0,0,-1,1959,1765,0,0
742,-741,0,0,0,0,0,0,0,0,0,-1,1966,1765,0,0
749,-741,0,0,0,0,0,0,0,0,0,-1,1973,1765,0,0
756,-741,0,0,0,0,0,0,0,0,0,-1,1980,1765,0,0
763,-741,0,0,0,0,0,0,0,0,0,-1,1987,1765,0,0
770,-741,0,0,0,0,0,0,0,0,0,-1,1994,1765,0,0
777,-741,0,0,0,0,0,0,0,0,0,-1,2001,1765,0,0
784,-741,0,0,0,0,0,0,0,0,0,-1,2008,1765,0,0
791,-741,0,0,0,0,0,0,0,0,0,-1,2015,1765,0,0
798,-741,0,0,0,0,0,0,0,0,0,-1,2022,1765,0,0
805,-741,0,0,0,0,0,0,0,0,0,-1,2029,1765,0,0
812,-741,0,0,0,0,0,0,0,0,0,-1,2036,1765,0,0
-700,-748,0,0,0,0,0,0,0,0,0,-1,524,1772,0,0
-693,-748,0,0,0,0,0,0,0,0,0,-1,531,1772,0,0
-686,-748,0,0,0,0,0,0,0,0,0,-1,538,1772,0,0
-679,-748,0,0,0,0,0,0,0,0,0,-1,545,1772,0,0
-672,-748,0,0,0,0,0,0,0,0,0,-1,552,1772,0,0
-665,-748,0,0,0,0,0,0,0,0,0,-1,559,1772,0,0
-658,-748,0,0,0,0,0,0,0,0,0,-1,566,1772,0,0
-651,-748,0,0,0,0,0,0,0,0,0,-1,573,1772,0,0
-644,-748,0,0,0,0,0,0,0,0,0,-1,580,1772,0,0
-637,-748,0,0,0,0,0,0,0,0,0,-1,587,1772,0,0
-630,-748,0,0,0,0,0,0,0,0,0,-1,594,1772,0,0
-623,-748,0,0,0,0,0,0,0,0,0,-1,601,1772,0,0
-616,-748,0,0,0,0,0,0,0,0,0,-1,608,1772,0,0
-609,-748,0,0,0,0,0,0,0,0,0,-1,615,1772,0,0
-602,-748,0,0,0,0,0,0,0,0,0,-1,622,1772,0,0
-595,-748,0,0,0,0,0,0,0,0,0,-1,629,1772,0,0
-588,-748,0,0,0,0,0,0,0,0,0,-1,636,1772,0,0
-581,-748,0,0,0,0,0,0,0,0,0,-1,643,1772,0,0
-574,-748,0,0,0,0,0,0,0,0,0,-1,650,1772,0,0
-567,-748,0,0,0,0,0,0,0,0,0,-1,657,1772,0,0
-560,-748,0,0,0,0,0,0,0,0,0,-1,664,1772,0,0
-553,-748,0,0,0,0,0,0,0,0,0,-1,671,1772,0,0
-546,-748,0,0,0,0,0,0,0,0,0,-1,678,1772,0,0
-539,-748,0,0,0,0,0,0,0,0,0,-1,685,1772,0,0
-532,-748,0,0,0,0,0,0,0,0,0,-1,692,1772,0,0
-525,-748,0,0,0,0,0,0,0,0,0,-1,699,1772,0,0
-518,-748,0,0,0,0,0,0,0,0,0,-1,706,1772,0,0
-511,-748,0,0,0,0,0,0,0,0,0,-1,713,1772,0,0
-504,-748,0,0,0,0,0,0,0,0,0,-1,720,1772,0,0
-497,-748,0,0,0,0,0,0,0,0,0,-1,727,1772,0,0
-490,-748,0,0,0,0,0,0,0,0,0,-1,734,1772,0,0
-483,-748,0,0,0,0,0,0,0,0,0,-1,741,1772,0,0
-476,-748,0,0,0,0,0,0,0,0,0,-1,748,1772,0,0
-469,-748,0,0,0,0,0,0,0,0,0,-1,755,1772,0,0
-462,-748,0,0,0,0,0,0,0,0,0,-1,762,1772,0,0
-455,-748,0,0,0,0,0,0,0,0,0,-1,769,1772,0,0
-448,-748,0,0,0,0,0,0,0,0,0,-1,776,1772,0,0
-441,-748,0,0,0,0,0,0,0,0,0,-1,783,1772,0,0
-434,-748,0,0,0,0,0,0,0,0,0,-1,790,1772,0,0
-427,-748,0,0,0,0,0,0,0,0,0,-1,797,1772,0,0
-420,-748,0,0,0,0,0,0,0,0,0,-1,804,1772,0,0
-413,-748,0,0,0,0,0,0,0,0,0,-1,811,1772,0,0
-406,-748,0,0,0,0,0,0,0,0,0,-1,818,1772,0,0
-399,-748,0,0,0,0,0,0,0,0,0,-1,825,1772,0,0
-392,-748,0,0,0,0,0,0,0,0,0,-1,832,1772,0,0
-385,-748,0,0,0,0,0,0,0,0,0,-1,839,1772,0,0
-378,-748,0,0,0,0,0,0,0,0,0,-1,846,1772,0,0
-371,-748,0,0,0,0,0,0,0,0,0,-1,853,1772,0,0
-364,-748,0,0,0,0,0,0,0,0,0,-1,860,1772,0,0
-357,-748,0,0,0,0,0,0,0,0,0,-1,867,1772,0,0
-350,-748,0,0,0,0,0,0,0,0,0,-1,874,1772,0,0
-343,-748,0,0,0,0,0,0,0,0,0,-1,881,1772,0,0
-336,-748,0,0,0,0,0,0,0,0,0,-1,888,1772,0,0
-329,-748,0,0,0,0,0,0,0,0,0,-1,895,1772,0,0
-322,-748,0,0,0,0,0,0,0,0,0,-1,902,1772,0,0
-315,-748,0,0,0,0,0,0,0,0,0,-1,909,1772,0,0
-308,-748,0,0,0,0,0,0,0,0,0,-1,916,1772,0,0
-301,-748,0,0,0,0,0,0,0,0,0,-1,923,1772,0,0
-294,-748,0,0,0,0,0,0,0,0,0,-1,930,1772,0,0
-287,-748,0,0,0,0,0,0,0,0,0,-1,937,1772,0,0
-280,-748,0,0,0,0,0,0,0,0,0,-1,944,1772,0,0
-273,-748,0,0,0,0,0,0,0,0,0,-1,951,1772,0,0
-266,-748,0,0,0,0,0,0,0,0,0,-1,958,1772,0,0
-259,-748,0,0,0,0,0,0,0,0,0,-1,965,1772,0,0
-252,-748,0,0,0,0,0,0,0,0,0,-1,972,1772,0,0
-245,-748,0,0,0,0,0,0,0,0,0,-1,979,1772,0,0
-238,-748,0,0,0,0,0,0,0,0,0,-1,986,1772,0,0
-231,-748,0,0,0,0,0,0,0,0,0,-1,993,1772,0,0
-224,-748,0,0,0,0,0,0,0,0,0,-1,1000,1772,0,0
-217,-748,6.91595,18.5476,0,0,0,0,0,0,0,-1,1007,1772,6.91598,-18.5475
-210,-748,6.56482,15.8542,0,0,0,0,0,0,0,-1,1014,1772,6.56483,-15.8542
-203,-748,7.08105,16.2065,0,0,0,0,0,0,0,-1,1021,1772,7.0811,-16.2065
-196,-748,6.21082,17.6426,0,0,0,0,0,0,0,-1,1028,1772,6.21081,-17.6426
-189,-748,7.35205,17.4255,0,0,0,0,0,0,0,-1,1035,1772,7.35202,-17.4255
-182,-748,6.62622,16.2686,0,0,0,0,0,0,0,-1,1042,1772,6.6262,-16.2685
-175,-748,5.27954,14.9248,0,0,0,0,0,0,0,-1,1049,1772,5.27955,-14.9248
-168,-748,4.27917,14.0815,0,0,0,0,0,0,0,-1,1056,1772,4.27923,-14.0815
-161,-748,3.50562,13.2729,0,0,0,0,0,0,0,-1,1063,1772,3.5056,-13.2729
-154,-748,-3.38562,10.6989,0,0,0,0,0,0,0,-1,1070,1772,-3.38564,-10.6989
-147,-748,-4.87122,10.7748,0,0,0,0,0,0,0,-1,1077,1772,-4.87117,-10.7748
-140,-748,5.5824,17.1818,0,0,0,0,0,0,0,-1,1084,1772,5.58238,-17.1818
-133,-748,5.69946,17.6023,0,0,0,0,0,0,0,-1,1091,1772,5.69948,-17.6023
-126,-748,5.25574,17.5844,0,0,0,0,0,0,0,-1,1098,1772,5.25569,-17.5843
-119,-748,5.42957,17.0066,0,0,0,0,0,0,0,-1,1105,1772,5.42962,-17.0065
-112,-748,5.99182,19.2268,0,0,0,0,0,0,0,-1,1112,1772,5.9918,-19.2268
-105,-748,5.7804,18.6189,0,0,0,0,0,0,0,-1,1119,1772,5.78038,-18.6189
-98,-748,5.54333,17.9866,0,0,0,0,0,0,0,-1,1126,1772,5.54328,-17.9865
-91,-748,4.85352,15.3033,0,0,0,0,0,0,0,-1,1133,1772,4.85351,-15.3033
-84,-748,-0.192017,7.26196,0,0,0,0,0,0,0,-1,1140,1772,-0.192047,-7.26201
-77,-748,4.42615,13.5537,0,0,0,0,0,0,0,-1,1147,1772,4.4261,-13.5538
-70,-748,4.46191,13.7446,0,0,0,0,0,0,0,-1,1154,1772,4.4619,-13.7446
-63,-748,4.49768,13.9355,0,0,0,0,0,0,0,-1,1161,1772,4.49769,-13.9355
-56,-748,3.05762,7.87817,0,0,0,0,0,0,0,-1,1168,1772,3.05768,-7.87822
-49,-748,3.04102,7.82471,0,0,0,0,0,0,0,-1,1175,1772,3.04096,-7.82468
-42,-748,0.793457,14.9474,0,0,0,0,0,0,0,-1,1182,1772,0.793413,-14.9474
-35,-748,5.10046,19.1,0,0,0,0,0,0,0,-1,1189,1772,5.10042,-19.1
-28,-748,5.2041,19.1616,0.0071243,0.00290136,0.000130393,0.00712832,0.00289734,0.0308381,0.00413948,0.0484556,1196,1772,5.20416,-19.1616
-21,-748,5.25757,19.2023,0.00675098,0.00250577,-2.41681e-05,0.00675112,0.00250564,-0.00569278,0.00394067,0.0223722,1203,1772,5.25761,-19.2022
-14,-748,5.22803,19.1973,0.00640771,0.00227797,-0.000303813,0.00642994,0.00225574,-0.073043,0.00376701,0.0165016,1210,1772,5.22809,-19.1973
-7,-748,5.18091,19.2247,0.0060175,0.00197939,-0.00039995,0.00605674,0.00194016,-0.0977779,0.00357132,0.0143336,1217,1772,5.18087,-19.2248
0,-748,5.1676,19.2638,0.0053626,0.0016202,-0.000465549,0.00541965,0.00156315,-0.121923,0.00322106,0.0145259,1224,1772,5.16758,-19.2638
7,-748,5.15906,19.3032,0.00564951,0.000952695,-0.000730815,0.0057606,0.00084161,-0.150848,0.00359287,0.0145326,1231,1772,5.15903,-19.3032
14,-748,5.14392,19.3568,0.00568721,0.000564425,-0.00191867,0.00632613,-7.44991e-05,-0.321454,0.00424247,0.0147588,1238,1772,5.14394,-19.3569
21,-748,5.13916,19.4047,0.00535836,0.000131947,-0.00298766,0.00671441,-0.0012241,-0.426078,0.00493517,0.011403,1245,1772,5.1392,-19.4047
28,-748,5.12634,19.4518,0.00512625,-0.000181184,-0.00379611,0.00710424,-0.00215917,-0.48035,0.00559649,0.0121535,1252,1772,5.12633,-19.4518
35,-748,5.11963,19.4775,0.00485042,-0.000527161,-0.00480478,0.00766758,-0.00334432,-0.530303,0.006519,0.0129857,1259,1772,5.11969,-19.4775
42,-748,5.11206,19.4923,0.00466395,-0.00105254,-0.00582427,0.00829352,-0.0046821,-0.557289,0.00758758,0.0132178,1266,1772,5.11206,-19.4923
49,-748,5.10669,19.5099,0.00404964,-0.00181767,-0.00670009,0.00843019,-0.00619821,-0.579045,0.00847842,0.0103353,1273,1772,5.10673,-19.5099
56,-748,5.07678,19.5463,0.00320591,-0.00253462,-0.00740489,0.00827736,-0.00760607,-0.600505,0.00917303,0.0103104,1280,1772,5.07678,-19.5463
63,-748,5.06775,19.5492,0.00216697,-0.0033424,-0.00789038,0.0077697,-0.00894513,-0.617453,0.00965827,0.0121348,1287,1772,5.06777,-19.5492
70,-748,5.05872,19.5686,0.00111693,-0.0041364,-0.00816723,0.00706949,-0.010089,-0.629817,0.00995743,0.0148473,1294,1772,5.05867,-19.5686
77,-748,5.05469,19.5732,0.000344805,-0.00483479,-0.00812827,0.00628588,-0.0107759,-0.631175,0.00996366,0.0139071,1301,1772,5.0547,-19.5732
84,-748,5.02112,19.5793,-0.000349711,-0.00562973,-0.00771891,0.00516818,-0.0111476,-0.620625,0.00962848,0.0149447,1308,1772,5.02116,-19.5793
91,-748,5.00513,19.5834,-0.0011139,-0.00651305,-0.00698756,0.00367743,-0.0113044,-0.60106,0.00901564,0.0115992,1315,1772,5.00511,-19.5834
98,-748,5.00342,19.5604,-0.00178345,-0.00709994,-0.00623468,0.00233603,-0.0112194,-0.583885,0.00836769,0.0104524,1322,1772,5.0034,-19.5604
105,-748,5.00757,19.5227,-0.00219553,-0.00734617,-0.00557955,0.00137436,-0.0109161,-0.569184,0.00777609,0.0111504,1329,1772,5.0076,-19.5227
112,-748,5.01453,19.5095,-0.00320736,-0.00735863,-0.00473643,-0.000111727,-0.0104543,-0.578887,0.00693257,0.0135982,1336,1772,5.01452,-19.5095
119,-748,5.00427,19.4961,-0.00321369,-0.00764686,-0.00335158,-0.00141202,-0.00944853,-0.49324,0.00588508,0.012366,1343,1772,5.00426,-19.4961
126,-748,4.99304,19.4899,-0.00252188,-0.00769234,-0.00258808,-0.00144902,-0.00876519,-0.392975,0.00542534,0.0140958,1350,1772,4.99305,-19.4899
133,-748,4.95166,19.4445,-0.00194162,-0.00761018,-0.00220424,-0.00118538,-0.00836641,-0.330499,0.00522747,0.0086912,1357,1772,4.95162,-19.4444
140,-748,4.94043,19.413,-0.00132416,-0.00731644,-0.00153105,-0.000955638,-0.00768496,-0.236207,0.00483634,0.0119005,1364,1772,4.94045,-19.413
147,-748,4.97485,19.3754,-0.000874117,-0.00690994,-0.000797203,-0.0007706,-0.00701346,-0.129129,0.00444112,0.0138483,1371,1772,4.97485,-19.3754
154,-748,4.93738,19.3422,-0.000248652,-0.00608382,-0.000202971,-0.000241601,-0.00609088,-0.0347282,0.00398249,0.0121056,1378,1772,4.93733,-19.3422
161,-748,4.91296,19.333,5.23569e-05,-0.0051066,0.000144539,5.64035e-05,-0.00511065,0.0279878,0.00342605,0.0186253,1385,1772,4.91301,-19.333
168,-748,4.92932,19.2878,0,0,0,0,0,0,0,-1,1392,1772,4.92935,-19.2878
175,-748,11.6235,16.8242,0,0,0,0,0,0,0,-1,1399,1772,11.6236,-16.8242
182,-748,7.62476,10.3058,0,0,0,0,0,0,0,-1,1406,1772,7.62476,-10.3058
189,-748,6.15857,6.95898,0,0,0,0,0,0,0,-1,1413,1772,6.15862,-6.95896
196,-748,3.9425,8.46021,0,0,0,0,0,0,0,-1,1420,1772,3.9425,-8.46026
203,-748,3.9668,12.9835,0,0,0,0,0,0,0,-1,1427,1772,3.96678,-12.9836
210,-748,4.71472,16.8318,0,0,0,0,0,0,0,-1,1434,1772,4.71471,-16.8317
217,-748,4.98901,18.585,0,0,0,0,0,0,0,-1,1441,1772,4.98903,-18.585
224,-748,5.42786,18.6224,0,0,0,0,0,0,0,-1,1448,1772,5.42781,-18.6224
231,-748,4.61377,18.5989,0,0,0,0,0,0,0,-1,1455,1772,4.6138,-18.5988
238,-748,4.53894,18.1462,0,0,0,0,0,0,0,-1,1462,1772,4.53899,-18.1463
245,-748,4.573,17.9648,0,0,0,0,0,0,0,-1,1469,1772,4.57305,-17.9649
252,-748,4.66162,17.4098,0,0,0,0,0,0,0,-1,1476,1772,4.66163,-17.4098
259,-748,4.37708,14.7086,0,0,0,0,0,0,0,-1,1483,1772,4.37712,-14.7086
266,-748,17.9011,7.59448,0,0,0,0,0,0,0,-1,1490,1772,17.9011,-7.59452
273,-748,16.4131,7.57129,0,0,0,0,0,0,0,-1,1497,1772,16.413,-7.57125
280,-748,15.2177,7.24829,0,0,0,0,0,0,0,-1,1504,1772,15.2176,-7.24833
287,-748,14.161,8.32813,0,0,0,0,0,0,0,-1,1511,1772,14.161,-8.32808
294,-748,12.3456,7.66956,0,0,0,0,0,0,0,-1,1518,1772,12.3455,-7.66955
301,-748,10.1475,7.08789,0,0,0,0,0,0,0,-1,1525,1772,10.1474,-7.08787
308,-748,8.37451,7.6344,0,0,0,0,0,0,0,-1,1532,1772,8.37447,-7.63443
315,-748,6.65149,8.06299,0,0,0,0,0,0,0,-1,1539,1772,6.65144,-8.063
322,-748,2.9469,13.4518,0,0,0,0,0,0,0,-1,1546,1772,2.94694,-13.4518
329,-748,3.48315,14.6533,0,0,0,0,0,0,0,-1,1553,1772,3.48316,-14.6534
336,-748,3.76001,15.8163,0,0,0,0,0,0,0,-1,1560,1772,3.75995,-15.8163
343,-748,0,0,0,0,0,0,0,0,0,-1,1567,1772,0,0
350,-748,0,0,0,0,0,0,0,0,0,-1,1574,1772,0,0
357,-748,0,0,0,0,0,0,0,0,0,-1,1581,1772,0,0
364,-748,0,0,0,0,0,0,0,0,0,-1,1588,1772,0,0
371,-748,0,0,0,0,0,0,0,0,0,-1,1595,1772,0,0
378,-748,0,0,0,0,0,0,0,0,0,-1,1602,1772,0,0
385,-748,0,0,0,0,0,0,0,0,0,-1,1609,1772,0,0
392,-748,0,0,0,0,0,0,0,0,0,-1,1616,1772,0,0
399,-748,0,0,0,0,0,0,0,0,0,-1,1623,1772,0,0
406,-748,0,0,0,0,0,0,0,0,0,-1,1630,1772,0,0
413,-748,0,0,0,0,0,0,0,0,0,-1,1637,1772,0,0
420,-748,0,0,0,0,0,0,0,0,0,-1,1644,1772,0,0
427,-748,0,0,0,0,0,0,0,0,0,-1,1651,1772,0,0
434,-748,0,0,0,0,0,0,0,0,0,-1,1658,1772,0,0
441,-748,0,0,0,0,0,0,0,0,0,-1,1665,1772,0,0
448,-748,0,0,0,0,0,0,0,0,0,-1,1672,1772,0,0
455,-748,0,0,0,0,0,0,0,0,0,-1,1679,1772,0,0
462,-748,0,0,0,0,0,0,0,0,0,-1,1686,1772,0,0
469,-748,0,0,0,0,0,0,0,0,0,-1,1693,1772,0,0
476,-748,0,0,0,0,0,0,0,0,0,-1,1700,1772,0,0
483,-748,0,0,0,0,0,0,0,0,0,-1,1707,1772,0,0
490,-748,0,0,0,0,0,0,0,0,0,-1,1714,1772,0,0
497,-748,0,0,0,0,0,0,0,0,0,-1,1721,1772,0,0
504,-748,0,0,0,0,0,0,0,0,0,-1,1728,1772,0,0
511,-748,0,0,0,0,0,0,0,0,0,-1,1735,1772,0,0
518,-748,0,0,0,0,0,0,0,0,0,-1,1742,1772,0,0
525,-748,0,0,0,0,0,0,0,0,0,-1,1749,1772,0,0
532,-748,0,0,0,0,0,0,0,0,0,-1,1756,1772,0,0
539,-748,0,0,0,0,0,0,0,0,0,-1,1763,1772,0,0
546,-748,0,0,0,0,0,0,0,0,0,-1,1770,1772,0,0
553,-748,0,0,0,0,0,0,0,0,0,-1,1777,1772,0,0
560,-748,0,0,0,0,0,0,0,0,0,-1,1784,1772,0,0
567,-748,0,0,0,0,0,0,0,0,0,-1,1791,1772,0,0
574,-748,0,0,0,0,0,0,0,0,0,-1,1798,1772,0,0
581,-748,0,0,0,0,0,0,0,0,0,-1,1805,1772,0,0
588,-748,0,0,0,0,0,0,0,0,0,-1,1812,1772,0,0
595,-748,0,0,0,0,0,0,0,0,0,-1,1819,1772,0,0
602,-748,0,0,0,0,0,0,0,0,0,-1,1826,1772,0,0
609,-748,0,0,0,0,0,0,0,0,0,-1,1833,1772,0,0
616,-748,0,0,0,0,0,0,0,0,0,-1,1840,1772,0,0
623,-748,0,0,0,0,0,0,0,0,0,-1,1847,1772,0,0
630,-748,0,0,0,0,0,0,0,0,0,-1,1854,1772,0,0
637,-748,0,0,0,0,0,0,0,0,0,-1,1861,1772,0,0
644,-748,0,0,0,0,0,0,0,0,0,-1,1868,1772,0,0
651,-748,0,0,0,0,0,0,0,0,0,-1,1875,1772,0,0
658,-748,0,0,0,0,0,0,0,0,0,-1,1882,1772,0,0
665,-748,0,0,0,0,0,0,0,0,0,-1,1889,1772,0,0
672,-748,0,0,0,0,0,0,0,0,0,-1,1896,1772,0,0
679,-748,0,0,0,0,0,0,0,0,0,-1,1903,1772,0,0
686,-748,0,0,0,0,0,0,0,0,0,-1,1910,1772,0,0
693,-748,0,0,0,0,0,0,0,0,0,-1,1917,1772,0,0
700,-748,0,0,0,0,0,0,0,0,0,-1,1924,1772,0,0
707,-748,0,0,0,0,0,0,0,0,0,-1,1931,1772,0,0
714,-748,0,0,0,0,0,0,0,0,0,-1,1938,1772,0,0
721,-748,0,0,0,0,0,0,0,0,0,-1,1945,1772,0,0
728,-748,0,0,0,0,0,0,0,0,0,-1,1952,1772,0,0
735,-748,0,0,0,0,0,0,0,0,0,-1,1959,1772,0,0
742,-748,0,0,0,0,0,0,0,0,0,-1,1966,1772,0,0
749,-748,0,0,0,0,0,0,0,0,0,-1,1973,1772,0,0
756,-748,0,0,0,0,0,0,0,0,0,-1,1980,1772,0,0
763,-748,0,0,0,0,0,0,0,0,0,-1,1987,1772,0,0
770,-748,0,0,0,0,0,0,0,0,0,-1,1994,1772,0,0
777,-748,0,0,0,0,0,0,0,0,0,-1,2001,1772,0,0
784,-748,0,0,0,0,0,0,0,0,0,-1,2008,1772,0,0
791,-748,0,0,0,0,0,0,0,0,0,-1,2015,1772,0,0
798,-748,0,0,0,0,0,0,0,0,0,-1,2022,1772,0,0
805,-748,0,0,0,0,0,0,0,0,0,-1,2029,1772,0,0
812,-748,0,0,0,0,0,0,0,0,0,-1,2036,1772,0,0
-700,-755,0,0,0,0,0,0,0,0,0,-1,524,1779,0,0
-693,-755,0,0,0,0,0,0,0,0,0,-1,531,1779,0,0
-686,-755,0,0,0,0,0,0,0,0,0,-1,538,1779,0,0
-679,-755,0,0,0,0,0,0,0,0,0,-1,545,1779,0,0
-672,-755,0,0,0,0,0,0,0,0,0,-1,552,1779,0,0
-665,-755,0,0,0,0,0,0,0,0,0,-1,559,1779,0,0
-658,-755,0,0,0,0,0,0,0,0,0,-1,566,1779,0,0
-651,-755,0,0,0,0,0,0,0,0,0,-1,573,1779,0,0
-644,-755,0,0,0,0,0,0,0,0,0,-1,580,1779,0,0
-637,-755,0,0,0,0,0,0,0,0,0,-1,587,1779,0,0
-630,-755,0,0,0,0,0,0,0,0,0,-1,594,1779,0,0
-623,-755,0,0,0,0,0,0,0,0,0,-1,601,1779,0,0
-616,-755,0,0,0,0,0,0,0,0,0,-1,608,1779,0,0
-609,-755,0,0,0,0,0,0,0,0,0,-1,615,1779,0,0
-602,-755,0,0,0,0,0,0,0,0,0,-1,622,1779,0,0
-595,-755,0,0,0,0,0,0,0,0,0,-1,629,1779,0,0
-588,-755,0,0,0,0,0,0,0,0,0,-1,636,1779,0,0
-581,-755,0,0,0,0,0,0,0,0,0,-1,643,1779,0,0
-574,-755,0,0,0,0,0,0,0,0,0,-1,650,1779,0,0
-567,-755,0,0,0,0,0,0,0,0,0,-1,657,1779,0,0
-560,-755,0,0,0,0,0,0,0,0,0,-1,664,1779,0,0
-553,-755,0,0,0,0,0,0,0,0,0,-1,671,1779,0,0
-546,-755,0,0,0,0,0,0,0,0,0,-1,678,1779,0,0
-539,-755,0,0,0,0,0,0,0,0,0,-1,685,1779,0,0
-532,-755,0,0,0,0,0,0,0,0,0,-1,692,1779,0,0
-525,-755,0,0,0,0,0,0,0,0,0,-1,699,1779,0,0
-518,-755,0,0,0,0,0,0,0,0,0,-1,706,1779,0,0
-511,-755,0,0,0,0,0,0,0,0,0,-1,713,1779,0,0
-504,-755,0,0,0,0,0,0,0,0,0,-1,720,1779,0,0
-497,-755,0,0,0,0,0,0,0,0,0,-1,727,1779,0,0
-490,-755,0,0,0,0,0,0,0,0,0,-1,734,1779,0,0
-483,-755,0,0,0,0,0,0,0,0,0,-1,741,1779,0,0
-476,-755,0,0,0,0,0,0,0,0,0,-1,748,1779,0,0
-469,-755,0,0,0,0,0,0,0,0,0,-1,755,1779,0,0
-462,-755,0,0,0,0,0,0,0,0,0,-1,762,1779,0,0
-455,-755,0,0,0,0,0,0,0,0,0,-1,769,1779,0,0
-448,-755,0,0,0,0,0,0,0,0,0,-1,776,1779,0,0
-441,-755,0,0,0,0,0,0,0,0,0,-1,783,1779,0,0
-434,-755,0,0,0,0,0,0,0,0,0,-1,790,1779,0,0
-427,-755,0,0,0,0,0,0,0,0,0,-1,797,1779,0,0
-420,-755,0,0,0,0,0,0,0,0,0,-1,804,1779,0,0
-413,-755,0,0,0,0,0,0,0,0,0,-1,811,1779,0,0
-406,-755,0,0,0,0,0,0,0,0,0,-1,818,1779,0,0
-399,-755,0,0,0,0,0,0,0,0,0,-1,825,1779,0,0
-392,-755,0,0,0,0,0,0,0,0,0,-1,832,1779,0,0
-385,-755,0,0,0,0,0,0,0,0,0,-1,839,1779,0,0
-378,-755,0,0,0,0,0,0,0,0,0,-1,846,1779,0,0
-371,-755,0,0,0,0,0,0,0,0,0,-1,853,1779,0,0
-364,-755,0,0,0,0,0,0,0,0,0,-1,860,1779,0,0
-357,-755,0,0,0,0,0,0,0,0,0,-1,867,1779,0,0
-350,-755,0,0,0,0,0,0,0,0,0,-1,874,1779,0,0
-343,-755,0,0,0,0,0,0,0,0,0,-1,881,1779,0,0
-336,-755,0,0,0,0,0,0,0,0,0,-1,888,1779,0,0
-329,-755,0,0,0,0,0,0,0,0,0,-1,895,1779,0,0
-322,-755,0,0,0,0,0,0,0,0,0,-1,902,1779,0,0
-315,-755,0,0,0,0,0,0,0,0,0,-1,909,1779,0,0
-308,-755,0,0,0,0,0,0,0,0,0,-1,916,1779,0,0
-301,-755,0,0,0,0,0,0,0,0,0,-1,923,1779,0,0
-294,-755,0,0,0,0,0,0,0,0,0,-1,930,1779,0,0
-287,-755,0,0,0,0,0,0,0,0,0,-1,937,1779,0,0
-280,-755,0,0,0,0,0,0,0,0,0,-1,944,1779,0,0
-273,-755,0,0,0,0,0,0,0,0,0,-1,951,1779,0,0
-266,-755,0,0,0,0,0,0,0,0,0,-1,958,1779,0,0
-259,-755,0,0,0,0,0,0,0,0,0,-1,965,1779,0,0
-252,-755,0,0,0,0,0,0,0,0,0,-1,972,1779,0,0
-245,-755,0,0,0,0,0,0,0,0,0,-1,979,1779,0,0
-238,-755,0,0,0,0,0,0,0,0,0,-1,986,1779,0,0
-231,-755,0,0,0,0,0,0,0,0,0,-1,993,1779,0,0
-224,-755,0,0,0,0,0,0,0,0,0,-1,1000,1779,0,0
-217,-755,0,0,0,0,0,0,0,0,0,-1,1007,1779,0,0
-210,-755,0,0,0,0,0,0,0,0,0,-1,1014,1779,0,0
-203,-755,-3.07153,13.8969,0,0,0,0,0,0,0,-1,1021,1779,-3.07152,-13.8969
-196,-755,4.91333,14.9064,0,0,0,0,0,0,0,-1,1028,1779,4.91327,-14.9063
-189,-755,4.85864,12.9271,0,0,0,0,0,0,0,-1,1035,1779,4.85866,-12.9272
-182,-755,0.733154,13.2736,0,0,0,0,0,0,0,-1,1042,1779,0.733112,-13.2735
-175,-755,5.40198,14.8074,0,0,0,0,0,0,0,-1,1049,1779,5.40199,-14.8074
-168,-755,4.5177,13.7404,0,0,0,0,0,0,0,-1,1056,1779,4.5177,-13.7403
-161,-755,-2.85889,11.5868,0,0,0,0,0,0,0,-1,1063,1779,-2.85887,-11.5868
-154,-755,-3.83704,10.8331,0,0,0,0,0,0,0,-1,1070,1779,-3.83702,-10.8332
-147,-755,-5.40332,10.7094,0,0,0,0,0,0,0,-1,1077,1779,-5.40328,-10.7094
-140,-755,2.71313,10.0286,0,0,0,0,0,0,0,-1,1084,1779,2.71319,-10.0286
-133,-755,5.20081,16.4813,0,0,0,0,0,0,0,-1,1091,1779,5.20086,-16.4814
-126,-755,5.44031,16.7444,-0.00422793,0.0443028,-0.0101208,0.0463288,-0.00625397,-1.37322,0.0331677,0.0473205,1098,1779,5.44026,-16.7444
-119,-755,5.57678,16.7888,-0.00304385,0.0415729,-0.0100949,0.0437506,-0.00522162,-1.35832,0.0310543,0.0442103,1105,1779,5.57683,-16.7889
-112,-755,5.5083,16.6654,-0.00211565,0.0387032,-0.0100178,0.0410292,-0.00444167,-1.34265,0.0289472,0.0402372,1112,1779,5.50825,-16.6654
-105,-755,6.00085,18.864,0,0,0,0,0,0,0,-1,1119,1779,6.00081,-18.8641
-98,-755,4.26819,14.9769,0,0,0,0,0,0,0,-1,1126,1779,4.26815,-14.9769
-91,-755,3.91394,13.0228,0,0,0,0,0,0,0,-1,1133,1779,3.91399,-13.0228
-84,-755,0.169312,8.66443,0,0,0,0,0,0,0,-1,1140,1779,0.16932,-8.66446
-77,-755,-0.0491943,6.87439,0,0,0,0,0,0,0,-1,1147,1779,-0.0491385,-6.87443
-70,-755,4.5686,13.2169,0,0,0,0,0,0,0,-1,1154,1779,4.56865,-13.2169
-63,-755,-1.36316,7.3147,0,0,0,0,0,0,0,-1,1161,1779,-1.36312,-7.31473
-56,-755,0.0483398,5.06079,0,0,0,0,0,0,0,-1,1168,1779,0.0483138,-5.06084
-49,-755,-1.32263,5.33716,0,0,0,0,0,0,0,-1,1175,1779,-1.32264,-5.33718
-42,-755,-2.03613,4.01672,0,0,0,0,0,0,0,-1,1182,1779,-2.0361,-4.01671
-35,-755,-2.72498,2.37476,0,0,0,0,0,0,0,-1,1189,1779,-2.72502,-2.37473
-28,-755,5.09937,19.3177,0,0,0,0,0,0,0,-1,1196,1779,5.09936,-19.3178
-21,-755,5.26868,19.3076,0,0,0,0,0,0,0,-1,1203,1779,5.2687,-19.3076
-14,-755,5.40161,19.1953,0.0107156,0.0035277,-2.39237e-05,0.0107157,0.00352762,-0.00332829,0.00630587,0.0342342,1210,1779,5.4016,-19.1953
-7,-755,5.22107,19.2343,0.0100335,0.00305457,-0.00018627,0.0100385,0.0030496,-0.0266649,0.00594262,0.0239312,1217,1779,5.22103,-19.2343
0,-755,5.19763,19.2709,0.00884168,0.0025431,-0.00034669,0.0088607,0.00252408,-0.0548218,0.00527122,0.0140598,1224,1779,5.19764,-19.2709
7,-755,5.21948,19.3103,0.00881626,0.00163203,-0.00073911,0.00889151,0.00155678,-0.101463,0.00548292,0.0122084,1231,1779,5.21946,-19.3102
14,-755,5.20386,19.3669,0.0084977,0.000975628,-0.00233831,0.00916533,0.000307995,-0.278119,0.00601019,0.0108486,1238,1779,5.20387,-19.367
21,-755,5.15222,19.4213,0.00774546,0.000299378,-0.00384036,0.00937119,-0.00132635,-0.400454,0.00673327,0.0151701,1245,1779,5.15225,-19.4213
28,-755,5.13586,19.4462,0.00709375,-0.000241413,-0.00495224,0.00958862,-0.00273629,-0.466673,0.00747339,0.0182712,1252,1779,5.13591,-19.4461
35,-755,5.14246,19.5211,0.00637897,-0.000844313,-0.00631929,0.0100459,-0.00451123,-0.525788,0.00860466,0.0178275,1259,1779,5.14242,-19.5211
42,-755,5.12939,19.5098,0.00580779,-0.00164252,-0.00767506,0.0106139,-0.00644869,-0.559465,0.00994848,0.0131501,1266,1779,5.12943,-19.5098
49,-755,5.13269,19.5044,0.00475736,-0.0027341,-0.00882381,0.0105976,-0.0085743,-0.584673,0.0110894,0.0092314,1273,1779,5.13269,-19.5044
56,-755,5.09998,19.5399,0.00346584,-0.00370379,-0.00974284,0.0102624,-0.0105004,-0.609113,0.0119877,0.00875855,1280,1779,5.09998,-19.5399
63,-755,5.08459,19.5596,0.00195965,-0.0047614,-0.0103522,0.00948306,-0.0122848,-0.628454,0.0126023,0.00916819,1287,1779,5.08454,-19.5595
70,-755,5.07129,19.5553,0.000477179,-0.00581595,-0.0107025,0.00848607,-0.0138248,-0.642425,0.0130036,0.0117271,1294,1779,5.07125,-19.5553
77,-755,5.06433,19.5447,-0.000565039,-0.00677755,-0.0106419,0.00741471,-0.0147573,-0.643399,0.0130329,0.0112424,1301,1779,5.06435,-19.5447
84,-755,5.08533,19.5332,-0.00141426,-0.00785556,-0.0100956,0.005962,-0.0152318,-0.630994,0.0126204,0.0114061,1308,1779,5.08528,-19.5332
91,-755,5.05859,19.5195,-0.00237901,-0.00903692,-0.00912912,0.00400917,-0.0154251,-0.610564,0.0118481,0.0116933,1315,1779,5.05856,-19.5196
98,-755,5.01318,19.5145,-0.00322012,-0.00980133,-0.00814802,0.00227667,-0.0152981,-0.593486,0.0110362,0.0129606,1322,1779,5.01321,-19.5145
105,-755,5.02209,19.5454,-0.00364237,-0.0102024,-0.0073042,0.00108447,-0.0149293,-0.574362,0.0103333,0.0154931,1329,1779,5.02209,-19.5454
112,-755,5.01111,19.5175,-0.00489163,-0.0103452,-0.00624461,-0.000804403,-0.0144324,-0.579546,0.00936497,0.0197202,1336,1779,5.01107,-19.5175
119,-755,5.0011,19.4829,-0.0047565,-0.0108452,-0.00446622,-0.00239576,-0.013206,-0.486248,0.00812403,0.0194445,1343,1779,5.00108,-19.4829
126,-755,4.89404,19.519,-0.00372786,-0.0111001,-0.00347595,-0.00234745,-0.0124805,-0.378031,0.00765873,0.022312,1350,1779,4.89402,-19.519
133,-755,4.80762,19.4882,-0.00283043,-0.0112212,-0.0030065,-0.00186439,-0.0121872,-0.310897,0.00758018,0.0235891,1357,1779,4.80766,-19.4882
140,-755,4.81885,19.499,-0.00190037,-0.0110484,-0.00209301,-0.00144425,-0.0115045,-0.214572,0.00723647,0.0284042,1364,1779,4.81889,-19.499
147,-755,4.88135,19.5116,-0.00124633,-0.0107698,-0.00107186,-0.00112718,-0.010889,-0.110703,0.0069143,0.0314255,1371,1779,4.88137,-19.5115
154,-755,4.95886,19.4127,-0.000273812,-0.0098727,-0.000187308,-0.000270158,-0.00987635,-0.0195036,0.00649605,0.0332602,1378,1779,4.95888,-19.4128
161,-755,4.86975,19.3972,0,0,0,0,0,0,0,-1,1385,1779,4.86973,-19.3972
168,-755,3.98181,7.35901,0,0,0,0,0,0,0,-1,1392,1779,3.98184,-7.35904
175,-755,8.17065,1.34363,0,0,0,0,0,0,0,-1,1399,1779,8.1706,-1.34368
182,-755,8.09216,2.96924,0,0,0,0,0,0,0,-1,1406,1779,8.09213,-2.9693
189,-755,8.04419,4.68042,0,0,0,0,0,0,0,-1,1413,1779,8.04419,-4.68046
196,-755,7.74841,7.4541,0,0,0,0,0,0,0,-1,1420,1779,7.74842,-7.45405
203,-755,4.80554,6.88696,0,0,0,0,0,0,0,-1,1427,1779,4.80554,-6.88697
210,-755,25.1694,7.35693,0,0,0,0,0,0,0,-1,1434,1779,25.1694,-7.35688
217,-755,5.01648,16.411,0,0,0,0,0,0,0,-1,1441,1779,5.01646,-16.411
224,-755,5.71436,18.6298,0,0,0,0,0,0,0,-1,1448,1779,5.71437,-18.6297
231,-755,2.83716,17.5096,0,0,0,0,0,0,0,-1,1455,1779,2.83714,-17.5096
238,-755,4.4281,17.8538,0,0,0,0,0,0,0,-1,1462,1779,4.42807,-17.8537
245,-755,4.3208,13.4552,0,0,0,0,0,0,0,-1,1469,1779,4.32076,-13.4551
252,-755,3.42957,12.0458,0,0,0,0,0,0,0,-1,1476,1779,3.42961,-12.0458
259,-755,18.481,8.25134,0,0,0,0,0,0,0,-1,1483,1779,18.4809,-8.25139
266,-755,17.255,7.86096,0,0,0,0,0,0,0,-1,1490,1779,17.255,-7.86092
273,-755,15.7932,7.59778,0,0,0,0,0,0,0,-1,1497,1779,15.7932,-7.59777
280,-755,14.6255,7.34802,0,0,0,0,0,0,0,-1,1504,1779,14.6254,-7.34806
287,-755,13.1736,7.34705,0,0,0,0,0,0,0,-1,1511,1779,13.1736,-7.34709
294,-755,11.4563,7.27002,0,0,0,0,0,0,0,-1,1518,1779,11.4563,-7.26998
301,-755,9.98267,7.87927,0,0,0,0,0,0,0,-1,1525,1779,9.98265,-7.87925
308,-755,8.23889,8.34631,0,0,0,0,0,0,0,-1,1532,1779,8.23889,-8.34626
315,-755,6.46362,8.76587,0,0,0,0,0,0,0,-1,1539,1779,6.46364,-8.76592
322,-755,0,0,0,0,0,0,0,0,0,-1,1546,1779,0,0
329,-755,0,0,0,0,0,0,0,0,0,-1,1553,1779,0,0
336,-755,0,0,0,0,0,0,0,0,0,-1,1560,1779,0,0
343,-755,0,0,0,0,0,0,0,0,0,-1,1567,1779,0,0
350,-755,0,0,0,0,0,0,0,0,0,-1,1574,1779,0,0
357,-755,0,0,0,0,0,0,0,0,0,-1,1581,1779,0,0
364,-755,0,0,0,0,0,0,0,0,0,-1,1588,1779,0,0
371,-755,0,0,0,0,0,0,0,0,0,-1,1595,1779,0,0
378,-755,0,0,0,0,0,0,0,0,0,-1,1602,1779,0,0
385,-755,0,0,0,0,0,0,0,0,0,-1,1609,1779,0,0
392,-755,0,0,0,0,0,0,0,0,0,-1,1616,1779,0,0
399,-755,0,0,0,0,0,0,0,0,0,-1,1623,1779,0,0
406,-755,0,0,0,0,0,0,0,0,0,-1,1630,1779,0,0
413,-755,0,0,0,0,0,0,0,0,0,-1,1637,1779,0,0
420,-755,0,0,0,0,0,0,0,0,0,-1,1644,1779,0,0
427,-755,0,0,0,0,0,0,0,0,0,-1,1651,1779,0,0
434,-755,0,0,0,0,0,0,0,0,0,-1,1658,1779,0,0
441,-755,0,0,0,0,0,0,0,0,0,-1,1665,1779,0,0
448,-755,0,0,0,0,0,0,0,0,0,-1,1672,1779,0,0
455,-755,0,0,0,0,0,0,0,0,0,-1,1679,1779,0,0
462,-755,0,0,0,0,0,0,0,0,0,-1,1686,1779,0,0
469,-755,0,0,0,0,0,0,0,0,0,-1,1693,1779,0,0
476,-755,0,0,0,0,0,0,0,0,0,-1,1700,1779,0,0
483,-755,0,0,0,0,0,0,0,0,0,-1,1707,1779,0,0
490,-755,0,0,0,0,0,0,0,0,0,-1,1714,1779,0,0
497,-755,0,0,0,0,0,0,0,0,0,-1,1721,1779,0,0
504,-755,0,0,0,0,0,0,0,0,0,-1,1728,1779,0,0
511,-755,0,0,0,0,0,0,0,0,0,-1,1735,1779,0,0
518,-755,0,0,0,0,0,0,0,0,0,-1,1742,1779,0,0
525,-755,0,0,0,0,0,0,0,0,0,-1,1749,1779,0,0
532,-755,0,0,0,0,0,0,0,0,0,-1,1756,1779,0,0
539,-755,0,0,0,0,0,0,0,0,0,-1,1763,1779,0,0
546,-755,0,0,0,0,0,0,0,0,0,-1,1770,1779,0,0
553,-755,0,0,0,0,0,0,0,0,0,-1,1777,1779,0,0
560,-755,0,0,0,0,0,0,0,0,0,-1,1784,1779,0,0
567,-755,0,0,0,0,0,0,0,0,0,-1,1791,1779,0,0
574,-755,0,0,0,0,0,0,0,0,0,-1,1798,1779,0,0
581,-755,0,0,0,0,0,0,0,0,0,-1,1805,1779,0,0
588,-755,0,0,0,0,0,0,0,0,0,-1,1812,1779,0,0
595,-755,0,0,0,0,0,0,0,0,0,-1,1819,1779,0,0
602,-755,0,0,0,0,0,0,0,0,0,-1,1826,1779,0,0
609,-755,0,0,0,0,0,0,0,0,0,-1,1833,1779,0,0
616,-755,0,0,0,0,0,0,0,0,0,-1,1840,1779,0,0
623,-755,0,0,0,0,0,0,0,0,0,-1,1847,1779,0,0
630,-755,0,0,0,0,0,0,0,0,0,-1,1854,1779,0,0
637,-755,0,0,0,0,0,0,0,0,0,-1,1861,1779,0,0
644,-755,0,0,0,0,0,0,0,0,0,-1,1868,1779,0,0
651,-755,0,0,0,0,0,0,0,0,0,-1,1875,1779,0,0
658,-755,0,0,0,0,0,0,0,0,0,-1,1882,1779,0,0
665,-755,0,0,0,0,0,0,0,0,0,-1,1889,1779,0,0
672,-755,0,0,0,0,0,0,0,0,0,-1,1896,1779,0,0
679,-755,0,0,0,0,0,0,0,0,0,-1,1903,1779,0,0
686,-755,0,0,0,0,0,0,0,0,0,-1,1910,1779,0,0
693,-755,0,0,0,0,0,0,0,0,0,-1,1917,1779,0,0
700,-755,0,0,0,0,0,0,0,0,0,-1,1924,1779,0,0
707,-755,0,0,0,0,0,0,0,0,0,-1,1931,1779,0,0
714,-755,0,0,0,0,0,0,0,0,0,-1,1938,1779,0,0
721,-755,0,0,0,0,0,0,0,0,0,-1,1945,1779,0,0
728,-755,0,0,0,0,0,0,0,0,0,-1,1952,1779,0,0
735,-755,0,0,0,0,0,0,0,0,0,-1,1959,1779,0,0
742,-755,0,0,0,0,0,0,0,0,0,-1,1966,1779,0,0
749,-755,0,0,0,0,0,0,0,0,0,-1,1973,1779,0,0
756,-755,0,0,0,0,0,0,0,0,0,-1,1980,1779,0,0
763,-755,0,0,0,0,0,0,0,0,0,-1,1987,1779,0,0
770,-755,0,0,0,0,0,0,0,0,0,-1,1994,1779,0,0
777,-755,0,0,0,0,0,0,0,0,0,-1,2001,1779,0,0
784,-755,0,0,0,0,0,0,0,0,0,-1,2008,1779,0,0
791,-755,0,0,0,0,0,0,0,0,0,-1,2015,1779,0,0
798,-755,0,0,0,0,0,0,0,0,0,-1,2022,1779,0,0
805,-755,0,0,0,0,0,0,0,0,0,-1,2029,1779,0,0
812,-755,0,0,0,0,0,0,0,0,0,-1,2036,1779,0,0
-700,-762,0,0,0,0,0,0,0,0,0,-1,524,1786,0,0
-693,-762,0,0,0,0,0,0,0,0,0,-1,531,1786,0,0
-686,-762,0,0,0,0,0,0,0,0,0,-1,538,1786,0,0
-679,-762,0,0,0,0,0,0,0,0,0,-1,545,1786,0,0
-672,-762,0,0,0,0,0,0,0,0,0,-1,552,1786,0,0
-665,-762,0,0,0,0,0,0,0,0,0,-1,559,1786,0,0
-658,-762,0,0,0,0,0,0,0,0,0,-1,566,1786,0,0
-651,-762,0,0,0,0,0,0,0,0,0,-1,573,1786,0,0
-644,-762,0,0,0,0,0,0,0,0,0,-1,580,1786,0,0
-637,-762,0,0,0,0,0,0,0,0,0,-1,587,1786,0,0
-630,-762,0,0,0,0,0,0,0,0,0,-1,594,1786,0,0
-623,-762,0,0,0,0,0,0,0,0,0,-1,601,1786,0,0
-616,-762,0,0,0,0,0,0,0,0,0,-1,608,1786,0,0
-609,-762,0,0,0,0,0,0,0,0,0,-1,615,1786,0,0
-602,-762,0,0,0,0,0,0,0,0,0,-1,622,1786,0,0
-595,-762,0,0,0,0,0,0,0,0,0,-1,629,1786,0,0
-588,-762,0,0,0,0,0,0,0,0,0,-1,636,1786,0,0
-581,-762,0,0,0,0,0,0,0,0,0,-1,643,1786,0,0
-574,-762,0,0,0,0,0,0,0,0,0,-1,650,1786,0,0
-567,-762,0,0,0,0,0,0,0,0,0,-1,657,1786,0,0
-560,-762,0,0,0,0,0,0,0,0,0,-1,664,1786,0,0
-553,-762,0,0,0,0,0,0,0,0,0,-1,671,1786,0,0
-546,-762,0,0,0,0,0,0,0,0,0,-1,678,1786,0,0
-539,-762,0,0,0,0,0,0,0,0,0,-1,685,1786,0,0
-532,-762,0,0,0,0,0,0,0,0,0,-1,692,1786,0,0
-525,-762,0,0,0,0,0,0,0,0,0,-1,699,1786,0,0
-518,-762,0,0,0,0,0,0,0,0,0,-1,706,1786,0,0
-511,-762,0,0,0,0,0,0,0,0,0,-1,713,1786,0,0
-504,-762,0,0,0,0,0,0,0,0,0,-1,720,1786,0,0
-497,-762,0,0,0,0,0,0,0,0,0,-1,727,1786,0,0
-490,-762,0,0,0,0,0,0,0,0,0,-1,734,1786,0,0
-483,-762,0,0,0,0,0,0,0,0,0,-1,741,1786,0,0
-476,-762,0,0,0,0,0,0,0,0,0,-1,748,1786,0,0
-469,-762,0,0,0,0,0,0,0,0,0,-1,755,1786,0,0
-462,-762,0,0,0,0,0,0,0,0,0,-1,762,1786,0,0
-455,-762,0,0,0,0,0,0,0,0,0,-1,769,1786,0,0
-448,-762,0,0,0,0,0,0,0,0,0,-1,776,1786,0,0
-441,-762,0,0,0,0,0,0,0,0,0,-1,783,1786,0,0
-434,-762,0,0,0,0,0,0,0,0,0,-1,790,1786,0,0
-427,-762,0,0,0,0,0,0,0,0,0,-1,797,1786,0,0
-420,-762,0,0,0,0,0,0,0,0,0,-1,804,1786,0,0
-413,-762,0,0,0,0,0,0,0,0,0,-1,811,1786,0,0
-406,-762,0,0,0,0,0,0,0,0,0,-1,818,1786,0,0
-399,-762,0,0,0,0,0,0,0,0,0,-1,825,1786,0,0
-392,-762,0,0,0,0,0,0,0,0,0,-1,832,1786,0,0
-385,-762,0,0,0,0,0,0,0,0,0,-1,839,1786,0,0
-378,-762,0,0,0,0,0,0,0,0,0,-1,846,1786,0,0
-371,-762,0,0,0,0,0,0,0,0,0,-1,853,1786,0,0
-364,-762,0,0,0,0,0,0,0,0,0,-1,860,1786,0,0
-357,-762,0,0,0,0,0,0,0,0,0,-1,867,1786,0,0
-350,-762,0,0,0,0,0,0,0,0,0,-1,874,1786,0,0
-343,-762,0,0,0,0,0,0,0,0,0,-1,881,1786,0,0
-336,-762,0,0,0,0,0,0,0,0,0,-1,888,1786,0,0
-329,-762,0,0,0,0,0,0,0,0,0,-1,895,1786,0,0
-322,-762,0,0,0,0,0,0,0,0,0,-1,902,1786,0,0
-315,-762,0,0,0,0,0,0,0,0,0,-1,909,1786,0,0
-308,-762,0,0,0,0,0,0,0,0,0,-1,916,1786,0,0
-301,-762,0,0,0,0,0,0,0,0,0,-1,923,1786,0,0
-294,-762,0,0,0,0,0,0,0,0,0,-1,930,1786,0,0
-287,-762,0,0,0,0,0,0,0,0,0,-1,937,1786,0,0
-280,-762,0,0,0,0,0,0,0,0,0,-1,944,1786,0,0
-273,-762,0,0,0,0,0,0,0,0,0,-1,951,1786,0,0
-266,-762,0,0,0,0,0,0,0,0,0,-1,958,1786,0,0
-259,-762,0,0,0,0,0,0,0,0,0,-1,965,1786,0,0
-252,-762,0,0,0,0,0,0,0,0,0,-1,972,1786,0,0
-245,-762,0,0,0,0,0,0,0,0,0,-1,979,1786,0,0
-238,-762,0,0,0,0,0,0,0,0,0,-1,986,1786,0,0
-231,-762,0,0,0,0,0,0,0,0,0,-1,993,1786,0,0
-224,-762,0,0,0,0,0,0,0,0,0,-1,1000,1786,0,0
-217,-762,0,0,0,0,0,0,0,0,0,-1,1007,1786,0,0
-210,-762,0,0,0,0,0,0,0,0,0,-1,1014,1786,0,0
-203,-762,0,0,0,0,0,0,0,0,0,-1,1021,1786,0,0
-196,-762,0,0,0,0,0,0,0,0,0,-1,1028,1786,0,0
-189,-762,0,0,0,0,0,0,0,0,0,-1,1035,1786,0,0
-182,-762,4.44226,13.2462,0,0,0,0,0,0,0,-1,1042,1786,4.44227,-13.2462
-175,-762,-1.29956,14.1766,0,0,0,0,0,0,0,-1,1049,1786,-1.29956,-14.1767
-168,-762,-2.08618,13.0768,0,0,0,0,0,0,0,-1,1056,1786,-2.08623,-13.0768
-161,-762,-3.29077,11.9508,0,0,0,0,0,0,0,-1,1063,1786,-3.29076,-11.9508
-154,-762,-4.55823,11.1176,0,0,0,0,0,0,0,-1,1070,1786,-4.55828,-11.1175
-147,-762,-1.09119,4.58313,0,0,0,0,0,0,0,-1,1077,1786,-1.09124,-4.58313
-140,-762,4.99792,5.28589,0,0,0,0,0,0,0,-1,1084,1786,4.99793,-5.28587
-133,-762,6.06946,15.3156,0,0,0,0,0,0,0,-1,1091,1786,6.06945,-15.3155
-126,-762,5.93591,15.8995,-0.00420017,0.061648,-0.0121738,0.0638266,-0.00637876,-1.39371,0.0448288,0.0491206,1098,1786,5.93595,-15.8995
-119,-762,5.76563,16.3793,-0.00270276,0.0574791,-0.0122675,0.0598837,-0.0051073,-1.37724,0.0417292,0.0465635,1105,1786,5.76559,-16.3793
-112,-762,5.81848,16.567,-0.00166445,0.0535308,-0.0122901,0.0561437,-0.00427735,-1.36131,0.0389333,0.0444091,1112,1786,5.81847,-16.5671
-105,-762,6.05835,16.9724,0,0,0,0,0,0,0,-1,1119,1786,6.05837,-16.9724
-98,-762,4.57495,16.0953,0,0,0,0,0,0,0,-1,1126,1786,4.57496,-16.0954
-91,-762,4.04016,14.6007,0,0,0,0,0,0,0,-1,1133,1786,4.04013,-14.6007
-84,-762,0.415161,10.0322,0,0,0,0,0,0,0,-1,1140,1786,0.415179,-10.0322
-77,-762,0.305054,8.49365,0,0,0,0,0,0,0,-1,1147,1786,0.305008,-8.49362
-70,-762,0.183716,6.74622,0,0,0,0,0,0,0,-1,1154,1786,0.183696,-6.74621
-63,-762,-0.883057,9.08813,0,0,0,0,0,0,0,-1,1161,1786,-0.88311,-9.08808
-56,-762,-0.578979,5.10254,0,0,0,0,0,0,0,-1,1168,1786,-0.578951,-5.10249
-49,-762,-2.04541,3.66321,0,0,0,0,0,0,0,-1,1175,1786,-2.0454,-3.66319
-42,-762,-2.23462,3.474,0,0,0,0,0,0,0,-1,1182,1786,-2.23459,-3.47399
-35,-762,-3.28992,1.68164,0,0,0,0,0,0,0,-1,1189,1786,-3.28998,-1.68164
-28,-762,-3.75378,1.37769,0,0,0,0,0,0,0,-1,1196,1786,-3.75373,-1.37767
-21,-762,5.85034,19.1193,0,0,0,0,0,0,0,-1,1203,1786,5.85039,-19.1193
-14,-762,5.60852,19.1599,0.0167755,0.00508062,0.000483111,0.0167955,0.0050607,0.0412159,0.00994879,0.0481865,1210,1786,5.60851,-19.1599
-7,-762,5.34045,19.1982,0.0157173,0.00435184,0.000257019,0.0157231,0.00434604,0.0225986,0.00937543,0.048678,1217,1786,5.3405,-19.1982
0,-762,5.22607,19.2747,0.0139121,0.00371297,-2.1007e-05,0.0139121,0.00371293,-0.00205967,0.00831808,0.0344451,1224,1786,5.22613,-19.2747
7,-762,5.30359,19.3252,0.0134675,0.00259585,-0.000559033,0.0134962,0.00256718,-0.0512409,0.00827556,0.0198099,1231,1786,5.30359,-19.3252
14,-762,5.32813,19.5066,0.0127806,0.0016618,-0.00265567,0.0133823,0.00106007,-0.22282,0.00859003,0.03415,1238,1786,5.32814,-19.5065
21,-762,5.349,19.7079,0.0115501,0.000710314,-0.00472096,0.0133179,-0.00105747,-0.358292,0.00925127,0.0411536,1245,1786,5.34899,-19.7078
28,-762,5.10828,19.6588,0.0104,-8.69877e-05,-0.00623159,0.0133006,-0.00298763,-0.435648,0.0100126,0.0386856,1252,1786,5.10822,-19.6588
35,-762,5.13037,19.5874,0.00914466,-0.00098257,-0.00807595,0.0136132,-0.00545107,-0.50538,0.011338,0.0402823,1259,1786,5.13038,-19.5873
42,-762,5.07471,19.5704,0.00808493,-0.00207741,-0.00987858,0.0141125,-0.00810501,-0.547863,0.0129827,0.0395468,1266,1786,5.07473,-19.5704
49,-762,5.09143,19.5785,0.00646479,-0.00355285,-0.011383,0.0138922,-0.0109803,-0.578133,0.0143929,0.0312859,1273,1786,5.09147,-19.5785
56,-762,5.13696,19.5299,0.00456634,-0.0048238,-0.0125781,0.0132971,-0.0135545,-0.60677,0.015503,0.0211641,1280,1786,5.13699,-19.5299
63,-762,5.09387,19.5421,0.00238027,-0.00619765,-0.0133205,0.0120853,-0.0159026,-0.629648,0.0162088,0.0195999,1287,1786,5.09382,-19.5421
70,-762,5.08826,19.5538,0.000218825,-0.00760479,-0.0137386,0.0105917,-0.0179776,-0.646703,0.0166772,0.0192299,1294,1786,5.08823,-19.5538
77,-762,5.13904,19.5056,-0.00127578,-0.00894105,-0.0136153,0.00903601,-0.0192528,-0.648201,0.0166839,0.0257397,1301,1786,5.139,-19.5056
84,-762,5.24817,19.4741,-0.0024056,-0.01042,-0.0128511,0.00704856,-0.0198742,-0.634266,0.0161211,0.030955,1308,1786,5.24814,-19.4741
91,-762,5.23071,19.5337,-0.00372875,-0.0120106,-0.0115422,0.00439285,-0.0201322,-0.613168,0.0151002,0.0402387,1315,1786,5.23071,-19.5338
98,-762,5.10022,19.6372,-0.00489763,-0.0130317,-0.0102381,0.00205164,-0.019981,-0.596334,0.0140545,0.0426349,1322,1786,5.10017,-19.6371
105,-762,5.06238,19.7203,-0.00544155,-0.013694,-0.0091181,0.000440481,-0.0195761,-0.572919,0.0132,0.040555,1329,1786,5.06239,-19.7204
112,-762,5.01013,19.5381,-0.00699104,-0.0140865,-0.00777492,-0.00199268,-0.0190849,-0.571355,0.0121138,0.0425525,1336,1786,5.01014,-19.5381
119,-762,5.00085,19.4084,-0.00667877,-0.0148872,-0.00557838,-0.00385746,-0.0177085,-0.468244,0.010753,0.0413781,1343,1786,5.00087,-19.4085
126,-762,5.0426,19.363,-0.00522798,-0.015416,-0.00437184,-0.00360917,-0.0170348,-0.354626,0.0103651,0.0446291,1350,1786,5.04265,-19.363
133,-762,4.66418,19.4602,-0.00393361,-0.0158138,-0.0038076,-0.00281803,-0.0169294,-0.285011,0.010474,0.0473792,1357,1786,4.66418,-19.4602
140,-762,4.64307,19.4379,-0.00264353,-0.0158329,-0.00260417,-0.00214797,-0.0163285,-0.188046,0.010245,0.0440956,1364,1786,4.64308,-19.4379
147,-762,4.73389,19.6234,-0.00176133,-0.0158019,-0.00124474,-0.00165184,-0.0159114,-0.0877409,0.0101021,0.0445133,1371,1786,4.73387,-19.6234
154,-762,4.78638,19.481,0,0,0,0,0,0,0,-1,1378,1786,4.78634,-19.4809
161,-762,7.93408,-0.126221,0,0,0,0,0,0,0,-1,1385,1786,7.93402,0.126232
168,-762,8.19287,0.880615,0,0,0,0,0,0,0,-1,1392,1786,8.19291,-0.880603
175,-762,8.33997,1.95947,0,0,0,0,0,0,0,-1,1399,1786,8.33997,-1.95942
182,-762,8.28418,3.56482,0,0,0,0,0,0,0,-1,1406,1786,8.28415,-3.56485
189,-762,8.21179,5.23389,0,0,0,0,0,0,0,-1,1413,1786,8.21183,-5.23383
196,-762,8.05969,6.95483,0,0,0,0,0,0,0,-1,1420,1786,8.05972,-6.9548
203,-762,24.0077,7.10425,0,0,0,0,0,0,0,-1,1427,1786,24.0077,-7.10426
210,-762,23.8073,7.6499,0,0,0,0,0,0,0,-1,1434,1786,23.8073,-7.64987
217,-762,23.3193,8.24426,0,0,0,0,0,0,0,-1,1441,1786,23.3194,-8.2442
224,-762,2.65149,20.6106,0,0,0,0,0,0,0,-1,1448,1786,2.65153,-20.6106
231,-762,3.24902,18.5283,0,0,0,0,0,0,0,-1,1455,1786,3.24908,-18.5283
238,-762,3.79407,16.2792,0,0,0,0,0,0,0,-1,1462,1786,3.79408,-16.2791
245,-762,4.1626,14.0872,0,0,0,0,0,0,0,-1,1469,1786,4.16265,-14.0871
252,-762,4.51648,11.8605,0,0,0,0,0,0,0,-1,1476,1786,4.51644,-11.8605
259,-762,17.4619,7.89832,0,0,0,0,0,0,0,-1,1483,1786,17.462,-7.89836
266,-762,16.451,7.67773,0,0,0,0,0,0,0,-1,1490,1786,16.4511,-7.67773
273,-762,15.287,7.5304,0,0,0,0,0,0,0,-1,1497,1786,15.2869,-7.53044
280,-762,14.1501,7.38379,0,0,0,0,0,0,0,-1,1504,1786,14.1502,-7.38376
287,-762,12.6891,7.99133,0,0,0,0,0,0,0,-1,1511,1786,12.6891,-7.99135
294,-762,11.6133,8.5918,0,0,0,0,0,0,0,-1,1518,1786,11.6133,-8.59175
301,-762,9.90637,8.80591,0,0,0,0,0,0,0,-1,1525,1786,9.90636,-8.80596
308,-762,0,0,0,0,0,0,0,0,0,-1,1532,1786,0,0
315,-762,0,0,0,0,0,0,0,0,0,-1,1539,1786,0,0
322,-762,0,0,0,0,0,0,0,0,0,-1,1546,1786,0,0
329,-762,0,0,0,0,0,0,0,0,0,-1,1553,1786,0,0
336,-762,0,0,0,0,0,0,0,0,0,-1,1560,1786,0,0
343,-762,0,0,0,0,0,0,0,0,0,-1,1567,1786,0,0
350,-762,0,0,0,0,0,0,0,0,0,-1,1574,1786,0,0
357,-762,0,0,0,0,0,0,0,0,0,-1,1581,1786,0,0
364,-762,0,0,0,0,0,0,0,0,0,-1,1588,1786,0,0
371,-762,0,0,0,0,0,0,0,0,0,-1,1595,1786,0,0
378,-762,0,0,0,0,0,0,0,0,0,-1,1602,1786,0,0
385,-762,0,0,0,0,0,0,0,0,0,-1,1609,1786,0,0
392,-762,0,0,0,0,0,0,0,0,0,-1,1616,1786,0,0
399,-762,0,0,0,0,0,0,0,0,0,-1,1623,1786,0,0
406,-762,0,0,0,0,0,0,0,0,0,-1,1630,1786,0,0
413,-762,0,0,0,0,0,0,0,0,0,-1,1637,1786,0,0
420,-762,0,0,0,0,0,0,0,0,0,-1,1644,1786,0,0
427,-762,0,0,0,0,0,0,0,0,0,-1,1651,1786,0,0
434,-762,0,0,0,0,0,0,0,0,0,-1,1658,1786,0,0
441,-762,0,0,0,0,0,0,0,0,0,-1,1665,1786,0,0
448,-762,0,0,0,0,0,0,0,0,0,-1,1672,1786,0,0
455,-762,0,0,0,0,0,0,0,0,0,-1,1679,1786,0,0
462,-762,0,0,0,0,0,0,0,0,0,-1,1686,1786,0,0
469,-762,0,0,0,0,0,0,0,0,0,-1,1693,1786,0,0
476,-762,0,0,0,0,0,0,0,0,0,-1,1700,1786,0,0
483,-762,0,0,0,0,0,0,0,0,0,-1,1707,1786,0,0
490,-762,0,0,0,0,0,0,0,0,0,-1,1714,1786,0,0
497,-762,0,0,0,0,0,0,0,0,0,-1,1721,1786,0,0
504,-762,0,0,0,0,0,0,0,0,0,-1,1728,1786,0,0
511,-762,0,0,0,0,0,0,0,0,0,-1,1735,1786,0,0
518,-762,0,0,0,0,0,0,0,0,0,-1,1742,1786,0,0
525,-762,0,0,0,0,0,0,0,0,0,-1,1749,1786,0,0
532,-762,0,0,0,0,0,0,0,0,0,-1,1756,1786,0,0
539,-762,0,0,0,0,0,0,0,0,0,-1,1763,1786,0,0
546,-762,0,0,0,0,0,0,0,0,0,-1,1770,1786,0,0
553,-762,0,0,0,0,0,0,0,0,0,-1,1777,1786,0,0
560,-762,0,0,0,0,0,0,0,0,0,-1,1784,1786,0,0
567,-762,0,0,0,0,0,0,0,0,0,-1,1791,1786,0,0
574,-762,0,0,0,0,0,0,0,0,0,-1,1798,1786,0,0
581,-762,0,0,0,0,0,0,0,0,0,-1,1805,1786,0,0
588,-762,0,0,0,0,0,0,0,0,0,-1,1812,1786,0,0
595,-762,0,0,0,0,0,0,0,0,0,-1,1819,1786,0,0
602,-762,0,0,0,0,0,0,0,0,0,-1,1826,1786,0,0
609,-762,0,0,0,0,0,0,0,0,0,-1,1833,1786,0,0
616,-762,0,0,0,0,0,0,0,0,0,-1,1840,1786,0,0
623,-762,0,0,0,0,0,0,0,0,0,-1,1847,1786,0,0
630,-762,0,0,0,0,0,0,0,0,0,-1,1854,1786,0,0
637,-762,0,0,0,0,0,0,0,0,0,-1,1861,1786,0,0
644,-762,0,0,0,0,0,0,0,0,0,-1,1868,1786,0,0
651,-762,0,0,0,0,0,0,0,0,0,-1,1875,1786,0,0
658,-762,0,0,0,0,0,0,0,0,0,-1,1882,1786,0,0
665,-762,0,0,0,0,0,0,0,0,0,-1,1889,1786,0,0
672,-762,0,0,0,0,0,0,0,0,0,-1,1896,1786,0,0
679,-762,0,0,0,0,0,0,0,0,0,-1,1903,1786,0,0
686,-762,0,0,0,0,0,0,0,0,0,-1,1910,1786,0,0
693,-762,0,0,0,0,0,0,0,0,0,-1,1917,1786,0,0
700,-762,0,0,0,0,0,0,0,0,0,-1,1924,1786,0,0
707,-762,0,0,0,0,0,0,0,0,0,-1,1931,1786,0,0
714,-762,0,0,0,0,0,0,0,0,0,-1,1938,1786,0,0
721,-762,0,0,0,0,0,0,0,0,0,-1,1945,1786,0,0
728,-762,0,0,0,0,0,0,0,0,0,-1,1952,1786,0,0
735,-762,0,0,0,0,0,0,0,0,0,-1,1959,1786,0,0
742,-762,0,0,0,0,0,0,0,0,0,-1,1966,1786,0,0
749,-762,0,0,0,0,0,0,0,0,0,-1,1973,1786,0,0
756,-762,0,0,0,0,0,0,0,0,0,-1,1980,1786,0,0
763,-762,0,0,0,0,0,0,0,0,0,-1,1987,1786,0,0
770,-762,0,0,0,0,0,0,0,0,0,-1,1994,1786,0,0
777,-762,0,0,0,0,0,0,0,0,0,-1,2001,1786,0,0
784,-762,0,0,0,0,0,0,0,0,0,-1,2008,1786,0,0
791,-762,0,0,0,0,0,0,0,0,0,-1,2015,1786,0,0
798,-762,0,0,0,0,0,0,0,0,0,-1,2022,1786,0,0
805,-762,0,0,0,0,0,0,0,0,0,-1,2029,1786,0,0
812,-762,0,0,0,0,0,0,0,0,0,-1,2036,1786,0,0
-700,-769,0,0,0,0,0,0,0,0,0,-1,524,1793,0,0
-693,-769,0,0,0,0,0,0,0,0,0,-1,531,1793,0,0
-686,-769,0,0,0,0,0,0,0,0,0,-1,538,1793,0,0
-679,-769,0,0,0,0,0,0,0,0,0,-1,545,1793,0,0
-672,-769,0,0,0,0,0,0,0,0,0,-1,552,1793,0,0
-665,-769,0,0,0,0,0,0,0,0,0,-1,559,1793,0,0
-658,-769,0,0,0,0,0,0,0,0,0,-1,566,1793,0,0
-651,-769,0,0,0,0,0,0,0,0,0,-1,573,1793,0,0
-644,-769,0,0,0,0,0,0,0,0,0,-1,580,1793,0,0
-637,-769,0,0,0,0,0,0,0,0,0,-1,587,1793,0,0
-630,-769,0,0,0,0,0,0,0,0,0,-1,594,1793,0,0
-623,-769,0,0,0,0,0,0,0,0,0,-1,601,1793,0,0
-616,-769,0,0,0,0,0,0,0,0,0,-1,608,1793,0,0
-609,-769,0,0,0,0,0,0,0,0,0,-1,615,1793,0,0
-602,-769,0,0,0,0,0,0,0,0,0,-1,622,1793,0,0
-595,-769,0,0,0,0,0,0,0,0,0,-1,629,1793,0,0
-588,-769,0,0,0,0,0,0,0,0,0,-1,636,1793,0,0
-581,-769,0,0,0,0,0,0,0,0,0,-1,643,1793,0,0
-574,-769,0,0,0,0,0,0,0,0,0,-1,650,1793,0,0
-567,-769,0,0,0,0,0,0,0,0,0,-1,657,1793,0,0
-560,-769,0,0,0,0,0,0,0,0,0,-1,664,1793,0,0
-553,-769,0,0,0,0,0,0,0,0,0,-1,671,1793,0,0
-546,-769,0,0,0,0,0,0,0,0,0,-1,678,1793,0,0
-539,-769,0,0,0,0,0,0,0,0,0,-1,685,1793,0,0
-532,-769,0,0,0,0,0,0,0,0,0,-1,692,1793,0,0
-525,-769,0,0,0,0,0,0,0,0,0,-1,699,1793,0,0
-518,-769,0,0,0,0,0,0,0,0,0,-1,706,1793,0,0
-511,-769,0,0,0,0,0,0,0,0,0,-1,713,1793,0,0
-504,-769,0,0,0,0,0,0,0,0,0,-1,720,1793,0,0
-497,-769,0,0,0,0,0,0,0,0,0,-1,727,1793,0,0
-490,-769,0,0,0,0,0,0,0,0,0,-1,734,1793,0,0
-483,-769,0,0,0,0,0,0,0,0,0,-1,741,1793,0,0
-476,-769,0,0,0,0,0,0,0,0,0,-1,748,1793,0,0
-469,-769,0,0,0,0,0,0,0,0,0,-1,755,1793,0,0
-462,-769,0,0,0,0,0,0,0,0,0,-1,762,1793,0,0
-455,-769,0,0,0,0,0,0,0,0,0,-1,769,1793,0,0
-448,-769,0,0,0,0,0,0,0,0,0,-1,776,1793,0,0
-441,-769,0,0,0,0,0,0,0,0,0,-1,783,1793,0,0
-434,-769,0,0,0,0,0,0,0,0,0,-1,790,1793,0,0
-427,-769,0,0,0,0,0,0,0,0,0,-1,797,1793,0,0
-420,-769,0,0,0,0,0,0,0,0,0,-1,804,1793,0,0
-413,-769,0,0,0,0,0,0,0,0,0,-1,811,1793,0,0
-406,-769,0,0,0,0,0,0,0,0,0,-1,818,1793,0,0
-399,-769,0,0,0,0,0,0,0,0,0,-1,825,1793,0,0
-392,-769,0,0,0,0,0,0,0,0,0,-1,832,1793,0,0
-385,-769,0,0,0,0,0,0,0,0,0,-1,839,1793,0,0
-378,-769,0,0,0,0,0,0,0,0,0,-1,846,1793,0,0
-371,-769,0,0,0,0,0,0,0,0,0,-1,853,1793,0,0
-364,-769,0,0,0,0,0,0,0,0,0,-1,860,1793,0,0
-357,-769,0,0,0,0,0,0,0,0,0,-1,867,1793,0,0
-350,-769,0,0,0,0,0,0,0,0,0,-1,874,1793,0,0
-343,-769,0,0,0,0,0,0,0,0,0,-1,881,1793,0,0
-336,-769,0,0,0,0,0,0,0,0,0,-1,888,1793,0,0
-329,-769,0,0,0,0,0,0,0,0,0,-1,895,1793,0,0
-322,-769,0,0,0,0,0,0,0,0,0,-1,902,1793,0,0
-315,-769,0,0,0,0,0,0,0,0,0,-1,909,1793,0,0
-308,-769,0,0,0,0,0,0,0,0,0,-1,916,1793,0,0
-301,-769,0,0,0,0,0,0,0,0,0,-1,923,1793,0,0
-294,-769,0,0,0,0,0,0,0,0,0,-1,930,1793,0,0
-287,-769,0,0,0,0,0,0,0,0,0,-1,937,1793,0,0
-280,-769,0,0,0,0,0,0,0,0,0,-1,944,1793,0,0
-273,-769,0,0,0,0,0,0,0,0,0,-1,951,1793,0,0
-266,-769,0,0,0,0,0,0,0,0,0,-1,958,1793,0,0
-259,-769,0,0,0,0,0,0,0,0,0,-1,965,1793,0,0
-252,-769,0,0,0,0,0,0,0,0,0,-1,972,1793,0,0
-245,-769,0,0,0,0,0,0,0,0,0,-1,979,1793,0,0
-238,-769,0,0,0,0,0,0,0,0,0,-1,986,1793,0,0
-231,-769,0,0,0,0,0,0,0,0,0,-1,993,1793,0,0
-224,-769,0,0,0,0,0,0,0,0,0,-1,1000,1793,0,0
-217,-769,0,0,0,0,0,0,0,0,0,-1,1007,1793,0,0
-210,-769,0,0,0,0,0,0,0,0,0,-1,1014,1793,0,0
-203,-769,0,0,0,0,0,0,0,0,0,-1,1021,1793,0,0
-196,-769,0,0,0,0,0,0,0,0,0,-1,1028,1793,0,0
-189,-769,0,0,0,0,0,0,0,0,0,-1,1035,1793,0,0
-182,-769,0,0,0,0,0,0,0,0,0,-1,1042,1793,0,0
-175,-769,0,0,0,0,0,0,0,0,0,-1,1049,1793,0,0
-168,-769,0,0,0,0,0,0,0,0,0,-1,1056,1793,0,0
-161,-769,-3.61145,12.4761,0,0,0,0,0,0,0,-1,1063,1793,-3.6114,-12.476
-154,-769,-0.813232,5.32874,0,0,0,0,0,0,0,-1,1070,1793,-0.813269,-5.32872
-147,-769,4.26587,4.7002,0,0,0,0,0,0,0,-1,1077,1793,4.26593,-4.70022
-140,-769,4.10376,5.28589,0,0,0,0,0,0,0,-1,1084,1793,4.10371,-5.28584
-133,-769,6.422,8.21777,0,0,0,0,0,0,0,-1,1091,1793,6.42198,-8.21773
-126,-769,6.31982,15.8481,0,0,0,0,0,0,0,-1,1098,1793,6.31985,-15.8482
-119,-769,6.01685,16.2577,0,0,0,0,0,0,0,-1,1105,1793,6.01689,-16.2576
-112,-769,6.22778,16.5615,0,0,0,0,0,0,0,-1,1112,1793,6.22778,-16.5616
-105,-769,5.48938,18.1936,0,0,0,0,0,0,0,-1,1119,1793,5.48932,-18.1936
-98,-769,4.79919,17.3583,0,0,0,0,0,0,0,-1,1126,1793,4.79922,-17.3583
-91,-769,4.40686,15.8386,0,0,0,0,0,0,0,-1,1133,1793,4.40685,-15.8387
-84,-769,3.25684,11.7041,0,0,0,0,0,0,0,-1,1140,1793,3.25681,-11.7041
-77,-769,0.406616,9.9126,0,0,0,0,0,0,0,-1,1147,1793,0.406638,-9.91265
-70,-769,1.04944,11.9852,0,0,0,0,0,0,0,-1,1154,1793,1.04947,-11.9852
-63,-769,-2.39709,9.60339,0,0,0,0,0,0,0,-1,1161,1793,-2.39706,-9.6034
-56,-769,-5.84363,7.22156,0,0,0,0,0,0,0,-1,1168,1793,-5.84359,-7.22157
-49,-769,-2.41443,3.95471,0,0,0,0,0,0,0,-1,1175,1793,-2.41446,-3.95471
-42,-769,-3.1991,2.64941,0,0,0,0,0,0,0,-1,1182,1793,-3.19914,-2.64944
-35,-769,-3.50183,1.73389,0,0,0,0,0,0,0,-1,1189,1793,-3.50189,-1.7339
-28,-769,-3.96985,1.14075,0,0,0,0,0,0,0,-1,1196,1793,-3.96985,-1.14078
-21,-769,5.2948,17.8387,0,0,0,0,0,0,0,-1,1203,1793,5.29478,-17.8387
-14,-769,5.74561,19.189,0,0,0,0,0,0,0,-1,1210,1793,5.74557,-19.189
-7,-769,5.4303,19.1943,0,0,0,0,0,0,0,-1,1217,1793,5.43034,-19.1944
0,-769,5.27039,19.2583,0.0207111,0.00502802,0.000566685,0.0207315,0.00500757,0.0360709,0.012491,0.0488801,1224,1793,5.27033,-19.2582
7,-769,5.39734,19.3596,0.0195523,0.00372099,-0.000134773,0.0195534,0.00371984,-0.00851224,0.0119896,0.0431796,1231,1793,5.39733,-19.3596
14,-769,5.80005,19.5632,0.0182759,0.00242471,-0.00273254,0.0187338,0.00196688,-0.166005,0.0118879,0.0446068,1238,1793,5.80007,-19.5633
21,-769,5.57642,19.9926,0,0,0,0,0,0,0,-1,1245,1793,5.5764,-19.9926
28,-769,5.09338,19.8475,0,0,0,0,0,0,0,-1,1252,1793,5.09343,-19.8476
35,-769,5.22961,19.5034,0.0124179,-0.00126077,-0.00972694,0.0174693,-0.00631217,-0.478985,0.014225,0.0460945,1259,1793,5.22957,-19.5034
42,-769,5.25537,19.2863,0.0106325,-0.00269855,-0.011999,0.017693,-0.00975907,-0.531867,0.0160686,0.0483936,1266,1793,5.25541,-19.2863
49,-769,5.08496,19.7855,0.00824324,-0.00460532,-0.0138724,0.0171067,-0.0134688,-0.568552,0.0176944,0.0468684,1273,1793,5.08492,-19.7855
56,-769,5.10632,19.7356,0.00555824,-0.00619353,-0.0153568,0.0161249,-0.0167602,-0.602679,0.0189874,0.0444656,1280,1793,5.10635,-19.7356
63,-769,5.06482,19.4999,0.00252604,-0.00788479,-0.0162255,0.0143607,-0.0197194,-0.630176,0.0197571,0.0441102,1287,1793,5.06479,-19.4999
70,-769,4.97266,19.5837,-0.000482074,-0.00965373,-0.0167227,0.0122722,-0.022408,-0.651574,0.0203057,0.0426689,1294,1793,4.97271,-19.5837
77,-769,5.16687,19.5278,-0.00253288,-0.0113961,-0.0165252,0.0101447,-0.0240736,-0.654395,0.0202942,0.0468823,1301,1793,5.16687,-19.5278
84,-769,5.63403,19.6267,0,0,0,0,0,0,0,-1,1308,1793,5.63409,-19.6268
91,-769,5.59155,19.7587,-0.00569328,-0.0153268,-0.0138154,0.00412097,-0.0251411,-0.617661,0.0182898,0.0457812,1315,1793,5.59149,-19.7587
98,-769,5.41052,19.873,-0.00723628,-0.016622,-0.0121529,0.0010984,-0.0249566,-0.601143,0.0170157,0.0455668,1322,1793,5.41054,-19.8731
105,-769,5.18811,19.9745,-0.00789723,-0.0176121,-0.0107238,-0.000982059,-0.0245272,-0.572743,0.0160342,0.0451816,1329,1793,5.18816,-19.9745
112,-769,5.40991,19.4253,-0.00964529,-0.0183616,-0.00908709,-0.00392531,-0.0240816,-0.561801,0.0149191,0.0459819,1336,1793,5.40988,-19.4253
119,-769,5.349,19.11,-0.00901958,-0.0195136,-0.00656872,-0.0058595,-0.0226737,-0.448398,0.0135904,0.0452405,1343,1793,5.34902,-19.11
126,-769,5.14832,19.2174,0,0,0,0,0,0,0,-1,1350,1793,5.14826,-19.2174
133,-769,4.51501,19.4623,0,0,0,0,0,0,0,-1,1357,1793,4.51507,-19.4622
140,-769,4.51404,19.4233,0,0,0,0,0,0,0,-1,1364,1793,4.51401,-19.4233
147,-769,4.5636,19.7402,0,0,0,0,0,0,0,-1,1371,1793,4.56364,-19.7403
154,-769,6.37561,1.00024,0,0,0,0,0,0,0,-1,1378,1793,6.37566,-1.00028
161,-769,6.57019,1.53223,0,0,0,0,0,0,0,-1,1385,1793,6.57019,-1.53226
168,-769,8.27637,0.756958,0,0,0,0,0,0,0,-1,1392,1793,8.27639,-0.756944
175,-769,8.47144,2.41174,0,0,0,0,0,0,0,-1,1399,1793,8.47147,-2.4118
182,-769,8.41479,4.05994,0,0,0,0,0,0,0,-1,1406,1793,8.41479,-4.05997
189,-769,8.25049,5.68433,0,0,0,0,0,0,0,-1,1413,1793,8.25054,-5.68428
196,-769,7.97729,7.42847,0,0,0,0,0,0,0,-1,1420,1793,7.9773,-7.42848
203,-769,22.0977,6.73889,0,0,0,0,0,0,0,-1,1427,1793,22.0977,-6.7389
210,-769,22.1115,7.77246,0,0,0,0,0,0,0,-1,1434,1793,22.1115,-7.77248
217,-769,22.4723,8.79102,0,0,0,0,0,0,0,-1,1441,1793,22.4723,-8.79099
224,-769,22.1348,9.35278,0,0,0,0,0,0,0,-1,1448,1793,22.1348,-9.35283
231,-769,3.13318,19.7184,0,0,0,0,0,0,0,-1,1455,1793,3.13323,-19.7184
238,-769,3.60303,16.9788,0,0,0,0,0,0,0,-1,1462,1793,3.60307,-16.9788
245,-769,4.02356,14.7208,0,0,0,0,0,0,0,-1,1469,1793,4.0235,-14.7208
252,-769,4.34961,12.5251,0,0,0,0,0,0,0,-1,1476,1793,4.34959,-12.5252
259,-769,16.4871,7.42102,0,0,0,0,0,0,0,-1,1483,1793,16.4871,-7.42104
266,-769,15.8488,7.3905,0,0,0,0,0,0,0,-1,1490,1793,15.8488,-7.39046
273,-769,14.8075,7.56152,0,0,0,0,0,0,0,-1,1497,1793,14.8075,-7.56152
280,-769,13.6519,7.43054,0,0,0,0,0,0,0,-1,1504,1793,13.6518,-7.43058
287,-769,0,0,0,0,0,0,0,0,0,-1,1511,1793,0,0
294,-769,0,0,0,0,0,0,0,0,0,-1,1518,1793,0,0
301,-769,0,0,0,0,0,0,0,0,0,-1,1525,1793,0,0
308,-769,0,0,0,0,0,0,0,0,0,-1,1532,1793,0,0
315,-769,0,0,0,0,0,0,0,0,0,-1,1539,1793,0,0
322,-769,0,0,0,0,0,0,0,0,0,-1,1546,1793,0,0
329,-769,0,0,0,0,0,0,0,0,0,-1,1553,1793,0,0
336,-769,0,0,0,0,0,0,0,0,0,-1,1560,1793,0,0
343,-769,0,0,0,0,0,0,0,0,0,-1,1567,1793,0,0
350,-769,0,0,0,0,0,0,0,0,0,-1,1574,1793,0,0
357,-769,0,0,0,0,0,0,0,0,0,-1,1581,1793,0,0
364,-769,0,0,0,0,0,0,0,0,0,-1,1588,1793,0,0
371,-769,0,0,0,0,0,0,0,0,0,-1,1595,1793,0,0
378,-769,0,0,0,0,0,0,0,0,0,-1,1602,1793,0,0
385,-769,0,0,0,0,0,0,0,0,0,-1,1609,1793,0,0
392,-769,0,0,0,0,0,0,0,0,0,-1,1616,1793,0,0
399,-769,0,0,0,0,0,0,0,0,0,-1,1623,1793,0,0
406,-769,0,0,0,0,0,0,0,0,0,-1,1630,1793,0,0
413,-769,0,0,0,0,0,0,0,0,0,-1,1637,1793,0,0
420,-769,0,0,0,0,0,0,0,0,0,-1,1644,1793,0,0
427,-769,0,0,0,0,0,0,0,0,0,-1,1651,1793,0,0
434,-769,0,0,0,0,0,0,0,0,0,-1,1658,1793,0,0
441,-769,0,0,0,0,0,0,0,0,0,-1,1665,1793,0,0
448,-769,0,0,0,0,0,0,0,0,0,-1,1672,1793,0,0
455,-769,0,0,0,0,0,0,0,0,0,-1,1679,1793,0,0
462,-769,0,0,0,0,0,0,0,0,0,-1,1686,1793,0,0
469,-769,0,0,0,0,0,0,0,0,0,-1,1693,1793,0,0
476,-769,0,0,0,0,0,0,0,0,0,-1,1700,1793,0,0
483,-769,0,0,0,0,0,0,0,0,0,-1,1707,1793,0,0
490,-769,0,0,0,0,0,0,0,0,0,-1,1714,1793,0,0
497,-769,0,0,0,0,0,0,0,0,0,-1,1721,1793,0,0
504,-769,0,0,0,0,0,0,0,0,0,-1,1728,1793,0,0
511,-769,0,0,0,0,0,0,0,0,0,-1,1735,1793,0,0
518,-769,0,0,0,0,0,0,0,0,0,-1,1742,1793,0,0
525,-769,0,0,0,0,0,0,0,0,0,-1,1749,1793,0,0
532,-769,0,0,0,0,0,0,0,0,0,-1,1756,1793,0,0
539,-769,0,0,0,0,0,0,0,0,0,-1,1763,1793,0,0
546,-769,0,0,0,0,0,0,0,0,0,-1,1770,1793,0,0
553,-769,0,0,0,0,0,0,0,0,0,-1,1777,1793,0,0
560,-769,0,0,0,0,0,0,0,0,0,-1,1784,1793,0,0
567,-769,0,0,0,0,0,0,0,0,0,-1,1791,1793,0,0
574,-769,0,0,0,0,0,0,0,0,0,-1,1798,1793,0,0
581,-769,0,0,0,0,0,0,0,0,0,-1,1805,1793,0,0
588,-769,0,0,0,0,0,0,0,0,0,-1,1812,1793,0,0
595,-769,0,0,0,0,0,0,0,0,0,-1,1819,1793,0,0
602,-769,0,0,0,0,0,0,0,0,0,-1,1826,1793,0,0
609,-769,0,0,0,0,0,0,0,0,0,-1,1833,1793,0,0
616,-769,0,0,0,0,0,0,0,0,0,-1,1840,1793,0,0
623,-769,0,0,0,0,0,0,0,0,0,-1,1847,1793,0,0
630,-769,0,0,0,0,0,0,0,0,0,-1,1854,1793,0,0
637,-769,0,0,0,0,0,0,0,0,0,-1,1861,1793,0,0
644,-769,0,0,0,0,0,0,0,0,0,-1,1868,1793,0,0
651,-769,0,0,0,0,0,0,0,0,0,-1,1875,1793,0,0
658,-769,0,0,0,0,0,0,0,0,0,-1,1882,1793,0,0
665,-769,0,0,0,0,0,0,0,0,0,-1,1889,1793,0,0
672,-769,0,0,0,0,0,0,0,0,0,-1,1896,1793,0,0
679,-769,0,0,0,0,0,0,0,0,0,-1,1903,1793,0,0
686,-769,0,0,0,0,0,0,0,0,0,-1,1910,1793,0,0
693,-769,0,0,0,0,0,0,0,0,0,-1,1917,1793,0,0
700,-769,0,0,0,0,0,0,0,0,0,-1,1924,1793,0,0
707,-769,0,0,0,0,0,0,0,0,0,-1,1931,1793,0,0
714,-769,0,0,0,0,0,0,0,0,0,-1,1938,1793,0,0
721,-769,0,0,0,0,0,0,0,0,0,-1,1945,1793,0,0
728,-769,0,0,0,0,0,0,0,0,0,-1,1952,1793,0,0
735,-769,0,0,0,0,0,0,0,0,0,-1,1959,1793,0,0
742,-769,0,0,0,0,0,0,0,0,0,-1,1966,1793,0,0
749,-769,0,0,0,0,0,0,0,0,0,-1,1973,1793,0,0
756,-769,0,0,0,0,0,0,0,0,0,-1,1980,1793,0,0
763,-769,0,0,0,0,0,0,0,0,0,-1,1987,1793,0,0
770,-769,0,0,0,0,0,0,0,0,0,-1,1994,1793,0,0
777,-769,0,0,0,0,0,0,0,0,0,-1,2001,1793,0,0
784,-769,0,0,0,0,0,0,0,0,0,-1,2008,1793,0,0
791,-769,0,0,0,0,0,0,0,0,0,-1,2015,1793,0,0
798,-769,0,0,0,0,0,0,0,0,0,-1,2022,1793,0,0
805,-769,0,0,0,0,0,0,0,0,0,-1,2029,1793,0,0
812,-769,0,0,0,0,0,0,0,0,0,-1,2036,1793,0,0
-700,-776,0,0,0,0,0,0,0,0,0,-1,524,1800,0,0
-693,-776,0,0,0,0,0,0,0,0,0,-1,531,1800,0,0
-686,-776,0,0,0,0,0,0,0,0,0,-1,538,1800,0,0
-679,-776,0,0,0,0,0,0,0,0,0,-1,545,1800,0,0
-672,-776,0,0,0,0,0,0,0,0,0,-1,552,1800,0,0
-665,-776,0,0,0,0,0,0,0,0,0,-1,559,1800,0,0
-658,-776,0,0,0,0,0,0,0,0,0,-1,566,1800,0,0
-651,-776,0,0,0,0,0,0,0,0,0,-1,573,1800,0,0
-644,-776,0,0,0,0,0,0,0,0,0,-1,580,1800,0,0
-637,-776,0,0,0,0,0,0,0,0,0,-1,587,1800,0,0
-630,-776,0,0,0,0,0,0,0,0,0,-1,594,1800,0,0
-623,-776,0,0,0,0,0,0,0,0,0,-1,601,1800,0,0
-616,-776,0,0,0,0,0,0,0,0,0,-1,608,1800,0,0
-609,-776,0,0,0,0,0,0,0,0,0,-1,615,1800,0,0
-602,-776,0,0,0,0,0,0,0,0,0,-1,622,1800,0,0
-595,-776,0,0,0,0,0,0,0,0,0,-1,629,1800,0,0
-588,-776,0,0,0,0,0,0,0,0,0,-1,636,1800,0,0
-581,-776,0,0,0,0,0,0,0,0,0,-1,643,1800,0,0
-574,-776,0,0,0,0,0,0,0,0,0,-1,650,1800,0,0
-567,-776,0,0,0,0,0,0,0,0,0,-1,657,1800,0,0
-560,-776,0,0,0,0,0,0,0,0,0,-1,664,1800,0,0
-553,-776,0,0,0,0,0,0,0,0,0,-1,671,1800,0,0
-546,-776,0,0,0,0,0,0,0,0,0,-1,678,1800,0,0
-539,-776,0,0,0,0,0,0,0,0,0,-1,685,1800,0,0
-532,-776,0,0,0,0,0,0,0,0,0,-1,692,1800,0,0
-525,-776,0,0,0,0,0,0,0,0,0,-1,699,1800,0,0
-518,-776,0,0,0,0,0,0,0,0,0,-1,706,1800,0,0
-511,-776,0,0,0,0,0,0,0,0,0,-1,713,1800,0,0
-504,-776,0,0,0,0,0,0,0,0,0,-1,720,1800,0,0
-497,-776,0,0,0,0,0,0,0,0,0,-1,727,1800,0,0
-490,-776,0,0,0,0,0,0,0,0,0,-1,734,1800,0,0
-483,-776,0,0,0,0,0,0,0,0,0,-1,741,1800,0,0
-476,-776,0,0,0,0,0,0,0,0,0,-1,748,1800,0,0
-469,-776,0,0,0,0,0,0,0,0,0,-1,755,1800,0,0
-462,-776,0,0,0,0,0,0,0,0,0,-1,762,1800,0,0
-455,-776,0,0,0,0,0,0,0,0,0,-1,769,1800,0,0
-448,-776,0,0,0,0,0,0,0,0,0,-1,776,1800,0,0
-441,-776,0,0,0,0,0,0,0,0,0,-1,783,1800,0,0
-434,-776,0,0,0,0,0,0,0,0,0,-1,790,1800,0,0
-427,-776,0,0,0,0,0,0,0,0,0,-1,797,1800,0,0
-420,-776,0,0,0,0,0,0,0,0,0,-1,804,1800,0,0
-413,-776,0,0,0,0,0,0,0,0,0,-1,811,1800,0,0
-406,-776,0,0,0,0,0,0,0,0,0,-1,818,1800,0,0
-399,-776,0,0,0,0,0,0,0,0,0,-1,825,1800,0,0
-392,-776,0,0,0,0,0,0,0,0,0,-1,832,1800,0,0
-385,-776,0,0,0,0,0,0,0,0,0,-1,839,1800,0,0
-378,-776,0,0,0,0,0,0,0,0,0,-1,846,1800,0,0
-371,-776,0,0,0,0,0,0,0,0,0,-1,853,1800,0,0
-364,-776,0,0,0,0,0,0,0,0,0,-1,860,1800,0,0
-357,-776,0,0,0,0,0,0,0,0,0,-1,867,1800,0,0
-350,-776,0,0,0,0,0,0,0,0,0,-1,874,1800,0,0
-343,-776,0,0,0,0,0,0,0,0,0,-1,881,1800,0,0
-336,-776,0,0,0,0,0,0,0,0,0,-1,888,1800,0,0
-329,-776,0,0,0,0,0,0,0,0,0,-1,895,1800,0,0
-322,-776,0,0,0,0,0,0,0,0,0,-1,902,1800,0,0
-315,-776,0,0,0,0,0,0,0,0,0,-1,909,1800,0,0
-308,-776,0,0,0,0,0,0,0,0,0,-1,916,1800,0,0
-301,-776,0,0,0,0,0,0,0,0,0,-1,923,1800,0,0
-294,-776,0,0,0,0,0,0,0,0,0,-1,930,1800,0,0
-287,-776,0,0,0,0,0,0,0,0,0,-1,937,1800,0,0
-280,-776,0,0,0,0,0,0,0,0,0,-1,944,1800,0,0
-273,-776,0,0,0,0,0,0,0,0,0,-1,951,1800,0,0
-266,-776,0,0,0,0,0,0,0,0,0,-1,958,1800,0,0
-259,-776,0,0,0,0,0,0,0,0,0,-1,965,1800,0,0
-252,-776,0,0,0,0,0,0,0,0,0,-1,972,1800,0,0
-245,-776,0,0,0,0,0,0,0,0,0,-1,979,1800,0,0
-238,-776,0,0,0,0,0,0,0,0,0,-1,986,1800,0,0
-231,-776,0,0,0,0,0,0,0,0,0,-1,993,1800,0,0
-224,-776,0,0,0,0,0,0,0,0,0,-1,1000,1800,0,0
-217,-776,0,0,0,0,0,0,0,0,0,-1,1007,1800,0,0
-210,-776,0,0,0,0,0,0,0,0,0,-1,1014,1800,0,0
-203,-776,0,0,0,0,0,0,0,0,0,-1,1021,1800,0,0
-196,-776,0,0,0,0,0,0,0,0,0,-1,1028,1800,0,0
-189,-776,0,0,0,0,0,0,0,0,0,-1,1035,1800,0,0
-182,-776,0,0,0,0,0,0,0,0,0,-1,1042,1800,0,0
-175,-776,0,0,0,0,0,0,0,0,0,-1,1049,1800,0,0
-168,-776,0,0,0,0,0,0,0,0,0,-1,1056,1800,0,0
-161,-776,0,0,0,0,0,0,0,0,0,-1,1063,1800,0,0
-154,-776,0,0,0,0,0,0,0,0,0,-1,1070,1800,0,0
-147,-776,0,0,0,0,0,0,0,0,0,-1,1077,1800,0,0
-140,-776,2.98499,5.20911,0,0,0,0,0,0,0,-1,1084,1800,2.98493,-5.2091
-133,-776,6.72363,9.35828,0,0,0,0,0,0,0,-1,1091,1800,6.72358,-9.35824
-126,-776,6.55029,13.7832,0,0,0,0,0,0,0,-1,1098,1800,6.55029,-13.7832
-119,-776,5.72107,13.7787,0,0,0,0,0,0,0,-1,1105,1800,5.72106,-13.7787
-112,-776,6.84998,20.4421,0,0,0,0,0,0,0,-1,1112,1800,6.84993,-20.4421
-105,-776,6.05493,19.5604,0,0,0,0,0,0,0,-1,1119,1800,6.05495,-19.5604
-98,-776,5.25793,18.6969,0,0,0,0,0,0,0,-1,1126,1800,5.25788,-18.6969
-91,-776,4.09448,17.8494,0,0,0,0,0,0,0,-1,1133,1800,4.09446,-17.8494
-84,-776,2.27747,12.7086,0,0,0,0,0,0,0,-1,1140,1800,2.27747,-12.7087
-77,-776,0.580078,11.1272,0,0,0,0,0,0,0,-1,1147,1800,0.58002,-11.1272
-70,-776,-0.562866,12.3163,0,0,0,0,0,0,0,-1,1154,1800,-0.562897,-12.3163
-63,-776,-3.96106,9.97656,0,0,0,0,0,0,0,-1,1161,1800,-3.961,-9.97654
-56,-776,-7.35913,7.63672,0,0,0,0,0,0,0,-1,1168,1800,-7.3591,-7.63676
-49,-776,-7.62952,3.1908,0,0,0,0,0,0,0,-1,1175,1800,-7.62955,-3.19076
-42,-776,-3.41272,3.0249,0,0,0,0,0,0,0,-1,1182,1800,-3.41269,-3.02488
-35,-776,-3.71753,1.63635,0,0,0,0,0,0,0,-1,1189,1800,-3.71755,-1.63631
-28,-776,-4.03979,0.716064,0,0,0,0,0,0,0,-1,1196,1800,-4.03977,-0.716055
-21,-776,4.10864,22.6523,0,0,0,0,0,0,0,-1,1203,1800,4.10862,-22.6524
-14,-776,4.47485,22.1671,0.0346833,0.00856263,0.00253842,0.0349277,0.00831824,0.0959838,0.0210671,0.0476927,1210,1800,4.47483,-22.1671
-7,-776,4.68896,21.6263,0.0328105,0.00715451,0.00213637,0.0329872,0.00697783,0.0825123,0.0200739,0.0467913,1217,1800,4.68895,-21.6264
0,-776,5.35669,19.2775,0,0,0,0,0,0,0,-1,1224,1800,5.35672,-19.2774
7,-776,4.95654,19.6639,0,0,0,0,0,0,0,-1,1231,1800,4.95654,-19.6639
14,-776,5.98206,19.4008,0,0,0,0,0,0,0,-1,1238,1800,5.982,-19.4007
21,-776,6.04822,19.3691,0.0220909,0.00139339,-0.00578242,0.0235968,-0.000112524,-0.25477,0.0157688,0.0450858,1245,1800,6.04821,-19.3691
28,-776,5.47058,19.4171,0.0191217,-0.000118487,-0.00813245,0.0220986,-0.00309533,-0.350897,0.0158651,0.043415,1252,1800,5.47053,-19.4171
35,-776,5.11487,19.1754,0.0159356,-0.00179824,-0.0109797,0.0211817,-0.00704431,-0.445727,0.016964,0.043169,1259,1800,5.11481,-19.1754
42,-776,5.09155,18.8185,0,0,0,0,0,0,0,-1,1266,1800,5.09154,-18.8185
49,-776,5.06262,19.959,0,0,0,0,0,0,0,-1,1273,1800,5.06263,-19.959
56,-776,5.19238,20.3708,0.00605462,-0.00785109,-0.0176788,0.0180987,-0.0198952,-0.598045,0.021944,0.0437908,1280,1800,5.19242,-20.3709
63,-776,5.00696,19.4454,0.00201832,-0.00981351,-0.018653,0.0156711,-0.0234663,-0.631838,0.0227449,0.0484078,1287,1800,5.007,-19.4454
70,-776,4.85901,19.6019,-0.00199291,-0.0118929,-0.0192423,0.0129259,-0.0268117,-0.659505,0.0234048,0.0480309,1294,1800,4.85901,-19.6019
77,-776,5.0752,19.5194,0,0,0,0,0,0,0,-1,1301,1800,5.07521,-19.5194
84,-776,8.21899,20.1095,0,0,0,0,0,0,0,-1,1308,1800,8.21901,-20.1094
91,-776,5.75256,19.8182,0,0,0,0,0,0,0,-1,1315,1800,5.75251,-19.8182
98,-776,5.51404,20.0487,-0.0104828,-0.0202727,-0.0135568,-0.000964277,-0.0297912,-0.612146,0.0195473,0.0446637,1322,1800,5.51406,-20.0487
105,-776,5.18835,20.2906,-0.0112281,-0.0216351,-0.0118015,-0.00353388,-0.0293294,-0.57776,0.0184879,0.0447376,1329,1800,5.18834,-20.2907
112,-776,4.80872,20.6859,-0.0129465,-0.0228585,-0.00987967,-0.00684943,-0.0289555,-0.552919,0.0174739,0.046467,1336,1800,4.80874,-20.6859
119,-776,5.62695,18.7579,-0.0117984,-0.0243966,-0.00724251,-0.00849895,-0.0276961,-0.427476,0.0163832,0.0442251,1343,1800,5.62697,-18.758
126,-776,4.44312,21.3466,0,0,0,0,0,0,0,-1,1350,1800,4.44309,-21.3466
133,-776,4.70801,19.5354,0,0,0,0,0,0,0,-1,1357,1800,4.70806,-19.5354
140,-776,4.39331,10.0631,0,0,0,0,0,0,0,-1,1364,1800,4.39332,-10.0631
147,-776,6.46301,-0.617188,0,0,0,0,0,0,0,-1,1371,1800,6.46305,0.61724
154,-776,6.43774,0.344116,0,0,0,0,0,0,0,-1,1378,1800,6.43776,-0.344162
161,-776,6.50293,1.1731,0,0,0,0,0,0,0,-1,1385,1800,6.5029,-1.17313
168,-776,8.44971,1.22913,0,0,0,0,0,0,0,-1,1392,1800,8.44974,-1.22915
175,-776,8.61523,2.87061,0,0,0,0,0,0,0,-1,1399,1800,8.6152,-2.87063
182,-776,8.54065,4.60645,0,0,0,0,0,0,0,-1,1406,1800,8.5407,-4.60643
189,-776,8.35303,6.28223,0,0,0,0,0,0,0,-1,1413,1800,8.35297,-6.28225
196,-776,8.0387,8.21704,0,0,0,0,0,0,0,-1,1420,1800,8.03865,-8.217
203,-776,7.91736,9.79919,0,0,0,0,0,0,0,-1,1427,1800,7.91735,-9.79922
210,-776,20.2479,7.85718,0,0,0,0,0,0,0,-1,1434,1800,20.248,-7.85719
217,-776,21.5171,9.3418,0,0,0,0,0,0,0,-1,1441,1800,21.5171,-9.34182
224,-776,3.09253,14.9313,0,0,0,0,0,0,0,-1,1448,1800,3.09254,-14.9313
231,-776,20.8671,9.21057,0,0,0,0,0,0,0,-1,1455,1800,20.867,-9.21054
238,-776,20.7511,9.05847,0,0,0,0,0,0,0,-1,1462,1800,20.7511,-9.05848
245,-776,3.80823,15.4108,0,0,0,0,0,0,0,-1,1469,1800,3.80826,-15.4108
252,-776,16.6313,6.47168,0,0,0,0,0,0,0,-1,1476,1800,16.6313,-6.47165
259,-776,14.1882,7.69055,0,0,0,0,0,0,0,-1,1483,1800,14.1882,-7.69061
266,-776,0,0,0,0,0,0,0,0,0,-1,1490,1800,0,0
273,-776,0,0,0,0,0,0,0,0,0,-1,1497,1800,0,0
280,-776,0,0,0,0,0,0,0,0,0,-1,1504,1800,0,0
287,-776,0,0,0,0,0,0,0,0,0,-1,1511,1800,0,0
294,-776,0,0,0,0,0,0,0,0,0,-1,1518,1800,0,0
301,-776,0,0,0,0,0,0,0,0,0,-1,1525,1800,0,0
308,-776,0,0,0,0,0,0,0,0,0,-1,1532,1800,0,0
315,-776,0,0,0,0,0,0,0,0,0,-1,1539,1800,0,0
322,-776,0,0,0,0,0,0,0,0,0,-1,1546,1800,0,0
329,-776,0,0,0,0,0,0,0,0,0,-1,1553,1800,0,0
336,-776,0,0,0,0,0,0,0,0,0,-1,1560,1800,0,0
343,-776,0,0,0,0,0,0,0,0,0,-1,1567,1800,0,0
350,-776,0,0,0,0,0,0,0,0,0,-1,1574,1800,0,0
357,-776,0,0,0,0,0,0,0,0,0,-1,1581,1800,0,0
364,-776,0,0,0,0,0,0,0,0,0,-1,1588,1800,0,0
371,-776,0,0,0,0,0,0,0,0,0,-1,1595,1800,0,0
378,-776,0,0,0,0,0,0,0,0,0,-1,1602,1800,0,0
385,-776,0,0,0,0,0,0,0,0,0,-1,1609,1800,0,0
392,-776,0,0,0,0,0,0,0,0,0,-1,1616,1800,0,0
399,-776,0,0,0,0,0,0,0,0,0,-1,1623,1800,0,0
406,-776,0,0,0,0,0,0,0,0,0,-1,1630,1800,0,0
413,-776,0,0,0,0,0,0,0,0,0,-1,1637,1800,0,0
420,-776,0,0,0,0,0,0,0,0,0,-1,1644,1800,0,0
427,-776,0,0,0,0,0,0,0,0,0,-1,1651,1800,0,0
434,-776,0,0,0,0,0,0,0,0,0,-1,1658,1800,0,0
441,-776,0,0,0,0,0,0,0,0,0,-1,1665,1800,0,0
448,-776,0,0,0,0,0,0,0,0,0,-1,1672,1800,0,0
455,-776,0,0,0,0,0,0,0,0,0,-1,1679,1800,0,0
462,-776,0,0,0,0,0,0,0,0,0,-1,1686,1800,0,0
469,-776,0,0,0,0,0,0,0,0,0,-1,1693,1800,0,0
476,-776,0,0,0,0,0,0,0,0,0,-1,1700,1800,0,0
483,-776,0,0,0,0,0,0,0,0,0,-1,1707,1800,0,0
490,-776,0,0,0,0,0,0,0,0,0,-1,1714,1800,0,0
497,-776,0,0,0,0,0,0,0,0,0,-1,1721,1800,0,0
504,-776,0,0,0,0,0,0,0,0,0,-1,1728,1800,0,0
511,-776,0,0,0,0,0,0,0,0,0,-1,1735,1800,0,0
518,-776,0,0,0,0,0,0,0,0,0,-1,1742,1800,0,0
525,-776,0,0,0,0,0,0,0,0,0,-1,1749,1800,0,0
532,-776,0,0,0,0,0,0,0,0,0,-1,1756,1800,0,0
539,-776,0,0,0,0,0,0,0,0,0,-1,1763,1800,0,0
546,-776,0,0,0,0,0,0,0,0,0,-1,1770,1800,0,0
553,-776,0,0,0,0,0,0,0,0,0,-1,1777,1800,0,0
560,-776,0,0,0,0,0,0,0,0,0,-1,1784,1800,0,0
567,-776,0,0,0,0,0,0,0,0,0,-1,1791,1800,0,0
574,-776,0,0,0,0,0,0,0,0,0,-1,1798,1800,0,0
581,-776,0,0,0,0,0,0,0,0,0,-1,1805,1800,0,0
588,-776,0,0,0,0,0,0,0,0,0,-1,1812,1800,0,0
595,-776,0,0,0,0,0,0,0,0,0,-1,1819,1800,0,0
602,-776,0,0,0,0,0,0,0,0,0,-1,1826,1800,0,0
609,-776,0,0,0,0,0,0,0,0,0,-1,1833,1800,0,0
616,-776,0,0,0,0,0,0,0,0,0,-1,1840,1800,0,0
623,-776,0,0,0,0,0,0,0,0,0,-1,1847,1800,0,0
630,-776,0,0,0,0,0,0,0,0,0,-1,1854,1800,0,0
637,-776,0,0,0,0,0,0,0,0,0,-1,1861,1800,0,0
644,-776,0,0,0,0,0,0,0,0,0,-1,1868,1800,0,0
651,-776,0,0,0,0,0,0,0,0,0,-1,1875,1800,0,0
658,-776,0,0,0,0,0,0,0,0,0,-1,1882,1800,0,0
665,-776,0,0,0,0,0,0,0,0,0,-1,1889,1800,0,0
672,-776,0,0,0,0,0,0,0,0,0,-1,1896,1800,0,0
679,-776,0,0,0,0,0,0,0,0,0,-1,1903,1800,0,0
686,-776,0,0,0,0,0,0,0,0,0,-1,1910,1800,0,0
693,-776,0,0,0,0,0,0,0,0,0,-1,1917,1800,0,0
700,-776,0,0,0,0,0,0,0,0,0,-1,1924,1800,0,0
707,-776,0,0,0,0,0,0,0,0,0,-1,1931,1800,0,0
714,-776,0,0,0,0,0,0,0,0,0,-1,1938,1800,0,0
721,-776,0,0,0,0,0,0,0,0,0,-1,1945,1800,0,0
728,-776,0,0,0,0,0,0,0,0,0,-1,1952,1800,0,0
735,-776,0,0,0,0,0,0,0,0,0,-1,1959,1800,0,0
742,-776,0,0,0,0,0,0,0,0,0,-1,1966,1800,0,0
749,-776,0,0,0,0,0,0,0,0,0,-1,1973,1800,0,0
756,-776,0,0,0,0,0,0,0,0,0,-1,1980,1800,0,0
763,-776,0,0,0,0,0,0,0,0,0,-1,1987,1800,0,0
770,-776,0,0,0,0,0,0,0,0,0,-1,1994,1800,0,0
777,-776,0,0,0,0,0,0,0,0,0,-1,2001,1800,0,0
784,-776,0,0,0,0,0,0,0,0,0,-1,2008,1800,0,0
791,-776,0,0,0,0,0,0,0,0,0,-1,2015,1800,0,0
798,-776,0,0,0,0,0,0,0,0,0,-1,2022,1800,0,0
805,-776,0,0,0,0,0,0,0,0,0,-1,2029,1800,0,0
812,-776,0,0,0,0,0,0,0,0,0,-1,2036,1800,0,0
-700,-783,0,0,0,0,0,0,0,0,0,-1,524,1807,0,0
-693,-783,0,0,0,0,0,0,0,0,0,-1,531,1807,0,0
-686,-783,0,0,0,0,0,0,0,0,0,-1,538,1807,0,0
-679,-783,0,0,0,0,0,0,0,0,0,-1,545,1807,0,0
-672,-783,0,0,0,0,0,0,0,0,0,-1,552,1807,0,0
-665,-783,0,0,0,0,0,0,0,0,0,-1,559,1807,0,0
-658,-783,0,0,0,0,0,0,0,0,0,-1,566,1807,0,0
-651,-783,0,0,0,0,0,0,0,0,0,-1,573,1807,0,0
-644,-783,0,0,0,0,0,0,0,0,0,-1,580,1807,0,0
-637,-783,0,0,0,0,0,0,0,0,0,-1,587,1807,0,0
-630,-783,0,0,0,0,0,0,0,0,0,-1,594,1807,0,0
-623,-783,0,0,0,0,0,0,0,0,0,-1,601,1807,0,0
-616,-783,0,0,0,0,0,0,0,0,0,-1,608,1807,0,0
-609,-783,0,0,0,0,0,0,0,0,0,-1,615,1807,0,0
-602,-783,0,0,0,0,0,0,0,0,0,-1,622,1807,0,0
-595,-783,0,0,0,0,0,0,0,0,0,-1,629,1807,0,0
-588,-783,0,0,0,0,0,0,0,0,0,-1,636,1807,0,0
-581,-783,0,0,0,0,0,0,0,0,0,-1,643,1807,0,0
-574,-783,0,0,0,0,0,0,0,0,0,-1,650,1807,0,0
-567,-783,0,0,0,0,0,0,0,0,0,-1,657,1807,0,0
-560,-783,0,0,0,0,0,0,0,0,0,-1,664,1807,0,0
-553,-783,0,0,0,0,0,0,0,0,0,-1,671,1807,0,0
-546,-783,0,0,0,0,0,0,0,0,0,-1,678,1807,0,0
-539,-783,0,0,0,0,0,0,0,0,0,-1,685,1807,0,0
-532,-783,0,0,0,0,0,0,0,0,0,-1,692,1807,0,0
-525,-783,0,0,0,0,0,0,0,0,0,-1,699,1807,0,0
-518,-783,0,0,0,0,0,0,0,0,0,-1,706,1807,0,0
-511,-783,0,0,0,0,0,0,0,0,0,-1,713,1807,0,0
-504,-783,0,0,0,0,0,0,0,0,0,-1,720,1807,0,0
-497,-783,0,0,0,0,0,0,0,0,0,-1,727,1807,0,0
-490,-783,0,0,0,0,0,0,0,0,0,-1,734,1807,0,0
-483,-783,0,0,0,0,0,0,0,0,0,-1,741,1807,0,0
-476,-783,0,0,0,0,0,0,0,0,0,-1,748,1807,0,0
-469,-783,0,0,0,0,0,0,0,0,0,-1,755,1807,0,0
-462,-783,0,0,0,0,0,0,0,0,0,-1,762,1807,0,0
-455,-783,0,0,0,0,0,0,0,0,0,-1,769,1807,0,0
-448,-783,0,0,0,0,0,0,0,0,0,-1,776,1807,0,0
-441,-783,0,0,0,0,0,0,0,0,0,-1,783,1807,0,0
-434,-783,0,0,0,0,0,0,0,0,0,-1,790,1807,0,0
-427,-783,0,0,0,0,0,0,0,0,0,-1,797,1807,0,0
-420,-783,0,0,0,0,0,0,0,0,0,-1,804,1807,0,0
-413,-783,0,0,0,0,0,0,0,0,0,-1,811,1807,0,0
-406,-783,0,0,0,0,0,0,0,0,0,-1,818,1807,0,0
-399,-783,0,0,0,0,0,0,0,0,0,-1,825,1807,0,0
-392,-783,0,0,0,0,0,0,0,0,0,-1,832,1807,0,0
-385,-783,0,0,0,0,0,0,0,0,0,-1,839,1807,0,0
-378,-783,0,0,0,0,0,0,0,0,0,-1,846,1807,0,0
-371,-783,0,0,0,0,0,0,0,0,0,-1,853,1807,0,0
-364,-783,0,0,0,0,0,0,0,0,0,-1,860,1807,0,0
-357,-783,0,0,0,0,0,0,0,0,0,-1,867,1807,0,0
-350,-783,0,0,0,0,0,0,0,0,0,-1,874,1807,0,0
-343,-783,0,0,0,0,0,0,0,0,0,-1,881,1807,0,0
-336,-783,0,0,0,0,0,0,0,0,0,-1,888,1807,0,0
-329,-783,0,0,0,0,0,0,0,0,0,-1,895,1807,0,0
-322,-783,0,0,0,0,0,0,0,0,0,-1,902,1807,0,0
-315,-783,0,0,0,0,0,0,0,0,0,-1,909,1807,0,0
-308,-783,0,0,0,0,0,0,0,0,0,-1,916,1807,0,0
-301,-783,0,0,0,0,0,0,0,0,0,-1,923,1807,0,0
-294,-783,0,0,0,0,0,0,0,0,0,-1,930,1807,0,0
-287,-783,0,0,0,0,0,0,0,0,0,-1,937,1807,0,0
-280,-783,0,0,0,0,0,0,0,0,0,-1,944,1807,0,0
-273,-783,0,0,0,0,0,0,0,0,0,-1,951,1807,0,0
-266,-783,0,0,0,0,0,0,0,0,0,-1,958,1807,0,0
-259,-783,0,0,0,0,0,0,0,0,0,-1,965,1807,0,0
-252,-783,0,0,0,0,0,0,0,0,0,-1,972,1807,0,0
-245,-783,0,0,0,0,0,0,0,0,0,-1,979,1807,0,0
-238,-783,0,0,0,0,0,0,0,0,0,-1,986,1807,0,0
-231,-783,0,0,0,0,0,0,0,0,0,-1,993,1807,0,0
-224,-783,0,0,0,0,0,0,0,0,0,-1,1000,1807,0,0
-217,-783,0,0,0,0,0,0,0,0,0,-1,1007,1807,0,0
-210,-783,0,0,0,0,0,0,0,0,0,-1,1014,1807,0,0
-203,-783,0,0,0,0,0,0,0,0,0,-1,1021,1807,0,0
-196,-783,0,0,0,0,0,0,0,0,0,-1,1028,1807,0,0
-189,-783,0,0,0,0,0,0,0,0,0,-1,1035,1807,0,0
-182,-783,0,0,0,0,0,0,0,0,0,-1,1042,1807,0,0
-175,-783,0,0,0,0,0,0,0,0,0,-1,1049,1807,0,0
-168,-783,0,0,0,0,0,0,0,0,0,-1,1056,1807,0,0
-161,-783,0,0,0,0,0,0,0,0,0,-1,1063,1807,0,0
-154,-783,0,0,0,0,0,0,0,0,0,-1,1070,1807,0,0
-147,-783,0,0,0,0,0,0,0,0,0,-1,1077,1807,0,0
-140,-783,0,0,0,0,0,0,0,0,0,-1,1084,1807,0,0
-133,-783,0,0,0,0,0,0,0,0,0,-1,1091,1807,0,0
-126,-783,0,0,0,0,0,0,0,0,0,-1,1098,1807,0,0
-119,-783,0,0,0,0,0,0,0,0,0,-1,1105,1807,0,0
-112,-783,5.33936,14.7699,0,0,0,0,0,0,0,-1,1112,1807,5.33931,-14.7699
-105,-783,6.44263,21.2224,0,0,0,0,0,0,0,-1,1119,1807,6.44263,-21.2224
-98,-783,5.54773,20.5695,0,0,0,0,0,0,0,-1,1126,1807,5.54772,-20.5695
-91,-783,2.78186,14.2633,0,0,0,0,0,0,0,-1,1133,1807,2.78186,-14.2633
-84,-783,-0.0491943,14.5743,0,0,0,0,0,0,0,-1,1140,1807,-0.0491562,-14.5743
-77,-783,0.332764,12.7788,0,0,0,0,0,0,0,-1,1147,1807,0.332743,-12.7788
-70,-783,-1.93176,5.12817,0,0,0,0,0,0,0,-1,1154,1807,-1.93171,-5.12813
-63,-783,-5.31702,10.54,0,0,0,0,0,0,0,-1,1161,1807,-5.31703,-10.54
-56,-783,-6.26135,6.9679,0,0,0,0,0,0,0,-1,1168,1807,-6.26136,-6.96785
-49,-783,-3.17688,4.59705,0,0,0,0,0,0,0,-1,1175,1807,-3.17685,-4.5971
-42,-783,-3.72876,3.1405,0,0,0,0,0,0,0,-1,1182,1807,-3.72874,-3.14055
-35,-783,-3.97046,1.59399,0,0,0,0,0,0,0,-1,1189,1807,-3.97041,-1.59401
-28,-783,-4.12195,0.270386,0,0,0,0,0,0,0,-1,1196,1807,-4.12197,-0.270408
-21,-783,3.56641,22.5496,0,0,0,0,0,0,0,-1,1203,1807,3.56636,-22.5496
-14,-783,3.87146,21.9288,0.0467259,0.0101454,0.00426474,0.0472166,0.00965482,0.114539,0.028804,0.0463037,1210,1807,3.87151,-21.9288
-7,-783,4.09741,21.3226,0.0445849,0.00832545,0.00376285,0.0449712,0.00793907,0.102323,0.0277161,0.0448136,1217,1807,4.09737,-21.3227
0,-783,4.30469,20.6591,0.0402993,0.00752855,0.00286627,0.0405481,0.00727974,0.086588,0.0249619,0.0453389,1224,1807,4.30474,-20.659
7,-783,4.68469,19.8702,0.0363758,0.00596545,0.00182428,0.0364848,0.00585641,0.0597035,0.0226251,0.0468637,1231,1807,4.68474,-19.8702
14,-783,5.25757,18.9473,0.0327706,0.00363187,-0.0015215,0.0328498,0.00355264,-0.0520272,0.020817,0.0484174,1238,1807,5.25758,-18.9473
21,-783,5.98962,19.1924,0.0285169,0.00134633,-0.0054836,0.0295819,0.000281365,-0.191821,0.0196281,0.0481347,1245,1807,5.98966,-19.1924
28,-783,5.17578,19.0812,0.0240206,-0.000626016,-0.00815307,0.0264735,-0.00307892,-0.292242,0.0187597,0.0456253,1252,1807,5.17573,-19.0812
35,-783,5.09631,18.7115,0.0192807,-0.00277838,-0.0114027,0.0241153,-0.00761302,-0.401016,0.0191264,0.047155,1259,1807,5.09633,-18.7115
42,-783,5.10681,18.2367,0,0,0,0,0,0,0,-1,1266,1807,5.10676,-18.2367
49,-783,5.31653,17.7649,0,0,0,0,0,0,0,-1,1273,1807,5.31649,-17.7649
56,-783,5.47754,20.9806,0.00550294,-0.00990244,-0.018982,0.0182855,-0.022685,-0.592654,0.0236998,0.0434226,1280,1807,5.4775,-20.9806
63,-783,9.59924,21.0912,0.000323992,-0.0120402,-0.0200214,0.0150961,-0.0268122,-0.635655,0.0245089,0.0471542,1287,1807,9.5993,-21.0912
70,-783,9.13354,21.0721,-0.0048165,-0.0143086,-0.020713,0.0116873,-0.0308123,-0.672776,0.0253518,0.0456354,1294,1807,9.1336,-21.0721
77,-783,8.59802,21.0624,-0.0082073,-0.0166921,-0.0203571,0.00834476,-0.0332442,-0.682669,0.0254054,0.0494138,1301,1807,8.59802,-21.0623
84,-783,7.85144,20.6887,-0.010146,-0.0192914,-0.018843,0.00467122,-0.0341086,-0.666363,0.0244453,0.0475239,1308,1807,7.85149,-20.6887
91,-783,5.8042,20.2771,0,0,0,0,0,0,0,-1,1315,1807,5.8042,-20.2771
98,-783,5.66418,20.4271,-0.014923,-0.0236351,-0.0139865,-0.00462989,-0.0339282,-0.634435,0.0212443,0.0445583,1322,1807,5.66423,-20.4271
105,-783,5.5116,20.5995,-0.0156631,-0.0253634,-0.0119235,-0.00764105,-0.0333855,-0.592233,0.0201976,0.0463855,1329,1807,5.5116,-20.5994
112,-783,5.19556,20.9817,-0.0169505,-0.0271818,-0.00975654,-0.0110498,-0.0330825,-0.543938,0.0194479,0.0465948,1336,1807,5.19554,-20.9817
119,-783,4.89941,21.4236,-0.0149767,-0.0291303,-0.00733992,-0.0118576,-0.0322494,-0.401823,0.0188352,0.0451872,1343,1807,4.8994,-21.4236
126,-783,4.7373,21.7546,0,0,0,0,0,0,0,-1,1350,1807,4.73725,-21.7547
133,-783,4.79114,21.9387,0,0,0,0,0,0,0,-1,1357,1807,4.79108,-21.9387
140,-783,8.10645,18.6007,0,0,0,0,0,0,0,-1,1364,1807,8.10639,-18.6007
147,-783,6.45825,-1.2334,0,0,0,0,0,0,0,-1,1371,1807,6.45822,1.23339
154,-783,6.37024,-0.145874,0,0,0,0,0,0,0,-1,1378,1807,6.37018,0.145866
161,-783,6.57568,1.16174,0,0,0,0,0,0,0,-1,1385,1807,6.57562,-1.1617
168,-783,8.62561,1.79944,0,0,0,0,0,0,0,-1,1392,1807,8.62561,-1.79946
175,-783,8.78699,3.40857,0,0,0,0,0,0,0,-1,1399,1807,8.78697,-3.40854
182,-783,8.70984,5.14661,0,0,0,0,0,0,0,-1,1406,1807,8.70989,-5.14666
189,-783,8.55762,6.79871,0,0,0,0,0,0,0,-1,1413,1807,8.55766,-6.79872
196,-783,8.25488,8.66626,0,0,0,0,0,0,0,-1,1420,1807,8.25492,-8.66628
203,-783,7.86755,10.5735,0,0,0,0,0,0,0,-1,1427,1807,7.8676,-10.5734
210,-783,5.6969,8.99231,0,0,0,0,0,0,0,-1,1434,1807,5.69693,-8.99234
217,-783,5.28503,3.80872,0,0,0,0,0,0,0,-1,1441,1807,5.285,-3.80868
224,-783,3.22571,6.62903,0,0,0,0,0,0,0,-1,1448,1807,3.2257,-6.62907
231,-783,4.27942,4.56262,0,0,0,0,0,0,0,-1,1455,1807,4.27948,-4.56267
238,-783,0,0,0,0,0,0,0,0,0,-1,1462,1807,0,0
245,-783,0,0,0,0,0,0,0,0,0,-1,1469,1807,0,0
252,-783,0,0,0,0,0,0,0,0,0,-1,1476,1807,0,0
259,-783,0,0,0,0,0,0,0,0,0,-1,1483,1807,0,0
266,-783,0,0,0,0,0,0,0,0,0,-1,1490,1807,0,0
273,-783,0,0,0,0,0,0,0,0,0,-1,1497,1807,0,0
280,-783,0,0,0,0,0,0,0,0,0,-1,1504,1807,0,0
287,-783,0,0,0,0,0,0,0,0,0,-1,1511,1807,0,0
294,-783,0,0,0,0,0,0,0,0,0,-1,1518,1807,0,0
301,-783,0,0,0,0,0,0,0,0,0,-1,1525,1807,0,0
308,-783,0,0,0,0,0,0,0,0,0,-1,1532,1807,0,0
315,-783,0,0,0,0,0,0,0,0,0,-1,1539,1807,0,0
322,-783,0,0,0,0,0,0,0,0,0,-1,1546,1807,0,0
329,-783,0,0,0,0,0,0,0,0,0,-1,1553,1807,0,0
336,-783,0,0,0,0,0,0,0,0,0,-1,1560,1807,0,0
343,-783,0,0,0,0,0,0,0,0,0,-1,1567,1807,0,0
350,-783,0,0,0,0,0,0,0,0,0,-1,1574,1807,0,0
357,-783,0,0,0,0,0,0,0,0,0,-1,1581,1807,0,0
364,-783,0,0,0,0,0,0,0,0,0,-1,1588,1807,0,0
371,-783,0,0,0,0,0,0,0,0,0,-1,1595,1807,0,0
378,-783,0,0,0,0,0,0,0,0,0,-1,1602,1807,0,0
385,-783,0,0,0,0,0,0,0,0,0,-1,1609,1807,0,0
392,-783,0,0,0,0,0,0,0,0,0,-1,1616,1807,0,0
399,-783,0,0,0,0,0,0,0,0,0,-1,1623,1807,0,0
406,-783,0,0,0,0,0,0,0,0,0,-1,1630,1807,0,0
413,-783,0,0,0,0,0,0,0,0,0,-1,1637,1807,0,0
420,-783,0,0,0,0,0,0,0,0,0,-1,1644,1807,0,0
427,-783,0,0,0,0,0,0,0,0,0,-1,1651,1807,0,0
434,-783,0,0,0,0,0,0,0,0,0,-1,1658,1807,0,0
441,-783,0,0,0,0,0,0,0,0,0,-1,1665,1807,0,0
448,-783,0,0,0,0,0,0,0,0,0,-1,1672,1807,0,0
455,-783,0,0,0,0,0,0,0,0,0,-1,1679,1807,0,0
462,-783,0,0,0,0,0,0,0,0,0,-1,1686,1807,0,0
469,-783,0,0,0,0,0,0,0,0,0,-1,1693,1807,0,0
476,-783,0,0,0,0,0,0,0,0,0,-1,1700,1807,0,0
483,-783,0,0,0,0,0,0,0,0,0,-1,1707,1807,0,0
490,-783,0,0,0,0,0,0,0,0,0,-1,1714,1807,0,0
497,-783,0,0,0,0,0,0,0,0,0,-1,1721,1807,0,0
504,-783,0,0,0,0,0,0,0,0,0,-1,1728,1807,0,0
511,-783,0,0,0,0,0,0,0,0,0,-1,1735,1807,0,0
518,-783,0,0,0,0,0,0,0,0,0,-1,1742,1807,0,0
525,-783,0,0,0,0,0,0,0,0,0,-1,1749,1807,0,0
532,-783,0,0,0,0,0,0,0,0,0,-1,1756,1807,0,0
539,-783,0,0,0,0,0,0,0,0,0,-1,1763,1807,0,0
546,-783,0,0,0,0,0,0,0,0,0,-1,1770,1807,0,0
553,-783,0,0,0,0,0,0,0,0,0,-1,1777,1807,0,0
560,-783,0,0,0,0,0,0,0,0,0,-1,1784,1807,0,0
567,-783,0,0,0,0,0,0,0,0,0,-1,1791,1807,0,0
574,-783,0,0,0,0,0,0,0,0,0,-1,1798,1807,0,0
581,-783,0,0,0,0,0,0,0,0,0,-1,1805,1807,0,0
588,-783,0,0,0,0,0,0,0,0,0,-1,1812,1807,0,0
595,-783,0,0,0,0,0,0,0,0,0,-1,1819,1807,0,0
602,-783,0,0,0,0,0,0,0,0,0,-1,1826,1807,0,0
609,-783,0,0,0,0,0,0,0,0,0,-1,1833,1807,0,0
616,-783,0,0,0,0,0,0,0,0,0,-1,1840,1807,0,0
623,-783,0,0,0,0,0,0,0,0,0,-1,1847,1807,0,0
630,-783,0,0,0,0,0,0,0,0,0,-1,1854,1807,0,0
637,-783,0,0,0,0,0,0,0,0,0,-1,1861,1807,0,0
644,-783,0,0,0,0,0,0,0,0,0,-1,1868,1807,0,0
651,-783,0,0,0,0,0,0,0,0,0,-1,1875,1807,0,0
658,-783,0,0,0,0,0,0,0,0,0,-1,1882,1807,0,0
665,-783,0,0,0,0,0,0,0,0,0,-1,1889,1807,0,0
672,-783,0,0,0,0,0,0,0,0,0,-1,1896,1807,0,0
679,-783,0,0,0,0,0,0,0,0,0,-1,1903,1807,0,0
686,-783,0,0,0,0,0,0,0,0,0,-1,1910,1807,0,0
693,-783,0,0,0,0,0,0,0,0,0,-1,1917,1807,0,0
700,-783,0,0,0,0,0,0,0,0,0,-1,1924,1807,0,0
707,-783,0,0,0,0,0,0,0,0,0,-1,1931,1807,0,0
714,-783,0,0,0,0,0,0,0,0,0,-1,1938,1807,0,0
721,-783,0,0,0,0,0,0,0,0,0,-1,1945,1807,0,0
728,-783,0,0,0,0,0,0,0,0,0,-1,1952,1807,0,0
735,-783,0,0,0,0,0,0,0,0,0,-1,1959,1807,0,0
742,-783,0,0,0,0,0,0,0,0,0,-1,1966,1807,0,0
749,-783,0,0,0,0,0,0,0,0,0,-1,1973,1807,0,0
756,-783,0,0,0,0,0,0,0,0,0,-1,1980,1807,0,0
763,-783,0,0,0,0,0,0,0,0,0,-1,1987,1807,0,0
770,-783,0,0,0,0,0,0,0,0,0,-1,1994,1807,0,0
777,-783,0,0,0,0,0,0,0,0,0,-1,2001,1807,0,0
784,-783,0,0,0,0,0,0,0,0,0,-1,2008,1807,0,0
791,-783,0,0,0,0,0,0,0,0,0,-1,2015,1807,0,0
798,-783,0,0,0,0,0,0,0,0,0,-1,2022,1807,0,0
805,-783,0,0,0,0,0,0,0,0,0,-1,2029,1807,0,0
812,-783,0,0,0,0,0,0,0,0,0,-1,2036,1807,0,0
-700,-790,0,0,0,0,0,0,0,0,0,-1,524,1814,0,0
-693,-790,0,0,0,0,0,0,0,0,0,-1,531,1814,0,0
-686,-790,0,0,0,0,0,0,0,0,0,-1,538,1814,0,0
-679,-790,0,0,0,0,0,0,0,0,0,-1,545,1814,0,0
-672,-790,0,0,0,0,0,0,0,0,0,-1,552,1814,0,0
-665,-790,0,0,0,0,0,0,0,0,0,-1,559,1814,0,0
-658,-790,0,0,0,0,0,0,0,0,0,-1,566,1814,0,0
-651,-790,0,0,0,0,0,0,0,0,0,-1,573,1814,0,0
-644,-790,0,0,0,0,0,0,0,0,0,-1,580,1814,0,0
-637,-790,0,0,0,0,0,0,0,0,0,-1,587,1814,0,0
-630,-790,0,0,0,0,0,0,0,0,0,-1,594,1814,0,0
-623,-790,0,0,0,0,0,0,0,0,0,-1,601,1814,0,0
-616,-790,0,0,0,0,0,0,0,0,0,-1,608,1814,0,0
-609,-790,0,0,0,0,0,0,0,0,0,-1,615,1814,0,0
-602,-790,0,0,0,0,0,0,0,0,0,-1,622,1814,0,0
-595,-790,0,0,0,0,0,0,0,0,0,-1,629,1814,0,0
-588,-790,0,0,0,0,0,0,0,0,0,-1,636,1814,0,0
-581,-790,0,0,0,0,0,0,0,0,0,-1,643,1814,0,0
-574,-790,0,0,0,0,0,0,0,0,0,-1,650,1814,0,0
-567,-790,0,0,0,0,0,0,0,0,0,-1,657,1814,0,0
-560,-790,0,0,0,0,0,0,0,0,0,-1,664,1814,0,0
-553,-790,0,0,0,0,0,0,0,0,0,-1,671,1814,0,0
-546,-790,0,0,0,0,0,0,0,0,0,-1,678,1814,0,0
-539,-790,0,0,0,0,0,0,0,0,0,-1,685,1814,0,0
-532,-790,0,0,0,0,0,0,0,0,0,-1,692,1814,0,0
-525,-790,0,0,0,0,0,0,0,0,0,-1,699,1814,0,0
-518,-790,0,0,0,0,0,0,0,0,0,-1,706,1814,0,0
-511,-790,0,0,0,0,0,0,0,0,0,-1,713,1814,0,0
-504,-790,0,0,0,0,0,0,0,0,0,-1,720,1814,0,0
-497,-790,0,0,0,0,0,0,0,0,0,-1,727,1814,0,0
-490,-790,0,0,0,0,0,0,0,0,0,-1,734,1814,0,0
-483,-790,0,0,0,0,0,0,0,0,0,-1,741,1814,0,0
-476,-790,0,0,0,0,0,0,0,0,0,-1,748,1814,0,0
-469,-790,0,0,0,0,0,0,0,0,0,-1,755,1814,0,0
-462,-790,0,0,0,0,0,0,0,0,0,-1,762,1814,0,0
-455,-790,0,0,0,0,0,0,0,0,0,-1,769,1814,0,0
-448,-790,0,0,0,0,0,0,0,0,0,-1,776,1814,0,0
-441,-790,0,0,0,0,0,0,0,0,0,-1,783,1814,0,0
-434,-790,0,0,0,0,0,0,0,0,0,-1,790,1814,0,0
-427,-790,0,0,0,0,0,0,0,0,0,-1,797,1814,0,0
-420,-790,0,0,0,0,0,0,0,0,0,-1,804,1814,0,0
-413,-790,0,0,0,0,0,0,0,0,0,-1,811,1814,0,0
-406,-790,0,0,0,0,0,0,0,0,0,-1,818,1814,0,0
-399,-790,0,0,0,0,0,0,0,0,0,-1,825,1814,0,0
-392,-790,0,0,0,0,0,0,0,0,0,-1,832,1814,0,0
-385,-790,0,0,0,0,0,0,0,0,0,-1,839,1814,0,0
-378,-790,0,0,0,0,0,0,0,0,0,-1,846,1814,0,0
-371,-790,0,0,0,0,0,0,0,0,0,-1,853,1814,0,0
-364,-790,0,0,0,0,0,0,0,0,0,-1,860,1814,0,0
-357,-790,0,0,0,0,0,0,0,0,0,-1,867,1814,0,0
-350,-790,0,0,0,0,0,0,0,0,0,-1,874,1814,0,0
-343,-790,0,0,0,0,0,0,0,0,0,-1,881,1814,0,0
-336,-790,0,0,0,0,0,0,0,0,0,-1,888,1814,0,0
-329,-790,0,0,0,0,0,0,0,0,0,-1,895,1814,0,0
-322,-790,0,0,0,0,0,0,0,0,0,-1,902,1814,0,0
-315,-790,0,0,0,0,0,0,0,0,0,-1,909,1814,0,0
-308,-790,0,0,0,0,0,0,0,0,0,-1,916,1814,0,0
-301,-790,0,0,0,0,0,0,0,0,0,-1,923,1814,0,0
-294,-790,0,0,0,0,0,0,0,0,0,-1,930,1814,0,0
-287,-790,0,0,0,0,0,0,0,0,0,-1,937,1814,0,0
-280,-790,0,0,0,0,0,0,0,0,0,-1,944,1814,0,0
-273,-790,0,0,0,0,0,0,0,0,0,-1,951,1814,0,0
-266,-790,0,0,0,0,0,0,0,0,0,-1,958,1814,0,0
-259,-790,0,0,0,0,0,0,0,0,0,-1,965,1814,0,0
-252,-790,0,0,0,0,0,0,0,0,0,-1,972,1814,0,0
-245,-790,0,0,0,0,0,0,0,0,0,-1,979,1814,0,0
-238,-790,0,0,0,0,0,0,0,0,0,-1,986,1814,0,0
-231,-790,0,0,0,0,0,0,0,0,0,-1,993,1814,0,0
-224,-790,0,0,0,0,0,0,0,0,0,-1,1000,1814,0,0
-217,-790,0,0,0,0,0,0,0,0,0,-1,1007,1814,0,0
-210,-790,0,0,0,0,0,0,0,0,0,-1,1014,1814,0,0
-203,-790,0,0,0,0,0,0,0,0,0,-1,1021,1814,0,0
-196,-790,0,0,0,0,0,0,0,0,0,-1,1028,1814,0,0
-189,-790,0,0,0,0,0,0,0,0,0,-1,1035,1814,0,0
-182,-790,0,0,0,0,0,0,0,0,0,-1,1042,1814,0,0
-175,-790,0,0,0,0,0,0,0,0,0,-1,1049,1814,0,0
-168,-790,0,0,0,0,0,0,0,0,0,-1,1056,1814,0,0
-161,-790,0,0,0,0,0,0,0,0,0,-1,1063,1814,0,0
-154,-790,0,0,0,0,0,0,0,0,0,-1,1070,1814,0,0
-147,-790,0,0,0,0,0,0,0,0,0,-1,1077,1814,0,0
-140,-790,0,0,0,0,0,0,0,0,0,-1,1084,1814,0,0
-133,-790,0,0,0,0,0,0,0,0,0,-1,1091,1814,0,0
-126,-790,0,0,0,0,0,0,0,0,0,-1,1098,1814,0,0
-119,-790,0,0,0,0,0,0,0,0,0,-1,1105,1814,0,0
-112,-790,0,0,0,0,0,0,0,0,0,-1,1112,1814,0,0
-105,-790,0,0,0,0,0,0,0,0,0,-1,1119,1814,0,0
-98,-790,0,0,0,0,0,0,0,0,0,-1,1126,1814,0,0
-91,-790,0,0,0,0,0,0,0,0,0,-1,1133,1814,0,0
-84,-790,0,0,0,0,0,0,0,0,0,-1,1140,1814,0,0
-77,-790,-0.969238,5.30847,0,0,0,0,0,0,0,-1,1147,1814,-0.969277,-5.3085
-70,-790,-1.23169,4.98914,0,0,0,0,0,0,0,-1,1154,1814,-1.23163,-4.98916
-63,-790,-1.69128,4.32263,0,0,0,0,0,0,0,-1,1161,1814,-1.69128,-4.32258
-56,-790,-2.24756,3.75305,0,0,0,0,0,0,0,-1,1168,1814,-2.24758,-3.75302
-49,-790,-3.11011,3.35779,0,0,0,0,0,0,0,-1,1175,1814,-3.11006,-3.35781
-42,-790,0.593262,1.19165,0,0,0,0,0,0,0,-1,1182,1814,0.593225,-1.19165
-35,-790,0.307129,-0.20105,0,0,0,0,0,0,0,-1,1189,1814,0.307178,0.201006
-28,-790,-2.78467,0.785156,0,0,0,0,0,0,0,-1,1196,1814,-2.78471,-0.785183
-21,-790,5.36743,19.1195,0,0,0,0,0,0,0,-1,1203,1814,5.36738,-19.1195
-14,-790,3.2605,21.6121,0,0,0,0,0,0,0,-1,1210,1814,3.26047,-21.6121
-7,-790,3.55286,21.2323,0.0589049,0.00909712,0.00602283,0.0596228,0.00837918,0.118643,0.0372708,0.045324,1217,1814,3.55283,-21.2323
0,-790,3.5105,20.5696,0.0536197,0.00837762,0.00484306,0.0541323,0.00786499,0.105456,0.0337732,0.0449345,1224,1814,3.51046,-20.5695
7,-790,4.14783,20.0392,0.0472569,0.00674709,0.00365828,0.0475846,0.00641937,0.0893428,0.0298145,0.0433915,1231,1814,4.14785,-20.0392
14,-790,4.995,19.1758,0.0414821,0.00367582,0.000290407,0.0414843,0.00367359,0.00768085,0.0265166,0.043354,1238,1814,4.99501,-19.1758
21,-790,5.87317,19.037,0.0352613,0.000725192,-0.00411518,0.0357449,0.000241615,-0.116974,0.0237498,0.0457303,1245,1814,5.8732,-19.037
28,-790,5.63342,19.2673,0.0286321,-0.00176679,-0.00691978,0.0301331,-0.00326784,-0.213612,0.0212619,0.0437202,1252,1814,5.63345,-19.2673
35,-790,5.19214,18.2708,0.0218187,-0.00442024,-0.0104008,0.0254413,-0.00804285,-0.335161,0.0201832,0.0497056,1259,1814,5.19212,-18.2707
42,-790,5.21655,17.8959,0,0,0,0,0,0,0,-1,1266,1814,5.21652,-17.8958
49,-790,4.99524,17.3346,0,0,0,0,0,0,0,-1,1273,1814,4.99527,-17.3346
56,-790,5.68372,21.2445,0,0,0,0,0,0,0,-1,1280,1814,5.68371,-21.2445
63,-790,8.99414,21.262,0,0,0,0,0,0,0,-1,1287,1814,8.99416,-21.2619
70,-790,8.52844,21.2634,-0.00965749,-0.0168665,-0.0203351,0.00739012,-0.0339141,-0.697682,0.0254332,0.0401064,1294,1814,8.52839,-21.2634
77,-790,8.01428,21.3198,-0.01374,-0.0193023,-0.0199007,0.00357293,-0.0366152,-0.715971,0.0256841,0.0418569,1301,1814,8.01423,-21.3198
84,-790,7.41724,21.0469,-0.0157543,-0.0219494,-0.0181959,-0.000394166,-0.0373096,-0.70109,0.0247427,0.0463443,1308,1814,7.41721,-21.0469
91,-790,6.97949,20.6681,-0.0184811,-0.0245028,-0.0154117,-0.00578897,-0.037195,-0.688932,0.02311,0.0456324,1315,1814,6.9795,-20.6681
98,-790,6.43958,20.7336,-0.0209275,-0.0261957,-0.0128016,-0.0104918,-0.0366314,-0.683934,0.0217829,0.0441897,1322,1814,6.43953,-20.7337
105,-790,5.80408,20.8361,0,0,0,0,0,0,0,-1,1329,1814,5.80412,-20.8361
112,-790,5.6134,21.2457,-0.0217089,-0.0306801,-0.00818769,-0.0168586,-0.0355304,-0.534803,0.0205224,0.0466505,1336,1814,5.61343,-21.2457
119,-790,5.36108,21.729,-0.018486,-0.0330237,-0.00650769,-0.0159985,-0.0355112,-0.365101,0.0205359,0.0434425,1343,1814,5.36104,-21.729
126,-790,5.03137,22.1628,0,0,0,0,0,0,0,-1,1350,1814,5.03141,-22.1628
133,-790,4.42603,19.4535,0,0,0,0,0,0,0,-1,1357,1814,4.42603,-19.4535
140,-790,8.11194,18.734,0,0,0,0,0,0,0,-1,1364,1814,8.11194,-18.734
147,-790,3.4906,13.9751,0,0,0,0,0,0,0,-1,1371,1814,3.49064,-13.9751
154,-790,6.34485,-0.540405,0,0,0,0,0,0,0,-1,1378,1814,6.34482,0.540409
161,-790,6.62683,1.1134,0,0,0,0,0,0,0,-1,1385,1814,6.62682,-1.11344
168,-790,7.04077,2.23279,0,0,0,0,0,0,0,-1,1392,1814,7.04082,-2.23275
175,-790,9.03918,3.98535,0,0,0,0,0,0,0,-1,1399,1814,9.0392,-3.98535
182,-790,8.96997,5.67896,0,0,0,0,0,0,0,-1,1406,1814,8.97001,-5.6789
189,-790,8.59729,6.86975,0,0,0,0,0,0,0,-1,1413,1814,8.59728,-6.86972
196,-790,8.21924,9.29053,0,0,0,0,0,0,0,-1,1420,1814,8.21924,-9.29048
203,-790,0,0,0,0,0,0,0,0,0,-1,1427,1814,0,0
210,-790,0,0,0,0,0,0,0,0,0,-1,1434,1814,0,0
217,-790,0,0,0,0,0,0,0,0,0,-1,1441,1814,0,0
224,-790,0,0,0,0,0,0,0,0,0,-1,1448,1814,0,0
231,-790,0,0,0,0,0,0,0,0,0,-1,1455,1814,0,0
238,-790,0,0,0,0,0,0,0,0,0,-1,1462,1814,0,0
245,-790,0,0,0,0,0,0,0,0,0,-1,1469,1814,0,0
252,-790,0,0,0,0,0,0,0,0,0,-1,1476,1814,0,0
259,-790,0,0,0,0,0,0,0,0,0,-1,1483,1814,0,0
266,-790,0,0,0,0,0,0,0,0,0,-1,1490,1814,0,0
273,-790,0,0,0,0,0,0,0,0,0,-1,1497,1814,0,0
280,-790,0,0,0,0,0,0,0,0,0,-1,1504,1814,0,0
287,-790,0,0,0,0,0,0,0,0,0,-1,1511,1814,0,0
294,-790,0,0,0,0,0,0,0,0,0,-1,1518,1814,0,0
301,-790,0,0,0,0,0,0,0,0,0,-1,1525,1814,0,0
308,-790,0,0,0,0,0,0,0,0,0,-1,1532,1814,0,0
315,-790,0,0,0,0,0,0,0,0,0,-1,1539,1814,0,0
322,-790,0,0,0,0,0,0,0,0,0,-1,1546,1814,0,0
329,-790,0,0,0,0,0,0,0,0,0,-1,1553,1814,0,0
336,-790,0,0,0,0,0,0,0,0,0,-1,1560,1814,0,0
343,-790,0,0,0,0,0,0,0,0,0,-1,1567,1814,0,0
350,-790,0,0,0,0,0,0,0,0,0,-1,1574,1814,0,0
357,-790,0,0,0,0,0,0,0,0,0,-1,1581,1814,0,0
364,-790,0,0,0,0,0,0,0,0,0,-1,1588,1814,0,0
371,-790,0,0,0,0,0,0,0,0,0,-1,1595,1814,0,0
378,-790,0,0,0,0,0,0,0,0,0,-1,1602,1814,0,0
385,-790,0,0,0,0,0,0,0,0,0,-1,1609,1814,0,0
392,-790,0,0,0,0,0,0,0,0,0,-1,1616,1814,0,0
399,-790,0,0,0,0,0,0,0,0,0,-1,1623,1814,0,0
406,-790,0,0,0,0,0,0,0,0,0,-1,1630,1814,0,0
413,-790,0,0,0,0,0,0,0,0,0,-1,1637,1814,0,0
420,-790,0,0,0,0,0,0,0,0,0,-1,1644,1814,0,0
427,-790,0,0,0,0,0,0,0,0,0,-1,1651,1814,0,0
434,-790,0,0,0,0,0,0,0,0,0,-1,1658,1814,0,0
441,-790,0,0,0,0,0,0,0,0,0,-1,1665,1814,0,0
448,-790,0,0,0,0,0,0,0,0,0,-1,1672,1814,0,0
455,-790,0,0,0,0,0,0,0,0,0,-1,1679,1814,0,0
462,-790,0,0,0,0,0,0,0,0,0,-1,1686,1814,0,0
469,-790,0,0,0,0,0,0,0,0,0,-1,1693,1814,0,0
476,-790,0,0,0,0,0,0,0,0,0,-1,1700,1814,0,0
483,-790,0,0,0,0,0,0,0,0,0,-1,1707,1814,0,0
490,-790,0,0,0,0,0,0,0,0,0,-1,1714,1814,0,0
497,-790,0,0,0,0,0,0,0,0,0,-1,1721,1814,0,0
504,-790,0,0,0,0,0,0,0,0,0,-1,1728,1814,0,0
511,-790,0,0,0,0,0,0,0,0,0,-1,1735,1814,0,0
518,-790,0,0,0,0,0,0,0,0,0,-1,1742,1814,0,0
525,-790,0,0,0,0,0,0,0,0,0,-1,1749,1814,0,0
532,-790,0,0,0,0,0,0,0,0,0,-1,1756,1814,0,0
539,-790,0,0,0,0,0,0,0,0,0,-1,1763,1814,0,0
546,-790,0,0,0,0,0,0,0,0,0,-1,1770,1814,0,0
553,-790,0,0,0,0,0,0,0,0,0,-1,1777,1814,0,0
560,-790,0,0,0,0,0,0,0,0,0,-1,1784,1814,0,0
567,-790,0,0,0,0,0,0,0,0,0,-1,1791,1814,0,0
574,-790,0,0,0,0,0,0,0,0,0,-1,1798,1814,0,0
581,-790,0,0,0,0,0,0,0,0,0,-1,1805,1814,0,0
588,-790,0,0,0,0,0,0,0,0,0,-1,1812,1814,0,0
595,-790,0,0,0,0,0,0,0,0,0,-1,1819,1814,0,0
602,-790,0,0,0,0,0,0,0,0,0,-1,1826,1814,0,0
609,-790,0,0,0,0,0,0,0,0,0,-1,1833,1814,0,0
616,-790,0,0,0,0,0,0,0,0,0,-1,1840,1814,0,0
623,-790,0,0,0,0,0,0,0,0,0,-1,1847,1814,0,0
630,-790,0,0,0,0,0,0,0,0,0,-1,1854,1814,0,0
637,-790,0,0,0,0,0,0,0,0,0,-1,1861,1814,0,0
644,-790,0,0,0,0,0,0,0,0,0,-1,1868,1814,0,0
651,-790,0,0,0,0,0,0,0,0,0,-1,1875,1814,0,0
658,-790,0,0,0,0,0,0,0,0,0,-1,1882,1814,0,0
665,-790,0,0,0,0,0,0,0,0,0,-1,1889,1814,0,0
672,-790,0,0,0,0,0,0,0,0,0,-1,1896,1814,0,0
679,-790,0,0,0,0,0,0,0,0,0,-1,1903,1814,0,0
686,-790,0,0,0,0,0,0,0,0,0,-1,1910,1814,0,0
693,-790,0,0,0,0,0,0,0,0,0,-1,1917,1814,0,0
700,-790,0,0,0,0,0,0,0,0,0,-1,1924,1814,0,0
707,-790,0,0,0,0,0,0,0,0,0,-1,1931,1814,0,0
714,-790,0,0,0,0,0,0,0,0,0,-1,1938,1814,0,0
721,-790,0,0,0,0,0,0,0,0,0,-1,1945,1814,0,0
728,-790,0,0,0,0,0,0,0,0,0,-1,1952,1814,0,0
735,-790,0,0,0,0,0,0,0,0,0,-1,1959,1814,0,0
742,-790,0,0,0,0,0,0,0,0,0,-1,1966,1814,0,0
749,-790,0,0,0,0,0,0,0,0,0,-1,1973,1814,0,0
756,-790,0,0,0,0,0,0,0,0,0,-1,1980,1814,0,0
763,-790,0,0,0,0,0,0,0,0,0,-1,1987,1814,0,0
770,-790,0,0,0,0,0,0,0,0,0,-1,1994,1814,0,0
777,-790,0,0,0,0,0,0,0,0,0,-1,2001,1814,0,0
784,-790,0,0,0,0,0,0,0,0,0,-1,2008,1814,0,0
791,-790,0,0,0,0,0,0,0,0,0,-1,2015,1814,0,0
798,-790,0,0,0,0,0,0,0,0,0,-1,2022,1814,0,0
805,-790,0,0,0,0,0,0,0,0,0,-1,2029,1814,0,0
812,-790,0,0,0,0,0,0,0,0,0,-1,2036,1814,0,0
-700,-797,0,0,0,0,0,0,0,0,0,-1,524,1821,0,0
-693,-797,0,0,0,0,0,0,0,0,0,-1,531,1821,0,0
-686,-797,0,0,0,0,0,0,0,0,0,-1,538,1821,0,0
-679,-797,0,0,0,0,0,0,0,0,0,-1,545,1821,0,0
-672,-797,0,0,0,0,0,0,0,0,0,-1,552,1821,0,0
-665,-797,0,0,0,0,0,0,0,0,0,-1,559,1821,0,0
-658,-797,0,0,0,0,0,0,0,0,0,-1,566,1821,0,0
-651,-797,0,0,0,0,0,0,0,0,0,-1,573,1821,0,0
-644,-797,0,0,0,0,0,0,0,0,0,-1,580,1821,0,0
-637,-797,0,0,0,0,0,0,0,0,0,-1,587,1821,0,0
-630,-797,0,0,0,0,0,0,0,0,0,-1,594,1821,0,0
-623,-797,0,0,0,0,0,0,0,0,0,-1,601,1821,0,0
-616,-797,0,0,0,0,0,0,0,0,0,-1,608,1821,0,0
-609,-797,0,0,0,0,0,0,0,0,0,-1,615,1821,0,0
-602,-797,0,0,0,0,0,0,0,0,0,-1,622,1821,0,0
-595,-797,0,0,0,0,0,0,0,0,0,-1,629,1821,0,0
-588,-797,0,0,0,0,0,0,0,0,0,-1,636,1821,0,0
-581,-797,0,0,0,0,0,0,0,0,0,-1,643,1821,0,0
-574,-797,0,0,0,0,0,0,0,0,0,-1,650,1821,0,0
-567,-797,0,0,0,0,0,0,0,0,0,-1,657,1821,0,0
-560,-797,0,0,0,0,0,0,0,0,0,-1,664,1821,0,0
-553,-797,0,0,0,0,0,0,0,0,0,-1,671,1821,0,0
-546,-797,0,0,0,0,0,0,0,0,0,-1,678,1821,0,0
-539,-797,0,0,0,0,0,0,0,0,0,-1,685,1821,0,0
-532,-797,0,0,0,0,0,0,0,0,0,-1,692,1821,0,0
-525,-797,0,0,0,0,0,0,0,0,0,-1,699,1821,0,0
-518,-797,0,0,0,0,0,0,0,0,0,-1,706,1821,0,0
-511,-797,0,0,0,0,0,0,0,0,0,-1,713,1821,0,0
-504,-797,0,0,0,0,0,0,0,0,0,-1,720,1821,0,0
-497,-797,0,0,0,0,0,0,0,0,0,-1,727,1821,0,0
-490,-797,0,0,0,0,0,0,0,0,0,-1,734,1821,0,0
-483,-797,0,0,0,0,0,0,0,0,0,-1,741,1821,0,0
-476,-797,0,0,0,0,0,0,0,0,0,-1,748,1821,0,0
-469,-797,0,0,0,0,0,0,0,0,0,-1,755,1821,0,0
-462,-797,0,0,0,0,0,0,0,0,0,-1,762,1821,0,0
-455,-797,0,0,0,0,0,0,0,0,0,-1,769,1821,0,0
-448,-797,0,0,0,0,0,0,0,0,0,-1,776,1821,0,0
-441,-797,0,0,0,0,0,0,0,0,0,-1,783,1821,0,0
-434,-797,0,0,0,0,0,0,0,0,0,-1,790,1821,0,0
-427,-797,0,0,0,0,0,0,0,0,0,-1,797,1821,0,0
-420,-797,0,0,0,0,0,0,0,0,0,-1,804,1821,0,0
-413,-797,0,0,0,0,0,0,0,0,0,-1,811,1821,0,0
-406,-797,0,0,0,0,0,0,0,0,0,-1,818,1821,0,0
-399,-797,0,0,0,0,0,0,0,0,0,-1,825,1821,0,0
-392,-797,0,0,0,0,0,0,0,0,0,-1,832,1821,0,0
-385,-797,0,0,0,0,0,0,0,0,0,-1,839,1821,0,0
-378,-797,0,0,0,0,0,0,0,0,0,-1,846,1821,0,0
-371,-797,0,0,0,0,0,0,0,0,0,-1,853,1821,0,0
-364,-797,0,0,0,0,0,0,0,0,0,-1,860,1821,0,0
-357,-797,0,0,0,0,0,0,0,0,0,-1,867,1821,0,0
-350,-797,0,0,0,0,0,0,0,0,0,-1,874,1821,0,0
-343,-797,0,0,0,0,0,0,0,0,0,-1,881,1821,0,0
-336,-797,0,0,0,0,0,0,0,0,0,-1,888,1821,0,0
-329,-797,0,0,0,0,0,0,0,0,0,-1,895,1821,0,0
-322,-797,0,0,0,0,0,0,0,0,0,-1,902,1821,0,0
-315,-797,0,0,0,0,0,0,0,0,0,-1,909,1821,0,0
-308,-797,0,0,0,0,0,0,0,0,0,-1,916,1821,0,0
-301,-797,0,0,0,0,0,0,0,0,0,-1,923,1821,0,0
-294,-797,0,0,0,0,0,0,0,0,0,-1,930,1821,0,0
-287,-797,0,0,0,0,0,0,0,0,0,-1,937,1821,0,0
-280,-797,0,0,0,0,0,0,0,0,0,-1,944,1821,0,0
-273,-797,0,0,0,0,0,0,0,0,0,-1,951,1821,0,0
-266,-797,0,0,0,0,0,0,0,0,0,-1,958,1821,0,0
-259,-797,0,0,0,0,0,0,0,0,0,-1,965,1821,0,0
-252,-797,0,0,0,0,0,0,0,0,0,-1,972,1821,0,0
-245,-797,0,0,0,0,0,0,0,0,0,-1,979,1821,0,0
-238,-797,0,0,0,0,0,0,0,0,0,-1,986,1821,0,0
-231,-797,0,0,0,0,0,0,0,0,0,-1,993,1821,0,0
-224,-797,0,0,0,0,0,0,0,0,0,-1,1000,1821,0,0
-217,-797,0,0,0,0,0,0,0,0,0,-1,1007,1821,0,0
-210,-797,0,0,0,0,0,0,0,0,0,-1,1014,1821,0,0
-203,-797,0,0,0,0,0,0,0,0,0,-1,1021,1821,0,0
-196,-797,0,0,0,0,0,0,0,0,0,-1,1028,1821,0,0
-189,-797,0,0,0,0,0,0,0,0,0,-1,1035,1821,0,0
-182,-797,0,0,0,0,0,0,0,0,0,-1,1042,1821,0,0
-175,-797,0,0,0,0,0,0,0,0,0,-1,1049,1821,0,0
-168,-797,0,0,0,0,0,0,0,0,0,-1,1056,1821,0,0
-161,-797,0,0,0,0,0,0,0,0,0,-1,1063,1821,0,0
-154,-797,0,0,0,0,0,0,0,0,0,-1,1070,1821,0,0
-147,-797,0,0,0,0,0,0,0,0,0,-1,1077,1821,0,0
-140,-797,0,0,0,0,0,0,0,0,0,-1,1084,1821,0,0
-133,-797,0,0,0,0,0,0,0,0,0,-1,1091,1821,0,0
-126,-797,0,0,0,0,0,0,0,0,0,-1,1098,1821,0,0
-119,-797,0,0,0,0,0,0,0,0,0,-1,1105,1821,0,0
-112,-797,0,0,0,0,0,0,0,0,0,-1,1112,1821,0,0
-105,-797,0,0,0,0,0,0,0,0,0,-1,1119,1821,0,0
-98,-797,0,0,0,0,0,0,0,0,0,-1,1126,1821,0,0
-91,-797,0,0,0,0,0,0,0,0,0,-1,1133,1821,0,0
-84,-797,0,0,0,0,0,0,0,0,0,-1,1140,1821,0,0
-77,-797,0,0,0,0,0,0,0,0,0,-1,1147,1821,0,0
-70,-797,0,0,0,0,0,0,0,0,0,-1,1154,1821,0,0
-63,-797,0,0,0,0,0,0,0,0,0,-1,1161,1821,0,0
-56,-797,0,0,0,0,0,0,0,0,0,-1,1168,1821,0,0
-49,-797,0,0,0,0,0,0,0,0,0,-1,1175,1821,0,0
-42,-797,0.579834,0.692871,0,0,0,0,0,0,0,-1,1182,1821,0.579856,-0.692816
-35,-797,-0.185425,5.55396,0,0,0,0,0,0,0,-1,1189,1821,-0.18542,-5.55396
-28,-797,-0.310181,4.71509,0,0,0,0,0,0,0,-1,1196,1821,-0.310228,-4.71503
-21,-797,4.85986,19.3455,0,0,0,0,0,0,0,-1,1203,1821,4.85986,-19.3455
-14,-797,4.94775,19.4076,0,0,0,0,0,0,0,-1,1210,1821,4.94774,-19.4076
-7,-797,2.88989,21.7291,0,0,0,0,0,0,0,-1,1217,1821,2.8899,-21.7291
0,-797,2.90955,20.825,0.0698237,0.00858416,0.00766665,0.0707689,0.00763895,0.122669,0.0448503,0.0492735,1224,1821,2.90953,-20.8249
7,-797,3.18042,20.0697,0.0598187,0.00688986,0.00641144,0.0605843,0.00612429,0.118843,0.0385108,0.0446981,1231,1821,3.18042,-20.0697
14,-797,3.69739,19.3663,0.0506749,0.0028716,0.00353502,0.0509349,0.0026116,0.073417,0.0331204,0.0413695,1238,1821,3.69745,-19.3664
21,-797,5.63391,19.0336,0.0416378,-0.000862413,-0.000994678,0.041661,-0.000885678,-0.023387,0.0280739,0.0451217,1245,1821,5.63388,-19.0335
28,-797,5.42859,18.9398,0.032071,-0.00388488,-0.00364793,0.0324374,-0.00425125,-0.100097,0.0231724,0.0437105,1252,1821,5.42854,-18.9398
35,-797,5.19727,17.969,0,0,0,0,0,0,0,-1,1259,1821,5.19722,-17.969
42,-797,6.71228,20.9637,0,0,0,0,0,0,0,-1,1266,1821,6.71231,-20.9637
49,-797,6.17456,21.3502,0.00575139,-0.0133702,-0.0131107,0.0124171,-0.020036,-0.470358,0.0189081,0.046981,1273,1821,6.17453,-21.3503
56,-797,5.7113,21.6846,-0.00232165,-0.0156542,-0.0152011,0.00761068,-0.0255865,-0.578758,0.0200812,0.0430316,1280,1821,5.7113,-21.6846
63,-797,5.1283,22.1737,-0.0100593,-0.0175618,-0.016131,0.00275089,-0.0303719,-0.671155,0.0212244,0.0405164,1287,1821,5.12834,-22.1737
70,-797,6.7356,21.231,0,0,0,0,0,0,0,-1,1294,1821,6.73565,-21.2309
77,-797,6.88733,21.0084,-0.0222524,-0.0215303,-0.0164436,-0.0054438,-0.0383389,-0.796376,0.0239518,0.042929,1301,1821,6.8873,-21.0084
84,-797,7.06665,20.6337,-0.0240898,-0.0237956,-0.0146382,-0.0093038,-0.0385816,-0.790423,0.0232489,0.0465502,1308,1821,7.0666,-20.6337
91,-797,7.28735,20.5544,-0.0267459,-0.0257374,-0.0117278,-0.014503,-0.0379803,-0.806884,0.0221311,0.0449046,1315,1821,7.28737,-20.5544
98,-797,6.96704,21.1854,0,0,0,0,0,0,0,-1,1322,1821,6.96702,-21.1854
105,-797,6.12195,20.8368,0,0,0,0,0,0,0,-1,1329,1821,6.122,-20.8368
112,-797,5.91541,21.2802,-0.0272693,-0.0321208,-0.00445965,-0.0246184,-0.0347717,-0.536311,0.0206464,0.0475398,1336,1821,5.9154,-21.2801
119,-797,5.70105,21.6674,-0.0222283,-0.0347538,-0.0043061,-0.0208907,-0.0360913,-0.301168,0.0209235,0.0450749,1343,1821,5.70104,-21.6674
126,-797,5.4646,22.0762,0,0,0,0,0,0,0,-1,1350,1821,5.46459,-22.0761
133,-797,3.75317,19.4343,0,0,0,0,0,0,0,-1,1357,1821,3.75315,-19.4343
140,-797,16.1001,15.882,0,0,0,0,0,0,0,-1,1364,1821,16.1001,-15.882
147,-797,5.44116,15.9459,0,0,0,0,0,0,0,-1,1371,1821,5.44118,-15.9459
154,-797,14.49,10.5256,0,0,0,0,0,0,0,-1,1378,1821,14.49,-10.5256
161,-797,6.79199,1.12952,0,0,0,0,0,0,0,-1,1385,1821,6.79203,-1.12957
168,-797,0,0,0,0,0,0,0,0,0,-1,1392,1821,0,0
175,-797,0,0,0,0,0,0,0,0,0,-1,1399,1821,0,0
182,-797,0,0,0,0,0,0,0,0,0,-1,1406,1821,0,0
189,-797,0,0,0,0,0,0,0,0,0,-1,1413,1821,0,0
196,-797,0,0,0,0,0,0,0,0,0,-1,1420,1821,0,0
203,-797,0,0,0,0,0,0,0,0,0,-1,1427,1821,0,0
210,-797,0,0,0,0,0,0,0,0,0,-1,1434,1821,0,0
217,-797,0,0,0,0,0,0,0,0,0,-1,1441,1821,0,0
224,-797,0,0,0,0,0,0,0,0,0,-1,1448,1821,0,0
231,-797,0,0,0,0,0,0,0,0,0,-1,1455,1821,0,0
238,-797,0,0,0,0,0,0,0,0,0,-1,1462,1821,0,0
245,-797,0,0,0,0,0,0,0,0,0,-1,1469,1821,0,0
252,-797,0,0,0,0,0,0,0,0,0,-1,1476,1821,0,0
259,-797,0,0,0,0,0,0,0,0,0,-1,1483,1821,0,0
266,-797,0,0,0,0,0,0,0,0,0,-1,1490,1821,0,0
273,-797,0,0,0,0,0,0,0,0,0,-1,1497,1821,0,0
280,-797,0,0,0,0,0,0,0,0,0,-1,1504,1821,0,0
287,-797,0,0,0,0,0,0,0,0,0,-1,1511,1821,0,0
294,-797,0,0,0,0,0,0,0,0,0,-1,1518,1821,0,0
301,-797,0,0,0,0,0,0,0,0,0,-1,1525,1821,0,0
308,-797,0,0,0,0,0,0,0,0,0,-1,1532,1821,0,0
315,-797,0,0,0,0,0,0,0,0,0,-1,1539,1821,0,0
322,-797,0,0,0,0,0,0,0,0,0,-1,1546,1821,0,0
329,-797,0,0,0,0,0,0,0,0,0,-1,1553,1821,0,0
336,-797,0,0,0,0,0,0,0,0,0,-1,1560,1821,0,0
343,-797,0,0,0,0,0,0,0,0,0,-1,1567,1821,0,0
350,-797,0,0,0,0,0,0,0,0,0,-1,1574,1821,0,0
357,-797,0,0,0,0,0,0,0,0,0,-1,1581,1821,0,0
364,-797,0,0,0,0,0,0,0,0,0,-1,1588,1821,0,0
371,-797,0,0,0,0,0,0,0,0,0,-1,1595,1821,0,0
378,-797,0,0,0,0,0,0,0,0,0,-1,1602,1821,0,0
385,-797,0,0,0,0,0,0,0,0,0,-1,1609,1821,0,0
392,-797,0,0,0,0,0,0,0,0,0,-1,1616,1821,0,0
399,-797,0,0,0,0,0,0,0,0,0,-1,1623,1821,0,0
406,-797,0,0,0,0,0,0,0,0,0,-1,1630,1821,0,0
413,-797,0,0,0,0,0,0,0,0,0,-1,1637,1821,0,0
420,-797,0,0,0,0,0,0,0,0,0,-1,1644,1821,0,0
427,-797,0,0,0,0,0,0,0,0,0,-1,1651,1821,0,0
434,-797,0,0,0,0,0,0,0,0,0,-1,1658,1821,0,0
441,-797,0,0,0,0,0,0,0,0,0,-1,1665,1821,0,0
448,-797,0,0,0,0,0,0,0,0,0,-1,1672,1821,0,0
455,-797,0,0,0,0,0,0,0,0,0,-1,1679,1821,0,0
462,-797,0,0,0,0,0,0,0,0,0,-1,1686,1821,0,0
469,-797,0,0,0,0,0,0,0,0,0,-1,1693,1821,0,0
476,-797,0,0,0,0,0,0,0,0,0,-1,1700,1821,0,0
483,-797,0,0,0,0,0,0,0,0,0,-1,1707,1821,0,0
490,-797,0,0,0,0,0,0,0,0,0,-1,1714,1821,0,0
497,-797,0,0,0,0,0,0,0,0,0,-1,1721,1821,0,0
504,-797,0,0,0,0,0,0,0,0,0,-1,1728,1821,0,0
511,-797,0,0,0,0,0,0,0,0,0,-1,1735,1821,0,0
518,-797,0,0,0,0,0,0,0,0,0,-1,1742,1821,0,0
525,-797,0,0,0,0,0,0,0,0,0,-1,1749,1821,0,0
532,-797,0,0,0,0,0,0,0,0,0,-1,1756,1821,0,0
539,-797,0,0,0,0,0,0,0,0,0,-1,1763,1821,0,0
546,-797,0,0,0,0,0,0,0,0,0,-1,1770,1821,0,0
553,-797,0,0,0,0,0,0,0,0,0,-1,1777,1821,0,0
560,-797,0,0,0,0,0,0,0,0,0,-1,1784,1821,0,0
567,-797,0,0,0,0,0,0,0,0,0,-1,1791,1821,0,0
574,-797,0,0,0,0,0,0,0,0,0,-1,1798,1821,0,0
581,-797,0,0,0,0,0,0,0,0,0,-1,1805,1821,0,0
588,-797,0,0,0,0,0,0,0,0,0,-1,1812,1821,0,0
595,-797,0,0,0,0,0,0,0,0,0,-1,1819,1821,0,0
602,-797,0,0,0,0,0,0,0,0,0,-1,1826,1821,0,0
609,-797,0,0,0,0,0,0,0,0,0,-1,1833,1821,0,0
616,-797,0,0,0,0,0,0,0,0,0,-1,1840,1821,0,0
623,-797,0,0,0,0,0,0,0,0,0,-1,1847,1821,0,0
630,-797,0,0,0,0,0,0,0,0,0,-1,1854,1821,0,0
637,-797,0,0,0,0,0,0,0,0,0,-1,1861,1821,0,0
644,-797,0,0,0,0,0,0,0,0,0,-1,1868,1821,0,0
651,-797,0,0,0,0,0,0,0,0,0,-1,1875,1821,0,0
658,-797,0,0,0,0,0,0,0,0,0,-1,1882,1821,0,0
665,-797,0,0,0,0,0,0,0,0,0,-1,1889,1821,0,0
672,-797,0,0,0,0,0,0,0,0,0,-1,1896,1821,0,0
679,-797,0,0,0,0,0,0,0,0,0,-1,1903,1821,0,0
686,-797,0,0,0,0,0,0,0,0,0,-1,1910,1821,0,0
693,-797,0,0,0,0,0,0,0,0,0,-1,1917,1821,0,0
700,-797,0,0,0,0,0,0,0,0,0,-1,1924,1821,0,0
707,-797,0,0,0,0,0,0,0,0,0,-1,1931,1821,0,0
714,-797,0,0,0,0,0,0,0,0,0,-1,1938,1821,0,0
721,-797,0,0,0,0,0,0,0,0,0,-1,1945,1821,0,0
728,-797,0,0,0,0,0,0,0,0,0,-1,1952,1821,0,0
735,-797,0,0,0,0,0,0,0,0,0,-1,1959,1821,0,0
742,-797,0,0,0,0,0,0,0,0,0,-1,1966,1821,0,0
749,-797,0,0,0,0,0,0,0,0,0,-1,1973,1821,0,0
756,-797,0,0,0,0,0,0,0,0,0,-1,1980,1821,0,0
763,-797,0,0,0,0,0,0,0,0,0,-1,1987,1821,0,0
770,-797,0,0,0,0,0,0,0,0,0,-1,1994,1821,0,0
777,-797,0,0,0,0,0,0,0,0,0,-1,2001,1821,0,0
784,-797,0,0,0,0,0,0,0,0,0,-1,2008,1821,0,0
791,-797,0,0,0,0,0,0,0,0,0,-1,2015,1821,0,0
798,-797,0,0,0,0,0,0,0,0,0,-1,2022,1821,0,0
805,-797,0,0,0,0,0,0,0,0,0,-1,2029,1821,0,0
812,-797,0,0,0,0,0,0,0,0,0,-1,2036,1821,0,0
-700,-804,0,0,0,0,0,0,0,0,0,-1,524,1828,0,0
-693,-804,0,0,0,0,0,0,0,0,0,-1,531,1828,0,0
-686,-804,0,0,0,0,0,0,0,0,0,-1,538,1828,0,0
-679,-804,0,0,0,0,0,0,0,0,0,-1,545,1828,0,0
-672,-804,0,0,0,0,0,0,0,0,0,-1,552,1828,0,0
-665,-804,0,0,0,0,0,0,0,0,0,-1,559,1828,0,0
-658,-804,0,0,0,0,0,0,0,0,0,-1,566,1828,0,0
-651,-804,0,0,0,0,0,0,0,0,0,-1,573,1828,0,0
-644,-804,0,0,0,0,0,0,0,0,0,-1,580,1828,0,0
-637,-804,0,0,0,0,0,0,0,0,0,-1,587,1828,0,0
-630,-804,0,0,0,0,0,0,0,0,0,-1,594,1828,0,0
-623,-804,0,0,0,0,0,0,0,0,0,-1,601,1828,0,0
-616,-804,0,0,0,0,0,0,0,0,0,-1,608,1828,0,0
-609,-804,0,0,0,0,0,0,0,0,0,-1,615,1828,0,0
-602,-804,0,0,0,0,0,0,0,0,0,-1,622,1828,0,0
-595,-804,0,0,0,0,0,0,0,0,0,-1,629,1828,0,0
-588,-804,0,0,0,0,0,0,0,0,0,-1,636,1828,0,0
-581,-804,0,0,0,0,0,0,0,0,0,-1,643,1828,0,0
-574,-804,0,0,0,0,0,0,0,0,0,-1,650,1828,0,0
-567,-804,0,0,0,0,0,0,0,0,0,-1,657,1828,0,0
-560,-804,0,0,0,0,0,0,0,0,0,-1,664,1828,0,0
-553,-804,0,0,0,0,0,0,0,0,0,-1,671,1828,0,0
-546,-804,0,0,0,0,0,0,0,0,0,-1,678,1828,0,0
-539,-804,0,0,0,0,0,0,0,0,0,-1,685,1828,0,0
-532,-804,0,0,0,0,0,0,0,0,0,-1,692,1828,0,0
-525,-804,0,0,0,0,0,0,0,0,0,-1,699,1828,0,0
-518,-804,0,0,0,0,0,0,0,0,0,-1,706,1828,0,0
-511,-804,0,0,0,0,0,0,0,0,0,-1,713,1828,0,0
-504,-804,0,0,0,0,0,0,0,0,0,-1,720,1828,0,0
-497,-804,0,0,0,0,0,0,0,0,0,-1,727,1828,0,0
-490,-804,0,0,0,0,0,0,0,0,0,-1,734,1828,0,0
-483,-804,0,0,0,0,0,0,0,0,0,-1,741,1828,0,0
-476,-804,0,0,0,0,0,0,0,0,0,-1,748,1828,0,0
-469,-804,0,0,0,0,0,0,0,0,0,-1,755,1828,0,0
-462,-804,0,0,0,0,0,0,0,0,0,-1,762,1828,0,0
-455,-804,0,0,0,0,0,0,0,0,0,-1,769,1828,0,0
-448,-804,0,0,0,0,0,0,0,0,0,-1,776,1828,0,0
-441,-804,0,0,0,0,0,0,0,0,0,-1,783,1828,0,0
-434,-804,0,0,0,0,0,0,0,0,0,-1,790,1828,0,0
-427,-804,0,0,0,0,0,0,0,0,0,-1,797,1828,0,0
-420,-804,0,0,0,0,0,0,0,0,0,-1,804,1828,0,0
-413,-804,0,0,0,0,0,0,0,0,0,-1,811,1828,0,0
-406,-804,0,0,0,0,0,0,0,0,0,-1,818,1828,0,0
-399,-804,0,0,0,0,0,0,0,0,0,-1,825,1828,0,0
-392,-804,0,0,0,0,0,0,0,0,0,-1,832,1828,0,0
-385,-804,0,0,0,0,0,0,0,0,0,-1,839,1828,0,0
-378,-804,0,0,0,0,0,0,0,0,0,-1,846,1828,0,0
-371,-804,0,0,0,0,0,0,0,0,0,-1,853,1828,0,0
-364,-804,0,0,0,0,0,0,0,0,0,-1,860,1828,0,0
-357,-804,0,0,0,0,0,0,0,0,0,-1,867,1828,0,0
-350,-804,0,0,0,0,0,0,0,0,0,-1,874,1828,0,0
-343,-804,0,0,0,0,0,0,0,0,0,-1,881,1828,0,0
-336,-804,0,0,0,0,0,0,0,0,0,-1,888,1828,0,0
-329,-804,0,0,0,0,0,0,0,0,0,-1,895,1828,0,0
-322,-804,0,0,0,0,0,0,0,0,0,-1,902,1828,0,0
-315,-804,0,0,0,0,0,0,0,0,0,-1,909,1828,0,0
-308,-804,0,0,0,0,0,0,0,0,0,-1,916,1828,0,0
-301,-804,0,0,0,0,0,0,0,0,0,-1,923,1828,0,0
-294,-804,0,0,0,0,0,0,0,0,0,-1,930,1828,0,0
-287,-804,0,0,0,0,0,0,0,0,0,-1,937,1828,0,0
-280,-804,0,0,0,0,0,0,0,0,0,-1,944,1828,0,0
-273,-804,0,0,0,0,0,0,0,0,0,-1,951,1828,0,0
-266,-804,0,0,0,0,0,0,0,0,0,-1,958,1828,0,0
-259,-804,0,0,0,0,0,0,0,0,0,-1,965,1828,0,0
-252,-804,0,0,0,0,0,0,0,0,0,-1,972,1828,0,0
-245,-804,0,0,0,0,0,0,0,0,0,-1,979,1828,0,0
-238,-804,0,0,0,0,0,0,0,0,0,-1,986,1828,0,0
-231,-804,0,0,0,0,0,0,0,0,0,-1,993,1828,0,0
-224,-804,0,0,0,0,0,0,0,0,0,-1,1000,1828,0,0
-217,-804,0,0,0,0,0,0,0,0,0,-1,1007,1828,0,0
-210,-804,0,0,0,0,0,0,0,0,0,-1,1014,1828,0,0
-203,-804,0,0,0,0,0,0,0,0,0,-1,1021,1828,0,0
-196,-804,0,0,0,0,0,0,0,0,0,-1,1028,1828,0,0
-189,-804,0,0,0,0,0,0,0,0,0,-1,1035,1828,0,0
-182,-804,0,0,0,0,0,0,0,0,0,-1,1042,1828,0,0
-175,-804,0,0,0,0,0,0,0,0,0,-1,1049,1828,0,0
-168,-804,0,0,0,0,0,0,0,0,0,-1,1056,1828,0,0
-161,-804,0,0,0,0,0,0,0,0,0,-1,1063,1828,0,0
-154,-804,0,0,0,0,0,0,0,0,0,-1,1070,1828,0,0
-147,-804,0,0,0,0,0,0,0,0,0,-1,1077,1828,0,0
-140,-804,0,0,0,0,0,0,0,0,0,-1,1084,1828,0,0
-133,-804,0,0,0,0,0,0,0,0,0,-1,1091,1828,0,0
-126,-804,0,0,0,0,0,0,0,0,0,-1,1098,1828,0,0
-119,-804,0,0,0,0,0,0,0,0,0,-1,1105,1828,0,0
-112,-804,0,0,0,0,0,0,0,0,0,-1,1112,1828,0,0
-105,-804,0,0,0,0,0,0,0,0,0,-1,1119,1828,0,0
-98,-804,0,0,0,0,0,0,0,0,0,-1,1126,1828,0,0
-91,-804,0,0,0,0,0,0,0,0,0,-1,1133,1828,0,0
-84,-804,0,0,0,0,0,0,0,0,0,-1,1140,1828,0,0
-77,-804,0,0,0,0,0,0,0,0,0,-1,1147,1828,0,0
-70,-804,0,0,0,0,0,0,0,0,0,-1,1154,1828,0,0
-63,-804,0,0,0,0,0,0,0,0,0,-1,1161,1828,0,0
-56,-804,0,0,0,0,0,0,0,0,0,-1,1168,1828,0,0
-49,-804,0,0,0,0,0,0,0,0,0,-1,1175,1828,0,0
-42,-804,0,0,0,0,0,0,0,0,0,-1,1182,1828,0,0
-35,-804,0,0,0,0,0,0,0,0,0,-1,1189,1828,0,0
-28,-804,0,0,0,0,0,0,0,0,0,-1,1196,1828,0,0
-21,-804,0,0,0,0,0,0,0,0,0,-1,1203,1828,0,0
-14,-804,0,0,0,0,0,0,0,0,0,-1,1210,1828,0,0
-7,-804,0,0,0,0,0,0,0,0,0,-1,1217,1828,0,0
0,-804,0,0,0,0,0,0,0,0,0,-1,1224,1828,0,0
7,-804,0,0,0,0,0,0,0,0,0,-1,1231,1828,0,0
14,-804,0,0,0,0,0,0,0,0,0,-1,1238,1828,0,0
21,-804,0,0,0,0,0,0,0,0,0,-1,1245,1828,0,0
28,-804,0,0,0,0,0,0,0,0,0,-1,1252,1828,0,0
35,-804,7.40234,19.5559,0,0,0,0,0,0,0,-1,1259,1828,7.40232,-19.556
42,-804,6.93152,20.8934,0,0,0,0,0,0,0,-1,1266,1828,6.93154,-20.8935
49,-804,6.5791,21.6921,-0.00275489,-0.0178475,-0.00535773,-0.00104636,-0.019556,-0.308697,0.0127029,0.0419286,1273,1828,6.57912,-21.6922
56,-804,5.98499,22.1096,-0.0128653,-0.0197976,-0.00722754,-0.00831573,-0.0243472,-0.561809,0.0142902,0.0440967,1280,1828,5.98499,-22.1097
63,-804,5.24487,22.671,-0.0218751,-0.0209951,-0.00789781,-0.013525,-0.0293451,-0.813224,0.0169597,0.0450012,1287,1828,5.24493,-22.671
70,-804,4.59607,23.4215,0,0,0,0,0,0,0,-1,1294,1828,4.5961,-23.4216
77,-804,7.62683,20.8115,0,0,0,0,0,0,0,-1,1301,1828,7.62681,-20.8115
84,-804,8.02698,20.5687,0,0,0,0,0,0,0,-1,1308,1828,8.02704,-20.5688
91,-804,0,0,0,0,0,0,0,0,0,-1,1315,1828,0,0
98,-804,0,0,0,0,0,0,0,0,0,-1,1322,1828,0,0
105,-804,0,0,0,0,0,0,0,0,0,-1,1329,1828,0,0
112,-804,0,0,0,0,0,0,0,0,0,-1,1336,1828,0,0
119,-804,0,0,0,0,0,0,0,0,0,-1,1343,1828,0,0
126,-804,0,0,0,0,0,0,0,0,0,-1,1350,1828,0,0
133,-804,0,0,0,0,0,0,0,0,0,-1,1357,1828,0,0
140,-804,0,0,0,0,0,0,0,0,0,-1,1364,1828,0,0
147,-804,0,0,0,0,0,0,0,0,0,-1,1371,1828,0,0
154,-804,0,0,0,0,0,0,0,0,0,-1,1378,1828,0,0
161,-804,0,0,0,0,0,0,0,0,0,-1,1385,1828,0,0
168,-804,0,0,0,0,0,0,0,0,0,-1,1392,1828,0,0
175,-804,0,0,0,0,0,0,0,0,0,-1,1399,1828,0,0
182,-804,0,0,0,0,0,0,0,0,0,-1,1406,1828,0,0
189,-804,0,0,0,0,0,0,0,0,0,-1,1413,1828,0,0
196,-804,0,0,0,0,0,0,0,0,0,-1,1420,1828,0,0
203,-804,0,0,0,0,0,0,0,0,0,-1,1427,1828,0,0
210,-804,0,0,0,0,0,0,0,0,0,-1,1434,1828,0,0
217,-804,0,0,0,0,0,0,0,0,0,-1,1441,1828,0,0
224,-804,0,0,0,0,0,0,0,0,0,-1,1448,1828,0,0
231,-804,0,0,0,0,0,0,0,0,0,-1,1455,1828,0,0
238,-804,0,0,0,0,0,0,0,0,0,-1,1462,1828,0,0
245,-804,0,0,0,0,0,0,0,0,0,-1,1469,1828,0,0
252,-804,0,0,0,0,0,0,0,0,0,-1,1476,1828,0,0
259,-804,0,0,0,0,0,0,0,0,0,-1,1483,1828,0,0
266,-804,0,0,0,0,0,0,0,0,0,-1,1490,1828,0,0
273,-804,0,0,0,0,0,0,0,0,0,-1,1497,1828,0,0
280,-804,0,0,0,0,0,0,0,0,0,-1,1504,1828,0,0
287,-804,0,0,0,0,0,0,0,0,0,-1,1511,1828,0,0
294,-804,0,0,0,0,0,0,0,0,0,-1,1518,1828,0,0
301,-804,0,0,0,0,0,0,0,0,0,-1,1525,1828,0,0
308,-804,0,0,0,0,0,0,0,0,0,-1,1532,1828,0,0
315,-804,0,0,0,0,0,0,0,0,0,-1,1539,1828,0,0
322,-804,0,0,0,0,0,0,0,0,0,-1,1546,1828,0,0
329,-804,0,0,0,0,0,0,0,0,0,-1,1553,1828,0,0
336,-804,0,0,0,0,0,0,0,0,0,-1,1560,1828,0,0
343,-804,0,0,0,0,0,0,0,0,0,-1,1567,1828,0,0
350,-804,0,0,0,0,0,0,0,0,0,-1,1574,1828,0,0
357,-804,0,0,0,0,0,0,0,0,0,-1,1581,1828,0,0
364,-804,0,0,0,0,0,0,0,0,0,-1,1588,1828,0,0
371,-804,0,0,0,0,0,0,0,0,0,-1,1595,1828,0,0
378,-804,0,0,0,0,0,0,0,0,0,-1,1602,1828,0,0
385,-804,0,0,0,0,0,0,0,0,0,-1,1609,1828,0,0
392,-804,0,0,0,0,0,0,0,0,0,-1,1616,1828,0,0
399,-804,0,0,0,0,0,0,0,0,0,-1,1623,1828,0,0
406,-804,0,0,0,0,0,0,0,0,0,-1,1630,1828,0,0
413,-804,0,0,0,0,0,0,0,0,0,-1,1637,1828,0,0
420,-804,0,0,0,0,0,0,0,0,0,-1,1644,1828,0,0
427,-804,0,0,0,0,0,0,0,0,0,-1,1651,1828,0,0
434,-804,0,0,0,0,0,0,0,0,0,-1,1658,1828,0,0
441,-804,0,0,0,0,0,0,0,0,0,-1,1665,1828,0,0
448,-804,0,0,0,0,0,0,0,0,0,-1,1672,1828,0,0
455,-804,0,0,0,0,0,0,0,0,0,-1,1679,1828,0,0
462,-804,0,0,0,0,0,0,0,0,0,-1,1686,1828,0,0
469,-804,0,0,0,0,0,0,0,0,0,-1,1693,1828,0,0
476,-804,0,0,0,0,0,0,0,0,0,-1,1700,1828,0,0
483,-804,0,0,0,0,0,0,0,0,0,-1,1707,1828,0,0
490,-804,0,0,0,0,0,0,0,0,0,-1,1714,1828,0,0
497,-804,0,0,0,0,0,0,0,0,0,-1,1721,1828,0,0
504,-804,0,0,0,0,0,0,0,0,0,-1,1728,1828,0,0
511,-804,0,0,0,0,0,0,0,0,0,-1,1735,1828,0,0
518,-804,0,0,0,0,0,0,0,0,0,-1,1742,1828,0,0
525,-804,0,0,0,0,0,0,0,0,0,-1,1749,1828,0,0
532,-804,0,0,0,0,0,0,0,0,0,-1,1756,1828,0,0
539,-804,0,0,0,0,0,0,0,0,0,-1,1763,1828,0,0
546,-804,0,0,0,0,0,0,0,0,0,-1,1770,1828,0,0
553,-804,0,0,0,0,0,0,0,0,0,-1,1777,1828,0,0
560,-804,0,0,0,0,0,0,0,0,0,-1,1784,1828,0,0
567,-804,0,0,0,0,0,0,0,0,0,-1,1791,1828,0,0
574,-804,0,0,0,0,0,0,0,0,0,-1,1798,1828,0,0
581,-804,0,0,0,0,0,0,0,0,0,-1,1805,1828,0,0
588,-804,0,0,0,0,0,0,0,0,0,-1,1812,1828,0,0
595,-804,0,0,0,0,0,0,0,0,0,-1,1819,1828,0,0
602,-804,0,0,0,0,0,0,0,0,0,-1,1826,1828,0,0
609,-804,0,0,0,0,0,0,0,0,0,-1,1833,1828,0,0
616,-804,0,0,0,0,0,0,0,0,0,-1,1840,1828,0,0
623,-804,0,0,0,0,0,0,0,0,0,-1,1847,1828,0,0
630,-804,0,0,0,0,0,0,0,0,0,-1,1854,1828,0,0
637,-804,0,0,0,0,0,0,0,0,0,-1,1861,1828,0,0
644,-804,0,0,0,0,0,0,0,0,0,-1,1868,1828,0,0
651,-804,0,0,0,0,0,0,0,0,0,-1,1875,1828,0,0
658,-804,0,0,0,0,0,0,0,0,0,-1,1882,1828,0,0
665,-804,0,0,0,0,0,0,0,0,0,-1,1889,1828,0,0
672,-804,0,0,0,0,0,0,0,0,0,-1,1896,1828,0,0
679,-804,0,0,0,0,0,0,0,0,0,-1,1903,1828,0,0
686,-804,0,0,0,0,0,0,0,0,0,-1,1910,1828,0,0
693,-804,0,0,0,0,0,0,0,0,0,-1,1917,1828,0,0
700,-804,0,0,0,0,0,0,0,0,0,-1,1924,1828,0,0
707,-804,0,0,0,0,0,0,0,0,0,-1,1931,1828,0,0
714,-804,0,0,0,0,0,0,0,0,0,-1,1938,1828,0,0
721,-804,0,0,0,0,0,0,0,0,0,-1,1945,1828,0,0
728,-804,0,0,0,0,0,0,0,0,0,-1,1952,1828,0,0
735,-804,0,0,0,0,0,0,0,0,0,-1,1959,1828,0,0
742,-804,0,0,0,0,0,0,0,0,0,-1,1966,1828,0,0
749,-804,0,0,0,0,0,0,0,0,0,-1,1973,1828,0,0
756,-804,0,0,0,0,0,0,0,0,0,-1,1980,1828,0,0
763,-804,0,0,0,0,0,0,0,0,0,-1,1987,1828,0,0
770,-804,0,0,0,0,0,0,0,0,0,-1,1994,1828,0,0
777,-804,0,0,0,0,0,0,0,0,0,-1,2001,1828,0,0
784,-804,0,0,0,0,0,0,0,0,0,-1,2008,1828,0,0
791,-804,0,0,0,0,0,0,0,0,0,-1,2015,1828,0,0
798,-804,0,0,0,0,0,0,0,0,0,-1,2022,1828,0,0
805,-804,0,0,0,0,0,0,0,0,0,-1,2029,1828,0,0
812,-804,0,0,0,0,0,0,0,0,0,-1,2036,1828,0,0

