 "x_c",  "y_c",  "u_c",  "v_c",  "exx",  "eyy",  "exy",  "e1",  "e2",  "gamma",  "e_vonmises",  "sigma",  "x",  "y",  "u",  "v"
-700,715,0,0,0,0,0,0,0,0,0,-1,524,309,0,0
-693,715,0,0,0,0,0,0,0,0,0,-1,531,309,0,0
-686,715,0,0,0,0,0,0,0,0,0,-1,538,309,0,0
-679,715,0,0,0,0,0,0,0,0,0,-1,545,309,0,0
-672,715,0,0,0,0,0,0,0,0,0,-1,552,309,0,0
-665,715,0,0,0,0,0,0,0,0,0,-1,559,309,0,0
-658,715,0,0,0,0,0,0,0,0,0,-1,566,309,0,0
-651,715,0,0,0,0,0,0,0,0,0,-1,573,309,0,0
-644,715,0,0,0,0,0,0,0,0,0,-1,580,309,0,0
-637,715,0,0,0,0,0,0,0,0,0,-1,587,309,0,0
-630,715,0,0,0,0,0,0,0,0,0,-1,594,309,0,0
-623,715,0,0,0,0,0,0,0,0,0,-1,601,309,0,0
-616,715,0,0,0,0,0,0,0,0,0,-1,608,309,0,0
-609,715,0,0,0,0,0,0,0,0,0,-1,615,309,0,0
-602,715,0,0,0,0,0,0,0,0,0,-1,622,309,0,0
-595,715,0,0,0,0,0,0,0,0,0,-1,629,309,0,0
-588,715,0,0,0,0,0,0,0,0,0,-1,636,309,0,0
-581,715,0,0,0,0,0,0,0,0,0,-1,643,309,0,0
-574,715,0,0,0,0,0,0,0,0,0,-1,650,309,0,0
-567,715,0,0,0,0,0,0,0,0,0,-1,657,309,0,0
-560,715,0,0,0,0,0,0,0,0,0,-1,664,309,0,0
-553,715,0,0,0,0,0,0,0,0,0,-1,671,309,0,0
-546,715,0,0,0,0,0,0,0,0,0,-1,678,309,0,0
-539,715,0,0,0,0,0,0,0,0,0,-1,685,309,0,0
-532,715,0,0,0,0,0,0,0,0,0,-1,692,309,0,0
-525,715,0,0,0,0,0,0,0,0,0,-1,699,309,0,0
-518,715,0,0,0,0,0,0,0,0,0,-1,706,309,0,0
-511,715,0,0,0,0,0,0,0,0,0,-1,713,309,0,0
-504,715,0,0,0,0,0,0,0,0,0,-1,720,309,0,0
-497,715,0,0,0,0,0,0,0,0,0,-1,727,309,0,0
-490,715,0,0,0,0,0,0,0,0,0,-1,734,309,0,0
-483,715,0,0,0,0,0,0,0,0,0,-1,741,309,0,0
-476,715,0,0,0,0,0,0,0,0,0,-1,748,309,0,0
-469,715,0,0,0,0,0,0,0,0,0,-1,755,309,0,0
-462,715,0,0,0,0,0,0,0,0,0,-1,762,309,0,0
-455,715,0,0,0,0,0,0,0,0,0,-1,769,309,0,0
-448,715,0,0,0,0,0,0,0,0,0,-1,776,309,0,0
-441,715,0,0,0,0,0,0,0,0,0,-1,783,309,0,0
-434,715,0,0,0,0,0,0,0,0,0,-1,790,309,0,0
-427,715,0,0,0,0,0,0,0,0,0,-1,797,309,0,0
-420,715,0,0,0,0,0,0,0,0,0,-1,804,309,0,0
-413,715,0,0,0,0,0,0,0,0,0,-1,811,309,0,0
-406,715,0,0,0,0,0,0,0,0,0,-1,818,309,0,0
-399,715,0,0,0,0,0,0,0,0,0,-1,825,309,0,0
-392,715,0,0,0,0,0,0,0,0,0,-1,832,309,0,0
-385,715,0,0,0,0,0,0,0,0,0,-1,839,309,0,0
-378,715,0,0,0,0,0,0,0,0,0,-1,846,309,0,0
-371,715,0,0,0,0,0,0,0,0,0,-1,853,309,0,0
-364,715,0,0,0,0,0,0,0,0,0,-1,860,309,0,0
-357,715,0,0,0,0,0,0,0,0,0,-1,867,309,0,0
-350,715,0,0,0,0,0,0,0,0,0,-1,874,309,0,0
-343,715,0,0,0,0,0,0,0,0,0,-1,881,309,0,0
-336,715,0,0,0,0,0,0,0,0,0,-1,888,309,0,0
-329,715,0,0,0,0,0,0,0,0,0,-1,895,309,0,0
-322,715,0,0,0,0,0,0,0,0,0,-1,902,309,0,0
-315,715,0,0,0,0,0,0,0,0,0,-1,909,309,0,0
-308,715,0,0,0,0,0,0,0,0,0,-1,916,309,0,0
-301,715,0,0,0,0,0,0,0,0,0,-1,923,309,0,0
-294,715,0,0,0,0,0,0,0,0,0,-1,930,309,0,0
-287,715,0,0,0,0,0,0,0,0,0,-1,937,309,0,0
-280,715,0,0,0,0,0,0,0,0,0,-1,944,309,0,0
-273,715,0,0,0,0,0,0,0,0,0,-1,951,309,0,0
-266,715,0,0,0,0,0,0,0,0,0,-1,958,309,0,0
-259,715,0,0,0,0,0,0,0,0,0,-1,965,309,0,0
-252,715,0,0,0,0,0,0,0,0,0,-1,972,309,0,0
-245,715,0,0,0,0,0,0,0,0,0,-1,979,309,0,0
-238,715,0,0,0,0,0,0,0,0,0,-1,986,309,0,0
-231,715,0,0,0,0,0,0,0,0,0,-1,993,309,0,0
-224,715,0,0,0,0,0,0,0,0,0,-1,1000,309,0,0
-217,715,0,0,0,0,0,0,0,0,0,-1,1007,309,0,0
-210,715,0,0,0,0,0,0,0,0,0,-1,1014,309,0,0
-203,715,0,0,0,0,0,0,0,0,0,-1,1021,309,0,0
-196,715,0,0,0,0,0,0,0,0,0,-1,1028,309,0,0
-189,715,0,0,0,0,0,0,0,0,0,-1,1035,309,0,0
-182,715,0,0,0,0,0,0,0,0,0,-1,1042,309,0,0
-175,715,0,0,0,0,0,0,0,0,0,-1,1049,309,0,0
-168,715,0,0,0,0,0,0,0,0,0,-1,1056,309,0,0
-161,715,0,0,0,0,0,0,0,0,0,-1,1063,309,0,0
-154,715,0,0,0,0,0,0,0,0,0,-1,1070,309,0,0
-147,715,0,0,0,0,0,0,0,0,0,-1,1077,309,0,0
-140,715,0,0,0,0,0,0,0,0,0,-1,1084,309,0,0
-133,715,0,0,0,0,0,0,0,0,0,-1,1091,309,0,0
-126,715,0,0,0,0,0,0,0,0,0,-1,1098,309,0,0
-119,715,0,0,0,0,0,0,0,0,0,-1,1105,309,0,0
-112,715,0,0,0,0,0,0,0,0,0,-1,1112,309,0,0
-105,715,0,0,0,0,0,0,0,0,0,-1,1119,309,0,0
-98,715,0,0,0,0,0,0,0,0,0,-1,1126,309,0,0
-91,715,0,0,0,0,0,0,0,0,0,-1,1133,309,0,0
-84,715,0,0,0,0,0,0,0,0,0,-1,1140,309,0,0
-77,715,0,0,0,0,0,0,0,0,0,-1,1147,309,0,0
-70,715,0,0,0,0,0,0,0,0,0,-1,1154,309,0,0
-63,715,0,0,0,0,0,0,0,0,0,-1,1161,309,0,0
-56,715,0,0,0,0,0,0,0,0,0,-1,1168,309,0,0
-49,715,0,0,0,0,0,0,0,0,0,-1,1175,309,0,0
-42,715,0,0,0,0,0,0,0,0,0,-1,1182,309,0,0
-35,715,0,0,0,0,0,0,0,0,0,-1,1189,309,0,0
-28,715,0,0,0,0,0,0,0,0,0,-1,1196,309,0,0
-21,715,0,0,0,0,0,0,0,0,0,-1,1203,309,0,0
-14,715,0,0,0,0,0,0,0,0,0,-1,1210,309,0,0
-7,715,0,0,0,0,0,0,0,0,0,-1,1217,309,0,0
0,715,0,0,0,0,0,0,0,0,0,-1,1224,309,0,0
7,715,0,0,0,0,0,0,0,0,0,-1,1231,309,0,0
14,715,0,0,0,0,0,0,0,0,0,-1,1238,309,0,0
21,715,0,0,0,0,0,0,0,0,0,-1,1245,309,0,0
28,715,0,0,0,0,0,0,0,0,0,-1,1252,309,0,0
35,715,0,0,0,0,0,0,0,0,0,-1,1259,309,0,0
42,715,0,0,0,0,0,0,0,0,0,-1,1266,309,0,0
49,715,0,0,0,0,0,0,0,0,0,-1,1273,309,0,0
56,715,0,0,0,0,0,0,0,0,0,-1,1280,309,0,0
63,715,-4.98413,-20.0802,0.0129289,0.0880851,-0.0711164,0.130941,-0.0299272,-1.02845,0.0987926,0.044834,1287,309,-4.98418,20.0802
70,715,-4.401,-19.8077,0.0400331,0.0909114,-0.081337,0.150695,-0.0197501,-0.93696,0.107652,0.0449235,1294,309,-4.40099,19.8077
77,715,0,0,0,0,0,0,0,0,0,-1,1301,309,0,0
84,715,0,0,0,0,0,0,0,0,0,-1,1308,309,0,0
91,715,0,0,0,0,0,0,0,0,0,-1,1315,309,0,0
98,715,0,0,0,0,0,0,0,0,0,-1,1322,309,0,0
105,715,0,0,0,0,0,0,0,0,0,-1,1329,309,0,0
112,715,0,0,0,0,0,0,0,0,0,-1,1336,309,0,0
119,715,0,0,0,0,0,0,0,0,0,-1,1343,309,0,0
126,715,0,0,0,0,0,0,0,0,0,-1,1350,309,0,0
133,715,0,0,0,0,0,0,0,0,0,-1,1357,309,0,0
140,715,0,0,0,0,0,0,0,0,0,-1,1364,309,0,0
147,715,0,0,0,0,0,0,0,0,0,-1,1371,309,0,0
154,715,0,0,0,0,0,0,0,0,0,-1,1378,309,0,0
161,715,0,0,0,0,0,0,0,0,0,-1,1385,309,0,0
168,715,0,0,0,0,0,0,0,0,0,-1,1392,309,0,0
175,715,0,0,0,0,0,0,0,0,0,-1,1399,309,0,0
182,715,0,0,0,0,0,0,0,0,0,-1,1406,309,0,0
189,715,0,0,0,0,0,0,0,0,0,-1,1413,309,0,0
196,715,0,0,0,0,0,0,0,0,0,-1,1420,309,0,0
203,715,0,0,0,0,0,0,0,0,0,-1,1427,309,0,0
210,715,0,0,0,0,0,0,0,0,0,-1,1434,309,0,0
217,715,0,0,0,0,0,0,0,0,0,-1,1441,309,0,0
224,715,0,0,0,0,0,0,0,0,0,-1,1448,309,0,0
231,715,0,0,0,0,0,0,0,0,0,-1,1455,309,0,0
238,715,0,0,0,0,0,0,0,0,0,-1,1462,309,0,0
245,715,0,0,0,0,0,0,0,0,0,-1,1469,309,0,0
252,715,0,0,0,0,0,0,0,0,0,-1,1476,309,0,0
259,715,0,0,0,0,0,0,0,0,0,-1,1483,309,0,0
266,715,0,0,0,0,0,0,0,0,0,-1,1490,309,0,0
273,715,0,0,0,0,0,0,0,0,0,-1,1497,309,0,0
280,715,0,0,0,0,0,0,0,0,0,-1,1504,309,0,0
287,715,0,0,0,0,0,0,0,0,0,-1,1511,309,0,0
294,715,0,0,0,0,0,0,0,0,0,-1,1518,309,0,0
301,715,0,0,0,0,0,0,0,0,0,-1,1525,309,0,0
308,715,0,0,0,0,0,0,0,0,0,-1,1532,309,0,0
315,715,0,0,0,0,0,0,0,0,0,-1,1539,309,0,0
322,715,0,0,0,0,0,0,0,0,0,-1,1546,309,0,0
329,715,0,0,0,0,0,0,0,0,0,-1,1553,309,0,0
336,715,0,0,0,0,0,0,0,0,0,-1,1560,309,0,0
343,715,0,0,0,0,0,0,0,0,0,-1,1567,309,0,0
350,715,0,0,0,0,0,0,0,0,0,-1,1574,309,0,0
357,715,0,0,0,0,0,0,0,0,0,-1,1581,309,0,0
364,715,0,0,0,0,0,0,0,0,0,-1,1588,309,0,0
371,715,0,0,0,0,0,0,0,0,0,-1,1595,309,0,0
378,715,0,0,0,0,0,0,0,0,0,-1,1602,309,0,0
385,715,0,0,0,0,0,0,0,0,0,-1,1609,309,0,0
392,715,0,0,0,0,0,0,0,0,0,-1,1616,309,0,0
399,715,0,0,0,0,0,0,0,0,0,-1,1623,309,0,0
406,715,0,0,0,0,0,0,0,0,0,-1,1630,309,0,0
413,715,0,0,0,0,0,0,0,0,0,-1,1637,309,0,0
420,715,0,0,0,0,0,0,0,0,0,-1,1644,309,0,0
427,715,0,0,0,0,0,0,0,0,0,-1,1651,309,0,0
434,715,0,0,0,0,0,0,0,0,0,-1,1658,309,0,0
441,715,0,0,0,0,0,0,0,0,0,-1,1665,309,0,0
448,715,0,0,0,0,0,0,0,0,0,-1,1672,309,0,0
455,715,0,0,0,0,0,0,0,0,0,-1,1679,309,0,0
462,715,0,0,0,0,0,0,0,0,0,-1,1686,309,0,0
469,715,0,0,0,0,0,0,0,0,0,-1,1693,309,0,0
476,715,0,0,0,0,0,0,0,0,0,-1,1700,309,0,0
483,715,0,0,0,0,0,0,0,0,0,-1,1707,309,0,0
490,715,0,0,0,0,0,0,0,0,0,-1,1714,309,0,0
497,715,0,0,0,0,0,0,0,0,0,-1,1721,309,0,0
504,715,0,0,0,0,0,0,0,0,0,-1,1728,309,0,0
511,715,0,0,0,0,0,0,0,0,0,-1,1735,309,0,0
518,715,0,0,0,0,0,0,0,0,0,-1,1742,309,0,0
525,715,0,0,0,0,0,0,0,0,0,-1,1749,309,0,0
532,715,0,0,0,0,0,0,0,0,0,-1,1756,309,0,0
539,715,0,0,0,0,0,0,0,0,0,-1,1763,309,0,0
546,715,0,0,0,0,0,0,0,0,0,-1,1770,309,0,0
553,715,0,0,0,0,0,0,0,0,0,-1,1777,309,0,0
560,715,0,0,0,0,0,0,0,0,0,-1,1784,309,0,0
567,715,0,0,0,0,0,0,0,0,0,-1,1791,309,0,0
574,715,0,0,0,0,0,0,0,0,0,-1,1798,309,0,0
581,715,0,0,0,0,0,0,0,0,0,-1,1805,309,0,0
588,715,0,0,0,0,0,0,0,0,0,-1,1812,309,0,0
595,715,0,0,0,0,0,0,0,0,0,-1,1819,309,0,0
602,715,0,0,0,0,0,0,0,0,0,-1,1826,309,0,0
609,715,0,0,0,0,0,0,0,0,0,-1,1833,309,0,0
616,715,0,0,0,0,0,0,0,0,0,-1,1840,309,0,0
623,715,0,0,0,0,0,0,0,0,0,-1,1847,309,0,0
630,715,0,0,0,0,0,0,0,0,0,-1,1854,309,0,0
637,715,0,0,0,0,0,0,0,0,0,-1,1861,309,0,0
644,715,0,0,0,0,0,0,0,0,0,-1,1868,309,0,0
651,715,0,0,0,0,0,0,0,0,0,-1,1875,309,0,0
658,715,0,0,0,0,0,0,0,0,0,-1,1882,309,0,0
665,715,0,0,0,0,0,0,0,0,0,-1,1889,309,0,0
672,715,0,0,0,0,0,0,0,0,0,-1,1896,309,0,0
679,715,0,0,0,0,0,0,0,0,0,-1,1903,309,0,0
686,715,0,0,0,0,0,0,0,0,0,-1,1910,309,0,0
693,715,0,0,0,0,0,0,0,0,0,-1,1917,309,0,0
700,715,0,0,0,0,0,0,0,0,0,-1,1924,309,0,0
707,715,0,0,0,0,0,0,0,0,0,-1,1931,309,0,0
714,715,0,0,0,0,0,0,0,0,0,-1,1938,309,0,0
721,715,0,0,0,0,0,0,0,0,0,-1,1945,309,0,0
728,715,0,0,0,0,0,0,0,0,0,-1,1952,309,0,0
735,715,0,0,0,0,0,0,0,0,0,-1,1959,309,0,0
742,715,0,0,0,0,0,0,0,0,0,-1,1966,309,0,0
749,715,0,0,0,0,0,0,0,0,0,-1,1973,309,0,0
756,715,0,0,0,0,0,0,0,0,0,-1,1980,309,0,0
763,715,0,0,0,0,0,0,0,0,0,-1,1987,309,0,0
770,715,0,0,0,0,0,0,0,0,0,-1,1994,309,0,0
777,715,0,0,0,0,0,0,0,0,0,-1,2001,309,0,0
784,715,0,0,0,0,0,0,0,0,0,-1,2008,309,0,0
791,715,0,0,0,0,0,0,0,0,0,-1,2015,309,0,0
798,715,0,0,0,0,0,0,0,0,0,-1,2022,309,0,0
805,715,0,0,0,0,0,0,0,0,0,-1,2029,309,0,0
812,715,0,0,0,0,0,0,0,0,0,-1,2036,309,0,0
-700,708,0,0,0,0,0,0,0,0,0,-1,524,316,0,0
-693,708,0,0,0,0,0,0,0,0,0,-1,531,316,0,0
-686,708,0,0,0,0,0,0,0,0,0,-1,538,316,0,0
-679,708,0,0,0,0,0,0,0,0,0,-1,545,316,0,0
-672,708,0,0,0,0,0,0,0,0,0,-1,552,316,0,0
-665,708,0,0,0,0,0,0,0,0,0,-1,559,316,0,0
-658,708,0,0,0,0,0,0,0,0,0,-1,566,316,0,0
-651,708,0,0,0,0,0,0,0,0,0,-1,573,316,0,0
-644,708,0,0,0,0,0,0,0,0,0,-1,580,316,0,0
-637,708,0,0,0,0,0,0,0,0,0,-1,587,316,0,0
-630,708,0,0,0,0,0,0,0,0,0,-1,594,316,0,0
-623,708,0,0,0,0,0,0,0,0,0,-1,601,316,0,0
-616,708,0,0,0,0,0,0,0,0,0,-1,608,316,0,0
-609,708,0,0,0,0,0,0,0,0,0,-1,615,316,0,0
-602,708,0,0,0,0,0,0,0,0,0,-1,622,316,0,0
-595,708,0,0,0,0,0,0,0,0,0,-1,629,316,0,0
-588,708,0,0,0,0,0,0,0,0,0,-1,636,316,0,0
-581,708,0,0,0,0,0,0,0,0,0,-1,643,316,0,0
-574,708,0,0,0,0,0,0,0,0,0,-1,650,316,0,0
-567,708,0,0,0,0,0,0,0,0,0,-1,657,316,0,0
-560,708,0,0,0,0,0,0,0,0,0,-1,664,316,0,0
-553,708,0,0,0,0,0,0,0,0,0,-1,671,316,0,0
-546,708,0,0,0,0,0,0,0,0,0,-1,678,316,0,0
-539,708,0,0,0,0,0,0,0,0,0,-1,685,316,0,0
-532,708,0,0,0,0,0,0,0,0,0,-1,692,316,0,0
-525,708,0,0,0,0,0,0,0,0,0,-1,699,316,0,0
-518,708,0,0,0,0,0,0,0,0,0,-1,706,316,0,0
-511,708,0,0,0,0,0,0,0,0,0,-1,713,316,0,0
-504,708,0,0,0,0,0,0,0,0,0,-1,720,316,0,0
-497,708,0,0,0,0,0,0,0,0,0,-1,727,316,0,0
-490,708,0,0,0,0,0,0,0,0,0,-1,734,316,0,0
-483,708,0,0,0,0,0,0,0,0,0,-1,741,316,0,0
-476,708,0,0,0,0,0,0,0,0,0,-1,748,316,0,0
-469,708,0,0,0,0,0,0,0,0,0,-1,755,316,0,0
-462,708,0,0,0,0,0,0,0,0,0,-1,762,316,0,0
-455,708,0,0,0,0,0,0,0,0,0,-1,769,316,0,0
-448,708,0,0,0,0,0,0,0,0,0,-1,776,316,0,0
-441,708,0,0,0,0,0,0,0,0,0,-1,783,316,0,0
-434,708,0,0,0,0,0,0,0,0,0,-1,790,316,0,0
-427,708,0,0,0,0,0,0,0,0,0,-1,797,316,0,0
-420,708,0,0,0,0,0,0,0,0,0,-1,804,316,0,0
-413,708,0,0,0,0,0,0,0,0,0,-1,811,316,0,0
-406,708,0,0,0,0,0,0,0,0,0,-1,818,316,0,0
-399,708,0,0,0,0,0,0,0,0,0,-1,825,316,0,0
-392,708,0,0,0,0,0,0,0,0,0,-1,832,316,0,0
-385,708,0,0,0,0,0,0,0,0,0,-1,839,316,0,0
-378,708,0,0,0,0,0,0,0,0,0,-1,846,316,0,0
-371,708,0,0,0,0,0,0,0,0,0,-1,853,316,0,0
-364,708,0,0,0,0,0,0,0,0,0,-1,860,316,0,0
-357,708,0,0,0,0,0,0,0,0,0,-1,867,316,0,0
-350,708,0,0,0,0,0,0,0,0,0,-1,874,316,0,0
-343,708,0,0,0,0,0,0,0,0,0,-1,881,316,0,0
-336,708,0,0,0,0,0,0,0,0,0,-1,888,316,0,0
-329,708,0,0,0,0,0,0,0,0,0,-1,895,316,0,0
-322,708,0,0,0,0,0,0,0,0,0,-1,902,316,0,0
-315,708,0,0,0,0,0,0,0,0,0,-1,909,316,0,0
-308,708,0,0,0,0,0,0,0,0,0,-1,916,316,0,0
-301,708,0,0,0,0,0,0,0,0,0,-1,923,316,0,0
-294,708,0,0,0,0,0,0,0,0,0,-1,930,316,0,0
-287,708,0,0,0,0,0,0,0,0,0,-1,937,316,0,0
-280,708,0,0,0,0,0,0,0,0,0,-1,944,316,0,0
-273,708,0,0,0,0,0,0,0,0,0,-1,951,316,0,0
-266,708,0,0,0,0,0,0,0,0,0,-1,958,316,0,0
-259,708,0,0,0,0,0,0,0,0,0,-1,965,316,0,0
-252,708,0,0,0,0,0,0,0,0,0,-1,972,316,0,0
-245,708,0,0,0,0,0,0,0,0,0,-1,979,316,0,0
-238,708,0,0,0,0,0,0,0,0,0,-1,986,316,0,0
-231,708,0,0,0,0,0,0,0,0,0,-1,993,316,0,0
-224,708,0,0,0,0,0,0,0,0,0,-1,1000,316,0,0
-217,708,0,0,0,0,0,0,0,0,0,-1,1007,316,0,0
-210,708,0,0,0,0,0,0,0,0,0,-1,1014,316,0,0
-203,708,0,0,0,0,0,0,0,0,0,-1,1021,316,0,0
-196,708,0,0,0,0,0,0,0,0,0,-1,1028,316,0,0
-189,708,0,0,0,0,0,0,0,0,0,-1,1035,316,0,0
-182,708,0,0,0,0,0,0,0,0,0,-1,1042,316,0,0
-175,708,0,0,0,0,0,0,0,0,0,-1,1049,316,0,0
-168,708,0,0,0,0,0,0,0,0,0,-1,1056,316,0,0
-161,708,0,0,0,0,0,0,0,0,0,-1,1063,316,0,0
-154,708,0,0,0,0,0,0,0,0,0,-1,1070,316,0,0
-147,708,0,0,0,0,0,0,0,0,0,-1,1077,316,0,0
-140,708,0,0,0,0,0,0,0,0,0,-1,1084,316,0,0
-133,708,0,0,0,0,0,0,0,0,0,-1,1091,316,0,0
-126,708,0,0,0,0,0,0,0,0,0,-1,1098,316,0,0
-119,708,0,0,0,0,0,0,0,0,0,-1,1105,316,0,0
-112,708,0,0,0,0,0,0,0,0,0,-1,1112,316,0,0
-105,708,0,0,0,0,0,0,0,0,0,-1,1119,316,0,0
-98,708,0,0,0,0,0,0,0,0,0,-1,1126,316,0,0
-91,708,0,0,0,0,0,0,0,0,0,-1,1133,316,0,0
-84,708,0,0,0,0,0,0,0,0,0,-1,1140,316,0,0
-77,708,0,0,0,0,0,0,0,0,0,-1,1147,316,0,0
-70,708,0,0,0,0,0,0,0,0,0,-1,1154,316,0,0
-63,708,0,0,0,0,0,0,0,0,0,-1,1161,316,0,0
-56,708,0,0,0,0,0,0,0,0,0,-1,1168,316,0,0
-49,708,0,0,0,0,0,0,0,0,0,-1,1175,316,0,0
-42,708,0,0,0,0,0,0,0,0,0,-1,1182,316,0,0
-35,708,-2.71204,-6.31558,0,0,0,0,0,0,0,-1,1189,316,-2.712,6.3156
-28,708,-2.92371,-5.53253,0,0,0,0,0,0,0,-1,1196,316,-2.92375,5.53254
-21,708,-19.7781,-6.86209,0,0,0,0,0,0,0,-1,1203,316,-19.7781,6.86209
-14,708,2.84692,-19.5859,0,0,0,0,0,0,0,-1,1210,316,2.84693,19.5859
-7,708,3.72595,-20.0278,0,0,0,0,0,0,0,-1,1217,316,3.72597,20.0278
0,708,5.57666,-20.5328,0,0,0,0,0,0,0,-1,1224,316,5.57665,20.5328
7,708,6.00232,-20.3182,0,0,0,0,0,0,0,-1,1231,316,6.00233,20.3182
14,708,4.25537,-21.4217,-0.0331764,0.0183719,0.0244703,0.0281378,-0.0429424,1.19107,0.0413338,0.0410945,1238,316,4.25533,21.4217
21,708,4.0564,-20.3481,-0.0407124,0.0299301,0.0159087,0.0333474,-0.0441298,1.3592,0.0448756,0.0423305,1245,316,4.05643,20.3481
28,708,3.53088,-19.7157,0,0,0,0,0,0,0,-1,1252,316,3.53093,19.7157
35,708,3.10876,-19.1397,-0.0420916,0.0525582,-0.00705637,0.0530814,-0.0426148,-1.49679,0.0553602,0.0454002,1259,316,3.10871,19.1397
42,708,3.05566,-18.6415,-0.0363719,0.0612344,-0.0189041,0.0647678,-0.0399053,-1.38602,0.0609986,0.04558,1266,316,3.05562,18.6415
49,708,2.9884,-18.1308,0,0,0,0,0,0,0,-1,1273,316,2.98845,18.1308
56,708,1.86743,-18.6801,-0.00359587,0.0769559,-0.0461027,0.0978977,-0.0245376,-1.14442,0.0747982,0.0455189,1280,316,1.86748,18.6801
63,708,-4.11426,-20.4779,0.0168128,0.0786077,-0.05705,0.11259,-0.0171693,-1.03358,0.0813889,0.0426965,1287,316,-4.11424,20.4779
70,708,-3.54321,-20.3802,0.0389291,0.0803258,-0.0645172,0.127384,-0.00812863,-0.940621,0.0877575,0.042679,1294,316,-3.54321,20.3802
77,708,-2.8728,-20.3463,0.0627468,0.07854,-0.0687692,0.139865,0.00142235,-0.842561,0.0927725,0.041401,1301,316,-2.87286,20.3464
84,708,-1.83337,-20.0405,0.0856722,0.0735051,-0.0663572,0.146224,0.0129532,-0.739686,0.0934647,0.045629,1308,316,-1.83334,20.0405
91,708,-0.869141,-19.8373,0.107711,0.0670405,-0.0644688,0.154976,0.0197759,-0.632622,0.0973968,0.0482429,1315,316,-0.869169,19.8373
98,708,-0.294434,-19.7491,0.125295,0.0606269,-0.0587496,0.160021,0.0259012,-0.533835,0.0991805,0.0482157,1322,316,-0.294482,19.7491
105,708,0.377686,-19.7432,0.136026,0.0527623,-0.046052,0.156475,0.0323137,-0.417881,0.0953877,0.0492427,1329,316,0.37766,19.7432
112,708,2.58667,-21.1183,0.146519,0.0445848,-0.030711,0.155057,0.0360472,-0.271152,0.093696,0.0465762,1336,316,2.58668,21.1183
119,708,3.54883,-20.4557,0.146614,0.0371667,-0.0132757,0.148202,0.0355795,-0.118998,0.0893351,0.0426466,1343,316,3.54888,20.4558
126,708,4.31091,-19.5953,0.139357,0.0304762,0.00602066,0.139689,0.0301443,0.0550721,0.0848812,0.0422153,1350,316,4.31086,19.5953
133,708,5.35608,-18.9047,0.129304,0.0247807,0.0284298,0.136537,0.0175484,0.249108,0.0857754,0.0460406,1357,316,5.35611,18.9047
140,708,6.18713,-18.2239,0,0,0,0,0,0,0,-1,1364,316,6.18717,18.2239
147,708,2.00098,-19.5043,0,0,0,0,0,0,0,-1,1371,316,2.00098,19.5043
154,708,0,0,0,0,0,0,0,0,0,-1,1378,316,0,0
161,708,0,0,0,0,0,0,0,0,0,-1,1385,316,0,0
168,708,0,0,0,0,0,0,0,0,0,-1,1392,316,0,0
175,708,0,0,0,0,0,0,0,0,0,-1,1399,316,0,0
182,708,0,0,0,0,0,0,0,0,0,-1,1406,316,0,0
189,708,0,0,0,0,0,0,0,0,0,-1,1413,316,0,0
196,708,0,0,0,0,0,0,0,0,0,-1,1420,316,0,0
203,708,0,0,0,0,0,0,0,0,0,-1,1427,316,0,0
210,708,0,0,0,0,0,0,0,0,0,-1,1434,316,0,0
217,708,0,0,0,0,0,0,0,0,0,-1,1441,316,0,0
224,708,0,0,0,0,0,0,0,0,0,-1,1448,316,0,0
231,708,0,0,0,0,0,0,0,0,0,-1,1455,316,0,0
238,708,0,0,0,0,0,0,0,0,0,-1,1462,316,0,0
245,708,0,0,0,0,0,0,0,0,0,-1,1469,316,0,0
252,708,0,0,0,0,0,0,0,0,0,-1,1476,316,0,0
259,708,0,0,0,0,0,0,0,0,0,-1,1483,316,0,0
266,708,0,0,0,0,0,0,0,0,0,-1,1490,316,0,0
273,708,0,0,0,0,0,0,0,0,0,-1,1497,316,0,0
280,708,0,0,0,0,0,0,0,0,0,-1,1504,316,0,0
287,708,0,0,0,0,0,0,0,0,0,-1,1511,316,0,0
294,708,0,0,0,0,0,0,0,0,0,-1,1518,316,0,0
301,708,0,0,0,0,0,0,0,0,0,-1,1525,316,0,0
308,708,0,0,0,0,0,0,0,0,0,-1,1532,316,0,0
315,708,0,0,0,0,0,0,0,0,0,-1,1539,316,0,0
322,708,0,0,0,0,0,0,0,0,0,-1,1546,316,0,0
329,708,0,0,0,0,0,0,0,0,0,-1,1553,316,0,0
336,708,0,0,0,0,0,0,0,0,0,-1,1560,316,0,0
343,708,0,0,0,0,0,0,0,0,0,-1,1567,316,0,0
350,708,0,0,0,0,0,0,0,0,0,-1,1574,316,0,0
357,708,0,0,0,0,0,0,0,0,0,-1,1581,316,0,0
364,708,0,0,0,0,0,0,0,0,0,-1,1588,316,0,0
371,708,0,0,0,0,0,0,0,0,0,-1,1595,316,0,0
378,708,0,0,0,0,0,0,0,0,0,-1,1602,316,0,0
385,708,0,0,0,0,0,0,0,0,0,-1,1609,316,0,0
392,708,0,0,0,0,0,0,0,0,0,-1,1616,316,0,0
399,708,0,0,0,0,0,0,0,0,0,-1,1623,316,0,0
406,708,0,0,0,0,0,0,0,0,0,-1,1630,316,0,0
413,708,0,0,0,0,0,0,0,0,0,-1,1637,316,0,0
420,708,0,0,0,0,0,0,0,0,0,-1,1644,316,0,0
427,708,0,0,0,0,0,0,0,0,0,-1,1651,316,0,0
434,708,0,0,0,0,0,0,0,0,0,-1,1658,316,0,0
441,708,0,0,0,0,0,0,0,0,0,-1,1665,316,0,0
448,708,0,0,0,0,0,0,0,0,0,-1,1672,316,0,0
455,708,0,0,0,0,0,0,0,0,0,-1,1679,316,0,0
462,708,0,0,0,0,0,0,0,0,0,-1,1686,316,0,0
469,708,0,0,0,0,0,0,0,0,0,-1,1693,316,0,0
476,708,0,0,0,0,0,0,0,0,0,-1,1700,316,0,0
483,708,0,0,0,0,0,0,0,0,0,-1,1707,316,0,0
490,708,0,0,0,0,0,0,0,0,0,-1,1714,316,0,0
497,708,0,0,0,0,0,0,0,0,0,-1,1721,316,0,0
504,708,0,0,0,0,0,0,0,0,0,-1,1728,316,0,0
511,708,0,0,0,0,0,0,0,0,0,-1,1735,316,0,0
518,708,0,0,0,0,0,0,0,0,0,-1,1742,316,0,0
525,708,0,0,0,0,0,0,0,0,0,-1,1749,316,0,0
532,708,0,0,0,0,0,0,0,0,0,-1,1756,316,0,0
539,708,0,0,0,0,0,0,0,0,0,-1,1763,316,0,0
546,708,0,0,0,0,0,0,0,0,0,-1,1770,316,0,0
553,708,0,0,0,0,0,0,0,0,0,-1,1777,316,0,0
560,708,0,0,0,0,0,0,0,0,0,-1,1784,316,0,0
567,708,0,0,0,0,0,0,0,0,0,-1,1791,316,0,0
574,708,0,0,0,0,0,0,0,0,0,-1,1798,316,0,0
581,708,0,0,0,0,0,0,0,0,0,-1,1805,316,0,0
588,708,0,0,0,0,0,0,0,0,0,-1,1812,316,0,0
595,708,0,0,0,0,0,0,0,0,0,-1,1819,316,0,0
602,708,0,0,0,0,0,0,0,0,0,-1,1826,316,0,0
609,708,0,0,0,0,0,0,0,0,0,-1,1833,316,0,0
616,708,0,0,0,0,0,0,0,0,0,-1,1840,316,0,0
623,708,0,0,0,0,0,0,0,0,0,-1,1847,316,0,0
630,708,0,0,0,0,0,0,0,0,0,-1,1854,316,0,0
637,708,0,0,0,0,0,0,0,0,0,-1,1861,316,0,0
644,708,0,0,0,0,0,0,0,0,0,-1,1868,316,0,0
651,708,0,0,0,0,0,0,0,0,0,-1,1875,316,0,0
658,708,0,0,0,0,0,0,0,0,0,-1,1882,316,0,0
665,708,0,0,0,0,0,0,0,0,0,-1,1889,316,0,0
672,708,0,0,0,0,0,0,0,0,0,-1,1896,316,0,0
679,708,0,0,0,0,0,0,0,0,0,-1,1903,316,0,0
686,708,0,0,0,0,0,0,0,0,0,-1,1910,316,0,0
693,708,0,0,0,0,0,0,0,0,0,-1,1917,316,0,0
700,708,0,0,0,0,0,0,0,0,0,-1,1924,316,0,0
707,708,0,0,0,0,0,0,0,0,0,-1,1931,316,0,0
714,708,0,0,0,0,0,0,0,0,0,-1,1938,316,0,0
721,708,0,0,0,0,0,0,0,0,0,-1,1945,316,0,0
728,708,0,0,0,0,0,0,0,0,0,-1,1952,316,0,0
735,708,0,0,0,0,0,0,0,0,0,-1,1959,316,0,0
742,708,0,0,0,0,0,0,0,0,0,-1,1966,316,0,0
749,708,0,0,0,0,0,0,0,0,0,-1,1973,316,0,0
756,708,0,0,0,0,0,0,0,0,0,-1,1980,316,0,0
763,708,0,0,0,0,0,0,0,0,0,-1,1987,316,0,0
770,708,0,0,0,0,0,0,0,0,0,-1,1994,316,0,0
777,708,0,0,0,0,0,0,0,0,0,-1,2001,316,0,0
784,708,0,0,0,0,0,0,0,0,0,-1,2008,316,0,0
791,708,0,0,0,0,0,0,0,0,0,-1,2015,316,0,0
798,708,0,0,0,0,0,0,0,0,0,-1,2022,316,0,0
805,708,0,0,0,0,0,0,0,0,0,-1,2029,316,0,0
812,708,0,0,0,0,0,0,0,0,0,-1,2036,316,0,0
-700,701,0,0,0,0,0,0,0,0,0,-1,524,323,0,0
-693,701,0,0,0,0,0,0,0,0,0,-1,531,323,0,0
-686,701,0,0,0,0,0,0,0,0,0,-1,538,323,0,0
-679,701,0,0,0,0,0,0,0,0,0,-1,545,323,0,0
-672,701,0,0,0,0,0,0,0,0,0,-1,552,323,0,0
-665,701,0,0,0,0,0,0,0,0,0,-1,559,323,0,0
-658,701,0,0,0,0,0,0,0,0,0,-1,566,323,0,0
-651,701,0,0,0,0,0,0,0,0,0,-1,573,323,0,0
-644,701,0,0,0,0,0,0,0,0,0,-1,580,323,0,0
-637,701,0,0,0,0,0,0,0,0,0,-1,587,323,0,0
-630,701,0,0,0,0,0,0,0,0,0,-1,594,323,0,0
-623,701,0,0,0,0,0,0,0,0,0,-1,601,323,0,0
-616,701,0,0,0,0,0,0,0,0,0,-1,608,323,0,0
-609,701,0,0,0,0,0,0,0,0,0,-1,615,323,0,0
-602,701,0,0,0,0,0,0,0,0,0,-1,622,323,0,0
-595,701,0,0,0,0,0,0,0,0,0,-1,629,323,0,0
-588,701,0,0,0,0,0,0,0,0,0,-1,636,323,0,0
-581,701,0,0,0,0,0,0,0,0,0,-1,643,323,0,0
-574,701,0,0,0,0,0,0,0,0,0,-1,650,323,0,0
-567,701,0,0,0,0,0,0,0,0,0,-1,657,323,0,0
-560,701,0,0,0,0,0,0,0,0,0,-1,664,323,0,0
-553,701,0,0,0,0,0,0,0,0,0,-1,671,323,0,0
-546,701,0,0,0,0,0,0,0,0,0,-1,678,323,0,0
-539,701,0,0,0,0,0,0,0,0,0,-1,685,323,0,0
-532,701,0,0,0,0,0,0,0,0,0,-1,692,323,0,0
-525,701,0,0,0,0,0,0,0,0,0,-1,699,323,0,0
-518,701,0,0,0,0,0,0,0,0,0,-1,706,323,0,0
-511,701,0,0,0,0,0,0,0,0,0,-1,713,323,0,0
-504,701,0,0,0,0,0,0,0,0,0,-1,720,323,0,0
-497,701,0,0,0,0,0,0,0,0,0,-1,727,323,0,0
-490,701,0,0,0,0,0,0,0,0,0,-1,734,323,0,0
-483,701,0,0,0,0,0,0,0,0,0,-1,741,323,0,0
-476,701,0,0,0,0,0,0,0,0,0,-1,748,323,0,0
-469,701,0,0,0,0,0,0,0,0,0,-1,755,323,0,0
-462,701,0,0,0,0,0,0,0,0,0,-1,762,323,0,0
-455,701,0,0,0,0,0,0,0,0,0,-1,769,323,0,0
-448,701,0,0,0,0,0,0,0,0,0,-1,776,323,0,0
-441,701,0,0,0,0,0,0,0,0,0,-1,783,323,0,0
-434,701,0,0,0,0,0,0,0,0,0,-1,790,323,0,0
-427,701,0,0,0,0,0,0,0,0,0,-1,797,323,0,0
-420,701,0,0,0,0,0,0,0,0,0,-1,804,323,0,0
-413,701,0,0,0,0,0,0,0,0,0,-1,811,323,0,0
-406,701,0,0,0,0,0,0,0,0,0,-1,818,323,0,0
-399,701,0,0,0,0,0,0,0,0,0,-1,825,323,0,0
-392,701,0,0,0,0,0,0,0,0,0,-1,832,323,0,0
-385,701,0,0,0,0,0,0,0,0,0,-1,839,323,0,0
-378,701,0,0,0,0,0,0,0,0,0,-1,846,323,0,0
-371,701,0,0,0,0,0,0,0,0,0,-1,853,323,0,0
-364,701,0,0,0,0,0,0,0,0,0,-1,860,323,0,0
-357,701,0,0,0,0,0,0,0,0,0,-1,867,323,0,0
-350,701,0,0,0,0,0,0,0,0,0,-1,874,323,0,0
-343,701,0,0,0,0,0,0,0,0,0,-1,881,323,0,0
-336,701,0,0,0,0,0,0,0,0,0,-1,888,323,0,0
-329,701,0,0,0,0,0,0,0,0,0,-1,895,323,0,0
-322,701,0,0,0,0,0,0,0,0,0,-1,902,323,0,0
-315,701,0,0,0,0,0,0,0,0,0,-1,909,323,0,0
-308,701,0,0,0,0,0,0,0,0,0,-1,916,323,0,0
-301,701,0,0,0,0,0,0,0,0,0,-1,923,323,0,0
-294,701,0,0,0,0,0,0,0,0,0,-1,930,323,0,0
-287,701,0,0,0,0,0,0,0,0,0,-1,937,323,0,0
-280,701,0,0,0,0,0,0,0,0,0,-1,944,323,0,0
-273,701,0,0,0,0,0,0,0,0,0,-1,951,323,0,0
-266,701,0,0,0,0,0,0,0,0,0,-1,958,323,0,0
-259,701,0,0,0,0,0,0,0,0,0,-1,965,323,0,0
-252,701,0,0,0,0,0,0,0,0,0,-1,972,323,0,0
-245,701,0,0,0,0,0,0,0,0,0,-1,979,323,0,0
-238,701,0,0,0,0,0,0,0,0,0,-1,986,323,0,0
-231,701,0,0,0,0,0,0,0,0,0,-1,993,323,0,0
-224,701,0,0,0,0,0,0,0,0,0,-1,1000,323,0,0
-217,701,0,0,0,0,0,0,0,0,0,-1,1007,323,0,0
-210,701,0,0,0,0,0,0,0,0,0,-1,1014,323,0,0
-203,701,0,0,0,0,0,0,0,0,0,-1,1021,323,0,0
-196,701,0,0,0,0,0,0,0,0,0,-1,1028,323,0,0
-189,701,0,0,0,0,0,0,0,0,0,-1,1035,323,0,0
-182,701,0,0,0,0,0,0,0,0,0,-1,1042,323,0,0
-175,701,0,0,0,0,0,0,0,0,0,-1,1049,323,0,0
-168,701,0,0,0,0,0,0,0,0,0,-1,1056,323,0,0
-161,701,0,0,0,0,0,0,0,0,0,-1,1063,323,0,0
-154,701,0,0,0,0,0,0,0,0,0,-1,1070,323,0,0
-147,701,0,0,0,0,0,0,0,0,0,-1,1077,323,0,0
-140,701,0,0,0,0,0,0,0,0,0,-1,1084,323,0,0
-133,701,0,0,0,0,0,0,0,0,0,-1,1091,323,0,0
-126,701,0,0,0,0,0,0,0,0,0,-1,1098,323,0,0
-119,701,0,0,0,0,0,0,0,0,0,-1,1105,323,0,0
-112,701,0,0,0,0,0,0,0,0,0,-1,1112,323,0,0
-105,701,0,0,0,0,0,0,0,0,0,-1,1119,323,0,0
-98,701,0,0,0,0,0,0,0,0,0,-1,1126,323,0,0
-91,701,0,0,0,0,0,0,0,0,0,-1,1133,323,0,0
-84,701,0,0,0,0,0,0,0,0,0,-1,1140,323,0,0
-77,701,0,0,0,0,0,0,0,0,0,-1,1147,323,0,0
-70,701,-2.36731,-1.49271,0,0,0,0,0,0,0,-1,1154,323,-2.36729,1.4927
-63,701,-2.479,-0.295959,0,0,0,0,0,0,0,-1,1161,323,-2.47895,0.295961
-56,701,-0.420166,-0.101776,0,0,0,0,0,0,0,-1,1168,323,-0.420119,0.101777
-49,701,-1.09021,-0.155762,0,0,0,0,0,0,0,-1,1175,323,-1.09024,0.155768
-42,701,-0.210327,-0.299133,0,0,0,0,0,0,0,-1,1182,323,-0.210379,0.29914
-35,701,-2.9635,-7.98676,0,0,0,0,0,0,0,-1,1189,323,-2.9635,7.98676
-28,701,-6.64417,-5.4917,0,0,0,0,0,0,0,-1,1196,323,-6.64411,5.4917
-21,701,2.51074,-19.7484,0,0,0,0,0,0,0,-1,1203,323,2.51074,19.7484
-14,701,2.9541,-19.7494,0,0,0,0,0,0,0,-1,1210,323,2.95415,19.7494
-7,701,4.57837,-20.5924,0,0,0,0,0,0,0,-1,1217,323,4.57836,20.5924
0,701,4.98413,-20.3662,0.00516811,0.010818,0.0234378,0.0316005,-0.0156144,0.845373,0.0277755,0.0498738,1224,323,4.98419,20.3662
7,701,5.49414,-20.2715,-0.0126816,0.0150266,0.0245545,0.0293658,-0.0270207,1.04224,0.0325641,0.0456288,1231,323,5.49411,20.2715
14,701,4.37158,-21.2956,-0.0255671,0.0223355,0.019879,0.0295104,-0.032742,1.22442,0.0359576,0.0435105,1238,323,4.37162,21.2956
21,701,4.16699,-20.3262,-0.0318105,0.0309508,0.0132445,0.0336313,-0.034491,1.37111,0.0393315,0.0462982,1245,323,4.16705,20.3262
28,701,4.02393,-19.3802,0,0,0,0,0,0,0,-1,1252,323,4.0239,19.3802
35,701,2.59973,-18.8496,-0.0321286,0.0484038,-0.00506554,0.0487212,-0.032446,-1.50822,0.0471749,0.0458079,1259,323,2.59977,18.8496
42,701,2.55396,-18.3247,-0.0276897,0.0551054,-0.0143069,0.0575079,-0.0300922,-1.40442,0.0513949,0.0468612,1266,323,2.55395,18.3247
49,701,2.09485,-19.8134,0,0,0,0,0,0,0,-1,1273,323,2.09486,19.8134
56,701,2.17236,-19.5346,0.000922051,0.0671581,-0.036202,0.0831052,-0.0150251,-1.15587,0.0610315,0.0456724,1280,323,2.17233,19.5346
63,701,-3.37427,-20.9953,0.0175146,0.0681939,-0.04474,0.0942718,-0.00856332,-1.04306,0.0658881,0.0467204,1287,323,-3.37431,20.9953
70,701,-2.59741,-20.8532,0.0353552,0.0692863,-0.0502684,0.105375,-0.000733398,-0.948146,0.0704957,0.0463311,1294,323,-2.59746,20.8532
77,701,-1.87903,-20.7471,0.0538003,0.0676234,-0.0530454,0.114206,0.00721807,-0.850181,0.0738488,0.0453237,1301,323,-1.87908,20.7471
84,701,-0.0789795,-20.8498,0.0713456,0.0636977,-0.0508571,0.118522,0.016521,-0.747874,0.0741241,0.0455179,1308,323,-0.0790128,20.8498
91,701,-0.110718,-20.1298,0.0884594,0.0581482,-0.0490997,0.124689,0.0219183,-0.635702,0.0768689,0.04754,1315,323,-0.110771,20.1298
98,701,0.406128,-19.882,0.101515,0.0526716,-0.0441877,0.127581,0.0266059,-0.532949,0.0777182,0.0461976,1322,323,0.406083,19.8819
105,701,4.68347,-20.4412,0.10865,0.0465305,-0.0339266,0.123587,0.0315932,-0.414743,0.0741391,0.045977,1329,323,4.68343,20.4412
112,701,3.76221,-20.3805,0.115955,0.0402273,-0.0219337,0.121849,0.0343333,-0.262522,0.0725487,0.0465531,1336,323,3.76221,20.3805
119,701,3.59875,-20.4585,0.115317,0.0343912,-0.00823344,0.116146,0.033562,-0.10037,0.0690195,0.0424438,1343,323,3.59875,20.4585
126,701,4.11206,-19.5637,0.109321,0.0294867,0.00582343,0.109743,0.0290641,0.0724331,0.0656547,0.046865,1350,323,4.11205,19.5637
133,701,5.01221,-18.8326,0.101903,0.0254401,0.0213585,0.107464,0.0198785,0.254737,0.0660218,0.0470336,1357,323,5.01217,18.8326
140,701,6.01208,-17.7658,0,0,0,0,0,0,0,-1,1364,323,6.01209,17.7658
147,701,6.81787,-16.563,0,0,0,0,0,0,0,-1,1371,323,6.81792,16.563
154,701,2.1604,-19.5565,0,0,0,0,0,0,0,-1,1378,323,2.16036,19.5565
161,701,2.92334,-19.3804,0,0,0,0,0,0,0,-1,1385,323,2.92338,19.3804
168,701,25.6907,1.87299,0,0,0,0,0,0,0,-1,1392,323,25.6906,-1.87299
175,701,6.94556,0.0693054,0,0,0,0,0,0,0,-1,1399,323,6.94555,-0.0692958
182,701,8.80652,5.42807,0,0,0,0,0,0,0,-1,1406,323,8.8065,-5.42808
189,701,8.58081,4.24493,0,0,0,0,0,0,0,-1,1413,323,8.58082,-4.24494
196,701,0,0,0,0,0,0,0,0,0,-1,1420,323,0,0
203,701,0,0,0,0,0,0,0,0,0,-1,1427,323,0,0
210,701,0,0,0,0,0,0,0,0,0,-1,1434,323,0,0
217,701,0,0,0,0,0,0,0,0,0,-1,1441,323,0,0
224,701,0,0,0,0,0,0,0,0,0,-1,1448,323,0,0
231,701,0,0,0,0,0,0,0,0,0,-1,1455,323,0,0
238,701,0,0,0,0,0,0,0,0,0,-1,1462,323,0,0
245,701,0,0,0,0,0,0,0,0,0,-1,1469,323,0,0
252,701,0,0,0,0,0,0,0,0,0,-1,1476,323,0,0
259,701,0,0,0,0,0,0,0,0,0,-1,1483,323,0,0
266,701,0,0,0,0,0,0,0,0,0,-1,1490,323,0,0
273,701,0,0,0,0,0,0,0,0,0,-1,1497,323,0,0
280,701,0,0,0,0,0,0,0,0,0,-1,1504,323,0,0
287,701,0,0,0,0,0,0,0,0,0,-1,1511,323,0,0
294,701,0,0,0,0,0,0,0,0,0,-1,1518,323,0,0
301,701,0,0,0,0,0,0,0,0,0,-1,1525,323,0,0
308,701,0,0,0,0,0,0,0,0,0,-1,1532,323,0,0
315,701,0,0,0,0,0,0,0,0,0,-1,1539,323,0,0
322,701,0,0,0,0,0,0,0,0,0,-1,1546,323,0,0
329,701,0,0,0,0,0,0,0,0,0,-1,1553,323,0,0
336,701,0,0,0,0,0,0,0,0,0,-1,1560,323,0,0
343,701,0,0,0,0,0,0,0,0,0,-1,1567,323,0,0
350,701,0,0,0,0,0,0,0,0,0,-1,1574,323,0,0
357,701,0,0,0,0,0,0,0,0,0,-1,1581,323,0,0
364,701,0,0,0,0,0,0,0,0,0,-1,1588,323,0,0
371,701,0,0,0,0,0,0,0,0,0,-1,1595,323,0,0
378,701,0,0,0,0,0,0,0,0,0,-1,1602,323,0,0
385,701,0,0,0,0,0,0,0,0,0,-1,1609,323,0,0
392,701,0,0,0,0,0,0,0,0,0,-1,1616,323,0,0
399,701,0,0,0,0,0,0,0,0,0,-1,1623,323,0,0
406,701,0,0,0,0,0,0,0,0,0,-1,1630,323,0,0
413,701,0,0,0,0,0,0,0,0,0,-1,1637,323,0,0
420,701,0,0,0,0,0,0,0,0,0,-1,1644,323,0,0
427,701,0,0,0,0,0,0,0,0,0,-1,1651,323,0,0
434,701,0,0,0,0,0,0,0,0,0,-1,1658,323,0,0
441,701,0,0,0,0,0,0,0,0,0,-1,1665,323,0,0
448,701,0,0,0,0,0,0,0,0,0,-1,1672,323,0,0
455,701,0,0,0,0,0,0,0,0,0,-1,1679,323,0,0
462,701,0,0,0,0,0,0,0,0,0,-1,1686,323,0,0
469,701,0,0,0,0,0,0,0,0,0,-1,1693,323,0,0
476,701,0,0,0,0,0,0,0,0,0,-1,1700,323,0,0
483,701,0,0,0,0,0,0,0,0,0,-1,1707,323,0,0
490,701,0,0,0,0,0,0,0,0,0,-1,1714,323,0,0
497,701,0,0,0,0,0,0,0,0,0,-1,1721,323,0,0
504,701,0,0,0,0,0,0,0,0,0,-1,1728,323,0,0
511,701,0,0,0,0,0,0,0,0,0,-1,1735,323,0,0
518,701,0,0,0,0,0,0,0,0,0,-1,1742,323,0,0
525,701,0,0,0,0,0,0,0,0,0,-1,1749,323,0,0
532,701,0,0,0,0,0,0,0,0,0,-1,1756,323,0,0
539,701,0,0,0,0,0,0,0,0,0,-1,1763,323,0,0
546,701,0,0,0,0,0,0,0,0,0,-1,1770,323,0,0
553,701,0,0,0,0,0,0,0,0,0,-1,1777,323,0,0
560,701,0,0,0,0,0,0,0,0,0,-1,1784,323,0,0
567,701,0,0,0,0,0,0,0,0,0,-1,1791,323,0,0
574,701,0,0,0,0,0,0,0,0,0,-1,1798,323,0,0
581,701,0,0,0,0,0,0,0,0,0,-1,1805,323,0,0
588,701,0,0,0,0,0,0,0,0,0,-1,1812,323,0,0
595,701,0,0,0,0,0,0,0,0,0,-1,1819,323,0,0
602,701,0,0,0,0,0,0,0,0,0,-1,1826,323,0,0
609,701,0,0,0,0,0,0,0,0,0,-1,1833,323,0,0
616,701,0,0,0,0,0,0,0,0,0,-1,1840,323,0,0
623,701,0,0,0,0,0,0,0,0,0,-1,1847,323,0,0
630,701,0,0,0,0,0,0,0,0,0,-1,1854,323,0,0
637,701,0,0,0,0,0,0,0,0,0,-1,1861,323,0,0
644,701,0,0,0,0,0,0,0,0,0,-1,1868,323,0,0
651,701,0,0,0,0,0,0,0,0,0,-1,1875,323,0,0
658,701,0,0,0,0,0,0,0,0,0,-1,1882,323,0,0
665,701,0,0,0,0,0,0,0,0,0,-1,1889,323,0,0
672,701,0,0,0,0,0,0,0,0,0,-1,1896,323,0,0
679,701,0,0,0,0,0,0,0,0,0,-1,1903,323,0,0
686,701,0,0,0,0,0,0,0,0,0,-1,1910,323,0,0
693,701,0,0,0,0,0,0,0,0,0,-1,1917,323,0,0
700,701,0,0,0,0,0,0,0,0,0,-1,1924,323,0,0
707,701,0,0,0,0,0,0,0,0,0,-1,1931,323,0,0
714,701,0,0,0,0,0,0,0,0,0,-1,1938,323,0,0
721,701,0,0,0,0,0,0,0,0,0,-1,1945,323,0,0
728,701,0,0,0,0,0,0,0,0,0,-1,1952,323,0,0
735,701,0,0,0,0,0,0,0,0,0,-1,1959,323,0,0
742,701,0,0,0,0,0,0,0,0,0,-1,1966,323,0,0
749,701,0,0,0,0,0,0,0,0,0,-1,1973,323,0,0
756,701,0,0,0,0,0,0,0,0,0,-1,1980,323,0,0
763,701,0,0,0,0,0,0,0,0,0,-1,1987,323,0,0
770,701,0,0,0,0,0,0,0,0,0,-1,1994,323,0,0
777,701,0,0,0,0,0,0,0,0,0,-1,2001,323,0,0
784,701,0,0,0,0,0,0,0,0,0,-1,2008,323,0,0
791,701,0,0,0,0,0,0,0,0,0,-1,2015,323,0,0
798,701,0,0,0,0,0,0,0,0,0,-1,2022,323,0,0
805,701,0,0,0,0,0,0,0,0,0,-1,2029,323,0,0
812,701,0,0,0,0,0,0,0,0,0,-1,2036,323,0,0
-700,694,0,0,0,0,0,0,0,0,0,-1,524,330,0,0
-693,694,0,0,0,0,0,0,0,0,0,-1,531,330,0,0
-686,694,0,0,0,0,0,0,0,0,0,-1,538,330,0,0
-679,694,0,0,0,0,0,0,0,0,0,-1,545,330,0,0
-672,694,0,0,0,0,0,0,0,0,0,-1,552,330,0,0
-665,694,0,0,0,0,0,0,0,0,0,-1,559,330,0,0
-658,694,0,0,0,0,0,0,0,0,0,-1,566,330,0,0
-651,694,0,0,0,0,0,0,0,0,0,-1,573,330,0,0
-644,694,0,0,0,0,0,0,0,0,0,-1,580,330,0,0
-637,694,0,0,0,0,0,0,0,0,0,-1,587,330,0,0
-630,694,0,0,0,0,0,0,0,0,0,-1,594,330,0,0
-623,694,0,0,0,0,0,0,0,0,0,-1,601,330,0,0
-616,694,0,0,0,0,0,0,0,0,0,-1,608,330,0,0
-609,694,0,0,0,0,0,0,0,0,0,-1,615,330,0,0
-602,694,0,0,0,0,0,0,0,0,0,-1,622,330,0,0
-595,694,0,0,0,0,0,0,0,0,0,-1,629,330,0,0
-588,694,0,0,0,0,0,0,0,0,0,-1,636,330,0,0
-581,694,0,0,0,0,0,0,0,0,0,-1,643,330,0,0
-574,694,0,0,0,0,0,0,0,0,0,-1,650,330,0,0
-567,694,0,0,0,0,0,0,0,0,0,-1,657,330,0,0
-560,694,0,0,0,0,0,0,0,0,0,-1,664,330,0,0
-553,694,0,0,0,0,0,0,0,0,0,-1,671,330,0,0
-546,694,0,0,0,0,0,0,0,0,0,-1,678,330,0,0
-539,694,0,0,0,0,0,0,0,0,0,-1,685,330,0,0
-532,694,0,0,0,0,0,0,0,0,0,-1,692,330,0,0
-525,694,0,0,0,0,0,0,0,0,0,-1,699,330,0,0
-518,694,0,0,0,0,0,0,0,0,0,-1,706,330,0,0
-511,694,0,0,0,0,0,0,0,0,0,-1,713,330,0,0
-504,694,0,0,0,0,0,0,0,0,0,-1,720,330,0,0
-497,694,0,0,0,0,0,0,0,0,0,-1,727,330,0,0
-490,694,0,0,0,0,0,0,0,0,0,-1,734,330,0,0
-483,694,0,0,0,0,0,0,0,0,0,-1,741,330,0,0
-476,694,0,0,0,0,0,0,0,0,0,-1,748,330,0,0
-469,694,0,0,0,0,0,0,0,0,0,-1,755,330,0,0
-462,694,0,0,0,0,0,0,0,0,0,-1,762,330,0,0
-455,694,0,0,0,0,0,0,0,0,0,-1,769,330,0,0
-448,694,0,0,0,0,0,0,0,0,0,-1,776,330,0,0
-441,694,0,0,0,0,0,0,0,0,0,-1,783,330,0,0
-434,694,0,0,0,0,0,0,0,0,0,-1,790,330,0,0
-427,694,0,0,0,0,0,0,0,0,0,-1,797,330,0,0
-420,694,0,0,0,0,0,0,0,0,0,-1,804,330,0,0
-413,694,0,0,0,0,0,0,0,0,0,-1,811,330,0,0
-406,694,0,0,0,0,0,0,0,0,0,-1,818,330,0,0
-399,694,0,0,0,0,0,0,0,0,0,-1,825,330,0,0
-392,694,0,0,0,0,0,0,0,0,0,-1,832,330,0,0
-385,694,0,0,0,0,0,0,0,0,0,-1,839,330,0,0
-378,694,0,0,0,0,0,0,0,0,0,-1,846,330,0,0
-371,694,0,0,0,0,0,0,0,0,0,-1,853,330,0,0
-364,694,0,0,0,0,0,0,0,0,0,-1,860,330,0,0
-357,694,0,0,0,0,0,0,0,0,0,-1,867,330,0,0
-350,694,0,0,0,0,0,0,0,0,0,-1,874,330,0,0
-343,694,0,0,0,0,0,0,0,0,0,-1,881,330,0,0
-336,694,0,0,0,0,0,0,0,0,0,-1,888,330,0,0
-329,694,0,0,0,0,0,0,0,0,0,-1,895,330,0,0
-322,694,0,0,0,0,0,0,0,0,0,-1,902,330,0,0
-315,694,0,0,0,0,0,0,0,0,0,-1,909,330,0,0
-308,694,0,0,0,0,0,0,0,0,0,-1,916,330,0,0
-301,694,0,0,0,0,0,0,0,0,0,-1,923,330,0,0
-294,694,0,0,0,0,0,0,0,0,0,-1,930,330,0,0
-287,694,0,0,0,0,0,0,0,0,0,-1,937,330,0,0
-280,694,0,0,0,0,0,0,0,0,0,-1,944,330,0,0
-273,694,0,0,0,0,0,0,0,0,0,-1,951,330,0,0
-266,694,0,0,0,0,0,0,0,0,0,-1,958,330,0,0
-259,694,0,0,0,0,0,0,0,0,0,-1,965,330,0,0
-252,694,0,0,0,0,0,0,0,0,0,-1,972,330,0,0
-245,694,0,0,0,0,0,0,0,0,0,-1,979,330,0,0
-238,694,0,0,0,0,0,0,0,0,0,-1,986,330,0,0
-231,694,0,0,0,0,0,0,0,0,0,-1,993,330,0,0
-224,694,0,0,0,0,0,0,0,0,0,-1,1000,330,0,0
-217,694,0,0,0,0,0,0,0,0,0,-1,1007,330,0,0
-210,694,0,0,0,0,0,0,0,0,0,-1,1014,330,0,0
-203,694,0,0,0,0,0,0,0,0,0,-1,1021,330,0,0
-196,694,0,0,0,0,0,0,0,0,0,-1,1028,330,0,0
-189,694,0,0,0,0,0,0,0,0,0,-1,1035,330,0,0
-182,694,0,0,0,0,0,0,0,0,0,-1,1042,330,0,0
-175,694,0,0,0,0,0,0,0,0,0,-1,1049,330,0,0
-168,694,0,0,0,0,0,0,0,0,0,-1,1056,330,0,0
-161,694,0,0,0,0,0,0,0,0,0,-1,1063,330,0,0
-154,694,0,0,0,0,0,0,0,0,0,-1,1070,330,0,0
-147,694,0,0,0,0,0,0,0,0,0,-1,1077,330,0,0
-140,694,0,0,0,0,0,0,0,0,0,-1,1084,330,0,0
-133,694,0,0,0,0,0,0,0,0,0,-1,1091,330,0,0
-126,694,0,0,0,0,0,0,0,0,0,-1,1098,330,0,0
-119,694,0,0,0,0,0,0,0,0,0,-1,1105,330,0,0
-112,694,0,0,0,0,0,0,0,0,0,-1,1112,330,0,0
-105,694,2.5188,-19.3963,0,0,0,0,0,0,0,-1,1119,330,2.51882,19.3963
-98,694,1.34875,-10.1051,0,0,0,0,0,0,0,-1,1126,330,1.34874,10.1051
-91,694,1.35474,-9.22229,0,0,0,0,0,0,0,-1,1133,330,1.35476,9.22229
-84,694,-4.39136,-4.62332,0,0,0,0,0,0,0,-1,1140,330,-4.3914,4.62331
-77,694,-4.93396,-10.2672,0,0,0,0,0,0,0,-1,1147,330,-4.9339,10.2672
-70,694,-6.49402,-10.0714,0,0,0,0,0,0,0,-1,1154,330,-6.49399,10.0714
-63,694,-5.80835,-4.75275,0,0,0,0,0,0,0,-1,1161,330,-5.80834,4.75274
-56,694,-6.50623,-0.649139,0,0,0,0,0,0,0,-1,1168,330,-6.5062,0.649126
-49,694,-1.11426,0.0341797,0,0,0,0,0,0,0,-1,1175,330,-1.11424,-0.0341846
-42,694,-0.346313,-0.709595,0,0,0,0,0,0,0,-1,1182,330,-0.346298,0.709581
-35,694,-0.459106,-1.24713,0,0,0,0,0,0,0,-1,1189,330,-0.459142,1.24714
-28,694,-6.48413,-3.95972,0,0,0,0,0,0,0,-1,1196,330,-6.48414,3.9597
-21,694,2.89294,-19.8497,0,0,0,0,0,0,0,-1,1203,330,2.8929,19.8497
-14,694,3.1283,-19.7624,0,0,0,0,0,0,0,-1,1210,330,3.12828,19.7624
-7,694,4.61292,-18.6676,0,0,0,0,0,0,0,-1,1217,330,4.61294,18.6676
0,694,4.72461,-20.1554,0.00348523,0.0153621,0.0196952,0.0299947,-0.0111474,0.931822,0.0245702,0.049734,1224,330,4.72467,20.1554
7,694,4.93384,-20.3764,-0.0099066,0.018153,0.0199828,0.0285393,-0.020293,1.09146,0.028327,0.0480108,1231,330,4.93383,20.3764
14,694,4.57263,-21.0502,-0.0193961,0.0233948,0.0159876,0.0287083,-0.0247096,1.24993,0.0308696,0.0453269,1238,330,4.57266,21.0502
21,694,4.63647,-21.1784,0,0,0,0,0,0,0,-1,1245,330,4.63646,21.1784
28,694,5.19043,-21.1335,-0.0258403,0.0360975,0.00434496,0.0364008,-0.0261436,1.5011,0.0362715,0.0450135,1252,330,5.19042,21.1335
35,694,5.20154,-21.3141,-0.0240482,0.042711,-0.00317661,0.0428618,-0.024199,-1.52336,0.0392141,0.0451154,1259,330,5.2015,21.3141
42,694,1.98792,-19.5367,-0.0207814,0.0478435,-0.010249,0.0493415,-0.0222794,-1.42567,0.0423229,0.0481175,1266,330,1.98787,19.5366
49,694,2.23315,-19.8305,0,0,0,0,0,0,0,-1,1273,330,2.23319,19.8305
56,694,2.44751,-20.0726,0.00313704,0.0570729,-0.0275997,0.0686927,-0.00848279,-1.17231,0.0488688,0.0445765,1280,330,2.44749,20.0726
63,694,2.76208,-20.268,0.0164188,0.0577952,-0.0342435,0.0771148,-0.00290079,-1.05713,0.0524036,0.0452646,1287,330,2.76213,20.268
70,694,-1.69995,-21.2675,0,0,0,0,0,0,0,-1,1294,330,-1.70001,21.2674
77,694,-0.901855,-21.0648,0.0447002,0.0570914,-0.0401496,0.0915206,0.010271,-0.861951,0.0578945,0.0485915,1301,330,-0.901888,21.0648
84,694,-0.387085,-20.6853,0.057976,0.0541128,-0.0382937,0.0943868,0.017702,-0.760199,0.0579325,0.0444703,1308,330,-0.387113,20.6853
91,694,0.194946,-20.2944,0.071013,0.0495289,-0.0367702,0.0985781,0.0219637,-0.643283,0.0597584,0.0444195,1315,330,0.194977,20.2944
98,694,1.12878,-20.1179,0.0804735,0.0450108,-0.032729,0.0999656,0.0255186,-0.53715,0.0599753,0.0444501,1322,330,1.12884,20.1179
105,694,3.53198,-20.5545,0.0850774,0.0403075,-0.0247082,0.0960328,0.0293521,-0.417345,0.0568236,0.0442252,1329,330,3.53202,20.5545
112,694,3.72668,-20.584,0.0901135,0.0355041,-0.0155557,0.0942337,0.0313839,-0.258923,0.0554077,0.0453396,1336,330,3.72671,20.584
119,694,3.79956,-20.4284,0.0892205,0.0309486,-0.00506276,0.0896571,0.030512,-0.0860228,0.0526361,0.0447061,1343,330,3.79956,20.4284
126,694,3.90271,-19.8727,0.0843911,0.0273369,0.00496973,0.0848208,0.0269073,0.08624,0.0500501,0.0450205,1350,330,3.90274,19.8727
133,694,3.77063,-19.2415,0.0787382,0.0243983,0.0157113,0.0829538,0.0201827,0.26214,0.0499531,0.0495763,1357,330,3.77063,19.2415
140,694,3.55261,-18.6671,0,0,0,0,0,0,0,-1,1364,330,3.5526,18.6671
147,694,1.29785,-19.8075,0,0,0,0,0,0,0,-1,1371,330,1.2978,19.8075
154,694,1.17761,-19.8134,0,0,0,0,0,0,0,-1,1378,330,1.1776,19.8134
161,694,-4.43298,-20.3649,0,0,0,0,0,0,0,-1,1385,330,-4.43294,20.3649
168,694,6.77161,1.01288,0,0,0,0,0,0,0,-1,1392,330,6.77156,-1.01287
175,694,6.72839,0.473175,0,0,0,0,0,0,0,-1,1399,330,6.72838,-0.473182
182,694,8.29028,5.75238,0,0,0,0,0,0,0,-1,1406,330,8.29034,-5.75237
189,694,7.9801,4.46118,0,0,0,0,0,0,0,-1,1413,330,7.9801,-4.46118
196,694,7.39331,3.32632,0,0,0,0,0,0,0,-1,1420,330,7.39329,-3.32633
203,694,7.04492,2.20529,0,0,0,0,0,0,0,-1,1427,330,7.04496,-2.20529
210,694,6.44714,0.646912,0,0,0,0,0,0,0,-1,1434,330,6.44717,-0.646903
217,694,7.12061,-0.644958,0,0,0,0,0,0,0,-1,1441,330,7.12059,0.644961
224,694,6.74011,-1.70544,0,0,0,0,0,0,0,-1,1448,330,6.74013,1.70546
231,694,0,0,0,0,0,0,0,0,0,-1,1455,330,0,0
238,694,0,0,0,0,0,0,0,0,0,-1,1462,330,0,0
245,694,0,0,0,0,0,0,0,0,0,-1,1469,330,0,0
252,694,0,0,0,0,0,0,0,0,0,-1,1476,330,0,0
259,694,0,0,0,0,0,0,0,0,0,-1,1483,330,0,0
266,694,0,0,0,0,0,0,0,0,0,-1,1490,330,0,0
273,694,0,0,0,0,0,0,0,0,0,-1,1497,330,0,0
280,694,0,0,0,0,0,0,0,0,0,-1,1504,330,0,0
287,694,0,0,0,0,0,0,0,0,0,-1,1511,330,0,0
294,694,0,0,0,0,0,0,0,0,0,-1,1518,330,0,0
301,694,0,0,0,0,0,0,0,0,0,-1,1525,330,0,0
308,694,0,0,0,0,0,0,0,0,0,-1,1532,330,0,0
315,694,0,0,0,0,0,0,0,0,0,-1,1539,330,0,0
322,694,0,0,0,0,0,0,0,0,0,-1,1546,330,0,0
329,694,0,0,0,0,0,0,0,0,0,-1,1553,330,0,0
336,694,0,0,0,0,0,0,0,0,0,-1,1560,330,0,0
343,694,0,0,0,0,0,0,0,0,0,-1,1567,330,0,0
350,694,0,0,0,0,0,0,0,0,0,-1,1574,330,0,0
357,694,0,0,0,0,0,0,0,0,0,-1,1581,330,0,0
364,694,0,0,0,0,0,0,0,0,0,-1,1588,330,0,0
371,694,0,0,0,0,0,0,0,0,0,-1,1595,330,0,0
378,694,0,0,0,0,0,0,0,0,0,-1,1602,330,0,0
385,694,0,0,0,0,0,0,0,0,0,-1,1609,330,0,0
392,694,0,0,0,0,0,0,0,0,0,-1,1616,330,0,0
399,694,0,0,0,0,0,0,0,0,0,-1,1623,330,0,0
406,694,0,0,0,0,0,0,0,0,0,-1,1630,330,0,0
413,694,0,0,0,0,0,0,0,0,0,-1,1637,330,0,0
420,694,0,0,0,0,0,0,0,0,0,-1,1644,330,0,0
427,694,0,0,0,0,0,0,0,0,0,-1,1651,330,0,0
434,694,0,0,0,0,0,0,0,0,0,-1,1658,330,0,0
441,694,0,0,0,0,0,0,0,0,0,-1,1665,330,0,0
448,694,0,0,0,0,0,0,0,0,0,-1,1672,330,0,0
455,694,0,0,0,0,0,0,0,0,0,-1,1679,330,0,0
462,694,0,0,0,0,0,0,0,0,0,-1,1686,330,0,0
469,694,0,0,0,0,0,0,0,0,0,-1,1693,330,0,0
476,694,0,0,0,0,0,0,0,0,0,-1,1700,330,0,0
483,694,0,0,0,0,0,0,0,0,0,-1,1707,330,0,0
490,694,0,0,0,0,0,0,0,0,0,-1,1714,330,0,0
497,694,0,0,0,0,0,0,0,0,0,-1,1721,330,0,0
504,694,0,0,0,0,0,0,0,0,0,-1,1728,330,0,0
511,694,0,0,0,0,0,0,0,0,0,-1,1735,330,0,0
518,694,0,0,0,0,0,0,0,0,0,-1,1742,330,0,0
525,694,0,0,0,0,0,0,0,0,0,-1,1749,330,0,0
532,694,0,0,0,0,0,0,0,0,0,-1,1756,330,0,0
539,694,0,0,0,0,0,0,0,0,0,-1,1763,330,0,0
546,694,0,0,0,0,0,0,0,0,0,-1,1770,330,0,0
553,694,0,0,0,0,0,0,0,0,0,-1,1777,330,0,0
560,694,0,0,0,0,0,0,0,0,0,-1,1784,330,0,0
567,694,0,0,0,0,0,0,0,0,0,-1,1791,330,0,0
574,694,0,0,0,0,0,0,0,0,0,-1,1798,330,0,0
581,694,0,0,0,0,0,0,0,0,0,-1,1805,330,0,0
588,694,0,0,0,0,0,0,0,0,0,-1,1812,330,0,0
595,694,0,0,0,0,0,0,0,0,0,-1,1819,330,0,0
602,694,0,0,0,0,0,0,0,0,0,-1,1826,330,0,0
609,694,0,0,0,0,0,0,0,0,0,-1,1833,330,0,0
616,694,0,0,0,0,0,0,0,0,0,-1,1840,330,0,0
623,694,0,0,0,0,0,0,0,0,0,-1,1847,330,0,0
630,694,0,0,0,0,0,0,0,0,0,-1,1854,330,0,0
637,694,0,0,0,0,0,0,0,0,0,-1,1861,330,0,0
644,694,0,0,0,0,0,0,0,0,0,-1,1868,330,0,0
651,694,0,0,0,0,0,0,0,0,0,-1,1875,330,0,0
658,694,0,0,0,0,0,0,0,0,0,-1,1882,330,0,0
665,694,0,0,0,0,0,0,0,0,0,-1,1889,330,0,0
672,694,0,0,0,0,0,0,0,0,0,-1,1896,330,0,0
679,694,0,0,0,0,0,0,0,0,0,-1,1903,330,0,0
686,694,0,0,0,0,0,0,0,0,0,-1,1910,330,0,0
693,694,0,0,0,0,0,0,0,0,0,-1,1917,330,0,0
700,694,0,0,0,0,0,0,0,0,0,-1,1924,330,0,0
707,694,0,0,0,0,0,0,0,0,0,-1,1931,330,0,0
714,694,0,0,0,0,0,0,0,0,0,-1,1938,330,0,0
721,694,0,0,0,0,0,0,0,0,0,-1,1945,330,0,0
728,694,0,0,0,0,0,0,0,0,0,-1,1952,330,0,0
735,694,0,0,0,0,0,0,0,0,0,-1,1959,330,0,0
742,694,0,0,0,0,0,0,0,0,0,-1,1966,330,0,0
749,694,0,0,0,0,0,0,0,0,0,-1,1973,330,0,0
756,694,0,0,0,0,0,0,0,0,0,-1,1980,330,0,0
763,694,0,0,0,0,0,0,0,0,0,-1,1987,330,0,0
770,694,0,0,0,0,0,0,0,0,0,-1,1994,330,0,0
777,694,0,0,0,0,0,0,0,0,0,-1,2001,330,0,0
784,694,0,0,0,0,0,0,0,0,0,-1,2008,330,0,0
791,694,0,0,0,0,0,0,0,0,0,-1,2015,330,0,0
798,694,0,0,0,0,0,0,0,0,0,-1,2022,330,0,0
805,694,0,0,0,0,0,0,0,0,0,-1,2029,330,0,0
812,694,0,0,0,0,0,0,0,0,0,-1,2036,330,0,0
-700,687,0,0,0,0,0,0,0,0,0,-1,524,337,0,0
-693,687,0,0,0,0,0,0,0,0,0,-1,531,337,0,0
-686,687,0,0,0,0,0,0,0,0,0,-1,538,337,0,0
-679,687,0,0,0,0,0,0,0,0,0,-1,545,337,0,0
-672,687,0,0,0,0,0,0,0,0,0,-1,552,337,0,0
-665,687,0,0,0,0,0,0,0,0,0,-1,559,337,0,0
-658,687,0,0,0,0,0,0,0,0,0,-1,566,337,0,0
-651,687,0,0,0,0,0,0,0,0,0,-1,573,337,0,0
-644,687,0,0,0,0,0,0,0,0,0,-1,580,337,0,0
-637,687,0,0,0,0,0,0,0,0,0,-1,587,337,0,0
-630,687,0,0,0,0,0,0,0,0,0,-1,594,337,0,0
-623,687,0,0,0,0,0,0,0,0,0,-1,601,337,0,0
-616,687,0,0,0,0,0,0,0,0,0,-1,608,337,0,0
-609,687,0,0,0,0,0,0,0,0,0,-1,615,337,0,0
-602,687,0,0,0,0,0,0,0,0,0,-1,622,337,0,0
-595,687,0,0,0,0,0,0,0,0,0,-1,629,337,0,0
-588,687,0,0,0,0,0,0,0,0,0,-1,636,337,0,0
-581,687,0,0,0,0,0,0,0,0,0,-1,643,337,0,0
-574,687,0,0,0,0,0,0,0,0,0,-1,650,337,0,0
-567,687,0,0,0,0,0,0,0,0,0,-1,657,337,0,0
-560,687,0,0,0,0,0,0,0,0,0,-1,664,337,0,0
-553,687,0,0,0,0,0,0,0,0,0,-1,671,337,0,0
-546,687,0,0,0,0,0,0,0,0,0,-1,678,337,0,0
-539,687,0,0,0,0,0,0,0,0,0,-1,685,337,0,0
-532,687,0,0,0,0,0,0,0,0,0,-1,692,337,0,0
-525,687,0,0,0,0,0,0,0,0,0,-1,699,337,0,0
-518,687,0,0,0,0,0,0,0,0,0,-1,706,337,0,0
-511,687,0,0,0,0,0,0,0,0,0,-1,713,337,0,0
-504,687,0,0,0,0,0,0,0,0,0,-1,720,337,0,0
-497,687,0,0,0,0,0,0,0,0,0,-1,727,337,0,0
-490,687,0,0,0,0,0,0,0,0,0,-1,734,337,0,0
-483,687,0,0,0,0,0,0,0,0,0,-1,741,337,0,0
-476,687,0,0,0,0,0,0,0,0,0,-1,748,337,0,0
-469,687,0,0,0,0,0,0,0,0,0,-1,755,337,0,0
-462,687,0,0,0,0,0,0,0,0,0,-1,762,337,0,0
-455,687,0,0,0,0,0,0,0,0,0,-1,769,337,0,0
-448,687,0,0,0,0,0,0,0,0,0,-1,776,337,0,0
-441,687,0,0,0,0,0,0,0,0,0,-1,783,337,0,0
-434,687,0,0,0,0,0,0,0,0,0,-1,790,337,0,0
-427,687,0,0,0,0,0,0,0,0,0,-1,797,337,0,0
-420,687,0,0,0,0,0,0,0,0,0,-1,804,337,0,0
-413,687,0,0,0,0,0,0,0,0,0,-1,811,337,0,0
-406,687,0,0,0,0,0,0,0,0,0,-1,818,337,0,0
-399,687,0,0,0,0,0,0,0,0,0,-1,825,337,0,0
-392,687,0,0,0,0,0,0,0,0,0,-1,832,337,0,0
-385,687,0,0,0,0,0,0,0,0,0,-1,839,337,0,0
-378,687,0,0,0,0,0,0,0,0,0,-1,846,337,0,0
-371,687,0,0,0,0,0,0,0,0,0,-1,853,337,0,0
-364,687,0,0,0,0,0,0,0,0,0,-1,860,337,0,0
-357,687,0,0,0,0,0,0,0,0,0,-1,867,337,0,0
-350,687,0,0,0,0,0,0,0,0,0,-1,874,337,0,0
-343,687,0,0,0,0,0,0,0,0,0,-1,881,337,0,0
-336,687,0,0,0,0,0,0,0,0,0,-1,888,337,0,0
-329,687,0,0,0,0,0,0,0,0,0,-1,895,337,0,0
-322,687,0,0,0,0,0,0,0,0,0,-1,902,337,0,0
-315,687,0,0,0,0,0,0,0,0,0,-1,909,337,0,0
-308,687,0,0,0,0,0,0,0,0,0,-1,916,337,0,0
-301,687,0,0,0,0,0,0,0,0,0,-1,923,337,0,0
-294,687,0,0,0,0,0,0,0,0,0,-1,930,337,0,0
-287,687,0,0,0,0,0,0,0,0,0,-1,937,337,0,0
-280,687,0,0,0,0,0,0,0,0,0,-1,944,337,0,0
-273,687,0,0,0,0,0,0,0,0,0,-1,951,337,0,0
-266,687,0,0,0,0,0,0,0,0,0,-1,958,337,0,0
-259,687,0,0,0,0,0,0,0,0,0,-1,965,337,0,0
-252,687,0,0,0,0,0,0,0,0,0,-1,972,337,0,0
-245,687,0,0,0,0,0,0,0,0,0,-1,979,337,0,0
-238,687,0,0,0,0,0,0,0,0,0,-1,986,337,0,0
-231,687,0,0,0,0,0,0,0,0,0,-1,993,337,0,0
-224,687,0,0,0,0,0,0,0,0,0,-1,1000,337,0,0
-217,687,0,0,0,0,0,0,0,0,0,-1,1007,337,0,0
-210,687,0,0,0,0,0,0,0,0,0,-1,1014,337,0,0
-203,687,0,0,0,0,0,0,0,0,0,-1,1021,337,0,0
-196,687,0,0,0,0,0,0,0,0,0,-1,1028,337,0,0
-189,687,0,0,0,0,0,0,0,0,0,-1,1035,337,0,0
-182,687,0,0,0,0,0,0,0,0,0,-1,1042,337,0,0
-175,687,0,0,0,0,0,0,0,0,0,-1,1049,337,0,0
-168,687,0,0,0,0,0,0,0,0,0,-1,1056,337,0,0
-161,687,0,0,0,0,0,0,0,0,0,-1,1063,337,0,0
-154,687,0,0,0,0,0,0,0,0,0,-1,1070,337,0,0
-147,687,0,0,0,0,0,0,0,0,0,-1,1077,337,0,0
-140,687,0,0,0,0,0,0,0,0,0,-1,1084,337,0,0
-133,687,2.16895,-19.4911,0,0,0,0,0,0,0,-1,1091,337,2.16889,19.4911
-126,687,3.54932,-20.9862,0,0,0,0,0,0,0,-1,1098,337,3.54935,20.9862
-119,687,3.22107,-18.9146,0,0,0,0,0,0,0,-1,1105,337,3.22101,18.9146
-112,687,3.47534,-17.9837,0,0,0,0,0,0,0,-1,1112,337,3.47529,17.9837
-105,687,3.57935,-16.7483,0,0,0,0,0,0,0,-1,1119,337,3.57937,16.7483
-98,687,3.33679,-15.4141,0,0,0,0,0,0,0,-1,1126,337,3.33683,15.4141
-91,687,2.28162,-7.72437,0,0,0,0,0,0,0,-1,1133,337,2.28167,7.72437
-84,687,-0.867676,-5.7392,0,0,0,0,0,0,0,-1,1140,337,-0.867619,5.73919
-77,687,-3.63806,-12.9185,0,0,0,0,0,0,0,-1,1147,337,-3.6381,12.9185
-70,687,-6.24756,-13.2618,0,0,0,0,0,0,0,-1,1154,337,-6.24752,13.2618
-63,687,-10.0691,-12.0125,0,0,0,0,0,0,0,-1,1161,337,-10.0691,12.0125
-56,687,-15.0063,-14.5764,0,0,0,0,0,0,0,-1,1168,337,-15.0063,14.5764
-49,687,-15.6449,-9.94391,0,0,0,0,0,0,0,-1,1175,337,-15.6449,9.94392
-42,687,-4.2019,-0.405609,0,0,0,0,0,0,0,-1,1182,337,-4.20192,0.405614
-35,687,-4.42273,-0.688171,0,0,0,0,0,0,0,-1,1189,337,-4.42276,0.688178
-28,687,-1.14038,-1.39072,0,0,0,0,0,0,0,-1,1196,337,-1.14035,1.3907
-21,687,3.18909,-19.8344,0,0,0,0,0,0,0,-1,1203,337,3.18911,19.8344
-14,687,3.73987,-19.1508,0,0,0,0,0,0,0,-1,1210,337,3.73993,19.1508
-7,687,4.43823,-19.3207,0,0,0,0,0,0,0,-1,1217,337,4.43821,19.3207
0,687,5.07312,-19.8148,0,0,0,0,0,0,0,-1,1224,337,5.07313,19.8148
7,687,4.44873,-20.4934,-0.00761057,0.0188634,0.0159978,0.0263905,-0.0151377,1.13102,0.0242679,0.0499482,1231,337,4.44869,20.4934
14,687,4.46899,-20.7598,-0.0143995,0.0225308,0.0127251,0.0264909,-0.0183596,1.2691,0.0260359,0.0434104,1238,337,4.46903,20.7598
21,687,4.46484,-20.8433,-0.0180846,0.0268871,0.0090856,0.0286533,-0.0198508,1.3788,0.0281572,0.0437151,1245,337,4.46488,20.8433
28,687,4.72009,-21.1473,-0.0190932,0.0315805,0.00411203,0.0319121,-0.0194247,1.49035,0.0299301,0.0462816,1252,337,4.7201,21.1473
35,687,3.68652,-20.6124,-0.0175965,0.0364269,-0.00156772,0.0364724,-0.0176419,-1.54181,0.0318672,0.0477752,1259,337,3.68653,20.6124
42,687,3.74744,-20.5154,0,0,0,0,0,0,0,-1,1266,337,3.7474,20.5154
49,687,2.35425,-20.245,0,0,0,0,0,0,0,-1,1273,337,2.35423,20.245
56,687,2.63293,-20.4085,0.00388396,0.0473109,-0.0203335,0.0553451,-0.00415025,-1.1945,0.0383551,0.0442594,1280,337,2.63291,20.4085
63,687,3.66418,-20.3221,0.0143009,0.0478898,-0.0254554,0.0615917,0.000598954,-1.077,0.040863,0.0444141,1287,337,3.66414,20.322
70,687,3.79565,-20.2988,0,0,0,0,0,0,0,-1,1294,337,3.79563,20.2988
77,687,3.86157,-20.2735,0,0,0,0,0,0,0,-1,1301,337,3.86162,20.2735
84,687,3.69067,-19.8015,0,0,0,0,0,0,0,-1,1308,337,3.69062,19.8015
91,687,3.50427,-19.663,0,0,0,0,0,0,0,-1,1315,337,3.50426,19.663
98,687,1.75317,-20.2394,0.0622168,0.0378357,-0.02371,0.0766866,0.0233659,-0.547946,0.045387,0.0455181,1322,337,1.75314,20.2394
105,687,3.02026,-20.4914,0.0650693,0.03431,-0.0176202,0.0730778,0.0263015,-0.426594,0.0427399,0.0435902,1329,337,3.02027,20.4914
112,687,3.36072,-20.5049,0.0684433,0.0306978,-0.0107839,0.071307,0.0278341,-0.259564,0.0414978,0.0470099,1336,337,3.36066,20.5048
119,687,3.62231,-20.5622,0.0674723,0.0271624,-0.00291827,0.0676825,0.0269523,-0.0718962,0.0393455,0.0451665,1343,337,3.62226,20.5622
126,687,3.83301,-20.1686,0.0636062,0.0244689,0.00410211,0.0640315,0.0240435,0.103317,0.0373487,0.0440968,1350,337,3.83296,20.1686
133,687,3.79517,-19.7164,0.0591682,0.0222556,0.0114678,0.0624408,0.018983,0.277984,0.0369618,0.0468965,1357,337,3.79522,19.7164
140,687,3.83691,-19.6226,0,0,0,0,0,0,0,-1,1364,337,3.83685,19.6226
147,687,2.69885,-20.4432,0,0,0,0,0,0,0,-1,1371,337,2.69884,20.4432
154,687,3.06506,-19.6516,0,0,0,0,0,0,0,-1,1378,337,3.06508,19.6516
161,687,2.44641,-15.2103,0,0,0,0,0,0,0,-1,1385,337,2.44636,15.2103
168,687,6.66968,1.37039,0,0,0,0,0,0,0,-1,1392,337,6.6697,-1.37039
175,687,6.64075,0.771606,0,0,0,0,0,0,0,-1,1399,337,6.64073,-0.771595
182,687,6.67249,0.289917,0,0,0,0,0,0,0,-1,1406,337,6.67247,-0.289916
189,687,7.76062,4.53635,0,0,0,0,0,0,0,-1,1413,337,7.76064,-4.53636
196,687,6.99048,3.2966,0,0,0,0,0,0,0,-1,1420,337,6.99046,-3.2966
203,687,6.36499,2.1445,0,0,0,0,0,0,0,-1,1427,337,6.36499,-2.14451
210,687,6.68066,0.674652,0,0,0,0,0,0,0,-1,1434,337,6.68062,-0.674655
217,687,5.99683,-0.630493,0,0,0,0,0,0,0,-1,1441,337,5.99684,0.630497
224,687,5.52917,0.524902,0,0,0,0,0,0,0,-1,1448,337,5.5292,-0.524915
231,687,5.85583,-1.73651,0,0,0,0,0,0,0,-1,1455,337,5.85577,1.73651
238,687,5.96582,-2.96774,0,0,0,0,0,0,0,-1,1462,337,5.96577,2.96773
245,687,1.28259,2.32211,0,0,0,0,0,0,0,-1,1469,337,1.28258,-2.32211
252,687,1.97278,3.88422,0,0,0,0,0,0,0,-1,1476,337,1.97281,-3.88421
259,687,0,0,0,0,0,0,0,0,0,-1,1483,337,0,0
266,687,0,0,0,0,0,0,0,0,0,-1,1490,337,0,0
273,687,0,0,0,0,0,0,0,0,0,-1,1497,337,0,0
280,687,0,0,0,0,0,0,0,0,0,-1,1504,337,0,0
287,687,0,0,0,0,0,0,0,0,0,-1,1511,337,0,0
294,687,0,0,0,0,0,0,0,0,0,-1,1518,337,0,0
301,687,0,0,0,0,0,0,0,0,0,-1,1525,337,0,0
308,687,0,0,0,0,0,0,0,0,0,-1,1532,337,0,0
315,687,0,0,0,0,0,0,0,0,0,-1,1539,337,0,0
322,687,0,0,0,0,0,0,0,0,0,-1,1546,337,0,0
329,687,0,0,0,0,0,0,0,0,0,-1,1553,337,0,0
336,687,0,0,0,0,0,0,0,0,0,-1,1560,337,0,0
343,687,0,0,0,0,0,0,0,0,0,-1,1567,337,0,0
350,687,0,0,0,0,0,0,0,0,0,-1,1574,337,0,0
357,687,0,0,0,0,0,0,0,0,0,-1,1581,337,0,0
364,687,0,0,0,0,0,0,0,0,0,-1,1588,337,0,0
371,687,0,0,0,0,0,0,0,0,0,-1,1595,337,0,0
378,687,0,0,0,0,0,0,0,0,0,-1,1602,337,0,0
385,687,0,0,0,0,0,0,0,0,0,-1,1609,337,0,0
392,687,0,0,0,0,0,0,0,0,0,-1,1616,337,0,0
399,687,0,0,0,0,0,0,0,0,0,-1,1623,337,0,0
406,687,0,0,0,0,0,0,0,0,0,-1,1630,337,0,0
413,687,0,0,0,0,0,0,0,0,0,-1,1637,337,0,0
420,687,0,0,0,0,0,0,0,0,0,-1,1644,337,0,0
427,687,0,0,0,0,0,0,0,0,0,-1,1651,337,0,0
434,687,0,0,0,0,0,0,0,0,0,-1,1658,337,0,0
441,687,0,0,0,0,0,0,0,0,0,-1,1665,337,0,0
448,687,0,0,0,0,0,0,0,0,0,-1,1672,337,0,0
455,687,0,0,0,0,0,0,0,0,0,-1,1679,337,0,0
462,687,0,0,0,0,0,0,0,0,0,-1,1686,337,0,0
469,687,0,0,0,0,0,0,0,0,0,-1,1693,337,0,0
476,687,0,0,0,0,0,0,0,0,0,-1,1700,337,0,0
483,687,0,0,0,0,0,0,0,0,0,-1,1707,337,0,0
490,687,0,0,0,0,0,0,0,0,0,-1,1714,337,0,0
497,687,0,0,0,0,0,0,0,0,0,-1,1721,337,0,0
504,687,0,0,0,0,0,0,0,0,0,-1,1728,337,0,0
511,687,0,0,0,0,0,0,0,0,0,-1,1735,337,0,0
518,687,0,0,0,0,0,0,0,0,0,-1,1742,337,0,0
525,687,0,0,0,0,0,0,0,0,0,-1,1749,337,0,0
532,687,0,0,0,0,0,0,0,0,0,-1,1756,337,0,0
539,687,0,0,0,0,0,0,0,0,0,-1,1763,337,0,0
546,687,0,0,0,0,0,0,0,0,0,-1,1770,337,0,0
553,687,0,0,0,0,0,0,0,0,0,-1,1777,337,0,0
560,687,0,0,0,0,0,0,0,0,0,-1,1784,337,0,0
567,687,0,0,0,0,0,0,0,0,0,-1,1791,337,0,0
574,687,0,0,0,0,0,0,0,0,0,-1,1798,337,0,0
581,687,0,0,0,0,0,0,0,0,0,-1,1805,337,0,0
588,687,0,0,0,0,0,0,0,0,0,-1,1812,337,0,0
595,687,0,0,0,0,0,0,0,0,0,-1,1819,337,0,0
602,687,0,0,0,0,0,0,0,0,0,-1,1826,337,0,0
609,687,0,0,0,0,0,0,0,0,0,-1,1833,337,0,0
616,687,0,0,0,0,0,0,0,0,0,-1,1840,337,0,0
623,687,0,0,0,0,0,0,0,0,0,-1,1847,337,0,0
630,687,0,0,0,0,0,0,0,0,0,-1,1854,337,0,0
637,687,0,0,0,0,0,0,0,0,0,-1,1861,337,0,0
644,687,0,0,0,0,0,0,0,0,0,-1,1868,337,0,0
651,687,0,0,0,0,0,0,0,0,0,-1,1875,337,0,0
658,687,0,0,0,0,0,0,0,0,0,-1,1882,337,0,0
665,687,0,0,0,0,0,0,0,0,0,-1,1889,337,0,0
672,687,0,0,0,0,0,0,0,0,0,-1,1896,337,0,0
679,687,0,0,0,0,0,0,0,0,0,-1,1903,337,0,0
686,687,0,0,0,0,0,0,0,0,0,-1,1910,337,0,0
693,687,0,0,0,0,0,0,0,0,0,-1,1917,337,0,0
700,687,0,0,0,0,0,0,0,0,0,-1,1924,337,0,0
707,687,0,0,0,0,0,0,0,0,0,-1,1931,337,0,0
714,687,0,0,0,0,0,0,0,0,0,-1,1938,337,0,0
721,687,0,0,0,0,0,0,0,0,0,-1,1945,337,0,0
728,687,0,0,0,0,0,0,0,0,0,-1,1952,337,0,0
735,687,0,0,0,0,0,0,0,0,0,-1,1959,337,0,0
742,687,0,0,0,0,0,0,0,0,0,-1,1966,337,0,0
749,687,0,0,0,0,0,0,0,0,0,-1,1973,337,0,0
756,687,0,0,0,0,0,0,0,0,0,-1,1980,337,0,0
763,687,0,0,0,0,0,0,0,0,0,-1,1987,337,0,0
770,687,0,0,0,0,0,0,0,0,0,-1,1994,337,0,0
777,687,0,0,0,0,0,0,0,0,0,-1,2001,337,0,0
784,687,0,0,0,0,0,0,0,0,0,-1,2008,337,0,0
791,687,0,0,0,0,0,0,0,0,0,-1,2015,337,0,0
798,687,0,0,0,0,0,0,0,0,0,-1,2022,337,0,0
805,687,0,0,0,0,0,0,0,0,0,-1,2029,337,0,0
812,687,0,0,0,0,0,0,0,0,0,-1,2036,337,0,0
-700,680,0,0,0,0,0,0,0,0,0,-1,524,344,0,0
-693,680,0,0,0,0,0,0,0,0,0,-1,531,344,0,0
-686,680,0,0,0,0,0,0,0,0,0,-1,538,344,0,0
-679,680,0,0,0,0,0,0,0,0,0,-1,545,344,0,0
-672,680,0,0,0,0,0,0,0,0,0,-1,552,344,0,0
-665,680,0,0,0,0,0,0,0,0,0,-1,559,344,0,0
-658,680,0,0,0,0,0,0,0,0,0,-1,566,344,0,0
-651,680,0,0,0,0,0,0,0,0,0,-1,573,344,0,0
-644,680,0,0,0,0,0,0,0,0,0,-1,580,344,0,0
-637,680,0,0,0,0,0,0,0,0,0,-1,587,344,0,0
-630,680,0,0,0,0,0,0,0,0,0,-1,594,344,0,0
-623,680,0,0,0,0,0,0,0,0,0,-1,601,344,0,0
-616,680,0,0,0,0,0,0,0,0,0,-1,608,344,0,0
-609,680,0,0,0,0,0,0,0,0,0,-1,615,344,0,0
-602,680,0,0,0,0,0,0,0,0,0,-1,622,344,0,0
-595,680,0,0,0,0,0,0,0,0,0,-1,629,344,0,0
-588,680,0,0,0,0,0,0,0,0,0,-1,636,344,0,0
-581,680,0,0,0,0,0,0,0,0,0,-1,643,344,0,0
-574,680,0,0,0,0,0,0,0,0,0,-1,650,344,0,0
-567,680,0,0,0,0,0,0,0,0,0,-1,657,344,0,0
-560,680,0,0,0,0,0,0,0,0,0,-1,664,344,0,0
-553,680,0,0,0,0,0,0,0,0,0,-1,671,344,0,0
-546,680,0,0,0,0,0,0,0,0,0,-1,678,344,0,0
-539,680,0,0,0,0,0,0,0,0,0,-1,685,344,0,0
-532,680,0,0,0,0,0,0,0,0,0,-1,692,344,0,0
-525,680,0,0,0,0,0,0,0,0,0,-1,699,344,0,0
-518,680,0,0,0,0,0,0,0,0,0,-1,706,344,0,0
-511,680,0,0,0,0,0,0,0,0,0,-1,713,344,0,0
-504,680,0,0,0,0,0,0,0,0,0,-1,720,344,0,0
-497,680,0,0,0,0,0,0,0,0,0,-1,727,344,0,0
-490,680,0,0,0,0,0,0,0,0,0,-1,734,344,0,0
-483,680,0,0,0,0,0,0,0,0,0,-1,741,344,0,0
-476,680,0,0,0,0,0,0,0,0,0,-1,748,344,0,0
-469,680,0,0,0,0,0,0,0,0,0,-1,755,344,0,0
-462,680,0,0,0,0,0,0,0,0,0,-1,762,344,0,0
-455,680,0,0,0,0,0,0,0,0,0,-1,769,344,0,0
-448,680,0,0,0,0,0,0,0,0,0,-1,776,344,0,0
-441,680,0,0,0,0,0,0,0,0,0,-1,783,344,0,0
-434,680,0,0,0,0,0,0,0,0,0,-1,790,344,0,0
-427,680,0,0,0,0,0,0,0,0,0,-1,797,344,0,0
-420,680,0,0,0,0,0,0,0,0,0,-1,804,344,0,0
-413,680,0,0,0,0,0,0,0,0,0,-1,811,344,0,0
-406,680,0,0,0,0,0,0,0,0,0,-1,818,344,0,0
-399,680,0,0,0,0,0,0,0,0,0,-1,825,344,0,0
-392,680,0,0,0,0,0,0,0,0,0,-1,832,344,0,0
-385,680,0,0,0,0,0,0,0,0,0,-1,839,344,0,0
-378,680,0,0,0,0,0,0,0,0,0,-1,846,344,0,0
-371,680,0,0,0,0,0,0,0,0,0,-1,853,344,0,0
-364,680,0,0,0,0,0,0,0,0,0,-1,860,344,0,0
-357,680,0,0,0,0,0,0,0,0,0,-1,867,344,0,0
-350,680,0,0,0,0,0,0,0,0,0,-1,874,344,0,0
-343,680,0,0,0,0,0,0,0,0,0,-1,881,344,0,0
-336,680,0,0,0,0,0,0,0,0,0,-1,888,344,0,0
-329,680,0,0,0,0,0,0,0,0,0,-1,895,344,0,0
-322,680,0,0,0,0,0,0,0,0,0,-1,902,344,0,0
-315,680,0,0,0,0,0,0,0,0,0,-1,909,344,0,0
-308,680,0,0,0,0,0,0,0,0,0,-1,916,344,0,0
-301,680,0,0,0,0,0,0,0,0,0,-1,923,344,0,0
-294,680,0,0,0,0,0,0,0,0,0,-1,930,344,0,0
-287,680,0,0,0,0,0,0,0,0,0,-1,937,344,0,0
-280,680,0,0,0,0,0,0,0,0,0,-1,944,344,0,0
-273,680,0,0,0,0,0,0,0,0,0,-1,951,344,0,0
-266,680,0,0,0,0,0,0,0,0,0,-1,958,344,0,0
-259,680,0,0,0,0,0,0,0,0,0,-1,965,344,0,0
-252,680,0,0,0,0,0,0,0,0,0,-1,972,344,0,0
-245,680,0,0,0,0,0,0,0,0,0,-1,979,344,0,0
-238,680,0,0,0,0,0,0,0,0,0,-1,986,344,0,0
-231,680,0,0,0,0,0,0,0,0,0,-1,993,344,0,0
-224,680,0,0,0,0,0,0,0,0,0,-1,1000,344,0,0
-217,680,0,0,0,0,0,0,0,0,0,-1,1007,344,0,0
-210,680,0,0,0,0,0,0,0,0,0,-1,1014,344,0,0
-203,680,0,0,0,0,0,0,0,0,0,-1,1021,344,0,0
-196,680,0,0,0,0,0,0,0,0,0,-1,1028,344,0,0
-189,680,0,0,0,0,0,0,0,0,0,-1,1035,344,0,0
-182,680,0,0,0,0,0,0,0,0,0,-1,1042,344,0,0
-175,680,0,0,0,0,0,0,0,0,0,-1,1049,344,0,0
-168,680,0,0,0,0,0,0,0,0,0,-1,1056,344,0,0
-161,680,0,0,0,0,0,0,0,0,0,-1,1063,344,0,0
-154,680,8.01672,-21.9774,0,0,0,0,0,0,0,-1,1070,344,8.01674,21.9774
-147,680,7.82776,-21.5128,0.000807441,-0.0798583,0.0972078,0.0657176,-0.144769,0.58875,0.124348,0.0430691,1077,344,7.82778,21.5128
-140,680,7.53723,-21.2443,0,0,0,0,0,0,0,-1,1084,344,7.5372,21.2443
-133,680,7.38647,-20.7765,0,0,0,0,0,0,0,-1,1091,344,7.38643,20.7765
-126,680,7.94592,-19.4744,0,0,0,0,0,0,0,-1,1098,344,7.94592,19.4744
-119,680,8.29846,-19.0467,0,0,0,0,0,0,0,-1,1105,344,8.2985,19.0467
-112,680,8.60681,-18.7354,0,0,0,0,0,0,0,-1,1112,344,8.60675,18.7354
-105,680,3.67236,-16.5804,0,0,0,0,0,0,0,-1,1119,344,3.6724,16.5803
-98,680,3.32776,-19.4174,0,0,0,0,0,0,0,-1,1126,344,3.32772,19.4174
-91,680,2.73938,-14.278,0,0,0,0,0,0,0,-1,1133,344,2.73941,14.278
-84,680,1.92285,-8.71033,0,0,0,0,0,0,0,-1,1140,344,1.92286,8.71034
-77,680,-2.41516,-7.36899,0,0,0,0,0,0,0,-1,1147,344,-2.41511,7.36899
-70,680,-6.00818,-14.159,0,0,0,0,0,0,0,-1,1154,344,-6.00822,14.159
-63,680,-5.41333,-13.0013,0,0,0,0,0,0,0,-1,1161,344,-5.41332,13.0013
-56,680,-6.96912,-8.83356,0,0,0,0,0,0,0,-1,1168,344,-6.96907,8.83354
-49,680,-6.7677,-2.24063,0,0,0,0,0,0,0,-1,1175,344,-6.76772,2.24063
-42,680,-1.02368,0.618805,0,0,0,0,0,0,0,-1,1182,344,-1.0237,-0.618797
-35,680,-0.947876,-0.942719,0,0,0,0,0,0,0,-1,1189,344,-0.947842,0.942731
-28,680,-1.46118,-1.10574,0,0,0,0,0,0,0,-1,1196,344,-1.4612,1.10575
-21,680,2.85107,-19.6488,0,0,0,0,0,0,0,-1,1203,344,2.85112,19.6488
-14,680,3.55688,-19.8116,0.0112445,0.0175548,0.00938978,0.0243054,0.00449397,0.947481,0.0149327,0.0432635,1210,344,3.55685,19.8116
-7,680,4.26367,-19.9825,0.00626426,0.0171647,0.0113057,0.0242653,-0.000836327,1.01,0.0164627,0.0451691,1217,344,4.26369,19.9825
0,680,4.88147,-20.4569,0,0,0,0,0,0,0,-1,1224,344,4.8815,20.4569
7,680,3.92957,-20.5577,-0.0056965,0.0179502,0.0125477,0.0233674,-0.0111137,1.16324,0.0203224,0.0483875,1231,344,3.92955,20.5577
14,680,4.01038,-20.6518,-0.010408,0.0204507,0.00999006,0.0234025,-0.0133598,1.2835,0.0214871,0.0427121,1238,344,4.01034,20.6518
21,680,4.05627,-20.7441,-0.0130924,0.0234117,0.00741963,0.0248621,-0.0145428,1.37774,0.023009,0.0422734,1245,344,4.05623,20.7442
28,680,3.60364,-20.8853,-0.0137252,0.0267047,0.00381943,0.0270624,-0.0140829,1.47743,0.024146,0.0424817,1252,344,3.60369,20.8853
35,680,3.56799,-20.8629,-0.0125441,0.0301362,-0.000328162,0.0301387,-0.0125466,-1.56311,0.0253324,0.0448186,1259,344,3.56795,20.8629
42,680,3.48669,-20.8322,0,0,0,0,0,0,0,-1,1266,344,3.48674,20.8322
49,680,2.82153,-20.644,-0.00488339,0.0351286,-0.00899932,0.0370595,-0.0068143,-1.35944,0.0272631,0.0409754,1273,344,2.82155,20.6441
56,680,2.99133,-20.7484,0.00373811,0.0382499,-0.0143824,0.0434577,-0.00146975,-1.22338,0.0294739,0.0388569,1280,344,2.99127,20.7484
63,680,3.52734,-20.6596,0.0116997,0.0387714,-0.018264,0.0479686,0.00250245,-1.1043,0.0311784,0.035465,1287,344,3.52734,20.6596
70,680,3.61145,-20.6276,0.0200966,0.0392251,-0.0205395,0.052318,0.00700368,-1.0033,0.0327944,0.035945,1294,344,3.61148,20.6276
77,680,3.66809,-20.6173,0.0278974,0.0383677,-0.0212395,0.0550077,0.0112574,-0.90623,0.0335549,0.041191,1301,344,3.66805,20.6173
84,680,3.62598,-20.3841,0,0,0,0,0,0,0,-1,1308,344,3.62595,20.3841
91,680,3.43347,-20.3031,0.0421607,0.0340437,-0.0191185,0.0576467,0.0185576,-0.68081,0.0339787,0.0483935,1315,344,3.43347,20.3031
98,680,2.39929,-20.2917,0.0467029,0.031254,-0.0166672,0.0573486,0.0206082,-0.568406,0.0335441,0.0456447,1322,344,2.39931,20.2918
105,680,3.23291,-20.5406,0.0483773,0.0286674,-0.0121692,0.0541815,0.0228632,-0.445047,0.0314084,0.0442781,1329,344,3.23292,20.5406
112,680,3.56323,-20.6227,0.0505225,0.0259864,-0.00717244,0.0524653,0.0240436,-0.264526,0.030326,0.0443618,1336,344,3.56326,20.6227
119,680,3.57788,-20.6371,0.0495423,0.0232617,-0.00140779,0.0496175,0.0231865,-0.0533639,0.0286671,0.0430154,1343,344,3.57782,20.6371
126,680,3.4115,-20.6113,0.0464621,0.0212309,0.00339921,0.046912,0.020781,0.131598,0.0271433,0.0453136,1350,344,3.41148,20.6113
133,680,2.92029,-20.3118,0,0,0,0,0,0,0,-1,1357,344,2.92029,20.3118
140,680,2.85962,-20.5107,0,0,0,0,0,0,0,-1,1364,344,2.85963,20.5107
147,680,2.7616,-20.4978,0,0,0,0,0,0,0,-1,1371,344,2.76165,20.4978
154,680,2.77722,-20.2467,0,0,0,0,0,0,0,-1,1378,344,2.77719,20.2467
161,680,3.42285,-19.4111,0,0,0,0,0,0,0,-1,1385,344,3.42288,19.4111
168,680,6.85046,1.69257,0,0,0,0,0,0,0,-1,1392,344,6.85045,-1.69257
175,680,6.66541,0.942078,0,0,0,0,0,0,0,-1,1399,344,6.66538,-0.942088
182,680,6.52917,0.532379,0,0,0,0,0,0,0,-1,1406,344,6.52922,-0.532385
189,680,7.55884,4.77695,0,0,0,0,0,0,0,-1,1413,344,7.55886,-4.77694
196,680,6.55627,3.35254,0,0,0,0,0,0,0,-1,1420,344,6.55622,-3.35255
203,680,5.7334,1.90753,0,0,0,0,0,0,0,-1,1427,344,5.73341,-1.90754
210,680,5.27515,0.493622,0,0,0,0,0,0,0,-1,1434,344,5.27514,-0.493632
217,680,6.56384,-0.374176,0,0,0,0,0,0,0,-1,1441,344,6.56379,0.374176
224,680,3.9491,-0.640228,0,0,0,0,0,0,0,-1,1448,344,3.94908,0.64024
231,680,4.24866,-1.96881,0,0,0,0,0,0,0,-1,1455,344,4.2486,1.96882
238,680,4.29333,-3.23984,0,0,0,0,0,0,0,-1,1462,344,4.29332,3.23984
245,680,2.44397,0.985382,0,0,0,0,0,0,0,-1,1469,344,2.44402,-0.985394
252,680,3.07349,2.18951,0,0,0,0,0,0,0,-1,1476,344,3.0735,-2.18952
259,680,2.82971,1.30682,0,0,0,0,0,0,0,-1,1483,344,2.82972,-1.30684
266,680,2.67554,1.44067,0,0,0,0,0,0,0,-1,1490,344,2.67551,-1.44066
273,680,2.46411,1.54666,0,0,0,0,0,0,0,-1,1497,344,2.46407,-1.54666
280,680,0,0,0,0,0,0,0,0,0,-1,1504,344,0,0
287,680,0,0,0,0,0,0,0,0,0,-1,1511,344,0,0
294,680,0,0,0,0,0,0,0,0,0,-1,1518,344,0,0
301,680,0,0,0,0,0,0,0,0,0,-1,1525,344,0,0
308,680,0,0,0,0,0,0,0,0,0,-1,1532,344,0,0
315,680,0,0,0,0,0,0,0,0,0,-1,1539,344,0,0
322,680,0,0,0,0,0,0,0,0,0,-1,1546,344,0,0
329,680,0,0,0,0,0,0,0,0,0,-1,1553,344,0,0
336,680,0,0,0,0,0,0,0,0,0,-1,1560,344,0,0
343,680,0,0,0,0,0,0,0,0,0,-1,1567,344,0,0
350,680,0,0,0,0,0,0,0,0,0,-1,1574,344,0,0
357,680,0,0,0,0,0,0,0,0,0,-1,1581,344,0,0
364,680,0,0,0,0,0,0,0,0,0,-1,1588,344,0,0
371,680,0,0,0,0,0,0,0,0,0,-1,1595,344,0,0
378,680,0,0,0,0,0,0,0,0,0,-1,1602,344,0,0
385,680,0,0,0,0,0,0,0,0,0,-1,1609,344,0,0
392,680,0,0,0,0,0,0,0,0,0,-1,1616,344,0,0
399,680,0,0,0,0,0,0,0,0,0,-1,1623,344,0,0
406,680,0,0,0,0,0,0,0,0,0,-1,1630,344,0,0
413,680,0,0,0,0,0,0,0,0,0,-1,1637,344,0,0
420,680,0,0,0,0,0,0,0,0,0,-1,1644,344,0,0
427,680,0,0,0,0,0,0,0,0,0,-1,1651,344,0,0
434,680,0,0,0,0,0,0,0,0,0,-1,1658,344,0,0
441,680,0,0,0,0,0,0,0,0,0,-1,1665,344,0,0
448,680,0,0,0,0,0,0,0,0,0,-1,1672,344,0,0
455,680,0,0,0,0,0,0,0,0,0,-1,1679,344,0,0
462,680,0,0,0,0,0,0,0,0,0,-1,1686,344,0,0
469,680,0,0,0,0,0,0,0,0,0,-1,1693,344,0,0
476,680,0,0,0,0,0,0,0,0,0,-1,1700,344,0,0
483,680,0,0,0,0,0,0,0,0,0,-1,1707,344,0,0
490,680,0,0,0,0,0,0,0,0,0,-1,1714,344,0,0
497,680,0,0,0,0,0,0,0,0,0,-1,1721,344,0,0
504,680,0,0,0,0,0,0,0,0,0,-1,1728,344,0,0
511,680,0,0,0,0,0,0,0,0,0,-1,1735,344,0,0
518,680,0,0,0,0,0,0,0,0,0,-1,1742,344,0,0
525,680,0,0,0,0,0,0,0,0,0,-1,1749,344,0,0
532,680,0,0,0,0,0,0,0,0,0,-1,1756,344,0,0
539,680,0,0,0,0,0,0,0,0,0,-1,1763,344,0,0
546,680,0,0,0,0,0,0,0,0,0,-1,1770,344,0,0
553,680,0,0,0,0,0,0,0,0,0,-1,1777,344,0,0
560,680,0,0,0,0,0,0,0,0,0,-1,1784,344,0,0
567,680,0,0,0,0,0,0,0,0,0,-1,1791,344,0,0
574,680,0,0,0,0,0,0,0,0,0,-1,1798,344,0,0
581,680,0,0,0,0,0,0,0,0,0,-1,1805,344,0,0
588,680,0,0,0,0,0,0,0,0,0,-1,1812,344,0,0
595,680,0,0,0,0,0,0,0,0,0,-1,1819,344,0,0
602,680,0,0,0,0,0,0,0,0,0,-1,1826,344,0,0
609,680,0,0,0,0,0,0,0,0,0,-1,1833,344,0,0
616,680,0,0,0,0,0,0,0,0,0,-1,1840,344,0,0
623,680,0,0,0,0,0,0,0,0,0,-1,1847,344,0,0
630,680,0,0,0,0,0,0,0,0,0,-1,1854,344,0,0
637,680,0,0,0,0,0,0,0,0,0,-1,1861,344,0,0
644,680,0,0,0,0,0,0,0,0,0,-1,1868,344,0,0
651,680,0,0,0,0,0,0,0,0,0,-1,1875,344,0,0
658,680,0,0,0,0,0,0,0,0,0,-1,1882,344,0,0
665,680,0,0,0,0,0,0,0,0,0,-1,1889,344,0,0
672,680,0,0,0,0,0,0,0,0,0,-1,1896,344,0,0
679,680,0,0,0,0,0,0,0,0,0,-1,1903,344,0,0
686,680,0,0,0,0,0,0,0,0,0,-1,1910,344,0,0
693,680,0,0,0,0,0,0,0,0,0,-1,1917,344,0,0
700,680,0,0,0,0,0,0,0,0,0,-1,1924,344,0,0
707,680,0,0,0,0,0,0,0,0,0,-1,1931,344,0,0
714,680,0,0,0,0,0,0,0,0,0,-1,1938,344,0,0
721,680,0,0,0,0,0,0,0,0,0,-1,1945,344,0,0
728,680,0,0,0,0,0,0,0,0,0,-1,1952,344,0,0
735,680,0,0,0,0,0,0,0,0,0,-1,1959,344,0,0
742,680,0,0,0,0,0,0,0,0,0,-1,1966,344,0,0
749,680,0,0,0,0,0,0,0,0,0,-1,1973,344,0,0
756,680,0,0,0,0,0,0,0,0,0,-1,1980,344,0,0
763,680,0,0,0,0,0,0,0,0,0,-1,1987,344,0,0
770,680,0,0,0,0,0,0,0,0,0,-1,1994,344,0,0
777,680,0,0,0,0,0,0,0,0,0,-1,2001,344,0,0
784,680,0,0,0,0,0,0,0,0,0,-1,2008,344,0,0
791,680,0,0,0,0,0,0,0,0,0,-1,2015,344,0,0
798,680,0,0,0,0,0,0,0,0,0,-1,2022,344,0,0
805,680,0,0,0,0,0,0,0,0,0,-1,2029,344,0,0
812,680,0,0,0,0,0,0,0,0,0,-1,2036,344,0,0
-700,673,0,0,0,0,0,0,0,0,0,-1,524,351,0,0
-693,673,0,0,0,0,0,0,0,0,0,-1,531,351,0,0
-686,673,0,0,0,0,0,0,0,0,0,-1,538,351,0,0
-679,673,0,0,0,0,0,0,0,0,0,-1,545,351,0,0
-672,673,0,0,0,0,0,0,0,0,0,-1,552,351,0,0
-665,673,0,0,0,0,0,0,0,0,0,-1,559,351,0,0
-658,673,0,0,0,0,0,0,0,0,0,-1,566,351,0,0
-651,673,0,0,0,0,0,0,0,0,0,-1,573,351,0,0
-644,673,0,0,0,0,0,0,0,0,0,-1,580,351,0,0
-637,673,0,0,0,0,0,0,0,0,0,-1,587,351,0,0
-630,673,0,0,0,0,0,0,0,0,0,-1,594,351,0,0
-623,673,0,0,0,0,0,0,0,0,0,-1,601,351,0,0
-616,673,0,0,0,0,0,0,0,0,0,-1,608,351,0,0
-609,673,0,0,0,0,0,0,0,0,0,-1,615,351,0,0
-602,673,0,0,0,0,0,0,0,0,0,-1,622,351,0,0
-595,673,0,0,0,0,0,0,0,0,0,-1,629,351,0,0
-588,673,0,0,0,0,0,0,0,0,0,-1,636,351,0,0
-581,673,0,0,0,0,0,0,0,0,0,-1,643,351,0,0
-574,673,0,0,0,0,0,0,0,0,0,-1,650,351,0,0
-567,673,0,0,0,0,0,0,0,0,0,-1,657,351,0,0
-560,673,0,0,0,0,0,0,0,0,0,-1,664,351,0,0
-553,673,0,0,0,0,0,0,0,0,0,-1,671,351,0,0
-546,673,0,0,0,0,0,0,0,0,0,-1,678,351,0,0
-539,673,0,0,0,0,0,0,0,0,0,-1,685,351,0,0
-532,673,0,0,0,0,0,0,0,0,0,-1,692,351,0,0
-525,673,0,0,0,0,0,0,0,0,0,-1,699,351,0,0
-518,673,0,0,0,0,0,0,0,0,0,-1,706,351,0,0
-511,673,0,0,0,0,0,0,0,0,0,-1,713,351,0,0
-504,673,0,0,0,0,0,0,0,0,0,-1,720,351,0,0
-497,673,0,0,0,0,0,0,0,0,0,-1,727,351,0,0
-490,673,0,0,0,0,0,0,0,0,0,-1,734,351,0,0
-483,673,0,0,0,0,0,0,0,0,0,-1,741,351,0,0
-476,673,0,0,0,0,0,0,0,0,0,-1,748,351,0,0
-469,673,0,0,0,0,0,0,0,0,0,-1,755,351,0,0
-462,673,0,0,0,0,0,0,0,0,0,-1,762,351,0,0
-455,673,0,0,0,0,0,0,0,0,0,-1,769,351,0,0
-448,673,0,0,0,0,0,0,0,0,0,-1,776,351,0,0
-441,673,0,0,0,0,0,0,0,0,0,-1,783,351,0,0
-434,673,0,0,0,0,0,0,0,0,0,-1,790,351,0,0
-427,673,0,0,0,0,0,0,0,0,0,-1,797,351,0,0
-420,673,0,0,0,0,0,0,0,0,0,-1,804,351,0,0
-413,673,0,0,0,0,0,0,0,0,0,-1,811,351,0,0
-406,673,0,0,0,0,0,0,0,0,0,-1,818,351,0,0
-399,673,0,0,0,0,0,0,0,0,0,-1,825,351,0,0
-392,673,0,0,0,0,0,0,0,0,0,-1,832,351,0,0
-385,673,0,0,0,0,0,0,0,0,0,-1,839,351,0,0
-378,673,0,0,0,0,0,0,0,0,0,-1,846,351,0,0
-371,673,0,0,0,0,0,0,0,0,0,-1,853,351,0,0
-364,673,0,0,0,0,0,0,0,0,0,-1,860,351,0,0
-357,673,0,0,0,0,0,0,0,0,0,-1,867,351,0,0
-350,673,0,0,0,0,0,0,0,0,0,-1,874,351,0,0
-343,673,0,0,0,0,0,0,0,0,0,-1,881,351,0,0
-336,673,0,0,0,0,0,0,0,0,0,-1,888,351,0,0
-329,673,0,0,0,0,0,0,0,0,0,-1,895,351,0,0
-322,673,0,0,0,0,0,0,0,0,0,-1,902,351,0,0
-315,673,0,0,0,0,0,0,0,0,0,-1,909,351,0,0
-308,673,0,0,0,0,0,0,0,0,0,-1,916,351,0,0
-301,673,0,0,0,0,0,0,0,0,0,-1,923,351,0,0
-294,673,0,0,0,0,0,0,0,0,0,-1,930,351,0,0
-287,673,0,0,0,0,0,0,0,0,0,-1,937,351,0,0
-280,673,0,0,0,0,0,0,0,0,0,-1,944,351,0,0
-273,673,0,0,0,0,0,0,0,0,0,-1,951,351,0,0
-266,673,0,0,0,0,0,0,0,0,0,-1,958,351,0,0
-259,673,0,0,0,0,0,0,0,0,0,-1,965,351,0,0
-252,673,0,0,0,0,0,0,0,0,0,-1,972,351,0,0
-245,673,0,0,0,0,0,0,0,0,0,-1,979,351,0,0
-238,673,0,0,0,0,0,0,0,0,0,-1,986,351,0,0
-231,673,0,0,0,0,0,0,0,0,0,-1,993,351,0,0
-224,673,0,0,0,0,0,0,0,0,0,-1,1000,351,0,0
-217,673,0,0,0,0,0,0,0,0,0,-1,1007,351,0,0
-210,673,0,0,0,0,0,0,0,0,0,-1,1014,351,0,0
-203,673,0,0,0,0,0,0,0,0,0,-1,1021,351,0,0
-196,673,0,0,0,0,0,0,0,0,0,-1,1028,351,0,0
-189,673,0,0,0,0,0,0,0,0,0,-1,1035,351,0,0
-182,673,0,0,0,0,0,0,0,0,0,-1,1042,351,0,0
-175,673,2.65991,-15.9225,0,0,0,0,0,0,0,-1,1049,351,2.65986,15.9225
-168,673,0.619263,-13.9949,0,0,0,0,0,0,0,-1,1056,351,0.61923,13.9949
-161,673,6.60425,-20.7657,0,0,0,0,0,0,0,-1,1063,351,6.60425,20.7657
-154,673,6.54773,-20.8954,-0.00466408,-0.0743928,0.0767394,0.0447595,-0.123816,0.572177,0.100832,0.0451139,1070,351,6.54767,20.8954
-147,673,6.60413,-20.6933,-2.17217e-05,-0.0654656,0.0773567,0.0512491,-0.116736,0.58531,0.0994128,0.0438776,1077,351,6.60415,20.6933
-140,673,6.60107,-20.1725,0,0,0,0,0,0,0,-1,1084,351,6.60113,20.1725
-133,673,6.77747,-18.932,0,0,0,0,0,0,0,-1,1091,351,6.77742,18.932
-126,673,7.09851,-19.2485,0.0101886,-0.0370104,0.071362,0.0617521,-0.0885739,0.625708,0.08725,0.0449254,1098,351,7.09853,19.2485
-119,673,7.44446,-19.09,0.0121974,-0.0283691,0.0671716,0.0620813,-0.0782531,0.63877,0.0812012,0.0440467,1105,351,7.4444,19.09
-112,673,7.72119,-18.7795,0,0,0,0,0,0,0,-1,1112,351,7.72119,18.7795
-105,673,8.13147,-18.1407,0,0,0,0,0,0,0,-1,1119,351,8.13148,18.1407
-98,673,3.3938,-19.2992,0,0,0,0,0,0,0,-1,1126,351,3.39374,19.2992
-91,673,3.01318,-18.1759,0,0,0,0,0,0,0,-1,1133,351,3.01314,18.1759
-84,673,2.31641,-13.7224,0,0,0,0,0,0,0,-1,1140,351,2.31642,13.7223
-77,673,1.60266,-8.87473,0,0,0,0,0,0,0,-1,1147,351,1.60268,8.87474
-70,673,1.88684,-4.7381,0,0,0,0,0,0,0,-1,1154,351,1.88682,4.73809
-63,673,1.11719,-2.95016,0,0,0,0,0,0,0,-1,1161,351,1.11724,2.95016
-56,673,-6.18872,-9.52338,0,0,0,0,0,0,0,-1,1168,351,-6.18874,9.52336
-49,673,-0.926758,-0.115448,0,0,0,0,0,0,0,-1,1175,351,-0.926732,0.115444
-42,673,-1.15015,0.289917,0,0,0,0,0,0,0,-1,1182,351,-1.15017,-0.289932
-35,673,-0.919556,-1.00711,0,0,0,0,0,0,0,-1,1189,351,-0.919514,1.00711
-28,673,1.03564,-2.58228,0,0,0,0,0,0,0,-1,1196,351,1.0356,2.58229
-21,673,3.55286,-20.5343,0,0,0,0,0,0,0,-1,1203,351,3.55289,20.5343
-14,673,3.44385,-20.4489,0.00766168,0.0159166,0.00736606,0.0202328,0.00334553,1.04077,0.0125232,0.0428902,1210,351,3.44383,20.4489
-7,673,3.81152,-20.5065,0.00408866,0.0156827,0.00888512,0.0204947,-0.000723319,1.07444,0.0139105,0.0385621,1217,351,3.81152,20.5065
0,673,3.80835,-20.6667,0.000614253,0.015329,0.00990887,0.0203133,-0.00437005,1.10474,0.0152096,0.0435856,1224,351,3.80835,20.6667
7,673,3.66113,-20.7598,-0.00413169,0.0160297,0.00959867,0.0198686,-0.00797059,1.19034,0.016555,0.0448325,1231,351,3.66119,20.7598
14,673,3.58679,-20.8409,-0.00729212,0.0176831,0.00770316,0.0198679,-0.0094769,1.29443,0.0172926,0.0378783,1238,351,3.58681,20.8409
21,673,3.49182,-20.9345,-0.00918535,0.019638,0.005955,0.0208198,-0.0103672,1.37488,0.0183399,0.0232275,1245,351,3.49188,20.9345
28,673,3.50659,-20.959,-0.00956853,0.0218738,0.00343835,0.0222454,-0.00994014,1.46314,0.0190296,0.0163128,1252,351,3.50661,20.959
35,673,3.48987,-20.9547,-0.00868009,0.024211,0.00051953,0.0242192,-0.00868829,1.55501,0.0196919,0.0260812,1259,351,3.48989,20.9547
42,673,3.38049,-20.932,-0.00784974,0.0262384,-0.00217158,0.0263762,-0.00798753,-1.50743,0.0207652,0.0303344,1266,351,3.38046,20.9321
49,673,3.32324,-20.9639,-0.00333725,0.0278317,-0.00578228,0.0288698,-0.00437537,-1.39315,0.0208585,0.0179235,1273,351,3.32325,20.9639
56,673,3.32825,-20.9752,0.00312925,0.0301228,-0.0096915,0.0332419,1.01235e-05,-1.25942,0.0221579,0.0145578,1280,351,3.32826,20.9752
63,673,3.37793,-20.9284,0.00902511,0.0306119,-0.0125609,0.0363797,0.00325731,-1.14033,0.0232436,0.0169167,1287,351,3.37799,20.9284
70,673,3.38074,-20.8513,0.0152129,0.0310284,-0.0142209,0.0393923,0.00684898,-1.03914,0.0243024,0.0260659,1294,351,3.38073,20.8513
77,673,3.38623,-20.8875,0.0208007,0.0304456,-0.0146481,0.0410447,0.0102016,-0.94442,0.0246758,0.0354893,1301,351,3.38624,20.8875
84,673,3.56128,-20.9667,0,0,0,0,0,0,0,-1,1308,351,3.56129,20.9667
91,673,3.23132,-21.0728,0.0308848,0.0273758,-0.0130846,0.042332,0.0159286,-0.718751,0.0246885,0.0452866,1315,351,3.23132,21.0728
98,673,2.81213,-20.6764,0.0338631,0.0252887,-0.0112713,0.041635,0.0175168,-0.603666,0.0241385,0.0441327,1322,351,2.81217,20.6764
105,673,3.99255,-20.6222,0,0,0,0,0,0,0,-1,1329,351,3.99254,20.6222
112,673,4.18909,-20.7424,0,0,0,0,0,0,0,-1,1336,351,4.18912,20.7424
119,673,3.30164,-20.5617,0,0,0,0,0,0,0,-1,1343,351,3.3016,20.5617
126,673,3.20276,-20.554,0.0326511,0.0178818,0.00287327,0.0331904,0.0173425,0.185531,0.0191689,0.0431638,1350,351,3.20276,20.554
133,673,2.96729,-20.407,0.0298198,0.0165496,0.00616013,0.0322385,0.0141309,0.374146,0.0186601,0.0438728,1357,351,2.96723,20.407
140,673,2.91858,-20.5084,0.0271666,0.0152528,0.00911895,0.0321019,0.0103175,0.496072,0.0189241,0.0411998,1364,351,2.9186,20.5084
147,673,2.82422,-20.448,0.0250331,0.0141084,0.0116642,0.0324506,0.00669086,0.566414,0.0197842,0.0408671,1371,351,2.82425,20.448
154,673,2.81445,-20.11,0.0210682,0.0132909,0.0143424,0.0320397,0.00231933,0.653015,0.0206302,0.0394625,1378,351,2.81448,20.11
161,673,2.78894,-19.9132,0,0,0,0,0,0,0,-1,1385,351,2.7889,19.9132
168,673,6.87061,1.83954,0,0,0,0,0,0,0,-1,1392,351,6.87063,-1.83953
175,673,6.6228,1.1459,0,0,0,0,0,0,0,-1,1399,351,6.62276,-1.14591
182,673,6.37244,0.796112,0,0,0,0,0,0,0,-1,1406,351,6.3724,-0.796102
189,673,6.12097,0.265472,0,0,0,0,0,0,0,-1,1413,351,6.121,-0.265482
196,673,6.02173,3.12717,0,0,0,0,0,0,0,-1,1420,351,6.02176,-3.12717
203,673,5.04456,1.6351,0,0,0,0,0,0,0,-1,1427,351,5.04455,-1.63509
210,673,4.79224,0.447479,0,0,0,0,0,0,0,-1,1434,351,4.79229,-0.447469
217,673,2.01648,0.972687,0,0,0,0,0,0,0,-1,1441,351,2.01644,-0.972691
224,673,2.3689,-1.80539,0,0,0,0,0,0,0,-1,1448,351,2.36896,1.80539
231,673,2.65857,-2.18497,0,0,0,0,0,0,0,-1,1455,351,2.65852,2.18496
238,673,3.77844,-2.06088,0,0,0,0,0,0,0,-1,1462,351,3.77839,2.06088
245,673,3.5376,-0.190399,0,0,0,0,0,0,0,-1,1469,351,3.53759,0.1904
252,673,3.80518,0.55603,0,0,0,0,0,0,0,-1,1476,351,3.80519,-0.556022
259,673,3.88562,1.29617,0,0,0,0,0,0,0,-1,1483,351,3.88562,-1.29618
266,673,4.22424,2.04834,0,0,0,0,0,0,0,-1,1490,351,4.22429,-2.04834
273,673,6.07886,0.385895,0,0,0,0,0,0,0,-1,1497,351,6.0789,-0.385906
280,673,6.97534,-0.0820007,0,0,0,0,0,0,0,-1,1504,351,6.97536,0.0820122
287,673,7.66968,-0.348541,0,0,0,0,0,0,0,-1,1511,351,7.66969,0.348534
294,673,8.20996,0.28537,0,0,0,0,0,0,0,-1,1518,351,8.20993,-0.28536
301,673,0,0,0,0,0,0,0,0,0,-1,1525,351,0,0
308,673,0,0,0,0,0,0,0,0,0,-1,1532,351,0,0
315,673,0,0,0,0,0,0,0,0,0,-1,1539,351,0,0
322,673,0,0,0,0,0,0,0,0,0,-1,1546,351,0,0
329,673,0,0,0,0,0,0,0,0,0,-1,1553,351,0,0
336,673,0,0,0,0,0,0,0,0,0,-1,1560,351,0,0
343,673,0,0,0,0,0,0,0,0,0,-1,1567,351,0,0
350,673,0,0,0,0,0,0,0,0,0,-1,1574,351,0,0
357,673,0,0,0,0,0,0,0,0,0,-1,1581,351,0,0
364,673,0,0,0,0,0,0,0,0,0,-1,1588,351,0,0
371,673,0,0,0,0,0,0,0,0,0,-1,1595,351,0,0
378,673,0,0,0,0,0,0,0,0,0,-1,1602,351,0,0
385,673,0,0,0,0,0,0,0,0,0,-1,1609,351,0,0
392,673,0,0,0,0,0,0,0,0,0,-1,1616,351,0,0
399,673,0,0,0,0,0,0,0,0,0,-1,1623,351,0,0
406,673,0,0,0,0,0,0,0,0,0,-1,1630,351,0,0
413,673,0,0,0,0,0,0,0,0,0,-1,1637,351,0,0
420,673,0,0,0,0,0,0,0,0,0,-1,1644,351,0,0
427,673,0,0,0,0,0,0,0,0,0,-1,1651,351,0,0
434,673,0,0,0,0,0,0,0,0,0,-1,1658,351,0,0
441,673,0,0,0,0,0,0,0,0,0,-1,1665,351,0,0
448,673,0,0,0,0,0,0,0,0,0,-1,1672,351,0,0
455,673,0,0,0,0,0,0,0,0,0,-1,1679,351,0,0
462,673,0,0,0,0,0,0,0,0,0,-1,1686,351,0,0
469,673,0,0,0,0,0,0,0,0,0,-1,1693,351,0,0
476,673,0,0,0,0,0,0,0,0,0,-1,1700,351,0,0
483,673,0,0,0,0,0,0,0,0,0,-1,1707,351,0,0
490,673,0,0,0,0,0,0,0,0,0,-1,1714,351,0,0
497,673,0,0,0,0,0,0,0,0,0,-1,1721,351,0,0
504,673,0,0,0,0,0,0,0,0,0,-1,1728,351,0,0
511,673,0,0,0,0,0,0,0,0,0,-1,1735,351,0,0
518,673,0,0,0,0,0,0,0,0,0,-1,1742,351,0,0
525,673,0,0,0,0,0,0,0,0,0,-1,1749,351,0,0
532,673,0,0,0,0,0,0,0,0,0,-1,1756,351,0,0
539,673,0,0,0,0,0,0,0,0,0,-1,1763,351,0,0
546,673,0,0,0,0,0,0,0,0,0,-1,1770,351,0,0
553,673,0,0,0,0,0,0,0,0,0,-1,1777,351,0,0
560,673,0,0,0,0,0,0,0,0,0,-1,1784,351,0,0
567,673,0,0,0,0,0,0,0,0,0,-1,1791,351,0,0
574,673,0,0,0,0,0,0,0,0,0,-1,1798,351,0,0
581,673,0,0,0,0,0,0,0,0,0,-1,1805,351,0,0
588,673,0,0,0,0,0,0,0,0,0,-1,1812,351,0,0
595,673,0,0,0,0,0,0,0,0,0,-1,1819,351,0,0
602,673,0,0,0,0,0,0,0,0,0,-1,1826,351,0,0
609,673,0,0,0,0,0,0,0,0,0,-1,1833,351,0,0
616,673,0,0,0,0,0,0,0,0,0,-1,1840,351,0,0
623,673,0,0,0,0,0,0,0,0,0,-1,1847,351,0,0
630,673,0,0,0,0,0,0,0,0,0,-1,1854,351,0,0
637,673,0,0,0,0,0,0,0,0,0,-1,1861,351,0,0
644,673,0,0,0,0,0,0,0,0,0,-1,1868,351,0,0
651,673,0,0,0,0,0,0,0,0,0,-1,1875,351,0,0
658,673,0,0,0,0,0,0,0,0,0,-1,1882,351,0,0
665,673,0,0,0,0,0,0,0,0,0,-1,1889,351,0,0
672,673,0,0,0,0,0,0,0,0,0,-1,1896,351,0,0
679,673,0,0,0,0,0,0,0,0,0,-1,1903,351,0,0
686,673,0,0,0,0,0,0,0,0,0,-1,1910,351,0,0
693,673,0,0,0,0,0,0,0,0,0,-1,1917,351,0,0
700,673,0,0,0,0,0,0,0,0,0,-1,1924,351,0,0
707,673,0,0,0,0,0,0,0,0,0,-1,1931,351,0,0
714,673,0,0,0,0,0,0,0,0,0,-1,1938,351,0,0
721,673,0,0,0,0,0,0,0,0,0,-1,1945,351,0,0
728,673,0,0,0,0,0,0,0,0,0,-1,1952,351,0,0
735,673,0,0,0,0,0,0,0,0,0,-1,1959,351,0,0
742,673,0,0,0,0,0,0,0,0,0,-1,1966,351,0,0
749,673,0,0,0,0,0,0,0,0,0,-1,1973,351,0,0
756,673,0,0,0,0,0,0,0,0,0,-1,1980,351,0,0
763,673,0,0,0,0,0,0,0,0,0,-1,1987,351,0,0
770,673,0,0,0,0,0,0,0,0,0,-1,1994,351,0,0
777,673,0,0,0,0,0,0,0,0,0,-1,2001,351,0,0
784,673,0,0,0,0,0,0,0,0,0,-1,2008,351,0,0
791,673,0,0,0,0,0,0,0,0,0,-1,2015,351,0,0
798,673,0,0,0,0,0,0,0,0,0,-1,2022,351,0,0
805,673,0,0,0,0,0,0,0,0,0,-1,2029,351,0,0
812,673,0,0,0,0,0,0,0,0,0,-1,2036,351,0,0
-700,666,0,0,0,0,0,0,0,0,0,-1,524,358,0,0
-693,666,0,0,0,0,0,0,0,0,0,-1,531,358,0,0
-686,666,0,0,0,0,0,0,0,0,0,-1,538,358,0,0
-679,666,0,0,0,0,0,0,0,0,0,-1,545,358,0,0
-672,666,0,0,0,0,0,0,0,0,0,-1,552,358,0,0
-665,666,0,0,0,0,0,0,0,0,0,-1,559,358,0,0
-658,666,0,0,0,0,0,0,0,0,0,-1,566,358,0,0
-651,666,0,0,0,0,0,0,0,0,0,-1,573,358,0,0
-644,666,0,0,0,0,0,0,0,0,0,-1,580,358,0,0
-637,666,0,0,0,0,0,0,0,0,0,-1,587,358,0,0
-630,666,0,0,0,0,0,0,0,0,0,-1,594,358,0,0
-623,666,0,0,0,0,0,0,0,0,0,-1,601,358,0,0
-616,666,0,0,0,0,0,0,0,0,0,-1,608,358,0,0
-609,666,0,0,0,0,0,0,0,0,0,-1,615,358,0,0
-602,666,0,0,0,0,0,0,0,0,0,-1,622,358,0,0
-595,666,0,0,0,0,0,0,0,0,0,-1,629,358,0,0
-588,666,0,0,0,0,0,0,0,0,0,-1,636,358,0,0
-581,666,0,0,0,0,0,0,0,0,0,-1,643,358,0,0
-574,666,0,0,0,0,0,0,0,0,0,-1,650,358,0,0
-567,666,0,0,0,0,0,0,0,0,0,-1,657,358,0,0
-560,666,0,0,0,0,0,0,0,0,0,-1,664,358,0,0
-553,666,0,0,0,0,0,0,0,0,0,-1,671,358,0,0
-546,666,0,0,0,0,0,0,0,0,0,-1,678,358,0,0
-539,666,0,0,0,0,0,0,0,0,0,-1,685,358,0,0
-532,666,0,0,0,0,0,0,0,0,0,-1,692,358,0,0
-525,666,0,0,0,0,0,0,0,0,0,-1,699,358,0,0
-518,666,0,0,0,0,0,0,0,0,0,-1,706,358,0,0
-511,666,0,0,0,0,0,0,0,0,0,-1,713,358,0,0
-504,666,0,0,0,0,0,0,0,0,0,-1,720,358,0,0
-497,666,0,0,0,0,0,0,0,0,0,-1,727,358,0,0
-490,666,0,0,0,0,0,0,0,0,0,-1,734,358,0,0
-483,666,0,0,0,0,0,0,0,0,0,-1,741,358,0,0
-476,666,0,0,0,0,0,0,0,0,0,-1,748,358,0,0
-469,666,0,0,0,0,0,0,0,0,0,-1,755,358,0,0
-462,666,0,0,0,0,0,0,0,0,0,-1,762,358,0,0
-455,666,0,0,0,0,0,0,0,0,0,-1,769,358,0,0
-448,666,0,0,0,0,0,0,0,0,0,-1,776,358,0,0
-441,666,0,0,0,0,0,0,0,0,0,-1,783,358,0,0
-434,666,0,0,0,0,0,0,0,0,0,-1,790,358,0,0
-427,666,0,0,0,0,0,0,0,0,0,-1,797,358,0,0
-420,666,0,0,0,0,0,0,0,0,0,-1,804,358,0,0
-413,666,0,0,0,0,0,0,0,0,0,-1,811,358,0,0
-406,666,0,0,0,0,0,0,0,0,0,-1,818,358,0,0
-399,666,0,0,0,0,0,0,0,0,0,-1,825,358,0,0
-392,666,0,0,0,0,0,0,0,0,0,-1,832,358,0,0
-385,666,0,0,0,0,0,0,0,0,0,-1,839,358,0,0
-378,666,0,0,0,0,0,0,0,0,0,-1,846,358,0,0
-371,666,0,0,0,0,0,0,0,0,0,-1,853,358,0,0
-364,666,0,0,0,0,0,0,0,0,0,-1,860,358,0,0
-357,666,0,0,0,0,0,0,0,0,0,-1,867,358,0,0
-350,666,0,0,0,0,0,0,0,0,0,-1,874,358,0,0
-343,666,0,0,0,0,0,0,0,0,0,-1,881,358,0,0
-336,666,0,0,0,0,0,0,0,0,0,-1,888,358,0,0
-329,666,0,0,0,0,0,0,0,0,0,-1,895,358,0,0
-322,666,0,0,0,0,0,0,0,0,0,-1,902,358,0,0
-315,666,0,0,0,0,0,0,0,0,0,-1,909,358,0,0
-308,666,0,0,0,0,0,0,0,0,0,-1,916,358,0,0
-301,666,0,0,0,0,0,0,0,0,0,-1,923,358,0,0
-294,666,0,0,0,0,0,0,0,0,0,-1,930,358,0,0
-287,666,0,0,0,0,0,0,0,0,0,-1,937,358,0,0
-280,666,0,0,0,0,0,0,0,0,0,-1,944,358,0,0
-273,666,0,0,0,0,0,0,0,0,0,-1,951,358,0,0
-266,666,0,0,0,0,0,0,0,0,0,-1,958,358,0,0
-259,666,0,0,0,0,0,0,0,0,0,-1,965,358,0,0
-252,666,0,0,0,0,0,0,0,0,0,-1,972,358,0,0
-245,666,0,0,0,0,0,0,0,0,0,-1,979,358,0,0
-238,666,0,0,0,0,0,0,0,0,0,-1,986,358,0,0
-231,666,0,0,0,0,0,0,0,0,0,-1,993,358,0,0
-224,666,0,0,0,0,0,0,0,0,0,-1,1000,358,0,0
-217,666,0,0,0,0,0,0,0,0,0,-1,1007,358,0,0
-210,666,0,0,0,0,0,0,0,0,0,-1,1014,358,0,0
-203,666,0,0,0,0,0,0,0,0,0,-1,1021,358,0,0
-196,666,6.60352,-18.3707,0,0,0,0,0,0,0,-1,1028,358,6.60355,18.3707
-189,666,6.39758,-18.0365,0,0,0,0,0,0,0,-1,1035,358,6.39754,18.0365
-182,666,6.09619,-17.953,0,0,0,0,0,0,0,-1,1042,358,6.09622,17.953
-175,666,5.36121,-18.2244,0,0,0,0,0,0,0,-1,1049,358,5.36126,18.2244
-168,666,6.71875,-19.2199,0,0,0,0,0,0,0,-1,1056,358,6.71878,19.2199
-161,666,6.42004,-19.8764,0,0,0,0,0,0,0,-1,1063,358,6.42005,19.8764
-154,666,5.94482,-20.2328,-0.00372588,-0.0582902,0.0595201,0.0344668,-0.0964829,0.570502,0.078379,0.0482592,1070,358,5.94481,20.2328
-147,666,5.66663,-19.9849,-0.00056286,-0.0515681,0.0598587,0.0389994,-0.0911304,0.58402,0.0771139,0.0454226,1077,358,5.66664,19.9849
-140,666,5.91956,-19.3294,0,0,0,0,0,0,0,-1,1084,358,5.91952,19.3294
-133,666,5.99011,-19.0827,0.00451972,-0.0366601,0.0574443,0.0449527,-0.077093,0.613314,0.0712729,0.0429267,1091,358,5.99012,19.0827
-126,666,6.11438,-19.1704,0.00627723,-0.0293377,0.0546765,0.045973,-0.0690335,0.627971,0.0668425,0.0425836,1098,358,6.11434,19.1704
-119,666,6.52686,-19.2468,0.00745554,-0.0225641,0.0510246,0.0456323,-0.0607408,0.642349,0.0616207,0.0426032,1105,358,6.52681,19.2468
-112,666,6.92346,-19.1613,0,0,0,0,0,0,0,-1,1112,358,6.9235,19.1613
-105,666,4.04712,-19.5422,0,0,0,0,0,0,0,-1,1119,358,4.04717,19.5422
-98,666,3.62524,-19.3692,0,0,0,0,0,0,0,-1,1126,358,3.62522,19.3692
-91,666,3.27173,-18.4254,0,0,0,0,0,0,0,-1,1133,358,3.27179,18.4254
-84,666,2.5249,-14.169,0,0,0,0,0,0,0,-1,1140,358,2.52485,14.169
-77,666,0.964722,-10.3601,0,0,0,0,0,0,0,-1,1147,358,0.964669,10.3601
-70,666,2.05957,-6.51086,0,0,0,0,0,0,0,-1,1154,358,2.05959,6.51088
-63,666,1.47485,-3.79593,0,0,0,0,0,0,0,-1,1161,358,1.47481,3.79593
-56,666,0.424683,-2.04132,0,0,0,0,0,0,0,-1,1168,358,0.424665,2.04132
-49,666,0.754395,-2.23169,0,0,0,0,0,0,0,-1,1175,358,0.754383,2.23169
-42,666,1.34473,-3.53897,0,0,0,0,0,0,0,-1,1182,358,1.34476,3.53896
-35,666,3.39148,-20.8348,0,0,0,0,0,0,0,-1,1189,358,3.39148,20.8348
-28,666,3.57349,-20.5573,0,0,0,0,0,0,0,-1,1196,358,3.57344,20.5573
-21,666,3.53662,-20.6588,0.00747004,0.0131751,0.0046578,0.0157845,0.00486071,1.06015,0.00933458,0.0328505,1203,358,3.53667,20.6588
-14,666,3.48132,-20.7481,0.00500234,0.013533,0.00555912,0.0162746,0.00226075,1.11263,0.0101802,0.0260608,1210,358,3.48131,20.7481
-7,666,3.4801,-20.8081,0.00254955,0.0134244,0.00672391,0.0166343,-0.000660378,1.1254,0.0113161,0.0169248,1217,358,3.48009,20.8081
0,666,3.50232,-20.886,0.000224337,0.013141,0.00739605,0.0165016,-0.00313628,1.14431,0.0121818,0.0121229,1224,358,3.50226,20.886
7,666,3.4751,-20.9226,-0.00287949,0.0135637,0.00714399,0.0162339,-0.00554969,1.21311,0.0130713,0.0157058,1231,358,3.47513,20.9226
14,666,3.47754,-20.9249,-0.00491968,0.0146202,0.00581195,0.0162182,-0.0065177,1.30247,0.013519,0.0151581,1238,358,3.47749,20.9249
21,666,3.44275,-20.9834,-0.00621055,0.0158724,0.00466709,0.0168182,-0.00715639,1.37084,0.0142115,0.0107889,1245,358,3.44272,20.9834
28,666,3.41553,-21.0436,-0.00642949,0.0173343,0.00296814,0.0176995,-0.00679461,1.4484,0.0146013,0.0110306,1252,358,3.41551,21.0436
35,666,3.41162,-21.037,-0.00578522,0.0188515,0.000990028,0.0188912,-0.00582494,1.5307,0.0149197,0.011437,1259,358,3.41167,21.037
42,666,3.3606,-21.0324,-0.00537936,0.0202368,-0.000826284,0.0202634,-0.00540599,-1.53858,0.0156258,0.0128295,1266,358,3.36059,21.0324
49,666,3.31873,-21.0464,-0.00225482,0.021383,-0.00343837,0.021873,-0.00274481,-1.42924,0.0155777,0.0102815,1273,358,3.31877,21.0465
56,666,3.3219,-21.0645,0.00239147,0.0230142,-0.00618315,0.0247259,0.00067971,-1.30072,0.0162621,0.0116736,1280,358,3.32195,21.0645
63,666,3.27429,-21.0765,0.00659684,0.0234601,-0.00823642,0.0268154,0.00324157,-1.18395,0.0169003,0.0140487,1287,358,3.27428,21.0765
70,666,3.27466,-21.0322,0.0109897,0.0238486,-0.00941759,0.0288221,0.00601613,-1.08491,0.0175564,0.0140045,1294,358,3.27465,21.0322
77,666,3.26221,-21.0108,0.0148617,0.0234958,-0.00967429,0.0297726,0.00858494,-0.995261,0.0176951,0.0174523,1301,358,3.26218,21.0108
84,666,3.2522,-21.0553,0.0184131,0.022894,-0.0091115,0.0300365,0.0112706,-0.905954,0.0175206,0.0227391,1308,358,3.25218,21.0553
91,666,3.21814,-21.0036,0.0217399,0.0214264,-0.00857594,0.0301605,0.0130058,-0.77626,0.017468,0.0207465,1315,358,3.21816,21.0036
98,666,3.11475,-20.9331,0.0235982,0.0199262,-0.00728039,0.0292705,0.0142539,-0.661881,0.0169012,0.0170958,1322,358,3.11479,20.9331
105,666,3.05334,-20.8445,0.0240346,0.018641,-0.00501092,0.0270283,0.0156472,-0.538535,0.0156694,0.0185686,1329,358,3.05339,20.8445
112,666,3.12,-20.6224,0.0246616,0.0172549,-0.00251399,0.0254343,0.0164823,-0.298192,0.0148975,0.0372559,1336,358,3.12,20.6224
119,666,3.12598,-20.495,0.0237851,0.0157296,0.000348169,0.0238001,0.0157146,0.0431142,0.0139743,0.0408929,1343,358,3.12599,20.495
126,666,3.0188,-20.547,0.021926,0.01459,0.00243989,0.0226633,0.0138526,0.293487,0.0131922,0.0270983,1350,358,3.01882,20.547
133,666,3.01965,-20.5209,0.0197207,0.0135605,0.0045571,0.0221409,0.0111402,0.48822,0.0127832,0.0229453,1357,358,3.01967,20.5209
140,666,2.99109,-20.512,0.0175155,0.012576,0.00642737,0.0219313,0.0081602,0.601966,0.0127994,0.0205774,1364,358,2.99112,20.512
147,666,2.91699,-20.3771,0.015882,0.0115421,0.00793145,0.021935,0.00548912,0.651871,0.0131803,0.0191945,1371,358,2.91699,20.3771
154,666,2.92639,-20.197,0.0124694,0.0107652,0.00973564,0.0213901,0.00184442,0.741748,0.0136868,0.0175371,1378,358,2.92638,20.197
161,666,2.95728,-20.11,0.00875346,0.00916218,0.0119373,0.0208969,-0.00298124,0.793957,0.0150239,0.0247416,1385,358,2.9573,20.11
168,666,2.953,-20.1558,0,0,0,0,0,0,0,-1,1392,358,2.95301,20.1558
175,666,3.12598,-20.1815,0,0,0,0,0,0,0,-1,1399,358,3.12599,20.1815
182,666,2.60876,-5.17068,0,0,0,0,0,0,0,-1,1406,358,2.6088,5.17068
189,666,2.46973,-5.49979,0,0,0,0,0,0,0,-1,1413,358,2.46975,5.49979
196,666,2.32458,-5.23651,0,0,0,0,0,0,0,-1,1420,358,2.32461,5.23653
203,666,2.28064,-3.88004,0,0,0,0,0,0,0,-1,1427,358,2.28059,3.88003
210,666,3.02576,-5.83548,0,0,0,0,0,0,0,-1,1434,358,3.02581,5.83547
217,666,2.30444,-5.36011,0,0,0,0,0,0,0,-1,1441,358,2.30447,5.3601
224,666,1.82324,-6.03101,0,0,0,0,0,0,0,-1,1448,358,1.82322,6.031
231,666,2.29797,-10.1093,0,0,0,0,0,0,0,-1,1455,358,2.29801,10.1093
238,666,2.52429,-6.10568,0,0,0,0,0,0,0,-1,1462,358,2.52423,6.10567
245,666,4.53345,-1.38205,0,0,0,0,0,0,0,-1,1469,358,4.53349,1.38204
252,666,4.77405,-0.246979,0,0,0,0,0,0,0,-1,1476,358,4.77405,0.246993
259,666,4.83655,1.14087,0,0,0,0,0,0,0,-1,1483,358,4.83652,-1.14087
266,666,6.14148,0.749512,0,0,0,0,0,0,0,-1,1490,358,6.14144,-0.749519
273,666,2.61304,-1.53772,0,0,0,0,0,0,0,-1,1497,358,2.613,1.53773
280,666,8.70898,-0.836975,0,0,0,0,0,0,0,-1,1504,358,8.70894,0.836988
287,666,2.27039,-4.09058,0,0,0,0,0,0,0,-1,1511,358,2.27042,4.09059
294,666,5.04211,-6.10623,0,0,0,0,0,0,0,-1,1518,358,5.04208,6.10623
301,666,1.35095,-11.8304,0,0,0,0,0,0,0,-1,1525,358,1.3509,11.8304
308,666,1.08496,-1.87576,0,0,0,0,0,0,0,-1,1532,358,1.08491,1.87575
315,666,1.76294,-0.284027,0,0,0,0,0,0,0,-1,1539,358,1.76291,0.284016
322,666,0,0,0,0,0,0,0,0,0,-1,1546,358,0,0
329,666,0,0,0,0,0,0,0,0,0,-1,1553,358,0,0
336,666,0,0,0,0,0,0,0,0,0,-1,1560,358,0,0
343,666,0,0,0,0,0,0,0,0,0,-1,1567,358,0,0
350,666,0,0,0,0,0,0,0,0,0,-1,1574,358,0,0
357,666,0,0,0,0,0,0,0,0,0,-1,1581,358,0,0
364,666,0,0,0,0,0,0,0,0,0,-1,1588,358,0,0
371,666,0,0,0,0,0,0,0,0,0,-1,1595,358,0,0
378,666,0,0,0,0,0,0,0,0,0,-1,1602,358,0,0
385,666,0,0,0,0,0,0,0,0,0,-1,1609,358,0,0
392,666,0,0,0,0,0,0,0,0,0,-1,1616,358,0,0
399,666,0,0,0,0,0,0,0,0,0,-1,1623,358,0,0
406,666,0,0,0,0,0,0,0,0,0,-1,1630,358,0,0
413,666,0,0,0,0,0,0,0,0,0,-1,1637,358,0,0
420,666,0,0,0,0,0,0,0,0,0,-1,1644,358,0,0
427,666,0,0,0,0,0,0,0,0,0,-1,1651,358,0,0
434,666,0,0,0,0,0,0,0,0,0,-1,1658,358,0,0
441,666,0,0,0,0,0,0,0,0,0,-1,1665,358,0,0
448,666,0,0,0,0,0,0,0,0,0,-1,1672,358,0,0
455,666,0,0,0,0,0,0,0,0,0,-1,1679,358,0,0
462,666,0,0,0,0,0,0,0,0,0,-1,1686,358,0,0
469,666,0,0,0,0,0,0,0,0,0,-1,1693,358,0,0
476,666,0,0,0,0,0,0,0,0,0,-1,1700,358,0,0
483,666,0,0,0,0,0,0,0,0,0,-1,1707,358,0,0
490,666,0,0,0,0,0,0,0,0,0,-1,1714,358,0,0
497,666,0,0,0,0,0,0,0,0,0,-1,1721,358,0,0
504,666,0,0,0,0,0,0,0,0,0,-1,1728,358,0,0
511,666,0,0,0,0,0,0,0,0,0,-1,1735,358,0,0
518,666,0,0,0,0,0,0,0,0,0,-1,1742,358,0,0
525,666,0,0,0,0,0,0,0,0,0,-1,1749,358,0,0
532,666,0,0,0,0,0,0,0,0,0,-1,1756,358,0,0
539,666,0,0,0,0,0,0,0,0,0,-1,1763,358,0,0
546,666,0,0,0,0,0,0,0,0,0,-1,1770,358,0,0
553,666,0,0,0,0,0,0,0,0,0,-1,1777,358,0,0
560,666,0,0,0,0,0,0,0,0,0,-1,1784,358,0,0
567,666,0,0,0,0,0,0,0,0,0,-1,1791,358,0,0
574,666,0,0,0,0,0,0,0,0,0,-1,1798,358,0,0
581,666,0,0,0,0,0,0,0,0,0,-1,1805,358,0,0
588,666,0,0,0,0,0,0,0,0,0,-1,1812,358,0,0
595,666,0,0,0,0,0,0,0,0,0,-1,1819,358,0,0
602,666,0,0,0,0,0,0,0,0,0,-1,1826,358,0,0
609,666,0,0,0,0,0,0,0,0,0,-1,1833,358,0,0
616,666,0,0,0,0,0,0,0,0,0,-1,1840,358,0,0
623,666,0,0,0,0,0,0,0,0,0,-1,1847,358,0,0
630,666,0,0,0,0,0,0,0,0,0,-1,1854,358,0,0
637,666,0,0,0,0,0,0,0,0,0,-1,1861,358,0,0
644,666,0,0,0,0,0,0,0,0,0,-1,1868,358,0,0
651,666,0,0,0,0,0,0,0,0,0,-1,1875,358,0,0
658,666,0,0,0,0,0,0,0,0,0,-1,1882,358,0,0
665,666,0,0,0,0,0,0,0,0,0,-1,1889,358,0,0
672,666,0,0,0,0,0,0,0,0,0,-1,1896,358,0,0
679,666,0,0,0,0,0,0,0,0,0,-1,1903,358,0,0
686,666,0,0,0,0,0,0,0,0,0,-1,1910,358,0,0
693,666,0,0,0,0,0,0,0,0,0,-1,1917,358,0,0
700,666,0,0,0,0,0,0,0,0,0,-1,1924,358,0,0
707,666,0,0,0,0,0,0,0,0,0,-1,1931,358,0,0
714,666,0,0,0,0,0,0,0,0,0,-1,1938,358,0,0
721,666,0,0,0,0,0,0,0,0,0,-1,1945,358,0,0
728,666,0,0,0,0,0,0,0,0,0,-1,1952,358,0,0
735,666,0,0,0,0,0,0,0,0,0,-1,1959,358,0,0
742,666,0,0,0,0,0,0,0,0,0,-1,1966,358,0,0
749,666,0,0,0,0,0,0,0,0,0,-1,1973,358,0,0
756,666,0,0,0,0,0,0,0,0,0,-1,1980,358,0,0
763,666,0,0,0,0,0,0,0,0,0,-1,1987,358,0,0
770,666,0,0,0,0,0,0,0,0,0,-1,1994,358,0,0
777,666,0,0,0,0,0,0,0,0,0,-1,2001,358,0,0
784,666,0,0,0,0,0,0,0,0,0,-1,2008,358,0,0
791,666,0,0,0,0,0,0,0,0,0,-1,2015,358,0,0
798,666,0,0,0,0,0,0,0,0,0,-1,2022,358,0,0
805,666,0,0,0,0,0,0,0,0,0,-1,2029,358,0,0
812,666,0,0,0,0,0,0,0,0,0,-1,2036,358,0,0
-700,659,0,0,0,0,0,0,0,0,0,-1,524,365,0,0
-693,659,0,0,0,0,0,0,0,0,0,-1,531,365,0,0
-686,659,0,0,0,0,0,0,0,0,0,-1,538,365,0,0
-679,659,0,0,0,0,0,0,0,0,0,-1,545,365,0,0
-672,659,0,0,0,0,0,0,0,0,0,-1,552,365,0,0
-665,659,0,0,0,0,0,0,0,0,0,-1,559,365,0,0
-658,659,0,0,0,0,0,0,0,0,0,-1,566,365,0,0
-651,659,0,0,0,0,0,0,0,0,0,-1,573,365,0,0
-644,659,0,0,0,0,0,0,0,0,0,-1,580,365,0,0
-637,659,0,0,0,0,0,0,0,0,0,-1,587,365,0,0
-630,659,0,0,0,0,0,0,0,0,0,-1,594,365,0,0
-623,659,0,0,0,0,0,0,0,0,0,-1,601,365,0,0
-616,659,0,0,0,0,0,0,0,0,0,-1,608,365,0,0
-609,659,0,0,0,0,0,0,0,0,0,-1,615,365,0,0
-602,659,0,0,0,0,0,0,0,0,0,-1,622,365,0,0
-595,659,0,0,0,0,0,0,0,0,0,-1,629,365,0,0
-588,659,0,0,0,0,0,0,0,0,0,-1,636,365,0,0
-581,659,0,0,0,0,0,0,0,0,0,-1,643,365,0,0
-574,659,0,0,0,0,0,0,0,0,0,-1,650,365,0,0
-567,659,0,0,0,0,0,0,0,0,0,-1,657,365,0,0
-560,659,0,0,0,0,0,0,0,0,0,-1,664,365,0,0
-553,659,0,0,0,0,0,0,0,0,0,-1,671,365,0,0
-546,659,0,0,0,0,0,0,0,0,0,-1,678,365,0,0
-539,659,0,0,0,0,0,0,0,0,0,-1,685,365,0,0
-532,659,0,0,0,0,0,0,0,0,0,-1,692,365,0,0
-525,659,0,0,0,0,0,0,0,0,0,-1,699,365,0,0
-518,659,0,0,0,0,0,0,0,0,0,-1,706,365,0,0
-511,659,0,0,0,0,0,0,0,0,0,-1,713,365,0,0
-504,659,0,0,0,0,0,0,0,0,0,-1,720,365,0,0
-497,659,0,0,0,0,0,0,0,0,0,-1,727,365,0,0
-490,659,0,0,0,0,0,0,0,0,0,-1,734,365,0,0
-483,659,0,0,0,0,0,0,0,0,0,-1,741,365,0,0
-476,659,0,0,0,0,0,0,0,0,0,-1,748,365,0,0
-469,659,0,0,0,0,0,0,0,0,0,-1,755,365,0,0
-462,659,0,0,0,0,0,0,0,0,0,-1,762,365,0,0
-455,659,0,0,0,0,0,0,0,0,0,-1,769,365,0,0
-448,659,0,0,0,0,0,0,0,0,0,-1,776,365,0,0
-441,659,0,0,0,0,0,0,0,0,0,-1,783,365,0,0
-434,659,0,0,0,0,0,0,0,0,0,-1,790,365,0,0
-427,659,0,0,0,0,0,0,0,0,0,-1,797,365,0,0
-420,659,0,0,0,0,0,0,0,0,0,-1,804,365,0,0
-413,659,0,0,0,0,0,0,0,0,0,-1,811,365,0,0
-406,659,0,0,0,0,0,0,0,0,0,-1,818,365,0,0
-399,659,0,0,0,0,0,0,0,0,0,-1,825,365,0,0
-392,659,0,0,0,0,0,0,0,0,0,-1,832,365,0,0
-385,659,0,0,0,0,0,0,0,0,0,-1,839,365,0,0
-378,659,0,0,0,0,0,0,0,0,0,-1,846,365,0,0
-371,659,0,0,0,0,0,0,0,0,0,-1,853,365,0,0
-364,659,0,0,0,0,0,0,0,0,0,-1,860,365,0,0
-357,659,0,0,0,0,0,0,0,0,0,-1,867,365,0,0
-350,659,0,0,0,0,0,0,0,0,0,-1,874,365,0,0
-343,659,0,0,0,0,0,0,0,0,0,-1,881,365,0,0
-336,659,0,0,0,0,0,0,0,0,0,-1,888,365,0,0
-329,659,0,0,0,0,0,0,0,0,0,-1,895,365,0,0
-322,659,0,0,0,0,0,0,0,0,0,-1,902,365,0,0
-315,659,0,0,0,0,0,0,0,0,0,-1,909,365,0,0
-308,659,0,0,0,0,0,0,0,0,0,-1,916,365,0,0
-301,659,0,0,0,0,0,0,0,0,0,-1,923,365,0,0
-294,659,0,0,0,0,0,0,0,0,0,-1,930,365,0,0
-287,659,0,0,0,0,0,0,0,0,0,-1,937,365,0,0
-280,659,0,0,0,0,0,0,0,0,0,-1,944,365,0,0
-273,659,0,0,0,0,0,0,0,0,0,-1,951,365,0,0
-266,659,0,0,0,0,0,0,0,0,0,-1,958,365,0,0
-259,659,0,0,0,0,0,0,0,0,0,-1,965,365,0,0
-252,659,0,0,0,0,0,0,0,0,0,-1,972,365,0,0
-245,659,0,0,0,0,0,0,0,0,0,-1,979,365,0,0
-238,659,0,0,0,0,0,0,0,0,0,-1,986,365,0,0
-231,659,0,0,0,0,0,0,0,0,0,-1,993,365,0,0
-224,659,0,0,0,0,0,0,0,0,0,-1,1000,365,0,0
-217,659,3.57001,-16.8541,0,0,0,0,0,0,0,-1,1007,365,3.57003,16.8541
-210,659,3.20129,-17.9641,0,0,0,0,0,0,0,-1,1014,365,3.2013,17.9641
-203,659,2.80524,-18.9521,0,0,0,0,0,0,0,-1,1021,365,2.80526,18.9521
-196,659,3.26184,-18.9162,0,0,0,0,0,0,0,-1,1028,365,3.26185,18.9162
-189,659,3.81763,-18.2742,0,0,0,0,0,0,0,-1,1035,365,3.81767,18.2742
-182,659,4.16882,-17.8811,0,0,0,0,0,0,0,-1,1042,365,4.16886,17.8811
-175,659,4.92114,-17.0037,0,0,0,0,0,0,0,-1,1049,365,4.9212,17.0037
-168,659,4.6908,-17.4607,0,0,0,0,0,0,0,-1,1056,365,4.69076,17.4607
-161,659,6.37988,-19.2439,0,0,0,0,0,0,0,-1,1063,365,6.3799,19.2439
-154,659,5.41724,-19.7757,0,0,0,0,0,0,0,-1,1070,365,5.4173,19.7757
-147,659,5.1676,-19.6531,-0.000980082,-0.0391554,0.0448261,0.0286531,-0.0687885,0.584118,0.0578268,0.0449293,1077,365,5.16762,19.6531
-140,659,5.1106,-19.3262,0.0009416,-0.0336473,0.0443114,0.0312139,-0.0639196,0.599343,0.0559969,0.0452097,1084,365,5.11056,19.3262
-133,659,5.23547,-18.9001,0.00244364,-0.0279127,0.0430372,0.0329008,-0.0583698,0.61587,0.0533746,0.0437049,1091,365,5.23542,18.9001
-126,659,5.20667,-18.7568,0.00353663,-0.0222846,0.0408025,0.0334224,-0.0521704,0.632173,0.0498106,0.040414,1098,365,5.20667,18.7568
-119,659,4.43542,-18.9509,0,0,0,0,0,0,0,-1,1105,365,4.43544,18.9509
-112,659,3.87488,-19.5198,0.00445012,-0.0124591,0.0342475,0.0312712,-0.0392801,0.664384,0.0408202,0.0391737,1112,365,3.87486,19.5198
-105,659,3.87109,-19.3841,0.00422217,-0.0086092,0.0302652,0.0287442,-0.0331312,0.680953,0.0357537,0.0418197,1119,365,3.87114,19.3841
-98,659,3.77014,-19.3409,0.00379911,-0.00497969,0.0261374,0.0259131,-0.0270937,0.702207,0.030606,0.045895,1126,365,3.77009,19.3409
-91,659,3.78638,-19.3247,0,0,0,0,0,0,0,-1,1133,365,3.78644,19.3247
-84,659,2.8584,-17.8303,0,0,0,0,0,0,0,-1,1140,365,2.85836,17.8303
-77,659,2.80139,-15.3457,0,0,0,0,0,0,0,-1,1147,365,2.80139,15.3457
-70,659,2.9353,-12.7028,0,0,0,0,0,0,0,-1,1154,365,2.93533,12.7028
-63,659,2.11267,-9.7796,0,0,0,0,0,0,0,-1,1161,365,2.11266,9.7796
-56,659,2.11182,-9.91541,0,0,0,0,0,0,0,-1,1168,365,2.11178,9.91541
-49,659,3.59912,-20.3874,0,0,0,0,0,0,0,-1,1175,365,3.59907,20.3874
-42,659,3.599,-20.5229,0,0,0,0,0,0,0,-1,1182,365,3.59905,20.523
-35,659,3.53516,-20.7005,0.00588263,0.0110433,0.00166725,0.0115351,0.00539086,1.28397,0.00666452,0.0450748,1189,365,3.5352,20.7005
-28,659,3.57458,-20.697,0.00546173,0.0108913,0.00250607,0.0118712,0.00448186,1.19808,0.00692201,0.0166911,1196,365,3.57458,20.697
-21,659,3.53308,-20.7406,0.00472788,0.0106144,0.00327857,0.012077,0.00326526,1.15118,0.00721362,0.0114788,1203,365,3.53309,20.7406
-14,659,3.50842,-20.8266,0.00312385,0.0109091,0.00404934,0.0126334,0.00139956,1.16823,0.00799665,0.00928028,1210,365,3.50848,20.8266
-7,659,3.49158,-20.886,0.00154457,0.0108557,0.0049216,0.0129749,-0.00057455,1.16421,0.00884765,0.00917919,1217,365,3.49155,20.886
0,659,3.47119,-20.9362,5.87305e-05,0.010625,0.00535684,0.0128656,-0.00218192,1.17463,0.0093893,0.00859032,1224,365,3.47116,20.9362
7,659,3.44727,-20.972,-0.00186968,0.0108428,0.00517205,0.0126812,-0.00370806,1.22928,0.00992381,0.00793461,1231,365,3.44728,20.9719
14,659,3.42224,-20.9866,-0.00319738,0.0114387,0.00431104,0.0126141,-0.00437279,1.30461,0.0101849,0.00991106,1238,365,3.42222,20.9866
21,659,3.41187,-21.0243,-0.00414212,0.0121508,0.00361858,0.0129183,-0.00490963,1.36179,0.0106335,0.0103141,1245,365,3.41188,21.0243
28,659,3.39209,-21.0728,-0.00431024,0.0130333,0.00251509,0.0133907,-0.0046676,1.42965,0.0108238,0.00940341,1252,365,3.39209,21.0728
35,659,3.37915,-21.0967,-0.00391703,0.0139332,0.00123217,0.0140178,-0.00400168,1.5022,0.0109262,0.0108165,1259,365,3.37917,21.0967
42,659,3.35974,-21.1016,-0.00383094,0.0148155,6.23274e-05,0.0148157,-0.00383114,1.56745,0.0113714,0.0115259,1266,365,3.3597,21.1016
49,659,3.31165,-21.1022,-0.0017823,0.0155966,-0.00177012,0.0157751,-0.00196077,-1.47032,0.0112275,0.0105459,1273,365,3.3117,21.1022
56,659,3.27759,-21.0905,0.00142564,0.0167134,-0.00364753,0.0175391,0.000599963,-1.34818,0.011498,0.013855,1280,365,3.27764,21.0904
63,659,3.25879,-21.0963,0.00432356,0.0170942,-0.00507944,0.0188681,0.00254965,-1.2348,0.0118209,0.0157987,1287,365,3.25874,21.0963
70,659,3.23584,-21.0892,0.00735426,0.017455,-0.0059047,0.0201745,0.00463471,-1.13918,0.0122018,0.0163894,1294,365,3.23579,21.0892
77,659,3.21362,-21.0953,0.00999031,0.0172827,-0.00606962,0.0207171,0.0065559,-1.05588,0.0122268,0.0166776,1301,365,3.2136,21.0953
84,659,3.22107,-21.0645,0.0124023,0.0169701,-0.00571752,0.020843,0.00852938,-0.975418,0.0120996,0.0122862,1308,365,3.2211,21.0646
91,659,3.17981,-21.0189,0.0145935,0.0159854,-0.005364,0.0206984,0.0098805,-0.84991,0.0119543,0.0108808,1315,365,3.17976,21.0189
98,659,3.17273,-20.9816,0.0157196,0.0149636,-0.00448398,0.0198415,0.0108417,-0.74335,0.0114719,0.00771236,1322,365,3.17275,20.9816
105,659,3.15442,-20.9128,0.0158949,0.0141222,-0.00294128,0.0180805,0.0119366,-0.639058,0.0106158,0.00869638,1329,365,3.15437,20.9128
112,659,3.13428,-20.8351,0.0161398,0.0131973,-0.00124539,0.0165961,0.012741,-0.351221,0.0100291,0.0118653,1336,365,3.13429,20.8352
119,659,3.13562,-20.7603,0.0153844,0.0121497,0.00066232,0.0155148,0.0120194,0.194338,0.0093973,0.0136896,1343,365,3.13561,20.7603
126,659,3.1167,-20.6925,0.0140152,0.0113742,0.00196724,0.0150641,0.0103254,0.48981,0.00889438,0.0124622,1350,365,3.11668,20.6925
133,659,3.08435,-20.6318,0.0123621,0.0106281,0.00329918,0.0149063,0.00808389,0.656904,0.00861642,0.0104479,1357,365,3.08438,20.6318
140,659,3.0498,-20.553,0.010658,0.00993333,0.00445826,0.0147686,0.00582271,0.744851,0.00858999,0.00869368,1364,365,3.04984,20.553
147,659,3.01843,-20.4497,0.00948114,0.00910017,0.00532557,0.0146196,0.00396167,0.767522,0.0087308,0.00808684,1371,365,3.01848,20.4497
154,659,2.99609,-20.3416,0.00687545,0.0084615,0.00650713,0.0142237,0.0011132,0.846034,0.00913407,0.00878911,1378,365,2.99612,20.3416
161,659,2.99646,-20.2422,0.00408183,0.00743179,0.00770807,0.0136448,-0.00213115,0.892386,0.00988378,0.0101815,1385,365,2.9965,20.2422
168,659,3.01233,-20.1451,0.00295153,0.00746053,0.00800331,0.0135208,-0.00310876,0.922688,0.0102092,0.0176618,1392,365,3.01231,20.1451
175,659,3.02539,-20.0455,0.00172232,0.00698821,0.00739153,0.0122017,-0.00349121,0.956497,0.00951419,0.0417887,1399,365,3.02543,20.0455
182,659,2.90112,-19.9632,0,0,0,0,0,0,0,-1,1406,365,2.90118,19.9632
189,659,2.99377,-19.6472,0,0,0,0,0,0,0,-1,1413,365,2.99378,19.6472
196,659,2.41248,-13.4371,0,0,0,0,0,0,0,-1,1420,365,2.41243,13.4371
203,659,2.38623,-12.2163,0,0,0,0,0,0,0,-1,1427,365,2.38617,12.2163
210,659,2.20789,-13.9792,0,0,0,0,0,0,0,-1,1434,365,2.20794,13.9792
217,659,2.24121,-13.487,0,0,0,0,0,0,0,-1,1441,365,2.24116,13.487
224,659,2.3479,-15.2926,0,0,0,0,0,0,0,-1,1448,365,2.34793,15.2926
231,659,2.47974,-17.8629,0,0,0,0,0,0,0,-1,1455,365,2.47976,17.8628
238,659,3.50952,-18.634,0,0,0,0,0,0,0,-1,1462,365,3.50948,18.634
245,659,3.02844,-18.5432,0,0,0,0,0,0,0,-1,1469,365,3.02848,18.5432
252,659,2.45972,-18.7531,0,0,0,0,0,0,0,-1,1476,365,2.45976,18.7531
259,659,2.33069,-3.36703,0,0,0,0,0,0,0,-1,1483,365,2.33073,3.36702
266,659,1.72681,-17.183,0,0,0,0,0,0,0,-1,1490,365,1.72683,17.183
273,659,2.4375,-14.5841,0,0,0,0,0,0,0,-1,1497,365,2.43748,14.5841
280,659,1.70947,-9.4129,0,0,0,0,0,0,0,-1,1504,365,1.70952,9.4129
287,659,5.63684,-10.0938,0,0,0,0,0,0,0,-1,1511,365,5.63681,10.0938
294,659,5.19153,-7.84253,0,0,0,0,0,0,0,-1,1518,365,5.19151,7.84252
301,659,-5.25903,-20.3541,0,0,0,0,0,0,0,-1,1525,365,-5.25903,20.3541
308,659,-0.0958252,-20.9479,0,0,0,0,0,0,0,-1,1532,365,-0.0958365,20.9479
315,659,2.17102,-2.98474,0,0,0,0,0,0,0,-1,1539,365,2.171,2.98473
322,659,0.382813,-2.2424,0,0,0,0,0,0,0,-1,1546,365,0.382801,2.2424
329,659,0.604004,-1.75998,0,0,0,0,0,0,0,-1,1553,365,0.603966,1.75998
336,659,2.09851,-1.17941,0,0,0,0,0,0,0,-1,1560,365,2.09857,1.17942
343,659,0,0,0,0,0,0,0,0,0,-1,1567,365,0,0
350,659,0,0,0,0,0,0,0,0,0,-1,1574,365,0,0
357,659,0,0,0,0,0,0,0,0,0,-1,1581,365,0,0
364,659,0,0,0,0,0,0,0,0,0,-1,1588,365,0,0
371,659,0,0,0,0,0,0,0,0,0,-1,1595,365,0,0
378,659,0,0,0,0,0,0,0,0,0,-1,1602,365,0,0
385,659,0,0,0,0,0,0,0,0,0,-1,1609,365,0,0
392,659,0,0,0,0,0,0,0,0,0,-1,1616,365,0,0
399,659,0,0,0,0,0,0,0,0,0,-1,1623,365,0,0
406,659,0,0,0,0,0,0,0,0,0,-1,1630,365,0,0
413,659,0,0,0,0,0,0,0,0,0,-1,1637,365,0,0
420,659,0,0,0,0,0,0,0,0,0,-1,1644,365,0,0
427,659,0,0,0,0,0,0,0,0,0,-1,1651,365,0,0
434,659,0,0,0,0,0,0,0,0,0,-1,1658,365,0,0
441,659,0,0,0,0,0,0,0,0,0,-1,1665,365,0,0
448,659,0,0,0,0,0,0,0,0,0,-1,1672,365,0,0
455,659,0,0,0,0,0,0,0,0,0,-1,1679,365,0,0
462,659,0,0,0,0,0,0,0,0,0,-1,1686,365,0,0
469,659,0,0,0,0,0,0,0,0,0,-1,1693,365,0,0
476,659,0,0,0,0,0,0,0,0,0,-1,1700,365,0,0
483,659,0,0,0,0,0,0,0,0,0,-1,1707,365,0,0
490,659,0,0,0,0,0,0,0,0,0,-1,1714,365,0,0
497,659,0,0,0,0,0,0,0,0,0,-1,1721,365,0,0
504,659,0,0,0,0,0,0,0,0,0,-1,1728,365,0,0
511,659,0,0,0,0,0,0,0,0,0,-1,1735,365,0,0
518,659,0,0,0,0,0,0,0,0,0,-1,1742,365,0,0
525,659,0,0,0,0,0,0,0,0,0,-1,1749,365,0,0
532,659,0,0,0,0,0,0,0,0,0,-1,1756,365,0,0
539,659,0,0,0,0,0,0,0,0,0,-1,1763,365,0,0
546,659,0,0,0,0,0,0,0,0,0,-1,1770,365,0,0
553,659,0,0,0,0,0,0,0,0,0,-1,1777,365,0,0
560,659,0,0,0,0,0,0,0,0,0,-1,1784,365,0,0
567,659,0,0,0,0,0,0,0,0,0,-1,1791,365,0,0
574,659,0,0,0,0,0,0,0,0,0,-1,1798,365,0,0
581,659,0,0,0,0,0,0,0,0,0,-1,1805,365,0,0
588,659,0,0,0,0,0,0,0,0,0,-1,1812,365,0,0
595,659,0,0,0,0,0,0,0,0,0,-1,1819,365,0,0
602,659,0,0,0,0,0,0,0,0,0,-1,1826,365,0,0
609,659,0,0,0,0,0,0,0,0,0,-1,1833,365,0,0
616,659,0,0,0,0,0,0,0,0,0,-1,1840,365,0,0
623,659,0,0,0,0,0,0,0,0,0,-1,1847,365,0,0
630,659,0,0,0,0,0,0,0,0,0,-1,1854,365,0,0
637,659,0,0,0,0,0,0,0,0,0,-1,1861,365,0,0
644,659,0,0,0,0,0,0,0,0,0,-1,1868,365,0,0
651,659,0,0,0,0,0,0,0,0,0,-1,1875,365,0,0
658,659,0,0,0,0,0,0,0,0,0,-1,1882,365,0,0
665,659,0,0,0,0,0,0,0,0,0,-1,1889,365,0,0
672,659,0,0,0,0,0,0,0,0,0,-1,1896,365,0,0
679,659,0,0,0,0,0,0,0,0,0,-1,1903,365,0,0
686,659,0,0,0,0,0,0,0,0,0,-1,1910,365,0,0
693,659,0,0,0,0,0,0,0,0,0,-1,1917,365,0,0
700,659,0,0,0,0,0,0,0,0,0,-1,1924,365,0,0
707,659,0,0,0,0,0,0,0,0,0,-1,1931,365,0,0
714,659,0,0,0,0,0,0,0,0,0,-1,1938,365,0,0
721,659,0,0,0,0,0,0,0,0,0,-1,1945,365,0,0
728,659,0,0,0,0,0,0,0,0,0,-1,1952,365,0,0
735,659,0,0,0,0,0,0,0,0,0,-1,1959,365,0,0
742,659,0,0,0,0,0,0,0,0,0,-1,1966,365,0,0
749,659,0,0,0,0,0,0,0,0,0,-1,1973,365,0,0
756,659,0,0,0,0,0,0,0,0,0,-1,1980,365,0,0
763,659,0,0,0,0,0,0,0,0,0,-1,1987,365,0,0
770,659,0,0,0,0,0,0,0,0,0,-1,1994,365,0,0
777,659,0,0,0,0,0,0,0,0,0,-1,2001,365,0,0
784,659,0,0,0,0,0,0,0,0,0,-1,2008,365,0,0
791,659,0,0,0,0,0,0,0,0,0,-1,2015,365,0,0
798,659,0,0,0,0,0,0,0,0,0,-1,2022,365,0,0
805,659,0,0,0,0,0,0,0,0,0,-1,2029,365,0,0
812,659,0,0,0,0,0,0,0,0,0,-1,2036,365,0,0
-700,652,0,0,0,0,0,0,0,0,0,-1,524,372,0,0
-693,652,0,0,0,0,0,0,0,0,0,-1,531,372,0,0
-686,652,0,0,0,0,0,0,0,0,0,-1,538,372,0,0
-679,652,0,0,0,0,0,0,0,0,0,-1,545,372,0,0
-672,652,0,0,0,0,0,0,0,0,0,-1,552,372,0,0
-665,652,0,0,0,0,0,0,0,0,0,-1,559,372,0,0
-658,652,0,0,0,0,0,0,0,0,0,-1,566,372,0,0
-651,652,0,0,0,0,0,0,0,0,0,-1,573,372,0,0
-644,652,0,0,0,0,0,0,0,0,0,-1,580,372,0,0
-637,652,0,0,0,0,0,0,0,0,0,-1,587,372,0,0
-630,652,0,0,0,0,0,0,0,0,0,-1,594,372,0,0
-623,652,0,0,0,0,0,0,0,0,0,-1,601,372,0,0
-616,652,0,0,0,0,0,0,0,0,0,-1,608,372,0,0
-609,652,0,0,0,0,0,0,0,0,0,-1,615,372,0,0
-602,652,0,0,0,0,0,0,0,0,0,-1,622,372,0,0
-595,652,0,0,0,0,0,0,0,0,0,-1,629,372,0,0
-588,652,0,0,0,0,0,0,0,0,0,-1,636,372,0,0
-581,652,0,0,0,0,0,0,0,0,0,-1,643,372,0,0
-574,652,0,0,0,0,0,0,0,0,0,-1,650,372,0,0
-567,652,0,0,0,0,0,0,0,0,0,-1,657,372,0,0
-560,652,0,0,0,0,0,0,0,0,0,-1,664,372,0,0
-553,652,0,0,0,0,0,0,0,0,0,-1,671,372,0,0
-546,652,0,0,0,0,0,0,0,0,0,-1,678,372,0,0
-539,652,0,0,0,0,0,0,0,0,0,-1,685,372,0,0
-532,652,0,0,0,0,0,0,0,0,0,-1,692,372,0,0
-525,652,0,0,0,0,0,0,0,0,0,-1,699,372,0,0
-518,652,0,0,0,0,0,0,0,0,0,-1,706,372,0,0
-511,652,0,0,0,0,0,0,0,0,0,-1,713,372,0,0
-504,652,0,0,0,0,0,0,0,0,0,-1,720,372,0,0
-497,652,0,0,0,0,0,0,0,0,0,-1,727,372,0,0
-490,652,0,0,0,0,0,0,0,0,0,-1,734,372,0,0
-483,652,0,0,0,0,0,0,0,0,0,-1,741,372,0,0
-476,652,0,0,0,0,0,0,0,0,0,-1,748,372,0,0
-469,652,0,0,0,0,0,0,0,0,0,-1,755,372,0,0
-462,652,0,0,0,0,0,0,0,0,0,-1,762,372,0,0
-455,652,0,0,0,0,0,0,0,0,0,-1,769,372,0,0
-448,652,0,0,0,0,0,0,0,0,0,-1,776,372,0,0
-441,652,0,0,0,0,0,0,0,0,0,-1,783,372,0,0
-434,652,0,0,0,0,0,0,0,0,0,-1,790,372,0,0
-427,652,0,0,0,0,0,0,0,0,0,-1,797,372,0,0
-420,652,0,0,0,0,0,0,0,0,0,-1,804,372,0,0
-413,652,0,0,0,0,0,0,0,0,0,-1,811,372,0,0
-406,652,0,0,0,0,0,0,0,0,0,-1,818,372,0,0
-399,652,0,0,0,0,0,0,0,0,0,-1,825,372,0,0
-392,652,0,0,0,0,0,0,0,0,0,-1,832,372,0,0
-385,652,0,0,0,0,0,0,0,0,0,-1,839,372,0,0
-378,652,0,0,0,0,0,0,0,0,0,-1,846,372,0,0
-371,652,0,0,0,0,0,0,0,0,0,-1,853,372,0,0
-364,652,0,0,0,0,0,0,0,0,0,-1,860,372,0,0
-357,652,0,0,0,0,0,0,0,0,0,-1,867,372,0,0
-350,652,0,0,0,0,0,0,0,0,0,-1,874,372,0,0
-343,652,0,0,0,0,0,0,0,0,0,-1,881,372,0,0
-336,652,0,0,0,0,0,0,0,0,0,-1,888,372,0,0
-329,652,0,0,0,0,0,0,0,0,0,-1,895,372,0,0
-322,652,0,0,0,0,0,0,0,0,0,-1,902,372,0,0
-315,652,0,0,0,0,0,0,0,0,0,-1,909,372,0,0
-308,652,0,0,0,0,0,0,0,0,0,-1,916,372,0,0
-301,652,0,0,0,0,0,0,0,0,0,-1,923,372,0,0
-294,652,0,0,0,0,0,0,0,0,0,-1,930,372,0,0
-287,652,0,0,0,0,0,0,0,0,0,-1,937,372,0,0
-280,652,0,0,0,0,0,0,0,0,0,-1,944,372,0,0
-273,652,0,0,0,0,0,0,0,0,0,-1,951,372,0,0
-266,652,0,0,0,0,0,0,0,0,0,-1,958,372,0,0
-259,652,0,0,0,0,0,0,0,0,0,-1,965,372,0,0
-252,652,0,0,0,0,0,0,0,0,0,-1,972,372,0,0
-245,652,0,0,0,0,0,0,0,0,0,-1,979,372,0,0
-238,652,0,0,0,0,0,0,0,0,0,-1,986,372,0,0
-231,652,-0.0509033,-13.1051,0,0,0,0,0,0,0,-1,993,372,-0.0509221,13.1051
-224,652,1.83624,-9.07111,0,0,0,0,0,0,0,-1,1000,372,1.83626,9.0711
-217,652,2.88489,-16.6299,0,0,0,0,0,0,0,-1,1007,372,2.88488,16.6299
-210,652,2.83881,-19.5396,0,0,0,0,0,0,0,-1,1014,372,2.83878,19.5396
-203,652,3.02429,-18.9708,0,0,0,0,0,0,0,-1,1021,372,3.02426,18.9708
-196,652,3.25403,-18.2871,0,0,0,0,0,0,0,-1,1028,372,3.25404,18.2871
-189,652,3.67346,-17.7712,0,0,0,0,0,0,0,-1,1035,372,3.67349,17.7712
-182,652,4.02527,-17.1903,0,0,0,0,0,0,0,-1,1042,372,4.02522,17.1903
-175,652,4.67004,-16.7837,0,0,0,0,0,0,0,-1,1049,372,4.67002,16.7837
-168,652,4.37317,-18.4829,0,0,0,0,0,0,0,-1,1056,372,4.37312,18.4829
-161,652,3.46399,-18.7,0,0,0,0,0,0,0,-1,1063,372,3.46402,18.7
-154,652,3.3656,-18.8401,0,0,0,0,0,0,0,-1,1070,372,3.36559,18.84
-147,652,4.83899,-19.1023,0,0,0,0,0,0,0,-1,1077,372,4.83903,19.1023
-140,652,4.2063,-18.5068,3.31803e-05,-0.0246874,0.0320698,0.0220421,-0.0466964,0.601461,0.0405282,0.0455132,1084,372,4.20628,18.5068
-133,652,4.42346,-18.4777,0.00101631,-0.0204773,0.0312398,0.0233061,-0.0427671,0.619734,0.038695,0.0447757,1091,372,4.42343,18.4777
-126,652,4.34351,-18.641,0.0016823,-0.0162782,0.0295662,0.023602,-0.0381978,0.637959,0.0360103,0.0396097,1098,372,4.34347,18.641
-119,652,4.03052,-18.9205,0.002069,-0.0123999,0.0272543,0.0230327,-0.0333636,0.655668,0.032742,0.0355359,1105,372,4.0305,18.9205
-112,652,3.77222,-19.119,0.00224029,-0.00888176,0.0244998,0.0218023,-0.0284437,0.673798,0.0290939,0.0273997,1112,372,3.77217,19.119
-105,652,3.70203,-19.2494,0.00203873,-0.00588268,0.0214296,0.0198706,-0.0237145,0.694017,0.0251965,0.0236908,1119,372,3.70197,19.2494
-98,652,3.68555,-19.4181,0.00164234,-0.00307465,0.0182037,0.0176397,-0.019072,0.720976,0.0212009,0.024559,1126,372,3.68555,19.418
-91,652,3.70447,-19.5574,0.00137856,-0.000142319,0.0142064,0.0148449,-0.0136087,0.75866,0.0164328,0.0397745,1133,372,3.7045,19.5574
-84,652,3.74377,-19.5786,0,0,0,0,0,0,0,-1,1140,372,3.74379,19.5786
-77,652,3.60474,-19.894,0,0,0,0,0,0,0,-1,1147,372,3.60479,19.8941
-70,652,3.56042,-20.0709,0,0,0,0,0,0,0,-1,1154,372,3.56039,20.0709
-63,652,3.578,-20.2075,0,0,0,0,0,0,0,-1,1161,372,3.57804,20.2075
-56,652,3.55322,-20.3329,0,0,0,0,0,0,0,-1,1168,372,3.55322,20.3329
-49,652,3.57019,-20.4444,0.00287763,0.00801433,0.000218894,0.00802364,0.00286832,1.52829,0.00469476,0.037093,1175,372,3.57022,20.4444
-42,652,3.50525,-20.5016,0.00345507,0.00852735,0.00061553,0.00860097,0.00338144,1.45175,0.00500343,0.0123644,1182,372,3.50527,20.5016
-35,652,3.50183,-20.5989,0.00334389,0.00832361,0.000824378,0.00845654,0.00321096,1.41093,0.00492926,0.00978011,1189,372,3.5018,20.5989
-28,652,3.49878,-20.6909,0.00333195,0.00838599,0.00138459,0.00874045,0.00297749,1.32018,0.00513101,0.00757495,1196,372,3.49874,20.6909
-21,652,3.47546,-20.7605,0.00299826,0.00823283,0.00201252,0.00891712,0.00231396,1.24304,0.00534314,0.00760708,1203,372,3.47549,20.7605
-14,652,3.46326,-20.8219,0.00207404,0.00843218,0.0025848,0.00935039,0.00115584,1.22947,0.00588626,0.00963383,1210,372,3.46331,20.8219
-7,652,3.44995,-20.9013,0.00115258,0.00842326,0.00315463,0.00960117,-2.5332e-05,1.21344,0.00640924,0.0127538,1217,372,3.44999,20.9013
0,652,3.41528,-20.9561,0.000259673,0.00823948,0.00338957,0.00948489,-0.000985738,1.21868,0.00667614,0.0131565,1224,372,3.41525,20.9561
7,652,3.38928,-20.9743,-0.00063497,0.00827301,0.00331182,0.00936935,-0.00173131,1.25111,0.00689617,0.0131775,1231,372,3.3893,20.9743
14,652,3.3916,-21.0274,-0.00123415,0.00854247,0.00278808,0.00928168,-0.00197336,1.31163,0.00693973,0.0106567,1238,372,3.39162,21.0274
21,652,3.375,-21.0641,-0.00173268,0.00887647,0.00240728,0.00939714,-0.00225335,1.35779,0.00713548,0.0100836,1245,372,3.37506,21.0641
28,652,3.36267,-21.0987,-0.00174421,0.00932556,0.00177776,0.00960405,-0.00202271,1.4154,0.00717265,0.00903957,1252,372,3.36269,21.0987
35,652,3.34192,-21.1217,-0.00143137,0.00969623,0.00111533,0.00980692,-0.00154206,1.47188,0.00710794,0.00966224,1259,372,3.34187,21.1217
42,652,3.32764,-21.1192,-0.00148867,0.0101367,0.000535553,0.0101614,-0.00151329,1.52486,0.00733092,0.0112366,1266,372,3.32762,21.1192
49,652,3.32764,-21.1232,-0.000203823,0.0105449,-0.000570914,0.0105751,-0.000234062,-1.51788,0.00712939,0.0128648,1273,372,3.32765,21.1232
56,652,3.27649,-21.1197,0.00178989,0.0110395,-0.00146007,0.0112645,0.00156489,-1.4179,0.0070462,0.0148132,1280,372,3.27649,21.1197
63,652,3.24316,-21.1078,0.00342844,0.0112645,-0.00214784,0.0118146,0.00287835,-1.32007,0.0071138,0.0184878,1287,372,3.24314,21.1079
70,652,3.25916,-21.0974,0.005113,0.011454,-0.00247583,0.0123062,0.00426083,-1.2393,0.00721608,0.015264,1294,372,3.2592,21.0974
77,652,3.22632,-21.0987,0.00643159,0.0113078,-0.00241368,0.0123005,0.00543893,-1.18062,0.00711751,0.0151297,1301,372,3.22635,21.0987
84,652,3.25659,-21.0698,0.00758243,0.0111567,-0.00212076,0.0121429,0.00659621,-1.13552,0.00701944,0.0135041,1308,372,3.25663,21.0698
91,652,3.21277,-21.0805,0.00856499,0.0104591,-0.0017953,0.0115418,0.00748227,-1.02811,0.00676064,0.0164113,1315,372,3.21282,21.0805
98,652,3.2417,-21.0147,0.00882496,0.00976446,-0.00119286,0.0105767,0.00801269,-0.972974,0.00637085,0.0129537,1322,372,3.24175,21.0147
105,652,3.2229,-20.9256,0.00855678,0.00929573,-0.00023121,0.00936211,0.0084904,-1.29122,0.00597208,0.0104046,1329,372,3.22291,20.9256
112,652,3.17786,-20.8617,0.00816246,0.00882846,0.000754061,0.00931977,0.00767114,0.993325,0.00574306,0.00887462,1336,372,3.17782,20.8617
119,652,3.17847,-20.7906,0.00733978,0.00825229,0.00186227,0.00971338,0.00587869,0.905531,0.00564926,0.00990188,1343,372,3.17845,20.7905
126,652,3.16553,-20.7222,0.00636245,0.00788638,0.00246382,0.00970337,0.00454546,0.935364,0.00560596,0.011435,1350,372,3.16553,20.7222
133,652,3.12769,-20.6523,0.00519239,0.00753684,0.00306536,0.00964647,0.00308276,0.968024,0.00568898,0.0114239,1357,372,3.12765,20.6523
140,652,3.10144,-20.5609,0.00405441,0.00729906,0.00350613,0.00954,0.00181346,1.00209,0.00584997,0.00897985,1364,372,3.1015,20.5609
147,652,3.09753,-20.4543,0.00337599,0.00683032,0.00378689,0.00926532,0.000940982,0.999352,0.00588834,0.00865783,1371,372,3.09754,20.4543
154,652,3.08801,-20.3494,0.00163423,0.00649813,0.00437263,0.0090696,-0.000937246,1.03918,0.0063818,0.00894663,1378,372,3.08803,20.3494
161,652,3.08386,-20.2564,8.6229e-06,0.00625266,0.00452638,0.00862929,-0.002368,1.0873,0.00668352,0.010135,1385,372,3.08384,20.2564
168,652,3.07544,-20.1493,-0.000360919,0.00610734,0.00444003,0.00836625,-0.00261983,1.10017,0.00662573,0.0112449,1392,372,3.07546,20.1493
175,652,3.05957,-20.0037,-0.000835739,0.00571037,0.00413762,0.00771299,-0.00283837,1.12003,0.00630481,0.0116922,1399,372,3.05953,20.0037
182,652,3.02368,-19.8989,-0.00120178,0.00507759,0.00330435,0.00649601,-0.0026202,1.16532,0.00541949,0.0166536,1406,372,3.02363,19.8989
189,652,3.04004,-19.7839,-0.00173163,0.0041138,0.00231281,0.0049182,-0.00253603,1.23608,0.00437634,0.0282255,1413,372,3.04004,19.7839
196,652,2.96191,-19.6148,0,0,0,0,0,0,0,-1,1420,372,2.96187,19.6148
203,652,2.95764,-19.4495,0,0,0,0,0,0,0,-1,1427,372,2.95759,19.4495
210,652,3.01733,-19.2457,0,0,0,0,0,0,0,-1,1434,372,3.01732,19.2457
217,652,2.99304,-19.1253,0,0,0,0,0,0,0,-1,1441,372,2.99307,19.1253
224,652,2.89331,-18.9997,0,0,0,0,0,0,0,-1,1448,372,2.89337,18.9997
231,652,2.81213,-18.6978,0,0,0,0,0,0,0,-1,1455,372,2.81208,18.6979
238,652,3.18677,-18.4939,0,0,0,0,0,0,0,-1,1462,372,3.18676,18.4939
245,652,3.08191,-18.3683,0,0,0,0,0,0,0,-1,1469,372,3.08194,18.3683
252,652,2.90076,-18.1636,0,0,0,0,0,0,0,-1,1476,372,2.90075,18.1636
259,652,2.65063,-17.7229,0,0,0,0,0,0,0,-1,1483,372,2.65061,17.7229
266,652,2.59863,-17.4798,0,0,0,0,0,0,0,-1,1490,372,2.59866,17.4798
273,652,2.72229,-17.4806,0,0,0,0,0,0,0,-1,1497,372,2.72228,17.4806
280,652,2.72925,-17.4017,0,0,0,0,0,0,0,-1,1504,372,2.72919,17.4017
287,652,6.36182,-12.2355,0,0,0,0,0,0,0,-1,1511,372,6.3618,12.2355
294,652,-3.42322,-18.7776,0,0,0,0,0,0,0,-1,1518,372,-3.42323,18.7776
301,652,-2.87634,-19.1254,0,0,0,0,0,0,0,-1,1525,372,-2.87638,19.1254
308,652,-2.32959,-19.4733,0,0,0,0,0,0,0,-1,1532,372,-2.32953,19.4733
315,652,2.33008,-15.3782,0,0,0,0,0,0,0,-1,1539,372,2.33012,15.3782
322,652,3.10327,-14.0434,0,0,0,0,0,0,0,-1,1546,372,3.10324,14.0434
329,652,2.7074,-13.3513,0,0,0,0,0,0,0,-1,1553,372,2.70745,13.3513
336,652,1.76904,-14.9183,0,0,0,0,0,0,0,-1,1560,372,1.7691,14.9183
343,652,4.18225,-6.7092,0,0,0,0,0,0,0,-1,1567,372,4.18231,6.70921
350,652,4.64563,-7.2074,0,0,0,0,0,0,0,-1,1574,372,4.6456,7.2074
357,652,0,0,0,0,0,0,0,0,0,-1,1581,372,0,0
364,652,0,0,0,0,0,0,0,0,0,-1,1588,372,0,0
371,652,0,0,0,0,0,0,0,0,0,-1,1595,372,0,0
378,652,0,0,0,0,0,0,0,0,0,-1,1602,372,0,0
385,652,0,0,0,0,0,0,0,0,0,-1,1609,372,0,0
392,652,0,0,0,0,0,0,0,0,0,-1,1616,372,0,0
399,652,0,0,0,0,0,0,0,0,0,-1,1623,372,0,0
406,652,0,0,0,0,0,0,0,0,0,-1,1630,372,0,0
413,652,0,0,0,0,0,0,0,0,0,-1,1637,372,0,0
420,652,0,0,0,0,0,0,0,0,0,-1,1644,372,0,0
427,652,0,0,0,0,0,0,0,0,0,-1,1651,372,0,0
434,652,0,0,0,0,0,0,0,0,0,-1,1658,372,0,0
441,652,0,0,0,0,0,0,0,0,0,-1,1665,372,0,0
448,652,0,0,0,0,0,0,0,0,0,-1,1672,372,0,0
455,652,0,0,0,0,0,0,0,0,0,-1,1679,372,0,0
462,652,0,0,0,0,0,0,0,0,0,-1,1686,372,0,0
469,652,0,0,0,0,0,0,0,0,0,-1,1693,372,0,0
476,652,0,0,0,0,0,0,0,0,0,-1,1700,372,0,0
483,652,0,0,0,0,0,0,0,0,0,-1,1707,372,0,0
490,652,0,0,0,0,0,0,0,0,0,-1,1714,372,0,0
497,652,0,0,0,0,0,0,0,0,0,-1,1721,372,0,0
504,652,0,0,0,0,0,0,0,0,0,-1,1728,372,0,0
511,652,0,0,0,0,0,0,0,0,0,-1,1735,372,0,0
518,652,0,0,0,0,0,0,0,0,0,-1,1742,372,0,0
525,652,0,0,0,0,0,0,0,0,0,-1,1749,372,0,0
532,652,0,0,0,0,0,0,0,0,0,-1,1756,372,0,0
539,652,0,0,0,0,0,0,0,0,0,-1,1763,372,0,0
546,652,0,0,0,0,0,0,0,0,0,-1,1770,372,0,0
553,652,0,0,0,0,0,0,0,0,0,-1,1777,372,0,0
560,652,0,0,0,0,0,0,0,0,0,-1,1784,372,0,0
567,652,0,0,0,0,0,0,0,0,0,-1,1791,372,0,0
574,652,0,0,0,0,0,0,0,0,0,-1,1798,372,0,0
581,652,0,0,0,0,0,0,0,0,0,-1,1805,372,0,0
588,652,0,0,0,0,0,0,0,0,0,-1,1812,372,0,0
595,652,0,0,0,0,0,0,0,0,0,-1,1819,372,0,0
602,652,0,0,0,0,0,0,0,0,0,-1,1826,372,0,0
609,652,0,0,0,0,0,0,0,0,0,-1,1833,372,0,0
616,652,0,0,0,0,0,0,0,0,0,-1,1840,372,0,0
623,652,0,0,0,0,0,0,0,0,0,-1,1847,372,0,0
630,652,0,0,0,0,0,0,0,0,0,-1,1854,372,0,0
637,652,0,0,0,0,0,0,0,0,0,-1,1861,372,0,0
644,652,0,0,0,0,0,0,0,0,0,-1,1868,372,0,0
651,652,0,0,0,0,0,0,0,0,0,-1,1875,372,0,0
658,652,0,0,0,0,0,0,0,0,0,-1,1882,372,0,0
665,652,0,0,0,0,0,0,0,0,0,-1,1889,372,0,0
672,652,0,0,0,0,0,0,0,0,0,-1,1896,372,0,0
679,652,0,0,0,0,0,0,0,0,0,-1,1903,372,0,0
686,652,0,0,0,0,0,0,0,0,0,-1,1910,372,0,0
693,652,0,0,0,0,0,0,0,0,0,-1,1917,372,0,0
700,652,0,0,0,0,0,0,0,0,0,-1,1924,372,0,0
707,652,0,0,0,0,0,0,0,0,0,-1,1931,372,0,0
714,652,0,0,0,0,0,0,0,0,0,-1,1938,372,0,0
721,652,0,0,0,0,0,0,0,0,0,-1,1945,372,0,0
728,652,0,0,0,0,0,0,0,0,0,-1,1952,372,0,0
735,652,0,0,0,0,0,0,0,0,0,-1,1959,372,0,0
742,652,0,0,0,0,0,0,0,0,0,-1,1966,372,0,0
749,652,0,0,0,0,0,0,0,0,0,-1,1973,372,0,0
756,652,0,0,0,0,0,0,0,0,0,-1,1980,372,0,0
763,652,0,0,0,0,0,0,0,0,0,-1,1987,372,0,0
770,652,0,0,0,0,0,0,0,0,0,-1,1994,372,0,0
777,652,0,0,0,0,0,0,0,0,0,-1,2001,372,0,0
784,652,0,0,0,0,0,0,0,0,0,-1,2008,372,0,0
791,652,0,0,0,0,0,0,0,0,0,-1,2015,372,0,0
798,652,0,0,0,0,0,0,0,0,0,-1,2022,372,0,0
805,652,0,0,0,0,0,0,0,0,0,-1,2029,372,0,0
812,652,0,0,0,0,0,0,0,0,0,-1,2036,372,0,0
-700,645,0,0,0,0,0,0,0,0,0,-1,524,379,0,0
-693,645,0,0,0,0,0,0,0,0,0,-1,531,379,0,0
-686,645,0,0,0,0,0,0,0,0,0,-1,538,379,0,0
-679,645,0,0,0,0,0,0,0,0,0,-1,545,379,0,0
-672,645,0,0,0,0,0,0,0,0,0,-1,552,379,0,0
-665,645,0,0,0,0,0,0,0,0,0,-1,559,379,0,0
-658,645,0,0,0,0,0,0,0,0,0,-1,566,379,0,0
-651,645,0,0,0,0,0,0,0,0,0,-1,573,379,0,0
-644,645,0,0,0,0,0,0,0,0,0,-1,580,379,0,0
-637,645,0,0,0,0,0,0,0,0,0,-1,587,379,0,0
-630,645,0,0,0,0,0,0,0,0,0,-1,594,379,0,0
-623,645,0,0,0,0,0,0,0,0,0,-1,601,379,0,0
-616,645,0,0,0,0,0,0,0,0,0,-1,608,379,0,0
-609,645,0,0,0,0,0,0,0,0,0,-1,615,379,0,0
-602,645,0,0,0,0,0,0,0,0,0,-1,622,379,0,0
-595,645,0,0,0,0,0,0,0,0,0,-1,629,379,0,0
-588,645,0,0,0,0,0,0,0,0,0,-1,636,379,0,0
-581,645,0,0,0,0,0,0,0,0,0,-1,643,379,0,0
-574,645,0,0,0,0,0,0,0,0,0,-1,650,379,0,0
-567,645,0,0,0,0,0,0,0,0,0,-1,657,379,0,0
-560,645,0,0,0,0,0,0,0,0,0,-1,664,379,0,0
-553,645,0,0,0,0,0,0,0,0,0,-1,671,379,0,0
-546,645,0,0,0,0,0,0,0,0,0,-1,678,379,0,0
-539,645,0,0,0,0,0,0,0,0,0,-1,685,379,0,0
-532,645,0,0,0,0,0,0,0,0,0,-1,692,379,0,0
-525,645,0,0,0,0,0,0,0,0,0,-1,699,379,0,0
-518,645,0,0,0,0,0,0,0,0,0,-1,706,379,0,0
-511,645,0,0,0,0,0,0,0,0,0,-1,713,379,0,0
-504,645,0,0,0,0,0,0,0,0,0,-1,720,379,0,0
-497,645,0,0,0,0,0,0,0,0,0,-1,727,379,0,0
-490,645,0,0,0,0,0,0,0,0,0,-1,734,379,0,0
-483,645,0,0,0,0,0,0,0,0,0,-1,741,379,0,0
-476,645,0,0,0,0,0,0,0,0,0,-1,748,379,0,0
-469,645,0,0,0,0,0,0,0,0,0,-1,755,379,0,0
-462,645,0,0,0,0,0,0,0,0,0,-1,762,379,0,0
-455,645,0,0,0,0,0,0,0,0,0,-1,769,379,0,0
-448,645,0,0,0,0,0,0,0,0,0,-1,776,379,0,0
-441,645,0,0,0,0,0,0,0,0,0,-1,783,379,0,0
-434,645,0,0,0,0,0,0,0,0,0,-1,790,379,0,0
-427,645,0,0,0,0,0,0,0,0,0,-1,797,379,0,0
-420,645,0,0,0,0,0,0,0,0,0,-1,804,379,0,0
-413,645,0,0,0,0,0,0,0,0,0,-1,811,379,0,0
-406,645,0,0,0,0,0,0,0,0,0,-1,818,379,0,0
-399,645,0,0,0,0,0,0,0,0,0,-1,825,379,0,0
-392,645,0,0,0,0,0,0,0,0,0,-1,832,379,0,0
-385,645,0,0,0,0,0,0,0,0,0,-1,839,379,0,0
-378,645,0,0,0,0,0,0,0,0,0,-1,846,379,0,0
-371,645,0,0,0,0,0,0,0,0,0,-1,853,379,0,0
-364,645,0,0,0,0,0,0,0,0,0,-1,860,379,0,0
-357,645,0,0,0,0,0,0,0,0,0,-1,867,379,0,0
-350,645,0,0,0,0,0,0,0,0,0,-1,874,379,0,0
-343,645,0,0,0,0,0,0,0,0,0,-1,881,379,0,0
-336,645,0,0,0,0,0,0,0,0,0,-1,888,379,0,0
-329,645,0,0,0,0,0,0,0,0,0,-1,895,379,0,0
-322,645,0,0,0,0,0,0,0,0,0,-1,902,379,0,0
-315,645,0,0,0,0,0,0,0,0,0,-1,909,379,0,0
-308,645,0,0,0,0,0,0,0,0,0,-1,916,379,0,0
-301,645,0,0,0,0,0,0,0,0,0,-1,923,379,0,0
-294,645,0,0,0,0,0,0,0,0,0,-1,930,379,0,0
-287,645,0,0,0,0,0,0,0,0,0,-1,937,379,0,0
-280,645,0,0,0,0,0,0,0,0,0,-1,944,379,0,0
-273,645,0,0,0,0,0,0,0,0,0,-1,951,379,0,0
-266,645,0,0,0,0,0,0,0,0,0,-1,958,379,0,0
-259,645,0,0,0,0,0,0,0,0,0,-1,965,379,0,0
-252,645,3.57031,-12.7438,0,0,0,0,0,0,0,-1,972,379,3.57033,12.7438
-245,645,2.27789,-13.5026,0,0,0,0,0,0,0,-1,979,379,2.2779,13.5026
-238,645,0.993347,-14.2849,0,0,0,0,0,0,0,-1,986,379,0.993334,14.2848
-231,645,4.76465,-17.1852,0,0,0,0,0,0,0,-1,993,379,4.76463,17.1852
-224,645,4.32983,-18.4094,0,0,0,0,0,0,0,-1,1000,379,4.32981,18.4094
-217,645,4.55615,-19.2188,0,0,0,0,0,0,0,-1,1007,379,4.55617,19.2187
-210,645,5.05524,-17.6685,0,0,0,0,0,0,0,-1,1014,379,5.05522,17.6685
-203,645,3.03577,-18.7343,0,0,0,0,0,0,0,-1,1021,379,3.03582,18.7343
-196,645,3.26074,-17.9044,0,0,0,0,0,0,0,-1,1028,379,3.26077,17.9045
-189,645,3.55286,-17.3779,0,0,0,0,0,0,0,-1,1035,379,3.55289,17.3779
-182,645,3.84497,-16.8514,0,0,0,0,0,0,0,-1,1042,379,3.84502,16.8514
-175,645,3.78552,-17.4511,0,0,0,0,0,0,0,-1,1049,379,3.78552,17.4511
-168,645,4.0083,-17.8901,-0.00405901,-0.0244635,0.0189661,0.0072747,-0.0357973,0.538637,0.0266231,0.0458399,1056,379,4.00832,17.8901
-161,645,3.61279,-18.321,-0.00321588,-0.0239709,0.0205864,0.00946074,-0.0366475,0.551939,0.0281208,0.0455869,1063,379,3.61278,18.321
-154,645,3.43457,-18.4621,-0.0023307,-0.022463,0.0218383,0.0116497,-0.0364434,0.569441,0.0289704,0.0420111,1070,379,3.43458,18.4621
-147,645,3.58289,-18.5404,-0.00141654,-0.0201318,0.0223543,0.0134597,-0.035008,0.587177,0.02889,0.0396103,1077,379,3.58283,18.5404
-140,645,3.59766,-18.2271,0,0,0,0,0,0,0,-1,1084,379,3.59766,18.2271
-133,645,3.59619,-18.6324,0.000119246,-0.0144095,0.021896,0.0159245,-0.0302148,0.625228,0.0270611,0.0331333,1091,379,3.59622,18.6324
-126,645,3.69238,-18.7967,0.000536686,-0.0113676,0.0207303,0.0161524,-0.0269833,0.645597,0.0251647,0.0251626,1098,379,3.69243,18.7967
-119,645,3.64307,-19.0118,0.000784477,-0.00851784,0.0190179,0.0157117,-0.0234451,0.665469,0.0227537,0.0170634,1105,379,3.64304,19.0118
-112,645,3.6123,-19.2137,0.000952163,-0.00588035,0.016956,0.0148326,-0.0197608,0.68599,0.02004,0.0119655,1112,379,3.61227,19.2137
-105,645,3.58838,-19.3792,0.000825132,-0.00357792,0.014663,0.013451,-0.0162038,0.710884,0.0171458,0.0116914,1119,379,3.58835,19.3792
-98,645,3.55566,-19.516,0.000508458,-0.0014664,0.0122306,0.0117914,-0.0127493,0.745118,0.0141722,0.0128426,1126,379,3.55561,19.516
-91,645,3.55627,-19.6682,0.000235442,0.000559099,0.00934072,0.00973939,-0.00894485,0.79406,0.0107906,0.0146628,1133,379,3.55632,19.6682
-84,645,3.55115,-19.8126,-0.000432648,0.00150407,0.00687994,0.00748347,-0.00641205,0.855314,0.00803052,0.016072,1140,379,3.55118,19.8126
-77,645,3.49963,-19.9764,-0.00114002,0.00163047,0.00462346,0.00507175,-0.0045813,0.930949,0.00557558,0.0135062,1147,379,3.49966,19.9764
-70,645,3.48096,-20.1087,-0.001982,0.00189392,0.00188768,0.00266133,-0.00274941,1.18467,0.00312403,0.0115692,1154,379,3.48097,20.1087
-63,645,3.47119,-20.2039,-0.00130824,0.00276586,1.72817e-05,0.00276593,-0.00130831,1.56655,0.00240192,0.0115846,1161,379,3.4712,20.2039
-56,645,3.46191,-20.3005,0.000231049,0.00490137,-9.54099e-07,0.00490137,0.000231049,-1.57059,0.00319335,0.0124922,1168,379,3.46195,20.3005
-49,645,3.45654,-20.4095,0.00099336,0.00561728,-3.95541e-05,0.00561761,0.000993022,-1.56224,0.00346187,0.0103648,1175,379,3.45656,20.4095
-42,645,3.43225,-20.5011,0.00159349,0.00602843,0.000277752,0.00604575,0.00157616,1.50849,0.00362131,0.00967321,1182,379,3.4323,20.5011
-35,645,3.42236,-20.6124,0.00182289,0.00604073,0.000529527,0.0061062,0.00175743,1.44779,0.00362969,0.00983714,1189,379,3.42234,20.6124
-28,645,3.4093,-20.7324,0.00199078,0.00604424,0.000862096,0.00621997,0.00181504,1.36971,0.00369341,0.00783452,1196,379,3.40924,20.7324
-21,645,3.39099,-20.7877,0.00193786,0.0058503,0.00127609,0.00622972,0.00155845,1.28179,0.0037434,0.00912048,1203,379,3.39103,20.7877
-14,645,3.3905,-20.8413,0.00149631,0.00566049,0.00167069,0.00624791,0.000908886,1.23269,0.00389779,0.00971564,1210,379,3.39047,20.8413
-7,645,3.40479,-20.9328,0.00103587,0.00543898,0.00194655,0.00617612,0.000298736,1.2088,0.00402153,0.0136761,1217,379,3.40483,20.9328
0,645,3.36169,-20.979,0.000551437,0.00513656,0.00200788,0.00589153,-0.00020353,1.21115,0.00399726,0.0261495,1224,379,3.36169,20.979
7,645,3.35059,-20.9995,0.000297156,0.0049184,0.00195779,0.00563629,-0.000420739,1.21933,0.00390534,0.01645,1231,379,3.35061,20.9995
14,645,3.35364,-21.0302,0.000137682,0.00480484,0.00171822,0.00536917,-0.000426644,1.25346,0.0037298,0.014475,1238,379,3.3536,21.0301
21,645,3.33081,-21.0865,-8.89055e-05,0.00478903,0.00155741,0.00524387,-0.000543739,1.28665,0.00369053,0.0104106,1245,379,3.33085,21.0865
28,645,3.32458,-21.109,-5.5877e-05,0.00488931,0.00127616,0.00519922,-0.000365784,1.33257,0.00359428,0.00914058,1252,379,3.32455,21.109
35,645,3.30884,-21.1213,0.000155891,0.00493377,0.00101538,0.0051406,-5.09401e-05,1.36985,0.00344417,0.00857859,1259,379,3.30881,21.1213
42,645,3.30627,-21.137,4.80106e-05,0.00508729,0.000823162,0.00521834,-8.30439e-05,1.41291,0.0035069,0.00885385,1266,379,3.30627,21.137
49,645,3.3457,-21.1468,0.000578049,0.00529607,0.000260566,0.00531042,0.000563702,1.51579,0.00336814,0.0118558,1273,379,3.34567,21.1468
56,645,3.31653,-21.1418,0.00153463,0.00550524,-9.33408e-05,0.00550743,0.00153244,-1.54731,0.0032823,0.0120195,1280,379,3.31652,21.1418
63,645,3.2887,-21.1411,0.00227596,0.00569975,-0.000370092,0.0057393,0.00223641,-1.46434,0.00334037,0.0119273,1287,379,3.28864,21.1411
70,645,3.26282,-21.1271,0.00290503,0.00589644,-0.000478405,0.00597109,0.00283038,-1.41601,0.00344896,0.0153618,1294,379,3.26288,21.1271
77,645,3.23901,-21.1132,0.00325581,0.00586151,-0.000390027,0.00591864,0.00319868,-1.42536,0.00342085,0.0189328,1301,379,3.23901,21.1132
84,645,3.28442,-21.0824,0.00349055,0.00584928,-0.000286194,0.00588351,0.00345633,-1.45176,0.00341412,0.0139698,1308,379,3.28447,21.0824
91,645,3.2616,-21.0658,0.00368577,0.00552979,-0.000176446,0.00554652,0.00366904,-1.47625,0.00325749,0.0149099,1315,379,3.26157,21.0658
98,645,3.28223,-21.009,0.00351097,0.00508082,0.000149539,0.00509493,0.00349686,1.47667,0.00300888,0.0134485,1322,379,3.28218,21.009
105,645,3.28259,-20.9289,0.0031711,0.00475886,0.000666104,0.00500129,0.00292867,1.22175,0.00290156,0.0104353,1329,379,3.28258,20.9289
112,645,3.23511,-20.8687,0.00267794,0.00452504,0.00110111,0.00503864,0.00216434,1.13436,0.00291867,0.00846727,1336,379,3.23517,20.8687
119,645,3.2323,-20.8047,0.0021553,0.00423928,0.00159576,0.00510312,0.00129146,1.07463,0.00306371,0.00827266,1343,379,3.23234,20.8047
126,645,3.23364,-20.7414,0.00177753,0.00407052,0.00181328,0.00506935,0.000778696,1.06731,0.00315223,0.0108245,1350,379,3.23366,20.7414
133,645,3.20337,-20.6526,0.00129753,0.0039384,0.00201317,0.00502553,0.000210393,1.07565,0.00328247,0.0123776,1357,379,3.20334,20.6526
140,645,3.18921,-20.5708,0.00084887,0.00395319,0.0021292,0.00503593,-0.000233874,1.10036,0.0034379,0.0117868,1364,379,3.18918,20.5708
147,645,3.17688,-20.4784,0.000662031,0.00381925,0.00213306,0.00489431,-0.000413029,1.10395,0.0034089,0.0116465,1371,379,3.17685,20.4784
154,645,3.18872,-20.3795,-1.92611e-05,0.00384856,0.00231494,0.0049311,-0.0011018,1.13338,0.00370961,0.0109086,1378,379,3.18875,20.3795
161,645,3.20142,-20.2938,-0.000730483,0.00411116,0.00217486,0.00494463,-0.00156395,1.20483,0.00392306,0.013154,1385,379,3.20144,20.2938
168,645,3.18726,-20.1646,-0.00106442,0.00421738,0.00202598,0.00490498,-0.00175202,1.2436,0.00398453,0.0157683,1392,379,3.18729,20.1645
175,645,3.19006,-20.0226,-0.00134964,0.00413121,0.00186739,0.00470697,-0.00192539,1.27172,0.00393985,0.0140127,1399,379,3.19003,20.0225
182,645,3.16443,-19.9046,-0.00142069,0.00392415,0.0015489,0.00434057,-0.00183711,1.30816,0.003663,0.0099346,1406,379,3.16443,19.9046
189,645,3.13013,-19.7551,-0.00147375,0.00352225,0.001382,0.00387905,-0.00183056,1.31813,0.00336642,0.0104311,1413,379,3.13011,19.7551
196,645,3.0957,-19.6194,-0.00153022,0.00370928,0.00157219,0.00414483,-0.00196577,1.30054,0.00360196,0.0115429,1420,379,3.09567,19.6194
203,645,3.05811,-19.4778,-0.00174245,0.00391903,0.00182297,0.00445523,-0.00227865,1.28473,0.00395493,0.0114488,1427,379,3.05811,19.4778
210,645,3.09631,-19.2815,-0.00202924,0.0040817,0.00190445,0.00462663,-0.00257416,1.29211,0.00421329,0.0164127,1434,379,3.0963,19.2815
217,645,3.09045,-19.1624,-0.00215936,0.00463577,0.00175863,0.00506393,-0.00258753,1.33198,0.00449404,0.0168114,1441,379,3.0905,19.1625
224,645,3.03528,-19.0335,-0.00218724,0.00565298,0.001784,0.00603983,-0.00257409,1.35726,0.00510566,0.0141466,1448,379,3.03531,19.0335
231,645,3.00586,-18.7738,-0.00189944,0.00677345,0.00200043,0.00721262,-0.0023386,1.35469,0.00574875,0.0156762,1455,379,3.00584,18.7738
238,645,2.99451,-18.581,-0.00145393,0.00811447,0.00256167,0.00875713,-0.00209658,1.325,0.00664807,0.013546,1462,379,2.99456,18.581
245,645,3.01038,-18.3955,-0.00119269,0.00942236,0.00294469,0.0101845,-0.00195484,1.31753,0.00752639,0.0140857,1469,379,3.01035,18.3955
252,645,2.99866,-18.1449,-0.000638284,0.0107202,0.00351915,0.0117222,-0.00164023,1.29342,0.00841497,0.0189547,1476,379,2.99861,18.1449
259,645,2.90515,-17.8693,0.000134146,0.0123826,0.00437371,0.013784,-0.00126728,1.26071,0.00963959,0.0305132,1483,379,2.9051,17.8693
266,645,2.84595,-17.6858,0.000736851,0.0144068,0.00526177,0.0161975,-0.0010539,1.24276,0.0111662,0.02726,1490,379,2.84591,17.6858
273,645,2.91064,-17.5482,0.0011191,0.0162491,0.00586071,0.0182537,-0.000885501,1.24123,0.0124748,0.0278243,1497,379,2.91068,17.5482
280,645,2.97473,-17.3133,0.00182723,0.0182155,0.00671613,0.0206162,-0.000573454,1.2275,0.0139392,0.0493081,1504,379,2.97468,17.3133
287,645,3.02002,-17.1509,0,0,0,0,0,0,0,-1,1511,379,3.02008,17.1509
294,645,2.81799,-15.901,0,0,0,0,0,0,0,-1,1518,379,2.81801,15.901
301,645,-0.493774,-17.8968,0,0,0,0,0,0,0,-1,1525,379,-0.493735,17.8968
308,645,2.10364,-17.449,0,0,0,0,0,0,0,-1,1532,379,2.10368,17.449
315,645,2.92749,-16.2691,0,0,0,0,0,0,0,-1,1539,379,2.92749,16.2691
322,645,2.93494,-15.3232,0,0,0,0,0,0,0,-1,1546,379,2.9349,15.3232
329,645,2.93628,-15.064,0,0,0,0,0,0,0,-1,1553,379,2.93633,15.064
336,645,2.35303,-12.1996,0,0,0,0,0,0,0,-1,1560,379,2.35297,12.1996
343,645,0.977295,-13.792,0,0,0,0,0,0,0,-1,1567,379,0.977251,13.792
350,645,3.93213,-5.72198,0,0,0,0,0,0,0,-1,1574,379,3.9321,5.72198
357,645,1.63928,-6.465,0,0,0,0,0,0,0,-1,1581,379,1.63926,6.46499
364,645,-0.0794678,-3.22021,0,0,0,0,0,0,0,-1,1588,379,-0.0794987,3.22021
371,645,0,0,0,0,0,0,0,0,0,-1,1595,379,0,0
378,645,0,0,0,0,0,0,0,0,0,-1,1602,379,0,0
385,645,0,0,0,0,0,0,0,0,0,-1,1609,379,0,0
392,645,0,0,0,0,0,0,0,0,0,-1,1616,379,0,0
399,645,0,0,0,0,0,0,0,0,0,-1,1623,379,0,0
406,645,0,0,0,0,0,0,0,0,0,-1,1630,379,0,0
413,645,0,0,0,0,0,0,0,0,0,-1,1637,379,0,0
420,645,0,0,0,0,0,0,0,0,0,-1,1644,379,0,0
427,645,0,0,0,0,0,0,0,0,0,-1,1651,379,0,0
434,645,0,0,0,0,0,0,0,0,0,-1,1658,379,0,0
441,645,0,0,0,0,0,0,0,0,0,-1,1665,379,0,0
448,645,0,0,0,0,0,0,0,0,0,-1,1672,379,0,0
455,645,0,0,0,0,0,0,0,0,0,-1,1679,379,0,0
462,645,0,0,0,0,0,0,0,0,0,-1,1686,379,0,0
469,645,0,0,0,0,0,0,0,0,0,-1,1693,379,0,0
476,645,0,0,0,0,0,0,0,0,0,-1,1700,379,0,0
483,645,0,0,0,0,0,0,0,0,0,-1,1707,379,0,0
490,645,0,0,0,0,0,0,0,0,0,-1,1714,379,0,0
497,645,0,0,0,0,0,0,0,0,0,-1,1721,379,0,0
504,645,0,0,0,0,0,0,0,0,0,-1,1728,379,0,0
511,645,0,0,0,0,0,0,0,0,0,-1,1735,379,0,0
518,645,0,0,0,0,0,0,0,0,0,-1,1742,379,0,0
525,645,0,0,0,0,0,0,0,0,0,-1,1749,379,0,0
532,645,0,0,0,0,0,0,0,0,0,-1,1756,379,0,0
539,645,0,0,0,0,0,0,0,0,0,-1,1763,379,0,0
546,645,0,0,0,0,0,0,0,0,0,-1,1770,379,0,0
553,645,0,0,0,0,0,0,0,0,0,-1,1777,379,0,0
560,645,0,0,0,0,0,0,0,0,0,-1,1784,379,0,0
567,645,0,0,0,0,0,0,0,0,0,-1,1791,379,0,0
574,645,0,0,0,0,0,0,0,0,0,-1,1798,379,0,0
581,645,0,0,0,0,0,0,0,0,0,-1,1805,379,0,0
588,645,0,0,0,0,0,0,0,0,0,-1,1812,379,0,0
595,645,0,0,0,0,0,0,0,0,0,-1,1819,379,0,0
602,645,0,0,0,0,0,0,0,0,0,-1,1826,379,0,0
609,645,0,0,0,0,0,0,0,0,0,-1,1833,379,0,0
616,645,0,0,0,0,0,0,0,0,0,-1,1840,379,0,0
623,645,0,0,0,0,0,0,0,0,0,-1,1847,379,0,0
630,645,0,0,0,0,0,0,0,0,0,-1,1854,379,0,0
637,645,0,0,0,0,0,0,0,0,0,-1,1861,379,0,0
644,645,0,0,0,0,0,0,0,0,0,-1,1868,379,0,0
651,645,0,0,0,0,0,0,0,0,0,-1,1875,379,0,0
658,645,0,0,0,0,0,0,0,0,0,-1,1882,379,0,0
665,645,0,0,0,0,0,0,0,0,0,-1,1889,379,0,0
672,645,0,0,0,0,0,0,0,0,0,-1,1896,379,0,0
679,645,0,0,0,0,0,0,0,0,0,-1,1903,379,0,0
686,645,0,0,0,0,0,0,0,0,0,-1,1910,379,0,0
693,645,0,0,0,0,0,0,0,0,0,-1,1917,379,0,0
700,645,0,0,0,0,0,0,0,0,0,-1,1924,379,0,0
707,645,0,0,0,0,0,0,0,0,0,-1,1931,379,0,0
714,645,0,0,0,0,0,0,0,0,0,-1,1938,379,0,0
721,645,0,0,0,0,0,0,0,0,0,-1,1945,379,0,0
728,645,0,0,0,0,0,0,0,0,0,-1,1952,379,0,0
735,645,0,0,0,0,0,0,0,0,0,-1,1959,379,0,0
742,645,0,0,0,0,0,0,0,0,0,-1,1966,379,0,0
749,645,0,0,0,0,0,0,0,0,0,-1,1973,379,0,0
756,645,0,0,0,0,0,0,0,0,0,-1,1980,379,0,0
763,645,0,0,0,0,0,0,0,0,0,-1,1987,379,0,0
770,645,0,0,0,0,0,0,0,0,0,-1,1994,379,0,0
777,645,0,0,0,0,0,0,0,0,0,-1,2001,379,0,0
784,645,0,0,0,0,0,0,0,0,0,-1,2008,379,0,0
791,645,0,0,0,0,0,0,0,0,0,-1,2015,379,0,0
798,645,0,0,0,0,0,0,0,0,0,-1,2022,379,0,0
805,645,0,0,0,0,0,0,0,0,0,-1,2029,379,0,0
812,645,0,0,0,0,0,0,0,0,0,-1,2036,379,0,0
-700,638,0,0,0,0,0,0,0,0,0,-1,524,386,0,0
-693,638,0,0,0,0,0,0,0,0,0,-1,531,386,0,0
-686,638,0,0,0,0,0,0,0,0,0,-1,538,386,0,0
-679,638,0,0,0,0,0,0,0,0,0,-1,545,386,0,0
-672,638,0,0,0,0,0,0,0,0,0,-1,552,386,0,0
-665,638,0,0,0,0,0,0,0,0,0,-1,559,386,0,0
-658,638,0,0,0,0,0,0,0,0,0,-1,566,386,0,0
-651,638,0,0,0,0,0,0,0,0,0,-1,573,386,0,0
-644,638,0,0,0,0,0,0,0,0,0,-1,580,386,0,0
-637,638,0,0,0,0,0,0,0,0,0,-1,587,386,0,0
-630,638,0,0,0,0,0,0,0,0,0,-1,594,386,0,0
-623,638,0,0,0,0,0,0,0,0,0,-1,601,386,0,0
-616,638,0,0,0,0,0,0,0,0,0,-1,608,386,0,0
-609,638,0,0,0,0,0,0,0,0,0,-1,615,386,0,0
-602,638,0,0,0,0,0,0,0,0,0,-1,622,386,0,0
-595,638,0,0,0,0,0,0,0,0,0,-1,629,386,0,0
-588,638,0,0,0,0,0,0,0,0,0,-1,636,386,0,0
-581,638,0,0,0,0,0,0,0,0,0,-1,643,386,0,0
-574,638,0,0,0,0,0,0,0,0,0,-1,650,386,0,0
-567,638,0,0,0,0,0,0,0,0,0,-1,657,386,0,0
-560,638,0,0,0,0,0,0,0,0,0,-1,664,386,0,0
-553,638,0,0,0,0,0,0,0,0,0,-1,671,386,0,0
-546,638,0,0,0,0,0,0,0,0,0,-1,678,386,0,0
-539,638,0,0,0,0,0,0,0,0,0,-1,685,386,0,0
-532,638,0,0,0,0,0,0,0,0,0,-1,692,386,0,0
-525,638,0,0,0,0,0,0,0,0,0,-1,699,386,0,0
-518,638,0,0,0,0,0,0,0,0,0,-1,706,386,0,0
-511,638,0,0,0,0,0,0,0,0,0,-1,713,386,0,0
-504,638,0,0,0,0,0,0,0,0,0,-1,720,386,0,0
-497,638,0,0,0,0,0,0,0,0,0,-1,727,386,0,0
-490,638,0,0,0,0,0,0,0,0,0,-1,734,386,0,0
-483,638,0,0,0,0,0,0,0,0,0,-1,741,386,0,0
-476,638,0,0,0,0,0,0,0,0,0,-1,748,386,0,0
-469,638,0,0,0,0,0,0,0,0,0,-1,755,386,0,0
-462,638,0,0,0,0,0,0,0,0,0,-1,762,386,0,0
-455,638,0,0,0,0,0,0,0,0,0,-1,769,386,0,0
-448,638,0,0,0,0,0,0,0,0,0,-1,776,386,0,0
-441,638,0,0,0,0,0,0,0,0,0,-1,783,386,0,0
-434,638,0,0,0,0,0,0,0,0,0,-1,790,386,0,0
-427,638,0,0,0,0,0,0,0,0,0,-1,797,386,0,0
-420,638,0,0,0,0,0,0,0,0,0,-1,804,386,0,0
-413,638,0,0,0,0,0,0,0,0,0,-1,811,386,0,0
-406,638,0,0,0,0,0,0,0,0,0,-1,818,386,0,0
-399,638,0,0,0,0,0,0,0,0,0,-1,825,386,0,0
-392,638,0,0,0,0,0,0,0,0,0,-1,832,386,0,0
-385,638,0,0,0,0,0,0,0,0,0,-1,839,386,0,0
-378,638,0,0,0,0,0,0,0,0,0,-1,846,386,0,0
-371,638,0,0,0,0,0,0,0,0,0,-1,853,386,0,0
-364,638,0,0,0,0,0,0,0,0,0,-1,860,386,0,0
-357,638,0,0,0,0,0,0,0,0,0,-1,867,386,0,0
-350,638,0,0,0,0,0,0,0,0,0,-1,874,386,0,0
-343,638,0,0,0,0,0,0,0,0,0,-1,881,386,0,0
-336,638,0,0,0,0,0,0,0,0,0,-1,888,386,0,0
-329,638,0,0,0,0,0,0,0,0,0,-1,895,386,0,0
-322,638,0,0,0,0,0,0,0,0,0,-1,902,386,0,0
-315,638,0,0,0,0,0,0,0,0,0,-1,909,386,0,0
-308,638,0,0,0,0,0,0,0,0,0,-1,916,386,0,0
-301,638,0,0,0,0,0,0,0,0,0,-1,923,386,0,0
-294,638,0,0,0,0,0,0,0,0,0,-1,930,386,0,0
-287,638,0,0,0,0,0,0,0,0,0,-1,937,386,0,0
-280,638,0,0,0,0,0,0,0,0,0,-1,944,386,0,0
-273,638,0,0,0,0,0,0,0,0,0,-1,951,386,0,0
-266,638,5.203,-11.6631,0,0,0,0,0,0,0,-1,958,386,5.203,11.6631
-259,638,4.63385,-11.2466,0,0,0,0,0,0,0,-1,965,386,4.63383,11.2465
-252,638,3.03979,-12.6195,0,0,0,0,0,0,0,-1,972,386,3.03981,12.6195
-245,638,2.12054,-13.6139,0,0,0,0,0,0,0,-1,979,386,2.12052,13.6139
-238,638,3.80823,-17.0571,0,0,0,0,0,0,0,-1,986,386,3.80822,17.0571
-231,638,4.19507,-16.7842,0,0,0,0,0,0,0,-1,993,386,4.19504,16.7843
-224,638,4.03497,-17.5518,0,0,0,0,0,0,0,-1,1000,386,4.03497,17.5519
-217,638,4.16846,-18.2269,0,0,0,0,0,0,0,-1,1007,386,4.16843,18.2269
-210,638,4.29834,-18.8424,0,0,0,0,0,0,0,-1,1014,386,4.29836,18.8424
-203,638,1.64349,-16.5565,0,0,0,0,0,0,0,-1,1021,386,1.64348,16.5566
-196,638,3.14844,-17.422,0,0,0,0,0,0,0,-1,1028,386,3.1485,17.422
-189,638,3.43079,-17.2478,0,0,0,0,0,0,0,-1,1035,386,3.43082,17.2478
-182,638,3.43286,-17.3624,0,0,0,0,0,0,0,-1,1042,386,3.43286,17.3624
-175,638,3.65112,-17.5293,-0.00372067,-0.0153879,0.00942331,0.00152858,-0.0206372,0.508239,0.0142949,0.0445904,1049,386,3.65114,17.5293
-168,638,3.61707,-17.6655,-0.00306071,-0.0156395,0.0115055,0.00376225,-0.0224625,0.535268,0.0163738,0.0348204,1056,386,3.61707,17.6655
-161,638,3.57007,-17.9899,-0.00253606,-0.0157401,0.0129883,0.00543183,-0.023708,0.550264,0.0178929,0.0302629,1063,386,3.57006,17.9899
-154,638,3.57202,-18.1794,-0.00198034,-0.0149616,0.014176,0.0071203,-0.0240623,0.570712,0.0188682,0.0242351,1070,386,3.57207,18.1794
-147,638,3.56311,-18.3586,-0.00139302,-0.0135172,0.0147536,0.00849534,-0.0234055,0.590469,0.0190768,0.0194455,1077,386,3.56316,18.3585
-140,638,3.53662,-18.5327,-0.000780705,-0.011742,0.014912,0.00962595,-0.0221486,0.609295,0.018814,0.0155378,1084,386,3.53662,18.5327
-133,638,3.5293,-18.7362,-0.000326493,-0.00970333,0.0147603,0.0104721,-0.020502,0.631619,0.0181927,0.0125255,1091,386,3.52934,18.7362
-126,638,3.50574,-18.9088,-4.43533e-05,-0.00755332,0.0139933,0.0106894,-0.0182871,0.654332,0.0169202,0.0129105,1098,386,3.50578,18.9088
-119,638,3.48547,-19.0668,0.000148818,-0.00547718,0.0127555,0.0103978,-0.0157262,0.676869,0.0151869,0.0141343,1105,386,3.48552,19.0668
-112,638,3.48572,-19.2476,0.000339993,-0.00351123,0.0112361,0.0098143,-0.0129855,0.700534,0.0132059,0.0134831,1112,386,3.48577,19.2476
-105,638,3.45862,-19.4232,0.000302586,-0.00175189,0.0095384,0.0088689,-0.0103182,0.731757,0.0110882,0.0161673,1119,386,3.45857,19.4232
-98,638,3.45117,-19.5678,8.81301e-05,-0.000188181,0.00771834,0.00766955,-0.0077696,0.776449,0.00891386,0.0153178,1126,386,3.45113,19.5678
-91,638,3.42297,-19.7198,-0.000124513,0.00119228,0.00565392,0.00622601,-0.00515824,0.843362,0.00658233,0.0119986,1133,386,3.42301,19.7198
-84,638,3.36182,-19.8601,-0.000523927,0.00185428,0.00392691,0.00476817,-0.00343782,0.932414,0.00475844,0.0140613,1140,386,3.3618,19.8601
-77,638,3.37183,-19.9865,-0.000930765,0.00184735,0.00242892,0.00325635,-0.00233977,1.04514,0.00324534,0.0112906,1147,386,3.3718,19.9864
-70,638,3.38818,-20.1132,-0.00130687,0.00185143,0.000787579,0.00203693,-0.00149238,1.33948,0.00204571,0.00970604,1154,386,3.38817,20.1132
-63,638,3.3772,-20.2196,-0.000859716,0.0021632,-0.000231802,0.00218087,-0.000877388,-1.49471,0.00181836,0.0106143,1161,386,3.37718,20.2196
-56,638,3.37573,-20.3138,4.34836e-05,0.00327097,-0.000204093,0.00328383,3.0629e-05,-1.50789,0.00217908,0.0137928,1168,386,3.37574,20.3138
-49,638,3.36768,-20.4155,0.00048508,0.00363592,-0.000162501,0.00364428,0.000476721,-1.5194,0.00228724,0.0119299,1175,386,3.36765,20.4155
-42,638,3.35059,-20.5211,0.000898852,0.00372668,5.92454e-05,0.00372792,0.000897611,1.54986,0.00224666,0.0106175,1182,386,3.35059,20.5211
-35,638,3.33801,-20.6344,0.00114528,0.00362637,0.00030611,0.00366358,0.00110807,1.44984,0.0021695,0.0102047,1189,386,3.338,20.6344
-28,638,3.32104,-20.7359,0.00132088,0.00338795,0.000515432,0.00350935,0.00119948,1.33949,0.00205965,0.00980992,1196,386,3.3211,20.7359
-21,638,3.297,-20.7896,0.00137893,0.00306306,0.000718851,0.00332816,0.00111383,1.21748,0.00195622,0.0109225,1203,386,3.29704,20.7896
-14,638,3.29517,-20.8569,0.00127906,0.00257416,0.000869304,0.00301059,0.000842635,1.10552,0.00179343,0.0117713,1210,386,3.29516,20.8569
-7,638,3.33093,-20.9676,0.00117894,0.00214477,0.000863283,0.00265103,0.00067268,1.04041,0.00159125,0.0173945,1217,386,3.33092,20.9676
0,638,3.3158,-20.9507,0.000998556,0.00182152,0.000682534,0.00220701,0.000613062,1.05666,0.0013155,0.0304524,1224,386,3.31575,20.9506
7,638,3.26794,-20.9873,0.000910316,0.00148868,0.000505232,0.00178164,0.000617359,1.04533,0.00104466,0.021643,1231,386,3.26798,20.9873
14,638,3.30945,-21.0224,0.000864185,0.00128959,0.000329351,0.00146895,0.000684824,1.07212,0.000848747,0.0111343,1238,386,3.30941,21.0224
21,638,3.28772,-21.0912,0.0007904,0.00118762,0.000168116,0.00124922,0.000728801,1.21958,0.000724575,0.0100778,1245,386,3.28776,21.0912
28,638,3.29187,-21.1136,0.000824388,0.0012339,-3.93851e-05,0.00123765,0.000820635,-1.47578,0.000727113,0.0084897,1252,386,3.29185,21.1136
35,638,3.29041,-21.1243,0.000876172,0.00126554,-0.000171864,0.00133055,0.000811166,-1.20918,0.000774324,0.0101886,1259,386,3.29038,21.1243
42,638,3.30591,-21.1427,0.000662107,0.00139921,-0.00020125,0.00145058,0.00061074,-1.32089,0.000840968,0.00980895,1266,386,3.30591,21.1427
49,638,3.33618,-21.1542,0.000715402,0.00158565,-0.000340746,0.0017032,0.000597859,-1.23862,0.000997785,0.00841228,1273,386,3.33615,21.1542
56,638,3.3313,-21.1371,0.000987048,0.00179901,-0.000406683,0.00196767,0.000818389,-1.17767,0.00114138,0.0109044,1280,386,3.33133,21.1371
63,638,3.32275,-21.1438,0.0011249,0.00203994,-0.00040873,0.00219592,0.000968917,-1.20623,0.00127073,0.0127308,1287,386,3.32279,21.1438
70,638,3.27698,-21.1365,0.00117115,0.00227243,-0.00031701,0.00235717,0.00108641,-1.30961,0.0013623,0.0166736,1294,386,3.27701,21.1365
77,638,3.26501,-21.1214,0.00105391,0.00222402,-0.00014725,0.00224227,0.00103567,-1.44751,0.00129583,0.0181776,1301,386,3.26504,21.1214
84,638,3.32532,-21.073,0.00086158,0.00212706,-2.90945e-05,0.00212773,0.000860911,-1.54782,0.00123587,0.0133039,1308,386,3.32531,21.073
91,638,3.32788,-21.0241,0.000613399,0.0019199,7.76445e-05,0.0019245,0.000608801,1.51164,0.00113582,0.0136964,1315,386,3.32785,21.0241
98,638,3.32629,-20.9941,0.00024259,0.00150267,0.00041081,0.00162477,0.000120489,1.28189,0.00104533,0.0133256,1322,386,3.32624,20.9941
105,638,3.3269,-20.9468,-7.74708e-06,0.00100237,0.000885419,0.00151665,-0.000522027,1.04459,0.00122283,0.0104747,1329,386,3.32695,20.9468
112,638,3.30103,-20.8981,-0.000211056,0.000751614,0.0011161,0.00148575,-0.000945194,0.98898,0.00141503,0.0100333,1336,386,3.30102,20.8981
119,638,3.31116,-20.842,-0.000382207,0.000446354,0.00134085,0.00143546,-0.00137132,0.93523,0.00162064,0.0119588,1343,386,3.3112,20.842
126,638,3.32666,-20.7591,-0.000411894,0.000282487,0.00149812,0.00147312,-0.00160253,0.899263,0.00177625,0.0152299,1350,386,3.32672,20.7591
133,638,3.30908,-20.6484,-0.000425835,0.000183002,0.00162135,0.00152826,-0.0017711,0.878196,0.0019066,0.016061,1357,386,3.30906,20.6484
140,638,3.27332,-20.5847,-0.000357762,0.000262392,0.00168417,0.00166479,-0.00176016,0.876435,0.00197765,0.0161815,1364,386,3.27326,20.5847
147,638,3.26563,-20.5236,-0.000125736,0.000329845,0.00158891,0.00170721,-0.0015031,0.856594,0.00185472,0.0171873,1371,386,3.26561,20.5236
154,638,3.28406,-20.4235,-0.000131964,0.000614789,0.00151163,0.00179848,-0.00131565,0.906476,0.00180513,0.0158932,1378,386,3.28409,20.4235
161,638,3.29114,-20.3055,-0.000235301,0.00114027,0.00130797,0.00193027,-0.0010253,1.02745,0.00173285,0.0183844,1385,386,3.29117,20.3055
168,638,3.32434,-20.143,-0.000309471,0.00161726,0.00107348,0.00209627,-0.000788477,1.15109,0.00172161,0.0228783,1392,386,3.32438,20.143
175,638,3.33252,-20.0244,-0.000417715,0.00196273,0.00085067,0.00223547,-0.000690459,1.26053,0.00176604,0.0187143,1399,386,3.33254,20.0244
182,638,3.26501,-19.9177,-0.000486835,0.00225278,0.000614594,0.00238433,-0.000618393,1.35992,0.00183084,0.0131348,1406,386,3.26498,19.9177
189,638,3.23779,-19.7647,-0.000623992,0.00240831,0.000609696,0.00252631,-0.00074199,1.37962,0.00197847,0.0116813,1413,386,3.23774,19.7647
196,638,3.2395,-19.6184,-0.00079196,0.00270232,0.000781438,0.00286911,-0.000958754,1.36051,0.00229993,0.0141173,1420,386,3.23947,19.6184
203,638,3.21301,-19.5076,-0.00106586,0.00295743,0.00109915,0.00323813,-0.00134656,1.32076,0.00272103,0.0199207,1427,386,3.21297,19.5076
210,638,3.20667,-19.3667,-0.00135709,0.0031462,0.00131233,0.00350073,-0.00171162,1.30695,0.00306787,0.0165024,1434,386,3.20664,19.3667
217,638,3.21619,-19.2027,-0.00152598,0.00363539,0.0012712,0.00393148,-0.00182208,1.34195,0.00339542,0.0123891,1441,386,3.21618,19.2027
224,638,3.19543,-19.0093,-0.00158579,0.00437277,0.00135044,0.00466455,-0.00187757,1.35801,0.00388966,0.010636,1448,386,3.19541,19.0093
231,638,3.16821,-18.8062,-0.0013845,0.00516577,0.00158973,0.00553121,-0.00174994,1.34485,0.00438866,0.01148,1455,386,3.16817,18.8061
238,638,3.16089,-18.6375,-0.00106295,0.00616817,0.00208355,0.00672555,-0.00162033,1.3094,0.00511017,0.0125706,1462,386,3.1609,18.6375
245,638,3.15515,-18.4458,-0.000894268,0.00712848,0.00241994,0.0078019,-0.00156768,1.29939,0.00579495,0.0136921,1469,386,3.15519,18.4458
252,638,3.13757,-18.2228,-0.000516819,0.00812617,0.00289639,0.00900702,-0.00139767,1.27556,0.00652069,0.0151802,1476,386,3.13759,18.2229
259,638,3.11243,-18.0502,1.1849e-05,0.00943588,0.0036047,0.0106566,-0.00120883,1.24428,0.0075397,0.0148381,1483,386,3.11239,18.0502
266,638,3.08655,-17.8427,0.000369577,0.011024,0.00431447,0.012552,-0.00115842,1.23042,0.00877963,0.0119181,1490,386,3.0866,17.8427
273,638,3.0708,-17.6519,0.000545855,0.0123907,0.00475053,0.0140605,-0.001124,1.23278,0.00976993,0.0113722,1497,386,3.07086,17.6519
280,638,3.11072,-17.3767,0.00101496,0.013851,0.00542396,0.015836,-0.000970012,1.21997,0.0108951,0.0208277,1504,386,3.11073,17.3768
287,638,3.26892,-16.9707,0.00125141,0.015248,0.00602934,0.0174871,-0.000987669,1.21522,0.0120009,0.0392254,1511,386,3.26891,16.9707
294,638,3.07507,-16.9193,0,0,0,0,0,0,0,-1,1518,386,3.07512,16.9193
301,638,2.96716,-16.5901,0,0,0,0,0,0,0,-1,1525,386,2.96719,16.5901
308,638,3.30042,-15.9002,0,0,0,0,0,0,0,-1,1532,386,3.30044,15.9002
315,638,3.37646,-15.575,0,0,0,0,0,0,0,-1,1539,386,3.37642,15.575
322,638,2.91064,-16.0751,0,0,0,0,0,0,0,-1,1546,386,2.91069,16.0751
329,638,3.25403,-14.9793,0,0,0,0,0,0,0,-1,1553,386,3.25407,14.9793
336,638,2.80005,-14.3015,0,0,0,0,0,0,0,-1,1560,386,2.80007,14.3015
343,638,-0.128174,-12.1073,0,0,0,0,0,0,0,-1,1567,386,-0.128176,12.1073
350,638,2.3783,-11.33,0,0,0,0,0,0,0,-1,1574,386,2.37831,11.33
357,638,0.130371,-3.02618,0,0,0,0,0,0,0,-1,1581,386,0.130345,3.0262
364,638,3.78149,-6.45215,0,0,0,0,0,0,0,-1,1588,386,3.78155,6.45216
371,638,4.18604,-6.71164,0,0,0,0,0,0,0,-1,1595,386,4.18598,6.71164
378,638,4.59045,-6.97113,0,0,0,0,0,0,0,-1,1602,386,4.5904,6.97112
385,638,0,0,0,0,0,0,0,0,0,-1,1609,386,0,0
392,638,0,0,0,0,0,0,0,0,0,-1,1616,386,0,0
399,638,0,0,0,0,0,0,0,0,0,-1,1623,386,0,0
406,638,0,0,0,0,0,0,0,0,0,-1,1630,386,0,0
413,638,0,0,0,0,0,0,0,0,0,-1,1637,386,0,0
420,638,0,0,0,0,0,0,0,0,0,-1,1644,386,0,0
427,638,0,0,0,0,0,0,0,0,0,-1,1651,386,0,0
434,638,0,0,0,0,0,0,0,0,0,-1,1658,386,0,0
441,638,0,0,0,0,0,0,0,0,0,-1,1665,386,0,0
448,638,0,0,0,0,0,0,0,0,0,-1,1672,386,0,0
455,638,0,0,0,0,0,0,0,0,0,-1,1679,386,0,0
462,638,0,0,0,0,0,0,0,0,0,-1,1686,386,0,0
469,638,0,0,0,0,0,0,0,0,0,-1,1693,386,0,0
476,638,0,0,0,0,0,0,0,0,0,-1,1700,386,0,0
483,638,0,0,0,0,0,0,0,0,0,-1,1707,386,0,0
490,638,0,0,0,0,0,0,0,0,0,-1,1714,386,0,0
497,638,0,0,0,0,0,0,0,0,0,-1,1721,386,0,0
504,638,0,0,0,0,0,0,0,0,0,-1,1728,386,0,0
511,638,0,0,0,0,0,0,0,0,0,-1,1735,386,0,0
518,638,0,0,0,0,0,0,0,0,0,-1,1742,386,0,0
525,638,0,0,0,0,0,0,0,0,0,-1,1749,386,0,0
532,638,0,0,0,0,0,0,0,0,0,-1,1756,386,0,0
539,638,0,0,0,0,0,0,0,0,0,-1,1763,386,0,0
546,638,0,0,0,0,0,0,0,0,0,-1,1770,386,0,0
553,638,0,0,0,0,0,0,0,0,0,-1,1777,386,0,0
560,638,0,0,0,0,0,0,0,0,0,-1,1784,386,0,0
567,638,0,0,0,0,0,0,0,0,0,-1,1791,386,0,0
574,638,0,0,0,0,0,0,0,0,0,-1,1798,386,0,0
581,638,0,0,0,0,0,0,0,0,0,-1,1805,386,0,0
588,638,0,0,0,0,0,0,0,0,0,-1,1812,386,0,0
595,638,0,0,0,0,0,0,0,0,0,-1,1819,386,0,0
602,638,0,0,0,0,0,0,0,0,0,-1,1826,386,0,0
609,638,0,0,0,0,0,0,0,0,0,-1,1833,386,0,0
616,638,0,0,0,0,0,0,0,0,0,-1,1840,386,0,0
623,638,0,0,0,0,0,0,0,0,0,-1,1847,386,0,0
630,638,0,0,0,0,0,0,0,0,0,-1,1854,386,0,0
637,638,0,0,0,0,0,0,0,0,0,-1,1861,386,0,0
644,638,0,0,0,0,0,0,0,0,0,-1,1868,386,0,0
651,638,0,0,0,0,0,0,0,0,0,-1,1875,386,0,0
658,638,0,0,0,0,0,0,0,0,0,-1,1882,386,0,0
665,638,0,0,0,0,0,0,0,0,0,-1,1889,386,0,0
672,638,0,0,0,0,0,0,0,0,0,-1,1896,386,0,0
679,638,0,0,0,0,0,0,0,0,0,-1,1903,386,0,0
686,638,0,0,0,0,0,0,0,0,0,-1,1910,386,0,0
693,638,0,0,0,0,0,0,0,0,0,-1,1917,386,0,0
700,638,0,0,0,0,0,0,0,0,0,-1,1924,386,0,0
707,638,0,0,0,0,0,0,0,0,0,-1,1931,386,0,0
714,638,0,0,0,0,0,0,0,0,0,-1,1938,386,0,0
721,638,0,0,0,0,0,0,0,0,0,-1,1945,386,0,0
728,638,0,0,0,0,0,0,0,0,0,-1,1952,386,0,0
735,638,0,0,0,0,0,0,0,0,0,-1,1959,386,0,0
742,638,0,0,0,0,0,0,0,0,0,-1,1966,386,0,0
749,638,0,0,0,0,0,0,0,0,0,-1,1973,386,0,0
756,638,0,0,0,0,0,0,0,0,0,-1,1980,386,0,0
763,638,0,0,0,0,0,0,0,0,0,-1,1987,386,0,0
770,638,0,0,0,0,0,0,0,0,0,-1,1994,386,0,0
777,638,0,0,0,0,0,0,0,0,0,-1,2001,386,0,0
784,638,0,0,0,0,0,0,0,0,0,-1,2008,386,0,0
791,638,0,0,0,0,0,0,0,0,0,-1,2015,386,0,0
798,638,0,0,0,0,0,0,0,0,0,-1,2022,386,0,0
805,638,0,0,0,0,0,0,0,0,0,-1,2029,386,0,0
812,638,0,0,0,0,0,0,0,0,0,-1,2036,386,0,0
-700,631,0,0,0,0,0,0,0,0,0,-1,524,393,0,0
-693,631,0,0,0,0,0,0,0,0,0,-1,531,393,0,0
-686,631,0,0,0,0,0,0,0,0,0,-1,538,393,0,0
-679,631,0,0,0,0,0,0,0,0,0,-1,545,393,0,0
-672,631,0,0,0,0,0,0,0,0,0,-1,552,393,0,0
-665,631,0,0,0,0,0,0,0,0,0,-1,559,393,0,0
-658,631,0,0,0,0,0,0,0,0,0,-1,566,393,0,0
-651,631,0,0,0,0,0,0,0,0,0,-1,573,393,0,0
-644,631,0,0,0,0,0,0,0,0,0,-1,580,393,0,0
-637,631,0,0,0,0,0,0,0,0,0,-1,587,393,0,0
-630,631,0,0,0,0,0,0,0,0,0,-1,594,393,0,0
-623,631,0,0,0,0,0,0,0,0,0,-1,601,393,0,0
-616,631,0,0,0,0,0,0,0,0,0,-1,608,393,0,0
-609,631,0,0,0,0,0,0,0,0,0,-1,615,393,0,0
-602,631,0,0,0,0,0,0,0,0,0,-1,622,393,0,0
-595,631,0,0,0,0,0,0,0,0,0,-1,629,393,0,0
-588,631,0,0,0,0,0,0,0,0,0,-1,636,393,0,0
-581,631,0,0,0,0,0,0,0,0,0,-1,643,393,0,0
-574,631,0,0,0,0,0,0,0,0,0,-1,650,393,0,0
-567,631,0,0,0,0,0,0,0,0,0,-1,657,393,0,0
-560,631,0,0,0,0,0,0,0,0,0,-1,664,393,0,0
-553,631,0,0,0,0,0,0,0,0,0,-1,671,393,0,0
-546,631,0,0,0,0,0,0,0,0,0,-1,678,393,0,0
-539,631,0,0,0,0,0,0,0,0,0,-1,685,393,0,0
-532,631,0,0,0,0,0,0,0,0,0,-1,692,393,0,0
-525,631,0,0,0,0,0,0,0,0,0,-1,699,393,0,0
-518,631,0,0,0,0,0,0,0,0,0,-1,706,393,0,0
-511,631,0,0,0,0,0,0,0,0,0,-1,713,393,0,0
-504,631,0,0,0,0,0,0,0,0,0,-1,720,393,0,0
-497,631,0,0,0,0,0,0,0,0,0,-1,727,393,0,0
-490,631,0,0,0,0,0,0,0,0,0,-1,734,393,0,0
-483,631,0,0,0,0,0,0,0,0,0,-1,741,393,0,0
-476,631,0,0,0,0,0,0,0,0,0,-1,748,393,0,0
-469,631,0,0,0,0,0,0,0,0,0,-1,755,393,0,0
-462,631,0,0,0,0,0,0,0,0,0,-1,762,393,0,0
-455,631,0,0,0,0,0,0,0,0,0,-1,769,393,0,0
-448,631,0,0,0,0,0,0,0,0,0,-1,776,393,0,0
-441,631,0,0,0,0,0,0,0,0,0,-1,783,393,0,0
-434,631,0,0,0,0,0,0,0,0,0,-1,790,393,0,0
-427,631,0,0,0,0,0,0,0,0,0,-1,797,393,0,0
-420,631,0,0,0,0,0,0,0,0,0,-1,804,393,0,0
-413,631,0,0,0,0,0,0,0,0,0,-1,811,393,0,0
-406,631,0,0,0,0,0,0,0,0,0,-1,818,393,0,0
-399,631,0,0,0,0,0,0,0,0,0,-1,825,393,0,0
-392,631,0,0,0,0,0,0,0,0,0,-1,832,393,0,0
-385,631,0,0,0,0,0,0,0,0,0,-1,839,393,0,0
-378,631,0,0,0,0,0,0,0,0,0,-1,846,393,0,0
-371,631,0,0,0,0,0,0,0,0,0,-1,853,393,0,0
-364,631,0,0,0,0,0,0,0,0,0,-1,860,393,0,0
-357,631,0,0,0,0,0,0,0,0,0,-1,867,393,0,0
-350,631,0,0,0,0,0,0,0,0,0,-1,874,393,0,0
-343,631,0,0,0,0,0,0,0,0,0,-1,881,393,0,0
-336,631,0,0,0,0,0,0,0,0,0,-1,888,393,0,0
-329,631,0,0,0,0,0,0,0,0,0,-1,895,393,0,0
-322,631,0,0,0,0,0,0,0,0,0,-1,902,393,0,0
-315,631,0,0,0,0,0,0,0,0,0,-1,909,393,0,0
-308,631,0,0,0,0,0,0,0,0,0,-1,916,393,0,0
-301,631,0,0,0,0,0,0,0,0,0,-1,923,393,0,0
-294,631,0,0,0,0,0,0,0,0,0,-1,930,393,0,0
-287,631,0,0,0,0,0,0,0,0,0,-1,937,393,0,0
-280,631,1.38763,-14.3453,0,0,0,0,0,0,0,-1,944,393,1.38762,14.3453
-273,631,2.6192,-11.8094,0,0,0,0,0,0,0,-1,951,393,2.61918,11.8094
-266,631,0.616394,-9.4404,0,0,0,0,0,0,0,-1,958,393,0.616411,9.4404
-259,631,3.48328,-12.1518,0,0,0,0,0,0,0,-1,965,393,3.48325,12.1518
-252,631,3.14685,-12.495,0,0,0,0,0,0,0,-1,972,393,3.14685,12.495
-245,631,2.27789,-13.5737,0,0,0,0,0,0,0,-1,979,393,2.27788,13.5737
-238,631,3.32996,-16.2396,0,0,0,0,0,0,0,-1,986,393,3.32996,16.2396
-231,631,3.59491,-16.3476,0,0,0,0,0,0,0,-1,993,393,3.59489,16.3476
-224,631,3.69025,-16.7146,0,0,0,0,0,0,0,-1,1000,393,3.69024,16.7146
-217,631,3.77283,-17.2244,0,0,0,0,0,0,0,-1,1007,393,3.7728,17.2244
-210,631,3.30615,-16.465,0,0,0,0,0,0,0,-1,1014,393,3.30613,16.465
-203,631,3.51953,-16.6932,0,0,0,0,0,0,0,-1,1021,393,3.51951,16.6932
-196,631,3.25818,-16.9205,0,0,0,0,0,0,0,-1,1028,393,3.25822,16.9205
-189,631,3.27966,-17.0812,-0.00386164,-0.00610483,0.000230959,-0.00383811,-0.00612837,0.101541,0.00357564,0.0466742,1035,393,3.27966,17.0812
-182,631,3.34033,-17.3459,-0.00298003,-0.00748028,0.00233161,-0.00198987,-0.00847044,0.401591,0.00511438,0.0451606,1042,393,3.34033,17.3459
-175,631,3.5144,-17.5377,-0.00265988,-0.00869381,0.00458876,-0.000185147,-0.0111685,0.494595,0.00738475,0.0358417,1049,393,3.51442,17.5377
-168,631,3.46228,-17.7728,-0.00227719,-0.00929441,0.00633582,0.00145665,-0.0130282,0.53253,0.00920952,0.0195966,1056,393,3.46224,17.7728
-161,631,3.42749,-18.0191,-0.00194646,-0.00974715,0.00761702,0.00271075,-0.0144044,0.548775,0.0106224,0.00952319,1063,393,3.42745,18.0191
-154,631,3.40967,-18.2275,-0.00159675,-0.00949065,0.00868631,0.00399728,-0.0150847,0.57215,0.0116204,0.00878982,1070,393,3.40966,18.2275
-147,631,3.40125,-18.3999,-0.00121266,-0.00872589,0.00927402,0.0050367,-0.0149753,0.592964,0.0120195,0.0100858,1077,393,3.40126,18.3999
-140,631,3.38123,-18.5951,-0.000773364,-0.00769897,0.00953199,0.00590532,-0.0143777,0.611169,0.0120461,0.0100861,1084,393,3.38126,18.5951
-133,631,3.36731,-18.7747,-0.000440385,-0.00637029,0.00955067,0.00659498,-0.0134057,0.634893,0.0117684,0.00805992,1091,393,3.36727,18.7747
-126,631,3.35449,-18.9355,-0.000235884,-0.00489759,0.00906302,0.00679121,-0.0119247,0.659534,0.0109403,0.0115208,1098,393,3.35449,18.9354
-119,631,3.34229,-19.0823,-6.03871e-05,-0.00338557,0.00816984,0.00661431,-0.0100603,0.685017,0.00969536,0.0148134,1105,393,3.34229,19.0823
-112,631,3.33606,-19.2447,0.000156939,-0.00191156,0.00705269,0.00625081,-0.00800543,0.712594,0.0082516,0.0135472,1112,393,3.33601,19.2447
-105,631,3.34363,-19.4194,0.000210707,-0.000554216,0.0057932,0.00563406,-0.00597757,0.752437,0.00670495,0.0179284,1119,393,3.34363,19.4194
-98,631,3.32922,-19.576,0.000116914,0.000604989,0.00443755,0.00480521,-0.0040833,0.812867,0.00513742,0.0150416,1126,393,3.32921,19.5759
-91,631,3.29077,-19.7422,1.38542e-05,0.00154473,0.00298711,0.00386291,-0.00230433,0.910823,0.00359836,0.0167158,1133,393,3.29075,19.7422
-84,631,3.27771,-19.8731,-0.000161981,0.00197315,0.00182405,0.00301908,-0.00120791,1.05016,0.00251402,0.0167074,1140,393,3.27765,19.8731
-77,631,3.26855,-19.9955,-0.00033318,0.00190427,0.000901314,0.00222218,-0.000651087,1.2317,0.00173958,0.0108589,1147,393,3.26861,19.9955
-70,631,3.27991,-20.1088,-0.000397211,0.00174277,3.82197e-05,0.00174345,-0.000397893,1.55294,0.00131515,0.010406,1154,393,3.27987,20.1088
-63,631,3.27759,-20.23,-6.59608e-05,0.0017333,-0.000424962,0.00182863,-0.000161281,-1.35015,0.00127625,0.01042,1161,393,3.27754,20.23
-56,631,3.26282,-20.3527,0.000421314,0.00211221,-0.000343029,0.00217915,0.000354375,-1.37808,0.00135023,0.0113452,1168,393,3.2628,20.3527
-49,631,3.26282,-20.4451,0.000693138,0.00206959,-0.000222837,0.00210476,0.000657961,-1.41423,0.00124331,0.0100745,1175,393,3.26284,20.4451
-42,631,3.24683,-20.5361,0.000926868,0.00169576,-0.000124637,0.00171546,0.000907169,-1.41404,0.000990969,0.00852525,1182,393,3.24679,20.5361
-35,631,3.23608,-20.6303,0.00103428,0.00117203,-5.51035e-05,0.00119136,0.00101495,-1.2334,0.000742455,0.00971771,1189,393,3.23603,20.6303
-28,631,3.2345,-20.7047,0.00112668,0.00058153,1.72887e-06,0.00112668,0.000581525,0.00317135,0.000650602,0.0132705,1196,393,3.23448,20.7047
-21,631,3.229,-20.7879,0.00123309,4.41661e-05,-1.74794e-06,0.00123309,4.41635e-05,-0.00147018,0.000807744,0.012377,1203,393,3.22905,20.7879
-14,631,3.22046,-20.8728,0.000973171,-0.000675643,-4.47007e-05,0.000974382,-0.000676854,-0.0270843,0.000958486,0.0144424,1210,393,3.22041,20.8728
-7,631,3.24426,-20.977,0.000933915,-0.00104258,-0.000345173,0.000992462,-0.00110113,-0.168015,0.00120928,0.0207429,1217,393,3.24427,20.977
0,631,3.24878,-21.0007,0.000967446,-0.00118021,-0.000896992,0.0012928,-0.00150556,-0.347955,0.00161719,0.0205371,1224,393,3.24875,21.0007
7,631,3.24951,-20.9896,0.000787412,-0.00153864,-0.00126835,0.00134524,-0.00209647,-0.414345,0.00200279,0.016206,1231,393,3.24955,20.9896
14,631,3.2605,-21.0449,0.000533943,-0.00158458,-0.00164375,0.00143018,-0.00248081,-0.499178,0.002285,0.0094045,1238,393,3.26055,21.0449
21,631,3.2572,-21.0985,0.0003503,-0.00158451,-0.00197091,0.00157843,-0.00281264,-0.557252,0.00256835,0.0118922,1245,393,3.25714,21.0985
28,631,3.26929,-21.1228,0.00026404,-0.00142853,-0.00232113,0.00188835,-0.00305284,-0.610587,0.00287908,0.0139603,1252,393,3.26926,21.1228
35,631,3.30212,-21.1269,5.38043e-05,-0.00133388,-0.00247481,0.0019302,-0.00321027,-0.648726,0.00299837,0.0134952,1259,393,3.30209,21.1269
42,631,3.31702,-21.1476,-0.00021848,-0.00117155,-0.00250939,0.00185922,-0.00324925,-0.691565,0.00298555,0.0124164,1266,393,3.317,21.1476
49,631,3.31445,-21.152,-2.8956e-05,-0.00104848,-0.0023533,0.00186916,-0.00294659,-0.678738,0.00280347,0.0108149,1273,393,3.31439,21.152
56,631,3.31946,-21.1512,0.000298069,-0.00084915,-0.00215517,0.00195466,-0.00250574,-0.655336,0.00258176,0.0118025,1280,393,3.31948,21.1512
63,631,3.32471,-21.1585,0.000543477,-0.00067685,-0.00177803,0.00181312,-0.0019465,-0.62011,0.00217107,0.0135389,1287,393,3.32476,21.1585
70,631,3.32898,-21.1334,0.000769142,-0.00055588,-0.00133006,0.00159256,-0.0013793,-0.554333,0.00171727,0.0138818,1294,393,3.32895,21.1334
77,631,3.33276,-21.1147,0.000834092,-0.000820524,-0.000858995,0.00119939,-0.00118582,-0.402093,0.00137711,0.0143896,1301,393,3.33274,21.1147
84,631,3.35083,-21.0833,0.000782207,-0.00114331,-0.000400655,0.000862246,-0.00122335,-0.197176,0.00121012,0.0123951,1308,393,3.35083,21.0833
91,631,3.36621,-21.0298,0.000822066,-0.00144948,-6.24474e-06,0.000822084,-0.0014495,-0.00274909,0.00132807,0.0147943,1315,393,3.36621,21.0297
98,631,3.36023,-20.9903,0.000465422,-0.00207963,0.000641724,0.000618074,-0.00223228,0.233537,0.00173139,0.0130392,1322,393,3.36021,20.9903
105,631,3.33789,-20.9603,0.000126576,-0.00278615,0.00138782,0.000681937,-0.00334151,0.380651,0.00248636,0.0110128,1329,393,3.33792,20.9603
112,631,3.35144,-20.9116,9.781e-05,-0.00301316,0.00162662,0.000792974,-0.00370833,0.403874,0.00277458,0.0117699,1336,393,3.35149,20.9116
119,631,3.37341,-20.8698,4.10602e-06,-0.0034351,0.00189038,0.000840002,-0.004271,0.416335,0.00316472,0.0125222,1343,393,3.37341,20.8698
126,631,3.38892,-20.7777,-0.000183689,-0.00362569,0.00205724,0.000777486,-0.00458686,0.437079,0.00334731,0.0166365,1350,393,3.38889,20.7777
133,631,3.39734,-20.67,-0.000378463,-0.00372333,0.00218162,0.000698014,-0.00479981,0.458377,0.00345612,0.0173985,1357,393,3.39728,20.6699
140,631,3.37537,-20.602,-0.000362069,-0.00355717,0.0021677,0.000733168,-0.00465241,0.46784,0.00337266,0.0187751,1364,393,3.37535,20.602
147,631,3.37756,-20.5335,-0.000275353,-0.00334133,0.00202509,0.000731548,-0.00434823,0.461416,0.00317092,0.0227432,1371,393,3.37761,20.5335
154,631,3.40076,-20.4487,-0.000298513,-0.00285542,0.00175213,0.000591997,-0.00374593,0.470222,0.00271621,0.0212341,1378,393,3.40073,20.4487
161,631,3.40271,-20.3049,-0.000195809,-0.00216935,0.00149434,0.000608164,-0.00297333,0.493593,0.00221297,0.0230035,1385,393,3.40275,20.3049
168,631,3.44214,-20.1241,-3.8337e-05,-0.00134931,0.00119784,0.000671634,-0.00205929,0.535042,0.00164315,0.0267806,1392,393,3.44213,20.1241
175,631,3.42883,-20.0302,6.42407e-05,-0.000583126,0.000918777,0.000714683,-0.00123357,0.616038,0.00113804,0.0192826,1399,393,3.42883,20.0302
182,631,3.3844,-19.9312,0.000133372,0.000196646,0.000635225,0.000801021,-0.000471004,0.81028,0.000742597,0.0113112,1406,393,3.3844,19.9312
189,631,3.37695,-19.7835,8.25267e-05,0.000837564,0.000491905,0.00108012,-0.000160028,1.11269,0.000778921,0.0110965,1413,393,3.37694,19.7835
196,631,3.37854,-19.6447,-3.69224e-05,0.0013842,0.000528783,0.00155936,-0.000212086,1.25091,0.001117,0.0116449,1420,393,3.37855,19.6446
203,631,3.39246,-19.5168,-0.000263884,0.00189239,0.000637327,0.00206668,-0.000438171,1.30386,0.0015447,0.0136486,1427,393,3.39248,19.5168
210,631,3.3772,-19.3616,-0.000560353,0.00233184,0.00075751,0.00251823,-0.000746744,1.32953,0.00197536,0.0155892,1434,393,3.37726,19.3616
217,631,3.36108,-19.2036,-0.000793376,0.0028216,0.000851347,0.00301206,-0.000983838,1.3507,0.00240405,0.0168419,1441,393,3.36104,19.2036
224,631,3.35083,-19.0244,-0.000878585,0.00338663,0.000994801,0.00360724,-0.0010992,1.35256,0.00284296,0.0135827,1448,393,3.35078,19.0244
231,631,3.33911,-18.8263,-0.000754419,0.00397691,0.00125571,0.00428953,-0.00106703,1.3268,0.00327385,0.0114058,1455,393,3.33912,18.8263
238,631,3.34937,-18.6477,-0.000541463,0.00473968,0.00168481,0.00523139,-0.00103318,1.28683,0.00387814,0.0167888,1462,393,3.34933,18.6477
245,631,3.34753,-18.4742,-0.000448942,0.00546099,0.00197788,0.00606184,-0.00104979,1.27587,0.00443279,0.0174257,1469,393,3.34755,18.4742
252,631,3.32214,-18.2834,-0.000212871,0.00622998,0.00236817,0.00700678,-0.000989675,1.25384,0.00503361,0.0163386,1476,393,3.32215,18.2834
259,631,3.30432,-18.089,0.000124199,0.00723825,0.00294284,0.0082978,-0.000935347,1.2252,0.00586855,0.0126377,1483,393,3.30433,18.089
266,631,3.30334,-17.8944,0.000308883,0.008448,0.00350069,0.00974651,-0.000989627,1.2156,0.00685141,0.0114171,1490,393,3.30336,17.8944
273,631,3.2666,-17.6692,0.000347519,0.00943206,0.00381135,0.0108193,-0.00103968,1.22173,0.00758319,0.0142006,1497,393,3.26655,17.6692
280,631,3.2511,-17.4496,0.000617474,0.0104419,0.00431935,0.0120708,-0.00101147,1.21016,0.00840467,0.0121921,1504,393,3.25114,17.4496
287,631,3.25171,-17.2026,0.00072172,0.0113832,0.00476504,0.0132025,-0.00109753,1.20608,0.00918936,0.0125293,1511,393,3.25171,17.2027
294,631,3.22791,-16.9337,0.000663869,0.0124034,0.00514955,0.0143421,-0.00127482,1.21073,0.0100134,0.0171896,1518,393,3.22795,16.9337
301,631,3.17737,-16.6204,0.000488821,0.0134104,0.00539559,0.0153671,-0.00146789,1.2229,0.0107674,0.0267123,1525,393,3.17732,16.6204
308,631,3.37366,-16.1808,0.000184608,0.0142754,0.00550014,0.016168,-0.00170807,1.23937,0.0113908,0.0320455,1532,393,3.37368,16.1808
315,631,3.4054,-15.895,-0.000290298,0.0149196,0.00559027,0.0167532,-0.00212391,1.25385,0.0119399,0.0375749,1539,393,3.40542,15.895
322,631,3.11926,-16.0167,-0.00088756,0.0153284,0.00561697,0.017084,-0.00264313,1.26787,0.0123649,0.0444375,1546,393,3.11923,16.0167
329,631,3.01501,-15.7827,0,0,0,0,0,0,0,-1,1553,393,3.01496,15.7827
336,631,3.54724,-15.6094,0,0,0,0,0,0,0,-1,1560,393,3.54726,15.6094
343,631,2.45703,-11.5554,0,0,0,0,0,0,0,-1,1567,393,2.45703,11.5554
350,631,2.1344,-9.23401,0,0,0,0,0,0,0,-1,1574,393,2.13439,9.23401
357,631,2.6449,-9.60303,0,0,0,0,0,0,0,-1,1581,393,2.64491,9.60304
364,631,3.39136,-5.7594,0,0,0,0,0,0,0,-1,1588,393,3.39137,5.75939
371,631,3.72839,-6.0574,0,0,0,0,0,0,0,-1,1595,393,3.72845,6.05742
378,631,4.06555,-6.35544,0,0,0,0,0,0,0,-1,1602,393,4.06553,6.35544
385,631,3.90442,-3.58298,0,0,0,0,0,0,0,-1,1609,393,3.90437,3.58299
392,631,0.352295,-2.21301,0,0,0,0,0,0,0,-1,1616,393,0.352345,2.213
399,631,0,0,0,0,0,0,0,0,0,-1,1623,393,0,0
406,631,0,0,0,0,0,0,0,0,0,-1,1630,393,0,0
413,631,0,0,0,0,0,0,0,0,0,-1,1637,393,0,0
420,631,0,0,0,0,0,0,0,0,0,-1,1644,393,0,0
427,631,0,0,0,0,0,0,0,0,0,-1,1651,393,0,0
434,631,0,0,0,0,0,0,0,0,0,-1,1658,393,0,0
441,631,0,0,0,0,0,0,0,0,0,-1,1665,393,0,0
448,631,0,0,0,0,0,0,0,0,0,-1,1672,393,0,0
455,631,0,0,0,0,0,0,0,0,0,-1,1679,393,0,0
462,631,0,0,0,0,0,0,0,0,0,-1,1686,393,0,0
469,631,0,0,0,0,0,0,0,0,0,-1,1693,393,0,0
476,631,0,0,0,0,0,0,0,0,0,-1,1700,393,0,0
483,631,0,0,0,0,0,0,0,0,0,-1,1707,393,0,0
490,631,0,0,0,0,0,0,0,0,0,-1,1714,393,0,0
497,631,0,0,0,0,0,0,0,0,0,-1,1721,393,0,0
504,631,0,0,0,0,0,0,0,0,0,-1,1728,393,0,0
511,631,0,0,0,0,0,0,0,0,0,-1,1735,393,0,0
518,631,0,0,0,0,0,0,0,0,0,-1,1742,393,0,0
525,631,0,0,0,0,0,0,0,0,0,-1,1749,393,0,0
532,631,0,0,0,0,0,0,0,0,0,-1,1756,393,0,0
539,631,0,0,0,0,0,0,0,0,0,-1,1763,393,0,0
546,631,0,0,0,0,0,0,0,0,0,-1,1770,393,0,0
553,631,0,0,0,0,0,0,0,0,0,-1,1777,393,0,0
560,631,0,0,0,0,0,0,0,0,0,-1,1784,393,0,0
567,631,0,0,0,0,0,0,0,0,0,-1,1791,393,0,0
574,631,0,0,0,0,0,0,0,0,0,-1,1798,393,0,0
581,631,0,0,0,0,0,0,0,0,0,-1,1805,393,0,0
588,631,0,0,0,0,0,0,0,0,0,-1,1812,393,0,0
595,631,0,0,0,0,0,0,0,0,0,-1,1819,393,0,0
602,631,0,0,0,0,0,0,0,0,0,-1,1826,393,0,0
609,631,0,0,0,0,0,0,0,0,0,-1,1833,393,0,0
616,631,0,0,0,0,0,0,0,0,0,-1,1840,393,0,0
623,631,0,0,0,0,0,0,0,0,0,-1,1847,393,0,0
630,631,0,0,0,0,0,0,0,0,0,-1,1854,393,0,0
637,631,0,0,0,0,0,0,0,0,0,-1,1861,393,0,0
644,631,0,0,0,0,0,0,0,0,0,-1,1868,393,0,0
651,631,0,0,0,0,0,0,0,0,0,-1,1875,393,0,0
658,631,0,0,0,0,0,0,0,0,0,-1,1882,393,0,0
665,631,0,0,0,0,0,0,0,0,0,-1,1889,393,0,0
672,631,0,0,0,0,0,0,0,0,0,-1,1896,393,0,0
679,631,0,0,0,0,0,0,0,0,0,-1,1903,393,0,0
686,631,0,0,0,0,0,0,0,0,0,-1,1910,393,0,0
693,631,0,0,0,0,0,0,0,0,0,-1,1917,393,0,0
700,631,0,0,0,0,0,0,0,0,0,-1,1924,393,0,0
707,631,0,0,0,0,0,0,0,0,0,-1,1931,393,0,0
714,631,0,0,0,0,0,0,0,0,0,-1,1938,393,0,0
721,631,0,0,0,0,0,0,0,0,0,-1,1945,393,0,0
728,631,0,0,0,0,0,0,0,0,0,-1,1952,393,0,0
735,631,0,0,0,0,0,0,0,0,0,-1,1959,393,0,0
742,631,0,0,0,0,0,0,0,0,0,-1,1966,393,0,0
749,631,0,0,0,0,0,0,0,0,0,-1,1973,393,0,0
756,631,0,0,0,0,0,0,0,0,0,-1,1980,393,0,0
763,631,0,0,0,0,0,0,0,0,0,-1,1987,393,0,0
770,631,0,0,0,0,0,0,0,0,0,-1,1994,393,0,0
777,631,0,0,0,0,0,0,0,0,0,-1,2001,393,0,0
784,631,0,0,0,0,0,0,0,0,0,-1,2008,393,0,0
791,631,0,0,0,0,0,0,0,0,0,-1,2015,393,0,0
798,631,0,0,0,0,0,0,0,0,0,-1,2022,393,0,0
805,631,0,0,0,0,0,0,0,0,0,-1,2029,393,0,0
812,631,0,0,0,0,0,0,0,0,0,-1,2036,393,0,0
-700,624,0,0,0,0,0,0,0,0,0,-1,524,400,0,0
-693,624,0,0,0,0,0,0,0,0,0,-1,531,400,0,0
-686,624,0,0,0,0,0,0,0,0,0,-1,538,400,0,0
-679,624,0,0,0,0,0,0,0,0,0,-1,545,400,0,0
-672,624,0,0,0,0,0,0,0,0,0,-1,552,400,0,0
-665,624,0,0,0,0,0,0,0,0,0,-1,559,400,0,0
-658,624,0,0,0,0,0,0,0,0,0,-1,566,400,0,0
-651,624,0,0,0,0,0,0,0,0,0,-1,573,400,0,0
-644,624,0,0,0,0,0,0,0,0,0,-1,580,400,0,0
-637,624,0,0,0,0,0,0,0,0,0,-1,587,400,0,0
-630,624,0,0,0,0,0,0,0,0,0,-1,594,400,0,0
-623,624,0,0,0,0,0,0,0,0,0,-1,601,400,0,0
-616,624,0,0,0,0,0,0,0,0,0,-1,608,400,0,0
-609,624,0,0,0,0,0,0,0,0,0,-1,615,400,0,0
-602,624,0,0,0,0,0,0,0,0,0,-1,622,400,0,0
-595,624,0,0,0,0,0,0,0,0,0,-1,629,400,0,0
-588,624,0,0,0,0,0,0,0,0,0,-1,636,400,0,0
-581,624,0,0,0,0,0,0,0,0,0,-1,643,400,0,0
-574,624,0,0,0,0,0,0,0,0,0,-1,650,400,0,0
-567,624,0,0,0,0,0,0,0,0,0,-1,657,400,0,0
-560,624,0,0,0,0,0,0,0,0,0,-1,664,400,0,0
-553,624,0,0,0,0,0,0,0,0,0,-1,671,400,0,0
-546,624,0,0,0,0,0,0,0,0,0,-1,678,400,0,0
-539,624,0,0,0,0,0,0,0,0,0,-1,685,400,0,0
-532,624,0,0,0,0,0,0,0,0,0,-1,692,400,0,0
-525,624,0,0,0,0,0,0,0,0,0,-1,699,400,0,0
-518,624,0,0,0,0,0,0,0,0,0,-1,706,400,0,0
-511,624,0,0,0,0,0,0,0,0,0,-1,713,400,0,0
-504,624,0,0,0,0,0,0,0,0,0,-1,720,400,0,0
-497,624,0,0,0,0,0,0,0,0,0,-1,727,400,0,0
-490,624,0,0,0,0,0,0,0,0,0,-1,734,400,0,0
-483,624,0,0,0,0,0,0,0,0,0,-1,741,400,0,0
-476,624,0,0,0,0,0,0,0,0,0,-1,748,400,0,0
-469,624,0,0,0,0,0,0,0,0,0,-1,755,400,0,0
-462,624,0,0,0,0,0,0,0,0,0,-1,762,400,0,0
-455,624,0,0,0,0,0,0,0,0,0,-1,769,400,0,0
-448,624,0,0,0,0,0,0,0,0,0,-1,776,400,0,0
-441,624,0,0,0,0,0,0,0,0,0,-1,783,400,0,0
-434,624,0,0,0,0,0,0,0,0,0,-1,790,400,0,0
-427,624,0,0,0,0,0,0,0,0,0,-1,797,400,0,0
-420,624,0,0,0,0,0,0,0,0,0,-1,804,400,0,0
-413,624,0,0,0,0,0,0,0,0,0,-1,811,400,0,0
-406,624,0,0,0,0,0,0,0,0,0,-1,818,400,0,0
-399,624,0,0,0,0,0,0,0,0,0,-1,825,400,0,0
-392,624,0,0,0,0,0,0,0,0,0,-1,832,400,0,0
-385,624,0,0,0,0,0,0,0,0,0,-1,839,400,0,0
-378,624,0,0,0,0,0,0,0,0,0,-1,846,400,0,0
-371,624,0,0,0,0,0,0,0,0,0,-1,853,400,0,0
-364,624,0,0,0,0,0,0,0,0,0,-1,860,400,0,0
-357,624,0,0,0,0,0,0,0,0,0,-1,867,400,0,0
-350,624,0,0,0,0,0,0,0,0,0,-1,874,400,0,0
-343,624,0,0,0,0,0,0,0,0,0,-1,881,400,0,0
-336,624,0,0,0,0,0,0,0,0,0,-1,888,400,0,0
-329,624,0,0,0,0,0,0,0,0,0,-1,895,400,0,0
-322,624,0,0,0,0,0,0,0,0,0,-1,902,400,0,0
-315,624,0,0,0,0,0,0,0,0,0,-1,909,400,0,0
-308,624,0,0,0,0,0,0,0,0,0,-1,916,400,0,0
-301,624,0,0,0,0,0,0,0,0,0,-1,923,400,0,0
-294,624,-0.912903,-12.9461,0,0,0,0,0,0,0,-1,930,400,-0.912926,12.9461
-287,624,0.12146,-15.0862,0,0,0,0,0,0,0,-1,937,400,0.121451,15.0862
-280,624,1.44836,-13.0475,0,0,0,0,0,0,0,-1,944,400,1.44835,13.0475
-273,624,2.56573,-11.0646,0,0,0,0,0,0,0,-1,951,400,2.56571,11.0646
-266,624,4.63965,-10.4106,0,0,0,0,0,0,0,-1,958,400,4.63965,10.4106
-259,624,3.94147,-11.5439,0,0,0,0,0,0,0,-1,965,400,3.94147,11.5439
-252,624,3.05292,-12.3682,0,0,0,0,0,0,0,-1,972,400,3.0529,12.3682
-245,624,3.66302,-15.8866,0,0,0,0,0,0,0,-1,979,400,3.66305,15.8866
-238,624,3.23596,-16.0231,0,0,0,0,0,0,0,-1,986,400,3.23596,16.0231
-231,624,2.80884,-16.1597,0,0,0,0,0,0,0,-1,993,400,2.80886,16.1597
-224,624,3.46204,-15.6416,0,0,0,0,0,0,0,-1,1000,400,3.46205,15.6416
-217,624,3.52014,-15.9202,0,0,0,0,0,0,0,-1,1007,400,3.52012,15.9202
-210,624,3.23737,-16.4677,-0.00528519,0.00543263,-0.00422896,0.00690029,-0.00675285,-1.23675,0.0078828,0.0454964,1014,400,3.23734,16.4677
-203,624,3.33508,-16.6892,-0.00435237,0.00273244,-0.00374981,0.0043485,-0.00596842,-1.16388,0.0059809,0.0376485,1021,400,3.33504,16.6892
-196,624,3.36487,-16.7778,-0.00367557,0.000379584,-0.00256623,0.00162258,-0.00491856,-1.11974,0.00393309,0.0349871,1028,400,3.36486,16.7778
-189,624,3.28076,-17.0002,-0.0026383,-0.00181325,-0.00181133,-0.000368069,-0.00408349,-0.897362,0.00260831,0.0338204,1035,400,3.28078,17.0002
-182,624,3.28015,-17.3081,-0.00191582,-0.00298141,-0.000335621,-0.00181892,-0.00307831,-0.281065,0.00178702,0.0273816,1042,400,3.28017,17.3081
-175,624,3.31165,-17.57,-0.00172565,-0.00412379,0.00135203,-0.00111759,-0.00473186,0.422642,0.00285589,0.0174713,1049,400,3.31159,17.57
-168,624,3.29846,-17.8034,-0.00148983,-0.00487989,0.00272786,2.67387e-05,-0.00639646,0.507404,0.00427325,0.0123048,1056,400,3.29852,17.8034
-161,624,3.2467,-18.0379,-0.00126831,-0.00552342,0.00378799,0.000948711,-0.00774044,0.529523,0.00550385,0.010226,1063,400,3.24671,18.0379
-154,624,3.23572,-18.2254,-0.00104959,-0.00562603,0.00470946,0.00189812,-0.00857374,0.559255,0.00644242,0.00977233,1070,400,3.23574,18.2254
-147,624,3.22485,-18.4188,-0.000801289,-0.00535804,0.0052701,0.00266184,-0.00882117,0.58137,0.00694035,0.0110827,1077,400,3.2249,18.4188
-140,624,3.19141,-18.6155,-0.000482969,-0.00489366,0.00556687,0.00329947,-0.00867609,0.596804,0.0071426,0.0100393,1084,400,3.19138,18.6155
-133,624,3.19543,-18.7962,-0.000237816,-0.00411342,0.0056752,0.00382129,-0.00817253,0.620879,0.0070749,0.0102962,1091,400,3.19547,18.7962
-126,624,3.19092,-18.9479,-9.4315e-05,-0.00318596,0.00537942,0.00395698,-0.00723726,0.645489,0.00655484,0.0117639,1098,400,3.1909,18.9479
-119,624,3.16296,-19.106,6.02047e-05,-0.00212366,0.00473471,0.00382726,-0.00589072,0.672068,0.00565268,0.0141256,1105,400,3.16292,19.106
-112,624,3.15308,-19.2471,0.000274758,-0.00104814,0.00391852,0.00358726,-0.00436064,0.701786,0.00459596,0.0157369,1112,400,3.15302,19.2471
-105,624,3.18188,-19.4122,0.000386218,-1.64972e-05,0.00298612,0.00317776,-0.00280804,0.751734,0.0034581,0.011913,1119,400,3.18185,19.4122
-98,624,3.14673,-19.5806,0.000392342,0.000836987,0.00198742,0.00261448,-0.00138515,0.841099,0.00234526,0.0125609,1126,400,3.14668,19.5806
-91,624,3.1543,-19.7346,0.000390612,0.00146564,0.00101748,0.00207886,-0.000222603,1.02841,0.00146575,0.018383,1133,400,3.15434,19.7346
-84,624,3.18689,-19.8715,0.000397118,0.00174742,0.000285341,0.00180524,0.000339297,1.37086,0.00110785,0.0176781,1140,400,3.18693,19.8714
-77,624,3.18152,-20.0099,0.000411112,0.00170923,-0.000204313,0.00174063,0.000379714,-1.41831,0.00105684,0.0123921,1147,400,3.18153,20.0099
-70,624,3.16016,-20.1178,0.000582293,0.00150438,-0.000514169,0.00173394,0.000352736,-1.15089,0.00105816,0.0123189,1154,400,3.16022,20.1178
-63,624,3.15576,-20.2226,0.000864854,0.00133784,-0.000603928,0.00174993,0.000452767,-0.972018,0.0010488,0.0120483,1161,400,3.15581,20.2226
-56,624,3.16125,-20.3548,0.000816046,0.00101692,-0.000395076,0.00132413,0.00050884,-0.909872,0.000771279,0.010017,1168,400,3.16129,20.3548
-49,624,3.17419,-20.4627,0.000563164,0.00032576,-0.000148629,0.000634674,0.00025425,-0.44844,0.000368835,0.00921007,1175,400,3.17413,20.4627
-42,624,3.16858,-20.5437,0.000386822,-0.000724675,-0.000128533,0.000401492,-0.000739345,-0.113641,0.000668221,0.00902965,1182,400,3.16855,20.5437
-35,624,3.16284,-20.6266,-0.000154397,-0.00212828,-0.000132736,-0.000145511,-0.00213716,-0.0668451,0.00137883,0.0145688,1189,400,3.16284,20.6266
-28,624,3.14624,-20.7132,-0.000811932,-0.00350687,-0.000129379,-0.000805735,-0.00351306,-0.0478614,0.00212501,0.0202432,1196,400,3.14625,20.7132
-21,624,3.17639,-20.7882,-0.00138777,-0.00483849,-0.00027651,-0.00136575,-0.0048605,-0.0794556,0.00289456,0.0147757,1203,400,3.17636,20.7882
-14,624,3.19299,-20.8748,-0.00251205,-0.00631192,-0.000412231,-0.00246784,-0.00635612,-0.10683,0.00370013,0.0149452,1210,400,3.193,20.8748
-7,624,3.16345,-20.9102,-0.00299124,-0.00689849,-0.00108788,-0.00270877,-0.00718097,-0.254045,0.00418739,0.0183372,1217,400,3.1634,20.9102
0,624,3.2041,-20.9598,-0.00316652,-0.007207,-0.00199467,-0.00234773,-0.00802579,-0.389515,0.00476481,0.0183948,1224,400,3.20412,20.9598
7,624,3.20593,-21.0036,-0.00356802,-0.00781273,-0.00257962,-0.00234989,-0.00903086,-0.441171,0.00541015,0.0141769,1231,400,3.20599,21.0036
14,624,3.23376,-21.0808,-0.00391246,-0.00786809,-0.00320075,-0.00212775,-0.0096528,-0.508652,0.00585624,0.0116628,1238,400,3.23374,21.0808
21,624,3.24377,-21.1039,-0.00406278,-0.0076916,-0.00382045,-0.00164778,-0.0101066,-0.563706,0.00626117,0.0125571,1245,400,3.24373,21.1039
28,624,3.24805,-21.1299,-0.00408457,-0.00731453,-0.00437234,-0.00103849,-0.0103606,-0.608488,0.00658825,0.0121359,1252,400,3.24803,21.1299
35,624,3.25903,-21.1436,-0.00429116,-0.00696734,-0.00460731,-0.000831561,-0.0104269,-0.644072,0.00669135,0.0152803,1259,400,3.25903,21.1436
42,624,3.28516,-21.1493,-0.00437403,-0.00655604,-0.0046876,-0.000652151,-0.0102779,-0.671062,0.00664524,0.0172226,1266,400,3.28513,21.1493
49,624,3.30225,-21.1382,-0.00376429,-0.00615002,-0.0043558,-0.000440965,-0.00947334,-0.651747,0.00617382,0.0177296,1273,400,3.30224,21.1382
56,624,3.30981,-21.1508,-0.00312598,-0.00564657,-0.00395877,-0.000231734,-0.00854081,-0.631293,0.00561822,0.0163225,1280,400,3.30978,21.1508
63,624,3.34387,-21.1472,-0.00269242,-0.00532795,-0.00327457,-0.00048041,-0.00753996,-0.594101,0.0048744,0.0132602,1287,400,3.34381,21.1473
70,624,3.34241,-21.1516,-0.0021353,-0.00503088,-0.0025262,-0.000671427,-0.00649475,-0.525192,0.00412429,0.0130896,1294,400,3.34242,21.1517
77,624,3.35913,-21.1285,-0.00176428,-0.00524363,-0.00172444,-0.00105443,-0.00595348,-0.390501,0.00366837,0.0131694,1301,400,3.3591,21.1285
84,624,3.37988,-21.1017,-0.0015667,-0.00548559,-0.0008861,-0.00137566,-0.00567663,-0.212349,0.00341939,0.0118584,1308,400,3.37993,21.1017
91,624,3.39233,-21.054,-0.00116898,-0.00571631,-0.000181529,-0.00116174,-0.00572355,-0.0398353,0.00349344,0.0122043,1315,400,3.39228,21.054
98,624,3.38904,-21.0137,-0.0013434,-0.0064882,0.000914373,-0.00118573,-0.00664588,0.170763,0.004093,0.0118985,1322,400,3.38909,21.0137
105,624,3.37866,-20.9952,-0.00151954,-0.00726028,0.00200077,-0.000891038,-0.00788878,0.304369,0.00498877,0.0131486,1329,400,3.37862,20.9952
112,624,3.41565,-20.9289,-0.00124474,-0.00738556,0.00236299,-0.000440735,-0.00818957,0.327964,0.00531889,0.0142497,1336,400,3.41569,20.9289
119,624,3.43945,-20.8768,-0.00110944,-0.00782572,0.0028072,-9.06549e-05,-0.00884451,0.348136,0.00586635,0.014611,1343,400,3.43944,20.8768
126,624,3.43518,-20.7744,-0.00115516,-0.0080784,0.00315542,6.71814e-05,-0.00930074,0.369579,0.00622301,0.0173371,1350,400,3.43524,20.7744
133,624,3.47839,-20.6696,-0.00120413,-0.00812988,0.00334283,0.000146103,-0.00948012,0.38388,0.00636934,0.0175985,1357,400,3.47835,20.6696
140,624,3.47266,-20.5913,-0.000995847,-0.00783133,0.00327585,0.000320558,-0.00914773,0.382102,0.0062081,0.0177726,1364,400,3.47271,20.5913
147,624,3.45569,-20.504,-0.000862989,-0.00742439,0.00309965,0.000369713,-0.00865709,0.378514,0.0058985,0.0222808,1371,400,3.45567,20.504
154,624,3.49341,-20.4286,-0.000921405,-0.00671729,0.00265069,0.000108023,-0.00774672,0.370434,0.00520086,0.0228826,1378,400,3.49346,20.4287
161,624,3.5354,-20.2899,-0.000712408,-0.00587996,0.00231879,0.000175516,-0.00676789,0.3657,0.00457155,0.0210469,1385,400,3.53545,20.2899
168,624,3.56213,-20.1403,-0.000310712,-0.0046908,0.00190597,0.000402523,-0.00540403,0.358078,0.00374408,0.0212952,1392,400,3.56218,20.1403
175,624,3.54761,-20.0593,7.25963e-05,-0.003469,0.00150455,0.000625457,-0.00402186,0.352144,0.0029122,0.0165762,1399,400,3.5476,20.0593
182,624,3.53345,-19.9478,0.000510004,-0.00217011,0.00106245,0.000880077,-0.00254018,0.335178,0.00205076,0.0108505,1406,400,3.53341,19.9478
189,624,3.52795,-19.8018,0.000769751,-0.00103584,0.000657069,0.000983548,-0.00124964,0.314576,0.00129238,0.0108459,1413,400,3.52794,19.8019
196,624,3.5127,-19.6634,0.000799845,-0.000129457,0.0004512,0.000982868,-0.000312481,0.385356,0.000780541,0.0118112,1420,400,3.51276,19.6634
203,624,3.5238,-19.5185,0.000627224,0.00076517,0.000209661,0.000916912,0.000475482,0.944308,0.000529501,0.0141864,1427,400,3.52382,19.5185
210,624,3.54541,-19.3648,0.00026519,0.00158472,0.000125723,0.0015966,0.000253318,1.47665,0.000990812,0.017521,1434,400,3.54541,19.3648
217,624,3.51953,-19.2013,-9.46901e-05,0.00216293,0.000345054,0.00221449,-0.000146251,1.42247,0.00152741,0.0203053,1441,400,3.51952,19.2013
224,624,3.50549,-19.0067,-0.000222048,0.00266476,0.000537937,0.00276174,-0.000319031,1.39243,0.0019562,0.0160576,1448,400,3.50555,19.0067
231,624,3.51477,-18.84,-0.000179166,0.00317579,0.000814156,0.00336293,-0.000366301,1.34487,0.00237349,0.01198,1455,400,3.51481,18.84
238,624,3.52075,-18.6809,-6.21116e-05,0.00380547,0.00119224,0.00414346,-0.000400099,1.29455,0.00290487,0.0169248,1462,400,3.52081,18.6809
245,624,3.51965,-18.5243,-2.89344e-05,0.00439832,0.00145722,0.00483491,-0.000465524,1.2797,0.00338912,0.0172439,1469,400,3.51966,18.5243
252,624,3.50244,-18.311,0.000100314,0.00502613,0.00178931,0.00560749,-0.000481042,1.25665,0.00390855,0.0123712,1476,400,3.50242,18.311
259,624,3.49231,-18.1038,0.000294438,0.00581782,0.00226447,0.00662752,-0.000515253,1.2274,0.00459972,0.00919773,1483,400,3.49229,18.1038
266,624,3.49597,-17.8898,0.000367522,0.00674833,0.00271863,0.00774954,-0.000633686,1.21793,0.00539002,0.0129744,1490,400,3.49603,17.8898
273,624,3.46716,-17.678,0.0003282,0.00747347,0.00296194,0.00854161,-0.000739942,1.22469,0.00595639,0.0161455,1497,400,3.4672,17.678
280,624,3.44788,-17.4804,0.000465894,0.00818834,0.00336715,0.00945028,-0.00079604,1.21222,0.0065816,0.0145045,1504,400,3.44789,17.4804
287,624,3.43982,-17.253,0.000494736,0.00885092,0.00373292,0.0102756,-0.00092995,1.2062,0.00718049,0.0103884,1511,400,3.4398,17.253
294,624,3.42273,-17.0171,0.00041444,0.00955101,0.0040416,0.0110822,-0.00111676,1.20865,0.00778714,0.00869406,1518,400,3.42268,17.0171
301,624,3.39917,-16.7695,0.000250179,0.0102067,0.00424271,0.0117693,-0.00131249,1.2179,0.0083183,0.0105622,1525,400,3.39919,16.7695
308,624,3.40735,-16.4933,2.10324e-06,0.0107669,0.00435606,0.0123088,-0.00153977,1.2306,0.0087643,0.0141568,1532,400,3.40736,16.4933
315,624,3.40527,-16.2486,-0.000362437,0.0111896,0.00446446,0.0127138,-0.00188668,1.24179,0.0091697,0.0169289,1539,400,3.40522,16.2486
322,624,3.37891,-16.0414,-0.000790125,0.0114198,0.00452749,0.0129154,-0.00228574,1.25174,0.00946462,0.026826,1546,400,3.37886,16.0413
329,624,3.47327,-15.8519,-0.00128637,0.0114793,0.00446351,0.0128851,-0.00269221,1.26567,0.00961398,0.0404918,1553,400,3.47324,15.8519
336,624,3.59875,-15.5782,0,0,0,0,0,0,0,-1,1560,400,3.59872,15.5782
343,624,3.64648,-14.8951,0,0,0,0,0,0,0,-1,1567,400,3.64653,14.8951
350,624,1.99194,-7.29742,0,0,0,0,0,0,0,-1,1574,400,1.99198,7.29741
357,624,2.64075,-3.13092,0,0,0,0,0,0,0,-1,1581,400,2.64076,3.13091
364,624,3.16565,-4.9458,0,0,0,0,0,0,0,-1,1588,400,3.16564,4.94579
371,624,3.37561,-5.23529,0,0,0,0,0,0,0,-1,1595,400,3.37563,5.23529
378,624,1.50439,-5.22165,0,0,0,0,0,0,0,-1,1602,400,1.50438,5.22164
385,624,1.2301,-10.5866,0,0,0,0,0,0,0,-1,1609,400,1.2301,10.5866
392,624,4.26819,-5.14236,0,0,0,0,0,0,0,-1,1616,400,4.26818,5.14236
399,624,3.86841,-2.36917,0,0,0,0,0,0,0,-1,1623,400,3.86838,2.36916
406,624,4.35376,-2.6962,0,0,0,0,0,0,0,-1,1630,400,4.35373,2.69619
413,624,0,0,0,0,0,0,0,0,0,-1,1637,400,0,0
420,624,0,0,0,0,0,0,0,0,0,-1,1644,400,0,0
427,624,0,0,0,0,0,0,0,0,0,-1,1651,400,0,0
434,624,0,0,0,0,0,0,0,0,0,-1,1658,400,0,0
441,624,0,0,0,0,0,0,0,0,0,-1,1665,400,0,0
448,624,0,0,0,0,0,0,0,0,0,-1,1672,400,0,0
455,624,0,0,0,0,0,0,0,0,0,-1,1679,400,0,0
462,624,0,0,0,0,0,0,0,0,0,-1,1686,400,0,0
469,624,0,0,0,0,0,0,0,0,0,-1,1693,400,0,0
476,624,0,0,0,0,0,0,0,0,0,-1,1700,400,0,0
483,624,0,0,0,0,0,0,0,0,0,-1,1707,400,0,0
490,624,0,0,0,0,0,0,0,0,0,-1,1714,400,0,0
497,624,0,0,0,0,0,0,0,0,0,-1,1721,400,0,0
504,624,0,0,0,0,0,0,0,0,0,-1,1728,400,0,0
511,624,0,0,0,0,0,0,0,0,0,-1,1735,400,0,0
518,624,0,0,0,0,0,0,0,0,0,-1,1742,400,0,0
525,624,0,0,0,0,0,0,0,0,0,-1,1749,400,0,0
532,624,0,0,0,0,0,0,0,0,0,-1,1756,400,0,0
539,624,0,0,0,0,0,0,0,0,0,-1,1763,400,0,0
546,624,0,0,0,0,0,0,0,0,0,-1,1770,400,0,0
553,624,0,0,0,0,0,0,0,0,0,-1,1777,400,0,0
560,624,0,0,0,0,0,0,0,0,0,-1,1784,400,0,0
567,624,0,0,0,0,0,0,0,0,0,-1,1791,400,0,0
574,624,0,0,0,0,0,0,0,0,0,-1,1798,400,0,0
581,624,0,0,0,0,0,0,0,0,0,-1,1805,400,0,0
588,624,0,0,0,0,0,0,0,0,0,-1,1812,400,0,0
595,624,0,0,0,0,0,0,0,0,0,-1,1819,400,0,0
602,624,0,0,0,0,0,0,0,0,0,-1,1826,400,0,0
609,624,0,0,0,0,0,0,0,0,0,-1,1833,400,0,0
616,624,0,0,0,0,0,0,0,0,0,-1,1840,400,0,0
623,624,0,0,0,0,0,0,0,0,0,-1,1847,400,0,0
630,624,0,0,0,0,0,0,0,0,0,-1,1854,400,0,0
637,624,0,0,0,0,0,0,0,0,0,-1,1861,400,0,0
644,624,0,0,0,0,0,0,0,0,0,-1,1868,400,0,0
651,624,0,0,0,0,0,0,0,0,0,-1,1875,400,0,0
658,624,0,0,0,0,0,0,0,0,0,-1,1882,400,0,0
665,624,0,0,0,0,0,0,0,0,0,-1,1889,400,0,0
672,624,0,0,0,0,0,0,0,0,0,-1,1896,400,0,0
679,624,0,0,0,0,0,0,0,0,0,-1,1903,400,0,0
686,624,0,0,0,0,0,0,0,0,0,-1,1910,400,0,0
693,624,0,0,0,0,0,0,0,0,0,-1,1917,400,0,0
700,624,0,0,0,0,0,0,0,0,0,-1,1924,400,0,0
707,624,0,0,0,0,0,0,0,0,0,-1,1931,400,0,0
714,624,0,0,0,0,0,0,0,0,0,-1,1938,400,0,0
721,624,0,0,0,0,0,0,0,0,0,-1,1945,400,0,0
728,624,0,0,0,0,0,0,0,0,0,-1,1952,400,0,0
735,624,0,0,0,0,0,0,0,0,0,-1,1959,400,0,0
742,624,0,0,0,0,0,0,0,0,0,-1,1966,400,0,0
749,624,0,0,0,0,0,0,0,0,0,-1,1973,400,0,0
756,624,0,0,0,0,0,0,0,0,0,-1,1980,400,0,0
763,624,0,0,0,0,0,0,0,0,0,-1,1987,400,0,0
770,624,0,0,0,0,0,0,0,0,0,-1,1994,400,0,0
777,624,0,0,0,0,0,0,0,0,0,-1,2001,400,0,0
784,624,0,0,0,0,0,0,0,0,0,-1,2008,400,0,0
791,624,0,0,0,0,0,0,0,0,0,-1,2015,400,0,0
798,624,0,0,0,0,0,0,0,0,0,-1,2022,400,0,0
805,624,0,0,0,0,0,0,0,0,0,-1,2029,400,0,0
812,624,0,0,0,0,0,0,0,0,0,-1,2036,400,0,0
-700,617,0,0,0,0,0,0,0,0,0,-1,524,407,0,0
-693,617,0,0,0,0,0,0,0,0,0,-1,531,407,0,0
-686,617,0,0,0,0,0,0,0,0,0,-1,538,407,0,0
-679,617,0,0,0,0,0,0,0,0,0,-1,545,407,0,0
-672,617,0,0,0,0,0,0,0,0,0,-1,552,407,0,0
-665,617,0,0,0,0,0,0,0,0,0,-1,559,407,0,0
-658,617,0,0,0,0,0,0,0,0,0,-1,566,407,0,0
-651,617,0,0,0,0,0,0,0,0,0,-1,573,407,0,0
-644,617,0,0,0,0,0,0,0,0,0,-1,580,407,0,0
-637,617,0,0,0,0,0,0,0,0,0,-1,587,407,0,0
-630,617,0,0,0,0,0,0,0,0,0,-1,594,407,0,0
-623,617,0,0,0,0,0,0,0,0,0,-1,601,407,0,0
-616,617,0,0,0,0,0,0,0,0,0,-1,608,407,0,0
-609,617,0,0,0,0,0,0,0,0,0,-1,615,407,0,0
-602,617,0,0,0,0,0,0,0,0,0,-1,622,407,0,0
-595,617,0,0,0,0,0,0,0,0,0,-1,629,407,0,0
-588,617,0,0,0,0,0,0,0,0,0,-1,636,407,0,0
-581,617,0,0,0,0,0,0,0,0,0,-1,643,407,0,0
-574,617,0,0,0,0,0,0,0,0,0,-1,650,407,0,0
-567,617,0,0,0,0,0,0,0,0,0,-1,657,407,0,0
-560,617,0,0,0,0,0,0,0,0,0,-1,664,407,0,0
-553,617,0,0,0,0,0,0,0,0,0,-1,671,407,0,0
-546,617,0,0,0,0,0,0,0,0,0,-1,678,407,0,0
-539,617,0,0,0,0,0,0,0,0,0,-1,685,407,0,0
-532,617,0,0,0,0,0,0,0,0,0,-1,692,407,0,0
-525,617,0,0,0,0,0,0,0,0,0,-1,699,407,0,0
-518,617,0,0,0,0,0,0,0,0,0,-1,706,407,0,0
-511,617,0,0,0,0,0,0,0,0,0,-1,713,407,0,0
-504,617,0,0,0,0,0,0,0,0,0,-1,720,407,0,0
-497,617,0,0,0,0,0,0,0,0,0,-1,727,407,0,0
-490,617,0,0,0,0,0,0,0,0,0,-1,734,407,0,0
-483,617,0,0,0,0,0,0,0,0,0,-1,741,407,0,0
-476,617,0,0,0,0,0,0,0,0,0,-1,748,407,0,0
-469,617,0,0,0,0,0,0,0,0,0,-1,755,407,0,0
-462,617,0,0,0,0,0,0,0,0,0,-1,762,407,0,0
-455,617,0,0,0,0,0,0,0,0,0,-1,769,407,0,0
-448,617,0,0,0,0,0,0,0,0,0,-1,776,407,0,0
-441,617,0,0,0,0,0,0,0,0,0,-1,783,407,0,0
-434,617,0,0,0,0,0,0,0,0,0,-1,790,407,0,0
-427,617,0,0,0,0,0,0,0,0,0,-1,797,407,0,0
-420,617,0,0,0,0,0,0,0,0,0,-1,804,407,0,0
-413,617,0,0,0,0,0,0,0,0,0,-1,811,407,0,0
-406,617,0,0,0,0,0,0,0,0,0,-1,818,407,0,0
-399,617,0,0,0,0,0,0,0,0,0,-1,825,407,0,0
-392,617,0,0,0,0,0,0,0,0,0,-1,832,407,0,0
-385,617,0,0,0,0,0,0,0,0,0,-1,839,407,0,0
-378,617,0,0,0,0,0,0,0,0,0,-1,846,407,0,0
-371,617,0,0,0,0,0,0,0,0,0,-1,853,407,0,0
-364,617,0,0,0,0,0,0,0,0,0,-1,860,407,0,0
-357,617,0,0,0,0,0,0,0,0,0,-1,867,407,0,0
-350,617,0,0,0,0,0,0,0,0,0,-1,874,407,0,0
-343,617,0,0,0,0,0,0,0,0,0,-1,881,407,0,0
-336,617,0,0,0,0,0,0,0,0,0,-1,888,407,0,0
-329,617,0,0,0,0,0,0,0,0,0,-1,895,407,0,0
-322,617,0,0,0,0,0,0,0,0,0,-1,902,407,0,0
-315,617,0,0,0,0,0,0,0,0,0,-1,909,407,0,0
-308,617,0,0,0,0,0,0,0,0,0,-1,916,407,0,0
-301,617,3.0321,-13.8866,0,0,0,0,0,0,0,-1,923,407,3.03209,13.8866
-294,617,-0.867493,-11.1655,0,0,0,0,0,0,0,-1,930,407,-0.867487,11.1655
-287,617,-0.212524,-10.7744,0,0,0,0,0,0,0,-1,937,407,-0.212541,10.7743
-280,617,2.19739,-11.6377,0,0,0,0,0,0,0,-1,944,407,2.19737,11.6377
-273,617,2.36188,-10.5736,0,0,0,0,0,0,0,-1,951,407,2.36188,10.5736
-266,617,1.75769,-13.3046,0,0,0,0,0,0,0,-1,958,407,1.75769,13.3046
-259,617,4.39972,-10.936,0,0,0,0,0,0,0,-1,965,407,4.39969,10.936
-252,617,3.97388,-14.1621,0,0,0,0,0,0,0,-1,972,407,3.97387,14.1621
-245,617,3.98035,-15.6711,0,0,0,0,0,0,0,-1,979,407,3.98034,15.671
-238,617,3.32245,-15.9371,0,0,0,0,0,0,0,-1,986,407,3.32247,15.9371
-231,617,3.31494,-15.4579,0,0,0,0,0,0,0,-1,993,407,3.31493,15.4579
-224,617,3.25311,-15.7361,-0.00679823,0.00756682,-0.00256904,0.00801244,-0.00724386,-1.39905,0.00881195,0.0483344,1000,407,3.25311,15.7361
-217,617,3.26105,-16.053,-0.00533724,0.0065406,-0.0030378,0.00727244,-0.00606907,-1.33439,0.00771316,0.0376393,1007,407,3.26102,16.053
-210,617,3.18756,-16.5169,-0.00426459,0.00504338,-0.00332624,0.00610983,-0.00533105,-1.26053,0.00661049,0.0245985,1014,407,3.18759,16.5169
-203,617,3.16406,-16.7359,-0.00347326,0.00346637,-0.00328574,0.00477523,-0.00478212,-1.19172,0.00551793,0.0181216,1021,407,3.16405,16.7359
-196,617,3.14392,-16.9166,-0.00286191,0.00205263,-0.0028938,0.0033917,-0.00420099,-1.1374,0.00439193,0.0141388,1028,407,3.14391,16.9166
-189,617,3.10608,-17.1515,-0.00197951,0.000529679,-0.00257589,0.00214026,-0.00359009,-1.01202,0.00334353,0.0128125,1035,407,3.10605,17.1515
-182,617,3.09888,-17.3839,-0.0013584,-0.00035377,-0.00160442,0.000825132,-0.0025373,-0.937105,0.00202345,0.0139408,1042,407,3.09887,17.3839
-175,617,3.11304,-17.5904,-0.00126746,-0.00134973,-0.000501263,-0.000805643,-0.00181154,-0.744458,0.00104802,0.012524,1049,407,3.11303,17.5904
-168,617,3.09802,-17.8235,-0.00116451,-0.00216132,0.000414953,-0.00101439,-0.00231145,0.347142,0.00133784,0.0103798,1056,407,3.09798,17.8235
-161,617,3.0614,-18.0583,-0.00103186,-0.00283169,0.00117881,-0.000448723,-0.00341482,0.459385,0.0021427,0.0110822,1063,407,3.06137,18.0584
-154,617,3.05493,-18.2414,-0.00090061,-0.00309366,0.00186881,0.00016962,-0.00416389,0.520088,0.00283416,0.0110583,1070,407,3.05493,18.2414
-147,617,3.05652,-18.4243,-0.000737535,-0.00310335,0.00230485,0.000670238,-0.00451112,0.548313,0.00325392,0.0155024,1077,407,3.05647,18.4243
-140,617,3.03894,-18.6443,-0.000486389,-0.00299752,0.00254287,0.001094,-0.00457791,0.556077,0.0034745,0.0120454,1084,407,3.03899,18.6443
-133,617,3.02966,-18.8168,-0.000273912,-0.00260201,0.00264565,0.00145245,-0.00432837,0.578151,0.00347251,0.0138842,1091,407,3.02965,18.8168
-126,617,3.01978,-18.9543,-0.00012788,-0.00209816,0.00246229,0.00153903,-0.00376507,0.595106,0.00315094,0.0132104,1098,407,3.01979,18.9543
-119,617,2.9928,-19.1103,6.80542e-05,-0.0013995,0.00200208,0.00146659,-0.00279803,0.609746,0.00250186,0.0130993,1105,407,2.99281,19.1103
-112,617,3.00928,-19.256,0.000337805,-0.000664147,0.0014397,0.0013612,-0.00168755,0.617965,0.00176356,0.0146866,1112,407,3.00923,19.2559
-105,617,3.00964,-19.4203,0.00056096,8.76657e-05,0.000794507,0.00115331,-0.000504689,0.640655,0.000981362,0.0158097,1119,407,3.00969,19.4203
-98,617,3.00269,-19.5894,0.000722734,0.000684291,0.000122248,0.000827262,0.000579763,0.70742,0.000490293,0.0127403,1126,407,3.00264,19.5894
-91,617,3.01917,-19.7311,0.000908299,0.00116247,-0.000489451,0.00154106,0.000529703,-0.912417,0.000904104,0.0174305,1133,407,3.01915,19.7311
-84,617,3.05444,-19.8638,0.00111507,0.00134911,-0.000845445,0.00208559,0.000378582,-0.854168,0.00128296,0.0166932,1140,407,3.05441,19.8638
-77,617,3.06152,-20.0004,0.00129741,0.00139935,-0.000981788,0.00233149,0.000365271,-0.811331,0.00144801,0.0122476,1147,407,3.06152,20.0004
-70,617,3.05957,-20.1166,0.00165719,0.00120136,-0.000902542,0.00236015,0.000498403,-0.661723,0.00143642,0.0134144,1154,407,3.0596,20.1166
-63,617,3.05383,-20.2292,0.00161021,0.000602892,-0.000624734,0.00190902,0.000304076,-0.446144,0.00118441,0.0140833,1161,407,3.0538,20.2292
-56,617,3.06079,-20.3357,0.000508381,-0.00081547,-2.72275e-05,0.000508941,-0.000816029,-0.0205553,0.00077179,0.0106867,1168,407,3.06084,20.3357
-49,617,3.07031,-20.4372,-0.0010757,-0.00289293,0.000562155,-0.000915857,-0.00305277,0.277026,0.0018089,0.00897376,1175,407,3.07036,20.4372
-42,617,3.0918,-20.5623,-0.00240973,-0.00531721,0.000724004,-0.00223942,-0.00548752,0.231034,0.00318601,0.0109876,1182,407,3.09176,20.5623
-35,617,3.11353,-20.6445,-0.00426912,-0.00811316,0.000883459,-0.0040758,-0.00830648,0.215425,0.00479603,0.0160283,1189,407,3.11357,20.6445
-28,617,3.09973,-20.7133,-0.00614158,-0.0105988,0.00105419,-0.00590483,-0.0108356,0.220917,0.00626434,0.0186326,1196,407,3.09968,20.7133
-21,617,3.13208,-20.7906,-0.00761937,-0.0129522,0.000854339,-0.00748585,-0.0130858,0.155035,0.00758118,0.013344,1203,407,3.13211,20.7906
-14,617,3.1355,-20.8325,-0.00968248,-0.0152763,0.000681853,-0.00960057,-0.0153582,0.119561,0.00895912,0.014988,1210,407,3.13549,20.8325
-7,617,3.10046,-20.8657,-0.0104871,-0.0161007,-0.000319713,-0.0104689,-0.0161189,-0.0567083,0.00944385,0.0184203,1217,407,3.10043,20.8656
0,617,3.13611,-20.9116,-0.0106606,-0.016472,-0.00162973,-0.0102347,-0.0168978,-0.255574,0.00982835,0.0159408,1224,407,3.1361,20.9116
7,617,3.19434,-21.0023,-0.0109778,-0.0171196,-0.00251044,-0.0100822,-0.0180151,-0.342658,0.0104257,0.01184,1231,407,3.19431,21.0023
14,617,3.203,-21.0639,-0.0110382,-0.0169658,-0.00346936,-0.00943908,-0.018565,-0.431914,0.010719,0.01338,1238,407,3.203,21.0639
21,617,3.21948,-21.0971,-0.0107842,-0.0164027,-0.0044522,-0.00832902,-0.0188579,-0.503952,0.0109123,0.0118355,1245,407,3.21951,21.0971
28,617,3.23218,-21.1475,-0.0104796,-0.0155512,-0.00528703,-0.00715172,-0.0188791,-0.56179,0.0110061,0.0106127,1252,407,3.23221,21.1475
35,617,3.20703,-21.1696,-0.0104752,-0.0147246,-0.0056887,-0.00652735,-0.0186724,-0.606672,0.0109419,0.0128502,1259,407,3.20705,21.1696
42,617,3.28882,-21.1436,-0.0102682,-0.0137712,-0.00591552,-0.00585034,-0.0181891,-0.641467,0.0107219,0.0193105,1266,407,3.2888,21.1436
49,617,3.31201,-21.137,-0.00919122,-0.0128904,-0.00548336,-0.0052539,-0.0168277,-0.622737,0.00994124,0.0187231,1273,407,3.31205,21.137
56,617,3.29053,-21.1322,-0.00814141,-0.0118695,-0.00496434,-0.0047027,-0.0153082,-0.605798,0.00905459,0.0125301,1280,407,3.29055,21.1322
63,617,3.35242,-21.1545,-0.00745598,-0.0111922,-0.00403586,-0.00487684,-0.0137713,-0.568644,0.00806287,0.00929148,1287,407,3.35247,21.1545
70,617,3.35425,-21.1375,-0.0066474,-0.0106217,-0.00294305,-0.00508344,-0.0121856,-0.488458,0.00706748,0.0149352,1294,407,3.35422,21.1375
77,617,3.40308,-21.105,-0.00597522,-0.0106248,-0.00175747,-0.00538568,-0.0112144,-0.323654,0.00647631,0.0129317,1301,407,3.40308,21.105
84,617,3.4281,-21.084,-0.00551321,-0.0106665,-0.000510963,-0.00546304,-0.0107167,-0.0978824,0.00618768,0.0101591,1308,407,3.42808,21.084
91,617,3.43652,-21.0401,-0.00478469,-0.0107297,0.000528806,-0.00473802,-0.0107763,0.0880292,0.0062368,0.00945179,1315,407,3.43647,21.0401
98,617,3.45764,-21.0024,-0.00477084,-0.0115297,0.00209017,-0.00417668,-0.0121238,0.276957,0.00711162,0.0100377,1322,407,3.45763,21.0024
105,617,3.4718,-20.9731,-0.00476536,-0.012341,0.00357991,-0.00334133,-0.013765,0.378593,0.00829046,0.0118707,1329,407,3.47184,20.9731
112,617,3.5011,-20.9085,-0.00415761,-0.0123423,0.0040571,-0.00248737,-0.0140125,0.390537,0.00863285,0.0160674,1336,407,3.50107,20.9085
119,617,3.50781,-20.8299,-0.00378125,-0.012785,0.00464428,-0.00181502,-0.0147512,0.400485,0.00928842,0.0187426,1343,407,3.50776,20.8299
126,617,3.49097,-20.7732,-0.00367088,-0.0131145,0.00508479,-0.00145363,-0.0153318,0.411197,0.00977274,0.0200058,1350,407,3.49092,20.7732
133,617,3.52795,-20.6718,-0.00342165,-0.0131572,0.00526446,-0.00111937,-0.0154595,0.412264,0.0099542,0.0175455,1357,407,3.5279,20.6718
140,617,3.55786,-20.5924,-0.0029152,-0.0127612,0.00508823,-0.000758233,-0.0149182,0.400949,0.0097026,0.0150645,1364,407,3.5578,20.5924
147,617,3.53955,-20.4778,-0.00258256,-0.0122145,0.00478986,-0.000606153,-0.0141909,0.39134,0.00926515,0.0181119,1371,407,3.53957,20.4778
154,617,3.56213,-20.3906,-0.00263014,-0.011292,0.00409975,-0.000997434,-0.0129247,0.378992,0.00830398,0.0205915,1378,407,3.56208,20.3906
161,617,3.60059,-20.2736,-0.00237178,-0.0103351,0.00366608,-0.000941073,-0.0117658,0.372078,0.00754978,0.021445,1385,407,3.60064,20.2736
168,617,3.64453,-20.1725,-0.00165232,-0.00876784,0.00308552,-0.000500721,-0.00991944,0.357216,0.00645253,0.0206098,1392,407,3.64453,20.1725
175,617,3.65405,-20.0827,-0.000782265,-0.00699848,0.00246117,7.41819e-05,-0.00785493,0.334877,0.00526152,0.0173967,1399,407,3.65409,20.0827
182,617,3.67676,-19.9587,0.000301325,-0.00514121,0.00174024,0.000810184,-0.00565007,0.284477,0.00406379,0.011668,1406,407,3.6767,19.9587
189,617,3.66602,-19.8197,0.00121232,-0.00333599,0.00106455,0.00144915,-0.00357282,0.218906,0.0029846,0.0115273,1413,407,3.66604,19.8197
196,617,3.65088,-19.6945,0.00171101,-0.00186692,0.00059482,0.00180731,-0.00196322,0.160497,0.00217753,0.0157565,1420,407,3.6509,19.6945
203,617,3.66138,-19.5445,0.00161643,-0.000452481,-0.000152331,0.00162758,-0.000463637,-0.0731035,0.00126817,0.0155998,1427,407,3.66139,19.5445
210,617,3.69336,-19.3802,0.0011484,0.000888768,-0.000548618,0.00158235,0.000454818,-0.669222,0.00094069,0.0145795,1434,407,3.69337,19.3803
217,617,3.68799,-19.1988,0.000611772,0.00161972,-0.000188491,0.00165382,0.000577677,-1.39185,0.000969181,0.0183002,1441,407,3.68793,19.1988
224,617,3.69189,-19.025,0.000439053,0.00211362,5.58649e-05,0.00211548,0.000437192,1.53748,0.00128953,0.0176468,1448,407,3.69188,19.025
231,617,3.70178,-18.8648,0.000404975,0.00259831,0.000352019,0.00265342,0.000349863,1.4155,0.00166463,0.0138664,1455,407,3.70173,18.8648
238,617,3.69739,-18.7023,0.000439271,0.00313791,0.000692788,0.00330537,0.000271811,1.33363,0.0021188,0.0151413,1462,407,3.69736,18.7023
245,617,3.69531,-18.5417,0.000419521,0.00363676,0.000935006,0.00388875,0.000167523,1.30754,0.0025385,0.0125569,1469,407,3.6953,18.5417
252,617,3.67822,-18.315,0.000454906,0.00414448,0.0012202,0.00451151,8.78803e-05,1.27861,0.00297881,0.0132455,1476,407,3.67821,18.315
259,617,3.67224,-18.1066,0.000525265,0.00473163,0.00160912,0.00527658,-1.9694e-05,1.24425,0.00352431,0.0116626,1483,407,3.67219,18.1066
266,617,3.67712,-17.8955,0.000514891,0.0053976,0.00197758,0.00609806,-0.000185574,1.23038,0.00412862,0.0136328,1490,407,3.67708,17.8955
273,617,3.66382,-17.683,0.000429504,0.00589636,0.00217838,0.0066582,-0.000332345,1.23436,0.00455363,0.0143416,1497,407,3.66387,17.683
280,617,3.65613,-17.4861,0.00047063,0.00637097,0.00251003,0.00729426,-0.000452665,1.21832,0.00502054,0.0125934,1504,407,3.65609,17.4861
287,617,3.63757,-17.2454,0.000461696,0.00682795,0.00283074,0.00790456,-0.000614916,1.20736,0.00548618,0.0117568,1511,407,3.63752,17.2454
294,617,3.62878,-17.0266,0.000389977,0.00728996,0.0030987,0.00847725,-0.00079731,1.20489,0.00593515,0.00954224,1518,407,3.62883,17.0266
301,617,3.61536,-16.8017,0.000254306,0.00769684,0.00328101,0.0089367,-0.000985558,1.20949,0.00631202,0.00760591,1525,407,3.61531,16.8017
308,617,3.59631,-16.5537,6.75248e-05,0.00806556,0.00341308,0.00932404,-0.00119095,1.21754,0.00664866,0.00811866,1532,407,3.59634,16.5537
315,617,3.58972,-16.3232,-0.000201719,0.0083659,0.00353956,0.00963903,-0.00147484,1.22552,0.00696984,0.00934755,1539,407,3.58967,16.3232
322,617,3.57874,-16.0635,-0.000515642,0.00851736,0.00363023,0.00979545,-0.00179374,1.23228,0.00720305,0.0127386,1546,407,3.57869,16.0635
329,617,3.58142,-15.8136,-0.000875699,0.00853225,0.00365703,0.00978657,-0.00213002,1.24038,0.00733817,0.0122227,1553,407,3.58141,15.8136
336,617,3.60535,-15.5638,-0.00135329,0.00851257,0.00362028,0.00969849,-0.0025392,1.25424,0.00745757,0.0229572,1560,407,3.60537,15.5638
343,617,3.54431,-15.1413,0,0,0,0,0,0,0,-1,1567,407,3.5443,15.1413
350,617,2.88098,-10.0063,0,0,0,0,0,0,0,-1,1574,407,2.88098,10.0063
357,617,2.1748,-7.16504,0,0,0,0,0,0,0,-1,1581,407,2.1748,7.16505
364,617,2.30127,-7.60257,0,0,0,0,0,0,0,-1,1588,407,2.30125,7.60258
371,617,2.60266,-6.20667,0,0,0,0,0,0,0,-1,1595,407,2.60261,6.20668
378,617,1.56921,-10.3601,0,0,0,0,0,0,0,-1,1602,407,1.56918,10.3601
385,617,1.74146,-10.3561,0,0,0,0,0,0,0,-1,1609,407,1.7414,10.3561
392,617,1.91357,-10.3521,0,0,0,0,0,0,0,-1,1616,407,1.91362,10.3521
399,617,3.25,-2.14835,0,0,0,0,0,0,0,-1,1623,407,3.25006,2.14836
406,617,3.02429,-3.19577,0,0,0,0,0,0,0,-1,1630,407,3.02431,3.19577
413,617,2.92786,-3.80649,0,0,0,0,0,0,0,-1,1637,407,2.92788,3.8065
420,617,3.42737,-4.47391,0,0,0,0,0,0,0,-1,1644,407,3.42737,4.47391
427,617,0,0,0,0,0,0,0,0,0,-1,1651,407,0,0
434,617,0,0,0,0,0,0,0,0,0,-1,1658,407,0,0
441,617,0,0,0,0,0,0,0,0,0,-1,1665,407,0,0
448,617,0,0,0,0,0,0,0,0,0,-1,1672,407,0,0
455,617,0,0,0,0,0,0,0,0,0,-1,1679,407,0,0
462,617,0,0,0,0,0,0,0,0,0,-1,1686,407,0,0
469,617,0,0,0,0,0,0,0,0,0,-1,1693,407,0,0
476,617,0,0,0,0,0,0,0,0,0,-1,1700,407,0,0
483,617,0,0,0,0,0,0,0,0,0,-1,1707,407,0,0
490,617,0,0,0,0,0,0,0,0,0,-1,1714,407,0,0
497,617,0,0,0,0,0,0,0,0,0,-1,1721,407,0,0
504,617,0,0,0,0,0,0,0,0,0,-1,1728,407,0,0
511,617,0,0,0,0,0,0,0,0,0,-1,1735,407,0,0
518,617,0,0,0,0,0,0,0,0,0,-1,1742,407,0,0
525,617,0,0,0,0,0,0,0,0,0,-1,1749,407,0,0
532,617,0,0,0,0,0,0,0,0,0,-1,1756,407,0,0
539,617,0,0,0,0,0,0,0,0,0,-1,1763,407,0,0
546,617,0,0,0,0,0,0,0,0,0,-1,1770,407,0,0
553,617,0,0,0,0,0,0,0,0,0,-1,1777,407,0,0
560,617,0,0,0,0,0,0,0,0,0,-1,1784,407,0,0
567,617,0,0,0,0,0,0,0,0,0,-1,1791,407,0,0
574,617,0,0,0,0,0,0,0,0,0,-1,1798,407,0,0
581,617,0,0,0,0,0,0,0,0,0,-1,1805,407,0,0
588,617,0,0,0,0,0,0,0,0,0,-1,1812,407,0,0
595,617,0,0,0,0,0,0,0,0,0,-1,1819,407,0,0
602,617,0,0,0,0,0,0,0,0,0,-1,1826,407,0,0
609,617,0,0,0,0,0,0,0,0,0,-1,1833,407,0,0
616,617,0,0,0,0,0,0,0,0,0,-1,1840,407,0,0
623,617,0,0,0,0,0,0,0,0,0,-1,1847,407,0,0
630,617,0,0,0,0,0,0,0,0,0,-1,1854,407,0,0
637,617,0,0,0,0,0,0,0,0,0,-1,1861,407,0,0
644,617,0,0,0,0,0,0,0,0,0,-1,1868,407,0,0
651,617,0,0,0,0,0,0,0,0,0,-1,1875,407,0,0
658,617,0,0,0,0,0,0,0,0,0,-1,1882,407,0,0
665,617,0,0,0,0,0,0,0,0,0,-1,1889,407,0,0
672,617,0,0,0,0,0,0,0,0,0,-1,1896,407,0,0
679,617,0,0,0,0,0,0,0,0,0,-1,1903,407,0,0
686,617,0,0,0,0,0,0,0,0,0,-1,1910,407,0,0
693,617,0,0,0,0,0,0,0,0,0,-1,1917,407,0,0
700,617,0,0,0,0,0,0,0,0,0,-1,1924,407,0,0
707,617,0,0,0,0,0,0,0,0,0,-1,1931,407,0,0
714,617,0,0,0,0,0,0,0,0,0,-1,1938,407,0,0
721,617,0,0,0,0,0,0,0,0,0,-1,1945,407,0,0
728,617,0,0,0,0,0,0,0,0,0,-1,1952,407,0,0
735,617,0,0,0,0,0,0,0,0,0,-1,1959,407,0,0
742,617,0,0,0,0,0,0,0,0,0,-1,1966,407,0,0
749,617,0,0,0,0,0,0,0,0,0,-1,1973,407,0,0
756,617,0,0,0,0,0,0,0,0,0,-1,1980,407,0,0
763,617,0,0,0,0,0,0,0,0,0,-1,1987,407,0,0
770,617,0,0,0,0,0,0,0,0,0,-1,1994,407,0,0
777,617,0,0,0,0,0,0,0,0,0,-1,2001,407,0,0
784,617,0,0,0,0,0,0,0,0,0,-1,2008,407,0,0
791,617,0,0,0,0,0,0,0,0,0,-1,2015,407,0,0
798,617,0,0,0,0,0,0,0,0,0,-1,2022,407,0,0
805,617,0,0,0,0,0,0,0,0,0,-1,2029,407,0,0
812,617,0,0,0,0,0,0,0,0,0,-1,2036,407,0,0
-700,610,0,0,0,0,0,0,0,0,0,-1,524,414,0,0
-693,610,0,0,0,0,0,0,0,0,0,-1,531,414,0,0
-686,610,0,0,0,0,0,0,0,0,0,-1,538,414,0,0
-679,610,0,0,0,0,0,0,0,0,0,-1,545,414,0,0
-672,610,0,0,0,0,0,0,0,0,0,-1,552,414,0,0
-665,610,0,0,0,0,0,0,0,0,0,-1,559,414,0,0
-658,610,0,0,0,0,0,0,0,0,0,-1,566,414,0,0
-651,610,0,0,0,0,0,0,0,0,0,-1,573,414,0,0
-644,610,0,0,0,0,0,0,0,0,0,-1,580,414,0,0
-637,610,0,0,0,0,0,0,0,0,0,-1,587,414,0,0
-630,610,0,0,0,0,0,0,0,0,0,-1,594,414,0,0
-623,610,0,0,0,0,0,0,0,0,0,-1,601,414,0,0
-616,610,0,0,0,0,0,0,0,0,0,-1,608,414,0,0
-609,610,0,0,0,0,0,0,0,0,0,-1,615,414,0,0
-602,610,0,0,0,0,0,0,0,0,0,-1,622,414,0,0
-595,610,0,0,0,0,0,0,0,0,0,-1,629,414,0,0
-588,610,0,0,0,0,0,0,0,0,0,-1,636,414,0,0
-581,610,0,0,0,0,0,0,0,0,0,-1,643,414,0,0
-574,610,0,0,0,0,0,0,0,0,0,-1,650,414,0,0
-567,610,0,0,0,0,0,0,0,0,0,-1,657,414,0,0
-560,610,0,0,0,0,0,0,0,0,0,-1,664,414,0,0
-553,610,0,0,0,0,0,0,0,0,0,-1,671,414,0,0
-546,610,0,0,0,0,0,0,0,0,0,-1,678,414,0,0
-539,610,0,0,0,0,0,0,0,0,0,-1,685,414,0,0
-532,610,0,0,0,0,0,0,0,0,0,-1,692,414,0,0
-525,610,0,0,0,0,0,0,0,0,0,-1,699,414,0,0
-518,610,0,0,0,0,0,0,0,0,0,-1,706,414,0,0
-511,610,0,0,0,0,0,0,0,0,0,-1,713,414,0,0
-504,610,0,0,0,0,0,0,0,0,0,-1,720,414,0,0
-497,610,0,0,0,0,0,0,0,0,0,-1,727,414,0,0
-490,610,0,0,0,0,0,0,0,0,0,-1,734,414,0,0
-483,610,0,0,0,0,0,0,0,0,0,-1,741,414,0,0
-476,610,0,0,0,0,0,0,0,0,0,-1,748,414,0,0
-469,610,0,0,0,0,0,0,0,0,0,-1,755,414,0,0
-462,610,0,0,0,0,0,0,0,0,0,-1,762,414,0,0
-455,610,0,0,0,0,0,0,0,0,0,-1,769,414,0,0
-448,610,0,0,0,0,0,0,0,0,0,-1,776,414,0,0
-441,610,0,0,0,0,0,0,0,0,0,-1,783,414,0,0
-434,610,0,0,0,0,0,0,0,0,0,-1,790,414,0,0
-427,610,0,0,0,0,0,0,0,0,0,-1,797,414,0,0
-420,610,0,0,0,0,0,0,0,0,0,-1,804,414,0,0
-413,610,0,0,0,0,0,0,0,0,0,-1,811,414,0,0
-406,610,0,0,0,0,0,0,0,0,0,-1,818,414,0,0
-399,610,0,0,0,0,0,0,0,0,0,-1,825,414,0,0
-392,610,0,0,0,0,0,0,0,0,0,-1,832,414,0,0
-385,610,0,0,0,0,0,0,0,0,0,-1,839,414,0,0
-378,610,0,0,0,0,0,0,0,0,0,-1,846,414,0,0
-371,610,0,0,0,0,0,0,0,0,0,-1,853,414,0,0
-364,610,0,0,0,0,0,0,0,0,0,-1,860,414,0,0
-357,610,0,0,0,0,0,0,0,0,0,-1,867,414,0,0
-350,610,0,0,0,0,0,0,0,0,0,-1,874,414,0,0
-343,610,0,0,0,0,0,0,0,0,0,-1,881,414,0,0
-336,610,0,0,0,0,0,0,0,0,0,-1,888,414,0,0
-329,610,0,0,0,0,0,0,0,0,0,-1,895,414,0,0
-322,610,0,0,0,0,0,0,0,0,0,-1,902,414,0,0
-315,610,6.6438,-13.537,0,0,0,0,0,0,0,-1,909,414,6.64383,13.537
-308,610,6.20703,-13.9936,0,0,0,0,0,0,0,-1,916,414,6.20702,13.9936
-301,610,5.73285,-14.3911,0,0,0,0,0,0,0,-1,923,414,5.73285,14.3911
-294,610,2.37964,-12.4347,0,0,0,0,0,0,0,-1,930,414,2.37964,12.4347
-287,610,2.08557,-11.9136,0,0,0,0,0,0,0,-1,937,414,2.08555,11.9136
-280,610,2.25854,-11.0924,0,0,0,0,0,0,0,-1,944,414,2.25856,11.0924
-273,610,3.74542,-14.4477,0,0,0,0,0,0,0,-1,951,414,3.74543,14.4477
-266,610,2.46454,-14.0587,0,0,0,0,0,0,0,-1,958,414,2.46456,14.0587
-259,610,3.25012,-13.9947,0,0,0,0,0,0,0,-1,965,414,3.25011,13.9947
-252,610,4.19836,-14.914,0,0,0,0,0,0,0,-1,972,414,4.19836,14.914
-245,610,3.78442,-15.3406,-0.00681227,0.00854609,-0.00270872,0.00900982,-0.007276,-1.40124,0.00942037,0.0440418,979,414,3.78442,15.3406
-238,610,3.22516,-15.6796,-0.00621067,0.00771304,-0.00188817,0.00796455,-0.00646218,-1.43837,0.00834432,0.0423288,986,414,3.22513,15.6796
-231,610,2.67163,-16.0122,0,0,0,0,0,0,0,-1,993,414,2.67165,16.0122
-224,610,3.02808,-15.8923,-0.00532338,0.00632537,-0.00218488,0.00672169,-0.0057197,-1.39136,0.0071908,0.0256636,1000,414,3.0281,15.8923
-217,610,3.00586,-16.2147,-0.00417276,0.00551738,-0.00247405,0.0061125,-0.00476788,-1.33474,0.00629776,0.0164522,1007,414,3.00589,16.2147
-210,610,2.97491,-16.4883,-0.00333146,0.00432954,-0.00257846,0.00511653,-0.00411845,-1.27456,0.00534219,0.0110305,1014,414,2.97492,16.4883
-203,610,2.94867,-16.7165,-0.00259837,0.00330714,-0.0026225,0.0043036,-0.00359483,-1.20768,0.00456628,0.0127599,1021,414,2.94864,16.7165
-196,610,2.93298,-16.9684,-0.00196665,0.00241379,-0.00253905,0.00357675,-0.00312961,-1.14128,0.00387479,0.0122723,1028,414,2.93294,16.9684
-189,610,2.92102,-17.1922,-0.00118897,0.00140985,-0.00248618,0.00291571,-0.00269484,-1.0262,0.00324009,0.0105053,1035,414,2.92101,17.1922
-182,610,2.91211,-17.4081,-0.000617589,0.000798563,-0.0019288,0.00214515,-0.00196417,-0.961315,0.00237328,0.0115332,1042,414,2.91211,17.4082
-175,610,2.90881,-17.6124,-0.00049304,2.34008e-05,-0.00125389,0.00104538,-0.00151502,-0.886946,0.00148652,0.0122903,1049,414,2.90885,17.6124
-168,610,2.88733,-17.8315,-0.000419476,-0.000717382,-0.000700677,0.000147905,-0.00128476,-0.680665,0.000909827,0.01124,1056,414,2.88733,17.8316
-161,610,2.86694,-18.0717,-0.000322214,-0.0013148,-0.000211403,-0.000279065,-0.00135795,-0.201343,0.000828105,0.0111838,1063,414,2.86699,18.0716
-154,610,2.87085,-18.249,-0.000238451,-0.00162421,0.000256938,-0.000192345,-0.00167032,0.177553,0.00105529,0.0136122,1070,414,2.87091,18.249
-147,610,2.89514,-18.4092,-0.000141522,-0.00178178,0.000564757,3.41219e-05,-0.00195742,0.301524,0.00131647,0.0146232,1077,414,2.89514,18.4092
-140,610,2.87366,-18.6175,4.19399e-05,-0.00190319,0.000727692,0.000284043,-0.00214529,0.321181,0.00153367,0.0120554,1084,414,2.8736,18.6175
-133,610,2.86658,-18.7986,0.000204065,-0.00177357,0.000795711,0.000484467,-0.00205397,0.338803,0.00155614,0.0135981,1091,414,2.86662,18.7986
-126,610,2.85425,-18.9489,0.000323354,-0.00159023,0.000676024,0.000538082,-0.00180496,0.307555,0.00141714,0.0119791,1098,414,2.85422,18.9488
-119,610,2.8501,-19.1099,0.000520752,-0.00118513,0.00033707,0.000584939,-0.00124931,0.188175,0.00108191,0.00981918,1105,414,2.85007,19.1099
-112,610,2.87317,-19.2626,0.000796548,-0.000734831,-4.86084e-05,0.000798089,-0.000736372,-0.0316991,0.000886161,0.0172169,1112,414,2.87313,19.2626
-105,610,2.86792,-19.4255,0.00107029,-0.000215962,-0.000492427,0.00123716,-0.000382834,-0.326731,0.000977695,0.0175448,1119,414,2.8679,19.4255
-98,610,2.86536,-19.5927,0.00134394,0.000193618,-0.000944092,0.00187427,-0.000336716,-0.511812,0.00137556,0.0127456,1126,414,2.8654,19.5927
-91,610,2.88184,-19.7181,0.00171402,0.000611271,-0.00136302,0.00263296,-0.000307674,-0.593198,0.00186634,0.013685,1133,414,2.88181,19.7181
-84,610,2.91296,-19.8529,0.00208465,0.000758731,-0.00146146,0.00302649,-0.00018311,-0.572465,0.00208138,0.0134046,1140,414,2.91295,19.8529
-77,610,2.90649,-19.9915,0.00236818,0.000950088,-0.00139294,0.00322216,9.6113e-05,-0.549976,0.0021168,0.0104949,1147,414,2.90653,19.9915
-70,610,2.92615,-20.1293,0.00283618,0.000805628,-0.00112974,0.00333982,0.000301989,-0.419356,0.00213302,0.0127595,1154,414,2.92616,20.1293
-63,610,2.9342,-20.2532,0.00166066,-0.00103749,-0.000394448,0.00171715,-0.00109397,-0.142228,0.00163624,0.0117166,1161,414,2.93418,20.2532
-56,610,2.94556,-20.3378,-0.00163073,-0.00450658,0.000851587,-0.00139748,-0.00473983,0.267345,0.00281228,0.0096684,1168,414,2.9456,20.3378
-49,610,2.96155,-20.4384,-0.00568423,-0.00902642,0.00196308,-0.00477729,-0.00993336,0.432785,0.00573642,0.0101977,1175,414,2.96149,20.4384
-42,610,2.98413,-20.5622,-0.00899554,-0.0134603,0.0024115,-0.00794177,-0.0145141,0.411974,0.00839214,0.0143962,1182,414,2.98407,20.5622
-35,610,3.00623,-20.6447,-0.0127094,-0.0178945,0.00288304,-0.0114247,-0.0191792,0.4192,0.0111405,0.0145954,1189,414,3.00624,20.6447
-28,610,3.02148,-20.7163,-0.0157869,-0.0213997,0.00325497,-0.0142956,-0.0228911,0.429633,0.0133521,0.0120143,1196,414,3.02147,20.7163
-21,610,3.04053,-20.7865,-0.0179701,-0.0244542,0.00304597,-0.0167636,-0.0256606,0.377113,0.0150454,0.0102953,1203,414,3.04053,20.7865
-14,610,3.05664,-20.8289,-0.0206286,-0.0272166,0.00283579,-0.0195761,-0.0282691,0.355394,0.0167195,0.0122627,1210,414,3.0566,20.8289
-7,610,3.05847,-20.8602,-0.0213748,-0.0278656,0.00148128,-0.0210527,-0.0281877,0.21409,0.0169225,0.0139641,1217,414,3.05844,20.8602
0,610,3.09521,-20.9221,-0.0211314,-0.0279319,-0.000296103,-0.0211185,-0.0279447,-0.0434317,0.0168226,0.0105271,1224,414,3.09522,20.9222
7,610,3.12732,-20.9828,-0.0209785,-0.0281976,-0.00160794,-0.0206366,-0.0285396,-0.209539,0.0170152,0.0109028,1231,414,3.12727,20.9828
14,610,3.15894,-21.0196,-0.0204826,-0.0274697,-0.00308578,-0.0193149,-0.0286374,-0.361748,0.016866,0.0131479,1238,414,3.15896,21.0196
21,610,3.19275,-21.0505,-0.0196535,-0.0261937,-0.004606,-0.0172748,-0.0285724,-0.476704,0.0166162,0.0122911,1245,414,3.19272,21.0505
28,610,3.21008,-21.1085,-0.0188669,-0.0245854,-0.00589679,-0.0151727,-0.0282796,-0.559657,0.0163418,0.0128908,1252,414,3.2101,21.1085
35,610,3.28333,-21.1308,-0.0186134,-0.023034,-0.00659397,-0.0138691,-0.0277782,-0.623683,0.0160378,0.0154182,1259,414,3.28335,21.1308
42,610,3.29138,-21.1123,-0.0181833,-0.0213246,-0.0070425,-0.0125384,-0.0269695,-0.675682,0.0155836,0.0145221,1266,414,3.29143,21.1123
49,610,3.30908,-21.1518,-0.0167015,-0.0198195,-0.00656228,-0.0115156,-0.0250054,-0.668775,0.0144519,0.0145868,1273,414,3.30914,21.1518
56,610,3.33984,-21.1267,-0.0153225,-0.0181513,-0.00593027,-0.0106403,-0.0228335,-0.668334,0.0131931,0.01295,1280,414,3.33987,21.1267
63,610,3.33228,-21.0934,-0.0144625,-0.0170128,-0.00464712,-0.0109187,-0.0205565,-0.651496,0.011876,0.0163517,1287,414,3.33227,21.0934
70,610,3.38757,-21.0674,-0.0134863,-0.0160925,-0.00308892,-0.0114369,-0.0181419,-0.585795,0.0105923,0.0231588,1294,414,3.38752,21.0674
77,610,3.47083,-21.0597,-0.0125535,-0.0158724,-0.00132761,-0.0120878,-0.0163381,-0.337379,0.00978792,0.0283735,1301,414,3.47078,21.0597
84,610,3.44446,-21.0329,-0.011733,-0.0157204,0.0004262,-0.011688,-0.0157655,0.105301,0.0094491,0.030176,1308,414,3.44446,21.0329
91,610,3.50366,-21.0192,-0.010552,-0.0156231,0.00188753,-0.00992655,-0.0162486,0.319959,0.00945774,0.0243846,1315,414,3.50366,21.0192
98,610,3.58606,-20.986,-0.0102334,-0.0164451,0.00392745,-0.00833212,-0.0183464,0.450841,0.0106071,0.0211797,1322,414,3.58607,20.986
105,610,3.57605,-20.9345,-0.00993468,-0.0172215,0.00573251,-0.00678572,-0.0203704,0.502317,0.0119772,0.0172734,1329,414,3.57603,20.9345
112,610,3.56812,-20.8885,-0.00883378,-0.0171656,0.00627005,-0.00547186,-0.0205276,0.492176,0.0122746,0.0129571,1336,414,3.56807,20.8885
119,610,3.56641,-20.8238,-0.0080084,-0.0176431,0.0069097,-0.00440251,-0.021249,0.480981,0.0129504,0.0178608,1343,414,3.56638,20.8238
126,610,3.59778,-20.7551,-0.0075683,-0.0181049,0.00726874,-0.00385942,-0.0218138,0.471814,0.013442,0.0233911,1350,414,3.59774,20.7551
133,610,3.63684,-20.6723,-0.00698493,-0.0181798,0.00718753,-0.00347237,-0.0216923,0.454568,0.0134543,0.0194372,1357,414,3.6369,20.6723
140,610,3.66602,-20.5969,-0.00618471,-0.0177429,0.00661005,-0.00318368,-0.0207439,0.426184,0.0128997,0.0151648,1364,414,3.66607,20.5969
147,610,3.66711,-20.4735,-0.00570452,-0.0170816,0.00588936,-0.00320503,-0.0195811,0.40137,0.0121277,0.0161491,1371,414,3.66706,20.4736
154,610,3.64709,-20.3695,-0.0057901,-0.0159622,0.00476573,-0.0039062,-0.0178461,0.376448,0.0108327,0.0219368,1378,414,3.64705,20.3695
161,610,3.69531,-20.2647,-0.00557712,-0.0149134,0.00407661,-0.00404766,-0.0164429,0.358927,0.0098927,0.0272454,1385,414,3.69531,20.2647
168,610,3.78235,-20.181,-0.00461684,-0.0131098,0.00320077,-0.00354566,-0.014181,0.322946,0.00852166,0.0268037,1392,414,3.78241,20.181
175,610,3.79443,-20.0857,-0.00319067,-0.0108847,0.00238272,-0.00251254,-0.0115628,0.277271,0.00702247,0.0208418,1399,414,3.79444,20.0857
182,610,3.81689,-19.9685,-0.00141134,-0.00857657,0.0013793,-0.00115499,-0.00883292,0.183753,0.00554386,0.0147133,1406,414,3.81693,19.9685
189,610,3.81274,-19.822,0.000367477,-0.00600366,0.000636222,0.000430389,-0.00606658,0.0985632,0.00419521,0.0136496,1413,414,3.81277,19.822
196,610,3.80701,-19.6944,0.00193924,-0.00377057,0.000212093,0.0019471,-0.00377844,0.0370773,0.00336154,0.0141305,1420,414,3.80702,19.6944
203,610,3.81616,-19.5433,0.00238202,-0.00168149,-0.000808888,0.00253712,-0.00183659,-0.189443,0.00253594,0.0150595,1427,414,3.81618,19.5433
210,610,3.8335,-19.3849,0.00208216,0.000258782,-0.00128801,0.00274849,-0.000407549,-0.477418,0.00198219,0.0112259,1434,414,3.83344,19.3849
217,610,3.85718,-19.1912,0.00131443,0.00121452,-0.000770252,0.00203635,0.000492605,-0.753016,0.00122678,0.0157758,1441,414,3.85712,19.1912
224,610,3.86438,-19.0306,0.0010942,0.00175331,-0.000471508,0.00199902,0.000848493,-1.09041,0.00115852,0.0191529,1448,414,3.86439,19.0306
231,610,3.87244,-18.8795,0.000989376,0.0022607,-0.000148408,0.0022778,0.000972281,-1.45612,0.00131977,0.0152461,1455,414,3.87248,18.8796
238,610,3.86646,-18.6958,0.00095454,0.00275092,0.000170724,0.002767,0.000938458,1.47688,0.00162485,0.0112345,1462,414,3.86648,18.6958
245,610,3.86938,-18.5003,0.000889723,0.00318558,0.000400086,0.0032533,0.000822,1.40311,0.0019534,0.0119987,1469,414,3.86944,18.5003
252,610,3.86743,-18.3081,0.000839037,0.00358103,0.000652353,0.00372832,0.000691746,1.34874,0.00229006,0.0131679,1476,414,3.86748,18.3081
259,610,3.86499,-18.1047,0.00079913,0.00396379,0.000969263,0.00423705,0.000525863,1.296,0.00266675,0.0116082,1483,414,3.86499,18.1047
266,610,3.86633,-17.8999,0.000722036,0.00437544,0.00126523,0.00477083,0.000326655,1.26791,0.00307745,0.0120708,1490,414,3.86636,17.8999
273,610,3.86499,-17.6895,0.000603419,0.0046709,0.00144071,0.00512949,0.000144821,1.26262,0.00337243,0.00992278,1497,414,3.86505,17.6896
280,610,3.85425,-17.4626,0.000563093,0.00493119,0.00171978,0.00552702,-3.27365e-05,1.23728,0.00369564,0.00891649,1504,414,3.85429,17.4626
287,610,3.84058,-17.2328,0.000526601,0.00522564,0.00201835,0.00597354,-0.000221294,1.21593,0.00405814,0.0119801,1511,414,3.84062,17.2328
294,610,3.84668,-17.0183,0.000460953,0.00549511,0.00226526,0.00636434,-0.000408275,1.2044,0.00438532,0.0110602,1518,414,3.84666,17.0183
301,610,3.84912,-16.8218,0.000339074,0.00570679,0.00243857,0.00664918,-0.000603321,1.20202,0.00464697,0.0100808,1525,414,3.84918,16.8218
308,610,3.8728,-16.571,0.000190869,0.0059386,0.00258587,0.00693072,-0.000801248,1.20445,0.00490941,0.0123579,1532,414,3.87275,16.571
315,610,3.84753,-16.3232,-1.57422e-05,0.00615659,0.00272246,0.00718579,-0.00104494,1.20936,0.00517413,0.0133115,1539,414,3.8475,16.3232
322,610,3.8092,-16.086,-0.000267463,0.00626908,0.00283078,0.00732457,-0.00132296,1.2139,0.00537854,0.012222,1546,414,3.80918,16.086
329,610,3.78271,-15.8208,-0.000555777,0.00628115,0.00291274,0.00735378,-0.00162841,1.21795,0.00552589,0.0106538,1553,414,3.78276,15.8208
336,610,3.79089,-15.5344,-0.000929882,0.00628093,0.00295689,0.00733837,-0.00198732,1.22735,0.00567195,0.0104251,1560,414,3.79085,15.5344
343,610,3.79565,-15.2575,-0.0013837,0.00610802,0.00287708,0.00708541,-0.00236109,1.24331,0.00567674,0.0220848,1567,414,3.79569,15.2575
350,610,3.82458,-14.9857,0,0,0,0,0,0,0,-1,1574,414,3.8246,14.9857
357,610,3.8103,-14.437,0,0,0,0,0,0,0,-1,1581,414,3.81033,14.437
364,610,3.94958,-14.2364,0,0,0,0,0,0,0,-1,1588,414,3.94955,14.2364
371,610,3.54138,-13.3788,0,0,0,0,0,0,0,-1,1595,414,3.54137,13.3788
378,610,3.5752,-12.1958,0,0,0,0,0,0,0,-1,1602,414,3.57517,12.1958
385,610,2.57104,-10.3878,0,0,0,0,0,0,0,-1,1609,414,2.57109,10.3878
392,610,2.35229,-10.3207,0,0,0,0,0,0,0,-1,1616,414,2.35227,10.3207
399,610,3.03833,-2.82547,0,0,0,0,0,0,0,-1,1623,414,3.03827,2.82546
406,610,2.91687,-2.9166,0,0,0,0,0,0,0,-1,1630,414,2.91688,2.91659
413,610,3.01929,-3.20306,0,0,0,0,0,0,0,-1,1637,414,3.01929,3.20306
420,610,4.78149,-3.64041,0,0,0,0,0,0,0,-1,1644,414,4.78152,3.64042
427,610,5.20764,-4.67545,0,0,0,0,0,0,0,-1,1651,414,5.20759,4.67545
434,610,5.39233,-5.45441,0,0,0,0,0,0,0,-1,1658,414,5.39228,5.4544
441,610,0,0,0,0,0,0,0,0,0,-1,1665,414,0,0
448,610,0,0,0,0,0,0,0,0,0,-1,1672,414,0,0
455,610,0,0,0,0,0,0,0,0,0,-1,1679,414,0,0
462,610,0,0,0,0,0,0,0,0,0,-1,1686,414,0,0
469,610,0,0,0,0,0,0,0,0,0,-1,1693,414,0,0
476,610,0,0,0,0,0,0,0,0,0,-1,1700,414,0,0
483,610,0,0,0,0,0,0,0,0,0,-1,1707,414,0,0
490,610,0,0,0,0,0,0,0,0,0,-1,1714,414,0,0
497,610,0,0,0,0,0,0,0,0,0,-1,1721,414,0,0
504,610,0,0,0,0,0,0,0,0,0,-1,1728,414,0,0
511,610,0,0,0,0,0,0,0,0,0,-1,1735,414,0,0
518,610,0,0,0,0,0,0,0,0,0,-1,1742,414,0,0
525,610,0,0,0,0,0,0,0,0,0,-1,1749,414,0,0
532,610,0,0,0,0,0,0,0,0,0,-1,1756,414,0,0
539,610,0,0,0,0,0,0,0,0,0,-1,1763,414,0,0
546,610,0,0,0,0,0,0,0,0,0,-1,1770,414,0,0
553,610,0,0,0,0,0,0,0,0,0,-1,1777,414,0,0
560,610,0,0,0,0,0,0,0,0,0,-1,1784,414,0,0
567,610,0,0,0,0,0,0,0,0,0,-1,1791,414,0,0
574,610,0,0,0,0,0,0,0,0,0,-1,1798,414,0,0
581,610,0,0,0,0,0,0,0,0,0,-1,1805,414,0,0
588,610,0,0,0,0,0,0,0,0,0,-1,1812,414,0,0
595,610,0,0,0,0,0,0,0,0,0,-1,1819,414,0,0
602,610,0,0,0,0,0,0,0,0,0,-1,1826,414,0,0
609,610,0,0,0,0,0,0,0,0,0,-1,1833,414,0,0
616,610,0,0,0,0,0,0,0,0,0,-1,1840,414,0,0
623,610,0,0,0,0,0,0,0,0,0,-1,1847,414,0,0
630,610,0,0,0,0,0,0,0,0,0,-1,1854,414,0,0
637,610,0,0,0,0,0,0,0,0,0,-1,1861,414,0,0
644,610,0,0,0,0,0,0,0,0,0,-1,1868,414,0,0
651,610,0,0,0,0,0,0,0,0,0,-1,1875,414,0,0
658,610,0,0,0,0,0,0,0,0,0,-1,1882,414,0,0
665,610,0,0,0,0,0,0,0,0,0,-1,1889,414,0,0
672,610,0,0,0,0,0,0,0,0,0,-1,1896,414,0,0
679,610,0,0,0,0,0,0,0,0,0,-1,1903,414,0,0
686,610,0,0,0,0,0,0,0,0,0,-1,1910,414,0,0
693,610,0,0,0,0,0,0,0,0,0,-1,1917,414,0,0
700,610,0,0,0,0,0,0,0,0,0,-1,1924,414,0,0
707,610,0,0,0,0,0,0,0,0,0,-1,1931,414,0,0
714,610,0,0,0,0,0,0,0,0,0,-1,1938,414,0,0
721,610,0,0,0,0,0,0,0,0,0,-1,1945,414,0,0
728,610,0,0,0,0,0,0,0,0,0,-1,1952,414,0,0
735,610,0,0,0,0,0,0,0,0,0,-1,1959,414,0,0
742,610,0,0,0,0,0,0,0,0,0,-1,1966,414,0,0
749,610,0,0,0,0,0,0,0,0,0,-1,1973,414,0,0
756,610,0,0,0,0,0,0,0,0,0,-1,1980,414,0,0
763,610,0,0,0,0,0,0,0,0,0,-1,1987,414,0,0
770,610,0,0,0,0,0,0,0,0,0,-1,1994,414,0,0
777,610,0,0,0,0,0,0,0,0,0,-1,2001,414,0,0
784,610,0,0,0,0,0,0,0,0,0,-1,2008,414,0,0
791,610,0,0,0,0,0,0,0,0,0,-1,2015,414,0,0
798,610,0,0,0,0,0,0,0,0,0,-1,2022,414,0,0
805,610,0,0,0,0,0,0,0,0,0,-1,2029,414,0,0
812,610,0,0,0,0,0,0,0,0,0,-1,2036,414,0,0
-700,603,0,0,0,0,0,0,0,0,0,-1,524,421,0,0
-693,603,0,0,0,0,0,0,0,0,0,-1,531,421,0,0
-686,603,0,0,0,0,0,0,0,0,0,-1,538,421,0,0
-679,603,0,0,0,0,0,0,0,0,0,-1,545,421,0,0
-672,603,0,0,0,0,0,0,0,0,0,-1,552,421,0,0
-665,603,0,0,0,0,0,0,0,0,0,-1,559,421,0,0
-658,603,0,0,0,0,0,0,0,0,0,-1,566,421,0,0
-651,603,0,0,0,0,0,0,0,0,0,-1,573,421,0,0
-644,603,0,0,0,0,0,0,0,0,0,-1,580,421,0,0
-637,603,0,0,0,0,0,0,0,0,0,-1,587,421,0,0
-630,603,0,0,0,0,0,0,0,0,0,-1,594,421,0,0
-623,603,0,0,0,0,0,0,0,0,0,-1,601,421,0,0
-616,603,0,0,0,0,0,0,0,0,0,-1,608,421,0,0
-609,603,0,0,0,0,0,0,0,0,0,-1,615,421,0,0
-602,603,0,0,0,0,0,0,0,0,0,-1,622,421,0,0
-595,603,0,0,0,0,0,0,0,0,0,-1,629,421,0,0
-588,603,0,0,0,0,0,0,0,0,0,-1,636,421,0,0
-581,603,0,0,0,0,0,0,0,0,0,-1,643,421,0,0
-574,603,0,0,0,0,0,0,0,0,0,-1,650,421,0,0
-567,603,0,0,0,0,0,0,0,0,0,-1,657,421,0,0
-560,603,0,0,0,0,0,0,0,0,0,-1,664,421,0,0
-553,603,0,0,0,0,0,0,0,0,0,-1,671,421,0,0
-546,603,0,0,0,0,0,0,0,0,0,-1,678,421,0,0
-539,603,0,0,0,0,0,0,0,0,0,-1,685,421,0,0
-532,603,0,0,0,0,0,0,0,0,0,-1,692,421,0,0
-525,603,0,0,0,0,0,0,0,0,0,-1,699,421,0,0
-518,603,0,0,0,0,0,0,0,0,0,-1,706,421,0,0
-511,603,0,0,0,0,0,0,0,0,0,-1,713,421,0,0
-504,603,0,0,0,0,0,0,0,0,0,-1,720,421,0,0
-497,603,0,0,0,0,0,0,0,0,0,-1,727,421,0,0
-490,603,0,0,0,0,0,0,0,0,0,-1,734,421,0,0
-483,603,0,0,0,0,0,0,0,0,0,-1,741,421,0,0
-476,603,0,0,0,0,0,0,0,0,0,-1,748,421,0,0
-469,603,0,0,0,0,0,0,0,0,0,-1,755,421,0,0
-462,603,0,0,0,0,0,0,0,0,0,-1,762,421,0,0
-455,603,0,0,0,0,0,0,0,0,0,-1,769,421,0,0
-448,603,0,0,0,0,0,0,0,0,0,-1,776,421,0,0
-441,603,0,0,0,0,0,0,0,0,0,-1,783,421,0,0
-434,603,0,0,0,0,0,0,0,0,0,-1,790,421,0,0
-427,603,0,0,0,0,0,0,0,0,0,-1,797,421,0,0
-420,603,0,0,0,0,0,0,0,0,0,-1,804,421,0,0
-413,603,0,0,0,0,0,0,0,0,0,-1,811,421,0,0
-406,603,0,0,0,0,0,0,0,0,0,-1,818,421,0,0
-399,603,0,0,0,0,0,0,0,0,0,-1,825,421,0,0
-392,603,0,0,0,0,0,0,0,0,0,-1,832,421,0,0
-385,603,0,0,0,0,0,0,0,0,0,-1,839,421,0,0
-378,603,0,0,0,0,0,0,0,0,0,-1,846,421,0,0
-371,603,0,0,0,0,0,0,0,0,0,-1,853,421,0,0
-364,603,0,0,0,0,0,0,0,0,0,-1,860,421,0,0
-357,603,0,0,0,0,0,0,0,0,0,-1,867,421,0,0
-350,603,0,0,0,0,0,0,0,0,0,-1,874,421,0,0
-343,603,0,0,0,0,0,0,0,0,0,-1,881,421,0,0
-336,603,0,0,0,0,0,0,0,0,0,-1,888,421,0,0
-329,603,4.0014,-10.7005,0,0,0,0,0,0,0,-1,895,421,4.00139,10.7005
-322,603,5.97797,-13.3102,0,0,0,0,0,0,0,-1,902,421,5.97797,13.3102
-315,603,5.52008,-13.3285,0,0,0,0,0,0,0,-1,909,421,5.52009,13.3285
-308,603,5.18152,-13.3872,0,0,0,0,0,0,0,-1,916,421,5.18154,13.3872
-301,603,4.70502,-13.6409,0,0,0,0,0,0,0,-1,923,421,4.70499,13.6409
-294,603,3.95184,-13.8366,0,0,0,0,0,0,0,-1,930,421,3.95182,13.8366
-287,603,3.80811,-9.60947,0,0,0,0,0,0,0,-1,937,421,3.80809,9.60946
-280,603,3.49683,-14.7984,0,0,0,0,0,0,0,-1,944,421,3.49682,14.7984
-273,603,2.46442,-13.6426,0,0,0,0,0,0,0,-1,951,421,2.46443,13.6426
-266,603,2.8631,-13.2952,0,0,0,0,0,0,0,-1,958,421,2.86312,13.2952
-259,603,2.89459,-14.0844,0,0,0,0,0,0,0,-1,965,421,2.8946,14.0844
-252,603,2.71967,-15.1292,0,0,0,0,0,0,0,-1,972,421,2.71967,15.1292
-245,603,2.81195,-15.274,-0.00427942,0.00717722,-0.00291742,0.00787735,-0.00497955,-1.33527,0.00748552,0.0334345,979,421,2.81193,15.274
-238,603,2.85217,-15.4251,-0.00409911,0.00654894,-0.00199648,0.00691096,-0.00446114,-1.39141,0.00661627,0.021231,986,421,2.85218,15.4251
-231,603,2.80035,-15.7141,-0.00425569,0.00598025,-0.00168257,0.00624974,-0.00452518,-1.41198,0.0062474,0.0133351,993,421,2.80035,15.7141
-224,603,2.76709,-15.9959,-0.00395835,0.00528116,-0.00186531,0.00564352,-0.00432072,-1.37892,0.00576973,0.0128456,1000,421,2.76706,15.9959
-217,603,2.75439,-16.2395,-0.0030891,0.00452592,-0.00197404,0.00500723,-0.00357041,-1.33164,0.00497541,0.0126566,1007,421,2.75442,16.2395
-210,603,2.75964,-16.4984,-0.00241745,0.00346072,-0.00193739,0.00404182,-0.00299855,-1.2794,0.00407961,0.0106162,1014,421,2.75963,16.4984
-203,603,2.74347,-16.7689,-0.00180423,0.00258079,-0.00189093,0.00328358,-0.00250702,-1.21496,0.00335321,0.0153228,1021,421,2.74349,16.7688
-196,603,2.7627,-17.0269,-0.00126851,0.00189246,-0.00186943,0.00275997,-0.00213603,-1.13632,0.00283435,0.0157683,1028,421,2.76272,17.0269
-189,603,2.75134,-17.2162,-0.000638176,0.00123971,-0.00198131,0.0024933,-0.00189177,-1.00667,0.00253965,0.0132412,1035,421,2.75133,17.2163
-182,603,2.71387,-17.4292,-0.000137974,0.000805405,-0.00168803,0.00208641,-0.00141898,-0.921639,0.00203603,0.00994244,1042,421,2.71388,17.4292
-175,603,2.6958,-17.6418,3.75097e-05,0.000206791,-0.00132065,0.00144551,-0.00120121,-0.8174,0.00153025,0.010715,1049,421,2.69585,17.6418
-168,603,2.68225,-17.8262,0.000150349,-0.000408979,-0.00102442,0.000932591,-0.00119122,-0.652146,0.00122921,0.0136335,1056,421,2.68223,17.8262
-161,603,2.67151,-18.053,0.000243567,-0.000856231,-0.000791201,0.000657197,-0.00126986,-0.481711,0.00113117,0.0133016,1063,421,2.67153,18.053
-154,603,2.66565,-18.2553,0.000337264,-0.00112247,-0.000542551,0.000516829,-0.00130204,-0.319618,0.00108225,0.0126281,1070,421,2.66566,18.2554
-147,603,2.69238,-18.4235,0.000445464,-0.00132098,-0.000369732,0.00051973,-0.00139524,-0.198227,0.00114348,0.0132525,1077,421,2.69242,18.4235
-140,603,2.70471,-18.5965,0.000636713,-0.00155703,-0.000294419,0.000675539,-0.00159586,-0.131118,0.00134679,0.0112342,1084,421,2.70474,18.5965
-133,603,2.6897,-18.7705,0.000814758,-0.00160086,-0.000273308,0.000845295,-0.00163139,-0.111268,0.00145373,0.0114051,1091,421,2.68974,18.7705
-126,603,2.69092,-18.9325,0.000960124,-0.00167323,-0.000346287,0.0010049,-0.00171801,-0.128588,0.00158994,0.0106272,1098,421,2.69092,18.9325
-119,603,2.71631,-19.1031,0.00117146,-0.00155262,-0.000569866,0.00128587,-0.00166703,-0.19813,0.00170959,0.0105228,1105,421,2.71636,19.1031
-112,603,2.71606,-19.2798,0.00143684,-0.00139623,-0.000796513,0.00164542,-0.00160482,-0.256117,0.00187657,0.015001,1112,421,2.71601,19.2798
-105,603,2.71863,-19.4563,0.00171735,-0.00113175,-0.00107372,0.00207668,-0.00149108,-0.322939,0.00206907,0.0146674,1119,421,2.71865,19.4563
-98,603,2.71924,-19.5788,0.00204418,-0.000929926,-0.00135489,0.00256886,-0.0014546,-0.369464,0.00235245,0.0123923,1126,421,2.7192,19.5788
-91,603,2.73254,-19.7007,0.00253217,-0.000565011,-0.00167634,0.00326574,-0.00129858,-0.412495,0.00271556,0.00885431,1133,421,2.7325,19.7006
-84,603,2.77222,-19.8583,0.00299294,-0.000346661,-0.00167474,0.00368809,-0.00104181,-0.393437,0.00286974,0.00880733,1140,421,2.77223,19.8583
-77,603,2.79529,-20.0292,0.00331875,4.27951e-05,-0.00155007,0.00393592,-0.000574377,-0.378916,0.00283487,0.0135432,1147,421,2.79534,20.0292
-70,603,2.87573,-20.3461,0.00394787,2.93762e-06,-0.00123525,0.00430274,-0.000351928,-0.279748,0.00299271,0.0430001,1154,421,2.87579,20.3461
-63,603,2.9707,-20.721,0,0,0,0,0,0,0,-1,1161,421,2.97074,20.721
-56,603,2.79956,-20.3457,0,0,0,0,0,0,0,-1,1168,421,2.79951,20.3457
-49,603,2.86609,-20.4523,0,0,0,0,0,0,0,-1,1175,421,2.86608,20.4523
-42,603,2.88428,-20.5441,0,0,0,0,0,0,0,-1,1182,421,2.8843,20.5441
-35,603,2.83716,-20.5818,-0.0239616,-0.0310324,0.00554686,-0.0209192,-0.0340748,0.501674,0.0198426,0.0424319,1189,421,2.83712,20.5818
-28,603,2.84375,-20.651,-0.0279958,-0.035228,0.00614143,-0.024485,-0.0387389,0.519324,0.0226244,0.0243723,1196,421,2.84378,20.651
-21,603,2.88281,-20.7369,-0.0304472,-0.0383769,0.00592323,-0.0272843,-0.0415398,0.490459,0.0243731,0.019544,1203,421,2.88281,20.7369
-14,603,2.95166,-20.8206,-0.0331605,-0.0410048,0.00563466,-0.0302173,-0.043948,0.481354,0.0259617,0.0204183,1210,421,2.95164,20.8206
-7,603,2.98511,-20.8975,-0.0336005,-0.0411553,0.00395497,-0.0319088,-0.0428469,0.404179,0.0257063,0.0224028,1217,421,2.98513,20.8975
0,603,2.98242,-20.9399,-0.0328208,-0.0407378,0.00176438,-0.0324454,-0.0411132,0.209645,0.025025,0.0257196,1224,421,2.98246,20.9399
7,603,3.01843,-20.8821,-0.0321319,-0.0404407,-2.4605e-05,-0.0321319,-0.0404407,-0.00296131,0.0246619,0.0303789,1231,421,3.01838,20.8821
14,603,3.1449,-20.8349,-0.0310717,-0.0389932,-0.00206678,-0.0305649,-0.0395,-0.240474,0.0239179,0.0293412,1238,421,3.14496,20.8349
21,603,3.19141,-20.8746,-0.0297162,-0.0369203,-0.00418544,-0.0277962,-0.0388402,-0.430086,0.0231092,0.0237445,1245,421,3.19144,20.8746
28,603,3.34143,-20.9171,-0.0285478,-0.0344479,-0.00598725,-0.0248232,-0.0381724,-0.556494,0.0223683,0.0267751,1252,421,3.34146,20.9171
35,603,3.38135,-20.9005,-0.0281624,-0.0320383,-0.0069982,-0.0228388,-0.0373619,-0.650325,0.0217483,0.0347541,1259,421,3.38129,20.9005
42,603,3.36292,-21.0203,-0.0276566,-0.0294646,-0.00765195,-0.0208554,-0.0362658,-0.726598,0.0210166,0.0296489,1266,421,3.36292,21.0203
49,603,3.38501,-21.1129,-0.0258892,-0.0272316,-0.00712079,-0.019408,-0.0337127,-0.738407,0.0195382,0.016277,1273,421,3.385,21.1129
56,603,3.36584,-21.0232,-0.0243458,-0.0248452,-0.00633035,-0.0182603,-0.0309308,-0.765684,0.0179548,0.0309228,1280,421,3.36588,21.0232
63,603,3.38855,-20.778,-0.0233383,-0.0230998,-0.00467078,-0.0185467,-0.0278913,-0.798161,0.0163926,0.0431723,1287,421,3.38858,20.778
70,603,3.38123,-20.7997,-0.0222929,-0.0216567,-0.0025605,-0.0193946,-0.024555,-0.847198,0.0149498,0.047321,1294,421,3.38126,20.7997
77,603,3.55835,-20.9928,-0.0209218,-0.0210795,-0.000112872,-0.020863,-0.0211383,-0.480598,0.0140013,0.0498489,1301,421,3.55832,20.9928
84,603,3.47302,-20.9192,-0.0194854,-0.0206713,0.00218601,-0.0178133,-0.0223434,0.652958,0.0136387,0.0485321,1308,421,3.47304,20.9192
91,603,3.60107,-20.9812,-0.0176066,-0.020348,0.00404934,-0.0147023,-0.0232523,0.622205,0.0135805,0.0477852,1315,421,3.60104,20.9812
98,603,3.69543,-20.9474,-0.0166337,-0.0211106,0.00648198,-0.0120146,-0.0257298,0.619141,0.0148659,0.0458721,1322,421,3.69539,20.9474
105,603,3.81433,-20.7119,-0.0156167,-0.0217323,0.00844027,-0.0096974,-0.0276516,0.611608,0.0162002,0.0395432,1329,421,3.81432,20.7119
112,603,3.78064,-20.7304,-0.0135984,-0.0216038,0.00892646,-0.00781833,-0.0273839,0.574633,0.0162878,0.0329979,1336,421,3.78066,20.7304
119,603,3.76721,-20.7065,-0.0118819,-0.0221265,0.00944756,-0.00625737,-0.027751,0.536988,0.0168077,0.0341548,1343,421,3.76719,20.7065
126,603,3.83069,-20.5944,-0.0106921,-0.0226959,0.00948251,-0.00547167,-0.0279164,0.503251,0.0170817,0.0393747,1350,421,3.83074,20.5944
133,603,3.82654,-20.5233,-0.00941931,-0.0227875,0.00883004,-0.00502881,-0.027178,0.461424,0.0166968,0.0372915,1357,421,3.82653,20.5233
140,603,3.85913,-20.4592,-0.00810106,-0.0223228,0.00750223,-0.0048752,-0.0255486,0.406087,0.0156624,0.024125,1364,421,3.85916,20.4592
147,603,3.78918,-20.3939,-0.00741823,-0.0215498,0.00599506,-0.00521762,-0.0237504,0.3518,0.0144127,0.0181941,1371,421,3.78918,20.3939
154,603,3.77344,-20.3347,-0.00747408,-0.0202589,0.00416986,-0.00623428,-0.0214987,0.289,0.0127721,0.0280232,1378,421,3.77347,20.3347
161,603,3.83423,-20.2502,-0.0073174,-0.0191312,0.00296113,-0.00661675,-0.0198319,0.232343,0.0116593,0.0319044,1385,421,3.83422,20.2502
168,603,3.93237,-20.1344,-0.00636035,-0.0172826,0.00164176,-0.00611891,-0.0175241,0.146015,0.0102698,0.0291399,1392,421,3.93234,20.1344
175,603,4.05872,-20.0446,-0.00465792,-0.0148567,0.000537656,-0.00462965,-0.014885,0.0525236,0.00879605,0.0313174,1399,421,4.05873,20.0446
182,603,4.12756,-19.9439,-0.00277571,-0.0123792,-0.000898901,-0.00269229,-0.0124626,-0.092531,0.0075722,0.0384004,1406,421,4.12757,19.9439
189,603,4.0697,-19.7656,-0.00067896,-0.00897282,-0.00155587,-0.000396696,-0.00925508,-0.179467,0.00604216,0.0344175,1413,421,4.06965,19.7656
196,603,3.99609,-19.5792,0.00221054,-0.00581419,-0.00137964,0.00244111,-0.00604476,-0.165591,0.00504442,0.0267682,1420,421,3.99607,19.5792
203,603,3.97351,-19.4919,0.00325673,-0.00294723,-0.00206897,0.00388341,-0.00357391,-0.294111,0.00430672,0.0157958,1427,421,3.97355,19.4919
210,603,3.97668,-19.3913,0.00306954,-0.000290522,-0.00211584,0.00409123,-0.00131221,-0.449855,0.0032543,0.0121719,1434,421,3.97665,19.3913
217,603,3.98779,-19.1953,0.00200319,0.000963954,-0.00142398,0.0029994,-3.22476e-05,-0.610451,0.00201043,0.0134789,1441,421,3.98785,19.1952
224,603,4.01379,-19.008,0.00173174,0.00159975,-0.00106767,0.00273545,0.000596029,-0.754532,0.001661,0.0165621,1448,421,4.01383,19.008
231,603,4.0343,-18.85,0.00156334,0.00217673,-0.000708215,0.0026418,0.00109826,-0.989732,0.00153245,0.0143947,1455,421,4.03434,18.85
238,603,4.04431,-18.688,0.00147457,0.00265705,-0.000390782,0.00277452,0.00135709,-1.27878,0.001602,0.0107965,1462,421,4.04428,18.688
245,603,4.06165,-18.5126,0.00137096,0.00305062,-0.0001613,0.00306597,0.00135561,-1.47592,0.00177408,0.0111471,1469,421,4.06161,18.5126
252,603,4.0752,-18.3258,0.00124516,0.00334147,7.63236e-05,0.00334425,0.00124238,1.53445,0.00195194,0.00983684,1476,421,4.07518,18.3258
259,603,4.06238,-18.1147,0.00111144,0.00352176,0.000341781,0.00356929,0.00106391,1.43263,0.00211601,0.00956306,1483,421,4.06233,18.1147
266,603,4.05762,-17.9053,0.000983568,0.0036831,0.00058493,0.0038044,0.000862276,1.36633,0.00230328,0.0110434,1490,421,4.0576,17.9053
273,603,4.07068,-17.6892,0.000841709,0.00378017,0.000750476,0.00396074,0.000661136,1.33467,0.00245003,0.0105451,1497,421,4.07072,17.6892
280,603,4.07837,-17.4727,0.000731072,0.00381303,0.000985515,0.00410122,0.000442883,1.2863,0.00259913,0.0114267,1504,421,4.07833,17.4727
287,603,4.07983,-17.2338,0.000674251,0.00396151,0.00127047,0.00439529,0.000240472,1.24178,0.00285341,0.0107691,1511,421,4.07983,17.2338
294,603,4.06567,-17.0138,0.00061459,0.00406094,0.00150256,0.00462403,5.15007e-05,1.21224,0.00306566,0.00986467,1518,421,4.06568,17.0138
301,603,4.07056,-16.8062,0.000498419,0.00410857,0.00166589,0.00475981,-0.000152821,1.19814,0.00322535,0.0116893,1525,421,4.07056,16.8062
308,603,4.07849,-16.5608,0.000375353,0.00424278,0.00182094,0.0049652,-0.000347073,1.19311,0.00343168,0.016863,1532,421,4.07847,16.5608
315,603,4.07288,-16.3226,0.000211443,0.00441301,0.00196362,0.00518783,-0.000563373,1.19497,0.00366082,0.0149544,1539,421,4.07293,16.3226
322,603,4.052,-16.0772,-8.1723e-06,0.00452737,0.00209259,0.00534533,-0.00082613,1.19817,0.00386845,0.0135453,1546,421,4.052,16.0772
329,603,4.01978,-15.8135,-0.000260837,0.00457888,0.0022266,0.00544741,-0.00112936,1.19888,0.00406075,0.0100551,1553,421,4.01976,15.8135
336,603,4.01147,-15.5606,-0.000575268,0.0046277,0.00234627,0.00552946,-0.00147703,1.20386,0.00426477,0.00919302,1560,421,4.0115,15.5606
343,603,4.01807,-15.2964,-0.000962635,0.00456574,0.00237417,0.00544537,-0.00184227,1.21598,0.00437558,0.0111813,1567,421,4.01813,15.2964
350,603,4.0033,-15.031,-0.00126415,0.0048381,0.00259935,0.00579522,-0.00222127,1.21799,0.00477918,0.0242562,1574,421,4.0033,15.031
357,603,4.00366,-14.659,-0.00170025,0.00498145,0.00282728,0.00601722,-0.00273602,1.21963,0.00517068,0.0345409,1581,421,4.00365,14.659
364,603,3.97546,-14.3312,-0.00229786,0.0049805,0.00286291,0.00597165,-0.00328901,1.23751,0.0054209,0.0425509,1588,421,3.97547,14.3312
371,603,3.93469,-14.0187,0,0,0,0,0,0,0,-1,1595,421,3.93468,14.0187
378,603,3.88318,-13.9137,0,0,0,0,0,0,0,-1,1602,421,3.88324,13.9137
385,603,3.73914,-13.5532,0,0,0,0,0,0,0,-1,1609,421,3.73911,13.5532
392,603,3.60376,-13.3014,0,0,0,0,0,0,0,-1,1616,421,3.60378,13.3014
399,603,2.38013,-5.37076,0,0,0,0,0,0,0,-1,1623,421,2.38016,5.37075
406,603,3.01917,-2.37219,0,0,0,0,0,0,0,-1,1630,421,3.01915,2.37219
413,603,2.38928,-2.41275,0,0,0,0,0,0,0,-1,1637,421,2.38926,2.41274
420,603,2.74866,-2.30066,0,0,0,0,0,0,0,-1,1644,421,2.74867,2.30065
427,603,7.11548,-3.35352,0,0,0,0,0,0,0,-1,1651,421,7.11549,3.35351
434,603,7.32153,-4.50525,0,0,0,0,0,0,0,-1,1658,421,7.32149,4.50525
441,603,3.18213,-0.250946,0,0,0,0,0,0,0,-1,1665,421,3.18212,0.250944
448,603,2.95667,-0.066925,0,0,0,0,0,0,0,-1,1672,421,2.95662,0.0669226
455,603,0,0,0,0,0,0,0,0,0,-1,1679,421,0,0
462,603,0,0,0,0,0,0,0,0,0,-1,1686,421,0,0
469,603,0,0,0,0,0,0,0,0,0,-1,1693,421,0,0
476,603,0,0,0,0,0,0,0,0,0,-1,1700,421,0,0
483,603,0,0,0,0,0,0,0,0,0,-1,1707,421,0,0
490,603,0,0,0,0,0,0,0,0,0,-1,1714,421,0,0
497,603,0,0,0,0,0,0,0,0,0,-1,1721,421,0,0
504,603,0,0,0,0,0,0,0,0,0,-1,1728,421,0,0
511,603,0,0,0,0,0,0,0,0,0,-1,1735,421,0,0
518,603,0,0,0,0,0,0,0,0,0,-1,1742,421,0,0
525,603,0,0,0,0,0,0,0,0,0,-1,1749,421,0,0
532,603,0,0,0,0,0,0,0,0,0,-1,1756,421,0,0
539,603,0,0,0,0,0,0,0,0,0,-1,1763,421,0,0
546,603,0,0,0,0,0,0,0,0,0,-1,1770,421,0,0
553,603,0,0,0,0,0,0,0,0,0,-1,1777,421,0,0
560,603,0,0,0,0,0,0,0,0,0,-1,1784,421,0,0
567,603,0,0,0,0,0,0,0,0,0,-1,1791,421,0,0
574,603,0,0,0,0,0,0,0,0,0,-1,1798,421,0,0
581,603,0,0,0,0,0,0,0,0,0,-1,1805,421,0,0
588,603,0,0,0,0,0,0,0,0,0,-1,1812,421,0,0
595,603,0,0,0,0,0,0,0,0,0,-1,1819,421,0,0
602,603,0,0,0,0,0,0,0,0,0,-1,1826,421,0,0
609,603,0,0,0,0,0,0,0,0,0,-1,1833,421,0,0
616,603,0,0,0,0,0,0,0,0,0,-1,1840,421,0,0
623,603,0,0,0,0,0,0,0,0,0,-1,1847,421,0,0
630,603,0,0,0,0,0,0,0,0,0,-1,1854,421,0,0
637,603,0,0,0,0,0,0,0,0,0,-1,1861,421,0,0
644,603,0,0,0,0,0,0,0,0,0,-1,1868,421,0,0
651,603,0,0,0,0,0,0,0,0,0,-1,1875,421,0,0
658,603,0,0,0,0,0,0,0,0,0,-1,1882,421,0,0
665,603,0,0,0,0,0,0,0,0,0,-1,1889,421,0,0
672,603,0,0,0,0,0,0,0,0,0,-1,1896,421,0,0
679,603,0,0,0,0,0,0,0,0,0,-1,1903,421,0,0
686,603,0,0,0,0,0,0,0,0,0,-1,1910,421,0,0
693,603,0,0,0,0,0,0,0,0,0,-1,1917,421,0,0
700,603,0,0,0,0,0,0,0,0,0,-1,1924,421,0,0
707,603,0,0,0,0,0,0,0,0,0,-1,1931,421,0,0
714,603,0,0,0,0,0,0,0,0,0,-1,1938,421,0,0
721,603,0,0,0,0,0,0,0,0,0,-1,1945,421,0,0
728,603,0,0,0,0,0,0,0,0,0,-1,1952,421,0,0
735,603,0,0,0,0,0,0,0,0,0,-1,1959,421,0,0
742,603,0,0,0,0,0,0,0,0,0,-1,1966,421,0,0
749,603,0,0,0,0,0,0,0,0,0,-1,1973,421,0,0
756,603,0,0,0,0,0,0,0,0,0,-1,1980,421,0,0
763,603,0,0,0,0,0,0,0,0,0,-1,1987,421,0,0
770,603,0,0,0,0,0,0,0,0,0,-1,1994,421,0,0
777,603,0,0,0,0,0,0,0,0,0,-1,2001,421,0,0
784,603,0,0,0,0,0,0,0,0,0,-1,2008,421,0,0
791,603,0,0,0,0,0,0,0,0,0,-1,2015,421,0,0
798,603,0,0,0,0,0,0,0,0,0,-1,2022,421,0,0
805,603,0,0,0,0,0,0,0,0,0,-1,2029,421,0,0
812,603,0,0,0,0,0,0,0,0,0,-1,2036,421,0,0
-700,596,0,0,0,0,0,0,0,0,0,-1,524,428,0,0
-693,596,0,0,0,0,0,0,0,0,0,-1,531,428,0,0
-686,596,0,0,0,0,0,0,0,0,0,-1,538,428,0,0
-679,596,0,0,0,0,0,0,0,0,0,-1,545,428,0,0
-672,596,0,0,0,0,0,0,0,0,0,-1,552,428,0,0
-665,596,0,0,0,0,0,0,0,0,0,-1,559,428,0,0
-658,596,0,0,0,0,0,0,0,0,0,-1,566,428,0,0
-651,596,0,0,0,0,0,0,0,0,0,-1,573,428,0,0
-644,596,0,0,0,0,0,0,0,0,0,-1,580,428,0,0
-637,596,0,0,0,0,0,0,0,0,0,-1,587,428,0,0
-630,596,0,0,0,0,0,0,0,0,0,-1,594,428,0,0
-623,596,0,0,0,0,0,0,0,0,0,-1,601,428,0,0
-616,596,0,0,0,0,0,0,0,0,0,-1,608,428,0,0
-609,596,0,0,0,0,0,0,0,0,0,-1,615,428,0,0
-602,596,0,0,0,0,0,0,0,0,0,-1,622,428,0,0
-595,596,0,0,0,0,0,0,0,0,0,-1,629,428,0,0
-588,596,0,0,0,0,0,0,0,0,0,-1,636,428,0,0
-581,596,0,0,0,0,0,0,0,0,0,-1,643,428,0,0
-574,596,0,0,0,0,0,0,0,0,0,-1,650,428,0,0
-567,596,0,0,0,0,0,0,0,0,0,-1,657,428,0,0
-560,596,0,0,0,0,0,0,0,0,0,-1,664,428,0,0
-553,596,0,0,0,0,0,0,0,0,0,-1,671,428,0,0
-546,596,0,0,0,0,0,0,0,0,0,-1,678,428,0,0
-539,596,0,0,0,0,0,0,0,0,0,-1,685,428,0,0
-532,596,0,0,0,0,0,0,0,0,0,-1,692,428,0,0
-525,596,0,0,0,0,0,0,0,0,0,-1,699,428,0,0
-518,596,0,0,0,0,0,0,0,0,0,-1,706,428,0,0
-511,596,0,0,0,0,0,0,0,0,0,-1,713,428,0,0
-504,596,0,0,0,0,0,0,0,0,0,-1,720,428,0,0
-497,596,0,0,0,0,0,0,0,0,0,-1,727,428,0,0
-490,596,0,0,0,0,0,0,0,0,0,-1,734,428,0,0
-483,596,0,0,0,0,0,0,0,0,0,-1,741,428,0,0
-476,596,0,0,0,0,0,0,0,0,0,-1,748,428,0,0
-469,596,0,0,0,0,0,0,0,0,0,-1,755,428,0,0
-462,596,0,0,0,0,0,0,0,0,0,-1,762,428,0,0
-455,596,0,0,0,0,0,0,0,0,0,-1,769,428,0,0
-448,596,0,0,0,0,0,0,0,0,0,-1,776,428,0,0
-441,596,0,0,0,0,0,0,0,0,0,-1,783,428,0,0
-434,596,0,0,0,0,0,0,0,0,0,-1,790,428,0,0
-427,596,0,0,0,0,0,0,0,0,0,-1,797,428,0,0
-420,596,0,0,0,0,0,0,0,0,0,-1,804,428,0,0
-413,596,0,0,0,0,0,0,0,0,0,-1,811,428,0,0
-406,596,0,0,0,0,0,0,0,0,0,-1,818,428,0,0
-399,596,0,0,0,0,0,0,0,0,0,-1,825,428,0,0
-392,596,0,0,0,0,0,0,0,0,0,-1,832,428,0,0
-385,596,0,0,0,0,0,0,0,0,0,-1,839,428,0,0
-378,596,0,0,0,0,0,0,0,0,0,-1,846,428,0,0
-371,596,0,0,0,0,0,0,0,0,0,-1,853,428,0,0
-364,596,0,0,0,0,0,0,0,0,0,-1,860,428,0,0
-357,596,0,0,0,0,0,0,0,0,0,-1,867,428,0,0
-350,596,0,0,0,0,0,0,0,0,0,-1,874,428,0,0
-343,596,0,0,0,0,0,0,0,0,0,-1,881,428,0,0
-336,596,-2.27789,-15.8111,0,0,0,0,0,0,0,-1,888,428,-2.27789,15.8111
-329,596,2.21649,-11.3338,0,0,0,0,0,0,0,-1,895,428,2.21646,11.3338
-322,596,4.72357,-12.8769,0,0,0,0,0,0,0,-1,902,428,4.72354,12.8769
-315,596,4.39758,-13.4543,0,0,0,0,0,0,0,-1,909,428,4.3976,13.4543
-308,596,3.96692,-13.1268,0,0,0,0,0,0,0,-1,916,428,3.9669,13.1268
-301,596,2.84802,-12.3628,0,0,0,0,0,0,0,-1,923,428,2.84802,12.3628
-294,596,1.46753,-13.1759,0,0,0,0,0,0,0,-1,930,428,1.46751,13.1759
-287,596,1.6792,-13.5167,0,0,0,0,0,0,0,-1,937,428,1.67919,13.5167
-280,596,2.41742,-13.5654,0,0,0,0,0,0,0,-1,944,428,2.41741,13.5654
-273,596,2.42438,-13.8941,0,0,0,0,0,0,0,-1,951,428,2.42435,13.8941
-266,596,2.4541,-14.1046,-0.00211148,0.00904886,-0.00788017,0.0131245,-0.00618716,-1.09348,0.0113869,0.038367,958,428,2.45412,14.1046
-259,596,2.47205,-14.5099,-0.00278812,0.0078334,-0.00577679,0.0103696,-0.00532437,-1.15709,0.00921569,0.0335286,965,428,2.47207,14.5099
-252,596,2.58063,-14.9675,-0.00320326,0.00684193,-0.0041341,0.0083245,-0.00468583,-1.22646,0.00760882,0.0174887,972,428,2.58063,14.9675
-245,596,2.59668,-15.2547,-0.00249771,0.00591928,-0.00289546,0.00681912,-0.00339755,-1.26948,0.00600785,0.0136792,979,428,2.5967,15.2547
-238,596,2.59229,-15.4875,-0.00251841,0.00535876,-0.00196863,0.00582335,-0.002983,-1.33904,0.00517175,0.0122552,986,428,2.5923,15.4876
-231,596,2.54749,-15.7642,-0.0028573,0.00471209,-0.00150476,0.00500025,-0.00314547,-1.38158,0.0047434,0.0128427,993,428,2.54749,15.7642
-224,596,2.51727,-16.0373,-0.00279551,0.00393541,-0.00148498,0.00424847,-0.00310856,-1.36302,0.00426455,0.0133714,1000,428,2.5173,16.0373
-217,596,2.5235,-16.2833,-0.00215845,0.00310625,-0.00141374,0.00346186,-0.00251406,-1.32437,0.00346464,0.0145071,1007,428,2.52351,16.2833
-210,596,2.54266,-16.5431,-0.00162761,0.00204324,-0.00124332,0.00242471,-0.00200908,-1.2731,0.0025636,0.0125795,1014,428,2.54267,16.543
-203,596,2.5235,-16.7817,-0.00110708,0.00121959,-0.00111432,0.00166717,-0.00155467,-1.18885,0.00186051,0.0153309,1021,428,2.52349,16.7817
-196,596,2.54138,-17.0105,-0.000654892,0.000607002,-0.0010363,0.00118932,-0.00123721,-1.05885,0.00140105,0.0147919,1028,428,2.5414,17.0105
-189,596,2.51257,-17.206,-0.000156493,0.000167133,-0.00116173,0.00117827,-0.00116763,-0.854596,0.00135441,0.0118268,1035,428,2.51255,17.206
-182,596,2.49304,-17.4106,0.000294055,-0.000132029,-0.000991532,0.00109517,-0.000933149,-0.679576,0.0011723,0.0104185,1042,428,2.49304,17.4106
-175,596,2.49829,-17.6213,0.000542493,-0.000574817,-0.000792914,0.000953791,-0.000986115,-0.478508,0.00112006,0.0124639,1049,428,2.49824,17.6213
-168,596,2.50061,-17.8251,0.000725681,-0.00105634,-0.000681585,0.000956481,-0.00128714,-0.326503,0.00130003,0.0157229,1056,428,2.50057,17.8251
-161,596,2.50391,-18.044,0.000847234,-0.00136012,-0.000634799,0.00101677,-0.00152966,-0.26098,0.00148009,0.0150003,1063,428,2.50387,18.044
-154,596,2.48523,-18.2558,0.000977536,-0.00156824,-0.000556044,0.00109369,-0.00168439,-0.205927,0.00161596,0.012833,1070,428,2.48518,18.2558
-147,596,2.49792,-18.4389,0.00111088,-0.00176474,-0.00049735,0.00119447,-0.00184833,-0.166513,0.00177023,0.0130493,1077,428,2.49791,18.4389
-140,596,2.51563,-18.595,0.00131249,-0.00205469,-0.000515125,0.00138953,-0.00213173,-0.148462,0.002048,0.0131662,1084,428,2.51565,18.595
-133,596,2.50867,-18.781,0.00148826,-0.00221826,-0.000570964,0.00157422,-0.00230422,-0.14943,0.0022524,0.0132629,1091,428,2.50861,18.781
-126,596,2.51477,-18.944,0.00162047,-0.0025318,-0.000644804,0.00171829,-0.00262963,-0.150567,0.00252859,0.0111087,1098,428,2.51481,18.944
-119,596,2.55359,-19.1188,0.00179457,-0.00266443,-0.000830338,0.00194418,-0.00281404,-0.178259,0.00276241,0.0137537,1105,428,2.55363,19.1188
-112,596,2.56152,-19.2738,0.00198768,-0.0027369,-0.000999847,0.00219057,-0.00293978,-0.200195,0.00297252,0.0149851,1112,428,2.56148,19.2738
-105,596,2.55981,-19.4413,0.00219603,-0.00262751,-0.00122221,0.00248804,-0.00291952,-0.234524,0.00312537,0.0148207,1119,428,2.55976,19.4413
-98,596,2.57434,-19.5624,0.00250576,-0.0025285,-0.00144203,0.00288956,-0.0029123,-0.260122,0.00334971,0.00988905,1126,428,2.57438,19.5624
-91,596,2.60327,-19.7253,0.00308394,-0.00209677,-0.00177842,0.00363567,-0.00264851,-0.300823,0.00364306,0.0122674,1133,428,2.60327,19.7253
-84,596,2.69666,-20.0276,0.00358364,-0.00157624,-0.00184251,0.00417402,-0.00216662,-0.310086,0.00372142,0.0358858,1140,428,2.69666,20.0277
-77,596,2.76648,-20.3746,0,0,0,0,0,0,0,-1,1147,428,2.7665,20.3746
-70,596,2.77258,-20.6803,0,0,0,0,0,0,0,-1,1154,428,2.77255,20.6803
-63,596,1.95569,-12.2758,0,0,0,0,0,0,0,-1,1161,428,1.95563,12.2759
-56,596,1.60107,-10.5827,0,0,0,0,0,0,0,-1,1168,428,1.60108,10.5827
-49,596,1.59473,-10.0393,0,0,0,0,0,0,0,-1,1175,428,1.59472,10.0393
-42,596,1.99585,-6.6246,0,0,0,0,0,0,0,-1,1182,428,1.99586,6.62459
-35,596,2.5238,-20.41,0,0,0,0,0,0,0,-1,1189,428,2.5238,20.41
-28,596,2.67126,-20.5483,0,0,0,0,0,0,0,-1,1196,428,2.67127,20.5483
-21,596,2.65186,-20.4978,-0.0431832,-0.0540291,0.00995278,-0.0372719,-0.0599405,0.535951,0.0349473,0.0467386,1203,428,2.65182,20.4978
-14,596,2.85876,-20.7504,-0.0458205,-0.05631,0.00943221,-0.040273,-0.0618576,0.531662,0.0362527,0.0489075,1210,428,2.85874,20.7504
-7,596,2.89685,-20.9432,0,0,0,0,0,0,0,-1,1217,428,2.89685,20.9432
0,596,2.84143,-20.971,0,0,0,0,0,0,0,-1,1224,428,2.84147,20.971
7,596,3.39429,-20.4753,-0.0446509,-0.0544307,0.00218478,-0.0441851,-0.0548966,0.210093,0.0336012,0.0432087,1231,428,3.39427,20.4753
14,596,3.15002,-20.6163,-0.0433053,-0.0523609,-0.000594889,-0.0432664,-0.0523998,-0.0653191,0.0323218,0.0459976,1238,428,3.14998,20.6163
21,596,3.29578,-20.5754,-0.0415814,-0.049469,-0.0034909,-0.0402583,-0.0507921,-0.362277,0.0309535,0.0456977,1245,428,3.29578,20.5755
28,596,3.31677,-20.6137,-0.0401089,-0.0460829,-0.00596229,-0.0364272,-0.0497645,-0.553182,0.0297446,0.0436484,1252,428,3.31672,20.6137
35,596,3.45532,-20.7306,-0.0395992,-0.0427404,-0.00741802,-0.0335873,-0.0487523,-0.681077,0.0288092,0.044817,1259,428,3.4553,20.7306
42,596,3.42615,-21.0198,-0.0390865,-0.0392293,-0.00842517,-0.0307324,-0.0475834,-0.78116,0.0278592,0.046905,1266,428,3.42616,21.0198
49,596,3.55518,-21.1714,-0.0370195,-0.0361512,-0.0079034,-0.02867,-0.0445007,-0.812834,0.0260465,0.0443413,1273,428,3.55519,21.1714
56,596,3.48779,-20.7266,-0.0351584,-0.0328643,-0.00695193,-0.0269654,-0.0410573,-0.867161,0.0240897,0.0418348,1280,428,3.48782,20.7266
63,596,3.44617,-20.4865,-0.0339105,-0.0302961,-0.00485372,-0.026924,-0.0372826,-0.963617,0.0222221,0.044649,1287,428,3.44621,20.4865
70,596,3.39417,-20.577,-0.0326725,-0.0280958,-0.00209048,-0.0272847,-0.0334836,-1.20068,0.0205698,0.046386,1294,428,3.3942,20.577
77,596,3.71509,-20.8754,0,0,0,0,0,0,0,-1,1301,428,3.71514,20.8754
84,596,3.39612,-20.5099,0,0,0,0,0,0,0,-1,1308,428,3.39615,20.51
91,596,3.65991,-20.9657,0,0,0,0,0,0,0,-1,1315,428,3.65994,20.9657
98,596,4.03943,-20.5222,-0.0246591,-0.02571,0.00895867,-0.0162105,-0.0341586,0.756106,0.01973,0.0460881,1322,428,4.03937,20.5222
105,596,4.00757,-20.4153,-0.0229985,-0.0259596,0.0108724,-0.0135063,-0.0354518,0.717728,0.0206605,0.0456703,1329,428,4.00763,20.4153
112,596,4.00928,-20.3619,-0.0201288,-0.0255572,0.0111194,-0.0113971,-0.0342889,0.665691,0.0201641,0.042615,1336,428,4.00924,20.3619
119,596,3.85876,-20.3399,-0.0176127,-0.0259451,0.0112495,-0.00978271,-0.0337751,0.608057,0.0200671,0.0460328,1343,428,3.85876,20.3399
126,596,3.76855,-20.1798,-0.0157194,-0.0265154,0.0106262,-0.00919878,-0.0330361,0.550389,0.0196877,0.0473411,1350,428,3.76853,20.1799
133,596,3.61182,-20.1576,-0.0138061,-0.0265105,0.00901179,-0.00913276,-0.0311839,0.478402,0.0185118,0.0494213,1357,428,3.61177,20.1576
140,596,3.67786,-20.0054,0,0,0,0,0,0,0,-1,1364,428,3.67784,20.0054
147,596,3.75415,-19.9662,-0.0110936,-0.0250036,0.00390943,-0.0100701,-0.026027,0.256044,0.0151543,0.0405568,1371,428,3.75414,19.9662
154,596,3.69897,-19.9222,-0.0107896,-0.0235369,0.00106852,-0.0107007,-0.0236258,0.0830509,0.0136605,0.0441536,1378,428,3.69899,19.9222
161,596,4.13965,-19.9709,-0.0103127,-0.0222421,-0.00103984,-0.0102227,-0.0223321,-0.0862987,0.0129088,0.0467421,1385,428,4.13965,19.9708
168,596,4.08545,-19.9209,0,0,0,0,0,0,0,-1,1392,428,4.08544,19.9209
175,596,4.29346,-19.8048,0,0,0,0,0,0,0,-1,1399,428,4.2934,19.8048
182,596,4.37512,-19.8413,0,0,0,0,0,0,0,-1,1406,428,4.37512,19.8413
189,596,4.27954,-19.7149,0,0,0,0,0,0,0,-1,1413,428,4.27954,19.7149
196,596,4.20166,-19.3974,0,0,0,0,0,0,0,-1,1420,428,4.2017,19.3974
203,596,4.1084,-19.4465,0,0,0,0,0,0,0,-1,1427,428,4.10838,19.4465
210,596,4.09399,-19.4122,0,0,0,0,0,0,0,-1,1434,428,4.09401,19.4122
217,596,4.07959,-19.271,0.00267017,0.000879213,-0.00218339,0.00413458,-0.000585201,-0.590793,0.00297073,0.0367923,1441,428,4.0796,19.271
224,596,4.14172,-19.0611,0.00234273,0.00166204,-0.00176172,0.00379668,0.000208088,-0.689978,0.00246469,0.0167221,1448,428,4.14175,19.0611
231,596,4.21826,-18.8376,0.00211572,0.00235615,-0.00135346,0.00359472,0.000877142,-0.829693,0.00216418,0.0124614,1455,428,4.21826,18.8377
238,596,4.22827,-18.6687,0.00198834,0.00286562,-0.00101196,0.00352991,0.00132404,-0.989906,0.00205909,0.01367,1462,428,4.22827,18.6687
245,596,4.25305,-18.5052,0.0018501,0.00323489,-0.000765702,0.00357483,0.00151016,-1.15298,0.00207219,0.0123453,1469,428,4.25311,18.5052
252,596,4.28271,-18.3183,0.00165601,0.00341611,-0.000520988,0.00355876,0.00151336,-1.30354,0.00206229,0.00981122,1476,428,4.28271,18.3183
259,596,4.27283,-18.1182,0.00144213,0.00338621,-0.00028386,0.00342681,0.00140153,-1.42873,0.00198937,0.00802319,1483,428,4.27279,18.1182
266,596,4.25452,-17.9064,0.00127669,0.00329899,-7.423e-05,0.00330171,0.00127397,-1.53416,0.00192273,0.00928315,1490,428,4.25447,17.9064
273,596,4.26672,-17.6983,0.00111953,0.00320262,9.72873e-05,0.00320715,0.00111499,1.52423,0.00188008,0.0118495,1497,428,4.26667,17.6983
280,596,4.28552,-17.4868,0.00094978,0.00301131,0.000305758,0.00305571,0.000905387,1.42661,0.00181236,0.0129137,1504,428,4.28546,17.4868
287,596,4.2981,-17.2585,0.00087848,0.00303281,0.000575908,0.0031771,0.00073419,1.32531,0.0019207,0.011543,1511,428,4.2981,17.2586
294,596,4.27576,-17.0286,0.000820502,0.00294103,0.000786016,0.00320061,0.000560925,1.25183,0.00197352,0.00910256,1518,428,4.27577,17.0286
301,596,4.27234,-16.7901,0.000697965,0.00283423,0.000931335,0.00318324,0.000348955,1.21225,0.00201593,0.0102739,1525,428,4.2723,16.7901
308,596,4.29236,-16.558,0.000586934,0.00286057,0.00107513,0.00328844,0.000159061,1.19204,0.00214124,0.0160915,1532,428,4.2924,16.558
315,596,4.27307,-16.3027,0.000454106,0.0029666,0.00120962,0.0034543,-3.35872e-05,1.18755,0.00231414,0.0158112,1539,428,4.27302,16.3027
322,596,4.28613,-16.0305,0.000253978,0.00307221,0.00134803,0.00361317,-0.000286981,1.18917,0.00250992,0.0123116,1546,428,4.28612,16.0304
329,596,4.27429,-15.7965,2.58503e-05,0.00316089,0.00151696,0.00377472,-0.000587981,1.18629,0.00273363,0.00896309,1553,428,4.27427,15.7965
336,596,4.2439,-15.5755,-0.000238483,0.00326358,0.00169124,0.00394697,-0.000921875,1.18678,0.00298641,0.00850882,1560,428,4.24385,15.5755
343,596,4.25366,-15.3177,-0.000563776,0.00330833,0.00179859,0.00401485,-0.0012703,1.19649,0.00318558,0.0116668,1567,428,4.25371,15.3177
350,596,4.26794,-15.0463,-0.000831487,0.00362848,0.00205396,0.00443026,-0.00163327,1.19863,0.00362281,0.0119937,1574,428,4.26795,15.0463
357,596,4.23706,-14.7654,-0.00119652,0.00386699,0.00231102,0.00476315,-0.00209268,1.20087,0.00405707,0.00931854,1581,428,4.23702,14.7654
364,596,4.20276,-14.4512,-0.00167446,0.00404624,0.00242685,0.00493705,-0.00256527,1.219,0.00440303,0.0117498,1588,428,4.20276,14.4512
371,596,4.19946,-14.1842,-0.00198762,0.00421803,0.00260273,0.0051651,-0.00293469,1.22181,0.00473515,0.0147446,1595,428,4.19944,14.1842
378,596,4.17932,-13.9454,-0.00234202,0.00485358,0.00294466,0.00590499,-0.00339343,1.22785,0.00543333,0.0192003,1602,428,4.17933,13.9454
385,596,4.13,-13.5981,-0.00324588,0.0052951,0.00269265,0.00607312,-0.0040239,1.28952,0.0058694,0.0279547,1609,428,4.12999,13.5981
392,596,4.04517,-13.2551,-0.00398814,0.00571276,0.00246073,0.00630125,-0.00457663,1.33605,0.00630661,0.039232,1616,428,4.04511,13.2551
399,596,4.03259,-12.6702,0,0,0,0,0,0,0,-1,1623,428,4.03254,12.6702
406,596,3.60034,-10.1525,0,0,0,0,0,0,0,-1,1630,428,3.60028,10.1525
413,596,3.39124,-2.63528,0,0,0,0,0,0,0,-1,1637,428,3.39122,2.6353
420,596,2.6344,-3.06308,0,0,0,0,0,0,0,-1,1644,428,2.63439,3.06308
427,596,2.99329,-1.90512,0,0,0,0,0,0,0,-1,1651,428,2.99327,1.90512
434,596,3.80896,-0.253998,0,0,0,0,0,0,0,-1,1658,428,3.80902,0.254004
441,596,3.86401,-0.131622,0,0,0,0,0,0,0,-1,1665,428,3.86406,0.131613
448,596,1.0769,0.0083313,0,0,0,0,0,0,0,-1,1672,428,1.07684,-0.00832231
455,596,2.00769,-1.43329,0,0,0,0,0,0,0,-1,1679,428,2.00765,1.4333
462,596,0,0,0,0,0,0,0,0,0,-1,1686,428,0,0
469,596,0,0,0,0,0,0,0,0,0,-1,1693,428,0,0
476,596,0,0,0,0,0,0,0,0,0,-1,1700,428,0,0
483,596,0,0,0,0,0,0,0,0,0,-1,1707,428,0,0
490,596,0,0,0,0,0,0,0,0,0,-1,1714,428,0,0
497,596,0,0,0,0,0,0,0,0,0,-1,1721,428,0,0
504,596,0,0,0,0,0,0,0,0,0,-1,1728,428,0,0
511,596,0,0,0,0,0,0,0,0,0,-1,1735,428,0,0
518,596,0,0,0,0,0,0,0,0,0,-1,1742,428,0,0
525,596,0,0,0,0,0,0,0,0,0,-1,1749,428,0,0
532,596,0,0,0,0,0,0,0,0,0,-1,1756,428,0,0
539,596,0,0,0,0,0,0,0,0,0,-1,1763,428,0,0
546,596,0,0,0,0,0,0,0,0,0,-1,1770,428,0,0
553,596,0,0,0,0,0,0,0,0,0,-1,1777,428,0,0
560,596,0,0,0,0,0,0,0,0,0,-1,1784,428,0,0
567,596,0,0,0,0,0,0,0,0,0,-1,1791,428,0,0
574,596,0,0,0,0,0,0,0,0,0,-1,1798,428,0,0
581,596,0,0,0,0,0,0,0,0,0,-1,1805,428,0,0
588,596,0,0,0,0,0,0,0,0,0,-1,1812,428,0,0
595,596,0,0,0,0,0,0,0,0,0,-1,1819,428,0,0
602,596,0,0,0,0,0,0,0,0,0,-1,1826,428,0,0
609,596,0,0,0,0,0,0,0,0,0,-1,1833,428,0,0
616,596,0,0,0,0,0,0,0,0,0,-1,1840,428,0,0
623,596,0,0,0,0,0,0,0,0,0,-1,1847,428,0,0
630,596,0,0,0,0,0,0,0,0,0,-1,1854,428,0,0
637,596,0,0,0,0,0,0,0,0,0,-1,1861,428,0,0
644,596,0,0,0,0,0,0,0,0,0,-1,1868,428,0,0
651,596,0,0,0,0,0,0,0,0,0,-1,1875,428,0,0
658,596,0,0,0,0,0,0,0,0,0,-1,1882,428,0,0
665,596,0,0,0,0,0,0,0,0,0,-1,1889,428,0,0
672,596,0,0,0,0,0,0,0,0,0,-1,1896,428,0,0
679,596,0,0,0,0,0,0,0,0,0,-1,1903,428,0,0
686,596,0,0,0,0,0,0,0,0,0,-1,1910,428,0,0
693,596,0,0,0,0,0,0,0,0,0,-1,1917,428,0,0
700,596,0,0,0,0,0,0,0,0,0,-1,1924,428,0,0
707,596,0,0,0,0,0,0,0,0,0,-1,1931,428,0,0
714,596,0,0,0,0,0,0,0,0,0,-1,1938,428,0,0
721,596,0,0,0,0,0,0,0,0,0,-1,1945,428,0,0
728,596,0,0,0,0,0,0,0,0,0,-1,1952,428,0,0
735,596,0,0,0,0,0,0,0,0,0,-1,1959,428,0,0
742,596,0,0,0,0,0,0,0,0,0,-1,1966,428,0,0
749,596,0,0,0,0,0,0,0,0,0,-1,1973,428,0,0
756,596,0,0,0,0,0,0,0,0,0,-1,1980,428,0,0
763,596,0,0,0,0,0,0,0,0,0,-1,1987,428,0,0
770,596,0,0,0,0,0,0,0,0,0,-1,1994,428,0,0
777,596,0,0,0,0,0,0,0,0,0,-1,2001,428,0,0
784,596,0,0,0,0,0,0,0,0,0,-1,2008,428,0,0
791,596,0,0,0,0,0,0,0,0,0,-1,2015,428,0,0
798,596,0,0,0,0,0,0,0,0,0,-1,2022,428,0,0
805,596,0,0,0,0,0,0,0,0,0,-1,2029,428,0,0
812,596,0,0,0,0,0,0,0,0,0,-1,2036,428,0,0
-700,589,0,0,0,0,0,0,0,0,0,-1,524,435,0,0
-693,589,0,0,0,0,0,0,0,0,0,-1,531,435,0,0
-686,589,0,0,0,0,0,0,0,0,0,-1,538,435,0,0
-679,589,0,0,0,0,0,0,0,0,0,-1,545,435,0,0
-672,589,0,0,0,0,0,0,0,0,0,-1,552,435,0,0
-665,589,0,0,0,0,0,0,0,0,0,-1,559,435,0,0
-658,589,0,0,0,0,0,0,0,0,0,-1,566,435,0,0
-651,589,0,0,0,0,0,0,0,0,0,-1,573,435,0,0
-644,589,0,0,0,0,0,0,0,0,0,-1,580,435,0,0
-637,589,0,0,0,0,0,0,0,0,0,-1,587,435,0,0
-630,589,0,0,0,0,0,0,0,0,0,-1,594,435,0,0
-623,589,0,0,0,0,0,0,0,0,0,-1,601,435,0,0
-616,589,0,0,0,0,0,0,0,0,0,-1,608,435,0,0
-609,589,0,0,0,0,0,0,0,0,0,-1,615,435,0,0
-602,589,0,0,0,0,0,0,0,0,0,-1,622,435,0,0
-595,589,0,0,0,0,0,0,0,0,0,-1,629,435,0,0
-588,589,0,0,0,0,0,0,0,0,0,-1,636,435,0,0
-581,589,0,0,0,0,0,0,0,0,0,-1,643,435,0,0
-574,589,0,0,0,0,0,0,0,0,0,-1,650,435,0,0
-567,589,0,0,0,0,0,0,0,0,0,-1,657,435,0,0
-560,589,0,0,0,0,0,0,0,0,0,-1,664,435,0,0
-553,589,0,0,0,0,0,0,0,0,0,-1,671,435,0,0
-546,589,0,0,0,0,0,0,0,0,0,-1,678,435,0,0
-539,589,0,0,0,0,0,0,0,0,0,-1,685,435,0,0
-532,589,0,0,0,0,0,0,0,0,0,-1,692,435,0,0
-525,589,0,0,0,0,0,0,0,0,0,-1,699,435,0,0
-518,589,0,0,0,0,0,0,0,0,0,-1,706,435,0,0
-511,589,0,0,0,0,0,0,0,0,0,-1,713,435,0,0
-504,589,0,0,0,0,0,0,0,0,0,-1,720,435,0,0
-497,589,0,0,0,0,0,0,0,0,0,-1,727,435,0,0
-490,589,0,0,0,0,0,0,0,0,0,-1,734,435,0,0
-483,589,0,0,0,0,0,0,0,0,0,-1,741,435,0,0
-476,589,0,0,0,0,0,0,0,0,0,-1,748,435,0,0
-469,589,0,0,0,0,0,0,0,0,0,-1,755,435,0,0
-462,589,0,0,0,0,0,0,0,0,0,-1,762,435,0,0
-455,589,0,0,0,0,0,0,0,0,0,-1,769,435,0,0
-448,589,0,0,0,0,0,0,0,0,0,-1,776,435,0,0
-441,589,0,0,0,0,0,0,0,0,0,-1,783,435,0,0
-434,589,0,0,0,0,0,0,0,0,0,-1,790,435,0,0
-427,589,0,0,0,0,0,0,0,0,0,-1,797,435,0,0
-420,589,0,0,0,0,0,0,0,0,0,-1,804,435,0,0
-413,589,0,0,0,0,0,0,0,0,0,-1,811,435,0,0
-406,589,0,0,0,0,0,0,0,0,0,-1,818,435,0,0
-399,589,0,0,0,0,0,0,0,0,0,-1,825,435,0,0
-392,589,0,0,0,0,0,0,0,0,0,-1,832,435,0,0
-385,589,0,0,0,0,0,0,0,0,0,-1,839,435,0,0
-378,589,0,0,0,0,0,0,0,0,0,-1,846,435,0,0
-371,589,0,0,0,0,0,0,0,0,0,-1,853,435,0,0
-364,589,0,0,0,0,0,0,0,0,0,-1,860,435,0,0
-357,589,0,0,0,0,0,0,0,0,0,-1,867,435,0,0
-350,589,-5.74323,-18.0391,0,0,0,0,0,0,0,-1,874,435,-5.74325,18.0391
-343,589,-4.7887,-16.4395,0,0,0,0,0,0,0,-1,881,435,-4.78868,16.4395
-336,589,-3.74249,-14.758,0,0,0,0,0,0,0,-1,888,435,-3.74249,14.758
-329,589,-3.14648,-14.0188,0,0,0,0,0,0,0,-1,895,435,-3.14648,14.0188
-322,589,2.21777,-12.7306,0,0,0,0,0,0,0,-1,902,435,2.21778,12.7306
-315,589,1.90454,-11.9529,0,0,0,0,0,0,0,-1,909,435,1.90454,11.9528
-308,589,2.80377,-12.8659,0,0,0,0,0,0,0,-1,916,435,2.80374,12.8659
-301,589,2.37073,-12.6698,0.000610398,0.0122053,-0.0208043,0.0280048,-0.0151892,-0.921283,0.0253013,0.0454038,923,435,2.3707,12.6698
-294,589,1.63953,-13.2059,0.000905013,0.0112126,-0.0170464,0.0238673,-0.0117497,-0.932198,0.0209564,0.0441332,930,435,1.63951,13.2059
-287,589,1.80548,-13.5182,0.000529559,0.00979184,-0.0140206,0.0199263,-0.00960491,-0.944912,0.0173935,0.0416865,937,435,1.80547,13.5183
-280,589,2.45074,-13.773,0.000335529,0.00878411,-0.0112967,0.0166205,-0.00750089,-0.964318,0.0142544,0.0344235,944,435,2.45074,13.773
-273,589,2.38428,-14.1456,0,0,0,0,0,0,0,-1,951,435,2.38427,14.1456
-266,589,2.38147,-14.4245,-0.000703727,0.00728825,-0.0068018,0.011181,-0.00459649,-1.05098,0.00936984,0.0178044,958,435,2.38145,14.4245
-259,589,2.33807,-14.6838,-0.00134436,0.00635803,-0.00506384,0.00886877,-0.00385509,-1.1105,0.00753383,0.0148825,965,435,2.33807,14.6838
-252,589,2.36212,-15.0011,-0.00176859,0.00549364,-0.00368747,0.0070377,-0.00331265,-1.17425,0.00610342,0.00993709,972,435,2.36214,15.0011
-245,589,2.37476,-15.2566,-0.00128638,0.00454812,-0.00260132,0.00553948,-0.00227774,-1.20669,0.00464238,0.00999708,979,435,2.37473,15.2566
-238,589,2.3573,-15.4948,-0.00139029,0.0038371,-0.00168071,0.00433085,-0.00188403,-1.28506,0.00367969,0.0142237,986,435,2.35727,15.4948
-231,589,2.31299,-15.7636,-0.00178327,0.00301863,-0.00111543,0.00326509,-0.00202972,-1.35334,0.00308457,0.0148529,993,435,2.313,15.7636
-224,589,2.29089,-16.0399,-0.00183711,0.00210398,-0.000928799,0.0023119,-0.00204503,-1.35057,0.00251705,0.0146792,1000,435,2.29089,16.0399
-217,589,2.30859,-16.2954,-0.00133771,0.00119,-0.000707761,0.00137468,-0.00152239,-1.31555,0.00167335,0.0160272,1007,435,2.30858,16.2954
-210,589,2.30072,-16.5415,-0.000873163,0.000152725,-0.000431614,0.000310156,-0.00103059,-1.22104,0.000810477,0.0149568,1014,435,2.30069,16.5415
-203,589,2.27673,-16.7549,-0.000389735,-0.000551606,-0.000250182,-0.000207723,-0.000733618,-0.628958,0.000436631,0.0108133,1021,435,2.27673,16.7549
-196,589,2.26428,-16.9693,1.03411e-05,-0.00100579,-0.000141414,2.96546e-05,-0.0010251,-0.135734,0.000693496,0.01291,1028,435,2.26426,16.9693
-189,589,2.25525,-17.2364,0.000438431,-0.00126986,-0.000218134,0.000465845,-0.00129728,-0.125019,0.00105499,0.0160409,1035,435,2.25527,17.2364
-182,589,2.27234,-17.4019,0.000868432,-0.0014045,-0.000110335,0.000873775,-0.00140985,-0.0483915,0.0013305,0.0112355,1042,435,2.27235,17.4019
-175,589,2.2948,-17.5961,0.00117457,-0.00166879,-2.24319e-05,0.00117475,-0.00166897,-0.00788855,0.00165007,0.0146416,1049,435,2.2948,17.5961
-168,589,2.31055,-17.8249,0.00139431,-0.00200048,-6.52772e-05,0.00139557,-0.00200174,-0.0192192,0.00197181,0.0132192,1056,435,2.31054,17.8249
-161,589,2.30615,-18.038,0.00150988,-0.00216367,-0.000185436,0.00151922,-0.00217301,-0.0503081,0.00214282,0.0128735,1063,435,2.30615,18.038
-154,589,2.29639,-18.2228,0.00164898,-0.0023256,-0.000268863,0.00166708,-0.00234371,-0.0672375,0.00232659,0.0130411,1070,435,2.29637,18.2228
-147,589,2.31616,-18.4079,0.00178271,-0.00252418,-0.000343046,0.00180986,-0.00255133,-0.0789869,0.00253004,0.0124445,1077,435,2.31622,18.4079
-140,589,2.33569,-18.5826,0.00195606,-0.00287372,-0.000482338,0.00200376,-0.00292142,-0.0985704,0.00285996,0.0130153,1084,435,2.33565,18.5826
-133,589,2.34229,-18.765,0.00209172,-0.00315357,-0.000665693,0.00217489,-0.00323673,-0.124288,0.00314439,0.0128821,1091,435,2.3423,18.765
-126,589,2.34656,-18.9469,0.00218867,-0.0036822,-0.000819075,0.00230081,-0.00379433,-0.136055,0.00355407,0.01067,1098,435,2.34651,18.9469
-119,589,2.37476,-19.1069,0.00231114,-0.004059,-0.00104982,0.0024797,-0.00422756,-0.159197,0.00391602,0.0166708,1105,435,2.37476,19.1069
-112,589,2.38391,-19.2729,0.00248205,-0.00427942,-0.00125602,0.00270783,-0.0045052,-0.177859,0.00420732,0.0174412,1112,435,2.38387,19.2729
-105,589,2.35913,-19.4294,0.00266778,-0.00418034,-0.00148396,0.00297552,-0.00448808,-0.204479,0.00433851,0.0170955,1119,435,2.35912,19.4294
-98,589,2.40869,-19.5632,0.00296078,-0.00406835,-0.00165497,0.00333094,-0.00443851,-0.220045,0.00450086,0.0184034,1126,435,2.40872,19.5632
-91,589,2.52332,-19.6921,0.00361234,-0.00346646,-0.00205194,0.00416412,-0.00401825,-0.262696,0.00472434,0.0375727,1133,435,2.52336,19.6921
-84,589,2.62634,-20.1883,0,0,0,0,0,0,0,-1,1140,435,2.62637,20.1883
-77,589,2.18152,-14.8023,0,0,0,0,0,0,0,-1,1147,435,2.18155,14.8023
-70,589,1.48267,-9.90961,0,0,0,0,0,0,0,-1,1154,435,1.48264,9.9096
-63,589,0.880127,-5.50586,0,0,0,0,0,0,0,-1,1161,435,0.880186,5.50587
-56,589,-2.78052,-7.28082,0,0,0,0,0,0,0,-1,1168,435,-2.78053,7.28082
-49,589,-0.525757,-2.76703,0,0,0,0,0,0,0,-1,1175,435,-0.525771,2.76702
-42,589,-2.7738,-2.87921,0,0,0,0,0,0,0,-1,1182,435,-2.77383,2.87922
-35,589,-2.55225,-3.27551,0,0,0,0,0,0,0,-1,1189,435,-2.55223,3.27552
-28,589,-0.0632324,-3.42938,0,0,0,0,0,0,0,-1,1196,435,-0.063241,3.42938
-21,589,2.42896,-20.2582,0,0,0,0,0,0,0,-1,1203,435,2.42898,20.2582
-14,589,2.76013,-20.7039,0,0,0,0,0,0,0,-1,1210,435,2.76017,20.7039
-7,589,4.18213,-20.5737,0,0,0,0,0,0,0,-1,1217,435,4.18208,20.5737
0,589,4.01392,-20.286,0,0,0,0,0,0,0,-1,1224,435,4.01392,20.286
7,589,3.94812,-20.0798,-0.0599799,-0.0704642,0.00525315,-0.0578007,-0.0726434,0.393221,0.0443178,0.0443199,1231,435,3.94812,20.0798
14,589,4.05542,-19.7872,-0.0582424,-0.0677358,0.00168383,-0.0579526,-0.0680256,0.170445,0.0423935,0.0454217,1238,435,4.05536,19.7872
21,589,3.34521,-20.3778,-0.0560479,-0.0639453,-0.00206037,-0.0555427,-0.0644505,-0.240462,0.040327,0.0460054,1245,435,3.34524,20.3778
28,589,3.24683,-20.5528,-0.054221,-0.0595637,-0.00526134,-0.0509917,-0.062793,-0.55049,0.0385354,0.046948,1252,435,3.24686,20.5528
35,589,3.53271,-20.6687,0,0,0,0,0,0,0,-1,1259,435,3.53273,20.6687
42,589,3.50427,-21.1216,-0.0530602,-0.0506261,-0.00857041,-0.0431867,-0.0604995,-0.855929,0.0359784,0.0479956,1266,435,3.50426,21.1216
49,589,3.73865,-21.2534,-0.0507732,-0.0466225,-0.00810187,-0.0403344,-0.0570613,-0.910781,0.0338711,0.0478471,1273,435,3.73862,21.2534
56,589,3.59741,-20.6135,0,0,0,0,0,0,0,-1,1280,435,3.59739,20.6135
63,589,3.42737,-20.9957,-0.0472106,-0.038716,-0.00449629,-0.0367781,-0.0491484,-1.16386,0.0295192,0.0460058,1287,435,3.4274,20.9957
70,589,3.4447,-20.4387,-0.0457422,-0.0356012,-0.00106111,-0.0354913,-0.0458521,-1.46765,0.0277665,0.0446246,1294,435,3.44467,20.4387
77,589,3.61487,-20.2221,-0.0432804,-0.0336109,0.00304586,-0.0327314,-0.0441599,1.28971,0.0264661,0.0410901,1301,435,3.61489,20.2221
84,589,3.3252,-20.2521,-0.0405348,-0.0320884,0.00661757,-0.0284613,-0.0441619,1.06941,0.0258493,0.0398061,1308,435,3.32525,20.2521
91,589,2.67395,-19.7704,0,0,0,0,0,0,0,-1,1315,435,2.67401,19.7703
98,589,3.93445,-20.7182,-0.0344192,-0.0309003,0.0121253,-0.0204075,-0.0449121,0.857447,0.0259659,0.0458016,1322,435,3.9345,20.7182
105,589,3.82776,-20.4579,-0.0317936,-0.0306615,0.0139802,-0.0172359,-0.0452193,0.805631,0.026352,0.0460305,1329,435,3.82779,20.4579
112,589,4.06946,-20.1681,0,0,0,0,0,0,0,-1,1336,435,4.06944,20.1681
119,589,3.89441,-20.0926,0,0,0,0,0,0,0,-1,1343,435,3.89445,20.0926
126,589,3.70837,-19.5501,-0.0211441,-0.0307936,0.0123274,-0.0127309,-0.0392068,0.598871,0.0230951,0.0468901,1350,435,3.70835,19.5501
133,589,3.35791,-19.6044,-0.0183659,-0.030684,0.00955707,-0.0131552,-0.0358947,0.499167,0.0209686,0.0487274,1357,435,3.35793,19.6044
140,589,2.93591,-19.6731,-0.0161105,-0.0299786,0.00573505,-0.0140461,-0.032043,0.34552,0.0185468,0.0467134,1364,435,2.93595,19.6731
147,589,2.36768,-19.5341,-0.014913,-0.0288221,0.00164786,-0.0147204,-0.0290147,0.116328,0.0167522,0.0443102,1371,435,2.36764,19.5341
154,589,2.33398,-19.1336,-0.0141521,-0.0270835,-0.00244559,-0.0137051,-0.0275305,-0.180805,0.0158948,0.0417565,1378,435,2.33395,19.1336
161,589,4.4198,-19.758,0,0,0,0,0,0,0,-1,1385,435,4.41979,19.758
168,589,5.3949,-19.3768,0,0,0,0,0,0,0,-1,1392,435,5.39493,19.3768
175,589,8.66992,-7.65527,0,0,0,0,0,0,0,-1,1399,435,8.66994,7.65528
182,589,3.8136,-2.45389,0,0,0,0,0,0,0,-1,1406,435,3.81363,2.4539
189,589,3.69983,-3.68149,0,0,0,0,0,0,0,-1,1413,435,3.69987,3.68147
196,589,3.31055,-5.31677,0,0,0,0,0,0,0,-1,1420,435,3.31059,5.31678
203,589,2.72559,-8.84338,0,0,0,0,0,0,0,-1,1427,435,2.72558,8.84338
210,589,3.62378,-14.4032,0,0,0,0,0,0,0,-1,1434,435,3.62378,14.4032
217,589,4.23303,-19.4121,0,0,0,0,0,0,0,-1,1441,435,4.23297,19.4121
224,589,4.34753,-19.123,0.00289101,0.00240476,-0.00262756,0.00528667,9.10275e-06,-0.739265,0.00352141,0.0432997,1448,435,4.34758,19.123
231,589,4.40332,-18.9074,0.0026396,0.00326784,-0.00213841,0.00511508,0.000792363,-0.858324,0.00317902,0.0219646,1455,435,4.40326,18.9074
238,589,4.41113,-18.7146,0.00249606,0.00380322,-0.00174285,0.00501102,0.00128827,-0.964786,0.00300477,0.0228225,1462,435,4.41118,18.7146
245,589,4.42798,-18.4569,0.00233312,0.00410243,-0.00145619,0.00492163,0.00151392,-1.05836,0.00291078,0.0199134,1469,435,4.42798,18.4569
252,589,4.46692,-18.2753,0.00207415,0.00407593,-0.00117556,0.00461897,0.00153111,-1.13806,0.00271678,0.0131872,1476,435,4.46693,18.2753
259,589,4.479,-18.1127,0.00179049,0.00373169,-0.00094167,0.00411342,0.00140876,-1.18566,0.00241385,0.00913599,1483,435,4.47904,18.1127
266,589,4.47522,-17.9084,0.00160113,0.00331926,-0.000743002,0.003596,0.00132439,-1.21426,0.00210002,0.00907827,1490,435,4.47517,17.9084
273,589,4.48706,-17.7032,0.00143508,0.00297904,-0.000541656,0.00315011,0.00126401,-1.26488,0.0018305,0.011747,1497,435,4.4871,17.7032
280,589,4.49915,-17.4906,0.00121155,0.002505,-0.000341394,0.00258958,0.00112698,-1.32794,0.00149927,0.0133048,1504,435,4.4992,17.4906
287,589,4.51355,-17.2882,0.00112553,0.0023766,-6.70268e-05,0.00238018,0.00112195,-1.51742,0.00137495,0.0117535,1511,435,4.5135,17.2882
294,589,4.49731,-17.0392,0.00106187,0.00208124,0.000131608,0.00209796,0.00104515,1.44445,0.00121126,0.0103431,1518,435,4.49733,17.0392
301,589,4.50244,-16.7849,0.000923702,0.00180721,0.000256548,0.0018763,0.00085461,1.30772,0.00108471,0.0110804,1525,435,4.50245,16.7849
308,589,4.51855,-16.546,0.000781854,0.00169448,0.000360476,0.00181968,0.000656648,1.2365,0.00106407,0.0110092,1532,435,4.51856,16.546
315,589,4.52173,-16.3123,0.000646895,0.00171834,0.000464099,0.00189141,0.000473825,1.21385,0.00113641,0.0110255,1539,435,4.52168,16.3123
322,589,4.54858,-16.0629,0.00044951,0.00180658,0.000591268,0.00202805,0.00022804,1.21241,0.00128279,0.0112904,1546,435,4.54858,16.0629
329,589,4.53638,-15.8201,0.000235514,0.00192244,0.00077186,0.0022223,-6.43508e-05,1.20025,0.00150344,0.00959316,1553,435,4.53634,15.8201
336,589,4.51978,-15.582,1.116e-05,0.00206423,0.000974429,0.00245307,-0.000377679,1.19112,0.00177472,0.00905314,1560,435,4.51979,15.582
343,589,4.51147,-15.3279,-0.000259903,0.00218858,0.00113183,0.00263162,-0.00070294,1.1977,0.00202971,0.0112442,1567,435,4.51146,15.3279
350,589,4.49524,-15.0494,-0.000478085,0.00254067,0.00140849,0.00309577,-0.00103319,1.19538,0.00248102,0.0172338,1574,435,4.49524,15.0494
357,589,4.4856,-14.739,-0.000756865,0.00285194,0.00169212,0.00352123,-0.00142615,1.19415,0.0029405,0.0131822,1581,435,4.48556,14.739
364,589,4.49402,-14.4648,-0.00110993,0.00314998,0.00187813,0.00385975,-0.00181971,1.20947,0.00334881,0.0103517,1588,435,4.49406,14.4648
371,589,4.47961,-14.2,-0.00136215,0.00344107,0.00209616,0.00422719,-0.00214828,1.212,0.00374554,0.0104423,1595,435,4.47961,14.2
378,589,4.47083,-13.9052,-0.00167616,0.00397123,0.00235268,0.00482291,-0.00252783,1.22347,0.00431235,0.0118619,1602,435,4.47077,13.9051
385,589,4.47583,-13.5977,-0.0023119,0.00431534,0.0021843,0.0049705,-0.00296707,1.27939,0.00463116,0.0143502,1609,435,4.47588,13.5977
392,589,4.45178,-13.2336,-0.00282047,0.00459537,0.00205266,0.00512562,-0.00335072,1.318,0.00492945,0.0182255,1616,435,4.45174,13.2336
399,589,4.41296,-12.8517,-0.0031875,0.00477964,0.00199318,0.00525046,-0.00365832,1.33883,0.00517079,0.0282278,1623,435,4.413,12.8516
406,589,4.45972,-12.5785,0,0,0,0,0,0,0,-1,1630,435,4.45976,12.5785
413,589,4.17944,-12.3866,0,0,0,0,0,0,0,-1,1637,435,4.17944,12.3866
420,589,2.79724,-5.79956,0,0,0,0,0,0,0,-1,1644,435,2.7973,5.79955
427,589,2.87976,-5.28177,0,0,0,0,0,0,0,-1,1651,435,2.87972,5.28177
434,589,2.52734,-2.73029,0,0,0,0,0,0,0,-1,1658,435,2.52736,2.73029
441,589,3.17639,-2.02435,0,0,0,0,0,0,0,-1,1665,435,3.17643,2.02435
448,589,0.453735,-3.2868,0,0,0,0,0,0,0,-1,1672,435,0.453701,3.28681
455,589,0.664307,-3.46848,0,0,0,0,0,0,0,-1,1679,435,0.66425,3.46846
462,589,3.46716,-4.41891,0,0,0,0,0,0,0,-1,1686,435,3.4672,4.41891
469,589,0.0238037,-3.81497,0,0,0,0,0,0,0,-1,1693,435,0.0237965,3.81498
476,589,0,0,0,0,0,0,0,0,0,-1,1700,435,0,0
483,589,0,0,0,0,0,0,0,0,0,-1,1707,435,0,0
490,589,0,0,0,0,0,0,0,0,0,-1,1714,435,0,0
497,589,0,0,0,0,0,0,0,0,0,-1,1721,435,0,0
504,589,0,0,0,0,0,0,0,0,0,-1,1728,435,0,0
511,589,0,0,0,0,0,0,0,0,0,-1,1735,435,0,0
518,589,0,0,0,0,0,0,0,0,0,-1,1742,435,0,0
525,589,0,0,0,0,0,0,0,0,0,-1,1749,435,0,0
532,589,0,0,0,0,0,0,0,0,0,-1,1756,435,0,0
539,589,0,0,0,0,0,0,0,0,0,-1,1763,435,0,0
546,589,0,0,0,0,0,0,0,0,0,-1,1770,435,0,0
553,589,0,0,0,0,0,0,0,0,0,-1,1777,435,0,0
560,589,0,0,0,0,0,0,0,0,0,-1,1784,435,0,0
567,589,0,0,0,0,0,0,0,0,0,-1,1791,435,0,0
574,589,0,0,0,0,0,0,0,0,0,-1,1798,435,0,0
581,589,0,0,0,0,0,0,0,0,0,-1,1805,435,0,0
588,589,0,0,0,0,0,0,0,0,0,-1,1812,435,0,0
595,589,0,0,0,0,0,0,0,0,0,-1,1819,435,0,0
602,589,0,0,0,0,0,0,0,0,0,-1,1826,435,0,0
609,589,0,0,0,0,0,0,0,0,0,-1,1833,435,0,0
616,589,0,0,0,0,0,0,0,0,0,-1,1840,435,0,0
623,589,0,0,0,0,0,0,0,0,0,-1,1847,435,0,0
630,589,0,0,0,0,0,0,0,0,0,-1,1854,435,0,0
637,589,0,0,0,0,0,0,0,0,0,-1,1861,435,0,0
644,589,0,0,0,0,0,0,0,0,0,-1,1868,435,0,0
651,589,0,0,0,0,0,0,0,0,0,-1,1875,435,0,0
658,589,0,0,0,0,0,0,0,0,0,-1,1882,435,0,0
665,589,0,0,0,0,0,0,0,0,0,-1,1889,435,0,0
672,589,0,0,0,0,0,0,0,0,0,-1,1896,435,0,0
679,589,0,0,0,0,0,0,0,0,0,-1,1903,435,0,0
686,589,0,0,0,0,0,0,0,0,0,-1,1910,435,0,0
693,589,0,0,0,0,0,0,0,0,0,-1,1917,435,0,0
700,589,0,0,0,0,0,0,0,0,0,-1,1924,435,0,0
707,589,0,0,0,0,0,0,0,0,0,-1,1931,435,0,0
714,589,0,0,0,0,0,0,0,0,0,-1,1938,435,0,0
721,589,0,0,0,0,0,0,0,0,0,-1,1945,435,0,0
728,589,0,0,0,0,0,0,0,0,0,-1,1952,435,0,0
735,589,0,0,0,0,0,0,0,0,0,-1,1959,435,0,0
742,589,0,0,0,0,0,0,0,0,0,-1,1966,435,0,0
749,589,0,0,0,0,0,0,0,0,0,-1,1973,435,0,0
756,589,0,0,0,0,0,0,0,0,0,-1,1980,435,0,0
763,589,0,0,0,0,0,0,0,0,0,-1,1987,435,0,0
770,589,0,0,0,0,0,0,0,0,0,-1,1994,435,0,0
777,589,0,0,0,0,0,0,0,0,0,-1,2001,435,0,0
784,589,0,0,0,0,0,0,0,0,0,-1,2008,435,0,0
791,589,0,0,0,0,0,0,0,0,0,-1,2015,435,0,0
798,589,0,0,0,0,0,0,0,0,0,-1,2022,435,0,0
805,589,0,0,0,0,0,0,0,0,0,-1,2029,435,0,0
812,589,0,0,0,0,0,0,0,0,0,-1,2036,435,0,0
-700,582,0,0,0,0,0,0,0,0,0,-1,524,442,0,0
-693,582,0,0,0,0,0,0,0,0,0,-1,531,442,0,0
-686,582,0,0,0,0,0,0,0,0,0,-1,538,442,0,0
-679,582,0,0,0,0,0,0,0,0,0,-1,545,442,0,0
-672,582,0,0,0,0,0,0,0,0,0,-1,552,442,0,0
-665,582,0,0,0,0,0,0,0,0,0,-1,559,442,0,0
-658,582,0,0,0,0,0,0,0,0,0,-1,566,442,0,0
-651,582,0,0,0,0,0,0,0,0,0,-1,573,442,0,0
-644,582,0,0,0,0,0,0,0,0,0,-1,580,442,0,0
-637,582,0,0,0,0,0,0,0,0,0,-1,587,442,0,0
-630,582,0,0,0,0,0,0,0,0,0,-1,594,442,0,0
-623,582,0,0,0,0,0,0,0,0,0,-1,601,442,0,0
-616,582,0,0,0,0,0,0,0,0,0,-1,608,442,0,0
-609,582,0,0,0,0,0,0,0,0,0,-1,615,442,0,0
-602,582,0,0,0,0,0,0,0,0,0,-1,622,442,0,0
-595,582,0,0,0,0,0,0,0,0,0,-1,629,442,0,0
-588,582,0,0,0,0,0,0,0,0,0,-1,636,442,0,0
-581,582,0,0,0,0,0,0,0,0,0,-1,643,442,0,0
-574,582,0,0,0,0,0,0,0,0,0,-1,650,442,0,0
-567,582,0,0,0,0,0,0,0,0,0,-1,657,442,0,0
-560,582,0,0,0,0,0,0,0,0,0,-1,664,442,0,0
-553,582,0,0,0,0,0,0,0,0,0,-1,671,442,0,0
-546,582,0,0,0,0,0,0,0,0,0,-1,678,442,0,0
-539,582,0,0,0,0,0,0,0,0,0,-1,685,442,0,0
-532,582,0,0,0,0,0,0,0,0,0,-1,692,442,0,0
-525,582,0,0,0,0,0,0,0,0,0,-1,699,442,0,0
-518,582,0,0,0,0,0,0,0,0,0,-1,706,442,0,0
-511,582,0,0,0,0,0,0,0,0,0,-1,713,442,0,0
-504,582,0,0,0,0,0,0,0,0,0,-1,720,442,0,0
-497,582,0,0,0,0,0,0,0,0,0,-1,727,442,0,0
-490,582,0,0,0,0,0,0,0,0,0,-1,734,442,0,0
-483,582,0,0,0,0,0,0,0,0,0,-1,741,442,0,0
-476,582,0,0,0,0,0,0,0,0,0,-1,748,442,0,0
-469,582,0,0,0,0,0,0,0,0,0,-1,755,442,0,0
-462,582,0,0,0,0,0,0,0,0,0,-1,762,442,0,0
-455,582,0,0,0,0,0,0,0,0,0,-1,769,442,0,0
-448,582,0,0,0,0,0,0,0,0,0,-1,776,442,0,0
-441,582,0,0,0,0,0,0,0,0,0,-1,783,442,0,0
-434,582,0,0,0,0,0,0,0,0,0,-1,790,442,0,0
-427,582,0,0,0,0,0,0,0,0,0,-1,797,442,0,0
-420,582,0,0,0,0,0,0,0,0,0,-1,804,442,0,0
-413,582,0,0,0,0,0,0,0,0,0,-1,811,442,0,0
-406,582,0,0,0,0,0,0,0,0,0,-1,818,442,0,0
-399,582,0,0,0,0,0,0,0,0,0,-1,825,442,0,0
-392,582,0,0,0,0,0,0,0,0,0,-1,832,442,0,0
-385,582,0,0,0,0,0,0,0,0,0,-1,839,442,0,0
-378,582,0,0,0,0,0,0,0,0,0,-1,846,442,0,0
-371,582,0,0,0,0,0,0,0,0,0,-1,853,442,0,0
-364,582,0,0,0,0,0,0,0,0,0,-1,860,442,0,0
-357,582,6.4043,-4.18127,0,0,0,0,0,0,0,-1,867,442,6.40427,4.18126
-350,582,-1.12933,-15.713,0,0,0,0,0,0,0,-1,874,442,-1.12935,15.713
-343,582,-6.46735,-15.7183,0,0,0,0,0,0,0,-1,881,442,-6.46737,15.7183
-336,582,-6.42596,-13.6619,0,0,0,0,0,0,0,-1,888,442,-6.42598,13.6619
-329,582,1.31854,-12.2396,0,0,0,0,0,0,0,-1,895,442,1.31853,12.2396
-322,582,1.48553,-11.8255,0,0,0,0,0,0,0,-1,902,442,1.48554,11.8255
-315,582,1.74805,-12.0904,0,0,0,0,0,0,0,-1,909,442,1.74806,12.0904
-308,582,2.14191,-12.579,0,0,0,0,0,0,0,-1,916,442,2.14188,12.579
-301,582,2.13086,-12.9177,0.000720029,0.00907779,-0.0156588,0.0211058,-0.011308,-0.915794,0.0189969,0.0463183,923,442,2.13088,12.9177
-294,582,1.81073,-13.2641,0.00113491,0.00838473,-0.0132012,0.0184497,-0.00893004,-0.91939,0.016123,0.0402004,930,442,1.81075,13.2641
-287,582,2.07806,-13.5285,0.000993906,0.00752907,-0.0110588,0.015793,-0.00726999,-0.929047,0.0136151,0.0329882,937,442,2.07805,13.5285
-280,582,2.18604,-13.8294,0.000864942,0.00683411,-0.00906336,0.0133917,-0.0056926,-0.944457,0.0113132,0.0163648,944,442,2.18603,13.8294
-273,582,2.15802,-14.1127,0.000532083,0.00630436,-0.00727034,0.0112405,-0.00440403,-0.974346,0.00931539,0.0108864,951,442,2.15803,14.1127
-266,582,2.13184,-14.42,6.79157e-05,0.00567822,-0.00567183,0.00920067,-0.00345453,-1.01505,0.00755337,0.0102775,958,442,2.13184,14.42
-259,582,2.12061,-14.7267,-0.000457189,0.00482494,-0.00423247,0.00717276,-0.00280501,-1.06434,0.0059418,0.00867254,965,442,2.12058,14.7268
-252,582,2.11395,-15.0066,-0.000824116,0.00393841,-0.00304608,0.00542354,-0.00230925,-1.11715,0.00458363,0.0078516,972,442,2.11397,15.0066
-245,582,2.11139,-15.26,-0.000473541,0.00288228,-0.00206465,0.00386485,-0.00145611,-1.12661,0.00317525,0.0108119,979,442,2.11136,15.26
-238,582,2.10968,-15.5107,-0.000583903,0.00194198,-0.00115285,0.00238903,-0.00103095,-1.20087,0.00202576,0.0162322,986,442,2.1097,15.5107
-231,582,2.09222,-15.7633,-0.000943492,0.00089014,-0.000504828,0.00101994,-0.00107329,-1.31913,0.00120866,0.0133041,993,442,2.09223,15.7633
-224,582,2.07068,-16.029,-0.00102145,-0.000204031,-0.000166628,-0.00017137,-0.00105411,-1.37724,0.000653156,0.0102995,1000,442,2.07071,16.029
-217,582,2.06958,-16.2749,-0.000659237,-0.0012779,0.000188908,-0.000606116,-0.00133102,0.274123,0.000769487,0.0127126,1007,442,2.0696,16.2749
-210,582,2.07202,-16.5113,-0.000274729,-0.00237236,0.000544211,-0.000141945,-0.00250515,0.239319,0.00162485,0.013149,1014,442,2.07205,16.5113
-203,582,2.07178,-16.7556,0.000176984,-0.00302137,0.000743683,0.000341448,-0.00318583,0.217646,0.00224637,0.00996411,1021,442,2.07179,16.7556
-196,582,2.05505,-16.9821,0.000537672,-0.00336014,0.00085992,0.000718953,-0.00354142,0.20777,0.00263351,0.01481,1028,442,2.055,16.9821
-189,582,2.03662,-17.2252,0.000895774,-0.00345697,0.000798548,0.00103765,-0.00359885,0.175833,0.00280973,0.0206898,1035,442,2.03659,17.2252
-182,582,2.04358,-17.4479,0.00131945,-0.00340261,0.000836099,0.00146312,-0.00354628,0.170172,0.00297437,0.0139669,1042,442,2.04353,17.4479
-175,582,2.07495,-17.6075,0.00171174,-0.00342963,0.000806355,0.00183524,-0.00355313,0.151977,0.00316324,0.0128864,1049,442,2.07493,17.6075
-168,582,2.09021,-17.8136,0.00199559,-0.00352162,0.000571082,0.00205408,-0.00358011,0.102068,0.00329243,0.0119885,1056,442,2.09024,17.8136
-161,582,2.09705,-18.0151,0.00211475,-0.00340142,0.000239927,0.00212517,-0.00341184,0.043386,0.00322543,0.0136496,1063,442,2.09709,18.0151
-154,582,2.09839,-18.1967,0.00230723,-0.00341649,-2.98384e-05,0.00230739,-0.00341664,-0.00521292,0.00332539,0.0128172,1070,442,2.0984,18.1967
-147,582,2.11938,-18.3788,0.00248146,-0.00349622,-0.000274594,0.00249404,-0.0035088,-0.045808,0.00348221,0.0114373,1077,442,2.11937,18.3788
-140,582,2.13623,-18.5531,0.00265064,-0.00376996,-0.000584895,0.00270349,-0.0038228,-0.0901084,0.00378638,0.0123427,1084,442,2.13619,18.5531
-133,582,2.15662,-18.7528,0.00274177,-0.0040667,-0.000951347,0.0028722,-0.00419713,-0.136254,0.00410531,0.0151516,1091,442,2.15656,18.7528
-126,582,2.1709,-18.8721,0.0027765,-0.00479936,-0.00123674,0.00297328,-0.00499614,-0.157791,0.00465029,0.0134137,1098,442,2.17091,18.8721
-119,582,2.17847,-19.0017,0.0027864,-0.00550706,-0.0015577,0.00306932,-0.00578998,-0.179668,0.00519469,0.0167165,1105,442,2.17841,19.0017
-112,582,2.15015,-19.186,0.00283014,-0.0059927,-0.00186502,0.00320818,-0.00637074,-0.19999,0.00562997,0.0236147,1112,442,2.1501,19.186
-105,582,2.14038,-19.3746,0.00284568,-0.00603512,-0.0021344,0.00333203,-0.00652147,-0.224035,0.00578741,0.033844,1119,442,2.14037,19.3746
-98,582,2.11243,-19.5945,0.0030075,-0.00612528,-0.00225797,0.00353526,-0.00665304,-0.22961,0.00597332,0.0389183,1126,442,2.11238,19.5945
-91,582,2.08557,-19.8,0,0,0,0,0,0,0,-1,1133,442,2.08553,19.7999
-84,582,2.10278,-16.7533,0,0,0,0,0,0,0,-1,1140,442,2.10279,16.7533
-77,582,2.30212,-11.4907,0,0,0,0,0,0,0,-1,1147,442,2.30207,11.4907
-70,582,1.49255,-6.36548,0,0,0,0,0,0,0,-1,1154,442,1.49251,6.36549
-63,582,-4.62915,-4.0347,0,0,0,0,0,0,0,-1,1161,442,-4.6292,4.03471
-56,582,-5.81714,-5.24149,0,0,0,0,0,0,0,-1,1168,442,-5.81718,5.24149
-49,582,-3.88672,-10.1064,0,0,0,0,0,0,0,-1,1175,442,-3.88678,10.1064
-42,582,-0.948975,1.13968,0,0,0,0,0,0,0,-1,1182,442,-0.949003,-1.13969
-35,582,-2.58435,-3.86911,0,0,0,0,0,0,0,-1,1189,442,-2.58437,3.86912
-28,582,-0.825317,-3.45941,0,0,0,0,0,0,0,-1,1196,442,-0.825377,3.45942
-21,582,2.047,-19.1308,0,0,0,0,0,0,0,-1,1203,442,2.04698,19.1308
-14,582,2.21655,-19.3659,0,0,0,0,0,0,0,-1,1210,442,2.2165,19.3659
-7,582,4.33972,-20.2876,0,0,0,0,0,0,0,-1,1217,442,4.33977,20.2876
0,582,4.24414,-19.8685,0,0,0,0,0,0,0,-1,1224,442,4.24412,19.8685
7,582,4.36682,-19.7025,0,0,0,0,0,0,0,-1,1231,442,4.36684,19.7024
14,582,4.4895,-19.5364,0,0,0,0,0,0,0,-1,1238,442,4.48956,19.5364
21,582,3.38757,-20.2793,0,0,0,0,0,0,0,-1,1245,442,3.38759,20.2793
28,582,3.2804,-20.4265,0,0,0,0,0,0,0,-1,1252,442,3.28044,20.4265
35,582,8.07922,-22.3943,-0.0696544,-0.0691639,-0.00605004,-0.0633541,-0.0754641,-0.805656,0.046798,0.0474962,1259,442,8.07927,22.3943
42,582,3.56848,-21.1559,-0.0693662,-0.0635761,-0.00776818,-0.0581811,-0.0747613,-0.963765,0.0453363,0.0454175,1266,442,3.56844,21.1559
49,582,7.06665,-22.0443,-0.0671193,-0.0586163,-0.00741611,-0.0543195,-0.0714161,-1.04567,0.0430585,0.0469298,1273,442,7.06666,22.0443
56,582,6.43713,-21.9449,-0.0650559,-0.0530923,-0.00627373,-0.0504056,-0.0677425,-1.16619,0.0406348,0.0449293,1280,442,6.43716,21.9449
63,582,5.89307,-21.6006,-0.0633716,-0.0483089,-0.00338687,-0.0475824,-0.0640981,-1.35949,0.0384287,0.0420595,1287,442,5.89302,21.6006
70,582,3.50024,-20.1714,-0.0617121,-0.0440378,0.000689648,-0.0440109,-0.061739,1.53186,0.0367059,0.0430863,1294,442,3.50027,20.1714
77,582,4.20435,-20.2233,-0.0584739,-0.0409777,0.00570555,-0.0392815,-0.0601701,1.28183,0.0352761,0.0430384,1301,442,4.2043,20.2233
84,582,3.35535,-19.9356,-0.0547768,-0.0386366,0.00990733,-0.0339285,-0.0594849,1.12718,0.0344568,0.0429886,1308,442,3.35537,19.9356
91,582,2.56482,-19.6897,0,0,0,0,0,0,0,-1,1315,442,2.56483,19.6897
98,582,1.01233,-19.4193,-0.046198,-0.0361253,0.0157258,-0.0246491,-0.0576742,0.940367,0.033415,0.0463478,1322,442,1.01231,19.4193
105,582,3.72144,-20.7979,-0.0422414,-0.0351565,0.017266,-0.0210733,-0.0563246,0.886579,0.0328607,0.0449228,1329,442,3.72148,20.798
112,582,4.13123,-19.7737,-0.0365515,-0.0340884,0.0168635,-0.0184116,-0.0522283,0.82185,0.0305882,0.0436566,1336,442,4.13124,19.7737
119,582,4.15955,-18.4634,0,0,0,0,0,0,0,-1,1343,442,4.15949,18.4634
126,582,3.49146,-19.0831,-0.0270407,-0.0345686,0.0134191,-0.0168677,-0.0447416,0.648666,0.0260908,0.0466863,1350,442,3.49147,19.0831
133,582,2.8562,-19.4386,-0.023094,-0.0342772,0.0090178,-0.0180749,-0.0392963,0.507878,0.0227119,0.0477499,1357,442,2.85616,19.4386
140,582,2.49329,-19.4606,-0.0202381,-0.0333989,0.00328812,-0.0194623,-0.0341747,0.231698,0.0197942,0.0485745,1364,442,2.49331,19.4606
147,582,2.12878,-19.3004,0,0,0,0,0,0,0,-1,1371,442,2.12883,19.3005
154,582,1.66418,-18.6099,0,0,0,0,0,0,0,-1,1378,442,1.66413,18.6099
161,582,1.59619,-18.1519,0,0,0,0,0,0,0,-1,1385,442,1.59619,18.1519
168,582,4.672,-20.2961,0,0,0,0,0,0,0,-1,1392,442,4.67199,20.2961
175,582,6.50549,-2.00424,0,0,0,0,0,0,0,-1,1399,442,6.50546,2.00425
182,582,5.18958,-2.18652,0,0,0,0,0,0,0,-1,1406,442,5.1896,2.18652
189,582,6.19751,-0.880951,0,0,0,0,0,0,0,-1,1413,442,6.19754,0.88096
196,582,4.87354,-2.22327,0,0,0,0,0,0,0,-1,1420,442,4.87348,2.22325
203,582,3.11401,-4.48257,0,0,0,0,0,0,0,-1,1427,442,3.11404,4.48259
210,582,2.93115,-11.0731,0,0,0,0,0,0,0,-1,1434,442,2.93113,11.0731
217,582,4.94092,-16.5476,0,0,0,0,0,0,0,-1,1441,442,4.94087,16.5476
224,582,4.6781,-19.2712,0,0,0,0,0,0,0,-1,1448,442,4.67811,19.2712
231,582,4.70227,-18.7575,0.00309508,0.00487314,-0.00321431,0.0073191,0.000649124,-0.920318,0.00467806,0.0412865,1455,442,4.70224,18.7575
238,582,4.6698,-18.7261,0.0030739,0.00558109,-0.00258555,0.00720092,0.00145407,-1.01112,0.00439682,0.0418825,1462,442,4.66978,18.7261
245,582,4.64893,-18.6728,0.00291046,0.00578444,-0.00218013,0.00695856,0.00173633,-1.07678,0.00418219,0.0446386,1469,442,4.64887,18.6728
252,582,4.71582,-18.4183,0.00259553,0.0054452,-0.00178903,0.00630746,0.00173328,-1.12168,0.00376272,0.0325182,1476,442,4.71581,18.4183
259,582,4.63367,-18.2411,0.0022561,0.00467432,-0.00150826,0.00539829,0.00153213,-1.12327,0.00321234,0.0259257,1483,442,4.6337,18.2411
266,582,4.65247,-18.0121,0.00205259,0.00385375,-0.00129768,0.00453273,0.00137361,-1.08874,0.0026838,0.0187796,1490,442,4.65247,18.0121
273,582,4.71985,-17.7398,0.00187411,0.0032111,-0.00105369,0.00379046,0.00129475,-1.06808,0.00222473,0.0154508,1497,442,4.7199,17.7398
280,582,4.72888,-17.5257,0.00158706,0.00236527,-0.000872198,0.00293122,0.00102111,-0.99521,0.00171809,0.0126449,1504,442,4.7289,17.5257
287,582,4.75,-17.2886,0.00146719,0.00204306,-0.00062558,0.00244379,0.00106646,-1.00108,0.00141472,0.0110182,1511,442,4.75006,17.2886
294,582,4.73633,-17.0415,0.00136963,0.00148602,-0.000474233,0.00190562,0.000950036,-0.846451,0.00110021,0.00907665,1518,442,4.73631,17.0415
301,582,4.75024,-16.7889,0.00118931,0.00101334,-0.000402832,0.00151365,0.000688994,-0.677876,0.000875077,0.0101083,1525,442,4.75028,16.7889
308,582,4.77673,-16.5425,0.0010028,0.00073036,-0.00036765,0.00125866,0.000474506,-0.60798,0.000733979,0.0129382,1532,442,4.77669,16.5425
315,582,4.77808,-16.3183,0.000856742,0.000638148,-0.000308991,0.0010752,0.000419693,-0.615405,0.000625722,0.0138641,1539,442,4.77802,16.3183
322,582,4.7915,-16.0872,0.0006583,0.000695806,-0.000180787,0.00085881,0.000495296,-0.837078,0.000497776,0.0111883,1546,442,4.79154,16.0872
329,582,4.79102,-15.8313,0.00045281,0.000828939,1.85121e-05,0.000829848,0.000451901,1.52174,0.000479747,0.010339,1553,442,4.79099,15.8313
336,582,4.7832,-15.5706,0.000255357,0.000997489,0.00024775,0.0010726,0.00018025,1.27645,0.000663196,0.0103901,1560,442,4.78318,15.5706
343,582,4.77356,-15.3017,2.40334e-05,0.00118709,0.00045252,0.00134241,-0.000131289,1.24016,0.00094176,0.0131776,1567,442,4.77359,15.3017
350,582,4.7583,-15.0079,-0.000174843,0.00154032,0.000742852,0.00181732,-0.000451843,1.21388,0.00138692,0.0164339,1574,442,4.75835,15.0079
357,582,4.75891,-14.7255,-0.000419969,0.00187856,0.00103797,0.0022779,-0.000819316,1.20352,0.0018531,0.0136482,1581,442,4.75889,14.7255
364,582,4.75879,-14.4727,-0.000721947,0.00222238,0.00126539,0.00269148,-0.00119104,1.21579,0.00229669,0.0104468,1588,442,4.75875,14.4727
371,582,4.74365,-14.1947,-0.000966682,0.00254691,0.00150745,0.00310501,-0.00152478,1.21622,0.00272442,0.0145214,1595,442,4.74362,14.1947
378,582,4.71191,-13.9088,-0.00127284,0.0029827,0.00172313,0.00359292,-0.00188306,1.23044,0.00321252,0.0155967,1602,442,4.71188,13.9089
385,582,4.70276,-13.6141,-0.00176588,0.00327289,0.00162711,0.00375263,-0.00224563,1.28408,0.00349934,0.0108054,1609,442,4.70275,13.6141
392,582,4.70215,-13.3071,-0.00215324,0.00346372,0.00158046,0.00387788,-0.0025674,1.31451,0.00374674,0.00953478,1616,442,4.70217,13.3071
399,582,4.68127,-13.0182,-0.00240986,0.00362515,0.00160123,0.00402367,-0.00280838,1.32686,0.00396524,0.0151034,1623,442,4.6813,13.0181
406,582,4.69714,-12.6377,-0.00256825,0.003804,0.00163938,0.00420103,-0.00296527,1.33319,0.00415792,0.0267582,1630,442,4.6971,12.6377
413,582,4.60168,-12.2994,-0.00301471,0.00355295,0.00153187,0.00389268,-0.00335444,1.35256,0.00418797,0.0428929,1637,442,4.60163,12.2994
420,582,4.53564,-11.9349,0,0,0,0,0,0,0,-1,1644,442,4.5357,11.9349
427,582,4.56409,-11.7127,0,0,0,0,0,0,0,-1,1651,442,4.56408,11.7127
434,582,4.19312,-11.4668,0,0,0,0,0,0,0,-1,1658,442,4.19316,11.4668
441,582,3.68677,-8.97913,0,0,0,0,0,0,0,-1,1665,442,3.68682,8.97912
448,582,1.52722,-2.85928,0,0,0,0,0,0,0,-1,1672,442,1.52724,2.85927
455,582,3.6698,-4.4032,0,0,0,0,0,0,0,-1,1679,442,3.66983,4.40319
462,582,1.38074,-3.94418,0,0,0,0,0,0,0,-1,1686,442,1.38074,3.94419
469,582,4.77759,-10.3864,0,0,0,0,0,0,0,-1,1693,442,4.77756,10.3864
476,582,1.93579,-8.53891,0,0,0,0,0,0,0,-1,1700,442,1.93579,8.53892
483,582,0,0,0,0,0,0,0,0,0,-1,1707,442,0,0
490,582,0,0,0,0,0,0,0,0,0,-1,1714,442,0,0
497,582,0,0,0,0,0,0,0,0,0,-1,1721,442,0,0
504,582,0,0,0,0,0,0,0,0,0,-1,1728,442,0,0
511,582,0,0,0,0,0,0,0,0,0,-1,1735,442,0,0
518,582,0,0,0,0,0,0,0,0,0,-1,1742,442,0,0
525,582,0,0,0,0,0,0,0,0,0,-1,1749,442,0,0
532,582,0,0,0,0,0,0,0,0,0,-1,1756,442,0,0
539,582,0,0,0,0,0,0,0,0,0,-1,1763,442,0,0
546,582,0,0,0,0,0,0,0,0,0,-1,1770,442,0,0
553,582,0,0,0,0,0,0,0,0,0,-1,1777,442,0,0
560,582,0,0,0,0,0,0,0,0,0,-1,1784,442,0,0
567,582,0,0,0,0,0,0,0,0,0,-1,1791,442,0,0
574,582,0,0,0,0,0,0,0,0,0,-1,1798,442,0,0
581,582,0,0,0,0,0,0,0,0,0,-1,1805,442,0,0
588,582,0,0,0,0,0,0,0,0,0,-1,1812,442,0,0
595,582,0,0,0,0,0,0,0,0,0,-1,1819,442,0,0
602,582,0,0,0,0,0,0,0,0,0,-1,1826,442,0,0
609,582,0,0,0,0,0,0,0,0,0,-1,1833,442,0,0
616,582,0,0,0,0,0,0,0,0,0,-1,1840,442,0,0
623,582,0,0,0,0,0,0,0,0,0,-1,1847,442,0,0
630,582,0,0,0,0,0,0,0,0,0,-1,1854,442,0,0
637,582,0,0,0,0,0,0,0,0,0,-1,1861,442,0,0
644,582,0,0,0,0,0,0,0,0,0,-1,1868,442,0,0
651,582,0,0,0,0,0,0,0,0,0,-1,1875,442,0,0
658,582,0,0,0,0,0,0,0,0,0,-1,1882,442,0,0
665,582,0,0,0,0,0,0,0,0,0,-1,1889,442,0,0
672,582,0,0,0,0,0,0,0,0,0,-1,1896,442,0,0
679,582,0,0,0,0,0,0,0,0,0,-1,1903,442,0,0
686,582,0,0,0,0,0,0,0,0,0,-1,1910,442,0,0
693,582,0,0,0,0,0,0,0,0,0,-1,1917,442,0,0
700,582,0,0,0,0,0,0,0,0,0,-1,1924,442,0,0
707,582,0,0,0,0,0,0,0,0,0,-1,1931,442,0,0
714,582,0,0,0,0,0,0,0,0,0,-1,1938,442,0,0
721,582,0,0,0,0,0,0,0,0,0,-1,1945,442,0,0
728,582,0,0,0,0,0,0,0,0,0,-1,1952,442,0,0
735,582,0,0,0,0,0,0,0,0,0,-1,1959,442,0,0
742,582,0,0,0,0,0,0,0,0,0,-1,1966,442,0,0
749,582,0,0,0,0,0,0,0,0,0,-1,1973,442,0,0
756,582,0,0,0,0,0,0,0,0,0,-1,1980,442,0,0
763,582,0,0,0,0,0,0,0,0,0,-1,1987,442,0,0
770,582,0,0,0,0,0,0,0,0,0,-1,1994,442,0,0
777,582,0,0,0,0,0,0,0,0,0,-1,2001,442,0,0
784,582,0,0,0,0,0,0,0,0,0,-1,2008,442,0,0
791,582,0,0,0,0,0,0,0,0,0,-1,2015,442,0,0
798,582,0,0,0,0,0,0,0,0,0,-1,2022,442,0,0
805,582,0,0,0,0,0,0,0,0,0,-1,2029,442,0,0
812,582,0,0,0,0,0,0,0,0,0,-1,2036,442,0,0
-700,575,0,0,0,0,0,0,0,0,0,-1,524,449,0,0
-693,575,0,0,0,0,0,0,0,0,0,-1,531,449,0,0
-686,575,0,0,0,0,0,0,0,0,0,-1,538,449,0,0
-679,575,0,0,0,0,0,0,0,0,0,-1,545,449,0,0
-672,575,0,0,0,0,0,0,0,0,0,-1,552,449,0,0
-665,575,0,0,0,0,0,0,0,0,0,-1,559,449,0,0
-658,575,0,0,0,0,0,0,0,0,0,-1,566,449,0,0
-651,575,0,0,0,0,0,0,0,0,0,-1,573,449,0,0
-644,575,0,0,0,0,0,0,0,0,0,-1,580,449,0,0
-637,575,0,0,0,0,0,0,0,0,0,-1,587,449,0,0
-630,575,0,0,0,0,0,0,0,0,0,-1,594,449,0,0
-623,575,0,0,0,0,0,0,0,0,0,-1,601,449,0,0
-616,575,0,0,0,0,0,0,0,0,0,-1,608,449,0,0
-609,575,0,0,0,0,0,0,0,0,0,-1,615,449,0,0
-602,575,0,0,0,0,0,0,0,0,0,-1,622,449,0,0
-595,575,0,0,0,0,0,0,0,0,0,-1,629,449,0,0
-588,575,0,0,0,0,0,0,0,0,0,-1,636,449,0,0
-581,575,0,0,0,0,0,0,0,0,0,-1,643,449,0,0
-574,575,0,0,0,0,0,0,0,0,0,-1,650,449,0,0
-567,575,0,0,0,0,0,0,0,0,0,-1,657,449,0,0
-560,575,0,0,0,0,0,0,0,0,0,-1,664,449,0,0
-553,575,0,0,0,0,0,0,0,0,0,-1,671,449,0,0
-546,575,0,0,0,0,0,0,0,0,0,-1,678,449,0,0
-539,575,0,0,0,0,0,0,0,0,0,-1,685,449,0,0
-532,575,0,0,0,0,0,0,0,0,0,-1,692,449,0,0
-525,575,0,0,0,0,0,0,0,0,0,-1,699,449,0,0
-518,575,0,0,0,0,0,0,0,0,0,-1,706,449,0,0
-511,575,0,0,0,0,0,0,0,0,0,-1,713,449,0,0
-504,575,0,0,0,0,0,0,0,0,0,-1,720,449,0,0
-497,575,0,0,0,0,0,0,0,0,0,-1,727,449,0,0
-490,575,0,0,0,0,0,0,0,0,0,-1,734,449,0,0
-483,575,0,0,0,0,0,0,0,0,0,-1,741,449,0,0
-476,575,0,0,0,0,0,0,0,0,0,-1,748,449,0,0
-469,575,0,0,0,0,0,0,0,0,0,-1,755,449,0,0
-462,575,0,0,0,0,0,0,0,0,0,-1,762,449,0,0
-455,575,0,0,0,0,0,0,0,0,0,-1,769,449,0,0
-448,575,0,0,0,0,0,0,0,0,0,-1,776,449,0,0
-441,575,0,0,0,0,0,0,0,0,0,-1,783,449,0,0
-434,575,0,0,0,0,0,0,0,0,0,-1,790,449,0,0
-427,575,0,0,0,0,0,0,0,0,0,-1,797,449,0,0
-420,575,0,0,0,0,0,0,0,0,0,-1,804,449,0,0
-413,575,0,0,0,0,0,0,0,0,0,-1,811,449,0,0
-406,575,0,0,0,0,0,0,0,0,0,-1,818,449,0,0
-399,575,0,0,0,0,0,0,0,0,0,-1,825,449,0,0
-392,575,0,0,0,0,0,0,0,0,0,-1,832,449,0,0
-385,575,0,0,0,0,0,0,0,0,0,-1,839,449,0,0
-378,575,0,0,0,0,0,0,0,0,0,-1,846,449,0,0
-371,575,0.56897,-3.52304,0,0,0,0,0,0,0,-1,853,449,0.568955,3.52306
-364,575,1.49805,-4.67191,0,0,0,0,0,0,0,-1,860,449,1.49803,4.6719
-357,575,3.15521,-8.29892,0,0,0,0,0,0,0,-1,867,449,3.15521,8.29891
-350,575,2.76715,-7.23752,0,0,0,0,0,0,0,-1,874,449,2.76717,7.2375
-343,575,0.6922,-9.68082,0,0,0,0,0,0,0,-1,881,449,0.692185,9.68081
-336,575,2.28522,-11.753,0,0,0,0,0,0,0,-1,888,449,2.28521,11.753
-329,575,1.66138,-11.8629,0,0,0,0,0,0,0,-1,895,449,1.6614,11.8629
-322,575,1.40332,-12.0115,0,0,0,0,0,0,0,-1,902,449,1.40332,12.0115
-315,575,1.60571,-12.2747,-0.00175148,0.00709254,-0.0130989,0.0164957,-0.0111547,-0.948184,0.0160629,0.0446087,909,449,1.60574,12.2747
-308,575,1.80255,-12.6635,-0.000419427,0.00705382,-0.0125868,0.0164469,-0.00981254,-0.929689,0.0153214,0.0447852,916,449,1.80256,12.6635
-301,575,1.95813,-12.9863,0.00059077,0.00678021,-0.0116597,0.0157489,-0.00837795,-0.915117,0.0141447,0.0325321,923,449,1.95815,12.9863
-294,575,1.93542,-13.2519,0.0010888,0.00622636,-0.0100485,0.0140293,-0.00671409,-0.910537,0.0122219,0.0233508,930,449,1.9354,13.2519
-287,575,1.92657,-13.5626,0.00111224,0.00564165,-0.0085279,0.0122004,-0.00544654,-0.915185,0.0104343,0.0170907,937,449,1.92658,13.5626
-280,575,1.91412,-13.8584,0.00103227,0.00506381,-0.00706792,0.0103978,-0.0043017,-0.92431,0.00872664,0.0130158,944,449,1.91411,13.8584
-273,575,1.89807,-14.1421,0.000803292,0.00457397,-0.00569379,0.00868644,-0.00330918,-0.945278,0.00715386,0.0107798,951,449,1.89806,14.1421
-266,575,1.90045,-14.4429,0.000498821,0.00391543,-0.00442701,0.0069523,-0.00253805,-0.969537,0.00567339,0.0122274,958,449,1.90043,14.4429
-259,575,1.87903,-14.7397,0.000109003,0.00305744,-0.00322015,0.00512478,-0.00195834,-1.00006,0.00422346,0.0125324,965,449,1.87905,14.7397
-252,575,1.82684,-15.0031,-0.000170665,0.00210731,-0.00218406,0.00343153,-0.00149489,-1.02575,0.00291661,0.0113612,972,449,1.82685,15.0031
-245,575,1.81476,-15.2589,9.46306e-05,0.000929356,-0.00129176,0.0018695,-0.000845513,-0.941653,0.00160425,0.0142866,979,449,1.81476,15.2589
-238,575,1.82465,-15.5233,1.84554e-06,-0.000225107,-0.000406692,0.000310596,-0.000533857,-0.649347,0.000493192,0.0151543,986,449,1.82464,15.5232
-231,575,1.83838,-15.765,-0.000296971,-0.00149261,0.000289967,-0.000230359,-0.00155922,0.225805,0.000971837,0.0132085,993,449,1.83839,15.765
-224,575,1.83557,-16.0111,-0.000368648,-0.00276371,0.000754485,-0.000150789,-0.00298156,0.281106,0.0019394,0.0117628,1000,449,1.83556,16.0111
-217,575,1.84106,-16.2632,-0.000122323,-0.00401625,0.00123321,0.000235377,-0.00437395,0.282309,0.00299751,0.0100656,1007,449,1.84106,16.2632
-210,575,1.86011,-16.5209,0.000197517,-0.00522012,0.00165351,0.00066231,-0.00568491,0.274023,0.0040289,0.00921255,1014,449,1.86011,16.5209
-203,575,1.86444,-16.7618,0.000633577,-0.00586955,0.00185436,0.00112518,-0.00636116,0.259147,0.00466132,0.0122353,1021,449,1.86446,16.7618
-196,575,1.85498,-16.9892,0.000975581,-0.00614892,0.00197019,0.00148412,-0.00665745,0.252601,0.00500687,0.0151321,1028,449,1.85498,16.9892
-189,575,1.84839,-17.2088,0.00130013,-0.00612067,0.00190844,0.00176217,-0.0065827,0.237531,0.00507881,0.0161141,1035,449,1.84842,17.2088
-182,575,1.84351,-17.4242,0.00174811,-0.00589926,0.00185979,0.00217641,-0.00632757,0.22635,0.00510103,0.0144067,1042,449,1.84347,17.4242
-175,575,1.87134,-17.6053,0.00225317,-0.00567567,0.00168879,0.00259789,-0.00602038,0.201353,0.00510487,0.0120385,1049,449,1.87134,17.6053
-168,575,1.89441,-17.7933,0.00263691,-0.00547451,0.00122494,0.00281786,-0.00565545,0.146658,0.00498267,0.0108038,1056,449,1.89446,17.7933
-161,575,1.9043,-17.9871,0.0027987,-0.00496401,0.000631842,0.00284979,-0.00501511,0.0806867,0.0045978,0.0149606,1063,449,1.90427,17.9871
-154,575,1.91418,-18.1678,0.00308248,-0.00468021,0.000107329,0.00308396,-0.0046817,0.0138228,0.00451503,0.0178886,1070,449,1.91415,18.1678
-147,575,1.94556,-18.3183,0.00332841,-0.00447444,-0.000383606,0.00334722,-0.00449325,-0.0490049,0.00454279,0.0182903,1077,449,1.9455,18.3183
-140,575,1.87415,-18.4716,0.00349064,-0.00450277,-0.00092847,0.00359707,-0.0046092,-0.11413,0.00474989,0.0279552,1084,449,1.87418,18.4716
-133,575,1.97314,-18.668,0.00349392,-0.00466351,-0.00150822,0.00376384,-0.00493344,-0.177093,0.00503649,0.0360727,1091,449,1.97309,18.668
-126,575,2.09924,-18.5342,0.00338976,-0.00558724,-0.00193184,0.00378784,-0.00598531,-0.203216,0.00568988,0.0415318,1098,449,2.09926,18.5342
-119,575,2.09814,-18.6013,0.00317836,-0.00679164,-0.00233285,0.00369721,-0.00731049,-0.21885,0.00646842,0.0377418,1105,449,2.09809,18.6013
-112,575,1.95898,-19.0662,0.00300543,-0.00778351,-0.00272162,0.0036531,-0.00843119,-0.233629,0.00715635,0.0457486,1112,449,1.959,19.0662
-105,575,1.90332,-19.2556,0,0,0,0,0,0,0,-1,1119,449,1.90326,19.2556
-98,575,1.82947,-19.5578,0,0,0,0,0,0,0,-1,1126,449,1.82942,19.5578
-91,575,1.60803,-16.4247,0,0,0,0,0,0,0,-1,1133,449,1.60802,16.4247
-84,575,1.16553,-11.9056,0,0,0,0,0,0,0,-1,1140,449,1.16558,11.9056
-77,575,0.205078,-11.2584,0,0,0,0,0,0,0,-1,1147,449,0.205117,11.2584
-70,575,-4.2467,-1.78738,0,0,0,0,0,0,0,-1,1154,449,-4.24674,1.78739
-63,575,-4.52209,-3.48798,0,0,0,0,0,0,0,-1,1161,449,-4.5221,3.48796
-56,575,-5.5968,-5.4928,0,0,0,0,0,0,0,-1,1168,449,-5.59683,5.49281
-49,575,-5.96863,-7.17612,0,0,0,0,0,0,0,-1,1175,449,-5.96868,7.1761
-42,575,-0.830322,0.773499,0,0,0,0,0,0,0,-1,1182,449,-0.83038,-0.77351
-35,575,-0.62085,0.205139,0,0,0,0,0,0,0,-1,1189,449,-0.620855,-0.205126
-28,575,0.49292,-3.87988,0,0,0,0,0,0,0,-1,1196,449,0.492941,3.87989
-21,575,1.56982,-19.1006,0,0,0,0,0,0,0,-1,1203,449,1.56979,19.1006
-14,575,19.4404,-19.0641,0,0,0,0,0,0,0,-1,1210,449,19.4404,19.0641
-7,575,18.1094,-19.5551,-0.0940476,-0.110622,0.0228799,-0.0780002,-0.126669,0.611649,0.0737831,0.0425255,1217,449,18.1093,19.5551
0,575,16.4783,-20.2839,-0.094924,-0.10911,0.0189963,-0.0817396,-0.122294,0.606723,0.0719288,0.0441946,1224,449,16.4783,20.2839
7,575,4.7616,-19.3546,0,0,0,0,0,0,0,-1,1231,449,4.76159,19.3546
14,575,13.7511,-20.5074,-0.0921834,-0.102677,0.0093215,-0.0867335,-0.108127,0.52906,0.0661174,0.0442863,1238,449,13.7511,20.5074
21,575,12.6713,-20.6082,-0.0895298,-0.0971972,0.00386559,-0.0879192,-0.0988078,0.394767,0.062559,0.0432777,1245,449,12.6713,20.6082
28,575,9.75293,-22.1797,-0.0876622,-0.0909082,-0.000775042,-0.0874867,-0.0910837,-0.222761,0.0595597,0.0416862,1252,449,9.75292,22.1797
35,575,9.13318,-21.5184,-0.0874262,-0.0843636,-0.00366483,-0.081923,-0.0898668,-0.983291,0.0574467,0.0421603,1259,449,9.13313,21.5184
42,575,8.2655,-21.0338,-0.0877012,-0.0778314,-0.00566071,-0.0752565,-0.0902761,-1.1439,0.0558548,0.0436103,1266,449,8.26555,21.0337
49,575,7.38831,-20.8859,-0.0858933,-0.0719578,-0.00547751,-0.0700626,-0.0877886,-1.23768,0.0536031,0.046039,1273,449,7.38826,20.8859
56,575,6.82764,-20.5826,-0.0841534,-0.0651699,-0.00435614,-0.0642181,-0.0851053,-1.35566,0.0512145,0.0457621,1280,449,6.82767,20.5826
63,575,6.29834,-20.2953,-0.0823998,-0.0589574,-0.00126247,-0.0588896,-0.0824676,-1.51715,0.049046,0.0438916,1287,449,6.29829,20.2953
70,575,5.7561,-20.2627,-0.0806495,-0.0532861,0.00333075,-0.0528865,-0.0810491,1.4514,0.0475139,0.0432333,1294,449,5.7561,20.2627
77,575,4.59485,-19.9554,-0.0765209,-0.0488394,0.00924048,-0.0460383,-0.0793221,1.27646,0.0459935,0.0446497,1301,449,4.59489,19.9554
84,575,3.16956,-19.5542,-0.0717009,-0.0454513,0.0139996,-0.0393863,-0.0777659,1.16198,0.0448994,0.0468946,1308,449,3.16961,19.5542
91,575,1.96924,-19.3045,-0.0655586,-0.0424786,0.0168253,-0.0336161,-0.0744211,1.08599,0.0430338,0.0480986,1315,449,1.96923,19.3045
98,575,0.798218,-19.0623,-0.0600254,-0.0411444,0.019661,-0.0287749,-0.0723949,1.00922,0.0420891,0.0468575,1322,449,0.798272,19.0623
105,575,-0.360229,-18.7673,0,0,0,0,0,0,0,-1,1329,449,-0.360206,18.7673
112,575,3.88208,-19.6577,0,0,0,0,0,0,0,-1,1336,449,3.88206,19.6577
119,575,3.80261,-18.0537,0,0,0,0,0,0,0,-1,1343,449,3.80255,18.0537
126,575,3.12305,-18.6553,-0.0331741,-0.0375916,0.0136614,-0.021544,-0.0492217,0.705254,0.0284916,0.0492027,1350,449,3.12308,18.6553
133,575,2.32471,-19.1656,-0.027677,-0.0370665,0.00710888,-0.0238525,-0.0408909,0.49357,0.0237174,0.0442808,1357,449,2.32469,19.1657
140,575,2.21216,-19.1412,0,0,0,0,0,0,0,-1,1364,449,2.21215,19.1412
147,575,0.93042,-18.6992,0,0,0,0,0,0,0,-1,1371,449,0.930476,18.6992
154,575,1.01465,-18.115,0,0,0,0,0,0,0,-1,1378,449,1.01469,18.115
161,575,1.05725,-17.5384,0,0,0,0,0,0,0,-1,1385,449,1.0572,17.5384
168,575,0.931152,-15.5912,0,0,0,0,0,0,0,-1,1392,449,0.931185,15.5912
175,575,4.32617,1.93634,0,0,0,0,0,0,0,-1,1399,449,4.32612,-1.93634
182,575,6.3147,-2.88345,0,0,0,0,0,0,0,-1,1406,449,6.31466,2.88346
189,575,6.10449,-1.30817,0,0,0,0,0,0,0,-1,1413,449,6.10455,1.30817
196,575,5.79895,0.818359,0,0,0,0,0,0,0,-1,1420,449,5.79895,-0.81837
203,575,3.29724,-1.46378,0,0,0,0,0,0,0,-1,1427,449,3.29722,1.46377
210,575,2.32739,-7.74503,0,0,0,0,0,0,0,-1,1434,449,2.32741,7.74502
217,575,3.33618,-11.5521,0,0,0,0,0,0,0,-1,1441,449,3.3362,11.5521
224,575,5.51709,-16.3903,0,0,0,0,0,0,0,-1,1448,449,5.51713,16.3903
231,575,5.04883,-18.7856,0,0,0,0,0,0,0,-1,1455,449,5.04889,18.7856
238,575,5.19849,-18.8896,0,0,0,0,0,0,0,-1,1462,449,5.19853,18.8896
245,575,5.01807,-19.0461,0,0,0,0,0,0,0,-1,1469,449,5.0181,19.0461
252,575,4.93689,-18.7393,0,0,0,0,0,0,0,-1,1476,449,4.93692,18.7393
259,575,4.78674,-18.5675,0,0,0,0,0,0,0,-1,1483,449,4.78674,18.5675
266,575,4.8092,-18.2426,0,0,0,0,0,0,0,-1,1490,449,4.80921,18.2426
273,575,4.89465,-17.8249,0,0,0,0,0,0,0,-1,1497,449,4.89468,17.8249
280,575,4.92334,-17.5524,0,0,0,0,0,0,0,-1,1504,449,4.9234,17.5524
287,575,4.94287,-17.3203,0.00166397,0.00238587,-0.00113654,0.0032174,0.000832441,-0.939156,0.0019283,0.0209169,1511,449,4.94281,17.3203
294,575,4.98999,-17.0566,0.00156596,0.00145146,-0.00105042,0.00256069,0.000456732,-0.758176,0.00157709,0.0105101,1518,449,4.98998,17.0566
301,575,4.99927,-16.8134,0.00137605,0.000677731,-0.00105157,0.00213491,-8.11339e-05,-0.625107,0.00145108,0.00966342,1525,449,4.99932,16.8133
308,575,5.01941,-16.5729,0.00115883,8.67228e-05,-0.00111501,0.00185995,-0.0006144,-0.56133,0.00148768,0.0110322,1532,449,5.01943,16.5729
315,575,5.01685,-16.3417,0.00102131,-0.000238474,-0.00110905,0.00166686,-0.000884022,-0.527135,0.00149569,0.011515,1539,449,5.0168,16.3417
322,575,5.04907,-16.098,0.000845562,-0.000302957,-0.000979891,0.00140707,-0.000864462,-0.520351,0.00132388,0.0104445,1546,449,5.0491,16.098
329,575,5.04712,-15.8492,0.000664031,-0.000219212,-0.000763382,0.00110433,-0.00065951,-0.523166,0.00102909,0.0105715,1553,449,5.04717,15.8492
336,575,5.02356,-15.5773,0.000493819,-6.85251e-05,-0.000510101,0.000795107,-0.000369814,-0.533513,0.000687346,0.0117791,1560,449,5.02358,15.5773
343,575,5.04333,-15.2968,0.000279623,0.000157177,-0.000267433,0.000492751,-5.59512e-05,-0.672873,0.000348651,0.0121498,1567,449,5.04328,15.2967
350,575,5.03796,-15.0084,0.000107152,0.000518915,6.31882e-05,0.000528394,9.76735e-05,1.4219,0.00032464,0.0114774,1574,449,5.03792,15.0084
357,575,5.03003,-14.7447,-8.97008e-05,0.00090343,0.000396926,0.00104258,-0.000228846,1.23363,0.000782566,0.0110888,1581,449,5.03002,14.7447
364,575,5.01697,-14.481,-0.00032664,0.00131726,0.000692472,0.00157008,-0.000579455,1.22074,0.00128421,0.0106455,1588,449,5.01696,14.481
371,575,4.98767,-14.2037,-0.000549191,0.00170091,0.000981107,0.00206861,-0.000916892,1.21222,0.00176592,0.0192805,1595,449,4.98762,14.2037
378,575,4.98669,-13.9074,-0.000831197,0.0020911,0.00118757,0.00251284,-0.00125294,1.22956,0.00221436,0.0184279,1602,449,4.98664,13.9074
385,575,4.9729,-13.603,-0.00118345,0.00238689,0.00118382,0.00274374,-0.0015403,1.27802,0.00250571,0.0111528,1609,449,4.97285,13.603
392,575,4.97339,-13.2989,-0.00145003,0.00254122,0.0012258,0.00288763,-0.00179643,1.29538,0.0027287,0.00934875,1616,449,4.97336,13.2989
399,575,4.94983,-13.0237,-0.00160353,0.00269883,0.00131186,0.00306729,-0.00197198,1.29699,0.00293224,0.00951395,1623,449,4.94977,13.0237
406,575,4.94995,-12.7025,-0.00167936,0.00282088,0.00140357,0.00322275,-0.00208123,1.29194,0.0030858,0.0103778,1630,449,4.94995,12.7024
413,575,4.94702,-12.3629,-0.00199507,0.0026351,0.00140553,0.00302836,-0.00238833,1.29798,0.00313459,0.0125058,1637,449,4.94707,12.3628
420,575,4.93079,-12.0434,-0.00296041,0.00247961,0.00191635,0.00308689,-0.00356768,1.26391,0.00384536,0.0131782,1644,449,4.93075,12.0434
427,575,4.87488,-11.7369,-0.00494556,0.00294185,0.00308592,0.00400571,-0.00600942,1.23881,0.00582068,0.0184193,1651,449,4.87488,11.7369
434,575,4.74207,-11.5239,-0.00833357,0.00395983,0.00495238,0.00570667,-0.0100804,1.23169,0.00923054,0.0300079,1658,449,4.74207,11.5239
441,575,4.85657,-11.2698,0,0,0,0,0,0,0,-1,1665,449,4.85656,11.2698
448,575,5.1532,-10.6005,0,0,0,0,0,0,0,-1,1672,449,5.15322,10.6005
455,575,5.18457,-10.32,0,0,0,0,0,0,0,-1,1679,449,5.18458,10.32
462,575,4.34033,-10.9056,0,0,0,0,0,0,0,-1,1686,449,4.34028,10.9056
469,575,4.66638,-9.61841,0,0,0,0,0,0,0,-1,1693,449,4.66639,9.6184
476,575,4.4834,-8.92239,0,0,0,0,0,0,0,-1,1700,449,4.48343,8.9224
483,575,3.87573,-8.05286,0,0,0,0,0,0,0,-1,1707,449,3.87568,8.05287
490,575,5.44751,-9.8313,0,0,0,0,0,0,0,-1,1714,449,5.44751,9.83131
497,575,0,0,0,0,0,0,0,0,0,-1,1721,449,0,0
504,575,0,0,0,0,0,0,0,0,0,-1,1728,449,0,0
511,575,0,0,0,0,0,0,0,0,0,-1,1735,449,0,0
518,575,0,0,0,0,0,0,0,0,0,-1,1742,449,0,0
525,575,0,0,0,0,0,0,0,0,0,-1,1749,449,0,0
532,575,0,0,0,0,0,0,0,0,0,-1,1756,449,0,0
539,575,0,0,0,0,0,0,0,0,0,-1,1763,449,0,0
546,575,0,0,0,0,0,0,0,0,0,-1,1770,449,0,0
553,575,0,0,0,0,0,0,0,0,0,-1,1777,449,0,0
560,575,0,0,0,0,0,0,0,0,0,-1,1784,449,0,0
567,575,0,0,0,0,0,0,0,0,0,-1,1791,449,0,0
574,575,0,0,0,0,0,0,0,0,0,-1,1798,449,0,0
581,575,0,0,0,0,0,0,0,0,0,-1,1805,449,0,0
588,575,0,0,0,0,0,0,0,0,0,-1,1812,449,0,0
595,575,0,0,0,0,0,0,0,0,0,-1,1819,449,0,0
602,575,0,0,0,0,0,0,0,0,0,-1,1826,449,0,0
609,575,0,0,0,0,0,0,0,0,0,-1,1833,449,0,0
616,575,0,0,0,0,0,0,0,0,0,-1,1840,449,0,0
623,575,0,0,0,0,0,0,0,0,0,-1,1847,449,0,0
630,575,0,0,0,0,0,0,0,0,0,-1,1854,449,0,0
637,575,0,0,0,0,0,0,0,0,0,-1,1861,449,0,0
644,575,0,0,0,0,0,0,0,0,0,-1,1868,449,0,0
651,575,0,0,0,0,0,0,0,0,0,-1,1875,449,0,0
658,575,0,0,0,0,0,0,0,0,0,-1,1882,449,0,0
665,575,0,0,0,0,0,0,0,0,0,-1,1889,449,0,0
672,575,0,0,0,0,0,0,0,0,0,-1,1896,449,0,0
679,575,0,0,0,0,0,0,0,0,0,-1,1903,449,0,0
686,575,0,0,0,0,0,0,0,0,0,-1,1910,449,0,0
693,575,0,0,0,0,0,0,0,0,0,-1,1917,449,0,0
700,575,0,0,0,0,0,0,0,0,0,-1,1924,449,0,0
707,575,0,0,0,0,0,0,0,0,0,-1,1931,449,0,0
714,575,0,0,0,0,0,0,0,0,0,-1,1938,449,0,0
721,575,0,0,0,0,0,0,0,0,0,-1,1945,449,0,0
728,575,0,0,0,0,0,0,0,0,0,-1,1952,449,0,0
735,575,0,0,0,0,0,0,0,0,0,-1,1959,449,0,0
742,575,0,0,0,0,0,0,0,0,0,-1,1966,449,0,0
749,575,0,0,0,0,0,0,0,0,0,-1,1973,449,0,0
756,575,0,0,0,0,0,0,0,0,0,-1,1980,449,0,0
763,575,0,0,0,0,0,0,0,0,0,-1,1987,449,0,0
770,575,0,0,0,0,0,0,0,0,0,-1,1994,449,0,0
777,575,0,0,0,0,0,0,0,0,0,-1,2001,449,0,0
784,575,0,0,0,0,0,0,0,0,0,-1,2008,449,0,0
791,575,0,0,0,0,0,0,0,0,0,-1,2015,449,0,0
798,575,0,0,0,0,0,0,0,0,0,-1,2022,449,0,0
805,575,0,0,0,0,0,0,0,0,0,-1,2029,449,0,0
812,575,0,0,0,0,0,0,0,0,0,-1,2036,449,0,0
-700,568,0,0,0,0,0,0,0,0,0,-1,524,456,0,0
-693,568,0,0,0,0,0,0,0,0,0,-1,531,456,0,0
-686,568,0,0,0,0,0,0,0,0,0,-1,538,456,0,0
-679,568,0,0,0,0,0,0,0,0,0,-1,545,456,0,0
-672,568,0,0,0,0,0,0,0,0,0,-1,552,456,0,0
-665,568,0,0,0,0,0,0,0,0,0,-1,559,456,0,0
-658,568,0,0,0,0,0,0,0,0,0,-1,566,456,0,0
-651,568,0,0,0,0,0,0,0,0,0,-1,573,456,0,0
-644,568,0,0,0,0,0,0,0,0,0,-1,580,456,0,0
-637,568,0,0,0,0,0,0,0,0,0,-1,587,456,0,0
-630,568,0,0,0,0,0,0,0,0,0,-1,594,456,0,0
-623,568,0,0,0,0,0,0,0,0,0,-1,601,456,0,0
-616,568,0,0,0,0,0,0,0,0,0,-1,608,456,0,0
-609,568,0,0,0,0,0,0,0,0,0,-1,615,456,0,0
-602,568,0,0,0,0,0,0,0,0,0,-1,622,456,0,0
-595,568,0,0,0,0,0,0,0,0,0,-1,629,456,0,0
-588,568,0,0,0,0,0,0,0,0,0,-1,636,456,0,0
-581,568,0,0,0,0,0,0,0,0,0,-1,643,456,0,0
-574,568,0,0,0,0,0,0,0,0,0,-1,650,456,0,0
-567,568,0,0,0,0,0,0,0,0,0,-1,657,456,0,0
-560,568,0,0,0,0,0,0,0,0,0,-1,664,456,0,0
-553,568,0,0,0,0,0,0,0,0,0,-1,671,456,0,0
-546,568,0,0,0,0,0,0,0,0,0,-1,678,456,0,0
-539,568,0,0,0,0,0,0,0,0,0,-1,685,456,0,0
-532,568,0,0,0,0,0,0,0,0,0,-1,692,456,0,0
-525,568,0,0,0,0,0,0,0,0,0,-1,699,456,0,0
-518,568,0,0,0,0,0,0,0,0,0,-1,706,456,0,0
-511,568,0,0,0,0,0,0,0,0,0,-1,713,456,0,0
-504,568,0,0,0,0,0,0,0,0,0,-1,720,456,0,0
-497,568,0,0,0,0,0,0,0,0,0,-1,727,456,0,0
-490,568,0,0,0,0,0,0,0,0,0,-1,734,456,0,0
-483,568,0,0,0,0,0,0,0,0,0,-1,741,456,0,0
-476,568,0,0,0,0,0,0,0,0,0,-1,748,456,0,0
-469,568,0,0,0,0,0,0,0,0,0,-1,755,456,0,0
-462,568,0,0,0,0,0,0,0,0,0,-1,762,456,0,0
-455,568,0,0,0,0,0,0,0,0,0,-1,769,456,0,0
-448,568,0,0,0,0,0,0,0,0,0,-1,776,456,0,0
-441,568,0,0,0,0,0,0,0,0,0,-1,783,456,0,0
-434,568,0,0,0,0,0,0,0,0,0,-1,790,456,0,0
-427,568,0,0,0,0,0,0,0,0,0,-1,797,456,0,0
-420,568,0,0,0,0,0,0,0,0,0,-1,804,456,0,0
-413,568,0,0,0,0,0,0,0,0,0,-1,811,456,0,0
-406,568,0,0,0,0,0,0,0,0,0,-1,818,456,0,0
-399,568,0,0,0,0,0,0,0,0,0,-1,825,456,0,0
-392,568,0,0,0,0,0,0,0,0,0,-1,832,456,0,0
-385,568,0,0,0,0,0,0,0,0,0,-1,839,456,0,0
-378,568,0.321777,-7.29929,0,0,0,0,0,0,0,-1,846,456,0.321806,7.29927
-371,568,1.09595,-7.46707,0,0,0,0,0,0,0,-1,853,456,1.09597,7.46707
-364,568,1.87787,-7.61115,0,0,0,0,0,0,0,-1,860,456,1.87784,7.61116
-357,568,2.14166,-7.67645,0,0,0,0,0,0,0,-1,867,456,2.14167,7.67646
-350,568,2.40472,-8.64417,0,0,0,0,0,0,0,-1,874,456,2.4047,8.64415
-343,568,2.67731,-8.79678,0,0,0,0,0,0,0,-1,881,456,2.67729,8.79678
-336,568,1.29834,-11.631,0,0,0,0,0,0,0,-1,888,456,1.29832,11.6309
-329,568,1.48993,-11.7981,-0.00475326,0.005048,-0.00896882,0.0103677,-0.010073,-1.03544,0.0118019,0.0468186,895,456,1.4899,11.7981
-322,568,1.53406,-12.0347,-0.00288821,0.00504854,-0.00936503,0.0112513,-0.00909096,-0.985801,0.0117667,0.0398864,902,456,1.53408,12.0347
-315,568,1.56818,-12.2978,-0.00148257,0.00542044,-0.0094787,0.0120565,-0.00811861,-0.960003,0.0117218,0.0373231,909,456,1.56816,12.2978
-308,568,1.65564,-12.6698,-0.000384766,0.0053463,-0.00919212,0.0121092,-0.00714765,-0.936493,0.0112403,0.0278911,916,456,1.65566,12.6698
-301,568,1.71735,-13.0067,0.000417681,0.00504025,-0.00854159,0.0115777,-0.00611981,-0.91753,0.0103784,0.0156524,923,456,1.71733,13.0067
-294,568,1.70056,-13.2658,0.000951789,0.00450495,-0.0074677,0.0104045,-0.00494775,-0.902178,0.00904833,0.0118108,930,456,1.70059,13.2658
-287,568,1.67651,-13.5676,0.00108349,0.00404883,-0.00636099,0.00909766,-0.00396534,-0.899898,0.00773353,0.0108069,937,456,1.67649,13.5676
-280,568,1.65906,-13.8745,0.00104315,0.00351234,-0.00527447,0.00769477,-0.00313929,-0.900363,0.00643673,0.0106852,944,456,1.65903,13.8745
-273,568,1.64594,-14.1572,0.000895658,0.00300302,-0.00419572,0.00627534,-0.00237666,-0.90842,0.00516151,0.0113864,951,456,1.64594,14.1572
-266,568,1.63556,-14.4431,0.000726418,0.00225266,-0.00316946,0.00474957,-0.0017705,-0.903536,0.00389314,0.0114456,958,456,1.63557,14.4431
-259,568,1.60864,-14.7264,0.000456695,0.00132223,-0.0021446,0.0030773,-0.00129837,-0.884958,0.00259495,0.0124734,965,456,1.60867,14.7264
-252,568,1.56586,-14.9818,0.000260499,0.000246699,-0.00122619,0.00147981,-0.000972615,-0.782585,0.00142597,0.0122759,972,456,1.56584,14.9818
-245,568,1.56671,-15.2321,0.000458493,-0.00112056,-0.000399077,0.000553621,-0.00121569,-0.234004,0.00104508,0.0139387,979,456,1.56669,15.2321
-238,568,1.57947,-15.5027,0.000409482,-0.00257557,0.000459338,0.000478566,-0.00264466,0.14928,0.00194238,0.0129142,986,456,1.57945,15.5027
-231,568,1.58997,-15.7675,0.000208841,-0.00414434,0.00120363,0.00051947,-0.00445497,0.252567,0.00315742,0.0113463,993,456,1.58999,15.7675
-224,568,1.59637,-16.0043,0.000183084,-0.005684,0.00180115,0.000691899,-0.00619282,0.27532,0.00437744,0.0129613,1000,456,1.5964,16.0043
-217,568,1.60992,-16.2422,0.000353288,-0.00720455,0.00240934,0.00105602,-0.00790728,0.283795,0.00565648,0.0112163,1007,456,1.60994,16.2422
-210,568,1.61328,-16.4957,0.000646184,-0.00861749,0.00290685,0.00148277,-0.00945408,0.280226,0.00685067,0.0110902,1014,456,1.61328,16.4957
-203,568,1.61237,-16.7331,0.00109659,-0.00933335,0.00311848,0.00195787,-0.0101946,0.269469,0.00753433,0.0100548,1021,456,1.61235,16.7331
-196,568,1.63623,-16.9439,0.00144231,-0.00960043,0.00324429,0.00232491,-0.010483,0.265621,0.00787885,0.0132601,1028,456,1.63624,16.9439
-189,568,1.6394,-17.1707,0.00175335,-0.00947568,0.00318837,0.0025955,-0.0103178,0.258234,0.00788738,0.0140713,1035,456,1.63938,17.1708
-182,568,1.64551,-17.392,0.00223518,-0.00906415,0.00305342,0.00300752,-0.00983648,0.247745,0.007757,0.015319,1042,456,1.64553,17.392
-175,568,1.67358,-17.5926,0.00285822,-0.00851377,0.00272777,0.00347867,-0.00913422,0.223652,0.00752212,0.0130795,1049,456,1.67364,17.5926
-168,568,1.69971,-17.7266,0.00334498,-0.00789767,0.00198151,0.003684,-0.00823669,0.16945,0.00704774,0.0158973,1056,456,1.69974,17.7266
-161,568,1.68787,-17.8788,0.00353215,-0.00680172,0.0010494,0.00363764,-0.00690721,0.100187,0.00618486,0.0268375,1063,456,1.68789,17.8788
-154,568,1.8241,-18.2351,0.00389933,-0.0060428,0.000203409,0.00390349,-0.00604696,0.0204479,0.00578916,0.0383997,1070,456,1.82414,18.2351
-147,568,1.92493,-18.3926,0.00422317,-0.00535909,-0.000640232,0.00426576,-0.00540168,-0.0664208,0.00559432,0.045298,1077,456,1.92497,18.3926
-140,568,1.82458,-18.6179,0.00437982,-0.0049533,-0.00152656,0.00462316,-0.00519664,-0.158077,0.00567269,0.0459117,1084,456,1.82456,18.6179
-133,568,1.77246,-18.364,0,0,0,0,0,0,0,-1,1091,456,1.77246,18.364
-126,568,2.00671,-18.052,0,0,0,0,0,0,0,-1,1098,456,2.00674,18.052
-119,568,1.98328,-18.0954,0,0,0,0,0,0,0,-1,1105,456,1.9833,18.0954
-112,568,1.77209,-18.9106,0,0,0,0,0,0,0,-1,1112,456,1.77212,18.9107
-105,568,0.272095,-16.297,0,0,0,0,0,0,0,-1,1119,456,0.272141,16.297
-98,568,1.58618,-14.7874,0,0,0,0,0,0,0,-1,1126,456,1.58617,14.7874
-91,568,1.11621,-11.1853,0,0,0,0,0,0,0,-1,1133,456,1.11626,11.1853
-84,568,0.461792,-9.7959,0,0,0,0,0,0,0,-1,1140,456,0.461793,9.7959
-77,568,-1.13806,-8.57822,0,0,0,0,0,0,0,-1,1147,456,-1.13807,8.57821
-70,568,-4.09766,-1.42911,0,0,0,0,0,0,0,-1,1154,456,-4.09767,1.4291
-63,568,-5.92273,-3.70752,0,0,0,0,0,0,0,-1,1161,456,-5.92272,3.70751
-56,568,-5.24158,-6.01385,0,0,0,0,0,0,0,-1,1168,456,-5.24161,6.01386
-49,568,-5.24365,-8.33557,0,0,0,0,0,0,0,-1,1175,456,-5.24371,8.33557
-42,568,-0.664795,0.521973,0,0,0,0,0,0,0,-1,1182,456,-0.664829,-0.521984
-35,568,-0.153076,-1.67731,0,0,0,0,0,0,0,-1,1189,456,-0.153068,1.67731
-28,568,1.25439,-4.48798,0,0,0,0,0,0,0,-1,1196,456,1.2544,4.48797
-21,568,18.8234,-17.9428,0,0,0,0,0,0,0,-1,1203,456,18.8234,17.9428
-14,568,17.8555,-18.1743,-0.103608,-0.129202,0.0319374,-0.0819991,-0.150811,0.594848,0.0871815,0.0446374,1210,456,17.8554,18.1743
-7,568,16.5813,-18.3291,-0.109048,-0.130071,0.0294879,-0.0882539,-0.150865,0.614187,0.0875202,0.0451395,1217,456,16.5814,18.3291
0,568,15.3682,-18.7906,-0.11151,-0.128496,0.0254747,-0.0931498,-0.146856,0.624502,0.0858007,0.0470955,1224,456,15.3682,18.7906
7,568,14.1498,-19.25,-0.111236,-0.125348,0.0203834,-0.096722,-0.139862,0.618779,0.082701,0.0413884,1231,456,14.1498,19.25
14,568,12.8132,-19.528,-0.109515,-0.121109,0.0147572,-0.0994571,-0.131167,0.598242,0.0790246,0.0406912,1238,456,12.8132,19.528
21,568,11.6174,-19.7046,-0.106979,-0.11487,0.0086079,-0.101456,-0.120394,0.570516,0.0747537,0.0413739,1245,456,11.6175,19.7046
28,568,10.4558,-20.0702,-0.105655,-0.10775,0.00345489,-0.103092,-0.110313,0.638179,0.071257,0.0434595,1252,456,10.4558,20.0702
35,568,9.60803,-20.0018,-0.106246,-0.100199,0.0003071,-0.100183,-0.106261,1.52018,0.0689044,0.0403946,1259,456,9.60805,20.0018
42,568,8.70251,-19.9119,-0.107556,-0.0929192,-0.00178342,-0.092705,-0.107771,-1.45128,0.0673889,0.0414001,1266,456,8.70248,19.9119
49,568,7.66577,-19.7773,-0.106753,-0.0862529,-0.0018017,-0.0860958,-0.10691,-1.4838,0.0654482,0.0461986,1273,456,7.66577,19.7773
56,568,6.896,-19.6557,-0.105799,-0.0781837,-0.000820656,-0.0781593,-0.105824,-1.54111,0.0633735,0.0447532,1280,456,6.89596,19.6557
63,568,6.58899,-19.1284,-0.104162,-0.0703674,0.00222097,-0.070222,-0.104307,1.50545,0.0614148,0.0455701,1287,456,6.58897,19.1284
70,568,6.19788,-19.5934,0,0,0,0,0,0,0,-1,1294,456,6.19789,19.5934
77,568,4.80896,-19.5906,-0.0974386,-0.0569053,0.0137767,-0.0526662,-0.101678,1.27229,0.0587163,0.0455611,1301,456,4.80891,19.5906
84,568,2.99426,-19.1033,-0.0913613,-0.0522229,0.0189461,-0.0445542,-0.0990301,1.18619,0.0572706,0.0474714,1308,456,2.99424,19.1033
91,568,1.68726,-18.8711,-0.0836127,-0.0481085,0.0215557,-0.037936,-0.0937853,1.12987,0.0544752,0.0445758,1315,456,1.68721,18.8711
98,568,0.328125,-18.4449,-0.075929,-0.0456046,0.0238078,-0.0325408,-0.0889928,1.06894,0.0519945,0.0453317,1322,456,0.328105,18.4449
105,568,-1.06982,-17.3767,0,0,0,0,0,0,0,-1,1329,456,-1.06987,17.3767
112,568,-2.20471,-16.309,0,0,0,0,0,0,0,-1,1336,456,-2.20471,16.309
119,568,2.44495,-18.3878,-0.0479802,-0.039425,0.0188074,-0.0244149,-0.0629903,0.897216,0.0366725,0.0427274,1343,456,2.4449,18.3878
126,568,2.11584,-18.5012,-0.0393658,-0.0395832,0.0128676,-0.0266064,-0.0523426,0.781175,0.0302214,0.0463218,1350,456,2.11586,18.5012
133,568,2.00586,-18.6068,-0.0318501,-0.0388242,0.00363227,-0.030302,-0.0403723,0.402897,0.024265,0.0481489,1357,456,2.00589,18.6068
140,568,1.16626,-19.3584,-0.0272017,-0.0376263,-0.00789241,-0.0229558,-0.0418722,-0.493566,0.0242124,0.0452586,1364,456,1.16631,19.3584
147,568,0.12085,-18.0738,0,0,0,0,0,0,0,-1,1371,456,0.120838,18.0738
154,568,0.2229,-17.4728,0,0,0,0,0,0,0,-1,1378,456,0.222897,17.4728
161,568,3.08923,-26.3688,0,0,0,0,0,0,0,-1,1385,456,3.08921,26.3688
168,568,-0.458252,-13.0519,0,0,0,0,0,0,0,-1,1392,456,-0.458298,13.0519
175,568,10.5151,0.747498,0,0,0,0,0,0,0,-1,1399,456,10.5152,-0.747501
182,568,6.35095,-3.63361,0,0,0,0,0,0,0,-1,1406,456,6.35093,3.63359
189,568,6.17493,-1.70911,0,0,0,0,0,0,0,-1,1413,456,6.17497,1.70911
196,568,6.04724,0.200836,0,0,0,0,0,0,0,-1,1420,456,6.04724,-0.200835
203,568,5.9281,2.08649,0,0,0,0,0,0,0,-1,1427,456,5.92812,-2.08648
210,568,1.46216,-2.50446,0,0,0,0,0,0,0,-1,1434,456,1.46219,2.50446
217,568,2.62366,-7.86703,0,0,0,0,0,0,0,-1,1441,456,2.62365,7.86704
224,568,3.43494,-12.1555,0,0,0,0,0,0,0,-1,1448,456,3.43492,12.1555
231,568,4.38245,-9.3205,0,0,0,0,0,0,0,-1,1455,456,4.38244,9.32048
238,568,3.88123,-9.43616,0,0,0,0,0,0,0,-1,1462,456,3.88117,9.43617
245,568,3.34387,-10.6774,0,0,0,0,0,0,0,-1,1469,456,3.34389,10.6774
252,568,3.56946,-9.28928,0,0,0,0,0,0,0,-1,1476,456,3.56948,9.28928
259,568,3.38843,-8.73068,0,0,0,0,0,0,0,-1,1483,456,3.38842,8.73068
266,568,3.104,-9.16876,0,0,0,0,0,0,0,-1,1490,456,3.10397,9.16876
273,568,3.77869,-13.1147,0,0,0,0,0,0,0,-1,1497,456,3.77869,13.1147
280,568,4.40002,-14.9322,0,0,0,0,0,0,0,-1,1504,456,4.4,14.9322
287,568,5.2157,-17.395,0,0,0,0,0,0,0,-1,1511,456,5.21571,17.395
294,568,5.30249,-17.0275,0.00183421,0.00150361,-0.00166507,0.00334217,-4.34218e-06,-0.735923,0.00222956,0.0295513,1518,456,5.30244,17.0275
301,568,5.25476,-16.7929,0.00164824,0.000456905,-0.00173259,0.0028847,-0.00077956,-0.619828,0.0022289,0.0201797,1525,456,5.2548,16.7929
308,568,5.25525,-16.5483,0.00135537,-0.000452291,-0.00191944,0.00257313,-0.00167005,-0.565356,0.00246823,0.0137515,1532,456,5.25526,16.5483
315,568,5.25391,-16.3049,0.00117704,-0.000998184,-0.00197557,0.00234459,-0.00216574,-0.533773,0.00260472,0.00896446,1539,456,5.25391,16.3049
322,568,5.27954,-16.0842,0.000987806,-0.00115687,-0.00184286,0.00204761,-0.00221667,-0.5219,0.00246263,0.0100323,1546,456,5.27959,16.0842
329,568,5.29041,-15.8336,0.000795069,-0.00110879,-0.00161252,0.00171567,-0.0020294,-0.518755,0.00216475,0.0101725,1553,456,5.2904,15.8336
336,568,5.2926,-15.5537,0.000618591,-0.00097931,-0.00134047,0.00138015,-0.00174086,-0.516653,0.00180592,0.0109628,1560,456,5.29257,15.5537
343,568,5.31653,-15.2727,0.000401408,-0.000734974,-0.00106129,0.00103703,-0.0013706,-0.539623,0.00139449,0.0115546,1567,456,5.31652,15.2727
350,568,5.31738,-15.0239,0.000249731,-0.00038008,-0.0006831,0.000687016,-0.000817366,-0.569418,0.000869641,0.0103389,1574,456,5.31737,15.0239
357,568,5.30225,-14.7587,0.000101414,3.55167e-05,-0.000296809,0.000367098,-0.000230167,-0.73012,0.000347839,0.0089353,1581,456,5.30223,14.7587
364,568,5.31262,-14.4958,-7.26444e-05,0.000489596,7.47014e-05,0.000499352,-8.24002e-05,1.44093,0.000363495,0.0107642,1588,456,5.31267,14.4958
371,568,5.31445,-14.2046,-0.000237334,0.000901221,0.000432124,0.00104665,-0.000382765,1.24615,0.000854429,0.0206462,1595,456,5.31449,14.2046
378,568,5.29785,-13.9066,-0.000437335,0.00128961,0.000693381,0.00153355,-0.000681275,1.23251,0.00130991,0.0201842,1602,456,5.29787,13.9067
385,568,5.26941,-13.6109,-0.000675462,0.00163627,0.000790679,0.00188084,-0.000920024,1.27082,0.00164849,0.0102274,1609,456,5.26945,13.6109
392,568,5.26184,-13.3061,-0.000868148,0.00180311,0.000917493,0.00208788,-0.00115292,1.26984,0.00189686,0.0113086,1616,456,5.26181,13.3061
399,568,5.23035,-13.0407,-0.000975715,0.00198643,0.00105333,0.00232279,-0.00131208,1.2617,0.00212547,0.0172767,1623,456,5.23038,13.0407
406,568,5.24475,-12.7362,-0.00102589,0.00208055,0.00117701,0.00247613,-0.00142148,1.24656,0.00227758,0.0146616,1630,456,5.24473,12.7362
413,568,5.24573,-12.3931,-0.0012664,0.00196554,0.00125197,0.00239378,-0.00169463,1.24122,0.00237192,0.0119818,1637,456,5.24575,12.3931
420,568,5.2312,-12.0544,-0.00205921,0.00185865,0.00170817,0.00249881,-0.00269937,1.21223,0.00300191,0.0106493,1644,456,5.23115,12.0544
427,568,5.20679,-11.7212,-0.00366606,0.0022447,0.00266242,0.0032671,-0.00468847,1.20415,0.00461752,0.0122477,1651,456,5.20677,11.7212
434,568,5.20447,-11.4394,-0.00631514,0.00300356,0.00415844,0.00458938,-0.00790096,1.20647,0.0072953,0.0165032,1658,456,5.20445,11.4394
441,568,5.20313,-11.1893,-0.00889887,0.00362137,0.00567945,0.00581378,-0.0110913,1.2024,0.00991741,0.0242737,1665,456,5.20318,11.1893
448,568,5.3197,-10.6697,-0.012426,0.00456708,0.00774231,0.00756553,-0.0154244,1.2013,0.0135293,0.0401536,1672,456,5.31968,10.6697
455,568,5.41321,-10.3623,-0.0170296,0.00568738,0.0102712,0.00964272,-0.0209849,1.20321,0.0180825,0.0491228,1679,456,5.41319,10.3623
462,568,5.59741,-10.1019,0,0,0,0,0,0,0,-1,1686,456,5.59742,10.1019
469,568,5.01538,-9.67871,-0.0295348,0.00983487,0.0169617,0.0161345,-0.0358344,1.21518,0.0307144,0.0480942,1693,456,5.01544,9.67872
476,568,4.70007,-9.01251,-0.0374315,0.0126676,0.0207956,0.0201748,-0.0449386,1.22436,0.0384888,0.0490147,1700,456,4.70002,9.01251
483,568,4.07813,-8.189,-0.0461651,0.0159299,0.0247687,0.0245993,-0.0548346,1.23411,0.0469555,0.0465192,1707,456,4.07817,8.189
490,568,3.60632,-7.35922,0,0,0,0,0,0,0,-1,1714,456,3.60635,7.35921
497,568,6.58289,-3.47745,0,0,0,0,0,0,0,-1,1721,456,6.58294,3.47744
504,568,0,0,0,0,0,0,0,0,0,-1,1728,456,0,0
511,568,0,0,0,0,0,0,0,0,0,-1,1735,456,0,0
518,568,0,0,0,0,0,0,0,0,0,-1,1742,456,0,0
525,568,0,0,0,0,0,0,0,0,0,-1,1749,456,0,0
532,568,0,0,0,0,0,0,0,0,0,-1,1756,456,0,0
539,568,0,0,0,0,0,0,0,0,0,-1,1763,456,0,0
546,568,0,0,0,0,0,0,0,0,0,-1,1770,456,0,0
553,568,0,0,0,0,0,0,0,0,0,-1,1777,456,0,0
560,568,0,0,0,0,0,0,0,0,0,-1,1784,456,0,0
567,568,0,0,0,0,0,0,0,0,0,-1,1791,456,0,0
574,568,0,0,0,0,0,0,0,0,0,-1,1798,456,0,0
581,568,0,0,0,0,0,0,0,0,0,-1,1805,456,0,0
588,568,0,0,0,0,0,0,0,0,0,-1,1812,456,0,0
595,568,0,0,0,0,0,0,0,0,0,-1,1819,456,0,0
602,568,0,0,0,0,0,0,0,0,0,-1,1826,456,0,0
609,568,0,0,0,0,0,0,0,0,0,-1,1833,456,0,0
616,568,0,0,0,0,0,0,0,0,0,-1,1840,456,0,0
623,568,0,0,0,0,0,0,0,0,0,-1,1847,456,0,0
630,568,0,0,0,0,0,0,0,0,0,-1,1854,456,0,0
637,568,0,0,0,0,0,0,0,0,0,-1,1861,456,0,0
644,568,0,0,0,0,0,0,0,0,0,-1,1868,456,0,0
651,568,0,0,0,0,0,0,0,0,0,-1,1875,456,0,0
658,568,0,0,0,0,0,0,0,0,0,-1,1882,456,0,0
665,568,0,0,0,0,0,0,0,0,0,-1,1889,456,0,0
672,568,0,0,0,0,0,0,0,0,0,-1,1896,456,0,0
679,568,0,0,0,0,0,0,0,0,0,-1,1903,456,0,0
686,568,0,0,0,0,0,0,0,0,0,-1,1910,456,0,0
693,568,0,0,0,0,0,0,0,0,0,-1,1917,456,0,0
700,568,0,0,0,0,0,0,0,0,0,-1,1924,456,0,0
707,568,0,0,0,0,0,0,0,0,0,-1,1931,456,0,0
714,568,0,0,0,0,0,0,0,0,0,-1,1938,456,0,0
721,568,0,0,0,0,0,0,0,0,0,-1,1945,456,0,0
728,568,0,0,0,0,0,0,0,0,0,-1,1952,456,0,0
735,568,0,0,0,0,0,0,0,0,0,-1,1959,456,0,0
742,568,0,0,0,0,0,0,0,0,0,-1,1966,456,0,0
749,568,0,0,0,0,0,0,0,0,0,-1,1973,456,0,0
756,568,0,0,0,0,0,0,0,0,0,-1,1980,456,0,0
763,568,0,0,0,0,0,0,0,0,0,-1,1987,456,0,0
770,568,0,0,0,0,0,0,0,0,0,-1,1994,456,0,0
777,568,0,0,0,0,0,0,0,0,0,-1,2001,456,0,0
784,568,0,0,0,0,0,0,0,0,0,-1,2008,456,0,0
791,568,0,0,0,0,0,0,0,0,0,-1,2015,456,0,0
798,568,0,0,0,0,0,0,0,0,0,-1,2022,456,0,0
805,568,0,0,0,0,0,0,0,0,0,-1,2029,456,0,0
812,568,0,0,0,0,0,0,0,0,0,-1,2036,456,0,0
-700,561,0,0,0,0,0,0,0,0,0,-1,524,463,0,0
-693,561,0,0,0,0,0,0,0,0,0,-1,531,463,0,0
-686,561,0,0,0,0,0,0,0,0,0,-1,538,463,0,0
-679,561,0,0,0,0,0,0,0,0,0,-1,545,463,0,0
-672,561,0,0,0,0,0,0,0,0,0,-1,552,463,0,0
-665,561,0,0,0,0,0,0,0,0,0,-1,559,463,0,0
-658,561,0,0,0,0,0,0,0,0,0,-1,566,463,0,0
-651,561,0,0,0,0,0,0,0,0,0,-1,573,463,0,0
-644,561,0,0,0,0,0,0,0,0,0,-1,580,463,0,0
-637,561,0,0,0,0,0,0,0,0,0,-1,587,463,0,0
-630,561,0,0,0,0,0,0,0,0,0,-1,594,463,0,0
-623,561,0,0,0,0,0,0,0,0,0,-1,601,463,0,0
-616,561,0,0,0,0,0,0,0,0,0,-1,608,463,0,0
-609,561,0,0,0,0,0,0,0,0,0,-1,615,463,0,0
-602,561,0,0,0,0,0,0,0,0,0,-1,622,463,0,0
-595,561,0,0,0,0,0,0,0,0,0,-1,629,463,0,0
-588,561,0,0,0,0,0,0,0,0,0,-1,636,463,0,0
-581,561,0,0,0,0,0,0,0,0,0,-1,643,463,0,0
-574,561,0,0,0,0,0,0,0,0,0,-1,650,463,0,0
-567,561,0,0,0,0,0,0,0,0,0,-1,657,463,0,0
-560,561,0,0,0,0,0,0,0,0,0,-1,664,463,0,0
-553,561,0,0,0,0,0,0,0,0,0,-1,671,463,0,0
-546,561,0,0,0,0,0,0,0,0,0,-1,678,463,0,0
-539,561,0,0,0,0,0,0,0,0,0,-1,685,463,0,0
-532,561,0,0,0,0,0,0,0,0,0,-1,692,463,0,0
-525,561,0,0,0,0,0,0,0,0,0,-1,699,463,0,0
-518,561,0,0,0,0,0,0,0,0,0,-1,706,463,0,0
-511,561,0,0,0,0,0,0,0,0,0,-1,713,463,0,0
-504,561,0,0,0,0,0,0,0,0,0,-1,720,463,0,0
-497,561,0,0,0,0,0,0,0,0,0,-1,727,463,0,0
-490,561,0,0,0,0,0,0,0,0,0,-1,734,463,0,0
-483,561,0,0,0,0,0,0,0,0,0,-1,741,463,0,0
-476,561,0,0,0,0,0,0,0,0,0,-1,748,463,0,0
-469,561,0,0,0,0,0,0,0,0,0,-1,755,463,0,0
-462,561,0,0,0,0,0,0,0,0,0,-1,762,463,0,0
-455,561,0,0,0,0,0,0,0,0,0,-1,769,463,0,0
-448,561,0,0,0,0,0,0,0,0,0,-1,776,463,0,0
-441,561,0,0,0,0,0,0,0,0,0,-1,783,463,0,0
-434,561,0,0,0,0,0,0,0,0,0,-1,790,463,0,0
-427,561,0,0,0,0,0,0,0,0,0,-1,797,463,0,0
-420,561,0,0,0,0,0,0,0,0,0,-1,804,463,0,0
-413,561,0,0,0,0,0,0,0,0,0,-1,811,463,0,0
-406,561,0,0,0,0,0,0,0,0,0,-1,818,463,0,0
-399,561,0,0,0,0,0,0,0,0,0,-1,825,463,0,0
-392,561,4.92407,-2.54578,0,0,0,0,0,0,0,-1,832,463,4.92408,2.54576
-385,561,5.55634,-1.02338,0,0,0,0,0,0,0,-1,839,463,5.55634,1.02338
-378,561,0.160522,-4.51785,0,0,0,0,0,0,0,-1,846,463,0.160542,4.51785
-371,561,1.06299,-7.56818,0,0,0,0,0,0,0,-1,853,463,1.06297,7.56817
-364,561,1.45264,-7.57684,0,0,0,0,0,0,0,-1,860,463,1.45264,7.57684
-357,561,1.29395,-8.94031,0,0,0,0,0,0,0,-1,867,463,1.29393,8.94031
-350,561,1.61902,-9.08127,0,0,0,0,0,0,0,-1,874,463,1.61905,9.08126
-343,561,1.77527,-10.8242,0,0,0,0,0,0,0,-1,881,463,1.77529,10.8242
-336,561,1.38953,-11.5104,0,0,0,0,0,0,0,-1,888,463,1.38954,11.5104
-329,561,1.38385,-11.8253,-0.0042547,0.00387357,-0.00618933,0.00721383,-0.00759496,-1.07591,0.0085508,0.0375494,895,463,1.38384,11.8253
-322,561,1.36823,-12.0523,-0.00267489,0.00390625,-0.00656991,0.00796357,-0.00673222,-1.01756,0.00849454,0.0280502,902,463,1.36822,12.0523
-315,561,1.43695,-12.2527,-0.00144046,0.00424273,-0.00677281,0.0087459,-0.00594363,-0.984025,0.00853229,0.0197605,909,463,1.43698,12.2527
-308,561,1.45233,-12.6151,-0.000471855,0.00412503,-0.0066091,0.00882395,-0.00517077,-0.952741,0.0081711,0.0158704,916,463,1.4523,12.6152
-301,561,1.43591,-12.9991,0.000226204,0.00376667,-0.00612815,0.00837515,-0.00438227,-0.926005,0.00748479,0.0120351,923,463,1.43592,12.9991
-294,561,1.40887,-13.2797,0.000784905,0.00319507,-0.00537696,0.00750034,-0.00352036,-0.895636,0.00649964,0.0105923,930,463,1.4089,13.2797
-287,561,1.3833,-13.5691,0.000997479,0.0027591,-0.0045357,0.00649872,-0.00274215,-0.881302,0.0054802,0.0095405,937,463,1.38332,13.5691
-280,561,1.35748,-13.8591,0.000998245,0.00219006,-0.00370256,0.00534436,-0.00215606,-0.865187,0.00445888,0.0115522,944,463,1.3575,13.8591
-273,561,1.35376,-14.1445,0.000922737,0.0015755,-0.00281874,0.0040867,-0.00158846,-0.843037,0.00338072,0.0139597,951,463,1.35378,14.1445
-266,561,1.35492,-14.4271,0.000879087,0.000636584,-0.00194617,0.00270778,-0.00119211,-0.754287,0.00230758,0.00939194,958,463,1.35492,14.4271
-259,561,1.34589,-14.699,0.000742767,-0.00045593,-0.00105084,0.00135317,-0.00106633,-0.526232,0.00140016,0.0102185,965,463,1.34588,14.699
-252,561,1.32813,-14.9664,0.000642041,-0.00174045,-0.000199956,0.000658707,-0.00175711,-0.0831522,0.00144203,0.0139174,972,463,1.3281,14.9664
-245,561,1.32733,-15.2346,0.000791108,-0.00337399,0.000610414,0.000878724,-0.0034616,0.142562,0.00264967,0.0168591,979,463,1.32735,15.2346
-238,561,1.34497,-15.5088,0.000787683,-0.00519937,0.00147022,0.00112923,-0.00554092,0.228264,0.00412224,0.0139062,986,463,1.34495,15.5088
-231,561,1.34113,-15.7718,0.00068362,-0.00714651,0.00228116,0.00129972,-0.0077626,0.263787,0.00565828,0.0109047,993,463,1.34112,15.7718
-224,561,1.33472,-16.0108,0.000699005,-0.00905167,0.00303888,0.00156855,-0.00992122,0.278694,0.00719423,0.0110282,1000,463,1.33471,16.0108
-217,561,1.35785,-16.234,0.000800866,-0.0109232,0.00379327,0.00192113,-0.0120434,0.287165,0.00873998,0.0116949,1007,463,1.35785,16.234
-210,561,1.35663,-16.4701,0.00106015,-0.01264,0.00439252,0.00234751,-0.0139273,0.285095,0.0101582,0.0122831,1014,463,1.35663,16.4701
-203,561,1.36261,-16.7056,0.00151176,-0.013514,0.00463771,0.00282791,-0.0148302,0.276521,0.0109518,0.0128566,1021,463,1.3626,16.7056
-196,561,1.39563,-16.9187,0.00184771,-0.0138324,0.00479444,0.0031975,-0.0151822,0.274428,0.0113386,0.012915,1028,463,1.39557,16.9187
-189,561,1.38477,-17.1368,0.00214123,-0.0136528,0.00475706,0.00346335,-0.0149749,0.271087,0.0113158,0.0170229,1035,463,1.3848,17.1368
-182,561,1.40466,-17.3781,0.00265078,-0.0130368,0.00453704,0.00386844,-0.0142544,0.262202,0.0110211,0.019653,1042,463,1.40472,17.3781
-175,561,1.37085,-17.592,0.00339895,-0.0120839,0.0040447,0.00439189,-0.0130769,0.240732,0.0104929,0.0292637,1049,463,1.37081,17.592
-168,561,1.44373,-17.7282,0.00399231,-0.0109504,0.00296057,0.00455751,-0.0115156,0.188638,0.00956524,0.0427706,1056,463,1.44375,17.7282
-161,561,1.42908,-17.8881,0.00419331,-0.00906204,0.00161345,0.00438688,-0.0092556,0.119398,0.00804195,0.0456349,1063,463,1.42911,17.8881
-154,561,1.81995,-18.5234,0.00471521,-0.00758832,0.000363376,0.00472593,-0.00759904,0.0295,0.00717998,0.0486356,1070,463,1.81998,18.5234
-147,561,1.8374,-18.5628,0.00520385,-0.00613806,-0.000994532,0.0052904,-0.00622461,-0.0868038,0.00665548,0.0460187,1077,463,1.83735,18.5628
-140,561,1.88794,-18.659,0,0,0,0,0,0,0,-1,1084,463,1.88799,18.659
-133,561,2.19604,-18.6378,0,0,0,0,0,0,0,-1,1091,463,2.19599,18.6378
-126,561,1.18896,-16.8632,0,0,0,0,0,0,0,-1,1098,463,1.18901,16.8632
-119,561,1.6178,-17.1851,0,0,0,0,0,0,0,-1,1105,463,1.61785,17.1851
-112,561,2.04675,-17.5069,0,0,0,0,0,0,0,-1,1112,463,2.0467,17.5069
-105,561,0.530518,-13.5379,0,0,0,0,0,0,0,-1,1119,463,0.530477,13.5379
-98,561,1.5387,-7.54352,0,0,0,0,0,0,0,-1,1126,463,1.53871,7.54351
-91,561,1.29553,-6.57968,0,0,0,0,0,0,0,-1,1133,463,1.29549,6.5797
-84,561,1.23364,-5.84555,0,0,0,0,0,0,0,-1,1140,463,1.23363,5.84556
-77,561,-2.36023,1.00204,0,0,0,0,0,0,0,-1,1147,463,-2.3602,-1.00205
-70,561,-3.90015,-1.41541,0,0,0,0,0,0,0,-1,1154,463,-3.90009,1.4154
-63,561,-6.95691,-4.02756,0,0,0,0,0,0,0,-1,1161,463,-6.95696,4.02756
-56,561,-5.37988,-6.66855,0,0,0,0,0,0,0,-1,1168,463,-5.37988,6.66854
-49,561,-5.7439,-9.11029,0,0,0,0,0,0,0,-1,1175,463,-5.74387,9.1103
-42,561,-1.72644,-5.63065,0,0,0,0,0,0,0,-1,1182,463,-1.72648,5.63064
-35,561,-1.65674,-4.87994,0,0,0,0,0,0,0,-1,1189,463,-1.6567,4.87993
-28,561,-1.91418,-3.86896,0,0,0,0,0,0,0,-1,1196,463,-1.91414,3.86895
-21,561,17.8938,-16.2617,0,0,0,0,0,0,0,-1,1203,463,17.8937,16.2616
-14,561,16.7435,-16.6497,-0.113468,-0.147549,0.0385904,-0.088323,-0.172694,0.577487,0.0997133,0.0462159,1210,463,16.7435,16.6498
-7,561,15.5365,-16.9223,-0.122004,-0.149095,0.0364624,-0.0966524,-0.174447,0.607554,0.100913,0.0476296,1217,463,15.5365,16.9223
0,561,14.3737,-17.3328,-0.12625,-0.147313,0.0325703,-0.10255,-0.171012,0.629028,0.0993855,0.0495034,1224,463,14.3737,17.3328
7,561,13.1785,-17.8777,-0.12657,-0.143586,0.0273035,-0.106479,-0.163676,0.63436,0.0959158,0.0410891,1231,463,13.1784,17.8778
14,561,11.8108,-18.4035,-0.125236,-0.138945,0.0214175,-0.109603,-0.154578,0.630532,0.091809,0.0408939,1238,463,11.8108,18.4035
21,561,11.016,-19.4253,0,0,0,0,0,0,0,-1,1245,463,11.016,19.4253
28,561,10.1282,-19.3024,-0.122938,-0.12417,0.00947301,-0.114061,-0.133047,0.75294,0.0830956,0.0431222,1252,463,10.1281,19.3024
35,561,9.40979,-18.9573,-0.125026,-0.115735,0.00638044,-0.112488,-0.128273,1.10008,0.0807694,0.0412857,1259,463,9.40984,18.9573
42,561,8.22485,-18.6477,-0.128019,-0.108054,0.00450514,-0.107084,-0.128988,1.35883,0.0797005,0.0449694,1266,463,8.22489,18.6477
49,561,7.83142,-18.6916,-0.129012,-0.100842,0.00426475,-0.100211,-0.129644,1.42379,0.0784799,0.0453769,1273,463,7.83137,18.6916
56,561,8.17749,-17.0012,0,0,0,0,0,0,0,-1,1280,463,8.17743,17.0012
63,561,6.96692,-17.7382,-0.12824,-0.0820736,0.00750424,-0.0808844,-0.129429,1.41364,0.0754993,0.0474765,1287,463,6.96694,17.7382
70,561,5.89539,-18.5571,-0.127068,-0.0730161,0.0121932,-0.0703928,-0.129692,1.35888,0.0749687,0.0466738,1294,463,5.89544,18.5571
77,561,4.84802,-19.2079,-0.121078,-0.0647666,0.019429,-0.0587136,-0.127131,1.26878,0.0734702,0.0450713,1301,463,4.84808,19.2079
84,561,2.66406,-18.7072,-0.113702,-0.0585268,0.0247464,-0.0490542,-0.123175,1.20522,0.0716041,0.0437527,1308,463,2.66401,18.7072
91,561,0.877075,-18.1183,-0.104197,-0.0530357,0.0267622,-0.041595,-0.115638,1.16681,0.0676339,0.0434336,1315,463,0.877078,18.1183
98,561,-0.10437,-17.5249,-0.0939087,-0.0490058,0.0279336,-0.0356194,-0.107295,1.12391,0.063102,0.0461269,1322,463,-0.104379,17.5249
105,561,-1.09595,-16.9157,0,0,0,0,0,0,0,-1,1329,463,-1.09597,16.9157
112,561,1.43066,-17.4577,-0.0697458,-0.041657,0.0235107,-0.0283153,-0.0830876,1.05464,0.0487745,0.0473221,1336,463,1.43071,17.4577
119,561,1.31274,-17.7481,-0.0570925,-0.0402009,0.0190354,-0.0278218,-0.0694716,0.994195,0.0403734,0.0425447,1343,463,1.31273,17.7481
126,561,0.661621,-18.2451,-0.0454886,-0.0400983,0.010838,-0.0316254,-0.0539615,0.907264,0.0313082,0.0426174,1350,463,0.661681,18.2451
133,561,1.68787,-18.1599,-0.0354025,-0.0391538,-0.00155073,-0.0348445,-0.0397119,-0.345427,0.0250105,0.0497402,1357,463,1.68789,18.1599
140,561,0.97522,-18.8259,-0.0293341,-0.0379459,-0.0170878,-0.016018,-0.0512619,-0.661974,0.030282,0.0465529,1364,463,0.975268,18.8259
147,561,0.333984,-19.6358,-0.0267907,-0.0362715,-0.0333715,0.00217534,-0.0652376,-0.714845,0.0442347,0.0461745,1371,463,0.333968,19.6358
154,561,-0.327637,-20.443,-0.0216267,-0.0343701,-0.049637,0.0220459,-0.0780427,-0.721564,0.060726,0.0477599,1378,463,-0.327611,20.443
161,561,-1.00122,-21.2107,0,0,0,0,0,0,0,-1,1385,463,-1.00127,21.2107
168,561,0.764893,-12.8633,0,0,0,0,0,0,0,-1,1392,463,0.764939,12.8633
175,561,10.4185,0.276398,0,0,0,0,0,0,0,-1,1399,463,10.4185,-0.276394
182,561,6.45703,-4.02127,0,0,0,0,0,0,0,-1,1406,463,6.45704,4.02127
189,561,6.50854,-2.08685,0,0,0,0,0,0,0,-1,1413,463,6.50851,2.08686
196,561,6.44775,-0.27182,0,0,0,0,0,0,0,-1,1420,463,6.44773,0.271814
203,561,6.18591,1.1301,0,0,0,0,0,0,0,-1,1427,463,6.18592,-1.13009
210,561,5.68713,2.68427,0,0,0,0,0,0,0,-1,1434,463,5.6871,-2.68425
217,561,3.61743,-7.33582,0,0,0,0,0,0,0,-1,1441,463,3.61738,7.33581
224,561,4.27466,-8.59171,0,0,0,0,0,0,0,-1,1448,463,4.27466,8.59171
231,561,4.93188,-9.8476,0,0,0,0,0,0,0,-1,1455,463,4.93193,9.84761
238,561,2.18018,-5.18359,0,0,0,0,0,0,0,-1,1462,463,2.18023,5.18359
245,561,3.07568,-3.50238,0,0,0,0,0,0,0,-1,1469,463,3.0757,3.50238
252,561,3.47412,-3.71109,0,0,0,0,0,0,0,-1,1476,463,3.47413,3.71109
259,561,3.42212,-3.2334,0,0,0,0,0,0,0,-1,1483,463,3.42214,3.2334
266,561,4.44373,-5.90027,0,0,0,0,0,0,0,-1,1490,463,4.44372,5.90026
273,561,2.59485,-3.65268,0,0,0,0,0,0,0,-1,1497,463,2.5948,3.65268
280,561,3.10767,-6.38235,0,0,0,0,0,0,0,-1,1504,463,3.10766,6.38235
287,561,4.91809,-14.429,0,0,0,0,0,0,0,-1,1511,463,4.9181,14.429
294,561,5.62341,-16.9857,0,0,0,0,0,0,0,-1,1518,463,5.62343,16.9857
301,561,5.52734,-16.7467,0.00178627,-0.000210264,-0.00264025,0.00361068,-0.00203467,-0.604657,0.00330141,0.0403863,1525,463,5.52735,16.7467
308,561,5.50964,-16.5041,0.00140987,-0.0013874,-0.00295192,0.00327774,-0.00325526,-0.564162,0.00377184,0.0331127,1532,463,5.50962,16.504
315,561,5.52087,-16.3363,0.00120506,-0.00207114,-0.00303652,0.00301716,-0.00388323,-0.538038,0.00399439,0.0202312,1539,463,5.52087,16.3363
322,561,5.53113,-16.1436,0.00104751,-0.00222275,-0.00284382,0.00269276,-0.00386801,-0.524489,0.00380807,0.0205238,1546,463,5.53115,16.1436
329,561,5.53174,-15.8374,0.000880652,-0.0021372,-0.00255624,0.0023401,-0.00359665,-0.518773,0.00345308,0.0150592,1553,463,5.53179,15.8374
336,561,5.5719,-15.5448,0.000717695,-0.00198032,-0.00223482,0.0019791,-0.00324173,-0.513856,0.00304349,0.0109675,1560,463,5.57189,15.5448
343,561,5.58252,-15.2731,0.000502623,-0.00166952,-0.00189399,0.00159984,-0.00276674,-0.525072,0.00255088,0.0102338,1567,463,5.58256,15.2731
350,561,5.57446,-15.0092,0.00037747,-0.00129202,-0.00144513,0.00121162,-0.00212617,-0.523495,0.00195104,0.0101159,1574,463,5.57446,15.0092
357,561,5.57495,-14.7399,0.000279019,-0.000828407,-0.000990815,0.000860344,-0.00140973,-0.530593,0.00132336,0.00975041,1581,463,5.57494,14.7399
364,561,5.58777,-14.4933,0.00019212,-0.00030587,-0.000513941,0.000514206,-0.000627957,-0.55982,0.000660517,0.0087526,1588,463,5.58781,14.4934
371,561,5.58398,-14.2107,0.000100207,0.000153303,-7.49493e-05,0.000206267,4.72426e-05,-0.955609,0.000124781,0.0157486,1595,463,5.58403,14.2107
378,561,5.55688,-13.9104,-2.24626e-05,0.000587237,0.000262402,0.000684616,-0.000119842,1.21544,0.000501157,0.0126942,1602,463,5.55686,13.9104
385,561,5.55627,-13.6244,-0.000169289,0.00103383,0.000471699,0.00119672,-0.000332173,1.2383,0.000928556,0.0114773,1609,463,5.55627,13.6244
392,561,5.56763,-13.3019,-0.000299653,0.00124836,0.000686265,0.00150878,-0.000560077,1.2081,0.00123561,0.0150272,1616,463,5.56761,13.3019
399,561,5.56726,-13.0026,-0.000386502,0.0014819,0.000862084,0.00181889,-0.000723489,1.19816,0.00151258,0.0204996,1623,463,5.56723,13.0026
406,561,5.55457,-12.6999,-0.000439397,0.00157213,0.00100134,0.0019856,-0.000852872,1.1792,0.00168173,0.0182154,1630,463,5.55461,12.6999
413,561,5.54956,-12.3888,-0.000634388,0.00153897,0.00112202,0.00201428,-0.0011097,1.1701,0.00182866,0.0166455,1637,463,5.54961,12.3888
420,561,5.53455,-12.0562,-0.0012973,0.00147799,0.00150018,0.0021339,-0.00195321,1.15862,0.00236046,0.0138803,1644,463,5.53459,12.0562
427,561,5.53442,-11.7085,-0.0026022,0.00180145,0.00224647,0.00274521,-0.00354596,1.17308,0.003642,0.0107554,1651,463,5.53447,11.7085
434,561,5.53674,-11.3959,-0.00466153,0.00236359,0.00341729,0.00375164,-0.00604958,1.18497,0.00571034,0.0119094,1658,463,5.53673,11.3959
441,561,5.53027,-11.0965,-0.00670608,0.00287385,0.00463709,0.00475069,-0.00858293,1.18621,0.00780343,0.0148261,1665,463,5.53028,11.0965
448,561,5.51184,-10.7323,-0.00946276,0.00359639,0.00624335,0.0061009,-0.0119673,1.1893,0.0106134,0.0192486,1672,463,5.51178,10.7323
455,561,5.58521,-10.4164,-0.0129972,0.00451333,0.00819419,0.0077497,-0.0162336,1.19464,0.0141326,0.0355277,1679,463,5.5852,10.4164
462,561,5.49524,-10.1055,-0.0172973,0.00588047,0.0105055,0.00993347,-0.0213503,1.20259,0.0184583,0.0366515,1686,463,5.4952,10.1055
469,561,5.35168,-9.7077,-0.022274,0.00769509,0.0131546,0.01265,-0.0272289,1.21057,0.0235313,0.0260665,1693,463,5.35172,9.70771
476,561,5.03577,-9.19168,-0.028084,0.0097946,0.0159548,0.0156193,-0.0339087,1.22076,0.0292376,0.0452252,1700,463,5.03578,9.19169
483,561,4.39868,-8.40121,-0.0344542,0.01217,0.0187815,0.0187945,-0.0410787,1.23171,0.0353569,0.0499943,1707,463,4.39872,8.4012
490,561,4.00928,-7.65302,0,0,0,0,0,0,0,-1,1714,463,4.00929,7.65302
497,561,7.30652,-2.46649,0,0,0,0,0,0,0,-1,1721,463,7.30649,2.4665
504,561,6.45044,-2.35263,0,0,0,0,0,0,0,-1,1728,463,6.4504,2.35263
511,561,0,0,0,0,0,0,0,0,0,-1,1735,463,0,0
518,561,0,0,0,0,0,0,0,0,0,-1,1742,463,0,0
525,561,0,0,0,0,0,0,0,0,0,-1,1749,463,0,0
532,561,0,0,0,0,0,0,0,0,0,-1,1756,463,0,0
539,561,0,0,0,0,0,0,0,0,0,-1,1763,463,0,0
546,561,0,0,0,0,0,0,0,0,0,-1,1770,463,0,0
553,561,0,0,0,0,0,0,0,0,0,-1,1777,463,0,0
560,561,0,0,0,0,0,0,0,0,0,-1,1784,463,0,0
567,561,0,0,0,0,0,0,0,0,0,-1,1791,463,0,0
574,561,0,0,0,0,0,0,0,0,0,-1,1798,463,0,0
581,561,0,0,0,0,0,0,0,0,0,-1,1805,463,0,0
588,561,0,0,0,0,0,0,0,0,0,-1,1812,463,0,0
595,561,0,0,0,0,0,0,0,0,0,-1,1819,463,0,0
602,561,0,0,0,0,0,0,0,0,0,-1,1826,463,0,0
609,561,0,0,0,0,0,0,0,0,0,-1,1833,463,0,0
616,561,0,0,0,0,0,0,0,0,0,-1,1840,463,0,0
623,561,0,0,0,0,0,0,0,0,0,-1,1847,463,0,0
630,561,0,0,0,0,0,0,0,0,0,-1,1854,463,0,0
637,561,0,0,0,0,0,0,0,0,0,-1,1861,463,0,0
644,561,0,0,0,0,0,0,0,0,0,-1,1868,463,0,0
651,561,0,0,0,0,0,0,0,0,0,-1,1875,463,0,0
658,561,0,0,0,0,0,0,0,0,0,-1,1882,463,0,0
665,561,0,0,0,0,0,0,0,0,0,-1,1889,463,0,0
672,561,0,0,0,0,0,0,0,0,0,-1,1896,463,0,0
679,561,0,0,0,0,0,0,0,0,0,-1,1903,463,0,0
686,561,0,0,0,0,0,0,0,0,0,-1,1910,463,0,0
693,561,0,0,0,0,0,0,0,0,0,-1,1917,463,0,0
700,561,0,0,0,0,0,0,0,0,0,-1,1924,463,0,0
707,561,0,0,0,0,0,0,0,0,0,-1,1931,463,0,0
714,561,0,0,0,0,0,0,0,0,0,-1,1938,463,0,0
721,561,0,0,0,0,0,0,0,0,0,-1,1945,463,0,0
728,561,0,0,0,0,0,0,0,0,0,-1,1952,463,0,0
735,561,0,0,0,0,0,0,0,0,0,-1,1959,463,0,0
742,561,0,0,0,0,0,0,0,0,0,-1,1966,463,0,0
749,561,0,0,0,0,0,0,0,0,0,-1,1973,463,0,0
756,561,0,0,0,0,0,0,0,0,0,-1,1980,463,0,0
763,561,0,0,0,0,0,0,0,0,0,-1,1987,463,0,0
770,561,0,0,0,0,0,0,0,0,0,-1,1994,463,0,0
777,561,0,0,0,0,0,0,0,0,0,-1,2001,463,0,0
784,561,0,0,0,0,0,0,0,0,0,-1,2008,463,0,0
791,561,0,0,0,0,0,0,0,0,0,-1,2015,463,0,0
798,561,0,0,0,0,0,0,0,0,0,-1,2022,463,0,0
805,561,0,0,0,0,0,0,0,0,0,-1,2029,463,0,0
812,561,0,0,0,0,0,0,0,0,0,-1,2036,463,0,0
-700,554,0,0,0,0,0,0,0,0,0,-1,524,470,0,0
-693,554,0,0,0,0,0,0,0,0,0,-1,531,470,0,0
-686,554,0,0,0,0,0,0,0,0,0,-1,538,470,0,0
-679,554,0,0,0,0,0,0,0,0,0,-1,545,470,0,0
-672,554,0,0,0,0,0,0,0,0,0,-1,552,470,0,0
-665,554,0,0,0,0,0,0,0,0,0,-1,559,470,0,0
-658,554,0,0,0,0,0,0,0,0,0,-1,566,470,0,0
-651,554,0,0,0,0,0,0,0,0,0,-1,573,470,0,0
-644,554,0,0,0,0,0,0,0,0,0,-1,580,470,0,0
-637,554,0,0,0,0,0,0,0,0,0,-1,587,470,0,0
-630,554,0,0,0,0,0,0,0,0,0,-1,594,470,0,0
-623,554,0,0,0,0,0,0,0,0,0,-1,601,470,0,0
-616,554,0,0,0,0,0,0,0,0,0,-1,608,470,0,0
-609,554,0,0,0,0,0,0,0,0,0,-1,615,470,0,0
-602,554,0,0,0,0,0,0,0,0,0,-1,622,470,0,0
-595,554,0,0,0,0,0,0,0,0,0,-1,629,470,0,0
-588,554,0,0,0,0,0,0,0,0,0,-1,636,470,0,0
-581,554,0,0,0,0,0,0,0,0,0,-1,643,470,0,0
-574,554,0,0,0,0,0,0,0,0,0,-1,650,470,0,0
-567,554,0,0,0,0,0,0,0,0,0,-1,657,470,0,0
-560,554,0,0,0,0,0,0,0,0,0,-1,664,470,0,0
-553,554,0,0,0,0,0,0,0,0,0,-1,671,470,0,0
-546,554,0,0,0,0,0,0,0,0,0,-1,678,470,0,0
-539,554,0,0,0,0,0,0,0,0,0,-1,685,470,0,0
-532,554,0,0,0,0,0,0,0,0,0,-1,692,470,0,0
-525,554,0,0,0,0,0,0,0,0,0,-1,699,470,0,0
-518,554,0,0,0,0,0,0,0,0,0,-1,706,470,0,0
-511,554,0,0,0,0,0,0,0,0,0,-1,713,470,0,0
-504,554,0,0,0,0,0,0,0,0,0,-1,720,470,0,0
-497,554,0,0,0,0,0,0,0,0,0,-1,727,470,0,0
-490,554,0,0,0,0,0,0,0,0,0,-1,734,470,0,0
-483,554,0,0,0,0,0,0,0,0,0,-1,741,470,0,0
-476,554,0,0,0,0,0,0,0,0,0,-1,748,470,0,0
-469,554,0,0,0,0,0,0,0,0,0,-1,755,470,0,0
-462,554,0,0,0,0,0,0,0,0,0,-1,762,470,0,0
-455,554,0,0,0,0,0,0,0,0,0,-1,769,470,0,0
-448,554,0,0,0,0,0,0,0,0,0,-1,776,470,0,0
-441,554,0,0,0,0,0,0,0,0,0,-1,783,470,0,0
-434,554,0,0,0,0,0,0,0,0,0,-1,790,470,0,0
-427,554,0,0,0,0,0,0,0,0,0,-1,797,470,0,0
-420,554,0,0,0,0,0,0,0,0,0,-1,804,470,0,0
-413,554,0,0,0,0,0,0,0,0,0,-1,811,470,0,0
-406,554,0,0,0,0,0,0,0,0,0,-1,818,470,0,0
-399,554,-1.32275,-3.95142,0,0,0,0,0,0,0,-1,825,470,-1.32275,3.95141
-392,554,-1.35632,-3.7406,0,0,0,0,0,0,0,-1,832,470,-1.35632,3.7406
-385,554,-0.849243,-4.14447,0,0,0,0,0,0,0,-1,839,470,-0.849262,4.14446
-378,554,-0.982666,-4.55084,0,0,0,0,0,0,0,-1,846,470,-0.982671,4.55084
-371,554,-1.74542,-4.63467,0,0,0,0,0,0,0,-1,853,470,-1.74541,4.63468
-364,554,1.04883,-7.68756,0,0,0,0,0,0,0,-1,860,470,1.0488,7.68757
-357,554,-0.0963745,-9.06607,0,0,0,0,0,0,0,-1,867,470,-0.0963828,9.06609
-350,554,1.36664,-10.8768,0,0,0,0,0,0,0,-1,874,470,1.36662,10.8768
-343,554,1.33838,-11.053,-0.00795202,0.0016595,-0.00222414,0.00214922,-0.00844174,-1.35407,0.00646444,0.0451764,881,470,1.33836,11.053
-336,554,1.25732,-11.3538,-0.00565141,0.00259883,-0.00355549,0.00391964,-0.00697222,-1.21511,0.00637021,0.0351888,888,470,1.25734,11.3537
-329,554,1.14856,-11.759,-0.00373554,0.00295068,-0.00419988,0.00497556,-0.00576042,-1.12155,0.00620394,0.0173954,895,470,1.14857,11.759
-322,554,1.14093,-12.0732,-0.00242133,0.00299725,-0.00452626,0.00556311,-0.0049872,-1.05508,0.00609425,0.0105639,902,470,1.14093,12.0733
-315,554,1.15125,-12.3734,-0.00135563,0.00329744,-0.00474367,0.00625439,-0.00431257,-1.01339,0.00613508,0.0110111,909,470,1.15124,12.3734
-308,554,1.1347,-12.6822,-0.000504385,0.00313808,-0.00463159,0.00629364,-0.00365995,-0.972722,0.00581338,0.0129768,916,470,1.13472,12.6822
-301,554,1.1358,-12.9981,0.000106624,0.00272226,-0.00424299,0.00585442,-0.00302553,-0.934893,0.00521283,0.0134378,923,470,1.13578,12.9981
-294,554,1.11597,-13.2793,0.000699773,0.00210076,-0.00370815,0.005174,-0.00237347,-0.878752,0.00445641,0.0114541,930,470,1.11594,13.2793
-287,554,1.07739,-13.5679,0.00101066,0.00165451,-0.00304509,0.00439465,-0.00172948,-0.838063,0.00364567,0.0111701,937,470,1.07741,13.5679
-280,554,1.07495,-13.8452,0.00106103,0.00102263,-0.00238685,0.00342876,-0.0013451,-0.781377,0.00284235,0.0113055,944,470,1.07495,13.8452
-273,554,1.07098,-14.1323,0.00106357,0.00027593,-0.00162514,0.00234193,-0.00100243,-0.666526,0.00198182,0.0142997,951,470,1.07097,14.1323
-266,554,1.0802,-14.4241,0.00114152,-0.00088541,-0.000841763,0.0014455,-0.0011894,-0.346556,0.00152365,0.0118226,958,470,1.0802,14.4241
-259,554,1.06714,-14.68,0.00111613,-0.00219213,-2.9727e-05,0.00111639,-0.0021924,-0.00898475,0.00194371,0.0117677,965,470,1.06712,14.68
-252,554,1.04877,-14.9446,0.00107468,-0.00375163,0.000809468,0.00120683,-0.00388378,0.161823,0.00307153,0.0140911,972,470,1.04879,14.9446
-245,554,1.03741,-15.2151,0.0011419,-0.00573862,0.00165829,0.00152072,-0.00611743,0.224582,0.0046685,0.0166705,979,470,1.03741,15.2151
-238,554,1.07587,-15.4995,0.00112394,-0.00801046,0.00257653,0.00180057,-0.0086871,0.256817,0.00647558,0.0131733,986,470,1.07584,15.4995
-231,554,1.07306,-15.7616,0.00105103,-0.0104627,0.00352358,0.00204377,-0.0114554,0.274623,0.00840147,0.0105762,993,470,1.07305,15.7616
-224,554,1.07831,-16.001,0.0010345,-0.012896,0.00450839,0.00236625,-0.0142278,0.287226,0.0103644,0.00982177,1000,470,1.07833,16.001
-217,554,1.11194,-16.2292,0.00100462,-0.015298,0.00548221,0.00267667,-0.0169701,0.296034,0.0123031,0.010703,1007,470,1.11195,16.2292
-210,554,1.1402,-16.4793,0.00116948,-0.0175178,0.00626253,0.00307408,-0.0194224,0.295237,0.0140853,0.0138008,1014,470,1.14022,16.4793
-203,554,1.14569,-16.7074,0.0015792,-0.0187215,0.00660746,0.00354034,-0.0206827,0.288524,0.0151075,0.0217937,1021,470,1.14567,16.7074
-196,554,1.0957,-16.8364,0.0018957,-0.0192207,0.00684482,0.00392031,-0.0212453,0.287587,0.015635,0.0285398,1028,470,1.09574,16.8364
-189,554,1.12732,-16.8986,0.0022823,-0.0190724,0.00679875,0.0042631,-0.0210532,0.2835,0.0156513,0.0344667,1035,470,1.1273,16.8986
-182,554,1.04712,-17.0313,0.0029546,-0.01822,0.00649982,0.00479061,-0.020056,0.275298,0.015221,0.043997,1042,470,1.04716,17.0313
-175,554,1.03503,-17.6229,0,0,0,0,0,0,0,-1,1049,470,1.03498,17.6229
-168,554,1.19727,-17.7471,0,0,0,0,0,0,0,-1,1056,470,1.19727,17.7471
-161,554,1.14282,-17.8001,0,0,0,0,0,0,0,-1,1063,470,1.14286,17.8001
-154,554,1.84729,-18.713,0,0,0,0,0,0,0,-1,1070,470,1.84733,18.7131
-147,554,1.78979,-18.6369,0,0,0,0,0,0,0,-1,1077,470,1.78985,18.6369
-140,554,2.5564,-18.5463,0,0,0,0,0,0,0,-1,1084,470,2.55645,18.5463
-133,554,2.63806,-18.9402,0,0,0,0,0,0,0,-1,1091,470,2.63811,18.9402
-126,554,0.532715,-15.1913,0,0,0,0,0,0,0,-1,1098,470,0.532762,15.1913
-119,554,1.23621,-16.6479,0,0,0,0,0,0,0,-1,1105,470,1.23622,16.6479
-112,554,0.53186,-16.7545,0,0,0,0,0,0,0,-1,1112,470,0.531912,16.7545
-105,554,2.82129,-9.46112,0,0,0,0,0,0,0,-1,1119,470,2.82127,9.46112
-98,554,1.51929,-7.3624,0,0,0,0,0,0,0,-1,1126,470,1.51928,7.36241
-91,554,1.41089,-6.5864,0,0,0,0,0,0,0,-1,1133,470,1.41093,6.58638
-84,554,1.62305,-5.87186,0,0,0,0,0,0,0,-1,1140,470,1.62299,5.87186
-77,554,-2.56958,1.33258,0,0,0,0,0,0,0,-1,1147,470,-2.56959,-1.33257
-70,554,-3.68164,-1.18332,0,0,0,0,0,0,0,-1,1154,470,-3.68158,1.18331
-63,554,-4.86853,-3.88708,0,0,0,0,0,0,0,-1,1161,470,-4.86853,3.88708
-56,554,-5.69958,-6.45422,0,0,0,0,0,0,0,-1,1168,470,-5.69955,6.45422
-49,554,-6.23645,-8.8569,0,0,0,0,0,0,0,-1,1175,470,-6.23643,8.85689
-42,554,-6.62524,-11.5382,0,0,0,0,0,0,0,-1,1182,470,-6.62522,11.5382
-35,554,-2.40173,-4.59482,0,0,0,0,0,0,0,-1,1189,470,-2.40169,4.59481
-28,554,-0.760132,-1.65555,0,0,0,0,0,0,0,-1,1196,470,-0.760095,1.65556
-21,554,16.6047,-14.366,0,0,0,0,0,0,0,-1,1203,470,16.6048,14.366
-14,554,15.5366,-14.8123,-0.119093,-0.164873,0.0452062,-0.0913118,-0.192654,0.551041,0.111279,0.0495121,1210,470,15.5366,14.8123
-7,554,14.7998,-15.6634,-0.130465,-0.165886,0.0436164,-0.101101,-0.195251,0.592542,0.112752,0.047292,1217,470,14.7998,15.6634
0,554,13.3882,-15.9178,0,0,0,0,0,0,0,-1,1224,470,13.3882,15.9178
7,554,11.9805,-16.8379,-0.136675,-0.15911,0.0354345,-0.110725,-0.185061,0.632103,0.107531,0.0495714,1231,470,11.9804,16.8379
14,554,10.5928,-17.2741,-0.13601,-0.154233,0.0297021,-0.114053,-0.17619,0.63658,0.103185,0.0465143,1238,470,10.5928,17.2741
21,554,11.0015,-19.2032,0,0,0,0,0,0,0,-1,1245,470,11.0015,19.2032
28,554,9.96814,-18.7852,-0.136889,-0.138637,0.0179404,-0.119801,-0.155724,0.761058,0.0941546,0.0428599,1252,470,9.9681,18.7852
35,554,9.29749,-18.2226,-0.141554,-0.129667,0.0153717,-0.11913,-0.152091,0.969865,0.0923881,0.0402121,1259,470,9.29744,18.2226
42,554,8.32935,-17.9399,-0.147187,-0.122274,0.0141858,-0.115852,-0.153609,1.14569,0.0924279,0.046147,1266,470,8.32933,17.9399
49,554,8.10596,-17.5697,-0.151169,-0.115018,0.0136896,-0.11042,-0.155768,1.2467,0.0925115,0.0485645,1273,470,8.106,17.5697
56,554,8.08289,-17.0566,0,0,0,0,0,0,0,-1,1280,470,8.08293,17.0566
63,554,6.91406,-17.7118,-0.153564,-0.0937155,0.0151587,-0.0900951,-0.157184,1.33635,0.0910739,0.0476255,1287,470,6.91411,17.7118
70,554,5.79834,-18.4008,-0.153497,-0.0828009,0.0189515,-0.0780411,-0.158257,1.32473,0.0913725,0.0461428,1294,470,5.79833,18.4008
77,554,4.67017,-19.0314,-0.146869,-0.0720794,0.0262136,-0.0638067,-0.155142,1.2651,0.0900399,0.0445759,1301,470,4.67017,19.0314
84,554,1.89868,-18.4695,-0.138373,-0.0639625,0.0312,-0.0526119,-0.149724,1.22188,0.0877066,0.0428763,1308,470,1.89863,18.4695
91,554,-0.0405273,-17.4942,-0.127104,-0.0567853,0.0320463,-0.0443721,-0.139517,1.20124,0.0823088,0.0437743,1315,470,-0.0405192,17.4942
98,554,-0.286499,-16.8128,-0.113801,-0.0507458,0.0314341,-0.0377528,-0.126794,1.17884,0.0751744,0.0486433,1322,470,-0.286539,16.8128
105,554,-1.29468,-16.2016,0,0,0,0,0,0,0,-1,1329,470,-1.29468,16.2016
112,554,0.120972,-17.2926,-0.0826947,-0.0409708,0.0238084,-0.0301774,-0.0934881,1.14516,0.0550937,0.0439982,1336,470,0.120977,17.2926
119,554,0.0090332,-17.6628,-0.0665604,-0.0388408,0.0177363,-0.0301913,-0.07521,1.11706,0.0437029,0.0406987,1343,470,0.00899228,17.6627
126,554,-0.771729,-18.0274,-0.0513897,-0.0383754,0.00704923,-0.0352891,-0.054476,1.15811,0.0319064,0.0441644,1350,470,-0.771739,18.0274
133,554,1.22729,-17.4594,-0.038085,-0.0373162,-0.00878414,-0.0289081,-0.0464931,-0.807262,0.0271069,0.0431279,1357,470,1.22732,17.4594
140,554,0.849365,-18.1972,-0.0300037,-0.0363263,-0.0289749,-0.00401811,-0.0623118,-0.731061,0.0402687,0.0471297,1364,470,0.849402,18.1972
147,554,0.521851,-19.2977,-0.0268031,-0.0352928,-0.0506172,0.019747,-0.0818429,-0.743565,0.0621981,0.0470309,1371,470,0.52184,19.2977
154,554,0.59314,-20.4279,-0.0201417,-0.0347768,-0.0741948,0.0470955,-0.102014,-0.736244,0.0880133,0.0474617,1378,470,0.59309,20.4279
161,554,0.581787,-21.7156,0,0,0,0,0,0,0,-1,1385,470,0.581801,21.7157
168,554,2.22742,-28.6964,0,0,0,0,0,0,0,-1,1392,470,2.22741,28.6964
175,554,10.663,0.286957,0,0,0,0,0,0,0,-1,1399,470,10.663,-0.286966
182,554,6.71106,-4.50217,0,0,0,0,0,0,0,-1,1406,470,6.71107,4.50215
189,554,6.90479,-2.50348,0,0,0,0,0,0,0,-1,1413,470,6.90477,2.50348
196,554,6.96216,-0.740906,0,0,0,0,0,0,0,-1,1420,470,6.96214,0.740912
203,554,6.43518,0.414154,0,0,0,0,0,0,0,-1,1427,470,6.43523,-0.414141
210,554,6.21167,1.96707,0,0,0,0,0,0,0,-1,1434,470,6.21165,-1.96706
217,554,5.64551,3.4989,0,0,0,0,0,0,0,-1,1441,470,5.64555,-3.49891
224,554,4.85144,-8.85172,0,0,0,0,0,0,0,-1,1448,470,4.85146,8.85173
231,554,3.25073,-5.29642,0,0,0,0,0,0,0,-1,1455,470,3.25078,5.29642
238,554,4.28625,-3.25253,0,0,0,0,0,0,0,-1,1462,470,4.28622,3.25252
245,554,4.0752,-2.90033,0,0,0,0,0,0,0,-1,1469,470,4.07515,2.90032
252,554,3.52112,-0.934998,0,0,0,0,0,0,0,-1,1476,470,3.52113,0.934996
259,554,3.96448,-2.16425,0,0,0,0,0,0,0,-1,1483,470,3.96446,2.16424
266,554,3.0592,-2.71716,0,0,0,0,0,0,0,-1,1490,470,3.05923,2.71718
273,554,2.58521,-3.06876,0,0,0,0,0,0,0,-1,1497,470,2.58524,3.06874
280,554,2.83301,-0.991699,0,0,0,0,0,0,0,-1,1504,470,2.83303,0.991704
287,554,3.54126,-4.12277,0,0,0,0,0,0,0,-1,1511,470,3.54123,4.12277
294,554,3.62036,-8.50146,0,0,0,0,0,0,0,-1,1518,470,3.62031,8.50145
301,554,5.75208,-16.5207,0,0,0,0,0,0,0,-1,1525,470,5.75203,16.5206
308,554,5.78333,-16.5302,0,0,0,0,0,0,0,-1,1532,470,5.78329,16.5302
315,554,5.81567,-16.4199,0,0,0,0,0,0,0,-1,1539,470,5.81562,16.4199
322,554,5.79895,-16.2852,0,0,0,0,0,0,0,-1,1546,470,5.79899,16.2853
329,554,5.80457,-15.6592,0.000830626,-0.00340327,-0.00365285,0.00293562,-0.00550826,-0.522781,0.00494993,0.0357268,1553,470,5.80457,15.6592
336,554,5.81677,-15.5072,0.000711009,-0.00316759,-0.0032326,0.0025414,-0.00499798,-0.515218,0.00442922,0.0186313,1560,470,5.81677,15.5072
343,554,5.83459,-15.2855,0.000511272,-0.00272881,-0.00279098,0.00211832,-0.00433586,-0.522436,0.00379893,0.0113989,1567,470,5.83457,15.2855
350,554,5.86206,-15.0088,0.000429509,-0.00228433,-0.00223587,0.001688,-0.00354282,-0.512665,0.00308265,0.0098898,1574,470,5.86205,15.0088
357,554,5.87402,-14.7395,0.000401148,-0.00173311,-0.00168543,0.00132888,-0.00266084,-0.50318,0.00234586,0.011397,1581,470,5.87398,14.7395
364,554,5.87036,-14.4812,0.000410318,-0.00110819,-0.00108465,0.000975051,-0.00167292,-0.480037,0.0015464,0.00912657,1588,470,5.87035,14.4812
371,554,5.86707,-14.194,0.000393561,-0.000570721,-0.000555107,0.000646678,-0.000823838,-0.427814,0.000851054,0.00894902,1595,470,5.86705,14.194
378,554,5.85974,-13.9014,0.000343085,-6.50417e-05,-0.000145894,0.000389874,-0.000111831,-0.310343,0.000304126,0.0109719,1602,470,5.85974,13.9014
385,554,5.86829,-13.6194,0.000279697,0.000508812,0.000179689,0.000607354,0.000181154,1.06918,0.000360044,0.0105689,1609,470,5.86824,13.6194
392,554,5.88293,-13.3054,0.000202078,0.000804467,0.000481969,0.00107161,-6.50695e-05,1.06467,0.000737058,0.0137491,1616,470,5.88297,13.3054
399,554,5.86877,-12.9782,0.000134619,0.00110789,0.000694031,0.0014689,-0.000226385,1.09115,0.00106279,0.0180298,1623,470,5.86875,12.9782
406,554,5.84741,-12.6721,8.20366e-05,0.00121653,0.000844056,0.00166624,-0.000367673,1.08126,0.00125152,0.0161675,1630,470,5.84741,12.6721
413,554,5.84729,-12.368,-5.47177e-05,0.00128217,0.00100386,0.00181977,-0.000592319,1.07913,0.00145148,0.0153965,1637,470,5.84734,12.368
420,554,5.86023,-12.0566,-0.000582588,0.00127277,0.00130512,0.00194632,-0.00125614,1.09437,0.0018632,0.0171262,1644,470,5.86029,12.0566
427,554,5.8645,-11.7327,-0.00161342,0.00154331,0.0018677,0.00241026,-0.00248037,1.13622,0.0028237,0.0119127,1651,470,5.86453,11.7327
434,554,5.84521,-11.4188,-0.00318058,0.00195287,0.00276734,0.00316057,-0.00438827,1.1593,0.00437749,0.010565,1658,470,5.84516,11.4188
441,554,5.83276,-11.0927,-0.00478159,0.00237557,0.0037428,0.00397529,-0.00638131,1.16688,0.00603293,0.0119487,1665,470,5.83281,11.0927
448,554,5.81836,-10.733,-0.00691028,0.0029084,0.00498869,0.00499825,-0.00900013,1.17409,0.00819131,0.0141408,1672,470,5.81833,10.733
455,554,5.80566,-10.4175,-0.00959125,0.00362006,0.00647607,0.00626503,-0.0122362,1.18305,0.0108656,0.0153416,1679,470,5.80571,10.4175
462,554,5.76428,-10.0916,-0.0127518,0.00462259,0.00817551,0.00786461,-0.0159939,1.19327,0.0140387,0.0175978,1686,470,5.76425,10.0916
469,554,5.66321,-9.70911,-0.0163068,0.00595832,0.0100369,0.00981485,-0.0201633,1.20395,0.0176483,0.02347,1693,470,5.6632,9.70911
476,554,5.44617,-9.0123,-0.0204696,0.00744521,0.0119754,0.0118785,-0.0249029,1.21624,0.021675,0.0453724,1700,470,5.44617,9.01231
483,554,5.22107,-8.31827,0,0,0,0,0,0,0,-1,1707,470,5.22105,8.31827
490,554,7.31543,-3.51794,0,0,0,0,0,0,0,-1,1714,470,7.3154,3.51794
497,554,7.9751,-2.43454,0,0,0,0,0,0,0,-1,1721,470,7.97505,2.43453
504,554,2.13257,-3.81628,0,0,0,0,0,0,0,-1,1728,470,2.1326,3.8163
511,554,1.31396,-4.02713,0,0,0,0,0,0,0,-1,1735,470,1.31398,4.02712
518,554,5.04236,-5.9472,0,0,0,0,0,0,0,-1,1742,470,5.04231,5.94721
525,554,0,0,0,0,0,0,0,0,0,-1,1749,470,0,0
532,554,0,0,0,0,0,0,0,0,0,-1,1756,470,0,0
539,554,0,0,0,0,0,0,0,0,0,-1,1763,470,0,0
546,554,0,0,0,0,0,0,0,0,0,-1,1770,470,0,0
553,554,0,0,0,0,0,0,0,0,0,-1,1777,470,0,0
560,554,0,0,0,0,0,0,0,0,0,-1,1784,470,0,0
567,554,0,0,0,0,0,0,0,0,0,-1,1791,470,0,0
574,554,0,0,0,0,0,0,0,0,0,-1,1798,470,0,0
581,554,0,0,0,0,0,0,0,0,0,-1,1805,470,0,0
588,554,0,0,0,0,0,0,0,0,0,-1,1812,470,0,0
595,554,0,0,0,0,0,0,0,0,0,-1,1819,470,0,0
602,554,0,0,0,0,0,0,0,0,0,-1,1826,470,0,0
609,554,0,0,0,0,0,0,0,0,0,-1,1833,470,0,0
616,554,0,0,0,0,0,0,0,0,0,-1,1840,470,0,0
623,554,0,0,0,0,0,0,0,0,0,-1,1847,470,0,0
630,554,0,0,0,0,0,0,0,0,0,-1,1854,470,0,0
637,554,0,0,0,0,0,0,0,0,0,-1,1861,470,0,0
644,554,0,0,0,0,0,0,0,0,0,-1,1868,470,0,0
651,554,0,0,0,0,0,0,0,0,0,-1,1875,470,0,0
658,554,0,0,0,0,0,0,0,0,0,-1,1882,470,0,0
665,554,0,0,0,0,0,0,0,0,0,-1,1889,470,0,0
672,554,0,0,0,0,0,0,0,0,0,-1,1896,470,0,0
679,554,0,0,0,0,0,0,0,0,0,-1,1903,470,0,0
686,554,0,0,0,0,0,0,0,0,0,-1,1910,470,0,0
693,554,0,0,0,0,0,0,0,0,0,-1,1917,470,0,0
700,554,0,0,0,0,0,0,0,0,0,-1,1924,470,0,0
707,554,0,0,0,0,0,0,0,0,0,-1,1931,470,0,0
714,554,0,0,0,0,0,0,0,0,0,-1,1938,470,0,0
721,554,0,0,0,0,0,0,0,0,0,-1,1945,470,0,0
728,554,0,0,0,0,0,0,0,0,0,-1,1952,470,0,0
735,554,0,0,0,0,0,0,0,0,0,-1,1959,470,0,0
742,554,0,0,0,0,0,0,0,0,0,-1,1966,470,0,0
749,554,0,0,0,0,0,0,0,0,0,-1,1973,470,0,0
756,554,0,0,0,0,0,0,0,0,0,-1,1980,470,0,0
763,554,0,0,0,0,0,0,0,0,0,-1,1987,470,0,0
770,554,0,0,0,0,0,0,0,0,0,-1,1994,470,0,0
777,554,0,0,0,0,0,0,0,0,0,-1,2001,470,0,0
784,554,0,0,0,0,0,0,0,0,0,-1,2008,470,0,0
791,554,0,0,0,0,0,0,0,0,0,-1,2015,470,0,0
798,554,0,0,0,0,0,0,0,0,0,-1,2022,470,0,0
805,554,0,0,0,0,0,0,0,0,0,-1,2029,470,0,0
812,554,0,0,0,0,0,0,0,0,0,-1,2036,470,0,0
-700,547,0,0,0,0,0,0,0,0,0,-1,524,477,0,0
-693,547,0,0,0,0,0,0,0,0,0,-1,531,477,0,0
-686,547,0,0,0,0,0,0,0,0,0,-1,538,477,0,0
-679,547,0,0,0,0,0,0,0,0,0,-1,545,477,0,0
-672,547,0,0,0,0,0,0,0,0,0,-1,552,477,0,0
-665,547,0,0,0,0,0,0,0,0,0,-1,559,477,0,0
-658,547,0,0,0,0,0,0,0,0,0,-1,566,477,0,0
-651,547,0,0,0,0,0,0,0,0,0,-1,573,477,0,0
-644,547,0,0,0,0,0,0,0,0,0,-1,580,477,0,0
-637,547,0,0,0,0,0,0,0,0,0,-1,587,477,0,0
-630,547,0,0,0,0,0,0,0,0,0,-1,594,477,0,0
-623,547,0,0,0,0,0,0,0,0,0,-1,601,477,0,0
-616,547,0,0,0,0,0,0,0,0,0,-1,608,477,0,0
-609,547,0,0,0,0,0,0,0,0,0,-1,615,477,0,0
-602,547,0,0,0,0,0,0,0,0,0,-1,622,477,0,0
-595,547,0,0,0,0,0,0,0,0,0,-1,629,477,0,0
-588,547,0,0,0,0,0,0,0,0,0,-1,636,477,0,0
-581,547,0,0,0,0,0,0,0,0,0,-1,643,477,0,0
-574,547,0,0,0,0,0,0,0,0,0,-1,650,477,0,0
-567,547,0,0,0,0,0,0,0,0,0,-1,657,477,0,0
-560,547,0,0,0,0,0,0,0,0,0,-1,664,477,0,0
-553,547,0,0,0,0,0,0,0,0,0,-1,671,477,0,0
-546,547,0,0,0,0,0,0,0,0,0,-1,678,477,0,0
-539,547,0,0,0,0,0,0,0,0,0,-1,685,477,0,0
-532,547,0,0,0,0,0,0,0,0,0,-1,692,477,0,0
-525,547,0,0,0,0,0,0,0,0,0,-1,699,477,0,0
-518,547,0,0,0,0,0,0,0,0,0,-1,706,477,0,0
-511,547,0,0,0,0,0,0,0,0,0,-1,713,477,0,0
-504,547,0,0,0,0,0,0,0,0,0,-1,720,477,0,0
-497,547,0,0,0,0,0,0,0,0,0,-1,727,477,0,0
-490,547,0,0,0,0,0,0,0,0,0,-1,734,477,0,0
-483,547,0,0,0,0,0,0,0,0,0,-1,741,477,0,0
-476,547,0,0,0,0,0,0,0,0,0,-1,748,477,0,0
-469,547,0,0,0,0,0,0,0,0,0,-1,755,477,0,0
-462,547,0,0,0,0,0,0,0,0,0,-1,762,477,0,0
-455,547,0,0,0,0,0,0,0,0,0,-1,769,477,0,0
-448,547,0,0,0,0,0,0,0,0,0,-1,776,477,0,0
-441,547,0,0,0,0,0,0,0,0,0,-1,783,477,0,0
-434,547,0,0,0,0,0,0,0,0,0,-1,790,477,0,0
-427,547,0,0,0,0,0,0,0,0,0,-1,797,477,0,0
-420,547,0,0,0,0,0,0,0,0,0,-1,804,477,0,0
-413,547,0,0,0,0,0,0,0,0,0,-1,811,477,0,0
-406,547,0.8573,-6.14468,0,0,0,0,0,0,0,-1,818,477,0.85729,6.14469
-399,547,1.271,-4.19394,0,0,0,0,0,0,0,-1,825,477,1.27098,4.19393
-392,547,-1.52271,-4.41675,0,0,0,0,0,0,0,-1,832,477,-1.52273,4.41674
-385,547,-1.73743,-4.6431,0,0,0,0,0,0,0,-1,839,477,-1.73743,4.64308
-378,547,-2.41339,-4.60071,0,0,0,0,0,0,0,-1,846,477,-2.41337,4.60071
-371,547,1.64569,-11.1445,0,0,0,0,0,0,0,-1,853,477,1.64569,11.1445
-364,547,0.271729,-4.58582,0,0,0,0,0,0,0,-1,860,477,0.271753,4.5858
-357,547,1.87762,-9.87253,0,0,0,0,0,0,0,-1,867,477,1.87763,9.87254
-350,547,1.44678,-10.4254,-0.00818169,-0.000900198,0.00028026,-0.000889427,-0.00819246,1.53238,0.00519063,0.0481514,874,477,1.44679,10.4254
-343,547,0.969482,-10.9781,-0.00652283,0.000944785,-0.00119537,0.00113147,-0.00670951,-1.41588,0.00489396,0.0369866,881,477,0.969468,10.9781
-336,547,0.893555,-11.4235,-0.00477033,0.001779,-0.00222602,0.00246395,-0.00545528,-1.27229,0.00467964,0.016488,888,477,0.893551,11.4235
-329,547,0.867615,-11.7437,-0.0032601,0.00210606,-0.00276557,0.0032762,-0.00443024,-1.17053,0.00446591,0.00933761,895,477,0.867634,11.7437
-322,547,0.871765,-12.0616,-0.00216798,0.00216689,-0.00302404,0.00372001,-0.00372111,-1.09633,0.00429613,0.010283,902,477,0.871771,12.0616
-315,547,0.854431,-12.386,-0.00124653,0.00244425,-0.00321323,0.0043043,-0.00310658,-1.04606,0.00429726,0.0100162,909,477,0.854404,12.386
-308,547,0.839417,-12.6911,-0.000488762,0.00226843,-0.00310699,0.00428893,-0.00250927,-0.994202,0.00396952,0.0113737,916,477,0.839398,12.6911
-301,547,0.837646,-12.9996,5.90494e-05,0.00182121,-0.00276117,0.00383847,-0.00195821,-0.93984,0.00340489,0.0111859,923,477,0.83765,12.9996
-294,547,0.818359,-13.2809,0.000582218,0.00116314,-0.00231925,0.00321005,-0.00146469,-0.847694,0.00276096,0.0096559,930,477,0.818347,13.2809
-287,547,0.795288,-13.5613,0.000873409,0.000657505,-0.00175408,0.00252286,-0.000991946,-0.754665,0.00209245,0.0114036,937,477,0.795309,13.5613
-280,547,0.791626,-13.8474,0.000922891,-6.63365e-05,-0.00120012,0.00172633,-0.000869773,-0.589936,0.00152581,0.0136028,944,477,0.791638,13.8474
-273,547,0.805481,-14.1299,0.000950512,-0.000986998,-0.000492358,0.00106845,-0.00110494,-0.235108,0.00125486,0.0129018,951,477,0.805477,14.13
-266,547,0.804138,-14.4136,0.00110978,-0.00243074,0.000273901,0.00113084,-0.00245181,0.0767532,0.00211479,0.0120359,958,477,0.804157,14.4136
-259,547,0.795105,-14.687,0.00116559,-0.00402308,0.00106641,0.00137621,-0.0042337,0.194999,0.00337604,0.0107199,965,477,0.795079,14.6869
-252,547,0.802551,-14.952,0.00117638,-0.00594282,0.00195577,0.00167829,-0.00644472,0.251205,0.00495164,0.0111048,972,477,0.802582,14.952
-245,547,0.806946,-15.22,0.00119322,-0.00837887,0.00290305,0.00200484,-0.0091905,0.272616,0.00689316,0.0129173,979,477,0.806931,15.22
-238,547,0.815369,-15.4908,0.00119982,-0.0112011,0.00394108,0.00234632,-0.0123476,0.283096,0.00911507,0.0092393,986,477,0.81534,15.4908
-231,547,0.81427,-15.7436,0.0012149,-0.0142871,0.00508404,0.0027335,-0.0158057,0.290262,0.0115566,0.00804486,993,477,0.814271,15.7435
-224,547,0.822815,-15.9751,0.00123551,-0.0174258,0.00636918,0.00320208,-0.0193924,0.299478,0.0141172,0.0100257,1000,477,0.822821,15.9751
-217,547,0.877441,-16.2122,0.00115318,-0.0205511,0.00763324,0.00356887,-0.0229668,0.306497,0.016629,0.0160654,1007,477,0.877419,16.2122
-210,547,0.904236,-16.3557,0.00127866,-0.0235104,0.00868302,0.00401751,-0.0262492,0.305549,0.0189809,0.0297463,1014,477,0.904212,16.3557
-203,547,0.872742,-16.3322,0.00166909,-0.0252601,0.00921038,0.00451788,-0.0281089,0.299969,0.0204125,0.0399271,1021,477,0.872749,16.3322
-196,547,0.797852,-16.3354,0.00197041,-0.0261205,0.00959908,0.00493723,-0.0290873,0.299759,0.0212295,0.043796,1028,477,0.797844,16.3354
-189,547,0.781982,-16.4347,0.00238023,-0.0261289,0.00954082,0.00527851,-0.0290271,0.294918,0.0213298,0.0449061,1035,477,0.78201,16.4347
-182,547,0.866333,-16.4828,0,0,0,0,0,0,0,-1,1042,477,0.866345,16.4828
-175,547,-0.350098,-12.3584,0,0,0,0,0,0,0,-1,1049,477,-0.350098,12.3584
-168,547,1.12463,-8.66785,0,0,0,0,0,0,0,-1,1056,477,1.12461,8.66786
-161,547,0.499512,-19.532,0,0,0,0,0,0,0,-1,1063,477,0.499471,19.532
-154,547,0.786499,-19.1144,0,0,0,0,0,0,0,-1,1070,477,0.786528,19.1144
-147,547,1.10278,-18.6983,0,0,0,0,0,0,0,-1,1077,477,1.10284,18.6983
-140,547,3.0498,-18.886,0,0,0,0,0,0,0,-1,1084,477,3.04984,18.886
-133,547,2.31665,-17.9421,0,0,0,0,0,0,0,-1,1091,477,2.31667,17.9421
-126,547,0.784302,-9.76431,0,0,0,0,0,0,0,-1,1098,477,0.78428,9.76432
-119,547,0.190308,-15.7633,0,0,0,0,0,0,0,-1,1105,477,0.190348,15.7633
-112,547,4.36194,-9.23029,0,0,0,0,0,0,0,-1,1112,477,4.36195,9.23029
-105,547,4.448,-9.17819,0,0,0,0,0,0,0,-1,1119,477,4.44799,9.1782
-98,547,1.50391,-7.20621,0,0,0,0,0,0,0,-1,1126,477,1.50395,7.20621
-91,547,1.37805,-7.12024,0,0,0,0,0,0,0,-1,1133,477,1.37804,7.12025
-84,547,1.94202,-6.66241,0,0,0,0,0,0,0,-1,1140,477,1.94201,6.66241
-77,547,-2.28357,1.8588,0,0,0,0,0,0,0,-1,1147,477,-2.28356,-1.85879
-70,547,-3.70178,-0.874908,0,0,0,0,0,0,0,-1,1154,477,-3.70182,0.874918
-63,547,-5.12012,-3.60861,0,0,0,0,0,0,0,-1,1161,477,-5.12009,3.60862
-56,547,-6.01917,-6.2399,0,0,0,0,0,0,0,-1,1168,477,-6.01921,6.23991
-49,547,-6.729,-8.60349,0,0,0,0,0,0,0,-1,1175,477,-6.72899,8.60348
-42,547,-2.41736,-5.53012,0,0,0,0,0,0,0,-1,1182,477,-2.41734,5.53011
-35,547,-2.96838,-4.45734,0,0,0,0,0,0,0,-1,1189,477,-2.96839,4.45734
-28,547,-0.869141,-1.29901,0,0,0,0,0,0,0,-1,1196,477,-0.869135,1.29901
-21,547,14.2637,-12.9669,0,0,0,0,0,0,0,-1,1203,477,14.2637,12.9669
-14,547,14.0757,-13.7601,-0.111455,-0.172749,0.0509373,-0.0826558,-0.201548,0.51458,0.116989,0.048876,1210,477,14.0757,13.7601
-7,547,13.9038,-14.518,-0.122887,-0.17224,0.0507776,-0.0911077,-0.20402,0.559217,0.118015,0.0470997,1217,477,13.9038,14.518
0,547,13.6766,-15.281,0,0,0,0,0,0,0,-1,1224,477,13.6767,15.281
7,547,10.7891,-15.8436,0,0,0,0,0,0,0,-1,1231,477,10.789,15.8436
14,547,0,0,0,0,0,0,0,0,0,-1,1238,477,0,0
21,547,0,0,0,0,0,0,0,0,0,-1,1245,477,0,0
28,547,0,0,0,0,0,0,0,0,0,-1,1252,477,0,0
35,547,0,0,0,0,0,0,0,0,0,-1,1259,477,0,0
42,547,0,0,0,0,0,0,0,0,0,-1,1266,477,0,0
49,547,0,0,0,0,0,0,0,0,0,-1,1273,477,0,0
56,547,0,0,0,0,0,0,0,0,0,-1,1280,477,0,0
63,547,0,0,0,0,0,0,0,0,0,-1,1287,477,0,0
70,547,0,0,0,0,0,0,0,0,0,-1,1294,477,0,0
77,547,0,0,0,0,0,0,0,0,0,-1,1301,477,0,0
84,547,0,0,0,0,0,0,0,0,0,-1,1308,477,0,0
91,547,0,0,0,0,0,0,0,0,0,-1,1315,477,0,0
98,547,0,0,0,0,0,0,0,0,0,-1,1322,477,0,0
105,547,0.847412,-17.0751,0,0,0,0,0,0,0,-1,1329,477,0.847388,17.0751
112,547,-0.238281,-17.2731,-0.0957983,-0.0385653,0.0213341,-0.031488,-0.102876,1.25048,0.0608661,0.0465187,1336,477,-0.238319,17.2731
119,547,-1.24487,-17.5649,-0.0757958,-0.0354894,0.0135752,-0.0313437,-0.0799415,1.2744,0.0465112,0.043058,1343,477,-1.24484,17.5649
126,547,-2.27075,-17.8072,-0.056525,-0.0343207,0.000378444,-0.0343142,-0.0565315,1.55376,0.0328866,0.0453443,1350,477,-2.2707,17.8072
133,547,-3.31531,-18.047,0,0,0,0,0,0,0,-1,1357,477,-3.31534,18.047
140,547,1.00867,-17.8335,-0.0282335,-0.0323202,-0.0437456,0.0135164,-0.0740702,-0.76206,0.0544477,0.0438382,1364,477,1.00869,17.8335
147,547,1.11719,-19.0807,-0.0239303,-0.0325987,-0.0715776,0.0434442,-0.0999732,-0.755159,0.084919,0.045067,1371,477,1.1172,19.0807
154,547,0.953735,-20.2674,-0.0161761,-0.0358746,-0.106935,0.0813619,-0.133413,-0.739475,0.125208,0.048319,1378,477,0.953794,20.2674
161,547,0.814697,-21.4701,0,0,0,0,0,0,0,-1,1385,477,0.814654,21.4701
168,547,-1.32007,-12.7464,0,0,0,0,0,0,0,-1,1392,477,-1.32002,12.7464
175,547,3.35034,-0.26532,0,0,0,0,0,0,0,-1,1399,477,3.3503,0.265306
182,547,4.26038,3.72672,0,0,0,0,0,0,0,-1,1406,477,4.26039,-3.7267
189,547,3.40454,1.28671,0,0,0,0,0,0,0,-1,1413,477,3.40457,-1.28673
196,547,3.53931,1.87793,0,0,0,0,0,0,0,-1,1420,477,3.53928,-1.87794
203,547,6.49414,-0.425842,0,0,0,0,0,0,0,-1,1427,477,6.4941,0.425844
210,547,4.82092,0.53595,0,0,0,0,0,0,0,-1,1434,477,4.82096,-0.535942
217,547,4.68579,0.480072,0,0,0,0,0,0,0,-1,1441,477,4.68577,-0.480069
224,547,4.55615,0.739807,0,0,0,0,0,0,0,-1,1448,477,4.55613,-0.73981
231,547,5.90869,-3.57721,0,0,0,0,0,0,0,-1,1455,477,5.90871,3.57722
238,547,5.50049,-3.15356,0,0,0,0,0,0,0,-1,1462,477,5.50045,3.15356
245,547,5.13708,-2.65213,0,0,0,0,0,0,0,-1,1469,477,5.13708,2.65212
252,547,3.73511,-0.645233,0,0,0,0,0,0,0,-1,1476,477,3.73515,0.645237
259,547,5.86816,-3.20816,0,0,0,0,0,0,0,-1,1483,477,5.86815,3.20816
266,547,5.40222,-2.45731,0,0,0,0,0,0,0,-1,1490,477,5.40221,2.45732
273,547,3.05737,0.495789,0,0,0,0,0,0,0,-1,1497,477,3.05742,-0.49578
280,547,2.0885,1.47797,0,0,0,0,0,0,0,-1,1504,477,2.08848,-1.47795
287,547,2.31177,-2.21716,0,0,0,0,0,0,0,-1,1511,477,2.31174,2.21717
294,547,2.4823,-3.03659,0,0,0,0,0,0,0,-1,1518,477,2.48229,3.0366
301,547,4.72119,-3.93454,0,0,0,0,0,0,0,-1,1525,477,4.72119,3.93453
308,547,4.07471,-5.42175,0,0,0,0,0,0,0,-1,1532,477,4.07468,5.42174
315,547,3.58496,-6.62112,0,0,0,0,0,0,0,-1,1539,477,3.58497,6.62113
322,547,5.73926,-14.1878,0,0,0,0,0,0,0,-1,1546,477,5.73926,14.1878
329,547,5.9624,-15.6298,0,0,0,0,0,0,0,-1,1553,477,5.96243,15.6298
336,547,6.18604,-15.5092,0.000513044,-0.00444971,-0.00431638,0.00301046,-0.00694712,-0.524528,0.00589687,0.0477254,1560,477,6.18609,15.5092
343,547,6.1936,-15.3671,0.000354172,-0.00379967,-0.0037244,0.00254161,-0.00598711,-0.531048,0.00505622,0.0335295,1567,477,6.19361,15.3671
350,547,6.17297,-15.0717,0.000348903,-0.00324446,-0.00301985,0.00206613,-0.00496169,-0.517047,0.00417073,0.0226616,1574,477,6.17298,15.0717
357,547,6.14612,-14.7742,0.000429346,-0.00257324,-0.00234345,0.00171115,-0.00385505,-0.500517,0.00329215,0.0152909,1581,477,6.14607,14.7742
364,547,6.1322,-14.4767,0.000578821,-0.00181184,-0.00158886,0.00137178,-0.0026048,-0.462906,0.00233238,0.0107591,1588,477,6.13218,14.4767
371,547,6.15491,-14.1753,0.000661357,-0.00117888,-0.000965358,0.00107486,-0.00159237,-0.404694,0.00154956,0.00993833,1595,477,6.15492,14.1753
378,547,6.15576,-13.8885,0.000594033,-0.000632202,-0.000545964,0.000801884,-0.000840053,-0.363763,0.000948058,0.0110737,1602,477,6.15577,13.8885
385,547,6.15405,-13.6081,0.000548476,8.47549e-06,-0.000142326,0.000583692,-2.67403e-05,-0.242559,0.00039834,0.0116605,1609,477,6.15409,13.6081
392,547,6.16467,-13.3105,0.000485853,0.000367101,0.000217407,0.000651846,0.000201108,0.652093,0.000385433,0.012565,1616,477,6.16465,13.3105
399,547,6.14612,-12.9907,0.00040599,0.000722936,0.000438772,0.00103098,9.79495e-05,0.958695,0.000657106,0.0139693,1623,477,6.14607,12.9907
406,547,6.14868,-12.6706,0.000338014,0.000841863,0.000579924,0.00122222,-4.23409e-05,0.990305,0.000829286,0.0132951,1630,477,6.14873,12.6706
413,547,6.14575,-12.3675,0.000258551,0.00100101,0.000764925,0.00148003,-0.000220469,1.01131,0.00106779,0.0131606,1637,477,6.14579,12.3675
420,547,6.15527,-12.0839,-0.000130973,0.00103759,0.0009928,0.00160528,-0.000698661,1.05137,0.00136408,0.0149977,1644,477,6.15524,12.0839
427,547,6.16309,-11.7564,-0.000899077,0.00125127,0.00139679,0.00193877,-0.00158658,1.11341,0.00203874,0.0139647,1651,477,6.16307,11.7564
434,547,6.13379,-11.4338,-0.00202779,0.00154478,0.00207786,0.00249862,-0.00298164,1.14044,0.00316812,0.010093,1658,477,6.13384,11.4338
441,547,6.11975,-11.1099,-0.00322041,0.00190542,0.00286566,0.00318705,-0.00450204,1.15024,0.00446088,0.0110902,1665,477,6.11978,11.1099
448,547,6.11047,-10.7487,-0.00478534,0.00229785,0.00384174,0.00398138,-0.00646886,1.15778,0.00609016,0.011406,1672,477,6.11043,10.7487
455,547,6.10242,-10.4079,-0.00673207,0.00284726,0.00497786,0.00496556,-0.00885037,1.16846,0.00808106,0.0113552,1679,477,6.10237,10.4079
462,547,6.07813,-10.0846,-0.00894924,0.00358029,0.00622456,0.00614686,-0.0115158,1.17971,0.0103534,0.0108292,1686,477,6.07814,10.0846
469,547,6.02539,-9.74387,-0.0113799,0.00455175,0.00752011,0.00754067,-0.0143688,1.19248,0.0128526,0.0187147,1693,477,6.02545,9.74386
476,547,5.96545,-9.17001,-0.0142686,0.00559011,0.00884241,0.00895662,-0.0176352,1.20702,0.0156229,0.0383089,1700,477,5.96543,9.17001
483,547,5.96924,-8.5433,0,0,0,0,0,0,0,-1,1707,477,5.96929,8.5433
490,547,3.65271,-3.71707,0,0,0,0,0,0,0,-1,1714,477,3.65277,3.71708
497,547,2.55481,-3.81421,0,0,0,0,0,0,0,-1,1721,477,2.55476,3.8142
504,547,4.01953,-2.22714,0,0,0,0,0,0,0,-1,1728,477,4.0195,2.22713
511,547,5.2146,-6.9552,0,0,0,0,0,0,0,-1,1735,477,5.21464,6.95521
518,547,5.24243,-6.56122,0,0,0,0,0,0,0,-1,1742,477,5.24241,6.56121
525,547,5.7533,-5.33215,0,0,0,0,0,0,0,-1,1749,477,5.75329,5.33215
532,547,0,0,0,0,0,0,0,0,0,-1,1756,477,0,0
539,547,0,0,0,0,0,0,0,0,0,-1,1763,477,0,0
546,547,0,0,0,0,0,0,0,0,0,-1,1770,477,0,0
553,547,0,0,0,0,0,0,0,0,0,-1,1777,477,0,0
560,547,0,0,0,0,0,0,0,0,0,-1,1784,477,0,0
567,547,0,0,0,0,0,0,0,0,0,-1,1791,477,0,0
574,547,0,0,0,0,0,0,0,0,0,-1,1798,477,0,0
581,547,0,0,0,0,0,0,0,0,0,-1,1805,477,0,0
588,547,0,0,0,0,0,0,0,0,0,-1,1812,477,0,0
595,547,0,0,0,0,0,0,0,0,0,-1,1819,477,0,0
602,547,0,0,0,0,0,0,0,0,0,-1,1826,477,0,0
609,547,0,0,0,0,0,0,0,0,0,-1,1833,477,0,0
616,547,0,0,0,0,0,0,0,0,0,-1,1840,477,0,0
623,547,0,0,0,0,0,0,0,0,0,-1,1847,477,0,0
630,547,0,0,0,0,0,0,0,0,0,-1,1854,477,0,0
637,547,0,0,0,0,0,0,0,0,0,-1,1861,477,0,0
644,547,0,0,0,0,0,0,0,0,0,-1,1868,477,0,0
651,547,0,0,0,0,0,0,0,0,0,-1,1875,477,0,0
658,547,0,0,0,0,0,0,0,0,0,-1,1882,477,0,0
665,547,0,0,0,0,0,0,0,0,0,-1,1889,477,0,0
672,547,0,0,0,0,0,0,0,0,0,-1,1896,477,0,0
679,547,0,0,0,0,0,0,0,0,0,-1,1903,477,0,0
686,547,0,0,0,0,0,0,0,0,0,-1,1910,477,0,0
693,547,0,0,0,0,0,0,0,0,0,-1,1917,477,0,0
700,547,0,0,0,0,0,0,0,0,0,-1,1924,477,0,0
707,547,0,0,0,0,0,0,0,0,0,-1,1931,477,0,0
714,547,0,0,0,0,0,0,0,0,0,-1,1938,477,0,0
721,547,0,0,0,0,0,0,0,0,0,-1,1945,477,0,0
728,547,0,0,0,0,0,0,0,0,0,-1,1952,477,0,0
735,547,0,0,0,0,0,0,0,0,0,-1,1959,477,0,0
742,547,0,0,0,0,0,0,0,0,0,-1,1966,477,0,0
749,547,0,0,0,0,0,0,0,0,0,-1,1973,477,0,0
756,547,0,0,0,0,0,0,0,0,0,-1,1980,477,0,0
763,547,0,0,0,0,0,0,0,0,0,-1,1987,477,0,0
770,547,0,0,0,0,0,0,0,0,0,-1,1994,477,0,0
777,547,0,0,0,0,0,0,0,0,0,-1,2001,477,0,0
784,547,0,0,0,0,0,0,0,0,0,-1,2008,477,0,0
791,547,0,0,0,0,0,0,0,0,0,-1,2015,477,0,0
798,547,0,0,0,0,0,0,0,0,0,-1,2022,477,0,0
805,547,0,0,0,0,0,0,0,0,0,-1,2029,477,0,0
812,547,0,0,0,0,0,0,0,0,0,-1,2036,477,0,0
-700,540,0,0,0,0,0,0,0,0,0,-1,524,484,0,0
-693,540,0,0,0,0,0,0,0,0,0,-1,531,484,0,0
-686,540,0,0,0,0,0,0,0,0,0,-1,538,484,0,0
-679,540,0,0,0,0,0,0,0,0,0,-1,545,484,0,0
-672,540,0,0,0,0,0,0,0,0,0,-1,552,484,0,0
-665,540,0,0,0,0,0,0,0,0,0,-1,559,484,0,0
-658,540,0,0,0,0,0,0,0,0,0,-1,566,484,0,0
-651,540,0,0,0,0,0,0,0,0,0,-1,573,484,0,0
-644,540,0,0,0,0,0,0,0,0,0,-1,580,484,0,0
-637,540,0,0,0,0,0,0,0,0,0,-1,587,484,0,0
-630,540,0,0,0,0,0,0,0,0,0,-1,594,484,0,0
-623,540,0,0,0,0,0,0,0,0,0,-1,601,484,0,0
-616,540,0,0,0,0,0,0,0,0,0,-1,608,484,0,0
-609,540,0,0,0,0,0,0,0,0,0,-1,615,484,0,0
-602,540,0,0,0,0,0,0,0,0,0,-1,622,484,0,0
-595,540,0,0,0,0,0,0,0,0,0,-1,629,484,0,0
-588,540,0,0,0,0,0,0,0,0,0,-1,636,484,0,0
-581,540,0,0,0,0,0,0,0,0,0,-1,643,484,0,0
-574,540,0,0,0,0,0,0,0,0,0,-1,650,484,0,0
-567,540,0,0,0,0,0,0,0,0,0,-1,657,484,0,0
-560,540,0,0,0,0,0,0,0,0,0,-1,664,484,0,0
-553,540,0,0,0,0,0,0,0,0,0,-1,671,484,0,0
-546,540,0,0,0,0,0,0,0,0,0,-1,678,484,0,0
-539,540,0,0,0,0,0,0,0,0,0,-1,685,484,0,0
-532,540,0,0,0,0,0,0,0,0,0,-1,692,484,0,0
-525,540,0,0,0,0,0,0,0,0,0,-1,699,484,0,0
-518,540,0,0,0,0,0,0,0,0,0,-1,706,484,0,0
-511,540,0,0,0,0,0,0,0,0,0,-1,713,484,0,0
-504,540,0,0,0,0,0,0,0,0,0,-1,720,484,0,0
-497,540,0,0,0,0,0,0,0,0,0,-1,727,484,0,0
-490,540,0,0,0,0,0,0,0,0,0,-1,734,484,0,0
-483,540,0,0,0,0,0,0,0,0,0,-1,741,484,0,0
-476,540,0,0,0,0,0,0,0,0,0,-1,748,484,0,0
-469,540,0,0,0,0,0,0,0,0,0,-1,755,484,0,0
-462,540,0,0,0,0,0,0,0,0,0,-1,762,484,0,0
-455,540,0,0,0,0,0,0,0,0,0,-1,769,484,0,0
-448,540,0,0,0,0,0,0,0,0,0,-1,776,484,0,0
-441,540,0,0,0,0,0,0,0,0,0,-1,783,484,0,0
-434,540,0,0,0,0,0,0,0,0,0,-1,790,484,0,0
-427,540,0,0,0,0,0,0,0,0,0,-1,797,484,0,0
-420,540,0.319397,-9.34122,0,0,0,0,0,0,0,-1,804,484,0.319412,9.34122
-413,540,0.569153,-8.03989,0,0,0,0,0,0,0,-1,811,484,0.56913,8.03988
-406,540,0.992554,-6.1304,0,0,0,0,0,0,0,-1,818,484,0.992553,6.13041
-399,540,1.35217,-4.24222,0,0,0,0,0,0,0,-1,825,484,1.35215,4.24222
-392,540,1.74487,-2.36649,0,0,0,0,0,0,0,-1,832,484,1.74486,2.36648
-385,540,-2.29407,-5.03418,0,0,0,0,0,0,0,-1,839,484,-2.29408,5.03418
-378,540,1.06445,-10.5824,0,0,0,0,0,0,0,-1,846,484,1.06446,10.5824
-371,540,1.14825,-10.7452,0,0,0,0,0,0,0,-1,853,484,1.14827,10.7452
-364,540,0.952942,-10.5854,0,0,0,0,0,0,0,-1,860,484,0.952947,10.5854
-357,540,0.823608,-10.4594,0,0,0,0,0,0,0,-1,867,484,0.823596,10.4594
-350,540,0.719971,-10.6058,-0.00641608,-0.00112761,0.000455914,-0.00108859,-0.0064551,1.48543,0.00399034,0.0316415,874,484,0.719975,10.6058
-343,540,0.599487,-11.0639,-0.00514307,0.000415237,-0.000593099,0.000477819,-0.00520565,-1.46567,0.00364017,0.0151005,881,484,0.59951,11.0639
-336,540,0.556763,-11.465,-0.00385653,0.00111168,-0.00134674,0.00145325,-0.00419811,-1.3224,0.00338867,0.0120552,888,484,0.556751,11.465
-329,540,0.559937,-11.7725,-0.0027052,0.00138215,-0.00175849,0.00203456,-0.00335761,-1.21553,0.00314425,0.00976512,895,484,0.559942,11.7725
-322,540,0.565369,-12.0783,-0.00183781,0.00143064,-0.00192759,0.00232353,-0.0027307,-1.13701,0.00292122,0.013335,902,484,0.565345,12.0783
-315,540,0.53717,-12.3879,-0.00107671,0.00163696,-0.00204144,0.00273135,-0.0021711,-1.0787,0.00283658,0.0122094,909,484,0.537188,12.3879
-308,540,0.530151,-12.6796,-0.000427833,0.00142254,-0.00189803,0.00260887,-0.00161416,-1.01218,0.00246061,0.0114288,916,484,0.530172,12.6796
-301,540,0.521179,-12.9692,4.80846e-05,0.00094009,-0.00155669,0.00211341,-0.00112523,-0.924914,0.00189862,0.0112878,923,484,0.521163,12.9692
-294,540,0.537048,-13.2655,0.000488891,0.000248575,-0.00112439,0.00149952,-0.000762056,-0.732168,0.00132866,0.0111613,930,484,0.537029,13.2655
-287,540,0.541748,-13.5678,0.00075681,-0.000338204,-0.000600059,0.0010216,-0.000602999,-0.41558,0.000948287,0.00881872,937,484,0.541742,13.5678
-280,540,0.521423,-13.8652,0.000811408,-0.00115674,-9.84539e-05,0.000816321,-0.00116165,-0.0498577,0.00114777,0.0101652,944,484,0.521452,13.8652
-273,540,0.53125,-14.1435,0.000873388,-0.00225636,0.000601229,0.000984911,-0.00236788,0.183407,0.00198987,0.0124752,951,484,0.531269,14.1435
-266,540,0.542664,-14.4248,0.00113034,-0.00399957,0.00139061,0.00148306,-0.00435228,0.248401,0.00350216,0.0132292,958,484,0.542635,14.4248
-259,540,0.548157,-14.7068,0.00128662,-0.00589248,0.00218543,0.00189956,-0.00650543,0.273444,0.0050897,0.0119429,965,484,0.548157,14.7068
-252,540,0.55127,-14.9485,0.00135625,-0.00821056,0.00314215,0.00229596,-0.00915027,0.2906,0.0069923,0.0119389,972,484,0.551291,14.9485
-245,540,0.551392,-15.2004,0.00133775,-0.0111869,0.00420899,0.00262078,-0.0124699,0.295881,0.00931066,0.0131479,979,484,0.551399,15.2004
-238,540,0.548462,-15.455,0.0013665,-0.0146741,0.00539993,0.00301493,-0.0163225,0.296284,0.0120134,0.0099628,986,484,0.548471,15.455
-231,540,0.542114,-15.6996,0.00146294,-0.0185883,0.00679685,0.00354972,-0.0206751,0.297886,0.0151063,0.011771,993,484,0.542127,15.6996
-224,540,0.568542,-15.9109,0.00149414,-0.0227131,0.00847508,0.00416634,-0.0253853,0.305434,0.0184696,0.016692,1000,484,0.568514,15.9109
-217,540,0.61084,-15.9888,0.00134216,-0.0268703,0.010132,0.00460379,-0.030132,0.311439,0.0217853,0.0305433,1007,484,0.610832,15.9888
-210,540,0.626648,-16.0922,0.00139011,-0.0309604,0.011603,0.00512137,-0.0346917,0.311132,0.0250103,0.0462667,1014,484,0.626646,16.0922
-203,540,0.586121,-16.1578,0.00168426,-0.0335728,0.0124735,0.00565093,-0.0375395,0.307895,0.027107,0.0468694,1021,484,0.586091,16.1578
-196,540,0.530396,-16.1641,0,0,0,0,0,0,0,-1,1028,484,0.530379,16.1641
-189,540,0.44104,-16.1138,0,0,0,0,0,0,0,-1,1035,484,0.441039,16.1138
-182,540,0.109375,-15.2948,0,0,0,0,0,0,0,-1,1042,484,0.109331,15.2948
-175,540,1.73413,-10.728,0,0,0,0,0,0,0,-1,1049,484,1.73414,10.728
-168,540,1.18164,-7.65347,0,0,0,0,0,0,0,-1,1056,484,1.18163,7.65347
-161,540,-0.405884,-9.86481,0,0,0,0,0,0,0,-1,1063,484,-0.405886,9.8648
-154,540,0.65625,-19.0429,0,0,0,0,0,0,0,-1,1070,484,0.656211,19.0429
-147,540,0.969727,-18.6567,0,0,0,0,0,0,0,-1,1077,484,0.969702,18.6567
-140,540,1.40735,-15.6289,0,0,0,0,0,0,0,-1,1084,484,1.4073,15.6289
-133,540,2.28345,-17.6413,0,0,0,0,0,0,0,-1,1091,484,2.2835,17.6413
-126,540,1.46765,-17.5085,0,0,0,0,0,0,0,-1,1098,484,1.46764,17.5085
-119,540,6.18579,-10.4846,0,0,0,0,0,0,0,-1,1105,484,6.18582,10.4846
-112,540,5.8468,-9.65106,0,0,0,0,0,0,0,-1,1112,484,5.84681,9.65106
-105,540,5.50781,-8.81754,0,0,0,0,0,0,0,-1,1119,484,5.5078,8.81753
-98,540,0.73877,-3.08093,0,0,0,0,0,0,0,-1,1126,484,0.738754,3.08092
-91,540,1.56519,-7.48666,0,0,0,0,0,0,0,-1,1133,484,1.56514,7.48667
-84,540,-0.945923,4.43073,0,0,0,0,0,0,0,-1,1140,484,-0.945891,-4.43074
-77,540,-2.28894,2.14368,0,0,0,0,0,0,0,-1,1147,484,-2.28894,-2.14368
-70,540,-3.75244,-0.452576,0,0,0,0,0,0,0,-1,1154,484,-3.75244,0.452576
-63,540,-5.26257,-3.04767,0,0,0,0,0,0,0,-1,1161,484,-5.26262,3.04766
-56,540,-5.19055,-6.12595,0,0,0,0,0,0,0,-1,1168,484,-5.19057,6.12595
-49,540,-5.63867,-8.52298,0,0,0,0,0,0,0,-1,1175,484,-5.63871,8.52298
-42,540,0,0,0,0,0,0,0,0,0,-1,1182,484,0,0
-35,540,0,0,0,0,0,0,0,0,0,-1,1189,484,0,0
-28,540,0,0,0,0,0,0,0,0,0,-1,1196,484,0,0
-21,540,0,0,0,0,0,0,0,0,0,-1,1203,484,0,0
-14,540,0,0,0,0,0,0,0,0,0,-1,1210,484,0,0
-7,540,0,0,0,0,0,0,0,0,0,-1,1217,484,0,0
0,540,0,0,0,0,0,0,0,0,0,-1,1224,484,0,0
7,540,0,0,0,0,0,0,0,0,0,-1,1231,484,0,0
14,540,0,0,0,0,0,0,0,0,0,-1,1238,484,0,0
21,540,0,0,0,0,0,0,0,0,0,-1,1245,484,0,0
28,540,0,0,0,0,0,0,0,0,0,-1,1252,484,0,0
35,540,0,0,0,0,0,0,0,0,0,-1,1259,484,0,0
42,540,0,0,0,0,0,0,0,0,0,-1,1266,484,0,0
49,540,0,0,0,0,0,0,0,0,0,-1,1273,484,0,0
56,540,0,0,0,0,0,0,0,0,0,-1,1280,484,0,0
63,540,0,0,0,0,0,0,0,0,0,-1,1287,484,0,0
70,540,0,0,0,0,0,0,0,0,0,-1,1294,484,0,0
77,540,0,0,0,0,0,0,0,0,0,-1,1301,484,0,0
84,540,0,0,0,0,0,0,0,0,0,-1,1308,484,0,0
91,540,0,0,0,0,0,0,0,0,0,-1,1315,484,0,0
98,540,0,0,0,0,0,0,0,0,0,-1,1322,484,0,0
105,540,0,0,0,0,0,0,0,0,0,-1,1329,484,0,0
112,540,0,0,0,0,0,0,0,0,0,-1,1336,484,0,0
119,540,0,0,0,0,0,0,0,0,0,-1,1343,484,0,0
126,540,0,0,0,0,0,0,0,0,0,-1,1350,484,0,0
133,540,0,0,0,0,0,0,0,0,0,-1,1357,484,0,0
140,540,0,0,0,0,0,0,0,0,0,-1,1364,484,0,0
147,540,0,0,0,0,0,0,0,0,0,-1,1371,484,0,0
154,540,0,0,0,0,0,0,0,0,0,-1,1378,484,0,0
161,540,0,0,0,0,0,0,0,0,0,-1,1385,484,0,0
168,540,3.05078,-0.0010376,0,0,0,0,0,0,0,-1,1392,484,3.05084,0.00102554
175,540,3.37708,0.617035,0,0,0,0,0,0,0,-1,1399,484,3.37707,-0.617046
182,540,3.32678,1.23267,0,0,0,0,0,0,0,-1,1406,484,3.32678,-1.23266
189,540,3.5813,2.15619,0,0,0,0,0,0,0,-1,1413,484,3.58129,-2.1562
196,540,1.84448,-0.801483,0,0,0,0,0,0,0,-1,1420,484,1.84446,0.80148
203,540,4.14648,0.702087,0,0,0,0,0,0,0,-1,1427,484,4.14645,-0.702089
210,540,4.50671,-0.56076,0,0,0,0,0,0,0,-1,1434,484,4.50667,0.560771
217,540,5.00452,-0.278717,0,0,0,0,0,0,0,-1,1441,484,5.00452,0.278709
224,540,6.44458,-2.83527,0,0,0,0,0,0,0,-1,1448,484,6.44457,2.83525
231,540,6.9231,-3.10504,0,0,0,0,0,0,0,-1,1455,484,6.92307,3.10505
238,540,6.4823,-2.58365,0,0,0,0,0,0,0,-1,1462,484,6.48225,2.58363
245,540,6.02087,-1.97916,0,0,0,0,0,0,0,-1,1469,484,6.02088,1.97915
252,540,6.50647,-3.56006,0,0,0,0,0,0,0,-1,1476,484,6.50649,3.56006
259,540,6.01941,-2.798,0,0,0,0,0,0,0,-1,1483,484,6.01941,2.79801
266,540,5.5332,-2.02853,0,0,0,0,0,0,0,-1,1490,484,5.53323,2.02855
273,540,5.06787,-1.28137,0,0,0,0,0,0,0,-1,1497,484,5.06786,1.28136
280,540,1.62903,-2.14609,0,0,0,0,0,0,0,-1,1504,484,1.62906,2.1461
287,540,1.97156,-2.45053,0,0,0,0,0,0,0,-1,1511,484,1.97159,2.45053
294,540,2.44165,-2.6185,0,0,0,0,0,0,0,-1,1518,484,2.44167,2.6185
301,540,4.36169,-2.54272,0,0,0,0,0,0,0,-1,1525,484,4.36165,2.54272
308,540,4.2019,-4.30469,0,0,0,0,0,0,0,-1,1532,484,4.20193,4.3047
315,540,4.45923,-5.32101,0,0,0,0,0,0,0,-1,1539,484,4.45923,5.32103
322,540,4.71655,-6.33737,0,0,0,0,0,0,0,-1,1546,484,4.71653,6.33736
329,540,5.8949,-12.9383,0,0,0,0,0,0,0,-1,1553,484,5.89492,12.9383
336,540,6.56519,-15.6794,0,0,0,0,0,0,0,-1,1560,484,6.56513,15.6794
343,540,6.61084,-14.8522,0,0,0,0,0,0,0,-1,1567,484,6.61081,14.8522
350,540,6.60278,-14.7519,0,0,0,0,0,0,0,-1,1574,484,6.60279,14.7519
357,540,6.58911,-14.5717,0.000196109,-0.00357673,-0.0031724,0.00200059,-0.00538121,-0.517166,0.00440834,0.0451485,1581,484,6.58909,14.5717
364,540,6.39771,-14.4124,0.000582025,-0.00254757,-0.00215012,0.00167648,-0.00364202,-0.470837,0.00313976,0.0260923,1588,484,6.39767,14.4124
371,540,6.41418,-14.1778,0.000825336,-0.0017263,-0.00137332,0.00142401,-0.00232498,-0.411093,0.00218522,0.0163918,1595,484,6.41423,14.1778
378,540,6.44714,-13.879,0.000780606,-0.00107903,-0.000914161,0.00115473,-0.00145315,-0.388454,0.00150894,0.0127766,1602,484,6.44713,13.879
385,540,6.43604,-13.5911,0.000730445,-0.000482729,-0.000498798,0.00090919,-0.000661474,-0.344096,0.000910575,0.0145558,1609,484,6.43599,13.5911
392,540,6.41992,-13.299,0.000667749,-8.51643e-05,-0.000128736,0.000689152,-0.000106568,-0.16475,0.000498767,0.0133206,1616,484,6.41995,13.2991
399,540,6.42297,-13.0071,0.000571734,0.000281945,6.90422e-05,0.000587343,0.000266337,0.222336,0.000339592,0.0173747,1623,484,6.42303,13.0071
406,540,6.44934,-12.6963,0.000478698,0.000383592,0.000172339,0.000609925,0.000252366,0.650785,0.000353882,0.0183931,1630,484,6.44936,12.6963
413,540,6.43799,-12.3641,0.000435981,0.000593114,0.000350133,0.000873387,0.000155708,0.895766,0.00053792,0.0137968,1637,484,6.43797,12.3641
420,540,6.45923,-12.0439,0.000151093,0.000635269,0.000489598,0.000939361,-0.000152999,1.015,0.000682977,0.0117056,1644,484,6.45925,12.0439
427,540,6.45398,-11.7369,-0.000414668,0.000773555,0.000747919,0.00113461,-0.000775727,1.12104,0.0011094,0.0122426,1651,484,6.454,11.7369
434,540,6.44385,-11.423,-0.00121045,0.000977533,0.00125321,0.00154707,-0.00177999,1.14423,0.00192245,0.0157893,1658,484,6.44387,11.423
441,540,6.4613,-11.0727,-0.00208823,0.001301,0.00190364,0.00215503,-0.00294225,1.14908,0.00295459,0.0199626,1665,484,6.46131,11.0727
448,540,6.42004,-10.7481,-0.00320728,0.00161091,0.00269449,0.00281623,-0.0044126,1.15017,0.00420735,0.0120533,1672,484,6.42009,10.7481
455,540,6.41138,-10.4107,-0.00457478,0.00206887,0.00359863,0.00364446,-0.00615037,1.15811,0.0057164,0.0105162,1679,484,6.41143,10.4107
462,540,6.39624,-10.0743,-0.00607192,0.00264424,0.00455032,0.00458682,-0.0080145,1.16731,0.00736454,0.0105455,1686,484,6.39619,10.0743
469,540,6.37317,-9.75443,-0.00767522,0.0033831,0.0054793,0.00563818,-0.00993029,1.18036,0.00910161,0.0134122,1693,484,6.3732,9.75442
476,540,6.36304,-9.46512,-0.00961715,0.00414086,0.00640752,0.00666276,-0.0121391,1.19583,0.0110076,0.0199472,1700,484,6.36304,9.46512
483,540,6.40308,-9.15082,-0.0118176,0.00488375,0.00711502,0.00750382,-0.0144377,1.21796,0.0128771,0.0400566,1707,484,6.40305,9.15081
490,540,6.59827,-8.71124,0,0,0,0,0,0,0,-1,1714,484,6.59826,8.71123
497,540,4.27393,-2.67752,0,0,0,0,0,0,0,-1,1721,484,4.27395,2.67751
504,540,5.52747,-4.4433,0,0,0,0,0,0,0,-1,1728,484,5.5275,4.44329
511,540,5.82471,-6.83521,0,0,0,0,0,0,0,-1,1735,484,5.82465,6.83522
518,540,5.83142,-6.9389,0,0,0,0,0,0,0,-1,1742,484,5.8314,6.9389
525,540,5.83813,-7.04257,0,0,0,0,0,0,0,-1,1749,484,5.83816,7.04257
532,540,2.84265,-1.07925,0,0,0,0,0,0,0,-1,1756,484,2.84269,1.07927
539,540,0,0,0,0,0,0,0,0,0,-1,1763,484,0,0
546,540,0,0,0,0,0,0,0,0,0,-1,1770,484,0,0
553,540,0,0,0,0,0,0,0,0,0,-1,1777,484,0,0
560,540,0,0,0,0,0,0,0,0,0,-1,1784,484,0,0
567,540,0,0,0,0,0,0,0,0,0,-1,1791,484,0,0
574,540,0,0,0,0,0,0,0,0,0,-1,1798,484,0,0
581,540,0,0,0,0,0,0,0,0,0,-1,1805,484,0,0
588,540,0,0,0,0,0,0,0,0,0,-1,1812,484,0,0
595,540,0,0,0,0,0,0,0,0,0,-1,1819,484,0,0
602,540,0,0,0,0,0,0,0,0,0,-1,1826,484,0,0
609,540,0,0,0,0,0,0,0,0,0,-1,1833,484,0,0
616,540,0,0,0,0,0,0,0,0,0,-1,1840,484,0,0
623,540,0,0,0,0,0,0,0,0,0,-1,1847,484,0,0
630,540,0,0,0,0,0,0,0,0,0,-1,1854,484,0,0
637,540,0,0,0,0,0,0,0,0,0,-1,1861,484,0,0
644,540,0,0,0,0,0,0,0,0,0,-1,1868,484,0,0
651,540,0,0,0,0,0,0,0,0,0,-1,1875,484,0,0
658,540,0,0,0,0,0,0,0,0,0,-1,1882,484,0,0
665,540,0,0,0,0,0,0,0,0,0,-1,1889,484,0,0
672,540,0,0,0,0,0,0,0,0,0,-1,1896,484,0,0
679,540,0,0,0,0,0,0,0,0,0,-1,1903,484,0,0
686,540,0,0,0,0,0,0,0,0,0,-1,1910,484,0,0
693,540,0,0,0,0,0,0,0,0,0,-1,1917,484,0,0
700,540,0,0,0,0,0,0,0,0,0,-1,1924,484,0,0
707,540,0,0,0,0,0,0,0,0,0,-1,1931,484,0,0
714,540,0,0,0,0,0,0,0,0,0,-1,1938,484,0,0
721,540,0,0,0,0,0,0,0,0,0,-1,1945,484,0,0
728,540,0,0,0,0,0,0,0,0,0,-1,1952,484,0,0
735,540,0,0,0,0,0,0,0,0,0,-1,1959,484,0,0
742,540,0,0,0,0,0,0,0,0,0,-1,1966,484,0,0
749,540,0,0,0,0,0,0,0,0,0,-1,1973,484,0,0
756,540,0,0,0,0,0,0,0,0,0,-1,1980,484,0,0
763,540,0,0,0,0,0,0,0,0,0,-1,1987,484,0,0
770,540,0,0,0,0,0,0,0,0,0,-1,1994,484,0,0
777,540,0,0,0,0,0,0,0,0,0,-1,2001,484,0,0
784,540,0,0,0,0,0,0,0,0,0,-1,2008,484,0,0
791,540,0,0,0,0,0,0,0,0,0,-1,2015,484,0,0
798,540,0,0,0,0,0,0,0,0,0,-1,2022,484,0,0
805,540,0,0,0,0,0,0,0,0,0,-1,2029,484,0,0
812,540,0,0,0,0,0,0,0,0,0,-1,2036,484,0,0
-700,533,0,0,0,0,0,0,0,0,0,-1,524,491,0,0
-693,533,0,0,0,0,0,0,0,0,0,-1,531,491,0,0
-686,533,0,0,0,0,0,0,0,0,0,-1,538,491,0,0
-679,533,0,0,0,0,0,0,0,0,0,-1,545,491,0,0
-672,533,0,0,0,0,0,0,0,0,0,-1,552,491,0,0
-665,533,0,0,0,0,0,0,0,0,0,-1,559,491,0,0
-658,533,0,0,0,0,0,0,0,0,0,-1,566,491,0,0
-651,533,0,0,0,0,0,0,0,0,0,-1,573,491,0,0
-644,533,0,0,0,0,0,0,0,0,0,-1,580,491,0,0
-637,533,0,0,0,0,0,0,0,0,0,-1,587,491,0,0
-630,533,0,0,0,0,0,0,0,0,0,-1,594,491,0,0
-623,533,0,0,0,0,0,0,0,0,0,-1,601,491,0,0
-616,533,0,0,0,0,0,0,0,0,0,-1,608,491,0,0
-609,533,0,0,0,0,0,0,0,0,0,-1,615,491,0,0
-602,533,0,0,0,0,0,0,0,0,0,-1,622,491,0,0
-595,533,0,0,0,0,0,0,0,0,0,-1,629,491,0,0
-588,533,0,0,0,0,0,0,0,0,0,-1,636,491,0,0
-581,533,0,0,0,0,0,0,0,0,0,-1,643,491,0,0
-574,533,0,0,0,0,0,0,0,0,0,-1,650,491,0,0
-567,533,0,0,0,0,0,0,0,0,0,-1,657,491,0,0
-560,533,0,0,0,0,0,0,0,0,0,-1,664,491,0,0
-553,533,0,0,0,0,0,0,0,0,0,-1,671,491,0,0
-546,533,0,0,0,0,0,0,0,0,0,-1,678,491,0,0
-539,533,0,0,0,0,0,0,0,0,0,-1,685,491,0,0
-532,533,0,0,0,0,0,0,0,0,0,-1,692,491,0,0
-525,533,0,0,0,0,0,0,0,0,0,-1,699,491,0,0
-518,533,0,0,0,0,0,0,0,0,0,-1,706,491,0,0
-511,533,0,0,0,0,0,0,0,0,0,-1,713,491,0,0
-504,533,0,0,0,0,0,0,0,0,0,-1,720,491,0,0
-497,533,0,0,0,0,0,0,0,0,0,-1,727,491,0,0
-490,533,0,0,0,0,0,0,0,0,0,-1,734,491,0,0
-483,533,0,0,0,0,0,0,0,0,0,-1,741,491,0,0
-476,533,0,0,0,0,0,0,0,0,0,-1,748,491,0,0
-469,533,0,0,0,0,0,0,0,0,0,-1,755,491,0,0
-462,533,0,0,0,0,0,0,0,0,0,-1,762,491,0,0
-455,533,0,0,0,0,0,0,0,0,0,-1,769,491,0,0
-448,533,0,0,0,0,0,0,0,0,0,-1,776,491,0,0
-441,533,0,0,0,0,0,0,0,0,0,-1,783,491,0,0
-434,533,0,0,0,0,0,0,0,0,0,-1,790,491,0,0
-427,533,-0.122925,-6.00681,0,0,0,0,0,0,0,-1,797,491,-0.12292,6.0068
-420,533,0.47583,-9.66522,0,0,0,0,0,0,0,-1,804,491,0.475807,9.66523
-413,533,0.69989,-7.88477,0,0,0,0,0,0,0,-1,811,491,0.699895,7.88475
-406,533,0.340881,-8.1232,0,0,0,0,0,0,0,-1,818,491,0.340867,8.12319
-399,533,1.49341,-4.32501,0,0,0,0,0,0,0,-1,825,491,1.49343,4.32502
-392,533,1.98297,-2.53873,0,0,0,0,0,0,0,-1,832,491,1.98299,2.53873
-385,533,-1.69116,-6.64645,0,0,0,0,0,0,0,-1,839,491,-1.69115,6.64645
-378,533,0.538757,-10.1314,0,0,0,0,0,0,0,-1,846,491,0.538741,10.1314
-371,533,0.59259,-10.3112,-0.00911288,-0.0105072,0.00349206,-0.00624906,-0.013371,0.686874,0.00772524,0.0483015,853,491,0.592565,10.3112
-364,533,0.509766,-10.403,-0.00746809,-0.00668949,0.00228451,-0.00476134,-0.00939624,0.869792,0.00542508,0.0426522,860,491,0.509783,10.403
-357,533,0.369324,-10.4532,-0.00594815,-0.00332109,0.00139257,-0.0027203,-0.00654894,1.1635,0.00379904,0.0257951,867,491,0.369301,10.4532
-350,533,0.326721,-10.772,-0.00478011,-0.00135182,0.000486612,-0.00128409,-0.00484784,1.43249,0.00290022,0.0112383,874,491,0.3267,10.772
-343,533,0.31073,-11.1377,-0.00374671,-7.8035e-05,-0.000178343,-6.93857e-05,-0.00375536,-1.52234,0.00248077,0.0109065,881,491,0.310728,11.1377
-336,533,0.272339,-11.4815,-0.00283204,0.000480113,-0.000656736,0.000605578,-0.0029575,-1.38203,0.00220147,0.0146096,888,491,0.272361,11.4815
-329,533,0.276855,-11.7776,-0.00201057,0.000682529,-0.000932144,0.000973688,-0.00230173,-1.26804,0.00194218,0.0135152,895,491,0.276876,11.7776
-322,533,0.257446,-12.0735,-0.00135023,0.00070508,-0.00100107,0.00111207,-0.00175722,-1.18465,0.00167049,0.0113656,902,491,0.257431,12.0735
-315,533,0.224915,-12.3862,-0.000760697,0.000850494,-0.00103408,0.00135574,-0.00126594,-1.11631,0.00151393,0.0126285,909,491,0.224936,12.3862
-308,533,0.217834,-12.68,-0.000247194,0.000619772,-0.00086059,0.00114989,-0.00077731,-1.0187,0.00111958,0.0114653,916,491,0.217811,12.68
-301,533,0.202454,-12.9566,0.000127788,0.000133179,-0.000540322,0.000670812,-0.000409845,-0.787892,0.000629952,0.0122145,923,491,0.202477,12.9566
-294,533,0.234192,-13.249,0.000455512,-0.00055556,-0.000135624,0.000473388,-0.000573437,-0.131053,0.000605304,0.0116242,930,491,0.234183,13.249
-287,533,0.255493,-13.5638,0.000684191,-0.00119853,0.000321862,0.000737695,-0.00125203,0.164726,0.00116149,0.00941109,937,491,0.255489,13.5638
-280,533,0.243408,-13.8574,0.000753847,-0.00210143,0.000753199,0.000940353,-0.00228794,0.242735,0.00191722,0.00892205,944,491,0.243424,13.8574
-273,533,0.23468,-14.1346,0.000885193,-0.00338657,0.00143972,0.00132512,-0.00382649,0.296554,0.00308895,0.0125293,951,491,0.234707,14.1346
-266,533,0.251831,-14.4164,0.00128806,-0.00548027,0.00227444,0.00198135,-0.00617356,0.295871,0.00491124,0.0123755,958,491,0.251839,14.4164
-259,533,0.26532,-14.6915,0.00159188,-0.00775513,0.00311294,0.00253372,-0.00869696,0.293799,0.00680172,0.0123907,965,491,0.265297,14.6915
-252,533,0.274292,-14.9274,0.00175174,-0.0106035,0.00421237,0.00305122,-0.0119029,0.29923,0.00912405,0.0148814,972,491,0.274316,14.9274
-245,533,0.332825,-15.1528,0.00181532,-0.0143304,0.00551216,0.00351767,-0.0160328,0.299544,0.0120337,0.021609,979,491,0.332836,15.1528
-238,533,0.302856,-15.2922,0.00188238,-0.0186531,0.00701271,0.00404865,-0.0208194,0.299608,0.0154075,0.0232658,986,491,0.30283,15.2922
-231,533,0.365662,-15.4513,0.001899,-0.0236274,0.00885612,0.0046706,-0.026399,0.303303,0.0193451,0.0325615,993,491,0.365678,15.4513
-224,533,0.125183,-15.5619,0.00164648,-0.0290697,0.0110622,0.00521571,-0.0326389,0.312106,0.02369,0.041876,1000,491,0.125165,15.5619
-217,533,0.308838,-15.453,0.00140228,-0.0346898,0.0132798,0.00576186,-0.0390493,0.317203,0.0281508,0.0462526,1007,491,0.308863,15.453
-210,533,0.733826,-15.451,0,0,0,0,0,0,0,-1,1014,491,0.733839,15.451
-203,533,0.324707,-15.9987,0,0,0,0,0,0,0,-1,1021,491,0.324699,15.9987
-196,533,0.0670166,-15.6631,0,0,0,0,0,0,0,-1,1028,491,0.0669789,15.6631
-189,533,-0.169189,-15.0303,0,0,0,0,0,0,0,-1,1035,491,-0.169241,15.0303
-182,533,1.26123,-11.4969,0,0,0,0,0,0,0,-1,1042,491,1.26128,11.4969
-175,533,0.937744,-7.36966,0,0,0,0,0,0,0,-1,1049,491,0.937769,7.36965
-168,533,2.64807,-2.7543,0,0,0,0,0,0,0,-1,1056,491,2.64812,2.7543
-161,533,1.91833,-1.76553,0,0,0,0,0,0,0,-1,1063,491,1.91836,1.76554
-154,533,0.376709,-11.0633,0,0,0,0,0,0,0,-1,1070,491,0.376715,11.0632
-147,533,0.383789,-12.1586,0,0,0,0,0,0,0,-1,1077,491,0.383829,12.1586
-140,533,1.14001,-15.4608,0,0,0,0,0,0,0,-1,1084,491,1.14005,15.4608
-133,533,0.189941,-16.0795,0,0,0,0,0,0,0,-1,1091,491,0.18994,16.0795
-126,533,2.89612,-2.59003,0,0,0,0,0,0,0,-1,1098,491,2.89608,2.59003
-119,533,3.00842,-12.8239,0,0,0,0,0,0,0,-1,1105,491,3.00841,12.8239
-112,533,7.05884,-10.21,0,0,0,0,0,0,0,-1,1112,491,7.0588,10.21
-105,533,3.84839,1.12769,0,0,0,0,0,0,0,-1,1119,491,3.84843,-1.12769
-98,533,-1.39392,-5.16367,0,0,0,0,0,0,0,-1,1126,491,-1.39394,5.16367
-91,533,0.367432,4.49753,0,0,0,0,0,0,0,-1,1133,491,0.367468,-4.49754
-84,533,-0.88623,3.03604,0,0,0,0,0,0,0,-1,1140,491,-0.886288,-3.03605
-77,533,0,0,0,0,0,0,0,0,0,-1,1147,491,0,0
-70,533,0,0,0,0,0,0,0,0,0,-1,1154,491,0,0
-63,533,0,0,0,0,0,0,0,0,0,-1,1161,491,0,0
-56,533,0,0,0,0,0,0,0,0,0,-1,1168,491,0,0
-49,533,0,0,0,0,0,0,0,0,0,-1,1175,491,0,0
-42,533,0,0,0,0,0,0,0,0,0,-1,1182,491,0,0
-35,533,0,0,0,0,0,0,0,0,0,-1,1189,491,0,0
-28,533,0,0,0,0,0,0,0,0,0,-1,1196,491,0,0
-21,533,0,0,0,0,0,0,0,0,0,-1,1203,491,0,0
-14,533,0,0,0,0,0,0,0,0,0,-1,1210,491,0,0
-7,533,0,0,0,0,0,0,0,0,0,-1,1217,491,0,0
0,533,0,0,0,0,0,0,0,0,0,-1,1224,491,0,0
7,533,0,0,0,0,0,0,0,0,0,-1,1231,491,0,0
14,533,0,0,0,0,0,0,0,0,0,-1,1238,491,0,0
21,533,0,0,0,0,0,0,0,0,0,-1,1245,491,0,0
28,533,0,0,0,0,0,0,0,0,0,-1,1252,491,0,0
35,533,0,0,0,0,0,0,0,0,0,-1,1259,491,0,0
42,533,0,0,0,0,0,0,0,0,0,-1,1266,491,0,0
49,533,0,0,0,0,0,0,0,0,0,-1,1273,491,0,0
56,533,0,0,0,0,0,0,0,0,0,-1,1280,491,0,0
63,533,0,0,0,0,0,0,0,0,0,-1,1287,491,0,0
70,533,0,0,0,0,0,0,0,0,0,-1,1294,491,0,0
77,533,0,0,0,0,0,0,0,0,0,-1,1301,491,0,0
84,533,0,0,0,0,0,0,0,0,0,-1,1308,491,0,0
91,533,0,0,0,0,0,0,0,0,0,-1,1315,491,0,0
98,533,0,0,0,0,0,0,0,0,0,-1,1322,491,0,0
105,533,0,0,0,0,0,0,0,0,0,-1,1329,491,0,0
112,533,0,0,0,0,0,0,0,0,0,-1,1336,491,0,0
119,533,0,0,0,0,0,0,0,0,0,-1,1343,491,0,0
126,533,0,0,0,0,0,0,0,0,0,-1,1350,491,0,0
133,533,0,0,0,0,0,0,0,0,0,-1,1357,491,0,0
140,533,0,0,0,0,0,0,0,0,0,-1,1364,491,0,0
147,533,0,0,0,0,0,0,0,0,0,-1,1371,491,0,0
154,533,0,0,0,0,0,0,0,0,0,-1,1378,491,0,0
161,533,0,0,0,0,0,0,0,0,0,-1,1385,491,0,0
168,533,0,0,0,0,0,0,0,0,0,-1,1392,491,0,0
175,533,0,0,0,0,0,0,0,0,0,-1,1399,491,0,0
182,533,0,0,0,0,0,0,0,0,0,-1,1406,491,0,0
189,533,0,0,0,0,0,0,0,0,0,-1,1413,491,0,0
196,533,0,0,0,0,0,0,0,0,0,-1,1420,491,0,0
203,533,3.7887,1.16193,0,0,0,0,0,0,0,-1,1427,491,3.78872,-1.16193
210,533,5.09558,-0.216034,0,0,0,0,0,0,0,-1,1434,491,5.09559,0.216028
217,533,6.91614,-2.46814,0,0,0,0,0,0,0,-1,1441,491,6.91618,2.46814
224,533,7.23621,-2.1857,0,0,0,0,0,0,0,-1,1448,491,7.23621,2.1857
231,533,7.23474,-1.92282,0,0,0,0,0,0,0,-1,1455,491,7.2347,1.92282
238,533,7.23535,-1.67258,0,0,0,0,0,0,0,-1,1462,491,7.23539,1.67258
245,533,6.86682,-1.2301,0,0,0,0,0,0,0,-1,1469,491,6.86686,1.23011
252,533,6.63354,-3.07825,0,0,0,0,0,0,0,-1,1476,491,6.6335,3.07824
259,533,6.16431,-2.35037,0,0,0,0,0,0,0,-1,1483,491,6.1643,2.35037
266,533,5.68884,-1.6214,0,0,0,0,0,0,0,-1,1490,491,5.68885,1.6214
273,533,5.21399,-0.864227,0,0,0,0,0,0,0,-1,1497,491,5.21403,0.864227
280,533,1.41089,-1.97946,0,0,0,0,0,0,0,-1,1504,491,1.41087,1.97946
287,533,1.6814,-2.44443,0,0,0,0,0,0,0,-1,1511,491,1.6814,2.44444
294,533,2.2384,-2.57626,0,0,0,0,0,0,0,-1,1518,491,2.23839,2.57625
301,533,3.39941,-4.0817,0,0,0,0,0,0,0,-1,1525,491,3.3994,4.08171
308,533,4.13733,-4.14752,0,0,0,0,0,0,0,-1,1532,491,4.13727,4.14752
315,533,4.80762,-5.29349,0,0,0,0,0,0,0,-1,1539,491,4.80762,5.29347
322,533,5.47803,-6.43942,0,0,0,0,0,0,0,-1,1546,491,5.47798,6.43943
329,533,3.88477,-3.86301,0,0,0,0,0,0,0,-1,1553,491,3.88475,3.86299
336,533,6.70923,-13.2003,0,0,0,0,0,0,0,-1,1560,491,6.70926,13.2004
343,533,6.82959,-14.4092,0,0,0,0,0,0,0,-1,1567,491,6.82962,14.4092
350,533,5.62915,-8.02426,0,0,0,0,0,0,0,-1,1574,491,5.6291,8.02426
357,533,6.96521,-14.4272,0,0,0,0,0,0,0,-1,1581,491,6.96523,14.4272
364,533,6.61902,-14.4761,0,0,0,0,0,0,0,-1,1588,491,6.61907,14.4761
371,533,6.61426,-14.1988,0.00105295,-0.00202659,-0.00159554,0.00173053,-0.00270417,-0.401593,0.00258086,0.0406306,1595,491,6.61424,14.1988
378,533,6.67346,-13.8729,0.000930194,-0.00128701,-0.00118017,0.00144079,-0.0017976,-0.408328,0.00187347,0.0300752,1602,491,6.67352,13.8729
385,533,6.74475,-13.5632,0.000821813,-0.000791316,-0.000795789,0.00114831,-0.00111781,-0.389337,0.00130838,0.0251643,1609,491,6.7447,13.5632
392,533,6.72144,-13.2997,0.000739131,-0.000381725,-0.000450563,0.00089779,-0.000540384,-0.338576,0.000838833,0.0146555,1616,491,6.72146,13.2997
399,533,6.74536,-13.0146,0.000593768,-9.17006e-05,-0.000340481,0.000734142,-0.000232075,-0.39105,0.000582409,0.0122591,1623,491,6.74535,13.0146
406,533,6.76416,-12.704,0.00046402,-4.80841e-05,-0.000309671,0.000609787,-0.000193851,-0.439948,0.000484253,0.0151608,1630,491,6.76418,12.704
413,533,6.76245,-12.3605,0.000459488,0.000172777,-0.000165968,0.000535441,9.6824e-05,-0.429186,0.000329463,0.0132001,1637,491,6.76245,12.3605
420,533,6.77222,-12.0358,0.00027056,0.000179562,-0.000123289,0.000356478,9.36435e-05,-0.608629,0.0002134,0.0116504,1644,491,6.7722,12.0358
427,533,6.77161,-11.7126,-0.000123894,0.000218948,2.39626e-06,0.000218965,-0.000123911,1.56381,0.000200479,0.0126067,1651,491,6.77164,11.7126
434,533,6.76501,-11.4087,-0.000653552,0.000350095,0.000362211,0.00046716,-0.000770617,1.2582,0.000721755,0.0132681,1658,491,6.76503,11.4087
441,533,6.78052,-11.0874,-0.00127515,0.000636936,0.000905326,0.000997568,-0.00163578,1.19172,0.00153518,0.0158309,1665,491,6.7805,11.0874
448,533,6.74548,-10.7542,-0.00203703,0.000890581,0.0015673,0.00157134,-0.00271779,1.16103,0.00250564,0.0172029,1672,491,6.74545,10.7542
455,533,6.72937,-10.4267,-0.0029643,0.00128996,0.00230925,0.00230247,-0.00397681,1.15758,0.00366805,0.0164982,1679,491,6.72942,10.4267
462,533,6.72888,-10.0759,-0.00393846,0.00175759,0.00306144,0.00309091,-0.00527178,1.16005,0.00488262,0.0144846,1686,491,6.72889,10.0759
469,533,6.72888,-9.75568,-0.00497069,0.00232829,0.00375055,0.00391191,-0.0065543,1.17127,0.00610653,0.00925527,1693,491,6.7289,9.75569
476,533,6.72607,-9.41843,-0.00626097,0.00289677,0.00442871,0.00468811,-0.00805231,1.18643,0.00744067,0.0109411,1700,491,6.72613,9.41844
483,533,6.75623,-9.04532,-0.00769908,0.00341016,0.00487649,0.00524702,-0.00953594,1.21056,0.00865386,0.0205622,1707,491,6.75627,9.04532
490,533,6.85583,-8.55109,0,0,0,0,0,0,0,-1,1714,491,6.85589,8.55108
497,533,6.88977,-8.39603,0,0,0,0,0,0,0,-1,1721,491,6.88974,8.39603
504,533,6.65601,-7.78979,0,0,0,0,0,0,0,-1,1728,491,6.65601,7.78981
511,533,6.61707,-7.40964,0,0,0,0,0,0,0,-1,1735,491,6.6171,7.40964
518,533,6.49231,-7.23499,0,0,0,0,0,0,0,-1,1742,491,6.49231,7.23499
525,533,6.47595,-7.3255,0,0,0,0,0,0,0,-1,1749,491,6.47594,7.32551
532,533,3.24243,0.0737,0,0,0,0,0,0,0,-1,1756,491,3.24239,-0.0737072
539,533,3.61609,1.62427,0,0,0,0,0,0,0,-1,1763,491,3.61606,-1.62426
546,533,3.59607,1.65799,0,0,0,0,0,0,0,-1,1770,491,3.59605,-1.658
553,533,0,0,0,0,0,0,0,0,0,-1,1777,491,0,0
560,533,0,0,0,0,0,0,0,0,0,-1,1784,491,0,0
567,533,0,0,0,0,0,0,0,0,0,-1,1791,491,0,0
574,533,0,0,0,0,0,0,0,0,0,-1,1798,491,0,0
581,533,0,0,0,0,0,0,0,0,0,-1,1805,491,0,0
588,533,0,0,0,0,0,0,0,0,0,-1,1812,491,0,0
595,533,0,0,0,0,0,0,0,0,0,-1,1819,491,0,0
602,533,0,0,0,0,0,0,0,0,0,-1,1826,491,0,0
609,533,0,0,0,0,0,0,0,0,0,-1,1833,491,0,0
616,533,0,0,0,0,0,0,0,0,0,-1,1840,491,0,0
623,533,0,0,0,0,0,0,0,0,0,-1,1847,491,0,0
630,533,0,0,0,0,0,0,0,0,0,-1,1854,491,0,0
637,533,0,0,0,0,0,0,0,0,0,-1,1861,491,0,0
644,533,0,0,0,0,0,0,0,0,0,-1,1868,491,0,0
651,533,0,0,0,0,0,0,0,0,0,-1,1875,491,0,0
658,533,0,0,0,0,0,0,0,0,0,-1,1882,491,0,0
665,533,0,0,0,0,0,0,0,0,0,-1,1889,491,0,0
672,533,0,0,0,0,0,0,0,0,0,-1,1896,491,0,0
679,533,0,0,0,0,0,0,0,0,0,-1,1903,491,0,0
686,533,0,0,0,0,0,0,0,0,0,-1,1910,491,0,0
693,533,0,0,0,0,0,0,0,0,0,-1,1917,491,0,0
700,533,0,0,0,0,0,0,0,0,0,-1,1924,491,0,0
707,533,0,0,0,0,0,0,0,0,0,-1,1931,491,0,0
714,533,0,0,0,0,0,0,0,0,0,-1,1938,491,0,0
721,533,0,0,0,0,0,0,0,0,0,-1,1945,491,0,0
728,533,0,0,0,0,0,0,0,0,0,-1,1952,491,0,0
735,533,0,0,0,0,0,0,0,0,0,-1,1959,491,0,0
742,533,0,0,0,0,0,0,0,0,0,-1,1966,491,0,0
749,533,0,0,0,0,0,0,0,0,0,-1,1973,491,0,0
756,533,0,0,0,0,0,0,0,0,0,-1,1980,491,0,0
763,533,0,0,0,0,0,0,0,0,0,-1,1987,491,0,0
770,533,0,0,0,0,0,0,0,0,0,-1,1994,491,0,0
777,533,0,0,0,0,0,0,0,0,0,-1,2001,491,0,0
784,533,0,0,0,0,0,0,0,0,0,-1,2008,491,0,0
791,533,0,0,0,0,0,0,0,0,0,-1,2015,491,0,0
798,533,0,0,0,0,0,0,0,0,0,-1,2022,491,0,0
805,533,0,0,0,0,0,0,0,0,0,-1,2029,491,0,0
812,533,0,0,0,0,0,0,0,0,0,-1,2036,491,0,0
-700,526,0,0,0,0,0,0,0,0,0,-1,524,498,0,0
-693,526,0,0,0,0,0,0,0,0,0,-1,531,498,0,0
-686,526,0,0,0,0,0,0,0,0,0,-1,538,498,0,0
-679,526,0,0,0,0,0,0,0,0,0,-1,545,498,0,0
-672,526,0,0,0,0,0,0,0,0,0,-1,552,498,0,0
-665,526,0,0,0,0,0,0,0,0,0,-1,559,498,0,0
-658,526,0,0,0,0,0,0,0,0,0,-1,566,498,0,0
-651,526,0,0,0,0,0,0,0,0,0,-1,573,498,0,0
-644,526,0,0,0,0,0,0,0,0,0,-1,580,498,0,0
-637,526,0,0,0,0,0,0,0,0,0,-1,587,498,0,0
-630,526,0,0,0,0,0,0,0,0,0,-1,594,498,0,0
-623,526,0,0,0,0,0,0,0,0,0,-1,601,498,0,0
-616,526,0,0,0,0,0,0,0,0,0,-1,608,498,0,0
-609,526,0,0,0,0,0,0,0,0,0,-1,615,498,0,0
-602,526,0,0,0,0,0,0,0,0,0,-1,622,498,0,0
-595,526,0,0,0,0,0,0,0,0,0,-1,629,498,0,0
-588,526,0,0,0,0,0,0,0,0,0,-1,636,498,0,0
-581,526,0,0,0,0,0,0,0,0,0,-1,643,498,0,0
-574,526,0,0,0,0,0,0,0,0,0,-1,650,498,0,0
-567,526,0,0,0,0,0,0,0,0,0,-1,657,498,0,0
-560,526,0,0,0,0,0,0,0,0,0,-1,664,498,0,0
-553,526,0,0,0,0,0,0,0,0,0,-1,671,498,0,0
-546,526,0,0,0,0,0,0,0,0,0,-1,678,498,0,0
-539,526,0,0,0,0,0,0,0,0,0,-1,685,498,0,0
-532,526,0,0,0,0,0,0,0,0,0,-1,692,498,0,0
-525,526,0,0,0,0,0,0,0,0,0,-1,699,498,0,0
-518,526,0,0,0,0,0,0,0,0,0,-1,706,498,0,0
-511,526,0,0,0,0,0,0,0,0,0,-1,713,498,0,0
-504,526,0,0,0,0,0,0,0,0,0,-1,720,498,0,0
-497,526,0,0,0,0,0,0,0,0,0,-1,727,498,0,0
-490,526,0,0,0,0,0,0,0,0,0,-1,734,498,0,0
-483,526,0,0,0,0,0,0,0,0,0,-1,741,498,0,0
-476,526,0,0,0,0,0,0,0,0,0,-1,748,498,0,0
-469,526,0,0,0,0,0,0,0,0,0,-1,755,498,0,0
-462,526,0,0,0,0,0,0,0,0,0,-1,762,498,0,0
-455,526,0,0,0,0,0,0,0,0,0,-1,769,498,0,0
-448,526,0,0,0,0,0,0,0,0,0,-1,776,498,0,0
-441,526,0,0,0,0,0,0,0,0,0,-1,783,498,0,0
-434,526,-0.153564,-5.96649,0,0,0,0,0,0,0,-1,790,498,-0.153589,5.9665
-427,526,0.0078125,-5.84042,0,0,0,0,0,0,0,-1,797,498,0.00779806,5.84041
-420,526,0.137146,-5.72488,0,0,0,0,0,0,0,-1,804,498,0.137154,5.7249
-413,526,0.132446,-8.22989,0,0,0,0,0,0,0,-1,811,498,0.132441,8.2299
-406,526,0.0632324,-8.31076,0,0,0,0,0,0,0,-1,818,498,0.0632086,8.31075
-399,526,-0.00604248,-8.3916,0,0,0,0,0,0,0,-1,825,498,-0.0060242,8.3916
-392,526,-1.10022,-6.7597,0,0,0,0,0,0,0,-1,832,498,-1.10022,6.75971
-385,526,-0.381348,-8.19635,0,0,0,0,0,0,0,-1,839,498,-0.381317,8.19635
-378,526,0.0947266,-9.48441,0,0,0,0,0,0,0,-1,846,498,0.0947537,9.48439
-371,526,0.0841675,-9.83832,-0.0068583,-0.00902064,0.00232765,-0.00537298,-0.010506,0.567979,0.00606615,0.0383099,853,498,0.0841413,9.83833
-364,526,0.072937,-10.1717,-0.00564848,-0.00590602,0.001577,-0.00419501,-0.00735949,0.74466,0.00426287,0.0205574,860,498,0.0729398,10.1717
-357,526,-0.00958252,-10.4519,-0.00445789,-0.00304357,0.000992454,-0.00253211,-0.00496935,1.09494,0.00286923,0.0129065,867,498,-0.00956256,10.4519
-350,526,0.003479,-10.7799,-0.00347064,-0.00139667,0.000380027,-0.00132923,-0.00353808,1.39516,0.00206365,0.0109244,874,498,0.0034674,10.7799
-343,526,0.0067749,-11.1254,-0.00267428,-0.000391537,-1.82095e-05,-0.000391392,-0.00267442,-1.56282,0.00166786,0.0147698,881,498,0.00677421,11.1254
-336,526,-0.0259399,-11.4658,-0.00201739,1.27061e-05,-0.00030328,5.70451e-05,-0.00206173,-1.42563,0.00139389,0.0149975,888,498,-0.0259365,11.4658
-329,526,-0.0292969,-11.7795,-0.0013842,0.000135267,-0.000464114,0.000265813,-0.00151475,-1.2966,0.0011091,0.0153683,895,498,-0.0293047,11.7795
-322,526,-0.0369873,-12.0533,-0.000876747,0.000114105,-0.0004506,0.000288371,-0.00105101,-1.20177,0.000814007,0.0105206,902,498,-0.0369572,12.0534
-315,526,-0.0587158,-12.3828,-0.000420188,0.000176555,-0.000398481,0.000375991,-0.000619624,-1.10676,0.000580527,0.00938859,909,498,-0.0587282,12.3828
-308,526,-0.060791,-12.7027,-6.2588e-06,-8.16123e-05,-0.000183166,0.000143065,-0.000230936,-0.683964,0.000217907,0.00848146,916,498,-0.0608159,12.7027
-301,526,-0.0848389,-12.9734,0.000302832,-0.000575816,0.000133188,0.000322577,-0.000595561,0.14718,0.000537841,0.00949349,923,498,-0.0848491,12.9735
-294,526,-0.0731812,-13.2615,0.000527181,-0.0012619,0.000536397,0.000675677,-0.00141039,0.270076,0.00122904,0.0092084,930,498,-0.0732052,13.2615
-287,526,-0.06427,-13.5611,0.000704342,-0.00198196,0.000957412,0.00101064,-0.00228827,0.309636,0.00195166,0.00961043,937,498,-0.0642648,13.5611
-280,526,-0.0838013,-13.8481,0.000759139,-0.00299026,0.00135121,0.00119534,-0.00342646,0.312263,0.0027701,0.0126005,944,498,-0.0837881,13.8481
-273,526,-0.067749,-14.1241,0.000932472,-0.00451942,0.00206606,0.00162696,-0.00521391,0.324277,0.00412659,0.0108822,951,498,-0.067779,14.1241
-266,526,-0.0488892,-14.3932,0.00145165,-0.00706044,0.00300899,0.00240789,-0.00801668,0.307701,0.00630233,0.010486,958,498,-0.0488702,14.3932
-259,526,-0.00231934,-14.6321,0.00186996,-0.00983731,0.00395975,0.00308347,-0.0110508,0.297376,0.00858172,0.0176123,965,498,-0.00229178,14.6321
-252,526,0.06427,-14.7784,0.00208064,-0.0133872,0.00530048,0.00372268,-0.0150292,0.300415,0.0114637,0.0330409,972,498,0.0642843,14.7784
-245,526,0.0181885,-14.9322,0.00221772,-0.0180932,0.00694273,0.00436407,-0.0202396,0.299832,0.0151586,0.0430275,979,498,0.0181654,14.9322
-238,526,-0.0714722,-14.9184,0,0,0,0,0,0,0,-1,986,498,-0.0714636,14.9184
-231,526,0.218323,-15.0489,0,0,0,0,0,0,0,-1,993,498,0.218321,15.0489
-224,526,-0.354797,-15.1813,0,0,0,0,0,0,0,-1,1000,498,-0.354812,15.1813
-217,526,-0.199036,-15.1234,0,0,0,0,0,0,0,-1,1007,498,-0.199061,15.1234
-210,526,1.31683,-13.776,0,0,0,0,0,0,0,-1,1014,498,1.31682,13.776
-203,526,0.282837,-15.2681,0,0,0,0,0,0,0,-1,1021,498,0.282848,15.2681
-196,526,-0.328247,-12.179,0,0,0,0,0,0,0,-1,1028,498,-0.328238,12.179
-189,526,0.401245,-5.96826,0,0,0,0,0,0,0,-1,1035,498,0.401197,5.96826
-182,526,1.7323,-2.99405,0,0,0,0,0,0,0,-1,1042,498,1.73226,2.99404
-175,526,2.27637,-2.07983,0,0,0,0,0,0,0,-1,1049,498,2.27639,2.07984
-168,526,2.12036,-1.66049,0,0,0,0,0,0,0,-1,1056,498,2.12035,1.66048
-161,526,2.09082,-1.20572,0,0,0,0,0,0,0,-1,1063,498,2.09086,1.2057
-154,526,-1.3446,-5.37799,0,0,0,0,0,0,0,-1,1070,498,-1.34457,5.37799
-147,526,-0.472656,-6.64996,0,0,0,0,0,0,0,-1,1077,498,-0.472659,6.64997
-140,526,0.422852,-8.03339,0,0,0,0,0,0,0,-1,1084,498,0.422844,8.0334
-133,526,1.09583,-9.2215,0,0,0,0,0,0,0,-1,1091,498,1.09581,9.2215
-126,526,3.42529,-2.36053,0,0,0,0,0,0,0,-1,1098,498,3.42523,2.36052
-119,526,2.7771,-0.764099,0,0,0,0,0,0,0,-1,1105,498,2.7771,0.764107
-112,526,2.57715,-1.1893,0,0,0,0,0,0,0,-1,1112,498,2.57718,1.1893
-105,526,0,0,0,0,0,0,0,0,0,-1,1119,498,0,0
-98,526,0,0,0,0,0,0,0,0,0,-1,1126,498,0,0
-91,526,0,0,0,0,0,0,0,0,0,-1,1133,498,0,0
-84,526,0,0,0,0,0,0,0,0,0,-1,1140,498,0,0
-77,526,0,0,0,0,0,0,0,0,0,-1,1147,498,0,0
-70,526,0,0,0,0,0,0,0,0,0,-1,1154,498,0,0
-63,526,0,0,0,0,0,0,0,0,0,-1,1161,498,0,0
-56,526,0,0,0,0,0,0,0,0,0,-1,1168,498,0,0
-49,526,0,0,0,0,0,0,0,0,0,-1,1175,498,0,0
-42,526,0,0,0,0,0,0,0,0,0,-1,1182,498,0,0
-35,526,0,0,0,0,0,0,0,0,0,-1,1189,498,0,0
-28,526,0,0,0,0,0,0,0,0,0,-1,1196,498,0,0
-21,526,0,0,0,0,0,0,0,0,0,-1,1203,498,0,0
-14,526,0,0,0,0,0,0,0,0,0,-1,1210,498,0,0
-7,526,0,0,0,0,0,0,0,0,0,-1,1217,498,0,0
0,526,0,0,0,0,0,0,0,0,0,-1,1224,498,0,0
7,526,0,0,0,0,0,0,0,0,0,-1,1231,498,0,0
14,526,0,0,0,0,0,0,0,0,0,-1,1238,498,0,0
21,526,0,0,0,0,0,0,0,0,0,-1,1245,498,0,0
28,526,0,0,0,0,0,0,0,0,0,-1,1252,498,0,0
35,526,0,0,0,0,0,0,0,0,0,-1,1259,498,0,0
42,526,0,0,0,0,0,0,0,0,0,-1,1266,498,0,0
49,526,0,0,0,0,0,0,0,0,0,-1,1273,498,0,0
56,526,0,0,0,0,0,0,0,0,0,-1,1280,498,0,0
63,526,0,0,0,0,0,0,0,0,0,-1,1287,498,0,0
70,526,0,0,0,0,0,0,0,0,0,-1,1294,498,0,0
77,526,0,0,0,0,0,0,0,0,0,-1,1301,498,0,0
84,526,0,0,0,0,0,0,0,0,0,-1,1308,498,0,0
91,526,0,0,0,0,0,0,0,0,0,-1,1315,498,0,0
98,526,0,0,0,0,0,0,0,0,0,-1,1322,498,0,0
105,526,0,0,0,0,0,0,0,0,0,-1,1329,498,0,0
112,526,0,0,0,0,0,0,0,0,0,-1,1336,498,0,0
119,526,0,0,0,0,0,0,0,0,0,-1,1343,498,0,0
126,526,0,0,0,0,0,0,0,0,0,-1,1350,498,0,0
133,526,0,0,0,0,0,0,0,0,0,-1,1357,498,0,0
140,526,0,0,0,0,0,0,0,0,0,-1,1364,498,0,0
147,526,0,0,0,0,0,0,0,0,0,-1,1371,498,0,0
154,526,0,0,0,0,0,0,0,0,0,-1,1378,498,0,0
161,526,0,0,0,0,0,0,0,0,0,-1,1385,498,0,0
168,526,0,0,0,0,0,0,0,0,0,-1,1392,498,0,0
175,526,0,0,0,0,0,0,0,0,0,-1,1399,498,0,0
182,526,0,0,0,0,0,0,0,0,0,-1,1406,498,0,0
189,526,0,0,0,0,0,0,0,0,0,-1,1413,498,0,0
196,526,0,0,0,0,0,0,0,0,0,-1,1420,498,0,0
203,526,0,0,0,0,0,0,0,0,0,-1,1427,498,0,0
210,526,0,0,0,0,0,0,0,0,0,-1,1434,498,0,0
217,526,0,0,0,0,0,0,0,0,0,-1,1441,498,0,0
224,526,0,0,0,0,0,0,0,0,0,-1,1448,498,0,0
231,526,7.93237,-1.30618,0,0,0,0,0,0,0,-1,1455,498,7.93238,1.30618
238,526,7.97717,-1.08197,0,0,0,0,0,0,0,-1,1462,498,7.97723,1.08196
245,526,7.2793,-0.792938,0,0,0,0,0,0,0,-1,1469,498,7.27931,0.792926
252,526,6.73523,-2.23608,0,0,0,0,0,0,0,-1,1476,498,6.73525,2.23608
259,526,6.22949,-1.84967,0,0,0,0,0,0,0,-1,1483,498,6.22953,1.84968
266,526,5.72375,-1.46329,0,0,0,0,0,0,0,-1,1490,498,5.72381,1.46328
273,526,4.33984,0.49173,0,0,0,0,0,0,0,-1,1497,498,4.33979,-0.491727
280,526,1.4585,-1.59897,0,0,0,0,0,0,0,-1,1504,498,1.45846,1.59895
287,526,1.46411,-2.40134,0,0,0,0,0,0,0,-1,1511,498,1.46406,2.40133
294,526,5.57471,-4.59085,0,0,0,0,0,0,0,-1,1518,498,5.57466,4.59084
301,526,4.42786,-3.99677,0,0,0,0,0,0,0,-1,1525,498,4.42788,3.99676
308,526,5.79529,-4.19366,0,0,0,0,0,0,0,-1,1532,498,5.79528,4.19368
315,526,5.09851,-5.20068,0,0,0,0,0,0,0,-1,1539,498,5.09851,5.20068
322,526,5.50708,-4.72348,0,0,0,0,0,0,0,-1,1546,498,5.50713,4.72347
329,526,3.88672,-4.345,0,0,0,0,0,0,0,-1,1553,498,3.88674,4.34501
336,526,4.97876,-2.23828,0,0,0,0,0,0,0,-1,1560,498,4.97877,2.23828
343,526,3.31665,-2.69696,0,0,0,0,0,0,0,-1,1567,498,3.31667,2.69696
350,526,6.06287,-6.12015,0,0,0,0,0,0,0,-1,1574,498,6.06286,6.12014
357,526,5.79736,-7.7854,0,0,0,0,0,0,0,-1,1581,498,5.79734,7.78539
364,526,6.46191,-13.365,0,0,0,0,0,0,0,-1,1588,498,6.46194,13.365
371,526,6.79358,-14.6327,0,0,0,0,0,0,0,-1,1595,498,6.79362,14.6327
378,526,6.83325,-14.2221,0,0,0,0,0,0,0,-1,1602,498,6.8333,14.2221
385,526,7.0542,-13.8419,0,0,0,0,0,0,0,-1,1609,498,7.05417,13.8419
392,526,7.13367,-13.3413,0.000523924,-0.000671201,-0.000876933,0.000987537,-0.00113481,-0.486324,0.00122632,0.0409407,1616,498,7.1337,13.3413
399,526,7.04517,-13.0159,0.000358656,-0.000509846,-0.000880797,0.000906433,-0.00105762,-0.556374,0.00113507,0.0210265,1623,498,7.04522,13.0159
406,526,7.08813,-12.6695,0.000222289,-0.000556869,-0.000935184,0.000845795,-0.00118037,-0.588039,0.00117511,0.011814,1630,498,7.08808,12.6695
413,526,7.09216,-12.3513,0.000274006,-0.000322144,-0.000817255,0.000845847,-0.000893986,-0.610531,0.00100462,0.0118456,1637,498,7.09219,12.3513
420,526,7.08899,-12.0347,0.000189312,-0.000360401,-0.000843092,0.000801219,-0.000972309,-0.627826,0.00102553,0.0119352,1644,498,7.08902,12.0347
427,526,7.07666,-11.7172,-4.79781e-05,-0.000410406,-0.000807448,0.000598341,-0.00105673,-0.675013,0.000967692,0.0132684,1651,498,7.0767,11.7172
434,526,7.05981,-11.3879,-0.00036224,-0.000313148,-0.00054185,0.000204712,-0.0008801,-0.808033,0.000665549,0.0130963,1658,498,7.0598,11.3879
441,526,7.06311,-11.0529,-0.000768655,-3.86436e-05,-6.04686e-05,-3.36687e-05,-0.00077363,-1.48871,0.000504904,0.0113251,1665,498,7.06311,11.0529
448,526,7.07849,-10.7435,-0.00123566,0.000204486,0.000529401,0.000378152,-0.00140933,1.25381,0.00108774,0.0106501,1672,498,7.07844,10.7435
455,526,7.05945,-10.4223,-0.00181651,0.000583337,0.00116994,0.0010593,-0.00229247,1.18442,0.00197832,0.0135463,1679,498,7.05944,10.4223
462,526,7.06995,-10.0772,-0.00240615,0.00100397,0.00179831,0.00177704,-0.00317922,1.16479,0.00289942,0.00981071,1686,498,7.0699,10.0773
469,526,7.06653,-9.75259,-0.00304679,0.00146673,0.00233373,0.0024564,-0.00403645,1.16971,0.00378547,0.00711661,1693,498,7.06648,9.75261
476,526,7.04443,-9.41754,-0.00389211,0.00191225,0.00285083,0.00307823,-0.00505808,1.18256,0.00474363,0.00901994,1700,498,7.04447,9.41755
483,526,7.05981,-9.02203,-0.0048165,0.00227639,0.00314165,0.0034678,-0.00600791,1.20832,0.00553593,0.0122561,1707,498,7.05978,9.02204
490,526,7.15173,-8.61368,-0.00587972,0.00242955,0.00324622,0.00354739,-0.00699756,1.23916,0.0061958,0.0256304,1714,498,7.15175,8.61367
497,526,7.04468,-8.44775,-0.00697539,0.00283055,0.00318652,0.00377506,-0.0079199,1.28264,0.00689199,0.0313857,1721,498,7.04466,8.44775
504,526,6.92822,-7.98169,-0.00805332,0.00311038,0.00285832,0.00379966,-0.0087426,1.33417,0.00742636,0.0343952,1728,498,6.92822,7.9817
511,526,6.97559,-7.56857,-0.009158,0.00364381,0.00234752,0.00406071,-0.0095749,1.39504,0.00808425,0.0423372,1735,498,6.97554,7.56856
518,526,7.00476,-7.23059,-0.0101214,0.00456948,0.0016783,0.00475877,-0.0103107,1.45848,0.00889499,0.047654,1742,498,7.00475,7.23059
525,526,7.03809,-6.93353,0,0,0,0,0,0,0,-1,1749,498,7.03814,6.93352
532,526,3.54285,-2.81274,0,0,0,0,0,0,0,-1,1756,498,3.54284,2.81273
539,526,3.29407,0.932312,0,0,0,0,0,0,0,-1,1763,498,3.2941,-0.93232
546,526,3.36731,1.07721,0,0,0,0,0,0,0,-1,1770,498,3.36735,-1.07719
553,526,3.40796,1.37137,0,0,0,0,0,0,0,-1,1777,498,3.40792,-1.37138
560,526,0,0,0,0,0,0,0,0,0,-1,1784,498,0,0
567,526,0,0,0,0,0,0,0,0,0,-1,1791,498,0,0
574,526,0,0,0,0,0,0,0,0,0,-1,1798,498,0,0
581,526,0,0,0,0,0,0,0,0,0,-1,1805,498,0,0
588,526,0,0,0,0,0,0,0,0,0,-1,1812,498,0,0
595,526,0,0,0,0,0,0,0,0,0,-1,1819,498,0,0
602,526,0,0,0,0,0,0,0,0,0,-1,1826,498,0,0
609,526,0,0,0,0,0,0,0,0,0,-1,1833,498,0,0
616,526,0,0,0,0,0,0,0,0,0,-1,1840,498,0,0
623,526,0,0,0,0,0,0,0,0,0,-1,1847,498,0,0
630,526,0,0,0,0,0,0,0,0,0,-1,1854,498,0,0
637,526,0,0,0,0,0,0,0,0,0,-1,1861,498,0,0
644,526,0,0,0,0,0,0,0,0,0,-1,1868,498,0,0
651,526,0,0,0,0,0,0,0,0,0,-1,1875,498,0,0
658,526,0,0,0,0,0,0,0,0,0,-1,1882,498,0,0
665,526,0,0,0,0,0,0,0,0,0,-1,1889,498,0,0
672,526,0,0,0,0,0,0,0,0,0,-1,1896,498,0,0
679,526,0,0,0,0,0,0,0,0,0,-1,1903,498,0,0
686,526,0,0,0,0,0,0,0,0,0,-1,1910,498,0,0
693,526,0,0,0,0,0,0,0,0,0,-1,1917,498,0,0
700,526,0,0,0,0,0,0,0,0,0,-1,1924,498,0,0
707,526,0,0,0,0,0,0,0,0,0,-1,1931,498,0,0
714,526,0,0,0,0,0,0,0,0,0,-1,1938,498,0,0
721,526,0,0,0,0,0,0,0,0,0,-1,1945,498,0,0
728,526,0,0,0,0,0,0,0,0,0,-1,1952,498,0,0
735,526,0,0,0,0,0,0,0,0,0,-1,1959,498,0,0
742,526,0,0,0,0,0,0,0,0,0,-1,1966,498,0,0
749,526,0,0,0,0,0,0,0,0,0,-1,1973,498,0,0
756,526,0,0,0,0,0,0,0,0,0,-1,1980,498,0,0
763,526,0,0,0,0,0,0,0,0,0,-1,1987,498,0,0
770,526,0,0,0,0,0,0,0,0,0,-1,1994,498,0,0
777,526,0,0,0,0,0,0,0,0,0,-1,2001,498,0,0
784,526,0,0,0,0,0,0,0,0,0,-1,2008,498,0,0
791,526,0,0,0,0,0,0,0,0,0,-1,2015,498,0,0
798,526,0,0,0,0,0,0,0,0,0,-1,2022,498,0,0
805,526,0,0,0,0,0,0,0,0,0,-1,2029,498,0,0
812,526,0,0,0,0,0,0,0,0,0,-1,2036,498,0,0
-700,519,0,0,0,0,0,0,0,0,0,-1,524,505,0,0
-693,519,0,0,0,0,0,0,0,0,0,-1,531,505,0,0
-686,519,0,0,0,0,0,0,0,0,0,-1,538,505,0,0
-679,519,0,0,0,0,0,0,0,0,0,-1,545,505,0,0
-672,519,0,0,0,0,0,0,0,0,0,-1,552,505,0,0
-665,519,0,0,0,0,0,0,0,0,0,-1,559,505,0,0
-658,519,0,0,0,0,0,0,0,0,0,-1,566,505,0,0
-651,519,0,0,0,0,0,0,0,0,0,-1,573,505,0,0
-644,519,0,0,0,0,0,0,0,0,0,-1,580,505,0,0
-637,519,0,0,0,0,0,0,0,0,0,-1,587,505,0,0
-630,519,0,0,0,0,0,0,0,0,0,-1,594,505,0,0
-623,519,0,0,0,0,0,0,0,0,0,-1,601,505,0,0
-616,519,0,0,0,0,0,0,0,0,0,-1,608,505,0,0
-609,519,0,0,0,0,0,0,0,0,0,-1,615,505,0,0
-602,519,0,0,0,0,0,0,0,0,0,-1,622,505,0,0
-595,519,0,0,0,0,0,0,0,0,0,-1,629,505,0,0
-588,519,0,0,0,0,0,0,0,0,0,-1,636,505,0,0
-581,519,0,0,0,0,0,0,0,0,0,-1,643,505,0,0
-574,519,0,0,0,0,0,0,0,0,0,-1,650,505,0,0
-567,519,0,0,0,0,0,0,0,0,0,-1,657,505,0,0
-560,519,0,0,0,0,0,0,0,0,0,-1,664,505,0,0
-553,519,0,0,0,0,0,0,0,0,0,-1,671,505,0,0
-546,519,0,0,0,0,0,0,0,0,0,-1,678,505,0,0
-539,519,0,0,0,0,0,0,0,0,0,-1,685,505,0,0
-532,519,0,0,0,0,0,0,0,0,0,-1,692,505,0,0
-525,519,0,0,0,0,0,0,0,0,0,-1,699,505,0,0
-518,519,0,0,0,0,0,0,0,0,0,-1,706,505,0,0
-511,519,0,0,0,0,0,0,0,0,0,-1,713,505,0,0
-504,519,0,0,0,0,0,0,0,0,0,-1,720,505,0,0
-497,519,0,0,0,0,0,0,0,0,0,-1,727,505,0,0
-490,519,0,0,0,0,0,0,0,0,0,-1,734,505,0,0
-483,519,0,0,0,0,0,0,0,0,0,-1,741,505,0,0
-476,519,0,0,0,0,0,0,0,0,0,-1,748,505,0,0
-469,519,0,0,0,0,0,0,0,0,0,-1,755,505,0,0
-462,519,0,0,0,0,0,0,0,0,0,-1,762,505,0,0
-455,519,0,0,0,0,0,0,0,0,0,-1,769,505,0,0
-448,519,0,0,0,0,0,0,0,0,0,-1,776,505,0,0
-441,519,1.34839,-5.29346,0,0,0,0,0,0,0,-1,783,505,1.3484,5.29347
-434,519,0.949585,-5.77313,0,0,0,0,0,0,0,-1,790,505,0.949598,5.77315
-427,519,0.138489,-5.67401,0,0,0,0,0,0,0,-1,797,505,0.138516,5.67402
-420,519,-0.317932,-8.55023,0,0,0,0,0,0,0,-1,804,505,-0.317951,8.55022
-413,519,-0.187134,-8.39526,-0.0139607,-0.0372097,0.00290458,-0.0136033,-0.0375671,0.122427,0.0219626,0.0490368,811,505,-0.18716,8.39528
-406,519,-0.187744,-8.49432,-0.0113216,-0.0313319,0.00287262,-0.0109173,-0.0317361,0.139797,0.0186177,0.0490622,818,505,-0.187723,8.49433
-399,519,-0.263306,-8.56213,0,0,0,0,0,0,0,-1,825,505,-0.2633,8.56216
-392,519,-0.237244,-8.79932,0,0,0,0,0,0,0,-1,832,505,-0.237271,8.79933
-385,519,-0.249512,-9.04675,0,0,0,0,0,0,0,-1,839,505,-0.249518,9.04673
-378,519,-0.383911,-9.38464,-0.00594268,-0.0105114,0.00178086,-0.00533054,-0.0111236,0.331084,0.00642404,0.03157,846,505,-0.383893,9.38467
-371,519,-0.253723,-9.70483,-0.00491796,-0.00744458,0.00139409,-0.00429992,-0.00806262,0.417286,0.0046584,0.0185459,853,505,-0.253725,9.70483
-364,519,-0.300476,-10.0676,-0.00406992,-0.00500072,0.00100151,-0.00343095,-0.00563968,0.567893,0.00328146,0.0117522,860,505,-0.300463,10.0676
-357,519,-0.291626,-10.4346,-0.0031887,-0.00265961,0.000661397,-0.00221181,-0.0036365,0.975644,0.00211586,0.00981177,867,505,-0.291614,10.4346
-350,519,-0.302734,-10.7701,-0.00245691,-0.00132796,0.0002765,-0.00126388,-0.00252099,1.34305,0.0014555,0.0117994,874,505,-0.302711,10.7702
-343,519,-0.326599,-11.097,-0.00190638,-0.000612695,6.55979e-05,-0.000609377,-0.0019097,1.52026,0.00112636,0.0150816,881,505,-0.326569,11.097
-336,519,-0.358093,-11.4262,-0.00147197,-0.000386584,-8.61287e-05,-0.000379792,-0.00147876,-1.4921,0.00088678,0.0153793,888,505,-0.35808,11.4262
-329,519,-0.347534,-11.7199,-0.000998713,-0.000369813,-0.000165689,-0.000328831,-0.00103969,-1.32832,0.000613627,0.0137358,895,505,-0.347544,11.7199
-322,519,-0.329163,-12.0398,-0.000604296,-0.000463992,-0.000100799,-0.000411336,-0.000656952,-1.0894,0.000383293,0.0112764,902,505,-0.329143,12.0398
-315,519,-0.33075,-12.3794,-0.000229179,-0.000534653,1.76584e-05,-0.000228162,-0.00053567,0.0575511,0.000310398,0.00928203,909,505,-0.330733,12.3794
-308,519,-0.340149,-12.7017,0.000146914,-0.000857071,0.000263008,0.00021164,-0.000921797,0.241304,0.00069589,0.00799741,916,505,-0.340133,12.7017
-301,519,-0.361084,-12.984,0.000461223,-0.00137871,0.000571,0.000624021,-0.00154151,0.277741,0.00128713,0.0117231,923,505,-0.36109,12.984
-294,519,-0.368835,-13.2462,0.00063311,-0.00207658,0.000979816,0.000950283,-0.00239375,0.313062,0.00198973,0.014436,930,505,-0.368833,13.2462
-287,519,-0.384399,-13.5589,0.000811385,-0.00290608,0.00136893,0.00126108,-0.00335578,0.317398,0.00275548,0.0109359,937,505,-0.384427,13.5589
-280,519,-0.388611,-13.8503,0.00092352,-0.0039993,0.00175616,0.00148579,-0.00456157,0.309857,0.00363887,0.0159458,944,505,-0.388621,13.8503
-273,519,-0.348694,-14.1481,0.00114253,-0.0058493,0.00253827,0.00196683,-0.0066736,0.314004,0.00522945,0.0248577,951,505,-0.34868,14.1482
-266,519,-0.36615,-14.4216,0.00176645,-0.00896043,0.003657,0.00289455,-0.0100885,0.299216,0.00787002,0.0344432,958,505,-0.366131,14.4216
-259,519,-0.229492,-14.6265,0,0,0,0,0,0,0,-1,965,505,-0.229501,14.6266
-252,519,-0.157532,-14.6535,0,0,0,0,0,0,0,-1,972,505,-0.157522,14.6535
-245,519,-0.304749,-14.7115,0,0,0,0,0,0,0,-1,979,505,-0.304744,14.7115
-238,519,0.748901,-13.9984,0,0,0,0,0,0,0,-1,986,505,0.748929,13.9984
-231,519,0.337585,-11.2798,0,0,0,0,0,0,0,-1,993,505,0.337568,11.2798
-224,519,-0.0494995,-7.97394,0,0,0,0,0,0,0,-1,1000,505,-0.0495123,7.97392
-217,519,-2.97125,-4.84393,0,0,0,0,0,0,0,-1,1007,505,-2.97128,4.84393
-210,519,-2.14398,-4.74774,0,0,0,0,0,0,0,-1,1014,505,-2.14397,4.74775
-203,519,-0.513611,-5.39017,0,0,0,0,0,0,0,-1,1021,505,-0.513585,5.39017
-196,519,-0.374023,-5.41635,0,0,0,0,0,0,0,-1,1028,505,-0.374047,5.41635
-189,519,-0.234497,-5.44254,0,0,0,0,0,0,0,-1,1035,505,-0.234508,5.44253
-182,519,2.76697,-1.19659,0,0,0,0,0,0,0,-1,1042,505,2.76696,1.19661
-175,519,2.31323,-0.960938,0,0,0,0,0,0,0,-1,1049,505,2.31319,0.960941
-168,519,2.01074,-0.721405,0,0,0,0,0,0,0,-1,1056,505,2.01072,0.721407
-161,519,2.32056,-0.522339,0,0,0,0,0,0,0,-1,1063,505,2.32057,0.522328
-154,519,2.55566,0.116669,0,0,0,0,0,0,0,-1,1070,505,2.55563,-0.116661
-147,519,-0.55127,-6.14001,0,0,0,0,0,0,0,-1,1077,505,-0.551252,6.14001
-140,519,0.240601,-7.53503,0,0,0,0,0,0,0,-1,1084,505,0.240653,7.53501
-133,519,2.70911,-4.4516,0,0,0,0,0,0,0,-1,1091,505,2.70915,4.45161
-126,519,0,0,0,0,0,0,0,0,0,-1,1098,505,0,0
-119,519,0,0,0,0,0,0,0,0,0,-1,1105,505,0,0
-112,519,0,0,0,0,0,0,0,0,0,-1,1112,505,0,0
-105,519,0,0,0,0,0,0,0,0,0,-1,1119,505,0,0
-98,519,0,0,0,0,0,0,0,0,0,-1,1126,505,0,0
-91,519,0,0,0,0,0,0,0,0,0,-1,1133,505,0,0
-84,519,0,0,0,0,0,0,0,0,0,-1,1140,505,0,0
-77,519,0,0,0,0,0,0,0,0,0,-1,1147,505,0,0
-70,519,0,0,0,0,0,0,0,0,0,-1,1154,505,0,0
-63,519,0,0,0,0,0,0,0,0,0,-1,1161,505,0,0
-56,519,0,0,0,0,0,0,0,0,0,-1,1168,505,0,0
-49,519,0,0,0,0,0,0,0,0,0,-1,1175,505,0,0
-42,519,0,0,0,0,0,0,0,0,0,-1,1182,505,0,0
-35,519,0,0,0,0,0,0,0,0,0,-1,1189,505,0,0
-28,519,0,0,0,0,0,0,0,0,0,-1,1196,505,0,0
-21,519,0,0,0,0,0,0,0,0,0,-1,1203,505,0,0
-14,519,0,0,0,0,0,0,0,0,0,-1,1210,505,0,0
-7,519,0,0,0,0,0,0,0,0,0,-1,1217,505,0,0
0,519,0,0,0,0,0,0,0,0,0,-1,1224,505,0,0
7,519,0,0,0,0,0,0,0,0,0,-1,1231,505,0,0
14,519,0,0,0,0,0,0,0,0,0,-1,1238,505,0,0
21,519,0,0,0,0,0,0,0,0,0,-1,1245,505,0,0
28,519,0,0,0,0,0,0,0,0,0,-1,1252,505,0,0
35,519,0,0,0,0,0,0,0,0,0,-1,1259,505,0,0
42,519,0,0,0,0,0,0,0,0,0,-1,1266,505,0,0
49,519,0,0,0,0,0,0,0,0,0,-1,1273,505,0,0
56,519,0,0,0,0,0,0,0,0,0,-1,1280,505,0,0
63,519,0,0,0,0,0,0,0,0,0,-1,1287,505,0,0
70,519,0,0,0,0,0,0,0,0,0,-1,1294,505,0,0
77,519,0,0,0,0,0,0,0,0,0,-1,1301,505,0,0
84,519,0,0,0,0,0,0,0,0,0,-1,1308,505,0,0
91,519,0,0,0,0,0,0,0,0,0,-1,1315,505,0,0
98,519,0,0,0,0,0,0,0,0,0,-1,1322,505,0,0
105,519,0,0,0,0,0,0,0,0,0,-1,1329,505,0,0
112,519,0,0,0,0,0,0,0,0,0,-1,1336,505,0,0
119,519,0,0,0,0,0,0,0,0,0,-1,1343,505,0,0
126,519,0,0,0,0,0,0,0,0,0,-1,1350,505,0,0
133,519,0,0,0,0,0,0,0,0,0,-1,1357,505,0,0
140,519,0,0,0,0,0,0,0,0,0,-1,1364,505,0,0
147,519,0,0,0,0,0,0,0,0,0,-1,1371,505,0,0
154,519,0,0,0,0,0,0,0,0,0,-1,1378,505,0,0
161,519,0,0,0,0,0,0,0,0,0,-1,1385,505,0,0
168,519,0,0,0,0,0,0,0,0,0,-1,1392,505,0,0
175,519,0,0,0,0,0,0,0,0,0,-1,1399,505,0,0
182,519,0,0,0,0,0,0,0,0,0,-1,1406,505,0,0
189,519,0,0,0,0,0,0,0,0,0,-1,1413,505,0,0
196,519,0,0,0,0,0,0,0,0,0,-1,1420,505,0,0
203,519,0,0,0,0,0,0,0,0,0,-1,1427,505,0,0
210,519,0,0,0,0,0,0,0,0,0,-1,1434,505,0,0
217,519,0,0,0,0,0,0,0,0,0,-1,1441,505,0,0
224,519,0,0,0,0,0,0,0,0,0,-1,1448,505,0,0
231,519,0,0,0,0,0,0,0,0,0,-1,1455,505,0,0
238,519,0,0,0,0,0,0,0,0,0,-1,1462,505,0,0
245,519,0,0,0,0,0,0,0,0,0,-1,1469,505,0,0
252,519,5.26208,0.0938416,0,0,0,0,0,0,0,-1,1476,505,5.26207,-0.0938493
259,519,6.14246,-1.36441,0,0,0,0,0,0,0,-1,1483,505,6.14241,1.36441
266,519,5.31909,-0.400787,0,0,0,0,0,0,0,-1,1490,505,5.31912,0.400773
273,519,4.02393,0.325531,0,0,0,0,0,0,0,-1,1497,505,4.0239,-0.325522
280,519,4.68848,0.53006,0,0,0,0,0,0,0,-1,1504,505,4.68842,-0.530073
287,519,7.9519,-3.80801,0,0,0,0,0,0,0,-1,1511,505,7.95193,3.808
294,519,6.92273,-3.38889,0,0,0,0,0,0,0,-1,1518,505,6.92268,3.38888
301,519,5.35669,-2.92661,0,0,0,0,0,0,0,-1,1525,505,5.35675,2.9266
308,519,7.37549,-5.64529,0,0,0,0,0,0,0,-1,1532,505,7.3755,5.64529
315,519,6.30029,-4.53754,0,0,0,0,0,0,0,-1,1539,505,6.30024,4.53753
322,519,5.84302,-5.45117,0,0,0,0,0,0,0,-1,1546,505,5.84303,5.45116
329,519,4.92407,0.62384,0,0,0,0,0,0,0,-1,1553,505,4.92403,-0.623832
336,519,3.10095,-0.329285,0,0,0,0,0,0,0,-1,1560,505,3.1009,0.329283
343,519,2.49146,-2.31119,0,0,0,0,0,0,0,-1,1567,505,2.49145,2.31119
350,519,3.47729,-2.22516,0,0,0,0,0,0,0,-1,1574,505,3.47726,2.22515
357,519,4.51917,-4.51691,0,0,0,0,0,0,0,-1,1581,505,4.51914,4.51691
364,519,3.54626,-7.20673,0,0,0,0,0,0,0,-1,1588,505,3.54622,7.20675
371,519,5.349,-8.20068,0,0,0,0,0,0,0,-1,1595,505,5.34898,8.20068
378,519,6.36597,-10.0967,0,0,0,0,0,0,0,-1,1602,505,6.36597,10.0967
385,519,6.24756,-9.72186,0,0,0,0,0,0,0,-1,1609,505,6.24752,9.72183
392,519,7.28967,-13.6033,0,0,0,0,0,0,0,-1,1616,505,7.28963,13.6033
399,519,7.26111,-13.0573,0,0,0,0,0,0,0,-1,1623,505,7.26117,13.0573
406,519,7.37463,-12.6963,-0.000462394,-0.00142782,-0.00197731,0.00109028,-0.00298049,-0.665677,0.00243325,0.029108,1630,505,7.37464,12.6963
413,519,7.42297,-12.3565,-0.000296113,-0.00113603,-0.00182231,0.001154,-0.00258614,-0.672149,0.00221151,0.0140174,1637,505,7.42297,12.3565
420,519,7.40894,-12.0219,-0.000223235,-0.00117449,-0.00184069,0.00120228,-0.00260001,-0.658966,0.00224415,0.0142666,1644,505,7.40893,12.0218
427,519,7.3988,-11.7463,-0.000249829,-0.0012511,-0.00179575,0.00111376,-0.00261469,-0.649455,0.00221,0.0140867,1651,505,7.39879,11.7463
434,519,7.39172,-11.4171,-0.000342475,-0.00109847,-0.0015275,0.000853099,-0.00229404,-0.664104,0.00187941,0.0137009,1658,505,7.39178,11.417
441,519,7.38928,-11.0578,-0.00053218,-0.000778205,-0.00103607,0.000388153,-0.00169854,-0.72631,0.00128149,0.0123852,1665,505,7.38931,11.0578
448,519,7.39673,-10.7409,-0.000724918,-0.000477018,-0.000446564,-0.000137521,-0.00106442,-0.920772,0.000668502,0.00906622,1672,505,7.39672,10.7409
455,519,7.37891,-10.4269,-0.00101158,-5.61995e-05,0.000164968,-2.85161e-05,-0.00103926,1.40454,0.000683536,0.00999938,1679,505,7.37893,10.427
462,519,7.39893,-10.0859,-0.00130533,0.000381806,0.00074767,0.000665455,-0.00158898,1.20819,0.00133751,0.0096818,1686,505,7.39887,10.086
469,519,7.40833,-9.73999,-0.00167183,0.000800673,0.00121925,0.00130076,-0.00217192,1.18156,0.00202587,0.00988028,1693,505,7.40831,9.74
476,519,7.38745,-9.39551,-0.00221905,0.00119619,0.00166008,0.00187014,-0.00289299,1.18515,0.00277105,0.0121577,1700,505,7.38747,9.39551
483,519,7.38013,-9.05219,-0.00281943,0.00148872,0.00188265,0.00219548,-0.00352619,1.21167,0.00333306,0.0148353,1707,505,7.38014,9.05216
490,519,7.3811,-8.659,-0.00359351,0.00156609,0.00190635,0.00219402,-0.00422144,1.2526,0.00376512,0.0133057,1714,505,7.3811,8.65902
497,519,7.36731,-8.32355,-0.00444435,0.00182591,0.00181566,0.00231372,-0.00493215,1.30833,0.00427349,0.0147474,1721,505,7.36728,8.32352
504,519,7.34302,-7.95679,-0.00526552,0.00197375,0.00152437,0.00228164,-0.00557341,1.3715,0.00466597,0.0147803,1728,505,7.34302,7.95681
511,519,7.35974,-7.57117,-0.00617037,0.00232691,0.00110013,0.00246703,-0.0063105,1.44411,0.00522714,0.021151,1735,505,7.35975,7.57118
518,519,7.33606,-7.43182,-0.00707205,0.00294616,0.000598781,0.00298182,-0.00710771,1.51131,0.00598534,0.0441778,1742,505,7.33605,7.43182
525,519,7.38367,-7.27057,0,0,0,0,0,0,0,-1,1749,505,7.3837,7.27057
532,519,3.5155,-2.86511,0,0,0,0,0,0,0,-1,1756,505,3.51554,2.8651
539,519,3.30005,0.0229797,0,0,0,0,0,0,0,-1,1763,505,3.30008,-0.0229869
546,519,4.62024,-2.89774,0,0,0,0,0,0,0,-1,1770,505,4.62023,2.89775
553,519,4.14136,0.0667419,0,0,0,0,0,0,0,-1,1777,505,4.14141,-0.0667503
560,519,3.77856,0.279724,0,0,0,0,0,0,0,-1,1784,505,3.77861,-0.279731
567,519,0,0,0,0,0,0,0,0,0,-1,1791,505,0,0
574,519,0,0,0,0,0,0,0,0,0,-1,1798,505,0,0
581,519,0,0,0,0,0,0,0,0,0,-1,1805,505,0,0
588,519,0,0,0,0,0,0,0,0,0,-1,1812,505,0,0
595,519,0,0,0,0,0,0,0,0,0,-1,1819,505,0,0
602,519,0,0,0,0,0,0,0,0,0,-1,1826,505,0,0
609,519,0,0,0,0,0,0,0,0,0,-1,1833,505,0,0
616,519,0,0,0,0,0,0,0,0,0,-1,1840,505,0,0
623,519,0,0,0,0,0,0,0,0,0,-1,1847,505,0,0
630,519,0,0,0,0,0,0,0,0,0,-1,1854,505,0,0
637,519,0,0,0,0,0,0,0,0,0,-1,1861,505,0,0
644,519,0,0,0,0,0,0,0,0,0,-1,1868,505,0,0
651,519,0,0,0,0,0,0,0,0,0,-1,1875,505,0,0
658,519,0,0,0,0,0,0,0,0,0,-1,1882,505,0,0
665,519,0,0,0,0,0,0,0,0,0,-1,1889,505,0,0
672,519,0,0,0,0,0,0,0,0,0,-1,1896,505,0,0
679,519,0,0,0,0,0,0,0,0,0,-1,1903,505,0,0
686,519,0,0,0,0,0,0,0,0,0,-1,1910,505,0,0
693,519,0,0,0,0,0,0,0,0,0,-1,1917,505,0,0
700,519,0,0,0,0,0,0,0,0,0,-1,1924,505,0,0
707,519,0,0,0,0,0,0,0,0,0,-1,1931,505,0,0
714,519,0,0,0,0,0,0,0,0,0,-1,1938,505,0,0
721,519,0,0,0,0,0,0,0,0,0,-1,1945,505,0,0
728,519,0,0,0,0,0,0,0,0,0,-1,1952,505,0,0
735,519,0,0,0,0,0,0,0,0,0,-1,1959,505,0,0
742,519,0,0,0,0,0,0,0,0,0,-1,1966,505,0,0
749,519,0,0,0,0,0,0,0,0,0,-1,1973,505,0,0
756,519,0,0,0,0,0,0,0,0,0,-1,1980,505,0,0
763,519,0,0,0,0,0,0,0,0,0,-1,1987,505,0,0
770,519,0,0,0,0,0,0,0,0,0,-1,1994,505,0,0
777,519,0,0,0,0,0,0,0,0,0,-1,2001,505,0,0
784,519,0,0,0,0,0,0,0,0,0,-1,2008,505,0,0
791,519,0,0,0,0,0,0,0,0,0,-1,2015,505,0,0
798,519,0,0,0,0,0,0,0,0,0,-1,2022,505,0,0
805,519,0,0,0,0,0,0,0,0,0,-1,2029,505,0,0
812,519,0,0,0,0,0,0,0,0,0,-1,2036,505,0,0
-700,512,0,0,0,0,0,0,0,0,0,-1,524,512,0,0
-693,512,0,0,0,0,0,0,0,0,0,-1,531,512,0,0
-686,512,0,0,0,0,0,0,0,0,0,-1,538,512,0,0
-679,512,0,0,0,0,0,0,0,0,0,-1,545,512,0,0
-672,512,0,0,0,0,0,0,0,0,0,-1,552,512,0,0
-665,512,0,0,0,0,0,0,0,0,0,-1,559,512,0,0
-658,512,0,0,0,0,0,0,0,0,0,-1,566,512,0,0
-651,512,0,0,0,0,0,0,0,0,0,-1,573,512,0,0
-644,512,0,0,0,0,0,0,0,0,0,-1,580,512,0,0
-637,512,0,0,0,0,0,0,0,0,0,-1,587,512,0,0
-630,512,0,0,0,0,0,0,0,0,0,-1,594,512,0,0
-623,512,0,0,0,0,0,0,0,0,0,-1,601,512,0,0
-616,512,0,0,0,0,0,0,0,0,0,-1,608,512,0,0
-609,512,0,0,0,0,0,0,0,0,0,-1,615,512,0,0
-602,512,0,0,0,0,0,0,0,0,0,-1,622,512,0,0
-595,512,0,0,0,0,0,0,0,0,0,-1,629,512,0,0
-588,512,0,0,0,0,0,0,0,0,0,-1,636,512,0,0
-581,512,0,0,0,0,0,0,0,0,0,-1,643,512,0,0
-574,512,0,0,0,0,0,0,0,0,0,-1,650,512,0,0
-567,512,0,0,0,0,0,0,0,0,0,-1,657,512,0,0
-560,512,0,0,0,0,0,0,0,0,0,-1,664,512,0,0
-553,512,0,0,0,0,0,0,0,0,0,-1,671,512,0,0
-546,512,0,0,0,0,0,0,0,0,0,-1,678,512,0,0
-539,512,0,0,0,0,0,0,0,0,0,-1,685,512,0,0
-532,512,0,0,0,0,0,0,0,0,0,-1,692,512,0,0
-525,512,0,0,0,0,0,0,0,0,0,-1,699,512,0,0
-518,512,0,0,0,0,0,0,0,0,0,-1,706,512,0,0
-511,512,0,0,0,0,0,0,0,0,0,-1,713,512,0,0
-504,512,0,0,0,0,0,0,0,0,0,-1,720,512,0,0
-497,512,0,0,0,0,0,0,0,0,0,-1,727,512,0,0
-490,512,0,0,0,0,0,0,0,0,0,-1,734,512,0,0
-483,512,0,0,0,0,0,0,0,0,0,-1,741,512,0,0
-476,512,0,0,0,0,0,0,0,0,0,-1,748,512,0,0
-469,512,0,0,0,0,0,0,0,0,0,-1,755,512,0,0
-462,512,0,0,0,0,0,0,0,0,0,-1,762,512,0,0
-455,512,0,0,0,0,0,0,0,0,0,-1,769,512,0,0
-448,512,1.96283,-4.15674,0,0,0,0,0,0,0,-1,776,512,1.96285,4.15677
-441,512,1.78198,-4.88824,0,0,0,0,0,0,0,-1,783,512,1.78201,4.88826
-434,512,1.32996,-7.28003,0,0,0,0,0,0,0,-1,790,512,1.32993,7.28003
-427,512,0.427734,-6.66571,0,0,0,0,0,0,0,-1,797,512,0.427713,6.6657
-420,512,-0.184082,-8.00244,0,0,0,0,0,0,0,-1,804,512,-0.184111,8.00241
-413,512,-0.293091,-8.26355,-0.0124137,-0.0290151,0.00144076,-0.0122896,-0.0291392,0.085929,0.0168921,0.0459273,811,512,-0.293109,8.26358
-406,512,-0.523743,-8.52124,-0.00991258,-0.0242611,0.0013278,-0.00979074,-0.024383,0.0915037,0.0141682,0.0476473,818,512,-0.523769,8.52126
-399,512,-0.593994,-8.5946,-0.00820378,-0.0191991,0.00136973,-0.00803571,-0.0193671,0.122089,0.0112354,0.0431615,825,512,-0.593989,8.59461
-392,512,-0.611206,-8.76813,-0.00678961,-0.0150093,0.00123341,-0.00660852,-0.0151904,0.145778,0.00879483,0.0342451,832,512,-0.611227,8.76812
-385,512,-0.591858,-9.03882,-0.00548965,-0.0112951,0.00111045,-0.00528449,-0.0115002,0.182689,0.00664692,0.018784,839,512,-0.59188,9.03881
-378,512,-0.602905,-9.37451,-0.00439368,-0.00836738,0.000936258,-0.00418414,-0.00857693,0.220183,0.00495238,0.0139555,846,512,-0.602918,9.37453
-371,512,-0.609436,-9.72357,-0.00352319,-0.00602071,0.000737431,-0.00332171,-0.00622219,0.266714,0.00359513,0.0119738,853,512,-0.609461,9.7236
-364,512,-0.605835,-10.1061,-0.00285107,-0.00416221,0.000548403,-0.00265194,-0.00436134,0.348311,0.00253755,0.00982753,860,512,-0.60586,10.106
-357,512,-0.615479,-10.4314,-0.00213812,-0.00232257,0.000357572,-0.00186107,-0.00259962,0.659186,0.00154683,0.0114926,867,512,-0.615476,10.4314
-350,512,-0.631287,-10.7681,-0.00155188,-0.00129471,0.000124253,-0.00124448,-0.00160211,1.18667,0.000971067,0.011879,874,512,-0.631274,10.7681
-343,512,-0.659363,-11.0953,-0.00114517,-0.000854389,2.66504e-05,-0.000851967,-0.00114759,1.48015,0.000688027,0.0124775,881,512,-0.659334,11.0953
-336,512,-0.66748,-11.399,-0.000841889,-0.000796497,-3.89105e-05,-0.000774147,-0.000864239,-1.04942,0.0005486,0.0127843,888,512,-0.667497,11.399
-329,512,-0.652832,-11.7031,-0.000463623,-0.000884728,-6.45793e-05,-0.000453942,-0.000894409,-0.148802,0.000516407,0.013767,895,512,-0.652854,11.7031
-322,512,-0.646484,-12.0431,-0.000139255,-0.0010625,3.2684e-05,-0.000138099,-0.00106366,0.0353421,0.000667848,0.0115139,902,512,-0.64651,12.0431
-315,512,-0.643616,-12.3811,0.000168007,-0.00130757,0.000215018,0.000198701,-0.00133827,0.141791,0.000965252,0.0106971,909,512,-0.643641,12.3811
-308,512,-0.661926,-12.6909,0.000488958,-0.00174223,0.000500782,0.000596202,-0.00184948,0.210966,0.00147252,0.0109024,916,512,-0.661955,12.6909
-301,512,-0.668884,-12.9893,0.000771923,-0.00232614,0.000826476,0.000978614,-0.00253283,0.24506,0.00209248,0.0145653,923,512,-0.668874,12.9893
-294,512,-0.66333,-13.2615,0.000828856,-0.00302918,0.00130025,0.00122616,-0.00342648,0.296547,0.00278453,0.0150379,930,512,-0.663356,13.2614
-287,512,-0.728821,-13.5052,0.000933951,-0.00403803,0.00168391,0.00145058,-0.00455466,0.297684,0.00361822,0.0222151,937,512,-0.728798,13.5052
-280,512,-0.625977,-13.8393,0.0010322,-0.00529757,0.00210109,0.00166614,-0.00593151,0.293034,0.00461117,0.0335008,944,512,-0.625979,13.8393
-273,512,-0.339417,-14.2165,0,0,0,0,0,0,0,-1,951,512,-0.339409,14.2165
-266,512,-0.644897,-14.5079,0,0,0,0,0,0,0,-1,958,512,-0.644914,14.5079
-259,512,-0.525452,-14.0815,0,0,0,0,0,0,0,-1,965,512,-0.525475,14.0815
-252,512,1.45941,-3.43475,0,0,0,0,0,0,0,-1,972,512,1.45938,3.43475
-245,512,4.12927,-11.272,0,0,0,0,0,0,0,-1,979,512,4.1293,11.272
-238,512,0.227051,-8.92969,0,0,0,0,0,0,0,-1,986,512,0.227073,8.92968
-231,512,-2.54437,-10.169,0,0,0,0,0,0,0,-1,993,512,-2.54439,10.169
-224,512,-4.84601,-7.52783,0,0,0,0,0,0,0,-1,1000,512,-4.84602,7.52786
-217,512,-7.37274,-3.89563,0,0,0,0,0,0,0,-1,1007,512,-7.37274,3.89561
-210,512,-3.76642,-1.94702,0,0,0,0,0,0,0,-1,1014,512,-3.76641,1.94702
-203,512,-2.48328,-5.19061,0,0,0,0,0,0,0,-1,1021,512,-2.48328,5.19059
-196,512,-1.14929,-4.63202,0,0,0,0,0,0,0,-1,1028,512,-1.14934,4.632
-189,512,0.197998,4.55505,0,0,0,0,0,0,0,-1,1035,512,0.197996,-4.55506
-182,512,2.73938,0.0778503,0,0,0,0,0,0,0,-1,1042,512,2.73944,-0.077852
-175,512,2.29565,0.209808,0,0,0,0,0,0,0,-1,1049,512,2.29565,-0.209813
-168,512,2.09399,-0.302856,0,0,0,0,0,0,0,-1,1056,512,2.09403,0.302826
-161,512,2.76636,0.0921021,0,0,0,0,0,0,0,-1,1063,512,2.76633,-0.0921104
-154,512,3.41382,0.466187,0,0,0,0,0,0,0,-1,1070,512,3.41382,-0.466178
-147,512,0,0,0,0,0,0,0,0,0,-1,1077,512,0,0
-140,512,0,0,0,0,0,0,0,0,0,-1,1084,512,0,0
-133,512,0,0,0,0,0,0,0,0,0,-1,1091,512,0,0
-126,512,0,0,0,0,0,0,0,0,0,-1,1098,512,0,0
-119,512,0,0,0,0,0,0,0,0,0,-1,1105,512,0,0
-112,512,0,0,0,0,0,0,0,0,0,-1,1112,512,0,0
-105,512,0,0,0,0,0,0,0,0,0,-1,1119,512,0,0
-98,512,0,0,0,0,0,0,0,0,0,-1,1126,512,0,0
-91,512,0,0,0,0,0,0,0,0,0,-1,1133,512,0,0
-84,512,0,0,0,0,0,0,0,0,0,-1,1140,512,0,0
-77,512,0,0,0,0,0,0,0,0,0,-1,1147,512,0,0
-70,512,0,0,0,0,0,0,0,0,0,-1,1154,512,0,0
-63,512,0,0,0,0,0,0,0,0,0,-1,1161,512,0,0
-56,512,0,0,0,0,0,0,0,0,0,-1,1168,512,0,0
-49,512,0,0,0,0,0,0,0,0,0,-1,1175,512,0,0
-42,512,0,0,0,0,0,0,0,0,0,-1,1182,512,0,0
-35,512,0,0,0,0,0,0,0,0,0,-1,1189,512,0,0
-28,512,0,0,0,0,0,0,0,0,0,-1,1196,512,0,0
-21,512,0,0,0,0,0,0,0,0,0,-1,1203,512,0,0
-14,512,0,0,0,0,0,0,0,0,0,-1,1210,512,0,0
-7,512,0,0,0,0,0,0,0,0,0,-1,1217,512,0,0
0,512,0,0,0,0,0,0,0,0,0,-1,1224,512,0,0
7,512,0,0,0,0,0,0,0,0,0,-1,1231,512,0,0
14,512,0,0,0,0,0,0,0,0,0,-1,1238,512,0,0
21,512,0,0,0,0,0,0,0,0,0,-1,1245,512,0,0
28,512,0,0,0,0,0,0,0,0,0,-1,1252,512,0,0
35,512,0,0,0,0,0,0,0,0,0,-1,1259,512,0,0
42,512,0,0,0,0,0,0,0,0,0,-1,1266,512,0,0
49,512,0,0,0,0,0,0,0,0,0,-1,1273,512,0,0
56,512,0,0,0,0,0,0,0,0,0,-1,1280,512,0,0
63,512,0,0,0,0,0,0,0,0,0,-1,1287,512,0,0
70,512,0,0,0,0,0,0,0,0,0,-1,1294,512,0,0
77,512,0,0,0,0,0,0,0,0,0,-1,1301,512,0,0
84,512,0,0,0,0,0,0,0,0,0,-1,1308,512,0,0
91,512,0,0,0,0,0,0,0,0,0,-1,1315,512,0,0
98,512,0,0,0,0,0,0,0,0,0,-1,1322,512,0,0
105,512,0,0,0,0,0,0,0,0,0,-1,1329,512,0,0
112,512,0,0,0,0,0,0,0,0,0,-1,1336,512,0,0
119,512,0,0,0,0,0,0,0,0,0,-1,1343,512,0,0
126,512,0,0,0,0,0,0,0,0,0,-1,1350,512,0,0
133,512,0,0,0,0,0,0,0,0,0,-1,1357,512,0,0
140,512,0,0,0,0,0,0,0,0,0,-1,1364,512,0,0
147,512,0,0,0,0,0,0,0,0,0,-1,1371,512,0,0
154,512,0,0,0,0,0,0,0,0,0,-1,1378,512,0,0
161,512,0,0,0,0,0,0,0,0,0,-1,1385,512,0,0
168,512,0,0,0,0,0,0,0,0,0,-1,1392,512,0,0
175,512,0,0,0,0,0,0,0,0,0,-1,1399,512,0,0
182,512,0,0,0,0,0,0,0,0,0,-1,1406,512,0,0
189,512,0,0,0,0,0,0,0,0,0,-1,1413,512,0,0
196,512,0,0,0,0,0,0,0,0,0,-1,1420,512,0,0
203,512,0,0,0,0,0,0,0,0,0,-1,1427,512,0,0
210,512,0,0,0,0,0,0,0,0,0,-1,1434,512,0,0
217,512,0,0,0,0,0,0,0,0,0,-1,1441,512,0,0
224,512,0,0,0,0,0,0,0,0,0,-1,1448,512,0,0
231,512,0,0,0,0,0,0,0,0,0,-1,1455,512,0,0
238,512,0,0,0,0,0,0,0,0,0,-1,1462,512,0,0
245,512,0,0,0,0,0,0,0,0,0,-1,1469,512,0,0
252,512,0,0,0,0,0,0,0,0,0,-1,1476,512,0,0
259,512,0,0,0,0,0,0,0,0,0,-1,1483,512,0,0
266,512,0,0,0,0,0,0,0,0,0,-1,1490,512,0,0
273,512,4.00745,0.618622,0,0,0,0,0,0,0,-1,1497,512,4.00747,-0.618611
280,512,4.49609,0.649841,0,0,0,0,0,0,0,-1,1504,512,4.49612,-0.649834
287,512,4.77234,0.458069,0,0,0,0,0,0,0,-1,1511,512,4.77233,-0.458083
294,512,8.54956,-2.36273,0,0,0,0,0,0,0,-1,1518,512,8.54952,2.36274
301,512,6.302,-1.69092,0,0,0,0,0,0,0,-1,1525,512,6.30196,1.69093
308,512,8.2439,-6.22754,0,0,0,0,0,0,0,-1,1532,512,8.24394,6.22757
315,512,7.53687,-6.04211,0,0,0,0,0,0,0,-1,1539,512,7.53691,6.04211
322,512,6.82983,-5.85663,0,0,0,0,0,0,0,-1,1546,512,6.82988,5.85666
329,512,4.38147,-0.329651,0,0,0,0,0,0,0,-1,1553,512,4.38144,0.329662
336,512,4.41467,-0.741455,0,0,0,0,0,0,0,-1,1560,512,4.41467,0.741442
343,512,4.44727,-1.21667,0,0,0,0,0,0,0,-1,1567,512,4.44732,1.21666
350,512,4.55469,-1.65082,0,0,0,0,0,0,0,-1,1574,512,4.5547,1.65083
357,512,5.79993,-2.67456,0,0,0,0,0,0,0,-1,1581,512,5.79991,2.67454
364,512,5.18298,-6.80133,0,0,0,0,0,0,0,-1,1588,512,5.18296,6.80132
371,512,5.28467,-7.69269,0,0,0,0,0,0,0,-1,1595,512,5.28464,7.69269
378,512,6.29407,-9.88055,0,0,0,0,0,0,0,-1,1602,512,6.29412,9.88057
385,512,6.45569,-9.32233,0,0,0,0,0,0,0,-1,1609,512,6.45565,9.3223
392,512,6.35522,-8.98425,0,0,0,0,0,0,0,-1,1616,512,6.35526,8.98422
399,512,7.5304,-12.1449,0,0,0,0,0,0,0,-1,1623,512,7.53042,12.1449
406,512,7.72217,-12.7893,0,0,0,0,0,0,0,-1,1630,512,7.72214,12.7893
413,512,7.60876,-12.4568,-0.00102571,-0.00249068,-0.00316916,0.00149452,-0.00501091,-0.671828,0.00393456,0.0469698,1637,512,7.60871,12.4568
420,512,7.7467,-12.0615,-0.000898159,-0.00243444,-0.00310088,0.00152831,-0.00486091,-0.663984,0.00385245,0.0209921,1644,512,7.74668,12.0615
427,512,7.75305,-11.7355,-0.00082944,-0.0024208,-0.0029745,0.00145396,-0.0047042,-0.654708,0.00371682,0.0150373,1651,512,7.753,11.7355
434,512,7.74231,-11.4186,-0.000762785,-0.00204495,-0.0025925,0.00126672,-0.00407446,-0.664188,0.00322263,0.012492,1658,512,7.74232,11.4186
441,512,7.73669,-11.0677,-0.000703595,-0.0016,-0.00204589,0.000942613,-0.00324621,-0.677564,0.00253739,0.0141364,1665,512,7.73664,11.0678
448,512,7.71887,-10.7684,-0.000582764,-0.0011628,-0.00141986,0.000576399,-0.00232196,-0.684655,0.00177164,0.00959795,1672,512,7.71888,10.7684
455,512,7.70642,-10.4262,-0.000523598,-0.000654856,-0.000803855,0.000217303,-0.00139576,-0.744667,0.00101076,0.00877217,1679,512,7.7064,10.4262
462,512,7.72021,-10.066,-0.000475125,-0.00017536,-0.00023764,-4.42846e-05,-0.000606201,-1.06675,0.000390211,0.00892524,1686,512,7.72018,10.066
469,512,7.71338,-9.72528,-0.000530299,0.000218648,0.00019804,0.00026779,-0.000579441,1.32757,0.000500058,0.0103836,1693,512,7.71332,9.72531
476,512,7.70447,-9.39081,-0.000749302,0.000574125,0.000578738,0.000791503,-0.00096668,1.21149,0.00101677,0.013287,1700,512,7.70443,9.39083
483,512,7.7135,-9.0321,-0.00101995,0.000808652,0.000754798,0.00107996,-0.00129125,1.22573,0.00137083,0.0131438,1707,512,7.71353,9.0321
490,512,7.71069,-8.65472,-0.00152288,0.000839774,0.000724557,0.00104427,-0.00172738,1.29571,0.00161634,0.0107172,1714,512,7.71073,8.65471
497,512,7.72961,-8.28577,-0.00218189,0.000967448,0.000591772,0.00107497,-0.00228941,1.39106,0.00198416,0.0107836,1721,512,7.72961,8.28577
504,512,7.71399,-7.92572,-0.00283623,0.00102541,0.000330181,0.00105344,-0.00286426,1.48611,0.00234104,0.011933,1728,512,7.71404,7.9257
511,512,7.68201,-7.55695,-0.00364781,0.00125125,-2.89068e-05,0.00125142,-0.00364798,-1.5649,0.00293931,0.0139955,1735,512,7.68195,7.55696
518,512,7.69849,-7.2019,-0.00459333,0.00166487,-0.000426034,0.00169374,-0.0046222,-1.50314,0.00377491,0.0211458,1742,512,7.69843,7.20189
525,512,7.78174,-6.82581,0,0,0,0,0,0,0,-1,1749,512,7.78169,6.82583
532,512,5.73535,-4.92993,0,0,0,0,0,0,0,-1,1756,512,5.73534,4.92994
539,512,4.39929,-3.11737,0,0,0,0,0,0,0,-1,1763,512,4.3993,3.11735
546,512,2.77551,-0.66449,0,0,0,0,0,0,0,-1,1770,512,2.77548,0.664503
553,512,3.927,-0.448853,0,0,0,0,0,0,0,-1,1777,512,3.92704,0.448843
560,512,3.55762,-0.201233,0,0,0,0,0,0,0,-1,1784,512,3.55768,0.201259
567,512,3.09045,0.191193,0,0,0,0,0,0,0,-1,1791,512,3.09045,-0.191203
574,512,0,0,0,0,0,0,0,0,0,-1,1798,512,0,0
581,512,0,0,0,0,0,0,0,0,0,-1,1805,512,0,0
588,512,0,0,0,0,0,0,0,0,0,-1,1812,512,0,0
595,512,0,0,0,0,0,0,0,0,0,-1,1819,512,0,0
602,512,0,0,0,0,0,0,0,0,0,-1,1826,512,0,0
609,512,0,0,0,0,0,0,0,0,0,-1,1833,512,0,0
616,512,0,0,0,0,0,0,0,0,0,-1,1840,512,0,0
623,512,0,0,0,0,0,0,0,0,0,-1,1847,512,0,0
630,512,0,0,0,0,0,0,0,0,0,-1,1854,512,0,0
637,512,0,0,0,0,0,0,0,0,0,-1,1861,512,0,0
644,512,0,0,0,0,0,0,0,0,0,-1,1868,512,0,0
651,512,0,0,0,0,0,0,0,0,0,-1,1875,512,0,0
658,512,0,0,0,0,0,0,0,0,0,-1,1882,512,0,0
665,512,0,0,0,0,0,0,0,0,0,-1,1889,512,0,0
672,512,0,0,0,0,0,0,0,0,0,-1,1896,512,0,0
679,512,0,0,0,0,0,0,0,0,0,-1,1903,512,0,0
686,512,0,0,0,0,0,0,0,0,0,-1,1910,512,0,0
693,512,0,0,0,0,0,0,0,0,0,-1,1917,512,0,0
700,512,0,0,0,0,0,0,0,0,0,-1,1924,512,0,0
707,512,0,0,0,0,0,0,0,0,0,-1,1931,512,0,0
714,512,0,0,0,0,0,0,0,0,0,-1,1938,512,0,0
721,512,0,0,0,0,0,0,0,0,0,-1,1945,512,0,0
728,512,0,0,0,0,0,0,0,0,0,-1,1952,512,0,0
735,512,0,0,0,0,0,0,0,0,0,-1,1959,512,0,0
742,512,0,0,0,0,0,0,0,0,0,-1,1966,512,0,0
749,512,0,0,0,0,0,0,0,0,0,-1,1973,512,0,0
756,512,0,0,0,0,0,0,0,0,0,-1,1980,512,0,0
763,512,0,0,0,0,0,0,0,0,0,-1,1987,512,0,0
770,512,0,0,0,0,0,0,0,0,0,-1,1994,512,0,0
777,512,0,0,0,0,0,0,0,0,0,-1,2001,512,0,0
784,512,0,0,0,0,0,0,0,0,0,-1,2008,512,0,0
791,512,0,0,0,0,0,0,0,0,0,-1,2015,512,0,0
798,512,0,0,0,0,0,0,0,0,0,-1,2022,512,0,0
805,512,0,0,0,0,0,0,0,0,0,-1,2029,512,0,0
812,512,0,0,0,0,0,0,0,0,0,-1,2036,512,0,0
-700,505,0,0,0,0,0,0,0,0,0,-1,524,519,0,0
-693,505,0,0,0,0,0,0,0,0,0,-1,531,519,0,0
-686,505,0,0,0,0,0,0,0,0,0,-1,538,519,0,0
-679,505,0,0,0,0,0,0,0,0,0,-1,545,519,0,0
-672,505,0,0,0,0,0,0,0,0,0,-1,552,519,0,0
-665,505,0,0,0,0,0,0,0,0,0,-1,559,519,0,0
-658,505,0,0,0,0,0,0,0,0,0,-1,566,519,0,0
-651,505,0,0,0,0,0,0,0,0,0,-1,573,519,0,0
-644,505,0,0,0,0,0,0,0,0,0,-1,580,519,0,0
-637,505,0,0,0,0,0,0,0,0,0,-1,587,519,0,0
-630,505,0,0,0,0,0,0,0,0,0,-1,594,519,0,0
-623,505,0,0,0,0,0,0,0,0,0,-1,601,519,0,0
-616,505,0,0,0,0,0,0,0,0,0,-1,608,519,0,0
-609,505,0,0,0,0,0,0,0,0,0,-1,615,519,0,0
-602,505,0,0,0,0,0,0,0,0,0,-1,622,519,0,0
-595,505,0,0,0,0,0,0,0,0,0,-1,629,519,0,0
-588,505,0,0,0,0,0,0,0,0,0,-1,636,519,0,0
-581,505,0,0,0,0,0,0,0,0,0,-1,643,519,0,0
-574,505,0,0,0,0,0,0,0,0,0,-1,650,519,0,0
-567,505,0,0,0,0,0,0,0,0,0,-1,657,519,0,0
-560,505,0,0,0,0,0,0,0,0,0,-1,664,519,0,0
-553,505,0,0,0,0,0,0,0,0,0,-1,671,519,0,0
-546,505,0,0,0,0,0,0,0,0,0,-1,678,519,0,0
-539,505,0,0,0,0,0,0,0,0,0,-1,685,519,0,0
-532,505,0,0,0,0,0,0,0,0,0,-1,692,519,0,0
-525,505,0,0,0,0,0,0,0,0,0,-1,699,519,0,0
-518,505,0,0,0,0,0,0,0,0,0,-1,706,519,0,0
-511,505,0,0,0,0,0,0,0,0,0,-1,713,519,0,0
-504,505,0,0,0,0,0,0,0,0,0,-1,720,519,0,0
-497,505,0,0,0,0,0,0,0,0,0,-1,727,519,0,0
-490,505,0,0,0,0,0,0,0,0,0,-1,734,519,0,0
-483,505,0,0,0,0,0,0,0,0,0,-1,741,519,0,0
-476,505,0,0,0,0,0,0,0,0,0,-1,748,519,0,0
-469,505,0,0,0,0,0,0,0,0,0,-1,755,519,0,0
-462,505,0,0,0,0,0,0,0,0,0,-1,762,519,0,0
-455,505,2.72137,-3.26379,0,0,0,0,0,0,0,-1,769,519,2.72135,3.26377
-448,505,2.51111,-3.94989,0,0,0,0,0,0,0,-1,776,519,2.51112,3.94986
-441,505,2.80212,-6.8902,0,0,0,0,0,0,0,-1,783,519,2.80209,6.89019
-434,505,0.304626,-6.2099,0,0,0,0,0,0,0,-1,790,519,0.304615,6.20987
-427,505,0.0349731,-6.49762,0,0,0,0,0,0,0,-1,797,519,0.0349682,6.49761
-420,505,-0.523132,-7.62921,0,0,0,0,0,0,0,-1,804,519,-0.523104,7.62919
-413,505,-0.497131,-7.62396,-0.0108037,-0.0214604,0.000422048,-0.010787,-0.0214771,0.0395213,0.0123999,0.0488917,811,519,-0.497117,7.62398
-406,505,-0.65741,-7.73535,-0.00853859,-0.0180656,0.000347788,-0.00852591,-0.0180783,0.0364407,0.0104431,0.0495513,818,519,-0.657402,7.73534
-399,505,-0.834229,-8.21851,-0.00687996,-0.0142604,0.000324279,-0.00686574,-0.0142747,0.0438248,0.00824347,0.0417707,825,519,-0.834231,8.2185
-392,505,-0.884155,-8.65973,-0.00545659,-0.0112676,0.000316273,-0.00543943,-0.0112848,0.0542127,0.00651669,0.0210726,832,519,-0.884141,8.65972
-385,505,-0.911682,-9.04718,-0.00419402,-0.00858172,0.000317883,-0.00417111,-0.00860464,0.0719478,0.00496866,0.00954217,839,519,-0.911711,9.0472
-378,505,-0.94397,-9.39752,-0.00314973,-0.00643767,0.000281285,-0.00312584,-0.00646156,0.08473,0.00373124,0.0109507,846,519,-0.943996,9.39751
-371,505,-0.937683,-9.76691,-0.00235235,-0.00473519,0.000221778,-0.00233188,-0.00475566,0.0920196,0.00274585,0.0141151,853,519,-0.937659,9.76693
-364,505,-0.938965,-10.1091,-0.00176592,-0.00342983,0.000193262,-0.00174376,-0.00345198,0.114125,0.00199304,0.0151949,860,519,-0.938944,10.1091
-357,505,-0.92218,-10.4297,-0.0011448,-0.00211086,0.000134421,-0.00112645,-0.00212921,0.135711,0.00122999,0.0129448,867,519,-0.922211,10.4297
-350,505,-0.952454,-10.7569,-0.000646501,-0.00141961,4.83911e-05,-0.000643484,-0.00142263,0.0622687,0.000822599,0.011582,874,519,-0.952459,10.7569
-343,505,-0.976074,-11.0945,-0.000334693,-0.00127282,6.20492e-05,-0.000330607,-0.00127691,0.0657596,0.000765257,0.00889653,881,519,-0.976088,11.0945
-336,505,-0.968506,-11.4,-0.000123266,-0.00140032,8.10983e-05,-0.000118137,-0.00140545,0.0631658,0.000900178,0.0108384,888,519,-0.968532,11.4
-329,505,-0.960999,-11.697,0.000180246,-0.00160882,0.000111895,0.000187217,-0.00161579,0.0622203,0.00114472,0.0147406,895,519,-0.960975,11.697
-322,505,-0.968933,-12.0529,0.000442934,-0.0018859,0.00024012,0.000467434,-0.0019104,0.101682,0.00145467,0.0169235,902,519,-0.968913,12.0528
-315,505,-0.976501,-12.3749,0.000667907,-0.00233626,0.000490723,0.000746034,-0.00241438,0.157882,0.00190753,0.0135346,909,519,-0.976528,12.3749
-308,505,-0.984314,-12.6624,0.00088834,-0.0029223,0.000824381,0.00105904,-0.00309299,0.204176,0.00249121,0.0120928,916,519,-0.984332,12.6623
-301,505,-0.966736,-13.0094,0.00109359,-0.00358119,0.00117985,0.00137449,-0.00386209,0.23373,0.00313499,0.018046,923,519,-0.966706,13.0094
-294,505,-0.990601,-13.0707,0.00089136,-0.00417475,0.00162749,0.00136913,-0.00465252,0.285542,0.00364481,0.0361367,930,519,-0.990583,13.0707
-287,505,-1.05255,-13.4157,0.000853281,-0.00543683,0.00203571,0.00145463,-0.00603817,0.287229,0.00458785,0.0486687,937,519,-1.05257,13.4157
-280,505,-0.83728,-14.0325,0,0,0,0,0,0,0,-1,944,519,-0.83725,14.0326
-273,505,-0.0680542,-9.44867,0,0,0,0,0,0,0,-1,951,519,-0.0680462,9.44866
-266,505,-0.036377,-9.07922,0,0,0,0,0,0,0,-1,958,519,-0.0364055,9.0792
-259,505,0.10321,-6.69824,0,0,0,0,0,0,0,-1,965,519,0.103235,6.69826
-252,505,6.82312,-15.6972,0,0,0,0,0,0,0,-1,972,519,6.82314,15.6972
-245,505,4.26727,-12.9861,0,0,0,0,0,0,0,-1,979,519,4.2673,12.9861
-238,505,1.67432,-11.2307,0,0,0,0,0,0,0,-1,986,519,1.67429,11.2307
-231,505,-0.958435,-8.3075,0,0,0,0,0,0,0,-1,993,519,-0.958421,8.30751
-224,505,-3.69653,-5.12732,0,0,0,0,0,0,0,-1,1000,519,-3.69653,5.12733
-217,505,-6.34302,-1.65533,0,0,0,0,0,0,0,-1,1007,519,-6.34299,1.65535
-210,505,-3.06128,-0.396301,0,0,0,0,0,0,0,-1,1014,519,-3.06129,0.396294
-203,505,-4.26465,2.03607,0,0,0,0,0,0,0,-1,1021,519,-4.26462,-2.03606
-196,505,-5.47595,4.27295,0,0,0,0,0,0,0,-1,1028,519,-5.47597,-4.27292
-189,505,1.51526,5.56207,0,0,0,0,0,0,0,-1,1035,519,1.51523,-5.56209
-182,505,2.97815,7.5097,0,0,0,0,0,0,0,-1,1042,519,2.97812,-7.5097
-175,505,-2.38416,-2.17548,0,0,0,0,0,0,0,-1,1049,519,-2.38411,2.1755
-168,505,0,0,0,0,0,0,0,0,0,-1,1056,519,0,0
-161,505,0,0,0,0,0,0,0,0,0,-1,1063,519,0,0
-154,505,0,0,0,0,0,0,0,0,0,-1,1070,519,0,0
-147,505,0,0,0,0,0,0,0,0,0,-1,1077,519,0,0
-140,505,0,0,0,0,0,0,0,0,0,-1,1084,519,0,0
-133,505,0,0,0,0,0,0,0,0,0,-1,1091,519,0,0
-126,505,0,0,0,0,0,0,0,0,0,-1,1098,519,0,0
-119,505,0,0,0,0,0,0,0,0,0,-1,1105,519,0,0
-112,505,0,0,0,0,0,0,0,0,0,-1,1112,519,0,0
-105,505,0,0,0,0,0,0,0,0,0,-1,1119,519,0,0
-98,505,0,0,0,0,0,0,0,0,0,-1,1126,519,0,0
-91,505,0,0,0,0,0,0,0,0,0,-1,1133,519,0,0
-84,505,0,0,0,0,0,0,0,0,0,-1,1140,519,0,0
-77,505,0,0,0,0,0,0,0,0,0,-1,1147,519,0,0
-70,505,0,0,0,0,0,0,0,0,0,-1,1154,519,0,0
-63,505,0,0,0,0,0,0,0,0,0,-1,1161,519,0,0
-56,505,0,0,0,0,0,0,0,0,0,-1,1168,519,0,0
-49,505,0,0,0,0,0,0,0,0,0,-1,1175,519,0,0
-42,505,0,0,0,0,0,0,0,0,0,-1,1182,519,0,0
-35,505,0,0,0,0,0,0,0,0,0,-1,1189,519,0,0
-28,505,0,0,0,0,0,0,0,0,0,-1,1196,519,0,0
-21,505,0,0,0,0,0,0,0,0,0,-1,1203,519,0,0
-14,505,0,0,0,0,0,0,0,0,0,-1,1210,519,0,0
-7,505,0,0,0,0,0,0,0,0,0,-1,1217,519,0,0
0,505,0,0,0,0,0,0,0,0,0,-1,1224,519,0,0
7,505,0,0,0,0,0,0,0,0,0,-1,1231,519,0,0
14,505,0,0,0,0,0,0,0,0,0,-1,1238,519,0,0
21,505,0,0,0,0,0,0,0,0,0,-1,1245,519,0,0
28,505,0,0,0,0,0,0,0,0,0,-1,1252,519,0,0
35,505,0,0,0,0,0,0,0,0,0,-1,1259,519,0,0
42,505,0,0,0,0,0,0,0,0,0,-1,1266,519,0,0
49,505,0,0,0,0,0,0,0,0,0,-1,1273,519,0,0
56,505,0,0,0,0,0,0,0,0,0,-1,1280,519,0,0
63,505,0,0,0,0,0,0,0,0,0,-1,1287,519,0,0
70,505,0,0,0,0,0,0,0,0,0,-1,1294,519,0,0
77,505,0,0,0,0,0,0,0,0,0,-1,1301,519,0,0
84,505,0,0,0,0,0,0,0,0,0,-1,1308,519,0,0
91,505,0,0,0,0,0,0,0,0,0,-1,1315,519,0,0
98,505,0,0,0,0,0,0,0,0,0,-1,1322,519,0,0
105,505,0,0,0,0,0,0,0,0,0,-1,1329,519,0,0
112,505,0,0,0,0,0,0,0,0,0,-1,1336,519,0,0
119,505,0,0,0,0,0,0,0,0,0,-1,1343,519,0,0
126,505,0,0,0,0,0,0,0,0,0,-1,1350,519,0,0
133,505,0,0,0,0,0,0,0,0,0,-1,1357,519,0,0
140,505,0,0,0,0,0,0,0,0,0,-1,1364,519,0,0
147,505,0,0,0,0,0,0,0,0,0,-1,1371,519,0,0
154,505,0,0,0,0,0,0,0,0,0,-1,1378,519,0,0
161,505,0,0,0,0,0,0,0,0,0,-1,1385,519,0,0
168,505,0,0,0,0,0,0,0,0,0,-1,1392,519,0,0
175,505,0,0,0,0,0,0,0,0,0,-1,1399,519,0,0
182,505,0,0,0,0,0,0,0,0,0,-1,1406,519,0,0
189,505,0,0,0,0,0,0,0,0,0,-1,1413,519,0,0
196,505,0,0,0,0,0,0,0,0,0,-1,1420,519,0,0
203,505,0,0,0,0,0,0,0,0,0,-1,1427,519,0,0
210,505,0,0,0,0,0,0,0,0,0,-1,1434,519,0,0
217,505,0,0,0,0,0,0,0,0,0,-1,1441,519,0,0
224,505,0,0,0,0,0,0,0,0,0,-1,1448,519,0,0
231,505,0,0,0,0,0,0,0,0,0,-1,1455,519,0,0
238,505,0,0,0,0,0,0,0,0,0,-1,1462,519,0,0
245,505,0,0,0,0,0,0,0,0,0,-1,1469,519,0,0
252,505,0,0,0,0,0,0,0,0,0,-1,1476,519,0,0
259,505,0,0,0,0,0,0,0,0,0,-1,1483,519,0,0
266,505,0,0,0,0,0,0,0,0,0,-1,1490,519,0,0
273,505,0,0,0,0,0,0,0,0,0,-1,1497,519,0,0
280,505,0,0,0,0,0,0,0,0,0,-1,1504,519,0,0
287,505,4.39478,0.499512,0,0,0,0,0,0,0,-1,1511,519,4.39476,-0.499506
294,505,4.88867,0.0822754,0,0,0,0,0,0,0,-1,1518,519,4.88871,-0.0822748
301,505,4.82153,-0.0704346,0,0,0,0,0,0,0,-1,1525,519,4.82156,0.0704312
308,505,4.67761,-0.29187,0,0,0,0,0,0,0,-1,1532,519,4.67762,0.291845
315,505,8.44055,-6.54352,0,0,0,0,0,0,0,-1,1539,519,8.44059,6.54349
322,505,4.78955,-0.594116,0,0,0,0,0,0,0,-1,1546,519,4.78957,0.594096
329,505,5.16321,0.434631,0,0,0,0,0,0,0,-1,1553,519,5.16316,-0.434614
336,505,4.94495,-0.920471,0,0,0,0,0,0,0,-1,1560,519,4.945,0.920495
343,505,5.01855,-1.4823,0,0,0,0,0,0,0,-1,1567,519,5.01851,1.48227
350,505,5.33154,-1.77838,0,0,0,0,0,0,0,-1,1574,519,5.33152,1.77838
357,505,5.56567,-1.9425,0,0,0,0,0,0,0,-1,1581,519,5.56562,1.94248
364,505,5.85205,-2.6579,0,0,0,0,0,0,0,-1,1588,519,5.85211,2.65788
371,505,5.88477,-7.00922,0,0,0,0,0,0,0,-1,1595,519,5.88473,7.00924
378,505,5.44104,-7.10162,0,0,0,0,0,0,0,-1,1602,519,5.44099,7.10162
385,505,6.64661,-8.65015,0,0,0,0,0,0,0,-1,1609,519,6.64662,8.65014
392,505,6.34558,-8.3429,0,0,0,0,0,0,0,-1,1616,519,6.34554,8.34288
399,505,7.45898,-9.70386,0,0,0,0,0,0,0,-1,1623,519,7.45899,9.70388
406,505,7.08679,-9.4928,0,0,0,0,0,0,0,-1,1630,519,7.08678,9.49278
413,505,7.7948,-12.6262,0,0,0,0,0,0,0,-1,1637,519,7.7948,12.6262
420,505,8.03589,-12.1912,0,0,0,0,0,0,0,-1,1644,519,8.03584,12.1912
427,505,8.09656,-11.7868,-0.00201872,-0.00411699,-0.00448874,0.00154186,-0.00767757,-0.670596,0.00570225,0.0179599,1651,519,8.09657,11.7868
434,505,8.07458,-11.4133,-0.0017921,-0.00334957,-0.00385815,0.00136512,-0.00650679,-0.685815,0.00485727,0.0107826,1658,519,8.07454,11.4133
441,505,8.08276,-11.0452,-0.00141962,-0.00266599,-0.00315864,0.00117673,-0.00526234,-0.688001,0.00395919,0.0110131,1665,519,8.08275,11.0452
448,505,8.07324,-10.7284,-0.000947654,-0.00194445,-0.0023835,0.000989003,-0.00388111,-0.682332,0.00297243,0.0105148,1672,519,8.0732,10.7284
455,505,8.0636,-10.3882,-0.000533149,-0.00122958,-0.00165278,0.000807701,-0.00257043,-0.681574,0.00203695,0.0107738,1679,519,8.06358,10.3882
462,505,8.04272,-10.0421,-0.000164013,-0.000607185,-0.00100355,0.00064212,-0.00141332,-0.67674,0.00121423,0.0104599,1686,519,8.04269,10.0421
469,505,8.04504,-9.71228,5.4466e-05,-0.000145212,-0.000508996,0.000473322,-0.000564068,-0.688553,0.000599701,0.0104405,1693,519,8.04502,9.71231
476,505,8.04663,-9.3819,0.000108898,0.000257326,-9.32155e-05,0.000302263,6.39613e-05,-1.12159,0.000183933,0.0110106,1700,519,8.04665,9.3819
483,505,8.05151,-9.03735,0.000101672,0.000525615,0.0001413,0.000568394,5.88936e-05,1.27682,0.000360904,0.0122628,1707,519,8.05157,9.03734
490,505,8.0459,-8.66479,-0.000198723,0.000618074,0.000168948,0.00065164,-0.00023229,1.37467,0.000529135,0.0117086,1714,519,8.04593,8.66478
497,505,8.06201,-8.29602,-0.000737343,0.0006948,7.82337e-05,0.000699061,-0.000741604,1.51639,0.000831889,0.0113924,1721,519,8.06195,8.29603
504,505,8.05859,-7.93164,-0.00129285,0.000735114,-9.30616e-05,0.000739376,-0.00129712,-1.52504,0.00119038,0.0124154,1728,519,8.05857,7.93164
511,505,8.04248,-7.57898,-0.00204253,0.000901362,-0.000339948,0.000940108,-0.00208128,-1.45731,0.00178539,0.0146846,1735,519,8.04254,7.57896
518,505,8.09595,-7.23322,-0.00297586,0.00119801,-0.000614198,0.00128651,-0.00306437,-1.42768,0.00258094,0.0237824,1742,519,8.09595,7.2332
525,505,7.84399,-6.86176,-0.00389181,0.00161086,-0.000829715,0.00173325,-0.0040142,-1.42435,0.00340428,0.0377996,1749,519,7.844,6.86172
532,505,7.59058,-6.57404,0,0,0,0,0,0,0,-1,1756,519,7.59055,6.57404
539,505,6.57825,-5.91382,0,0,0,0,0,0,0,-1,1763,519,6.57825,5.91381
546,505,4.69727,-1.47705,0,0,0,0,0,0,0,-1,1770,519,4.69723,1.47703
553,505,2.82837,0.162659,0,0,0,0,0,0,0,-1,1777,519,2.82841,-0.162672
560,505,3.66223,-0.479797,0,0,0,0,0,0,0,-1,1784,519,3.66219,0.47982
567,505,4.65271,-0.950256,0,0,0,0,0,0,0,-1,1791,519,4.65274,0.95028
574,505,5.54443,-1.19977,0,0,0,0,0,0,0,-1,1798,519,5.54443,1.19974
581,505,0,0,0,0,0,0,0,0,0,-1,1805,519,0,0
588,505,0,0,0,0,0,0,0,0,0,-1,1812,519,0,0
595,505,0,0,0,0,0,0,0,0,0,-1,1819,519,0,0
602,505,0,0,0,0,0,0,0,0,0,-1,1826,519,0,0
609,505,0,0,0,0,0,0,0,0,0,-1,1833,519,0,0
616,505,0,0,0,0,0,0,0,0,0,-1,1840,519,0,0
623,505,0,0,0,0,0,0,0,0,0,-1,1847,519,0,0
630,505,0,0,0,0,0,0,0,0,0,-1,1854,519,0,0
637,505,0,0,0,0,0,0,0,0,0,-1,1861,519,0,0
644,505,0,0,0,0,0,0,0,0,0,-1,1868,519,0,0
651,505,0,0,0,0,0,0,0,0,0,-1,1875,519,0,0
658,505,0,0,0,0,0,0,0,0,0,-1,1882,519,0,0
665,505,0,0,0,0,0,0,0,0,0,-1,1889,519,0,0
672,505,0,0,0,0,0,0,0,0,0,-1,1896,519,0,0
679,505,0,0,0,0,0,0,0,0,0,-1,1903,519,0,0
686,505,0,0,0,0,0,0,0,0,0,-1,1910,519,0,0
693,505,0,0,0,0,0,0,0,0,0,-1,1917,519,0,0
700,505,0,0,0,0,0,0,0,0,0,-1,1924,519,0,0
707,505,0,0,0,0,0,0,0,0,0,-1,1931,519,0,0
714,505,0,0,0,0,0,0,0,0,0,-1,1938,519,0,0
721,505,0,0,0,0,0,0,0,0,0,-1,1945,519,0,0
728,505,0,0,0,0,0,0,0,0,0,-1,1952,519,0,0
735,505,0,0,0,0,0,0,0,0,0,-1,1959,519,0,0
742,505,0,0,0,0,0,0,0,0,0,-1,1966,519,0,0
749,505,0,0,0,0,0,0,0,0,0,-1,1973,519,0,0
756,505,0,0,0,0,0,0,0,0,0,-1,1980,519,0,0
763,505,0,0,0,0,0,0,0,0,0,-1,1987,519,0,0
770,505,0,0,0,0,0,0,0,0,0,-1,1994,519,0,0
777,505,0,0,0,0,0,0,0,0,0,-1,2001,519,0,0
784,505,0,0,0,0,0,0,0,0,0,-1,2008,519,0,0
791,505,0,0,0,0,0,0,0,0,0,-1,2015,519,0,0
798,505,0,0,0,0,0,0,0,0,0,-1,2022,519,0,0
805,505,0,0,0,0,0,0,0,0,0,-1,2029,519,0,0
812,505,0,0,0,0,0,0,0,0,0,-1,2036,519,0,0
-700,498,0,0,0,0,0,0,0,0,0,-1,524,526,0,0
-693,498,0,0,0,0,0,0,0,0,0,-1,531,526,0,0
-686,498,0,0,0,0,0,0,0,0,0,-1,538,526,0,0
-679,498,0,0,0,0,0,0,0,0,0,-1,545,526,0,0
-672,498,0,0,0,0,0,0,0,0,0,-1,552,526,0,0
-665,498,0,0,0,0,0,0,0,0,0,-1,559,526,0,0
-658,498,0,0,0,0,0,0,0,0,0,-1,566,526,0,0
-651,498,0,0,0,0,0,0,0,0,0,-1,573,526,0,0
-644,498,0,0,0,0,0,0,0,0,0,-1,580,526,0,0
-637,498,0,0,0,0,0,0,0,0,0,-1,587,526,0,0
-630,498,0,0,0,0,0,0,0,0,0,-1,594,526,0,0
-623,498,0,0,0,0,0,0,0,0,0,-1,601,526,0,0
-616,498,0,0,0,0,0,0,0,0,0,-1,608,526,0,0
-609,498,0,0,0,0,0,0,0,0,0,-1,615,526,0,0
-602,498,0,0,0,0,0,0,0,0,0,-1,622,526,0,0
-595,498,0,0,0,0,0,0,0,0,0,-1,629,526,0,0
-588,498,0,0,0,0,0,0,0,0,0,-1,636,526,0,0
-581,498,0,0,0,0,0,0,0,0,0,-1,643,526,0,0
-574,498,0,0,0,0,0,0,0,0,0,-1,650,526,0,0
-567,498,0,0,0,0,0,0,0,0,0,-1,657,526,0,0
-560,498,0,0,0,0,0,0,0,0,0,-1,664,526,0,0
-553,498,0,0,0,0,0,0,0,0,0,-1,671,526,0,0
-546,498,0,0,0,0,0,0,0,0,0,-1,678,526,0,0
-539,498,0,0,0,0,0,0,0,0,0,-1,685,526,0,0
-532,498,0,0,0,0,0,0,0,0,0,-1,692,526,0,0
-525,498,0,0,0,0,0,0,0,0,0,-1,699,526,0,0
-518,498,0,0,0,0,0,0,0,0,0,-1,706,526,0,0
-511,498,0,0,0,0,0,0,0,0,0,-1,713,526,0,0
-504,498,0,0,0,0,0,0,0,0,0,-1,720,526,0,0
-497,498,0,0,0,0,0,0,0,0,0,-1,727,526,0,0
-490,498,0,0,0,0,0,0,0,0,0,-1,734,526,0,0
-483,498,0,0,0,0,0,0,0,0,0,-1,741,526,0,0
-476,498,0,0,0,0,0,0,0,0,0,-1,748,526,0,0
-469,498,0,0,0,0,0,0,0,0,0,-1,755,526,0,0
-462,498,6.81024,1.15515,0,0,0,0,0,0,0,-1,762,526,6.81026,-1.15514
-455,498,3.25757,-3.0592,0,0,0,0,0,0,0,-1,769,526,3.25754,3.05921
-448,498,3.05939,-3.74298,0,0,0,0,0,0,0,-1,776,526,3.05939,3.74296
-441,498,2.77191,-6.08209,0,0,0,0,0,0,0,-1,783,526,2.77189,6.08207
-434,498,2.10681,-6.95929,0,0,0,0,0,0,0,-1,790,526,2.10682,6.9593
-427,498,-0.342224,-6.47314,0,0,0,0,0,0,0,-1,797,526,-0.342207,6.47314
-420,498,-0.675293,-6.72467,0,0,0,0,0,0,0,-1,804,526,-0.675275,6.72468
-413,498,-0.989868,-7.21973,0,0,0,0,0,0,0,-1,811,526,-0.989855,7.21973
-406,498,-1.03876,-7.73413,-0.00707205,-0.0128777,-0.000224078,-0.00706342,-0.0128863,-0.0385202,0.00745141,0.0476577,818,526,-1.03874,7.73411
-399,498,-1.16614,-8.24677,-0.00555565,-0.010261,-0.0002225,-0.00554515,-0.0102715,-0.0471465,0.00593652,0.0249092,825,526,-1.16617,8.24679
-392,498,-1.2124,-8.70135,-0.00422281,-0.00823671,-0.000169772,-0.00421564,-0.00824388,-0.0421957,0.00476002,0.0124817,832,526,-1.21243,8.70138
-385,498,-1.23975,-9.04437,-0.00304187,-0.00639125,-0.000100826,-0.00303883,-0.00639428,-0.0300666,0.00369325,0.00886412,839,526,-1.23974,9.04439
-378,498,-1.26111,-9.39264,-0.00206354,-0.00487641,-6.47273e-05,-0.00206205,-0.00487789,-0.0229949,0.00282744,0.0105249,846,526,-1.26113,9.39265
-371,498,-1.2478,-9.74609,-0.00133867,-0.00369057,-4.27289e-05,-0.0013379,-0.00369135,-0.0181598,0.00215792,0.016283,853,526,-1.24779,9.74609
-364,498,-1.25824,-10.0901,-0.000825588,-0.00283005,2.18681e-05,-0.00082535,-0.00283029,0.0109079,0.00168071,0.0163828,860,526,-1.25826,10.0901
-357,498,-1.24908,-10.4136,-0.000293498,-0.00197277,3.7395e-05,-0.000292666,-0.00197361,0.0222538,0.00122985,0.0113115,867,526,-1.24908,10.4136
-350,498,-1.26184,-10.7479,0.000110223,-0.00158768,4.16613e-05,0.000111244,-0.0015887,0.0245173,0.00109809,0.0106624,874,526,-1.26184,10.7479
-343,498,-1.26923,-11.0845,0.000323147,-0.00170078,0.000117957,0.000329999,-0.00170763,0.0580194,0.00126287,0.0103897,881,526,-1.26922,11.0845
-336,498,-1.26001,-11.4133,0.000439184,-0.00200142,0.000188826,0.000453707,-0.00201594,0.0767599,0.00151797,0.0137304,888,526,-1.26003,11.4133
-329,498,-1.25085,-11.7106,0.000656386,-0.00233865,0.000260862,0.000678936,-0.0023612,0.0862327,0.00184262,0.0195191,895,526,-1.25086,11.7106
-322,498,-1.26538,-12.0498,0.000847514,-0.00274416,0.00041319,0.000894435,-0.00279108,0.113073,0.00221977,0.0203808,902,526,-1.26536,12.0498
-315,498,-1.28729,-12.3676,0.000969827,-0.0034644,0.000742709,0.00109092,-0.00358549,0.16162,0.00282507,0.0167369,909,526,-1.2873,12.3675
-308,498,-1.27161,-12.655,0.00105107,-0.0042744,0.00112764,0.00128,-0.00450333,0.200295,0.00350762,0.0213892,916,526,-1.27162,12.655
-301,498,-1.24371,-13.0256,0,0,0,0,0,0,0,-1,923,526,-1.24374,13.0255
-294,498,-1.06464,-13.4725,0,0,0,0,0,0,0,-1,930,526,-1.06462,13.4725
-287,498,-0.91394,-13.4327,0,0,0,0,0,0,0,-1,937,526,-0.913935,13.4327
-280,498,-0.341614,-8.66608,0,0,0,0,0,0,0,-1,944,526,-0.341589,8.66606
-273,498,-0.988892,-8.62921,0,0,0,0,0,0,0,-1,951,526,-0.988906,8.62922
-266,498,0.362488,-6.33545,0,0,0,0,0,0,0,-1,958,526,0.362478,6.33547
-259,498,10.9454,-17.3615,0,0,0,0,0,0,0,-1,965,526,10.9454,17.3614
-252,498,8.56586,-14.6886,0,0,0,0,0,0,0,-1,972,526,8.56584,14.6886
-245,498,5.97382,-11.928,0,0,0,0,0,0,0,-1,979,526,5.97381,11.928
-238,498,2.24841,-13.8145,0,0,0,0,0,0,0,-1,986,526,2.24838,13.8145
-231,498,0.665894,-10.4898,0,0,0,0,0,0,0,-1,993,526,0.665863,10.4898
-224,498,-2.11243,-4.76312,0,0,0,0,0,0,0,-1,1000,526,-2.11245,4.76314
-217,498,-3.82239,-1.42841,0,0,0,0,0,0,0,-1,1007,526,-3.82241,1.42843
-210,498,-1.80591,-0.358215,0,0,0,0,0,0,0,-1,1014,526,-1.8059,0.3582
-203,498,-3.17316,1.06641,0,0,0,0,0,0,0,-1,1021,526,-3.17313,-1.0664
-196,498,-0.103271,5.40527,0,0,0,0,0,0,0,-1,1028,526,-0.103285,-5.40528
-189,498,3.00256,6.47137,0,0,0,0,0,0,0,-1,1035,526,3.00256,-6.47139
-182,498,0,0,0,0,0,0,0,0,0,-1,1042,526,0,0
-175,498,0,0,0,0,0,0,0,0,0,-1,1049,526,0,0
-168,498,0,0,0,0,0,0,0,0,0,-1,1056,526,0,0
-161,498,0,0,0,0,0,0,0,0,0,-1,1063,526,0,0
-154,498,0,0,0,0,0,0,0,0,0,-1,1070,526,0,0
-147,498,0,0,0,0,0,0,0,0,0,-1,1077,526,0,0
-140,498,0,0,0,0,0,0,0,0,0,-1,1084,526,0,0
-133,498,0,0,0,0,0,0,0,0,0,-1,1091,526,0,0
-126,498,0,0,0,0,0,0,0,0,0,-1,1098,526,0,0
-119,498,0,0,0,0,0,0,0,0,0,-1,1105,526,0,0
-112,498,0,0,0,0,0,0,0,0,0,-1,1112,526,0,0
-105,498,0,0,0,0,0,0,0,0,0,-1,1119,526,0,0
-98,498,0,0,0,0,0,0,0,0,0,-1,1126,526,0,0
-91,498,0,0,0,0,0,0,0,0,0,-1,1133,526,0,0
-84,498,0,0,0,0,0,0,0,0,0,-1,1140,526,0,0
-77,498,0,0,0,0,0,0,0,0,0,-1,1147,526,0,0
-70,498,0,0,0,0,0,0,0,0,0,-1,1154,526,0,0
-63,498,0,0,0,0,0,0,0,0,0,-1,1161,526,0,0
-56,498,0,0,0,0,0,0,0,0,0,-1,1168,526,0,0
-49,498,0,0,0,0,0,0,0,0,0,-1,1175,526,0,0
-42,498,0,0,0,0,0,0,0,0,0,-1,1182,526,0,0
-35,498,0,0,0,0,0,0,0,0,0,-1,1189,526,0,0
-28,498,0,0,0,0,0,0,0,0,0,-1,1196,526,0,0
-21,498,0,0,0,0,0,0,0,0,0,-1,1203,526,0,0
-14,498,0,0,0,0,0,0,0,0,0,-1,1210,526,0,0
-7,498,0,0,0,0,0,0,0,0,0,-1,1217,526,0,0
0,498,0,0,0,0,0,0,0,0,0,-1,1224,526,0,0
7,498,0,0,0,0,0,0,0,0,0,-1,1231,526,0,0
14,498,0,0,0,0,0,0,0,0,0,-1,1238,526,0,0
21,498,0,0,0,0,0,0,0,0,0,-1,1245,526,0,0
28,498,0,0,0,0,0,0,0,0,0,-1,1252,526,0,0
35,498,0,0,0,0,0,0,0,0,0,-1,1259,526,0,0
42,498,0,0,0,0,0,0,0,0,0,-1,1266,526,0,0
49,498,0,0,0,0,0,0,0,0,0,-1,1273,526,0,0
56,498,0,0,0,0,0,0,0,0,0,-1,1280,526,0,0
63,498,0,0,0,0,0,0,0,0,0,-1,1287,526,0,0
70,498,0,0,0,0,0,0,0,0,0,-1,1294,526,0,0
77,498,0,0,0,0,0,0,0,0,0,-1,1301,526,0,0
84,498,0,0,0,0,0,0,0,0,0,-1,1308,526,0,0
91,498,0,0,0,0,0,0,0,0,0,-1,1315,526,0,0
98,498,0,0,0,0,0,0,0,0,0,-1,1322,526,0,0
105,498,0,0,0,0,0,0,0,0,0,-1,1329,526,0,0
112,498,0,0,0,0,0,0,0,0,0,-1,1336,526,0,0
119,498,0,0,0,0,0,0,0,0,0,-1,1343,526,0,0
126,498,0,0,0,0,0,0,0,0,0,-1,1350,526,0,0
133,498,0,0,0,0,0,0,0,0,0,-1,1357,526,0,0
140,498,0,0,0,0,0,0,0,0,0,-1,1364,526,0,0
147,498,0,0,0,0,0,0,0,0,0,-1,1371,526,0,0
154,498,0,0,0,0,0,0,0,0,0,-1,1378,526,0,0
161,498,0,0,0,0,0,0,0,0,0,-1,1385,526,0,0
168,498,0,0,0,0,0,0,0,0,0,-1,1392,526,0,0
175,498,0,0,0,0,0,0,0,0,0,-1,1399,526,0,0
182,498,0,0,0,0,0,0,0,0,0,-1,1406,526,0,0
189,498,0,0,0,0,0,0,0,0,0,-1,1413,526,0,0
196,498,0,0,0,0,0,0,0,0,0,-1,1420,526,0,0
203,498,0,0,0,0,0,0,0,0,0,-1,1427,526,0,0
210,498,0,0,0,0,0,0,0,0,0,-1,1434,526,0,0
217,498,0,0,0,0,0,0,0,0,0,-1,1441,526,0,0
224,498,0,0,0,0,0,0,0,0,0,-1,1448,526,0,0
231,498,0,0,0,0,0,0,0,0,0,-1,1455,526,0,0
238,498,0,0,0,0,0,0,0,0,0,-1,1462,526,0,0
245,498,0,0,0,0,0,0,0,0,0,-1,1469,526,0,0
252,498,0,0,0,0,0,0,0,0,0,-1,1476,526,0,0
259,498,0,0,0,0,0,0,0,0,0,-1,1483,526,0,0
266,498,0,0,0,0,0,0,0,0,0,-1,1490,526,0,0
273,498,0,0,0,0,0,0,0,0,0,-1,1497,526,0,0
280,498,0,0,0,0,0,0,0,0,0,-1,1504,526,0,0
287,498,0,0,0,0,0,0,0,0,0,-1,1511,526,0,0
294,498,0,0,0,0,0,0,0,0,0,-1,1518,526,0,0
301,498,0,0,0,0,0,0,0,0,0,-1,1525,526,0,0
308,498,4.77942,-0.293884,0,0,0,0,0,0,0,-1,1532,526,4.77939,0.293899
315,498,4.56091,-0.564148,0,0,0,0,0,0,0,-1,1539,526,4.56097,0.564142
322,498,4.52344,-0.447266,0,0,0,0,0,0,0,-1,1546,526,4.52341,0.447295
329,498,4.63232,-0.156982,0,0,0,0,0,0,0,-1,1553,526,4.63238,0.156991
336,498,5.22644,0.0925903,0,0,0,0,0,0,0,-1,1560,526,5.22648,-0.0926188
343,498,6.22607,-1.67615,0,0,0,0,0,0,0,-1,1567,526,6.22605,1.67617
350,498,6.19373,-1.59906,0,0,0,0,0,0,0,-1,1574,526,6.19367,1.59906
357,498,6.21472,-1.58929,0,0,0,0,0,0,0,-1,1581,526,6.21476,1.58927
364,498,5.73547,-1.2019,0,0,0,0,0,0,0,-1,1588,526,5.73547,1.20192
371,498,3.27087,-4.55334,0,0,0,0,0,0,0,-1,1595,526,3.27089,4.55332
378,498,8.42944,-4.70624,0,0,0,0,0,0,0,-1,1602,526,8.42942,4.70624
385,498,4.7793,-5.15314,0,0,0,0,0,0,0,-1,1609,526,4.77935,5.15311
392,498,9.12439,-8.57953,0,0,0,0,0,0,0,-1,1616,526,9.12443,8.57955
399,498,7.98938,-9.46021,0,0,0,0,0,0,0,-1,1623,526,7.98936,9.4602
406,498,7.58081,-9.26819,0,0,0,0,0,0,0,-1,1630,526,7.58085,9.26817
413,498,7.17236,-9.07611,0,0,0,0,0,0,0,-1,1637,526,7.17234,9.07614
420,498,9.05554,-11.9304,0,0,0,0,0,0,0,-1,1644,526,9.05553,11.9304
427,498,8.74133,-11.6178,-0.00378655,-0.00639934,-0.00639402,0.00143317,-0.0116191,-0.684628,0.00826529,0.0455982,1651,526,8.74133,11.6178
434,498,8.42517,-11.3876,-0.00315686,-0.00505367,-0.00537921,0.00135692,-0.00956744,-0.69814,0.00687538,0.016948,1658,526,8.42516,11.3876
441,498,8.42017,-11.0494,-0.00241273,-0.00398873,-0.00440065,0.00126991,-0.00767138,-0.696805,0.00558588,0.00865737,1665,526,8.42012,11.0494
448,498,8.4364,-10.7048,-0.00158897,-0.00284379,-0.00336947,0.001211,-0.00564376,-0.69335,0.00422444,0.00928202,1672,526,8.43644,10.7048
455,498,8.42517,-10.3689,-0.00084545,-0.00180032,-0.00241086,0.0011348,-0.00378057,-0.687646,0.00297177,0.0134561,1679,526,8.42513,10.3689
462,498,8.4071,-10.0419,-0.000224066,-0.000945961,-0.00158079,0.00103646,-0.00220649,-0.673156,0.00191251,0.0154736,1686,526,8.40709,10.0419
469,498,8.39294,-9.71234,0.000184122,-0.000345293,-0.000946402,0.000902139,-0.00106331,-0.649034,0.00113602,0.0134915,1693,526,8.39294,9.71235
476,498,8.41418,-9.36383,0.000407024,0.000158715,-0.000425143,0.00072577,-0.000160031,-0.643334,0.000545078,0.0100613,1700,526,8.41422,9.36382
483,498,8.40454,-8.99615,0.000551736,0.00050928,-6.79111e-05,0.000601659,0.000459356,-0.633919,0.000363089,0.008632,1707,526,8.40449,8.99618
490,498,8.38232,-8.66406,0.000357124,0.000712767,7.07846e-05,0.000726338,0.000343553,1.38138,0.000419555,0.0110761,1714,526,8.38231,8.66406
497,498,8.39673,-8.30676,-0.000134413,0.000761448,4.6061e-05,0.00076381,-0.000136775,1.51956,0.00056039,0.0120052,1721,526,8.39668,8.30678
504,498,8.40649,-7.93774,-0.000650965,0.000797936,-3.59449e-05,0.000798827,-0.000651856,-1.54601,0.000838984,0.013381,1728,526,8.40647,7.93777
511,498,8.40552,-7.58057,-0.00135829,0.000908505,-0.000193451,0.000924896,-0.00137468,-1.48627,0.0013361,0.0151996,1735,526,8.40551,7.58057
518,498,8.44873,-7.20416,-0.00224232,0.00110616,-0.00037398,0.00114742,-0.00228358,-1.46091,0.00201677,0.0174208,1742,526,8.44876,7.20414
525,498,8.34729,-6.84308,-0.00310814,0.0014134,-0.00047718,0.00146321,-0.00315795,-1.46679,0.00272718,0.0293701,1749,526,8.34723,6.84305
532,498,8.14868,-6.54987,-0.00388212,0.00197058,-0.000374099,0.00199439,-0.00390594,-1.50722,0.00346564,0.0449945,1756,526,8.14862,6.54986
539,498,8.16956,-6.29449,0,0,0,0,0,0,0,-1,1763,526,8.16954,6.29449
546,498,8.38977,-5.34583,0,0,0,0,0,0,0,-1,1770,526,8.38981,5.34579
553,498,5.93958,-1.71448,0,0,0,0,0,0,0,-1,1777,526,5.93956,1.71447
560,498,3.69385,-0.615112,0,0,0,0,0,0,0,-1,1784,526,3.69381,0.615118
567,498,5.12695,-0.581604,0,0,0,0,0,0,0,-1,1791,526,5.12699,0.58159
574,498,3.88,0.0286255,0,0,0,0,0,0,0,-1,1798,526,3.87999,-0.0286535
581,498,10.8722,2.58551,0,0,0,0,0,0,0,-1,1805,526,10.8723,-2.58551
588,498,0,0,0,0,0,0,0,0,0,-1,1812,526,0,0
595,498,0,0,0,0,0,0,0,0,0,-1,1819,526,0,0
602,498,0,0,0,0,0,0,0,0,0,-1,1826,526,0,0
609,498,0,0,0,0,0,0,0,0,0,-1,1833,526,0,0
616,498,0,0,0,0,0,0,0,0,0,-1,1840,526,0,0
623,498,0,0,0,0,0,0,0,0,0,-1,1847,526,0,0
630,498,0,0,0,0,0,0,0,0,0,-1,1854,526,0,0
637,498,0,0,0,0,0,0,0,0,0,-1,1861,526,0,0
644,498,0,0,0,0,0,0,0,0,0,-1,1868,526,0,0
651,498,0,0,0,0,0,0,0,0,0,-1,1875,526,0,0
658,498,0,0,0,0,0,0,0,0,0,-1,1882,526,0,0
665,498,0,0,0,0,0,0,0,0,0,-1,1889,526,0,0
672,498,0,0,0,0,0,0,0,0,0,-1,1896,526,0,0
679,498,0,0,0,0,0,0,0,0,0,-1,1903,526,0,0
686,498,0,0,0,0,0,0,0,0,0,-1,1910,526,0,0
693,498,0,0,0,0,0,0,0,0,0,-1,1917,526,0,0
700,498,0,0,0,0,0,0,0,0,0,-1,1924,526,0,0
707,498,0,0,0,0,0,0,0,0,0,-1,1931,526,0,0
714,498,0,0,0,0,0,0,0,0,0,-1,1938,526,0,0
721,498,0,0,0,0,0,0,0,0,0,-1,1945,526,0,0
728,498,0,0,0,0,0,0,0,0,0,-1,1952,526,0,0
735,498,0,0,0,0,0,0,0,0,0,-1,1959,526,0,0
742,498,0,0,0,0,0,0,0,0,0,-1,1966,526,0,0
749,498,0,0,0,0,0,0,0,0,0,-1,1973,526,0,0
756,498,0,0,0,0,0,0,0,0,0,-1,1980,526,0,0
763,498,0,0,0,0,0,0,0,0,0,-1,1987,526,0,0
770,498,0,0,0,0,0,0,0,0,0,-1,1994,526,0,0
777,498,0,0,0,0,0,0,0,0,0,-1,2001,526,0,0
784,498,0,0,0,0,0,0,0,0,0,-1,2008,526,0,0
791,498,0,0,0,0,0,0,0,0,0,-1,2015,526,0,0
798,498,0,0,0,0,0,0,0,0,0,-1,2022,526,0,0
805,498,0,0,0,0,0,0,0,0,0,-1,2029,526,0,0
812,498,0,0,0,0,0,0,0,0,0,-1,2036,526,0,0
-700,491,0,0,0,0,0,0,0,0,0,-1,524,533,0,0
-693,491,0,0,0,0,0,0,0,0,0,-1,531,533,0,0
-686,491,0,0,0,0,0,0,0,0,0,-1,538,533,0,0
-679,491,0,0,0,0,0,0,0,0,0,-1,545,533,0,0
-672,491,0,0,0,0,0,0,0,0,0,-1,552,533,0,0
-665,491,0,0,0,0,0,0,0,0,0,-1,559,533,0,0
-658,491,0,0,0,0,0,0,0,0,0,-1,566,533,0,0
-651,491,0,0,0,0,0,0,0,0,0,-1,573,533,0,0
-644,491,0,0,0,0,0,0,0,0,0,-1,580,533,0,0
-637,491,0,0,0,0,0,0,0,0,0,-1,587,533,0,0
-630,491,0,0,0,0,0,0,0,0,0,-1,594,533,0,0
-623,491,0,0,0,0,0,0,0,0,0,-1,601,533,0,0
-616,491,0,0,0,0,0,0,0,0,0,-1,608,533,0,0
-609,491,0,0,0,0,0,0,0,0,0,-1,615,533,0,0
-602,491,0,0,0,0,0,0,0,0,0,-1,622,533,0,0
-595,491,0,0,0,0,0,0,0,0,0,-1,629,533,0,0
-588,491,0,0,0,0,0,0,0,0,0,-1,636,533,0,0
-581,491,0,0,0,0,0,0,0,0,0,-1,643,533,0,0
-574,491,0,0,0,0,0,0,0,0,0,-1,650,533,0,0
-567,491,0,0,0,0,0,0,0,0,0,-1,657,533,0,0
-560,491,0,0,0,0,0,0,0,0,0,-1,664,533,0,0
-553,491,0,0,0,0,0,0,0,0,0,-1,671,533,0,0
-546,491,0,0,0,0,0,0,0,0,0,-1,678,533,0,0
-539,491,0,0,0,0,0,0,0,0,0,-1,685,533,0,0
-532,491,0,0,0,0,0,0,0,0,0,-1,692,533,0,0
-525,491,0,0,0,0,0,0,0,0,0,-1,699,533,0,0
-518,491,0,0,0,0,0,0,0,0,0,-1,706,533,0,0
-511,491,0,0,0,0,0,0,0,0,0,-1,713,533,0,0
-504,491,0,0,0,0,0,0,0,0,0,-1,720,533,0,0
-497,491,0,0,0,0,0,0,0,0,0,-1,727,533,0,0
-490,491,0,0,0,0,0,0,0,0,0,-1,734,533,0,0
-483,491,0,0,0,0,0,0,0,0,0,-1,741,533,0,0
-476,491,0,0,0,0,0,0,0,0,0,-1,748,533,0,0
-469,491,-5.85913,4.55011,0,0,0,0,0,0,0,-1,755,533,-5.8591,-4.55009
-462,491,-9.93713,4.90381,0,0,0,0,0,0,0,-1,762,533,-9.93716,-4.9038
-455,491,1.9494,-0.27887,0,0,0,0,0,0,0,-1,769,533,1.94941,0.27885
-448,491,2.68909,-1.8999,0,0,0,0,0,0,0,-1,776,533,2.6891,1.89988
-441,491,3.46069,-3.51855,0,0,0,0,0,0,0,-1,783,533,3.46071,3.51854
-434,491,2.67145,-7.44061,0,0,0,0,0,0,0,-1,790,533,2.67146,7.44061
-427,491,2.27136,-8.34546,0,0,0,0,0,0,0,-1,797,533,2.27136,8.34546
-420,491,-1.60706,-7.22021,0,0,0,0,0,0,0,-1,804,533,-1.60707,7.2202
-413,491,-1.62317,-7.66492,0,0,0,0,0,0,0,-1,811,533,-1.62319,7.66493
-406,491,-1.57446,-7.94775,0,0,0,0,0,0,0,-1,818,533,-1.57444,7.94776
-399,491,-1.55182,-8.38135,-0.00422265,-0.00700732,-0.000534326,-0.00412364,-0.00710633,-0.183215,0.00412043,0.0110286,825,533,-1.55184,8.38134
-392,491,-1.57684,-8.72974,-0.00303327,-0.00581444,-0.000399342,-0.00297706,-0.00587064,-0.139825,0.00338953,0.00986978,832,533,-1.57685,8.72977
-385,491,-1.58527,-9.05072,-0.00199153,-0.00470392,-0.000249322,-0.0019688,-0.00472664,-0.0909047,0.00274157,0.00936999,839,533,-1.5853,9.05071
-378,491,-1.59229,-9.38757,-0.00113029,-0.00377513,-0.000130861,-0.00112383,-0.00378159,-0.0493171,0.00224238,0.0132878,846,533,-1.59231,9.38758
-371,491,-1.5816,-9.73956,-0.000517626,-0.00308085,-1.57325e-05,-0.00051753,-0.00308095,-0.00613746,0.00190503,0.0144963,853,533,-1.58159,9.73957
-364,491,-1.57867,-10.0773,-0.000114562,-0.00263357,0.000144803,-0.000106266,-0.00264187,0.0572327,0.00172691,0.0138053,860,533,-1.57866,10.0773
-357,491,-1.59137,-10.4026,0.0002813,-0.00222071,0.000240068,0.000304127,-0.00224354,0.0947974,0.00160669,0.0119921,867,533,-1.59138,10.4026
-350,491,-1.57947,-10.7286,0.000524048,-0.00213608,0.000329138,0.000564167,-0.0021762,0.121293,0.00167091,0.0140024,874,533,-1.57945,10.7285
-343,491,-1.56805,-11.0474,0.000561207,-0.00247126,0.000454493,0.00062786,-0.00253791,0.145614,0.00193548,0.0213506,881,533,-1.56803,11.0474
-336,491,-1.54663,-11.3533,0.000502777,-0.00290477,0.000560969,0.000592751,-0.00299475,0.159036,0.00222061,0.0222935,888,533,-1.54662,11.3533
-329,491,-1.56427,-11.7137,0.000552761,-0.00333511,0.00066066,0.000661958,-0.00344431,0.163805,0.00254571,0.0242352,895,533,-1.56426,11.7137
-322,491,-1.56879,-12.0397,0.000604254,-0.00384466,0.000819535,0.000750418,-0.00399083,0.176495,0.00294276,0.0231479,902,533,-1.56881,12.0398
-315,491,-1.63818,-12.3129,0.000601524,-0.00483294,0.00118535,0.000848815,-0.00508023,0.205674,0.00370234,0.0228178,909,533,-1.63817,12.3129
-308,491,-1.53137,-12.7822,0,0,0,0,0,0,0,-1,916,533,-1.53138,12.7822
-301,491,-1.41064,-12.5186,0,0,0,0,0,0,0,-1,923,533,-1.41066,12.5185
-294,491,-0.777283,-8.60913,0,0,0,0,0,0,0,-1,930,533,-0.777288,8.6091
-287,491,-0.26123,-8.69055,0,0,0,0,0,0,0,-1,937,533,-0.261204,8.69053
-280,491,0.2948,-5.99219,0,0,0,0,0,0,0,-1,944,533,0.294811,5.99221
-273,491,0.369995,-5.33691,0,0,0,0,0,0,0,-1,951,533,0.369985,5.33693
-266,491,1.1167,-5.0321,0,0,0,0,0,0,0,-1,958,533,1.11668,5.0321
-259,491,12.0862,-16.9615,0,0,0,0,0,0,0,-1,965,533,12.0862,16.9615
-252,491,9.72443,-13.8417,0,0,0,0,0,0,0,-1,972,533,9.72444,13.8418
-245,491,5.27258,-14.3619,0,0,0,0,0,0,0,-1,979,533,5.27255,14.3619
-238,491,3.65381,-11.1472,0,0,0,0,0,0,0,-1,986,533,3.6538,11.1472
-231,491,2.17719,-7.86835,0,0,0,0,0,0,0,-1,993,533,2.17719,7.86832
-224,491,0.554626,-4.61725,0,0,0,0,0,0,0,-1,1000,533,0.554608,4.61727
-217,491,-2.92743,-1.0766,0,0,0,0,0,0,0,-1,1007,533,-2.92743,1.07659
-210,491,-0.92395,0.374512,0,0,0,0,0,0,0,-1,1014,533,-0.923959,-0.374531
-203,491,0.417419,4.77161,0,0,0,0,0,0,0,-1,1021,533,0.417446,-4.77162
-196,491,0,0,0,0,0,0,0,0,0,-1,1028,533,0,0
-189,491,0,0,0,0,0,0,0,0,0,-1,1035,533,0,0
-182,491,0,0,0,0,0,0,0,0,0,-1,1042,533,0,0
-175,491,0,0,0,0,0,0,0,0,0,-1,1049,533,0,0
-168,491,0,0,0,0,0,0,0,0,0,-1,1056,533,0,0
-161,491,0,0,0,0,0,0,0,0,0,-1,1063,533,0,0
-154,491,0,0,0,0,0,0,0,0,0,-1,1070,533,0,0
-147,491,0,0,0,0,0,0,0,0,0,-1,1077,533,0,0
-140,491,0,0,0,0,0,0,0,0,0,-1,1084,533,0,0
-133,491,0,0,0,0,0,0,0,0,0,-1,1091,533,0,0
-126,491,0,0,0,0,0,0,0,0,0,-1,1098,533,0,0
-119,491,0,0,0,0,0,0,0,0,0,-1,1105,533,0,0
-112,491,0,0,0,0,0,0,0,0,0,-1,1112,533,0,0
-105,491,0,0,0,0,0,0,0,0,0,-1,1119,533,0,0
-98,491,0,0,0,0,0,0,0,0,0,-1,1126,533,0,0
-91,491,0,0,0,0,0,0,0,0,0,-1,1133,533,0,0
-84,491,0,0,0,0,0,0,0,0,0,-1,1140,533,0,0
-77,491,0,0,0,0,0,0,0,0,0,-1,1147,533,0,0
-70,491,0,0,0,0,0,0,0,0,0,-1,1154,533,0,0
-63,491,0,0,0,0,0,0,0,0,0,-1,1161,533,0,0
-56,491,0,0,0,0,0,0,0,0,0,-1,1168,533,0,0
-49,491,0,0,0,0,0,0,0,0,0,-1,1175,533,0,0
-42,491,0,0,0,0,0,0,0,0,0,-1,1182,533,0,0
-35,491,0,0,0,0,0,0,0,0,0,-1,1189,533,0,0
-28,491,0,0,0,0,0,0,0,0,0,-1,1196,533,0,0
-21,491,0,0,0,0,0,0,0,0,0,-1,1203,533,0,0
-14,491,0,0,0,0,0,0,0,0,0,-1,1210,533,0,0
-7,491,0,0,0,0,0,0,0,0,0,-1,1217,533,0,0
0,491,0,0,0,0,0,0,0,0,0,-1,1224,533,0,0
7,491,0,0,0,0,0,0,0,0,0,-1,1231,533,0,0
14,491,0,0,0,0,0,0,0,0,0,-1,1238,533,0,0
21,491,0,0,0,0,0,0,0,0,0,-1,1245,533,0,0
28,491,0,0,0,0,0,0,0,0,0,-1,1252,533,0,0
35,491,0,0,0,0,0,0,0,0,0,-1,1259,533,0,0
42,491,0,0,0,0,0,0,0,0,0,-1,1266,533,0,0
49,491,0,0,0,0,0,0,0,0,0,-1,1273,533,0,0
56,491,0,0,0,0,0,0,0,0,0,-1,1280,533,0,0
63,491,0,0,0,0,0,0,0,0,0,-1,1287,533,0,0
70,491,0,0,0,0,0,0,0,0,0,-1,1294,533,0,0
77,491,0,0,0,0,0,0,0,0,0,-1,1301,533,0,0
84,491,0,0,0,0,0,0,0,0,0,-1,1308,533,0,0
91,491,0,0,0,0,0,0,0,0,0,-1,1315,533,0,0
98,491,0,0,0,0,0,0,0,0,0,-1,1322,533,0,0
105,491,0,0,0,0,0,0,0,0,0,-1,1329,533,0,0
112,491,0,0,0,0,0,0,0,0,0,-1,1336,533,0,0
119,491,0,0,0,0,0,0,0,0,0,-1,1343,533,0,0
126,491,0,0,0,0,0,0,0,0,0,-1,1350,533,0,0
133,491,0,0,0,0,0,0,0,0,0,-1,1357,533,0,0
140,491,0,0,0,0,0,0,0,0,0,-1,1364,533,0,0
147,491,0,0,0,0,0,0,0,0,0,-1,1371,533,0,0
154,491,0,0,0,0,0,0,0,0,0,-1,1378,533,0,0
161,491,0,0,0,0,0,0,0,0,0,-1,1385,533,0,0
168,491,0,0,0,0,0,0,0,0,0,-1,1392,533,0,0
175,491,0,0,0,0,0,0,0,0,0,-1,1399,533,0,0
182,491,0,0,0,0,0,0,0,0,0,-1,1406,533,0,0
189,491,0,0,0,0,0,0,0,0,0,-1,1413,533,0,0
196,491,0,0,0,0,0,0,0,0,0,-1,1420,533,0,0
203,491,0,0,0,0,0,0,0,0,0,-1,1427,533,0,0
210,491,0,0,0,0,0,0,0,0,0,-1,1434,533,0,0
217,491,0,0,0,0,0,0,0,0,0,-1,1441,533,0,0
224,491,0,0,0,0,0,0,0,0,0,-1,1448,533,0,0
231,491,0,0,0,0,0,0,0,0,0,-1,1455,533,0,0
238,491,0,0,0,0,0,0,0,0,0,-1,1462,533,0,0
245,491,0,0,0,0,0,0,0,0,0,-1,1469,533,0,0
252,491,0,0,0,0,0,0,0,0,0,-1,1476,533,0,0
259,491,0,0,0,0,0,0,0,0,0,-1,1483,533,0,0
266,491,0,0,0,0,0,0,0,0,0,-1,1490,533,0,0
273,491,0,0,0,0,0,0,0,0,0,-1,1497,533,0,0
280,491,0,0,0,0,0,0,0,0,0,-1,1504,533,0,0
287,491,0,0,0,0,0,0,0,0,0,-1,1511,533,0,0
294,491,0,0,0,0,0,0,0,0,0,-1,1518,533,0,0
301,491,0,0,0,0,0,0,0,0,0,-1,1525,533,0,0
308,491,0,0,0,0,0,0,0,0,0,-1,1532,533,0,0
315,491,0,0,0,0,0,0,0,0,0,-1,1539,533,0,0
322,491,4.26331,-0.734314,0,0,0,0,0,0,0,-1,1546,533,4.26326,0.734324
329,491,4.25354,-0.783752,0,0,0,0,0,0,0,-1,1553,533,4.25359,0.783734
336,491,4.81604,-0.722107,0,0,0,0,0,0,0,-1,1560,533,4.81605,0.722115
343,491,6.14478,-1.44281,0,0,0,0,0,0,0,-1,1567,533,6.14474,1.44281
350,491,6.36353,-1.30792,0,0,0,0,0,0,0,-1,1574,533,6.36352,1.3079
357,491,6.69482,-1.06018,0,0,0,0,0,0,0,-1,1581,533,6.69489,1.06018
364,491,8.01086,-1.69604,0,0,0,0,0,0,0,-1,1588,533,8.01087,1.69607
371,491,8.2135,-0.539307,0,0,0,0,0,0,0,-1,1595,533,8.21348,0.53929
378,491,13.3589,2.17267,0,0,0,0,0,0,0,-1,1602,533,13.3589,-2.17264
385,491,8.08228,-4.95471,0,0,0,0,0,0,0,-1,1609,533,8.08227,4.95474
392,491,2.88721,-4.30988,0,0,0,0,0,0,0,-1,1616,533,2.88716,4.30986
399,491,8.95862,-8.55518,0,0,0,0,0,0,0,-1,1623,533,8.95864,8.55516
406,491,8.16541,-9.00806,0,0,0,0,0,0,0,-1,1630,533,8.16535,9.00807
413,491,5.31848,-3.7124,0,0,0,0,0,0,0,-1,1637,533,5.31849,3.7124
420,491,4.86389,-3.95892,0,0,0,0,0,0,0,-1,1644,533,4.86387,3.95893
427,491,9.31128,-11.2758,0,0,0,0,0,0,0,-1,1651,533,9.31131,11.2758
434,491,8.93176,-10.9539,-0.0048318,-0.0069876,-0.00722933,0.00139954,-0.0132189,-0.711393,0.00931426,0.0465047,1658,533,8.93172,10.9539
441,491,8.79236,-10.9727,-0.0035797,-0.00534437,-0.00580117,0.00140585,-0.0103299,-0.709928,0.00739988,0.0205197,1665,533,8.79233,10.9727
448,491,8.77673,-10.7173,-0.00233464,-0.00362536,-0.00438363,0.00145088,-0.00741088,-0.712313,0.00548851,0.0116852,1672,533,8.77672,10.7174
455,491,8.77466,-10.3728,-0.00122936,-0.00219102,-0.00310277,0.00142962,-0.00485,-0.708526,0.00380058,0.0118927,1679,533,8.77464,10.3728
462,491,8.7583,-10.0566,-0.000320552,-0.00109291,-0.00200683,0.00133692,-0.00275038,-0.690344,0.00240638,0.0146938,1686,533,8.7583,10.0566
469,491,8.74194,-9.72156,0.000288705,-0.000364776,-0.00118634,0.00119248,-0.00126855,-0.65102,0.0014211,0.0141723,1693,533,8.74198,9.72158
476,491,8.77197,-9.36194,0.000679494,0.00020655,-0.000534077,0.00102711,-0.000141064,-0.576987,0.000736279,0.0103884,1700,533,8.77196,9.36192
483,491,8.76526,-8.99927,0.000969589,0.000601296,-4.15859e-05,0.000974227,0.000596659,-0.111052,0.000567191,0.0117084,1707,533,8.76528,8.99929
490,491,8.74365,-8.67694,0.000882503,0.000885712,0.000202271,0.00108638,0.00068183,0.789364,0.000633997,0.0107262,1714,533,8.74368,8.67693
497,491,8.7356,-8.3244,0.000444751,0.000867398,0.000217432,0.000959281,0.000352868,1.17097,0.000560252,0.0116602,1721,533,8.73565,8.32441
504,491,8.75586,-7.93896,-3.2602e-05,0.000873767,0.00018751,0.000911028,-6.98624e-05,1.37464,0.000631928,0.013138,1728,533,8.7559,7.93895
511,491,8.75256,-7.55212,-0.000690591,0.000911153,7.51257e-05,0.000914669,-0.000694107,1.52403,0.000931732,0.0127406,1735,533,8.75255,7.55215
518,491,8.73486,-7.20203,-0.00150966,0.00100825,-6.19578e-05,0.00100978,-0.00151119,-1.54621,0.00146504,0.00979416,1742,533,8.73482,7.20205
525,491,8.74707,-6.83514,-0.00230013,0.00122602,-0.000123247,0.00123032,-0.00230444,-1.5359,0.00207196,0.00994235,1749,533,8.74712,6.83514
532,491,8.76587,-6.48975,-0.00299708,0.00172402,2.95535e-06,0.00172402,-0.00299709,1.57017,0.00275857,0.0214996,1756,533,8.76592,6.48976
539,491,8.62878,-6.22717,-0.00349908,0.00268072,0.000431729,0.00271073,-0.0035291,1.50138,0.00361288,0.0341296,1763,533,8.62873,6.22716
546,491,8.55798,-5.57135,-0.00370454,0.00384437,0.00115849,0.00401815,-0.00387833,1.4219,0.00455927,0.0438795,1770,533,8.55796,5.57137
553,491,8.84924,-4.78534,0,0,0,0,0,0,0,-1,1777,533,8.84928,4.78536
560,491,6.28455,-1.43585,0,0,0,0,0,0,0,-1,1784,533,6.28458,1.43586
567,491,5.67651,-1.3562,0,0,0,0,0,0,0,-1,1791,533,5.67649,1.3562
574,491,8.0719,1.58325,0,0,0,0,0,0,0,-1,1798,533,8.07195,-1.58326
581,491,9.44812,1.60931,0,0,0,0,0,0,0,-1,1805,533,9.44808,-1.60933
588,491,11.0497,1.54962,0,0,0,0,0,0,0,-1,1812,533,11.0496,-1.54963
595,491,0,0,0,0,0,0,0,0,0,-1,1819,533,0,0
602,491,0,0,0,0,0,0,0,0,0,-1,1826,533,0,0
609,491,0,0,0,0,0,0,0,0,0,-1,1833,533,0,0
616,491,0,0,0,0,0,0,0,0,0,-1,1840,533,0,0
623,491,0,0,0,0,0,0,0,0,0,-1,1847,533,0,0
630,491,0,0,0,0,0,0,0,0,0,-1,1854,533,0,0
637,491,0,0,0,0,0,0,0,0,0,-1,1861,533,0,0
644,491,0,0,0,0,0,0,0,0,0,-1,1868,533,0,0
651,491,0,0,0,0,0,0,0,0,0,-1,1875,533,0,0
658,491,0,0,0,0,0,0,0,0,0,-1,1882,533,0,0
665,491,0,0,0,0,0,0,0,0,0,-1,1889,533,0,0
672,491,0,0,0,0,0,0,0,0,0,-1,1896,533,0,0
679,491,0,0,0,0,0,0,0,0,0,-1,1903,533,0,0
686,491,0,0,0,0,0,0,0,0,0,-1,1910,533,0,0
693,491,0,0,0,0,0,0,0,0,0,-1,1917,533,0,0
700,491,0,0,0,0,0,0,0,0,0,-1,1924,533,0,0
707,491,0,0,0,0,0,0,0,0,0,-1,1931,533,0,0
714,491,0,0,0,0,0,0,0,0,0,-1,1938,533,0,0
721,491,0,0,0,0,0,0,0,0,0,-1,1945,533,0,0
728,491,0,0,0,0,0,0,0,0,0,-1,1952,533,0,0
735,491,0,0,0,0,0,0,0,0,0,-1,1959,533,0,0
742,491,0,0,0,0,0,0,0,0,0,-1,1966,533,0,0
749,491,0,0,0,0,0,0,0,0,0,-1,1973,533,0,0
756,491,0,0,0,0,0,0,0,0,0,-1,1980,533,0,0
763,491,0,0,0,0,0,0,0,0,0,-1,1987,533,0,0
770,491,0,0,0,0,0,0,0,0,0,-1,1994,533,0,0
777,491,0,0,0,0,0,0,0,0,0,-1,2001,533,0,0
784,491,0,0,0,0,0,0,0,0,0,-1,2008,533,0,0
791,491,0,0,0,0,0,0,0,0,0,-1,2015,533,0,0
798,491,0,0,0,0,0,0,0,0,0,-1,2022,533,0,0
805,491,0,0,0,0,0,0,0,0,0,-1,2029,533,0,0
812,491,0,0,0,0,0,0,0,0,0,-1,2036,533,0,0
-700,484,0,0,0,0,0,0,0,0,0,-1,524,540,0,0
-693,484,0,0,0,0,0,0,0,0,0,-1,531,540,0,0
-686,484,0,0,0,0,0,0,0,0,0,-1,538,540,0,0
-679,484,0,0,0,0,0,0,0,0,0,-1,545,540,0,0
-672,484,0,0,0,0,0,0,0,0,0,-1,552,540,0,0
-665,484,0,0,0,0,0,0,0,0,0,-1,559,540,0,0
-658,484,0,0,0,0,0,0,0,0,0,-1,566,540,0,0
-651,484,0,0,0,0,0,0,0,0,0,-1,573,540,0,0
-644,484,0,0,0,0,0,0,0,0,0,-1,580,540,0,0
-637,484,0,0,0,0,0,0,0,0,0,-1,587,540,0,0
-630,484,0,0,0,0,0,0,0,0,0,-1,594,540,0,0
-623,484,0,0,0,0,0,0,0,0,0,-1,601,540,0,0
-616,484,0,0,0,0,0,0,0,0,0,-1,608,540,0,0
-609,484,0,0,0,0,0,0,0,0,0,-1,615,540,0,0
-602,484,0,0,0,0,0,0,0,0,0,-1,622,540,0,0
-595,484,0,0,0,0,0,0,0,0,0,-1,629,540,0,0
-588,484,0,0,0,0,0,0,0,0,0,-1,636,540,0,0
-581,484,0,0,0,0,0,0,0,0,0,-1,643,540,0,0
-574,484,0,0,0,0,0,0,0,0,0,-1,650,540,0,0
-567,484,0,0,0,0,0,0,0,0,0,-1,657,540,0,0
-560,484,0,0,0,0,0,0,0,0,0,-1,664,540,0,0
-553,484,0,0,0,0,0,0,0,0,0,-1,671,540,0,0
-546,484,0,0,0,0,0,0,0,0,0,-1,678,540,0,0
-539,484,0,0,0,0,0,0,0,0,0,-1,685,540,0,0
-532,484,0,0,0,0,0,0,0,0,0,-1,692,540,0,0
-525,484,0,0,0,0,0,0,0,0,0,-1,699,540,0,0
-518,484,0,0,0,0,0,0,0,0,0,-1,706,540,0,0
-511,484,0,0,0,0,0,0,0,0,0,-1,713,540,0,0
-504,484,0,0,0,0,0,0,0,0,0,-1,720,540,0,0
-497,484,0,0,0,0,0,0,0,0,0,-1,727,540,0,0
-490,484,0,0,0,0,0,0,0,0,0,-1,734,540,0,0
-483,484,0,0,0,0,0,0,0,0,0,-1,741,540,0,0
-476,484,-8.46552,1.44702,0,0,0,0,0,0,0,-1,748,540,-8.46554,-1.44702
-469,484,-7.82343,1.70355,0,0,0,0,0,0,0,-1,755,540,-7.82345,-1.70355
-462,484,-8.36987,3.08612,0,0,0,0,0,0,0,-1,762,540,-8.36988,-3.0861
-455,484,-6.77197,2.07092,0,0,0,0,0,0,0,-1,769,540,-6.77197,-2.07094
-448,484,3.54895,-1.40106,0,0,0,0,0,0,0,-1,776,540,3.54897,1.40106
-441,484,4.28906,-3.05884,0,0,0,0,0,0,0,-1,783,540,4.28905,3.05883
-434,484,-2.17548,-5.07245,0,0,0,0,0,0,0,-1,790,540,-2.17546,5.07243
-427,484,-1.93085,-6.62146,0,0,0,0,0,0,0,-1,797,540,-1.93087,6.62146
-420,484,-1.86902,-7.14368,-0.00704754,-0.0067439,-0.000795702,-0.00608566,-0.00770577,-0.879665,0.00469134,0.047483,804,540,-1.86899,7.14367
-413,484,-1.83459,-7.5788,-0.0054065,-0.00601233,-0.000928744,-0.00473252,-0.00668631,-0.627758,0.00396991,0.0276692,811,540,-1.83462,7.5788
-406,484,-1.84149,-8.0116,-0.00417527,-0.0052953,-0.000791618,-0.00376561,-0.00570496,-0.477552,0.00334954,0.0163073,818,540,-1.84147,8.01161
-399,484,-1.90033,-8.37659,-0.00315802,-0.00453106,-0.000610651,-0.00292573,-0.00476335,-0.363488,0.00277394,0.0156801,825,540,-1.90035,8.37658
-392,484,-1.90961,-8.71667,-0.00226451,-0.00404554,-0.000343622,-0.00220051,-0.00410954,-0.184132,0.00237463,0.0181443,832,540,-1.90961,8.7167
-385,484,-1.91852,-9.05133,-0.00149735,-0.00357879,-5.79764e-05,-0.00149574,-0.0035804,-0.0278253,0.00207644,0.0129178,839,540,-1.91851,9.0513
-378,484,-1.9295,-9.38977,-0.000881201,-0.00319684,0.000203805,-0.000863401,-0.00321464,0.0871199,0.00192109,0.0132772,846,540,-1.92949,9.38975
-371,484,-1.9209,-9.72833,-0.000484848,-0.0029833,0.000470277,-0.000399261,-0.00306889,0.180023,0.00192668,0.0148345,853,540,-1.92089,9.72836
-364,484,-1.91919,-10.0577,-0.000259262,-0.00294905,0.000769746,-5.45591e-05,-0.00315375,0.259919,0.00208455,0.0115564,860,540,-1.9192,10.0577
-357,484,-1.92859,-10.3904,-4.31646e-05,-0.00299446,0.000987328,0.000256675,-0.0032943,0.294836,0.00228656,0.012678,867,540,-1.92858,10.3904
-350,484,-1.9129,-10.6939,2.60133e-05,-0.00325022,0.00119215,0.000413889,-0.0036381,0.314556,0.00257448,0.0146127,874,540,-1.91291,10.6939
-343,484,-1.92383,-11.0258,-8.04261e-05,-0.00382645,0.00138931,0.000378591,-0.00428546,0.319101,0.00299117,0.020882,881,540,-1.92382,11.0258
-336,484,-1.88531,-11.3389,-0.000245593,-0.0044144,0.00154973,0.000267385,-0.00492738,0.31966,0.00337758,0.0237301,888,540,-1.88534,11.3389
-329,484,-1.90759,-11.6647,-0.000276745,-0.00495612,0.00168861,0.000268967,-0.00550183,0.312578,0.00376075,0.0347974,895,540,-1.90759,11.6647
-322,484,-1.89105,-12.0374,0,0,0,0,0,0,0,-1,902,540,-1.89103,12.0374
-315,484,-1.73218,-12.4322,0,0,0,0,0,0,0,-1,909,540,-1.73218,12.4322
-308,484,-1.32623,-8.9317,0,0,0,0,0,0,0,-1,916,540,-1.32626,8.93173
-301,484,-1.33453,-6.52667,0,0,0,0,0,0,0,-1,923,540,-1.33454,6.5267
-294,484,-1.61224,-8.17059,0,0,0,0,0,0,0,-1,930,540,-1.61227,8.17058
-287,484,-0.715759,-5.62103,0,0,0,0,0,0,0,-1,937,540,-0.715772,5.62105
-280,484,2.66742,-1.6795,0,0,0,0,0,0,0,-1,944,540,2.6674,1.67949
-273,484,2.53125,-2.22296,0,0,0,0,0,0,0,-1,951,540,2.53128,2.22295
-266,484,2.6778,-2.72058,0,0,0,0,0,0,0,-1,958,540,2.6778,2.72061
-259,484,2.41718,-2.59894,0,0,0,0,0,0,0,-1,965,540,2.41717,2.59892
-252,484,10.6069,-11.696,0,0,0,0,0,0,0,-1,972,540,10.6069,11.696
-245,484,6.34106,-11.6107,0,0,0,0,0,0,0,-1,979,540,6.34104,11.6107
-238,484,4.89319,-8.54059,0,0,0,0,0,0,0,-1,986,540,4.89321,8.5406
-231,484,3.47675,-5.22064,0,0,0,0,0,0,0,-1,993,540,3.47676,5.22067
-224,484,1.71344,-2.03473,0,0,0,0,0,0,0,-1,1000,540,1.71342,2.03472
-217,484,-0.745056,1.17358,0,0,0,0,0,0,0,-1,1007,540,-0.745043,-1.17359
-210,484,0,0,0,0,0,0,0,0,0,-1,1014,540,0,0
-203,484,0,0,0,0,0,0,0,0,0,-1,1021,540,0,0
-196,484,0,0,0,0,0,0,0,0,0,-1,1028,540,0,0
-189,484,0,0,0,0,0,0,0,0,0,-1,1035,540,0,0
-182,484,0,0,0,0,0,0,0,0,0,-1,1042,540,0,0
-175,484,0,0,0,0,0,0,0,0,0,-1,1049,540,0,0
-168,484,0,0,0,0,0,0,0,0,0,-1,1056,540,0,0
-161,484,0,0,0,0,0,0,0,0,0,-1,1063,540,0,0
-154,484,0,0,0,0,0,0,0,0,0,-1,1070,540,0,0
-147,484,0,0,0,0,0,0,0,0,0,-1,1077,540,0,0
-140,484,0,0,0,0,0,0,0,0,0,-1,1084,540,0,0
-133,484,0,0,0,0,0,0,0,0,0,-1,1091,540,0,0
-126,484,0,0,0,0,0,0,0,0,0,-1,1098,540,0,0
-119,484,0,0,0,0,0,0,0,0,0,-1,1105,540,0,0
-112,484,0,0,0,0,0,0,0,0,0,-1,1112,540,0,0
-105,484,0,0,0,0,0,0,0,0,0,-1,1119,540,0,0
-98,484,0,0,0,0,0,0,0,0,0,-1,1126,540,0,0
-91,484,0,0,0,0,0,0,0,0,0,-1,1133,540,0,0
-84,484,0,0,0,0,0,0,0,0,0,-1,1140,540,0,0
-77,484,0,0,0,0,0,0,0,0,0,-1,1147,540,0,0
-70,484,0,0,0,0,0,0,0,0,0,-1,1154,540,0,0
-63,484,0,0,0,0,0,0,0,0,0,-1,1161,540,0,0
-56,484,0,0,0,0,0,0,0,0,0,-1,1168,540,0,0
-49,484,0,0,0,0,0,0,0,0,0,-1,1175,540,0,0
-42,484,0,0,0,0,0,0,0,0,0,-1,1182,540,0,0
-35,484,0,0,0,0,0,0,0,0,0,-1,1189,540,0,0
-28,484,0,0,0,0,0,0,0,0,0,-1,1196,540,0,0
-21,484,0,0,0,0,0,0,0,0,0,-1,1203,540,0,0
-14,484,0,0,0,0,0,0,0,0,0,-1,1210,540,0,0
-7,484,0,0,0,0,0,0,0,0,0,-1,1217,540,0,0
0,484,0,0,0,0,0,0,0,0,0,-1,1224,540,0,0
7,484,0,0,0,0,0,0,0,0,0,-1,1231,540,0,0
14,484,0,0,0,0,0,0,0,0,0,-1,1238,540,0,0
21,484,0,0,0,0,0,0,0,0,0,-1,1245,540,0,0
28,484,0,0,0,0,0,0,0,0,0,-1,1252,540,0,0
35,484,0,0,0,0,0,0,0,0,0,-1,1259,540,0,0
42,484,0,0,0,0,0,0,0,0,0,-1,1266,540,0,0
49,484,0,0,0,0,0,0,0,0,0,-1,1273,540,0,0
56,484,0,0,0,0,0,0,0,0,0,-1,1280,540,0,0
63,484,0,0,0,0,0,0,0,0,0,-1,1287,540,0,0
70,484,0,0,0,0,0,0,0,0,0,-1,1294,540,0,0
77,484,0,0,0,0,0,0,0,0,0,-1,1301,540,0,0
84,484,0,0,0,0,0,0,0,0,0,-1,1308,540,0,0
91,484,0,0,0,0,0,0,0,0,0,-1,1315,540,0,0
98,484,0,0,0,0,0,0,0,0,0,-1,1322,540,0,0
105,484,0,0,0,0,0,0,0,0,0,-1,1329,540,0,0
112,484,0,0,0,0,0,0,0,0,0,-1,1336,540,0,0
119,484,0,0,0,0,0,0,0,0,0,-1,1343,540,0,0
126,484,0,0,0,0,0,0,0,0,0,-1,1350,540,0,0
133,484,0,0,0,0,0,0,0,0,0,-1,1357,540,0,0
140,484,0,0,0,0,0,0,0,0,0,-1,1364,540,0,0
147,484,0,0,0,0,0,0,0,0,0,-1,1371,540,0,0
154,484,0,0,0,0,0,0,0,0,0,-1,1378,540,0,0
161,484,0,0,0,0,0,0,0,0,0,-1,1385,540,0,0
168,484,0,0,0,0,0,0,0,0,0,-1,1392,540,0,0
175,484,0,0,0,0,0,0,0,0,0,-1,1399,540,0,0
182,484,0,0,0,0,0,0,0,0,0,-1,1406,540,0,0
189,484,0,0,0,0,0,0,0,0,0,-1,1413,540,0,0
196,484,0,0,0,0,0,0,0,0,0,-1,1420,540,0,0
203,484,0,0,0,0,0,0,0,0,0,-1,1427,540,0,0
210,484,0,0,0,0,0,0,0,0,0,-1,1434,540,0,0
217,484,0,0,0,0,0,0,0,0,0,-1,1441,540,0,0
224,484,0,0,0,0,0,0,0,0,0,-1,1448,540,0,0
231,484,0,0,0,0,0,0,0,0,0,-1,1455,540,0,0
238,484,0,0,0,0,0,0,0,0,0,-1,1462,540,0,0
245,484,0,0,0,0,0,0,0,0,0,-1,1469,540,0,0
252,484,0,0,0,0,0,0,0,0,0,-1,1476,540,0,0
259,484,0,0,0,0,0,0,0,0,0,-1,1483,540,0,0
266,484,0,0,0,0,0,0,0,0,0,-1,1490,540,0,0
273,484,0,0,0,0,0,0,0,0,0,-1,1497,540,0,0
280,484,0,0,0,0,0,0,0,0,0,-1,1504,540,0,0
287,484,0,0,0,0,0,0,0,0,0,-1,1511,540,0,0
294,484,0,0,0,0,0,0,0,0,0,-1,1518,540,0,0
301,484,0,0,0,0,0,0,0,0,0,-1,1525,540,0,0
308,484,0,0,0,0,0,0,0,0,0,-1,1532,540,0,0
315,484,0,0,0,0,0,0,0,0,0,-1,1539,540,0,0
322,484,0,0,0,0,0,0,0,0,0,-1,1546,540,0,0
329,484,0,0,0,0,0,0,0,0,0,-1,1553,540,0,0
336,484,4.38708,-1.64136,0,0,0,0,0,0,0,-1,1560,540,4.38704,1.64138
343,484,7.57996,-1.05457,0,0,0,0,0,0,0,-1,1567,540,7.57995,1.05454
350,484,8.10425,-1.18878,0,0,0,0,0,0,0,-1,1574,540,8.1043,1.18877
357,484,7.74902,-3.80286,0,0,0,0,0,0,0,-1,1581,540,7.74901,3.80287
364,484,6.31262,-3.87213,0,0,0,0,0,0,0,-1,1588,540,6.31263,3.87215
371,484,7.21008,0.973511,0,0,0,0,0,0,0,-1,1595,540,7.21014,-0.973541
378,484,11.0563,1.5014,0,0,0,0,0,0,0,-1,1602,540,11.0563,-1.5014
385,484,14.3469,2.5545,0,0,0,0,0,0,0,-1,1609,540,14.3469,-2.55453
392,484,7.39453,-4.95026,0,0,0,0,0,0,0,-1,1616,540,7.39448,4.95023
399,484,7.14417,-2.5639,0,0,0,0,0,0,0,-1,1623,540,7.14417,2.56391
406,484,7.88953,-2.47321,0,0,0,0,0,0,0,-1,1630,540,7.88954,2.47323
413,484,4.4895,-1.08673,0,0,0,0,0,0,0,-1,1637,540,4.48952,1.08674
420,484,4.50012,-2.11255,0,0,0,0,0,0,0,-1,1644,540,4.50012,2.11256
427,484,5.28601,-3.54053,0,0,0,0,0,0,0,-1,1651,540,5.28599,3.54051
434,484,9.526,-10.5656,0,0,0,0,0,0,0,-1,1658,540,9.52599,10.5656
441,484,9.19165,-10.8472,0,0,0,0,0,0,0,-1,1665,540,9.19165,10.8473
448,484,9.15918,-10.5544,-0.00304848,-0.00444592,-0.00557558,0.00187198,-0.00936639,-0.723064,0.00695277,0.0429511,1672,540,9.15914,10.5545
455,484,9.10413,-10.3893,-0.00150684,-0.00248062,-0.00382001,0.00185718,-0.00584464,-0.722011,0.00464105,0.0209106,1679,540,9.10414,10.3893
462,484,9.12085,-10.0397,-0.000289406,-0.0010757,-0.00235937,0.00170935,-0.00307445,-0.702841,0.00279916,0.014135,1686,540,9.12086,10.0397
469,484,9.13867,-9.69537,0.000502828,-0.000183023,-0.00129787,0.00150232,-0.00118251,-0.656239,0.00155375,0.0155885,1693,540,9.13873,9.69536
476,484,9.14368,-9.33899,0.00104393,0.000475549,-0.000479336,0.00131699,0.00020249,-0.517812,0.000818885,0.0156431,1700,540,9.14366,9.33899
483,484,9.14014,-9.005,0.00145568,0.000911996,0.000162022,0.0015003,0.000867374,0.26874,0.000869719,0.012369,1707,540,9.14011,9.005
490,484,9.10449,-8.67218,0.00146009,0.00127386,0.000505227,0.00188071,0.000853239,0.694271,0.00108738,0.0122357,1714,540,9.10452,8.67216
497,484,9.08704,-8.30908,0.00106169,0.001167,0.000535605,0.00165253,0.000576158,0.834396,0.000968551,0.0138722,1721,540,9.08707,8.3091
504,484,9.09448,-7.93237,0.000602437,0.00111502,0.000519561,0.00143806,0.000279394,1.01453,0.000880481,0.0155327,1728,540,9.09453,7.93235
511,484,9.11218,-7.56921,-1.28348e-05,0.00104765,0.000413837,0.00119003,-0.000155213,1.23944,0.000849826,0.0175191,1735,540,9.11217,7.56923
518,484,9.11292,-7.21301,-0.000758972,0.00102231,0.000281012,0.00106559,-0.000802253,1.41798,0.00108197,0.0147509,1742,540,9.11297,7.21303
525,484,9.09863,-6.84271,-0.00146822,0.00112007,0.000208009,0.00113668,-0.00148483,1.49111,0.00151798,0.0130076,1749,540,9.09866,6.84269
532,484,9.12427,-6.46106,-0.00207937,0.00147891,0.000296942,0.00150352,-0.00210398,1.48811,0.00209238,0.0150861,1756,540,9.12421,6.46107
539,484,9.08594,-6.09235,-0.0024996,0.00209968,0.000621894,0.00218229,-0.0025822,1.43874,0.00275401,0.0278465,1763,540,9.08597,6.09232
546,484,8.87805,-5.81427,-0.00269937,0.00301338,0.00122812,0.00326621,-0.0029522,1.36777,0.00359173,0.030073,1770,540,8.878,5.81426
553,484,9.01819,-5.1712,-0.0026949,0.0042342,0.00201432,0.00477722,-0.00323792,1.30748,0.0046559,0.043969,1777,540,9.01824,5.17123
560,484,9.20032,-4.52124,0,0,0,0,0,0,0,-1,1784,540,9.20032,4.52126
567,484,7.78223,-1.38312,0,0,0,0,0,0,0,-1,1791,540,7.78224,1.38311
574,484,5.74463,1.50922,0,0,0,0,0,0,0,-1,1798,540,5.74463,-1.50924
581,484,10.34,2.9491,0,0,0,0,0,0,0,-1,1805,540,10.34,-2.94912
588,484,10.6669,2.88568,0,0,0,0,0,0,0,-1,1812,540,10.6669,-2.88567
595,484,10.7233,1.04767,0,0,0,0,0,0,0,-1,1819,540,10.7233,-1.04766
602,484,0,0,0,0,0,0,0,0,0,-1,1826,540,0,0
609,484,0,0,0,0,0,0,0,0,0,-1,1833,540,0,0
616,484,0,0,0,0,0,0,0,0,0,-1,1840,540,0,0
623,484,0,0,0,0,0,0,0,0,0,-1,1847,540,0,0
630,484,0,0,0,0,0,0,0,0,0,-1,1854,540,0,0
637,484,0,0,0,0,0,0,0,0,0,-1,1861,540,0,0
644,484,0,0,0,0,0,0,0,0,0,-1,1868,540,0,0
651,484,0,0,0,0,0,0,0,0,0,-1,1875,540,0,0
658,484,0,0,0,0,0,0,0,0,0,-1,1882,540,0,0
665,484,0,0,0,0,0,0,0,0,0,-1,1889,540,0,0
672,484,0,0,0,0,0,0,0,0,0,-1,1896,540,0,0
679,484,0,0,0,0,0,0,0,0,0,-1,1903,540,0,0
686,484,0,0,0,0,0,0,0,0,0,-1,1910,540,0,0
693,484,0,0,0,0,0,0,0,0,0,-1,1917,540,0,0
700,484,0,0,0,0,0,0,0,0,0,-1,1924,540,0,0
707,484,0,0,0,0,0,0,0,0,0,-1,1931,540,0,0
714,484,0,0,0,0,0,0,0,0,0,-1,1938,540,0,0
721,484,0,0,0,0,0,0,0,0,0,-1,1945,540,0,0
728,484,0,0,0,0,0,0,0,0,0,-1,1952,540,0,0
735,484,0,0,0,0,0,0,0,0,0,-1,1959,540,0,0
742,484,0,0,0,0,0,0,0,0,0,-1,1966,540,0,0
749,484,0,0,0,0,0,0,0,0,0,-1,1973,540,0,0
756,484,0,0,0,0,0,0,0,0,0,-1,1980,540,0,0
763,484,0,0,0,0,0,0,0,0,0,-1,1987,540,0,0
770,484,0,0,0,0,0,0,0,0,0,-1,1994,540,0,0
777,484,0,0,0,0,0,0,0,0,0,-1,2001,540,0,0
784,484,0,0,0,0,0,0,0,0,0,-1,2008,540,0,0
791,484,0,0,0,0,0,0,0,0,0,-1,2015,540,0,0
798,484,0,0,0,0,0,0,0,0,0,-1,2022,540,0,0
805,484,0,0,0,0,0,0,0,0,0,-1,2029,540,0,0
812,484,0,0,0,0,0,0,0,0,0,-1,2036,540,0,0
-700,477,0,0,0,0,0,0,0,0,0,-1,524,547,0,0
-693,477,0,0,0,0,0,0,0,0,0,-1,531,547,0,0
-686,477,0,0,0,0,0,0,0,0,0,-1,538,547,0,0
-679,477,0,0,0,0,0,0,0,0,0,-1,545,547,0,0
-672,477,0,0,0,0,0,0,0,0,0,-1,552,547,0,0
-665,477,0,0,0,0,0,0,0,0,0,-1,559,547,0,0
-658,477,0,0,0,0,0,0,0,0,0,-1,566,547,0,0
-651,477,0,0,0,0,0,0,0,0,0,-1,573,547,0,0
-644,477,0,0,0,0,0,0,0,0,0,-1,580,547,0,0
-637,477,0,0,0,0,0,0,0,0,0,-1,587,547,0,0
-630,477,0,0,0,0,0,0,0,0,0,-1,594,547,0,0
-623,477,0,0,0,0,0,0,0,0,0,-1,601,547,0,0
-616,477,0,0,0,0,0,0,0,0,0,-1,608,547,0,0
-609,477,0,0,0,0,0,0,0,0,0,-1,615,547,0,0
-602,477,0,0,0,0,0,0,0,0,0,-1,622,547,0,0
-595,477,0,0,0,0,0,0,0,0,0,-1,629,547,0,0
-588,477,0,0,0,0,0,0,0,0,0,-1,636,547,0,0
-581,477,0,0,0,0,0,0,0,0,0,-1,643,547,0,0
-574,477,0,0,0,0,0,0,0,0,0,-1,650,547,0,0
-567,477,0,0,0,0,0,0,0,0,0,-1,657,547,0,0
-560,477,0,0,0,0,0,0,0,0,0,-1,664,547,0,0
-553,477,0,0,0,0,0,0,0,0,0,-1,671,547,0,0
-546,477,0,0,0,0,0,0,0,0,0,-1,678,547,0,0
-539,477,0,0,0,0,0,0,0,0,0,-1,685,547,0,0
-532,477,0,0,0,0,0,0,0,0,0,-1,692,547,0,0
-525,477,0,0,0,0,0,0,0,0,0,-1,699,547,0,0
-518,477,0,0,0,0,0,0,0,0,0,-1,706,547,0,0
-511,477,0,0,0,0,0,0,0,0,0,-1,713,547,0,0
-504,477,0,0,0,0,0,0,0,0,0,-1,720,547,0,0
-497,477,0,0,0,0,0,0,0,0,0,-1,727,547,0,0
-490,477,0,0,0,0,0,0,0,0,0,-1,734,547,0,0
-483,477,-7.73151,-0.224182,0,0,0,0,0,0,0,-1,741,547,-7.73152,0.224176
-476,477,-6.25806,-0.310547,0,0,0,0,0,0,0,-1,748,547,-6.25804,0.310549
-469,477,-7.26617,0.525085,0,0,0,0,0,0,0,-1,755,547,-7.2662,-0.525111
-462,477,-6.65143,1.06042,0,0,0,0,0,0,0,-1,762,547,-6.65143,-1.06043
-455,477,-5.31757,0.429016,0,0,0,0,0,0,0,-1,769,547,-5.31756,-0.42902
-448,477,-4.0697,0.273376,0,0,0,0,0,0,0,-1,776,547,-4.06971,-0.273363
-441,477,-2.47504,-4.76971,0,0,0,0,0,0,0,-1,783,547,-2.47505,4.76973
-434,477,-2.01221,-6.71259,0,0,0,0,0,0,0,-1,790,547,-2.01223,6.71261
-427,477,-2.16089,-6.86194,-0.00634539,-0.00315541,-0.00118668,-0.00276238,-0.00673842,-1.25097,0.0039114,0.0322005,797,547,-2.16091,6.86193
-420,477,-2.20624,-7.08533,-0.00532302,-0.00342553,-0.000940384,-0.00303845,-0.0057101,-1.18031,0.003299,0.0269726,804,547,-2.20623,7.08535
-413,477,-2.18762,-7.58496,-0.00416851,-0.00324463,-0.000946681,-0.0026532,-0.00475994,-1.01238,0.00275418,0.0181275,811,547,-2.18765,7.58496
-406,477,-2.22974,-7.97644,-0.00318449,-0.00298278,-0.000773722,-0.00230337,-0.0038639,-0.850209,0.00224452,0.0116689,818,547,-2.22974,7.97642
-399,477,-2.23297,-8.34869,-0.00238422,-0.00274498,-0.00052891,-0.00200578,-0.00312342,-0.621064,0.00182745,0.019129,825,547,-2.23296,8.34868
-392,477,-2.25763,-8.71466,-0.00170163,-0.00270745,-0.000197286,-0.00166432,-0.00274477,-0.18692,0.0015966,0.0182668,832,547,-2.25763,8.71465
-385,477,-2.25055,-9.03467,-0.00113516,-0.00268313,0.000169776,-0.00111676,-0.00270154,0.107966,0.00156751,0.0147897,839,547,-2.25053,9.03465
-378,477,-2.26123,-9.37634,-0.00070409,-0.00271499,0.000542246,-0.000567192,-0.00285189,0.247298,0.00174323,0.0130922,846,547,-2.26123,9.37632
-371,477,-2.26105,-9.69891,-0.000474014,-0.00290791,0.000949388,-0.000147491,-0.00323443,0.331257,0.00210884,0.0131483,853,547,-2.26105,9.69893
-364,477,-2.25818,-10.0248,-0.000392529,-0.0032775,0.00140318,0.000177364,-0.0038474,0.385792,0.00262605,0.0129565,860,547,-2.25819,10.0248
-357,477,-2.25964,-10.3613,-0.000354384,-0.00384516,0.0018029,0.000409574,-0.00460912,0.400802,0.00321797,0.0110948,867,547,-2.25966,10.3613
-350,477,-2.26477,-10.6757,-0.000489868,-0.0046032,0.00221861,0.000478715,-0.00557178,0.41163,0.00388394,0.0103322,874,547,-2.26476,10.6757
-343,477,-2.25403,-11.0343,-0.000800261,-0.00563719,0.0026148,0.000343035,-0.00678049,0.412193,0.0046389,0.0169435,881,547,-2.25404,11.0343
-336,477,-2.18439,-11.3947,-0.00115172,-0.00662704,0.00297064,0.000150358,-0.00792913,0.413095,0.00533691,0.0302004,888,547,-2.18441,11.3947
-329,477,-2.03162,-11.7258,0,0,0,0,0,0,0,-1,895,547,-2.03161,11.7258
-322,477,-2.04822,-12.0026,0,0,0,0,0,0,0,-1,902,547,-2.04819,12.0026
-315,477,-1.67358,-9.15253,0,0,0,0,0,0,0,-1,909,547,-1.67356,9.15253
-308,477,-1.30127,-6.55188,0,0,0,0,0,0,0,-1,916,547,-1.30128,6.55185
-301,477,-1.21185,-6.28351,0,0,0,0,0,0,0,-1,923,547,-1.21184,6.28352
-294,477,-0.352905,3.27142,0,0,0,0,0,0,0,-1,930,547,-0.35292,-3.27144
-287,477,3.54364,2.15399,0,0,0,0,0,0,0,-1,937,547,3.54362,-2.15396
-280,477,1.97308,-0.954163,0,0,0,0,0,0,0,-1,944,547,1.9731,0.954178
-273,477,2.11621,-3.76709,0,0,0,0,0,0,0,-1,951,547,2.11619,3.76706
-266,477,2.04669,-3.42389,0,0,0,0,0,0,0,-1,958,547,2.04671,3.42391
-259,477,-1.33478,-3.41205,0,0,0,0,0,0,0,-1,965,547,-1.3348,3.41206
-252,477,0.597168,-5.32922,0,0,0,0,0,0,0,-1,972,547,0.597144,5.32924
-245,477,8.2309,-8.48492,0,0,0,0,0,0,0,-1,979,547,8.23091,8.48494
-238,477,6.60938,-5.64063,0,0,0,0,0,0,0,-1,986,547,6.60938,5.64063
-231,477,4.71716,-2.52484,0,0,0,0,0,0,0,-1,993,547,4.71716,2.52483
-224,477,0,0,0,0,0,0,0,0,0,-1,1000,547,0,0
-217,477,0,0,0,0,0,0,0,0,0,-1,1007,547,0,0
-210,477,0,0,0,0,0,0,0,0,0,-1,1014,547,0,0
-203,477,0,0,0,0,0,0,0,0,0,-1,1021,547,0,0
-196,477,0,0,0,0,0,0,0,0,0,-1,1028,547,0,0
-189,477,0,0,0,0,0,0,0,0,0,-1,1035,547,0,0
-182,477,0,0,0,0,0,0,0,0,0,-1,1042,547,0,0
-175,477,0,0,0,0,0,0,0,0,0,-1,1049,547,0,0
-168,477,0,0,0,0,0,0,0,0,0,-1,1056,547,0,0
-161,477,0,0,0,0,0,0,0,0,0,-1,1063,547,0,0
-154,477,0,0,0,0,0,0,0,0,0,-1,1070,547,0,0
-147,477,0,0,0,0,0,0,0,0,0,-1,1077,547,0,0
-140,477,0,0,0,0,0,0,0,0,0,-1,1084,547,0,0
-133,477,0,0,0,0,0,0,0,0,0,-1,1091,547,0,0
-126,477,0,0,0,0,0,0,0,0,0,-1,1098,547,0,0
-119,477,0,0,0,0,0,0,0,0,0,-1,1105,547,0,0
-112,477,0,0,0,0,0,0,0,0,0,-1,1112,547,0,0
-105,477,0,0,0,0,0,0,0,0,0,-1,1119,547,0,0
-98,477,0,0,0,0,0,0,0,0,0,-1,1126,547,0,0
-91,477,0,0,0,0,0,0,0,0,0,-1,1133,547,0,0
-84,477,0,0,0,0,0,0,0,0,0,-1,1140,547,0,0
-77,477,0,0,0,0,0,0,0,0,0,-1,1147,547,0,0
-70,477,0,0,0,0,0,0,0,0,0,-1,1154,547,0,0
-63,477,0,0,0,0,0,0,0,0,0,-1,1161,547,0,0
-56,477,0,0,0,0,0,0,0,0,0,-1,1168,547,0,0
-49,477,0,0,0,0,0,0,0,0,0,-1,1175,547,0,0
-42,477,0,0,0,0,0,0,0,0,0,-1,1182,547,0,0
-35,477,0,0,0,0,0,0,0,0,0,-1,1189,547,0,0
-28,477,0,0,0,0,0,0,0,0,0,-1,1196,547,0,0
-21,477,0,0,0,0,0,0,0,0,0,-1,1203,547,0,0
-14,477,0,0,0,0,0,0,0,0,0,-1,1210,547,0,0
-7,477,0,0,0,0,0,0,0,0,0,-1,1217,547,0,0
0,477,0,0,0,0,0,0,0,0,0,-1,1224,547,0,0
7,477,0,0,0,0,0,0,0,0,0,-1,1231,547,0,0
14,477,0,0,0,0,0,0,0,0,0,-1,1238,547,0,0
21,477,0,0,0,0,0,0,0,0,0,-1,1245,547,0,0
28,477,0,0,0,0,0,0,0,0,0,-1,1252,547,0,0
35,477,0,0,0,0,0,0,0,0,0,-1,1259,547,0,0
42,477,0,0,0,0,0,0,0,0,0,-1,1266,547,0,0
49,477,0,0,0,0,0,0,0,0,0,-1,1273,547,0,0
56,477,0,0,0,0,0,0,0,0,0,-1,1280,547,0,0
63,477,0,0,0,0,0,0,0,0,0,-1,1287,547,0,0
70,477,0,0,0,0,0,0,0,0,0,-1,1294,547,0,0
77,477,0,0,0,0,0,0,0,0,0,-1,1301,547,0,0
84,477,0,0,0,0,0,0,0,0,0,-1,1308,547,0,0
91,477,0,0,0,0,0,0,0,0,0,-1,1315,547,0,0
98,477,0,0,0,0,0,0,0,0,0,-1,1322,547,0,0
105,477,0,0,0,0,0,0,0,0,0,-1,1329,547,0,0
112,477,0,0,0,0,0,0,0,0,0,-1,1336,547,0,0
119,477,0,0,0,0,0,0,0,0,0,-1,1343,547,0,0
126,477,0,0,0,0,0,0,0,0,0,-1,1350,547,0,0
133,477,0,0,0,0,0,0,0,0,0,-1,1357,547,0,0
140,477,0,0,0,0,0,0,0,0,0,-1,1364,547,0,0
147,477,0,0,0,0,0,0,0,0,0,-1,1371,547,0,0
154,477,0,0,0,0,0,0,0,0,0,-1,1378,547,0,0
161,477,0,0,0,0,0,0,0,0,0,-1,1385,547,0,0
168,477,0,0,0,0,0,0,0,0,0,-1,1392,547,0,0
175,477,0,0,0,0,0,0,0,0,0,-1,1399,547,0,0
182,477,0,0,0,0,0,0,0,0,0,-1,1406,547,0,0
189,477,0,0,0,0,0,0,0,0,0,-1,1413,547,0,0
196,477,0,0,0,0,0,0,0,0,0,-1,1420,547,0,0
203,477,0,0,0,0,0,0,0,0,0,-1,1427,547,0,0
210,477,0,0,0,0,0,0,0,0,0,-1,1434,547,0,0
217,477,0,0,0,0,0,0,0,0,0,-1,1441,547,0,0
224,477,0,0,0,0,0,0,0,0,0,-1,1448,547,0,0
231,477,0,0,0,0,0,0,0,0,0,-1,1455,547,0,0
238,477,0,0,0,0,0,0,0,0,0,-1,1462,547,0,0
245,477,0,0,0,0,0,0,0,0,0,-1,1469,547,0,0
252,477,0,0,0,0,0,0,0,0,0,-1,1476,547,0,0
259,477,0,0,0,0,0,0,0,0,0,-1,1483,547,0,0
266,477,0,0,0,0,0,0,0,0,0,-1,1490,547,0,0
273,477,0,0,0,0,0,0,0,0,0,-1,1497,547,0,0
280,477,0,0,0,0,0,0,0,0,0,-1,1504,547,0,0
287,477,0,0,0,0,0,0,0,0,0,-1,1511,547,0,0
294,477,0,0,0,0,0,0,0,0,0,-1,1518,547,0,0
301,477,0,0,0,0,0,0,0,0,0,-1,1525,547,0,0
308,477,0,0,0,0,0,0,0,0,0,-1,1532,547,0,0
315,477,0,0,0,0,0,0,0,0,0,-1,1539,547,0,0
322,477,0,0,0,0,0,0,0,0,0,-1,1546,547,0,0
329,477,0,0,0,0,0,0,0,0,0,-1,1553,547,0,0
336,477,0,0,0,0,0,0,0,0,0,-1,1560,547,0,0
343,477,0,0,0,0,0,0,0,0,0,-1,1567,547,0,0
350,477,1.7699,-3.32275,0,0,0,0,0,0,0,-1,1574,547,1.7699,3.32272
357,477,3.073,-4.83313,0,0,0,0,0,0,0,-1,1581,547,3.07303,4.83316
364,477,4.30127,-4.22864,0,0,0,0,0,0,0,-1,1588,547,4.30125,4.22865
371,477,4.57703,0.283264,0,0,0,0,0,0,0,-1,1595,547,4.57706,-0.283262
378,477,8.57947,1.05969,0,0,0,0,0,0,0,-1,1602,547,8.5795,-1.05972
385,477,12.3726,2.02356,0,0,0,0,0,0,0,-1,1609,547,12.3725,-2.02355
392,477,16.4678,2.76843,0,0,0,0,0,0,0,-1,1616,547,16.4678,-2.76845
399,477,8.00037,-2.29523,0,0,0,0,0,0,0,-1,1623,547,8.00031,2.2952
406,477,4.82495,2.7475,0,0,0,0,0,0,0,-1,1630,547,4.825,-2.74752
413,477,4.88171,-0.336426,0,0,0,0,0,0,0,-1,1637,547,4.88169,0.336398
420,477,3.34875,0.102722,0,0,0,0,0,0,0,-1,1644,547,3.34871,-0.1027
427,477,1.66772,-0.373108,0,0,0,0,0,0,0,-1,1651,547,1.66768,0.373104
434,477,3.76978,-2.30798,0,0,0,0,0,0,0,-1,1658,547,3.76974,2.30801
441,477,4.05444,-2.80402,0,0,0,0,0,0,0,-1,1665,547,4.05444,2.804
448,477,9.57532,-10.4592,0,0,0,0,0,0,0,-1,1672,547,9.57529,10.4592
455,477,9.4657,-10.4456,0,0,0,0,0,0,0,-1,1679,547,9.46571,10.4456
462,477,9.54407,-10.1268,-9.46555e-06,-0.000916585,-0.00243213,0.00201104,-0.00293709,-0.693214,0.00287343,0.0426328,1686,547,9.54403,10.1268
469,477,9.50977,-9.66913,0.000952978,0.000138362,-0.00117007,0.0017846,-0.000693264,-0.617905,0.00147613,0.0260342,1693,547,9.50978,9.6691
476,477,9.49609,-9.33966,0.00165061,0.000898338,-0.000188175,0.00169506,0.000853893,-0.231936,0.000978651,0.0191621,1700,547,9.49609,9.33965
483,477,9.49402,-9.0105,0.00218,0.00136635,0.000582551,0.00248372,0.00106263,0.480588,0.00143895,0.0126753,1707,547,9.49404,9.01051
490,477,9.47021,-8.65576,0.00226725,0.00179438,0.000988063,0.00304677,0.00101486,0.66796,0.00179143,0.0120699,1714,547,9.4702,8.65574
497,477,9.46167,-8.26343,0.00188816,0.00157784,0.000995223,0.00274025,0.000725756,0.70807,0.00163937,0.0136339,1721,547,9.46171,8.26344
504,477,9.46204,-7.90643,0.00140717,0.00144042,0.000950511,0.00237445,0.000473138,0.794141,0.0014512,0.0168654,1728,547,9.46204,7.90645
511,477,9.50354,-7.59045,0.000793732,0.00124275,0.000810899,0.00185964,0.000176835,0.920446,0.00118522,0.0206345,1735,547,9.50356,7.59045
518,477,9.49341,-7.22375,7.76061e-05,0.00108845,0.000643938,0.00140163,-0.000235574,1.11813,0.00102203,0.0193572,1742,547,9.49343,7.22377
525,477,9.45044,-6.82886,-0.000610474,0.00105981,0.000518996,0.00120794,-0.000758601,1.29278,0.00114522,0.0170394,1749,547,9.45044,6.82883
532,477,9.41064,-6.4834,-0.00121614,0.00125085,0.000526471,0.0013585,-0.00132379,1.36909,0.00154866,0.0185126,1756,547,9.41069,6.48338
539,477,9.43311,-6.06854,-0.00165575,0.00158661,0.000704817,0.00173319,-0.00180234,1.36574,0.00204137,0.0170482,1763,547,9.43313,6.06854
546,477,9.38586,-5.73846,-0.00191734,0.00225733,0.00114792,0.00255216,-0.00221216,1.3194,0.00275302,0.0252045,1770,547,9.38587,5.73845
553,477,9.37549,-5.28741,-0.00205583,0.00311586,0.00168217,0.00361487,-0.00255483,1.28242,0.00357956,0.0303692,1777,547,9.3755,5.28744
560,477,9.44922,-4.75037,-0.00193758,0.00408772,0.00245772,0.00496306,-0.00281292,1.22865,0.00454631,0.0493495,1784,547,9.44919,4.75038
567,477,9.52368,-4.45105,0,0,0,0,0,0,0,-1,1791,547,9.52362,4.45106
574,477,6.82593,-0.916992,0,0,0,0,0,0,0,-1,1798,547,6.82598,0.916977
581,477,9.29321,-0.557007,0,0,0,0,0,0,0,-1,1805,547,9.29324,0.55703
588,477,9.75195,0.422729,0,0,0,0,0,0,0,-1,1812,547,9.75198,-0.42273
595,477,9.89172,1.21326,0,0,0,0,0,0,0,-1,1819,547,9.89174,-1.21328
602,477,6.5271,-0.964417,0,0,0,0,0,0,0,-1,1826,547,6.52706,0.964427
609,477,0,0,0,0,0,0,0,0,0,-1,1833,547,0,0
616,477,0,0,0,0,0,0,0,0,0,-1,1840,547,0,0
623,477,0,0,0,0,0,0,0,0,0,-1,1847,547,0,0
630,477,0,0,0,0,0,0,0,0,0,-1,1854,547,0,0
637,477,0,0,0,0,0,0,0,0,0,-1,1861,547,0,0
644,477,0,0,0,0,0,0,0,0,0,-1,1868,547,0,0
651,477,0,0,0,0,0,0,0,0,0,-1,1875,547,0,0
658,477,0,0,0,0,0,0,0,0,0,-1,1882,547,0,0
665,477,0,0,0,0,0,0,0,0,0,-1,1889,547,0,0
672,477,0,0,0,0,0,0,0,0,0,-1,1896,547,0,0
679,477,0,0,0,0,0,0,0,0,0,-1,1903,547,0,0
686,477,0,0,0,0,0,0,0,0,0,-1,1910,547,0,0
693,477,0,0,0,0,0,0,0,0,0,-1,1917,547,0,0
700,477,0,0,0,0,0,0,0,0,0,-1,1924,547,0,0
707,477,0,0,0,0,0,0,0,0,0,-1,1931,547,0,0
714,477,0,0,0,0,0,0,0,0,0,-1,1938,547,0,0
721,477,0,0,0,0,0,0,0,0,0,-1,1945,547,0,0
728,477,0,0,0,0,0,0,0,0,0,-1,1952,547,0,0
735,477,0,0,0,0,0,0,0,0,0,-1,1959,547,0,0
742,477,0,0,0,0,0,0,0,0,0,-1,1966,547,0,0
749,477,0,0,0,0,0,0,0,0,0,-1,1973,547,0,0
756,477,0,0,0,0,0,0,0,0,0,-1,1980,547,0,0
763,477,0,0,0,0,0,0,0,0,0,-1,1987,547,0,0
770,477,0,0,0,0,0,0,0,0,0,-1,1994,547,0,0
777,477,0,0,0,0,0,0,0,0,0,-1,2001,547,0,0
784,477,0,0,0,0,0,0,0,0,0,-1,2008,547,0,0
791,477,0,0,0,0,0,0,0,0,0,-1,2015,547,0,0
798,477,0,0,0,0,0,0,0,0,0,-1,2022,547,0,0
805,477,0,0,0,0,0,0,0,0,0,-1,2029,547,0,0
812,477,0,0,0,0,0,0,0,0,0,-1,2036,547,0,0
-700,470,0,0,0,0,0,0,0,0,0,-1,524,554,0,0
-693,470,0,0,0,0,0,0,0,0,0,-1,531,554,0,0
-686,470,0,0,0,0,0,0,0,0,0,-1,538,554,0,0
-679,470,0,0,0,0,0,0,0,0,0,-1,545,554,0,0
-672,470,0,0,0,0,0,0,0,0,0,-1,552,554,0,0
-665,470,0,0,0,0,0,0,0,0,0,-1,559,554,0,0
-658,470,0,0,0,0,0,0,0,0,0,-1,566,554,0,0
-651,470,0,0,0,0,0,0,0,0,0,-1,573,554,0,0
-644,470,0,0,0,0,0,0,0,0,0,-1,580,554,0,0
-637,470,0,0,0,0,0,0,0,0,0,-1,587,554,0,0
-630,470,0,0,0,0,0,0,0,0,0,-1,594,554,0,0
-623,470,0,0,0,0,0,0,0,0,0,-1,601,554,0,0
-616,470,0,0,0,0,0,0,0,0,0,-1,608,554,0,0
-609,470,0,0,0,0,0,0,0,0,0,-1,615,554,0,0
-602,470,0,0,0,0,0,0,0,0,0,-1,622,554,0,0
-595,470,0,0,0,0,0,0,0,0,0,-1,629,554,0,0
-588,470,0,0,0,0,0,0,0,0,0,-1,636,554,0,0
-581,470,0,0,0,0,0,0,0,0,0,-1,643,554,0,0
-574,470,0,0,0,0,0,0,0,0,0,-1,650,554,0,0
-567,470,0,0,0,0,0,0,0,0,0,-1,657,554,0,0
-560,470,0,0,0,0,0,0,0,0,0,-1,664,554,0,0
-553,470,0,0,0,0,0,0,0,0,0,-1,671,554,0,0
-546,470,0,0,0,0,0,0,0,0,0,-1,678,554,0,0
-539,470,0,0,0,0,0,0,0,0,0,-1,685,554,0,0
-532,470,0,0,0,0,0,0,0,0,0,-1,692,554,0,0
-525,470,0,0,0,0,0,0,0,0,0,-1,699,554,0,0
-518,470,0,0,0,0,0,0,0,0,0,-1,706,554,0,0
-511,470,0,0,0,0,0,0,0,0,0,-1,713,554,0,0
-504,470,0,0,0,0,0,0,0,0,0,-1,720,554,0,0
-497,470,0,0,0,0,0,0,0,0,0,-1,727,554,0,0
-490,470,-9.13263,-1.03125,0,0,0,0,0,0,0,-1,734,554,-9.1326,1.03127
-483,470,-7.68677,-1.03955,0,0,0,0,0,0,0,-1,741,554,-7.68678,1.03958
-476,470,-6.17969,-1.03394,0,0,0,0,0,0,0,-1,748,554,-6.17971,1.03395
-469,470,-6.23016,-0.651855,0,0,0,0,0,0,0,-1,755,554,-6.23014,0.651829
-462,470,-4.87915,-1.03705,0,0,0,0,0,0,0,-1,762,554,-4.87914,1.03702
-455,470,-4.362,-1.12903,0,0,0,0,0,0,0,-1,769,554,-4.36198,1.12901
-448,470,-2.76245,-4.70929,0,0,0,0,0,0,0,-1,776,554,-2.76243,4.70927
-441,470,-2.14154,-5.92627,0,0,0,0,0,0,0,-1,783,554,-2.14157,5.92627
-434,470,-2.33716,-6.55695,-0.00531078,0.000395887,-0.00193675,0.000991105,-0.005906,-1.27263,0.00430589,0.0346949,790,554,-2.33714,6.55695
-427,470,-2.53998,-6.89557,-0.00460285,-0.000575716,-0.00137615,-0.000150382,-0.00502818,-1.27103,0.00330314,0.016835,797,554,-2.53999,6.89556
-420,470,-2.51129,-7.25739,-0.00398106,-0.00122349,-0.000911495,-0.000949434,-0.00425511,-1.27873,0.00257918,0.0134856,804,554,-2.51131,7.25739
-413,470,-2.53406,-7.62415,-0.00318962,-0.00143684,-0.000761015,-0.00115254,-0.00347392,-1.21327,0.00204316,0.0132389,811,554,-2.53408,7.62416
-406,470,-2.58148,-7.96838,-0.00246203,-0.00151685,-0.000501881,-0.00130008,-0.00267881,-1.16307,0.00154683,0.0113365,818,554,-2.58147,7.96836
-399,470,-2.58661,-8.34442,-0.00188358,-0.00169692,-0.000148166,-0.00161514,-0.00196536,-1.06646,0.00121051,0.0148698,825,554,-2.58661,8.34442
-392,470,-2.59344,-8.70337,-0.00143292,-0.00202262,0.000289315,-0.00131469,-0.00214086,0.387961,0.0012467,0.0145892,832,554,-2.59345,8.70335
-385,470,-2.59204,-9.03204,-0.00109738,-0.00238046,0.000777565,-0.000730862,-0.00274698,0.440479,0.00164281,0.01134,839,554,-2.59206,9.03206
-378,470,-2.59027,-9.38635,-0.000888345,-0.00279499,0.00129924,-0.000230198,-0.00345314,0.468886,0.00222933,0.0160436,846,554,-2.59025,9.38638
-371,470,-2.59222,-9.70081,-0.000856223,-0.00338248,0.00187612,0.000142353,-0.00438106,0.489119,0.00296929,0.0140056,853,554,-2.59224,9.70079
-364,470,-2.57483,-10.0065,-0.000938788,-0.00416225,0.00249862,0.000422825,-0.00552386,0.498955,0.0038313,0.0133649,860,554,-2.57483,10.0065
-357,470,-2.58044,-10.3403,-0.00109809,-0.00528193,0.00309233,0.000543439,-0.00692346,0.488013,0.00480704,0.013415,867,554,-2.58045,10.3404
-350,470,-2.59692,-10.6882,-0.00146221,-0.00663815,0.00372837,0.000488357,-0.00858872,0.482011,0.00589535,0.0100733,874,554,-2.59691,10.6882
-343,470,-2.52679,-11.0456,-0.00199255,-0.00826241,0.00433248,0.000220243,-0.0104752,0.472207,0.00705803,0.0263911,881,554,-2.52679,11.0456
-336,470,-2.6723,-11.2192,-0.00254006,-0.00984285,0.00489352,-8.5779e-05,-0.0122971,0.464876,0.00816964,0.0420135,888,554,-2.67232,11.2192
-329,470,-2.62091,-11.6909,0,0,0,0,0,0,0,-1,895,554,-2.62094,11.6909
-322,470,-2.30829,-11.4527,0,0,0,0,0,0,0,-1,902,554,-2.30827,11.4527
-315,470,-1.04797,-8.29529,0,0,0,0,0,0,0,-1,909,554,-1.04797,8.29526
-308,470,-1.39368,-6.68152,0,0,0,0,0,0,0,-1,916,554,-1.39369,6.68149
-301,470,-0.0340576,3.34888,0,0,0,0,0,0,0,-1,923,554,-0.0340496,-3.3489
-294,470,-1.18378,3.22266,0,0,0,0,0,0,0,-1,930,554,-1.18376,-3.22268
-287,470,-2.15454,3.2204,0,0,0,0,0,0,0,-1,937,554,-2.15452,-3.22037
-280,470,-3.00537,3.099,0,0,0,0,0,0,0,-1,944,554,-3.00536,-3.09898
-273,470,-12.3932,3.65009,0,0,0,0,0,0,0,-1,951,554,-12.3932,-3.65011
-266,470,-11.5706,1.16028,0,0,0,0,0,0,0,-1,958,554,-11.5706,-1.16031
-259,470,-7.50415,-2.77167,0,0,0,0,0,0,0,-1,965,554,-7.50413,2.7717
-252,470,-0.371155,-5.87823,0,0,0,0,0,0,0,-1,972,554,-0.37114,5.87821
-245,470,1.33221,-6.81122,0,0,0,0,0,0,0,-1,979,554,1.33223,6.8112
-238,470,0,0,0,0,0,0,0,0,0,-1,986,554,0,0
-231,470,0,0,0,0,0,0,0,0,0,-1,993,554,0,0
-224,470,0,0,0,0,0,0,0,0,0,-1,1000,554,0,0
-217,470,0,0,0,0,0,0,0,0,0,-1,1007,554,0,0
-210,470,0,0,0,0,0,0,0,0,0,-1,1014,554,0,0
-203,470,0,0,0,0,0,0,0,0,0,-1,1021,554,0,0
-196,470,0,0,0,0,0,0,0,0,0,-1,1028,554,0,0
-189,470,0,0,0,0,0,0,0,0,0,-1,1035,554,0,0
-182,470,0,0,0,0,0,0,0,0,0,-1,1042,554,0,0
-175,470,0,0,0,0,0,0,0,0,0,-1,1049,554,0,0
-168,470,0,0,0,0,0,0,0,0,0,-1,1056,554,0,0
-161,470,0,0,0,0,0,0,0,0,0,-1,1063,554,0,0
-154,470,0,0,0,0,0,0,0,0,0,-1,1070,554,0,0
-147,470,0,0,0,0,0,0,0,0,0,-1,1077,554,0,0
-140,470,0,0,0,0,0,0,0,0,0,-1,1084,554,0,0
-133,470,0,0,0,0,0,0,0,0,0,-1,1091,554,0,0
-126,470,0,0,0,0,0,0,0,0,0,-1,1098,554,0,0
-119,470,0,0,0,0,0,0,0,0,0,-1,1105,554,0,0
-112,470,0,0,0,0,0,0,0,0,0,-1,1112,554,0,0
-105,470,0,0,0,0,0,0,0,0,0,-1,1119,554,0,0
-98,470,0,0,0,0,0,0,0,0,0,-1,1126,554,0,0
-91,470,0,0,0,0,0,0,0,0,0,-1,1133,554,0,0
-84,470,0,0,0,0,0,0,0,0,0,-1,1140,554,0,0
-77,470,0,0,0,0,0,0,0,0,0,-1,1147,554,0,0
-70,470,0,0,0,0,0,0,0,0,0,-1,1154,554,0,0
-63,470,0,0,0,0,0,0,0,0,0,-1,1161,554,0,0
-56,470,0,0,0,0,0,0,0,0,0,-1,1168,554,0,0
-49,470,0,0,0,0,0,0,0,0,0,-1,1175,554,0,0
-42,470,0,0,0,0,0,0,0,0,0,-1,1182,554,0,0
-35,470,0,0,0,0,0,0,0,0,0,-1,1189,554,0,0
-28,470,0,0,0,0,0,0,0,0,0,-1,1196,554,0,0
-21,470,0,0,0,0,0,0,0,0,0,-1,1203,554,0,0
-14,470,0,0,0,0,0,0,0,0,0,-1,1210,554,0,0
-7,470,0,0,0,0,0,0,0,0,0,-1,1217,554,0,0
0,470,0,0,0,0,0,0,0,0,0,-1,1224,554,0,0
7,470,0,0,0,0,0,0,0,0,0,-1,1231,554,0,0
14,470,0,0,0,0,0,0,0,0,0,-1,1238,554,0,0
21,470,0,0,0,0,0,0,0,0,0,-1,1245,554,0,0
28,470,0,0,0,0,0,0,0,0,0,-1,1252,554,0,0
35,470,0,0,0,0,0,0,0,0,0,-1,1259,554,0,0
42,470,0,0,0,0,0,0,0,0,0,-1,1266,554,0,0
49,470,0,0,0,0,0,0,0,0,0,-1,1273,554,0,0
56,470,0,0,0,0,0,0,0,0,0,-1,1280,554,0,0
63,470,0,0,0,0,0,0,0,0,0,-1,1287,554,0,0
70,470,0,0,0,0,0,0,0,0,0,-1,1294,554,0,0
77,470,0,0,0,0,0,0,0,0,0,-1,1301,554,0,0
84,470,0,0,0,0,0,0,0,0,0,-1,1308,554,0,0
91,470,0,0,0,0,0,0,0,0,0,-1,1315,554,0,0
98,470,0,0,0,0,0,0,0,0,0,-1,1322,554,0,0
105,470,0,0,0,0,0,0,0,0,0,-1,1329,554,0,0
112,470,0,0,0,0,0,0,0,0,0,-1,1336,554,0,0
119,470,0,0,0,0,0,0,0,0,0,-1,1343,554,0,0
126,470,0,0,0,0,0,0,0,0,0,-1,1350,554,0,0
133,470,0,0,0,0,0,0,0,0,0,-1,1357,554,0,0
140,470,0,0,0,0,0,0,0,0,0,-1,1364,554,0,0
147,470,0,0,0,0,0,0,0,0,0,-1,1371,554,0,0
154,470,0,0,0,0,0,0,0,0,0,-1,1378,554,0,0
161,470,0,0,0,0,0,0,0,0,0,-1,1385,554,0,0
168,470,0,0,0,0,0,0,0,0,0,-1,1392,554,0,0
175,470,0,0,0,0,0,0,0,0,0,-1,1399,554,0,0
182,470,0,0,0,0,0,0,0,0,0,-1,1406,554,0,0
189,470,0,0,0,0,0,0,0,0,0,-1,1413,554,0,0
196,470,0,0,0,0,0,0,0,0,0,-1,1420,554,0,0
203,470,0,0,0,0,0,0,0,0,0,-1,1427,554,0,0
210,470,0,0,0,0,0,0,0,0,0,-1,1434,554,0,0
217,470,0,0,0,0,0,0,0,0,0,-1,1441,554,0,0
224,470,0,0,0,0,0,0,0,0,0,-1,1448,554,0,0
231,470,0,0,0,0,0,0,0,0,0,-1,1455,554,0,0
238,470,0,0,0,0,0,0,0,0,0,-1,1462,554,0,0
245,470,0,0,0,0,0,0,0,0,0,-1,1469,554,0,0
252,470,0,0,0,0,0,0,0,0,0,-1,1476,554,0,0
259,470,0,0,0,0,0,0,0,0,0,-1,1483,554,0,0
266,470,0,0,0,0,0,0,0,0,0,-1,1490,554,0,0
273,470,0,0,0,0,0,0,0,0,0,-1,1497,554,0,0
280,470,0,0,0,0,0,0,0,0,0,-1,1504,554,0,0
287,470,0,0,0,0,0,0,0,0,0,-1,1511,554,0,0
294,470,0,0,0,0,0,0,0,0,0,-1,1518,554,0,0
301,470,0,0,0,0,0,0,0,0,0,-1,1525,554,0,0
308,470,0,0,0,0,0,0,0,0,0,-1,1532,554,0,0
315,470,0,0,0,0,0,0,0,0,0,-1,1539,554,0,0
322,470,0,0,0,0,0,0,0,0,0,-1,1546,554,0,0
329,470,0,0,0,0,0,0,0,0,0,-1,1553,554,0,0
336,470,0,0,0,0,0,0,0,0,0,-1,1560,554,0,0
343,470,0,0,0,0,0,0,0,0,0,-1,1567,554,0,0
350,470,0,0,0,0,0,0,0,0,0,-1,1574,554,0,0
357,470,0,0,0,0,0,0,0,0,0,-1,1581,554,0,0
364,470,1.33423,0.293335,0,0,0,0,0,0,0,-1,1588,554,1.33422,-0.293348
371,470,2.22498,-0.0305176,0,0,0,0,0,0,0,-1,1595,554,2.22494,0.0305046
378,470,6.27051,0.710083,0,0,0,0,0,0,0,-1,1602,554,6.27054,-0.710093
385,470,10.3657,1.47296,0,0,0,0,0,0,0,-1,1609,554,10.3657,-1.47299
392,470,15.3881,3.01935,0,0,0,0,0,0,0,-1,1616,554,15.388,-3.01937
399,470,18.4479,2.93793,0,0,0,0,0,0,0,-1,1623,554,18.4479,-2.93792
406,470,15.1896,1.36676,0,0,0,0,0,0,0,-1,1630,554,15.1896,-1.36679
413,470,6.55383,1.99207,0,0,0,0,0,0,0,-1,1637,554,6.5538,-1.99208
420,470,4.47095,0.845703,0,0,0,0,0,0,0,-1,1644,554,4.47098,-0.845718
427,470,3.51038,1.19684,0,0,0,0,0,0,0,-1,1651,554,3.51039,-1.19684
434,470,3.31775,-1.37427,0,0,0,0,0,0,0,-1,1658,554,3.31781,1.37426
441,470,2.55457,-2.05902,0,0,0,0,0,0,0,-1,1665,554,2.55461,2.05904
448,470,3.27258,-2.64032,0,0,0,0,0,0,0,-1,1672,554,3.27257,2.64029
455,470,10.3658,-9.82233,0,0,0,0,0,0,0,-1,1679,554,10.3659,9.82233
462,470,10.0228,-10.1413,0,0,0,0,0,0,0,-1,1686,554,10.0228,10.1413
469,470,9.73511,-9.7677,0,0,0,0,0,0,0,-1,1693,554,9.73505,9.76768
476,470,9.77478,-9.3576,0.00249978,0.00156414,0.000413032,0.00265602,0.0014079,0.361641,0.00153438,0.037029,1700,554,9.77483,9.3576
483,470,9.84717,-9.0072,0.00318259,0.00201897,0.00127937,0.00400623,0.00119533,0.571993,0.00237486,0.0148929,1707,554,9.8472,9.00722
490,470,9.82361,-8.65228,0.00334515,0.00248266,0.00168094,0.00464929,0.00117853,0.659832,0.0027909,0.0117731,1714,554,9.82363,8.65227
497,470,9.8374,-8.2981,0.00293643,0.00208615,0.00158843,0.00415563,0.000866944,0.65464,0.00253142,0.0127786,1721,554,9.83743,8.29808
504,470,9.86182,-7.95685,0.00236656,0.00180542,0.0014469,0.00355985,0.000612137,0.689632,0.00219779,0.0183054,1728,554,9.86184,7.95686
511,470,9.88892,-7.60724,0.00169762,0.00143856,0.00122486,0.00279977,0.000336401,0.732719,0.0017651,0.0248538,1735,554,9.88892,7.60727
518,470,9.90759,-7.20624,0.000963988,0.00114313,0.000996637,0.00205421,5.29051e-05,0.830214,0.00135218,0.0254654,1742,554,9.90756,7.20627
525,470,9.84863,-6.79932,0.000246774,0.000990244,0.000810186,0.00150991,-0.000272888,1.00048,0.00110882,0.0159079,1749,554,9.84862,6.79932
532,470,9.79944,-6.43188,-0.000402376,0.00102898,0.000735632,0.00133963,-0.000713026,1.17122,0.00120337,0.013506,1756,554,9.79946,6.43187
539,470,9.77808,-6.06769,-0.000906823,0.00113781,0.000783371,0.00140344,-0.00117245,1.24388,0.00148918,0.0160991,1763,554,9.77805,6.06769
546,470,9.78845,-5.69556,-0.00125321,0.00162408,0.00109797,0.0019952,-0.00162432,1.24485,0.00209338,0.0143233,1770,554,9.78847,5.69554
553,470,9.81616,-5.28748,-0.00154033,0.00220026,0.00145161,0.00269749,-0.00203756,1.24079,0.00274262,0.0134758,1777,554,9.81616,5.28747
560,470,9.81201,-4.87946,-0.00164579,0.00288451,0.00199325,0.00363663,-0.00239791,1.20998,0.00350843,0.0206961,1784,554,9.81206,4.87947
567,470,9.73877,-4.52405,-0.00156071,0.00368153,0.00276786,0.0048724,-0.00275159,1.16449,0.00445812,0.0206877,1791,554,9.73882,4.52405
574,470,9.79883,-4.01544,0,0,0,0,0,0,0,-1,1798,554,9.79889,4.01541
581,470,8.24646,-4.06317,0,0,0,0,0,0,0,-1,1805,554,8.24648,4.06318
588,470,11.1803,1.74927,0,0,0,0,0,0,0,-1,1812,554,11.1803,-1.74926
595,470,4.72192,3.44116,0,0,0,0,0,0,0,-1,1819,554,4.72191,-3.44116
602,470,14.4307,2.76141,0,0,0,0,0,0,0,-1,1826,554,14.4306,-2.76139
609,470,20.9181,4.41058,0,0,0,0,0,0,0,-1,1833,554,20.9181,-4.4106
616,470,0,0,0,0,0,0,0,0,0,-1,1840,554,0,0
623,470,0,0,0,0,0,0,0,0,0,-1,1847,554,0,0
630,470,0,0,0,0,0,0,0,0,0,-1,1854,554,0,0
637,470,0,0,0,0,0,0,0,0,0,-1,1861,554,0,0
644,470,0,0,0,0,0,0,0,0,0,-1,1868,554,0,0
651,470,0,0,0,0,0,0,0,0,0,-1,1875,554,0,0
658,470,0,0,0,0,0,0,0,0,0,-1,1882,554,0,0
665,470,0,0,0,0,0,0,0,0,0,-1,1889,554,0,0
672,470,0,0,0,0,0,0,0,0,0,-1,1896,554,0,0
679,470,0,0,0,0,0,0,0,0,0,-1,1903,554,0,0
686,470,0,0,0,0,0,0,0,0,0,-1,1910,554,0,0
693,470,0,0,0,0,0,0,0,0,0,-1,1917,554,0,0
700,470,0,0,0,0,0,0,0,0,0,-1,1924,554,0,0
707,470,0,0,0,0,0,0,0,0,0,-1,1931,554,0,0
714,470,0,0,0,0,0,0,0,0,0,-1,1938,554,0,0
721,470,0,0,0,0,0,0,0,0,0,-1,1945,554,0,0
728,470,0,0,0,0,0,0,0,0,0,-1,1952,554,0,0
735,470,0,0,0,0,0,0,0,0,0,-1,1959,554,0,0
742,470,0,0,0,0,0,0,0,0,0,-1,1966,554,0,0
749,470,0,0,0,0,0,0,0,0,0,-1,1973,554,0,0
756,470,0,0,0,0,0,0,0,0,0,-1,1980,554,0,0
763,470,0,0,0,0,0,0,0,0,0,-1,1987,554,0,0
770,470,0,0,0,0,0,0,0,0,0,-1,1994,554,0,0
777,470,0,0,0,0,0,0,0,0,0,-1,2001,554,0,0
784,470,0,0,0,0,0,0,0,0,0,-1,2008,554,0,0
791,470,0,0,0,0,0,0,0,0,0,-1,2015,554,0,0
798,470,0,0,0,0,0,0,0,0,0,-1,2022,554,0,0
805,470,0,0,0,0,0,0,0,0,0,-1,2029,554,0,0
812,470,0,0,0,0,0,0,0,0,0,-1,2036,554,0,0
-700,463,0,0,0,0,0,0,0,0,0,-1,524,561,0,0
-693,463,0,0,0,0,0,0,0,0,0,-1,531,561,0,0
-686,463,0,0,0,0,0,0,0,0,0,-1,538,561,0,0
-679,463,0,0,0,0,0,0,0,0,0,-1,545,561,0,0
-672,463,0,0,0,0,0,0,0,0,0,-1,552,561,0,0
-665,463,0,0,0,0,0,0,0,0,0,-1,559,561,0,0
-658,463,0,0,0,0,0,0,0,0,0,-1,566,561,0,0
-651,463,0,0,0,0,0,0,0,0,0,-1,573,561,0,0
-644,463,0,0,0,0,0,0,0,0,0,-1,580,561,0,0
-637,463,0,0,0,0,0,0,0,0,0,-1,587,561,0,0
-630,463,0,0,0,0,0,0,0,0,0,-1,594,561,0,0
-623,463,0,0,0,0,0,0,0,0,0,-1,601,561,0,0
-616,463,0,0,0,0,0,0,0,0,0,-1,608,561,0,0
-609,463,0,0,0,0,0,0,0,0,0,-1,615,561,0,0
-602,463,0,0,0,0,0,0,0,0,0,-1,622,561,0,0
-595,463,0,0,0,0,0,0,0,0,0,-1,629,561,0,0
-588,463,0,0,0,0,0,0,0,0,0,-1,636,561,0,0
-581,463,0,0,0,0,0,0,0,0,0,-1,643,561,0,0
-574,463,0,0,0,0,0,0,0,0,0,-1,650,561,0,0
-567,463,0,0,0,0,0,0,0,0,0,-1,657,561,0,0
-560,463,0,0,0,0,0,0,0,0,0,-1,664,561,0,0
-553,463,0,0,0,0,0,0,0,0,0,-1,671,561,0,0
-546,463,0,0,0,0,0,0,0,0,0,-1,678,561,0,0
-539,463,0,0,0,0,0,0,0,0,0,-1,685,561,0,0
-532,463,0,0,0,0,0,0,0,0,0,-1,692,561,0,0
-525,463,0,0,0,0,0,0,0,0,0,-1,699,561,0,0
-518,463,0,0,0,0,0,0,0,0,0,-1,706,561,0,0
-511,463,0,0,0,0,0,0,0,0,0,-1,713,561,0,0
-504,463,0,0,0,0,0,0,0,0,0,-1,720,561,0,0
-497,463,-9.81451,-1.67126,0,0,0,0,0,0,0,-1,727,561,-9.81452,1.67127
-490,463,-8.57043,-1.58942,0,0,0,0,0,0,0,-1,734,561,-8.57045,1.58944
-483,463,-7.29224,-1.7226,0,0,0,0,0,0,0,-1,741,561,-7.29226,1.72261
-476,463,-5.77704,-1.7312,0,0,0,0,0,0,0,-1,748,561,-5.77703,1.73121
-469,463,-5.14545,-2.138,0,0,0,0,0,0,0,-1,755,561,-5.14546,2.13799
-462,463,-3.13672,-3.07977,0,0,0,0,0,0,0,-1,762,561,-3.13672,3.07974
-455,463,-2.64545,-4.51404,0,0,0,0,0,0,0,-1,769,561,-2.64547,4.51404
-448,463,-2.57159,-5.60901,0,0,0,0,0,0,0,-1,776,561,-2.57161,5.60901
-441,463,-2.68494,-6.08722,-0.00341155,0.00407862,-0.00352881,0.00547922,-0.00481215,-1.19296,0.00594589,0.0409367,783,561,-2.68491,6.08725
-434,463,-2.86218,-6.547,-0.00349468,0.00220484,-0.00231291,0.00302532,-0.00431516,-1.2299,0.00425978,0.0181108,790,561,-2.86219,6.54697
-427,463,-2.875,-6.91193,-0.00318509,0.00104445,-0.00158417,0.001572,-0.00371264,-1.24933,0.00313341,0.00994238,797,561,-2.87499,6.9119
-420,463,-2.86298,-7.26483,-0.00295576,0.000109411,-0.000914954,0.000361751,-0.0032081,-1.30169,0.00226895,0.0103441,804,561,-2.86296,7.26482
-413,463,-2.87689,-7.62323,-0.0025389,-0.000469436,-0.00054529,-0.000334548,-0.00267379,-1.32829,0.00168214,0.00930563,811,561,-2.87686,7.62321
-406,463,-2.92627,-7.97241,-0.00208755,-0.000859837,-0.000139991,-0.000844077,-0.00210331,-1.45869,0.00122221,0.00936431,818,561,-2.92625,7.97239
-399,463,-2.93188,-8.32776,-0.00174898,-0.00141974,0.000382707,-0.00116775,-0.00200097,0.988509,0.00116063,0.0107272,825,561,-2.9319,8.32773
-392,463,-2.93201,-8.6814,-0.00156034,-0.00207845,0.000988962,-0.000797065,-0.00284172,0.657302,0.00169255,0.0101832,832,561,-2.93202,8.68138
-385,463,-2.93671,-9.03235,-0.00149333,-0.00279061,0.00166187,-0.000358003,-0.00392594,0.599337,0.0025065,0.0113239,839,561,-2.93672,9.03236
-378,463,-2.94391,-9.37762,-0.00155086,-0.00357818,0.002405,4.53766e-05,-0.00517441,0.585955,0.00346483,0.012712,846,561,-2.94392,9.37761
-371,463,-2.94147,-9.7312,-0.00175696,-0.00456068,0.00322467,0.000357387,-0.00667503,0.580357,0.00457381,0.012109,853,561,-2.94145,9.73118
-364,463,-2.8999,-10.0091,-0.00203582,-0.00575864,0.00408387,0.000590845,-0.0083853,0.571567,0.0057972,0.0140343,860,561,-2.89987,10.0091
-357,463,-2.90912,-10.3082,-0.00242549,-0.00740687,0.00493275,0.000609716,-0.0104421,0.551607,0.00717327,0.0172948,867,561,-2.90912,10.3082
-350,463,-2.89453,-10.7081,-0.00305116,-0.00938425,0.0058074,0.000396895,-0.0128323,0.535799,0.00869019,0.0230366,874,561,-2.89454,10.7081
-343,463,-2.72614,-11.0228,0,0,0,0,0,0,0,-1,881,561,-2.72611,11.0228
-336,463,-2.47327,-10.9253,0,0,0,0,0,0,0,-1,888,561,-2.47329,10.9253
-329,463,-2.1991,-11.3721,0,0,0,0,0,0,0,-1,895,561,-2.1991,11.3721
-322,463,-1.82898,-9.11957,0,0,0,0,0,0,0,-1,902,561,-1.829,9.11957
-315,463,-0.944763,-5.96234,0,0,0,0,0,0,0,-1,909,561,-0.94479,5.96237
-308,463,-1.1535,-3.17889,0,0,0,0,0,0,0,-1,916,561,-1.15352,3.17889
-301,463,-1.50366,-3.15338,0,0,0,0,0,0,0,-1,923,561,-1.50364,3.15341
-294,463,-2.35889,-3.93463,0,0,0,0,0,0,0,-1,930,561,-2.35886,3.93465
-287,463,-2.80322,2.73999,0,0,0,0,0,0,0,-1,937,561,-2.80322,-2.74
-280,463,-12.864,5.25146,0,0,0,0,0,0,0,-1,944,561,-12.864,-5.25149
-273,463,-12.4598,3.39178,0,0,0,0,0,0,0,-1,951,561,-12.4598,-3.3918
-266,463,-8.80402,-0.883667,0,0,0,0,0,0,0,-1,958,561,-8.804,0.883639
-259,463,-6.14874,-5.37366,0,0,0,0,0,0,0,-1,965,561,-6.14877,5.37367
-252,463,0,0,0,0,0,0,0,0,0,-1,972,561,0,0
-245,463,0,0,0,0,0,0,0,0,0,-1,979,561,0,0
-238,463,0,0,0,0,0,0,0,0,0,-1,986,561,0,0
-231,463,0,0,0,0,0,0,0,0,0,-1,993,561,0,0
-224,463,0,0,0,0,0,0,0,0,0,-1,1000,561,0,0
-217,463,0,0,0,0,0,0,0,0,0,-1,1007,561,0,0
-210,463,0,0,0,0,0,0,0,0,0,-1,1014,561,0,0
-203,463,0,0,0,0,0,0,0,0,0,-1,1021,561,0,0
-196,463,0,0,0,0,0,0,0,0,0,-1,1028,561,0,0
-189,463,0,0,0,0,0,0,0,0,0,-1,1035,561,0,0
-182,463,0,0,0,0,0,0,0,0,0,-1,1042,561,0,0
-175,463,0,0,0,0,0,0,0,0,0,-1,1049,561,0,0
-168,463,0,0,0,0,0,0,0,0,0,-1,1056,561,0,0
-161,463,0,0,0,0,0,0,0,0,0,-1,1063,561,0,0
-154,463,0,0,0,0,0,0,0,0,0,-1,1070,561,0,0
-147,463,0,0,0,0,0,0,0,0,0,-1,1077,561,0,0
-140,463,0,0,0,0,0,0,0,0,0,-1,1084,561,0,0
-133,463,0,0,0,0,0,0,0,0,0,-1,1091,561,0,0
-126,463,0,0,0,0,0,0,0,0,0,-1,1098,561,0,0
-119,463,0,0,0,0,0,0,0,0,0,-1,1105,561,0,0
-112,463,0,0,0,0,0,0,0,0,0,-1,1112,561,0,0
-105,463,0,0,0,0,0,0,0,0,0,-1,1119,561,0,0
-98,463,0,0,0,0,0,0,0,0,0,-1,1126,561,0,0
-91,463,0,0,0,0,0,0,0,0,0,-1,1133,561,0,0
-84,463,0,0,0,0,0,0,0,0,0,-1,1140,561,0,0
-77,463,0,0,0,0,0,0,0,0,0,-1,1147,561,0,0
-70,463,0,0,0,0,0,0,0,0,0,-1,1154,561,0,0
-63,463,0,0,0,0,0,0,0,0,0,-1,1161,561,0,0
-56,463,0,0,0,0,0,0,0,0,0,-1,1168,561,0,0
-49,463,0,0,0,0,0,0,0,0,0,-1,1175,561,0,0
-42,463,0,0,0,0,0,0,0,0,0,-1,1182,561,0,0
-35,463,0,0,0,0,0,0,0,0,0,-1,1189,561,0,0
-28,463,0,0,0,0,0,0,0,0,0,-1,1196,561,0,0
-21,463,0,0,0,0,0,0,0,0,0,-1,1203,561,0,0
-14,463,0,0,0,0,0,0,0,0,0,-1,1210,561,0,0
-7,463,0,0,0,0,0,0,0,0,0,-1,1217,561,0,0
0,463,0,0,0,0,0,0,0,0,0,-1,1224,561,0,0
7,463,0,0,0,0,0,0,0,0,0,-1,1231,561,0,0
14,463,0,0,0,0,0,0,0,0,0,-1,1238,561,0,0
21,463,0,0,0,0,0,0,0,0,0,-1,1245,561,0,0
28,463,0,0,0,0,0,0,0,0,0,-1,1252,561,0,0
35,463,0,0,0,0,0,0,0,0,0,-1,1259,561,0,0
42,463,0,0,0,0,0,0,0,0,0,-1,1266,561,0,0
49,463,0,0,0,0,0,0,0,0,0,-1,1273,561,0,0
56,463,0,0,0,0,0,0,0,0,0,-1,1280,561,0,0
63,463,0,0,0,0,0,0,0,0,0,-1,1287,561,0,0
70,463,0,0,0,0,0,0,0,0,0,-1,1294,561,0,0
77,463,0,0,0,0,0,0,0,0,0,-1,1301,561,0,0
84,463,0,0,0,0,0,0,0,0,0,-1,1308,561,0,0
91,463,0,0,0,0,0,0,0,0,0,-1,1315,561,0,0
98,463,0,0,0,0,0,0,0,0,0,-1,1322,561,0,0
105,463,0,0,0,0,0,0,0,0,0,-1,1329,561,0,0
112,463,0,0,0,0,0,0,0,0,0,-1,1336,561,0,0
119,463,0,0,0,0,0,0,0,0,0,-1,1343,561,0,0
126,463,0,0,0,0,0,0,0,0,0,-1,1350,561,0,0
133,463,0,0,0,0,0,0,0,0,0,-1,1357,561,0,0
140,463,0,0,0,0,0,0,0,0,0,-1,1364,561,0,0
147,463,0,0,0,0,0,0,0,0,0,-1,1371,561,0,0
154,463,0,0,0,0,0,0,0,0,0,-1,1378,561,0,0
161,463,0,0,0,0,0,0,0,0,0,-1,1385,561,0,0
168,463,0,0,0,0,0,0,0,0,0,-1,1392,561,0,0
175,463,0,0,0,0,0,0,0,0,0,-1,1399,561,0,0
182,463,0,0,0,0,0,0,0,0,0,-1,1406,561,0,0
189,463,0,0,0,0,0,0,0,0,0,-1,1413,561,0,0
196,463,0,0,0,0,0,0,0,0,0,-1,1420,561,0,0
203,463,0,0,0,0,0,0,0,0,0,-1,1427,561,0,0
210,463,0,0,0,0,0,0,0,0,0,-1,1434,561,0,0
217,463,0,0,0,0,0,0,0,0,0,-1,1441,561,0,0
224,463,0,0,0,0,0,0,0,0,0,-1,1448,561,0,0
231,463,0,0,0,0,0,0,0,0,0,-1,1455,561,0,0
238,463,0,0,0,0,0,0,0,0,0,-1,1462,561,0,0
245,463,0,0,0,0,0,0,0,0,0,-1,1469,561,0,0
252,463,0,0,0,0,0,0,0,0,0,-1,1476,561,0,0
259,463,0,0,0,0,0,0,0,0,0,-1,1483,561,0,0
266,463,0,0,0,0,0,0,0,0,0,-1,1490,561,0,0
273,463,0,0,0,0,0,0,0,0,0,-1,1497,561,0,0
280,463,0,0,0,0,0,0,0,0,0,-1,1504,561,0,0
287,463,0,0,0,0,0,0,0,0,0,-1,1511,561,0,0
294,463,0,0,0,0,0,0,0,0,0,-1,1518,561,0,0
301,463,0,0,0,0,0,0,0,0,0,-1,1525,561,0,0
308,463,0,0,0,0,0,0,0,0,0,-1,1532,561,0,0
315,463,0,0,0,0,0,0,0,0,0,-1,1539,561,0,0
322,463,0,0,0,0,0,0,0,0,0,-1,1546,561,0,0
329,463,0,0,0,0,0,0,0,0,0,-1,1553,561,0,0
336,463,0,0,0,0,0,0,0,0,0,-1,1560,561,0,0
343,463,0,0,0,0,0,0,0,0,0,-1,1567,561,0,0
350,463,0,0,0,0,0,0,0,0,0,-1,1574,561,0,0
357,463,0,0,0,0,0,0,0,0,0,-1,1581,561,0,0
364,463,0,0,0,0,0,0,0,0,0,-1,1588,561,0,0
371,463,1.75842,0.152588,0,0,0,0,0,0,0,-1,1595,561,1.75844,-0.152558
378,463,4.58813,-0.0444336,0,0,0,0,0,0,0,-1,1602,561,4.58809,0.0444505
385,463,8.88574,1.65057,0,0,0,0,0,0,0,-1,1609,561,8.88575,-1.65055
392,463,14.0912,2.50513,0,0,0,0,0,0,0,-1,1616,561,14.0912,-2.5051
399,463,21.4769,2.7002,0,0,0,0,0,0,0,-1,1623,561,21.477,-2.70017
406,463,26.2987,4.32318,0,0,0,0,0,0,0,-1,1630,561,26.2987,-4.3232
413,463,26.5011,2.65222,0,0,0,0,0,0,0,-1,1637,561,26.5011,-2.65224
420,463,8.849,2.26611,0,0,0,0,0,0,0,-1,1644,561,8.84899,-2.26613
427,463,5.12207,1.69183,0,0,0,0,0,0,0,-1,1651,561,5.12206,-1.69184
434,463,4.59814,1.81995,0,0,0,0,0,0,0,-1,1658,561,4.59812,-1.81994
441,463,1.76392,-5.99225,0,0,0,0,0,0,0,-1,1665,561,1.7639,5.99225
448,463,2.49939,-4.30536,0,0,0,0,0,0,0,-1,1672,561,2.49941,4.30536
455,463,4.40295,-3.02557,0,0,0,0,0,0,0,-1,1679,561,4.40299,3.02558
462,463,5.38293,-4.06445,0,0,0,0,0,0,0,-1,1686,561,5.38289,4.06444
469,463,5.94373,-4.50647,0,0,0,0,0,0,0,-1,1693,561,5.94368,4.50646
476,463,9.99634,-9.58936,0,0,0,0,0,0,0,-1,1700,561,9.99633,9.58933
483,463,10.0403,-9.19806,0.0044391,0.00273746,0.00218429,0.00593242,0.00124414,0.599679,0.00361237,0.0443724,1707,561,10.0403,9.19807
490,463,10.1833,-8.6701,0.00462982,0.00327276,0.00254775,0.00658784,0.00131473,0.655257,0.00402586,0.0219323,1714,561,10.1833,8.67012
497,463,10.1997,-8.27417,0.00413559,0.0026938,0.00232187,0.0058459,0.000983485,0.634876,0.00361432,0.0133121,1721,561,10.1997,8.2742
504,463,10.2167,-7.93396,0.00341562,0.00227453,0.00205251,0.0049754,0.000714745,0.649834,0.00310622,0.015176,1728,561,10.2167,7.93399
511,463,10.2404,-7.57385,0.00265848,0.00175312,0.00173371,0.00399763,0.00041397,0.657696,0.00253838,0.0213935,1735,561,10.2404,7.57384
518,463,10.2771,-7.18463,0.00189403,0.0013508,0.00144489,0.00309262,0.000152217,0.692491,0.00201292,0.0227796,1742,561,10.2771,7.18466
525,463,10.2277,-6.82275,0.00113909,0.00111593,0.00119777,0.00232533,-7.03153e-05,0.780564,0.00157418,0.0179802,1749,561,10.2276,6.82275
532,463,10.2065,-6.44354,0.000447098,0.00103489,0.00103577,0.00181765,-0.000335663,0.923639,0.00133777,0.015835,1756,561,10.2065,6.44352
539,463,10.1716,-6.04309,-0.000120867,0.000959765,0.000951119,0.00151333,-0.000674429,1.04371,0.00129368,0.016324,1763,561,10.1716,6.0431
546,463,10.1683,-5.68335,-0.000532556,0.00128372,0.00113661,0.00183044,-0.00107927,1.12246,0.00169848,0.0130434,1770,561,10.1684,5.68336
553,463,10.1688,-5.28827,-0.00089847,0.00163265,0.00132867,0.00220203,-0.00146785,1.16594,0.00213289,0.0108665,1777,561,10.1688,5.28827
560,463,10.1786,-4.84991,-0.00114972,0.0020802,0.00166629,0.00278571,-0.00185524,1.17028,0.00269734,0.0134882,1784,561,10.1786,4.84991
567,463,10.0964,-4.48596,-0.0012788,0.00262168,0.0021821,0.00359804,-0.00225516,1.15007,0.00340886,0.0204853,1791,561,10.0964,4.48595
574,463,9.90466,-4.25861,0,0,0,0,0,0,0,-1,1798,561,9.90464,4.25862
581,463,7.77832,-2.18085,0,0,0,0,0,0,0,-1,1805,561,7.77828,2.18082
588,463,1.97424,2.16016,0,0,0,0,0,0,0,-1,1812,561,1.97422,-2.16013
595,463,9.98657,2.99854,0,0,0,0,0,0,0,-1,1819,561,9.98662,-2.99856
602,463,17.2202,4.91302,0,0,0,0,0,0,0,-1,1826,561,17.2202,-4.91305
609,463,17.96,4.03131,0,0,0,0,0,0,0,-1,1833,561,17.96,-4.03132
616,463,20.8352,3.15131,0,0,0,0,0,0,0,-1,1840,561,20.8352,-3.1513
623,463,0,0,0,0,0,0,0,0,0,-1,1847,561,0,0
630,463,0,0,0,0,0,0,0,0,0,-1,1854,561,0,0
637,463,0,0,0,0,0,0,0,0,0,-1,1861,561,0,0
644,463,0,0,0,0,0,0,0,0,0,-1,1868,561,0,0
651,463,0,0,0,0,0,0,0,0,0,-1,1875,561,0,0
658,463,0,0,0,0,0,0,0,0,0,-1,1882,561,0,0
665,463,0,0,0,0,0,0,0,0,0,-1,1889,561,0,0
672,463,0,0,0,0,0,0,0,0,0,-1,1896,561,0,0
679,463,0,0,0,0,0,0,0,0,0,-1,1903,561,0,0
686,463,0,0,0,0,0,0,0,0,0,-1,1910,561,0,0
693,463,0,0,0,0,0,0,0,0,0,-1,1917,561,0,0
700,463,0,0,0,0,0,0,0,0,0,-1,1924,561,0,0
707,463,0,0,0,0,0,0,0,0,0,-1,1931,561,0,0
714,463,0,0,0,0,0,0,0,0,0,-1,1938,561,0,0
721,463,0,0,0,0,0,0,0,0,0,-1,1945,561,0,0
728,463,0,0,0,0,0,0,0,0,0,-1,1952,561,0,0
735,463,0,0,0,0,0,0,0,0,0,-1,1959,561,0,0
742,463,0,0,0,0,0,0,0,0,0,-1,1966,561,0,0
749,463,0,0,0,0,0,0,0,0,0,-1,1973,561,0,0
756,463,0,0,0,0,0,0,0,0,0,-1,1980,561,0,0
763,463,0,0,0,0,0,0,0,0,0,-1,1987,561,0,0
770,463,0,0,0,0,0,0,0,0,0,-1,1994,561,0,0
777,463,0,0,0,0,0,0,0,0,0,-1,2001,561,0,0
784,463,0,0,0,0,0,0,0,0,0,-1,2008,561,0,0
791,463,0,0,0,0,0,0,0,0,0,-1,2015,561,0,0
798,463,0,0,0,0,0,0,0,0,0,-1,2022,561,0,0
805,463,0,0,0,0,0,0,0,0,0,-1,2029,561,0,0
812,463,0,0,0,0,0,0,0,0,0,-1,2036,561,0,0
-700,456,0,0,0,0,0,0,0,0,0,-1,524,568,0,0
-693,456,0,0,0,0,0,0,0,0,0,-1,531,568,0,0
-686,456,0,0,0,0,0,0,0,0,0,-1,538,568,0,0
-679,456,0,0,0,0,0,0,0,0,0,-1,545,568,0,0
-672,456,0,0,0,0,0,0,0,0,0,-1,552,568,0,0
-665,456,0,0,0,0,0,0,0,0,0,-1,559,568,0,0
-658,456,0,0,0,0,0,0,0,0,0,-1,566,568,0,0
-651,456,0,0,0,0,0,0,0,0,0,-1,573,568,0,0
-644,456,0,0,0,0,0,0,0,0,0,-1,580,568,0,0
-637,456,0,0,0,0,0,0,0,0,0,-1,587,568,0,0
-630,456,0,0,0,0,0,0,0,0,0,-1,594,568,0,0
-623,456,0,0,0,0,0,0,0,0,0,-1,601,568,0,0
-616,456,0,0,0,0,0,0,0,0,0,-1,608,568,0,0
-609,456,0,0,0,0,0,0,0,0,0,-1,615,568,0,0
-602,456,0,0,0,0,0,0,0,0,0,-1,622,568,0,0
-595,456,0,0,0,0,0,0,0,0,0,-1,629,568,0,0
-588,456,0,0,0,0,0,0,0,0,0,-1,636,568,0,0
-581,456,0,0,0,0,0,0,0,0,0,-1,643,568,0,0
-574,456,0,0,0,0,0,0,0,0,0,-1,650,568,0,0
-567,456,0,0,0,0,0,0,0,0,0,-1,657,568,0,0
-560,456,0,0,0,0,0,0,0,0,0,-1,664,568,0,0
-553,456,0,0,0,0,0,0,0,0,0,-1,671,568,0,0
-546,456,0,0,0,0,0,0,0,0,0,-1,678,568,0,0
-539,456,0,0,0,0,0,0,0,0,0,-1,685,568,0,0
-532,456,0,0,0,0,0,0,0,0,0,-1,692,568,0,0
-525,456,0,0,0,0,0,0,0,0,0,-1,699,568,0,0
-518,456,0,0,0,0,0,0,0,0,0,-1,706,568,0,0
-511,456,0,0,0,0,0,0,0,0,0,-1,713,568,0,0
-504,456,-10.3994,-2.34839,0,0,0,0,0,0,0,-1,720,568,-10.3994,2.3484
-497,456,-9.21375,-2.38068,0,0,0,0,0,0,0,-1,727,568,-9.21372,2.38069
-490,456,-8.09058,-2.31824,0,0,0,0,0,0,0,-1,734,568,-8.09057,2.31821
-483,456,-6.66119,-2.24329,0,0,0,0,0,0,0,-1,741,568,-6.66121,2.24331
-476,456,-5.1499,-2.21185,0,0,0,0,0,0,0,-1,748,568,-5.14992,2.21184
-469,456,-2.81238,-3.51501,0,0,0,0,0,0,0,-1,755,568,-2.81237,3.51501
-462,456,-2.91895,-4.18488,0,0,0,0,0,0,0,-1,762,568,-2.91892,4.18488
-455,456,-2.92542,-4.79663,0,0,0,0,0,0,0,-1,769,568,-2.92543,4.79664
-448,456,-3.00024,-5.51141,-0.000630185,0.00764907,-0.0051904,0.0101485,-0.00312959,-1.12202,0.00801516,0.0430982,776,568,-3.00024,5.51142
-441,456,-3.18005,-6.17487,-0.00136351,0.00554623,-0.00363592,0.00710694,-0.00292422,-1.16533,0.00595696,0.0215029,783,568,-3.18004,6.17487
-434,456,-3.2309,-6.55743,-0.00176551,0.00361787,-0.00237694,0.00451715,-0.00266479,-1.20911,0.00419221,0.0116283,790,568,-3.23089,6.55743
-427,456,-3.22314,-6.90277,-0.00178761,0.00235044,-0.00154624,0.00286438,-0.00230156,-1.2499,0.00298845,0.00878646,797,568,-3.22316,6.90276
-420,456,-3.22937,-7.26141,-0.00192936,0.00117847,-0.000700372,0.00132901,-0.00207991,-1.35907,0.00198399,0.0101582,804,568,-3.2294,7.26142
-413,456,-3.24652,-7.62402,-0.00189477,0.000252066,-0.000118394,0.000258576,-0.00190128,-1.51587,0.00136192,0.00909893,811,568,-3.24653,7.62404
-406,456,-3.28174,-7.9657,-0.00174417,-0.000472394,0.000428823,-0.000341313,-0.00187526,1.27414,0.00115336,0.00884222,818,568,-3.28172,7.96568
-399,456,-3.28827,-8.30743,-0.00168617,-0.00145175,0.0011232,-0.000439661,-0.00269825,0.837386,0.00167167,0.0105775,825,568,-3.28829,8.30746
-392,456,-3.27502,-8.65668,-0.00182198,-0.00250964,0.00191493,-0.000220262,-0.00411136,0.696569,0.00267051,0.0103497,832,568,-3.27499,8.65665
-385,456,-3.26953,-9.00043,-0.00211391,-0.00367587,0.00280879,2.04567e-05,-0.00581024,0.649798,0.00388033,0.0104843,839,568,-3.26956,9.00044
-378,456,-3.2865,-9.34576,-0.00256531,-0.004977,0.00384302,0.000256611,-0.00779892,0.633375,0.00528689,0.0111945,846,568,-3.28651,9.34578
-371,456,-3.28339,-9.70178,-0.00316498,-0.00652342,0.00500738,0.000437242,-0.0101256,0.623616,0.00690079,0.0119695,853,568,-3.2834,9.70176
-364,456,-3.24323,-10.0187,-0.00382056,-0.00833588,0.0062365,0.000554344,-0.0127108,0.611732,0.00866455,0.0161534,860,568,-3.24321,10.0187
-357,456,-3.34381,-10.2643,0,0,0,0,0,0,0,-1,867,568,-3.34382,10.2643
-350,456,-2.96008,-10.3374,-0.00563986,-0.0132987,0.00878105,0.000110467,-0.019049,0.579781,0.0127363,0.0488871,874,568,-2.96011,10.3374
-343,456,-2.797,-9.88635,0,0,0,0,0,0,0,-1,881,568,-2.79699,9.88633
-336,456,-2.42828,-9.42413,0,0,0,0,0,0,0,-1,888,568,-2.42827,9.42415
-329,456,-1.06183,-10.7184,0,0,0,0,0,0,0,-1,895,568,-1.06184,10.7184
-322,456,-0.662537,-7.66632,0,0,0,0,0,0,0,-1,902,568,-0.662564,7.66633
-315,456,-0.675476,-3.38397,0,0,0,0,0,0,0,-1,909,568,-0.675473,3.38399
-308,456,-1.1618,-3.15314,0,0,0,0,0,0,0,-1,916,568,-1.16178,3.15314
-301,456,-1.83551,-3.26447,0,0,0,0,0,0,0,-1,923,568,-1.8355,3.26449
-294,456,-2.93414,-3.35449,0,0,0,0,0,0,0,-1,930,568,-2.93413,3.35451
-287,456,-3.7569,-3.53101,0,0,0,0,0,0,0,-1,937,568,-3.75692,3.53101
-280,456,-13.072,4.52856,0,0,0,0,0,0,0,-1,944,568,-13.072,-4.52855
-273,456,-9.20386,0.0843506,0,0,0,0,0,0,0,-1,951,568,-9.20388,-0.0843452
-266,456,-5.58484,-2.96448,0,0,0,0,0,0,0,-1,958,568,-5.58485,2.96451
-259,456,0,0,0,0,0,0,0,0,0,-1,965,568,0,0
-252,456,0,0,0,0,0,0,0,0,0,-1,972,568,0,0
-245,456,0,0,0,0,0,0,0,0,0,-1,979,568,0,0
-238,456,0,0,0,0,0,0,0,0,0,-1,986,568,0,0
-231,456,0,0,0,0,0,0,0,0,0,-1,993,568,0,0
-224,456,0,0,0,0,0,0,0,0,0,-1,1000,568,0,0
-217,456,0,0,0,0,0,0,0,0,0,-1,1007,568,0,0
-210,456,0,0,0,0,0,0,0,0,0,-1,1014,568,0,0
-203,456,0,0,0,0,0,0,0,0,0,-1,1021,568,0,0
-196,456,0,0,0,0,0,0,0,0,0,-1,1028,568,0,0
-189,456,0,0,0,0,0,0,0,0,0,-1,1035,568,0,0
-182,456,0,0,0,0,0,0,0,0,0,-1,1042,568,0,0
-175,456,0,0,0,0,0,0,0,0,0,-1,1049,568,0,0
-168,456,0,0,0,0,0,0,0,0,0,-1,1056,568,0,0
-161,456,0,0,0,0,0,0,0,0,0,-1,1063,568,0,0
-154,456,0,0,0,0,0,0,0,0,0,-1,1070,568,0,0
-147,456,0,0,0,0,0,0,0,0,0,-1,1077,568,0,0
-140,456,0,0,0,0,0,0,0,0,0,-1,1084,568,0,0
-133,456,0,0,0,0,0,0,0,0,0,-1,1091,568,0,0
-126,456,0,0,0,0,0,0,0,0,0,-1,1098,568,0,0
-119,456,0,0,0,0,0,0,0,0,0,-1,1105,568,0,0
-112,456,0,0,0,0,0,0,0,0,0,-1,1112,568,0,0
-105,456,0,0,0,0,0,0,0,0,0,-1,1119,568,0,0
-98,456,0,0,0,0,0,0,0,0,0,-1,1126,568,0,0
-91,456,0,0,0,0,0,0,0,0,0,-1,1133,568,0,0
-84,456,0,0,0,0,0,0,0,0,0,-1,1140,568,0,0
-77,456,0,0,0,0,0,0,0,0,0,-1,1147,568,0,0
-70,456,0,0,0,0,0,0,0,0,0,-1,1154,568,0,0
-63,456,0,0,0,0,0,0,0,0,0,-1,1161,568,0,0
-56,456,0,0,0,0,0,0,0,0,0,-1,1168,568,0,0
-49,456,0,0,0,0,0,0,0,0,0,-1,1175,568,0,0
-42,456,0,0,0,0,0,0,0,0,0,-1,1182,568,0,0
-35,456,0,0,0,0,0,0,0,0,0,-1,1189,568,0,0
-28,456,0,0,0,0,0,0,0,0,0,-1,1196,568,0,0
-21,456,0,0,0,0,0,0,0,0,0,-1,1203,568,0,0
-14,456,0,0,0,0,0,0,0,0,0,-1,1210,568,0,0
-7,456,0,0,0,0,0,0,0,0,0,-1,1217,568,0,0
0,456,0,0,0,0,0,0,0,0,0,-1,1224,568,0,0
7,456,0,0,0,0,0,0,0,0,0,-1,1231,568,0,0
14,456,0,0,0,0,0,0,0,0,0,-1,1238,568,0,0
21,456,0,0,0,0,0,0,0,0,0,-1,1245,568,0,0
28,456,0,0,0,0,0,0,0,0,0,-1,1252,568,0,0
35,456,0,0,0,0,0,0,0,0,0,-1,1259,568,0,0
42,456,0,0,0,0,0,0,0,0,0,-1,1266,568,0,0
49,456,0,0,0,0,0,0,0,0,0,-1,1273,568,0,0
56,456,0,0,0,0,0,0,0,0,0,-1,1280,568,0,0
63,456,0,0,0,0,0,0,0,0,0,-1,1287,568,0,0
70,456,0,0,0,0,0,0,0,0,0,-1,1294,568,0,0
77,456,0,0,0,0,0,0,0,0,0,-1,1301,568,0,0
84,456,0,0,0,0,0,0,0,0,0,-1,1308,568,0,0
91,456,0,0,0,0,0,0,0,0,0,-1,1315,568,0,0
98,456,0,0,0,0,0,0,0,0,0,-1,1322,568,0,0
105,456,0,0,0,0,0,0,0,0,0,-1,1329,568,0,0
112,456,0,0,0,0,0,0,0,0,0,-1,1336,568,0,0
119,456,0,0,0,0,0,0,0,0,0,-1,1343,568,0,0
126,456,0,0,0,0,0,0,0,0,0,-1,1350,568,0,0
133,456,0,0,0,0,0,0,0,0,0,-1,1357,568,0,0
140,456,0,0,0,0,0,0,0,0,0,-1,1364,568,0,0
147,456,0,0,0,0,0,0,0,0,0,-1,1371,568,0,0
154,456,0,0,0,0,0,0,0,0,0,-1,1378,568,0,0
161,456,0,0,0,0,0,0,0,0,0,-1,1385,568,0,0
168,456,0,0,0,0,0,0,0,0,0,-1,1392,568,0,0
175,456,0,0,0,0,0,0,0,0,0,-1,1399,568,0,0
182,456,0,0,0,0,0,0,0,0,0,-1,1406,568,0,0
189,456,0,0,0,0,0,0,0,0,0,-1,1413,568,0,0
196,456,0,0,0,0,0,0,0,0,0,-1,1420,568,0,0
203,456,0,0,0,0,0,0,0,0,0,-1,1427,568,0,0
210,456,0,0,0,0,0,0,0,0,0,-1,1434,568,0,0
217,456,0,0,0,0,0,0,0,0,0,-1,1441,568,0,0
224,456,0,0,0,0,0,0,0,0,0,-1,1448,568,0,0
231,456,0,0,0,0,0,0,0,0,0,-1,1455,568,0,0
238,456,0,0,0,0,0,0,0,0,0,-1,1462,568,0,0
245,456,0,0,0,0,0,0,0,0,0,-1,1469,568,0,0
252,456,0,0,0,0,0,0,0,0,0,-1,1476,568,0,0
259,456,0,0,0,0,0,0,0,0,0,-1,1483,568,0,0
266,456,0,0,0,0,0,0,0,0,0,-1,1490,568,0,0
273,456,0,0,0,0,0,0,0,0,0,-1,1497,568,0,0
280,456,0,0,0,0,0,0,0,0,0,-1,1504,568,0,0
287,456,0,0,0,0,0,0,0,0,0,-1,1511,568,0,0
294,456,0,0,0,0,0,0,0,0,0,-1,1518,568,0,0
301,456,0,0,0,0,0,0,0,0,0,-1,1525,568,0,0
308,456,0,0,0,0,0,0,0,0,0,-1,1532,568,0,0
315,456,0,0,0,0,0,0,0,0,0,-1,1539,568,0,0
322,456,0,0,0,0,0,0,0,0,0,-1,1546,568,0,0
329,456,0,0,0,0,0,0,0,0,0,-1,1553,568,0,0
336,456,0,0,0,0,0,0,0,0,0,-1,1560,568,0,0
343,456,0,0,0,0,0,0,0,0,0,-1,1567,568,0,0
350,456,0,0,0,0,0,0,0,0,0,-1,1574,568,0,0
357,456,0,0,0,0,0,0,0,0,0,-1,1581,568,0,0
364,456,0,0,0,0,0,0,0,0,0,-1,1588,568,0,0
371,456,0,0,0,0,0,0,0,0,0,-1,1595,568,0,0
378,456,0,0,0,0,0,0,0,0,0,-1,1602,568,0,0
385,456,5.66284,0.660645,0,0,0,0,0,0,0,-1,1609,568,5.66285,-0.660615
392,456,16.7321,4.45581,0,0,0,0,0,0,0,-1,1616,568,16.732,-4.45581
399,456,24.1917,5.99652,0,0,0,0,0,0,0,-1,1623,568,24.1916,-5.99651
406,456,24.446,4.53003,0,0,0,0,0,0,0,-1,1630,568,24.446,-4.53005
413,456,24.9418,2.90521,0,0,0,0,0,0,0,-1,1637,568,24.9418,-2.90524
420,456,25.3048,1.04712,0,0,0,0,0,0,0,-1,1644,568,25.3048,-1.04713
427,456,6.21375,2.02905,0,0,0,0,0,0,0,-1,1651,568,6.21372,-2.02904
434,456,3.0719,-4.86285,0,0,0,0,0,0,0,-1,1658,568,3.07184,4.86287
441,456,2.90344,-4.70459,0,0,0,0,0,0,0,-1,1665,568,2.90346,4.7046
448,456,3.06995,-4.93689,0,0,0,0,0,0,0,-1,1672,568,3.06991,4.93687
455,456,3.46582,-3.43701,0,0,0,0,0,0,0,-1,1679,568,3.46585,3.43698
462,456,4.68445,-4.45831,0,0,0,0,0,0,0,-1,1686,568,4.68439,4.45833
469,456,4.93201,-2.289,0,0,0,0,0,0,0,-1,1693,568,4.93197,2.28903
476,456,4.8363,-2.79364,0,0,0,0,0,0,0,-1,1700,568,4.83636,2.79363
483,456,10.0607,-9.63898,0,0,0,0,0,0,0,-1,1707,568,10.0607,9.63896
490,456,10.6227,-8.88245,0,0,0,0,0,0,0,-1,1714,568,10.6227,8.88244
497,456,10.5876,-8.33478,0.00553139,0.00337794,0.00325108,0.00787941,0.00102992,0.625488,0.00494551,0.039902,1721,568,10.5877,8.33479
504,456,10.5446,-7.90271,0.00456716,0.0027793,0.0027535,0.0065682,0.00077826,0.62844,0.00414381,0.0112894,1728,568,10.5445,7.90269
511,456,10.5837,-7.54767,0.00365979,0.00207541,0.00226173,0.00526405,0.000471144,0.616946,0.00336334,0.0130403,1735,568,10.5838,7.54766
518,456,10.6012,-7.18494,0.00282213,0.00156987,0.00186175,0.00416022,0.000231788,0.623183,0.00269953,0.0157447,1742,568,10.6012,7.18492
525,456,10.5707,-6.83362,0.0019953,0.00127583,0.00152231,0.0031998,7.13286e-05,0.669372,0.00210982,0.0155708,1749,568,10.5707,6.83362
532,456,10.5608,-6.42664,0.00123921,0.00109418,0.00125869,0.00242747,-9.40833e-05,0.756623,0.00165057,0.0154159,1756,568,10.5608,6.42666
539,456,10.5549,-6.01715,0.000598814,0.000879123,0.0010508,0.00179908,-0.000321141,0.851696,0.00131952,0.017897,1763,568,10.5549,6.01715
546,456,10.5342,-5.65906,0.000122115,0.00107026,0.00112157,0.00181384,-0.000621464,0.985352,0.00146112,0.0199621,1770,568,10.5342,5.65908
553,456,10.5176,-5.26031,-0.000309372,0.00126721,0.00120514,0.00191898,-0.000961139,1.07503,0.00169321,0.013677,1777,568,10.5176,5.26033
560,456,10.5311,-4.88422,-0.000665749,0.0015596,0.00142269,0.00225306,-0.0013592,1.11726,0.00210671,0.0102436,1784,568,10.5312,4.88421
567,456,10.5417,-4.48224,-0.000913385,0.00197424,0.00182758,0.00285951,-0.00179865,1.11971,0.00271254,0.0152935,1791,568,10.5417,4.48225
574,456,10.4943,-4.26074,-0.00123935,0.00253207,0.00235087,0.00366008,-0.00236736,1.12342,0.00350652,0.0449833,1798,568,10.4943,4.26071
581,456,10.5306,-3.99683,0,0,0,0,0,0,0,-1,1805,568,10.5307,3.99682
588,456,5.23901,-0.0901489,0,0,0,0,0,0,0,-1,1812,568,5.23906,0.0901656
595,456,6.90063,3.14886,0,0,0,0,0,0,0,-1,1819,568,6.90066,-3.14887
602,456,16.894,4.10938,0,0,0,0,0,0,0,-1,1826,568,16.8941,-4.1094
609,456,14.9966,3.5708,0,0,0,0,0,0,0,-1,1833,568,14.9966,-3.57083
616,456,17.7407,2.6579,0,0,0,0,0,0,0,-1,1840,568,17.7408,-2.6579
623,456,20.6838,1.7121,0,0,0,0,0,0,0,-1,1847,568,20.6838,-1.71208
630,456,0,0,0,0,0,0,0,0,0,-1,1854,568,0,0
637,456,0,0,0,0,0,0,0,0,0,-1,1861,568,0,0
644,456,0,0,0,0,0,0,0,0,0,-1,1868,568,0,0
651,456,0,0,0,0,0,0,0,0,0,-1,1875,568,0,0
658,456,0,0,0,0,0,0,0,0,0,-1,1882,568,0,0
665,456,0,0,0,0,0,0,0,0,0,-1,1889,568,0,0
672,456,0,0,0,0,0,0,0,0,0,-1,1896,568,0,0
679,456,0,0,0,0,0,0,0,0,0,-1,1903,568,0,0
686,456,0,0,0,0,0,0,0,0,0,-1,1910,568,0,0
693,456,0,0,0,0,0,0,0,0,0,-1,1917,568,0,0
700,456,0,0,0,0,0,0,0,0,0,-1,1924,568,0,0
707,456,0,0,0,0,0,0,0,0,0,-1,1931,568,0,0
714,456,0,0,0,0,0,0,0,0,0,-1,1938,568,0,0
721,456,0,0,0,0,0,0,0,0,0,-1,1945,568,0,0
728,456,0,0,0,0,0,0,0,0,0,-1,1952,568,0,0
735,456,0,0,0,0,0,0,0,0,0,-1,1959,568,0,0
742,456,0,0,0,0,0,0,0,0,0,-1,1966,568,0,0
749,456,0,0,0,0,0,0,0,0,0,-1,1973,568,0,0
756,456,0,0,0,0,0,0,0,0,0,-1,1980,568,0,0
763,456,0,0,0,0,0,0,0,0,0,-1,1987,568,0,0
770,456,0,0,0,0,0,0,0,0,0,-1,1994,568,0,0
777,456,0,0,0,0,0,0,0,0,0,-1,2001,568,0,0
784,456,0,0,0,0,0,0,0,0,0,-1,2008,568,0,0
791,456,0,0,0,0,0,0,0,0,0,-1,2015,568,0,0
798,456,0,0,0,0,0,0,0,0,0,-1,2022,568,0,0
805,456,0,0,0,0,0,0,0,0,0,-1,2029,568,0,0
812,456,0,0,0,0,0,0,0,0,0,-1,2036,568,0,0
-700,449,0,0,0,0,0,0,0,0,0,-1,524,575,0,0
-693,449,0,0,0,0,0,0,0,0,0,-1,531,575,0,0
-686,449,0,0,0,0,0,0,0,0,0,-1,538,575,0,0
-679,449,0,0,0,0,0,0,0,0,0,-1,545,575,0,0
-672,449,0,0,0,0,0,0,0,0,0,-1,552,575,0,0
-665,449,0,0,0,0,0,0,0,0,0,-1,559,575,0,0
-658,449,0,0,0,0,0,0,0,0,0,-1,566,575,0,0
-651,449,0,0,0,0,0,0,0,0,0,-1,573,575,0,0
-644,449,0,0,0,0,0,0,0,0,0,-1,580,575,0,0
-637,449,0,0,0,0,0,0,0,0,0,-1,587,575,0,0
-630,449,0,0,0,0,0,0,0,0,0,-1,594,575,0,0
-623,449,0,0,0,0,0,0,0,0,0,-1,601,575,0,0
-616,449,0,0,0,0,0,0,0,0,0,-1,608,575,0,0
-609,449,0,0,0,0,0,0,0,0,0,-1,615,575,0,0
-602,449,0,0,0,0,0,0,0,0,0,-1,622,575,0,0
-595,449,0,0,0,0,0,0,0,0,0,-1,629,575,0,0
-588,449,0,0,0,0,0,0,0,0,0,-1,636,575,0,0
-581,449,0,0,0,0,0,0,0,0,0,-1,643,575,0,0
-574,449,0,0,0,0,0,0,0,0,0,-1,650,575,0,0
-567,449,0,0,0,0,0,0,0,0,0,-1,657,575,0,0
-560,449,0,0,0,0,0,0,0,0,0,-1,664,575,0,0
-553,449,0,0,0,0,0,0,0,0,0,-1,671,575,0,0
-546,449,0,0,0,0,0,0,0,0,0,-1,678,575,0,0
-539,449,0,0,0,0,0,0,0,0,0,-1,685,575,0,0
-532,449,0,0,0,0,0,0,0,0,0,-1,692,575,0,0
-525,449,0,0,0,0,0,0,0,0,0,-1,699,575,0,0
-518,449,0,0,0,0,0,0,0,0,0,-1,706,575,0,0
-511,449,-0.941345,-4.4519,0,0,0,0,0,0,0,-1,713,575,-0.941356,4.45191
-504,449,-14.1078,0.318237,0,0,0,0,0,0,0,-1,720,575,-14.1078,-0.318231
-497,449,-8.61292,-3.09009,0,0,0,0,0,0,0,-1,727,575,-8.61291,3.09011
-490,449,-7.50995,-2.96252,0,0,0,0,0,0,0,-1,734,575,-7.50995,2.96251
-483,449,-5.77789,-2.50061,0,0,0,0,0,0,0,-1,741,575,-5.77792,2.50059
-476,449,-4.1723,-2.07739,0,0,0,0,0,0,0,-1,748,575,-4.17228,2.0774
-469,449,-4.13055,-3.68597,0,0,0,0,0,0,0,-1,755,575,-4.13058,3.686
-462,449,-3.61005,-5.20459,0,0,0,0,0,0,0,-1,762,575,-3.61005,5.2046
-455,449,-3.73291,-5.30908,0,0,0,0,0,0,0,-1,769,575,-3.73293,5.30911
-448,449,-3.56024,-5.7674,0.00112395,0.00741509,-0.00498651,0.0101653,-0.00162623,-1.06678,0.0073789,0.0301803,776,575,-3.56022,5.76742
-441,449,-3.56152,-6.21265,0.000162294,0.00562526,-0.00348749,0.00732362,-0.00153607,-1.11761,0.00546685,0.0165396,783,575,-3.56153,6.21264
-434,449,-3.60187,-6.54285,-0.000505671,0.00382717,-0.0021813,0.00473507,-0.00141357,-1.17639,0.00371857,0.0126529,790,575,-3.60189,6.54287
-427,449,-3.5979,-6.88477,-0.000832411,0.00258928,-0.00125491,0.00300017,-0.00124331,-1.25437,0.00251899,0.0130807,797,575,-3.59788,6.88477
-420,449,-3.58899,-7.25616,-0.00132416,0.00133011,-0.000251675,0.00135376,-0.00134781,-1.47709,0.00155976,0.0139389,804,575,-3.58901,7.25613
-413,449,-3.59314,-7.61536,-0.00167121,0.000187563,0.000539378,0.000332741,-0.00181638,1.30787,0.00133572,0.0109543,811,575,-3.59312,7.61538
-406,449,-3.61877,-7.96289,-0.00184662,-0.000773386,0.00123813,3.94171e-05,-0.00265942,0.989883,0.00178623,0.00957352,818,575,-3.61877,7.96287
-399,449,-3.63617,-8.31146,-0.00210523,-0.0020876,0.00211378,1.73803e-05,-0.00421021,0.787483,0.00281262,0.00936852,825,575,-3.63617,8.31143
-392,449,-3.62097,-8.65741,-0.00261728,-0.00348372,0.00310896,8.84945e-05,-0.0061895,0.716171,0.00415615,0.0105278,832,575,-3.62095,8.65738
-385,449,-3.60858,-8.99792,-0.00334758,-0.0050923,0.00425336,0.000121956,-0.00856184,0.684252,0.00574898,0.0111013,839,575,-3.60861,8.99795
-378,449,-3.62268,-9.33698,-0.00430537,-0.00694827,0.00563377,0.000159851,-0.0114135,0.670201,0.00766284,0.00988313,846,575,-3.62268,9.33698
-371,449,-3.62195,-9.67609,-0.00544453,-0.00915406,0.00723081,0.000165608,-0.0147642,0.659851,0.00989846,0.0108348,853,575,-3.62194,9.67611
-364,449,-3.61798,-10.0209,-0.00666379,-0.0117472,0.00895826,0.000106364,-0.0185174,0.647167,0.0123805,0.0256969,860,575,-3.61795,10.0209
-357,449,-3.62006,-10.4155,0,0,0,0,0,0,0,-1,867,575,-3.62006,10.4155
-350,449,-2.8764,-9.90204,0,0,0,0,0,0,0,-1,874,575,-2.87638,9.90203
-343,449,-2.98492,-9.2254,0,0,0,0,0,0,0,-1,881,575,-2.98491,9.22541
-336,449,-1.29523,-9.54626,0,0,0,0,0,0,0,-1,888,575,-1.29525,9.54626
-329,449,-0.733398,-7.78937,0,0,0,0,0,0,0,-1,895,575,-0.733398,7.78937
-322,449,-0.628845,-3.16669,0,0,0,0,0,0,0,-1,902,575,-0.628861,3.16667
-315,449,-0.540344,-3.21918,0,0,0,0,0,0,0,-1,909,575,-0.540336,3.21917
-308,449,-1.04413,-2.99341,0,0,0,0,0,0,0,-1,916,575,-1.04415,2.99338
-301,449,-1.58691,-2.80725,0,0,0,0,0,0,0,-1,923,575,-1.58692,2.80728
-294,449,-3.71118,-2.76086,0,0,0,0,0,0,0,-1,930,575,-3.71119,2.76087
-287,449,-4.4082,-2.69525,0,0,0,0,0,0,0,-1,937,575,-4.40822,2.69526
-280,449,-4.68903,-4.4364,0,0,0,0,0,0,0,-1,944,575,-4.68901,4.4364
-273,449,0,0,0,0,0,0,0,0,0,-1,951,575,0,0
-266,449,0,0,0,0,0,0,0,0,0,-1,958,575,0,0
-259,449,0,0,0,0,0,0,0,0,0,-1,965,575,0,0
-252,449,0,0,0,0,0,0,0,0,0,-1,972,575,0,0
-245,449,0,0,0,0,0,0,0,0,0,-1,979,575,0,0
-238,449,0,0,0,0,0,0,0,0,0,-1,986,575,0,0
-231,449,0,0,0,0,0,0,0,0,0,-1,993,575,0,0
-224,449,0,0,0,0,0,0,0,0,0,-1,1000,575,0,0
-217,449,0,0,0,0,0,0,0,0,0,-1,1007,575,0,0
-210,449,0,0,0,0,0,0,0,0,0,-1,1014,575,0,0
-203,449,0,0,0,0,0,0,0,0,0,-1,1021,575,0,0
-196,449,0,0,0,0,0,0,0,0,0,-1,1028,575,0,0
-189,449,0,0,0,0,0,0,0,0,0,-1,1035,575,0,0
-182,449,0,0,0,0,0,0,0,0,0,-1,1042,575,0,0
-175,449,0,0,0,0,0,0,0,0,0,-1,1049,575,0,0
-168,449,0,0,0,0,0,0,0,0,0,-1,1056,575,0,0
-161,449,0,0,0,0,0,0,0,0,0,-1,1063,575,0,0
-154,449,0,0,0,0,0,0,0,0,0,-1,1070,575,0,0
-147,449,0,0,0,0,0,0,0,0,0,-1,1077,575,0,0
-140,449,0,0,0,0,0,0,0,0,0,-1,1084,575,0,0
-133,449,0,0,0,0,0,0,0,0,0,-1,1091,575,0,0
-126,449,0,0,0,0,0,0,0,0,0,-1,1098,575,0,0
-119,449,0,0,0,0,0,0,0,0,0,-1,1105,575,0,0
-112,449,0,0,0,0,0,0,0,0,0,-1,1112,575,0,0
-105,449,0,0,0,0,0,0,0,0,0,-1,1119,575,0,0
-98,449,0,0,0,0,0,0,0,0,0,-1,1126,575,0,0
-91,449,0,0,0,0,0,0,0,0,0,-1,1133,575,0,0
-84,449,0,0,0,0,0,0,0,0,0,-1,1140,575,0,0
-77,449,0,0,0,0,0,0,0,0,0,-1,1147,575,0,0
-70,449,0,0,0,0,0,0,0,0,0,-1,1154,575,0,0
-63,449,0,0,0,0,0,0,0,0,0,-1,1161,575,0,0
-56,449,0,0,0,0,0,0,0,0,0,-1,1168,575,0,0
-49,449,0,0,0,0,0,0,0,0,0,-1,1175,575,0,0
-42,449,0,0,0,0,0,0,0,0,0,-1,1182,575,0,0
-35,449,0,0,0,0,0,0,0,0,0,-1,1189,575,0,0
-28,449,0,0,0,0,0,0,0,0,0,-1,1196,575,0,0
-21,449,0,0,0,0,0,0,0,0,0,-1,1203,575,0,0
-14,449,0,0,0,0,0,0,0,0,0,-1,1210,575,0,0
-7,449,0,0,0,0,0,0,0,0,0,-1,1217,575,0,0
0,449,0,0,0,0,0,0,0,0,0,-1,1224,575,0,0
7,449,0,0,0,0,0,0,0,0,0,-1,1231,575,0,0
14,449,0,0,0,0,0,0,0,0,0,-1,1238,575,0,0
21,449,0,0,0,0,0,0,0,0,0,-1,1245,575,0,0
28,449,0,0,0,0,0,0,0,0,0,-1,1252,575,0,0
35,449,0,0,0,0,0,0,0,0,0,-1,1259,575,0,0
42,449,0,0,0,0,0,0,0,0,0,-1,1266,575,0,0
49,449,0,0,0,0,0,0,0,0,0,-1,1273,575,0,0
56,449,0,0,0,0,0,0,0,0,0,-1,1280,575,0,0
63,449,0,0,0,0,0,0,0,0,0,-1,1287,575,0,0
70,449,0,0,0,0,0,0,0,0,0,-1,1294,575,0,0
77,449,0,0,0,0,0,0,0,0,0,-1,1301,575,0,0
84,449,0,0,0,0,0,0,0,0,0,-1,1308,575,0,0
91,449,0,0,0,0,0,0,0,0,0,-1,1315,575,0,0
98,449,0,0,0,0,0,0,0,0,0,-1,1322,575,0,0
105,449,0,0,0,0,0,0,0,0,0,-1,1329,575,0,0
112,449,0,0,0,0,0,0,0,0,0,-1,1336,575,0,0
119,449,0,0,0,0,0,0,0,0,0,-1,1343,575,0,0
126,449,0,0,0,0,0,0,0,0,0,-1,1350,575,0,0
133,449,0,0,0,0,0,0,0,0,0,-1,1357,575,0,0
140,449,0,0,0,0,0,0,0,0,0,-1,1364,575,0,0
147,449,0,0,0,0,0,0,0,0,0,-1,1371,575,0,0
154,449,0,0,0,0,0,0,0,0,0,-1,1378,575,0,0
161,449,0,0,0,0,0,0,0,0,0,-1,1385,575,0,0
168,449,0,0,0,0,0,0,0,0,0,-1,1392,575,0,0
175,449,0,0,0,0,0,0,0,0,0,-1,1399,575,0,0
182,449,0,0,0,0,0,0,0,0,0,-1,1406,575,0,0
189,449,0,0,0,0,0,0,0,0,0,-1,1413,575,0,0
196,449,0,0,0,0,0,0,0,0,0,-1,1420,575,0,0
203,449,0,0,0,0,0,0,0,0,0,-1,1427,575,0,0
210,449,0,0,0,0,0,0,0,0,0,-1,1434,575,0,0
217,449,0,0,0,0,0,0,0,0,0,-1,1441,575,0,0
224,449,0,0,0,0,0,0,0,0,0,-1,1448,575,0,0
231,449,0,0,0,0,0,0,0,0,0,-1,1455,575,0,0
238,449,0,0,0,0,0,0,0,0,0,-1,1462,575,0,0
245,449,0,0,0,0,0,0,0,0,0,-1,1469,575,0,0
252,449,0,0,0,0,0,0,0,0,0,-1,1476,575,0,0
259,449,0,0,0,0,0,0,0,0,0,-1,1483,575,0,0
266,449,0,0,0,0,0,0,0,0,0,-1,1490,575,0,0
273,449,0,0,0,0,0,0,0,0,0,-1,1497,575,0,0
280,449,0,0,0,0,0,0,0,0,0,-1,1504,575,0,0
287,449,0,0,0,0,0,0,0,0,0,-1,1511,575,0,0
294,449,0,0,0,0,0,0,0,0,0,-1,1518,575,0,0
301,449,0,0,0,0,0,0,0,0,0,-1,1525,575,0,0
308,449,0,0,0,0,0,0,0,0,0,-1,1532,575,0,0
315,449,0,0,0,0,0,0,0,0,0,-1,1539,575,0,0
322,449,0,0,0,0,0,0,0,0,0,-1,1546,575,0,0
329,449,0,0,0,0,0,0,0,0,0,-1,1553,575,0,0
336,449,0,0,0,0,0,0,0,0,0,-1,1560,575,0,0
343,449,0,0,0,0,0,0,0,0,0,-1,1567,575,0,0
350,449,0,0,0,0,0,0,0,0,0,-1,1574,575,0,0
357,449,0,0,0,0,0,0,0,0,0,-1,1581,575,0,0
364,449,0,0,0,0,0,0,0,0,0,-1,1588,575,0,0
371,449,0,0,0,0,0,0,0,0,0,-1,1595,575,0,0
378,449,0,0,0,0,0,0,0,0,0,-1,1602,575,0,0
385,449,0,0,0,0,0,0,0,0,0,-1,1609,575,0,0
392,449,7.95471,3.66217,0,0,0,0,0,0,0,-1,1616,575,7.95471,-3.66218
399,449,19.9791,5.565,0,0,0,0,0,0,0,-1,1623,575,19.9791,-5.56499
406,449,22.5933,4.73688,0,0,0,0,0,0,0,-1,1630,575,22.5933,-4.7369
413,449,23.5795,3.19586,0,0,0,0,0,0,0,-1,1637,575,23.5795,-3.19584
420,449,23.9675,1.29718,0,0,0,0,0,0,0,-1,1644,575,23.9675,-1.29721
427,449,24.4276,-0.596558,0,0,0,0,0,0,0,-1,1651,575,24.4277,0.596569
434,449,25.61,-2.96594,0,0,0,0,0,0,0,-1,1658,575,25.61,2.96595
441,449,3.89856,-6.06458,0,0,0,0,0,0,0,-1,1665,575,3.89855,6.06459
448,449,4.03198,-5.18207,0,0,0,0,0,0,0,-1,1672,575,4.03197,5.18207
455,449,4.21948,-4.09467,0,0,0,0,0,0,0,-1,1679,575,4.21952,4.09465
462,449,4.23181,-2.96924,0,0,0,0,0,0,0,-1,1686,575,4.23185,2.96926
469,449,4.51672,-2.95135,0,0,0,0,0,0,0,-1,1693,575,4.51672,2.95135
476,449,4.71838,-1.86688,0,0,0,0,0,0,0,-1,1700,575,4.71842,1.86689
483,449,4.87878,-1.73126,0,0,0,0,0,0,0,-1,1707,575,4.87875,1.73128
490,449,5.73279,-2.74573,0,0,0,0,0,0,0,-1,1714,575,5.73282,2.74575
497,449,10.7955,-8.36755,0,0,0,0,0,0,0,-1,1721,575,10.7955,8.36753
504,449,10.8574,-7.9278,0.00550602,0.00349511,0.00355172,0.00819186,0.000809268,0.647463,0.00521247,0.0425019,1728,575,10.8574,7.9278
511,449,10.9301,-7.52332,0.00447288,0.00254138,0.00285513,0.00652118,0.000493092,0.622313,0.00419276,0.0115566,1735,575,10.93,7.52332
518,449,10.9686,-7.14435,0.00359784,0.00189693,0.00233151,0.00522916,0.000265611,0.610513,0.00340103,0.0137636,1742,575,10.9686,7.14435
525,449,10.942,-6.78571,0.00272965,0.00153076,0.00189877,0.00412135,0.000139057,0.6325,0.00270241,0.0129322,1749,575,10.942,6.78572
532,449,10.9097,-6.42322,0.00194161,0.00123541,0.00153576,0.00316434,1.26784e-05,0.672402,0.00210535,0.0103913,1756,575,10.9096,6.42321
539,449,10.8821,-6.02612,0.00126277,0.000900782,0.0012147,0.00230988,-0.000146334,0.711441,0.00159095,0.0115507,1763,575,10.8821,6.02612
546,449,10.8894,-5.66235,0.000750114,0.000956538,0.00116469,0.00202258,-0.000315928,0.829592,0.00146509,0.0197725,1770,575,10.8894,5.66234
553,449,10.8741,-5.27948,0.000283798,0.00102644,0.00114708,0.0018608,-0.000550562,0.941931,0.0014591,0.0156878,1777,575,10.8742,5.2795
560,449,10.9011,-4.89874,-0.000141371,0.0011963,0.0012487,0.001944,-0.000889077,1.03127,0.00167305,0.0135605,1784,575,10.9011,4.89873
567,449,10.9032,-4.50708,-0.00047491,0.00151055,0.00152996,0.00234163,-0.00130599,1.07319,0.00213406,0.00983332,1791,575,10.9032,4.50705
574,449,10.9088,-4.08099,-0.000844241,0.00195179,0.00192977,0.00293673,-0.00182918,1.09887,0.00277625,0.021194,1798,575,10.9088,4.08102
581,449,10.9336,-3.60547,0,0,0,0,0,0,0,-1,1805,575,10.9336,3.60548
588,449,10.8308,-2.96875,0,0,0,0,0,0,0,-1,1812,575,10.8308,2.96876
595,449,11.2511,-2.25397,0,0,0,0,0,0,0,-1,1819,575,11.2511,2.25397
602,449,9.46167,4.17444,0,0,0,0,0,0,0,-1,1826,575,9.46164,-4.17442
609,449,12.2028,3.18652,0,0,0,0,0,0,0,-1,1833,575,12.2027,-3.18655
616,449,14.9438,2.19867,0,0,0,0,0,0,0,-1,1840,575,14.9438,-2.19867
623,449,9.83789,-0.0820313,0,0,0,0,0,0,0,-1,1847,575,9.83794,0.0820443
630,449,8.90686,4.99329,0,0,0,0,0,0,0,-1,1854,575,8.90685,-4.99327
637,449,0,0,0,0,0,0,0,0,0,-1,1861,575,0,0
644,449,0,0,0,0,0,0,0,0,0,-1,1868,575,0,0
651,449,0,0,0,0,0,0,0,0,0,-1,1875,575,0,0
658,449,0,0,0,0,0,0,0,0,0,-1,1882,575,0,0
665,449,0,0,0,0,0,0,0,0,0,-1,1889,575,0,0
672,449,0,0,0,0,0,0,0,0,0,-1,1896,575,0,0
679,449,0,0,0,0,0,0,0,0,0,-1,1903,575,0,0
686,449,0,0,0,0,0,0,0,0,0,-1,1910,575,0,0
693,449,0,0,0,0,0,0,0,0,0,-1,1917,575,0,0
700,449,0,0,0,0,0,0,0,0,0,-1,1924,575,0,0
707,449,0,0,0,0,0,0,0,0,0,-1,1931,575,0,0
714,449,0,0,0,0,0,0,0,0,0,-1,1938,575,0,0
721,449,0,0,0,0,0,0,0,0,0,-1,1945,575,0,0
728,449,0,0,0,0,0,0,0,0,0,-1,1952,575,0,0
735,449,0,0,0,0,0,0,0,0,0,-1,1959,575,0,0
742,449,0,0,0,0,0,0,0,0,0,-1,1966,575,0,0
749,449,0,0,0,0,0,0,0,0,0,-1,1973,575,0,0
756,449,0,0,0,0,0,0,0,0,0,-1,1980,575,0,0
763,449,0,0,0,0,0,0,0,0,0,-1,1987,575,0,0
770,449,0,0,0,0,0,0,0,0,0,-1,1994,575,0,0
777,449,0,0,0,0,0,0,0,0,0,-1,2001,575,0,0
784,449,0,0,0,0,0,0,0,0,0,-1,2008,575,0,0
791,449,0,0,0,0,0,0,0,0,0,-1,2015,575,0,0
798,449,0,0,0,0,0,0,0,0,0,-1,2022,575,0,0
805,449,0,0,0,0,0,0,0,0,0,-1,2029,575,0,0
812,449,0,0,0,0,0,0,0,0,0,-1,2036,575,0,0
-700,442,0,0,0,0,0,0,0,0,0,-1,524,582,0,0
-693,442,0,0,0,0,0,0,0,0,0,-1,531,582,0,0
-686,442,0,0,0,0,0,0,0,0,0,-1,538,582,0,0
-679,442,0,0,0,0,0,0,0,0,0,-1,545,582,0,0
-672,442,0,0,0,0,0,0,0,0,0,-1,552,582,0,0
-665,442,0,0,0,0,0,0,0,0,0,-1,559,582,0,0
-658,442,0,0,0,0,0,0,0,0,0,-1,566,582,0,0
-651,442,0,0,0,0,0,0,0,0,0,-1,573,582,0,0
-644,442,0,0,0,0,0,0,0,0,0,-1,580,582,0,0
-637,442,0,0,0,0,0,0,0,0,0,-1,587,582,0,0
-630,442,0,0,0,0,0,0,0,0,0,-1,594,582,0,0
-623,442,0,0,0,0,0,0,0,0,0,-1,601,582,0,0
-616,442,0,0,0,0,0,0,0,0,0,-1,608,582,0,0
-609,442,0,0,0,0,0,0,0,0,0,-1,615,582,0,0
-602,442,0,0,0,0,0,0,0,0,0,-1,622,582,0,0
-595,442,0,0,0,0,0,0,0,0,0,-1,629,582,0,0
-588,442,0,0,0,0,0,0,0,0,0,-1,636,582,0,0
-581,442,0,0,0,0,0,0,0,0,0,-1,643,582,0,0
-574,442,0,0,0,0,0,0,0,0,0,-1,650,582,0,0
-567,442,0,0,0,0,0,0,0,0,0,-1,657,582,0,0
-560,442,0,0,0,0,0,0,0,0,0,-1,664,582,0,0
-553,442,0,0,0,0,0,0,0,0,0,-1,671,582,0,0
-546,442,0,0,0,0,0,0,0,0,0,-1,678,582,0,0
-539,442,0,0,0,0,0,0,0,0,0,-1,685,582,0,0
-532,442,0,0,0,0,0,0,0,0,0,-1,692,582,0,0
-525,442,0,0,0,0,0,0,0,0,0,-1,699,582,0,0
-518,442,-0.493774,-5.72943,0,0,0,0,0,0,0,-1,706,582,-0.493791,5.72946
-511,442,-1.33008,-6.18512,0,0,0,0,0,0,0,-1,713,582,-1.33006,6.18511
-504,442,-3.20807,-6.34082,0,0,0,0,0,0,0,-1,720,582,-3.2081,6.34083
-497,442,-13.6886,-0.250122,0,0,0,0,0,0,0,-1,727,582,-13.6886,0.250143
-490,442,-9.09039,-3.64862,0,0,0,0,0,0,0,-1,734,582,-9.09037,3.64861
-483,442,-7.36499,-1.01892,0,0,0,0,0,0,0,-1,741,582,-7.365,1.01895
-476,442,-4.62225,-3.47467,0,0,0,0,0,0,0,-1,748,582,-4.62225,3.47465
-469,442,-4.10376,-4.19617,0,0,0,0,0,0,0,-1,755,582,-4.10378,4.19614
-462,442,-3.8855,-5.14832,0.0059248,0.0107297,-0.00898502,0.0176279,-0.000973432,-0.916033,0.0120895,0.0391022,762,582,-3.88549,5.14831
-455,442,-3.98926,-5.48468,0.00360587,0.00806046,-0.00645922,0.0126656,-0.000999287,-0.951426,0.00879578,0.031543,769,582,-3.98923,5.48468
-448,442,-3.91302,-5.81354,0.00192746,0.00605477,-0.00450208,0.00894362,-0.000961394,-1.0003,0.00630735,0.0157057,776,582,-3.91305,5.81356
-441,442,-3.9256,-6.15704,0.000890425,0.00448444,-0.00306531,0.00624065,-0.000865789,-1.05052,0.00447702,0.0148868,783,582,-3.92563,6.15702
-434,442,-3.9408,-6.5224,0.000103492,0.00281448,-0.00175794,0.00367883,-0.000760857,-1.11382,0.00274159,0.0132806,790,582,-3.94081,6.52242
-427,442,-3.96912,-6.87756,-0.000393805,0.00165345,-0.000788076,0.00192167,-0.000662029,-1.24274,0.00154967,0.0137459,797,582,-3.96914,6.87758
-420,442,-3.9469,-7.2442,-0.00110018,0.000411637,0.000305599,0.000471074,-0.00115961,1.3787,0.000969049,0.0141863,804,582,-3.94693,7.24422
-413,442,-3.93799,-7.60773,-0.00173632,-0.000820885,0.00126944,7.08408e-05,-0.00262804,0.958426,0.00177611,0.01157,811,582,-3.938,7.60772
-406,442,-3.96301,-7.96082,-0.00219627,-0.00188295,0.00211476,8.09494e-05,-0.00416017,0.822371,0.00280082,0.00920751,818,582,-3.96304,7.96084
-399,442,-3.97369,-8.31555,-0.00276127,-0.0033642,0.0031778,0.000129334,-0.0062548,0.738107,0.00421364,0.008478,825,582,-3.97372,8.31556
-392,442,-3.94989,-8.64374,-0.00366761,-0.00492654,0.00440712,0.000154768,-0.00874892,0.714463,0.00588488,0.0105549,832,582,-3.94989,8.64374
-385,442,-3.9469,-8.97314,-0.00489772,-0.00682862,0.00585925,7.50856e-05,-0.0118014,0.703745,0.00789277,0.0123071,839,582,-3.94691,8.97311
-378,442,-3.96838,-9.34491,-0.0064794,-0.00913936,0.00768277,-1.23391e-05,-0.0156064,0.699691,0.0104002,0.0129173,846,582,-3.96838,9.34491
-371,442,-3.98279,-9.71136,-0.00833652,-0.0119638,0.00986395,-0.000120863,-0.0201795,0.694481,0.0134129,0.0254722,853,582,-3.98278,9.71134
-364,442,-4.22461,-9.92047,-0.0103902,-0.0153962,0.0123199,-0.000321656,-0.0254648,0.685177,0.0168703,0.0456196,860,582,-4.2246,9.92046
-357,442,-4.36334,-10.1484,0,0,0,0,0,0,0,-1,867,582,-4.36335,10.1484
-350,442,-1.75372,-6.27618,0,0,0,0,0,0,0,-1,874,582,-1.75371,6.27618
-343,442,-1.4599,-4.63605,0,0,0,0,0,0,0,-1,881,582,-1.4599,4.63607
-336,442,-1.4054,-2.64313,0,0,0,0,0,0,0,-1,888,582,-1.40539,2.64315
-329,442,-0.952576,-2.76923,0,0,0,0,0,0,0,-1,895,582,-0.952571,2.7692
-322,442,-0.972534,-2.63208,0,0,0,0,0,0,0,-1,902,582,-0.972512,2.6321
-315,442,-0.445557,-2.89764,0,0,0,0,0,0,0,-1,909,582,-0.445582,2.89765
-308,442,-0.654175,-3.07831,0,0,0,0,0,0,0,-1,916,582,-0.654145,3.07832
-301,442,-1.37427,-2.41455,0,0,0,0,0,0,0,-1,923,582,-1.37425,2.41453
-294,442,-2.99963,-2.07855,0,0,0,0,0,0,0,-1,930,582,-2.99964,2.07857
-287,442,-5.62799,-2.76422,0,0,0,0,0,0,0,-1,937,582,-5.628,2.76424
-280,442,0,0,0,0,0,0,0,0,0,-1,944,582,0,0
-273,442,0,0,0,0,0,0,0,0,0,-1,951,582,0,0
-266,442,0,0,0,0,0,0,0,0,0,-1,958,582,0,0
-259,442,0,0,0,0,0,0,0,0,0,-1,965,582,0,0
-252,442,0,0,0,0,0,0,0,0,0,-1,972,582,0,0
-245,442,0,0,0,0,0,0,0,0,0,-1,979,582,0,0
-238,442,0,0,0,0,0,0,0,0,0,-1,986,582,0,0
-231,442,0,0,0,0,0,0,0,0,0,-1,993,582,0,0
-224,442,0,0,0,0,0,0,0,0,0,-1,1000,582,0,0
-217,442,0,0,0,0,0,0,0,0,0,-1,1007,582,0,0
-210,442,0,0,0,0,0,0,0,0,0,-1,1014,582,0,0
-203,442,0,0,0,0,0,0,0,0,0,-1,1021,582,0,0
-196,442,0,0,0,0,0,0,0,0,0,-1,1028,582,0,0
-189,442,0,0,0,0,0,0,0,0,0,-1,1035,582,0,0
-182,442,0,0,0,0,0,0,0,0,0,-1,1042,582,0,0
-175,442,0,0,0,0,0,0,0,0,0,-1,1049,582,0,0
-168,442,0,0,0,0,0,0,0,0,0,-1,1056,582,0,0
-161,442,0,0,0,0,0,0,0,0,0,-1,1063,582,0,0
-154,442,0,0,0,0,0,0,0,0,0,-1,1070,582,0,0
-147,442,0,0,0,0,0,0,0,0,0,-1,1077,582,0,0
-140,442,0,0,0,0,0,0,0,0,0,-1,1084,582,0,0
-133,442,0,0,0,0,0,0,0,0,0,-1,1091,582,0,0
-126,442,0,0,0,0,0,0,0,0,0,-1,1098,582,0,0
-119,442,0,0,0,0,0,0,0,0,0,-1,1105,582,0,0
-112,442,0,0,0,0,0,0,0,0,0,-1,1112,582,0,0
-105,442,0,0,0,0,0,0,0,0,0,-1,1119,582,0,0
-98,442,0,0,0,0,0,0,0,0,0,-1,1126,582,0,0
-91,442,0,0,0,0,0,0,0,0,0,-1,1133,582,0,0
-84,442,0,0,0,0,0,0,0,0,0,-1,1140,582,0,0
-77,442,0,0,0,0,0,0,0,0,0,-1,1147,582,0,0
-70,442,0,0,0,0,0,0,0,0,0,-1,1154,582,0,0
-63,442,0,0,0,0,0,0,0,0,0,-1,1161,582,0,0
-56,442,0,0,0,0,0,0,0,0,0,-1,1168,582,0,0
-49,442,0,0,0,0,0,0,0,0,0,-1,1175,582,0,0
-42,442,0,0,0,0,0,0,0,0,0,-1,1182,582,0,0
-35,442,0,0,0,0,0,0,0,0,0,-1,1189,582,0,0
-28,442,0,0,0,0,0,0,0,0,0,-1,1196,582,0,0
-21,442,0,0,0,0,0,0,0,0,0,-1,1203,582,0,0
-14,442,0,0,0,0,0,0,0,0,0,-1,1210,582,0,0
-7,442,0,0,0,0,0,0,0,0,0,-1,1217,582,0,0
0,442,0,0,0,0,0,0,0,0,0,-1,1224,582,0,0
7,442,0,0,0,0,0,0,0,0,0,-1,1231,582,0,0
14,442,0,0,0,0,0,0,0,0,0,-1,1238,582,0,0
21,442,0,0,0,0,0,0,0,0,0,-1,1245,582,0,0
28,442,0,0,0,0,0,0,0,0,0,-1,1252,582,0,0
35,442,0,0,0,0,0,0,0,0,0,-1,1259,582,0,0
42,442,0,0,0,0,0,0,0,0,0,-1,1266,582,0,0
49,442,0,0,0,0,0,0,0,0,0,-1,1273,582,0,0
56,442,0,0,0,0,0,0,0,0,0,-1,1280,582,0,0
63,442,0,0,0,0,0,0,0,0,0,-1,1287,582,0,0
70,442,0,0,0,0,0,0,0,0,0,-1,1294,582,0,0
77,442,0,0,0,0,0,0,0,0,0,-1,1301,582,0,0
84,442,0,0,0,0,0,0,0,0,0,-1,1308,582,0,0
91,442,0,0,0,0,0,0,0,0,0,-1,1315,582,0,0
98,442,0,0,0,0,0,0,0,0,0,-1,1322,582,0,0
105,442,0,0,0,0,0,0,0,0,0,-1,1329,582,0,0
112,442,0,0,0,0,0,0,0,0,0,-1,1336,582,0,0
119,442,0,0,0,0,0,0,0,0,0,-1,1343,582,0,0
126,442,0,0,0,0,0,0,0,0,0,-1,1350,582,0,0
133,442,0,0,0,0,0,0,0,0,0,-1,1357,582,0,0
140,442,0,0,0,0,0,0,0,0,0,-1,1364,582,0,0
147,442,0,0,0,0,0,0,0,0,0,-1,1371,582,0,0
154,442,0,0,0,0,0,0,0,0,0,-1,1378,582,0,0
161,442,0,0,0,0,0,0,0,0,0,-1,1385,582,0,0
168,442,0,0,0,0,0,0,0,0,0,-1,1392,582,0,0
175,442,0,0,0,0,0,0,0,0,0,-1,1399,582,0,0
182,442,0,0,0,0,0,0,0,0,0,-1,1406,582,0,0
189,442,0,0,0,0,0,0,0,0,0,-1,1413,582,0,0
196,442,0,0,0,0,0,0,0,0,0,-1,1420,582,0,0
203,442,0,0,0,0,0,0,0,0,0,-1,1427,582,0,0
210,442,0,0,0,0,0,0,0,0,0,-1,1434,582,0,0
217,442,0,0,0,0,0,0,0,0,0,-1,1441,582,0,0
224,442,0,0,0,0,0,0,0,0,0,-1,1448,582,0,0
231,442,0,0,0,0,0,0,0,0,0,-1,1455,582,0,0
238,442,0,0,0,0,0,0,0,0,0,-1,1462,582,0,0
245,442,0,0,0,0,0,0,0,0,0,-1,1469,582,0,0
252,442,0,0,0,0,0,0,0,0,0,-1,1476,582,0,0
259,442,0,0,0,0,0,0,0,0,0,-1,1483,582,0,0
266,442,0,0,0,0,0,0,0,0,0,-1,1490,582,0,0
273,442,0,0,0,0,0,0,0,0,0,-1,1497,582,0,0
280,442,0,0,0,0,0,0,0,0,0,-1,1504,582,0,0
287,442,0,0,0,0,0,0,0,0,0,-1,1511,582,0,0
294,442,0,0,0,0,0,0,0,0,0,-1,1518,582,0,0
301,442,0,0,0,0,0,0,0,0,0,-1,1525,582,0,0
308,442,0,0,0,0,0,0,0,0,0,-1,1532,582,0,0
315,442,0,0,0,0,0,0,0,0,0,-1,1539,582,0,0
322,442,0,0,0,0,0,0,0,0,0,-1,1546,582,0,0
329,442,0,0,0,0,0,0,0,0,0,-1,1553,582,0,0
336,442,0,0,0,0,0,0,0,0,0,-1,1560,582,0,0
343,442,0,0,0,0,0,0,0,0,0,-1,1567,582,0,0
350,442,0,0,0,0,0,0,0,0,0,-1,1574,582,0,0
357,442,0,0,0,0,0,0,0,0,0,-1,1581,582,0,0
364,442,0,0,0,0,0,0,0,0,0,-1,1588,582,0,0
371,442,0,0,0,0,0,0,0,0,0,-1,1595,582,0,0
378,442,0,0,0,0,0,0,0,0,0,-1,1602,582,0,0
385,442,0,0,0,0,0,0,0,0,0,-1,1609,582,0,0
392,442,0,0,0,0,0,0,0,0,0,-1,1616,582,0,0
399,442,0,0,0,0,0,0,0,0,0,-1,1623,582,0,0
406,442,17.6321,4.08295,0,0,0,0,0,0,0,-1,1630,582,17.6321,-4.08293
413,442,22.1273,3.56525,0,0,0,0,0,0,0,-1,1637,582,22.1273,-3.56525
420,442,22.7478,1.55011,0,0,0,0,0,0,0,-1,1644,582,22.7478,-1.55009
427,442,23.2969,-0.456787,0,0,0,0,0,0,0,-1,1651,582,23.2968,0.456769
434,442,23.9512,-2.49365,0,0,0,0,0,0,0,-1,1658,582,23.9512,2.49366
441,442,24.8251,-4.43958,0,0,0,0,0,0,0,-1,1665,582,24.8251,4.43956
448,442,4.7749,-5.88562,0,0,0,0,0,0,0,-1,1672,582,4.7749,5.8856
455,442,4.87024,-4.60687,0,0,0,0,0,0,0,-1,1679,582,4.87019,4.60686
462,442,5.02307,-3.72821,0,0,0,0,0,0,0,-1,1686,582,5.02311,3.7282
469,442,5.12976,-2.98834,0,0,0,0,0,0,0,-1,1693,582,5.12971,2.98834
476,442,5.4624,1.76947,0,0,0,0,0,0,0,-1,1700,582,5.46234,-1.76944
483,442,5.98486,1.87042,0,0,0,0,0,0,0,-1,1707,582,5.98492,-1.87045
490,442,5.04407,-2.35834,0,0,0,0,0,0,0,-1,1714,582,5.04411,2.35837
497,442,6.20984,-3.07831,0,0,0,0,0,0,0,-1,1721,582,6.2098,3.07833
504,442,11.101,-8.02277,0,0,0,0,0,0,0,-1,1728,582,11.101,8.02277
511,442,11.2257,-7.5304,0.00533068,0.00304366,0.00338321,0.0077584,0.000615936,0.622427,0.00497967,0.0280947,1735,582,11.2257,7.5304
518,442,11.3291,-7.10175,0.00439338,0.0022508,0.00274599,0.00626965,0.00037452,0.599414,0.00406069,0.0125333,1742,582,11.3291,7.10172
525,442,11.3048,-6.7511,0.00346543,0.00181826,0.0022364,0.00502507,0.000258619,0.608972,0.00326725,0.0109076,1749,582,11.3049,6.75107
532,442,11.2922,-6.38763,0.00263477,0.00141092,0.00179279,0.00391719,0.000128491,0.620935,0.0025697,0.0107224,1756,582,11.2922,6.38763
539,442,11.2777,-6.00092,0.00191008,0.000990487,0.00138283,0.00290755,-6.98608e-06,0.624897,0.0019407,0.0107179,1763,582,11.2777,6.00089
546,442,11.275,-5.6618,0.00134678,0.00091871,0.00122456,0.00237587,-0.000110376,0.698879,0.00162196,0.0134874,1770,582,11.2751,5.66179
553,442,11.2487,-5.2854,0.000828842,0.000896671,0.00113463,0.00199789,-0.000272377,0.800339,0.00143138,0.0152895,1777,582,11.2486,5.28542
560,442,11.2644,-4.90588,0.000321598,0.000990701,0.00115197,0.00185572,-0.000543419,0.926719,0.00145257,0.0149166,1784,582,11.2645,4.90588
567,442,11.2678,-4.49323,-0.000108561,0.00125073,0.00134699,0.00207982,-0.000937656,1.01904,0.00178326,0.0102336,1791,582,11.2678,4.49324
574,442,11.2778,-4.10022,-0.000525395,0.00166003,0.00167896,0.00257055,-0.00143591,1.07388,0.00234385,0.0117433,1798,582,11.2779,4.1002
581,442,11.3207,-3.67462,-0.00097685,0.0023381,0.00225023,0.00347539,-0.00211415,1.10283,0.00325887,0.0226128,1805,582,11.3207,3.67461
588,442,11.2413,-3.43665,-0.0013159,0.00327356,0.0031105,0.00484418,-0.00288653,1.1032,0.00451078,0.0385712,1812,582,11.2413,3.43665
595,442,11.2699,-2.75824,-0.00163591,0.00484566,0.00422426,0.00692908,-0.00371932,1.1126,0.00624026,0.049602,1819,582,11.2699,2.75823
602,442,11.4385,-1.74512,0,0,0,0,0,0,0,-1,1826,582,11.4385,1.74509
609,442,12.761,2.97223,0,0,0,0,0,0,0,-1,1833,582,12.761,-2.97221
616,442,9.78345,-0.103394,0,0,0,0,0,0,0,-1,1840,582,9.78341,0.103424
623,442,9.23828,0.326721,0,0,0,0,0,0,0,-1,1847,582,9.23829,-0.326727
630,442,7.74304,2.3924,0,0,0,0,0,0,0,-1,1854,582,7.7431,-2.39238
637,442,5.87805,1.84027,0,0,0,0,0,0,0,-1,1861,582,5.87807,-1.84025
644,442,0,0,0,0,0,0,0,0,0,-1,1868,582,0,0
651,442,0,0,0,0,0,0,0,0,0,-1,1875,582,0,0
658,442,0,0,0,0,0,0,0,0,0,-1,1882,582,0,0
665,442,0,0,0,0,0,0,0,0,0,-1,1889,582,0,0
672,442,0,0,0,0,0,0,0,0,0,-1,1896,582,0,0
679,442,0,0,0,0,0,0,0,0,0,-1,1903,582,0,0
686,442,0,0,0,0,0,0,0,0,0,-1,1910,582,0,0
693,442,0,0,0,0,0,0,0,0,0,-1,1917,582,0,0
700,442,0,0,0,0,0,0,0,0,0,-1,1924,582,0,0
707,442,0,0,0,0,0,0,0,0,0,-1,1931,582,0,0
714,442,0,0,0,0,0,0,0,0,0,-1,1938,582,0,0
721,442,0,0,0,0,0,0,0,0,0,-1,1945,582,0,0
728,442,0,0,0,0,0,0,0,0,0,-1,1952,582,0,0
735,442,0,0,0,0,0,0,0,0,0,-1,1959,582,0,0
742,442,0,0,0,0,0,0,0,0,0,-1,1966,582,0,0
749,442,0,0,0,0,0,0,0,0,0,-1,1973,582,0,0
756,442,0,0,0,0,0,0,0,0,0,-1,1980,582,0,0
763,442,0,0,0,0,0,0,0,0,0,-1,1987,582,0,0
770,442,0,0,0,0,0,0,0,0,0,-1,1994,582,0,0
777,442,0,0,0,0,0,0,0,0,0,-1,2001,582,0,0
784,442,0,0,0,0,0,0,0,0,0,-1,2008,582,0,0
791,442,0,0,0,0,0,0,0,0,0,-1,2015,582,0,0
798,442,0,0,0,0,0,0,0,0,0,-1,2022,582,0,0
805,442,0,0,0,0,0,0,0,0,0,-1,2029,582,0,0
812,442,0,0,0,0,0,0,0,0,0,-1,2036,582,0,0
-700,435,0,0,0,0,0,0,0,0,0,-1,524,589,0,0
-693,435,0,0,0,0,0,0,0,0,0,-1,531,589,0,0
-686,435,0,0,0,0,0,0,0,0,0,-1,538,589,0,0
-679,435,0,0,0,0,0,0,0,0,0,-1,545,589,0,0
-672,435,0,0,0,0,0,0,0,0,0,-1,552,589,0,0
-665,435,0,0,0,0,0,0,0,0,0,-1,559,589,0,0
-658,435,0,0,0,0,0,0,0,0,0,-1,566,589,0,0
-651,435,0,0,0,0,0,0,0,0,0,-1,573,589,0,0
-644,435,0,0,0,0,0,0,0,0,0,-1,580,589,0,0
-637,435,0,0,0,0,0,0,0,0,0,-1,587,589,0,0
-630,435,0,0,0,0,0,0,0,0,0,-1,594,589,0,0
-623,435,0,0,0,0,0,0,0,0,0,-1,601,589,0,0
-616,435,0,0,0,0,0,0,0,0,0,-1,608,589,0,0
-609,435,0,0,0,0,0,0,0,0,0,-1,615,589,0,0
-602,435,0,0,0,0,0,0,0,0,0,-1,622,589,0,0
-595,435,0,0,0,0,0,0,0,0,0,-1,629,589,0,0
-588,435,0,0,0,0,0,0,0,0,0,-1,636,589,0,0
-581,435,0,0,0,0,0,0,0,0,0,-1,643,589,0,0
-574,435,0,0,0,0,0,0,0,0,0,-1,650,589,0,0
-567,435,0,0,0,0,0,0,0,0,0,-1,657,589,0,0
-560,435,0,0,0,0,0,0,0,0,0,-1,664,589,0,0
-553,435,0,0,0,0,0,0,0,0,0,-1,671,589,0,0
-546,435,0,0,0,0,0,0,0,0,0,-1,678,589,0,0
-539,435,0,0,0,0,0,0,0,0,0,-1,685,589,0,0
-532,435,0,0,0,0,0,0,0,0,0,-1,692,589,0,0
-525,435,-10.0776,10.0547,0,0,0,0,0,0,0,-1,699,589,-10.0776,-10.0547
-518,435,-1.83093,-5.82367,0,0,0,0,0,0,0,-1,706,589,-1.83093,5.8237
-511,435,-2.45154,-5.33118,0,0,0,0,0,0,0,-1,713,589,-2.45151,5.33115
-504,435,-3.07208,-4.83862,0,0,0,0,0,0,0,-1,720,589,-3.0721,4.8386
-497,435,-6.31012,-5.84698,0,0,0,0,0,0,0,-1,727,589,-6.31012,5.84697
-490,435,-5.81903,-0.458679,0,0,0,0,0,0,0,-1,734,589,-5.81902,0.458684
-483,435,-6.2019,-1.34552,0,0,0,0,0,0,0,-1,741,589,-6.20193,1.34554
-476,435,-4.54834,-3.91687,0,0,0,0,0,0,0,-1,748,589,-4.54835,3.91685
-469,435,-4.32843,-4.43951,0.00847549,0.011843,-0.0105779,0.0208703,-0.000551879,-0.864323,0.0141011,0.0345889,755,589,-4.32845,4.43948
-462,435,-4.1969,-5.0697,0.0058055,0.00890416,-0.00778554,0.015293,-0.000583372,-0.883615,0.0103953,0.0184048,762,589,-4.19691,5.06972
-455,435,-4.29742,-5.41492,0.00380549,0.0066249,-0.00564418,0.0110328,-0.000602365,-0.907776,0.00756396,0.0164114,769,589,-4.29745,5.41493
-448,435,-4.28229,-5.81219,0.00229509,0.0048193,-0.00390248,0.00765869,-0.000544299,-0.941795,0.00529656,0.0137,776,589,-4.28228,5.81217
-441,435,-4.27728,-6.15247,0.00124531,0.00339739,-0.00257044,0.00510793,-0.000465227,-0.983626,0.00357048,0.0113629,783,589,-4.27728,6.15246
-434,435,-4.2854,-6.49976,0.000382703,0.00183111,-0.00129777,0.00259307,-0.000379259,-1.03989,0.00186801,0.0121941,790,589,-4.28542,6.49976
-427,435,-4.31079,-6.88403,-0.000256024,0.000717451,-0.000301002,0.000803004,-0.000341576,-1.29387,0.000678487,0.0106583,797,589,-4.31076,6.88403
-420,435,-4.3028,-7.23718,-0.00113466,-0.00052044,0.000856849,8.2673e-05,-0.00173778,0.957476,0.00118703,0.0107513,804,589,-4.30279,7.23716
-413,435,-4.30267,-7.59985,-0.00204235,-0.0018634,0.00199811,4.72399e-05,-0.00395299,0.807773,0.00265122,0.0105763,811,589,-4.30267,7.59984
-406,435,-4.30298,-7.94183,-0.00281531,-0.00307808,0.00303552,9.16633e-05,-0.00598505,0.763771,0.00402094,0.00975301,818,589,-4.303,7.94183
-399,435,-4.30847,-8.29034,-0.00372771,-0.00476331,0.00434119,0.000126454,-0.00861747,0.726041,0.00578759,0.00846512,825,589,-4.30845,8.29037
-392,435,-4.30774,-8.64111,-0.00507319,-0.00654179,0.00588295,0.000121107,-0.0117361,0.72331,0.00786474,0.0100364,832,589,-4.30775,8.64113
-385,435,-4.30145,-8.9809,-0.00687192,-0.00881004,0.00775094,-2.96994e-05,-0.0156523,0.723208,0.010425,0.0137156,839,589,-4.30142,8.98093
-378,435,-4.30859,-9.28906,-0.0091898,-0.011688,0.0101672,-0.000195256,-0.0206825,0.724277,0.0137237,0.0252929,846,589,-4.30858,9.28907
-371,435,-4.51819,-9.49127,-0.0118936,-0.0152582,0.0131093,-0.000359054,-0.0267928,0.721582,0.0177434,0.0419458,853,589,-4.51818,9.49127
-364,435,-5.02075,-9.3999,-0.0149773,-0.0197501,0.0165747,-0.000618072,-0.0341093,0.7139,0.0225363,0.0464203,860,589,-5.02078,9.39988
-357,435,-5.27893,-9.37292,0,0,0,0,0,0,0,-1,867,589,-5.27894,9.37291
-350,435,-0.86676,-3.69836,0,0,0,0,0,0,0,-1,874,589,-0.866784,3.69834
-343,435,-1.60706,-2.36835,0,0,0,0,0,0,0,-1,881,589,-1.60706,2.36838
-336,435,-2.07263,-1.94012,0,0,0,0,0,0,0,-1,888,589,-2.07265,1.94014
-329,435,-2.55963,-1.5517,0,0,0,0,0,0,0,-1,895,589,-2.5596,1.55168
-322,435,-3.08545,-1.55255,0,0,0,0,0,0,0,-1,902,589,-3.08544,1.55254
-315,435,-0.404297,-2.63763,0,0,0,0,0,0,0,-1,909,589,-0.404276,2.63761
-308,435,-1.70056,-1.90369,0,0,0,0,0,0,0,-1,916,589,-1.70056,1.90367
-301,435,-1.25232,-2.05511,0,0,0,0,0,0,0,-1,923,589,-1.25234,2.05514
-294,435,-1.79974,-1.97321,0,0,0,0,0,0,0,-1,930,589,-1.79973,1.97322
-287,435,0,0,0,0,0,0,0,0,0,-1,937,589,0,0
-280,435,0,0,0,0,0,0,0,0,0,-1,944,589,0,0
-273,435,0,0,0,0,0,0,0,0,0,-1,951,589,0,0
-266,435,0,0,0,0,0,0,0,0,0,-1,958,589,0,0
-259,435,0,0,0,0,0,0,0,0,0,-1,965,589,0,0
-252,435,0,0,0,0,0,0,0,0,0,-1,972,589,0,0
-245,435,0,0,0,0,0,0,0,0,0,-1,979,589,0,0
-238,435,0,0,0,0,0,0,0,0,0,-1,986,589,0,0
-231,435,0,0,0,0,0,0,0,0,0,-1,993,589,0,0
-224,435,0,0,0,0,0,0,0,0,0,-1,1000,589,0,0
-217,435,0,0,0,0,0,0,0,0,0,-1,1007,589,0,0
-210,435,0,0,0,0,0,0,0,0,0,-1,1014,589,0,0
-203,435,0,0,0,0,0,0,0,0,0,-1,1021,589,0,0
-196,435,0,0,0,0,0,0,0,0,0,-1,1028,589,0,0
-189,435,0,0,0,0,0,0,0,0,0,-1,1035,589,0,0
-182,435,0,0,0,0,0,0,0,0,0,-1,1042,589,0,0
-175,435,0,0,0,0,0,0,0,0,0,-1,1049,589,0,0
-168,435,0,0,0,0,0,0,0,0,0,-1,1056,589,0,0
-161,435,0,0,0,0,0,0,0,0,0,-1,1063,589,0,0
-154,435,0,0,0,0,0,0,0,0,0,-1,1070,589,0,0
-147,435,0,0,0,0,0,0,0,0,0,-1,1077,589,0,0
-140,435,0,0,0,0,0,0,0,0,0,-1,1084,589,0,0
-133,435,0,0,0,0,0,0,0,0,0,-1,1091,589,0,0
-126,435,0,0,0,0,0,0,0,0,0,-1,1098,589,0,0
-119,435,0,0,0,0,0,0,0,0,0,-1,1105,589,0,0
-112,435,0,0,0,0,0,0,0,0,0,-1,1112,589,0,0
-105,435,0,0,0,0,0,0,0,0,0,-1,1119,589,0,0
-98,435,0,0,0,0,0,0,0,0,0,-1,1126,589,0,0
-91,435,0,0,0,0,0,0,0,0,0,-1,1133,589,0,0
-84,435,0,0,0,0,0,0,0,0,0,-1,1140,589,0,0
-77,435,0,0,0,0,0,0,0,0,0,-1,1147,589,0,0
-70,435,0,0,0,0,0,0,0,0,0,-1,1154,589,0,0
-63,435,0,0,0,0,0,0,0,0,0,-1,1161,589,0,0
-56,435,0,0,0,0,0,0,0,0,0,-1,1168,589,0,0
-49,435,0,0,0,0,0,0,0,0,0,-1,1175,589,0,0
-42,435,0,0,0,0,0,0,0,0,0,-1,1182,589,0,0
-35,435,0,0,0,0,0,0,0,0,0,-1,1189,589,0,0
-28,435,0,0,0,0,0,0,0,0,0,-1,1196,589,0,0
-21,435,0,0,0,0,0,0,0,0,0,-1,1203,589,0,0
-14,435,0,0,0,0,0,0,0,0,0,-1,1210,589,0,0
-7,435,0,0,0,0,0,0,0,0,0,-1,1217,589,0,0
0,435,0,0,0,0,0,0,0,0,0,-1,1224,589,0,0
7,435,0,0,0,0,0,0,0,0,0,-1,1231,589,0,0
14,435,0,0,0,0,0,0,0,0,0,-1,1238,589,0,0
21,435,0,0,0,0,0,0,0,0,0,-1,1245,589,0,0
28,435,0,0,0,0,0,0,0,0,0,-1,1252,589,0,0
35,435,0,0,0,0,0,0,0,0,0,-1,1259,589,0,0
42,435,0,0,0,0,0,0,0,0,0,-1,1266,589,0,0
49,435,0,0,0,0,0,0,0,0,0,-1,1273,589,0,0
56,435,0,0,0,0,0,0,0,0,0,-1,1280,589,0,0
63,435,0,0,0,0,0,0,0,0,0,-1,1287,589,0,0
70,435,0,0,0,0,0,0,0,0,0,-1,1294,589,0,0
77,435,0,0,0,0,0,0,0,0,0,-1,1301,589,0,0
84,435,0,0,0,0,0,0,0,0,0,-1,1308,589,0,0
91,435,0,0,0,0,0,0,0,0,0,-1,1315,589,0,0
98,435,0,0,0,0,0,0,0,0,0,-1,1322,589,0,0
105,435,0,0,0,0,0,0,0,0,0,-1,1329,589,0,0
112,435,0,0,0,0,0,0,0,0,0,-1,1336,589,0,0
119,435,0,0,0,0,0,0,0,0,0,-1,1343,589,0,0
126,435,0,0,0,0,0,0,0,0,0,-1,1350,589,0,0
133,435,0,0,0,0,0,0,0,0,0,-1,1357,589,0,0
140,435,0,0,0,0,0,0,0,0,0,-1,1364,589,0,0
147,435,0,0,0,0,0,0,0,0,0,-1,1371,589,0,0
154,435,0,0,0,0,0,0,0,0,0,-1,1378,589,0,0
161,435,0,0,0,0,0,0,0,0,0,-1,1385,589,0,0
168,435,0,0,0,0,0,0,0,0,0,-1,1392,589,0,0
175,435,0,0,0,0,0,0,0,0,0,-1,1399,589,0,0
182,435,0,0,0,0,0,0,0,0,0,-1,1406,589,0,0
189,435,0,0,0,0,0,0,0,0,0,-1,1413,589,0,0
196,435,0,0,0,0,0,0,0,0,0,-1,1420,589,0,0
203,435,0,0,0,0,0,0,0,0,0,-1,1427,589,0,0
210,435,0,0,0,0,0,0,0,0,0,-1,1434,589,0,0
217,435,0,0,0,0,0,0,0,0,0,-1,1441,589,0,0
224,435,0,0,0,0,0,0,0,0,0,-1,1448,589,0,0
231,435,0,0,0,0,0,0,0,0,0,-1,1455,589,0,0
238,435,0,0,0,0,0,0,0,0,0,-1,1462,589,0,0
245,435,0,0,0,0,0,0,0,0,0,-1,1469,589,0,0
252,435,0,0,0,0,0,0,0,0,0,-1,1476,589,0,0
259,435,0,0,0,0,0,0,0,0,0,-1,1483,589,0,0
266,435,0,0,0,0,0,0,0,0,0,-1,1490,589,0,0
273,435,0,0,0,0,0,0,0,0,0,-1,1497,589,0,0
280,435,0,0,0,0,0,0,0,0,0,-1,1504,589,0,0
287,435,0,0,0,0,0,0,0,0,0,-1,1511,589,0,0
294,435,0,0,0,0,0,0,0,0,0,-1,1518,589,0,0
301,435,0,0,0,0,0,0,0,0,0,-1,1525,589,0,0
308,435,0,0,0,0,0,0,0,0,0,-1,1532,589,0,0
315,435,0,0,0,0,0,0,0,0,0,-1,1539,589,0,0
322,435,0,0,0,0,0,0,0,0,0,-1,1546,589,0,0
329,435,0,0,0,0,0,0,0,0,0,-1,1553,589,0,0
336,435,0,0,0,0,0,0,0,0,0,-1,1560,589,0,0
343,435,0,0,0,0,0,0,0,0,0,-1,1567,589,0,0
350,435,0,0,0,0,0,0,0,0,0,-1,1574,589,0,0
357,435,0,0,0,0,0,0,0,0,0,-1,1581,589,0,0
364,435,0,0,0,0,0,0,0,0,0,-1,1588,589,0,0
371,435,0,0,0,0,0,0,0,0,0,-1,1595,589,0,0
378,435,0,0,0,0,0,0,0,0,0,-1,1602,589,0,0
385,435,0,0,0,0,0,0,0,0,0,-1,1609,589,0,0
392,435,0,0,0,0,0,0,0,0,0,-1,1616,589,0,0
399,435,0,0,0,0,0,0,0,0,0,-1,1623,589,0,0
406,435,0,0,0,0,0,0,0,0,0,-1,1630,589,0,0
413,435,20.4565,3.49835,0,0,0,0,0,0,0,-1,1637,589,20.4565,-3.49836
420,435,21.4015,1.49609,0,0,0,0,0,0,0,-1,1644,589,21.4015,-1.49609
427,435,22.0464,-0.373962,0,0,0,0,0,0,0,-1,1651,589,22.0464,0.373972
434,435,22.1863,-1.54407,0,0,0,0,0,0,0,-1,1658,589,22.1862,1.54405
441,435,22.3992,-2.38287,0,0,0,0,0,0,0,-1,1665,589,22.3992,2.38289
448,435,7.4585,-0.00292969,0,0,0,0,0,0,0,-1,1672,589,7.45848,0.00294131
455,435,5.49915,-5.047,0,0,0,0,0,0,0,-1,1679,589,5.49914,5.04703
462,435,5.60669,-4.71466,0,0,0,0,0,0,0,-1,1686,589,5.60675,4.71469
469,435,5.87708,1.22351,0,0,0,0,0,0,0,-1,1693,589,5.87703,-1.22351
476,435,6.14136,1.37714,0,0,0,0,0,0,0,-1,1700,589,6.14138,-1.37712
483,435,6.49243,1.36169,0,0,0,0,0,0,0,-1,1707,589,6.49242,-1.36171
490,435,4.38391,-1.36218,0,0,0,0,0,0,0,-1,1714,589,4.38389,1.3622
497,435,7.23499,-3.64551,0,0,0,0,0,0,0,-1,1721,589,7.23495,3.64551
504,435,7.31189,-3.75909,0,0,0,0,0,0,0,-1,1728,589,7.31184,3.75911
511,435,11.5494,-7.63568,0,0,0,0,0,0,0,-1,1735,589,11.5494,7.63566
518,435,11.7014,-7.12451,0.00514057,0.00286282,0.00335535,0.00754506,0.000458336,0.621789,0.00488444,0.0248403,1742,589,11.7014,7.12453
525,435,11.6724,-6.74335,0.00406465,0.0022985,0.00266845,0.00599235,0.000370802,0.625605,0.00387721,0.0121455,1749,589,11.6724,6.74333
532,435,11.6702,-6.36273,0.00313932,0.00171674,0.00206307,0.00461027,0.000245785,0.619393,0.00299495,0.0136883,1756,589,11.6701,6.36275
539,435,11.6851,-5.97845,0.00234856,0.00118159,0.00150757,0.00338162,0.000148529,0.600758,0.00220657,0.0153474,1763,589,11.6851,5.97847
546,435,11.6646,-5.61267,0.00173644,0.000928216,0.00119472,0.00259354,7.11115e-05,0.622315,0.00170582,0.0144689,1770,589,11.6645,5.61266
553,435,11.6476,-5.27466,0.0011954,0.000788022,0.00101521,0.00202715,-4.3736e-05,0.686395,0.00136625,0.0109645,1777,589,11.6475,5.27467
560,435,11.6354,-4.89496,0.000661486,0.000790209,0.000952076,0.0016801,-0.000228401,0.819147,0.00120344,0.0095624,1784,589,11.6353,4.89497
567,435,11.6421,-4.48578,0.000203122,0.000984843,0.00107662,0.00173936,-0.000551391,0.959522,0.00138057,0.00875284,1791,589,11.642,4.48576
574,435,11.6345,-4.11365,-0.000187011,0.00134907,0.00135632,0.00213971,-0.000977653,1.04302,0.00184102,0.00992618,1798,589,11.6346,4.11362
581,435,11.6232,-3.74445,-0.000553799,0.00194329,0.00183978,0.00291818,-0.00152868,1.08352,0.00260884,0.0174096,1805,589,11.6232,3.74443
588,435,11.6217,-3.38068,-0.000841213,0.00279789,0.00256474,0.00412296,-0.00216628,1.09392,0.00368921,0.028453,1812,589,11.6217,3.38067
595,435,11.5183,-3.00787,-0.00106285,0.00415015,0.00354051,0.00594013,-0.00285282,1.1027,0.00517987,0.0308293,1819,589,11.5183,3.00789
602,435,11.5128,-2.6452,0,0,0,0,0,0,0,-1,1826,589,11.5128,2.64522
609,435,10.941,-1.83826,0,0,0,0,0,0,0,-1,1833,589,10.9411,1.83828
616,435,5.05151,-2.75269,0,0,0,0,0,0,0,-1,1840,589,5.05157,2.7527
623,435,11.7588,3.9704,0,0,0,0,0,0,0,-1,1847,589,11.7587,-3.97043
630,435,4.72742,-0.87561,0,0,0,0,0,0,0,-1,1854,589,4.7274,0.875636
637,435,5.05286,1.48792,0,0,0,0,0,0,0,-1,1861,589,5.05291,-1.48792
644,435,0,0,0,0,0,0,0,0,0,-1,1868,589,0,0
651,435,0,0,0,0,0,0,0,0,0,-1,1875,589,0,0
658,435,0,0,0,0,0,0,0,0,0,-1,1882,589,0,0
665,435,0,0,0,0,0,0,0,0,0,-1,1889,589,0,0
672,435,0,0,0,0,0,0,0,0,0,-1,1896,589,0,0
679,435,0,0,0,0,0,0,0,0,0,-1,1903,589,0,0
686,435,0,0,0,0,0,0,0,0,0,-1,1910,589,0,0
693,435,0,0,0,0,0,0,0,0,0,-1,1917,589,0,0
700,435,0,0,0,0,0,0,0,0,0,-1,1924,589,0,0
707,435,0,0,0,0,0,0,0,0,0,-1,1931,589,0,0
714,435,0,0,0,0,0,0,0,0,0,-1,1938,589,0,0
721,435,0,0,0,0,0,0,0,0,0,-1,1945,589,0,0
728,435,0,0,0,0,0,0,0,0,0,-1,1952,589,0,0
735,435,0,0,0,0,0,0,0,0,0,-1,1959,589,0,0
742,435,0,0,0,0,0,0,0,0,0,-1,1966,589,0,0
749,435,0,0,0,0,0,0,0,0,0,-1,1973,589,0,0
756,435,0,0,0,0,0,0,0,0,0,-1,1980,589,0,0
763,435,0,0,0,0,0,0,0,0,0,-1,1987,589,0,0
770,435,0,0,0,0,0,0,0,0,0,-1,1994,589,0,0
777,435,0,0,0,0,0,0,0,0,0,-1,2001,589,0,0
784,435,0,0,0,0,0,0,0,0,0,-1,2008,589,0,0
791,435,0,0,0,0,0,0,0,0,0,-1,2015,589,0,0
798,435,0,0,0,0,0,0,0,0,0,-1,2022,589,0,0
805,435,0,0,0,0,0,0,0,0,0,-1,2029,589,0,0
812,435,0,0,0,0,0,0,0,0,0,-1,2036,589,0,0
-700,428,0,0,0,0,0,0,0,0,0,-1,524,596,0,0
-693,428,0,0,0,0,0,0,0,0,0,-1,531,596,0,0
-686,428,0,0,0,0,0,0,0,0,0,-1,538,596,0,0
-679,428,0,0,0,0,0,0,0,0,0,-1,545,596,0,0
-672,428,0,0,0,0,0,0,0,0,0,-1,552,596,0,0
-665,428,0,0,0,0,0,0,0,0,0,-1,559,596,0,0
-658,428,0,0,0,0,0,0,0,0,0,-1,566,596,0,0
-651,428,0,0,0,0,0,0,0,0,0,-1,573,596,0,0
-644,428,0,0,0,0,0,0,0,0,0,-1,580,596,0,0
-637,428,0,0,0,0,0,0,0,0,0,-1,587,596,0,0
-630,428,0,0,0,0,0,0,0,0,0,-1,594,596,0,0
-623,428,0,0,0,0,0,0,0,0,0,-1,601,596,0,0
-616,428,0,0,0,0,0,0,0,0,0,-1,608,596,0,0
-609,428,0,0,0,0,0,0,0,0,0,-1,615,596,0,0
-602,428,0,0,0,0,0,0,0,0,0,-1,622,596,0,0
-595,428,0,0,0,0,0,0,0,0,0,-1,629,596,0,0
-588,428,0,0,0,0,0,0,0,0,0,-1,636,596,0,0
-581,428,0,0,0,0,0,0,0,0,0,-1,643,596,0,0
-574,428,0,0,0,0,0,0,0,0,0,-1,650,596,0,0
-567,428,0,0,0,0,0,0,0,0,0,-1,657,596,0,0
-560,428,0,0,0,0,0,0,0,0,0,-1,664,596,0,0
-553,428,0,0,0,0,0,0,0,0,0,-1,671,596,0,0
-546,428,0,0,0,0,0,0,0,0,0,-1,678,596,0,0
-539,428,0,0,0,0,0,0,0,0,0,-1,685,596,0,0
-532,428,0,0,0,0,0,0,0,0,0,-1,692,596,0,0
-525,428,-9.59918,7.58618,0,0,0,0,0,0,0,-1,699,596,-9.59918,-7.5862
-518,428,-2.92285,-4.81854,0,0,0,0,0,0,0,-1,706,596,-2.92285,4.81856
-511,428,-3.68811,-4.79474,0,0,0,0,0,0,0,-1,713,596,-3.68811,4.79474
-504,428,-4.45337,-4.77094,0,0,0,0,0,0,0,-1,720,596,-4.45337,4.77092
-497,428,-2.85516,-3.52179,0,0,0,0,0,0,0,-1,727,596,-2.85517,3.52181
-490,428,-4.45392,-1.88556,0,0,0,0,0,0,0,-1,734,596,-4.45389,1.88555
-483,428,-6.28381,-3.23523,0,0,0,0,0,0,0,-1,741,596,-6.28384,3.23525
-476,428,-5.40778,-3.92059,0.00999818,0.0126517,-0.0112738,0.0226765,-2.66731e-05,-0.843971,0.0151266,0.0479548,748,596,-5.40777,3.92058
-469,428,-4.54749,-4.66193,0.00728076,0.00966898,-0.00864897,0.0172059,-0.000256142,-0.853996,0.0115569,0.0222938,755,596,-4.54749,4.6619
-462,428,-4.61871,-4.99109,0.00521786,0.00724379,-0.00646381,0.0127735,-0.000311878,-0.863123,0.00862153,0.020689,762,596,-4.61873,4.99109
-455,428,-4.65393,-5.39154,0.00360281,0.00532458,-0.00471622,0.00925784,-0.000330451,-0.875672,0.00628494,0.0133359,769,596,-4.65395,5.39152
-448,428,-4.65503,-5.7688,0.00229951,0.00370991,-0.00318834,0.0062701,-0.000260686,-0.894236,0.00426961,0.0115904,776,596,-4.65505,5.76882
-441,428,-4.64166,-6.13788,0.00127836,0.0024138,-0.00196005,0.00388669,-0.000194538,-0.926363,0.00265835,0.0133515,783,596,-4.64167,6.13788
-434,428,-4.63995,-6.5174,0.000384891,0.000943788,-0.000731753,0.00144764,-0.000118957,-0.967797,0.00100709,0.0102246,790,596,-4.63993,6.51741
-427,428,-4.64966,-6.89246,-0.000359163,-0.000150712,0.000289238,5.2506e-05,-0.000562381,0.958329,0.000393592,0.0113027,797,596,-4.64967,6.89246
-420,428,-4.64929,-7.21649,-0.00135797,-0.0014033,0.00148896,0.000108497,-0.00286977,0.777788,0.00195035,0.0116669,804,596,-4.6493,7.21651
-413,428,-4.64264,-7.54956,-0.00250473,-0.00288838,0.00280434,0.000114335,-0.00550744,0.75125,0.00371033,0.0129846,811,596,-4.64266,7.54956
-406,428,-4.64471,-7.89648,-0.0036165,-0.00433329,0.00406736,0.000108223,-0.00805801,0.741454,0.00540844,0.0139534,818,596,-4.64471,7.89647
-399,428,-4.64526,-8.26276,-0.00493616,-0.00631145,0.00565875,7.65738e-05,-0.0113242,0.724935,0.00757511,0.0125513,825,596,-4.64524,8.26275
-392,428,-4.64203,-8.6449,-0.0068183,-0.00843629,0.00759647,1.21295e-05,-0.0152667,0.73235,0.0101819,0.0155877,832,596,-4.64204,8.64488
-385,428,-4.69678,-8.98096,-0.00935814,-0.0112913,0.0100198,-0.000258442,-0.020391,0.737314,0.0135087,0.0296953,839,596,-4.6968,8.98095
-378,428,-4.65411,-9.26703,0,0,0,0,0,0,0,-1,846,596,-4.65413,9.26704
-371,428,-4.88861,-9.2796,0,0,0,0,0,0,0,-1,853,596,-4.88864,9.27963
-364,428,-5.9679,-9.18982,0,0,0,0,0,0,0,-1,860,596,-5.96787,9.18984
-357,428,-3.20996,-4.70966,0,0,0,0,0,0,0,-1,867,596,-3.20997,4.70965
-350,428,-1.62793,-3.94055,0,0,0,0,0,0,0,-1,874,596,-1.62794,3.94055
-343,428,-0.0567017,-4.80994,0,0,0,0,0,0,0,-1,881,596,-0.0567096,4.80996
-336,428,-3.29175,-1.39569,0,0,0,0,0,0,0,-1,888,596,-3.29172,1.39568
-329,428,-3.71564,-0.791321,0,0,0,0,0,0,0,-1,895,596,-3.71564,0.791299
-322,428,-5.52863,-3.59827,0,0,0,0,0,0,0,-1,902,596,-5.52865,3.59829
-315,428,-4.57172,-1.22052,0,0,0,0,0,0,0,-1,909,596,-4.57171,1.22052
-308,428,-5.94324,-0.810791,0,0,0,0,0,0,0,-1,916,596,-5.94321,0.810803
-301,428,0,0,0,0,0,0,0,0,0,-1,923,596,0,0
-294,428,0,0,0,0,0,0,0,0,0,-1,930,596,0,0
-287,428,0,0,0,0,0,0,0,0,0,-1,937,596,0,0
-280,428,0,0,0,0,0,0,0,0,0,-1,944,596,0,0
-273,428,0,0,0,0,0,0,0,0,0,-1,951,596,0,0
-266,428,0,0,0,0,0,0,0,0,0,-1,958,596,0,0
-259,428,0,0,0,0,0,0,0,0,0,-1,965,596,0,0
-252,428,0,0,0,0,0,0,0,0,0,-1,972,596,0,0
-245,428,0,0,0,0,0,0,0,0,0,-1,979,596,0,0
-238,428,0,0,0,0,0,0,0,0,0,-1,986,596,0,0
-231,428,0,0,0,0,0,0,0,0,0,-1,993,596,0,0
-224,428,0,0,0,0,0,0,0,0,0,-1,1000,596,0,0
-217,428,0,0,0,0,0,0,0,0,0,-1,1007,596,0,0
-210,428,0,0,0,0,0,0,0,0,0,-1,1014,596,0,0
-203,428,0,0,0,0,0,0,0,0,0,-1,1021,596,0,0
-196,428,0,0,0,0,0,0,0,0,0,-1,1028,596,0,0
-189,428,0,0,0,0,0,0,0,0,0,-1,1035,596,0,0
-182,428,0,0,0,0,0,0,0,0,0,-1,1042,596,0,0
-175,428,0,0,0,0,0,0,0,0,0,-1,1049,596,0,0
-168,428,0,0,0,0,0,0,0,0,0,-1,1056,596,0,0
-161,428,0,0,0,0,0,0,0,0,0,-1,1063,596,0,0
-154,428,0,0,0,0,0,0,0,0,0,-1,1070,596,0,0
-147,428,0,0,0,0,0,0,0,0,0,-1,1077,596,0,0
-140,428,0,0,0,0,0,0,0,0,0,-1,1084,596,0,0
-133,428,0,0,0,0,0,0,0,0,0,-1,1091,596,0,0
-126,428,0,0,0,0,0,0,0,0,0,-1,1098,596,0,0
-119,428,0,0,0,0,0,0,0,0,0,-1,1105,596,0,0
-112,428,0,0,0,0,0,0,0,0,0,-1,1112,596,0,0
-105,428,0,0,0,0,0,0,0,0,0,-1,1119,596,0,0
-98,428,0,0,0,0,0,0,0,0,0,-1,1126,596,0,0
-91,428,0,0,0,0,0,0,0,0,0,-1,1133,596,0,0
-84,428,0,0,0,0,0,0,0,0,0,-1,1140,596,0,0
-77,428,0,0,0,0,0,0,0,0,0,-1,1147,596,0,0
-70,428,0,0,0,0,0,0,0,0,0,-1,1154,596,0,0
-63,428,0,0,0,0,0,0,0,0,0,-1,1161,596,0,0
-56,428,0,0,0,0,0,0,0,0,0,-1,1168,596,0,0
-49,428,0,0,0,0,0,0,0,0,0,-1,1175,596,0,0
-42,428,0,0,0,0,0,0,0,0,0,-1,1182,596,0,0
-35,428,0,0,0,0,0,0,0,0,0,-1,1189,596,0,0
-28,428,0,0,0,0,0,0,0,0,0,-1,1196,596,0,0
-21,428,0,0,0,0,0,0,0,0,0,-1,1203,596,0,0
-14,428,0,0,0,0,0,0,0,0,0,-1,1210,596,0,0
-7,428,0,0,0,0,0,0,0,0,0,-1,1217,596,0,0
0,428,0,0,0,0,0,0,0,0,0,-1,1224,596,0,0
7,428,0,0,0,0,0,0,0,0,0,-1,1231,596,0,0
14,428,0,0,0,0,0,0,0,0,0,-1,1238,596,0,0
21,428,0,0,0,0,0,0,0,0,0,-1,1245,596,0,0
28,428,0,0,0,0,0,0,0,0,0,-1,1252,596,0,0
35,428,0,0,0,0,0,0,0,0,0,-1,1259,596,0,0
42,428,0,0,0,0,0,0,0,0,0,-1,1266,596,0,0
49,428,0,0,0,0,0,0,0,0,0,-1,1273,596,0,0
56,428,0,0,0,0,0,0,0,0,0,-1,1280,596,0,0
63,428,0,0,0,0,0,0,0,0,0,-1,1287,596,0,0
70,428,0,0,0,0,0,0,0,0,0,-1,1294,596,0,0
77,428,0,0,0,0,0,0,0,0,0,-1,1301,596,0,0
84,428,0,0,0,0,0,0,0,0,0,-1,1308,596,0,0
91,428,0,0,0,0,0,0,0,0,0,-1,1315,596,0,0
98,428,0,0,0,0,0,0,0,0,0,-1,1322,596,0,0
105,428,0,0,0,0,0,0,0,0,0,-1,1329,596,0,0
112,428,0,0,0,0,0,0,0,0,0,-1,1336,596,0,0
119,428,0,0,0,0,0,0,0,0,0,-1,1343,596,0,0
126,428,0,0,0,0,0,0,0,0,0,-1,1350,596,0,0
133,428,0,0,0,0,0,0,0,0,0,-1,1357,596,0,0
140,428,0,0,0,0,0,0,0,0,0,-1,1364,596,0,0
147,428,0,0,0,0,0,0,0,0,0,-1,1371,596,0,0
154,428,0,0,0,0,0,0,0,0,0,-1,1378,596,0,0
161,428,0,0,0,0,0,0,0,0,0,-1,1385,596,0,0
168,428,0,0,0,0,0,0,0,0,0,-1,1392,596,0,0
175,428,0,0,0,0,0,0,0,0,0,-1,1399,596,0,0
182,428,0,0,0,0,0,0,0,0,0,-1,1406,596,0,0
189,428,0,0,0,0,0,0,0,0,0,-1,1413,596,0,0
196,428,0,0,0,0,0,0,0,0,0,-1,1420,596,0,0
203,428,0,0,0,0,0,0,0,0,0,-1,1427,596,0,0
210,428,0,0,0,0,0,0,0,0,0,-1,1434,596,0,0
217,428,0,0,0,0,0,0,0,0,0,-1,1441,596,0,0
224,428,0,0,0,0,0,0,0,0,0,-1,1448,596,0,0
231,428,0,0,0,0,0,0,0,0,0,-1,1455,596,0,0
238,428,0,0,0,0,0,0,0,0,0,-1,1462,596,0,0
245,428,0,0,0,0,0,0,0,0,0,-1,1469,596,0,0
252,428,0,0,0,0,0,0,0,0,0,-1,1476,596,0,0
259,428,0,0,0,0,0,0,0,0,0,-1,1483,596,0,0
266,428,0,0,0,0,0,0,0,0,0,-1,1490,596,0,0
273,428,0,0,0,0,0,0,0,0,0,-1,1497,596,0,0
280,428,0,0,0,0,0,0,0,0,0,-1,1504,596,0,0
287,428,0,0,0,0,0,0,0,0,0,-1,1511,596,0,0
294,428,0,0,0,0,0,0,0,0,0,-1,1518,596,0,0
301,428,0,0,0,0,0,0,0,0,0,-1,1525,596,0,0
308,428,0,0,0,0,0,0,0,0,0,-1,1532,596,0,0
315,428,0,0,0,0,0,0,0,0,0,-1,1539,596,0,0
322,428,0,0,0,0,0,0,0,0,0,-1,1546,596,0,0
329,428,0,0,0,0,0,0,0,0,0,-1,1553,596,0,0
336,428,0,0,0,0,0,0,0,0,0,-1,1560,596,0,0
343,428,0,0,0,0,0,0,0,0,0,-1,1567,596,0,0
350,428,0,0,0,0,0,0,0,0,0,-1,1574,596,0,0
357,428,0,0,0,0,0,0,0,0,0,-1,1581,596,0,0
364,428,0,0,0,0,0,0,0,0,0,-1,1588,596,0,0
371,428,0,0,0,0,0,0,0,0,0,-1,1595,596,0,0
378,428,0,0,0,0,0,0,0,0,0,-1,1602,596,0,0
385,428,0,0,0,0,0,0,0,0,0,-1,1609,596,0,0
392,428,0,0,0,0,0,0,0,0,0,-1,1616,596,0,0
399,428,0,0,0,0,0,0,0,0,0,-1,1623,596,0,0
406,428,0,0,0,0,0,0,0,0,0,-1,1630,596,0,0
413,428,0,0,0,0,0,0,0,0,0,-1,1637,596,0,0
420,428,19.8469,1.3399,0,0,0,0,0,0,0,-1,1644,596,19.8469,-1.33992
427,428,20.7299,-0.225281,0,0,0,0,0,0,0,-1,1651,596,20.7299,0.225262
434,428,19.8915,-0.583069,0,0,0,0,0,0,0,-1,1658,596,19.8915,0.583075
441,428,8.17993,0.607483,0,0,0,0,0,0,0,-1,1665,596,8.17997,-0.607513
448,428,7.84338,-0.385986,0,0,0,0,0,0,0,-1,1672,596,7.84336,0.385978
455,428,6.64038,2.1123,0,0,0,0,0,0,0,-1,1679,596,6.64037,-2.11229
462,428,4.84106,4.12341,0,0,0,0,0,0,0,-1,1686,596,4.84107,-4.12339
469,428,7.83789,3.10083,0,0,0,0,0,0,0,-1,1693,596,7.83785,-3.10086
476,428,7.61255,1.73956,0,0,0,0,0,0,0,-1,1700,596,7.61252,-1.73958
483,428,7.22766,1.05121,0,0,0,0,0,0,0,-1,1707,596,7.2277,-1.05121
490,428,5.4071,-3.2793,0,0,0,0,0,0,0,-1,1714,596,5.40707,3.27929
497,428,7.84106,-3.65491,0,0,0,0,0,0,0,-1,1721,596,7.84107,3.65491
504,428,6.92139,-2.83356,0,0,0,0,0,0,0,-1,1728,596,6.92137,2.83353
511,428,7.88501,-3.78723,0,0,0,0,0,0,0,-1,1735,596,7.88502,3.78722
518,428,12.0385,-7.27155,0,0,0,0,0,0,0,-1,1742,596,12.0384,7.27154
525,428,11.9459,-6.84863,0.00446103,0.00303184,0.00314437,0.00697099,0.000521884,0.673665,0.0044835,0.0499404,1749,596,11.946,6.84863
532,428,12.0172,-6.33826,0.00338381,0.00222067,0.00233543,0.005209,0.00039549,0.66337,0.00334863,0.0197297,1756,596,12.0172,6.33827
539,428,12.0718,-5.97125,0.00248877,0.0015495,0.00161712,0.00370307,0.000335208,0.644078,0.00236491,0.0198101,1763,596,12.0718,5.97126
546,428,12.0558,-5.62415,0.0018106,0.00107775,0.0011381,0.00263981,0.000248546,0.629658,0.00168315,0.0161565,1770,596,12.0558,5.62417
553,428,12.0341,-5.26172,0.00125488,0.000804306,0.00087412,0.00193227,0.000126907,0.659279,0.00124803,0.0114377,1777,596,12.034,5.26174
560,428,12.0221,-4.87073,0.000725655,0.000702588,0.000744417,0.00145863,-3.0385e-05,0.777652,0.000982704,0.0119432,1784,596,12.0221,4.8707
567,428,12.0354,-4.48444,0.000294758,0.000812513,0.000816686,0.00141037,-0.000303098,0.938881,0.00105588,0.0110641,1791,596,12.0354,4.48446
574,428,12.0352,-4.11316,-1.67389e-05,0.00109923,0.00105951,0.0017387,-0.00065621,1.02777,0.00142901,0.0130115,1798,596,12.0351,4.11316
581,428,12.0059,-3.71716,-0.0002657,0.00157482,0.00147937,0.0023968,-0.00108768,1.06364,0.00205855,0.0114164,1805,596,12.0058,3.71714
588,428,11.9941,-3.31299,-0.000434831,0.00231557,0.00211135,0.00346009,-0.00157934,1.07406,0.00297629,0.0151204,1812,596,11.9942,3.31298
595,428,11.9634,-2.91925,-0.000512718,0.00343207,0.00296429,0.00502021,-0.00210085,1.07896,0.00422494,0.0123853,1819,596,11.9634,2.91927
602,428,11.9033,-2.51703,-0.000695685,0.00494027,0.0039818,0.00700038,-0.0027558,1.09334,0.00580771,0.0218264,1826,596,11.9033,2.51703
609,428,11.8456,-2.01587,0,0,0,0,0,0,0,-1,1833,596,11.8456,2.01586
616,428,5.88977,-0.239319,0,0,0,0,0,0,0,-1,1840,596,5.88983,0.239293
623,428,9.02405,1.30554,0,0,0,0,0,0,0,-1,1847,596,9.02407,-1.30554
630,428,7.07996,6.88562,0,0,0,0,0,0,0,-1,1854,596,7.0799,-6.88565
637,428,3.95435,1.90857,0,0,0,0,0,0,0,-1,1861,596,3.95439,-1.90858
644,428,5.75476,0.888977,0,0,0,0,0,0,0,-1,1868,596,5.75472,-0.888955
651,428,0,0,0,0,0,0,0,0,0,-1,1875,596,0,0
658,428,0,0,0,0,0,0,0,0,0,-1,1882,596,0,0
665,428,0,0,0,0,0,0,0,0,0,-1,1889,596,0,0
672,428,0,0,0,0,0,0,0,0,0,-1,1896,596,0,0
679,428,0,0,0,0,0,0,0,0,0,-1,1903,596,0,0
686,428,0,0,0,0,0,0,0,0,0,-1,1910,596,0,0
693,428,0,0,0,0,0,0,0,0,0,-1,1917,596,0,0
700,428,0,0,0,0,0,0,0,0,0,-1,1924,596,0,0
707,428,0,0,0,0,0,0,0,0,0,-1,1931,596,0,0
714,428,0,0,0,0,0,0,0,0,0,-1,1938,596,0,0
721,428,0,0,0,0,0,0,0,0,0,-1,1945,596,0,0
728,428,0,0,0,0,0,0,0,0,0,-1,1952,596,0,0
735,428,0,0,0,0,0,0,0,0,0,-1,1959,596,0,0
742,428,0,0,0,0,0,0,0,0,0,-1,1966,596,0,0
749,428,0,0,0,0,0,0,0,0,0,-1,1973,596,0,0
756,428,0,0,0,0,0,0,0,0,0,-1,1980,596,0,0
763,428,0,0,0,0,0,0,0,0,0,-1,1987,596,0,0
770,428,0,0,0,0,0,0,0,0,0,-1,1994,596,0,0
777,428,0,0,0,0,0,0,0,0,0,-1,2001,596,0,0
784,428,0,0,0,0,0,0,0,0,0,-1,2008,596,0,0
791,428,0,0,0,0,0,0,0,0,0,-1,2015,596,0,0
798,428,0,0,0,0,0,0,0,0,0,-1,2022,596,0,0
805,428,0,0,0,0,0,0,0,0,0,-1,2029,596,0,0
812,428,0,0,0,0,0,0,0,0,0,-1,2036,596,0,0
-700,421,0,0,0,0,0,0,0,0,0,-1,524,603,0,0
-693,421,0,0,0,0,0,0,0,0,0,-1,531,603,0,0
-686,421,0,0,0,0,0,0,0,0,0,-1,538,603,0,0
-679,421,0,0,0,0,0,0,0,0,0,-1,545,603,0,0
-672,421,0,0,0,0,0,0,0,0,0,-1,552,603,0,0
-665,421,0,0,0,0,0,0,0,0,0,-1,559,603,0,0
-658,421,0,0,0,0,0,0,0,0,0,-1,566,603,0,0
-651,421,0,0,0,0,0,0,0,0,0,-1,573,603,0,0
-644,421,0,0,0,0,0,0,0,0,0,-1,580,603,0,0
-637,421,0,0,0,0,0,0,0,0,0,-1,587,603,0,0
-630,421,0,0,0,0,0,0,0,0,0,-1,594,603,0,0
-623,421,0,0,0,0,0,0,0,0,0,-1,601,603,0,0
-616,421,0,0,0,0,0,0,0,0,0,-1,608,603,0,0
-609,421,0,0,0,0,0,0,0,0,0,-1,615,603,0,0
-602,421,0,0,0,0,0,0,0,0,0,-1,622,603,0,0
-595,421,0,0,0,0,0,0,0,0,0,-1,629,603,0,0
-588,421,0,0,0,0,0,0,0,0,0,-1,636,603,0,0
-581,421,0,0,0,0,0,0,0,0,0,-1,643,603,0,0
-574,421,0,0,0,0,0,0,0,0,0,-1,650,603,0,0
-567,421,0,0,0,0,0,0,0,0,0,-1,657,603,0,0
-560,421,0,0,0,0,0,0,0,0,0,-1,664,603,0,0
-553,421,0,0,0,0,0,0,0,0,0,-1,671,603,0,0
-546,421,0,0,0,0,0,0,0,0,0,-1,678,603,0,0
-539,421,0,0,0,0,0,0,0,0,0,-1,685,603,0,0
-532,421,-8.97382,6.95636,0,0,0,0,0,0,0,-1,692,603,-8.97384,-6.95634
-525,421,-2.11481,-8.04272,0,0,0,0,0,0,0,-1,699,603,-2.11483,8.0427
-518,421,-3.05908,-5.07233,0,0,0,0,0,0,0,-1,706,603,-3.0591,5.07235
-511,421,-4.63525,-4.08447,0,0,0,0,0,0,0,-1,713,603,-4.63524,4.08449
-504,421,-4.97272,-4.38385,0,0,0,0,0,0,0,-1,720,603,-4.9727,4.38383
-497,421,-4.67682,-1.86725,0,0,0,0,0,0,0,-1,727,603,-4.6768,1.86727
-490,421,-5.02966,-2.56738,0,0,0,0,0,0,0,-1,734,603,-5.02966,2.56741
-483,421,-4.89874,-3.99292,0,0,0,0,0,0,0,-1,741,603,-4.89877,3.99291
-476,421,-4.92554,-4.34601,0.00775736,0.0099148,-0.00863941,0.0175426,0.000129578,-0.847507,0.0116521,0.0276196,748,603,-4.92554,4.34599
-469,421,-5.00806,-4.64514,0.00593529,0.00759776,-0.00680672,0.0136238,-9.07588e-05,-0.846157,0.00911294,0.0215099,755,603,-5.00808,4.64516
-462,421,-5.01471,-5.04877,0.00445059,0.0056628,-0.0051897,0.0102817,-0.000168276,-0.84353,0.00691122,0.0194221,762,603,-5.01473,5.04877
-455,421,-5.00824,-5.38922,0.00321517,0.00408743,-0.00382209,0.0074982,-0.000195596,-0.842206,0.00506526,0.0183103,769,603,-5.00824,5.38923
-448,421,-5.02271,-5.73474,0.00214889,0.00266405,-0.00251962,0.00493923,-0.000126279,-0.836336,0.00333571,0.0179065,776,603,-5.0227,5.73472
-441,421,-5.00195,-6.13037,0.00119848,0.00148546,-0.00140371,0.00275299,-6.90585e-05,-0.836332,0.00185877,0.0142783,783,603,-5.00192,6.13035
-434,421,-5.01178,-6.50562,0.000311386,0.000123359,-0.000234153,0.000469694,-3.49494e-05,-0.594497,0.000325406,0.0105057,790,603,-5.01179,6.50563
-427,421,-5.0058,-6.86969,-0.000518788,-0.000962603,0.000815349,0.000104312,-0.0015857,0.652535,0.00109357,0.0100197,797,603,-5.00578,6.86969
-420,421,-5.00525,-7.19891,-0.00160937,-0.00222672,0.00204876,0.00015384,-0.00398992,0.710629,0.00271268,0.0120076,804,603,-5.00523,7.19892
-413,421,-5.01447,-7.54108,-0.00299359,-0.00385878,0.00356057,0.000160566,-0.00701293,0.724947,0.00472972,0.0139736,811,603,-5.01448,7.54105
-406,421,-5.03491,-7.91656,-0.00451303,-0.00558519,0.00512035,9.92264e-05,-0.0101974,0.73324,0.00683162,0.0177944,818,603,-5.03493,7.91656
-399,421,-4.97943,-8.33649,-0.00634911,-0.00791967,0.00708835,-2.67848e-06,-0.0142661,0.730231,0.00950984,0.0212233,825,603,-4.97944,8.33649
-392,421,-5.05652,-8.59613,-0.00893906,-0.010501,0.00957915,-0.000109108,-0.019331,0.744723,0.0128511,0.0293735,832,603,-5.05649,8.59614
-385,421,-5.13147,-8.98566,0,0,0,0,0,0,0,-1,839,603,-5.13149,8.98567
-378,421,-5.13782,-8.74323,0,0,0,0,0,0,0,-1,846,603,-5.13784,8.74325
-371,421,-5.65082,-7.01849,0,0,0,0,0,0,0,-1,853,603,-5.65082,7.0185
-364,421,-5.94189,-7.09875,0,0,0,0,0,0,0,-1,860,603,-5.94192,7.09878
-357,421,-7.62531,-8.26337,0,0,0,0,0,0,0,-1,867,603,-7.62532,8.26337
-350,421,-5.38019,-3.75024,0,0,0,0,0,0,0,-1,874,603,-5.38017,3.75026
-343,421,-6.22797,-2.57123,0,0,0,0,0,0,0,-1,881,603,-6.22798,2.57121
-336,421,-6.22882,-2.59369,0,0,0,0,0,0,0,-1,888,603,-6.22883,2.5937
-329,421,-4.50134,-1.49469,0,0,0,0,0,0,0,-1,895,603,-4.50137,1.49468
-322,421,-6.30377,-0.285339,0,0,0,0,0,0,0,-1,902,603,-6.30379,0.285355
-315,421,-4.47821,-1.26733,0,0,0,0,0,0,0,-1,909,603,-4.47824,1.26732
-308,421,0,0,0,0,0,0,0,0,0,-1,916,603,0,0
-301,421,0,0,0,0,0,0,0,0,0,-1,923,603,0,0
-294,421,0,0,0,0,0,0,0,0,0,-1,930,603,0,0
-287,421,0,0,0,0,0,0,0,0,0,-1,937,603,0,0
-280,421,0,0,0,0,0,0,0,0,0,-1,944,603,0,0
-273,421,0,0,0,0,0,0,0,0,0,-1,951,603,0,0
-266,421,0,0,0,0,0,0,0,0,0,-1,958,603,0,0
-259,421,0,0,0,0,0,0,0,0,0,-1,965,603,0,0
-252,421,0,0,0,0,0,0,0,0,0,-1,972,603,0,0
-245,421,0,0,0,0,0,0,0,0,0,-1,979,603,0,0
-238,421,0,0,0,0,0,0,0,0,0,-1,986,603,0,0
-231,421,0,0,0,0,0,0,0,0,0,-1,993,603,0,0
-224,421,0,0,0,0,0,0,0,0,0,-1,1000,603,0,0
-217,421,0,0,0,0,0,0,0,0,0,-1,1007,603,0,0
-210,421,0,0,0,0,0,0,0,0,0,-1,1014,603,0,0
-203,421,0,0,0,0,0,0,0,0,0,-1,1021,603,0,0
-196,421,0,0,0,0,0,0,0,0,0,-1,1028,603,0,0
-189,421,0,0,0,0,0,0,0,0,0,-1,1035,603,0,0
-182,421,0,0,0,0,0,0,0,0,0,-1,1042,603,0,0
-175,421,0,0,0,0,0,0,0,0,0,-1,1049,603,0,0
-168,421,0,0,0,0,0,0,0,0,0,-1,1056,603,0,0
-161,421,0,0,0,0,0,0,0,0,0,-1,1063,603,0,0
-154,421,0,0,0,0,0,0,0,0,0,-1,1070,603,0,0
-147,421,0,0,0,0,0,0,0,0,0,-1,1077,603,0,0
-140,421,0,0,0,0,0,0,0,0,0,-1,1084,603,0,0
-133,421,0,0,0,0,0,0,0,0,0,-1,1091,603,0,0
-126,421,0,0,0,0,0,0,0,0,0,-1,1098,603,0,0
-119,421,0,0,0,0,0,0,0,0,0,-1,1105,603,0,0
-112,421,0,0,0,0,0,0,0,0,0,-1,1112,603,0,0
-105,421,0,0,0,0,0,0,0,0,0,-1,1119,603,0,0
-98,421,0,0,0,0,0,0,0,0,0,-1,1126,603,0,0
-91,421,0,0,0,0,0,0,0,0,0,-1,1133,603,0,0
-84,421,0,0,0,0,0,0,0,0,0,-1,1140,603,0,0
-77,421,0,0,0,0,0,0,0,0,0,-1,1147,603,0,0
-70,421,0,0,0,0,0,0,0,0,0,-1,1154,603,0,0
-63,421,0,0,0,0,0,0,0,0,0,-1,1161,603,0,0
-56,421,0,0,0,0,0,0,0,0,0,-1,1168,603,0,0
-49,421,0,0,0,0,0,0,0,0,0,-1,1175,603,0,0
-42,421,0,0,0,0,0,0,0,0,0,-1,1182,603,0,0
-35,421,0,0,0,0,0,0,0,0,0,-1,1189,603,0,0
-28,421,0,0,0,0,0,0,0,0,0,-1,1196,603,0,0
-21,421,0,0,0,0,0,0,0,0,0,-1,1203,603,0,0
-14,421,0,0,0,0,0,0,0,0,0,-1,1210,603,0,0
-7,421,0,0,0,0,0,0,0,0,0,-1,1217,603,0,0
0,421,0,0,0,0,0,0,0,0,0,-1,1224,603,0,0
7,421,0,0,0,0,0,0,0,0,0,-1,1231,603,0,0
14,421,0,0,0,0,0,0,0,0,0,-1,1238,603,0,0
21,421,0,0,0,0,0,0,0,0,0,-1,1245,603,0,0
28,421,0,0,0,0,0,0,0,0,0,-1,1252,603,0,0
35,421,0,0,0,0,0,0,0,0,0,-1,1259,603,0,0
42,421,0,0,0,0,0,0,0,0,0,-1,1266,603,0,0
49,421,0,0,0,0,0,0,0,0,0,-1,1273,603,0,0
56,421,0,0,0,0,0,0,0,0,0,-1,1280,603,0,0
63,421,0,0,0,0,0,0,0,0,0,-1,1287,603,0,0
70,421,0,0,0,0,0,0,0,0,0,-1,1294,603,0,0
77,421,0,0,0,0,0,0,0,0,0,-1,1301,603,0,0
84,421,0,0,0,0,0,0,0,0,0,-1,1308,603,0,0
91,421,0,0,0,0,0,0,0,0,0,-1,1315,603,0,0
98,421,0,0,0,0,0,0,0,0,0,-1,1322,603,0,0
105,421,0,0,0,0,0,0,0,0,0,-1,1329,603,0,0
112,421,0,0,0,0,0,0,0,0,0,-1,1336,603,0,0
119,421,0,0,0,0,0,0,0,0,0,-1,1343,603,0,0
126,421,0,0,0,0,0,0,0,0,0,-1,1350,603,0,0
133,421,0,0,0,0,0,0,0,0,0,-1,1357,603,0,0
140,421,0,0,0,0,0,0,0,0,0,-1,1364,603,0,0
147,421,0,0,0,0,0,0,0,0,0,-1,1371,603,0,0
154,421,0,0,0,0,0,0,0,0,0,-1,1378,603,0,0
161,421,0,0,0,0,0,0,0,0,0,-1,1385,603,0,0
168,421,0,0,0,0,0,0,0,0,0,-1,1392,603,0,0
175,421,0,0,0,0,0,0,0,0,0,-1,1399,603,0,0
182,421,0,0,0,0,0,0,0,0,0,-1,1406,603,0,0
189,421,0,0,0,0,0,0,0,0,0,-1,1413,603,0,0
196,421,0,0,0,0,0,0,0,0,0,-1,1420,603,0,0
203,421,0,0,0,0,0,0,0,0,0,-1,1427,603,0,0
210,421,0,0,0,0,0,0,0,0,0,-1,1434,603,0,0
217,421,0,0,0,0,0,0,0,0,0,-1,1441,603,0,0
224,421,0,0,0,0,0,0,0,0,0,-1,1448,603,0,0
231,421,0,0,0,0,0,0,0,0,0,-1,1455,603,0,0
238,421,0,0,0,0,0,0,0,0,0,-1,1462,603,0,0
245,421,0,0,0,0,0,0,0,0,0,-1,1469,603,0,0
252,421,0,0,0,0,0,0,0,0,0,-1,1476,603,0,0
259,421,0,0,0,0,0,0,0,0,0,-1,1483,603,0,0
266,421,0,0,0,0,0,0,0,0,0,-1,1490,603,0,0
273,421,0,0,0,0,0,0,0,0,0,-1,1497,603,0,0
280,421,0,0,0,0,0,0,0,0,0,-1,1504,603,0,0
287,421,0,0,0,0,0,0,0,0,0,-1,1511,603,0,0
294,421,0,0,0,0,0,0,0,0,0,-1,1518,603,0,0
301,421,0,0,0,0,0,0,0,0,0,-1,1525,603,0,0
308,421,0,0,0,0,0,0,0,0,0,-1,1532,603,0,0
315,421,0,0,0,0,0,0,0,0,0,-1,1539,603,0,0
322,421,0,0,0,0,0,0,0,0,0,-1,1546,603,0,0
329,421,0,0,0,0,0,0,0,0,0,-1,1553,603,0,0
336,421,0,0,0,0,0,0,0,0,0,-1,1560,603,0,0
343,421,0,0,0,0,0,0,0,0,0,-1,1567,603,0,0
350,421,0,0,0,0,0,0,0,0,0,-1,1574,603,0,0
357,421,0,0,0,0,0,0,0,0,0,-1,1581,603,0,0
364,421,0,0,0,0,0,0,0,0,0,-1,1588,603,0,0
371,421,0,0,0,0,0,0,0,0,0,-1,1595,603,0,0
378,421,0,0,0,0,0,0,0,0,0,-1,1602,603,0,0
385,421,0,0,0,0,0,0,0,0,0,-1,1609,603,0,0
392,421,0,0,0,0,0,0,0,0,0,-1,1616,603,0,0
399,421,0,0,0,0,0,0,0,0,0,-1,1623,603,0,0
406,421,0,0,0,0,0,0,0,0,0,-1,1630,603,0,0
413,421,0,0,0,0,0,0,0,0,0,-1,1637,603,0,0
420,421,0,0,0,0,0,0,0,0,0,-1,1644,603,0,0
427,421,0,0,0,0,0,0,0,0,0,-1,1651,603,0,0
434,421,3.68176,-0.0327759,0,0,0,0,0,0,0,-1,1658,603,3.6818,0.0328037
441,421,8.06689,0.527832,0,0,0,0,0,0,0,-1,1665,603,8.06693,-0.527851
448,421,6.93921,0.802246,0,0,0,0,0,0,0,-1,1672,603,6.93923,-0.802251
455,421,7.29456,2.14825,0,0,0,0,0,0,0,-1,1679,603,7.29461,-2.14827
462,421,7.86902,3.53174,0,0,0,0,0,0,0,-1,1686,603,7.869,-3.53173
469,421,8.06604,2.81213,0,0,0,0,0,0,0,-1,1693,603,8.06606,-2.81212
476,421,8.26306,2.09253,0,0,0,0,0,0,0,-1,1700,603,8.26312,-2.09251
483,421,8.05322,0.798096,0,0,0,0,0,0,0,-1,1707,603,8.05323,-0.7981
490,421,7.51233,0.213074,0,0,0,0,0,0,0,-1,1714,603,7.51235,-0.213043
497,421,7.49634,-2.86688,0,0,0,0,0,0,0,-1,1721,603,7.4963,2.86688
504,421,6.90491,-2.18671,0,0,0,0,0,0,0,-1,1728,603,6.90491,2.18669
511,421,6.31348,-1.50653,0,0,0,0,0,0,0,-1,1735,603,6.31353,1.5065
518,421,6.27588,-2.49878,0,0,0,0,0,0,0,-1,1742,603,6.2759,2.4988
525,421,12.1586,-6.98212,0,0,0,0,0,0,0,-1,1749,603,12.1586,6.9821
532,421,12.2944,-6.37665,0.00377077,0.00284644,0.00264861,0.00599723,0.00061998,0.699022,0.00380835,0.0381084,1756,603,12.2944,6.37666
539,421,12.4381,-5.95721,0.00275213,0.00204306,0.0017629,0.00419579,0.000599394,0.686167,0.00262035,0.020111,1763,603,12.4381,5.9572
546,421,12.4323,-5.61102,0.00198973,0.00134143,0.00111435,0.00282611,0.000505045,0.643859,0.00174033,0.0128021,1770,603,12.4322,5.611
553,421,12.406,-5.23438,0.00139657,0.000937446,0.000769059,0.0019696,0.00036442,0.640358,0.00121003,0.0126046,1777,603,12.4061,5.23438
560,421,12.3937,-4.83136,0.000841296,0.000732122,0.000575214,0.00136451,0.00020891,0.73809,0.00084865,0.0153945,1784,603,12.3936,4.83137
567,421,12.4189,-4.46997,0.000398266,0.000744374,0.000593817,0.00118984,-4.71993e-05,0.927184,0.000809418,0.0182015,1791,603,12.4189,4.46998
574,421,12.4242,-4.08557,0.000106973,0.000943015,0.000797419,0.00142534,-0.00037535,1.02681,0.00109696,0.0188251,1798,603,12.4242,4.08557
581,421,12.4019,-3.6756,-0.000100676,0.00129608,0.0011492,0.00194247,-0.000747064,1.05843,0.00160311,0.0149534,1805,603,12.4018,3.67561
588,421,12.3798,-3.32166,-0.000223919,0.00190836,0.00169035,0.0028407,-0.00115626,1.06675,0.00237498,0.0111971,1812,603,12.3798,3.32168
595,421,12.384,-2.91516,-0.000207682,0.00282959,0.00244999,0.00419343,-0.00157153,1.06284,0.00344123,0.0149442,1819,603,12.384,2.91519
602,421,12.3518,-2.56348,-0.000199589,0.0040622,0.00334187,0.00589474,-0.00203213,1.06921,0.00475424,0.0157186,1826,603,12.3518,2.56346
609,421,12.2407,-2.08759,0,0,0,0,0,0,0,-1,1833,603,12.2407,2.08758
616,421,12.3793,-1.48767,0,0,0,0,0,0,0,-1,1840,603,12.3793,1.4877
623,421,6.19885,0.376648,0,0,0,0,0,0,0,-1,1847,603,6.19881,-0.376624
630,421,6.54993,0.778748,0,0,0,0,0,0,0,-1,1854,603,6.54991,-0.778744
637,421,3.74512,1.65405,0,0,0,0,0,0,0,-1,1861,603,3.74517,-1.65407
644,421,3.58081,0.354675,0,0,0,0,0,0,0,-1,1868,603,3.58082,-0.354704
651,421,3.28687,3.66351,0,0,0,0,0,0,0,-1,1875,603,3.28688,-3.66353
658,421,0,0,0,0,0,0,0,0,0,-1,1882,603,0,0
665,421,0,0,0,0,0,0,0,0,0,-1,1889,603,0,0
672,421,0,0,0,0,0,0,0,0,0,-1,1896,603,0,0
679,421,0,0,0,0,0,0,0,0,0,-1,1903,603,0,0
686,421,0,0,0,0,0,0,0,0,0,-1,1910,603,0,0
693,421,0,0,0,0,0,0,0,0,0,-1,1917,603,0,0
700,421,0,0,0,0,0,0,0,0,0,-1,1924,603,0,0
707,421,0,0,0,0,0,0,0,0,0,-1,1931,603,0,0
714,421,0,0,0,0,0,0,0,0,0,-1,1938,603,0,0
721,421,0,0,0,0,0,0,0,0,0,-1,1945,603,0,0
728,421,0,0,0,0,0,0,0,0,0,-1,1952,603,0,0
735,421,0,0,0,0,0,0,0,0,0,-1,1959,603,0,0
742,421,0,0,0,0,0,0,0,0,0,-1,1966,603,0,0
749,421,0,0,0,0,0,0,0,0,0,-1,1973,603,0,0
756,421,0,0,0,0,0,0,0,0,0,-1,1980,603,0,0
763,421,0,0,0,0,0,0,0,0,0,-1,1987,603,0,0
770,421,0,0,0,0,0,0,0,0,0,-1,1994,603,0,0
777,421,0,0,0,0,0,0,0,0,0,-1,2001,603,0,0
784,421,0,0,0,0,0,0,0,0,0,-1,2008,603,0,0
791,421,0,0,0,0,0,0,0,0,0,-1,2015,603,0,0
798,421,0,0,0,0,0,0,0,0,0,-1,2022,603,0,0
805,421,0,0,0,0,0,0,0,0,0,-1,2029,603,0,0
812,421,0,0,0,0,0,0,0,0,0,-1,2036,603,0,0
-700,414,0,0,0,0,0,0,0,0,0,-1,524,610,0,0
-693,414,0,0,0,0,0,0,0,0,0,-1,531,610,0,0
-686,414,0,0,0,0,0,0,0,0,0,-1,538,610,0,0
-679,414,0,0,0,0,0,0,0,0,0,-1,545,610,0,0
-672,414,0,0,0,0,0,0,0,0,0,-1,552,610,0,0
-665,414,0,0,0,0,0,0,0,0,0,-1,559,610,0,0
-658,414,0,0,0,0,0,0,0,0,0,-1,566,610,0,0
-651,414,0,0,0,0,0,0,0,0,0,-1,573,610,0,0
-644,414,0,0,0,0,0,0,0,0,0,-1,580,610,0,0
-637,414,0,0,0,0,0,0,0,0,0,-1,587,610,0,0
-630,414,0,0,0,0,0,0,0,0,0,-1,594,610,0,0
-623,414,0,0,0,0,0,0,0,0,0,-1,601,610,0,0
-616,414,0,0,0,0,0,0,0,0,0,-1,608,610,0,0
-609,414,0,0,0,0,0,0,0,0,0,-1,615,610,0,0
-602,414,0,0,0,0,0,0,0,0,0,-1,622,610,0,0
-595,414,0,0,0,0,0,0,0,0,0,-1,629,610,0,0
-588,414,0,0,0,0,0,0,0,0,0,-1,636,610,0,0
-581,414,0,0,0,0,0,0,0,0,0,-1,643,610,0,0
-574,414,0,0,0,0,0,0,0,0,0,-1,650,610,0,0
-567,414,0,0,0,0,0,0,0,0,0,-1,657,610,0,0
-560,414,0,0,0,0,0,0,0,0,0,-1,664,610,0,0
-553,414,0,0,0,0,0,0,0,0,0,-1,671,610,0,0
-546,414,0,0,0,0,0,0,0,0,0,-1,678,610,0,0
-539,414,-7.50146,5.65619,0,0,0,0,0,0,0,-1,685,610,-7.50149,-5.65617
-532,414,-8.15204,4.01605,0,0,0,0,0,0,0,-1,692,610,-8.15206,-4.01606
-525,414,-3.47137,-3.27924,0,0,0,0,0,0,0,-1,699,610,-3.47136,3.27922
-518,414,-3.41998,-4.42413,0,0,0,0,0,0,0,-1,706,610,-3.42001,4.4241
-511,414,-3.92542,-4.97021,0,0,0,0,0,0,0,-1,713,610,-3.92542,4.97023
-504,414,-1.62408,-3.64496,0,0,0,0,0,0,0,-1,720,610,-1.62406,3.64499
-497,414,-5.40088,-2.46161,0,0,0,0,0,0,0,-1,727,610,-5.40086,2.46164
-490,414,-5.35272,-3.06757,0.00827122,0.0120701,-0.00894199,0.0193122,0.00102917,-0.890052,0.0125458,0.0450942,734,610,-5.35273,3.06758
-483,414,-5.26416,-3.86029,0.00710574,0.00969574,-0.00777115,0.0162791,0.000522425,-0.86796,0.0106828,0.0237844,741,610,-5.26413,3.86032
-476,414,-5.33551,-4.30225,0.00589832,0.00765673,-0.00652621,0.0133627,0.000192354,-0.852355,0.00884504,0.0157218,748,610,-5.33552,4.30228
-469,414,-5.3894,-4.65027,0.00475945,0.00586454,-0.0052725,0.0106134,1.06236e-05,-0.837607,0.00707204,0.0130174,755,610,-5.38942,4.65024
-462,414,-5.37677,-5.03094,0.0037407,0.00433281,-0.00409516,0.00814261,-6.90934e-05,-0.821482,0.00545158,0.0213827,762,610,-5.37677,5.03097
-455,414,-5.37799,-5.40692,0.00280833,0.00303827,-0.00301255,0.00593804,-9.14461e-05,-0.804471,0.00398953,0.0236986,769,610,-5.37799,5.40692
-448,414,-5.4118,-5.74432,0.00193872,0.00177027,-0.00188698,0.00374335,-3.43624e-05,-0.763095,0.0025071,0.0237409,776,610,-5.41181,5.74431
-441,414,-5.37415,-6.12305,0.00103684,0.000678419,-0.000848454,0.00172481,-9.54379e-06,-0.681317,0.00115306,0.016918,783,610,-5.37414,6.12304
-434,414,-5.37085,-6.49677,0.000137141,-0.000575176,0.0002768,0.000232056,-0.000670091,0.330336,0.000540933,0.00974883,790,610,-5.37086,6.49674
-427,414,-5.37134,-6.8479,-0.000807235,-0.00167347,0.00137111,0.000197542,-0.00267824,0.632414,0.00185485,0.0105231,797,610,-5.37135,6.84789
-420,414,-5.3623,-7.19098,-0.00200594,-0.00295793,0.00263531,0.000196024,-0.00515989,0.696051,0.00350709,0.0106973,804,610,-5.36233,7.191
-413,414,-5.38654,-7.56653,-0.00366015,-0.00475523,0.00436542,0.000191938,-0.00860732,0.72301,0.00580325,0.0112148,811,610,-5.38653,7.56651
-406,414,-5.388,-8.01538,-0.00568505,-0.00683294,0.00628854,5.56889e-05,-0.0125737,0.73989,0.00840107,0.0198742,818,610,-5.38801,8.01537
-399,414,-5.41223,-8.23315,-0.00819765,-0.00962192,0.00874123,-0.000139591,-0.01768,0.744754,0.0117404,0.033759,825,610,-5.41223,8.23314
-392,414,-5.53021,-8.36664,-0.0117177,-0.0128339,0.0119694,-0.00029337,-0.0242582,0.762101,0.0160753,0.0374033,832,610,-5.53023,8.36661
-385,414,-5.90063,-8.52472,0,0,0,0,0,0,0,-1,839,610,-5.90062,8.52474
-378,414,-6.28192,-8.69983,0,0,0,0,0,0,0,-1,846,610,-6.28193,8.6998
-371,414,-6.52948,-6.48608,0,0,0,0,0,0,0,-1,853,610,-6.52945,6.48606
-364,414,-6.76282,-6.58759,0,0,0,0,0,0,0,-1,860,610,-6.7628,6.58756
-357,414,-9.08685,-8.86188,0,0,0,0,0,0,0,-1,867,610,-9.08688,8.86187
-350,414,-6.4502,-2.41821,0,0,0,0,0,0,0,-1,874,610,-6.45021,2.41822
-343,414,-6.80249,-2.32117,0,0,0,0,0,0,0,-1,881,610,-6.80252,2.32116
-336,414,-7.11017,-2.52026,0,0,0,0,0,0,0,-1,888,610,-7.11016,2.52026
-329,414,-7.59747,-2.70313,0,0,0,0,0,0,0,-1,895,610,-7.59747,2.70315
-322,414,-4.42236,-1.29163,0,0,0,0,0,0,0,-1,902,610,-4.42238,1.2916
-315,414,0,0,0,0,0,0,0,0,0,-1,909,610,0,0
-308,414,0,0,0,0,0,0,0,0,0,-1,916,610,0,0
-301,414,0,0,0,0,0,0,0,0,0,-1,923,610,0,0
-294,414,0,0,0,0,0,0,0,0,0,-1,930,610,0,0
-287,414,0,0,0,0,0,0,0,0,0,-1,937,610,0,0
-280,414,0,0,0,0,0,0,0,0,0,-1,944,610,0,0
-273,414,0,0,0,0,0,0,0,0,0,-1,951,610,0,0
-266,414,0,0,0,0,0,0,0,0,0,-1,958,610,0,0
-259,414,0,0,0,0,0,0,0,0,0,-1,965,610,0,0
-252,414,0,0,0,0,0,0,0,0,0,-1,972,610,0,0
-245,414,0,0,0,0,0,0,0,0,0,-1,979,610,0,0
-238,414,0,0,0,0,0,0,0,0,0,-1,986,610,0,0
-231,414,0,0,0,0,0,0,0,0,0,-1,993,610,0,0
-224,414,0,0,0,0,0,0,0,0,0,-1,1000,610,0,0
-217,414,0,0,0,0,0,0,0,0,0,-1,1007,610,0,0
-210,414,0,0,0,0,0,0,0,0,0,-1,1014,610,0,0
-203,414,0,0,0,0,0,0,0,0,0,-1,1021,610,0,0
-196,414,0,0,0,0,0,0,0,0,0,-1,1028,610,0,0
-189,414,0,0,0,0,0,0,0,0,0,-1,1035,610,0,0
-182,414,0,0,0,0,0,0,0,0,0,-1,1042,610,0,0
-175,414,0,0,0,0,0,0,0,0,0,-1,1049,610,0,0
-168,414,0,0,0,0,0,0,0,0,0,-1,1056,610,0,0
-161,414,0,0,0,0,0,0,0,0,0,-1,1063,610,0,0
-154,414,0,0,0,0,0,0,0,0,0,-1,1070,610,0,0
-147,414,0,0,0,0,0,0,0,0,0,-1,1077,610,0,0
-140,414,0,0,0,0,0,0,0,0,0,-1,1084,610,0,0
-133,414,0,0,0,0,0,0,0,0,0,-1,1091,610,0,0
-126,414,0,0,0,0,0,0,0,0,0,-1,1098,610,0,0
-119,414,0,0,0,0,0,0,0,0,0,-1,1105,610,0,0
-112,414,0,0,0,0,0,0,0,0,0,-1,1112,610,0,0
-105,414,0,0,0,0,0,0,0,0,0,-1,1119,610,0,0
-98,414,0,0,0,0,0,0,0,0,0,-1,1126,610,0,0
-91,414,0,0,0,0,0,0,0,0,0,-1,1133,610,0,0
-84,414,0,0,0,0,0,0,0,0,0,-1,1140,610,0,0
-77,414,0,0,0,0,0,0,0,0,0,-1,1147,610,0,0
-70,414,0,0,0,0,0,0,0,0,0,-1,1154,610,0,0
-63,414,0,0,0,0,0,0,0,0,0,-1,1161,610,0,0
-56,414,0,0,0,0,0,0,0,0,0,-1,1168,610,0,0
-49,414,0,0,0,0,0,0,0,0,0,-1,1175,610,0,0
-42,414,0,0,0,0,0,0,0,0,0,-1,1182,610,0,0
-35,414,0,0,0,0,0,0,0,0,0,-1,1189,610,0,0
-28,414,0,0,0,0,0,0,0,0,0,-1,1196,610,0,0
-21,414,0,0,0,0,0,0,0,0,0,-1,1203,610,0,0
-14,414,0,0,0,0,0,0,0,0,0,-1,1210,610,0,0
-7,414,0,0,0,0,0,0,0,0,0,-1,1217,610,0,0
0,414,0,0,0,0,0,0,0,0,0,-1,1224,610,0,0
7,414,0,0,0,0,0,0,0,0,0,-1,1231,610,0,0
14,414,0,0,0,0,0,0,0,0,0,-1,1238,610,0,0
21,414,0,0,0,0,0,0,0,0,0,-1,1245,610,0,0
28,414,0,0,0,0,0,0,0,0,0,-1,1252,610,0,0
35,414,0,0,0,0,0,0,0,0,0,-1,1259,610,0,0
42,414,0,0,0,0,0,0,0,0,0,-1,1266,610,0,0
49,414,0,0,0,0,0,0,0,0,0,-1,1273,610,0,0
56,414,0,0,0,0,0,0,0,0,0,-1,1280,610,0,0
63,414,0,0,0,0,0,0,0,0,0,-1,1287,610,0,0
70,414,0,0,0,0,0,0,0,0,0,-1,1294,610,0,0
77,414,0,0,0,0,0,0,0,0,0,-1,1301,610,0,0
84,414,0,0,0,0,0,0,0,0,0,-1,1308,610,0,0
91,414,0,0,0,0,0,0,0,0,0,-1,1315,610,0,0
98,414,0,0,0,0,0,0,0,0,0,-1,1322,610,0,0
105,414,0,0,0,0,0,0,0,0,0,-1,1329,610,0,0
112,414,0,0,0,0,0,0,0,0,0,-1,1336,610,0,0
119,414,0,0,0,0,0,0,0,0,0,-1,1343,610,0,0
126,414,0,0,0,0,0,0,0,0,0,-1,1350,610,0,0
133,414,0,0,0,0,0,0,0,0,0,-1,1357,610,0,0
140,414,0,0,0,0,0,0,0,0,0,-1,1364,610,0,0
147,414,0,0,0,0,0,0,0,0,0,-1,1371,610,0,0
154,414,0,0,0,0,0,0,0,0,0,-1,1378,610,0,0
161,414,0,0,0,0,0,0,0,0,0,-1,1385,610,0,0
168,414,0,0,0,0,0,0,0,0,0,-1,1392,610,0,0
175,414,0,0,0,0,0,0,0,0,0,-1,1399,610,0,0
182,414,0,0,0,0,0,0,0,0,0,-1,1406,610,0,0
189,414,0,0,0,0,0,0,0,0,0,-1,1413,610,0,0
196,414,0,0,0,0,0,0,0,0,0,-1,1420,610,0,0
203,414,0,0,0,0,0,0,0,0,0,-1,1427,610,0,0
210,414,0,0,0,0,0,0,0,0,0,-1,1434,610,0,0
217,414,0,0,0,0,0,0,0,0,0,-1,1441,610,0,0
224,414,0,0,0,0,0,0,0,0,0,-1,1448,610,0,0
231,414,0,0,0,0,0,0,0,0,0,-1,1455,610,0,0
238,414,0,0,0,0,0,0,0,0,0,-1,1462,610,0,0
245,414,0,0,0,0,0,0,0,0,0,-1,1469,610,0,0
252,414,0,0,0,0,0,0,0,0,0,-1,1476,610,0,0
259,414,0,0,0,0,0,0,0,0,0,-1,1483,610,0,0
266,414,0,0,0,0,0,0,0,0,0,-1,1490,610,0,0
273,414,0,0,0,0,0,0,0,0,0,-1,1497,610,0,0
280,414,0,0,0,0,0,0,0,0,0,-1,1504,610,0,0
287,414,0,0,0,0,0,0,0,0,0,-1,1511,610,0,0
294,414,0,0,0,0,0,0,0,0,0,-1,1518,610,0,0
301,414,0,0,0,0,0,0,0,0,0,-1,1525,610,0,0
308,414,0,0,0,0,0,0,0,0,0,-1,1532,610,0,0
315,414,0,0,0,0,0,0,0,0,0,-1,1539,610,0,0
322,414,0,0,0,0,0,0,0,0,0,-1,1546,610,0,0
329,414,0,0,0,0,0,0,0,0,0,-1,1553,610,0,0
336,414,0,0,0,0,0,0,0,0,0,-1,1560,610,0,0
343,414,0,0,0,0,0,0,0,0,0,-1,1567,610,0,0
350,414,0,0,0,0,0,0,0,0,0,-1,1574,610,0,0
357,414,0,0,0,0,0,0,0,0,0,-1,1581,610,0,0
364,414,0,0,0,0,0,0,0,0,0,-1,1588,610,0,0
371,414,0,0,0,0,0,0,0,0,0,-1,1595,610,0,0
378,414,0,0,0,0,0,0,0,0,0,-1,1602,610,0,0
385,414,0,0,0,0,0,0,0,0,0,-1,1609,610,0,0
392,414,0,0,0,0,0,0,0,0,0,-1,1616,610,0,0
399,414,0,0,0,0,0,0,0,0,0,-1,1623,610,0,0
406,414,0,0,0,0,0,0,0,0,0,-1,1630,610,0,0
413,414,0,0,0,0,0,0,0,0,0,-1,1637,610,0,0
420,414,0,0,0,0,0,0,0,0,0,-1,1644,610,0,0
427,414,0,0,0,0,0,0,0,0,0,-1,1651,610,0,0
434,414,0,0,0,0,0,0,0,0,0,-1,1658,610,0,0
441,414,7.84375,0.584412,0,0,0,0,0,0,0,-1,1665,610,7.84379,-0.584394
448,414,7.40808,1.25446,0,0,0,0,0,0,0,-1,1672,610,7.40807,-1.25446
455,414,6.3512,1.73846,0,0,0,0,0,0,0,-1,1679,610,6.3512,-1.73847
462,414,8.18103,3.22113,0,0,0,0,0,0,0,-1,1686,610,8.18108,-3.22112
469,414,8.38513,2.49579,0,0,0,0,0,0,0,-1,1693,610,8.38516,-2.49576
476,414,8.64099,1.71161,0,0,0,0,0,0,0,-1,1700,610,8.64097,-1.71164
483,414,8.62744,0.687622,0,0,0,0,0,0,0,-1,1707,610,8.62749,-0.687615
490,414,8.38831,-0.0302734,0,0,0,0,0,0,0,-1,1714,610,8.38835,0.0302913
497,414,4.71094,-0.110046,0,0,0,0,0,0,0,-1,1721,610,4.71089,0.110024
504,414,7.19568,-1.43835,0,0,0,0,0,0,0,-1,1728,610,7.19563,1.43836
511,414,5.94153,-1.28772,0,0,0,0,0,0,0,-1,1735,610,5.94151,1.28769
518,414,4.53381,-0.0996704,0,0,0,0,0,0,0,-1,1742,610,4.53378,0.0996819
525,414,6.18811,-1.64056,0,0,0,0,0,0,0,-1,1749,610,6.18814,1.64055
532,414,12.6459,-6.57275,0,0,0,0,0,0,0,-1,1756,610,12.6458,6.57275
539,414,12.7598,-6.08057,0.00268873,0.00255606,0.00182393,0.00444753,0.000797253,0.767222,0.00273824,0.0473235,1763,610,12.7598,6.08056
546,414,12.7952,-5.59302,0.00191772,0.00164569,0.00104663,0.00283714,0.000726268,0.720783,0.0017018,0.0134784,1770,610,12.7952,5.59302
553,414,12.7954,-5.22772,0.0013622,0.00113767,0.000662129,0.00192151,0.000578354,0.701422,0.0011383,0.013218,1777,610,12.7955,5.22774
560,414,12.7878,-4.84875,0.000849573,0.000856116,0.000442271,0.00129513,0.000410562,0.789096,0.000764253,0.015647,1784,610,12.7879,4.84878
567,414,12.8251,-4.44019,0.000455598,0.000785985,0.000432971,0.00108421,0.000157377,0.967642,0.000676475,0.0261009,1791,610,12.8251,4.44017
574,414,12.7877,-4.06635,0.000230492,0.000914622,0.000614182,0.00127557,-0.000130457,1.03948,0.000897034,0.0215749,1798,610,12.7877,4.06637
581,414,12.7783,-3.68182,9.32415e-05,0.00117757,0.000915507,0.0016994,-0.000428594,1.05273,0.00129958,0.0159795,1805,610,12.7783,3.68182
588,414,12.7627,-3.32819,3.20383e-05,0.00167948,0.00137612,0.00245957,-0.00074806,1.05509,0.00193781,0.0161866,1812,610,12.7627,3.32818
595,414,12.7593,-2.90515,0.000145994,0.00243356,0.00203705,0.00362597,-0.00104642,1.04121,0.00283133,0.0217099,1819,610,12.7592,2.90516
602,414,12.7665,-2.51489,0.000368335,0.00344699,0.00282871,0.00512809,-0.00131276,1.03458,0.00393009,0.0242792,1826,610,12.7665,2.5149
609,414,12.7653,-2.12103,0,0,0,0,0,0,0,-1,1833,610,12.7652,2.12101
616,414,13.0172,-1.53192,0,0,0,0,0,0,0,-1,1840,610,13.0172,1.5319
623,414,9.6969,0.0378418,0,0,0,0,0,0,0,-1,1847,610,9.69685,-0.0378644
630,414,5.47144,0.499329,0,0,0,0,0,0,0,-1,1854,610,5.47142,-0.499303
637,414,8.0824,4.20221,0,0,0,0,0,0,0,-1,1861,610,8.08239,-4.20223
644,414,5.87073,1.51422,0,0,0,0,0,0,0,-1,1868,610,5.87076,-1.51424
651,414,3.6377,0.820557,0,0,0,0,0,0,0,-1,1875,610,3.6377,-0.820543
658,414,2.29761,3.87323,0,0,0,0,0,0,0,-1,1882,610,2.29758,-3.87325
665,414,0,0,0,0,0,0,0,0,0,-1,1889,610,0,0
672,414,0,0,0,0,0,0,0,0,0,-1,1896,610,0,0
679,414,0,0,0,0,0,0,0,0,0,-1,1903,610,0,0
686,414,0,0,0,0,0,0,0,0,0,-1,1910,610,0,0
693,414,0,0,0,0,0,0,0,0,0,-1,1917,610,0,0
700,414,0,0,0,0,0,0,0,0,0,-1,1924,610,0,0
707,414,0,0,0,0,0,0,0,0,0,-1,1931,610,0,0
714,414,0,0,0,0,0,0,0,0,0,-1,1938,610,0,0
721,414,0,0,0,0,0,0,0,0,0,-1,1945,610,0,0
728,414,0,0,0,0,0,0,0,0,0,-1,1952,610,0,0
735,414,0,0,0,0,0,0,0,0,0,-1,1959,610,0,0
742,414,0,0,0,0,0,0,0,0,0,-1,1966,610,0,0
749,414,0,0,0,0,0,0,0,0,0,-1,1973,610,0,0
756,414,0,0,0,0,0,0,0,0,0,-1,1980,610,0,0
763,414,0,0,0,0,0,0,0,0,0,-1,1987,610,0,0
770,414,0,0,0,0,0,0,0,0,0,-1,1994,610,0,0
777,414,0,0,0,0,0,0,0,0,0,-1,2001,610,0,0
784,414,0,0,0,0,0,0,0,0,0,-1,2008,610,0,0
791,414,0,0,0,0,0,0,0,0,0,-1,2015,610,0,0
798,414,0,0,0,0,0,0,0,0,0,-1,2022,610,0,0
805,414,0,0,0,0,0,0,0,0,0,-1,2029,610,0,0
812,414,0,0,0,0,0,0,0,0,0,-1,2036,610,0,0
-700,407,0,0,0,0,0,0,0,0,0,-1,524,617,0,0
-693,407,0,0,0,0,0,0,0,0,0,-1,531,617,0,0
-686,407,0,0,0,0,0,0,0,0,0,-1,538,617,0,0
-679,407,0,0,0,0,0,0,0,0,0,-1,545,617,0,0
-672,407,0,0,0,0,0,0,0,0,0,-1,552,617,0,0
-665,407,0,0,0,0,0,0,0,0,0,-1,559,617,0,0
-658,407,0,0,0,0,0,0,0,0,0,-1,566,617,0,0
-651,407,0,0,0,0,0,0,0,0,0,-1,573,617,0,0
-644,407,0,0,0,0,0,0,0,0,0,-1,580,617,0,0
-637,407,0,0,0,0,0,0,0,0,0,-1,587,617,0,0
-630,407,0,0,0,0,0,0,0,0,0,-1,594,617,0,0
-623,407,0,0,0,0,0,0,0,0,0,-1,601,617,0,0
-616,407,0,0,0,0,0,0,0,0,0,-1,608,617,0,0
-609,407,0,0,0,0,0,0,0,0,0,-1,615,617,0,0
-602,407,0,0,0,0,0,0,0,0,0,-1,622,617,0,0
-595,407,0,0,0,0,0,0,0,0,0,-1,629,617,0,0
-588,407,0,0,0,0,0,0,0,0,0,-1,636,617,0,0
-581,407,0,0,0,0,0,0,0,0,0,-1,643,617,0,0
-574,407,0,0,0,0,0,0,0,0,0,-1,650,617,0,0
-567,407,0,0,0,0,0,0,0,0,0,-1,657,617,0,0
-560,407,0,0,0,0,0,0,0,0,0,-1,664,617,0,0
-553,407,0,0,0,0,0,0,0,0,0,-1,671,617,0,0
-546,407,-8.54517,-0.658142,0,0,0,0,0,0,0,-1,678,617,-8.54515,0.658112
-539,407,-6.09442,-1.01154,0,0,0,0,0,0,0,-1,685,617,-6.09441,1.01155
-532,407,-7.75665,1.62152,0,0,0,0,0,0,0,-1,692,617,-7.75667,-1.62154
-525,407,-3.78247,-2.67639,0,0,0,0,0,0,0,-1,699,617,-3.78246,2.67638
-518,407,-5.013,-5.87323,0,0,0,0,0,0,0,-1,706,617,-5.013,5.87324
-511,407,-4.26392,-4.37659,0,0,0,0,0,0,0,-1,713,617,-4.26393,4.37658
-504,407,-5.67059,-3.15314,0,0,0,0,0,0,0,-1,720,617,-5.67062,3.15316
-497,407,-5.64252,-3.3573,0.0068167,0.0125089,-0.00874504,0.0188593,0.000466275,-0.942719,0.0124204,0.0434371,727,617,-5.64254,3.3573
-490,407,-5.65448,-3.51752,0.00599005,0.00974394,-0.00721433,0.0153215,0.000412497,-0.912661,0.0100796,0.028851,734,617,-5.65445,3.51752
-483,407,-5.64716,-3.8974,0.00524132,0.00764142,-0.00608342,0.012642,0.000240719,-0.882781,0.00834893,0.017983,741,617,-5.64715,3.89738
-476,407,-5.69177,-4.26373,0.00442705,0.00575519,-0.0049166,0.0100524,0.00012988,-0.852526,0.0066587,0.0122355,748,617,-5.69176,4.26373
-469,407,-5.73016,-4.64008,0.00370852,0.0043761,-0.00396712,0.00802344,6.11786e-05,-0.827369,0.00532869,0.012372,755,617,-5.73017,4.64005
-462,407,-5.72363,-5.01862,0.00304885,0.00317995,-0.00313697,0.00625206,-2.32512e-05,-0.795845,0.00417581,0.0187685,762,617,-5.72363,5.0186
-455,407,-5.71814,-5.41406,0.00234859,0.00212556,-0.00228121,0.00452102,-4.68625e-05,-0.760975,0.00302975,0.0212037,769,617,-5.71816,5.41407
-448,407,-5.70605,-5.7724,0.0016343,0.00100569,-0.00130846,0.00266568,-2.56883e-05,-0.667526,0.00178574,0.0191898,776,617,-5.70607,5.7724
-441,407,-5.72565,-6.11658,0.000763911,-9.65888e-06,-0.000330555,0.000885918,-0.000131666,-0.353586,0.000639038,0.0144052,783,617,-5.72563,6.11658
-434,407,-5.74817,-6.46185,-0.000152073,-0.00112664,0.000747014,0.000252538,-0.00153125,0.4964,0.00111459,0.0101882,790,617,-5.74815,6.46184
-427,407,-5.73724,-6.82587,-0.00121695,-0.00223465,0.00188627,0.000227905,-0.0036795,0.653651,0.00253239,0.01032,797,617,-5.73725,6.82588
-420,407,-5.71619,-7.1723,-0.00252281,-0.00353216,0.00316682,0.000179302,-0.00623427,0.706381,0.00421722,0.010589,804,617,-5.71617,7.1723
-413,407,-5.71674,-7.52594,-0.00445213,-0.00551055,0.00512823,0.000174128,-0.0101368,0.733983,0.00681666,0.0130881,811,617,-5.71675,7.52591
-406,407,-5.81079,-7.78076,-0.00706343,-0.00802491,0.00748406,-4.46923e-05,-0.0150437,0.753325,0.0100142,0.0292854,818,617,-5.81078,7.78079
-399,407,-5.90814,-7.94312,-0.0104187,-0.0113854,0.0105775,-0.000313469,-0.0214906,0.762568,0.0142237,0.0481263,825,617,-5.90817,7.94313
-392,407,-5.86224,-8.12274,0,0,0,0,0,0,0,-1,832,617,-5.86223,8.12277
-385,407,-6.38953,-8.39142,0,0,0,0,0,0,0,-1,839,617,-6.38951,8.39144
-378,407,-7.28882,-5.95453,0,0,0,0,0,0,0,-1,846,617,-7.28881,5.95453
-371,407,-7.4007,-5.79449,0,0,0,0,0,0,0,-1,853,617,-7.40072,5.79447
-364,407,-10.0638,-6.6228,0,0,0,0,0,0,0,-1,860,617,-10.0639,6.62279
-357,407,-6.64447,-1.83337,0,0,0,0,0,0,0,-1,867,617,-6.64446,1.8334
-350,407,-7.03351,-1.77551,0,0,0,0,0,0,0,-1,874,617,-7.03349,1.77551
-343,407,-7.40967,-1.95026,0,0,0,0,0,0,0,-1,881,617,-7.40969,1.95026
-336,407,-8.10229,-2.40662,0,0,0,0,0,0,0,-1,888,617,-8.10229,2.40664
-329,407,-8.81232,-2.76331,0,0,0,0,0,0,0,-1,895,617,-8.81235,2.76331
-322,407,0,0,0,0,0,0,0,0,0,-1,902,617,0,0
-315,407,0,0,0,0,0,0,0,0,0,-1,909,617,0,0
-308,407,0,0,0,0,0,0,0,0,0,-1,916,617,0,0
-301,407,0,0,0,0,0,0,0,0,0,-1,923,617,0,0
-294,407,0,0,0,0,0,0,0,0,0,-1,930,617,0,0
-287,407,0,0,0,0,0,0,0,0,0,-1,937,617,0,0
-280,407,0,0,0,0,0,0,0,0,0,-1,944,617,0,0
-273,407,0,0,0,0,0,0,0,0,0,-1,951,617,0,0
-266,407,0,0,0,0,0,0,0,0,0,-1,958,617,0,0
-259,407,0,0,0,0,0,0,0,0,0,-1,965,617,0,0
-252,407,0,0,0,0,0,0,0,0,0,-1,972,617,0,0
-245,407,0,0,0,0,0,0,0,0,0,-1,979,617,0,0
-238,407,0,0,0,0,0,0,0,0,0,-1,986,617,0,0
-231,407,0,0,0,0,0,0,0,0,0,-1,993,617,0,0
-224,407,0,0,0,0,0,0,0,0,0,-1,1000,617,0,0
-217,407,0,0,0,0,0,0,0,0,0,-1,1007,617,0,0
-210,407,0,0,0,0,0,0,0,0,0,-1,1014,617,0,0
-203,407,0,0,0,0,0,0,0,0,0,-1,1021,617,0,0
-196,407,0,0,0,0,0,0,0,0,0,-1,1028,617,0,0
-189,407,0,0,0,0,0,0,0,0,0,-1,1035,617,0,0
-182,407,0,0,0,0,0,0,0,0,0,-1,1042,617,0,0
-175,407,0,0,0,0,0,0,0,0,0,-1,1049,617,0,0
-168,407,0,0,0,0,0,0,0,0,0,-1,1056,617,0,0
-161,407,0,0,0,0,0,0,0,0,0,-1,1063,617,0,0
-154,407,0,0,0,0,0,0,0,0,0,-1,1070,617,0,0
-147,407,0,0,0,0,0,0,0,0,0,-1,1077,617,0,0
-140,407,0,0,0,0,0,0,0,0,0,-1,1084,617,0,0
-133,407,0,0,0,0,0,0,0,0,0,-1,1091,617,0,0
-126,407,0,0,0,0,0,0,0,0,0,-1,1098,617,0,0
-119,407,0,0,0,0,0,0,0,0,0,-1,1105,617,0,0
-112,407,0,0,0,0,0,0,0,0,0,-1,1112,617,0,0
-105,407,0,0,0,0,0,0,0,0,0,-1,1119,617,0,0
-98,407,0,0,0,0,0,0,0,0,0,-1,1126,617,0,0
-91,407,0,0,0,0,0,0,0,0,0,-1,1133,617,0,0
-84,407,0,0,0,0,0,0,0,0,0,-1,1140,617,0,0
-77,407,0,0,0,0,0,0,0,0,0,-1,1147,617,0,0
-70,407,0,0,0,0,0,0,0,0,0,-1,1154,617,0,0
-63,407,0,0,0,0,0,0,0,0,0,-1,1161,617,0,0
-56,407,0,0,0,0,0,0,0,0,0,-1,1168,617,0,0
-49,407,0,0,0,0,0,0,0,0,0,-1,1175,617,0,0
-42,407,0,0,0,0,0,0,0,0,0,-1,1182,617,0,0
-35,407,0,0,0,0,0,0,0,0,0,-1,1189,617,0,0
-28,407,0,0,0,0,0,0,0,0,0,-1,1196,617,0,0
-21,407,0,0,0,0,0,0,0,0,0,-1,1203,617,0,0
-14,407,0,0,0,0,0,0,0,0,0,-1,1210,617,0,0
-7,407,0,0,0,0,0,0,0,0,0,-1,1217,617,0,0
0,407,0,0,0,0,0,0,0,0,0,-1,1224,617,0,0
7,407,0,0,0,0,0,0,0,0,0,-1,1231,617,0,0
14,407,0,0,0,0,0,0,0,0,0,-1,1238,617,0,0
21,407,0,0,0,0,0,0,0,0,0,-1,1245,617,0,0
28,407,0,0,0,0,0,0,0,0,0,-1,1252,617,0,0
35,407,0,0,0,0,0,0,0,0,0,-1,1259,617,0,0
42,407,0,0,0,0,0,0,0,0,0,-1,1266,617,0,0
49,407,0,0,0,0,0,0,0,0,0,-1,1273,617,0,0
56,407,0,0,0,0,0,0,0,0,0,-1,1280,617,0,0
63,407,0,0,0,0,0,0,0,0,0,-1,1287,617,0,0
70,407,0,0,0,0,0,0,0,0,0,-1,1294,617,0,0
77,407,0,0,0,0,0,0,0,0,0,-1,1301,617,0,0
84,407,0,0,0,0,0,0,0,0,0,-1,1308,617,0,0
91,407,0,0,0,0,0,0,0,0,0,-1,1315,617,0,0
98,407,0,0,0,0,0,0,0,0,0,-1,1322,617,0,0
105,407,0,0,0,0,0,0,0,0,0,-1,1329,617,0,0
112,407,0,0,0,0,0,0,0,0,0,-1,1336,617,0,0
119,407,0,0,0,0,0,0,0,0,0,-1,1343,617,0,0
126,407,0,0,0,0,0,0,0,0,0,-1,1350,617,0,0
133,407,0,0,0,0,0,0,0,0,0,-1,1357,617,0,0
140,407,0,0,0,0,0,0,0,0,0,-1,1364,617,0,0
147,407,0,0,0,0,0,0,0,0,0,-1,1371,617,0,0
154,407,0,0,0,0,0,0,0,0,0,-1,1378,617,0,0
161,407,0,0,0,0,0,0,0,0,0,-1,1385,617,0,0
168,407,0,0,0,0,0,0,0,0,0,-1,1392,617,0,0
175,407,0,0,0,0,0,0,0,0,0,-1,1399,617,0,0
182,407,0,0,0,0,0,0,0,0,0,-1,1406,617,0,0
189,407,0,0,0,0,0,0,0,0,0,-1,1413,617,0,0
196,407,0,0,0,0,0,0,0,0,0,-1,1420,617,0,0
203,407,0,0,0,0,0,0,0,0,0,-1,1427,617,0,0
210,407,0,0,0,0,0,0,0,0,0,-1,1434,617,0,0
217,407,0,0,0,0,0,0,0,0,0,-1,1441,617,0,0
224,407,0,0,0,0,0,0,0,0,0,-1,1448,617,0,0
231,407,0,0,0,0,0,0,0,0,0,-1,1455,617,0,0
238,407,0,0,0,0,0,0,0,0,0,-1,1462,617,0,0
245,407,0,0,0,0,0,0,0,0,0,-1,1469,617,0,0
252,407,0,0,0,0,0,0,0,0,0,-1,1476,617,0,0
259,407,0,0,0,0,0,0,0,0,0,-1,1483,617,0,0
266,407,0,0,0,0,0,0,0,0,0,-1,1490,617,0,0
273,407,0,0,0,0,0,0,0,0,0,-1,1497,617,0,0
280,407,0,0,0,0,0,0,0,0,0,-1,1504,617,0,0
287,407,0,0,0,0,0,0,0,0,0,-1,1511,617,0,0
294,407,0,0,0,0,0,0,0,0,0,-1,1518,617,0,0
301,407,0,0,0,0,0,0,0,0,0,-1,1525,617,0,0
308,407,0,0,0,0,0,0,0,0,0,-1,1532,617,0,0
315,407,0,0,0,0,0,0,0,0,0,-1,1539,617,0,0
322,407,0,0,0,0,0,0,0,0,0,-1,1546,617,0,0
329,407,0,0,0,0,0,0,0,0,0,-1,1553,617,0,0
336,407,0,0,0,0,0,0,0,0,0,-1,1560,617,0,0
343,407,0,0,0,0,0,0,0,0,0,-1,1567,617,0,0
350,407,0,0,0,0,0,0,0,0,0,-1,1574,617,0,0
357,407,0,0,0,0,0,0,0,0,0,-1,1581,617,0,0
364,407,0,0,0,0,0,0,0,0,0,-1,1588,617,0,0
371,407,0,0,0,0,0,0,0,0,0,-1,1595,617,0,0
378,407,0,0,0,0,0,0,0,0,0,-1,1602,617,0,0
385,407,0,0,0,0,0,0,0,0,0,-1,1609,617,0,0
392,407,0,0,0,0,0,0,0,0,0,-1,1616,617,0,0
399,407,0,0,0,0,0,0,0,0,0,-1,1623,617,0,0
406,407,0,0,0,0,0,0,0,0,0,-1,1630,617,0,0
413,407,0,0,0,0,0,0,0,0,0,-1,1637,617,0,0
420,407,0,0,0,0,0,0,0,0,0,-1,1644,617,0,0
427,407,0,0,0,0,0,0,0,0,0,-1,1651,617,0,0
434,407,0,0,0,0,0,0,0,0,0,-1,1658,617,0,0
441,407,0,0,0,0,0,0,0,0,0,-1,1665,617,0,0
448,407,7.02893,2.13843,0,0,0,0,0,0,0,-1,1672,617,7.02899,-2.13844
455,407,7.55237,2.29242,0,0,0,0,0,0,0,-1,1679,617,7.55236,-2.29244
462,407,8.2926,2.46173,0,0,0,0,0,0,0,-1,1686,617,8.29261,-2.46174
469,407,8.71509,2.22681,0,0,0,0,0,0,0,-1,1693,617,8.71511,-2.22681
476,407,8.89917,1.47766,0,0,0,0,0,0,0,-1,1700,617,8.89914,-1.47768
483,407,9.02612,0.682983,0,0,0,0,0,0,0,-1,1707,617,9.02608,-0.683004
490,407,9.12659,0.000671387,0,0,0,0,0,0,0,-1,1714,617,9.12653,-0.000675931
497,407,7.76819,0.855835,0,0,0,0,0,0,0,-1,1721,617,7.7682,-0.855865
504,407,4.69336,0.160706,0,0,0,0,0,0,0,-1,1728,617,4.69337,-0.1607
511,407,4.07104,-0.00140381,0,0,0,0,0,0,0,-1,1735,617,4.07109,0.00141425
518,407,6.09534,1.9411,0,0,0,0,0,0,0,-1,1742,617,6.09532,-1.94113
525,407,5.72534,-1.35986,0,0,0,0,0,0,0,-1,1749,617,5.72529,1.35988
532,407,13.0775,-6.06183,0,0,0,0,0,0,0,-1,1756,617,13.0775,6.06182
539,407,13.0355,-6.21643,0,0,0,0,0,0,0,-1,1763,617,13.0355,6.21645
546,407,13.1813,-5.60309,0.00165761,0.00193201,0.000891922,0.00269722,0.000892396,0.861713,0.00158666,0.0177452,1770,617,13.1813,5.60307
553,407,13.1692,-5.22272,0.00119643,0.00133199,0.00048959,0.00175847,0.000769949,0.854183,0.00101786,0.0146986,1777,617,13.1692,5.22273
560,407,13.1941,-4.80847,0.000768693,0.00098086,0.000264068,0.00115936,0.000590197,0.976396,0.000669391,0.0162066,1784,617,13.1941,4.80849
567,407,13.1915,-4.43927,0.000451132,0.000834571,0.000241788,0.000951426,0.000334277,1.1206,0.00055734,0.0296785,1791,617,13.1915,4.43926
574,407,13.1782,-4.09601,0.000300578,0.000904623,0.000415637,0.00111638,8.88188e-05,1.09959,0.000716486,0.0250378,1798,617,13.1782,4.09601
581,407,13.1443,-3.68701,0.000224728,0.00110155,0.000686301,0.00147752,-0.00015124,1.06963,0.0010391,0.0175303,1805,617,13.1443,3.68699
588,407,13.1343,-3.30811,0.000208632,0.00151151,0.00108761,0.00212785,-0.000407708,1.05523,0.00157219,0.0124807,1812,617,13.1342,3.30811
595,407,13.155,-2.91608,0.000373757,0.00211797,0.00166218,0.00312294,-0.000631212,1.027,0.00232115,0.0233275,1819,617,13.1551,2.91609
602,407,13.1559,-2.48761,0.000637728,0.00294556,0.00235359,0.00441289,-0.000829598,1.01332,0.0032539,0.0193037,1826,617,13.1559,2.4876
609,407,13.1099,-2.07831,0.000928558,0.00383475,0.00307565,0.00578329,-0.00101998,1.00608,0.00423665,0.0165888,1833,617,13.1099,2.07831
616,407,13.1721,-1.58514,0.00119462,0.00498693,0.0037984,0.00733615,-0.0011546,1.0169,0.00531759,0.0294497,1840,617,13.1721,1.58517
623,407,13.4437,-1.00256,0,0,0,0,0,0,0,-1,1847,617,13.4437,1.00256
630,407,7.06177,0.814575,0,0,0,0,0,0,0,-1,1854,617,7.06178,-0.814579
637,407,7.94031,1.34894,0,0,0,0,0,0,0,-1,1861,617,7.94033,-1.34896
644,407,5.09766,2.27747,0,0,0,0,0,0,0,-1,1868,617,5.09764,-2.27746
651,407,7.37524,0.0513916,0,0,0,0,0,0,0,-1,1875,617,7.3752,-0.0513923
658,407,3.76685,0.594177,0,0,0,0,0,0,0,-1,1882,617,3.76683,-0.594184
665,407,5.76123,0.375061,0,0,0,0,0,0,0,-1,1889,617,5.76118,-0.37509
672,407,0,0,0,0,0,0,0,0,0,-1,1896,617,0,0
679,407,0,0,0,0,0,0,0,0,0,-1,1903,617,0,0
686,407,0,0,0,0,0,0,0,0,0,-1,1910,617,0,0
693,407,0,0,0,0,0,0,0,0,0,-1,1917,617,0,0
700,407,0,0,0,0,0,0,0,0,0,-1,1924,617,0,0
707,407,0,0,0,0,0,0,0,0,0,-1,1931,617,0,0
714,407,0,0,0,0,0,0,0,0,0,-1,1938,617,0,0
721,407,0,0,0,0,0,0,0,0,0,-1,1945,617,0,0
728,407,0,0,0,0,0,0,0,0,0,-1,1952,617,0,0
735,407,0,0,0,0,0,0,0,0,0,-1,1959,617,0,0
742,407,0,0,0,0,0,0,0,0,0,-1,1966,617,0,0
749,407,0,0,0,0,0,0,0,0,0,-1,1973,617,0,0
756,407,0,0,0,0,0,0,0,0,0,-1,1980,617,0,0
763,407,0,0,0,0,0,0,0,0,0,-1,1987,617,0,0
770,407,0,0,0,0,0,0,0,0,0,-1,1994,617,0,0
777,407,0,0,0,0,0,0,0,0,0,-1,2001,617,0,0
784,407,0,0,0,0,0,0,0,0,0,-1,2008,617,0,0
791,407,0,0,0,0,0,0,0,0,0,-1,2015,617,0,0
798,407,0,0,0,0,0,0,0,0,0,-1,2022,617,0,0
805,407,0,0,0,0,0,0,0,0,0,-1,2029,617,0,0
812,407,0,0,0,0,0,0,0,0,0,-1,2036,617,0,0
-700,400,0,0,0,0,0,0,0,0,0,-1,524,624,0,0
-693,400,0,0,0,0,0,0,0,0,0,-1,531,624,0,0
-686,400,0,0,0,0,0,0,0,0,0,-1,538,624,0,0
-679,400,0,0,0,0,0,0,0,0,0,-1,545,624,0,0
-672,400,0,0,0,0,0,0,0,0,0,-1,552,624,0,0
-665,400,0,0,0,0,0,0,0,0,0,-1,559,624,0,0
-658,400,0,0,0,0,0,0,0,0,0,-1,566,624,0,0
-651,400,0,0,0,0,0,0,0,0,0,-1,573,624,0,0
-644,400,0,0,0,0,0,0,0,0,0,-1,580,624,0,0
-637,400,0,0,0,0,0,0,0,0,0,-1,587,624,0,0
-630,400,0,0,0,0,0,0,0,0,0,-1,594,624,0,0
-623,400,0,0,0,0,0,0,0,0,0,-1,601,624,0,0
-616,400,0,0,0,0,0,0,0,0,0,-1,608,624,0,0
-609,400,0,0,0,0,0,0,0,0,0,-1,615,624,0,0
-602,400,0,0,0,0,0,0,0,0,0,-1,622,624,0,0
-595,400,0,0,0,0,0,0,0,0,0,-1,629,624,0,0
-588,400,0,0,0,0,0,0,0,0,0,-1,636,624,0,0
-581,400,0,0,0,0,0,0,0,0,0,-1,643,624,0,0
-574,400,0,0,0,0,0,0,0,0,0,-1,650,624,0,0
-567,400,0,0,0,0,0,0,0,0,0,-1,657,624,0,0
-560,400,0,0,0,0,0,0,0,0,0,-1,664,624,0,0
-553,400,0,0,0,0,0,0,0,0,0,-1,671,624,0,0
-546,400,-8.41174,-1.4599,0,0,0,0,0,0,0,-1,678,624,-8.41173,1.45989
-539,400,-5.69104,-1.7337,0,0,0,0,0,0,0,-1,685,624,-5.69103,1.7337
-532,400,-3.03632,-2.03912,0,0,0,0,0,0,0,-1,692,624,-3.03632,2.03909
-525,400,-6.20813,-7.04071,0,0,0,0,0,0,0,-1,699,624,-6.20814,7.04071
-518,400,-5.26544,-1.58661,0,0,0,0,0,0,0,-1,706,624,-5.26544,1.58658
-511,400,-5.10602,-2.14307,0,0,0,0,0,0,0,-1,713,624,-5.10603,2.14307
-504,400,-6.22662,-3.28967,0,0,0,0,0,0,0,-1,720,624,-6.22665,3.28968
-497,400,-6.0191,-3.27917,0.00437764,0.0102391,-0.00688827,0.0147942,-0.000177433,-0.986532,0.00992248,0.0363476,727,624,-6.01911,3.27915
-490,400,-6.02551,-3.46735,0.00399262,0.00767961,-0.00545982,0.0115988,7.34688e-05,-0.948212,0.00770813,0.0187901,734,624,-6.02552,3.46734
-483,400,-6.04956,-3.90259,0.00365411,0.00584146,-0.00452181,0.00939998,9.55909e-05,-0.904052,0.00623504,0.0145287,741,624,-6.04959,3.90256
-476,400,-6.04767,-4.25439,0.00323473,0.00412053,-0.00354463,0.00724982,0.000105442,-0.847551,0.00479845,0.0130238,748,624,-6.04769,4.25438
-469,400,-6.05835,-4.63757,0.00286551,0.00309452,-0.00288698,0.00586926,9.07725e-05,-0.805219,0.00388294,0.0141385,755,624,-6.05835,4.63755
-462,400,-6.06091,-5.02496,0.00247044,0.00219391,-0.00234167,0.00467792,-1.3574e-05,-0.755909,0.00312315,0.018894,762,624,-6.0609,5.02496
-455,400,-6.04834,-5.39111,0.00193191,0.00136908,-0.00167568,0.00334964,-4.86476e-05,-0.702203,0.00224948,0.0199856,769,624,-6.04837,5.39112
-448,400,-6.0545,-5.76703,0.00132909,0.000420059,-0.000849458,0.00183798,-8.88393e-05,-0.539747,0.00125598,0.0151212,776,624,-6.05453,5.76704
-441,400,-6.08746,-6.07764,0.000470282,-0.000501411,6.57849e-05,0.000474716,-0.000505844,0.0672921,0.000566221,0.0140138,783,624,-6.08745,6.07762
-434,400,-6.10596,-6.42297,-0.000472854,-0.00142256,0.00107307,0.000225738,-0.00212115,0.577091,0.00149504,0.0108087,790,624,-6.10598,6.42297
-427,400,-6.1051,-6.78558,-0.00167068,-0.00250386,0.00223915,0.000190309,-0.00436485,0.693425,0.00297536,0.00955494,797,624,-6.10512,6.78557
-420,400,-6.0553,-7.17993,-0.00309832,-0.00376957,0.00350698,8.9057e-05,-0.00695695,0.737692,0.00466794,0.0152925,804,624,-6.05528,7.17994
-413,400,-6.10712,-7.48596,-0.00533405,-0.00591031,0.00570183,8.69283e-05,-0.0113313,0.760153,0.00758333,0.0336223,811,624,-6.10713,7.48594
-406,400,-6.41296,-7.65576,-0.00859974,-0.00889432,0.00854005,-0.000205706,-0.0172884,0.776776,0.0114576,0.04403,818,624,-6.41295,7.65576
-399,400,-6.36206,-7.69873,0,0,0,0,0,0,0,-1,825,624,-6.36205,7.69872
-392,400,-4.92285,-6.63354,0,0,0,0,0,0,0,-1,832,624,-4.92285,6.63354
-385,400,-3.68738,-5.04205,0,0,0,0,0,0,0,-1,839,624,-3.68736,5.04207
-378,400,-6.84064,-1.28662,0,0,0,0,0,0,0,-1,846,624,-6.84062,1.28662
-371,400,-6.98865,-1.2572,0,0,0,0,0,0,0,-1,853,624,-6.98865,1.25721
-364,400,-6.97247,-1.24133,0,0,0,0,0,0,0,-1,860,624,-6.97249,1.24135
-357,400,-7.18329,-1.23218,0,0,0,0,0,0,0,-1,867,624,-7.18327,1.2322
-350,400,-7.40186,-1.19409,0,0,0,0,0,0,0,-1,874,624,-7.40187,1.19407
-343,400,-8.09357,-1.51147,0,0,0,0,0,0,0,-1,881,624,-8.09355,1.51148
-336,400,0,0,0,0,0,0,0,0,0,-1,888,624,0,0
-329,400,0,0,0,0,0,0,0,0,0,-1,895,624,0,0
-322,400,0,0,0,0,0,0,0,0,0,-1,902,624,0,0
-315,400,0,0,0,0,0,0,0,0,0,-1,909,624,0,0
-308,400,0,0,0,0,0,0,0,0,0,-1,916,624,0,0
-301,400,0,0,0,0,0,0,0,0,0,-1,923,624,0,0
-294,400,0,0,0,0,0,0,0,0,0,-1,930,624,0,0
-287,400,0,0,0,0,0,0,0,0,0,-1,937,624,0,0
-280,400,0,0,0,0,0,0,0,0,0,-1,944,624,0,0
-273,400,0,0,0,0,0,0,0,0,0,-1,951,624,0,0
-266,400,0,0,0,0,0,0,0,0,0,-1,958,624,0,0
-259,400,0,0,0,0,0,0,0,0,0,-1,965,624,0,0
-252,400,0,0,0,0,0,0,0,0,0,-1,972,624,0,0
-245,400,0,0,0,0,0,0,0,0,0,-1,979,624,0,0
-238,400,0,0,0,0,0,0,0,0,0,-1,986,624,0,0
-231,400,0,0,0,0,0,0,0,0,0,-1,993,624,0,0
-224,400,0,0,0,0,0,0,0,0,0,-1,1000,624,0,0
-217,400,0,0,0,0,0,0,0,0,0,-1,1007,624,0,0
-210,400,0,0,0,0,0,0,0,0,0,-1,1014,624,0,0
-203,400,0,0,0,0,0,0,0,0,0,-1,1021,624,0,0
-196,400,0,0,0,0,0,0,0,0,0,-1,1028,624,0,0
-189,400,0,0,0,0,0,0,0,0,0,-1,1035,624,0,0
-182,400,0,0,0,0,0,0,0,0,0,-1,1042,624,0,0
-175,400,0,0,0,0,0,0,0,0,0,-1,1049,624,0,0
-168,400,0,0,0,0,0,0,0,0,0,-1,1056,624,0,0
-161,400,0,0,0,0,0,0,0,0,0,-1,1063,624,0,0
-154,400,0,0,0,0,0,0,0,0,0,-1,1070,624,0,0
-147,400,0,0,0,0,0,0,0,0,0,-1,1077,624,0,0
-140,400,0,0,0,0,0,0,0,0,0,-1,1084,624,0,0
-133,400,0,0,0,0,0,0,0,0,0,-1,1091,624,0,0
-126,400,0,0,0,0,0,0,0,0,0,-1,1098,624,0,0
-119,400,0,0,0,0,0,0,0,0,0,-1,1105,624,0,0
-112,400,0,0,0,0,0,0,0,0,0,-1,1112,624,0,0
-105,400,0,0,0,0,0,0,0,0,0,-1,1119,624,0,0
-98,400,0,0,0,0,0,0,0,0,0,-1,1126,624,0,0
-91,400,0,0,0,0,0,0,0,0,0,-1,1133,624,0,0
-84,400,0,0,0,0,0,0,0,0,0,-1,1140,624,0,0
-77,400,0,0,0,0,0,0,0,0,0,-1,1147,624,0,0
-70,400,0,0,0,0,0,0,0,0,0,-1,1154,624,0,0
-63,400,0,0,0,0,0,0,0,0,0,-1,1161,624,0,0
-56,400,0,0,0,0,0,0,0,0,0,-1,1168,624,0,0
-49,400,0,0,0,0,0,0,0,0,0,-1,1175,624,0,0
-42,400,0,0,0,0,0,0,0,0,0,-1,1182,624,0,0
-35,400,0,0,0,0,0,0,0,0,0,-1,1189,624,0,0
-28,400,0,0,0,0,0,0,0,0,0,-1,1196,624,0,0
-21,400,0,0,0,0,0,0,0,0,0,-1,1203,624,0,0
-14,400,0,0,0,0,0,0,0,0,0,-1,1210,624,0,0
-7,400,0,0,0,0,0,0,0,0,0,-1,1217,624,0,0
0,400,0,0,0,0,0,0,0,0,0,-1,1224,624,0,0
7,400,0,0,0,0,0,0,0,0,0,-1,1231,624,0,0
14,400,0,0,0,0,0,0,0,0,0,-1,1238,624,0,0
21,400,0,0,0,0,0,0,0,0,0,-1,1245,624,0,0
28,400,0,0,0,0,0,0,0,0,0,-1,1252,624,0,0
35,400,0,0,0,0,0,0,0,0,0,-1,1259,624,0,0
42,400,0,0,0,0,0,0,0,0,0,-1,1266,624,0,0
49,400,0,0,0,0,0,0,0,0,0,-1,1273,624,0,0
56,400,0,0,0,0,0,0,0,0,0,-1,1280,624,0,0
63,400,0,0,0,0,0,0,0,0,0,-1,1287,624,0,0
70,400,0,0,0,0,0,0,0,0,0,-1,1294,624,0,0
77,400,0,0,0,0,0,0,0,0,0,-1,1301,624,0,0
84,400,0,0,0,0,0,0,0,0,0,-1,1308,624,0,0
91,400,0,0,0,0,0,0,0,0,0,-1,1315,624,0,0
98,400,0,0,0,0,0,0,0,0,0,-1,1322,624,0,0
105,400,0,0,0,0,0,0,0,0,0,-1,1329,624,0,0
112,400,0,0,0,0,0,0,0,0,0,-1,1336,624,0,0
119,400,0,0,0,0,0,0,0,0,0,-1,1343,624,0,0
126,400,0,0,0,0,0,0,0,0,0,-1,1350,624,0,0
133,400,0,0,0,0,0,0,0,0,0,-1,1357,624,0,0
140,400,0,0,0,0,0,0,0,0,0,-1,1364,624,0,0
147,400,0,0,0,0,0,0,0,0,0,-1,1371,624,0,0
154,400,0,0,0,0,0,0,0,0,0,-1,1378,624,0,0
161,400,0,0,0,0,0,0,0,0,0,-1,1385,624,0,0
168,400,0,0,0,0,0,0,0,0,0,-1,1392,624,0,0
175,400,0,0,0,0,0,0,0,0,0,-1,1399,624,0,0
182,400,0,0,0,0,0,0,0,0,0,-1,1406,624,0,0
189,400,0,0,0,0,0,0,0,0,0,-1,1413,624,0,0
196,400,0,0,0,0,0,0,0,0,0,-1,1420,624,0,0
203,400,0,0,0,0,0,0,0,0,0,-1,1427,624,0,0
210,400,0,0,0,0,0,0,0,0,0,-1,1434,624,0,0
217,400,0,0,0,0,0,0,0,0,0,-1,1441,624,0,0
224,400,0,0,0,0,0,0,0,0,0,-1,1448,624,0,0
231,400,0,0,0,0,0,0,0,0,0,-1,1455,624,0,0
238,400,0,0,0,0,0,0,0,0,0,-1,1462,624,0,0
245,400,0,0,0,0,0,0,0,0,0,-1,1469,624,0,0
252,400,0,0,0,0,0,0,0,0,0,-1,1476,624,0,0
259,400,0,0,0,0,0,0,0,0,0,-1,1483,624,0,0
266,400,0,0,0,0,0,0,0,0,0,-1,1490,624,0,0
273,400,0,0,0,0,0,0,0,0,0,-1,1497,624,0,0
280,400,0,0,0,0,0,0,0,0,0,-1,1504,624,0,0
287,400,0,0,0,0,0,0,0,0,0,-1,1511,624,0,0
294,400,0,0,0,0,0,0,0,0,0,-1,1518,624,0,0
301,400,0,0,0,0,0,0,0,0,0,-1,1525,624,0,0
308,400,0,0,0,0,0,0,0,0,0,-1,1532,624,0,0
315,400,0,0,0,0,0,0,0,0,0,-1,1539,624,0,0
322,400,0,0,0,0,0,0,0,0,0,-1,1546,624,0,0
329,400,0,0,0,0,0,0,0,0,0,-1,1553,624,0,0
336,400,0,0,0,0,0,0,0,0,0,-1,1560,624,0,0
343,400,0,0,0,0,0,0,0,0,0,-1,1567,624,0,0
350,400,0,0,0,0,0,0,0,0,0,-1,1574,624,0,0
357,400,0,0,0,0,0,0,0,0,0,-1,1581,624,0,0
364,400,0,0,0,0,0,0,0,0,0,-1,1588,624,0,0
371,400,0,0,0,0,0,0,0,0,0,-1,1595,624,0,0
378,400,0,0,0,0,0,0,0,0,0,-1,1602,624,0,0
385,400,0,0,0,0,0,0,0,0,0,-1,1609,624,0,0
392,400,0,0,0,0,0,0,0,0,0,-1,1616,624,0,0
399,400,0,0,0,0,0,0,0,0,0,-1,1623,624,0,0
406,400,0,0,0,0,0,0,0,0,0,-1,1630,624,0,0
413,400,0,0,0,0,0,0,0,0,0,-1,1637,624,0,0
420,400,0,0,0,0,0,0,0,0,0,-1,1644,624,0,0
427,400,0,0,0,0,0,0,0,0,0,-1,1651,624,0,0
434,400,0,0,0,0,0,0,0,0,0,-1,1658,624,0,0
441,400,0,0,0,0,0,0,0,0,0,-1,1665,624,0,0
448,400,0,0,0,0,0,0,0,0,0,-1,1672,624,0,0
455,400,8.91309,2.75885,0,0,0,0,0,0,0,-1,1679,624,8.91312,-2.75885
462,400,8.90356,2.37878,0,0,0,0,0,0,0,-1,1686,624,8.90353,-2.37878
469,400,9.14429,1.76849,0,0,0,0,0,0,0,-1,1693,624,9.14432,-1.76847
476,400,9.23254,1.25995,0,0,0,0,0,0,0,-1,1700,624,9.23252,-1.25994
483,400,9.59766,0.562439,0,0,0,0,0,0,0,-1,1707,624,9.59771,-0.56242
490,400,9.92578,-0.213745,0,0,0,0,0,0,0,-1,1714,624,9.92579,0.21376
497,400,9.19141,0.175232,0,0,0,0,0,0,0,-1,1721,624,9.19138,-0.175209
504,400,9.23438,0.00823975,0,0,0,0,0,0,0,-1,1728,624,9.23436,-0.00823766
511,400,6.16687,3.3501,0,0,0,0,0,0,0,-1,1735,624,6.16682,-3.35007
518,400,6.55237,1.74994,0,0,0,0,0,0,0,-1,1742,624,6.55236,-1.74993
525,400,6.99731,1.08783,0,0,0,0,0,0,0,-1,1749,624,6.99736,-1.08785
532,400,6.96582,-1.74982,0,0,0,0,0,0,0,-1,1756,624,6.96585,1.74983
539,400,13.6768,-6.01611,0,0,0,0,0,0,0,-1,1763,624,13.6767,6.01609
546,400,13.6377,-5.65814,0.00115341,0.0021555,0.000489161,0.00235468,0.000954219,1.1841,0.00136759,0.0402075,1770,624,13.6377,5.65815
553,400,13.5245,-5.21686,0.000814325,0.0015065,0.000150761,0.00153791,0.000782914,1.36538,0.00088796,0.0214732,1777,624,13.5245,5.21686
560,400,13.5612,-4.77863,0.000506206,0.00111443,-1.56961e-05,0.00111483,0.000505802,-1.54501,0.000644568,0.0141694,1784,624,13.5612,4.77865
567,400,13.5825,-4.41638,0.000291825,0.000910629,-7.03728e-06,0.000910709,0.000291745,-1.55943,0.000536992,0.0177753,1791,624,13.5826,4.41636
574,400,13.5779,-4.08405,0.00023816,0.000938387,0.000197445,0.000990223,0.000186323,1.31405,0.000607639,0.0197104,1798,624,13.5778,4.08403
581,400,13.5298,-3.6767,0.000245736,0.00108945,0.000475259,0.00130307,3.21125e-05,1.14837,0.000858208,0.0193836,1805,624,13.5298,3.6767
588,400,13.517,-3.25903,0.000295953,0.00142464,0.000852409,0.00188259,-0.000161998,1.0778,0.0013124,0.0153986,1812,624,13.5169,3.25905
595,400,13.5383,-2.89185,0.000516255,0.00191174,0.00136841,0.00275003,-0.000322028,1.02116,0.00194958,0.0139914,1819,624,13.5383,2.89187
602,400,13.5408,-2.49603,0.000836312,0.00258079,0.00198809,0.00387956,-0.000462461,0.992121,0.0027535,0.0137495,1826,624,13.5408,2.49604
609,400,13.4644,-2.08075,0.00103084,0.00329477,0.00255572,0.00495799,-0.000632376,0.993872,0.00353502,0.0145059,1833,624,13.4644,2.08077
616,400,13.4535,-1.67426,0.00104525,0.00410416,0.00303041,0.0059692,-0.000819789,1.0191,0.00427899,0.0170902,1840,624,13.4535,1.67429
623,400,13.5236,-1.25616,0,0,0,0,0,0,0,-1,1847,624,13.5235,1.25615
630,400,11.9432,0.09021,0,0,0,0,0,0,0,-1,1854,624,11.9432,-0.0902007
637,400,6.92896,1.01917,0,0,0,0,0,0,0,-1,1861,624,6.92899,-1.01918
644,400,8.65381,1.4599,0,0,0,0,0,0,0,-1,1868,624,8.65379,-1.45991
651,400,7.90601,0.424072,0,0,0,0,0,0,0,-1,1875,624,7.90598,-0.424097
658,400,8.69031,1.0484,0,0,0,0,0,0,0,-1,1882,624,8.6903,-1.0484
665,400,5.98438,0.522522,0,0,0,0,0,0,0,-1,1889,624,5.98442,-0.522552
672,400,0,0,0,0,0,0,0,0,0,-1,1896,624,0,0
679,400,0,0,0,0,0,0,0,0,0,-1,1903,624,0,0
686,400,0,0,0,0,0,0,0,0,0,-1,1910,624,0,0
693,400,0,0,0,0,0,0,0,0,0,-1,1917,624,0,0
700,400,0,0,0,0,0,0,0,0,0,-1,1924,624,0,0
707,400,0,0,0,0,0,0,0,0,0,-1,1931,624,0,0
714,400,0,0,0,0,0,0,0,0,0,-1,1938,624,0,0
721,400,0,0,0,0,0,0,0,0,0,-1,1945,624,0,0
728,400,0,0,0,0,0,0,0,0,0,-1,1952,624,0,0
735,400,0,0,0,0,0,0,0,0,0,-1,1959,624,0,0
742,400,0,0,0,0,0,0,0,0,0,-1,1966,624,0,0
749,400,0,0,0,0,0,0,0,0,0,-1,1973,624,0,0
756,400,0,0,0,0,0,0,0,0,0,-1,1980,624,0,0
763,400,0,0,0,0,0,0,0,0,0,-1,1987,624,0,0
770,400,0,0,0,0,0,0,0,0,0,-1,1994,624,0,0
777,400,0,0,0,0,0,0,0,0,0,-1,2001,624,0,0
784,400,0,0,0,0,0,0,0,0,0,-1,2008,624,0,0
791,400,0,0,0,0,0,0,0,0,0,-1,2015,624,0,0
798,400,0,0,0,0,0,0,0,0,0,-1,2022,624,0,0
805,400,0,0,0,0,0,0,0,0,0,-1,2029,624,0,0
812,400,0,0,0,0,0,0,0,0,0,-1,2036,624,0,0
-700,393,0,0,0,0,0,0,0,0,0,-1,524,631,0,0
-693,393,0,0,0,0,0,0,0,0,0,-1,531,631,0,0
-686,393,0,0,0,0,0,0,0,0,0,-1,538,631,0,0
-679,393,0,0,0,0,0,0,0,0,0,-1,545,631,0,0
-672,393,0,0,0,0,0,0,0,0,0,-1,552,631,0,0
-665,393,0,0,0,0,0,0,0,0,0,-1,559,631,0,0
-658,393,0,0,0,0,0,0,0,0,0,-1,566,631,0,0
-651,393,0,0,0,0,0,0,0,0,0,-1,573,631,0,0
-644,393,0,0,0,0,0,0,0,0,0,-1,580,631,0,0
-637,393,0,0,0,0,0,0,0,0,0,-1,587,631,0,0
-630,393,0,0,0,0,0,0,0,0,0,-1,594,631,0,0
-623,393,0,0,0,0,0,0,0,0,0,-1,601,631,0,0
-616,393,0,0,0,0,0,0,0,0,0,-1,608,631,0,0
-609,393,0,0,0,0,0,0,0,0,0,-1,615,631,0,0
-602,393,0,0,0,0,0,0,0,0,0,-1,622,631,0,0
-595,393,0,0,0,0,0,0,0,0,0,-1,629,631,0,0
-588,393,0,0,0,0,0,0,0,0,0,-1,636,631,0,0
-581,393,0,0,0,0,0,0,0,0,0,-1,643,631,0,0
-574,393,0,0,0,0,0,0,0,0,0,-1,650,631,0,0
-567,393,0,0,0,0,0,0,0,0,0,-1,657,631,0,0
-560,393,0,0,0,0,0,0,0,0,0,-1,664,631,0,0
-553,393,-2.35107,3.92633,0,0,0,0,0,0,0,-1,671,631,-2.35108,-3.92634
-546,393,-1.78778,2.4856,0,0,0,0,0,0,0,-1,678,631,-1.78778,-2.48557
-539,393,-5.2113,-2.20245,0,0,0,0,0,0,0,-1,685,631,-5.21128,2.20247
-532,393,-2.83643,-2.01624,0,0,0,0,0,0,0,-1,692,631,-2.83642,2.01626
-525,393,-5.9505,-0.952698,0,0,0,0,0,0,0,-1,699,631,-5.95053,0.95268
-518,393,-5.80219,-1.57739,0,0,0,0,0,0,0,-1,706,631,-5.80219,1.57738
-511,393,-5.68774,-2.18201,0,0,0,0,0,0,0,-1,713,631,-5.68776,2.18199
-504,393,-6.5976,-2.53119,0,0,0,0,0,0,0,-1,720,631,-6.59758,2.53119
-497,393,-6.41315,-2.98627,0.00313278,0.00803843,-0.00559636,0.0116959,-0.000524682,-0.991935,0.00797791,0.0265607,727,631,-6.41312,2.98625
-490,393,-6.3999,-3.49652,0.00267987,0.00596131,-0.0042059,0.00883518,-0.000194002,-0.971369,0.00595584,0.0145823,734,631,-6.39987,3.4965
-483,393,-6.39093,-3.90314,0.00248924,0.00443899,-0.00337767,0.00697966,-5.14288e-05,-0.925892,0.00467035,0.0188562,741,631,-6.39095,3.90315
-476,393,-6.38971,-4.24103,0.00231069,0.00295208,-0.00256966,0.00522098,4.17898e-05,-0.847478,0.00346681,0.0164421,748,631,-6.38973,4.24101
-469,393,-6.40973,-4.60864,0.00219515,0.00224757,-0.00214613,0.00436765,7.50662e-05,-0.791504,0.00288707,0.0126541,755,631,-6.40972,4.60867
-462,393,-6.41901,-5.00427,0.00201531,0.00161863,-0.00184051,0.00366814,-3.41904e-05,-0.731723,0.0024569,0.0146758,762,631,-6.419,5.00425
-455,393,-6.43585,-5.38818,0.00162206,0.00100098,-0.00133791,0.002685,-6.19579e-05,-0.671363,0.00181101,0.014477,769,631,-6.43585,5.38816
-448,393,-6.45776,-5.75055,0.00113543,0.000215628,-0.000645548,0.00146815,-0.000117087,-0.475891,0.00102004,0.0140279,776,631,-6.45775,5.75057
-441,393,-6.47955,-6.07861,0.000325251,-0.000639329,0.000222925,0.00037428,-0.000688357,0.216486,0.000622382,0.0124791,783,631,-6.47955,6.07858
-434,393,-6.48395,-6.41406,-0.000596783,-0.00136634,0.00116728,0.000247501,-0.00221062,0.626189,0.00156279,0.0110177,790,631,-6.48397,6.41406
-427,393,-6.43433,-6.80261,-0.00187976,-0.00244726,0.00236904,0.00022246,-0.00454948,0.725795,0.00310979,0.0193906,797,631,-6.43434,6.80263
-420,393,-6.40979,-7.13611,-0.0033906,-0.00371447,0.0036368,8.78733e-05,-0.00719294,0.763149,0.00482485,0.0444071,804,631,-6.40982,7.13613
-413,393,-6.50311,-7.59167,0,0,0,0,0,0,0,-1,811,631,-6.50311,7.59167
-406,393,-7.0083,-7.73248,0,0,0,0,0,0,0,-1,818,631,-7.00832,7.7325
-399,393,-5.07343,-5.92365,0,0,0,0,0,0,0,-1,825,631,-5.07344,5.92364
-392,393,-2.08063,-3.02386,0,0,0,0,0,0,0,-1,832,631,-2.08063,3.02384
-385,393,-3.16931,-0.624756,0,0,0,0,0,0,0,-1,839,631,-3.16928,0.624764
-378,393,-7.33081,-0.872314,0,0,0,0,0,0,0,-1,846,631,-7.33081,0.872325
-371,393,-7.47858,-0.811096,0,0,0,0,0,0,0,-1,853,631,-7.47859,0.811075
-364,393,-7.64917,-0.662415,0,0,0,0,0,0,0,-1,860,631,-7.64917,0.662406
-357,393,-8.09686,-0.726013,0,0,0,0,0,0,0,-1,867,631,-8.09689,0.726029
-350,393,-8.38788,-0.511841,0,0,0,0,0,0,0,-1,874,631,-8.38785,0.511811
-343,393,0,0,0,0,0,0,0,0,0,-1,881,631,0,0
-336,393,0,0,0,0,0,0,0,0,0,-1,888,631,0,0
-329,393,0,0,0,0,0,0,0,0,0,-1,895,631,0,0
-322,393,0,0,0,0,0,0,0,0,0,-1,902,631,0,0
-315,393,0,0,0,0,0,0,0,0,0,-1,909,631,0,0
-308,393,0,0,0,0,0,0,0,0,0,-1,916,631,0,0
-301,393,0,0,0,0,0,0,0,0,0,-1,923,631,0,0
-294,393,0,0,0,0,0,0,0,0,0,-1,930,631,0,0
-287,393,0,0,0,0,0,0,0,0,0,-1,937,631,0,0
-280,393,0,0,0,0,0,0,0,0,0,-1,944,631,0,0
-273,393,0,0,0,0,0,0,0,0,0,-1,951,631,0,0
-266,393,0,0,0,0,0,0,0,0,0,-1,958,631,0,0
-259,393,0,0,0,0,0,0,0,0,0,-1,965,631,0,0
-252,393,0,0,0,0,0,0,0,0,0,-1,972,631,0,0
-245,393,0,0,0,0,0,0,0,0,0,-1,979,631,0,0
-238,393,0,0,0,0,0,0,0,0,0,-1,986,631,0,0
-231,393,0,0,0,0,0,0,0,0,0,-1,993,631,0,0
-224,393,0,0,0,0,0,0,0,0,0,-1,1000,631,0,0
-217,393,0,0,0,0,0,0,0,0,0,-1,1007,631,0,0
-210,393,0,0,0,0,0,0,0,0,0,-1,1014,631,0,0
-203,393,0,0,0,0,0,0,0,0,0,-1,1021,631,0,0
-196,393,0,0,0,0,0,0,0,0,0,-1,1028,631,0,0
-189,393,0,0,0,0,0,0,0,0,0,-1,1035,631,0,0
-182,393,0,0,0,0,0,0,0,0,0,-1,1042,631,0,0
-175,393,0,0,0,0,0,0,0,0,0,-1,1049,631,0,0
-168,393,0,0,0,0,0,0,0,0,0,-1,1056,631,0,0
-161,393,0,0,0,0,0,0,0,0,0,-1,1063,631,0,0
-154,393,0,0,0,0,0,0,0,0,0,-1,1070,631,0,0
-147,393,0,0,0,0,0,0,0,0,0,-1,1077,631,0,0
-140,393,0,0,0,0,0,0,0,0,0,-1,1084,631,0,0
-133,393,0,0,0,0,0,0,0,0,0,-1,1091,631,0,0
-126,393,0,0,0,0,0,0,0,0,0,-1,1098,631,0,0
-119,393,0,0,0,0,0,0,0,0,0,-1,1105,631,0,0
-112,393,0,0,0,0,0,0,0,0,0,-1,1112,631,0,0
-105,393,0,0,0,0,0,0,0,0,0,-1,1119,631,0,0
-98,393,0,0,0,0,0,0,0,0,0,-1,1126,631,0,0
-91,393,0,0,0,0,0,0,0,0,0,-1,1133,631,0,0
-84,393,0,0,0,0,0,0,0,0,0,-1,1140,631,0,0
-77,393,0,0,0,0,0,0,0,0,0,-1,1147,631,0,0
-70,393,0,0,0,0,0,0,0,0,0,-1,1154,631,0,0
-63,393,0,0,0,0,0,0,0,0,0,-1,1161,631,0,0
-56,393,0,0,0,0,0,0,0,0,0,-1,1168,631,0,0
-49,393,0,0,0,0,0,0,0,0,0,-1,1175,631,0,0
-42,393,0,0,0,0,0,0,0,0,0,-1,1182,631,0,0
-35,393,0,0,0,0,0,0,0,0,0,-1,1189,631,0,0
-28,393,0,0,0,0,0,0,0,0,0,-1,1196,631,0,0
-21,393,0,0,0,0,0,0,0,0,0,-1,1203,631,0,0
-14,393,0,0,0,0,0,0,0,0,0,-1,1210,631,0,0
-7,393,0,0,0,0,0,0,0,0,0,-1,1217,631,0,0
0,393,0,0,0,0,0,0,0,0,0,-1,1224,631,0,0
7,393,0,0,0,0,0,0,0,0,0,-1,1231,631,0,0
14,393,0,0,0,0,0,0,0,0,0,-1,1238,631,0,0
21,393,0,0,0,0,0,0,0,0,0,-1,1245,631,0,0
28,393,0,0,0,0,0,0,0,0,0,-1,1252,631,0,0
35,393,0,0,0,0,0,0,0,0,0,-1,1259,631,0,0
42,393,0,0,0,0,0,0,0,0,0,-1,1266,631,0,0
49,393,0,0,0,0,0,0,0,0,0,-1,1273,631,0,0
56,393,0,0,0,0,0,0,0,0,0,-1,1280,631,0,0
63,393,0,0,0,0,0,0,0,0,0,-1,1287,631,0,0
70,393,0,0,0,0,0,0,0,0,0,-1,1294,631,0,0
77,393,0,0,0,0,0,0,0,0,0,-1,1301,631,0,0
84,393,0,0,0,0,0,0,0,0,0,-1,1308,631,0,0
91,393,0,0,0,0,0,0,0,0,0,-1,1315,631,0,0
98,393,0,0,0,0,0,0,0,0,0,-1,1322,631,0,0
105,393,0,0,0,0,0,0,0,0,0,-1,1329,631,0,0
112,393,0,0,0,0,0,0,0,0,0,-1,1336,631,0,0
119,393,0,0,0,0,0,0,0,0,0,-1,1343,631,0,0
126,393,0,0,0,0,0,0,0,0,0,-1,1350,631,0,0
133,393,0,0,0,0,0,0,0,0,0,-1,1357,631,0,0
140,393,0,0,0,0,0,0,0,0,0,-1,1364,631,0,0
147,393,0,0,0,0,0,0,0,0,0,-1,1371,631,0,0
154,393,0,0,0,0,0,0,0,0,0,-1,1378,631,0,0
161,393,0,0,0,0,0,0,0,0,0,-1,1385,631,0,0
168,393,0,0,0,0,0,0,0,0,0,-1,1392,631,0,0
175,393,0,0,0,0,0,0,0,0,0,-1,1399,631,0,0
182,393,0,0,0,0,0,0,0,0,0,-1,1406,631,0,0
189,393,0,0,0,0,0,0,0,0,0,-1,1413,631,0,0
196,393,0,0,0,0,0,0,0,0,0,-1,1420,631,0,0
203,393,0,0,0,0,0,0,0,0,0,-1,1427,631,0,0
210,393,0,0,0,0,0,0,0,0,0,-1,1434,631,0,0
217,393,0,0,0,0,0,0,0,0,0,-1,1441,631,0,0
224,393,0,0,0,0,0,0,0,0,0,-1,1448,631,0,0
231,393,0,0,0,0,0,0,0,0,0,-1,1455,631,0,0
238,393,0,0,0,0,0,0,0,0,0,-1,1462,631,0,0
245,393,0,0,0,0,0,0,0,0,0,-1,1469,631,0,0
252,393,0,0,0,0,0,0,0,0,0,-1,1476,631,0,0
259,393,0,0,0,0,0,0,0,0,0,-1,1483,631,0,0
266,393,0,0,0,0,0,0,0,0,0,-1,1490,631,0,0
273,393,0,0,0,0,0,0,0,0,0,-1,1497,631,0,0
280,393,0,0,0,0,0,0,0,0,0,-1,1504,631,0,0
287,393,0,0,0,0,0,0,0,0,0,-1,1511,631,0,0
294,393,0,0,0,0,0,0,0,0,0,-1,1518,631,0,0
301,393,0,0,0,0,0,0,0,0,0,-1,1525,631,0,0
308,393,0,0,0,0,0,0,0,0,0,-1,1532,631,0,0
315,393,0,0,0,0,0,0,0,0,0,-1,1539,631,0,0
322,393,0,0,0,0,0,0,0,0,0,-1,1546,631,0,0
329,393,0,0,0,0,0,0,0,0,0,-1,1553,631,0,0
336,393,0,0,0,0,0,0,0,0,0,-1,1560,631,0,0
343,393,0,0,0,0,0,0,0,0,0,-1,1567,631,0,0
350,393,0,0,0,0,0,0,0,0,0,-1,1574,631,0,0
357,393,0,0,0,0,0,0,0,0,0,-1,1581,631,0,0
364,393,0,0,0,0,0,0,0,0,0,-1,1588,631,0,0
371,393,0,0,0,0,0,0,0,0,0,-1,1595,631,0,0
378,393,0,0,0,0,0,0,0,0,0,-1,1602,631,0,0
385,393,0,0,0,0,0,0,0,0,0,-1,1609,631,0,0
392,393,0,0,0,0,0,0,0,0,0,-1,1616,631,0,0
399,393,0,0,0,0,0,0,0,0,0,-1,1623,631,0,0
406,393,0,0,0,0,0,0,0,0,0,-1,1630,631,0,0
413,393,0,0,0,0,0,0,0,0,0,-1,1637,631,0,0
420,393,0,0,0,0,0,0,0,0,0,-1,1644,631,0,0
427,393,0,0,0,0,0,0,0,0,0,-1,1651,631,0,0
434,393,0,0,0,0,0,0,0,0,0,-1,1658,631,0,0
441,393,0,0,0,0,0,0,0,0,0,-1,1665,631,0,0
448,393,0,0,0,0,0,0,0,0,0,-1,1672,631,0,0
455,393,0,0,0,0,0,0,0,0,0,-1,1679,631,0,0
462,393,8.51099,1.89502,0,0,0,0,0,0,0,-1,1686,631,8.51103,-1.89504
469,393,9.39465,1.51703,0,0,0,0,0,0,0,-1,1693,631,9.39465,-1.51703
476,393,9.95569,1.185,0,0,0,0,0,0,0,-1,1700,631,9.95575,-1.18497
483,393,10.5267,0.887329,0,0,0,0,0,0,0,-1,1707,631,10.5267,-0.887321
490,393,10.9303,0.761414,0,0,0,0,0,0,0,-1,1714,631,10.9303,-0.761386
497,393,8.32153,1.88104,0,0,0,0,0,0,0,-1,1721,631,8.32148,-1.88103
504,393,9.46985,1.78711,0,0,0,0,0,0,0,-1,1728,631,9.46986,-1.78713
511,393,9.66565,-0.375977,0,0,0,0,0,0,0,-1,1735,631,9.66571,0.375949
518,393,7.01599,1.62482,0,0,0,0,0,0,0,-1,1742,631,7.01597,-1.62483
525,393,7.88245,-1.13422,0,0,0,0,0,0,0,-1,1749,631,7.88246,1.13423
532,393,7.06335,-1.18103,0,0,0,0,0,0,0,-1,1756,631,7.06332,1.18101
539,393,9.91626,-2.46301,0,0,0,0,0,0,0,-1,1763,631,9.91625,2.46302
546,393,14.011,-5.69733,0,0,0,0,0,0,0,-1,1770,631,14.011,5.69734
553,393,13.8867,-5.13293,0.000219928,0.00174247,-0.000202959,0.00176906,0.000193337,-1.44052,0.0011205,0.0414605,1777,631,13.8867,5.13295
560,393,13.962,-4.83148,7.20236e-05,0.00128077,-0.000325583,0.00136289,-1.00952e-05,-1.32373,0.000911974,0.0185805,1784,631,13.962,4.83149
567,393,13.9583,-4.42883,-3.06887e-05,0.000986444,-0.000309456,0.0010732,-0.000117439,-1.29748,0.00075765,0.01413,1791,631,13.9583,4.42885
574,393,13.958,-4.06567,9.66872e-06,0.00093898,-9.82475e-05,0.000949253,-6.04545e-07,-1.46661,0.000633037,0.0155445,1798,631,13.9581,4.06568
581,393,13.9196,-3.67224,9.75409e-05,0.00102935,0.000175455,0.0010613,6.55988e-05,1.39072,0.000686709,0.0164183,1805,631,13.9195,3.67224
588,393,13.9058,-3.25751,0.000219109,0.00128561,0.000530035,0.00150421,4.98549e-07,1.17961,0.00100264,0.0177215,1812,631,13.9057,3.25751
595,393,13.9414,-2.89764,0.00050097,0.00166989,0.00100037,0.00224403,-7.31607e-05,1.04978,0.00152099,0.0140369,1819,631,13.9414,2.89764
602,393,13.9376,-2.48627,0.000886042,0.00221327,0.00157555,0.00325925,-0.000159947,0.98472,0.00222807,0.0151151,1826,631,13.9376,2.48626
609,393,13.8929,-2.09747,0.00105998,0.00281995,0.00206503,0.00418468,-0.000304749,0.986815,0.00289672,0.0163324,1833,631,13.893,2.09746
616,393,13.8499,-1.69849,0.00108727,0.00343974,0.00242853,0.00496189,-0.000434885,1.01092,0.00346201,0.0161413,1840,631,13.8498,1.69848
623,393,13.8713,-1.19464,0.00128749,0.00421007,0.00287586,0.0059746,-0.00047705,1.02046,0.00415123,0.0278593,1847,631,13.8713,1.19462
630,393,14.0748,-0.76532,0,0,0,0,0,0,0,-1,1854,631,14.0748,0.765333
637,393,11.4626,0.608887,0,0,0,0,0,0,0,-1,1861,631,11.4627,-0.608904
644,393,8.97583,1.30585,0,0,0,0,0,0,0,-1,1868,631,8.97586,-1.30584
651,393,11.348,0.53302,0,0,0,0,0,0,0,-1,1875,631,11.348,-0.53305
658,393,9.21338,1.50836,0,0,0,0,0,0,0,-1,1882,631,9.21338,-1.50834
665,393,6.1001,2.32129,0,0,0,0,0,0,0,-1,1889,631,6.10012,-2.3213
672,393,7.14575,2.43225,0,0,0,0,0,0,0,-1,1896,631,7.14572,-2.43222
679,393,0,0,0,0,0,0,0,0,0,-1,1903,631,0,0
686,393,0,0,0,0,0,0,0,0,0,-1,1910,631,0,0
693,393,0,0,0,0,0,0,0,0,0,-1,1917,631,0,0
700,393,0,0,0,0,0,0,0,0,0,-1,1924,631,0,0
707,393,0,0,0,0,0,0,0,0,0,-1,1931,631,0,0
714,393,0,0,0,0,0,0,0,0,0,-1,1938,631,0,0
721,393,0,0,0,0,0,0,0,0,0,-1,1945,631,0,0
728,393,0,0,0,0,0,0,0,0,0,-1,1952,631,0,0
735,393,0,0,0,0,0,0,0,0,0,-1,1959,631,0,0
742,393,0,0,0,0,0,0,0,0,0,-1,1966,631,0,0
749,393,0,0,0,0,0,0,0,0,0,-1,1973,631,0,0
756,393,0,0,0,0,0,0,0,0,0,-1,1980,631,0,0
763,393,0,0,0,0,0,0,0,0,0,-1,1987,631,0,0
770,393,0,0,0,0,0,0,0,0,0,-1,1994,631,0,0
777,393,0,0,0,0,0,0,0,0,0,-1,2001,631,0,0
784,393,0,0,0,0,0,0,0,0,0,-1,2008,631,0,0
791,393,0,0,0,0,0,0,0,0,0,-1,2015,631,0,0
798,393,0,0,0,0,0,0,0,0,0,-1,2022,631,0,0
805,393,0,0,0,0,0,0,0,0,0,-1,2029,631,0,0
812,393,0,0,0,0,0,0,0,0,0,-1,2036,631,0,0
-700,386,0,0,0,0,0,0,0,0,0,-1,524,638,0,0
-693,386,0,0,0,0,0,0,0,0,0,-1,531,638,0,0
-686,386,0,0,0,0,0,0,0,0,0,-1,538,638,0,0
-679,386,0,0,0,0,0,0,0,0,0,-1,545,638,0,0
-672,386,0,0,0,0,0,0,0,0,0,-1,552,638,0,0
-665,386,0,0,0,0,0,0,0,0,0,-1,559,638,0,0
-658,386,0,0,0,0,0,0,0,0,0,-1,566,638,0,0
-651,386,0,0,0,0,0,0,0,0,0,-1,573,638,0,0
-644,386,0,0,0,0,0,0,0,0,0,-1,580,638,0,0
-637,386,0,0,0,0,0,0,0,0,0,-1,587,638,0,0
-630,386,0,0,0,0,0,0,0,0,0,-1,594,638,0,0
-623,386,0,0,0,0,0,0,0,0,0,-1,601,638,0,0
-616,386,0,0,0,0,0,0,0,0,0,-1,608,638,0,0
-609,386,0,0,0,0,0,0,0,0,0,-1,615,638,0,0
-602,386,0,0,0,0,0,0,0,0,0,-1,622,638,0,0
-595,386,0,0,0,0,0,0,0,0,0,-1,629,638,0,0
-588,386,0,0,0,0,0,0,0,0,0,-1,636,638,0,0
-581,386,0,0,0,0,0,0,0,0,0,-1,643,638,0,0
-574,386,0,0,0,0,0,0,0,0,0,-1,650,638,0,0
-567,386,0,0,0,0,0,0,0,0,0,-1,657,638,0,0
-560,386,-3.97229,-5.13898,0,0,0,0,0,0,0,-1,664,638,-3.97232,5.13897
-553,386,-4.94244,-5.54309,0,0,0,0,0,0,0,-1,671,638,-4.94242,5.5431
-546,386,-1.78668,1.72827,0,0,0,0,0,0,0,-1,678,638,-1.78668,-1.72829
-539,386,-0.879456,-2.90009,0,0,0,0,0,0,0,-1,685,638,-0.879442,2.90008
-532,386,-4.83362,1.61053,0,0,0,0,0,0,0,-1,692,638,-4.83361,-1.61051
-525,386,-6.64148,-1.50604,0,0,0,0,0,0,0,-1,699,638,-6.64149,1.50603
-518,386,-6.41309,-1.71802,0,0,0,0,0,0,0,-1,706,638,-6.4131,1.71805
-511,386,-6.69812,-1.94183,0,0,0,0,0,0,0,-1,713,638,-6.6981,1.94184
-504,386,-6.71265,-2.67993,0.00532578,0.0081547,-0.00762864,0.0144989,-0.00101842,-0.877064,0.0100227,0.0303815,720,638,-6.71267,2.67994
-497,386,-6.80231,-3.13745,0.00249626,0.00663302,-0.00481099,0.00980142,-0.00067213,-0.988417,0.00676945,0.0139547,727,638,-6.80229,3.13748
-490,386,-6.78302,-3.53632,0.00194007,0.00480865,-0.00340408,0.00706826,-0.000319545,-0.984784,0.00482222,0.0127631,734,638,-6.78301,3.5363
-483,386,-6.7572,-3.93048,0.00183121,0.00352016,-0.0026288,0.00543679,-8.54211e-05,-0.940811,0.00365333,0.0163674,741,638,-6.75719,3.93048
-476,386,-6.7561,-4.26465,0.00181588,0.002232,-0.00194471,0.00397975,6.814e-05,-0.838689,0.00263075,0.0153299,748,638,-6.7561,4.26464
-469,386,-6.78345,-4.60583,0.00187064,0.00177403,-0.00170247,0.00352549,0.000119176,-0.771214,0.00231163,0.0114018,755,638,-6.78344,4.60586
-462,386,-6.79156,-4.99054,0.00184688,0.00136488,-0.00159437,0.00321837,-6.60249e-06,-0.710388,0.00214778,0.0108292,762,638,-6.79158,4.99056
-455,386,-6.80444,-5.36481,0.00155475,0.000908758,-0.00123139,0.0025048,-4.12905e-05,-0.657136,0.0016838,0.0127231,769,638,-6.80444,5.36481
-448,386,-6.8277,-5.72778,0.00114681,0.000261204,-0.000673071,0.00150968,-0.000101659,-0.494449,0.00104199,0.0131306,776,638,-6.82771,5.72776
-441,386,-6.85571,-6.06799,0.000373589,-0.000569178,0.000137189,0.000393146,-0.000588736,0.141606,0.000570627,0.0131099,783,638,-6.85572,6.06802
-434,386,-6.80737,-6.49298,-0.000531245,-0.0011246,0.00100472,0.000219683,-0.00187553,0.641836,0.00132964,0.0289148,790,638,-6.80739,6.49296
-427,386,-6.73016,-6.8822,0,0,0,0,0,0,0,-1,797,638,-6.73015,6.88222
-420,386,-6.74805,-7.14545,0,0,0,0,0,0,0,-1,804,638,-6.74803,7.14547
-413,386,-5.45691,-5.35785,0,0,0,0,0,0,0,-1,811,638,-5.45691,5.35783
-406,386,-4.51135,-4.10999,0,0,0,0,0,0,0,-1,818,638,-4.51135,4.10996
-399,386,-3.57117,-3.42126,0,0,0,0,0,0,0,-1,825,638,-3.57116,3.42129
-392,386,-4.00977,0.403625,0,0,0,0,0,0,0,-1,832,638,-4.0098,-0.403616
-385,386,-3.2406,-0.118469,0,0,0,0,0,0,0,-1,839,638,-3.24058,0.118485
-378,386,-2.55243,-1.22748,0,0,0,0,0,0,0,-1,846,638,-2.55243,1.22748
-371,386,-7.95807,-0.330261,0,0,0,0,0,0,0,-1,853,638,-7.95806,0.330284
-364,386,-8.90637,-0.665955,0,0,0,0,0,0,0,-1,860,638,-8.90635,0.665951
-357,386,-9.10364,-0.388733,0,0,0,0,0,0,0,-1,867,638,-9.10364,0.388744
-350,386,0,0,0,0,0,0,0,0,0,-1,874,638,0,0
-343,386,0,0,0,0,0,0,0,0,0,-1,881,638,0,0
-336,386,0,0,0,0,0,0,0,0,0,-1,888,638,0,0
-329,386,0,0,0,0,0,0,0,0,0,-1,895,638,0,0
-322,386,0,0,0,0,0,0,0,0,0,-1,902,638,0,0
-315,386,0,0,0,0,0,0,0,0,0,-1,909,638,0,0
-308,386,0,0,0,0,0,0,0,0,0,-1,916,638,0,0
-301,386,0,0,0,0,0,0,0,0,0,-1,923,638,0,0
-294,386,0,0,0,0,0,0,0,0,0,-1,930,638,0,0
-287,386,0,0,0,0,0,0,0,0,0,-1,937,638,0,0
-280,386,0,0,0,0,0,0,0,0,0,-1,944,638,0,0
-273,386,0,0,0,0,0,0,0,0,0,-1,951,638,0,0
-266,386,0,0,0,0,0,0,0,0,0,-1,958,638,0,0
-259,386,0,0,0,0,0,0,0,0,0,-1,965,638,0,0
-252,386,0,0,0,0,0,0,0,0,0,-1,972,638,0,0
-245,386,0,0,0,0,0,0,0,0,0,-1,979,638,0,0
-238,386,0,0,0,0,0,0,0,0,0,-1,986,638,0,0
-231,386,0,0,0,0,0,0,0,0,0,-1,993,638,0,0
-224,386,0,0,0,0,0,0,0,0,0,-1,1000,638,0,0
-217,386,0,0,0,0,0,0,0,0,0,-1,1007,638,0,0
-210,386,0,0,0,0,0,0,0,0,0,-1,1014,638,0,0
-203,386,0,0,0,0,0,0,0,0,0,-1,1021,638,0,0
-196,386,0,0,0,0,0,0,0,0,0,-1,1028,638,0,0
-189,386,0,0,0,0,0,0,0,0,0,-1,1035,638,0,0
-182,386,0,0,0,0,0,0,0,0,0,-1,1042,638,0,0
-175,386,0,0,0,0,0,0,0,0,0,-1,1049,638,0,0
-168,386,0,0,0,0,0,0,0,0,0,-1,1056,638,0,0
-161,386,0,0,0,0,0,0,0,0,0,-1,1063,638,0,0
-154,386,0,0,0,0,0,0,0,0,0,-1,1070,638,0,0
-147,386,0,0,0,0,0,0,0,0,0,-1,1077,638,0,0
-140,386,0,0,0,0,0,0,0,0,0,-1,1084,638,0,0
-133,386,0,0,0,0,0,0,0,0,0,-1,1091,638,0,0
-126,386,0,0,0,0,0,0,0,0,0,-1,1098,638,0,0
-119,386,0,0,0,0,0,0,0,0,0,-1,1105,638,0,0
-112,386,0,0,0,0,0,0,0,0,0,-1,1112,638,0,0
-105,386,0,0,0,0,0,0,0,0,0,-1,1119,638,0,0
-98,386,0,0,0,0,0,0,0,0,0,-1,1126,638,0,0
-91,386,0,0,0,0,0,0,0,0,0,-1,1133,638,0,0
-84,386,0,0,0,0,0,0,0,0,0,-1,1140,638,0,0
-77,386,0,0,0,0,0,0,0,0,0,-1,1147,638,0,0
-70,386,0,0,0,0,0,0,0,0,0,-1,1154,638,0,0
-63,386,0,0,0,0,0,0,0,0,0,-1,1161,638,0,0
-56,386,0,0,0,0,0,0,0,0,0,-1,1168,638,0,0
-49,386,0,0,0,0,0,0,0,0,0,-1,1175,638,0,0
-42,386,0,0,0,0,0,0,0,0,0,-1,1182,638,0,0
-35,386,0,0,0,0,0,0,0,0,0,-1,1189,638,0,0
-28,386,0,0,0,0,0,0,0,0,0,-1,1196,638,0,0
-21,386,0,0,0,0,0,0,0,0,0,-1,1203,638,0,0
-14,386,0,0,0,0,0,0,0,0,0,-1,1210,638,0,0
-7,386,0,0,0,0,0,0,0,0,0,-1,1217,638,0,0
0,386,0,0,0,0,0,0,0,0,0,-1,1224,638,0,0
7,386,0,0,0,0,0,0,0,0,0,-1,1231,638,0,0
14,386,0,0,0,0,0,0,0,0,0,-1,1238,638,0,0
21,386,0,0,0,0,0,0,0,0,0,-1,1245,638,0,0
28,386,0,0,0,0,0,0,0,0,0,-1,1252,638,0,0
35,386,0,0,0,0,0,0,0,0,0,-1,1259,638,0,0
42,386,0,0,0,0,0,0,0,0,0,-1,1266,638,0,0
49,386,0,0,0,0,0,0,0,0,0,-1,1273,638,0,0
56,386,0,0,0,0,0,0,0,0,0,-1,1280,638,0,0
63,386,0,0,0,0,0,0,0,0,0,-1,1287,638,0,0
70,386,0,0,0,0,0,0,0,0,0,-1,1294,638,0,0
77,386,0,0,0,0,0,0,0,0,0,-1,1301,638,0,0
84,386,0,0,0,0,0,0,0,0,0,-1,1308,638,0,0
91,386,0,0,0,0,0,0,0,0,0,-1,1315,638,0,0
98,386,0,0,0,0,0,0,0,0,0,-1,1322,638,0,0
105,386,0,0,0,0,0,0,0,0,0,-1,1329,638,0,0
112,386,0,0,0,0,0,0,0,0,0,-1,1336,638,0,0
119,386,0,0,0,0,0,0,0,0,0,-1,1343,638,0,0
126,386,0,0,0,0,0,0,0,0,0,-1,1350,638,0,0
133,386,0,0,0,0,0,0,0,0,0,-1,1357,638,0,0
140,386,0,0,0,0,0,0,0,0,0,-1,1364,638,0,0
147,386,0,0,0,0,0,0,0,0,0,-1,1371,638,0,0
154,386,0,0,0,0,0,0,0,0,0,-1,1378,638,0,0
161,386,0,0,0,0,0,0,0,0,0,-1,1385,638,0,0
168,386,0,0,0,0,0,0,0,0,0,-1,1392,638,0,0
175,386,0,0,0,0,0,0,0,0,0,-1,1399,638,0,0
182,386,0,0,0,0,0,0,0,0,0,-1,1406,638,0,0
189,386,0,0,0,0,0,0,0,0,0,-1,1413,638,0,0
196,386,0,0,0,0,0,0,0,0,0,-1,1420,638,0,0
203,386,0,0,0,0,0,0,0,0,0,-1,1427,638,0,0
210,386,0,0,0,0,0,0,0,0,0,-1,1434,638,0,0
217,386,0,0,0,0,0,0,0,0,0,-1,1441,638,0,0
224,386,0,0,0,0,0,0,0,0,0,-1,1448,638,0,0
231,386,0,0,0,0,0,0,0,0,0,-1,1455,638,0,0
238,386,0,0,0,0,0,0,0,0,0,-1,1462,638,0,0
245,386,0,0,0,0,0,0,0,0,0,-1,1469,638,0,0
252,386,0,0,0,0,0,0,0,0,0,-1,1476,638,0,0
259,386,0,0,0,0,0,0,0,0,0,-1,1483,638,0,0
266,386,0,0,0,0,0,0,0,0,0,-1,1490,638,0,0
273,386,0,0,0,0,0,0,0,0,0,-1,1497,638,0,0
280,386,0,0,0,0,0,0,0,0,0,-1,1504,638,0,0
287,386,0,0,0,0,0,0,0,0,0,-1,1511,638,0,0
294,386,0,0,0,0,0,0,0,0,0,-1,1518,638,0,0
301,386,0,0,0,0,0,0,0,0,0,-1,1525,638,0,0
308,386,0,0,0,0,0,0,0,0,0,-1,1532,638,0,0
315,386,0,0,0,0,0,0,0,0,0,-1,1539,638,0,0
322,386,0,0,0,0,0,0,0,0,0,-1,1546,638,0,0
329,386,0,0,0,0,0,0,0,0,0,-1,1553,638,0,0
336,386,0,0,0,0,0,0,0,0,0,-1,1560,638,0,0
343,386,0,0,0,0,0,0,0,0,0,-1,1567,638,0,0
350,386,0,0,0,0,0,0,0,0,0,-1,1574,638,0,0
357,386,0,0,0,0,0,0,0,0,0,-1,1581,638,0,0
364,386,0,0,0,0,0,0,0,0,0,-1,1588,638,0,0
371,386,0,0,0,0,0,0,0,0,0,-1,1595,638,0,0
378,386,0,0,0,0,0,0,0,0,0,-1,1602,638,0,0
385,386,0,0,0,0,0,0,0,0,0,-1,1609,638,0,0
392,386,0,0,0,0,0,0,0,0,0,-1,1616,638,0,0
399,386,0,0,0,0,0,0,0,0,0,-1,1623,638,0,0
406,386,0,0,0,0,0,0,0,0,0,-1,1630,638,0,0
413,386,0,0,0,0,0,0,0,0,0,-1,1637,638,0,0
420,386,0,0,0,0,0,0,0,0,0,-1,1644,638,0,0
427,386,0,0,0,0,0,0,0,0,0,-1,1651,638,0,0
434,386,0,0,0,0,0,0,0,0,0,-1,1658,638,0,0
441,386,0,0,0,0,0,0,0,0,0,-1,1665,638,0,0
448,386,0,0,0,0,0,0,0,0,0,-1,1672,638,0,0
455,386,0,0,0,0,0,0,0,0,0,-1,1679,638,0,0
462,386,0,0,0,0,0,0,0,0,0,-1,1686,638,0,0
469,386,9.84692,1.55804,0,0,0,0,0,0,0,-1,1693,638,9.84691,-1.55807
476,386,10.6145,0.986511,0,0,0,0,0,0,0,-1,1700,638,10.6145,-0.986529
483,386,11.4113,0.732971,0,0,0,0,0,0,0,-1,1707,638,11.4112,-0.732958
490,386,7.79785,1.79572,0,0,0,0,0,0,0,-1,1714,638,7.79788,-1.7957
497,386,8.96362,1.77081,0,0,0,0,0,0,0,-1,1721,638,8.96357,-1.77081
504,386,10.0555,1.69427,0,0,0,0,0,0,0,-1,1728,638,10.0555,-1.69426
511,386,11.2172,1.534,0,0,0,0,0,0,0,-1,1735,638,11.2172,-1.53398
518,386,7.41553,1.75238,0,0,0,0,0,0,0,-1,1742,638,7.41547,-1.75238
525,386,8.82422,-1.1449,0,0,0,0,0,0,0,-1,1749,638,8.82426,1.14492
532,386,10.6432,0.617371,0,0,0,0,0,0,0,-1,1756,638,10.6432,-0.617359
539,386,9.62061,-0.393616,0,0,0,0,0,0,0,-1,1763,638,9.62059,0.393634
546,386,10.7963,-2.854,0,0,0,0,0,0,0,-1,1770,638,10.7962,2.854
553,386,14.3345,-5.14783,0,0,0,0,0,0,0,-1,1777,638,14.3345,5.14781
560,386,14.3831,-4.7168,-0.000463815,0.00177841,-0.000441134,0.00186207,-0.000547482,-1.38336,0.00145854,0.0376377,1784,638,14.383,4.71679
567,386,14.306,-4.38049,-0.00038667,0.00131392,-0.000435464,0.00141894,-0.000491692,-1.33414,0.00114559,0.019702,1791,638,14.306,4.38049
574,386,14.3434,-4.0127,-0.000228226,0.00111369,-0.000248817,0.00115834,-0.000272876,-1.39324,0.000877446,0.0135527,1798,638,14.3433,4.01268
581,386,14.2992,-3.66595,-5.97055e-05,0.00107535,-1.73907e-05,0.00107562,-5.99719e-05,-1.55548,0.000737884,0.0139624,1805,638,14.2992,3.66595
588,386,14.2957,-3.284,0.000123069,0.00118392,0.000273674,0.00125036,5.66288e-05,1.33263,0.000815351,0.0130013,1812,638,14.2956,3.28397
595,386,14.3018,-2.88562,0.000436294,0.00140881,0.000650403,0.00173463,0.000110475,1.10639,0.00112141,0.0133638,1819,638,14.3017,2.88564
602,386,14.3059,-2.49951,0.000842519,0.00178648,0.00112975,0.00253887,9.01235e-05,0.983265,0.00166336,0.0143487,1826,638,14.3059,2.49948
609,386,14.3058,-2.12115,0.000982513,0.0022597,0.00150487,0.00325586,-1.36527e-05,0.986058,0.00217514,0.0144809,1833,638,14.3058,2.12113
616,386,14.2837,-1.71893,0.00100769,0.00270953,0.0017557,0.00380965,-9.24312e-05,1.01105,0.00257113,0.0128047,1840,638,14.2837,1.71892
623,386,14.2446,-1.30164,0.00109088,0.00325554,0.00203259,0.00447601,-0.000129582,1.03005,0.00302812,0.0115345,1847,638,14.2446,1.30166
630,386,14.3263,-0.895752,0.000970796,0.00373852,0.00222551,0.00497534,-0.000266026,1.06355,0.00340903,0.0281054,1854,638,14.3263,0.895733
637,386,14.4742,-0.489319,0,0,0,0,0,0,0,-1,1861,638,14.4742,0.489303
644,386,11.6521,0.723328,0,0,0,0,0,0,0,-1,1868,638,11.6521,-0.723355
651,386,9.3866,1.31097,0,0,0,0,0,0,0,-1,1875,638,9.3866,-1.31095
658,386,12.0731,-0.00415039,0,0,0,0,0,0,0,-1,1882,638,12.0731,0.00412803
665,386,6.33167,1.78601,0,0,0,0,0,0,0,-1,1889,638,6.33171,-1.78601
672,386,7.23352,2.14435,0,0,0,0,0,0,0,-1,1896,638,7.23353,-2.14433
679,386,8.07764,2.57104,0,0,0,0,0,0,0,-1,1903,638,8.07758,-2.57103
686,386,0,0,0,0,0,0,0,0,0,-1,1910,638,0,0
693,386,0,0,0,0,0,0,0,0,0,-1,1917,638,0,0
700,386,0,0,0,0,0,0,0,0,0,-1,1924,638,0,0
707,386,0,0,0,0,0,0,0,0,0,-1,1931,638,0,0
714,386,0,0,0,0,0,0,0,0,0,-1,1938,638,0,0
721,386,0,0,0,0,0,0,0,0,0,-1,1945,638,0,0
728,386,0,0,0,0,0,0,0,0,0,-1,1952,638,0,0
735,386,0,0,0,0,0,0,0,0,0,-1,1959,638,0,0
742,386,0,0,0,0,0,0,0,0,0,-1,1966,638,0,0
749,386,0,0,0,0,0,0,0,0,0,-1,1973,638,0,0
756,386,0,0,0,0,0,0,0,0,0,-1,1980,638,0,0
763,386,0,0,0,0,0,0,0,0,0,-1,1987,638,0,0
770,386,0,0,0,0,0,0,0,0,0,-1,1994,638,0,0
777,386,0,0,0,0,0,0,0,0,0,-1,2001,638,0,0
784,386,0,0,0,0,0,0,0,0,0,-1,2008,638,0,0
791,386,0,0,0,0,0,0,0,0,0,-1,2015,638,0,0
798,386,0,0,0,0,0,0,0,0,0,-1,2022,638,0,0
805,386,0,0,0,0,0,0,0,0,0,-1,2029,638,0,0
812,386,0,0,0,0,0,0,0,0,0,-1,2036,638,0,0
-700,379,0,0,0,0,0,0,0,0,0,-1,524,645,0,0
-693,379,0,0,0,0,0,0,0,0,0,-1,531,645,0,0
-686,379,0,0,0,0,0,0,0,0,0,-1,538,645,0,0
-679,379,0,0,0,0,0,0,0,0,0,-1,545,645,0,0
-672,379,0,0,0,0,0,0,0,0,0,-1,552,645,0,0
-665,379,0,0,0,0,0,0,0,0,0,-1,559,645,0,0
-658,379,0,0,0,0,0,0,0,0,0,-1,566,645,0,0
-651,379,0,0,0,0,0,0,0,0,0,-1,573,645,0,0
-644,379,0,0,0,0,0,0,0,0,0,-1,580,645,0,0
-637,379,0,0,0,0,0,0,0,0,0,-1,587,645,0,0
-630,379,0,0,0,0,0,0,0,0,0,-1,594,645,0,0
-623,379,0,0,0,0,0,0,0,0,0,-1,601,645,0,0
-616,379,0,0,0,0,0,0,0,0,0,-1,608,645,0,0
-609,379,0,0,0,0,0,0,0,0,0,-1,615,645,0,0
-602,379,0,0,0,0,0,0,0,0,0,-1,622,645,0,0
-595,379,0,0,0,0,0,0,0,0,0,-1,629,645,0,0
-588,379,0,0,0,0,0,0,0,0,0,-1,636,645,0,0
-581,379,0,0,0,0,0,0,0,0,0,-1,643,645,0,0
-574,379,0,0,0,0,0,0,0,0,0,-1,650,645,0,0
-567,379,-8.78058,0.59668,0,0,0,0,0,0,0,-1,657,645,-8.7806,-0.596692
-560,379,-9.53485,-0.211304,0,0,0,0,0,0,0,-1,664,645,-9.53487,0.211282
-553,379,-5.17108,-4.53119,0,0,0,0,0,0,0,-1,671,645,-5.17106,4.53117
-546,379,-6.23053,-4.92102,0,0,0,0,0,0,0,-1,678,645,-6.23054,4.92105
-539,379,-0.71698,-2.19427,0,0,0,0,0,0,0,-1,685,645,-0.716959,2.19427
-532,379,-7.69611,0.217224,0,0,0,0,0,0,0,-1,692,645,-7.69614,-0.217204
-525,379,-7.09833,-1.13043,0,0,0,0,0,0,0,-1,699,645,-7.0983,1.13041
-518,379,-6.95551,-1.86957,0,0,0,0,0,0,0,-1,706,645,-6.95548,1.86957
-511,379,-6.9259,-2.44025,0.00825666,0.00869875,-0.0101127,0.0185928,-0.00163741,-0.796326,0.0129755,0.0378258,713,645,-6.92592,2.44028
-504,379,-7.0722,-2.81189,0.00478593,0.00707114,-0.00681977,0.0128434,-0.000986291,-0.868399,0.00890922,0.0200783,720,645,-7.07222,2.81191
-497,379,-7.15118,-3.14246,0.00198769,0.00551013,-0.00408277,0.00819536,-0.000697537,-0.989029,0.00571031,0.0109756,727,645,-7.15121,3.14246
-490,379,-7.14191,-3.51666,0.00141768,0.00382426,-0.00272429,0.00559917,-0.000357229,-0.993359,0.00385738,0.0110239,734,645,-7.14188,3.51666
-483,379,-7.14465,-3.89001,0.00138419,0.00270587,-0.00201181,0.0041626,-7.25326e-05,-0.944087,0.00279956,0.012692,741,645,-7.14462,3.89001
-476,379,-7.14136,-4.2276,0.00149844,0.00160466,-0.00145062,0.00300314,9.99642e-05,-0.803696,0.00196962,0.0129054,748,645,-7.14135,4.22762
-469,379,-7.15363,-4.58118,0.00170647,0.00136761,-0.00139012,0.00293744,0.000136631,-0.724756,0.00191438,0.0119157,755,645,-7.15359,4.58118
-462,379,-7.16394,-4.97577,0.00184825,0.00118534,-0.00149118,0.00304437,-1.07853e-05,-0.676038,0.00203318,0.00948946,762,645,-7.16395,4.97579
-455,379,-7.1665,-5.33282,0.00168973,0.000929129,-0.00130654,0.00267019,-5.13301e-05,-0.643774,0.00179748,0.00984107,769,645,-7.16649,5.33285
-448,379,-7.17352,-5.6756,0.00140688,0.000499218,-0.000950782,0.00200659,-0.000100493,-0.562727,0.00137245,0.0118979,776,645,-7.17351,5.67561
-441,379,-7.16687,-6.07349,0.000746266,-0.000228159,-0.000290331,0.000826211,-0.000308104,-0.268701,0.000677286,0.0188824,783,645,-7.1669,6.07349
-434,379,-7.07629,-6.60449,0,0,0,0,0,0,0,-1,790,645,-7.07632,6.60452
-427,379,-4.16113,-4.13452,0,0,0,0,0,0,0,-1,797,645,-4.16116,4.1345
-420,379,-4.63953,-3.46869,0,0,0,0,0,0,0,-1,804,645,-4.63953,3.46872
-413,379,-4.62543,-3.7912,0,0,0,0,0,0,0,-1,811,645,-4.62541,3.79123
-406,379,-4.64063,-4.38489,0,0,0,0,0,0,0,-1,818,645,-4.64065,4.3849
-399,379,-2.93536,-1.40118,0,0,0,0,0,0,0,-1,825,645,-2.93534,1.40119
-392,379,-4.16711,-0.466003,0,0,0,0,0,0,0,-1,832,645,-4.16714,0.465992
-385,379,-3.51862,0.441101,0,0,0,0,0,0,0,-1,839,645,-3.51859,-0.441072
-378,379,-5.3504,0.212219,0,0,0,0,0,0,0,-1,846,645,-5.35038,-0.212241
-371,379,-4.32092,-0.186707,0,0,0,0,0,0,0,-1,853,645,-4.3209,0.186707
-364,379,-3.40887,-0.549805,0,0,0,0,0,0,0,-1,860,645,-3.4089,0.549802
-357,379,0,0,0,0,0,0,0,0,0,-1,867,645,0,0
-350,379,0,0,0,0,0,0,0,0,0,-1,874,645,0,0
-343,379,0,0,0,0,0,0,0,0,0,-1,881,645,0,0
-336,379,0,0,0,0,0,0,0,0,0,-1,888,645,0,0
-329,379,0,0,0,0,0,0,0,0,0,-1,895,645,0,0
-322,379,0,0,0,0,0,0,0,0,0,-1,902,645,0,0
-315,379,0,0,0,0,0,0,0,0,0,-1,909,645,0,0
-308,379,0,0,0,0,0,0,0,0,0,-1,916,645,0,0
-301,379,0,0,0,0,0,0,0,0,0,-1,923,645,0,0
-294,379,0,0,0,0,0,0,0,0,0,-1,930,645,0,0
-287,379,0,0,0,0,0,0,0,0,0,-1,937,645,0,0
-280,379,0,0,0,0,0,0,0,0,0,-1,944,645,0,0
-273,379,0,0,0,0,0,0,0,0,0,-1,951,645,0,0
-266,379,0,0,0,0,0,0,0,0,0,-1,958,645,0,0
-259,379,0,0,0,0,0,0,0,0,0,-1,965,645,0,0
-252,379,0,0,0,0,0,0,0,0,0,-1,972,645,0,0
-245,379,0,0,0,0,0,0,0,0,0,-1,979,645,0,0
-238,379,0,0,0,0,0,0,0,0,0,-1,986,645,0,0
-231,379,0,0,0,0,0,0,0,0,0,-1,993,645,0,0
-224,379,0,0,0,0,0,0,0,0,0,-1,1000,645,0,0
-217,379,0,0,0,0,0,0,0,0,0,-1,1007,645,0,0
-210,379,0,0,0,0,0,0,0,0,0,-1,1014,645,0,0
-203,379,0,0,0,0,0,0,0,0,0,-1,1021,645,0,0
-196,379,0,0,0,0,0,0,0,0,0,-1,1028,645,0,0
-189,379,0,0,0,0,0,0,0,0,0,-1,1035,645,0,0
-182,379,0,0,0,0,0,0,0,0,0,-1,1042,645,0,0
-175,379,0,0,0,0,0,0,0,0,0,-1,1049,645,0,0
-168,379,0,0,0,0,0,0,0,0,0,-1,1056,645,0,0
-161,379,0,0,0,0,0,0,0,0,0,-1,1063,645,0,0
-154,379,0,0,0,0,0,0,0,0,0,-1,1070,645,0,0
-147,379,0,0,0,0,0,0,0,0,0,-1,1077,645,0,0
-140,379,0,0,0,0,0,0,0,0,0,-1,1084,645,0,0
-133,379,0,0,0,0,0,0,0,0,0,-1,1091,645,0,0
-126,379,0,0,0,0,0,0,0,0,0,-1,1098,645,0,0
-119,379,0,0,0,0,0,0,0,0,0,-1,1105,645,0,0
-112,379,0,0,0,0,0,0,0,0,0,-1,1112,645,0,0
-105,379,0,0,0,0,0,0,0,0,0,-1,1119,645,0,0
-98,379,0,0,0,0,0,0,0,0,0,-1,1126,645,0,0
-91,379,0,0,0,0,0,0,0,0,0,-1,1133,645,0,0
-84,379,0,0,0,0,0,0,0,0,0,-1,1140,645,0,0
-77,379,0,0,0,0,0,0,0,0,0,-1,1147,645,0,0
-70,379,0,0,0,0,0,0,0,0,0,-1,1154,645,0,0
-63,379,0,0,0,0,0,0,0,0,0,-1,1161,645,0,0
-56,379,0,0,0,0,0,0,0,0,0,-1,1168,645,0,0
-49,379,0,0,0,0,0,0,0,0,0,-1,1175,645,0,0
-42,379,0,0,0,0,0,0,0,0,0,-1,1182,645,0,0
-35,379,0,0,0,0,0,0,0,0,0,-1,1189,645,0,0
-28,379,0,0,0,0,0,0,0,0,0,-1,1196,645,0,0
-21,379,0,0,0,0,0,0,0,0,0,-1,1203,645,0,0
-14,379,0,0,0,0,0,0,0,0,0,-1,1210,645,0,0
-7,379,0,0,0,0,0,0,0,0,0,-1,1217,645,0,0
0,379,0,0,0,0,0,0,0,0,0,-1,1224,645,0,0
7,379,0,0,0,0,0,0,0,0,0,-1,1231,645,0,0
14,379,0,0,0,0,0,0,0,0,0,-1,1238,645,0,0
21,379,0,0,0,0,0,0,0,0,0,-1,1245,645,0,0
28,379,0,0,0,0,0,0,0,0,0,-1,1252,645,0,0
35,379,0,0,0,0,0,0,0,0,0,-1,1259,645,0,0
42,379,0,0,0,0,0,0,0,0,0,-1,1266,645,0,0
49,379,0,0,0,0,0,0,0,0,0,-1,1273,645,0,0
56,379,0,0,0,0,0,0,0,0,0,-1,1280,645,0,0
63,379,0,0,0,0,0,0,0,0,0,-1,1287,645,0,0
70,379,0,0,0,0,0,0,0,0,0,-1,1294,645,0,0
77,379,0,0,0,0,0,0,0,0,0,-1,1301,645,0,0
84,379,0,0,0,0,0,0,0,0,0,-1,1308,645,0,0
91,379,0,0,0,0,0,0,0,0,0,-1,1315,645,0,0
98,379,0,0,0,0,0,0,0,0,0,-1,1322,645,0,0
105,379,0,0,0,0,0,0,0,0,0,-1,1329,645,0,0
112,379,0,0,0,0,0,0,0,0,0,-1,1336,645,0,0
119,379,0,0,0,0,0,0,0,0,0,-1,1343,645,0,0
126,379,0,0,0,0,0,0,0,0,0,-1,1350,645,0,0
133,379,0,0,0,0,0,0,0,0,0,-1,1357,645,0,0
140,379,0,0,0,0,0,0,0,0,0,-1,1364,645,0,0
147,379,0,0,0,0,0,0,0,0,0,-1,1371,645,0,0
154,379,0,0,0,0,0,0,0,0,0,-1,1378,645,0,0
161,379,0,0,0,0,0,0,0,0,0,-1,1385,645,0,0
168,379,0,0,0,0,0,0,0,0,0,-1,1392,645,0,0
175,379,0,0,0,0,0,0,0,0,0,-1,1399,645,0,0
182,379,0,0,0,0,0,0,0,0,0,-1,1406,645,0,0
189,379,0,0,0,0,0,0,0,0,0,-1,1413,645,0,0
196,379,0,0,0,0,0,0,0,0,0,-1,1420,645,0,0
203,379,0,0,0,0,0,0,0,0,0,-1,1427,645,0,0
210,379,0,0,0,0,0,0,0,0,0,-1,1434,645,0,0
217,379,0,0,0,0,0,0,0,0,0,-1,1441,645,0,0
224,379,0,0,0,0,0,0,0,0,0,-1,1448,645,0,0
231,379,0,0,0,0,0,0,0,0,0,-1,1455,645,0,0
238,379,0,0,0,0,0,0,0,0,0,-1,1462,645,0,0
245,379,0,0,0,0,0,0,0,0,0,-1,1469,645,0,0
252,379,0,0,0,0,0,0,0,0,0,-1,1476,645,0,0
259,379,0,0,0,0,0,0,0,0,0,-1,1483,645,0,0
266,379,0,0,0,0,0,0,0,0,0,-1,1490,645,0,0
273,379,0,0,0,0,0,0,0,0,0,-1,1497,645,0,0
280,379,0,0,0,0,0,0,0,0,0,-1,1504,645,0,0
287,379,0,0,0,0,0,0,0,0,0,-1,1511,645,0,0
294,379,0,0,0,0,0,0,0,0,0,-1,1518,645,0,0
301,379,0,0,0,0,0,0,0,0,0,-1,1525,645,0,0
308,379,0,0,0,0,0,0,0,0,0,-1,1532,645,0,0
315,379,0,0,0,0,0,0,0,0,0,-1,1539,645,0,0
322,379,0,0,0,0,0,0,0,0,0,-1,1546,645,0,0
329,379,0,0,0,0,0,0,0,0,0,-1,1553,645,0,0
336,379,0,0,0,0,0,0,0,0,0,-1,1560,645,0,0
343,379,0,0,0,0,0,0,0,0,0,-1,1567,645,0,0
350,379,0,0,0,0,0,0,0,0,0,-1,1574,645,0,0
357,379,0,0,0,0,0,0,0,0,0,-1,1581,645,0,0
364,379,0,0,0,0,0,0,0,0,0,-1,1588,645,0,0
371,379,0,0,0,0,0,0,0,0,0,-1,1595,645,0,0
378,379,0,0,0,0,0,0,0,0,0,-1,1602,645,0,0
385,379,0,0,0,0,0,0,0,0,0,-1,1609,645,0,0
392,379,0,0,0,0,0,0,0,0,0,-1,1616,645,0,0
399,379,0,0,0,0,0,0,0,0,0,-1,1623,645,0,0
406,379,0,0,0,0,0,0,0,0,0,-1,1630,645,0,0
413,379,0,0,0,0,0,0,0,0,0,-1,1637,645,0,0
420,379,0,0,0,0,0,0,0,0,0,-1,1644,645,0,0
427,379,0,0,0,0,0,0,0,0,0,-1,1651,645,0,0
434,379,0,0,0,0,0,0,0,0,0,-1,1658,645,0,0
441,379,0,0,0,0,0,0,0,0,0,-1,1665,645,0,0
448,379,0,0,0,0,0,0,0,0,0,-1,1672,645,0,0
455,379,0,0,0,0,0,0,0,0,0,-1,1679,645,0,0
462,379,0,0,0,0,0,0,0,0,0,-1,1686,645,0,0
469,379,0,0,0,0,0,0,0,0,0,-1,1693,645,0,0
476,379,11.1787,0.830383,0,0,0,0,0,0,0,-1,1700,645,11.1787,-0.830365
483,379,7.4231,1.54321,0,0,0,0,0,0,0,-1,1707,645,7.42314,-1.54324
490,379,8.52881,1.56677,0,0,0,0,0,0,0,-1,1714,645,8.52878,-1.56677
497,379,9.63599,1.49573,0,0,0,0,0,0,0,-1,1721,645,9.63604,-1.4957
504,379,10.0833,1.35229,0,0,0,0,0,0,0,-1,1728,645,10.0832,-1.35227
511,379,8.14343,1.59912,0,0,0,0,0,0,0,-1,1735,645,8.14347,-1.59912
518,379,12.7955,-0.324097,0,0,0,0,0,0,0,-1,1742,645,12.7955,0.324101
525,379,6.03711,1.10352,0,0,0,0,0,0,0,-1,1749,645,6.03711,-1.10351
532,379,8.70947,0.887817,0,0,0,0,0,0,0,-1,1756,645,8.70953,-0.887808
539,379,9.87097,0.111389,0,0,0,0,0,0,0,-1,1763,645,9.87095,-0.111395
546,379,8.42383,-0.730652,0,0,0,0,0,0,0,-1,1770,645,8.42378,0.730638
553,379,15.1119,-5.14856,0,0,0,0,0,0,0,-1,1777,645,15.112,5.14855
560,379,14.9114,-4.73285,-0.00116727,0.0022762,-0.000683764,0.002407,-0.00129808,-1.38178,0.00217083,0.0354621,1784,645,14.9113,4.73287
567,379,14.6351,-4.37701,-0.000820573,0.00170094,-0.000594994,0.00183429,-0.00095392,-1.35032,0.0016363,0.0209219,1791,645,14.6352,4.37703
574,379,14.7317,-3.99115,-0.00047968,0.00139099,-0.000342794,0.00145182,-0.000540517,-1.39515,0.00118971,0.0124005,1798,645,14.7317,3.99117
581,379,14.7107,-3.63947,-0.000170791,0.00126799,-7.41412e-05,0.0012718,-0.000174602,-1.51945,0.00091166,0.0142597,1805,645,14.7107,3.63948
588,379,14.6985,-3.25171,0.000117006,0.00125852,0.00021511,0.00129771,7.78157e-05,1.39059,0.000840405,0.0165651,1812,645,14.6985,3.25169
595,379,14.666,-2.85693,0.000476178,0.00135482,0.000539353,0.00161113,0.000219867,1.12717,0.00100882,0.0143062,1819,645,14.6661,2.85691
602,379,14.6741,-2.4906,0.000895417,0.00159711,0.000948362,0.00225744,0.000235084,0.962566,0.00143304,0.0142124,1826,645,14.6741,2.49061
609,379,14.6527,-2.13861,0.0010024,0.00194934,0.00123859,0.00280187,0.000149869,0.967959,0.00182002,0.0142911,1833,645,14.6527,2.13858
616,379,14.6379,-1.73846,0.00100827,0.00224276,0.00140083,0.00315631,9.47264e-05,0.992914,0.00207335,0.012232,1840,645,14.638,1.73848
623,379,14.6466,-1.29962,0.000941929,0.00258747,0.00152862,0.00350069,2.87152e-05,1.03228,0.00232428,0.0124022,1847,645,14.6466,1.29959
630,379,14.6432,-0.924927,0.000546487,0.00287538,0.00156528,0.00366184,-0.000239971,1.1052,0.00252502,0.0137668,1854,645,14.6432,0.924899
637,379,14.6545,-0.484131,-0.000208697,0.003243,0.00144807,0.00377003,-0.000735727,1.22175,0.00279111,0.0264804,1861,645,14.6545,0.484125
644,379,14.7661,0.0170898,0,0,0,0,0,0,0,-1,1868,645,14.7661,-0.0171155
651,379,12.9515,0.220825,0,0,0,0,0,0,0,-1,1875,645,12.9515,-0.220814
658,379,13.7498,0.37439,0,0,0,0,0,0,0,-1,1882,645,13.7498,-0.374371
665,379,11.9719,0.353333,0,0,0,0,0,0,0,-1,1889,645,11.9719,-0.353321
672,379,7.57605,2.15326,0,0,0,0,0,0,0,-1,1896,645,7.57599,-2.15326
679,379,8.55078,2.50409,0,0,0,0,0,0,0,-1,1903,645,8.55073,-2.50406
686,379,0,0,0,0,0,0,0,0,0,-1,1910,645,0,0
693,379,0,0,0,0,0,0,0,0,0,-1,1917,645,0,0
700,379,0,0,0,0,0,0,0,0,0,-1,1924,645,0,0
707,379,0,0,0,0,0,0,0,0,0,-1,1931,645,0,0
714,379,0,0,0,0,0,0,0,0,0,-1,1938,645,0,0
721,379,0,0,0,0,0,0,0,0,0,-1,1945,645,0,0
728,379,0,0,0,0,0,0,0,0,0,-1,1952,645,0,0
735,379,0,0,0,0,0,0,0,0,0,-1,1959,645,0,0
742,379,0,0,0,0,0,0,0,0,0,-1,1966,645,0,0
749,379,0,0,0,0,0,0,0,0,0,-1,1973,645,0,0
756,379,0,0,0,0,0,0,0,0,0,-1,1980,645,0,0
763,379,0,0,0,0,0,0,0,0,0,-1,1987,645,0,0
770,379,0,0,0,0,0,0,0,0,0,-1,1994,645,0,0
777,379,0,0,0,0,0,0,0,0,0,-1,2001,645,0,0
784,379,0,0,0,0,0,0,0,0,0,-1,2008,645,0,0
791,379,0,0,0,0,0,0,0,0,0,-1,2015,645,0,0
798,379,0,0,0,0,0,0,0,0,0,-1,2022,645,0,0
805,379,0,0,0,0,0,0,0,0,0,-1,2029,645,0,0
812,379,0,0,0,0,0,0,0,0,0,-1,2036,645,0,0
-700,372,0,0,0,0,0,0,0,0,0,-1,524,652,0,0
-693,372,0,0,0,0,0,0,0,0,0,-1,531,652,0,0
-686,372,0,0,0,0,0,0,0,0,0,-1,538,652,0,0
-679,372,0,0,0,0,0,0,0,0,0,-1,545,652,0,0
-672,372,0,0,0,0,0,0,0,0,0,-1,552,652,0,0
-665,372,0,0,0,0,0,0,0,0,0,-1,559,652,0,0
-658,372,0,0,0,0,0,0,0,0,0,-1,566,652,0,0
-651,372,0,0,0,0,0,0,0,0,0,-1,573,652,0,0
-644,372,0,0,0,0,0,0,0,0,0,-1,580,652,0,0
-637,372,0,0,0,0,0,0,0,0,0,-1,587,652,0,0
-630,372,0,0,0,0,0,0,0,0,0,-1,594,652,0,0
-623,372,0,0,0,0,0,0,0,0,0,-1,601,652,0,0
-616,372,0,0,0,0,0,0,0,0,0,-1,608,652,0,0
-609,372,0,0,0,0,0,0,0,0,0,-1,615,652,0,0
-602,372,0,0,0,0,0,0,0,0,0,-1,622,652,0,0
-595,372,0,0,0,0,0,0,0,0,0,-1,629,652,0,0
-588,372,0,0,0,0,0,0,0,0,0,-1,636,652,0,0
-581,372,0,0,0,0,0,0,0,0,0,-1,643,652,0,0
-574,372,0,0,0,0,0,0,0,0,0,-1,650,652,0,0
-567,372,-7.93744,0.73407,0,0,0,0,0,0,0,-1,657,652,-7.93741,-0.734076
-560,372,-8.78552,-0.158203,0,0,0,0,0,0,0,-1,664,652,-8.78552,0.158216
-553,372,-7.95551,1.61694,0,0,0,0,0,0,0,-1,671,652,-7.95552,-1.61697
-546,372,-4.2403,-3.75372,0,0,0,0,0,0,0,-1,678,652,-4.24028,3.75369
-539,372,-7.92285,-0.0650024,0,0,0,0,0,0,0,-1,685,652,-7.92287,0.0649772
-532,372,-8.59589,-0.419556,0,0,0,0,0,0,0,-1,692,652,-8.59591,0.419539
-525,372,-8.03674,-1.36804,0,0,0,0,0,0,0,-1,699,652,-8.03676,1.36806
-518,372,-7.48547,-1.98169,0,0,0,0,0,0,0,-1,706,652,-7.48546,1.98169
-511,372,-7.47839,-2.4306,0.00704785,0.00734382,-0.0088314,0.0160285,-0.0016368,-0.793776,0.0112709,0.023746,713,652,-7.47841,2.43063
-504,372,-7.51208,-2.75916,0.00381882,0.00584828,-0.00580222,0.0107238,-0.00105673,-0.871966,0.00752624,0.012907,720,652,-7.51206,2.75913
-497,372,-7.49902,-3.14288,0.00120537,0.00438357,-0.00326344,0.00642425,-0.000835306,-1.01197,0.00458669,0.011232,727,652,-7.499,3.14288
-490,372,-7.495,-3.50903,0.000699868,0.00289998,-0.00203217,0.00411073,-0.000510885,-1.03348,0.00292569,0.012096,734,652,-7.49501,3.50905
-483,372,-7.49951,-3.87158,0.000806626,0.0019646,-0.00143146,0.00292974,-0.000158507,-0.977577,0.00200808,0.012203,741,652,-7.49948,3.87156
-476,372,-7.50055,-4.21185,0.00115035,0.00112097,-0.0010724,0.00220816,6.31564e-05,-0.778549,0.00145152,0.013516,748,652,-7.50052,4.21187
-469,372,-7.5199,-4.55872,0.0016571,0.00113878,-0.00127007,0.00269417,0.000101698,-0.684754,0.00176319,0.011194,755,652,-7.51987,4.55869
-462,372,-7.52325,-4.93835,0.00214614,0.00124206,-0.00165359,0.00340836,-2.01591e-05,-0.651973,0.00227899,0.0100514,762,652,-7.52327,4.93834
-455,372,-7.52802,-5.2998,0.0023447,0.00127299,-0.0017475,0.00363666,-1.89706e-05,-0.63663,0.00243079,0.010053,769,652,-7.52804,5.29979
-448,372,-7.51154,-5.659,0.00243266,0.00118229,-0.00171526,0.00363312,-1.81638e-05,-0.610639,0.00242816,0.0116027,776,652,-7.51156,5.65897
-441,372,-7.39307,-6.20306,0.00220495,0.000711585,-0.00136013,0.00300988,-9.33438e-05,-0.534369,0.00203841,0.0433183,783,652,-7.39304,6.20305
-434,372,-7.37695,-6.85394,0,0,0,0,0,0,0,-1,790,652,-7.37696,6.85394
-427,372,-4.54248,-3.56268,0,0,0,0,0,0,0,-1,797,652,-4.54247,3.56266
-420,372,-4.66168,-2.93597,0,0,0,0,0,0,0,-1,804,652,-4.66166,2.93599
-413,372,-4.74762,-3.29541,0,0,0,0,0,0,0,-1,811,652,-4.74763,3.29542
-406,372,-0.885437,-0.583923,0,0,0,0,0,0,0,-1,818,652,-0.885437,0.5839
-399,372,-3.97357,-0.825012,0,0,0,0,0,0,0,-1,825,652,-3.97359,0.825037
-392,372,-7.64337,0.173035,0,0,0,0,0,0,0,-1,832,652,-7.64337,-0.173019
-385,372,-6.48871,-0.0271606,0,0,0,0,0,0,0,-1,839,652,-6.48874,0.0271353
-378,372,-5.33044,-0.242432,0,0,0,0,0,0,0,-1,846,652,-5.33042,0.242457
-371,372,-4.40802,-0.495667,0,0,0,0,0,0,0,-1,853,652,-4.40802,0.495661
-364,372,0,0,0,0,0,0,0,0,0,-1,860,652,0,0
-357,372,0,0,0,0,0,0,0,0,0,-1,867,652,0,0
-350,372,0,0,0,0,0,0,0,0,0,-1,874,652,0,0
-343,372,0,0,0,0,0,0,0,0,0,-1,881,652,0,0
-336,372,0,0,0,0,0,0,0,0,0,-1,888,652,0,0
-329,372,0,0,0,0,0,0,0,0,0,-1,895,652,0,0
-322,372,0,0,0,0,0,0,0,0,0,-1,902,652,0,0
-315,372,0,0,0,0,0,0,0,0,0,-1,909,652,0,0
-308,372,0,0,0,0,0,0,0,0,0,-1,916,652,0,0
-301,372,0,0,0,0,0,0,0,0,0,-1,923,652,0,0
-294,372,0,0,0,0,0,0,0,0,0,-1,930,652,0,0
-287,372,0,0,0,0,0,0,0,0,0,-1,937,652,0,0
-280,372,0,0,0,0,0,0,0,0,0,-1,944,652,0,0
-273,372,0,0,0,0,0,0,0,0,0,-1,951,652,0,0
-266,372,0,0,0,0,0,0,0,0,0,-1,958,652,0,0
-259,372,0,0,0,0,0,0,0,0,0,-1,965,652,0,0
-252,372,0,0,0,0,0,0,0,0,0,-1,972,652,0,0
-245,372,0,0,0,0,0,0,0,0,0,-1,979,652,0,0
-238,372,0,0,0,0,0,0,0,0,0,-1,986,652,0,0
-231,372,0,0,0,0,0,0,0,0,0,-1,993,652,0,0
-224,372,0,0,0,0,0,0,0,0,0,-1,1000,652,0,0
-217,372,0,0,0,0,0,0,0,0,0,-1,1007,652,0,0
-210,372,0,0,0,0,0,0,0,0,0,-1,1014,652,0,0
-203,372,0,0,0,0,0,0,0,0,0,-1,1021,652,0,0
-196,372,0,0,0,0,0,0,0,0,0,-1,1028,652,0,0
-189,372,0,0,0,0,0,0,0,0,0,-1,1035,652,0,0
-182,372,0,0,0,0,0,0,0,0,0,-1,1042,652,0,0
-175,372,0,0,0,0,0,0,0,0,0,-1,1049,652,0,0
-168,372,0,0,0,0,0,0,0,0,0,-1,1056,652,0,0
-161,372,0,0,0,0,0,0,0,0,0,-1,1063,652,0,0
-154,372,0,0,0,0,0,0,0,0,0,-1,1070,652,0,0
-147,372,0,0,0,0,0,0,0,0,0,-1,1077,652,0,0
-140,372,0,0,0,0,0,0,0,0,0,-1,1084,652,0,0
-133,372,0,0,0,0,0,0,0,0,0,-1,1091,652,0,0
-126,372,0,0,0,0,0,0,0,0,0,-1,1098,652,0,0
-119,372,0,0,0,0,0,0,0,0,0,-1,1105,652,0,0
-112,372,0,0,0,0,0,0,0,0,0,-1,1112,652,0,0
-105,372,0,0,0,0,0,0,0,0,0,-1,1119,652,0,0
-98,372,0,0,0,0,0,0,0,0,0,-1,1126,652,0,0
-91,372,0,0,0,0,0,0,0,0,0,-1,1133,652,0,0
-84,372,0,0,0,0,0,0,0,0,0,-1,1140,652,0,0
-77,372,0,0,0,0,0,0,0,0,0,-1,1147,652,0,0
-70,372,0,0,0,0,0,0,0,0,0,-1,1154,652,0,0
-63,372,0,0,0,0,0,0,0,0,0,-1,1161,652,0,0
-56,372,0,0,0,0,0,0,0,0,0,-1,1168,652,0,0
-49,372,0,0,0,0,0,0,0,0,0,-1,1175,652,0,0
-42,372,0,0,0,0,0,0,0,0,0,-1,1182,652,0,0
-35,372,0,0,0,0,0,0,0,0,0,-1,1189,652,0,0
-28,372,0,0,0,0,0,0,0,0,0,-1,1196,652,0,0
-21,372,0,0,0,0,0,0,0,0,0,-1,1203,652,0,0
-14,372,0,0,0,0,0,0,0,0,0,-1,1210,652,0,0
-7,372,0,0,0,0,0,0,0,0,0,-1,1217,652,0,0
0,372,0,0,0,0,0,0,0,0,0,-1,1224,652,0,0
7,372,0,0,0,0,0,0,0,0,0,-1,1231,652,0,0
14,372,0,0,0,0,0,0,0,0,0,-1,1238,652,0,0
21,372,0,0,0,0,0,0,0,0,0,-1,1245,652,0,0
28,372,0,0,0,0,0,0,0,0,0,-1,1252,652,0,0
35,372,0,0,0,0,0,0,0,0,0,-1,1259,652,0,0
42,372,0,0,0,0,0,0,0,0,0,-1,1266,652,0,0
49,372,0,0,0,0,0,0,0,0,0,-1,1273,652,0,0
56,372,0,0,0,0,0,0,0,0,0,-1,1280,652,0,0
63,372,0,0,0,0,0,0,0,0,0,-1,1287,652,0,0
70,372,0,0,0,0,0,0,0,0,0,-1,1294,652,0,0
77,372,0,0,0,0,0,0,0,0,0,-1,1301,652,0,0
84,372,0,0,0,0,0,0,0,0,0,-1,1308,652,0,0
91,372,0,0,0,0,0,0,0,0,0,-1,1315,652,0,0
98,372,0,0,0,0,0,0,0,0,0,-1,1322,652,0,0
105,372,0,0,0,0,0,0,0,0,0,-1,1329,652,0,0
112,372,0,0,0,0,0,0,0,0,0,-1,1336,652,0,0
119,372,0,0,0,0,0,0,0,0,0,-1,1343,652,0,0
126,372,0,0,0,0,0,0,0,0,0,-1,1350,652,0,0
133,372,0,0,0,0,0,0,0,0,0,-1,1357,652,0,0
140,372,0,0,0,0,0,0,0,0,0,-1,1364,652,0,0
147,372,0,0,0,0,0,0,0,0,0,-1,1371,652,0,0
154,372,0,0,0,0,0,0,0,0,0,-1,1378,652,0,0
161,372,0,0,0,0,0,0,0,0,0,-1,1385,652,0,0
168,372,0,0,0,0,0,0,0,0,0,-1,1392,652,0,0
175,372,0,0,0,0,0,0,0,0,0,-1,1399,652,0,0
182,372,0,0,0,0,0,0,0,0,0,-1,1406,652,0,0
189,372,0,0,0,0,0,0,0,0,0,-1,1413,652,0,0
196,372,0,0,0,0,0,0,0,0,0,-1,1420,652,0,0
203,372,0,0,0,0,0,0,0,0,0,-1,1427,652,0,0
210,372,0,0,0,0,0,0,0,0,0,-1,1434,652,0,0
217,372,0,0,0,0,0,0,0,0,0,-1,1441,652,0,0
224,372,0,0,0,0,0,0,0,0,0,-1,1448,652,0,0
231,372,0,0,0,0,0,0,0,0,0,-1,1455,652,0,0
238,372,0,0,0,0,0,0,0,0,0,-1,1462,652,0,0
245,372,0,0,0,0,0,0,0,0,0,-1,1469,652,0,0
252,372,0,0,0,0,0,0,0,0,0,-1,1476,652,0,0
259,372,0,0,0,0,0,0,0,0,0,-1,1483,652,0,0
266,372,0,0,0,0,0,0,0,0,0,-1,1490,652,0,0
273,372,0,0,0,0,0,0,0,0,0,-1,1497,652,0,0
280,372,0,0,0,0,0,0,0,0,0,-1,1504,652,0,0
287,372,0,0,0,0,0,0,0,0,0,-1,1511,652,0,0
294,372,0,0,0,0,0,0,0,0,0,-1,1518,652,0,0
301,372,0,0,0,0,0,0,0,0,0,-1,1525,652,0,0
308,372,0,0,0,0,0,0,0,0,0,-1,1532,652,0,0
315,372,0,0,0,0,0,0,0,0,0,-1,1539,652,0,0
322,372,0,0,0,0,0,0,0,0,0,-1,1546,652,0,0
329,372,0,0,0,0,0,0,0,0,0,-1,1553,652,0,0
336,372,0,0,0,0,0,0,0,0,0,-1,1560,652,0,0
343,372,0,0,0,0,0,0,0,0,0,-1,1567,652,0,0
350,372,0,0,0,0,0,0,0,0,0,-1,1574,652,0,0
357,372,0,0,0,0,0,0,0,0,0,-1,1581,652,0,0
364,372,0,0,0,0,0,0,0,0,0,-1,1588,652,0,0
371,372,0,0,0,0,0,0,0,0,0,-1,1595,652,0,0
378,372,0,0,0,0,0,0,0,0,0,-1,1602,652,0,0
385,372,0,0,0,0,0,0,0,0,0,-1,1609,652,0,0
392,372,0,0,0,0,0,0,0,0,0,-1,1616,652,0,0
399,372,0,0,0,0,0,0,0,0,0,-1,1623,652,0,0
406,372,0,0,0,0,0,0,0,0,0,-1,1630,652,0,0
413,372,0,0,0,0,0,0,0,0,0,-1,1637,652,0,0
420,372,0,0,0,0,0,0,0,0,0,-1,1644,652,0,0
427,372,0,0,0,0,0,0,0,0,0,-1,1651,652,0,0
434,372,0,0,0,0,0,0,0,0,0,-1,1658,652,0,0
441,372,0,0,0,0,0,0,0,0,0,-1,1665,652,0,0
448,372,0,0,0,0,0,0,0,0,0,-1,1672,652,0,0
455,372,0,0,0,0,0,0,0,0,0,-1,1679,652,0,0
462,372,0,0,0,0,0,0,0,0,0,-1,1686,652,0,0
469,372,0,0,0,0,0,0,0,0,0,-1,1693,652,0,0
476,372,0,0,0,0,0,0,0,0,0,-1,1700,652,0,0
483,372,8.74182,1.53125,0,0,0,0,0,0,0,-1,1707,652,8.74186,-1.53126
490,372,9.78455,1.67096,0,0,0,0,0,0,0,-1,1714,652,9.7846,-1.67093
497,372,9.97644,1.46069,0,0,0,0,0,0,0,-1,1721,652,9.97647,-1.46071
504,372,10.1216,1.28375,0,0,0,0,0,0,0,-1,1728,652,10.1216,-1.28376
511,372,11.7367,-0.0272217,0,0,0,0,0,0,0,-1,1735,652,11.7367,0.0272326
518,372,12.0657,-0.0995483,0,0,0,0,0,0,0,-1,1742,652,12.0657,0.0995285
525,372,12.3947,-0.171814,0,0,0,0,0,0,0,-1,1749,652,12.3946,0.171824
532,372,9.36597,1.72034,0,0,0,0,0,0,0,-1,1756,652,9.36597,-1.72036
539,372,7.82886,-0.0865479,0,0,0,0,0,0,0,-1,1763,652,7.82882,0.0865771
546,372,10.953,-0.187195,0,0,0,0,0,0,0,-1,1770,652,10.953,0.187181
553,372,14.1201,-4.83234,0,0,0,0,0,0,0,-1,1777,652,14.1201,4.83235
560,372,15.2814,-4.80865,0,0,0,0,0,0,0,-1,1784,652,15.2814,4.80867
567,372,15.0829,-4.40967,-0.00141628,0.00208319,-0.000843429,0.00227586,-0.00160895,-1.34621,0.00225388,0.0315997,1791,652,15.0829,4.40968
574,372,15.1384,-3.9743,-0.000855175,0.00165391,-0.000483295,0.00174378,-0.000945047,-1.38694,0.00157506,0.0207129,1798,652,15.1384,3.97429
581,372,15.115,-3.64221,-0.000381537,0.00146309,-0.000137498,0.00147328,-0.00039173,-1.4968,0.00113552,0.0164215,1805,652,15.115,3.6422
588,372,15.083,-3.24786,1.38958e-05,0.00134389,0.000164768,0.001364,-6.21262e-06,1.44936,0.000911408,0.0158889,1812,652,15.083,3.24785
595,372,15.0577,-2.8446,0.000403081,0.00131595,0.000438096,0.00149218,0.000226855,1.18835,0.000928454,0.0143067,1819,652,15.0577,2.84462
602,372,15.0681,-2.49628,0.000826172,0.00143863,0.000784347,0.00197441,0.000290393,0.971511,0.00123094,0.0138682,1826,652,15.0681,2.49631
609,372,15.0089,-2.13354,0.000938159,0.00168624,0.00102296,0.00240139,0.000223,0.960669,0.00153202,0.0141716,1833,652,15.0089,2.13355
616,372,15.0115,-1.72083,0.000959438,0.0018595,0.00113287,0.00262845,0.000190488,0.974465,0.00169238,0.0141242,1840,652,15.0114,1.7208
623,372,15.056,-1.27277,0.000808544,0.00205611,0.00116176,0.00275096,0.000113698,1.03178,0.00179727,0.0132375,1847,652,15.056,1.27275
630,372,15.0583,-0.870422,0.000253152,0.00221305,0.00108326,0.00269384,-0.000227637,1.15308,0.00187638,0.0177256,1854,652,15.0583,0.870392
637,372,15.079,-0.524414,-0.000653739,0.00234868,0.000809059,0.00255282,-0.000857876,1.32364,0.00204861,0.0218037,1861,652,15.079,0.524431
644,372,15.1204,-0.0278931,-0.00197501,0.00236556,0.000413467,0.0024046,-0.00201404,1.47667,0.00255442,0.0312467,1868,652,15.1203,0.0278665
651,372,15.3427,0.533447,0,0,0,0,0,0,0,-1,1875,652,15.3427,-0.533448
658,372,14.157,0.280273,0,0,0,0,0,0,0,-1,1882,652,14.157,-0.280264
665,372,13.421,0.714966,0,0,0,0,0,0,0,-1,1889,652,13.4211,-0.714941
672,372,9.34106,1.48444,0,0,0,0,0,0,0,-1,1896,652,9.34109,-1.48444
679,372,10.7308,2.32391,0,0,0,0,0,0,0,-1,1903,652,10.7309,-2.3239
686,372,11.6295,2.52997,0,0,0,0,0,0,0,-1,1910,652,11.6296,-2.52996
693,372,0,0,0,0,0,0,0,0,0,-1,1917,652,0,0
700,372,0,0,0,0,0,0,0,0,0,-1,1924,652,0,0
707,372,0,0,0,0,0,0,0,0,0,-1,1931,652,0,0
714,372,0,0,0,0,0,0,0,0,0,-1,1938,652,0,0
721,372,0,0,0,0,0,0,0,0,0,-1,1945,652,0,0
728,372,0,0,0,0,0,0,0,0,0,-1,1952,652,0,0
735,372,0,0,0,0,0,0,0,0,0,-1,1959,652,0,0
742,372,0,0,0,0,0,0,0,0,0,-1,1966,652,0,0
749,372,0,0,0,0,0,0,0,0,0,-1,1973,652,0,0
756,372,0,0,0,0,0,0,0,0,0,-1,1980,652,0,0
763,372,0,0,0,0,0,0,0,0,0,-1,1987,652,0,0
770,372,0,0,0,0,0,0,0,0,0,-1,1994,652,0,0
777,372,0,0,0,0,0,0,0,0,0,-1,2001,652,0,0
784,372,0,0,0,0,0,0,0,0,0,-1,2008,652,0,0
791,372,0,0,0,0,0,0,0,0,0,-1,2015,652,0,0
798,372,0,0,0,0,0,0,0,0,0,-1,2022,652,0,0
805,372,0,0,0,0,0,0,0,0,0,-1,2029,652,0,0
812,372,0,0,0,0,0,0,0,0,0,-1,2036,652,0,0
-700,365,0,0,0,0,0,0,0,0,0,-1,524,659,0,0
-693,365,0,0,0,0,0,0,0,0,0,-1,531,659,0,0
-686,365,0,0,0,0,0,0,0,0,0,-1,538,659,0,0
-679,365,0,0,0,0,0,0,0,0,0,-1,545,659,0,0
-672,365,0,0,0,0,0,0,0,0,0,-1,552,659,0,0
-665,365,0,0,0,0,0,0,0,0,0,-1,559,659,0,0
-658,365,0,0,0,0,0,0,0,0,0,-1,566,659,0,0
-651,365,0,0,0,0,0,0,0,0,0,-1,573,659,0,0
-644,365,0,0,0,0,0,0,0,0,0,-1,580,659,0,0
-637,365,0,0,0,0,0,0,0,0,0,-1,587,659,0,0
-630,365,0,0,0,0,0,0,0,0,0,-1,594,659,0,0
-623,365,0,0,0,0,0,0,0,0,0,-1,601,659,0,0
-616,365,0,0,0,0,0,0,0,0,0,-1,608,659,0,0
-609,365,0,0,0,0,0,0,0,0,0,-1,615,659,0,0
-602,365,0,0,0,0,0,0,0,0,0,-1,622,659,0,0
-595,365,0,0,0,0,0,0,0,0,0,-1,629,659,0,0
-588,365,0,0,0,0,0,0,0,0,0,-1,636,659,0,0
-581,365,0,0,0,0,0,0,0,0,0,-1,643,659,0,0
-574,365,-7.69281,1.59015,0,0,0,0,0,0,0,-1,650,659,-7.69282,-1.59018
-567,365,-8.2583,1.72638,0,0,0,0,0,0,0,-1,657,659,-8.25827,-1.72637
-560,365,-7.17767,0.275757,0,0,0,0,0,0,0,-1,664,659,-7.17768,-0.27577
-553,365,-8.91522,-0.324768,0,0,0,0,0,0,0,-1,671,659,-8.91523,0.324765
-546,365,-8.15942,-1.54419,0,0,0,0,0,0,0,-1,678,659,-8.1594,1.54417
-539,365,-8.38599,1.52936,0,0,0,0,0,0,0,-1,685,659,-8.38598,-1.52935
-532,365,-8.09192,0.53302,0,0,0,0,0,0,0,-1,692,659,-8.0919,-0.533029
-525,365,-7.61707,-1.39429,0,0,0,0,0,0,0,-1,699,659,-7.61709,1.39431
-518,365,-7.86609,-1.96387,0,0,0,0,0,0,0,-1,706,659,-7.86606,1.96387
-511,365,-7.8642,-2.39612,0.00672216,0.00639834,-0.00797935,0.0145412,-0.00142074,-0.775254,0.0102008,0.0241365,713,659,-7.86418,2.39614
-504,365,-7.86157,-2.76282,0.00377566,0.00501358,-0.00522921,0.00966033,-0.0008711,-0.844307,0.00674935,0.0114759,720,659,-7.86157,2.76282
-497,365,-7.85883,-3.13568,0.00144078,0.00363102,-0.00292617,0.00566028,-0.000588484,-0.964455,0.00398419,0.0126811,727,659,-7.85882,3.13571
-490,365,-7.8598,-3.50702,0.000961993,0.00233109,-0.0018125,0.00358401,-0.000290922,-0.965958,0.00249198,0.0139453,734,659,-7.85983,3.50703
-483,365,-7.86328,-3.86371,0.00108135,0.00155127,-0.00128882,0.00262637,6.24766e-06,-0.875562,0.00174884,0.0125905,741,659,-7.86331,3.8637
-476,365,-7.86115,-4.20691,0.00147158,0.000990443,-0.0011034,0.00236033,0.000101696,-0.678064,0.00154077,0.0139516,748,659,-7.86117,4.20694
-469,365,-7.867,-4.55981,0.00203975,0.0012014,-0.00147723,0.00315613,8.50201e-05,-0.647153,0.00207633,0.0139108,755,659,-7.86699,4.55983
-462,365,-7.88202,-4.92828,0.00259,0.00152873,-0.00201478,0.00414285,-2.41192e-05,-0.656635,0.00276997,0.0137612,762,659,-7.88204,4.92829
-455,365,-7.89185,-5.29431,0.00285031,0.00179761,-0.00227237,0.00465649,-8.57585e-06,-0.67159,0.00310719,0.0146739,769,659,-7.89187,5.29432
-448,365,-7.81415,-5.73779,0.00301525,0.00205284,-0.00248271,0.00506296,5.13368e-06,-0.689673,0.00337359,0.0268361,776,659,-7.81412,5.7378
-441,365,-7.61395,-6.26556,0,0,0,0,0,0,0,-1,783,659,-7.61398,6.26554
-434,365,-5.45056,-3.98041,0,0,0,0,0,0,0,-1,790,659,-5.45055,3.98042
-427,365,-5.05377,-4.74689,0,0,0,0,0,0,0,-1,797,659,-5.05376,4.7469
-420,365,-4.58813,-3.16376,0,0,0,0,0,0,0,-1,804,659,-4.58816,3.16374
-413,365,0.141357,0.672729,0,0,0,0,0,0,0,-1,811,659,0.141365,-0.672714
-406,365,-1.75067,-0.934448,0,0,0,0,0,0,0,-1,818,659,-1.7507,0.934424
-399,365,-4.10242,-1.25439,0,0,0,0,0,0,0,-1,825,659,-4.10244,1.25438
-392,365,-7.46545,-0.779724,0,0,0,0,0,0,0,-1,832,659,-7.46543,0.779744
-385,365,-6.27875,-0.887573,0,0,0,0,0,0,0,-1,839,659,-6.27874,0.887545
-378,365,-5.34503,-0.263306,0,0,0,0,0,0,0,-1,846,659,-5.34504,0.263275
-371,365,0,0,0,0,0,0,0,0,0,-1,853,659,0,0
-364,365,0,0,0,0,0,0,0,0,0,-1,860,659,0,0
-357,365,0,0,0,0,0,0,0,0,0,-1,867,659,0,0
-350,365,0,0,0,0,0,0,0,0,0,-1,874,659,0,0
-343,365,0,0,0,0,0,0,0,0,0,-1,881,659,0,0
-336,365,0,0,0,0,0,0,0,0,0,-1,888,659,0,0
-329,365,0,0,0,0,0,0,0,0,0,-1,895,659,0,0
-322,365,0,0,0,0,0,0,0,0,0,-1,902,659,0,0
-315,365,0,0,0,0,0,0,0,0,0,-1,909,659,0,0
-308,365,0,0,0,0,0,0,0,0,0,-1,916,659,0,0
-301,365,0,0,0,0,0,0,0,0,0,-1,923,659,0,0
-294,365,0,0,0,0,0,0,0,0,0,-1,930,659,0,0
-287,365,0,0,0,0,0,0,0,0,0,-1,937,659,0,0
-280,365,0,0,0,0,0,0,0,0,0,-1,944,659,0,0
-273,365,0,0,0,0,0,0,0,0,0,-1,951,659,0,0
-266,365,0,0,0,0,0,0,0,0,0,-1,958,659,0,0
-259,365,0,0,0,0,0,0,0,0,0,-1,965,659,0,0
-252,365,0,0,0,0,0,0,0,0,0,-1,972,659,0,0
-245,365,0,0,0,0,0,0,0,0,0,-1,979,659,0,0
-238,365,0,0,0,0,0,0,0,0,0,-1,986,659,0,0
-231,365,0,0,0,0,0,0,0,0,0,-1,993,659,0,0
-224,365,0,0,0,0,0,0,0,0,0,-1,1000,659,0,0
-217,365,0,0,0,0,0,0,0,0,0,-1,1007,659,0,0
-210,365,0,0,0,0,0,0,0,0,0,-1,1014,659,0,0
-203,365,0,0,0,0,0,0,0,0,0,-1,1021,659,0,0
-196,365,0,0,0,0,0,0,0,0,0,-1,1028,659,0,0
-189,365,0,0,0,0,0,0,0,0,0,-1,1035,659,0,0
-182,365,0,0,0,0,0,0,0,0,0,-1,1042,659,0,0
-175,365,0,0,0,0,0,0,0,0,0,-1,1049,659,0,0
-168,365,0,0,0,0,0,0,0,0,0,-1,1056,659,0,0
-161,365,0,0,0,0,0,0,0,0,0,-1,1063,659,0,0
-154,365,0,0,0,0,0,0,0,0,0,-1,1070,659,0,0
-147,365,0,0,0,0,0,0,0,0,0,-1,1077,659,0,0
-140,365,0,0,0,0,0,0,0,0,0,-1,1084,659,0,0
-133,365,0,0,0,0,0,0,0,0,0,-1,1091,659,0,0
-126,365,0,0,0,0,0,0,0,0,0,-1,1098,659,0,0
-119,365,0,0,0,0,0,0,0,0,0,-1,1105,659,0,0
-112,365,0,0,0,0,0,0,0,0,0,-1,1112,659,0,0
-105,365,0,0,0,0,0,0,0,0,0,-1,1119,659,0,0
-98,365,0,0,0,0,0,0,0,0,0,-1,1126,659,0,0
-91,365,0,0,0,0,0,0,0,0,0,-1,1133,659,0,0
-84,365,0,0,0,0,0,0,0,0,0,-1,1140,659,0,0
-77,365,0,0,0,0,0,0,0,0,0,-1,1147,659,0,0
-70,365,0,0,0,0,0,0,0,0,0,-1,1154,659,0,0
-63,365,0,0,0,0,0,0,0,0,0,-1,1161,659,0,0
-56,365,0,0,0,0,0,0,0,0,0,-1,1168,659,0,0
-49,365,0,0,0,0,0,0,0,0,0,-1,1175,659,0,0
-42,365,0,0,0,0,0,0,0,0,0,-1,1182,659,0,0
-35,365,0,0,0,0,0,0,0,0,0,-1,1189,659,0,0
-28,365,0,0,0,0,0,0,0,0,0,-1,1196,659,0,0
-21,365,0,0,0,0,0,0,0,0,0,-1,1203,659,0,0
-14,365,0,0,0,0,0,0,0,0,0,-1,1210,659,0,0
-7,365,0,0,0,0,0,0,0,0,0,-1,1217,659,0,0
0,365,0,0,0,0,0,0,0,0,0,-1,1224,659,0,0
7,365,0,0,0,0,0,0,0,0,0,-1,1231,659,0,0
14,365,0,0,0,0,0,0,0,0,0,-1,1238,659,0,0
21,365,0,0,0,0,0,0,0,0,0,-1,1245,659,0,0
28,365,0,0,0,0,0,0,0,0,0,-1,1252,659,0,0
35,365,0,0,0,0,0,0,0,0,0,-1,1259,659,0,0
42,365,0,0,0,0,0,0,0,0,0,-1,1266,659,0,0
49,365,0,0,0,0,0,0,0,0,0,-1,1273,659,0,0
56,365,0,0,0,0,0,0,0,0,0,-1,1280,659,0,0
63,365,0,0,0,0,0,0,0,0,0,-1,1287,659,0,0
70,365,0,0,0,0,0,0,0,0,0,-1,1294,659,0,0
77,365,0,0,0,0,0,0,0,0,0,-1,1301,659,0,0
84,365,0,0,0,0,0,0,0,0,0,-1,1308,659,0,0
91,365,0,0,0,0,0,0,0,0,0,-1,1315,659,0,0
98,365,0,0,0,0,0,0,0,0,0,-1,1322,659,0,0
105,365,0,0,0,0,0,0,0,0,0,-1,1329,659,0,0
112,365,0,0,0,0,0,0,0,0,0,-1,1336,659,0,0
119,365,0,0,0,0,0,0,0,0,0,-1,1343,659,0,0
126,365,0,0,0,0,0,0,0,0,0,-1,1350,659,0,0
133,365,0,0,0,0,0,0,0,0,0,-1,1357,659,0,0
140,365,0,0,0,0,0,0,0,0,0,-1,1364,659,0,0
147,365,0,0,0,0,0,0,0,0,0,-1,1371,659,0,0
154,365,0,0,0,0,0,0,0,0,0,-1,1378,659,0,0
161,365,0,0,0,0,0,0,0,0,0,-1,1385,659,0,0
168,365,0,0,0,0,0,0,0,0,0,-1,1392,659,0,0
175,365,0,0,0,0,0,0,0,0,0,-1,1399,659,0,0
182,365,0,0,0,0,0,0,0,0,0,-1,1406,659,0,0
189,365,0,0,0,0,0,0,0,0,0,-1,1413,659,0,0
196,365,0,0,0,0,0,0,0,0,0,-1,1420,659,0,0
203,365,0,0,0,0,0,0,0,0,0,-1,1427,659,0,0
210,365,0,0,0,0,0,0,0,0,0,-1,1434,659,0,0
217,365,0,0,0,0,0,0,0,0,0,-1,1441,659,0,0
224,365,0,0,0,0,0,0,0,0,0,-1,1448,659,0,0
231,365,0,0,0,0,0,0,0,0,0,-1,1455,659,0,0
238,365,0,0,0,0,0,0,0,0,0,-1,1462,659,0,0
245,365,0,0,0,0,0,0,0,0,0,-1,1469,659,0,0
252,365,0,0,0,0,0,0,0,0,0,-1,1476,659,0,0
259,365,0,0,0,0,0,0,0,0,0,-1,1483,659,0,0
266,365,0,0,0,0,0,0,0,0,0,-1,1490,659,0,0
273,365,0,0,0,0,0,0,0,0,0,-1,1497,659,0,0
280,365,0,0,0,0,0,0,0,0,0,-1,1504,659,0,0
287,365,0,0,0,0,0,0,0,0,0,-1,1511,659,0,0
294,365,0,0,0,0,0,0,0,0,0,-1,1518,659,0,0
301,365,0,0,0,0,0,0,0,0,0,-1,1525,659,0,0
308,365,0,0,0,0,0,0,0,0,0,-1,1532,659,0,0
315,365,0,0,0,0,0,0,0,0,0,-1,1539,659,0,0
322,365,0,0,0,0,0,0,0,0,0,-1,1546,659,0,0
329,365,0,0,0,0,0,0,0,0,0,-1,1553,659,0,0
336,365,0,0,0,0,0,0,0,0,0,-1,1560,659,0,0
343,365,0,0,0,0,0,0,0,0,0,-1,1567,659,0,0
350,365,0,0,0,0,0,0,0,0,0,-1,1574,659,0,0
357,365,0,0,0,0,0,0,0,0,0,-1,1581,659,0,0
364,365,0,0,0,0,0,0,0,0,0,-1,1588,659,0,0
371,365,0,0,0,0,0,0,0,0,0,-1,1595,659,0,0
378,365,0,0,0,0,0,0,0,0,0,-1,1602,659,0,0
385,365,0,0,0,0,0,0,0,0,0,-1,1609,659,0,0
392,365,0,0,0,0,0,0,0,0,0,-1,1616,659,0,0
399,365,0,0,0,0,0,0,0,0,0,-1,1623,659,0,0
406,365,0,0,0,0,0,0,0,0,0,-1,1630,659,0,0
413,365,0,0,0,0,0,0,0,0,0,-1,1637,659,0,0
420,365,0,0,0,0,0,0,0,0,0,-1,1644,659,0,0
427,365,0,0,0,0,0,0,0,0,0,-1,1651,659,0,0
434,365,0,0,0,0,0,0,0,0,0,-1,1658,659,0,0
441,365,0,0,0,0,0,0,0,0,0,-1,1665,659,0,0
448,365,0,0,0,0,0,0,0,0,0,-1,1672,659,0,0
455,365,0,0,0,0,0,0,0,0,0,-1,1679,659,0,0
462,365,0,0,0,0,0,0,0,0,0,-1,1686,659,0,0
469,365,0,0,0,0,0,0,0,0,0,-1,1693,659,0,0
476,365,0,0,0,0,0,0,0,0,0,-1,1700,659,0,0
483,365,0,0,0,0,0,0,0,0,0,-1,1707,659,0,0
490,365,8.39551,0.471252,0,0,0,0,0,0,0,-1,1714,659,8.39551,-0.471241
497,365,9.89233,1.35394,0,0,0,0,0,0,0,-1,1721,659,9.89237,-1.35396
504,365,10.1414,1.18005,0,0,0,0,0,0,0,-1,1728,659,10.1413,-1.18004
511,365,10.5151,0.993896,0,0,0,0,0,0,0,-1,1735,659,10.5152,-0.993894
518,365,11.2029,0.398132,0,0,0,0,0,0,0,-1,1742,659,11.2029,-0.398136
525,365,15.5748,3.85303,0,0,0,0,0,0,0,-1,1749,659,15.5748,-3.85303
532,365,11.2446,1.00629,0,0,0,0,0,0,0,-1,1756,659,11.2446,-1.00631
539,365,12.6301,1.03204,0,0,0,0,0,0,0,-1,1763,659,12.6302,-1.03204
546,365,11.647,0.84198,0,0,0,0,0,0,0,-1,1770,659,11.6469,-0.841955
553,365,12.028,-0.558899,0,0,0,0,0,0,0,-1,1777,659,12.028,0.558873
560,365,14.5372,-4.55548,0,0,0,0,0,0,0,-1,1784,659,14.5373,4.55547
567,365,15.6393,-4.56427,0,0,0,0,0,0,0,-1,1791,659,15.6392,4.56429
574,365,15.647,-3.95526,0,0,0,0,0,0,0,-1,1798,659,15.647,3.95525
581,365,15.4729,-3.72986,-0.00482866,0.00729263,0.0046186,0.00885188,-0.00638792,1.24521,0.00883695,0.0356682,1805,659,15.4729,3.72983
588,365,15.4248,-3.31226,-0.00242369,0.00462039,0.00284148,0.0056237,-0.003427,1.23137,0.00527648,0.014093,1812,659,15.4248,3.31228
595,365,15.4469,-2.83844,-0.000489776,0.00254808,0.00147079,0.00314348,-0.00108517,1.18615,0.00253599,0.0132955,1819,659,15.4469,2.83843
602,365,15.4432,-2.45477,0.000555599,0.00162028,0.000976357,0.00219999,-2.4113e-05,1.03499,0.00147476,0.0145354,1826,659,15.4433,2.45477
609,365,15.3875,-2.0882,0.000896146,0.00144407,0.000851752,0.00206484,0.000275381,0.940996,0.00129456,0.0151441,1833,659,15.3874,2.08819
616,365,15.4166,-1.68652,0.000930868,0.00151431,0.000919794,0.00218754,0.000257643,0.938961,0.00138052,0.0168745,1840,659,15.4166,1.68651
623,365,15.4697,-1.28827,0.000701384,0.00157866,0.000862808,0.00210793,0.000172118,1.02057,0.00135157,0.0120612,1847,659,15.4698,1.28825
630,365,15.4482,-0.884583,1.97949e-05,0.00161256,0.000692692,0.00187166,-0.000239307,1.21286,0.00133471,0.0161965,1854,659,15.4483,0.88458
637,365,15.4451,-0.522339,-0.00100421,0.00156011,0.000304008,0.00159566,-0.00103976,1.45439,0.0015328,0.0203891,1861,659,15.445,0.522361
644,365,15.4462,-0.125793,-0.00244748,0.00139918,-0.000240598,0.00141417,-0.00246247,-1.50857,0.00226529,0.0161894,1868,659,15.4462,0.125792
651,365,15.5942,0.353333,-0.00445976,0.0010381,-0.0010729,0.00124006,-0.00466172,-1.38474,0.00359321,0.0381046,1875,659,15.5943,-0.353333
658,365,15.6382,0.910706,0,0,0,0,0,0,0,-1,1882,659,15.6381,-0.910706
665,365,14.0961,0.769043,0,0,0,0,0,0,0,-1,1889,659,14.0961,-0.769063
672,365,10.0579,2.15088,0,0,0,0,0,0,0,-1,1896,659,10.0579,-2.15088
679,365,10.9718,2.19208,0,0,0,0,0,0,0,-1,1903,659,10.9718,-2.19211
686,365,12.2134,2.17108,0,0,0,0,0,0,0,-1,1910,659,12.2134,-2.17109
693,365,13.7141,1.98279,0,0,0,0,0,0,0,-1,1917,659,13.7141,-1.98278
700,365,0,0,0,0,0,0,0,0,0,-1,1924,659,0,0
707,365,0,0,0,0,0,0,0,0,0,-1,1931,659,0,0
714,365,0,0,0,0,0,0,0,0,0,-1,1938,659,0,0
721,365,0,0,0,0,0,0,0,0,0,-1,1945,659,0,0
728,365,0,0,0,0,0,0,0,0,0,-1,1952,659,0,0
735,365,0,0,0,0,0,0,0,0,0,-1,1959,659,0,0
742,365,0,0,0,0,0,0,0,0,0,-1,1966,659,0,0
749,365,0,0,0,0,0,0,0,0,0,-1,1973,659,0,0
756,365,0,0,0,0,0,0,0,0,0,-1,1980,659,0,0
763,365,0,0,0,0,0,0,0,0,0,-1,1987,659,0,0
770,365,0,0,0,0,0,0,0,0,0,-1,1994,659,0,0
777,365,0,0,0,0,0,0,0,0,0,-1,2001,659,0,0
784,365,0,0,0,0,0,0,0,0,0,-1,2008,659,0,0
791,365,0,0,0,0,0,0,0,0,0,-1,2015,659,0,0
798,365,0,0,0,0,0,0,0,0,0,-1,2022,659,0,0
805,365,0,0,0,0,0,0,0,0,0,-1,2029,659,0,0
812,365,0,0,0,0,0,0,0,0,0,-1,2036,659,0,0
-700,358,0,0,0,0,0,0,0,0,0,-1,524,666,0,0
-693,358,0,0,0,0,0,0,0,0,0,-1,531,666,0,0
-686,358,0,0,0,0,0,0,0,0,0,-1,538,666,0,0
-679,358,0,0,0,0,0,0,0,0,0,-1,545,666,0,0
-672,358,0,0,0,0,0,0,0,0,0,-1,552,666,0,0
-665,358,0,0,0,0,0,0,0,0,0,-1,559,666,0,0
-658,358,0,0,0,0,0,0,0,0,0,-1,566,666,0,0
-651,358,0,0,0,0,0,0,0,0,0,-1,573,666,0,0
-644,358,0,0,0,0,0,0,0,0,0,-1,580,666,0,0
-637,358,0,0,0,0,0,0,0,0,0,-1,587,666,0,0
-630,358,0,0,0,0,0,0,0,0,0,-1,594,666,0,0
-623,358,0,0,0,0,0,0,0,0,0,-1,601,666,0,0
-616,358,0,0,0,0,0,0,0,0,0,-1,608,666,0,0
-609,358,0,0,0,0,0,0,0,0,0,-1,615,666,0,0
-602,358,0,0,0,0,0,0,0,0,0,-1,622,666,0,0
-595,358,0,0,0,0,0,0,0,0,0,-1,629,666,0,0
-588,358,0,0,0,0,0,0,0,0,0,-1,636,666,0,0
-581,358,-8.31616,1.61993,0,0,0,0,0,0,0,-1,643,666,-8.31614,-1.61993
-574,358,-8.22406,1.75385,0,0,0,0,0,0,0,-1,650,666,-8.22408,-1.75383
-567,358,-8.14215,1.91577,0,0,0,0,0,0,0,-1,657,666,-8.14214,-1.91579
-560,358,-9.96765,0.990295,0,0,0,0,0,0,0,-1,664,666,-9.96767,-0.990293
-553,358,-9.24591,-0.176758,0.0590524,0.00715526,-0.0397547,0.0805777,-0.01437,-0.496257,0.0590938,0.0489967,671,666,-9.24591,0.176788
-546,358,-8.4942,-1.39679,0,0,0,0,0,0,0,-1,678,666,-8.49419,1.39681
-539,358,-8.36249,1.1955,0,0,0,0,0,0,0,-1,685,666,-8.36248,-1.19551
-532,358,-8.28381,-0.215881,0.0220331,0.0101145,-0.0193425,0.0363135,-0.00416594,-0.635966,0.0257104,0.0474087,692,666,-8.28381,0.215896
-525,358,-8.09131,-1.68561,0.0149461,0.00883601,-0.0143406,0.0265534,-0.00277133,-0.68045,0.0186946,0.0426556,699,666,-8.09133,1.68563
-518,358,-8.20135,-2.00177,0,0,0,0,0,0,0,-1,706,666,-8.20135,2.00178
-511,358,-8.21118,-2.38116,0.00609776,0.00535959,-0.00685997,0.0125986,-0.00114122,-0.758523,0.00880414,0.0148676,713,666,-8.21117,2.38114
-504,358,-8.22748,-2.74902,0.00347445,0.00408004,-0.00441176,0.00819938,-0.000644894,-0.819661,0.0056934,0.0104438,720,666,-8.22745,2.74901
-497,358,-8.21637,-3.11902,0.00148477,0.00279131,-0.0024009,0.00462623,-0.000350146,-0.91823,0.00320724,0.0110756,727,666,-8.21637,3.119
-490,358,-8.21985,-3.47253,0.00109061,0.00170528,-0.00145609,0.00288612,-9.02307e-05,-0.889405,0.00195485,0.011077,734,666,-8.21983,3.47252
-483,358,-8.25348,-3.82202,0.00126991,0.00113796,-0.00107222,0.00227818,0.000129689,-0.75467,0.00147745,0.00993332,741,666,-8.2535,3.82203
-476,358,-8.22662,-4.16083,0.00175343,0.000989418,-0.00116083,0.0025935,0.000149354,-0.626439,0.00168143,0.011329,748,666,-8.22661,4.1608
-469,358,-8.22852,-4.51965,0.00244177,0.00144466,-0.0017981,0.00380915,7.72753e-05,-0.650162,0.00251407,0.0144002,755,666,-8.2285,4.51967
-462,358,-8.25934,-4.91309,0.00310711,0.00205875,-0.00254214,0.00517855,-1.26839e-05,-0.683725,0.0034566,0.0169476,762,666,-8.25931,4.91308
-455,358,-8.20624,-5.3175,0.00351187,0.00268671,-0.00306417,0.00619112,7.47084e-06,-0.718477,0.00412492,0.0284639,769,666,-8.20626,5.31747
-448,358,-8.06238,-5.78821,0,0,0,0,0,0,0,-1,776,666,-8.06239,5.78823
-441,358,-5.56293,-3.98041,0,0,0,0,0,0,0,-1,783,666,-5.56291,3.98043
-434,358,-5.21558,-4.43127,0,0,0,0,0,0,0,-1,790,666,-5.21559,4.43125
-427,358,-3.56189,-3.15729,0,0,0,0,0,0,0,-1,797,666,-3.56192,3.15729
-420,358,0.200195,1.08234,0,0,0,0,0,0,0,-1,804,666,0.200174,-1.08231
-413,358,0.0325317,0.161072,0,0,0,0,0,0,0,-1,811,666,0.0325501,-0.161098
-406,358,-3.85846,0.753113,0,0,0,0,0,0,0,-1,818,666,-3.85846,-0.753129
-399,358,-1.31213,0.190735,0,0,0,0,0,0,0,-1,825,666,-1.31215,-0.190763
-392,358,-3.73914,-0.832214,0,0,0,0,0,0,0,-1,832,666,-3.73915,0.832202
-385,358,-5.95178,-1.69141,0,0,0,0,0,0,0,-1,839,666,-5.9518,1.69143
-378,358,0,0,0,0,0,0,0,0,0,-1,846,666,0,0
-371,358,0,0,0,0,0,0,0,0,0,-1,853,666,0,0
-364,358,0,0,0,0,0,0,0,0,0,-1,860,666,0,0
-357,358,0,0,0,0,0,0,0,0,0,-1,867,666,0,0
-350,358,0,0,0,0,0,0,0,0,0,-1,874,666,0,0
-343,358,0,0,0,0,0,0,0,0,0,-1,881,666,0,0
-336,358,0,0,0,0,0,0,0,0,0,-1,888,666,0,0
-329,358,0,0,0,0,0,0,0,0,0,-1,895,666,0,0
-322,358,0,0,0,0,0,0,0,0,0,-1,902,666,0,0
-315,358,0,0,0,0,0,0,0,0,0,-1,909,666,0,0
-308,358,0,0,0,0,0,0,0,0,0,-1,916,666,0,0
-301,358,0,0,0,0,0,0,0,0,0,-1,923,666,0,0
-294,358,0,0,0,0,0,0,0,0,0,-1,930,666,0,0
-287,358,0,0,0,0,0,0,0,0,0,-1,937,666,0,0
-280,358,0,0,0,0,0,0,0,0,0,-1,944,666,0,0
-273,358,0,0,0,0,0,0,0,0,0,-1,951,666,0,0
-266,358,0,0,0,0,0,0,0,0,0,-1,958,666,0,0
-259,358,0,0,0,0,0,0,0,0,0,-1,965,666,0,0
-252,358,0,0,0,0,0,0,0,0,0,-1,972,666,0,0
-245,358,0,0,0,0,0,0,0,0,0,-1,979,666,0,0
-238,358,0,0,0,0,0,0,0,0,0,-1,986,666,0,0
-231,358,0,0,0,0,0,0,0,0,0,-1,993,666,0,0
-224,358,0,0,0,0,0,0,0,0,0,-1,1000,666,0,0
-217,358,0,0,0,0,0,0,0,0,0,-1,1007,666,0,0
-210,358,0,0,0,0,0,0,0,0,0,-1,1014,666,0,0
-203,358,0,0,0,0,0,0,0,0,0,-1,1021,666,0,0
-196,358,0,0,0,0,0,0,0,0,0,-1,1028,666,0,0
-189,358,0,0,0,0,0,0,0,0,0,-1,1035,666,0,0
-182,358,0,0,0,0,0,0,0,0,0,-1,1042,666,0,0
-175,358,0,0,0,0,0,0,0,0,0,-1,1049,666,0,0
-168,358,0,0,0,0,0,0,0,0,0,-1,1056,666,0,0
-161,358,0,0,0,0,0,0,0,0,0,-1,1063,666,0,0
-154,358,0,0,0,0,0,0,0,0,0,-1,1070,666,0,0
-147,358,0,0,0,0,0,0,0,0,0,-1,1077,666,0,0
-140,358,0,0,0,0,0,0,0,0,0,-1,1084,666,0,0
-133,358,0,0,0,0,0,0,0,0,0,-1,1091,666,0,0
-126,358,0,0,0,0,0,0,0,0,0,-1,1098,666,0,0
-119,358,0,0,0,0,0,0,0,0,0,-1,1105,666,0,0
-112,358,0,0,0,0,0,0,0,0,0,-1,1112,666,0,0
-105,358,0,0,0,0,0,0,0,0,0,-1,1119,666,0,0
-98,358,0,0,0,0,0,0,0,0,0,-1,1126,666,0,0
-91,358,0,0,0,0,0,0,0,0,0,-1,1133,666,0,0
-84,358,0,0,0,0,0,0,0,0,0,-1,1140,666,0,0
-77,358,0,0,0,0,0,0,0,0,0,-1,1147,666,0,0
-70,358,0,0,0,0,0,0,0,0,0,-1,1154,666,0,0
-63,358,0,0,0,0,0,0,0,0,0,-1,1161,666,0,0
-56,358,0,0,0,0,0,0,0,0,0,-1,1168,666,0,0
-49,358,0,0,0,0,0,0,0,0,0,-1,1175,666,0,0
-42,358,0,0,0,0,0,0,0,0,0,-1,1182,666,0,0
-35,358,0,0,0,0,0,0,0,0,0,-1,1189,666,0,0
-28,358,0,0,0,0,0,0,0,0,0,-1,1196,666,0,0
-21,358,0,0,0,0,0,0,0,0,0,-1,1203,666,0,0
-14,358,0,0,0,0,0,0,0,0,0,-1,1210,666,0,0
-7,358,0,0,0,0,0,0,0,0,0,-1,1217,666,0,0
0,358,0,0,0,0,0,0,0,0,0,-1,1224,666,0,0
7,358,0,0,0,0,0,0,0,0,0,-1,1231,666,0,0
14,358,0,0,0,0,0,0,0,0,0,-1,1238,666,0,0
21,358,0,0,0,0,0,0,0,0,0,-1,1245,666,0,0
28,358,0,0,0,0,0,0,0,0,0,-1,1252,666,0,0
35,358,0,0,0,0,0,0,0,0,0,-1,1259,666,0,0
42,358,0,0,0,0,0,0,0,0,0,-1,1266,666,0,0
49,358,0,0,0,0,0,0,0,0,0,-1,1273,666,0,0
56,358,0,0,0,0,0,0,0,0,0,-1,1280,666,0,0
63,358,0,0,0,0,0,0,0,0,0,-1,1287,666,0,0
70,358,0,0,0,0,0,0,0,0,0,-1,1294,666,0,0
77,358,0,0,0,0,0,0,0,0,0,-1,1301,666,0,0
84,358,0,0,0,0,0,0,0,0,0,-1,1308,666,0,0
91,358,0,0,0,0,0,0,0,0,0,-1,1315,666,0,0
98,358,0,0,0,0,0,0,0,0,0,-1,1322,666,0,0
105,358,0,0,0,0,0,0,0,0,0,-1,1329,666,0,0
112,358,0,0,0,0,0,0,0,0,0,-1,1336,666,0,0
119,358,0,0,0,0,0,0,0,0,0,-1,1343,666,0,0
126,358,0,0,0,0,0,0,0,0,0,-1,1350,666,0,0
133,358,0,0,0,0,0,0,0,0,0,-1,1357,666,0,0
140,358,0,0,0,0,0,0,0,0,0,-1,1364,666,0,0
147,358,0,0,0,0,0,0,0,0,0,-1,1371,666,0,0
154,358,0,0,0,0,0,0,0,0,0,-1,1378,666,0,0
161,358,0,0,0,0,0,0,0,0,0,-1,1385,666,0,0
168,358,0,0,0,0,0,0,0,0,0,-1,1392,666,0,0
175,358,0,0,0,0,0,0,0,0,0,-1,1399,666,0,0
182,358,0,0,0,0,0,0,0,0,0,-1,1406,666,0,0
189,358,0,0,0,0,0,0,0,0,0,-1,1413,666,0,0
196,358,0,0,0,0,0,0,0,0,0,-1,1420,666,0,0
203,358,0,0,0,0,0,0,0,0,0,-1,1427,666,0,0
210,358,0,0,0,0,0,0,0,0,0,-1,1434,666,0,0
217,358,0,0,0,0,0,0,0,0,0,-1,1441,666,0,0
224,358,0,0,0,0,0,0,0,0,0,-1,1448,666,0,0
231,358,0,0,0,0,0,0,0,0,0,-1,1455,666,0,0
238,358,0,0,0,0,0,0,0,0,0,-1,1462,666,0,0
245,358,0,0,0,0,0,0,0,0,0,-1,1469,666,0,0
252,358,0,0,0,0,0,0,0,0,0,-1,1476,666,0,0
259,358,0,0,0,0,0,0,0,0,0,-1,1483,666,0,0
266,358,0,0,0,0,0,0,0,0,0,-1,1490,666,0,0
273,358,0,0,0,0,0,0,0,0,0,-1,1497,666,0,0
280,358,0,0,0,0,0,0,0,0,0,-1,1504,666,0,0
287,358,0,0,0,0,0,0,0,0,0,-1,1511,666,0,0
294,358,0,0,0,0,0,0,0,0,0,-1,1518,666,0,0
301,358,0,0,0,0,0,0,0,0,0,-1,1525,666,0,0
308,358,0,0,0,0,0,0,0,0,0,-1,1532,666,0,0
315,358,0,0,0,0,0,0,0,0,0,-1,1539,666,0,0
322,358,0,0,0,0,0,0,0,0,0,-1,1546,666,0,0
329,358,0,0,0,0,0,0,0,0,0,-1,1553,666,0,0
336,358,0,0,0,0,0,0,0,0,0,-1,1560,666,0,0
343,358,0,0,0,0,0,0,0,0,0,-1,1567,666,0,0
350,358,0,0,0,0,0,0,0,0,0,-1,1574,666,0,0
357,358,0,0,0,0,0,0,0,0,0,-1,1581,666,0,0
364,358,0,0,0,0,0,0,0,0,0,-1,1588,666,0,0
371,358,0,0,0,0,0,0,0,0,0,-1,1595,666,0,0
378,358,0,0,0,0,0,0,0,0,0,-1,1602,666,0,0
385,358,0,0,0,0,0,0,0,0,0,-1,1609,666,0,0
392,358,0,0,0,0,0,0,0,0,0,-1,1616,666,0,0
399,358,0,0,0,0,0,0,0,0,0,-1,1623,666,0,0
406,358,0,0,0,0,0,0,0,0,0,-1,1630,666,0,0
413,358,0,0,0,0,0,0,0,0,0,-1,1637,666,0,0
420,358,0,0,0,0,0,0,0,0,0,-1,1644,666,0,0
427,358,0,0,0,0,0,0,0,0,0,-1,1651,666,0,0
434,358,0,0,0,0,0,0,0,0,0,-1,1658,666,0,0
441,358,0,0,0,0,0,0,0,0,0,-1,1665,666,0,0
448,358,0,0,0,0,0,0,0,0,0,-1,1672,666,0,0
455,358,0,0,0,0,0,0,0,0,0,-1,1679,666,0,0
462,358,0,0,0,0,0,0,0,0,0,-1,1686,666,0,0
469,358,0,0,0,0,0,0,0,0,0,-1,1693,666,0,0
476,358,0,0,0,0,0,0,0,0,0,-1,1700,666,0,0
483,358,0,0,0,0,0,0,0,0,0,-1,1707,666,0,0
490,358,0,0,0,0,0,0,0,0,0,-1,1714,666,0,0
497,358,8.57239,1.1322,0,0,0,0,0,0,0,-1,1721,666,8.57234,-1.13219
504,358,10.5972,0.832947,0,0,0,0,0,0,0,-1,1728,666,10.5972,-0.832968
511,358,10.6873,0.868469,0,0,0,0,0,0,0,-1,1735,666,10.6872,-0.868484
518,358,16.5884,2.34894,0,0,0,0,0,0,0,-1,1742,666,16.5884,-2.34894
525,358,15.7626,3.65344,0,0,0,0,0,0,0,-1,1749,666,15.7626,-3.65342
532,358,14.9368,4.95789,0,0,0,0,0,0,0,-1,1756,666,14.9367,-4.9579
539,358,15.1597,3.42694,0,0,0,0,0,0,0,-1,1763,666,15.1597,-3.42692
546,358,12.3792,1.53558,0,0,0,0,0,0,0,-1,1770,666,12.3792,-1.5356
553,358,11.6584,1.26172,0,0,0,0,0,0,0,-1,1777,666,11.6585,-1.26175
560,358,10.8234,1.43042,0,0,0,0,0,0,0,-1,1784,666,10.8233,-1.43041
567,358,10.1333,-0.955139,0,0,0,0,0,0,0,-1,1791,666,10.1333,0.955132
574,358,14.7886,-2.69293,0,0,0,0,0,0,0,-1,1798,666,14.7885,2.6929
581,358,15.6981,-3.74719,0,0,0,0,0,0,0,-1,1805,666,15.6982,3.7472
588,358,15.7543,-3.33649,-0.00251436,0.0133149,0.00686507,0.0158775,-0.00507686,1.21355,0.0126223,0.0266568,1812,666,15.7543,3.33646
595,358,15.8438,-2.83783,0.000453218,0.0077661,0.0033689,0.00908149,-0.000862165,1.19855,0.00636122,0.0128421,1819,666,15.8438,2.83784
602,358,15.8203,-2.42883,0.0017141,0.00433741,0.00152727,0.00503896,0.00101255,1.14019,0.00307782,0.0131451,1826,666,15.8203,2.42881
609,358,15.7708,-2.08057,0.00187865,0.00253432,0.000716219,0.00299417,0.0014188,1.00003,0.00172947,0.0162278,1833,666,15.7707,2.08058
616,358,15.79,-1.66968,0.00143713,0.00187733,0.000786818,0.00247425,0.000840208,0.921777,0.00145281,0.0157412,1840,666,15.7901,1.66966
623,358,15.8383,-1.28406,0.000833509,0.00142461,0.000683329,0.00187356,0.000384553,0.989507,0.00114264,0.0140765,1847,666,15.8382,1.28403
630,358,15.7981,-0.926392,-9.1418e-05,0.00114204,0.000450207,0.00128888,-0.00023826,1.25551,0.000948701,0.017371,1854,666,15.7981,0.926391
637,358,15.7712,-0.526855,-0.00119802,0.000971579,-2.373e-05,0.000971839,-0.00119828,-1.55986,0.00125519,0.0230367,1861,666,15.7712,0.526874
644,358,15.7957,-0.138489,-0.00279185,0.000732101,-0.000680018,0.000858771,-0.00291852,-1.38663,0.00228634,0.018743,1868,666,15.7957,0.138504
651,358,15.8838,0.304932,-0.00487365,0.0003119,-0.00156681,0.000748545,-0.00531029,-1.29901,0.00381427,0.0258197,1875,666,15.8838,-0.304946
658,358,15.5543,0.62384,-0.00769942,-0.000434687,-0.00290963,0.000586981,-0.00872108,-1.23311,0.00601926,0.0455383,1882,666,15.5543,-0.623824
665,358,15.0133,0.938599,0,0,0,0,0,0,0,-1,1889,666,15.0133,-0.93858
672,358,12.4299,1.47272,0,0,0,0,0,0,0,-1,1896,666,12.4299,-1.4727
679,358,12.1294,2.19702,0,0,0,0,0,0,0,-1,1903,666,12.1294,-2.19703
686,358,11.9557,2.2002,0,0,0,0,0,0,0,-1,1910,666,11.9557,-2.20021
693,358,13.188,2.52203,0,0,0,0,0,0,0,-1,1917,666,13.188,-2.52202
700,358,0,0,0,0,0,0,0,0,0,-1,1924,666,0,0
707,358,0,0,0,0,0,0,0,0,0,-1,1931,666,0,0
714,358,0,0,0,0,0,0,0,0,0,-1,1938,666,0,0
721,358,0,0,0,0,0,0,0,0,0,-1,1945,666,0,0
728,358,0,0,0,0,0,0,0,0,0,-1,1952,666,0,0
735,358,0,0,0,0,0,0,0,0,0,-1,1959,666,0,0
742,358,0,0,0,0,0,0,0,0,0,-1,1966,666,0,0
749,358,0,0,0,0,0,0,0,0,0,-1,1973,666,0,0
756,358,0,0,0,0,0,0,0,0,0,-1,1980,666,0,0
763,358,0,0,0,0,0,0,0,0,0,-1,1987,666,0,0
770,358,0,0,0,0,0,0,0,0,0,-1,1994,666,0,0
777,358,0,0,0,0,0,0,0,0,0,-1,2001,666,0,0
784,358,0,0,0,0,0,0,0,0,0,-1,2008,666,0,0
791,358,0,0,0,0,0,0,0,0,0,-1,2015,666,0,0
798,358,0,0,0,0,0,0,0,0,0,-1,2022,666,0,0
805,358,0,0,0,0,0,0,0,0,0,-1,2029,666,0,0
812,358,0,0,0,0,0,0,0,0,0,-1,2036,666,0,0
-700,351,0,0,0,0,0,0,0,0,0,-1,524,673,0,0
-693,351,0,0,0,0,0,0,0,0,0,-1,531,673,0,0
-686,351,0,0,0,0,0,0,0,0,0,-1,538,673,0,0
-679,351,0,0,0,0,0,0,0,0,0,-1,545,673,0,0
-672,351,0,0,0,0,0,0,0,0,0,-1,552,673,0,0
-665,351,0,0,0,0,0,0,0,0,0,-1,559,673,0,0
-658,351,0,0,0,0,0,0,0,0,0,-1,566,673,0,0
-651,351,0,0,0,0,0,0,0,0,0,-1,573,673,0,0
-644,351,0,0,0,0,0,0,0,0,0,-1,580,673,0,0
-637,351,0,0,0,0,0,0,0,0,0,-1,587,673,0,0
-630,351,0,0,0,0,0,0,0,0,0,-1,594,673,0,0
-623,351,0,0,0,0,0,0,0,0,0,-1,601,673,0,0
-616,351,0,0,0,0,0,0,0,0,0,-1,608,673,0,0
-609,351,0,0,0,0,0,0,0,0,0,-1,615,673,0,0
-602,351,0,0,0,0,0,0,0,0,0,-1,622,673,0,0
-595,351,0,0,0,0,0,0,0,0,0,-1,629,673,0,0
-588,351,0,0,0,0,0,0,0,0,0,-1,636,673,0,0
-581,351,-9.0647,1.71906,0,0,0,0,0,0,0,-1,643,673,-9.06472,-1.71908
-574,351,-8.23584,2.64764,0,0,0,0,0,0,0,-1,650,673,-8.23584,-2.64764
-567,351,-6.17303,1.88818,0,0,0,0,0,0,0,-1,657,673,-6.17304,-1.88818
-560,351,-9.71954,0.847229,0,0,0,0,0,0,0,-1,664,673,-9.71957,-0.847199
-553,351,-9.49768,0.277588,0,0,0,0,0,0,0,-1,671,673,-9.49769,-0.277617
-546,351,-8.91052,-0.25769,0,0,0,0,0,0,0,-1,678,673,-8.9105,0.257705
-539,351,-8.65466,-0.674255,0,0,0,0,0,0,0,-1,685,673,-8.65469,0.674258
-532,351,-8.37659,-1.0838,0.0187256,0.00912509,-0.0164012,0.0310146,-0.00316386,-0.643035,0.0218077,0.0375293,692,673,-8.3766,1.08382
-525,351,-8.51825,-1.73022,0.0128575,0.0078166,-0.0122557,0.0228492,-0.00217516,-0.683985,0.0160072,0.0310712,699,673,-8.51825,1.73025
-518,351,-8.5813,-1.96643,0.00847771,0.00619463,-0.00874125,0.0161516,-0.0014793,-0.72047,0.0112932,0.0139507,706,673,-8.5813,1.96646
-511,351,-8.56677,-2.34851,0.00537199,0.00458572,-0.00591118,0.0109031,-0.000945387,-0.752194,0.00760348,0.0110147,713,673,-8.5668,2.34853
-504,351,-8.58588,-2.73077,0.0031334,0.0034098,-0.00378512,0.00705924,-0.000516041,-0.803646,0.00488726,0.010198,720,673,-8.58588,2.73076
-497,351,-8.58221,-3.09027,0.00151954,0.00216895,-0.00203553,0.00390551,-0.000217022,-0.864491,0.00267894,0.0104403,727,673,-8.58222,3.09026
-490,351,-8.59076,-3.44873,0.00121369,0.00123587,-0.00119875,0.00242358,2.59813e-05,-0.790023,0.00160713,0.0105866,734,673,-8.59074,3.44875
-483,351,-8.59821,-3.79895,0.00143627,0.000822916,-0.000884735,0.00206597,0.000193213,-0.618563,0.00131764,0.0123848,741,673,-8.5982,3.79896
-476,351,-8.60358,-4.14337,0.00198013,0.00110923,-0.00119872,0.00282004,0.000269324,-0.611178,0.00179699,0.0110428,748,673,-8.60361,4.1434
-469,351,-8.59589,-4.48047,0.00276299,0.0017519,-0.00203265,0.00435202,0.000162868,-0.663515,0.00284861,0.0128343,755,673,-8.59587,4.48046
-462,351,-8.60394,-4.90778,0.0035316,0.00263217,-0.00290937,0.00602581,0.000137966,-0.708718,0.00397201,0.0217583,762,673,-8.60395,4.90775
-455,351,-8.43469,-5.39642,0,0,0,0,0,0,0,-1,769,673,-8.43469,5.3964
-448,351,-6.61456,-4.38654,0,0,0,0,0,0,0,-1,776,673,-6.61456,4.38654
-441,351,-4.31567,-2.3009,0,0,0,0,0,0,0,-1,783,673,-4.31565,2.30089
-434,351,-3.81708,-2.28003,0,0,0,0,0,0,0,-1,790,673,-3.81706,2.28006
-427,351,-2.05157,-2.7785,0,0,0,0,0,0,0,-1,797,673,-2.05157,2.77848
-420,351,-1.06989,-2.43665,0,0,0,0,0,0,0,-1,804,673,-1.06991,2.43663
-413,351,-0.392334,-2.06671,0,0,0,0,0,0,0,-1,811,673,-0.392363,2.06672
-406,351,-1.86316,-2.58105,0,0,0,0,0,0,0,-1,818,673,-1.86313,2.58106
-399,351,1.00952,-1.53455,0,0,0,0,0,0,0,-1,825,673,1.00954,1.53457
-392,351,-1.02197,0.877136,0,0,0,0,0,0,0,-1,832,673,-1.02195,-0.877143
-385,351,-1.47205,1.04437,0,0,0,0,0,0,0,-1,839,673,-1.47207,-1.04435
-378,351,0,0,0,0,0,0,0,0,0,-1,846,673,0,0
-371,351,0,0,0,0,0,0,0,0,0,-1,853,673,0,0
-364,351,0,0,0,0,0,0,0,0,0,-1,860,673,0,0
-357,351,0,0,0,0,0,0,0,0,0,-1,867,673,0,0
-350,351,0,0,0,0,0,0,0,0,0,-1,874,673,0,0
-343,351,0,0,0,0,0,0,0,0,0,-1,881,673,0,0
-336,351,0,0,0,0,0,0,0,0,0,-1,888,673,0,0
-329,351,0,0,0,0,0,0,0,0,0,-1,895,673,0,0
-322,351,0,0,0,0,0,0,0,0,0,-1,902,673,0,0
-315,351,0,0,0,0,0,0,0,0,0,-1,909,673,0,0
-308,351,0,0,0,0,0,0,0,0,0,-1,916,673,0,0
-301,351,0,0,0,0,0,0,0,0,0,-1,923,673,0,0
-294,351,0,0,0,0,0,0,0,0,0,-1,930,673,0,0
-287,351,0,0,0,0,0,0,0,0,0,-1,937,673,0,0
-280,351,0,0,0,0,0,0,0,0,0,-1,944,673,0,0
-273,351,0,0,0,0,0,0,0,0,0,-1,951,673,0,0
-266,351,0,0,0,0,0,0,0,0,0,-1,958,673,0,0
-259,351,0,0,0,0,0,0,0,0,0,-1,965,673,0,0
-252,351,0,0,0,0,0,0,0,0,0,-1,972,673,0,0
-245,351,0,0,0,0,0,0,0,0,0,-1,979,673,0,0
-238,351,0,0,0,0,0,0,0,0,0,-1,986,673,0,0
-231,351,0,0,0,0,0,0,0,0,0,-1,993,673,0,0
-224,351,0,0,0,0,0,0,0,0,0,-1,1000,673,0,0
-217,351,0,0,0,0,0,0,0,0,0,-1,1007,673,0,0
-210,351,0,0,0,0,0,0,0,0,0,-1,1014,673,0,0
-203,351,0,0,0,0,0,0,0,0,0,-1,1021,673,0,0
-196,351,0,0,0,0,0,0,0,0,0,-1,1028,673,0,0
-189,351,0,0,0,0,0,0,0,0,0,-1,1035,673,0,0
-182,351,0,0,0,0,0,0,0,0,0,-1,1042,673,0,0
-175,351,0,0,0,0,0,0,0,0,0,-1,1049,673,0,0
-168,351,0,0,0,0,0,0,0,0,0,-1,1056,673,0,0
-161,351,0,0,0,0,0,0,0,0,0,-1,1063,673,0,0
-154,351,0,0,0,0,0,0,0,0,0,-1,1070,673,0,0
-147,351,0,0,0,0,0,0,0,0,0,-1,1077,673,0,0
-140,351,0,0,0,0,0,0,0,0,0,-1,1084,673,0,0
-133,351,0,0,0,0,0,0,0,0,0,-1,1091,673,0,0
-126,351,0,0,0,0,0,0,0,0,0,-1,1098,673,0,0
-119,351,0,0,0,0,0,0,0,0,0,-1,1105,673,0,0
-112,351,0,0,0,0,0,0,0,0,0,-1,1112,673,0,0
-105,351,0,0,0,0,0,0,0,0,0,-1,1119,673,0,0
-98,351,0,0,0,0,0,0,0,0,0,-1,1126,673,0,0
-91,351,0,0,0,0,0,0,0,0,0,-1,1133,673,0,0
-84,351,0,0,0,0,0,0,0,0,0,-1,1140,673,0,0
-77,351,0,0,0,0,0,0,0,0,0,-1,1147,673,0,0
-70,351,0,0,0,0,0,0,0,0,0,-1,1154,673,0,0
-63,351,0,0,0,0,0,0,0,0,0,-1,1161,673,0,0
-56,351,0,0,0,0,0,0,0,0,0,-1,1168,673,0,0
-49,351,0,0,0,0,0,0,0,0,0,-1,1175,673,0,0
-42,351,0,0,0,0,0,0,0,0,0,-1,1182,673,0,0
-35,351,0,0,0,0,0,0,0,0,0,-1,1189,673,0,0
-28,351,0,0,0,0,0,0,0,0,0,-1,1196,673,0,0
-21,351,0,0,0,0,0,0,0,0,0,-1,1203,673,0,0
-14,351,0,0,0,0,0,0,0,0,0,-1,1210,673,0,0
-7,351,0,0,0,0,0,0,0,0,0,-1,1217,673,0,0
0,351,0,0,0,0,0,0,0,0,0,-1,1224,673,0,0
7,351,0,0,0,0,0,0,0,0,0,-1,1231,673,0,0
14,351,0,0,0,0,0,0,0,0,0,-1,1238,673,0,0
21,351,0,0,0,0,0,0,0,0,0,-1,1245,673,0,0
28,351,0,0,0,0,0,0,0,0,0,-1,1252,673,0,0
35,351,0,0,0,0,0,0,0,0,0,-1,1259,673,0,0
42,351,0,0,0,0,0,0,0,0,0,-1,1266,673,0,0
49,351,0,0,0,0,0,0,0,0,0,-1,1273,673,0,0
56,351,0,0,0,0,0,0,0,0,0,-1,1280,673,0,0
63,351,0,0,0,0,0,0,0,0,0,-1,1287,673,0,0
70,351,0,0,0,0,0,0,0,0,0,-1,1294,673,0,0
77,351,0,0,0,0,0,0,0,0,0,-1,1301,673,0,0
84,351,0,0,0,0,0,0,0,0,0,-1,1308,673,0,0
91,351,0,0,0,0,0,0,0,0,0,-1,1315,673,0,0
98,351,0,0,0,0,0,0,0,0,0,-1,1322,673,0,0
105,351,0,0,0,0,0,0,0,0,0,-1,1329,673,0,0
112,351,0,0,0,0,0,0,0,0,0,-1,1336,673,0,0
119,351,0,0,0,0,0,0,0,0,0,-1,1343,673,0,0
126,351,0,0,0,0,0,0,0,0,0,-1,1350,673,0,0
133,351,0,0,0,0,0,0,0,0,0,-1,1357,673,0,0
140,351,0,0,0,0,0,0,0,0,0,-1,1364,673,0,0
147,351,0,0,0,0,0,0,0,0,0,-1,1371,673,0,0
154,351,0,0,0,0,0,0,0,0,0,-1,1378,673,0,0
161,351,0,0,0,0,0,0,0,0,0,-1,1385,673,0,0
168,351,0,0,0,0,0,0,0,0,0,-1,1392,673,0,0
175,351,0,0,0,0,0,0,0,0,0,-1,1399,673,0,0
182,351,0,0,0,0,0,0,0,0,0,-1,1406,673,0,0
189,351,0,0,0,0,0,0,0,0,0,-1,1413,673,0,0
196,351,0,0,0,0,0,0,0,0,0,-1,1420,673,0,0
203,351,0,0,0,0,0,0,0,0,0,-1,1427,673,0,0
210,351,0,0,0,0,0,0,0,0,0,-1,1434,673,0,0
217,351,0,0,0,0,0,0,0,0,0,-1,1441,673,0,0
224,351,0,0,0,0,0,0,0,0,0,-1,1448,673,0,0
231,351,0,0,0,0,0,0,0,0,0,-1,1455,673,0,0
238,351,0,0,0,0,0,0,0,0,0,-1,1462,673,0,0
245,351,0,0,0,0,0,0,0,0,0,-1,1469,673,0,0
252,351,0,0,0,0,0,0,0,0,0,-1,1476,673,0,0
259,351,0,0,0,0,0,0,0,0,0,-1,1483,673,0,0
266,351,0,0,0,0,0,0,0,0,0,-1,1490,673,0,0
273,351,0,0,0,0,0,0,0,0,0,-1,1497,673,0,0
280,351,0,0,0,0,0,0,0,0,0,-1,1504,673,0,0
287,351,0,0,0,0,0,0,0,0,0,-1,1511,673,0,0
294,351,0,0,0,0,0,0,0,0,0,-1,1518,673,0,0
301,351,0,0,0,0,0,0,0,0,0,-1,1525,673,0,0
308,351,0,0,0,0,0,0,0,0,0,-1,1532,673,0,0
315,351,0,0,0,0,0,0,0,0,0,-1,1539,673,0,0
322,351,0,0,0,0,0,0,0,0,0,-1,1546,673,0,0
329,351,0,0,0,0,0,0,0,0,0,-1,1553,673,0,0
336,351,0,0,0,0,0,0,0,0,0,-1,1560,673,0,0
343,351,0,0,0,0,0,0,0,0,0,-1,1567,673,0,0
350,351,0,0,0,0,0,0,0,0,0,-1,1574,673,0,0
357,351,0,0,0,0,0,0,0,0,0,-1,1581,673,0,0
364,351,0,0,0,0,0,0,0,0,0,-1,1588,673,0,0
371,351,0,0,0,0,0,0,0,0,0,-1,1595,673,0,0
378,351,0,0,0,0,0,0,0,0,0,-1,1602,673,0,0
385,351,0,0,0,0,0,0,0,0,0,-1,1609,673,0,0
392,351,0,0,0,0,0,0,0,0,0,-1,1616,673,0,0
399,351,0,0,0,0,0,0,0,0,0,-1,1623,673,0,0
406,351,0,0,0,0,0,0,0,0,0,-1,1630,673,0,0
413,351,0,0,0,0,0,0,0,0,0,-1,1637,673,0,0
420,351,0,0,0,0,0,0,0,0,0,-1,1644,673,0,0
427,351,0,0,0,0,0,0,0,0,0,-1,1651,673,0,0
434,351,0,0,0,0,0,0,0,0,0,-1,1658,673,0,0
441,351,0,0,0,0,0,0,0,0,0,-1,1665,673,0,0
448,351,0,0,0,0,0,0,0,0,0,-1,1672,673,0,0
455,351,0,0,0,0,0,0,0,0,0,-1,1679,673,0,0
462,351,0,0,0,0,0,0,0,0,0,-1,1686,673,0,0
469,351,0,0,0,0,0,0,0,0,0,-1,1693,673,0,0
476,351,0,0,0,0,0,0,0,0,0,-1,1700,673,0,0
483,351,0,0,0,0,0,0,0,0,0,-1,1707,673,0,0
490,351,0,0,0,0,0,0,0,0,0,-1,1714,673,0,0
497,351,0,0,0,0,0,0,0,0,0,-1,1721,673,0,0
504,351,10.8842,1.61615,0,0,0,0,0,0,0,-1,1728,673,10.8842,-1.61618
511,351,15.4548,0.0236816,0,0,0,0,0,0,0,-1,1735,673,15.4549,-0.0236664
518,351,16.7448,2.49268,0,0,0,0,0,0,0,-1,1742,673,16.7448,-2.49269
525,351,16.0701,3.43225,0,0,0,0,0,0,0,-1,1749,673,16.07,-3.43227
532,351,32.3822,3.03021,0,0,0,0,0,0,0,-1,1756,673,32.3822,-3.03019
539,351,15.3387,3.54486,0,0,0,0,0,0,0,-1,1763,673,15.3387,-3.54485
546,351,13.9387,4.59357,0,0,0,0,0,0,0,-1,1770,673,13.9388,-4.59359
553,351,12.0682,2.02832,0,0,0,0,0,0,0,-1,1777,673,12.0683,-2.02831
560,351,12.0173,0.55304,0,0,0,0,0,0,0,-1,1784,673,12.0174,-0.553028
567,351,10.7827,0.130188,0,0,0,0,0,0,0,-1,1791,673,10.7827,-0.130183
574,351,13.405,-1.09204,0,0,0,0,0,0,0,-1,1798,673,13.405,1.09207
581,351,15.2351,-3.06049,0,0,0,0,0,0,0,-1,1805,673,15.2351,3.06046
588,351,16.0692,-3.37421,0,0,0,0,0,0,0,-1,1812,673,16.0693,3.37419
595,351,16.1926,-2.89557,0.00126493,0.0166692,0.00648973,0.0190387,-0.00110466,1.22071,0.0130763,0.0255763,1819,673,16.1927,2.89557
602,351,16.2126,-2.46539,0.00317484,0.0103983,0.00302663,0.0114988,0.00207435,1.22205,0.0070765,0.0185252,1826,673,16.2126,2.4654
609,351,16.2197,-2.07117,0.00352327,0.00595537,0.00113695,0.00640408,0.00307456,1.1949,0.00369838,0.017339,1833,673,16.2197,2.07117
616,351,16.1906,-1.65839,0.00269035,0.00356152,0.000890635,0.00411738,0.00213449,1.01283,0.00237771,0.0142231,1840,673,16.1905,1.65836
623,351,16.2158,-1.26941,0.00147294,0.00209185,0.000654494,0.00250636,0.00105843,1.00623,0.00145286,0.0153955,1847,673,16.2159,1.26938
630,351,16.223,-0.921814,0.000108669,0.00102707,0.000327906,0.00113213,3.61045e-06,1.26074,0.000753551,0.0251471,1854,673,16.223,0.921788
637,351,16.2124,-0.48114,-0.00118512,0.000513631,-0.000216867,0.000540879,-0.00121236,-1.4458,0.00103669,0.0290143,1861,673,16.2124,0.481142
644,351,16.1736,-0.0895386,-0.00279245,0.000280904,-0.000936948,0.000544019,-0.00305556,-1.29703,0.0022405,0.0217168,1868,673,16.1735,0.0895126
651,351,16.208,0.273499,-0.00483007,-0.000135052,-0.00183413,0.000496503,-0.00546163,-1.23918,0.00381736,0.0167385,1875,673,16.208,-0.273511
658,351,16.1415,0.682983,-0.00749366,-0.000770378,-0.00306736,0.00041873,-0.00868277,-1.20097,0.00593302,0.0298012,1882,673,16.1415,-0.682999
665,351,15.7817,0.878662,-0.0108777,-0.00158052,-0.00454399,0.000271456,-0.0127296,-1.18379,0.00857834,0.0393021,1889,673,15.7817,-0.878655
672,351,15.9712,1.42975,0,0,0,0,0,0,0,-1,1896,673,15.9711,-1.42977
679,351,14.1252,1.85681,0,0,0,0,0,0,0,-1,1903,673,14.1253,-1.85682
686,351,13.0294,2.1189,0,0,0,0,0,0,0,-1,1910,673,13.0294,-2.11892
693,351,13.5187,2.34595,0,0,0,0,0,0,0,-1,1917,673,13.5187,-2.34596
700,351,14.5629,-2.40173,0,0,0,0,0,0,0,-1,1924,673,14.5629,2.40172
707,351,0,0,0,0,0,0,0,0,0,-1,1931,673,0,0
714,351,0,0,0,0,0,0,0,0,0,-1,1938,673,0,0
721,351,0,0,0,0,0,0,0,0,0,-1,1945,673,0,0
728,351,0,0,0,0,0,0,0,0,0,-1,1952,673,0,0
735,351,0,0,0,0,0,0,0,0,0,-1,1959,673,0,0
742,351,0,0,0,0,0,0,0,0,0,-1,1966,673,0,0
749,351,0,0,0,0,0,0,0,0,0,-1,1973,673,0,0
756,351,0,0,0,0,0,0,0,0,0,-1,1980,673,0,0
763,351,0,0,0,0,0,0,0,0,0,-1,1987,673,0,0
770,351,0,0,0,0,0,0,0,0,0,-1,1994,673,0,0
777,351,0,0,0,0,0,0,0,0,0,-1,2001,673,0,0
784,351,0,0,0,0,0,0,0,0,0,-1,2008,673,0,0
791,351,0,0,0,0,0,0,0,0,0,-1,2015,673,0,0
798,351,0,0,0,0,0,0,0,0,0,-1,2022,673,0,0
805,351,0,0,0,0,0,0,0,0,0,-1,2029,673,0,0
812,351,0,0,0,0,0,0,0,0,0,-1,2036,673,0,0
-700,344,0,0,0,0,0,0,0,0,0,-1,524,680,0,0
-693,344,0,0,0,0,0,0,0,0,0,-1,531,680,0,0
-686,344,0,0,0,0,0,0,0,0,0,-1,538,680,0,0
-679,344,0,0,0,0,0,0,0,0,0,-1,545,680,0,0
-672,344,0,0,0,0,0,0,0,0,0,-1,552,680,0,0
-665,344,0,0,0,0,0,0,0,0,0,-1,559,680,0,0
-658,344,0,0,0,0,0,0,0,0,0,-1,566,680,0,0
-651,344,0,0,0,0,0,0,0,0,0,-1,573,680,0,0
-644,344,0,0,0,0,0,0,0,0,0,-1,580,680,0,0
-637,344,0,0,0,0,0,0,0,0,0,-1,587,680,0,0
-630,344,0,0,0,0,0,0,0,0,0,-1,594,680,0,0
-623,344,0,0,0,0,0,0,0,0,0,-1,601,680,0,0
-616,344,0,0,0,0,0,0,0,0,0,-1,608,680,0,0
-609,344,0,0,0,0,0,0,0,0,0,-1,615,680,0,0
-602,344,0,0,0,0,0,0,0,0,0,-1,622,680,0,0
-595,344,0,0,0,0,0,0,0,0,0,-1,629,680,0,0
-588,344,-9.27826,1.47302,0,0,0,0,0,0,0,-1,636,680,-9.27829,-1.473
-581,344,-10.0098,1.71753,0,0,0,0,0,0,0,-1,643,680,-10.0098,-1.7175
-574,344,-6.25641,2.37372,0,0,0,0,0,0,0,-1,650,680,-6.25642,-2.37369
-567,344,-10.2119,1.46991,0,0,0,0,0,0,0,-1,657,680,-10.2119,-1.46992
-560,344,-9.81305,1.05597,0.049394,0.00349861,-0.0283915,0.0629521,-0.0100595,-0.44552,0.0456919,0.0482171,664,680,-9.81302,-1.056
-553,344,-9.54663,0.522461,0.0384351,0.00713254,-0.0249314,0.0522209,-0.00665319,-0.505102,0.0372303,0.047667,671,680,-9.54665,-0.522438
-546,344,-9.17883,-0.101013,0.0289624,0.00859396,-0.0208758,0.0420057,-0.0044493,-0.558458,0.0295986,0.0459346,678,680,-9.17883,0.101011
-539,344,-8.94006,-0.710999,0.0213497,0.00872094,-0.0169261,0.0331009,-0.00303026,-0.606866,0.0231436,0.0412192,685,680,-8.94008,0.711009
-532,344,-8.81531,-1.25543,0.0153331,0.00799465,-0.0132809,0.0254423,-0.00211462,-0.650622,0.0177086,0.0260104,692,680,-8.81531,1.25545
-525,344,-8.96045,-1.5957,0.0106103,0.00675909,-0.00995906,0.0188282,-0.00145884,-0.689902,0.0130656,0.0249818,699,680,-8.96047,1.59568
-518,344,-8.95538,-2.00311,0.00702894,0.00530041,-0.00708758,0.0133048,-0.000975407,-0.724727,0.0092122,0.0193353,706,680,-8.95536,2.00311
-511,344,-8.95245,-2.36133,0.00445211,0.00384604,-0.00473258,0.00889135,-0.000593193,-0.753426,0.00613486,0.0165439,713,680,-8.95245,2.36133
-504,344,-8.9422,-2.71985,0.00259848,0.0027489,-0.00293319,0.00560785,-0.000260464,-0.798216,0.00382834,0.0167414,720,680,-8.94221,2.71983
-497,344,-8.94934,-3.0874,0.00139074,0.00155165,-0.00147708,0.00295046,-8.08097e-06,-0.812606,0.00196967,0.0146778,727,680,-8.94932,3.08743
-490,344,-8.97803,-3.45923,0.00121045,0.000732473,-0.000783625,0.00179072,0.000152203,-0.63739,0.00114645,0.013992,734,680,-8.97804,3.45923
-483,344,-8.95135,-3.80536,0.0014907,0.000412974,-0.000573403,0.0017387,0.000164966,-0.408222,0.00110825,0.0141321,741,680,-8.95134,3.80536
-476,344,-8.96326,-4.14954,0.00208772,0.00111397,-0.00115604,0.00285523,0.000346463,-0.586092,0.00179915,0.0134616,748,680,-8.96326,4.14952
-469,344,-8.96655,-4.52936,0.00297259,0.00186221,-0.00222661,0.00471218,0.000122611,-0.663218,0.00310139,0.0138013,755,680,-8.96653,4.52936
-462,344,-8.94513,-4.96478,0.00392885,0.00295452,-0.0032786,0.00675628,0.000127087,-0.711644,0.00446243,0.0354781,762,680,-8.94513,4.96475
-455,344,-8.82001,-5.33008,0,0,0,0,0,0,0,-1,769,680,-8.81999,5.33006
-448,344,-5.67657,-2.72864,0,0,0,0,0,0,0,-1,776,680,-5.6766,2.72863
-441,344,-5.09229,-2.34167,0,0,0,0,0,0,0,-1,783,680,-5.09229,2.34168
-434,344,-4.28778,-2.08807,0,0,0,0,0,0,0,-1,790,680,-4.28778,2.08809
-427,344,-3.06506,-1.45404,0,0,0,0,0,0,0,-1,797,680,-3.06505,1.45402
-420,344,-1.96582,-1.57574,0,0,0,0,0,0,0,-1,804,680,-1.96579,1.57574
-413,344,-0.817993,-1.4751,0,0,0,0,0,0,0,-1,811,680,-0.818017,1.47511
-406,344,-0.00714111,-1.25189,0,0,0,0,0,0,0,-1,818,680,-0.00714956,1.25191
-399,344,0.240051,-1.75769,0,0,0,0,0,0,0,-1,825,680,0.240079,1.75767
-392,344,1.11353,-2.05615,0,0,0,0,0,0,0,-1,832,680,1.11351,2.05616
-385,344,0,0,0,0,0,0,0,0,0,-1,839,680,0,0
-378,344,0,0,0,0,0,0,0,0,0,-1,846,680,0,0
-371,344,0,0,0,0,0,0,0,0,0,-1,853,680,0,0
-364,344,0,0,0,0,0,0,0,0,0,-1,860,680,0,0
-357,344,0,0,0,0,0,0,0,0,0,-1,867,680,0,0
-350,344,0,0,0,0,0,0,0,0,0,-1,874,680,0,0
-343,344,0,0,0,0,0,0,0,0,0,-1,881,680,0,0
-336,344,0,0,0,0,0,0,0,0,0,-1,888,680,0,0
-329,344,0,0,0,0,0,0,0,0,0,-1,895,680,0,0
-322,344,0,0,0,0,0,0,0,0,0,-1,902,680,0,0
-315,344,0,0,0,0,0,0,0,0,0,-1,909,680,0,0
-308,344,0,0,0,0,0,0,0,0,0,-1,916,680,0,0
-301,344,0,0,0,0,0,0,0,0,0,-1,923,680,0,0
-294,344,0,0,0,0,0,0,0,0,0,-1,930,680,0,0
-287,344,0,0,0,0,0,0,0,0,0,-1,937,680,0,0
-280,344,0,0,0,0,0,0,0,0,0,-1,944,680,0,0
-273,344,0,0,0,0,0,0,0,0,0,-1,951,680,0,0
-266,344,0,0,0,0,0,0,0,0,0,-1,958,680,0,0
-259,344,0,0,0,0,0,0,0,0,0,-1,965,680,0,0
-252,344,0,0,0,0,0,0,0,0,0,-1,972,680,0,0
-245,344,0,0,0,0,0,0,0,0,0,-1,979,680,0,0
-238,344,0,0,0,0,0,0,0,0,0,-1,986,680,0,0
-231,344,0,0,0,0,0,0,0,0,0,-1,993,680,0,0
-224,344,0,0,0,0,0,0,0,0,0,-1,1000,680,0,0
-217,344,0,0,0,0,0,0,0,0,0,-1,1007,680,0,0
-210,344,0,0,0,0,0,0,0,0,0,-1,1014,680,0,0
-203,344,0,0,0,0,0,0,0,0,0,-1,1021,680,0,0
-196,344,0,0,0,0,0,0,0,0,0,-1,1028,680,0,0
-189,344,0,0,0,0,0,0,0,0,0,-1,1035,680,0,0
-182,344,0,0,0,0,0,0,0,0,0,-1,1042,680,0,0
-175,344,0,0,0,0,0,0,0,0,0,-1,1049,680,0,0
-168,344,0,0,0,0,0,0,0,0,0,-1,1056,680,0,0
-161,344,0,0,0,0,0,0,0,0,0,-1,1063,680,0,0
-154,344,0,0,0,0,0,0,0,0,0,-1,1070,680,0,0
-147,344,0,0,0,0,0,0,0,0,0,-1,1077,680,0,0
-140,344,0,0,0,0,0,0,0,0,0,-1,1084,680,0,0
-133,344,0,0,0,0,0,0,0,0,0,-1,1091,680,0,0
-126,344,0,0,0,0,0,0,0,0,0,-1,1098,680,0,0
-119,344,0,0,0,0,0,0,0,0,0,-1,1105,680,0,0
-112,344,0,0,0,0,0,0,0,0,0,-1,1112,680,0,0
-105,344,0,0,0,0,0,0,0,0,0,-1,1119,680,0,0
-98,344,0,0,0,0,0,0,0,0,0,-1,1126,680,0,0
-91,344,0,0,0,0,0,0,0,0,0,-1,1133,680,0,0
-84,344,0,0,0,0,0,0,0,0,0,-1,1140,680,0,0
-77,344,0,0,0,0,0,0,0,0,0,-1,1147,680,0,0
-70,344,0,0,0,0,0,0,0,0,0,-1,1154,680,0,0
-63,344,0,0,0,0,0,0,0,0,0,-1,1161,680,0,0
-56,344,0,0,0,0,0,0,0,0,0,-1,1168,680,0,0
-49,344,0,0,0,0,0,0,0,0,0,-1,1175,680,0,0
-42,344,0,0,0,0,0,0,0,0,0,-1,1182,680,0,0
-35,344,0,0,0,0,0,0,0,0,0,-1,1189,680,0,0
-28,344,0,0,0,0,0,0,0,0,0,-1,1196,680,0,0
-21,344,0,0,0,0,0,0,0,0,0,-1,1203,680,0,0
-14,344,0,0,0,0,0,0,0,0,0,-1,1210,680,0,0
-7,344,0,0,0,0,0,0,0,0,0,-1,1217,680,0,0
0,344,0,0,0,0,0,0,0,0,0,-1,1224,680,0,0
7,344,0,0,0,0,0,0,0,0,0,-1,1231,680,0,0
14,344,0,0,0,0,0,0,0,0,0,-1,1238,680,0,0
21,344,0,0,0,0,0,0,0,0,0,-1,1245,680,0,0
28,344,0,0,0,0,0,0,0,0,0,-1,1252,680,0,0
35,344,0,0,0,0,0,0,0,0,0,-1,1259,680,0,0
42,344,0,0,0,0,0,0,0,0,0,-1,1266,680,0,0
49,344,0,0,0,0,0,0,0,0,0,-1,1273,680,0,0
56,344,0,0,0,0,0,0,0,0,0,-1,1280,680,0,0
63,344,0,0,0,0,0,0,0,0,0,-1,1287,680,0,0
70,344,0,0,0,0,0,0,0,0,0,-1,1294,680,0,0
77,344,0,0,0,0,0,0,0,0,0,-1,1301,680,0,0
84,344,0,0,0,0,0,0,0,0,0,-1,1308,680,0,0
91,344,0,0,0,0,0,0,0,0,0,-1,1315,680,0,0
98,344,0,0,0,0,0,0,0,0,0,-1,1322,680,0,0
105,344,0,0,0,0,0,0,0,0,0,-1,1329,680,0,0
112,344,0,0,0,0,0,0,0,0,0,-1,1336,680,0,0
119,344,0,0,0,0,0,0,0,0,0,-1,1343,680,0,0
126,344,0,0,0,0,0,0,0,0,0,-1,1350,680,0,0
133,344,0,0,0,0,0,0,0,0,0,-1,1357,680,0,0
140,344,0,0,0,0,0,0,0,0,0,-1,1364,680,0,0
147,344,0,0,0,0,0,0,0,0,0,-1,1371,680,0,0
154,344,0,0,0,0,0,0,0,0,0,-1,1378,680,0,0
161,344,0,0,0,0,0,0,0,0,0,-1,1385,680,0,0
168,344,0,0,0,0,0,0,0,0,0,-1,1392,680,0,0
175,344,0,0,0,0,0,0,0,0,0,-1,1399,680,0,0
182,344,0,0,0,0,0,0,0,0,0,-1,1406,680,0,0
189,344,0,0,0,0,0,0,0,0,0,-1,1413,680,0,0
196,344,0,0,0,0,0,0,0,0,0,-1,1420,680,0,0
203,344,0,0,0,0,0,0,0,0,0,-1,1427,680,0,0
210,344,0,0,0,0,0,0,0,0,0,-1,1434,680,0,0
217,344,0,0,0,0,0,0,0,0,0,-1,1441,680,0,0
224,344,0,0,0,0,0,0,0,0,0,-1,1448,680,0,0
231,344,0,0,0,0,0,0,0,0,0,-1,1455,680,0,0
238,344,0,0,0,0,0,0,0,0,0,-1,1462,680,0,0
245,344,0,0,0,0,0,0,0,0,0,-1,1469,680,0,0
252,344,0,0,0,0,0,0,0,0,0,-1,1476,680,0,0
259,344,0,0,0,0,0,0,0,0,0,-1,1483,680,0,0
266,344,0,0,0,0,0,0,0,0,0,-1,1490,680,0,0
273,344,0,0,0,0,0,0,0,0,0,-1,1497,680,0,0
280,344,0,0,0,0,0,0,0,0,0,-1,1504,680,0,0
287,344,0,0,0,0,0,0,0,0,0,-1,1511,680,0,0
294,344,0,0,0,0,0,0,0,0,0,-1,1518,680,0,0
301,344,0,0,0,0,0,0,0,0,0,-1,1525,680,0,0
308,344,0,0,0,0,0,0,0,0,0,-1,1532,680,0,0
315,344,0,0,0,0,0,0,0,0,0,-1,1539,680,0,0
322,344,0,0,0,0,0,0,0,0,0,-1,1546,680,0,0
329,344,0,0,0,0,0,0,0,0,0,-1,1553,680,0,0
336,344,0,0,0,0,0,0,0,0,0,-1,1560,680,0,0
343,344,0,0,0,0,0,0,0,0,0,-1,1567,680,0,0
350,344,0,0,0,0,0,0,0,0,0,-1,1574,680,0,0
357,344,0,0,0,0,0,0,0,0,0,-1,1581,680,0,0
364,344,0,0,0,0,0,0,0,0,0,-1,1588,680,0,0
371,344,0,0,0,0,0,0,0,0,0,-1,1595,680,0,0
378,344,0,0,0,0,0,0,0,0,0,-1,1602,680,0,0
385,344,0,0,0,0,0,0,0,0,0,-1,1609,680,0,0
392,344,0,0,0,0,0,0,0,0,0,-1,1616,680,0,0
399,344,0,0,0,0,0,0,0,0,0,-1,1623,680,0,0
406,344,0,0,0,0,0,0,0,0,0,-1,1630,680,0,0
413,344,0,0,0,0,0,0,0,0,0,-1,1637,680,0,0
420,344,0,0,0,0,0,0,0,0,0,-1,1644,680,0,0
427,344,0,0,0,0,0,0,0,0,0,-1,1651,680,0,0
434,344,0,0,0,0,0,0,0,0,0,-1,1658,680,0,0
441,344,0,0,0,0,0,0,0,0,0,-1,1665,680,0,0
448,344,0,0,0,0,0,0,0,0,0,-1,1672,680,0,0
455,344,0,0,0,0,0,0,0,0,0,-1,1679,680,0,0
462,344,0,0,0,0,0,0,0,0,0,-1,1686,680,0,0
469,344,0,0,0,0,0,0,0,0,0,-1,1693,680,0,0
476,344,0,0,0,0,0,0,0,0,0,-1,1700,680,0,0
483,344,0,0,0,0,0,0,0,0,0,-1,1707,680,0,0
490,344,0,0,0,0,0,0,0,0,0,-1,1714,680,0,0
497,344,0,0,0,0,0,0,0,0,0,-1,1721,680,0,0
504,344,0,0,0,0,0,0,0,0,0,-1,1728,680,0,0
511,344,15.4819,0.452637,0,0,0,0,0,0,0,-1,1735,680,15.4819,-0.452656
518,344,17.1357,2.31207,0,0,0,0,0,0,0,-1,1742,680,17.1358,-2.31207
525,344,31.5201,2.6217,0,0,0,0,0,0,0,-1,1749,680,31.5201,-2.62168
532,344,31.9766,2.61047,0,0,0,0,0,0,0,-1,1756,680,31.9765,-2.6105
539,344,32.4379,2.65314,0,0,0,0,0,0,0,-1,1763,680,32.4378,-2.65316
546,344,14.6722,4.30243,0,0,0,0,0,0,0,-1,1770,680,14.6722,-4.30241
553,344,14.8136,4.35681,0,0,0,0,0,0,0,-1,1777,680,14.8136,-4.35679
560,344,11.9363,2.14185,0,0,0,0,0,0,0,-1,1784,680,11.9362,-2.14182
567,344,11.397,0.925842,0,0,0,0,0,0,0,-1,1791,680,11.397,-0.92583
574,344,10.0004,0.504639,0,0,0,0,0,0,0,-1,1798,680,10.0004,-0.504645
581,344,13.6709,-0.969604,0,0,0,0,0,0,0,-1,1805,680,13.6709,0.969629
588,344,16.1447,-3.15948,0,0,0,0,0,0,0,-1,1812,680,16.1447,3.15946
595,344,16.4623,-2.9245,0,0,0,0,0,0,0,-1,1819,680,16.4623,2.92451
602,344,16.7375,-2.41663,0.00132967,0.0165342,0.00492774,0.0179916,-0.000127704,1.28324,0.0120372,0.0406707,1826,680,16.7375,2.41661
609,344,16.6387,-2.0556,0.00327615,0.0100444,0.00199616,0.0105892,0.00273128,1.30433,0.00634804,0.0157403,1833,680,16.6386,2.05557
616,344,16.6088,-1.63416,0.00317647,0.00599362,0.00134317,0.00653137,0.00263872,1.18998,0.00379398,0.0217887,1840,680,16.6087,1.63417
623,344,16.6152,-1.25525,0.00207887,0.00341183,0.000907527,0.00387132,0.00161938,1.10212,0.00224503,0.0189663,1847,680,16.6152,1.25523
630,344,16.6394,-0.901428,0.000498337,0.00143474,0.000478598,0.00163607,0.00029701,1.17261,0.00100643,0.0241717,1854,680,16.6393,0.901452
637,344,16.642,-0.49408,-0.000894833,0.000407299,-0.000134635,0.000421075,-0.000908608,-1.46884,0.000784705,0.0246932,1861,680,16.6419,0.494078
644,344,16.5845,-0.111633,-0.00247181,7.23141e-07,-0.000924034,0.000307892,-0.00277898,-1.24987,0.00196335,0.0174744,1868,680,16.5844,0.111626
651,344,16.5789,0.286743,-0.00438968,-0.000379429,-0.00176402,0.000286079,-0.00505518,-1.21004,0.00346942,0.011794,1875,680,16.5789,-0.286715
658,344,16.5411,0.744568,-0.00681266,-0.000904416,-0.00285745,0.000251431,-0.00796851,-1.18641,0.0053981,0.0208596,1882,680,16.5412,-0.744538
665,344,16.4257,1.08313,-0.00982896,-0.00155609,-0.00416408,0.000176858,-0.0115619,-1.17643,0.00776756,0.0326966,1889,680,16.4256,-1.08312
672,344,16.5176,1.32324,-0.0136245,-0.00245946,-0.0058349,3.33199e-05,-0.0161173,-1.16705,0.010756,0.0286114,1896,680,16.5176,-1.32323
679,344,16.5011,1.68225,0,0,0,0,0,0,0,-1,1903,680,16.5011,-1.68226
686,344,15.024,1.82709,0,0,0,0,0,0,0,-1,1910,680,15.024,-1.82706
693,344,12.4362,-1.42346,0,0,0,0,0,0,0,-1,1917,680,12.4361,1.42348
700,344,17.5396,2.61206,0,0,0,0,0,0,0,-1,1924,680,17.5396,-2.61204
707,344,18.5829,3.29352,0,0,0,0,0,0,0,-1,1931,680,18.5828,-3.2935
714,344,0,0,0,0,0,0,0,0,0,-1,1938,680,0,0
721,344,0,0,0,0,0,0,0,0,0,-1,1945,680,0,0
728,344,0,0,0,0,0,0,0,0,0,-1,1952,680,0,0
735,344,0,0,0,0,0,0,0,0,0,-1,1959,680,0,0
742,344,0,0,0,0,0,0,0,0,0,-1,1966,680,0,0
749,344,0,0,0,0,0,0,0,0,0,-1,1973,680,0,0
756,344,0,0,0,0,0,0,0,0,0,-1,1980,680,0,0
763,344,0,0,0,0,0,0,0,0,0,-1,1987,680,0,0
770,344,0,0,0,0,0,0,0,0,0,-1,1994,680,0,0
777,344,0,0,0,0,0,0,0,0,0,-1,2001,680,0,0
784,344,0,0,0,0,0,0,0,0,0,-1,2008,680,0,0
791,344,0,0,0,0,0,0,0,0,0,-1,2015,680,0,0
798,344,0,0,0,0,0,0,0,0,0,-1,2022,680,0,0
805,344,0,0,0,0,0,0,0,0,0,-1,2029,680,0,0
812,344,0,0,0,0,0,0,0,0,0,-1,2036,680,0,0
-700,337,0,0,0,0,0,0,0,0,0,-1,524,687,0,0
-693,337,0,0,0,0,0,0,0,0,0,-1,531,687,0,0
-686,337,0,0,0,0,0,0,0,0,0,-1,538,687,0,0
-679,337,0,0,0,0,0,0,0,0,0,-1,545,687,0,0
-672,337,0,0,0,0,0,0,0,0,0,-1,552,687,0,0
-665,337,0,0,0,0,0,0,0,0,0,-1,559,687,0,0
-658,337,0,0,0,0,0,0,0,0,0,-1,566,687,0,0
-651,337,0,0,0,0,0,0,0,0,0,-1,573,687,0,0
-644,337,0,0,0,0,0,0,0,0,0,-1,580,687,0,0
-637,337,0,0,0,0,0,0,0,0,0,-1,587,687,0,0
-630,337,0,0,0,0,0,0,0,0,0,-1,594,687,0,0
-623,337,0,0,0,0,0,0,0,0,0,-1,601,687,0,0
-616,337,0,0,0,0,0,0,0,0,0,-1,608,687,0,0
-609,337,0,0,0,0,0,0,0,0,0,-1,615,687,0,0
-602,337,0,0,0,0,0,0,0,0,0,-1,622,687,0,0
-595,337,0,0,0,0,0,0,0,0,0,-1,629,687,0,0
-588,337,-10.8413,1.27863,0,0,0,0,0,0,0,-1,636,687,-10.8413,-1.27861
-581,337,-11.2157,1.31567,0,0,0,0,0,0,0,-1,643,687,-11.2157,-1.3157
-574,337,-6.03339,2.0321,0,0,0,0,0,0,0,-1,650,687,-6.03337,-2.03213
-567,337,-10.5195,1.95404,0,0,0,0,0,0,0,-1,657,687,-10.5195,-1.95402
-560,337,-10.2062,1.26654,0.0369956,0.00421651,-0.0209958,0.0472414,-0.00602923,-0.453994,0.0336843,0.0488998,664,687,-10.2062,-1.26655
-553,337,-9.88629,0.577148,0.0289467,0.00662878,-0.0185954,0.0394744,-0.00389889,-0.515154,0.0277075,0.0483771,671,687,-9.88626,-0.577134
-546,337,-9.49243,0.0352783,0.0219787,0.00750448,-0.0157265,0.0320533,-0.00257019,-0.569752,0.0222751,0.0416205,678,687,-9.49243,-0.0352831
-539,337,-9.20691,-0.758728,0.0163701,0.00739155,-0.0128724,0.0255136,-0.00175198,-0.617617,0.0176221,0.0279034,685,687,-9.20693,0.758743
-532,337,-9.27429,-1.25885,0.0118338,0.00662943,-0.0101301,0.0196906,-0.0012274,-0.659679,0.0135547,0.0175981,692,687,-9.27427,1.25888
-525,337,-9.32928,-1.62543,0.00820686,0.00548163,-0.00755604,0.0145222,-0.00083368,-0.69619,0.00997096,0.0160347,699,687,-9.32928,1.6254
-518,337,-9.32233,-1.99585,0.00542626,0.00418428,-0.00529543,0.010137,-0.000526445,-0.72703,0.00694013,0.0239811,706,687,-9.32235,1.99584
-511,337,-9.32098,-2.35608,0.00339622,0.00291308,-0.00340101,0.00656423,-0.000254929,-0.749943,0.00446356,0.0240728,713,687,-9.32099,2.35607
-504,337,-9.31592,-2.73645,0.0019499,0.00190987,-0.00192474,0.00385473,5.04463e-06,-0.780199,0.00256814,0.0236694,720,687,-9.3159,2.73645
-497,337,-9.31525,-3.08759,0.00114964,0.000822741,-0.000776172,0.00177939,0.000192997,-0.681621,0.00112745,0.0162558,727,687,-9.31525,3.08759
-490,337,-9.33252,-3.45026,0.00112874,0.000163331,-0.000254868,0.00119189,0.000100177,-0.242899,0.000763396,0.0135012,734,687,-9.33253,3.45025
-483,337,-9.32336,-3.82239,0.00148337,-2.80801e-05,-0.000187837,0.00150636,-5.1074e-05,-0.121808,0.00102169,0.0142654,741,687,-9.32336,3.82239
-476,337,-9.31958,-4.19189,0.00212228,0.00113435,-0.00108457,0.00282007,0.000436558,-0.571712,0.00175275,0.0129392,748,687,-9.31956,4.19189
-469,337,-9.31293,-4.63049,0.0031006,0.00204106,-0.00247254,0.00509949,4.21689e-05,-0.679864,0.00338569,0.029766,755,687,-9.31292,4.6305
-462,337,-9.18988,-4.93085,0,0,0,0,0,0,0,-1,762,687,-9.18987,4.93085
-455,337,-6.00574,-3.12933,0,0,0,0,0,0,0,-1,769,687,-6.00576,3.12934
-448,337,-5.30627,-2.07202,0,0,0,0,0,0,0,-1,776,687,-5.30628,2.07205
-441,337,-4.24762,-1.49597,0,0,0,0,0,0,0,-1,783,687,-4.24762,1.49598
-434,337,-6.86908,1.37531,0,0,0,0,0,0,0,-1,790,687,-6.86908,-1.3753
-427,337,-9.92004,2.487,0,0,0,0,0,0,0,-1,797,687,-9.92002,-2.48701
-420,337,-2.95996,-1.76697,0,0,0,0,0,0,0,-1,804,687,-2.95998,1.76696
-413,337,-1.29169,-1.99487,0,0,0,0,0,0,0,-1,811,687,-1.29171,1.9949
-406,337,-1.02356,-1.89563,0,0,0,0,0,0,0,-1,818,687,-1.02357,1.89564
-399,337,-0.472839,-2.21338,0,0,0,0,0,0,0,-1,825,687,-0.472837,2.2134
-392,337,0,0,0,0,0,0,0,0,0,-1,832,687,0,0
-385,337,0,0,0,0,0,0,0,0,0,-1,839,687,0,0
-378,337,0,0,0,0,0,0,0,0,0,-1,846,687,0,0
-371,337,0,0,0,0,0,0,0,0,0,-1,853,687,0,0
-364,337,0,0,0,0,0,0,0,0,0,-1,860,687,0,0
-357,337,0,0,0,0,0,0,0,0,0,-1,867,687,0,0
-350,337,0,0,0,0,0,0,0,0,0,-1,874,687,0,0
-343,337,0,0,0,0,0,0,0,0,0,-1,881,687,0,0
-336,337,0,0,0,0,0,0,0,0,0,-1,888,687,0,0
-329,337,0,0,0,0,0,0,0,0,0,-1,895,687,0,0
-322,337,0,0,0,0,0,0,0,0,0,-1,902,687,0,0
-315,337,0,0,0,0,0,0,0,0,0,-1,909,687,0,0
-308,337,0,0,0,0,0,0,0,0,0,-1,916,687,0,0
-301,337,0,0,0,0,0,0,0,0,0,-1,923,687,0,0
-294,337,0,0,0,0,0,0,0,0,0,-1,930,687,0,0
-287,337,0,0,0,0,0,0,0,0,0,-1,937,687,0,0
-280,337,0,0,0,0,0,0,0,0,0,-1,944,687,0,0
-273,337,0,0,0,0,0,0,0,0,0,-1,951,687,0,0
-266,337,0,0,0,0,0,0,0,0,0,-1,958,687,0,0
-259,337,0,0,0,0,0,0,0,0,0,-1,965,687,0,0
-252,337,0,0,0,0,0,0,0,0,0,-1,972,687,0,0
-245,337,0,0,0,0,0,0,0,0,0,-1,979,687,0,0
-238,337,0,0,0,0,0,0,0,0,0,-1,986,687,0,0
-231,337,0,0,0,0,0,0,0,0,0,-1,993,687,0,0
-224,337,0,0,0,0,0,0,0,0,0,-1,1000,687,0,0
-217,337,0,0,0,0,0,0,0,0,0,-1,1007,687,0,0
-210,337,0,0,0,0,0,0,0,0,0,-1,1014,687,0,0
-203,337,0,0,0,0,0,0,0,0,0,-1,1021,687,0,0
-196,337,0,0,0,0,0,0,0,0,0,-1,1028,687,0,0
-189,337,0,0,0,0,0,0,0,0,0,-1,1035,687,0,0
-182,337,0,0,0,0,0,0,0,0,0,-1,1042,687,0,0
-175,337,0,0,0,0,0,0,0,0,0,-1,1049,687,0,0
-168,337,0,0,0,0,0,0,0,0,0,-1,1056,687,0,0
-161,337,0,0,0,0,0,0,0,0,0,-1,1063,687,0,0
-154,337,0,0,0,0,0,0,0,0,0,-1,1070,687,0,0
-147,337,0,0,0,0,0,0,0,0,0,-1,1077,687,0,0
-140,337,0,0,0,0,0,0,0,0,0,-1,1084,687,0,0
-133,337,0,0,0,0,0,0,0,0,0,-1,1091,687,0,0
-126,337,0,0,0,0,0,0,0,0,0,-1,1098,687,0,0
-119,337,0,0,0,0,0,0,0,0,0,-1,1105,687,0,0
-112,337,0,0,0,0,0,0,0,0,0,-1,1112,687,0,0
-105,337,0,0,0,0,0,0,0,0,0,-1,1119,687,0,0
-98,337,0,0,0,0,0,0,0,0,0,-1,1126,687,0,0
-91,337,0,0,0,0,0,0,0,0,0,-1,1133,687,0,0
-84,337,0,0,0,0,0,0,0,0,0,-1,1140,687,0,0
-77,337,0,0,0,0,0,0,0,0,0,-1,1147,687,0,0
-70,337,0,0,0,0,0,0,0,0,0,-1,1154,687,0,0
-63,337,0,0,0,0,0,0,0,0,0,-1,1161,687,0,0
-56,337,0,0,0,0,0,0,0,0,0,-1,1168,687,0,0
-49,337,0,0,0,0,0,0,0,0,0,-1,1175,687,0,0
-42,337,0,0,0,0,0,0,0,0,0,-1,1182,687,0,0
-35,337,0,0,0,0,0,0,0,0,0,-1,1189,687,0,0
-28,337,0,0,0,0,0,0,0,0,0,-1,1196,687,0,0
-21,337,0,0,0,0,0,0,0,0,0,-1,1203,687,0,0
-14,337,0,0,0,0,0,0,0,0,0,-1,1210,687,0,0
-7,337,0,0,0,0,0,0,0,0,0,-1,1217,687,0,0
0,337,0,0,0,0,0,0,0,0,0,-1,1224,687,0,0
7,337,0,0,0,0,0,0,0,0,0,-1,1231,687,0,0
14,337,0,0,0,0,0,0,0,0,0,-1,1238,687,0,0
21,337,0,0,0,0,0,0,0,0,0,-1,1245,687,0,0
28,337,0,0,0,0,0,0,0,0,0,-1,1252,687,0,0
35,337,0,0,0,0,0,0,0,0,0,-1,1259,687,0,0
42,337,0,0,0,0,0,0,0,0,0,-1,1266,687,0,0
49,337,0,0,0,0,0,0,0,0,0,-1,1273,687,0,0
56,337,0,0,0,0,0,0,0,0,0,-1,1280,687,0,0
63,337,0,0,0,0,0,0,0,0,0,-1,1287,687,0,0
70,337,0,0,0,0,0,0,0,0,0,-1,1294,687,0,0
77,337,0,0,0,0,0,0,0,0,0,-1,1301,687,0,0
84,337,0,0,0,0,0,0,0,0,0,-1,1308,687,0,0
91,337,0,0,0,0,0,0,0,0,0,-1,1315,687,0,0
98,337,0,0,0,0,0,0,0,0,0,-1,1322,687,0,0
105,337,0,0,0,0,0,0,0,0,0,-1,1329,687,0,0
112,337,0,0,0,0,0,0,0,0,0,-1,1336,687,0,0
119,337,0,0,0,0,0,0,0,0,0,-1,1343,687,0,0
126,337,0,0,0,0,0,0,0,0,0,-1,1350,687,0,0
133,337,0,0,0,0,0,0,0,0,0,-1,1357,687,0,0
140,337,0,0,0,0,0,0,0,0,0,-1,1364,687,0,0
147,337,0,0,0,0,0,0,0,0,0,-1,1371,687,0,0
154,337,0,0,0,0,0,0,0,0,0,-1,1378,687,0,0
161,337,0,0,0,0,0,0,0,0,0,-1,1385,687,0,0
168,337,0,0,0,0,0,0,0,0,0,-1,1392,687,0,0
175,337,0,0,0,0,0,0,0,0,0,-1,1399,687,0,0
182,337,0,0,0,0,0,0,0,0,0,-1,1406,687,0,0
189,337,0,0,0,0,0,0,0,0,0,-1,1413,687,0,0
196,337,0,0,0,0,0,0,0,0,0,-1,1420,687,0,0
203,337,0,0,0,0,0,0,0,0,0,-1,1427,687,0,0
210,337,0,0,0,0,0,0,0,0,0,-1,1434,687,0,0
217,337,0,0,0,0,0,0,0,0,0,-1,1441,687,0,0
224,337,0,0,0,0,0,0,0,0,0,-1,1448,687,0,0
231,337,0,0,0,0,0,0,0,0,0,-1,1455,687,0,0
238,337,0,0,0,0,0,0,0,0,0,-1,1462,687,0,0
245,337,0,0,0,0,0,0,0,0,0,-1,1469,687,0,0
252,337,0,0,0,0,0,0,0,0,0,-1,1476,687,0,0
259,337,0,0,0,0,0,0,0,0,0,-1,1483,687,0,0
266,337,0,0,0,0,0,0,0,0,0,-1,1490,687,0,0
273,337,0,0,0,0,0,0,0,0,0,-1,1497,687,0,0
280,337,0,0,0,0,0,0,0,0,0,-1,1504,687,0,0
287,337,0,0,0,0,0,0,0,0,0,-1,1511,687,0,0
294,337,0,0,0,0,0,0,0,0,0,-1,1518,687,0,0
301,337,0,0,0,0,0,0,0,0,0,-1,1525,687,0,0
308,337,0,0,0,0,0,0,0,0,0,-1,1532,687,0,0
315,337,0,0,0,0,0,0,0,0,0,-1,1539,687,0,0
322,337,0,0,0,0,0,0,0,0,0,-1,1546,687,0,0
329,337,0,0,0,0,0,0,0,0,0,-1,1553,687,0,0
336,337,0,0,0,0,0,0,0,0,0,-1,1560,687,0,0
343,337,0,0,0,0,0,0,0,0,0,-1,1567,687,0,0
350,337,0,0,0,0,0,0,0,0,0,-1,1574,687,0,0
357,337,0,0,0,0,0,0,0,0,0,-1,1581,687,0,0
364,337,0,0,0,0,0,0,0,0,0,-1,1588,687,0,0
371,337,0,0,0,0,0,0,0,0,0,-1,1595,687,0,0
378,337,0,0,0,0,0,0,0,0,0,-1,1602,687,0,0
385,337,0,0,0,0,0,0,0,0,0,-1,1609,687,0,0
392,337,0,0,0,0,0,0,0,0,0,-1,1616,687,0,0
399,337,0,0,0,0,0,0,0,0,0,-1,1623,687,0,0
406,337,0,0,0,0,0,0,0,0,0,-1,1630,687,0,0
413,337,0,0,0,0,0,0,0,0,0,-1,1637,687,0,0
420,337,0,0,0,0,0,0,0,0,0,-1,1644,687,0,0
427,337,0,0,0,0,0,0,0,0,0,-1,1651,687,0,0
434,337,0,0,0,0,0,0,0,0,0,-1,1658,687,0,0
441,337,0,0,0,0,0,0,0,0,0,-1,1665,687,0,0
448,337,0,0,0,0,0,0,0,0,0,-1,1672,687,0,0
455,337,0,0,0,0,0,0,0,0,0,-1,1679,687,0,0
462,337,0,0,0,0,0,0,0,0,0,-1,1686,687,0,0
469,337,0,0,0,0,0,0,0,0,0,-1,1693,687,0,0
476,337,0,0,0,0,0,0,0,0,0,-1,1700,687,0,0
483,337,0,0,0,0,0,0,0,0,0,-1,1707,687,0,0
490,337,0,0,0,0,0,0,0,0,0,-1,1714,687,0,0
497,337,0,0,0,0,0,0,0,0,0,-1,1721,687,0,0
504,337,0,0,0,0,0,0,0,0,0,-1,1728,687,0,0
511,337,0,0,0,0,0,0,0,0,0,-1,1735,687,0,0
518,337,18.0369,1.64581,0,0,0,0,0,0,0,-1,1742,687,18.0368,-1.64581
525,337,31.0717,2.13745,0,0,0,0,0,0,0,-1,1749,687,31.0717,-2.13747
532,337,31.5126,2.13904,0,0,0,0,0,0,0,-1,1756,687,31.5125,-2.13905
539,337,31.9684,2.15594,0,0,0,0,0,0,0,-1,1763,687,31.9684,-2.15596
546,337,32.3584,1.43719,0,0,0,0,0,0,0,-1,1770,687,32.3585,-1.43722
553,337,32.1809,1.36395,0,0,0,0,0,0,0,-1,1777,687,32.181,-1.36396
560,337,18.4053,3.62793,0,0,0,0,0,0,0,-1,1784,687,18.4052,-3.6279
567,337,11.9288,1.38776,0,0,0,0,0,0,0,-1,1791,687,11.9288,-1.38777
574,337,10.704,1.19476,0,0,0,0,0,0,0,-1,1798,687,10.704,-1.19478
581,337,8.50427,0.561768,0,0,0,0,0,0,0,-1,1805,687,8.5043,-0.561754
588,337,8.5885,-0.0536499,0,0,0,0,0,0,0,-1,1812,687,8.58844,0.0536788
595,337,13.8816,-1.70703,0,0,0,0,0,0,0,-1,1819,687,13.8816,1.70702
602,337,16.9642,-2.48926,0,0,0,0,0,0,0,-1,1826,687,16.9643,2.48924
609,337,17.0153,-2.01752,0.0017455,0.0156869,0.00379741,0.0166542,0.000778249,1.32139,0.0108527,0.0261656,1833,687,17.0153,2.01751
616,337,16.9939,-1.62915,0.00285465,0.00996367,0.00251664,0.0107644,0.00205393,1.26275,0.00659904,0.0172223,1840,687,16.9939,1.62916
623,337,16.9901,-1.24396,0.00232178,0.00594158,0.00165436,0.00658375,0.00167961,1.20053,0.00395017,0.0138488,1847,687,16.9901,1.24398
630,337,16.9952,-0.881531,0.000698252,0.00264798,0.000962743,0.00304323,0.000302993,1.18122,0.00193575,0.0173201,1854,687,16.9953,0.881549
637,337,16.9963,-0.499878,-0.000638739,0.000784357,0.000159324,0.000801976,-0.000656358,1.46066,0.000843368,0.0165181,1861,687,16.9964,0.499907
644,337,16.9572,-0.086792,-0.00207101,-8.38473e-05,-0.000748633,0.000166619,-0.00232147,-1.24794,0.00160607,0.011082,1868,687,16.9572,0.0867906
651,337,16.9451,0.30011,-0.00380887,-0.00046816,-0.00154516,0.000136922,-0.00441395,-1.19755,0.00298932,0.00978507,1875,687,16.9451,-0.300111
658,337,16.9485,0.68042,-0.00591601,-0.000814664,-0.00244787,0.000169914,-0.00690059,-1.18838,0.00465806,0.0116368,1882,687,16.9484,-0.680437
665,337,16.9628,1.05328,-0.00852308,-0.00125288,-0.00354048,0.000186358,-0.00996232,-1.18469,0.00670453,0.0151934,1889,687,16.9628,-1.0533
672,337,16.9255,1.39954,-0.0116713,-0.00179029,-0.00483891,0.000184672,-0.0136463,-1.18329,0.00915968,0.0240346,1896,687,16.9256,-1.39951
679,337,16.7225,1.78674,-0.015629,-0.00253306,-0.00643993,0.000103123,-0.0182651,-1.18226,0.0122113,0.0467859,1903,687,16.7225,-1.78676
686,337,16.6133,2.30933,0,0,0,0,0,0,0,-1,1910,687,16.6133,-2.30932
693,337,16.5415,2.21411,0,0,0,0,0,0,0,-1,1917,687,16.5415,-2.2141
700,337,17.2661,2.44379,0,0,0,0,0,0,0,-1,1924,687,17.2661,-2.44378
707,337,17.3544,5.61853,0,0,0,0,0,0,0,-1,1931,687,17.3543,-5.61851
714,337,0,0,0,0,0,0,0,0,0,-1,1938,687,0,0
721,337,0,0,0,0,0,0,0,0,0,-1,1945,687,0,0
728,337,0,0,0,0,0,0,0,0,0,-1,1952,687,0,0
735,337,0,0,0,0,0,0,0,0,0,-1,1959,687,0,0
742,337,0,0,0,0,0,0,0,0,0,-1,1966,687,0,0
749,337,0,0,0,0,0,0,0,0,0,-1,1973,687,0,0
756,337,0,0,0,0,0,0,0,0,0,-1,1980,687,0,0
763,337,0,0,0,0,0,0,0,0,0,-1,1987,687,0,0
770,337,0,0,0,0,0,0,0,0,0,-1,1994,687,0,0
777,337,0,0,0,0,0,0,0,0,0,-1,2001,687,0,0
784,337,0,0,0,0,0,0,0,0,0,-1,2008,687,0,0
791,337,0,0,0,0,0,0,0,0,0,-1,2015,687,0,0
798,337,0,0,0,0,0,0,0,0,0,-1,2022,687,0,0
805,337,0,0,0,0,0,0,0,0,0,-1,2029,687,0,0
812,337,0,0,0,0,0,0,0,0,0,-1,2036,687,0,0
-700,330,0,0,0,0,0,0,0,0,0,-1,524,694,0,0
-693,330,0,0,0,0,0,0,0,0,0,-1,531,694,0,0
-686,330,0,0,0,0,0,0,0,0,0,-1,538,694,0,0
-679,330,0,0,0,0,0,0,0,0,0,-1,545,694,0,0
-672,330,0,0,0,0,0,0,0,0,0,-1,552,694,0,0
-665,330,0,0,0,0,0,0,0,0,0,-1,559,694,0,0
-658,330,0,0,0,0,0,0,0,0,0,-1,566,694,0,0
-651,330,0,0,0,0,0,0,0,0,0,-1,573,694,0,0
-644,330,0,0,0,0,0,0,0,0,0,-1,580,694,0,0
-637,330,0,0,0,0,0,0,0,0,0,-1,587,694,0,0
-630,330,0,0,0,0,0,0,0,0,0,-1,594,694,0,0
-623,330,0,0,0,0,0,0,0,0,0,-1,601,694,0,0
-616,330,0,0,0,0,0,0,0,0,0,-1,608,694,0,0
-609,330,0,0,0,0,0,0,0,0,0,-1,615,694,0,0
-602,330,0,0,0,0,0,0,0,0,0,-1,622,694,0,0
-595,330,-4.67883,1.65515,0,0,0,0,0,0,0,-1,629,694,-4.67881,-1.65515
-588,330,-8.5047,2.67346,0,0,0,0,0,0,0,-1,636,694,-8.50469,-2.67348
-581,330,-12.4227,0.947083,0,0,0,0,0,0,0,-1,643,694,-12.4227,-0.947109
-574,330,-9.02118,1.87952,0,0,0,0,0,0,0,-1,650,694,-9.02115,-1.87953
-567,330,-8.35577,0.909973,0,0,0,0,0,0,0,-1,657,694,-8.35575,-0.909945
-560,330,-10.0031,0.282898,0,0,0,0,0,0,0,-1,664,694,-10.0031,-0.282907
-553,330,-9.78009,-0.0629272,0.0207226,0.00583268,-0.0131207,0.0283634,-0.00180812,-0.527339,0.0195395,0.0457787,671,694,-9.78012,0.0629182
-546,330,-9.58142,-0.472046,0.0158457,0.00621959,-0.0112204,0.0232418,-0.00117647,-0.582789,0.0159012,0.0289788,678,694,-9.58142,0.472027
-539,330,-9.58722,-0.881714,0.0119455,0.00595433,-0.00928522,0.0187064,-0.000806562,-0.62936,0.0127483,0.0140073,685,694,-9.58723,0.881701
-532,330,-9.70288,-1.24292,0.00870951,0.0052107,-0.0073277,0.0144937,-0.000573528,-0.668222,0.00985923,0.0108615,692,694,-9.70287,1.24294
-525,330,-9.69739,-1.63776,0.00606985,0.00418651,-0.00542292,0.0106323,-0.000375893,-0.699433,0.00721673,0.0113029,699,694,-9.69739,1.63776
-518,330,-9.67969,-1.95721,0.00403002,0.00307562,-0.00372365,0.00730692,-0.000201284,-0.721669,0.00493974,0.0156813,706,694,-9.67968,1.95722
-511,330,-9.67328,-2.3302,0.0025129,0.0020099,-0.0022573,0.00453267,-9.86923e-06,-0.729919,0.00302508,0.0206045,713,694,-9.67326,2.33019
-504,330,-9.67828,-2.73181,0.00145736,0.00113771,-0.00108587,0.0023951,0.000199971,-0.712331,0.00153443,0.0188021,720,694,-9.6783,2.73182
-497,330,-9.7016,-3.0719,0.00102168,0.000240036,-0.000222195,0.00108043,0.000181289,-0.258481,0.000668104,0.0136012,727,694,-9.70162,3.0719
-490,330,-9.67676,-3.44666,0.0011665,-0.000197279,0.000140509,0.00118082,-0.000211605,0.101607,0.000866407,0.0133764,734,694,-9.67679,3.44667
-483,330,-9.68085,-3.81213,0.00159154,-0.000201459,8.99982e-05,0.00159605,-0.000205965,0.0500266,0.00113891,0.013779,741,694,-9.68086,3.81216
-476,330,-9.69458,-4.16461,0.00223887,0.0014739,-0.00106181,0.00298498,0.000727789,-0.612524,0.0017972,0.0294845,748,694,-9.69459,4.16461
-469,330,-9.5531,-4.61859,0,0,0,0,0,0,0,-1,755,694,-9.55311,4.61857
-462,330,-7.26733,-3.84833,0,0,0,0,0,0,0,-1,762,694,-7.26731,3.84832
-455,330,-5.04254,-1.79303,0,0,0,0,0,0,0,-1,769,694,-5.04252,1.79305
-448,330,-4.89886,-1.66156,0,0,0,0,0,0,0,-1,776,694,-4.89886,1.66157
-441,330,-5.30676,-2.34045,0,0,0,0,0,0,0,-1,783,694,-5.30679,2.34048
-434,330,-7.20428,1.00024,0,0,0,0,0,0,0,-1,790,694,-7.20431,-1.00027
-427,330,-16.0428,2.89258,0,0,0,0,0,0,0,-1,797,694,-16.0428,-2.89259
-420,330,-15.2923,3.32672,0,0,0,0,0,0,0,-1,804,694,-15.2923,-3.32675
-413,330,-10.4567,2.56183,0,0,0,0,0,0,0,-1,811,694,-10.4567,-2.56182
-406,330,-1.65375,-1.74371,0,0,0,0,0,0,0,-1,818,694,-1.65375,1.74371
-399,330,0,0,0,0,0,0,0,0,0,-1,825,694,0,0
-392,330,0,0,0,0,0,0,0,0,0,-1,832,694,0,0
-385,330,0,0,0,0,0,0,0,0,0,-1,839,694,0,0
-378,330,0,0,0,0,0,0,0,0,0,-1,846,694,0,0
-371,330,0,0,0,0,0,0,0,0,0,-1,853,694,0,0
-364,330,0,0,0,0,0,0,0,0,0,-1,860,694,0,0
-357,330,0,0,0,0,0,0,0,0,0,-1,867,694,0,0
-350,330,0,0,0,0,0,0,0,0,0,-1,874,694,0,0
-343,330,0,0,0,0,0,0,0,0,0,-1,881,694,0,0
-336,330,0,0,0,0,0,0,0,0,0,-1,888,694,0,0
-329,330,0,0,0,0,0,0,0,0,0,-1,895,694,0,0
-322,330,0,0,0,0,0,0,0,0,0,-1,902,694,0,0
-315,330,0,0,0,0,0,0,0,0,0,-1,909,694,0,0
-308,330,0,0,0,0,0,0,0,0,0,-1,916,694,0,0
-301,330,0,0,0,0,0,0,0,0,0,-1,923,694,0,0
-294,330,0,0,0,0,0,0,0,0,0,-1,930,694,0,0
-287,330,0,0,0,0,0,0,0,0,0,-1,937,694,0,0
-280,330,0,0,0,0,0,0,0,0,0,-1,944,694,0,0
-273,330,0,0,0,0,0,0,0,0,0,-1,951,694,0,0
-266,330,0,0,0,0,0,0,0,0,0,-1,958,694,0,0
-259,330,0,0,0,0,0,0,0,0,0,-1,965,694,0,0
-252,330,0,0,0,0,0,0,0,0,0,-1,972,694,0,0
-245,330,0,0,0,0,0,0,0,0,0,-1,979,694,0,0
-238,330,0,0,0,0,0,0,0,0,0,-1,986,694,0,0
-231,330,0,0,0,0,0,0,0,0,0,-1,993,694,0,0
-224,330,0,0,0,0,0,0,0,0,0,-1,1000,694,0,0
-217,330,0,0,0,0,0,0,0,0,0,-1,1007,694,0,0
-210,330,0,0,0,0,0,0,0,0,0,-1,1014,694,0,0
-203,330,0,0,0,0,0,0,0,0,0,-1,1021,694,0,0
-196,330,0,0,0,0,0,0,0,0,0,-1,1028,694,0,0
-189,330,0,0,0,0,0,0,0,0,0,-1,1035,694,0,0
-182,330,0,0,0,0,0,0,0,0,0,-1,1042,694,0,0
-175,330,0,0,0,0,0,0,0,0,0,-1,1049,694,0,0
-168,330,0,0,0,0,0,0,0,0,0,-1,1056,694,0,0
-161,330,0,0,0,0,0,0,0,0,0,-1,1063,694,0,0
-154,330,0,0,0,0,0,0,0,0,0,-1,1070,694,0,0
-147,330,0,0,0,0,0,0,0,0,0,-1,1077,694,0,0
-140,330,0,0,0,0,0,0,0,0,0,-1,1084,694,0,0
-133,330,0,0,0,0,0,0,0,0,0,-1,1091,694,0,0
-126,330,0,0,0,0,0,0,0,0,0,-1,1098,694,0,0
-119,330,0,0,0,0,0,0,0,0,0,-1,1105,694,0,0
-112,330,0,0,0,0,0,0,0,0,0,-1,1112,694,0,0
-105,330,0,0,0,0,0,0,0,0,0,-1,1119,694,0,0
-98,330,0,0,0,0,0,0,0,0,0,-1,1126,694,0,0
-91,330,0,0,0,0,0,0,0,0,0,-1,1133,694,0,0
-84,330,0,0,0,0,0,0,0,0,0,-1,1140,694,0,0
-77,330,0,0,0,0,0,0,0,0,0,-1,1147,694,0,0
-70,330,0,0,0,0,0,0,0,0,0,-1,1154,694,0,0
-63,330,0,0,0,0,0,0,0,0,0,-1,1161,694,0,0
-56,330,0,0,0,0,0,0,0,0,0,-1,1168,694,0,0
-49,330,0,0,0,0,0,0,0,0,0,-1,1175,694,0,0
-42,330,0,0,0,0,0,0,0,0,0,-1,1182,694,0,0
-35,330,0,0,0,0,0,0,0,0,0,-1,1189,694,0,0
-28,330,0,0,0,0,0,0,0,0,0,-1,1196,694,0,0
-21,330,0,0,0,0,0,0,0,0,0,-1,1203,694,0,0
-14,330,0,0,0,0,0,0,0,0,0,-1,1210,694,0,0
-7,330,0,0,0,0,0,0,0,0,0,-1,1217,694,0,0
0,330,0,0,0,0,0,0,0,0,0,-1,1224,694,0,0
7,330,0,0,0,0,0,0,0,0,0,-1,1231,694,0,0
14,330,0,0,0,0,0,0,0,0,0,-1,1238,694,0,0
21,330,0,0,0,0,0,0,0,0,0,-1,1245,694,0,0
28,330,0,0,0,0,0,0,0,0,0,-1,1252,694,0,0
35,330,0,0,0,0,0,0,0,0,0,-1,1259,694,0,0
42,330,0,0,0,0,0,0,0,0,0,-1,1266,694,0,0
49,330,0,0,0,0,0,0,0,0,0,-1,1273,694,0,0
56,330,0,0,0,0,0,0,0,0,0,-1,1280,694,0,0
63,330,0,0,0,0,0,0,0,0,0,-1,1287,694,0,0
70,330,0,0,0,0,0,0,0,0,0,-1,1294,694,0,0
77,330,0,0,0,0,0,0,0,0,0,-1,1301,694,0,0
84,330,0,0,0,0,0,0,0,0,0,-1,1308,694,0,0
91,330,0,0,0,0,0,0,0,0,0,-1,1315,694,0,0
98,330,0,0,0,0,0,0,0,0,0,-1,1322,694,0,0
105,330,0,0,0,0,0,0,0,0,0,-1,1329,694,0,0
112,330,0,0,0,0,0,0,0,0,0,-1,1336,694,0,0
119,330,0,0,0,0,0,0,0,0,0,-1,1343,694,0,0
126,330,0,0,0,0,0,0,0,0,0,-1,1350,694,0,0
133,330,0,0,0,0,0,0,0,0,0,-1,1357,694,0,0
140,330,0,0,0,0,0,0,0,0,0,-1,1364,694,0,0
147,330,0,0,0,0,0,0,0,0,0,-1,1371,694,0,0
154,330,0,0,0,0,0,0,0,0,0,-1,1378,694,0,0
161,330,0,0,0,0,0,0,0,0,0,-1,1385,694,0,0
168,330,0,0,0,0,0,0,0,0,0,-1,1392,694,0,0
175,330,0,0,0,0,0,0,0,0,0,-1,1399,694,0,0
182,330,0,0,0,0,0,0,0,0,0,-1,1406,694,0,0
189,330,0,0,0,0,0,0,0,0,0,-1,1413,694,0,0
196,330,0,0,0,0,0,0,0,0,0,-1,1420,694,0,0
203,330,0,0,0,0,0,0,0,0,0,-1,1427,694,0,0
210,330,0,0,0,0,0,0,0,0,0,-1,1434,694,0,0
217,330,0,0,0,0,0,0,0,0,0,-1,1441,694,0,0
224,330,0,0,0,0,0,0,0,0,0,-1,1448,694,0,0
231,330,0,0,0,0,0,0,0,0,0,-1,1455,694,0,0
238,330,0,0,0,0,0,0,0,0,0,-1,1462,694,0,0
245,330,0,0,0,0,0,0,0,0,0,-1,1469,694,0,0
252,330,0,0,0,0,0,0,0,0,0,-1,1476,694,0,0
259,330,0,0,0,0,0,0,0,0,0,-1,1483,694,0,0
266,330,0,0,0,0,0,0,0,0,0,-1,1490,694,0,0
273,330,0,0,0,0,0,0,0,0,0,-1,1497,694,0,0
280,330,0,0,0,0,0,0,0,0,0,-1,1504,694,0,0
287,330,0,0,0,0,0,0,0,0,0,-1,1511,694,0,0
294,330,0,0,0,0,0,0,0,0,0,-1,1518,694,0,0
301,330,0,0,0,0,0,0,0,0,0,-1,1525,694,0,0
308,330,0,0,0,0,0,0,0,0,0,-1,1532,694,0,0
315,330,0,0,0,0,0,0,0,0,0,-1,1539,694,0,0
322,330,0,0,0,0,0,0,0,0,0,-1,1546,694,0,0
329,330,0,0,0,0,0,0,0,0,0,-1,1553,694,0,0
336,330,0,0,0,0,0,0,0,0,0,-1,1560,694,0,0
343,330,0,0,0,0,0,0,0,0,0,-1,1567,694,0,0
350,330,0,0,0,0,0,0,0,0,0,-1,1574,694,0,0
357,330,0,0,0,0,0,0,0,0,0,-1,1581,694,0,0
364,330,0,0,0,0,0,0,0,0,0,-1,1588,694,0,0
371,330,0,0,0,0,0,0,0,0,0,-1,1595,694,0,0
378,330,0,0,0,0,0,0,0,0,0,-1,1602,694,0,0
385,330,0,0,0,0,0,0,0,0,0,-1,1609,694,0,0
392,330,0,0,0,0,0,0,0,0,0,-1,1616,694,0,0
399,330,0,0,0,0,0,0,0,0,0,-1,1623,694,0,0
406,330,0,0,0,0,0,0,0,0,0,-1,1630,694,0,0
413,330,0,0,0,0,0,0,0,0,0,-1,1637,694,0,0
420,330,0,0,0,0,0,0,0,0,0,-1,1644,694,0,0
427,330,0,0,0,0,0,0,0,0,0,-1,1651,694,0,0
434,330,0,0,0,0,0,0,0,0,0,-1,1658,694,0,0
441,330,0,0,0,0,0,0,0,0,0,-1,1665,694,0,0
448,330,0,0,0,0,0,0,0,0,0,-1,1672,694,0,0
455,330,0,0,0,0,0,0,0,0,0,-1,1679,694,0,0
462,330,0,0,0,0,0,0,0,0,0,-1,1686,694,0,0
469,330,0,0,0,0,0,0,0,0,0,-1,1693,694,0,0
476,330,0,0,0,0,0,0,0,0,0,-1,1700,694,0,0
483,330,0,0,0,0,0,0,0,0,0,-1,1707,694,0,0
490,330,0,0,0,0,0,0,0,0,0,-1,1714,694,0,0
497,330,0,0,0,0,0,0,0,0,0,-1,1721,694,0,0
504,330,0,0,0,0,0,0,0,0,0,-1,1728,694,0,0
511,330,0,0,0,0,0,0,0,0,0,-1,1735,694,0,0
518,330,0,0,0,0,0,0,0,0,0,-1,1742,694,0,0
525,330,30.6694,0.69519,0,0,0,0,0,0,0,-1,1749,694,30.6694,-0.695206
532,330,30.9469,1.32501,0,0,0,0,0,0,0,-1,1756,694,30.9469,-1.32501
539,330,31.5155,1.62506,0,0,0,0,0,0,0,-1,1763,694,31.5155,-1.62507
546,330,31.4187,1.85651,0,0,0,0,0,0,0,-1,1770,694,31.4187,-1.85651
553,330,31.8452,1.81476,0,0,0,0,0,0,0,-1,1777,694,31.8452,-1.81475
560,330,32.2401,2.43225,0,0,0,0,0,0,0,-1,1784,694,32.2401,-2.43227
567,330,18.0321,3.98578,0,0,0,0,0,0,0,-1,1791,694,18.0321,-3.98576
574,330,12.0454,2.1662,0,0,0,0,0,0,0,-1,1798,694,12.0455,-2.16618
581,330,11.4215,4.50836,0,0,0,0,0,0,0,-1,1805,694,11.4215,-4.50837
588,330,6.45667,-0.0630493,0,0,0,0,0,0,0,-1,1812,694,6.45661,0.0630695
595,330,8.23193,-0.258484,0,0,0,0,0,0,0,-1,1819,694,8.23188,0.258459
602,330,17.1318,-2.65747,0,0,0,0,0,0,0,-1,1826,694,17.1319,2.65749
609,330,17.2833,-2.09583,0.000487537,0.022395,0.00427091,0.0231982,-0.00031564,1.38491,0.0155717,0.0412229,1833,694,17.2833,2.09582
616,330,17.3772,-1.63342,0.00243429,0.0152297,0.00278407,0.0158092,0.00185476,1.36557,0.00997884,0.0110933,1840,694,17.3772,1.63344
623,330,17.3621,-1.2323,0.00258716,0.00977733,0.00187274,0.0102359,0.00212863,1.33068,0.00623665,0.0122641,1847,694,17.362,1.23228
630,330,17.3646,-0.845032,0.000885673,0.00487711,0.00118327,0.00520152,0.00056126,1.3032,0.00329656,0.0130249,1854,694,17.3646,0.845033
637,330,17.3668,-0.460449,-0.000380765,0.00187474,0.000382482,0.00193783,-0.00044386,1.40731,0.00146247,0.0125124,1861,694,17.3669,0.460467
644,330,17.3577,-0.0753784,-0.00162275,0.000214003,-0.000521886,0.000351931,-0.00176068,-1.31242,0.00130699,0.00789354,1868,694,17.3577,0.0753538
651,330,17.3374,0.295288,-0.00312745,-0.000412193,-0.00126125,8.32594e-05,-0.0036229,-1.19649,0.00244349,0.0106607,1875,694,17.3374,-0.295297
658,330,17.314,0.673157,-0.00498771,-0.000606976,-0.00200449,0.000171778,-0.00576646,-1.20024,0.00390283,0.0121073,1882,694,17.314,-0.673151
665,330,17.3129,1.05707,-0.00726148,-0.000865727,-0.00291826,0.000265675,-0.00839289,-1.20094,0.00568588,0.0110053,1889,694,17.3129,-1.05707
672,330,17.3342,1.46063,-0.00991,-0.00111905,-0.00393917,0.000387789,-0.0114168,-1.20544,0.00774373,0.0178271,1896,694,17.3343,-1.46061
679,330,17.11,1.88568,-0.0130908,-0.00143205,-0.00512104,0.000497866,-0.0150207,-1.2104,0.0101838,0.0339744,1903,694,17.1099,-1.88569
686,330,16.8236,2.33521,0,0,0,0,0,0,0,-1,1910,694,16.8237,-2.33518
693,330,17.0414,2.414,0,0,0,0,0,0,0,-1,1917,694,17.0414,-2.414
700,330,17.1072,4.13,0,0,0,0,0,0,0,-1,1924,694,17.1071,-4.13002
707,330,16.663,4.88672,0,0,0,0,0,0,0,-1,1931,694,16.6629,-4.88673
714,330,16.5454,5.80896,0,0,0,0,0,0,0,-1,1938,694,16.5454,-5.80899
721,330,0,0,0,0,0,0,0,0,0,-1,1945,694,0,0
728,330,0,0,0,0,0,0,0,0,0,-1,1952,694,0,0
735,330,0,0,0,0,0,0,0,0,0,-1,1959,694,0,0
742,330,0,0,0,0,0,0,0,0,0,-1,1966,694,0,0
749,330,0,0,0,0,0,0,0,0,0,-1,1973,694,0,0
756,330,0,0,0,0,0,0,0,0,0,-1,1980,694,0,0
763,330,0,0,0,0,0,0,0,0,0,-1,1987,694,0,0
770,330,0,0,0,0,0,0,0,0,0,-1,1994,694,0,0
777,330,0,0,0,0,0,0,0,0,0,-1,2001,694,0,0
784,330,0,0,0,0,0,0,0,0,0,-1,2008,694,0,0
791,330,0,0,0,0,0,0,0,0,0,-1,2015,694,0,0
798,330,0,0,0,0,0,0,0,0,0,-1,2022,694,0,0
805,330,0,0,0,0,0,0,0,0,0,-1,2029,694,0,0
812,330,0,0,0,0,0,0,0,0,0,-1,2036,694,0,0
-700,323,0,0,0,0,0,0,0,0,0,-1,524,701,0,0
-693,323,0,0,0,0,0,0,0,0,0,-1,531,701,0,0
-686,323,0,0,0,0,0,0,0,0,0,-1,538,701,0,0
-679,323,0,0,0,0,0,0,0,0,0,-1,545,701,0,0
-672,323,0,0,0,0,0,0,0,0,0,-1,552,701,0,0
-665,323,0,0,0,0,0,0,0,0,0,-1,559,701,0,0
-658,323,0,0,0,0,0,0,0,0,0,-1,566,701,0,0
-651,323,0,0,0,0,0,0,0,0,0,-1,573,701,0,0
-644,323,0,0,0,0,0,0,0,0,0,-1,580,701,0,0
-637,323,0,0,0,0,0,0,0,0,0,-1,587,701,0,0
-630,323,0,0,0,0,0,0,0,0,0,-1,594,701,0,0
-623,323,0,0,0,0,0,0,0,0,0,-1,601,701,0,0
-616,323,0,0,0,0,0,0,0,0,0,-1,608,701,0,0
-609,323,0,0,0,0,0,0,0,0,0,-1,615,701,0,0
-602,323,-4.15833,2.12256,0,0,0,0,0,0,0,-1,622,701,-4.1583,-2.12257
-595,323,-4.052,1.79156,0,0,0,0,0,0,0,-1,629,701,-4.05198,-1.79158
-588,323,-4.07019,1.94543,0,0,0,0,0,0,0,-1,636,701,-4.07019,-1.94542
-581,323,-6.63727,0.562805,0,0,0,0,0,0,0,-1,643,701,-6.63728,-0.56279
-574,323,-6.15887,0.426697,0,0,0,0,0,0,0,-1,650,701,-6.15887,-0.426727
-567,323,-8.20746,0.122803,0,0,0,0,0,0,0,-1,657,701,-8.20745,-0.122813
-560,323,-10.2134,0.11853,0,0,0,0,0,0,0,-1,664,701,-10.2134,-0.118531
-553,323,-10.0414,-0.246033,0.0140309,0.0048458,-0.00884518,0.0194047,-0.000528035,-0.545948,0.013116,0.0367382,671,701,-10.0414,0.246045
-546,323,-9.99768,-0.528137,0.0108628,0.00497169,-0.00767294,0.0161361,-0.000301661,-0.602129,0.0108594,0.0150956,678,701,-9.99766,0.52815
-539,323,-10.015,-0.852051,0.00830065,0.00465541,-0.0064229,0.0131545,-0.000198469,-0.647148,0.00883658,0.0137994,685,701,-10.015,0.852046
-532,323,-10.0505,-1.23871,0.00611826,0.00398466,-0.00508894,0.010251,-0.000148096,-0.682079,0.00688391,0.010038,692,701,-10.0504,1.23868
-525,323,-10.0679,-1.61597,0.00428744,0.00310694,-0.00372925,0.00747286,-7.84856e-05,-0.706911,0.00500827,0.00775765,699,701,-10.0679,1.61594
-518,323,-10.0795,-1.95941,0.00285591,0.00216949,-0.00249257,0.00502879,-3.38722e-06,-0.716981,0.00335365,0.0105177,706,701,-10.0795,1.95944
-511,323,-10.0854,-2.31262,0.00175707,0.00127053,-0.00137916,0.00291425,0.000113343,-0.698101,0.00190618,0.0142522,713,701,-10.0854,2.31261
-504,323,-10.0879,-2.68243,0.0010028,0.000478088,-0.000448901,0.00126039,0.000220498,-0.52095,0.000777255,0.0153332,720,701,-10.0879,2.68242
-497,323,-10.0886,-3.04657,0.000807102,-0.000268039,0.000206369,0.000845352,-0.00030629,0.183272,0.000688753,0.0127363,727,701,-10.0886,3.0466
-490,323,-10.0717,-3.40955,0.00104328,-0.000572815,0.000487249,0.00117882,-0.000708352,0.271309,0.00110079,0.013638,734,701,-10.0717,3.40955
-483,323,-10.074,-3.76019,0.00147489,-0.000468265,0.000389597,0.00155009,-0.000543468,0.190682,0.00125443,0.0209178,741,701,-10.074,3.76018
-476,323,-9.95166,-4.26202,0,0,0,0,0,0,0,-1,748,701,-9.95166,4.26202
-469,323,-8.33301,-3.64001,0,0,0,0,0,0,0,-1,755,701,-8.33298,3.64
-462,323,-5.29431,-1.45697,0,0,0,0,0,0,0,-1,762,701,-5.29431,1.45699
-455,323,-5.0658,-1.36639,0,0,0,0,0,0,0,-1,769,701,-5.06578,1.3664
-448,323,-4.91608,-1.59601,0,0,0,0,0,0,0,-1,776,701,-4.91606,1.59604
-441,323,-14.4006,0.535217,0,0,0,0,0,0,0,-1,783,701,-14.4006,-0.535203
-434,323,-15.3158,2.479,0,0,0,0,0,0,0,-1,790,701,-15.3158,-2.47898
-427,323,-15.4075,2.98248,0,0,0,0,0,0,0,-1,797,701,-15.4075,-2.98248
-420,323,-14.8839,3.49579,0,0,0,0,0,0,0,-1,804,701,-14.8839,-3.49579
-413,323,-14.0645,4.22607,0,0,0,0,0,0,0,-1,811,701,-14.0645,-4.22605
-406,323,0,0,0,0,0,0,0,0,0,-1,818,701,0,0
-399,323,0,0,0,0,0,0,0,0,0,-1,825,701,0,0
-392,323,0,0,0,0,0,0,0,0,0,-1,832,701,0,0
-385,323,0,0,0,0,0,0,0,0,0,-1,839,701,0,0
-378,323,0,0,0,0,0,0,0,0,0,-1,846,701,0,0
-371,323,0,0,0,0,0,0,0,0,0,-1,853,701,0,0
-364,323,0,0,0,0,0,0,0,0,0,-1,860,701,0,0
-357,323,0,0,0,0,0,0,0,0,0,-1,867,701,0,0
-350,323,0,0,0,0,0,0,0,0,0,-1,874,701,0,0
-343,323,0,0,0,0,0,0,0,0,0,-1,881,701,0,0
-336,323,0,0,0,0,0,0,0,0,0,-1,888,701,0,0
-329,323,0,0,0,0,0,0,0,0,0,-1,895,701,0,0
-322,323,0,0,0,0,0,0,0,0,0,-1,902,701,0,0
-315,323,0,0,0,0,0,0,0,0,0,-1,909,701,0,0
-308,323,0,0,0,0,0,0,0,0,0,-1,916,701,0,0
-301,323,0,0,0,0,0,0,0,0,0,-1,923,701,0,0
-294,323,0,0,0,0,0,0,0,0,0,-1,930,701,0,0
-287,323,0,0,0,0,0,0,0,0,0,-1,937,701,0,0
-280,323,0,0,0,0,0,0,0,0,0,-1,944,701,0,0
-273,323,0,0,0,0,0,0,0,0,0,-1,951,701,0,0
-266,323,0,0,0,0,0,0,0,0,0,-1,958,701,0,0
-259,323,0,0,0,0,0,0,0,0,0,-1,965,701,0,0
-252,323,0,0,0,0,0,0,0,0,0,-1,972,701,0,0
-245,323,0,0,0,0,0,0,0,0,0,-1,979,701,0,0
-238,323,0,0,0,0,0,0,0,0,0,-1,986,701,0,0
-231,323,0,0,0,0,0,0,0,0,0,-1,993,701,0,0
-224,323,0,0,0,0,0,0,0,0,0,-1,1000,701,0,0
-217,323,0,0,0,0,0,0,0,0,0,-1,1007,701,0,0
-210,323,0,0,0,0,0,0,0,0,0,-1,1014,701,0,0
-203,323,0,0,0,0,0,0,0,0,0,-1,1021,701,0,0
-196,323,0,0,0,0,0,0,0,0,0,-1,1028,701,0,0
-189,323,0,0,0,0,0,0,0,0,0,-1,1035,701,0,0
-182,323,0,0,0,0,0,0,0,0,0,-1,1042,701,0,0
-175,323,0,0,0,0,0,0,0,0,0,-1,1049,701,0,0
-168,323,0,0,0,0,0,0,0,0,0,-1,1056,701,0,0
-161,323,0,0,0,0,0,0,0,0,0,-1,1063,701,0,0
-154,323,0,0,0,0,0,0,0,0,0,-1,1070,701,0,0
-147,323,0,0,0,0,0,0,0,0,0,-1,1077,701,0,0
-140,323,0,0,0,0,0,0,0,0,0,-1,1084,701,0,0
-133,323,0,0,0,0,0,0,0,0,0,-1,1091,701,0,0
-126,323,0,0,0,0,0,0,0,0,0,-1,1098,701,0,0
-119,323,0,0,0,0,0,0,0,0,0,-1,1105,701,0,0
-112,323,0,0,0,0,0,0,0,0,0,-1,1112,701,0,0
-105,323,0,0,0,0,0,0,0,0,0,-1,1119,701,0,0
-98,323,0,0,0,0,0,0,0,0,0,-1,1126,701,0,0
-91,323,0,0,0,0,0,0,0,0,0,-1,1133,701,0,0
-84,323,0,0,0,0,0,0,0,0,0,-1,1140,701,0,0
-77,323,0,0,0,0,0,0,0,0,0,-1,1147,701,0,0
-70,323,0,0,0,0,0,0,0,0,0,-1,1154,701,0,0
-63,323,0,0,0,0,0,0,0,0,0,-1,1161,701,0,0
-56,323,0,0,0,0,0,0,0,0,0,-1,1168,701,0,0
-49,323,0,0,0,0,0,0,0,0,0,-1,1175,701,0,0
-42,323,0,0,0,0,0,0,0,0,0,-1,1182,701,0,0
-35,323,0,0,0,0,0,0,0,0,0,-1,1189,701,0,0
-28,323,0,0,0,0,0,0,0,0,0,-1,1196,701,0,0
-21,323,0,0,0,0,0,0,0,0,0,-1,1203,701,0,0
-14,323,0,0,0,0,0,0,0,0,0,-1,1210,701,0,0
-7,323,0,0,0,0,0,0,0,0,0,-1,1217,701,0,0
0,323,0,0,0,0,0,0,0,0,0,-1,1224,701,0,0
7,323,0,0,0,0,0,0,0,0,0,-1,1231,701,0,0
14,323,0,0,0,0,0,0,0,0,0,-1,1238,701,0,0
21,323,0,0,0,0,0,0,0,0,0,-1,1245,701,0,0
28,323,0,0,0,0,0,0,0,0,0,-1,1252,701,0,0
35,323,0,0,0,0,0,0,0,0,0,-1,1259,701,0,0
42,323,0,0,0,0,0,0,0,0,0,-1,1266,701,0,0
49,323,0,0,0,0,0,0,0,0,0,-1,1273,701,0,0
56,323,0,0,0,0,0,0,0,0,0,-1,1280,701,0,0
63,323,0,0,0,0,0,0,0,0,0,-1,1287,701,0,0
70,323,0,0,0,0,0,0,0,0,0,-1,1294,701,0,0
77,323,0,0,0,0,0,0,0,0,0,-1,1301,701,0,0
84,323,0,0,0,0,0,0,0,0,0,-1,1308,701,0,0
91,323,0,0,0,0,0,0,0,0,0,-1,1315,701,0,0
98,323,0,0,0,0,0,0,0,0,0,-1,1322,701,0,0
105,323,0,0,0,0,0,0,0,0,0,-1,1329,701,0,0
112,323,0,0,0,0,0,0,0,0,0,-1,1336,701,0,0
119,323,0,0,0,0,0,0,0,0,0,-1,1343,701,0,0
126,323,0,0,0,0,0,0,0,0,0,-1,1350,701,0,0
133,323,0,0,0,0,0,0,0,0,0,-1,1357,701,0,0
140,323,0,0,0,0,0,0,0,0,0,-1,1364,701,0,0
147,323,0,0,0,0,0,0,0,0,0,-1,1371,701,0,0
154,323,0,0,0,0,0,0,0,0,0,-1,1378,701,0,0
161,323,0,0,0,0,0,0,0,0,0,-1,1385,701,0,0
168,323,0,0,0,0,0,0,0,0,0,-1,1392,701,0,0
175,323,0,0,0,0,0,0,0,0,0,-1,1399,701,0,0
182,323,0,0,0,0,0,0,0,0,0,-1,1406,701,0,0
189,323,0,0,0,0,0,0,0,0,0,-1,1413,701,0,0
196,323,0,0,0,0,0,0,0,0,0,-1,1420,701,0,0
203,323,0,0,0,0,0,0,0,0,0,-1,1427,701,0,0
210,323,0,0,0,0,0,0,0,0,0,-1,1434,701,0,0
217,323,0,0,0,0,0,0,0,0,0,-1,1441,701,0,0
224,323,0,0,0,0,0,0,0,0,0,-1,1448,701,0,0
231,323,0,0,0,0,0,0,0,0,0,-1,1455,701,0,0
238,323,0,0,0,0,0,0,0,0,0,-1,1462,701,0,0
245,323,0,0,0,0,0,0,0,0,0,-1,1469,701,0,0
252,323,0,0,0,0,0,0,0,0,0,-1,1476,701,0,0
259,323,0,0,0,0,0,0,0,0,0,-1,1483,701,0,0
266,323,0,0,0,0,0,0,0,0,0,-1,1490,701,0,0
273,323,0,0,0,0,0,0,0,0,0,-1,1497,701,0,0
280,323,0,0,0,0,0,0,0,0,0,-1,1504,701,0,0
287,323,0,0,0,0,0,0,0,0,0,-1,1511,701,0,0
294,323,0,0,0,0,0,0,0,0,0,-1,1518,701,0,0
301,323,0,0,0,0,0,0,0,0,0,-1,1525,701,0,0
308,323,0,0,0,0,0,0,0,0,0,-1,1532,701,0,0
315,323,0,0,0,0,0,0,0,0,0,-1,1539,701,0,0
322,323,0,0,0,0,0,0,0,0,0,-1,1546,701,0,0
329,323,0,0,0,0,0,0,0,0,0,-1,1553,701,0,0
336,323,0,0,0,0,0,0,0,0,0,-1,1560,701,0,0
343,323,0,0,0,0,0,0,0,0,0,-1,1567,701,0,0
350,323,0,0,0,0,0,0,0,0,0,-1,1574,701,0,0
357,323,0,0,0,0,0,0,0,0,0,-1,1581,701,0,0
364,323,0,0,0,0,0,0,0,0,0,-1,1588,701,0,0
371,323,0,0,0,0,0,0,0,0,0,-1,1595,701,0,0
378,323,0,0,0,0,0,0,0,0,0,-1,1602,701,0,0
385,323,0,0,0,0,0,0,0,0,0,-1,1609,701,0,0
392,323,0,0,0,0,0,0,0,0,0,-1,1616,701,0,0
399,323,0,0,0,0,0,0,0,0,0,-1,1623,701,0,0
406,323,0,0,0,0,0,0,0,0,0,-1,1630,701,0,0
413,323,0,0,0,0,0,0,0,0,0,-1,1637,701,0,0
420,323,0,0,0,0,0,0,0,0,0,-1,1644,701,0,0
427,323,0,0,0,0,0,0,0,0,0,-1,1651,701,0,0
434,323,0,0,0,0,0,0,0,0,0,-1,1658,701,0,0
441,323,0,0,0,0,0,0,0,0,0,-1,1665,701,0,0
448,323,0,0,0,0,0,0,0,0,0,-1,1672,701,0,0
455,323,0,0,0,0,0,0,0,0,0,-1,1679,701,0,0
462,323,0,0,0,0,0,0,0,0,0,-1,1686,701,0,0
469,323,0,0,0,0,0,0,0,0,0,-1,1693,701,0,0
476,323,0,0,0,0,0,0,0,0,0,-1,1700,701,0,0
483,323,0,0,0,0,0,0,0,0,0,-1,1707,701,0,0
490,323,0,0,0,0,0,0,0,0,0,-1,1714,701,0,0
497,323,0,0,0,0,0,0,0,0,0,-1,1721,701,0,0
504,323,0,0,0,0,0,0,0,0,0,-1,1728,701,0,0
511,323,0,0,0,0,0,0,0,0,0,-1,1735,701,0,0
518,323,0,0,0,0,0,0,0,0,0,-1,1742,701,0,0
525,323,0,0,0,0,0,0,0,0,0,-1,1749,701,0,0
532,323,33.6193,1.69446,0,0,0,0,0,0,0,-1,1756,701,33.6193,-1.69444
539,323,32.2698,2.44037,0,0,0,0,0,0,0,-1,1763,701,32.2697,-2.44036
546,323,31.1644,3.9444,0,0,0,0,0,0,0,-1,1770,701,31.1644,-3.94438
553,323,30.2488,5.8775,0,0,0,0,0,0,0,-1,1777,701,30.2487,-5.87752
560,323,31.9149,2.33624,0,0,0,0,0,0,0,-1,1784,701,31.9149,-2.33626
567,323,32.0164,2.60754,0,0,0,0,0,0,0,-1,1791,701,32.0163,-2.60753
574,323,12.514,5.89685,0,0,0,0,0,0,0,-1,1798,701,12.5141,-5.89683
581,323,11.821,5.3476,0,0,0,0,0,0,0,-1,1805,701,11.821,-5.34762
588,323,11.7933,7.00818,0,0,0,0,0,0,0,-1,1812,701,11.7933,-7.00819
595,323,6.67847,0.06604,0,0,0,0,0,0,0,-1,1819,701,6.67841,-0.0660418
602,323,11.2856,-0.595459,0,0,0,0,0,0,0,-1,1826,701,11.2856,0.595433
609,323,17.7192,-2.04565,0,0,0,0,0,0,0,-1,1833,701,17.7192,2.04566
616,323,17.7518,-1.62427,0.00195175,0.0199434,0.0033792,0.0205572,0.00133801,1.39113,0.0132813,0.0146589,1840,701,17.7519,1.62427
623,323,17.7524,-1.2027,0.00261986,0.0132821,0.00227191,0.0137461,0.00215595,1.36937,0.00853662,0.0120802,1847,701,17.7525,1.20271
630,323,17.7396,-0.803345,0.000807924,0.00696625,0.00148929,0.0073075,0.000466676,1.34555,0.0047238,0.0131385,1854,701,17.7396,0.803347
637,323,17.7573,-0.428894,-0.000350935,0.00300353,0.000623063,0.00311552,-0.000462925,1.39295,0.00224727,0.01024,1861,701,17.7573,0.428882
644,323,17.7645,-0.0825195,-0.00129682,0.000622284,-0.000314858,0.00067262,-0.00134716,-1.41227,0.0011876,0.00774308,1868,701,17.7645,0.0824972
651,323,17.7457,0.306274,-0.00244678,-0.000312986,-0.000989893,7.55069e-05,-0.00283527,-1.19681,0.00191584,0.00971327,1875,701,17.7457,-0.306295
658,323,17.6956,0.705139,-0.00396867,-0.000367923,-0.00158728,0.000231873,-0.00456846,-1.20951,0.0031258,0.0135177,1882,701,17.6955,-0.705138
665,323,17.6707,1.08234,-0.00576766,-0.000473871,-0.00232409,0.000401657,-0.00664319,-1.21052,0.00456857,0.0119912,1889,701,17.6707,-1.08233
672,323,17.6919,1.48621,-0.00781095,-0.000518248,-0.00310803,0.000626617,-0.00895582,-1.21786,0.00619,0.0106684,1896,701,17.6918,-1.48621
679,323,17.6302,1.88776,-0.0101118,-0.000542083,-0.00395677,0.000881989,-0.0115359,-1.22532,0.00800083,0.0229536,1903,701,17.6303,-1.88778
686,323,17.4221,2.15228,-0.0127631,-0.000506321,-0.00501978,0.00128711,-0.0145566,-1.22766,0.0101606,0.0453325,1910,701,17.4221,-2.15227
693,323,17.2875,2.42426,0,0,0,0,0,0,0,-1,1917,701,17.2875,-2.42426
700,323,10.7705,0.828613,0,0,0,0,0,0,0,-1,1924,701,10.7705,-0.828591
707,323,16.9005,4.79193,0,0,0,0,0,0,0,-1,1931,701,16.9005,-4.7919
714,323,16.2346,6.25958,0,0,0,0,0,0,0,-1,1938,701,16.2346,-6.25956
721,323,0,0,0,0,0,0,0,0,0,-1,1945,701,0,0
728,323,0,0,0,0,0,0,0,0,0,-1,1952,701,0,0
735,323,0,0,0,0,0,0,0,0,0,-1,1959,701,0,0
742,323,0,0,0,0,0,0,0,0,0,-1,1966,701,0,0
749,323,0,0,0,0,0,0,0,0,0,-1,1973,701,0,0
756,323,0,0,0,0,0,0,0,0,0,-1,1980,701,0,0
763,323,0,0,0,0,0,0,0,0,0,-1,1987,701,0,0
770,323,0,0,0,0,0,0,0,0,0,-1,1994,701,0,0
777,323,0,0,0,0,0,0,0,0,0,-1,2001,701,0,0
784,323,0,0,0,0,0,0,0,0,0,-1,2008,701,0,0
791,323,0,0,0,0,0,0,0,0,0,-1,2015,701,0,0
798,323,0,0,0,0,0,0,0,0,0,-1,2022,701,0,0
805,323,0,0,0,0,0,0,0,0,0,-1,2029,701,0,0
812,323,0,0,0,0,0,0,0,0,0,-1,2036,701,0,0
-700,316,0,0,0,0,0,0,0,0,0,-1,524,708,0,0
-693,316,0,0,0,0,0,0,0,0,0,-1,531,708,0,0
-686,316,0,0,0,0,0,0,0,0,0,-1,538,708,0,0
-679,316,0,0,0,0,0,0,0,0,0,-1,545,708,0,0
-672,316,0,0,0,0,0,0,0,0,0,-1,552,708,0,0
-665,316,0,0,0,0,0,0,0,0,0,-1,559,708,0,0
-658,316,0,0,0,0,0,0,0,0,0,-1,566,708,0,0
-651,316,0,0,0,0,0,0,0,0,0,-1,573,708,0,0
-644,316,0,0,0,0,0,0,0,0,0,-1,580,708,0,0
-637,316,0,0,0,0,0,0,0,0,0,-1,587,708,0,0
-630,316,0,0,0,0,0,0,0,0,0,-1,594,708,0,0
-623,316,0,0,0,0,0,0,0,0,0,-1,601,708,0,0
-616,316,0,0,0,0,0,0,0,0,0,-1,608,708,0,0
-609,316,0,0,0,0,0,0,0,0,0,-1,615,708,0,0
-602,316,-0.451782,-0.0494995,0,0,0,0,0,0,0,-1,622,708,-0.451768,0.0495022
-595,316,-3.3761,2.17188,0,0,0,0,0,0,0,-1,629,708,-3.37609,-2.17189
-588,316,-5.00177,2.60675,0,0,0,0,0,0,0,-1,636,708,-5.00175,-2.60676
-581,316,-3.94653,0.393433,0,0,0,0,0,0,0,-1,643,708,-3.94655,-0.39342
-574,316,-7.51819,2.09735,0,0,0,0,0,0,0,-1,650,708,-7.51818,-2.09732
-567,316,-8.97015,-0.511475,0,0,0,0,0,0,0,-1,657,708,-8.97014,0.51147
-560,316,-10.0425,0.162292,0,0,0,0,0,0,0,-1,664,708,-10.0426,-0.162315
-553,316,-10.2151,-0.153809,0.00863827,0.0041993,-0.00531808,0.0121814,0.00065614,-0.587713,0.00791131,0.0345304,671,708,-10.2151,0.153788
-546,316,-10.4088,-0.460815,0.00676441,0.00398113,-0.00474955,0.010322,0.000423535,-0.642885,0.00674459,0.0205245,678,708,-10.4088,0.460835
-539,316,-10.3822,-0.890076,0.00523081,0.00354833,-0.00405368,0.00852961,0.000249522,-0.683088,0.00560509,0.0134989,685,708,-10.3822,0.890071
-532,316,-10.3937,-1.23657,0.00388711,0.00286588,-0.00324855,0.00666493,8.80638e-05,-0.707444,0.00441422,0.0107858,692,708,-10.3937,1.23656
-525,316,-10.3986,-1.5946,0.00273124,0.00209124,-0.0023407,0.00477371,4.87673e-05,-0.717464,0.00316634,0.00901329,699,708,-10.3986,1.59462
-518,316,-10.4172,-1.95697,0.00182631,0.00127706,-0.00149003,0.00306681,3.65617e-05,-0.694266,0.00203246,0.00975506,706,708,-10.4172,1.95694
-511,316,-10.4335,-2.31158,0.00110539,0.000491443,-0.000674892,0.00153984,5.69921e-05,-0.571958,0.0010081,0.0111888,713,708,-10.4335,2.31155
-504,316,-10.4421,-2.68518,0.000626128,-0.000282034,6.02391e-05,0.000630106,-0.000286012,0.0659458,0.000541214,0.0148118,720,708,-10.4421,2.6852
-497,316,-10.4341,-3.03339,0.000611535,-0.000942719,0.000567611,0.000796753,-0.00112794,0.315418,0.00111669,0.0129699,727,708,-10.4341,3.03338
-490,316,-10.4518,-3.38959,0.000916588,-0.00122375,0.000835775,0.00120428,-0.00151144,0.331515,0.00157126,0.015201,734,708,-10.4519,3.38962
-483,316,-10.4138,-3.74481,0,0,0,0,0,0,0,-1,741,708,-10.4138,3.74483
-476,316,-8.90894,-3.31207,0,0,0,0,0,0,0,-1,748,708,-8.90896,3.31206
-469,316,-6.24194,-1.42725,0,0,0,0,0,0,0,-1,755,708,-6.24192,1.42725
-462,316,-5.74237,-1.40039,0,0,0,0,0,0,0,-1,762,708,-5.74238,1.40039
-455,316,-5.44745,-1.21899,0,0,0,0,0,0,0,-1,769,708,-5.44746,1.21898
-448,316,-14.8945,0.655396,0,0,0,0,0,0,0,-1,776,708,-14.8946,-0.655396
-441,316,-14.9626,0.576111,0,0,0,0,0,0,0,-1,783,708,-14.9626,-0.576115
-434,316,-15.272,0.942993,0,0,0,0,0,0,0,-1,790,708,-15.272,-0.942979
-427,316,-14.6848,3.17792,0,0,0,0,0,0,0,-1,797,708,-14.6848,-3.1779
-420,316,-13.5587,2.737,0,0,0,0,0,0,0,-1,804,708,-13.5587,-2.73703
-413,316,0,0,0,0,0,0,0,0,0,-1,811,708,0,0
-406,316,0,0,0,0,0,0,0,0,0,-1,818,708,0,0
-399,316,0,0,0,0,0,0,0,0,0,-1,825,708,0,0
-392,316,0,0,0,0,0,0,0,0,0,-1,832,708,0,0
-385,316,0,0,0,0,0,0,0,0,0,-1,839,708,0,0
-378,316,0,0,0,0,0,0,0,0,0,-1,846,708,0,0
-371,316,0,0,0,0,0,0,0,0,0,-1,853,708,0,0
-364,316,0,0,0,0,0,0,0,0,0,-1,860,708,0,0
-357,316,0,0,0,0,0,0,0,0,0,-1,867,708,0,0
-350,316,0,0,0,0,0,0,0,0,0,-1,874,708,0,0
-343,316,0,0,0,0,0,0,0,0,0,-1,881,708,0,0
-336,316,0,0,0,0,0,0,0,0,0,-1,888,708,0,0
-329,316,0,0,0,0,0,0,0,0,0,-1,895,708,0,0
-322,316,0,0,0,0,0,0,0,0,0,-1,902,708,0,0
-315,316,0,0,0,0,0,0,0,0,0,-1,909,708,0,0
-308,316,0,0,0,0,0,0,0,0,0,-1,916,708,0,0
-301,316,0,0,0,0,0,0,0,0,0,-1,923,708,0,0
-294,316,0,0,0,0,0,0,0,0,0,-1,930,708,0,0
-287,316,0,0,0,0,0,0,0,0,0,-1,937,708,0,0
-280,316,0,0,0,0,0,0,0,0,0,-1,944,708,0,0
-273,316,0,0,0,0,0,0,0,0,0,-1,951,708,0,0
-266,316,0,0,0,0,0,0,0,0,0,-1,958,708,0,0
-259,316,0,0,0,0,0,0,0,0,0,-1,965,708,0,0
-252,316,0,0,0,0,0,0,0,0,0,-1,972,708,0,0
-245,316,0,0,0,0,0,0,0,0,0,-1,979,708,0,0
-238,316,0,0,0,0,0,0,0,0,0,-1,986,708,0,0
-231,316,0,0,0,0,0,0,0,0,0,-1,993,708,0,0
-224,316,0,0,0,0,0,0,0,0,0,-1,1000,708,0,0
-217,316,0,0,0,0,0,0,0,0,0,-1,1007,708,0,0
-210,316,0,0,0,0,0,0,0,0,0,-1,1014,708,0,0
-203,316,0,0,0,0,0,0,0,0,0,-1,1021,708,0,0
-196,316,0,0,0,0,0,0,0,0,0,-1,1028,708,0,0
-189,316,0,0,0,0,0,0,0,0,0,-1,1035,708,0,0
-182,316,0,0,0,0,0,0,0,0,0,-1,1042,708,0,0
-175,316,0,0,0,0,0,0,0,0,0,-1,1049,708,0,0
-168,316,0,0,0,0,0,0,0,0,0,-1,1056,708,0,0
-161,316,0,0,0,0,0,0,0,0,0,-1,1063,708,0,0
-154,316,0,0,0,0,0,0,0,0,0,-1,1070,708,0,0
-147,316,0,0,0,0,0,0,0,0,0,-1,1077,708,0,0
-140,316,0,0,0,0,0,0,0,0,0,-1,1084,708,0,0
-133,316,0,0,0,0,0,0,0,0,0,-1,1091,708,0,0
-126,316,0,0,0,0,0,0,0,0,0,-1,1098,708,0,0
-119,316,0,0,0,0,0,0,0,0,0,-1,1105,708,0,0
-112,316,0,0,0,0,0,0,0,0,0,-1,1112,708,0,0
-105,316,0,0,0,0,0,0,0,0,0,-1,1119,708,0,0
-98,316,0,0,0,0,0,0,0,0,0,-1,1126,708,0,0
-91,316,0,0,0,0,0,0,0,0,0,-1,1133,708,0,0
-84,316,0,0,0,0,0,0,0,0,0,-1,1140,708,0,0
-77,316,0,0,0,0,0,0,0,0,0,-1,1147,708,0,0
-70,316,0,0,0,0,0,0,0,0,0,-1,1154,708,0,0
-63,316,0,0,0,0,0,0,0,0,0,-1,1161,708,0,0
-56,316,0,0,0,0,0,0,0,0,0,-1,1168,708,0,0
-49,316,0,0,0,0,0,0,0,0,0,-1,1175,708,0,0
-42,316,0,0,0,0,0,0,0,0,0,-1,1182,708,0,0
-35,316,0,0,0,0,0,0,0,0,0,-1,1189,708,0,0
-28,316,0,0,0,0,0,0,0,0,0,-1,1196,708,0,0
-21,316,0,0,0,0,0,0,0,0,0,-1,1203,708,0,0
-14,316,0,0,0,0,0,0,0,0,0,-1,1210,708,0,0
-7,316,0,0,0,0,0,0,0,0,0,-1,1217,708,0,0
0,316,0,0,0,0,0,0,0,0,0,-1,1224,708,0,0
7,316,0,0,0,0,0,0,0,0,0,-1,1231,708,0,0
14,316,0,0,0,0,0,0,0,0,0,-1,1238,708,0,0
21,316,0,0,0,0,0,0,0,0,0,-1,1245,708,0,0
28,316,0,0,0,0,0,0,0,0,0,-1,1252,708,0,0
35,316,0,0,0,0,0,0,0,0,0,-1,1259,708,0,0
42,316,0,0,0,0,0,0,0,0,0,-1,1266,708,0,0
49,316,0,0,0,0,0,0,0,0,0,-1,1273,708,0,0
56,316,0,0,0,0,0,0,0,0,0,-1,1280,708,0,0
63,316,0,0,0,0,0,0,0,0,0,-1,1287,708,0,0
70,316,0,0,0,0,0,0,0,0,0,-1,1294,708,0,0
77,316,0,0,0,0,0,0,0,0,0,-1,1301,708,0,0
84,316,0,0,0,0,0,0,0,0,0,-1,1308,708,0,0
91,316,0,0,0,0,0,0,0,0,0,-1,1315,708,0,0
98,316,0,0,0,0,0,0,0,0,0,-1,1322,708,0,0
105,316,0,0,0,0,0,0,0,0,0,-1,1329,708,0,0
112,316,0,0,0,0,0,0,0,0,0,-1,1336,708,0,0
119,316,0,0,0,0,0,0,0,0,0,-1,1343,708,0,0
126,316,0,0,0,0,0,0,0,0,0,-1,1350,708,0,0
133,316,0,0,0,0,0,0,0,0,0,-1,1357,708,0,0
140,316,0,0,0,0,0,0,0,0,0,-1,1364,708,0,0
147,316,0,0,0,0,0,0,0,0,0,-1,1371,708,0,0
154,316,0,0,0,0,0,0,0,0,0,-1,1378,708,0,0
161,316,0,0,0,0,0,0,0,0,0,-1,1385,708,0,0
168,316,0,0,0,0,0,0,0,0,0,-1,1392,708,0,0
175,316,0,0,0,0,0,0,0,0,0,-1,1399,708,0,0
182,316,0,0,0,0,0,0,0,0,0,-1,1406,708,0,0
189,316,0,0,0,0,0,0,0,0,0,-1,1413,708,0,0
196,316,0,0,0,0,0,0,0,0,0,-1,1420,708,0,0
203,316,0,0,0,0,0,0,0,0,0,-1,1427,708,0,0
210,316,0,0,0,0,0,0,0,0,0,-1,1434,708,0,0
217,316,0,0,0,0,0,0,0,0,0,-1,1441,708,0,0
224,316,0,0,0,0,0,0,0,0,0,-1,1448,708,0,0
231,316,0,0,0,0,0,0,0,0,0,-1,1455,708,0,0
238,316,0,0,0,0,0,0,0,0,0,-1,1462,708,0,0
245,316,0,0,0,0,0,0,0,0,0,-1,1469,708,0,0
252,316,0,0,0,0,0,0,0,0,0,-1,1476,708,0,0
259,316,0,0,0,0,0,0,0,0,0,-1,1483,708,0,0
266,316,0,0,0,0,0,0,0,0,0,-1,1490,708,0,0
273,316,0,0,0,0,0,0,0,0,0,-1,1497,708,0,0
280,316,0,0,0,0,0,0,0,0,0,-1,1504,708,0,0
287,316,0,0,0,0,0,0,0,0,0,-1,1511,708,0,0
294,316,0,0,0,0,0,0,0,0,0,-1,1518,708,0,0
301,316,0,0,0,0,0,0,0,0,0,-1,1525,708,0,0
308,316,0,0,0,0,0,0,0,0,0,-1,1532,708,0,0
315,316,0,0,0,0,0,0,0,0,0,-1,1539,708,0,0
322,316,0,0,0,0,0,0,0,0,0,-1,1546,708,0,0
329,316,0,0,0,0,0,0,0,0,0,-1,1553,708,0,0
336,316,0,0,0,0,0,0,0,0,0,-1,1560,708,0,0
343,316,0,0,0,0,0,0,0,0,0,-1,1567,708,0,0
350,316,0,0,0,0,0,0,0,0,0,-1,1574,708,0,0
357,316,0,0,0,0,0,0,0,0,0,-1,1581,708,0,0
364,316,0,0,0,0,0,0,0,0,0,-1,1588,708,0,0
371,316,0,0,0,0,0,0,0,0,0,-1,1595,708,0,0
378,316,0,0,0,0,0,0,0,0,0,-1,1602,708,0,0
385,316,0,0,0,0,0,0,0,0,0,-1,1609,708,0,0
392,316,0,0,0,0,0,0,0,0,0,-1,1616,708,0,0
399,316,0,0,0,0,0,0,0,0,0,-1,1623,708,0,0
406,316,0,0,0,0,0,0,0,0,0,-1,1630,708,0,0
413,316,0,0,0,0,0,0,0,0,0,-1,1637,708,0,0
420,316,0,0,0,0,0,0,0,0,0,-1,1644,708,0,0
427,316,0,0,0,0,0,0,0,0,0,-1,1651,708,0,0
434,316,0,0,0,0,0,0,0,0,0,-1,1658,708,0,0
441,316,0,0,0,0,0,0,0,0,0,-1,1665,708,0,0
448,316,0,0,0,0,0,0,0,0,0,-1,1672,708,0,0
455,316,0,0,0,0,0,0,0,0,0,-1,1679,708,0,0
462,316,0,0,0,0,0,0,0,0,0,-1,1686,708,0,0
469,316,0,0,0,0,0,0,0,0,0,-1,1693,708,0,0
476,316,0,0,0,0,0,0,0,0,0,-1,1700,708,0,0
483,316,0,0,0,0,0,0,0,0,0,-1,1707,708,0,0
490,316,0,0,0,0,0,0,0,0,0,-1,1714,708,0,0
497,316,0,0,0,0,0,0,0,0,0,-1,1721,708,0,0
504,316,0,0,0,0,0,0,0,0,0,-1,1728,708,0,0
511,316,0,0,0,0,0,0,0,0,0,-1,1735,708,0,0
518,316,0,0,0,0,0,0,0,0,0,-1,1742,708,0,0
525,316,0,0,0,0,0,0,0,0,0,-1,1749,708,0,0
532,316,33.8604,0.531128,0,0,0,0,0,0,0,-1,1756,708,33.8604,-0.531151
539,316,32.5764,1.44672,-0.120282,0.135259,0.124242,0.185705,-0.170728,1.1851,0.205848,0.046824,1763,708,32.5764,-1.4467
546,316,31.2839,3.05426,-0.098166,0.120388,0.103011,0.161286,-0.139065,1.19285,0.173566,0.0461693,1770,708,31.2839,-3.05423
553,316,30.4901,4.8869,-0.08155,0.109398,0.0850734,0.141802,-0.113954,1.20687,0.147952,0.0486644,1777,708,30.4901,-4.88688
560,316,29.651,6.51129,0,0,0,0,0,0,0,-1,1784,708,29.651,-6.51128
567,316,31.678,2.43597,0,0,0,0,0,0,0,-1,1791,708,31.678,-2.43595
574,316,24.005,7.10864,0,0,0,0,0,0,0,-1,1798,708,24.005,-7.10867
581,316,24.6815,7.77496,0,0,0,0,0,0,0,-1,1805,708,24.6815,-7.77499
588,316,19.7659,2.90198,0,0,0,0,0,0,0,-1,1812,708,19.7659,-2.902
595,316,12.5363,1.50702,0,0,0,0,0,0,0,-1,1819,708,12.5363,-1.50701
602,316,7.79919,0.0422363,0,0,0,0,0,0,0,-1,1826,708,7.79923,-0.0422066
609,316,18.0172,-2.01324,0,0,0,0,0,0,0,-1,1833,708,18.0172,2.01325
616,316,18.1122,-1.58502,0.00216241,0.0236222,0.00377729,0.0242676,0.00151695,1.40155,0.0156972,0.0202306,1840,708,18.1121,1.58504
623,316,18.1417,-1.18927,0.00302658,0.016238,0.00249509,0.0166936,0.00257106,1.39022,0.0103787,0.0104445,1847,708,18.1417,1.18928
630,316,18.131,-0.813843,0.000899603,0.00891543,0.00161899,0.00923007,0.00058496,1.37884,0.00596796,0.0123207,1854,708,18.131,0.813841
637,316,18.1484,-0.427551,-0.000339957,0.00415919,0.00068902,0.00426234,-0.000443112,1.42219,0.00300019,0.0116932,1861,708,18.1485,0.427532
644,316,18.1489,-0.053833,-0.00115328,0.00105737,-0.000254032,0.00108619,-0.00118209,-1.45784,0.00130998,0.0122922,1868,708,18.1489,0.0538105
651,316,18.121,0.325073,-0.0019983,-0.000277808,-0.000847197,6.93256e-05,-0.00234544,-1.18192,0.00158724,0.0141424,1875,708,18.121,-0.325058
658,316,18.1166,0.747559,-0.0031701,-0.000209908,-0.00128694,0.000271346,-0.00365135,-1.21294,0.00252954,0.022511,1882,708,18.1166,-0.747548
665,316,18.0642,1.11761,-0.00437864,-0.000156703,-0.00180072,0.000506997,-0.00504234,-1.21767,0.00354268,0.017459,1889,708,18.0643,-1.11763
672,316,18.0773,1.48053,-0.00550425,7.66253e-05,-0.00217357,0.000823271,-0.0062509,-1.23991,0.00446705,0.013186,1896,708,18.0773,-1.4805
679,316,18.0936,1.8866,-0.00669772,0.000365559,-0.00255393,0.00119225,-0.00752441,-1.25775,0.00545728,0.0199168,1903,708,18.0936,-1.88662
686,316,17.9038,2.22485,-0.00798918,0.000700536,-0.00304556,0.00166164,-0.00895028,-1.26511,0.00659093,0.0335285,1910,708,17.9038,-2.22483
693,316,17.6776,2.60913,0,0,0,0,0,0,0,-1,1917,708,17.6776,-2.60913
700,316,12.8749,2.89136,0,0,0,0,0,0,0,-1,1924,708,12.8748,-2.89137
707,316,15.7089,5.41486,0,0,0,0,0,0,0,-1,1931,708,15.7088,-5.41487
714,316,16.1727,5.52045,0,0,0,0,0,0,0,-1,1938,708,16.1728,-5.52042
721,316,16.7094,6.53351,0,0,0,0,0,0,0,-1,1945,708,16.7094,-6.5335
728,316,0,0,0,0,0,0,0,0,0,-1,1952,708,0,0
735,316,0,0,0,0,0,0,0,0,0,-1,1959,708,0,0
742,316,0,0,0,0,0,0,0,0,0,-1,1966,708,0,0
749,316,0,0,0,0,0,0,0,0,0,-1,1973,708,0,0
756,316,0,0,0,0,0,0,0,0,0,-1,1980,708,0,0
763,316,0,0,0,0,0,0,0,0,0,-1,1987,708,0,0
770,316,0,0,0,0,0,0,0,0,0,-1,1994,708,0,0
777,316,0,0,0,0,0,0,0,0,0,-1,2001,708,0,0
784,316,0,0,0,0,0,0,0,0,0,-1,2008,708,0,0
791,316,0,0,0,0,0,0,0,0,0,-1,2015,708,0,0
798,316,0,0,0,0,0,0,0,0,0,-1,2022,708,0,0
805,316,0,0,0,0,0,0,0,0,0,-1,2029,708,0,0
812,316,0,0,0,0,0,0,0,0,0,-1,2036,708,0,0
-700,309,0,0,0,0,0,0,0,0,0,-1,524,715,0,0
-693,309,0,0,0,0,0,0,0,0,0,-1,531,715,0,0
-686,309,0,0,0,0,0,0,0,0,0,-1,538,715,0,0
-679,309,0,0,0,0,0,0,0,0,0,-1,545,715,0,0
-672,309,0,0,0,0,0,0,0,0,0,-1,552,715,0,0
-665,309,0,0,0,0,0,0,0,0,0,-1,559,715,0,0
-658,309,0,0,0,0,0,0,0,0,0,-1,566,715,0,0
-651,309,0,0,0,0,0,0,0,0,0,-1,573,715,0,0
-644,309,0,0,0,0,0,0,0,0,0,-1,580,715,0,0
-637,309,0,0,0,0,0,0,0,0,0,-1,587,715,0,0
-630,309,0,0,0,0,0,0,0,0,0,-1,594,715,0,0
-623,309,0,0,0,0,0,0,0,0,0,-1,601,715,0,0
-616,309,0,0,0,0,0,0,0,0,0,-1,608,715,0,0
-609,309,-5.95392,-3.93689,0,0,0,0,0,0,0,-1,615,715,-5.95392,3.93686
-602,309,-4.99786,-3.31287,0,0,0,0,0,0,0,-1,622,715,-4.99786,3.31284
-595,309,-6.80847,2.4046,0,0,0,0,0,0,0,-1,629,715,-6.80845,-2.40458
-588,309,-6.08795,2.19324,0,0,0,0,0,0,0,-1,636,715,-6.08793,-2.19325
-581,309,-5.97552,1.3277,0,0,0,0,0,0,0,-1,643,715,-5.97552,-1.32769
-574,309,-8.49042,-0.105652,0,0,0,0,0,0,0,-1,650,715,-8.49044,0.105668
-567,309,-8.76874,-0.567627,0,0,0,0,0,0,0,-1,657,715,-8.76876,0.567635
-560,309,-10.5372,-0.0216675,0,0,0,0,0,0,0,-1,664,715,-10.5372,0.0216493
-553,309,-10.6426,-0.130493,0.00481086,0.00357434,-0.00259666,0.00686185,0.00152335,-0.668525,0.0041608,0.0357451,671,715,-10.6425,0.130512
-546,309,-10.7555,-0.463501,0.00378714,0.00310318,-0.00247323,0.00594193,0.000948398,-0.716698,0.00368605,0.0178564,678,715,-10.7555,0.463506
-539,309,-10.7378,-0.865112,0.00295268,0.0025612,-0.00217479,0.00494052,0.000573356,-0.740517,0.00312017,0.0152582,685,715,-10.7378,0.865142
-532,309,-10.7245,-1.22418,0.00218723,0.00184709,-0.0017519,0.0037773,0.000257024,-0.737011,0.00243705,0.0124559,692,715,-10.7245,1.22419
-525,309,-10.7484,-1.59357,0.00152678,0.00111903,-0.001162,0.00250265,0.000143159,-0.698556,0.00162282,0.0149679,699,715,-10.7484,1.59359
-518,309,-10.7733,-1.95331,0.00101987,0.000367989,-0.000569631,0.00135022,3.76391e-05,-0.525537,0.000887865,0.0155262,706,715,-10.7733,1.9533
-511,309,-10.7934,-2.30438,0.000581514,-0.000369794,5.81927e-05,0.000585061,-0.000373341,0.0608687,0.000557816,0.0124611,713,715,-10.7934,2.30439
-504,309,-10.7764,-2.65228,0.000276782,-0.00119039,0.00070977,0.000563942,-0.00147755,0.38445,0.00121736,0.0101241,720,715,-10.7764,2.65229
-497,309,-10.7781,-3.00043,0.000319055,-0.00185791,0.00118602,0.000840365,-0.00237922,0.414127,0.0019283,0.0134613,727,715,-10.7781,3.00043
-490,309,-10.7659,-3.33923,0.000655277,-0.00218582,0.00147887,0.00128534,-0.00281588,0.402756,0.00242218,0.037546,734,715,-10.7659,3.33923
-483,309,-10.5382,-3.8833,0,0,0,0,0,0,0,-1,741,715,-10.5382,3.88333
-476,309,-5.29486,-1.2262,0,0,0,0,0,0,0,-1,748,715,-5.29484,1.22622
-469,309,-4.22717,-0.592896,0,0,0,0,0,0,0,-1,755,715,-4.2272,0.592905
-462,309,-10.428,2.46948,0,0,0,0,0,0,0,-1,762,715,-10.428,-2.46947
-455,309,-15.8216,0.00915527,0,0,0,0,0,0,0,-1,769,715,-15.8216,-0.00913359
-448,309,-19.2673,1.19257,0,0,0,0,0,0,0,-1,776,715,-19.2673,-1.19254
-441,309,-19.8181,1.4425,0,0,0,0,0,0,0,-1,783,715,-19.8181,-1.44249
-434,309,-15.3519,1.06873,0,0,0,0,0,0,0,-1,790,715,-15.3519,-1.06874
-427,309,-15.1996,1.32141,0,0,0,0,0,0,0,-1,797,715,-15.1996,-1.3214
-420,309,-13.3781,3.26843,0,0,0,0,0,0,0,-1,804,715,-13.3781,-3.26842
-413,309,0,0,0,0,0,0,0,0,0,-1,811,715,0,0
-406,309,0,0,0,0,0,0,0,0,0,-1,818,715,0,0
-399,309,0,0,0,0,0,0,0,0,0,-1,825,715,0,0
-392,309,0,0,0,0,0,0,0,0,0,-1,832,715,0,0
-385,309,0,0,0,0,0,0,0,0,0,-1,839,715,0,0
-378,309,0,0,0,0,0,0,0,0,0,-1,846,715,0,0
-371,309,0,0,0,0,0,0,0,0,0,-1,853,715,0,0
-364,309,0,0,0,0,0,0,0,0,0,-1,860,715,0,0
-357,309,0,0,0,0,0,0,0,0,0,-1,867,715,0,0
-350,309,0,0,0,0,0,0,0,0,0,-1,874,715,0,0
-343,309,0,0,0,0,0,0,0,0,0,-1,881,715,0,0
-336,309,0,0,0,0,0,0,0,0,0,-1,888,715,0,0
-329,309,0,0,0,0,0,0,0,0,0,-1,895,715,0,0
-322,309,0,0,0,0,0,0,0,0,0,-1,902,715,0,0
-315,309,0,0,0,0,0,0,0,0,0,-1,909,715,0,0
-308,309,0,0,0,0,0,0,0,0,0,-1,916,715,0,0
-301,309,0,0,0,0,0,0,0,0,0,-1,923,715,0,0
-294,309,0,0,0,0,0,0,0,0,0,-1,930,715,0,0
-287,309,0,0,0,0,0,0,0,0,0,-1,937,715,0,0
-280,309,0,0,0,0,0,0,0,0,0,-1,944,715,0,0
-273,309,0,0,0,0,0,0,0,0,0,-1,951,715,0,0
-266,309,0,0,0,0,0,0,0,0,0,-1,958,715,0,0
-259,309,0,0,0,0,0,0,0,0,0,-1,965,715,0,0
-252,309,0,0,0,0,0,0,0,0,0,-1,972,715,0,0
-245,309,0,0,0,0,0,0,0,0,0,-1,979,715,0,0
-238,309,0,0,0,0,0,0,0,0,0,-1,986,715,0,0
-231,309,0,0,0,0,0,0,0,0,0,-1,993,715,0,0
-224,309,0,0,0,0,0,0,0,0,0,-1,1000,715,0,0
-217,309,0,0,0,0,0,0,0,0,0,-1,1007,715,0,0
-210,309,0,0,0,0,0,0,0,0,0,-1,1014,715,0,0
-203,309,0,0,0,0,0,0,0,0,0,-1,1021,715,0,0
-196,309,0,0,0,0,0,0,0,0,0,-1,1028,715,0,0
-189,309,0,0,0,0,0,0,0,0,0,-1,1035,715,0,0
-182,309,0,0,0,0,0,0,0,0,0,-1,1042,715,0,0
-175,309,0,0,0,0,0,0,0,0,0,-1,1049,715,0,0
-168,309,0,0,0,0,0,0,0,0,0,-1,1056,715,0,0
-161,309,0,0,0,0,0,0,0,0,0,-1,1063,715,0,0
-154,309,0,0,0,0,0,0,0,0,0,-1,1070,715,0,0
-147,309,0,0,0,0,0,0,0,0,0,-1,1077,715,0,0
-140,309,0,0,0,0,0,0,0,0,0,-1,1084,715,0,0
-133,309,0,0,0,0,0,0,0,0,0,-1,1091,715,0,0
-126,309,0,0,0,0,0,0,0,0,0,-1,1098,715,0,0
-119,309,0,0,0,0,0,0,0,0,0,-1,1105,715,0,0
-112,309,0,0,0,0,0,0,0,0,0,-1,1112,715,0,0
-105,309,0,0,0,0,0,0,0,0,0,-1,1119,715,0,0
-98,309,0,0,0,0,0,0,0,0,0,-1,1126,715,0,0
-91,309,0,0,0,0,0,0,0,0,0,-1,1133,715,0,0
-84,309,0,0,0,0,0,0,0,0,0,-1,1140,715,0,0
-77,309,0,0,0,0,0,0,0,0,0,-1,1147,715,0,0
-70,309,0,0,0,0,0,0,0,0,0,-1,1154,715,0,0
-63,309,0,0,0,0,0,0,0,0,0,-1,1161,715,0,0
-56,309,0,0,0,0,0,0,0,0,0,-1,1168,715,0,0
-49,309,0,0,0,0,0,0,0,0,0,-1,1175,715,0,0
-42,309,0,0,0,0,0,0,0,0,0,-1,1182,715,0,0
-35,309,0,0,0,0,0,0,0,0,0,-1,1189,715,0,0
-28,309,0,0,0,0,0,0,0,0,0,-1,1196,715,0,0
-21,309,0,0,0,0,0,0,0,0,0,-1,1203,715,0,0
-14,309,0,0,0,0,0,0,0,0,0,-1,1210,715,0,0
-7,309,0,0,0,0,0,0,0,0,0,-1,1217,715,0,0
0,309,0,0,0,0,0,0,0,0,0,-1,1224,715,0,0
7,309,0,0,0,0,0,0,0,0,0,-1,1231,715,0,0
14,309,0,0,0,0,0,0,0,0,0,-1,1238,715,0,0
21,309,0,0,0,0,0,0,0,0,0,-1,1245,715,0,0
28,309,0,0,0,0,0,0,0,0,0,-1,1252,715,0,0
35,309,0,0,0,0,0,0,0,0,0,-1,1259,715,0,0
42,309,0,0,0,0,0,0,0,0,0,-1,1266,715,0,0
49,309,0,0,0,0,0,0,0,0,0,-1,1273,715,0,0
56,309,0,0,0,0,0,0,0,0,0,-1,1280,715,0,0
63,309,0,0,0,0,0,0,0,0,0,-1,1287,715,0,0
70,309,0,0,0,0,0,0,0,0,0,-1,1294,715,0,0
77,309,0,0,0,0,0,0,0,0,0,-1,1301,715,0,0
84,309,0,0,0,0,0,0,0,0,0,-1,1308,715,0,0
91,309,0,0,0,0,0,0,0,0,0,-1,1315,715,0,0
98,309,0,0,0,0,0,0,0,0,0,-1,1322,715,0,0
105,309,0,0,0,0,0,0,0,0,0,-1,1329,715,0,0
112,309,0,0,0,0,0,0,0,0,0,-1,1336,715,0,0
119,309,0,0,0,0,0,0,0,0,0,-1,1343,715,0,0
126,309,0,0,0,0,0,0,0,0,0,-1,1350,715,0,0
133,309,0,0,0,0,0,0,0,0,0,-1,1357,715,0,0
140,309,0,0,0,0,0,0,0,0,0,-1,1364,715,0,0
147,309,0,0,0,0,0,0,0,0,0,-1,1371,715,0,0
154,309,0,0,0,0,0,0,0,0,0,-1,1378,715,0,0
161,309,0,0,0,0,0,0,0,0,0,-1,1385,715,0,0
168,309,0,0,0,0,0,0,0,0,0,-1,1392,715,0,0
175,309,0,0,0,0,0,0,0,0,0,-1,1399,715,0,0
182,309,0,0,0,0,0,0,0,0,0,-1,1406,715,0,0
189,309,0,0,0,0,0,0,0,0,0,-1,1413,715,0,0
196,309,0,0,0,0,0,0,0,0,0,-1,1420,715,0,0
203,309,0,0,0,0,0,0,0,0,0,-1,1427,715,0,0
210,309,0,0,0,0,0,0,0,0,0,-1,1434,715,0,0
217,309,0,0,0,0,0,0,0,0,0,-1,1441,715,0,0
224,309,0,0,0,0,0,0,0,0,0,-1,1448,715,0,0
231,309,0,0,0,0,0,0,0,0,0,-1,1455,715,0,0
238,309,0,0,0,0,0,0,0,0,0,-1,1462,715,0,0
245,309,0,0,0,0,0,0,0,0,0,-1,1469,715,0,0
252,309,0,0,0,0,0,0,0,0,0,-1,1476,715,0,0
259,309,0,0,0,0,0,0,0,0,0,-1,1483,715,0,0
266,309,0,0,0,0,0,0,0,0,0,-1,1490,715,0,0
273,309,0,0,0,0,0,0,0,0,0,-1,1497,715,0,0
280,309,0,0,0,0,0,0,0,0,0,-1,1504,715,0,0
287,309,0,0,0,0,0,0,0,0,0,-1,1511,715,0,0
294,309,0,0,0,0,0,0,0,0,0,-1,1518,715,0,0
301,309,0,0,0,0,0,0,0,0,0,-1,1525,715,0,0
308,309,0,0,0,0,0,0,0,0,0,-1,1532,715,0,0
315,309,0,0,0,0,0,0,0,0,0,-1,1539,715,0,0
322,309,0,0,0,0,0,0,0,0,0,-1,1546,715,0,0
329,309,0,0,0,0,0,0,0,0,0,-1,1553,715,0,0
336,309,0,0,0,0,0,0,0,0,0,-1,1560,715,0,0
343,309,0,0,0,0,0,0,0,0,0,-1,1567,715,0,0
350,309,0,0,0,0,0,0,0,0,0,-1,1574,715,0,0
357,309,0,0,0,0,0,0,0,0,0,-1,1581,715,0,0
364,309,0,0,0,0,0,0,0,0,0,-1,1588,715,0,0
371,309,0,0,0,0,0,0,0,0,0,-1,1595,715,0,0
378,309,0,0,0,0,0,0,0,0,0,-1,1602,715,0,0
385,309,0,0,0,0,0,0,0,0,0,-1,1609,715,0,0
392,309,0,0,0,0,0,0,0,0,0,-1,1616,715,0,0
399,309,0,0,0,0,0,0,0,0,0,-1,1623,715,0,0
406,309,0,0,0,0,0,0,0,0,0,-1,1630,715,0,0
413,309,0,0,0,0,0,0,0,0,0,-1,1637,715,0,0
420,309,0,0,0,0,0,0,0,0,0,-1,1644,715,0,0
427,309,0,0,0,0,0,0,0,0,0,-1,1651,715,0,0
434,309,0,0,0,0,0,0,0,0,0,-1,1658,715,0,0
441,309,0,0,0,0,0,0,0,0,0,-1,1665,715,0,0
448,309,0,0,0,0,0,0,0,0,0,-1,1672,715,0,0
455,309,0,0,0,0,0,0,0,0,0,-1,1679,715,0,0
462,309,0,0,0,0,0,0,0,0,0,-1,1686,715,0,0
469,309,0,0,0,0,0,0,0,0,0,-1,1693,715,0,0
476,309,0,0,0,0,0,0,0,0,0,-1,1700,715,0,0
483,309,0,0,0,0,0,0,0,0,0,-1,1707,715,0,0
490,309,0,0,0,0,0,0,0,0,0,-1,1714,715,0,0
497,309,0,0,0,0,0,0,0,0,0,-1,1721,715,0,0
504,309,0,0,0,0,0,0,0,0,0,-1,1728,715,0,0
511,309,0,0,0,0,0,0,0,0,0,-1,1735,715,0,0
518,309,0,0,0,0,0,0,0,0,0,-1,1742,715,0,0
525,309,0,0,0,0,0,0,0,0,0,-1,1749,715,0,0
532,309,0,0,0,0,0,0,0,0,0,-1,1756,715,0,0
539,309,32.9092,0.469055,-0.136089,0.124573,0.118251,0.170223,-0.181739,1.20238,0.203242,0.0465621,1763,715,32.9092,-0.469069
546,309,31.9059,2.13855,-0.106032,0.119873,0.0989729,0.1571,-0.143259,1.21103,0.173474,0.0423805,1770,715,31.9059,-2.13856
553,309,31.0214,4.17615,-0.0846623,0.113998,0.0820452,0.1435,-0.114165,1.2256,0.149084,0.0419618,1777,715,31.0214,-4.17615
560,309,30.699,4.74493,0,0,0,0,0,0,0,-1,1784,715,30.699,-4.7449
567,309,24.5099,5.24646,0,0,0,0,0,0,0,-1,1791,715,24.5099,-5.24643
574,309,25.0681,6.21802,-0.0403155,0.0845023,0.0421741,0.0974162,-0.0532294,1.27366,0.0882136,0.0460894,1798,715,25.0681,-6.218
581,309,25.644,7.03058,-0.0295794,0.0744093,0.0327049,0.0838398,-0.03901,1.29006,0.0724845,0.0470035,1805,715,25.6441,-7.03056
588,309,26.2064,7.76422,0,0,0,0,0,0,0,-1,1812,715,26.2064,-7.7642
595,309,19.585,3.71558,0,0,0,0,0,0,0,-1,1819,715,19.5849,-3.71555
602,309,11.0811,3.47772,0,0,0,0,0,0,0,-1,1826,715,11.0811,-3.47772
609,309,18.3267,-2.07288,0,0,0,0,0,0,0,-1,1833,715,18.3267,2.0729
616,309,18.47,-1.61359,0.0021394,0.0260676,0.00417451,0.026775,0.00143203,1.40294,0.0173923,0.0307169,1840,715,18.47,1.61357
623,309,18.5483,-1.1933,0.00332507,0.0185625,0.00282426,0.0190691,0.00281844,1.3933,0.0118852,0.0114552,1847,715,18.5483,1.1933
630,309,18.5262,-0.819458,0.00113482,0.010772,0.00188164,0.0111263,0.000780465,1.38465,0.00717158,0.0104065,1854,715,18.5262,0.819481
637,309,18.5054,-0.427917,-0.000118438,0.00538636,0.000877446,0.00552284,-0.000254916,1.41649,0.00376974,0.0126648,1861,715,18.5054,0.427898
644,309,18.4626,-0.0352783,-0.000849345,0.00156542,-0.000112243,0.00157063,-0.000854551,-1.52445,0.00142038,0.0148724,1868,715,18.4627,0.0352506
651,309,18.4637,0.352783,-0.00150595,-0.000256228,-0.000668462,3.39481e-05,-0.00179612,-1.16125,0.00120889,0.0147474,1875,715,18.4637,-0.3528
658,309,18.5059,0.767456,-0.00248577,-0.000117044,-0.00102814,0.000266965,-0.00286978,-1.21334,0.0020081,0.020046,1882,715,18.5058,-0.767472
665,309,18.4995,1.10553,-0.00332883,2.93232e-05,-0.00141149,0.000543782,-0.00384329,-1.22128,0.00276136,0.0169835,1889,715,18.4996,-1.10551
672,309,18.4836,1.46875,-0.0038915,0.000446205,-0.00152096,0.000926358,-0.00437166,-1.26501,0.00326729,0.0150368,1896,715,18.4837,-1.46876
679,309,18.4772,1.88635,-0.00441627,0.00092735,-0.00161897,0.00137958,-0.0048685,-1.29841,0.00379017,0.0162822,1903,715,18.4771,-1.88636
686,309,18.4121,2.2843,-0.00478909,0.00150493,-0.00170467,0.00193697,-0.00522112,-1.32258,0.00427526,0.0245625,1910,715,18.4121,-2.28433
693,309,17.9917,2.64404,-0.00443465,0.00258024,-0.00124122,0.00279338,-0.00464779,-1.40073,0.00434041,0.0443246,1917,715,17.9917,-2.64407
700,309,17.7096,3.05835,0,0,0,0,0,0,0,-1,1924,715,17.7096,-3.05835
707,309,15.6318,4.58655,0,0,0,0,0,0,0,-1,1931,715,15.6318,-4.58657
714,309,16.7573,6.68286,0,0,0,0,0,0,0,-1,1938,715,16.7574,-6.68284
721,309,16.8337,5.4458,0,0,0,0,0,0,0,-1,1945,715,16.8338,-5.44582
728,309,0,0,0,0,0,0,0,0,0,-1,1952,715,0,0
735,309,0,0,0,0,0,0,0,0,0,-1,1959,715,0,0
742,309,0,0,0,0,0,0,0,0,0,-1,1966,715,0,0
749,309,0,0,0,0,0,0,0,0,0,-1,1973,715,0,0
756,309,0,0,0,0,0,0,0,0,0,-1,1980,715,0,0
763,309,0,0,0,0,0,0,0,0,0,-1,1987,715,0,0
770,309,0,0,0,0,0,0,0,0,0,-1,1994,715,0,0
777,309,0,0,0,0,0,0,0,0,0,-1,2001,715,0,0
784,309,0,0,0,0,0,0,0,0,0,-1,2008,715,0,0
791,309,0,0,0,0,0,0,0,0,0,-1,2015,715,0,0
798,309,0,0,0,0,0,0,0,0,0,-1,2022,715,0,0
805,309,0,0,0,0,0,0,0,0,0,-1,2029,715,0,0
812,309,0,0,0,0,0,0,0,0,0,-1,2036,715,0,0
-700,302,0,0,0,0,0,0,0,0,0,-1,524,722,0,0
-693,302,0,0,0,0,0,0,0,0,0,-1,531,722,0,0
-686,302,0,0,0,0,0,0,0,0,0,-1,538,722,0,0
-679,302,0,0,0,0,0,0,0,0,0,-1,545,722,0,0
-672,302,0,0,0,0,0,0,0,0,0,-1,552,722,0,0
-665,302,0,0,0,0,0,0,0,0,0,-1,559,722,0,0
-658,302,0,0,0,0,0,0,0,0,0,-1,566,722,0,0
-651,302,0,0,0,0,0,0,0,0,0,-1,573,722,0,0
-644,302,0,0,0,0,0,0,0,0,0,-1,580,722,0,0
-637,302,0,0,0,0,0,0,0,0,0,-1,587,722,0,0
-630,302,0,0,0,0,0,0,0,0,0,-1,594,722,0,0
-623,302,0,0,0,0,0,0,0,0,0,-1,601,722,0,0
-616,302,0,0,0,0,0,0,0,0,0,-1,608,722,0,0
-609,302,-7.79266,-3.71649,0,0,0,0,0,0,0,-1,615,722,-7.79267,3.7165
-602,302,0.92865,-1.99158,0,0,0,0,0,0,0,-1,622,722,0.928637,1.99157
-595,302,-7.89941,2.13641,0,0,0,0,0,0,0,-1,629,722,-7.89939,-2.13639
-588,302,-7.10895,1.79163,0,0,0,0,0,0,0,-1,636,722,-7.10896,-1.79163
-581,302,-8.59845,0.402344,0,0,0,0,0,0,0,-1,643,722,-8.59848,-0.402343
-574,302,-10.226,1.27588,0,0,0,0,0,0,0,-1,650,722,-10.2259,-1.27587
-567,302,-10.4095,-0.0440063,0,0,0,0,0,0,0,-1,657,722,-10.4096,0.0440013
-560,302,-10.7804,-0.0379639,0.00170529,0.0034464,0.000661599,0.00366927,0.00148242,1.24587,0.00213143,0.0489656,664,722,-10.7804,0.0379662
-553,302,-11.088,-0.0762329,0.00127492,0.00288917,0.000131381,0.00289979,0.0012643,1.49012,0.00167876,0.0205565,671,722,-11.088,0.0762518
-546,302,-11.1086,-0.503174,0.00096397,0.0022101,-0.000112013,0.00222009,0.000953982,-1.48186,0.00128598,0.0154073,678,722,-11.1086,0.503173
-539,302,-11.1125,-0.823853,0.000736712,0.00156178,-0.000177063,0.00159818,0.000700319,-1.36808,0.000925055,0.0150452,685,722,-11.1125,0.82387
-532,302,-11.1141,-1.17517,0.000492569,0.000829377,-0.000131116,0.0008744,0.000447546,-1.24002,0.000504882,0.0143324,692,722,-11.1141,1.17517
-525,302,-11.0991,-1.58734,0.000338321,0.000198847,8.30715e-05,0.000377046,0.000160121,0.436221,0.00021851,0.0192534,699,722,-11.0991,1.58732
-518,302,-11.1508,-1.92926,0.000278091,-0.000404594,0.000322555,0.000406383,-0.000532886,0.378554,0.000543924,0.0198172,706,722,-11.1507,1.92926
-511,302,-11.1371,-2.2655,0.000224959,-0.000941898,0.000620313,0.000493104,-0.00121004,0.408015,0.00101194,0.010925,713,722,-11.1371,2.26551
-504,302,-11.1365,-2.625,0.000247524,-0.00155055,0.000994129,0.000688846,-0.00199187,0.417793,0.0016075,0.0099305,720,722,-11.1365,2.62498
-497,302,-11.1591,-2.9715,0.000472035,-0.00173077,0.00120737,0.0010049,-0.00226363,0.415632,0.00193317,0.0142572,727,722,-11.159,2.97149
-490,302,-11.0281,-3.26038,0,0,0,0,0,0,0,-1,734,722,-11.0281,3.26036
-483,302,-9.53412,-3.1673,0,0,0,0,0,0,0,-1,741,722,-9.53411,3.1673
-476,302,-4.29749,-0.203491,0,0,0,0,0,0,0,-1,748,722,-4.29751,0.203464
-469,302,-12.369,1.42859,0,0,0,0,0,0,0,-1,755,722,-12.3689,-1.42857
-462,302,-17.4766,0.310791,0,0,0,0,0,0,0,-1,762,722,-17.4766,-0.310788
-455,302,-17.8736,1.4895,0,0,0,0,0,0,0,-1,769,722,-17.8736,-1.48952
-448,302,-18.4984,1.81525,0,0,0,0,0,0,0,-1,776,722,-18.4984,-1.81528
-441,302,-19.3027,1.54785,0,0,0,0,0,0,0,-1,783,722,-19.3027,-1.54786
-434,302,-19.7321,1.78467,0,0,0,0,0,0,0,-1,790,722,-19.732,-1.78469
-427,302,-15.3611,1.80798,0,0,0,0,0,0,0,-1,797,722,-15.3611,-1.80801
-420,302,0,0,0,0,0,0,0,0,0,-1,804,722,0,0
-413,302,0,0,0,0,0,0,0,0,0,-1,811,722,0,0
-406,302,0,0,0,0,0,0,0,0,0,-1,818,722,0,0
-399,302,0,0,0,0,0,0,0,0,0,-1,825,722,0,0
-392,302,0,0,0,0,0,0,0,0,0,-1,832,722,0,0
-385,302,0,0,0,0,0,0,0,0,0,-1,839,722,0,0
-378,302,0,0,0,0,0,0,0,0,0,-1,846,722,0,0
-371,302,0,0,0,0,0,0,0,0,0,-1,853,722,0,0
-364,302,0,0,0,0,0,0,0,0,0,-1,860,722,0,0
-357,302,0,0,0,0,0,0,0,0,0,-1,867,722,0,0
-350,302,0,0,0,0,0,0,0,0,0,-1,874,722,0,0
-343,302,0,0,0,0,0,0,0,0,0,-1,881,722,0,0
-336,302,0,0,0,0,0,0,0,0,0,-1,888,722,0,0
-329,302,0,0,0,0,0,0,0,0,0,-1,895,722,0,0
-322,302,0,0,0,0,0,0,0,0,0,-1,902,722,0,0
-315,302,0,0,0,0,0,0,0,0,0,-1,909,722,0,0
-308,302,0,0,0,0,0,0,0,0,0,-1,916,722,0,0
-301,302,0,0,0,0,0,0,0,0,0,-1,923,722,0,0
-294,302,0,0,0,0,0,0,0,0,0,-1,930,722,0,0
-287,302,0,0,0,0,0,0,0,0,0,-1,937,722,0,0
-280,302,0,0,0,0,0,0,0,0,0,-1,944,722,0,0
-273,302,0,0,0,0,0,0,0,0,0,-1,951,722,0,0
-266,302,0,0,0,0,0,0,0,0,0,-1,958,722,0,0
-259,302,0,0,0,0,0,0,0,0,0,-1,965,722,0,0
-252,302,0,0,0,0,0,0,0,0,0,-1,972,722,0,0
-245,302,0,0,0,0,0,0,0,0,0,-1,979,722,0,0
-238,302,0,0,0,0,0,0,0,0,0,-1,986,722,0,0
-231,302,0,0,0,0,0,0,0,0,0,-1,993,722,0,0
-224,302,0,0,0,0,0,0,0,0,0,-1,1000,722,0,0
-217,302,0,0,0,0,0,0,0,0,0,-1,1007,722,0,0
-210,302,0,0,0,0,0,0,0,0,0,-1,1014,722,0,0
-203,302,0,0,0,0,0,0,0,0,0,-1,1021,722,0,0
-196,302,0,0,0,0,0,0,0,0,0,-1,1028,722,0,0
-189,302,0,0,0,0,0,0,0,0,0,-1,1035,722,0,0
-182,302,0,0,0,0,0,0,0,0,0,-1,1042,722,0,0
-175,302,0,0,0,0,0,0,0,0,0,-1,1049,722,0,0
-168,302,0,0,0,0,0,0,0,0,0,-1,1056,722,0,0
-161,302,0,0,0,0,0,0,0,0,0,-1,1063,722,0,0
-154,302,0,0,0,0,0,0,0,0,0,-1,1070,722,0,0
-147,302,0,0,0,0,0,0,0,0,0,-1,1077,722,0,0
-140,302,0,0,0,0,0,0,0,0,0,-1,1084,722,0,0
-133,302,0,0,0,0,0,0,0,0,0,-1,1091,722,0,0
-126,302,0,0,0,0,0,0,0,0,0,-1,1098,722,0,0
-119,302,0,0,0,0,0,0,0,0,0,-1,1105,722,0,0
-112,302,0,0,0,0,0,0,0,0,0,-1,1112,722,0,0
-105,302,0,0,0,0,0,0,0,0,0,-1,1119,722,0,0
-98,302,0,0,0,0,0,0,0,0,0,-1,1126,722,0,0
-91,302,0,0,0,0,0,0,0,0,0,-1,1133,722,0,0
-84,302,0,0,0,0,0,0,0,0,0,-1,1140,722,0,0
-77,302,0,0,0,0,0,0,0,0,0,-1,1147,722,0,0
-70,302,0,0,0,0,0,0,0,0,0,-1,1154,722,0,0
-63,302,0,0,0,0,0,0,0,0,0,-1,1161,722,0,0
-56,302,0,0,0,0,0,0,0,0,0,-1,1168,722,0,0
-49,302,0,0,0,0,0,0,0,0,0,-1,1175,722,0,0
-42,302,0,0,0,0,0,0,0,0,0,-1,1182,722,0,0
-35,302,0,0,0,0,0,0,0,0,0,-1,1189,722,0,0
-28,302,0,0,0,0,0,0,0,0,0,-1,1196,722,0,0
-21,302,0,0,0,0,0,0,0,0,0,-1,1203,722,0,0
-14,302,0,0,0,0,0,0,0,0,0,-1,1210,722,0,0
-7,302,0,0,0,0,0,0,0,0,0,-1,1217,722,0,0
0,302,0,0,0,0,0,0,0,0,0,-1,1224,722,0,0
7,302,0,0,0,0,0,0,0,0,0,-1,1231,722,0,0
14,302,0,0,0,0,0,0,0,0,0,-1,1238,722,0,0
21,302,0,0,0,0,0,0,0,0,0,-1,1245,722,0,0
28,302,0,0,0,0,0,0,0,0,0,-1,1252,722,0,0
35,302,0,0,0,0,0,0,0,0,0,-1,1259,722,0,0
42,302,0,0,0,0,0,0,0,0,0,-1,1266,722,0,0
49,302,0,0,0,0,0,0,0,0,0,-1,1273,722,0,0
56,302,0,0,0,0,0,0,0,0,0,-1,1280,722,0,0
63,302,0,0,0,0,0,0,0,0,0,-1,1287,722,0,0
70,302,0,0,0,0,0,0,0,0,0,-1,1294,722,0,0
77,302,0,0,0,0,0,0,0,0,0,-1,1301,722,0,0
84,302,0,0,0,0,0,0,0,0,0,-1,1308,722,0,0
91,302,0,0,0,0,0,0,0,0,0,-1,1315,722,0,0
98,302,0,0,0,0,0,0,0,0,0,-1,1322,722,0,0
105,302,0,0,0,0,0,0,0,0,0,-1,1329,722,0,0
112,302,0,0,0,0,0,0,0,0,0,-1,1336,722,0,0
119,302,0,0,0,0,0,0,0,0,0,-1,1343,722,0,0
126,302,0,0,0,0,0,0,0,0,0,-1,1350,722,0,0
133,302,0,0,0,0,0,0,0,0,0,-1,1357,722,0,0
140,302,0,0,0,0,0,0,0,0,0,-1,1364,722,0,0
147,302,0,0,0,0,0,0,0,0,0,-1,1371,722,0,0
154,302,0,0,0,0,0,0,0,0,0,-1,1378,722,0,0
161,302,0,0,0,0,0,0,0,0,0,-1,1385,722,0,0
168,302,0,0,0,0,0,0,0,0,0,-1,1392,722,0,0
175,302,0,0,0,0,0,0,0,0,0,-1,1399,722,0,0
182,302,0,0,0,0,0,0,0,0,0,-1,1406,722,0,0
189,302,0,0,0,0,0,0,0,0,0,-1,1413,722,0,0
196,302,0,0,0,0,0,0,0,0,0,-1,1420,722,0,0
203,302,0,0,0,0,0,0,0,0,0,-1,1427,722,0,0
210,302,0,0,0,0,0,0,0,0,0,-1,1434,722,0,0
217,302,0,0,0,0,0,0,0,0,0,-1,1441,722,0,0
224,302,0,0,0,0,0,0,0,0,0,-1,1448,722,0,0
231,302,0,0,0,0,0,0,0,0,0,-1,1455,722,0,0
238,302,0,0,0,0,0,0,0,0,0,-1,1462,722,0,0
245,302,0,0,0,0,0,0,0,0,0,-1,1469,722,0,0
252,302,0,0,0,0,0,0,0,0,0,-1,1476,722,0,0
259,302,0,0,0,0,0,0,0,0,0,-1,1483,722,0,0
266,302,0,0,0,0,0,0,0,0,0,-1,1490,722,0,0
273,302,0,0,0,0,0,0,0,0,0,-1,1497,722,0,0
280,302,0,0,0,0,0,0,0,0,0,-1,1504,722,0,0
287,302,0,0,0,0,0,0,0,0,0,-1,1511,722,0,0
294,302,0,0,0,0,0,0,0,0,0,-1,1518,722,0,0
301,302,0,0,0,0,0,0,0,0,0,-1,1525,722,0,0
308,302,0,0,0,0,0,0,0,0,0,-1,1532,722,0,0
315,302,0,0,0,0,0,0,0,0,0,-1,1539,722,0,0
322,302,0,0,0,0,0,0,0,0,0,-1,1546,722,0,0
329,302,0,0,0,0,0,0,0,0,0,-1,1553,722,0,0
336,302,0,0,0,0,0,0,0,0,0,-1,1560,722,0,0
343,302,0,0,0,0,0,0,0,0,0,-1,1567,722,0,0
350,302,0,0,0,0,0,0,0,0,0,-1,1574,722,0,0
357,302,0,0,0,0,0,0,0,0,0,-1,1581,722,0,0
364,302,0,0,0,0,0,0,0,0,0,-1,1588,722,0,0
371,302,0,0,0,0,0,0,0,0,0,-1,1595,722,0,0
378,302,0,0,0,0,0,0,0,0,0,-1,1602,722,0,0
385,302,0,0,0,0,0,0,0,0,0,-1,1609,722,0,0
392,302,0,0,0,0,0,0,0,0,0,-1,1616,722,0,0
399,302,0,0,0,0,0,0,0,0,0,-1,1623,722,0,0
406,302,0,0,0,0,0,0,0,0,0,-1,1630,722,0,0
413,302,0,0,0,0,0,0,0,0,0,-1,1637,722,0,0
420,302,0,0,0,0,0,0,0,0,0,-1,1644,722,0,0
427,302,0,0,0,0,0,0,0,0,0,-1,1651,722,0,0
434,302,0,0,0,0,0,0,0,0,0,-1,1658,722,0,0
441,302,0,0,0,0,0,0,0,0,0,-1,1665,722,0,0
448,302,0,0,0,0,0,0,0,0,0,-1,1672,722,0,0
455,302,0,0,0,0,0,0,0,0,0,-1,1679,722,0,0
462,302,0,0,0,0,0,0,0,0,0,-1,1686,722,0,0
469,302,0,0,0,0,0,0,0,0,0,-1,1693,722,0,0
476,302,0,0,0,0,0,0,0,0,0,-1,1700,722,0,0
483,302,0,0,0,0,0,0,0,0,0,-1,1707,722,0,0
490,302,0,0,0,0,0,0,0,0,0,-1,1714,722,0,0
497,302,0,0,0,0,0,0,0,0,0,-1,1721,722,0,0
504,302,0,0,0,0,0,0,0,0,0,-1,1728,722,0,0
511,302,0,0,0,0,0,0,0,0,0,-1,1735,722,0,0
518,302,0,0,0,0,0,0,0,0,0,-1,1742,722,0,0
525,302,0,0,0,0,0,0,0,0,0,-1,1749,722,0,0
532,302,0,0,0,0,0,0,0,0,0,-1,1756,722,0,0
539,302,0,0,0,0,0,0,0,0,0,-1,1763,722,0,0
546,302,32.2542,1.56293,-0.118552,0.103941,0.0931767,0.137807,-0.152418,1.22218,0.167632,0.0466071,1770,722,32.2542,-1.56291
553,302,31.6141,3.30438,-0.0921979,0.106448,0.0776233,0.133182,-0.118932,1.23911,0.145636,0.043418,1777,722,31.6141,-3.3044
560,302,30.5267,4.11847,-0.0701487,0.103812,0.0628998,0.124172,-0.0905087,1.25775,0.124453,0.0464602,1784,722,30.5267,-4.11849
567,302,29.3408,4.28564,0,0,0,0,0,0,0,-1,1791,722,29.3408,-4.28564
574,302,26.0609,5.33057,-0.0401147,0.0864469,0.0400337,0.098047,-0.0517148,1.28876,0.0878335,0.0444589,1798,722,26.0609,-5.33057
581,302,26.552,6.34863,-0.0295002,0.0761447,0.0313319,0.084738,-0.0380935,1.30311,0.0726012,0.0442076,1805,722,26.552,-6.3486
588,302,26.9731,7.19983,-0.0208553,0.0658721,0.0241405,0.0721388,-0.027122,1.31681,0.0592402,0.0484071,1812,722,26.9732,-7.19981
595,302,27.3826,8.13104,0,0,0,0,0,0,0,-1,1819,722,27.3825,-8.13102
602,302,14.7349,5.21246,0,0,0,0,0,0,0,-1,1826,722,14.7349,-5.21247
609,302,11.1578,-0.125854,0,0,0,0,0,0,0,-1,1833,722,11.1579,0.125839
616,302,18.9471,-1.56293,0,0,0,0,0,0,0,-1,1840,722,18.9472,1.56294
623,302,18.9272,-1.18915,0.00317918,0.0201389,0.00321878,0.0207292,0.00258883,1.38941,0.0130424,0.0157983,1847,722,18.9272,1.18916
630,302,18.8801,-0.817322,0.00112284,0.0122987,0.00221114,0.0127202,0.000701266,1.3824,0.00825633,0.0108711,1854,722,18.8801,0.817298
637,302,18.8497,-0.421265,9.05366e-06,0.00655895,0.00111559,0.00674374,-0.000175741,1.40664,0.00455554,0.0133441,1861,722,18.8497,0.421247
644,302,18.8392,-0.0319214,-0.000566568,0.00210107,6.99246e-05,0.0021029,-0.0005684,1.54461,0.00162488,0.0147392,1868,722,18.8393,0.0319031
651,302,18.8436,0.369995,-0.000978758,-0.000243402,-0.000455439,-2.57497e-05,-0.00119641,-1.12499,0.000789164,0.0150689,1875,722,18.8436,-0.369982
658,302,18.8821,0.752991,-0.00171917,-3.78567e-05,-0.000748523,0.000247093,-0.00200412,-1.20705,0.0014256,0.0153451,1882,722,18.8821,-0.752993
665,302,18.8821,1.10455,-0.00221949,0.000168586,-0.00102696,0.000549466,-0.00260037,-1.21564,0.00194281,0.013749,1889,722,18.8821,-1.10456
672,302,18.8658,1.45819,-0.00230317,0.000693114,-0.000935199,0.000961048,-0.00257111,-1.29177,0.00210873,0.0110454,1896,722,18.8659,-1.45817
679,302,18.8427,1.8725,-0.00232144,0.00120943,-0.000854814,0.00140549,-0.0025175,-1.34533,0.00229507,0.00942696,1903,722,18.8426,-1.87252
686,302,18.8527,2.26501,-0.00205719,0.00183664,-0.000689988,0.00195529,-0.00217584,-1.4005,0.00238624,0.015653,1910,722,18.8526,-2.265
693,302,18.615,2.51685,-0.00102609,0.0028561,-1.23346e-05,0.00285613,-0.00102613,-1.56762,0.00232295,0.0394067,1917,722,18.615,-2.51684
700,302,18.6182,2.61639,0,0,0,0,0,0,0,-1,1924,722,18.6182,-2.61638
707,302,16.7321,4.76685,0,0,0,0,0,0,0,-1,1931,722,16.7321,-4.76687
714,302,17.2,5.77594,0,0,0,0,0,0,0,-1,1938,722,17.2,-5.77595
721,302,17.7914,6.60394,0,0,0,0,0,0,0,-1,1945,722,17.7914,-6.60395
728,302,17.2798,4.81702,0,0,0,0,0,0,0,-1,1952,722,17.2798,-4.81703
735,302,0,0,0,0,0,0,0,0,0,-1,1959,722,0,0
742,302,0,0,0,0,0,0,0,0,0,-1,1966,722,0,0
749,302,0,0,0,0,0,0,0,0,0,-1,1973,722,0,0
756,302,0,0,0,0,0,0,0,0,0,-1,1980,722,0,0
763,302,0,0,0,0,0,0,0,0,0,-1,1987,722,0,0
770,302,0,0,0,0,0,0,0,0,0,-1,1994,722,0,0
777,302,0,0,0,0,0,0,0,0,0,-1,2001,722,0,0
784,302,0,0,0,0,0,0,0,0,0,-1,2008,722,0,0
791,302,0,0,0,0,0,0,0,0,0,-1,2015,722,0,0
798,302,0,0,0,0,0,0,0,0,0,-1,2022,722,0,0
805,302,0,0,0,0,0,0,0,0,0,-1,2029,722,0,0
812,302,0,0,0,0,0,0,0,0,0,-1,2036,722,0,0
-700,295,0,0,0,0,0,0,0,0,0,-1,524,729,0,0
-693,295,0,0,0,0,0,0,0,0,0,-1,531,729,0,0
-686,295,0,0,0,0,0,0,0,0,0,-1,538,729,0,0
-679,295,0,0,0,0,0,0,0,0,0,-1,545,729,0,0
-672,295,0,0,0,0,0,0,0,0,0,-1,552,729,0,0
-665,295,0,0,0,0,0,0,0,0,0,-1,559,729,0,0
-658,295,0,0,0,0,0,0,0,0,0,-1,566,729,0,0
-651,295,0,0,0,0,0,0,0,0,0,-1,573,729,0,0
-644,295,0,0,0,0,0,0,0,0,0,-1,580,729,0,0
-637,295,0,0,0,0,0,0,0,0,0,-1,587,729,0,0
-630,295,0,0,0,0,0,0,0,0,0,-1,594,729,0,0
-623,295,0,0,0,0,0,0,0,0,0,-1,601,729,0,0
-616,295,-13.4911,1.31738,0,0,0,0,0,0,0,-1,608,729,-13.4911,-1.3174
-609,295,-10.2864,0.832031,0,0,0,0,0,0,0,-1,615,729,-10.2863,-0.832034
-602,295,-8.19006,3.01587,0,0,0,0,0,0,0,-1,622,729,-8.19005,-3.01588
-595,295,-0.615479,-1.95447,0,0,0,0,0,0,0,-1,629,729,-0.615481,1.95445
-588,295,-7.98999,1.56903,0,0,0,0,0,0,0,-1,636,729,-7.98997,-1.56905
-581,295,-10.6429,1.66199,0,0,0,0,0,0,0,-1,643,729,-10.6429,-1.66196
-574,295,-10.9603,1.21716,0,0,0,0,0,0,0,-1,650,729,-10.9603,-1.21715
-567,295,-11.1874,0.614868,0,0,0,0,0,0,0,-1,657,729,-11.1874,-0.61488
-560,295,-11.3961,0.209778,0.000256512,0.00255659,0.00183183,0.00356946,-0.000756361,1.06571,0.00266774,0.0287412,664,729,-11.396,-0.209753
-553,295,-11.4385,-0.145813,0.000117124,0.00196204,0.0011598,0.00252149,-0.000442328,1.12135,0.00184619,0.0180138,671,729,-11.4385,0.145787
-546,295,-11.4898,-0.513733,1.21382e-05,0.00128039,0.000784534,0.00165503,-0.000362502,1.12528,0.00124195,0.0207904,678,729,-11.4898,0.513732
-539,295,-11.4988,-0.828064,-7.292e-05,0.0006325,0.000590609,0.000967702,-0.000408122,1.05458,0.000815939,0.0183126,685,729,-11.4988,0.828058
-532,295,-11.5029,-1.18268,-0.000197277,-1.05512e-05,0.000504012,0.000408672,-0.000616501,0.87698,0.000595924,0.0156315,692,729,-11.5029,1.1827
-525,295,-11.4855,-1.57721,-0.000167367,-0.000419812,0.000579081,0.000299089,-0.000886268,0.678091,0.000711804,0.0154154,699,729,-11.4854,1.57723
-518,295,-11.4676,-1.90564,-5.21878e-05,-0.000741801,0.000701756,0.000384896,-0.00117889,0.557047,0.000940843,0.011154,706,729,-11.4676,1.90566
-511,295,-11.4795,-2.24011,0.000128237,-0.000854645,0.000887819,0.000651555,-0.00137796,0.532621,0.0011965,0.00930241,713,729,-11.4795,2.24011
-504,295,-11.499,-2.62268,0.000479118,-0.000816151,0.00114932,0.00115071,-0.00148775,0.528826,0.00152745,0.011529,720,729,-11.499,2.62267
-497,295,-11.5345,-2.94415,0.00123862,6.47822e-05,0.00118829,0.00197703,-0.000673628,0.556012,0.00159084,0.0189878,727,729,-11.5345,2.94416
-490,295,-11.5739,-3.24365,0,0,0,0,0,0,0,-1,734,729,-11.5739,3.24365
-483,295,-6.84503,-0.454651,0,0,0,0,0,0,0,-1,741,729,-6.84505,0.454639
-476,295,-13.1738,-0.836243,0,0,0,0,0,0,0,-1,748,729,-13.1738,0.836223
-469,295,-18.0319,2.11017,0,0,0,0,0,0,0,-1,755,729,-18.0319,-2.11014
-462,295,-17.9293,-0.330566,0,0,0,0,0,0,0,-1,762,729,-17.9293,0.330568
-455,295,-18.821,1.64069,0,0,0,0,0,0,0,-1,769,729,-18.821,-1.64066
-448,295,-19.0543,1.41168,0,0,0,0,0,0,0,-1,776,729,-19.0543,-1.4117
-441,295,-19.2372,1.28839,0,0,0,0,0,0,0,-1,783,729,-19.2372,-1.28838
-434,295,-15.7352,0.180969,0,0,0,0,0,0,0,-1,790,729,-15.7352,-0.180951
-427,295,0,0,0,0,0,0,0,0,0,-1,797,729,0,0
-420,295,0,0,0,0,0,0,0,0,0,-1,804,729,0,0
-413,295,0,0,0,0,0,0,0,0,0,-1,811,729,0,0
-406,295,0,0,0,0,0,0,0,0,0,-1,818,729,0,0
-399,295,0,0,0,0,0,0,0,0,0,-1,825,729,0,0
-392,295,0,0,0,0,0,0,0,0,0,-1,832,729,0,0
-385,295,0,0,0,0,0,0,0,0,0,-1,839,729,0,0
-378,295,0,0,0,0,0,0,0,0,0,-1,846,729,0,0
-371,295,0,0,0,0,0,0,0,0,0,-1,853,729,0,0
-364,295,0,0,0,0,0,0,0,0,0,-1,860,729,0,0
-357,295,0,0,0,0,0,0,0,0,0,-1,867,729,0,0
-350,295,0,0,0,0,0,0,0,0,0,-1,874,729,0,0
-343,295,0,0,0,0,0,0,0,0,0,-1,881,729,0,0
-336,295,0,0,0,0,0,0,0,0,0,-1,888,729,0,0
-329,295,0,0,0,0,0,0,0,0,0,-1,895,729,0,0
-322,295,0,0,0,0,0,0,0,0,0,-1,902,729,0,0
-315,295,0,0,0,0,0,0,0,0,0,-1,909,729,0,0
-308,295,0,0,0,0,0,0,0,0,0,-1,916,729,0,0
-301,295,0,0,0,0,0,0,0,0,0,-1,923,729,0,0
-294,295,0,0,0,0,0,0,0,0,0,-1,930,729,0,0
-287,295,0,0,0,0,0,0,0,0,0,-1,937,729,0,0
-280,295,0,0,0,0,0,0,0,0,0,-1,944,729,0,0
-273,295,0,0,0,0,0,0,0,0,0,-1,951,729,0,0
-266,295,0,0,0,0,0,0,0,0,0,-1,958,729,0,0
-259,295,0,0,0,0,0,0,0,0,0,-1,965,729,0,0
-252,295,0,0,0,0,0,0,0,0,0,-1,972,729,0,0
-245,295,0,0,0,0,0,0,0,0,0,-1,979,729,0,0
-238,295,0,0,0,0,0,0,0,0,0,-1,986,729,0,0
-231,295,0,0,0,0,0,0,0,0,0,-1,993,729,0,0
-224,295,0,0,0,0,0,0,0,0,0,-1,1000,729,0,0
-217,295,0,0,0,0,0,0,0,0,0,-1,1007,729,0,0
-210,295,0,0,0,0,0,0,0,0,0,-1,1014,729,0,0
-203,295,0,0,0,0,0,0,0,0,0,-1,1021,729,0,0
-196,295,0,0,0,0,0,0,0,0,0,-1,1028,729,0,0
-189,295,0,0,0,0,0,0,0,0,0,-1,1035,729,0,0
-182,295,0,0,0,0,0,0,0,0,0,-1,1042,729,0,0
-175,295,0,0,0,0,0,0,0,0,0,-1,1049,729,0,0
-168,295,0,0,0,0,0,0,0,0,0,-1,1056,729,0,0
-161,295,0,0,0,0,0,0,0,0,0,-1,1063,729,0,0
-154,295,0,0,0,0,0,0,0,0,0,-1,1070,729,0,0
-147,295,0,0,0,0,0,0,0,0,0,-1,1077,729,0,0
-140,295,0,0,0,0,0,0,0,0,0,-1,1084,729,0,0
-133,295,0,0,0,0,0,0,0,0,0,-1,1091,729,0,0
-126,295,0,0,0,0,0,0,0,0,0,-1,1098,729,0,0
-119,295,0,0,0,0,0,0,0,0,0,-1,1105,729,0,0
-112,295,0,0,0,0,0,0,0,0,0,-1,1112,729,0,0
-105,295,0,0,0,0,0,0,0,0,0,-1,1119,729,0,0
-98,295,0,0,0,0,0,0,0,0,0,-1,1126,729,0,0
-91,295,0,0,0,0,0,0,0,0,0,-1,1133,729,0,0
-84,295,0,0,0,0,0,0,0,0,0,-1,1140,729,0,0
-77,295,0,0,0,0,0,0,0,0,0,-1,1147,729,0,0
-70,295,0,0,0,0,0,0,0,0,0,-1,1154,729,0,0
-63,295,0,0,0,0,0,0,0,0,0,-1,1161,729,0,0
-56,295,0,0,0,0,0,0,0,0,0,-1,1168,729,0,0
-49,295,0,0,0,0,0,0,0,0,0,-1,1175,729,0,0
-42,295,0,0,0,0,0,0,0,0,0,-1,1182,729,0,0
-35,295,0,0,0,0,0,0,0,0,0,-1,1189,729,0,0
-28,295,0,0,0,0,0,0,0,0,0,-1,1196,729,0,0
-21,295,0,0,0,0,0,0,0,0,0,-1,1203,729,0,0
-14,295,0,0,0,0,0,0,0,0,0,-1,1210,729,0,0
-7,295,0,0,0,0,0,0,0,0,0,-1,1217,729,0,0
0,295,0,0,0,0,0,0,0,0,0,-1,1224,729,0,0
7,295,0,0,0,0,0,0,0,0,0,-1,1231,729,0,0
14,295,0,0,0,0,0,0,0,0,0,-1,1238,729,0,0
21,295,0,0,0,0,0,0,0,0,0,-1,1245,729,0,0
28,295,0,0,0,0,0,0,0,0,0,-1,1252,729,0,0
35,295,0,0,0,0,0,0,0,0,0,-1,1259,729,0,0
42,295,0,0,0,0,0,0,0,0,0,-1,1266,729,0,0
49,295,0,0,0,0,0,0,0,0,0,-1,1273,729,0,0
56,295,0,0,0,0,0,0,0,0,0,-1,1280,729,0,0
63,295,0,0,0,0,0,0,0,0,0,-1,1287,729,0,0
70,295,0,0,0,0,0,0,0,0,0,-1,1294,729,0,0
77,295,0,0,0,0,0,0,0,0,0,-1,1301,729,0,0
84,295,0,0,0,0,0,0,0,0,0,-1,1308,729,0,0
91,295,0,0,0,0,0,0,0,0,0,-1,1315,729,0,0
98,295,0,0,0,0,0,0,0,0,0,-1,1322,729,0,0
105,295,0,0,0,0,0,0,0,0,0,-1,1329,729,0,0
112,295,0,0,0,0,0,0,0,0,0,-1,1336,729,0,0
119,295,0,0,0,0,0,0,0,0,0,-1,1343,729,0,0
126,295,0,0,0,0,0,0,0,0,0,-1,1350,729,0,0
133,295,0,0,0,0,0,0,0,0,0,-1,1357,729,0,0
140,295,0,0,0,0,0,0,0,0,0,-1,1364,729,0,0
147,295,0,0,0,0,0,0,0,0,0,-1,1371,729,0,0
154,295,0,0,0,0,0,0,0,0,0,-1,1378,729,0,0
161,295,0,0,0,0,0,0,0,0,0,-1,1385,729,0,0
168,295,0,0,0,0,0,0,0,0,0,-1,1392,729,0,0
175,295,0,0,0,0,0,0,0,0,0,-1,1399,729,0,0
182,295,0,0,0,0,0,0,0,0,0,-1,1406,729,0,0
189,295,0,0,0,0,0,0,0,0,0,-1,1413,729,0,0
196,295,0,0,0,0,0,0,0,0,0,-1,1420,729,0,0
203,295,0,0,0,0,0,0,0,0,0,-1,1427,729,0,0
210,295,0,0,0,0,0,0,0,0,0,-1,1434,729,0,0
217,295,0,0,0,0,0,0,0,0,0,-1,1441,729,0,0
224,295,0,0,0,0,0,0,0,0,0,-1,1448,729,0,0
231,295,0,0,0,0,0,0,0,0,0,-1,1455,729,0,0
238,295,0,0,0,0,0,0,0,0,0,-1,1462,729,0,0
245,295,0,0,0,0,0,0,0,0,0,-1,1469,729,0,0
252,295,0,0,0,0,0,0,0,0,0,-1,1476,729,0,0
259,295,0,0,0,0,0,0,0,0,0,-1,1483,729,0,0
266,295,0,0,0,0,0,0,0,0,0,-1,1490,729,0,0
273,295,0,0,0,0,0,0,0,0,0,-1,1497,729,0,0
280,295,0,0,0,0,0,0,0,0,0,-1,1504,729,0,0
287,295,0,0,0,0,0,0,0,0,0,-1,1511,729,0,0
294,295,0,0,0,0,0,0,0,0,0,-1,1518,729,0,0
301,295,0,0,0,0,0,0,0,0,0,-1,1525,729,0,0
308,295,0,0,0,0,0,0,0,0,0,-1,1532,729,0,0
315,295,0,0,0,0,0,0,0,0,0,-1,1539,729,0,0
322,295,0,0,0,0,0,0,0,0,0,-1,1546,729,0,0
329,295,0,0,0,0,0,0,0,0,0,-1,1553,729,0,0
336,295,0,0,0,0,0,0,0,0,0,-1,1560,729,0,0
343,295,0,0,0,0,0,0,0,0,0,-1,1567,729,0,0
350,295,0,0,0,0,0,0,0,0,0,-1,1574,729,0,0
357,295,0,0,0,0,0,0,0,0,0,-1,1581,729,0,0
364,295,0,0,0,0,0,0,0,0,0,-1,1588,729,0,0
371,295,0,0,0,0,0,0,0,0,0,-1,1595,729,0,0
378,295,0,0,0,0,0,0,0,0,0,-1,1602,729,0,0
385,295,0,0,0,0,0,0,0,0,0,-1,1609,729,0,0
392,295,0,0,0,0,0,0,0,0,0,-1,1616,729,0,0
399,295,0,0,0,0,0,0,0,0,0,-1,1623,729,0,0
406,295,0,0,0,0,0,0,0,0,0,-1,1630,729,0,0
413,295,0,0,0,0,0,0,0,0,0,-1,1637,729,0,0
420,295,0,0,0,0,0,0,0,0,0,-1,1644,729,0,0
427,295,0,0,0,0,0,0,0,0,0,-1,1651,729,0,0
434,295,0,0,0,0,0,0,0,0,0,-1,1658,729,0,0
441,295,0,0,0,0,0,0,0,0,0,-1,1665,729,0,0
448,295,0,0,0,0,0,0,0,0,0,-1,1672,729,0,0
455,295,0,0,0,0,0,0,0,0,0,-1,1679,729,0,0
462,295,0,0,0,0,0,0,0,0,0,-1,1686,729,0,0
469,295,0,0,0,0,0,0,0,0,0,-1,1693,729,0,0
476,295,0,0,0,0,0,0,0,0,0,-1,1700,729,0,0
483,295,0,0,0,0,0,0,0,0,0,-1,1707,729,0,0
490,295,0,0,0,0,0,0,0,0,0,-1,1714,729,0,0
497,295,0,0,0,0,0,0,0,0,0,-1,1721,729,0,0
504,295,0,0,0,0,0,0,0,0,0,-1,1728,729,0,0
511,295,0,0,0,0,0,0,0,0,0,-1,1735,729,0,0
518,295,0,0,0,0,0,0,0,0,0,-1,1742,729,0,0
525,295,0,0,0,0,0,0,0,0,0,-1,1749,729,0,0
532,295,0,0,0,0,0,0,0,0,0,-1,1756,729,0,0
539,295,0,0,0,0,0,0,0,0,0,-1,1763,729,0,0
546,295,32.6044,1.65704,0,0,0,0,0,0,0,-1,1770,729,32.6043,-1.65703
553,295,31.6449,2.58362,-0.100711,0.0883726,0.0736578,0.113679,-0.126017,1.23986,0.13845,0.0449274,1777,729,31.6449,-2.58361
560,295,30.6228,3.31049,-0.075017,0.0931137,0.0593612,0.11196,-0.0938629,1.26338,0.118985,0.044764,1784,729,30.6228,-3.31051
567,295,29.6796,3.8136,-0.0544163,0.0914458,0.0472713,0.105426,-0.0683963,1.28325,0.101112,0.0477495,1791,729,29.6795,-3.81358
574,295,29.0254,4.51575,0,0,0,0,0,0,0,-1,1798,729,29.0254,-4.51574
581,295,27.9486,4.94354,0,0,0,0,0,0,0,-1,1805,729,27.9486,-4.94353
588,295,27.4762,6.37732,-0.0199017,0.0649954,0.0228154,0.0707384,-0.0256447,1.32421,0.0576411,0.0472051,1812,729,27.4762,-6.37732
595,295,27.2102,6.99121,-0.012534,0.0550113,0.0168621,0.0589868,-0.0165095,1.33926,0.0458299,0.047824,1819,729,27.2103,-6.99121
602,295,26.9065,7.82141,0,0,0,0,0,0,0,-1,1826,729,26.9064,-7.8214
609,295,11.7737,2.19989,0,0,0,0,0,0,0,-1,1833,729,11.7736,-2.19988
616,295,19.2181,-1.4458,0,0,0,0,0,0,0,-1,1840,729,19.2182,1.44578
623,295,19.2197,-1.13629,0.00312711,0.0207986,0.00364943,0.0215226,0.00240311,1.37495,0.0136182,0.0326306,1847,729,19.2197,1.13627
630,295,19.2371,-0.793213,0.00123595,0.013265,0.00257291,0.0137922,0.000708736,1.36868,0.00896789,0.0121655,1854,729,19.237,0.793206
637,295,19.2355,-0.397766,0.000250808,0.00755343,0.00138735,0.00780812,-3.87663e-06,1.38924,0.0052067,0.0130788,1861,729,19.2355,0.397784
644,295,19.2451,-0.00756836,-0.000280873,0.00267244,0.000277289,0.00269825,-0.000306682,1.47799,0.00190929,0.012164,1868,729,19.2451,0.00757534
651,295,19.2241,0.379028,-0.000566871,-0.00021285,-0.000251134,-8.26134e-05,-0.000697107,-1.09238,0.000439795,0.013182,1875,729,19.2242,-0.379
658,295,19.2319,0.762573,-0.00112531,-8.86773e-06,-0.000509887,0.00018895,-0.00132313,-1.20071,0.000951345,0.0123821,1882,729,19.232,-0.762554
665,295,19.2463,1.11365,-0.00133735,0.000246528,-0.000700346,0.00051178,-0.0016026,-1.20875,0.00127374,0.0112449,1889,729,19.2464,-1.11365
672,295,19.2239,1.47516,-0.000988156,0.000866296,-0.000424389,0.000958802,-0.00108066,-1.35618,0.00117819,0.0128972,1896,729,19.2239,-1.47518
679,295,19.2086,1.87671,-0.000525876,0.00143259,-0.000144649,0.00144322,-0.000536502,-1.49747,0.00118228,0.00990952,1903,729,19.2087,-1.87669
686,295,19.2246,2.2486,0.000295465,0.00211507,0.000271733,0.00215479,0.000255752,1.42568,0.00135932,0.00981214,1910,729,19.2246,-2.24858
693,295,19.1974,2.58893,0.00188789,0.00309719,0.0011643,0.00380448,0.0011806,1.02489,0.00224859,0.0316997,1917,729,19.1974,-2.58895
700,295,19.3348,2.94977,0.00489247,0.00436882,0.00280097,0.00744383,0.00181746,0.738795,0.00448132,0.0456144,1924,729,19.3349,-2.94979
707,295,19.693,3.49408,0,0,0,0,0,0,0,-1,1931,729,19.693,-3.49407
714,295,17.4906,4.63068,0,0,0,0,0,0,0,-1,1938,729,17.4906,-4.63066
721,295,18.3792,5.32281,0,0,0,0,0,0,0,-1,1945,729,18.3791,-5.32283
728,295,17.379,3.74866,0,0,0,0,0,0,0,-1,1952,729,17.379,-3.74863
735,295,0,0,0,0,0,0,0,0,0,-1,1959,729,0,0
742,295,0,0,0,0,0,0,0,0,0,-1,1966,729,0,0
749,295,0,0,0,0,0,0,0,0,0,-1,1973,729,0,0
756,295,0,0,0,0,0,0,0,0,0,-1,1980,729,0,0
763,295,0,0,0,0,0,0,0,0,0,-1,1987,729,0,0
770,295,0,0,0,0,0,0,0,0,0,-1,1994,729,0,0
777,295,0,0,0,0,0,0,0,0,0,-1,2001,729,0,0
784,295,0,0,0,0,0,0,0,0,0,-1,2008,729,0,0
791,295,0,0,0,0,0,0,0,0,0,-1,2015,729,0,0
798,295,0,0,0,0,0,0,0,0,0,-1,2022,729,0,0
805,295,0,0,0,0,0,0,0,0,0,-1,2029,729,0,0
812,295,0,0,0,0,0,0,0,0,0,-1,2036,729,0,0
-700,288,0,0,0,0,0,0,0,0,0,-1,524,736,0,0
-693,288,0,0,0,0,0,0,0,0,0,-1,531,736,0,0
-686,288,0,0,0,0,0,0,0,0,0,-1,538,736,0,0
-679,288,0,0,0,0,0,0,0,0,0,-1,545,736,0,0
-672,288,0,0,0,0,0,0,0,0,0,-1,552,736,0,0
-665,288,0,0,0,0,0,0,0,0,0,-1,559,736,0,0
-658,288,0,0,0,0,0,0,0,0,0,-1,566,736,0,0
-651,288,0,0,0,0,0,0,0,0,0,-1,573,736,0,0
-644,288,0,0,0,0,0,0,0,0,0,-1,580,736,0,0
-637,288,0,0,0,0,0,0,0,0,0,-1,587,736,0,0
-630,288,0,0,0,0,0,0,0,0,0,-1,594,736,0,0
-623,288,0,0,0,0,0,0,0,0,0,-1,601,736,0,0
-616,288,-11.7584,2.4425,0,0,0,0,0,0,0,-1,608,736,-11.7584,-2.44251
-609,288,-10.3007,2.32178,0,0,0,0,0,0,0,-1,615,736,-10.3007,-2.32178
-602,288,-10.1458,-1.85559,0,0,0,0,0,0,0,-1,622,736,-10.1458,1.85556
-595,288,-7.63208,1.81769,0,0,0,0,0,0,0,-1,629,736,-7.63205,-1.81766
-588,288,-8.19269,1.50598,0,0,0,0,0,0,0,-1,636,736,-8.19268,-1.50601
-581,288,-11.6506,1.18292,0,0,0,0,0,0,0,-1,643,736,-11.6506,-1.1829
-574,288,-11.5194,0.905151,-0.00312342,0.00447173,0.00702237,0.0086576,-0.00730929,1.03327,0.00922943,0.0463603,650,736,-11.5194,-0.905164
-567,288,-11.6041,0.508972,-0.00211997,0.00331046,0.00431465,0.00569315,-0.00450266,1.06624,0.00589991,0.0305333,657,736,-11.6041,-0.508942
-560,288,-11.819,0.17218,-0.00146793,0.00244527,0.00268104,0.00380775,-0.00283041,1.10062,0.00384637,0.0145681,664,736,-11.819,-0.17215
-553,288,-11.8163,-0.120728,-0.00133488,0.00171192,0.00195116,0.00266395,-0.00228691,1.11685,0.00286114,0.0178032,671,736,-11.8163,0.120745
-546,288,-11.8326,-0.475464,-0.00123441,0.000917183,0.00151271,0.00169763,-0.00201486,1.09449,0.00214601,0.0204937,678,736,-11.8326,0.475473
-539,288,-11.8377,-0.831726,-0.00117521,0.000136678,0.00125757,0.000899093,-0.00193762,1.02579,0.00167396,0.0167776,685,736,-11.8377,0.831704
-532,288,-11.8153,-1.19696,-0.00115476,-0.000527343,0.00110551,0.00030811,-0.00199022,0.923648,0.00144054,0.0127365,692,736,-11.8153,1.19698
-525,288,-11.8215,-1.57831,-0.000929617,-0.000803041,0.00110732,0.000242798,-0.00197546,0.813944,0.00140491,0.0130293,699,736,-11.8215,1.5783
-518,288,-11.841,-1.91449,-0.000628242,-0.000942613,0.00113993,0.000365285,-0.00193614,0.716885,0.00142818,0.012116,706,736,-11.841,1.91448
-511,288,-11.8422,-2.24091,-0.000182071,-0.000692707,0.00122435,0.000813302,-0.00168808,0.682605,0.00147332,0.00897684,713,736,-11.8422,2.24089
-504,288,-11.8541,-2.62213,0.000524651,6.78804e-06,0.00133465,0.00162525,-0.00109381,0.689585,0.00157982,0.0111791,720,736,-11.8541,2.62215
-497,288,-11.8661,-2.86194,0.00178418,0.00186696,0.00114698,0.0029733,0.000677838,0.803432,0.00179933,0.0264919,727,736,-11.8661,2.86193
-490,288,-11.8123,-3.05249,0,0,0,0,0,0,0,-1,734,736,-11.8123,3.05247
-483,288,-17.6428,-1.5116,0,0,0,0,0,0,0,-1,741,736,-17.6428,1.51158
-476,288,-18.7221,1.72919,0,0,0,0,0,0,0,-1,748,736,-18.7221,-1.7292
-469,288,-18.8441,2.72736,0,0,0,0,0,0,0,-1,755,736,-18.844,-2.72736
-462,288,-18.966,3.72552,0,0,0,0,0,0,0,-1,762,736,-18.966,-3.72552
-455,288,-19.3578,1.27887,0,0,0,0,0,0,0,-1,769,736,-19.3578,-1.27885
-448,288,-19.605,1.09058,0,0,0,0,0,0,0,-1,776,736,-19.605,-1.09059
-441,288,-19.9909,0.918213,0,0,0,0,0,0,0,-1,783,736,-19.9909,-0.918201
-434,288,-20.4501,1.06042,0,0,0,0,0,0,0,-1,790,736,-20.4501,-1.06045
-427,288,0,0,0,0,0,0,0,0,0,-1,797,736,0,0
-420,288,0,0,0,0,0,0,0,0,0,-1,804,736,0,0
-413,288,0,0,0,0,0,0,0,0,0,-1,811,736,0,0
-406,288,0,0,0,0,0,0,0,0,0,-1,818,736,0,0
-399,288,0,0,0,0,0,0,0,0,0,-1,825,736,0,0
-392,288,0,0,0,0,0,0,0,0,0,-1,832,736,0,0
-385,288,0,0,0,0,0,0,0,0,0,-1,839,736,0,0
-378,288,0,0,0,0,0,0,0,0,0,-1,846,736,0,0
-371,288,0,0,0,0,0,0,0,0,0,-1,853,736,0,0
-364,288,0,0,0,0,0,0,0,0,0,-1,860,736,0,0
-357,288,0,0,0,0,0,0,0,0,0,-1,867,736,0,0
-350,288,0,0,0,0,0,0,0,0,0,-1,874,736,0,0
-343,288,0,0,0,0,0,0,0,0,0,-1,881,736,0,0
-336,288,0,0,0,0,0,0,0,0,0,-1,888,736,0,0
-329,288,0,0,0,0,0,0,0,0,0,-1,895,736,0,0
-322,288,0,0,0,0,0,0,0,0,0,-1,902,736,0,0
-315,288,0,0,0,0,0,0,0,0,0,-1,909,736,0,0
-308,288,0,0,0,0,0,0,0,0,0,-1,916,736,0,0
-301,288,0,0,0,0,0,0,0,0,0,-1,923,736,0,0
-294,288,0,0,0,0,0,0,0,0,0,-1,930,736,0,0
-287,288,0,0,0,0,0,0,0,0,0,-1,937,736,0,0
-280,288,0,0,0,0,0,0,0,0,0,-1,944,736,0,0
-273,288,0,0,0,0,0,0,0,0,0,-1,951,736,0,0
-266,288,0,0,0,0,0,0,0,0,0,-1,958,736,0,0
-259,288,0,0,0,0,0,0,0,0,0,-1,965,736,0,0
-252,288,0,0,0,0,0,0,0,0,0,-1,972,736,0,0
-245,288,0,0,0,0,0,0,0,0,0,-1,979,736,0,0
-238,288,0,0,0,0,0,0,0,0,0,-1,986,736,0,0
-231,288,0,0,0,0,0,0,0,0,0,-1,993,736,0,0
-224,288,0,0,0,0,0,0,0,0,0,-1,1000,736,0,0
-217,288,0,0,0,0,0,0,0,0,0,-1,1007,736,0,0
-210,288,0,0,0,0,0,0,0,0,0,-1,1014,736,0,0
-203,288,0,0,0,0,0,0,0,0,0,-1,1021,736,0,0
-196,288,0,0,0,0,0,0,0,0,0,-1,1028,736,0,0
-189,288,0,0,0,0,0,0,0,0,0,-1,1035,736,0,0
-182,288,0,0,0,0,0,0,0,0,0,-1,1042,736,0,0
-175,288,0,0,0,0,0,0,0,0,0,-1,1049,736,0,0
-168,288,0,0,0,0,0,0,0,0,0,-1,1056,736,0,0
-161,288,0,0,0,0,0,0,0,0,0,-1,1063,736,0,0
-154,288,0,0,0,0,0,0,0,0,0,-1,1070,736,0,0
-147,288,0,0,0,0,0,0,0,0,0,-1,1077,736,0,0
-140,288,0,0,0,0,0,0,0,0,0,-1,1084,736,0,0
-133,288,0,0,0,0,0,0,0,0,0,-1,1091,736,0,0
-126,288,0,0,0,0,0,0,0,0,0,-1,1098,736,0,0
-119,288,0,0,0,0,0,0,0,0,0,-1,1105,736,0,0
-112,288,0,0,0,0,0,0,0,0,0,-1,1112,736,0,0
-105,288,0,0,0,0,0,0,0,0,0,-1,1119,736,0,0
-98,288,0,0,0,0,0,0,0,0,0,-1,1126,736,0,0
-91,288,0,0,0,0,0,0,0,0,0,-1,1133,736,0,0
-84,288,0,0,0,0,0,0,0,0,0,-1,1140,736,0,0
-77,288,0,0,0,0,0,0,0,0,0,-1,1147,736,0,0
-70,288,0,0,0,0,0,0,0,0,0,-1,1154,736,0,0
-63,288,0,0,0,0,0,0,0,0,0,-1,1161,736,0,0
-56,288,0,0,0,0,0,0,0,0,0,-1,1168,736,0,0
-49,288,0,0,0,0,0,0,0,0,0,-1,1175,736,0,0
-42,288,0,0,0,0,0,0,0,0,0,-1,1182,736,0,0
-35,288,0,0,0,0,0,0,0,0,0,-1,1189,736,0,0
-28,288,0,0,0,0,0,0,0,0,0,-1,1196,736,0,0
-21,288,0,0,0,0,0,0,0,0,0,-1,1203,736,0,0
-14,288,0,0,0,0,0,0,0,0,0,-1,1210,736,0,0
-7,288,0,0,0,0,0,0,0,0,0,-1,1217,736,0,0
0,288,0,0,0,0,0,0,0,0,0,-1,1224,736,0,0
7,288,0,0,0,0,0,0,0,0,0,-1,1231,736,0,0
14,288,0,0,0,0,0,0,0,0,0,-1,1238,736,0,0
21,288,0,0,0,0,0,0,0,0,0,-1,1245,736,0,0
28,288,0,0,0,0,0,0,0,0,0,-1,1252,736,0,0
35,288,0,0,0,0,0,0,0,0,0,-1,1259,736,0,0
42,288,0,0,0,0,0,0,0,0,0,-1,1266,736,0,0
49,288,0,0,0,0,0,0,0,0,0,-1,1273,736,0,0
56,288,0,0,0,0,0,0,0,0,0,-1,1280,736,0,0
63,288,0,0,0,0,0,0,0,0,0,-1,1287,736,0,0
70,288,0,0,0,0,0,0,0,0,0,-1,1294,736,0,0
77,288,0,0,0,0,0,0,0,0,0,-1,1301,736,0,0
84,288,0,0,0,0,0,0,0,0,0,-1,1308,736,0,0
91,288,0,0,0,0,0,0,0,0,0,-1,1315,736,0,0
98,288,0,0,0,0,0,0,0,0,0,-1,1322,736,0,0
105,288,0,0,0,0,0,0,0,0,0,-1,1329,736,0,0
112,288,0,0,0,0,0,0,0,0,0,-1,1336,736,0,0
119,288,0,0,0,0,0,0,0,0,0,-1,1343,736,0,0
126,288,0,0,0,0,0,0,0,0,0,-1,1350,736,0,0
133,288,0,0,0,0,0,0,0,0,0,-1,1357,736,0,0
140,288,0,0,0,0,0,0,0,0,0,-1,1364,736,0,0
147,288,0,0,0,0,0,0,0,0,0,-1,1371,736,0,0
154,288,0,0,0,0,0,0,0,0,0,-1,1378,736,0,0
161,288,0,0,0,0,0,0,0,0,0,-1,1385,736,0,0
168,288,0,0,0,0,0,0,0,0,0,-1,1392,736,0,0
175,288,0,0,0,0,0,0,0,0,0,-1,1399,736,0,0
182,288,0,0,0,0,0,0,0,0,0,-1,1406,736,0,0
189,288,0,0,0,0,0,0,0,0,0,-1,1413,736,0,0
196,288,0,0,0,0,0,0,0,0,0,-1,1420,736,0,0
203,288,0,0,0,0,0,0,0,0,0,-1,1427,736,0,0
210,288,0,0,0,0,0,0,0,0,0,-1,1434,736,0,0
217,288,0,0,0,0,0,0,0,0,0,-1,1441,736,0,0
224,288,0,0,0,0,0,0,0,0,0,-1,1448,736,0,0
231,288,0,0,0,0,0,0,0,0,0,-1,1455,736,0,0
238,288,0,0,0,0,0,0,0,0,0,-1,1462,736,0,0
245,288,0,0,0,0,0,0,0,0,0,-1,1469,736,0,0
252,288,0,0,0,0,0,0,0,0,0,-1,1476,736,0,0
259,288,0,0,0,0,0,0,0,0,0,-1,1483,736,0,0
266,288,0,0,0,0,0,0,0,0,0,-1,1490,736,0,0
273,288,0,0,0,0,0,0,0,0,0,-1,1497,736,0,0
280,288,0,0,0,0,0,0,0,0,0,-1,1504,736,0,0
287,288,0,0,0,0,0,0,0,0,0,-1,1511,736,0,0
294,288,0,0,0,0,0,0,0,0,0,-1,1518,736,0,0
301,288,0,0,0,0,0,0,0,0,0,-1,1525,736,0,0
308,288,0,0,0,0,0,0,0,0,0,-1,1532,736,0,0
315,288,0,0,0,0,0,0,0,0,0,-1,1539,736,0,0
322,288,0,0,0,0,0,0,0,0,0,-1,1546,736,0,0
329,288,0,0,0,0,0,0,0,0,0,-1,1553,736,0,0
336,288,0,0,0,0,0,0,0,0,0,-1,1560,736,0,0
343,288,0,0,0,0,0,0,0,0,0,-1,1567,736,0,0
350,288,0,0,0,0,0,0,0,0,0,-1,1574,736,0,0
357,288,0,0,0,0,0,0,0,0,0,-1,1581,736,0,0
364,288,0,0,0,0,0,0,0,0,0,-1,1588,736,0,0
371,288,0,0,0,0,0,0,0,0,0,-1,1595,736,0,0
378,288,0,0,0,0,0,0,0,0,0,-1,1602,736,0,0
385,288,0,0,0,0,0,0,0,0,0,-1,1609,736,0,0
392,288,0,0,0,0,0,0,0,0,0,-1,1616,736,0,0
399,288,0,0,0,0,0,0,0,0,0,-1,1623,736,0,0
406,288,0,0,0,0,0,0,0,0,0,-1,1630,736,0,0
413,288,0,0,0,0,0,0,0,0,0,-1,1637,736,0,0
420,288,0,0,0,0,0,0,0,0,0,-1,1644,736,0,0
427,288,0,0,0,0,0,0,0,0,0,-1,1651,736,0,0
434,288,0,0,0,0,0,0,0,0,0,-1,1658,736,0,0
441,288,0,0,0,0,0,0,0,0,0,-1,1665,736,0,0
448,288,0,0,0,0,0,0,0,0,0,-1,1672,736,0,0
455,288,0,0,0,0,0,0,0,0,0,-1,1679,736,0,0
462,288,0,0,0,0,0,0,0,0,0,-1,1686,736,0,0
469,288,0,0,0,0,0,0,0,0,0,-1,1693,736,0,0
476,288,0,0,0,0,0,0,0,0,0,-1,1700,736,0,0
483,288,0,0,0,0,0,0,0,0,0,-1,1707,736,0,0
490,288,0,0,0,0,0,0,0,0,0,-1,1714,736,0,0
497,288,0,0,0,0,0,0,0,0,0,-1,1721,736,0,0
504,288,0,0,0,0,0,0,0,0,0,-1,1728,736,0,0
511,288,0,0,0,0,0,0,0,0,0,-1,1735,736,0,0
518,288,0,0,0,0,0,0,0,0,0,-1,1742,736,0,0
525,288,0,0,0,0,0,0,0,0,0,-1,1749,736,0,0
532,288,0,0,0,0,0,0,0,0,0,-1,1756,736,0,0
539,288,0,0,0,0,0,0,0,0,0,-1,1763,736,0,0
546,288,0,0,0,0,0,0,0,0,0,-1,1770,736,0,0
553,288,31.5872,2.42285,0,0,0,0,0,0,0,-1,1777,736,31.5872,-2.42286
560,288,30.7548,2.93329,-0.0795114,0.0761008,0.0557834,0.0940317,-0.0974423,1.25979,0.110553,0.0448066,1784,736,30.7547,-2.93326
567,288,29.9012,3.43488,-0.0559659,0.0807587,0.0440166,0.0937036,-0.0689108,1.28477,0.0942485,0.0453896,1791,736,29.9012,-3.4349
574,288,29.0254,3.92944,0,0,0,0,0,0,0,-1,1798,736,29.0254,-3.92946
581,288,28.3353,4.56805,-0.0265824,0.0702531,0.0270574,0.0773005,-0.0336298,1.316,0.0656791,0.0475701,1805,736,28.3353,-4.56807
588,288,27.974,5.46112,-0.0180015,0.0612477,0.0211602,0.0665437,-0.0232975,1.32555,0.0538357,0.0445576,1812,736,27.974,-5.46109
595,288,27.4215,6.6875,-0.0110939,0.0518143,0.0159427,0.0556239,-0.0149035,1.33624,0.0429218,0.0489117,1819,736,27.4215,-6.68751
602,288,26.7634,7.61279,0,0,0,0,0,0,0,-1,1826,736,26.7635,-7.61279
609,288,17.5223,4.86414,0,0,0,0,0,0,0,-1,1833,736,17.5223,-4.86412
616,288,13.4886,0.801331,0,0,0,0,0,0,0,-1,1840,736,13.4886,-0.80132
623,288,19.5349,-1.12701,0,0,0,0,0,0,0,-1,1847,736,19.5349,1.127
630,288,19.5854,-0.762878,0.00138781,0.0125508,0.00334118,0.0134744,0.000464186,1.30109,0.00883226,0.021725,1854,736,19.5854,0.762903
637,288,19.6482,-0.384521,0.000504044,0.00728366,0.00213345,0.00789915,-0.000111443,1.28993,0.00530363,0.00998751,1861,736,19.6482,0.384517
644,288,19.636,-0.00274658,-8.89914e-05,0.0024218,0.000959236,0.00274632,-0.000413517,1.24457,0.00198315,0.0095629,1868,736,19.636,0.00273854
651,288,19.5997,0.365356,-0.000409648,-0.000729834,0.000300737,-0.000229047,-0.000910435,0.540808,0.000546838,0.0112039,1875,736,19.5997,-0.36535
658,288,19.6014,0.750732,-0.000921574,-0.000433484,-0.000131768,-0.000400183,-0.000954875,-1.32326,0.000553698,0.0161091,1882,736,19.6014,-0.750704
665,288,19.605,1.12225,-0.000950561,-2.42405e-05,-0.000410126,0.000131243,-0.00110604,-1.20843,0.000784778,0.0161285,1889,736,19.605,-1.12226
672,288,19.598,1.49121,-0.000284931,0.000770167,-8.70739e-05,0.000777304,-0.000292068,-1.48901,0.000638238,0.0147918,1896,736,19.598,-1.49124
679,288,19.5955,1.89001,0.000472978,0.00145497,0.000282216,0.0015303,0.00039765,1.30996,0.000916858,0.0125116,1903,736,19.5954,-1.89004
686,288,19.5881,2.21887,0.00163859,0.00220186,0.00089446,0.00285797,0.000982473,0.937917,0.00167669,0.0098669,1910,736,19.5882,-2.21887
693,288,19.5995,2.6283,0.00350486,0.00317515,0.00190528,0.0052524,0.00142761,0.742244,0.00313599,0.015091,1917,736,19.5995,-2.62828
700,288,19.5328,3.06293,0.00664407,0.00440702,0.00360569,0.00930074,0.00175035,0.634999,0.00570722,0.0318999,1924,736,19.5328,-3.06294
707,288,19.8215,3.5636,0.0115853,0.00606021,0.00629451,0.0156968,0.00194872,0.578612,0.00987925,0.0465991,1931,736,19.8216,-3.56361
714,288,20.0767,4.07159,0,0,0,0,0,0,0,-1,1938,736,20.0767,-4.07157
721,288,18.0732,3.69385,0,0,0,0,0,0,0,-1,1945,736,18.0732,-3.69387
728,288,19.3208,3.91455,0,0,0,0,0,0,0,-1,1952,736,19.3209,-3.91455
735,288,18.7712,3.51312,0,0,0,0,0,0,0,-1,1959,736,18.7713,-3.51309
742,288,0,0,0,0,0,0,0,0,0,-1,1966,736,0,0
749,288,0,0,0,0,0,0,0,0,0,-1,1973,736,0,0
756,288,0,0,0,0,0,0,0,0,0,-1,1980,736,0,0
763,288,0,0,0,0,0,0,0,0,0,-1,1987,736,0,0
770,288,0,0,0,0,0,0,0,0,0,-1,1994,736,0,0
777,288,0,0,0,0,0,0,0,0,0,-1,2001,736,0,0
784,288,0,0,0,0,0,0,0,0,0,-1,2008,736,0,0
791,288,0,0,0,0,0,0,0,0,0,-1,2015,736,0,0
798,288,0,0,0,0,0,0,0,0,0,-1,2022,736,0,0
805,288,0,0,0,0,0,0,0,0,0,-1,2029,736,0,0
812,288,0,0,0,0,0,0,0,0,0,-1,2036,736,0,0
-700,281,0,0,0,0,0,0,0,0,0,-1,524,743,0,0
-693,281,0,0,0,0,0,0,0,0,0,-1,531,743,0,0
-686,281,0,0,0,0,0,0,0,0,0,-1,538,743,0,0
-679,281,0,0,0,0,0,0,0,0,0,-1,545,743,0,0
-672,281,0,0,0,0,0,0,0,0,0,-1,552,743,0,0
-665,281,0,0,0,0,0,0,0,0,0,-1,559,743,0,0
-658,281,0,0,0,0,0,0,0,0,0,-1,566,743,0,0
-651,281,0,0,0,0,0,0,0,0,0,-1,573,743,0,0
-644,281,0,0,0,0,0,0,0,0,0,-1,580,743,0,0
-637,281,0,0,0,0,0,0,0,0,0,-1,587,743,0,0
-630,281,0,0,0,0,0,0,0,0,0,-1,594,743,0,0
-623,281,-13.984,-1.39282,0,0,0,0,0,0,0,-1,601,743,-13.984,1.39285
-616,281,-11.5906,2.6853,0,0,0,0,0,0,0,-1,608,743,-11.5906,-2.68529
-609,281,-11.3053,-0.648315,0,0,0,0,0,0,0,-1,615,743,-11.3053,0.648336
-602,281,-9.65039,-0.391418,0,0,0,0,0,0,0,-1,622,743,-9.65039,0.391399
-595,281,-10.4797,-1.07404,0,0,0,0,0,0,0,-1,629,743,-10.4798,1.07402
-588,281,-10.5586,1.50061,0,0,0,0,0,0,0,-1,636,743,-10.5586,-1.50062
-581,281,-12.106,0.920349,0,0,0,0,0,0,0,-1,643,743,-12.106,-0.920346
-574,281,-12.0351,0.7677,-0.00508253,0.00370441,0.00910612,0.00942153,-0.0107996,1.01016,0.0116837,0.0325742,650,743,-12.0351,-0.767675
-567,281,-12.1346,0.534607,-0.00334567,0.00256775,0.00539591,0.00576393,-0.00654185,1.03603,0.00710947,0.0154801,657,743,-12.1346,-0.534611
-560,281,-12.1846,0.194458,-0.00235282,0.00171332,0.00331736,0.00357104,-0.00421053,1.06031,0.00449775,0.00820884,664,743,-12.1847,-0.194474
-553,281,-12.1815,-0.130493,-0.00215745,0.000962872,0.0025872,0.00242392,-0.00361849,1.05672,0.00351124,0.0136976,671,743,-12.1815,0.130493
-546,281,-12.1738,-0.455383,-0.00200274,0.000182375,0.00211594,0.00147117,-0.00329154,1.02372,0.00281591,0.0158624,678,743,-12.1738,0.455356
-539,281,-12.17,-0.81781,-0.00194148,-0.000613184,0.0018268,0.00066645,-0.00322112,0.959749,0.0024006,0.0131848,685,743,-12.17,0.817807
-532,281,-12.166,-1.16602,-0.00189774,-0.00114152,0.00160348,0.000127834,-0.00316709,0.901186,0.00215527,0.011924,692,743,-12.166,1.16599
-525,281,-12.2012,-1.5578,-0.00157695,-0.00115074,0.00151863,0.000169666,-0.00289736,0.855105,0.00199054,0.0140898,699,743,-12.2012,1.5578
-518,281,-12.1968,-1.90875,-0.00117873,-0.00102118,0.00144351,0.000345705,-0.00254561,0.812657,0.00182326,0.0120413,706,743,-12.1968,1.90876
-511,281,-12.197,-2.24744,-0.000556181,-0.000348203,0.0013644,0.000916167,-0.00182055,0.823433,0.00160855,0.01042,713,743,-12.197,2.24744
-504,281,-12.2295,-2.61877,0.000432088,0.000972044,0.00123477,0.00196601,-0.000561877,0.893027,0.00153269,0.0135628,720,743,-12.2295,2.61875
-497,281,-12.1248,-2.97113,0.00208479,0.00344428,0.000770492,0.00379201,0.00173705,1.14685,0.00219188,0.0418718,727,743,-12.1248,2.97115
-490,281,-11.959,-3.23529,0,0,0,0,0,0,0,-1,734,743,-11.9591,3.23531
-483,281,-18.2288,-0.877625,0,0,0,0,0,0,0,-1,741,743,-18.2288,0.877606
-476,281,-19.2667,2.39606,0,0,0,0,0,0,0,-1,748,743,-19.2667,-2.39606
-469,281,-19.5717,3.00812,0,0,0,0,0,0,0,-1,755,743,-19.5717,-3.00813
-462,281,-19.7943,2.84253,0,0,0,0,0,0,0,-1,762,743,-19.7943,-2.84253
-455,281,-20.4299,2.51099,0,0,0,0,0,0,0,-1,769,743,-20.4299,-2.51096
-448,281,-20.0477,0.597717,0,0,0,0,0,0,0,-1,776,743,-20.0477,-0.597737
-441,281,-20.2383,0.425842,0,0,0,0,0,0,0,-1,783,743,-20.2383,-0.42583
-434,281,0,0,0,0,0,0,0,0,0,-1,790,743,0,0
-427,281,0,0,0,0,0,0,0,0,0,-1,797,743,0,0
-420,281,0,0,0,0,0,0,0,0,0,-1,804,743,0,0
-413,281,0,0,0,0,0,0,0,0,0,-1,811,743,0,0
-406,281,0,0,0,0,0,0,0,0,0,-1,818,743,0,0
-399,281,0,0,0,0,0,0,0,0,0,-1,825,743,0,0
-392,281,0,0,0,0,0,0,0,0,0,-1,832,743,0,0
-385,281,0,0,0,0,0,0,0,0,0,-1,839,743,0,0
-378,281,0,0,0,0,0,0,0,0,0,-1,846,743,0,0
-371,281,0,0,0,0,0,0,0,0,0,-1,853,743,0,0
-364,281,0,0,0,0,0,0,0,0,0,-1,860,743,0,0
-357,281,0,0,0,0,0,0,0,0,0,-1,867,743,0,0
-350,281,0,0,0,0,0,0,0,0,0,-1,874,743,0,0
-343,281,0,0,0,0,0,0,0,0,0,-1,881,743,0,0
-336,281,0,0,0,0,0,0,0,0,0,-1,888,743,0,0
-329,281,0,0,0,0,0,0,0,0,0,-1,895,743,0,0
-322,281,0,0,0,0,0,0,0,0,0,-1,902,743,0,0
-315,281,0,0,0,0,0,0,0,0,0,-1,909,743,0,0
-308,281,0,0,0,0,0,0,0,0,0,-1,916,743,0,0
-301,281,0,0,0,0,0,0,0,0,0,-1,923,743,0,0
-294,281,0,0,0,0,0,0,0,0,0,-1,930,743,0,0
-287,281,0,0,0,0,0,0,0,0,0,-1,937,743,0,0
-280,281,0,0,0,0,0,0,0,0,0,-1,944,743,0,0
-273,281,0,0,0,0,0,0,0,0,0,-1,951,743,0,0
-266,281,0,0,0,0,0,0,0,0,0,-1,958,743,0,0
-259,281,0,0,0,0,0,0,0,0,0,-1,965,743,0,0
-252,281,0,0,0,0,0,0,0,0,0,-1,972,743,0,0
-245,281,0,0,0,0,0,0,0,0,0,-1,979,743,0,0
-238,281,0,0,0,0,0,0,0,0,0,-1,986,743,0,0
-231,281,0,0,0,0,0,0,0,0,0,-1,993,743,0,0
-224,281,0,0,0,0,0,0,0,0,0,-1,1000,743,0,0
-217,281,0,0,0,0,0,0,0,0,0,-1,1007,743,0,0
-210,281,0,0,0,0,0,0,0,0,0,-1,1014,743,0,0
-203,281,0,0,0,0,0,0,0,0,0,-1,1021,743,0,0
-196,281,0,0,0,0,0,0,0,0,0,-1,1028,743,0,0
-189,281,0,0,0,0,0,0,0,0,0,-1,1035,743,0,0
-182,281,0,0,0,0,0,0,0,0,0,-1,1042,743,0,0
-175,281,0,0,0,0,0,0,0,0,0,-1,1049,743,0,0
-168,281,0,0,0,0,0,0,0,0,0,-1,1056,743,0,0
-161,281,0,0,0,0,0,0,0,0,0,-1,1063,743,0,0
-154,281,0,0,0,0,0,0,0,0,0,-1,1070,743,0,0
-147,281,0,0,0,0,0,0,0,0,0,-1,1077,743,0,0
-140,281,0,0,0,0,0,0,0,0,0,-1,1084,743,0,0
-133,281,0,0,0,0,0,0,0,0,0,-1,1091,743,0,0
-126,281,0,0,0,0,0,0,0,0,0,-1,1098,743,0,0
-119,281,0,0,0,0,0,0,0,0,0,-1,1105,743,0,0
-112,281,0,0,0,0,0,0,0,0,0,-1,1112,743,0,0
-105,281,0,0,0,0,0,0,0,0,0,-1,1119,743,0,0
-98,281,0,0,0,0,0,0,0,0,0,-1,1126,743,0,0
-91,281,0,0,0,0,0,0,0,0,0,-1,1133,743,0,0
-84,281,0,0,0,0,0,0,0,0,0,-1,1140,743,0,0
-77,281,0,0,0,0,0,0,0,0,0,-1,1147,743,0,0
-70,281,0,0,0,0,0,0,0,0,0,-1,1154,743,0,0
-63,281,0,0,0,0,0,0,0,0,0,-1,1161,743,0,0
-56,281,0,0,0,0,0,0,0,0,0,-1,1168,743,0,0
-49,281,0,0,0,0,0,0,0,0,0,-1,1175,743,0,0
-42,281,0,0,0,0,0,0,0,0,0,-1,1182,743,0,0
-35,281,0,0,0,0,0,0,0,0,0,-1,1189,743,0,0
-28,281,0,0,0,0,0,0,0,0,0,-1,1196,743,0,0
-21,281,0,0,0,0,0,0,0,0,0,-1,1203,743,0,0
-14,281,0,0,0,0,0,0,0,0,0,-1,1210,743,0,0
-7,281,0,0,0,0,0,0,0,0,0,-1,1217,743,0,0
0,281,0,0,0,0,0,0,0,0,0,-1,1224,743,0,0
7,281,0,0,0,0,0,0,0,0,0,-1,1231,743,0,0
14,281,0,0,0,0,0,0,0,0,0,-1,1238,743,0,0
21,281,0,0,0,0,0,0,0,0,0,-1,1245,743,0,0
28,281,0,0,0,0,0,0,0,0,0,-1,1252,743,0,0
35,281,0,0,0,0,0,0,0,0,0,-1,1259,743,0,0
42,281,0,0,0,0,0,0,0,0,0,-1,1266,743,0,0
49,281,0,0,0,0,0,0,0,0,0,-1,1273,743,0,0
56,281,0,0,0,0,0,0,0,0,0,-1,1280,743,0,0
63,281,0,0,0,0,0,0,0,0,0,-1,1287,743,0,0
70,281,0,0,0,0,0,0,0,0,0,-1,1294,743,0,0
77,281,0,0,0,0,0,0,0,0,0,-1,1301,743,0,0
84,281,0,0,0,0,0,0,0,0,0,-1,1308,743,0,0
91,281,0,0,0,0,0,0,0,0,0,-1,1315,743,0,0
98,281,0,0,0,0,0,0,0,0,0,-1,1322,743,0,0
105,281,0,0,0,0,0,0,0,0,0,-1,1329,743,0,0
112,281,0,0,0,0,0,0,0,0,0,-1,1336,743,0,0
119,281,0,0,0,0,0,0,0,0,0,-1,1343,743,0,0
126,281,0,0,0,0,0,0,0,0,0,-1,1350,743,0,0
133,281,0,0,0,0,0,0,0,0,0,-1,1357,743,0,0
140,281,0,0,0,0,0,0,0,0,0,-1,1364,743,0,0
147,281,0,0,0,0,0,0,0,0,0,-1,1371,743,0,0
154,281,0,0,0,0,0,0,0,0,0,-1,1378,743,0,0
161,281,0,0,0,0,0,0,0,0,0,-1,1385,743,0,0
168,281,0,0,0,0,0,0,0,0,0,-1,1392,743,0,0
175,281,0,0,0,0,0,0,0,0,0,-1,1399,743,0,0
182,281,0,0,0,0,0,0,0,0,0,-1,1406,743,0,0
189,281,0,0,0,0,0,0,0,0,0,-1,1413,743,0,0
196,281,0,0,0,0,0,0,0,0,0,-1,1420,743,0,0
203,281,0,0,0,0,0,0,0,0,0,-1,1427,743,0,0
210,281,0,0,0,0,0,0,0,0,0,-1,1434,743,0,0
217,281,0,0,0,0,0,0,0,0,0,-1,1441,743,0,0
224,281,0,0,0,0,0,0,0,0,0,-1,1448,743,0,0
231,281,0,0,0,0,0,0,0,0,0,-1,1455,743,0,0
238,281,0,0,0,0,0,0,0,0,0,-1,1462,743,0,0
245,281,0,0,0,0,0,0,0,0,0,-1,1469,743,0,0
252,281,0,0,0,0,0,0,0,0,0,-1,1476,743,0,0
259,281,0,0,0,0,0,0,0,0,0,-1,1483,743,0,0
266,281,0,0,0,0,0,0,0,0,0,-1,1490,743,0,0
273,281,0,0,0,0,0,0,0,0,0,-1,1497,743,0,0
280,281,0,0,0,0,0,0,0,0,0,-1,1504,743,0,0
287,281,0,0,0,0,0,0,0,0,0,-1,1511,743,0,0
294,281,0,0,0,0,0,0,0,0,0,-1,1518,743,0,0
301,281,0,0,0,0,0,0,0,0,0,-1,1525,743,0,0
308,281,0,0,0,0,0,0,0,0,0,-1,1532,743,0,0
315,281,0,0,0,0,0,0,0,0,0,-1,1539,743,0,0
322,281,0,0,0,0,0,0,0,0,0,-1,1546,743,0,0
329,281,0,0,0,0,0,0,0,0,0,-1,1553,743,0,0
336,281,0,0,0,0,0,0,0,0,0,-1,1560,743,0,0
343,281,0,0,0,0,0,0,0,0,0,-1,1567,743,0,0
350,281,0,0,0,0,0,0,0,0,0,-1,1574,743,0,0
357,281,0,0,0,0,0,0,0,0,0,-1,1581,743,0,0
364,281,0,0,0,0,0,0,0,0,0,-1,1588,743,0,0
371,281,0,0,0,0,0,0,0,0,0,-1,1595,743,0,0
378,281,0,0,0,0,0,0,0,0,0,-1,1602,743,0,0
385,281,0,0,0,0,0,0,0,0,0,-1,1609,743,0,0
392,281,0,0,0,0,0,0,0,0,0,-1,1616,743,0,0
399,281,0,0,0,0,0,0,0,0,0,-1,1623,743,0,0
406,281,0,0,0,0,0,0,0,0,0,-1,1630,743,0,0
413,281,0,0,0,0,0,0,0,0,0,-1,1637,743,0,0
420,281,0,0,0,0,0,0,0,0,0,-1,1644,743,0,0
427,281,0,0,0,0,0,0,0,0,0,-1,1651,743,0,0
434,281,0,0,0,0,0,0,0,0,0,-1,1658,743,0,0
441,281,0,0,0,0,0,0,0,0,0,-1,1665,743,0,0
448,281,0,0,0,0,0,0,0,0,0,-1,1672,743,0,0
455,281,0,0,0,0,0,0,0,0,0,-1,1679,743,0,0
462,281,0,0,0,0,0,0,0,0,0,-1,1686,743,0,0
469,281,0,0,0,0,0,0,0,0,0,-1,1693,743,0,0
476,281,0,0,0,0,0,0,0,0,0,-1,1700,743,0,0
483,281,0,0,0,0,0,0,0,0,0,-1,1707,743,0,0
490,281,0,0,0,0,0,0,0,0,0,-1,1714,743,0,0
497,281,0,0,0,0,0,0,0,0,0,-1,1721,743,0,0
504,281,0,0,0,0,0,0,0,0,0,-1,1728,743,0,0
511,281,0,0,0,0,0,0,0,0,0,-1,1735,743,0,0
518,281,0,0,0,0,0,0,0,0,0,-1,1742,743,0,0
525,281,0,0,0,0,0,0,0,0,0,-1,1749,743,0,0
532,281,0,0,0,0,0,0,0,0,0,-1,1756,743,0,0
539,281,0,0,0,0,0,0,0,0,0,-1,1763,743,0,0
546,281,0,0,0,0,0,0,0,0,0,-1,1770,743,0,0
553,281,0,0,0,0,0,0,0,0,0,-1,1777,743,0,0
560,281,30.762,3.40131,0,0,0,0,0,0,0,-1,1784,743,30.762,-3.40131
567,281,30.1285,3.38214,-0.0574731,0.0671526,0.0406545,0.0792419,-0.0695624,1.28176,0.0859728,0.043067,1791,743,30.1286,-3.38212
574,281,29.2761,3.7663,0,0,0,0,0,0,0,-1,1798,743,29.2761,-3.7663
581,281,28.7505,4.22571,-0.0244199,0.0633908,0.0246349,0.0698298,-0.030859,1.31514,0.0595664,0.0452224,1805,743,28.7505,-4.22573
588,281,28.5085,4.90283,-0.0155243,0.0556104,0.0193151,0.0605166,-0.0204306,1.32205,0.0486075,0.0408951,1812,743,28.5085,-4.90286
595,281,28.4291,5.06287,-0.00893056,0.0468947,0.0147902,0.0505711,-0.0126069,1.32717,0.0386087,0.0459551,1819,743,28.4291,-5.0629
602,281,27.9714,5.18774,0,0,0,0,0,0,0,-1,1826,743,27.9715,-5.18777
609,281,29.5114,2.23206,0,0,0,0,0,0,0,-1,1833,743,29.5113,-2.23207
616,281,19.7532,0.0239868,0,0,0,0,0,0,0,-1,1840,743,19.7532,-0.0239913
623,281,19.7629,-1.08807,0,0,0,0,0,0,0,-1,1847,743,19.7629,1.0881
630,281,19.922,-0.760925,0.00208225,0.0107753,0.00404289,0.0123649,0.000492679,1.19619,0.00808402,0.0417867,1854,743,19.922,0.76094
637,281,20.014,-0.389404,0.00129227,0.00606881,0.00288517,0.00742594,-6.48664e-05,1.13112,0.00497239,0.0140037,1861,743,20.014,0.389404
644,281,20.0109,0.0111084,0.000591402,0.00151687,0.0017424,0.00285693,-0.000748663,0.915188,0.00219711,0.0101759,1868,743,20.0108,-0.0111249
651,281,19.9907,0.380798,9.58835e-05,-0.00167034,0.000975081,0.000528321,-0.00210277,0.417426,0.00160717,0.0113835,1875,743,19.9907,-0.380808
658,281,19.9553,0.746521,-0.000527284,-0.00125685,0.000305228,-0.00041643,-0.00136771,0.348371,0.000809522,0.0194847,1882,743,19.9553,-0.746534
665,281,19.9636,1.11938,-0.000548747,-0.000626942,-0.00016323,-0.000419997,-0.000755692,-0.667851,0.000437203,0.0196464,1889,743,19.9637,-1.11935
672,281,19.9607,1.51038,0.00031997,0.000395384,0.000107966,0.000472038,0.000243316,0.9534,0.000272575,0.0120951,1896,743,19.9607,-1.51037
679,281,19.9636,1.86987,0.00128475,0.00126102,0.000456072,0.00172911,0.00081666,0.772392,0.000998815,0.0192737,1903,743,19.9636,-1.86988
686,281,19.9365,2.18945,0.0027308,0.00210806,0.00118049,0.00364029,0.00119857,0.656452,0.00214218,0.015593,1910,743,19.9365,-2.18943
693,281,19.9408,2.57788,0.00477399,0.00306931,0.00224332,0.00632144,0.00152187,0.603848,0.00380971,0.0113308,1917,743,19.9409,-2.57791
700,281,19.9299,2.97333,0.00789956,0.00425527,0.00391691,0.0103974,0.00175741,0.567687,0.00642641,0.0213651,1924,743,19.9299,-2.97336
707,281,19.96,3.33783,0.0125672,0.00577551,0.00645882,0.0164685,0.00187422,0.543375,0.0104106,0.0431232,1931,743,19.96,-3.33785
714,281,20.066,3.69788,0,0,0,0,0,0,0,-1,1938,743,20.0661,-3.6979
721,281,16.9656,3.22174,0,0,0,0,0,0,0,-1,1945,743,16.9656,-3.22172
728,281,19.0251,3.63934,0,0,0,0,0,0,0,-1,1952,743,19.0252,-3.63932
735,281,19.0869,2.50311,0,0,0,0,0,0,0,-1,1959,743,19.0869,-2.5031
742,281,0,0,0,0,0,0,0,0,0,-1,1966,743,0,0
749,281,0,0,0,0,0,0,0,0,0,-1,1973,743,0,0
756,281,0,0,0,0,0,0,0,0,0,-1,1980,743,0,0
763,281,0,0,0,0,0,0,0,0,0,-1,1987,743,0,0
770,281,0,0,0,0,0,0,0,0,0,-1,1994,743,0,0
777,281,0,0,0,0,0,0,0,0,0,-1,2001,743,0,0
784,281,0,0,0,0,0,0,0,0,0,-1,2008,743,0,0
791,281,0,0,0,0,0,0,0,0,0,-1,2015,743,0,0
798,281,0,0,0,0,0,0,0,0,0,-1,2022,743,0,0
805,281,0,0,0,0,0,0,0,0,0,-1,2029,743,0,0
812,281,0,0,0,0,0,0,0,0,0,-1,2036,743,0,0
-700,274,0,0,0,0,0,0,0,0,0,-1,524,750,0,0
-693,274,0,0,0,0,0,0,0,0,0,-1,531,750,0,0
-686,274,0,0,0,0,0,0,0,0,0,-1,538,750,0,0
-679,274,0,0,0,0,0,0,0,0,0,-1,545,750,0,0
-672,274,0,0,0,0,0,0,0,0,0,-1,552,750,0,0
-665,274,0,0,0,0,0,0,0,0,0,-1,559,750,0,0
-658,274,0,0,0,0,0,0,0,0,0,-1,566,750,0,0
-651,274,0,0,0,0,0,0,0,0,0,-1,573,750,0,0
-644,274,0,0,0,0,0,0,0,0,0,-1,580,750,0,0
-637,274,0,0,0,0,0,0,0,0,0,-1,587,750,0,0
-630,274,0,0,0,0,0,0,0,0,0,-1,594,750,0,0
-623,274,-15.3624,1.72058,0,0,0,0,0,0,0,-1,601,750,-15.3624,-1.72056
-616,274,-13.6027,1.02539,0,0,0,0,0,0,0,-1,608,750,-13.6027,-1.02538
-609,274,-11.8582,0.624451,0,0,0,0,0,0,0,-1,615,750,-11.8582,-0.624439
-602,274,-10.2803,0.339844,0,0,0,0,0,0,0,-1,622,750,-10.2803,-0.339867
-595,274,-12.2135,2.8869,0,0,0,0,0,0,0,-1,629,750,-12.2135,-2.88691
-588,274,-12.5074,1.71564,0,0,0,0,0,0,0,-1,636,750,-12.5075,-1.71566
-581,274,-12.4644,1.28632,-0.00663159,0.00413215,0.0139144,0.0136692,-0.0161686,0.969929,0.017247,0.0401112,643,750,-12.4644,-1.28634
-574,274,-12.4063,0.848572,-0.00457273,0.00269883,0.0089543,0.00872733,-0.0106012,0.978248,0.0111768,0.0218649,650,750,-12.4063,-0.848555
-567,274,-12.5132,0.525208,-0.00285943,0.00169405,0.0051767,0.00507255,-0.00623793,0.992571,0.00654165,0.01964,657,750,-12.5133,-0.525201
-560,274,-12.5181,0.221924,-0.00200461,0.000914,0.00313828,0.00291567,-0.00400628,1.00303,0.00401289,0.0140738,664,750,-12.5181,-0.221915
-553,274,-12.5262,-0.130981,-0.00199566,0.000175306,0.00255969,0.00187016,-0.00369052,0.985939,0.0032673,0.00939923,671,750,-12.5262,0.131001
-546,274,-12.5457,-0.474854,-0.00201664,-0.00056531,0.00219691,0.00102268,-0.00360463,0.944912,0.00280679,0.0112421,678,750,-12.5457,0.474877
-539,274,-12.5424,-0.817444,-0.00220691,-0.00134335,0.00200517,0.000276002,-0.00382625,0.891446,0.00264764,0.011574,685,750,-12.5423,0.817424
-532,274,-12.5381,-1.15833,-0.00234125,-0.00167497,0.00182641,-0.000151559,-0.00386466,0.875608,0.00252743,0.0119252,692,750,-12.5381,1.1583
-525,274,-12.5488,-1.52734,-0.00208363,-0.00139788,0.00174476,3.73727e-05,-0.00351888,0.88242,0.00235848,0.0121331,699,750,-12.5489,1.52736
-518,274,-12.5477,-1.8927,-0.00173692,-0.00101288,0.001638,0.000302624,-0.00305242,0.894156,0.00214296,0.0123643,706,750,-12.5477,1.89271
-511,274,-12.5602,-2.25861,-0.00107407,1.84969e-05,0.0014556,0.00102694,-0.00208251,0.964914,0.0018294,0.0117506,713,750,-12.5602,2.25859
-504,274,-12.5818,-2.659,0.000117119,0.00180026,0.00111359,0.00235452,-0.000437134,1.10898,0.00173386,0.0216031,720,750,-12.5818,2.65897
-497,274,-12.461,-3.08081,0,0,0,0,0,0,0,-1,727,750,-12.461,3.08078
-490,274,-12.2821,-3.15472,0,0,0,0,0,0,0,-1,734,750,-12.2821,3.15475
-483,274,-19.5836,3.09399,0,0,0,0,0,0,0,-1,741,750,-19.5835,-3.09399
-476,274,-19.7634,2.34442,0,0,0,0,0,0,0,-1,748,750,-19.7634,-2.34441
-469,274,-19.9828,2.87415,0,0,0,0,0,0,0,-1,755,750,-19.9828,-2.87413
-462,274,-20.0386,2.87738,0,0,0,0,0,0,0,-1,762,750,-20.0386,-2.87736
-455,274,-20.5405,2.76892,0,0,0,0,0,0,0,-1,769,750,-20.5405,-2.76889
-448,274,-21.0087,2.55084,0,0,0,0,0,0,0,-1,776,750,-21.0087,-2.55083
-441,274,0,0,0,0,0,0,0,0,0,-1,783,750,0,0
-434,274,0,0,0,0,0,0,0,0,0,-1,790,750,0,0
-427,274,0,0,0,0,0,0,0,0,0,-1,797,750,0,0
-420,274,0,0,0,0,0,0,0,0,0,-1,804,750,0,0
-413,274,0,0,0,0,0,0,0,0,0,-1,811,750,0,0
-406,274,0,0,0,0,0,0,0,0,0,-1,818,750,0,0
-399,274,0,0,0,0,0,0,0,0,0,-1,825,750,0,0
-392,274,0,0,0,0,0,0,0,0,0,-1,832,750,0,0
-385,274,0,0,0,0,0,0,0,0,0,-1,839,750,0,0
-378,274,0,0,0,0,0,0,0,0,0,-1,846,750,0,0
-371,274,0,0,0,0,0,0,0,0,0,-1,853,750,0,0
-364,274,0,0,0,0,0,0,0,0,0,-1,860,750,0,0
-357,274,0,0,0,0,0,0,0,0,0,-1,867,750,0,0
-350,274,0,0,0,0,0,0,0,0,0,-1,874,750,0,0
-343,274,0,0,0,0,0,0,0,0,0,-1,881,750,0,0
-336,274,0,0,0,0,0,0,0,0,0,-1,888,750,0,0
-329,274,0,0,0,0,0,0,0,0,0,-1,895,750,0,0
-322,274,0,0,0,0,0,0,0,0,0,-1,902,750,0,0
-315,274,0,0,0,0,0,0,0,0,0,-1,909,750,0,0
-308,274,0,0,0,0,0,0,0,0,0,-1,916,750,0,0
-301,274,0,0,0,0,0,0,0,0,0,-1,923,750,0,0
-294,274,0,0,0,0,0,0,0,0,0,-1,930,750,0,0
-287,274,0,0,0,0,0,0,0,0,0,-1,937,750,0,0
-280,274,0,0,0,0,0,0,0,0,0,-1,944,750,0,0
-273,274,0,0,0,0,0,0,0,0,0,-1,951,750,0,0
-266,274,0,0,0,0,0,0,0,0,0,-1,958,750,0,0
-259,274,0,0,0,0,0,0,0,0,0,-1,965,750,0,0
-252,274,0,0,0,0,0,0,0,0,0,-1,972,750,0,0
-245,274,0,0,0,0,0,0,0,0,0,-1,979,750,0,0
-238,274,0,0,0,0,0,0,0,0,0,-1,986,750,0,0
-231,274,0,0,0,0,0,0,0,0,0,-1,993,750,0,0
-224,274,0,0,0,0,0,0,0,0,0,-1,1000,750,0,0
-217,274,0,0,0,0,0,0,0,0,0,-1,1007,750,0,0
-210,274,0,0,0,0,0,0,0,0,0,-1,1014,750,0,0
-203,274,0,0,0,0,0,0,0,0,0,-1,1021,750,0,0
-196,274,0,0,0,0,0,0,0,0,0,-1,1028,750,0,0
-189,274,0,0,0,0,0,0,0,0,0,-1,1035,750,0,0
-182,274,0,0,0,0,0,0,0,0,0,-1,1042,750,0,0
-175,274,0,0,0,0,0,0,0,0,0,-1,1049,750,0,0
-168,274,0,0,0,0,0,0,0,0,0,-1,1056,750,0,0
-161,274,0,0,0,0,0,0,0,0,0,-1,1063,750,0,0
-154,274,0,0,0,0,0,0,0,0,0,-1,1070,750,0,0
-147,274,0,0,0,0,0,0,0,0,0,-1,1077,750,0,0
-140,274,0,0,0,0,0,0,0,0,0,-1,1084,750,0,0
-133,274,0,0,0,0,0,0,0,0,0,-1,1091,750,0,0
-126,274,0,0,0,0,0,0,0,0,0,-1,1098,750,0,0
-119,274,0,0,0,0,0,0,0,0,0,-1,1105,750,0,0
-112,274,0,0,0,0,0,0,0,0,0,-1,1112,750,0,0
-105,274,0,0,0,0,0,0,0,0,0,-1,1119,750,0,0
-98,274,0,0,0,0,0,0,0,0,0,-1,1126,750,0,0
-91,274,0,0,0,0,0,0,0,0,0,-1,1133,750,0,0
-84,274,0,0,0,0,0,0,0,0,0,-1,1140,750,0,0
-77,274,0,0,0,0,0,0,0,0,0,-1,1147,750,0,0
-70,274,0,0,0,0,0,0,0,0,0,-1,1154,750,0,0
-63,274,0,0,0,0,0,0,0,0,0,-1,1161,750,0,0
-56,274,0,0,0,0,0,0,0,0,0,-1,1168,750,0,0
-49,274,0,0,0,0,0,0,0,0,0,-1,1175,750,0,0
-42,274,0,0,0,0,0,0,0,0,0,-1,1182,750,0,0
-35,274,0,0,0,0,0,0,0,0,0,-1,1189,750,0,0
-28,274,0,0,0,0,0,0,0,0,0,-1,1196,750,0,0
-21,274,0,0,0,0,0,0,0,0,0,-1,1203,750,0,0
-14,274,0,0,0,0,0,0,0,0,0,-1,1210,750,0,0
-7,274,0,0,0,0,0,0,0,0,0,-1,1217,750,0,0
0,274,0,0,0,0,0,0,0,0,0,-1,1224,750,0,0
7,274,0,0,0,0,0,0,0,0,0,-1,1231,750,0,0
14,274,0,0,0,0,0,0,0,0,0,-1,1238,750,0,0
21,274,0,0,0,0,0,0,0,0,0,-1,1245,750,0,0
28,274,0,0,0,0,0,0,0,0,0,-1,1252,750,0,0
35,274,0,0,0,0,0,0,0,0,0,-1,1259,750,0,0
42,274,0,0,0,0,0,0,0,0,0,-1,1266,750,0,0
49,274,0,0,0,0,0,0,0,0,0,-1,1273,750,0,0
56,274,0,0,0,0,0,0,0,0,0,-1,1280,750,0,0
63,274,0,0,0,0,0,0,0,0,0,-1,1287,750,0,0
70,274,0,0,0,0,0,0,0,0,0,-1,1294,750,0,0
77,274,0,0,0,0,0,0,0,0,0,-1,1301,750,0,0
84,274,0,0,0,0,0,0,0,0,0,-1,1308,750,0,0
91,274,0,0,0,0,0,0,0,0,0,-1,1315,750,0,0
98,274,0,0,0,0,0,0,0,0,0,-1,1322,750,0,0
105,274,0,0,0,0,0,0,0,0,0,-1,1329,750,0,0
112,274,0,0,0,0,0,0,0,0,0,-1,1336,750,0,0
119,274,0,0,0,0,0,0,0,0,0,-1,1343,750,0,0
126,274,0,0,0,0,0,0,0,0,0,-1,1350,750,0,0
133,274,0,0,0,0,0,0,0,0,0,-1,1357,750,0,0
140,274,0,0,0,0,0,0,0,0,0,-1,1364,750,0,0
147,274,0,0,0,0,0,0,0,0,0,-1,1371,750,0,0
154,274,0,0,0,0,0,0,0,0,0,-1,1378,750,0,0
161,274,0,0,0,0,0,0,0,0,0,-1,1385,750,0,0
168,274,0,0,0,0,0,0,0,0,0,-1,1392,750,0,0
175,274,0,0,0,0,0,0,0,0,0,-1,1399,750,0,0
182,274,0,0,0,0,0,0,0,0,0,-1,1406,750,0,0
189,274,0,0,0,0,0,0,0,0,0,-1,1413,750,0,0
196,274,0,0,0,0,0,0,0,0,0,-1,1420,750,0,0
203,274,0,0,0,0,0,0,0,0,0,-1,1427,750,0,0
210,274,0,0,0,0,0,0,0,0,0,-1,1434,750,0,0
217,274,0,0,0,0,0,0,0,0,0,-1,1441,750,0,0
224,274,0,0,0,0,0,0,0,0,0,-1,1448,750,0,0
231,274,0,0,0,0,0,0,0,0,0,-1,1455,750,0,0
238,274,0,0,0,0,0,0,0,0,0,-1,1462,750,0,0
245,274,0,0,0,0,0,0,0,0,0,-1,1469,750,0,0
252,274,0,0,0,0,0,0,0,0,0,-1,1476,750,0,0
259,274,0,0,0,0,0,0,0,0,0,-1,1483,750,0,0
266,274,0,0,0,0,0,0,0,0,0,-1,1490,750,0,0
273,274,0,0,0,0,0,0,0,0,0,-1,1497,750,0,0
280,274,0,0,0,0,0,0,0,0,0,-1,1504,750,0,0
287,274,0,0,0,0,0,0,0,0,0,-1,1511,750,0,0
294,274,0,0,0,0,0,0,0,0,0,-1,1518,750,0,0
301,274,0,0,0,0,0,0,0,0,0,-1,1525,750,0,0
308,274,0,0,0,0,0,0,0,0,0,-1,1532,750,0,0
315,274,0,0,0,0,0,0,0,0,0,-1,1539,750,0,0
322,274,0,0,0,0,0,0,0,0,0,-1,1546,750,0,0
329,274,0,0,0,0,0,0,0,0,0,-1,1553,750,0,0
336,274,0,0,0,0,0,0,0,0,0,-1,1560,750,0,0
343,274,0,0,0,0,0,0,0,0,0,-1,1567,750,0,0
350,274,0,0,0,0,0,0,0,0,0,-1,1574,750,0,0
357,274,0,0,0,0,0,0,0,0,0,-1,1581,750,0,0
364,274,0,0,0,0,0,0,0,0,0,-1,1588,750,0,0
371,274,0,0,0,0,0,0,0,0,0,-1,1595,750,0,0
378,274,0,0,0,0,0,0,0,0,0,-1,1602,750,0,0
385,274,0,0,0,0,0,0,0,0,0,-1,1609,750,0,0
392,274,0,0,0,0,0,0,0,0,0,-1,1616,750,0,0
399,274,0,0,0,0,0,0,0,0,0,-1,1623,750,0,0
406,274,0,0,0,0,0,0,0,0,0,-1,1630,750,0,0
413,274,0,0,0,0,0,0,0,0,0,-1,1637,750,0,0
420,274,0,0,0,0,0,0,0,0,0,-1,1644,750,0,0
427,274,0,0,0,0,0,0,0,0,0,-1,1651,750,0,0
434,274,0,0,0,0,0,0,0,0,0,-1,1658,750,0,0
441,274,0,0,0,0,0,0,0,0,0,-1,1665,750,0,0
448,274,0,0,0,0,0,0,0,0,0,-1,1672,750,0,0
455,274,0,0,0,0,0,0,0,0,0,-1,1679,750,0,0
462,274,0,0,0,0,0,0,0,0,0,-1,1686,750,0,0
469,274,0,0,0,0,0,0,0,0,0,-1,1693,750,0,0
476,274,0,0,0,0,0,0,0,0,0,-1,1700,750,0,0
483,274,0,0,0,0,0,0,0,0,0,-1,1707,750,0,0
490,274,0,0,0,0,0,0,0,0,0,-1,1714,750,0,0
497,274,0,0,0,0,0,0,0,0,0,-1,1721,750,0,0
504,274,0,0,0,0,0,0,0,0,0,-1,1728,750,0,0
511,274,0,0,0,0,0,0,0,0,0,-1,1735,750,0,0
518,274,0,0,0,0,0,0,0,0,0,-1,1742,750,0,0
525,274,0,0,0,0,0,0,0,0,0,-1,1749,750,0,0
532,274,0,0,0,0,0,0,0,0,0,-1,1756,750,0,0
539,274,0,0,0,0,0,0,0,0,0,-1,1763,750,0,0
546,274,0,0,0,0,0,0,0,0,0,-1,1770,750,0,0
553,274,0,0,0,0,0,0,0,0,0,-1,1777,750,0,0
560,274,30.8647,3.2804,0,0,0,0,0,0,0,-1,1784,750,30.8648,-3.28038
567,274,30.5985,3.49097,0,0,0,0,0,0,0,-1,1791,750,30.5985,-3.49094
574,274,30.8734,3.48999,0,0,0,0,0,0,0,-1,1798,750,30.8734,-3.48999
581,274,29.429,3.92554,0,0,0,0,0,0,0,-1,1805,750,29.4289,-3.92556
588,274,31.5875,3.63611,0,0,0,0,0,0,0,-1,1812,750,31.5875,-3.63612
595,274,31.6488,3.55865,0,0,0,0,0,0,0,-1,1819,750,31.6488,-3.55863
602,274,32.2611,3.55353,0,0,0,0,0,0,0,-1,1826,750,32.2611,-3.5535
609,274,33.0554,3.39294,0,0,0,0,0,0,0,-1,1833,750,33.0555,-3.39295
616,274,28.4136,1.82983,0,0,0,0,0,0,0,-1,1840,750,28.4136,-1.82982
623,274,20.8761,-1.12769,0,0,0,0,0,0,0,-1,1847,750,20.8761,1.12767
630,274,20.6353,-0.780334,0.00237754,0.0086996,0.0046116,0.0111295,-5.24065e-05,1.08585,0.00743723,0.0491299,1854,750,20.6352,0.78036
637,274,20.3864,-0.397705,0.00165626,0.00460234,0.00351235,0.00693803,-0.000679435,0.983952,0.00486766,0.0148454,1861,750,20.3864,0.397682
644,274,20.3639,0.0163574,0.00086105,0.000498854,0.00244246,0.00312911,-0.00176921,0.748393,0.00286415,0.0118167,1868,750,20.3639,-0.0163595
651,274,20.3701,0.386414,0.000210098,-0.00255913,0.00159702,0.00093916,-0.00328819,0.428258,0.00256319,0.0128792,1875,750,20.3702,-0.386396
658,274,20.3481,0.755371,-0.00049427,-0.00214858,0.000690933,-0.000243662,-0.00239919,0.347952,0.00152474,0.0154945,1882,750,20.3481,-0.755369
665,274,20.3357,1.14636,-0.000521182,-0.00137456,-1.2428e-06,-0.00052118,-0.00137457,-0.00145632,0.000801294,0.0154784,1889,750,20.3357,-1.14639
672,274,20.327,1.51526,0.000492991,-0.000186495,0.000159455,0.000528549,-0.000222054,0.219411,0.000445241,0.0129047,1896,750,20.3271,-1.51529
679,274,20.3309,1.87628,0.00160075,0.000839678,0.000418893,0.00178615,0.000654282,0.416671,0.00104345,0.0149841,1903,750,20.3309,-1.87627
686,274,20.3265,2.22003,0.00324522,0.00178111,0.00119231,0.00391228,0.00111405,0.510081,0.00232747,0.0162118,1910,750,20.3265,-2.22001
693,274,20.3119,2.59521,0.00539345,0.00271139,0.00230095,0.00671564,0.0013892,0.521554,0.00409337,0.0125,1917,750,20.3119,-2.59519
700,274,20.3158,2.98053,0.00840387,0.00382469,0.00392829,0.0106611,0.00156745,0.521543,0.00664682,0.0143189,1924,750,20.3158,-2.98055
707,274,20.3096,3.32141,0.0126698,0.00517991,0.00629016,0.0162454,0.00160429,0.516895,0.0103371,0.0229458,1931,750,20.3096,-3.32141
714,274,20.5522,3.6095,0.0184917,0.00666641,0.0095086,0.0237761,0.00138206,0.507243,0.0154107,0.0453725,1938,750,20.5522,-3.6095
721,274,20.7418,3.73511,0,0,0,0,0,0,0,-1,1945,750,20.7418,-3.73509
728,274,19.2209,3.95154,0,0,0,0,0,0,0,-1,1952,750,19.221,-3.95151
735,274,20.6608,4.10931,0,0,0,0,0,0,0,-1,1959,750,20.6607,-4.10932
742,274,11.7815,-0.740234,0,0,0,0,0,0,0,-1,1966,750,11.7815,0.740253
749,274,0,0,0,0,0,0,0,0,0,-1,1973,750,0,0
756,274,0,0,0,0,0,0,0,0,0,-1,1980,750,0,0
763,274,0,0,0,0,0,0,0,0,0,-1,1987,750,0,0
770,274,0,0,0,0,0,0,0,0,0,-1,1994,750,0,0
777,274,0,0,0,0,0,0,0,0,0,-1,2001,750,0,0
784,274,0,0,0,0,0,0,0,0,0,-1,2008,750,0,0
791,274,0,0,0,0,0,0,0,0,0,-1,2015,750,0,0
798,274,0,0,0,0,0,0,0,0,0,-1,2022,750,0,0
805,274,0,0,0,0,0,0,0,0,0,-1,2029,750,0,0
812,274,0,0,0,0,0,0,0,0,0,-1,2036,750,0,0
-700,267,0,0,0,0,0,0,0,0,0,-1,524,757,0,0
-693,267,0,0,0,0,0,0,0,0,0,-1,531,757,0,0
-686,267,0,0,0,0,0,0,0,0,0,-1,538,757,0,0
-679,267,0,0,0,0,0,0,0,0,0,-1,545,757,0,0
-672,267,0,0,0,0,0,0,0,0,0,-1,552,757,0,0
-665,267,0,0,0,0,0,0,0,0,0,-1,559,757,0,0
-658,267,0,0,0,0,0,0,0,0,0,-1,566,757,0,0
-651,267,0,0,0,0,0,0,0,0,0,-1,573,757,0,0
-644,267,0,0,0,0,0,0,0,0,0,-1,580,757,0,0
-637,267,0,0,0,0,0,0,0,0,0,-1,587,757,0,0
-630,267,-17.6785,4.03638,0,0,0,0,0,0,0,-1,594,757,-17.6785,-4.03637
-623,267,-16.174,3.3913,0,0,0,0,0,0,0,-1,601,757,-16.174,-3.39132
-616,267,-14.3332,2.50665,0,0,0,0,0,0,0,-1,608,757,-14.3332,-2.50666
-609,267,-12.7726,1.87433,0,0,0,0,0,0,0,-1,615,757,-12.7726,-1.87431
-602,267,-12.5526,3.24188,0,0,0,0,0,0,0,-1,622,757,-12.5525,-3.24185
-595,267,-12.8555,1.79889,0,0,0,0,0,0,0,-1,629,757,-12.8555,-1.79891
-588,267,-12.7805,1.57745,-0.00964042,0.0046624,0.0234544,0.0220314,-0.0270094,0.933374,0.0283623,0.041664,636,757,-12.7805,-1.57747
-581,267,-12.7529,1.31213,-0.00591253,0.00398198,0.0132513,0.0131794,-0.0151099,0.964056,0.0163455,0.0279306,643,757,-12.7529,-1.31211
-574,267,-12.793,0.89679,-0.00386877,0.00261495,0.00838896,0.00836666,-0.00962048,0.969781,0.0103933,0.0159826,650,757,-12.7931,-0.896764
-567,267,-12.8568,0.545593,-0.00222313,0.00159013,0.00463418,0.00469457,-0.00532758,0.980558,0.00579013,0.0227512,657,757,-12.8568,-0.54559
-560,267,-12.8812,0.246277,-0.00155602,0.000733397,0.0027132,0.00253349,-0.00335611,0.98502,0.0034114,0.0209069,664,757,-12.8812,-0.246246
-553,267,-12.901,-0.0805664,-0.00177298,-0.000124784,0.00234613,0.00153777,-0.00343554,0.954296,0.0029402,0.017529,671,757,-12.901,0.0805749
-546,267,-12.8849,-0.467651,-0.00203021,-0.000950468,0.00216087,0.00073695,-0.00371763,0.907812,0.0027571,0.0120914,678,757,-12.8849,0.467621
-539,267,-12.8812,-0.82782,-0.00253415,-0.001788,0.00213329,4.59701e-06,-0.00432674,0.871964,0.00288603,0.0108906,685,757,-12.8813,0.827817
-532,267,-12.8663,-1.16687,-0.00285584,-0.00193885,0.00204605,-0.000300555,-0.00449413,0.895621,0.0029011,0.0107994,692,757,-12.8663,1.16688
-525,267,-12.8809,-1.50317,-0.002663,-0.00139888,0.00198837,5.54684e-05,-0.00411735,0.939287,0.00276358,0.0107425,699,757,-12.8809,1.50317
-518,267,-12.9028,-1.86194,-0.0023798,-0.000799171,0.00186537,0.000436398,-0.00361537,0.985773,0.0025681,0.0114184,706,757,-12.9028,1.86194
-511,267,-12.8868,-2.25208,-0.00169671,0.000526526,0.0016002,0.00136333,-0.00253351,1.08897,0.0022834,0.0159521,713,757,-12.8868,2.25209
-504,267,-12.9128,-2.56451,-0.000357476,0.00265319,0.00108295,0.00300226,-0.000706548,1.25898,0.00227391,0.0306713,720,757,-12.9128,2.5645
-497,267,-12.9651,-2.82111,0,0,0,0,0,0,0,-1,727,757,-12.9651,2.82113
-490,267,-18.6624,1.48059,0,0,0,0,0,0,0,-1,734,757,-18.6624,-1.48059
-483,267,-19.6895,2.77264,0,0,0,0,0,0,0,-1,741,757,-19.6895,-2.77263
-476,267,-20.6811,2.86664,0,0,0,0,0,0,0,-1,748,757,-20.6811,-2.86666
-469,267,-20.4035,2.94299,0,0,0,0,0,0,0,-1,755,757,-20.4035,-2.94302
-462,267,-20.3115,2.83734,0,0,0,0,0,0,0,-1,762,757,-20.3115,-2.83737
-455,267,-20.7291,2.63068,0,0,0,0,0,0,0,-1,769,757,-20.7291,-2.63067
-448,267,-20.9478,2.26495,0,0,0,0,0,0,0,-1,776,757,-20.9478,-2.26496
-441,267,0,0,0,0,0,0,0,0,0,-1,783,757,0,0
-434,267,0,0,0,0,0,0,0,0,0,-1,790,757,0,0
-427,267,0,0,0,0,0,0,0,0,0,-1,797,757,0,0
-420,267,0,0,0,0,0,0,0,0,0,-1,804,757,0,0
-413,267,0,0,0,0,0,0,0,0,0,-1,811,757,0,0
-406,267,0,0,0,0,0,0,0,0,0,-1,818,757,0,0
-399,267,0,0,0,0,0,0,0,0,0,-1,825,757,0,0
-392,267,0,0,0,0,0,0,0,0,0,-1,832,757,0,0
-385,267,0,0,0,0,0,0,0,0,0,-1,839,757,0,0
-378,267,0,0,0,0,0,0,0,0,0,-1,846,757,0,0
-371,267,0,0,0,0,0,0,0,0,0,-1,853,757,0,0
-364,267,0,0,0,0,0,0,0,0,0,-1,860,757,0,0
-357,267,0,0,0,0,0,0,0,0,0,-1,867,757,0,0
-350,267,0,0,0,0,0,0,0,0,0,-1,874,757,0,0
-343,267,0,0,0,0,0,0,0,0,0,-1,881,757,0,0
-336,267,0,0,0,0,0,0,0,0,0,-1,888,757,0,0
-329,267,0,0,0,0,0,0,0,0,0,-1,895,757,0,0
-322,267,0,0,0,0,0,0,0,0,0,-1,902,757,0,0
-315,267,0,0,0,0,0,0,0,0,0,-1,909,757,0,0
-308,267,0,0,0,0,0,0,0,0,0,-1,916,757,0,0
-301,267,0,0,0,0,0,0,0,0,0,-1,923,757,0,0
-294,267,0,0,0,0,0,0,0,0,0,-1,930,757,0,0
-287,267,0,0,0,0,0,0,0,0,0,-1,937,757,0,0
-280,267,0,0,0,0,0,0,0,0,0,-1,944,757,0,0
-273,267,0,0,0,0,0,0,0,0,0,-1,951,757,0,0
-266,267,0,0,0,0,0,0,0,0,0,-1,958,757,0,0
-259,267,0,0,0,0,0,0,0,0,0,-1,965,757,0,0
-252,267,0,0,0,0,0,0,0,0,0,-1,972,757,0,0
-245,267,0,0,0,0,0,0,0,0,0,-1,979,757,0,0
-238,267,0,0,0,0,0,0,0,0,0,-1,986,757,0,0
-231,267,0,0,0,0,0,0,0,0,0,-1,993,757,0,0
-224,267,0,0,0,0,0,0,0,0,0,-1,1000,757,0,0
-217,267,0,0,0,0,0,0,0,0,0,-1,1007,757,0,0
-210,267,0,0,0,0,0,0,0,0,0,-1,1014,757,0,0
-203,267,0,0,0,0,0,0,0,0,0,-1,1021,757,0,0
-196,267,0,0,0,0,0,0,0,0,0,-1,1028,757,0,0
-189,267,0,0,0,0,0,0,0,0,0,-1,1035,757,0,0
-182,267,0,0,0,0,0,0,0,0,0,-1,1042,757,0,0
-175,267,0,0,0,0,0,0,0,0,0,-1,1049,757,0,0
-168,267,0,0,0,0,0,0,0,0,0,-1,1056,757,0,0
-161,267,0,0,0,0,0,0,0,0,0,-1,1063,757,0,0
-154,267,0,0,0,0,0,0,0,0,0,-1,1070,757,0,0
-147,267,0,0,0,0,0,0,0,0,0,-1,1077,757,0,0
-140,267,0,0,0,0,0,0,0,0,0,-1,1084,757,0,0
-133,267,0,0,0,0,0,0,0,0,0,-1,1091,757,0,0
-126,267,0,0,0,0,0,0,0,0,0,-1,1098,757,0,0
-119,267,0,0,0,0,0,0,0,0,0,-1,1105,757,0,0
-112,267,0,0,0,0,0,0,0,0,0,-1,1112,757,0,0
-105,267,0,0,0,0,0,0,0,0,0,-1,1119,757,0,0
-98,267,0,0,0,0,0,0,0,0,0,-1,1126,757,0,0
-91,267,0,0,0,0,0,0,0,0,0,-1,1133,757,0,0
-84,267,0,0,0,0,0,0,0,0,0,-1,1140,757,0,0
-77,267,0,0,0,0,0,0,0,0,0,-1,1147,757,0,0
-70,267,0,0,0,0,0,0,0,0,0,-1,1154,757,0,0
-63,267,0,0,0,0,0,0,0,0,0,-1,1161,757,0,0
-56,267,0,0,0,0,0,0,0,0,0,-1,1168,757,0,0
-49,267,0,0,0,0,0,0,0,0,0,-1,1175,757,0,0
-42,267,0,0,0,0,0,0,0,0,0,-1,1182,757,0,0
-35,267,0,0,0,0,0,0,0,0,0,-1,1189,757,0,0
-28,267,0,0,0,0,0,0,0,0,0,-1,1196,757,0,0
-21,267,0,0,0,0,0,0,0,0,0,-1,1203,757,0,0
-14,267,0,0,0,0,0,0,0,0,0,-1,1210,757,0,0
-7,267,0,0,0,0,0,0,0,0,0,-1,1217,757,0,0
0,267,0,0,0,0,0,0,0,0,0,-1,1224,757,0,0
7,267,0,0,0,0,0,0,0,0,0,-1,1231,757,0,0
14,267,0,0,0,0,0,0,0,0,0,-1,1238,757,0,0
21,267,0,0,0,0,0,0,0,0,0,-1,1245,757,0,0
28,267,0,0,0,0,0,0,0,0,0,-1,1252,757,0,0
35,267,0,0,0,0,0,0,0,0,0,-1,1259,757,0,0
42,267,0,0,0,0,0,0,0,0,0,-1,1266,757,0,0
49,267,0,0,0,0,0,0,0,0,0,-1,1273,757,0,0
56,267,0,0,0,0,0,0,0,0,0,-1,1280,757,0,0
63,267,0,0,0,0,0,0,0,0,0,-1,1287,757,0,0
70,267,0,0,0,0,0,0,0,0,0,-1,1294,757,0,0
77,267,0,0,0,0,0,0,0,0,0,-1,1301,757,0,0
84,267,0,0,0,0,0,0,0,0,0,-1,1308,757,0,0
91,267,0,0,0,0,0,0,0,0,0,-1,1315,757,0,0
98,267,0,0,0,0,0,0,0,0,0,-1,1322,757,0,0
105,267,0,0,0,0,0,0,0,0,0,-1,1329,757,0,0
112,267,0,0,0,0,0,0,0,0,0,-1,1336,757,0,0
119,267,0,0,0,0,0,0,0,0,0,-1,1343,757,0,0
126,267,0,0,0,0,0,0,0,0,0,-1,1350,757,0,0
133,267,0,0,0,0,0,0,0,0,0,-1,1357,757,0,0
140,267,0,0,0,0,0,0,0,0,0,-1,1364,757,0,0
147,267,0,0,0,0,0,0,0,0,0,-1,1371,757,0,0
154,267,0,0,0,0,0,0,0,0,0,-1,1378,757,0,0
161,267,0,0,0,0,0,0,0,0,0,-1,1385,757,0,0
168,267,0,0,0,0,0,0,0,0,0,-1,1392,757,0,0
175,267,0,0,0,0,0,0,0,0,0,-1,1399,757,0,0
182,267,0,0,0,0,0,0,0,0,0,-1,1406,757,0,0
189,267,0,0,0,0,0,0,0,0,0,-1,1413,757,0,0
196,267,0,0,0,0,0,0,0,0,0,-1,1420,757,0,0
203,267,0,0,0,0,0,0,0,0,0,-1,1427,757,0,0
210,267,0,0,0,0,0,0,0,0,0,-1,1434,757,0,0
217,267,0,0,0,0,0,0,0,0,0,-1,1441,757,0,0
224,267,0,0,0,0,0,0,0,0,0,-1,1448,757,0,0
231,267,0,0,0,0,0,0,0,0,0,-1,1455,757,0,0
238,267,0,0,0,0,0,0,0,0,0,-1,1462,757,0,0
245,267,0,0,0,0,0,0,0,0,0,-1,1469,757,0,0
252,267,0,0,0,0,0,0,0,0,0,-1,1476,757,0,0
259,267,0,0,0,0,0,0,0,0,0,-1,1483,757,0,0
266,267,0,0,0,0,0,0,0,0,0,-1,1490,757,0,0
273,267,0,0,0,0,0,0,0,0,0,-1,1497,757,0,0
280,267,0,0,0,0,0,0,0,0,0,-1,1504,757,0,0
287,267,0,0,0,0,0,0,0,0,0,-1,1511,757,0,0
294,267,0,0,0,0,0,0,0,0,0,-1,1518,757,0,0
301,267,0,0,0,0,0,0,0,0,0,-1,1525,757,0,0
308,267,0,0,0,0,0,0,0,0,0,-1,1532,757,0,0
315,267,0,0,0,0,0,0,0,0,0,-1,1539,757,0,0
322,267,0,0,0,0,0,0,0,0,0,-1,1546,757,0,0
329,267,0,0,0,0,0,0,0,0,0,-1,1553,757,0,0
336,267,0,0,0,0,0,0,0,0,0,-1,1560,757,0,0
343,267,0,0,0,0,0,0,0,0,0,-1,1567,757,0,0
350,267,0,0,0,0,0,0,0,0,0,-1,1574,757,0,0
357,267,0,0,0,0,0,0,0,0,0,-1,1581,757,0,0
364,267,0,0,0,0,0,0,0,0,0,-1,1588,757,0,0
371,267,0,0,0,0,0,0,0,0,0,-1,1595,757,0,0
378,267,0,0,0,0,0,0,0,0,0,-1,1602,757,0,0
385,267,0,0,0,0,0,0,0,0,0,-1,1609,757,0,0
392,267,0,0,0,0,0,0,0,0,0,-1,1616,757,0,0
399,267,0,0,0,0,0,0,0,0,0,-1,1623,757,0,0
406,267,0,0,0,0,0,0,0,0,0,-1,1630,757,0,0
413,267,0,0,0,0,0,0,0,0,0,-1,1637,757,0,0
420,267,0,0,0,0,0,0,0,0,0,-1,1644,757,0,0
427,267,0,0,0,0,0,0,0,0,0,-1,1651,757,0,0
434,267,0,0,0,0,0,0,0,0,0,-1,1658,757,0,0
441,267,0,0,0,0,0,0,0,0,0,-1,1665,757,0,0
448,267,0,0,0,0,0,0,0,0,0,-1,1672,757,0,0
455,267,0,0,0,0,0,0,0,0,0,-1,1679,757,0,0
462,267,0,0,0,0,0,0,0,0,0,-1,1686,757,0,0
469,267,0,0,0,0,0,0,0,0,0,-1,1693,757,0,0
476,267,0,0,0,0,0,0,0,0,0,-1,1700,757,0,0
483,267,0,0,0,0,0,0,0,0,0,-1,1707,757,0,0
490,267,0,0,0,0,0,0,0,0,0,-1,1714,757,0,0
497,267,0,0,0,0,0,0,0,0,0,-1,1721,757,0,0
504,267,0,0,0,0,0,0,0,0,0,-1,1728,757,0,0
511,267,0,0,0,0,0,0,0,0,0,-1,1735,757,0,0
518,267,0,0,0,0,0,0,0,0,0,-1,1742,757,0,0
525,267,0,0,0,0,0,0,0,0,0,-1,1749,757,0,0
532,267,0,0,0,0,0,0,0,0,0,-1,1756,757,0,0
539,267,0,0,0,0,0,0,0,0,0,-1,1763,757,0,0
546,267,0,0,0,0,0,0,0,0,0,-1,1770,757,0,0
553,267,0,0,0,0,0,0,0,0,0,-1,1777,757,0,0
560,267,0,0,0,0,0,0,0,0,0,-1,1784,757,0,0
567,267,30.9893,3.26434,0,0,0,0,0,0,0,-1,1791,757,30.9892,-3.26433
574,267,31.0404,3.2442,0,0,0,0,0,0,0,-1,1798,757,31.0403,-3.24419
581,267,30.7869,3.57727,0,0,0,0,0,0,0,-1,1805,757,30.7868,-3.57724
588,267,31.2166,3.58826,-0.0106442,0.0420485,0.0158695,0.0464588,-0.0150545,1.29973,0.0370254,0.0449371,1812,757,31.2165,-3.58825
595,267,31.4799,3.42676,-0.00465873,0.0353476,0.012788,0.039086,-0.00839708,1.28639,0.0292608,0.0499238,1819,757,31.4799,-3.42674
602,267,31.8317,3.28979,-0.00103797,0.0283828,0.0103108,0.0316364,-0.00429166,1.26513,0.0226574,0.0470074,1826,757,31.8317,-3.28982
609,267,32.3273,3.11566,0.00134313,0.0216751,0.00824945,0.0246011,-0.0015829,1.22995,0.016953,0.0430548,1833,757,32.3273,-3.11568
616,267,32.4443,2.78809,0,0,0,0,0,0,0,-1,1840,757,32.4444,-2.78807
623,267,21.975,-0.703369,0,0,0,0,0,0,0,-1,1847,757,21.975,0.703392
630,267,21.3756,-0.428467,0.00260629,0.00655426,0.00504222,0.00999513,-0.000834571,0.971973,0.00695831,0.0493276,1854,757,21.3756,0.428443
637,267,20.7488,-0.401794,0.00193309,0.00312714,0.00398197,0.00655659,-0.00149637,0.85981,0.00494589,0.0282752,1861,757,20.7488,0.401785
644,267,20.7266,0.0148926,0.00105733,-0.000386749,0.00297514,0.00339679,-0.00272621,0.666354,0.00354218,0.0122719,1868,757,20.7266,-0.0148882
651,267,20.7377,0.391663,0.000284771,-0.00314874,0.00211441,0.00129161,-0.00415558,0.444412,0.00328664,0.0137022,1875,757,20.7377,-0.391638
658,267,20.7361,0.772156,-0.00050772,-0.00281782,0.00106579,-9.11329e-05,-0.00323441,0.372613,0.00212655,0.0140969,1882,757,20.7361,-0.772143
665,267,20.736,1.14783,-0.000618724,-0.00201164,0.000194327,-0.000592121,-0.00203824,0.136051,0.00121072,0.0147496,1889,757,20.7359,-1.14781
672,267,20.7302,1.51099,0.000419139,-0.00076086,0.000234833,0.000464156,-0.000805877,0.1894,0.000742048,0.0129714,1896,757,20.7303,-1.51097
679,267,20.7188,1.88208,0.00154638,0.000364809,0.000366929,0.00165106,0.000260135,0.27789,0.00102506,0.0127263,1903,757,20.7188,-1.88208
686,267,20.7026,2.26105,0.00325347,0.00138075,0.0011223,0.00377872,0.000855492,0.437737,0.00228794,0.0131309,1910,757,20.7026,-2.26108
693,267,20.6862,2.59375,0.00540527,0.00224644,0.00223179,0.00655998,0.00109174,0.477463,0.00405865,0.0134373,1917,757,20.6862,-2.59373
700,267,20.6923,2.95758,0.00819615,0.00329402,0.00377151,0.0102431,0.00124708,0.497249,0.00645332,0.0153773,1924,757,20.6923,-2.95755
707,267,20.6934,3.28339,0.0119596,0.00450966,0.00590947,0.0152201,0.00124914,0.504183,0.00975708,0.0150863,1931,757,20.6934,-3.28338
714,267,20.7866,3.61237,0.0168893,0.00577924,0.00870484,0.0216606,0.00100796,0.501397,0.0141164,0.0306679,1938,757,20.7866,-3.61237
721,267,21.6403,4.33875,0.0232199,0.00742391,0.0126036,0.0301957,0.000448141,0.505507,0.0199827,0.0473972,1945,757,21.6402,-4.33878
728,267,22.2948,4.82251,0,0,0,0,0,0,0,-1,1952,757,22.2948,-4.82252
735,267,22.7133,4.1806,0,0,0,0,0,0,0,-1,1959,757,22.7133,-4.18059
742,267,18.1177,3.56561,0,0,0,0,0,0,0,-1,1966,757,18.1176,-3.56564
749,267,0,0,0,0,0,0,0,0,0,-1,1973,757,0,0
756,267,0,0,0,0,0,0,0,0,0,-1,1980,757,0,0
763,267,0,0,0,0,0,0,0,0,0,-1,1987,757,0,0
770,267,0,0,0,0,0,0,0,0,0,-1,1994,757,0,0
777,267,0,0,0,0,0,0,0,0,0,-1,2001,757,0,0
784,267,0,0,0,0,0,0,0,0,0,-1,2008,757,0,0
791,267,0,0,0,0,0,0,0,0,0,-1,2015,757,0,0
798,267,0,0,0,0,0,0,0,0,0,-1,2022,757,0,0
805,267,0,0,0,0,0,0,0,0,0,-1,2029,757,0,0
812,267,0,0,0,0,0,0,0,0,0,-1,2036,757,0,0
-700,260,0,0,0,0,0,0,0,0,0,-1,524,764,0,0
-693,260,0,0,0,0,0,0,0,0,0,-1,531,764,0,0
-686,260,0,0,0,0,0,0,0,0,0,-1,538,764,0,0
-679,260,0,0,0,0,0,0,0,0,0,-1,545,764,0,0
-672,260,0,0,0,0,0,0,0,0,0,-1,552,764,0,0
-665,260,0,0,0,0,0,0,0,0,0,-1,559,764,0,0
-658,260,0,0,0,0,0,0,0,0,0,-1,566,764,0,0
-651,260,0,0,0,0,0,0,0,0,0,-1,573,764,0,0
-644,260,0,0,0,0,0,0,0,0,0,-1,580,764,0,0
-637,260,0,0,0,0,0,0,0,0,0,-1,587,764,0,0
-630,260,-18.6965,6.00116,0,0,0,0,0,0,0,-1,594,764,-18.6965,-6.00115
-623,260,-16.9575,5.07886,0,0,0,0,0,0,0,-1,601,764,-16.9575,-5.07887
-616,260,-14.1456,4.46301,0,0,0,0,0,0,0,-1,608,764,-14.1456,-4.46299
-609,260,-13.741,3.12592,0,0,0,0,0,0,0,-1,615,764,-13.7411,-3.12589
-602,260,-13.218,3.03363,0,0,0,0,0,0,0,-1,622,764,-13.218,-3.03363
-595,260,-13.4626,1.49384,0,0,0,0,0,0,0,-1,629,764,-13.4626,-1.49385
-588,260,-13.3282,1.33838,-0.00889032,0.00436245,0.0222234,0.0209264,-0.0254542,0.930287,0.0268204,0.041686,636,764,-13.3282,-1.33836
-581,260,-13.1825,1.20123,-0.00523502,0.00381291,0.0124668,0.0125512,-0.0139733,0.95945,0.0153212,0.0235343,643,764,-13.1825,-1.20125
-574,260,-13.1929,0.901794,-0.00321553,0.00251173,0.00781524,0.00797146,-0.00867526,0.96101,0.00961385,0.0153018,650,764,-13.1928,-0.901771
-567,260,-13.2261,0.586243,-0.0016449,0.00146264,0.00416445,0.00435373,-0.00453599,0.963951,0.00513284,0.0162998,657,764,-13.2261,-0.586252
-560,260,-13.2137,0.265442,-0.0011595,0.000516537,0.00238906,0.00221029,-0.00285325,0.95408,0.00293128,0.0186432,664,764,-13.2137,-0.265437
-553,260,-13.2049,-0.0751953,-0.00158455,-0.000468011,0.00221808,0.00126098,-0.00331353,0.908682,0.00272828,0.0178759,671,764,-13.2049,0.0752089
-546,260,-13.2187,-0.43927,-0.00208763,-0.0013867,0.0021938,0.000484451,-0.00395878,0.864606,0.0028146,0.0120485,678,764,-13.2187,0.439281
-539,260,-13.2078,-0.796143,-0.00289348,-0.00225452,0.00231017,-0.000241841,-0.00490615,0.854108,0.00319321,0.0117701,685,764,-13.2078,0.796171
-532,260,-13.2077,-1.13538,-0.00332912,-0.00216475,0.00228469,-0.000389235,-0.00510464,0.910154,0.00328105,0.013797,692,764,-13.2077,1.13541
-525,260,-13.2237,-1.49237,-0.00312268,-0.00134794,0.00221866,0.000154231,-0.00462485,0.975633,0.00313591,0.0127117,699,764,-13.2237,1.49236
-518,260,-13.2559,-1.82837,-0.0028554,-0.000565328,0.00207395,0.00065868,-0.00407941,1.03763,0.00296367,0.0138073,706,764,-13.2559,1.82837
-511,260,-13.2449,-2.16638,-0.00213402,0.00096525,0.00175314,0.00175546,-0.00292423,1.14733,0.00272976,0.0242106,713,764,-13.2449,2.16639
-504,260,-13.346,-2.17975,-0.000689159,0.00327139,0.00114536,0.00357877,-0.000996533,1.30861,0.00277825,0.0471689,720,764,-13.346,2.17974
-497,260,-13.4345,-2.23749,0,0,0,0,0,0,0,-1,727,764,-13.4345,2.23749
-490,260,-19.342,1.32251,0,0,0,0,0,0,0,-1,734,764,-19.342,-1.32249
-483,260,-20.0737,2.2345,0,0,0,0,0,0,0,-1,741,764,-20.0737,-2.23452
-476,260,-21.9218,2.35565,0,0,0,0,0,0,0,-1,748,764,-21.9218,-2.35565
-469,260,-21.6638,2.03088,0,0,0,0,0,0,0,-1,755,764,-21.6638,-2.0309
-462,260,-21.5245,0.631287,0,0,0,0,0,0,0,-1,762,764,-21.5245,-0.63131
-455,260,-21.6279,1.12408,0,0,0,0,0,0,0,-1,769,764,-21.6279,-1.12408
-448,260,0,0,0,0,0,0,0,0,0,-1,776,764,0,0
-441,260,0,0,0,0,0,0,0,0,0,-1,783,764,0,0
-434,260,0,0,0,0,0,0,0,0,0,-1,790,764,0,0
-427,260,0,0,0,0,0,0,0,0,0,-1,797,764,0,0
-420,260,0,0,0,0,0,0,0,0,0,-1,804,764,0,0
-413,260,0,0,0,0,0,0,0,0,0,-1,811,764,0,0
-406,260,0,0,0,0,0,0,0,0,0,-1,818,764,0,0
-399,260,0,0,0,0,0,0,0,0,0,-1,825,764,0,0
-392,260,0,0,0,0,0,0,0,0,0,-1,832,764,0,0
-385,260,0,0,0,0,0,0,0,0,0,-1,839,764,0,0
-378,260,0,0,0,0,0,0,0,0,0,-1,846,764,0,0
-371,260,0,0,0,0,0,0,0,0,0,-1,853,764,0,0
-364,260,0,0,0,0,0,0,0,0,0,-1,860,764,0,0
-357,260,0,0,0,0,0,0,0,0,0,-1,867,764,0,0
-350,260,0,0,0,0,0,0,0,0,0,-1,874,764,0,0
-343,260,0,0,0,0,0,0,0,0,0,-1,881,764,0,0
-336,260,0,0,0,0,0,0,0,0,0,-1,888,764,0,0
-329,260,0,0,0,0,0,0,0,0,0,-1,895,764,0,0
-322,260,0,0,0,0,0,0,0,0,0,-1,902,764,0,0
-315,260,0,0,0,0,0,0,0,0,0,-1,909,764,0,0
-308,260,0,0,0,0,0,0,0,0,0,-1,916,764,0,0
-301,260,0,0,0,0,0,0,0,0,0,-1,923,764,0,0
-294,260,0,0,0,0,0,0,0,0,0,-1,930,764,0,0
-287,260,0,0,0,0,0,0,0,0,0,-1,937,764,0,0
-280,260,0,0,0,0,0,0,0,0,0,-1,944,764,0,0
-273,260,0,0,0,0,0,0,0,0,0,-1,951,764,0,0
-266,260,0,0,0,0,0,0,0,0,0,-1,958,764,0,0
-259,260,0,0,0,0,0,0,0,0,0,-1,965,764,0,0
-252,260,0,0,0,0,0,0,0,0,0,-1,972,764,0,0
-245,260,0,0,0,0,0,0,0,0,0,-1,979,764,0,0
-238,260,0,0,0,0,0,0,0,0,0,-1,986,764,0,0
-231,260,0,0,0,0,0,0,0,0,0,-1,993,764,0,0
-224,260,0,0,0,0,0,0,0,0,0,-1,1000,764,0,0
-217,260,0,0,0,0,0,0,0,0,0,-1,1007,764,0,0
-210,260,0,0,0,0,0,0,0,0,0,-1,1014,764,0,0
-203,260,0,0,0,0,0,0,0,0,0,-1,1021,764,0,0
-196,260,0,0,0,0,0,0,0,0,0,-1,1028,764,0,0
-189,260,0,0,0,0,0,0,0,0,0,-1,1035,764,0,0
-182,260,0,0,0,0,0,0,0,0,0,-1,1042,764,0,0
-175,260,0,0,0,0,0,0,0,0,0,-1,1049,764,0,0
-168,260,0,0,0,0,0,0,0,0,0,-1,1056,764,0,0
-161,260,0,0,0,0,0,0,0,0,0,-1,1063,764,0,0
-154,260,0,0,0,0,0,0,0,0,0,-1,1070,764,0,0
-147,260,0,0,0,0,0,0,0,0,0,-1,1077,764,0,0
-140,260,0,0,0,0,0,0,0,0,0,-1,1084,764,0,0
-133,260,0,0,0,0,0,0,0,0,0,-1,1091,764,0,0
-126,260,0,0,0,0,0,0,0,0,0,-1,1098,764,0,0
-119,260,0,0,0,0,0,0,0,0,0,-1,1105,764,0,0
-112,260,0,0,0,0,0,0,0,0,0,-1,1112,764,0,0
-105,260,0,0,0,0,0,0,0,0,0,-1,1119,764,0,0
-98,260,0,0,0,0,0,0,0,0,0,-1,1126,764,0,0
-91,260,0,0,0,0,0,0,0,0,0,-1,1133,764,0,0
-84,260,0,0,0,0,0,0,0,0,0,-1,1140,764,0,0
-77,260,0,0,0,0,0,0,0,0,0,-1,1147,764,0,0
-70,260,0,0,0,0,0,0,0,0,0,-1,1154,764,0,0
-63,260,0,0,0,0,0,0,0,0,0,-1,1161,764,0,0
-56,260,0,0,0,0,0,0,0,0,0,-1,1168,764,0,0
-49,260,0,0,0,0,0,0,0,0,0,-1,1175,764,0,0
-42,260,0,0,0,0,0,0,0,0,0,-1,1182,764,0,0
-35,260,0,0,0,0,0,0,0,0,0,-1,1189,764,0,0
-28,260,0,0,0,0,0,0,0,0,0,-1,1196,764,0,0
-21,260,0,0,0,0,0,0,0,0,0,-1,1203,764,0,0
-14,260,0,0,0,0,0,0,0,0,0,-1,1210,764,0,0
-7,260,0,0,0,0,0,0,0,0,0,-1,1217,764,0,0
0,260,0,0,0,0,0,0,0,0,0,-1,1224,764,0,0
7,260,0,0,0,0,0,0,0,0,0,-1,1231,764,0,0
14,260,0,0,0,0,0,0,0,0,0,-1,1238,764,0,0
21,260,0,0,0,0,0,0,0,0,0,-1,1245,764,0,0
28,260,0,0,0,0,0,0,0,0,0,-1,1252,764,0,0
35,260,0,0,0,0,0,0,0,0,0,-1,1259,764,0,0
42,260,0,0,0,0,0,0,0,0,0,-1,1266,764,0,0
49,260,0,0,0,0,0,0,0,0,0,-1,1273,764,0,0
56,260,0,0,0,0,0,0,0,0,0,-1,1280,764,0,0
63,260,0,0,0,0,0,0,0,0,0,-1,1287,764,0,0
70,260,0,0,0,0,0,0,0,0,0,-1,1294,764,0,0
77,260,0,0,0,0,0,0,0,0,0,-1,1301,764,0,0
84,260,0,0,0,0,0,0,0,0,0,-1,1308,764,0,0
91,260,0,0,0,0,0,0,0,0,0,-1,1315,764,0,0
98,260,0,0,0,0,0,0,0,0,0,-1,1322,764,0,0
105,260,0,0,0,0,0,0,0,0,0,-1,1329,764,0,0
112,260,0,0,0,0,0,0,0,0,0,-1,1336,764,0,0
119,260,0,0,0,0,0,0,0,0,0,-1,1343,764,0,0
126,260,0,0,0,0,0,0,0,0,0,-1,1350,764,0,0
133,260,0,0,0,0,0,0,0,0,0,-1,1357,764,0,0
140,260,0,0,0,0,0,0,0,0,0,-1,1364,764,0,0
147,260,0,0,0,0,0,0,0,0,0,-1,1371,764,0,0
154,260,0,0,0,0,0,0,0,0,0,-1,1378,764,0,0
161,260,0,0,0,0,0,0,0,0,0,-1,1385,764,0,0
168,260,0,0,0,0,0,0,0,0,0,-1,1392,764,0,0
175,260,0,0,0,0,0,0,0,0,0,-1,1399,764,0,0
182,260,0,0,0,0,0,0,0,0,0,-1,1406,764,0,0
189,260,0,0,0,0,0,0,0,0,0,-1,1413,764,0,0
196,260,0,0,0,0,0,0,0,0,0,-1,1420,764,0,0
203,260,0,0,0,0,0,0,0,0,0,-1,1427,764,0,0
210,260,0,0,0,0,0,0,0,0,0,-1,1434,764,0,0
217,260,0,0,0,0,0,0,0,0,0,-1,1441,764,0,0
224,260,0,0,0,0,0,0,0,0,0,-1,1448,764,0,0
231,260,0,0,0,0,0,0,0,0,0,-1,1455,764,0,0
238,260,0,0,0,0,0,0,0,0,0,-1,1462,764,0,0
245,260,0,0,0,0,0,0,0,0,0,-1,1469,764,0,0
252,260,0,0,0,0,0,0,0,0,0,-1,1476,764,0,0
259,260,0,0,0,0,0,0,0,0,0,-1,1483,764,0,0
266,260,0,0,0,0,0,0,0,0,0,-1,1490,764,0,0
273,260,0,0,0,0,0,0,0,0,0,-1,1497,764,0,0
280,260,0,0,0,0,0,0,0,0,0,-1,1504,764,0,0
287,260,0,0,0,0,0,0,0,0,0,-1,1511,764,0,0
294,260,0,0,0,0,0,0,0,0,0,-1,1518,764,0,0
301,260,0,0,0,0,0,0,0,0,0,-1,1525,764,0,0
308,260,0,0,0,0,0,0,0,0,0,-1,1532,764,0,0
315,260,0,0,0,0,0,0,0,0,0,-1,1539,764,0,0
322,260,0,0,0,0,0,0,0,0,0,-1,1546,764,0,0
329,260,0,0,0,0,0,0,0,0,0,-1,1553,764,0,0
336,260,0,0,0,0,0,0,0,0,0,-1,1560,764,0,0
343,260,0,0,0,0,0,0,0,0,0,-1,1567,764,0,0
350,260,0,0,0,0,0,0,0,0,0,-1,1574,764,0,0
357,260,0,0,0,0,0,0,0,0,0,-1,1581,764,0,0
364,260,0,0,0,0,0,0,0,0,0,-1,1588,764,0,0
371,260,0,0,0,0,0,0,0,0,0,-1,1595,764,0,0
378,260,0,0,0,0,0,0,0,0,0,-1,1602,764,0,0
385,260,0,0,0,0,0,0,0,0,0,-1,1609,764,0,0
392,260,0,0,0,0,0,0,0,0,0,-1,1616,764,0,0
399,260,0,0,0,0,0,0,0,0,0,-1,1623,764,0,0
406,260,0,0,0,0,0,0,0,0,0,-1,1630,764,0,0
413,260,0,0,0,0,0,0,0,0,0,-1,1637,764,0,0
420,260,0,0,0,0,0,0,0,0,0,-1,1644,764,0,0
427,260,0,0,0,0,0,0,0,0,0,-1,1651,764,0,0
434,260,0,0,0,0,0,0,0,0,0,-1,1658,764,0,0
441,260,0,0,0,0,0,0,0,0,0,-1,1665,764,0,0
448,260,0,0,0,0,0,0,0,0,0,-1,1672,764,0,0
455,260,0,0,0,0,0,0,0,0,0,-1,1679,764,0,0
462,260,0,0,0,0,0,0,0,0,0,-1,1686,764,0,0
469,260,0,0,0,0,0,0,0,0,0,-1,1693,764,0,0
476,260,0,0,0,0,0,0,0,0,0,-1,1700,764,0,0
483,260,0,0,0,0,0,0,0,0,0,-1,1707,764,0,0
490,260,0,0,0,0,0,0,0,0,0,-1,1714,764,0,0
497,260,0,0,0,0,0,0,0,0,0,-1,1721,764,0,0
504,260,0,0,0,0,0,0,0,0,0,-1,1728,764,0,0
511,260,0,0,0,0,0,0,0,0,0,-1,1735,764,0,0
518,260,0,0,0,0,0,0,0,0,0,-1,1742,764,0,0
525,260,0,0,0,0,0,0,0,0,0,-1,1749,764,0,0
532,260,0,0,0,0,0,0,0,0,0,-1,1756,764,0,0
539,260,0,0,0,0,0,0,0,0,0,-1,1763,764,0,0
546,260,0,0,0,0,0,0,0,0,0,-1,1770,764,0,0
553,260,0,0,0,0,0,0,0,0,0,-1,1777,764,0,0
560,260,0,0,0,0,0,0,0,0,0,-1,1784,764,0,0
567,260,0,0,0,0,0,0,0,0,0,-1,1791,764,0,0
574,260,31.1431,3.00006,-0.0356899,0.0341629,0.0189034,0.0389504,-0.0404773,1.32275,0.0458604,0.0373854,1798,764,31.143,-3.00004
581,260,31.036,3.20557,-0.0175743,0.037795,0.0157201,0.0419468,-0.0217261,1.31258,0.0373744,0.0399915,1805,764,31.036,-3.20554
588,260,31.1217,3.43207,-0.00800185,0.0347114,0.0134381,0.0385874,-0.0118779,1.28998,0.0304661,0.0442692,1812,764,31.1217,-3.43209
595,260,31.3713,3.27649,-0.00254091,0.0292546,0.0115482,0.0330063,-0.00629256,1.25668,0.024374,0.0476392,1819,764,31.3714,-3.2765
602,260,31.5559,3.06793,0.000534932,0.0231634,0.0099026,0.0268849,-0.00318657,1.21131,0.0190744,0.046162,1826,764,31.5559,-3.06793
609,260,31.7384,2.97247,0.00229214,0.0172376,0.00838201,0.0209943,-0.00146454,1.14945,0.014509,0.0417316,1833,764,31.7385,-2.97245
616,260,31.8947,2.73492,0,0,0,0,0,0,0,-1,1840,764,31.8947,-2.73494
623,260,28.7789,4.1424,0,0,0,0,0,0,0,-1,1847,764,28.7789,-4.14241
630,260,21.7672,-0.114441,0,0,0,0,0,0,0,-1,1854,764,21.7673,0.114421
637,260,21.0293,-0.271606,0,0,0,0,0,0,0,-1,1861,764,21.0293,0.271584
644,260,21.078,0.0723877,0.00126517,-0.00137439,0.00339844,0.00359111,-0.00370032,0.600188,0.00420987,0.025413,1868,764,21.078,-0.0723783
651,260,21.1179,0.421875,0.000444912,-0.00373645,0.00254581,0.00164848,-0.00494002,0.441624,0.00395895,0.0139145,1875,764,21.1179,-0.421895
658,260,21.1172,0.794739,-0.000401759,-0.0034749,0.0014088,0.00014632,-0.00402297,0.371023,0.00273206,0.015891,1882,764,21.1172,-0.79473
665,260,21.1176,1.17151,-0.000646489,-0.00265725,0.000384342,-0.00057553,-0.00272821,0.182571,0.00166055,0.0161984,1889,764,21.1176,-1.17154
672,260,21.1115,1.53021,0.000276801,-0.00138186,0.000267103,0.000318752,-0.00142382,0.15579,0.00107139,0.0138422,1896,764,21.1115,-1.53018
679,260,21.0894,1.88873,0.00126072,-0.00015445,0.000195744,0.0012873,-0.000181026,0.134943,0.000924467,0.0126372,1903,764,21.0894,-1.88872
686,260,21.0569,2.25537,0.00283991,0.000931402,0.000826758,0.00314825,0.000623068,0.356966,0.00192505,0.0147609,1910,764,21.0569,-2.25535
693,260,21.0255,2.58423,0.00484566,0.00171874,0.00187557,0.00572395,0.000840448,0.437953,0.00356896,0.0150165,1917,764,21.0255,-2.58421
700,260,21.0059,2.94922,0.00731242,0.00269467,0.00328273,0.00901692,0.000990165,0.478916,0.00570992,0.0139182,1924,764,21.0059,-2.94921
707,260,21.0131,3.29706,0.0104852,0.00378788,0.00515165,0.0132809,0.00099219,0.497205,0.00854241,0.0144699,1931,764,21.0131,-3.29705
714,260,21.0392,3.64508,0.0144725,0.0048859,0.00750004,0.0185801,0.000778285,0.501059,0.0121357,0.0254194,1938,764,21.0391,-3.64507
721,260,21.2681,3.98969,0.0193568,0.00625883,0.0106564,0.0253158,0.00029987,0.50987,0.0167781,0.0456699,1945,764,21.2681,-3.9897
728,260,21.4052,4.24072,0,0,0,0,0,0,0,-1,1952,764,21.4051,-4.24075
735,260,21.0491,4.51563,0,0,0,0,0,0,0,-1,1959,764,21.049,-4.51562
742,260,23.8765,5.12695,0,0,0,0,0,0,0,-1,1966,764,23.8764,-5.12696
749,260,18.9454,4.52777,0,0,0,0,0,0,0,-1,1973,764,18.9455,-4.5278
756,260,0,0,0,0,0,0,0,0,0,-1,1980,764,0,0
763,260,0,0,0,0,0,0,0,0,0,-1,1987,764,0,0
770,260,0,0,0,0,0,0,0,0,0,-1,1994,764,0,0
777,260,0,0,0,0,0,0,0,0,0,-1,2001,764,0,0
784,260,0,0,0,0,0,0,0,0,0,-1,2008,764,0,0
791,260,0,0,0,0,0,0,0,0,0,-1,2015,764,0,0
798,260,0,0,0,0,0,0,0,0,0,-1,2022,764,0,0
805,260,0,0,0,0,0,0,0,0,0,-1,2029,764,0,0
812,260,0,0,0,0,0,0,0,0,0,-1,2036,764,0,0
-700,253,0,0,0,0,0,0,0,0,0,-1,524,771,0,0
-693,253,0,0,0,0,0,0,0,0,0,-1,531,771,0,0
-686,253,0,0,0,0,0,0,0,0,0,-1,538,771,0,0
-679,253,0,0,0,0,0,0,0,0,0,-1,545,771,0,0
-672,253,0,0,0,0,0,0,0,0,0,-1,552,771,0,0
-665,253,0,0,0,0,0,0,0,0,0,-1,559,771,0,0
-658,253,0,0,0,0,0,0,0,0,0,-1,566,771,0,0
-651,253,0,0,0,0,0,0,0,0,0,-1,573,771,0,0
-644,253,0,0,0,0,0,0,0,0,0,-1,580,771,0,0
-637,253,-19.311,-1.52161,0,0,0,0,0,0,0,-1,587,771,-19.311,1.52158
-630,253,-15.4828,6.40442,0,0,0,0,0,0,0,-1,594,771,-15.4829,-6.40442
-623,253,-15.0107,5.56714,0,0,0,0,0,0,0,-1,601,771,-15.0108,-5.56711
-616,253,-14.6594,4.698,0,0,0,0,0,0,0,-1,608,771,-14.6593,-4.69797
-609,253,-14.2023,3.87775,0,0,0,0,0,0,0,-1,615,771,-14.2023,-3.87774
-602,253,-13.7653,3.01044,0,0,0,0,0,0,0,-1,622,771,-13.7653,-3.01042
-595,253,-13.7043,1.62067,0,0,0,0,0,0,0,-1,629,771,-13.7043,-1.62065
-588,253,-13.6296,1.39423,-0.00899823,0.00451653,0.0195811,0.0184735,-0.0229552,0.951548,0.0239655,0.038531,636,771,-13.6296,-1.39425
-581,253,-13.5308,1.17932,-0.00527674,0.00383455,0.0109296,0.0111199,-0.0125621,0.982859,0.0136812,0.0229962,643,771,-13.5308,-1.17932
-574,253,-13.5474,0.877136,-0.00303213,0.00237087,0.00697049,0.00714506,-0.00780632,0.970268,0.00863499,0.0189098,650,771,-13.5473,-0.877134
-567,253,-13.5568,0.538147,-0.00140408,0.00122034,0.00369767,0.00383173,-0.00401547,0.955904,0.004531,0.015906,657,771,-13.5568,-0.538133
-560,253,-13.5271,0.242065,-0.00105067,0.000209259,0.00210715,0.0017786,-0.00262001,0.930651,0.00255498,0.0124751,664,771,-13.5271,-0.242082
-553,253,-13.5088,-0.0826416,-0.00155599,-0.000875907,0.00212509,0.000936172,-0.00336807,0.864732,0.00261393,0.0123575,671,771,-13.5088,0.08267
-546,253,-13.5522,-0.398193,-0.00217174,-0.00186292,0.00224423,0.000232202,-0.00426686,0.819745,0.00292505,0.0113759,678,771,-13.5522,0.398167
-539,253,-13.5715,-0.757202,-0.00312033,-0.00274276,0.00247627,-0.00044809,-0.005415,0.823444,0.0034703,0.0119485,685,771,-13.5715,0.757218
-532,253,-13.5731,-1.11096,-0.00354672,-0.00245973,0.00247934,-0.000465019,-0.00554144,0.893296,0.00354945,0.0145686,692,771,-13.5731,1.11096
-525,253,-13.5733,-1.48462,-0.0032849,-0.00146024,0.00238799,0.000183768,-0.0049289,0.967866,0.00334887,0.0117865,699,771,-13.5733,1.48465
-518,253,-13.6252,-1.81238,-0.00303355,-0.00058811,0.00221319,0.000717661,-0.00433932,1.03777,0.00315939,0.0166075,706,771,-13.6252,1.81237
-511,253,-13.7896,-2.10046,-0.00236144,0.00103995,0.00184598,0.00184924,-0.00317072,1.15763,0.00293156,0.0419741,713,771,-13.7896,2.10044
-504,253,-13.7396,-1.90631,0,0,0,0,0,0,0,-1,720,771,-13.7396,1.90629
-497,253,-14.2984,-2.0708,0,0,0,0,0,0,0,-1,727,771,-14.2984,2.07077
-490,253,-20.4094,1.48279,0,0,0,0,0,0,0,-1,734,771,-20.4094,-1.48281
-483,253,-22.1581,2.25629,0,0,0,0,0,0,0,-1,741,771,-22.1581,-2.25627
-476,253,-21.9648,2.16675,0.0174117,0.0244408,-0.00627203,0.0281159,0.0137367,-1.04078,0.0162341,0.0481644,748,771,-21.9648,-2.16674
-469,253,-21.7649,2.03754,0,0,0,0,0,0,0,-1,755,771,-21.7649,-2.03754
-462,253,-22.343,1.0777,0,0,0,0,0,0,0,-1,762,771,-22.343,-1.07769
-455,253,-21.6375,1.0946,0,0,0,0,0,0,0,-1,769,771,-21.6375,-1.09461
-448,253,0,0,0,0,0,0,0,0,0,-1,776,771,0,0
-441,253,0,0,0,0,0,0,0,0,0,-1,783,771,0,0
-434,253,0,0,0,0,0,0,0,0,0,-1,790,771,0,0
-427,253,0,0,0,0,0,0,0,0,0,-1,797,771,0,0
-420,253,0,0,0,0,0,0,0,0,0,-1,804,771,0,0
-413,253,0,0,0,0,0,0,0,0,0,-1,811,771,0,0
-406,253,0,0,0,0,0,0,0,0,0,-1,818,771,0,0
-399,253,0,0,0,0,0,0,0,0,0,-1,825,771,0,0
-392,253,0,0,0,0,0,0,0,0,0,-1,832,771,0,0
-385,253,0,0,0,0,0,0,0,0,0,-1,839,771,0,0
-378,253,0,0,0,0,0,0,0,0,0,-1,846,771,0,0
-371,253,0,0,0,0,0,0,0,0,0,-1,853,771,0,0
-364,253,0,0,0,0,0,0,0,0,0,-1,860,771,0,0
-357,253,0,0,0,0,0,0,0,0,0,-1,867,771,0,0
-350,253,0,0,0,0,0,0,0,0,0,-1,874,771,0,0
-343,253,0,0,0,0,0,0,0,0,0,-1,881,771,0,0
-336,253,0,0,0,0,0,0,0,0,0,-1,888,771,0,0
-329,253,0,0,0,0,0,0,0,0,0,-1,895,771,0,0
-322,253,0,0,0,0,0,0,0,0,0,-1,902,771,0,0
-315,253,0,0,0,0,0,0,0,0,0,-1,909,771,0,0
-308,253,0,0,0,0,0,0,0,0,0,-1,916,771,0,0
-301,253,0,0,0,0,0,0,0,0,0,-1,923,771,0,0
-294,253,0,0,0,0,0,0,0,0,0,-1,930,771,0,0
-287,253,0,0,0,0,0,0,0,0,0,-1,937,771,0,0
-280,253,0,0,0,0,0,0,0,0,0,-1,944,771,0,0
-273,253,0,0,0,0,0,0,0,0,0,-1,951,771,0,0
-266,253,0,0,0,0,0,0,0,0,0,-1,958,771,0,0
-259,253,0,0,0,0,0,0,0,0,0,-1,965,771,0,0
-252,253,0,0,0,0,0,0,0,0,0,-1,972,771,0,0
-245,253,0,0,0,0,0,0,0,0,0,-1,979,771,0,0
-238,253,0,0,0,0,0,0,0,0,0,-1,986,771,0,0
-231,253,0,0,0,0,0,0,0,0,0,-1,993,771,0,0
-224,253,0,0,0,0,0,0,0,0,0,-1,1000,771,0,0
-217,253,0,0,0,0,0,0,0,0,0,-1,1007,771,0,0
-210,253,0,0,0,0,0,0,0,0,0,-1,1014,771,0,0
-203,253,0,0,0,0,0,0,0,0,0,-1,1021,771,0,0
-196,253,0,0,0,0,0,0,0,0,0,-1,1028,771,0,0
-189,253,0,0,0,0,0,0,0,0,0,-1,1035,771,0,0
-182,253,0,0,0,0,0,0,0,0,0,-1,1042,771,0,0
-175,253,0,0,0,0,0,0,0,0,0,-1,1049,771,0,0
-168,253,0,0,0,0,0,0,0,0,0,-1,1056,771,0,0
-161,253,0,0,0,0,0,0,0,0,0,-1,1063,771,0,0
-154,253,0,0,0,0,0,0,0,0,0,-1,1070,771,0,0
-147,253,0,0,0,0,0,0,0,0,0,-1,1077,771,0,0
-140,253,0,0,0,0,0,0,0,0,0,-1,1084,771,0,0
-133,253,0,0,0,0,0,0,0,0,0,-1,1091,771,0,0
-126,253,0,0,0,0,0,0,0,0,0,-1,1098,771,0,0
-119,253,0,0,0,0,0,0,0,0,0,-1,1105,771,0,0
-112,253,0,0,0,0,0,0,0,0,0,-1,1112,771,0,0
-105,253,0,0,0,0,0,0,0,0,0,-1,1119,771,0,0
-98,253,0,0,0,0,0,0,0,0,0,-1,1126,771,0,0
-91,253,0,0,0,0,0,0,0,0,0,-1,1133,771,0,0
-84,253,0,0,0,0,0,0,0,0,0,-1,1140,771,0,0
-77,253,0,0,0,0,0,0,0,0,0,-1,1147,771,0,0
-70,253,0,0,0,0,0,0,0,0,0,-1,1154,771,0,0
-63,253,0,0,0,0,0,0,0,0,0,-1,1161,771,0,0
-56,253,0,0,0,0,0,0,0,0,0,-1,1168,771,0,0
-49,253,0,0,0,0,0,0,0,0,0,-1,1175,771,0,0
-42,253,0,0,0,0,0,0,0,0,0,-1,1182,771,0,0
-35,253,0,0,0,0,0,0,0,0,0,-1,1189,771,0,0
-28,253,0,0,0,0,0,0,0,0,0,-1,1196,771,0,0
-21,253,0,0,0,0,0,0,0,0,0,-1,1203,771,0,0
-14,253,0,0,0,0,0,0,0,0,0,-1,1210,771,0,0
-7,253,0,0,0,0,0,0,0,0,0,-1,1217,771,0,0
0,253,0,0,0,0,0,0,0,0,0,-1,1224,771,0,0
7,253,0,0,0,0,0,0,0,0,0,-1,1231,771,0,0
14,253,0,0,0,0,0,0,0,0,0,-1,1238,771,0,0
21,253,0,0,0,0,0,0,0,0,0,-1,1245,771,0,0
28,253,0,0,0,0,0,0,0,0,0,-1,1252,771,0,0
35,253,0,0,0,0,0,0,0,0,0,-1,1259,771,0,0
42,253,0,0,0,0,0,0,0,0,0,-1,1266,771,0,0
49,253,0,0,0,0,0,0,0,0,0,-1,1273,771,0,0
56,253,0,0,0,0,0,0,0,0,0,-1,1280,771,0,0
63,253,0,0,0,0,0,0,0,0,0,-1,1287,771,0,0
70,253,0,0,0,0,0,0,0,0,0,-1,1294,771,0,0
77,253,0,0,0,0,0,0,0,0,0,-1,1301,771,0,0
84,253,0,0,0,0,0,0,0,0,0,-1,1308,771,0,0
91,253,0,0,0,0,0,0,0,0,0,-1,1315,771,0,0
98,253,0,0,0,0,0,0,0,0,0,-1,1322,771,0,0
105,253,0,0,0,0,0,0,0,0,0,-1,1329,771,0,0
112,253,0,0,0,0,0,0,0,0,0,-1,1336,771,0,0
119,253,0,0,0,0,0,0,0,0,0,-1,1343,771,0,0
126,253,0,0,0,0,0,0,0,0,0,-1,1350,771,0,0
133,253,0,0,0,0,0,0,0,0,0,-1,1357,771,0,0
140,253,0,0,0,0,0,0,0,0,0,-1,1364,771,0,0
147,253,0,0,0,0,0,0,0,0,0,-1,1371,771,0,0
154,253,0,0,0,0,0,0,0,0,0,-1,1378,771,0,0
161,253,0,0,0,0,0,0,0,0,0,-1,1385,771,0,0
168,253,0,0,0,0,0,0,0,0,0,-1,1392,771,0,0
175,253,0,0,0,0,0,0,0,0,0,-1,1399,771,0,0
182,253,0,0,0,0,0,0,0,0,0,-1,1406,771,0,0
189,253,0,0,0,0,0,0,0,0,0,-1,1413,771,0,0
196,253,0,0,0,0,0,0,0,0,0,-1,1420,771,0,0
203,253,0,0,0,0,0,0,0,0,0,-1,1427,771,0,0
210,253,0,0,0,0,0,0,0,0,0,-1,1434,771,0,0
217,253,0,0,0,0,0,0,0,0,0,-1,1441,771,0,0
224,253,0,0,0,0,0,0,0,0,0,-1,1448,771,0,0
231,253,0,0,0,0,0,0,0,0,0,-1,1455,771,0,0
238,253,0,0,0,0,0,0,0,0,0,-1,1462,771,0,0
245,253,0,0,0,0,0,0,0,0,0,-1,1469,771,0,0
252,253,0,0,0,0,0,0,0,0,0,-1,1476,771,0,0
259,253,0,0,0,0,0,0,0,0,0,-1,1483,771,0,0
266,253,0,0,0,0,0,0,0,0,0,-1,1490,771,0,0
273,253,0,0,0,0,0,0,0,0,0,-1,1497,771,0,0
280,253,0,0,0,0,0,0,0,0,0,-1,1504,771,0,0
287,253,0,0,0,0,0,0,0,0,0,-1,1511,771,0,0
294,253,0,0,0,0,0,0,0,0,0,-1,1518,771,0,0
301,253,0,0,0,0,0,0,0,0,0,-1,1525,771,0,0
308,253,0,0,0,0,0,0,0,0,0,-1,1532,771,0,0
315,253,0,0,0,0,0,0,0,0,0,-1,1539,771,0,0
322,253,0,0,0,0,0,0,0,0,0,-1,1546,771,0,0
329,253,0,0,0,0,0,0,0,0,0,-1,1553,771,0,0
336,253,0,0,0,0,0,0,0,0,0,-1,1560,771,0,0
343,253,0,0,0,0,0,0,0,0,0,-1,1567,771,0,0
350,253,0,0,0,0,0,0,0,0,0,-1,1574,771,0,0
357,253,0,0,0,0,0,0,0,0,0,-1,1581,771,0,0
364,253,0,0,0,0,0,0,0,0,0,-1,1588,771,0,0
371,253,0,0,0,0,0,0,0,0,0,-1,1595,771,0,0
378,253,0,0,0,0,0,0,0,0,0,-1,1602,771,0,0
385,253,0,0,0,0,0,0,0,0,0,-1,1609,771,0,0
392,253,0,0,0,0,0,0,0,0,0,-1,1616,771,0,0
399,253,0,0,0,0,0,0,0,0,0,-1,1623,771,0,0
406,253,0,0,0,0,0,0,0,0,0,-1,1630,771,0,0
413,253,0,0,0,0,0,0,0,0,0,-1,1637,771,0,0
420,253,0,0,0,0,0,0,0,0,0,-1,1644,771,0,0
427,253,0,0,0,0,0,0,0,0,0,-1,1651,771,0,0
434,253,0,0,0,0,0,0,0,0,0,-1,1658,771,0,0
441,253,0,0,0,0,0,0,0,0,0,-1,1665,771,0,0
448,253,0,0,0,0,0,0,0,0,0,-1,1672,771,0,0
455,253,0,0,0,0,0,0,0,0,0,-1,1679,771,0,0
462,253,0,0,0,0,0,0,0,0,0,-1,1686,771,0,0
469,253,0,0,0,0,0,0,0,0,0,-1,1693,771,0,0
476,253,0,0,0,0,0,0,0,0,0,-1,1700,771,0,0
483,253,0,0,0,0,0,0,0,0,0,-1,1707,771,0,0
490,253,0,0,0,0,0,0,0,0,0,-1,1714,771,0,0
497,253,0,0,0,0,0,0,0,0,0,-1,1721,771,0,0
504,253,0,0,0,0,0,0,0,0,0,-1,1728,771,0,0
511,253,0,0,0,0,0,0,0,0,0,-1,1735,771,0,0
518,253,0,0,0,0,0,0,0,0,0,-1,1742,771,0,0
525,253,0,0,0,0,0,0,0,0,0,-1,1749,771,0,0
532,253,0,0,0,0,0,0,0,0,0,-1,1756,771,0,0
539,253,0,0,0,0,0,0,0,0,0,-1,1763,771,0,0
546,253,0,0,0,0,0,0,0,0,0,-1,1770,771,0,0
553,253,0,0,0,0,0,0,0,0,0,-1,1777,771,0,0
560,253,0,0,0,0,0,0,0,0,0,-1,1784,771,0,0
567,253,0,0,0,0,0,0,0,0,0,-1,1791,771,0,0
574,253,31.2062,2.7998,-0.0340911,0.022584,0.0109698,0.0246332,-0.0361403,1.38612,0.0352966,0.0381894,1798,771,31.2062,-2.79983
581,253,31.1941,2.9248,-0.0158324,0.0288357,0.0109932,0.0313946,-0.0183913,1.3421,0.0290689,0.0405332,1805,771,31.1941,-2.92481
588,253,31.124,3.19104,-0.00654449,0.0271178,0.0108078,0.030289,-0.00971575,1.28538,0.0240934,0.0419863,1812,771,31.124,-3.19101
595,253,31.4431,3.32568,-0.00150532,0.023087,0.0103854,0.026886,-0.00530427,1.22012,0.0199288,0.0433992,1819,771,31.4431,-3.32567
602,253,31.3152,3.4715,0.00126256,0.0180591,0.00961994,0.0224309,-0.00310922,1.14425,0.0160908,0.0438102,1826,771,31.3152,-3.47152
609,253,31.2064,2.71698,0,0,0,0,0,0,0,-1,1833,771,31.2064,-2.71697
616,253,30.5813,3.20654,0,0,0,0,0,0,0,-1,1840,771,30.5814,-3.20654
623,253,30.3834,3.50531,0,0,0,0,0,0,0,-1,1847,771,30.3834,-3.5053
630,253,29.1379,3.88159,0,0,0,0,0,0,0,-1,1854,771,29.1379,-3.88162
637,253,20.6448,-0.0429688,0,0,0,0,0,0,0,-1,1861,771,20.6448,0.0429791
644,253,21.4493,0.09021,0,0,0,0,0,0,0,-1,1868,771,21.4493,-0.0901875
651,253,21.4578,0.453491,0.0005662,-0.00410963,0.00293824,0.00198316,-0.0055266,0.449346,0.00449377,0.0241943,1875,771,21.4578,-0.453492
658,253,21.4904,0.81604,-0.000292642,-0.00394664,0.00176708,0.000422111,-0.0046614,0.384364,0.00325743,0.0191527,1882,771,21.4904,-0.816057
665,253,21.4009,1.17401,-0.000636257,-0.00320462,0.000636247,-0.000487284,-0.00335359,0.23,0.0020923,0.021338,1889,771,21.4009,-1.17402
672,253,21.3959,1.52814,0.000144041,-0.0019974,0.000347794,0.000199111,-0.00205247,0.157036,0.00143928,0.0163869,1896,771,21.3959,-1.52811
679,253,21.4558,1.9101,0.000939909,-0.000716586,2.95409e-05,0.000940436,-0.000717113,0.0178258,0.000959877,0.0134605,1903,771,21.4558,-1.91012
686,253,21.4177,2.26428,0.00232984,0.000407408,0.000467522,0.0024375,0.00029974,0.226349,0.00153488,0.0182852,1910,771,21.4177,-2.26427
693,253,21.3774,2.62085,0.00416355,0.00110749,0.00142288,0.00472345,0.000547586,0.37489,0.00298324,0.0179776,1917,771,21.3775,-2.62083
700,253,21.3816,2.97211,0.00634194,0.00206226,0.00275537,0.0076908,0.000713407,0.455241,0.00490671,0.0148569,1924,771,21.3816,-2.97211
707,253,21.3883,3.33215,0.00901536,0.00320804,0.0045026,0.0114694,0.000754029,0.499013,0.00740771,0.0140025,1931,771,21.3883,-3.33214
714,253,21.3726,3.64569,0.0122508,0.00440346,0.00669212,0.0160847,0.000569582,0.520251,0.0105384,0.0190996,1938,771,21.3726,-3.64569
721,253,21.3667,3.93646,0.0160257,0.00594368,0.00958208,0.0218119,0.000157514,0.543248,0.014489,0.032904,1945,771,21.3666,-3.93644
728,253,21.3492,4.39215,0.0208781,0.00794264,0.0136901,0.0295513,-0.000730633,0.56472,0.0199489,0.0464004,1952,771,21.3492,-4.39217
735,253,21.5446,5.06683,0,0,0,0,0,0,0,-1,1959,771,21.5445,-5.06685
742,253,22.5087,6.56555,0,0,0,0,0,0,0,-1,1966,771,22.5086,-6.56553
749,253,26.1455,5.17609,0,0,0,0,0,0,0,-1,1973,771,26.1455,-5.17608
756,253,0,0,0,0,0,0,0,0,0,-1,1980,771,0,0
763,253,0,0,0,0,0,0,0,0,0,-1,1987,771,0,0
770,253,0,0,0,0,0,0,0,0,0,-1,1994,771,0,0
777,253,0,0,0,0,0,0,0,0,0,-1,2001,771,0,0
784,253,0,0,0,0,0,0,0,0,0,-1,2008,771,0,0
791,253,0,0,0,0,0,0,0,0,0,-1,2015,771,0,0
798,253,0,0,0,0,0,0,0,0,0,-1,2022,771,0,0
805,253,0,0,0,0,0,0,0,0,0,-1,2029,771,0,0
812,253,0,0,0,0,0,0,0,0,0,-1,2036,771,0,0
-700,246,0,0,0,0,0,0,0,0,0,-1,524,778,0,0
-693,246,0,0,0,0,0,0,0,0,0,-1,531,778,0,0
-686,246,0,0,0,0,0,0,0,0,0,-1,538,778,0,0
-679,246,0,0,0,0,0,0,0,0,0,-1,545,778,0,0
-672,246,0,0,0,0,0,0,0,0,0,-1,552,778,0,0
-665,246,0,0,0,0,0,0,0,0,0,-1,559,778,0,0
-658,246,0,0,0,0,0,0,0,0,0,-1,566,778,0,0
-651,246,0,0,0,0,0,0,0,0,0,-1,573,778,0,0
-644,246,0,0,0,0,0,0,0,0,0,-1,580,778,0,0
-637,246,-16.2595,-2.85089,0,0,0,0,0,0,0,-1,587,778,-16.2595,2.85087
-630,246,-16.7213,-1.60413,0,0,0,0,0,0,0,-1,594,778,-16.7213,1.60411
-623,246,-17.3101,-0.403687,0,0,0,0,0,0,0,-1,601,778,-17.3101,0.403713
-616,246,-17.853,0.539673,0,0,0,0,0,0,0,-1,608,778,-17.8529,-0.539681
-609,246,-14.6985,4.1543,0,0,0,0,0,0,0,-1,615,778,-14.6985,-4.15427
-602,246,-13.9039,1.91675,0,0,0,0,0,0,0,-1,622,778,-13.9039,-1.91673
-595,246,-13.9415,1.68835,0,0,0,0,0,0,0,-1,629,778,-13.9415,-1.68836
-588,246,-13.8794,1.47906,-0.00804573,0.00501046,0.016594,0.0163143,-0.0193496,0.9728,0.0206154,0.0292378,636,778,-13.8794,-1.47908
-581,246,-13.9016,1.22198,-0.00484582,0.00384346,0.00919478,0.00966838,-0.0106707,1.00611,0.0117475,0.0159806,643,778,-13.9016,-1.22201
-574,246,-13.8618,0.847107,-0.00269168,0.00224903,0.00597871,0.00624765,-0.0066903,0.981312,0.00747119,0.017533,650,778,-13.8618,-0.847091
-567,246,-13.8722,0.526184,-0.00118435,0.00103134,0.00316776,0.00327939,-0.0034324,0.953613,0.00387539,0.0207472,657,778,-13.8722,-0.526171
-560,246,-13.8854,0.215332,-0.000947279,-4.65763e-05,0.001818,0.00137602,-0.00236988,0.906813,0.00218792,0.0159992,664,778,-13.8854,-0.21533
-553,246,-13.8666,-0.0713501,-0.00147878,-0.00120479,0.00200001,0.000662913,-0.00334648,0.819594,0.00248165,0.0131631,671,778,-13.8666,0.0713362
-546,246,-13.8813,-0.381042,-0.00217694,-0.00222582,0.00221852,1.72784e-05,-0.00442004,0.77989,0.00295247,0.0112839,678,778,-13.8813,0.381055
-539,246,-13.8937,-0.744507,-0.00321656,-0.00306583,0.0025139,-0.000626169,-0.00565622,0.800383,0.00358039,0.0106293,685,778,-13.8937,0.744513
-532,246,-13.9103,-1.10968,-0.00362433,-0.00261886,0.00250164,-0.000569938,-0.00567325,0.884559,0.00360723,0.0113913,692,778,-13.9103,1.10966
-525,246,-13.9311,-1.44659,-0.00334562,-0.00152359,0.00236212,9.71109e-05,-0.00496631,0.969447,0.00334372,0.012782,699,778,-13.9311,1.44662
-518,246,-13.9885,-1.73749,-0.00314667,-0.000637711,0.00215079,0.000597713,-0.0043821,1.04941,0.00313966,0.0221825,706,778,-13.9885,1.7375
-511,246,-14.4059,-1.91028,-0.00259145,0.000972456,0.00175301,0.00169018,-0.00330918,1.18219,0.0029364,0.0474215,713,778,-14.4059,1.91031
-504,246,-14.8331,-2.08215,0,0,0,0,0,0,0,-1,720,778,-14.833,2.08217
-497,246,-14.6327,-0.893982,0,0,0,0,0,0,0,-1,727,778,-14.6327,0.894008
-490,246,-22.5569,2.03894,0,0,0,0,0,0,0,-1,734,778,-22.5569,-2.03893
-483,246,-22.3293,2.125,0.00811704,0.0161939,-0.00317848,0.0172947,0.00701624,-1.2374,0.0100442,0.0488547,741,778,-22.3293,-2.12502
-476,246,-21.9889,1.92035,0.0143427,0.0229249,-0.00545083,0.025571,0.0116966,-1.11885,0.0147813,0.0452418,748,778,-21.9889,-1.92038
-469,246,-22.194,1.27289,0,0,0,0,0,0,0,-1,755,778,-22.1939,-1.27291
-462,246,-22.2958,1.14014,0,0,0,0,0,0,0,-1,762,778,-22.2958,-1.14012
-455,246,0,0,0,0,0,0,0,0,0,-1,769,778,0,0
-448,246,0,0,0,0,0,0,0,0,0,-1,776,778,0,0
-441,246,0,0,0,0,0,0,0,0,0,-1,783,778,0,0
-434,246,0,0,0,0,0,0,0,0,0,-1,790,778,0,0
-427,246,0,0,0,0,0,0,0,0,0,-1,797,778,0,0
-420,246,0,0,0,0,0,0,0,0,0,-1,804,778,0,0
-413,246,0,0,0,0,0,0,0,0,0,-1,811,778,0,0
-406,246,0,0,0,0,0,0,0,0,0,-1,818,778,0,0
-399,246,0,0,0,0,0,0,0,0,0,-1,825,778,0,0
-392,246,0,0,0,0,0,0,0,0,0,-1,832,778,0,0
-385,246,0,0,0,0,0,0,0,0,0,-1,839,778,0,0
-378,246,0,0,0,0,0,0,0,0,0,-1,846,778,0,0
-371,246,0,0,0,0,0,0,0,0,0,-1,853,778,0,0
-364,246,0,0,0,0,0,0,0,0,0,-1,860,778,0,0
-357,246,0,0,0,0,0,0,0,0,0,-1,867,778,0,0
-350,246,0,0,0,0,0,0,0,0,0,-1,874,778,0,0
-343,246,0,0,0,0,0,0,0,0,0,-1,881,778,0,0
-336,246,0,0,0,0,0,0,0,0,0,-1,888,778,0,0
-329,246,0,0,0,0,0,0,0,0,0,-1,895,778,0,0
-322,246,0,0,0,0,0,0,0,0,0,-1,902,778,0,0
-315,246,0,0,0,0,0,0,0,0,0,-1,909,778,0,0
-308,246,0,0,0,0,0,0,0,0,0,-1,916,778,0,0
-301,246,0,0,0,0,0,0,0,0,0,-1,923,778,0,0
-294,246,0,0,0,0,0,0,0,0,0,-1,930,778,0,0
-287,246,0,0,0,0,0,0,0,0,0,-1,937,778,0,0
-280,246,0,0,0,0,0,0,0,0,0,-1,944,778,0,0
-273,246,0,0,0,0,0,0,0,0,0,-1,951,778,0,0
-266,246,0,0,0,0,0,0,0,0,0,-1,958,778,0,0
-259,246,0,0,0,0,0,0,0,0,0,-1,965,778,0,0
-252,246,0,0,0,0,0,0,0,0,0,-1,972,778,0,0
-245,246,0,0,0,0,0,0,0,0,0,-1,979,778,0,0
-238,246,0,0,0,0,0,0,0,0,0,-1,986,778,0,0
-231,246,0,0,0,0,0,0,0,0,0,-1,993,778,0,0
-224,246,0,0,0,0,0,0,0,0,0,-1,1000,778,0,0
-217,246,0,0,0,0,0,0,0,0,0,-1,1007,778,0,0
-210,246,0,0,0,0,0,0,0,0,0,-1,1014,778,0,0
-203,246,0,0,0,0,0,0,0,0,0,-1,1021,778,0,0
-196,246,0,0,0,0,0,0,0,0,0,-1,1028,778,0,0
-189,246,0,0,0,0,0,0,0,0,0,-1,1035,778,0,0
-182,246,0,0,0,0,0,0,0,0,0,-1,1042,778,0,0
-175,246,0,0,0,0,0,0,0,0,0,-1,1049,778,0,0
-168,246,0,0,0,0,0,0,0,0,0,-1,1056,778,0,0
-161,246,0,0,0,0,0,0,0,0,0,-1,1063,778,0,0
-154,246,0,0,0,0,0,0,0,0,0,-1,1070,778,0,0
-147,246,0,0,0,0,0,0,0,0,0,-1,1077,778,0,0
-140,246,0,0,0,0,0,0,0,0,0,-1,1084,778,0,0
-133,246,0,0,0,0,0,0,0,0,0,-1,1091,778,0,0
-126,246,0,0,0,0,0,0,0,0,0,-1,1098,778,0,0
-119,246,0,0,0,0,0,0,0,0,0,-1,1105,778,0,0
-112,246,0,0,0,0,0,0,0,0,0,-1,1112,778,0,0
-105,246,0,0,0,0,0,0,0,0,0,-1,1119,778,0,0
-98,246,0,0,0,0,0,0,0,0,0,-1,1126,778,0,0
-91,246,0,0,0,0,0,0,0,0,0,-1,1133,778,0,0
-84,246,0,0,0,0,0,0,0,0,0,-1,1140,778,0,0
-77,246,0,0,0,0,0,0,0,0,0,-1,1147,778,0,0
-70,246,0,0,0,0,0,0,0,0,0,-1,1154,778,0,0
-63,246,0,0,0,0,0,0,0,0,0,-1,1161,778,0,0
-56,246,0,0,0,0,0,0,0,0,0,-1,1168,778,0,0
-49,246,0,0,0,0,0,0,0,0,0,-1,1175,778,0,0
-42,246,0,0,0,0,0,0,0,0,0,-1,1182,778,0,0
-35,246,0,0,0,0,0,0,0,0,0,-1,1189,778,0,0
-28,246,0,0,0,0,0,0,0,0,0,-1,1196,778,0,0
-21,246,0,0,0,0,0,0,0,0,0,-1,1203,778,0,0
-14,246,0,0,0,0,0,0,0,0,0,-1,1210,778,0,0
-7,246,0,0,0,0,0,0,0,0,0,-1,1217,778,0,0
0,246,0,0,0,0,0,0,0,0,0,-1,1224,778,0,0
7,246,0,0,0,0,0,0,0,0,0,-1,1231,778,0,0
14,246,0,0,0,0,0,0,0,0,0,-1,1238,778,0,0
21,246,0,0,0,0,0,0,0,0,0,-1,1245,778,0,0
28,246,0,0,0,0,0,0,0,0,0,-1,1252,778,0,0
35,246,0,0,0,0,0,0,0,0,0,-1,1259,778,0,0
42,246,0,0,0,0,0,0,0,0,0,-1,1266,778,0,0
49,246,0,0,0,0,0,0,0,0,0,-1,1273,778,0,0
56,246,0,0,0,0,0,0,0,0,0,-1,1280,778,0,0
63,246,0,0,0,0,0,0,0,0,0,-1,1287,778,0,0
70,246,0,0,0,0,0,0,0,0,0,-1,1294,778,0,0
77,246,0,0,0,0,0,0,0,0,0,-1,1301,778,0,0
84,246,0,0,0,0,0,0,0,0,0,-1,1308,778,0,0
91,246,0,0,0,0,0,0,0,0,0,-1,1315,778,0,0
98,246,0,0,0,0,0,0,0,0,0,-1,1322,778,0,0
105,246,0,0,0,0,0,0,0,0,0,-1,1329,778,0,0
112,246,0,0,0,0,0,0,0,0,0,-1,1336,778,0,0
119,246,0,0,0,0,0,0,0,0,0,-1,1343,778,0,0
126,246,0,0,0,0,0,0,0,0,0,-1,1350,778,0,0
133,246,0,0,0,0,0,0,0,0,0,-1,1357,778,0,0
140,246,0,0,0,0,0,0,0,0,0,-1,1364,778,0,0
147,246,0,0,0,0,0,0,0,0,0,-1,1371,778,0,0
154,246,0,0,0,0,0,0,0,0,0,-1,1378,778,0,0
161,246,0,0,0,0,0,0,0,0,0,-1,1385,778,0,0
168,246,0,0,0,0,0,0,0,0,0,-1,1392,778,0,0
175,246,0,0,0,0,0,0,0,0,0,-1,1399,778,0,0
182,246,0,0,0,0,0,0,0,0,0,-1,1406,778,0,0
189,246,0,0,0,0,0,0,0,0,0,-1,1413,778,0,0
196,246,0,0,0,0,0,0,0,0,0,-1,1420,778,0,0
203,246,0,0,0,0,0,0,0,0,0,-1,1427,778,0,0
210,246,0,0,0,0,0,0,0,0,0,-1,1434,778,0,0
217,246,0,0,0,0,0,0,0,0,0,-1,1441,778,0,0
224,246,0,0,0,0,0,0,0,0,0,-1,1448,778,0,0
231,246,0,0,0,0,0,0,0,0,0,-1,1455,778,0,0
238,246,0,0,0,0,0,0,0,0,0,-1,1462,778,0,0
245,246,0,0,0,0,0,0,0,0,0,-1,1469,778,0,0
252,246,0,0,0,0,0,0,0,0,0,-1,1476,778,0,0
259,246,0,0,0,0,0,0,0,0,0,-1,1483,778,0,0
266,246,0,0,0,0,0,0,0,0,0,-1,1490,778,0,0
273,246,0,0,0,0,0,0,0,0,0,-1,1497,778,0,0
280,246,0,0,0,0,0,0,0,0,0,-1,1504,778,0,0
287,246,0,0,0,0,0,0,0,0,0,-1,1511,778,0,0
294,246,0,0,0,0,0,0,0,0,0,-1,1518,778,0,0
301,246,0,0,0,0,0,0,0,0,0,-1,1525,778,0,0
308,246,0,0,0,0,0,0,0,0,0,-1,1532,778,0,0
315,246,0,0,0,0,0,0,0,0,0,-1,1539,778,0,0
322,246,0,0,0,0,0,0,0,0,0,-1,1546,778,0,0
329,246,0,0,0,0,0,0,0,0,0,-1,1553,778,0,0
336,246,0,0,0,0,0,0,0,0,0,-1,1560,778,0,0
343,246,0,0,0,0,0,0,0,0,0,-1,1567,778,0,0
350,246,0,0,0,0,0,0,0,0,0,-1,1574,778,0,0
357,246,0,0,0,0,0,0,0,0,0,-1,1581,778,0,0
364,246,0,0,0,0,0,0,0,0,0,-1,1588,778,0,0
371,246,0,0,0,0,0,0,0,0,0,-1,1595,778,0,0
378,246,0,0,0,0,0,0,0,0,0,-1,1602,778,0,0
385,246,0,0,0,0,0,0,0,0,0,-1,1609,778,0,0
392,246,0,0,0,0,0,0,0,0,0,-1,1616,778,0,0
399,246,0,0,0,0,0,0,0,0,0,-1,1623,778,0,0
406,246,0,0,0,0,0,0,0,0,0,-1,1630,778,0,0
413,246,0,0,0,0,0,0,0,0,0,-1,1637,778,0,0
420,246,0,0,0,0,0,0,0,0,0,-1,1644,778,0,0
427,246,0,0,0,0,0,0,0,0,0,-1,1651,778,0,0
434,246,0,0,0,0,0,0,0,0,0,-1,1658,778,0,0
441,246,0,0,0,0,0,0,0,0,0,-1,1665,778,0,0
448,246,0,0,0,0,0,0,0,0,0,-1,1672,778,0,0
455,246,0,0,0,0,0,0,0,0,0,-1,1679,778,0,0
462,246,0,0,0,0,0,0,0,0,0,-1,1686,778,0,0
469,246,0,0,0,0,0,0,0,0,0,-1,1693,778,0,0
476,246,0,0,0,0,0,0,0,0,0,-1,1700,778,0,0
483,246,0,0,0,0,0,0,0,0,0,-1,1707,778,0,0
490,246,0,0,0,0,0,0,0,0,0,-1,1714,778,0,0
497,246,0,0,0,0,0,0,0,0,0,-1,1721,778,0,0
504,246,0,0,0,0,0,0,0,0,0,-1,1728,778,0,0
511,246,0,0,0,0,0,0,0,0,0,-1,1735,778,0,0
518,246,0,0,0,0,0,0,0,0,0,-1,1742,778,0,0
525,246,0,0,0,0,0,0,0,0,0,-1,1749,778,0,0
532,246,0,0,0,0,0,0,0,0,0,-1,1756,778,0,0
539,246,0,0,0,0,0,0,0,0,0,-1,1763,778,0,0
546,246,0,0,0,0,0,0,0,0,0,-1,1770,778,0,0
553,246,0,0,0,0,0,0,0,0,0,-1,1777,778,0,0
560,246,0,0,0,0,0,0,0,0,0,-1,1784,778,0,0
567,246,0,0,0,0,0,0,0,0,0,-1,1791,778,0,0
574,246,0,0,0,0,0,0,0,0,0,-1,1798,778,0,0
581,246,31.0427,2.94873,-0.0132604,0.0210951,0.0059022,0.0220808,-0.0142461,1.40532,0.0211353,0.0396302,1805,778,31.0427,-2.94871
588,246,30.9657,3.0611,-0.00486116,0.0197835,0.00772028,0.0220023,-0.00707989,1.29095,0.0175119,0.0405394,1812,778,30.9657,-3.06112
595,246,31.1891,3.1394,-0.000373251,0.0167984,0.00871589,0.020447,-0.00402194,1.17434,0.015151,0.0385452,1819,778,31.1891,-3.13941
602,246,31.278,3.28082,0.00200721,0.0128609,0.00900438,0.0179473,-0.00307925,1.0566,0.0131124,0.0425206,1826,778,31.278,-3.28081
609,246,31.2356,3.42096,0,0,0,0,0,0,0,-1,1833,778,31.2355,-3.42098
616,246,31.244,3.60944,0,0,0,0,0,0,0,-1,1840,778,31.2441,-3.60941
623,246,32.9962,1.5257,0,0,0,0,0,0,0,-1,1847,778,32.9962,-1.5257
630,246,32.7887,1.67633,0,0,0,0,0,0,0,-1,1854,778,32.7887,-1.67634
637,246,28.2345,2.4433,0,0,0,0,0,0,0,-1,1861,778,28.2345,-2.4433
644,246,21.7059,0.107605,0,0,0,0,0,0,0,-1,1868,778,21.706,-0.107582
651,246,21.7678,0.459106,0.000657295,-0.00442185,0.00330866,0.00228865,-0.00605321,0.458078,0.00497697,0.0382681,1875,778,21.7679,-0.459128
658,246,21.8207,0.827209,-0.00019194,-0.00432462,0.00214604,0.000720853,-0.00523741,0.402158,0.00375503,0.0226333,1882,778,21.8207,-0.827218
665,246,21.7687,1.17279,-0.000637999,-0.00366777,0.000953566,-0.000362866,-0.0039429,0.280901,0.00251638,0.0216132,1889,778,21.7687,-1.1728
672,246,21.767,1.56842,-8.83357e-05,-0.00256018,0.00049112,5.6678e-06,-0.00265419,0.189119,0.00177135,0.0207596,1896,778,21.767,-1.56841
679,246,21.7893,1.8866,0.00042866,-0.00125548,-8.69816e-05,0.000433141,-0.00125996,-0.0514649,0.00101562,0.0210332,1903,778,21.7894,-1.88659
686,246,21.7909,2.25629,0.00151139,-0.000116613,9.84752e-05,0.00151733,-0.000122548,0.0601958,0.00105478,0.0221452,1910,778,21.7909,-2.25628
693,246,21.7804,2.63324,0.0030995,0.000522776,0.000933941,0.00340241,0.000219873,0.313623,0.00219865,0.0178626,1917,778,21.7804,-2.63326
700,246,21.7849,2.97363,0.00499964,0.00155342,0.00220522,0.00607512,0.000477943,0.453757,0.00390054,0.0139338,1924,778,21.7849,-2.97361
707,246,21.7858,3.34351,0.00730932,0.00290501,0.00390263,0.00958823,0.00062609,0.52853,0.00619401,0.0122204,1931,778,21.7858,-3.34353
714,246,21.7512,3.7041,0.0101019,0.00451367,0.00616738,0.0140786,0.00053699,0.572705,0.00921195,0.0119753,1938,778,21.7512,-3.70412
721,246,21.7493,4.01508,0.0133395,0.00746287,0.00950251,0.0203476,0.000454768,0.635453,0.0134161,0.0194131,1945,778,21.7492,-4.01508
728,246,21.8527,4.63226,0.0174899,0.0112824,0.0141435,0.0288662,-9.38848e-05,0.677387,0.0192755,0.0405583,1952,778,21.8526,-4.63224
735,246,22.2512,5.65015,0,0,0,0,0,0,0,-1,1959,778,22.2513,-5.65017
742,246,22.5897,6.62946,0,0,0,0,0,0,0,-1,1966,778,22.5897,-6.62947
749,246,22.8805,7.60242,0,0,0,0,0,0,0,-1,1973,778,22.8805,-7.60241
756,246,24.1831,4.71265,0,0,0,0,0,0,0,-1,1980,778,24.183,-4.71265
763,246,0,0,0,0,0,0,0,0,0,-1,1987,778,0,0
770,246,0,0,0,0,0,0,0,0,0,-1,1994,778,0,0
777,246,0,0,0,0,0,0,0,0,0,-1,2001,778,0,0
784,246,0,0,0,0,0,0,0,0,0,-1,2008,778,0,0
791,246,0,0,0,0,0,0,0,0,0,-1,2015,778,0,0
798,246,0,0,0,0,0,0,0,0,0,-1,2022,778,0,0
805,246,0,0,0,0,0,0,0,0,0,-1,2029,778,0,0
812,246,0,0,0,0,0,0,0,0,0,-1,2036,778,0,0
-700,239,0,0,0,0,0,0,0,0,0,-1,524,785,0,0
-693,239,0,0,0,0,0,0,0,0,0,-1,531,785,0,0
-686,239,0,0,0,0,0,0,0,0,0,-1,538,785,0,0
-679,239,0,0,0,0,0,0,0,0,0,-1,545,785,0,0
-672,239,0,0,0,0,0,0,0,0,0,-1,552,785,0,0
-665,239,0,0,0,0,0,0,0,0,0,-1,559,785,0,0
-658,239,0,0,0,0,0,0,0,0,0,-1,566,785,0,0
-651,239,0,0,0,0,0,0,0,0,0,-1,573,785,0,0
-644,239,0,0,0,0,0,0,0,0,0,-1,580,785,0,0
-637,239,-17.4567,-2.66394,-0.0634096,0.00111878,0.0919005,0.0662542,-0.128545,0.954215,0.114368,0.0477159,587,785,-17.4566,2.66396
-630,239,-17.8251,-1.52069,0,0,0,0,0,0,0,-1,594,785,-17.8251,1.52068
-623,239,-18.2469,-0.393677,-0.043154,0.00884432,0.0594079,0.0476931,-0.0820028,0.991661,0.0757483,0.0440199,601,785,-18.2469,0.393684
-616,239,-18.7747,0.535889,-0.0344063,0.00996592,0.0465509,0.0393474,-0.0637877,1.00777,0.0600998,0.047084,608,785,-18.7747,-0.535898
-609,239,-19.2715,1.50604,0,0,0,0,0,0,0,-1,615,785,-19.2715,-1.50606
-602,239,-13.8547,2.31989,0,0,0,0,0,0,0,-1,622,785,-13.8547,-2.31986
-595,239,-14.0748,1.93231,0,0,0,0,0,0,0,-1,629,785,-14.0748,-1.93231
-588,239,-14.1497,1.60327,-0.00738571,0.00545193,0.0136191,0.014089,-0.0160228,1.00562,0.017397,0.0185641,636,785,-14.1496,-1.60329
-581,239,-14.2255,1.24323,-0.00462385,0.00372107,0.00758767,0.00820783,-0.00911061,1.03678,0.0100033,0.011039,643,785,-14.2255,-1.24322
-574,239,-14.2167,0.897888,-0.00263178,0.00197051,0.00511154,0.00527499,-0.00593627,0.996902,0.00647658,0.0123029,650,785,-14.2167,-0.897877
-567,239,-14.2282,0.545593,-0.00127859,0.000687259,0.00281512,0.00268612,-0.00327745,0.953361,0.00344871,0.0157686,657,785,-14.2282,-0.545603
-560,239,-14.2485,0.240723,-0.0011328,-0.000457753,0.0017121,0.000949775,-0.00254033,0.88272,0.0020836,0.0157658,664,785,-14.2485,-0.240721
-553,239,-14.2346,-0.0683594,-0.0016493,-0.00167139,0.00198515,0.000324836,-0.00364552,0.782617,0.00254555,0.0140398,671,785,-14.2346,0.0683812
-546,239,-14.2518,-0.39978,-0.00235616,-0.00272808,0.00221635,-0.000317982,-0.00476626,0.743544,0.00307699,0.0151059,678,785,-14.2518,0.399793
-539,239,-14.2452,-0.760925,-0.00334479,-0.00352799,0.00251219,-0.000922526,-0.00595025,0.767175,0.00369788,0.0159019,685,785,-14.2452,0.760911
-532,239,-14.2281,-1.0979,-0.00366968,-0.00302252,0.00246655,-0.000858415,-0.00583378,0.850619,0.00363698,0.0133917,692,785,-14.2281,1.09791
-525,239,-14.2787,-1.39569,-0.00334625,-0.00194508,0.00229691,-0.000244287,-0.00504704,0.933423,0.00328629,0.0179246,699,785,-14.2787,1.3957
-518,239,-14.4105,-1.5498,-0.00313141,-0.00109877,0.00207727,0.000197474,-0.00442765,1.01291,0.00301975,0.0440509,706,785,-14.4105,1.54981
-511,239,-14.774,-1.66559,-0.00261241,0.000442806,0.00168607,0.00119038,-0.00335998,1.15346,0.00272487,0.043996,713,785,-14.774,1.66559
-504,239,-15.0237,-1.77405,0,0,0,0,0,0,0,-1,720,785,-15.0237,1.77408
-497,239,-15.2358,0.0182495,0,0,0,0,0,0,0,-1,727,785,-15.2358,-0.0182365
-490,239,-22.1394,1.42017,0,0,0,0,0,0,0,-1,734,785,-22.1394,-1.42018
-483,239,-22.3184,1.48022,0.00645813,0.0148499,-0.00283662,0.0157188,0.00558925,-1.27356,0.00920057,0.0437687,741,785,-22.3184,-1.48022
-476,239,-22.0818,1.448,0.0113689,0.0207314,-0.00480618,0.0227594,0.00934098,-1.17151,0.0132102,0.0419401,748,785,-22.0818,-1.44803
-469,239,-22.17,1.26611,0.0166262,0.0264017,-0.00686422,0.0299405,0.0130873,-1.09479,0.0173317,0.0447938,755,785,-22.1701,-1.26612
-462,239,-22.1863,1.27405,0,0,0,0,0,0,0,-1,762,785,-22.1863,-1.27407
-455,239,0,0,0,0,0,0,0,0,0,-1,769,785,0,0
-448,239,0,0,0,0,0,0,0,0,0,-1,776,785,0,0
-441,239,0,0,0,0,0,0,0,0,0,-1,783,785,0,0
-434,239,0,0,0,0,0,0,0,0,0,-1,790,785,0,0
-427,239,0,0,0,0,0,0,0,0,0,-1,797,785,0,0
-420,239,0,0,0,0,0,0,0,0,0,-1,804,785,0,0
-413,239,0,0,0,0,0,0,0,0,0,-1,811,785,0,0
-406,239,0,0,0,0,0,0,0,0,0,-1,818,785,0,0
-399,239,0,0,0,0,0,0,0,0,0,-1,825,785,0,0
-392,239,0,0,0,0,0,0,0,0,0,-1,832,785,0,0
-385,239,0,0,0,0,0,0,0,0,0,-1,839,785,0,0
-378,239,0,0,0,0,0,0,0,0,0,-1,846,785,0,0
-371,239,0,0,0,0,0,0,0,0,0,-1,853,785,0,0
-364,239,0,0,0,0,0,0,0,0,0,-1,860,785,0,0
-357,239,0,0,0,0,0,0,0,0,0,-1,867,785,0,0
-350,239,0,0,0,0,0,0,0,0,0,-1,874,785,0,0
-343,239,0,0,0,0,0,0,0,0,0,-1,881,785,0,0
-336,239,0,0,0,0,0,0,0,0,0,-1,888,785,0,0
-329,239,0,0,0,0,0,0,0,0,0,-1,895,785,0,0
-322,239,0,0,0,0,0,0,0,0,0,-1,902,785,0,0
-315,239,0,0,0,0,0,0,0,0,0,-1,909,785,0,0
-308,239,0,0,0,0,0,0,0,0,0,-1,916,785,0,0
-301,239,0,0,0,0,0,0,0,0,0,-1,923,785,0,0
-294,239,0,0,0,0,0,0,0,0,0,-1,930,785,0,0
-287,239,0,0,0,0,0,0,0,0,0,-1,937,785,0,0
-280,239,0,0,0,0,0,0,0,0,0,-1,944,785,0,0
-273,239,0,0,0,0,0,0,0,0,0,-1,951,785,0,0
-266,239,0,0,0,0,0,0,0,0,0,-1,958,785,0,0
-259,239,0,0,0,0,0,0,0,0,0,-1,965,785,0,0
-252,239,0,0,0,0,0,0,0,0,0,-1,972,785,0,0
-245,239,0,0,0,0,0,0,0,0,0,-1,979,785,0,0
-238,239,0,0,0,0,0,0,0,0,0,-1,986,785,0,0
-231,239,0,0,0,0,0,0,0,0,0,-1,993,785,0,0
-224,239,0,0,0,0,0,0,0,0,0,-1,1000,785,0,0
-217,239,0,0,0,0,0,0,0,0,0,-1,1007,785,0,0
-210,239,0,0,0,0,0,0,0,0,0,-1,1014,785,0,0
-203,239,0,0,0,0,0,0,0,0,0,-1,1021,785,0,0
-196,239,0,0,0,0,0,0,0,0,0,-1,1028,785,0,0
-189,239,0,0,0,0,0,0,0,0,0,-1,1035,785,0,0
-182,239,0,0,0,0,0,0,0,0,0,-1,1042,785,0,0
-175,239,0,0,0,0,0,0,0,0,0,-1,1049,785,0,0
-168,239,0,0,0,0,0,0,0,0,0,-1,1056,785,0,0
-161,239,0,0,0,0,0,0,0,0,0,-1,1063,785,0,0
-154,239,0,0,0,0,0,0,0,0,0,-1,1070,785,0,0
-147,239,0,0,0,0,0,0,0,0,0,-1,1077,785,0,0
-140,239,0,0,0,0,0,0,0,0,0,-1,1084,785,0,0
-133,239,0,0,0,0,0,0,0,0,0,-1,1091,785,0,0
-126,239,0,0,0,0,0,0,0,0,0,-1,1098,785,0,0
-119,239,0,0,0,0,0,0,0,0,0,-1,1105,785,0,0
-112,239,0,0,0,0,0,0,0,0,0,-1,1112,785,0,0
-105,239,0,0,0,0,0,0,0,0,0,-1,1119,785,0,0
-98,239,0,0,0,0,0,0,0,0,0,-1,1126,785,0,0
-91,239,0,0,0,0,0,0,0,0,0,-1,1133,785,0,0
-84,239,0,0,0,0,0,0,0,0,0,-1,1140,785,0,0
-77,239,0,0,0,0,0,0,0,0,0,-1,1147,785,0,0
-70,239,0,0,0,0,0,0,0,0,0,-1,1154,785,0,0
-63,239,0,0,0,0,0,0,0,0,0,-1,1161,785,0,0
-56,239,0,0,0,0,0,0,0,0,0,-1,1168,785,0,0
-49,239,0,0,0,0,0,0,0,0,0,-1,1175,785,0,0
-42,239,0,0,0,0,0,0,0,0,0,-1,1182,785,0,0
-35,239,0,0,0,0,0,0,0,0,0,-1,1189,785,0,0
-28,239,0,0,0,0,0,0,0,0,0,-1,1196,785,0,0
-21,239,0,0,0,0,0,0,0,0,0,-1,1203,785,0,0
-14,239,0,0,0,0,0,0,0,0,0,-1,1210,785,0,0
-7,239,0,0,0,0,0,0,0,0,0,-1,1217,785,0,0
0,239,0,0,0,0,0,0,0,0,0,-1,1224,785,0,0
7,239,0,0,0,0,0,0,0,0,0,-1,1231,785,0,0
14,239,0,0,0,0,0,0,0,0,0,-1,1238,785,0,0
21,239,0,0,0,0,0,0,0,0,0,-1,1245,785,0,0
28,239,0,0,0,0,0,0,0,0,0,-1,1252,785,0,0
35,239,0,0,0,0,0,0,0,0,0,-1,1259,785,0,0
42,239,0,0,0,0,0,0,0,0,0,-1,1266,785,0,0
49,239,0,0,0,0,0,0,0,0,0,-1,1273,785,0,0
56,239,0,0,0,0,0,0,0,0,0,-1,1280,785,0,0
63,239,0,0,0,0,0,0,0,0,0,-1,1287,785,0,0
70,239,0,0,0,0,0,0,0,0,0,-1,1294,785,0,0
77,239,0,0,0,0,0,0,0,0,0,-1,1301,785,0,0
84,239,0,0,0,0,0,0,0,0,0,-1,1308,785,0,0
91,239,0,0,0,0,0,0,0,0,0,-1,1315,785,0,0
98,239,0,0,0,0,0,0,0,0,0,-1,1322,785,0,0
105,239,0,0,0,0,0,0,0,0,0,-1,1329,785,0,0
112,239,0,0,0,0,0,0,0,0,0,-1,1336,785,0,0
119,239,0,0,0,0,0,0,0,0,0,-1,1343,785,0,0
126,239,0,0,0,0,0,0,0,0,0,-1,1350,785,0,0
133,239,0,0,0,0,0,0,0,0,0,-1,1357,785,0,0
140,239,0,0,0,0,0,0,0,0,0,-1,1364,785,0,0
147,239,0,0,0,0,0,0,0,0,0,-1,1371,785,0,0
154,239,0,0,0,0,0,0,0,0,0,-1,1378,785,0,0
161,239,0,0,0,0,0,0,0,0,0,-1,1385,785,0,0
168,239,0,0,0,0,0,0,0,0,0,-1,1392,785,0,0
175,239,0,0,0,0,0,0,0,0,0,-1,1399,785,0,0
182,239,0,0,0,0,0,0,0,0,0,-1,1406,785,0,0
189,239,0,0,0,0,0,0,0,0,0,-1,1413,785,0,0
196,239,0,0,0,0,0,0,0,0,0,-1,1420,785,0,0
203,239,0,0,0,0,0,0,0,0,0,-1,1427,785,0,0
210,239,0,0,0,0,0,0,0,0,0,-1,1434,785,0,0
217,239,0,0,0,0,0,0,0,0,0,-1,1441,785,0,0
224,239,0,0,0,0,0,0,0,0,0,-1,1448,785,0,0
231,239,0,0,0,0,0,0,0,0,0,-1,1455,785,0,0
238,239,0,0,0,0,0,0,0,0,0,-1,1462,785,0,0
245,239,0,0,0,0,0,0,0,0,0,-1,1469,785,0,0
252,239,0,0,0,0,0,0,0,0,0,-1,1476,785,0,0
259,239,0,0,0,0,0,0,0,0,0,-1,1483,785,0,0
266,239,0,0,0,0,0,0,0,0,0,-1,1490,785,0,0
273,239,0,0,0,0,0,0,0,0,0,-1,1497,785,0,0
280,239,0,0,0,0,0,0,0,0,0,-1,1504,785,0,0
287,239,0,0,0,0,0,0,0,0,0,-1,1511,785,0,0
294,239,0,0,0,0,0,0,0,0,0,-1,1518,785,0,0
301,239,0,0,0,0,0,0,0,0,0,-1,1525,785,0,0
308,239,0,0,0,0,0,0,0,0,0,-1,1532,785,0,0
315,239,0,0,0,0,0,0,0,0,0,-1,1539,785,0,0
322,239,0,0,0,0,0,0,0,0,0,-1,1546,785,0,0
329,239,0,0,0,0,0,0,0,0,0,-1,1553,785,0,0
336,239,0,0,0,0,0,0,0,0,0,-1,1560,785,0,0
343,239,0,0,0,0,0,0,0,0,0,-1,1567,785,0,0
350,239,0,0,0,0,0,0,0,0,0,-1,1574,785,0,0
357,239,0,0,0,0,0,0,0,0,0,-1,1581,785,0,0
364,239,0,0,0,0,0,0,0,0,0,-1,1588,785,0,0
371,239,0,0,0,0,0,0,0,0,0,-1,1595,785,0,0
378,239,0,0,0,0,0,0,0,0,0,-1,1602,785,0,0
385,239,0,0,0,0,0,0,0,0,0,-1,1609,785,0,0
392,239,0,0,0,0,0,0,0,0,0,-1,1616,785,0,0
399,239,0,0,0,0,0,0,0,0,0,-1,1623,785,0,0
406,239,0,0,0,0,0,0,0,0,0,-1,1630,785,0,0
413,239,0,0,0,0,0,0,0,0,0,-1,1637,785,0,0
420,239,0,0,0,0,0,0,0,0,0,-1,1644,785,0,0
427,239,0,0,0,0,0,0,0,0,0,-1,1651,785,0,0
434,239,0,0,0,0,0,0,0,0,0,-1,1658,785,0,0
441,239,0,0,0,0,0,0,0,0,0,-1,1665,785,0,0
448,239,0,0,0,0,0,0,0,0,0,-1,1672,785,0,0
455,239,0,0,0,0,0,0,0,0,0,-1,1679,785,0,0
462,239,0,0,0,0,0,0,0,0,0,-1,1686,785,0,0
469,239,0,0,0,0,0,0,0,0,0,-1,1693,785,0,0
476,239,0,0,0,0,0,0,0,0,0,-1,1700,785,0,0
483,239,0,0,0,0,0,0,0,0,0,-1,1707,785,0,0
490,239,0,0,0,0,0,0,0,0,0,-1,1714,785,0,0
497,239,0,0,0,0,0,0,0,0,0,-1,1721,785,0,0
504,239,0,0,0,0,0,0,0,0,0,-1,1728,785,0,0
511,239,0,0,0,0,0,0,0,0,0,-1,1735,785,0,0
518,239,0,0,0,0,0,0,0,0,0,-1,1742,785,0,0
525,239,0,0,0,0,0,0,0,0,0,-1,1749,785,0,0
532,239,0,0,0,0,0,0,0,0,0,-1,1756,785,0,0
539,239,0,0,0,0,0,0,0,0,0,-1,1763,785,0,0
546,239,0,0,0,0,0,0,0,0,0,-1,1770,785,0,0
553,239,0,0,0,0,0,0,0,0,0,-1,1777,785,0,0
560,239,0,0,0,0,0,0,0,0,0,-1,1784,785,0,0
567,239,0,0,0,0,0,0,0,0,0,-1,1791,785,0,0
574,239,0,0,0,0,0,0,0,0,0,-1,1798,785,0,0
581,239,30.9843,3.16779,-0.00897038,0.0162229,0.00177473,0.0163473,-0.00909478,1.50081,0.0148866,0.0378636,1805,785,30.9842,-3.16778
588,239,30.9059,3.18488,-0.00166906,0.0146549,0.00498279,0.0160556,-0.00306983,1.29675,0.0118602,0.0373066,1812,785,30.9059,-3.18486
595,239,30.951,3.12585,0.00204714,0.0121701,0.00714367,0.0158636,-0.00164642,1.09361,0.0111651,0.0340147,1819,785,30.951,-3.12585
602,239,31.1433,3.0918,0.00379271,0.00892645,0.00826961,0.0150184,-0.00229925,0.935883,0.0108601,0.0387063,1826,785,31.1434,-3.0918
609,239,31.441,2.98889,0,0,0,0,0,0,0,-1,1833,785,31.441,-2.98888
616,239,32.6638,1.83276,0,0,0,0,0,0,0,-1,1840,785,32.6638,-1.83275
623,239,32.6045,2.06873,0.00358937,0.000389345,0.0071586,0.00932459,-0.00534587,0.675451,0.0085732,0.043681,1847,785,32.6044,-2.06872
630,239,32.5514,2.27167,0.00282727,-0.00135648,0.00623608,0.00731298,-0.00584219,0.623572,0.00761094,0.0423661,1854,785,32.5514,-2.27165
637,239,32.5493,2.44696,0,0,0,0,0,0,0,-1,1861,785,32.5493,-2.44699
644,239,18.3466,0.735413,0,0,0,0,0,0,0,-1,1868,785,18.3465,-0.735414
651,239,22.0662,0.506042,0,0,0,0,0,0,0,-1,1875,785,22.0662,-0.506061
658,239,22.1437,0.872742,-0.000246581,-0.00451267,0.00230691,0.0007623,-0.00552155,0.412268,0.00395967,0.0244651,1882,785,22.1437,-0.87273
665,239,22.1716,1.22137,-0.000744272,-0.00392581,0.00107652,-0.000414249,-0.00425584,0.297468,0.00270972,0.0141351,1889,785,22.1716,-1.2214
672,239,22.1553,1.58917,-0.000419099,-0.00293163,0.000469022,-0.000334401,-0.00301633,0.17866,0.00190921,0.0201373,1896,785,22.1553,-1.58918
679,239,22.156,1.91644,-0.000184999,-0.00164843,-0.000314939,-0.0001201,-0.00171333,-0.203223,0.00110437,0.021394,1903,785,22.156,-1.91642
686,239,22.1802,2.28223,0.00054518,-0.000528815,-0.000375424,0.000663399,-0.000647035,-0.305066,0.000756599,0.0224188,1910,785,22.1802,-2.2822
693,239,22.1462,2.64331,0.00184375,4.32127e-05,0.00031481,0.00189721,-1.02422e-05,0.168196,0.00126823,0.0152228,1917,785,22.1462,-2.64329
700,239,22.1465,2.98029,0.0034646,0.00116574,0.0015076,0.00421096,0.000419371,0.459696,0.00267849,0.0112684,1924,785,22.1465,-2.98027
707,239,22.1469,3.34216,0.00544431,0.00273498,0.00314471,0.00751372,0.00066557,0.582021,0.00480269,0.0102195,1931,785,22.1468,-3.34219
714,239,22.1427,3.68988,0.00783661,0.00488292,0.00545385,0.01201,0.000709497,0.653174,0.00778098,0.00973974,1938,785,22.1427,-3.68987
721,239,22.111,4.03198,0.0105622,0.00916987,0.00894195,0.0188351,0.000897051,0.746548,0.0122686,0.0235616,1945,785,22.1109,-4.03201
728,239,22.0283,4.46692,0.0140149,0.015223,0.0135413,0.0281737,0.00106422,0.807687,0.018438,0.0413253,1952,785,22.0284,-4.46693
735,239,22.1216,5.05182,0,0,0,0,0,0,0,-1,1959,785,22.1216,-5.0518
742,239,22.6708,6.69342,0,0,0,0,0,0,0,-1,1966,785,22.6708,-6.69341
749,239,24.4656,5.17188,0,0,0,0,0,0,0,-1,1973,785,24.4656,-5.17185
756,239,25.1377,5.07397,0,0,0,0,0,0,0,-1,1980,785,25.1377,-5.074
763,239,0,0,0,0,0,0,0,0,0,-1,1987,785,0,0
770,239,0,0,0,0,0,0,0,0,0,-1,1994,785,0,0
777,239,0,0,0,0,0,0,0,0,0,-1,2001,785,0,0
784,239,0,0,0,0,0,0,0,0,0,-1,2008,785,0,0
791,239,0,0,0,0,0,0,0,0,0,-1,2015,785,0,0
798,239,0,0,0,0,0,0,0,0,0,-1,2022,785,0,0
805,239,0,0,0,0,0,0,0,0,0,-1,2029,785,0,0
812,239,0,0,0,0,0,0,0,0,0,-1,2036,785,0,0
-700,232,0,0,0,0,0,0,0,0,0,-1,524,792,0,0
-693,232,0,0,0,0,0,0,0,0,0,-1,531,792,0,0
-686,232,0,0,0,0,0,0,0,0,0,-1,538,792,0,0
-679,232,0,0,0,0,0,0,0,0,0,-1,545,792,0,0
-672,232,0,0,0,0,0,0,0,0,0,-1,552,792,0,0
-665,232,0,0,0,0,0,0,0,0,0,-1,559,792,0,0
-658,232,0,0,0,0,0,0,0,0,0,-1,566,792,0,0
-651,232,0,0,0,0,0,0,0,0,0,-1,573,792,0,0
-644,232,-18.1873,-2.85553,-0.0715754,0.00166586,0.0713054,0.0452046,-0.115114,1.02262,0.0954485,0.0465808,580,792,-18.1873,2.85552
-637,232,-18.3447,-2.45959,-0.0598607,0.00740755,0.0644166,0.0464422,-0.0988954,1.026,0.0857129,0.0446461,587,792,-18.3447,2.45956
-630,232,-18.7114,-1.83124,0,0,0,0,0,0,0,-1,594,792,-18.7114,1.83126
-623,232,-19.168,-0.420776,-0.0395274,0.0129512,0.0444126,0.0382966,-0.0648728,1.05221,0.06022,0.0449917,601,792,-19.168,0.420788
-616,232,-19.7057,0.498169,-0.0310288,0.0131562,0.0352971,0.0327046,-0.0505772,1.06502,0.0484504,0.0449972,608,792,-19.7057,-0.498168
-609,232,-20.2483,1.4389,0,0,0,0,0,0,0,-1,615,792,-20.2483,-1.43887
-602,232,-14.59,2.48212,0,0,0,0,0,0,0,-1,622,792,-14.59,-2.48212
-595,232,-14.5419,2.05066,-0.010732,0.00864213,0.0153024,0.0170659,-0.0191558,1.06758,0.0209242,0.0338788,629,792,-14.5419,-2.05064
-588,232,-14.5336,1.61139,-0.00669826,0.00591879,0.01088,0.0121869,-0.0129664,1.04813,0.0145246,0.0126771,636,792,-14.5336,-1.61141
-581,232,-14.5488,1.24731,-0.00438433,0.00355027,0.00609669,0.00685683,-0.0076909,1.07384,0.00840374,0.00877295,643,792,-14.5488,-1.24729
-574,232,-14.5612,0.922363,-0.00251191,0.00155475,0.00426448,0.00424585,-0.005203,1.00786,0.00546462,0.0088551,650,792,-14.5612,-0.92236
-567,232,-14.5787,0.602539,-0.00130035,0.000214343,0.00241686,0.00198974,-0.00307575,0.937232,0.00294688,0.0104331,657,792,-14.5787,-0.602557
-560,232,-14.5901,0.275574,-0.00122355,-0.000925653,0.00152583,0.000458481,-0.00260769,0.834054,0.00190972,0.0136482,664,792,-14.5902,-0.275594
-553,232,-14.605,-0.0570068,-0.00173125,-0.00210419,0.00183789,-7.04012e-05,-0.00376504,0.734842,0.00248689,0.013939,671,792,-14.605,0.057035
-546,232,-14.6362,-0.386841,-0.00247183,-0.00310712,0.00202804,-0.00073671,-0.00484224,0.707715,0.00301276,0.021737,678,792,-14.6362,0.386834
-539,232,-14.6249,-0.746887,-0.00344794,-0.00378574,0.00229859,-0.00131206,-0.00592162,0.748725,0.0035912,0.0261783,685,792,-14.6249,0.746876
-532,232,-14.5941,-1.07178,-0.00375752,-0.00321983,0.0022337,-0.00123886,-0.00573849,0.845289,0.00348685,0.0192672,692,792,-14.5941,1.07179
-525,232,-14.7318,-1.35022,-0.00346226,-0.00218145,0.0020639,-0.000660879,-0.00498283,0.935833,0.00312497,0.0348885,699,792,-14.7318,1.35019
-518,232,-14.8085,-1.37598,0,0,0,0,0,0,0,-1,706,792,-14.8084,1.376
-511,232,-15.2032,-1.5257,0,0,0,0,0,0,0,-1,713,792,-15.2032,1.52568
-504,232,-22.2175,2.01019,0,0,0,0,0,0,0,-1,720,792,-22.2176,-2.01018
-497,232,-21.9429,1.46295,0,0,0,0,0,0,0,-1,727,792,-21.9429,-1.46297
-490,232,-22.0353,1.39166,0.00177801,0.00851,-0.00101575,0.00865992,0.00162808,-1.42426,0.00531437,0.0462258,734,792,-22.0353,-1.39165
-483,232,-22.2177,1.24719,0.00508838,0.0129067,-0.00256568,0.0136735,0.00432162,-1.28039,0.0080705,0.0429755,741,792,-22.2176,-1.24717
-476,232,-22.1585,1.22949,0.00932828,0.0177666,-0.00434992,0.0196074,0.00748749,-1.17047,0.0114252,0.0359272,748,792,-22.1585,-1.22952
-469,232,-22.0939,1.32422,0.0137544,0.0220173,-0.00634846,0.0254603,0.0103115,-1.07386,0.0147877,0.0359998,755,792,-22.0939,-1.32424
-462,232,0,0,0,0,0,0,0,0,0,-1,762,792,0,0
-455,232,0,0,0,0,0,0,0,0,0,-1,769,792,0,0
-448,232,0,0,0,0,0,0,0,0,0,-1,776,792,0,0
-441,232,0,0,0,0,0,0,0,0,0,-1,783,792,0,0
-434,232,0,0,0,0,0,0,0,0,0,-1,790,792,0,0
-427,232,0,0,0,0,0,0,0,0,0,-1,797,792,0,0
-420,232,0,0,0,0,0,0,0,0,0,-1,804,792,0,0
-413,232,0,0,0,0,0,0,0,0,0,-1,811,792,0,0
-406,232,0,0,0,0,0,0,0,0,0,-1,818,792,0,0
-399,232,0,0,0,0,0,0,0,0,0,-1,825,792,0,0
-392,232,0,0,0,0,0,0,0,0,0,-1,832,792,0,0
-385,232,0,0,0,0,0,0,0,0,0,-1,839,792,0,0
-378,232,0,0,0,0,0,0,0,0,0,-1,846,792,0,0
-371,232,0,0,0,0,0,0,0,0,0,-1,853,792,0,0
-364,232,0,0,0,0,0,0,0,0,0,-1,860,792,0,0
-357,232,0,0,0,0,0,0,0,0,0,-1,867,792,0,0
-350,232,0,0,0,0,0,0,0,0,0,-1,874,792,0,0
-343,232,0,0,0,0,0,0,0,0,0,-1,881,792,0,0
-336,232,0,0,0,0,0,0,0,0,0,-1,888,792,0,0
-329,232,0,0,0,0,0,0,0,0,0,-1,895,792,0,0
-322,232,0,0,0,0,0,0,0,0,0,-1,902,792,0,0
-315,232,0,0,0,0,0,0,0,0,0,-1,909,792,0,0
-308,232,0,0,0,0,0,0,0,0,0,-1,916,792,0,0
-301,232,0,0,0,0,0,0,0,0,0,-1,923,792,0,0
-294,232,0,0,0,0,0,0,0,0,0,-1,930,792,0,0
-287,232,0,0,0,0,0,0,0,0,0,-1,937,792,0,0
-280,232,0,0,0,0,0,0,0,0,0,-1,944,792,0,0
-273,232,0,0,0,0,0,0,0,0,0,-1,951,792,0,0
-266,232,0,0,0,0,0,0,0,0,0,-1,958,792,0,0
-259,232,0,0,0,0,0,0,0,0,0,-1,965,792,0,0
-252,232,0,0,0,0,0,0,0,0,0,-1,972,792,0,0
-245,232,0,0,0,0,0,0,0,0,0,-1,979,792,0,0
-238,232,0,0,0,0,0,0,0,0,0,-1,986,792,0,0
-231,232,0,0,0,0,0,0,0,0,0,-1,993,792,0,0
-224,232,0,0,0,0,0,0,0,0,0,-1,1000,792,0,0
-217,232,0,0,0,0,0,0,0,0,0,-1,1007,792,0,0
-210,232,0,0,0,0,0,0,0,0,0,-1,1014,792,0,0
-203,232,0,0,0,0,0,0,0,0,0,-1,1021,792,0,0
-196,232,0,0,0,0,0,0,0,0,0,-1,1028,792,0,0
-189,232,0,0,0,0,0,0,0,0,0,-1,1035,792,0,0
-182,232,0,0,0,0,0,0,0,0,0,-1,1042,792,0,0
-175,232,0,0,0,0,0,0,0,0,0,-1,1049,792,0,0
-168,232,0,0,0,0,0,0,0,0,0,-1,1056,792,0,0
-161,232,0,0,0,0,0,0,0,0,0,-1,1063,792,0,0
-154,232,0,0,0,0,0,0,0,0,0,-1,1070,792,0,0
-147,232,0,0,0,0,0,0,0,0,0,-1,1077,792,0,0
-140,232,0,0,0,0,0,0,0,0,0,-1,1084,792,0,0
-133,232,0,0,0,0,0,0,0,0,0,-1,1091,792,0,0
-126,232,0,0,0,0,0,0,0,0,0,-1,1098,792,0,0
-119,232,0,0,0,0,0,0,0,0,0,-1,1105,792,0,0
-112,232,0,0,0,0,0,0,0,0,0,-1,1112,792,0,0
-105,232,0,0,0,0,0,0,0,0,0,-1,1119,792,0,0
-98,232,0,0,0,0,0,0,0,0,0,-1,1126,792,0,0
-91,232,0,0,0,0,0,0,0,0,0,-1,1133,792,0,0
-84,232,0,0,0,0,0,0,0,0,0,-1,1140,792,0,0
-77,232,0,0,0,0,0,0,0,0,0,-1,1147,792,0,0
-70,232,0,0,0,0,0,0,0,0,0,-1,1154,792,0,0
-63,232,0,0,0,0,0,0,0,0,0,-1,1161,792,0,0
-56,232,0,0,0,0,0,0,0,0,0,-1,1168,792,0,0
-49,232,0,0,0,0,0,0,0,0,0,-1,1175,792,0,0
-42,232,0,0,0,0,0,0,0,0,0,-1,1182,792,0,0
-35,232,0,0,0,0,0,0,0,0,0,-1,1189,792,0,0
-28,232,0,0,0,0,0,0,0,0,0,-1,1196,792,0,0
-21,232,0,0,0,0,0,0,0,0,0,-1,1203,792,0,0
-14,232,0,0,0,0,0,0,0,0,0,-1,1210,792,0,0
-7,232,0,0,0,0,0,0,0,0,0,-1,1217,792,0,0
0,232,0,0,0,0,0,0,0,0,0,-1,1224,792,0,0
7,232,0,0,0,0,0,0,0,0,0,-1,1231,792,0,0
14,232,0,0,0,0,0,0,0,0,0,-1,1238,792,0,0
21,232,0,0,0,0,0,0,0,0,0,-1,1245,792,0,0
28,232,0,0,0,0,0,0,0,0,0,-1,1252,792,0,0
35,232,0,0,0,0,0,0,0,0,0,-1,1259,792,0,0
42,232,0,0,0,0,0,0,0,0,0,-1,1266,792,0,0
49,232,0,0,0,0,0,0,0,0,0,-1,1273,792,0,0
56,232,0,0,0,0,0,0,0,0,0,-1,1280,792,0,0
63,232,0,0,0,0,0,0,0,0,0,-1,1287,792,0,0
70,232,0,0,0,0,0,0,0,0,0,-1,1294,792,0,0
77,232,0,0,0,0,0,0,0,0,0,-1,1301,792,0,0
84,232,0,0,0,0,0,0,0,0,0,-1,1308,792,0,0
91,232,0,0,0,0,0,0,0,0,0,-1,1315,792,0,0
98,232,0,0,0,0,0,0,0,0,0,-1,1322,792,0,0
105,232,0,0,0,0,0,0,0,0,0,-1,1329,792,0,0
112,232,0,0,0,0,0,0,0,0,0,-1,1336,792,0,0
119,232,0,0,0,0,0,0,0,0,0,-1,1343,792,0,0
126,232,0,0,0,0,0,0,0,0,0,-1,1350,792,0,0
133,232,0,0,0,0,0,0,0,0,0,-1,1357,792,0,0
140,232,0,0,0,0,0,0,0,0,0,-1,1364,792,0,0
147,232,0,0,0,0,0,0,0,0,0,-1,1371,792,0,0
154,232,0,0,0,0,0,0,0,0,0,-1,1378,792,0,0
161,232,0,0,0,0,0,0,0,0,0,-1,1385,792,0,0
168,232,0,0,0,0,0,0,0,0,0,-1,1392,792,0,0
175,232,0,0,0,0,0,0,0,0,0,-1,1399,792,0,0
182,232,0,0,0,0,0,0,0,0,0,-1,1406,792,0,0
189,232,0,0,0,0,0,0,0,0,0,-1,1413,792,0,0
196,232,0,0,0,0,0,0,0,0,0,-1,1420,792,0,0
203,232,0,0,0,0,0,0,0,0,0,-1,1427,792,0,0
210,232,0,0,0,0,0,0,0,0,0,-1,1434,792,0,0
217,232,0,0,0,0,0,0,0,0,0,-1,1441,792,0,0
224,232,0,0,0,0,0,0,0,0,0,-1,1448,792,0,0
231,232,0,0,0,0,0,0,0,0,0,-1,1455,792,0,0
238,232,0,0,0,0,0,0,0,0,0,-1,1462,792,0,0
245,232,0,0,0,0,0,0,0,0,0,-1,1469,792,0,0
252,232,0,0,0,0,0,0,0,0,0,-1,1476,792,0,0
259,232,0,0,0,0,0,0,0,0,0,-1,1483,792,0,0
266,232,0,0,0,0,0,0,0,0,0,-1,1490,792,0,0
273,232,0,0,0,0,0,0,0,0,0,-1,1497,792,0,0
280,232,0,0,0,0,0,0,0,0,0,-1,1504,792,0,0
287,232,0,0,0,0,0,0,0,0,0,-1,1511,792,0,0
294,232,0,0,0,0,0,0,0,0,0,-1,1518,792,0,0
301,232,0,0,0,0,0,0,0,0,0,-1,1525,792,0,0
308,232,0,0,0,0,0,0,0,0,0,-1,1532,792,0,0
315,232,0,0,0,0,0,0,0,0,0,-1,1539,792,0,0
322,232,0,0,0,0,0,0,0,0,0,-1,1546,792,0,0
329,232,0,0,0,0,0,0,0,0,0,-1,1553,792,0,0
336,232,0,0,0,0,0,0,0,0,0,-1,1560,792,0,0
343,232,0,0,0,0,0,0,0,0,0,-1,1567,792,0,0
350,232,0,0,0,0,0,0,0,0,0,-1,1574,792,0,0
357,232,0,0,0,0,0,0,0,0,0,-1,1581,792,0,0
364,232,0,0,0,0,0,0,0,0,0,-1,1588,792,0,0
371,232,0,0,0,0,0,0,0,0,0,-1,1595,792,0,0
378,232,0,0,0,0,0,0,0,0,0,-1,1602,792,0,0
385,232,0,0,0,0,0,0,0,0,0,-1,1609,792,0,0
392,232,0,0,0,0,0,0,0,0,0,-1,1616,792,0,0
399,232,0,0,0,0,0,0,0,0,0,-1,1623,792,0,0
406,232,0,0,0,0,0,0,0,0,0,-1,1630,792,0,0
413,232,0,0,0,0,0,0,0,0,0,-1,1637,792,0,0
420,232,0,0,0,0,0,0,0,0,0,-1,1644,792,0,0
427,232,0,0,0,0,0,0,0,0,0,-1,1651,792,0,0
434,232,0,0,0,0,0,0,0,0,0,-1,1658,792,0,0
441,232,0,0,0,0,0,0,0,0,0,-1,1665,792,0,0
448,232,0,0,0,0,0,0,0,0,0,-1,1672,792,0,0
455,232,0,0,0,0,0,0,0,0,0,-1,1679,792,0,0
462,232,0,0,0,0,0,0,0,0,0,-1,1686,792,0,0
469,232,0,0,0,0,0,0,0,0,0,-1,1693,792,0,0
476,232,0,0,0,0,0,0,0,0,0,-1,1700,792,0,0
483,232,0,0,0,0,0,0,0,0,0,-1,1707,792,0,0
490,232,0,0,0,0,0,0,0,0,0,-1,1714,792,0,0
497,232,0,0,0,0,0,0,0,0,0,-1,1721,792,0,0
504,232,0,0,0,0,0,0,0,0,0,-1,1728,792,0,0
511,232,0,0,0,0,0,0,0,0,0,-1,1735,792,0,0
518,232,0,0,0,0,0,0,0,0,0,-1,1742,792,0,0
525,232,0,0,0,0,0,0,0,0,0,-1,1749,792,0,0
532,232,0,0,0,0,0,0,0,0,0,-1,1756,792,0,0
539,232,0,0,0,0,0,0,0,0,0,-1,1763,792,0,0
546,232,0,0,0,0,0,0,0,0,0,-1,1770,792,0,0
553,232,0,0,0,0,0,0,0,0,0,-1,1777,792,0,0
560,232,0,0,0,0,0,0,0,0,0,-1,1784,792,0,0
567,232,0,0,0,0,0,0,0,0,0,-1,1791,792,0,0
574,232,0,0,0,0,0,0,0,0,0,-1,1798,792,0,0
581,232,0,0,0,0,0,0,0,0,0,-1,1805,792,0,0
588,232,30.9849,3.20056,-0.000701034,0.011823,0.00231509,0.0122372,-0.00111528,1.39374,0.00855419,0.0378165,1812,792,30.9848,-3.20058
595,232,30.9172,3.10706,0.00294043,0.00891384,0.00518305,0.0119091,-5.48731e-05,1.04678,0.00795779,0.0358853,1819,792,30.9173,-3.10708
602,232,30.9945,3.05914,0.00460799,0.00581053,0.00697875,0.0122139,-0.00179534,0.828371,0.00880227,0.0370226,1826,792,30.9946,-3.05915
609,232,31.1887,2.97321,0.00498288,0.00288883,0.0077084,0.011715,-0.00384333,0.717897,0.00935802,0.0426376,1833,792,31.1888,-2.97322
616,232,31.0416,3.09204,0,0,0,0,0,0,0,-1,1840,792,31.0416,-3.09203
623,232,31.7482,2.56946,0.00374504,-0.00123961,0.00700744,0.00869018,-0.00618476,0.61454,0.00862856,0.046667,1847,792,31.7481,-2.56944
630,232,32.0374,2.6933,0.00292867,-0.00249757,0.00613561,0.00692426,-0.00649316,0.577227,0.00774788,0.0477606,1854,792,32.0374,-2.69327
637,232,31.418,3.55286,0,0,0,0,0,0,0,-1,1861,792,31.418,-3.55288
644,232,29.3163,4.33893,0,0,0,0,0,0,0,-1,1868,792,29.3163,-4.33891
651,232,22.583,0.657471,0,0,0,0,0,0,0,-1,1875,792,22.583,-0.657456
658,232,22.5598,0.925659,-0.000102784,-0.00426702,0.00224087,0.000873976,-0.00524378,0.411053,0.00382064,0.0298478,1882,792,22.5598,-0.92566
665,232,22.527,1.24139,-0.000553807,-0.00378186,0.00103591,-0.000249973,-0.00408569,0.2853,0.00264441,0.0131281,1889,792,22.527,-1.24137
672,232,22.4708,1.60547,-0.00038475,-0.00300655,0.000352336,-0.000338226,-0.00305307,0.131285,0.00193253,0.0177395,1896,792,22.4708,-1.60547
679,232,22.5129,1.94324,-0.000400568,-0.00189132,-0.000552602,-0.000218067,-0.00207382,-0.318979,0.00131589,0.0183622,1903,792,22.5129,-1.94324
686,232,22.5374,2.28302,-4.625e-05,-0.000902398,-0.000818717,0.000449551,-0.0013982,-0.544514,0.00111268,0.0187215,1910,792,22.5373,-2.28304
693,232,22.5054,2.62653,0.000894365,-0.000473342,-0.000301596,0.000957918,-0.000536895,-0.207682,0.000874367,0.0107808,1917,792,22.5054,-2.6265
700,232,22.5034,2.98865,0.00216503,0.000635079,0.000765762,0.00248245,0.00031766,0.392956,0.0015599,0.0130023,1924,792,22.5034,-2.98865
707,232,22.5048,3.33734,0.00376172,0.00230844,0.00228807,0.00543576,0.000634398,0.631646,0.00343198,0.0126059,1931,792,22.5048,-3.33733
714,232,22.501,3.68109,0.0058038,0.00470274,0.00456453,0.00985088,0.000655665,0.725382,0.00635997,0.0122256,1938,792,22.5009,-3.68108
721,232,22.4849,3.99933,0.00811087,0.00944471,0.00800878,0.0168143,0.000741295,0.826939,0.0109708,0.0208749,1945,792,22.4849,-3.99933
728,232,22.4387,4.35217,0.0109889,0.0159336,0.0123762,0.026082,0.000840516,0.883983,0.0171147,0.0386918,1952,792,22.4387,-4.35215
735,232,22.5472,4.90314,0,0,0,0,0,0,0,-1,1959,792,22.5472,-4.90316
742,232,24.5074,5.96606,0,0,0,0,0,0,0,-1,1966,792,24.5075,-5.96605
749,232,25.3063,5.63422,0,0,0,0,0,0,0,-1,1973,792,25.3062,-5.63421
756,232,25.9614,5.53223,0,0,0,0,0,0,0,-1,1980,792,25.9614,-5.53225
763,232,22.3608,4.4809,0,0,0,0,0,0,0,-1,1987,792,22.3608,-4.48088
770,232,0,0,0,0,0,0,0,0,0,-1,1994,792,0,0
777,232,0,0,0,0,0,0,0,0,0,-1,2001,792,0,0
784,232,0,0,0,0,0,0,0,0,0,-1,2008,792,0,0
791,232,0,0,0,0,0,0,0,0,0,-1,2015,792,0,0
798,232,0,0,0,0,0,0,0,0,0,-1,2022,792,0,0
805,232,0,0,0,0,0,0,0,0,0,-1,2029,792,0,0
812,232,0,0,0,0,0,0,0,0,0,-1,2036,792,0,0
-700,225,0,0,0,0,0,0,0,0,0,-1,524,799,0,0
-693,225,0,0,0,0,0,0,0,0,0,-1,531,799,0,0
-686,225,0,0,0,0,0,0,0,0,0,-1,538,799,0,0
-679,225,0,0,0,0,0,0,0,0,0,-1,545,799,0,0
-672,225,0,0,0,0,0,0,0,0,0,-1,552,799,0,0
-665,225,0,0,0,0,0,0,0,0,0,-1,559,799,0,0
-658,225,0,0,0,0,0,0,0,0,0,-1,566,799,0,0
-651,225,0,0,0,0,0,0,0,0,0,-1,573,799,0,0
-644,225,-19.0674,-3.06055,0,0,0,0,0,0,0,-1,580,799,-19.0674,3.06053
-637,225,-20.5836,4.14502,0,0,0,0,0,0,0,-1,587,799,-20.5836,-4.14504
-630,225,-17.3168,-1.50812,0,0,0,0,0,0,0,-1,594,799,-17.3168,1.50815
-623,225,-20.0834,-0.43396,0,0,0,0,0,0,0,-1,601,799,-20.0833,0.433959
-616,225,-20.6076,0.488708,0,0,0,0,0,0,0,-1,608,799,-20.6076,-0.488684
-609,225,-14.6152,2.57709,0,0,0,0,0,0,0,-1,615,799,-14.6152,-2.5771
-602,225,-14.7286,2.27325,-0.0151563,0.0110681,0.0144927,0.0174999,-0.0215881,1.15311,0.0226085,0.0483936,622,799,-14.7286,-2.27325
-595,225,-14.8665,1.95605,-0.00952267,0.00912836,0.0114309,0.0145552,-0.0149495,1.12755,0.017035,0.0285842,629,799,-14.8665,-1.95605
-588,225,-14.8738,1.56281,-0.00596145,0.00606007,0.00835673,0.0103432,-0.0102446,1.09717,0.0118864,0.0122824,636,799,-14.8738,-1.56282
-581,225,-14.8876,1.24335,-0.00401895,0.00330022,0.00471078,0.00560586,-0.0063246,1.11563,0.00689222,0.0104359,643,799,-14.8876,-1.24333
-574,225,-14.8805,0.919495,-0.00233071,0.00116763,0.00343862,0.00327639,-0.00443948,1.02068,0.0044716,0.00889239,650,799,-14.8805,-0.919497
-567,225,-14.8876,0.590149,-0.0013275,-0.00017119,0.00200631,0.0013386,-0.0028373,0.925682,0.00246217,0.0109116,657,799,-14.8877,-0.590151
-560,225,-14.9138,0.270264,-0.00131492,-0.0012314,0.00127884,6.36186e-06,-0.00255268,0.801718,0.00170391,0.0117677,664,799,-14.9137,-0.270249
-553,225,-14.9296,-0.0523071,-0.00178898,-0.00228497,0.00153992,-0.00047721,-0.00359674,0.705563,0.00225564,0.0115902,671,799,-14.9296,0.0523095
-546,225,-14.9664,-0.384155,-0.00246571,-0.00315683,0.00158286,-0.00119113,-0.00443141,0.677928,0.00264808,0.0201462,678,799,-14.9664,0.384147
-539,225,-14.9219,-0.734802,-0.00336297,-0.00366073,0.0017476,-0.00175791,-0.00526578,0.742905,0.00309566,0.0286368,685,799,-14.9219,0.734806
-532,225,-14.9499,-1.02148,-0.0036403,-0.00306828,0.00161788,-0.00171132,-0.00499726,0.872885,0.00293252,0.0248521,692,799,-14.9499,1.02149
-525,225,-15.2271,-1.24475,0,0,0,0,0,0,0,-1,699,799,-15.2271,1.24475
-518,225,-14.3308,-0.966858,0,0,0,0,0,0,0,-1,706,799,-14.3308,0.966833
-511,225,-22.0449,1.35303,0,0,0,0,0,0,0,-1,713,799,-22.0449,-1.35302
-504,225,-22.0771,1.60669,0,0,0,0,0,0,0,-1,720,799,-22.0771,-1.6067
-497,225,-21.9042,1.526,0,0,0,0,0,0,0,-1,727,799,-21.9042,-1.52601
-490,225,-21.95,1.36145,0.00142722,0.00716172,-0.00122303,0.00741167,0.00117727,-1.3692,0.00459919,0.0416547,734,799,-21.95,-1.36147
-483,225,-22.1216,1.26691,0.00446228,0.0108448,-0.00255033,0.0117387,0.00356841,-1.23368,0.00694877,0.0353794,741,799,-22.1217,-1.26691
-476,225,-22.149,1.25757,0.00840354,0.0147037,-0.00408722,0.0167139,0.00639334,-1.11371,0.00973813,0.0316432,748,799,-22.149,-1.25757
-469,225,-22.0855,1.34473,0.0124065,0.0176157,-0.00584656,0.0214116,0.0086106,-0.994949,0.0124406,0.0357963,755,799,-22.0855,-1.34474
-462,225,0,0,0,0,0,0,0,0,0,-1,762,799,0,0
-455,225,0,0,0,0,0,0,0,0,0,-1,769,799,0,0
-448,225,0,0,0,0,0,0,0,0,0,-1,776,799,0,0
-441,225,0,0,0,0,0,0,0,0,0,-1,783,799,0,0
-434,225,0,0,0,0,0,0,0,0,0,-1,790,799,0,0
-427,225,0,0,0,0,0,0,0,0,0,-1,797,799,0,0
-420,225,0,0,0,0,0,0,0,0,0,-1,804,799,0,0
-413,225,0,0,0,0,0,0,0,0,0,-1,811,799,0,0
-406,225,0,0,0,0,0,0,0,0,0,-1,818,799,0,0
-399,225,0,0,0,0,0,0,0,0,0,-1,825,799,0,0
-392,225,0,0,0,0,0,0,0,0,0,-1,832,799,0,0
-385,225,0,0,0,0,0,0,0,0,0,-1,839,799,0,0
-378,225,0,0,0,0,0,0,0,0,0,-1,846,799,0,0
-371,225,0,0,0,0,0,0,0,0,0,-1,853,799,0,0
-364,225,0,0,0,0,0,0,0,0,0,-1,860,799,0,0
-357,225,0,0,0,0,0,0,0,0,0,-1,867,799,0,0
-350,225,0,0,0,0,0,0,0,0,0,-1,874,799,0,0
-343,225,0,0,0,0,0,0,0,0,0,-1,881,799,0,0
-336,225,0,0,0,0,0,0,0,0,0,-1,888,799,0,0
-329,225,0,0,0,0,0,0,0,0,0,-1,895,799,0,0
-322,225,0,0,0,0,0,0,0,0,0,-1,902,799,0,0
-315,225,0,0,0,0,0,0,0,0,0,-1,909,799,0,0
-308,225,0,0,0,0,0,0,0,0,0,-1,916,799,0,0
-301,225,0,0,0,0,0,0,0,0,0,-1,923,799,0,0
-294,225,0,0,0,0,0,0,0,0,0,-1,930,799,0,0
-287,225,0,0,0,0,0,0,0,0,0,-1,937,799,0,0
-280,225,0,0,0,0,0,0,0,0,0,-1,944,799,0,0
-273,225,0,0,0,0,0,0,0,0,0,-1,951,799,0,0
-266,225,0,0,0,0,0,0,0,0,0,-1,958,799,0,0
-259,225,0,0,0,0,0,0,0,0,0,-1,965,799,0,0
-252,225,0,0,0,0,0,0,0,0,0,-1,972,799,0,0
-245,225,0,0,0,0,0,0,0,0,0,-1,979,799,0,0
-238,225,0,0,0,0,0,0,0,0,0,-1,986,799,0,0
-231,225,0,0,0,0,0,0,0,0,0,-1,993,799,0,0
-224,225,0,0,0,0,0,0,0,0,0,-1,1000,799,0,0
-217,225,0,0,0,0,0,0,0,0,0,-1,1007,799,0,0
-210,225,0,0,0,0,0,0,0,0,0,-1,1014,799,0,0
-203,225,0,0,0,0,0,0,0,0,0,-1,1021,799,0,0
-196,225,0,0,0,0,0,0,0,0,0,-1,1028,799,0,0
-189,225,0,0,0,0,0,0,0,0,0,-1,1035,799,0,0
-182,225,0,0,0,0,0,0,0,0,0,-1,1042,799,0,0
-175,225,0,0,0,0,0,0,0,0,0,-1,1049,799,0,0
-168,225,0,0,0,0,0,0,0,0,0,-1,1056,799,0,0
-161,225,0,0,0,0,0,0,0,0,0,-1,1063,799,0,0
-154,225,0,0,0,0,0,0,0,0,0,-1,1070,799,0,0
-147,225,0,0,0,0,0,0,0,0,0,-1,1077,799,0,0
-140,225,0,0,0,0,0,0,0,0,0,-1,1084,799,0,0
-133,225,0,0,0,0,0,0,0,0,0,-1,1091,799,0,0
-126,225,0,0,0,0,0,0,0,0,0,-1,1098,799,0,0
-119,225,0,0,0,0,0,0,0,0,0,-1,1105,799,0,0
-112,225,0,0,0,0,0,0,0,0,0,-1,1112,799,0,0
-105,225,0,0,0,0,0,0,0,0,0,-1,1119,799,0,0
-98,225,0,0,0,0,0,0,0,0,0,-1,1126,799,0,0
-91,225,0,0,0,0,0,0,0,0,0,-1,1133,799,0,0
-84,225,0,0,0,0,0,0,0,0,0,-1,1140,799,0,0
-77,225,0,0,0,0,0,0,0,0,0,-1,1147,799,0,0
-70,225,0,0,0,0,0,0,0,0,0,-1,1154,799,0,0
-63,225,0,0,0,0,0,0,0,0,0,-1,1161,799,0,0
-56,225,0,0,0,0,0,0,0,0,0,-1,1168,799,0,0
-49,225,0,0,0,0,0,0,0,0,0,-1,1175,799,0,0
-42,225,0,0,0,0,0,0,0,0,0,-1,1182,799,0,0
-35,225,0,0,0,0,0,0,0,0,0,-1,1189,799,0,0
-28,225,0,0,0,0,0,0,0,0,0,-1,1196,799,0,0
-21,225,0,0,0,0,0,0,0,0,0,-1,1203,799,0,0
-14,225,0,0,0,0,0,0,0,0,0,-1,1210,799,0,0
-7,225,0,0,0,0,0,0,0,0,0,-1,1217,799,0,0
0,225,0,0,0,0,0,0,0,0,0,-1,1224,799,0,0
7,225,0,0,0,0,0,0,0,0,0,-1,1231,799,0,0
14,225,0,0,0,0,0,0,0,0,0,-1,1238,799,0,0
21,225,0,0,0,0,0,0,0,0,0,-1,1245,799,0,0
28,225,0,0,0,0,0,0,0,0,0,-1,1252,799,0,0
35,225,0,0,0,0,0,0,0,0,0,-1,1259,799,0,0
42,225,0,0,0,0,0,0,0,0,0,-1,1266,799,0,0
49,225,0,0,0,0,0,0,0,0,0,-1,1273,799,0,0
56,225,0,0,0,0,0,0,0,0,0,-1,1280,799,0,0
63,225,0,0,0,0,0,0,0,0,0,-1,1287,799,0,0
70,225,0,0,0,0,0,0,0,0,0,-1,1294,799,0,0
77,225,0,0,0,0,0,0,0,0,0,-1,1301,799,0,0
84,225,0,0,0,0,0,0,0,0,0,-1,1308,799,0,0
91,225,0,0,0,0,0,0,0,0,0,-1,1315,799,0,0
98,225,0,0,0,0,0,0,0,0,0,-1,1322,799,0,0
105,225,0,0,0,0,0,0,0,0,0,-1,1329,799,0,0
112,225,0,0,0,0,0,0,0,0,0,-1,1336,799,0,0
119,225,0,0,0,0,0,0,0,0,0,-1,1343,799,0,0
126,225,0,0,0,0,0,0,0,0,0,-1,1350,799,0,0
133,225,0,0,0,0,0,0,0,0,0,-1,1357,799,0,0
140,225,0,0,0,0,0,0,0,0,0,-1,1364,799,0,0
147,225,0,0,0,0,0,0,0,0,0,-1,1371,799,0,0
154,225,0,0,0,0,0,0,0,0,0,-1,1378,799,0,0
161,225,0,0,0,0,0,0,0,0,0,-1,1385,799,0,0
168,225,0,0,0,0,0,0,0,0,0,-1,1392,799,0,0
175,225,0,0,0,0,0,0,0,0,0,-1,1399,799,0,0
182,225,0,0,0,0,0,0,0,0,0,-1,1406,799,0,0
189,225,0,0,0,0,0,0,0,0,0,-1,1413,799,0,0
196,225,0,0,0,0,0,0,0,0,0,-1,1420,799,0,0
203,225,0,0,0,0,0,0,0,0,0,-1,1427,799,0,0
210,225,0,0,0,0,0,0,0,0,0,-1,1434,799,0,0
217,225,0,0,0,0,0,0,0,0,0,-1,1441,799,0,0
224,225,0,0,0,0,0,0,0,0,0,-1,1448,799,0,0
231,225,0,0,0,0,0,0,0,0,0,-1,1455,799,0,0
238,225,0,0,0,0,0,0,0,0,0,-1,1462,799,0,0
245,225,0,0,0,0,0,0,0,0,0,-1,1469,799,0,0
252,225,0,0,0,0,0,0,0,0,0,-1,1476,799,0,0
259,225,0,0,0,0,0,0,0,0,0,-1,1483,799,0,0
266,225,0,0,0,0,0,0,0,0,0,-1,1490,799,0,0
273,225,0,0,0,0,0,0,0,0,0,-1,1497,799,0,0
280,225,0,0,0,0,0,0,0,0,0,-1,1504,799,0,0
287,225,0,0,0,0,0,0,0,0,0,-1,1511,799,0,0
294,225,0,0,0,0,0,0,0,0,0,-1,1518,799,0,0
301,225,0,0,0,0,0,0,0,0,0,-1,1525,799,0,0
308,225,0,0,0,0,0,0,0,0,0,-1,1532,799,0,0
315,225,0,0,0,0,0,0,0,0,0,-1,1539,799,0,0
322,225,0,0,0,0,0,0,0,0,0,-1,1546,799,0,0
329,225,0,0,0,0,0,0,0,0,0,-1,1553,799,0,0
336,225,0,0,0,0,0,0,0,0,0,-1,1560,799,0,0
343,225,0,0,0,0,0,0,0,0,0,-1,1567,799,0,0
350,225,0,0,0,0,0,0,0,0,0,-1,1574,799,0,0
357,225,0,0,0,0,0,0,0,0,0,-1,1581,799,0,0
364,225,0,0,0,0,0,0,0,0,0,-1,1588,799,0,0
371,225,0,0,0,0,0,0,0,0,0,-1,1595,799,0,0
378,225,0,0,0,0,0,0,0,0,0,-1,1602,799,0,0
385,225,0,0,0,0,0,0,0,0,0,-1,1609,799,0,0
392,225,0,0,0,0,0,0,0,0,0,-1,1616,799,0,0
399,225,0,0,0,0,0,0,0,0,0,-1,1623,799,0,0
406,225,0,0,0,0,0,0,0,0,0,-1,1630,799,0,0
413,225,0,0,0,0,0,0,0,0,0,-1,1637,799,0,0
420,225,0,0,0,0,0,0,0,0,0,-1,1644,799,0,0
427,225,0,0,0,0,0,0,0,0,0,-1,1651,799,0,0
434,225,0,0,0,0,0,0,0,0,0,-1,1658,799,0,0
441,225,0,0,0,0,0,0,0,0,0,-1,1665,799,0,0
448,225,0,0,0,0,0,0,0,0,0,-1,1672,799,0,0
455,225,0,0,0,0,0,0,0,0,0,-1,1679,799,0,0
462,225,0,0,0,0,0,0,0,0,0,-1,1686,799,0,0
469,225,0,0,0,0,0,0,0,0,0,-1,1693,799,0,0
476,225,0,0,0,0,0,0,0,0,0,-1,1700,799,0,0
483,225,0,0,0,0,0,0,0,0,0,-1,1707,799,0,0
490,225,0,0,0,0,0,0,0,0,0,-1,1714,799,0,0
497,225,0,0,0,0,0,0,0,0,0,-1,1721,799,0,0
504,225,0,0,0,0,0,0,0,0,0,-1,1728,799,0,0
511,225,0,0,0,0,0,0,0,0,0,-1,1735,799,0,0
518,225,0,0,0,0,0,0,0,0,0,-1,1742,799,0,0
525,225,0,0,0,0,0,0,0,0,0,-1,1749,799,0,0
532,225,0,0,0,0,0,0,0,0,0,-1,1756,799,0,0
539,225,0,0,0,0,0,0,0,0,0,-1,1763,799,0,0
546,225,0,0,0,0,0,0,0,0,0,-1,1770,799,0,0
553,225,0,0,0,0,0,0,0,0,0,-1,1777,799,0,0
560,225,0,0,0,0,0,0,0,0,0,-1,1784,799,0,0
567,225,0,0,0,0,0,0,0,0,0,-1,1791,799,0,0
574,225,0,0,0,0,0,0,0,0,0,-1,1798,799,0,0
581,225,0,0,0,0,0,0,0,0,0,-1,1805,799,0,0
588,225,31.0842,3.02521,-0.00238374,0.0112039,-7.89103e-05,0.0112044,-0.0023842,-1.56499,0.00837816,0.0370242,1812,799,31.0842,-3.02518
595,225,31.0667,2.966,0.00154835,0.00732326,0.00362821,0.00907276,-0.000201148,1.1215,0.00611666,0.0341779,1819,799,31.0667,-2.96598
602,225,30.9766,2.97864,0.00355676,0.00387028,0.00606552,0.00978107,-0.00235403,0.798317,0.00743074,0.0360047,1826,799,30.9766,-2.97864
609,225,31.0422,3.02466,0.00436011,0.0010843,0.00736239,0.0102646,-0.00482018,0.675946,0.00889627,0.035392,1833,799,31.0423,-3.02467
616,225,31.0295,3.07159,0.00406325,-0.00097529,0.00747981,0.00943665,-0.0063487,0.622961,0.00917162,0.0377687,1840,799,31.0295,-3.07159
623,225,31.1248,3.09851,0.00335938,-0.00233246,0.00694209,0.00801625,-0.00698933,0.59087,0.00867024,0.0423585,1847,799,31.1247,-3.09853
630,225,31.3661,3.1618,0.00262394,-0.00320975,0.00602911,0.00640472,-0.00699053,0.560099,0.00773622,0.0448646,1854,799,31.3661,-3.16179
637,225,31.358,3.35876,0.00192195,-0.00352674,0.00496111,0.00485753,-0.00646231,0.534307,0.00655737,0.0466614,1861,799,31.3581,-3.35876
644,225,23.8784,0.570374,0,0,0,0,0,0,0,-1,1868,799,23.8784,-0.570399
651,225,23.5942,0.808716,0,0,0,0,0,0,0,-1,1875,799,23.5943,-0.808712
658,225,23.2173,1.21033,-9.4751e-05,-0.00392706,0.00199534,0.000755506,-0.00477732,0.40282,0.00346429,0.0437225,1882,799,23.2172,-1.21031
665,225,22.9469,1.27264,-0.000447307,-0.00353764,0.000907496,-0.000200523,-0.00378443,0.265519,0.00245884,0.0171888,1889,799,22.9469,-1.27262
672,225,22.8524,1.65021,-0.00037255,-0.00298394,0.00024357,-0.000350026,-0.00300647,0.0922123,0.00189842,0.0176195,1896,799,22.8524,-1.6502
679,225,22.864,1.99182,-0.000586664,-0.00207752,-0.000666695,-0.000332019,-0.00233216,-0.364851,0.00145677,0.0168226,1903,799,22.864,-1.9918
686,225,22.8612,2.29614,-0.000535456,-0.00125251,-0.00106058,0.000225555,-0.00201352,-0.622404,0.0014235,0.0109823,1910,799,22.8612,-2.29617
693,225,22.8553,2.64447,0.000148905,-0.000938519,-0.00069172,0.000485022,-0.00127464,-0.452316,0.00104948,0.0102541,1917,799,22.8554,-2.64446
700,225,22.8474,3.00391,0.00119382,0.000180252,0.000247079,0.00125085,0.00012323,0.226816,0.000796006,0.0119618,1924,799,22.8475,-3.00393
707,225,22.8423,3.33862,0.00256784,0.00197028,0.00164417,0.00394016,0.000597958,0.695518,0.00245188,0.0115466,1931,799,22.8423,-3.33862
714,225,22.8436,3.67871,0.00444197,0.00460043,0.00388251,0.00840452,0.000637883,0.7956,0.00540295,0.0116182,1938,799,22.8437,-3.6787
721,225,22.8656,4.00653,0.00658035,0.00973749,0.0072843,0.0156123,0.000705534,0.892102,0.0101812,0.0147907,1945,799,22.8656,-4.00655
728,225,22.8385,4.25098,0.00918575,0.0165812,0.0114453,0.0249113,0.000855659,0.941644,0.0163298,0.0284957,1952,799,22.8385,-4.25097
735,225,22.9786,4.59454,0,0,0,0,0,0,0,-1,1959,799,22.9787,-4.59452
742,225,21.4457,4.89777,0,0,0,0,0,0,0,-1,1966,799,21.4457,-4.89777
749,225,26.1858,6.125,0,0,0,0,0,0,0,-1,1973,799,26.1858,-6.12503
756,225,21.9564,4.57703,0,0,0,0,0,0,0,-1,1980,799,21.9564,-4.57704
763,225,23.3566,4.89728,0,0,0,0,0,0,0,-1,1987,799,23.3566,-4.89728
770,225,0,0,0,0,0,0,0,0,0,-1,1994,799,0,0
777,225,0,0,0,0,0,0,0,0,0,-1,2001,799,0,0
784,225,0,0,0,0,0,0,0,0,0,-1,2008,799,0,0
791,225,0,0,0,0,0,0,0,0,0,-1,2015,799,0,0
798,225,0,0,0,0,0,0,0,0,0,-1,2022,799,0,0
805,225,0,0,0,0,0,0,0,0,0,-1,2029,799,0,0
812,225,0,0,0,0,0,0,0,0,0,-1,2036,799,0,0
-700,218,0,0,0,0,0,0,0,0,0,-1,524,806,0,0
-693,218,0,0,0,0,0,0,0,0,0,-1,531,806,0,0
-686,218,0,0,0,0,0,0,0,0,0,-1,538,806,0,0
-679,218,0,0,0,0,0,0,0,0,0,-1,545,806,0,0
-672,218,0,0,0,0,0,0,0,0,0,-1,552,806,0,0
-665,218,0,0,0,0,0,0,0,0,0,-1,559,806,0,0
-658,218,0,0,0,0,0,0,0,0,0,-1,566,806,0,0
-651,218,-17.6854,4.79639,0,0,0,0,0,0,0,-1,573,806,-17.6854,-4.79638
-644,218,-18.7827,4.57361,0,0,0,0,0,0,0,-1,580,806,-18.7826,-4.5736
-637,218,-19.9393,4.37097,0,0,0,0,0,0,0,-1,587,806,-19.9394,-4.37099
-630,218,-21.0531,4.22064,0,0,0,0,0,0,0,-1,594,806,-21.0531,-4.22063
-623,218,-18.2076,-0.374268,0,0,0,0,0,0,0,-1,601,806,-18.2076,0.374279
-616,218,-18.1784,-0.0706177,0,0,0,0,0,0,0,-1,608,806,-18.1784,0.0706215
-609,218,-14.9441,2.53986,0,0,0,0,0,0,0,-1,615,806,-14.9441,-2.53984
-602,218,-15.0671,2.2218,-0.0131786,0.0119053,0.00970548,0.015222,-0.0164953,1.2415,0.018317,0.039166,622,806,-15.0671,-2.2218
-595,218,-15.1868,1.90399,-0.00818011,0.00954081,0.00809695,0.0126832,-0.0113225,1.20059,0.0138671,0.0175351,629,806,-15.1868,-1.90399
-588,218,-15.2142,1.5683,-0.00513933,0.00616063,0.00619324,0.00889388,-0.00787258,1.15518,0.0096861,0.0113317,636,806,-15.2141,-1.56831
-581,218,-15.2131,1.26202,-0.00355904,0.00308651,0.00359881,0.00466192,-0.00513445,1.15817,0.00565813,0.0107654,643,806,-15.213,-1.26205
-574,218,-15.2228,0.9328,-0.00208509,0.000914472,0.00281562,0.00260484,-0.00377546,1.03012,0.00370427,0.0105516,650,806,-15.2228,-0.932814
-567,218,-15.179,0.588196,-0.00130237,-0.000305513,0.00174609,0.00101189,-0.00261978,0.924428,0.00216416,0.0168331,657,806,-15.179,-0.588182
-560,218,-15.2132,0.291199,-0.00129489,-0.00119991,0.00116219,-8.42357e-05,-0.00241056,0.805818,0.00157971,0.0161826,664,806,-15.2132,-0.291171
-553,218,-15.2201,-0.0692139,-0.00166122,-0.0019973,0.00141808,-0.000401256,-0.00325726,0.726424,0.00205088,0.0168915,671,806,-15.2201,0.0691926
-546,218,-15.2556,-0.435059,-0.00221439,-0.00265583,0.00136824,-0.00104918,-0.00382104,0.705428,0.00227959,0.0159818,678,806,-15.2556,0.435063
-539,218,-15.2445,-0.782715,-0.00297728,-0.00297052,0.00149837,-0.00147552,-0.00447227,0.786526,0.00263139,0.0250719,685,806,-15.2445,0.782702
-532,218,-15.3198,-0.94635,-0.00322785,-0.00239503,0.00138143,-0.00136861,-0.00425426,0.931785,0.00250771,0.0304754,692,806,-15.3198,0.946325
-525,218,-15.567,-1.04504,0,0,0,0,0,0,0,-1,699,806,-15.567,1.04503
-518,218,-19.8492,1.62396,0,0,0,0,0,0,0,-1,706,806,-19.8493,-1.62399
-511,218,-22.6742,0.651917,0,0,0,0,0,0,0,-1,713,806,-22.6742,-0.651916
-504,218,-21.9622,1.46576,0,0,0,0,0,0,0,-1,720,806,-21.9622,-1.46574
-497,218,-21.9848,1.38373,-0.000377876,0.00379761,-0.000288551,0.00381746,-0.000397722,-1.50213,0.00268737,0.048191,727,806,-21.9848,-1.38376
-490,218,-22.0545,1.27478,0.00163814,0.00641051,-0.00123498,0.00671115,0.0013375,-1.332,0.00410162,0.0370904,734,806,-22.0545,-1.27475
-483,218,-22.0683,1.32764,0.00470401,0.00942,-0.0025525,0.010537,0.00358704,-1.1583,0.00618594,0.0347007,741,806,-22.0683,-1.32766
-476,218,-22.1086,1.35687,0.00873555,0.0122838,-0.00401895,0.0149028,0.00611655,-0.993252,0.00865001,0.0354867,748,806,-22.1086,-1.35685
-469,218,0,0,0,0,0,0,0,0,0,-1,755,806,0,0
-462,218,0,0,0,0,0,0,0,0,0,-1,762,806,0,0
-455,218,0,0,0,0,0,0,0,0,0,-1,769,806,0,0
-448,218,0,0,0,0,0,0,0,0,0,-1,776,806,0,0
-441,218,0,0,0,0,0,0,0,0,0,-1,783,806,0,0
-434,218,0,0,0,0,0,0,0,0,0,-1,790,806,0,0
-427,218,0,0,0,0,0,0,0,0,0,-1,797,806,0,0
-420,218,0,0,0,0,0,0,0,0,0,-1,804,806,0,0
-413,218,0,0,0,0,0,0,0,0,0,-1,811,806,0,0
-406,218,0,0,0,0,0,0,0,0,0,-1,818,806,0,0
-399,218,0,0,0,0,0,0,0,0,0,-1,825,806,0,0
-392,218,0,0,0,0,0,0,0,0,0,-1,832,806,0,0
-385,218,0,0,0,0,0,0,0,0,0,-1,839,806,0,0
-378,218,0,0,0,0,0,0,0,0,0,-1,846,806,0,0
-371,218,0,0,0,0,0,0,0,0,0,-1,853,806,0,0
-364,218,0,0,0,0,0,0,0,0,0,-1,860,806,0,0
-357,218,0,0,0,0,0,0,0,0,0,-1,867,806,0,0
-350,218,0,0,0,0,0,0,0,0,0,-1,874,806,0,0
-343,218,0,0,0,0,0,0,0,0,0,-1,881,806,0,0
-336,218,0,0,0,0,0,0,0,0,0,-1,888,806,0,0
-329,218,0,0,0,0,0,0,0,0,0,-1,895,806,0,0
-322,218,0,0,0,0,0,0,0,0,0,-1,902,806,0,0
-315,218,0,0,0,0,0,0,0,0,0,-1,909,806,0,0
-308,218,0,0,0,0,0,0,0,0,0,-1,916,806,0,0
-301,218,0,0,0,0,0,0,0,0,0,-1,923,806,0,0
-294,218,0,0,0,0,0,0,0,0,0,-1,930,806,0,0
-287,218,0,0,0,0,0,0,0,0,0,-1,937,806,0,0
-280,218,0,0,0,0,0,0,0,0,0,-1,944,806,0,0
-273,218,0,0,0,0,0,0,0,0,0,-1,951,806,0,0
-266,218,0,0,0,0,0,0,0,0,0,-1,958,806,0,0
-259,218,0,0,0,0,0,0,0,0,0,-1,965,806,0,0
-252,218,0,0,0,0,0,0,0,0,0,-1,972,806,0,0
-245,218,0,0,0,0,0,0,0,0,0,-1,979,806,0,0
-238,218,0,0,0,0,0,0,0,0,0,-1,986,806,0,0
-231,218,0,0,0,0,0,0,0,0,0,-1,993,806,0,0
-224,218,0,0,0,0,0,0,0,0,0,-1,1000,806,0,0
-217,218,0,0,0,0,0,0,0,0,0,-1,1007,806,0,0
-210,218,0,0,0,0,0,0,0,0,0,-1,1014,806,0,0
-203,218,0,0,0,0,0,0,0,0,0,-1,1021,806,0,0
-196,218,0,0,0,0,0,0,0,0,0,-1,1028,806,0,0
-189,218,0,0,0,0,0,0,0,0,0,-1,1035,806,0,0
-182,218,0,0,0,0,0,0,0,0,0,-1,1042,806,0,0
-175,218,0,0,0,0,0,0,0,0,0,-1,1049,806,0,0
-168,218,0,0,0,0,0,0,0,0,0,-1,1056,806,0,0
-161,218,0,0,0,0,0,0,0,0,0,-1,1063,806,0,0
-154,218,0,0,0,0,0,0,0,0,0,-1,1070,806,0,0
-147,218,0,0,0,0,0,0,0,0,0,-1,1077,806,0,0
-140,218,0,0,0,0,0,0,0,0,0,-1,1084,806,0,0
-133,218,0,0,0,0,0,0,0,0,0,-1,1091,806,0,0
-126,218,0,0,0,0,0,0,0,0,0,-1,1098,806,0,0
-119,218,0,0,0,0,0,0,0,0,0,-1,1105,806,0,0
-112,218,0,0,0,0,0,0,0,0,0,-1,1112,806,0,0
-105,218,0,0,0,0,0,0,0,0,0,-1,1119,806,0,0
-98,218,0,0,0,0,0,0,0,0,0,-1,1126,806,0,0
-91,218,0,0,0,0,0,0,0,0,0,-1,1133,806,0,0
-84,218,0,0,0,0,0,0,0,0,0,-1,1140,806,0,0
-77,218,0,0,0,0,0,0,0,0,0,-1,1147,806,0,0
-70,218,0,0,0,0,0,0,0,0,0,-1,1154,806,0,0
-63,218,0,0,0,0,0,0,0,0,0,-1,1161,806,0,0
-56,218,0,0,0,0,0,0,0,0,0,-1,1168,806,0,0
-49,218,0,0,0,0,0,0,0,0,0,-1,1175,806,0,0
-42,218,0,0,0,0,0,0,0,0,0,-1,1182,806,0,0
-35,218,0,0,0,0,0,0,0,0,0,-1,1189,806,0,0
-28,218,0,0,0,0,0,0,0,0,0,-1,1196,806,0,0
-21,218,0,0,0,0,0,0,0,0,0,-1,1203,806,0,0
-14,218,0,0,0,0,0,0,0,0,0,-1,1210,806,0,0
-7,218,0,0,0,0,0,0,0,0,0,-1,1217,806,0,0
0,218,0,0,0,0,0,0,0,0,0,-1,1224,806,0,0
7,218,0,0,0,0,0,0,0,0,0,-1,1231,806,0,0
14,218,0,0,0,0,0,0,0,0,0,-1,1238,806,0,0
21,218,0,0,0,0,0,0,0,0,0,-1,1245,806,0,0
28,218,0,0,0,0,0,0,0,0,0,-1,1252,806,0,0
35,218,0,0,0,0,0,0,0,0,0,-1,1259,806,0,0
42,218,0,0,0,0,0,0,0,0,0,-1,1266,806,0,0
49,218,0,0,0,0,0,0,0,0,0,-1,1273,806,0,0
56,218,0,0,0,0,0,0,0,0,0,-1,1280,806,0,0
63,218,0,0,0,0,0,0,0,0,0,-1,1287,806,0,0
70,218,0,0,0,0,0,0,0,0,0,-1,1294,806,0,0
77,218,0,0,0,0,0,0,0,0,0,-1,1301,806,0,0
84,218,0,0,0,0,0,0,0,0,0,-1,1308,806,0,0
91,218,0,0,0,0,0,0,0,0,0,-1,1315,806,0,0
98,218,0,0,0,0,0,0,0,0,0,-1,1322,806,0,0
105,218,0,0,0,0,0,0,0,0,0,-1,1329,806,0,0
112,218,0,0,0,0,0,0,0,0,0,-1,1336,806,0,0
119,218,0,0,0,0,0,0,0,0,0,-1,1343,806,0,0
126,218,0,0,0,0,0,0,0,0,0,-1,1350,806,0,0
133,218,0,0,0,0,0,0,0,0,0,-1,1357,806,0,0
140,218,0,0,0,0,0,0,0,0,0,-1,1364,806,0,0
147,218,0,0,0,0,0,0,0,0,0,-1,1371,806,0,0
154,218,0,0,0,0,0,0,0,0,0,-1,1378,806,0,0
161,218,0,0,0,0,0,0,0,0,0,-1,1385,806,0,0
168,218,0,0,0,0,0,0,0,0,0,-1,1392,806,0,0
175,218,0,0,0,0,0,0,0,0,0,-1,1399,806,0,0
182,218,0,0,0,0,0,0,0,0,0,-1,1406,806,0,0
189,218,0,0,0,0,0,0,0,0,0,-1,1413,806,0,0
196,218,0,0,0,0,0,0,0,0,0,-1,1420,806,0,0
203,218,0,0,0,0,0,0,0,0,0,-1,1427,806,0,0
210,218,0,0,0,0,0,0,0,0,0,-1,1434,806,0,0
217,218,0,0,0,0,0,0,0,0,0,-1,1441,806,0,0
224,218,0,0,0,0,0,0,0,0,0,-1,1448,806,0,0
231,218,0,0,0,0,0,0,0,0,0,-1,1455,806,0,0
238,218,0,0,0,0,0,0,0,0,0,-1,1462,806,0,0
245,218,0,0,0,0,0,0,0,0,0,-1,1469,806,0,0
252,218,0,0,0,0,0,0,0,0,0,-1,1476,806,0,0
259,218,0,0,0,0,0,0,0,0,0,-1,1483,806,0,0
266,218,0,0,0,0,0,0,0,0,0,-1,1490,806,0,0
273,218,0,0,0,0,0,0,0,0,0,-1,1497,806,0,0
280,218,0,0,0,0,0,0,0,0,0,-1,1504,806,0,0
287,218,0,0,0,0,0,0,0,0,0,-1,1511,806,0,0
294,218,0,0,0,0,0,0,0,0,0,-1,1518,806,0,0
301,218,0,0,0,0,0,0,0,0,0,-1,1525,806,0,0
308,218,0,0,0,0,0,0,0,0,0,-1,1532,806,0,0
315,218,0,0,0,0,0,0,0,0,0,-1,1539,806,0,0
322,218,0,0,0,0,0,0,0,0,0,-1,1546,806,0,0
329,218,0,0,0,0,0,0,0,0,0,-1,1553,806,0,0
336,218,0,0,0,0,0,0,0,0,0,-1,1560,806,0,0
343,218,0,0,0,0,0,0,0,0,0,-1,1567,806,0,0
350,218,0,0,0,0,0,0,0,0,0,-1,1574,806,0,0
357,218,0,0,0,0,0,0,0,0,0,-1,1581,806,0,0
364,218,0,0,0,0,0,0,0,0,0,-1,1588,806,0,0
371,218,0,0,0,0,0,0,0,0,0,-1,1595,806,0,0
378,218,0,0,0,0,0,0,0,0,0,-1,1602,806,0,0
385,218,0,0,0,0,0,0,0,0,0,-1,1609,806,0,0
392,218,0,0,0,0,0,0,0,0,0,-1,1616,806,0,0
399,218,0,0,0,0,0,0,0,0,0,-1,1623,806,0,0
406,218,0,0,0,0,0,0,0,0,0,-1,1630,806,0,0
413,218,0,0,0,0,0,0,0,0,0,-1,1637,806,0,0
420,218,0,0,0,0,0,0,0,0,0,-1,1644,806,0,0
427,218,0,0,0,0,0,0,0,0,0,-1,1651,806,0,0
434,218,0,0,0,0,0,0,0,0,0,-1,1658,806,0,0
441,218,0,0,0,0,0,0,0,0,0,-1,1665,806,0,0
448,218,0,0,0,0,0,0,0,0,0,-1,1672,806,0,0
455,218,0,0,0,0,0,0,0,0,0,-1,1679,806,0,0
462,218,0,0,0,0,0,0,0,0,0,-1,1686,806,0,0
469,218,0,0,0,0,0,0,0,0,0,-1,1693,806,0,0
476,218,0,0,0,0,0,0,0,0,0,-1,1700,806,0,0
483,218,0,0,0,0,0,0,0,0,0,-1,1707,806,0,0
490,218,0,0,0,0,0,0,0,0,0,-1,1714,806,0,0
497,218,0,0,0,0,0,0,0,0,0,-1,1721,806,0,0
504,218,0,0,0,0,0,0,0,0,0,-1,1728,806,0,0
511,218,0,0,0,0,0,0,0,0,0,-1,1735,806,0,0
518,218,0,0,0,0,0,0,0,0,0,-1,1742,806,0,0
525,218,0,0,0,0,0,0,0,0,0,-1,1749,806,0,0
532,218,0,0,0,0,0,0,0,0,0,-1,1756,806,0,0
539,218,0,0,0,0,0,0,0,0,0,-1,1763,806,0,0
546,218,0,0,0,0,0,0,0,0,0,-1,1770,806,0,0
553,218,0,0,0,0,0,0,0,0,0,-1,1777,806,0,0
560,218,0,0,0,0,0,0,0,0,0,-1,1784,806,0,0
567,218,0,0,0,0,0,0,0,0,0,-1,1791,806,0,0
574,218,0,0,0,0,0,0,0,0,0,-1,1798,806,0,0
581,218,0,0,0,0,0,0,0,0,0,-1,1805,806,0,0
588,218,0,0,0,0,0,0,0,0,0,-1,1812,806,0,0
595,218,31.1377,2.89325,-0.00101012,0.00769335,0.00136608,0.00790273,-0.00121951,1.41871,0.0057185,0.0366847,1819,806,31.1377,-2.89323
602,218,31.0354,2.92047,0.00155483,0.00432874,0.00420172,0.0073665,-0.00148293,0.944814,0.0054727,0.0355651,1826,806,31.0354,-2.92049
609,218,31.0573,3.02972,0.00315788,0.00160991,0.0061433,0.00857576,-0.00380797,0.722734,0.00732425,0.03326,1833,806,31.0572,-3.02974
616,218,30.979,3.14734,0.00349389,-0.000494602,0.00669363,0.00848403,-0.00548475,0.640619,0.00812661,0.0322835,1840,806,30.979,-3.14733
623,218,30.9968,3.0871,0.00316253,-0.00188851,0.00639059,0.00750853,-0.00623452,0.59722,0.00794591,0.0359932,1847,806,30.9968,-3.08707
630,218,31.1685,3.12445,0.00259141,-0.00277955,0.00557653,0.00609539,-0.00628354,0.561001,0.00714725,0.0396129,1854,806,31.1685,-3.12444
637,218,31.3209,3.17084,0.00196913,-0.00312141,0.00456676,0.00465202,-0.00580431,0.531165,0.00604917,0.0420156,1861,806,31.3209,-3.17084
644,218,31.1497,2.94812,0.00128757,-0.00343102,0.00364599,0.00327103,-0.00541448,0.498234,0.00506523,0.0459255,1868,806,31.1497,-2.94812
651,218,24.2634,0.856995,0,0,0,0,0,0,0,-1,1875,806,24.2635,-0.857009
658,218,23.7794,1.52362,0,0,0,0,0,0,0,-1,1882,806,23.7794,-1.52363
665,218,23.4594,1.362,-0.000164285,-0.00327759,0.000793573,2.63244e-05,-0.0034682,0.235726,0.00232096,0.0405547,1889,806,23.4593,-1.36201
672,218,23.2823,1.65674,-0.0002123,-0.00290072,0.00018962,-0.000198992,-0.00291403,0.07007,0.00187987,0.0140067,1896,806,23.2823,-1.65675
679,218,23.2303,1.98566,-0.000588108,-0.00218455,-0.000647373,-0.000358589,-0.00241406,-0.340713,0.00150416,0.0120098,1903,806,23.2303,-1.98564
686,218,23.2169,2.31763,-0.000795012,-0.00152716,-0.00112044,1.76358e-05,-0.00233981,-0.627502,0.00156578,0.0116371,1910,806,23.2169,-2.31762
693,218,23.2263,2.66687,-0.000347148,-0.00129907,-0.00090326,0.000197881,-0.0018441,-0.542917,0.00130039,0.0118415,1917,806,23.2264,-2.66685
700,218,23.2108,3.00555,0.000440862,-0.000186205,-0.000113229,0.000460682,-0.000206024,-0.173281,0.000394171,0.009883,1924,806,23.2108,-3.00557
707,218,23.17,3.34174,0.00151882,0.00165699,0.00114307,0.00273306,0.000442746,0.815582,0.00169386,0.00776515,1931,806,23.1701,-3.34171
714,218,23.179,3.69055,0.00315957,0.00444168,0.00330988,0.00717201,0.000429241,0.881053,0.00464488,0.0094227,1938,806,23.179,-3.69057
721,218,23.2087,4.01892,0.00512268,0.00981948,0.00664671,0.0145205,0.000421704,0.955212,0.00954284,0.0134476,1945,806,23.2087,-4.01893
728,218,23.2075,4.34686,0.00747947,0.0168413,0.0106073,0.0237546,0.000566143,0.993192,0.0156511,0.0222735,1952,806,23.2075,-4.34684
735,218,23.2366,4.81995,0.010425,0.0261943,0.0161547,0.0362859,0.000333503,1.01243,0.0240802,0.0388023,1959,806,23.2366,-4.81993
742,218,23.2704,5.33435,0,0,0,0,0,0,0,-1,1966,806,23.2704,-5.33436
749,218,22.7003,4.69598,0,0,0,0,0,0,0,-1,1973,806,22.7004,-4.69601
756,218,22.9272,4.71753,0,0,0,0,0,0,0,-1,1980,806,22.9272,-4.71754
763,218,23.1135,4.65381,0,0,0,0,0,0,0,-1,1987,806,23.1135,-4.65383
770,218,0,0,0,0,0,0,0,0,0,-1,1994,806,0,0
777,218,0,0,0,0,0,0,0,0,0,-1,2001,806,0,0
784,218,0,0,0,0,0,0,0,0,0,-1,2008,806,0,0
791,218,0,0,0,0,0,0,0,0,0,-1,2015,806,0,0
798,218,0,0,0,0,0,0,0,0,0,-1,2022,806,0,0
805,218,0,0,0,0,0,0,0,0,0,-1,2029,806,0,0
812,218,0,0,0,0,0,0,0,0,0,-1,2036,806,0,0
-700,211,0,0,0,0,0,0,0,0,0,-1,524,813,0,0
-693,211,0,0,0,0,0,0,0,0,0,-1,531,813,0,0
-686,211,0,0,0,0,0,0,0,0,0,-1,538,813,0,0
-679,211,0,0,0,0,0,0,0,0,0,-1,545,813,0,0
-672,211,0,0,0,0,0,0,0,0,0,-1,552,813,0,0
-665,211,0,0,0,0,0,0,0,0,0,-1,559,813,0,0
-658,211,0,0,0,0,0,0,0,0,0,-1,566,813,0,0
-651,211,-17.1147,5.11066,-0.0625589,0.0332402,0.00324628,0.0333501,-0.0626688,1.53696,0.0562914,0.0435748,573,813,-17.1147,-5.11067
-644,211,-18.1319,4.82129,-0.0513673,0.0332413,0.00715796,0.0338426,-0.0519686,1.48699,0.0499102,0.0425202,580,813,-18.1319,-4.82131
-637,211,-19.2527,4.62207,0,0,0,0,0,0,0,-1,587,813,-19.2528,-4.62205
-630,211,-15.3733,5.23035,0,0,0,0,0,0,0,-1,594,813,-15.3733,-5.23037
-623,211,-16.4257,4.25769,0,0,0,0,0,0,0,-1,601,813,-16.4256,-4.2577
-616,211,-15.45,2.73993,0,0,0,0,0,0,0,-1,608,813,-15.45,-2.73993
-609,211,-15.4584,2.43195,-0.0153033,0.0164339,0.0070203,0.0179174,-0.0167869,1.36254,0.0200401,0.0383989,615,813,-15.4585,-2.43195
-602,211,-15.4747,2.13812,-0.0110327,0.012231,0.00565067,0.0135309,-0.0123326,1.34469,0.0149377,0.0193976,622,813,-15.4747,-2.13814
-595,211,-15.5263,1.8725,-0.00673922,0.00948877,0.00517688,0.0109996,-0.00825004,1.28684,0.0111515,0.0106714,629,813,-15.5263,-1.87252
-588,211,-15.5361,1.56799,-0.00423502,0.00588412,0.00421848,0.00741202,-0.00576292,1.2233,0.0076264,0.0113998,636,813,-15.5362,-1.56798
-581,211,-15.5442,1.25934,-0.00296326,0.0026603,0.00254488,0.00364095,-0.00394391,1.20299,0.00438029,0.0115788,643,813,-15.5442,-1.25935
-574,211,-15.5661,0.949158,-0.00172621,0.000603879,0.00214718,0.00188172,-0.00300405,1.03397,0.0028455,0.013288,650,813,-15.5661,-0.949148
-567,211,-15.5272,0.611572,-0.00114426,-0.000409773,0.00134138,0.000613731,-0.00216777,0.919014,0.00168738,0.0195485,657,813,-15.5271,-0.611573
-560,211,-15.5308,0.327209,-0.00114401,-0.00108678,0.000835108,-0.000279796,-0.00195099,0.802523,0.00121815,0.0213369,664,813,-15.5309,-0.3272
-553,211,-15.5118,-0.0213623,-0.00143846,-0.00158973,0.00105142,-0.00045996,-0.00256823,0.749493,0.00158129,0.0207442,671,813,-15.5118,0.0213586
-546,211,-15.6644,-0.253845,-0.00186845,-0.00204853,0.000923721,-0.00103039,-0.00288659,0.736814,0.00168915,0.030489,678,813,-15.6644,0.253871
-539,211,-15.6135,-0.606323,-0.00251938,-0.00221445,0.00101812,-0.00133744,-0.00339639,0.859721,0.0019756,0.0228289,685,813,-15.6135,0.606342
-532,211,-15.4775,-1.10065,0,0,0,0,0,0,0,-1,692,813,-15.4774,1.10063
-525,211,-14.3009,2.3233,0,0,0,0,0,0,0,-1,699,813,-14.3009,-2.3233
-518,211,-22.7136,0.444824,0,0,0,0,0,0,0,-1,706,813,-22.7136,-0.444827
-511,211,-22.4728,0.770508,0,0,0,0,0,0,0,-1,713,813,-22.4728,-0.77051
-504,211,-21.9611,1.32758,0,0,0,0,0,0,0,-1,720,813,-21.9611,-1.32756
-497,211,-22.0864,1.22125,0.000104889,0.00380347,-0.000334316,0.00383344,7.49131e-05,-1.48137,0.00253103,0.0467594,727,813,-22.0864,-1.22128
-490,211,-22.1346,1.15601,0.00233115,0.00608832,-0.00114415,0.00640931,0.00201015,-1.29727,0.00378513,0.0342351,734,813,-22.1347,-1.15601
-483,211,-22.0308,1.27502,0.00582325,0.00853873,-0.00228152,0.00983594,0.00452604,-1.0538,0.00568479,0.0326724,741,813,-22.0308,-1.27502
-476,211,-21.9656,1.34686,0.0104049,0.0104446,-0.00336326,0.0137881,0.00706145,-0.788349,0.00796134,0.0355569,748,813,-21.9656,-1.34689
-469,211,0,0,0,0,0,0,0,0,0,-1,755,813,0,0
-462,211,0,0,0,0,0,0,0,0,0,-1,762,813,0,0
-455,211,0,0,0,0,0,0,0,0,0,-1,769,813,0,0
-448,211,0,0,0,0,0,0,0,0,0,-1,776,813,0,0
-441,211,0,0,0,0,0,0,0,0,0,-1,783,813,0,0
-434,211,0,0,0,0,0,0,0,0,0,-1,790,813,0,0
-427,211,0,0,0,0,0,0,0,0,0,-1,797,813,0,0
-420,211,0,0,0,0,0,0,0,0,0,-1,804,813,0,0
-413,211,0,0,0,0,0,0,0,0,0,-1,811,813,0,0
-406,211,0,0,0,0,0,0,0,0,0,-1,818,813,0,0
-399,211,0,0,0,0,0,0,0,0,0,-1,825,813,0,0
-392,211,0,0,0,0,0,0,0,0,0,-1,832,813,0,0
-385,211,0,0,0,0,0,0,0,0,0,-1,839,813,0,0
-378,211,0,0,0,0,0,0,0,0,0,-1,846,813,0,0
-371,211,0,0,0,0,0,0,0,0,0,-1,853,813,0,0
-364,211,0,0,0,0,0,0,0,0,0,-1,860,813,0,0
-357,211,0,0,0,0,0,0,0,0,0,-1,867,813,0,0
-350,211,0,0,0,0,0,0,0,0,0,-1,874,813,0,0
-343,211,0,0,0,0,0,0,0,0,0,-1,881,813,0,0
-336,211,0,0,0,0,0,0,0,0,0,-1,888,813,0,0
-329,211,0,0,0,0,0,0,0,0,0,-1,895,813,0,0
-322,211,0,0,0,0,0,0,0,0,0,-1,902,813,0,0
-315,211,0,0,0,0,0,0,0,0,0,-1,909,813,0,0
-308,211,0,0,0,0,0,0,0,0,0,-1,916,813,0,0
-301,211,0,0,0,0,0,0,0,0,0,-1,923,813,0,0
-294,211,0,0,0,0,0,0,0,0,0,-1,930,813,0,0
-287,211,0,0,0,0,0,0,0,0,0,-1,937,813,0,0
-280,211,0,0,0,0,0,0,0,0,0,-1,944,813,0,0
-273,211,0,0,0,0,0,0,0,0,0,-1,951,813,0,0
-266,211,0,0,0,0,0,0,0,0,0,-1,958,813,0,0
-259,211,0,0,0,0,0,0,0,0,0,-1,965,813,0,0
-252,211,0,0,0,0,0,0,0,0,0,-1,972,813,0,0
-245,211,0,0,0,0,0,0,0,0,0,-1,979,813,0,0
-238,211,0,0,0,0,0,0,0,0,0,-1,986,813,0,0
-231,211,0,0,0,0,0,0,0,0,0,-1,993,813,0,0
-224,211,0,0,0,0,0,0,0,0,0,-1,1000,813,0,0
-217,211,0,0,0,0,0,0,0,0,0,-1,1007,813,0,0
-210,211,0,0,0,0,0,0,0,0,0,-1,1014,813,0,0
-203,211,0,0,0,0,0,0,0,0,0,-1,1021,813,0,0
-196,211,0,0,0,0,0,0,0,0,0,-1,1028,813,0,0
-189,211,0,0,0,0,0,0,0,0,0,-1,1035,813,0,0
-182,211,0,0,0,0,0,0,0,0,0,-1,1042,813,0,0
-175,211,0,0,0,0,0,0,0,0,0,-1,1049,813,0,0
-168,211,0,0,0,0,0,0,0,0,0,-1,1056,813,0,0
-161,211,0,0,0,0,0,0,0,0,0,-1,1063,813,0,0
-154,211,0,0,0,0,0,0,0,0,0,-1,1070,813,0,0
-147,211,0,0,0,0,0,0,0,0,0,-1,1077,813,0,0
-140,211,0,0,0,0,0,0,0,0,0,-1,1084,813,0,0
-133,211,0,0,0,0,0,0,0,0,0,-1,1091,813,0,0
-126,211,0,0,0,0,0,0,0,0,0,-1,1098,813,0,0
-119,211,0,0,0,0,0,0,0,0,0,-1,1105,813,0,0
-112,211,0,0,0,0,0,0,0,0,0,-1,1112,813,0,0
-105,211,0,0,0,0,0,0,0,0,0,-1,1119,813,0,0
-98,211,0,0,0,0,0,0,0,0,0,-1,1126,813,0,0
-91,211,0,0,0,0,0,0,0,0,0,-1,1133,813,0,0
-84,211,0,0,0,0,0,0,0,0,0,-1,1140,813,0,0
-77,211,0,0,0,0,0,0,0,0,0,-1,1147,813,0,0
-70,211,0,0,0,0,0,0,0,0,0,-1,1154,813,0,0
-63,211,0,0,0,0,0,0,0,0,0,-1,1161,813,0,0
-56,211,0,0,0,0,0,0,0,0,0,-1,1168,813,0,0
-49,211,0,0,0,0,0,0,0,0,0,-1,1175,813,0,0
-42,211,0,0,0,0,0,0,0,0,0,-1,1182,813,0,0
-35,211,0,0,0,0,0,0,0,0,0,-1,1189,813,0,0
-28,211,0,0,0,0,0,0,0,0,0,-1,1196,813,0,0
-21,211,0,0,0,0,0,0,0,0,0,-1,1203,813,0,0
-14,211,0,0,0,0,0,0,0,0,0,-1,1210,813,0,0
-7,211,0,0,0,0,0,0,0,0,0,-1,1217,813,0,0
0,211,0,0,0,0,0,0,0,0,0,-1,1224,813,0,0
7,211,0,0,0,0,0,0,0,0,0,-1,1231,813,0,0
14,211,0,0,0,0,0,0,0,0,0,-1,1238,813,0,0
21,211,0,0,0,0,0,0,0,0,0,-1,1245,813,0,0
28,211,0,0,0,0,0,0,0,0,0,-1,1252,813,0,0
35,211,0,0,0,0,0,0,0,0,0,-1,1259,813,0,0
42,211,0,0,0,0,0,0,0,0,0,-1,1266,813,0,0
49,211,0,0,0,0,0,0,0,0,0,-1,1273,813,0,0
56,211,0,0,0,0,0,0,0,0,0,-1,1280,813,0,0
63,211,0,0,0,0,0,0,0,0,0,-1,1287,813,0,0
70,211,0,0,0,0,0,0,0,0,0,-1,1294,813,0,0
77,211,0,0,0,0,0,0,0,0,0,-1,1301,813,0,0
84,211,0,0,0,0,0,0,0,0,0,-1,1308,813,0,0
91,211,0,0,0,0,0,0,0,0,0,-1,1315,813,0,0
98,211,0,0,0,0,0,0,0,0,0,-1,1322,813,0,0
105,211,0,0,0,0,0,0,0,0,0,-1,1329,813,0,0
112,211,0,0,0,0,0,0,0,0,0,-1,1336,813,0,0
119,211,0,0,0,0,0,0,0,0,0,-1,1343,813,0,0
126,211,0,0,0,0,0,0,0,0,0,-1,1350,813,0,0
133,211,0,0,0,0,0,0,0,0,0,-1,1357,813,0,0
140,211,0,0,0,0,0,0,0,0,0,-1,1364,813,0,0
147,211,0,0,0,0,0,0,0,0,0,-1,1371,813,0,0
154,211,0,0,0,0,0,0,0,0,0,-1,1378,813,0,0
161,211,0,0,0,0,0,0,0,0,0,-1,1385,813,0,0
168,211,0,0,0,0,0,0,0,0,0,-1,1392,813,0,0
175,211,0,0,0,0,0,0,0,0,0,-1,1399,813,0,0
182,211,0,0,0,0,0,0,0,0,0,-1,1406,813,0,0
189,211,0,0,0,0,0,0,0,0,0,-1,1413,813,0,0
196,211,0,0,0,0,0,0,0,0,0,-1,1420,813,0,0
203,211,0,0,0,0,0,0,0,0,0,-1,1427,813,0,0
210,211,0,0,0,0,0,0,0,0,0,-1,1434,813,0,0
217,211,0,0,0,0,0,0,0,0,0,-1,1441,813,0,0
224,211,0,0,0,0,0,0,0,0,0,-1,1448,813,0,0
231,211,0,0,0,0,0,0,0,0,0,-1,1455,813,0,0
238,211,0,0,0,0,0,0,0,0,0,-1,1462,813,0,0
245,211,0,0,0,0,0,0,0,0,0,-1,1469,813,0,0
252,211,0,0,0,0,0,0,0,0,0,-1,1476,813,0,0
259,211,0,0,0,0,0,0,0,0,0,-1,1483,813,0,0
266,211,0,0,0,0,0,0,0,0,0,-1,1490,813,0,0
273,211,0,0,0,0,0,0,0,0,0,-1,1497,813,0,0
280,211,0,0,0,0,0,0,0,0,0,-1,1504,813,0,0
287,211,0,0,0,0,0,0,0,0,0,-1,1511,813,0,0
294,211,0,0,0,0,0,0,0,0,0,-1,1518,813,0,0
301,211,0,0,0,0,0,0,0,0,0,-1,1525,813,0,0
308,211,0,0,0,0,0,0,0,0,0,-1,1532,813,0,0
315,211,0,0,0,0,0,0,0,0,0,-1,1539,813,0,0
322,211,0,0,0,0,0,0,0,0,0,-1,1546,813,0,0
329,211,0,0,0,0,0,0,0,0,0,-1,1553,813,0,0
336,211,0,0,0,0,0,0,0,0,0,-1,1560,813,0,0
343,211,0,0,0,0,0,0,0,0,0,-1,1567,813,0,0
350,211,0,0,0,0,0,0,0,0,0,-1,1574,813,0,0
357,211,0,0,0,0,0,0,0,0,0,-1,1581,813,0,0
364,211,0,0,0,0,0,0,0,0,0,-1,1588,813,0,0
371,211,0,0,0,0,0,0,0,0,0,-1,1595,813,0,0
378,211,0,0,0,0,0,0,0,0,0,-1,1602,813,0,0
385,211,0,0,0,0,0,0,0,0,0,-1,1609,813,0,0
392,211,0,0,0,0,0,0,0,0,0,-1,1616,813,0,0
399,211,0,0,0,0,0,0,0,0,0,-1,1623,813,0,0
406,211,0,0,0,0,0,0,0,0,0,-1,1630,813,0,0
413,211,0,0,0,0,0,0,0,0,0,-1,1637,813,0,0
420,211,0,0,0,0,0,0,0,0,0,-1,1644,813,0,0
427,211,0,0,0,0,0,0,0,0,0,-1,1651,813,0,0
434,211,0,0,0,0,0,0,0,0,0,-1,1658,813,0,0
441,211,0,0,0,0,0,0,0,0,0,-1,1665,813,0,0
448,211,0,0,0,0,0,0,0,0,0,-1,1672,813,0,0
455,211,0,0,0,0,0,0,0,0,0,-1,1679,813,0,0
462,211,0,0,0,0,0,0,0,0,0,-1,1686,813,0,0
469,211,0,0,0,0,0,0,0,0,0,-1,1693,813,0,0
476,211,0,0,0,0,0,0,0,0,0,-1,1700,813,0,0
483,211,0,0,0,0,0,0,0,0,0,-1,1707,813,0,0
490,211,0,0,0,0,0,0,0,0,0,-1,1714,813,0,0
497,211,0,0,0,0,0,0,0,0,0,-1,1721,813,0,0
504,211,0,0,0,0,0,0,0,0,0,-1,1728,813,0,0
511,211,0,0,0,0,0,0,0,0,0,-1,1735,813,0,0
518,211,0,0,0,0,0,0,0,0,0,-1,1742,813,0,0
525,211,0,0,0,0,0,0,0,0,0,-1,1749,813,0,0
532,211,0,0,0,0,0,0,0,0,0,-1,1756,813,0,0
539,211,0,0,0,0,0,0,0,0,0,-1,1763,813,0,0
546,211,0,0,0,0,0,0,0,0,0,-1,1770,813,0,0
553,211,0,0,0,0,0,0,0,0,0,-1,1777,813,0,0
560,211,0,0,0,0,0,0,0,0,0,-1,1784,813,0,0
567,211,0,0,0,0,0,0,0,0,0,-1,1791,813,0,0
574,211,0,0,0,0,0,0,0,0,0,-1,1798,813,0,0
581,211,0,0,0,0,0,0,0,0,0,-1,1805,813,0,0
588,211,0,0,0,0,0,0,0,0,0,-1,1812,813,0,0
595,211,31.1514,2.86981,-0.00332238,0.00739404,-0.000673752,0.00743623,-0.00336457,-1.50825,0.00638184,0.0392994,1819,813,31.1514,-2.86983
602,211,31.0566,2.93951,-0.000739859,0.00417,0.00234641,0.005111,-0.00168086,1.1894,0.00408458,0.0367675,1826,813,31.0566,-2.9395
609,211,31.1102,3.13824,0.0014171,0.00171009,0.00482178,0.0063876,-0.00326041,0.800585,0.00566698,0.0384268,1833,813,31.1103,-3.13824
616,211,31.068,3.2403,0.00243322,-0.000251431,0.00582366,0.00706725,-0.00488547,0.672129,0.00693912,0.0331358,1840,813,31.068,-3.24031
623,211,31.0009,3.13147,0.00263136,-0.001545,0.00581611,0.00672279,-0.00563644,0.613048,0.00714478,0.0322908,1847,813,31.0009,-3.13146
630,211,31.0765,3.0957,0.00236913,-0.00237363,0.0051508,0.00566822,-0.00567272,0.569668,0.00654769,0.0351654,1854,813,31.0766,-3.09568
637,211,31.1805,3.1012,0.00191656,-0.00270668,0.00422199,0.00441834,-0.00520846,0.53493,0.00556427,0.0389805,1861,813,31.1805,-3.10119
644,211,31.1229,2.89734,0.00138039,-0.00297479,0.00333109,0.00318251,-0.00477691,0.495906,0.00462601,0.0409332,1868,813,31.1229,-2.89734
651,211,31.045,2.77039,0,0,0,0,0,0,0,-1,1875,813,31.045,-2.77041
658,211,27.7909,1.52234,0,0,0,0,0,0,0,-1,1882,813,27.7909,-1.52234
665,211,24.0038,1.43634,0,0,0,0,0,0,0,-1,1889,813,24.0038,-1.43634
672,211,23.563,1.7403,-9.53964e-05,-0.00268808,0.000105877,-9.108e-05,-0.0026924,0.0407465,0.00176535,0.0256301,1896,813,23.563,-1.7403
679,211,23.5718,2.00024,-0.000604759,-0.00215718,-0.000658958,-0.000362771,-0.00239917,-0.35194,0.00149328,0.0152161,1903,813,23.5718,-2.00022
686,211,23.5624,2.34851,-0.00105087,-0.00170188,-0.00120817,-0.000125117,-0.00262763,-0.653813,0.00171157,0.0120104,1910,813,23.5624,-2.34852
693,211,23.5533,2.6651,-0.000848494,-0.00160327,-0.00116506,-1.22702e-06,-0.00245054,-0.628769,0.00163328,0.0119852,1917,813,23.5534,-2.66508
700,211,23.4673,2.97876,-0.000350128,-0.000606944,-0.000577143,0.000112719,-0.00106979,-0.675937,0.000753583,0.0138873,1924,813,23.4673,-2.97877
707,211,23.479,3.36005,0.000354805,0.00114111,0.000456374,0.00135032,0.000145589,1.14095,0.000855822,0.0210695,1931,813,23.4791,-3.36006
714,211,23.5371,3.74048,0.0016555,0.00393833,0.00243977,0.00549048,0.000103347,1.00419,0.00362636,0.021466,1938,813,23.5371,-3.7405
721,211,23.5505,4.01672,0.00334089,0.009368,0.0055946,0.0127091,-1.66241e-07,1.03244,0.00847276,0.0174342,1945,813,23.5505,-4.01673
728,211,23.5485,4.32306,0.0053925,0.0163899,0.0092855,0.0216827,9.97139e-05,1.05272,0.014422,0.016149,1952,813,23.5485,-4.32308
735,211,23.5342,4.68689,0.00795553,0.0255296,0.0143932,0.033606,-0.000120893,1.05945,0.0224444,0.0242887,1959,813,23.5341,-4.6869
742,211,23.4042,4.96899,0,0,0,0,0,0,0,-1,1966,813,23.4042,-4.96898
749,211,24.3699,6.66052,0,0,0,0,0,0,0,-1,1973,813,24.3699,-6.66051
756,211,24.4216,7.29907,0,0,0,0,0,0,0,-1,1980,813,24.4216,-7.29908
763,211,24.5771,7.87158,0,0,0,0,0,0,0,-1,1987,813,24.5771,-7.87157
770,211,24.3923,4.11359,0,0,0,0,0,0,0,-1,1994,813,24.3923,-4.11359
777,211,0,0,0,0,0,0,0,0,0,-1,2001,813,0,0
784,211,0,0,0,0,0,0,0,0,0,-1,2008,813,0,0
791,211,0,0,0,0,0,0,0,0,0,-1,2015,813,0,0
798,211,0,0,0,0,0,0,0,0,0,-1,2022,813,0,0
805,211,0,0,0,0,0,0,0,0,0,-1,2029,813,0,0
812,211,0,0,0,0,0,0,0,0,0,-1,2036,813,0,0
-700,204,0,0,0,0,0,0,0,0,0,-1,524,820,0,0
-693,204,0,0,0,0,0,0,0,0,0,-1,531,820,0,0
-686,204,0,0,0,0,0,0,0,0,0,-1,538,820,0,0
-679,204,0,0,0,0,0,0,0,0,0,-1,545,820,0,0
-672,204,0,0,0,0,0,0,0,0,0,-1,552,820,0,0
-665,204,0,0,0,0,0,0,0,0,0,-1,559,820,0,0
-658,204,0,0,0,0,0,0,0,0,0,-1,566,820,0,0
-651,204,-16.5263,5.37805,-0.0535886,0.04311,-0.00586193,0.0434641,-0.0539427,-1.51047,0.0563462,0.0437499,573,820,-16.5263,-5.37804
-644,204,-17.4273,4.96649,-0.0431545,0.0410896,-0.00291166,0.0411901,-0.043255,-1.53629,0.0487593,0.0439266,580,820,-17.4273,-4.96652
-637,204,-15.3364,4.89813,0,0,0,0,0,0,0,-1,587,820,-15.3364,-4.89815
-630,204,-15.5767,4.74432,-0.0276334,0.0325747,0.0010076,0.0325916,-0.0276502,1.55407,0.0348196,0.0445544,594,820,-15.5766,-4.74435
-623,204,-16.2021,3.6601,-0.021732,0.0274294,0.00204354,0.0275142,-0.0218168,1.52932,0.0285445,0.0454554,601,820,-16.2021,-3.66012
-616,204,-15.7277,2.69214,0,0,0,0,0,0,0,-1,608,820,-15.7277,-2.69211
-609,204,-15.7583,2.42993,-0.0124222,0.0171105,0.00278754,0.0173713,-0.012683,1.47751,0.0174221,0.0320344,615,820,-15.7583,-2.42992
-602,204,-15.806,2.16376,-0.00895098,0.012392,0.00250716,0.0126826,-0.00924154,1.45542,0.0127098,0.0144272,622,820,-15.806,-2.16376
-595,204,-15.8428,1.87219,-0.00539892,0.00929457,0.00285382,0.00982938,-0.00593373,1.38554,0.00919301,0.0143119,629,820,-15.8428,-1.87221
-588,204,-15.8596,1.54498,-0.00342798,0.00550695,0.00260011,0.00620851,-0.00412954,1.30725,0.00600877,0.0126345,636,820,-15.8596,-1.54501
-581,204,-15.8652,1.23181,-0.00240626,0.00222103,0.00166832,0.00275979,-0.00294503,1.25843,0.00329426,0.0126479,643,820,-15.8652,-1.23182
-574,204,-15.8866,0.94574,-0.00139543,0.000284231,0.00151794,0.00117918,-0.00229038,1.03807,0.00203711,0.0137512,650,820,-15.8866,-0.945725
-567,204,-15.8627,0.64386,-0.00099255,-0.000561512,0.000874755,0.000123882,-0.00167794,0.906181,0.00116213,0.0135719,657,820,-15.8627,-0.643875
-560,204,-15.8543,0.295654,-0.000991961,-0.00107951,0.00038655,-0.000646716,-0.00142476,0.729015,0.000823748,0.013283,664,820,-15.8543,-0.295648
-553,204,-15.8954,0.0217896,-0.00124549,-0.00136265,0.000506816,-0.000793879,-0.00181426,0.727864,0.00105018,0.0130093,671,820,-15.8954,-0.0217873
-546,204,-15.9494,-0.205994,-0.00157958,-0.00169737,0.000273193,-0.001359,-0.00191794,0.679228,0.00113899,0.0204583,678,820,-15.9494,0.205996
-539,204,-15.9053,-0.545959,-0.00214154,-0.00177151,0.000286442,-0.00161553,-0.00229753,1.07215,0.00136249,0.0379133,685,820,-15.9053,0.545964
-532,204,-15.7739,-0.998962,0,0,0,0,0,0,0,-1,692,820,-15.7739,0.998975
-525,204,-21.0093,0.724609,0,0,0,0,0,0,0,-1,699,820,-21.0094,-0.724609
-518,204,-22.0261,1.23639,0,0,0,0,0,0,0,-1,706,820,-22.0261,-1.23637
-511,204,-22.2047,1.03638,-0.00184695,0.000783403,-0.0002232,0.000802208,-0.00186576,-1.48674,0.00158062,0.0460034,713,820,-22.2047,-1.03638
-504,204,-21.842,1.47809,-0.00099393,0.00200197,-0.000458139,0.00207046,-0.00106242,-1.42239,0.00183972,0.0458615,720,820,-21.842,-1.47809
-497,204,-21.99,1.32074,0.000457485,0.00359018,-0.000816024,0.00379,0.000257667,-1.33065,0.0024453,0.0382859,727,820,-21.99,-1.32075
-490,204,-22.1881,1.04114,0,0,0,0,0,0,0,-1,734,820,-22.1881,-1.04112
-483,204,-21.961,1.17236,0,0,0,0,0,0,0,-1,741,820,-21.961,-1.17236
-476,204,0,0,0,0,0,0,0,0,0,-1,748,820,0,0
-469,204,0,0,0,0,0,0,0,0,0,-1,755,820,0,0
-462,204,0,0,0,0,0,0,0,0,0,-1,762,820,0,0
-455,204,0,0,0,0,0,0,0,0,0,-1,769,820,0,0
-448,204,0,0,0,0,0,0,0,0,0,-1,776,820,0,0
-441,204,0,0,0,0,0,0,0,0,0,-1,783,820,0,0
-434,204,0,0,0,0,0,0,0,0,0,-1,790,820,0,0
-427,204,0,0,0,0,0,0,0,0,0,-1,797,820,0,0
-420,204,0,0,0,0,0,0,0,0,0,-1,804,820,0,0
-413,204,0,0,0,0,0,0,0,0,0,-1,811,820,0,0
-406,204,0,0,0,0,0,0,0,0,0,-1,818,820,0,0
-399,204,0,0,0,0,0,0,0,0,0,-1,825,820,0,0
-392,204,0,0,0,0,0,0,0,0,0,-1,832,820,0,0
-385,204,0,0,0,0,0,0,0,0,0,-1,839,820,0,0
-378,204,0,0,0,0,0,0,0,0,0,-1,846,820,0,0
-371,204,0,0,0,0,0,0,0,0,0,-1,853,820,0,0
-364,204,0,0,0,0,0,0,0,0,0,-1,860,820,0,0
-357,204,0,0,0,0,0,0,0,0,0,-1,867,820,0,0
-350,204,0,0,0,0,0,0,0,0,0,-1,874,820,0,0
-343,204,0,0,0,0,0,0,0,0,0,-1,881,820,0,0
-336,204,0,0,0,0,0,0,0,0,0,-1,888,820,0,0
-329,204,0,0,0,0,0,0,0,0,0,-1,895,820,0,0
-322,204,0,0,0,0,0,0,0,0,0,-1,902,820,0,0
-315,204,0,0,0,0,0,0,0,0,0,-1,909,820,0,0
-308,204,0,0,0,0,0,0,0,0,0,-1,916,820,0,0
-301,204,0,0,0,0,0,0,0,0,0,-1,923,820,0,0
-294,204,0,0,0,0,0,0,0,0,0,-1,930,820,0,0
-287,204,0,0,0,0,0,0,0,0,0,-1,937,820,0,0
-280,204,0,0,0,0,0,0,0,0,0,-1,944,820,0,0
-273,204,0,0,0,0,0,0,0,0,0,-1,951,820,0,0
-266,204,0,0,0,0,0,0,0,0,0,-1,958,820,0,0
-259,204,0,0,0,0,0,0,0,0,0,-1,965,820,0,0
-252,204,0,0,0,0,0,0,0,0,0,-1,972,820,0,0
-245,204,0,0,0,0,0,0,0,0,0,-1,979,820,0,0
-238,204,0,0,0,0,0,0,0,0,0,-1,986,820,0,0
-231,204,0,0,0,0,0,0,0,0,0,-1,993,820,0,0
-224,204,0,0,0,0,0,0,0,0,0,-1,1000,820,0,0
-217,204,0,0,0,0,0,0,0,0,0,-1,1007,820,0,0
-210,204,0,0,0,0,0,0,0,0,0,-1,1014,820,0,0
-203,204,0,0,0,0,0,0,0,0,0,-1,1021,820,0,0
-196,204,0,0,0,0,0,0,0,0,0,-1,1028,820,0,0
-189,204,0,0,0,0,0,0,0,0,0,-1,1035,820,0,0
-182,204,0,0,0,0,0,0,0,0,0,-1,1042,820,0,0
-175,204,0,0,0,0,0,0,0,0,0,-1,1049,820,0,0
-168,204,0,0,0,0,0,0,0,0,0,-1,1056,820,0,0
-161,204,0,0,0,0,0,0,0,0,0,-1,1063,820,0,0
-154,204,0,0,0,0,0,0,0,0,0,-1,1070,820,0,0
-147,204,0,0,0,0,0,0,0,0,0,-1,1077,820,0,0
-140,204,0,0,0,0,0,0,0,0,0,-1,1084,820,0,0
-133,204,0,0,0,0,0,0,0,0,0,-1,1091,820,0,0
-126,204,0,0,0,0,0,0,0,0,0,-1,1098,820,0,0
-119,204,0,0,0,0,0,0,0,0,0,-1,1105,820,0,0
-112,204,0,0,0,0,0,0,0,0,0,-1,1112,820,0,0
-105,204,0,0,0,0,0,0,0,0,0,-1,1119,820,0,0
-98,204,0,0,0,0,0,0,0,0,0,-1,1126,820,0,0
-91,204,0,0,0,0,0,0,0,0,0,-1,1133,820,0,0
-84,204,0,0,0,0,0,0,0,0,0,-1,1140,820,0,0
-77,204,0,0,0,0,0,0,0,0,0,-1,1147,820,0,0
-70,204,0,0,0,0,0,0,0,0,0,-1,1154,820,0,0
-63,204,0,0,0,0,0,0,0,0,0,-1,1161,820,0,0
-56,204,0,0,0,0,0,0,0,0,0,-1,1168,820,0,0
-49,204,0,0,0,0,0,0,0,0,0,-1,1175,820,0,0
-42,204,0,0,0,0,0,0,0,0,0,-1,1182,820,0,0
-35,204,0,0,0,0,0,0,0,0,0,-1,1189,820,0,0
-28,204,0,0,0,0,0,0,0,0,0,-1,1196,820,0,0
-21,204,0,0,0,0,0,0,0,0,0,-1,1203,820,0,0
-14,204,0,0,0,0,0,0,0,0,0,-1,1210,820,0,0
-7,204,0,0,0,0,0,0,0,0,0,-1,1217,820,0,0
0,204,0,0,0,0,0,0,0,0,0,-1,1224,820,0,0
7,204,0,0,0,0,0,0,0,0,0,-1,1231,820,0,0
14,204,0,0,0,0,0,0,0,0,0,-1,1238,820,0,0
21,204,0,0,0,0,0,0,0,0,0,-1,1245,820,0,0
28,204,0,0,0,0,0,0,0,0,0,-1,1252,820,0,0
35,204,0,0,0,0,0,0,0,0,0,-1,1259,820,0,0
42,204,0,0,0,0,0,0,0,0,0,-1,1266,820,0,0
49,204,0,0,0,0,0,0,0,0,0,-1,1273,820,0,0
56,204,0,0,0,0,0,0,0,0,0,-1,1280,820,0,0
63,204,0,0,0,0,0,0,0,0,0,-1,1287,820,0,0
70,204,0,0,0,0,0,0,0,0,0,-1,1294,820,0,0
77,204,0,0,0,0,0,0,0,0,0,-1,1301,820,0,0
84,204,0,0,0,0,0,0,0,0,0,-1,1308,820,0,0
91,204,0,0,0,0,0,0,0,0,0,-1,1315,820,0,0
98,204,0,0,0,0,0,0,0,0,0,-1,1322,820,0,0
105,204,0,0,0,0,0,0,0,0,0,-1,1329,820,0,0
112,204,0,0,0,0,0,0,0,0,0,-1,1336,820,0,0
119,204,0,0,0,0,0,0,0,0,0,-1,1343,820,0,0
126,204,0,0,0,0,0,0,0,0,0,-1,1350,820,0,0
133,204,0,0,0,0,0,0,0,0,0,-1,1357,820,0,0
140,204,0,0,0,0,0,0,0,0,0,-1,1364,820,0,0
147,204,0,0,0,0,0,0,0,0,0,-1,1371,820,0,0
154,204,0,0,0,0,0,0,0,0,0,-1,1378,820,0,0
161,204,0,0,0,0,0,0,0,0,0,-1,1385,820,0,0
168,204,0,0,0,0,0,0,0,0,0,-1,1392,820,0,0
175,204,0,0,0,0,0,0,0,0,0,-1,1399,820,0,0
182,204,0,0,0,0,0,0,0,0,0,-1,1406,820,0,0
189,204,0,0,0,0,0,0,0,0,0,-1,1413,820,0,0
196,204,0,0,0,0,0,0,0,0,0,-1,1420,820,0,0
203,204,0,0,0,0,0,0,0,0,0,-1,1427,820,0,0
210,204,0,0,0,0,0,0,0,0,0,-1,1434,820,0,0
217,204,0,0,0,0,0,0,0,0,0,-1,1441,820,0,0
224,204,0,0,0,0,0,0,0,0,0,-1,1448,820,0,0
231,204,0,0,0,0,0,0,0,0,0,-1,1455,820,0,0
238,204,0,0,0,0,0,0,0,0,0,-1,1462,820,0,0
245,204,0,0,0,0,0,0,0,0,0,-1,1469,820,0,0
252,204,0,0,0,0,0,0,0,0,0,-1,1476,820,0,0
259,204,0,0,0,0,0,0,0,0,0,-1,1483,820,0,0
266,204,0,0,0,0,0,0,0,0,0,-1,1490,820,0,0
273,204,0,0,0,0,0,0,0,0,0,-1,1497,820,0,0
280,204,0,0,0,0,0,0,0,0,0,-1,1504,820,0,0
287,204,0,0,0,0,0,0,0,0,0,-1,1511,820,0,0
294,204,0,0,0,0,0,0,0,0,0,-1,1518,820,0,0
301,204,0,0,0,0,0,0,0,0,0,-1,1525,820,0,0
308,204,0,0,0,0,0,0,0,0,0,-1,1532,820,0,0
315,204,0,0,0,0,0,0,0,0,0,-1,1539,820,0,0
322,204,0,0,0,0,0,0,0,0,0,-1,1546,820,0,0
329,204,0,0,0,0,0,0,0,0,0,-1,1553,820,0,0
336,204,0,0,0,0,0,0,0,0,0,-1,1560,820,0,0
343,204,0,0,0,0,0,0,0,0,0,-1,1567,820,0,0
350,204,0,0,0,0,0,0,0,0,0,-1,1574,820,0,0
357,204,0,0,0,0,0,0,0,0,0,-1,1581,820,0,0
364,204,0,0,0,0,0,0,0,0,0,-1,1588,820,0,0
371,204,0,0,0,0,0,0,0,0,0,-1,1595,820,0,0
378,204,0,0,0,0,0,0,0,0,0,-1,1602,820,0,0
385,204,0,0,0,0,0,0,0,0,0,-1,1609,820,0,0
392,204,0,0,0,0,0,0,0,0,0,-1,1616,820,0,0
399,204,0,0,0,0,0,0,0,0,0,-1,1623,820,0,0
406,204,0,0,0,0,0,0,0,0,0,-1,1630,820,0,0
413,204,0,0,0,0,0,0,0,0,0,-1,1637,820,0,0
420,204,0,0,0,0,0,0,0,0,0,-1,1644,820,0,0
427,204,0,0,0,0,0,0,0,0,0,-1,1651,820,0,0
434,204,0,0,0,0,0,0,0,0,0,-1,1658,820,0,0
441,204,0,0,0,0,0,0,0,0,0,-1,1665,820,0,0
448,204,0,0,0,0,0,0,0,0,0,-1,1672,820,0,0
455,204,0,0,0,0,0,0,0,0,0,-1,1679,820,0,0
462,204,0,0,0,0,0,0,0,0,0,-1,1686,820,0,0
469,204,0,0,0,0,0,0,0,0,0,-1,1693,820,0,0
476,204,0,0,0,0,0,0,0,0,0,-1,1700,820,0,0
483,204,0,0,0,0,0,0,0,0,0,-1,1707,820,0,0
490,204,0,0,0,0,0,0,0,0,0,-1,1714,820,0,0
497,204,0,0,0,0,0,0,0,0,0,-1,1721,820,0,0
504,204,0,0,0,0,0,0,0,0,0,-1,1728,820,0,0
511,204,0,0,0,0,0,0,0,0,0,-1,1735,820,0,0
518,204,0,0,0,0,0,0,0,0,0,-1,1742,820,0,0
525,204,0,0,0,0,0,0,0,0,0,-1,1749,820,0,0
532,204,0,0,0,0,0,0,0,0,0,-1,1756,820,0,0
539,204,0,0,0,0,0,0,0,0,0,-1,1763,820,0,0
546,204,0,0,0,0,0,0,0,0,0,-1,1770,820,0,0
553,204,0,0,0,0,0,0,0,0,0,-1,1777,820,0,0
560,204,0,0,0,0,0,0,0,0,0,-1,1784,820,0,0
567,204,0,0,0,0,0,0,0,0,0,-1,1791,820,0,0
574,204,0,0,0,0,0,0,0,0,0,-1,1798,820,0,0
581,204,0,0,0,0,0,0,0,0,0,-1,1805,820,0,0
588,204,0,0,0,0,0,0,0,0,0,-1,1812,820,0,0
595,204,0,0,0,0,0,0,0,0,0,-1,1819,820,0,0
602,204,31.0917,2.98352,-0.00184093,0.00331505,0.000861946,0.00345533,-0.00198121,1.40946,0.00317701,0.0367687,1826,820,31.0916,-2.98354
609,204,31.1627,3.12665,0.000237699,0.00152051,0.0033151,0.00425569,-0.00249748,0.880958,0.00394274,0.0415081,1833,820,31.1627,-3.12663
616,204,31.1799,3.13452,0.00151582,-1.35319e-05,0.00450913,0.00532466,-0.00382237,0.701405,0.00530472,0.0404548,1840,820,31.1799,-3.13451
623,204,31.0721,3.05762,0.00200468,-0.00105449,0.00473633,0.00545229,-0.0045021,0.629211,0.00575589,0.0289516,1847,820,31.0721,-3.05761
630,204,31.0308,3.07672,0.00194698,-0.00175189,0.00426007,0.00474174,-0.00454666,0.580608,0.00536306,0.0268101,1854,820,31.0307,-3.07669
637,204,31.1019,3.05554,0.00162306,-0.00206397,0.00347106,0.00370979,-0.0041507,0.541286,0.00454064,0.0330309,1861,820,31.1019,-3.05556
644,204,31.0645,3.05322,0.00122228,-0.0023253,0.00269939,0.00267851,-0.00378153,0.49472,0.00374778,0.038094,1868,820,31.0645,-3.0532
651,204,31.0244,3.07642,0,0,0,0,0,0,0,-1,1875,820,31.0244,-3.07641
658,204,30.2231,2.97046,0,0,0,0,0,0,0,-1,1882,820,30.2231,-2.97046
665,204,21.8292,1.51099,0,0,0,0,0,0,0,-1,1889,820,21.8292,-1.51099
672,204,23.8247,1.41217,0,0,0,0,0,0,0,-1,1896,820,23.8248,-1.41216
679,204,23.8661,1.86273,-0.000527336,-0.00195252,-0.000671281,-0.000260946,-0.00221891,-0.377778,0.00140042,0.029431,1903,820,23.8661,-1.86271
686,204,23.8851,2.33301,-0.000994693,-0.00167746,-0.00117466,-0.00011281,-0.00255934,-0.643983,0.0016699,0.0131819,1910,820,23.8851,-2.33301
693,204,23.8428,2.64709,-0.000882441,-0.00170232,-0.00124005,1.36723e-05,-0.00259843,-0.625761,0.00173686,0.0160084,1917,820,23.8428,-2.64709
700,204,23.8972,2.98645,-0.00053503,-0.000855797,-0.000815376,0.000135587,-0.00152641,-0.688289,0.00106568,0.0173131,1924,820,23.8972,-2.98648
707,204,23.8604,3.39343,-3.13613e-05,0.000732046,3.96292e-05,0.000734098,-3.3413e-05,1.51907,0.000500908,0.0157872,1931,820,23.8604,-3.39343
714,204,23.8931,3.78918,0.00106796,0.00345163,0.00185392,0.00446377,5.58186e-05,1.07107,0.00295742,0.0238556,1938,820,23.8931,-3.78921
721,204,23.881,4.01306,0.0025878,0.00875876,0.00479633,0.0113763,-2.97842e-05,1.07122,0.00759417,0.022162,1945,820,23.881,-4.01305
728,204,23.8574,4.31989,0.00447582,0.0156297,0.00824338,0.0200055,0.0001001,1.0828,0.0133037,0.0137188,1952,820,23.8574,-4.31989
735,204,23.8248,4.65381,0.00679517,0.0243676,0.0129134,0.0312004,-3.75938e-05,1.08412,0.0208128,0.0149872,1959,820,23.8249,-4.65384
742,204,24.0179,5.30365,0,0,0,0,0,0,0,-1,1966,820,24.0179,-5.30365
749,204,24.3632,6.18414,0.0137693,0.0534504,0.0277119,0.0676921,-0.000472415,1.09608,0.0452863,0.0450437,1973,820,24.3631,-6.18414
756,204,24.4884,6.88995,0.0186513,0.0757407,0.0383769,0.0950248,-0.000632692,1.10516,0.0635618,0.0470048,1980,820,24.4884,-6.88997
763,204,24.6742,7.52753,0.0244519,0.104472,0.0513213,0.129536,-0.00061243,1.11649,0.0865625,0.0470133,1987,820,24.6742,-7.52754
770,204,24.8187,8.23584,0,0,0,0,0,0,0,-1,1994,820,24.8187,-8.23582
777,204,0,0,0,0,0,0,0,0,0,-1,2001,820,0,0
784,204,0,0,0,0,0,0,0,0,0,-1,2008,820,0,0
791,204,0,0,0,0,0,0,0,0,0,-1,2015,820,0,0
798,204,0,0,0,0,0,0,0,0,0,-1,2022,820,0,0
805,204,0,0,0,0,0,0,0,0,0,-1,2029,820,0,0
812,204,0,0,0,0,0,0,0,0,0,-1,2036,820,0,0
-700,197,0,0,0,0,0,0,0,0,0,-1,524,827,0,0
-693,197,0,0,0,0,0,0,0,0,0,-1,531,827,0,0
-686,197,0,0,0,0,0,0,0,0,0,-1,538,827,0,0
-679,197,0,0,0,0,0,0,0,0,0,-1,545,827,0,0
-672,197,0,0,0,0,0,0,0,0,0,-1,552,827,0,0
-665,197,0,0,0,0,0,0,0,0,0,-1,559,827,0,0
-658,197,-16.0538,5.96198,0,0,0,0,0,0,0,-1,566,827,-16.0539,-5.96198
-651,197,-16.5366,5.56024,-0.0447407,0.04874,-0.00880323,0.0495618,-0.0455625,-1.47772,0.0549362,0.0482627,573,827,-16.5366,-5.56022
-644,197,-16.9677,5.04309,-0.0353549,0.0455277,-0.00713978,0.0461532,-0.0359803,-1.48342,0.0475409,0.0471736,580,827,-16.9677,-5.04311
-637,197,-15.9064,5.33057,-0.0279161,0.040604,-0.00530085,0.0410116,-0.0283238,-1.49404,0.0402536,0.0494726,587,827,-15.9064,-5.33055
-630,197,-16.0801,4.30359,-0.0219099,0.0348322,-0.00353153,0.0350512,-0.0221289,-1.50888,0.0332927,0.042628,594,827,-16.0801,-4.30361
-623,197,-16.1902,3.25098,-0.017047,0.0287622,-0.00196817,0.0288466,-0.0171314,-1.52794,0.0268311,0.0450702,601,827,-16.1903,-3.25099
-616,197,-15.9295,2.54028,-0.0130883,0.0228502,-0.000750922,0.0228659,-0.0131039,-1.54991,0.0210206,0.0433279,608,827,-15.9295,-2.54026
-609,197,-16.0329,2.36127,-0.00960392,0.0172659,0.000152232,0.0172668,-0.00960478,1.56513,0.0157231,0.0306033,615,827,-16.0329,-2.36128
-602,197,-16.155,2.14386,-0.00682342,0.0122236,0.00048507,0.012236,-0.00683576,1.54535,0.0111572,0.0160582,622,827,-16.155,-2.14387
-595,197,-16.1822,1.86139,-0.00401205,0.00886206,0.00133802,0.00899965,-0.00414964,1.46832,0.00776197,0.0175723,629,827,-16.1822,-1.86137
-588,197,-16.1921,1.54657,-0.00255406,0.00500274,0.00153833,0.0053039,-0.00285522,1.37747,0.00478086,0.0194186,636,827,-16.1922,-1.54656
-581,197,-16.1907,1.2243,-0.0017507,0.00178995,0.00111819,0.00211352,-0.00207427,1.28912,0.00241786,0.0117972,643,827,-16.1907,-1.22429
-574,197,-16.1855,0.952698,-0.000992863,2.14275e-05,0.00105761,0.000687203,-0.00165864,1.00896,0.00139254,0.0126896,650,827,-16.1855,-0.952721
-567,197,-16.1816,0.642151,-0.000752648,-0.000669175,0.000473998,-0.000235079,-0.00118674,0.829311,0.000725609,0.0139322,657,827,-16.1816,-0.642129
-560,197,-16.1874,0.347534,-0.000741452,-0.00104435,-1.9771e-05,-0.000740167,-0.00104563,-0.0649059,0.000620844,0.0155525,664,827,-16.1874,-0.347508
-553,197,-16.3203,0.0744019,-0.000953875,-0.00120062,4.4606e-05,-0.000946059,-0.00120844,0.173464,0.000733969,0.017822,671,827,-16.3203,-0.0743878
-546,197,-16.22,-0.222351,-0.00116945,-0.00145096,-0.000249071,-0.00102411,-0.0015963,-0.528206,0.000933852,0.0314201,678,827,-16.22,0.222371
-539,197,-16.2007,-0.463501,0,0,0,0,0,0,0,-1,685,827,-16.2008,0.463509
-532,197,-16.0519,0.0410156,0,0,0,0,0,0,0,-1,692,827,-16.0519,-0.0410415
-525,197,-21.6257,1.20715,0,0,0,0,0,0,0,-1,699,827,-21.6256,-1.20715
-518,197,-22.0131,1.24945,-0.0018271,-0.000157921,-0.000592504,3.10132e-05,-0.00201603,-1.26212,0.00135448,0.0458349,706,827,-22.0131,-1.24945
-511,197,-21.9882,1.27478,-0.00146578,0.000605246,-0.00065858,0.000796931,-0.00165746,-1.28756,0.00144578,0.0407795,713,827,-21.9882,-1.27481
-504,197,-21.8104,1.50946,-0.000611377,0.00162727,-0.000754896,0.00185804,-0.000842147,-1.27412,0.00159531,0.0376449,720,827,-21.8104,-1.50948
-497,197,-21.9426,1.34967,0.000974826,0.00298561,-0.000919919,0.00334296,0.000617476,-1.20028,0.00205399,0.0390743,727,827,-21.9426,-1.34966
-490,197,-22.0613,1.17999,0,0,0,0,0,0,0,-1,734,827,-22.0612,-1.18001
-483,197,-21.8807,0.952148,0,0,0,0,0,0,0,-1,741,827,-21.8807,-0.952154
-476,197,0,0,0,0,0,0,0,0,0,-1,748,827,0,0
-469,197,0,0,0,0,0,0,0,0,0,-1,755,827,0,0
-462,197,0,0,0,0,0,0,0,0,0,-1,762,827,0,0
-455,197,0,0,0,0,0,0,0,0,0,-1,769,827,0,0
-448,197,0,0,0,0,0,0,0,0,0,-1,776,827,0,0
-441,197,0,0,0,0,0,0,0,0,0,-1,783,827,0,0
-434,197,0,0,0,0,0,0,0,0,0,-1,790,827,0,0
-427,197,0,0,0,0,0,0,0,0,0,-1,797,827,0,0
-420,197,0,0,0,0,0,0,0,0,0,-1,804,827,0,0
-413,197,0,0,0,0,0,0,0,0,0,-1,811,827,0,0
-406,197,0,0,0,0,0,0,0,0,0,-1,818,827,0,0
-399,197,0,0,0,0,0,0,0,0,0,-1,825,827,0,0
-392,197,0,0,0,0,0,0,0,0,0,-1,832,827,0,0
-385,197,0,0,0,0,0,0,0,0,0,-1,839,827,0,0
-378,197,0,0,0,0,0,0,0,0,0,-1,846,827,0,0
-371,197,0,0,0,0,0,0,0,0,0,-1,853,827,0,0
-364,197,0,0,0,0,0,0,0,0,0,-1,860,827,0,0
-357,197,0,0,0,0,0,0,0,0,0,-1,867,827,0,0
-350,197,0,0,0,0,0,0,0,0,0,-1,874,827,0,0
-343,197,0,0,0,0,0,0,0,0,0,-1,881,827,0,0
-336,197,0,0,0,0,0,0,0,0,0,-1,888,827,0,0
-329,197,0,0,0,0,0,0,0,0,0,-1,895,827,0,0
-322,197,0,0,0,0,0,0,0,0,0,-1,902,827,0,0
-315,197,0,0,0,0,0,0,0,0,0,-1,909,827,0,0
-308,197,0,0,0,0,0,0,0,0,0,-1,916,827,0,0
-301,197,0,0,0,0,0,0,0,0,0,-1,923,827,0,0
-294,197,0,0,0,0,0,0,0,0,0,-1,930,827,0,0
-287,197,0,0,0,0,0,0,0,0,0,-1,937,827,0,0
-280,197,0,0,0,0,0,0,0,0,0,-1,944,827,0,0
-273,197,0,0,0,0,0,0,0,0,0,-1,951,827,0,0
-266,197,0,0,0,0,0,0,0,0,0,-1,958,827,0,0
-259,197,0,0,0,0,0,0,0,0,0,-1,965,827,0,0
-252,197,0,0,0,0,0,0,0,0,0,-1,972,827,0,0
-245,197,0,0,0,0,0,0,0,0,0,-1,979,827,0,0
-238,197,0,0,0,0,0,0,0,0,0,-1,986,827,0,0
-231,197,0,0,0,0,0,0,0,0,0,-1,993,827,0,0
-224,197,0,0,0,0,0,0,0,0,0,-1,1000,827,0,0
-217,197,0,0,0,0,0,0,0,0,0,-1,1007,827,0,0
-210,197,0,0,0,0,0,0,0,0,0,-1,1014,827,0,0
-203,197,0,0,0,0,0,0,0,0,0,-1,1021,827,0,0
-196,197,0,0,0,0,0,0,0,0,0,-1,1028,827,0,0
-189,197,0,0,0,0,0,0,0,0,0,-1,1035,827,0,0
-182,197,0,0,0,0,0,0,0,0,0,-1,1042,827,0,0
-175,197,0,0,0,0,0,0,0,0,0,-1,1049,827,0,0
-168,197,0,0,0,0,0,0,0,0,0,-1,1056,827,0,0
-161,197,0,0,0,0,0,0,0,0,0,-1,1063,827,0,0
-154,197,0,0,0,0,0,0,0,0,0,-1,1070,827,0,0
-147,197,0,0,0,0,0,0,0,0,0,-1,1077,827,0,0
-140,197,0,0,0,0,0,0,0,0,0,-1,1084,827,0,0
-133,197,0,0,0,0,0,0,0,0,0,-1,1091,827,0,0
-126,197,0,0,0,0,0,0,0,0,0,-1,1098,827,0,0
-119,197,0,0,0,0,0,0,0,0,0,-1,1105,827,0,0
-112,197,0,0,0,0,0,0,0,0,0,-1,1112,827,0,0
-105,197,0,0,0,0,0,0,0,0,0,-1,1119,827,0,0
-98,197,0,0,0,0,0,0,0,0,0,-1,1126,827,0,0
-91,197,0,0,0,0,0,0,0,0,0,-1,1133,827,0,0
-84,197,0,0,0,0,0,0,0,0,0,-1,1140,827,0,0
-77,197,0,0,0,0,0,0,0,0,0,-1,1147,827,0,0
-70,197,0,0,0,0,0,0,0,0,0,-1,1154,827,0,0
-63,197,0,0,0,0,0,0,0,0,0,-1,1161,827,0,0
-56,197,0,0,0,0,0,0,0,0,0,-1,1168,827,0,0
-49,197,0,0,0,0,0,0,0,0,0,-1,1175,827,0,0
-42,197,0,0,0,0,0,0,0,0,0,-1,1182,827,0,0
-35,197,0,0,0,0,0,0,0,0,0,-1,1189,827,0,0
-28,197,0,0,0,0,0,0,0,0,0,-1,1196,827,0,0
-21,197,0,0,0,0,0,0,0,0,0,-1,1203,827,0,0
-14,197,0,0,0,0,0,0,0,0,0,-1,1210,827,0,0
-7,197,0,0,0,0,0,0,0,0,0,-1,1217,827,0,0
0,197,0,0,0,0,0,0,0,0,0,-1,1224,827,0,0
7,197,0,0,0,0,0,0,0,0,0,-1,1231,827,0,0
14,197,0,0,0,0,0,0,0,0,0,-1,1238,827,0,0
21,197,0,0,0,0,0,0,0,0,0,-1,1245,827,0,0
28,197,0,0,0,0,0,0,0,0,0,-1,1252,827,0,0
35,197,0,0,0,0,0,0,0,0,0,-1,1259,827,0,0
42,197,0,0,0,0,0,0,0,0,0,-1,1266,827,0,0
49,197,0,0,0,0,0,0,0,0,0,-1,1273,827,0,0
56,197,0,0,0,0,0,0,0,0,0,-1,1280,827,0,0
63,197,0,0,0,0,0,0,0,0,0,-1,1287,827,0,0
70,197,0,0,0,0,0,0,0,0,0,-1,1294,827,0,0
77,197,0,0,0,0,0,0,0,0,0,-1,1301,827,0,0
84,197,0,0,0,0,0,0,0,0,0,-1,1308,827,0,0
91,197,0,0,0,0,0,0,0,0,0,-1,1315,827,0,0
98,197,0,0,0,0,0,0,0,0,0,-1,1322,827,0,0
105,197,0,0,0,0,0,0,0,0,0,-1,1329,827,0,0
112,197,0,0,0,0,0,0,0,0,0,-1,1336,827,0,0
119,197,0,0,0,0,0,0,0,0,0,-1,1343,827,0,0
126,197,0,0,0,0,0,0,0,0,0,-1,1350,827,0,0
133,197,0,0,0,0,0,0,0,0,0,-1,1357,827,0,0
140,197,0,0,0,0,0,0,0,0,0,-1,1364,827,0,0
147,197,0,0,0,0,0,0,0,0,0,-1,1371,827,0,0
154,197,0,0,0,0,0,0,0,0,0,-1,1378,827,0,0
161,197,0,0,0,0,0,0,0,0,0,-1,1385,827,0,0
168,197,0,0,0,0,0,0,0,0,0,-1,1392,827,0,0
175,197,0,0,0,0,0,0,0,0,0,-1,1399,827,0,0
182,197,0,0,0,0,0,0,0,0,0,-1,1406,827,0,0
189,197,0,0,0,0,0,0,0,0,0,-1,1413,827,0,0
196,197,0,0,0,0,0,0,0,0,0,-1,1420,827,0,0
203,197,0,0,0,0,0,0,0,0,0,-1,1427,827,0,0
210,197,0,0,0,0,0,0,0,0,0,-1,1434,827,0,0
217,197,0,0,0,0,0,0,0,0,0,-1,1441,827,0,0
224,197,0,0,0,0,0,0,0,0,0,-1,1448,827,0,0
231,197,0,0,0,0,0,0,0,0,0,-1,1455,827,0,0
238,197,0,0,0,0,0,0,0,0,0,-1,1462,827,0,0
245,197,0,0,0,0,0,0,0,0,0,-1,1469,827,0,0
252,197,0,0,0,0,0,0,0,0,0,-1,1476,827,0,0
259,197,0,0,0,0,0,0,0,0,0,-1,1483,827,0,0
266,197,0,0,0,0,0,0,0,0,0,-1,1490,827,0,0
273,197,0,0,0,0,0,0,0,0,0,-1,1497,827,0,0
280,197,0,0,0,0,0,0,0,0,0,-1,1504,827,0,0
287,197,0,0,0,0,0,0,0,0,0,-1,1511,827,0,0
294,197,0,0,0,0,0,0,0,0,0,-1,1518,827,0,0
301,197,0,0,0,0,0,0,0,0,0,-1,1525,827,0,0
308,197,0,0,0,0,0,0,0,0,0,-1,1532,827,0,0
315,197,0,0,0,0,0,0,0,0,0,-1,1539,827,0,0
322,197,0,0,0,0,0,0,0,0,0,-1,1546,827,0,0
329,197,0,0,0,0,0,0,0,0,0,-1,1553,827,0,0
336,197,0,0,0,0,0,0,0,0,0,-1,1560,827,0,0
343,197,0,0,0,0,0,0,0,0,0,-1,1567,827,0,0
350,197,0,0,0,0,0,0,0,0,0,-1,1574,827,0,0
357,197,0,0,0,0,0,0,0,0,0,-1,1581,827,0,0
364,197,0,0,0,0,0,0,0,0,0,-1,1588,827,0,0
371,197,0,0,0,0,0,0,0,0,0,-1,1595,827,0,0
378,197,0,0,0,0,0,0,0,0,0,-1,1602,827,0,0
385,197,0,0,0,0,0,0,0,0,0,-1,1609,827,0,0
392,197,0,0,0,0,0,0,0,0,0,-1,1616,827,0,0
399,197,0,0,0,0,0,0,0,0,0,-1,1623,827,0,0
406,197,0,0,0,0,0,0,0,0,0,-1,1630,827,0,0
413,197,0,0,0,0,0,0,0,0,0,-1,1637,827,0,0
420,197,0,0,0,0,0,0,0,0,0,-1,1644,827,0,0
427,197,0,0,0,0,0,0,0,0,0,-1,1651,827,0,0
434,197,0,0,0,0,0,0,0,0,0,-1,1658,827,0,0
441,197,0,0,0,0,0,0,0,0,0,-1,1665,827,0,0
448,197,0,0,0,0,0,0,0,0,0,-1,1672,827,0,0
455,197,0,0,0,0,0,0,0,0,0,-1,1679,827,0,0
462,197,0,0,0,0,0,0,0,0,0,-1,1686,827,0,0
469,197,0,0,0,0,0,0,0,0,0,-1,1693,827,0,0
476,197,0,0,0,0,0,0,0,0,0,-1,1700,827,0,0
483,197,0,0,0,0,0,0,0,0,0,-1,1707,827,0,0
490,197,0,0,0,0,0,0,0,0,0,-1,1714,827,0,0
497,197,0,0,0,0,0,0,0,0,0,-1,1721,827,0,0
504,197,0,0,0,0,0,0,0,0,0,-1,1728,827,0,0
511,197,0,0,0,0,0,0,0,0,0,-1,1735,827,0,0
518,197,0,0,0,0,0,0,0,0,0,-1,1742,827,0,0
525,197,0,0,0,0,0,0,0,0,0,-1,1749,827,0,0
532,197,0,0,0,0,0,0,0,0,0,-1,1756,827,0,0
539,197,0,0,0,0,0,0,0,0,0,-1,1763,827,0,0
546,197,0,0,0,0,0,0,0,0,0,-1,1770,827,0,0
553,197,0,0,0,0,0,0,0,0,0,-1,1777,827,0,0
560,197,0,0,0,0,0,0,0,0,0,-1,1784,827,0,0
567,197,0,0,0,0,0,0,0,0,0,-1,1791,827,0,0
574,197,0,0,0,0,0,0,0,0,0,-1,1798,827,0,0
581,197,0,0,0,0,0,0,0,0,0,-1,1805,827,0,0
588,197,0,0,0,0,0,0,0,0,0,-1,1812,827,0,0
595,197,0,0,0,0,0,0,0,0,0,-1,1819,827,0,0
602,197,31.1013,2.93542,-0.00258013,0.00250768,-0.000545376,0.00256549,-0.00263793,-1.4652,0.00300429,0.0391074,1826,827,31.1013,-2.9354
609,197,31.1573,2.96545,-0.000558535,0.00144506,0.00172104,0.00243464,-0.00154811,1.04897,0.00231835,0.0418449,1833,827,31.1574,-2.96546
616,197,31.163,2.93335,0.000952389,0.000431783,0.00302324,0.00372651,-0.00234234,0.742454,0.0035341,0.04131,1840,827,31.163,-2.93336
623,197,31.069,2.90881,0.00170981,-0.000315654,0.00349161,0.00433259,-0.00293844,0.644248,0.00422358,0.0373741,1847,827,31.069,-2.90879
630,197,31.0201,2.96204,0.00186198,-0.00088654,0.00326913,0.00403396,-0.00305852,0.586425,0.00410773,0.0319723,1854,827,31.0201,-2.96202
637,197,31.0107,3.05676,0.0016402,-0.00123712,0.0026816,0.00324468,-0.0028416,0.539191,0.00351648,0.0293874,1861,827,31.0107,-3.05677
644,197,31.0043,3.10156,0.00131468,-0.00154601,0.00206363,0.0023952,-0.00262653,0.482351,0.00290032,0.0324988,1868,827,31.0042,-3.10154
651,197,31.1096,3.21014,0.00100651,-0.0017864,0.00144035,0.00161622,-0.00239612,0.400436,0.00233106,0.0412318,1875,827,31.1097,-3.21014
658,197,31.2341,3.35229,0,0,0,0,0,0,0,-1,1882,827,31.2341,-3.35228
665,197,14.0618,1.80304,0,0,0,0,0,0,0,-1,1889,827,14.0617,-1.80303
672,197,24.4584,1.39783,0,0,0,0,0,0,0,-1,1896,827,24.4584,-1.39782
679,197,24.3519,1.98389,-0.000350394,-0.00170676,-0.00065054,-8.88238e-05,-0.00196833,-0.382299,0.00128363,0.0371733,1903,827,24.352,-1.98392
686,197,24.2219,2.35864,-0.000818747,-0.00156372,-0.00106738,-6.073e-05,-0.00232174,-0.617517,0.00152799,0.0213994,1910,827,24.2219,-2.35864
693,197,24.1929,2.71576,-0.000781425,-0.0016632,-0.00119151,4.81511e-05,-0.00249278,-0.608197,0.00167813,0.0153399,1917,827,24.1929,-2.71577
700,197,24.2319,3.06512,-0.000563254,-0.000947375,-0.000899969,0.00016492,-0.00167555,-0.680271,0.00117587,0.020889,1924,827,24.2319,-3.06515
707,197,24.2501,3.37433,-0.000225938,0.000465805,-0.000208823,0.000523956,-0.000284089,-1.29921,0.000473327,0.00969082,1931,827,24.2501,-3.37436
714,197,24.2122,3.69415,0.000698004,0.00303918,0.00140121,0.00369442,4.27613e-05,1.13338,0.00244882,0.0118959,1938,827,24.2122,-3.69414
721,197,24.1868,3.99884,0.00208231,0.00810264,0.00407924,0.0101621,2.28342e-05,1.10326,0.00676715,0.011693,1945,827,24.1868,-3.99887
728,197,24.1752,4.3407,0.00385433,0.0146987,0.00724792,0.0183282,0.000224861,1.10654,0.0121445,0.0107758,1952,827,24.1751,-4.34068
735,197,24.1549,4.65759,0.00599628,0.022941,0.0114601,0.0287205,0.000216823,1.10371,0.0190751,0.0115226,1959,827,24.1549,-4.65761
742,197,24.1091,5.02814,0.00871648,0.034275,0.0170956,0.0428398,0.000151679,1.10635,0.0285095,0.020163,1966,827,24.1091,-5.02816
749,197,24.3788,5.96936,0.012203,0.0496678,0.0244993,0.0617756,9.51812e-05,1.11179,0.041152,0.0408266,1973,827,24.3787,-5.96938
756,197,24.4894,6.47144,0.0165522,0.0701412,0.0339033,0.0865598,0.000133548,1.1198,0.0576621,0.0423317,1980,827,24.4894,-6.47142
763,197,24.8134,7.38428,0.0216324,0.0966252,0.0453014,0.117935,0.000322424,1.1311,0.0785162,0.0413212,1987,827,24.8134,-7.38427
770,197,24.9459,8.61212,0.0271231,0.130441,0.0586692,0.156953,0.000610881,1.14637,0.104432,0.0452067,1994,827,24.9459,-8.61209
777,197,0,0,0,0,0,0,0,0,0,-1,2001,827,0,0
784,197,0,0,0,0,0,0,0,0,0,-1,2008,827,0,0
791,197,0,0,0,0,0,0,0,0,0,-1,2015,827,0,0
798,197,0,0,0,0,0,0,0,0,0,-1,2022,827,0,0
805,197,0,0,0,0,0,0,0,0,0,-1,2029,827,0,0
812,197,0,0,0,0,0,0,0,0,0,-1,2036,827,0,0
-700,190,0,0,0,0,0,0,0,0,0,-1,524,834,0,0
-693,190,0,0,0,0,0,0,0,0,0,-1,531,834,0,0
-686,190,0,0,0,0,0,0,0,0,0,-1,538,834,0,0
-679,190,0,0,0,0,0,0,0,0,0,-1,545,834,0,0
-672,190,0,0,0,0,0,0,0,0,0,-1,552,834,0,0
-665,190,0,0,0,0,0,0,0,0,0,-1,559,834,0,0
-658,190,-15.5325,5.8429,0,0,0,0,0,0,0,-1,566,834,-15.5325,-5.84287
-651,190,-16.3014,5.30249,0,0,0,0,0,0,0,-1,573,834,-16.3014,-5.30251
-644,190,-16.5005,4.78082,-0.0288894,0.0474213,-0.00791659,0.0482339,-0.029702,-1.46851,0.0454184,0.0474484,580,834,-16.5005,-4.78082
-637,190,-16.5615,4.42102,-0.0222765,0.0417845,-0.00675245,0.0424885,-0.0229805,-1.46691,0.0383538,0.0489485,587,834,-16.5615,-4.42101
-630,190,-16.3348,3.88043,-0.0171216,0.0354012,-0.00530287,0.0359312,-0.0176517,-1.47117,0.0315304,0.047303,594,834,-16.3348,-3.88043
-623,190,-16.2308,3.21844,-0.0130921,0.0288249,-0.00375987,0.0291595,-0.0134267,-1.48204,0.0251402,0.0466433,601,834,-16.2308,-3.21844
-616,190,-16.3677,2.54016,-0.0099353,0.0226093,-0.00241235,0.0227872,-0.0101131,-1.49721,0.0194592,0.0433864,608,834,-16.3677,-2.54018
-609,190,-16.4459,2.35522,-0.00709743,0.0168068,-0.00123996,0.016871,-0.00716158,-1.51911,0.0142477,0.0247221,615,834,-16.4459,-2.35524
-602,190,-16.4719,2.13721,-0.0048797,0.0116312,-0.000607604,0.0116536,-0.00490203,-1.53406,0.00981975,0.0166722,622,834,-16.4719,-2.13723
-595,190,-16.5084,1.83667,-0.00273911,0.00815434,0.000495487,0.00817683,-0.0027616,1.52544,0.00656821,0.0187295,629,834,-16.5084,-1.83666
-588,190,-16.5178,1.55103,-0.00171015,0.00439781,0.000942402,0.00453991,-0.00185225,1.42114,0.0037977,0.0163184,636,834,-16.5178,-1.55104
-581,190,-16.5075,1.24207,-0.00106291,0.00143843,0.000841242,0.00169503,-0.00131951,1.27474,0.00174494,0.0114858,643,834,-16.5075,-1.24206
-574,190,-16.4907,0.933899,-0.000527725,-9.37086e-05,0.0007812,0.000500064,-0.0011215,0.920877,0.000958852,0.0108968,650,834,-16.4907,-0.933885
-567,190,-16.4644,0.604309,-0.000409269,-0.000631029,0.000188102,-0.000301799,-0.000738499,0.519079,0.000428737,0.0148939,657,834,-16.4644,-0.604288
-560,190,-16.5323,0.327209,-0.000376947,-0.000887115,-0.000331282,-0.000213921,-0.00105014,-0.457311,0.000640802,0.0287127,664,834,-16.5323,-0.32723
-553,190,-16.6112,0.0737915,-0.000549346,-0.000960458,-0.000321461,-0.00037334,-0.00113646,-0.500939,0.000668879,0.0247862,671,834,-16.6112,-0.0738085
-546,190,-16.568,-0.245483,-0.000649973,-0.00115647,-0.000663157,-0.000193354,-0.00161309,-0.603002,0.00101709,0.0485233,678,834,-16.568,0.245456
-539,190,-16.4624,-0.542542,0,0,0,0,0,0,0,-1,685,834,-16.4624,0.542527
-532,190,-21.2769,1.56903,0,0,0,0,0,0,0,-1,692,834,-21.2769,-1.56901
-525,190,-21.6608,1.32507,-0.00137644,-0.00071649,-0.00094865,-4.2065e-05,-0.00205087,-0.952772,0.00135344,0.0494424,699,834,-21.6607,-1.32509
-518,190,-22.0032,1.26489,-0.00139472,-0.000401157,-0.000948262,0.000172572,-0.00196845,-1.02668,0.00137344,0.0474922,706,834,-22.0033,-1.26489
-511,190,-21.9487,1.30884,-0.0010877,9.61274e-05,-0.000866373,0.000553481,-0.00154506,-1.08508,0.00125587,0.0399528,713,834,-21.9487,-1.30884
-504,190,-21.8513,1.43549,-0.000287101,0.000753251,-0.000717558,0.00111934,-0.000653194,-1.09903,0.0010351,0.0397729,720,834,-21.8513,-1.43547
-497,190,-21.7874,1.48071,0.00141359,0.00166922,-0.000539322,0.00209567,0.000987144,-0.901749,0.00121061,0.0427082,727,834,-21.7874,-1.48072
-490,190,-21.6559,1.47095,0.00459837,0.00274567,-0.000215165,0.00462303,0.00272101,-0.114112,0.00268303,0.0421549,734,834,-21.6559,-1.47092
-483,190,0,0,0,0,0,0,0,0,0,-1,741,834,0,0
-476,190,0,0,0,0,0,0,0,0,0,-1,748,834,0,0
-469,190,0,0,0,0,0,0,0,0,0,-1,755,834,0,0
-462,190,0,0,0,0,0,0,0,0,0,-1,762,834,0,0
-455,190,0,0,0,0,0,0,0,0,0,-1,769,834,0,0
-448,190,0,0,0,0,0,0,0,0,0,-1,776,834,0,0
-441,190,0,0,0,0,0,0,0,0,0,-1,783,834,0,0
-434,190,0,0,0,0,0,0,0,0,0,-1,790,834,0,0
-427,190,0,0,0,0,0,0,0,0,0,-1,797,834,0,0
-420,190,0,0,0,0,0,0,0,0,0,-1,804,834,0,0
-413,190,0,0,0,0,0,0,0,0,0,-1,811,834,0,0
-406,190,0,0,0,0,0,0,0,0,0,-1,818,834,0,0
-399,190,0,0,0,0,0,0,0,0,0,-1,825,834,0,0
-392,190,0,0,0,0,0,0,0,0,0,-1,832,834,0,0
-385,190,0,0,0,0,0,0,0,0,0,-1,839,834,0,0
-378,190,0,0,0,0,0,0,0,0,0,-1,846,834,0,0
-371,190,0,0,0,0,0,0,0,0,0,-1,853,834,0,0
-364,190,0,0,0,0,0,0,0,0,0,-1,860,834,0,0
-357,190,0,0,0,0,0,0,0,0,0,-1,867,834,0,0
-350,190,0,0,0,0,0,0,0,0,0,-1,874,834,0,0
-343,190,0,0,0,0,0,0,0,0,0,-1,881,834,0,0
-336,190,0,0,0,0,0,0,0,0,0,-1,888,834,0,0
-329,190,0,0,0,0,0,0,0,0,0,-1,895,834,0,0
-322,190,0,0,0,0,0,0,0,0,0,-1,902,834,0,0
-315,190,0,0,0,0,0,0,0,0,0,-1,909,834,0,0
-308,190,0,0,0,0,0,0,0,0,0,-1,916,834,0,0
-301,190,0,0,0,0,0,0,0,0,0,-1,923,834,0,0
-294,190,0,0,0,0,0,0,0,0,0,-1,930,834,0,0
-287,190,0,0,0,0,0,0,0,0,0,-1,937,834,0,0
-280,190,0,0,0,0,0,0,0,0,0,-1,944,834,0,0
-273,190,0,0,0,0,0,0,0,0,0,-1,951,834,0,0
-266,190,0,0,0,0,0,0,0,0,0,-1,958,834,0,0
-259,190,0,0,0,0,0,0,0,0,0,-1,965,834,0,0
-252,190,0,0,0,0,0,0,0,0,0,-1,972,834,0,0
-245,190,0,0,0,0,0,0,0,0,0,-1,979,834,0,0
-238,190,0,0,0,0,0,0,0,0,0,-1,986,834,0,0
-231,190,0,0,0,0,0,0,0,0,0,-1,993,834,0,0
-224,190,0,0,0,0,0,0,0,0,0,-1,1000,834,0,0
-217,190,0,0,0,0,0,0,0,0,0,-1,1007,834,0,0
-210,190,0,0,0,0,0,0,0,0,0,-1,1014,834,0,0
-203,190,0,0,0,0,0,0,0,0,0,-1,1021,834,0,0
-196,190,0,0,0,0,0,0,0,0,0,-1,1028,834,0,0
-189,190,0,0,0,0,0,0,0,0,0,-1,1035,834,0,0
-182,190,0,0,0,0,0,0,0,0,0,-1,1042,834,0,0
-175,190,0,0,0,0,0,0,0,0,0,-1,1049,834,0,0
-168,190,0,0,0,0,0,0,0,0,0,-1,1056,834,0,0
-161,190,0,0,0,0,0,0,0,0,0,-1,1063,834,0,0
-154,190,0,0,0,0,0,0,0,0,0,-1,1070,834,0,0
-147,190,0,0,0,0,0,0,0,0,0,-1,1077,834,0,0
-140,190,0,0,0,0,0,0,0,0,0,-1,1084,834,0,0
-133,190,0,0,0,0,0,0,0,0,0,-1,1091,834,0,0
-126,190,0,0,0,0,0,0,0,0,0,-1,1098,834,0,0
-119,190,0,0,0,0,0,0,0,0,0,-1,1105,834,0,0
-112,190,0,0,0,0,0,0,0,0,0,-1,1112,834,0,0
-105,190,0,0,0,0,0,0,0,0,0,-1,1119,834,0,0
-98,190,0,0,0,0,0,0,0,0,0,-1,1126,834,0,0
-91,190,0,0,0,0,0,0,0,0,0,-1,1133,834,0,0
-84,190,0,0,0,0,0,0,0,0,0,-1,1140,834,0,0
-77,190,0,0,0,0,0,0,0,0,0,-1,1147,834,0,0
-70,190,0,0,0,0,0,0,0,0,0,-1,1154,834,0,0
-63,190,0,0,0,0,0,0,0,0,0,-1,1161,834,0,0
-56,190,0,0,0,0,0,0,0,0,0,-1,1168,834,0,0
-49,190,0,0,0,0,0,0,0,0,0,-1,1175,834,0,0
-42,190,0,0,0,0,0,0,0,0,0,-1,1182,834,0,0
-35,190,0,0,0,0,0,0,0,0,0,-1,1189,834,0,0
-28,190,0,0,0,0,0,0,0,0,0,-1,1196,834,0,0
-21,190,0,0,0,0,0,0,0,0,0,-1,1203,834,0,0
-14,190,0,0,0,0,0,0,0,0,0,-1,1210,834,0,0
-7,190,0,0,0,0,0,0,0,0,0,-1,1217,834,0,0
0,190,0,0,0,0,0,0,0,0,0,-1,1224,834,0,0
7,190,0,0,0,0,0,0,0,0,0,-1,1231,834,0,0
14,190,0,0,0,0,0,0,0,0,0,-1,1238,834,0,0
21,190,0,0,0,0,0,0,0,0,0,-1,1245,834,0,0
28,190,0,0,0,0,0,0,0,0,0,-1,1252,834,0,0
35,190,0,0,0,0,0,0,0,0,0,-1,1259,834,0,0
42,190,0,0,0,0,0,0,0,0,0,-1,1266,834,0,0
49,190,0,0,0,0,0,0,0,0,0,-1,1273,834,0,0
56,190,0,0,0,0,0,0,0,0,0,-1,1280,834,0,0
63,190,0,0,0,0,0,0,0,0,0,-1,1287,834,0,0
70,190,0,0,0,0,0,0,0,0,0,-1,1294,834,0,0
77,190,0,0,0,0,0,0,0,0,0,-1,1301,834,0,0
84,190,0,0,0,0,0,0,0,0,0,-1,1308,834,0,0
91,190,0,0,0,0,0,0,0,0,0,-1,1315,834,0,0
98,190,0,0,0,0,0,0,0,0,0,-1,1322,834,0,0
105,190,0,0,0,0,0,0,0,0,0,-1,1329,834,0,0
112,190,0,0,0,0,0,0,0,0,0,-1,1336,834,0,0
119,190,0,0,0,0,0,0,0,0,0,-1,1343,834,0,0
126,190,0,0,0,0,0,0,0,0,0,-1,1350,834,0,0
133,190,0,0,0,0,0,0,0,0,0,-1,1357,834,0,0
140,190,0,0,0,0,0,0,0,0,0,-1,1364,834,0,0
147,190,0,0,0,0,0,0,0,0,0,-1,1371,834,0,0
154,190,0,0,0,0,0,0,0,0,0,-1,1378,834,0,0
161,190,0,0,0,0,0,0,0,0,0,-1,1385,834,0,0
168,190,0,0,0,0,0,0,0,0,0,-1,1392,834,0,0
175,190,0,0,0,0,0,0,0,0,0,-1,1399,834,0,0
182,190,0,0,0,0,0,0,0,0,0,-1,1406,834,0,0
189,190,0,0,0,0,0,0,0,0,0,-1,1413,834,0,0
196,190,0,0,0,0,0,0,0,0,0,-1,1420,834,0,0
203,190,0,0,0,0,0,0,0,0,0,-1,1427,834,0,0
210,190,0,0,0,0,0,0,0,0,0,-1,1434,834,0,0
217,190,0,0,0,0,0,0,0,0,0,-1,1441,834,0,0
224,190,0,0,0,0,0,0,0,0,0,-1,1448,834,0,0
231,190,0,0,0,0,0,0,0,0,0,-1,1455,834,0,0
238,190,0,0,0,0,0,0,0,0,0,-1,1462,834,0,0
245,190,0,0,0,0,0,0,0,0,0,-1,1469,834,0,0
252,190,0,0,0,0,0,0,0,0,0,-1,1476,834,0,0
259,190,0,0,0,0,0,0,0,0,0,-1,1483,834,0,0
266,190,0,0,0,0,0,0,0,0,0,-1,1490,834,0,0
273,190,0,0,0,0,0,0,0,0,0,-1,1497,834,0,0
280,190,0,0,0,0,0,0,0,0,0,-1,1504,834,0,0
287,190,0,0,0,0,0,0,0,0,0,-1,1511,834,0,0
294,190,0,0,0,0,0,0,0,0,0,-1,1518,834,0,0
301,190,0,0,0,0,0,0,0,0,0,-1,1525,834,0,0
308,190,0,0,0,0,0,0,0,0,0,-1,1532,834,0,0
315,190,0,0,0,0,0,0,0,0,0,-1,1539,834,0,0
322,190,0,0,0,0,0,0,0,0,0,-1,1546,834,0,0
329,190,0,0,0,0,0,0,0,0,0,-1,1553,834,0,0
336,190,0,0,0,0,0,0,0,0,0,-1,1560,834,0,0
343,190,0,0,0,0,0,0,0,0,0,-1,1567,834,0,0
350,190,0,0,0,0,0,0,0,0,0,-1,1574,834,0,0
357,190,0,0,0,0,0,0,0,0,0,-1,1581,834,0,0
364,190,0,0,0,0,0,0,0,0,0,-1,1588,834,0,0
371,190,0,0,0,0,0,0,0,0,0,-1,1595,834,0,0
378,190,0,0,0,0,0,0,0,0,0,-1,1602,834,0,0
385,190,0,0,0,0,0,0,0,0,0,-1,1609,834,0,0
392,190,0,0,0,0,0,0,0,0,0,-1,1616,834,0,0
399,190,0,0,0,0,0,0,0,0,0,-1,1623,834,0,0
406,190,0,0,0,0,0,0,0,0,0,-1,1630,834,0,0
413,190,0,0,0,0,0,0,0,0,0,-1,1637,834,0,0
420,190,0,0,0,0,0,0,0,0,0,-1,1644,834,0,0
427,190,0,0,0,0,0,0,0,0,0,-1,1651,834,0,0
434,190,0,0,0,0,0,0,0,0,0,-1,1658,834,0,0
441,190,0,0,0,0,0,0,0,0,0,-1,1665,834,0,0
448,190,0,0,0,0,0,0,0,0,0,-1,1672,834,0,0
455,190,0,0,0,0,0,0,0,0,0,-1,1679,834,0,0
462,190,0,0,0,0,0,0,0,0,0,-1,1686,834,0,0
469,190,0,0,0,0,0,0,0,0,0,-1,1693,834,0,0
476,190,0,0,0,0,0,0,0,0,0,-1,1700,834,0,0
483,190,0,0,0,0,0,0,0,0,0,-1,1707,834,0,0
490,190,0,0,0,0,0,0,0,0,0,-1,1714,834,0,0
497,190,0,0,0,0,0,0,0,0,0,-1,1721,834,0,0
504,190,0,0,0,0,0,0,0,0,0,-1,1728,834,0,0
511,190,0,0,0,0,0,0,0,0,0,-1,1735,834,0,0
518,190,0,0,0,0,0,0,0,0,0,-1,1742,834,0,0
525,190,0,0,0,0,0,0,0,0,0,-1,1749,834,0,0
532,190,0,0,0,0,0,0,0,0,0,-1,1756,834,0,0
539,190,0,0,0,0,0,0,0,0,0,-1,1763,834,0,0
546,190,0,0,0,0,0,0,0,0,0,-1,1770,834,0,0
553,190,0,0,0,0,0,0,0,0,0,-1,1777,834,0,0
560,190,0,0,0,0,0,0,0,0,0,-1,1784,834,0,0
567,190,0,0,0,0,0,0,0,0,0,-1,1791,834,0,0
574,190,0,0,0,0,0,0,0,0,0,-1,1798,834,0,0
581,190,0,0,0,0,0,0,0,0,0,-1,1805,834,0,0
588,190,0,0,0,0,0,0,0,0,0,-1,1812,834,0,0
595,190,0,0,0,0,0,0,0,0,0,-1,1819,834,0,0
602,190,31.1252,2.88715,-0.00281088,0.0013101,-0.0016912,0.00191527,-0.00341606,-1.22715,0.00311843,0.0436635,1826,834,31.1253,-2.88712
609,190,31.0723,3.01636,-0.000998287,0.000751986,0.000333952,0.000813539,-0.00105984,1.38852,0.00108471,0.0428668,1833,834,31.0723,-3.01635
616,190,30.9899,3.27502,0.000577742,0.000246143,0.00165683,0.00207704,-0.00125316,0.735529,0.00194221,0.0390942,1840,834,30.9899,-3.27502
623,190,30.9298,3.28931,0.00149251,-0.000136282,0.00232613,0.00314268,-0.00178646,0.617013,0.00288152,0.039241,1847,834,30.9298,-3.28931
630,190,30.8984,3.02936,0.00182932,-0.000487283,0.00239095,0.00332776,-0.00198573,0.559832,0.00310019,0.0425224,1854,834,30.8985,-3.02938
637,190,30.9471,3.00098,0.00169935,-0.000796327,0.00203147,0.00283561,-0.00193259,0.509981,0.00276933,0.0354211,1861,834,30.9471,-3.001
644,190,30.9707,3.11646,0.00142782,-0.00110055,0.00157636,0.0021843,-0.00185702,0.447428,0.00233581,0.0275472,1868,834,30.9708,-3.11646
651,190,31.0565,3.14349,0.00114959,-0.0013585,0.00109798,0.00156234,-0.00177124,0.359571,0.0019259,0.0368739,1875,834,31.0565,-3.14352
658,190,31.1957,3.19598,0,0,0,0,0,0,0,-1,1882,834,31.1957,-3.19596
665,190,25.9916,3.05157,0,0,0,0,0,0,0,-1,1889,834,25.9916,-3.05156
672,190,25.0602,2.07648,0,0,0,0,0,0,0,-1,1896,834,25.0602,-2.07645
679,190,24.7314,2.37415,-0.000286005,-0.00146168,-0.000562506,-6.023e-05,-0.00168745,-0.381691,0.00110544,0.0446606,1903,834,24.7315,-2.37413
686,190,24.5251,2.46021,-0.000753404,-0.00136326,-0.00088988,-0.000117659,-0.00199901,-0.620337,0.00129523,0.0189844,1910,834,24.5252,-2.46021
693,190,24.5486,2.72992,-0.000781449,-0.00145854,-0.00105196,-1.4904e-05,-0.00222509,-0.629719,0.00147845,0.0134278,1917,834,24.5486,-2.72989
700,190,24.5359,3.05865,-0.000675623,-0.000866756,-0.000885234,0.000119188,-0.00166157,-0.731628,0.0011495,0.0114804,1924,834,24.5359,-3.05868
707,190,24.5353,3.37085,-0.000494993,0.000307853,-0.000383726,0.000461756,-0.000648895,-1.18937,0.000644261,0.013384,1931,834,24.5353,-3.37085
714,190,24.5371,3.68024,0.000220753,0.002566,0.00091903,0.00288323,-9.64775e-05,1.23842,0.0019551,0.0117094,1938,834,24.5371,-3.68023
721,190,24.5087,4.0105,0.00142287,0.00712378,0.00314648,0.00851897,2.76845e-05,1.15344,0.0056701,0.0101133,1945,834,24.5087,-4.01049
728,190,24.5096,4.32281,0.0030175,0.0131412,0.00586223,0.0158246,0.000334163,1.14153,0.0104401,0.0125387,1952,834,24.5097,-4.32281
735,190,24.5198,4.61475,0.00495342,0.0206473,0.00945933,0.0250907,0.000509981,1.13165,0.0165598,0.0123555,1959,834,24.5197,-4.61477
742,190,24.4543,5.00024,0.00735705,0.030787,0.0142024,0.0374826,0.000661481,1.13026,0.0247709,0.0161975,1966,834,24.4544,-5.00025
749,190,24.4702,5.46649,0.0103882,0.0444632,0.0203907,0.0539975,0.00085392,1.13342,0.0357171,0.0385575,1973,834,24.4702,-5.4665
756,190,24.5725,5.88159,0.0141879,0.0627778,0.0283238,0.0757989,0.00116682,1.13989,0.0501482,0.0426934,1980,834,24.5725,-5.88161
763,190,24.67,6.47931,0.0185968,0.0866918,0.0380088,0.103673,0.00161585,1.15064,0.0685829,0.0468637,1987,834,24.67,-6.47931
770,190,24.6317,7.07489,0.0233147,0.117506,0.0494126,0.138672,0.00214913,1.1661,0.0917399,0.0492932,1994,834,24.6318,-7.07492
777,190,24.8156,7.62775,0.0282412,0.156665,0.0621556,0.18182,0.00308593,1.18623,0.120198,0.0499282,2001,834,24.8155,-7.62774
784,190,0,0,0,0,0,0,0,0,0,-1,2008,834,0,0
791,190,0,0,0,0,0,0,0,0,0,-1,2015,834,0,0
798,190,0,0,0,0,0,0,0,0,0,-1,2022,834,0,0
805,190,0,0,0,0,0,0,0,0,0,-1,2029,834,0,0
812,190,0,0,0,0,0,0,0,0,0,-1,2036,834,0,0
-700,183,0,0,0,0,0,0,0,0,0,-1,524,841,0,0
-693,183,0,0,0,0,0,0,0,0,0,-1,531,841,0,0
-686,183,0,0,0,0,0,0,0,0,0,-1,538,841,0,0
-679,183,0,0,0,0,0,0,0,0,0,-1,545,841,0,0
-672,183,0,0,0,0,0,0,0,0,0,-1,552,841,0,0
-665,183,0,0,0,0,0,0,0,0,0,-1,559,841,0,0
-658,183,-26.5375,8.0257,0,0,0,0,0,0,0,-1,566,841,-26.5376,-8.02567
-651,183,-17.1125,3.26758,0,0,0,0,0,0,0,-1,573,841,-17.1125,-3.26755
-644,183,-16.973,2.99457,-0.0227735,0.0481897,-0.00811081,0.0491049,-0.0236887,-1.45843,0.0428728,0.0472561,580,841,-16.973,-2.9946
-637,183,-16.1678,3.32227,-0.0171141,0.0420249,-0.00757428,0.0429796,-0.0180688,-1.44542,0.0362112,0.048509,587,841,-16.1678,-3.32227
-630,183,-16.1752,3.06396,-0.0127796,0.0352659,-0.00657554,0.0361496,-0.0136633,-1.43721,0.0297202,0.0451615,594,841,-16.1752,-3.06396
-623,183,-16.3726,2.88654,-0.00948746,0.0284051,-0.00524591,0.0291179,-0.0102003,-1.43574,0.02356,0.0465392,601,841,-16.3726,-2.88651
-616,183,-16.694,2.60327,-0.00707121,0.0220505,-0.00393815,0.0225736,-0.00759437,-1.43873,0.018119,0.0387747,608,841,-16.694,-2.60329
-609,183,-16.7712,2.41705,-0.0047513,0.0161184,-0.00264247,0.0164478,-0.00508069,-1.44679,0.0129942,0.0172062,615,841,-16.7713,-2.41707
-602,183,-16.7819,2.17395,-0.00298861,0.0108981,-0.00174497,0.011114,-0.00320452,-1.44769,0.00867706,0.0120558,622,841,-16.7819,-2.17397
-595,183,-16.8008,1.87415,-0.00145306,0.00740168,-0.000384621,0.00741835,-0.00146973,-1.52747,0.00550132,0.011598,629,841,-16.8008,-1.87412
-588,183,-16.8015,1.57098,-0.000802437,0.00385576,0.000311925,0.00387656,-0.000823232,1.50423,0.00289802,0.0116036,636,841,-16.8014,-1.57096
-581,183,-16.825,1.25354,-0.000313851,0.0012385,0.000539373,0.00140751,-0.000482859,1.26714,0.00113409,0.012067,643,841,-16.825,-1.25356
-574,183,-16.8064,0.958374,3.10111e-05,-3.02069e-05,0.000482432,0.000483804,-0.000483,0.753717,0.000558184,0.0117101,650,841,-16.8064,-0.958403
-567,183,-16.7243,0.639465,5.43857e-05,-0.000436592,-8.49244e-05,6.86601e-05,-0.000450866,-0.166527,0.000325884,0.0261903,657,841,-16.7243,-0.639495
-560,183,-16.8878,0.392944,8.7593e-05,-0.000622632,-0.000585701,0.000417426,-0.000952465,-0.512877,0.000810766,0.0316966,664,841,-16.8878,-0.392962
-553,183,-16.8054,0.00457764,-6.82961e-05,-0.00064535,-0.000634218,0.000339941,-0.00105359,-0.571924,0.000838985,0.0267436,671,841,-16.8054,-0.00459977
-546,183,-17.0659,-0.223328,0,0,0,0,0,0,0,-1,678,841,-17.0659,0.223333
-539,183,-16.8032,-0.417297,0,0,0,0,0,0,0,-1,685,841,-16.8032,0.41732
-532,183,-21.4167,2.17303,0,0,0,0,0,0,0,-1,692,841,-21.4167,-2.17306
-525,183,-21.6608,1.78204,-0.000776253,-0.000637691,-0.00138988,0.000684637,-0.00209858,-0.810301,0.00167459,0.0485712,699,841,-21.6608,-1.78204
-518,183,-21.8959,1.38336,-0.000807162,-0.000473304,-0.00131412,0.000684444,-0.00196491,-0.848574,0.00158804,0.0452205,706,841,-21.8959,-1.38334
-511,183,-21.9065,1.22913,-0.000468038,-0.00024077,-0.00106372,0.000715367,-0.00142417,-0.83861,0.00125766,0.0392707,713,841,-21.9065,-1.2291
-504,183,-22.0362,1.50043,0.000457212,1.68388e-05,-0.000603984,0.000879893,-0.000405842,-0.610606,0.000758952,0.0389588,720,841,-22.0362,-1.50046
-497,183,-22.2162,1.53625,0,0,0,0,0,0,0,-1,727,841,-22.2162,-1.53625
-490,183,-21.7538,1.54535,0,0,0,0,0,0,0,-1,734,841,-21.7538,-1.54533
-483,183,0,0,0,0,0,0,0,0,0,-1,741,841,0,0
-476,183,0,0,0,0,0,0,0,0,0,-1,748,841,0,0
-469,183,0,0,0,0,0,0,0,0,0,-1,755,841,0,0
-462,183,0,0,0,0,0,0,0,0,0,-1,762,841,0,0
-455,183,0,0,0,0,0,0,0,0,0,-1,769,841,0,0
-448,183,0,0,0,0,0,0,0,0,0,-1,776,841,0,0
-441,183,0,0,0,0,0,0,0,0,0,-1,783,841,0,0
-434,183,0,0,0,0,0,0,0,0,0,-1,790,841,0,0
-427,183,0,0,0,0,0,0,0,0,0,-1,797,841,0,0
-420,183,0,0,0,0,0,0,0,0,0,-1,804,841,0,0
-413,183,0,0,0,0,0,0,0,0,0,-1,811,841,0,0
-406,183,0,0,0,0,0,0,0,0,0,-1,818,841,0,0
-399,183,0,0,0,0,0,0,0,0,0,-1,825,841,0,0
-392,183,0,0,0,0,0,0,0,0,0,-1,832,841,0,0
-385,183,0,0,0,0,0,0,0,0,0,-1,839,841,0,0
-378,183,0,0,0,0,0,0,0,0,0,-1,846,841,0,0
-371,183,0,0,0,0,0,0,0,0,0,-1,853,841,0,0
-364,183,0,0,0,0,0,0,0,0,0,-1,860,841,0,0
-357,183,0,0,0,0,0,0,0,0,0,-1,867,841,0,0
-350,183,0,0,0,0,0,0,0,0,0,-1,874,841,0,0
-343,183,0,0,0,0,0,0,0,0,0,-1,881,841,0,0
-336,183,0,0,0,0,0,0,0,0,0,-1,888,841,0,0
-329,183,0,0,0,0,0,0,0,0,0,-1,895,841,0,0
-322,183,0,0,0,0,0,0,0,0,0,-1,902,841,0,0
-315,183,0,0,0,0,0,0,0,0,0,-1,909,841,0,0
-308,183,0,0,0,0,0,0,0,0,0,-1,916,841,0,0
-301,183,0,0,0,0,0,0,0,0,0,-1,923,841,0,0
-294,183,0,0,0,0,0,0,0,0,0,-1,930,841,0,0
-287,183,0,0,0,0,0,0,0,0,0,-1,937,841,0,0
-280,183,0,0,0,0,0,0,0,0,0,-1,944,841,0,0
-273,183,0,0,0,0,0,0,0,0,0,-1,951,841,0,0
-266,183,0,0,0,0,0,0,0,0,0,-1,958,841,0,0
-259,183,0,0,0,0,0,0,0,0,0,-1,965,841,0,0
-252,183,0,0,0,0,0,0,0,0,0,-1,972,841,0,0
-245,183,0,0,0,0,0,0,0,0,0,-1,979,841,0,0
-238,183,0,0,0,0,0,0,0,0,0,-1,986,841,0,0
-231,183,0,0,0,0,0,0,0,0,0,-1,993,841,0,0
-224,183,0,0,0,0,0,0,0,0,0,-1,1000,841,0,0
-217,183,0,0,0,0,0,0,0,0,0,-1,1007,841,0,0
-210,183,0,0,0,0,0,0,0,0,0,-1,1014,841,0,0
-203,183,0,0,0,0,0,0,0,0,0,-1,1021,841,0,0
-196,183,0,0,0,0,0,0,0,0,0,-1,1028,841,0,0
-189,183,0,0,0,0,0,0,0,0,0,-1,1035,841,0,0
-182,183,0,0,0,0,0,0,0,0,0,-1,1042,841,0,0
-175,183,0,0,0,0,0,0,0,0,0,-1,1049,841,0,0
-168,183,0,0,0,0,0,0,0,0,0,-1,1056,841,0,0
-161,183,0,0,0,0,0,0,0,0,0,-1,1063,841,0,0
-154,183,0,0,0,0,0,0,0,0,0,-1,1070,841,0,0
-147,183,0,0,0,0,0,0,0,0,0,-1,1077,841,0,0
-140,183,0,0,0,0,0,0,0,0,0,-1,1084,841,0,0
-133,183,0,0,0,0,0,0,0,0,0,-1,1091,841,0,0
-126,183,0,0,0,0,0,0,0,0,0,-1,1098,841,0,0
-119,183,0,0,0,0,0,0,0,0,0,-1,1105,841,0,0
-112,183,0,0,0,0,0,0,0,0,0,-1,1112,841,0,0
-105,183,0,0,0,0,0,0,0,0,0,-1,1119,841,0,0
-98,183,0,0,0,0,0,0,0,0,0,-1,1126,841,0,0
-91,183,0,0,0,0,0,0,0,0,0,-1,1133,841,0,0
-84,183,0,0,0,0,0,0,0,0,0,-1,1140,841,0,0
-77,183,0,0,0,0,0,0,0,0,0,-1,1147,841,0,0
-70,183,0,0,0,0,0,0,0,0,0,-1,1154,841,0,0
-63,183,0,0,0,0,0,0,0,0,0,-1,1161,841,0,0
-56,183,0,0,0,0,0,0,0,0,0,-1,1168,841,0,0
-49,183,0,0,0,0,0,0,0,0,0,-1,1175,841,0,0
-42,183,0,0,0,0,0,0,0,0,0,-1,1182,841,0,0
-35,183,0,0,0,0,0,0,0,0,0,-1,1189,841,0,0
-28,183,0,0,0,0,0,0,0,0,0,-1,1196,841,0,0
-21,183,0,0,0,0,0,0,0,0,0,-1,1203,841,0,0
-14,183,0,0,0,0,0,0,0,0,0,-1,1210,841,0,0
-7,183,0,0,0,0,0,0,0,0,0,-1,1217,841,0,0
0,183,0,0,0,0,0,0,0,0,0,-1,1224,841,0,0
7,183,0,0,0,0,0,0,0,0,0,-1,1231,841,0,0
14,183,0,0,0,0,0,0,0,0,0,-1,1238,841,0,0
21,183,0,0,0,0,0,0,0,0,0,-1,1245,841,0,0
28,183,0,0,0,0,0,0,0,0,0,-1,1252,841,0,0
35,183,0,0,0,0,0,0,0,0,0,-1,1259,841,0,0
42,183,0,0,0,0,0,0,0,0,0,-1,1266,841,0,0
49,183,0,0,0,0,0,0,0,0,0,-1,1273,841,0,0
56,183,0,0,0,0,0,0,0,0,0,-1,1280,841,0,0
63,183,0,0,0,0,0,0,0,0,0,-1,1287,841,0,0
70,183,0,0,0,0,0,0,0,0,0,-1,1294,841,0,0
77,183,0,0,0,0,0,0,0,0,0,-1,1301,841,0,0
84,183,0,0,0,0,0,0,0,0,0,-1,1308,841,0,0
91,183,0,0,0,0,0,0,0,0,0,-1,1315,841,0,0
98,183,0,0,0,0,0,0,0,0,0,-1,1322,841,0,0
105,183,0,0,0,0,0,0,0,0,0,-1,1329,841,0,0
112,183,0,0,0,0,0,0,0,0,0,-1,1336,841,0,0
119,183,0,0,0,0,0,0,0,0,0,-1,1343,841,0,0
126,183,0,0,0,0,0,0,0,0,0,-1,1350,841,0,0
133,183,0,0,0,0,0,0,0,0,0,-1,1357,841,0,0
140,183,0,0,0,0,0,0,0,0,0,-1,1364,841,0,0
147,183,0,0,0,0,0,0,0,0,0,-1,1371,841,0,0
154,183,0,0,0,0,0,0,0,0,0,-1,1378,841,0,0
161,183,0,0,0,0,0,0,0,0,0,-1,1385,841,0,0
168,183,0,0,0,0,0,0,0,0,0,-1,1392,841,0,0
175,183,0,0,0,0,0,0,0,0,0,-1,1399,841,0,0
182,183,0,0,0,0,0,0,0,0,0,-1,1406,841,0,0
189,183,0,0,0,0,0,0,0,0,0,-1,1413,841,0,0
196,183,0,0,0,0,0,0,0,0,0,-1,1420,841,0,0
203,183,0,0,0,0,0,0,0,0,0,-1,1427,841,0,0
210,183,0,0,0,0,0,0,0,0,0,-1,1434,841,0,0
217,183,0,0,0,0,0,0,0,0,0,-1,1441,841,0,0
224,183,0,0,0,0,0,0,0,0,0,-1,1448,841,0,0
231,183,0,0,0,0,0,0,0,0,0,-1,1455,841,0,0
238,183,0,0,0,0,0,0,0,0,0,-1,1462,841,0,0
245,183,0,0,0,0,0,0,0,0,0,-1,1469,841,0,0
252,183,0,0,0,0,0,0,0,0,0,-1,1476,841,0,0
259,183,0,0,0,0,0,0,0,0,0,-1,1483,841,0,0
266,183,0,0,0,0,0,0,0,0,0,-1,1490,841,0,0
273,183,0,0,0,0,0,0,0,0,0,-1,1497,841,0,0
280,183,0,0,0,0,0,0,0,0,0,-1,1504,841,0,0
287,183,0,0,0,0,0,0,0,0,0,-1,1511,841,0,0
294,183,0,0,0,0,0,0,0,0,0,-1,1518,841,0,0
301,183,0,0,0,0,0,0,0,0,0,-1,1525,841,0,0
308,183,0,0,0,0,0,0,0,0,0,-1,1532,841,0,0
315,183,0,0,0,0,0,0,0,0,0,-1,1539,841,0,0
322,183,0,0,0,0,0,0,0,0,0,-1,1546,841,0,0
329,183,0,0,0,0,0,0,0,0,0,-1,1553,841,0,0
336,183,0,0,0,0,0,0,0,0,0,-1,1560,841,0,0
343,183,0,0,0,0,0,0,0,0,0,-1,1567,841,0,0
350,183,0,0,0,0,0,0,0,0,0,-1,1574,841,0,0
357,183,0,0,0,0,0,0,0,0,0,-1,1581,841,0,0
364,183,0,0,0,0,0,0,0,0,0,-1,1588,841,0,0
371,183,0,0,0,0,0,0,0,0,0,-1,1595,841,0,0
378,183,0,0,0,0,0,0,0,0,0,-1,1602,841,0,0
385,183,0,0,0,0,0,0,0,0,0,-1,1609,841,0,0
392,183,0,0,0,0,0,0,0,0,0,-1,1616,841,0,0
399,183,0,0,0,0,0,0,0,0,0,-1,1623,841,0,0
406,183,0,0,0,0,0,0,0,0,0,-1,1630,841,0,0
413,183,0,0,0,0,0,0,0,0,0,-1,1637,841,0,0
420,183,0,0,0,0,0,0,0,0,0,-1,1644,841,0,0
427,183,0,0,0,0,0,0,0,0,0,-1,1651,841,0,0
434,183,0,0,0,0,0,0,0,0,0,-1,1658,841,0,0
441,183,0,0,0,0,0,0,0,0,0,-1,1665,841,0,0
448,183,0,0,0,0,0,0,0,0,0,-1,1672,841,0,0
455,183,0,0,0,0,0,0,0,0,0,-1,1679,841,0,0
462,183,0,0,0,0,0,0,0,0,0,-1,1686,841,0,0
469,183,0,0,0,0,0,0,0,0,0,-1,1693,841,0,0
476,183,0,0,0,0,0,0,0,0,0,-1,1700,841,0,0
483,183,0,0,0,0,0,0,0,0,0,-1,1707,841,0,0
490,183,0,0,0,0,0,0,0,0,0,-1,1714,841,0,0
497,183,0,0,0,0,0,0,0,0,0,-1,1721,841,0,0
504,183,0,0,0,0,0,0,0,0,0,-1,1728,841,0,0
511,183,0,0,0,0,0,0,0,0,0,-1,1735,841,0,0
518,183,0,0,0,0,0,0,0,0,0,-1,1742,841,0,0
525,183,0,0,0,0,0,0,0,0,0,-1,1749,841,0,0
532,183,0,0,0,0,0,0,0,0,0,-1,1756,841,0,0
539,183,0,0,0,0,0,0,0,0,0,-1,1763,841,0,0
546,183,0,0,0,0,0,0,0,0,0,-1,1770,841,0,0
553,183,0,0,0,0,0,0,0,0,0,-1,1777,841,0,0
560,183,0,0,0,0,0,0,0,0,0,-1,1784,841,0,0
567,183,0,0,0,0,0,0,0,0,0,-1,1791,841,0,0
574,183,0,0,0,0,0,0,0,0,0,-1,1798,841,0,0
581,183,0,0,0,0,0,0,0,0,0,-1,1805,841,0,0
588,183,0,0,0,0,0,0,0,0,0,-1,1812,841,0,0
595,183,0,0,0,0,0,0,0,0,0,-1,1819,841,0,0
602,183,0,0,0,0,0,0,0,0,0,-1,1826,841,0,0
609,183,31.0007,2.97754,-0.00180419,-0.000938257,-0.000273189,-0.000859275,-0.00188318,-1.28936,0.00108864,0.0425304,1833,841,31.0007,-2.97755
616,183,30.8708,3.19519,-7.63133e-05,-0.000700802,0.000720446,0.000396642,-0.00117376,0.580914,0.000942949,0.0374346,1840,841,30.8709,-3.19521
623,183,30.8115,3.19464,0.00105347,-0.000473118,0.00131973,0.00181474,-0.00123439,0.523217,0.00177102,0.038892,1847,841,30.8115,-3.19464
630,183,30.8517,3.13654,0.00165206,-0.00035972,0.00153107,0.0024781,-0.00118577,0.494763,0.00215875,0.0413506,1854,841,30.8517,-3.13654
637,183,30.9163,3.00171,0.00168643,-0.000481913,0.0013601,0.0023416,-0.00113708,0.448904,0.00204815,0.0369218,1861,841,30.9163,-3.00172
644,183,30.9083,3.03033,0.00150521,-0.000712611,0.00106765,0.00193564,-0.00114304,0.383223,0.001797,0.0290882,1868,841,30.9083,-3.03035
651,183,31.0206,3.02789,0.0012533,-0.000954367,0.000726628,0.001471,-0.00117206,0.291086,0.00152922,0.0251266,1875,841,31.0206,-3.02792
658,183,31.2482,3.07233,0.000898075,-0.00115463,0.000348328,0.000955573,-0.00121212,0.163593,0.00125444,0.0421938,1882,841,31.2482,-3.0723
665,183,31.46,3.11761,0,0,0,0,0,0,0,-1,1889,841,31.46,-3.11761
672,183,24.8652,2.34985,0,0,0,0,0,0,0,-1,1896,841,24.8652,-2.34986
679,183,24.9208,2.38165,-0.000174749,-0.00122473,-0.000446124,-1.07978e-05,-0.00138868,-0.352181,0.000922211,0.0462669,1903,841,24.9208,-2.38163
686,183,24.9421,2.46051,-0.000595263,-0.00117423,-0.00068285,-0.000143069,-0.00162642,-0.584915,0.00103988,0.0220051,1910,841,24.9421,-2.4605
693,183,24.931,2.75555,-0.00068108,-0.00120436,-0.000883446,-2.13458e-05,-0.0018641,-0.641433,0.00123568,0.0173204,1917,841,24.931,-2.75556
700,183,24.8907,3.09784,-0.000666261,-0.000730794,-0.000806269,0.000108387,-0.00150544,-0.765399,0.00104164,0.0161437,1924,841,24.8907,-3.09785
707,183,24.8531,3.40356,-0.000566667,0.000184414,-0.00046641,0.00040768,-0.000789933,-1.12434,0.000703084,0.0123551,1931,841,24.8531,-3.40355
714,183,24.8533,3.70081,3.61938e-05,0.00205213,0.000532549,0.00218416,-9.58418e-05,1.32777,0.00148908,0.0155036,1938,841,24.8533,-3.70083
721,183,24.8552,4.01697,0.00117555,0.00595334,0.00228177,0.00686797,0.000260918,1.18956,0.0044942,0.0138583,1945,841,24.8553,-4.01696
728,183,24.855,4.32593,0.00268451,0.0112093,0.00450754,0.0131506,0.000743201,1.16412,0.00853011,0.0122981,1952,841,24.855,-4.3259
735,183,24.8483,4.62378,0.00453208,0.0178382,0.00745891,0.02118,0.00119021,1.14958,0.0137405,0.0125468,1959,841,24.8482,-4.62378
742,183,24.8436,4.94861,0.00677892,0.0266862,0.011292,0.0317852,0.00167985,1.14664,0.020653,0.0114811,1966,841,24.8437,-4.94858
749,183,24.7776,5.33429,0.00957014,0.0385478,0.0162467,0.0458278,0.00229013,1.14953,0.0298178,0.0313254,1973,841,24.7776,-5.33427
756,183,24.7629,5.71179,0.0130624,0.0545397,0.0226342,0.0644996,0.00310257,1.15626,0.0420037,0.0443408,1980,841,24.7629,-5.71179
763,183,24.8687,6.06744,0,0,0,0,0,0,0,-1,1987,841,24.8686,-6.06743
770,183,24.6219,6.06769,0,0,0,0,0,0,0,-1,1994,841,24.6219,-6.06768
777,183,25.1134,6.27466,0,0,0,0,0,0,0,-1,2001,841,25.1134,-6.27467
784,183,0,0,0,0,0,0,0,0,0,-1,2008,841,0,0
791,183,0,0,0,0,0,0,0,0,0,-1,2015,841,0,0
798,183,0,0,0,0,0,0,0,0,0,-1,2022,841,0,0
805,183,0,0,0,0,0,0,0,0,0,-1,2029,841,0,0
812,183,0,0,0,0,0,0,0,0,0,-1,2036,841,0,0
-700,176,0,0,0,0,0,0,0,0,0,-1,524,848,0,0
-693,176,0,0,0,0,0,0,0,0,0,-1,531,848,0,0
-686,176,0,0,0,0,0,0,0,0,0,-1,538,848,0,0
-679,176,0,0,0,0,0,0,0,0,0,-1,545,848,0,0
-672,176,0,0,0,0,0,0,0,0,0,-1,552,848,0,0
-665,176,-26.0659,6.76526,-0.0464295,0.0606204,-0.00488436,0.0608428,-0.0466519,-1.5253,0.0622421,0.0484615,559,848,-26.0659,-6.76526
-658,176,-26.2103,7.60522,-0.0346397,0.0564989,-0.00569902,0.0568539,-0.0349947,-1.50859,0.053527,0.0471771,566,848,-26.2103,-7.60521
-651,176,-16.9407,3.79425,0,0,0,0,0,0,0,-1,573,848,-16.9407,-3.79427
-644,176,-17.2294,3.50867,0,0,0,0,0,0,0,-1,580,848,-17.2293,-3.50865
-637,176,-17.6927,3.08801,0,0,0,0,0,0,0,-1,587,848,-17.6928,-3.08802
-630,176,-17.239,2.9024,0,0,0,0,0,0,0,-1,594,848,-17.2389,-2.90242
-623,176,-17.0596,2.80365,-0.00665068,0.025017,-0.0045426,0.0256558,-0.00728942,-1.4311,0.0199819,0.0426535,601,848,-17.0596,-2.80366
-616,176,-17.0092,2.69562,-0.00462886,0.019123,-0.00356739,0.0196472,-0.00515309,-1.42489,0.0151116,0.0281379,608,848,-17.0092,-2.69561
-609,176,-17.082,2.44312,-0.00265638,0.013602,-0.00251538,0.0139822,-0.00303665,-1.42076,0.0104814,0.0121059,615,848,-17.082,-2.44313
-602,176,-17.0978,2.15009,-0.00136914,0.00889877,-0.00171359,0.0091772,-0.00164757,-1.40972,0.00673483,0.01297,622,848,-17.0979,-2.15006
-595,176,-17.1055,1.85583,-0.00044786,0.00584525,-0.000447264,0.00587688,-0.000479489,-1.5002,0.00408714,0.0115483,629,848,-17.1055,-1.85582
-588,176,-17.0984,1.56104,-0.000180019,0.00297584,0.000215668,0.00299051,-0.000194689,1.50288,0.00206164,0.0117858,636,848,-17.0984,-1.56101
-581,176,-17.1182,1.27924,0.000161363,0.000922795,0.000444246,0.00112714,-4.29845e-05,1.13967,0.000766158,0.0115182,643,848,-17.1182,-1.27922
-574,176,-17.123,0.97998,0.000347501,-4.93484e-05,0.000291744,0.000501904,-0.000203751,0.486765,0.000419357,0.0138351,650,848,-17.123,-0.979971
-567,176,-17.0327,0.77533,0.000291549,-0.00035122,-0.000270356,0.000390141,-0.000449812,-0.349688,0.000485355,0.0345161,657,848,-17.0327,-0.775322
-560,176,-17.2059,0.431396,0.000273937,-0.000493693,-0.000728773,0.000713787,-0.000933543,-0.543025,0.000953903,0.0268663,664,848,-17.2059,-0.431413
-553,176,-17.0391,0.0388184,0.000110807,-0.000473525,-0.000813423,0.000682943,-0.00104566,-0.612983,0.00100531,0.0491612,671,848,-17.0391,-0.0388072
-546,176,-16.657,-0.403198,0,0,0,0,0,0,0,-1,678,848,-16.657,0.403182
-539,176,-20.9083,1.88831,0,0,0,0,0,0,0,-1,685,848,-20.9083,-1.8883
-532,176,-21.9765,1.35303,0,0,0,0,0,0,0,-1,692,848,-21.9765,-1.35305
-525,176,-21.7154,1.70972,-0.00055625,-0.000509481,-0.00156769,0.001035,-0.00210073,-0.792856,0.00184494,0.0469398,699,848,-21.7154,-1.70974
-518,176,-21.8847,1.26587,-0.000610504,-0.000440644,-0.00140808,0.000885061,-0.00193621,-0.81552,0.00166612,0.0410293,706,848,-21.8847,-1.26585
-511,176,-22.0975,0.837341,-0.000172044,-0.000391514,-0.000969138,0.000693552,-0.00125711,-0.729023,0.00114177,0.040281,713,848,-22.0975,-0.837361
-504,176,-22.0491,1.46753,0,0,0,0,0,0,0,-1,720,848,-22.0491,-1.46755
-497,176,-22.3257,1.39172,0.0040962,-0.000472578,0.00085984,0.00425267,-0.00062904,0.179998,0.00306637,0.0409286,727,848,-22.3257,-1.39174
-490,176,-21.9506,1.47473,0,0,0,0,0,0,0,-1,734,848,-21.9506,-1.47473
-483,176,0,0,0,0,0,0,0,0,0,-1,741,848,0,0
-476,176,0,0,0,0,0,0,0,0,0,-1,748,848,0,0
-469,176,0,0,0,0,0,0,0,0,0,-1,755,848,0,0
-462,176,0,0,0,0,0,0,0,0,0,-1,762,848,0,0
-455,176,0,0,0,0,0,0,0,0,0,-1,769,848,0,0
-448,176,0,0,0,0,0,0,0,0,0,-1,776,848,0,0
-441,176,0,0,0,0,0,0,0,0,0,-1,783,848,0,0
-434,176,0,0,0,0,0,0,0,0,0,-1,790,848,0,0
-427,176,0,0,0,0,0,0,0,0,0,-1,797,848,0,0
-420,176,0,0,0,0,0,0,0,0,0,-1,804,848,0,0
-413,176,0,0,0,0,0,0,0,0,0,-1,811,848,0,0
-406,176,0,0,0,0,0,0,0,0,0,-1,818,848,0,0
-399,176,0,0,0,0,0,0,0,0,0,-1,825,848,0,0
-392,176,0,0,0,0,0,0,0,0,0,-1,832,848,0,0
-385,176,0,0,0,0,0,0,0,0,0,-1,839,848,0,0
-378,176,0,0,0,0,0,0,0,0,0,-1,846,848,0,0
-371,176,0,0,0,0,0,0,0,0,0,-1,853,848,0,0
-364,176,0,0,0,0,0,0,0,0,0,-1,860,848,0,0
-357,176,0,0,0,0,0,0,0,0,0,-1,867,848,0,0
-350,176,0,0,0,0,0,0,0,0,0,-1,874,848,0,0
-343,176,0,0,0,0,0,0,0,0,0,-1,881,848,0,0
-336,176,0,0,0,0,0,0,0,0,0,-1,888,848,0,0
-329,176,0,0,0,0,0,0,0,0,0,-1,895,848,0,0
-322,176,0,0,0,0,0,0,0,0,0,-1,902,848,0,0
-315,176,0,0,0,0,0,0,0,0,0,-1,909,848,0,0
-308,176,0,0,0,0,0,0,0,0,0,-1,916,848,0,0
-301,176,0,0,0,0,0,0,0,0,0,-1,923,848,0,0
-294,176,0,0,0,0,0,0,0,0,0,-1,930,848,0,0
-287,176,0,0,0,0,0,0,0,0,0,-1,937,848,0,0
-280,176,0,0,0,0,0,0,0,0,0,-1,944,848,0,0
-273,176,0,0,0,0,0,0,0,0,0,-1,951,848,0,0
-266,176,0,0,0,0,0,0,0,0,0,-1,958,848,0,0
-259,176,0,0,0,0,0,0,0,0,0,-1,965,848,0,0
-252,176,0,0,0,0,0,0,0,0,0,-1,972,848,0,0
-245,176,0,0,0,0,0,0,0,0,0,-1,979,848,0,0
-238,176,0,0,0,0,0,0,0,0,0,-1,986,848,0,0
-231,176,0,0,0,0,0,0,0,0,0,-1,993,848,0,0
-224,176,0,0,0,0,0,0,0,0,0,-1,1000,848,0,0
-217,176,0,0,0,0,0,0,0,0,0,-1,1007,848,0,0
-210,176,0,0,0,0,0,0,0,0,0,-1,1014,848,0,0
-203,176,0,0,0,0,0,0,0,0,0,-1,1021,848,0,0
-196,176,0,0,0,0,0,0,0,0,0,-1,1028,848,0,0
-189,176,0,0,0,0,0,0,0,0,0,-1,1035,848,0,0
-182,176,0,0,0,0,0,0,0,0,0,-1,1042,848,0,0
-175,176,0,0,0,0,0,0,0,0,0,-1,1049,848,0,0
-168,176,0,0,0,0,0,0,0,0,0,-1,1056,848,0,0
-161,176,0,0,0,0,0,0,0,0,0,-1,1063,848,0,0
-154,176,0,0,0,0,0,0,0,0,0,-1,1070,848,0,0
-147,176,0,0,0,0,0,0,0,0,0,-1,1077,848,0,0
-140,176,0,0,0,0,0,0,0,0,0,-1,1084,848,0,0
-133,176,0,0,0,0,0,0,0,0,0,-1,1091,848,0,0
-126,176,0,0,0,0,0,0,0,0,0,-1,1098,848,0,0
-119,176,0,0,0,0,0,0,0,0,0,-1,1105,848,0,0
-112,176,0,0,0,0,0,0,0,0,0,-1,1112,848,0,0
-105,176,0,0,0,0,0,0,0,0,0,-1,1119,848,0,0
-98,176,0,0,0,0,0,0,0,0,0,-1,1126,848,0,0
-91,176,0,0,0,0,0,0,0,0,0,-1,1133,848,0,0
-84,176,0,0,0,0,0,0,0,0,0,-1,1140,848,0,0
-77,176,0,0,0,0,0,0,0,0,0,-1,1147,848,0,0
-70,176,0,0,0,0,0,0,0,0,0,-1,1154,848,0,0
-63,176,0,0,0,0,0,0,0,0,0,-1,1161,848,0,0
-56,176,0,0,0,0,0,0,0,0,0,-1,1168,848,0,0
-49,176,0,0,0,0,0,0,0,0,0,-1,1175,848,0,0
-42,176,0,0,0,0,0,0,0,0,0,-1,1182,848,0,0
-35,176,0,0,0,0,0,0,0,0,0,-1,1189,848,0,0
-28,176,0,0,0,0,0,0,0,0,0,-1,1196,848,0,0
-21,176,0,0,0,0,0,0,0,0,0,-1,1203,848,0,0
-14,176,0,0,0,0,0,0,0,0,0,-1,1210,848,0,0
-7,176,0,0,0,0,0,0,0,0,0,-1,1217,848,0,0
0,176,0,0,0,0,0,0,0,0,0,-1,1224,848,0,0
7,176,0,0,0,0,0,0,0,0,0,-1,1231,848,0,0
14,176,0,0,0,0,0,0,0,0,0,-1,1238,848,0,0
21,176,0,0,0,0,0,0,0,0,0,-1,1245,848,0,0
28,176,0,0,0,0,0,0,0,0,0,-1,1252,848,0,0
35,176,0,0,0,0,0,0,0,0,0,-1,1259,848,0,0
42,176,0,0,0,0,0,0,0,0,0,-1,1266,848,0,0
49,176,0,0,0,0,0,0,0,0,0,-1,1273,848,0,0
56,176,0,0,0,0,0,0,0,0,0,-1,1280,848,0,0
63,176,0,0,0,0,0,0,0,0,0,-1,1287,848,0,0
70,176,0,0,0,0,0,0,0,0,0,-1,1294,848,0,0
77,176,0,0,0,0,0,0,0,0,0,-1,1301,848,0,0
84,176,0,0,0,0,0,0,0,0,0,-1,1308,848,0,0
91,176,0,0,0,0,0,0,0,0,0,-1,1315,848,0,0
98,176,0,0,0,0,0,0,0,0,0,-1,1322,848,0,0
105,176,0,0,0,0,0,0,0,0,0,-1,1329,848,0,0
112,176,0,0,0,0,0,0,0,0,0,-1,1336,848,0,0
119,176,0,0,0,0,0,0,0,0,0,-1,1343,848,0,0
126,176,0,0,0,0,0,0,0,0,0,-1,1350,848,0,0
133,176,0,0,0,0,0,0,0,0,0,-1,1357,848,0,0
140,176,0,0,0,0,0,0,0,0,0,-1,1364,848,0,0
147,176,0,0,0,0,0,0,0,0,0,-1,1371,848,0,0
154,176,0,0,0,0,0,0,0,0,0,-1,1378,848,0,0
161,176,0,0,0,0,0,0,0,0,0,-1,1385,848,0,0
168,176,0,0,0,0,0,0,0,0,0,-1,1392,848,0,0
175,176,0,0,0,0,0,0,0,0,0,-1,1399,848,0,0
182,176,0,0,0,0,0,0,0,0,0,-1,1406,848,0,0
189,176,0,0,0,0,0,0,0,0,0,-1,1413,848,0,0
196,176,0,0,0,0,0,0,0,0,0,-1,1420,848,0,0
203,176,0,0,0,0,0,0,0,0,0,-1,1427,848,0,0
210,176,0,0,0,0,0,0,0,0,0,-1,1434,848,0,0
217,176,0,0,0,0,0,0,0,0,0,-1,1441,848,0,0
224,176,0,0,0,0,0,0,0,0,0,-1,1448,848,0,0
231,176,0,0,0,0,0,0,0,0,0,-1,1455,848,0,0
238,176,0,0,0,0,0,0,0,0,0,-1,1462,848,0,0
245,176,0,0,0,0,0,0,0,0,0,-1,1469,848,0,0
252,176,0,0,0,0,0,0,0,0,0,-1,1476,848,0,0
259,176,0,0,0,0,0,0,0,0,0,-1,1483,848,0,0
266,176,0,0,0,0,0,0,0,0,0,-1,1490,848,0,0
273,176,0,0,0,0,0,0,0,0,0,-1,1497,848,0,0
280,176,0,0,0,0,0,0,0,0,0,-1,1504,848,0,0
287,176,0,0,0,0,0,0,0,0,0,-1,1511,848,0,0
294,176,0,0,0,0,0,0,0,0,0,-1,1518,848,0,0
301,176,0,0,0,0,0,0,0,0,0,-1,1525,848,0,0
308,176,0,0,0,0,0,0,0,0,0,-1,1532,848,0,0
315,176,0,0,0,0,0,0,0,0,0,-1,1539,848,0,0
322,176,0,0,0,0,0,0,0,0,0,-1,1546,848,0,0
329,176,0,0,0,0,0,0,0,0,0,-1,1553,848,0,0
336,176,0,0,0,0,0,0,0,0,0,-1,1560,848,0,0
343,176,0,0,0,0,0,0,0,0,0,-1,1567,848,0,0
350,176,0,0,0,0,0,0,0,0,0,-1,1574,848,0,0
357,176,0,0,0,0,0,0,0,0,0,-1,1581,848,0,0
364,176,0,0,0,0,0,0,0,0,0,-1,1588,848,0,0
371,176,0,0,0,0,0,0,0,0,0,-1,1595,848,0,0
378,176,0,0,0,0,0,0,0,0,0,-1,1602,848,0,0
385,176,0,0,0,0,0,0,0,0,0,-1,1609,848,0,0
392,176,0,0,0,0,0,0,0,0,0,-1,1616,848,0,0
399,176,0,0,0,0,0,0,0,0,0,-1,1623,848,0,0
406,176,0,0,0,0,0,0,0,0,0,-1,1630,848,0,0
413,176,0,0,0,0,0,0,0,0,0,-1,1637,848,0,0
420,176,0,0,0,0,0,0,0,0,0,-1,1644,848,0,0
427,176,0,0,0,0,0,0,0,0,0,-1,1651,848,0,0
434,176,0,0,0,0,0,0,0,0,0,-1,1658,848,0,0
441,176,0,0,0,0,0,0,0,0,0,-1,1665,848,0,0
448,176,0,0,0,0,0,0,0,0,0,-1,1672,848,0,0
455,176,0,0,0,0,0,0,0,0,0,-1,1679,848,0,0
462,176,0,0,0,0,0,0,0,0,0,-1,1686,848,0,0
469,176,0,0,0,0,0,0,0,0,0,-1,1693,848,0,0
476,176,0,0,0,0,0,0,0,0,0,-1,1700,848,0,0
483,176,0,0,0,0,0,0,0,0,0,-1,1707,848,0,0
490,176,0,0,0,0,0,0,0,0,0,-1,1714,848,0,0
497,176,0,0,0,0,0,0,0,0,0,-1,1721,848,0,0
504,176,0,0,0,0,0,0,0,0,0,-1,1728,848,0,0
511,176,0,0,0,0,0,0,0,0,0,-1,1735,848,0,0
518,176,0,0,0,0,0,0,0,0,0,-1,1742,848,0,0
525,176,0,0,0,0,0,0,0,0,0,-1,1749,848,0,0
532,176,0,0,0,0,0,0,0,0,0,-1,1756,848,0,0
539,176,0,0,0,0,0,0,0,0,0,-1,1763,848,0,0
546,176,0,0,0,0,0,0,0,0,0,-1,1770,848,0,0
553,176,0,0,0,0,0,0,0,0,0,-1,1777,848,0,0
560,176,0,0,0,0,0,0,0,0,0,-1,1784,848,0,0
567,176,0,0,0,0,0,0,0,0,0,-1,1791,848,0,0
574,176,0,0,0,0,0,0,0,0,0,-1,1798,848,0,0
581,176,0,0,0,0,0,0,0,0,0,-1,1805,848,0,0
588,176,0,0,0,0,0,0,0,0,0,-1,1812,848,0,0
595,176,0,0,0,0,0,0,0,0,0,-1,1819,848,0,0
602,176,0,0,0,0,0,0,0,0,0,-1,1826,848,0,0
609,176,31.0596,3.10248,-0.0018695,-0.0034238,-0.000862294,-0.00148583,-0.00380747,-0.418644,0.00221583,0.0403451,1833,848,31.0595,-3.10249
616,176,30.7577,2.97711,-0.000384491,-0.00229844,-0.000113154,-0.000377824,-0.00230511,-0.0588473,0.00142756,0.038132,1840,848,30.7577,-2.97711
623,176,30.7775,2.88885,0.000659365,-0.0013465,0.000465697,0.000762212,-0.00144934,0.217356,0.00129722,0.0424159,1847,848,30.7774,-2.88888
630,176,31.109,3.0174,0.00135158,-0.000563006,0.000843444,0.00167014,-0.000881569,0.361129,0.0014965,0.0422715,1854,848,31.109,-3.01737
637,176,31.0558,2.96912,0.00150994,-0.000291779,0.000879925,0.00186837,-0.000650211,0.386821,0.00150973,0.0328251,1861,848,31.0557,-2.96913
644,176,30.9202,2.97107,0.00142315,-0.00032414,0.000751916,0.00170217,-0.000603159,0.355327,0.00138047,0.0322491,1868,848,30.9202,-2.97108
651,176,30.9468,3.06512,0.00119654,-0.000485708,0.000528327,0.0013487,-0.000637871,0.28042,0.00117117,0.0326025,1875,848,30.9468,-3.0651
658,176,31.1014,3.00079,0.000863448,-0.000678572,0.000246605,0.000901925,-0.00071705,0.154782,0.000936745,0.0357059,1882,848,31.1014,-3.00081
665,176,31.1646,3.02802,0,0,0,0,0,0,0,-1,1889,848,31.1646,-3.02801
672,176,16.9304,2.80719,0,0,0,0,0,0,0,-1,1896,848,16.9305,-2.80719
679,176,25.394,2.24823,0,0,0,0,0,0,0,-1,1903,848,25.394,-2.24826
686,176,25.4041,2.50391,-0.000511132,-0.00092841,-0.000484116,-0.00019261,-0.00124693,-0.58194,0.000775103,0.0306999,1910,848,25.404,-2.50391
693,176,25.2787,2.84204,-0.000638025,-0.00094777,-0.000712731,-6.35339e-05,-0.00152226,-0.678414,0.000994339,0.0159126,1917,848,25.2787,-2.84207
700,176,25.2115,3.15253,-0.000691978,-0.000593158,-0.000721415,8.05375e-05,-0.00136567,-0.81959,0.000938447,0.0175621,1924,848,25.2116,-3.1525
707,176,25.2008,3.44348,-0.000654223,8.22276e-05,-0.000512853,0.000345357,-0.000917352,-1.09675,0.000753545,0.0139108,1931,848,25.2008,-3.44347
714,176,25.2021,3.71973,-0.000164675,0.001553,0.000205876,0.00157733,-0.000189006,1.45316,0.00111989,0.0117773,1938,848,25.2022,-3.7197
721,176,25.1937,4.01587,0.000883782,0.00476165,0.00152356,0.00528862,0.000356811,1.23779,0.00341303,0.011291,1945,848,25.1937,-4.0159
728,176,25.1858,4.33942,0.00228459,0.00917621,0.00327618,0.0104851,0.000975721,1.19071,0.00668858,0.0139395,1952,848,25.1858,-4.33943
735,176,25.1625,4.63672,0.00403885,0.0148577,0.00561917,0.0172481,0.00164848,1.16859,0.0109905,0.0145362,1959,848,25.1625,-4.63672
742,176,25.1538,4.93646,0.00616406,0.0224042,0.00863977,0.0261408,0.00242744,1.1626,0.016677,0.0168601,1966,848,25.1538,-4.93645
749,176,25.1587,5.22357,0.00879727,0.0324427,0.0125111,0.0378334,0.00340649,1.16396,0.024167,0.0275505,1973,848,25.1586,-5.22354
756,176,25.354,5.47101,0.0120968,0.0460324,0.0175311,0.0534622,0.00466697,1.16993,0.0341921,0.0427865,1980,848,25.354,-5.47103
763,176,25.6637,5.61444,0,0,0,0,0,0,0,-1,1987,848,25.6637,-5.61443
770,176,26.3579,6.53101,0,0,0,0,0,0,0,-1,1994,848,26.3579,-6.53099
777,176,25.2305,5.22192,0,0,0,0,0,0,0,-1,2001,848,25.2304,-5.22195
784,176,0,0,0,0,0,0,0,0,0,-1,2008,848,0,0
791,176,0,0,0,0,0,0,0,0,0,-1,2015,848,0,0
798,176,0,0,0,0,0,0,0,0,0,-1,2022,848,0,0
805,176,0,0,0,0,0,0,0,0,0,-1,2029,848,0,0
812,176,0,0,0,0,0,0,0,0,0,-1,2036,848,0,0
-700,169,0,0,0,0,0,0,0,0,0,-1,524,855,0,0
-693,169,0,0,0,0,0,0,0,0,0,-1,531,855,0,0
-686,169,0,0,0,0,0,0,0,0,0,-1,538,855,0,0
-679,169,0,0,0,0,0,0,0,0,0,-1,545,855,0,0
-672,169,0,0,0,0,0,0,0,0,0,-1,552,855,0,0
-665,169,-24.9241,6.39349,-0.0383646,0.059419,0.000465515,0.0594212,-0.0383668,1.56604,0.0568925,0.0464857,559,855,-24.9241,-6.39349
-658,169,-25.9298,7.00751,-0.0280376,0.0522155,-0.00073675,0.0522222,-0.0280443,-1.56162,0.0470375,0.0465153,566,855,-25.9298,-7.00753
-651,169,-17.066,3.9787,0,0,0,0,0,0,0,-1,573,855,-17.066,-3.9787
-644,169,-17.3707,3.66547,0,0,0,0,0,0,0,-1,580,855,-17.3707,-3.66549
-637,169,-17.6981,3.29797,0,0,0,0,0,0,0,-1,587,855,-17.6981,-3.29798
-630,169,-17.8099,3.08234,0,0,0,0,0,0,0,-1,594,855,-17.8098,-3.08232
-623,169,-17.5974,2.88617,-0.00422641,0.0199032,-0.00184031,0.0200428,-0.00436596,-1.49511,0.01503,0.0401486,601,855,-17.5974,-2.88618
-616,169,-17.377,2.73236,-0.00268083,0.0148665,-0.00149456,0.0149929,-0.00280722,-1.48643,0.0110505,0.0224174,608,855,-17.3769,-2.73239
-609,169,-17.3895,2.44659,-0.00114081,0.0101395,-0.000959796,0.0102206,-0.0012219,-1.48652,0.00725539,0.0136248,615,855,-17.3895,-2.44658
-602,169,-17.4005,2.13715,-0.000314067,0.00633584,-0.000562535,0.00638309,-0.000361318,-1.487,0.0043808,0.01295,622,855,-17.4005,-2.13716
-595,169,-17.4094,1.83063,0.000162538,0.00403637,0.000208871,0.0040476,0.000151308,1.51709,0.0026494,0.0111505,629,855,-17.4094,-1.83061
-588,169,-17.4008,1.56317,0.000228185,0.00205879,0.000499721,0.00218632,0.000100655,1.32093,0.00142518,0.00941022,636,855,-17.4008,-1.56315
-581,169,-17.4294,1.30261,0.00052186,0.000583163,0.000513044,0.00106647,3.85526e-05,0.815235,0.000698484,0.0108608,643,855,-17.4294,-1.30262
-574,169,-17.5365,1.00256,0.000641105,-0.00013683,0.000234417,0.000706282,-0.000202007,0.271188,0.000550682,0.0166304,650,855,-17.5365,-1.00255
-567,169,-17.4092,0.802551,0.000607708,-0.000381256,-0.000333198,0.000709492,-0.00048304,-0.296474,0.000692634,0.0306967,657,855,-17.4092,-0.802571
-560,169,-17.4671,0.56189,0.000620161,-0.00050773,-0.000742917,0.000988932,-0.000876501,-0.460749,0.00107766,0.0316812,664,855,-17.4671,-0.561869
-553,169,-17.3547,0.127869,0.000480525,-0.000473453,-0.000840534,0.000969981,-0.000962909,-0.527315,0.00111596,0.0443907,671,855,-17.3547,-0.127852
-546,169,-16.9437,-0.38446,0,0,0,0,0,0,0,-1,678,855,-16.9437,0.384489
-539,169,-22.0178,1.28143,0,0,0,0,0,0,0,-1,685,855,-22.0178,-1.28144
-532,169,-22.0009,1.26605,9.76771e-05,-0.00050797,-0.0014702,0.00129592,-0.00170621,-0.683832,0.00173867,0.0355896,692,855,-22.0009,-1.26604
-525,169,-21.9077,1.35278,-9.78072e-05,-0.000479903,-0.00146024,0.00118383,-0.00176154,-0.720351,0.00171138,0.0412335,699,855,-21.9077,-1.35275
-518,169,-22.103,0.993164,-0.000137722,-0.000472484,-0.00119347,0.000900048,-0.00151025,-0.715729,0.00140637,0.0405603,706,855,-22.1031,-0.993182
-511,169,-22.2032,0.856812,0.000470445,-0.000552235,-0.000548203,0.000708769,-0.000790559,-0.410088,0.000866066,0.0411529,713,855,-22.2033,-0.856788
-504,169,-22.1641,1.36078,0.00214696,-0.00082084,0.000535981,0.00224079,-0.000914671,0.173308,0.00187467,0.0423938,720,855,-22.164,-1.3608
-497,169,-22.0938,1.49182,0.00630843,-0.00111693,0.00204078,0.00683235,-0.00164085,0.251299,0.00518906,0.0427999,727,855,-22.0938,-1.49184
-490,169,0,0,0,0,0,0,0,0,0,-1,734,855,0,0
-483,169,0,0,0,0,0,0,0,0,0,-1,741,855,0,0
-476,169,0,0,0,0,0,0,0,0,0,-1,748,855,0,0
-469,169,0,0,0,0,0,0,0,0,0,-1,755,855,0,0
-462,169,0,0,0,0,0,0,0,0,0,-1,762,855,0,0
-455,169,0,0,0,0,0,0,0,0,0,-1,769,855,0,0
-448,169,0,0,0,0,0,0,0,0,0,-1,776,855,0,0
-441,169,0,0,0,0,0,0,0,0,0,-1,783,855,0,0
-434,169,0,0,0,0,0,0,0,0,0,-1,790,855,0,0
-427,169,0,0,0,0,0,0,0,0,0,-1,797,855,0,0
-420,169,0,0,0,0,0,0,0,0,0,-1,804,855,0,0
-413,169,0,0,0,0,0,0,0,0,0,-1,811,855,0,0
-406,169,0,0,0,0,0,0,0,0,0,-1,818,855,0,0
-399,169,0,0,0,0,0,0,0,0,0,-1,825,855,0,0
-392,169,0,0,0,0,0,0,0,0,0,-1,832,855,0,0
-385,169,0,0,0,0,0,0,0,0,0,-1,839,855,0,0
-378,169,0,0,0,0,0,0,0,0,0,-1,846,855,0,0
-371,169,0,0,0,0,0,0,0,0,0,-1,853,855,0,0
-364,169,0,0,0,0,0,0,0,0,0,-1,860,855,0,0
-357,169,0,0,0,0,0,0,0,0,0,-1,867,855,0,0
-350,169,0,0,0,0,0,0,0,0,0,-1,874,855,0,0
-343,169,0,0,0,0,0,0,0,0,0,-1,881,855,0,0
-336,169,0,0,0,0,0,0,0,0,0,-1,888,855,0,0
-329,169,0,0,0,0,0,0,0,0,0,-1,895,855,0,0
-322,169,0,0,0,0,0,0,0,0,0,-1,902,855,0,0
-315,169,0,0,0,0,0,0,0,0,0,-1,909,855,0,0
-308,169,0,0,0,0,0,0,0,0,0,-1,916,855,0,0
-301,169,0,0,0,0,0,0,0,0,0,-1,923,855,0,0
-294,169,0,0,0,0,0,0,0,0,0,-1,930,855,0,0
-287,169,0,0,0,0,0,0,0,0,0,-1,937,855,0,0
-280,169,0,0,0,0,0,0,0,0,0,-1,944,855,0,0
-273,169,0,0,0,0,0,0,0,0,0,-1,951,855,0,0
-266,169,0,0,0,0,0,0,0,0,0,-1,958,855,0,0
-259,169,0,0,0,0,0,0,0,0,0,-1,965,855,0,0
-252,169,0,0,0,0,0,0,0,0,0,-1,972,855,0,0
-245,169,0,0,0,0,0,0,0,0,0,-1,979,855,0,0
-238,169,0,0,0,0,0,0,0,0,0,-1,986,855,0,0
-231,169,0,0,0,0,0,0,0,0,0,-1,993,855,0,0
-224,169,0,0,0,0,0,0,0,0,0,-1,1000,855,0,0
-217,169,0,0,0,0,0,0,0,0,0,-1,1007,855,0,0
-210,169,0,0,0,0,0,0,0,0,0,-1,1014,855,0,0
-203,169,0,0,0,0,0,0,0,0,0,-1,1021,855,0,0
-196,169,0,0,0,0,0,0,0,0,0,-1,1028,855,0,0
-189,169,0,0,0,0,0,0,0,0,0,-1,1035,855,0,0
-182,169,0,0,0,0,0,0,0,0,0,-1,1042,855,0,0
-175,169,0,0,0,0,0,0,0,0,0,-1,1049,855,0,0
-168,169,0,0,0,0,0,0,0,0,0,-1,1056,855,0,0
-161,169,0,0,0,0,0,0,0,0,0,-1,1063,855,0,0
-154,169,0,0,0,0,0,0,0,0,0,-1,1070,855,0,0
-147,169,0,0,0,0,0,0,0,0,0,-1,1077,855,0,0
-140,169,0,0,0,0,0,0,0,0,0,-1,1084,855,0,0
-133,169,0,0,0,0,0,0,0,0,0,-1,1091,855,0,0
-126,169,0,0,0,0,0,0,0,0,0,-1,1098,855,0,0
-119,169,0,0,0,0,0,0,0,0,0,-1,1105,855,0,0
-112,169,0,0,0,0,0,0,0,0,0,-1,1112,855,0,0
-105,169,0,0,0,0,0,0,0,0,0,-1,1119,855,0,0
-98,169,0,0,0,0,0,0,0,0,0,-1,1126,855,0,0
-91,169,0,0,0,0,0,0,0,0,0,-1,1133,855,0,0
-84,169,0,0,0,0,0,0,0,0,0,-1,1140,855,0,0
-77,169,0,0,0,0,0,0,0,0,0,-1,1147,855,0,0
-70,169,0,0,0,0,0,0,0,0,0,-1,1154,855,0,0
-63,169,0,0,0,0,0,0,0,0,0,-1,1161,855,0,0
-56,169,0,0,0,0,0,0,0,0,0,-1,1168,855,0,0
-49,169,0,0,0,0,0,0,0,0,0,-1,1175,855,0,0
-42,169,0,0,0,0,0,0,0,0,0,-1,1182,855,0,0
-35,169,0,0,0,0,0,0,0,0,0,-1,1189,855,0,0
-28,169,0,0,0,0,0,0,0,0,0,-1,1196,855,0,0
-21,169,0,0,0,0,0,0,0,0,0,-1,1203,855,0,0
-14,169,0,0,0,0,0,0,0,0,0,-1,1210,855,0,0
-7,169,0,0,0,0,0,0,0,0,0,-1,1217,855,0,0
0,169,0,0,0,0,0,0,0,0,0,-1,1224,855,0,0
7,169,0,0,0,0,0,0,0,0,0,-1,1231,855,0,0
14,169,0,0,0,0,0,0,0,0,0,-1,1238,855,0,0
21,169,0,0,0,0,0,0,0,0,0,-1,1245,855,0,0
28,169,0,0,0,0,0,0,0,0,0,-1,1252,855,0,0
35,169,0,0,0,0,0,0,0,0,0,-1,1259,855,0,0
42,169,0,0,0,0,0,0,0,0,0,-1,1266,855,0,0
49,169,0,0,0,0,0,0,0,0,0,-1,1273,855,0,0
56,169,0,0,0,0,0,0,0,0,0,-1,1280,855,0,0
63,169,0,0,0,0,0,0,0,0,0,-1,1287,855,0,0
70,169,0,0,0,0,0,0,0,0,0,-1,1294,855,0,0
77,169,0,0,0,0,0,0,0,0,0,-1,1301,855,0,0
84,169,0,0,0,0,0,0,0,0,0,-1,1308,855,0,0
91,169,0,0,0,0,0,0,0,0,0,-1,1315,855,0,0
98,169,0,0,0,0,0,0,0,0,0,-1,1322,855,0,0
105,169,0,0,0,0,0,0,0,0,0,-1,1329,855,0,0
112,169,0,0,0,0,0,0,0,0,0,-1,1336,855,0,0
119,169,0,0,0,0,0,0,0,0,0,-1,1343,855,0,0
126,169,0,0,0,0,0,0,0,0,0,-1,1350,855,0,0
133,169,0,0,0,0,0,0,0,0,0,-1,1357,855,0,0
140,169,0,0,0,0,0,0,0,0,0,-1,1364,855,0,0
147,169,0,0,0,0,0,0,0,0,0,-1,1371,855,0,0
154,169,0,0,0,0,0,0,0,0,0,-1,1378,855,0,0
161,169,0,0,0,0,0,0,0,0,0,-1,1385,855,0,0
168,169,0,0,0,0,0,0,0,0,0,-1,1392,855,0,0
175,169,0,0,0,0,0,0,0,0,0,-1,1399,855,0,0
182,169,0,0,0,0,0,0,0,0,0,-1,1406,855,0,0
189,169,0,0,0,0,0,0,0,0,0,-1,1413,855,0,0
196,169,0,0,0,0,0,0,0,0,0,-1,1420,855,0,0
203,169,0,0,0,0,0,0,0,0,0,-1,1427,855,0,0
210,169,0,0,0,0,0,0,0,0,0,-1,1434,855,0,0
217,169,0,0,0,0,0,0,0,0,0,-1,1441,855,0,0
224,169,0,0,0,0,0,0,0,0,0,-1,1448,855,0,0
231,169,0,0,0,0,0,0,0,0,0,-1,1455,855,0,0
238,169,0,0,0,0,0,0,0,0,0,-1,1462,855,0,0
245,169,0,0,0,0,0,0,0,0,0,-1,1469,855,0,0
252,169,0,0,0,0,0,0,0,0,0,-1,1476,855,0,0
259,169,0,0,0,0,0,0,0,0,0,-1,1483,855,0,0
266,169,0,0,0,0,0,0,0,0,0,-1,1490,855,0,0
273,169,0,0,0,0,0,0,0,0,0,-1,1497,855,0,0
280,169,0,0,0,0,0,0,0,0,0,-1,1504,855,0,0
287,169,0,0,0,0,0,0,0,0,0,-1,1511,855,0,0
294,169,0,0,0,0,0,0,0,0,0,-1,1518,855,0,0
301,169,0,0,0,0,0,0,0,0,0,-1,1525,855,0,0
308,169,0,0,0,0,0,0,0,0,0,-1,1532,855,0,0
315,169,0,0,0,0,0,0,0,0,0,-1,1539,855,0,0
322,169,0,0,0,0,0,0,0,0,0,-1,1546,855,0,0
329,169,0,0,0,0,0,0,0,0,0,-1,1553,855,0,0
336,169,0,0,0,0,0,0,0,0,0,-1,1560,855,0,0
343,169,0,0,0,0,0,0,0,0,0,-1,1567,855,0,0
350,169,0,0,0,0,0,0,0,0,0,-1,1574,855,0,0
357,169,0,0,0,0,0,0,0,0,0,-1,1581,855,0,0
364,169,0,0,0,0,0,0,0,0,0,-1,1588,855,0,0
371,169,0,0,0,0,0,0,0,0,0,-1,1595,855,0,0
378,169,0,0,0,0,0,0,0,0,0,-1,1602,855,0,0
385,169,0,0,0,0,0,0,0,0,0,-1,1609,855,0,0
392,169,0,0,0,0,0,0,0,0,0,-1,1616,855,0,0
399,169,0,0,0,0,0,0,0,0,0,-1,1623,855,0,0
406,169,0,0,0,0,0,0,0,0,0,-1,1630,855,0,0
413,169,0,0,0,0,0,0,0,0,0,-1,1637,855,0,0
420,169,0,0,0,0,0,0,0,0,0,-1,1644,855,0,0
427,169,0,0,0,0,0,0,0,0,0,-1,1651,855,0,0
434,169,0,0,0,0,0,0,0,0,0,-1,1658,855,0,0
441,169,0,0,0,0,0,0,0,0,0,-1,1665,855,0,0
448,169,0,0,0,0,0,0,0,0,0,-1,1672,855,0,0
455,169,0,0,0,0,0,0,0,0,0,-1,1679,855,0,0
462,169,0,0,0,0,0,0,0,0,0,-1,1686,855,0,0
469,169,0,0,0,0,0,0,0,0,0,-1,1693,855,0,0
476,169,0,0,0,0,0,0,0,0,0,-1,1700,855,0,0
483,169,0,0,0,0,0,0,0,0,0,-1,1707,855,0,0
490,169,0,0,0,0,0,0,0,0,0,-1,1714,855,0,0
497,169,0,0,0,0,0,0,0,0,0,-1,1721,855,0,0
504,169,0,0,0,0,0,0,0,0,0,-1,1728,855,0,0
511,169,0,0,0,0,0,0,0,0,0,-1,1735,855,0,0
518,169,0,0,0,0,0,0,0,0,0,-1,1742,855,0,0
525,169,0,0,0,0,0,0,0,0,0,-1,1749,855,0,0
532,169,0,0,0,0,0,0,0,0,0,-1,1756,855,0,0
539,169,0,0,0,0,0,0,0,0,0,-1,1763,855,0,0
546,169,0,0,0,0,0,0,0,0,0,-1,1770,855,0,0
553,169,0,0,0,0,0,0,0,0,0,-1,1777,855,0,0
560,169,0,0,0,0,0,0,0,0,0,-1,1784,855,0,0
567,169,0,0,0,0,0,0,0,0,0,-1,1791,855,0,0
574,169,0,0,0,0,0,0,0,0,0,-1,1798,855,0,0
581,169,0,0,0,0,0,0,0,0,0,-1,1805,855,0,0
588,169,0,0,0,0,0,0,0,0,0,-1,1812,855,0,0
595,169,0,0,0,0,0,0,0,0,0,-1,1819,855,0,0
602,169,0,0,0,0,0,0,0,0,0,-1,1826,855,0,0
609,169,0,0,0,0,0,0,0,0,0,-1,1833,855,0,0
616,169,30.8066,2.9892,-0.000769361,-0.0043119,-0.00156345,-0.00017805,-0.00490321,-0.36158,0.0032111,0.0424163,1840,855,30.8066,-2.98919
623,169,31.0834,2.81482,0.0003431,-0.00282549,-0.000838074,0.00055111,-0.00303351,-0.243284,0.00222887,0.046948,1847,855,31.0833,-2.81484
630,169,31.4636,2.76868,0.00123513,-0.00142696,-0.000157247,0.00124438,-0.00143622,-0.0587965,0.00154897,0.0413956,1854,855,31.4636,-2.76869
637,169,31.1661,2.88818,0.00159055,-0.0006833,0.000194097,0.001607,-0.000699749,0.0845454,0.0013657,0.0357326,1861,855,31.1661,-2.8882
644,169,30.9724,3.11737,0.00163117,-0.000403804,0.000308886,0.00167703,-0.000449656,0.147367,0.00129421,0.0357925,1868,855,30.9724,-3.11735
651,169,30.8955,3.23798,0.00145349,-0.000388464,0.000260833,0.00148972,-0.000424688,0.137993,0.0011609,0.0364061,1875,855,30.8955,-3.23796
658,169,31.0049,3.09772,0.00115837,-0.000505004,0.000109023,0.00116549,-0.00051212,0.0651714,0.000992751,0.0336946,1882,855,31.0049,-3.09774
665,169,31.1278,3.00006,0.000925626,-0.000571972,-8.43716e-05,0.000930364,-0.000576711,-0.0561013,0.00087806,0.0473511,1889,855,31.1278,-3.00008
672,169,31.2465,2.96387,0,0,0,0,0,0,0,-1,1896,855,31.2464,-2.9639
679,169,25.54,2.15448,0,0,0,0,0,0,0,-1,1903,855,25.5401,-2.15445
686,169,25.584,2.51495,-0.000154173,-0.00073114,-0.000312564,-1.73105e-05,-0.000868002,-0.41272,0.000572985,0.0303812,1910,855,25.584,-2.51495
693,169,25.6045,2.85565,-0.000336156,-0.000692246,-0.000506266,2.24604e-05,-0.00105086,-0.616312,0.000708181,0.0159756,1917,855,25.6045,-2.85563
700,169,25.5715,3.1604,-0.000491158,-0.000412539,-0.000570517,0.000120022,-0.00102372,-0.819795,0.000725801,0.0148222,1924,855,25.5715,-3.16038
707,169,25.5369,3.44525,-0.000524545,6.48925e-05,-0.00046855,0.000323706,-0.000783358,-1.06613,0.000657272,0.0148289,1931,855,25.5368,-3.44523
714,169,25.5115,3.71643,-0.000182644,0.00115423,-1.24595e-05,0.00115434,-0.00018276,-1.56148,0.000837157,0.0132394,1938,855,25.5115,-3.71644
721,169,25.4944,4.03491,0.000693378,0.00368791,0.000889548,0.00393223,0.000449065,1.30276,0.00248536,0.0147063,1945,855,25.4944,-4.0349
728,169,25.4926,4.34595,0.00190963,0.00724856,0.00217297,0.00802116,0.00113702,1.22918,0.00501162,0.0128535,1952,855,25.4925,-4.34594
735,169,25.4891,4.63599,0.00349538,0.0119642,0.00392648,0.0135045,0.00195507,1.19696,0.00842728,0.0200123,1959,855,25.4892,-4.63597
742,169,25.4684,4.92816,0.00543913,0.0182327,0.00619301,0.0207394,0.00293242,1.18619,0.0129599,0.0148343,1966,855,25.4684,-4.92818
749,169,25.4271,5.11835,0.00786484,0.0265137,0.00909137,0.0302122,0.00416629,1.18442,0.0189064,0.0230382,1973,855,25.4272,-5.11834
756,169,25.4968,5.22626,0.0109291,0.0376814,0.0128553,0.0428573,0.00575314,1.18802,0.02686,0.0435211,1980,855,25.4969,-5.22625
763,169,25.6144,5.34705,0,0,0,0,0,0,0,-1,1987,855,25.6143,-5.34703
770,169,26.8319,6.44745,0,0,0,0,0,0,0,-1,1994,855,26.8319,-6.44746
777,169,27.1642,6.86273,0,0,0,0,0,0,0,-1,2001,855,27.1642,-6.86272
784,169,27.5266,7.48889,0,0,0,0,0,0,0,-1,2008,855,27.5266,-7.48889
791,169,0,0,0,0,0,0,0,0,0,-1,2015,855,0,0
798,169,0,0,0,0,0,0,0,0,0,-1,2022,855,0,0
805,169,0,0,0,0,0,0,0,0,0,-1,2029,855,0,0
812,169,0,0,0,0,0,0,0,0,0,-1,2036,855,0,0
-700,162,0,0,0,0,0,0,0,0,0,-1,524,862,0,0
-693,162,0,0,0,0,0,0,0,0,0,-1,531,862,0,0
-686,162,0,0,0,0,0,0,0,0,0,-1,538,862,0,0
-679,162,0,0,0,0,0,0,0,0,0,-1,545,862,0,0
-672,162,0,0,0,0,0,0,0,0,0,-1,552,862,0,0
-665,162,-24.1297,6.17548,0,0,0,0,0,0,0,-1,559,862,-24.1297,-6.1755
-658,162,-24.1514,6.55865,0,0,0,0,0,0,0,-1,566,862,-24.1514,-6.55863
-651,162,-24.6585,6.26178,0,0,0,0,0,0,0,-1,573,862,-24.6585,-6.26176
-644,162,-17.5345,3.89075,0,0,0,0,0,0,0,-1,580,862,-17.5345,-3.89074
-637,162,-17.6984,3.48584,0,0,0,0,0,0,0,-1,587,862,-17.6984,-3.48584
-630,162,-17.7907,3.09851,-0.00326063,0.0207816,-3.85815e-05,0.0207817,-0.00326069,-1.56919,0.0150595,0.0464528,594,862,-17.7907,-3.0985
-623,162,-17.6422,2.93866,-0.00181279,0.0157625,1.28529e-05,0.0157625,-0.0018128,1.57007,0.0111618,0.0357096,601,862,-17.6422,-2.93869
-616,162,-17.6572,2.71417,-0.000830823,0.0113685,-3.52034e-05,0.0113686,-0.000830925,-1.56791,0.0078707,0.0190197,608,862,-17.6571,-2.71415
-609,162,-17.6859,2.43347,0.000202455,0.00725127,0.000169248,0.00725533,0.000198393,1.5468,0.00477213,0.0123888,615,862,-17.6859,-2.4335
-602,162,-17.7015,2.12921,0.00053471,0.00421887,0.000325091,0.00424734,0.000506244,1.48346,0.0026788,0.0103129,622,862,-17.7014,-2.12923
-595,162,-17.7053,1.85529,0.00060802,0.00258499,0.000717199,0.00281776,0.000375245,1.25696,0.00176676,0.0102382,629,862,-17.7052,-1.8553
-588,162,-17.7049,1.58795,0.000555862,0.00140358,0.000698446,0.00179671,0.000162724,1.05812,0.00114742,0.0109658,636,862,-17.7049,-1.58794
-581,162,-17.7988,1.3158,0.000801946,0.000455466,0.000546148,0.00120167,5.57399e-05,0.631816,0.000783196,0.014594,643,862,-17.7988,-1.31583
-574,162,-17.9352,1.02527,0.000871863,-4.37921e-05,0.000195876,0.000912005,-8.39338e-05,0.202135,0.000637825,0.0218029,650,862,-17.9353,-1.02529
-567,162,-17.8641,0.752563,0.000877336,-0.000228663,-0.000329549,0.000968084,-0.000319411,-0.268711,0.000774145,0.0346396,657,862,-17.8641,-0.752586
-560,162,-17.764,0.31488,0.000927954,-0.00034277,-0.000663476,0.00121122,-0.00062604,-0.40352,0.00107853,0.0312158,664,862,-17.764,-0.314904
-553,162,-17.5898,-0.0189209,0.000819199,-0.000310948,-0.000760575,0.00120164,-0.000693389,-0.46591,0.00110713,0.03752,671,862,-17.5898,0.018939
-546,162,-17.4272,-0.372192,0,0,0,0,0,0,0,-1,678,862,-17.4272,0.372177
-539,162,-21.9949,1.29791,0,0,0,0,0,0,0,-1,685,862,-21.9949,-1.29793
-532,162,-21.9956,1.20508,0.000519312,-0.000419714,-0.0012594,0.00139387,-0.00129427,-0.606974,0.00155235,0.0359096,692,862,-21.9956,-1.20507
-525,162,-22.0181,1.03894,0.000312593,-0.00049248,-0.00116338,0.00114111,-0.001321,-0.618842,0.00142276,0.0376278,699,862,-22.0181,-1.03894
-518,162,-22.0607,0.856018,0.000315517,-0.000665074,-0.000764043,0.00073305,-0.00108261,-0.500135,0.00105473,0.0378873,706,862,-22.0607,-0.855989
-511,162,-22.2141,0.841858,0.00109888,-0.00102947,0.000103724,0.00110393,-0.00103451,0.0485808,0.00123485,0.0416105,713,862,-22.214,-0.841854
-504,162,-22.2894,1.13428,0.00319644,-0.0017195,0.00151649,0.00362661,-0.00214967,0.276401,0.00337108,0.0440849,720,862,-22.2894,-1.13425
-497,162,-22.105,1.37848,0.00823329,-0.00242329,0.00349137,0.00927527,-0.00346527,0.290029,0.00760643,0.0434085,727,862,-22.105,-1.37846
-490,162,0,0,0,0,0,0,0,0,0,-1,734,862,0,0
-483,162,0,0,0,0,0,0,0,0,0,-1,741,862,0,0
-476,162,0,0,0,0,0,0,0,0,0,-1,748,862,0,0
-469,162,0,0,0,0,0,0,0,0,0,-1,755,862,0,0
-462,162,0,0,0,0,0,0,0,0,0,-1,762,862,0,0
-455,162,0,0,0,0,0,0,0,0,0,-1,769,862,0,0
-448,162,0,0,0,0,0,0,0,0,0,-1,776,862,0,0
-441,162,0,0,0,0,0,0,0,0,0,-1,783,862,0,0
-434,162,0,0,0,0,0,0,0,0,0,-1,790,862,0,0
-427,162,0,0,0,0,0,0,0,0,0,-1,797,862,0,0
-420,162,0,0,0,0,0,0,0,0,0,-1,804,862,0,0
-413,162,0,0,0,0,0,0,0,0,0,-1,811,862,0,0
-406,162,0,0,0,0,0,0,0,0,0,-1,818,862,0,0
-399,162,0,0,0,0,0,0,0,0,0,-1,825,862,0,0
-392,162,0,0,0,0,0,0,0,0,0,-1,832,862,0,0
-385,162,0,0,0,0,0,0,0,0,0,-1,839,862,0,0
-378,162,0,0,0,0,0,0,0,0,0,-1,846,862,0,0
-371,162,0,0,0,0,0,0,0,0,0,-1,853,862,0,0
-364,162,0,0,0,0,0,0,0,0,0,-1,860,862,0,0
-357,162,0,0,0,0,0,0,0,0,0,-1,867,862,0,0
-350,162,0,0,0,0,0,0,0,0,0,-1,874,862,0,0
-343,162,0,0,0,0,0,0,0,0,0,-1,881,862,0,0
-336,162,0,0,0,0,0,0,0,0,0,-1,888,862,0,0
-329,162,0,0,0,0,0,0,0,0,0,-1,895,862,0,0
-322,162,0,0,0,0,0,0,0,0,0,-1,902,862,0,0
-315,162,0,0,0,0,0,0,0,0,0,-1,909,862,0,0
-308,162,0,0,0,0,0,0,0,0,0,-1,916,862,0,0
-301,162,0,0,0,0,0,0,0,0,0,-1,923,862,0,0
-294,162,0,0,0,0,0,0,0,0,0,-1,930,862,0,0
-287,162,0,0,0,0,0,0,0,0,0,-1,937,862,0,0
-280,162,0,0,0,0,0,0,0,0,0,-1,944,862,0,0
-273,162,0,0,0,0,0,0,0,0,0,-1,951,862,0,0
-266,162,0,0,0,0,0,0,0,0,0,-1,958,862,0,0
-259,162,0,0,0,0,0,0,0,0,0,-1,965,862,0,0
-252,162,0,0,0,0,0,0,0,0,0,-1,972,862,0,0
-245,162,0,0,0,0,0,0,0,0,0,-1,979,862,0,0
-238,162,0,0,0,0,0,0,0,0,0,-1,986,862,0,0
-231,162,0,0,0,0,0,0,0,0,0,-1,993,862,0,0
-224,162,0,0,0,0,0,0,0,0,0,-1,1000,862,0,0
-217,162,0,0,0,0,0,0,0,0,0,-1,1007,862,0,0
-210,162,0,0,0,0,0,0,0,0,0,-1,1014,862,0,0
-203,162,0,0,0,0,0,0,0,0,0,-1,1021,862,0,0
-196,162,0,0,0,0,0,0,0,0,0,-1,1028,862,0,0
-189,162,0,0,0,0,0,0,0,0,0,-1,1035,862,0,0
-182,162,0,0,0,0,0,0,0,0,0,-1,1042,862,0,0
-175,162,0,0,0,0,0,0,0,0,0,-1,1049,862,0,0
-168,162,0,0,0,0,0,0,0,0,0,-1,1056,862,0,0
-161,162,0,0,0,0,0,0,0,0,0,-1,1063,862,0,0
-154,162,0,0,0,0,0,0,0,0,0,-1,1070,862,0,0
-147,162,0,0,0,0,0,0,0,0,0,-1,1077,862,0,0
-140,162,0,0,0,0,0,0,0,0,0,-1,1084,862,0,0
-133,162,0,0,0,0,0,0,0,0,0,-1,1091,862,0,0
-126,162,0,0,0,0,0,0,0,0,0,-1,1098,862,0,0
-119,162,0,0,0,0,0,0,0,0,0,-1,1105,862,0,0
-112,162,0,0,0,0,0,0,0,0,0,-1,1112,862,0,0
-105,162,0,0,0,0,0,0,0,0,0,-1,1119,862,0,0
-98,162,0,0,0,0,0,0,0,0,0,-1,1126,862,0,0
-91,162,0,0,0,0,0,0,0,0,0,-1,1133,862,0,0
-84,162,0,0,0,0,0,0,0,0,0,-1,1140,862,0,0
-77,162,0,0,0,0,0,0,0,0,0,-1,1147,862,0,0
-70,162,0,0,0,0,0,0,0,0,0,-1,1154,862,0,0
-63,162,0,0,0,0,0,0,0,0,0,-1,1161,862,0,0
-56,162,0,0,0,0,0,0,0,0,0,-1,1168,862,0,0
-49,162,0,0,0,0,0,0,0,0,0,-1,1175,862,0,0
-42,162,0,0,0,0,0,0,0,0,0,-1,1182,862,0,0
-35,162,0,0,0,0,0,0,0,0,0,-1,1189,862,0,0
-28,162,0,0,0,0,0,0,0,0,0,-1,1196,862,0,0
-21,162,0,0,0,0,0,0,0,0,0,-1,1203,862,0,0
-14,162,0,0,0,0,0,0,0,0,0,-1,1210,862,0,0
-7,162,0,0,0,0,0,0,0,0,0,-1,1217,862,0,0
0,162,0,0,0,0,0,0,0,0,0,-1,1224,862,0,0
7,162,0,0,0,0,0,0,0,0,0,-1,1231,862,0,0
14,162,0,0,0,0,0,0,0,0,0,-1,1238,862,0,0
21,162,0,0,0,0,0,0,0,0,0,-1,1245,862,0,0
28,162,0,0,0,0,0,0,0,0,0,-1,1252,862,0,0
35,162,0,0,0,0,0,0,0,0,0,-1,1259,862,0,0
42,162,0,0,0,0,0,0,0,0,0,-1,1266,862,0,0
49,162,0,0,0,0,0,0,0,0,0,-1,1273,862,0,0
56,162,0,0,0,0,0,0,0,0,0,-1,1280,862,0,0
63,162,0,0,0,0,0,0,0,0,0,-1,1287,862,0,0
70,162,0,0,0,0,0,0,0,0,0,-1,1294,862,0,0
77,162,0,0,0,0,0,0,0,0,0,-1,1301,862,0,0
84,162,0,0,0,0,0,0,0,0,0,-1,1308,862,0,0
91,162,0,0,0,0,0,0,0,0,0,-1,1315,862,0,0
98,162,0,0,0,0,0,0,0,0,0,-1,1322,862,0,0
105,162,0,0,0,0,0,0,0,0,0,-1,1329,862,0,0
112,162,0,0,0,0,0,0,0,0,0,-1,1336,862,0,0
119,162,0,0,0,0,0,0,0,0,0,-1,1343,862,0,0
126,162,0,0,0,0,0,0,0,0,0,-1,1350,862,0,0
133,162,0,0,0,0,0,0,0,0,0,-1,1357,862,0,0
140,162,0,0,0,0,0,0,0,0,0,-1,1364,862,0,0
147,162,0,0,0,0,0,0,0,0,0,-1,1371,862,0,0
154,162,0,0,0,0,0,0,0,0,0,-1,1378,862,0,0
161,162,0,0,0,0,0,0,0,0,0,-1,1385,862,0,0
168,162,0,0,0,0,0,0,0,0,0,-1,1392,862,0,0
175,162,0,0,0,0,0,0,0,0,0,-1,1399,862,0,0
182,162,0,0,0,0,0,0,0,0,0,-1,1406,862,0,0
189,162,0,0,0,0,0,0,0,0,0,-1,1413,862,0,0
196,162,0,0,0,0,0,0,0,0,0,-1,1420,862,0,0
203,162,0,0,0,0,0,0,0,0,0,-1,1427,862,0,0
210,162,0,0,0,0,0,0,0,0,0,-1,1434,862,0,0
217,162,0,0,0,0,0,0,0,0,0,-1,1441,862,0,0
224,162,0,0,0,0,0,0,0,0,0,-1,1448,862,0,0
231,162,0,0,0,0,0,0,0,0,0,-1,1455,862,0,0
238,162,0,0,0,0,0,0,0,0,0,-1,1462,862,0,0
245,162,0,0,0,0,0,0,0,0,0,-1,1469,862,0,0
252,162,0,0,0,0,0,0,0,0,0,-1,1476,862,0,0
259,162,0,0,0,0,0,0,0,0,0,-1,1483,862,0,0
266,162,0,0,0,0,0,0,0,0,0,-1,1490,862,0,0
273,162,0,0,0,0,0,0,0,0,0,-1,1497,862,0,0
280,162,0,0,0,0,0,0,0,0,0,-1,1504,862,0,0
287,162,0,0,0,0,0,0,0,0,0,-1,1511,862,0,0
294,162,0,0,0,0,0,0,0,0,0,-1,1518,862,0,0
301,162,0,0,0,0,0,0,0,0,0,-1,1525,862,0,0
308,162,0,0,0,0,0,0,0,0,0,-1,1532,862,0,0
315,162,0,0,0,0,0,0,0,0,0,-1,1539,862,0,0
322,162,0,0,0,0,0,0,0,0,0,-1,1546,862,0,0
329,162,0,0,0,0,0,0,0,0,0,-1,1553,862,0,0
336,162,0,0,0,0,0,0,0,0,0,-1,1560,862,0,0
343,162,0,0,0,0,0,0,0,0,0,-1,1567,862,0,0
350,162,0,0,0,0,0,0,0,0,0,-1,1574,862,0,0
357,162,0,0,0,0,0,0,0,0,0,-1,1581,862,0,0
364,162,0,0,0,0,0,0,0,0,0,-1,1588,862,0,0
371,162,0,0,0,0,0,0,0,0,0,-1,1595,862,0,0
378,162,0,0,0,0,0,0,0,0,0,-1,1602,862,0,0
385,162,0,0,0,0,0,0,0,0,0,-1,1609,862,0,0
392,162,0,0,0,0,0,0,0,0,0,-1,1616,862,0,0
399,162,0,0,0,0,0,0,0,0,0,-1,1623,862,0,0
406,162,0,0,0,0,0,0,0,0,0,-1,1630,862,0,0
413,162,0,0,0,0,0,0,0,0,0,-1,1637,862,0,0
420,162,0,0,0,0,0,0,0,0,0,-1,1644,862,0,0
427,162,0,0,0,0,0,0,0,0,0,-1,1651,862,0,0
434,162,0,0,0,0,0,0,0,0,0,-1,1658,862,0,0
441,162,0,0,0,0,0,0,0,0,0,-1,1665,862,0,0
448,162,0,0,0,0,0,0,0,0,0,-1,1672,862,0,0
455,162,0,0,0,0,0,0,0,0,0,-1,1679,862,0,0
462,162,0,0,0,0,0,0,0,0,0,-1,1686,862,0,0
469,162,0,0,0,0,0,0,0,0,0,-1,1693,862,0,0
476,162,0,0,0,0,0,0,0,0,0,-1,1700,862,0,0
483,162,0,0,0,0,0,0,0,0,0,-1,1707,862,0,0
490,162,0,0,0,0,0,0,0,0,0,-1,1714,862,0,0
497,162,0,0,0,0,0,0,0,0,0,-1,1721,862,0,0
504,162,0,0,0,0,0,0,0,0,0,-1,1728,862,0,0
511,162,0,0,0,0,0,0,0,0,0,-1,1735,862,0,0
518,162,0,0,0,0,0,0,0,0,0,-1,1742,862,0,0
525,162,0,0,0,0,0,0,0,0,0,-1,1749,862,0,0
532,162,0,0,0,0,0,0,0,0,0,-1,1756,862,0,0
539,162,0,0,0,0,0,0,0,0,0,-1,1763,862,0,0
546,162,0,0,0,0,0,0,0,0,0,-1,1770,862,0,0
553,162,0,0,0,0,0,0,0,0,0,-1,1777,862,0,0
560,162,0,0,0,0,0,0,0,0,0,-1,1784,862,0,0
567,162,0,0,0,0,0,0,0,0,0,-1,1791,862,0,0
574,162,0,0,0,0,0,0,0,0,0,-1,1798,862,0,0
581,162,0,0,0,0,0,0,0,0,0,-1,1805,862,0,0
588,162,0,0,0,0,0,0,0,0,0,-1,1812,862,0,0
595,162,0,0,0,0,0,0,0,0,0,-1,1819,862,0,0
602,162,0,0,0,0,0,0,0,0,0,-1,1826,862,0,0
609,162,0,0,0,0,0,0,0,0,0,-1,1833,862,0,0
616,162,30.8621,3.01996,-0.00136408,-0.00577079,-0.00303719,0.000184809,-0.00731967,-0.471594,0.00494254,0.0445262,1840,862,30.8621,-3.01997
623,162,31.0555,2.95172,-0.000214422,-0.00412781,-0.00206047,0.000670396,-0.00501263,-0.405613,0.00358617,0.043594,1847,862,31.0556,-2.9517
630,162,31.1934,2.97882,0.000838329,-0.00242963,-0.00107662,0.00116114,-0.00275243,-0.291302,0.00232093,0.040427,1854,862,31.1933,-2.97882
637,162,31.0472,2.91852,0.00138327,-0.00135165,-0.000443102,0.00145327,-0.00142164,-0.156679,0.00165987,0.0414996,1861,862,31.0472,-2.91852
644,162,31.0056,3.05219,0.00155516,-0.000794245,-0.000110541,0.00156035,-0.000799435,-0.0469122,0.00138583,0.0407802,1868,862,31.0056,-3.05217
651,162,30.9731,3.16309,0.0014379,-0.000580867,-1.36555e-05,0.00143799,-0.000580959,-0.00676388,0.00120014,0.0354816,1875,862,30.9731,-3.16309
658,162,30.9829,3.14343,0.00118416,-0.000570127,-5.68086e-05,0.001186,-0.000571964,-0.0323375,0.00103539,0.0337159,1882,862,30.983,-3.14343
665,162,31.0051,3.08282,0.000960517,-0.000559806,-0.000161877,0.000977562,-0.000576851,-0.104909,0.000907326,0.0396606,1889,862,31.0052,-3.08282
672,162,31.0208,3.10468,0,0,0,0,0,0,0,-1,1896,862,31.0207,-3.10467
679,162,25.9385,2.36255,0,0,0,0,0,0,0,-1,1903,862,25.9385,-2.36257
686,162,25.8964,2.60901,-2.97949e-07,-0.000578162,-0.00027651,0.000110694,-0.000689155,-0.381716,0.000500432,0.0482549,1910,862,25.8963,-2.60903
693,162,25.8732,2.88055,-0.000207981,-0.000470087,-0.000435134,0.000115407,-0.000793475,-0.639129,0.000571351,0.0196672,1917,862,25.8732,-2.88055
700,162,25.9041,3.14886,-0.000426193,-0.000218176,-0.000508748,0.000197087,-0.000841456,-0.886229,0.000636913,0.0178778,1924,862,25.904,-3.14885
707,162,25.8687,3.414,-0.00047524,0.000132239,-0.00044309,0.000365702,-0.000708703,-1.08586,0.000630757,0.0125786,1931,862,25.8687,-3.41401
714,162,25.8291,3.71436,-0.000194932,0.0009326,-0.000158727,0.000954519,-0.000216851,-1.43357,0.000719604,0.0152708,1938,862,25.8292,-3.71437
721,162,25.7303,4.10443,0.000561677,0.00286872,0.000385353,0.00293139,0.000499012,1.40959,0.00181098,0.0269371,1945,862,25.7304,-4.10443
728,162,25.7452,4.37555,0.00161547,0.00562372,0.00123879,0.00597567,0.00126352,1.29398,0.00363653,0.0229796,1952,862,25.7452,-4.37558
735,162,25.8057,4.65533,0.00304842,0.00938802,0.00245197,0.0102257,0.00221075,1.2416,0.00621273,0.011535,1959,862,25.8057,-4.65534
742,162,25.7817,4.94617,0.00484442,0.0144327,0.00404387,0.0159105,0.00336666,1.22044,0.00968189,0.0121117,1966,862,25.7818,-4.94617
749,162,25.7097,5.20374,0.00711775,0.0210895,0.00611076,0.023385,0.00482225,1.21146,0.0142571,0.0170787,1973,862,25.7097,-5.20373
756,162,25.6464,5.40637,0.0100072,0.029998,0.00879981,0.0333196,0.00668552,1.20986,0.0203539,0.0389806,1980,862,25.6464,-5.40639
763,162,25.5823,5.64636,0,0,0,0,0,0,0,-1,1987,862,25.5823,-5.64636
770,162,25.385,6.4444,0,0,0,0,0,0,0,-1,1994,862,25.385,-6.44441
777,162,26.4905,6.39374,0,0,0,0,0,0,0,-1,2001,862,26.4905,-6.39377
784,162,26.8928,6.70618,0,0,0,0,0,0,0,-1,2008,862,26.8929,-6.70621
791,162,0,0,0,0,0,0,0,0,0,-1,2015,862,0,0
798,162,0,0,0,0,0,0,0,0,0,-1,2022,862,0,0
805,162,0,0,0,0,0,0,0,0,0,-1,2029,862,0,0
812,162,0,0,0,0,0,0,0,0,0,-1,2036,862,0,0
-700,155,0,0,0,0,0,0,0,0,0,-1,524,869,0,0
-693,155,0,0,0,0,0,0,0,0,0,-1,531,869,0,0
-686,155,0,0,0,0,0,0,0,0,0,-1,538,869,0,0
-679,155,0,0,0,0,0,0,0,0,0,-1,545,869,0,0
-672,155,0,0,0,0,0,0,0,0,0,-1,552,869,0,0
-665,155,-23.7271,5.78705,-0.019215,0.052825,0.00688009,0.0534762,-0.0198662,1.47643,0.0438013,0.04722,559,869,-23.7271,-5.78704
-658,155,-23.82,6.16156,-0.0121385,0.0437947,0.0049094,0.0442223,-0.0125661,1.48391,0.034443,0.0434757,566,869,-23.82,-6.16158
-651,155,-23.9063,6.40369,0,0,0,0,0,0,0,-1,573,869,-23.9062,-6.40367
-644,155,-23.8094,6.52051,0,0,0,0,0,0,0,-1,580,869,-23.8094,-6.52049
-637,155,-17.8428,3.47137,0,0,0,0,0,0,0,-1,587,869,-17.8428,-3.47136
-630,155,-17.8745,3.25098,0.000103345,0.0166392,0.0016193,0.0167963,-5.37354e-05,1.47409,0.0112155,0.0473059,594,869,-17.8745,-3.25098
-623,155,-17.8873,2.99316,0.000661716,0.0121067,0.0014406,0.0122853,0.00048317,1.44749,0.00803396,0.0272626,601,869,-17.8873,-2.99318
-616,155,-17.9364,2.70856,0.000953801,0.00818619,0.00111275,0.00835352,0.00078647,1.42154,0.00532625,0.0148944,608,869,-17.9364,-2.70859
-609,155,-17.9783,2.40222,0.00136782,0.00461559,0.00107278,0.00493795,0.00104546,1.27889,0.00300473,0.0131639,615,869,-17.9783,-2.40222
-602,155,-17.9915,2.12427,0.0011791,0.00237697,0.00101953,0.00296047,0.000595602,1.05097,0.00180812,0.0113923,622,869,-17.9914,-2.12428
-595,155,-17.9945,1.86896,0.000822087,0.00142088,0.00110004,0.00226154,-1.85728e-05,0.918263,0.00151392,0.0108492,629,869,-17.9945,-1.86893
-588,155,-17.9766,1.60883,0.000603147,0.0010126,0.00084604,0.00167833,-6.25841e-05,0.904107,0.00114032,0.0121372,636,869,-17.9766,-1.6088
-581,155,-18.1039,1.38647,0.000789227,0.000530823,0.000594603,0.0012685,5.1546e-05,0.678416,0.000829021,0.0202287,643,869,-18.1039,-1.38645
-574,155,-18.1979,1.1618,0.000815427,0.000224321,0.000209634,0.000882224,0.000157523,0.308468,0.000543308,0.025914,650,869,-18.1979,-1.16181
-567,155,-18.1454,0.770935,0.000834633,9.71206e-05,-0.000258646,0.000916298,1.54563e-05,-0.305832,0.000605779,0.0267473,657,869,-18.1455,-0.770908
-560,155,-18.0593,0.353516,0.000934267,-7.5649e-06,-0.000531837,0.00117371,-0.00024701,-0.423039,0.000876491,0.0246066,664,869,-18.0593,-0.353533
-553,155,-17.9426,-0.19043,0,0,0,0,0,0,0,-1,671,869,-17.9426,0.190405
-546,155,-22.0511,1.01886,0,0,0,0,0,0,0,-1,678,869,-22.0512,-1.01888
-539,155,-22.0355,1.07074,0.000783462,-8.57413e-05,-0.000946054,0.00138996,-0.000692243,-0.570083,0.00122445,0.046927,685,869,-22.0355,-1.07072
-532,155,-22.0029,1.16193,0.000619805,-0.00019279,-0.000956254,0.0012525,-0.000825482,-0.584512,0.00120814,0.0366861,692,869,-22.0029,-1.16196
-525,155,-21.9151,1.1377,0.000390639,-0.000425411,-0.000769169,0.000853307,-0.000888078,-0.541533,0.00100546,0.0370823,699,869,-21.9151,-1.13769
-518,155,-21.9209,0.989746,0.000435319,-0.000866607,-0.000251165,0.000482093,-0.000913381,-0.184118,0.000818403,0.0394076,706,869,-21.9209,-0.989755
-511,155,-22.0236,1.02789,0.00133972,-0.00164219,0.000778928,0.00153092,-0.0018334,0.240717,0.00194501,0.0403158,713,869,-22.0235,-1.02792
-504,155,-22.1868,0.979065,0.00364683,-0.00292079,0.00234299,0.00439701,-0.00367096,0.309864,0.00466433,0.0410548,720,869,-22.1868,-0.979082
-497,155,0,0,0,0,0,0,0,0,0,-1,727,869,0,0
-490,155,0,0,0,0,0,0,0,0,0,-1,734,869,0,0
-483,155,0,0,0,0,0,0,0,0,0,-1,741,869,0,0
-476,155,0,0,0,0,0,0,0,0,0,-1,748,869,0,0
-469,155,0,0,0,0,0,0,0,0,0,-1,755,869,0,0
-462,155,0,0,0,0,0,0,0,0,0,-1,762,869,0,0
-455,155,0,0,0,0,0,0,0,0,0,-1,769,869,0,0
-448,155,0,0,0,0,0,0,0,0,0,-1,776,869,0,0
-441,155,0,0,0,0,0,0,0,0,0,-1,783,869,0,0
-434,155,0,0,0,0,0,0,0,0,0,-1,790,869,0,0
-427,155,0,0,0,0,0,0,0,0,0,-1,797,869,0,0
-420,155,0,0,0,0,0,0,0,0,0,-1,804,869,0,0
-413,155,0,0,0,0,0,0,0,0,0,-1,811,869,0,0
-406,155,0,0,0,0,0,0,0,0,0,-1,818,869,0,0
-399,155,0,0,0,0,0,0,0,0,0,-1,825,869,0,0
-392,155,0,0,0,0,0,0,0,0,0,-1,832,869,0,0
-385,155,0,0,0,0,0,0,0,0,0,-1,839,869,0,0
-378,155,0,0,0,0,0,0,0,0,0,-1,846,869,0,0
-371,155,0,0,0,0,0,0,0,0,0,-1,853,869,0,0
-364,155,0,0,0,0,0,0,0,0,0,-1,860,869,0,0
-357,155,0,0,0,0,0,0,0,0,0,-1,867,869,0,0
-350,155,0,0,0,0,0,0,0,0,0,-1,874,869,0,0
-343,155,0,0,0,0,0,0,0,0,0,-1,881,869,0,0
-336,155,0,0,0,0,0,0,0,0,0,-1,888,869,0,0
-329,155,0,0,0,0,0,0,0,0,0,-1,895,869,0,0
-322,155,0,0,0,0,0,0,0,0,0,-1,902,869,0,0
-315,155,0,0,0,0,0,0,0,0,0,-1,909,869,0,0
-308,155,0,0,0,0,0,0,0,0,0,-1,916,869,0,0
-301,155,0,0,0,0,0,0,0,0,0,-1,923,869,0,0
-294,155,0,0,0,0,0,0,0,0,0,-1,930,869,0,0
-287,155,0,0,0,0,0,0,0,0,0,-1,937,869,0,0
-280,155,0,0,0,0,0,0,0,0,0,-1,944,869,0,0
-273,155,0,0,0,0,0,0,0,0,0,-1,951,869,0,0
-266,155,0,0,0,0,0,0,0,0,0,-1,958,869,0,0
-259,155,0,0,0,0,0,0,0,0,0,-1,965,869,0,0
-252,155,0,0,0,0,0,0,0,0,0,-1,972,869,0,0
-245,155,0,0,0,0,0,0,0,0,0,-1,979,869,0,0
-238,155,0,0,0,0,0,0,0,0,0,-1,986,869,0,0
-231,155,0,0,0,0,0,0,0,0,0,-1,993,869,0,0
-224,155,0,0,0,0,0,0,0,0,0,-1,1000,869,0,0
-217,155,0,0,0,0,0,0,0,0,0,-1,1007,869,0,0
-210,155,0,0,0,0,0,0,0,0,0,-1,1014,869,0,0
-203,155,0,0,0,0,0,0,0,0,0,-1,1021,869,0,0
-196,155,0,0,0,0,0,0,0,0,0,-1,1028,869,0,0
-189,155,0,0,0,0,0,0,0,0,0,-1,1035,869,0,0
-182,155,0,0,0,0,0,0,0,0,0,-1,1042,869,0,0
-175,155,0,0,0,0,0,0,0,0,0,-1,1049,869,0,0
-168,155,0,0,0,0,0,0,0,0,0,-1,1056,869,0,0
-161,155,0,0,0,0,0,0,0,0,0,-1,1063,869,0,0
-154,155,0,0,0,0,0,0,0,0,0,-1,1070,869,0,0
-147,155,0,0,0,0,0,0,0,0,0,-1,1077,869,0,0
-140,155,0,0,0,0,0,0,0,0,0,-1,1084,869,0,0
-133,155,0,0,0,0,0,0,0,0,0,-1,1091,869,0,0
-126,155,0,0,0,0,0,0,0,0,0,-1,1098,869,0,0
-119,155,0,0,0,0,0,0,0,0,0,-1,1105,869,0,0
-112,155,0,0,0,0,0,0,0,0,0,-1,1112,869,0,0
-105,155,0,0,0,0,0,0,0,0,0,-1,1119,869,0,0
-98,155,0,0,0,0,0,0,0,0,0,-1,1126,869,0,0
-91,155,0,0,0,0,0,0,0,0,0,-1,1133,869,0,0
-84,155,0,0,0,0,0,0,0,0,0,-1,1140,869,0,0
-77,155,0,0,0,0,0,0,0,0,0,-1,1147,869,0,0
-70,155,0,0,0,0,0,0,0,0,0,-1,1154,869,0,0
-63,155,0,0,0,0,0,0,0,0,0,-1,1161,869,0,0
-56,155,0,0,0,0,0,0,0,0,0,-1,1168,869,0,0
-49,155,0,0,0,0,0,0,0,0,0,-1,1175,869,0,0
-42,155,0,0,0,0,0,0,0,0,0,-1,1182,869,0,0
-35,155,0,0,0,0,0,0,0,0,0,-1,1189,869,0,0
-28,155,0,0,0,0,0,0,0,0,0,-1,1196,869,0,0
-21,155,0,0,0,0,0,0,0,0,0,-1,1203,869,0,0
-14,155,0,0,0,0,0,0,0,0,0,-1,1210,869,0,0
-7,155,0,0,0,0,0,0,0,0,0,-1,1217,869,0,0
0,155,0,0,0,0,0,0,0,0,0,-1,1224,869,0,0
7,155,0,0,0,0,0,0,0,0,0,-1,1231,869,0,0
14,155,0,0,0,0,0,0,0,0,0,-1,1238,869,0,0
21,155,0,0,0,0,0,0,0,0,0,-1,1245,869,0,0
28,155,0,0,0,0,0,0,0,0,0,-1,1252,869,0,0
35,155,0,0,0,0,0,0,0,0,0,-1,1259,869,0,0
42,155,0,0,0,0,0,0,0,0,0,-1,1266,869,0,0
49,155,0,0,0,0,0,0,0,0,0,-1,1273,869,0,0
56,155,0,0,0,0,0,0,0,0,0,-1,1280,869,0,0
63,155,0,0,0,0,0,0,0,0,0,-1,1287,869,0,0
70,155,0,0,0,0,0,0,0,0,0,-1,1294,869,0,0
77,155,0,0,0,0,0,0,0,0,0,-1,1301,869,0,0
84,155,0,0,0,0,0,0,0,0,0,-1,1308,869,0,0
91,155,0,0,0,0,0,0,0,0,0,-1,1315,869,0,0
98,155,0,0,0,0,0,0,0,0,0,-1,1322,869,0,0
105,155,0,0,0,0,0,0,0,0,0,-1,1329,869,0,0
112,155,0,0,0,0,0,0,0,0,0,-1,1336,869,0,0
119,155,0,0,0,0,0,0,0,0,0,-1,1343,869,0,0
126,155,0,0,0,0,0,0,0,0,0,-1,1350,869,0,0
133,155,0,0,0,0,0,0,0,0,0,-1,1357,869,0,0
140,155,0,0,0,0,0,0,0,0,0,-1,1364,869,0,0
147,155,0,0,0,0,0,0,0,0,0,-1,1371,869,0,0
154,155,0,0,0,0,0,0,0,0,0,-1,1378,869,0,0
161,155,0,0,0,0,0,0,0,0,0,-1,1385,869,0,0
168,155,0,0,0,0,0,0,0,0,0,-1,1392,869,0,0
175,155,0,0,0,0,0,0,0,0,0,-1,1399,869,0,0
182,155,0,0,0,0,0,0,0,0,0,-1,1406,869,0,0
189,155,0,0,0,0,0,0,0,0,0,-1,1413,869,0,0
196,155,0,0,0,0,0,0,0,0,0,-1,1420,869,0,0
203,155,0,0,0,0,0,0,0,0,0,-1,1427,869,0,0
210,155,0,0,0,0,0,0,0,0,0,-1,1434,869,0,0
217,155,0,0,0,0,0,0,0,0,0,-1,1441,869,0,0
224,155,0,0,0,0,0,0,0,0,0,-1,1448,869,0,0
231,155,0,0,0,0,0,0,0,0,0,-1,1455,869,0,0
238,155,0,0,0,0,0,0,0,0,0,-1,1462,869,0,0
245,155,0,0,0,0,0,0,0,0,0,-1,1469,869,0,0
252,155,0,0,0,0,0,0,0,0,0,-1,1476,869,0,0
259,155,0,0,0,0,0,0,0,0,0,-1,1483,869,0,0
266,155,0,0,0,0,0,0,0,0,0,-1,1490,869,0,0
273,155,0,0,0,0,0,0,0,0,0,-1,1497,869,0,0
280,155,0,0,0,0,0,0,0,0,0,-1,1504,869,0,0
287,155,0,0,0,0,0,0,0,0,0,-1,1511,869,0,0
294,155,0,0,0,0,0,0,0,0,0,-1,1518,869,0,0
301,155,0,0,0,0,0,0,0,0,0,-1,1525,869,0,0
308,155,0,0,0,0,0,0,0,0,0,-1,1532,869,0,0
315,155,0,0,0,0,0,0,0,0,0,-1,1539,869,0,0
322,155,0,0,0,0,0,0,0,0,0,-1,1546,869,0,0
329,155,0,0,0,0,0,0,0,0,0,-1,1553,869,0,0
336,155,0,0,0,0,0,0,0,0,0,-1,1560,869,0,0
343,155,0,0,0,0,0,0,0,0,0,-1,1567,869,0,0
350,155,0,0,0,0,0,0,0,0,0,-1,1574,869,0,0
357,155,0,0,0,0,0,0,0,0,0,-1,1581,869,0,0
364,155,0,0,0,0,0,0,0,0,0,-1,1588,869,0,0
371,155,0,0,0,0,0,0,0,0,0,-1,1595,869,0,0
378,155,0,0,0,0,0,0,0,0,0,-1,1602,869,0,0
385,155,0,0,0,0,0,0,0,0,0,-1,1609,869,0,0
392,155,0,0,0,0,0,0,0,0,0,-1,1616,869,0,0
399,155,0,0,0,0,0,0,0,0,0,-1,1623,869,0,0
406,155,0,0,0,0,0,0,0,0,0,-1,1630,869,0,0
413,155,0,0,0,0,0,0,0,0,0,-1,1637,869,0,0
420,155,0,0,0,0,0,0,0,0,0,-1,1644,869,0,0
427,155,0,0,0,0,0,0,0,0,0,-1,1651,869,0,0
434,155,0,0,0,0,0,0,0,0,0,-1,1658,869,0,0
441,155,0,0,0,0,0,0,0,0,0,-1,1665,869,0,0
448,155,0,0,0,0,0,0,0,0,0,-1,1672,869,0,0
455,155,0,0,0,0,0,0,0,0,0,-1,1679,869,0,0
462,155,0,0,0,0,0,0,0,0,0,-1,1686,869,0,0
469,155,0,0,0,0,0,0,0,0,0,-1,1693,869,0,0
476,155,0,0,0,0,0,0,0,0,0,-1,1700,869,0,0
483,155,0,0,0,0,0,0,0,0,0,-1,1707,869,0,0
490,155,0,0,0,0,0,0,0,0,0,-1,1714,869,0,0
497,155,0,0,0,0,0,0,0,0,0,-1,1721,869,0,0
504,155,0,0,0,0,0,0,0,0,0,-1,1728,869,0,0
511,155,0,0,0,0,0,0,0,0,0,-1,1735,869,0,0
518,155,0,0,0,0,0,0,0,0,0,-1,1742,869,0,0
525,155,0,0,0,0,0,0,0,0,0,-1,1749,869,0,0
532,155,0,0,0,0,0,0,0,0,0,-1,1756,869,0,0
539,155,0,0,0,0,0,0,0,0,0,-1,1763,869,0,0
546,155,0,0,0,0,0,0,0,0,0,-1,1770,869,0,0
553,155,0,0,0,0,0,0,0,0,0,-1,1777,869,0,0
560,155,0,0,0,0,0,0,0,0,0,-1,1784,869,0,0
567,155,0,0,0,0,0,0,0,0,0,-1,1791,869,0,0
574,155,0,0,0,0,0,0,0,0,0,-1,1798,869,0,0
581,155,0,0,0,0,0,0,0,0,0,-1,1805,869,0,0
588,155,0,0,0,0,0,0,0,0,0,-1,1812,869,0,0
595,155,0,0,0,0,0,0,0,0,0,-1,1819,869,0,0
602,155,0,0,0,0,0,0,0,0,0,-1,1826,869,0,0
609,155,0,0,0,0,0,0,0,0,0,-1,1833,869,0,0
616,155,30.9937,3.30811,-0.00185578,-0.00636355,-0.00397091,0.000456308,-0.00867564,-0.527271,0.00594171,0.0444292,1840,869,30.9936,-3.30813
623,155,31.0662,3.24481,-0.000639633,-0.00471175,-0.00284108,0.000819631,-0.00617101,-0.474492,0.00441267,0.0421875,1847,869,31.0662,-3.24483
630,155,31.0253,3.052,0.000479187,-0.00294055,-0.00175835,0.00122196,-0.00368332,-0.399688,0.00294852,0.0414444,1854,869,31.0252,-3.05197
637,155,30.936,2.92004,0.00112383,-0.00170442,-0.00102681,0.0014573,-0.0020379,-0.314019,0.00202721,0.0420498,1861,869,30.936,-2.92005
644,155,31.0466,2.9574,0.00137598,-0.000974003,-0.000601267,0.00152089,-0.00111891,-0.23649,0.00152997,0.0397657,1868,869,31.0466,-2.95742
651,155,31.056,3.02625,0.00129691,-0.000616669,-0.000428553,0.0013885,-0.000708261,-0.210557,0.00123162,0.0340988,1875,869,31.056,-3.02627
658,155,31.0277,3.03558,0.00107505,-0.000514496,-0.000398894,0.00116954,-0.000608982,-0.232582,0.00104369,0.0279509,1882,869,31.0277,-3.03559
665,155,30.978,3.05682,0.000873728,-0.000456102,-0.00043421,0.00100295,-0.000585322,-0.289251,0.000927494,0.0312154,1889,869,30.9781,-3.05684
672,155,30.9745,3.10242,0.000498292,-0.000389484,-0.000409203,0.000658129,-0.000549321,-0.372381,0.000698064,0.044892,1896,869,30.9745,-3.10243
679,155,30.9858,3.12891,0,0,0,0,0,0,0,-1,1903,869,30.9858,-3.12892
686,155,26.1526,2.71985,0,0,0,0,0,0,0,-1,1910,869,26.1526,-2.71983
693,155,26.1134,2.86322,-0.000109831,-0.000292884,-0.000557789,0.000363891,-0.000766606,-0.704079,0.000666354,0.0265868,1917,869,26.1135,-2.86323
700,155,26.2147,3.15717,-0.000347246,-0.000107733,-0.000607636,0.000391835,-0.000846814,-0.882694,0.000731039,0.0202005,1924,869,26.2147,-3.15719
707,155,26.2848,3.51227,-0.000385702,0.000138373,-0.000528656,0.00046637,-0.000713699,-1.01549,0.000686283,0.0146697,1931,869,26.2848,-3.51228
714,155,26.2076,3.75745,-0.000127567,0.000729335,-0.000323025,0.000837462,-0.000235694,-1.24779,0.000651248,0.0258719,1938,869,26.2076,-3.75744
721,155,26.0565,4.08887,0.000554887,0.00219914,1.53745e-06,0.00219914,0.000554886,1.56986,0.00132058,0.0254228,1945,869,26.0565,-4.08887
728,155,26.066,4.37775,0.00146846,0.00428002,0.000558226,0.0043868,0.00136168,1.3818,0.0025927,0.0203466,1952,869,26.066,-4.37778
735,155,26.1024,4.64838,0.00275882,0.00720894,0.00134376,0.00758322,0.00238453,1.29915,0.00447754,0.0147966,1959,869,26.1024,-4.64835
742,155,26.106,4.94513,0.00436833,0.0113139,0.00214924,0.0119252,0.00375707,1.2937,0.00704027,0.0162077,1966,869,26.1059,-4.94514
749,155,26.0411,5.20325,0.00637077,0.0167493,0.00298936,0.0175487,0.00557132,1.30948,0.0103544,0.0155348,1973,869,26.0411,-5.20324
756,155,26.0352,5.51703,0.00889619,0.0239568,0.0040606,0.0249818,0.00787115,1.32353,0.0147484,0.0264833,1980,869,26.0352,-5.51701
763,155,26.0367,5.99884,0.0120172,0.0336582,0.00504577,0.0347769,0.0108986,1.35263,0.0205393,0.0429156,1987,869,26.0368,-5.99884
770,155,25.8282,6.47791,0.0157604,0.0470806,0.00561039,0.0480553,0.0147857,1.39879,0.0284206,0.0463522,1994,869,25.8282,-6.47793
777,155,25.6569,6.99896,0,0,0,0,0,0,0,-1,2001,869,25.6569,-6.99899
784,155,26.2592,5.92352,0,0,0,0,0,0,0,-1,2008,869,26.2591,-5.92353
791,155,0,0,0,0,0,0,0,0,0,-1,2015,869,0,0
798,155,0,0,0,0,0,0,0,0,0,-1,2022,869,0,0
805,155,0,0,0,0,0,0,0,0,0,-1,2029,869,0,0
812,155,0,0,0,0,0,0,0,0,0,-1,2036,869,0,0
-700,148,0,0,0,0,0,0,0,0,0,-1,524,876,0,0
-693,148,0,0,0,0,0,0,0,0,0,-1,531,876,0,0
-686,148,0,0,0,0,0,0,0,0,0,-1,538,876,0,0
-679,148,0,0,0,0,0,0,0,0,0,-1,545,876,0,0
-672,148,-23.3866,4.87445,-0.0198333,0.0581109,0.011524,0.0597791,-0.0215014,1.42704,0.0486309,0.0437632,552,876,-23.3866,-4.87447
-665,148,-23.3019,5.33887,-0.0113954,0.0474691,0.00875949,0.0487449,-0.0126712,1.42616,0.037442,0.0451038,559,876,-23.3019,-5.3389
-658,148,-23.5474,5.98541,-0.00580165,0.0382301,0.00684109,0.0392685,-0.00684005,1.42016,0.0287317,0.0450644,566,876,-23.5474,-5.98542
-651,148,-23.5731,6.60901,0,0,0,0,0,0,0,-1,573,876,-23.573,-6.60902
-644,148,-19.021,2.56763,0,0,0,0,0,0,0,-1,580,876,-19.021,-2.56764
-637,148,-18.3435,3.17841,0,0,0,0,0,0,0,-1,587,876,-18.3435,-3.17839
-630,148,-18.2567,3.13507,0.00268044,0.0121608,0.00316144,0.0131183,0.0017229,1.2767,0.00823157,0.046138,594,876,-18.2567,-3.13508
-623,148,-18.1138,3.01453,0.00259719,0.00827563,0.00278825,0.00941579,0.00145703,1.18263,0.00585229,0.0239871,601,876,-18.1137,-3.01453
-616,148,-18.2106,2.69922,0.0024157,0.00492657,0.00220908,0.00621203,0.00113024,1.04379,0.00382074,0.0135508,608,876,-18.2106,-2.69919
-609,148,-18.2669,2.40021,0.00231857,0.002,0.00194413,0.00410993,0.000208635,0.744524,0.00267312,0.0123661,615,876,-18.2669,-2.4002
-602,148,-18.2924,2.13489,0.00163384,0.000609057,0.00168897,0.00288644,-0.000643537,0.638123,0.00217084,0.0120325,622,876,-18.2923,-2.1349
-595,148,-18.2922,1.87585,0.000936466,0.000359381,0.00147808,0.0021539,-0.000858052,0.689003,0.0017918,0.0105479,629,876,-18.2922,-1.87585
-588,148,-18.3082,1.56384,0.000574306,0.000601488,0.00100132,0.00158931,-0.000413512,0.792184,0.00122094,0.0154925,636,876,-18.3083,-1.56386
-581,148,-18.399,1.33746,0.000653204,0.000486442,0.000662113,0.00123717,-9.752e-05,0.722762,0.000859131,0.0275274,643,876,-18.399,-1.33746
-574,148,-18.2131,1.15228,0.000599361,0.000326498,0.000247524,0.000745563,0.000180295,0.533522,0.000449172,0.0321599,650,876,-18.2131,-1.15227
-567,148,-18.3375,0.889587,0.000595991,0.000224348,-0.000179272,0.000668371,0.000151968,-0.383731,0.000404553,0.0391071,657,876,-18.3375,-0.889589
-560,148,-18.3569,0.469482,0.000705026,0.00013201,-0.000389963,0.000902417,-6.53806e-05,-0.468578,0.000624547,0.0463529,664,876,-18.3569,-0.469506
-553,148,-18.3896,-0.00280762,0,0,0,0,0,0,0,-1,671,876,-18.3897,0.00278524
-546,148,-21.9475,1.25958,0,0,0,0,0,0,0,-1,678,876,-21.9475,-1.25957
-539,148,-22.0059,1.07117,0.000533071,4.36934e-05,-0.000640208,0.000973757,-0.000396993,-0.602863,0.00081442,0.0371892,685,876,-22.0059,-1.07119
-532,148,-21.993,1.12817,0.000370568,-0.000112403,-0.000552601,0.000732144,-0.000473979,-0.579404,0.000701652,0.0339686,692,876,-21.993,-1.12817
-525,148,-21.915,1.16302,0.000133623,-0.000445672,-0.000247221,0.000224782,-0.000536831,-0.353268,0.000451853,0.0349334,699,876,-21.915,-1.16302
-518,148,-21.8686,1.12573,0.00024409,-0.00107165,0.00041556,0.000364348,-0.00119191,0.281692,0.000939896,0.0409436,706,876,-21.8686,-1.12571
-511,148,-21.7939,1.18866,0.00129733,-0.00211131,0.00162011,0.00194449,-0.00275847,0.380036,0.00272878,0.0416854,713,876,-21.794,-1.18867
-504,148,-21.8422,1.17188,0.00378234,-0.0037498,0.00330784,0.00502876,-0.00499622,0.360356,0.00578794,0.0429728,720,876,-21.8422,-1.17188
-497,148,0,0,0,0,0,0,0,0,0,-1,727,876,0,0
-490,148,0,0,0,0,0,0,0,0,0,-1,734,876,0,0
-483,148,0,0,0,0,0,0,0,0,0,-1,741,876,0,0
-476,148,0,0,0,0,0,0,0,0,0,-1,748,876,0,0
-469,148,0,0,0,0,0,0,0,0,0,-1,755,876,0,0
-462,148,0,0,0,0,0,0,0,0,0,-1,762,876,0,0
-455,148,0,0,0,0,0,0,0,0,0,-1,769,876,0,0
-448,148,0,0,0,0,0,0,0,0,0,-1,776,876,0,0
-441,148,0,0,0,0,0,0,0,0,0,-1,783,876,0,0
-434,148,0,0,0,0,0,0,0,0,0,-1,790,876,0,0
-427,148,0,0,0,0,0,0,0,0,0,-1,797,876,0,0
-420,148,0,0,0,0,0,0,0,0,0,-1,804,876,0,0
-413,148,0,0,0,0,0,0,0,0,0,-1,811,876,0,0
-406,148,0,0,0,0,0,0,0,0,0,-1,818,876,0,0
-399,148,0,0,0,0,0,0,0,0,0,-1,825,876,0,0
-392,148,0,0,0,0,0,0,0,0,0,-1,832,876,0,0
-385,148,0,0,0,0,0,0,0,0,0,-1,839,876,0,0
-378,148,0,0,0,0,0,0,0,0,0,-1,846,876,0,0
-371,148,0,0,0,0,0,0,0,0,0,-1,853,876,0,0
-364,148,0,0,0,0,0,0,0,0,0,-1,860,876,0,0
-357,148,0,0,0,0,0,0,0,0,0,-1,867,876,0,0
-350,148,0,0,0,0,0,0,0,0,0,-1,874,876,0,0
-343,148,0,0,0,0,0,0,0,0,0,-1,881,876,0,0
-336,148,0,0,0,0,0,0,0,0,0,-1,888,876,0,0
-329,148,0,0,0,0,0,0,0,0,0,-1,895,876,0,0
-322,148,0,0,0,0,0,0,0,0,0,-1,902,876,0,0
-315,148,0,0,0,0,0,0,0,0,0,-1,909,876,0,0
-308,148,0,0,0,0,0,0,0,0,0,-1,916,876,0,0
-301,148,0,0,0,0,0,0,0,0,0,-1,923,876,0,0
-294,148,0,0,0,0,0,0,0,0,0,-1,930,876,0,0
-287,148,0,0,0,0,0,0,0,0,0,-1,937,876,0,0
-280,148,0,0,0,0,0,0,0,0,0,-1,944,876,0,0
-273,148,0,0,0,0,0,0,0,0,0,-1,951,876,0,0
-266,148,0,0,0,0,0,0,0,0,0,-1,958,876,0,0
-259,148,0,0,0,0,0,0,0,0,0,-1,965,876,0,0
-252,148,0,0,0,0,0,0,0,0,0,-1,972,876,0,0
-245,148,0,0,0,0,0,0,0,0,0,-1,979,876,0,0
-238,148,0,0,0,0,0,0,0,0,0,-1,986,876,0,0
-231,148,0,0,0,0,0,0,0,0,0,-1,993,876,0,0
-224,148,0,0,0,0,0,0,0,0,0,-1,1000,876,0,0
-217,148,0,0,0,0,0,0,0,0,0,-1,1007,876,0,0
-210,148,0,0,0,0,0,0,0,0,0,-1,1014,876,0,0
-203,148,0,0,0,0,0,0,0,0,0,-1,1021,876,0,0
-196,148,0,0,0,0,0,0,0,0,0,-1,1028,876,0,0
-189,148,0,0,0,0,0,0,0,0,0,-1,1035,876,0,0
-182,148,0,0,0,0,0,0,0,0,0,-1,1042,876,0,0
-175,148,0,0,0,0,0,0,0,0,0,-1,1049,876,0,0
-168,148,0,0,0,0,0,0,0,0,0,-1,1056,876,0,0
-161,148,0,0,0,0,0,0,0,0,0,-1,1063,876,0,0
-154,148,0,0,0,0,0,0,0,0,0,-1,1070,876,0,0
-147,148,0,0,0,0,0,0,0,0,0,-1,1077,876,0,0
-140,148,0,0,0,0,0,0,0,0,0,-1,1084,876,0,0
-133,148,0,0,0,0,0,0,0,0,0,-1,1091,876,0,0
-126,148,0,0,0,0,0,0,0,0,0,-1,1098,876,0,0
-119,148,0,0,0,0,0,0,0,0,0,-1,1105,876,0,0
-112,148,0,0,0,0,0,0,0,0,0,-1,1112,876,0,0
-105,148,0,0,0,0,0,0,0,0,0,-1,1119,876,0,0
-98,148,0,0,0,0,0,0,0,0,0,-1,1126,876,0,0
-91,148,0,0,0,0,0,0,0,0,0,-1,1133,876,0,0
-84,148,0,0,0,0,0,0,0,0,0,-1,1140,876,0,0
-77,148,0,0,0,0,0,0,0,0,0,-1,1147,876,0,0
-70,148,0,0,0,0,0,0,0,0,0,-1,1154,876,0,0
-63,148,0,0,0,0,0,0,0,0,0,-1,1161,876,0,0
-56,148,0,0,0,0,0,0,0,0,0,-1,1168,876,0,0
-49,148,0,0,0,0,0,0,0,0,0,-1,1175,876,0,0
-42,148,0,0,0,0,0,0,0,0,0,-1,1182,876,0,0
-35,148,0,0,0,0,0,0,0,0,0,-1,1189,876,0,0
-28,148,0,0,0,0,0,0,0,0,0,-1,1196,876,0,0
-21,148,0,0,0,0,0,0,0,0,0,-1,1203,876,0,0
-14,148,0,0,0,0,0,0,0,0,0,-1,1210,876,0,0
-7,148,0,0,0,0,0,0,0,0,0,-1,1217,876,0,0
0,148,0,0,0,0,0,0,0,0,0,-1,1224,876,0,0
7,148,0,0,0,0,0,0,0,0,0,-1,1231,876,0,0
14,148,0,0,0,0,0,0,0,0,0,-1,1238,876,0,0
21,148,0,0,0,0,0,0,0,0,0,-1,1245,876,0,0
28,148,0,0,0,0,0,0,0,0,0,-1,1252,876,0,0
35,148,0,0,0,0,0,0,0,0,0,-1,1259,876,0,0
42,148,0,0,0,0,0,0,0,0,0,-1,1266,876,0,0
49,148,0,0,0,0,0,0,0,0,0,-1,1273,876,0,0
56,148,0,0,0,0,0,0,0,0,0,-1,1280,876,0,0
63,148,0,0,0,0,0,0,0,0,0,-1,1287,876,0,0
70,148,0,0,0,0,0,0,0,0,0,-1,1294,876,0,0
77,148,0,0,0,0,0,0,0,0,0,-1,1301,876,0,0
84,148,0,0,0,0,0,0,0,0,0,-1,1308,876,0,0
91,148,0,0,0,0,0,0,0,0,0,-1,1315,876,0,0
98,148,0,0,0,0,0,0,0,0,0,-1,1322,876,0,0
105,148,0,0,0,0,0,0,0,0,0,-1,1329,876,0,0
112,148,0,0,0,0,0,0,0,0,0,-1,1336,876,0,0
119,148,0,0,0,0,0,0,0,0,0,-1,1343,876,0,0
126,148,0,0,0,0,0,0,0,0,0,-1,1350,876,0,0
133,148,0,0,0,0,0,0,0,0,0,-1,1357,876,0,0
140,148,0,0,0,0,0,0,0,0,0,-1,1364,876,0,0
147,148,0,0,0,0,0,0,0,0,0,-1,1371,876,0,0
154,148,0,0,0,0,0,0,0,0,0,-1,1378,876,0,0
161,148,0,0,0,0,0,0,0,0,0,-1,1385,876,0,0
168,148,0,0,0,0,0,0,0,0,0,-1,1392,876,0,0
175,148,0,0,0,0,0,0,0,0,0,-1,1399,876,0,0
182,148,0,0,0,0,0,0,0,0,0,-1,1406,876,0,0
189,148,0,0,0,0,0,0,0,0,0,-1,1413,876,0,0
196,148,0,0,0,0,0,0,0,0,0,-1,1420,876,0,0
203,148,0,0,0,0,0,0,0,0,0,-1,1427,876,0,0
210,148,0,0,0,0,0,0,0,0,0,-1,1434,876,0,0
217,148,0,0,0,0,0,0,0,0,0,-1,1441,876,0,0
224,148,0,0,0,0,0,0,0,0,0,-1,1448,876,0,0
231,148,0,0,0,0,0,0,0,0,0,-1,1455,876,0,0
238,148,0,0,0,0,0,0,0,0,0,-1,1462,876,0,0
245,148,0,0,0,0,0,0,0,0,0,-1,1469,876,0,0
252,148,0,0,0,0,0,0,0,0,0,-1,1476,876,0,0
259,148,0,0,0,0,0,0,0,0,0,-1,1483,876,0,0
266,148,0,0,0,0,0,0,0,0,0,-1,1490,876,0,0
273,148,0,0,0,0,0,0,0,0,0,-1,1497,876,0,0
280,148,0,0,0,0,0,0,0,0,0,-1,1504,876,0,0
287,148,0,0,0,0,0,0,0,0,0,-1,1511,876,0,0
294,148,0,0,0,0,0,0,0,0,0,-1,1518,876,0,0
301,148,0,0,0,0,0,0,0,0,0,-1,1525,876,0,0
308,148,0,0,0,0,0,0,0,0,0,-1,1532,876,0,0
315,148,0,0,0,0,0,0,0,0,0,-1,1539,876,0,0
322,148,0,0,0,0,0,0,0,0,0,-1,1546,876,0,0
329,148,0,0,0,0,0,0,0,0,0,-1,1553,876,0,0
336,148,0,0,0,0,0,0,0,0,0,-1,1560,876,0,0
343,148,0,0,0,0,0,0,0,0,0,-1,1567,876,0,0
350,148,0,0,0,0,0,0,0,0,0,-1,1574,876,0,0
357,148,0,0,0,0,0,0,0,0,0,-1,1581,876,0,0
364,148,0,0,0,0,0,0,0,0,0,-1,1588,876,0,0
371,148,0,0,0,0,0,0,0,0,0,-1,1595,876,0,0
378,148,0,0,0,0,0,0,0,0,0,-1,1602,876,0,0
385,148,0,0,0,0,0,0,0,0,0,-1,1609,876,0,0
392,148,0,0,0,0,0,0,0,0,0,-1,1616,876,0,0
399,148,0,0,0,0,0,0,0,0,0,-1,1623,876,0,0
406,148,0,0,0,0,0,0,0,0,0,-1,1630,876,0,0
413,148,0,0,0,0,0,0,0,0,0,-1,1637,876,0,0
420,148,0,0,0,0,0,0,0,0,0,-1,1644,876,0,0
427,148,0,0,0,0,0,0,0,0,0,-1,1651,876,0,0
434,148,0,0,0,0,0,0,0,0,0,-1,1658,876,0,0
441,148,0,0,0,0,0,0,0,0,0,-1,1665,876,0,0
448,148,0,0,0,0,0,0,0,0,0,-1,1672,876,0,0
455,148,0,0,0,0,0,0,0,0,0,-1,1679,876,0,0
462,148,0,0,0,0,0,0,0,0,0,-1,1686,876,0,0
469,148,0,0,0,0,0,0,0,0,0,-1,1693,876,0,0
476,148,0,0,0,0,0,0,0,0,0,-1,1700,876,0,0
483,148,0,0,0,0,0,0,0,0,0,-1,1707,876,0,0
490,148,0,0,0,0,0,0,0,0,0,-1,1714,876,0,0
497,148,0,0,0,0,0,0,0,0,0,-1,1721,876,0,0
504,148,0,0,0,0,0,0,0,0,0,-1,1728,876,0,0
511,148,0,0,0,0,0,0,0,0,0,-1,1735,876,0,0
518,148,0,0,0,0,0,0,0,0,0,-1,1742,876,0,0
525,148,0,0,0,0,0,0,0,0,0,-1,1749,876,0,0
532,148,0,0,0,0,0,0,0,0,0,-1,1756,876,0,0
539,148,0,0,0,0,0,0,0,0,0,-1,1763,876,0,0
546,148,0,0,0,0,0,0,0,0,0,-1,1770,876,0,0
553,148,0,0,0,0,0,0,0,0,0,-1,1777,876,0,0
560,148,0,0,0,0,0,0,0,0,0,-1,1784,876,0,0
567,148,0,0,0,0,0,0,0,0,0,-1,1791,876,0,0
574,148,0,0,0,0,0,0,0,0,0,-1,1798,876,0,0
581,148,0,0,0,0,0,0,0,0,0,-1,1805,876,0,0
588,148,0,0,0,0,0,0,0,0,0,-1,1812,876,0,0
595,148,0,0,0,0,0,0,0,0,0,-1,1819,876,0,0
602,148,0,0,0,0,0,0,0,0,0,-1,1826,876,0,0
609,148,0,0,0,0,0,0,0,0,0,-1,1833,876,0,0
616,148,0,0,0,0,0,0,0,0,0,-1,1840,876,0,0
623,148,30.9618,3.14697,-0.00138327,-0.00510565,-0.00341545,0.000645183,-0.0071341,-0.535926,0.00498506,0.0417077,1847,876,30.9617,-3.14694
630,148,30.8414,2.88007,-6.96389e-05,-0.00331792,-0.00232884,0.00114547,-0.00453303,-0.480908,0.0034675,0.0420028,1854,876,30.8414,-2.88004
637,148,30.9407,2.89044,0.00073572,-0.00197529,-0.00161269,0.00148691,-0.00272648,-0.435914,0.00246744,0.0389327,1861,876,30.9407,-2.89041
644,148,31.0526,2.95233,0.0010987,-0.00109418,-0.00117024,0.00160589,-0.00160137,-0.408972,0.00185172,0.0373066,1868,876,31.0526,-2.95235
651,148,31.0646,3.00104,0.00108053,-0.000579053,-0.000960475,0.00152001,-0.00101854,-0.429133,0.00147514,0.0364123,1875,876,31.0645,-3.00104
658,148,31.0439,3.03412,0.000898001,-0.000366011,-0.000874208,0.00134473,-0.000812741,-0.472418,0.00125818,0.0327731,1882,876,31.0439,-3.03414
665,148,30.9509,3.06519,0.000714469,-0.000256275,-0.000847999,0.00120618,-0.000747984,-0.525469,0.00113853,0.0243313,1889,876,30.9509,-3.06518
672,148,30.9869,2.99243,0.000378973,-0.000160744,-0.000767272,0.000922459,-0.000704231,-0.616299,0.000941983,0.0271561,1896,876,30.987,-2.99243
679,148,30.9331,3.01434,0,0,0,0,0,0,0,-1,1903,876,30.9331,-3.01436
686,148,21.6195,2.40845,0,0,0,0,0,0,0,-1,1910,876,21.6196,-2.40846
693,148,26.1823,2.81061,0,0,0,0,0,0,0,-1,1917,876,26.1823,-2.81063
700,148,26.5359,3.21484,-0.000377842,1.01733e-05,-0.000802224,0.000641515,-0.00100918,-0.904039,0.000960879,0.0214589,1924,876,26.5359,-3.21483
707,148,26.6479,3.62628,-0.000421973,0.000135845,-0.00072591,0.000634583,-0.000920711,-0.968813,0.000903001,0.0183664,1931,876,26.648,-3.62626
714,148,26.5707,3.8277,-0.000183037,0.000545615,-0.000588292,0.000873258,-0.00051068,-1.06264,0.000808106,0.0176051,1938,876,26.5707,-3.82767
721,148,26.4089,4.07031,0.000445577,0.00163479,-0.000420574,0.0017685,0.000311871,-1.26299,0.00109002,0.0176331,1945,876,26.4089,-4.07033
728,148,26.4127,4.38165,0.00119277,0.00316,-9.83528e-05,0.0031649,0.00118787,-1.52097,0.00184609,0.0199908,1952,876,26.4127,-4.38165
735,148,26.4257,4.66406,0.00223874,0.00533674,0.000255779,0.00535772,0.00221776,1.48897,0.00310852,0.017441,1959,876,26.4256,-4.66405
742,148,26.3989,4.95691,0.00349452,0.00853067,0.000286662,0.00854693,0.00347826,1.51412,0.00496297,0.0189971,1966,876,26.3989,-4.95688
749,148,26.3411,5.20703,0.00498306,0.0125811,-4.99233e-05,0.0125815,0.00498273,-1.56423,0.00731607,0.0184231,1973,876,26.341,-5.20701
756,148,26.3251,5.48938,0.00677004,0.017913,-0.000450431,0.0179312,0.00675186,-1.53046,0.0104573,0.0223476,1980,876,26.3251,-5.4894
763,148,26.4047,5.84973,0.00876507,0.0248191,-0.00159907,0.0249768,0.00860734,-1.47248,0.0146507,0.0416256,1987,876,26.4046,-5.84973
770,148,26.4731,6.3457,0.0108501,0.0341168,-0.00414172,0.034832,0.0101349,-1.39978,0.0206878,0.0455641,1994,876,26.4732,-6.34573
777,148,26.2206,7.00269,0,0,0,0,0,0,0,-1,2001,876,26.2206,-7.00268
784,148,26.0823,7.72412,0,0,0,0,0,0,0,-1,2008,876,26.0823,-7.72412
791,148,27.9893,4.39136,0,0,0,0,0,0,0,-1,2015,876,27.9893,-4.39135
798,148,0,0,0,0,0,0,0,0,0,-1,2022,876,0,0
805,148,0,0,0,0,0,0,0,0,0,-1,2029,876,0,0
812,148,0,0,0,0,0,0,0,0,0,-1,2036,876,0,0
-700,141,0,0,0,0,0,0,0,0,0,-1,524,883,0,0
-693,141,0,0,0,0,0,0,0,0,0,-1,531,883,0,0
-686,141,0,0,0,0,0,0,0,0,0,-1,538,883,0,0
-679,141,0,0,0,0,0,0,0,0,0,-1,545,883,0,0
-672,141,-23.0979,4.76276,-0.0116907,0.0496776,0.0105876,0.0514529,-0.013466,1.40467,0.039562,0.0446843,552,883,-23.0979,-4.76273
-665,141,-23.3242,5.37689,-0.00654979,0.0396802,0.00852533,0.0412023,-0.00807184,1.39412,0.0305167,0.0473068,559,883,-23.3242,-5.37687
-658,141,-23.4674,6.23535,0,0,0,0,0,0,0,-1,566,883,-23.4674,-6.23538
-651,141,-20.0887,2.72791,0,0,0,0,0,0,0,-1,573,883,-20.0887,-2.72788
-644,141,-20.3534,2.85565,0,0,0,0,0,0,0,-1,580,883,-20.3534,-2.85567
-637,141,-18.4435,3.39911,0,0,0,0,0,0,0,-1,587,883,-18.4435,-3.3991
-630,141,-18.4449,3.23907,0.0024129,0.00781222,0.00378378,0.0097607,0.000464431,1.09526,0.00635798,0.0414917,594,883,-18.4449,-3.23905
-623,141,-18.3669,2.9693,0.00223685,0.00480001,0.00331104,0.00706885,-3.19821e-05,0.97005,0.00472326,0.0244859,601,883,-18.3669,-2.96928
-616,141,-18.4941,2.65936,0.00210443,0.00208311,0.00263364,0.00472743,-0.000539886,0.783374,0.00334613,0.0129643,608,883,-18.4942,-2.65936
-609,141,-18.5503,2.39862,0.00186638,-0.00020494,0.00228838,0.00334255,-0.00168111,0.572903,0.00295281,0.0136726,615,883,-18.5503,-2.3986
-602,141,-18.5662,2.14276,0.00109292,-0.000826151,0.00196681,0.00232177,-0.002055,0.558452,0.0025285,0.0125362,622,883,-18.5661,-2.14276
-595,141,-18.5723,1.86261,0.000468944,-0.000557768,0.00162662,0.00166129,-0.00175012,0.632547,0.0019698,0.0117641,629,883,-18.5722,-1.86263
-588,141,-18.7448,1.62476,0.00013604,0.000149309,0.00105314,0.00119583,-0.000910484,0.788548,0.0012198,0.0193119,636,883,-18.7448,-1.62476
-581,141,-18.7114,1.38086,0.000132307,0.000303258,0.000677913,0.000901063,-0.000465498,0.84811,0.000802232,0.0262415,643,883,-18.7114,-1.38085
-574,141,-18.452,1.19696,3.30057e-05,0.00020917,0.000262456,0.00039793,-0.000155755,0.947296,0.000329705,0.0339504,650,883,-18.452,-1.19693
-567,141,-18.4827,1.03436,5.00311e-05,9.35248e-05,-9.72858e-05,0.000171465,-2.79088e-05,-0.895358,0.000124658,0.036809,657,883,-18.4827,-1.03436
-560,141,-18.4612,0.949646,0,0,0,0,0,0,0,-1,664,883,-18.4612,-0.949632
-553,141,-21.8597,1.39197,0,0,0,0,0,0,0,-1,671,883,-21.8597,-1.39194
-546,141,-21.911,1.26062,0.000193398,-6.35547e-05,-0.000277184,0.000370433,-0.00024059,-0.568384,0.000355419,0.0385032,678,883,-21.911,-1.26063
-539,141,-21.9277,1.12988,0.000132035,-0.0001604,-0.000215986,0.000246642,-0.000275007,-0.487845,0.000301323,0.0291703,685,883,-21.9277,-1.1299
-532,141,-22.0121,1.15076,4.47436e-05,-0.00037042,8.40358e-06,4.49136e-05,-0.00037059,0.0202306,0.000263311,0.0259561,692,883,-22.0121,-1.15074
-525,141,-22.0192,1.25049,-9.72046e-05,-0.000792805,0.000467665,0.000137812,-0.00102782,0.465671,0.000735469,0.035168,699,883,-22.0192,-1.25048
-518,141,-21.9299,1.2276,0.000169956,-0.00156793,0.00130591,0.000869602,-0.00226758,0.491839,0.00187024,0.0413948,706,883,-21.93,-1.2276
-511,141,-21.8125,1.22314,0.0013873,-0.00275796,0.0026753,0.0026989,-0.00406956,0.455828,0.00393439,0.0401591,713,883,-21.8125,-1.22316
-504,141,-21.7817,1.3125,0.00385029,-0.00453945,0.00437823,0.0057189,-0.00640807,0.403391,0.00700528,0.0441451,720,883,-21.7817,-1.31251
-497,141,0,0,0,0,0,0,0,0,0,-1,727,883,0,0
-490,141,0,0,0,0,0,0,0,0,0,-1,734,883,0,0
-483,141,0,0,0,0,0,0,0,0,0,-1,741,883,0,0
-476,141,0,0,0,0,0,0,0,0,0,-1,748,883,0,0
-469,141,0,0,0,0,0,0,0,0,0,-1,755,883,0,0
-462,141,0,0,0,0,0,0,0,0,0,-1,762,883,0,0
-455,141,0,0,0,0,0,0,0,0,0,-1,769,883,0,0
-448,141,0,0,0,0,0,0,0,0,0,-1,776,883,0,0
-441,141,0,0,0,0,0,0,0,0,0,-1,783,883,0,0
-434,141,0,0,0,0,0,0,0,0,0,-1,790,883,0,0
-427,141,0,0,0,0,0,0,0,0,0,-1,797,883,0,0
-420,141,0,0,0,0,0,0,0,0,0,-1,804,883,0,0
-413,141,0,0,0,0,0,0,0,0,0,-1,811,883,0,0
-406,141,0,0,0,0,0,0,0,0,0,-1,818,883,0,0
-399,141,0,0,0,0,0,0,0,0,0,-1,825,883,0,0
-392,141,0,0,0,0,0,0,0,0,0,-1,832,883,0,0
-385,141,0,0,0,0,0,0,0,0,0,-1,839,883,0,0
-378,141,0,0,0,0,0,0,0,0,0,-1,846,883,0,0
-371,141,0,0,0,0,0,0,0,0,0,-1,853,883,0,0
-364,141,0,0,0,0,0,0,0,0,0,-1,860,883,0,0
-357,141,0,0,0,0,0,0,0,0,0,-1,867,883,0,0
-350,141,0,0,0,0,0,0,0,0,0,-1,874,883,0,0
-343,141,0,0,0,0,0,0,0,0,0,-1,881,883,0,0
-336,141,0,0,0,0,0,0,0,0,0,-1,888,883,0,0
-329,141,0,0,0,0,0,0,0,0,0,-1,895,883,0,0
-322,141,0,0,0,0,0,0,0,0,0,-1,902,883,0,0
-315,141,0,0,0,0,0,0,0,0,0,-1,909,883,0,0
-308,141,0,0,0,0,0,0,0,0,0,-1,916,883,0,0
-301,141,0,0,0,0,0,0,0,0,0,-1,923,883,0,0
-294,141,0,0,0,0,0,0,0,0,0,-1,930,883,0,0
-287,141,0,0,0,0,0,0,0,0,0,-1,937,883,0,0
-280,141,0,0,0,0,0,0,0,0,0,-1,944,883,0,0
-273,141,0,0,0,0,0,0,0,0,0,-1,951,883,0,0
-266,141,0,0,0,0,0,0,0,0,0,-1,958,883,0,0
-259,141,0,0,0,0,0,0,0,0,0,-1,965,883,0,0
-252,141,0,0,0,0,0,0,0,0,0,-1,972,883,0,0
-245,141,0,0,0,0,0,0,0,0,0,-1,979,883,0,0
-238,141,0,0,0,0,0,0,0,0,0,-1,986,883,0,0
-231,141,0,0,0,0,0,0,0,0,0,-1,993,883,0,0
-224,141,0,0,0,0,0,0,0,0,0,-1,1000,883,0,0
-217,141,0,0,0,0,0,0,0,0,0,-1,1007,883,0,0
-210,141,0,0,0,0,0,0,0,0,0,-1,1014,883,0,0
-203,141,0,0,0,0,0,0,0,0,0,-1,1021,883,0,0
-196,141,0,0,0,0,0,0,0,0,0,-1,1028,883,0,0
-189,141,0,0,0,0,0,0,0,0,0,-1,1035,883,0,0
-182,141,0,0,0,0,0,0,0,0,0,-1,1042,883,0,0
-175,141,0,0,0,0,0,0,0,0,0,-1,1049,883,0,0
-168,141,0,0,0,0,0,0,0,0,0,-1,1056,883,0,0
-161,141,0,0,0,0,0,0,0,0,0,-1,1063,883,0,0
-154,141,0,0,0,0,0,0,0,0,0,-1,1070,883,0,0
-147,141,0,0,0,0,0,0,0,0,0,-1,1077,883,0,0
-140,141,0,0,0,0,0,0,0,0,0,-1,1084,883,0,0
-133,141,0,0,0,0,0,0,0,0,0,-1,1091,883,0,0
-126,141,0,0,0,0,0,0,0,0,0,-1,1098,883,0,0
-119,141,0,0,0,0,0,0,0,0,0,-1,1105,883,0,0
-112,141,0,0,0,0,0,0,0,0,0,-1,1112,883,0,0
-105,141,0,0,0,0,0,0,0,0,0,-1,1119,883,0,0
-98,141,0,0,0,0,0,0,0,0,0,-1,1126,883,0,0
-91,141,0,0,0,0,0,0,0,0,0,-1,1133,883,0,0
-84,141,0,0,0,0,0,0,0,0,0,-1,1140,883,0,0
-77,141,0,0,0,0,0,0,0,0,0,-1,1147,883,0,0
-70,141,0,0,0,0,0,0,0,0,0,-1,1154,883,0,0
-63,141,0,0,0,0,0,0,0,0,0,-1,1161,883,0,0
-56,141,0,0,0,0,0,0,0,0,0,-1,1168,883,0,0
-49,141,0,0,0,0,0,0,0,0,0,-1,1175,883,0,0
-42,141,0,0,0,0,0,0,0,0,0,-1,1182,883,0,0
-35,141,0,0,0,0,0,0,0,0,0,-1,1189,883,0,0
-28,141,0,0,0,0,0,0,0,0,0,-1,1196,883,0,0
-21,141,0,0,0,0,0,0,0,0,0,-1,1203,883,0,0
-14,141,0,0,0,0,0,0,0,0,0,-1,1210,883,0,0
-7,141,0,0,0,0,0,0,0,0,0,-1,1217,883,0,0
0,141,0,0,0,0,0,0,0,0,0,-1,1224,883,0,0
7,141,0,0,0,0,0,0,0,0,0,-1,1231,883,0,0
14,141,0,0,0,0,0,0,0,0,0,-1,1238,883,0,0
21,141,0,0,0,0,0,0,0,0,0,-1,1245,883,0,0
28,141,0,0,0,0,0,0,0,0,0,-1,1252,883,0,0
35,141,0,0,0,0,0,0,0,0,0,-1,1259,883,0,0
42,141,0,0,0,0,0,0,0,0,0,-1,1266,883,0,0
49,141,0,0,0,0,0,0,0,0,0,-1,1273,883,0,0
56,141,0,0,0,0,0,0,0,0,0,-1,1280,883,0,0
63,141,0,0,0,0,0,0,0,0,0,-1,1287,883,0,0
70,141,0,0,0,0,0,0,0,0,0,-1,1294,883,0,0
77,141,0,0,0,0,0,0,0,0,0,-1,1301,883,0,0
84,141,0,0,0,0,0,0,0,0,0,-1,1308,883,0,0
91,141,0,0,0,0,0,0,0,0,0,-1,1315,883,0,0
98,141,0,0,0,0,0,0,0,0,0,-1,1322,883,0,0
105,141,0,0,0,0,0,0,0,0,0,-1,1329,883,0,0
112,141,0,0,0,0,0,0,0,0,0,-1,1336,883,0,0
119,141,0,0,0,0,0,0,0,0,0,-1,1343,883,0,0
126,141,0,0,0,0,0,0,0,0,0,-1,1350,883,0,0
133,141,0,0,0,0,0,0,0,0,0,-1,1357,883,0,0
140,141,0,0,0,0,0,0,0,0,0,-1,1364,883,0,0
147,141,0,0,0,0,0,0,0,0,0,-1,1371,883,0,0
154,141,0,0,0,0,0,0,0,0,0,-1,1378,883,0,0
161,141,0,0,0,0,0,0,0,0,0,-1,1385,883,0,0
168,141,0,0,0,0,0,0,0,0,0,-1,1392,883,0,0
175,141,0,0,0,0,0,0,0,0,0,-1,1399,883,0,0
182,141,0,0,0,0,0,0,0,0,0,-1,1406,883,0,0
189,141,0,0,0,0,0,0,0,0,0,-1,1413,883,0,0
196,141,0,0,0,0,0,0,0,0,0,-1,1420,883,0,0
203,141,0,0,0,0,0,0,0,0,0,-1,1427,883,0,0
210,141,0,0,0,0,0,0,0,0,0,-1,1434,883,0,0
217,141,0,0,0,0,0,0,0,0,0,-1,1441,883,0,0
224,141,0,0,0,0,0,0,0,0,0,-1,1448,883,0,0
231,141,0,0,0,0,0,0,0,0,0,-1,1455,883,0,0
238,141,0,0,0,0,0,0,0,0,0,-1,1462,883,0,0
245,141,0,0,0,0,0,0,0,0,0,-1,1469,883,0,0
252,141,0,0,0,0,0,0,0,0,0,-1,1476,883,0,0
259,141,0,0,0,0,0,0,0,0,0,-1,1483,883,0,0
266,141,0,0,0,0,0,0,0,0,0,-1,1490,883,0,0
273,141,0,0,0,0,0,0,0,0,0,-1,1497,883,0,0
280,141,0,0,0,0,0,0,0,0,0,-1,1504,883,0,0
287,141,0,0,0,0,0,0,0,0,0,-1,1511,883,0,0
294,141,0,0,0,0,0,0,0,0,0,-1,1518,883,0,0
301,141,0,0,0,0,0,0,0,0,0,-1,1525,883,0,0
308,141,0,0,0,0,0,0,0,0,0,-1,1532,883,0,0
315,141,0,0,0,0,0,0,0,0,0,-1,1539,883,0,0
322,141,0,0,0,0,0,0,0,0,0,-1,1546,883,0,0
329,141,0,0,0,0,0,0,0,0,0,-1,1553,883,0,0
336,141,0,0,0,0,0,0,0,0,0,-1,1560,883,0,0
343,141,0,0,0,0,0,0,0,0,0,-1,1567,883,0,0
350,141,0,0,0,0,0,0,0,0,0,-1,1574,883,0,0
357,141,0,0,0,0,0,0,0,0,0,-1,1581,883,0,0
364,141,0,0,0,0,0,0,0,0,0,-1,1588,883,0,0
371,141,0,0,0,0,0,0,0,0,0,-1,1595,883,0,0
378,141,0,0,0,0,0,0,0,0,0,-1,1602,883,0,0
385,141,0,0,0,0,0,0,0,0,0,-1,1609,883,0,0
392,141,0,0,0,0,0,0,0,0,0,-1,1616,883,0,0
399,141,0,0,0,0,0,0,0,0,0,-1,1623,883,0,0
406,141,0,0,0,0,0,0,0,0,0,-1,1630,883,0,0
413,141,0,0,0,0,0,0,0,0,0,-1,1637,883,0,0
420,141,0,0,0,0,0,0,0,0,0,-1,1644,883,0,0
427,141,0,0,0,0,0,0,0,0,0,-1,1651,883,0,0
434,141,0,0,0,0,0,0,0,0,0,-1,1658,883,0,0
441,141,0,0,0,0,0,0,0,0,0,-1,1665,883,0,0
448,141,0,0,0,0,0,0,0,0,0,-1,1672,883,0,0
455,141,0,0,0,0,0,0,0,0,0,-1,1679,883,0,0
462,141,0,0,0,0,0,0,0,0,0,-1,1686,883,0,0
469,141,0,0,0,0,0,0,0,0,0,-1,1693,883,0,0
476,141,0,0,0,0,0,0,0,0,0,-1,1700,883,0,0
483,141,0,0,0,0,0,0,0,0,0,-1,1707,883,0,0
490,141,0,0,0,0,0,0,0,0,0,-1,1714,883,0,0
497,141,0,0,0,0,0,0,0,0,0,-1,1721,883,0,0
504,141,0,0,0,0,0,0,0,0,0,-1,1728,883,0,0
511,141,0,0,0,0,0,0,0,0,0,-1,1735,883,0,0
518,141,0,0,0,0,0,0,0,0,0,-1,1742,883,0,0
525,141,0,0,0,0,0,0,0,0,0,-1,1749,883,0,0
532,141,0,0,0,0,0,0,0,0,0,-1,1756,883,0,0
539,141,0,0,0,0,0,0,0,0,0,-1,1763,883,0,0
546,141,0,0,0,0,0,0,0,0,0,-1,1770,883,0,0
553,141,0,0,0,0,0,0,0,0,0,-1,1777,883,0,0
560,141,0,0,0,0,0,0,0,0,0,-1,1784,883,0,0
567,141,0,0,0,0,0,0,0,0,0,-1,1791,883,0,0
574,141,0,0,0,0,0,0,0,0,0,-1,1798,883,0,0
581,141,0,0,0,0,0,0,0,0,0,-1,1805,883,0,0
588,141,0,0,0,0,0,0,0,0,0,-1,1812,883,0,0
595,141,0,0,0,0,0,0,0,0,0,-1,1819,883,0,0
602,141,0,0,0,0,0,0,0,0,0,-1,1826,883,0,0
609,141,0,0,0,0,0,0,0,0,0,-1,1833,883,0,0
616,141,0,0,0,0,0,0,0,0,0,-1,1840,883,0,0
623,141,30.917,3.01892,-0.002353,-0.00454863,-0.00374728,0.000453968,-0.0073556,-0.642904,0.00506184,0.0460474,1847,883,30.917,-3.01894
630,141,30.8738,3.11261,-0.000812048,-0.00297239,-0.00272773,0.0010416,-0.00482604,-0.596873,0.00361493,0.0468298,1854,883,30.8738,-3.11259
637,141,31.0488,2.83026,0.000190825,-0.00171446,-0.00209029,0.00153532,-0.00305895,-0.571587,0.00270069,0.0451516,1861,883,31.0488,-2.83024
644,141,31.0927,2.84839,0.00070968,-0.000838004,-0.00165936,0.00176677,-0.0018951,-0.567215,0.00211461,0.0397438,1868,883,31.0927,-2.84837
651,141,31.1115,2.90228,0.000806419,-0.000255498,-0.00140132,0.001774,-0.00122308,-0.604307,0.00174008,0.0380333,1875,883,31.1114,-2.9023
658,141,31.0862,2.96332,0.000694091,2.49178e-05,-0.00124503,0.00164871,-0.0009297,-0.654131,0.00150781,0.0371823,1882,883,31.0862,-2.96334
665,141,30.9757,3.04907,0.00056102,0.000156586,-0.00114344,0.00151998,-0.000802378,-0.697878,0.00136199,0.0272446,1889,883,30.9757,-3.04907
672,141,30.9829,3.03772,0.000282335,0.000241869,-0.000992883,0.00125519,-0.000730987,-0.77521,0.00115996,0.0177496,1896,883,30.9829,-3.03772
679,141,30.9767,2.95715,0.000158086,0.000195156,-0.000873494,0.00105031,-0.00069707,-0.796006,0.0010157,0.0265296,1903,883,30.9767,-2.95715
686,141,30.9514,2.89301,0,0,0,0,0,0,0,-1,1910,883,30.9514,-2.89301
693,141,26.5894,2.83691,0,0,0,0,0,0,0,-1,1917,883,26.5894,-2.83691
700,141,26.8213,3.21289,-0.000393676,0.000227096,-0.000856207,0.00082744,-0.000994021,-0.959287,0.00105309,0.0208565,1924,883,26.8213,-3.21289
707,141,26.8149,3.54572,-0.00045246,0.000237086,-0.000787033,0.000751551,-0.000966925,-0.991841,0.000994756,0.0177859,1931,883,26.8149,-3.54573
714,141,26.6835,3.771,-0.000250495,0.000468829,-0.000727342,0.000920575,-0.000702241,-1.01501,0.000939755,0.0179881,1938,883,26.6834,-3.77099
721,141,26.6865,4.04877,0.000304603,0.00116184,-0.00073955,0.001588,-0.000121558,-1.04803,0.00110143,0.0129932,1945,883,26.6865,-4.04874
728,141,26.7247,4.32141,0.000891138,0.0021331,-0.000633959,0.00239954,0.000624695,-1.17293,0.00143745,0.0147396,1952,883,26.7247,-4.32143
735,141,26.7195,4.6637,0.00168647,0.00351754,-0.00065532,0.0037279,0.00147611,-1.26018,0.00216778,0.0152567,1959,883,26.7195,-4.66372
742,141,26.6892,4.96124,0.00257799,0.00555108,-0.00133356,0.00606159,0.00206749,-1.20519,0.00355809,0.0157996,1966,883,26.6892,-4.96126
749,141,26.6708,5.20465,0.00354712,0.00767664,-0.00271059,0.0090193,0.00220445,-1.11088,0.00542934,0.0139166,1973,883,26.6708,-5.20468
756,141,26.6857,5.5144,0.0046701,0.0105837,-0.00434474,0.0128823,0.00237149,-1.08417,0.00791701,0.0200233,1980,883,26.6857,-5.51442
763,141,26.7764,5.84692,0.00574805,0.0138994,-0.00712865,0.0180352,0.00161222,-1.04508,0.0115237,0.0429949,1987,883,26.7764,-5.84695
770,141,26.9261,6.13208,0.00664223,0.0178006,-0.0118708,0.025338,-0.000895126,-1.00508,0.0171981,0.0499649,1994,883,26.9262,-6.13211
777,141,27.0109,6.45282,0,0,0,0,0,0,0,-1,2001,883,27.0109,-6.45285
784,141,28.4094,4.67004,0,0,0,0,0,0,0,-1,2008,883,28.4094,-4.67006
791,141,28.0096,4.99066,0,0,0,0,0,0,0,-1,2015,883,28.0097,-4.99067
798,141,0,0,0,0,0,0,0,0,0,-1,2022,883,0,0
805,141,0,0,0,0,0,0,0,0,0,-1,2029,883,0,0
812,141,0,0,0,0,0,0,0,0,0,-1,2036,883,0,0
-700,134,0,0,0,0,0,0,0,0,0,-1,524,890,0,0
-693,134,0,0,0,0,0,0,0,0,0,-1,531,890,0,0
-686,134,0,0,0,0,0,0,0,0,0,-1,538,890,0,0
-679,134,0,0,0,0,0,0,0,0,0,-1,545,890,0,0
-672,134,-22.9953,4.59064,-0.00377105,0.0462467,0.0117146,0.0488544,-0.00637875,1.35176,0.0348908,0.0472543,552,890,-22.9953,-4.59064
-665,134,-22.7774,5.16815,-0.00077958,0.0359694,0.00984717,0.0384417,-0.00325189,1.32481,0.0267776,0.046792,559,890,-22.7774,-5.16813
-658,134,-22.8525,5.72137,0,0,0,0,0,0,0,-1,566,890,-22.8525,-5.72137
-651,134,-22.9277,6.25952,0,0,0,0,0,0,0,-1,573,890,-22.9277,-6.25955
-644,134,-19.1638,0.848633,0,0,0,0,0,0,0,-1,580,890,-19.1638,-0.848646
-637,134,-18.7386,1.44708,0,0,0,0,0,0,0,-1,587,890,-18.7387,-1.44707
-630,134,-18.7455,2.9173,0.00320315,0.00501033,0.00473723,0.00892938,-0.0007159,0.879637,0.00620533,0.0453804,594,890,-18.7455,-2.9173
-623,134,-18.687,2.89905,0.00263462,0.00250824,0.00403861,0.00661054,-0.00146767,0.777575,0.00496903,0.0234458,601,890,-18.687,-2.89907
-616,134,-18.797,2.66156,0.00219408,0.000253955,0.00308936,0.0044621,-0.00201406,0.633272,0.00382702,0.0127145,608,890,-18.797,-2.66156
-609,134,-18.8506,2.40558,0.00160041,-0.00210439,0.00246633,0.00283251,-0.00333649,0.463303,0.00356564,0.0123274,615,890,-18.8506,-2.40558
-602,134,-18.8397,2.1228,0.000620518,-0.00197918,0.00212191,0.00180907,-0.00316773,0.510588,0.00290882,0.0126424,622,890,-18.8397,-2.12278
-595,134,-18.8094,1.90112,-5.53236e-05,-0.00133131,0.00171572,0.00113718,-0.00252381,0.607394,0.00216362,0.0148728,629,890,-18.8094,-1.90111
-588,134,-19.0625,1.72302,-0.000454859,-0.00026316,0.00111223,0.000757342,-0.00147536,0.828381,0.00131108,0.0247166,636,890,-19.0625,-1.72304
-581,134,-19.0002,1.32098,-0.000567901,6.79215e-05,0.000708061,0.000526166,-0.00102615,0.996404,0.000911592,0.0327287,643,890,-19.0002,-1.32101
-574,134,-18.9913,1.05377,-0.000667859,6.09739e-05,0.000289411,0.000161915,-0.0007688,1.23521,0.000574166,0.0354137,650,890,-18.9913,-1.05377
-567,134,-18.7358,0.822754,-0.000621685,-2.74957e-05,-1.47412e-05,-2.71302e-05,-0.00062205,-1.54601,0.000405959,0.0310327,657,890,-18.7359,-0.822783
-560,134,-18.6354,0.700867,0,0,0,0,0,0,0,-1,664,890,-18.6354,-0.700878
-553,134,-21.8091,1.25549,0,0,0,0,0,0,0,-1,671,890,-21.8091,-1.25547
-546,134,-21.8602,1.21796,-0.000358292,-0.00013473,-4.39097e-05,-0.000126415,-0.000366607,-1.38365,0.000215032,0.0266196,678,890,-21.8603,-1.21797
-539,134,-21.9266,1.17474,-0.000349425,-0.000189823,8.34179e-05,-0.000154183,-0.000385065,1.16702,0.000223783,0.0180244,685,890,-21.9267,-1.17472
-532,134,-22.0076,1.2464,-0.000370604,-0.000377156,0.000393284,1.94177e-05,-0.000767178,0.781233,0.000518046,0.0221693,692,890,-22.0076,-1.24638
-525,134,-22.1109,1.41534,-0.000457203,-0.000804526,0.000929566,0.000314784,-0.00157651,0.693053,0.00117014,0.0370055,699,890,-22.1109,-1.41532
-518,134,-21.9706,1.41656,-0.000210541,-0.00164295,0.00184553,0.00105288,-0.00290637,0.600306,0.0023679,0.0425677,706,890,-21.9706,-1.41658
-511,134,-21.7728,1.37799,0.000798628,-0.00283766,0.00320847,0.00266829,-0.00470732,0.527622,0.00431221,0.0411724,713,890,-21.7728,-1.37796
-504,134,0,0,0,0,0,0,0,0,0,-1,720,890,0,0
-497,134,0,0,0,0,0,0,0,0,0,-1,727,890,0,0
-490,134,0,0,0,0,0,0,0,0,0,-1,734,890,0,0
-483,134,0,0,0,0,0,0,0,0,0,-1,741,890,0,0
-476,134,0,0,0,0,0,0,0,0,0,-1,748,890,0,0
-469,134,0,0,0,0,0,0,0,0,0,-1,755,890,0,0
-462,134,0,0,0,0,0,0,0,0,0,-1,762,890,0,0
-455,134,0,0,0,0,0,0,0,0,0,-1,769,890,0,0
-448,134,0,0,0,0,0,0,0,0,0,-1,776,890,0,0
-441,134,0,0,0,0,0,0,0,0,0,-1,783,890,0,0
-434,134,0,0,0,0,0,0,0,0,0,-1,790,890,0,0
-427,134,0,0,0,0,0,0,0,0,0,-1,797,890,0,0
-420,134,0,0,0,0,0,0,0,0,0,-1,804,890,0,0
-413,134,0,0,0,0,0,0,0,0,0,-1,811,890,0,0
-406,134,0,0,0,0,0,0,0,0,0,-1,818,890,0,0
-399,134,0,0,0,0,0,0,0,0,0,-1,825,890,0,0
-392,134,0,0,0,0,0,0,0,0,0,-1,832,890,0,0
-385,134,0,0,0,0,0,0,0,0,0,-1,839,890,0,0
-378,134,0,0,0,0,0,0,0,0,0,-1,846,890,0,0
-371,134,0,0,0,0,0,0,0,0,0,-1,853,890,0,0
-364,134,0,0,0,0,0,0,0,0,0,-1,860,890,0,0
-357,134,0,0,0,0,0,0,0,0,0,-1,867,890,0,0
-350,134,0,0,0,0,0,0,0,0,0,-1,874,890,0,0
-343,134,0,0,0,0,0,0,0,0,0,-1,881,890,0,0
-336,134,0,0,0,0,0,0,0,0,0,-1,888,890,0,0
-329,134,0,0,0,0,0,0,0,0,0,-1,895,890,0,0
-322,134,0,0,0,0,0,0,0,0,0,-1,902,890,0,0
-315,134,0,0,0,0,0,0,0,0,0,-1,909,890,0,0
-308,134,0,0,0,0,0,0,0,0,0,-1,916,890,0,0
-301,134,0,0,0,0,0,0,0,0,0,-1,923,890,0,0
-294,134,0,0,0,0,0,0,0,0,0,-1,930,890,0,0
-287,134,0,0,0,0,0,0,0,0,0,-1,937,890,0,0
-280,134,0,0,0,0,0,0,0,0,0,-1,944,890,0,0
-273,134,0,0,0,0,0,0,0,0,0,-1,951,890,0,0
-266,134,0,0,0,0,0,0,0,0,0,-1,958,890,0,0
-259,134,0,0,0,0,0,0,0,0,0,-1,965,890,0,0
-252,134,0,0,0,0,0,0,0,0,0,-1,972,890,0,0
-245,134,0,0,0,0,0,0,0,0,0,-1,979,890,0,0
-238,134,0,0,0,0,0,0,0,0,0,-1,986,890,0,0
-231,134,0,0,0,0,0,0,0,0,0,-1,993,890,0,0
-224,134,0,0,0,0,0,0,0,0,0,-1,1000,890,0,0
-217,134,0,0,0,0,0,0,0,0,0,-1,1007,890,0,0
-210,134,0,0,0,0,0,0,0,0,0,-1,1014,890,0,0
-203,134,0,0,0,0,0,0,0,0,0,-1,1021,890,0,0
-196,134,0,0,0,0,0,0,0,0,0,-1,1028,890,0,0
-189,134,0,0,0,0,0,0,0,0,0,-1,1035,890,0,0
-182,134,0,0,0,0,0,0,0,0,0,-1,1042,890,0,0
-175,134,0,0,0,0,0,0,0,0,0,-1,1049,890,0,0
-168,134,0,0,0,0,0,0,0,0,0,-1,1056,890,0,0
-161,134,0,0,0,0,0,0,0,0,0,-1,1063,890,0,0
-154,134,0,0,0,0,0,0,0,0,0,-1,1070,890,0,0
-147,134,0,0,0,0,0,0,0,0,0,-1,1077,890,0,0
-140,134,0,0,0,0,0,0,0,0,0,-1,1084,890,0,0
-133,134,0,0,0,0,0,0,0,0,0,-1,1091,890,0,0
-126,134,0,0,0,0,0,0,0,0,0,-1,1098,890,0,0
-119,134,0,0,0,0,0,0,0,0,0,-1,1105,890,0,0
-112,134,0,0,0,0,0,0,0,0,0,-1,1112,890,0,0
-105,134,0,0,0,0,0,0,0,0,0,-1,1119,890,0,0
-98,134,0,0,0,0,0,0,0,0,0,-1,1126,890,0,0
-91,134,0,0,0,0,0,0,0,0,0,-1,1133,890,0,0
-84,134,0,0,0,0,0,0,0,0,0,-1,1140,890,0,0
-77,134,0,0,0,0,0,0,0,0,0,-1,1147,890,0,0
-70,134,0,0,0,0,0,0,0,0,0,-1,1154,890,0,0
-63,134,0,0,0,0,0,0,0,0,0,-1,1161,890,0,0
-56,134,0,0,0,0,0,0,0,0,0,-1,1168,890,0,0
-49,134,0,0,0,0,0,0,0,0,0,-1,1175,890,0,0
-42,134,0,0,0,0,0,0,0,0,0,-1,1182,890,0,0
-35,134,0,0,0,0,0,0,0,0,0,-1,1189,890,0,0
-28,134,0,0,0,0,0,0,0,0,0,-1,1196,890,0,0
-21,134,0,0,0,0,0,0,0,0,0,-1,1203,890,0,0
-14,134,0,0,0,0,0,0,0,0,0,-1,1210,890,0,0
-7,134,0,0,0,0,0,0,0,0,0,-1,1217,890,0,0
0,134,0,0,0,0,0,0,0,0,0,-1,1224,890,0,0
7,134,0,0,0,0,0,0,0,0,0,-1,1231,890,0,0
14,134,0,0,0,0,0,0,0,0,0,-1,1238,890,0,0
21,134,0,0,0,0,0,0,0,0,0,-1,1245,890,0,0
28,134,0,0,0,0,0,0,0,0,0,-1,1252,890,0,0
35,134,0,0,0,0,0,0,0,0,0,-1,1259,890,0,0
42,134,0,0,0,0,0,0,0,0,0,-1,1266,890,0,0
49,134,0,0,0,0,0,0,0,0,0,-1,1273,890,0,0
56,134,0,0,0,0,0,0,0,0,0,-1,1280,890,0,0
63,134,0,0,0,0,0,0,0,0,0,-1,1287,890,0,0
70,134,0,0,0,0,0,0,0,0,0,-1,1294,890,0,0
77,134,0,0,0,0,0,0,0,0,0,-1,1301,890,0,0
84,134,0,0,0,0,0,0,0,0,0,-1,1308,890,0,0
91,134,0,0,0,0,0,0,0,0,0,-1,1315,890,0,0
98,134,0,0,0,0,0,0,0,0,0,-1,1322,890,0,0
105,134,0,0,0,0,0,0,0,0,0,-1,1329,890,0,0
112,134,0,0,0,0,0,0,0,0,0,-1,1336,890,0,0
119,134,0,0,0,0,0,0,0,0,0,-1,1343,890,0,0
126,134,0,0,0,0,0,0,0,0,0,-1,1350,890,0,0
133,134,0,0,0,0,0,0,0,0,0,-1,1357,890,0,0
140,134,0,0,0,0,0,0,0,0,0,-1,1364,890,0,0
147,134,0,0,0,0,0,0,0,0,0,-1,1371,890,0,0
154,134,0,0,0,0,0,0,0,0,0,-1,1378,890,0,0
161,134,0,0,0,0,0,0,0,0,0,-1,1385,890,0,0
168,134,0,0,0,0,0,0,0,0,0,-1,1392,890,0,0
175,134,0,0,0,0,0,0,0,0,0,-1,1399,890,0,0
182,134,0,0,0,0,0,0,0,0,0,-1,1406,890,0,0
189,134,0,0,0,0,0,0,0,0,0,-1,1413,890,0,0
196,134,0,0,0,0,0,0,0,0,0,-1,1420,890,0,0
203,134,0,0,0,0,0,0,0,0,0,-1,1427,890,0,0
210,134,0,0,0,0,0,0,0,0,0,-1,1434,890,0,0
217,134,0,0,0,0,0,0,0,0,0,-1,1441,890,0,0
224,134,0,0,0,0,0,0,0,0,0,-1,1448,890,0,0
231,134,0,0,0,0,0,0,0,0,0,-1,1455,890,0,0
238,134,0,0,0,0,0,0,0,0,0,-1,1462,890,0,0
245,134,0,0,0,0,0,0,0,0,0,-1,1469,890,0,0
252,134,0,0,0,0,0,0,0,0,0,-1,1476,890,0,0
259,134,0,0,0,0,0,0,0,0,0,-1,1483,890,0,0
266,134,0,0,0,0,0,0,0,0,0,-1,1490,890,0,0
273,134,0,0,0,0,0,0,0,0,0,-1,1497,890,0,0
280,134,0,0,0,0,0,0,0,0,0,-1,1504,890,0,0
287,134,0,0,0,0,0,0,0,0,0,-1,1511,890,0,0
294,134,0,0,0,0,0,0,0,0,0,-1,1518,890,0,0
301,134,0,0,0,0,0,0,0,0,0,-1,1525,890,0,0
308,134,0,0,0,0,0,0,0,0,0,-1,1532,890,0,0
315,134,0,0,0,0,0,0,0,0,0,-1,1539,890,0,0
322,134,0,0,0,0,0,0,0,0,0,-1,1546,890,0,0
329,134,0,0,0,0,0,0,0,0,0,-1,1553,890,0,0
336,134,0,0,0,0,0,0,0,0,0,-1,1560,890,0,0
343,134,0,0,0,0,0,0,0,0,0,-1,1567,890,0,0
350,134,0,0,0,0,0,0,0,0,0,-1,1574,890,0,0
357,134,0,0,0,0,0,0,0,0,0,-1,1581,890,0,0
364,134,0,0,0,0,0,0,0,0,0,-1,1588,890,0,0
371,134,0,0,0,0,0,0,0,0,0,-1,1595,890,0,0
378,134,0,0,0,0,0,0,0,0,0,-1,1602,890,0,0
385,134,0,0,0,0,0,0,0,0,0,-1,1609,890,0,0
392,134,0,0,0,0,0,0,0,0,0,-1,1616,890,0,0
399,134,0,0,0,0,0,0,0,0,0,-1,1623,890,0,0
406,134,0,0,0,0,0,0,0,0,0,-1,1630,890,0,0
413,134,0,0,0,0,0,0,0,0,0,-1,1637,890,0,0
420,134,0,0,0,0,0,0,0,0,0,-1,1644,890,0,0
427,134,0,0,0,0,0,0,0,0,0,-1,1651,890,0,0
434,134,0,0,0,0,0,0,0,0,0,-1,1658,890,0,0
441,134,0,0,0,0,0,0,0,0,0,-1,1665,890,0,0
448,134,0,0,0,0,0,0,0,0,0,-1,1672,890,0,0
455,134,0,0,0,0,0,0,0,0,0,-1,1679,890,0,0
462,134,0,0,0,0,0,0,0,0,0,-1,1686,890,0,0
469,134,0,0,0,0,0,0,0,0,0,-1,1693,890,0,0
476,134,0,0,0,0,0,0,0,0,0,-1,1700,890,0,0
483,134,0,0,0,0,0,0,0,0,0,-1,1707,890,0,0
490,134,0,0,0,0,0,0,0,0,0,-1,1714,890,0,0
497,134,0,0,0,0,0,0,0,0,0,-1,1721,890,0,0
504,134,0,0,0,0,0,0,0,0,0,-1,1728,890,0,0
511,134,0,0,0,0,0,0,0,0,0,-1,1735,890,0,0
518,134,0,0,0,0,0,0,0,0,0,-1,1742,890,0,0
525,134,0,0,0,0,0,0,0,0,0,-1,1749,890,0,0
532,134,0,0,0,0,0,0,0,0,0,-1,1756,890,0,0
539,134,0,0,0,0,0,0,0,0,0,-1,1763,890,0,0
546,134,0,0,0,0,0,0,0,0,0,-1,1770,890,0,0
553,134,0,0,0,0,0,0,0,0,0,-1,1777,890,0,0
560,134,0,0,0,0,0,0,0,0,0,-1,1784,890,0,0
567,134,0,0,0,0,0,0,0,0,0,-1,1791,890,0,0
574,134,0,0,0,0,0,0,0,0,0,-1,1798,890,0,0
581,134,0,0,0,0,0,0,0,0,0,-1,1805,890,0,0
588,134,0,0,0,0,0,0,0,0,0,-1,1812,890,0,0
595,134,0,0,0,0,0,0,0,0,0,-1,1819,890,0,0
602,134,0,0,0,0,0,0,0,0,0,-1,1826,890,0,0
609,134,0,0,0,0,0,0,0,0,0,-1,1833,890,0,0
616,134,0,0,0,0,0,0,0,0,0,-1,1840,890,0,0
623,134,31.1097,3.10486,-0.00358635,-0.00327947,-0.00400042,0.00057045,-0.00743626,-0.804567,0.00515818,0.0462665,1847,890,31.1097,-3.10488
630,134,30.7872,3.26385,-0.00179969,-0.00202371,-0.00296121,0.00105163,-0.00487502,-0.766494,0.00365139,0.0445073,1854,890,30.7872,-3.26386
637,134,30.6909,3.2724,-0.000558985,-0.00101225,-0.00239861,0.00162368,-0.00319491,-0.738296,0.00283089,0.0441621,1861,890,30.691,-3.27239
644,134,31.1154,2.98761,0.000167604,-0.000307942,-0.00198311,0.00192715,-0.00206749,-0.725734,0.00230678,0.0398019,1868,890,31.1153,-2.98762
651,134,31.0751,2.93225,0.000455287,0.000195382,-0.0016792,0.00200955,-0.00135888,-0.74678,0.00195682,0.0402613,1875,890,31.0751,-2.93228
658,134,31.0302,2.99603,0.000457251,0.000452671,-0.00145554,0.00191051,-0.00100059,-0.784611,0.00170787,0.0397591,1882,890,31.0301,-2.99602
665,134,31.0071,3.07306,0.000402255,0.000556387,-0.00128381,0.00176545,-0.000806804,-0.815377,0.00151908,0.0326593,1889,890,31.0071,-3.07307
672,134,31.0146,3.00934,0.000203408,0.000596635,-0.00106392,0.00148195,-0.000681911,-0.876768,0.00127745,0.0194526,1896,890,31.0147,-3.00932
679,134,30.9918,2.93512,0.000139157,0.000512423,-0.000894824,0.00123987,-0.00058829,-0.888209,0.0010776,0.0136713,1903,890,30.9918,-2.93512
686,134,30.9742,2.90894,0,0,0,0,0,0,0,-1,1910,890,30.9742,-2.90893
693,134,27.0421,2.97888,0,0,0,0,0,0,0,-1,1917,890,27.0422,-2.97886
700,134,26.9653,3.13483,-0.000329826,0.000391457,-0.0007714,0.000882355,-0.000820724,-1.00406,0.000983488,0.0301544,1924,890,26.9654,-3.13482
707,134,26.7804,3.29364,-0.000401759,0.00032553,-0.000702532,0.000752953,-0.000829182,-1.02422,0.0009138,0.0190483,1931,890,26.7803,-3.29365
714,134,26.8386,3.66998,-0.000222058,0.000421932,-0.000684622,0.000856501,-0.000656627,-1.00521,0.000876141,0.0191139,1938,890,26.8386,-3.66999
721,134,26.995,4.0451,0.000285381,0.000850205,-0.00076578,0.00138399,-0.000248403,-0.962056,0.00101564,0.0162208,1945,890,26.995,-4.04511
728,134,27.027,4.3418,0.000736939,0.00137873,-0.000742013,0.00186626,0.000249406,-0.989487,0.00116993,0.0155554,1952,890,27.027,-4.34178
735,134,27.0242,4.66986,0.00130676,0.00214096,-0.000912176,0.00272688,0.000720848,-0.999835,0.00163161,0.0215762,1959,890,27.0241,-4.66987
742,134,26.996,4.94598,0.00192493,0.00327194,-0.00197964,0.00468951,0.00050736,-0.949363,0.00297169,0.0145674,1966,890,26.996,-4.94601
749,134,27.0007,5.18518,0.00252196,0.00398851,-0.00397718,0.00729945,-0.000788977,-0.876559,0.00514948,0.0123856,1973,890,27.0007,-5.18519
756,134,27.001,5.46973,0.00317819,0.00505465,-0.00635467,0.01054,-0.00230714,-0.858691,0.00790868,0.0161651,1980,890,27.001,-5.46975
763,134,27.1833,5.77667,0.00363598,0.00581825,-0.0101493,0.0149349,-0.00548066,-0.838947,0.0122009,0.0356447,1987,890,27.1834,-5.77667
770,134,27.8748,5.83313,0.00379125,0.00606537,-0.0163175,0.0212854,-0.0114287,-0.820184,0.0191711,0.0459629,1994,890,27.8748,-5.83315
777,134,28.5834,6.07697,0,0,0,0,0,0,0,-1,2001,890,28.5834,-6.07695
784,134,28.7278,5.40509,0,0,0,0,0,0,0,-1,2008,890,28.7277,-5.40509
791,134,28.1061,5.66272,0,0,0,0,0,0,0,-1,2015,890,28.1061,-5.66272
798,134,0,0,0,0,0,0,0,0,0,-1,2022,890,0,0
805,134,0,0,0,0,0,0,0,0,0,-1,2029,890,0,0
812,134,0,0,0,0,0,0,0,0,0,-1,2036,890,0,0
-700,127,0,0,0,0,0,0,0,0,0,-1,524,897,0,0
-693,127,0,0,0,0,0,0,0,0,0,-1,531,897,0,0
-686,127,0,0,0,0,0,0,0,0,0,-1,538,897,0,0
-679,127,-22.9016,3.60822,0,0,0,0,0,0,0,-1,545,897,-22.9015,-3.60824
-672,127,-22.6367,4.13263,0.00243856,0.0429554,0.0110509,0.0457735,-0.000379525,1.32111,0.0306429,0.0451406,552,897,-22.6367,-4.13263
-665,127,-23.3517,4.61383,0.00354753,0.0328585,0.00960689,0.0357266,0.000679452,1.28068,0.0235945,0.0492969,559,897,-23.3517,-4.61381
-658,127,-22.9393,4.76044,0,0,0,0,0,0,0,-1,566,897,-22.9393,-4.76042
-651,127,-20.4399,0.594421,0,0,0,0,0,0,0,-1,573,897,-20.44,-0.594423
-644,127,-19.8388,1.24231,0.0046445,0.0110082,0.00627212,0.0148594,0.000793316,1.02013,0.00965271,0.0444707,580,897,-19.8388,-1.24231
-637,127,-19.3806,1.86816,0.00423646,0.00637414,0.00544682,0.010856,-0.000245399,0.882283,0.00732051,0.0453753,587,897,-19.3806,-1.86814
-630,127,-19.1422,2.66418,0.00339794,0.00300875,0.00488146,0.00808869,-0.00168199,0.765477,0.00603181,0.0352293,594,897,-19.1422,-2.66418
-623,127,-19.0469,2.83368,0.00259599,0.000960446,0.0041184,0.00597703,-0.00242059,0.687391,0.00499119,0.0138363,601,897,-19.0469,-2.83369
-616,127,-19.0846,2.64319,0.00200955,-0.000878902,0.0030843,0.00397101,-0.00284036,0.566434,0.00395056,0.0106115,608,897,-19.0846,-2.6432
-609,127,-19.116,2.38513,0.00112351,-0.00324832,0.00225715,0.00207972,-0.00420453,0.400715,0.0036967,0.0146393,615,897,-19.116,-2.38515
-602,127,-19.1019,2.1264,-3.18818e-05,-0.0026286,0.00191425,0.000982783,-0.00364326,0.487405,0.00281423,0.0157182,622,897,-19.1018,-2.1264
-595,127,-19.075,1.91345,-0.000716005,-0.0018126,0.00161792,0.000443997,-0.00297261,0.622026,0.00214511,0.0180087,629,897,-19.075,-1.91346
-588,127,-19.1964,1.69513,-0.00113662,-0.000568463,0.0011054,0.000288777,-0.00199386,0.911173,0.00143522,0.0227888,636,897,-19.1964,-1.69513
-581,127,-19.2943,1.34534,-0.00134766,-0.000113091,0.000721429,0.000219099,-0.00167985,1.13928,0.00119962,0.0375217,643,897,-19.2943,-1.34534
-574,127,-19.2701,1.0578,-0.00148635,-7.6873e-05,0.000330339,-3.29234e-06,-0.00155993,1.35163,0.00103886,0.034365,650,897,-19.2702,-1.05783
-567,127,-18.7094,0.70874,0,0,0,0,0,0,0,-1,657,897,-18.7093,-0.708754
-560,127,-18.9678,1.21667,0,0,0,0,0,0,0,-1,664,897,-18.9677,-1.2167
-553,127,-21.8782,1.12726,0,0,0,0,0,0,0,-1,671,897,-21.8781,-1.12723
-546,127,-21.9166,1.12537,-0.00102829,-0.000266138,0.000179872,-0.00022582,-0.00106861,1.35029,0.000650334,0.0234872,678,897,-21.9165,-1.12536
-539,127,-21.9557,1.15582,-0.000890007,-0.000306071,0.000348343,-0.000143519,-0.00105256,1.13419,0.000659096,0.0214821,685,897,-21.9557,-1.15585
-532,127,-21.9938,1.23804,-0.000761695,-0.000470358,0.000681113,8.04894e-05,-0.00131254,0.890745,0.000903054,0.0181821,692,897,-21.9938,-1.23806
-525,127,-22.1077,1.4104,-0.000660704,-0.000864346,0.00117928,0.000421144,-0.00194619,0.742334,0.00145826,0.0360457,699,897,-22.1077,-1.41039
-518,127,-22.2208,1.54938,0,0,0,0,0,0,0,-1,706,897,-22.2208,-1.5494
-511,127,-21.7777,1.55927,0,0,0,0,0,0,0,-1,713,897,-21.7777,-1.55925
-504,127,0,0,0,0,0,0,0,0,0,-1,720,897,0,0
-497,127,0,0,0,0,0,0,0,0,0,-1,727,897,0,0
-490,127,0,0,0,0,0,0,0,0,0,-1,734,897,0,0
-483,127,0,0,0,0,0,0,0,0,0,-1,741,897,0,0
-476,127,0,0,0,0,0,0,0,0,0,-1,748,897,0,0
-469,127,0,0,0,0,0,0,0,0,0,-1,755,897,0,0
-462,127,0,0,0,0,0,0,0,0,0,-1,762,897,0,0
-455,127,0,0,0,0,0,0,0,0,0,-1,769,897,0,0
-448,127,0,0,0,0,0,0,0,0,0,-1,776,897,0,0
-441,127,0,0,0,0,0,0,0,0,0,-1,783,897,0,0
-434,127,0,0,0,0,0,0,0,0,0,-1,790,897,0,0
-427,127,0,0,0,0,0,0,0,0,0,-1,797,897,0,0
-420,127,0,0,0,0,0,0,0,0,0,-1,804,897,0,0
-413,127,0,0,0,0,0,0,0,0,0,-1,811,897,0,0
-406,127,0,0,0,0,0,0,0,0,0,-1,818,897,0,0
-399,127,0,0,0,0,0,0,0,0,0,-1,825,897,0,0
-392,127,0,0,0,0,0,0,0,0,0,-1,832,897,0,0
-385,127,0,0,0,0,0,0,0,0,0,-1,839,897,0,0
-378,127,0,0,0,0,0,0,0,0,0,-1,846,897,0,0
-371,127,0,0,0,0,0,0,0,0,0,-1,853,897,0,0
-364,127,0,0,0,0,0,0,0,0,0,-1,860,897,0,0
-357,127,0,0,0,0,0,0,0,0,0,-1,867,897,0,0
-350,127,0,0,0,0,0,0,0,0,0,-1,874,897,0,0
-343,127,0,0,0,0,0,0,0,0,0,-1,881,897,0,0
-336,127,0,0,0,0,0,0,0,0,0,-1,888,897,0,0
-329,127,0,0,0,0,0,0,0,0,0,-1,895,897,0,0
-322,127,0,0,0,0,0,0,0,0,0,-1,902,897,0,0
-315,127,0,0,0,0,0,0,0,0,0,-1,909,897,0,0
-308,127,0,0,0,0,0,0,0,0,0,-1,916,897,0,0
-301,127,0,0,0,0,0,0,0,0,0,-1,923,897,0,0
-294,127,0,0,0,0,0,0,0,0,0,-1,930,897,0,0
-287,127,0,0,0,0,0,0,0,0,0,-1,937,897,0,0
-280,127,0,0,0,0,0,0,0,0,0,-1,944,897,0,0
-273,127,0,0,0,0,0,0,0,0,0,-1,951,897,0,0
-266,127,0,0,0,0,0,0,0,0,0,-1,958,897,0,0
-259,127,0,0,0,0,0,0,0,0,0,-1,965,897,0,0
-252,127,0,0,0,0,0,0,0,0,0,-1,972,897,0,0
-245,127,0,0,0,0,0,0,0,0,0,-1,979,897,0,0
-238,127,0,0,0,0,0,0,0,0,0,-1,986,897,0,0
-231,127,0,0,0,0,0,0,0,0,0,-1,993,897,0,0
-224,127,0,0,0,0,0,0,0,0,0,-1,1000,897,0,0
-217,127,0,0,0,0,0,0,0,0,0,-1,1007,897,0,0
-210,127,0,0,0,0,0,0,0,0,0,-1,1014,897,0,0
-203,127,0,0,0,0,0,0,0,0,0,-1,1021,897,0,0
-196,127,0,0,0,0,0,0,0,0,0,-1,1028,897,0,0
-189,127,0,0,0,0,0,0,0,0,0,-1,1035,897,0,0
-182,127,0,0,0,0,0,0,0,0,0,-1,1042,897,0,0
-175,127,0,0,0,0,0,0,0,0,0,-1,1049,897,0,0
-168,127,0,0,0,0,0,0,0,0,0,-1,1056,897,0,0
-161,127,0,0,0,0,0,0,0,0,0,-1,1063,897,0,0
-154,127,0,0,0,0,0,0,0,0,0,-1,1070,897,0,0
-147,127,0,0,0,0,0,0,0,0,0,-1,1077,897,0,0
-140,127,0,0,0,0,0,0,0,0,0,-1,1084,897,0,0
-133,127,0,0,0,0,0,0,0,0,0,-1,1091,897,0,0
-126,127,0,0,0,0,0,0,0,0,0,-1,1098,897,0,0
-119,127,0,0,0,0,0,0,0,0,0,-1,1105,897,0,0
-112,127,0,0,0,0,0,0,0,0,0,-1,1112,897,0,0
-105,127,0,0,0,0,0,0,0,0,0,-1,1119,897,0,0
-98,127,0,0,0,0,0,0,0,0,0,-1,1126,897,0,0
-91,127,0,0,0,0,0,0,0,0,0,-1,1133,897,0,0
-84,127,0,0,0,0,0,0,0,0,0,-1,1140,897,0,0
-77,127,0,0,0,0,0,0,0,0,0,-1,1147,897,0,0
-70,127,0,0,0,0,0,0,0,0,0,-1,1154,897,0,0
-63,127,0,0,0,0,0,0,0,0,0,-1,1161,897,0,0
-56,127,0,0,0,0,0,0,0,0,0,-1,1168,897,0,0
-49,127,0,0,0,0,0,0,0,0,0,-1,1175,897,0,0
-42,127,0,0,0,0,0,0,0,0,0,-1,1182,897,0,0
-35,127,0,0,0,0,0,0,0,0,0,-1,1189,897,0,0
-28,127,0,0,0,0,0,0,0,0,0,-1,1196,897,0,0
-21,127,0,0,0,0,0,0,0,0,0,-1,1203,897,0,0
-14,127,0,0,0,0,0,0,0,0,0,-1,1210,897,0,0
-7,127,0,0,0,0,0,0,0,0,0,-1,1217,897,0,0
0,127,0,0,0,0,0,0,0,0,0,-1,1224,897,0,0
7,127,0,0,0,0,0,0,0,0,0,-1,1231,897,0,0
14,127,0,0,0,0,0,0,0,0,0,-1,1238,897,0,0
21,127,0,0,0,0,0,0,0,0,0,-1,1245,897,0,0
28,127,0,0,0,0,0,0,0,0,0,-1,1252,897,0,0
35,127,0,0,0,0,0,0,0,0,0,-1,1259,897,0,0
42,127,0,0,0,0,0,0,0,0,0,-1,1266,897,0,0
49,127,0,0,0,0,0,0,0,0,0,-1,1273,897,0,0
56,127,0,0,0,0,0,0,0,0,0,-1,1280,897,0,0
63,127,0,0,0,0,0,0,0,0,0,-1,1287,897,0,0
70,127,0,0,0,0,0,0,0,0,0,-1,1294,897,0,0
77,127,0,0,0,0,0,0,0,0,0,-1,1301,897,0,0
84,127,0,0,0,0,0,0,0,0,0,-1,1308,897,0,0
91,127,0,0,0,0,0,0,0,0,0,-1,1315,897,0,0
98,127,0,0,0,0,0,0,0,0,0,-1,1322,897,0,0
105,127,0,0,0,0,0,0,0,0,0,-1,1329,897,0,0
112,127,0,0,0,0,0,0,0,0,0,-1,1336,897,0,0
119,127,0,0,0,0,0,0,0,0,0,-1,1343,897,0,0
126,127,0,0,0,0,0,0,0,0,0,-1,1350,897,0,0
133,127,0,0,0,0,0,0,0,0,0,-1,1357,897,0,0
140,127,0,0,0,0,0,0,0,0,0,-1,1364,897,0,0
147,127,0,0,0,0,0,0,0,0,0,-1,1371,897,0,0
154,127,0,0,0,0,0,0,0,0,0,-1,1378,897,0,0
161,127,0,0,0,0,0,0,0,0,0,-1,1385,897,0,0
168,127,0,0,0,0,0,0,0,0,0,-1,1392,897,0,0
175,127,0,0,0,0,0,0,0,0,0,-1,1399,897,0,0
182,127,0,0,0,0,0,0,0,0,0,-1,1406,897,0,0
189,127,0,0,0,0,0,0,0,0,0,-1,1413,897,0,0
196,127,0,0,0,0,0,0,0,0,0,-1,1420,897,0,0
203,127,0,0,0,0,0,0,0,0,0,-1,1427,897,0,0
210,127,0,0,0,0,0,0,0,0,0,-1,1434,897,0,0
217,127,0,0,0,0,0,0,0,0,0,-1,1441,897,0,0
224,127,0,0,0,0,0,0,0,0,0,-1,1448,897,0,0
231,127,0,0,0,0,0,0,0,0,0,-1,1455,897,0,0
238,127,0,0,0,0,0,0,0,0,0,-1,1462,897,0,0
245,127,0,0,0,0,0,0,0,0,0,-1,1469,897,0,0
252,127,0,0,0,0,0,0,0,0,0,-1,1476,897,0,0
259,127,0,0,0,0,0,0,0,0,0,-1,1483,897,0,0
266,127,0,0,0,0,0,0,0,0,0,-1,1490,897,0,0
273,127,0,0,0,0,0,0,0,0,0,-1,1497,897,0,0
280,127,0,0,0,0,0,0,0,0,0,-1,1504,897,0,0
287,127,0,0,0,0,0,0,0,0,0,-1,1511,897,0,0
294,127,0,0,0,0,0,0,0,0,0,-1,1518,897,0,0
301,127,0,0,0,0,0,0,0,0,0,-1,1525,897,0,0
308,127,0,0,0,0,0,0,0,0,0,-1,1532,897,0,0
315,127,0,0,0,0,0,0,0,0,0,-1,1539,897,0,0
322,127,0,0,0,0,0,0,0,0,0,-1,1546,897,0,0
329,127,0,0,0,0,0,0,0,0,0,-1,1553,897,0,0
336,127,0,0,0,0,0,0,0,0,0,-1,1560,897,0,0
343,127,0,0,0,0,0,0,0,0,0,-1,1567,897,0,0
350,127,0,0,0,0,0,0,0,0,0,-1,1574,897,0,0
357,127,0,0,0,0,0,0,0,0,0,-1,1581,897,0,0
364,127,0,0,0,0,0,0,0,0,0,-1,1588,897,0,0
371,127,0,0,0,0,0,0,0,0,0,-1,1595,897,0,0
378,127,0,0,0,0,0,0,0,0,0,-1,1602,897,0,0
385,127,0,0,0,0,0,0,0,0,0,-1,1609,897,0,0
392,127,0,0,0,0,0,0,0,0,0,-1,1616,897,0,0
399,127,0,0,0,0,0,0,0,0,0,-1,1623,897,0,0
406,127,0,0,0,0,0,0,0,0,0,-1,1630,897,0,0
413,127,0,0,0,0,0,0,0,0,0,-1,1637,897,0,0
420,127,0,0,0,0,0,0,0,0,0,-1,1644,897,0,0
427,127,0,0,0,0,0,0,0,0,0,-1,1651,897,0,0
434,127,0,0,0,0,0,0,0,0,0,-1,1658,897,0,0
441,127,0,0,0,0,0,0,0,0,0,-1,1665,897,0,0
448,127,0,0,0,0,0,0,0,0,0,-1,1672,897,0,0
455,127,0,0,0,0,0,0,0,0,0,-1,1679,897,0,0
462,127,0,0,0,0,0,0,0,0,0,-1,1686,897,0,0
469,127,0,0,0,0,0,0,0,0,0,-1,1693,897,0,0
476,127,0,0,0,0,0,0,0,0,0,-1,1700,897,0,0
483,127,0,0,0,0,0,0,0,0,0,-1,1707,897,0,0
490,127,0,0,0,0,0,0,0,0,0,-1,1714,897,0,0
497,127,0,0,0,0,0,0,0,0,0,-1,1721,897,0,0
504,127,0,0,0,0,0,0,0,0,0,-1,1728,897,0,0
511,127,0,0,0,0,0,0,0,0,0,-1,1735,897,0,0
518,127,0,0,0,0,0,0,0,0,0,-1,1742,897,0,0
525,127,0,0,0,0,0,0,0,0,0,-1,1749,897,0,0
532,127,0,0,0,0,0,0,0,0,0,-1,1756,897,0,0
539,127,0,0,0,0,0,0,0,0,0,-1,1763,897,0,0
546,127,0,0,0,0,0,0,0,0,0,-1,1770,897,0,0
553,127,0,0,0,0,0,0,0,0,0,-1,1777,897,0,0
560,127,0,0,0,0,0,0,0,0,0,-1,1784,897,0,0
567,127,0,0,0,0,0,0,0,0,0,-1,1791,897,0,0
574,127,0,0,0,0,0,0,0,0,0,-1,1798,897,0,0
581,127,0,0,0,0,0,0,0,0,0,-1,1805,897,0,0
588,127,0,0,0,0,0,0,0,0,0,-1,1812,897,0,0
595,127,0,0,0,0,0,0,0,0,0,-1,1819,897,0,0
602,127,0,0,0,0,0,0,0,0,0,-1,1826,897,0,0
609,127,0,0,0,0,0,0,0,0,0,-1,1833,897,0,0
616,127,0,0,0,0,0,0,0,0,0,-1,1840,897,0,0
623,127,0,0,0,0,0,0,0,0,0,-1,1847,897,0,0
630,127,30.6412,3.38019,0,0,0,0,0,0,0,-1,1854,897,30.6412,-3.38021
637,127,30.1696,3.22583,0,0,0,0,0,0,0,-1,1861,897,30.1695,-3.22585
644,127,30.9729,3.01843,-0.00051983,-8.36335e-05,-0.00218034,0.00188949,-0.00249296,-0.835247,0.00253819,0.0391633,1868,897,30.9729,-3.01845
651,127,30.9836,2.93121,-7.96702e-05,0.000350771,-0.00189037,0.00203813,-0.00176703,-0.84208,0.00219877,0.0423695,1875,897,30.9836,-2.93124
658,127,30.9093,2.93201,-3.92593e-06,0.000619684,-0.00161672,0.0019544,-0.00133864,-0.88066,0.00191228,0.0448308,1882,897,30.9093,-2.93202
665,127,30.941,2.98798,-1.67742e-05,0.000741444,-0.00137721,0.00179077,-0.0010661,-0.919708,0.00166701,0.0399913,1889,897,30.9411,-2.98797
672,127,30.9817,2.93628,-0.000151633,0.000791383,-0.0010863,0.00150409,-0.000864345,-0.990153,0.00138395,0.031807,1896,897,30.9817,-2.93628
679,127,30.993,2.91919,-0.000166763,0.000722869,-0.000850857,0.00123817,-0.000682061,-1.02625,0.00112403,0.0200512,1903,897,30.993,-2.9192
686,127,30.9651,2.96057,-0.000143202,0.00062803,-0.000714463,0.0010543,-0.000569472,-1.03286,0.000951312,0.0301598,1910,897,30.9651,-2.9606
693,127,27.726,3.08496,0,0,0,0,0,0,0,-1,1917,897,27.7259,-3.08495
700,127,27.3088,3.17151,-0.000510972,0.000576518,-0.000576313,0.000825108,-0.000759562,-1.16356,0.000915171,0.0442749,1924,897,27.3089,-3.17153
707,127,27.04,3.35614,-0.000577617,0.00049696,-0.000480768,0.000680655,-0.000761312,-1.20583,0.000832954,0.0239909,1931,897,27.04,-3.35615
714,127,27.1774,3.68591,-0.000400799,0.000577211,-0.00045561,0.000756567,-0.000580155,-1.19577,0.000773994,0.0206983,1938,897,27.1773,-3.68589
721,127,27.3669,4.11389,9.00981e-05,0.000944895,-0.000534197,0.00120163,-0.000166635,-1.12279,0.000862016,0.0151485,1945,897,27.3669,-4.11392
728,127,27.3309,4.35669,0.000487953,0.00138595,-0.000498167,0.0016076,0.000266302,-1.15216,0.000994916,0.0139451,1952,897,27.3309,-4.35672
735,127,27.3082,4.64282,0.000943758,0.00200447,-0.000694908,0.00234829,0.000599944,-1.11135,0.00140879,0.0208258,1959,897,27.3083,-4.64283
742,127,27.3049,4.93011,0.00136738,0.00293297,-0.00191744,0.00422125,7.91037e-05,-0.979197,0.00278817,0.0180674,1966,897,27.3049,-4.93013
749,127,27.2904,5.17468,0.00166788,0.00325606,-0.00417572,0.00671253,-0.00178858,-0.87936,0.00517528,0.0126702,1973,897,27.2903,-5.17471
756,127,27.2614,5.42291,0.00195892,0.00390544,-0.00680818,0.00980957,-0.00394521,-0.856395,0.00817838,0.0143277,1980,897,27.2613,-5.42294
763,127,27.2777,5.66486,0.00188807,0.00412379,-0.0109195,0.0139825,-0.00797062,-0.836407,0.0128321,0.0224113,1987,897,27.2777,-5.66486
770,127,27.7656,5.81,0.00137844,0.00353872,-0.0174376,0.0199296,-0.0150125,-0.81633,0.0202403,0.0458754,1994,897,27.7656,-5.81001
777,127,28.4408,6.04163,0,0,0,0,0,0,0,-1,2001,897,28.4408,-6.04161
784,127,29.0981,6.11487,0,0,0,0,0,0,0,-1,2008,897,29.0981,-6.11488
791,127,28.1664,6.30579,0,0,0,0,0,0,0,-1,2015,897,28.1663,-6.30576
798,127,0,0,0,0,0,0,0,0,0,-1,2022,897,0,0
805,127,0,0,0,0,0,0,0,0,0,-1,2029,897,0,0
812,127,0,0,0,0,0,0,0,0,0,-1,2036,897,0,0
-700,120,0,0,0,0,0,0,0,0,0,-1,524,904,0,0
-693,120,0,0,0,0,0,0,0,0,0,-1,531,904,0,0
-686,120,0,0,0,0,0,0,0,0,0,-1,538,904,0,0
-679,120,-22.2224,3.06787,0,0,0,0,0,0,0,-1,545,904,-22.2224,-3.06785
-672,120,-22.2971,3.74689,0.00711065,0.0382394,0.0124329,0.0425955,0.00275449,1.23379,0.0275248,0.0401924,552,904,-22.2971,-3.74691
-665,120,-22.608,4.35272,0.00734247,0.0298396,0.0108834,0.0342429,0.00293925,1.18635,0.0219146,0.0453967,559,904,-22.6081,-4.35271
-658,120,-22.0853,4.49713,0.00718406,0.0222417,0.0093743,0.0267362,0.00268955,1.12372,0.0169987,0.0440048,566,904,-22.0853,-4.49711
-651,120,-20.1543,3.10278,0,0,0,0,0,0,0,-1,573,904,-20.1543,-3.10278
-644,120,-19.906,3.11865,0.00607926,0.0102532,0.0068212,0.0152996,0.00103293,0.933855,0.00987343,0.0493134,580,904,-19.906,-3.11867
-637,120,-19.6182,3.16376,0.00508387,0.0060176,0.00576927,0.0113389,-0.000237394,0.825772,0.0076396,0.0414654,587,904,-19.6182,-3.16373
-630,120,-19.3472,3.05408,0.00378527,0.00295663,0.00505548,0.00844338,-0.00170148,0.744512,0.00627347,0.0231253,594,904,-19.3472,-3.05406
-623,120,-19.347,2.83228,0.00262523,0.00114754,0.0041193,0.00607142,-0.00229865,0.696661,0.00499341,0.010215,601,904,-19.347,-2.83225
-616,120,-19.3522,2.60681,0.00176089,-0.000518315,0.00296307,0.00379595,-0.00255338,0.601817,0.00368911,0.0102514,608,904,-19.3522,-2.60678
-609,120,-19.3763,2.37628,0.000486403,-0.00298867,0.00191195,0.00133239,-0.00383466,0.416577,0.00309761,0.0134792,615,904,-19.3763,-2.3763
-602,120,-19.3857,2.13739,-0.000904427,-0.00236965,0.00156981,9.53043e-05,-0.00336938,0.567075,0.00227869,0.014589,622,904,-19.3857,-2.13738
-595,120,-19.3479,1.91669,-0.00164496,-0.00180584,0.00142235,-0.000300782,-0.00315002,0.757151,0.00200728,0.0200582,629,904,-19.3479,-1.91667
-588,120,-19.4105,1.65369,-0.00214559,-0.000686362,0.00101909,-0.00016263,-0.00266932,1.09607,0.00172789,0.0255027,636,904,-19.4105,-1.65367
-581,120,-19.5649,1.41699,-0.00241726,-0.00027882,0.000693069,-7.38438e-05,-0.00262224,1.28324,0.00172407,0.0352436,643,904,-19.5649,-1.41696
-574,120,-19.4234,1.08563,-0.00254685,-0.000298093,0.000343862,-0.000246688,-0.00259825,1.4224,0.00165608,0.0287264,650,904,-19.4234,-1.08564
-567,120,-19.2058,0.461365,0,0,0,0,0,0,0,-1,657,904,-19.2058,-0.461381
-560,120,-21.9515,1.08765,0,0,0,0,0,0,0,-1,664,904,-21.9514,-1.08765
-553,120,-21.8987,1.14447,-0.00208398,-0.000577196,0.000302669,-0.000518672,-0.00214251,1.37979,0.00129067,0.0434132,671,904,-21.8987,-1.14448
-546,120,-21.9022,1.21558,-0.00187026,-0.000561911,0.000455185,-0.00041913,-0.00201304,1.26684,0.00122643,0.032471,678,904,-21.9022,-1.21556
-539,120,-21.9286,1.18304,-0.00156568,-0.000593723,0.000697545,-0.000229558,-0.00192985,1.08965,0.00121728,0.0259152,685,904,-21.9287,-1.18303
-532,120,-21.8932,1.23242,-0.00124181,-0.000722118,0.00109933,0.000147657,-0.00211158,0.901451,0.00145943,0.0267031,692,904,-21.8932,-1.23241
-525,120,-21.7912,1.18524,-0.000926168,-0.00102655,0.0016233,0.000647721,-0.00260043,0.769944,0.00198507,0.0353745,699,904,-21.7912,-1.18525
-518,120,-21.7247,1.30817,-0.000627659,-0.0015933,0.00240689,0.00134436,-0.00356532,0.686412,0.00292968,0.0401814,706,904,-21.7247,-1.30815
-511,120,-21.615,1.39319,0.000133858,-0.00193017,0.00318301,0.00244798,-0.00424428,0.628633,0.0039099,0.0382123,713,904,-21.615,-1.39316
-504,120,0,0,0,0,0,0,0,0,0,-1,720,904,0,0
-497,120,0,0,0,0,0,0,0,0,0,-1,727,904,0,0
-490,120,0,0,0,0,0,0,0,0,0,-1,734,904,0,0
-483,120,0,0,0,0,0,0,0,0,0,-1,741,904,0,0
-476,120,0,0,0,0,0,0,0,0,0,-1,748,904,0,0
-469,120,0,0,0,0,0,0,0,0,0,-1,755,904,0,0
-462,120,0,0,0,0,0,0,0,0,0,-1,762,904,0,0
-455,120,0,0,0,0,0,0,0,0,0,-1,769,904,0,0
-448,120,0,0,0,0,0,0,0,0,0,-1,776,904,0,0
-441,120,0,0,0,0,0,0,0,0,0,-1,783,904,0,0
-434,120,0,0,0,0,0,0,0,0,0,-1,790,904,0,0
-427,120,0,0,0,0,0,0,0,0,0,-1,797,904,0,0
-420,120,0,0,0,0,0,0,0,0,0,-1,804,904,0,0
-413,120,0,0,0,0,0,0,0,0,0,-1,811,904,0,0
-406,120,0,0,0,0,0,0,0,0,0,-1,818,904,0,0
-399,120,0,0,0,0,0,0,0,0,0,-1,825,904,0,0
-392,120,0,0,0,0,0,0,0,0,0,-1,832,904,0,0
-385,120,0,0,0,0,0,0,0,0,0,-1,839,904,0,0
-378,120,0,0,0,0,0,0,0,0,0,-1,846,904,0,0
-371,120,0,0,0,0,0,0,0,0,0,-1,853,904,0,0
-364,120,0,0,0,0,0,0,0,0,0,-1,860,904,0,0
-357,120,0,0,0,0,0,0,0,0,0,-1,867,904,0,0
-350,120,0,0,0,0,0,0,0,0,0,-1,874,904,0,0
-343,120,0,0,0,0,0,0,0,0,0,-1,881,904,0,0
-336,120,0,0,0,0,0,0,0,0,0,-1,888,904,0,0
-329,120,0,0,0,0,0,0,0,0,0,-1,895,904,0,0
-322,120,0,0,0,0,0,0,0,0,0,-1,902,904,0,0
-315,120,0,0,0,0,0,0,0,0,0,-1,909,904,0,0
-308,120,0,0,0,0,0,0,0,0,0,-1,916,904,0,0
-301,120,0,0,0,0,0,0,0,0,0,-1,923,904,0,0
-294,120,0,0,0,0,0,0,0,0,0,-1,930,904,0,0
-287,120,0,0,0,0,0,0,0,0,0,-1,937,904,0,0
-280,120,0,0,0,0,0,0,0,0,0,-1,944,904,0,0
-273,120,0,0,0,0,0,0,0,0,0,-1,951,904,0,0
-266,120,0,0,0,0,0,0,0,0,0,-1,958,904,0,0
-259,120,0,0,0,0,0,0,0,0,0,-1,965,904,0,0
-252,120,0,0,0,0,0,0,0,0,0,-1,972,904,0,0
-245,120,0,0,0,0,0,0,0,0,0,-1,979,904,0,0
-238,120,0,0,0,0,0,0,0,0,0,-1,986,904,0,0
-231,120,0,0,0,0,0,0,0,0,0,-1,993,904,0,0
-224,120,0,0,0,0,0,0,0,0,0,-1,1000,904,0,0
-217,120,0,0,0,0,0,0,0,0,0,-1,1007,904,0,0
-210,120,0,0,0,0,0,0,0,0,0,-1,1014,904,0,0
-203,120,0,0,0,0,0,0,0,0,0,-1,1021,904,0,0
-196,120,0,0,0,0,0,0,0,0,0,-1,1028,904,0,0
-189,120,0,0,0,0,0,0,0,0,0,-1,1035,904,0,0
-182,120,0,0,0,0,0,0,0,0,0,-1,1042,904,0,0
-175,120,0,0,0,0,0,0,0,0,0,-1,1049,904,0,0
-168,120,0,0,0,0,0,0,0,0,0,-1,1056,904,0,0
-161,120,0,0,0,0,0,0,0,0,0,-1,1063,904,0,0
-154,120,0,0,0,0,0,0,0,0,0,-1,1070,904,0,0
-147,120,0,0,0,0,0,0,0,0,0,-1,1077,904,0,0
-140,120,0,0,0,0,0,0,0,0,0,-1,1084,904,0,0
-133,120,0,0,0,0,0,0,0,0,0,-1,1091,904,0,0
-126,120,0,0,0,0,0,0,0,0,0,-1,1098,904,0,0
-119,120,0,0,0,0,0,0,0,0,0,-1,1105,904,0,0
-112,120,0,0,0,0,0,0,0,0,0,-1,1112,904,0,0
-105,120,0,0,0,0,0,0,0,0,0,-1,1119,904,0,0
-98,120,0,0,0,0,0,0,0,0,0,-1,1126,904,0,0
-91,120,0,0,0,0,0,0,0,0,0,-1,1133,904,0,0
-84,120,0,0,0,0,0,0,0,0,0,-1,1140,904,0,0
-77,120,0,0,0,0,0,0,0,0,0,-1,1147,904,0,0
-70,120,0,0,0,0,0,0,0,0,0,-1,1154,904,0,0
-63,120,0,0,0,0,0,0,0,0,0,-1,1161,904,0,0
-56,120,0,0,0,0,0,0,0,0,0,-1,1168,904,0,0
-49,120,0,0,0,0,0,0,0,0,0,-1,1175,904,0,0
-42,120,0,0,0,0,0,0,0,0,0,-1,1182,904,0,0
-35,120,0,0,0,0,0,0,0,0,0,-1,1189,904,0,0
-28,120,0,0,0,0,0,0,0,0,0,-1,1196,904,0,0
-21,120,0,0,0,0,0,0,0,0,0,-1,1203,904,0,0
-14,120,0,0,0,0,0,0,0,0,0,-1,1210,904,0,0
-7,120,0,0,0,0,0,0,0,0,0,-1,1217,904,0,0
0,120,0,0,0,0,0,0,0,0,0,-1,1224,904,0,0
7,120,0,0,0,0,0,0,0,0,0,-1,1231,904,0,0
14,120,0,0,0,0,0,0,0,0,0,-1,1238,904,0,0
21,120,0,0,0,0,0,0,0,0,0,-1,1245,904,0,0
28,120,0,0,0,0,0,0,0,0,0,-1,1252,904,0,0
35,120,0,0,0,0,0,0,0,0,0,-1,1259,904,0,0
42,120,0,0,0,0,0,0,0,0,0,-1,1266,904,0,0
49,120,0,0,0,0,0,0,0,0,0,-1,1273,904,0,0
56,120,0,0,0,0,0,0,0,0,0,-1,1280,904,0,0
63,120,0,0,0,0,0,0,0,0,0,-1,1287,904,0,0
70,120,0,0,0,0,0,0,0,0,0,-1,1294,904,0,0
77,120,0,0,0,0,0,0,0,0,0,-1,1301,904,0,0
84,120,0,0,0,0,0,0,0,0,0,-1,1308,904,0,0
91,120,0,0,0,0,0,0,0,0,0,-1,1315,904,0,0
98,120,0,0,0,0,0,0,0,0,0,-1,1322,904,0,0
105,120,0,0,0,0,0,0,0,0,0,-1,1329,904,0,0
112,120,0,0,0,0,0,0,0,0,0,-1,1336,904,0,0
119,120,0,0,0,0,0,0,0,0,0,-1,1343,904,0,0
126,120,0,0,0,0,0,0,0,0,0,-1,1350,904,0,0
133,120,0,0,0,0,0,0,0,0,0,-1,1357,904,0,0
140,120,0,0,0,0,0,0,0,0,0,-1,1364,904,0,0
147,120,0,0,0,0,0,0,0,0,0,-1,1371,904,0,0
154,120,0,0,0,0,0,0,0,0,0,-1,1378,904,0,0
161,120,0,0,0,0,0,0,0,0,0,-1,1385,904,0,0
168,120,0,0,0,0,0,0,0,0,0,-1,1392,904,0,0
175,120,0,0,0,0,0,0,0,0,0,-1,1399,904,0,0
182,120,0,0,0,0,0,0,0,0,0,-1,1406,904,0,0
189,120,0,0,0,0,0,0,0,0,0,-1,1413,904,0,0
196,120,0,0,0,0,0,0,0,0,0,-1,1420,904,0,0
203,120,0,0,0,0,0,0,0,0,0,-1,1427,904,0,0
210,120,0,0,0,0,0,0,0,0,0,-1,1434,904,0,0
217,120,0,0,0,0,0,0,0,0,0,-1,1441,904,0,0
224,120,0,0,0,0,0,0,0,0,0,-1,1448,904,0,0
231,120,0,0,0,0,0,0,0,0,0,-1,1455,904,0,0
238,120,0,0,0,0,0,0,0,0,0,-1,1462,904,0,0
245,120,0,0,0,0,0,0,0,0,0,-1,1469,904,0,0
252,120,0,0,0,0,0,0,0,0,0,-1,1476,904,0,0
259,120,0,0,0,0,0,0,0,0,0,-1,1483,904,0,0
266,120,0,0,0,0,0,0,0,0,0,-1,1490,904,0,0
273,120,0,0,0,0,0,0,0,0,0,-1,1497,904,0,0
280,120,0,0,0,0,0,0,0,0,0,-1,1504,904,0,0
287,120,0,0,0,0,0,0,0,0,0,-1,1511,904,0,0
294,120,0,0,0,0,0,0,0,0,0,-1,1518,904,0,0
301,120,0,0,0,0,0,0,0,0,0,-1,1525,904,0,0
308,120,0,0,0,0,0,0,0,0,0,-1,1532,904,0,0
315,120,0,0,0,0,0,0,0,0,0,-1,1539,904,0,0
322,120,0,0,0,0,0,0,0,0,0,-1,1546,904,0,0
329,120,0,0,0,0,0,0,0,0,0,-1,1553,904,0,0
336,120,0,0,0,0,0,0,0,0,0,-1,1560,904,0,0
343,120,0,0,0,0,0,0,0,0,0,-1,1567,904,0,0
350,120,0,0,0,0,0,0,0,0,0,-1,1574,904,0,0
357,120,0,0,0,0,0,0,0,0,0,-1,1581,904,0,0
364,120,0,0,0,0,0,0,0,0,0,-1,1588,904,0,0
371,120,0,0,0,0,0,0,0,0,0,-1,1595,904,0,0
378,120,0,0,0,0,0,0,0,0,0,-1,1602,904,0,0
385,120,0,0,0,0,0,0,0,0,0,-1,1609,904,0,0
392,120,0,0,0,0,0,0,0,0,0,-1,1616,904,0,0
399,120,0,0,0,0,0,0,0,0,0,-1,1623,904,0,0
406,120,0,0,0,0,0,0,0,0,0,-1,1630,904,0,0
413,120,0,0,0,0,0,0,0,0,0,-1,1637,904,0,0
420,120,0,0,0,0,0,0,0,0,0,-1,1644,904,0,0
427,120,0,0,0,0,0,0,0,0,0,-1,1651,904,0,0
434,120,0,0,0,0,0,0,0,0,0,-1,1658,904,0,0
441,120,0,0,0,0,0,0,0,0,0,-1,1665,904,0,0
448,120,0,0,0,0,0,0,0,0,0,-1,1672,904,0,0
455,120,0,0,0,0,0,0,0,0,0,-1,1679,904,0,0
462,120,0,0,0,0,0,0,0,0,0,-1,1686,904,0,0
469,120,0,0,0,0,0,0,0,0,0,-1,1693,904,0,0
476,120,0,0,0,0,0,0,0,0,0,-1,1700,904,0,0
483,120,0,0,0,0,0,0,0,0,0,-1,1707,904,0,0
490,120,0,0,0,0,0,0,0,0,0,-1,1714,904,0,0
497,120,0,0,0,0,0,0,0,0,0,-1,1721,904,0,0
504,120,0,0,0,0,0,0,0,0,0,-1,1728,904,0,0
511,120,0,0,0,0,0,0,0,0,0,-1,1735,904,0,0
518,120,0,0,0,0,0,0,0,0,0,-1,1742,904,0,0
525,120,0,0,0,0,0,0,0,0,0,-1,1749,904,0,0
532,120,0,0,0,0,0,0,0,0,0,-1,1756,904,0,0
539,120,0,0,0,0,0,0,0,0,0,-1,1763,904,0,0
546,120,0,0,0,0,0,0,0,0,0,-1,1770,904,0,0
553,120,0,0,0,0,0,0,0,0,0,-1,1777,904,0,0
560,120,0,0,0,0,0,0,0,0,0,-1,1784,904,0,0
567,120,0,0,0,0,0,0,0,0,0,-1,1791,904,0,0
574,120,0,0,0,0,0,0,0,0,0,-1,1798,904,0,0
581,120,0,0,0,0,0,0,0,0,0,-1,1805,904,0,0
588,120,0,0,0,0,0,0,0,0,0,-1,1812,904,0,0
595,120,0,0,0,0,0,0,0,0,0,-1,1819,904,0,0
602,120,0,0,0,0,0,0,0,0,0,-1,1826,904,0,0
609,120,0,0,0,0,0,0,0,0,0,-1,1833,904,0,0
616,120,0,0,0,0,0,0,0,0,0,-1,1840,904,0,0
623,120,0,0,0,0,0,0,0,0,0,-1,1847,904,0,0
630,120,30.7629,3.20844,-0.00372462,-0.000518032,-0.00225724,0.000647374,-0.00489003,-1.0942,0.00349585,0.0383647,1854,904,30.7629,-3.20842
637,120,30.5747,3.23059,-0.00197757,0.000127588,-0.00218735,0.00150244,-0.00335242,-1.00965,0.00286999,0.0407274,1861,904,30.5747,-3.23057
644,120,30.7386,3.11218,-0.000917136,0.000524539,-0.00209726,0.00202138,-0.00241398,-0.950926,0.0025641,0.0407269,1868,904,30.7386,-3.11221
651,120,30.9531,2.97894,-0.000311303,0.000816207,-0.00192813,0.00226131,-0.00175641,-0.927626,0.00232573,0.0420659,1875,904,30.9531,-2.97895
658,120,30.9148,2.91638,-0.000157434,0.00102169,-0.00168386,0.00221622,-0.00135196,-0.95379,0.00208014,0.0442782,1882,904,30.9148,-2.9164
665,120,30.951,2.89105,-0.000154378,0.00109724,-0.00143591,0.00203778,-0.00109492,-0.990901,0.00183577,0.040076,1889,904,30.9511,-2.89105
672,120,31.0403,2.97559,-0.000271525,0.00110392,-0.00111351,0.00172497,-0.00089257,-1.06203,0.0015365,0.0355725,1896,904,31.0403,-2.97558
679,120,30.9684,2.88745,-0.000281136,0.00100384,-0.000826355,0.00140809,-0.000685381,-1.11583,0.00123244,0.028043,1903,904,30.9684,-2.88744
686,120,30.968,2.92133,-0.00026215,0.000870376,-0.000643251,0.0011611,-0.000552873,-1.14631,0.00101012,0.0182339,1910,904,30.968,-2.92133
693,120,30.9662,2.99628,0,0,0,0,0,0,0,-1,1917,904,30.9662,-2.9963
700,120,27.5394,3.3327,0,0,0,0,0,0,0,-1,1924,904,27.5394,-3.33272
707,120,27.4359,3.55865,-0.000769105,0.000636306,-0.000284426,0.000691686,-0.000824485,-1.3785,0.00087648,0.0265409,1931,904,27.4359,-3.55865
714,120,27.6248,3.87982,-0.000660472,0.000694034,-0.000257071,0.000741182,-0.00070762,-1.38941,0.000836541,0.0191822,1938,904,27.6248,-3.87985
721,120,27.6455,4.13751,-0.000244148,0.00100441,-0.000334809,0.00108852,-0.000328263,-1.32466,0.000856337,0.0140784,1945,904,27.6455,-4.13752
728,120,27.6211,4.41742,4.92765e-05,0.00138513,-0.000274732,0.00143943,-5.0182e-06,-1.37568,0.000961295,0.0102554,1952,904,27.6211,-4.41744
735,120,27.5797,4.65082,0.000323777,0.00190284,-0.000470387,0.00203234,0.000194274,-1.30214,0.001295,0.0130871,1959,904,27.5797,-4.65083
742,120,27.5725,4.92578,0.000477394,0.00265232,-0.00178581,0.00365572,-0.000526001,-1.05888,0.00263007,0.0137458,1966,904,27.5725,-4.92578
749,120,27.5636,5.16187,0.000406863,0.00261968,-0.00422,0.0058759,-0.00284936,-0.913603,0.00513756,0.0106014,1973,904,27.5636,-5.16189
756,120,27.5265,5.40399,0.000246504,0.00287957,-0.0070364,0.00872154,-0.00559547,-0.87788,0.00833135,0.0137092,1980,904,27.5265,-5.40397
763,120,27.467,5.62384,-0.000412467,0.00259463,-0.0113576,0.0125478,-0.0103657,-0.851207,0.0132491,0.0267651,1987,904,27.4671,-5.62382
770,120,27.4994,5.81476,-0.00164449,0.00128546,-0.0180309,0.0179108,-0.0182698,-0.825933,0.0208892,0.0488064,1994,904,27.4994,-5.81475
777,120,27.7236,5.92944,0,0,0,0,0,0,0,-1,2001,904,27.7236,-5.92943
784,120,29.2712,6.80573,0,0,0,0,0,0,0,-1,2008,904,29.2713,-6.80575
791,120,28.3237,6.85736,0,0,0,0,0,0,0,-1,2015,904,28.3237,-6.85738
798,120,27.3401,7.02106,0,0,0,0,0,0,0,-1,2022,904,27.3402,-7.02108
805,120,0,0,0,0,0,0,0,0,0,-1,2029,904,0,0
812,120,0,0,0,0,0,0,0,0,0,-1,2036,904,0,0
-700,113,0,0,0,0,0,0,0,0,0,-1,524,911,0,0
-693,113,0,0,0,0,0,0,0,0,0,-1,531,911,0,0
-686,113,0,0,0,0,0,0,0,0,0,-1,538,911,0,0
-679,113,-21.9437,2.84271,0,0,0,0,0,0,0,-1,545,911,-21.9437,-2.84269
-672,113,-22.0209,3.47412,0.0137337,0.0340554,0.0141719,0.0413326,0.00645649,1.09641,0.025675,0.0454879,552,911,-22.0209,-3.47414
-665,113,-21.8011,4.005,0.0123662,0.0275823,0.0125591,0.0346581,0.00529043,1.05773,0.0215594,0.0465672,559,911,-21.8012,-4.00502
-658,113,-21.1457,4.21417,0.0108327,0.0212229,0.0108054,0.0280172,0.00403839,1.00948,0.0174881,0.0442573,566,911,-21.1457,-4.21419
-651,113,-20.6203,4.3631,0.00925169,0.0154498,0.00913037,0.0219927,0.00270876,0.949008,0.0138475,0.0459479,573,911,-20.6203,-4.36311
-644,113,-19.6959,3.4707,0,0,0,0,0,0,0,-1,580,911,-19.6959,-3.47072
-637,113,-19.6656,3.21356,0.00585486,0.00657647,0.00627537,0.0125014,-7.00676e-05,0.814114,0.00835772,0.0344071,587,911,-19.6656,-3.21354
-630,113,-19.5743,3.02747,0.00396353,0.00369241,0.00536243,0.00919211,-0.00153617,0.772761,0.0066991,0.0159696,594,911,-19.5743,-3.02748
-623,113,-19.6014,2.82794,0.002374,0.00195549,0.00421174,0.00638168,-0.00205219,0.760576,0.00507866,0.0104198,601,911,-19.6014,-2.82795
-616,113,-19.6082,2.60065,0.00121698,0.000295217,0.0028917,0.0036843,-0.0021721,0.706373,0.00341856,0.0102372,608,911,-19.6082,-2.60065
-609,113,-19.6286,2.39075,-0.000398556,-0.00248752,0.0016545,0.00051357,-0.00339965,0.503841,0.00245559,0.0117715,615,911,-19.6286,-2.39072
-602,113,-19.6437,2.15009,-0.00196021,-0.00204757,0.00130436,-0.0006988,-0.00330898,0.768659,0.00201388,0.0163168,622,911,-19.6438,-2.1501
-595,113,-19.6337,1.96954,-0.00270166,-0.00180116,0.00125422,-0.000918821,-0.003584,0.957728,0.00214955,0.0197494,629,911,-19.6337,-1.96956
-588,113,-19.6476,1.73407,-0.00323046,-0.000875968,0.000914435,-0.000562543,-0.00354389,1.24059,0.00219919,0.0213774,636,911,-19.6476,-1.73406
-581,113,-19.6617,1.47626,-0.00353422,-0.0005547,0.000599682,-0.000438532,-0.00365039,1.37945,0.00230138,0.0223386,643,911,-19.6617,-1.47625
-574,113,-19.5327,1.11353,-0.00367293,-0.00065148,0.000250431,-0.000630864,-0.00369355,1.48866,0.00228134,0.0263138,650,911,-19.5326,-1.1135
-567,113,-19.7833,0.737427,0,0,0,0,0,0,0,-1,657,911,-19.7833,-0.737431
-560,113,-21.7961,1.1571,0,0,0,0,0,0,0,-1,664,911,-21.7962,-1.15711
-553,113,-21.8795,1.18811,-0.00314374,-0.000986147,0.000181389,-0.000971004,-0.00315888,1.48751,0.00186834,0.0416654,671,911,-21.8795,-1.18813
-546,113,-21.9554,1.20544,-0.00281551,-0.000969984,0.000306166,-0.000920518,-0.00286498,1.41061,0.00168894,0.037013,678,911,-21.9554,-1.20542
-539,113,-21.9547,1.2829,-0.00234408,-0.000966429,0.000513294,-0.000796214,-0.0025143,1.25059,0.0014838,0.0357782,685,911,-21.9547,-1.28289
-532,113,-21.8942,1.28864,-0.00180472,-0.00100647,0.000845338,-0.000470767,-0.00234042,1.00596,0.00142943,0.0355762,692,911,-21.8942,-1.28862
-525,113,-21.9402,1.23303,-0.00126498,-0.00114303,0.00122664,2.41478e-05,-0.00243216,0.810231,0.00162955,0.0367713,699,911,-21.9402,-1.23303
-518,113,-21.8584,1.2309,-0.00107249,-0.00138904,0.00181768,0.00059379,-0.00305532,0.741971,0.00226095,0.0404446,706,911,-21.8584,-1.23091
-511,113,-21.8328,1.31226,-0.00044375,-0.00121548,0.00223174,0.00143524,-0.00309447,0.699795,0.00267307,0.0399118,713,911,-21.8328,-1.31226
-504,113,0,0,0,0,0,0,0,0,0,-1,720,911,0,0
-497,113,0,0,0,0,0,0,0,0,0,-1,727,911,0,0
-490,113,0,0,0,0,0,0,0,0,0,-1,734,911,0,0
-483,113,0,0,0,0,0,0,0,0,0,-1,741,911,0,0
-476,113,0,0,0,0,0,0,0,0,0,-1,748,911,0,0
-469,113,0,0,0,0,0,0,0,0,0,-1,755,911,0,0
-462,113,0,0,0,0,0,0,0,0,0,-1,762,911,0,0
-455,113,0,0,0,0,0,0,0,0,0,-1,769,911,0,0
-448,113,0,0,0,0,0,0,0,0,0,-1,776,911,0,0
-441,113,0,0,0,0,0,0,0,0,0,-1,783,911,0,0
-434,113,0,0,0,0,0,0,0,0,0,-1,790,911,0,0
-427,113,0,0,0,0,0,0,0,0,0,-1,797,911,0,0
-420,113,0,0,0,0,0,0,0,0,0,-1,804,911,0,0
-413,113,0,0,0,0,0,0,0,0,0,-1,811,911,0,0
-406,113,0,0,0,0,0,0,0,0,0,-1,818,911,0,0
-399,113,0,0,0,0,0,0,0,0,0,-1,825,911,0,0
-392,113,0,0,0,0,0,0,0,0,0,-1,832,911,0,0
-385,113,0,0,0,0,0,0,0,0,0,-1,839,911,0,0
-378,113,0,0,0,0,0,0,0,0,0,-1,846,911,0,0
-371,113,0,0,0,0,0,0,0,0,0,-1,853,911,0,0
-364,113,0,0,0,0,0,0,0,0,0,-1,860,911,0,0
-357,113,0,0,0,0,0,0,0,0,0,-1,867,911,0,0
-350,113,0,0,0,0,0,0,0,0,0,-1,874,911,0,0
-343,113,0,0,0,0,0,0,0,0,0,-1,881,911,0,0
-336,113,0,0,0,0,0,0,0,0,0,-1,888,911,0,0
-329,113,0,0,0,0,0,0,0,0,0,-1,895,911,0,0
-322,113,0,0,0,0,0,0,0,0,0,-1,902,911,0,0
-315,113,0,0,0,0,0,0,0,0,0,-1,909,911,0,0
-308,113,0,0,0,0,0,0,0,0,0,-1,916,911,0,0
-301,113,0,0,0,0,0,0,0,0,0,-1,923,911,0,0
-294,113,0,0,0,0,0,0,0,0,0,-1,930,911,0,0
-287,113,0,0,0,0,0,0,0,0,0,-1,937,911,0,0
-280,113,0,0,0,0,0,0,0,0,0,-1,944,911,0,0
-273,113,0,0,0,0,0,0,0,0,0,-1,951,911,0,0
-266,113,0,0,0,0,0,0,0,0,0,-1,958,911,0,0
-259,113,0,0,0,0,0,0,0,0,0,-1,965,911,0,0
-252,113,0,0,0,0,0,0,0,0,0,-1,972,911,0,0
-245,113,0,0,0,0,0,0,0,0,0,-1,979,911,0,0
-238,113,0,0,0,0,0,0,0,0,0,-1,986,911,0,0
-231,113,0,0,0,0,0,0,0,0,0,-1,993,911,0,0
-224,113,0,0,0,0,0,0,0,0,0,-1,1000,911,0,0
-217,113,0,0,0,0,0,0,0,0,0,-1,1007,911,0,0
-210,113,0,0,0,0,0,0,0,0,0,-1,1014,911,0,0
-203,113,0,0,0,0,0,0,0,0,0,-1,1021,911,0,0
-196,113,0,0,0,0,0,0,0,0,0,-1,1028,911,0,0
-189,113,0,0,0,0,0,0,0,0,0,-1,1035,911,0,0
-182,113,0,0,0,0,0,0,0,0,0,-1,1042,911,0,0
-175,113,0,0,0,0,0,0,0,0,0,-1,1049,911,0,0
-168,113,0,0,0,0,0,0,0,0,0,-1,1056,911,0,0
-161,113,0,0,0,0,0,0,0,0,0,-1,1063,911,0,0
-154,113,0,0,0,0,0,0,0,0,0,-1,1070,911,0,0
-147,113,0,0,0,0,0,0,0,0,0,-1,1077,911,0,0
-140,113,0,0,0,0,0,0,0,0,0,-1,1084,911,0,0
-133,113,0,0,0,0,0,0,0,0,0,-1,1091,911,0,0
-126,113,0,0,0,0,0,0,0,0,0,-1,1098,911,0,0
-119,113,0,0,0,0,0,0,0,0,0,-1,1105,911,0,0
-112,113,0,0,0,0,0,0,0,0,0,-1,1112,911,0,0
-105,113,0,0,0,0,0,0,0,0,0,-1,1119,911,0,0
-98,113,0,0,0,0,0,0,0,0,0,-1,1126,911,0,0
-91,113,0,0,0,0,0,0,0,0,0,-1,1133,911,0,0
-84,113,0,0,0,0,0,0,0,0,0,-1,1140,911,0,0
-77,113,0,0,0,0,0,0,0,0,0,-1,1147,911,0,0
-70,113,0,0,0,0,0,0,0,0,0,-1,1154,911,0,0
-63,113,0,0,0,0,0,0,0,0,0,-1,1161,911,0,0
-56,113,0,0,0,0,0,0,0,0,0,-1,1168,911,0,0
-49,113,0,0,0,0,0,0,0,0,0,-1,1175,911,0,0
-42,113,0,0,0,0,0,0,0,0,0,-1,1182,911,0,0
-35,113,0,0,0,0,0,0,0,0,0,-1,1189,911,0,0
-28,113,0,0,0,0,0,0,0,0,0,-1,1196,911,0,0
-21,113,0,0,0,0,0,0,0,0,0,-1,1203,911,0,0
-14,113,0,0,0,0,0,0,0,0,0,-1,1210,911,0,0
-7,113,0,0,0,0,0,0,0,0,0,-1,1217,911,0,0
0,113,0,0,0,0,0,0,0,0,0,-1,1224,911,0,0
7,113,0,0,0,0,0,0,0,0,0,-1,1231,911,0,0
14,113,0,0,0,0,0,0,0,0,0,-1,1238,911,0,0
21,113,0,0,0,0,0,0,0,0,0,-1,1245,911,0,0
28,113,0,0,0,0,0,0,0,0,0,-1,1252,911,0,0
35,113,0,0,0,0,0,0,0,0,0,-1,1259,911,0,0
42,113,0,0,0,0,0,0,0,0,0,-1,1266,911,0,0
49,113,0,0,0,0,0,0,0,0,0,-1,1273,911,0,0
56,113,0,0,0,0,0,0,0,0,0,-1,1280,911,0,0
63,113,0,0,0,0,0,0,0,0,0,-1,1287,911,0,0
70,113,0,0,0,0,0,0,0,0,0,-1,1294,911,0,0
77,113,0,0,0,0,0,0,0,0,0,-1,1301,911,0,0
84,113,0,0,0,0,0,0,0,0,0,-1,1308,911,0,0
91,113,0,0,0,0,0,0,0,0,0,-1,1315,911,0,0
98,113,0,0,0,0,0,0,0,0,0,-1,1322,911,0,0
105,113,0,0,0,0,0,0,0,0,0,-1,1329,911,0,0
112,113,0,0,0,0,0,0,0,0,0,-1,1336,911,0,0
119,113,0,0,0,0,0,0,0,0,0,-1,1343,911,0,0
126,113,0,0,0,0,0,0,0,0,0,-1,1350,911,0,0
133,113,0,0,0,0,0,0,0,0,0,-1,1357,911,0,0
140,113,0,0,0,0,0,0,0,0,0,-1,1364,911,0,0
147,113,0,0,0,0,0,0,0,0,0,-1,1371,911,0,0
154,113,0,0,0,0,0,0,0,0,0,-1,1378,911,0,0
161,113,0,0,0,0,0,0,0,0,0,-1,1385,911,0,0
168,113,0,0,0,0,0,0,0,0,0,-1,1392,911,0,0
175,113,0,0,0,0,0,0,0,0,0,-1,1399,911,0,0
182,113,0,0,0,0,0,0,0,0,0,-1,1406,911,0,0
189,113,0,0,0,0,0,0,0,0,0,-1,1413,911,0,0
196,113,0,0,0,0,0,0,0,0,0,-1,1420,911,0,0
203,113,0,0,0,0,0,0,0,0,0,-1,1427,911,0,0
210,113,0,0,0,0,0,0,0,0,0,-1,1434,911,0,0
217,113,0,0,0,0,0,0,0,0,0,-1,1441,911,0,0
224,113,0,0,0,0,0,0,0,0,0,-1,1448,911,0,0
231,113,0,0,0,0,0,0,0,0,0,-1,1455,911,0,0
238,113,0,0,0,0,0,0,0,0,0,-1,1462,911,0,0
245,113,0,0,0,0,0,0,0,0,0,-1,1469,911,0,0
252,113,0,0,0,0,0,0,0,0,0,-1,1476,911,0,0
259,113,0,0,0,0,0,0,0,0,0,-1,1483,911,0,0
266,113,0,0,0,0,0,0,0,0,0,-1,1490,911,0,0
273,113,0,0,0,0,0,0,0,0,0,-1,1497,911,0,0
280,113,0,0,0,0,0,0,0,0,0,-1,1504,911,0,0
287,113,0,0,0,0,0,0,0,0,0,-1,1511,911,0,0
294,113,0,0,0,0,0,0,0,0,0,-1,1518,911,0,0
301,113,0,0,0,0,0,0,0,0,0,-1,1525,911,0,0
308,113,0,0,0,0,0,0,0,0,0,-1,1532,911,0,0
315,113,0,0,0,0,0,0,0,0,0,-1,1539,911,0,0
322,113,0,0,0,0,0,0,0,0,0,-1,1546,911,0,0
329,113,0,0,0,0,0,0,0,0,0,-1,1553,911,0,0
336,113,0,0,0,0,0,0,0,0,0,-1,1560,911,0,0
343,113,0,0,0,0,0,0,0,0,0,-1,1567,911,0,0
350,113,0,0,0,0,0,0,0,0,0,-1,1574,911,0,0
357,113,0,0,0,0,0,0,0,0,0,-1,1581,911,0,0
364,113,0,0,0,0,0,0,0,0,0,-1,1588,911,0,0
371,113,0,0,0,0,0,0,0,0,0,-1,1595,911,0,0
378,113,0,0,0,0,0,0,0,0,0,-1,1602,911,0,0
385,113,0,0,0,0,0,0,0,0,0,-1,1609,911,0,0
392,113,0,0,0,0,0,0,0,0,0,-1,1616,911,0,0
399,113,0,0,0,0,0,0,0,0,0,-1,1623,911,0,0
406,113,0,0,0,0,0,0,0,0,0,-1,1630,911,0,0
413,113,0,0,0,0,0,0,0,0,0,-1,1637,911,0,0
420,113,0,0,0,0,0,0,0,0,0,-1,1644,911,0,0
427,113,0,0,0,0,0,0,0,0,0,-1,1651,911,0,0
434,113,0,0,0,0,0,0,0,0,0,-1,1658,911,0,0
441,113,0,0,0,0,0,0,0,0,0,-1,1665,911,0,0
448,113,0,0,0,0,0,0,0,0,0,-1,1672,911,0,0
455,113,0,0,0,0,0,0,0,0,0,-1,1679,911,0,0
462,113,0,0,0,0,0,0,0,0,0,-1,1686,911,0,0
469,113,0,0,0,0,0,0,0,0,0,-1,1693,911,0,0
476,113,0,0,0,0,0,0,0,0,0,-1,1700,911,0,0
483,113,0,0,0,0,0,0,0,0,0,-1,1707,911,0,0
490,113,0,0,0,0,0,0,0,0,0,-1,1714,911,0,0
497,113,0,0,0,0,0,0,0,0,0,-1,1721,911,0,0
504,113,0,0,0,0,0,0,0,0,0,-1,1728,911,0,0
511,113,0,0,0,0,0,0,0,0,0,-1,1735,911,0,0
518,113,0,0,0,0,0,0,0,0,0,-1,1742,911,0,0
525,113,0,0,0,0,0,0,0,0,0,-1,1749,911,0,0
532,113,0,0,0,0,0,0,0,0,0,-1,1756,911,0,0
539,113,0,0,0,0,0,0,0,0,0,-1,1763,911,0,0
546,113,0,0,0,0,0,0,0,0,0,-1,1770,911,0,0
553,113,0,0,0,0,0,0,0,0,0,-1,1777,911,0,0
560,113,0,0,0,0,0,0,0,0,0,-1,1784,911,0,0
567,113,0,0,0,0,0,0,0,0,0,-1,1791,911,0,0
574,113,0,0,0,0,0,0,0,0,0,-1,1798,911,0,0
581,113,0,0,0,0,0,0,0,0,0,-1,1805,911,0,0
588,113,0,0,0,0,0,0,0,0,0,-1,1812,911,0,0
595,113,0,0,0,0,0,0,0,0,0,-1,1819,911,0,0
602,113,0,0,0,0,0,0,0,0,0,-1,1826,911,0,0
609,113,0,0,0,0,0,0,0,0,0,-1,1833,911,0,0
616,113,0,0,0,0,0,0,0,0,0,-1,1840,911,0,0
623,113,0,0,0,0,0,0,0,0,0,-1,1847,911,0,0
630,113,31.1586,3.11224,-0.0054475,0.00113108,-0.00157056,0.0014868,-0.00580322,-1.34806,0.00444803,0.038287,1854,911,31.1586,-3.11223
637,113,31.0056,3.25311,-0.00296763,0.00145846,-0.00181009,0.00210443,-0.0036136,-1.22801,0.00333942,0.0385491,1861,911,31.0056,-3.25309
644,113,30.976,3.38611,-0.00151274,0.00160113,-0.00192597,0.00252077,-0.00243237,-1.12532,0.00285985,0.0383986,1868,911,30.9759,-3.38611
651,113,30.9755,3.0722,-0.000655634,0.00166161,-0.00187226,0.00270475,-0.00169877,-1.06248,0.0025644,0.04078,1875,911,30.9754,-3.07222
658,113,31.0889,2.77612,-0.000398613,0.00171868,-0.00165542,0.00262502,-0.00130495,-1.06988,0.00231124,0.0416502,1882,911,31.0889,-2.77611
665,113,31.0695,2.91248,-0.000370037,0.00169243,-0.00138567,0.00238848,-0.0010661,-1.10529,0.00204263,0.0370478,1889,911,31.0695,-2.91247
672,113,30.9259,3.09247,-0.000476978,0.00160714,-0.0010344,0.00203338,-0.000903208,-1.17994,0.00173679,0.0359937,1896,911,30.9259,-3.09249
679,113,30.8812,2.9563,-0.000509071,0.0014264,-0.000703708,0.00165521,-0.00073788,-1.25643,0.00141508,0.032154,1903,911,30.8812,-2.95628
686,113,30.9379,2.84814,-0.000516295,0.00121775,-0.000476301,0.00133997,-0.000638509,-1.31962,0.00116596,0.02343,1910,911,30.9379,-2.84812
693,113,30.957,2.95428,-0.000630557,0.00111393,-0.000309633,0.00116726,-0.000683884,-1.40024,0.00108084,0.0374724,1917,911,30.957,-2.95429
700,113,30.9429,2.93921,0,0,0,0,0,0,0,-1,1924,911,30.9429,-2.93919
707,113,27.8706,3.64825,0,0,0,0,0,0,0,-1,1931,911,27.8706,-3.64826
714,113,27.8307,3.82532,-0.000985343,0.000888974,-3.51906e-05,0.000889635,-0.000986003,-1.55203,0.00108338,0.0193212,1938,911,27.8307,-3.82531
721,113,27.8516,4.08276,-0.000617483,0.0011373,-0.000119561,0.00114541,-0.000625592,-1.50308,0.00103707,0.0178798,1945,911,27.8516,-4.08277
728,113,27.9006,4.41064,-0.000399828,0.00145704,-6.17906e-05,0.00145909,-0.000401882,-1.53757,0.00113075,0.0172477,1952,911,27.9007,-4.41062
735,113,27.8477,4.67548,-0.000281137,0.00190719,-0.000273144,0.00194076,-0.000314715,-1.44848,0.0014105,0.0156197,1959,911,27.8476,-4.67545
742,113,27.8271,4.9079,-0.000363275,0.00252612,-0.00164865,0.0032735,-0.00111065,-1.14518,0.00263186,0.0120358,1966,911,27.8272,-4.90789
749,113,27.8458,5.14349,-0.000775707,0.00224422,-0.004168,0.00516734,-0.00369883,-0.959182,0.00514224,0.00913451,1973,911,27.8458,-5.1435
756,113,27.8092,5.3891,-0.00137941,0.00221388,-0.00708746,0.00772888,-0.0068944,-0.909532,0.00844734,0.0136239,1980,911,27.8092,-5.38909
763,113,27.7301,5.66937,-0.00260368,0.0015314,-0.0115016,0.0111499,-0.0122221,-0.874329,0.0134986,0.0276272,1987,911,27.7301,-5.66935
770,113,27.703,5.9209,-0.0045089,-0.000344459,-0.0181532,0.0158456,-0.020699,-0.8425,0.0211609,0.0469534,1994,911,27.703,-5.92091
777,113,27.7832,6.12427,0,0,0,0,0,0,0,-1,2001,911,27.7832,-6.12425
784,113,28.5659,6.71753,0,0,0,0,0,0,0,-1,2008,911,28.5659,-6.71756
791,113,24.9884,7.33734,0,0,0,0,0,0,0,-1,2015,911,24.9884,-7.33733
798,113,24.5206,6.05023,0,0,0,0,0,0,0,-1,2022,911,24.5207,-6.05023
805,113,0,0,0,0,0,0,0,0,0,-1,2029,911,0,0
812,113,0,0,0,0,0,0,0,0,0,-1,2036,911,0,0
-700,106,0,0,0,0,0,0,0,0,0,-1,524,918,0,0
-693,106,0,0,0,0,0,0,0,0,0,-1,531,918,0,0
-686,106,0,0,0,0,0,0,0,0,0,-1,538,918,0,0
-679,106,-22.1973,3.09851,0,0,0,0,0,0,0,-1,545,918,-22.1973,-3.09854
-672,106,-21.7911,3.42145,0.0145591,0.0313176,0.0162153,0.0411907,0.00468608,1.02388,0.0260394,0.046559,552,918,-21.7911,-3.42143
-665,106,-21.2227,3.68903,0.0124835,0.0266949,0.0147467,0.0359586,0.00321985,1.00991,0.0229745,0.0465572,559,918,-21.2227,-3.68901
-658,106,-19.7171,4.1275,0,0,0,0,0,0,0,-1,566,918,-19.7171,-4.12752
-651,106,-19.719,3.90125,0.00854944,0.0165025,0.0107897,0.0240252,0.00102678,0.96195,0.0156857,0.0489914,573,918,-19.719,-3.90126
-644,106,-19.6816,3.54742,0.0067158,0.0119399,0.00888668,0.0185905,6.52531e-05,0.928338,0.012372,0.0422649,580,918,-19.6817,-3.54745
-637,106,-19.6875,3.23761,0.00497511,0.00808324,0.00714945,0.0138456,-0.00078723,0.892418,0.00950367,0.029424,587,918,-19.6875,-3.23761
-630,106,-19.7958,3.05585,0.00306836,0.00519525,0.00598648,0.010212,-0.00194839,0.873302,0.00754183,0.0133373,594,918,-19.7958,-3.05587
-623,106,-19.8414,2.81024,0.00145049,0.00337364,0.0045607,0.00707303,-0.0022489,0.889296,0.00561711,0.0119921,601,918,-19.8415,-2.81022
-616,106,-19.8588,2.5799,0.000266208,0.00156266,0.00301023,0.00399367,-0.0021648,0.891449,0.00360748,0.0120033,608,918,-19.8588,-2.57987
-609,106,-19.8693,2.3717,-0.00139308,-0.00172706,0.00154036,-1.06822e-05,-0.00310946,0.731404,0.00206942,0.0119836,615,918,-19.8693,-2.37168
-602,106,-19.8823,2.15509,-0.00295792,-0.00157891,0.00110663,-0.000964554,-0.00357227,1.064,0.00213394,0.015574,622,918,-19.8823,-2.15508
-595,106,-19.9542,1.95868,-0.00368986,-0.00162714,0.00112751,-0.00113043,-0.00418656,1.15584,0.00250089,0.0189357,629,918,-19.9542,-1.95868
-588,106,-19.9201,1.70825,-0.00424134,-0.000916368,0.000839505,-0.000716429,-0.00444128,1.33699,0.00275329,0.0208198,636,918,-19.9201,-1.70822
-581,106,-19.8196,1.43225,-0.00455788,-0.000673885,0.000543767,-0.000599192,-0.00463257,1.43429,0.00290929,0.0146685,643,918,-19.8196,-1.43228
-574,106,-19.9058,1.22449,-0.00468511,-0.000772135,0.000201375,-0.000761799,-0.00469544,1.51951,0.00290979,0.0284794,650,918,-19.9058,-1.22447
-567,106,-20.3138,1.16821,0,0,0,0,0,0,0,-1,657,918,-20.3138,-1.16823
-560,106,-21.8048,1.09259,-0.00435396,-0.000930375,9.89943e-05,-0.000927515,-0.00435682,1.54191,0.00265004,0.0444813,664,918,-21.8048,-1.0926
-553,106,-21.9043,1.08923,-0.00405501,-0.000932885,9.48992e-05,-0.000930003,-0.00405789,1.54044,0.0024547,0.037428,671,918,-21.9043,-1.08921
-546,106,-22.0673,0.974182,-0.00356573,-0.000802837,0.000165768,-0.000792927,-0.00357564,1.51108,0.00216833,0.0395148,678,918,-22.0673,-0.974195
-539,106,-22.0903,1.03467,-0.00286436,-0.000603692,0.000297782,-0.000565125,-0.00290292,1.442,0.00177712,0.0411287,685,918,-22.0903,-1.03469
-532,106,-21.8986,1.26385,-0.00203555,-0.000347792,0.000486576,-0.000217562,-0.00216578,1.30928,0.00137707,0.0394249,692,918,-21.8986,-1.26385
-525,106,-21.8386,1.22308,-0.00126404,-4.41773e-05,0.000599568,0.000201168,-0.00150939,1.18238,0.00107958,0.0383842,699,918,-21.8386,-1.22306
-518,106,-22.0891,1.08783,-0.00135484,0.000402648,0.000818075,0.000724502,-0.0016767,1.19597,0.0014222,0.0419106,706,918,-22.0891,-1.08786
-511,106,0,0,0,0,0,0,0,0,0,-1,713,918,0,0
-504,106,0,0,0,0,0,0,0,0,0,-1,720,918,0,0
-497,106,0,0,0,0,0,0,0,0,0,-1,727,918,0,0
-490,106,0,0,0,0,0,0,0,0,0,-1,734,918,0,0
-483,106,0,0,0,0,0,0,0,0,0,-1,741,918,0,0
-476,106,0,0,0,0,0,0,0,0,0,-1,748,918,0,0
-469,106,0,0,0,0,0,0,0,0,0,-1,755,918,0,0
-462,106,0,0,0,0,0,0,0,0,0,-1,762,918,0,0
-455,106,0,0,0,0,0,0,0,0,0,-1,769,918,0,0
-448,106,0,0,0,0,0,0,0,0,0,-1,776,918,0,0
-441,106,0,0,0,0,0,0,0,0,0,-1,783,918,0,0
-434,106,0,0,0,0,0,0,0,0,0,-1,790,918,0,0
-427,106,0,0,0,0,0,0,0,0,0,-1,797,918,0,0
-420,106,0,0,0,0,0,0,0,0,0,-1,804,918,0,0
-413,106,0,0,0,0,0,0,0,0,0,-1,811,918,0,0
-406,106,0,0,0,0,0,0,0,0,0,-1,818,918,0,0
-399,106,0,0,0,0,0,0,0,0,0,-1,825,918,0,0
-392,106,0,0,0,0,0,0,0,0,0,-1,832,918,0,0
-385,106,0,0,0,0,0,0,0,0,0,-1,839,918,0,0
-378,106,0,0,0,0,0,0,0,0,0,-1,846,918,0,0
-371,106,0,0,0,0,0,0,0,0,0,-1,853,918,0,0
-364,106,0,0,0,0,0,0,0,0,0,-1,860,918,0,0
-357,106,0,0,0,0,0,0,0,0,0,-1,867,918,0,0
-350,106,0,0,0,0,0,0,0,0,0,-1,874,918,0,0
-343,106,0,0,0,0,0,0,0,0,0,-1,881,918,0,0
-336,106,0,0,0,0,0,0,0,0,0,-1,888,918,0,0
-329,106,0,0,0,0,0,0,0,0,0,-1,895,918,0,0
-322,106,0,0,0,0,0,0,0,0,0,-1,902,918,0,0
-315,106,0,0,0,0,0,0,0,0,0,-1,909,918,0,0
-308,106,0,0,0,0,0,0,0,0,0,-1,916,918,0,0
-301,106,0,0,0,0,0,0,0,0,0,-1,923,918,0,0
-294,106,0,0,0,0,0,0,0,0,0,-1,930,918,0,0
-287,106,0,0,0,0,0,0,0,0,0,-1,937,918,0,0
-280,106,0,0,0,0,0,0,0,0,0,-1,944,918,0,0
-273,106,0,0,0,0,0,0,0,0,0,-1,951,918,0,0
-266,106,0,0,0,0,0,0,0,0,0,-1,958,918,0,0
-259,106,0,0,0,0,0,0,0,0,0,-1,965,918,0,0
-252,106,0,0,0,0,0,0,0,0,0,-1,972,918,0,0
-245,106,0,0,0,0,0,0,0,0,0,-1,979,918,0,0
-238,106,0,0,0,0,0,0,0,0,0,-1,986,918,0,0
-231,106,0,0,0,0,0,0,0,0,0,-1,993,918,0,0
-224,106,0,0,0,0,0,0,0,0,0,-1,1000,918,0,0
-217,106,0,0,0,0,0,0,0,0,0,-1,1007,918,0,0
-210,106,0,0,0,0,0,0,0,0,0,-1,1014,918,0,0
-203,106,0,0,0,0,0,0,0,0,0,-1,1021,918,0,0
-196,106,0,0,0,0,0,0,0,0,0,-1,1028,918,0,0
-189,106,0,0,0,0,0,0,0,0,0,-1,1035,918,0,0
-182,106,0,0,0,0,0,0,0,0,0,-1,1042,918,0,0
-175,106,0,0,0,0,0,0,0,0,0,-1,1049,918,0,0
-168,106,0,0,0,0,0,0,0,0,0,-1,1056,918,0,0
-161,106,0,0,0,0,0,0,0,0,0,-1,1063,918,0,0
-154,106,0,0,0,0,0,0,0,0,0,-1,1070,918,0,0
-147,106,0,0,0,0,0,0,0,0,0,-1,1077,918,0,0
-140,106,0,0,0,0,0,0,0,0,0,-1,1084,918,0,0
-133,106,0,0,0,0,0,0,0,0,0,-1,1091,918,0,0
-126,106,0,0,0,0,0,0,0,0,0,-1,1098,918,0,0
-119,106,0,0,0,0,0,0,0,0,0,-1,1105,918,0,0
-112,106,0,0,0,0,0,0,0,0,0,-1,1112,918,0,0
-105,106,0,0,0,0,0,0,0,0,0,-1,1119,918,0,0
-98,106,0,0,0,0,0,0,0,0,0,-1,1126,918,0,0
-91,106,0,0,0,0,0,0,0,0,0,-1,1133,918,0,0
-84,106,0,0,0,0,0,0,0,0,0,-1,1140,918,0,0
-77,106,0,0,0,0,0,0,0,0,0,-1,1147,918,0,0
-70,106,0,0,0,0,0,0,0,0,0,-1,1154,918,0,0
-63,106,0,0,0,0,0,0,0,0,0,-1,1161,918,0,0
-56,106,0,0,0,0,0,0,0,0,0,-1,1168,918,0,0
-49,106,0,0,0,0,0,0,0,0,0,-1,1175,918,0,0
-42,106,0,0,0,0,0,0,0,0,0,-1,1182,918,0,0
-35,106,0,0,0,0,0,0,0,0,0,-1,1189,918,0,0
-28,106,0,0,0,0,0,0,0,0,0,-1,1196,918,0,0
-21,106,0,0,0,0,0,0,0,0,0,-1,1203,918,0,0
-14,106,0,0,0,0,0,0,0,0,0,-1,1210,918,0,0
-7,106,0,0,0,0,0,0,0,0,0,-1,1217,918,0,0
0,106,0,0,0,0,0,0,0,0,0,-1,1224,918,0,0
7,106,0,0,0,0,0,0,0,0,0,-1,1231,918,0,0
14,106,0,0,0,0,0,0,0,0,0,-1,1238,918,0,0
21,106,0,0,0,0,0,0,0,0,0,-1,1245,918,0,0
28,106,0,0,0,0,0,0,0,0,0,-1,1252,918,0,0
35,106,0,0,0,0,0,0,0,0,0,-1,1259,918,0,0
42,106,0,0,0,0,0,0,0,0,0,-1,1266,918,0,0
49,106,0,0,0,0,0,0,0,0,0,-1,1273,918,0,0
56,106,0,0,0,0,0,0,0,0,0,-1,1280,918,0,0
63,106,0,0,0,0,0,0,0,0,0,-1,1287,918,0,0
70,106,0,0,0,0,0,0,0,0,0,-1,1294,918,0,0
77,106,0,0,0,0,0,0,0,0,0,-1,1301,918,0,0
84,106,0,0,0,0,0,0,0,0,0,-1,1308,918,0,0
91,106,0,0,0,0,0,0,0,0,0,-1,1315,918,0,0
98,106,0,0,0,0,0,0,0,0,0,-1,1322,918,0,0
105,106,0,0,0,0,0,0,0,0,0,-1,1329,918,0,0
112,106,0,0,0,0,0,0,0,0,0,-1,1336,918,0,0
119,106,0,0,0,0,0,0,0,0,0,-1,1343,918,0,0
126,106,0,0,0,0,0,0,0,0,0,-1,1350,918,0,0
133,106,0,0,0,0,0,0,0,0,0,-1,1357,918,0,0
140,106,0,0,0,0,0,0,0,0,0,-1,1364,918,0,0
147,106,0,0,0,0,0,0,0,0,0,-1,1371,918,0,0
154,106,0,0,0,0,0,0,0,0,0,-1,1378,918,0,0
161,106,0,0,0,0,0,0,0,0,0,-1,1385,918,0,0
168,106,0,0,0,0,0,0,0,0,0,-1,1392,918,0,0
175,106,0,0,0,0,0,0,0,0,0,-1,1399,918,0,0
182,106,0,0,0,0,0,0,0,0,0,-1,1406,918,0,0
189,106,0,0,0,0,0,0,0,0,0,-1,1413,918,0,0
196,106,0,0,0,0,0,0,0,0,0,-1,1420,918,0,0
203,106,0,0,0,0,0,0,0,0,0,-1,1427,918,0,0
210,106,0,0,0,0,0,0,0,0,0,-1,1434,918,0,0
217,106,0,0,0,0,0,0,0,0,0,-1,1441,918,0,0
224,106,0,0,0,0,0,0,0,0,0,-1,1448,918,0,0
231,106,0,0,0,0,0,0,0,0,0,-1,1455,918,0,0
238,106,0,0,0,0,0,0,0,0,0,-1,1462,918,0,0
245,106,0,0,0,0,0,0,0,0,0,-1,1469,918,0,0
252,106,0,0,0,0,0,0,0,0,0,-1,1476,918,0,0
259,106,0,0,0,0,0,0,0,0,0,-1,1483,918,0,0
266,106,0,0,0,0,0,0,0,0,0,-1,1490,918,0,0
273,106,0,0,0,0,0,0,0,0,0,-1,1497,918,0,0
280,106,0,0,0,0,0,0,0,0,0,-1,1504,918,0,0
287,106,0,0,0,0,0,0,0,0,0,-1,1511,918,0,0
294,106,0,0,0,0,0,0,0,0,0,-1,1518,918,0,0
301,106,0,0,0,0,0,0,0,0,0,-1,1525,918,0,0
308,106,0,0,0,0,0,0,0,0,0,-1,1532,918,0,0
315,106,0,0,0,0,0,0,0,0,0,-1,1539,918,0,0
322,106,0,0,0,0,0,0,0,0,0,-1,1546,918,0,0
329,106,0,0,0,0,0,0,0,0,0,-1,1553,918,0,0
336,106,0,0,0,0,0,0,0,0,0,-1,1560,918,0,0
343,106,0,0,0,0,0,0,0,0,0,-1,1567,918,0,0
350,106,0,0,0,0,0,0,0,0,0,-1,1574,918,0,0
357,106,0,0,0,0,0,0,0,0,0,-1,1581,918,0,0
364,106,0,0,0,0,0,0,0,0,0,-1,1588,918,0,0
371,106,0,0,0,0,0,0,0,0,0,-1,1595,918,0,0
378,106,0,0,0,0,0,0,0,0,0,-1,1602,918,0,0
385,106,0,0,0,0,0,0,0,0,0,-1,1609,918,0,0
392,106,0,0,0,0,0,0,0,0,0,-1,1616,918,0,0
399,106,0,0,0,0,0,0,0,0,0,-1,1623,918,0,0
406,106,0,0,0,0,0,0,0,0,0,-1,1630,918,0,0
413,106,0,0,0,0,0,0,0,0,0,-1,1637,918,0,0
420,106,0,0,0,0,0,0,0,0,0,-1,1644,918,0,0
427,106,0,0,0,0,0,0,0,0,0,-1,1651,918,0,0
434,106,0,0,0,0,0,0,0,0,0,-1,1658,918,0,0
441,106,0,0,0,0,0,0,0,0,0,-1,1665,918,0,0
448,106,0,0,0,0,0,0,0,0,0,-1,1672,918,0,0
455,106,0,0,0,0,0,0,0,0,0,-1,1679,918,0,0
462,106,0,0,0,0,0,0,0,0,0,-1,1686,918,0,0
469,106,0,0,0,0,0,0,0,0,0,-1,1693,918,0,0
476,106,0,0,0,0,0,0,0,0,0,-1,1700,918,0,0
483,106,0,0,0,0,0,0,0,0,0,-1,1707,918,0,0
490,106,0,0,0,0,0,0,0,0,0,-1,1714,918,0,0
497,106,0,0,0,0,0,0,0,0,0,-1,1721,918,0,0
504,106,0,0,0,0,0,0,0,0,0,-1,1728,918,0,0
511,106,0,0,0,0,0,0,0,0,0,-1,1735,918,0,0
518,106,0,0,0,0,0,0,0,0,0,-1,1742,918,0,0
525,106,0,0,0,0,0,0,0,0,0,-1,1749,918,0,0
532,106,0,0,0,0,0,0,0,0,0,-1,1756,918,0,0
539,106,0,0,0,0,0,0,0,0,0,-1,1763,918,0,0
546,106,0,0,0,0,0,0,0,0,0,-1,1770,918,0,0
553,106,0,0,0,0,0,0,0,0,0,-1,1777,918,0,0
560,106,0,0,0,0,0,0,0,0,0,-1,1784,918,0,0
567,106,0,0,0,0,0,0,0,0,0,-1,1791,918,0,0
574,106,0,0,0,0,0,0,0,0,0,-1,1798,918,0,0
581,106,0,0,0,0,0,0,0,0,0,-1,1805,918,0,0
588,106,0,0,0,0,0,0,0,0,0,-1,1812,918,0,0
595,106,0,0,0,0,0,0,0,0,0,-1,1819,918,0,0
602,106,0,0,0,0,0,0,0,0,0,-1,1826,918,0,0
609,106,0,0,0,0,0,0,0,0,0,-1,1833,918,0,0
616,106,0,0,0,0,0,0,0,0,0,-1,1840,918,0,0
623,106,0,0,0,0,0,0,0,0,0,-1,1847,918,0,0
630,106,31.1139,2.98236,-0.00686704,0.00303792,-0.000813284,0.00310426,-0.00693337,-1.48941,0.00593412,0.0411959,1854,918,31.1139,-2.98234
637,106,31.101,3.17792,-0.00374538,0.00278831,-0.00130824,0.00304052,-0.00399759,-1.38035,0.00407596,0.0410757,1861,918,31.1009,-3.17791
644,106,31.0328,3.22821,-0.00195839,0.00256975,-0.00157292,0.0030625,-0.00245115,-1.26721,0.00318982,0.037799,1868,918,31.0328,-3.22821
651,106,31.0441,3.05682,-0.000891796,0.00236109,-0.00161192,0.00302454,-0.00155525,-1.18034,0.00268912,0.0408193,1875,918,31.0441,-3.05683
658,106,31.1213,2.81384,-0.000547523,0.00227057,-0.0014164,0.00285942,-0.00113638,-1.1768,0.0023774,0.0414006,1882,918,31.1214,-2.81387
665,106,31.1697,2.64319,0,0,0,0,0,0,0,-1,1889,918,31.1697,-2.64322
672,106,30.8912,3.28949,-0.000628145,0.00203538,-0.000726698,0.00222074,-0.000813512,-1.32104,0.00181354,0.0397602,1896,918,30.8912,-3.2895
679,106,30.894,2.96906,-0.000704795,0.00181191,-0.000350196,0.00185973,-0.000752616,-1.43508,0.00155273,0.0354489,1903,918,30.8941,-2.96907
686,106,30.9288,2.86029,-0.000743707,0.00156003,-9.23859e-05,0.00156373,-0.000747406,-1.53078,0.0013618,0.026729,1910,918,30.9289,-2.8603
693,106,30.9539,2.91754,-0.000833659,0.00141318,8.55485e-05,0.00141643,-0.000836911,1.53279,0.00131523,0.0227934,1917,918,30.9539,-2.91753
700,106,31.0013,2.89777,0,0,0,0,0,0,0,-1,1924,918,31.0014,-2.89775
707,106,27.9971,3.6001,0,0,0,0,0,0,0,-1,1931,918,27.9971,-3.60007
714,106,28.1211,3.83441,-0.00127058,0.00120537,0.000288228,0.00123848,-0.00130369,1.45642,0.00146788,0.0228667,1938,918,28.1211,-3.8344
721,106,28.1421,4.09607,-0.000977931,0.00141076,0.000174273,0.00142341,-0.000990578,1.49835,0.00140116,0.0192651,1945,918,28.1421,-4.09605
728,106,28.1853,4.40857,-0.000811992,0.0016691,0.000191125,0.00168374,-0.000826628,1.49436,0.00147725,0.0182744,1952,918,28.1853,-4.40854
735,106,28.1433,4.65784,-0.000809463,0.0020603,-6.64374e-05,0.00206183,-0.000811,-1.54766,0.00171023,0.0165215,1959,918,28.1433,-4.65784
742,106,28.0999,4.88788,-0.00107676,0.00256892,-0.00148345,0.00309627,-0.00160411,-1.22924,0.00275897,0.0120252,1966,918,28.0998,-4.88788
749,106,28.0981,5.1272,-0.00175337,0.00213788,-0.00399331,0.00463432,-0.00424981,-1.01208,0.00513086,0.00992864,1973,918,28.0982,-5.1272
756,106,28.0774,5.36182,-0.00271507,0.00192526,-0.0069082,0.00689251,-0.00768232,-0.947408,0.0084189,0.0121324,1980,918,28.0774,-5.36183
763,106,28.0162,5.6709,-0.00438724,0.000984831,-0.0112525,0.00986745,-0.0132699,-0.902558,0.0134064,0.0226765,1987,918,28.0162,-5.67091
770,106,27.949,6.00006,-0.00680318,-0.00124977,-0.017657,0.0138475,-0.0219005,-0.863388,0.020813,0.0416781,1994,918,27.949,-6.00005
777,106,27.9292,6.31683,0,0,0,0,0,0,0,-1,2001,918,27.9292,-6.31686
784,106,27.0315,6.49719,0,0,0,0,0,0,0,-1,2008,918,27.0315,-6.49718
791,106,26.0768,6.63702,-0.0206557,-0.0230691,-0.0590483,0.0371982,-0.080923,-0.775182,0.0697374,0.0461073,2015,918,26.0768,-6.63703
798,106,25.855,5.58917,-0.0278988,-0.0380231,-0.083915,0.0511066,-0.117028,-0.755272,0.0995288,0.042841,2022,918,25.855,-5.5892
805,106,0,0,0,0,0,0,0,0,0,-1,2029,918,0,0
812,106,0,0,0,0,0,0,0,0,0,-1,2036,918,0,0
-700,99,0,0,0,0,0,0,0,0,0,-1,524,925,0,0
-693,99,0,0,0,0,0,0,0,0,0,-1,531,925,0,0
-686,99,0,0,0,0,0,0,0,0,0,-1,538,925,0,0
-679,99,-18.8621,-1.72595,0,0,0,0,0,0,0,-1,545,925,-18.8621,1.72592
-672,99,-21.2769,2.97614,0,0,0,0,0,0,0,-1,552,925,-21.2769,-2.97614
-665,99,-20.6159,3.31531,0,0,0,0,0,0,0,-1,559,925,-20.6159,-3.31531
-658,99,-20.0647,3.61163,0,0,0,0,0,0,0,-1,566,925,-20.0647,-3.61164
-651,99,-19.5237,4.18951,0.00712653,0.016722,0.0127915,0.0255859,-0.00173742,0.964815,0.0176649,0.0480282,573,925,-19.5238,-4.18952
-644,99,-19.6448,3.59705,0.00541657,0.0126905,0.01047,0.0201373,-0.0020302,0.952563,0.0141502,0.0481539,580,925,-19.6448,-3.59706
-637,99,-19.8891,3.2334,0.00392431,0.00911771,0.00830333,0.0152209,-0.00217888,0.936945,0.0109461,0.0308429,587,925,-19.8891,-3.23341
-630,99,-20.0275,3.03638,0.0021186,0.00634256,0.00680694,0.0113576,-0.00289647,0.935824,0.00869949,0.0152605,594,925,-20.0275,-3.03637
-623,99,-20.1064,2.80811,0.000513526,0.00454077,0.00503867,0.00795328,-0.00289898,0.975493,0.00648811,0.00932261,601,925,-20.1065,-2.80809
-616,99,-20.116,2.57904,-0.000662967,0.00266558,0.00318767,0.00459728,-0.00259467,1.02598,0.00420559,0.0102683,608,925,-20.116,-2.57904
-609,99,-20.1119,2.37061,-0.00234315,-0.000981002,0.00143342,-7.50796e-05,-0.00324907,1.00718,0.00214146,0.0110905,615,925,-20.1119,-2.37062
-602,99,-20.1107,2.1875,-0.00388655,-0.00103254,0.000868345,-0.000789106,-0.00412998,1.29747,0.00253162,0.0130608,622,925,-20.1107,-2.18748
-595,99,-20.177,1.99042,-0.00459308,-0.0013077,0.000926908,-0.00106423,-0.00483655,1.31393,0.00293467,0.0171606,629,925,-20.177,-1.99043
-588,99,-20.1603,1.7439,-0.00515299,-0.000788722,0.000677623,-0.000685931,-0.00525578,1.42025,0.00329907,0.0168469,636,925,-20.1604,-1.74392
-581,99,-20.0737,1.46802,-0.00546585,-0.00058001,0.000381926,-0.000550335,-0.00549553,1.49325,0.00349471,0.0119431,643,925,-20.0737,-1.46802
-574,99,-20.2922,1.22736,-0.00557178,-0.000601709,3.324e-05,-0.000601487,-0.005572,1.56411,0.00353129,0.0246772,650,925,-20.2922,-1.22733
-567,99,-20.881,1.01733,0,0,0,0,0,0,0,-1,657,925,-20.881,-1.01732
-560,99,-21.8106,1.01892,-0.00521315,-0.000529384,-0.000139536,-0.000525231,-0.0052173,-1.54104,0.00331701,0.035538,664,925,-21.8106,-1.0189
-553,99,-21.9425,1.04614,-0.00474714,-0.000347456,-0.00017937,-0.000340156,-0.00475444,-1.53012,0.00306254,0.0393243,671,925,-21.9425,-1.04613
-546,99,-21.954,0.881165,-0.00402093,1.96278e-05,-0.000183193,2.79162e-05,-0.00402922,-1.52558,0.0026955,0.0432511,678,925,-21.954,-0.881164
-539,99,-21.7528,0.843628,-0.00300886,0.000548701,-0.000159131,0.000555805,-0.00301597,-1.52618,0.00221924,0.0402843,685,925,-21.7528,-0.843604
-532,99,-21.8267,1.17761,-0.00178337,0.00125684,-0.000138851,0.00126317,-0.0017897,-1.52525,0.00177129,0.0409182,692,925,-21.8266,-1.17764
-525,99,-21.8944,1.19794,-0.000689502,0.00220801,-0.000296007,0.00223794,-0.000719432,-1.47002,0.00178088,0.0414179,699,925,-21.8944,-1.19794
-518,99,-22.1444,1.10461,-0.000954983,0.00363292,-0.000329135,0.00365641,-0.000978475,-1.49954,0.00282091,0.0432364,706,925,-22.1444,-1.10463
-511,99,0,0,0,0,0,0,0,0,0,-1,713,925,0,0
-504,99,0,0,0,0,0,0,0,0,0,-1,720,925,0,0
-497,99,0,0,0,0,0,0,0,0,0,-1,727,925,0,0
-490,99,0,0,0,0,0,0,0,0,0,-1,734,925,0,0
-483,99,0,0,0,0,0,0,0,0,0,-1,741,925,0,0
-476,99,0,0,0,0,0,0,0,0,0,-1,748,925,0,0
-469,99,0,0,0,0,0,0,0,0,0,-1,755,925,0,0
-462,99,0,0,0,0,0,0,0,0,0,-1,762,925,0,0
-455,99,0,0,0,0,0,0,0,0,0,-1,769,925,0,0
-448,99,0,0,0,0,0,0,0,0,0,-1,776,925,0,0
-441,99,0,0,0,0,0,0,0,0,0,-1,783,925,0,0
-434,99,0,0,0,0,0,0,0,0,0,-1,790,925,0,0
-427,99,0,0,0,0,0,0,0,0,0,-1,797,925,0,0
-420,99,0,0,0,0,0,0,0,0,0,-1,804,925,0,0
-413,99,0,0,0,0,0,0,0,0,0,-1,811,925,0,0
-406,99,0,0,0,0,0,0,0,0,0,-1,818,925,0,0
-399,99,0,0,0,0,0,0,0,0,0,-1,825,925,0,0
-392,99,0,0,0,0,0,0,0,0,0,-1,832,925,0,0
-385,99,0,0,0,0,0,0,0,0,0,-1,839,925,0,0
-378,99,0,0,0,0,0,0,0,0,0,-1,846,925,0,0
-371,99,0,0,0,0,0,0,0,0,0,-1,853,925,0,0
-364,99,0,0,0,0,0,0,0,0,0,-1,860,925,0,0
-357,99,0,0,0,0,0,0,0,0,0,-1,867,925,0,0
-350,99,0,0,0,0,0,0,0,0,0,-1,874,925,0,0
-343,99,0,0,0,0,0,0,0,0,0,-1,881,925,0,0
-336,99,0,0,0,0,0,0,0,0,0,-1,888,925,0,0
-329,99,0,0,0,0,0,0,0,0,0,-1,895,925,0,0
-322,99,0,0,0,0,0,0,0,0,0,-1,902,925,0,0
-315,99,0,0,0,0,0,0,0,0,0,-1,909,925,0,0
-308,99,0,0,0,0,0,0,0,0,0,-1,916,925,0,0
-301,99,0,0,0,0,0,0,0,0,0,-1,923,925,0,0
-294,99,0,0,0,0,0,0,0,0,0,-1,930,925,0,0
-287,99,0,0,0,0,0,0,0,0,0,-1,937,925,0,0
-280,99,0,0,0,0,0,0,0,0,0,-1,944,925,0,0
-273,99,0,0,0,0,0,0,0,0,0,-1,951,925,0,0
-266,99,0,0,0,0,0,0,0,0,0,-1,958,925,0,0
-259,99,0,0,0,0,0,0,0,0,0,-1,965,925,0,0
-252,99,0,0,0,0,0,0,0,0,0,-1,972,925,0,0
-245,99,0,0,0,0,0,0,0,0,0,-1,979,925,0,0
-238,99,0,0,0,0,0,0,0,0,0,-1,986,925,0,0
-231,99,0,0,0,0,0,0,0,0,0,-1,993,925,0,0
-224,99,0,0,0,0,0,0,0,0,0,-1,1000,925,0,0
-217,99,0,0,0,0,0,0,0,0,0,-1,1007,925,0,0
-210,99,0,0,0,0,0,0,0,0,0,-1,1014,925,0,0
-203,99,0,0,0,0,0,0,0,0,0,-1,1021,925,0,0
-196,99,0,0,0,0,0,0,0,0,0,-1,1028,925,0,0
-189,99,0,0,0,0,0,0,0,0,0,-1,1035,925,0,0
-182,99,0,0,0,0,0,0,0,0,0,-1,1042,925,0,0
-175,99,0,0,0,0,0,0,0,0,0,-1,1049,925,0,0
-168,99,0,0,0,0,0,0,0,0,0,-1,1056,925,0,0
-161,99,0,0,0,0,0,0,0,0,0,-1,1063,925,0,0
-154,99,0,0,0,0,0,0,0,0,0,-1,1070,925,0,0
-147,99,0,0,0,0,0,0,0,0,0,-1,1077,925,0,0
-140,99,0,0,0,0,0,0,0,0,0,-1,1084,925,0,0
-133,99,0,0,0,0,0,0,0,0,0,-1,1091,925,0,0
-126,99,0,0,0,0,0,0,0,0,0,-1,1098,925,0,0
-119,99,0,0,0,0,0,0,0,0,0,-1,1105,925,0,0
-112,99,0,0,0,0,0,0,0,0,0,-1,1112,925,0,0
-105,99,0,0,0,0,0,0,0,0,0,-1,1119,925,0,0
-98,99,0,0,0,0,0,0,0,0,0,-1,1126,925,0,0
-91,99,0,0,0,0,0,0,0,0,0,-1,1133,925,0,0
-84,99,0,0,0,0,0,0,0,0,0,-1,1140,925,0,0
-77,99,0,0,0,0,0,0,0,0,0,-1,1147,925,0,0
-70,99,0,0,0,0,0,0,0,0,0,-1,1154,925,0,0
-63,99,0,0,0,0,0,0,0,0,0,-1,1161,925,0,0
-56,99,0,0,0,0,0,0,0,0,0,-1,1168,925,0,0
-49,99,0,0,0,0,0,0,0,0,0,-1,1175,925,0,0
-42,99,0,0,0,0,0,0,0,0,0,-1,1182,925,0,0
-35,99,0,0,0,0,0,0,0,0,0,-1,1189,925,0,0
-28,99,0,0,0,0,0,0,0,0,0,-1,1196,925,0,0
-21,99,0,0,0,0,0,0,0,0,0,-1,1203,925,0,0
-14,99,0,0,0,0,0,0,0,0,0,-1,1210,925,0,0
-7,99,0,0,0,0,0,0,0,0,0,-1,1217,925,0,0
0,99,0,0,0,0,0,0,0,0,0,-1,1224,925,0,0
7,99,0,0,0,0,0,0,0,0,0,-1,1231,925,0,0
14,99,0,0,0,0,0,0,0,0,0,-1,1238,925,0,0
21,99,0,0,0,0,0,0,0,0,0,-1,1245,925,0,0
28,99,0,0,0,0,0,0,0,0,0,-1,1252,925,0,0
35,99,0,0,0,0,0,0,0,0,0,-1,1259,925,0,0
42,99,0,0,0,0,0,0,0,0,0,-1,1266,925,0,0
49,99,0,0,0,0,0,0,0,0,0,-1,1273,925,0,0
56,99,0,0,0,0,0,0,0,0,0,-1,1280,925,0,0
63,99,0,0,0,0,0,0,0,0,0,-1,1287,925,0,0
70,99,0,0,0,0,0,0,0,0,0,-1,1294,925,0,0
77,99,0,0,0,0,0,0,0,0,0,-1,1301,925,0,0
84,99,0,0,0,0,0,0,0,0,0,-1,1308,925,0,0
91,99,0,0,0,0,0,0,0,0,0,-1,1315,925,0,0
98,99,0,0,0,0,0,0,0,0,0,-1,1322,925,0,0
105,99,0,0,0,0,0,0,0,0,0,-1,1329,925,0,0
112,99,0,0,0,0,0,0,0,0,0,-1,1336,925,0,0
119,99,0,0,0,0,0,0,0,0,0,-1,1343,925,0,0
126,99,0,0,0,0,0,0,0,0,0,-1,1350,925,0,0
133,99,0,0,0,0,0,0,0,0,0,-1,1357,925,0,0
140,99,0,0,0,0,0,0,0,0,0,-1,1364,925,0,0
147,99,0,0,0,0,0,0,0,0,0,-1,1371,925,0,0
154,99,0,0,0,0,0,0,0,0,0,-1,1378,925,0,0
161,99,0,0,0,0,0,0,0,0,0,-1,1385,925,0,0
168,99,0,0,0,0,0,0,0,0,0,-1,1392,925,0,0
175,99,0,0,0,0,0,0,0,0,0,-1,1399,925,0,0
182,99,0,0,0,0,0,0,0,0,0,-1,1406,925,0,0
189,99,0,0,0,0,0,0,0,0,0,-1,1413,925,0,0
196,99,0,0,0,0,0,0,0,0,0,-1,1420,925,0,0
203,99,0,0,0,0,0,0,0,0,0,-1,1427,925,0,0
210,99,0,0,0,0,0,0,0,0,0,-1,1434,925,0,0
217,99,0,0,0,0,0,0,0,0,0,-1,1441,925,0,0
224,99,0,0,0,0,0,0,0,0,0,-1,1448,925,0,0
231,99,0,0,0,0,0,0,0,0,0,-1,1455,925,0,0
238,99,0,0,0,0,0,0,0,0,0,-1,1462,925,0,0
245,99,0,0,0,0,0,0,0,0,0,-1,1469,925,0,0
252,99,0,0,0,0,0,0,0,0,0,-1,1476,925,0,0
259,99,0,0,0,0,0,0,0,0,0,-1,1483,925,0,0
266,99,0,0,0,0,0,0,0,0,0,-1,1490,925,0,0
273,99,0,0,0,0,0,0,0,0,0,-1,1497,925,0,0
280,99,0,0,0,0,0,0,0,0,0,-1,1504,925,0,0
287,99,0,0,0,0,0,0,0,0,0,-1,1511,925,0,0
294,99,0,0,0,0,0,0,0,0,0,-1,1518,925,0,0
301,99,0,0,0,0,0,0,0,0,0,-1,1525,925,0,0
308,99,0,0,0,0,0,0,0,0,0,-1,1532,925,0,0
315,99,0,0,0,0,0,0,0,0,0,-1,1539,925,0,0
322,99,0,0,0,0,0,0,0,0,0,-1,1546,925,0,0
329,99,0,0,0,0,0,0,0,0,0,-1,1553,925,0,0
336,99,0,0,0,0,0,0,0,0,0,-1,1560,925,0,0
343,99,0,0,0,0,0,0,0,0,0,-1,1567,925,0,0
350,99,0,0,0,0,0,0,0,0,0,-1,1574,925,0,0
357,99,0,0,0,0,0,0,0,0,0,-1,1581,925,0,0
364,99,0,0,0,0,0,0,0,0,0,-1,1588,925,0,0
371,99,0,0,0,0,0,0,0,0,0,-1,1595,925,0,0
378,99,0,0,0,0,0,0,0,0,0,-1,1602,925,0,0
385,99,0,0,0,0,0,0,0,0,0,-1,1609,925,0,0
392,99,0,0,0,0,0,0,0,0,0,-1,1616,925,0,0
399,99,0,0,0,0,0,0,0,0,0,-1,1623,925,0,0
406,99,0,0,0,0,0,0,0,0,0,-1,1630,925,0,0
413,99,0,0,0,0,0,0,0,0,0,-1,1637,925,0,0
420,99,0,0,0,0,0,0,0,0,0,-1,1644,925,0,0
427,99,0,0,0,0,0,0,0,0,0,-1,1651,925,0,0
434,99,0,0,0,0,0,0,0,0,0,-1,1658,925,0,0
441,99,0,0,0,0,0,0,0,0,0,-1,1665,925,0,0
448,99,0,0,0,0,0,0,0,0,0,-1,1672,925,0,0
455,99,0,0,0,0,0,0,0,0,0,-1,1679,925,0,0
462,99,0,0,0,0,0,0,0,0,0,-1,1686,925,0,0
469,99,0,0,0,0,0,0,0,0,0,-1,1693,925,0,0
476,99,0,0,0,0,0,0,0,0,0,-1,1700,925,0,0
483,99,0,0,0,0,0,0,0,0,0,-1,1707,925,0,0
490,99,0,0,0,0,0,0,0,0,0,-1,1714,925,0,0
497,99,0,0,0,0,0,0,0,0,0,-1,1721,925,0,0
504,99,0,0,0,0,0,0,0,0,0,-1,1728,925,0,0
511,99,0,0,0,0,0,0,0,0,0,-1,1735,925,0,0
518,99,0,0,0,0,0,0,0,0,0,-1,1742,925,0,0
525,99,0,0,0,0,0,0,0,0,0,-1,1749,925,0,0
532,99,0,0,0,0,0,0,0,0,0,-1,1756,925,0,0
539,99,0,0,0,0,0,0,0,0,0,-1,1763,925,0,0
546,99,0,0,0,0,0,0,0,0,0,-1,1770,925,0,0
553,99,0,0,0,0,0,0,0,0,0,-1,1777,925,0,0
560,99,0,0,0,0,0,0,0,0,0,-1,1784,925,0,0
567,99,0,0,0,0,0,0,0,0,0,-1,1791,925,0,0
574,99,0,0,0,0,0,0,0,0,0,-1,1798,925,0,0
581,99,0,0,0,0,0,0,0,0,0,-1,1805,925,0,0
588,99,0,0,0,0,0,0,0,0,0,-1,1812,925,0,0
595,99,0,0,0,0,0,0,0,0,0,-1,1819,925,0,0
602,99,0,0,0,0,0,0,0,0,0,-1,1826,925,0,0
609,99,0,0,0,0,0,0,0,0,0,-1,1833,925,0,0
616,99,0,0,0,0,0,0,0,0,0,-1,1840,925,0,0
623,99,0,0,0,0,0,0,0,0,0,-1,1847,925,0,0
630,99,0,0,0,0,0,0,0,0,0,-1,1854,925,0,0
637,99,31.0364,2.8913,-0.00398205,0.00339521,-0.000396838,0.0034165,-0.00400334,-1.51721,0.00428831,0.0470458,1861,925,31.0364,-2.89127
644,99,30.9896,2.98547,-0.0020053,0.00291014,-0.000886535,0.00306514,-0.00216031,-1.3977,0.00303195,0.0413788,1868,925,30.9896,-2.98547
651,99,30.9957,2.97565,-0.000863852,0.00253285,-0.00108996,0.00285252,-0.00118352,-1.28551,0.0023957,0.03996,1875,925,30.9957,-2.97566
658,99,31.1013,2.89819,-0.000529198,0.00238206,-0.000986045,0.0026846,-0.000831733,-1.2731,0.00212202,0.0392207,1882,925,31.1014,-2.89819
665,99,31.1948,2.77802,0,0,0,0,0,0,0,-1,1889,925,31.1949,-2.77802
672,99,31.0432,3.26801,-0.000753089,0.00216759,-0.000293196,0.00219674,-0.000782231,-1.47173,0.00178337,0.0403172,1896,925,31.0432,-3.26799
679,99,31.0261,2.95447,-0.000913022,0.00197496,0.00010817,0.00197901,-0.000917068,1.53341,0.00170911,0.037032,1903,925,31.0261,-2.95448
686,99,30.9277,2.92578,-0.00100112,0.00174158,0.000379602,0.00179315,-0.00105269,1.43577,0.00166148,0.0282535,1910,925,30.9277,-2.92578
693,99,30.9254,2.99341,-0.00107218,0.00158707,0.000554419,0.00169803,-0.00118314,1.37327,0.00167228,0.0220901,1917,925,30.9254,-2.9934
700,99,30.8539,3.24017,0,0,0,0,0,0,0,-1,1924,925,30.8539,-3.24015
707,99,28.4717,3.56958,0,0,0,0,0,0,0,-1,1931,925,28.4716,-3.56955
714,99,28.4928,3.85834,-0.00159828,0.00143882,0.000639963,0.00156816,-0.00172762,1.37137,0.00190356,0.0245629,1938,925,28.4928,-3.85831
721,99,28.3978,4.10492,-0.00136771,0.00162352,0.000487505,0.00170097,-0.00144516,1.41325,0.00181842,0.0214911,1945,925,28.3978,-4.10491
728,99,28.4222,4.39502,-0.00123876,0.00184736,0.000443403,0.0019098,-0.0013012,1.43089,0.00186494,0.0173465,1952,925,28.4223,-4.39502
735,99,28.4016,4.64178,-0.00131796,0.00218742,0.000114922,0.00219119,-0.00132173,1.53806,0.00204878,0.0149824,1959,925,28.4016,-4.64181
742,99,28.3754,4.87769,-0.0016981,0.00258515,-0.0013387,0.00296913,-0.00208208,-1.29147,0.00293127,0.0127305,1966,925,28.3754,-4.8777
749,99,28.3569,5.11377,-0.00254309,0.0020334,-0.00380332,0.00418377,-0.00469346,-1.05621,0.00512809,0.0115989,1973,925,28.357,-5.11378
756,99,28.334,5.32758,-0.00376051,0.00166443,-0.00667073,0.00615307,-0.00824916,-0.978499,0.00834444,0.0125156,1980,925,28.334,-5.32755
763,99,28.3053,5.55939,-0.0057482,0.000524422,-0.0108733,0.0087047,-0.0139285,-0.925808,0.0131828,0.0152553,1987,925,28.3053,-5.55939
770,99,28.2682,5.93774,-0.00849967,-0.00194087,-0.016937,0.0120313,-0.0224719,-0.881026,0.0202221,0.028432,1994,925,28.2682,-5.93776
777,99,28.0975,6.3233,-0.0122626,-0.00647068,-0.025701,0.016497,-0.0352302,-0.841501,0.0305106,0.0410057,2001,925,28.0975,-6.3233
784,99,27.6926,6.40265,-0.0171789,-0.0139698,-0.0381541,0.0226135,-0.0537621,-0.806413,0.0453014,0.0423951,2008,925,27.6927,-6.40265
791,99,27.1694,5.96222,-0.0233465,-0.0252913,-0.0553159,0.0310055,-0.0796433,-0.77661,0.0659083,0.0426113,2015,925,27.1694,-5.96222
798,99,26.9805,5.2403,-0.0309466,-0.0414842,-0.0781922,0.0421542,-0.114585,-0.751758,0.0936588,0.0441586,2022,925,26.9805,-5.24027
805,99,0,0,0,0,0,0,0,0,0,-1,2029,925,0,0
812,99,0,0,0,0,0,0,0,0,0,-1,2036,925,0,0
-700,92,0,0,0,0,0,0,0,0,0,-1,524,932,0,0
-693,92,0,0,0,0,0,0,0,0,0,-1,531,932,0,0
-686,92,-19.7512,-0.272278,0.013534,0.0200856,0.0151916,0.0323506,0.00126902,0.891588,0.0211568,0.0419751,538,932,-19.7512,0.272264
-679,92,-19.0266,-1.34973,0.0118591,0.0234911,0.0196521,0.0381698,-0.00281961,0.929266,0.0264366,0.0462621,545,932,-19.0266,1.34975
-672,92,-19.5524,-1.3725,0.0099831,0.0236146,0.0205324,0.038433,-0.00483524,0.945651,0.0273764,0.0474514,552,932,-19.5524,1.37247
-665,92,-20.0934,3.59155,0,0,0,0,0,0,0,-1,559,932,-20.0934,-3.59154
-658,92,-19.7993,3.78101,0,0,0,0,0,0,0,-1,566,932,-19.7993,-3.78101
-651,92,-19.2919,4.28882,0.00484004,0.0159574,0.0146549,0.0260725,-0.00527502,0.966667,0.0193808,0.0483188,573,932,-19.292,-4.28881
-644,92,-20.4246,3.29456,0.00348841,0.0126254,0.0119552,0.0208553,-0.00474142,0.967905,0.0157241,0.043972,580,932,-20.4246,-3.29455
-637,92,-20.2392,3.20953,0.00243361,0.00955127,0.00939249,0.0160365,-0.00405167,0.966491,0.0122667,0.0261764,587,932,-20.2392,-3.20951
-630,92,-20.2745,2.98334,0.00087102,0.00705955,0.00756103,0.012135,-0.0042044,0.979621,0.00979693,0.0130159,594,932,-20.2745,-2.98331
-623,92,-20.3257,2.78131,-0.000590328,0.00540812,0.0054519,0.00863132,-0.00381353,1.03687,0.00736232,0.00893506,601,932,-20.3257,-2.78129
-616,92,-20.3424,2.57385,-0.0016405,0.00362629,0.00328461,0.00520282,-0.00321703,1.1233,0.00490606,0.00841535,608,932,-20.3424,-2.57383
-609,92,-20.3513,2.36865,-0.00323098,-0.000204562,0.00123414,0.000234894,-0.00367044,1.22871,0.0025289,0.00971831,615,932,-20.3513,-2.36863
-602,92,-20.3368,2.1687,-0.00472585,-0.000403272,0.000521448,-0.000341257,-0.00478787,1.45243,0.00308446,0.0103587,622,932,-20.3368,-2.1687
-595,92,-20.2797,1.9256,-0.00539117,-0.000844489,0.000574732,-0.000772964,-0.00546269,1.44698,0.00341344,0.0170233,629,932,-20.2797,-1.92559
-588,92,-20.2836,1.72302,-0.00592935,-0.000502037,0.000328185,-0.000482264,-0.00594912,1.51062,0.0038155,0.0178147,636,932,-20.2836,-1.72305
-581,92,-20.2906,1.51031,-0.00620005,-0.000339363,1.2943e-05,-0.000339335,-0.00620008,1.56859,0.00402505,0.0161167,643,932,-20.2906,-1.5103
-574,92,-20.6844,1.32593,-0.00623774,-0.000322661,-0.000336333,-0.000303598,-0.0062568,-1.51418,0.00407378,0.0318891,650,932,-20.6844,-1.32594
-567,92,-21.8157,1.16895,0,0,0,0,0,0,0,-1,657,932,-21.8156,-1.16897
-560,92,-21.773,1.08423,-0.00578008,-7.98136e-05,-0.000629118,-1.12057e-05,-0.00584868,-1.46217,0.00389539,0.0344529,664,932,-21.773,-1.08426
-553,92,-21.9332,0.97406,-0.00512003,0.000237387,-0.000739912,0.000337698,-0.00522034,-1.43605,0.00359808,0.0385411,671,932,-21.9332,-0.974052
-546,92,-21.9033,0.872864,-0.00411893,0.00075326,-0.0008543,0.000898713,-0.00426438,-1.40215,0.00318504,0.041714,678,932,-21.9033,-0.872844
-539,92,-21.8405,1.05487,-0.00276414,0.00147701,-0.000978991,0.00169209,-0.00297922,-1.35454,0.00273089,0.038843,685,932,-21.8405,-1.05487
-532,92,-21.9244,1.22656,-0.00113317,0.00243906,-0.00117933,0.00279328,-0.00148739,-1.27901,0.00250949,0.0431131,692,932,-21.9244,-1.22658
-525,92,-22.0192,1.23596,0.000171852,0.00377478,-0.00166695,0.0044277,-0.000481064,-1.19748,0.00312452,0.0427779,699,932,-22.0192,-1.23595
-518,92,-22.1172,1.30609,-0.000480961,0.00580427,-0.00201316,0.00639379,-0.00107048,-1.28593,0.00466052,0.0421088,706,932,-22.1172,-1.30607
-511,92,0,0,0,0,0,0,0,0,0,-1,713,932,0,0
-504,92,0,0,0,0,0,0,0,0,0,-1,720,932,0,0
-497,92,0,0,0,0,0,0,0,0,0,-1,727,932,0,0
-490,92,0,0,0,0,0,0,0,0,0,-1,734,932,0,0
-483,92,0,0,0,0,0,0,0,0,0,-1,741,932,0,0
-476,92,0,0,0,0,0,0,0,0,0,-1,748,932,0,0
-469,92,0,0,0,0,0,0,0,0,0,-1,755,932,0,0
-462,92,0,0,0,0,0,0,0,0,0,-1,762,932,0,0
-455,92,0,0,0,0,0,0,0,0,0,-1,769,932,0,0
-448,92,0,0,0,0,0,0,0,0,0,-1,776,932,0,0
-441,92,0,0,0,0,0,0,0,0,0,-1,783,932,0,0
-434,92,0,0,0,0,0,0,0,0,0,-1,790,932,0,0
-427,92,0,0,0,0,0,0,0,0,0,-1,797,932,0,0
-420,92,0,0,0,0,0,0,0,0,0,-1,804,932,0,0
-413,92,0,0,0,0,0,0,0,0,0,-1,811,932,0,0
-406,92,0,0,0,0,0,0,0,0,0,-1,818,932,0,0
-399,92,0,0,0,0,0,0,0,0,0,-1,825,932,0,0
-392,92,0,0,0,0,0,0,0,0,0,-1,832,932,0,0
-385,92,0,0,0,0,0,0,0,0,0,-1,839,932,0,0
-378,92,0,0,0,0,0,0,0,0,0,-1,846,932,0,0
-371,92,0,0,0,0,0,0,0,0,0,-1,853,932,0,0
-364,92,0,0,0,0,0,0,0,0,0,-1,860,932,0,0
-357,92,0,0,0,0,0,0,0,0,0,-1,867,932,0,0
-350,92,0,0,0,0,0,0,0,0,0,-1,874,932,0,0
-343,92,0,0,0,0,0,0,0,0,0,-1,881,932,0,0
-336,92,0,0,0,0,0,0,0,0,0,-1,888,932,0,0
-329,92,0,0,0,0,0,0,0,0,0,-1,895,932,0,0
-322,92,0,0,0,0,0,0,0,0,0,-1,902,932,0,0
-315,92,0,0,0,0,0,0,0,0,0,-1,909,932,0,0
-308,92,0,0,0,0,0,0,0,0,0,-1,916,932,0,0
-301,92,0,0,0,0,0,0,0,0,0,-1,923,932,0,0
-294,92,0,0,0,0,0,0,0,0,0,-1,930,932,0,0
-287,92,0,0,0,0,0,0,0,0,0,-1,937,932,0,0
-280,92,0,0,0,0,0,0,0,0,0,-1,944,932,0,0
-273,92,0,0,0,0,0,0,0,0,0,-1,951,932,0,0
-266,92,0,0,0,0,0,0,0,0,0,-1,958,932,0,0
-259,92,0,0,0,0,0,0,0,0,0,-1,965,932,0,0
-252,92,0,0,0,0,0,0,0,0,0,-1,972,932,0,0
-245,92,0,0,0,0,0,0,0,0,0,-1,979,932,0,0
-238,92,0,0,0,0,0,0,0,0,0,-1,986,932,0,0
-231,92,0,0,0,0,0,0,0,0,0,-1,993,932,0,0
-224,92,0,0,0,0,0,0,0,0,0,-1,1000,932,0,0
-217,92,0,0,0,0,0,0,0,0,0,-1,1007,932,0,0
-210,92,0,0,0,0,0,0,0,0,0,-1,1014,932,0,0
-203,92,0,0,0,0,0,0,0,0,0,-1,1021,932,0,0
-196,92,0,0,0,0,0,0,0,0,0,-1,1028,932,0,0
-189,92,0,0,0,0,0,0,0,0,0,-1,1035,932,0,0
-182,92,0,0,0,0,0,0,0,0,0,-1,1042,932,0,0
-175,92,0,0,0,0,0,0,0,0,0,-1,1049,932,0,0
-168,92,0,0,0,0,0,0,0,0,0,-1,1056,932,0,0
-161,92,0,0,0,0,0,0,0,0,0,-1,1063,932,0,0
-154,92,0,0,0,0,0,0,0,0,0,-1,1070,932,0,0
-147,92,0,0,0,0,0,0,0,0,0,-1,1077,932,0,0
-140,92,0,0,0,0,0,0,0,0,0,-1,1084,932,0,0
-133,92,0,0,0,0,0,0,0,0,0,-1,1091,932,0,0
-126,92,0,0,0,0,0,0,0,0,0,-1,1098,932,0,0
-119,92,0,0,0,0,0,0,0,0,0,-1,1105,932,0,0
-112,92,0,0,0,0,0,0,0,0,0,-1,1112,932,0,0
-105,92,0,0,0,0,0,0,0,0,0,-1,1119,932,0,0
-98,92,0,0,0,0,0,0,0,0,0,-1,1126,932,0,0
-91,92,0,0,0,0,0,0,0,0,0,-1,1133,932,0,0
-84,92,0,0,0,0,0,0,0,0,0,-1,1140,932,0,0
-77,92,0,0,0,0,0,0,0,0,0,-1,1147,932,0,0
-70,92,0,0,0,0,0,0,0,0,0,-1,1154,932,0,0
-63,92,0,0,0,0,0,0,0,0,0,-1,1161,932,0,0
-56,92,0,0,0,0,0,0,0,0,0,-1,1168,932,0,0
-49,92,0,0,0,0,0,0,0,0,0,-1,1175,932,0,0
-42,92,0,0,0,0,0,0,0,0,0,-1,1182,932,0,0
-35,92,0,0,0,0,0,0,0,0,0,-1,1189,932,0,0
-28,92,0,0,0,0,0,0,0,0,0,-1,1196,932,0,0
-21,92,0,0,0,0,0,0,0,0,0,-1,1203,932,0,0
-14,92,0,0,0,0,0,0,0,0,0,-1,1210,932,0,0
-7,92,0,0,0,0,0,0,0,0,0,-1,1217,932,0,0
0,92,0,0,0,0,0,0,0,0,0,-1,1224,932,0,0
7,92,0,0,0,0,0,0,0,0,0,-1,1231,932,0,0
14,92,0,0,0,0,0,0,0,0,0,-1,1238,932,0,0
21,92,0,0,0,0,0,0,0,0,0,-1,1245,932,0,0
28,92,0,0,0,0,0,0,0,0,0,-1,1252,932,0,0
35,92,0,0,0,0,0,0,0,0,0,-1,1259,932,0,0
42,92,0,0,0,0,0,0,0,0,0,-1,1266,932,0,0
49,92,0,0,0,0,0,0,0,0,0,-1,1273,932,0,0
56,92,0,0,0,0,0,0,0,0,0,-1,1280,932,0,0
63,92,0,0,0,0,0,0,0,0,0,-1,1287,932,0,0
70,92,0,0,0,0,0,0,0,0,0,-1,1294,932,0,0
77,92,0,0,0,0,0,0,0,0,0,-1,1301,932,0,0
84,92,0,0,0,0,0,0,0,0,0,-1,1308,932,0,0
91,92,0,0,0,0,0,0,0,0,0,-1,1315,932,0,0
98,92,0,0,0,0,0,0,0,0,0,-1,1322,932,0,0
105,92,0,0,0,0,0,0,0,0,0,-1,1329,932,0,0
112,92,0,0,0,0,0,0,0,0,0,-1,1336,932,0,0
119,92,0,0,0,0,0,0,0,0,0,-1,1343,932,0,0
126,92,0,0,0,0,0,0,0,0,0,-1,1350,932,0,0
133,92,0,0,0,0,0,0,0,0,0,-1,1357,932,0,0
140,92,0,0,0,0,0,0,0,0,0,-1,1364,932,0,0
147,92,0,0,0,0,0,0,0,0,0,-1,1371,932,0,0
154,92,0,0,0,0,0,0,0,0,0,-1,1378,932,0,0
161,92,0,0,0,0,0,0,0,0,0,-1,1385,932,0,0
168,92,0,0,0,0,0,0,0,0,0,-1,1392,932,0,0
175,92,0,0,0,0,0,0,0,0,0,-1,1399,932,0,0
182,92,0,0,0,0,0,0,0,0,0,-1,1406,932,0,0
189,92,0,0,0,0,0,0,0,0,0,-1,1413,932,0,0
196,92,0,0,0,0,0,0,0,0,0,-1,1420,932,0,0
203,92,0,0,0,0,0,0,0,0,0,-1,1427,932,0,0
210,92,0,0,0,0,0,0,0,0,0,-1,1434,932,0,0
217,92,0,0,0,0,0,0,0,0,0,-1,1441,932,0,0
224,92,0,0,0,0,0,0,0,0,0,-1,1448,932,0,0
231,92,0,0,0,0,0,0,0,0,0,-1,1455,932,0,0
238,92,0,0,0,0,0,0,0,0,0,-1,1462,932,0,0
245,92,0,0,0,0,0,0,0,0,0,-1,1469,932,0,0
252,92,0,0,0,0,0,0,0,0,0,-1,1476,932,0,0
259,92,0,0,0,0,0,0,0,0,0,-1,1483,932,0,0
266,92,0,0,0,0,0,0,0,0,0,-1,1490,932,0,0
273,92,0,0,0,0,0,0,0,0,0,-1,1497,932,0,0
280,92,0,0,0,0,0,0,0,0,0,-1,1504,932,0,0
287,92,0,0,0,0,0,0,0,0,0,-1,1511,932,0,0
294,92,0,0,0,0,0,0,0,0,0,-1,1518,932,0,0
301,92,0,0,0,0,0,0,0,0,0,-1,1525,932,0,0
308,92,0,0,0,0,0,0,0,0,0,-1,1532,932,0,0
315,92,0,0,0,0,0,0,0,0,0,-1,1539,932,0,0
322,92,0,0,0,0,0,0,0,0,0,-1,1546,932,0,0
329,92,0,0,0,0,0,0,0,0,0,-1,1553,932,0,0
336,92,0,0,0,0,0,0,0,0,0,-1,1560,932,0,0
343,92,0,0,0,0,0,0,0,0,0,-1,1567,932,0,0
350,92,0,0,0,0,0,0,0,0,0,-1,1574,932,0,0
357,92,0,0,0,0,0,0,0,0,0,-1,1581,932,0,0
364,92,0,0,0,0,0,0,0,0,0,-1,1588,932,0,0
371,92,0,0,0,0,0,0,0,0,0,-1,1595,932,0,0
378,92,0,0,0,0,0,0,0,0,0,-1,1602,932,0,0
385,92,0,0,0,0,0,0,0,0,0,-1,1609,932,0,0
392,92,0,0,0,0,0,0,0,0,0,-1,1616,932,0,0
399,92,0,0,0,0,0,0,0,0,0,-1,1623,932,0,0
406,92,0,0,0,0,0,0,0,0,0,-1,1630,932,0,0
413,92,0,0,0,0,0,0,0,0,0,-1,1637,932,0,0
420,92,0,0,0,0,0,0,0,0,0,-1,1644,932,0,0
427,92,0,0,0,0,0,0,0,0,0,-1,1651,932,0,0
434,92,0,0,0,0,0,0,0,0,0,-1,1658,932,0,0
441,92,0,0,0,0,0,0,0,0,0,-1,1665,932,0,0
448,92,0,0,0,0,0,0,0,0,0,-1,1672,932,0,0
455,92,0,0,0,0,0,0,0,0,0,-1,1679,932,0,0
462,92,0,0,0,0,0,0,0,0,0,-1,1686,932,0,0
469,92,0,0,0,0,0,0,0,0,0,-1,1693,932,0,0
476,92,0,0,0,0,0,0,0,0,0,-1,1700,932,0,0
483,92,0,0,0,0,0,0,0,0,0,-1,1707,932,0,0
490,92,0,0,0,0,0,0,0,0,0,-1,1714,932,0,0
497,92,0,0,0,0,0,0,0,0,0,-1,1721,932,0,0
504,92,0,0,0,0,0,0,0,0,0,-1,1728,932,0,0
511,92,0,0,0,0,0,0,0,0,0,-1,1735,932,0,0
518,92,0,0,0,0,0,0,0,0,0,-1,1742,932,0,0
525,92,0,0,0,0,0,0,0,0,0,-1,1749,932,0,0
532,92,0,0,0,0,0,0,0,0,0,-1,1756,932,0,0
539,92,0,0,0,0,0,0,0,0,0,-1,1763,932,0,0
546,92,0,0,0,0,0,0,0,0,0,-1,1770,932,0,0
553,92,0,0,0,0,0,0,0,0,0,-1,1777,932,0,0
560,92,0,0,0,0,0,0,0,0,0,-1,1784,932,0,0
567,92,0,0,0,0,0,0,0,0,0,-1,1791,932,0,0
574,92,0,0,0,0,0,0,0,0,0,-1,1798,932,0,0
581,92,0,0,0,0,0,0,0,0,0,-1,1805,932,0,0
588,92,0,0,0,0,0,0,0,0,0,-1,1812,932,0,0
595,92,0,0,0,0,0,0,0,0,0,-1,1819,932,0,0
602,92,0,0,0,0,0,0,0,0,0,-1,1826,932,0,0
609,92,0,0,0,0,0,0,0,0,0,-1,1833,932,0,0
616,92,0,0,0,0,0,0,0,0,0,-1,1840,932,0,0
623,92,0,0,0,0,0,0,0,0,0,-1,1847,932,0,0
630,92,0,0,0,0,0,0,0,0,0,-1,1854,932,0,0
637,92,31.0563,2.80212,-0.00346882,0.00293643,0.000449444,0.00296782,-0.0035002,1.50108,0.00373852,0.0495753,1861,932,31.0563,-2.80211
644,92,30.9575,2.86615,-0.00153183,0.00251299,-0.000216602,0.00252456,-0.0015434,-1.51745,0.0023713,0.041756,1868,932,30.9576,-2.86615
651,92,30.9446,2.93005,-0.000473371,0.00217737,-0.000529874,0.00227937,-0.000575367,-1.38063,0.00174331,0.0390697,1875,932,30.9446,-2.93005
658,92,30.9805,3.01337,-0.000246455,0.00208621,-0.000484416,0.0021828,-0.000343052,-1.37397,0.001582,0.0406262,1882,932,30.9805,-3.01338
665,92,31.1761,2.87372,-0.000400413,0.00207012,-0.000185394,0.00208395,-0.000414248,-1.49631,0.001546,0.0401355,1889,932,31.1762,-2.87371
672,92,31.2113,2.94104,-0.000727659,0.00200392,0.000248679,0.00202638,-0.000750114,1.48074,0.0016585,0.0394741,1896,932,31.2114,-2.94103
679,92,31.1716,2.87219,-0.0010133,0.00186029,0.000670216,0.00200892,-0.00116193,1.35257,0.00185234,0.0362822,1903,932,31.1716,-2.87217
686,92,30.9969,2.9209,-0.0011741,0.00164722,0.000951528,0.00193814,-0.00146502,1.27408,0.00197113,0.0296703,1910,932,30.997,-2.92088
693,92,30.9384,3.02905,-0.00124996,0.00149568,0.0011148,0.00189131,-0.0016456,1.22977,0.00204367,0.0208585,1917,932,30.9384,-3.02907
700,92,30.9098,3.14105,-0.00143975,0.00139951,0.00120434,0.00184155,-0.00188179,1.21903,0.00214971,0.0438481,1924,932,30.9098,-3.14108
707,92,30.8494,3.32141,0,0,0,0,0,0,0,-1,1931,932,30.8493,-3.32144
714,92,28.8003,3.82654,0,0,0,0,0,0,0,-1,1938,932,28.8003,-3.82653
721,92,28.7192,4.17676,-0.00176854,0.00159952,0.000860819,0.00180678,-0.0019758,1.33453,0.0021846,0.0264016,1945,932,28.7193,-4.17678
728,92,28.6473,4.46527,-0.00168853,0.00183253,0.000733732,0.00197931,-0.00183531,1.37336,0.0022029,0.0196219,1952,932,28.6473,-4.4653
735,92,28.6598,4.68134,-0.00185495,0.00221174,0.000319573,0.0022367,-0.00187991,1.49285,0.0023797,0.0154695,1959,932,28.6598,-4.68132
742,92,28.6816,4.87323,-0.00232995,0.00257384,-0.00114881,0.00282962,-0.00258573,-1.35171,0.00312761,0.0159506,1966,932,28.6816,-4.87322
749,92,28.6447,5.10303,-0.00329522,0.00201071,-0.00351117,0.00375848,-0.00504299,-1.10893,0.00509954,0.0151802,1973,932,28.6447,-5.10302
756,92,28.6042,5.32617,-0.00470188,0.00160958,-0.00625835,0.00546281,-0.00855512,-1.01892,0.00815863,0.0138757,1980,932,28.6043,-5.32618
763,92,28.5859,5.55084,-0.00690949,0.000434338,-0.0102078,0.00761058,-0.0140857,-0.95805,0.012711,0.0159937,1987,932,28.586,-5.55084
770,92,28.5743,5.85712,-0.00986484,-0.00204803,-0.0158007,0.0103205,-0.0222334,-0.906642,0.0192099,0.0260971,1994,932,28.5743,-5.8571
777,92,28.5544,6.21228,-0.0137734,-0.00657877,-0.0237759,0.0138704,-0.0342226,-0.860479,0.0285832,0.0432793,2001,932,28.5545,-6.21226
784,92,28.322,6.76593,-0.0188066,-0.0141678,-0.0351092,0.0186985,-0.0516729,-0.818381,0.0420895,0.0474094,2008,932,28.322,-6.76594
791,92,28.0602,7.20056,-0.0250026,-0.0257745,-0.0507481,0.0253611,-0.0761381,-0.781595,0.060996,0.046582,2015,932,28.0602,-7.20056
798,92,27.8484,7.47241,-0.0325262,-0.0426509,-0.0716795,0.0342695,-0.109447,-0.750144,0.0866759,0.0470199,2022,932,27.8485,-7.47241
805,92,0,0,0,0,0,0,0,0,0,-1,2029,932,0,0
812,92,0,0,0,0,0,0,0,0,0,-1,2036,932,0,0
-700,85,0,0,0,0,0,0,0,0,0,-1,524,939,0,0
-693,85,0,0,0,0,0,0,0,0,0,-1,531,939,0,0
-686,85,-20.0046,-0.382202,0.0087983,0.0139413,0.0169426,0.0285065,-0.00576685,0.860712,0.0211898,0.0433237,538,939,-20.0046,0.382221
-679,85,-20.1364,-0.563843,0.00703767,0.0175307,0.0217033,0.0346126,-0.0100443,0.903992,0.027052,0.0440705,545,939,-20.1364,0.563827
-672,85,-19.7464,-1.09082,0.00535303,0.0185298,0.02273,0.035607,-0.0117242,0.92646,0.0284626,0.0463623,552,939,-19.7464,1.09083
-665,85,-20.262,3.47241,0.00387038,0.0179332,0.0216119,0.0336288,-0.0118252,0.942672,0.0272307,0.0458347,559,939,-20.262,-3.47241
-658,85,-20.3526,3.38831,0.00266642,0.0163283,0.0192975,0.0299682,-0.0109735,0.955507,0.024471,0.0484502,566,939,-20.3526,-3.38828
-651,85,-20.4146,3.31531,0.00171717,0.0141191,0.0164145,0.0254648,-0.00962855,0.965999,0.0209375,0.0438362,573,939,-20.4145,-3.3153
-644,85,-20.4701,3.25171,0.000974713,0.0116152,0.0133816,0.0206954,-0.00810552,0.974606,0.0171496,0.0327444,580,939,-20.4701,-3.25172
-637,85,-20.4834,3.14154,0.000546398,0.0092129,0.0104837,0.0162236,-0.00646433,0.981371,0.0134968,0.0177021,587,939,-20.4834,-3.14157
-630,85,-20.5122,2.93976,-0.000604546,0.00714081,0.00833489,0.0124588,-0.00592252,1.00288,0.0108338,0.0111251,594,939,-20.5122,-2.93975
-623,85,-20.5601,2.73401,-0.00178093,0.00579074,0.00586367,0.00898452,-0.00497472,1.07205,0.00816946,0.00921376,601,939,-20.5601,-2.73402
-616,85,-20.571,2.55267,-0.00258879,0.00425151,0.00336737,0.005631,-0.00396828,1.18199,0.0055698,0.00943554,608,939,-20.5711,-2.55267
-609,85,-20.5715,2.35962,-0.00397577,0.000456804,0.00101409,0.000677789,-0.00419676,1.35623,0.00304898,0.013238,615,939,-20.5715,-2.35961
-602,85,-20.5804,2.16949,-0.00534787,0.00017398,7.79455e-05,0.00017508,-0.00534897,1.55668,0.00362575,0.0167043,622,939,-20.5804,-2.16951
-595,85,-20.5361,1.98352,-0.00597047,-0.000381747,7.15314e-05,-0.000380831,-0.00597139,1.558,0.00386025,0.0162037,629,939,-20.5361,-1.98355
-588,85,-20.5043,1.76178,-0.00648544,-0.000218372,-0.000193827,-0.000212383,-0.00649143,-1.53991,0.00425859,0.0148894,636,939,-20.5043,-1.76178
-581,85,-20.5091,1.57788,-0.00673743,-0.000136434,-0.000517687,-9.60815e-05,-0.00677779,-1.493,0.00448684,0.0193985,643,939,-20.5091,-1.57787
-574,85,-20.9208,1.45001,-0.00675809,-0.000107915,-0.000841378,-3.11574e-06,-0.00686289,-1.44688,0.00457422,0.0360753,650,939,-20.9208,-1.45001
-567,85,-21.6661,1.40393,0,0,0,0,0,0,0,-1,657,939,-21.6661,-1.40391
-560,85,-21.7408,1.22125,-0.00621438,0.000250309,-0.00116629,0.000454283,-0.00641835,-1.39766,0.00443809,0.0333036,664,939,-21.7409,-1.22124
-553,85,-21.7543,1.04437,-0.00540735,0.000635622,-0.00128852,0.0008989,-0.00567063,-1.36925,0.00411293,0.0395474,671,939,-21.7542,-1.04435
-546,85,-21.8177,0.963989,-0.00421029,0.00120449,-0.00142482,0.00155652,-0.00456233,-1.32857,0.00367205,0.041743,678,939,-21.8177,-0.964014
-539,85,-21.8259,1.27618,-0.00264964,0.0019696,-0.00158863,0.00246321,-0.00314325,-1.26954,0.00324482,0.0391117,685,939,-21.8259,-1.27618
-532,85,-21.8307,1.29755,-0.00085291,0.00296042,-0.00189553,0.00374232,-0.00163482,-1.17956,0.00318298,0.0406147,692,939,-21.8307,-1.29757
-525,85,-21.9593,1.25848,0.000230835,0.00435033,-0.00260152,0.00560878,-0.00102762,-1.12024,0.00412462,0.040449,699,939,-21.9593,-1.25845
-518,85,-22.0364,1.27441,-0.00140497,0.00648187,-0.00322301,0.00763142,-0.00255453,-1.22819,0.00611951,0.0394759,706,939,-22.0364,-1.27441
-511,85,0,0,0,0,0,0,0,0,0,-1,713,939,0,0
-504,85,0,0,0,0,0,0,0,0,0,-1,720,939,0,0
-497,85,0,0,0,0,0,0,0,0,0,-1,727,939,0,0
-490,85,0,0,0,0,0,0,0,0,0,-1,734,939,0,0
-483,85,0,0,0,0,0,0,0,0,0,-1,741,939,0,0
-476,85,0,0,0,0,0,0,0,0,0,-1,748,939,0,0
-469,85,0,0,0,0,0,0,0,0,0,-1,755,939,0,0
-462,85,0,0,0,0,0,0,0,0,0,-1,762,939,0,0
-455,85,0,0,0,0,0,0,0,0,0,-1,769,939,0,0
-448,85,0,0,0,0,0,0,0,0,0,-1,776,939,0,0
-441,85,0,0,0,0,0,0,0,0,0,-1,783,939,0,0
-434,85,0,0,0,0,0,0,0,0,0,-1,790,939,0,0
-427,85,0,0,0,0,0,0,0,0,0,-1,797,939,0,0
-420,85,0,0,0,0,0,0,0,0,0,-1,804,939,0,0
-413,85,0,0,0,0,0,0,0,0,0,-1,811,939,0,0
-406,85,0,0,0,0,0,0,0,0,0,-1,818,939,0,0
-399,85,0,0,0,0,0,0,0,0,0,-1,825,939,0,0
-392,85,0,0,0,0,0,0,0,0,0,-1,832,939,0,0
-385,85,0,0,0,0,0,0,0,0,0,-1,839,939,0,0
-378,85,0,0,0,0,0,0,0,0,0,-1,846,939,0,0
-371,85,0,0,0,0,0,0,0,0,0,-1,853,939,0,0
-364,85,0,0,0,0,0,0,0,0,0,-1,860,939,0,0
-357,85,0,0,0,0,0,0,0,0,0,-1,867,939,0,0
-350,85,0,0,0,0,0,0,0,0,0,-1,874,939,0,0
-343,85,0,0,0,0,0,0,0,0,0,-1,881,939,0,0
-336,85,0,0,0,0,0,0,0,0,0,-1,888,939,0,0
-329,85,0,0,0,0,0,0,0,0,0,-1,895,939,0,0
-322,85,0,0,0,0,0,0,0,0,0,-1,902,939,0,0
-315,85,0,0,0,0,0,0,0,0,0,-1,909,939,0,0
-308,85,0,0,0,0,0,0,0,0,0,-1,916,939,0,0
-301,85,0,0,0,0,0,0,0,0,0,-1,923,939,0,0
-294,85,0,0,0,0,0,0,0,0,0,-1,930,939,0,0
-287,85,0,0,0,0,0,0,0,0,0,-1,937,939,0,0
-280,85,0,0,0,0,0,0,0,0,0,-1,944,939,0,0
-273,85,0,0,0,0,0,0,0,0,0,-1,951,939,0,0
-266,85,0,0,0,0,0,0,0,0,0,-1,958,939,0,0
-259,85,0,0,0,0,0,0,0,0,0,-1,965,939,0,0
-252,85,0,0,0,0,0,0,0,0,0,-1,972,939,0,0
-245,85,0,0,0,0,0,0,0,0,0,-1,979,939,0,0
-238,85,0,0,0,0,0,0,0,0,0,-1,986,939,0,0
-231,85,0,0,0,0,0,0,0,0,0,-1,993,939,0,0
-224,85,0,0,0,0,0,0,0,0,0,-1,1000,939,0,0
-217,85,0,0,0,0,0,0,0,0,0,-1,1007,939,0,0
-210,85,0,0,0,0,0,0,0,0,0,-1,1014,939,0,0
-203,85,0,0,0,0,0,0,0,0,0,-1,1021,939,0,0
-196,85,0,0,0,0,0,0,0,0,0,-1,1028,939,0,0
-189,85,0,0,0,0,0,0,0,0,0,-1,1035,939,0,0
-182,85,0,0,0,0,0,0,0,0,0,-1,1042,939,0,0
-175,85,0,0,0,0,0,0,0,0,0,-1,1049,939,0,0
-168,85,0,0,0,0,0,0,0,0,0,-1,1056,939,0,0
-161,85,0,0,0,0,0,0,0,0,0,-1,1063,939,0,0
-154,85,0,0,0,0,0,0,0,0,0,-1,1070,939,0,0
-147,85,0,0,0,0,0,0,0,0,0,-1,1077,939,0,0
-140,85,0,0,0,0,0,0,0,0,0,-1,1084,939,0,0
-133,85,0,0,0,0,0,0,0,0,0,-1,1091,939,0,0
-126,85,0,0,0,0,0,0,0,0,0,-1,1098,939,0,0
-119,85,0,0,0,0,0,0,0,0,0,-1,1105,939,0,0
-112,85,0,0,0,0,0,0,0,0,0,-1,1112,939,0,0
-105,85,0,0,0,0,0,0,0,0,0,-1,1119,939,0,0
-98,85,0,0,0,0,0,0,0,0,0,-1,1126,939,0,0
-91,85,0,0,0,0,0,0,0,0,0,-1,1133,939,0,0
-84,85,0,0,0,0,0,0,0,0,0,-1,1140,939,0,0
-77,85,0,0,0,0,0,0,0,0,0,-1,1147,939,0,0
-70,85,0,0,0,0,0,0,0,0,0,-1,1154,939,0,0
-63,85,0,0,0,0,0,0,0,0,0,-1,1161,939,0,0
-56,85,0,0,0,0,0,0,0,0,0,-1,1168,939,0,0
-49,85,0,0,0,0,0,0,0,0,0,-1,1175,939,0,0
-42,85,0,0,0,0,0,0,0,0,0,-1,1182,939,0,0
-35,85,0,0,0,0,0,0,0,0,0,-1,1189,939,0,0
-28,85,0,0,0,0,0,0,0,0,0,-1,1196,939,0,0
-21,85,0,0,0,0,0,0,0,0,0,-1,1203,939,0,0
-14,85,0,0,0,0,0,0,0,0,0,-1,1210,939,0,0
-7,85,0,0,0,0,0,0,0,0,0,-1,1217,939,0,0
0,85,0,0,0,0,0,0,0,0,0,-1,1224,939,0,0
7,85,0,0,0,0,0,0,0,0,0,-1,1231,939,0,0
14,85,0,0,0,0,0,0,0,0,0,-1,1238,939,0,0
21,85,0,0,0,0,0,0,0,0,0,-1,1245,939,0,0
28,85,0,0,0,0,0,0,0,0,0,-1,1252,939,0,0
35,85,0,0,0,0,0,0,0,0,0,-1,1259,939,0,0
42,85,0,0,0,0,0,0,0,0,0,-1,1266,939,0,0
49,85,0,0,0,0,0,0,0,0,0,-1,1273,939,0,0
56,85,0,0,0,0,0,0,0,0,0,-1,1280,939,0,0
63,85,0,0,0,0,0,0,0,0,0,-1,1287,939,0,0
70,85,0,0,0,0,0,0,0,0,0,-1,1294,939,0,0
77,85,0,0,0,0,0,0,0,0,0,-1,1301,939,0,0
84,85,0,0,0,0,0,0,0,0,0,-1,1308,939,0,0
91,85,0,0,0,0,0,0,0,0,0,-1,1315,939,0,0
98,85,0,0,0,0,0,0,0,0,0,-1,1322,939,0,0
105,85,0,0,0,0,0,0,0,0,0,-1,1329,939,0,0
112,85,0,0,0,0,0,0,0,0,0,-1,1336,939,0,0
119,85,0,0,0,0,0,0,0,0,0,-1,1343,939,0,0
126,85,0,0,0,0,0,0,0,0,0,-1,1350,939,0,0
133,85,0,0,0,0,0,0,0,0,0,-1,1357,939,0,0
140,85,0,0,0,0,0,0,0,0,0,-1,1364,939,0,0
147,85,0,0,0,0,0,0,0,0,0,-1,1371,939,0,0
154,85,0,0,0,0,0,0,0,0,0,-1,1378,939,0,0
161,85,0,0,0,0,0,0,0,0,0,-1,1385,939,0,0
168,85,0,0,0,0,0,0,0,0,0,-1,1392,939,0,0
175,85,0,0,0,0,0,0,0,0,0,-1,1399,939,0,0
182,85,0,0,0,0,0,0,0,0,0,-1,1406,939,0,0
189,85,0,0,0,0,0,0,0,0,0,-1,1413,939,0,0
196,85,0,0,0,0,0,0,0,0,0,-1,1420,939,0,0
203,85,0,0,0,0,0,0,0,0,0,-1,1427,939,0,0
210,85,0,0,0,0,0,0,0,0,0,-1,1434,939,0,0
217,85,0,0,0,0,0,0,0,0,0,-1,1441,939,0,0
224,85,0,0,0,0,0,0,0,0,0,-1,1448,939,0,0
231,85,0,0,0,0,0,0,0,0,0,-1,1455,939,0,0
238,85,0,0,0,0,0,0,0,0,0,-1,1462,939,0,0
245,85,0,0,0,0,0,0,0,0,0,-1,1469,939,0,0
252,85,0,0,0,0,0,0,0,0,0,-1,1476,939,0,0
259,85,0,0,0,0,0,0,0,0,0,-1,1483,939,0,0
266,85,0,0,0,0,0,0,0,0,0,-1,1490,939,0,0
273,85,0,0,0,0,0,0,0,0,0,-1,1497,939,0,0
280,85,0,0,0,0,0,0,0,0,0,-1,1504,939,0,0
287,85,0,0,0,0,0,0,0,0,0,-1,1511,939,0,0
294,85,0,0,0,0,0,0,0,0,0,-1,1518,939,0,0
301,85,0,0,0,0,0,0,0,0,0,-1,1525,939,0,0
308,85,0,0,0,0,0,0,0,0,0,-1,1532,939,0,0
315,85,0,0,0,0,0,0,0,0,0,-1,1539,939,0,0
322,85,0,0,0,0,0,0,0,0,0,-1,1546,939,0,0
329,85,0,0,0,0,0,0,0,0,0,-1,1553,939,0,0
336,85,0,0,0,0,0,0,0,0,0,-1,1560,939,0,0
343,85,0,0,0,0,0,0,0,0,0,-1,1567,939,0,0
350,85,0,0,0,0,0,0,0,0,0,-1,1574,939,0,0
357,85,0,0,0,0,0,0,0,0,0,-1,1581,939,0,0
364,85,0,0,0,0,0,0,0,0,0,-1,1588,939,0,0
371,85,0,0,0,0,0,0,0,0,0,-1,1595,939,0,0
378,85,0,0,0,0,0,0,0,0,0,-1,1602,939,0,0
385,85,0,0,0,0,0,0,0,0,0,-1,1609,939,0,0
392,85,0,0,0,0,0,0,0,0,0,-1,1616,939,0,0
399,85,0,0,0,0,0,0,0,0,0,-1,1623,939,0,0
406,85,0,0,0,0,0,0,0,0,0,-1,1630,939,0,0
413,85,0,0,0,0,0,0,0,0,0,-1,1637,939,0,0
420,85,0,0,0,0,0,0,0,0,0,-1,1644,939,0,0
427,85,0,0,0,0,0,0,0,0,0,-1,1651,939,0,0
434,85,0,0,0,0,0,0,0,0,0,-1,1658,939,0,0
441,85,0,0,0,0,0,0,0,0,0,-1,1665,939,0,0
448,85,0,0,0,0,0,0,0,0,0,-1,1672,939,0,0
455,85,0,0,0,0,0,0,0,0,0,-1,1679,939,0,0
462,85,0,0,0,0,0,0,0,0,0,-1,1686,939,0,0
469,85,0,0,0,0,0,0,0,0,0,-1,1693,939,0,0
476,85,0,0,0,0,0,0,0,0,0,-1,1700,939,0,0
483,85,0,0,0,0,0,0,0,0,0,-1,1707,939,0,0
490,85,0,0,0,0,0,0,0,0,0,-1,1714,939,0,0
497,85,0,0,0,0,0,0,0,0,0,-1,1721,939,0,0
504,85,0,0,0,0,0,0,0,0,0,-1,1728,939,0,0
511,85,0,0,0,0,0,0,0,0,0,-1,1735,939,0,0
518,85,0,0,0,0,0,0,0,0,0,-1,1742,939,0,0
525,85,0,0,0,0,0,0,0,0,0,-1,1749,939,0,0
532,85,0,0,0,0,0,0,0,0,0,-1,1756,939,0,0
539,85,0,0,0,0,0,0,0,0,0,-1,1763,939,0,0
546,85,0,0,0,0,0,0,0,0,0,-1,1770,939,0,0
553,85,0,0,0,0,0,0,0,0,0,-1,1777,939,0,0
560,85,0,0,0,0,0,0,0,0,0,-1,1784,939,0,0
567,85,0,0,0,0,0,0,0,0,0,-1,1791,939,0,0
574,85,0,0,0,0,0,0,0,0,0,-1,1798,939,0,0
581,85,0,0,0,0,0,0,0,0,0,-1,1805,939,0,0
588,85,0,0,0,0,0,0,0,0,0,-1,1812,939,0,0
595,85,0,0,0,0,0,0,0,0,0,-1,1819,939,0,0
602,85,0,0,0,0,0,0,0,0,0,-1,1826,939,0,0
609,85,0,0,0,0,0,0,0,0,0,-1,1833,939,0,0
616,85,0,0,0,0,0,0,0,0,0,-1,1840,939,0,0
623,85,0,0,0,0,0,0,0,0,0,-1,1847,939,0,0
630,85,0,0,0,0,0,0,0,0,0,-1,1854,939,0,0
637,85,31.1476,2.64551,-0.00261092,0.00262463,0.000855786,0.00276097,-0.00274725,1.41282,0.00318017,0.0499849,1861,939,31.1475,-2.64554
644,85,30.9933,2.73041,-0.000752822,0.00220731,0.00015502,0.00221541,-0.000760918,1.51862,0.00178547,0.0417079,1868,939,30.9933,-2.73043
651,85,30.9163,2.69067,0.000168693,0.00186088,-0.000172362,0.00187825,0.000151315,-1.47031,0.0012049,0.0395604,1875,939,30.9162,-2.6907
658,85,30.902,2.95288,0.000253816,0.00177417,-0.000114366,0.00178272,0.000245261,-1.49613,0.00111575,0.0421022,1882,939,30.902,-2.95289
665,85,31.0465,3.08026,-5.76339e-05,0.00178085,0.000244604,0.00181284,-8.96211e-05,1.44076,0.00123951,0.0417948,1889,939,31.0465,-3.08025
672,85,31.1466,2.7691,-0.000535556,0.001733,0.000736977,0.00195139,-0.00075395,1.2827,0.00161212,0.0397023,1896,939,31.1465,-2.76911
679,85,31.1605,2.76068,-0.000966733,0.00160253,0.00119954,0.00207551,-0.00143971,1.19522,0.00204055,0.0372337,1903,939,31.1605,-2.76068
686,85,31.0215,2.93756,-0.00122553,0.00138988,0.00149377,0.00206748,-0.00190313,1.14494,0.00229309,0.0328353,1910,939,31.0215,-2.93759
693,85,30.9281,3.00702,-0.00134203,0.00122861,0.00164417,0.00203024,-0.00214366,1.11715,0.0024101,0.0251743,1917,939,30.928,-3.00701
700,85,30.943,3.02209,-0.00155405,0.00114772,0.00170061,0.00196869,-0.00237502,1.12104,0.0025115,0.031653,1924,939,30.9429,-3.02208
707,85,30.6661,3.59406,0,0,0,0,0,0,0,-1,1931,939,30.6662,-3.59408
714,85,28.9419,3.91016,0,0,0,0,0,0,0,-1,1938,939,28.9419,-3.91016
721,85,28.9265,4.19073,-0.00216515,0.00140568,0.00124014,0.00179412,-0.00255359,1.26725,0.00252289,0.0262182,1945,939,28.9265,-4.19076
728,85,28.8843,4.50323,-0.00214087,0.00166222,0.00102645,0.00192157,-0.00240022,1.32331,0.00250028,0.0199835,1952,939,28.8843,-4.50321
735,85,28.9116,4.6947,-0.00238129,0.00210969,0.000543243,0.00217447,-0.00244607,1.45211,0.0026692,0.0177857,1959,939,28.9116,-4.69468
742,85,28.9385,4.87579,-0.00293109,0.00248231,-0.000868989,0.00261839,-0.00306717,-1.41547,0.00328596,0.0142367,1966,939,28.9385,-4.87577
749,85,28.8835,5.09943,-0.0039595,0.00200497,-0.00304211,0.0032828,-0.00523733,-1.17313,0.00496206,0.0125803,1973,939,28.8836,-5.09944
756,85,28.8368,5.31299,-0.00546212,0.00168868,-0.0055629,0.0047261,-0.00849954,-1.07102,0.00773873,0.0123956,1980,939,28.8368,-5.31301
763,85,28.8225,5.51721,-0.00775339,0.000623306,-0.00912502,0.00647529,-0.0136054,-1.00055,0.0118347,0.0132739,1987,939,28.8225,-5.51724
770,85,28.8226,5.703,-0.0107514,-0.00170009,-0.0141123,0.00859449,-0.021046,-0.940561,0.017609,0.0192644,1994,939,28.8226,-5.70302
777,85,28.7986,5.86432,-0.0146059,-0.0059942,-0.0211788,0.011312,-0.0319121,-0.885686,0.0258829,0.0400584,2001,939,28.7986,-5.86431
784,85,28.3461,6.50079,-0.0195215,-0.0133641,-0.0312938,0.015002,-0.0478877,-0.834431,0.037928,0.0459537,2008,939,28.3461,-6.50081
791,85,27.9441,6.88739,0,0,0,0,0,0,0,-1,2015,939,27.9441,-6.88738
798,85,27.4827,7.01672,0,0,0,0,0,0,0,-1,2022,939,27.4825,-7.01669
805,85,29.429,3.64368,0,0,0,0,0,0,0,-1,2029,939,29.429,-3.64365
812,85,0,0,0,0,0,0,0,0,0,-1,2036,939,0,0
-700,78,0,0,0,0,0,0,0,0,0,-1,524,946,0,0
-693,78,0,0,0,0,0,0,0,0,0,-1,531,946,0,0
-686,78,-19.8444,-0.667053,0.00217526,0.00708893,0.0180712,0.0228695,-0.0136053,0.852961,0.021284,0.0451675,538,946,-19.8444,0.667027
-679,78,-19.544,-1.03387,0.000706886,0.0108531,0.0227964,0.029134,-0.017574,0.894884,0.0272408,0.0485549,545,946,-19.544,1.03391
-672,78,-19.7465,-0.851868,-0.000435793,0.0126484,0.0238422,0.0308298,-0.0186172,0.919298,0.028837,0.0466097,552,946,-19.7465,0.85188
-665,78,-20.0661,-0.647827,-0.00122211,0.0130958,0.0227144,0.0297527,-0.017879,0.938057,0.0277835,0.0493321,559,946,-20.0661,0.647837
-658,78,-20.593,3.59741,-0.00166693,0.0125911,0.0203332,0.0270089,-0.0160846,0.954008,0.0251451,0.0470898,566,946,-20.593,-3.59743
-651,78,-20.6674,3.39801,-0.00184876,0.0114186,0.0173261,0.0233375,-0.0137677,0.968225,0.0216589,0.043626,573,946,-20.6674,-3.39798
-644,78,-20.6288,3.20764,-0.00183712,0.00981252,0.0141148,0.0192572,-0.0112818,0.98109,0.017831,0.0265142,580,946,-20.6288,-3.20762
-637,78,-20.6724,3.05695,-0.00158333,0.00816258,0.0110692,0.015384,-0.00880472,0.992746,0.0141365,0.0135691,587,946,-20.6724,-3.05693
-630,78,-20.7373,2.88068,-0.00223431,0.00659707,0.00871883,0.0119546,-0.00759186,1.0198,0.0113785,0.0124303,594,946,-20.7373,-2.8807
-623,78,-20.7804,2.69043,-0.00300485,0.00563133,0.00597011,0.00868129,-0.00605481,1.09849,0.00855282,0.0121089,601,946,-20.7804,-2.69046
-616,78,-20.7828,2.52191,-0.00342483,0.00444411,0.00323027,0.00560028,-0.004581,1.22708,0.00588798,0.0111371,608,946,-20.7828,-2.52193
-609,78,-20.7338,2.34839,-0.00451259,0.000891963,0.000663095,0.00097213,-0.00459275,1.45048,0.00343208,0.012256,615,946,-20.7338,-2.34838
-602,78,-20.7526,2.16742,-0.00573346,0.000546911,-0.000452041,0.000579281,-0.00576583,-1.49931,0.00405081,0.0157726,622,946,-20.7526,-2.16741
-595,78,-20.7327,1.97229,-0.00630975,-0.000106744,-0.000525823,-6.24862e-05,-0.00635401,-1.48683,0.00421533,0.0145948,629,946,-20.7327,-1.97227
-588,78,-20.7175,1.82434,-0.00680259,-0.000120053,-0.000799588,-2.57117e-05,-0.00689694,-1.45335,0.00458941,0.0121601,636,946,-20.7175,-1.82432
-581,78,-20.7816,1.66199,-0.00703738,-0.000110272,-0.0011211,6.66503e-05,-0.0072143,-1.41428,0.0048319,0.024532,643,946,-20.7816,-1.66201
-574,78,-21.2366,1.4408,-0.00703826,-7.90481e-05,-0.00140601,0.000194281,-0.00731159,-1.37879,0.00494042,0.0296514,650,946,-21.2366,-1.44079
-567,78,-21.8044,1.31342,0,0,0,0,0,0,0,-1,657,946,-21.8044,-1.31341
-560,78,-21.7936,1.30481,-0.00640055,0.00037115,-0.00171345,0.000780019,-0.00680941,-1.33655,0.0048207,0.0323185,664,946,-21.7936,-1.30479
-553,78,-21.7043,1.12476,-0.0054582,0.000807608,-0.00181791,0.00129684,-0.00594743,-1.30791,0.00446052,0.0433202,671,946,-21.7043,-1.12477
-546,78,-21.7475,1.09888,-0.00408987,0.00143314,-0.00193557,0.00204393,-0.00470066,-1.26513,0.00399342,0.0440301,678,946,-21.7475,-1.09889
-539,78,-21.7543,1.33997,-0.00235394,0.00225404,-0.002088,0.0030594,-0.0031593,-1.20267,0.00359053,0.0391902,685,946,-21.7543,-1.33999
-532,78,-21.8119,1.29022,-0.000439885,0.00329923,-0.00244239,0.00450546,-0.00164612,-1.11206,0.00367729,0.0370592,692,946,-21.8119,-1.29024
-525,78,-21.8091,1.2395,0.000412253,0.00476879,-0.00330084,0.00654532,-0.00136427,-1.07705,0.00488226,0.0384537,699,946,-21.8091,-1.23952
-518,78,-21.8037,1.08923,-0.00201271,0.00702292,-0.00413708,0.00863096,-0.00362075,-1.20008,0.00726801,0.0411643,706,946,-21.8037,-1.08924
-511,78,0,0,0,0,0,0,0,0,0,-1,713,946,0,0
-504,78,0,0,0,0,0,0,0,0,0,-1,720,946,0,0
-497,78,0,0,0,0,0,0,0,0,0,-1,727,946,0,0
-490,78,0,0,0,0,0,0,0,0,0,-1,734,946,0,0
-483,78,0,0,0,0,0,0,0,0,0,-1,741,946,0,0
-476,78,0,0,0,0,0,0,0,0,0,-1,748,946,0,0
-469,78,0,0,0,0,0,0,0,0,0,-1,755,946,0,0
-462,78,0,0,0,0,0,0,0,0,0,-1,762,946,0,0
-455,78,0,0,0,0,0,0,0,0,0,-1,769,946,0,0
-448,78,0,0,0,0,0,0,0,0,0,-1,776,946,0,0
-441,78,0,0,0,0,0,0,0,0,0,-1,783,946,0,0
-434,78,0,0,0,0,0,0,0,0,0,-1,790,946,0,0
-427,78,0,0,0,0,0,0,0,0,0,-1,797,946,0,0
-420,78,0,0,0,0,0,0,0,0,0,-1,804,946,0,0
-413,78,0,0,0,0,0,0,0,0,0,-1,811,946,0,0
-406,78,0,0,0,0,0,0,0,0,0,-1,818,946,0,0
-399,78,0,0,0,0,0,0,0,0,0,-1,825,946,0,0
-392,78,0,0,0,0,0,0,0,0,0,-1,832,946,0,0
-385,78,0,0,0,0,0,0,0,0,0,-1,839,946,0,0
-378,78,0,0,0,0,0,0,0,0,0,-1,846,946,0,0
-371,78,0,0,0,0,0,0,0,0,0,-1,853,946,0,0
-364,78,0,0,0,0,0,0,0,0,0,-1,860,946,0,0
-357,78,0,0,0,0,0,0,0,0,0,-1,867,946,0,0
-350,78,0,0,0,0,0,0,0,0,0,-1,874,946,0,0
-343,78,0,0,0,0,0,0,0,0,0,-1,881,946,0,0
-336,78,0,0,0,0,0,0,0,0,0,-1,888,946,0,0
-329,78,0,0,0,0,0,0,0,0,0,-1,895,946,0,0
-322,78,0,0,0,0,0,0,0,0,0,-1,902,946,0,0
-315,78,0,0,0,0,0,0,0,0,0,-1,909,946,0,0
-308,78,0,0,0,0,0,0,0,0,0,-1,916,946,0,0
-301,78,0,0,0,0,0,0,0,0,0,-1,923,946,0,0
-294,78,0,0,0,0,0,0,0,0,0,-1,930,946,0,0
-287,78,0,0,0,0,0,0,0,0,0,-1,937,946,0,0
-280,78,0,0,0,0,0,0,0,0,0,-1,944,946,0,0
-273,78,0,0,0,0,0,0,0,0,0,-1,951,946,0,0
-266,78,0,0,0,0,0,0,0,0,0,-1,958,946,0,0
-259,78,0,0,0,0,0,0,0,0,0,-1,965,946,0,0
-252,78,0,0,0,0,0,0,0,0,0,-1,972,946,0,0
-245,78,0,0,0,0,0,0,0,0,0,-1,979,946,0,0
-238,78,0,0,0,0,0,0,0,0,0,-1,986,946,0,0
-231,78,0,0,0,0,0,0,0,0,0,-1,993,946,0,0
-224,78,0,0,0,0,0,0,0,0,0,-1,1000,946,0,0
-217,78,0,0,0,0,0,0,0,0,0,-1,1007,946,0,0
-210,78,0,0,0,0,0,0,0,0,0,-1,1014,946,0,0
-203,78,0,0,0,0,0,0,0,0,0,-1,1021,946,0,0
-196,78,0,0,0,0,0,0,0,0,0,-1,1028,946,0,0
-189,78,0,0,0,0,0,0,0,0,0,-1,1035,946,0,0
-182,78,0,0,0,0,0,0,0,0,0,-1,1042,946,0,0
-175,78,0,0,0,0,0,0,0,0,0,-1,1049,946,0,0
-168,78,0,0,0,0,0,0,0,0,0,-1,1056,946,0,0
-161,78,0,0,0,0,0,0,0,0,0,-1,1063,946,0,0
-154,78,0,0,0,0,0,0,0,0,0,-1,1070,946,0,0
-147,78,0,0,0,0,0,0,0,0,0,-1,1077,946,0,0
-140,78,0,0,0,0,0,0,0,0,0,-1,1084,946,0,0
-133,78,0,0,0,0,0,0,0,0,0,-1,1091,946,0,0
-126,78,0,0,0,0,0,0,0,0,0,-1,1098,946,0,0
-119,78,0,0,0,0,0,0,0,0,0,-1,1105,946,0,0
-112,78,0,0,0,0,0,0,0,0,0,-1,1112,946,0,0
-105,78,0,0,0,0,0,0,0,0,0,-1,1119,946,0,0
-98,78,0,0,0,0,0,0,0,0,0,-1,1126,946,0,0
-91,78,0,0,0,0,0,0,0,0,0,-1,1133,946,0,0
-84,78,0,0,0,0,0,0,0,0,0,-1,1140,946,0,0
-77,78,0,0,0,0,0,0,0,0,0,-1,1147,946,0,0
-70,78,0,0,0,0,0,0,0,0,0,-1,1154,946,0,0
-63,78,0,0,0,0,0,0,0,0,0,-1,1161,946,0,0
-56,78,0,0,0,0,0,0,0,0,0,-1,1168,946,0,0
-49,78,0,0,0,0,0,0,0,0,0,-1,1175,946,0,0
-42,78,0,0,0,0,0,0,0,0,0,-1,1182,946,0,0
-35,78,0,0,0,0,0,0,0,0,0,-1,1189,946,0,0
-28,78,0,0,0,0,0,0,0,0,0,-1,1196,946,0,0
-21,78,0,0,0,0,0,0,0,0,0,-1,1203,946,0,0
-14,78,0,0,0,0,0,0,0,0,0,-1,1210,946,0,0
-7,78,0,0,0,0,0,0,0,0,0,-1,1217,946,0,0
0,78,0,0,0,0,0,0,0,0,0,-1,1224,946,0,0
7,78,0,0,0,0,0,0,0,0,0,-1,1231,946,0,0
14,78,0,0,0,0,0,0,0,0,0,-1,1238,946,0,0
21,78,0,0,0,0,0,0,0,0,0,-1,1245,946,0,0
28,78,0,0,0,0,0,0,0,0,0,-1,1252,946,0,0
35,78,0,0,0,0,0,0,0,0,0,-1,1259,946,0,0
42,78,0,0,0,0,0,0,0,0,0,-1,1266,946,0,0
49,78,0,0,0,0,0,0,0,0,0,-1,1273,946,0,0
56,78,0,0,0,0,0,0,0,0,0,-1,1280,946,0,0
63,78,0,0,0,0,0,0,0,0,0,-1,1287,946,0,0
70,78,0,0,0,0,0,0,0,0,0,-1,1294,946,0,0
77,78,0,0,0,0,0,0,0,0,0,-1,1301,946,0,0
84,78,0,0,0,0,0,0,0,0,0,-1,1308,946,0,0
91,78,0,0,0,0,0,0,0,0,0,-1,1315,946,0,0
98,78,0,0,0,0,0,0,0,0,0,-1,1322,946,0,0
105,78,0,0,0,0,0,0,0,0,0,-1,1329,946,0,0
112,78,0,0,0,0,0,0,0,0,0,-1,1336,946,0,0
119,78,0,0,0,0,0,0,0,0,0,-1,1343,946,0,0
126,78,0,0,0,0,0,0,0,0,0,-1,1350,946,0,0
133,78,0,0,0,0,0,0,0,0,0,-1,1357,946,0,0
140,78,0,0,0,0,0,0,0,0,0,-1,1364,946,0,0
147,78,0,0,0,0,0,0,0,0,0,-1,1371,946,0,0
154,78,0,0,0,0,0,0,0,0,0,-1,1378,946,0,0
161,78,0,0,0,0,0,0,0,0,0,-1,1385,946,0,0
168,78,0,0,0,0,0,0,0,0,0,-1,1392,946,0,0
175,78,0,0,0,0,0,0,0,0,0,-1,1399,946,0,0
182,78,0,0,0,0,0,0,0,0,0,-1,1406,946,0,0
189,78,0,0,0,0,0,0,0,0,0,-1,1413,946,0,0
196,78,0,0,0,0,0,0,0,0,0,-1,1420,946,0,0
203,78,0,0,0,0,0,0,0,0,0,-1,1427,946,0,0
210,78,0,0,0,0,0,0,0,0,0,-1,1434,946,0,0
217,78,0,0,0,0,0,0,0,0,0,-1,1441,946,0,0
224,78,0,0,0,0,0,0,0,0,0,-1,1448,946,0,0
231,78,0,0,0,0,0,0,0,0,0,-1,1455,946,0,0
238,78,0,0,0,0,0,0,0,0,0,-1,1462,946,0,0
245,78,0,0,0,0,0,0,0,0,0,-1,1469,946,0,0
252,78,0,0,0,0,0,0,0,0,0,-1,1476,946,0,0
259,78,0,0,0,0,0,0,0,0,0,-1,1483,946,0,0
266,78,0,0,0,0,0,0,0,0,0,-1,1490,946,0,0
273,78,0,0,0,0,0,0,0,0,0,-1,1497,946,0,0
280,78,0,0,0,0,0,0,0,0,0,-1,1504,946,0,0
287,78,0,0,0,0,0,0,0,0,0,-1,1511,946,0,0
294,78,0,0,0,0,0,0,0,0,0,-1,1518,946,0,0
301,78,0,0,0,0,0,0,0,0,0,-1,1525,946,0,0
308,78,0,0,0,0,0,0,0,0,0,-1,1532,946,0,0
315,78,0,0,0,0,0,0,0,0,0,-1,1539,946,0,0
322,78,0,0,0,0,0,0,0,0,0,-1,1546,946,0,0
329,78,0,0,0,0,0,0,0,0,0,-1,1553,946,0,0
336,78,0,0,0,0,0,0,0,0,0,-1,1560,946,0,0
343,78,0,0,0,0,0,0,0,0,0,-1,1567,946,0,0
350,78,0,0,0,0,0,0,0,0,0,-1,1574,946,0,0
357,78,0,0,0,0,0,0,0,0,0,-1,1581,946,0,0
364,78,0,0,0,0,0,0,0,0,0,-1,1588,946,0,0
371,78,0,0,0,0,0,0,0,0,0,-1,1595,946,0,0
378,78,0,0,0,0,0,0,0,0,0,-1,1602,946,0,0
385,78,0,0,0,0,0,0,0,0,0,-1,1609,946,0,0
392,78,0,0,0,0,0,0,0,0,0,-1,1616,946,0,0
399,78,0,0,0,0,0,0,0,0,0,-1,1623,946,0,0
406,78,0,0,0,0,0,0,0,0,0,-1,1630,946,0,0
413,78,0,0,0,0,0,0,0,0,0,-1,1637,946,0,0
420,78,0,0,0,0,0,0,0,0,0,-1,1644,946,0,0
427,78,0,0,0,0,0,0,0,0,0,-1,1651,946,0,0
434,78,0,0,0,0,0,0,0,0,0,-1,1658,946,0,0
441,78,0,0,0,0,0,0,0,0,0,-1,1665,946,0,0
448,78,0,0,0,0,0,0,0,0,0,-1,1672,946,0,0
455,78,0,0,0,0,0,0,0,0,0,-1,1679,946,0,0
462,78,0,0,0,0,0,0,0,0,0,-1,1686,946,0,0
469,78,0,0,0,0,0,0,0,0,0,-1,1693,946,0,0
476,78,0,0,0,0,0,0,0,0,0,-1,1700,946,0,0
483,78,0,0,0,0,0,0,0,0,0,-1,1707,946,0,0
490,78,0,0,0,0,0,0,0,0,0,-1,1714,946,0,0
497,78,0,0,0,0,0,0,0,0,0,-1,1721,946,0,0
504,78,0,0,0,0,0,0,0,0,0,-1,1728,946,0,0
511,78,0,0,0,0,0,0,0,0,0,-1,1735,946,0,0
518,78,0,0,0,0,0,0,0,0,0,-1,1742,946,0,0
525,78,0,0,0,0,0,0,0,0,0,-1,1749,946,0,0
532,78,0,0,0,0,0,0,0,0,0,-1,1756,946,0,0
539,78,0,0,0,0,0,0,0,0,0,-1,1763,946,0,0
546,78,0,0,0,0,0,0,0,0,0,-1,1770,946,0,0
553,78,0,0,0,0,0,0,0,0,0,-1,1777,946,0,0
560,78,0,0,0,0,0,0,0,0,0,-1,1784,946,0,0
567,78,0,0,0,0,0,0,0,0,0,-1,1791,946,0,0
574,78,0,0,0,0,0,0,0,0,0,-1,1798,946,0,0
581,78,0,0,0,0,0,0,0,0,0,-1,1805,946,0,0
588,78,0,0,0,0,0,0,0,0,0,-1,1812,946,0,0
595,78,0,0,0,0,0,0,0,0,0,-1,1819,946,0,0
602,78,0,0,0,0,0,0,0,0,0,-1,1826,946,0,0
609,78,0,0,0,0,0,0,0,0,0,-1,1833,946,0,0
616,78,0,0,0,0,0,0,0,0,0,-1,1840,946,0,0
623,78,0,0,0,0,0,0,0,0,0,-1,1847,946,0,0
630,78,0,0,0,0,0,0,0,0,0,-1,1854,946,0,0
637,78,31.1212,2.79822,-0.000928775,0.00184195,0.00124552,0.00231952,-0.00140635,1.20465,0.00217257,0.046279,1861,946,31.1213,-2.79821
644,78,30.9502,2.73138,0.000449851,0.00151155,0.000557083,0.00175021,0.000211193,1.16604,0.00110317,0.0411198,1868,946,30.9502,-2.7314
651,78,30.8751,2.64215,0.000999246,0.00123574,0.00020989,0.0013584,0.000876587,1.04193,0.000795237,0.0403937,1875,946,30.8752,-2.64217
658,78,30.9788,2.8681,0.000836395,0.00123298,0.000267581,0.00136773,0.000701642,1.10428,0.00078975,0.0401625,1882,946,30.9788,-2.86807
665,78,31.1245,3.1308,0.000314934,0.00137345,0.000686021,0.00171065,-2.2259e-05,1.11396,0.00114792,0.0419109,1889,946,31.1245,-3.13078
672,78,31.0938,2.78418,-0.000336554,0.00144804,0.00123975,0.00208322,-0.000971727,1.09732,0.00180227,0.0406093,1896,946,31.0938,-2.78417
679,78,31.072,2.73822,-0.000928254,0.00140998,0.00175001,0.00234547,-0.00186374,1.07988,0.00243549,0.0369815,1903,946,31.0721,-2.7382
686,78,30.932,2.99963,-0.0012941,0.00126512,0.00207679,0.00242487,-0.00245384,1.0615,0.00281674,0.0351763,1910,946,30.932,-2.99961
693,78,30.9126,2.9317,-0.00145157,0.00112693,0.00222605,0.00241012,-0.00273477,1.04788,0.00297237,0.0291071,1917,946,30.9126,-2.93172
700,78,30.9084,2.92334,-0.00167563,0.00108443,0.00224454,0.00233925,-0.00293045,1.06103,0.00304884,0.0225641,1924,946,30.9084,-2.92332
707,78,30.6917,3.46027,-0.00205419,0.00111633,0.00215835,0.00220904,-0.00314691,1.10214,0.00310802,0.0456436,1931,946,30.6916,-3.46029
714,78,29.0458,4.07599,0,0,0,0,0,0,0,-1,1938,946,29.0458,-4.076
721,78,29.1066,4.24493,-0.0025714,0.00140594,0.00165014,0.00200141,-0.00316687,1.22448,0.00300909,0.025871,1945,946,29.1065,-4.24495
728,78,29.1515,4.48987,-0.00261761,0.00167093,0.00133578,0.00205296,-0.00299964,1.29223,0.00293414,0.0220765,1952,946,29.1514,-4.48987
735,78,29.155,4.70325,-0.00294393,0.00213486,0.000776347,0.00225088,-0.00305995,1.42245,0.00307805,0.0159548,1959,946,29.155,-4.70323
742,78,29.1494,4.88672,-0.00359589,0.00250963,-0.000598566,0.00256776,-0.00365402,-1.47399,0.00361035,0.0137087,1966,946,29.1494,-4.88673
749,78,29.084,5.09027,-0.00469934,0.00218225,-0.00261985,0.00306612,-0.0055832,-1.24541,0.00506368,0.0131605,1973,946,29.084,-5.09027
756,78,29.0801,5.27386,-0.00627928,0.00206471,-0.00495723,0.00437188,-0.00858646,-1.1352,0.00761226,0.0145295,1980,946,29.0801,-5.27386
763,78,29.052,5.44952,-0.00860495,0.0013177,-0.00816855,0.00591357,-0.0132008,-1.05831,0.0112999,0.0139426,1987,946,29.052,-5.44954
770,78,29.0392,5.60883,-0.0115783,-0.000517354,-0.0125664,0.00768174,-0.0197774,-0.992693,0.0163582,0.0181597,1994,946,29.0392,-5.60884
777,78,28.8556,5.87152,0,0,0,0,0,0,0,-1,2001,946,28.8556,-5.87151
784,78,28.4233,6.2182,0,0,0,0,0,0,0,-1,2008,946,28.4233,-6.21818
791,78,27.9911,6.56488,0,0,0,0,0,0,0,-1,2015,946,27.9911,-6.56486
798,78,29.4351,4.84198,0,0,0,0,0,0,0,-1,2022,946,29.435,-4.84197
805,78,29.2786,3.61005,0,0,0,0,0,0,0,-1,2029,946,29.2786,-3.61005
812,78,0,0,0,0,0,0,0,0,0,-1,2036,946,0,0
-700,71,0,0,0,0,0,0,0,0,0,-1,524,953,0,0
-693,71,0,0,0,0,0,0,0,0,0,-1,531,953,0,0
-686,71,-19.306,-0.837952,-0.00513691,-0.00147521,0.019487,0.0162667,-0.0228789,0.832237,0.0227079,0.0449251,538,953,-19.306,0.83793
-679,71,-19.4841,-0.684631,-0.00569944,0.00342545,0.0238253,0.0231212,-0.0253952,0.880001,0.0280212,0.045178,545,953,-19.4841,0.684626
-672,71,-19.8466,-0.494263,-0.00599294,0.00663421,0.0246368,0.0257536,-0.0251123,0.910832,0.0293682,0.0440254,552,953,-19.8466,0.49426
-665,71,-20.2163,-0.420532,-0.00597136,0.00851791,0.0233365,0.0257084,-0.0231619,0.935903,0.0282281,0.0450201,559,953,-20.2163,0.420507
-658,71,-21.1117,3.66809,-0.00566373,0.00934393,0.0208054,0.0239573,-0.0202771,0.958471,0.0255682,0.0488256,566,953,-21.1117,-3.6681
-651,71,-21.0238,3.4162,-0.00514947,0.00932263,0.0176553,0.0211672,-0.016994,0.979883,0.0220763,0.0442626,573,953,-21.0238,-3.41622
-644,71,-20.8329,3.17963,-0.00448833,0.00865498,0.0142938,0.0178154,-0.0136488,1.00087,0.0182189,0.0314968,580,953,-20.8329,-3.17962
-637,71,-20.8765,3.00775,-0.00364501,0.00771896,0.0111254,0.0145294,-0.0104554,1.02149,0.0144887,0.0137736,587,953,-20.8765,-3.00777
-630,71,-20.9305,2.84418,-0.00382244,0.00665297,0.00860239,0.0114867,-0.00865621,1.05885,0.0116677,0.0133397,594,953,-20.9305,-2.84417
-623,71,-20.9744,2.67731,-0.00417746,0.00602593,0.00567335,0.00855406,-0.00670559,1.15159,0.00883168,0.013097,601,953,-20.9744,-2.67733
-616,71,-20.9786,2.50208,-0.00421099,0.00518126,0.00279222,0.00594866,-0.00497838,1.30258,0.00631702,0.0130244,608,953,-20.9786,-2.50205
-609,71,-20.9221,2.34204,-0.00494921,0.00187857,0.000108152,0.00188028,-0.00495092,1.55496,0.00407464,0.0138213,615,953,-20.9221,-2.34204
-602,71,-20.888,2.17072,-0.00591099,0.00138428,-0.00111258,0.00155018,-0.0060769,-1.42277,0.00465484,0.0157257,622,953,-20.888,-2.17071
-595,71,-20.9103,2.02307,-0.00635513,0.000582772,-0.00125036,0.000801236,-0.0065736,-1.39782,0.00467243,0.0162929,629,953,-20.9103,-2.02307
-588,71,-20.9035,1.85944,-0.00673143,0.000289481,-0.00153269,0.000609488,-0.00705144,-1.36497,0.00491673,0.0169849,636,953,-20.9035,-1.85941
-581,71,-21.079,1.54047,-0.00688738,0.000165173,-0.00183264,0.000612961,-0.00733517,-1.33115,0.00510671,0.0285091,643,953,-21.079,-1.54049
-574,71,-21.5905,1.30072,-0.00683242,0.000150586,-0.00206343,0.000714739,-0.00739657,-1.30391,0.00518574,0.0340664,650,953,-21.5905,-1.30071
-567,71,-22.0152,1.10284,0,0,0,0,0,0,0,-1,657,953,-22.0152,-1.10282
-560,71,-21.8483,1.29614,-0.00601915,0.00055327,-0.00234159,0.00130219,-0.00676807,-1.26125,0.00500292,0.0288361,664,953,-21.8483,-1.29615
-553,71,-21.7903,1.39764,-0.00493911,0.000939075,-0.00242376,0.00180956,-0.0058096,-1.226,0.00459656,0.0431886,671,953,-21.7904,-1.39767
-546,71,-21.8044,1.42279,-0.0034119,0.00148222,-0.00251962,0.00254751,-0.00447719,-1.17079,0.0041064,0.0428318,678,953,-21.8044,-1.42281
-539,71,-21.9885,1.35577,0,0,0,0,0,0,0,-1,685,953,-21.9885,-1.35578
-532,71,-21.9075,1.20398,0.000547013,0.00307423,-0.00308045,0.00514017,-0.00151892,-0.980034,0.00402966,0.0435787,692,953,-21.9074,-1.20398
-525,71,-21.7385,1.12256,0.00131412,0.0044035,-0.00412437,0.00726296,-0.00154534,-0.964576,0.00543087,0.0449014,699,953,-21.7384,-1.12253
-518,71,0,0,0,0,0,0,0,0,0,-1,706,953,0,0
-511,71,0,0,0,0,0,0,0,0,0,-1,713,953,0,0
-504,71,0,0,0,0,0,0,0,0,0,-1,720,953,0,0
-497,71,0,0,0,0,0,0,0,0,0,-1,727,953,0,0
-490,71,0,0,0,0,0,0,0,0,0,-1,734,953,0,0
-483,71,0,0,0,0,0,0,0,0,0,-1,741,953,0,0
-476,71,0,0,0,0,0,0,0,0,0,-1,748,953,0,0
-469,71,0,0,0,0,0,0,0,0,0,-1,755,953,0,0
-462,71,0,0,0,0,0,0,0,0,0,-1,762,953,0,0
-455,71,0,0,0,0,0,0,0,0,0,-1,769,953,0,0
-448,71,0,0,0,0,0,0,0,0,0,-1,776,953,0,0
-441,71,0,0,0,0,0,0,0,0,0,-1,783,953,0,0
-434,71,0,0,0,0,0,0,0,0,0,-1,790,953,0,0
-427,71,0,0,0,0,0,0,0,0,0,-1,797,953,0,0
-420,71,0,0,0,0,0,0,0,0,0,-1,804,953,0,0
-413,71,0,0,0,0,0,0,0,0,0,-1,811,953,0,0
-406,71,0,0,0,0,0,0,0,0,0,-1,818,953,0,0
-399,71,0,0,0,0,0,0,0,0,0,-1,825,953,0,0
-392,71,0,0,0,0,0,0,0,0,0,-1,832,953,0,0
-385,71,0,0,0,0,0,0,0,0,0,-1,839,953,0,0
-378,71,0,0,0,0,0,0,0,0,0,-1,846,953,0,0
-371,71,0,0,0,0,0,0,0,0,0,-1,853,953,0,0
-364,71,0,0,0,0,0,0,0,0,0,-1,860,953,0,0
-357,71,0,0,0,0,0,0,0,0,0,-1,867,953,0,0
-350,71,0,0,0,0,0,0,0,0,0,-1,874,953,0,0
-343,71,0,0,0,0,0,0,0,0,0,-1,881,953,0,0
-336,71,0,0,0,0,0,0,0,0,0,-1,888,953,0,0
-329,71,0,0,0,0,0,0,0,0,0,-1,895,953,0,0
-322,71,0,0,0,0,0,0,0,0,0,-1,902,953,0,0
-315,71,0,0,0,0,0,0,0,0,0,-1,909,953,0,0
-308,71,0,0,0,0,0,0,0,0,0,-1,916,953,0,0
-301,71,0,0,0,0,0,0,0,0,0,-1,923,953,0,0
-294,71,0,0,0,0,0,0,0,0,0,-1,930,953,0,0
-287,71,0,0,0,0,0,0,0,0,0,-1,937,953,0,0
-280,71,0,0,0,0,0,0,0,0,0,-1,944,953,0,0
-273,71,0,0,0,0,0,0,0,0,0,-1,951,953,0,0
-266,71,0,0,0,0,0,0,0,0,0,-1,958,953,0,0
-259,71,0,0,0,0,0,0,0,0,0,-1,965,953,0,0
-252,71,0,0,0,0,0,0,0,0,0,-1,972,953,0,0
-245,71,0,0,0,0,0,0,0,0,0,-1,979,953,0,0
-238,71,0,0,0,0,0,0,0,0,0,-1,986,953,0,0
-231,71,0,0,0,0,0,0,0,0,0,-1,993,953,0,0
-224,71,0,0,0,0,0,0,0,0,0,-1,1000,953,0,0
-217,71,0,0,0,0,0,0,0,0,0,-1,1007,953,0,0
-210,71,0,0,0,0,0,0,0,0,0,-1,1014,953,0,0
-203,71,0,0,0,0,0,0,0,0,0,-1,1021,953,0,0
-196,71,0,0,0,0,0,0,0,0,0,-1,1028,953,0,0
-189,71,0,0,0,0,0,0,0,0,0,-1,1035,953,0,0
-182,71,0,0,0,0,0,0,0,0,0,-1,1042,953,0,0
-175,71,0,0,0,0,0,0,0,0,0,-1,1049,953,0,0
-168,71,0,0,0,0,0,0,0,0,0,-1,1056,953,0,0
-161,71,0,0,0,0,0,0,0,0,0,-1,1063,953,0,0
-154,71,0,0,0,0,0,0,0,0,0,-1,1070,953,0,0
-147,71,0,0,0,0,0,0,0,0,0,-1,1077,953,0,0
-140,71,0,0,0,0,0,0,0,0,0,-1,1084,953,0,0
-133,71,0,0,0,0,0,0,0,0,0,-1,1091,953,0,0
-126,71,0,0,0,0,0,0,0,0,0,-1,1098,953,0,0
-119,71,0,0,0,0,0,0,0,0,0,-1,1105,953,0,0
-112,71,0,0,0,0,0,0,0,0,0,-1,1112,953,0,0
-105,71,0,0,0,0,0,0,0,0,0,-1,1119,953,0,0
-98,71,0,0,0,0,0,0,0,0,0,-1,1126,953,0,0
-91,71,0,0,0,0,0,0,0,0,0,-1,1133,953,0,0
-84,71,0,0,0,0,0,0,0,0,0,-1,1140,953,0,0
-77,71,0,0,0,0,0,0,0,0,0,-1,1147,953,0,0
-70,71,0,0,0,0,0,0,0,0,0,-1,1154,953,0,0
-63,71,0,0,0,0,0,0,0,0,0,-1,1161,953,0,0
-56,71,0,0,0,0,0,0,0,0,0,-1,1168,953,0,0
-49,71,0,0,0,0,0,0,0,0,0,-1,1175,953,0,0
-42,71,0,0,0,0,0,0,0,0,0,-1,1182,953,0,0
-35,71,0,0,0,0,0,0,0,0,0,-1,1189,953,0,0
-28,71,0,0,0,0,0,0,0,0,0,-1,1196,953,0,0
-21,71,0,0,0,0,0,0,0,0,0,-1,1203,953,0,0
-14,71,0,0,0,0,0,0,0,0,0,-1,1210,953,0,0
-7,71,0,0,0,0,0,0,0,0,0,-1,1217,953,0,0
0,71,0,0,0,0,0,0,0,0,0,-1,1224,953,0,0
7,71,0,0,0,0,0,0,0,0,0,-1,1231,953,0,0
14,71,0,0,0,0,0,0,0,0,0,-1,1238,953,0,0
21,71,0,0,0,0,0,0,0,0,0,-1,1245,953,0,0
28,71,0,0,0,0,0,0,0,0,0,-1,1252,953,0,0
35,71,0,0,0,0,0,0,0,0,0,-1,1259,953,0,0
42,71,0,0,0,0,0,0,0,0,0,-1,1266,953,0,0
49,71,0,0,0,0,0,0,0,0,0,-1,1273,953,0,0
56,71,0,0,0,0,0,0,0,0,0,-1,1280,953,0,0
63,71,0,0,0,0,0,0,0,0,0,-1,1287,953,0,0
70,71,0,0,0,0,0,0,0,0,0,-1,1294,953,0,0
77,71,0,0,0,0,0,0,0,0,0,-1,1301,953,0,0
84,71,0,0,0,0,0,0,0,0,0,-1,1308,953,0,0
91,71,0,0,0,0,0,0,0,0,0,-1,1315,953,0,0
98,71,0,0,0,0,0,0,0,0,0,-1,1322,953,0,0
105,71,0,0,0,0,0,0,0,0,0,-1,1329,953,0,0
112,71,0,0,0,0,0,0,0,0,0,-1,1336,953,0,0
119,71,0,0,0,0,0,0,0,0,0,-1,1343,953,0,0
126,71,0,0,0,0,0,0,0,0,0,-1,1350,953,0,0
133,71,0,0,0,0,0,0,0,0,0,-1,1357,953,0,0
140,71,0,0,0,0,0,0,0,0,0,-1,1364,953,0,0
147,71,0,0,0,0,0,0,0,0,0,-1,1371,953,0,0
154,71,0,0,0,0,0,0,0,0,0,-1,1378,953,0,0
161,71,0,0,0,0,0,0,0,0,0,-1,1385,953,0,0
168,71,0,0,0,0,0,0,0,0,0,-1,1392,953,0,0
175,71,0,0,0,0,0,0,0,0,0,-1,1399,953,0,0
182,71,0,0,0,0,0,0,0,0,0,-1,1406,953,0,0
189,71,0,0,0,0,0,0,0,0,0,-1,1413,953,0,0
196,71,0,0,0,0,0,0,0,0,0,-1,1420,953,0,0
203,71,0,0,0,0,0,0,0,0,0,-1,1427,953,0,0
210,71,0,0,0,0,0,0,0,0,0,-1,1434,953,0,0
217,71,0,0,0,0,0,0,0,0,0,-1,1441,953,0,0
224,71,0,0,0,0,0,0,0,0,0,-1,1448,953,0,0
231,71,0,0,0,0,0,0,0,0,0,-1,1455,953,0,0
238,71,0,0,0,0,0,0,0,0,0,-1,1462,953,0,0
245,71,0,0,0,0,0,0,0,0,0,-1,1469,953,0,0
252,71,0,0,0,0,0,0,0,0,0,-1,1476,953,0,0
259,71,0,0,0,0,0,0,0,0,0,-1,1483,953,0,0
266,71,0,0,0,0,0,0,0,0,0,-1,1490,953,0,0
273,71,0,0,0,0,0,0,0,0,0,-1,1497,953,0,0
280,71,0,0,0,0,0,0,0,0,0,-1,1504,953,0,0
287,71,0,0,0,0,0,0,0,0,0,-1,1511,953,0,0
294,71,0,0,0,0,0,0,0,0,0,-1,1518,953,0,0
301,71,0,0,0,0,0,0,0,0,0,-1,1525,953,0,0
308,71,0,0,0,0,0,0,0,0,0,-1,1532,953,0,0
315,71,0,0,0,0,0,0,0,0,0,-1,1539,953,0,0
322,71,0,0,0,0,0,0,0,0,0,-1,1546,953,0,0
329,71,0,0,0,0,0,0,0,0,0,-1,1553,953,0,0
336,71,0,0,0,0,0,0,0,0,0,-1,1560,953,0,0
343,71,0,0,0,0,0,0,0,0,0,-1,1567,953,0,0
350,71,0,0,0,0,0,0,0,0,0,-1,1574,953,0,0
357,71,0,0,0,0,0,0,0,0,0,-1,1581,953,0,0
364,71,0,0,0,0,0,0,0,0,0,-1,1588,953,0,0
371,71,0,0,0,0,0,0,0,0,0,-1,1595,953,0,0
378,71,0,0,0,0,0,0,0,0,0,-1,1602,953,0,0
385,71,0,0,0,0,0,0,0,0,0,-1,1609,953,0,0
392,71,0,0,0,0,0,0,0,0,0,-1,1616,953,0,0
399,71,0,0,0,0,0,0,0,0,0,-1,1623,953,0,0
406,71,0,0,0,0,0,0,0,0,0,-1,1630,953,0,0
413,71,0,0,0,0,0,0,0,0,0,-1,1637,953,0,0
420,71,0,0,0,0,0,0,0,0,0,-1,1644,953,0,0
427,71,0,0,0,0,0,0,0,0,0,-1,1651,953,0,0
434,71,0,0,0,0,0,0,0,0,0,-1,1658,953,0,0
441,71,0,0,0,0,0,0,0,0,0,-1,1665,953,0,0
448,71,0,0,0,0,0,0,0,0,0,-1,1672,953,0,0
455,71,0,0,0,0,0,0,0,0,0,-1,1679,953,0,0
462,71,0,0,0,0,0,0,0,0,0,-1,1686,953,0,0
469,71,0,0,0,0,0,0,0,0,0,-1,1693,953,0,0
476,71,0,0,0,0,0,0,0,0,0,-1,1700,953,0,0
483,71,0,0,0,0,0,0,0,0,0,-1,1707,953,0,0
490,71,0,0,0,0,0,0,0,0,0,-1,1714,953,0,0
497,71,0,0,0,0,0,0,0,0,0,-1,1721,953,0,0
504,71,0,0,0,0,0,0,0,0,0,-1,1728,953,0,0
511,71,0,0,0,0,0,0,0,0,0,-1,1735,953,0,0
518,71,0,0,0,0,0,0,0,0,0,-1,1742,953,0,0
525,71,0,0,0,0,0,0,0,0,0,-1,1749,953,0,0
532,71,0,0,0,0,0,0,0,0,0,-1,1756,953,0,0
539,71,0,0,0,0,0,0,0,0,0,-1,1763,953,0,0
546,71,0,0,0,0,0,0,0,0,0,-1,1770,953,0,0
553,71,0,0,0,0,0,0,0,0,0,-1,1777,953,0,0
560,71,0,0,0,0,0,0,0,0,0,-1,1784,953,0,0
567,71,0,0,0,0,0,0,0,0,0,-1,1791,953,0,0
574,71,0,0,0,0,0,0,0,0,0,-1,1798,953,0,0
581,71,0,0,0,0,0,0,0,0,0,-1,1805,953,0,0
588,71,0,0,0,0,0,0,0,0,0,-1,1812,953,0,0
595,71,0,0,0,0,0,0,0,0,0,-1,1819,953,0,0
602,71,0,0,0,0,0,0,0,0,0,-1,1826,953,0,0
609,71,0,0,0,0,0,0,0,0,0,-1,1833,953,0,0
616,71,0,0,0,0,0,0,0,0,0,-1,1840,953,0,0
623,71,0,0,0,0,0,0,0,0,0,-1,1847,953,0,0
630,71,0,0,0,0,0,0,0,0,0,-1,1854,953,0,0
637,71,31.2649,3.01196,0,0,0,0,0,0,0,-1,1861,953,31.2649,-3.01197
644,71,30.9574,2.91864,0.00190574,-0.000919013,0.00108068,0.00227176,-0.00128503,0.326564,0.00207969,0.0428747,1868,953,30.9575,-2.91862
651,71,31.0076,2.78845,0.00203761,-0.000623936,0.000644967,0.00218567,-0.000771993,0.225648,0.00177143,0.0411759,1875,953,31.0075,-2.78843
658,71,31.1189,2.80035,0.00159313,-0.000189762,0.000643694,0.00180124,-0.00039787,0.312696,0.00135309,0.03872,1882,953,31.1189,-2.80038
665,71,31.1091,2.99097,0.000837345,0.000380441,0.00107437,0.00170728,-0.000489497,0.680639,0.00133169,0.0396046,1889,953,31.1091,-2.99098
672,71,30.9633,3.02856,0,0,0,0,0,0,0,-1,1896,953,30.9632,-3.02857
679,71,30.9742,2.91083,-0.000751665,0.00105556,0.00220722,0.00253697,-0.00223307,0.979685,0.00275585,0.0379842,1903,953,30.9742,-2.9108
686,71,30.9392,2.94946,-0.00122701,0.00110124,0.00255998,0.00274936,-0.00287513,0.998793,0.00324757,0.0363565,1910,953,30.9392,-2.94946
693,71,30.9811,2.87811,-0.0014587,0.00108501,0.00270947,0.00280628,-0.00317998,1.00484,0.00345841,0.0315896,1917,953,30.981,-2.87811
700,71,30.902,2.83972,-0.00171931,0.00112421,0.00270619,0.00275938,-0.00335448,1.02727,0.00353541,0.0269385,1924,953,30.902,-2.83972
707,71,30.8346,3.26434,-0.00213599,0.00123319,0.00257865,0.00262874,-0.00353154,1.07474,0.00356935,0.0343023,1931,953,30.8346,-3.26432
714,71,29.5874,4.11829,0,0,0,0,0,0,0,-1,1938,953,29.5874,-4.11827
721,71,29.4468,4.25281,-0.00279547,0.00155942,0.00195697,0.00230961,-0.00354566,1.20474,0.00340555,0.0365802,1945,953,29.4468,-4.25281
728,71,29.3285,4.50287,-0.00287844,0.0018201,0.00155112,0.00228598,-0.00334432,1.27902,0.00326974,0.0200122,1952,953,29.3285,-4.50288
735,71,29.3264,4.71332,-0.00323969,0.002289,0.000921879,0.00243866,-0.00338936,1.40985,0.0033797,0.0145584,1959,953,29.3264,-4.71329
742,71,29.339,4.88672,-0.00394311,0.00268518,-0.00042281,0.00271204,-0.00396997,-1.50735,0.00388058,0.0147325,1966,953,29.339,-4.88675
749,71,29.3322,5.07874,-0.00505925,0.00256206,-0.00231,0.00320755,-0.00570474,-1.29831,0.0052124,0.0159846,1973,953,29.3322,-5.07876
756,71,29.3215,5.25464,-0.00662676,0.00270869,-0.00450102,0.00452532,-0.00844339,-1.18719,0.00760054,0.0166637,1980,953,29.3216,-5.25465
763,71,29.2905,5.43127,-0.00891337,0.00241306,-0.00741334,0.00607882,-0.0125791,-1.11157,0.0109879,0.0161659,1987,953,29.2906,-5.43126
770,71,29.2086,5.55878,-0.0118426,0.00128145,-0.0112772,0.00776684,-0.018328,-1.0489,0.0154717,0.0187759,1994,953,29.2086,-5.55878
777,71,29.0089,5.65051,0,0,0,0,0,0,0,-1,2001,953,29.0089,-5.6505
784,71,28.4896,5.93573,0,0,0,0,0,0,0,-1,2008,953,28.4896,-5.93574
791,71,27.9703,6.22101,0,0,0,0,0,0,0,-1,2015,953,27.9703,-6.22099
798,71,29.447,4.97791,0,0,0,0,0,0,0,-1,2022,953,29.447,-4.97788
805,71,29.3237,3.78064,0,0,0,0,0,0,0,-1,2029,953,29.3238,-3.78063
812,71,0,0,0,0,0,0,0,0,0,-1,2036,953,0,0
-700,64,0,0,0,0,0,0,0,0,0,-1,524,960,0,0
-693,64,0,0,0,0,0,0,0,0,0,-1,531,960,0,0
-686,64,-20.695,-0.822998,-0.00750889,-0.00902914,0.0192313,0.0109773,-0.0275154,0.765646,0.0228973,0.0437094,538,960,-20.695,0.82299
-679,64,-20.3309,-0.709656,-0.00866983,-0.0035001,0.0234841,0.017541,-0.0297109,0.840212,0.0275808,0.0436557,545,960,-20.3309,0.709647
-672,64,-20.3622,-0.106628,-0.0091512,0.000714163,0.0243981,0.0206732,-0.0291102,0.885141,0.0288798,0.0450985,552,960,-20.3622,0.106639
-665,64,-20.7028,-0.0231323,-0.0090587,0.00372883,0.0232446,0.021443,-0.0267728,0.919611,0.027894,0.0455209,559,960,-20.7028,0.0231299
-658,64,-19.6859,3.33063,0,0,0,0,0,0,0,-1,566,960,-19.6859,-3.33064
-651,64,-21.1185,3.17706,-0.00766708,0.00666884,0.0177842,0.0186753,-0.0196735,0.976965,0.0221432,0.0435415,573,960,-21.1185,-3.17709
-644,64,-21.061,3.05847,-0.00660041,0.00688334,0.0144368,0.0160749,-0.015792,1.00385,0.0183986,0.031116,580,960,-21.061,-3.05849
-637,64,-21.0684,2.93756,-0.0055101,0.00668442,0.0112681,0.0133991,-0.0122248,1.03339,0.0147992,0.0153213,587,960,-21.0684,-2.93754
-630,64,-21.1202,2.80945,-0.00538319,0.00616963,0.00863287,0.0107804,-0.00999395,1.08025,0.0119969,0.013598,594,960,-21.1203,-2.80945
-623,64,-21.1427,2.67993,-0.00522449,0.00595073,0.00552751,0.00822281,-0.00749657,1.1808,0.00907882,0.0140351,601,960,-21.1427,-2.67994
-616,64,-21.153,2.51801,-0.00480314,0.00549588,0.002525,0.00608162,-0.00538888,1.34285,0.00662652,0.0172708,608,960,-21.153,-2.51802
-609,64,-21.1199,2.3623,-0.00510921,0.00264138,-0.0002924,0.0026524,-0.00512023,-1.53314,0.0045623,0.0163693,615,960,-21.1199,-2.36228
-602,64,-21.0792,2.20575,-0.00578945,0.00214208,-0.00168004,0.00248327,-0.00613064,-1.37044,0.0051197,0.0167735,622,960,-21.0792,-2.20577
-595,64,-21.1077,2.07153,-0.00611568,0.00132399,-0.001943,0.00180087,-0.00659256,-1.33012,0.00510239,0.0173362,629,960,-21.1077,-2.07156
-588,64,-21.1105,1.92889,-0.00640873,0.000862581,-0.00229002,0.00152369,-0.00706984,-1.28975,0.00529471,0.0241041,636,960,-21.1105,-1.92891
-581,64,-21.3345,1.56586,-0.0065342,0.000672362,-0.00260472,0.00151522,-0.00737706,-1.25784,0.00549322,0.0332259,643,960,-21.3345,-1.56586
-574,64,-21.7287,1.25366,-0.00647619,0.000600892,-0.00279716,0.00157294,-0.00744824,-1.23634,0.00556441,0.0372345,650,960,-21.7287,-1.25369
-567,64,-21.8326,1.09235,-0.0062686,0.000699517,-0.00296743,0.00179195,-0.00736103,-1.21805,0.00560105,0.0263257,657,960,-21.8326,-1.09234
-560,64,-21.9069,1.28094,-0.00561897,0.000845259,-0.00299529,0.00201977,-0.00679348,-1.1971,0.00533134,0.0349622,664,960,-21.9069,-1.28095
-553,64,-21.8454,1.47656,-0.00450877,0.001068,-0.0030157,0.00238687,-0.00582764,-1.15852,0.00487936,0.0407687,671,960,-21.8454,-1.47654
-546,64,-21.8605,1.48767,-0.00295796,0.00135777,-0.00305381,0.00293918,-0.00453937,-1.09297,0.00435056,0.0410919,678,960,-21.8606,-1.48769
-539,64,-21.8631,1.39337,-0.00103671,0.0016902,-0.00317869,0.00378551,-0.00313203,-0.987998,0.00399978,0.0412618,685,960,-21.8631,-1.39338
-532,64,-21.7867,1.27814,0.000957256,0.00211285,-0.00369939,0.00527929,-0.00220919,-0.862866,0.00444294,0.041422,692,960,-21.7867,-1.27816
-525,64,-21.5771,1.25812,0,0,0,0,0,0,0,-1,699,960,-21.5772,-1.25809
-518,64,0,0,0,0,0,0,0,0,0,-1,706,960,0,0
-511,64,0,0,0,0,0,0,0,0,0,-1,713,960,0,0
-504,64,0,0,0,0,0,0,0,0,0,-1,720,960,0,0
-497,64,0,0,0,0,0,0,0,0,0,-1,727,960,0,0
-490,64,0,0,0,0,0,0,0,0,0,-1,734,960,0,0
-483,64,0,0,0,0,0,0,0,0,0,-1,741,960,0,0
-476,64,0,0,0,0,0,0,0,0,0,-1,748,960,0,0
-469,64,0,0,0,0,0,0,0,0,0,-1,755,960,0,0
-462,64,0,0,0,0,0,0,0,0,0,-1,762,960,0,0
-455,64,0,0,0,0,0,0,0,0,0,-1,769,960,0,0
-448,64,0,0,0,0,0,0,0,0,0,-1,776,960,0,0
-441,64,0,0,0,0,0,0,0,0,0,-1,783,960,0,0
-434,64,0,0,0,0,0,0,0,0,0,-1,790,960,0,0
-427,64,0,0,0,0,0,0,0,0,0,-1,797,960,0,0
-420,64,0,0,0,0,0,0,0,0,0,-1,804,960,0,0
-413,64,0,0,0,0,0,0,0,0,0,-1,811,960,0,0
-406,64,0,0,0,0,0,0,0,0,0,-1,818,960,0,0
-399,64,0,0,0,0,0,0,0,0,0,-1,825,960,0,0
-392,64,0,0,0,0,0,0,0,0,0,-1,832,960,0,0
-385,64,0,0,0,0,0,0,0,0,0,-1,839,960,0,0
-378,64,0,0,0,0,0,0,0,0,0,-1,846,960,0,0
-371,64,0,0,0,0,0,0,0,0,0,-1,853,960,0,0
-364,64,0,0,0,0,0,0,0,0,0,-1,860,960,0,0
-357,64,0,0,0,0,0,0,0,0,0,-1,867,960,0,0
-350,64,0,0,0,0,0,0,0,0,0,-1,874,960,0,0
-343,64,0,0,0,0,0,0,0,0,0,-1,881,960,0,0
-336,64,0,0,0,0,0,0,0,0,0,-1,888,960,0,0
-329,64,0,0,0,0,0,0,0,0,0,-1,895,960,0,0
-322,64,0,0,0,0,0,0,0,0,0,-1,902,960,0,0
-315,64,0,0,0,0,0,0,0,0,0,-1,909,960,0,0
-308,64,0,0,0,0,0,0,0,0,0,-1,916,960,0,0
-301,64,0,0,0,0,0,0,0,0,0,-1,923,960,0,0
-294,64,0,0,0,0,0,0,0,0,0,-1,930,960,0,0
-287,64,0,0,0,0,0,0,0,0,0,-1,937,960,0,0
-280,64,0,0,0,0,0,0,0,0,0,-1,944,960,0,0
-273,64,0,0,0,0,0,0,0,0,0,-1,951,960,0,0
-266,64,0,0,0,0,0,0,0,0,0,-1,958,960,0,0
-259,64,0,0,0,0,0,0,0,0,0,-1,965,960,0,0
-252,64,0,0,0,0,0,0,0,0,0,-1,972,960,0,0
-245,64,0,0,0,0,0,0,0,0,0,-1,979,960,0,0
-238,64,0,0,0,0,0,0,0,0,0,-1,986,960,0,0
-231,64,0,0,0,0,0,0,0,0,0,-1,993,960,0,0
-224,64,0,0,0,0,0,0,0,0,0,-1,1000,960,0,0
-217,64,0,0,0,0,0,0,0,0,0,-1,1007,960,0,0
-210,64,0,0,0,0,0,0,0,0,0,-1,1014,960,0,0
-203,64,0,0,0,0,0,0,0,0,0,-1,1021,960,0,0
-196,64,0,0,0,0,0,0,0,0,0,-1,1028,960,0,0
-189,64,0,0,0,0,0,0,0,0,0,-1,1035,960,0,0
-182,64,0,0,0,0,0,0,0,0,0,-1,1042,960,0,0
-175,64,0,0,0,0,0,0,0,0,0,-1,1049,960,0,0
-168,64,0,0,0,0,0,0,0,0,0,-1,1056,960,0,0
-161,64,0,0,0,0,0,0,0,0,0,-1,1063,960,0,0
-154,64,0,0,0,0,0,0,0,0,0,-1,1070,960,0,0
-147,64,0,0,0,0,0,0,0,0,0,-1,1077,960,0,0
-140,64,0,0,0,0,0,0,0,0,0,-1,1084,960,0,0
-133,64,0,0,0,0,0,0,0,0,0,-1,1091,960,0,0
-126,64,0,0,0,0,0,0,0,0,0,-1,1098,960,0,0
-119,64,0,0,0,0,0,0,0,0,0,-1,1105,960,0,0
-112,64,0,0,0,0,0,0,0,0,0,-1,1112,960,0,0
-105,64,0,0,0,0,0,0,0,0,0,-1,1119,960,0,0
-98,64,0,0,0,0,0,0,0,0,0,-1,1126,960,0,0
-91,64,0,0,0,0,0,0,0,0,0,-1,1133,960,0,0
-84,64,0,0,0,0,0,0,0,0,0,-1,1140,960,0,0
-77,64,0,0,0,0,0,0,0,0,0,-1,1147,960,0,0
-70,64,0,0,0,0,0,0,0,0,0,-1,1154,960,0,0
-63,64,0,0,0,0,0,0,0,0,0,-1,1161,960,0,0
-56,64,0,0,0,0,0,0,0,0,0,-1,1168,960,0,0
-49,64,0,0,0,0,0,0,0,0,0,-1,1175,960,0,0
-42,64,0,0,0,0,0,0,0,0,0,-1,1182,960,0,0
-35,64,0,0,0,0,0,0,0,0,0,-1,1189,960,0,0
-28,64,0,0,0,0,0,0,0,0,0,-1,1196,960,0,0
-21,64,0,0,0,0,0,0,0,0,0,-1,1203,960,0,0
-14,64,0,0,0,0,0,0,0,0,0,-1,1210,960,0,0
-7,64,0,0,0,0,0,0,0,0,0,-1,1217,960,0,0
0,64,0,0,0,0,0,0,0,0,0,-1,1224,960,0,0
7,64,0,0,0,0,0,0,0,0,0,-1,1231,960,0,0
14,64,0,0,0,0,0,0,0,0,0,-1,1238,960,0,0
21,64,0,0,0,0,0,0,0,0,0,-1,1245,960,0,0
28,64,0,0,0,0,0,0,0,0,0,-1,1252,960,0,0
35,64,0,0,0,0,0,0,0,0,0,-1,1259,960,0,0
42,64,0,0,0,0,0,0,0,0,0,-1,1266,960,0,0
49,64,0,0,0,0,0,0,0,0,0,-1,1273,960,0,0
56,64,0,0,0,0,0,0,0,0,0,-1,1280,960,0,0
63,64,0,0,0,0,0,0,0,0,0,-1,1287,960,0,0
70,64,0,0,0,0,0,0,0,0,0,-1,1294,960,0,0
77,64,0,0,0,0,0,0,0,0,0,-1,1301,960,0,0
84,64,0,0,0,0,0,0,0,0,0,-1,1308,960,0,0
91,64,0,0,0,0,0,0,0,0,0,-1,1315,960,0,0
98,64,0,0,0,0,0,0,0,0,0,-1,1322,960,0,0
105,64,0,0,0,0,0,0,0,0,0,-1,1329,960,0,0
112,64,0,0,0,0,0,0,0,0,0,-1,1336,960,0,0
119,64,0,0,0,0,0,0,0,0,0,-1,1343,960,0,0
126,64,0,0,0,0,0,0,0,0,0,-1,1350,960,0,0
133,64,0,0,0,0,0,0,0,0,0,-1,1357,960,0,0
140,64,0,0,0,0,0,0,0,0,0,-1,1364,960,0,0
147,64,0,0,0,0,0,0,0,0,0,-1,1371,960,0,0
154,64,0,0,0,0,0,0,0,0,0,-1,1378,960,0,0
161,64,0,0,0,0,0,0,0,0,0,-1,1385,960,0,0
168,64,0,0,0,0,0,0,0,0,0,-1,1392,960,0,0
175,64,0,0,0,0,0,0,0,0,0,-1,1399,960,0,0
182,64,0,0,0,0,0,0,0,0,0,-1,1406,960,0,0
189,64,0,0,0,0,0,0,0,0,0,-1,1413,960,0,0
196,64,0,0,0,0,0,0,0,0,0,-1,1420,960,0,0
203,64,0,0,0,0,0,0,0,0,0,-1,1427,960,0,0
210,64,0,0,0,0,0,0,0,0,0,-1,1434,960,0,0
217,64,0,0,0,0,0,0,0,0,0,-1,1441,960,0,0
224,64,0,0,0,0,0,0,0,0,0,-1,1448,960,0,0
231,64,0,0,0,0,0,0,0,0,0,-1,1455,960,0,0
238,64,0,0,0,0,0,0,0,0,0,-1,1462,960,0,0
245,64,0,0,0,0,0,0,0,0,0,-1,1469,960,0,0
252,64,0,0,0,0,0,0,0,0,0,-1,1476,960,0,0
259,64,0,0,0,0,0,0,0,0,0,-1,1483,960,0,0
266,64,0,0,0,0,0,0,0,0,0,-1,1490,960,0,0
273,64,0,0,0,0,0,0,0,0,0,-1,1497,960,0,0
280,64,0,0,0,0,0,0,0,0,0,-1,1504,960,0,0
287,64,0,0,0,0,0,0,0,0,0,-1,1511,960,0,0
294,64,0,0,0,0,0,0,0,0,0,-1,1518,960,0,0
301,64,0,0,0,0,0,0,0,0,0,-1,1525,960,0,0
308,64,0,0,0,0,0,0,0,0,0,-1,1532,960,0,0
315,64,0,0,0,0,0,0,0,0,0,-1,1539,960,0,0
322,64,0,0,0,0,0,0,0,0,0,-1,1546,960,0,0
329,64,0,0,0,0,0,0,0,0,0,-1,1553,960,0,0
336,64,0,0,0,0,0,0,0,0,0,-1,1560,960,0,0
343,64,0,0,0,0,0,0,0,0,0,-1,1567,960,0,0
350,64,0,0,0,0,0,0,0,0,0,-1,1574,960,0,0
357,64,0,0,0,0,0,0,0,0,0,-1,1581,960,0,0
364,64,0,0,0,0,0,0,0,0,0,-1,1588,960,0,0
371,64,0,0,0,0,0,0,0,0,0,-1,1595,960,0,0
378,64,0,0,0,0,0,0,0,0,0,-1,1602,960,0,0
385,64,0,0,0,0,0,0,0,0,0,-1,1609,960,0,0
392,64,0,0,0,0,0,0,0,0,0,-1,1616,960,0,0
399,64,0,0,0,0,0,0,0,0,0,-1,1623,960,0,0
406,64,0,0,0,0,0,0,0,0,0,-1,1630,960,0,0
413,64,0,0,0,0,0,0,0,0,0,-1,1637,960,0,0
420,64,0,0,0,0,0,0,0,0,0,-1,1644,960,0,0
427,64,0,0,0,0,0,0,0,0,0,-1,1651,960,0,0
434,64,0,0,0,0,0,0,0,0,0,-1,1658,960,0,0
441,64,0,0,0,0,0,0,0,0,0,-1,1665,960,0,0
448,64,0,0,0,0,0,0,0,0,0,-1,1672,960,0,0
455,64,0,0,0,0,0,0,0,0,0,-1,1679,960,0,0
462,64,0,0,0,0,0,0,0,0,0,-1,1686,960,0,0
469,64,0,0,0,0,0,0,0,0,0,-1,1693,960,0,0
476,64,0,0,0,0,0,0,0,0,0,-1,1700,960,0,0
483,64,0,0,0,0,0,0,0,0,0,-1,1707,960,0,0
490,64,0,0,0,0,0,0,0,0,0,-1,1714,960,0,0
497,64,0,0,0,0,0,0,0,0,0,-1,1721,960,0,0
504,64,0,0,0,0,0,0,0,0,0,-1,1728,960,0,0
511,64,0,0,0,0,0,0,0,0,0,-1,1735,960,0,0
518,64,0,0,0,0,0,0,0,0,0,-1,1742,960,0,0
525,64,0,0,0,0,0,0,0,0,0,-1,1749,960,0,0
532,64,0,0,0,0,0,0,0,0,0,-1,1756,960,0,0
539,64,0,0,0,0,0,0,0,0,0,-1,1763,960,0,0
546,64,0,0,0,0,0,0,0,0,0,-1,1770,960,0,0
553,64,0,0,0,0,0,0,0,0,0,-1,1777,960,0,0
560,64,0,0,0,0,0,0,0,0,0,-1,1784,960,0,0
567,64,0,0,0,0,0,0,0,0,0,-1,1791,960,0,0
574,64,0,0,0,0,0,0,0,0,0,-1,1798,960,0,0
581,64,0,0,0,0,0,0,0,0,0,-1,1805,960,0,0
588,64,0,0,0,0,0,0,0,0,0,-1,1812,960,0,0
595,64,0,0,0,0,0,0,0,0,0,-1,1819,960,0,0
602,64,0,0,0,0,0,0,0,0,0,-1,1826,960,0,0
609,64,0,0,0,0,0,0,0,0,0,-1,1833,960,0,0
616,64,0,0,0,0,0,0,0,0,0,-1,1840,960,0,0
623,64,0,0,0,0,0,0,0,0,0,-1,1847,960,0,0
630,64,0,0,0,0,0,0,0,0,0,-1,1854,960,0,0
637,64,0,0,0,0,0,0,0,0,0,-1,1861,960,0,0
644,64,30.9858,2.86957,0.00332645,-0.00301108,0.0019977,0.0039036,-0.00358823,0.281249,0.00432669,0.0425774,1868,960,30.9858,-2.86958
651,64,31.0266,2.82159,0.00302369,-0.00214624,0.00134048,0.00335059,-0.00247314,0.239196,0.00337503,0.0395835,1875,960,31.0267,-2.82158
658,64,31.124,2.76367,0.00228765,-0.00135812,0.00117065,0.00263117,-0.00170164,0.285436,0.00252067,0.0364715,1882,960,31.124,-2.76368
665,64,31.1229,2.8465,0.00128753,-0.000456556,0.00152822,0.00217501,-0.00134403,0.526128,0.00205051,0.0401687,1889,960,31.1229,-2.84652
672,64,30.9816,2.92078,0.000246248,0.000277563,0.00208931,0.00235127,-0.00182746,0.789145,0.0024189,0.0417265,1896,960,30.9816,-2.92077
679,64,30.8851,3.01025,-0.000647816,0.00072228,0.00263867,0.00276338,-0.00268892,0.912403,0.00314798,0.038422,1903,960,30.8851,-3.01025
686,64,30.9603,2.93219,-0.00123998,0.000919188,0.00300127,0.00302913,-0.00334993,0.958048,0.0036845,0.0338267,1910,960,30.9604,-2.93217
693,64,30.9944,2.89044,-0.0015443,0.000996788,0.00314584,0.00311897,-0.00366648,0.977322,0.00392183,0.0316923,1917,960,30.9943,-2.89045
700,64,30.9369,2.91205,-0.00182266,0.00110186,0.00311131,0.0030774,-0.00379821,1.00507,0.0039769,0.0286369,1924,960,30.9368,-2.91204
707,64,30.8751,3.19312,-0.00225057,0.00127028,0.00295565,0.00295005,-0.00393034,1.05399,0.00398582,0.0367159,1931,960,30.8751,-3.1931
714,64,30.8365,3.83295,0,0,0,0,0,0,0,-1,1938,960,30.8365,-3.83294
721,64,29.5511,4.3371,0,0,0,0,0,0,0,-1,1945,960,29.5511,-4.33707
728,64,29.4956,4.5506,-0.00301099,0.00190149,0.00178652,0.00248248,-0.00359198,1.25638,0.00352654,0.0169934,1952,960,29.4956,-4.55061
735,64,29.4954,4.73566,-0.00336264,0.00239214,0.00110509,0.00259706,-0.00356755,1.38745,0.00357381,0.021517,1959,960,29.4953,-4.73568
742,64,29.5436,4.88568,-0.00409327,0.00287126,-0.000211828,0.00287769,-0.0040997,-1.54042,0.00404894,0.0187613,1966,960,29.5435,-4.8857
749,64,29.5273,5.06384,-0.00521991,0.00295708,-0.00199088,0.00341605,-0.00567887,-1.34422,0.00530485,0.014001,1973,960,29.5273,-5.06384
756,64,29.5208,5.2348,-0.00676423,0.00337105,-0.00406793,0.0048018,-0.00819498,-1.2326,0.00758846,0.0150424,1980,960,29.5208,-5.23482
763,64,29.5057,5.40997,-0.00907145,0.0035162,-0.00675875,0.00645779,-0.012013,-1.1603,0.0108237,0.0155064,1987,960,29.5057,-5.40996
770,64,29.4109,5.53778,-0.0121099,0.00306044,-0.0102089,0.00819364,-0.0172431,-1.1049,0.0149925,0.0156258,1994,960,29.4109,-5.53778
777,64,29.3274,5.63019,-0.0158128,0.00152863,-0.0148543,0.0100577,-0.0243419,-1.04958,0.0204234,0.0313603,2001,960,29.3274,-5.63019
784,64,28.5393,5.77466,0,0,0,0,0,0,0,-1,2008,960,28.5393,-5.77464
791,64,29.1224,6.53546,0,0,0,0,0,0,0,-1,2015,960,29.1224,-6.53547
798,64,29.4165,5.34387,0,0,0,0,0,0,0,-1,2022,960,29.4166,-5.34388
805,64,29.1948,4.70667,0,0,0,0,0,0,0,-1,2029,960,29.1948,-4.70667
812,64,0,0,0,0,0,0,0,0,0,-1,2036,960,0,0
-700,57,0,0,0,0,0,0,0,0,0,-1,524,967,0,0
-693,57,0,0,0,0,0,0,0,0,0,-1,531,967,0,0
-686,57,-20.2189,-0.35083,-0.00311011,-0.0167436,0.0176117,0.00895807,-0.0288118,0.600748,0.0227885,0.0459905,538,967,-20.219,0.350848
-679,57,-20.3676,-0.105713,-0.00594016,-0.0110139,0.0221171,0.0137851,-0.0307392,0.728297,0.02632,0.0456493,545,967,-20.3676,0.105682
-672,57,-20.5131,0.155029,-0.00766982,-0.00614744,0.0233675,0.0164712,-0.0302885,0.80168,0.0273868,0.0457861,552,967,-20.5131,-0.155017
-665,57,-20.0298,2.40967,0,0,0,0,0,0,0,-1,559,967,-20.0298,-2.40968
-658,57,-20.1804,2.87067,0,0,0,0,0,0,0,-1,566,967,-20.1804,-2.87068
-651,57,-21.178,2.80145,0,0,0,0,0,0,0,-1,573,967,-21.178,-2.80144
-644,57,-21.2525,2.90271,-0.0071481,0.00368297,0.0142767,0.0135367,-0.0170019,0.966678,0.0176693,0.0312886,580,967,-21.2525,-2.90271
-637,57,-21.228,2.87354,-0.00628704,0.00427263,0.0111789,0.0113558,-0.0133703,1.00602,0.0142914,0.0174919,587,967,-21.2279,-2.87353
-630,57,-21.3021,2.7561,-0.00616534,0.00437514,0.00848877,0.00909663,-0.0108868,1.0632,0.0115529,0.0142501,594,967,-21.3021,-2.75612
-623,57,-21.3087,2.65106,-0.00587336,0.00488969,0.00528091,0.00704799,-0.00803166,1.18282,0.00871241,0.0126738,601,967,-21.3087,-2.65109
-616,57,-21.3019,2.52301,-0.00513943,0.00480878,0.00209592,0.00523232,-0.00556297,1.3714,0.00623364,0.0140826,608,967,-21.3019,-2.52298
-609,57,-21.3013,2.36652,-0.0049695,0.00260862,-0.000754117,0.00268293,-0.00504381,-1.47257,0.00452992,0.014388,615,967,-21.3013,-2.36651
-602,57,-21.2872,2.23126,-0.00534126,0.00225049,-0.00226909,0.00287699,-0.00596776,-1.3014,0.00520941,0.0111764,622,967,-21.2871,-2.23125
-595,57,-21.2851,2.10364,-0.00551464,0.00157813,-0.00268316,0.00247879,-0.0064153,-1.24694,0.00530001,0.012275,629,967,-21.2851,-2.10361
-588,57,-21.3064,2.00793,-0.00574617,0.00116789,-0.00308858,0.00234664,-0.00692491,-1.20621,0.00556622,0.0185279,636,967,-21.3064,-2.00795
-581,57,-21.5401,1.5246,-0.00585436,0.000995898,-0.00342656,0.00241565,-0.00727411,-1.17799,0.00582407,0.026765,643,967,-21.5401,-1.52463
-574,57,-21.8283,1.06842,-0.00580917,0.00090876,-0.00357068,0.00245208,-0.00735249,-1.16283,0.00589164,0.0284054,650,967,-21.8283,-1.0684
-567,57,-21.851,1.1087,-0.00559628,0.000979309,-0.0036616,0.00261259,-0.00722955,-1.15123,0.00588708,0.0319903,657,967,-21.851,-1.1087
-560,57,-21.7861,1.2309,-0.00497075,0.00105659,-0.00359604,0.0027348,-0.00664896,-1.13416,0.00557261,0.0406633,664,967,-21.7861,-1.23087
-553,57,-21.8039,1.50195,-0.00389648,0.00115198,-0.003496,0.0029398,-0.0056843,-1.09808,0.00506247,0.0420082,671,967,-21.8039,-1.50198
-546,57,-21.8132,1.54425,-0.00240517,0.00122241,-0.00340627,0.0032677,-0.00445047,-1.03005,0.00447349,0.0422738,678,967,-21.8132,-1.54423
-539,57,-21.7311,1.40912,-0.000552428,0.00121475,-0.00344369,0.0038864,-0.00322408,-0.91098,0.00411117,0.0418816,685,967,-21.7311,-1.4091
-532,57,-21.6913,1.19666,0.0012778,0.00118285,-0.00400264,0.00523325,-0.0027726,-0.779468,0.00469439,0.0377098,692,967,-21.6914,-1.19663
-525,57,-21.6518,1.00061,0.00137338,0.00135217,-0.00553118,0.00689397,-0.00416842,-0.78444,0.00645116,0.0395255,699,967,-21.6518,-1.00063
-518,57,0,0,0,0,0,0,0,0,0,-1,706,967,0,0
-511,57,0,0,0,0,0,0,0,0,0,-1,713,967,0,0
-504,57,0,0,0,0,0,0,0,0,0,-1,720,967,0,0
-497,57,0,0,0,0,0,0,0,0,0,-1,727,967,0,0
-490,57,0,0,0,0,0,0,0,0,0,-1,734,967,0,0
-483,57,0,0,0,0,0,0,0,0,0,-1,741,967,0,0
-476,57,0,0,0,0,0,0,0,0,0,-1,748,967,0,0
-469,57,0,0,0,0,0,0,0,0,0,-1,755,967,0,0
-462,57,0,0,0,0,0,0,0,0,0,-1,762,967,0,0
-455,57,0,0,0,0,0,0,0,0,0,-1,769,967,0,0
-448,57,0,0,0,0,0,0,0,0,0,-1,776,967,0,0
-441,57,0,0,0,0,0,0,0,0,0,-1,783,967,0,0
-434,57,0,0,0,0,0,0,0,0,0,-1,790,967,0,0
-427,57,0,0,0,0,0,0,0,0,0,-1,797,967,0,0
-420,57,0,0,0,0,0,0,0,0,0,-1,804,967,0,0
-413,57,0,0,0,0,0,0,0,0,0,-1,811,967,0,0
-406,57,0,0,0,0,0,0,0,0,0,-1,818,967,0,0
-399,57,0,0,0,0,0,0,0,0,0,-1,825,967,0,0
-392,57,0,0,0,0,0,0,0,0,0,-1,832,967,0,0
-385,57,0,0,0,0,0,0,0,0,0,-1,839,967,0,0
-378,57,0,0,0,0,0,0,0,0,0,-1,846,967,0,0
-371,57,0,0,0,0,0,0,0,0,0,-1,853,967,0,0
-364,57,0,0,0,0,0,0,0,0,0,-1,860,967,0,0
-357,57,0,0,0,0,0,0,0,0,0,-1,867,967,0,0
-350,57,0,0,0,0,0,0,0,0,0,-1,874,967,0,0
-343,57,0,0,0,0,0,0,0,0,0,-1,881,967,0,0
-336,57,0,0,0,0,0,0,0,0,0,-1,888,967,0,0
-329,57,0,0,0,0,0,0,0,0,0,-1,895,967,0,0
-322,57,0,0,0,0,0,0,0,0,0,-1,902,967,0,0
-315,57,0,0,0,0,0,0,0,0,0,-1,909,967,0,0
-308,57,0,0,0,0,0,0,0,0,0,-1,916,967,0,0
-301,57,0,0,0,0,0,0,0,0,0,-1,923,967,0,0
-294,57,0,0,0,0,0,0,0,0,0,-1,930,967,0,0
-287,57,0,0,0,0,0,0,0,0,0,-1,937,967,0,0
-280,57,0,0,0,0,0,0,0,0,0,-1,944,967,0,0
-273,57,0,0,0,0,0,0,0,0,0,-1,951,967,0,0
-266,57,0,0,0,0,0,0,0,0,0,-1,958,967,0,0
-259,57,0,0,0,0,0,0,0,0,0,-1,965,967,0,0
-252,57,0,0,0,0,0,0,0,0,0,-1,972,967,0,0
-245,57,0,0,0,0,0,0,0,0,0,-1,979,967,0,0
-238,57,0,0,0,0,0,0,0,0,0,-1,986,967,0,0
-231,57,0,0,0,0,0,0,0,0,0,-1,993,967,0,0
-224,57,0,0,0,0,0,0,0,0,0,-1,1000,967,0,0
-217,57,0,0,0,0,0,0,0,0,0,-1,1007,967,0,0
-210,57,0,0,0,0,0,0,0,0,0,-1,1014,967,0,0
-203,57,0,0,0,0,0,0,0,0,0,-1,1021,967,0,0
-196,57,0,0,0,0,0,0,0,0,0,-1,1028,967,0,0
-189,57,0,0,0,0,0,0,0,0,0,-1,1035,967,0,0
-182,57,0,0,0,0,0,0,0,0,0,-1,1042,967,0,0
-175,57,0,0,0,0,0,0,0,0,0,-1,1049,967,0,0
-168,57,0,0,0,0,0,0,0,0,0,-1,1056,967,0,0
-161,57,0,0,0,0,0,0,0,0,0,-1,1063,967,0,0
-154,57,0,0,0,0,0,0,0,0,0,-1,1070,967,0,0
-147,57,0,0,0,0,0,0,0,0,0,-1,1077,967,0,0
-140,57,0,0,0,0,0,0,0,0,0,-1,1084,967,0,0
-133,57,0,0,0,0,0,0,0,0,0,-1,1091,967,0,0
-126,57,0,0,0,0,0,0,0,0,0,-1,1098,967,0,0
-119,57,0,0,0,0,0,0,0,0,0,-1,1105,967,0,0
-112,57,0,0,0,0,0,0,0,0,0,-1,1112,967,0,0
-105,57,0,0,0,0,0,0,0,0,0,-1,1119,967,0,0
-98,57,0,0,0,0,0,0,0,0,0,-1,1126,967,0,0
-91,57,0,0,0,0,0,0,0,0,0,-1,1133,967,0,0
-84,57,0,0,0,0,0,0,0,0,0,-1,1140,967,0,0
-77,57,0,0,0,0,0,0,0,0,0,-1,1147,967,0,0
-70,57,0,0,0,0,0,0,0,0,0,-1,1154,967,0,0
-63,57,0,0,0,0,0,0,0,0,0,-1,1161,967,0,0
-56,57,0,0,0,0,0,0,0,0,0,-1,1168,967,0,0
-49,57,0,0,0,0,0,0,0,0,0,-1,1175,967,0,0
-42,57,0,0,0,0,0,0,0,0,0,-1,1182,967,0,0
-35,57,0,0,0,0,0,0,0,0,0,-1,1189,967,0,0
-28,57,0,0,0,0,0,0,0,0,0,-1,1196,967,0,0
-21,57,0,0,0,0,0,0,0,0,0,-1,1203,967,0,0
-14,57,0,0,0,0,0,0,0,0,0,-1,1210,967,0,0
-7,57,0,0,0,0,0,0,0,0,0,-1,1217,967,0,0
0,57,0,0,0,0,0,0,0,0,0,-1,1224,967,0,0
7,57,0,0,0,0,0,0,0,0,0,-1,1231,967,0,0
14,57,0,0,0,0,0,0,0,0,0,-1,1238,967,0,0
21,57,0,0,0,0,0,0,0,0,0,-1,1245,967,0,0
28,57,0,0,0,0,0,0,0,0,0,-1,1252,967,0,0
35,57,0,0,0,0,0,0,0,0,0,-1,1259,967,0,0
42,57,0,0,0,0,0,0,0,0,0,-1,1266,967,0,0
49,57,0,0,0,0,0,0,0,0,0,-1,1273,967,0,0
56,57,0,0,0,0,0,0,0,0,0,-1,1280,967,0,0
63,57,0,0,0,0,0,0,0,0,0,-1,1287,967,0,0
70,57,0,0,0,0,0,0,0,0,0,-1,1294,967,0,0
77,57,0,0,0,0,0,0,0,0,0,-1,1301,967,0,0
84,57,0,0,0,0,0,0,0,0,0,-1,1308,967,0,0
91,57,0,0,0,0,0,0,0,0,0,-1,1315,967,0,0
98,57,0,0,0,0,0,0,0,0,0,-1,1322,967,0,0
105,57,0,0,0,0,0,0,0,0,0,-1,1329,967,0,0
112,57,0,0,0,0,0,0,0,0,0,-1,1336,967,0,0
119,57,0,0,0,0,0,0,0,0,0,-1,1343,967,0,0
126,57,0,0,0,0,0,0,0,0,0,-1,1350,967,0,0
133,57,0,0,0,0,0,0,0,0,0,-1,1357,967,0,0
140,57,0,0,0,0,0,0,0,0,0,-1,1364,967,0,0
147,57,0,0,0,0,0,0,0,0,0,-1,1371,967,0,0
154,57,0,0,0,0,0,0,0,0,0,-1,1378,967,0,0
161,57,0,0,0,0,0,0,0,0,0,-1,1385,967,0,0
168,57,0,0,0,0,0,0,0,0,0,-1,1392,967,0,0
175,57,0,0,0,0,0,0,0,0,0,-1,1399,967,0,0
182,57,0,0,0,0,0,0,0,0,0,-1,1406,967,0,0
189,57,0,0,0,0,0,0,0,0,0,-1,1413,967,0,0
196,57,0,0,0,0,0,0,0,0,0,-1,1420,967,0,0
203,57,0,0,0,0,0,0,0,0,0,-1,1427,967,0,0
210,57,0,0,0,0,0,0,0,0,0,-1,1434,967,0,0
217,57,0,0,0,0,0,0,0,0,0,-1,1441,967,0,0
224,57,0,0,0,0,0,0,0,0,0,-1,1448,967,0,0
231,57,0,0,0,0,0,0,0,0,0,-1,1455,967,0,0
238,57,0,0,0,0,0,0,0,0,0,-1,1462,967,0,0
245,57,0,0,0,0,0,0,0,0,0,-1,1469,967,0,0
252,57,0,0,0,0,0,0,0,0,0,-1,1476,967,0,0
259,57,0,0,0,0,0,0,0,0,0,-1,1483,967,0,0
266,57,0,0,0,0,0,0,0,0,0,-1,1490,967,0,0
273,57,0,0,0,0,0,0,0,0,0,-1,1497,967,0,0
280,57,0,0,0,0,0,0,0,0,0,-1,1504,967,0,0
287,57,0,0,0,0,0,0,0,0,0,-1,1511,967,0,0
294,57,0,0,0,0,0,0,0,0,0,-1,1518,967,0,0
301,57,0,0,0,0,0,0,0,0,0,-1,1525,967,0,0
308,57,0,0,0,0,0,0,0,0,0,-1,1532,967,0,0
315,57,0,0,0,0,0,0,0,0,0,-1,1539,967,0,0
322,57,0,0,0,0,0,0,0,0,0,-1,1546,967,0,0
329,57,0,0,0,0,0,0,0,0,0,-1,1553,967,0,0
336,57,0,0,0,0,0,0,0,0,0,-1,1560,967,0,0
343,57,0,0,0,0,0,0,0,0,0,-1,1567,967,0,0
350,57,0,0,0,0,0,0,0,0,0,-1,1574,967,0,0
357,57,0,0,0,0,0,0,0,0,0,-1,1581,967,0,0
364,57,0,0,0,0,0,0,0,0,0,-1,1588,967,0,0
371,57,0,0,0,0,0,0,0,0,0,-1,1595,967,0,0
378,57,0,0,0,0,0,0,0,0,0,-1,1602,967,0,0
385,57,0,0,0,0,0,0,0,0,0,-1,1609,967,0,0
392,57,0,0,0,0,0,0,0,0,0,-1,1616,967,0,0
399,57,0,0,0,0,0,0,0,0,0,-1,1623,967,0,0
406,57,0,0,0,0,0,0,0,0,0,-1,1630,967,0,0
413,57,0,0,0,0,0,0,0,0,0,-1,1637,967,0,0
420,57,0,0,0,0,0,0,0,0,0,-1,1644,967,0,0
427,57,0,0,0,0,0,0,0,0,0,-1,1651,967,0,0
434,57,0,0,0,0,0,0,0,0,0,-1,1658,967,0,0
441,57,0,0,0,0,0,0,0,0,0,-1,1665,967,0,0
448,57,0,0,0,0,0,0,0,0,0,-1,1672,967,0,0
455,57,0,0,0,0,0,0,0,0,0,-1,1679,967,0,0
462,57,0,0,0,0,0,0,0,0,0,-1,1686,967,0,0
469,57,0,0,0,0,0,0,0,0,0,-1,1693,967,0,0
476,57,0,0,0,0,0,0,0,0,0,-1,1700,967,0,0
483,57,0,0,0,0,0,0,0,0,0,-1,1707,967,0,0
490,57,0,0,0,0,0,0,0,0,0,-1,1714,967,0,0
497,57,0,0,0,0,0,0,0,0,0,-1,1721,967,0,0
504,57,0,0,0,0,0,0,0,0,0,-1,1728,967,0,0
511,57,0,0,0,0,0,0,0,0,0,-1,1735,967,0,0
518,57,0,0,0,0,0,0,0,0,0,-1,1742,967,0,0
525,57,0,0,0,0,0,0,0,0,0,-1,1749,967,0,0
532,57,0,0,0,0,0,0,0,0,0,-1,1756,967,0,0
539,57,0,0,0,0,0,0,0,0,0,-1,1763,967,0,0
546,57,0,0,0,0,0,0,0,0,0,-1,1770,967,0,0
553,57,0,0,0,0,0,0,0,0,0,-1,1777,967,0,0
560,57,0,0,0,0,0,0,0,0,0,-1,1784,967,0,0
567,57,0,0,0,0,0,0,0,0,0,-1,1791,967,0,0
574,57,0,0,0,0,0,0,0,0,0,-1,1798,967,0,0
581,57,0,0,0,0,0,0,0,0,0,-1,1805,967,0,0
588,57,0,0,0,0,0,0,0,0,0,-1,1812,967,0,0
595,57,0,0,0,0,0,0,0,0,0,-1,1819,967,0,0
602,57,0,0,0,0,0,0,0,0,0,-1,1826,967,0,0
609,57,0,0,0,0,0,0,0,0,0,-1,1833,967,0,0
616,57,0,0,0,0,0,0,0,0,0,-1,1840,967,0,0
623,57,0,0,0,0,0,0,0,0,0,-1,1847,967,0,0
630,57,0,0,0,0,0,0,0,0,0,-1,1854,967,0,0
637,57,0,0,0,0,0,0,0,0,0,-1,1861,967,0,0
644,57,30.975,2.78723,0.00491878,-0.00516994,0.00216043,0.00536196,-0.00561312,0.202326,0.00633702,0.0406175,1868,967,30.975,-2.78721
651,57,30.9379,2.8446,0.00412052,-0.00369654,0.00148252,0.00439224,-0.00396826,0.181269,0.004829,0.0336473,1875,967,30.9378,-2.84462
658,57,31.0063,2.9068,0.00305002,-0.00253005,0.00127546,0.00332774,-0.00280776,0.214391,0.00354657,0.0345225,1882,967,31.0063,-2.90678
665,57,31.1431,2.73907,0.00183746,-0.00134677,0.00162681,0.0025216,-0.00203091,0.398089,0.00263348,0.0419476,1889,967,31.1431,-2.73908
672,57,30.9886,2.77521,0.00064493,-0.000374005,0.00220631,0.00239983,-0.00212891,0.67193,0.00261623,0.0427981,1896,967,30.9887,-2.77523
679,57,30.8383,2.84021,-0.000369032,0.000242293,0.00278302,0.00273639,-0.00286313,0.840095,0.00323316,0.0395881,1903,967,30.8383,-2.84018
686,57,30.8865,2.77197,-0.00103819,0.000551538,0.00317954,0.00303407,-0.00352072,0.907884,0.00378788,0.0357283,1910,967,30.8864,-2.77194
693,57,30.9368,2.87726,-0.00139731,0.000699217,0.00334702,0.00315829,-0.00385637,0.937156,0.00405659,0.0331988,1917,967,30.9367,-2.87723
700,57,30.9417,2.93976,-0.00170187,0.000872984,0.00330355,0.0031311,-0.00395999,0.971201,0.00410336,0.0253844,1924,967,30.9416,-2.93979
707,57,30.9027,3.16797,-0.00213487,0.00108269,0.00313994,0.003002,-0.00405418,1.02214,0.00408896,0.0396772,1931,967,30.9027,-3.16797
714,57,30.9003,3.57733,0,0,0,0,0,0,0,-1,1938,967,30.9002,-3.57734
721,57,29.7887,4.37903,0,0,0,0,0,0,0,-1,1945,967,29.7887,-4.379
728,57,29.6699,4.58752,-0.00294723,0.00179217,0.00193664,0.00248287,-0.00363793,1.22821,0.00355476,0.0210275,1952,967,29.6699,-4.58752
735,57,29.7144,4.76691,-0.00331329,0.00232895,0.0012373,0.00258836,-0.00357269,1.36414,0.00357218,0.0228956,1959,967,29.7143,-4.76693
742,57,29.7549,4.88843,-0.00407908,0.00291139,-1.31202e-05,0.00291142,-0.0040791,-1.56892,0.0040547,0.0176818,1966,967,29.7549,-4.8884
749,57,29.7108,5.06891,-0.00525979,0.00320224,-0.00167373,0.00352127,-0.00557881,-1.38245,0.00529851,0.0140598,1973,967,29.7108,-5.06891
756,57,29.681,5.21051,-0.00686669,0.00383955,-0.00365817,0.00497011,-0.00799725,-1.27106,0.0075544,0.0106551,1980,967,29.681,-5.21048
763,57,29.6774,5.36212,-0.00924374,0.00434492,-0.00617163,0.00672948,-0.0116283,-1.20209,0.0107239,0.0111943,1987,967,29.6774,-5.36214
770,57,29.6362,5.48828,-0.0124363,0.00443622,-0.00930482,0.00855982,-0.0165599,-1.15364,0.014746,0.0110922,1994,967,29.6362,-5.48826
777,57,29.5779,5.59027,-0.0163492,0.00364232,-0.0134311,0.010389,-0.0230959,-1.10529,0.0197911,0.02486,2001,967,29.5779,-5.59029
784,57,29.6162,5.66101,-0.0213977,0.00135062,-0.0191595,0.0122578,-0.0323048,-1.05327,0.0265819,0.0437632,2008,967,29.6162,-5.66102
791,57,29.5795,5.76721,0,0,0,0,0,0,0,-1,2015,967,29.5795,-5.7672
798,57,29.4707,5.4455,0,0,0,0,0,0,0,-1,2022,967,29.4707,-5.44549
805,57,29.3071,5.03107,0,0,0,0,0,0,0,-1,2029,967,29.3071,-5.03107
812,57,0,0,0,0,0,0,0,0,0,-1,2036,967,0,0
-700,50,0,0,0,0,0,0,0,0,0,-1,524,974,0,0
-693,50,-19.002,-0.497314,0.00799285,-0.0312381,0.00455037,0.00851373,-0.031759,0.113973,0.0245086,0.0450407,531,974,-19.002,0.497298
-686,50,-19.7938,-0.311768,0.000856173,-0.0250464,0.014269,0.00717511,-0.0313653,0.416886,0.0236673,0.0448437,538,974,-19.7938,0.311755
-679,50,-20.2606,0.137146,-0.00385302,-0.0187051,0.0190353,0.00915352,-0.0317116,0.599419,0.0247628,0.0464021,545,974,-20.2606,-0.137159
-672,50,-20.3987,0.494934,-0.00680319,-0.0129218,0.0207153,0.0110775,-0.0308025,0.712086,0.0250574,0.0452632,552,974,-20.3987,-0.494953
-665,50,-20.5713,1.99774,0,0,0,0,0,0,0,-1,559,974,-20.5713,-1.99775
-658,50,-20.8656,2.44446,0,0,0,0,0,0,0,-1,566,974,-20.8656,-2.44447
-651,50,-21.2249,2.80255,-0.00854713,-0.0011626,0.0161853,0.0117462,-0.0214559,0.897542,0.0194406,0.0438218,573,974,-21.2249,-2.80258
-644,50,-21.3156,2.84766,-0.00764394,0.000771173,0.0132296,0.0104462,-0.0173189,0.939361,0.0161931,0.028741,580,974,-21.3155,-2.84767
-637,50,-21.384,2.80743,-0.00686045,0.0020777,0.0103477,0.00888013,-0.0136629,0.989245,0.0131125,0.0161852,587,974,-21.384,-2.80741
-630,50,-21.4297,2.72449,-0.00662604,0.00272301,0.007721,0.00707428,-0.0109773,1.0576,0.010503,0.011404,594,974,-21.4298,-2.72451
-623,50,-21.4272,2.62823,-0.00609496,0.00395208,0.0045958,0.00573717,-0.00788005,1.20032,0.00789429,0.01099,601,974,-21.4272,-2.62824
-616,50,-21.4233,2.50403,-0.0050441,0.00410191,0.0013676,0.00430202,-0.00524422,1.4255,0.00552047,0.0108816,608,974,-21.4233,-2.50402
-609,50,-21.4364,2.36615,-0.00447403,0.00250236,-0.00141738,0.00277934,-0.004751,-1.37782,0.00439704,0.0104903,615,974,-21.4364,-2.36615
-602,50,-21.4503,2.24219,-0.00458658,0.00221486,-0.00299121,0.00334318,-0.0057149,-1.21009,0.0052891,0.010662,622,974,-21.4502,-2.24218
-595,50,-21.4244,2.12946,-0.00462793,0.00165062,-0.00355415,0.0032534,-0.0062307,-1.14715,0.00556486,0.0109076,629,974,-21.4244,-2.12947
-588,50,-21.4544,1.96259,-0.0047808,0.00133105,-0.00401802,0.00332321,-0.00677296,-1.11051,0.00594137,0.0139481,636,974,-21.4544,-1.96258
-581,50,-21.6979,1.41937,-0.00488418,0.00121923,-0.00435035,0.00348151,-0.00714647,-1.09126,0.0062565,0.0203499,643,974,-21.6979,-1.41939
-574,50,-21.9282,0.869324,0,0,0,0,0,0,0,-1,650,974,-21.9282,-0.869304
-567,50,-21.8266,1.18115,-0.00468369,0.00124099,-0.00436908,0.00355731,-0.00700001,-1.08331,0.00620236,0.0347063,657,974,-21.8266,-1.18114
-560,50,-21.7595,1.3291,-0.00413906,0.00132821,-0.00411578,0.00353546,-0.00634632,-1.07854,0.00578167,0.0423993,664,974,-21.7595,-1.32909
-553,50,-21.8209,1.38318,-0.00319328,0.00138628,-0.00377857,0.00351473,-0.00532173,-1.0578,0.00513716,0.0422889,671,974,-21.8209,-1.38315
-546,50,-21.8699,1.37628,-0.0018694,0.00134612,-0.00340855,0.00350706,-0.00403034,-1.00577,0.00435522,0.0410768,678,974,-21.87,-1.37626
-539,50,-21.8413,1.17102,-0.0001941,0.00111806,-0.0031606,0.00368996,-0.002766,-0.887735,0.00374005,0.043218,685,974,-21.8413,-1.171
-532,50,-21.8552,0.858826,0.00138345,0.00078704,-0.00352018,0.00461804,-0.00244755,-0.743143,0.00414298,0.0413691,692,974,-21.8552,-0.858817
-525,50,-21.7266,0.647034,0.00119116,0.000517333,-0.00494886,0.00581456,-0.00410607,-0.751411,0.00575592,0.0430321,699,974,-21.7266,-0.647014
-518,50,0,0,0,0,0,0,0,0,0,-1,706,974,0,0
-511,50,0,0,0,0,0,0,0,0,0,-1,713,974,0,0
-504,50,0,0,0,0,0,0,0,0,0,-1,720,974,0,0
-497,50,0,0,0,0,0,0,0,0,0,-1,727,974,0,0
-490,50,0,0,0,0,0,0,0,0,0,-1,734,974,0,0
-483,50,0,0,0,0,0,0,0,0,0,-1,741,974,0,0
-476,50,0,0,0,0,0,0,0,0,0,-1,748,974,0,0
-469,50,0,0,0,0,0,0,0,0,0,-1,755,974,0,0
-462,50,0,0,0,0,0,0,0,0,0,-1,762,974,0,0
-455,50,0,0,0,0,0,0,0,0,0,-1,769,974,0,0
-448,50,0,0,0,0,0,0,0,0,0,-1,776,974,0,0
-441,50,0,0,0,0,0,0,0,0,0,-1,783,974,0,0
-434,50,0,0,0,0,0,0,0,0,0,-1,790,974,0,0
-427,50,0,0,0,0,0,0,0,0,0,-1,797,974,0,0
-420,50,0,0,0,0,0,0,0,0,0,-1,804,974,0,0
-413,50,0,0,0,0,0,0,0,0,0,-1,811,974,0,0
-406,50,0,0,0,0,0,0,0,0,0,-1,818,974,0,0
-399,50,0,0,0,0,0,0,0,0,0,-1,825,974,0,0
-392,50,0,0,0,0,0,0,0,0,0,-1,832,974,0,0
-385,50,0,0,0,0,0,0,0,0,0,-1,839,974,0,0
-378,50,0,0,0,0,0,0,0,0,0,-1,846,974,0,0
-371,50,0,0,0,0,0,0,0,0,0,-1,853,974,0,0
-364,50,0,0,0,0,0,0,0,0,0,-1,860,974,0,0
-357,50,0,0,0,0,0,0,0,0,0,-1,867,974,0,0
-350,50,0,0,0,0,0,0,0,0,0,-1,874,974,0,0
-343,50,0,0,0,0,0,0,0,0,0,-1,881,974,0,0
-336,50,0,0,0,0,0,0,0,0,0,-1,888,974,0,0
-329,50,0,0,0,0,0,0,0,0,0,-1,895,974,0,0
-322,50,0,0,0,0,0,0,0,0,0,-1,902,974,0,0
-315,50,0,0,0,0,0,0,0,0,0,-1,909,974,0,0
-308,50,0,0,0,0,0,0,0,0,0,-1,916,974,0,0
-301,50,0,0,0,0,0,0,0,0,0,-1,923,974,0,0
-294,50,0,0,0,0,0,0,0,0,0,-1,930,974,0,0
-287,50,0,0,0,0,0,0,0,0,0,-1,937,974,0,0
-280,50,0,0,0,0,0,0,0,0,0,-1,944,974,0,0
-273,50,0,0,0,0,0,0,0,0,0,-1,951,974,0,0
-266,50,0,0,0,0,0,0,0,0,0,-1,958,974,0,0
-259,50,0,0,0,0,0,0,0,0,0,-1,965,974,0,0
-252,50,0,0,0,0,0,0,0,0,0,-1,972,974,0,0
-245,50,0,0,0,0,0,0,0,0,0,-1,979,974,0,0
-238,50,0,0,0,0,0,0,0,0,0,-1,986,974,0,0
-231,50,0,0,0,0,0,0,0,0,0,-1,993,974,0,0
-224,50,0,0,0,0,0,0,0,0,0,-1,1000,974,0,0
-217,50,0,0,0,0,0,0,0,0,0,-1,1007,974,0,0
-210,50,0,0,0,0,0,0,0,0,0,-1,1014,974,0,0
-203,50,0,0,0,0,0,0,0,0,0,-1,1021,974,0,0
-196,50,0,0,0,0,0,0,0,0,0,-1,1028,974,0,0
-189,50,0,0,0,0,0,0,0,0,0,-1,1035,974,0,0
-182,50,0,0,0,0,0,0,0,0,0,-1,1042,974,0,0
-175,50,0,0,0,0,0,0,0,0,0,-1,1049,974,0,0
-168,50,0,0,0,0,0,0,0,0,0,-1,1056,974,0,0
-161,50,0,0,0,0,0,0,0,0,0,-1,1063,974,0,0
-154,50,0,0,0,0,0,0,0,0,0,-1,1070,974,0,0
-147,50,0,0,0,0,0,0,0,0,0,-1,1077,974,0,0
-140,50,0,0,0,0,0,0,0,0,0,-1,1084,974,0,0
-133,50,0,0,0,0,0,0,0,0,0,-1,1091,974,0,0
-126,50,0,0,0,0,0,0,0,0,0,-1,1098,974,0,0
-119,50,0,0,0,0,0,0,0,0,0,-1,1105,974,0,0
-112,50,0,0,0,0,0,0,0,0,0,-1,1112,974,0,0
-105,50,0,0,0,0,0,0,0,0,0,-1,1119,974,0,0
-98,50,0,0,0,0,0,0,0,0,0,-1,1126,974,0,0
-91,50,0,0,0,0,0,0,0,0,0,-1,1133,974,0,0
-84,50,0,0,0,0,0,0,0,0,0,-1,1140,974,0,0
-77,50,0,0,0,0,0,0,0,0,0,-1,1147,974,0,0
-70,50,0,0,0,0,0,0,0,0,0,-1,1154,974,0,0
-63,50,0,0,0,0,0,0,0,0,0,-1,1161,974,0,0
-56,50,0,0,0,0,0,0,0,0,0,-1,1168,974,0,0
-49,50,0,0,0,0,0,0,0,0,0,-1,1175,974,0,0
-42,50,0,0,0,0,0,0,0,0,0,-1,1182,974,0,0
-35,50,0,0,0,0,0,0,0,0,0,-1,1189,974,0,0
-28,50,0,0,0,0,0,0,0,0,0,-1,1196,974,0,0
-21,50,0,0,0,0,0,0,0,0,0,-1,1203,974,0,0
-14,50,0,0,0,0,0,0,0,0,0,-1,1210,974,0,0
-7,50,0,0,0,0,0,0,0,0,0,-1,1217,974,0,0
0,50,0,0,0,0,0,0,0,0,0,-1,1224,974,0,0
7,50,0,0,0,0,0,0,0,0,0,-1,1231,974,0,0
14,50,0,0,0,0,0,0,0,0,0,-1,1238,974,0,0
21,50,0,0,0,0,0,0,0,0,0,-1,1245,974,0,0
28,50,0,0,0,0,0,0,0,0,0,-1,1252,974,0,0
35,50,0,0,0,0,0,0,0,0,0,-1,1259,974,0,0
42,50,0,0,0,0,0,0,0,0,0,-1,1266,974,0,0
49,50,0,0,0,0,0,0,0,0,0,-1,1273,974,0,0
56,50,0,0,0,0,0,0,0,0,0,-1,1280,974,0,0
63,50,0,0,0,0,0,0,0,0,0,-1,1287,974,0,0
70,50,0,0,0,0,0,0,0,0,0,-1,1294,974,0,0
77,50,0,0,0,0,0,0,0,0,0,-1,1301,974,0,0
84,50,0,0,0,0,0,0,0,0,0,-1,1308,974,0,0
91,50,0,0,0,0,0,0,0,0,0,-1,1315,974,0,0
98,50,0,0,0,0,0,0,0,0,0,-1,1322,974,0,0
105,50,0,0,0,0,0,0,0,0,0,-1,1329,974,0,0
112,50,0,0,0,0,0,0,0,0,0,-1,1336,974,0,0
119,50,0,0,0,0,0,0,0,0,0,-1,1343,974,0,0
126,50,0,0,0,0,0,0,0,0,0,-1,1350,974,0,0
133,50,0,0,0,0,0,0,0,0,0,-1,1357,974,0,0
140,50,0,0,0,0,0,0,0,0,0,-1,1364,974,0,0
147,50,0,0,0,0,0,0,0,0,0,-1,1371,974,0,0
154,50,0,0,0,0,0,0,0,0,0,-1,1378,974,0,0
161,50,0,0,0,0,0,0,0,0,0,-1,1385,974,0,0
168,50,0,0,0,0,0,0,0,0,0,-1,1392,974,0,0
175,50,0,0,0,0,0,0,0,0,0,-1,1399,974,0,0
182,50,0,0,0,0,0,0,0,0,0,-1,1406,974,0,0
189,50,0,0,0,0,0,0,0,0,0,-1,1413,974,0,0
196,50,0,0,0,0,0,0,0,0,0,-1,1420,974,0,0
203,50,0,0,0,0,0,0,0,0,0,-1,1427,974,0,0
210,50,0,0,0,0,0,0,0,0,0,-1,1434,974,0,0
217,50,0,0,0,0,0,0,0,0,0,-1,1441,974,0,0
224,50,0,0,0,0,0,0,0,0,0,-1,1448,974,0,0
231,50,0,0,0,0,0,0,0,0,0,-1,1455,974,0,0
238,50,0,0,0,0,0,0,0,0,0,-1,1462,974,0,0
245,50,0,0,0,0,0,0,0,0,0,-1,1469,974,0,0
252,50,0,0,0,0,0,0,0,0,0,-1,1476,974,0,0
259,50,0,0,0,0,0,0,0,0,0,-1,1483,974,0,0
266,50,0,0,0,0,0,0,0,0,0,-1,1490,974,0,0
273,50,0,0,0,0,0,0,0,0,0,-1,1497,974,0,0
280,50,0,0,0,0,0,0,0,0,0,-1,1504,974,0,0
287,50,0,0,0,0,0,0,0,0,0,-1,1511,974,0,0
294,50,0,0,0,0,0,0,0,0,0,-1,1518,974,0,0
301,50,0,0,0,0,0,0,0,0,0,-1,1525,974,0,0
308,50,0,0,0,0,0,0,0,0,0,-1,1532,974,0,0
315,50,0,0,0,0,0,0,0,0,0,-1,1539,974,0,0
322,50,0,0,0,0,0,0,0,0,0,-1,1546,974,0,0
329,50,0,0,0,0,0,0,0,0,0,-1,1553,974,0,0
336,50,0,0,0,0,0,0,0,0,0,-1,1560,974,0,0
343,50,0,0,0,0,0,0,0,0,0,-1,1567,974,0,0
350,50,0,0,0,0,0,0,0,0,0,-1,1574,974,0,0
357,50,0,0,0,0,0,0,0,0,0,-1,1581,974,0,0
364,50,0,0,0,0,0,0,0,0,0,-1,1588,974,0,0
371,50,0,0,0,0,0,0,0,0,0,-1,1595,974,0,0
378,50,0,0,0,0,0,0,0,0,0,-1,1602,974,0,0
385,50,0,0,0,0,0,0,0,0,0,-1,1609,974,0,0
392,50,0,0,0,0,0,0,0,0,0,-1,1616,974,0,0
399,50,0,0,0,0,0,0,0,0,0,-1,1623,974,0,0
406,50,0,0,0,0,0,0,0,0,0,-1,1630,974,0,0
413,50,0,0,0,0,0,0,0,0,0,-1,1637,974,0,0
420,50,0,0,0,0,0,0,0,0,0,-1,1644,974,0,0
427,50,0,0,0,0,0,0,0,0,0,-1,1651,974,0,0
434,50,0,0,0,0,0,0,0,0,0,-1,1658,974,0,0
441,50,0,0,0,0,0,0,0,0,0,-1,1665,974,0,0
448,50,0,0,0,0,0,0,0,0,0,-1,1672,974,0,0
455,50,0,0,0,0,0,0,0,0,0,-1,1679,974,0,0
462,50,0,0,0,0,0,0,0,0,0,-1,1686,974,0,0
469,50,0,0,0,0,0,0,0,0,0,-1,1693,974,0,0
476,50,0,0,0,0,0,0,0,0,0,-1,1700,974,0,0
483,50,0,0,0,0,0,0,0,0,0,-1,1707,974,0,0
490,50,0,0,0,0,0,0,0,0,0,-1,1714,974,0,0
497,50,0,0,0,0,0,0,0,0,0,-1,1721,974,0,0
504,50,0,0,0,0,0,0,0,0,0,-1,1728,974,0,0
511,50,0,0,0,0,0,0,0,0,0,-1,1735,974,0,0
518,50,0,0,0,0,0,0,0,0,0,-1,1742,974,0,0
525,50,0,0,0,0,0,0,0,0,0,-1,1749,974,0,0
532,50,0,0,0,0,0,0,0,0,0,-1,1756,974,0,0
539,50,0,0,0,0,0,0,0,0,0,-1,1763,974,0,0
546,50,0,0,0,0,0,0,0,0,0,-1,1770,974,0,0
553,50,0,0,0,0,0,0,0,0,0,-1,1777,974,0,0
560,50,0,0,0,0,0,0,0,0,0,-1,1784,974,0,0
567,50,0,0,0,0,0,0,0,0,0,-1,1791,974,0,0
574,50,0,0,0,0,0,0,0,0,0,-1,1798,974,0,0
581,50,0,0,0,0,0,0,0,0,0,-1,1805,974,0,0
588,50,0,0,0,0,0,0,0,0,0,-1,1812,974,0,0
595,50,0,0,0,0,0,0,0,0,0,-1,1819,974,0,0
602,50,0,0,0,0,0,0,0,0,0,-1,1826,974,0,0
609,50,0,0,0,0,0,0,0,0,0,-1,1833,974,0,0
616,50,0,0,0,0,0,0,0,0,0,-1,1840,974,0,0
623,50,0,0,0,0,0,0,0,0,0,-1,1847,974,0,0
630,50,0,0,0,0,0,0,0,0,0,-1,1854,974,0,0
637,50,0,0,0,0,0,0,0,0,0,-1,1861,974,0,0
644,50,30.7816,2.92645,0.00605341,-0.0075654,0.00187883,0.00630786,-0.00781985,0.134609,0.00817219,0.0379896,1868,974,30.7817,-2.92643
651,50,30.7576,2.9292,0.00482381,-0.00540386,0.00132444,0.00499253,-0.00557259,0.126711,0.00610284,0.032512,1875,974,30.7576,-2.92923
658,50,30.9565,2.98401,0.00348412,-0.00380336,0.00116439,0.00366564,-0.00398488,0.154651,0.00441831,0.0387719,1882,974,30.9566,-2.98399
665,50,31.0403,2.91235,0.00212685,-0.0023206,0.00154522,0.00261102,-0.00280476,0.303641,0.00312747,0.0415347,1889,974,31.0403,-2.91233
672,50,30.9425,2.7912,0.000852571,-0.00109459,0.00217171,0.00225895,-0.00250097,0.574678,0.00274932,0.0434361,1896,974,30.9425,-2.79121
679,50,30.8962,2.61261,-0.000226945,-0.000283172,0.0027903,0.00253538,-0.0030455,0.780361,0.00322661,0.0434233,1903,974,30.8963,-2.61262
686,50,30.9108,2.63489,-0.000918387,0.000146441,0.00322843,0.00288607,-0.00365801,0.86712,0.00378698,0.0418556,1910,974,30.9107,-2.63487
693,50,30.9031,2.86462,-0.00129636,0.000369347,0.00342285,0.00305921,-0.00398623,0.90474,0.00407941,0.0388602,1917,974,30.9031,-2.86461
700,50,30.9012,2.97101,-0.00160547,0.000609447,0.00337914,0.00305798,-0.004054,0.943749,0.00411951,0.0211054,1924,974,30.9013,-2.97103
707,50,30.8989,3.12775,-0.00201536,0.000856628,0.00321744,0.00294398,-0.00410271,0.995291,0.0040867,0.0312102,1931,974,30.8989,-3.12775
714,50,30.9148,3.36371,0,0,0,0,0,0,0,-1,1938,974,30.9148,-3.36373
721,50,29.9498,4.35571,0,0,0,0,0,0,0,-1,1945,974,29.9499,-4.35571
728,50,29.8567,4.58795,-0.00286311,0.00162521,0.00201687,0.00239834,-0.00363624,1.20474,0.00350842,0.0211786,1952,974,29.8567,-4.58795
735,50,29.8969,4.7467,-0.00325505,0.00218291,0.00131285,0.00248328,-0.00355541,1.34588,0.00350471,0.0175645,1959,974,29.8969,-4.7467
742,50,29.9281,4.89752,-0.00408064,0.00276666,0.000186671,0.00277175,-0.00408572,1.54356,0.00398332,0.0150917,1966,974,29.9281,-4.89754
749,50,29.896,5.00891,-0.00531779,0.00312912,-0.00125753,0.00331235,-0.00550103,-1.4261,0.00514045,0.0163766,1973,974,29.896,-5.00891
756,50,29.8685,5.15863,-0.00702643,0.00375685,-0.0029228,0.00449812,-0.0077677,-1.32242,0.00716505,0.011433,1980,974,29.8685,-5.15863
763,50,29.8444,5.31403,-0.00965911,0.00440734,-0.00476063,0.00586704,-0.0111188,-1.27328,0.00996181,0.0110467,1987,974,29.8443,-5.31405
770,50,29.8046,5.41742,-0.0131856,0.00466014,-0.0068727,0.00700012,-0.0155256,-1.24263,0.0133121,0.0108324,1994,974,29.8046,-5.41741
777,50,29.7666,5.50189,-0.0175334,0.00411584,-0.00940249,0.00762924,-0.0210468,-1.21319,0.0171496,0.0226268,2001,974,29.7666,-5.50186
784,50,29.719,5.44989,-0.0232362,0.0022933,-0.0125798,0.00745032,-0.0283932,-1.18175,0.02184,0.0427816,2008,974,29.719,-5.44992
791,50,29.6599,5.40314,0,0,0,0,0,0,0,-1,2015,974,29.6599,-5.40316
798,50,29.4167,5.50916,0,0,0,0,0,0,0,-1,2022,974,29.4166,-5.50915
805,50,29.6748,5.37659,0,0,0,0,0,0,0,-1,2029,974,29.6748,-5.37659
812,50,0,0,0,0,0,0,0,0,0,-1,2036,974,0,0
-700,43,0,0,0,0,0,0,0,0,0,-1,524,981,0,0
-693,43,-18.9251,-0.493469,0.0291732,-0.0341713,3.58854e-05,0.0291732,-0.0341713,0.000566512,0.0366099,0.0414011,531,981,-18.9251,0.493498
-686,43,-19.4852,-0.134949,0.0156332,-0.028455,0.00943027,0.0175656,-0.0303873,0.202116,0.0280136,0.0451889,538,981,-19.4852,0.134938
-679,43,-19.8892,0.401794,0.00611989,-0.0221142,0.0144644,0.0122144,-0.0282087,0.398775,0.0239395,0.0458984,545,981,-19.8892,-0.401777
-672,43,-20.2895,0.763184,-0.000334601,-0.0160532,0.0166557,0.0102229,-0.0266107,0.564953,0.0219563,0.0469962,552,981,-20.2895,-0.763185
-665,43,-20.6554,1.40381,-0.00438209,-0.0107147,0.0168868,0.0096327,-0.0247294,0.692724,0.0204673,0.0452894,559,981,-20.6554,-1.40379
-658,43,-21.3436,2.06067,0,0,0,0,0,0,0,-1,566,981,-21.3436,-2.06064
-651,43,-21.4048,2.94617,-0.00734935,-0.0029614,0.013888,0.00890484,-0.0192156,0.863739,0.0165951,0.0426803,573,981,-21.4048,-2.94615
-644,43,-21.5015,2.86682,-0.00708193,-0.000634613,0.0113886,0.00797781,-0.0156944,0.92332,0.0139071,0.0220695,580,981,-21.5015,-2.86681
-637,43,-21.5327,2.77344,-0.00698252,0.00101346,0.0088769,0.00675114,-0.0127202,0.996983,0.0114165,0.0147281,587,981,-21.5327,-2.77344
-630,43,-21.5427,2.69128,-0.00697925,0.00191482,0.00646545,0.00531496,-0.0103794,1.08665,0.00921705,0.012659,594,981,-21.5427,-2.69127
-623,43,-21.5512,2.58911,-0.0062169,0.0035029,0.00350015,0.00463213,-0.00734613,1.25872,0.00697457,0.0113408,601,981,-21.5512,-2.5891
-616,43,-21.5443,2.46198,-0.00492065,0.00371911,0.00036025,0.0037341,-0.00493564,1.5292,0.00502148,0.0104572,608,981,-21.5443,-2.46198
-609,43,-21.5512,2.34387,-0.00393393,0.00254633,-0.0022097,0.00322809,-0.00461569,-1.27153,0.00455217,0.0132169,615,981,-21.5512,-2.34386
-602,43,-21.5475,2.24939,-0.00371978,0.00228713,-0.00375581,0.00409271,-0.00552536,-1.12267,0.00557349,0.015545,622,981,-21.5475,-2.24938
-595,43,-21.53,2.16272,-0.00361905,0.00180448,-0.00440189,0.00426285,-0.00607742,-1.06147,0.00600052,0.0134151,629,981,-21.53,-2.16273
-588,43,-21.5176,1.88934,-0.00368865,0.00157148,-0.00489427,0.0044976,-0.00661477,-1.03195,0.00645443,0.0146644,636,981,-21.5176,-1.88935
-581,43,-21.6836,1.38904,-0.00377118,0.00150522,-0.00520416,0.00470169,-0.00696765,-1.01999,0.00677951,0.0208769,643,981,-21.6836,-1.38905
-574,43,-21.8137,1.17529,-0.00379561,0.00142831,-0.00518555,0.00462257,-0.00698987,-1.0187,0.00675073,0.0268964,650,981,-21.8136,-1.17529
-567,43,-21.7733,1.19391,-0.00366017,0.00153484,-0.00497607,0.00455056,-0.00667589,-1.02594,0.0065202,0.0377199,657,981,-21.7733,-1.19392
-560,43,-21.7628,1.26471,-0.00323013,0.00159425,-0.00451761,0.00430334,-0.00593922,-1.03062,0.00593863,0.0425011,664,981,-21.7627,-1.26468
-553,43,-21.8015,1.1618,-0.0024599,0.00155889,-0.00392265,0.00395686,-0.00485787,-1.0221,0.00509804,0.0412842,671,981,-21.8015,-1.16179
-546,43,-21.8785,1.14746,-0.00136079,0.00132833,-0.00325359,0.00350424,-0.0035367,-0.981339,0.0040651,0.0415611,678,981,-21.8785,-1.14749
-539,43,-21.8503,0.881653,6.87468e-05,0.00077229,-0.00270827,0.00315154,-0.00231051,-0.84998,0.00316595,0.0455124,685,981,-21.8504,-0.881667
-532,43,-21.7222,0.545837,0.00131357,1.64297e-05,-0.00288172,0.00361881,-0.00228881,-0.674711,0.00343945,0.0458884,692,981,-21.7222,-0.54581
-525,43,-21.5695,0.477722,0.000780863,-0.000869665,-0.00422271,0.00425819,-0.00434699,-0.688897,0.00496829,0.0471078,699,981,-21.5695,-0.477727
-518,43,0,0,0,0,0,0,0,0,0,-1,706,981,0,0
-511,43,0,0,0,0,0,0,0,0,0,-1,713,981,0,0
-504,43,0,0,0,0,0,0,0,0,0,-1,720,981,0,0
-497,43,0,0,0,0,0,0,0,0,0,-1,727,981,0,0
-490,43,0,0,0,0,0,0,0,0,0,-1,734,981,0,0
-483,43,0,0,0,0,0,0,0,0,0,-1,741,981,0,0
-476,43,0,0,0,0,0,0,0,0,0,-1,748,981,0,0
-469,43,0,0,0,0,0,0,0,0,0,-1,755,981,0,0
-462,43,0,0,0,0,0,0,0,0,0,-1,762,981,0,0
-455,43,0,0,0,0,0,0,0,0,0,-1,769,981,0,0
-448,43,0,0,0,0,0,0,0,0,0,-1,776,981,0,0
-441,43,0,0,0,0,0,0,0,0,0,-1,783,981,0,0
-434,43,0,0,0,0,0,0,0,0,0,-1,790,981,0,0
-427,43,0,0,0,0,0,0,0,0,0,-1,797,981,0,0
-420,43,0,0,0,0,0,0,0,0,0,-1,804,981,0,0
-413,43,0,0,0,0,0,0,0,0,0,-1,811,981,0,0
-406,43,0,0,0,0,0,0,0,0,0,-1,818,981,0,0
-399,43,0,0,0,0,0,0,0,0,0,-1,825,981,0,0
-392,43,0,0,0,0,0,0,0,0,0,-1,832,981,0,0
-385,43,0,0,0,0,0,0,0,0,0,-1,839,981,0,0
-378,43,0,0,0,0,0,0,0,0,0,-1,846,981,0,0
-371,43,0,0,0,0,0,0,0,0,0,-1,853,981,0,0
-364,43,0,0,0,0,0,0,0,0,0,-1,860,981,0,0
-357,43,0,0,0,0,0,0,0,0,0,-1,867,981,0,0
-350,43,0,0,0,0,0,0,0,0,0,-1,874,981,0,0
-343,43,0,0,0,0,0,0,0,0,0,-1,881,981,0,0
-336,43,0,0,0,0,0,0,0,0,0,-1,888,981,0,0
-329,43,0,0,0,0,0,0,0,0,0,-1,895,981,0,0
-322,43,0,0,0,0,0,0,0,0,0,-1,902,981,0,0
-315,43,0,0,0,0,0,0,0,0,0,-1,909,981,0,0
-308,43,0,0,0,0,0,0,0,0,0,-1,916,981,0,0
-301,43,0,0,0,0,0,0,0,0,0,-1,923,981,0,0
-294,43,0,0,0,0,0,0,0,0,0,-1,930,981,0,0
-287,43,0,0,0,0,0,0,0,0,0,-1,937,981,0,0
-280,43,0,0,0,0,0,0,0,0,0,-1,944,981,0,0
-273,43,0,0,0,0,0,0,0,0,0,-1,951,981,0,0
-266,43,0,0,0,0,0,0,0,0,0,-1,958,981,0,0
-259,43,0,0,0,0,0,0,0,0,0,-1,965,981,0,0
-252,43,0,0,0,0,0,0,0,0,0,-1,972,981,0,0
-245,43,0,0,0,0,0,0,0,0,0,-1,979,981,0,0
-238,43,0,0,0,0,0,0,0,0,0,-1,986,981,0,0
-231,43,0,0,0,0,0,0,0,0,0,-1,993,981,0,0
-224,43,0,0,0,0,0,0,0,0,0,-1,1000,981,0,0
-217,43,0,0,0,0,0,0,0,0,0,-1,1007,981,0,0
-210,43,0,0,0,0,0,0,0,0,0,-1,1014,981,0,0
-203,43,0,0,0,0,0,0,0,0,0,-1,1021,981,0,0
-196,43,0,0,0,0,0,0,0,0,0,-1,1028,981,0,0
-189,43,0,0,0,0,0,0,0,0,0,-1,1035,981,0,0
-182,43,0,0,0,0,0,0,0,0,0,-1,1042,981,0,0
-175,43,0,0,0,0,0,0,0,0,0,-1,1049,981,0,0
-168,43,0,0,0,0,0,0,0,0,0,-1,1056,981,0,0
-161,43,0,0,0,0,0,0,0,0,0,-1,1063,981,0,0
-154,43,0,0,0,0,0,0,0,0,0,-1,1070,981,0,0
-147,43,0,0,0,0,0,0,0,0,0,-1,1077,981,0,0
-140,43,0,0,0,0,0,0,0,0,0,-1,1084,981,0,0
-133,43,0,0,0,0,0,0,0,0,0,-1,1091,981,0,0
-126,43,0,0,0,0,0,0,0,0,0,-1,1098,981,0,0
-119,43,0,0,0,0,0,0,0,0,0,-1,1105,981,0,0
-112,43,0,0,0,0,0,0,0,0,0,-1,1112,981,0,0
-105,43,0,0,0,0,0,0,0,0,0,-1,1119,981,0,0
-98,43,0,0,0,0,0,0,0,0,0,-1,1126,981,0,0
-91,43,0,0,0,0,0,0,0,0,0,-1,1133,981,0,0
-84,43,0,0,0,0,0,0,0,0,0,-1,1140,981,0,0
-77,43,0,0,0,0,0,0,0,0,0,-1,1147,981,0,0
-70,43,0,0,0,0,0,0,0,0,0,-1,1154,981,0,0
-63,43,0,0,0,0,0,0,0,0,0,-1,1161,981,0,0
-56,43,0,0,0,0,0,0,0,0,0,-1,1168,981,0,0
-49,43,0,0,0,0,0,0,0,0,0,-1,1175,981,0,0
-42,43,0,0,0,0,0,0,0,0,0,-1,1182,981,0,0
-35,43,0,0,0,0,0,0,0,0,0,-1,1189,981,0,0
-28,43,0,0,0,0,0,0,0,0,0,-1,1196,981,0,0
-21,43,0,0,0,0,0,0,0,0,0,-1,1203,981,0,0
-14,43,0,0,0,0,0,0,0,0,0,-1,1210,981,0,0
-7,43,0,0,0,0,0,0,0,0,0,-1,1217,981,0,0
0,43,0,0,0,0,0,0,0,0,0,-1,1224,981,0,0
7,43,0,0,0,0,0,0,0,0,0,-1,1231,981,0,0
14,43,0,0,0,0,0,0,0,0,0,-1,1238,981,0,0
21,43,0,0,0,0,0,0,0,0,0,-1,1245,981,0,0
28,43,0,0,0,0,0,0,0,0,0,-1,1252,981,0,0
35,43,0,0,0,0,0,0,0,0,0,-1,1259,981,0,0
42,43,0,0,0,0,0,0,0,0,0,-1,1266,981,0,0
49,43,0,0,0,0,0,0,0,0,0,-1,1273,981,0,0
56,43,0,0,0,0,0,0,0,0,0,-1,1280,981,0,0
63,43,0,0,0,0,0,0,0,0,0,-1,1287,981,0,0
70,43,0,0,0,0,0,0,0,0,0,-1,1294,981,0,0
77,43,0,0,0,0,0,0,0,0,0,-1,1301,981,0,0
84,43,0,0,0,0,0,0,0,0,0,-1,1308,981,0,0
91,43,0,0,0,0,0,0,0,0,0,-1,1315,981,0,0
98,43,0,0,0,0,0,0,0,0,0,-1,1322,981,0,0
105,43,0,0,0,0,0,0,0,0,0,-1,1329,981,0,0
112,43,0,0,0,0,0,0,0,0,0,-1,1336,981,0,0
119,43,0,0,0,0,0,0,0,0,0,-1,1343,981,0,0
126,43,0,0,0,0,0,0,0,0,0,-1,1350,981,0,0
133,43,0,0,0,0,0,0,0,0,0,-1,1357,981,0,0
140,43,0,0,0,0,0,0,0,0,0,-1,1364,981,0,0
147,43,0,0,0,0,0,0,0,0,0,-1,1371,981,0,0
154,43,0,0,0,0,0,0,0,0,0,-1,1378,981,0,0
161,43,0,0,0,0,0,0,0,0,0,-1,1385,981,0,0
168,43,0,0,0,0,0,0,0,0,0,-1,1392,981,0,0
175,43,0,0,0,0,0,0,0,0,0,-1,1399,981,0,0
182,43,0,0,0,0,0,0,0,0,0,-1,1406,981,0,0
189,43,0,0,0,0,0,0,0,0,0,-1,1413,981,0,0
196,43,0,0,0,0,0,0,0,0,0,-1,1420,981,0,0
203,43,0,0,0,0,0,0,0,0,0,-1,1427,981,0,0
210,43,0,0,0,0,0,0,0,0,0,-1,1434,981,0,0
217,43,0,0,0,0,0,0,0,0,0,-1,1441,981,0,0
224,43,0,0,0,0,0,0,0,0,0,-1,1448,981,0,0
231,43,0,0,0,0,0,0,0,0,0,-1,1455,981,0,0
238,43,0,0,0,0,0,0,0,0,0,-1,1462,981,0,0
245,43,0,0,0,0,0,0,0,0,0,-1,1469,981,0,0
252,43,0,0,0,0,0,0,0,0,0,-1,1476,981,0,0
259,43,0,0,0,0,0,0,0,0,0,-1,1483,981,0,0
266,43,0,0,0,0,0,0,0,0,0,-1,1490,981,0,0
273,43,0,0,0,0,0,0,0,0,0,-1,1497,981,0,0
280,43,0,0,0,0,0,0,0,0,0,-1,1504,981,0,0
287,43,0,0,0,0,0,0,0,0,0,-1,1511,981,0,0
294,43,0,0,0,0,0,0,0,0,0,-1,1518,981,0,0
301,43,0,0,0,0,0,0,0,0,0,-1,1525,981,0,0
308,43,0,0,0,0,0,0,0,0,0,-1,1532,981,0,0
315,43,0,0,0,0,0,0,0,0,0,-1,1539,981,0,0
322,43,0,0,0,0,0,0,0,0,0,-1,1546,981,0,0
329,43,0,0,0,0,0,0,0,0,0,-1,1553,981,0,0
336,43,0,0,0,0,0,0,0,0,0,-1,1560,981,0,0
343,43,0,0,0,0,0,0,0,0,0,-1,1567,981,0,0
350,43,0,0,0,0,0,0,0,0,0,-1,1574,981,0,0
357,43,0,0,0,0,0,0,0,0,0,-1,1581,981,0,0
364,43,0,0,0,0,0,0,0,0,0,-1,1588,981,0,0
371,43,0,0,0,0,0,0,0,0,0,-1,1595,981,0,0
378,43,0,0,0,0,0,0,0,0,0,-1,1602,981,0,0
385,43,0,0,0,0,0,0,0,0,0,-1,1609,981,0,0
392,43,0,0,0,0,0,0,0,0,0,-1,1616,981,0,0
399,43,0,0,0,0,0,0,0,0,0,-1,1623,981,0,0
406,43,0,0,0,0,0,0,0,0,0,-1,1630,981,0,0
413,43,0,0,0,0,0,0,0,0,0,-1,1637,981,0,0
420,43,0,0,0,0,0,0,0,0,0,-1,1644,981,0,0
427,43,0,0,0,0,0,0,0,0,0,-1,1651,981,0,0
434,43,0,0,0,0,0,0,0,0,0,-1,1658,981,0,0
441,43,0,0,0,0,0,0,0,0,0,-1,1665,981,0,0
448,43,0,0,0,0,0,0,0,0,0,-1,1672,981,0,0
455,43,0,0,0,0,0,0,0,0,0,-1,1679,981,0,0
462,43,0,0,0,0,0,0,0,0,0,-1,1686,981,0,0
469,43,0,0,0,0,0,0,0,0,0,-1,1693,981,0,0
476,43,0,0,0,0,0,0,0,0,0,-1,1700,981,0,0
483,43,0,0,0,0,0,0,0,0,0,-1,1707,981,0,0
490,43,0,0,0,0,0,0,0,0,0,-1,1714,981,0,0
497,43,0,0,0,0,0,0,0,0,0,-1,1721,981,0,0
504,43,0,0,0,0,0,0,0,0,0,-1,1728,981,0,0
511,43,0,0,0,0,0,0,0,0,0,-1,1735,981,0,0
518,43,0,0,0,0,0,0,0,0,0,-1,1742,981,0,0
525,43,0,0,0,0,0,0,0,0,0,-1,1749,981,0,0
532,43,0,0,0,0,0,0,0,0,0,-1,1756,981,0,0
539,43,0,0,0,0,0,0,0,0,0,-1,1763,981,0,0
546,43,0,0,0,0,0,0,0,0,0,-1,1770,981,0,0
553,43,0,0,0,0,0,0,0,0,0,-1,1777,981,0,0
560,43,0,0,0,0,0,0,0,0,0,-1,1784,981,0,0
567,43,0,0,0,0,0,0,0,0,0,-1,1791,981,0,0
574,43,0,0,0,0,0,0,0,0,0,-1,1798,981,0,0
581,43,0,0,0,0,0,0,0,0,0,-1,1805,981,0,0
588,43,0,0,0,0,0,0,0,0,0,-1,1812,981,0,0
595,43,0,0,0,0,0,0,0,0,0,-1,1819,981,0,0
602,43,0,0,0,0,0,0,0,0,0,-1,1826,981,0,0
609,43,0,0,0,0,0,0,0,0,0,-1,1833,981,0,0
616,43,0,0,0,0,0,0,0,0,0,-1,1840,981,0,0
623,43,0,0,0,0,0,0,0,0,0,-1,1847,981,0,0
630,43,0,0,0,0,0,0,0,0,0,-1,1854,981,0,0
637,43,0,0,0,0,0,0,0,0,0,-1,1861,981,0,0
644,43,30.5516,3.10059,0.00735839,-0.0094671,0.0012159,0.00744581,-0.00955452,0.0717682,0.00984028,0.0373825,1868,981,30.5517,-3.10058
651,43,30.5803,3.01459,0.00566954,-0.00679132,0.000782741,0.00571851,-0.0068403,0.0624886,0.00726047,0.0378606,1875,981,30.5803,-3.01457
658,43,30.9479,2.94537,0.00404809,-0.00485804,0.000702101,0.0041031,-0.00491305,0.0781899,0.00521247,0.0394964,1882,981,30.9478,-2.94538
665,43,31.0239,2.95435,0.00253488,-0.00315751,0.00113717,0.00275364,-0.00337628,0.190054,0.00354519,0.0380557,1889,981,31.0239,-2.95432
672,43,30.9254,2.89203,0.00118259,-0.00174505,0.00184829,0.00207651,-0.00263897,0.45048,0.00272893,0.0405852,1896,981,30.9254,-2.89203
679,43,30.9363,2.73987,3.81811e-05,-0.000761048,0.00255313,0.00222278,-0.00294565,0.707768,0.0029937,0.043648,1903,981,30.9363,-2.73988
686,43,30.9188,2.76178,-0.000671985,-0.0002282,0.00306013,0.00261807,-0.00351825,0.82159,0.00355549,0.0427755,1910,981,30.9188,-2.76179
693,43,30.8718,2.88702,-0.00106697,6.5562e-05,0.00331379,0.00286112,-0.00386253,0.870021,0.00389623,0.0389457,1917,981,30.8719,-2.88704
700,43,30.853,2.95569,-0.00138078,0.000362884,0.00330372,0.00290787,-0.00392577,0.914405,0.00395996,0.0321259,1924,981,30.8531,-2.95567
707,43,30.8936,3.02393,-0.00177437,0.000651198,0.00317408,0.0028363,-0.00395947,0.967885,0.00394136,0.0250456,1931,981,30.8936,-3.02392
714,43,30.9132,3.30884,-0.00225117,0.000861283,0.00294373,0.00263483,-0.00402472,1.02855,0.00387271,0.0309094,1938,981,30.9132,-3.30883
721,43,30.2271,4.35828,0,0,0,0,0,0,0,-1,1945,981,30.2271,-4.35826
728,43,30.1635,4.56775,-0.00269598,0.00149995,0.00207711,0.00235424,-0.00355028,1.1806,0.00343221,0.0201159,1952,981,30.1635,-4.56775
735,43,30.0739,4.75879,-0.00311672,0.00207966,0.00141002,0.00243761,-0.00347466,1.32219,0.00343091,0.0130187,1959,981,30.0739,-4.75882
742,43,30.0494,4.87817,-0.00400642,0.00273218,0.00036817,0.00275223,-0.00402647,1.51638,0.00393667,0.0151756,1966,981,30.0494,-4.87818
749,43,30.0349,4.99152,-0.00529986,0.0032401,-0.00093975,0.00334229,-0.00540205,-1.46248,0.00509502,0.0177788,1973,981,30.0349,-4.99152
756,43,30.0349,5.11725,-0.00705271,0.00395499,-0.00239172,0.00445219,-0.00754991,-1.36583,0.00700593,0.0170398,1980,981,30.035,-5.11722
763,43,30.0054,5.2334,-0.00972619,0.00502515,-0.00384849,0.00596882,-0.0106699,-1.33034,0.00973331,0.0196175,1987,981,30.0054,-5.23339
770,43,29.9478,5.39172,-0.0132978,0.00590585,-0.00538616,0.00731338,-0.0147053,-1.31519,0.0129491,0.0159218,1994,981,29.9478,-5.39174
777,43,29.9033,5.4765,-0.0175836,0.00628898,-0.00699861,0.00818944,-0.019484,-1.30564,0.0164149,0.0211927,2001,981,29.9033,-5.47653
784,43,29.8329,5.34766,-0.0230623,0.00592975,-0.00874544,0.0083635,-0.025496,-1.29938,0.0203659,0.043018,2008,981,29.8329,-5.34768
791,43,29.7711,5.23114,0,0,0,0,0,0,0,-1,2015,981,29.7712,-5.23114
798,43,29.2981,5.50513,0,0,0,0,0,0,0,-1,2022,981,29.2981,-5.50512
805,43,29.1667,5.41644,0,0,0,0,0,0,0,-1,2029,981,29.1667,-5.41642
812,43,29.0007,5.3418,0,0,0,0,0,0,0,-1,2036,981,29.0007,-5.34178
-700,36,0,0,0,0,0,0,0,0,0,-1,524,988,0,0
-693,36,-18.6981,0.0320435,0.0577978,-0.034108,-0.00355903,0.0579354,-0.0342456,-0.0386476,0.0538034,0.0412307,531,988,-18.6981,-0.0320463
-686,36,-19.0739,0.381897,0.0368427,-0.0290864,0.0057052,0.0373328,-0.0295764,0.0856866,0.0387165,0.0444488,538,988,-19.0739,-0.381902
-679,36,-19.5999,0.791138,0.0213844,-0.0231084,0.0109988,0.0239549,-0.0256788,0.229581,0.0286618,0.045896,545,988,-19.5999,-0.791128
-672,36,-19.9672,2.10474,0.0103422,-0.0171759,0.0136106,0.0159367,-0.0227704,0.389987,0.0224633,0.0475711,552,988,-19.9672,-2.10474
-665,36,-20.6511,2.0108,0.0028583,-0.0118164,0.0143056,0.0115985,-0.0205566,0.548442,0.0188033,0.0432558,559,988,-20.651,-2.0108
-658,36,-21.0939,2.40057,-0.00183365,-0.00731371,0.0136767,0.0093748,-0.0185222,0.686535,0.0163924,0.0467906,566,988,-21.0939,-2.40058
-651,36,-21.492,2.7392,-0.00434317,-0.00381749,0.0121552,0.00807772,-0.0162384,0.796209,0.0143,0.0394184,573,988,-21.492,-2.73917
-644,36,-21.6697,2.77136,-0.00522894,-0.00134443,0.00996535,0.00686617,-0.0134395,0.881642,0.0119265,0.0225045,580,988,-21.6697,-2.77135
-637,36,-21.6768,2.69183,-0.00628657,0.000435124,0.00771715,0.0054915,-0.0113429,0.990765,0.00991315,0.0168811,587,988,-21.6768,-2.69182
-630,36,-21.6554,2.66205,-0.00679742,0.00143463,0.00541126,0.00411739,-0.00948017,1.11054,0.0080515,0.0138159,594,988,-21.6554,-2.66206
-623,36,-21.6735,2.56567,-0.00594021,0.00322294,0.00254451,0.00388211,-0.00659937,1.31731,0.0061189,0.0125552,601,988,-21.6735,-2.56565
-616,36,-21.6584,2.46399,-0.00455829,0.00335017,-0.000574462,0.00339168,-0.0045998,-1.49866,0.00463142,0.00985973,608,988,-21.6584,-2.46398
-609,36,-21.6497,2.38367,-0.00326914,0.00251757,-0.00298001,0.00377776,-0.00452933,-1.17072,0.00480264,0.0148861,615,988,-21.6497,-2.38364
-602,36,-21.6276,2.29828,-0.00277506,0.00224329,-0.00446812,0.00485857,-0.00539034,-1.04124,0.00591986,0.0203011,622,988,-21.6276,-2.29827
-595,36,-21.6028,2.19733,-0.00256816,0.00184944,-0.00516958,0.00526233,-0.00598105,-0.987294,0.00649579,0.0202459,629,988,-21.6029,-2.19732
-588,36,-21.6159,1.80865,-0.00253874,0.00164927,-0.00567669,0.00560586,-0.00649533,-0.962095,0.00699291,0.0201371,636,988,-21.6159,-1.80865
-581,36,-21.707,1.27594,-0.00257096,0.00159672,-0.00594644,0.00581387,-0.00678812,-0.953929,0.00728301,0.0245394,643,988,-21.7069,-1.27595
-574,36,-21.7886,1.23224,-0.00265517,0.00147772,-0.00583984,0.00560595,-0.0067834,-0.95545,0.00716375,0.0279341,650,988,-21.7886,-1.23225
-567,36,-21.7755,1.07788,-0.00265326,0.00153858,-0.00547825,0.00530816,-0.00642284,-0.968102,0.00678308,0.0357416,657,988,-21.7755,-1.07788
-560,36,-21.74,0.91925,-0.00244617,0.00150832,-0.00482363,0.00474422,-0.00568208,-0.979907,0.00602774,0.0402391,664,988,-21.74,-0.919264
-553,36,-21.7773,0.879456,-0.00199479,0.00130653,-0.00398296,0.00396733,-0.00465558,-0.98184,0.00498373,0.0413751,671,988,-21.7773,-0.879435
-546,36,-21.8333,1.00476,-0.00129638,0.000800761,-0.00303056,0.00295903,-0.00345465,-0.951951,0.00370662,0.0406225,678,988,-21.8333,-1.00474
-539,36,-21.7019,1.02838,-0.000319023,-0.000185705,-0.00222289,0.00197153,-0.00247626,-0.800387,0.00257343,0.0446114,685,988,-21.7019,-1.02837
-532,36,-21.6898,0.986877,0.00037297,-0.00147516,-0.0022644,0.0018946,-0.00299679,-0.591671,0.00284784,0.0485147,692,988,-21.6898,-0.986888
-525,36,-22.0911,1.20947,-0.000694999,-0.00311155,-0.00357544,0.00187081,-0.00567735,-0.622454,0.00453889,0.0481039,699,988,-22.0911,-1.20948
-518,36,0,0,0,0,0,0,0,0,0,-1,706,988,0,0
-511,36,0,0,0,0,0,0,0,0,0,-1,713,988,0,0
-504,36,0,0,0,0,0,0,0,0,0,-1,720,988,0,0
-497,36,0,0,0,0,0,0,0,0,0,-1,727,988,0,0
-490,36,0,0,0,0,0,0,0,0,0,-1,734,988,0,0
-483,36,0,0,0,0,0,0,0,0,0,-1,741,988,0,0
-476,36,0,0,0,0,0,0,0,0,0,-1,748,988,0,0
-469,36,0,0,0,0,0,0,0,0,0,-1,755,988,0,0
-462,36,0,0,0,0,0,0,0,0,0,-1,762,988,0,0
-455,36,0,0,0,0,0,0,0,0,0,-1,769,988,0,0
-448,36,0,0,0,0,0,0,0,0,0,-1,776,988,0,0
-441,36,0,0,0,0,0,0,0,0,0,-1,783,988,0,0
-434,36,0,0,0,0,0,0,0,0,0,-1,790,988,0,0
-427,36,0,0,0,0,0,0,0,0,0,-1,797,988,0,0
-420,36,0,0,0,0,0,0,0,0,0,-1,804,988,0,0
-413,36,0,0,0,0,0,0,0,0,0,-1,811,988,0,0
-406,36,0,0,0,0,0,0,0,0,0,-1,818,988,0,0
-399,36,0,0,0,0,0,0,0,0,0,-1,825,988,0,0
-392,36,0,0,0,0,0,0,0,0,0,-1,832,988,0,0
-385,36,0,0,0,0,0,0,0,0,0,-1,839,988,0,0
-378,36,0,0,0,0,0,0,0,0,0,-1,846,988,0,0
-371,36,0,0,0,0,0,0,0,0,0,-1,853,988,0,0
-364,36,0,0,0,0,0,0,0,0,0,-1,860,988,0,0
-357,36,0,0,0,0,0,0,0,0,0,-1,867,988,0,0
-350,36,0,0,0,0,0,0,0,0,0,-1,874,988,0,0
-343,36,0,0,0,0,0,0,0,0,0,-1,881,988,0,0
-336,36,0,0,0,0,0,0,0,0,0,-1,888,988,0,0
-329,36,0,0,0,0,0,0,0,0,0,-1,895,988,0,0
-322,36,0,0,0,0,0,0,0,0,0,-1,902,988,0,0
-315,36,0,0,0,0,0,0,0,0,0,-1,909,988,0,0
-308,36,0,0,0,0,0,0,0,0,0,-1,916,988,0,0
-301,36,0,0,0,0,0,0,0,0,0,-1,923,988,0,0
-294,36,0,0,0,0,0,0,0,0,0,-1,930,988,0,0
-287,36,0,0,0,0,0,0,0,0,0,-1,937,988,0,0
-280,36,0,0,0,0,0,0,0,0,0,-1,944,988,0,0
-273,36,0,0,0,0,0,0,0,0,0,-1,951,988,0,0
-266,36,0,0,0,0,0,0,0,0,0,-1,958,988,0,0
-259,36,0,0,0,0,0,0,0,0,0,-1,965,988,0,0
-252,36,0,0,0,0,0,0,0,0,0,-1,972,988,0,0
-245,36,0,0,0,0,0,0,0,0,0,-1,979,988,0,0
-238,36,0,0,0,0,0,0,0,0,0,-1,986,988,0,0
-231,36,0,0,0,0,0,0,0,0,0,-1,993,988,0,0
-224,36,0,0,0,0,0,0,0,0,0,-1,1000,988,0,0
-217,36,0,0,0,0,0,0,0,0,0,-1,1007,988,0,0
-210,36,0,0,0,0,0,0,0,0,0,-1,1014,988,0,0
-203,36,0,0,0,0,0,0,0,0,0,-1,1021,988,0,0
-196,36,0,0,0,0,0,0,0,0,0,-1,1028,988,0,0
-189,36,0,0,0,0,0,0,0,0,0,-1,1035,988,0,0
-182,36,0,0,0,0,0,0,0,0,0,-1,1042,988,0,0
-175,36,0,0,0,0,0,0,0,0,0,-1,1049,988,0,0
-168,36,0,0,0,0,0,0,0,0,0,-1,1056,988,0,0
-161,36,0,0,0,0,0,0,0,0,0,-1,1063,988,0,0
-154,36,0,0,0,0,0,0,0,0,0,-1,1070,988,0,0
-147,36,0,0,0,0,0,0,0,0,0,-1,1077,988,0,0
-140,36,0,0,0,0,0,0,0,0,0,-1,1084,988,0,0
-133,36,0,0,0,0,0,0,0,0,0,-1,1091,988,0,0
-126,36,0,0,0,0,0,0,0,0,0,-1,1098,988,0,0
-119,36,0,0,0,0,0,0,0,0,0,-1,1105,988,0,0
-112,36,0,0,0,0,0,0,0,0,0,-1,1112,988,0,0
-105,36,0,0,0,0,0,0,0,0,0,-1,1119,988,0,0
-98,36,0,0,0,0,0,0,0,0,0,-1,1126,988,0,0
-91,36,0,0,0,0,0,0,0,0,0,-1,1133,988,0,0
-84,36,0,0,0,0,0,0,0,0,0,-1,1140,988,0,0
-77,36,0,0,0,0,0,0,0,0,0,-1,1147,988,0,0
-70,36,0,0,0,0,0,0,0,0,0,-1,1154,988,0,0
-63,36,0,0,0,0,0,0,0,0,0,-1,1161,988,0,0
-56,36,0,0,0,0,0,0,0,0,0,-1,1168,988,0,0
-49,36,0,0,0,0,0,0,0,0,0,-1,1175,988,0,0
-42,36,0,0,0,0,0,0,0,0,0,-1,1182,988,0,0
-35,36,0,0,0,0,0,0,0,0,0,-1,1189,988,0,0
-28,36,0,0,0,0,0,0,0,0,0,-1,1196,988,0,0
-21,36,0,0,0,0,0,0,0,0,0,-1,1203,988,0,0
-14,36,0,0,0,0,0,0,0,0,0,-1,1210,988,0,0
-7,36,0,0,0,0,0,0,0,0,0,-1,1217,988,0,0
0,36,0,0,0,0,0,0,0,0,0,-1,1224,988,0,0
7,36,0,0,0,0,0,0,0,0,0,-1,1231,988,0,0
14,36,0,0,0,0,0,0,0,0,0,-1,1238,988,0,0
21,36,0,0,0,0,0,0,0,0,0,-1,1245,988,0,0
28,36,0,0,0,0,0,0,0,0,0,-1,1252,988,0,0
35,36,0,0,0,0,0,0,0,0,0,-1,1259,988,0,0
42,36,0,0,0,0,0,0,0,0,0,-1,1266,988,0,0
49,36,0,0,0,0,0,0,0,0,0,-1,1273,988,0,0
56,36,0,0,0,0,0,0,0,0,0,-1,1280,988,0,0
63,36,0,0,0,0,0,0,0,0,0,-1,1287,988,0,0
70,36,0,0,0,0,0,0,0,0,0,-1,1294,988,0,0
77,36,0,0,0,0,0,0,0,0,0,-1,1301,988,0,0
84,36,0,0,0,0,0,0,0,0,0,-1,1308,988,0,0
91,36,0,0,0,0,0,0,0,0,0,-1,1315,988,0,0
98,36,0,0,0,0,0,0,0,0,0,-1,1322,988,0,0
105,36,0,0,0,0,0,0,0,0,0,-1,1329,988,0,0
112,36,0,0,0,0,0,0,0,0,0,-1,1336,988,0,0
119,36,0,0,0,0,0,0,0,0,0,-1,1343,988,0,0
126,36,0,0,0,0,0,0,0,0,0,-1,1350,988,0,0
133,36,0,0,0,0,0,0,0,0,0,-1,1357,988,0,0
140,36,0,0,0,0,0,0,0,0,0,-1,1364,988,0,0
147,36,0,0,0,0,0,0,0,0,0,-1,1371,988,0,0
154,36,0,0,0,0,0,0,0,0,0,-1,1378,988,0,0
161,36,0,0,0,0,0,0,0,0,0,-1,1385,988,0,0
168,36,0,0,0,0,0,0,0,0,0,-1,1392,988,0,0
175,36,0,0,0,0,0,0,0,0,0,-1,1399,988,0,0
182,36,0,0,0,0,0,0,0,0,0,-1,1406,988,0,0
189,36,0,0,0,0,0,0,0,0,0,-1,1413,988,0,0
196,36,0,0,0,0,0,0,0,0,0,-1,1420,988,0,0
203,36,0,0,0,0,0,0,0,0,0,-1,1427,988,0,0
210,36,0,0,0,0,0,0,0,0,0,-1,1434,988,0,0
217,36,0,0,0,0,0,0,0,0,0,-1,1441,988,0,0
224,36,0,0,0,0,0,0,0,0,0,-1,1448,988,0,0
231,36,0,0,0,0,0,0,0,0,0,-1,1455,988,0,0
238,36,0,0,0,0,0,0,0,0,0,-1,1462,988,0,0
245,36,0,0,0,0,0,0,0,0,0,-1,1469,988,0,0
252,36,0,0,0,0,0,0,0,0,0,-1,1476,988,0,0
259,36,0,0,0,0,0,0,0,0,0,-1,1483,988,0,0
266,36,0,0,0,0,0,0,0,0,0,-1,1490,988,0,0
273,36,0,0,0,0,0,0,0,0,0,-1,1497,988,0,0
280,36,0,0,0,0,0,0,0,0,0,-1,1504,988,0,0
287,36,0,0,0,0,0,0,0,0,0,-1,1511,988,0,0
294,36,0,0,0,0,0,0,0,0,0,-1,1518,988,0,0
301,36,0,0,0,0,0,0,0,0,0,-1,1525,988,0,0
308,36,0,0,0,0,0,0,0,0,0,-1,1532,988,0,0
315,36,0,0,0,0,0,0,0,0,0,-1,1539,988,0,0
322,36,0,0,0,0,0,0,0,0,0,-1,1546,988,0,0
329,36,0,0,0,0,0,0,0,0,0,-1,1553,988,0,0
336,36,0,0,0,0,0,0,0,0,0,-1,1560,988,0,0
343,36,0,0,0,0,0,0,0,0,0,-1,1567,988,0,0
350,36,0,0,0,0,0,0,0,0,0,-1,1574,988,0,0
357,36,0,0,0,0,0,0,0,0,0,-1,1581,988,0,0
364,36,0,0,0,0,0,0,0,0,0,-1,1588,988,0,0
371,36,0,0,0,0,0,0,0,0,0,-1,1595,988,0,0
378,36,0,0,0,0,0,0,0,0,0,-1,1602,988,0,0
385,36,0,0,0,0,0,0,0,0,0,-1,1609,988,0,0
392,36,0,0,0,0,0,0,0,0,0,-1,1616,988,0,0
399,36,0,0,0,0,0,0,0,0,0,-1,1623,988,0,0
406,36,0,0,0,0,0,0,0,0,0,-1,1630,988,0,0
413,36,0,0,0,0,0,0,0,0,0,-1,1637,988,0,0
420,36,0,0,0,0,0,0,0,0,0,-1,1644,988,0,0
427,36,0,0,0,0,0,0,0,0,0,-1,1651,988,0,0
434,36,0,0,0,0,0,0,0,0,0,-1,1658,988,0,0
441,36,0,0,0,0,0,0,0,0,0,-1,1665,988,0,0
448,36,0,0,0,0,0,0,0,0,0,-1,1672,988,0,0
455,36,0,0,0,0,0,0,0,0,0,-1,1679,988,0,0
462,36,0,0,0,0,0,0,0,0,0,-1,1686,988,0,0
469,36,0,0,0,0,0,0,0,0,0,-1,1693,988,0,0
476,36,0,0,0,0,0,0,0,0,0,-1,1700,988,0,0
483,36,0,0,0,0,0,0,0,0,0,-1,1707,988,0,0
490,36,0,0,0,0,0,0,0,0,0,-1,1714,988,0,0
497,36,0,0,0,0,0,0,0,0,0,-1,1721,988,0,0
504,36,0,0,0,0,0,0,0,0,0,-1,1728,988,0,0
511,36,0,0,0,0,0,0,0,0,0,-1,1735,988,0,0
518,36,0,0,0,0,0,0,0,0,0,-1,1742,988,0,0
525,36,0,0,0,0,0,0,0,0,0,-1,1749,988,0,0
532,36,0,0,0,0,0,0,0,0,0,-1,1756,988,0,0
539,36,0,0,0,0,0,0,0,0,0,-1,1763,988,0,0
546,36,0,0,0,0,0,0,0,0,0,-1,1770,988,0,0
553,36,0,0,0,0,0,0,0,0,0,-1,1777,988,0,0
560,36,0,0,0,0,0,0,0,0,0,-1,1784,988,0,0
567,36,0,0,0,0,0,0,0,0,0,-1,1791,988,0,0
574,36,0,0,0,0,0,0,0,0,0,-1,1798,988,0,0
581,36,0,0,0,0,0,0,0,0,0,-1,1805,988,0,0
588,36,0,0,0,0,0,0,0,0,0,-1,1812,988,0,0
595,36,0,0,0,0,0,0,0,0,0,-1,1819,988,0,0
602,36,0,0,0,0,0,0,0,0,0,-1,1826,988,0,0
609,36,0,0,0,0,0,0,0,0,0,-1,1833,988,0,0
616,36,0,0,0,0,0,0,0,0,0,-1,1840,988,0,0
623,36,0,0,0,0,0,0,0,0,0,-1,1847,988,0,0
630,36,0,0,0,0,0,0,0,0,0,-1,1854,988,0,0
637,36,0,0,0,0,0,0,0,0,0,-1,1861,988,0,0
644,36,31.1259,2.76257,0,0,0,0,0,0,0,-1,1868,988,31.1258,-2.76257
651,36,30.6375,3.12354,0.00591688,-0.00820081,0.000507276,0.00593509,-0.00821901,0.0358703,0.00820726,0.0414843,1875,988,30.6374,-3.12352
658,36,30.897,2.88654,0.00410123,-0.00594669,0.000369009,0.00411476,-0.00596023,0.0366591,0.00584923,0.0400142,1882,988,30.897,-2.88657
665,36,31.05,2.72198,0.00252882,-0.00403391,0.000749062,0.00261323,-0.00411833,0.112216,0.00391871,0.0368853,1889,988,31.0501,-2.722
672,36,31.007,2.93201,0.00119704,-0.00245158,0.00144661,0.00170099,-0.00295553,0.335218,0.00272077,0.0377154,1896,988,31.0069,-2.93199
679,36,30.891,3.23853,7.83153e-05,-0.00129542,0.00218273,0.0016797,-0.0028968,0.632962,0.00267321,0.0397299,1903,988,30.8909,-3.23853
686,36,30.8119,3.17786,-0.000588211,-0.000653928,0.00273334,0.00211247,-0.00335461,0.779388,0.00318346,0.0386256,1910,988,30.8119,-3.17784
693,36,30.8375,3.06653,-0.00095178,-0.000286029,0.0030404,0.00243966,-0.00367747,0.839923,0.00355574,0.0413384,1917,988,30.8375,-3.06655
700,36,30.7964,2.98468,-0.00123646,6.67498e-05,0.00307526,0.00255868,-0.00372839,0.889797,0.00365072,0.0374417,1924,988,30.7964,-2.98468
707,36,30.8789,3.01825,-0.00158059,0.000415647,0.00298392,0.00256395,-0.0037289,0.946798,0.00365387,0.0250872,1931,988,30.879,-3.01822
714,36,30.9116,3.30743,-0.00202318,0.000651794,0.0028174,0.00243306,-0.00380444,1.00701,0.00363012,0.0259094,1938,988,30.9116,-3.30745
721,36,30.5486,4.44012,0,0,0,0,0,0,0,-1,1945,988,30.5486,-4.44013
728,36,30.374,4.62354,-0.00253787,0.0013452,0.00205477,0.00223061,-0.00342328,1.16393,0.0032884,0.0217565,1952,988,30.374,-4.62353
735,36,30.2094,4.80432,-0.00301469,0.0019189,0.00141614,0.0022965,-0.00339228,1.31022,0.00330466,0.017607,1959,988,30.2094,-4.8043
742,36,30.1552,4.89935,-0.00399767,0.00266043,0.000404781,0.00268495,-0.00402219,1.5103,0.00389794,0.0142137,1966,988,30.1551,-4.89932
749,36,30.1692,4.99762,-0.00538216,0.0033489,-0.00087764,0.00343625,-0.0054695,-1.4716,0.00518621,0.0155361,1973,988,30.1692,-4.99761
756,36,30.1543,5.08624,-0.00722518,0.00423025,-0.00233082,0.00468634,-0.00768127,-1.37756,0.00720989,0.0148964,1980,988,30.1542,-5.08627
763,36,30.1133,5.19916,-0.0099353,0.00587611,-0.00385428,0.00676561,-0.0108248,-1.34398,0.0102456,0.016729,1987,988,30.1133,-5.19919
770,36,30.0696,5.32446,-0.0135683,0.00771356,-0.00551178,0.00905633,-0.0149111,-1.33183,0.0139745,0.014093,1994,988,30.0696,-5.32447
777,36,30.012,5.48535,-0.0178149,0.00956685,-0.00718031,0.0113355,-0.0195835,-1.32928,0.0180616,0.0226019,2001,988,30.0119,-5.48533
784,36,29.9478,5.37555,0,0,0,0,0,0,0,-1,2008,988,29.9477,-5.37553
791,36,29.8759,4.37799,0,0,0,0,0,0,0,-1,2015,988,29.8759,-4.37797
798,36,29.3098,4.13263,0,0,0,0,0,0,0,-1,2022,988,29.3098,-4.13262
805,36,29.2683,5.24933,0,0,0,0,0,0,0,-1,2029,988,29.2683,-5.24935
812,36,28.0637,5.45355,0,0,0,0,0,0,0,-1,2036,988,28.0638,-5.45353
-700,29,0,0,0,0,0,0,0,0,0,-1,524,995,0,0
-693,29,-18.1198,0.158386,0.0889947,-0.0355803,-0.00797567,0.0895032,-0.0360889,-0.0636765,0.0746646,0.042259,531,995,-18.1198,-0.158368
-686,29,-17.9417,0.090271,0.0589672,-0.0321476,0.000728037,0.058973,-0.0321535,0.00798965,0.053366,0.0429458,538,995,-17.9417,-0.0902523
-679,29,-19.6489,2.07977,0,0,0,0,0,0,0,-1,545,995,-19.6489,-2.07978
-672,29,-20.1208,2.22308,0.0203323,-0.0211719,0.00896427,0.0221857,-0.0230253,0.203879,0.0261041,0.0445307,552,995,-20.1208,-2.22306
-665,29,-20.6666,2.41895,0.0091026,-0.0156215,0.0101394,0.0127289,-0.0192478,0.343469,0.0185892,0.0438021,559,995,-20.6666,-2.41894
-658,29,-21.1567,2.67706,0.00181061,-0.0106942,0.0100686,0.00741021,-0.0162938,0.507548,0.0140022,0.0454606,566,995,-21.1567,-2.67706
-651,29,-21.4288,2.79321,-0.00240683,-0.00665724,0.00912285,0.00483508,-0.0138991,0.670962,0.0112303,0.0374073,573,995,-21.4288,-2.79322
-644,29,-21.637,2.67065,-0.00433298,-0.00361586,0.00745985,0.00349404,-0.0114429,0.809412,0.0090217,0.0205218,580,995,-21.6369,-2.67064
-637,29,-21.7493,2.60413,-0.00630769,-0.00138191,0.00563952,0.00230906,-0.00999866,0.991275,0.00755403,0.0144772,587,995,-21.7493,-2.60412
-630,29,-21.7639,2.61389,-0.00716816,2.65122e-05,0.00363821,0.00154556,-0.00868721,1.17527,0.00636948,0.0124548,594,995,-21.7639,-2.61391
-623,29,-21.7686,2.56531,-0.00609639,0.00231975,0.0010591,0.00245099,-0.00622762,1.44752,0.00516632,0.0113252,601,995,-21.7686,-2.5653
-616,29,-21.7611,2.47522,-0.00445545,0.00253581,-0.00184035,0.00299067,-0.0049103,-1.3285,0.00460629,0.0122191,608,995,-21.7611,-2.47522
-609,29,-21.7465,2.41205,-0.00279941,0.00236165,-0.00389739,0.00445539,-0.00489315,-1.07782,0.00539936,0.0195863,615,995,-21.7465,-2.41203
-602,29,-21.7191,2.31415,-0.00199432,0.00203605,-0.00527398,0.00566674,-0.005625,-0.967888,0.0065193,0.0230851,622,995,-21.7191,-2.31413
-595,29,-21.6563,2.2027,-0.00160845,0.0016893,-0.00597581,0.00623955,-0.0061587,-0.920011,0.00715818,0.0212595,629,995,-21.6563,-2.20268
-588,29,-21.6594,1.83801,-0.00149285,0.00147254,-0.00648702,0.00664415,-0.00666447,-0.89775,0.00768374,0.0267229,636,995,-21.6594,-1.83803
-581,29,-21.7115,1.42755,-0.00150421,0.00141574,-0.00670889,0.00682167,-0.00691014,-0.892537,0.00792812,0.0372612,643,995,-21.7115,-1.42756
-574,29,-21.7331,1.23975,-0.00165785,0.00125754,-0.00650436,0.00646554,-0.00686586,-0.895632,0.00769804,0.0333404,650,995,-21.7331,-1.23973
-567,29,-21.7473,1.07092,-0.00180275,0.00125855,-0.00597832,0.00589905,-0.00644326,-0.910723,0.00712815,0.0334549,657,995,-21.7473,-1.0709
-560,29,-21.7355,0.776245,-0.00183329,0.00113438,-0.00511189,0.00497344,-0.00567234,-0.926652,0.00615076,0.0372361,664,995,-21.7355,-0.776224
-553,29,-21.7925,0.655457,-0.0017213,0.000762752,-0.00400374,0.00371269,-0.00467124,-0.9358,0.004851,0.0426214,671,995,-21.7925,-0.655438
-546,29,-21.8315,0.734192,-0.00144611,-2.73429e-05,-0.00273782,0.0020915,-0.00356496,-0.912163,0.00330249,0.044206,678,995,-21.8315,-0.734197
-539,29,-21.8143,1.14685,-0.000944485,-0.0014732,-0.00164935,0.000461564,-0.00287925,-0.705935,0.00209041,0.0435802,685,995,-21.8143,-1.14688
-532,29,-21.8847,1.44867,-0.00081492,-0.00333701,-0.00159356,-4.38089e-05,-0.00410812,-0.450679,0.00272426,0.0462193,692,995,-21.8847,-1.4487
-525,29,-22.0453,1.46362,-0.00240607,-0.0057911,-0.00285872,-0.00077641,-0.00742077,-0.51812,0.00470976,0.043338,699,995,-22.0454,-1.46363
-518,29,0,0,0,0,0,0,0,0,0,-1,706,995,0,0
-511,29,0,0,0,0,0,0,0,0,0,-1,713,995,0,0
-504,29,0,0,0,0,0,0,0,0,0,-1,720,995,0,0
-497,29,0,0,0,0,0,0,0,0,0,-1,727,995,0,0
-490,29,0,0,0,0,0,0,0,0,0,-1,734,995,0,0
-483,29,0,0,0,0,0,0,0,0,0,-1,741,995,0,0
-476,29,0,0,0,0,0,0,0,0,0,-1,748,995,0,0
-469,29,0,0,0,0,0,0,0,0,0,-1,755,995,0,0
-462,29,0,0,0,0,0,0,0,0,0,-1,762,995,0,0
-455,29,0,0,0,0,0,0,0,0,0,-1,769,995,0,0
-448,29,0,0,0,0,0,0,0,0,0,-1,776,995,0,0
-441,29,0,0,0,0,0,0,0,0,0,-1,783,995,0,0
-434,29,0,0,0,0,0,0,0,0,0,-1,790,995,0,0
-427,29,0,0,0,0,0,0,0,0,0,-1,797,995,0,0
-420,29,0,0,0,0,0,0,0,0,0,-1,804,995,0,0
-413,29,0,0,0,0,0,0,0,0,0,-1,811,995,0,0
-406,29,0,0,0,0,0,0,0,0,0,-1,818,995,0,0
-399,29,0,0,0,0,0,0,0,0,0,-1,825,995,0,0
-392,29,0,0,0,0,0,0,0,0,0,-1,832,995,0,0
-385,29,0,0,0,0,0,0,0,0,0,-1,839,995,0,0
-378,29,0,0,0,0,0,0,0,0,0,-1,846,995,0,0
-371,29,0,0,0,0,0,0,0,0,0,-1,853,995,0,0
-364,29,0,0,0,0,0,0,0,0,0,-1,860,995,0,0
-357,29,0,0,0,0,0,0,0,0,0,-1,867,995,0,0
-350,29,0,0,0,0,0,0,0,0,0,-1,874,995,0,0
-343,29,0,0,0,0,0,0,0,0,0,-1,881,995,0,0
-336,29,0,0,0,0,0,0,0,0,0,-1,888,995,0,0
-329,29,0,0,0,0,0,0,0,0,0,-1,895,995,0,0
-322,29,0,0,0,0,0,0,0,0,0,-1,902,995,0,0
-315,29,0,0,0,0,0,0,0,0,0,-1,909,995,0,0
-308,29,0,0,0,0,0,0,0,0,0,-1,916,995,0,0
-301,29,0,0,0,0,0,0,0,0,0,-1,923,995,0,0
-294,29,0,0,0,0,0,0,0,0,0,-1,930,995,0,0
-287,29,0,0,0,0,0,0,0,0,0,-1,937,995,0,0
-280,29,0,0,0,0,0,0,0,0,0,-1,944,995,0,0
-273,29,0,0,0,0,0,0,0,0,0,-1,951,995,0,0
-266,29,0,0,0,0,0,0,0,0,0,-1,958,995,0,0
-259,29,0,0,0,0,0,0,0,0,0,-1,965,995,0,0
-252,29,0,0,0,0,0,0,0,0,0,-1,972,995,0,0
-245,29,0,0,0,0,0,0,0,0,0,-1,979,995,0,0
-238,29,0,0,0,0,0,0,0,0,0,-1,986,995,0,0
-231,29,0,0,0,0,0,0,0,0,0,-1,993,995,0,0
-224,29,0,0,0,0,0,0,0,0,0,-1,1000,995,0,0
-217,29,0,0,0,0,0,0,0,0,0,-1,1007,995,0,0
-210,29,0,0,0,0,0,0,0,0,0,-1,1014,995,0,0
-203,29,0,0,0,0,0,0,0,0,0,-1,1021,995,0,0
-196,29,0,0,0,0,0,0,0,0,0,-1,1028,995,0,0
-189,29,0,0,0,0,0,0,0,0,0,-1,1035,995,0,0
-182,29,0,0,0,0,0,0,0,0,0,-1,1042,995,0,0
-175,29,0,0,0,0,0,0,0,0,0,-1,1049,995,0,0
-168,29,0,0,0,0,0,0,0,0,0,-1,1056,995,0,0
-161,29,0,0,0,0,0,0,0,0,0,-1,1063,995,0,0
-154,29,0,0,0,0,0,0,0,0,0,-1,1070,995,0,0
-147,29,0,0,0,0,0,0,0,0,0,-1,1077,995,0,0
-140,29,0,0,0,0,0,0,0,0,0,-1,1084,995,0,0
-133,29,0,0,0,0,0,0,0,0,0,-1,1091,995,0,0
-126,29,0,0,0,0,0,0,0,0,0,-1,1098,995,0,0
-119,29,0,0,0,0,0,0,0,0,0,-1,1105,995,0,0
-112,29,0,0,0,0,0,0,0,0,0,-1,1112,995,0,0
-105,29,0,0,0,0,0,0,0,0,0,-1,1119,995,0,0
-98,29,0,0,0,0,0,0,0,0,0,-1,1126,995,0,0
-91,29,0,0,0,0,0,0,0,0,0,-1,1133,995,0,0
-84,29,0,0,0,0,0,0,0,0,0,-1,1140,995,0,0
-77,29,0,0,0,0,0,0,0,0,0,-1,1147,995,0,0
-70,29,0,0,0,0,0,0,0,0,0,-1,1154,995,0,0
-63,29,0,0,0,0,0,0,0,0,0,-1,1161,995,0,0
-56,29,0,0,0,0,0,0,0,0,0,-1,1168,995,0,0
-49,29,0,0,0,0,0,0,0,0,0,-1,1175,995,0,0
-42,29,0,0,0,0,0,0,0,0,0,-1,1182,995,0,0
-35,29,0,0,0,0,0,0,0,0,0,-1,1189,995,0,0
-28,29,0,0,0,0,0,0,0,0,0,-1,1196,995,0,0
-21,29,0,0,0,0,0,0,0,0,0,-1,1203,995,0,0
-14,29,0,0,0,0,0,0,0,0,0,-1,1210,995,0,0
-7,29,0,0,0,0,0,0,0,0,0,-1,1217,995,0,0
0,29,0,0,0,0,0,0,0,0,0,-1,1224,995,0,0
7,29,0,0,0,0,0,0,0,0,0,-1,1231,995,0,0
14,29,0,0,0,0,0,0,0,0,0,-1,1238,995,0,0
21,29,0,0,0,0,0,0,0,0,0,-1,1245,995,0,0
28,29,0,0,0,0,0,0,0,0,0,-1,1252,995,0,0
35,29,0,0,0,0,0,0,0,0,0,-1,1259,995,0,0
42,29,0,0,0,0,0,0,0,0,0,-1,1266,995,0,0
49,29,0,0,0,0,0,0,0,0,0,-1,1273,995,0,0
56,29,0,0,0,0,0,0,0,0,0,-1,1280,995,0,0
63,29,0,0,0,0,0,0,0,0,0,-1,1287,995,0,0
70,29,0,0,0,0,0,0,0,0,0,-1,1294,995,0,0
77,29,0,0,0,0,0,0,0,0,0,-1,1301,995,0,0
84,29,0,0,0,0,0,0,0,0,0,-1,1308,995,0,0
91,29,0,0,0,0,0,0,0,0,0,-1,1315,995,0,0
98,29,0,0,0,0,0,0,0,0,0,-1,1322,995,0,0
105,29,0,0,0,0,0,0,0,0,0,-1,1329,995,0,0
112,29,0,0,0,0,0,0,0,0,0,-1,1336,995,0,0
119,29,0,0,0,0,0,0,0,0,0,-1,1343,995,0,0
126,29,0,0,0,0,0,0,0,0,0,-1,1350,995,0,0
133,29,0,0,0,0,0,0,0,0,0,-1,1357,995,0,0
140,29,0,0,0,0,0,0,0,0,0,-1,1364,995,0,0
147,29,0,0,0,0,0,0,0,0,0,-1,1371,995,0,0
154,29,0,0,0,0,0,0,0,0,0,-1,1378,995,0,0
161,29,0,0,0,0,0,0,0,0,0,-1,1385,995,0,0
168,29,0,0,0,0,0,0,0,0,0,-1,1392,995,0,0
175,29,0,0,0,0,0,0,0,0,0,-1,1399,995,0,0
182,29,0,0,0,0,0,0,0,0,0,-1,1406,995,0,0
189,29,0,0,0,0,0,0,0,0,0,-1,1413,995,0,0
196,29,0,0,0,0,0,0,0,0,0,-1,1420,995,0,0
203,29,0,0,0,0,0,0,0,0,0,-1,1427,995,0,0
210,29,0,0,0,0,0,0,0,0,0,-1,1434,995,0,0
217,29,0,0,0,0,0,0,0,0,0,-1,1441,995,0,0
224,29,0,0,0,0,0,0,0,0,0,-1,1448,995,0,0
231,29,0,0,0,0,0,0,0,0,0,-1,1455,995,0,0
238,29,0,0,0,0,0,0,0,0,0,-1,1462,995,0,0
245,29,0,0,0,0,0,0,0,0,0,-1,1469,995,0,0
252,29,0,0,0,0,0,0,0,0,0,-1,1476,995,0,0
259,29,0,0,0,0,0,0,0,0,0,-1,1483,995,0,0
266,29,0,0,0,0,0,0,0,0,0,-1,1490,995,0,0
273,29,0,0,0,0,0,0,0,0,0,-1,1497,995,0,0
280,29,0,0,0,0,0,0,0,0,0,-1,1504,995,0,0
287,29,0,0,0,0,0,0,0,0,0,-1,1511,995,0,0
294,29,0,0,0,0,0,0,0,0,0,-1,1518,995,0,0
301,29,0,0,0,0,0,0,0,0,0,-1,1525,995,0,0
308,29,0,0,0,0,0,0,0,0,0,-1,1532,995,0,0
315,29,0,0,0,0,0,0,0,0,0,-1,1539,995,0,0
322,29,0,0,0,0,0,0,0,0,0,-1,1546,995,0,0
329,29,0,0,0,0,0,0,0,0,0,-1,1553,995,0,0
336,29,0,0,0,0,0,0,0,0,0,-1,1560,995,0,0
343,29,0,0,0,0,0,0,0,0,0,-1,1567,995,0,0
350,29,0,0,0,0,0,0,0,0,0,-1,1574,995,0,0
357,29,0,0,0,0,0,0,0,0,0,-1,1581,995,0,0
364,29,0,0,0,0,0,0,0,0,0,-1,1588,995,0,0
371,29,0,0,0,0,0,0,0,0,0,-1,1595,995,0,0
378,29,0,0,0,0,0,0,0,0,0,-1,1602,995,0,0
385,29,0,0,0,0,0,0,0,0,0,-1,1609,995,0,0
392,29,0,0,0,0,0,0,0,0,0,-1,1616,995,0,0
399,29,0,0,0,0,0,0,0,0,0,-1,1623,995,0,0
406,29,0,0,0,0,0,0,0,0,0,-1,1630,995,0,0
413,29,0,0,0,0,0,0,0,0,0,-1,1637,995,0,0
420,29,0,0,0,0,0,0,0,0,0,-1,1644,995,0,0
427,29,0,0,0,0,0,0,0,0,0,-1,1651,995,0,0
434,29,0,0,0,0,0,0,0,0,0,-1,1658,995,0,0
441,29,0,0,0,0,0,0,0,0,0,-1,1665,995,0,0
448,29,0,0,0,0,0,0,0,0,0,-1,1672,995,0,0
455,29,0,0,0,0,0,0,0,0,0,-1,1679,995,0,0
462,29,0,0,0,0,0,0,0,0,0,-1,1686,995,0,0
469,29,0,0,0,0,0,0,0,0,0,-1,1693,995,0,0
476,29,0,0,0,0,0,0,0,0,0,-1,1700,995,0,0
483,29,0,0,0,0,0,0,0,0,0,-1,1707,995,0,0
490,29,0,0,0,0,0,0,0,0,0,-1,1714,995,0,0
497,29,0,0,0,0,0,0,0,0,0,-1,1721,995,0,0
504,29,0,0,0,0,0,0,0,0,0,-1,1728,995,0,0
511,29,0,0,0,0,0,0,0,0,0,-1,1735,995,0,0
518,29,0,0,0,0,0,0,0,0,0,-1,1742,995,0,0
525,29,0,0,0,0,0,0,0,0,0,-1,1749,995,0,0
532,29,0,0,0,0,0,0,0,0,0,-1,1756,995,0,0
539,29,0,0,0,0,0,0,0,0,0,-1,1763,995,0,0
546,29,0,0,0,0,0,0,0,0,0,-1,1770,995,0,0
553,29,0,0,0,0,0,0,0,0,0,-1,1777,995,0,0
560,29,0,0,0,0,0,0,0,0,0,-1,1784,995,0,0
567,29,0,0,0,0,0,0,0,0,0,-1,1791,995,0,0
574,29,0,0,0,0,0,0,0,0,0,-1,1798,995,0,0
581,29,0,0,0,0,0,0,0,0,0,-1,1805,995,0,0
588,29,0,0,0,0,0,0,0,0,0,-1,1812,995,0,0
595,29,0,0,0,0,0,0,0,0,0,-1,1819,995,0,0
602,29,0,0,0,0,0,0,0,0,0,-1,1826,995,0,0
609,29,0,0,0,0,0,0,0,0,0,-1,1833,995,0,0
616,29,0,0,0,0,0,0,0,0,0,-1,1840,995,0,0
623,29,0,0,0,0,0,0,0,0,0,-1,1847,995,0,0
630,29,0,0,0,0,0,0,0,0,0,-1,1854,995,0,0
637,29,0,0,0,0,0,0,0,0,0,-1,1861,995,0,0
644,29,30.9805,2.7254,0,0,0,0,0,0,0,-1,1868,995,30.9805,-2.7254
651,29,30.795,2.46967,0,0,0,0,0,0,0,-1,1875,995,30.795,-2.46964
658,29,30.9635,2.90692,0.0040932,-0.00689833,4.37755e-05,0.00409338,-0.00689851,0.00398257,0.00641468,0.0443017,1882,995,30.9635,-2.90691
665,29,31.1165,2.93127,0.00243865,-0.00479636,0.000341426,0.00245473,-0.00481244,0.0470515,0.00426867,0.0426853,1889,995,31.1165,-2.93127
672,29,30.9545,2.97375,0.00111098,-0.00305867,0.000987968,0.00133323,-0.00328091,0.221269,0.00274195,0.0377238,1896,995,30.9544,-2.97376
679,29,30.822,3.13751,1.5657e-05,-0.00174178,0.00172124,0.0010695,-0.00279563,0.549386,0.00230452,0.0374193,1903,995,30.822,-3.13753
686,29,30.7953,3.11505,-0.000604837,-0.00100048,0.0022939,0.00149976,-0.00310508,0.742385,0.00271192,0.0374449,1910,995,30.7953,-3.11504
693,29,30.8451,3.0744,-0.000926682,-0.00057172,0.00264505,0.0019018,-0.0034002,0.818898,0.00310159,0.040434,1917,995,30.8451,-3.0744
700,29,30.8557,3.04694,-0.00116904,-0.000181566,0.00272666,0.00209569,-0.0034463,0.874967,0.00323119,0.0370609,1924,995,30.8557,-3.04694
707,29,30.8528,3.00073,-0.00145968,0.000209723,0.00268081,0.00218277,-0.00343273,0.936322,0.00326878,0.0229422,1931,995,30.8528,-3.0007
714,29,30.8839,3.32941,-0.0018566,0.000475501,0.00258165,0.00214222,-0.00352331,0.997519,0.00330323,0.0255637,1938,995,30.8839,-3.32939
721,29,30.6277,4.38452,0,0,0,0,0,0,0,-1,1945,995,30.6277,-4.38453
728,29,30.4227,4.63025,-0.00239893,0.00120289,0.00194775,0.00205471,-0.00325076,1.15852,0.00308895,0.0235832,1952,995,30.4227,-4.63028
735,29,30.3044,4.82617,-0.00289806,0.0017378,0.00136599,0.00211036,-0.00327062,1.30453,0.00313069,0.0155136,1959,995,30.3045,-4.82616
742,29,30.2828,4.90533,-0.00392861,0.00244333,0.00041088,0.00246971,-0.00395499,1.50667,0.0037422,0.0125903,1966,995,30.2829,-4.90534
749,29,30.2772,4.99524,-0.00532137,0.00303922,-0.000822803,0.00311942,-0.00540158,-1.47362,0.00497807,0.0128495,1973,995,30.2772,-4.99527
756,29,30.2722,5.09778,-0.00714186,0.00374085,-0.00229218,0.00420394,-0.00760494,-1.37145,0.00691147,0.0125307,1980,995,30.2723,-5.09775
763,29,30.2611,5.17798,-0.00974481,0.00528715,-0.00395979,0.00626646,-0.0107241,-1.32835,0.00992141,0.0116744,1987,995,30.2611,-5.17798
770,29,30.1998,5.24957,-0.0132639,0.00693264,-0.00589144,0.00852557,-0.0148568,-1.30673,0.0136638,0.0133819,1994,995,30.1998,-5.24957
777,29,30.1215,5.39685,-0.0173278,0.00860595,-0.00785823,0.0108013,-0.0195231,-1.29838,0.0177475,0.0236174,2001,995,30.1215,-5.39686
784,29,29.8853,4.90985,0,0,0,0,0,0,0,-1,2008,995,29.8853,-4.90986
791,29,29.6432,4.43915,-0.027746,0.0121944,-0.0121549,0.0156027,-0.0311542,-1.29742,0.0274883,0.0426511,2015,995,29.6431,-4.43915
798,29,29.4316,4.06891,-0.0343805,0.0144678,-0.0142494,0.0183206,-0.0382332,-1.30673,0.0333192,0.0426152,2022,995,29.4316,-4.06892
805,29,29.2927,3.76727,0,0,0,0,0,0,0,-1,2029,995,29.2928,-3.76726
812,29,29.0447,4.05975,0,0,0,0,0,0,0,-1,2036,995,29.0446,-4.05977
-700,22,0,0,0,0,0,0,0,0,0,-1,524,1002,0,0
-693,22,-17.7216,0.21991,0,0,0,0,0,0,0,-1,531,1002,-17.7216,-0.219938
-686,22,-17.7297,-0.0206299,0,0,0,0,0,0,0,-1,538,1002,-17.7297,0.0206038
-679,22,-20.1502,2.18115,0,0,0,0,0,0,0,-1,545,1002,-20.1502,-2.18118
-672,22,-20.5423,2.35645,0.033359,-0.0218139,0.00527379,0.0338586,-0.0223135,0.094447,0.0326585,0.0496193,552,1002,-20.5423,-2.35642
-665,22,-20.9543,2.59637,0.0177602,-0.0162513,0.00684222,0.019085,-0.0175761,0.191265,0.0211723,0.045625,559,1002,-20.9543,-2.5964
-658,22,-21.2335,2.80365,0.00725218,-0.0112329,0.00721271,0.00973345,-0.0137142,0.331331,0.0136024,0.0465363,566,1002,-21.2335,-2.80364
-651,22,-21.4089,2.75031,0.000798641,-0.00708082,0.00671673,0.00464582,-0.010928,0.520161,0.00923218,0.0406731,573,1002,-21.4089,-2.75028
-644,22,-21.6378,2.64844,-0.00259229,-0.00394594,0.00545851,0.00223119,-0.00876942,0.723716,0.00671474,0.0215403,580,1002,-21.6378,-2.64842
-637,22,-21.7775,2.57861,-0.0058733,-0.00169133,0.00398105,0.000714465,-0.00827909,1.02721,0.00577231,0.0149758,587,1002,-21.7775,-2.57861
-630,22,-21.8167,2.56909,-0.00721139,-0.000246332,0.00219227,0.00038624,-0.00784396,1.28988,0.00536269,0.0116017,594,1002,-21.8167,-2.56909
-623,22,-21.8461,2.54028,-0.00606124,0.00216297,-0.000167431,0.00216638,-0.00606465,-1.55045,0.00492664,0.0106749,601,1002,-21.8461,-2.54031
-616,22,-21.8082,2.44843,-0.00432867,0.00218915,-0.00294589,0.00332327,-0.0054628,-1.2033,0.00512253,0.0156954,608,1002,-21.8082,-2.44844
-609,22,-21.8261,2.37817,-0.00243237,0.00211935,-0.0047598,0.0051194,-0.00543242,-1.0084,0.00609299,0.0263073,615,1002,-21.8261,-2.3782
-602,22,-21.8636,2.29663,-0.00135547,0.00177947,-0.00599826,0.00641169,-0.00598769,-0.9132,0.00716018,0.0282506,622,1002,-21.8636,-2.29662
-595,22,-21.759,2.16193,-0.000832994,0.0014751,-0.00670773,0.00712734,-0.00648523,-0.870588,0.00786213,0.0241488,629,1002,-21.759,-2.16191
-588,22,-21.6749,1.90741,-0.000666691,0.00127927,-0.00720875,0.00758041,-0.00696783,-0.852479,0.00840191,0.0323756,636,1002,-21.6749,-1.9074
-581,22,-21.7062,1.48792,-0.000685345,0.00127986,-0.00738561,0.00774795,-0.00715343,-0.851531,0.00860559,0.0395569,643,1002,-21.7063,-1.48791
-574,22,-21.704,1.25848,-0.000913032,0.00117208,-0.00710253,0.00730816,-0.00704911,-0.858271,0.00828963,0.0347377,650,1002,-21.704,-1.25848
-567,22,-21.6841,1.24078,-0.00120772,0.0012227,-0.00643552,0.00655674,-0.00654176,-0.878714,0.00756243,0.0319142,657,1002,-21.6841,-1.24081
-560,22,-21.7648,1.12579,-0.00147187,0.00114599,-0.0053878,0.00538158,-0.00570747,-0.904561,0.00640319,0.0362311,664,1002,-21.7648,-1.12577
-553,22,-21.8837,1.08014,-0.00169773,0.000781021,-0.00404077,0.00376821,-0.00468492,-0.934202,0.00488997,0.0419036,671,1002,-21.8837,-1.08016
-546,22,-21.8137,1.18518,-0.00185014,-8.23031e-05,-0.00248002,0.00166661,-0.00359906,-0.956588,0.00310763,0.044483,678,1002,-21.8137,-1.18518
-539,22,-21.7728,1.03961,-0.00184038,-0.00174418,-0.0011232,-0.000668051,-0.00291652,-0.806797,0.00176434,0.04341,685,1002,-21.7727,-1.0396
-532,22,-21.7499,1.06317,-0.00227964,-0.00386631,-0.000989561,-0.00180467,-0.00434129,-0.447509,0.00251829,0.0421341,692,1002,-21.7499,-1.06318
-525,22,0,0,0,0,0,0,0,0,0,-1,699,1002,0,0
-518,22,0,0,0,0,0,0,0,0,0,-1,706,1002,0,0
-511,22,0,0,0,0,0,0,0,0,0,-1,713,1002,0,0
-504,22,0,0,0,0,0,0,0,0,0,-1,720,1002,0,0
-497,22,0,0,0,0,0,0,0,0,0,-1,727,1002,0,0
-490,22,0,0,0,0,0,0,0,0,0,-1,734,1002,0,0
-483,22,0,0,0,0,0,0,0,0,0,-1,741,1002,0,0
-476,22,0,0,0,0,0,0,0,0,0,-1,748,1002,0,0
-469,22,0,0,0,0,0,0,0,0,0,-1,755,1002,0,0
-462,22,0,0,0,0,0,0,0,0,0,-1,762,1002,0,0
-455,22,0,0,0,0,0,0,0,0,0,-1,769,1002,0,0
-448,22,0,0,0,0,0,0,0,0,0,-1,776,1002,0,0
-441,22,0,0,0,0,0,0,0,0,0,-1,783,1002,0,0
-434,22,0,0,0,0,0,0,0,0,0,-1,790,1002,0,0
-427,22,0,0,0,0,0,0,0,0,0,-1,797,1002,0,0
-420,22,0,0,0,0,0,0,0,0,0,-1,804,1002,0,0
-413,22,0,0,0,0,0,0,0,0,0,-1,811,1002,0,0
-406,22,0,0,0,0,0,0,0,0,0,-1,818,1002,0,0
-399,22,0,0,0,0,0,0,0,0,0,-1,825,1002,0,0
-392,22,0,0,0,0,0,0,0,0,0,-1,832,1002,0,0
-385,22,0,0,0,0,0,0,0,0,0,-1,839,1002,0,0
-378,22,0,0,0,0,0,0,0,0,0,-1,846,1002,0,0
-371,22,0,0,0,0,0,0,0,0,0,-1,853,1002,0,0
-364,22,0,0,0,0,0,0,0,0,0,-1,860,1002,0,0
-357,22,0,0,0,0,0,0,0,0,0,-1,867,1002,0,0
-350,22,0,0,0,0,0,0,0,0,0,-1,874,1002,0,0
-343,22,0,0,0,0,0,0,0,0,0,-1,881,1002,0,0
-336,22,0,0,0,0,0,0,0,0,0,-1,888,1002,0,0
-329,22,0,0,0,0,0,0,0,0,0,-1,895,1002,0,0
-322,22,0,0,0,0,0,0,0,0,0,-1,902,1002,0,0
-315,22,0,0,0,0,0,0,0,0,0,-1,909,1002,0,0
-308,22,0,0,0,0,0,0,0,0,0,-1,916,1002,0,0
-301,22,0,0,0,0,0,0,0,0,0,-1,923,1002,0,0
-294,22,0,0,0,0,0,0,0,0,0,-1,930,1002,0,0
-287,22,0,0,0,0,0,0,0,0,0,-1,937,1002,0,0
-280,22,0,0,0,0,0,0,0,0,0,-1,944,1002,0,0
-273,22,0,0,0,0,0,0,0,0,0,-1,951,1002,0,0
-266,22,0,0,0,0,0,0,0,0,0,-1,958,1002,0,0
-259,22,0,0,0,0,0,0,0,0,0,-1,965,1002,0,0
-252,22,0,0,0,0,0,0,0,0,0,-1,972,1002,0,0
-245,22,0,0,0,0,0,0,0,0,0,-1,979,1002,0,0
-238,22,0,0,0,0,0,0,0,0,0,-1,986,1002,0,0
-231,22,0,0,0,0,0,0,0,0,0,-1,993,1002,0,0
-224,22,0,0,0,0,0,0,0,0,0,-1,1000,1002,0,0
-217,22,0,0,0,0,0,0,0,0,0,-1,1007,1002,0,0
-210,22,0,0,0,0,0,0,0,0,0,-1,1014,1002,0,0
-203,22,0,0,0,0,0,0,0,0,0,-1,1021,1002,0,0
-196,22,0,0,0,0,0,0,0,0,0,-1,1028,1002,0,0
-189,22,0,0,0,0,0,0,0,0,0,-1,1035,1002,0,0
-182,22,0,0,0,0,0,0,0,0,0,-1,1042,1002,0,0
-175,22,0,0,0,0,0,0,0,0,0,-1,1049,1002,0,0
-168,22,0,0,0,0,0,0,0,0,0,-1,1056,1002,0,0
-161,22,0,0,0,0,0,0,0,0,0,-1,1063,1002,0,0
-154,22,0,0,0,0,0,0,0,0,0,-1,1070,1002,0,0
-147,22,0,0,0,0,0,0,0,0,0,-1,1077,1002,0,0
-140,22,0,0,0,0,0,0,0,0,0,-1,1084,1002,0,0
-133,22,0,0,0,0,0,0,0,0,0,-1,1091,1002,0,0
-126,22,0,0,0,0,0,0,0,0,0,-1,1098,1002,0,0
-119,22,0,0,0,0,0,0,0,0,0,-1,1105,1002,0,0
-112,22,0,0,0,0,0,0,0,0,0,-1,1112,1002,0,0
-105,22,0,0,0,0,0,0,0,0,0,-1,1119,1002,0,0
-98,22,0,0,0,0,0,0,0,0,0,-1,1126,1002,0,0
-91,22,0,0,0,0,0,0,0,0,0,-1,1133,1002,0,0
-84,22,0,0,0,0,0,0,0,0,0,-1,1140,1002,0,0
-77,22,0,0,0,0,0,0,0,0,0,-1,1147,1002,0,0
-70,22,0,0,0,0,0,0,0,0,0,-1,1154,1002,0,0
-63,22,0,0,0,0,0,0,0,0,0,-1,1161,1002,0,0
-56,22,0,0,0,0,0,0,0,0,0,-1,1168,1002,0,0
-49,22,0,0,0,0,0,0,0,0,0,-1,1175,1002,0,0
-42,22,0,0,0,0,0,0,0,0,0,-1,1182,1002,0,0
-35,22,0,0,0,0,0,0,0,0,0,-1,1189,1002,0,0
-28,22,0,0,0,0,0,0,0,0,0,-1,1196,1002,0,0
-21,22,0,0,0,0,0,0,0,0,0,-1,1203,1002,0,0
-14,22,0,0,0,0,0,0,0,0,0,-1,1210,1002,0,0
-7,22,0,0,0,0,0,0,0,0,0,-1,1217,1002,0,0
0,22,0,0,0,0,0,0,0,0,0,-1,1224,1002,0,0
7,22,0,0,0,0,0,0,0,0,0,-1,1231,1002,0,0
14,22,0,0,0,0,0,0,0,0,0,-1,1238,1002,0,0
21,22,0,0,0,0,0,0,0,0,0,-1,1245,1002,0,0
28,22,0,0,0,0,0,0,0,0,0,-1,1252,1002,0,0
35,22,0,0,0,0,0,0,0,0,0,-1,1259,1002,0,0
42,22,0,0,0,0,0,0,0,0,0,-1,1266,1002,0,0
49,22,0,0,0,0,0,0,0,0,0,-1,1273,1002,0,0
56,22,0,0,0,0,0,0,0,0,0,-1,1280,1002,0,0
63,22,0,0,0,0,0,0,0,0,0,-1,1287,1002,0,0
70,22,0,0,0,0,0,0,0,0,0,-1,1294,1002,0,0
77,22,0,0,0,0,0,0,0,0,0,-1,1301,1002,0,0
84,22,0,0,0,0,0,0,0,0,0,-1,1308,1002,0,0
91,22,0,0,0,0,0,0,0,0,0,-1,1315,1002,0,0
98,22,0,0,0,0,0,0,0,0,0,-1,1322,1002,0,0
105,22,0,0,0,0,0,0,0,0,0,-1,1329,1002,0,0
112,22,0,0,0,0,0,0,0,0,0,-1,1336,1002,0,0
119,22,0,0,0,0,0,0,0,0,0,-1,1343,1002,0,0
126,22,0,0,0,0,0,0,0,0,0,-1,1350,1002,0,0
133,22,0,0,0,0,0,0,0,0,0,-1,1357,1002,0,0
140,22,0,0,0,0,0,0,0,0,0,-1,1364,1002,0,0
147,22,0,0,0,0,0,0,0,0,0,-1,1371,1002,0,0
154,22,0,0,0,0,0,0,0,0,0,-1,1378,1002,0,0
161,22,0,0,0,0,0,0,0,0,0,-1,1385,1002,0,0
168,22,0,0,0,0,0,0,0,0,0,-1,1392,1002,0,0
175,22,0,0,0,0,0,0,0,0,0,-1,1399,1002,0,0
182,22,0,0,0,0,0,0,0,0,0,-1,1406,1002,0,0
189,22,0,0,0,0,0,0,0,0,0,-1,1413,1002,0,0
196,22,0,0,0,0,0,0,0,0,0,-1,1420,1002,0,0
203,22,0,0,0,0,0,0,0,0,0,-1,1427,1002,0,0
210,22,0,0,0,0,0,0,0,0,0,-1,1434,1002,0,0
217,22,0,0,0,0,0,0,0,0,0,-1,1441,1002,0,0
224,22,0,0,0,0,0,0,0,0,0,-1,1448,1002,0,0
231,22,0,0,0,0,0,0,0,0,0,-1,1455,1002,0,0
238,22,0,0,0,0,0,0,0,0,0,-1,1462,1002,0,0
245,22,0,0,0,0,0,0,0,0,0,-1,1469,1002,0,0
252,22,0,0,0,0,0,0,0,0,0,-1,1476,1002,0,0
259,22,0,0,0,0,0,0,0,0,0,-1,1483,1002,0,0
266,22,0,0,0,0,0,0,0,0,0,-1,1490,1002,0,0
273,22,0,0,0,0,0,0,0,0,0,-1,1497,1002,0,0
280,22,0,0,0,0,0,0,0,0,0,-1,1504,1002,0,0
287,22,0,0,0,0,0,0,0,0,0,-1,1511,1002,0,0
294,22,0,0,0,0,0,0,0,0,0,-1,1518,1002,0,0
301,22,0,0,0,0,0,0,0,0,0,-1,1525,1002,0,0
308,22,0,0,0,0,0,0,0,0,0,-1,1532,1002,0,0
315,22,0,0,0,0,0,0,0,0,0,-1,1539,1002,0,0
322,22,0,0,0,0,0,0,0,0,0,-1,1546,1002,0,0
329,22,0,0,0,0,0,0,0,0,0,-1,1553,1002,0,0
336,22,0,0,0,0,0,0,0,0,0,-1,1560,1002,0,0
343,22,0,0,0,0,0,0,0,0,0,-1,1567,1002,0,0
350,22,0,0,0,0,0,0,0,0,0,-1,1574,1002,0,0
357,22,0,0,0,0,0,0,0,0,0,-1,1581,1002,0,0
364,22,0,0,0,0,0,0,0,0,0,-1,1588,1002,0,0
371,22,0,0,0,0,0,0,0,0,0,-1,1595,1002,0,0
378,22,0,0,0,0,0,0,0,0,0,-1,1602,1002,0,0
385,22,0,0,0,0,0,0,0,0,0,-1,1609,1002,0,0
392,22,0,0,0,0,0,0,0,0,0,-1,1616,1002,0,0
399,22,0,0,0,0,0,0,0,0,0,-1,1623,1002,0,0
406,22,0,0,0,0,0,0,0,0,0,-1,1630,1002,0,0
413,22,0,0,0,0,0,0,0,0,0,-1,1637,1002,0,0
420,22,0,0,0,0,0,0,0,0,0,-1,1644,1002,0,0
427,22,0,0,0,0,0,0,0,0,0,-1,1651,1002,0,0
434,22,0,0,0,0,0,0,0,0,0,-1,1658,1002,0,0
441,22,0,0,0,0,0,0,0,0,0,-1,1665,1002,0,0
448,22,0,0,0,0,0,0,0,0,0,-1,1672,1002,0,0
455,22,0,0,0,0,0,0,0,0,0,-1,1679,1002,0,0
462,22,0,0,0,0,0,0,0,0,0,-1,1686,1002,0,0
469,22,0,0,0,0,0,0,0,0,0,-1,1693,1002,0,0
476,22,0,0,0,0,0,0,0,0,0,-1,1700,1002,0,0
483,22,0,0,0,0,0,0,0,0,0,-1,1707,1002,0,0
490,22,0,0,0,0,0,0,0,0,0,-1,1714,1002,0,0
497,22,0,0,0,0,0,0,0,0,0,-1,1721,1002,0,0
504,22,0,0,0,0,0,0,0,0,0,-1,1728,1002,0,0
511,22,0,0,0,0,0,0,0,0,0,-1,1735,1002,0,0
518,22,0,0,0,0,0,0,0,0,0,-1,1742,1002,0,0
525,22,0,0,0,0,0,0,0,0,0,-1,1749,1002,0,0
532,22,0,0,0,0,0,0,0,0,0,-1,1756,1002,0,0
539,22,0,0,0,0,0,0,0,0,0,-1,1763,1002,0,0
546,22,0,0,0,0,0,0,0,0,0,-1,1770,1002,0,0
553,22,0,0,0,0,0,0,0,0,0,-1,1777,1002,0,0
560,22,0,0,0,0,0,0,0,0,0,-1,1784,1002,0,0
567,22,0,0,0,0,0,0,0,0,0,-1,1791,1002,0,0
574,22,0,0,0,0,0,0,0,0,0,-1,1798,1002,0,0
581,22,0,0,0,0,0,0,0,0,0,-1,1805,1002,0,0
588,22,0,0,0,0,0,0,0,0,0,-1,1812,1002,0,0
595,22,0,0,0,0,0,0,0,0,0,-1,1819,1002,0,0
602,22,0,0,0,0,0,0,0,0,0,-1,1826,1002,0,0
609,22,0,0,0,0,0,0,0,0,0,-1,1833,1002,0,0
616,22,0,0,0,0,0,0,0,0,0,-1,1840,1002,0,0
623,22,0,0,0,0,0,0,0,0,0,-1,1847,1002,0,0
630,22,0,0,0,0,0,0,0,0,0,-1,1854,1002,0,0
637,22,0,0,0,0,0,0,0,0,0,-1,1861,1002,0,0
644,22,30.7642,2.73804,0.00835794,-0.0129601,0.00103151,0.00840774,-0.0130099,0.0482365,0.0124603,0.0394491,1868,1002,30.7642,-2.73803
651,22,30.8502,2.8512,0.00566867,-0.00941026,0.000314598,0.00567523,-0.00941683,0.0208513,0.00880221,0.0414178,1875,1002,30.8502,-2.85121
658,22,30.9946,3.14514,0.00362159,-0.00684211,-3.28472e-05,0.00362169,-0.00684221,-0.00313912,0.00613598,0.0421907,1882,1002,30.9946,-3.14515
665,22,31.0072,3.11047,0.0020638,-0.00477691,0.000115674,0.00206576,-0.00477886,0.0169032,0.00405391,0.0410751,1889,1002,31.0072,-3.11047
672,22,30.8739,3.05334,0.000878343,-0.00308191,0.000647269,0.000981449,-0.00318502,0.157967,0.00251516,0.039205,1896,1002,30.8739,-3.05333
679,22,30.8352,2.99841,-9.23906e-05,-0.00177037,0.0013197,0.000632436,-0.00249519,0.502255,0.00190951,0.0383398,1903,1002,30.8352,-2.99843
686,22,30.942,2.9137,-0.000614956,-0.00105202,0.00187654,0.00105573,-0.00272271,0.727432,0.00225114,0.0388683,1910,1002,30.942,-2.91367
693,22,31.0081,2.89612,-0.000870442,-0.000656043,0.0022499,0.00148921,-0.00301569,0.809203,0.00265021,0.0403389,1917,1002,31.0081,-2.89609
700,22,31.0062,2.97382,-0.00106558,-0.000296052,0.00237442,0.00172458,-0.00308621,0.865722,0.00281435,0.03609,1924,1002,31.0062,-2.97383
707,22,30.8778,2.96307,-0.00129218,7.25484e-05,0.00236832,0.00185484,-0.00307448,0.925661,0.00287484,0.0286999,1931,1002,30.8778,-2.96305
714,22,31.1094,2.4386,0,0,0,0,0,0,0,-1,1938,1002,31.1094,-2.43857
721,22,30.8174,3.89606,0,0,0,0,0,0,0,-1,1945,1002,30.8174,-3.89604
728,22,30.3507,4.73828,0,0,0,0,0,0,0,-1,1952,1002,30.3507,-4.73825
735,22,30.3975,4.84247,-0.0028105,0.00160149,0.00135127,0.00198245,-0.00319146,1.296,0.00301422,0.0158486,1959,1002,30.3974,-4.84249
742,22,30.4276,4.92078,-0.00387759,0.0022751,0.000487213,0.00231345,-0.00391593,1.49226,0.00363598,0.0162916,1966,1002,30.4277,-4.92078
749,22,30.4012,4.99121,-0.00527246,0.00282984,-0.000633348,0.00287905,-0.00532167,-1.49326,0.00480419,0.0121608,1973,1002,30.4012,-4.99121
756,22,30.3822,5.07397,-0.0071217,0.00343801,-0.00198428,0.00379857,-0.00748226,-1.39105,0.00662773,0.0164794,1980,1002,30.3822,-5.07399
763,22,30.3276,5.16888,-0.00974688,0.00495054,-0.00357002,0.00577181,-0.0105682,-1.34468,0.0095684,0.0172227,1987,1002,30.3276,-5.16888
770,22,30.2512,5.20087,-0.0133118,0.00648314,-0.00548875,0.00790319,-0.0147319,-1.31763,0.0132651,0.0162152,1994,1002,30.2512,-5.20084
777,22,30.053,5.25067,-0.0174253,0.00805011,-0.00740087,0.0100441,-0.0194193,-1.30762,0.0172953,0.0355859,2001,1002,30.053,-5.25068
784,22,29.8363,4.65302,0,0,0,0,0,0,0,-1,2008,1002,29.8364,-4.65302
791,22,29.6908,4.23193,-0.0276635,0.0114144,-0.011438,0.0145161,-0.0307652,-1.30599,0.0266984,0.0435319,2015,1002,29.6908,-4.23194
798,22,29.4836,3.96039,-0.0341466,0.0135496,-0.0133289,0.0170217,-0.0376186,-1.31597,0.0322851,0.0431785,2022,1002,29.4836,-3.9604
805,22,29.1509,3.73553,0,0,0,0,0,0,0,-1,2029,1002,29.1509,-3.73551
812,22,28.7676,3.51074,0,0,0,0,0,0,0,-1,2036,1002,28.7676,-3.51075
-700,15,0,0,0,0,0,0,0,0,0,-1,524,1009,0,0
-693,15,-26.479,-1.49237,0.152714,-0.0339692,-0.0166637,0.15419,-0.035445,-0.0883311,0.116421,0.046738,531,1009,-26.479,1.49237
-686,15,-24.6678,-1.37549,0.109943,-0.0307569,-0.00853778,0.110459,-0.0312731,-0.0603856,0.0859808,0.0447247,538,1009,-24.6678,1.37548
-679,15,-22.907,-1.38306,0,0,0,0,0,0,0,-1,545,1009,-22.907,1.38306
-672,15,-20.9047,2.36383,0,0,0,0,0,0,0,-1,552,1009,-20.9047,-2.36385
-665,15,-21.2414,2.57178,0.0283409,-0.0147565,0.00313834,0.0285682,-0.0149838,0.0723114,0.0255492,0.0428787,559,1009,-21.2414,-2.57179
-658,15,-21.3856,2.59009,0.0142665,-0.0098808,0.00416727,0.0149654,-0.0105797,0.166176,0.0148208,0.0423678,566,1009,-21.3856,-2.5901
-651,15,-21.5197,2.47968,0.00516227,-0.00591221,0.00427844,0.00662261,-0.00737254,0.328925,0.00808397,0.0408571,573,1009,-21.5196,-2.47968
-644,15,-21.7292,2.56439,-0.000156853,-0.00300405,0.00356863,0.00226165,-0.00542255,0.59561,0.00455987,0.024693,580,1009,-21.7292,-2.56442
-637,15,-21.795,2.58478,-0.00503252,-0.00101064,0.00246361,0.000158555,-0.00620172,1.12769,0.00418833,0.0187814,587,1009,-21.795,-2.58476
-630,15,-21.8315,2.54907,-0.00701253,0.000188804,0.000945385,0.000310845,-0.00713457,1.44241,0.00486331,0.0123568,594,1009,-21.8315,-2.5491
-623,15,-21.8615,2.51166,-0.00587509,0.00243614,-0.00119795,0.00260536,-0.00604431,-1.43046,0.00512377,0.0100963,601,1009,-21.8615,-2.51166
-616,15,-21.8721,2.45911,-0.00410718,0.00213422,-0.00388508,0.00399675,-0.00596971,-1.12376,0.0057916,0.015481,608,1009,-21.8721,-2.45911
-609,15,-21.8843,2.41791,-0.00205414,0.00189213,-0.00557044,0.00582857,-0.00599058,-0.955611,0.006824,0.0206762,615,1009,-21.8843,-2.41789
-602,15,-21.8445,2.33893,-0.000808695,0.00151914,-0.00671656,0.00717189,-0.00646144,-0.871192,0.00787477,0.0208014,622,1009,-21.8445,-2.33894
-595,15,-21.7538,1.94879,-0.000196166,0.00124245,-0.00741654,0.00797449,-0.0069282,-0.833741,0.00861113,0.0283436,629,1009,-21.7539,-1.94879
-588,15,-21.6904,1.67657,-8.32764e-06,0.00107561,-0.00788568,0.00843792,-0.00737064,-0.819708,0.00913401,0.0346385,636,1009,-21.6903,-1.67655
-581,15,-21.7303,1.31995,-5.52125e-05,0.00116333,-0.00799817,0.00857539,-0.00746728,-0.823413,0.00926961,0.0366468,643,1009,-21.7303,-1.31994
-574,15,-21.7242,1.18213,-0.000363325,0.00114829,-0.00762769,0.00805752,-0.00727255,-0.834781,0.00885469,0.0329673,650,1009,-21.7242,-1.18211
-567,15,-21.7365,1.20874,-0.000797847,0.00131521,-0.00682584,0.0071658,-0.00664844,-0.862181,0.00797752,0.0332438,657,1009,-21.7365,-1.20877
-560,15,-21.7636,1.13861,-0.00128841,0.00137916,-0.00559086,0.00579313,-0.00570238,-0.902492,0.00663701,0.0371266,664,1009,-21.7636,-1.13863
-553,15,-21.8464,1.25061,-0.00185162,0.00116483,-0.00399986,0.00393138,-0.00461817,-0.96569,0.00494139,0.039788,671,1009,-21.8464,-1.2506
-546,15,-21.747,1.40082,-0.0024519,0.000443095,-0.0021453,0.00158356,-0.00359237,-1.08218,0.00306243,0.0415288,678,1009,-21.747,-1.40079
-539,15,-21.6743,1.29047,-0.00298538,-0.00112481,-0.000535852,-0.000981519,-0.00312867,-1.3095,0.00184765,0.0428497,685,1009,-21.6742,-1.2905
-532,15,-21.7448,1.11163,-0.00403293,-0.00307264,-0.000365508,-0.00294935,-0.00415622,-1.24547,0.00246889,0.0434034,692,1009,-21.7448,-1.11165
-525,15,0,0,0,0,0,0,0,0,0,-1,699,1009,0,0
-518,15,0,0,0,0,0,0,0,0,0,-1,706,1009,0,0
-511,15,0,0,0,0,0,0,0,0,0,-1,713,1009,0,0
-504,15,0,0,0,0,0,0,0,0,0,-1,720,1009,0,0
-497,15,0,0,0,0,0,0,0,0,0,-1,727,1009,0,0
-490,15,0,0,0,0,0,0,0,0,0,-1,734,1009,0,0
-483,15,0,0,0,0,0,0,0,0,0,-1,741,1009,0,0
-476,15,0,0,0,0,0,0,0,0,0,-1,748,1009,0,0
-469,15,0,0,0,0,0,0,0,0,0,-1,755,1009,0,0
-462,15,0,0,0,0,0,0,0,0,0,-1,762,1009,0,0
-455,15,0,0,0,0,0,0,0,0,0,-1,769,1009,0,0
-448,15,0,0,0,0,0,0,0,0,0,-1,776,1009,0,0
-441,15,0,0,0,0,0,0,0,0,0,-1,783,1009,0,0
-434,15,0,0,0,0,0,0,0,0,0,-1,790,1009,0,0
-427,15,0,0,0,0,0,0,0,0,0,-1,797,1009,0,0
-420,15,0,0,0,0,0,0,0,0,0,-1,804,1009,0,0
-413,15,0,0,0,0,0,0,0,0,0,-1,811,1009,0,0
-406,15,0,0,0,0,0,0,0,0,0,-1,818,1009,0,0
-399,15,0,0,0,0,0,0,0,0,0,-1,825,1009,0,0
-392,15,0,0,0,0,0,0,0,0,0,-1,832,1009,0,0
-385,15,0,0,0,0,0,0,0,0,0,-1,839,1009,0,0
-378,15,0,0,0,0,0,0,0,0,0,-1,846,1009,0,0
-371,15,0,0,0,0,0,0,0,0,0,-1,853,1009,0,0
-364,15,0,0,0,0,0,0,0,0,0,-1,860,1009,0,0
-357,15,0,0,0,0,0,0,0,0,0,-1,867,1009,0,0
-350,15,0,0,0,0,0,0,0,0,0,-1,874,1009,0,0
-343,15,0,0,0,0,0,0,0,0,0,-1,881,1009,0,0
-336,15,0,0,0,0,0,0,0,0,0,-1,888,1009,0,0
-329,15,0,0,0,0,0,0,0,0,0,-1,895,1009,0,0
-322,15,0,0,0,0,0,0,0,0,0,-1,902,1009,0,0
-315,15,0,0,0,0,0,0,0,0,0,-1,909,1009,0,0
-308,15,0,0,0,0,0,0,0,0,0,-1,916,1009,0,0
-301,15,0,0,0,0,0,0,0,0,0,-1,923,1009,0,0
-294,15,0,0,0,0,0,0,0,0,0,-1,930,1009,0,0
-287,15,0,0,0,0,0,0,0,0,0,-1,937,1009,0,0
-280,15,0,0,0,0,0,0,0,0,0,-1,944,1009,0,0
-273,15,0,0,0,0,0,0,0,0,0,-1,951,1009,0,0
-266,15,0,0,0,0,0,0,0,0,0,-1,958,1009,0,0
-259,15,0,0,0,0,0,0,0,0,0,-1,965,1009,0,0
-252,15,0,0,0,0,0,0,0,0,0,-1,972,1009,0,0
-245,15,0,0,0,0,0,0,0,0,0,-1,979,1009,0,0
-238,15,0,0,0,0,0,0,0,0,0,-1,986,1009,0,0
-231,15,0,0,0,0,0,0,0,0,0,-1,993,1009,0,0
-224,15,0,0,0,0,0,0,0,0,0,-1,1000,1009,0,0
-217,15,0,0,0,0,0,0,0,0,0,-1,1007,1009,0,0
-210,15,0,0,0,0,0,0,0,0,0,-1,1014,1009,0,0
-203,15,0,0,0,0,0,0,0,0,0,-1,1021,1009,0,0
-196,15,0,0,0,0,0,0,0,0,0,-1,1028,1009,0,0
-189,15,0,0,0,0,0,0,0,0,0,-1,1035,1009,0,0
-182,15,0,0,0,0,0,0,0,0,0,-1,1042,1009,0,0
-175,15,0,0,0,0,0,0,0,0,0,-1,1049,1009,0,0
-168,15,0,0,0,0,0,0,0,0,0,-1,1056,1009,0,0
-161,15,0,0,0,0,0,0,0,0,0,-1,1063,1009,0,0
-154,15,0,0,0,0,0,0,0,0,0,-1,1070,1009,0,0
-147,15,0,0,0,0,0,0,0,0,0,-1,1077,1009,0,0
-140,15,0,0,0,0,0,0,0,0,0,-1,1084,1009,0,0
-133,15,0,0,0,0,0,0,0,0,0,-1,1091,1009,0,0
-126,15,0,0,0,0,0,0,0,0,0,-1,1098,1009,0,0
-119,15,0,0,0,0,0,0,0,0,0,-1,1105,1009,0,0
-112,15,0,0,0,0,0,0,0,0,0,-1,1112,1009,0,0
-105,15,0,0,0,0,0,0,0,0,0,-1,1119,1009,0,0
-98,15,0,0,0,0,0,0,0,0,0,-1,1126,1009,0,0
-91,15,0,0,0,0,0,0,0,0,0,-1,1133,1009,0,0
-84,15,0,0,0,0,0,0,0,0,0,-1,1140,1009,0,0
-77,15,0,0,0,0,0,0,0,0,0,-1,1147,1009,0,0
-70,15,0,0,0,0,0,0,0,0,0,-1,1154,1009,0,0
-63,15,0,0,0,0,0,0,0,0,0,-1,1161,1009,0,0
-56,15,0,0,0,0,0,0,0,0,0,-1,1168,1009,0,0
-49,15,0,0,0,0,0,0,0,0,0,-1,1175,1009,0,0
-42,15,0,0,0,0,0,0,0,0,0,-1,1182,1009,0,0
-35,15,0,0,0,0,0,0,0,0,0,-1,1189,1009,0,0
-28,15,0,0,0,0,0,0,0,0,0,-1,1196,1009,0,0
-21,15,0,0,0,0,0,0,0,0,0,-1,1203,1009,0,0
-14,15,0,0,0,0,0,0,0,0,0,-1,1210,1009,0,0
-7,15,0,0,0,0,0,0,0,0,0,-1,1217,1009,0,0
0,15,0,0,0,0,0,0,0,0,0,-1,1224,1009,0,0
7,15,0,0,0,0,0,0,0,0,0,-1,1231,1009,0,0
14,15,0,0,0,0,0,0,0,0,0,-1,1238,1009,0,0
21,15,0,0,0,0,0,0,0,0,0,-1,1245,1009,0,0
28,15,0,0,0,0,0,0,0,0,0,-1,1252,1009,0,0
35,15,0,0,0,0,0,0,0,0,0,-1,1259,1009,0,0
42,15,0,0,0,0,0,0,0,0,0,-1,1266,1009,0,0
49,15,0,0,0,0,0,0,0,0,0,-1,1273,1009,0,0
56,15,0,0,0,0,0,0,0,0,0,-1,1280,1009,0,0
63,15,0,0,0,0,0,0,0,0,0,-1,1287,1009,0,0
70,15,0,0,0,0,0,0,0,0,0,-1,1294,1009,0,0
77,15,0,0,0,0,0,0,0,0,0,-1,1301,1009,0,0
84,15,0,0,0,0,0,0,0,0,0,-1,1308,1009,0,0
91,15,0,0,0,0,0,0,0,0,0,-1,1315,1009,0,0
98,15,0,0,0,0,0,0,0,0,0,-1,1322,1009,0,0
105,15,0,0,0,0,0,0,0,0,0,-1,1329,1009,0,0
112,15,0,0,0,0,0,0,0,0,0,-1,1336,1009,0,0
119,15,0,0,0,0,0,0,0,0,0,-1,1343,1009,0,0
126,15,0,0,0,0,0,0,0,0,0,-1,1350,1009,0,0
133,15,0,0,0,0,0,0,0,0,0,-1,1357,1009,0,0
140,15,0,0,0,0,0,0,0,0,0,-1,1364,1009,0,0
147,15,0,0,0,0,0,0,0,0,0,-1,1371,1009,0,0
154,15,0,0,0,0,0,0,0,0,0,-1,1378,1009,0,0
161,15,0,0,0,0,0,0,0,0,0,-1,1385,1009,0,0
168,15,0,0,0,0,0,0,0,0,0,-1,1392,1009,0,0
175,15,0,0,0,0,0,0,0,0,0,-1,1399,1009,0,0
182,15,0,0,0,0,0,0,0,0,0,-1,1406,1009,0,0
189,15,0,0,0,0,0,0,0,0,0,-1,1413,1009,0,0
196,15,0,0,0,0,0,0,0,0,0,-1,1420,1009,0,0
203,15,0,0,0,0,0,0,0,0,0,-1,1427,1009,0,0
210,15,0,0,0,0,0,0,0,0,0,-1,1434,1009,0,0
217,15,0,0,0,0,0,0,0,0,0,-1,1441,1009,0,0
224,15,0,0,0,0,0,0,0,0,0,-1,1448,1009,0,0
231,15,0,0,0,0,0,0,0,0,0,-1,1455,1009,0,0
238,15,0,0,0,0,0,0,0,0,0,-1,1462,1009,0,0
245,15,0,0,0,0,0,0,0,0,0,-1,1469,1009,0,0
252,15,0,0,0,0,0,0,0,0,0,-1,1476,1009,0,0
259,15,0,0,0,0,0,0,0,0,0,-1,1483,1009,0,0
266,15,0,0,0,0,0,0,0,0,0,-1,1490,1009,0,0
273,15,0,0,0,0,0,0,0,0,0,-1,1497,1009,0,0
280,15,0,0,0,0,0,0,0,0,0,-1,1504,1009,0,0
287,15,0,0,0,0,0,0,0,0,0,-1,1511,1009,0,0
294,15,0,0,0,0,0,0,0,0,0,-1,1518,1009,0,0
301,15,0,0,0,0,0,0,0,0,0,-1,1525,1009,0,0
308,15,0,0,0,0,0,0,0,0,0,-1,1532,1009,0,0
315,15,0,0,0,0,0,0,0,0,0,-1,1539,1009,0,0
322,15,0,0,0,0,0,0,0,0,0,-1,1546,1009,0,0
329,15,0,0,0,0,0,0,0,0,0,-1,1553,1009,0,0
336,15,0,0,0,0,0,0,0,0,0,-1,1560,1009,0,0
343,15,0,0,0,0,0,0,0,0,0,-1,1567,1009,0,0
350,15,0,0,0,0,0,0,0,0,0,-1,1574,1009,0,0
357,15,0,0,0,0,0,0,0,0,0,-1,1581,1009,0,0
364,15,0,0,0,0,0,0,0,0,0,-1,1588,1009,0,0
371,15,0,0,0,0,0,0,0,0,0,-1,1595,1009,0,0
378,15,0,0,0,0,0,0,0,0,0,-1,1602,1009,0,0
385,15,0,0,0,0,0,0,0,0,0,-1,1609,1009,0,0
392,15,0,0,0,0,0,0,0,0,0,-1,1616,1009,0,0
399,15,0,0,0,0,0,0,0,0,0,-1,1623,1009,0,0
406,15,0,0,0,0,0,0,0,0,0,-1,1630,1009,0,0
413,15,0,0,0,0,0,0,0,0,0,-1,1637,1009,0,0
420,15,0,0,0,0,0,0,0,0,0,-1,1644,1009,0,0
427,15,0,0,0,0,0,0,0,0,0,-1,1651,1009,0,0
434,15,0,0,0,0,0,0,0,0,0,-1,1658,1009,0,0
441,15,0,0,0,0,0,0,0,0,0,-1,1665,1009,0,0
448,15,0,0,0,0,0,0,0,0,0,-1,1672,1009,0,0
455,15,0,0,0,0,0,0,0,0,0,-1,1679,1009,0,0
462,15,0,0,0,0,0,0,0,0,0,-1,1686,1009,0,0
469,15,0,0,0,0,0,0,0,0,0,-1,1693,1009,0,0
476,15,0,0,0,0,0,0,0,0,0,-1,1700,1009,0,0
483,15,0,0,0,0,0,0,0,0,0,-1,1707,1009,0,0
490,15,0,0,0,0,0,0,0,0,0,-1,1714,1009,0,0
497,15,0,0,0,0,0,0,0,0,0,-1,1721,1009,0,0
504,15,0,0,0,0,0,0,0,0,0,-1,1728,1009,0,0
511,15,0,0,0,0,0,0,0,0,0,-1,1735,1009,0,0
518,15,0,0,0,0,0,0,0,0,0,-1,1742,1009,0,0
525,15,0,0,0,0,0,0,0,0,0,-1,1749,1009,0,0
532,15,0,0,0,0,0,0,0,0,0,-1,1756,1009,0,0
539,15,0,0,0,0,0,0,0,0,0,-1,1763,1009,0,0
546,15,0,0,0,0,0,0,0,0,0,-1,1770,1009,0,0
553,15,0,0,0,0,0,0,0,0,0,-1,1777,1009,0,0
560,15,0,0,0,0,0,0,0,0,0,-1,1784,1009,0,0
567,15,0,0,0,0,0,0,0,0,0,-1,1791,1009,0,0
574,15,0,0,0,0,0,0,0,0,0,-1,1798,1009,0,0
581,15,0,0,0,0,0,0,0,0,0,-1,1805,1009,0,0
588,15,0,0,0,0,0,0,0,0,0,-1,1812,1009,0,0
595,15,0,0,0,0,0,0,0,0,0,-1,1819,1009,0,0
602,15,0,0,0,0,0,0,0,0,0,-1,1826,1009,0,0
609,15,0,0,0,0,0,0,0,0,0,-1,1833,1009,0,0
616,15,0,0,0,0,0,0,0,0,0,-1,1840,1009,0,0
623,15,0,0,0,0,0,0,0,0,0,-1,1847,1009,0,0
630,15,0,0,0,0,0,0,0,0,0,-1,1854,1009,0,0
637,15,0,0,0,0,0,0,0,0,0,-1,1861,1009,0,0
644,15,30.9076,2.84888,0.00658402,-0.0118701,0.00137677,0.00668617,-0.0119723,0.0740584,0.0109156,0.0414419,1868,1009,30.9076,-2.84886
651,15,30.9484,3.22015,0.00427595,-0.00848579,0.000510829,0.00429637,-0.00850621,0.039943,0.0075236,0.0391725,1875,1009,30.9483,-3.22015
658,15,31.0476,3.13,0.00256853,-0.00607385,3.54486e-05,0.00256867,-0.006074,0.00410162,0.00512483,0.0406124,1882,1009,31.0476,-3.13
665,15,30.9041,2.99219,0.00129805,-0.00419489,4.27274e-05,0.00129838,-0.00419523,0.00777797,0.00331547,0.0401521,1889,1009,30.904,-2.99217
672,15,30.7817,2.94763,0.000392568,-0.00269043,0.00048241,0.00046629,-0.00276415,0.151647,0.00201625,0.0391808,1896,1009,30.7818,-2.94766
679,15,30.8544,2.91522,-0.000324465,-0.00152956,0.0011242,0.000348485,-0.00220251,0.539391,0.00159722,0.0388572,1903,1009,30.8544,-2.9152
686,15,30.9777,2.86432,-0.000670471,-0.000938311,0.00169103,0.000891937,-0.00250072,0.745884,0.00203083,0.0427363,1910,1009,30.9777,-2.8643
693,15,30.9574,2.81372,-0.000802813,-0.000645003,0.00211015,0.00138772,-0.00283554,0.804086,0.0024856,0.0425937,1917,1009,30.9574,-2.81374
700,15,30.9586,2.93549,-0.000912707,-0.000366628,0.00228942,0.00166598,-0.00294532,0.844748,0.00269627,0.0339774,1924,1009,30.9586,-2.93551
707,15,30.8824,3.00201,-0.001049,-6.83606e-05,0.00231697,0.00180961,-0.00292697,0.88967,0.00275991,0.0265157,1931,1009,30.8825,-3.00201
714,15,31.0272,2.25134,0,0,0,0,0,0,0,-1,1938,1009,31.0272,-2.25134
721,15,30.9011,3.63586,0,0,0,0,0,0,0,-1,1945,1009,30.9011,-3.63587
728,15,30.4819,4.77075,0,0,0,0,0,0,0,-1,1952,1009,30.482,-4.77076
735,15,30.4512,4.86676,-0.00257786,0.00139837,0.00152426,0.00191545,-0.00309494,1.24375,0.00291934,0.0163348,1959,1009,30.4512,-4.86673
742,15,30.4788,4.95428,-0.00365531,0.00206747,0.000705718,0.00215322,-0.00374105,1.44989,0.00344397,0.01967,1966,1009,30.4788,-4.95428
749,15,30.4565,5.01886,-0.00506583,0.00261101,-0.000337233,0.0026258,-0.00508062,-1.52698,0.00452392,0.0121024,1973,1009,30.4565,-5.01883
756,15,30.4501,5.04572,-0.00695988,0.00301036,-0.00163775,0.00327249,-0.00722201,-1.41209,0.00620038,0.0125419,1980,1009,30.4501,-5.04569
763,15,30.4117,5.10785,-0.00959106,0.00439779,-0.00318421,0.0050885,-0.0102818,-1.35719,0.00904129,0.0122309,1987,1009,30.4118,-5.10784
770,15,30.3492,5.13721,-0.0131917,0.00565403,-0.00513254,0.00696119,-0.0144989,-1.32142,0.0126422,0.0175993,1994,1009,30.3493,-5.13719
777,15,30.1398,5.20593,-0.01733,0.00689177,-0.00704749,0.00879305,-0.0192313,-1.30729,0.0165498,0.041767,2001,1009,30.1397,-5.20593
784,15,29.9994,5.29858,0,0,0,0,0,0,0,-1,2008,1009,29.9994,-5.29856
791,15,30.0658,3.9071,-0.0272362,0.00946534,-0.0110194,0.0125197,-0.0302905,-1.30041,0.0254164,0.0446221,2015,1009,30.0659,-3.90709
798,15,29.5303,3.61499,-0.0333202,0.0111493,-0.0128666,0.0146037,-0.0367746,-1.3085,0.03057,0.0455851,2022,1009,29.5303,-3.61501
805,15,29.0557,3.22687,0,0,0,0,0,0,0,-1,2029,1009,29.0557,-3.22684
812,15,29.2446,4.63696,0,0,0,0,0,0,0,-1,2036,1009,29.2446,-4.63695
-700,8,0,0,0,0,0,0,0,0,0,-1,524,1016,0,0
-693,8,-26.2817,-1.43573,0.171644,-0.0328486,-0.0212451,0.173827,-0.0350325,-0.102435,0.129156,0.0464783,531,1016,-26.2817,1.43573
-686,8,-24.5783,-1.39313,0.128092,-0.0290185,-0.0130817,0.129174,-0.0301003,-0.0825076,0.097707,0.0454792,538,1016,-24.5783,1.3931
-679,8,-23.0421,-1.68225,0.0910692,-0.0238529,-0.00695535,0.0914887,-0.0242723,-0.0602293,0.0704902,0.0468208,545,1016,-23.0421,1.68224
-672,8,-21.1615,2.68213,0.0609349,-0.0182878,-0.00252643,0.0610154,-0.0183683,-0.0318471,0.0479862,0.0458521,552,1016,-21.1615,-2.68211
-665,8,-21.3704,2.32526,0.037625,-0.0129383,0.000407717,0.0376283,-0.0129416,0.00806279,0.030334,0.046637,559,1016,-21.3704,-2.32528
-658,8,-21.5889,2.25049,0.0206507,-0.00824602,0.00208763,0.0208007,-0.00839606,0.0717481,0.0173565,0.0365348,566,1016,-21.5889,-2.25047
-651,8,-21.6959,2.30835,0.00925375,-0.00451406,0.00274381,0.00978042,-0.00504073,0.189643,0.00870162,0.0235884,573,1016,-21.6959,-2.30837
-644,8,-21.6552,2.41437,0.00218003,-0.00186976,0.00248475,0.00336047,-0.00305021,0.443509,0.00370265,0.0284856,580,1016,-21.6551,-2.4144
-637,8,-21.7346,2.4823,-0.00416119,-0.000177737,0.00162532,0.000401265,-0.00474019,1.22857,0.00330202,0.024239,587,1016,-21.7346,-2.4823
-630,8,-21.8519,2.50647,-0.00667921,0.000691091,0.000220332,0.000697673,-0.00668579,1.54094,0.00470702,0.0164924,594,1016,-21.8519,-2.50646
-623,8,-21.8586,2.49469,-0.00559039,0.00266267,-0.00184995,0.00305837,-0.00598609,-1.36007,0.00531223,0.013859,601,1016,-21.8586,-2.49467
-616,8,-21.8915,2.46002,-0.00385616,0.00205475,-0.00452888,0.00450721,-0.00630861,-1.07449,0.00627332,0.0132958,608,1016,-21.8916,-2.46
-609,8,-21.9001,2.41956,-0.00178654,0.00160197,-0.0062158,0.00635028,-0.00653486,-0.918452,0.00743949,0.0153573,615,1016,-21.9001,-2.41957
-602,8,-21.851,2.41626,-0.000482111,0.00111478,-0.00736616,0.00772564,-0.00709297,-0.839384,0.00855812,0.0201815,622,1016,-21.851,-2.41628
-595,8,-21.6442,1.95422,0.000160833,0.00079897,-0.00806066,0.00854688,-0.00758708,-0.80518,0.00932043,0.038798,629,1016,-21.6442,-1.95424
-588,8,-21.6833,1.41748,0,0,0,0,0,0,0,-1,636,1016,-21.6833,-1.41748
-581,8,-21.6996,1.19604,0.000284855,0.00074155,-0.00852176,0.00903802,-0.00801161,-0.798793,0.00984955,0.0294819,643,1016,-21.6996,-1.19605
-574,8,-21.7534,1.18311,-4.81314e-05,0.000775138,-0.00806778,0.00844178,-0.00771477,-0.810887,0.00933114,0.0340822,650,1016,-21.7534,-1.18313
-567,8,-21.7379,1.13348,-0.000542021,0.00101698,-0.00713828,0.0074182,-0.00694324,-0.839783,0.00829309,0.0385829,657,1016,-21.7379,-1.13348
-560,8,-21.6706,1.08136,-0.00113303,0.00121248,-0.00572907,0.00588759,-0.00580814,-0.886355,0.00675259,0.037939,664,1016,-21.6706,-1.08136
-553,8,-21.6613,1.03076,-0.00185668,0.00120006,-0.00391224,0.00387188,-0.0045285,-0.971614,0.00485489,0.0378325,671,1016,-21.6612,-1.03078
-546,8,-21.6919,1.51257,-0.00268185,0.000762612,-0.0017879,0.00152285,-0.00344209,-1.16874,0.00293703,0.0417536,678,1016,-21.6919,-1.51256
-539,8,-21.6309,1.7807,-0.00349878,-0.000463478,2.42553e-05,-0.000463284,-0.00349898,1.56281,0.00219459,0.0452139,685,1016,-21.6309,-1.78072
-532,8,-21.719,1.40643,-0.00483451,-0.0018566,0.00012355,-0.00185149,-0.00483963,1.5294,0.00281973,0.044719,692,1016,-21.719,-1.40641
-525,8,0,0,0,0,0,0,0,0,0,-1,699,1016,0,0
-518,8,0,0,0,0,0,0,0,0,0,-1,706,1016,0,0
-511,8,0,0,0,0,0,0,0,0,0,-1,713,1016,0,0
-504,8,0,0,0,0,0,0,0,0,0,-1,720,1016,0,0
-497,8,0,0,0,0,0,0,0,0,0,-1,727,1016,0,0
-490,8,0,0,0,0,0,0,0,0,0,-1,734,1016,0,0
-483,8,0,0,0,0,0,0,0,0,0,-1,741,1016,0,0
-476,8,0,0,0,0,0,0,0,0,0,-1,748,1016,0,0
-469,8,0,0,0,0,0,0,0,0,0,-1,755,1016,0,0
-462,8,0,0,0,0,0,0,0,0,0,-1,762,1016,0,0
-455,8,0,0,0,0,0,0,0,0,0,-1,769,1016,0,0
-448,8,0,0,0,0,0,0,0,0,0,-1,776,1016,0,0
-441,8,0,0,0,0,0,0,0,0,0,-1,783,1016,0,0
-434,8,0,0,0,0,0,0,0,0,0,-1,790,1016,0,0
-427,8,0,0,0,0,0,0,0,0,0,-1,797,1016,0,0
-420,8,0,0,0,0,0,0,0,0,0,-1,804,1016,0,0
-413,8,0,0,0,0,0,0,0,0,0,-1,811,1016,0,0
-406,8,0,0,0,0,0,0,0,0,0,-1,818,1016,0,0
-399,8,0,0,0,0,0,0,0,0,0,-1,825,1016,0,0
-392,8,0,0,0,0,0,0,0,0,0,-1,832,1016,0,0
-385,8,0,0,0,0,0,0,0,0,0,-1,839,1016,0,0
-378,8,0,0,0,0,0,0,0,0,0,-1,846,1016,0,0
-371,8,0,0,0,0,0,0,0,0,0,-1,853,1016,0,0
-364,8,0,0,0,0,0,0,0,0,0,-1,860,1016,0,0
-357,8,0,0,0,0,0,0,0,0,0,-1,867,1016,0,0
-350,8,0,0,0,0,0,0,0,0,0,-1,874,1016,0,0
-343,8,0,0,0,0,0,0,0,0,0,-1,881,1016,0,0
-336,8,0,0,0,0,0,0,0,0,0,-1,888,1016,0,0
-329,8,0,0,0,0,0,0,0,0,0,-1,895,1016,0,0
-322,8,0,0,0,0,0,0,0,0,0,-1,902,1016,0,0
-315,8,0,0,0,0,0,0,0,0,0,-1,909,1016,0,0
-308,8,0,0,0,0,0,0,0,0,0,-1,916,1016,0,0
-301,8,0,0,0,0,0,0,0,0,0,-1,923,1016,0,0
-294,8,0,0,0,0,0,0,0,0,0,-1,930,1016,0,0
-287,8,0,0,0,0,0,0,0,0,0,-1,937,1016,0,0
-280,8,0,0,0,0,0,0,0,0,0,-1,944,1016,0,0
-273,8,0,0,0,0,0,0,0,0,0,-1,951,1016,0,0
-266,8,0,0,0,0,0,0,0,0,0,-1,958,1016,0,0
-259,8,0,0,0,0,0,0,0,0,0,-1,965,1016,0,0
-252,8,0,0,0,0,0,0,0,0,0,-1,972,1016,0,0
-245,8,0,0,0,0,0,0,0,0,0,-1,979,1016,0,0
-238,8,0,0,0,0,0,0,0,0,0,-1,986,1016,0,0
-231,8,0,0,0,0,0,0,0,0,0,-1,993,1016,0,0
-224,8,0,0,0,0,0,0,0,0,0,-1,1000,1016,0,0
-217,8,0,0,0,0,0,0,0,0,0,-1,1007,1016,0,0
-210,8,0,0,0,0,0,0,0,0,0,-1,1014,1016,0,0
-203,8,0,0,0,0,0,0,0,0,0,-1,1021,1016,0,0
-196,8,0,0,0,0,0,0,0,0,0,-1,1028,1016,0,0
-189,8,0,0,0,0,0,0,0,0,0,-1,1035,1016,0,0
-182,8,0,0,0,0,0,0,0,0,0,-1,1042,1016,0,0
-175,8,0,0,0,0,0,0,0,0,0,-1,1049,1016,0,0
-168,8,0,0,0,0,0,0,0,0,0,-1,1056,1016,0,0
-161,8,0,0,0,0,0,0,0,0,0,-1,1063,1016,0,0
-154,8,0,0,0,0,0,0,0,0,0,-1,1070,1016,0,0
-147,8,0,0,0,0,0,0,0,0,0,-1,1077,1016,0,0
-140,8,0,0,0,0,0,0,0,0,0,-1,1084,1016,0,0
-133,8,0,0,0,0,0,0,0,0,0,-1,1091,1016,0,0
-126,8,0,0,0,0,0,0,0,0,0,-1,1098,1016,0,0
-119,8,0,0,0,0,0,0,0,0,0,-1,1105,1016,0,0
-112,8,0,0,0,0,0,0,0,0,0,-1,1112,1016,0,0
-105,8,0,0,0,0,0,0,0,0,0,-1,1119,1016,0,0
-98,8,0,0,0,0,0,0,0,0,0,-1,1126,1016,0,0
-91,8,0,0,0,0,0,0,0,0,0,-1,1133,1016,0,0
-84,8,0,0,0,0,0,0,0,0,0,-1,1140,1016,0,0
-77,8,0,0,0,0,0,0,0,0,0,-1,1147,1016,0,0
-70,8,0,0,0,0,0,0,0,0,0,-1,1154,1016,0,0
-63,8,0,0,0,0,0,0,0,0,0,-1,1161,1016,0,0
-56,8,0,0,0,0,0,0,0,0,0,-1,1168,1016,0,0
-49,8,0,0,0,0,0,0,0,0,0,-1,1175,1016,0,0
-42,8,0,0,0,0,0,0,0,0,0,-1,1182,1016,0,0
-35,8,0,0,0,0,0,0,0,0,0,-1,1189,1016,0,0
-28,8,0,0,0,0,0,0,0,0,0,-1,1196,1016,0,0
-21,8,0,0,0,0,0,0,0,0,0,-1,1203,1016,0,0
-14,8,0,0,0,0,0,0,0,0,0,-1,1210,1016,0,0
-7,8,0,0,0,0,0,0,0,0,0,-1,1217,1016,0,0
0,8,0,0,0,0,0,0,0,0,0,-1,1224,1016,0,0
7,8,0,0,0,0,0,0,0,0,0,-1,1231,1016,0,0
14,8,0,0,0,0,0,0,0,0,0,-1,1238,1016,0,0
21,8,0,0,0,0,0,0,0,0,0,-1,1245,1016,0,0
28,8,0,0,0,0,0,0,0,0,0,-1,1252,1016,0,0
35,8,0,0,0,0,0,0,0,0,0,-1,1259,1016,0,0
42,8,0,0,0,0,0,0,0,0,0,-1,1266,1016,0,0
49,8,0,0,0,0,0,0,0,0,0,-1,1273,1016,0,0
56,8,0,0,0,0,0,0,0,0,0,-1,1280,1016,0,0
63,8,0,0,0,0,0,0,0,0,0,-1,1287,1016,0,0
70,8,0,0,0,0,0,0,0,0,0,-1,1294,1016,0,0
77,8,0,0,0,0,0,0,0,0,0,-1,1301,1016,0,0
84,8,0,0,0,0,0,0,0,0,0,-1,1308,1016,0,0
91,8,0,0,0,0,0,0,0,0,0,-1,1315,1016,0,0
98,8,0,0,0,0,0,0,0,0,0,-1,1322,1016,0,0
105,8,0,0,0,0,0,0,0,0,0,-1,1329,1016,0,0
112,8,0,0,0,0,0,0,0,0,0,-1,1336,1016,0,0
119,8,0,0,0,0,0,0,0,0,0,-1,1343,1016,0,0
126,8,0,0,0,0,0,0,0,0,0,-1,1350,1016,0,0
133,8,0,0,0,0,0,0,0,0,0,-1,1357,1016,0,0
140,8,0,0,0,0,0,0,0,0,0,-1,1364,1016,0,0
147,8,0,0,0,0,0,0,0,0,0,-1,1371,1016,0,0
154,8,0,0,0,0,0,0,0,0,0,-1,1378,1016,0,0
161,8,0,0,0,0,0,0,0,0,0,-1,1385,1016,0,0
168,8,0,0,0,0,0,0,0,0,0,-1,1392,1016,0,0
175,8,0,0,0,0,0,0,0,0,0,-1,1399,1016,0,0
182,8,0,0,0,0,0,0,0,0,0,-1,1406,1016,0,0
189,8,0,0,0,0,0,0,0,0,0,-1,1413,1016,0,0
196,8,0,0,0,0,0,0,0,0,0,-1,1420,1016,0,0
203,8,0,0,0,0,0,0,0,0,0,-1,1427,1016,0,0
210,8,0,0,0,0,0,0,0,0,0,-1,1434,1016,0,0
217,8,0,0,0,0,0,0,0,0,0,-1,1441,1016,0,0
224,8,0,0,0,0,0,0,0,0,0,-1,1448,1016,0,0
231,8,0,0,0,0,0,0,0,0,0,-1,1455,1016,0,0
238,8,0,0,0,0,0,0,0,0,0,-1,1462,1016,0,0
245,8,0,0,0,0,0,0,0,0,0,-1,1469,1016,0,0
252,8,0,0,0,0,0,0,0,0,0,-1,1476,1016,0,0
259,8,0,0,0,0,0,0,0,0,0,-1,1483,1016,0,0
266,8,0,0,0,0,0,0,0,0,0,-1,1490,1016,0,0
273,8,0,0,0,0,0,0,0,0,0,-1,1497,1016,0,0
280,8,0,0,0,0,0,0,0,0,0,-1,1504,1016,0,0
287,8,0,0,0,0,0,0,0,0,0,-1,1511,1016,0,0
294,8,0,0,0,0,0,0,0,0,0,-1,1518,1016,0,0
301,8,0,0,0,0,0,0,0,0,0,-1,1525,1016,0,0
308,8,0,0,0,0,0,0,0,0,0,-1,1532,1016,0,0
315,8,0,0,0,0,0,0,0,0,0,-1,1539,1016,0,0
322,8,0,0,0,0,0,0,0,0,0,-1,1546,1016,0,0
329,8,0,0,0,0,0,0,0,0,0,-1,1553,1016,0,0
336,8,0,0,0,0,0,0,0,0,0,-1,1560,1016,0,0
343,8,0,0,0,0,0,0,0,0,0,-1,1567,1016,0,0
350,8,0,0,0,0,0,0,0,0,0,-1,1574,1016,0,0
357,8,0,0,0,0,0,0,0,0,0,-1,1581,1016,0,0
364,8,0,0,0,0,0,0,0,0,0,-1,1588,1016,0,0
371,8,0,0,0,0,0,0,0,0,0,-1,1595,1016,0,0
378,8,0,0,0,0,0,0,0,0,0,-1,1602,1016,0,0
385,8,0,0,0,0,0,0,0,0,0,-1,1609,1016,0,0
392,8,0,0,0,0,0,0,0,0,0,-1,1616,1016,0,0
399,8,0,0,0,0,0,0,0,0,0,-1,1623,1016,0,0
406,8,0,0,0,0,0,0,0,0,0,-1,1630,1016,0,0
413,8,0,0,0,0,0,0,0,0,0,-1,1637,1016,0,0
420,8,0,0,0,0,0,0,0,0,0,-1,1644,1016,0,0
427,8,0,0,0,0,0,0,0,0,0,-1,1651,1016,0,0
434,8,0,0,0,0,0,0,0,0,0,-1,1658,1016,0,0
441,8,0,0,0,0,0,0,0,0,0,-1,1665,1016,0,0
448,8,0,0,0,0,0,0,0,0,0,-1,1672,1016,0,0
455,8,0,0,0,0,0,0,0,0,0,-1,1679,1016,0,0
462,8,0,0,0,0,0,0,0,0,0,-1,1686,1016,0,0
469,8,0,0,0,0,0,0,0,0,0,-1,1693,1016,0,0
476,8,0,0,0,0,0,0,0,0,0,-1,1700,1016,0,0
483,8,0,0,0,0,0,0,0,0,0,-1,1707,1016,0,0
490,8,0,0,0,0,0,0,0,0,0,-1,1714,1016,0,0
497,8,0,0,0,0,0,0,0,0,0,-1,1721,1016,0,0
504,8,0,0,0,0,0,0,0,0,0,-1,1728,1016,0,0
511,8,0,0,0,0,0,0,0,0,0,-1,1735,1016,0,0
518,8,0,0,0,0,0,0,0,0,0,-1,1742,1016,0,0
525,8,0,0,0,0,0,0,0,0,0,-1,1749,1016,0,0
532,8,0,0,0,0,0,0,0,0,0,-1,1756,1016,0,0
539,8,0,0,0,0,0,0,0,0,0,-1,1763,1016,0,0
546,8,0,0,0,0,0,0,0,0,0,-1,1770,1016,0,0
553,8,0,0,0,0,0,0,0,0,0,-1,1777,1016,0,0
560,8,0,0,0,0,0,0,0,0,0,-1,1784,1016,0,0
567,8,0,0,0,0,0,0,0,0,0,-1,1791,1016,0,0
574,8,0,0,0,0,0,0,0,0,0,-1,1798,1016,0,0
581,8,0,0,0,0,0,0,0,0,0,-1,1805,1016,0,0
588,8,0,0,0,0,0,0,0,0,0,-1,1812,1016,0,0
595,8,0,0,0,0,0,0,0,0,0,-1,1819,1016,0,0
602,8,0,0,0,0,0,0,0,0,0,-1,1826,1016,0,0
609,8,0,0,0,0,0,0,0,0,0,-1,1833,1016,0,0
616,8,0,0,0,0,0,0,0,0,0,-1,1840,1016,0,0
623,8,0,0,0,0,0,0,0,0,0,-1,1847,1016,0,0
630,8,0,0,0,0,0,0,0,0,0,-1,1854,1016,0,0
637,8,0,0,0,0,0,0,0,0,0,-1,1861,1016,0,0
644,8,30.9901,3.0553,0.00448006,-0.0106874,0.00145681,0.00461871,-0.010826,0.0948924,0.00915393,0.0441158,1868,1016,30.9902,-3.05529
651,8,31.0531,3.08185,0.00276675,-0.00759652,0.000611607,0.00280272,-0.00763249,0.0587449,0.00623616,0.0397358,1875,1016,31.0531,-3.08183
658,8,31.0034,2.94336,0.00150666,-0.00540916,0.000111699,0.00150846,-0.00541097,0.0161456,0.00420139,0.0403723,1882,1016,31.0034,-2.94337
665,8,30.9193,2.93488,0.000572951,-0.0037374,4.22374e-05,0.000573365,-0.00373782,0.00979781,0.00270334,0.0415538,1889,1016,30.9193,-2.93489
672,8,30.8596,2.93066,-3.12392e-05,-0.00243463,0.000439877,4.67385e-05,-0.00251261,0.175449,0.00169087,0.0420491,1896,1016,30.8596,-2.93068
679,8,30.8295,2.82831,-0.000486306,-0.0014417,0.00108397,0.000220561,-0.00214857,0.577855,0.00151128,0.0402112,1903,1016,30.8295,-2.82831
686,8,30.9064,2.77673,-0.000677673,-0.000967484,0.00167849,0.000862155,-0.00250731,0.742339,0.00202118,0.041268,1910,1016,30.9064,-2.77673
693,8,30.8164,2.82953,-0.000716036,-0.000756229,0.00215334,0.0014173,-0.00288957,0.780732,0.00253454,0.0396734,1917,1016,30.8164,-2.82954
700,8,30.8348,2.91516,-0.000760886,-0.000531534,0.00239107,0.00174761,-0.00304003,0.80936,0.00279752,0.0309758,1924,1016,30.8348,-2.91513
707,8,30.8837,2.93359,-0.0008268,-0.000278906,0.00245589,0.00191827,-0.00302398,0.840942,0.00287712,0.0221415,1931,1016,30.8837,-2.93359
714,8,30.9679,2.25842,0,0,0,0,0,0,0,-1,1938,1016,30.9679,-2.2584
721,8,30.9749,3.53809,0,0,0,0,0,0,0,-1,1945,1016,30.9748,-3.53807
728,8,30.4744,4.84137,0,0,0,0,0,0,0,-1,1952,1016,30.4743,-4.84138
735,8,30.4429,4.875,-0.00236676,0.00117394,0.00180262,0.00193016,-0.00312298,1.17358,0.0029444,0.021201,1959,1016,30.4429,-4.87497
742,8,30.5107,4.87427,-0.00340365,0.0018675,0.00101348,0.00205565,-0.00359179,1.38724,0.00330051,0.0255175,1966,1016,30.5108,-4.87425
749,8,30.5079,4.99414,-0.00475501,0.00241953,4.32011e-05,0.00241979,-0.00475527,1.56478,0.00421504,0.0186566,1973,1016,30.5079,-4.99417
756,8,30.4783,4.99304,-0.00656479,0.00271974,-0.00121135,0.00287518,-0.00672023,-1.44317,0.00568624,0.01596,1980,1016,30.4783,-4.99303
763,8,30.4872,5.03241,-0.00905873,0.00407865,-0.00273171,0.00462402,-0.0096041,-1.37374,0.00838067,0.0134581,1987,1016,30.4872,-5.03244
770,8,30.4426,5.04846,-0.0124731,0.00522425,-0.00469858,0.00639434,-0.0136431,-1.32673,0.0118183,0.016851,1994,1016,30.4427,-5.04847
777,8,30.2528,5.11633,-0.0163882,0.00633727,-0.00660532,0.00811767,-0.0181686,-1.30751,0.0155418,0.0290742,2001,1016,30.2528,-5.11632
784,8,30.1219,5.08264,-0.0206599,0.00741237,-0.00853129,0.0098017,-0.0230492,-1.29773,0.0194737,0.0488198,2008,1016,30.122,-5.08267
791,8,30.0544,5.04187,0,0,0,0,0,0,0,-1,2015,1016,30.0545,-5.04186
798,8,29.634,4.48022,-0.0310932,0.00998505,-0.0123852,0.0134303,-0.0345384,-1.29948,0.0285745,0.0478006,2022,1016,29.634,-4.48021
805,8,29.1526,4.26233,-0.0372035,0.0122063,-0.0138751,0.015836,-0.0408333,-1.31493,0.0337624,0.0446145,2029,1016,29.1526,-4.26232
812,8,27.3625,7.05023,0,0,0,0,0,0,0,-1,2036,1016,27.3624,-7.05023
-700,1,0,0,0,0,0,0,0,0,0,-1,524,1023,0,0
-693,1,-26.059,-1.3241,0,0,0,0,0,0,0,-1,531,1023,-26.059,1.32413
-686,1,-24.1024,-1.125,0,0,0,0,0,0,0,-1,538,1023,-24.1024,1.12499
-679,1,-21.9636,2.17719,0.100346,-0.0199927,-0.00933855,0.101067,-0.0207131,-0.0769878,0.0752386,0.0480768,545,1023,-21.9636,-2.17719
-672,1,-21.6638,2.09143,0.0690763,-0.0151094,-0.00471723,0.0693398,-0.0153729,-0.0558009,0.0521122,0.0459453,552,1023,-21.6637,-2.09145
-665,1,-21.4162,1.87152,0.044123,-0.0103585,-0.00143117,0.0441605,-0.0103961,-0.0262449,0.0334486,0.0442407,559,1023,-21.4162,-1.87154
-658,1,-21.6841,2.19464,0.0253884,-0.00617993,0.000647811,0.0254017,-0.00619321,0.0205094,0.0193324,0.0357131,566,1023,-21.6841,-2.19462
-651,1,-21.7576,2.40466,0.0124206,-0.00289529,0.00167928,0.0126026,-0.00307725,0.107935,0.00959341,0.0194859,573,1023,-21.7576,-2.40468
-644,1,-21.6475,2.51483,0.00399508,-0.000761861,0.00175566,0.00457286,-0.00133965,0.317935,0.00357968,0.0282439,580,1023,-21.6475,-2.51482
-637,1,-21.7572,2.46118,-0.00348413,0.000660774,0.00106545,0.000918612,-0.00374197,1.33336,0.00285062,0.0235237,587,1023,-21.7572,-2.4612
-630,1,-21.9138,2.43512,-0.00636994,0.0011668,-0.000324926,0.00118078,-0.00638392,-1.52779,0.00469925,0.0214518,594,1023,-21.9137,-2.4351
-623,1,-21.8613,2.46338,-0.00535233,0.00273641,-0.00234894,0.00336905,-0.00598497,-1.30771,0.00547049,0.0134482,601,1023,-21.8613,-2.4634
-616,1,-21.9014,2.4386,-0.00368651,0.00186165,-0.00500609,0.00481089,-0.00663575,-1.03841,0.00663666,0.0155031,608,1023,-21.9014,-2.43861
-609,1,-21.9014,2.44672,-0.00166975,0.00124626,-0.00670643,0.00665134,-0.00707483,-0.892435,0.00792607,0.0167547,615,1023,-21.9014,-2.44674
-602,1,-21.8127,2.47168,-0.000357977,0.000632433,-0.00788871,0.00804147,-0.00776701,-0.816744,0.00912749,0.0127672,622,1023,-21.8127,-2.47166
-595,1,-21.7358,2.44482,0.000262868,0.00025274,-0.00861016,0.00886797,-0.00835236,-0.785104,0.00994365,0.0225147,629,1023,-21.7358,-2.44483
-588,1,-21.7184,1.82819,0.000403882,2.04682e-05,-0.00902635,0.00924056,-0.00881621,-0.77478,0.010426,0.0327097,636,1023,-21.7184,-1.82821
-581,1,-21.6998,1.23804,0.000338701,0.000126533,-0.00900491,0.00923815,-0.00877291,-0.779508,0.0103998,0.0277149,643,1023,-21.6998,-1.23801
-574,1,-21.7114,1.22797,-1.36431e-05,0.00015769,-0.00850646,0.00857892,-0.00843487,-0.790433,0.00982303,0.0346733,650,1023,-21.7114,-1.22796
-567,1,-21.5624,0.968628,-0.000542312,0.000417603,-0.00749615,0.00744915,-0.00757386,-0.817368,0.00867363,0.0404445,657,1023,-21.5624,-0.968637
-560,1,-21.5048,0.980957,-0.00118848,0.00066674,-0.00596059,0.00577147,-0.00629321,-0.862591,0.00696772,0.0377513,664,1023,-21.5048,-0.980927
-553,1,-21.6444,1.04694,-0.00199537,0.000750218,-0.00395939,0.00356805,-0.0048132,-0.952273,0.00485668,0.0360499,671,1023,-21.6444,-1.04691
-546,1,-21.6636,1.35803,-0.0029436,0.000446888,-0.00158323,0.00107123,-0.00356794,-1.19517,0.00280474,0.0434634,678,1023,-21.6636,-1.35806
-539,1,-21.756,1.28333,-0.00391941,-0.00065884,0.000423213,-0.000604804,-0.00397344,1.4438,0.00247215,0.0466684,685,1023,-21.7561,-1.28334
-532,1,-21.7682,1.20215,-0.00539859,-0.00187543,0.000398449,-0.00183093,-0.00544309,1.45957,0.00319817,0.045072,692,1023,-21.7682,-1.20214
-525,1,0,0,0,0,0,0,0,0,0,-1,699,1023,0,0
-518,1,0,0,0,0,0,0,0,0,0,-1,706,1023,0,0
-511,1,0,0,0,0,0,0,0,0,0,-1,713,1023,0,0
-504,1,0,0,0,0,0,0,0,0,0,-1,720,1023,0,0
-497,1,0,0,0,0,0,0,0,0,0,-1,727,1023,0,0
-490,1,0,0,0,0,0,0,0,0,0,-1,734,1023,0,0
-483,1,0,0,0,0,0,0,0,0,0,-1,741,1023,0,0
-476,1,0,0,0,0,0,0,0,0,0,-1,748,1023,0,0
-469,1,0,0,0,0,0,0,0,0,0,-1,755,1023,0,0
-462,1,0,0,0,0,0,0,0,0,0,-1,762,1023,0,0
-455,1,0,0,0,0,0,0,0,0,0,-1,769,1023,0,0
-448,1,0,0,0,0,0,0,0,0,0,-1,776,1023,0,0
-441,1,0,0,0,0,0,0,0,0,0,-1,783,1023,0,0
-434,1,0,0,0,0,0,0,0,0,0,-1,790,1023,0,0
-427,1,0,0,0,0,0,0,0,0,0,-1,797,1023,0,0
-420,1,0,0,0,0,0,0,0,0,0,-1,804,1023,0,0
-413,1,0,0,0,0,0,0,0,0,0,-1,811,1023,0,0
-406,1,0,0,0,0,0,0,0,0,0,-1,818,1023,0,0
-399,1,0,0,0,0,0,0,0,0,0,-1,825,1023,0,0
-392,1,0,0,0,0,0,0,0,0,0,-1,832,1023,0,0
-385,1,0,0,0,0,0,0,0,0,0,-1,839,1023,0,0
-378,1,0,0,0,0,0,0,0,0,0,-1,846,1023,0,0
-371,1,0,0,0,0,0,0,0,0,0,-1,853,1023,0,0
-364,1,0,0,0,0,0,0,0,0,0,-1,860,1023,0,0
-357,1,0,0,0,0,0,0,0,0,0,-1,867,1023,0,0
-350,1,0,0,0,0,0,0,0,0,0,-1,874,1023,0,0
-343,1,0,0,0,0,0,0,0,0,0,-1,881,1023,0,0
-336,1,0,0,0,0,0,0,0,0,0,-1,888,1023,0,0
-329,1,0,0,0,0,0,0,0,0,0,-1,895,1023,0,0
-322,1,0,0,0,0,0,0,0,0,0,-1,902,1023,0,0
-315,1,0,0,0,0,0,0,0,0,0,-1,909,1023,0,0
-308,1,0,0,0,0,0,0,0,0,0,-1,916,1023,0,0
-301,1,0,0,0,0,0,0,0,0,0,-1,923,1023,0,0
-294,1,0,0,0,0,0,0,0,0,0,-1,930,1023,0,0
-287,1,0,0,0,0,0,0,0,0,0,-1,937,1023,0,0
-280,1,0,0,0,0,0,0,0,0,0,-1,944,1023,0,0
-273,1,0,0,0,0,0,0,0,0,0,-1,951,1023,0,0
-266,1,0,0,0,0,0,0,0,0,0,-1,958,1023,0,0
-259,1,0,0,0,0,0,0,0,0,0,-1,965,1023,0,0
-252,1,0,0,0,0,0,0,0,0,0,-1,972,1023,0,0
-245,1,0,0,0,0,0,0,0,0,0,-1,979,1023,0,0
-238,1,0,0,0,0,0,0,0,0,0,-1,986,1023,0,0
-231,1,0,0,0,0,0,0,0,0,0,-1,993,1023,0,0
-224,1,0,0,0,0,0,0,0,0,0,-1,1000,1023,0,0
-217,1,0,0,0,0,0,0,0,0,0,-1,1007,1023,0,0
-210,1,0,0,0,0,0,0,0,0,0,-1,1014,1023,0,0
-203,1,0,0,0,0,0,0,0,0,0,-1,1021,1023,0,0
-196,1,0,0,0,0,0,0,0,0,0,-1,1028,1023,0,0
-189,1,0,0,0,0,0,0,0,0,0,-1,1035,1023,0,0
-182,1,0,0,0,0,0,0,0,0,0,-1,1042,1023,0,0
-175,1,0,0,0,0,0,0,0,0,0,-1,1049,1023,0,0
-168,1,0,0,0,0,0,0,0,0,0,-1,1056,1023,0,0
-161,1,0,0,0,0,0,0,0,0,0,-1,1063,1023,0,0
-154,1,0,0,0,0,0,0,0,0,0,-1,1070,1023,0,0
-147,1,0,0,0,0,0,0,0,0,0,-1,1077,1023,0,0
-140,1,0,0,0,0,0,0,0,0,0,-1,1084,1023,0,0
-133,1,0,0,0,0,0,0,0,0,0,-1,1091,1023,0,0
-126,1,0,0,0,0,0,0,0,0,0,-1,1098,1023,0,0
-119,1,0,0,0,0,0,0,0,0,0,-1,1105,1023,0,0
-112,1,0,0,0,0,0,0,0,0,0,-1,1112,1023,0,0
-105,1,0,0,0,0,0,0,0,0,0,-1,1119,1023,0,0
-98,1,0,0,0,0,0,0,0,0,0,-1,1126,1023,0,0
-91,1,0,0,0,0,0,0,0,0,0,-1,1133,1023,0,0
-84,1,0,0,0,0,0,0,0,0,0,-1,1140,1023,0,0
-77,1,0,0,0,0,0,0,0,0,0,-1,1147,1023,0,0
-70,1,0,0,0,0,0,0,0,0,0,-1,1154,1023,0,0
-63,1,0,0,0,0,0,0,0,0,0,-1,1161,1023,0,0
-56,1,0,0,0,0,0,0,0,0,0,-1,1168,1023,0,0
-49,1,0,0,0,0,0,0,0,0,0,-1,1175,1023,0,0
-42,1,0,0,0,0,0,0,0,0,0,-1,1182,1023,0,0
-35,1,0,0,0,0,0,0,0,0,0,-1,1189,1023,0,0
-28,1,0,0,0,0,0,0,0,0,0,-1,1196,1023,0,0
-21,1,0,0,0,0,0,0,0,0,0,-1,1203,1023,0,0
-14,1,0,0,0,0,0,0,0,0,0,-1,1210,1023,0,0
-7,1,0,0,0,0,0,0,0,0,0,-1,1217,1023,0,0
0,1,0,0,0,0,0,0,0,0,0,-1,1224,1023,0,0
7,1,0,0,0,0,0,0,0,0,0,-1,1231,1023,0,0
14,1,0,0,0,0,0,0,0,0,0,-1,1238,1023,0,0
21,1,0,0,0,0,0,0,0,0,0,-1,1245,1023,0,0
28,1,0,0,0,0,0,0,0,0,0,-1,1252,1023,0,0
35,1,0,0,0,0,0,0,0,0,0,-1,1259,1023,0,0
42,1,0,0,0,0,0,0,0,0,0,-1,1266,1023,0,0
49,1,0,0,0,0,0,0,0,0,0,-1,1273,1023,0,0
56,1,0,0,0,0,0,0,0,0,0,-1,1280,1023,0,0
63,1,0,0,0,0,0,0,0,0,0,-1,1287,1023,0,0
70,1,0,0,0,0,0,0,0,0,0,-1,1294,1023,0,0
77,1,0,0,0,0,0,0,0,0,0,-1,1301,1023,0,0
84,1,0,0,0,0,0,0,0,0,0,-1,1308,1023,0,0
91,1,0,0,0,0,0,0,0,0,0,-1,1315,1023,0,0
98,1,0,0,0,0,0,0,0,0,0,-1,1322,1023,0,0
105,1,0,0,0,0,0,0,0,0,0,-1,1329,1023,0,0
112,1,0,0,0,0,0,0,0,0,0,-1,1336,1023,0,0
119,1,0,0,0,0,0,0,0,0,0,-1,1343,1023,0,0
126,1,0,0,0,0,0,0,0,0,0,-1,1350,1023,0,0
133,1,0,0,0,0,0,0,0,0,0,-1,1357,1023,0,0
140,1,0,0,0,0,0,0,0,0,0,-1,1364,1023,0,0
147,1,0,0,0,0,0,0,0,0,0,-1,1371,1023,0,0
154,1,0,0,0,0,0,0,0,0,0,-1,1378,1023,0,0
161,1,0,0,0,0,0,0,0,0,0,-1,1385,1023,0,0
168,1,0,0,0,0,0,0,0,0,0,-1,1392,1023,0,0
175,1,0,0,0,0,0,0,0,0,0,-1,1399,1023,0,0
182,1,0,0,0,0,0,0,0,0,0,-1,1406,1023,0,0
189,1,0,0,0,0,0,0,0,0,0,-1,1413,1023,0,0
196,1,0,0,0,0,0,0,0,0,0,-1,1420,1023,0,0
203,1,0,0,0,0,0,0,0,0,0,-1,1427,1023,0,0
210,1,0,0,0,0,0,0,0,0,0,-1,1434,1023,0,0
217,1,0,0,0,0,0,0,0,0,0,-1,1441,1023,0,0
224,1,0,0,0,0,0,0,0,0,0,-1,1448,1023,0,0
231,1,0,0,0,0,0,0,0,0,0,-1,1455,1023,0,0
238,1,0,0,0,0,0,0,0,0,0,-1,1462,1023,0,0
245,1,0,0,0,0,0,0,0,0,0,-1,1469,1023,0,0
252,1,0,0,0,0,0,0,0,0,0,-1,1476,1023,0,0
259,1,0,0,0,0,0,0,0,0,0,-1,1483,1023,0,0
266,1,0,0,0,0,0,0,0,0,0,-1,1490,1023,0,0
273,1,0,0,0,0,0,0,0,0,0,-1,1497,1023,0,0
280,1,0,0,0,0,0,0,0,0,0,-1,1504,1023,0,0
287,1,0,0,0,0,0,0,0,0,0,-1,1511,1023,0,0
294,1,0,0,0,0,0,0,0,0,0,-1,1518,1023,0,0
301,1,0,0,0,0,0,0,0,0,0,-1,1525,1023,0,0
308,1,0,0,0,0,0,0,0,0,0,-1,1532,1023,0,0
315,1,0,0,0,0,0,0,0,0,0,-1,1539,1023,0,0
322,1,0,0,0,0,0,0,0,0,0,-1,1546,1023,0,0
329,1,0,0,0,0,0,0,0,0,0,-1,1553,1023,0,0
336,1,0,0,0,0,0,0,0,0,0,-1,1560,1023,0,0
343,1,0,0,0,0,0,0,0,0,0,-1,1567,1023,0,0
350,1,0,0,0,0,0,0,0,0,0,-1,1574,1023,0,0
357,1,0,0,0,0,0,0,0,0,0,-1,1581,1023,0,0
364,1,0,0,0,0,0,0,0,0,0,-1,1588,1023,0,0
371,1,0,0,0,0,0,0,0,0,0,-1,1595,1023,0,0
378,1,0,0,0,0,0,0,0,0,0,-1,1602,1023,0,0
385,1,0,0,0,0,0,0,0,0,0,-1,1609,1023,0,0
392,1,0,0,0,0,0,0,0,0,0,-1,1616,1023,0,0
399,1,0,0,0,0,0,0,0,0,0,-1,1623,1023,0,0
406,1,0,0,0,0,0,0,0,0,0,-1,1630,1023,0,0
413,1,0,0,0,0,0,0,0,0,0,-1,1637,1023,0,0
420,1,0,0,0,0,0,0,0,0,0,-1,1644,1023,0,0
427,1,0,0,0,0,0,0,0,0,0,-1,1651,1023,0,0
434,1,0,0,0,0,0,0,0,0,0,-1,1658,1023,0,0
441,1,0,0,0,0,0,0,0,0,0,-1,1665,1023,0,0
448,1,0,0,0,0,0,0,0,0,0,-1,1672,1023,0,0
455,1,0,0,0,0,0,0,0,0,0,-1,1679,1023,0,0
462,1,0,0,0,0,0,0,0,0,0,-1,1686,1023,0,0
469,1,0,0,0,0,0,0,0,0,0,-1,1693,1023,0,0
476,1,0,0,0,0,0,0,0,0,0,-1,1700,1023,0,0
483,1,0,0,0,0,0,0,0,0,0,-1,1707,1023,0,0
490,1,0,0,0,0,0,0,0,0,0,-1,1714,1023,0,0
497,1,0,0,0,0,0,0,0,0,0,-1,1721,1023,0,0
504,1,0,0,0,0,0,0,0,0,0,-1,1728,1023,0,0
511,1,0,0,0,0,0,0,0,0,0,-1,1735,1023,0,0
518,1,0,0,0,0,0,0,0,0,0,-1,1742,1023,0,0
525,1,0,0,0,0,0,0,0,0,0,-1,1749,1023,0,0
532,1,0,0,0,0,0,0,0,0,0,-1,1756,1023,0,0
539,1,0,0,0,0,0,0,0,0,0,-1,1763,1023,0,0
546,1,0,0,0,0,0,0,0,0,0,-1,1770,1023,0,0
553,1,0,0,0,0,0,0,0,0,0,-1,1777,1023,0,0
560,1,0,0,0,0,0,0,0,0,0,-1,1784,1023,0,0
567,1,0,0,0,0,0,0,0,0,0,-1,1791,1023,0,0
574,1,0,0,0,0,0,0,0,0,0,-1,1798,1023,0,0
581,1,0,0,0,0,0,0,0,0,0,-1,1805,1023,0,0
588,1,0,0,0,0,0,0,0,0,0,-1,1812,1023,0,0
595,1,0,0,0,0,0,0,0,0,0,-1,1819,1023,0,0
602,1,0,0,0,0,0,0,0,0,0,-1,1826,1023,0,0
609,1,0,0,0,0,0,0,0,0,0,-1,1833,1023,0,0
616,1,0,0,0,0,0,0,0,0,0,-1,1840,1023,0,0
623,1,0,0,0,0,0,0,0,0,0,-1,1847,1023,0,0
630,1,0,0,0,0,0,0,0,0,0,-1,1854,1023,0,0
637,1,0,0,0,0,0,0,0,0,0,-1,1861,1023,0,0
644,1,0,0,0,0,0,0,0,0,0,-1,1868,1023,0,0
651,1,31.0574,3.00415,0.00117976,-0.00668287,0.000524572,0.0012146,-0.00671771,0.0663254,0.00493344,0.0382266,1875,1023,31.0574,-3.00414
658,1,30.9309,3.02759,0.000395316,-0.00471564,8.19408e-05,0.00039663,-0.00471695,0.0160269,0.00328484,0.0406206,1882,1023,30.9309,-3.02761
665,1,30.9688,2.91327,-0.000181856,-0.00324015,2.03255e-06,-0.000181854,-0.00324016,0.0006646,0.00210211,0.0422863,1889,1023,30.9688,-2.91324
672,1,31.0013,2.87506,-0.000480165,-0.00212441,0.000390997,-0.000391923,-0.00221265,0.221967,0.00136337,0.043453,1896,1023,31.0014,-2.87508
679,1,30.9172,2.85602,-0.000672201,-0.00129767,0.0010415,0.000102501,-0.00207237,0.639544,0.00141698,0.0400693,1903,1023,30.9172,-2.85602
686,1,30.9275,2.79236,-0.000725888,-0.000940614,0.00165282,0.000823048,-0.00248955,0.752965,0.00199157,0.0374325,1910,1023,30.9275,-2.79233
693,1,30.8317,2.93994,-0.000689224,-0.000811595,0.00216055,0.00141101,-0.00291183,0.771242,0.00254544,0.0352071,1917,1023,30.8316,-2.93993
700,1,30.8701,2.98755,-0.000683039,-0.000650744,0.0024409,0.00177406,-0.00310785,0.788706,0.00285342,0.0301896,1924,1023,30.8701,-2.98756
707,1,30.874,2.94824,-0.000696591,-0.000440582,0.00253367,0.00196832,-0.00310549,0.810637,0.00295379,0.0245882,1931,1023,30.8741,-2.94822
714,1,30.9868,2.02893,0,0,0,0,0,0,0,-1,1938,1023,30.9868,-2.02896
721,1,30.9117,3.50409,0,0,0,0,0,0,0,-1,1945,1023,30.9117,-3.50408
728,1,30.451,4.97412,0,0,0,0,0,0,0,-1,1952,1023,30.4511,-4.97412
735,1,30.4661,4.93573,-0.0022517,0.000950359,0.00197786,0.00189398,-0.00319532,1.12564,0.00297015,0.0200996,1959,1023,30.4661,-4.93572
742,1,30.5161,4.94025,-0.00327607,0.00161969,0.00124778,0.00191937,-0.00357575,1.33509,0.0032203,0.0240623,1966,1023,30.5162,-4.94022
749,1,30.4725,4.98047,-0.00454854,0.00219315,0.000409475,0.00221793,-0.00457332,1.51035,0.00399877,0.0218488,1973,1023,30.4726,-4.98045
756,1,30.4785,5.0083,-0.00623206,0.00241655,-0.000717157,0.00247562,-0.00629112,-1.48862,0.00521883,0.0164691,1980,1023,30.4785,-5.00832
763,1,30.4996,5.0036,-0.00855273,0.0037536,-0.00213975,0.00411503,-0.00891416,-1.40346,0.00769062,0.0141542,1987,1023,30.4996,-5.00357
770,1,30.5026,5.02814,-0.0117158,0.00483777,-0.00398658,0.00574783,-0.0126259,-1.34636,0.010853,0.0144885,1994,1023,30.5026,-5.02816
777,1,30.3264,5.00763,-0.015328,0.00589526,-0.0057598,0.00735765,-0.0167904,-1.32215,0.014292,0.0195225,2001,1023,30.3264,-5.00766
784,1,30.179,4.92395,-0.019207,0.00687793,-0.00754574,0.00890344,-0.0212325,-1.30855,0.0178778,0.0403152,2008,1023,30.1789,-4.92394
791,1,29.9594,4.5423,-0.0235609,0.00790787,-0.00941034,0.0105072,-0.0261602,-1.30129,0.0218035,0.0461106,2015,1023,29.9593,-4.54231
798,1,29.7742,4.41681,-0.0283236,0.00919096,-0.0112454,0.0123036,-0.0314362,-1.30076,0.0260461,0.047377,2022,1023,29.7743,-4.41683
805,1,29.6428,4.3172,-0.0333619,0.0111908,-0.0128923,0.0146526,-0.0368236,-1.30847,0.0306249,0.0452605,2029,1023,29.6429,-4.31723
812,1,28.2786,6.44666,-0.0385436,0.0147224,-0.0140892,0.0182195,-0.0420407,-1.3275,0.0356858,0.0497115,2036,1023,28.2786,-6.44664
-700,-6,0,0,0,0,0,0,0,0,0,-1,524,1030,0,0
-693,-6,-25.5104,-1.20349,0.190981,-0.0256198,-0.025542,0.193953,-0.028591,-0.115806,0.13981,0.0456945,531,1030,-25.5104,1.20347
-686,-6,-23.6429,-1.00122,0.146494,-0.0222744,-0.0178507,0.148361,-0.0241418,-0.104234,0.107859,0.0475029,538,1030,-23.6429,1.00125
-679,-6,-21.7545,-0.87085,0,0,0,0,0,0,0,-1,545,1030,-21.7545,0.870845
-672,-6,-20.3163,3.07727,0,0,0,0,0,0,0,-1,552,1030,-20.3164,-3.07724
-665,-6,-20.3652,2.7627,0.0489216,-0.00865112,-0.00306351,0.0490842,-0.00881368,-0.0530117,0.0360219,0.0443089,559,1030,-20.3652,-2.76275
-658,-6,-21.2412,2.37512,0.0288903,-0.00472032,-0.000611382,0.0289014,-0.00473144,-0.0181822,0.021023,0.0404994,566,1030,-21.2412,-2.37515
-651,-6,-21.8239,2.24658,0.0147918,-0.00169616,0.000765665,0.0148273,-0.00173164,0.0463049,0.0105098,0.0386387,573,1030,-21.8239,-2.24654
-644,-6,-21.6856,2.39099,0.00534395,0.000143812,0.00117919,0.00559884,-0.000111087,0.212889,0.00377014,0.0451006,580,1030,-21.6856,-2.39102
-637,-6,-21.7935,2.4917,-0.00298498,0.00133338,0.000633294,0.00142434,-0.00307594,1.42815,0.00265592,0.0270399,587,1030,-21.7935,-2.49169
-630,-6,-21.8581,2.42004,-0.0061767,0.00153853,-0.000725674,0.00160619,-0.00624436,-1.47783,0.00478894,0.0172512,594,1030,-21.8581,-2.41999
-623,-6,-21.8332,2.40991,-0.00527637,0.00269223,-0.00270168,0.00352184,-0.00610599,-1.27286,0.00562497,0.0148242,601,1030,-21.8332,-2.40987
-616,-6,-21.8347,2.43689,-0.00371454,0.00156324,-0.00531504,0.00485844,-0.00700974,-1.01582,0.00688952,0.0151217,608,1030,-21.8347,-2.43691
-609,-6,-21.8249,2.46204,-0.00180231,0.000772853,-0.00703963,0.00664169,-0.00767114,-0.875851,0.00827064,0.0166828,615,1030,-21.8249,-2.462
-602,-6,-21.7981,2.5144,-0.000517669,1.71958e-05,-0.00827038,0.00802446,-0.00852494,-0.801561,0.00955626,0.0125981,622,1030,-21.7981,-2.51438
-595,-6,-21.6807,2.48108,0,0,0,0,0,0,0,-1,629,1030,-21.6807,-2.48111
-588,-6,-21.6896,1.75635,0.000120833,-0.000777797,-0.0094612,0.00914338,-0.00980034,-0.761671,0.0109394,0.0203522,636,1030,-21.6896,-1.75637
-581,-6,-21.7241,1.19922,4.19285e-05,-0.000728936,-0.00939404,0.00905844,-0.00974545,-0.764895,0.0108588,0.0227658,643,1030,-21.7241,-1.19917
-574,-6,-21.7582,1.22913,-0.00031165,-0.000719045,-0.00886719,0.00835418,-0.00938488,-0.773914,0.0102474,0.0313964,650,1030,-21.7583,-1.22909
-567,-6,-21.6185,0.883301,-0.000827928,-0.000468532,-0.00779521,0.00714905,-0.00844551,-0.796922,0.00901388,0.0417627,657,1030,-21.6185,-0.883324
-560,-6,-21.6276,0.93457,-0.00145362,-0.000190084,-0.00615536,0.00536584,-0.00700955,-0.836538,0.00716591,0.0402723,664,1030,-21.6276,-0.934517
-553,-6,-21.5778,0.960327,-0.00223977,-3.14711e-05,-0.00399138,0.00300567,-0.00527691,-0.920341,0.00484151,0.0377111,671,1030,-21.5778,-0.960367
-546,-6,-21.6268,1.10852,-0.00319066,-0.000209881,-0.00136911,0.000323518,-0.00372405,-1.19929,0.00259727,0.0429768,678,1030,-21.6268,-1.10849
-539,-6,-21.6647,1.22107,0,0,0,0,0,0,0,-1,685,1030,-21.6647,-1.2211
-532,-6,-21.8487,1.02087,0,0,0,0,0,0,0,-1,692,1030,-21.8487,-1.02083
-525,-6,0,0,0,0,0,0,0,0,0,-1,699,1030,0,0
-518,-6,0,0,0,0,0,0,0,0,0,-1,706,1030,0,0
-511,-6,0,0,0,0,0,0,0,0,0,-1,713,1030,0,0
-504,-6,0,0,0,0,0,0,0,0,0,-1,720,1030,0,0
-497,-6,0,0,0,0,0,0,0,0,0,-1,727,1030,0,0
-490,-6,0,0,0,0,0,0,0,0,0,-1,734,1030,0,0
-483,-6,0,0,0,0,0,0,0,0,0,-1,741,1030,0,0
-476,-6,0,0,0,0,0,0,0,0,0,-1,748,1030,0,0
-469,-6,0,0,0,0,0,0,0,0,0,-1,755,1030,0,0
-462,-6,0,0,0,0,0,0,0,0,0,-1,762,1030,0,0
-455,-6,0,0,0,0,0,0,0,0,0,-1,769,1030,0,0
-448,-6,0,0,0,0,0,0,0,0,0,-1,776,1030,0,0
-441,-6,0,0,0,0,0,0,0,0,0,-1,783,1030,0,0
-434,-6,0,0,0,0,0,0,0,0,0,-1,790,1030,0,0
-427,-6,0,0,0,0,0,0,0,0,0,-1,797,1030,0,0
-420,-6,0,0,0,0,0,0,0,0,0,-1,804,1030,0,0
-413,-6,0,0,0,0,0,0,0,0,0,-1,811,1030,0,0
-406,-6,0,0,0,0,0,0,0,0,0,-1,818,1030,0,0
-399,-6,0,0,0,0,0,0,0,0,0,-1,825,1030,0,0
-392,-6,0,0,0,0,0,0,0,0,0,-1,832,1030,0,0
-385,-6,0,0,0,0,0,0,0,0,0,-1,839,1030,0,0
-378,-6,0,0,0,0,0,0,0,0,0,-1,846,1030,0,0
-371,-6,0,0,0,0,0,0,0,0,0,-1,853,1030,0,0
-364,-6,0,0,0,0,0,0,0,0,0,-1,860,1030,0,0
-357,-6,0,0,0,0,0,0,0,0,0,-1,867,1030,0,0
-350,-6,0,0,0,0,0,0,0,0,0,-1,874,1030,0,0
-343,-6,0,0,0,0,0,0,0,0,0,-1,881,1030,0,0
-336,-6,0,0,0,0,0,0,0,0,0,-1,888,1030,0,0
-329,-6,0,0,0,0,0,0,0,0,0,-1,895,1030,0,0
-322,-6,0,0,0,0,0,0,0,0,0,-1,902,1030,0,0
-315,-6,0,0,0,0,0,0,0,0,0,-1,909,1030,0,0
-308,-6,0,0,0,0,0,0,0,0,0,-1,916,1030,0,0
-301,-6,0,0,0,0,0,0,0,0,0,-1,923,1030,0,0
-294,-6,0,0,0,0,0,0,0,0,0,-1,930,1030,0,0
-287,-6,0,0,0,0,0,0,0,0,0,-1,937,1030,0,0
-280,-6,0,0,0,0,0,0,0,0,0,-1,944,1030,0,0
-273,-6,0,0,0,0,0,0,0,0,0,-1,951,1030,0,0
-266,-6,0,0,0,0,0,0,0,0,0,-1,958,1030,0,0
-259,-6,0,0,0,0,0,0,0,0,0,-1,965,1030,0,0
-252,-6,0,0,0,0,0,0,0,0,0,-1,972,1030,0,0
-245,-6,0,0,0,0,0,0,0,0,0,-1,979,1030,0,0
-238,-6,0,0,0,0,0,0,0,0,0,-1,986,1030,0,0
-231,-6,0,0,0,0,0,0,0,0,0,-1,993,1030,0,0
-224,-6,0,0,0,0,0,0,0,0,0,-1,1000,1030,0,0
-217,-6,0,0,0,0,0,0,0,0,0,-1,1007,1030,0,0
-210,-6,0,0,0,0,0,0,0,0,0,-1,1014,1030,0,0
-203,-6,0,0,0,0,0,0,0,0,0,-1,1021,1030,0,0
-196,-6,0,0,0,0,0,0,0,0,0,-1,1028,1030,0,0
-189,-6,0,0,0,0,0,0,0,0,0,-1,1035,1030,0,0
-182,-6,0,0,0,0,0,0,0,0,0,-1,1042,1030,0,0
-175,-6,0,0,0,0,0,0,0,0,0,-1,1049,1030,0,0
-168,-6,0,0,0,0,0,0,0,0,0,-1,1056,1030,0,0
-161,-6,0,0,0,0,0,0,0,0,0,-1,1063,1030,0,0
-154,-6,0,0,0,0,0,0,0,0,0,-1,1070,1030,0,0
-147,-6,0,0,0,0,0,0,0,0,0,-1,1077,1030,0,0
-140,-6,0,0,0,0,0,0,0,0,0,-1,1084,1030,0,0
-133,-6,0,0,0,0,0,0,0,0,0,-1,1091,1030,0,0
-126,-6,0,0,0,0,0,0,0,0,0,-1,1098,1030,0,0
-119,-6,0,0,0,0,0,0,0,0,0,-1,1105,1030,0,0
-112,-6,0,0,0,0,0,0,0,0,0,-1,1112,1030,0,0
-105,-6,0,0,0,0,0,0,0,0,0,-1,1119,1030,0,0
-98,-6,0,0,0,0,0,0,0,0,0,-1,1126,1030,0,0
-91,-6,0,0,0,0,0,0,0,0,0,-1,1133,1030,0,0
-84,-6,0,0,0,0,0,0,0,0,0,-1,1140,1030,0,0
-77,-6,0,0,0,0,0,0,0,0,0,-1,1147,1030,0,0
-70,-6,0,0,0,0,0,0,0,0,0,-1,1154,1030,0,0
-63,-6,0,0,0,0,0,0,0,0,0,-1,1161,1030,0,0
-56,-6,0,0,0,0,0,0,0,0,0,-1,1168,1030,0,0
-49,-6,0,0,0,0,0,0,0,0,0,-1,1175,1030,0,0
-42,-6,0,0,0,0,0,0,0,0,0,-1,1182,1030,0,0
-35,-6,0,0,0,0,0,0,0,0,0,-1,1189,1030,0,0
-28,-6,0,0,0,0,0,0,0,0,0,-1,1196,1030,0,0
-21,-6,0,0,0,0,0,0,0,0,0,-1,1203,1030,0,0
-14,-6,0,0,0,0,0,0,0,0,0,-1,1210,1030,0,0
-7,-6,0,0,0,0,0,0,0,0,0,-1,1217,1030,0,0
0,-6,0,0,0,0,0,0,0,0,0,-1,1224,1030,0,0
7,-6,0,0,0,0,0,0,0,0,0,-1,1231,1030,0,0
14,-6,0,0,0,0,0,0,0,0,0,-1,1238,1030,0,0
21,-6,0,0,0,0,0,0,0,0,0,-1,1245,1030,0,0
28,-6,0,0,0,0,0,0,0,0,0,-1,1252,1030,0,0
35,-6,0,0,0,0,0,0,0,0,0,-1,1259,1030,0,0
42,-6,0,0,0,0,0,0,0,0,0,-1,1266,1030,0,0
49,-6,0,0,0,0,0,0,0,0,0,-1,1273,1030,0,0
56,-6,0,0,0,0,0,0,0,0,0,-1,1280,1030,0,0
63,-6,0,0,0,0,0,0,0,0,0,-1,1287,1030,0,0
70,-6,0,0,0,0,0,0,0,0,0,-1,1294,1030,0,0
77,-6,0,0,0,0,0,0,0,0,0,-1,1301,1030,0,0
84,-6,0,0,0,0,0,0,0,0,0,-1,1308,1030,0,0
91,-6,0,0,0,0,0,0,0,0,0,-1,1315,1030,0,0
98,-6,0,0,0,0,0,0,0,0,0,-1,1322,1030,0,0
105,-6,0,0,0,0,0,0,0,0,0,-1,1329,1030,0,0
112,-6,0,0,0,0,0,0,0,0,0,-1,1336,1030,0,0
119,-6,0,0,0,0,0,0,0,0,0,-1,1343,1030,0,0
126,-6,0,0,0,0,0,0,0,0,0,-1,1350,1030,0,0
133,-6,0,0,0,0,0,0,0,0,0,-1,1357,1030,0,0
140,-6,0,0,0,0,0,0,0,0,0,-1,1364,1030,0,0
147,-6,0,0,0,0,0,0,0,0,0,-1,1371,1030,0,0
154,-6,0,0,0,0,0,0,0,0,0,-1,1378,1030,0,0
161,-6,0,0,0,0,0,0,0,0,0,-1,1385,1030,0,0
168,-6,0,0,0,0,0,0,0,0,0,-1,1392,1030,0,0
175,-6,0,0,0,0,0,0,0,0,0,-1,1399,1030,0,0
182,-6,0,0,0,0,0,0,0,0,0,-1,1406,1030,0,0
189,-6,0,0,0,0,0,0,0,0,0,-1,1413,1030,0,0
196,-6,0,0,0,0,0,0,0,0,0,-1,1420,1030,0,0
203,-6,0,0,0,0,0,0,0,0,0,-1,1427,1030,0,0
210,-6,0,0,0,0,0,0,0,0,0,-1,1434,1030,0,0
217,-6,0,0,0,0,0,0,0,0,0,-1,1441,1030,0,0
224,-6,0,0,0,0,0,0,0,0,0,-1,1448,1030,0,0
231,-6,0,0,0,0,0,0,0,0,0,-1,1455,1030,0,0
238,-6,0,0,0,0,0,0,0,0,0,-1,1462,1030,0,0
245,-6,0,0,0,0,0,0,0,0,0,-1,1469,1030,0,0
252,-6,0,0,0,0,0,0,0,0,0,-1,1476,1030,0,0
259,-6,0,0,0,0,0,0,0,0,0,-1,1483,1030,0,0
266,-6,0,0,0,0,0,0,0,0,0,-1,1490,1030,0,0
273,-6,0,0,0,0,0,0,0,0,0,-1,1497,1030,0,0
280,-6,0,0,0,0,0,0,0,0,0,-1,1504,1030,0,0
287,-6,0,0,0,0,0,0,0,0,0,-1,1511,1030,0,0
294,-6,0,0,0,0,0,0,0,0,0,-1,1518,1030,0,0
301,-6,0,0,0,0,0,0,0,0,0,-1,1525,1030,0,0
308,-6,0,0,0,0,0,0,0,0,0,-1,1532,1030,0,0
315,-6,0,0,0,0,0,0,0,0,0,-1,1539,1030,0,0
322,-6,0,0,0,0,0,0,0,0,0,-1,1546,1030,0,0
329,-6,0,0,0,0,0,0,0,0,0,-1,1553,1030,0,0
336,-6,0,0,0,0,0,0,0,0,0,-1,1560,1030,0,0
343,-6,0,0,0,0,0,0,0,0,0,-1,1567,1030,0,0
350,-6,0,0,0,0,0,0,0,0,0,-1,1574,1030,0,0
357,-6,0,0,0,0,0,0,0,0,0,-1,1581,1030,0,0
364,-6,0,0,0,0,0,0,0,0,0,-1,1588,1030,0,0
371,-6,0,0,0,0,0,0,0,0,0,-1,1595,1030,0,0
378,-6,0,0,0,0,0,0,0,0,0,-1,1602,1030,0,0
385,-6,0,0,0,0,0,0,0,0,0,-1,1609,1030,0,0
392,-6,0,0,0,0,0,0,0,0,0,-1,1616,1030,0,0
399,-6,0,0,0,0,0,0,0,0,0,-1,1623,1030,0,0
406,-6,0,0,0,0,0,0,0,0,0,-1,1630,1030,0,0
413,-6,0,0,0,0,0,0,0,0,0,-1,1637,1030,0,0
420,-6,0,0,0,0,0,0,0,0,0,-1,1644,1030,0,0
427,-6,0,0,0,0,0,0,0,0,0,-1,1651,1030,0,0
434,-6,0,0,0,0,0,0,0,0,0,-1,1658,1030,0,0
441,-6,0,0,0,0,0,0,0,0,0,-1,1665,1030,0,0
448,-6,0,0,0,0,0,0,0,0,0,-1,1672,1030,0,0
455,-6,0,0,0,0,0,0,0,0,0,-1,1679,1030,0,0
462,-6,0,0,0,0,0,0,0,0,0,-1,1686,1030,0,0
469,-6,0,0,0,0,0,0,0,0,0,-1,1693,1030,0,0
476,-6,0,0,0,0,0,0,0,0,0,-1,1700,1030,0,0
483,-6,0,0,0,0,0,0,0,0,0,-1,1707,1030,0,0
490,-6,0,0,0,0,0,0,0,0,0,-1,1714,1030,0,0
497,-6,0,0,0,0,0,0,0,0,0,-1,1721,1030,0,0
504,-6,0,0,0,0,0,0,0,0,0,-1,1728,1030,0,0
511,-6,0,0,0,0,0,0,0,0,0,-1,1735,1030,0,0
518,-6,0,0,0,0,0,0,0,0,0,-1,1742,1030,0,0
525,-6,0,0,0,0,0,0,0,0,0,-1,1749,1030,0,0
532,-6,0,0,0,0,0,0,0,0,0,-1,1756,1030,0,0
539,-6,0,0,0,0,0,0,0,0,0,-1,1763,1030,0,0
546,-6,0,0,0,0,0,0,0,0,0,-1,1770,1030,0,0
553,-6,0,0,0,0,0,0,0,0,0,-1,1777,1030,0,0
560,-6,0,0,0,0,0,0,0,0,0,-1,1784,1030,0,0
567,-6,0,0,0,0,0,0,0,0,0,-1,1791,1030,0,0
574,-6,0,0,0,0,0,0,0,0,0,-1,1798,1030,0,0
581,-6,0,0,0,0,0,0,0,0,0,-1,1805,1030,0,0
588,-6,0,0,0,0,0,0,0,0,0,-1,1812,1030,0,0
595,-6,0,0,0,0,0,0,0,0,0,-1,1819,1030,0,0
602,-6,0,0,0,0,0,0,0,0,0,-1,1826,1030,0,0
609,-6,0,0,0,0,0,0,0,0,0,-1,1833,1030,0,0
616,-6,0,0,0,0,0,0,0,0,0,-1,1840,1030,0,0
623,-6,0,0,0,0,0,0,0,0,0,-1,1847,1030,0,0
630,-6,0,0,0,0,0,0,0,0,0,-1,1854,1030,0,0
637,-6,0,0,0,0,0,0,0,0,0,-1,1861,1030,0,0
644,-6,0,0,0,0,0,0,0,0,0,-1,1868,1030,0,0
651,-6,31.1893,2.61829,0,0,0,0,0,0,0,-1,1875,1030,31.1893,-2.61833
658,-6,30.85,3.08435,-0.000845206,-0.00376323,4.09975e-05,-0.00084463,-0.00376381,0.0140461,0.00228041,0.0384419,1882,1030,30.85,-3.0844
665,-6,30.9712,2.81848,-0.00103054,-0.00250135,-3.00168e-05,-0.00102993,-0.00250196,-0.020397,0.00145201,0.0415325,1889,1030,30.9712,-2.81848
672,-6,31.0684,2.745,-0.000997936,-0.0015894,0.000371845,-0.000818562,-0.00176878,0.449459,0.00102215,0.0412752,1896,1030,31.0683,-2.74503
679,-6,31.0096,2.79871,-0.000898227,-0.00096821,0.00104903,0.000116395,-0.00198283,0.768726,0.00136234,0.0399374,1903,1030,31.0097,-2.79868
686,-6,30.9387,2.87,-0.000788264,-0.000765199,0.00169257,0.000915873,-0.00246934,0.788805,0.00202188,0.03582,1910,1030,30.9387,-2.86994
693,-6,30.829,2.99072,-0.000658438,-0.000754852,0.00224013,0.00153401,-0.0029473,0.77464,0.00262982,0.0332855,1917,1030,30.829,-2.9907
700,-6,30.8771,2.97363,-0.00059075,-0.000692192,0.00256886,0.00192789,-0.00321084,0.775527,0.00299751,0.0303073,1924,1030,30.8771,-2.97358
707,-6,30.8584,2.97644,-0.000550226,-0.000546706,0.00269554,0.00214707,-0.003244,0.785725,0.00313394,0.0266831,1931,1030,30.8584,-2.97649
714,-6,30.7988,2.29309,0,0,0,0,0,0,0,-1,1938,1030,30.7988,-2.29304
721,-6,30.7495,3.71069,0,0,0,0,0,0,0,-1,1945,1030,30.7495,-3.7107
728,-6,30.4517,4.87329,0,0,0,0,0,0,0,-1,1952,1030,30.4516,-4.87325
735,-6,30.4806,4.93372,-0.00205972,0.000708979,0.00223287,0.00195182,-0.00330256,1.06289,0.00306685,0.0205489,1959,1030,30.4806,-4.9337
742,-6,30.5411,4.93677,-0.00305425,0.00134365,0.00155179,0.00183606,-0.00354667,1.26353,0.0031596,0.0183158,1966,1030,30.5411,-4.93682
749,-6,30.4972,4.98633,-0.00423927,0.00198793,0.000859777,0.00210446,-0.00435579,1.43609,0.00380457,0.0169627,1973,1030,30.4972,-4.98631
756,-6,30.5175,4.95911,-0.00577362,0.00220452,-0.000112513,0.00220611,-0.00577521,-1.5567,0.00475911,0.0157551,1980,1030,30.5174,-4.95916
763,-6,30.4919,4.92334,-0.00787391,0.0035802,-0.00141195,0.00375168,-0.00804539,-1.44994,0.0069598,0.0154054,1987,1030,30.492,-4.92338
770,-6,30.4623,4.93506,-0.0107133,0.00470122,-0.00305788,0.00528567,-0.0112977,-1.38194,0.00978192,0.0135526,1994,1030,30.4623,-4.93501
777,-6,30.3906,4.96216,-0.0139368,0.00583838,-0.00458997,0.00685181,-0.0149502,-1.35349,0.0128736,0.0145116,2001,1030,30.3907,-4.96221
784,-6,30.2533,4.94946,-0.0173398,0.00687142,-0.00610116,0.00832198,-0.0187904,-1.33738,0.0160375,0.0371339,2008,1030,30.2533,-4.9494
791,-6,29.8724,4.84778,-0.0210529,0.00795398,-0.00768219,0.00986291,-0.0229618,-1.32724,0.0194478,0.0483732,2015,1030,29.8724,-4.84772
798,-6,29.6687,4.78918,-0.0249964,0.00926585,-0.0092873,0.0116214,-0.0273519,-1.32241,0.0231041,0.0448708,2022,1030,29.6686,-4.78919
805,-6,29.5898,4.7926,-0.0289713,0.0112402,-0.0108273,0.0139702,-0.0317013,-1.3238,0.0270228,0.0448419,2029,1030,29.5898,-4.79263
812,-6,29.3335,5.83862,-0.0327978,0.0146181,-0.0121657,0.0175573,-0.035737,-1.33374,0.0313605,0.0458385,2036,1030,29.3335,-5.83866
-700,-13,0,0,0,0,0,0,0,0,0,-1,524,1037,0,0
-693,-13,-25.0242,-1.46277,0.192556,-0.0224828,-0.0259067,0.195633,-0.0255599,-0.118221,0.139724,0.0458017,531,1037,-25.0242,1.4628
-686,-13,-22.6957,-1.16638,0.147377,-0.0190506,-0.0181492,0.149333,-0.0210068,-0.10737,0.107246,0.0431619,538,1037,-22.6958,1.16644
-679,-13,-20.2371,-0.885864,0,0,0,0,0,0,0,-1,545,1037,-20.2371,0.885855
-672,-13,-21.3392,-0.0875244,0,0,0,0,0,0,0,-1,552,1037,-21.3392,0.0875835
-665,-13,-21.3875,0.844604,0.0499303,-0.00627149,-0.00339371,0.0501344,-0.00647568,-0.0600935,0.0357774,0.0465286,559,1037,-21.3875,-0.844651
-658,-13,-21.7173,1.77136,0.0298637,-0.00278132,-0.000901748,0.0298886,-0.00280621,-0.0275948,0.0209239,0.0499707,566,1037,-21.7173,-1.77134
-651,-13,-21.6858,2.02625,0.0156159,-0.000195927,0.000541881,0.0156345,-0.000214476,0.0342171,0.0104952,0.0430022,573,1037,-21.6858,-2.02625
-644,-13,-21.6747,2.28821,0.00580818,0.00121599,0.00109783,0.00605713,0.00096704,0.222999,0.00375746,0.030363,580,1037,-21.6747,-2.28816
-637,-13,-21.735,2.38428,-0.00289599,0.0021257,0.000550672,0.00218537,-0.00295566,1.46285,0.00297926,0.022122,587,1037,-21.735,-2.38434
-630,-13,-21.7982,2.36255,-0.00615945,0.0019425,-0.000890758,0.00203928,-0.00625623,-1.46257,0.00499143,0.015042,594,1037,-21.7982,-2.36252
-623,-13,-21.7865,2.41516,-0.00530838,0.00258111,-0.00290544,0.00353561,-0.00626288,-1.25338,0.00572974,0.012961,601,1037,-21.7865,-2.41519
-616,-13,-21.7567,2.45996,-0.00386347,0.00119999,-0.00550746,0.00472976,-0.00739324,-1.00084,0.0070553,0.0112775,608,1037,-21.7567,-2.45997
-609,-13,-21.7136,2.47229,-0.00213509,0.000194873,-0.00729914,0.00642141,-0.00836163,-0.864533,0.00855946,0.0158873,615,1037,-21.7136,-2.47234
-602,-13,-21.7575,2.52148,-0.000914966,-0.000664233,-0.00859831,0.00780962,-0.00938882,-0.792688,0.00994347,0.0121643,622,1037,-21.7575,-2.52148
-595,-13,-21.7731,2.55664,0,0,0,0,0,0,0,-1,629,1037,-21.7731,-2.5566
-588,-13,-21.5214,1.672,0,0,0,0,0,0,0,-1,636,1037,-21.5213,-1.67204
-581,-13,-21.5724,0.765503,0,0,0,0,0,0,0,-1,643,1037,-21.5725,-0.765442
-574,-13,-21.7786,1.2655,0,0,0,0,0,0,0,-1,650,1037,-21.7786,-1.26548
-567,-13,-21.8186,1.12048,0,0,0,0,0,0,0,-1,657,1037,-21.8186,-1.12043
-560,-13,-21.8654,1.25598,0,0,0,0,0,0,0,-1,664,1037,-21.8654,-1.25599
-553,-13,-21.5973,1.00757,-0.00243101,-0.000184458,-0.00412505,0.00296752,-0.00558298,-0.918328,0.00501303,0.0423746,671,1037,-21.5973,-1.00755
-546,-13,-21.5674,1.10742,-0.00329239,0.000116327,-0.00131285,0.000563344,-0.00373941,-1.24262,0.00270038,0.04082,678,1037,-21.5674,-1.10747
-539,-13,-21.8797,0.768677,-0.00430144,-0.000180726,0.00105333,7.29109e-05,-0.00455507,1.3345,0.00306131,0.0436878,685,1037,-21.8797,-0.768724
-532,-13,-21.9314,1.03979,0,0,0,0,0,0,0,-1,692,1037,-21.9314,-1.03982
-525,-13,0,0,0,0,0,0,0,0,0,-1,699,1037,0,0
-518,-13,0,0,0,0,0,0,0,0,0,-1,706,1037,0,0
-511,-13,0,0,0,0,0,0,0,0,0,-1,713,1037,0,0
-504,-13,0,0,0,0,0,0,0,0,0,-1,720,1037,0,0
-497,-13,0,0,0,0,0,0,0,0,0,-1,727,1037,0,0
-490,-13,0,0,0,0,0,0,0,0,0,-1,734,1037,0,0
-483,-13,0,0,0,0,0,0,0,0,0,-1,741,1037,0,0
-476,-13,0,0,0,0,0,0,0,0,0,-1,748,1037,0,0
-469,-13,0,0,0,0,0,0,0,0,0,-1,755,1037,0,0
-462,-13,0,0,0,0,0,0,0,0,0,-1,762,1037,0,0
-455,-13,0,0,0,0,0,0,0,0,0,-1,769,1037,0,0
-448,-13,0,0,0,0,0,0,0,0,0,-1,776,1037,0,0
-441,-13,0,0,0,0,0,0,0,0,0,-1,783,1037,0,0
-434,-13,0,0,0,0,0,0,0,0,0,-1,790,1037,0,0
-427,-13,0,0,0,0,0,0,0,0,0,-1,797,1037,0,0
-420,-13,0,0,0,0,0,0,0,0,0,-1,804,1037,0,0
-413,-13,0,0,0,0,0,0,0,0,0,-1,811,1037,0,0
-406,-13,0,0,0,0,0,0,0,0,0,-1,818,1037,0,0
-399,-13,0,0,0,0,0,0,0,0,0,-1,825,1037,0,0
-392,-13,0,0,0,0,0,0,0,0,0,-1,832,1037,0,0
-385,-13,0,0,0,0,0,0,0,0,0,-1,839,1037,0,0
-378,-13,0,0,0,0,0,0,0,0,0,-1,846,1037,0,0
-371,-13,0,0,0,0,0,0,0,0,0,-1,853,1037,0,0
-364,-13,0,0,0,0,0,0,0,0,0,-1,860,1037,0,0
-357,-13,0,0,0,0,0,0,0,0,0,-1,867,1037,0,0
-350,-13,0,0,0,0,0,0,0,0,0,-1,874,1037,0,0
-343,-13,0,0,0,0,0,0,0,0,0,-1,881,1037,0,0
-336,-13,0,0,0,0,0,0,0,0,0,-1,888,1037,0,0
-329,-13,0,0,0,0,0,0,0,0,0,-1,895,1037,0,0
-322,-13,0,0,0,0,0,0,0,0,0,-1,902,1037,0,0
-315,-13,0,0,0,0,0,0,0,0,0,-1,909,1037,0,0
-308,-13,0,0,0,0,0,0,0,0,0,-1,916,1037,0,0
-301,-13,0,0,0,0,0,0,0,0,0,-1,923,1037,0,0
-294,-13,0,0,0,0,0,0,0,0,0,-1,930,1037,0,0
-287,-13,0,0,0,0,0,0,0,0,0,-1,937,1037,0,0
-280,-13,0,0,0,0,0,0,0,0,0,-1,944,1037,0,0
-273,-13,0,0,0,0,0,0,0,0,0,-1,951,1037,0,0
-266,-13,0,0,0,0,0,0,0,0,0,-1,958,1037,0,0
-259,-13,0,0,0,0,0,0,0,0,0,-1,965,1037,0,0
-252,-13,0,0,0,0,0,0,0,0,0,-1,972,1037,0,0
-245,-13,0,0,0,0,0,0,0,0,0,-1,979,1037,0,0
-238,-13,0,0,0,0,0,0,0,0,0,-1,986,1037,0,0
-231,-13,0,0,0,0,0,0,0,0,0,-1,993,1037,0,0
-224,-13,0,0,0,0,0,0,0,0,0,-1,1000,1037,0,0
-217,-13,0,0,0,0,0,0,0,0,0,-1,1007,1037,0,0
-210,-13,0,0,0,0,0,0,0,0,0,-1,1014,1037,0,0
-203,-13,0,0,0,0,0,0,0,0,0,-1,1021,1037,0,0
-196,-13,0,0,0,0,0,0,0,0,0,-1,1028,1037,0,0
-189,-13,0,0,0,0,0,0,0,0,0,-1,1035,1037,0,0
-182,-13,0,0,0,0,0,0,0,0,0,-1,1042,1037,0,0
-175,-13,0,0,0,0,0,0,0,0,0,-1,1049,1037,0,0
-168,-13,0,0,0,0,0,0,0,0,0,-1,1056,1037,0,0
-161,-13,0,0,0,0,0,0,0,0,0,-1,1063,1037,0,0
-154,-13,0,0,0,0,0,0,0,0,0,-1,1070,1037,0,0
-147,-13,0,0,0,0,0,0,0,0,0,-1,1077,1037,0,0
-140,-13,0,0,0,0,0,0,0,0,0,-1,1084,1037,0,0
-133,-13,0,0,0,0,0,0,0,0,0,-1,1091,1037,0,0
-126,-13,0,0,0,0,0,0,0,0,0,-1,1098,1037,0,0
-119,-13,0,0,0,0,0,0,0,0,0,-1,1105,1037,0,0
-112,-13,0,0,0,0,0,0,0,0,0,-1,1112,1037,0,0
-105,-13,0,0,0,0,0,0,0,0,0,-1,1119,1037,0,0
-98,-13,0,0,0,0,0,0,0,0,0,-1,1126,1037,0,0
-91,-13,0,0,0,0,0,0,0,0,0,-1,1133,1037,0,0
-84,-13,0,0,0,0,0,0,0,0,0,-1,1140,1037,0,0
-77,-13,0,0,0,0,0,0,0,0,0,-1,1147,1037,0,0
-70,-13,0,0,0,0,0,0,0,0,0,-1,1154,1037,0,0
-63,-13,0,0,0,0,0,0,0,0,0,-1,1161,1037,0,0
-56,-13,0,0,0,0,0,0,0,0,0,-1,1168,1037,0,0
-49,-13,0,0,0,0,0,0,0,0,0,-1,1175,1037,0,0
-42,-13,0,0,0,0,0,0,0,0,0,-1,1182,1037,0,0
-35,-13,0,0,0,0,0,0,0,0,0,-1,1189,1037,0,0
-28,-13,0,0,0,0,0,0,0,0,0,-1,1196,1037,0,0
-21,-13,0,0,0,0,0,0,0,0,0,-1,1203,1037,0,0
-14,-13,0,0,0,0,0,0,0,0,0,-1,1210,1037,0,0
-7,-13,0,0,0,0,0,0,0,0,0,-1,1217,1037,0,0
0,-13,0,0,0,0,0,0,0,0,0,-1,1224,1037,0,0
7,-13,0,0,0,0,0,0,0,0,0,-1,1231,1037,0,0
14,-13,0,0,0,0,0,0,0,0,0,-1,1238,1037,0,0
21,-13,0,0,0,0,0,0,0,0,0,-1,1245,1037,0,0
28,-13,0,0,0,0,0,0,0,0,0,-1,1252,1037,0,0
35,-13,0,0,0,0,0,0,0,0,0,-1,1259,1037,0,0
42,-13,0,0,0,0,0,0,0,0,0,-1,1266,1037,0,0
49,-13,0,0,0,0,0,0,0,0,0,-1,1273,1037,0,0
56,-13,0,0,0,0,0,0,0,0,0,-1,1280,1037,0,0
63,-13,0,0,0,0,0,0,0,0,0,-1,1287,1037,0,0
70,-13,0,0,0,0,0,0,0,0,0,-1,1294,1037,0,0
77,-13,0,0,0,0,0,0,0,0,0,-1,1301,1037,0,0
84,-13,0,0,0,0,0,0,0,0,0,-1,1308,1037,0,0
91,-13,0,0,0,0,0,0,0,0,0,-1,1315,1037,0,0
98,-13,0,0,0,0,0,0,0,0,0,-1,1322,1037,0,0
105,-13,0,0,0,0,0,0,0,0,0,-1,1329,1037,0,0
112,-13,0,0,0,0,0,0,0,0,0,-1,1336,1037,0,0
119,-13,0,0,0,0,0,0,0,0,0,-1,1343,1037,0,0
126,-13,0,0,0,0,0,0,0,0,0,-1,1350,1037,0,0
133,-13,0,0,0,0,0,0,0,0,0,-1,1357,1037,0,0
140,-13,0,0,0,0,0,0,0,0,0,-1,1364,1037,0,0
147,-13,0,0,0,0,0,0,0,0,0,-1,1371,1037,0,0
154,-13,0,0,0,0,0,0,0,0,0,-1,1378,1037,0,0
161,-13,0,0,0,0,0,0,0,0,0,-1,1385,1037,0,0
168,-13,0,0,0,0,0,0,0,0,0,-1,1392,1037,0,0
175,-13,0,0,0,0,0,0,0,0,0,-1,1399,1037,0,0
182,-13,0,0,0,0,0,0,0,0,0,-1,1406,1037,0,0
189,-13,0,0,0,0,0,0,0,0,0,-1,1413,1037,0,0
196,-13,0,0,0,0,0,0,0,0,0,-1,1420,1037,0,0
203,-13,0,0,0,0,0,0,0,0,0,-1,1427,1037,0,0
210,-13,0,0,0,0,0,0,0,0,0,-1,1434,1037,0,0
217,-13,0,0,0,0,0,0,0,0,0,-1,1441,1037,0,0
224,-13,0,0,0,0,0,0,0,0,0,-1,1448,1037,0,0
231,-13,0,0,0,0,0,0,0,0,0,-1,1455,1037,0,0
238,-13,0,0,0,0,0,0,0,0,0,-1,1462,1037,0,0
245,-13,0,0,0,0,0,0,0,0,0,-1,1469,1037,0,0
252,-13,0,0,0,0,0,0,0,0,0,-1,1476,1037,0,0
259,-13,0,0,0,0,0,0,0,0,0,-1,1483,1037,0,0
266,-13,0,0,0,0,0,0,0,0,0,-1,1490,1037,0,0
273,-13,0,0,0,0,0,0,0,0,0,-1,1497,1037,0,0
280,-13,0,0,0,0,0,0,0,0,0,-1,1504,1037,0,0
287,-13,0,0,0,0,0,0,0,0,0,-1,1511,1037,0,0
294,-13,0,0,0,0,0,0,0,0,0,-1,1518,1037,0,0
301,-13,0,0,0,0,0,0,0,0,0,-1,1525,1037,0,0
308,-13,0,0,0,0,0,0,0,0,0,-1,1532,1037,0,0
315,-13,0,0,0,0,0,0,0,0,0,-1,1539,1037,0,0
322,-13,0,0,0,0,0,0,0,0,0,-1,1546,1037,0,0
329,-13,0,0,0,0,0,0,0,0,0,-1,1553,1037,0,0
336,-13,0,0,0,0,0,0,0,0,0,-1,1560,1037,0,0
343,-13,0,0,0,0,0,0,0,0,0,-1,1567,1037,0,0
350,-13,0,0,0,0,0,0,0,0,0,-1,1574,1037,0,0
357,-13,0,0,0,0,0,0,0,0,0,-1,1581,1037,0,0
364,-13,0,0,0,0,0,0,0,0,0,-1,1588,1037,0,0
371,-13,0,0,0,0,0,0,0,0,0,-1,1595,1037,0,0
378,-13,0,0,0,0,0,0,0,0,0,-1,1602,1037,0,0
385,-13,0,0,0,0,0,0,0,0,0,-1,1609,1037,0,0
392,-13,0,0,0,0,0,0,0,0,0,-1,1616,1037,0,0
399,-13,0,0,0,0,0,0,0,0,0,-1,1623,1037,0,0
406,-13,0,0,0,0,0,0,0,0,0,-1,1630,1037,0,0
413,-13,0,0,0,0,0,0,0,0,0,-1,1637,1037,0,0
420,-13,0,0,0,0,0,0,0,0,0,-1,1644,1037,0,0
427,-13,0,0,0,0,0,0,0,0,0,-1,1651,1037,0,0
434,-13,0,0,0,0,0,0,0,0,0,-1,1658,1037,0,0
441,-13,0,0,0,0,0,0,0,0,0,-1,1665,1037,0,0
448,-13,0,0,0,0,0,0,0,0,0,-1,1672,1037,0,0
455,-13,0,0,0,0,0,0,0,0,0,-1,1679,1037,0,0
462,-13,0,0,0,0,0,0,0,0,0,-1,1686,1037,0,0
469,-13,0,0,0,0,0,0,0,0,0,-1,1693,1037,0,0
476,-13,0,0,0,0,0,0,0,0,0,-1,1700,1037,0,0
483,-13,0,0,0,0,0,0,0,0,0,-1,1707,1037,0,0
490,-13,0,0,0,0,0,0,0,0,0,-1,1714,1037,0,0
497,-13,0,0,0,0,0,0,0,0,0,-1,1721,1037,0,0
504,-13,0,0,0,0,0,0,0,0,0,-1,1728,1037,0,0
511,-13,0,0,0,0,0,0,0,0,0,-1,1735,1037,0,0
518,-13,0,0,0,0,0,0,0,0,0,-1,1742,1037,0,0
525,-13,0,0,0,0,0,0,0,0,0,-1,1749,1037,0,0
532,-13,0,0,0,0,0,0,0,0,0,-1,1756,1037,0,0
539,-13,0,0,0,0,0,0,0,0,0,-1,1763,1037,0,0
546,-13,0,0,0,0,0,0,0,0,0,-1,1770,1037,0,0
553,-13,0,0,0,0,0,0,0,0,0,-1,1777,1037,0,0
560,-13,0,0,0,0,0,0,0,0,0,-1,1784,1037,0,0
567,-13,0,0,0,0,0,0,0,0,0,-1,1791,1037,0,0
574,-13,0,0,0,0,0,0,0,0,0,-1,1798,1037,0,0
581,-13,0,0,0,0,0,0,0,0,0,-1,1805,1037,0,0
588,-13,0,0,0,0,0,0,0,0,0,-1,1812,1037,0,0
595,-13,0,0,0,0,0,0,0,0,0,-1,1819,1037,0,0
602,-13,0,0,0,0,0,0,0,0,0,-1,1826,1037,0,0
609,-13,0,0,0,0,0,0,0,0,0,-1,1833,1037,0,0
616,-13,0,0,0,0,0,0,0,0,0,-1,1840,1037,0,0
623,-13,0,0,0,0,0,0,0,0,0,-1,1847,1037,0,0
630,-13,0,0,0,0,0,0,0,0,0,-1,1854,1037,0,0
637,-13,0,0,0,0,0,0,0,0,0,-1,1861,1037,0,0
644,-13,0,0,0,0,0,0,0,0,0,-1,1868,1037,0,0
651,-13,31.1348,2.76025,-0.00267675,-0.00445944,0.00042722,-0.00257966,-0.00455653,0.223475,0.00263838,0.0373173,1875,1037,31.1348,-2.76024
658,-13,31.0513,2.96228,-0.00225358,-0.00288614,0.000136773,-0.00222527,-0.00291445,0.204078,0.00175884,0.0410629,1882,1037,31.0512,-2.96234
665,-13,31.1302,2.91235,-0.00195782,-0.00180004,6.58585e-05,-0.00177616,-0.0019817,1.223,0.00125823,0.0430116,1889,1037,31.1302,-2.91235
672,-13,31.0474,2.83179,-0.00154282,-0.00103186,0.000458962,-0.000762063,-0.00181262,1.03936,0.00105092,0.0369272,1896,1037,31.0474,-2.83177
679,-13,30.8877,2.87244,-0.00111335,-0.000554747,0.00113541,0.000335208,-0.0020033,0.905999,0.00146015,0.036961,1903,1037,30.8877,-2.87242
686,-13,30.8479,2.95239,-0.000814665,-0.000463869,0.00178502,0.00115435,-0.00243288,0.834372,0.00211448,0.0388379,1910,1037,30.8478,-2.95241
693,-13,30.717,3.03943,-0.000581781,-0.000548298,0.00234647,0.00178149,-0.00291157,0.788965,0.00273559,0.0360829,1917,1037,30.7171,-3.03945
700,-13,30.8018,2.90759,-0.000450081,-0.000573654,0.00270563,0.00219447,-0.00321821,0.773982,0.00314359,0.0343379,1924,1037,30.8018,-2.90761
707,-13,30.8646,2.92358,-0.000355554,-0.000498356,0.00285351,0.00242745,-0.00328136,0.77289,0.00330825,0.0291324,1931,1037,30.8646,-2.92364
714,-13,30.8687,3.1333,-0.000455172,-0.000440524,0.00295718,0.00250935,-0.00340504,0.786636,0.0034277,0.0253822,1938,1037,30.8686,-3.13325
721,-13,30.6039,3.9325,0,0,0,0,0,0,0,-1,1945,1037,30.6038,-3.93248
728,-13,30.5651,4.99829,0,0,0,0,0,0,0,-1,1952,1037,30.5651,-4.99827
735,-13,30.5203,4.99963,-0.00183629,0.000571403,0.00247455,0.0021194,-0.00338429,1.01179,0.00320541,0.0200327,1959,1037,30.5203,-4.99961
742,-13,30.5037,4.9917,-0.00281774,0.00122857,0.00180348,0.00191571,-0.00350488,1.20677,0.00317409,0.0129502,1966,1037,30.5036,-4.99168
749,-13,30.5127,4.97009,-0.00390879,0.00199197,0.00122464,0.00223603,-0.00415286,1.37408,0.00374356,0.0182848,1973,1037,30.5127,-4.97005
756,-13,30.5051,4.93604,-0.00528944,0.00226126,0.000353434,0.00227776,-0.00530595,1.52412,0.0044933,0.0138993,1980,1037,30.5051,-4.93599
763,-13,30.4949,4.91211,-0.00717798,0.00374434,-0.000879414,0.0038147,-0.00724834,-1.49097,0.00648898,0.018291,1987,1037,30.4949,-4.91207
770,-13,30.4594,4.91064,-0.009707,0.00504462,-0.00241003,0.00542838,-0.0100907,-1.41289,0.00909376,0.0166394,1994,1037,30.4594,-4.91065
777,-13,30.3732,4.8811,-0.0125402,0.00643609,-0.00381475,0.00717424,-0.0132784,-1.37966,0.0119824,0.0128512,2001,1037,30.3732,-4.88116
784,-13,30.3192,4.88831,-0.0154626,0.00768948,-0.00515192,0.00878415,-0.0165573,-1.36143,0.0148586,0.0288274,2008,1037,30.3192,-4.88835
791,-13,30.1737,4.89844,-0.018551,0.00897808,-0.00654666,0.0104556,-0.0200286,-1.34882,0.017887,0.0461155,2015,1037,30.1737,-4.89842
798,-13,29.9993,5.08862,-0.0217213,0.0104473,-0.0079828,0.0123193,-0.0235933,-1.34045,0.021072,0.0434815,2022,1037,29.9993,-5.08858
805,-13,30.0667,5.32153,-0.0247312,0.0124682,-0.00940035,0.0147087,-0.0269717,-1.33682,0.0244089,0.0419685,2029,1037,30.0665,-5.32151
812,-13,30.1965,5.26563,-0.0273684,0.0156577,-0.0107389,0.0181891,-0.0298998,-1.3393,0.0280372,0.0422838,2036,1037,30.1965,-5.26562
-700,-20,-26.0086,-1.7583,0,0,0,0,0,0,0,-1,524,1044,-26.0086,1.75828
-693,-20,-24.7745,-1.73779,0,0,0,0,0,0,0,-1,531,1044,-24.7745,1.73778
-686,-20,-24.0344,-1.422,0,0,0,0,0,0,0,-1,538,1044,-24.0344,1.42205
-679,-20,-22.4072,-0.815063,0,0,0,0,0,0,0,-1,545,1044,-22.4072,0.81508
-672,-20,-21.5558,-0.401001,0,0,0,0,0,0,0,-1,552,1044,-21.5559,0.401038
-665,-20,-20.8007,2.34424,0.0487279,-0.00399714,-0.00374705,0.0489929,-0.0042621,-0.0705948,0.0341713,0.0454778,559,1044,-20.8007,-2.34424
-658,-20,-21.1516,1.76941,0.0292516,-0.00100483,-0.0012213,0.0293008,-0.00105405,-0.0402775,0.0198945,0.0452603,566,1044,-21.1516,-1.76942
-651,-20,-21.5863,1.88318,0.0153865,0.0011278,0.000283585,0.0153921,0.00112216,0.0198781,0.00990858,0.0380273,573,1044,-21.5863,-1.88313
-644,-20,-21.6161,2.1405,0.00561187,0.00212728,0.000981243,0.00586918,0.00186996,0.256457,0.00346211,0.0259384,580,1044,-21.6161,-2.1405
-637,-20,-21.6757,2.24255,-0.00310483,0.00280275,0.000468201,0.00283963,-0.00314171,1.4922,0.0034548,0.0184594,587,1044,-21.6757,-2.24255
-630,-20,-21.7186,2.32434,-0.00621127,0.00230801,-0.00105666,0.00243711,-0.00634037,-1.44922,0.00523204,0.0151952,594,1044,-21.7186,-2.32433
-623,-20,-21.723,2.40381,-0.005326,0.0024892,-0.00308242,0.00355861,-0.00639542,-1.23685,0.00582424,0.0139274,601,1044,-21.723,-2.40383
-616,-20,-21.7152,2.45667,-0.00397132,0.000979245,-0.0056277,0.00465198,-0.00764405,-0.992584,0.00716883,0.0130143,608,1044,-21.7152,-2.45665
-609,-20,-21.7101,2.46582,-0.00246076,-0.000137948,-0.00747556,0.00626588,-0.0088646,-0.862462,0.00877843,0.014436,615,1044,-21.7101,-2.46586
-602,-20,-21.7112,2.52722,-0.00134364,-0.00104434,-0.00883402,0.0076413,-0.0100293,-0.793867,0.0102331,0.0117736,622,1044,-21.7113,-2.52718
-595,-20,-21.7057,2.52454,-0.000913666,-0.00158434,-0.00972005,0.00847683,-0.0109748,-0.768155,0.0112612,0.0186583,629,1044,-21.7058,-2.52451
-588,-20,-21.6848,1.73816,-0.000893352,-0.00193745,-0.0101471,0.00874511,-0.0115759,-0.759697,0.0117702,0.0246383,636,1044,-21.6848,-1.73812
-581,-20,-21.7205,0.744873,0,0,0,0,0,0,0,-1,643,1044,-21.7205,-0.744839
-574,-20,-21.7931,1.32141,-0.00107536,-0.00163397,-0.00952511,0.00817453,-0.0108839,-0.770741,0.0110404,0.0378094,650,1044,-21.7931,-1.3214
-567,-20,-21.892,1.43481,-0.00135198,-0.00116965,-0.00842328,0.00716295,-0.00968458,-0.790809,0.00976318,0.0438367,657,1044,-21.892,-1.43478
-560,-20,-21.7371,1.35132,0,0,0,0,0,0,0,-1,664,1044,-21.7371,-1.35134
-553,-20,-21.7004,1.33154,-0.00198382,0.000262951,-0.00441251,0.00369283,-0.0054137,-0.910046,0.00528886,0.0437282,671,1044,-21.7004,-1.3316
-546,-20,-21.6947,1.29138,-0.00242089,0.00104889,-0.00154583,0.00163767,-0.00300967,-1.20688,0.00272184,0.0408971,678,1044,-21.6947,-1.29132
-539,-20,-21.7892,1.14111,-0.0029572,0.00144966,0.000845261,0.00160622,-0.00311376,1.38765,0.00277103,0.0417136,685,1044,-21.7892,-1.14111
-532,-20,-22.0199,0.973633,0,0,0,0,0,0,0,-1,692,1044,-22.0199,-0.973617
-525,-20,0,0,0,0,0,0,0,0,0,-1,699,1044,0,0
-518,-20,0,0,0,0,0,0,0,0,0,-1,706,1044,0,0
-511,-20,0,0,0,0,0,0,0,0,0,-1,713,1044,0,0
-504,-20,0,0,0,0,0,0,0,0,0,-1,720,1044,0,0
-497,-20,0,0,0,0,0,0,0,0,0,-1,727,1044,0,0
-490,-20,0,0,0,0,0,0,0,0,0,-1,734,1044,0,0
-483,-20,0,0,0,0,0,0,0,0,0,-1,741,1044,0,0
-476,-20,0,0,0,0,0,0,0,0,0,-1,748,1044,0,0
-469,-20,0,0,0,0,0,0,0,0,0,-1,755,1044,0,0
-462,-20,0,0,0,0,0,0,0,0,0,-1,762,1044,0,0
-455,-20,0,0,0,0,0,0,0,0,0,-1,769,1044,0,0
-448,-20,0,0,0,0,0,0,0,0,0,-1,776,1044,0,0
-441,-20,0,0,0,0,0,0,0,0,0,-1,783,1044,0,0
-434,-20,0,0,0,0,0,0,0,0,0,-1,790,1044,0,0
-427,-20,0,0,0,0,0,0,0,0,0,-1,797,1044,0,0
-420,-20,0,0,0,0,0,0,0,0,0,-1,804,1044,0,0
-413,-20,0,0,0,0,0,0,0,0,0,-1,811,1044,0,0
-406,-20,0,0,0,0,0,0,0,0,0,-1,818,1044,0,0
-399,-20,0,0,0,0,0,0,0,0,0,-1,825,1044,0,0
-392,-20,0,0,0,0,0,0,0,0,0,-1,832,1044,0,0
-385,-20,0,0,0,0,0,0,0,0,0,-1,839,1044,0,0
-378,-20,0,0,0,0,0,0,0,0,0,-1,846,1044,0,0
-371,-20,0,0,0,0,0,0,0,0,0,-1,853,1044,0,0
-364,-20,0,0,0,0,0,0,0,0,0,-1,860,1044,0,0
-357,-20,0,0,0,0,0,0,0,0,0,-1,867,1044,0,0
-350,-20,0,0,0,0,0,0,0,0,0,-1,874,1044,0,0
-343,-20,0,0,0,0,0,0,0,0,0,-1,881,1044,0,0
-336,-20,0,0,0,0,0,0,0,0,0,-1,888,1044,0,0
-329,-20,0,0,0,0,0,0,0,0,0,-1,895,1044,0,0
-322,-20,0,0,0,0,0,0,0,0,0,-1,902,1044,0,0
-315,-20,0,0,0,0,0,0,0,0,0,-1,909,1044,0,0
-308,-20,0,0,0,0,0,0,0,0,0,-1,916,1044,0,0
-301,-20,0,0,0,0,0,0,0,0,0,-1,923,1044,0,0
-294,-20,0,0,0,0,0,0,0,0,0,-1,930,1044,0,0
-287,-20,0,0,0,0,0,0,0,0,0,-1,937,1044,0,0
-280,-20,0,0,0,0,0,0,0,0,0,-1,944,1044,0,0
-273,-20,0,0,0,0,0,0,0,0,0,-1,951,1044,0,0
-266,-20,0,0,0,0,0,0,0,0,0,-1,958,1044,0,0
-259,-20,0,0,0,0,0,0,0,0,0,-1,965,1044,0,0
-252,-20,0,0,0,0,0,0,0,0,0,-1,972,1044,0,0
-245,-20,0,0,0,0,0,0,0,0,0,-1,979,1044,0,0
-238,-20,0,0,0,0,0,0,0,0,0,-1,986,1044,0,0
-231,-20,0,0,0,0,0,0,0,0,0,-1,993,1044,0,0
-224,-20,0,0,0,0,0,0,0,0,0,-1,1000,1044,0,0
-217,-20,0,0,0,0,0,0,0,0,0,-1,1007,1044,0,0
-210,-20,0,0,0,0,0,0,0,0,0,-1,1014,1044,0,0
-203,-20,0,0,0,0,0,0,0,0,0,-1,1021,1044,0,0
-196,-20,0,0,0,0,0,0,0,0,0,-1,1028,1044,0,0
-189,-20,0,0,0,0,0,0,0,0,0,-1,1035,1044,0,0
-182,-20,0,0,0,0,0,0,0,0,0,-1,1042,1044,0,0
-175,-20,0,0,0,0,0,0,0,0,0,-1,1049,1044,0,0
-168,-20,0,0,0,0,0,0,0,0,0,-1,1056,1044,0,0
-161,-20,0,0,0,0,0,0,0,0,0,-1,1063,1044,0,0
-154,-20,0,0,0,0,0,0,0,0,0,-1,1070,1044,0,0
-147,-20,0,0,0,0,0,0,0,0,0,-1,1077,1044,0,0
-140,-20,0,0,0,0,0,0,0,0,0,-1,1084,1044,0,0
-133,-20,0,0,0,0,0,0,0,0,0,-1,1091,1044,0,0
-126,-20,0,0,0,0,0,0,0,0,0,-1,1098,1044,0,0
-119,-20,0,0,0,0,0,0,0,0,0,-1,1105,1044,0,0
-112,-20,0,0,0,0,0,0,0,0,0,-1,1112,1044,0,0
-105,-20,0,0,0,0,0,0,0,0,0,-1,1119,1044,0,0
-98,-20,0,0,0,0,0,0,0,0,0,-1,1126,1044,0,0
-91,-20,0,0,0,0,0,0,0,0,0,-1,1133,1044,0,0
-84,-20,0,0,0,0,0,0,0,0,0,-1,1140,1044,0,0
-77,-20,0,0,0,0,0,0,0,0,0,-1,1147,1044,0,0
-70,-20,0,0,0,0,0,0,0,0,0,-1,1154,1044,0,0
-63,-20,0,0,0,0,0,0,0,0,0,-1,1161,1044,0,0
-56,-20,0,0,0,0,0,0,0,0,0,-1,1168,1044,0,0
-49,-20,0,0,0,0,0,0,0,0,0,-1,1175,1044,0,0
-42,-20,0,0,0,0,0,0,0,0,0,-1,1182,1044,0,0
-35,-20,0,0,0,0,0,0,0,0,0,-1,1189,1044,0,0
-28,-20,0,0,0,0,0,0,0,0,0,-1,1196,1044,0,0
-21,-20,0,0,0,0,0,0,0,0,0,-1,1203,1044,0,0
-14,-20,0,0,0,0,0,0,0,0,0,-1,1210,1044,0,0
-7,-20,0,0,0,0,0,0,0,0,0,-1,1217,1044,0,0
0,-20,0,0,0,0,0,0,0,0,0,-1,1224,1044,0,0
7,-20,0,0,0,0,0,0,0,0,0,-1,1231,1044,0,0
14,-20,0,0,0,0,0,0,0,0,0,-1,1238,1044,0,0
21,-20,0,0,0,0,0,0,0,0,0,-1,1245,1044,0,0
28,-20,0,0,0,0,0,0,0,0,0,-1,1252,1044,0,0
35,-20,0,0,0,0,0,0,0,0,0,-1,1259,1044,0,0
42,-20,0,0,0,0,0,0,0,0,0,-1,1266,1044,0,0
49,-20,0,0,0,0,0,0,0,0,0,-1,1273,1044,0,0
56,-20,0,0,0,0,0,0,0,0,0,-1,1280,1044,0,0
63,-20,0,0,0,0,0,0,0,0,0,-1,1287,1044,0,0
70,-20,0,0,0,0,0,0,0,0,0,-1,1294,1044,0,0
77,-20,0,0,0,0,0,0,0,0,0,-1,1301,1044,0,0
84,-20,0,0,0,0,0,0,0,0,0,-1,1308,1044,0,0
91,-20,0,0,0,0,0,0,0,0,0,-1,1315,1044,0,0
98,-20,0,0,0,0,0,0,0,0,0,-1,1322,1044,0,0
105,-20,0,0,0,0,0,0,0,0,0,-1,1329,1044,0,0
112,-20,0,0,0,0,0,0,0,0,0,-1,1336,1044,0,0
119,-20,0,0,0,0,0,0,0,0,0,-1,1343,1044,0,0
126,-20,0,0,0,0,0,0,0,0,0,-1,1350,1044,0,0
133,-20,0,0,0,0,0,0,0,0,0,-1,1357,1044,0,0
140,-20,0,0,0,0,0,0,0,0,0,-1,1364,1044,0,0
147,-20,0,0,0,0,0,0,0,0,0,-1,1371,1044,0,0
154,-20,0,0,0,0,0,0,0,0,0,-1,1378,1044,0,0
161,-20,0,0,0,0,0,0,0,0,0,-1,1385,1044,0,0
168,-20,0,0,0,0,0,0,0,0,0,-1,1392,1044,0,0
175,-20,0,0,0,0,0,0,0,0,0,-1,1399,1044,0,0
182,-20,0,0,0,0,0,0,0,0,0,-1,1406,1044,0,0
189,-20,0,0,0,0,0,0,0,0,0,-1,1413,1044,0,0
196,-20,0,0,0,0,0,0,0,0,0,-1,1420,1044,0,0
203,-20,0,0,0,0,0,0,0,0,0,-1,1427,1044,0,0
210,-20,0,0,0,0,0,0,0,0,0,-1,1434,1044,0,0
217,-20,0,0,0,0,0,0,0,0,0,-1,1441,1044,0,0
224,-20,0,0,0,0,0,0,0,0,0,-1,1448,1044,0,0
231,-20,0,0,0,0,0,0,0,0,0,-1,1455,1044,0,0
238,-20,0,0,0,0,0,0,0,0,0,-1,1462,1044,0,0
245,-20,0,0,0,0,0,0,0,0,0,-1,1469,1044,0,0
252,-20,0,0,0,0,0,0,0,0,0,-1,1476,1044,0,0
259,-20,0,0,0,0,0,0,0,0,0,-1,1483,1044,0,0
266,-20,0,0,0,0,0,0,0,0,0,-1,1490,1044,0,0
273,-20,0,0,0,0,0,0,0,0,0,-1,1497,1044,0,0
280,-20,0,0,0,0,0,0,0,0,0,-1,1504,1044,0,0
287,-20,0,0,0,0,0,0,0,0,0,-1,1511,1044,0,0
294,-20,0,0,0,0,0,0,0,0,0,-1,1518,1044,0,0
301,-20,0,0,0,0,0,0,0,0,0,-1,1525,1044,0,0
308,-20,0,0,0,0,0,0,0,0,0,-1,1532,1044,0,0
315,-20,0,0,0,0,0,0,0,0,0,-1,1539,1044,0,0
322,-20,0,0,0,0,0,0,0,0,0,-1,1546,1044,0,0
329,-20,0,0,0,0,0,0,0,0,0,-1,1553,1044,0,0
336,-20,0,0,0,0,0,0,0,0,0,-1,1560,1044,0,0
343,-20,0,0,0,0,0,0,0,0,0,-1,1567,1044,0,0
350,-20,0,0,0,0,0,0,0,0,0,-1,1574,1044,0,0
357,-20,0,0,0,0,0,0,0,0,0,-1,1581,1044,0,0
364,-20,0,0,0,0,0,0,0,0,0,-1,1588,1044,0,0
371,-20,0,0,0,0,0,0,0,0,0,-1,1595,1044,0,0
378,-20,0,0,0,0,0,0,0,0,0,-1,1602,1044,0,0
385,-20,0,0,0,0,0,0,0,0,0,-1,1609,1044,0,0
392,-20,0,0,0,0,0,0,0,0,0,-1,1616,1044,0,0
399,-20,0,0,0,0,0,0,0,0,0,-1,1623,1044,0,0
406,-20,0,0,0,0,0,0,0,0,0,-1,1630,1044,0,0
413,-20,0,0,0,0,0,0,0,0,0,-1,1637,1044,0,0
420,-20,0,0,0,0,0,0,0,0,0,-1,1644,1044,0,0
427,-20,0,0,0,0,0,0,0,0,0,-1,1651,1044,0,0
434,-20,0,0,0,0,0,0,0,0,0,-1,1658,1044,0,0
441,-20,0,0,0,0,0,0,0,0,0,-1,1665,1044,0,0
448,-20,0,0,0,0,0,0,0,0,0,-1,1672,1044,0,0
455,-20,0,0,0,0,0,0,0,0,0,-1,1679,1044,0,0
462,-20,0,0,0,0,0,0,0,0,0,-1,1686,1044,0,0
469,-20,0,0,0,0,0,0,0,0,0,-1,1693,1044,0,0
476,-20,0,0,0,0,0,0,0,0,0,-1,1700,1044,0,0
483,-20,0,0,0,0,0,0,0,0,0,-1,1707,1044,0,0
490,-20,0,0,0,0,0,0,0,0,0,-1,1714,1044,0,0
497,-20,0,0,0,0,0,0,0,0,0,-1,1721,1044,0,0
504,-20,0,0,0,0,0,0,0,0,0,-1,1728,1044,0,0
511,-20,0,0,0,0,0,0,0,0,0,-1,1735,1044,0,0
518,-20,0,0,0,0,0,0,0,0,0,-1,1742,1044,0,0
525,-20,0,0,0,0,0,0,0,0,0,-1,1749,1044,0,0
532,-20,0,0,0,0,0,0,0,0,0,-1,1756,1044,0,0
539,-20,0,0,0,0,0,0,0,0,0,-1,1763,1044,0,0
546,-20,0,0,0,0,0,0,0,0,0,-1,1770,1044,0,0
553,-20,0,0,0,0,0,0,0,0,0,-1,1777,1044,0,0
560,-20,0,0,0,0,0,0,0,0,0,-1,1784,1044,0,0
567,-20,0,0,0,0,0,0,0,0,0,-1,1791,1044,0,0
574,-20,0,0,0,0,0,0,0,0,0,-1,1798,1044,0,0
581,-20,0,0,0,0,0,0,0,0,0,-1,1805,1044,0,0
588,-20,0,0,0,0,0,0,0,0,0,-1,1812,1044,0,0
595,-20,0,0,0,0,0,0,0,0,0,-1,1819,1044,0,0
602,-20,0,0,0,0,0,0,0,0,0,-1,1826,1044,0,0
609,-20,0,0,0,0,0,0,0,0,0,-1,1833,1044,0,0
616,-20,0,0,0,0,0,0,0,0,0,-1,1840,1044,0,0
623,-20,0,0,0,0,0,0,0,0,0,-1,1847,1044,0,0
630,-20,0,0,0,0,0,0,0,0,0,-1,1854,1044,0,0
637,-20,0,0,0,0,0,0,0,0,0,-1,1861,1044,0,0
644,-20,0,0,0,0,0,0,0,0,0,-1,1868,1044,0,0
651,-20,31.0592,3.05371,-0.00447449,-0.00327251,0.00070261,-0.00294892,-0.00479808,1.1392,0.00279432,0.0395929,1875,1044,31.0592,-3.05366
658,-20,31.1364,3.026,-0.00339125,-0.00195204,0.000390616,-0.00185286,-0.00349043,1.32214,0.00201648,0.0421429,1882,1044,31.1364,-3.02594
665,-20,31.0889,3.08887,-0.00264179,-0.00107758,0.000266055,-0.00103356,-0.0026858,1.40685,0.0015643,0.0395968,1889,1044,31.0888,-3.08882
672,-20,30.9592,2.98425,-0.00189163,-0.000464744,0.000620151,-0.000232889,-0.00212348,1.21302,0.00134476,0.0253042,1896,1044,30.9593,-2.98428
679,-20,30.8601,2.95374,-0.00118569,-0.000126765,0.00127412,0.000723521,-0.00203597,0.982318,0.00165217,0.0283062,1903,1044,30.8601,-2.95375
686,-20,30.8495,3.03809,-0.000735546,-0.00013898,0.00192237,0.00150811,-0.00238264,0.862367,0.00226516,0.0401083,1910,1044,30.8494,-3.03803
693,-20,30.8717,2.94629,-0.000433634,-0.000303974,0.00249227,0.00212431,-0.00286192,0.798401,0.00288928,0.0442488,1917,1044,30.8717,-2.94627
700,-20,30.8148,2.88379,-0.000262111,-0.000403543,0.00287475,0.00254279,-0.00320845,0.773101,0.00332788,0.0390479,1924,1044,30.8148,-2.88375
707,-20,30.8759,2.91113,-0.000125803,-0.000394259,0.00303351,0.00277645,-0.00329651,0.763288,0.00351051,0.0287719,1931,1044,30.8758,-2.91111
714,-20,30.8984,3.10864,-0.000194055,-0.000381446,0.0031467,0.00286034,-0.00343585,0.770515,0.00364017,0.0222367,1938,1044,30.8984,-3.1086
721,-20,30.9034,3.31946,0,0,0,0,0,0,0,-1,1945,1044,30.9034,-3.3195
728,-20,30.6305,4.98108,0,0,0,0,0,0,0,-1,1952,1044,30.6304,-4.98106
735,-20,30.5228,5.01636,-0.00157741,0.000491494,0.00270878,0.00235663,-0.00344255,0.967796,0.00336766,0.019538,1959,1044,30.5228,-5.01636
742,-20,30.4646,4.99561,-0.0024969,0.00116679,0.00203658,0.00207416,-0.00340427,1.15166,0.0031939,0.0162985,1966,1044,30.4646,-4.99555
749,-20,30.4987,4.9696,-0.0034574,0.00202044,0.00155622,0.00243168,-0.00386865,1.31245,0.0036689,0.0177501,1973,1044,30.4987,-4.96965
756,-20,30.4904,4.92944,-0.00464194,0.00233049,0.000778443,0.00241634,-0.00472779,1.46095,0.00419601,0.0136091,1980,1044,30.4904,-4.9294
763,-20,30.453,4.90442,-0.0062724,0.0038917,-0.000385461,0.0039063,-0.006287,-1.53294,0.00593836,0.0193856,1987,1044,30.4531,-4.90437
770,-20,30.4205,4.93604,-0.00843655,0.0053532,-0.0017841,0.00558029,-0.00866363,-1.44419,0.00828771,0.0178299,1994,1044,30.4205,-4.93603
777,-20,30.3568,4.85999,-0.0108327,0.00701336,-0.00303028,0.00751387,-0.0113332,-1.40711,0.0109556,0.0128054,2001,1044,30.3568,-4.86003
784,-20,30.3508,4.81067,-0.013255,0.00853053,-0.00414438,0.00929231,-0.0140168,-1.38902,0.0135493,0.0176764,2008,1044,30.3508,-4.81062
791,-20,30.3491,4.75549,-0.0157569,0.01009,-0.0052873,0.0111298,-0.0167967,-1.37662,0.0162336,0.0362387,2015,1044,30.3491,-4.75554
798,-20,30.4895,4.81067,-0.0182794,0.0118119,-0.00644796,0.0131353,-0.0196029,-1.36836,0.019024,0.0435301,2022,1044,30.4895,-4.81068
805,-20,30.8792,5.26062,-0.0205723,0.0140088,-0.00758969,0.0156012,-0.0221647,-1.36398,0.0219137,0.0451328,2029,1044,30.8792,-5.26059
812,-20,31.0728,4.83374,-0.0224424,0.0171907,-0.00871116,0.0190209,-0.0242726,-1.36371,0.0250567,0.0463057,2036,1044,31.0727,-4.83377
-700,-27,-24.9088,-2.151,0,0,0,0,0,0,0,-1,524,1051,-24.9088,2.15105
-693,-27,-24.0266,-1.67261,0.172242,-0.00964075,-0.023272,0.175172,-0.0125712,-0.125262,0.121189,0.0499121,531,1051,-24.0266,1.6726
-686,-27,-23.1157,-1.19141,0,0,0,0,0,0,0,-1,538,1051,-23.1157,1.19141
-679,-27,-22.1436,-0.854004,0,0,0,0,0,0,0,-1,545,1051,-22.1435,0.853999
-672,-27,-21.1105,-0.458984,0,0,0,0,0,0,0,-1,552,1051,-21.1105,0.458932
-665,-27,-20.8871,2.35925,0,0,0,0,0,0,0,-1,559,1051,-20.8871,-2.35928
-658,-27,-21.1785,2.12903,0.0249888,0.0026792,-9.06846e-05,0.0249892,0.00267883,-0.00406473,0.0158422,0.0435555,566,1051,-21.1785,-2.12908
-651,-27,-21.4673,2.0802,0.0126877,0.00370701,0.00112676,0.0128269,0.0035678,0.122927,0.00764473,0.0339841,573,1051,-21.4674,-2.08016
-644,-27,-21.5516,2.0835,0.00387664,0.0038449,0.00166856,0.00552941,0.00219213,0.780642,0.00321514,0.0164218,580,1051,-21.5516,-2.08352
-637,-27,-21.6001,2.15063,-0.00398917,0.00399815,0.000942118,0.00410777,-0.00409879,1.45496,0.00473806,0.0133453,587,1051,-21.6001,-2.15059
-630,-27,-21.6616,2.31531,-0.0063119,0.00260372,-0.000886999,0.0026911,-0.00639929,-1.47259,0.00539194,0.0182982,594,1051,-21.6616,-2.31536
-623,-27,-21.6456,2.40662,-0.00530421,0.00239919,-0.00297422,0.00341387,-0.00631889,-1.24202,0.00570203,0.0168218,601,1051,-21.6456,-2.40665
-616,-27,-21.6256,2.47327,-0.00407313,0.000863601,-0.00548215,0.00440745,-0.00761698,-0.996931,0.00702426,0.0144668,608,1051,-21.6256,-2.47331
-609,-27,-21.6448,2.53662,-0.00277905,-0.000263167,-0.00739474,0.00597987,-0.00902208,-0.869648,0.00872054,0.014211,615,1051,-21.6448,-2.5366
-602,-27,-21.6349,2.61572,-0.00176803,-0.00114954,-0.00885055,0.00739716,-0.0103147,-0.802862,0.0102721,0.0119208,622,1051,-21.6349,-2.61573
-595,-27,-21.6608,2.67578,-0.00139896,-0.00164453,-0.00980939,0.00828842,-0.0113319,-0.77914,0.0113731,0.0122429,629,1051,-21.6608,-2.67579
-588,-27,-21.6977,1.91772,-0.00137898,-0.00195651,-0.0102537,0.00859006,-0.0119256,-0.771321,0.0118968,0.0209047,636,1051,-21.6977,-1.91778
-581,-27,-21.7201,0.820068,0,0,0,0,0,0,0,-1,643,1051,-21.7201,-0.820076
-574,-27,-21.7321,1.24438,-0.00138683,-0.00153384,-0.00963431,0.00817425,-0.0110949,-0.781583,0.0111676,0.0353395,650,1051,-21.7321,-1.24435
-567,-27,-21.8135,1.34619,-0.00150391,-0.00099449,-0.00855297,0.00730756,-0.00980596,-0.800284,0.00991553,0.0465242,657,1051,-21.8135,-1.34621
-560,-27,-21.7132,1.4845,0,0,0,0,0,0,0,-1,664,1051,-21.7132,-1.48449
-553,-27,-21.6833,1.3905,-0.00159578,0.000608836,-0.00452683,0.00416563,-0.00515258,-0.904826,0.00538992,0.0439898,671,1051,-21.6834,-1.39056
-546,-27,-21.496,1.19519,-0.00163512,0.0014818,-0.00157338,0.00213791,-0.00229123,-1.17572,0.00255768,0.0420113,678,1051,-21.496,-1.19515
-539,-27,-21.5093,1.23523,-0.00174162,0.00198679,0.00097683,0.00222721,-0.00198205,1.32947,0.00243159,0.0428331,685,1051,-21.5094,-1.2352
-532,-27,-21.6539,1.31934,-0.00279176,0.0022344,0.000355361,0.0022594,-0.00281676,1.50056,0.0029366,0.0429628,692,1051,-21.6539,-1.31934
-525,-27,0,0,0,0,0,0,0,0,0,-1,699,1051,0,0
-518,-27,0,0,0,0,0,0,0,0,0,-1,706,1051,0,0
-511,-27,0,0,0,0,0,0,0,0,0,-1,713,1051,0,0
-504,-27,0,0,0,0,0,0,0,0,0,-1,720,1051,0,0
-497,-27,0,0,0,0,0,0,0,0,0,-1,727,1051,0,0
-490,-27,0,0,0,0,0,0,0,0,0,-1,734,1051,0,0
-483,-27,0,0,0,0,0,0,0,0,0,-1,741,1051,0,0
-476,-27,0,0,0,0,0,0,0,0,0,-1,748,1051,0,0
-469,-27,0,0,0,0,0,0,0,0,0,-1,755,1051,0,0
-462,-27,0,0,0,0,0,0,0,0,0,-1,762,1051,0,0
-455,-27,0,0,0,0,0,0,0,0,0,-1,769,1051,0,0
-448,-27,0,0,0,0,0,0,0,0,0,-1,776,1051,0,0
-441,-27,0,0,0,0,0,0,0,0,0,-1,783,1051,0,0
-434,-27,0,0,0,0,0,0,0,0,0,-1,790,1051,0,0
-427,-27,0,0,0,0,0,0,0,0,0,-1,797,1051,0,0
-420,-27,0,0,0,0,0,0,0,0,0,-1,804,1051,0,0
-413,-27,0,0,0,0,0,0,0,0,0,-1,811,1051,0,0
-406,-27,0,0,0,0,0,0,0,0,0,-1,818,1051,0,0
-399,-27,0,0,0,0,0,0,0,0,0,-1,825,1051,0,0
-392,-27,0,0,0,0,0,0,0,0,0,-1,832,1051,0,0
-385,-27,0,0,0,0,0,0,0,0,0,-1,839,1051,0,0
-378,-27,0,0,0,0,0,0,0,0,0,-1,846,1051,0,0
-371,-27,0,0,0,0,0,0,0,0,0,-1,853,1051,0,0
-364,-27,0,0,0,0,0,0,0,0,0,-1,860,1051,0,0
-357,-27,0,0,0,0,0,0,0,0,0,-1,867,1051,0,0
-350,-27,0,0,0,0,0,0,0,0,0,-1,874,1051,0,0
-343,-27,0,0,0,0,0,0,0,0,0,-1,881,1051,0,0
-336,-27,0,0,0,0,0,0,0,0,0,-1,888,1051,0,0
-329,-27,0,0,0,0,0,0,0,0,0,-1,895,1051,0,0
-322,-27,0,0,0,0,0,0,0,0,0,-1,902,1051,0,0
-315,-27,0,0,0,0,0,0,0,0,0,-1,909,1051,0,0
-308,-27,0,0,0,0,0,0,0,0,0,-1,916,1051,0,0
-301,-27,0,0,0,0,0,0,0,0,0,-1,923,1051,0,0
-294,-27,0,0,0,0,0,0,0,0,0,-1,930,1051,0,0
-287,-27,0,0,0,0,0,0,0,0,0,-1,937,1051,0,0
-280,-27,0,0,0,0,0,0,0,0,0,-1,944,1051,0,0
-273,-27,0,0,0,0,0,0,0,0,0,-1,951,1051,0,0
-266,-27,0,0,0,0,0,0,0,0,0,-1,958,1051,0,0
-259,-27,0,0,0,0,0,0,0,0,0,-1,965,1051,0,0
-252,-27,0,0,0,0,0,0,0,0,0,-1,972,1051,0,0
-245,-27,0,0,0,0,0,0,0,0,0,-1,979,1051,0,0
-238,-27,0,0,0,0,0,0,0,0,0,-1,986,1051,0,0
-231,-27,0,0,0,0,0,0,0,0,0,-1,993,1051,0,0
-224,-27,0,0,0,0,0,0,0,0,0,-1,1000,1051,0,0
-217,-27,0,0,0,0,0,0,0,0,0,-1,1007,1051,0,0
-210,-27,0,0,0,0,0,0,0,0,0,-1,1014,1051,0,0
-203,-27,0,0,0,0,0,0,0,0,0,-1,1021,1051,0,0
-196,-27,0,0,0,0,0,0,0,0,0,-1,1028,1051,0,0
-189,-27,0,0,0,0,0,0,0,0,0,-1,1035,1051,0,0
-182,-27,0,0,0,0,0,0,0,0,0,-1,1042,1051,0,0
-175,-27,0,0,0,0,0,0,0,0,0,-1,1049,1051,0,0
-168,-27,0,0,0,0,0,0,0,0,0,-1,1056,1051,0,0
-161,-27,0,0,0,0,0,0,0,0,0,-1,1063,1051,0,0
-154,-27,0,0,0,0,0,0,0,0,0,-1,1070,1051,0,0
-147,-27,0,0,0,0,0,0,0,0,0,-1,1077,1051,0,0
-140,-27,0,0,0,0,0,0,0,0,0,-1,1084,1051,0,0
-133,-27,0,0,0,0,0,0,0,0,0,-1,1091,1051,0,0
-126,-27,0,0,0,0,0,0,0,0,0,-1,1098,1051,0,0
-119,-27,0,0,0,0,0,0,0,0,0,-1,1105,1051,0,0
-112,-27,0,0,0,0,0,0,0,0,0,-1,1112,1051,0,0
-105,-27,0,0,0,0,0,0,0,0,0,-1,1119,1051,0,0
-98,-27,0,0,0,0,0,0,0,0,0,-1,1126,1051,0,0
-91,-27,0,0,0,0,0,0,0,0,0,-1,1133,1051,0,0
-84,-27,0,0,0,0,0,0,0,0,0,-1,1140,1051,0,0
-77,-27,0,0,0,0,0,0,0,0,0,-1,1147,1051,0,0
-70,-27,0,0,0,0,0,0,0,0,0,-1,1154,1051,0,0
-63,-27,0,0,0,0,0,0,0,0,0,-1,1161,1051,0,0
-56,-27,0,0,0,0,0,0,0,0,0,-1,1168,1051,0,0
-49,-27,0,0,0,0,0,0,0,0,0,-1,1175,1051,0,0
-42,-27,0,0,0,0,0,0,0,0,0,-1,1182,1051,0,0
-35,-27,0,0,0,0,0,0,0,0,0,-1,1189,1051,0,0
-28,-27,0,0,0,0,0,0,0,0,0,-1,1196,1051,0,0
-21,-27,0,0,0,0,0,0,0,0,0,-1,1203,1051,0,0
-14,-27,0,0,0,0,0,0,0,0,0,-1,1210,1051,0,0
-7,-27,0,0,0,0,0,0,0,0,0,-1,1217,1051,0,0
0,-27,0,0,0,0,0,0,0,0,0,-1,1224,1051,0,0
7,-27,0,0,0,0,0,0,0,0,0,-1,1231,1051,0,0
14,-27,0,0,0,0,0,0,0,0,0,-1,1238,1051,0,0
21,-27,0,0,0,0,0,0,0,0,0,-1,1245,1051,0,0
28,-27,0,0,0,0,0,0,0,0,0,-1,1252,1051,0,0
35,-27,0,0,0,0,0,0,0,0,0,-1,1259,1051,0,0
42,-27,0,0,0,0,0,0,0,0,0,-1,1266,1051,0,0
49,-27,0,0,0,0,0,0,0,0,0,-1,1273,1051,0,0
56,-27,0,0,0,0,0,0,0,0,0,-1,1280,1051,0,0
63,-27,0,0,0,0,0,0,0,0,0,-1,1287,1051,0,0
70,-27,0,0,0,0,0,0,0,0,0,-1,1294,1051,0,0
77,-27,0,0,0,0,0,0,0,0,0,-1,1301,1051,0,0
84,-27,0,0,0,0,0,0,0,0,0,-1,1308,1051,0,0
91,-27,0,0,0,0,0,0,0,0,0,-1,1315,1051,0,0
98,-27,0,0,0,0,0,0,0,0,0,-1,1322,1051,0,0
105,-27,0,0,0,0,0,0,0,0,0,-1,1329,1051,0,0
112,-27,0,0,0,0,0,0,0,0,0,-1,1336,1051,0,0
119,-27,0,0,0,0,0,0,0,0,0,-1,1343,1051,0,0
126,-27,0,0,0,0,0,0,0,0,0,-1,1350,1051,0,0
133,-27,0,0,0,0,0,0,0,0,0,-1,1357,1051,0,0
140,-27,0,0,0,0,0,0,0,0,0,-1,1364,1051,0,0
147,-27,0,0,0,0,0,0,0,0,0,-1,1371,1051,0,0
154,-27,0,0,0,0,0,0,0,0,0,-1,1378,1051,0,0
161,-27,0,0,0,0,0,0,0,0,0,-1,1385,1051,0,0
168,-27,0,0,0,0,0,0,0,0,0,-1,1392,1051,0,0
175,-27,0,0,0,0,0,0,0,0,0,-1,1399,1051,0,0
182,-27,0,0,0,0,0,0,0,0,0,-1,1406,1051,0,0
189,-27,0,0,0,0,0,0,0,0,0,-1,1413,1051,0,0
196,-27,0,0,0,0,0,0,0,0,0,-1,1420,1051,0,0
203,-27,0,0,0,0,0,0,0,0,0,-1,1427,1051,0,0
210,-27,0,0,0,0,0,0,0,0,0,-1,1434,1051,0,0
217,-27,0,0,0,0,0,0,0,0,0,-1,1441,1051,0,0
224,-27,0,0,0,0,0,0,0,0,0,-1,1448,1051,0,0
231,-27,0,0,0,0,0,0,0,0,0,-1,1455,1051,0,0
238,-27,0,0,0,0,0,0,0,0,0,-1,1462,1051,0,0
245,-27,0,0,0,0,0,0,0,0,0,-1,1469,1051,0,0
252,-27,0,0,0,0,0,0,0,0,0,-1,1476,1051,0,0
259,-27,0,0,0,0,0,0,0,0,0,-1,1483,1051,0,0
266,-27,0,0,0,0,0,0,0,0,0,-1,1490,1051,0,0
273,-27,0,0,0,0,0,0,0,0,0,-1,1497,1051,0,0
280,-27,0,0,0,0,0,0,0,0,0,-1,1504,1051,0,0
287,-27,0,0,0,0,0,0,0,0,0,-1,1511,1051,0,0
294,-27,0,0,0,0,0,0,0,0,0,-1,1518,1051,0,0
301,-27,0,0,0,0,0,0,0,0,0,-1,1525,1051,0,0
308,-27,0,0,0,0,0,0,0,0,0,-1,1532,1051,0,0
315,-27,0,0,0,0,0,0,0,0,0,-1,1539,1051,0,0
322,-27,0,0,0,0,0,0,0,0,0,-1,1546,1051,0,0
329,-27,0,0,0,0,0,0,0,0,0,-1,1553,1051,0,0
336,-27,0,0,0,0,0,0,0,0,0,-1,1560,1051,0,0
343,-27,0,0,0,0,0,0,0,0,0,-1,1567,1051,0,0
350,-27,0,0,0,0,0,0,0,0,0,-1,1574,1051,0,0
357,-27,0,0,0,0,0,0,0,0,0,-1,1581,1051,0,0
364,-27,0,0,0,0,0,0,0,0,0,-1,1588,1051,0,0
371,-27,0,0,0,0,0,0,0,0,0,-1,1595,1051,0,0
378,-27,0,0,0,0,0,0,0,0,0,-1,1602,1051,0,0
385,-27,0,0,0,0,0,0,0,0,0,-1,1609,1051,0,0
392,-27,0,0,0,0,0,0,0,0,0,-1,1616,1051,0,0
399,-27,0,0,0,0,0,0,0,0,0,-1,1623,1051,0,0
406,-27,0,0,0,0,0,0,0,0,0,-1,1630,1051,0,0
413,-27,0,0,0,0,0,0,0,0,0,-1,1637,1051,0,0
420,-27,0,0,0,0,0,0,0,0,0,-1,1644,1051,0,0
427,-27,0,0,0,0,0,0,0,0,0,-1,1651,1051,0,0
434,-27,0,0,0,0,0,0,0,0,0,-1,1658,1051,0,0
441,-27,0,0,0,0,0,0,0,0,0,-1,1665,1051,0,0
448,-27,0,0,0,0,0,0,0,0,0,-1,1672,1051,0,0
455,-27,0,0,0,0,0,0,0,0,0,-1,1679,1051,0,0
462,-27,0,0,0,0,0,0,0,0,0,-1,1686,1051,0,0
469,-27,0,0,0,0,0,0,0,0,0,-1,1693,1051,0,0
476,-27,0,0,0,0,0,0,0,0,0,-1,1700,1051,0,0
483,-27,0,0,0,0,0,0,0,0,0,-1,1707,1051,0,0
490,-27,0,0,0,0,0,0,0,0,0,-1,1714,1051,0,0
497,-27,0,0,0,0,0,0,0,0,0,-1,1721,1051,0,0
504,-27,0,0,0,0,0,0,0,0,0,-1,1728,1051,0,0
511,-27,0,0,0,0,0,0,0,0,0,-1,1735,1051,0,0
518,-27,0,0,0,0,0,0,0,0,0,-1,1742,1051,0,0
525,-27,0,0,0,0,0,0,0,0,0,-1,1749,1051,0,0
532,-27,0,0,0,0,0,0,0,0,0,-1,1756,1051,0,0
539,-27,0,0,0,0,0,0,0,0,0,-1,1763,1051,0,0
546,-27,0,0,0,0,0,0,0,0,0,-1,1770,1051,0,0
553,-27,0,0,0,0,0,0,0,0,0,-1,1777,1051,0,0
560,-27,0,0,0,0,0,0,0,0,0,-1,1784,1051,0,0
567,-27,0,0,0,0,0,0,0,0,0,-1,1791,1051,0,0
574,-27,0,0,0,0,0,0,0,0,0,-1,1798,1051,0,0
581,-27,0,0,0,0,0,0,0,0,0,-1,1805,1051,0,0
588,-27,0,0,0,0,0,0,0,0,0,-1,1812,1051,0,0
595,-27,0,0,0,0,0,0,0,0,0,-1,1819,1051,0,0
602,-27,0,0,0,0,0,0,0,0,0,-1,1826,1051,0,0
609,-27,0,0,0,0,0,0,0,0,0,-1,1833,1051,0,0
616,-27,0,0,0,0,0,0,0,0,0,-1,1840,1051,0,0
623,-27,0,0,0,0,0,0,0,0,0,-1,1847,1051,0,0
630,-27,0,0,0,0,0,0,0,0,0,-1,1854,1051,0,0
637,-27,0,0,0,0,0,0,0,0,0,-1,1861,1051,0,0
644,-27,0,0,0,0,0,0,0,0,0,-1,1868,1051,0,0
651,-27,31.04,3.21533,-0.00530629,-0.000883126,0.000440604,-0.000839663,-0.00534975,1.47247,0.00332217,0.0412364,1875,1051,31.04,-3.21534
658,-27,30.8815,3.17419,-0.00381417,-0.000104462,0.000269532,-8.49813e-05,-0.00383365,1.49865,0.00252792,0.0432057,1882,1051,30.8815,-3.17423
665,-27,30.9081,3.19446,-0.00280371,0.000311472,0.000228953,0.000328209,-0.00282045,1.49782,0.00199871,0.0388367,1889,1051,30.9081,-3.19441
672,-27,30.8075,3.09216,-0.00187923,0.000533571,0.000651377,0.000698189,-0.00204385,1.32326,0.00164544,0.0290769,1896,1051,30.8075,-3.09217
679,-27,30.918,3.04077,-0.00107528,0.000503277,0.00137515,0.00129956,-0.00187157,1.04592,0.00184075,0.0295999,1903,1051,30.918,-3.04072
686,-27,30.9976,3.0896,-0.000621854,0.000225181,0.00208333,0.00192761,-0.00232428,0.885676,0.00245839,0.0437398,1910,1051,30.9975,-3.08957
693,-27,31.0612,2.92188,-0.000345621,-0.000122223,0.0026971,0.00246549,-0.00293333,0.806094,0.00312091,0.0478144,1917,1051,31.0612,-2.92193
700,-27,30.9783,2.83691,-0.000203555,-0.000353173,0.00311765,0.00284018,-0.00339691,0.773403,0.00360576,0.0399228,1924,1051,30.9783,-2.83697
707,-27,30.8416,2.90283,-9.56142e-05,-0.000424937,0.00330511,0.00304893,-0.00356948,0.760509,0.00382508,0.0231772,1931,1051,30.8415,-2.90278
714,-27,30.894,3.08411,-0.000174527,-0.000480503,0.00343623,0.00311212,-0.00376715,0.763152,0.00397774,0.0170438,1938,1051,30.8941,-3.08414
721,-27,30.9341,3.28455,0,0,0,0,0,0,0,-1,1945,1051,30.9341,-3.28455
728,-27,30.6976,4.97522,0,0,0,0,0,0,0,-1,1952,1051,30.6976,-4.97521
735,-27,30.4885,5.02808,-0.00155841,0.000287605,0.00303382,0.00253572,-0.00380652,0.933069,0.00368612,0.0207104,1959,1051,30.4885,-5.0281
742,-27,30.413,5.02014,-0.00238086,0.00100411,0.00238136,0.00223316,-0.00360991,1.09434,0.00340457,0.016675,1966,1051,30.413,-5.02009
749,-27,30.4551,4.97839,-0.00318315,0.00198463,0.00201524,0.00267758,-0.00387609,1.23961,0.0038048,0.0123836,1973,1051,30.455,-4.97844
756,-27,30.4354,4.92822,-0.00411711,0.0024061,0.00140571,0.00269613,-0.00440713,1.36733,0.00414054,0.0116512,1980,1051,30.4355,-4.92822
763,-27,30.413,4.85657,-0.00540403,0.00437768,0.000505035,0.00440369,-0.00543004,1.51935,0.0056878,0.0128768,1987,1051,30.4129,-4.85652
770,-27,30.3861,4.80737,-0.00710861,0.00637376,-0.00049705,0.00639206,-0.00712691,-1.534,0.00780903,0.014303,1994,1051,30.3862,-4.80743
777,-27,30.3486,4.81909,-0.00893273,0.00890903,-0.00116126,0.0089843,-0.009008,-1.50607,0.0103879,0.0159407,2001,1051,30.3487,-4.81905
784,-27,30.2949,4.79858,-0.0107183,0.0116011,-0.00149537,0.0117008,-0.010818,-1.50419,0.0130046,0.0244821,2008,1051,30.2949,-4.79864
791,-27,30.2179,4.54004,-0.01254,0.01477,-0.00162156,0.014866,-0.0126359,-1.5117,0.0158956,0.0426153,2015,1051,30.2179,-4.54004
798,-27,30.2317,4.2926,-0.0142859,0.0187829,-0.00141073,0.018843,-0.0143459,-1.52824,0.0192202,0.0474607,2022,1051,30.2317,-4.29256
805,-27,30.2358,4.08618,0,0,0,0,0,0,0,-1,2029,1051,30.2359,-4.08616
812,-27,31.866,4.35596,0,0,0,0,0,0,0,-1,2036,1051,31.8659,-4.356
-700,-34,-24.1153,-1.87683,0.192885,-0.00397063,-0.0296254,0.197247,-0.00833239,-0.146181,0.134361,0.0462225,524,1058,-24.1153,1.87685
-693,-34,-23.0938,-1.46204,0.148695,-0.00267512,-0.0207438,0.151486,-0.00546639,-0.133756,0.102861,0.0494499,531,1058,-23.0938,1.46199
-686,-34,-22.5104,-1.25061,0,0,0,0,0,0,0,-1,538,1058,-22.5104,1.25057
-679,-34,-22.0539,-0.692139,0,0,0,0,0,0,0,-1,545,1058,-22.0539,0.692098
-672,-34,-21.445,-0.502075,0,0,0,0,0,0,0,-1,552,1058,-21.445,0.502119
-665,-34,-21.4671,0.838989,0,0,0,0,0,0,0,-1,559,1058,-21.4671,-0.839036
-658,-34,-21.5118,1.97388,0,0,0,0,0,0,0,-1,566,1058,-21.5118,-1.97394
-651,-34,-21.3872,2.06836,0.0100546,0.0052791,0.00196522,0.0107593,0.00457436,0.344318,0.00623504,0.030624,573,1058,-21.3872,-2.06832
-644,-34,-21.5066,2.04993,0.00226286,0.0048679,0.00239525,0.00629187,0.000838883,1.03443,0.0039448,0.0142972,580,1058,-21.5066,-2.04998
-637,-34,-21.54,2.12671,-0.00468792,0.00472342,0.00151812,0.00496225,-0.00492675,1.41476,0.00570943,0.0146855,587,1058,-21.54,-2.12677
-630,-34,-21.5574,2.27856,-0.00637984,0.00280473,-0.000533261,0.00283559,-0.0064107,-1.51299,0.00546974,0.0164954,594,1058,-21.5574,-2.27853
-623,-34,-21.5171,2.3833,-0.00530526,0.00220795,-0.00271356,0.00308551,-0.00618282,-1.25801,0.00544976,0.0141956,601,1058,-21.5171,-2.38335
-616,-34,-21.5087,2.49487,-0.00417919,0.000624457,-0.00521466,0.00396384,-0.00751857,-1.00121,0.00673443,0.020327,608,1058,-21.5087,-2.49482
-609,-34,-21.5247,2.58691,-0.00311257,-0.000535476,-0.00721477,0.00550491,-0.00915296,-0.873766,0.00854964,0.0197364,615,1058,-21.5247,-2.5869
-602,-34,-21.5337,2.65295,-0.00225002,-0.00142861,-0.00878681,0.00695708,-0.0106357,-0.808752,0.010231,0.0149912,622,1058,-21.5337,-2.65298
-595,-34,-21.5723,2.72571,-0.00196808,-0.00191004,-0.00981412,0.0078751,-0.0117532,-0.786876,0.0114059,0.0144856,629,1058,-21.5722,-2.72569
-588,-34,-21.6786,1.95056,-0.00195665,-0.00221307,-0.0102508,0.00816672,-0.0123364,-0.779145,0.0119188,0.0269767,636,1058,-21.6786,-1.95056
-581,-34,-21.6284,1.19739,-0.00185615,-0.00210184,-0.0100823,0.00810402,-0.012062,-0.779306,0.0117174,0.0253441,643,1058,-21.6284,-1.19739
-574,-34,-21.6361,1.19507,-0.00184932,-0.00179296,-0.00960616,0.00778506,-0.0114273,-0.786865,0.0111585,0.035237,650,1058,-21.6361,-1.19506
-567,-34,-21.6463,1.12744,-0.00183489,-0.00122507,-0.00852042,0.00699589,-0.0100559,-0.803283,0.00989753,0.0434394,657,1058,-21.6463,-1.12744
-560,-34,-21.6245,1.10767,0,0,0,0,0,0,0,-1,664,1058,-21.6245,-1.10768
-553,-34,-21.5344,0.896851,-0.00149376,0.000432212,-0.00439112,0.0039647,-0.00502625,-0.893341,0.00520297,0.0426519,671,1058,-21.5344,-0.896868
-546,-34,-21.5276,0.948975,-0.00121987,0.00129559,-0.00128748,0.00183772,-0.001762,-1.17225,0.00207845,0.0437209,678,1058,-21.5276,-0.949022
-539,-34,-21.4786,1.01672,-0.00104329,0.00175147,0.00152658,0.00242365,-0.00171548,1.15602,0.00240136,0.0426717,685,1058,-21.4787,-1.01672
-532,-34,-21.5586,1.13916,-0.00192264,0.00158856,0.00125828,0.00199291,-0.00232699,1.25987,0.00249658,0.0409938,692,1058,-21.5586,-1.13913
-525,-34,0,0,0,0,0,0,0,0,0,-1,699,1058,0,0
-518,-34,0,0,0,0,0,0,0,0,0,-1,706,1058,0,0
-511,-34,0,0,0,0,0,0,0,0,0,-1,713,1058,0,0
-504,-34,0,0,0,0,0,0,0,0,0,-1,720,1058,0,0
-497,-34,0,0,0,0,0,0,0,0,0,-1,727,1058,0,0
-490,-34,0,0,0,0,0,0,0,0,0,-1,734,1058,0,0
-483,-34,0,0,0,0,0,0,0,0,0,-1,741,1058,0,0
-476,-34,0,0,0,0,0,0,0,0,0,-1,748,1058,0,0
-469,-34,0,0,0,0,0,0,0,0,0,-1,755,1058,0,0
-462,-34,0,0,0,0,0,0,0,0,0,-1,762,1058,0,0
-455,-34,0,0,0,0,0,0,0,0,0,-1,769,1058,0,0
-448,-34,0,0,0,0,0,0,0,0,0,-1,776,1058,0,0
-441,-34,0,0,0,0,0,0,0,0,0,-1,783,1058,0,0
-434,-34,0,0,0,0,0,0,0,0,0,-1,790,1058,0,0
-427,-34,0,0,0,0,0,0,0,0,0,-1,797,1058,0,0
-420,-34,0,0,0,0,0,0,0,0,0,-1,804,1058,0,0
-413,-34,0,0,0,0,0,0,0,0,0,-1,811,1058,0,0
-406,-34,0,0,0,0,0,0,0,0,0,-1,818,1058,0,0
-399,-34,0,0,0,0,0,0,0,0,0,-1,825,1058,0,0
-392,-34,0,0,0,0,0,0,0,0,0,-1,832,1058,0,0
-385,-34,0,0,0,0,0,0,0,0,0,-1,839,1058,0,0
-378,-34,0,0,0,0,0,0,0,0,0,-1,846,1058,0,0
-371,-34,0,0,0,0,0,0,0,0,0,-1,853,1058,0,0
-364,-34,0,0,0,0,0,0,0,0,0,-1,860,1058,0,0
-357,-34,0,0,0,0,0,0,0,0,0,-1,867,1058,0,0
-350,-34,0,0,0,0,0,0,0,0,0,-1,874,1058,0,0
-343,-34,0,0,0,0,0,0,0,0,0,-1,881,1058,0,0
-336,-34,0,0,0,0,0,0,0,0,0,-1,888,1058,0,0
-329,-34,0,0,0,0,0,0,0,0,0,-1,895,1058,0,0
-322,-34,0,0,0,0,0,0,0,0,0,-1,902,1058,0,0
-315,-34,0,0,0,0,0,0,0,0,0,-1,909,1058,0,0
-308,-34,0,0,0,0,0,0,0,0,0,-1,916,1058,0,0
-301,-34,0,0,0,0,0,0,0,0,0,-1,923,1058,0,0
-294,-34,0,0,0,0,0,0,0,0,0,-1,930,1058,0,0
-287,-34,0,0,0,0,0,0,0,0,0,-1,937,1058,0,0
-280,-34,0,0,0,0,0,0,0,0,0,-1,944,1058,0,0
-273,-34,0,0,0,0,0,0,0,0,0,-1,951,1058,0,0
-266,-34,0,0,0,0,0,0,0,0,0,-1,958,1058,0,0
-259,-34,0,0,0,0,0,0,0,0,0,-1,965,1058,0,0
-252,-34,0,0,0,0,0,0,0,0,0,-1,972,1058,0,0
-245,-34,0,0,0,0,0,0,0,0,0,-1,979,1058,0,0
-238,-34,0,0,0,0,0,0,0,0,0,-1,986,1058,0,0
-231,-34,0,0,0,0,0,0,0,0,0,-1,993,1058,0,0
-224,-34,0,0,0,0,0,0,0,0,0,-1,1000,1058,0,0
-217,-34,0,0,0,0,0,0,0,0,0,-1,1007,1058,0,0
-210,-34,0,0,0,0,0,0,0,0,0,-1,1014,1058,0,0
-203,-34,0,0,0,0,0,0,0,0,0,-1,1021,1058,0,0
-196,-34,0,0,0,0,0,0,0,0,0,-1,1028,1058,0,0
-189,-34,0,0,0,0,0,0,0,0,0,-1,1035,1058,0,0
-182,-34,0,0,0,0,0,0,0,0,0,-1,1042,1058,0,0
-175,-34,0,0,0,0,0,0,0,0,0,-1,1049,1058,0,0
-168,-34,0,0,0,0,0,0,0,0,0,-1,1056,1058,0,0
-161,-34,0,0,0,0,0,0,0,0,0,-1,1063,1058,0,0
-154,-34,0,0,0,0,0,0,0,0,0,-1,1070,1058,0,0
-147,-34,0,0,0,0,0,0,0,0,0,-1,1077,1058,0,0
-140,-34,0,0,0,0,0,0,0,0,0,-1,1084,1058,0,0
-133,-34,0,0,0,0,0,0,0,0,0,-1,1091,1058,0,0
-126,-34,0,0,0,0,0,0,0,0,0,-1,1098,1058,0,0
-119,-34,0,0,0,0,0,0,0,0,0,-1,1105,1058,0,0
-112,-34,0,0,0,0,0,0,0,0,0,-1,1112,1058,0,0
-105,-34,0,0,0,0,0,0,0,0,0,-1,1119,1058,0,0
-98,-34,0,0,0,0,0,0,0,0,0,-1,1126,1058,0,0
-91,-34,0,0,0,0,0,0,0,0,0,-1,1133,1058,0,0
-84,-34,0,0,0,0,0,0,0,0,0,-1,1140,1058,0,0
-77,-34,0,0,0,0,0,0,0,0,0,-1,1147,1058,0,0
-70,-34,0,0,0,0,0,0,0,0,0,-1,1154,1058,0,0
-63,-34,0,0,0,0,0,0,0,0,0,-1,1161,1058,0,0
-56,-34,0,0,0,0,0,0,0,0,0,-1,1168,1058,0,0
-49,-34,0,0,0,0,0,0,0,0,0,-1,1175,1058,0,0
-42,-34,0,0,0,0,0,0,0,0,0,-1,1182,1058,0,0
-35,-34,0,0,0,0,0,0,0,0,0,-1,1189,1058,0,0
-28,-34,0,0,0,0,0,0,0,0,0,-1,1196,1058,0,0
-21,-34,0,0,0,0,0,0,0,0,0,-1,1203,1058,0,0
-14,-34,0,0,0,0,0,0,0,0,0,-1,1210,1058,0,0
-7,-34,0,0,0,0,0,0,0,0,0,-1,1217,1058,0,0
0,-34,0,0,0,0,0,0,0,0,0,-1,1224,1058,0,0
7,-34,0,0,0,0,0,0,0,0,0,-1,1231,1058,0,0
14,-34,0,0,0,0,0,0,0,0,0,-1,1238,1058,0,0
21,-34,0,0,0,0,0,0,0,0,0,-1,1245,1058,0,0
28,-34,0,0,0,0,0,0,0,0,0,-1,1252,1058,0,0
35,-34,0,0,0,0,0,0,0,0,0,-1,1259,1058,0,0
42,-34,0,0,0,0,0,0,0,0,0,-1,1266,1058,0,0
49,-34,0,0,0,0,0,0,0,0,0,-1,1273,1058,0,0
56,-34,0,0,0,0,0,0,0,0,0,-1,1280,1058,0,0
63,-34,0,0,0,0,0,0,0,0,0,-1,1287,1058,0,0
70,-34,0,0,0,0,0,0,0,0,0,-1,1294,1058,0,0
77,-34,0,0,0,0,0,0,0,0,0,-1,1301,1058,0,0
84,-34,0,0,0,0,0,0,0,0,0,-1,1308,1058,0,0
91,-34,0,0,0,0,0,0,0,0,0,-1,1315,1058,0,0
98,-34,0,0,0,0,0,0,0,0,0,-1,1322,1058,0,0
105,-34,0,0,0,0,0,0,0,0,0,-1,1329,1058,0,0
112,-34,0,0,0,0,0,0,0,0,0,-1,1336,1058,0,0
119,-34,0,0,0,0,0,0,0,0,0,-1,1343,1058,0,0
126,-34,0,0,0,0,0,0,0,0,0,-1,1350,1058,0,0
133,-34,0,0,0,0,0,0,0,0,0,-1,1357,1058,0,0
140,-34,0,0,0,0,0,0,0,0,0,-1,1364,1058,0,0
147,-34,0,0,0,0,0,0,0,0,0,-1,1371,1058,0,0
154,-34,0,0,0,0,0,0,0,0,0,-1,1378,1058,0,0
161,-34,0,0,0,0,0,0,0,0,0,-1,1385,1058,0,0
168,-34,0,0,0,0,0,0,0,0,0,-1,1392,1058,0,0
175,-34,0,0,0,0,0,0,0,0,0,-1,1399,1058,0,0
182,-34,0,0,0,0,0,0,0,0,0,-1,1406,1058,0,0
189,-34,0,0,0,0,0,0,0,0,0,-1,1413,1058,0,0
196,-34,0,0,0,0,0,0,0,0,0,-1,1420,1058,0,0
203,-34,0,0,0,0,0,0,0,0,0,-1,1427,1058,0,0
210,-34,0,0,0,0,0,0,0,0,0,-1,1434,1058,0,0
217,-34,0,0,0,0,0,0,0,0,0,-1,1441,1058,0,0
224,-34,0,0,0,0,0,0,0,0,0,-1,1448,1058,0,0
231,-34,0,0,0,0,0,0,0,0,0,-1,1455,1058,0,0
238,-34,0,0,0,0,0,0,0,0,0,-1,1462,1058,0,0
245,-34,0,0,0,0,0,0,0,0,0,-1,1469,1058,0,0
252,-34,0,0,0,0,0,0,0,0,0,-1,1476,1058,0,0
259,-34,0,0,0,0,0,0,0,0,0,-1,1483,1058,0,0
266,-34,0,0,0,0,0,0,0,0,0,-1,1490,1058,0,0
273,-34,0,0,0,0,0,0,0,0,0,-1,1497,1058,0,0
280,-34,0,0,0,0,0,0,0,0,0,-1,1504,1058,0,0
287,-34,0,0,0,0,0,0,0,0,0,-1,1511,1058,0,0
294,-34,0,0,0,0,0,0,0,0,0,-1,1518,1058,0,0
301,-34,0,0,0,0,0,0,0,0,0,-1,1525,1058,0,0
308,-34,0,0,0,0,0,0,0,0,0,-1,1532,1058,0,0
315,-34,0,0,0,0,0,0,0,0,0,-1,1539,1058,0,0
322,-34,0,0,0,0,0,0,0,0,0,-1,1546,1058,0,0
329,-34,0,0,0,0,0,0,0,0,0,-1,1553,1058,0,0
336,-34,0,0,0,0,0,0,0,0,0,-1,1560,1058,0,0
343,-34,0,0,0,0,0,0,0,0,0,-1,1567,1058,0,0
350,-34,0,0,0,0,0,0,0,0,0,-1,1574,1058,0,0
357,-34,0,0,0,0,0,0,0,0,0,-1,1581,1058,0,0
364,-34,0,0,0,0,0,0,0,0,0,-1,1588,1058,0,0
371,-34,0,0,0,0,0,0,0,0,0,-1,1595,1058,0,0
378,-34,0,0,0,0,0,0,0,0,0,-1,1602,1058,0,0
385,-34,0,0,0,0,0,0,0,0,0,-1,1609,1058,0,0
392,-34,0,0,0,0,0,0,0,0,0,-1,1616,1058,0,0
399,-34,0,0,0,0,0,0,0,0,0,-1,1623,1058,0,0
406,-34,0,0,0,0,0,0,0,0,0,-1,1630,1058,0,0
413,-34,0,0,0,0,0,0,0,0,0,-1,1637,1058,0,0
420,-34,0,0,0,0,0,0,0,0,0,-1,1644,1058,0,0
427,-34,0,0,0,0,0,0,0,0,0,-1,1651,1058,0,0
434,-34,0,0,0,0,0,0,0,0,0,-1,1658,1058,0,0
441,-34,0,0,0,0,0,0,0,0,0,-1,1665,1058,0,0
448,-34,0,0,0,0,0,0,0,0,0,-1,1672,1058,0,0
455,-34,0,0,0,0,0,0,0,0,0,-1,1679,1058,0,0
462,-34,0,0,0,0,0,0,0,0,0,-1,1686,1058,0,0
469,-34,0,0,0,0,0,0,0,0,0,-1,1693,1058,0,0
476,-34,0,0,0,0,0,0,0,0,0,-1,1700,1058,0,0
483,-34,0,0,0,0,0,0,0,0,0,-1,1707,1058,0,0
490,-34,0,0,0,0,0,0,0,0,0,-1,1714,1058,0,0
497,-34,0,0,0,0,0,0,0,0,0,-1,1721,1058,0,0
504,-34,0,0,0,0,0,0,0,0,0,-1,1728,1058,0,0
511,-34,0,0,0,0,0,0,0,0,0,-1,1735,1058,0,0
518,-34,0,0,0,0,0,0,0,0,0,-1,1742,1058,0,0
525,-34,0,0,0,0,0,0,0,0,0,-1,1749,1058,0,0
532,-34,0,0,0,0,0,0,0,0,0,-1,1756,1058,0,0
539,-34,0,0,0,0,0,0,0,0,0,-1,1763,1058,0,0
546,-34,0,0,0,0,0,0,0,0,0,-1,1770,1058,0,0
553,-34,0,0,0,0,0,0,0,0,0,-1,1777,1058,0,0
560,-34,0,0,0,0,0,0,0,0,0,-1,1784,1058,0,0
567,-34,0,0,0,0,0,0,0,0,0,-1,1791,1058,0,0
574,-34,0,0,0,0,0,0,0,0,0,-1,1798,1058,0,0
581,-34,0,0,0,0,0,0,0,0,0,-1,1805,1058,0,0
588,-34,0,0,0,0,0,0,0,0,0,-1,1812,1058,0,0
595,-34,0,0,0,0,0,0,0,0,0,-1,1819,1058,0,0
602,-34,0,0,0,0,0,0,0,0,0,-1,1826,1058,0,0
609,-34,0,0,0,0,0,0,0,0,0,-1,1833,1058,0,0
616,-34,0,0,0,0,0,0,0,0,0,-1,1840,1058,0,0
623,-34,0,0,0,0,0,0,0,0,0,-1,1847,1058,0,0
630,-34,0,0,0,0,0,0,0,0,0,-1,1854,1058,0,0
637,-34,0,0,0,0,0,0,0,0,0,-1,1861,1058,0,0
644,-34,0,0,0,0,0,0,0,0,0,-1,1868,1058,0,0
651,-34,30.9369,2.93884,-0.00593569,0.00156283,-0.000288937,0.00157394,-0.00594681,-1.53234,0.00458024,0.0415761,1875,1058,30.9369,-2.93883
658,-34,30.7407,2.94592,-0.00412379,0.0016859,-0.000123801,0.00168854,-0.00412642,-1.5495,0.00345422,0.0465489,1882,1058,30.7407,-2.94598
665,-34,30.6838,3.03748,-0.00289154,0.00158683,5.88079e-05,0.00158761,-0.00289231,1.55767,0.00262279,0.0447681,1889,1058,30.6838,-3.03752
672,-34,30.8558,3.01123,-0.00181856,0.00137327,0.000676699,0.00151081,-0.0019561,1.37028,0.00200712,0.037805,1896,1058,30.8559,-3.01129
679,-34,30.9314,3.00061,-0.000934368,0.000951105,0.00156676,0.00183689,-0.00182015,1.05624,0.0021114,0.0381545,1903,1058,30.9313,-3.00061
686,-34,30.9418,2.91052,-0.000477525,0.000402228,0.00239074,0.00239322,-0.00246852,0.876376,0.00280704,0.0435888,1910,1058,30.9417,-2.91049
693,-34,30.944,2.7688,-0.000218282,-0.000120935,0.00307703,0.0029078,-0.00324702,0.793307,0.00355529,0.0448983,1917,1058,30.9439,-2.76881
700,-34,30.9006,2.99878,-9.64834e-05,-0.000476008,0.00354961,0.00326844,-0.00384093,0.758694,0.00410903,0.0397076,1924,1058,30.9006,-2.9988
707,-34,30.8057,2.922,-1.30065e-05,-0.00063922,0.00377606,0.00346291,-0.00411513,0.744033,0.00438058,0.024299,1931,1058,30.8056,-2.922
714,-34,30.8634,3.04578,-0.000117593,-0.000746311,0.00392324,0.00350386,-0.00436776,0.74542,0.0045538,0.015989,1938,1058,30.8634,-3.04579
721,-34,30.96,3.49829,-0.000406375,-0.000700924,0.00395506,0.00340415,-0.00451145,0.766788,0.00458496,0.0273126,1945,1058,30.9599,-3.49829
728,-34,30.4829,5.07764,0,0,0,0,0,0,0,-1,1952,1058,30.4829,-5.07759
735,-34,30.3649,5.05286,-0.00148486,-5.55413e-06,0.00344242,0.00277578,-0.00426619,0.891222,0.00409593,0.0153515,1959,1058,30.3649,-5.05291
742,-34,30.3234,5.01917,-0.00219827,0.000787768,0.00277356,0.00244463,-0.00385513,1.03231,0.00366743,0.0143502,1966,1058,30.3234,-5.01912
749,-34,30.3663,4.98254,-0.00285338,0.00193666,0.00247884,0.00298849,-0.00390521,1.1695,0.00399179,0.0129943,1973,1058,30.3664,-4.98249
756,-34,30.3778,4.92139,-0.00360477,0.00255826,0.00195648,0.00312689,-0.0041734,1.28795,0.00422924,0.0102098,1980,1058,30.3778,-4.92144
763,-34,30.3411,4.83887,-0.00465962,0.00496824,0.00114036,0.00510147,-0.00479285,1.4545,0.00571341,0.00998024,1987,1058,30.341,-4.83885
770,-34,30.3094,4.76038,-0.00605001,0.00751936,0.000297958,0.0075259,-0.00605655,1.54885,0.00785711,0.0152189,1994,1058,30.3094,-4.76037
777,-34,30.264,4.74036,-0.00752034,0.0109242,-8.85515e-05,0.0109246,-0.00752076,-1.566,0.0107097,0.0177792,2001,1058,30.264,-4.7404
784,-34,30.2245,4.76025,-0.00897306,0.0147899,-7.9173e-05,0.0147901,-0.00897333,-1.56746,0.0138562,0.0339633,2008,1058,30.2245,-4.76019
791,-34,30.192,4.61963,-0.0105463,0.0195391,0.000195922,0.0195403,-0.0105476,1.56428,0.017628,0.0464907,2015,1058,30.192,-4.61965
798,-34,29.76,4.20129,-0.012132,0.0257321,0.00086012,0.0257517,-0.0121515,1.5481,0.022348,0.048081,2022,1058,29.7599,-4.20128
805,-34,29.1995,3.71008,-0.0135371,0.0341344,0.00202181,0.03422,-0.0136227,1.52849,0.0284625,0.044559,2029,1058,29.1996,-3.71004
812,-34,32.6487,3.90186,0,0,0,0,0,0,0,-1,2036,1058,32.6486,-3.90185
-700,-41,-23.0854,-1.59424,0.159711,0.00353258,-0.0254858,0.163764,-0.000521079,-0.157734,0.10935,0.0413613,524,1065,-23.0854,1.59426
-693,-41,-22.3481,-1.20947,0.12125,0.00374563,-0.0168049,0.123606,0.00138953,-0.139295,0.0819449,0.0434764,531,1065,-22.3481,1.20947
-686,-41,-21.9174,-0.8927,0,0,0,0,0,0,0,-1,538,1065,-21.9173,0.892741
-679,-41,-21.7145,-0.445313,0,0,0,0,0,0,0,-1,545,1065,-21.7145,0.445283
-672,-41,-21.5156,0.0134277,0,0,0,0,0,0,0,-1,552,1065,-21.5156,-0.0134022
-665,-41,-21.2825,1.06042,0,0,0,0,0,0,0,-1,559,1065,-21.2825,-1.06046
-658,-41,-21.2064,1.43298,0.0141604,0.00660836,0.00292942,0.0151635,0.00560527,0.329904,0.00885323,0.0424354,566,1065,-21.2064,-1.433
-651,-41,-21.197,1.81665,0.00593718,0.0063111,0.00356671,0.00969574,0.00255253,0.811583,0.00580322,0.0308855,573,1065,-21.197,-1.8167
-644,-41,-21.3955,2.01709,-0.000208187,0.0054126,0.0036796,0.0072323,-0.00202789,1.11153,0.00562079,0.0152616,580,1065,-21.3955,-2.01714
-637,-41,-21.4297,2.10876,-0.00556256,0.00499185,0.00248249,0.00554659,-0.00611731,1.35095,0.00673684,0.0156815,587,1065,-21.4297,-2.10876
-630,-41,-21.4556,2.23523,-0.00631511,0.00264147,0.000136917,0.00264356,-0.0063172,1.55551,0.00531645,0.0129692,594,1065,-21.4555,-2.23523
-623,-41,-21.4023,2.36072,-0.00516789,0.00179456,-0.0021609,0.00241071,-0.00578403,-1.29303,0.00486302,0.0123918,601,1065,-21.4024,-2.36077
-616,-41,-21.3859,2.49658,-0.00414811,0.000284722,-0.0046849,0.00325105,-0.00711444,-1.00635,0.00612151,0.0161401,608,1065,-21.3859,-2.49655
-609,-41,-21.3874,2.61035,-0.00329957,-0.000901711,-0.00675663,0.00476153,-0.00896282,-0.873207,0.00804656,0.0214412,615,1065,-21.3874,-2.61041
-602,-41,-21.3985,2.6936,-0.00260727,-0.00182216,-0.00843021,0.00622463,-0.0106541,-0.808664,0.00985614,0.0129123,622,1065,-21.3985,-2.69364
-595,-41,-21.4711,2.76453,-0.00242662,-0.00235856,-0.00952404,0.00713151,-0.0119167,-0.787185,0.0111126,0.0177814,629,1065,-21.4712,-2.76449
-588,-41,-21.6122,1.9259,-0.00242539,-0.00268759,-0.0099661,0.00741047,-0.0125234,-0.778821,0.0116344,0.0286704,636,1065,-21.6122,-1.92589
-581,-41,-21.6507,1.23486,-0.00229606,-0.00263341,-0.0097955,0.00733222,-0.0122617,-0.776789,0.0114313,0.0337973,643,1065,-21.6507,-1.23483
-574,-41,-21.6566,1.21558,-0.00224206,-0.00237705,-0.00936431,0.00705499,-0.0116741,-0.781794,0.0109223,0.0366684,650,1065,-21.6565,-1.21558
-567,-41,-21.6747,1.18384,-0.00212805,-0.0018403,-0.00833049,0.00634756,-0.0103159,-0.794033,0.00971116,0.0424763,657,1065,-21.6747,-1.18382
-560,-41,-21.686,1.21228,-0.00184843,-0.00106689,-0.00663765,0.00519148,-0.0081068,-0.8148,0.00773902,0.0412067,664,1065,-21.686,-1.21231
-553,-41,-21.6666,1.07361,-0.00142748,-0.00013469,-0.00425485,0.00352258,-0.00508476,-0.860782,0.00499666,0.0404081,671,1065,-21.6666,-1.07363
-546,-41,-21.6079,0.983276,-0.000874457,0.000837971,-0.00110283,0.00137794,-0.00141443,-1.11548,0.00161222,0.0400513,678,1065,-21.6079,-0.983319
-539,-41,-21.6092,0.822998,-0.000389748,0.00150651,0.00192245,0.00270192,-0.00158516,1.01449,0.00250298,0.0403366,685,1065,-21.6092,-0.822938
-532,-41,-21.5669,0.847046,-0.00104561,0.00137899,0.0020234,0.00252546,-0.00219208,1.05529,0.00272594,0.0395609,692,1065,-21.5669,-0.847033
-525,-41,0,0,0,0,0,0,0,0,0,-1,699,1065,0,0
-518,-41,0,0,0,0,0,0,0,0,0,-1,706,1065,0,0
-511,-41,0,0,0,0,0,0,0,0,0,-1,713,1065,0,0
-504,-41,0,0,0,0,0,0,0,0,0,-1,720,1065,0,0
-497,-41,0,0,0,0,0,0,0,0,0,-1,727,1065,0,0
-490,-41,0,0,0,0,0,0,0,0,0,-1,734,1065,0,0
-483,-41,0,0,0,0,0,0,0,0,0,-1,741,1065,0,0
-476,-41,0,0,0,0,0,0,0,0,0,-1,748,1065,0,0
-469,-41,0,0,0,0,0,0,0,0,0,-1,755,1065,0,0
-462,-41,0,0,0,0,0,0,0,0,0,-1,762,1065,0,0
-455,-41,0,0,0,0,0,0,0,0,0,-1,769,1065,0,0
-448,-41,0,0,0,0,0,0,0,0,0,-1,776,1065,0,0
-441,-41,0,0,0,0,0,0,0,0,0,-1,783,1065,0,0
-434,-41,0,0,0,0,0,0,0,0,0,-1,790,1065,0,0
-427,-41,0,0,0,0,0,0,0,0,0,-1,797,1065,0,0
-420,-41,0,0,0,0,0,0,0,0,0,-1,804,1065,0,0
-413,-41,0,0,0,0,0,0,0,0,0,-1,811,1065,0,0
-406,-41,0,0,0,0,0,0,0,0,0,-1,818,1065,0,0
-399,-41,0,0,0,0,0,0,0,0,0,-1,825,1065,0,0
-392,-41,0,0,0,0,0,0,0,0,0,-1,832,1065,0,0
-385,-41,0,0,0,0,0,0,0,0,0,-1,839,1065,0,0
-378,-41,0,0,0,0,0,0,0,0,0,-1,846,1065,0,0
-371,-41,0,0,0,0,0,0,0,0,0,-1,853,1065,0,0
-364,-41,0,0,0,0,0,0,0,0,0,-1,860,1065,0,0
-357,-41,0,0,0,0,0,0,0,0,0,-1,867,1065,0,0
-350,-41,0,0,0,0,0,0,0,0,0,-1,874,1065,0,0
-343,-41,0,0,0,0,0,0,0,0,0,-1,881,1065,0,0
-336,-41,0,0,0,0,0,0,0,0,0,-1,888,1065,0,0
-329,-41,0,0,0,0,0,0,0,0,0,-1,895,1065,0,0
-322,-41,0,0,0,0,0,0,0,0,0,-1,902,1065,0,0
-315,-41,0,0,0,0,0,0,0,0,0,-1,909,1065,0,0
-308,-41,0,0,0,0,0,0,0,0,0,-1,916,1065,0,0
-301,-41,0,0,0,0,0,0,0,0,0,-1,923,1065,0,0
-294,-41,0,0,0,0,0,0,0,0,0,-1,930,1065,0,0
-287,-41,0,0,0,0,0,0,0,0,0,-1,937,1065,0,0
-280,-41,0,0,0,0,0,0,0,0,0,-1,944,1065,0,0
-273,-41,0,0,0,0,0,0,0,0,0,-1,951,1065,0,0
-266,-41,0,0,0,0,0,0,0,0,0,-1,958,1065,0,0
-259,-41,0,0,0,0,0,0,0,0,0,-1,965,1065,0,0
-252,-41,0,0,0,0,0,0,0,0,0,-1,972,1065,0,0
-245,-41,0,0,0,0,0,0,0,0,0,-1,979,1065,0,0
-238,-41,0,0,0,0,0,0,0,0,0,-1,986,1065,0,0
-231,-41,0,0,0,0,0,0,0,0,0,-1,993,1065,0,0
-224,-41,0,0,0,0,0,0,0,0,0,-1,1000,1065,0,0
-217,-41,0,0,0,0,0,0,0,0,0,-1,1007,1065,0,0
-210,-41,0,0,0,0,0,0,0,0,0,-1,1014,1065,0,0
-203,-41,0,0,0,0,0,0,0,0,0,-1,1021,1065,0,0
-196,-41,0,0,0,0,0,0,0,0,0,-1,1028,1065,0,0
-189,-41,0,0,0,0,0,0,0,0,0,-1,1035,1065,0,0
-182,-41,0,0,0,0,0,0,0,0,0,-1,1042,1065,0,0
-175,-41,0,0,0,0,0,0,0,0,0,-1,1049,1065,0,0
-168,-41,0,0,0,0,0,0,0,0,0,-1,1056,1065,0,0
-161,-41,0,0,0,0,0,0,0,0,0,-1,1063,1065,0,0
-154,-41,0,0,0,0,0,0,0,0,0,-1,1070,1065,0,0
-147,-41,0,0,0,0,0,0,0,0,0,-1,1077,1065,0,0
-140,-41,0,0,0,0,0,0,0,0,0,-1,1084,1065,0,0
-133,-41,0,0,0,0,0,0,0,0,0,-1,1091,1065,0,0
-126,-41,0,0,0,0,0,0,0,0,0,-1,1098,1065,0,0
-119,-41,0,0,0,0,0,0,0,0,0,-1,1105,1065,0,0
-112,-41,0,0,0,0,0,0,0,0,0,-1,1112,1065,0,0
-105,-41,0,0,0,0,0,0,0,0,0,-1,1119,1065,0,0
-98,-41,0,0,0,0,0,0,0,0,0,-1,1126,1065,0,0
-91,-41,0,0,0,0,0,0,0,0,0,-1,1133,1065,0,0
-84,-41,0,0,0,0,0,0,0,0,0,-1,1140,1065,0,0
-77,-41,0,0,0,0,0,0,0,0,0,-1,1147,1065,0,0
-70,-41,0,0,0,0,0,0,0,0,0,-1,1154,1065,0,0
-63,-41,0,0,0,0,0,0,0,0,0,-1,1161,1065,0,0
-56,-41,0,0,0,0,0,0,0,0,0,-1,1168,1065,0,0
-49,-41,0,0,0,0,0,0,0,0,0,-1,1175,1065,0,0
-42,-41,0,0,0,0,0,0,0,0,0,-1,1182,1065,0,0
-35,-41,0,0,0,0,0,0,0,0,0,-1,1189,1065,0,0
-28,-41,0,0,0,0,0,0,0,0,0,-1,1196,1065,0,0
-21,-41,0,0,0,0,0,0,0,0,0,-1,1203,1065,0,0
-14,-41,0,0,0,0,0,0,0,0,0,-1,1210,1065,0,0
-7,-41,0,0,0,0,0,0,0,0,0,-1,1217,1065,0,0
0,-41,0,0,0,0,0,0,0,0,0,-1,1224,1065,0,0
7,-41,0,0,0,0,0,0,0,0,0,-1,1231,1065,0,0
14,-41,0,0,0,0,0,0,0,0,0,-1,1238,1065,0,0
21,-41,0,0,0,0,0,0,0,0,0,-1,1245,1065,0,0
28,-41,0,0,0,0,0,0,0,0,0,-1,1252,1065,0,0
35,-41,0,0,0,0,0,0,0,0,0,-1,1259,1065,0,0
42,-41,0,0,0,0,0,0,0,0,0,-1,1266,1065,0,0
49,-41,0,0,0,0,0,0,0,0,0,-1,1273,1065,0,0
56,-41,0,0,0,0,0,0,0,0,0,-1,1280,1065,0,0
63,-41,0,0,0,0,0,0,0,0,0,-1,1287,1065,0,0
70,-41,0,0,0,0,0,0,0,0,0,-1,1294,1065,0,0
77,-41,0,0,0,0,0,0,0,0,0,-1,1301,1065,0,0
84,-41,0,0,0,0,0,0,0,0,0,-1,1308,1065,0,0
91,-41,0,0,0,0,0,0,0,0,0,-1,1315,1065,0,0
98,-41,0,0,0,0,0,0,0,0,0,-1,1322,1065,0,0
105,-41,0,0,0,0,0,0,0,0,0,-1,1329,1065,0,0
112,-41,0,0,0,0,0,0,0,0,0,-1,1336,1065,0,0
119,-41,0,0,0,0,0,0,0,0,0,-1,1343,1065,0,0
126,-41,0,0,0,0,0,0,0,0,0,-1,1350,1065,0,0
133,-41,0,0,0,0,0,0,0,0,0,-1,1357,1065,0,0
140,-41,0,0,0,0,0,0,0,0,0,-1,1364,1065,0,0
147,-41,0,0,0,0,0,0,0,0,0,-1,1371,1065,0,0
154,-41,0,0,0,0,0,0,0,0,0,-1,1378,1065,0,0
161,-41,0,0,0,0,0,0,0,0,0,-1,1385,1065,0,0
168,-41,0,0,0,0,0,0,0,0,0,-1,1392,1065,0,0
175,-41,0,0,0,0,0,0,0,0,0,-1,1399,1065,0,0
182,-41,0,0,0,0,0,0,0,0,0,-1,1406,1065,0,0
189,-41,0,0,0,0,0,0,0,0,0,-1,1413,1065,0,0
196,-41,0,0,0,0,0,0,0,0,0,-1,1420,1065,0,0
203,-41,0,0,0,0,0,0,0,0,0,-1,1427,1065,0,0
210,-41,0,0,0,0,0,0,0,0,0,-1,1434,1065,0,0
217,-41,0,0,0,0,0,0,0,0,0,-1,1441,1065,0,0
224,-41,0,0,0,0,0,0,0,0,0,-1,1448,1065,0,0
231,-41,0,0,0,0,0,0,0,0,0,-1,1455,1065,0,0
238,-41,0,0,0,0,0,0,0,0,0,-1,1462,1065,0,0
245,-41,0,0,0,0,0,0,0,0,0,-1,1469,1065,0,0
252,-41,0,0,0,0,0,0,0,0,0,-1,1476,1065,0,0
259,-41,0,0,0,0,0,0,0,0,0,-1,1483,1065,0,0
266,-41,0,0,0,0,0,0,0,0,0,-1,1490,1065,0,0
273,-41,0,0,0,0,0,0,0,0,0,-1,1497,1065,0,0
280,-41,0,0,0,0,0,0,0,0,0,-1,1504,1065,0,0
287,-41,0,0,0,0,0,0,0,0,0,-1,1511,1065,0,0
294,-41,0,0,0,0,0,0,0,0,0,-1,1518,1065,0,0
301,-41,0,0,0,0,0,0,0,0,0,-1,1525,1065,0,0
308,-41,0,0,0,0,0,0,0,0,0,-1,1532,1065,0,0
315,-41,0,0,0,0,0,0,0,0,0,-1,1539,1065,0,0
322,-41,0,0,0,0,0,0,0,0,0,-1,1546,1065,0,0
329,-41,0,0,0,0,0,0,0,0,0,-1,1553,1065,0,0
336,-41,0,0,0,0,0,0,0,0,0,-1,1560,1065,0,0
343,-41,0,0,0,0,0,0,0,0,0,-1,1567,1065,0,0
350,-41,0,0,0,0,0,0,0,0,0,-1,1574,1065,0,0
357,-41,0,0,0,0,0,0,0,0,0,-1,1581,1065,0,0
364,-41,0,0,0,0,0,0,0,0,0,-1,1588,1065,0,0
371,-41,0,0,0,0,0,0,0,0,0,-1,1595,1065,0,0
378,-41,0,0,0,0,0,0,0,0,0,-1,1602,1065,0,0
385,-41,0,0,0,0,0,0,0,0,0,-1,1609,1065,0,0
392,-41,0,0,0,0,0,0,0,0,0,-1,1616,1065,0,0
399,-41,0,0,0,0,0,0,0,0,0,-1,1623,1065,0,0
406,-41,0,0,0,0,0,0,0,0,0,-1,1630,1065,0,0
413,-41,0,0,0,0,0,0,0,0,0,-1,1637,1065,0,0
420,-41,0,0,0,0,0,0,0,0,0,-1,1644,1065,0,0
427,-41,0,0,0,0,0,0,0,0,0,-1,1651,1065,0,0
434,-41,0,0,0,0,0,0,0,0,0,-1,1658,1065,0,0
441,-41,0,0,0,0,0,0,0,0,0,-1,1665,1065,0,0
448,-41,0,0,0,0,0,0,0,0,0,-1,1672,1065,0,0
455,-41,0,0,0,0,0,0,0,0,0,-1,1679,1065,0,0
462,-41,0,0,0,0,0,0,0,0,0,-1,1686,1065,0,0
469,-41,0,0,0,0,0,0,0,0,0,-1,1693,1065,0,0
476,-41,0,0,0,0,0,0,0,0,0,-1,1700,1065,0,0
483,-41,0,0,0,0,0,0,0,0,0,-1,1707,1065,0,0
490,-41,0,0,0,0,0,0,0,0,0,-1,1714,1065,0,0
497,-41,0,0,0,0,0,0,0,0,0,-1,1721,1065,0,0
504,-41,0,0,0,0,0,0,0,0,0,-1,1728,1065,0,0
511,-41,0,0,0,0,0,0,0,0,0,-1,1735,1065,0,0
518,-41,0,0,0,0,0,0,0,0,0,-1,1742,1065,0,0
525,-41,0,0,0,0,0,0,0,0,0,-1,1749,1065,0,0
532,-41,0,0,0,0,0,0,0,0,0,-1,1756,1065,0,0
539,-41,0,0,0,0,0,0,0,0,0,-1,1763,1065,0,0
546,-41,0,0,0,0,0,0,0,0,0,-1,1770,1065,0,0
553,-41,0,0,0,0,0,0,0,0,0,-1,1777,1065,0,0
560,-41,0,0,0,0,0,0,0,0,0,-1,1784,1065,0,0
567,-41,0,0,0,0,0,0,0,0,0,-1,1791,1065,0,0
574,-41,0,0,0,0,0,0,0,0,0,-1,1798,1065,0,0
581,-41,0,0,0,0,0,0,0,0,0,-1,1805,1065,0,0
588,-41,0,0,0,0,0,0,0,0,0,-1,1812,1065,0,0
595,-41,0,0,0,0,0,0,0,0,0,-1,1819,1065,0,0
602,-41,0,0,0,0,0,0,0,0,0,-1,1826,1065,0,0
609,-41,0,0,0,0,0,0,0,0,0,-1,1833,1065,0,0
616,-41,0,0,0,0,0,0,0,0,0,-1,1840,1065,0,0
623,-41,0,0,0,0,0,0,0,0,0,-1,1847,1065,0,0
630,-41,0,0,0,0,0,0,0,0,0,-1,1854,1065,0,0
637,-41,0,0,0,0,0,0,0,0,0,-1,1861,1065,0,0
644,-41,0,0,0,0,0,0,0,0,0,-1,1868,1065,0,0
651,-41,30.8483,2.77136,-0.00569697,0.00184786,-0.00115775,0.00202152,-0.00587063,-1.42191,0.00473373,0.0359085,1875,1065,30.8483,-2.77134
658,-41,30.6826,2.71338,-0.003821,0.00171555,-0.000606528,0.00178121,-0.00388667,-1.46295,0.00334677,0.0414934,1882,1065,30.6826,-2.71336
665,-41,30.6741,2.76575,-0.00256295,0.00146851,-0.000162058,0.00147502,-0.00256946,-1.53068,0.0023634,0.0425241,1889,1065,30.6741,-2.7658
672,-41,30.7906,2.87231,-0.00149961,0.0011412,0.000679888,0.00130596,-0.00166437,1.33304,0.00171908,0.0400467,1896,1065,30.7906,-2.8723
679,-41,30.8015,2.91907,-0.00067439,0.000643474,0.0017359,0.0018413,-0.00187221,0.966793,0.00214402,0.0408049,1903,1065,30.8016,-2.91913
686,-41,30.9305,3.06995,-0.000304726,6.22765e-05,0.00265938,0.00254448,-0.00278693,0.819844,0.00307915,0.0427084,1910,1065,30.9306,-3.0699
693,-41,31.0989,3.05054,-0.000115927,-0.000469233,0.00339448,0.00310649,-0.00369165,0.759401,0.00392976,0.0444828,1917,1065,31.0988,-3.05049
700,-41,30.9609,3.07483,-5.51691e-05,-0.000832967,0.00390781,0.00348304,-0.00437118,0.735802,0.00454429,0.040179,1924,1065,30.961,-3.07478
707,-41,30.849,2.92566,-2.59771e-05,-0.00100034,0.00416219,0.00367745,-0.00470376,0.727139,0.00485097,0.0265848,1931,1065,30.849,-2.9257
714,-41,30.8416,2.95068,-0.000170755,-0.00108992,0.00431191,0.003706,-0.00496667,0.732306,0.00502477,0.017173,1938,1065,30.8415,-2.95074
721,-41,30.9496,3.71533,-0.000459861,-0.0010363,0.00432538,0.00358689,-0.00508306,0.75213,0.00503038,0.0407528,1945,1065,30.9496,-3.71534
728,-41,30.4041,5.10645,0,0,0,0,0,0,0,-1,1952,1065,30.4041,-5.10639
735,-41,30.297,5.06189,-0.00151454,-0.000303518,0.00374425,0.00288386,-0.00470192,0.865563,0.00442138,0.0167128,1959,1065,30.297,-5.06185
742,-41,30.2462,5.03479,-0.00209857,0.000560846,0.00306933,0.00257612,-0.00411385,0.989806,0.00389632,0.0142801,1966,1065,30.2462,-5.03484
749,-41,30.2863,4.99084,-0.00257584,0.00185187,0.00284067,0.00323948,-0.00396345,1.11641,0.00416561,0.0142355,1973,1065,30.2863,-4.99085
756,-41,30.303,4.91125,-0.00311558,0.00268568,0.0024495,0.00358159,-0.00401149,1.22016,0.00438621,0.0137075,1980,1065,30.303,-4.91128
763,-41,30.2463,4.79529,-0.00389077,0.00539753,0.00178695,0.00572945,-0.00422269,1.38714,0.00576778,0.0106022,1987,1065,30.2463,-4.7953
770,-41,30.209,4.73047,-0.00491733,0.0083376,0.00117609,0.00844114,-0.00502087,1.48298,0.00785547,0.0125238,1994,1065,30.209,-4.73042
777,-41,30.1588,4.64929,-0.00595976,0.0123078,0.00120347,0.0123868,-0.00603871,1.50529,0.0108464,0.0150737,2001,1065,30.1589,-4.64929
784,-41,30.144,4.57825,-0.00698431,0.0168939,0.0017219,0.0170174,-0.00710784,1.49918,0.014315,0.0255493,2008,1065,30.144,-4.57821
791,-41,30.3958,4.3562,-0.00817309,0.0225275,0.00261973,0.0227495,-0.00839503,1.48628,0.018607,0.0433013,2015,1065,30.3957,-4.35621
798,-41,30.5737,4.18884,0,0,0,0,0,0,0,-1,2022,1065,30.5737,-4.1888
805,-41,29.6636,5.54846,0,0,0,0,0,0,0,-1,2029,1065,29.6635,-5.54843
812,-41,29.6555,5.96167,0,0,0,0,0,0,0,-1,2036,1065,29.6555,-5.96165
-700,-48,-22.377,-1.15393,0.126667,0.0140952,-0.0201407,0.130162,0.0106003,-0.171816,0.0834658,0.0448896,524,1072,-22.377,1.15388
-693,-48,-21.7465,-0.683472,0.092855,0.0130376,-0.0125733,0.0947888,0.0111038,-0.152604,0.0598357,0.0419959,531,1072,-21.7465,0.683457
-686,-48,-21.2311,-0.586182,0,0,0,0,0,0,0,-1,538,1072,-21.2311,0.586162
-679,-48,-21.088,-0.0797119,0.0445028,0.0117435,-0.0021921,0.0446489,0.0115974,-0.06652,0.0267516,0.0489235,545,1072,-21.088,0.0797281
-672,-48,-20.9296,0.411011,0,0,0,0,0,0,0,-1,552,1072,-20.9296,-0.41105
-665,-48,-20.887,0.696655,0.0150562,0.0101565,0.00314752,0.0165949,0.0086178,0.454703,0.00958344,0.0497051,559,1072,-20.8871,-0.696695
-658,-48,-21.0304,1.11108,0.00622636,0.00909965,0.00430123,0.0121978,0.0031282,0.946577,0.00731559,0.0476683,566,1072,-21.0304,-1.11113
-651,-48,-21.1398,1.60474,0.000649749,0.00785869,0.00461939,0.0101135,-0.00160505,1.1167,0.0073361,0.0320061,573,1072,-21.1398,-1.60473
-644,-48,-21.2213,1.99585,-0.00358985,0.00628325,0.00448227,0.00801455,-0.00532115,1.20219,0.00775154,0.0168186,580,1072,-21.2213,-1.99581
-637,-48,-21.2547,2.06348,-0.0071682,0.00545292,0.00308096,0.00616486,-0.00788013,1.34371,0.00812901,0.0175424,587,1072,-21.2547,-2.06343
-630,-48,-21.2844,2.20313,-0.00678654,0.00259161,0.000584665,0.00262792,-0.00682285,1.50877,0.00563272,0.0191756,594,1072,-21.2844,-2.20308
-623,-48,-21.3079,2.34863,-0.00522677,0.00143129,-0.00173713,0.00185727,-0.00565274,-1.33032,0.00451671,0.0111089,601,1072,-21.3079,-2.34859
-616,-48,-21.2905,2.46704,-0.00414221,0.000107853,-0.00412239,0.00262069,-0.00665505,-1.02338,0.00552162,0.010099,608,1072,-21.2905,-2.46702
-609,-48,-21.2697,2.58948,-0.00347909,-0.000983149,-0.00619382,0.00408717,-0.00854941,-0.884811,0.00744581,0.0116577,615,1072,-21.2696,-2.58945
-602,-48,-21.3007,2.71289,-0.00292837,-0.00182245,-0.00789426,0.00553819,-0.010289,-0.820364,0.00927405,0.0120524,622,1072,-21.3007,-2.71294
-595,-48,-21.4384,2.81909,0,0,0,0,0,0,0,-1,629,1072,-21.4384,-2.81913
-588,-48,-21.4798,1.96326,-0.0028079,-0.00275226,-0.00948263,0.00670259,-0.0122627,-0.786865,0.0111054,0.038307,636,1072,-21.4798,-1.96327
-581,-48,-21.6198,1.2207,-0.00266715,-0.00277575,-0.00931544,0.00659414,-0.0120371,-0.782484,0.0109087,0.0389481,643,1072,-21.6198,-1.2207
-574,-48,-21.5681,1.27588,-0.00257216,-0.00261647,-0.00894309,0.0063488,-0.0115374,-0.784159,0.0104705,0.0396743,650,1072,-21.5681,-1.27585
-567,-48,-21.5235,1.2749,-0.0023693,-0.00220497,-0.00800088,0.00571417,-0.0102884,-0.790533,0.00936408,0.0425479,657,1072,-21.5235,-1.27487
-560,-48,-21.7894,1.63452,-0.0019635,-0.0015816,-0.00642038,0.00465067,-0.00819577,-0.800264,0.00751044,0.043159,664,1072,-21.7894,-1.63448
-553,-48,-21.715,1.20398,-0.00137378,-0.000823792,-0.00415571,0.00306601,-0.00526359,-0.818436,0.00486456,0.0404637,671,1072,-21.715,-1.20398
-546,-48,-21.7338,0.930664,-0.000605448,-4.35974e-05,-0.00111432,0.000824665,-0.00147371,-0.908877,0.00134449,0.0394288,678,1072,-21.7339,-0.930619
-539,-48,-21.7747,0.688354,9.11791e-05,0.000494173,0.00192945,0.00223262,-0.00164727,0.837426,0.00224853,0.0406789,685,1072,-21.7747,-0.688309
-532,-48,-21.7206,0.751831,-0.000454833,8.72607e-05,0.00228865,0.00212086,-0.00248843,0.844339,0.002664,0.0402331,692,1072,-21.7207,-0.75188
-525,-48,0,0,0,0,0,0,0,0,0,-1,699,1072,0,0
-518,-48,0,0,0,0,0,0,0,0,0,-1,706,1072,0,0
-511,-48,0,0,0,0,0,0,0,0,0,-1,713,1072,0,0
-504,-48,0,0,0,0,0,0,0,0,0,-1,720,1072,0,0
-497,-48,0,0,0,0,0,0,0,0,0,-1,727,1072,0,0
-490,-48,0,0,0,0,0,0,0,0,0,-1,734,1072,0,0
-483,-48,0,0,0,0,0,0,0,0,0,-1,741,1072,0,0
-476,-48,0,0,0,0,0,0,0,0,0,-1,748,1072,0,0
-469,-48,0,0,0,0,0,0,0,0,0,-1,755,1072,0,0
-462,-48,0,0,0,0,0,0,0,0,0,-1,762,1072,0,0
-455,-48,0,0,0,0,0,0,0,0,0,-1,769,1072,0,0
-448,-48,0,0,0,0,0,0,0,0,0,-1,776,1072,0,0
-441,-48,0,0,0,0,0,0,0,0,0,-1,783,1072,0,0
-434,-48,0,0,0,0,0,0,0,0,0,-1,790,1072,0,0
-427,-48,0,0,0,0,0,0,0,0,0,-1,797,1072,0,0
-420,-48,0,0,0,0,0,0,0,0,0,-1,804,1072,0,0
-413,-48,0,0,0,0,0,0,0,0,0,-1,811,1072,0,0
-406,-48,0,0,0,0,0,0,0,0,0,-1,818,1072,0,0
-399,-48,0,0,0,0,0,0,0,0,0,-1,825,1072,0,0
-392,-48,0,0,0,0,0,0,0,0,0,-1,832,1072,0,0
-385,-48,0,0,0,0,0,0,0,0,0,-1,839,1072,0,0
-378,-48,0,0,0,0,0,0,0,0,0,-1,846,1072,0,0
-371,-48,0,0,0,0,0,0,0,0,0,-1,853,1072,0,0
-364,-48,0,0,0,0,0,0,0,0,0,-1,860,1072,0,0
-357,-48,0,0,0,0,0,0,0,0,0,-1,867,1072,0,0
-350,-48,0,0,0,0,0,0,0,0,0,-1,874,1072,0,0
-343,-48,0,0,0,0,0,0,0,0,0,-1,881,1072,0,0
-336,-48,0,0,0,0,0,0,0,0,0,-1,888,1072,0,0
-329,-48,0,0,0,0,0,0,0,0,0,-1,895,1072,0,0
-322,-48,0,0,0,0,0,0,0,0,0,-1,902,1072,0,0
-315,-48,0,0,0,0,0,0,0,0,0,-1,909,1072,0,0
-308,-48,0,0,0,0,0,0,0,0,0,-1,916,1072,0,0
-301,-48,0,0,0,0,0,0,0,0,0,-1,923,1072,0,0
-294,-48,0,0,0,0,0,0,0,0,0,-1,930,1072,0,0
-287,-48,0,0,0,0,0,0,0,0,0,-1,937,1072,0,0
-280,-48,0,0,0,0,0,0,0,0,0,-1,944,1072,0,0
-273,-48,0,0,0,0,0,0,0,0,0,-1,951,1072,0,0
-266,-48,0,0,0,0,0,0,0,0,0,-1,958,1072,0,0
-259,-48,0,0,0,0,0,0,0,0,0,-1,965,1072,0,0
-252,-48,0,0,0,0,0,0,0,0,0,-1,972,1072,0,0
-245,-48,0,0,0,0,0,0,0,0,0,-1,979,1072,0,0
-238,-48,0,0,0,0,0,0,0,0,0,-1,986,1072,0,0
-231,-48,0,0,0,0,0,0,0,0,0,-1,993,1072,0,0
-224,-48,0,0,0,0,0,0,0,0,0,-1,1000,1072,0,0
-217,-48,0,0,0,0,0,0,0,0,0,-1,1007,1072,0,0
-210,-48,0,0,0,0,0,0,0,0,0,-1,1014,1072,0,0
-203,-48,0,0,0,0,0,0,0,0,0,-1,1021,1072,0,0
-196,-48,0,0,0,0,0,0,0,0,0,-1,1028,1072,0,0
-189,-48,0,0,0,0,0,0,0,0,0,-1,1035,1072,0,0
-182,-48,0,0,0,0,0,0,0,0,0,-1,1042,1072,0,0
-175,-48,0,0,0,0,0,0,0,0,0,-1,1049,1072,0,0
-168,-48,0,0,0,0,0,0,0,0,0,-1,1056,1072,0,0
-161,-48,0,0,0,0,0,0,0,0,0,-1,1063,1072,0,0
-154,-48,0,0,0,0,0,0,0,0,0,-1,1070,1072,0,0
-147,-48,0,0,0,0,0,0,0,0,0,-1,1077,1072,0,0
-140,-48,0,0,0,0,0,0,0,0,0,-1,1084,1072,0,0
-133,-48,0,0,0,0,0,0,0,0,0,-1,1091,1072,0,0
-126,-48,0,0,0,0,0,0,0,0,0,-1,1098,1072,0,0
-119,-48,0,0,0,0,0,0,0,0,0,-1,1105,1072,0,0
-112,-48,0,0,0,0,0,0,0,0,0,-1,1112,1072,0,0
-105,-48,0,0,0,0,0,0,0,0,0,-1,1119,1072,0,0
-98,-48,0,0,0,0,0,0,0,0,0,-1,1126,1072,0,0
-91,-48,0,0,0,0,0,0,0,0,0,-1,1133,1072,0,0
-84,-48,0,0,0,0,0,0,0,0,0,-1,1140,1072,0,0
-77,-48,0,0,0,0,0,0,0,0,0,-1,1147,1072,0,0
-70,-48,0,0,0,0,0,0,0,0,0,-1,1154,1072,0,0
-63,-48,0,0,0,0,0,0,0,0,0,-1,1161,1072,0,0
-56,-48,0,0,0,0,0,0,0,0,0,-1,1168,1072,0,0
-49,-48,0,0,0,0,0,0,0,0,0,-1,1175,1072,0,0
-42,-48,0,0,0,0,0,0,0,0,0,-1,1182,1072,0,0
-35,-48,0,0,0,0,0,0,0,0,0,-1,1189,1072,0,0
-28,-48,0,0,0,0,0,0,0,0,0,-1,1196,1072,0,0
-21,-48,0,0,0,0,0,0,0,0,0,-1,1203,1072,0,0
-14,-48,0,0,0,0,0,0,0,0,0,-1,1210,1072,0,0
-7,-48,0,0,0,0,0,0,0,0,0,-1,1217,1072,0,0
0,-48,0,0,0,0,0,0,0,0,0,-1,1224,1072,0,0
7,-48,0,0,0,0,0,0,0,0,0,-1,1231,1072,0,0
14,-48,0,0,0,0,0,0,0,0,0,-1,1238,1072,0,0
21,-48,0,0,0,0,0,0,0,0,0,-1,1245,1072,0,0
28,-48,0,0,0,0,0,0,0,0,0,-1,1252,1072,0,0
35,-48,0,0,0,0,0,0,0,0,0,-1,1259,1072,0,0
42,-48,0,0,0,0,0,0,0,0,0,-1,1266,1072,0,0
49,-48,0,0,0,0,0,0,0,0,0,-1,1273,1072,0,0
56,-48,0,0,0,0,0,0,0,0,0,-1,1280,1072,0,0
63,-48,0,0,0,0,0,0,0,0,0,-1,1287,1072,0,0
70,-48,0,0,0,0,0,0,0,0,0,-1,1294,1072,0,0
77,-48,0,0,0,0,0,0,0,0,0,-1,1301,1072,0,0
84,-48,0,0,0,0,0,0,0,0,0,-1,1308,1072,0,0
91,-48,0,0,0,0,0,0,0,0,0,-1,1315,1072,0,0
98,-48,0,0,0,0,0,0,0,0,0,-1,1322,1072,0,0
105,-48,0,0,0,0,0,0,0,0,0,-1,1329,1072,0,0
112,-48,0,0,0,0,0,0,0,0,0,-1,1336,1072,0,0
119,-48,0,0,0,0,0,0,0,0,0,-1,1343,1072,0,0
126,-48,0,0,0,0,0,0,0,0,0,-1,1350,1072,0,0
133,-48,0,0,0,0,0,0,0,0,0,-1,1357,1072,0,0
140,-48,0,0,0,0,0,0,0,0,0,-1,1364,1072,0,0
147,-48,0,0,0,0,0,0,0,0,0,-1,1371,1072,0,0
154,-48,0,0,0,0,0,0,0,0,0,-1,1378,1072,0,0
161,-48,0,0,0,0,0,0,0,0,0,-1,1385,1072,0,0
168,-48,0,0,0,0,0,0,0,0,0,-1,1392,1072,0,0
175,-48,0,0,0,0,0,0,0,0,0,-1,1399,1072,0,0
182,-48,0,0,0,0,0,0,0,0,0,-1,1406,1072,0,0
189,-48,0,0,0,0,0,0,0,0,0,-1,1413,1072,0,0
196,-48,0,0,0,0,0,0,0,0,0,-1,1420,1072,0,0
203,-48,0,0,0,0,0,0,0,0,0,-1,1427,1072,0,0
210,-48,0,0,0,0,0,0,0,0,0,-1,1434,1072,0,0
217,-48,0,0,0,0,0,0,0,0,0,-1,1441,1072,0,0
224,-48,0,0,0,0,0,0,0,0,0,-1,1448,1072,0,0
231,-48,0,0,0,0,0,0,0,0,0,-1,1455,1072,0,0
238,-48,0,0,0,0,0,0,0,0,0,-1,1462,1072,0,0
245,-48,0,0,0,0,0,0,0,0,0,-1,1469,1072,0,0
252,-48,0,0,0,0,0,0,0,0,0,-1,1476,1072,0,0
259,-48,0,0,0,0,0,0,0,0,0,-1,1483,1072,0,0
266,-48,0,0,0,0,0,0,0,0,0,-1,1490,1072,0,0
273,-48,0,0,0,0,0,0,0,0,0,-1,1497,1072,0,0
280,-48,0,0,0,0,0,0,0,0,0,-1,1504,1072,0,0
287,-48,0,0,0,0,0,0,0,0,0,-1,1511,1072,0,0
294,-48,0,0,0,0,0,0,0,0,0,-1,1518,1072,0,0
301,-48,0,0,0,0,0,0,0,0,0,-1,1525,1072,0,0
308,-48,0,0,0,0,0,0,0,0,0,-1,1532,1072,0,0
315,-48,0,0,0,0,0,0,0,0,0,-1,1539,1072,0,0
322,-48,0,0,0,0,0,0,0,0,0,-1,1546,1072,0,0
329,-48,0,0,0,0,0,0,0,0,0,-1,1553,1072,0,0
336,-48,0,0,0,0,0,0,0,0,0,-1,1560,1072,0,0
343,-48,0,0,0,0,0,0,0,0,0,-1,1567,1072,0,0
350,-48,0,0,0,0,0,0,0,0,0,-1,1574,1072,0,0
357,-48,0,0,0,0,0,0,0,0,0,-1,1581,1072,0,0
364,-48,0,0,0,0,0,0,0,0,0,-1,1588,1072,0,0
371,-48,0,0,0,0,0,0,0,0,0,-1,1595,1072,0,0
378,-48,0,0,0,0,0,0,0,0,0,-1,1602,1072,0,0
385,-48,0,0,0,0,0,0,0,0,0,-1,1609,1072,0,0
392,-48,0,0,0,0,0,0,0,0,0,-1,1616,1072,0,0
399,-48,0,0,0,0,0,0,0,0,0,-1,1623,1072,0,0
406,-48,0,0,0,0,0,0,0,0,0,-1,1630,1072,0,0
413,-48,0,0,0,0,0,0,0,0,0,-1,1637,1072,0,0
420,-48,0,0,0,0,0,0,0,0,0,-1,1644,1072,0,0
427,-48,0,0,0,0,0,0,0,0,0,-1,1651,1072,0,0
434,-48,0,0,0,0,0,0,0,0,0,-1,1658,1072,0,0
441,-48,0,0,0,0,0,0,0,0,0,-1,1665,1072,0,0
448,-48,0,0,0,0,0,0,0,0,0,-1,1672,1072,0,0
455,-48,0,0,0,0,0,0,0,0,0,-1,1679,1072,0,0
462,-48,0,0,0,0,0,0,0,0,0,-1,1686,1072,0,0
469,-48,0,0,0,0,0,0,0,0,0,-1,1693,1072,0,0
476,-48,0,0,0,0,0,0,0,0,0,-1,1700,1072,0,0
483,-48,0,0,0,0,0,0,0,0,0,-1,1707,1072,0,0
490,-48,0,0,0,0,0,0,0,0,0,-1,1714,1072,0,0
497,-48,0,0,0,0,0,0,0,0,0,-1,1721,1072,0,0
504,-48,0,0,0,0,0,0,0,0,0,-1,1728,1072,0,0
511,-48,0,0,0,0,0,0,0,0,0,-1,1735,1072,0,0
518,-48,0,0,0,0,0,0,0,0,0,-1,1742,1072,0,0
525,-48,0,0,0,0,0,0,0,0,0,-1,1749,1072,0,0
532,-48,0,0,0,0,0,0,0,0,0,-1,1756,1072,0,0
539,-48,0,0,0,0,0,0,0,0,0,-1,1763,1072,0,0
546,-48,0,0,0,0,0,0,0,0,0,-1,1770,1072,0,0
553,-48,0,0,0,0,0,0,0,0,0,-1,1777,1072,0,0
560,-48,0,0,0,0,0,0,0,0,0,-1,1784,1072,0,0
567,-48,0,0,0,0,0,0,0,0,0,-1,1791,1072,0,0
574,-48,0,0,0,0,0,0,0,0,0,-1,1798,1072,0,0
581,-48,0,0,0,0,0,0,0,0,0,-1,1805,1072,0,0
588,-48,0,0,0,0,0,0,0,0,0,-1,1812,1072,0,0
595,-48,0,0,0,0,0,0,0,0,0,-1,1819,1072,0,0
602,-48,0,0,0,0,0,0,0,0,0,-1,1826,1072,0,0
609,-48,0,0,0,0,0,0,0,0,0,-1,1833,1072,0,0
616,-48,0,0,0,0,0,0,0,0,0,-1,1840,1072,0,0
623,-48,0,0,0,0,0,0,0,0,0,-1,1847,1072,0,0
630,-48,0,0,0,0,0,0,0,0,0,-1,1854,1072,0,0
637,-48,0,0,0,0,0,0,0,0,0,-1,1861,1072,0,0
644,-48,0,0,0,0,0,0,0,0,0,-1,1868,1072,0,0
651,-48,30.864,2.78906,-0.0053931,0.00209764,-0.0016202,0.00243306,-0.00572852,-1.36666,0.00483844,0.0339032,1875,1072,30.864,-2.78905
658,-48,30.8228,2.80408,-0.00348108,0.00186274,-0.000889729,0.00200699,-0.00362532,-1.41007,0.00329625,0.0381313,1882,1072,30.8227,-2.80409
665,-48,30.7377,2.78296,-0.00221858,0.00155354,-0.000295001,0.00157647,-0.00224152,-1.49322,0.00221544,0.0415567,1889,1072,30.7377,-2.7829
672,-48,30.6365,2.8197,-0.00117051,0.00116345,0.000668408,0.00134132,-0.00134837,1.31072,0.0015529,0.0389263,1896,1072,30.6365,-2.81965
679,-48,30.5613,2.87622,-0.000416834,0.000630075,0.00179976,0.00198096,-0.00176772,0.926917,0.00216547,0.0393726,1903,1072,30.5613,-2.87621
686,-48,30.9181,3.13904,-0.000146811,3.45857e-05,0.002761,0.00270637,-0.0028186,0.801817,0.00319006,0.0394011,1910,1072,30.9181,-3.13901
693,-48,31.0413,3.01563,-4.45624e-05,-0.000500204,0.00350407,0.00323908,-0.00378385,0.752936,0.00405876,0.0397203,1917,1072,31.0412,-3.01562
700,-48,30.887,2.93323,-6.25104e-05,-0.000878898,0.00402402,0.00357397,-0.00451538,0.734851,0.00468092,0.0358484,1924,1072,30.8869,-2.93327
707,-48,30.845,2.87268,-0.000103355,-0.0010481,0.00429477,0.00374494,-0.0048964,0.730624,0.00500382,0.0248985,1931,1072,30.8449,-2.87271
714,-48,30.8425,3.06494,-0.000294649,-0.00114131,0.00445336,0.00375545,-0.00519141,0.738011,0.0051876,0.0271865,1938,1072,30.8425,-3.06499
721,-48,30.8571,3.40076,0,0,0,0,0,0,0,-1,1945,1072,30.857,-3.40072
728,-48,30.3054,5.20752,0,0,0,0,0,0,0,-1,1952,1072,30.3054,-5.20755
735,-48,30.2352,5.13672,-0.00162047,-0.000404602,0.00384995,0.00288512,-0.00491019,0.863705,0.00455096,0.0184258,1959,1072,30.2352,-5.13669
742,-48,30.1595,5.05493,-0.00211496,0.000507412,0.00317921,0.00263521,-0.00424275,0.980984,0.00400698,0.01471,1966,1072,30.1596,-5.05493
749,-48,30.1876,4.97314,-0.00244433,0.0018594,0.00301173,0.00340903,-0.00399396,1.09559,0.00427856,0.0134209,1973,1072,30.1876,-4.9732
756,-48,30.1882,4.88049,-0.00277971,0.00286963,0.00276563,0.00399812,-0.0039082,1.18338,0.00456482,0.0127192,1980,1072,30.1883,-4.88054
763,-48,30.1478,4.78772,-0.00329927,0.00586189,0.0023096,0.00641121,-0.0038486,1.33729,0.00598478,0.0121609,1987,1072,30.1479,-4.78769
770,-48,30.142,4.703,-0.00401143,0.00913577,0.00196647,0.0094236,-0.00429925,1.42546,0.00810493,0.0126264,1994,1072,30.1419,-4.70303
777,-48,30.0759,4.58777,-0.00467227,0.0136062,0.00241675,0.0139204,-0.00498641,1.44154,0.0113148,0.0120107,2001,1072,30.0759,-4.58781
784,-48,30.0682,4.44189,-0.00531357,0.0188445,0.00345349,0.0193285,-0.00579757,1.43156,0.0151915,0.025289,2008,1072,30.0683,-4.44185
791,-48,30.1073,4.28894,-0.00613424,0.0253032,0.00500763,0.0260816,-0.00691263,1.41659,0.0200923,0.0423906,2015,1072,30.1073,-4.28899
798,-48,29.7554,4.54688,-0.0069717,0.0336061,0.00726899,0.0348689,-0.00823455,1.39878,0.026422,0.0442965,2022,1072,29.7554,-4.54689
805,-48,29.6699,5.11243,-0.00772979,0.0444737,0.0104156,0.046475,-0.00973116,1.38096,0.0346851,0.044457,2029,1072,29.67,-5.11244
812,-48,29.7129,5.48389,0,0,0,0,0,0,0,-1,2036,1072,29.713,-5.48384
-700,-55,-22.1846,-3.36938,0,0,0,0,0,0,0,-1,524,1079,-22.1846,3.36938
-693,-55,-21.0634,0.0523682,0,0,0,0,0,0,0,-1,531,1079,-21.0634,-0.0523844
-686,-55,-20.7499,-0.920654,0.0489156,0.0209824,0.000173732,0.0489167,0.0209814,0.00621925,0.028337,0.0464487,538,1079,-20.7499,0.92064
-679,-55,-20.1796,-0.130981,0.031799,0.018737,0.0035409,0.0326971,0.0178389,0.248405,0.0189038,0.0464588,545,1079,-20.1796,0.130979
-672,-55,-20.3437,0.808716,0,0,0,0,0,0,0,-1,552,1079,-20.3437,-0.808698
-665,-55,-20.5261,0.831177,0.00888484,0.0142473,0.00690105,0.0189697,0.00416247,0.970687,0.0115126,0.0452174,559,1079,-20.526,-0.831198
-658,-55,-20.9708,0.905762,0.00228481,0.0120037,0.00720133,0.0158318,-0.00154329,1.0822,0.0111047,0.0471739,566,1079,-20.9708,-0.905821
-651,-55,-21.1392,1.41357,-0.00166665,0.00980064,0.00678324,0.0129488,-0.00481484,1.13627,0.0106082,0.034138,573,1079,-21.1392,-1.41355
-644,-55,-21.1188,1.91064,-0.00476074,0.0075449,0.00604822,0.0100198,-0.00723568,1.18238,0.0100056,0.0180797,580,1079,-21.1188,-1.91067
-637,-55,-21.1417,2.02405,-0.00737295,0.00622973,0.0042143,0.00742955,-0.00857277,1.29343,0.0092468,0.0159312,587,1079,-21.1417,-2.02409
-630,-55,-21.1478,2.18384,-0.00655381,0.00281419,0.00140102,0.00301923,-0.00675885,1.42548,0.00578136,0.0179545,594,1079,-21.1478,-2.1838
-623,-55,-21.1722,2.35229,-0.00500199,0.0013669,-0.00108021,0.00154512,-0.00518021,-1.40728,0.00406754,0.0154524,601,1079,-21.1723,-2.3523
-616,-55,-21.1641,2.46521,-0.00403512,0.000132765,-0.00347602,0.00210167,-0.00600402,-1.05543,0.00485724,0.0141135,608,1079,-21.1641,-2.46523
-609,-55,-21.1598,2.62036,-0.00352323,-0.000915505,-0.00551108,0.00344385,-0.00788259,-0.901557,0.00670461,0.0143781,615,1079,-21.1598,-2.62037
-602,-55,-21.1661,2.75452,-0.00311572,-0.00166723,-0.00719156,0.00483646,-0.00961941,-0.835583,0.00849702,0.0134631,622,1079,-21.1661,-2.75454
-595,-55,-21.0378,2.953,0,0,0,0,0,0,0,-1,629,1079,-21.0378,-2.95296
-588,-55,-21.194,2.01648,-0.00305378,-0.00261885,-0.00870361,0.00587002,-0.0115426,-0.797888,0.0102295,0.0415608,636,1079,-21.194,-2.0165
-581,-55,-21.5677,1.21265,-0.00291064,-0.00273205,-0.00852805,0.00570718,-0.0113499,-0.790633,0.0100259,0.0436466,643,1079,-21.5677,-1.21264
-574,-55,-21.4668,1.43152,-0.00279582,-0.00270027,-0.00819434,0.00544643,-0.0109425,-0.788313,0.00963789,0.0397227,650,1079,-21.4668,-1.43154
-567,-55,-21.4139,1.5531,-0.00253147,-0.00245697,-0.00734822,0.00485409,-0.00984253,-0.787933,0.00864649,0.042088,657,1079,-21.4139,-1.55307
-560,-55,-21.9318,1.56128,-0.00204292,-0.00207707,-0.0059081,0.00384813,-0.00796813,-0.783953,0.00695897,0.0448234,664,1079,-21.9318,-1.56132
-553,-55,-21.6689,1.20972,-0.00134564,-0.00166026,-0.00381525,0.00231554,-0.00532144,-0.764794,0.00452162,0.0435234,671,1079,-21.6689,-1.20973
-546,-55,-21.7072,0.996338,-0.000430002,-0.00135188,-0.000965916,0.000179319,-0.0019612,-0.562775,0.00137116,0.0410965,678,1079,-21.7072,-0.996313
-539,-55,-21.7921,0.953857,0.000428214,-0.00138279,0.00198296,0.00170263,-0.00265721,0.571216,0.00253719,0.0412953,685,1079,-21.7921,-0.953907
-532,-55,-21.7922,1.13977,-0.000107356,-0.00263838,0.00256505,0.00148738,-0.00423311,0.556234,0.00342719,0.0394351,692,1079,-21.7922,-1.13981
-525,-55,0,0,0,0,0,0,0,0,0,-1,699,1079,0,0
-518,-55,0,0,0,0,0,0,0,0,0,-1,706,1079,0,0
-511,-55,0,0,0,0,0,0,0,0,0,-1,713,1079,0,0
-504,-55,0,0,0,0,0,0,0,0,0,-1,720,1079,0,0
-497,-55,0,0,0,0,0,0,0,0,0,-1,727,1079,0,0
-490,-55,0,0,0,0,0,0,0,0,0,-1,734,1079,0,0
-483,-55,0,0,0,0,0,0,0,0,0,-1,741,1079,0,0
-476,-55,0,0,0,0,0,0,0,0,0,-1,748,1079,0,0
-469,-55,0,0,0,0,0,0,0,0,0,-1,755,1079,0,0
-462,-55,0,0,0,0,0,0,0,0,0,-1,762,1079,0,0
-455,-55,0,0,0,0,0,0,0,0,0,-1,769,1079,0,0
-448,-55,0,0,0,0,0,0,0,0,0,-1,776,1079,0,0
-441,-55,0,0,0,0,0,0,0,0,0,-1,783,1079,0,0
-434,-55,0,0,0,0,0,0,0,0,0,-1,790,1079,0,0
-427,-55,0,0,0,0,0,0,0,0,0,-1,797,1079,0,0
-420,-55,0,0,0,0,0,0,0,0,0,-1,804,1079,0,0
-413,-55,0,0,0,0,0,0,0,0,0,-1,811,1079,0,0
-406,-55,0,0,0,0,0,0,0,0,0,-1,818,1079,0,0
-399,-55,0,0,0,0,0,0,0,0,0,-1,825,1079,0,0
-392,-55,0,0,0,0,0,0,0,0,0,-1,832,1079,0,0
-385,-55,0,0,0,0,0,0,0,0,0,-1,839,1079,0,0
-378,-55,0,0,0,0,0,0,0,0,0,-1,846,1079,0,0
-371,-55,0,0,0,0,0,0,0,0,0,-1,853,1079,0,0
-364,-55,0,0,0,0,0,0,0,0,0,-1,860,1079,0,0
-357,-55,0,0,0,0,0,0,0,0,0,-1,867,1079,0,0
-350,-55,0,0,0,0,0,0,0,0,0,-1,874,1079,0,0
-343,-55,0,0,0,0,0,0,0,0,0,-1,881,1079,0,0
-336,-55,0,0,0,0,0,0,0,0,0,-1,888,1079,0,0
-329,-55,0,0,0,0,0,0,0,0,0,-1,895,1079,0,0
-322,-55,0,0,0,0,0,0,0,0,0,-1,902,1079,0,0
-315,-55,0,0,0,0,0,0,0,0,0,-1,909,1079,0,0
-308,-55,0,0,0,0,0,0,0,0,0,-1,916,1079,0,0
-301,-55,0,0,0,0,0,0,0,0,0,-1,923,1079,0,0
-294,-55,0,0,0,0,0,0,0,0,0,-1,930,1079,0,0
-287,-55,0,0,0,0,0,0,0,0,0,-1,937,1079,0,0
-280,-55,0,0,0,0,0,0,0,0,0,-1,944,1079,0,0
-273,-55,0,0,0,0,0,0,0,0,0,-1,951,1079,0,0
-266,-55,0,0,0,0,0,0,0,0,0,-1,958,1079,0,0
-259,-55,0,0,0,0,0,0,0,0,0,-1,965,1079,0,0
-252,-55,0,0,0,0,0,0,0,0,0,-1,972,1079,0,0
-245,-55,0,0,0,0,0,0,0,0,0,-1,979,1079,0,0
-238,-55,0,0,0,0,0,0,0,0,0,-1,986,1079,0,0
-231,-55,0,0,0,0,0,0,0,0,0,-1,993,1079,0,0
-224,-55,0,0,0,0,0,0,0,0,0,-1,1000,1079,0,0
-217,-55,0,0,0,0,0,0,0,0,0,-1,1007,1079,0,0
-210,-55,0,0,0,0,0,0,0,0,0,-1,1014,1079,0,0
-203,-55,0,0,0,0,0,0,0,0,0,-1,1021,1079,0,0
-196,-55,0,0,0,0,0,0,0,0,0,-1,1028,1079,0,0
-189,-55,0,0,0,0,0,0,0,0,0,-1,1035,1079,0,0
-182,-55,0,0,0,0,0,0,0,0,0,-1,1042,1079,0,0
-175,-55,0,0,0,0,0,0,0,0,0,-1,1049,1079,0,0
-168,-55,0,0,0,0,0,0,0,0,0,-1,1056,1079,0,0
-161,-55,0,0,0,0,0,0,0,0,0,-1,1063,1079,0,0
-154,-55,0,0,0,0,0,0,0,0,0,-1,1070,1079,0,0
-147,-55,0,0,0,0,0,0,0,0,0,-1,1077,1079,0,0
-140,-55,0,0,0,0,0,0,0,0,0,-1,1084,1079,0,0
-133,-55,0,0,0,0,0,0,0,0,0,-1,1091,1079,0,0
-126,-55,0,0,0,0,0,0,0,0,0,-1,1098,1079,0,0
-119,-55,0,0,0,0,0,0,0,0,0,-1,1105,1079,0,0
-112,-55,0,0,0,0,0,0,0,0,0,-1,1112,1079,0,0
-105,-55,0,0,0,0,0,0,0,0,0,-1,1119,1079,0,0
-98,-55,0,0,0,0,0,0,0,0,0,-1,1126,1079,0,0
-91,-55,0,0,0,0,0,0,0,0,0,-1,1133,1079,0,0
-84,-55,0,0,0,0,0,0,0,0,0,-1,1140,1079,0,0
-77,-55,0,0,0,0,0,0,0,0,0,-1,1147,1079,0,0
-70,-55,0,0,0,0,0,0,0,0,0,-1,1154,1079,0,0
-63,-55,0,0,0,0,0,0,0,0,0,-1,1161,1079,0,0
-56,-55,0,0,0,0,0,0,0,0,0,-1,1168,1079,0,0
-49,-55,0,0,0,0,0,0,0,0,0,-1,1175,1079,0,0
-42,-55,0,0,0,0,0,0,0,0,0,-1,1182,1079,0,0
-35,-55,0,0,0,0,0,0,0,0,0,-1,1189,1079,0,0
-28,-55,0,0,0,0,0,0,0,0,0,-1,1196,1079,0,0
-21,-55,0,0,0,0,0,0,0,0,0,-1,1203,1079,0,0
-14,-55,0,0,0,0,0,0,0,0,0,-1,1210,1079,0,0
-7,-55,0,0,0,0,0,0,0,0,0,-1,1217,1079,0,0
0,-55,0,0,0,0,0,0,0,0,0,-1,1224,1079,0,0
7,-55,0,0,0,0,0,0,0,0,0,-1,1231,1079,0,0
14,-55,0,0,0,0,0,0,0,0,0,-1,1238,1079,0,0
21,-55,0,0,0,0,0,0,0,0,0,-1,1245,1079,0,0
28,-55,0,0,0,0,0,0,0,0,0,-1,1252,1079,0,0
35,-55,0,0,0,0,0,0,0,0,0,-1,1259,1079,0,0
42,-55,0,0,0,0,0,0,0,0,0,-1,1266,1079,0,0
49,-55,0,0,0,0,0,0,0,0,0,-1,1273,1079,0,0
56,-55,0,0,0,0,0,0,0,0,0,-1,1280,1079,0,0
63,-55,0,0,0,0,0,0,0,0,0,-1,1287,1079,0,0
70,-55,0,0,0,0,0,0,0,0,0,-1,1294,1079,0,0
77,-55,0,0,0,0,0,0,0,0,0,-1,1301,1079,0,0
84,-55,0,0,0,0,0,0,0,0,0,-1,1308,1079,0,0
91,-55,0,0,0,0,0,0,0,0,0,-1,1315,1079,0,0
98,-55,0,0,0,0,0,0,0,0,0,-1,1322,1079,0,0
105,-55,0,0,0,0,0,0,0,0,0,-1,1329,1079,0,0
112,-55,0,0,0,0,0,0,0,0,0,-1,1336,1079,0,0
119,-55,0,0,0,0,0,0,0,0,0,-1,1343,1079,0,0
126,-55,0,0,0,0,0,0,0,0,0,-1,1350,1079,0,0
133,-55,0,0,0,0,0,0,0,0,0,-1,1357,1079,0,0
140,-55,0,0,0,0,0,0,0,0,0,-1,1364,1079,0,0
147,-55,0,0,0,0,0,0,0,0,0,-1,1371,1079,0,0
154,-55,0,0,0,0,0,0,0,0,0,-1,1378,1079,0,0
161,-55,0,0,0,0,0,0,0,0,0,-1,1385,1079,0,0
168,-55,0,0,0,0,0,0,0,0,0,-1,1392,1079,0,0
175,-55,0,0,0,0,0,0,0,0,0,-1,1399,1079,0,0
182,-55,0,0,0,0,0,0,0,0,0,-1,1406,1079,0,0
189,-55,0,0,0,0,0,0,0,0,0,-1,1413,1079,0,0
196,-55,0,0,0,0,0,0,0,0,0,-1,1420,1079,0,0
203,-55,0,0,0,0,0,0,0,0,0,-1,1427,1079,0,0
210,-55,0,0,0,0,0,0,0,0,0,-1,1434,1079,0,0
217,-55,0,0,0,0,0,0,0,0,0,-1,1441,1079,0,0
224,-55,0,0,0,0,0,0,0,0,0,-1,1448,1079,0,0
231,-55,0,0,0,0,0,0,0,0,0,-1,1455,1079,0,0
238,-55,0,0,0,0,0,0,0,0,0,-1,1462,1079,0,0
245,-55,0,0,0,0,0,0,0,0,0,-1,1469,1079,0,0
252,-55,0,0,0,0,0,0,0,0,0,-1,1476,1079,0,0
259,-55,0,0,0,0,0,0,0,0,0,-1,1483,1079,0,0
266,-55,0,0,0,0,0,0,0,0,0,-1,1490,1079,0,0
273,-55,0,0,0,0,0,0,0,0,0,-1,1497,1079,0,0
280,-55,0,0,0,0,0,0,0,0,0,-1,1504,1079,0,0
287,-55,0,0,0,0,0,0,0,0,0,-1,1511,1079,0,0
294,-55,0,0,0,0,0,0,0,0,0,-1,1518,1079,0,0
301,-55,0,0,0,0,0,0,0,0,0,-1,1525,1079,0,0
308,-55,0,0,0,0,0,0,0,0,0,-1,1532,1079,0,0
315,-55,0,0,0,0,0,0,0,0,0,-1,1539,1079,0,0
322,-55,0,0,0,0,0,0,0,0,0,-1,1546,1079,0,0
329,-55,0,0,0,0,0,0,0,0,0,-1,1553,1079,0,0
336,-55,0,0,0,0,0,0,0,0,0,-1,1560,1079,0,0
343,-55,0,0,0,0,0,0,0,0,0,-1,1567,1079,0,0
350,-55,0,0,0,0,0,0,0,0,0,-1,1574,1079,0,0
357,-55,0,0,0,0,0,0,0,0,0,-1,1581,1079,0,0
364,-55,0,0,0,0,0,0,0,0,0,-1,1588,1079,0,0
371,-55,0,0,0,0,0,0,0,0,0,-1,1595,1079,0,0
378,-55,0,0,0,0,0,0,0,0,0,-1,1602,1079,0,0
385,-55,0,0,0,0,0,0,0,0,0,-1,1609,1079,0,0
392,-55,0,0,0,0,0,0,0,0,0,-1,1616,1079,0,0
399,-55,0,0,0,0,0,0,0,0,0,-1,1623,1079,0,0
406,-55,0,0,0,0,0,0,0,0,0,-1,1630,1079,0,0
413,-55,0,0,0,0,0,0,0,0,0,-1,1637,1079,0,0
420,-55,0,0,0,0,0,0,0,0,0,-1,1644,1079,0,0
427,-55,0,0,0,0,0,0,0,0,0,-1,1651,1079,0,0
434,-55,0,0,0,0,0,0,0,0,0,-1,1658,1079,0,0
441,-55,0,0,0,0,0,0,0,0,0,-1,1665,1079,0,0
448,-55,0,0,0,0,0,0,0,0,0,-1,1672,1079,0,0
455,-55,0,0,0,0,0,0,0,0,0,-1,1679,1079,0,0
462,-55,0,0,0,0,0,0,0,0,0,-1,1686,1079,0,0
469,-55,0,0,0,0,0,0,0,0,0,-1,1693,1079,0,0
476,-55,0,0,0,0,0,0,0,0,0,-1,1700,1079,0,0
483,-55,0,0,0,0,0,0,0,0,0,-1,1707,1079,0,0
490,-55,0,0,0,0,0,0,0,0,0,-1,1714,1079,0,0
497,-55,0,0,0,0,0,0,0,0,0,-1,1721,1079,0,0
504,-55,0,0,0,0,0,0,0,0,0,-1,1728,1079,0,0
511,-55,0,0,0,0,0,0,0,0,0,-1,1735,1079,0,0
518,-55,0,0,0,0,0,0,0,0,0,-1,1742,1079,0,0
525,-55,0,0,0,0,0,0,0,0,0,-1,1749,1079,0,0
532,-55,0,0,0,0,0,0,0,0,0,-1,1756,1079,0,0
539,-55,0,0,0,0,0,0,0,0,0,-1,1763,1079,0,0
546,-55,0,0,0,0,0,0,0,0,0,-1,1770,1079,0,0
553,-55,0,0,0,0,0,0,0,0,0,-1,1777,1079,0,0
560,-55,0,0,0,0,0,0,0,0,0,-1,1784,1079,0,0
567,-55,0,0,0,0,0,0,0,0,0,-1,1791,1079,0,0
574,-55,0,0,0,0,0,0,0,0,0,-1,1798,1079,0,0
581,-55,0,0,0,0,0,0,0,0,0,-1,1805,1079,0,0
588,-55,0,0,0,0,0,0,0,0,0,-1,1812,1079,0,0
595,-55,0,0,0,0,0,0,0,0,0,-1,1819,1079,0,0
602,-55,0,0,0,0,0,0,0,0,0,-1,1826,1079,0,0
609,-55,0,0,0,0,0,0,0,0,0,-1,1833,1079,0,0
616,-55,0,0,0,0,0,0,0,0,0,-1,1840,1079,0,0
623,-55,0,0,0,0,0,0,0,0,0,-1,1847,1079,0,0
630,-55,0,0,0,0,0,0,0,0,0,-1,1854,1079,0,0
637,-55,0,0,0,0,0,0,0,0,0,-1,1861,1079,0,0
644,-55,0,0,0,0,0,0,0,0,0,-1,1868,1079,0,0
651,-55,30.9203,2.95862,-0.00422261,0.00264547,-0.00232479,0.00335839,-0.00493554,-1.27324,0.00481728,0.0371103,1875,1079,30.9203,-2.95864
658,-55,30.9399,2.90344,-0.00262928,0.0023946,-0.00138261,0.00274996,-0.00298465,-1.31922,0.0033118,0.037237,1882,1079,30.94,-2.90345
665,-55,30.8171,2.84387,-0.00157677,0.00205097,-0.000580114,0.00214147,-0.00166727,-1.41603,0.00220466,0.0418442,1889,1079,30.8171,-2.84391
672,-55,30.7488,2.88574,-0.00068998,0.00157473,0.000543126,0.00169825,-0.000813496,1.34718,0.00147984,0.0388897,1896,1079,30.7488,-2.88571
679,-55,30.6816,2.88318,-0.000120342,0.000960945,0.00177559,0.00227638,-0.00143578,0.933182,0.00216146,0.0357918,1903,1079,30.6817,-2.88323
686,-55,30.8297,2.79956,-1.05565e-06,0.000298292,0.00278817,0.0029408,-0.00264356,0.812213,0.00322565,0.0391036,1910,1079,30.8298,-2.79955
693,-55,30.8942,2.98364,-5.48501e-06,-0.000287912,0.00355056,0.00340667,-0.00370006,0.765523,0.00410424,0.0392084,1917,1079,30.8942,-2.98367
700,-55,30.8726,2.95813,-0.000112313,-0.00071095,0.00407849,0.00367782,-0.00450109,0.748769,0.00473006,0.0343943,1924,1079,30.8725,-2.95817
707,-55,30.8457,2.91858,-0.000224832,-0.000924395,0.00437309,0.00381244,-0.00496167,0.745491,0.0050802,0.0251331,1931,1079,30.8457,-2.91855
714,-55,30.85,3.15552,-0.000459146,-0.00106329,0.00455058,0.00379937,-0.00532181,0.752256,0.00529051,0.0312332,1938,1079,30.85,-3.15556
721,-55,30.9337,3.52856,0,0,0,0,0,0,0,-1,1945,1079,30.9337,-3.52859
728,-55,30.1422,5.25781,0,0,0,0,0,0,0,-1,1952,1079,30.1422,-5.25784
735,-55,30.0951,5.15527,-0.00173867,-0.000427558,0.00391436,0.00288576,-0.00505199,0.868365,0.0046394,0.0181912,1959,1079,30.0951,-5.15526
742,-55,30.0936,5.06897,-0.0021306,0.000514381,0.00326739,0.00271678,-0.004333,0.977697,0.00410569,0.0166018,1966,1079,30.0936,-5.06901
749,-55,30.1062,4.96375,-0.00234342,0.00187328,0.00313131,0.00353987,-0.00401002,1.08169,0.00436175,0.0122365,1973,1079,30.1062,-4.96374
756,-55,30.0719,4.86157,-0.00252197,0.00308206,0.00293921,0.00434086,-0.00378077,1.16615,0.00469275,0.0112159,1980,1079,30.0719,-4.86159
763,-55,30.035,4.78833,-0.00280093,0.00638425,0.00256741,0.00705317,-0.00346984,1.31592,0.00619177,0.0144439,1987,1079,30.035,-4.78829
770,-55,30.0266,4.66907,-0.00322263,0.0100259,0.0023363,0.0104258,-0.00362255,1.40126,0.00842191,0.0149913,1994,1079,30.0266,-4.66906
777,-55,30.0024,4.54761,-0.00353933,0.015008,0.00292478,0.0154583,-0.00398962,1.41804,0.0118612,0.0128944,2001,1079,30.0025,-4.54761
784,-55,29.9551,4.43054,-0.00383995,0.0209387,0.00408091,0.0215935,-0.00449476,1.4117,0.0161044,0.0312706,2008,1079,29.955,-4.4305
791,-55,30.0264,4.19324,0,0,0,0,0,0,0,-1,2015,1079,30.0264,-4.19329
798,-55,29.4675,4.15234,-0.0047406,0.03778,0.0080809,0.039264,-0.00622455,1.38918,0.0284785,0.0484911,2022,1079,29.4676,-4.15236
805,-55,29.2266,5.04248,-0.00506277,0.0500782,0.0112399,0.0522813,-0.00726589,1.37724,0.0375115,0.0498618,2029,1079,29.2266,-5.04246
812,-55,29.6765,4.99133,0,0,0,0,0,0,0,-1,2036,1079,29.6764,-4.99132
-700,-62,-21.4163,-2.99219,0,0,0,0,0,0,0,-1,524,1086,-21.4163,2.99215
-693,-62,-20.6448,-1.75586,0.0441864,0.0311958,0.00305506,0.044869,0.0305132,0.219823,0.0264591,0.0469305,531,1086,-20.6448,1.75588
-686,-62,-19.8764,-0.52771,0.0283451,0.0267069,0.00700286,0.0345766,0.0204754,0.727178,0.0200756,0.0445609,538,1086,-19.8764,0.527652
-679,-62,-19.3024,0.1875,0.0164334,0.0227106,0.00927561,0.0293642,0.00977977,0.948537,0.0172656,0.0448685,545,1086,-19.3024,-0.187502
-672,-62,-20.4933,0.271851,0.00768468,0.019087,0.0103709,0.0252205,0.00155118,1.03671,0.0163212,0.0443196,552,1086,-20.4933,-0.271884
-665,-62,-20.7076,0.467285,0.00161673,0.0157797,0.0105329,0.0213903,-0.00399389,1.08135,0.0157611,0.0471721,559,1086,-20.7076,-0.467341
-658,-62,-20.8806,0.834106,-0.00219285,0.012774,0.00993531,0.0177289,-0.00714775,1.10818,0.0147893,0.0464912,566,1086,-20.8806,-0.834144
-651,-62,-21.0065,1.42334,-0.00413941,0.0100655,0.00876339,0.0142432,-0.00831711,1.12594,0.0131741,0.0362327,573,1086,-21.0065,-1.42336
-644,-62,-20.9884,1.85083,-0.00581796,0.00750129,0.00743648,0.0108242,-0.00914091,1.15057,0.0115405,0.0125022,580,1086,-20.9884,-1.85085
-637,-62,-21.0052,2.02747,-0.0071451,0.00599998,0.00518962,0.00780184,-0.00894696,1.23662,0.00967745,0.0112402,587,1086,-21.0052,-2.02744
-630,-62,-21.0193,2.17664,-0.00581873,0.0023733,0.00210256,0.00288142,-0.00632685,1.33367,0.00543904,0.0129995,594,1086,-21.0193,-2.17666
-623,-62,-21.015,2.34351,-0.00440233,0.00105391,-0.00042798,0.00108727,-0.00443569,-1.49299,0.00337838,0.0148733,601,1086,-21.015,-2.34347
-616,-62,-21.0077,2.49536,-0.00359041,-6.8631e-05,-0.00280841,0.00148528,-0.00514433,-1.06542,0.00401724,0.0146306,608,1086,-21.0077,-2.49542
-609,-62,-21.0085,2.66187,-0.00323459,-0.000991746,-0.00478626,0.00280271,-0.00702904,-0.900473,0.00584857,0.013958,615,1086,-21.0085,-2.66189
-602,-62,-20.9736,2.79675,-0.00297013,-0.00161463,-0.00644101,0.00418419,-0.00876895,-0.837817,0.00763305,0.0142438,622,1086,-20.9736,-2.79673
-595,-62,-20.8174,3.09839,0,0,0,0,0,0,0,-1,629,1086,-20.8175,-3.09845
-588,-62,-21.0897,2.28479,-0.00296505,-0.00248102,-0.00785546,0.00513616,-0.0105822,-0.800797,0.0092548,0.0401311,636,1086,-21.0897,-2.2848
-581,-62,-21.6165,1.48853,-0.0028347,-0.00261883,-0.00766882,0.00494281,-0.0103963,-0.792435,0.00904071,0.0449833,643,1086,-21.6165,-1.48854
-574,-62,-21.6373,1.54785,-0.00274921,-0.00265979,-0.00739115,0.00468678,-0.0100958,-0.788423,0.00872309,0.036899,650,1086,-21.6373,-1.5478
-567,-62,-21.6442,1.77039,-0.00251416,-0.00249668,-0.00666353,0.00415812,-0.00916895,-0.786054,0.00787359,0.0408537,657,1086,-21.6442,-1.77043
-560,-62,-21.8004,1.49377,-0.00208025,-0.00225049,-0.00539997,0.00323527,-0.00756601,-0.777517,0.00640103,0.0422009,664,1086,-21.8004,-1.49377
-553,-62,-21.5447,1.38049,-0.00147669,-0.00204006,-0.00353268,0.00178552,-0.00530227,-0.745614,0.00425673,0.0396583,671,1086,-21.5447,-1.38047
-546,-62,-21.5439,1.09875,-0.000672948,-0.00204809,-0.000943791,-0.00019283,-0.0025282,-0.470593,0.00162501,0.0351406,678,1086,-21.544,-1.09878
-539,-62,-21.6144,1.05249,0.000112179,-0.00254215,0.00186577,0.00107466,-0.00350462,0.476256,0.00276514,0.0393276,685,1086,-21.6144,-1.0525
-532,-62,-21.6659,1.2207,-0.000510108,-0.00448086,0.00269461,0.000851548,-0.00584251,0.4679,0.00420768,0.0406514,692,1086,-21.6659,-1.22073
-525,-62,0,0,0,0,0,0,0,0,0,-1,699,1086,0,0
-518,-62,0,0,0,0,0,0,0,0,0,-1,706,1086,0,0
-511,-62,0,0,0,0,0,0,0,0,0,-1,713,1086,0,0
-504,-62,0,0,0,0,0,0,0,0,0,-1,720,1086,0,0
-497,-62,0,0,0,0,0,0,0,0,0,-1,727,1086,0,0
-490,-62,0,0,0,0,0,0,0,0,0,-1,734,1086,0,0
-483,-62,0,0,0,0,0,0,0,0,0,-1,741,1086,0,0
-476,-62,0,0,0,0,0,0,0,0,0,-1,748,1086,0,0
-469,-62,0,0,0,0,0,0,0,0,0,-1,755,1086,0,0
-462,-62,0,0,0,0,0,0,0,0,0,-1,762,1086,0,0
-455,-62,0,0,0,0,0,0,0,0,0,-1,769,1086,0,0
-448,-62,0,0,0,0,0,0,0,0,0,-1,776,1086,0,0
-441,-62,0,0,0,0,0,0,0,0,0,-1,783,1086,0,0
-434,-62,0,0,0,0,0,0,0,0,0,-1,790,1086,0,0
-427,-62,0,0,0,0,0,0,0,0,0,-1,797,1086,0,0
-420,-62,0,0,0,0,0,0,0,0,0,-1,804,1086,0,0
-413,-62,0,0,0,0,0,0,0,0,0,-1,811,1086,0,0
-406,-62,0,0,0,0,0,0,0,0,0,-1,818,1086,0,0
-399,-62,0,0,0,0,0,0,0,0,0,-1,825,1086,0,0
-392,-62,0,0,0,0,0,0,0,0,0,-1,832,1086,0,0
-385,-62,0,0,0,0,0,0,0,0,0,-1,839,1086,0,0
-378,-62,0,0,0,0,0,0,0,0,0,-1,846,1086,0,0
-371,-62,0,0,0,0,0,0,0,0,0,-1,853,1086,0,0
-364,-62,0,0,0,0,0,0,0,0,0,-1,860,1086,0,0
-357,-62,0,0,0,0,0,0,0,0,0,-1,867,1086,0,0
-350,-62,0,0,0,0,0,0,0,0,0,-1,874,1086,0,0
-343,-62,0,0,0,0,0,0,0,0,0,-1,881,1086,0,0
-336,-62,0,0,0,0,0,0,0,0,0,-1,888,1086,0,0
-329,-62,0,0,0,0,0,0,0,0,0,-1,895,1086,0,0
-322,-62,0,0,0,0,0,0,0,0,0,-1,902,1086,0,0
-315,-62,0,0,0,0,0,0,0,0,0,-1,909,1086,0,0
-308,-62,0,0,0,0,0,0,0,0,0,-1,916,1086,0,0
-301,-62,0,0,0,0,0,0,0,0,0,-1,923,1086,0,0
-294,-62,0,0,0,0,0,0,0,0,0,-1,930,1086,0,0
-287,-62,0,0,0,0,0,0,0,0,0,-1,937,1086,0,0
-280,-62,0,0,0,0,0,0,0,0,0,-1,944,1086,0,0
-273,-62,0,0,0,0,0,0,0,0,0,-1,951,1086,0,0
-266,-62,0,0,0,0,0,0,0,0,0,-1,958,1086,0,0
-259,-62,0,0,0,0,0,0,0,0,0,-1,965,1086,0,0
-252,-62,0,0,0,0,0,0,0,0,0,-1,972,1086,0,0
-245,-62,0,0,0,0,0,0,0,0,0,-1,979,1086,0,0
-238,-62,0,0,0,0,0,0,0,0,0,-1,986,1086,0,0
-231,-62,0,0,0,0,0,0,0,0,0,-1,993,1086,0,0
-224,-62,0,0,0,0,0,0,0,0,0,-1,1000,1086,0,0
-217,-62,0,0,0,0,0,0,0,0,0,-1,1007,1086,0,0
-210,-62,0,0,0,0,0,0,0,0,0,-1,1014,1086,0,0
-203,-62,0,0,0,0,0,0,0,0,0,-1,1021,1086,0,0
-196,-62,0,0,0,0,0,0,0,0,0,-1,1028,1086,0,0
-189,-62,0,0,0,0,0,0,0,0,0,-1,1035,1086,0,0
-182,-62,0,0,0,0,0,0,0,0,0,-1,1042,1086,0,0
-175,-62,0,0,0,0,0,0,0,0,0,-1,1049,1086,0,0
-168,-62,0,0,0,0,0,0,0,0,0,-1,1056,1086,0,0
-161,-62,0,0,0,0,0,0,0,0,0,-1,1063,1086,0,0
-154,-62,0,0,0,0,0,0,0,0,0,-1,1070,1086,0,0
-147,-62,0,0,0,0,0,0,0,0,0,-1,1077,1086,0,0
-140,-62,0,0,0,0,0,0,0,0,0,-1,1084,1086,0,0
-133,-62,0,0,0,0,0,0,0,0,0,-1,1091,1086,0,0
-126,-62,0,0,0,0,0,0,0,0,0,-1,1098,1086,0,0
-119,-62,0,0,0,0,0,0,0,0,0,-1,1105,1086,0,0
-112,-62,0,0,0,0,0,0,0,0,0,-1,1112,1086,0,0
-105,-62,0,0,0,0,0,0,0,0,0,-1,1119,1086,0,0
-98,-62,0,0,0,0,0,0,0,0,0,-1,1126,1086,0,0
-91,-62,0,0,0,0,0,0,0,0,0,-1,1133,1086,0,0
-84,-62,0,0,0,0,0,0,0,0,0,-1,1140,1086,0,0
-77,-62,0,0,0,0,0,0,0,0,0,-1,1147,1086,0,0
-70,-62,0,0,0,0,0,0,0,0,0,-1,1154,1086,0,0
-63,-62,0,0,0,0,0,0,0,0,0,-1,1161,1086,0,0
-56,-62,0,0,0,0,0,0,0,0,0,-1,1168,1086,0,0
-49,-62,0,0,0,0,0,0,0,0,0,-1,1175,1086,0,0
-42,-62,0,0,0,0,0,0,0,0,0,-1,1182,1086,0,0
-35,-62,0,0,0,0,0,0,0,0,0,-1,1189,1086,0,0
-28,-62,0,0,0,0,0,0,0,0,0,-1,1196,1086,0,0
-21,-62,0,0,0,0,0,0,0,0,0,-1,1203,1086,0,0
-14,-62,0,0,0,0,0,0,0,0,0,-1,1210,1086,0,0
-7,-62,0,0,0,0,0,0,0,0,0,-1,1217,1086,0,0
0,-62,0,0,0,0,0,0,0,0,0,-1,1224,1086,0,0
7,-62,0,0,0,0,0,0,0,0,0,-1,1231,1086,0,0
14,-62,0,0,0,0,0,0,0,0,0,-1,1238,1086,0,0
21,-62,0,0,0,0,0,0,0,0,0,-1,1245,1086,0,0
28,-62,0,0,0,0,0,0,0,0,0,-1,1252,1086,0,0
35,-62,0,0,0,0,0,0,0,0,0,-1,1259,1086,0,0
42,-62,0,0,0,0,0,0,0,0,0,-1,1266,1086,0,0
49,-62,0,0,0,0,0,0,0,0,0,-1,1273,1086,0,0
56,-62,0,0,0,0,0,0,0,0,0,-1,1280,1086,0,0
63,-62,0,0,0,0,0,0,0,0,0,-1,1287,1086,0,0
70,-62,0,0,0,0,0,0,0,0,0,-1,1294,1086,0,0
77,-62,0,0,0,0,0,0,0,0,0,-1,1301,1086,0,0
84,-62,0,0,0,0,0,0,0,0,0,-1,1308,1086,0,0
91,-62,0,0,0,0,0,0,0,0,0,-1,1315,1086,0,0
98,-62,0,0,0,0,0,0,0,0,0,-1,1322,1086,0,0
105,-62,0,0,0,0,0,0,0,0,0,-1,1329,1086,0,0
112,-62,0,0,0,0,0,0,0,0,0,-1,1336,1086,0,0
119,-62,0,0,0,0,0,0,0,0,0,-1,1343,1086,0,0
126,-62,0,0,0,0,0,0,0,0,0,-1,1350,1086,0,0
133,-62,0,0,0,0,0,0,0,0,0,-1,1357,1086,0,0
140,-62,0,0,0,0,0,0,0,0,0,-1,1364,1086,0,0
147,-62,0,0,0,0,0,0,0,0,0,-1,1371,1086,0,0
154,-62,0,0,0,0,0,0,0,0,0,-1,1378,1086,0,0
161,-62,0,0,0,0,0,0,0,0,0,-1,1385,1086,0,0
168,-62,0,0,0,0,0,0,0,0,0,-1,1392,1086,0,0
175,-62,0,0,0,0,0,0,0,0,0,-1,1399,1086,0,0
182,-62,0,0,0,0,0,0,0,0,0,-1,1406,1086,0,0
189,-62,0,0,0,0,0,0,0,0,0,-1,1413,1086,0,0
196,-62,0,0,0,0,0,0,0,0,0,-1,1420,1086,0,0
203,-62,0,0,0,0,0,0,0,0,0,-1,1427,1086,0,0
210,-62,0,0,0,0,0,0,0,0,0,-1,1434,1086,0,0
217,-62,0,0,0,0,0,0,0,0,0,-1,1441,1086,0,0
224,-62,0,0,0,0,0,0,0,0,0,-1,1448,1086,0,0
231,-62,0,0,0,0,0,0,0,0,0,-1,1455,1086,0,0
238,-62,0,0,0,0,0,0,0,0,0,-1,1462,1086,0,0
245,-62,0,0,0,0,0,0,0,0,0,-1,1469,1086,0,0
252,-62,0,0,0,0,0,0,0,0,0,-1,1476,1086,0,0
259,-62,0,0,0,0,0,0,0,0,0,-1,1483,1086,0,0
266,-62,0,0,0,0,0,0,0,0,0,-1,1490,1086,0,0
273,-62,0,0,0,0,0,0,0,0,0,-1,1497,1086,0,0
280,-62,0,0,0,0,0,0,0,0,0,-1,1504,1086,0,0
287,-62,0,0,0,0,0,0,0,0,0,-1,1511,1086,0,0
294,-62,0,0,0,0,0,0,0,0,0,-1,1518,1086,0,0
301,-62,0,0,0,0,0,0,0,0,0,-1,1525,1086,0,0
308,-62,0,0,0,0,0,0,0,0,0,-1,1532,1086,0,0
315,-62,0,0,0,0,0,0,0,0,0,-1,1539,1086,0,0
322,-62,0,0,0,0,0,0,0,0,0,-1,1546,1086,0,0
329,-62,0,0,0,0,0,0,0,0,0,-1,1553,1086,0,0
336,-62,0,0,0,0,0,0,0,0,0,-1,1560,1086,0,0
343,-62,0,0,0,0,0,0,0,0,0,-1,1567,1086,0,0
350,-62,0,0,0,0,0,0,0,0,0,-1,1574,1086,0,0
357,-62,0,0,0,0,0,0,0,0,0,-1,1581,1086,0,0
364,-62,0,0,0,0,0,0,0,0,0,-1,1588,1086,0,0
371,-62,0,0,0,0,0,0,0,0,0,-1,1595,1086,0,0
378,-62,0,0,0,0,0,0,0,0,0,-1,1602,1086,0,0
385,-62,0,0,0,0,0,0,0,0,0,-1,1609,1086,0,0
392,-62,0,0,0,0,0,0,0,0,0,-1,1616,1086,0,0
399,-62,0,0,0,0,0,0,0,0,0,-1,1623,1086,0,0
406,-62,0,0,0,0,0,0,0,0,0,-1,1630,1086,0,0
413,-62,0,0,0,0,0,0,0,0,0,-1,1637,1086,0,0
420,-62,0,0,0,0,0,0,0,0,0,-1,1644,1086,0,0
427,-62,0,0,0,0,0,0,0,0,0,-1,1651,1086,0,0
434,-62,0,0,0,0,0,0,0,0,0,-1,1658,1086,0,0
441,-62,0,0,0,0,0,0,0,0,0,-1,1665,1086,0,0
448,-62,0,0,0,0,0,0,0,0,0,-1,1672,1086,0,0
455,-62,0,0,0,0,0,0,0,0,0,-1,1679,1086,0,0
462,-62,0,0,0,0,0,0,0,0,0,-1,1686,1086,0,0
469,-62,0,0,0,0,0,0,0,0,0,-1,1693,1086,0,0
476,-62,0,0,0,0,0,0,0,0,0,-1,1700,1086,0,0
483,-62,0,0,0,0,0,0,0,0,0,-1,1707,1086,0,0
490,-62,0,0,0,0,0,0,0,0,0,-1,1714,1086,0,0
497,-62,0,0,0,0,0,0,0,0,0,-1,1721,1086,0,0
504,-62,0,0,0,0,0,0,0,0,0,-1,1728,1086,0,0
511,-62,0,0,0,0,0,0,0,0,0,-1,1735,1086,0,0
518,-62,0,0,0,0,0,0,0,0,0,-1,1742,1086,0,0
525,-62,0,0,0,0,0,0,0,0,0,-1,1749,1086,0,0
532,-62,0,0,0,0,0,0,0,0,0,-1,1756,1086,0,0
539,-62,0,0,0,0,0,0,0,0,0,-1,1763,1086,0,0
546,-62,0,0,0,0,0,0,0,0,0,-1,1770,1086,0,0
553,-62,0,0,0,0,0,0,0,0,0,-1,1777,1086,0,0
560,-62,0,0,0,0,0,0,0,0,0,-1,1784,1086,0,0
567,-62,0,0,0,0,0,0,0,0,0,-1,1791,1086,0,0
574,-62,0,0,0,0,0,0,0,0,0,-1,1798,1086,0,0
581,-62,0,0,0,0,0,0,0,0,0,-1,1805,1086,0,0
588,-62,0,0,0,0,0,0,0,0,0,-1,1812,1086,0,0
595,-62,0,0,0,0,0,0,0,0,0,-1,1819,1086,0,0
602,-62,0,0,0,0,0,0,0,0,0,-1,1826,1086,0,0
609,-62,0,0,0,0,0,0,0,0,0,-1,1833,1086,0,0
616,-62,0,0,0,0,0,0,0,0,0,-1,1840,1086,0,0
623,-62,0,0,0,0,0,0,0,0,0,-1,1847,1086,0,0
630,-62,0,0,0,0,0,0,0,0,0,-1,1854,1086,0,0
637,-62,0,0,0,0,0,0,0,0,0,-1,1861,1086,0,0
644,-62,0,0,0,0,0,0,0,0,0,-1,1868,1086,0,0
651,-62,30.9673,3.07373,-0.00255418,0.00278273,-0.00282539,0.00400059,-0.00377205,-1.16382,0.00448818,0.040655,1875,1086,30.9673,-3.07376
658,-62,30.9253,2.91394,-0.0015066,0.0024775,-0.00167938,0.00309094,-0.00212004,-1.22058,0.00302592,0.0410589,1882,1086,30.9253,-2.91388
665,-62,30.8032,2.73657,-0.000800946,0.00210141,-0.000695122,0.0022593,-0.00095884,-1.34744,0.00190789,0.0398756,1889,1086,30.8033,-2.73662
672,-62,30.7283,2.81433,-0.000169428,0.00156188,0.000548389,0.00172096,-0.000328512,1.28845,0.00127104,0.039022,1896,1086,30.7283,-2.81431
679,-62,30.8195,2.82178,0.0001507,0.000908934,0.00182701,0.00239575,-0.00133611,0.8877,0.00218335,0.0379401,1903,1086,30.8194,-2.82183
686,-62,30.9155,2.9176,9.9437e-05,0.00022843,0.00283874,0.0030034,-0.00267554,0.796756,0.00328056,0.0387116,1910,1086,30.9156,-2.91758
693,-62,30.9512,3.01062,-9.72058e-06,-0.000359833,0.0035766,0.00339611,-0.00376566,0.760945,0.00413668,0.038113,1917,1086,30.9512,-3.01059
700,-62,30.8909,2.96216,-0.0002065,-0.000779751,0.00408373,0.00360065,-0.0045869,0.750362,0.0047385,0.0320986,1924,1086,30.8908,-2.96215
707,-62,30.8457,2.95386,-0.00037863,-0.00100907,0.00438343,0.0037009,-0.0050886,0.749504,0.00509566,0.0212999,1931,1086,30.8457,-2.95387
714,-62,30.8893,3.07605,-0.000635186,-0.00114306,0.0045605,0.00367844,-0.00545669,0.757586,0.00530737,0.0273441,1938,1086,30.8893,-3.07603
721,-62,31.0067,3.36951,0,0,0,0,0,0,0,-1,1945,1086,31.0067,-3.36947
728,-62,29.972,5.33435,0,0,0,0,0,0,0,-1,1952,1086,29.9721,-5.33434
735,-62,29.9886,5.16699,-0.00181705,-0.000543532,0.00387134,0.00274307,-0.00510365,0.866908,0.00459814,0.020352,1959,1086,29.9887,-5.16702
742,-62,29.9727,5.08618,-0.00209849,0.000397403,0.00326237,0.00264237,-0.00434345,0.968075,0.00407293,0.0176078,1966,1086,29.9727,-5.08617
749,-62,29.9558,4.94641,-0.00215743,0.00173351,0.00312612,0.00347009,-0.00389401,1.06374,0.00425402,0.0142332,1973,1086,29.9558,-4.94636
756,-62,29.9067,4.8866,-0.00216215,0.00314594,0.00295517,0.00446392,-0.00348013,1.15128,0.00459821,0.0129184,1980,1086,29.9067,-4.88657
763,-62,29.9095,4.77051,-0.00223359,0.00671164,0.00269327,0.00745995,-0.00298189,1.29979,0.00621065,0.0147399,1987,1086,29.9095,-4.7705
770,-62,29.9175,4.61206,-0.00235412,0.0106647,0.00256782,0.0111528,-0.00284229,1.38293,0.00854176,0.0126224,1994,1086,29.9175,-4.61211
777,-62,29.8684,4.46558,-0.00233335,0.0160543,0.0032843,0.0166233,-0.00290237,1.39925,0.0121656,0.0138848,2001,1086,29.8684,-4.46557
784,-62,29.7784,4.4303,-0.00231386,0.0225962,0.00458012,0.0234116,-0.00312929,1.3946,0.0167486,0.0284393,2008,1086,29.7784,-4.43024
791,-62,29.066,4.89429,-0.00248359,0.030851,0.0064549,0.0320573,-0.00368986,1.38605,0.0227017,0.0441786,2015,1086,29.066,-4.89423
798,-62,29.1848,3.48657,-0.00265367,0.0415448,0.00909278,0.0433423,-0.00445119,1.37563,0.0304871,0.0479924,2022,1086,29.1848,-3.48655
805,-62,28.9946,4.51343,-0.00282077,0.0554784,0.0127132,0.0581302,-0.00547248,1.36516,0.0407004,0.0475155,2029,1086,28.9945,-4.51348
812,-62,28.7808,5.54187,0,0,0,0,0,0,0,-1,2036,1086,28.7807,-5.54187
-700,-69,-20.6928,-2.5979,0,0,0,0,0,0,0,-1,524,1093,-20.6928,2.59785
-693,-69,-19.874,-1.39429,0,0,0,0,0,0,0,-1,531,1093,-19.874,1.39427
-686,-69,-19.27,-0.331055,0,0,0,0,0,0,0,-1,538,1093,-19.27,0.331046
-679,-69,-20.1185,-0.170898,0.002183,0.0266074,0.0135933,0.0326686,-0.00387819,1.15136,0.0231802,0.0460908,545,1093,-20.1185,0.17089
-672,-69,-20.9456,0.083252,-0.00255573,0.0214656,0.0135448,0.0275579,-0.00864803,1.14812,0.0218332,0.0452831,552,1093,-20.9456,-0.0832154
-665,-69,-20.8853,0.126953,0,0,0,0,0,0,0,-1,559,1093,-20.8853,-0.127005
-658,-69,-20.5642,0.924072,0,0,0,0,0,0,0,-1,566,1093,-20.5642,-0.924086
-651,-69,-20.8397,1.41052,0,0,0,0,0,0,0,-1,573,1093,-20.8396,-1.41048
-644,-69,-20.8088,1.83142,-0.00709578,0.00722651,0.00791504,0.0107392,-0.0106084,1.15312,0.0123251,0.00951749,580,1093,-20.8088,-1.83142
-637,-69,-20.8387,2.03259,-0.00717122,0.00555693,0.00546389,0.00758068,-0.00919496,1.21608,0.00970036,0.01169,587,1093,-20.8387,-2.03259
-630,-69,-20.8485,2.18787,-0.00532932,0.00181725,0.00232933,0.00250943,-0.00602149,1.28195,0.00506255,0.0140924,594,1093,-20.8485,-2.18788
-623,-69,-20.8106,2.3562,-0.0039673,0.000679391,-0.000116302,0.0006823,-0.00397021,-1.54579,0.00290111,0.0143754,601,1093,-20.8106,-2.35624
-616,-69,-20.8016,2.50854,-0.00323297,-0.000246358,-0.00236177,0.0010546,-0.00453393,-1.06731,0.00342865,0.0152611,608,1093,-20.8016,-2.50856
-609,-69,-20.8075,2.62329,-0.00292107,-0.000963213,-0.00409322,0.00226651,-0.0061508,-0.902773,0.00502926,0.0132374,615,1093,-20.8075,-2.62329
-602,-69,-20.7905,2.80798,-0.00270438,-0.00139428,-0.00561511,0.00360386,-0.00770252,-0.843465,0.00666918,0.0167707,622,1093,-20.7905,-2.80795
-595,-69,-20.7344,2.93933,-0.00270384,-0.00169093,-0.00649936,0.00432168,-0.00871644,-0.824282,0.00766878,0.0228822,629,1093,-20.7343,-2.93931
-588,-69,-21.0371,2.54761,-0.00266066,-0.00193258,-0.00679676,0.00450988,-0.00910312,-0.812153,0.00800722,0.0367858,636,1093,-21.0371,-2.54755
-581,-69,-21.6744,1.23694,0,0,0,0,0,0,0,-1,643,1093,-21.6744,-1.23695
-574,-69,-21.6984,1.3822,-0.00247076,-0.00201595,-0.00631538,0.00407612,-0.00856283,-0.803395,0.00744878,0.0322987,650,1093,-21.6983,-1.38215
-567,-69,-21.5833,1.58374,-0.00227487,-0.00181683,-0.00567393,0.0036327,-0.0077244,-0.805569,0.00669737,0.0363711,657,1093,-21.5833,-1.58374
-560,-69,-21.5656,1.36218,-0.00192154,-0.00157002,-0.00456181,0.00281942,-0.00631097,-0.804653,0.00539838,0.0393016,664,1093,-21.5656,-1.36217
-553,-69,-21.6208,1.14844,-0.00146415,-0.00141345,-0.00290747,0.00146878,-0.00434638,-0.789758,0.00349171,0.0395212,671,1093,-21.6209,-1.14842
-546,-69,-21.6215,1.05994,-0.000847288,-0.00155853,-0.000584138,-0.000519034,-0.00188678,-0.511968,0.00112547,0.0353929,678,1093,-21.6215,-1.05996
-539,-69,-21.5689,1.1405,-0.00023917,-0.00231528,0.00201513,0.000989555,-0.00354401,0.547558,0.00275247,0.0382983,685,1093,-21.5689,-1.14055
-532,-69,-21.477,1.28503,-0.00102876,-0.00462934,0.00295759,0.000633369,-0.00629147,0.512002,0.00442059,0.0403187,692,1093,-21.477,-1.28506
-525,-69,0,0,0,0,0,0,0,0,0,-1,699,1093,0,0
-518,-69,0,0,0,0,0,0,0,0,0,-1,706,1093,0,0
-511,-69,0,0,0,0,0,0,0,0,0,-1,713,1093,0,0
-504,-69,0,0,0,0,0,0,0,0,0,-1,720,1093,0,0
-497,-69,0,0,0,0,0,0,0,0,0,-1,727,1093,0,0
-490,-69,0,0,0,0,0,0,0,0,0,-1,734,1093,0,0
-483,-69,0,0,0,0,0,0,0,0,0,-1,741,1093,0,0
-476,-69,0,0,0,0,0,0,0,0,0,-1,748,1093,0,0
-469,-69,0,0,0,0,0,0,0,0,0,-1,755,1093,0,0
-462,-69,0,0,0,0,0,0,0,0,0,-1,762,1093,0,0
-455,-69,0,0,0,0,0,0,0,0,0,-1,769,1093,0,0
-448,-69,0,0,0,0,0,0,0,0,0,-1,776,1093,0,0
-441,-69,0,0,0,0,0,0,0,0,0,-1,783,1093,0,0
-434,-69,0,0,0,0,0,0,0,0,0,-1,790,1093,0,0
-427,-69,0,0,0,0,0,0,0,0,0,-1,797,1093,0,0
-420,-69,0,0,0,0,0,0,0,0,0,-1,804,1093,0,0
-413,-69,0,0,0,0,0,0,0,0,0,-1,811,1093,0,0
-406,-69,0,0,0,0,0,0,0,0,0,-1,818,1093,0,0
-399,-69,0,0,0,0,0,0,0,0,0,-1,825,1093,0,0
-392,-69,0,0,0,0,0,0,0,0,0,-1,832,1093,0,0
-385,-69,0,0,0,0,0,0,0,0,0,-1,839,1093,0,0
-378,-69,0,0,0,0,0,0,0,0,0,-1,846,1093,0,0
-371,-69,0,0,0,0,0,0,0,0,0,-1,853,1093,0,0
-364,-69,0,0,0,0,0,0,0,0,0,-1,860,1093,0,0
-357,-69,0,0,0,0,0,0,0,0,0,-1,867,1093,0,0
-350,-69,0,0,0,0,0,0,0,0,0,-1,874,1093,0,0
-343,-69,0,0,0,0,0,0,0,0,0,-1,881,1093,0,0
-336,-69,0,0,0,0,0,0,0,0,0,-1,888,1093,0,0
-329,-69,0,0,0,0,0,0,0,0,0,-1,895,1093,0,0
-322,-69,0,0,0,0,0,0,0,0,0,-1,902,1093,0,0
-315,-69,0,0,0,0,0,0,0,0,0,-1,909,1093,0,0
-308,-69,0,0,0,0,0,0,0,0,0,-1,916,1093,0,0
-301,-69,0,0,0,0,0,0,0,0,0,-1,923,1093,0,0
-294,-69,0,0,0,0,0,0,0,0,0,-1,930,1093,0,0
-287,-69,0,0,0,0,0,0,0,0,0,-1,937,1093,0,0
-280,-69,0,0,0,0,0,0,0,0,0,-1,944,1093,0,0
-273,-69,0,0,0,0,0,0,0,0,0,-1,951,1093,0,0
-266,-69,0,0,0,0,0,0,0,0,0,-1,958,1093,0,0
-259,-69,0,0,0,0,0,0,0,0,0,-1,965,1093,0,0
-252,-69,0,0,0,0,0,0,0,0,0,-1,972,1093,0,0
-245,-69,0,0,0,0,0,0,0,0,0,-1,979,1093,0,0
-238,-69,0,0,0,0,0,0,0,0,0,-1,986,1093,0,0
-231,-69,0,0,0,0,0,0,0,0,0,-1,993,1093,0,0
-224,-69,0,0,0,0,0,0,0,0,0,-1,1000,1093,0,0
-217,-69,0,0,0,0,0,0,0,0,0,-1,1007,1093,0,0
-210,-69,0,0,0,0,0,0,0,0,0,-1,1014,1093,0,0
-203,-69,0,0,0,0,0,0,0,0,0,-1,1021,1093,0,0
-196,-69,0,0,0,0,0,0,0,0,0,-1,1028,1093,0,0
-189,-69,0,0,0,0,0,0,0,0,0,-1,1035,1093,0,0
-182,-69,0,0,0,0,0,0,0,0,0,-1,1042,1093,0,0
-175,-69,0,0,0,0,0,0,0,0,0,-1,1049,1093,0,0
-168,-69,0,0,0,0,0,0,0,0,0,-1,1056,1093,0,0
-161,-69,0,0,0,0,0,0,0,0,0,-1,1063,1093,0,0
-154,-69,0,0,0,0,0,0,0,0,0,-1,1070,1093,0,0
-147,-69,0,0,0,0,0,0,0,0,0,-1,1077,1093,0,0
-140,-69,0,0,0,0,0,0,0,0,0,-1,1084,1093,0,0
-133,-69,0,0,0,0,0,0,0,0,0,-1,1091,1093,0,0
-126,-69,0,0,0,0,0,0,0,0,0,-1,1098,1093,0,0
-119,-69,0,0,0,0,0,0,0,0,0,-1,1105,1093,0,0
-112,-69,0,0,0,0,0,0,0,0,0,-1,1112,1093,0,0
-105,-69,0,0,0,0,0,0,0,0,0,-1,1119,1093,0,0
-98,-69,0,0,0,0,0,0,0,0,0,-1,1126,1093,0,0
-91,-69,0,0,0,0,0,0,0,0,0,-1,1133,1093,0,0
-84,-69,0,0,0,0,0,0,0,0,0,-1,1140,1093,0,0
-77,-69,0,0,0,0,0,0,0,0,0,-1,1147,1093,0,0
-70,-69,0,0,0,0,0,0,0,0,0,-1,1154,1093,0,0
-63,-69,0,0,0,0,0,0,0,0,0,-1,1161,1093,0,0
-56,-69,0,0,0,0,0,0,0,0,0,-1,1168,1093,0,0
-49,-69,0,0,0,0,0,0,0,0,0,-1,1175,1093,0,0
-42,-69,0,0,0,0,0,0,0,0,0,-1,1182,1093,0,0
-35,-69,0,0,0,0,0,0,0,0,0,-1,1189,1093,0,0
-28,-69,0,0,0,0,0,0,0,0,0,-1,1196,1093,0,0
-21,-69,0,0,0,0,0,0,0,0,0,-1,1203,1093,0,0
-14,-69,0,0,0,0,0,0,0,0,0,-1,1210,1093,0,0
-7,-69,0,0,0,0,0,0,0,0,0,-1,1217,1093,0,0
0,-69,0,0,0,0,0,0,0,0,0,-1,1224,1093,0,0
7,-69,0,0,0,0,0,0,0,0,0,-1,1231,1093,0,0
14,-69,0,0,0,0,0,0,0,0,0,-1,1238,1093,0,0
21,-69,0,0,0,0,0,0,0,0,0,-1,1245,1093,0,0
28,-69,0,0,0,0,0,0,0,0,0,-1,1252,1093,0,0
35,-69,0,0,0,0,0,0,0,0,0,-1,1259,1093,0,0
42,-69,0,0,0,0,0,0,0,0,0,-1,1266,1093,0,0
49,-69,0,0,0,0,0,0,0,0,0,-1,1273,1093,0,0
56,-69,0,0,0,0,0,0,0,0,0,-1,1280,1093,0,0
63,-69,0,0,0,0,0,0,0,0,0,-1,1287,1093,0,0
70,-69,0,0,0,0,0,0,0,0,0,-1,1294,1093,0,0
77,-69,0,0,0,0,0,0,0,0,0,-1,1301,1093,0,0
84,-69,0,0,0,0,0,0,0,0,0,-1,1308,1093,0,0
91,-69,0,0,0,0,0,0,0,0,0,-1,1315,1093,0,0
98,-69,0,0,0,0,0,0,0,0,0,-1,1322,1093,0,0
105,-69,0,0,0,0,0,0,0,0,0,-1,1329,1093,0,0
112,-69,0,0,0,0,0,0,0,0,0,-1,1336,1093,0,0
119,-69,0,0,0,0,0,0,0,0,0,-1,1343,1093,0,0
126,-69,0,0,0,0,0,0,0,0,0,-1,1350,1093,0,0
133,-69,0,0,0,0,0,0,0,0,0,-1,1357,1093,0,0
140,-69,0,0,0,0,0,0,0,0,0,-1,1364,1093,0,0
147,-69,0,0,0,0,0,0,0,0,0,-1,1371,1093,0,0
154,-69,0,0,0,0,0,0,0,0,0,-1,1378,1093,0,0
161,-69,0,0,0,0,0,0,0,0,0,-1,1385,1093,0,0
168,-69,0,0,0,0,0,0,0,0,0,-1,1392,1093,0,0
175,-69,0,0,0,0,0,0,0,0,0,-1,1399,1093,0,0
182,-69,0,0,0,0,0,0,0,0,0,-1,1406,1093,0,0
189,-69,0,0,0,0,0,0,0,0,0,-1,1413,1093,0,0
196,-69,0,0,0,0,0,0,0,0,0,-1,1420,1093,0,0
203,-69,0,0,0,0,0,0,0,0,0,-1,1427,1093,0,0
210,-69,0,0,0,0,0,0,0,0,0,-1,1434,1093,0,0
217,-69,0,0,0,0,0,0,0,0,0,-1,1441,1093,0,0
224,-69,0,0,0,0,0,0,0,0,0,-1,1448,1093,0,0
231,-69,0,0,0,0,0,0,0,0,0,-1,1455,1093,0,0
238,-69,0,0,0,0,0,0,0,0,0,-1,1462,1093,0,0
245,-69,0,0,0,0,0,0,0,0,0,-1,1469,1093,0,0
252,-69,0,0,0,0,0,0,0,0,0,-1,1476,1093,0,0
259,-69,0,0,0,0,0,0,0,0,0,-1,1483,1093,0,0
266,-69,0,0,0,0,0,0,0,0,0,-1,1490,1093,0,0
273,-69,0,0,0,0,0,0,0,0,0,-1,1497,1093,0,0
280,-69,0,0,0,0,0,0,0,0,0,-1,1504,1093,0,0
287,-69,0,0,0,0,0,0,0,0,0,-1,1511,1093,0,0
294,-69,0,0,0,0,0,0,0,0,0,-1,1518,1093,0,0
301,-69,0,0,0,0,0,0,0,0,0,-1,1525,1093,0,0
308,-69,0,0,0,0,0,0,0,0,0,-1,1532,1093,0,0
315,-69,0,0,0,0,0,0,0,0,0,-1,1539,1093,0,0
322,-69,0,0,0,0,0,0,0,0,0,-1,1546,1093,0,0
329,-69,0,0,0,0,0,0,0,0,0,-1,1553,1093,0,0
336,-69,0,0,0,0,0,0,0,0,0,-1,1560,1093,0,0
343,-69,0,0,0,0,0,0,0,0,0,-1,1567,1093,0,0
350,-69,0,0,0,0,0,0,0,0,0,-1,1574,1093,0,0
357,-69,0,0,0,0,0,0,0,0,0,-1,1581,1093,0,0
364,-69,0,0,0,0,0,0,0,0,0,-1,1588,1093,0,0
371,-69,0,0,0,0,0,0,0,0,0,-1,1595,1093,0,0
378,-69,0,0,0,0,0,0,0,0,0,-1,1602,1093,0,0
385,-69,0,0,0,0,0,0,0,0,0,-1,1609,1093,0,0
392,-69,0,0,0,0,0,0,0,0,0,-1,1616,1093,0,0
399,-69,0,0,0,0,0,0,0,0,0,-1,1623,1093,0,0
406,-69,0,0,0,0,0,0,0,0,0,-1,1630,1093,0,0
413,-69,0,0,0,0,0,0,0,0,0,-1,1637,1093,0,0
420,-69,0,0,0,0,0,0,0,0,0,-1,1644,1093,0,0
427,-69,0,0,0,0,0,0,0,0,0,-1,1651,1093,0,0
434,-69,0,0,0,0,0,0,0,0,0,-1,1658,1093,0,0
441,-69,0,0,0,0,0,0,0,0,0,-1,1665,1093,0,0
448,-69,0,0,0,0,0,0,0,0,0,-1,1672,1093,0,0
455,-69,0,0,0,0,0,0,0,0,0,-1,1679,1093,0,0
462,-69,0,0,0,0,0,0,0,0,0,-1,1686,1093,0,0
469,-69,0,0,0,0,0,0,0,0,0,-1,1693,1093,0,0
476,-69,0,0,0,0,0,0,0,0,0,-1,1700,1093,0,0
483,-69,0,0,0,0,0,0,0,0,0,-1,1707,1093,0,0
490,-69,0,0,0,0,0,0,0,0,0,-1,1714,1093,0,0
497,-69,0,0,0,0,0,0,0,0,0,-1,1721,1093,0,0
504,-69,0,0,0,0,0,0,0,0,0,-1,1728,1093,0,0
511,-69,0,0,0,0,0,0,0,0,0,-1,1735,1093,0,0
518,-69,0,0,0,0,0,0,0,0,0,-1,1742,1093,0,0
525,-69,0,0,0,0,0,0,0,0,0,-1,1749,1093,0,0
532,-69,0,0,0,0,0,0,0,0,0,-1,1756,1093,0,0
539,-69,0,0,0,0,0,0,0,0,0,-1,1763,1093,0,0
546,-69,0,0,0,0,0,0,0,0,0,-1,1770,1093,0,0
553,-69,0,0,0,0,0,0,0,0,0,-1,1777,1093,0,0
560,-69,0,0,0,0,0,0,0,0,0,-1,1784,1093,0,0
567,-69,0,0,0,0,0,0,0,0,0,-1,1791,1093,0,0
574,-69,0,0,0,0,0,0,0,0,0,-1,1798,1093,0,0
581,-69,0,0,0,0,0,0,0,0,0,-1,1805,1093,0,0
588,-69,0,0,0,0,0,0,0,0,0,-1,1812,1093,0,0
595,-69,0,0,0,0,0,0,0,0,0,-1,1819,1093,0,0
602,-69,0,0,0,0,0,0,0,0,0,-1,1826,1093,0,0
609,-69,0,0,0,0,0,0,0,0,0,-1,1833,1093,0,0
616,-69,0,0,0,0,0,0,0,0,0,-1,1840,1093,0,0
623,-69,0,0,0,0,0,0,0,0,0,-1,1847,1093,0,0
630,-69,0,0,0,0,0,0,0,0,0,-1,1854,1093,0,0
637,-69,0,0,0,0,0,0,0,0,0,-1,1861,1093,0,0
644,-69,0,0,0,0,0,0,0,0,0,-1,1868,1093,0,0
651,-69,30.8591,3.06323,-0.000590569,0.00300194,-0.00376894,0.00538078,-0.00296941,-1.00777,0.00488753,0.0417124,1875,1093,30.8591,-3.06325
658,-69,30.8485,3.06982,-0.000136268,0.00251815,-0.00226923,0.0038198,-0.00143791,-1.05001,0.00313766,0.0451832,1882,1093,30.8485,-3.06984
665,-69,30.8097,2.8252,0.00016891,0.00202576,-0.00100062,0.00246233,-0.000267664,-1.15939,0.00173766,0.045265,1889,1093,30.8096,-2.82516
672,-69,30.6746,2.79211,0.000485608,0.00136506,0.000436817,0.00154514,0.00030552,1.17976,0.000944867,0.0405739,1896,1093,30.6746,-2.79217
679,-69,30.791,2.9314,0.000515683,0.000649881,0.00180107,0.0023851,-0.00121954,0.804017,0.0021171,0.0373482,1903,1093,30.791,-2.93141
686,-69,31.0009,3.08447,0.000276799,-4.55512e-05,0.0028255,0.00294571,-0.00271446,0.756907,0.00326881,0.037232,1910,1093,31.0008,-3.08449
693,-69,30.9309,3.01025,5.29805e-05,-0.00061652,0.00354104,0.00327506,-0.0038386,0.738271,0.00411137,0.0358428,1917,1093,30.9309,-3.01025
700,-69,30.8445,2.89307,-0.000240301,-0.00100423,0.00403344,0.00342922,-0.00467375,0.738189,0.00469661,0.0297052,1924,1093,30.8445,-2.89311
707,-69,30.8419,2.89587,-0.000475539,-0.00122908,0.00433225,0.00349629,-0.00520091,0.742023,0.00505338,0.0200234,1931,1093,30.842,-2.89583
714,-69,30.8871,2.90869,-0.000757834,-0.00132307,0.0045044,0.00347281,-0.00555371,0.754068,0.00525742,0.0240389,1938,1093,30.8871,-2.90865
721,-69,30.5784,4.10669,0,0,0,0,0,0,0,-1,1945,1093,30.5784,-4.10671
728,-69,29.6694,5.45349,0,0,0,0,0,0,0,-1,1952,1093,29.6694,-5.45355
735,-69,29.8328,5.26184,-0.00185609,-0.000671696,0.0037763,0.00255856,-0.00508634,0.863174,0.00449349,0.0229805,1959,1093,29.8327,-5.26182
742,-69,29.834,5.12744,-0.00204434,0.000258639,0.00324239,0.00254794,-0.00433364,0.95602,0.00401742,0.0174466,1966,1093,29.8339,-5.1274
749,-69,29.7369,4.98584,-0.0019994,0.00152699,0.00313795,0.00336318,-0.00383559,1.04136,0.0041592,0.0186717,1973,1093,29.737,-4.98588
756,-69,29.7798,4.89734,-0.00189979,0.00305464,0.00304109,0.00449977,-0.00334493,1.12718,0.00454547,0.0146045,1980,1093,29.7798,-4.8973
763,-69,29.7629,4.74768,-0.00185704,0.0067608,0.00297898,0.0076903,-0.00278654,1.26835,0.00626578,0.0156105,1987,1093,29.7629,-4.74772
770,-69,29.7463,4.61121,-0.00180451,0.0108622,0.00307468,0.0115691,-0.0025114,1.34482,0.00867194,0.0173395,1994,1093,29.7463,-4.61116
777,-69,29.7048,4.50586,-0.00163387,0.0163823,0.00404902,0.0172504,-0.00250203,1.35958,0.0124186,0.0221186,2001,1093,29.7048,-4.50592
784,-69,29.6724,4.3092,-0.00151137,0.0232168,0.00564709,0.0244454,-0.00273994,1.35658,0.0172828,0.0346062,2008,1093,29.6723,-4.30924
791,-69,29.9685,4.16846,-0.00164088,0.0319952,0.00794555,0.0337777,-0.00342333,1.35012,0.023742,0.0474054,2015,1093,29.9685,-4.16851
798,-69,30.2358,4.12122,0,0,0,0,0,0,0,-1,2022,1093,30.2359,-4.12127
805,-69,30.9968,5.38525,0,0,0,0,0,0,0,-1,2029,1093,30.9967,-5.38525
812,-69,31.3662,6.72144,0,0,0,0,0,0,0,-1,2036,1093,31.3662,-6.72147
-700,-76,0,0,0,0,0,0,0,0,0,-1,524,1100,0,0
-693,-76,-19.0276,-0.940674,0,0,0,0,0,0,0,-1,531,1100,-19.0276,0.940726
-686,-76,-18.2956,0.182251,0.00279817,0.0339135,0.0149284,0.0399173,-0.00320566,1.18842,0.0277419,0.0468538,538,1100,-18.2956,-0.182261
-679,-76,-20.3621,-0.181641,-0.00200625,0.0277311,0.015592,0.0344075,-0.00868257,1.16623,0.0263144,0.0495738,545,1100,-20.3621,0.181643
-672,-76,-20.2887,0.195313,-0.00485669,0.0223275,0.015165,0.0291001,-0.0116293,1.15078,0.0242255,0.0476123,552,1100,-20.2887,-0.195315
-665,-76,-20.1888,0.540039,0,0,0,0,0,0,0,-1,559,1100,-20.1888,-0.540037
-658,-76,-20.2372,0.963989,-0.00673054,0.013658,0.0123004,0.0194394,-0.0125119,1.13142,0.0185911,0.0497705,566,1100,-20.2372,-0.963954
-651,-76,-20.5199,1.48767,-0.00636272,0.0103009,0.0102868,0.0152068,-0.0112687,1.12579,0.0153419,0.030284,573,1100,-20.5199,-1.48767
-644,-76,-20.5908,1.80566,-0.00627932,0.00740475,0.00830367,0.0113221,-0.0101967,1.12999,0.0124295,0.0105793,580,1100,-20.5908,-1.80569
-637,-76,-20.6382,1.99646,-0.00610015,0.00556411,0.00577415,0.00793896,-0.00847501,1.18059,0.00947829,0.0133714,587,1100,-20.6383,-1.99648
-630,-76,-20.6456,2.14404,-0.00447257,0.00178803,0.00271376,0.00280059,-0.00548513,1.21368,0.00486673,0.0148192,594,1100,-20.6456,-2.14402
-623,-76,-20.631,2.32031,-0.00328205,0.000729841,0.000324918,0.000755985,-0.0033082,1.49051,0.00249592,0.0150225,601,1100,-20.631,-2.32031
-616,-76,-20.6378,2.50183,-0.00269499,-0.00012148,-0.00178577,0.000792839,-0.0036093,-1.09759,0.00270943,0.0136257,608,1100,-20.6378,-2.50181
-609,-76,-20.644,2.64978,-0.00247057,-0.000774755,-0.00334468,0.00182782,-0.00507315,-0.909537,0.00412852,0.0135762,615,1100,-20.644,-2.64972
-602,-76,-20.6201,2.81421,-0.00228434,-0.00108056,-0.00473255,0.00308823,-0.00645312,-0.848649,0.00562173,0.0181317,622,1100,-20.6201,-2.81415
-595,-76,-20.5854,2.93176,-0.00225275,-0.00125919,-0.0054658,0.00373236,-0.0072443,-0.830718,0.00644459,0.0228431,629,1100,-20.5854,-2.93173
-588,-76,-20.562,3.05518,0,0,0,0,0,0,0,-1,636,1100,-20.562,-3.05513
-581,-76,-21.585,1.0116,0,0,0,0,0,0,0,-1,643,1100,-21.585,-1.01162
-574,-76,-21.587,1.07898,-0.00202026,-0.00128119,-0.00514978,0.0035123,-0.00681375,-0.821215,0.00606246,0.0348972,650,1100,-21.587,-1.07892
-567,-76,-21.5718,1.15417,-0.00189236,-0.00100605,-0.00458254,0.00315471,-0.00605312,-0.833601,0.00540322,0.0400326,657,1100,-21.5718,-1.1542
-560,-76,-21.5284,1.20117,-0.00166372,-0.00069569,-0.00360935,0.00246195,-0.00482136,-0.852051,0.00427794,0.0419964,664,1100,-21.5285,-1.2012
-553,-76,-21.5723,1.01111,-0.00141679,-0.000496278,-0.00215745,0.00124947,-0.00316254,-0.890489,0.00262588,0.044882,671,1100,-21.5723,-1.01112
-546,-76,-21.6984,1.06702,-0.00108649,-0.000628543,-9.22362e-05,-0.000610664,-0.00110437,-1.37933,0.000638797,0.0409395,678,1100,-21.6985,-1.06696
-539,-76,-21.6797,1.18298,-0.000755242,-0.00142855,0.0023325,0.00126477,-0.00344856,0.713727,0.00281692,0.039347,685,1100,-21.6797,-1.18293
-532,-76,-21.4936,1.39587,-0.00167338,-0.00377887,0.00351705,0.000945102,-0.00639736,0.639979,0.00461233,0.0403184,692,1100,-21.4936,-1.3959
-525,-76,0,0,0,0,0,0,0,0,0,-1,699,1100,0,0
-518,-76,0,0,0,0,0,0,0,0,0,-1,706,1100,0,0
-511,-76,0,0,0,0,0,0,0,0,0,-1,713,1100,0,0
-504,-76,0,0,0,0,0,0,0,0,0,-1,720,1100,0,0
-497,-76,0,0,0,0,0,0,0,0,0,-1,727,1100,0,0
-490,-76,0,0,0,0,0,0,0,0,0,-1,734,1100,0,0
-483,-76,0,0,0,0,0,0,0,0,0,-1,741,1100,0,0
-476,-76,0,0,0,0,0,0,0,0,0,-1,748,1100,0,0
-469,-76,0,0,0,0,0,0,0,0,0,-1,755,1100,0,0
-462,-76,0,0,0,0,0,0,0,0,0,-1,762,1100,0,0
-455,-76,0,0,0,0,0,0,0,0,0,-1,769,1100,0,0
-448,-76,0,0,0,0,0,0,0,0,0,-1,776,1100,0,0
-441,-76,0,0,0,0,0,0,0,0,0,-1,783,1100,0,0
-434,-76,0,0,0,0,0,0,0,0,0,-1,790,1100,0,0
-427,-76,0,0,0,0,0,0,0,0,0,-1,797,1100,0,0
-420,-76,0,0,0,0,0,0,0,0,0,-1,804,1100,0,0
-413,-76,0,0,0,0,0,0,0,0,0,-1,811,1100,0,0
-406,-76,0,0,0,0,0,0,0,0,0,-1,818,1100,0,0
-399,-76,0,0,0,0,0,0,0,0,0,-1,825,1100,0,0
-392,-76,0,0,0,0,0,0,0,0,0,-1,832,1100,0,0
-385,-76,0,0,0,0,0,0,0,0,0,-1,839,1100,0,0
-378,-76,0,0,0,0,0,0,0,0,0,-1,846,1100,0,0
-371,-76,0,0,0,0,0,0,0,0,0,-1,853,1100,0,0
-364,-76,0,0,0,0,0,0,0,0,0,-1,860,1100,0,0
-357,-76,0,0,0,0,0,0,0,0,0,-1,867,1100,0,0
-350,-76,0,0,0,0,0,0,0,0,0,-1,874,1100,0,0
-343,-76,0,0,0,0,0,0,0,0,0,-1,881,1100,0,0
-336,-76,0,0,0,0,0,0,0,0,0,-1,888,1100,0,0
-329,-76,0,0,0,0,0,0,0,0,0,-1,895,1100,0,0
-322,-76,0,0,0,0,0,0,0,0,0,-1,902,1100,0,0
-315,-76,0,0,0,0,0,0,0,0,0,-1,909,1100,0,0
-308,-76,0,0,0,0,0,0,0,0,0,-1,916,1100,0,0
-301,-76,0,0,0,0,0,0,0,0,0,-1,923,1100,0,0
-294,-76,0,0,0,0,0,0,0,0,0,-1,930,1100,0,0
-287,-76,0,0,0,0,0,0,0,0,0,-1,937,1100,0,0
-280,-76,0,0,0,0,0,0,0,0,0,-1,944,1100,0,0
-273,-76,0,0,0,0,0,0,0,0,0,-1,951,1100,0,0
-266,-76,0,0,0,0,0,0,0,0,0,-1,958,1100,0,0
-259,-76,0,0,0,0,0,0,0,0,0,-1,965,1100,0,0
-252,-76,0,0,0,0,0,0,0,0,0,-1,972,1100,0,0
-245,-76,0,0,0,0,0,0,0,0,0,-1,979,1100,0,0
-238,-76,0,0,0,0,0,0,0,0,0,-1,986,1100,0,0
-231,-76,0,0,0,0,0,0,0,0,0,-1,993,1100,0,0
-224,-76,0,0,0,0,0,0,0,0,0,-1,1000,1100,0,0
-217,-76,0,0,0,0,0,0,0,0,0,-1,1007,1100,0,0
-210,-76,0,0,0,0,0,0,0,0,0,-1,1014,1100,0,0
-203,-76,0,0,0,0,0,0,0,0,0,-1,1021,1100,0,0
-196,-76,0,0,0,0,0,0,0,0,0,-1,1028,1100,0,0
-189,-76,0,0,0,0,0,0,0,0,0,-1,1035,1100,0,0
-182,-76,0,0,0,0,0,0,0,0,0,-1,1042,1100,0,0
-175,-76,0,0,0,0,0,0,0,0,0,-1,1049,1100,0,0
-168,-76,0,0,0,0,0,0,0,0,0,-1,1056,1100,0,0
-161,-76,0,0,0,0,0,0,0,0,0,-1,1063,1100,0,0
-154,-76,0,0,0,0,0,0,0,0,0,-1,1070,1100,0,0
-147,-76,0,0,0,0,0,0,0,0,0,-1,1077,1100,0,0
-140,-76,0,0,0,0,0,0,0,0,0,-1,1084,1100,0,0
-133,-76,0,0,0,0,0,0,0,0,0,-1,1091,1100,0,0
-126,-76,0,0,0,0,0,0,0,0,0,-1,1098,1100,0,0
-119,-76,0,0,0,0,0,0,0,0,0,-1,1105,1100,0,0
-112,-76,0,0,0,0,0,0,0,0,0,-1,1112,1100,0,0
-105,-76,0,0,0,0,0,0,0,0,0,-1,1119,1100,0,0
-98,-76,0,0,0,0,0,0,0,0,0,-1,1126,1100,0,0
-91,-76,0,0,0,0,0,0,0,0,0,-1,1133,1100,0,0
-84,-76,0,0,0,0,0,0,0,0,0,-1,1140,1100,0,0
-77,-76,0,0,0,0,0,0,0,0,0,-1,1147,1100,0,0
-70,-76,0,0,0,0,0,0,0,0,0,-1,1154,1100,0,0
-63,-76,0,0,0,0,0,0,0,0,0,-1,1161,1100,0,0
-56,-76,0,0,0,0,0,0,0,0,0,-1,1168,1100,0,0
-49,-76,0,0,0,0,0,0,0,0,0,-1,1175,1100,0,0
-42,-76,0,0,0,0,0,0,0,0,0,-1,1182,1100,0,0
-35,-76,0,0,0,0,0,0,0,0,0,-1,1189,1100,0,0
-28,-76,0,0,0,0,0,0,0,0,0,-1,1196,1100,0,0
-21,-76,0,0,0,0,0,0,0,0,0,-1,1203,1100,0,0
-14,-76,0,0,0,0,0,0,0,0,0,-1,1210,1100,0,0
-7,-76,0,0,0,0,0,0,0,0,0,-1,1217,1100,0,0
0,-76,0,0,0,0,0,0,0,0,0,-1,1224,1100,0,0
7,-76,0,0,0,0,0,0,0,0,0,-1,1231,1100,0,0
14,-76,0,0,0,0,0,0,0,0,0,-1,1238,1100,0,0
21,-76,0,0,0,0,0,0,0,0,0,-1,1245,1100,0,0
28,-76,0,0,0,0,0,0,0,0,0,-1,1252,1100,0,0
35,-76,0,0,0,0,0,0,0,0,0,-1,1259,1100,0,0
42,-76,0,0,0,0,0,0,0,0,0,-1,1266,1100,0,0
49,-76,0,0,0,0,0,0,0,0,0,-1,1273,1100,0,0
56,-76,0,0,0,0,0,0,0,0,0,-1,1280,1100,0,0
63,-76,0,0,0,0,0,0,0,0,0,-1,1287,1100,0,0
70,-76,0,0,0,0,0,0,0,0,0,-1,1294,1100,0,0
77,-76,0,0,0,0,0,0,0,0,0,-1,1301,1100,0,0
84,-76,0,0,0,0,0,0,0,0,0,-1,1308,1100,0,0
91,-76,0,0,0,0,0,0,0,0,0,-1,1315,1100,0,0
98,-76,0,0,0,0,0,0,0,0,0,-1,1322,1100,0,0
105,-76,0,0,0,0,0,0,0,0,0,-1,1329,1100,0,0
112,-76,0,0,0,0,0,0,0,0,0,-1,1336,1100,0,0
119,-76,0,0,0,0,0,0,0,0,0,-1,1343,1100,0,0
126,-76,0,0,0,0,0,0,0,0,0,-1,1350,1100,0,0
133,-76,0,0,0,0,0,0,0,0,0,-1,1357,1100,0,0
140,-76,0,0,0,0,0,0,0,0,0,-1,1364,1100,0,0
147,-76,0,0,0,0,0,0,0,0,0,-1,1371,1100,0,0
154,-76,0,0,0,0,0,0,0,0,0,-1,1378,1100,0,0
161,-76,0,0,0,0,0,0,0,0,0,-1,1385,1100,0,0
168,-76,0,0,0,0,0,0,0,0,0,-1,1392,1100,0,0
175,-76,0,0,0,0,0,0,0,0,0,-1,1399,1100,0,0
182,-76,0,0,0,0,0,0,0,0,0,-1,1406,1100,0,0
189,-76,0,0,0,0,0,0,0,0,0,-1,1413,1100,0,0
196,-76,0,0,0,0,0,0,0,0,0,-1,1420,1100,0,0
203,-76,0,0,0,0,0,0,0,0,0,-1,1427,1100,0,0
210,-76,0,0,0,0,0,0,0,0,0,-1,1434,1100,0,0
217,-76,0,0,0,0,0,0,0,0,0,-1,1441,1100,0,0
224,-76,0,0,0,0,0,0,0,0,0,-1,1448,1100,0,0
231,-76,0,0,0,0,0,0,0,0,0,-1,1455,1100,0,0
238,-76,0,0,0,0,0,0,0,0,0,-1,1462,1100,0,0
245,-76,0,0,0,0,0,0,0,0,0,-1,1469,1100,0,0
252,-76,0,0,0,0,0,0,0,0,0,-1,1476,1100,0,0
259,-76,0,0,0,0,0,0,0,0,0,-1,1483,1100,0,0
266,-76,0,0,0,0,0,0,0,0,0,-1,1490,1100,0,0
273,-76,0,0,0,0,0,0,0,0,0,-1,1497,1100,0,0
280,-76,0,0,0,0,0,0,0,0,0,-1,1504,1100,0,0
287,-76,0,0,0,0,0,0,0,0,0,-1,1511,1100,0,0
294,-76,0,0,0,0,0,0,0,0,0,-1,1518,1100,0,0
301,-76,0,0,0,0,0,0,0,0,0,-1,1525,1100,0,0
308,-76,0,0,0,0,0,0,0,0,0,-1,1532,1100,0,0
315,-76,0,0,0,0,0,0,0,0,0,-1,1539,1100,0,0
322,-76,0,0,0,0,0,0,0,0,0,-1,1546,1100,0,0
329,-76,0,0,0,0,0,0,0,0,0,-1,1553,1100,0,0
336,-76,0,0,0,0,0,0,0,0,0,-1,1560,1100,0,0
343,-76,0,0,0,0,0,0,0,0,0,-1,1567,1100,0,0
350,-76,0,0,0,0,0,0,0,0,0,-1,1574,1100,0,0
357,-76,0,0,0,0,0,0,0,0,0,-1,1581,1100,0,0
364,-76,0,0,0,0,0,0,0,0,0,-1,1588,1100,0,0
371,-76,0,0,0,0,0,0,0,0,0,-1,1595,1100,0,0
378,-76,0,0,0,0,0,0,0,0,0,-1,1602,1100,0,0
385,-76,0,0,0,0,0,0,0,0,0,-1,1609,1100,0,0
392,-76,0,0,0,0,0,0,0,0,0,-1,1616,1100,0,0
399,-76,0,0,0,0,0,0,0,0,0,-1,1623,1100,0,0
406,-76,0,0,0,0,0,0,0,0,0,-1,1630,1100,0,0
413,-76,0,0,0,0,0,0,0,0,0,-1,1637,1100,0,0
420,-76,0,0,0,0,0,0,0,0,0,-1,1644,1100,0,0
427,-76,0,0,0,0,0,0,0,0,0,-1,1651,1100,0,0
434,-76,0,0,0,0,0,0,0,0,0,-1,1658,1100,0,0
441,-76,0,0,0,0,0,0,0,0,0,-1,1665,1100,0,0
448,-76,0,0,0,0,0,0,0,0,0,-1,1672,1100,0,0
455,-76,0,0,0,0,0,0,0,0,0,-1,1679,1100,0,0
462,-76,0,0,0,0,0,0,0,0,0,-1,1686,1100,0,0
469,-76,0,0,0,0,0,0,0,0,0,-1,1693,1100,0,0
476,-76,0,0,0,0,0,0,0,0,0,-1,1700,1100,0,0
483,-76,0,0,0,0,0,0,0,0,0,-1,1707,1100,0,0
490,-76,0,0,0,0,0,0,0,0,0,-1,1714,1100,0,0
497,-76,0,0,0,0,0,0,0,0,0,-1,1721,1100,0,0
504,-76,0,0,0,0,0,0,0,0,0,-1,1728,1100,0,0
511,-76,0,0,0,0,0,0,0,0,0,-1,1735,1100,0,0
518,-76,0,0,0,0,0,0,0,0,0,-1,1742,1100,0,0
525,-76,0,0,0,0,0,0,0,0,0,-1,1749,1100,0,0
532,-76,0,0,0,0,0,0,0,0,0,-1,1756,1100,0,0
539,-76,0,0,0,0,0,0,0,0,0,-1,1763,1100,0,0
546,-76,0,0,0,0,0,0,0,0,0,-1,1770,1100,0,0
553,-76,0,0,0,0,0,0,0,0,0,-1,1777,1100,0,0
560,-76,0,0,0,0,0,0,0,0,0,-1,1784,1100,0,0
567,-76,0,0,0,0,0,0,0,0,0,-1,1791,1100,0,0
574,-76,0,0,0,0,0,0,0,0,0,-1,1798,1100,0,0
581,-76,0,0,0,0,0,0,0,0,0,-1,1805,1100,0,0
588,-76,0,0,0,0,0,0,0,0,0,-1,1812,1100,0,0
595,-76,0,0,0,0,0,0,0,0,0,-1,1819,1100,0,0
602,-76,0,0,0,0,0,0,0,0,0,-1,1826,1100,0,0
609,-76,0,0,0,0,0,0,0,0,0,-1,1833,1100,0,0
616,-76,0,0,0,0,0,0,0,0,0,-1,1840,1100,0,0
623,-76,0,0,0,0,0,0,0,0,0,-1,1847,1100,0,0
630,-76,0,0,0,0,0,0,0,0,0,-1,1854,1100,0,0
637,-76,0,0,0,0,0,0,0,0,0,-1,1861,1100,0,0
644,-76,0,0,0,0,0,0,0,0,0,-1,1868,1100,0,0
651,-76,30.8165,2.97534,0.000989688,0.00289795,-0.00451646,0.00655997,-0.00267232,-0.889496,0.00548553,0.0413359,1875,1100,30.8165,-2.97531
658,-76,30.8519,2.9408,0.00092488,0.00233981,-0.00272843,0.004451,-0.00118631,-0.912252,0.00343181,0.0434026,1882,1100,30.8519,-2.94083
665,-76,30.9244,2.73108,0.000887971,0.00179316,-0.00121427,0.00263644,4.46885e-05,-0.963787,0.00174292,0.0434019,1889,1100,30.9244,-2.73111
672,-76,30.8,2.63928,0.000938828,0.00107202,0.000382931,0.0013941,0.000616744,0.87149,0.000806663,0.0408753,1896,1100,30.8001,-2.63925
679,-76,30.8387,2.89001,0.000744268,0.000346787,0.00180241,0.00235887,-0.00126781,0.730488,0.00212521,0.037777,1903,1100,30.8388,-2.89006
686,-76,30.9202,3.0531,0.000379909,-0.000329852,0.00281663,0.00286393,-0.00281387,0.722731,0.00327812,0.0365185,1910,1100,30.9201,-3.05308
693,-76,30.9149,2.91772,8.67872e-05,-0.000863539,0.00349524,0.00313902,-0.00391577,0.717839,0.0040813,0.038466,1917,1100,30.9149,-2.91772
700,-76,30.8507,2.80371,-0.00026948,-0.00120678,0.0039659,0.00325536,-0.00473162,0.726586,0.00463747,0.0322036,1924,1100,30.8507,-2.80377
707,-76,30.8358,2.89758,-0.000537983,-0.00140473,0.00424779,0.00329849,-0.0052412,0.734563,0.00497274,0.0217385,1931,1100,30.8359,-2.8976
714,-76,30.8107,3.45374,0,0,0,0,0,0,0,-1,1938,1100,30.8107,-3.45368
721,-76,30.3673,4.54846,0,0,0,0,0,0,0,-1,1945,1100,30.3673,-4.54844
728,-76,29.8701,5.37341,-0.00138139,-0.00118954,0.00403034,0.00274601,-0.00531695,0.797296,0.00473338,0.0327606,1952,1100,29.8701,-5.37338
735,-76,29.499,5.30957,-0.001826,-0.000736256,0.00362626,0.00238584,-0.00494809,0.859969,0.00431952,0.0260567,1959,1100,29.499,-5.3096
742,-76,29.6654,5.14099,-0.0019543,0.000187824,0.00317035,0.00246315,-0.00422963,0.948298,0.00390868,0.0178686,1966,1100,29.6654,-5.14097
749,-76,29.6189,4.98669,-0.00187904,0.0013915,0.00308471,0.00324759,-0.00373512,1.02912,0.00403474,0.0182944,1973,1100,29.6189,-4.98669
756,-76,29.6515,4.88123,-0.00178648,0.00303405,0.00308252,0.00453676,-0.00328918,1.11721,0.00453741,0.0152106,1980,1100,29.6515,-4.88127
763,-76,29.6315,4.71704,-0.0017346,0.0068144,0.00321007,0.00788554,-0.00280575,1.24873,0.00640065,0.0153649,1987,1100,29.6315,-4.71708
770,-76,29.5554,4.60571,-0.00166713,0.0109882,0.00352468,0.0119036,-0.00258258,1.31669,0.0089221,0.0166728,1994,1100,29.5554,-4.60572
777,-76,29.5076,4.56079,-0.00155264,0.016499,0.00473155,0.017664,-0.00271765,1.32938,0.0127786,0.0204978,2001,1100,29.5076,-4.56084
784,-76,29.5365,4.34326,-0.00154696,0.0233991,0.0065912,0.0250335,-0.0031814,1.32773,0.0178443,0.0321596,2008,1100,29.5365,-4.34322
791,-76,29.774,4.26111,-0.00187213,0.0323329,0.00923593,0.0346674,-0.00420665,1.32322,0.0246338,0.0406975,2015,1100,29.774,-4.26112
798,-76,30.1594,4.3075,0,0,0,0,0,0,0,-1,2022,1100,30.1595,-4.30752
805,-76,30.6934,5.07959,-0.00325631,0.0596066,0.0180532,0.0644223,-0.00807201,1.31012,0.0458762,0.0460186,2029,1100,30.6935,-5.07956
812,-76,30.9194,6.0376,-0.00478153,0.0802729,0.0250945,0.0871248,-0.0116334,1.30425,0.062324,0.0469552,2036,1100,30.9194,-6.03764
-700,-83,0,0,0,0,0,0,0,0,0,-1,524,1107,0,0
-693,-83,-18.1973,-0.461792,0,0,0,0,0,0,0,-1,531,1107,-18.1972,0.461731
-686,-83,-21.1776,-2.87195,0,0,0,0,0,0,0,-1,538,1107,-21.1776,2.87198
-679,-83,-21.0219,-2.40613,0,0,0,0,0,0,0,-1,545,1107,-21.0219,2.40618
-672,-83,-20.7508,-0.120239,0,0,0,0,0,0,0,-1,552,1107,-20.7508,0.120239
-665,-83,-20.3055,0.0349121,0,0,0,0,0,0,0,-1,559,1107,-20.3055,-0.034883
-658,-83,-20.3722,0.728882,-0.00591124,0.0123903,0.0123717,0.0186276,-0.0121486,1.10382,0.0178994,0.0438793,566,1107,-20.3722,-0.728833
-651,-83,-20.3562,1.44202,-0.00537301,0.009233,0.01023,0.0144992,-0.0106393,1.09539,0.0145706,0.0333077,573,1107,-20.3562,-1.44198
-644,-83,-20.383,1.755,-0.00512057,0.00658638,0.00814671,0.0107645,-0.00929865,1.09692,0.0115937,0.0149714,580,1107,-20.383,-1.75502
-637,-83,-20.403,1.95959,-0.0047389,0.0048319,0.00564661,0.00744814,-0.00735514,1.13691,0.00854674,0.0109826,587,1107,-20.403,-1.95958
-630,-83,-20.42,2.13647,-0.00347766,0.00139003,0.00282067,0.00268175,-0.00476937,1.14135,0.00435783,0.0153271,594,1107,-20.42,-2.13648
-623,-83,-20.4471,2.3009,-0.00255435,0.000562874,0.000607569,0.000677108,-0.00266858,1.38495,0.00204252,0.0147792,601,1107,-20.4471,-2.30096
-616,-83,-20.4636,2.4812,-0.00211902,-0.000119083,-0.00129257,0.000515171,-0.00275328,-1.11462,0.00202916,0.0121084,608,1107,-20.4636,-2.48124
-609,-83,-20.4642,2.65027,-0.00194959,-0.000604537,-0.00261457,0.00142261,-0.00397674,-0.911281,0.00323149,0.0127124,615,1107,-20.4642,-2.65023
-602,-83,-20.466,2.84058,-0.00180363,-0.000851421,-0.0038341,0.00253602,-0.00519107,-0.84717,0.00454817,0.0154025,622,1107,-20.466,-2.84057
-595,-83,-20.4062,3.01306,-0.00176542,-0.000958119,-0.00443912,0.00309566,-0.0058192,-0.830738,0.00522645,0.0180705,629,1107,-20.4062,-3.01307
-588,-83,-20.7151,2.57336,0,0,0,0,0,0,0,-1,636,1107,-20.7151,-2.57342
-581,-83,-21.5549,0.95459,0,0,0,0,0,0,0,-1,643,1107,-21.5549,-0.954623
-574,-83,-21.5563,0.96875,-0.00157351,-0.000866322,-0.0040037,0.00279936,-0.0052392,-0.829442,0.00471178,0.0354481,650,1107,-21.5564,-0.968805
-567,-83,-21.6097,0.974365,-0.00152231,-0.000584277,-0.00350022,0.00247821,-0.0045848,-0.852,0.00413785,0.041388,657,1107,-21.6097,-0.974355
-560,-83,-21.3663,0.838379,-0.00142958,-0.000285413,-0.00265177,0.00185529,-0.00357028,-0.891638,0.00318419,0.0438611,664,1107,-21.3663,-0.838379
-553,-83,-21.4856,1.00977,-0.00139343,-0.00011649,-0.00138943,0.000774149,-0.00228407,-1.00077,0.001836,0.0451911,671,1107,-21.4856,-1.00976
-546,-83,-21.6344,1.25793,-0.00134821,-0.000307642,0.000421026,-0.000158628,-0.00149722,1.23063,0.000949696,0.0418405,678,1107,-21.6344,-1.25789
-539,-83,-21.6847,1.33508,-0.00128904,-0.00122722,0.00265897,0.00140102,-0.00391728,0.79121,0.00318302,0.0424428,685,1107,-21.6847,-1.33504
-532,-83,-21.5775,1.43152,-0.00223429,-0.00369249,0.00406914,0.00117055,-0.00709734,0.69675,0.00516614,0.0438755,692,1107,-21.5774,-1.43156
-525,-83,0,0,0,0,0,0,0,0,0,-1,699,1107,0,0
-518,-83,0,0,0,0,0,0,0,0,0,-1,706,1107,0,0
-511,-83,0,0,0,0,0,0,0,0,0,-1,713,1107,0,0
-504,-83,0,0,0,0,0,0,0,0,0,-1,720,1107,0,0
-497,-83,0,0,0,0,0,0,0,0,0,-1,727,1107,0,0
-490,-83,0,0,0,0,0,0,0,0,0,-1,734,1107,0,0
-483,-83,0,0,0,0,0,0,0,0,0,-1,741,1107,0,0
-476,-83,0,0,0,0,0,0,0,0,0,-1,748,1107,0,0
-469,-83,0,0,0,0,0,0,0,0,0,-1,755,1107,0,0
-462,-83,0,0,0,0,0,0,0,0,0,-1,762,1107,0,0
-455,-83,0,0,0,0,0,0,0,0,0,-1,769,1107,0,0
-448,-83,0,0,0,0,0,0,0,0,0,-1,776,1107,0,0
-441,-83,0,0,0,0,0,0,0,0,0,-1,783,1107,0,0
-434,-83,0,0,0,0,0,0,0,0,0,-1,790,1107,0,0
-427,-83,0,0,0,0,0,0,0,0,0,-1,797,1107,0,0
-420,-83,0,0,0,0,0,0,0,0,0,-1,804,1107,0,0
-413,-83,0,0,0,0,0,0,0,0,0,-1,811,1107,0,0
-406,-83,0,0,0,0,0,0,0,0,0,-1,818,1107,0,0
-399,-83,0,0,0,0,0,0,0,0,0,-1,825,1107,0,0
-392,-83,0,0,0,0,0,0,0,0,0,-1,832,1107,0,0
-385,-83,0,0,0,0,0,0,0,0,0,-1,839,1107,0,0
-378,-83,0,0,0,0,0,0,0,0,0,-1,846,1107,0,0
-371,-83,0,0,0,0,0,0,0,0,0,-1,853,1107,0,0
-364,-83,0,0,0,0,0,0,0,0,0,-1,860,1107,0,0
-357,-83,0,0,0,0,0,0,0,0,0,-1,867,1107,0,0
-350,-83,0,0,0,0,0,0,0,0,0,-1,874,1107,0,0
-343,-83,0,0,0,0,0,0,0,0,0,-1,881,1107,0,0
-336,-83,0,0,0,0,0,0,0,0,0,-1,888,1107,0,0
-329,-83,0,0,0,0,0,0,0,0,0,-1,895,1107,0,0
-322,-83,0,0,0,0,0,0,0,0,0,-1,902,1107,0,0
-315,-83,0,0,0,0,0,0,0,0,0,-1,909,1107,0,0
-308,-83,0,0,0,0,0,0,0,0,0,-1,916,1107,0,0
-301,-83,0,0,0,0,0,0,0,0,0,-1,923,1107,0,0
-294,-83,0,0,0,0,0,0,0,0,0,-1,930,1107,0,0
-287,-83,0,0,0,0,0,0,0,0,0,-1,937,1107,0,0
-280,-83,0,0,0,0,0,0,0,0,0,-1,944,1107,0,0
-273,-83,0,0,0,0,0,0,0,0,0,-1,951,1107,0,0
-266,-83,0,0,0,0,0,0,0,0,0,-1,958,1107,0,0
-259,-83,0,0,0,0,0,0,0,0,0,-1,965,1107,0,0
-252,-83,0,0,0,0,0,0,0,0,0,-1,972,1107,0,0
-245,-83,0,0,0,0,0,0,0,0,0,-1,979,1107,0,0
-238,-83,0,0,0,0,0,0,0,0,0,-1,986,1107,0,0
-231,-83,0,0,0,0,0,0,0,0,0,-1,993,1107,0,0
-224,-83,0,0,0,0,0,0,0,0,0,-1,1000,1107,0,0
-217,-83,0,0,0,0,0,0,0,0,0,-1,1007,1107,0,0
-210,-83,0,0,0,0,0,0,0,0,0,-1,1014,1107,0,0
-203,-83,0,0,0,0,0,0,0,0,0,-1,1021,1107,0,0
-196,-83,0,0,0,0,0,0,0,0,0,-1,1028,1107,0,0
-189,-83,0,0,0,0,0,0,0,0,0,-1,1035,1107,0,0
-182,-83,0,0,0,0,0,0,0,0,0,-1,1042,1107,0,0
-175,-83,0,0,0,0,0,0,0,0,0,-1,1049,1107,0,0
-168,-83,0,0,0,0,0,0,0,0,0,-1,1056,1107,0,0
-161,-83,0,0,0,0,0,0,0,0,0,-1,1063,1107,0,0
-154,-83,0,0,0,0,0,0,0,0,0,-1,1070,1107,0,0
-147,-83,0,0,0,0,0,0,0,0,0,-1,1077,1107,0,0
-140,-83,0,0,0,0,0,0,0,0,0,-1,1084,1107,0,0
-133,-83,0,0,0,0,0,0,0,0,0,-1,1091,1107,0,0
-126,-83,0,0,0,0,0,0,0,0,0,-1,1098,1107,0,0
-119,-83,0,0,0,0,0,0,0,0,0,-1,1105,1107,0,0
-112,-83,0,0,0,0,0,0,0,0,0,-1,1112,1107,0,0
-105,-83,0,0,0,0,0,0,0,0,0,-1,1119,1107,0,0
-98,-83,0,0,0,0,0,0,0,0,0,-1,1126,1107,0,0
-91,-83,0,0,0,0,0,0,0,0,0,-1,1133,1107,0,0
-84,-83,0,0,0,0,0,0,0,0,0,-1,1140,1107,0,0
-77,-83,0,0,0,0,0,0,0,0,0,-1,1147,1107,0,0
-70,-83,0,0,0,0,0,0,0,0,0,-1,1154,1107,0,0
-63,-83,0,0,0,0,0,0,0,0,0,-1,1161,1107,0,0
-56,-83,0,0,0,0,0,0,0,0,0,-1,1168,1107,0,0
-49,-83,0,0,0,0,0,0,0,0,0,-1,1175,1107,0,0
-42,-83,0,0,0,0,0,0,0,0,0,-1,1182,1107,0,0
-35,-83,0,0,0,0,0,0,0,0,0,-1,1189,1107,0,0
-28,-83,0,0,0,0,0,0,0,0,0,-1,1196,1107,0,0
-21,-83,0,0,0,0,0,0,0,0,0,-1,1203,1107,0,0
-14,-83,0,0,0,0,0,0,0,0,0,-1,1210,1107,0,0
-7,-83,0,0,0,0,0,0,0,0,0,-1,1217,1107,0,0
0,-83,0,0,0,0,0,0,0,0,0,-1,1224,1107,0,0
7,-83,0,0,0,0,0,0,0,0,0,-1,1231,1107,0,0
14,-83,0,0,0,0,0,0,0,0,0,-1,1238,1107,0,0
21,-83,0,0,0,0,0,0,0,0,0,-1,1245,1107,0,0
28,-83,0,0,0,0,0,0,0,0,0,-1,1252,1107,0,0
35,-83,0,0,0,0,0,0,0,0,0,-1,1259,1107,0,0
42,-83,0,0,0,0,0,0,0,0,0,-1,1266,1107,0,0
49,-83,0,0,0,0,0,0,0,0,0,-1,1273,1107,0,0
56,-83,0,0,0,0,0,0,0,0,0,-1,1280,1107,0,0
63,-83,0,0,0,0,0,0,0,0,0,-1,1287,1107,0,0
70,-83,0,0,0,0,0,0,0,0,0,-1,1294,1107,0,0
77,-83,0,0,0,0,0,0,0,0,0,-1,1301,1107,0,0
84,-83,0,0,0,0,0,0,0,0,0,-1,1308,1107,0,0
91,-83,0,0,0,0,0,0,0,0,0,-1,1315,1107,0,0
98,-83,0,0,0,0,0,0,0,0,0,-1,1322,1107,0,0
105,-83,0,0,0,0,0,0,0,0,0,-1,1329,1107,0,0
112,-83,0,0,0,0,0,0,0,0,0,-1,1336,1107,0,0
119,-83,0,0,0,0,0,0,0,0,0,-1,1343,1107,0,0
126,-83,0,0,0,0,0,0,0,0,0,-1,1350,1107,0,0
133,-83,0,0,0,0,0,0,0,0,0,-1,1357,1107,0,0
140,-83,0,0,0,0,0,0,0,0,0,-1,1364,1107,0,0
147,-83,0,0,0,0,0,0,0,0,0,-1,1371,1107,0,0
154,-83,0,0,0,0,0,0,0,0,0,-1,1378,1107,0,0
161,-83,0,0,0,0,0,0,0,0,0,-1,1385,1107,0,0
168,-83,0,0,0,0,0,0,0,0,0,-1,1392,1107,0,0
175,-83,0,0,0,0,0,0,0,0,0,-1,1399,1107,0,0
182,-83,0,0,0,0,0,0,0,0,0,-1,1406,1107,0,0
189,-83,0,0,0,0,0,0,0,0,0,-1,1413,1107,0,0
196,-83,0,0,0,0,0,0,0,0,0,-1,1420,1107,0,0
203,-83,0,0,0,0,0,0,0,0,0,-1,1427,1107,0,0
210,-83,0,0,0,0,0,0,0,0,0,-1,1434,1107,0,0
217,-83,0,0,0,0,0,0,0,0,0,-1,1441,1107,0,0
224,-83,0,0,0,0,0,0,0,0,0,-1,1448,1107,0,0
231,-83,0,0,0,0,0,0,0,0,0,-1,1455,1107,0,0
238,-83,0,0,0,0,0,0,0,0,0,-1,1462,1107,0,0
245,-83,0,0,0,0,0,0,0,0,0,-1,1469,1107,0,0
252,-83,0,0,0,0,0,0,0,0,0,-1,1476,1107,0,0
259,-83,0,0,0,0,0,0,0,0,0,-1,1483,1107,0,0
266,-83,0,0,0,0,0,0,0,0,0,-1,1490,1107,0,0
273,-83,0,0,0,0,0,0,0,0,0,-1,1497,1107,0,0
280,-83,0,0,0,0,0,0,0,0,0,-1,1504,1107,0,0
287,-83,0,0,0,0,0,0,0,0,0,-1,1511,1107,0,0
294,-83,0,0,0,0,0,0,0,0,0,-1,1518,1107,0,0
301,-83,0,0,0,0,0,0,0,0,0,-1,1525,1107,0,0
308,-83,0,0,0,0,0,0,0,0,0,-1,1532,1107,0,0
315,-83,0,0,0,0,0,0,0,0,0,-1,1539,1107,0,0
322,-83,0,0,0,0,0,0,0,0,0,-1,1546,1107,0,0
329,-83,0,0,0,0,0,0,0,0,0,-1,1553,1107,0,0
336,-83,0,0,0,0,0,0,0,0,0,-1,1560,1107,0,0
343,-83,0,0,0,0,0,0,0,0,0,-1,1567,1107,0,0
350,-83,0,0,0,0,0,0,0,0,0,-1,1574,1107,0,0
357,-83,0,0,0,0,0,0,0,0,0,-1,1581,1107,0,0
364,-83,0,0,0,0,0,0,0,0,0,-1,1588,1107,0,0
371,-83,0,0,0,0,0,0,0,0,0,-1,1595,1107,0,0
378,-83,0,0,0,0,0,0,0,0,0,-1,1602,1107,0,0
385,-83,0,0,0,0,0,0,0,0,0,-1,1609,1107,0,0
392,-83,0,0,0,0,0,0,0,0,0,-1,1616,1107,0,0
399,-83,0,0,0,0,0,0,0,0,0,-1,1623,1107,0,0
406,-83,0,0,0,0,0,0,0,0,0,-1,1630,1107,0,0
413,-83,0,0,0,0,0,0,0,0,0,-1,1637,1107,0,0
420,-83,0,0,0,0,0,0,0,0,0,-1,1644,1107,0,0
427,-83,0,0,0,0,0,0,0,0,0,-1,1651,1107,0,0
434,-83,0,0,0,0,0,0,0,0,0,-1,1658,1107,0,0
441,-83,0,0,0,0,0,0,0,0,0,-1,1665,1107,0,0
448,-83,0,0,0,0,0,0,0,0,0,-1,1672,1107,0,0
455,-83,0,0,0,0,0,0,0,0,0,-1,1679,1107,0,0
462,-83,0,0,0,0,0,0,0,0,0,-1,1686,1107,0,0
469,-83,0,0,0,0,0,0,0,0,0,-1,1693,1107,0,0
476,-83,0,0,0,0,0,0,0,0,0,-1,1700,1107,0,0
483,-83,0,0,0,0,0,0,0,0,0,-1,1707,1107,0,0
490,-83,0,0,0,0,0,0,0,0,0,-1,1714,1107,0,0
497,-83,0,0,0,0,0,0,0,0,0,-1,1721,1107,0,0
504,-83,0,0,0,0,0,0,0,0,0,-1,1728,1107,0,0
511,-83,0,0,0,0,0,0,0,0,0,-1,1735,1107,0,0
518,-83,0,0,0,0,0,0,0,0,0,-1,1742,1107,0,0
525,-83,0,0,0,0,0,0,0,0,0,-1,1749,1107,0,0
532,-83,0,0,0,0,0,0,0,0,0,-1,1756,1107,0,0
539,-83,0,0,0,0,0,0,0,0,0,-1,1763,1107,0,0
546,-83,0,0,0,0,0,0,0,0,0,-1,1770,1107,0,0
553,-83,0,0,0,0,0,0,0,0,0,-1,1777,1107,0,0
560,-83,0,0,0,0,0,0,0,0,0,-1,1784,1107,0,0
567,-83,0,0,0,0,0,0,0,0,0,-1,1791,1107,0,0
574,-83,0,0,0,0,0,0,0,0,0,-1,1798,1107,0,0
581,-83,0,0,0,0,0,0,0,0,0,-1,1805,1107,0,0
588,-83,0,0,0,0,0,0,0,0,0,-1,1812,1107,0,0
595,-83,0,0,0,0,0,0,0,0,0,-1,1819,1107,0,0
602,-83,0,0,0,0,0,0,0,0,0,-1,1826,1107,0,0
609,-83,0,0,0,0,0,0,0,0,0,-1,1833,1107,0,0
616,-83,0,0,0,0,0,0,0,0,0,-1,1840,1107,0,0
623,-83,0,0,0,0,0,0,0,0,0,-1,1847,1107,0,0
630,-83,0,0,0,0,0,0,0,0,0,-1,1854,1107,0,0
637,-83,0,0,0,0,0,0,0,0,0,-1,1861,1107,0,0
644,-83,30.7317,2.90332,0.00309781,0.00236136,-0.00805703,0.010795,-0.00533585,-0.762563,0.00948928,0.0370432,1868,1107,30.7317,-2.90334
651,-83,30.7169,2.6637,0.00242234,0.00185142,-0.00493084,0.00707597,-0.00280222,-0.756484,0.00587841,0.040773,1875,1107,30.7169,-2.66373
658,-83,30.7957,2.46069,0.00183543,0.00142323,-0.00298799,0.00462441,-0.00136576,-0.750964,0.00362499,0.0446807,1882,1107,30.7957,-2.46063
665,-83,30.9218,2.25415,0.00145721,0.000991491,-0.0013271,0.00257173,-0.000123026,-0.69855,0.00175693,0.0432519,1889,1107,30.9218,-2.25414
672,-83,30.8328,2.46509,0.00125562,0.000380894,0.000343465,0.00137436,0.00026215,0.332861,0.000842562,0.0405644,1896,1107,30.8328,-2.46514
679,-83,30.8528,2.77698,0.000887164,-0.00022077,0.00175146,0.00217017,-0.00150378,0.632231,0.00213276,0.0397231,1903,1107,30.8528,-2.77696
686,-83,30.9075,3.00342,0.000448898,-0.000779822,0.00271711,0.00262024,-0.00295116,0.674214,0.00321854,0.0367267,1910,1107,30.9074,-3.00344
693,-83,30.8931,2.94312,0.000126398,-0.00120529,0.00334013,0.00286641,-0.0039453,0.687014,0.00394915,0.036077,1917,1107,30.893,-2.94314
700,-83,30.8549,2.89075,-0.000254619,-0.0014575,0.00378031,0.00297179,-0.00468391,0.70651,0.00445671,0.0299546,1924,1107,30.8549,-2.89074
707,-83,30.8369,2.91248,-0.000544592,-0.00158738,0.00404192,0.00300942,-0.0051414,0.721254,0.00475923,0.0206728,1931,1107,30.8369,-2.91253
714,-83,30.8583,3.38611,-0.000821039,-0.00159947,0.00419598,0.00300373,-0.00542425,0.739151,0.00493234,0.0470586,1938,1107,30.8583,-3.38612
721,-83,29.4652,5.59412,0,0,0,0,0,0,0,-1,1945,1107,29.4653,-5.5941
728,-83,29.47,5.4248,-0.00130028,-0.00122415,0.00378486,0.00252284,-0.00504727,0.790426,0.00445087,0.0255787,1952,1107,29.4699,-5.42477
735,-83,29.3348,5.27356,-0.00166906,-0.000743812,0.00337394,0.00219907,-0.00461195,0.853532,0.00401376,0.0273399,1959,1107,29.3348,-5.27355
742,-83,29.4529,5.13879,-0.00175274,0.0002113,0.00300313,0.0023889,-0.00393034,0.943418,0.00368441,0.0168243,1966,1107,29.4529,-5.13877
749,-83,29.5056,4.99158,-0.00168227,0.00141697,0.00294997,0.00319957,-0.00346486,1.02724,0.00384872,0.0131462,1973,1107,29.5056,-4.99158
756,-83,29.5135,4.85364,-0.00165408,0.00321591,0.00302408,0.00466347,-0.00310164,1.12435,0.00451332,0.014496,1980,1107,29.5136,-4.85367
763,-83,29.5007,4.68994,-0.00160702,0.00707571,0.0032327,0.00814709,-0.0026784,1.25077,0.0065105,0.0114928,1987,1107,29.5007,-4.68988
770,-83,29.4229,4.58191,-0.00155595,0.0113587,0.00365526,0.0123214,-0.00251874,1.31325,0.00916991,0.0135457,1994,1107,29.4228,-4.58186
777,-83,29.3549,4.46423,-0.00153702,0.0168719,0.0049115,0.0181003,-0.00276544,1.32571,0.0130865,0.014912,2001,1107,29.3549,-4.46424
784,-83,29.2988,4.34753,-0.00165407,0.0237715,0.00676392,0.0254589,-0.00334148,1.32632,0.0181891,0.0235663,2008,1107,29.2988,-4.34748
791,-83,29.5349,4.28931,-0.00212778,0.0326599,0.00934271,0.0350102,-0.0044781,1.32434,0.024967,0.0401031,2015,1107,29.5349,-4.28935
798,-83,29.739,4.21887,0,0,0,0,0,0,0,-1,2022,1107,29.739,-4.21882
805,-83,30.2234,4.46594,-0.00391468,0.0593572,0.0176186,0.0639324,-0.00848991,1.31673,0.0457151,0.0485904,2029,1107,30.2235,-4.46591
812,-83,29.7126,3.10889,-0.0055987,0.0792156,0.0240129,0.0855422,-0.0119254,1.31318,0.0613906,0.0457055,2036,1107,29.7126,-3.10888
-700,-90,0,0,0,0,0,0,0,0,0,-1,524,1114,0,0
-693,-90,-20.0145,-3.91589,-0.00123907,0.0399203,0.0161974,0.0455299,-0.00684871,1.2374,0.0328748,0.0430333,531,1114,-20.0145,3.91592
-686,-90,-20.4874,-3.06104,-0.00371937,0.0313785,0.017438,0.0385692,-0.01091,1.17968,0.0300178,0.0434076,538,1114,-20.4874,3.061
-679,-90,-20.5648,-2.37244,0,0,0,0,0,0,0,-1,545,1114,-20.5648,2.3724
-672,-90,-20.6285,-1.36536,-0.00519475,0.0187381,0.0158068,0.0265972,-0.0130538,1.10939,0.0233334,0.0470304,552,1114,-20.6285,1.36538
-665,-90,-20.4811,-0.544312,0,0,0,0,0,0,0,-1,559,1114,-20.4811,0.544261
-658,-90,-20.3434,0.369019,-0.00468097,0.0104595,0.0119298,0.0170183,-0.0112398,1.06812,0.0164281,0.0433647,566,1114,-20.3434,-0.369062
-651,-90,-20.1801,1.28931,-0.00411045,0.00758608,0.00970409,0.0130679,-0.0095923,1.05658,0.0131341,0.0314096,573,1114,-20.1801,-1.28936
-644,-90,-20.2195,1.67578,-0.00372982,0.00524938,0.00754567,0.00954008,-0.00802052,1.05376,0.0101513,0.0135532,580,1114,-20.2195,-1.67573
-637,-90,-20.2206,1.94482,-0.0033308,0.00371857,0.00520679,0.0064815,-0.00609373,1.08294,0.00726146,0.0109925,587,1114,-20.2206,-1.94486
-630,-90,-20.2223,2.12866,-0.00248724,0.000768815,0.00270631,0.00229905,-0.00401747,1.05618,0.00369156,0.0106102,594,1114,-20.2223,-2.12867
-623,-90,-20.2327,2.30823,-0.00189718,0.000221222,0.000757423,0.000464172,-0.00214013,1.26041,0.00160402,0.00907847,601,1114,-20.2327,-2.30827
-616,-90,-20.2501,2.51965,-0.00162319,-0.000272989,-0.000880426,0.000161374,-0.00205756,-1.11248,0.00142854,0.00910804,608,1114,-20.2501,-2.5197
-609,-90,-20.2579,2.67993,-0.00148719,-0.000598489,-0.0019636,0.000970411,-0.00305609,-0.896671,0.00242643,0.0132024,615,1114,-20.2579,-2.67991
-602,-90,-20.3031,2.85156,-0.00133743,-0.000765052,-0.00302358,0.00198585,-0.00408834,-0.832584,0.00357628,0.0136943,622,1114,-20.3031,-2.85156
-595,-90,-20.2153,3.07275,-0.00126598,-0.000766151,-0.00352575,0.00251853,-0.00455066,-0.82078,0.00413723,0.0129694,629,1114,-20.2153,-3.07271
-588,-90,-20.1447,3.26587,0,0,0,0,0,0,0,-1,636,1114,-20.1446,-3.26582
-581,-90,-21.5576,1.01782,0,0,0,0,0,0,0,-1,643,1114,-21.5576,-1.01778
-574,-90,-21.5534,1.08276,-0.00110883,-0.000564699,-0.00307923,0.00225446,-0.00392799,-0.829461,0.00361276,0.0343058,650,1114,-21.5534,-1.08282
-567,-90,-21.5536,1.13635,-0.00112113,-0.000259254,-0.0026791,0.00202334,-0.00340372,-0.865141,0.00316692,0.0349691,657,1114,-21.5536,-1.13633
-560,-90,-21.41,1.08423,-0.00114782,6.03604e-05,-0.00199685,0.0015425,-0.00262996,-0.932282,0.00243609,0.0383973,664,1114,-21.4101,-1.08417
-553,-90,-21.4377,1.13696,-0.0013083,0.000253979,-0.000965333,0.00071463,-0.00176895,-1.12556,0.00147634,0.0399514,671,1114,-21.4377,-1.137
-546,-90,-21.5779,1.38257,-0.00155693,7.99249e-05,0.0005551,0.000250416,-0.00172742,1.27281,0.00124352,0.0414928,678,1114,-21.578,-1.38262
-539,-90,-21.6476,1.36731,-0.0018214,-0.000869686,0.00257751,0.00127552,-0.00396661,0.87668,0.00315668,0.0426575,685,1114,-21.6476,-1.36732
-532,-90,-21.6566,1.42737,-0.00285809,-0.00338403,0.00418449,0.00107168,-0.0073138,0.754018,0.00526955,0.0423009,692,1114,-21.6566,-1.42733
-525,-90,0,0,0,0,0,0,0,0,0,-1,699,1114,0,0
-518,-90,0,0,0,0,0,0,0,0,0,-1,706,1114,0,0
-511,-90,0,0,0,0,0,0,0,0,0,-1,713,1114,0,0
-504,-90,0,0,0,0,0,0,0,0,0,-1,720,1114,0,0
-497,-90,0,0,0,0,0,0,0,0,0,-1,727,1114,0,0
-490,-90,0,0,0,0,0,0,0,0,0,-1,734,1114,0,0
-483,-90,0,0,0,0,0,0,0,0,0,-1,741,1114,0,0
-476,-90,0,0,0,0,0,0,0,0,0,-1,748,1114,0,0
-469,-90,0,0,0,0,0,0,0,0,0,-1,755,1114,0,0
-462,-90,0,0,0,0,0,0,0,0,0,-1,762,1114,0,0
-455,-90,0,0,0,0,0,0,0,0,0,-1,769,1114,0,0
-448,-90,0,0,0,0,0,0,0,0,0,-1,776,1114,0,0
-441,-90,0,0,0,0,0,0,0,0,0,-1,783,1114,0,0
-434,-90,0,0,0,0,0,0,0,0,0,-1,790,1114,0,0
-427,-90,0,0,0,0,0,0,0,0,0,-1,797,1114,0,0
-420,-90,0,0,0,0,0,0,0,0,0,-1,804,1114,0,0
-413,-90,0,0,0,0,0,0,0,0,0,-1,811,1114,0,0
-406,-90,0,0,0,0,0,0,0,0,0,-1,818,1114,0,0
-399,-90,0,0,0,0,0,0,0,0,0,-1,825,1114,0,0
-392,-90,0,0,0,0,0,0,0,0,0,-1,832,1114,0,0
-385,-90,0,0,0,0,0,0,0,0,0,-1,839,1114,0,0
-378,-90,0,0,0,0,0,0,0,0,0,-1,846,1114,0,0
-371,-90,0,0,0,0,0,0,0,0,0,-1,853,1114,0,0
-364,-90,0,0,0,0,0,0,0,0,0,-1,860,1114,0,0
-357,-90,0,0,0,0,0,0,0,0,0,-1,867,1114,0,0
-350,-90,0,0,0,0,0,0,0,0,0,-1,874,1114,0,0
-343,-90,0,0,0,0,0,0,0,0,0,-1,881,1114,0,0
-336,-90,0,0,0,0,0,0,0,0,0,-1,888,1114,0,0
-329,-90,0,0,0,0,0,0,0,0,0,-1,895,1114,0,0
-322,-90,0,0,0,0,0,0,0,0,0,-1,902,1114,0,0
-315,-90,0,0,0,0,0,0,0,0,0,-1,909,1114,0,0
-308,-90,0,0,0,0,0,0,0,0,0,-1,916,1114,0,0
-301,-90,0,0,0,0,0,0,0,0,0,-1,923,1114,0,0
-294,-90,0,0,0,0,0,0,0,0,0,-1,930,1114,0,0
-287,-90,0,0,0,0,0,0,0,0,0,-1,937,1114,0,0
-280,-90,0,0,0,0,0,0,0,0,0,-1,944,1114,0,0
-273,-90,0,0,0,0,0,0,0,0,0,-1,951,1114,0,0
-266,-90,0,0,0,0,0,0,0,0,0,-1,958,1114,0,0
-259,-90,0,0,0,0,0,0,0,0,0,-1,965,1114,0,0
-252,-90,0,0,0,0,0,0,0,0,0,-1,972,1114,0,0
-245,-90,0,0,0,0,0,0,0,0,0,-1,979,1114,0,0
-238,-90,0,0,0,0,0,0,0,0,0,-1,986,1114,0,0
-231,-90,0,0,0,0,0,0,0,0,0,-1,993,1114,0,0
-224,-90,0,0,0,0,0,0,0,0,0,-1,1000,1114,0,0
-217,-90,0,0,0,0,0,0,0,0,0,-1,1007,1114,0,0
-210,-90,0,0,0,0,0,0,0,0,0,-1,1014,1114,0,0
-203,-90,0,0,0,0,0,0,0,0,0,-1,1021,1114,0,0
-196,-90,0,0,0,0,0,0,0,0,0,-1,1028,1114,0,0
-189,-90,0,0,0,0,0,0,0,0,0,-1,1035,1114,0,0
-182,-90,0,0,0,0,0,0,0,0,0,-1,1042,1114,0,0
-175,-90,0,0,0,0,0,0,0,0,0,-1,1049,1114,0,0
-168,-90,0,0,0,0,0,0,0,0,0,-1,1056,1114,0,0
-161,-90,0,0,0,0,0,0,0,0,0,-1,1063,1114,0,0
-154,-90,0,0,0,0,0,0,0,0,0,-1,1070,1114,0,0
-147,-90,0,0,0,0,0,0,0,0,0,-1,1077,1114,0,0
-140,-90,0,0,0,0,0,0,0,0,0,-1,1084,1114,0,0
-133,-90,0,0,0,0,0,0,0,0,0,-1,1091,1114,0,0
-126,-90,0,0,0,0,0,0,0,0,0,-1,1098,1114,0,0
-119,-90,0,0,0,0,0,0,0,0,0,-1,1105,1114,0,0
-112,-90,0,0,0,0,0,0,0,0,0,-1,1112,1114,0,0
-105,-90,0,0,0,0,0,0,0,0,0,-1,1119,1114,0,0
-98,-90,0,0,0,0,0,0,0,0,0,-1,1126,1114,0,0
-91,-90,0,0,0,0,0,0,0,0,0,-1,1133,1114,0,0
-84,-90,0,0,0,0,0,0,0,0,0,-1,1140,1114,0,0
-77,-90,0,0,0,0,0,0,0,0,0,-1,1147,1114,0,0
-70,-90,0,0,0,0,0,0,0,0,0,-1,1154,1114,0,0
-63,-90,0,0,0,0,0,0,0,0,0,-1,1161,1114,0,0
-56,-90,0,0,0,0,0,0,0,0,0,-1,1168,1114,0,0
-49,-90,0,0,0,0,0,0,0,0,0,-1,1175,1114,0,0
-42,-90,0,0,0,0,0,0,0,0,0,-1,1182,1114,0,0
-35,-90,0,0,0,0,0,0,0,0,0,-1,1189,1114,0,0
-28,-90,0,0,0,0,0,0,0,0,0,-1,1196,1114,0,0
-21,-90,0,0,0,0,0,0,0,0,0,-1,1203,1114,0,0
-14,-90,0,0,0,0,0,0,0,0,0,-1,1210,1114,0,0
-7,-90,0,0,0,0,0,0,0,0,0,-1,1217,1114,0,0
0,-90,0,0,0,0,0,0,0,0,0,-1,1224,1114,0,0
7,-90,0,0,0,0,0,0,0,0,0,-1,1231,1114,0,0
14,-90,0,0,0,0,0,0,0,0,0,-1,1238,1114,0,0
21,-90,0,0,0,0,0,0,0,0,0,-1,1245,1114,0,0
28,-90,0,0,0,0,0,0,0,0,0,-1,1252,1114,0,0
35,-90,0,0,0,0,0,0,0,0,0,-1,1259,1114,0,0
42,-90,0,0,0,0,0,0,0,0,0,-1,1266,1114,0,0
49,-90,0,0,0,0,0,0,0,0,0,-1,1273,1114,0,0
56,-90,0,0,0,0,0,0,0,0,0,-1,1280,1114,0,0
63,-90,0,0,0,0,0,0,0,0,0,-1,1287,1114,0,0
70,-90,0,0,0,0,0,0,0,0,0,-1,1294,1114,0,0
77,-90,0,0,0,0,0,0,0,0,0,-1,1301,1114,0,0
84,-90,0,0,0,0,0,0,0,0,0,-1,1308,1114,0,0
91,-90,0,0,0,0,0,0,0,0,0,-1,1315,1114,0,0
98,-90,0,0,0,0,0,0,0,0,0,-1,1322,1114,0,0
105,-90,0,0,0,0,0,0,0,0,0,-1,1329,1114,0,0
112,-90,0,0,0,0,0,0,0,0,0,-1,1336,1114,0,0
119,-90,0,0,0,0,0,0,0,0,0,-1,1343,1114,0,0
126,-90,0,0,0,0,0,0,0,0,0,-1,1350,1114,0,0
133,-90,0,0,0,0,0,0,0,0,0,-1,1357,1114,0,0
140,-90,0,0,0,0,0,0,0,0,0,-1,1364,1114,0,0
147,-90,0,0,0,0,0,0,0,0,0,-1,1371,1114,0,0
154,-90,0,0,0,0,0,0,0,0,0,-1,1378,1114,0,0
161,-90,0,0,0,0,0,0,0,0,0,-1,1385,1114,0,0
168,-90,0,0,0,0,0,0,0,0,0,-1,1392,1114,0,0
175,-90,0,0,0,0,0,0,0,0,0,-1,1399,1114,0,0
182,-90,0,0,0,0,0,0,0,0,0,-1,1406,1114,0,0
189,-90,0,0,0,0,0,0,0,0,0,-1,1413,1114,0,0
196,-90,0,0,0,0,0,0,0,0,0,-1,1420,1114,0,0
203,-90,0,0,0,0,0,0,0,0,0,-1,1427,1114,0,0
210,-90,0,0,0,0,0,0,0,0,0,-1,1434,1114,0,0
217,-90,0,0,0,0,0,0,0,0,0,-1,1441,1114,0,0
224,-90,0,0,0,0,0,0,0,0,0,-1,1448,1114,0,0
231,-90,0,0,0,0,0,0,0,0,0,-1,1455,1114,0,0
238,-90,0,0,0,0,0,0,0,0,0,-1,1462,1114,0,0
245,-90,0,0,0,0,0,0,0,0,0,-1,1469,1114,0,0
252,-90,0,0,0,0,0,0,0,0,0,-1,1476,1114,0,0
259,-90,0,0,0,0,0,0,0,0,0,-1,1483,1114,0,0
266,-90,0,0,0,0,0,0,0,0,0,-1,1490,1114,0,0
273,-90,0,0,0,0,0,0,0,0,0,-1,1497,1114,0,0
280,-90,0,0,0,0,0,0,0,0,0,-1,1504,1114,0,0
287,-90,0,0,0,0,0,0,0,0,0,-1,1511,1114,0,0
294,-90,0,0,0,0,0,0,0,0,0,-1,1518,1114,0,0
301,-90,0,0,0,0,0,0,0,0,0,-1,1525,1114,0,0
308,-90,0,0,0,0,0,0,0,0,0,-1,1532,1114,0,0
315,-90,0,0,0,0,0,0,0,0,0,-1,1539,1114,0,0
322,-90,0,0,0,0,0,0,0,0,0,-1,1546,1114,0,0
329,-90,0,0,0,0,0,0,0,0,0,-1,1553,1114,0,0
336,-90,0,0,0,0,0,0,0,0,0,-1,1560,1114,0,0
343,-90,0,0,0,0,0,0,0,0,0,-1,1567,1114,0,0
350,-90,0,0,0,0,0,0,0,0,0,-1,1574,1114,0,0
357,-90,0,0,0,0,0,0,0,0,0,-1,1581,1114,0,0
364,-90,0,0,0,0,0,0,0,0,0,-1,1588,1114,0,0
371,-90,0,0,0,0,0,0,0,0,0,-1,1595,1114,0,0
378,-90,0,0,0,0,0,0,0,0,0,-1,1602,1114,0,0
385,-90,0,0,0,0,0,0,0,0,0,-1,1609,1114,0,0
392,-90,0,0,0,0,0,0,0,0,0,-1,1616,1114,0,0
399,-90,0,0,0,0,0,0,0,0,0,-1,1623,1114,0,0
406,-90,0,0,0,0,0,0,0,0,0,-1,1630,1114,0,0
413,-90,0,0,0,0,0,0,0,0,0,-1,1637,1114,0,0
420,-90,0,0,0,0,0,0,0,0,0,-1,1644,1114,0,0
427,-90,0,0,0,0,0,0,0,0,0,-1,1651,1114,0,0
434,-90,0,0,0,0,0,0,0,0,0,-1,1658,1114,0,0
441,-90,0,0,0,0,0,0,0,0,0,-1,1665,1114,0,0
448,-90,0,0,0,0,0,0,0,0,0,-1,1672,1114,0,0
455,-90,0,0,0,0,0,0,0,0,0,-1,1679,1114,0,0
462,-90,0,0,0,0,0,0,0,0,0,-1,1686,1114,0,0
469,-90,0,0,0,0,0,0,0,0,0,-1,1693,1114,0,0
476,-90,0,0,0,0,0,0,0,0,0,-1,1700,1114,0,0
483,-90,0,0,0,0,0,0,0,0,0,-1,1707,1114,0,0
490,-90,0,0,0,0,0,0,0,0,0,-1,1714,1114,0,0
497,-90,0,0,0,0,0,0,0,0,0,-1,1721,1114,0,0
504,-90,0,0,0,0,0,0,0,0,0,-1,1728,1114,0,0
511,-90,0,0,0,0,0,0,0,0,0,-1,1735,1114,0,0
518,-90,0,0,0,0,0,0,0,0,0,-1,1742,1114,0,0
525,-90,0,0,0,0,0,0,0,0,0,-1,1749,1114,0,0
532,-90,0,0,0,0,0,0,0,0,0,-1,1756,1114,0,0
539,-90,0,0,0,0,0,0,0,0,0,-1,1763,1114,0,0
546,-90,0,0,0,0,0,0,0,0,0,-1,1770,1114,0,0
553,-90,0,0,0,0,0,0,0,0,0,-1,1777,1114,0,0
560,-90,0,0,0,0,0,0,0,0,0,-1,1784,1114,0,0
567,-90,0,0,0,0,0,0,0,0,0,-1,1791,1114,0,0
574,-90,0,0,0,0,0,0,0,0,0,-1,1798,1114,0,0
581,-90,0,0,0,0,0,0,0,0,0,-1,1805,1114,0,0
588,-90,0,0,0,0,0,0,0,0,0,-1,1812,1114,0,0
595,-90,0,0,0,0,0,0,0,0,0,-1,1819,1114,0,0
602,-90,0,0,0,0,0,0,0,0,0,-1,1826,1114,0,0
609,-90,0,0,0,0,0,0,0,0,0,-1,1833,1114,0,0
616,-90,0,0,0,0,0,0,0,0,0,-1,1840,1114,0,0
623,-90,0,0,0,0,0,0,0,0,0,-1,1847,1114,0,0
630,-90,0,0,0,0,0,0,0,0,0,-1,1854,1114,0,0
637,-90,0,0,0,0,0,0,0,0,0,-1,1861,1114,0,0
644,-90,30.663,2.83337,0.00460204,0.000799019,-0.00824477,0.0111617,-0.00576067,-0.672064,0.00993464,0.0356625,1868,1114,30.6629,-2.83342
651,-90,30.7527,2.72498,0.00331676,0.000400295,-0.0050733,0.00713724,-0.00342018,-0.645454,0.00621999,0.0378445,1875,1114,30.7527,-2.72502
658,-90,30.8562,2.59155,0.00239075,0.000118278,-0.00306963,0.00452769,-0.00201866,-0.608141,0.00387096,0.0426802,1882,1114,30.8562,-2.59158
665,-90,30.8746,2.50085,0.00177137,-0.000152139,-0.00133493,0.00245491,-0.000835684,-0.473238,0.00197501,0.0442169,1889,1114,30.8746,-2.50083
672,-90,30.7528,2.62427,0.00138444,-0.000557263,0.000299028,0.00142944,-0.000602271,0.149393,0.00120498,0.0433594,1896,1114,30.7528,-2.6243
679,-90,30.8448,3.01428,0.000898347,-0.000940057,0.00159152,0.00181704,-0.00185875,0.523519,0.00212227,0.0388892,1903,1114,30.8449,-3.01434
686,-90,30.925,3.12915,0.000417333,-0.00129815,0.0024342,0.00214049,-0.00302131,0.616005,0.00299459,0.03405,1910,1114,30.925,-3.12917
693,-90,30.8855,3.02319,8.34347e-05,-0.00154887,0.00294993,0.00232803,-0.00379347,0.65044,0.00356784,0.0328131,1917,1114,30.8855,-3.02324
700,-90,30.8516,2.9187,-0.000299508,-0.00167401,0.00333329,0.00241665,-0.00439017,0.683734,0.00398459,0.0279787,1924,1114,30.8515,-2.91867
707,-90,30.8496,2.94458,-0.000603582,-0.00170578,0.00356244,0.00245014,-0.0047595,0.708658,0.00423307,0.019235,1931,1114,30.8496,-2.94464
714,-90,30.7645,3.69043,-0.000874857,-0.00162777,0.00370181,0.00246959,-0.00497221,0.734725,0.00437676,0.049992,1938,1114,30.7645,-3.69047
721,-90,29.3112,5.61426,0,0,0,0,0,0,0,-1,1945,1114,29.3111,-5.61422
728,-90,29.3119,5.50378,-0.00126892,-0.00111698,0.00328936,0.00209729,-0.00448319,0.796944,0.00388159,0.0213237,1952,1114,29.3119,-5.50376
735,-90,29.2317,5.31738,-0.00156252,-0.000630454,0.00290621,0.00184685,-0.00403982,0.8649,0.00347639,0.0246085,1959,1114,29.2317,-5.31737
742,-90,29.2654,5.13342,-0.00159482,0.000292799,0.0026632,0.00217448,-0.0034765,0.955688,0.00329134,0.0213656,1966,1114,29.2654,-5.1334
749,-90,29.3834,4.9541,-0.0014751,0.00144761,0.00269119,0.00304862,-0.00307611,1.03413,0.00353612,0.0149057,1973,1114,29.3834,-4.95409
756,-90,29.3743,4.81348,-0.00140324,0.00343433,0.00287436,0.0047722,-0.00274111,1.13517,0.00439033,0.0145953,1980,1114,29.3742,-4.81342
763,-90,29.344,4.66833,-0.00127182,0.00734355,0.0032013,0.00840285,-0.00233112,1.25124,0.00651937,0.012319,1987,1114,29.344,-4.66833
770,-90,29.3026,4.53503,-0.0011068,0.011704,0.0037791,0.0127357,-0.00213851,1.30428,0.00928575,0.0150697,1994,1114,29.3026,-4.53497
777,-90,29.2612,4.41602,-0.00100704,0.0172031,0.00509079,0.0185296,-0.00233358,1.31589,0.0131999,0.0139685,2001,1114,29.2612,-4.41603
784,-90,29.1906,4.33923,-0.00105452,0.0241162,0.00691916,0.0258928,-0.00283113,1.31946,0.0182788,0.0266145,2008,1114,29.1906,-4.33922
791,-90,29.1548,4.27258,-0.00145004,0.0330198,0.00941013,0.0354214,-0.00385164,1.32092,0.0249973,0.0431074,2015,1114,29.1548,-4.27263
798,-90,29.345,4.06055,-0.0021133,0.0445386,0.012723,0.0477828,-0.00535756,1.32113,0.033783,0.0451483,2022,1114,29.345,-4.06054
805,-90,29.3931,3.75708,-0.00316168,0.0594314,0.0171192,0.0638076,-0.0075378,1.32053,0.0452607,0.0420126,2029,1114,29.3931,-3.75706
812,-90,29.3669,3.57813,-0.00487179,0.0788018,0.0229275,0.0846723,-0.0107423,1.32013,0.0603485,0.0432716,2036,1114,29.367,-3.57808
-700,-97,0,0,0,0,0,0,0,0,0,-1,524,1121,0,0
-693,-97,-19.4536,-4.0083,-0.00388744,0.0390453,0.0176501,0.0453697,-0.0102119,1.22672,0.034163,0.0479053,531,1121,-19.4536,4.0083
-686,-97,-19.7681,-3.24133,-0.00357467,0.0291916,0.0177323,0.0369506,-0.0113337,1.15833,0.0291554,0.0490431,538,1121,-19.7681,3.24132
-679,-97,-20.1078,-2.33862,0,0,0,0,0,0,0,-1,545,1121,-20.1078,2.33862
-672,-97,-20.5464,-1.06824,0,0,0,0,0,0,0,-1,552,1121,-20.5464,1.06823
-665,-97,-19.7722,0.880493,0,0,0,0,0,0,0,-1,559,1121,-19.7721,-0.880488
-658,-97,-19.8933,1.20032,-0.0022721,0.0082026,0.010734,0.0149088,-0.00897834,1.01237,0.0139322,0.0437158,566,1121,-19.8933,-1.20037
-651,-97,-19.9631,1.45569,-0.00204675,0.00572386,0.00855114,0.011231,-0.00755387,0.998635,0.0109145,0.0310407,573,1121,-19.9631,-1.45572
-644,-97,-20.0312,1.69202,-0.00192506,0.00378128,0.00646781,0.00799728,-0.00614106,0.993126,0.00818619,0.0113273,580,1121,-20.0312,-1.692
-637,-97,-20.0355,1.92529,-0.00178413,0.00253593,0.00438938,0.00526797,-0.00451617,1.01405,0.00565443,0.0111535,587,1121,-20.0355,-1.92535
-630,-97,-20.0396,2.10986,-0.00145234,0.000175945,0.00229267,0.00179474,-0.00307113,0.956007,0.00284134,0.00882959,594,1121,-20.0396,-2.10991
-623,-97,-20.0417,2.323,-0.00121615,-9.04846e-05,0.000682699,0.000231477,-0.00153811,1.13013,0.00111063,0.0106288,601,1121,-20.0417,-2.32301
-616,-97,-20.0443,2.53162,-0.00111424,-0.000383519,-0.000647457,-5.44911e-06,-0.00149231,-1.04228,0.000993063,0.0134954,608,1121,-20.0443,-2.53163
-609,-97,-20.0779,2.72607,-0.00103168,-0.000499217,-0.00148325,0.000741508,-0.00227241,-0.874199,0.00181337,0.0174743,615,1121,-20.078,-2.72604
-602,-97,-20.1018,2.85742,-0.000865907,-0.000514533,-0.00237261,0.00168889,-0.00306933,-0.822355,0.00278543,0.0158521,622,1121,-20.1018,-2.85746
-595,-97,-20.0204,3.05505,-0.000749483,-0.000381884,-0.00277938,0.00221977,-0.00335114,-0.818415,0.0032384,0.0161078,629,1121,-20.0205,-3.05501
-588,-97,-20.1082,3.16577,-0.000613001,-0.000256043,-0.00284017,0.00241126,-0.0032803,-0.816777,0.00329876,0.0361555,636,1121,-20.1082,-3.16581
-581,-97,-21.5786,1.02563,0,0,0,0,0,0,0,-1,643,1121,-21.5786,-1.02563
-574,-97,-21.5684,1.11194,-0.000685138,6.36223e-05,-0.00230764,0.00202705,-0.00264857,-0.865815,0.00270741,0.0398129,650,1121,-21.5684,-1.11197
-567,-97,-21.5264,1.15833,-0.000769818,0.000444351,-0.00198249,0.00191063,-0.0022361,-0.933976,0.00239657,0.0343623,657,1121,-21.5264,-1.15827
-560,-97,-21.3823,1.26135,-0.000930138,0.000840683,-0.00141763,0.00162669,-0.00171614,-1.06454,0.00193021,0.036788,664,1121,-21.3823,-1.2614
-553,-97,-21.3692,1.3855,-0.00130365,0.00111779,-0.000547705,0.00123591,-0.00142177,-1.35838,0.00153566,0.0418242,671,1121,-21.3692,-1.38549
-546,-97,-21.3961,1.42212,-0.00188638,0.00103007,0.000782711,0.00122685,-0.00208316,1.32449,0.00193224,0.0440721,678,1121,-21.3961,-1.42208
-539,-97,-21.3994,1.31152,-0.0025806,0.000140875,0.00269487,0.00179906,-0.00423879,1.01919,0.00357956,0.0430681,685,1121,-21.3994,-1.31153
-532,-97,-21.5558,1.32715,-0.00384884,-0.00233774,0.00459073,0.00155919,-0.00774578,0.866958,0.00575443,0.0406042,692,1121,-21.5558,-1.32719
-525,-97,0,0,0,0,0,0,0,0,0,-1,699,1121,0,0
-518,-97,0,0,0,0,0,0,0,0,0,-1,706,1121,0,0
-511,-97,0,0,0,0,0,0,0,0,0,-1,713,1121,0,0
-504,-97,0,0,0,0,0,0,0,0,0,-1,720,1121,0,0
-497,-97,0,0,0,0,0,0,0,0,0,-1,727,1121,0,0
-490,-97,0,0,0,0,0,0,0,0,0,-1,734,1121,0,0
-483,-97,0,0,0,0,0,0,0,0,0,-1,741,1121,0,0
-476,-97,0,0,0,0,0,0,0,0,0,-1,748,1121,0,0
-469,-97,0,0,0,0,0,0,0,0,0,-1,755,1121,0,0
-462,-97,0,0,0,0,0,0,0,0,0,-1,762,1121,0,0
-455,-97,0,0,0,0,0,0,0,0,0,-1,769,1121,0,0
-448,-97,0,0,0,0,0,0,0,0,0,-1,776,1121,0,0
-441,-97,0,0,0,0,0,0,0,0,0,-1,783,1121,0,0
-434,-97,0,0,0,0,0,0,0,0,0,-1,790,1121,0,0
-427,-97,0,0,0,0,0,0,0,0,0,-1,797,1121,0,0
-420,-97,0,0,0,0,0,0,0,0,0,-1,804,1121,0,0
-413,-97,0,0,0,0,0,0,0,0,0,-1,811,1121,0,0
-406,-97,0,0,0,0,0,0,0,0,0,-1,818,1121,0,0
-399,-97,0,0,0,0,0,0,0,0,0,-1,825,1121,0,0
-392,-97,0,0,0,0,0,0,0,0,0,-1,832,1121,0,0
-385,-97,0,0,0,0,0,0,0,0,0,-1,839,1121,0,0
-378,-97,0,0,0,0,0,0,0,0,0,-1,846,1121,0,0
-371,-97,0,0,0,0,0,0,0,0,0,-1,853,1121,0,0
-364,-97,0,0,0,0,0,0,0,0,0,-1,860,1121,0,0
-357,-97,0,0,0,0,0,0,0,0,0,-1,867,1121,0,0
-350,-97,0,0,0,0,0,0,0,0,0,-1,874,1121,0,0
-343,-97,0,0,0,0,0,0,0,0,0,-1,881,1121,0,0
-336,-97,0,0,0,0,0,0,0,0,0,-1,888,1121,0,0
-329,-97,0,0,0,0,0,0,0,0,0,-1,895,1121,0,0
-322,-97,0,0,0,0,0,0,0,0,0,-1,902,1121,0,0
-315,-97,0,0,0,0,0,0,0,0,0,-1,909,1121,0,0
-308,-97,0,0,0,0,0,0,0,0,0,-1,916,1121,0,0
-301,-97,0,0,0,0,0,0,0,0,0,-1,923,1121,0,0
-294,-97,0,0,0,0,0,0,0,0,0,-1,930,1121,0,0
-287,-97,0,0,0,0,0,0,0,0,0,-1,937,1121,0,0
-280,-97,0,0,0,0,0,0,0,0,0,-1,944,1121,0,0
-273,-97,0,0,0,0,0,0,0,0,0,-1,951,1121,0,0
-266,-97,0,0,0,0,0,0,0,0,0,-1,958,1121,0,0
-259,-97,0,0,0,0,0,0,0,0,0,-1,965,1121,0,0
-252,-97,0,0,0,0,0,0,0,0,0,-1,972,1121,0,0
-245,-97,0,0,0,0,0,0,0,0,0,-1,979,1121,0,0
-238,-97,0,0,0,0,0,0,0,0,0,-1,986,1121,0,0
-231,-97,0,0,0,0,0,0,0,0,0,-1,993,1121,0,0
-224,-97,0,0,0,0,0,0,0,0,0,-1,1000,1121,0,0
-217,-97,0,0,0,0,0,0,0,0,0,-1,1007,1121,0,0
-210,-97,0,0,0,0,0,0,0,0,0,-1,1014,1121,0,0
-203,-97,0,0,0,0,0,0,0,0,0,-1,1021,1121,0,0
-196,-97,0,0,0,0,0,0,0,0,0,-1,1028,1121,0,0
-189,-97,0,0,0,0,0,0,0,0,0,-1,1035,1121,0,0
-182,-97,0,0,0,0,0,0,0,0,0,-1,1042,1121,0,0
-175,-97,0,0,0,0,0,0,0,0,0,-1,1049,1121,0,0
-168,-97,0,0,0,0,0,0,0,0,0,-1,1056,1121,0,0
-161,-97,0,0,0,0,0,0,0,0,0,-1,1063,1121,0,0
-154,-97,0,0,0,0,0,0,0,0,0,-1,1070,1121,0,0
-147,-97,0,0,0,0,0,0,0,0,0,-1,1077,1121,0,0
-140,-97,0,0,0,0,0,0,0,0,0,-1,1084,1121,0,0
-133,-97,0,0,0,0,0,0,0,0,0,-1,1091,1121,0,0
-126,-97,0,0,0,0,0,0,0,0,0,-1,1098,1121,0,0
-119,-97,0,0,0,0,0,0,0,0,0,-1,1105,1121,0,0
-112,-97,0,0,0,0,0,0,0,0,0,-1,1112,1121,0,0
-105,-97,0,0,0,0,0,0,0,0,0,-1,1119,1121,0,0
-98,-97,0,0,0,0,0,0,0,0,0,-1,1126,1121,0,0
-91,-97,0,0,0,0,0,0,0,0,0,-1,1133,1121,0,0
-84,-97,0,0,0,0,0,0,0,0,0,-1,1140,1121,0,0
-77,-97,0,0,0,0,0,0,0,0,0,-1,1147,1121,0,0
-70,-97,0,0,0,0,0,0,0,0,0,-1,1154,1121,0,0
-63,-97,0,0,0,0,0,0,0,0,0,-1,1161,1121,0,0
-56,-97,0,0,0,0,0,0,0,0,0,-1,1168,1121,0,0
-49,-97,0,0,0,0,0,0,0,0,0,-1,1175,1121,0,0
-42,-97,0,0,0,0,0,0,0,0,0,-1,1182,1121,0,0
-35,-97,0,0,0,0,0,0,0,0,0,-1,1189,1121,0,0
-28,-97,0,0,0,0,0,0,0,0,0,-1,1196,1121,0,0
-21,-97,0,0,0,0,0,0,0,0,0,-1,1203,1121,0,0
-14,-97,0,0,0,0,0,0,0,0,0,-1,1210,1121,0,0
-7,-97,0,0,0,0,0,0,0,0,0,-1,1217,1121,0,0
0,-97,0,0,0,0,0,0,0,0,0,-1,1224,1121,0,0
7,-97,0,0,0,0,0,0,0,0,0,-1,1231,1121,0,0
14,-97,0,0,0,0,0,0,0,0,0,-1,1238,1121,0,0
21,-97,0,0,0,0,0,0,0,0,0,-1,1245,1121,0,0
28,-97,0,0,0,0,0,0,0,0,0,-1,1252,1121,0,0
35,-97,0,0,0,0,0,0,0,0,0,-1,1259,1121,0,0
42,-97,0,0,0,0,0,0,0,0,0,-1,1266,1121,0,0
49,-97,0,0,0,0,0,0,0,0,0,-1,1273,1121,0,0
56,-97,0,0,0,0,0,0,0,0,0,-1,1280,1121,0,0
63,-97,0,0,0,0,0,0,0,0,0,-1,1287,1121,0,0
70,-97,0,0,0,0,0,0,0,0,0,-1,1294,1121,0,0
77,-97,0,0,0,0,0,0,0,0,0,-1,1301,1121,0,0
84,-97,0,0,0,0,0,0,0,0,0,-1,1308,1121,0,0
91,-97,0,0,0,0,0,0,0,0,0,-1,1315,1121,0,0
98,-97,0,0,0,0,0,0,0,0,0,-1,1322,1121,0,0
105,-97,0,0,0,0,0,0,0,0,0,-1,1329,1121,0,0
112,-97,0,0,0,0,0,0,0,0,0,-1,1336,1121,0,0
119,-97,0,0,0,0,0,0,0,0,0,-1,1343,1121,0,0
126,-97,0,0,0,0,0,0,0,0,0,-1,1350,1121,0,0
133,-97,0,0,0,0,0,0,0,0,0,-1,1357,1121,0,0
140,-97,0,0,0,0,0,0,0,0,0,-1,1364,1121,0,0
147,-97,0,0,0,0,0,0,0,0,0,-1,1371,1121,0,0
154,-97,0,0,0,0,0,0,0,0,0,-1,1378,1121,0,0
161,-97,0,0,0,0,0,0,0,0,0,-1,1385,1121,0,0
168,-97,0,0,0,0,0,0,0,0,0,-1,1392,1121,0,0
175,-97,0,0,0,0,0,0,0,0,0,-1,1399,1121,0,0
182,-97,0,0,0,0,0,0,0,0,0,-1,1406,1121,0,0
189,-97,0,0,0,0,0,0,0,0,0,-1,1413,1121,0,0
196,-97,0,0,0,0,0,0,0,0,0,-1,1420,1121,0,0
203,-97,0,0,0,0,0,0,0,0,0,-1,1427,1121,0,0
210,-97,0,0,0,0,0,0,0,0,0,-1,1434,1121,0,0
217,-97,0,0,0,0,0,0,0,0,0,-1,1441,1121,0,0
224,-97,0,0,0,0,0,0,0,0,0,-1,1448,1121,0,0
231,-97,0,0,0,0,0,0,0,0,0,-1,1455,1121,0,0
238,-97,0,0,0,0,0,0,0,0,0,-1,1462,1121,0,0
245,-97,0,0,0,0,0,0,0,0,0,-1,1469,1121,0,0
252,-97,0,0,0,0,0,0,0,0,0,-1,1476,1121,0,0
259,-97,0,0,0,0,0,0,0,0,0,-1,1483,1121,0,0
266,-97,0,0,0,0,0,0,0,0,0,-1,1490,1121,0,0
273,-97,0,0,0,0,0,0,0,0,0,-1,1497,1121,0,0
280,-97,0,0,0,0,0,0,0,0,0,-1,1504,1121,0,0
287,-97,0,0,0,0,0,0,0,0,0,-1,1511,1121,0,0
294,-97,0,0,0,0,0,0,0,0,0,-1,1518,1121,0,0
301,-97,0,0,0,0,0,0,0,0,0,-1,1525,1121,0,0
308,-97,0,0,0,0,0,0,0,0,0,-1,1532,1121,0,0
315,-97,0,0,0,0,0,0,0,0,0,-1,1539,1121,0,0
322,-97,0,0,0,0,0,0,0,0,0,-1,1546,1121,0,0
329,-97,0,0,0,0,0,0,0,0,0,-1,1553,1121,0,0
336,-97,0,0,0,0,0,0,0,0,0,-1,1560,1121,0,0
343,-97,0,0,0,0,0,0,0,0,0,-1,1567,1121,0,0
350,-97,0,0,0,0,0,0,0,0,0,-1,1574,1121,0,0
357,-97,0,0,0,0,0,0,0,0,0,-1,1581,1121,0,0
364,-97,0,0,0,0,0,0,0,0,0,-1,1588,1121,0,0
371,-97,0,0,0,0,0,0,0,0,0,-1,1595,1121,0,0
378,-97,0,0,0,0,0,0,0,0,0,-1,1602,1121,0,0
385,-97,0,0,0,0,0,0,0,0,0,-1,1609,1121,0,0
392,-97,0,0,0,0,0,0,0,0,0,-1,1616,1121,0,0
399,-97,0,0,0,0,0,0,0,0,0,-1,1623,1121,0,0
406,-97,0,0,0,0,0,0,0,0,0,-1,1630,1121,0,0
413,-97,0,0,0,0,0,0,0,0,0,-1,1637,1121,0,0
420,-97,0,0,0,0,0,0,0,0,0,-1,1644,1121,0,0
427,-97,0,0,0,0,0,0,0,0,0,-1,1651,1121,0,0
434,-97,0,0,0,0,0,0,0,0,0,-1,1658,1121,0,0
441,-97,0,0,0,0,0,0,0,0,0,-1,1665,1121,0,0
448,-97,0,0,0,0,0,0,0,0,0,-1,1672,1121,0,0
455,-97,0,0,0,0,0,0,0,0,0,-1,1679,1121,0,0
462,-97,0,0,0,0,0,0,0,0,0,-1,1686,1121,0,0
469,-97,0,0,0,0,0,0,0,0,0,-1,1693,1121,0,0
476,-97,0,0,0,0,0,0,0,0,0,-1,1700,1121,0,0
483,-97,0,0,0,0,0,0,0,0,0,-1,1707,1121,0,0
490,-97,0,0,0,0,0,0,0,0,0,-1,1714,1121,0,0
497,-97,0,0,0,0,0,0,0,0,0,-1,1721,1121,0,0
504,-97,0,0,0,0,0,0,0,0,0,-1,1728,1121,0,0
511,-97,0,0,0,0,0,0,0,0,0,-1,1735,1121,0,0
518,-97,0,0,0,0,0,0,0,0,0,-1,1742,1121,0,0
525,-97,0,0,0,0,0,0,0,0,0,-1,1749,1121,0,0
532,-97,0,0,0,0,0,0,0,0,0,-1,1756,1121,0,0
539,-97,0,0,0,0,0,0,0,0,0,-1,1763,1121,0,0
546,-97,0,0,0,0,0,0,0,0,0,-1,1770,1121,0,0
553,-97,0,0,0,0,0,0,0,0,0,-1,1777,1121,0,0
560,-97,0,0,0,0,0,0,0,0,0,-1,1784,1121,0,0
567,-97,0,0,0,0,0,0,0,0,0,-1,1791,1121,0,0
574,-97,0,0,0,0,0,0,0,0,0,-1,1798,1121,0,0
581,-97,0,0,0,0,0,0,0,0,0,-1,1805,1121,0,0
588,-97,0,0,0,0,0,0,0,0,0,-1,1812,1121,0,0
595,-97,0,0,0,0,0,0,0,0,0,-1,1819,1121,0,0
602,-97,0,0,0,0,0,0,0,0,0,-1,1826,1121,0,0
609,-97,0,0,0,0,0,0,0,0,0,-1,1833,1121,0,0
616,-97,0,0,0,0,0,0,0,0,0,-1,1840,1121,0,0
623,-97,0,0,0,0,0,0,0,0,0,-1,1847,1121,0,0
630,-97,0,0,0,0,0,0,0,0,0,-1,1854,1121,0,0
637,-97,0,0,0,0,0,0,0,0,0,-1,1861,1121,0,0
644,-97,30.8973,2.90869,0.00544201,-0.000240093,-0.00768123,0.0107908,-0.00558884,-0.608266,0.00961442,0.0366961,1868,1121,30.8974,-2.90874
651,-97,30.9208,2.95557,0.00380045,-0.000556755,-0.00472213,0.00682231,-0.00357861,-0.569268,0.00610154,0.0374432,1875,1121,30.9208,-2.95554
658,-97,30.8188,3.00476,0.0026872,-0.000761315,-0.00281524,0.00426425,-0.00233837,-0.510628,0.0038657,0.0394447,1882,1121,30.8189,-3.00472
665,-97,30.7557,2.93762,0.00192715,-0.000943602,-0.00113464,0.00232144,-0.0013379,-0.334455,0.00213801,0.0432593,1889,1121,30.7558,-2.93766
672,-97,30.7577,2.8999,0.00145079,-0.00118908,0.000336832,0.00149309,-0.00123138,0.124928,0.00157539,0.0446228,1896,1121,30.7577,-2.89991
679,-97,30.7216,3.25208,0.000928948,-0.0013935,0.00142354,0.00160482,-0.00206937,0.44327,0.00212694,0.0392983,1903,1121,30.7215,-3.25211
686,-97,30.8093,3.32935,0.00044883,-0.00158037,0.00209344,0.00176058,-0.00289212,0.559749,0.00271259,0.0349044,1910,1121,30.8094,-3.3294
693,-97,30.839,2.98584,0.000130048,-0.00168366,0.00247189,0.00185618,-0.00340979,0.609587,0.0030841,0.0331516,1917,1121,30.839,-2.98588
700,-97,30.8214,2.91785,-0.000251169,-0.00171174,0.00278683,0.00189947,-0.00386238,0.657255,0.00339034,0.0262691,1924,1121,30.8214,-2.91779
707,-97,30.8467,2.98218,-0.000564943,-0.00167549,0.00296903,0.00190029,-0.00414072,0.692955,0.00356684,0.0191077,1931,1121,30.8467,-2.98221
714,-97,30.9006,3.01648,0,0,0,0,0,0,0,-1,1938,1121,30.9007,-3.01648
721,-97,29.2018,5.59351,0,0,0,0,0,0,0,-1,1945,1121,29.2018,-5.59345
728,-97,29.2129,5.49768,-0.00117346,-0.00091121,0.00268522,0.00164608,-0.00373076,0.809795,0.00318114,0.0198825,1952,1121,29.2129,-5.49763
735,-97,29.1606,5.31995,-0.00142099,-0.000447551,0.00234739,0.00146305,-0.00333159,0.887622,0.00283739,0.0214842,1959,1121,29.1606,-5.31993
742,-97,29.1357,5.13501,-0.00147474,0.000392495,0.00222382,0.00187073,-0.00295297,0.984138,0.00280823,0.0173754,1966,1121,29.1358,-5.13503
749,-97,29.1696,4.96204,-0.00142268,0.00149415,0.00232819,0.00278299,-0.00271152,1.06521,0.00317235,0.0190078,1973,1121,29.1695,-4.962
756,-97,29.1681,4.78943,-0.00145909,0.00349302,0.00258257,0.00459475,-0.00256082,1.16757,0.00418653,0.0157985,1980,1121,29.1681,-4.78943
763,-97,29.1581,4.64368,-0.00141024,0.00721628,0.00298072,0.008146,-0.00233997,1.26845,0.0063559,0.0127556,1987,1121,29.1581,-4.64369
770,-97,29.1545,4.52405,-0.00137943,0.0113347,0.00364331,0.0123047,-0.00234944,1.31059,0.00908807,0.0106587,1994,1121,29.1545,-4.52408
777,-97,29.1571,4.3844,-0.00148474,0.0164433,0.00490868,0.0176993,-0.00274074,1.3203,0.0128112,0.014976,2001,1121,29.1571,-4.38445
784,-97,29.1045,4.27734,-0.00179812,0.0228684,0.00660862,0.0245274,-0.00345711,1.32484,0.0176174,0.035387,2008,1121,29.1045,-4.27737
791,-97,29.1272,4.29907,-0.00252633,0.0311104,0.00889241,0.0333165,-0.00473248,1.32761,0.0239449,0.0437725,2015,1121,29.1272,-4.29909
798,-97,29.1506,4.18542,-0.003619,0.0416767,0.0118839,0.0446053,-0.00654753,1.32918,0.0321424,0.0458762,2022,1121,29.1506,-4.18547
805,-97,29.0547,4.10815,-0.0052207,0.0552058,0.0158086,0.0590917,-0.00910662,1.32977,0.0427545,0.0431858,2029,1121,29.0548,-4.10814
812,-97,29.134,4.55469,-0.00760563,0.0726388,0.0209435,0.0777761,-0.0127429,1.33025,0.0565788,0.0436595,2036,1121,29.1341,-4.55465
-700,-104,0,0,0,0,0,0,0,0,0,-1,524,1128,0,0
-693,-104,-19.1585,-4.39807,0,0,0,0,0,0,0,-1,531,1128,-19.1585,4.39813
-686,-104,-20.8846,-4.53308,0,0,0,0,0,0,0,-1,538,1128,-20.8846,4.5331
-679,-104,-20.8152,-2.91907,0,0,0,0,0,0,0,-1,545,1128,-20.8152,2.91902
-672,-104,-20.3907,-1.14575,0.00186837,0.0131105,0.0104245,0.0193329,-0.004354,1.03266,0.0145586,0.04748,552,1128,-20.3907,1.14577
-665,-104,-20.3287,0.346924,0,0,0,0,0,0,0,-1,559,1128,-20.3287,-0.346881
-658,-104,-19.8232,1.50525,0,0,0,0,0,0,0,-1,566,1128,-19.8232,-1.5053
-651,-104,-19.8148,1.58057,0.000973843,0.00422379,0.00592571,0.00874329,-0.00354566,0.91922,0.00730351,0.0377583,573,1128,-19.8148,-1.58051
-644,-104,-19.8141,1.67542,0.000450276,0.00279421,0.00440393,0.00617944,-0.00293496,0.915443,0.00537219,0.0158177,580,1128,-19.8141,-1.67536
-637,-104,-19.8137,1.90381,6.06843e-05,0.0017249,0.00288406,0.0038945,-0.00210891,0.925844,0.0035168,0.0107753,587,1128,-19.8136,-1.90378
-630,-104,-19.8292,2.073,-0.000336738,-0.000139216,0.00147715,0.00124247,-0.00171843,0.818778,0.00171682,0.012217,594,1128,-19.8292,-2.07295
-623,-104,-19.8411,2.3114,-0.000581561,-0.00023765,0.000362978,-7.95673e-06,-0.000811254,1.00661,0.000538204,0.0154612,601,1128,-19.8411,-2.31136
-616,-104,-19.9222,2.54797,-0.000690555,-0.000397414,-0.000618884,9.2019e-05,-0.00117999,-0.901671,0.000819057,0.0173449,608,1128,-19.9222,-2.54802
-609,-104,-19.9915,2.67322,-0.00066374,-0.000376598,-0.00121465,0.000702936,-0.00174327,-0.844225,0.00145427,0.021098,615,1128,-19.9914,-2.67328
-602,-104,-19.8728,2.87634,-0.000472918,-0.000288422,-0.00191651,0.00153806,-0.0022994,-0.809446,0.00223004,0.0181318,622,1128,-19.8728,-2.87632
-595,-104,-19.7971,3.11597,-0.000301952,-4.9945e-05,-0.00220648,0.00203413,-0.00238602,-0.81392,0.00255467,0.0163087,629,1128,-19.7971,-3.11596
-588,-104,-19.9509,3.22156,-0.000163903,0.000186137,-0.00221373,0.00223176,-0.00220952,-0.824847,0.00256418,0.0409614,636,1128,-19.9508,-3.22157
-581,-104,-20.2323,3.07947,0,0,0,0,0,0,0,-1,643,1128,-20.2323,-3.0795
-574,-104,-21.5643,1.13037,0,0,0,0,0,0,0,-1,650,1128,-21.5643,-1.13031
-567,-104,-21.4999,1.17578,-0.000472962,0.00115187,-0.00137336,0.00193512,-0.00125621,-1.05249,0.00185636,0.0360149,657,1128,-21.4999,-1.17578
-560,-104,-21.4088,1.20972,-0.000733582,0.00165457,-0.000876225,0.00194157,-0.00102058,-1.25427,0.00173754,0.0397943,664,1128,-21.4088,-1.20966
-553,-104,-21.4906,1.15869,-0.00126676,0.00207928,-0.000113422,0.00208312,-0.0012706,-1.53695,0.00195512,0.0455858,671,1128,-21.4906,-1.15872
-546,-104,-21.5294,1.13989,-0.00210766,0.00220497,0.00107331,0.00245733,-0.00236001,1.33987,0.00278148,0.0444571,678,1128,-21.5294,-1.13994
-539,-104,-21.2538,1.24426,0,0,0,0,0,0,0,-1,685,1128,-21.2538,-1.24422
-532,-104,-21.5939,1.1731,-0.0046567,-0.000450496,0.00498272,0.00285478,-0.00796197,0.985095,0.00647293,0.0398512,692,1128,-21.5939,-1.17305
-525,-104,-21.6844,1.12537,-0.00622632,-0.0026544,0.00703804,0.00282074,-0.0117015,0.909654,0.00889164,0.0377851,699,1128,-21.6844,-1.12532
-518,-104,0,0,0,0,0,0,0,0,0,-1,706,1128,0,0
-511,-104,0,0,0,0,0,0,0,0,0,-1,713,1128,0,0
-504,-104,0,0,0,0,0,0,0,0,0,-1,720,1128,0,0
-497,-104,0,0,0,0,0,0,0,0,0,-1,727,1128,0,0
-490,-104,0,0,0,0,0,0,0,0,0,-1,734,1128,0,0
-483,-104,0,0,0,0,0,0,0,0,0,-1,741,1128,0,0
-476,-104,0,0,0,0,0,0,0,0,0,-1,748,1128,0,0
-469,-104,0,0,0,0,0,0,0,0,0,-1,755,1128,0,0
-462,-104,0,0,0,0,0,0,0,0,0,-1,762,1128,0,0
-455,-104,0,0,0,0,0,0,0,0,0,-1,769,1128,0,0
-448,-104,0,0,0,0,0,0,0,0,0,-1,776,1128,0,0
-441,-104,0,0,0,0,0,0,0,0,0,-1,783,1128,0,0
-434,-104,0,0,0,0,0,0,0,0,0,-1,790,1128,0,0
-427,-104,0,0,0,0,0,0,0,0,0,-1,797,1128,0,0
-420,-104,0,0,0,0,0,0,0,0,0,-1,804,1128,0,0
-413,-104,0,0,0,0,0,0,0,0,0,-1,811,1128,0,0
-406,-104,0,0,0,0,0,0,0,0,0,-1,818,1128,0,0
-399,-104,0,0,0,0,0,0,0,0,0,-1,825,1128,0,0
-392,-104,0,0,0,0,0,0,0,0,0,-1,832,1128,0,0
-385,-104,0,0,0,0,0,0,0,0,0,-1,839,1128,0,0
-378,-104,0,0,0,0,0,0,0,0,0,-1,846,1128,0,0
-371,-104,0,0,0,0,0,0,0,0,0,-1,853,1128,0,0
-364,-104,0,0,0,0,0,0,0,0,0,-1,860,1128,0,0
-357,-104,0,0,0,0,0,0,0,0,0,-1,867,1128,0,0
-350,-104,0,0,0,0,0,0,0,0,0,-1,874,1128,0,0
-343,-104,0,0,0,0,0,0,0,0,0,-1,881,1128,0,0
-336,-104,0,0,0,0,0,0,0,0,0,-1,888,1128,0,0
-329,-104,0,0,0,0,0,0,0,0,0,-1,895,1128,0,0
-322,-104,0,0,0,0,0,0,0,0,0,-1,902,1128,0,0
-315,-104,0,0,0,0,0,0,0,0,0,-1,909,1128,0,0
-308,-104,0,0,0,0,0,0,0,0,0,-1,916,1128,0,0
-301,-104,0,0,0,0,0,0,0,0,0,-1,923,1128,0,0
-294,-104,0,0,0,0,0,0,0,0,0,-1,930,1128,0,0
-287,-104,0,0,0,0,0,0,0,0,0,-1,937,1128,0,0
-280,-104,0,0,0,0,0,0,0,0,0,-1,944,1128,0,0
-273,-104,0,0,0,0,0,0,0,0,0,-1,951,1128,0,0
-266,-104,0,0,0,0,0,0,0,0,0,-1,958,1128,0,0
-259,-104,0,0,0,0,0,0,0,0,0,-1,965,1128,0,0
-252,-104,0,0,0,0,0,0,0,0,0,-1,972,1128,0,0
-245,-104,0,0,0,0,0,0,0,0,0,-1,979,1128,0,0
-238,-104,0,0,0,0,0,0,0,0,0,-1,986,1128,0,0
-231,-104,0,0,0,0,0,0,0,0,0,-1,993,1128,0,0
-224,-104,0,0,0,0,0,0,0,0,0,-1,1000,1128,0,0
-217,-104,0,0,0,0,0,0,0,0,0,-1,1007,1128,0,0
-210,-104,0,0,0,0,0,0,0,0,0,-1,1014,1128,0,0
-203,-104,0,0,0,0,0,0,0,0,0,-1,1021,1128,0,0
-196,-104,0,0,0,0,0,0,0,0,0,-1,1028,1128,0,0
-189,-104,0,0,0,0,0,0,0,0,0,-1,1035,1128,0,0
-182,-104,0,0,0,0,0,0,0,0,0,-1,1042,1128,0,0
-175,-104,0,0,0,0,0,0,0,0,0,-1,1049,1128,0,0
-168,-104,0,0,0,0,0,0,0,0,0,-1,1056,1128,0,0
-161,-104,0,0,0,0,0,0,0,0,0,-1,1063,1128,0,0
-154,-104,0,0,0,0,0,0,0,0,0,-1,1070,1128,0,0
-147,-104,0,0,0,0,0,0,0,0,0,-1,1077,1128,0,0
-140,-104,0,0,0,0,0,0,0,0,0,-1,1084,1128,0,0
-133,-104,0,0,0,0,0,0,0,0,0,-1,1091,1128,0,0
-126,-104,0,0,0,0,0,0,0,0,0,-1,1098,1128,0,0
-119,-104,0,0,0,0,0,0,0,0,0,-1,1105,1128,0,0
-112,-104,0,0,0,0,0,0,0,0,0,-1,1112,1128,0,0
-105,-104,0,0,0,0,0,0,0,0,0,-1,1119,1128,0,0
-98,-104,0,0,0,0,0,0,0,0,0,-1,1126,1128,0,0
-91,-104,0,0,0,0,0,0,0,0,0,-1,1133,1128,0,0
-84,-104,0,0,0,0,0,0,0,0,0,-1,1140,1128,0,0
-77,-104,0,0,0,0,0,0,0,0,0,-1,1147,1128,0,0
-70,-104,0,0,0,0,0,0,0,0,0,-1,1154,1128,0,0
-63,-104,0,0,0,0,0,0,0,0,0,-1,1161,1128,0,0
-56,-104,0,0,0,0,0,0,0,0,0,-1,1168,1128,0,0
-49,-104,0,0,0,0,0,0,0,0,0,-1,1175,1128,0,0
-42,-104,0,0,0,0,0,0,0,0,0,-1,1182,1128,0,0
-35,-104,0,0,0,0,0,0,0,0,0,-1,1189,1128,0,0
-28,-104,0,0,0,0,0,0,0,0,0,-1,1196,1128,0,0
-21,-104,0,0,0,0,0,0,0,0,0,-1,1203,1128,0,0
-14,-104,0,0,0,0,0,0,0,0,0,-1,1210,1128,0,0
-7,-104,0,0,0,0,0,0,0,0,0,-1,1217,1128,0,0
0,-104,0,0,0,0,0,0,0,0,0,-1,1224,1128,0,0
7,-104,0,0,0,0,0,0,0,0,0,-1,1231,1128,0,0
14,-104,0,0,0,0,0,0,0,0,0,-1,1238,1128,0,0
21,-104,0,0,0,0,0,0,0,0,0,-1,1245,1128,0,0
28,-104,0,0,0,0,0,0,0,0,0,-1,1252,1128,0,0
35,-104,0,0,0,0,0,0,0,0,0,-1,1259,1128,0,0
42,-104,0,0,0,0,0,0,0,0,0,-1,1266,1128,0,0
49,-104,0,0,0,0,0,0,0,0,0,-1,1273,1128,0,0
56,-104,0,0,0,0,0,0,0,0,0,-1,1280,1128,0,0
63,-104,0,0,0,0,0,0,0,0,0,-1,1287,1128,0,0
70,-104,0,0,0,0,0,0,0,0,0,-1,1294,1128,0,0
77,-104,0,0,0,0,0,0,0,0,0,-1,1301,1128,0,0
84,-104,0,0,0,0,0,0,0,0,0,-1,1308,1128,0,0
91,-104,0,0,0,0,0,0,0,0,0,-1,1315,1128,0,0
98,-104,0,0,0,0,0,0,0,0,0,-1,1322,1128,0,0
105,-104,0,0,0,0,0,0,0,0,0,-1,1329,1128,0,0
112,-104,0,0,0,0,0,0,0,0,0,-1,1336,1128,0,0
119,-104,0,0,0,0,0,0,0,0,0,-1,1343,1128,0,0
126,-104,0,0,0,0,0,0,0,0,0,-1,1350,1128,0,0
133,-104,0,0,0,0,0,0,0,0,0,-1,1357,1128,0,0
140,-104,0,0,0,0,0,0,0,0,0,-1,1364,1128,0,0
147,-104,0,0,0,0,0,0,0,0,0,-1,1371,1128,0,0
154,-104,0,0,0,0,0,0,0,0,0,-1,1378,1128,0,0
161,-104,0,0,0,0,0,0,0,0,0,-1,1385,1128,0,0
168,-104,0,0,0,0,0,0,0,0,0,-1,1392,1128,0,0
175,-104,0,0,0,0,0,0,0,0,0,-1,1399,1128,0,0
182,-104,0,0,0,0,0,0,0,0,0,-1,1406,1128,0,0
189,-104,0,0,0,0,0,0,0,0,0,-1,1413,1128,0,0
196,-104,0,0,0,0,0,0,0,0,0,-1,1420,1128,0,0
203,-104,0,0,0,0,0,0,0,0,0,-1,1427,1128,0,0
210,-104,0,0,0,0,0,0,0,0,0,-1,1434,1128,0,0
217,-104,0,0,0,0,0,0,0,0,0,-1,1441,1128,0,0
224,-104,0,0,0,0,0,0,0,0,0,-1,1448,1128,0,0
231,-104,0,0,0,0,0,0,0,0,0,-1,1455,1128,0,0
238,-104,0,0,0,0,0,0,0,0,0,-1,1462,1128,0,0
245,-104,0,0,0,0,0,0,0,0,0,-1,1469,1128,0,0
252,-104,0,0,0,0,0,0,0,0,0,-1,1476,1128,0,0
259,-104,0,0,0,0,0,0,0,0,0,-1,1483,1128,0,0
266,-104,0,0,0,0,0,0,0,0,0,-1,1490,1128,0,0
273,-104,0,0,0,0,0,0,0,0,0,-1,1497,1128,0,0
280,-104,0,0,0,0,0,0,0,0,0,-1,1504,1128,0,0
287,-104,0,0,0,0,0,0,0,0,0,-1,1511,1128,0,0
294,-104,0,0,0,0,0,0,0,0,0,-1,1518,1128,0,0
301,-104,0,0,0,0,0,0,0,0,0,-1,1525,1128,0,0
308,-104,0,0,0,0,0,0,0,0,0,-1,1532,1128,0,0
315,-104,0,0,0,0,0,0,0,0,0,-1,1539,1128,0,0
322,-104,0,0,0,0,0,0,0,0,0,-1,1546,1128,0,0
329,-104,0,0,0,0,0,0,0,0,0,-1,1553,1128,0,0
336,-104,0,0,0,0,0,0,0,0,0,-1,1560,1128,0,0
343,-104,0,0,0,0,0,0,0,0,0,-1,1567,1128,0,0
350,-104,0,0,0,0,0,0,0,0,0,-1,1574,1128,0,0
357,-104,0,0,0,0,0,0,0,0,0,-1,1581,1128,0,0
364,-104,0,0,0,0,0,0,0,0,0,-1,1588,1128,0,0
371,-104,0,0,0,0,0,0,0,0,0,-1,1595,1128,0,0
378,-104,0,0,0,0,0,0,0,0,0,-1,1602,1128,0,0
385,-104,0,0,0,0,0,0,0,0,0,-1,1609,1128,0,0
392,-104,0,0,0,0,0,0,0,0,0,-1,1616,1128,0,0
399,-104,0,0,0,0,0,0,0,0,0,-1,1623,1128,0,0
406,-104,0,0,0,0,0,0,0,0,0,-1,1630,1128,0,0
413,-104,0,0,0,0,0,0,0,0,0,-1,1637,1128,0,0
420,-104,0,0,0,0,0,0,0,0,0,-1,1644,1128,0,0
427,-104,0,0,0,0,0,0,0,0,0,-1,1651,1128,0,0
434,-104,0,0,0,0,0,0,0,0,0,-1,1658,1128,0,0
441,-104,0,0,0,0,0,0,0,0,0,-1,1665,1128,0,0
448,-104,0,0,0,0,0,0,0,0,0,-1,1672,1128,0,0
455,-104,0,0,0,0,0,0,0,0,0,-1,1679,1128,0,0
462,-104,0,0,0,0,0,0,0,0,0,-1,1686,1128,0,0
469,-104,0,0,0,0,0,0,0,0,0,-1,1693,1128,0,0
476,-104,0,0,0,0,0,0,0,0,0,-1,1700,1128,0,0
483,-104,0,0,0,0,0,0,0,0,0,-1,1707,1128,0,0
490,-104,0,0,0,0,0,0,0,0,0,-1,1714,1128,0,0
497,-104,0,0,0,0,0,0,0,0,0,-1,1721,1128,0,0
504,-104,0,0,0,0,0,0,0,0,0,-1,1728,1128,0,0
511,-104,0,0,0,0,0,0,0,0,0,-1,1735,1128,0,0
518,-104,0,0,0,0,0,0,0,0,0,-1,1742,1128,0,0
525,-104,0,0,0,0,0,0,0,0,0,-1,1749,1128,0,0
532,-104,0,0,0,0,0,0,0,0,0,-1,1756,1128,0,0
539,-104,0,0,0,0,0,0,0,0,0,-1,1763,1128,0,0
546,-104,0,0,0,0,0,0,0,0,0,-1,1770,1128,0,0
553,-104,0,0,0,0,0,0,0,0,0,-1,1777,1128,0,0
560,-104,0,0,0,0,0,0,0,0,0,-1,1784,1128,0,0
567,-104,0,0,0,0,0,0,0,0,0,-1,1791,1128,0,0
574,-104,0,0,0,0,0,0,0,0,0,-1,1798,1128,0,0
581,-104,0,0,0,0,0,0,0,0,0,-1,1805,1128,0,0
588,-104,0,0,0,0,0,0,0,0,0,-1,1812,1128,0,0
595,-104,0,0,0,0,0,0,0,0,0,-1,1819,1128,0,0
602,-104,0,0,0,0,0,0,0,0,0,-1,1826,1128,0,0
609,-104,0,0,0,0,0,0,0,0,0,-1,1833,1128,0,0
616,-104,0,0,0,0,0,0,0,0,0,-1,1840,1128,0,0
623,-104,0,0,0,0,0,0,0,0,0,-1,1847,1128,0,0
630,-104,0,0,0,0,0,0,0,0,0,-1,1854,1128,0,0
637,-104,0,0,0,0,0,0,0,0,0,-1,1861,1128,0,0
644,-104,30.8553,2.96387,0.00571044,-0.000722196,-0.00692921,0.0101334,-0.00514516,-0.568111,0.00897643,0.0369719,1868,1128,30.8553,-2.96382
651,-104,30.9052,2.91211,0.00394494,-0.000931294,-0.0042256,0.00638535,-0.00337171,-0.523735,0.00572211,0.0395158,1875,1128,30.9052,-2.9121
658,-104,30.8602,2.74744,0.00278066,-0.00109045,-0.0024526,0.00396947,-0.00227926,-0.451342,0.00365143,0.043863,1882,1128,30.8602,-2.74738
665,-104,30.9867,2.57483,0.0019772,-0.00123136,-0.000896593,0.00221074,-0.0014649,-0.254816,0.00213665,0.0444576,1889,1128,30.9867,-2.57479
672,-104,31.0161,2.75818,0.00150274,-0.00137334,0.000371588,0.00154997,-0.00142057,0.126434,0.00171558,0.044841,1896,1128,31.0161,-2.75819
679,-104,30.8231,3.16333,0.00101154,-0.00146976,0.00125521,0.00153576,-0.00199397,0.395615,0.00204361,0.0429641,1903,1128,30.8231,-3.1633
686,-104,30.8297,3.22412,0.000562087,-0.00155314,0.00177717,0.00157254,-0.00256359,0.516989,0.00241074,0.0394785,1910,1128,30.8297,-3.22413
693,-104,30.8522,2.92249,0.000272059,-0.00156814,0.00205477,0.00160333,-0.00289941,0.574893,0.00263532,0.0352944,1917,1128,30.8521,-2.92249
700,-104,30.8409,2.86047,-9.87638e-05,-0.00154128,0.00233357,0.00162247,-0.00326251,0.635516,0.00287283,0.0260651,1924,1128,30.841,-2.86052
707,-104,30.8518,2.98145,-0.000412028,-0.00148271,0.00248632,0.00159593,-0.00349067,0.679359,0.0030039,0.0311851,1931,1128,30.8518,-2.98141
714,-104,29.3931,5.68994,0,0,0,0,0,0,0,-1,1938,1128,29.3931,-5.69
721,-104,29.1244,5.59082,-0.000843482,-0.00102177,0.00253632,0.00160526,-0.00347051,0.767832,0.00299573,0.0368648,1945,1128,29.1244,-5.59083
728,-104,29.1055,5.47009,-0.00100974,-0.000654005,0.00223031,0.00140552,-0.00306926,0.825189,0.00264237,0.0221667,1952,1128,29.1054,-5.47009
735,-104,29.0815,5.28687,-0.00122885,-0.000217949,0.00194252,0.0012838,-0.0027306,0.912678,0.00236736,0.0228194,1959,1128,29.0815,-5.28683
742,-104,28.9878,5.11096,-0.00127287,0.000572221,0.00190551,0.00176677,-0.00246741,1.01084,0.00245573,0.0157109,1966,1128,28.9877,-5.11101
749,-104,28.962,4.95825,-0.00120653,0.00163935,0.00204529,0.00270799,-0.00227517,1.08932,0.00288064,0.0181719,1973,1128,28.9621,-4.9583
756,-104,28.9727,4.77625,-0.00119031,0.00364673,0.00232937,0.00458607,-0.00212965,1.18748,0.00396283,0.0175662,1980,1128,28.9726,-4.77628
763,-104,28.9817,4.62488,-0.00103846,0.0071462,0.00273982,0.00797869,-0.00187094,1.27582,0.00604014,0.0153974,1987,1128,28.9817,-4.6249
770,-104,28.9794,4.50098,-0.000853453,0.0109894,0.00340935,0.0119007,-0.00176482,1.30959,0.00858278,0.0123626,1994,1128,28.9793,-4.50102
777,-104,28.9547,4.33545,-0.000763476,0.0157307,0.00458141,0.0169178,-0.00195057,1.31726,0.0119818,0.0206913,2001,1128,28.9547,-4.33546
784,-104,28.9463,4.17395,-0.000839622,0.0217074,0.00616544,0.0232832,-0.00241542,1.32057,0.0163867,0.0417734,2008,1128,28.9463,-4.17392
791,-104,28.9351,4.03088,0,0,0,0,0,0,0,-1,2015,1128,28.9351,-4.03092
798,-104,29.3494,4.3783,-0.00209239,0.0390463,0.0111135,0.0418566,-0.00490269,1.32312,0.029674,0.0464919,2022,1128,29.3493,-4.37834
805,-104,29.2847,4.10266,-0.00342054,0.0513661,0.0148299,0.0551228,-0.00717719,1.3227,0.0393596,0.0446444,2029,1128,29.2846,-4.10265
812,-104,29.0696,3.99011,-0.00558672,0.0670942,0.0197329,0.0721061,-0.0105986,1.32207,0.0519651,0.0494796,2036,1128,29.0697,-3.99008
-700,-111,0,0,0,0,0,0,0,0,0,-1,524,1135,0,0
-693,-111,-21.4677,-0.521973,0,0,0,0,0,0,0,-1,531,1135,-21.4677,0.522017
-686,-111,-21.0911,-3.54285,0,0,0,0,0,0,0,-1,538,1135,-21.0911,3.54279
-679,-111,-20.3494,-2.80249,0,0,0,0,0,0,0,-1,545,1135,-20.3494,2.80243
-672,-111,-20.1012,-1.24365,0,0,0,0,0,0,0,-1,552,1135,-20.1012,1.24366
-665,-111,-19.853,0.315063,0,0,0,0,0,0,0,-1,559,1135,-19.853,-0.315104
-658,-111,-19.6465,1.37598,0,0,0,0,0,0,0,-1,566,1135,-19.6466,-1.37596
-651,-111,-19.5642,1.47937,0.0043368,0.00343712,0.00260295,0.00652849,0.00124543,0.699834,0.00400231,0.041303,573,1135,-19.5642,-1.47937
-644,-111,-19.5363,1.64209,0.00289533,0.00224124,0.00188462,0.00448107,0.000655498,0.699487,0.00279463,0.025938,580,1135,-19.5363,-1.64205
-637,-111,-19.6023,1.88379,0.00181085,0.00135776,0.00110385,0.00271116,0.000457448,0.684186,0.0016759,0.0100161,587,1135,-19.6023,-1.88378
-630,-111,-19.6155,2.05286,0.000689784,-0.000126157,0.000476852,0.000909371,-0.000345744,0.431545,0.0007486,0.01529,594,1135,-19.6155,-2.05283
-623,-111,-19.6259,2.2832,-4.5915e-05,-0.000161778,-5.01392e-05,-2.72306e-05,-0.000180462,-0.35671,0.000112337,0.0143129,601,1135,-19.6258,-2.28323
-616,-111,-19.6938,2.47961,-0.000374385,-0.000245269,-0.000676584,0.00036983,-0.000989484,-0.832963,0.000811526,0.0152397,608,1135,-19.6938,-2.47958
-609,-111,-19.8221,2.69128,-0.00043687,-0.000146233,-0.00104986,0.000768314,-0.00135142,-0.85417,0.00123917,0.0210135,615,1135,-19.8221,-2.69129
-602,-111,-19.735,2.90808,-0.00024569,-1.12206e-05,-0.00159843,0.00147427,-0.00173118,-0.822004,0.00185264,0.0220681,622,1135,-19.735,-2.90803
-595,-111,-19.6508,3.14453,-3.6565e-05,0.000307002,-0.00179988,0.00194328,-0.00167284,-0.832975,0.00208972,0.0145993,629,1135,-19.6508,-3.14455
-588,-111,-19.5812,3.34717,0.000114648,0.000629756,-0.00173979,0.00213095,-0.00138655,-0.858883,0.00204593,0.0432,636,1135,-19.5812,-3.34711
-581,-111,-19.4858,3.30811,0,0,0,0,0,0,0,-1,643,1135,-19.4858,-3.30806
-574,-111,-21.645,1.45728,0,0,0,0,0,0,0,-1,650,1135,-21.6449,-1.4573
-567,-111,-21.5157,1.38342,-0.000220211,0.00178809,-0.00089517,0.00212917,-0.000561292,-1.20676,0.0016389,0.0388896,657,1135,-21.5158,-1.3834
-560,-111,-21.4506,1.16858,-0.000497482,0.00237069,-0.00044521,0.0024382,-0.000565,-1.42029,0.0018429,0.0386901,664,1135,-21.4506,-1.16859
-553,-111,-21.4812,0.844238,-0.00105479,0.00293034,0.000238259,0.00294453,-0.00106898,1.51129,0.00240006,0.0460178,671,1135,-21.4812,-0.844229
-546,-111,-21.9619,1.06384,0,0,0,0,0,0,0,-1,678,1135,-21.9619,-1.06382
-539,-111,-21.6252,1.32068,-0.00317026,0.0030842,0.00298927,0.00428309,-0.00436915,1.18937,0.00499546,0.0389031,685,1135,-21.6252,-1.32066
-532,-111,-21.819,1.38977,-0.00463136,0.00169319,0.00520944,0.00462504,-0.00756321,1.05818,0.00710471,0.0387624,692,1135,-21.819,-1.38975
-525,-111,-21.886,1.3783,-0.00616829,0.000245026,0.00727312,0.00498701,-0.0109103,0.993025,0.00938827,0.0387103,699,1135,-21.886,-1.37829
-518,-111,0,0,0,0,0,0,0,0,0,-1,706,1135,0,0
-511,-111,0,0,0,0,0,0,0,0,0,-1,713,1135,0,0
-504,-111,0,0,0,0,0,0,0,0,0,-1,720,1135,0,0
-497,-111,0,0,0,0,0,0,0,0,0,-1,727,1135,0,0
-490,-111,0,0,0,0,0,0,0,0,0,-1,734,1135,0,0
-483,-111,0,0,0,0,0,0,0,0,0,-1,741,1135,0,0
-476,-111,0,0,0,0,0,0,0,0,0,-1,748,1135,0,0
-469,-111,0,0,0,0,0,0,0,0,0,-1,755,1135,0,0
-462,-111,0,0,0,0,0,0,0,0,0,-1,762,1135,0,0
-455,-111,0,0,0,0,0,0,0,0,0,-1,769,1135,0,0
-448,-111,0,0,0,0,0,0,0,0,0,-1,776,1135,0,0
-441,-111,0,0,0,0,0,0,0,0,0,-1,783,1135,0,0
-434,-111,0,0,0,0,0,0,0,0,0,-1,790,1135,0,0
-427,-111,0,0,0,0,0,0,0,0,0,-1,797,1135,0,0
-420,-111,0,0,0,0,0,0,0,0,0,-1,804,1135,0,0
-413,-111,0,0,0,0,0,0,0,0,0,-1,811,1135,0,0
-406,-111,0,0,0,0,0,0,0,0,0,-1,818,1135,0,0
-399,-111,0,0,0,0,0,0,0,0,0,-1,825,1135,0,0
-392,-111,0,0,0,0,0,0,0,0,0,-1,832,1135,0,0
-385,-111,0,0,0,0,0,0,0,0,0,-1,839,1135,0,0
-378,-111,0,0,0,0,0,0,0,0,0,-1,846,1135,0,0
-371,-111,0,0,0,0,0,0,0,0,0,-1,853,1135,0,0
-364,-111,0,0,0,0,0,0,0,0,0,-1,860,1135,0,0
-357,-111,0,0,0,0,0,0,0,0,0,-1,867,1135,0,0
-350,-111,0,0,0,0,0,0,0,0,0,-1,874,1135,0,0
-343,-111,0,0,0,0,0,0,0,0,0,-1,881,1135,0,0
-336,-111,0,0,0,0,0,0,0,0,0,-1,888,1135,0,0
-329,-111,0,0,0,0,0,0,0,0,0,-1,895,1135,0,0
-322,-111,0,0,0,0,0,0,0,0,0,-1,902,1135,0,0
-315,-111,0,0,0,0,0,0,0,0,0,-1,909,1135,0,0
-308,-111,0,0,0,0,0,0,0,0,0,-1,916,1135,0,0
-301,-111,0,0,0,0,0,0,0,0,0,-1,923,1135,0,0
-294,-111,0,0,0,0,0,0,0,0,0,-1,930,1135,0,0
-287,-111,0,0,0,0,0,0,0,0,0,-1,937,1135,0,0
-280,-111,0,0,0,0,0,0,0,0,0,-1,944,1135,0,0
-273,-111,0,0,0,0,0,0,0,0,0,-1,951,1135,0,0
-266,-111,0,0,0,0,0,0,0,0,0,-1,958,1135,0,0
-259,-111,0,0,0,0,0,0,0,0,0,-1,965,1135,0,0
-252,-111,0,0,0,0,0,0,0,0,0,-1,972,1135,0,0
-245,-111,0,0,0,0,0,0,0,0,0,-1,979,1135,0,0
-238,-111,0,0,0,0,0,0,0,0,0,-1,986,1135,0,0
-231,-111,0,0,0,0,0,0,0,0,0,-1,993,1135,0,0
-224,-111,0,0,0,0,0,0,0,0,0,-1,1000,1135,0,0
-217,-111,0,0,0,0,0,0,0,0,0,-1,1007,1135,0,0
-210,-111,0,0,0,0,0,0,0,0,0,-1,1014,1135,0,0
-203,-111,0,0,0,0,0,0,0,0,0,-1,1021,1135,0,0
-196,-111,0,0,0,0,0,0,0,0,0,-1,1028,1135,0,0
-189,-111,0,0,0,0,0,0,0,0,0,-1,1035,1135,0,0
-182,-111,0,0,0,0,0,0,0,0,0,-1,1042,1135,0,0
-175,-111,0,0,0,0,0,0,0,0,0,-1,1049,1135,0,0
-168,-111,0,0,0,0,0,0,0,0,0,-1,1056,1135,0,0
-161,-111,0,0,0,0,0,0,0,0,0,-1,1063,1135,0,0
-154,-111,0,0,0,0,0,0,0,0,0,-1,1070,1135,0,0
-147,-111,0,0,0,0,0,0,0,0,0,-1,1077,1135,0,0
-140,-111,0,0,0,0,0,0,0,0,0,-1,1084,1135,0,0
-133,-111,0,0,0,0,0,0,0,0,0,-1,1091,1135,0,0
-126,-111,0,0,0,0,0,0,0,0,0,-1,1098,1135,0,0
-119,-111,0,0,0,0,0,0,0,0,0,-1,1105,1135,0,0
-112,-111,0,0,0,0,0,0,0,0,0,-1,1112,1135,0,0
-105,-111,0,0,0,0,0,0,0,0,0,-1,1119,1135,0,0
-98,-111,0,0,0,0,0,0,0,0,0,-1,1126,1135,0,0
-91,-111,0,0,0,0,0,0,0,0,0,-1,1133,1135,0,0
-84,-111,0,0,0,0,0,0,0,0,0,-1,1140,1135,0,0
-77,-111,0,0,0,0,0,0,0,0,0,-1,1147,1135,0,0
-70,-111,0,0,0,0,0,0,0,0,0,-1,1154,1135,0,0
-63,-111,0,0,0,0,0,0,0,0,0,-1,1161,1135,0,0
-56,-111,0,0,0,0,0,0,0,0,0,-1,1168,1135,0,0
-49,-111,0,0,0,0,0,0,0,0,0,-1,1175,1135,0,0
-42,-111,0,0,0,0,0,0,0,0,0,-1,1182,1135,0,0
-35,-111,0,0,0,0,0,0,0,0,0,-1,1189,1135,0,0
-28,-111,0,0,0,0,0,0,0,0,0,-1,1196,1135,0,0
-21,-111,0,0,0,0,0,0,0,0,0,-1,1203,1135,0,0
-14,-111,0,0,0,0,0,0,0,0,0,-1,1210,1135,0,0
-7,-111,0,0,0,0,0,0,0,0,0,-1,1217,1135,0,0
0,-111,0,0,0,0,0,0,0,0,0,-1,1224,1135,0,0
7,-111,0,0,0,0,0,0,0,0,0,-1,1231,1135,0,0
14,-111,0,0,0,0,0,0,0,0,0,-1,1238,1135,0,0
21,-111,0,0,0,0,0,0,0,0,0,-1,1245,1135,0,0
28,-111,0,0,0,0,0,0,0,0,0,-1,1252,1135,0,0
35,-111,0,0,0,0,0,0,0,0,0,-1,1259,1135,0,0
42,-111,0,0,0,0,0,0,0,0,0,-1,1266,1135,0,0
49,-111,0,0,0,0,0,0,0,0,0,-1,1273,1135,0,0
56,-111,0,0,0,0,0,0,0,0,0,-1,1280,1135,0,0
63,-111,0,0,0,0,0,0,0,0,0,-1,1287,1135,0,0
70,-111,0,0,0,0,0,0,0,0,0,-1,1294,1135,0,0
77,-111,0,0,0,0,0,0,0,0,0,-1,1301,1135,0,0
84,-111,0,0,0,0,0,0,0,0,0,-1,1308,1135,0,0
91,-111,0,0,0,0,0,0,0,0,0,-1,1315,1135,0,0
98,-111,0,0,0,0,0,0,0,0,0,-1,1322,1135,0,0
105,-111,0,0,0,0,0,0,0,0,0,-1,1329,1135,0,0
112,-111,0,0,0,0,0,0,0,0,0,-1,1336,1135,0,0
119,-111,0,0,0,0,0,0,0,0,0,-1,1343,1135,0,0
126,-111,0,0,0,0,0,0,0,0,0,-1,1350,1135,0,0
133,-111,0,0,0,0,0,0,0,0,0,-1,1357,1135,0,0
140,-111,0,0,0,0,0,0,0,0,0,-1,1364,1135,0,0
147,-111,0,0,0,0,0,0,0,0,0,-1,1371,1135,0,0
154,-111,0,0,0,0,0,0,0,0,0,-1,1378,1135,0,0
161,-111,0,0,0,0,0,0,0,0,0,-1,1385,1135,0,0
168,-111,0,0,0,0,0,0,0,0,0,-1,1392,1135,0,0
175,-111,0,0,0,0,0,0,0,0,0,-1,1399,1135,0,0
182,-111,0,0,0,0,0,0,0,0,0,-1,1406,1135,0,0
189,-111,0,0,0,0,0,0,0,0,0,-1,1413,1135,0,0
196,-111,0,0,0,0,0,0,0,0,0,-1,1420,1135,0,0
203,-111,0,0,0,0,0,0,0,0,0,-1,1427,1135,0,0
210,-111,0,0,0,0,0,0,0,0,0,-1,1434,1135,0,0
217,-111,0,0,0,0,0,0,0,0,0,-1,1441,1135,0,0
224,-111,0,0,0,0,0,0,0,0,0,-1,1448,1135,0,0
231,-111,0,0,0,0,0,0,0,0,0,-1,1455,1135,0,0
238,-111,0,0,0,0,0,0,0,0,0,-1,1462,1135,0,0
245,-111,0,0,0,0,0,0,0,0,0,-1,1469,1135,0,0
252,-111,0,0,0,0,0,0,0,0,0,-1,1476,1135,0,0
259,-111,0,0,0,0,0,0,0,0,0,-1,1483,1135,0,0
266,-111,0,0,0,0,0,0,0,0,0,-1,1490,1135,0,0
273,-111,0,0,0,0,0,0,0,0,0,-1,1497,1135,0,0
280,-111,0,0,0,0,0,0,0,0,0,-1,1504,1135,0,0
287,-111,0,0,0,0,0,0,0,0,0,-1,1511,1135,0,0
294,-111,0,0,0,0,0,0,0,0,0,-1,1518,1135,0,0
301,-111,0,0,0,0,0,0,0,0,0,-1,1525,1135,0,0
308,-111,0,0,0,0,0,0,0,0,0,-1,1532,1135,0,0
315,-111,0,0,0,0,0,0,0,0,0,-1,1539,1135,0,0
322,-111,0,0,0,0,0,0,0,0,0,-1,1546,1135,0,0
329,-111,0,0,0,0,0,0,0,0,0,-1,1553,1135,0,0
336,-111,0,0,0,0,0,0,0,0,0,-1,1560,1135,0,0
343,-111,0,0,0,0,0,0,0,0,0,-1,1567,1135,0,0
350,-111,0,0,0,0,0,0,0,0,0,-1,1574,1135,0,0
357,-111,0,0,0,0,0,0,0,0,0,-1,1581,1135,0,0
364,-111,0,0,0,0,0,0,0,0,0,-1,1588,1135,0,0
371,-111,0,0,0,0,0,0,0,0,0,-1,1595,1135,0,0
378,-111,0,0,0,0,0,0,0,0,0,-1,1602,1135,0,0
385,-111,0,0,0,0,0,0,0,0,0,-1,1609,1135,0,0
392,-111,0,0,0,0,0,0,0,0,0,-1,1616,1135,0,0
399,-111,0,0,0,0,0,0,0,0,0,-1,1623,1135,0,0
406,-111,0,0,0,0,0,0,0,0,0,-1,1630,1135,0,0
413,-111,0,0,0,0,0,0,0,0,0,-1,1637,1135,0,0
420,-111,0,0,0,0,0,0,0,0,0,-1,1644,1135,0,0
427,-111,0,0,0,0,0,0,0,0,0,-1,1651,1135,0,0
434,-111,0,0,0,0,0,0,0,0,0,-1,1658,1135,0,0
441,-111,0,0,0,0,0,0,0,0,0,-1,1665,1135,0,0
448,-111,0,0,0,0,0,0,0,0,0,-1,1672,1135,0,0
455,-111,0,0,0,0,0,0,0,0,0,-1,1679,1135,0,0
462,-111,0,0,0,0,0,0,0,0,0,-1,1686,1135,0,0
469,-111,0,0,0,0,0,0,0,0,0,-1,1693,1135,0,0
476,-111,0,0,0,0,0,0,0,0,0,-1,1700,1135,0,0
483,-111,0,0,0,0,0,0,0,0,0,-1,1707,1135,0,0
490,-111,0,0,0,0,0,0,0,0,0,-1,1714,1135,0,0
497,-111,0,0,0,0,0,0,0,0,0,-1,1721,1135,0,0
504,-111,0,0,0,0,0,0,0,0,0,-1,1728,1135,0,0
511,-111,0,0,0,0,0,0,0,0,0,-1,1735,1135,0,0
518,-111,0,0,0,0,0,0,0,0,0,-1,1742,1135,0,0
525,-111,0,0,0,0,0,0,0,0,0,-1,1749,1135,0,0
532,-111,0,0,0,0,0,0,0,0,0,-1,1756,1135,0,0
539,-111,0,0,0,0,0,0,0,0,0,-1,1763,1135,0,0
546,-111,0,0,0,0,0,0,0,0,0,-1,1770,1135,0,0
553,-111,0,0,0,0,0,0,0,0,0,-1,1777,1135,0,0
560,-111,0,0,0,0,0,0,0,0,0,-1,1784,1135,0,0
567,-111,0,0,0,0,0,0,0,0,0,-1,1791,1135,0,0
574,-111,0,0,0,0,0,0,0,0,0,-1,1798,1135,0,0
581,-111,0,0,0,0,0,0,0,0,0,-1,1805,1135,0,0
588,-111,0,0,0,0,0,0,0,0,0,-1,1812,1135,0,0
595,-111,0,0,0,0,0,0,0,0,0,-1,1819,1135,0,0
602,-111,0,0,0,0,0,0,0,0,0,-1,1826,1135,0,0
609,-111,0,0,0,0,0,0,0,0,0,-1,1833,1135,0,0
616,-111,0,0,0,0,0,0,0,0,0,-1,1840,1135,0,0
623,-111,0,0,0,0,0,0,0,0,0,-1,1847,1135,0,0
630,-111,0,0,0,0,0,0,0,0,0,-1,1854,1135,0,0
637,-111,0,0,0,0,0,0,0,0,0,-1,1861,1135,0,0
644,-111,30.5966,2.91968,0.00535018,-0.00122191,-0.00613892,0.00902721,-0.00489893,-0.539662,0.00815717,0.0405683,1868,1135,30.5966,-2.91967
651,-111,30.8528,2.79224,0.00371847,-0.001304,-0.00367839,0.00566109,-0.00324662,-0.485888,0.00520546,0.0423349,1875,1135,30.8528,-2.79219
658,-111,30.9829,2.63867,0.00265471,-0.00137897,-0.00203898,0.00350581,-0.00223007,-0.395428,0.0033388,0.047399,1882,1135,30.9829,-2.63869
665,-111,31.095,2.59399,0.0019213,-0.00142882,-0.000637975,0.00203868,-0.0015462,-0.181952,0.00207623,0.0457587,1889,1135,31.095,-2.59398
672,-111,31.0233,2.69202,0.00152514,-0.00145244,0.000408309,0.00158011,-0.00150742,0.133837,0.00178275,0.0469804,1896,1135,31.0233,-2.69207
679,-111,30.8893,2.90613,0.00109496,-0.00144478,0.00109362,0.00150097,-0.00185079,0.355481,0.00193865,0.0460492,1903,1135,30.8892,-2.90616
686,-111,30.8491,3.05273,0.00066926,-0.00144621,0.00147461,0.00142627,-0.00220321,0.474279,0.00211143,0.0416754,1910,1135,30.8491,-3.05279
693,-111,30.8475,2.95325,0.000394596,-0.00139246,0.00165854,0.00138498,-0.00238285,0.538318,0.00220064,0.0363636,1917,1135,30.8476,-2.95325
700,-111,30.8586,2.89294,2.94209e-05,-0.00133561,0.00190314,0.00136873,-0.00267492,0.613228,0.00237485,0.0262233,1924,1135,30.8586,-2.893
707,-111,30.6687,3.35852,0,0,0,0,0,0,0,-1,1931,1135,30.6687,-3.35847
714,-111,29.6664,4.56824,0,0,0,0,0,0,0,-1,1938,1135,29.6663,-4.56827
721,-111,28.8823,5.63477,-0.000756093,-0.00077966,0.00204403,0.00127619,-0.00281194,0.782516,0.00241516,0.0170521,1945,1135,28.8823,-5.63475
728,-111,28.8853,5.4668,-0.000925446,-0.000425554,0.00178886,0.00113074,-0.00248174,0.854811,0.00213372,0.0191227,1952,1135,28.8853,-5.46684
735,-111,28.8927,5.29712,-0.00110432,-2.73767e-05,0.00152725,0.00105355,-0.00218525,0.954881,0.00190759,0.0189194,1959,1135,28.8928,-5.29709
742,-111,28.8372,5.13672,-0.00111723,0.000697728,0.00154512,0.00158215,-0.00200165,1.05092,0.00207383,0.0127111,1966,1135,28.8371,-5.1367
749,-111,28.8196,4.98218,-0.000974428,0.0017547,0.00169782,0.00256835,-0.00178808,1.1239,0.0025286,0.0152449,1973,1135,28.8196,-4.98213
756,-111,28.8083,4.79333,-0.000777195,0.00380319,0.00199983,0.00455344,-0.00152745,1.21189,0.00365283,0.0163429,1980,1135,28.8084,-4.79334
763,-111,28.8035,4.6217,-0.000374924,0.00709705,0.00238213,0.00779188,-0.00106975,1.28699,0.00558542,0.0134617,1987,1135,28.8034,-4.62171
770,-111,28.7935,4.48486,0.000151638,0.0107521,0.00301667,0.0115505,-0.000646717,1.31208,0.00792468,0.0106993,1994,1135,28.7934,-4.48481
777,-111,28.7373,4.29272,0.0006591,0.0152432,0.00407042,0.0163023,-0.000400042,1.31624,0.011004,0.0230622,2001,1135,28.7373,-4.29267
784,-111,28.8097,4.08508,0.00107897,0.0209209,0.00553792,0.0223619,-0.000362025,1.31624,0.0150301,0.0427695,2008,1135,28.8097,-4.08506
791,-111,28.8916,3.86951,0,0,0,0,0,0,0,-1,2015,1135,28.8916,-3.86956
798,-111,29.0117,4.58862,0.00106605,0.0372848,0.0103153,0.0400166,-0.00166575,1.31191,0.02725,0.0467571,2022,1135,29.0118,-4.58862
805,-111,29.3535,3.79993,0.000467472,0.0488277,0.0140377,0.0526071,-0.00331192,1.3078,0.0362259,0.0431708,2029,1135,29.3536,-3.79994
812,-111,29.3591,4.0459,0,0,0,0,0,0,0,-1,2036,1135,29.3592,-4.04589
-700,-118,0,0,0,0,0,0,0,0,0,-1,524,1142,0,0
-693,-118,-21.3189,-0.500244,0,0,0,0,0,0,0,-1,531,1142,-21.3189,0.500205
-686,-118,-20.6888,-0.835815,0,0,0,0,0,0,0,-1,538,1142,-20.6888,0.835823
-679,-118,-20.3383,-0.800537,0,0,0,0,0,0,0,-1,545,1142,-20.3383,0.800482
-672,-118,-19.7574,-1.25391,0,0,0,0,0,0,0,-1,552,1142,-19.7574,1.25386
-665,-118,-20.5089,0.00622559,0.0150838,0.00693759,-0.00306029,0.0161053,0.00591604,-0.32218,0.00940689,0.0476896,559,1142,-20.5089,-0.00618455
-658,-118,-20.1942,-0.13916,0,0,0,0,0,0,0,-1,566,1142,-20.1942,0.139218
-651,-118,-19.2749,1.46899,0,0,0,0,0,0,0,-1,573,1142,-19.2749,-1.469
-644,-118,-19.2495,1.63513,0.00609378,0.00199527,-0.00125328,0.00644664,0.00164241,-0.274446,0.00386831,0.0280297,580,1142,-19.2495,-1.63518
-637,-118,-19.3644,1.87366,0.00404533,0.00122946,-0.00104806,0.00439259,0.000882199,-0.319952,0.00268311,0.0156577,587,1142,-19.3644,-1.87362
-630,-118,-19.3903,2.06787,0.0018448,4.33539e-05,-0.000651061,0.00205547,-0.00016731,-0.312939,0.00142935,0.0188507,594,1142,-19.3902,-2.06788
-623,-118,-19.3859,2.26563,0.000387472,3.90714e-05,-0.000463662,0.000708578,-0.000282034,-0.605704,0.000589338,0.0159172,601,1142,-19.3859,-2.26565
-616,-118,-19.409,2.4646,-0.000164567,1.32599e-05,-0.000734548,0.000664256,-0.000815563,-0.845628,0.000855861,0.0148439,608,1142,-19.409,-2.4646
-609,-118,-19.5071,2.63306,-0.000286433,0.000156118,-0.000886914,0.000848943,-0.000979257,-0.907647,0.00105641,0.0211413,615,1142,-19.5071,-2.63311
-602,-118,-19.4836,2.94458,-9.06076e-05,0.000259545,-0.00129996,0.00139616,-0.00122722,-0.852335,0.00151566,0.0201245,622,1142,-19.4836,-2.94454
-595,-118,-19.6464,3.22217,0,0,0,0,0,0,0,-1,629,1142,-19.6464,-3.22212
-588,-118,-19.3162,3.34546,0,0,0,0,0,0,0,-1,636,1142,-19.3161,-3.34546
-581,-118,-19.1953,3.35168,0,0,0,0,0,0,0,-1,643,1142,-19.1953,-3.35171
-574,-118,-21.5886,1.33362,0,0,0,0,0,0,0,-1,650,1142,-21.5886,-1.33367
-567,-118,-21.5176,1.30774,-0.000111654,0.00207855,-0.000468445,0.00217453,-0.000207639,-1.36869,0.00152363,0.0407125,657,1142,-21.5176,-1.30775
-560,-118,-21.5181,1.16943,-0.000419558,0.00266667,-6.92858e-05,0.00266823,-0.000421112,-1.54836,0.00193453,0.0359184,664,1142,-21.5181,-1.16938
-553,-118,-21.4407,0.924683,-0.000993295,0.00328306,0.000526556,0.00334694,-0.00105718,1.45007,0.0026548,0.042106,671,1142,-21.4407,-0.924639
-546,-118,-21.3851,1.18835,-0.00190374,0.00379586,0.00145615,0.00414633,-0.00225422,1.33461,0.00374879,0.0415252,678,1142,-21.3851,-1.18831
-539,-118,-21.4785,1.38489,-0.00318423,0.00394305,0.00296489,0.00501515,-0.00425633,1.22383,0.00535887,0.0398767,685,1142,-21.4785,-1.3849
-532,-118,-21.6583,1.56482,-0.00455967,0.00326801,0.00513654,0.00581189,-0.00710355,1.11095,0.00746915,0.0398262,692,1142,-21.6583,-1.56481
-525,-118,-21.7111,1.7887,-0.00596755,0.00263458,0.00708797,0.00662438,-0.00995736,1.0581,0.00963772,0.0433596,699,1142,-21.7111,-1.78874
-518,-118,0,0,0,0,0,0,0,0,0,-1,706,1142,0,0
-511,-118,0,0,0,0,0,0,0,0,0,-1,713,1142,0,0
-504,-118,0,0,0,0,0,0,0,0,0,-1,720,1142,0,0
-497,-118,0,0,0,0,0,0,0,0,0,-1,727,1142,0,0
-490,-118,0,0,0,0,0,0,0,0,0,-1,734,1142,0,0
-483,-118,0,0,0,0,0,0,0,0,0,-1,741,1142,0,0
-476,-118,0,0,0,0,0,0,0,0,0,-1,748,1142,0,0
-469,-118,0,0,0,0,0,0,0,0,0,-1,755,1142,0,0
-462,-118,0,0,0,0,0,0,0,0,0,-1,762,1142,0,0
-455,-118,0,0,0,0,0,0,0,0,0,-1,769,1142,0,0
-448,-118,0,0,0,0,0,0,0,0,0,-1,776,1142,0,0
-441,-118,0,0,0,0,0,0,0,0,0,-1,783,1142,0,0
-434,-118,0,0,0,0,0,0,0,0,0,-1,790,1142,0,0
-427,-118,0,0,0,0,0,0,0,0,0,-1,797,1142,0,0
-420,-118,0,0,0,0,0,0,0,0,0,-1,804,1142,0,0
-413,-118,0,0,0,0,0,0,0,0,0,-1,811,1142,0,0
-406,-118,0,0,0,0,0,0,0,0,0,-1,818,1142,0,0
-399,-118,0,0,0,0,0,0,0,0,0,-1,825,1142,0,0
-392,-118,0,0,0,0,0,0,0,0,0,-1,832,1142,0,0
-385,-118,0,0,0,0,0,0,0,0,0,-1,839,1142,0,0
-378,-118,0,0,0,0,0,0,0,0,0,-1,846,1142,0,0
-371,-118,0,0,0,0,0,0,0,0,0,-1,853,1142,0,0
-364,-118,0,0,0,0,0,0,0,0,0,-1,860,1142,0,0
-357,-118,0,0,0,0,0,0,0,0,0,-1,867,1142,0,0
-350,-118,0,0,0,0,0,0,0,0,0,-1,874,1142,0,0
-343,-118,0,0,0,0,0,0,0,0,0,-1,881,1142,0,0
-336,-118,0,0,0,0,0,0,0,0,0,-1,888,1142,0,0
-329,-118,0,0,0,0,0,0,0,0,0,-1,895,1142,0,0
-322,-118,0,0,0,0,0,0,0,0,0,-1,902,1142,0,0
-315,-118,0,0,0,0,0,0,0,0,0,-1,909,1142,0,0
-308,-118,0,0,0,0,0,0,0,0,0,-1,916,1142,0,0
-301,-118,0,0,0,0,0,0,0,0,0,-1,923,1142,0,0
-294,-118,0,0,0,0,0,0,0,0,0,-1,930,1142,0,0
-287,-118,0,0,0,0,0,0,0,0,0,-1,937,1142,0,0
-280,-118,0,0,0,0,0,0,0,0,0,-1,944,1142,0,0
-273,-118,0,0,0,0,0,0,0,0,0,-1,951,1142,0,0
-266,-118,0,0,0,0,0,0,0,0,0,-1,958,1142,0,0
-259,-118,0,0,0,0,0,0,0,0,0,-1,965,1142,0,0
-252,-118,0,0,0,0,0,0,0,0,0,-1,972,1142,0,0
-245,-118,0,0,0,0,0,0,0,0,0,-1,979,1142,0,0
-238,-118,0,0,0,0,0,0,0,0,0,-1,986,1142,0,0
-231,-118,0,0,0,0,0,0,0,0,0,-1,993,1142,0,0
-224,-118,0,0,0,0,0,0,0,0,0,-1,1000,1142,0,0
-217,-118,0,0,0,0,0,0,0,0,0,-1,1007,1142,0,0
-210,-118,0,0,0,0,0,0,0,0,0,-1,1014,1142,0,0
-203,-118,0,0,0,0,0,0,0,0,0,-1,1021,1142,0,0
-196,-118,0,0,0,0,0,0,0,0,0,-1,1028,1142,0,0
-189,-118,0,0,0,0,0,0,0,0,0,-1,1035,1142,0,0
-182,-118,0,0,0,0,0,0,0,0,0,-1,1042,1142,0,0
-175,-118,0,0,0,0,0,0,0,0,0,-1,1049,1142,0,0
-168,-118,0,0,0,0,0,0,0,0,0,-1,1056,1142,0,0
-161,-118,0,0,0,0,0,0,0,0,0,-1,1063,1142,0,0
-154,-118,0,0,0,0,0,0,0,0,0,-1,1070,1142,0,0
-147,-118,0,0,0,0,0,0,0,0,0,-1,1077,1142,0,0
-140,-118,0,0,0,0,0,0,0,0,0,-1,1084,1142,0,0
-133,-118,0,0,0,0,0,0,0,0,0,-1,1091,1142,0,0
-126,-118,0,0,0,0,0,0,0,0,0,-1,1098,1142,0,0
-119,-118,0,0,0,0,0,0,0,0,0,-1,1105,1142,0,0
-112,-118,0,0,0,0,0,0,0,0,0,-1,1112,1142,0,0
-105,-118,0,0,0,0,0,0,0,0,0,-1,1119,1142,0,0
-98,-118,0,0,0,0,0,0,0,0,0,-1,1126,1142,0,0
-91,-118,0,0,0,0,0,0,0,0,0,-1,1133,1142,0,0
-84,-118,0,0,0,0,0,0,0,0,0,-1,1140,1142,0,0
-77,-118,0,0,0,0,0,0,0,0,0,-1,1147,1142,0,0
-70,-118,0,0,0,0,0,0,0,0,0,-1,1154,1142,0,0
-63,-118,0,0,0,0,0,0,0,0,0,-1,1161,1142,0,0
-56,-118,0,0,0,0,0,0,0,0,0,-1,1168,1142,0,0
-49,-118,0,0,0,0,0,0,0,0,0,-1,1175,1142,0,0
-42,-118,0,0,0,0,0,0,0,0,0,-1,1182,1142,0,0
-35,-118,0,0,0,0,0,0,0,0,0,-1,1189,1142,0,0
-28,-118,0,0,0,0,0,0,0,0,0,-1,1196,1142,0,0
-21,-118,0,0,0,0,0,0,0,0,0,-1,1203,1142,0,0
-14,-118,0,0,0,0,0,0,0,0,0,-1,1210,1142,0,0
-7,-118,0,0,0,0,0,0,0,0,0,-1,1217,1142,0,0
0,-118,0,0,0,0,0,0,0,0,0,-1,1224,1142,0,0
7,-118,0,0,0,0,0,0,0,0,0,-1,1231,1142,0,0
14,-118,0,0,0,0,0,0,0,0,0,-1,1238,1142,0,0
21,-118,0,0,0,0,0,0,0,0,0,-1,1245,1142,0,0
28,-118,0,0,0,0,0,0,0,0,0,-1,1252,1142,0,0
35,-118,0,0,0,0,0,0,0,0,0,-1,1259,1142,0,0
42,-118,0,0,0,0,0,0,0,0,0,-1,1266,1142,0,0
49,-118,0,0,0,0,0,0,0,0,0,-1,1273,1142,0,0
56,-118,0,0,0,0,0,0,0,0,0,-1,1280,1142,0,0
63,-118,0,0,0,0,0,0,0,0,0,-1,1287,1142,0,0
70,-118,0,0,0,0,0,0,0,0,0,-1,1294,1142,0,0
77,-118,0,0,0,0,0,0,0,0,0,-1,1301,1142,0,0
84,-118,0,0,0,0,0,0,0,0,0,-1,1308,1142,0,0
91,-118,0,0,0,0,0,0,0,0,0,-1,1315,1142,0,0
98,-118,0,0,0,0,0,0,0,0,0,-1,1322,1142,0,0
105,-118,0,0,0,0,0,0,0,0,0,-1,1329,1142,0,0
112,-118,0,0,0,0,0,0,0,0,0,-1,1336,1142,0,0
119,-118,0,0,0,0,0,0,0,0,0,-1,1343,1142,0,0
126,-118,0,0,0,0,0,0,0,0,0,-1,1350,1142,0,0
133,-118,0,0,0,0,0,0,0,0,0,-1,1357,1142,0,0
140,-118,0,0,0,0,0,0,0,0,0,-1,1364,1142,0,0
147,-118,0,0,0,0,0,0,0,0,0,-1,1371,1142,0,0
154,-118,0,0,0,0,0,0,0,0,0,-1,1378,1142,0,0
161,-118,0,0,0,0,0,0,0,0,0,-1,1385,1142,0,0
168,-118,0,0,0,0,0,0,0,0,0,-1,1392,1142,0,0
175,-118,0,0,0,0,0,0,0,0,0,-1,1399,1142,0,0
182,-118,0,0,0,0,0,0,0,0,0,-1,1406,1142,0,0
189,-118,0,0,0,0,0,0,0,0,0,-1,1413,1142,0,0
196,-118,0,0,0,0,0,0,0,0,0,-1,1420,1142,0,0
203,-118,0,0,0,0,0,0,0,0,0,-1,1427,1142,0,0
210,-118,0,0,0,0,0,0,0,0,0,-1,1434,1142,0,0
217,-118,0,0,0,0,0,0,0,0,0,-1,1441,1142,0,0
224,-118,0,0,0,0,0,0,0,0,0,-1,1448,1142,0,0
231,-118,0,0,0,0,0,0,0,0,0,-1,1455,1142,0,0
238,-118,0,0,0,0,0,0,0,0,0,-1,1462,1142,0,0
245,-118,0,0,0,0,0,0,0,0,0,-1,1469,1142,0,0
252,-118,0,0,0,0,0,0,0,0,0,-1,1476,1142,0,0
259,-118,0,0,0,0,0,0,0,0,0,-1,1483,1142,0,0
266,-118,0,0,0,0,0,0,0,0,0,-1,1490,1142,0,0
273,-118,0,0,0,0,0,0,0,0,0,-1,1497,1142,0,0
280,-118,0,0,0,0,0,0,0,0,0,-1,1504,1142,0,0
287,-118,0,0,0,0,0,0,0,0,0,-1,1511,1142,0,0
294,-118,0,0,0,0,0,0,0,0,0,-1,1518,1142,0,0
301,-118,0,0,0,0,0,0,0,0,0,-1,1525,1142,0,0
308,-118,0,0,0,0,0,0,0,0,0,-1,1532,1142,0,0
315,-118,0,0,0,0,0,0,0,0,0,-1,1539,1142,0,0
322,-118,0,0,0,0,0,0,0,0,0,-1,1546,1142,0,0
329,-118,0,0,0,0,0,0,0,0,0,-1,1553,1142,0,0
336,-118,0,0,0,0,0,0,0,0,0,-1,1560,1142,0,0
343,-118,0,0,0,0,0,0,0,0,0,-1,1567,1142,0,0
350,-118,0,0,0,0,0,0,0,0,0,-1,1574,1142,0,0
357,-118,0,0,0,0,0,0,0,0,0,-1,1581,1142,0,0
364,-118,0,0,0,0,0,0,0,0,0,-1,1588,1142,0,0
371,-118,0,0,0,0,0,0,0,0,0,-1,1595,1142,0,0
378,-118,0,0,0,0,0,0,0,0,0,-1,1602,1142,0,0
385,-118,0,0,0,0,0,0,0,0,0,-1,1609,1142,0,0
392,-118,0,0,0,0,0,0,0,0,0,-1,1616,1142,0,0
399,-118,0,0,0,0,0,0,0,0,0,-1,1623,1142,0,0
406,-118,0,0,0,0,0,0,0,0,0,-1,1630,1142,0,0
413,-118,0,0,0,0,0,0,0,0,0,-1,1637,1142,0,0
420,-118,0,0,0,0,0,0,0,0,0,-1,1644,1142,0,0
427,-118,0,0,0,0,0,0,0,0,0,-1,1651,1142,0,0
434,-118,0,0,0,0,0,0,0,0,0,-1,1658,1142,0,0
441,-118,0,0,0,0,0,0,0,0,0,-1,1665,1142,0,0
448,-118,0,0,0,0,0,0,0,0,0,-1,1672,1142,0,0
455,-118,0,0,0,0,0,0,0,0,0,-1,1679,1142,0,0
462,-118,0,0,0,0,0,0,0,0,0,-1,1686,1142,0,0
469,-118,0,0,0,0,0,0,0,0,0,-1,1693,1142,0,0
476,-118,0,0,0,0,0,0,0,0,0,-1,1700,1142,0,0
483,-118,0,0,0,0,0,0,0,0,0,-1,1707,1142,0,0
490,-118,0,0,0,0,0,0,0,0,0,-1,1714,1142,0,0
497,-118,0,0,0,0,0,0,0,0,0,-1,1721,1142,0,0
504,-118,0,0,0,0,0,0,0,0,0,-1,1728,1142,0,0
511,-118,0,0,0,0,0,0,0,0,0,-1,1735,1142,0,0
518,-118,0,0,0,0,0,0,0,0,0,-1,1742,1142,0,0
525,-118,0,0,0,0,0,0,0,0,0,-1,1749,1142,0,0
532,-118,0,0,0,0,0,0,0,0,0,-1,1756,1142,0,0
539,-118,0,0,0,0,0,0,0,0,0,-1,1763,1142,0,0
546,-118,0,0,0,0,0,0,0,0,0,-1,1770,1142,0,0
553,-118,0,0,0,0,0,0,0,0,0,-1,1777,1142,0,0
560,-118,0,0,0,0,0,0,0,0,0,-1,1784,1142,0,0
567,-118,0,0,0,0,0,0,0,0,0,-1,1791,1142,0,0
574,-118,0,0,0,0,0,0,0,0,0,-1,1798,1142,0,0
581,-118,0,0,0,0,0,0,0,0,0,-1,1805,1142,0,0
588,-118,0,0,0,0,0,0,0,0,0,-1,1812,1142,0,0
595,-118,0,0,0,0,0,0,0,0,0,-1,1819,1142,0,0
602,-118,0,0,0,0,0,0,0,0,0,-1,1826,1142,0,0
609,-118,0,0,0,0,0,0,0,0,0,-1,1833,1142,0,0
616,-118,0,0,0,0,0,0,0,0,0,-1,1840,1142,0,0
623,-118,0,0,0,0,0,0,0,0,0,-1,1847,1142,0,0
630,-118,0,0,0,0,0,0,0,0,0,-1,1854,1142,0,0
637,-118,0,0,0,0,0,0,0,0,0,-1,1861,1142,0,0
644,-118,30.6809,3.02576,0.00468516,-0.00201314,-0.00540749,0.00769665,-0.00502463,-0.508134,0.00739844,0.0427452,1868,1142,30.6808,-3.02576
651,-118,30.9088,2.77539,0.00330014,-0.0019133,-0.00318682,0.00481055,-0.00342371,-0.442597,0.00477648,0.0415048,1875,1142,30.9088,-2.77537
658,-118,30.9192,2.86755,0.00241186,-0.00184315,-0.00168601,0.00299893,-0.00243022,-0.33507,0.00314025,0.0430895,1882,1142,30.9192,-2.86756
665,-118,30.8448,2.84949,0.00181947,-0.00174665,-0.000458459,0.00187746,-0.00180465,-0.125834,0.00212601,0.0423362,1889,1142,30.8449,-2.84949
672,-118,30.7777,2.8313,0.00155888,-0.00161549,0.000341527,0.00159521,-0.00165182,0.105973,0.00187477,0.0446182,1896,1142,30.7777,-2.83133
679,-118,30.7538,2.94043,0.00120181,-0.00148743,0.000829471,0.00143707,-0.00172269,0.27637,0.00182677,0.0427629,1903,1142,30.7538,-2.94039
686,-118,30.7429,3.11292,0.000800725,-0.00139637,0.00107516,0.00123931,-0.00183495,0.387321,0.001786,0.037498,1910,1142,30.7429,-3.11286
693,-118,30.7924,3.0022,0.000543742,-0.00126837,0.00117446,0.00112103,-0.00184565,0.45685,0.00172976,0.0351023,1917,1142,30.7923,-3.00218
700,-118,30.8496,2.94641,0.000188088,-0.00118555,0.00138543,0.0010476,-0.00204507,0.55528,0.00181625,0.0203353,1924,1142,30.8496,-2.94637
707,-118,30.9187,3.11646,0,0,0,0,0,0,0,-1,1931,1142,30.9187,-3.11646
714,-118,28.8203,5.82849,0,0,0,0,0,0,0,-1,1938,1142,28.8203,-5.82849
721,-118,28.6844,5.66748,-0.000675865,-0.00057593,0.00146971,0.00084466,-0.00209646,0.802391,0.00174857,0.0135155,1945,1142,28.6845,-5.66748
728,-118,28.6884,5.4928,-0.000822388,-0.000240904,0.00128255,0.000783445,-0.00184674,0.89686,0.00155935,0.0172284,1952,1142,28.6884,-5.49285
735,-118,28.6672,5.31702,-0.000922064,0.000101065,0.00103997,0.000748481,-0.00156948,1.01397,0.00136597,0.0164573,1959,1142,28.6672,-5.31699
742,-118,28.6425,5.13867,-0.000831741,0.000700317,0.00111783,0.00128941,-0.00142083,1.08579,0.00156537,0.0221523,1966,1142,28.6425,-5.1387
749,-118,28.6367,4.97949,-0.000513367,0.00175012,0.00130599,0.00234651,-0.00110976,1.14242,0.00203762,0.0206217,1973,1142,28.6367,-4.97955
756,-118,28.6337,4.81372,-3.6579e-06,0.00391463,0.00167604,0.00453373,-0.000622758,1.21696,0.00325002,0.018197,1980,1142,28.6336,-4.81367
763,-118,28.6085,4.62134,0.000828716,0.00706181,0.00206831,0.00768569,0.000204842,1.27784,0.00505689,0.00988481,1987,1142,28.6085,-4.62129
770,-118,28.5709,4.47522,0.00188613,0.0106209,0.00270981,0.0113933,0.00111376,1.29313,0.00725285,0.0119712,1994,1142,28.5709,-4.47518
777,-118,28.5341,4.33447,0.00301735,0.0150411,0.00369499,0.0160859,0.00197263,1.29525,0.0101306,0.0269984,2001,1142,28.5341,-4.33453
784,-118,28.6101,4.28979,0.00415344,0.0206764,0.00510323,0.0221255,0.00270436,1.29413,0.0139366,0.0438853,2008,1142,28.6101,-4.28984
791,-118,28.8126,4.45239,0.00508336,0.0278705,0.00709489,0.029899,0.00305491,1.29232,0.0189964,0.0461673,2015,1142,28.8126,-4.45243
798,-118,28.7451,4.40137,0.0058235,0.0370061,0.00981002,0.0398356,0.00299403,1.28999,0.0256174,0.0476537,2022,1142,28.7451,-4.40132
805,-118,28.6877,4.28198,0,0,0,0,0,0,0,-1,2029,1142,28.6877,-4.28194
812,-118,28.2085,5.52222,0,0,0,0,0,0,0,-1,2036,1142,28.2086,-5.52227
-700,-125,0,0,0,0,0,0,0,0,0,-1,524,1149,0,0
-693,-125,-21.1274,-0.52002,0,0,0,0,0,0,0,-1,531,1149,-21.1274,0.519959
-686,-125,-20.5428,-0.602539,0.0385319,0.0213347,-0.0203274,0.0520045,0.00786206,-0.585307,0.0323689,0.0460549,538,1149,-20.5428,0.602496
-679,-125,-20.1029,-0.537476,0.0340929,0.0153378,-0.0159557,0.0432227,0.00620798,-0.519727,0.0269849,0.0469041,545,1149,-20.1029,0.537462
-672,-125,-20.6586,0.105347,0.0289723,0.0110954,-0.0124983,0.0353996,0.00466817,-0.474981,0.0222078,0.0448832,552,1149,-20.6585,-0.105347
-665,-125,-20.0407,0.379517,0.0235698,0.00807855,-0.00962126,0.0281758,0.00347253,-0.446491,0.01774,0.0418945,559,1149,-20.0407,-0.379461
-658,-125,-18.8848,1.13831,0,0,0,0,0,0,0,-1,566,1149,-18.8848,-1.13825
-651,-125,-18.9473,1.42554,0.0133472,0.00439298,-0.00528433,0.015796,0.00194415,-0.433952,0.00994618,0.0397916,573,1149,-18.9473,-1.42555
-644,-125,-19.0324,1.68909,0.00908939,0.00325045,-0.00374774,0.0109206,0.00141925,-0.454497,0.00685644,0.0268795,580,1149,-19.0324,-1.68905
-637,-125,-19.114,1.86121,0.00596553,0.00229051,-0.00265183,0.00735426,0.000901771,-0.482419,0.00463161,0.0144071,587,1149,-19.1139,-1.86116
-630,-125,-19.1333,2.06604,0.00279586,0.0010377,-0.00135974,0.00353593,0.000297624,-0.49844,0.00226461,0.015141,594,1149,-19.1333,-2.066
-623,-125,-19.1334,2.27844,0.000680819,0.00052488,-0.000653795,0.00126128,-5.55787e-05,-0.72605,0.000859977,0.0134583,601,1149,-19.1334,-2.27839
-616,-125,-19.1391,2.49146,-0.000125494,0.000295219,-0.00067789,0.000794641,-0.000624916,-0.935843,0.000821532,0.01327,608,1149,-19.1391,-2.49143
-609,-125,-19.2326,2.66003,-0.000330803,0.000295217,-0.000724268,0.000771219,-0.000806805,-0.989364,0.000911149,0.0225621,615,1149,-19.2326,-2.66
-602,-125,-19.2589,2.96362,-0.000158269,0.00024183,-0.00106617,0.00112656,-0.001043,-0.878137,0.0012529,0.0201427,622,1149,-19.2588,-2.96368
-595,-125,-19.257,3.21729,5.22105e-05,0.000400663,-0.00120314,0.00144212,-0.00098925,-0.857303,0.00141185,0.0187854,629,1149,-19.2569,-3.21725
-588,-125,-19.0287,3.4707,0.000172927,0.000656742,-0.00106853,0.0015104,-0.000680736,-0.896718,0.00129493,0.027864,636,1149,-19.0287,-3.47069
-581,-125,-18.8094,3.6864,0,0,0,0,0,0,0,-1,643,1149,-18.8094,-3.68636
-574,-125,-21.5316,1.1897,0,0,0,0,0,0,0,-1,650,1149,-21.5316,-1.18966
-567,-125,-21.5069,1.20081,-0.00024695,0.00182603,-0.000284291,0.00186431,-0.000285231,-1.43695,0.00134805,0.0384446,657,1149,-21.5069,-1.20085
-560,-125,-21.5587,1.16553,-0.000537769,0.00242269,5.0464e-05,0.00242355,-0.000538629,1.55376,0.00182198,0.0370127,664,1149,-21.5587,-1.16558
-553,-125,-21.5577,1.00513,-0.00104919,0.00311347,0.000542928,0.00318312,-0.00111884,1.44321,0.00257729,0.039902,671,1149,-21.5577,-1.0051
-546,-125,-21.4783,0.781616,-0.00184168,0.00382398,0.00131204,0.00411307,-0.00213077,1.35393,0.00366494,0.0404059,678,1149,-21.4783,-0.781618
-539,-125,-21.3328,0.999146,-0.0030083,0.00439935,0.00259618,0.00521863,-0.00382757,1.26512,0.00524337,0.0431597,685,1149,-21.3329,-0.999099
-532,-125,-21.3892,1.40723,-0.00417171,0.00456912,0.00456103,0.00651563,-0.00611821,1.16743,0.00729536,0.0415134,692,1149,-21.3892,-1.40724
-525,-125,-21.4115,1.6178,-0.00536223,0.00466124,0.00629986,0.0076997,-0.00840069,1.1214,0.0092985,0.0428753,699,1149,-21.4115,-1.61781
-518,-125,0,0,0,0,0,0,0,0,0,-1,706,1149,0,0
-511,-125,0,0,0,0,0,0,0,0,0,-1,713,1149,0,0
-504,-125,0,0,0,0,0,0,0,0,0,-1,720,1149,0,0
-497,-125,0,0,0,0,0,0,0,0,0,-1,727,1149,0,0
-490,-125,0,0,0,0,0,0,0,0,0,-1,734,1149,0,0
-483,-125,0,0,0,0,0,0,0,0,0,-1,741,1149,0,0
-476,-125,0,0,0,0,0,0,0,0,0,-1,748,1149,0,0
-469,-125,0,0,0,0,0,0,0,0,0,-1,755,1149,0,0
-462,-125,0,0,0,0,0,0,0,0,0,-1,762,1149,0,0
-455,-125,0,0,0,0,0,0,0,0,0,-1,769,1149,0,0
-448,-125,0,0,0,0,0,0,0,0,0,-1,776,1149,0,0
-441,-125,0,0,0,0,0,0,0,0,0,-1,783,1149,0,0
-434,-125,0,0,0,0,0,0,0,0,0,-1,790,1149,0,0
-427,-125,0,0,0,0,0,0,0,0,0,-1,797,1149,0,0
-420,-125,0,0,0,0,0,0,0,0,0,-1,804,1149,0,0
-413,-125,0,0,0,0,0,0,0,0,0,-1,811,1149,0,0
-406,-125,0,0,0,0,0,0,0,0,0,-1,818,1149,0,0
-399,-125,0,0,0,0,0,0,0,0,0,-1,825,1149,0,0
-392,-125,0,0,0,0,0,0,0,0,0,-1,832,1149,0,0
-385,-125,0,0,0,0,0,0,0,0,0,-1,839,1149,0,0
-378,-125,0,0,0,0,0,0,0,0,0,-1,846,1149,0,0
-371,-125,0,0,0,0,0,0,0,0,0,-1,853,1149,0,0
-364,-125,0,0,0,0,0,0,0,0,0,-1,860,1149,0,0
-357,-125,0,0,0,0,0,0,0,0,0,-1,867,1149,0,0
-350,-125,0,0,0,0,0,0,0,0,0,-1,874,1149,0,0
-343,-125,0,0,0,0,0,0,0,0,0,-1,881,1149,0,0
-336,-125,0,0,0,0,0,0,0,0,0,-1,888,1149,0,0
-329,-125,0,0,0,0,0,0,0,0,0,-1,895,1149,0,0
-322,-125,0,0,0,0,0,0,0,0,0,-1,902,1149,0,0
-315,-125,0,0,0,0,0,0,0,0,0,-1,909,1149,0,0
-308,-125,0,0,0,0,0,0,0,0,0,-1,916,1149,0,0
-301,-125,0,0,0,0,0,0,0,0,0,-1,923,1149,0,0
-294,-125,0,0,0,0,0,0,0,0,0,-1,930,1149,0,0
-287,-125,0,0,0,0,0,0,0,0,0,-1,937,1149,0,0
-280,-125,0,0,0,0,0,0,0,0,0,-1,944,1149,0,0
-273,-125,0,0,0,0,0,0,0,0,0,-1,951,1149,0,0
-266,-125,0,0,0,0,0,0,0,0,0,-1,958,1149,0,0
-259,-125,0,0,0,0,0,0,0,0,0,-1,965,1149,0,0
-252,-125,0,0,0,0,0,0,0,0,0,-1,972,1149,0,0
-245,-125,0,0,0,0,0,0,0,0,0,-1,979,1149,0,0
-238,-125,0,0,0,0,0,0,0,0,0,-1,986,1149,0,0
-231,-125,0,0,0,0,0,0,0,0,0,-1,993,1149,0,0
-224,-125,0,0,0,0,0,0,0,0,0,-1,1000,1149,0,0
-217,-125,0,0,0,0,0,0,0,0,0,-1,1007,1149,0,0
-210,-125,0,0,0,0,0,0,0,0,0,-1,1014,1149,0,0
-203,-125,0,0,0,0,0,0,0,0,0,-1,1021,1149,0,0
-196,-125,0,0,0,0,0,0,0,0,0,-1,1028,1149,0,0
-189,-125,0,0,0,0,0,0,0,0,0,-1,1035,1149,0,0
-182,-125,0,0,0,0,0,0,0,0,0,-1,1042,1149,0,0
-175,-125,0,0,0,0,0,0,0,0,0,-1,1049,1149,0,0
-168,-125,0,0,0,0,0,0,0,0,0,-1,1056,1149,0,0
-161,-125,0,0,0,0,0,0,0,0,0,-1,1063,1149,0,0
-154,-125,0,0,0,0,0,0,0,0,0,-1,1070,1149,0,0
-147,-125,0,0,0,0,0,0,0,0,0,-1,1077,1149,0,0
-140,-125,0,0,0,0,0,0,0,0,0,-1,1084,1149,0,0
-133,-125,0,0,0,0,0,0,0,0,0,-1,1091,1149,0,0
-126,-125,0,0,0,0,0,0,0,0,0,-1,1098,1149,0,0
-119,-125,0,0,0,0,0,0,0,0,0,-1,1105,1149,0,0
-112,-125,0,0,0,0,0,0,0,0,0,-1,1112,1149,0,0
-105,-125,0,0,0,0,0,0,0,0,0,-1,1119,1149,0,0
-98,-125,0,0,0,0,0,0,0,0,0,-1,1126,1149,0,0
-91,-125,0,0,0,0,0,0,0,0,0,-1,1133,1149,0,0
-84,-125,0,0,0,0,0,0,0,0,0,-1,1140,1149,0,0
-77,-125,0,0,0,0,0,0,0,0,0,-1,1147,1149,0,0
-70,-125,0,0,0,0,0,0,0,0,0,-1,1154,1149,0,0
-63,-125,0,0,0,0,0,0,0,0,0,-1,1161,1149,0,0
-56,-125,0,0,0,0,0,0,0,0,0,-1,1168,1149,0,0
-49,-125,0,0,0,0,0,0,0,0,0,-1,1175,1149,0,0
-42,-125,0,0,0,0,0,0,0,0,0,-1,1182,1149,0,0
-35,-125,0,0,0,0,0,0,0,0,0,-1,1189,1149,0,0
-28,-125,0,0,0,0,0,0,0,0,0,-1,1196,1149,0,0
-21,-125,0,0,0,0,0,0,0,0,0,-1,1203,1149,0,0
-14,-125,0,0,0,0,0,0,0,0,0,-1,1210,1149,0,0
-7,-125,0,0,0,0,0,0,0,0,0,-1,1217,1149,0,0
0,-125,0,0,0,0,0,0,0,0,0,-1,1224,1149,0,0
7,-125,0,0,0,0,0,0,0,0,0,-1,1231,1149,0,0
14,-125,0,0,0,0,0,0,0,0,0,-1,1238,1149,0,0
21,-125,0,0,0,0,0,0,0,0,0,-1,1245,1149,0,0
28,-125,0,0,0,0,0,0,0,0,0,-1,1252,1149,0,0
35,-125,0,0,0,0,0,0,0,0,0,-1,1259,1149,0,0
42,-125,0,0,0,0,0,0,0,0,0,-1,1266,1149,0,0
49,-125,0,0,0,0,0,0,0,0,0,-1,1273,1149,0,0
56,-125,0,0,0,0,0,0,0,0,0,-1,1280,1149,0,0
63,-125,0,0,0,0,0,0,0,0,0,-1,1287,1149,0,0
70,-125,0,0,0,0,0,0,0,0,0,-1,1294,1149,0,0
77,-125,0,0,0,0,0,0,0,0,0,-1,1301,1149,0,0
84,-125,0,0,0,0,0,0,0,0,0,-1,1308,1149,0,0
91,-125,0,0,0,0,0,0,0,0,0,-1,1315,1149,0,0
98,-125,0,0,0,0,0,0,0,0,0,-1,1322,1149,0,0
105,-125,0,0,0,0,0,0,0,0,0,-1,1329,1149,0,0
112,-125,0,0,0,0,0,0,0,0,0,-1,1336,1149,0,0
119,-125,0,0,0,0,0,0,0,0,0,-1,1343,1149,0,0
126,-125,0,0,0,0,0,0,0,0,0,-1,1350,1149,0,0
133,-125,0,0,0,0,0,0,0,0,0,-1,1357,1149,0,0
140,-125,0,0,0,0,0,0,0,0,0,-1,1364,1149,0,0
147,-125,0,0,0,0,0,0,0,0,0,-1,1371,1149,0,0
154,-125,0,0,0,0,0,0,0,0,0,-1,1378,1149,0,0
161,-125,0,0,0,0,0,0,0,0,0,-1,1385,1149,0,0
168,-125,0,0,0,0,0,0,0,0,0,-1,1392,1149,0,0
175,-125,0,0,0,0,0,0,0,0,0,-1,1399,1149,0,0
182,-125,0,0,0,0,0,0,0,0,0,-1,1406,1149,0,0
189,-125,0,0,0,0,0,0,0,0,0,-1,1413,1149,0,0
196,-125,0,0,0,0,0,0,0,0,0,-1,1420,1149,0,0
203,-125,0,0,0,0,0,0,0,0,0,-1,1427,1149,0,0
210,-125,0,0,0,0,0,0,0,0,0,-1,1434,1149,0,0
217,-125,0,0,0,0,0,0,0,0,0,-1,1441,1149,0,0
224,-125,0,0,0,0,0,0,0,0,0,-1,1448,1149,0,0
231,-125,0,0,0,0,0,0,0,0,0,-1,1455,1149,0,0
238,-125,0,0,0,0,0,0,0,0,0,-1,1462,1149,0,0
245,-125,0,0,0,0,0,0,0,0,0,-1,1469,1149,0,0
252,-125,0,0,0,0,0,0,0,0,0,-1,1476,1149,0,0
259,-125,0,0,0,0,0,0,0,0,0,-1,1483,1149,0,0
266,-125,0,0,0,0,0,0,0,0,0,-1,1490,1149,0,0
273,-125,0,0,0,0,0,0,0,0,0,-1,1497,1149,0,0
280,-125,0,0,0,0,0,0,0,0,0,-1,1504,1149,0,0
287,-125,0,0,0,0,0,0,0,0,0,-1,1511,1149,0,0
294,-125,0,0,0,0,0,0,0,0,0,-1,1518,1149,0,0
301,-125,0,0,0,0,0,0,0,0,0,-1,1525,1149,0,0
308,-125,0,0,0,0,0,0,0,0,0,-1,1532,1149,0,0
315,-125,0,0,0,0,0,0,0,0,0,-1,1539,1149,0,0
322,-125,0,0,0,0,0,0,0,0,0,-1,1546,1149,0,0
329,-125,0,0,0,0,0,0,0,0,0,-1,1553,1149,0,0
336,-125,0,0,0,0,0,0,0,0,0,-1,1560,1149,0,0
343,-125,0,0,0,0,0,0,0,0,0,-1,1567,1149,0,0
350,-125,0,0,0,0,0,0,0,0,0,-1,1574,1149,0,0
357,-125,0,0,0,0,0,0,0,0,0,-1,1581,1149,0,0
364,-125,0,0,0,0,0,0,0,0,0,-1,1588,1149,0,0
371,-125,0,0,0,0,0,0,0,0,0,-1,1595,1149,0,0
378,-125,0,0,0,0,0,0,0,0,0,-1,1602,1149,0,0
385,-125,0,0,0,0,0,0,0,0,0,-1,1609,1149,0,0
392,-125,0,0,0,0,0,0,0,0,0,-1,1616,1149,0,0
399,-125,0,0,0,0,0,0,0,0,0,-1,1623,1149,0,0
406,-125,0,0,0,0,0,0,0,0,0,-1,1630,1149,0,0
413,-125,0,0,0,0,0,0,0,0,0,-1,1637,1149,0,0
420,-125,0,0,0,0,0,0,0,0,0,-1,1644,1149,0,0
427,-125,0,0,0,0,0,0,0,0,0,-1,1651,1149,0,0
434,-125,0,0,0,0,0,0,0,0,0,-1,1658,1149,0,0
441,-125,0,0,0,0,0,0,0,0,0,-1,1665,1149,0,0
448,-125,0,0,0,0,0,0,0,0,0,-1,1672,1149,0,0
455,-125,0,0,0,0,0,0,0,0,0,-1,1679,1149,0,0
462,-125,0,0,0,0,0,0,0,0,0,-1,1686,1149,0,0
469,-125,0,0,0,0,0,0,0,0,0,-1,1693,1149,0,0
476,-125,0,0,0,0,0,0,0,0,0,-1,1700,1149,0,0
483,-125,0,0,0,0,0,0,0,0,0,-1,1707,1149,0,0
490,-125,0,0,0,0,0,0,0,0,0,-1,1714,1149,0,0
497,-125,0,0,0,0,0,0,0,0,0,-1,1721,1149,0,0
504,-125,0,0,0,0,0,0,0,0,0,-1,1728,1149,0,0
511,-125,0,0,0,0,0,0,0,0,0,-1,1735,1149,0,0
518,-125,0,0,0,0,0,0,0,0,0,-1,1742,1149,0,0
525,-125,0,0,0,0,0,0,0,0,0,-1,1749,1149,0,0
532,-125,0,0,0,0,0,0,0,0,0,-1,1756,1149,0,0
539,-125,0,0,0,0,0,0,0,0,0,-1,1763,1149,0,0
546,-125,0,0,0,0,0,0,0,0,0,-1,1770,1149,0,0
553,-125,0,0,0,0,0,0,0,0,0,-1,1777,1149,0,0
560,-125,0,0,0,0,0,0,0,0,0,-1,1784,1149,0,0
567,-125,0,0,0,0,0,0,0,0,0,-1,1791,1149,0,0
574,-125,0,0,0,0,0,0,0,0,0,-1,1798,1149,0,0
581,-125,0,0,0,0,0,0,0,0,0,-1,1805,1149,0,0
588,-125,0,0,0,0,0,0,0,0,0,-1,1812,1149,0,0
595,-125,0,0,0,0,0,0,0,0,0,-1,1819,1149,0,0
602,-125,0,0,0,0,0,0,0,0,0,-1,1826,1149,0,0
609,-125,0,0,0,0,0,0,0,0,0,-1,1833,1149,0,0
616,-125,0,0,0,0,0,0,0,0,0,-1,1840,1149,0,0
623,-125,0,0,0,0,0,0,0,0,0,-1,1847,1149,0,0
630,-125,0,0,0,0,0,0,0,0,0,-1,1854,1149,0,0
637,-125,0,0,0,0,0,0,0,0,0,-1,1861,1149,0,0
644,-125,30.7961,3.0675,0.00380096,-0.00248364,-0.00503691,0.00659537,-0.00527805,-0.50651,0.00686917,0.0432853,1868,1149,30.7961,-3.06748
651,-125,30.9296,2.80042,0.00274424,-0.00229467,-0.00296897,0.00411869,-0.00366912,-0.433559,0.00449879,0.0401535,1875,1149,30.9296,-2.80042
658,-125,30.9683,2.85315,0.0021011,-0.00214053,-0.00155121,0.00260785,-0.00264728,-0.315752,0.00303408,0.0417962,1882,1149,30.9682,-2.8532
665,-125,30.7349,2.96375,0.0017225,-0.00193788,-0.000467273,0.00178121,-0.00199659,-0.124987,0.00218229,0.0426666,1889,1149,30.7348,-2.96371
672,-125,30.6682,2.9718,0.00161077,-0.00169855,0.000140229,0.0016167,-0.00170449,0.0422731,0.00191771,0.043145,1896,1149,30.6682,-2.9718
679,-125,30.6602,3.05481,0.00130016,-0.00148612,0.000494485,0.00138531,-0.00157127,0.170536,0.00170811,0.0406965,1903,1149,30.6602,-3.05475
686,-125,30.7368,3.10876,0.000891143,-0.00132534,0.000653701,0.00106957,-0.00150377,0.266463,0.00149275,0.0385944,1910,1149,30.7369,-3.10876
693,-125,30.778,3.00793,0.000622239,-0.00114265,0.000719104,0.000878135,-0.00139855,0.34188,0.00132584,0.033512,1917,1149,30.7779,-3.00798
700,-125,30.8419,3.01062,0.000253413,-0.00104372,0.000920673,0.000731026,-0.00152133,0.478546,0.00132681,0.0143994,1924,1149,30.842,-3.01066
707,-125,31.0273,3.24805,0,0,0,0,0,0,0,-1,1931,1149,31.0274,-3.24811
714,-125,28.451,5.86011,0,0,0,0,0,0,0,-1,1938,1149,28.4511,-5.86011
721,-125,28.454,5.69202,-0.000725652,-0.000373963,0.000965895,0.000431963,-0.00153158,0.875439,0.00119143,0.0216932,1945,1149,28.4539,-5.69197
728,-125,28.4692,5.53149,-0.000880887,-3.3972e-05,0.000859185,0.000500441,-0.0014153,1.01436,0.00114732,0.017043,1952,1149,28.4692,-5.53146
735,-125,28.4481,5.35999,-0.000979081,0.000269469,0.00067124,0.000561863,-0.00127148,1.15998,0.00108459,0.0200586,1959,1149,28.4481,-5.36002
742,-125,28.421,5.16248,-0.000797962,0.000813448,0.000754648,0.00111167,-0.00109618,1.19445,0.00127472,0.0237077,1966,1149,28.421,-5.16243
749,-125,28.4053,4.96509,-0.000234341,0.00193735,0.000931985,0.00228247,-0.000579459,1.21615,0.00174713,0.0263216,1973,1149,28.4053,-4.96505
756,-125,28.4094,4.80481,0.000736005,0.00432244,0.00125445,0.00471767,0.000340783,1.26558,0.00303789,0.0218785,1980,1149,28.4094,-4.80486
763,-125,28.4294,4.60864,0.00216335,0.00745256,0.00153794,0.00786723,0.00174868,1.30743,0.00477,0.0118801,1987,1149,28.4295,-4.60858
770,-125,28.4011,4.4386,0.00397366,0.0110677,0.00202226,0.0116037,0.00343769,1.31172,0.00688231,0.0153426,1994,1149,28.4012,-4.43864
777,-125,28.3517,4.30518,0.00603804,0.015597,0.00274584,0.0163296,0.00530544,1.31007,0.00961871,0.0287652,2001,1149,28.3517,-4.30512
784,-125,28.3323,4.14856,0.00834912,0.0213831,0.00383437,0.0224274,0.00730479,1.30489,0.0132081,0.0435451,2008,1149,28.3322,-4.14861
791,-125,28.528,4.27466,0.0107392,0.0287552,0.00543938,0.0302701,0.00922433,1.29918,0.0179152,0.045116,2015,1149,28.5279,-4.27467
798,-125,28.3325,4.2395,0.013294,0.0381002,0.00767748,0.0402841,0.0111101,1.29366,0.0240248,0.046418,2022,1149,28.3324,-4.23952
805,-125,27.9365,4.61731,0.0158748,0.0499497,0.0108051,0.0530871,0.0127374,1.2882,0.032002,0.048488,2029,1149,27.9366,-4.61736
812,-125,27.3782,5.0542,0,0,0,0,0,0,0,-1,2036,1149,27.3781,-5.05421
-700,-132,0,0,0,0,0,0,0,0,0,-1,524,1156,0,0
-693,-132,-21.0186,-0.647705,0,0,0,0,0,0,0,-1,531,1156,-21.0186,0.647664
-686,-132,-20.5136,-0.425659,0.051568,0.0108054,-0.0396185,0.0757403,-0.0133669,-0.547832,0.0554884,0.0492735,538,1156,-20.5136,0.425661
-679,-132,-19.9739,-0.270508,0.044352,0.0086478,-0.0309677,0.0622448,-0.00924497,-0.523927,0.0448966,0.048037,545,1156,-19.9739,0.27045
-672,-132,-19.7625,0.0922852,0.0368482,0.00719871,-0.0239923,0.0502263,-0.00617941,-0.50866,0.0357226,0.0430119,552,1156,-19.7625,-0.0923233
-665,-132,-19.6036,0.689453,0.0295015,0.00612667,-0.0182031,0.0394462,-0.00381807,-0.500013,0.0276582,0.042665,559,1156,-19.6037,-0.689472
-658,-132,-19.2941,0.696045,0,0,0,0,0,0,0,-1,566,1156,-19.2941,-0.695986
-651,-132,-18.9178,1.09229,0.016602,0.00443737,-0.00956914,0.0218583,-0.000818876,-0.502299,0.0148527,0.0396874,573,1156,-18.9178,-1.09234
-644,-132,-18.8521,1.66956,0.0114329,0.00365138,-0.00656079,0.0151699,-8.55625e-05,-0.517757,0.0101419,0.02186,580,1156,-18.8521,-1.66961
-637,-132,-18.8729,1.85547,0.00758688,0.00279871,-0.00439718,0.0101995,0.000186122,-0.536108,0.00673847,0.0120293,587,1156,-18.8729,-1.85546
-630,-132,-18.8748,2.06543,0.00369645,0.00196714,-0.0019608,0.00497478,0.000688813,-0.577738,0.00311243,0.0104981,594,1156,-18.8748,-2.06542
-623,-132,-18.8937,2.30872,0.00111916,0.000886221,-0.000681417,0.00169399,0.000311392,-0.700755,0.00104117,0.0160631,601,1156,-18.8937,-2.3087
-616,-132,-18.9011,2.52576,1.60637e-05,0.000462129,-0.000582981,0.000863284,-0.000385091,-0.968095,0.000738165,0.0203209,608,1156,-18.9011,-2.52573
-609,-132,-18.8329,2.69946,-0.000386244,0.00032822,-0.000628459,0.000693882,-0.000751905,-1.04384,0.00083495,0.0203385,615,1156,-18.8329,-2.69949
-602,-132,-18.9493,2.90295,-0.000302968,0.000175058,-0.000958359,0.000923759,-0.00105167,-0.907604,0.00114131,0.0188894,622,1156,-18.9493,-2.9029
-595,-132,-19.0124,3.1969,-0.000135961,0.000185575,-0.00112779,0.001164,-0.00111439,-0.856197,0.00131553,0.0233864,629,1156,-19.0124,-3.19691
-588,-132,-18.8721,3.5249,-6.47871e-05,0.000398057,-0.000996008,0.00118918,-0.000855905,-0.899548,0.00118594,0.0202708,636,1156,-18.8721,-3.5249
-581,-132,-18.5759,3.88464,0,0,0,0,0,0,0,-1,643,1156,-18.5759,-3.8846
-574,-132,-21.3953,0.959351,0,0,0,0,0,0,0,-1,650,1156,-21.3953,-0.959315
-567,-132,-21.4664,1.06274,-0.000403507,0.00160777,-0.00033943,0.00166351,-0.000459246,-1.40804,0.00128964,0.0410782,657,1156,-21.4664,-1.0627
-560,-132,-21.549,1.18396,-0.000629835,0.00222154,-7.64922e-05,0.00222359,-0.000631886,-1.544,0.00173188,0.0353128,664,1156,-21.549,-1.18399
-553,-132,-21.608,0.998413,-0.00101648,0.00297566,0.000299999,0.00299808,-0.0010389,1.49621,0.00242051,0.0391138,671,1156,-21.608,-0.998376
-546,-132,-21.6346,0.781372,-0.00159955,0.00384116,0.000891121,0.0039834,-0.00174178,1.41252,0.00338883,0.0433074,678,1156,-21.6346,-0.781353
-539,-132,-21.4719,0.667236,-0.00253613,0.00475151,0.00189701,0.00521574,-0.00300036,1.3308,0.0048007,0.0467161,685,1156,-21.4719,-0.667276
-532,-132,-21.3356,1.21729,-0.00344062,0.00558067,0.00348848,0.00677226,-0.00463221,1.24165,0.0066229,0.0426032,692,1156,-21.3356,-1.21731
-525,-132,-21.3732,1.28955,-0.00430848,0.00631623,0.00491937,0.00824413,-0.00623638,1.19729,0.00838707,0.0390278,699,1156,-21.3731,-1.28957
-518,-132,0,0,0,0,0,0,0,0,0,-1,706,1156,0,0
-511,-132,0,0,0,0,0,0,0,0,0,-1,713,1156,0,0
-504,-132,0,0,0,0,0,0,0,0,0,-1,720,1156,0,0
-497,-132,0,0,0,0,0,0,0,0,0,-1,727,1156,0,0
-490,-132,0,0,0,0,0,0,0,0,0,-1,734,1156,0,0
-483,-132,0,0,0,0,0,0,0,0,0,-1,741,1156,0,0
-476,-132,0,0,0,0,0,0,0,0,0,-1,748,1156,0,0
-469,-132,0,0,0,0,0,0,0,0,0,-1,755,1156,0,0
-462,-132,0,0,0,0,0,0,0,0,0,-1,762,1156,0,0
-455,-132,0,0,0,0,0,0,0,0,0,-1,769,1156,0,0
-448,-132,0,0,0,0,0,0,0,0,0,-1,776,1156,0,0
-441,-132,0,0,0,0,0,0,0,0,0,-1,783,1156,0,0
-434,-132,0,0,0,0,0,0,0,0,0,-1,790,1156,0,0
-427,-132,0,0,0,0,0,0,0,0,0,-1,797,1156,0,0
-420,-132,0,0,0,0,0,0,0,0,0,-1,804,1156,0,0
-413,-132,0,0,0,0,0,0,0,0,0,-1,811,1156,0,0
-406,-132,0,0,0,0,0,0,0,0,0,-1,818,1156,0,0
-399,-132,0,0,0,0,0,0,0,0,0,-1,825,1156,0,0
-392,-132,0,0,0,0,0,0,0,0,0,-1,832,1156,0,0
-385,-132,0,0,0,0,0,0,0,0,0,-1,839,1156,0,0
-378,-132,0,0,0,0,0,0,0,0,0,-1,846,1156,0,0
-371,-132,0,0,0,0,0,0,0,0,0,-1,853,1156,0,0
-364,-132,0,0,0,0,0,0,0,0,0,-1,860,1156,0,0
-357,-132,0,0,0,0,0,0,0,0,0,-1,867,1156,0,0
-350,-132,0,0,0,0,0,0,0,0,0,-1,874,1156,0,0
-343,-132,0,0,0,0,0,0,0,0,0,-1,881,1156,0,0
-336,-132,0,0,0,0,0,0,0,0,0,-1,888,1156,0,0
-329,-132,0,0,0,0,0,0,0,0,0,-1,895,1156,0,0
-322,-132,0,0,0,0,0,0,0,0,0,-1,902,1156,0,0
-315,-132,0,0,0,0,0,0,0,0,0,-1,909,1156,0,0
-308,-132,0,0,0,0,0,0,0,0,0,-1,916,1156,0,0
-301,-132,0,0,0,0,0,0,0,0,0,-1,923,1156,0,0
-294,-132,0,0,0,0,0,0,0,0,0,-1,930,1156,0,0
-287,-132,0,0,0,0,0,0,0,0,0,-1,937,1156,0,0
-280,-132,0,0,0,0,0,0,0,0,0,-1,944,1156,0,0
-273,-132,0,0,0,0,0,0,0,0,0,-1,951,1156,0,0
-266,-132,0,0,0,0,0,0,0,0,0,-1,958,1156,0,0
-259,-132,0,0,0,0,0,0,0,0,0,-1,965,1156,0,0
-252,-132,0,0,0,0,0,0,0,0,0,-1,972,1156,0,0
-245,-132,0,0,0,0,0,0,0,0,0,-1,979,1156,0,0
-238,-132,0,0,0,0,0,0,0,0,0,-1,986,1156,0,0
-231,-132,0,0,0,0,0,0,0,0,0,-1,993,1156,0,0
-224,-132,0,0,0,0,0,0,0,0,0,-1,1000,1156,0,0
-217,-132,0,0,0,0,0,0,0,0,0,-1,1007,1156,0,0
-210,-132,0,0,0,0,0,0,0,0,0,-1,1014,1156,0,0
-203,-132,0,0,0,0,0,0,0,0,0,-1,1021,1156,0,0
-196,-132,0,0,0,0,0,0,0,0,0,-1,1028,1156,0,0
-189,-132,0,0,0,0,0,0,0,0,0,-1,1035,1156,0,0
-182,-132,0,0,0,0,0,0,0,0,0,-1,1042,1156,0,0
-175,-132,0,0,0,0,0,0,0,0,0,-1,1049,1156,0,0
-168,-132,0,0,0,0,0,0,0,0,0,-1,1056,1156,0,0
-161,-132,0,0,0,0,0,0,0,0,0,-1,1063,1156,0,0
-154,-132,0,0,0,0,0,0,0,0,0,-1,1070,1156,0,0
-147,-132,0,0,0,0,0,0,0,0,0,-1,1077,1156,0,0
-140,-132,0,0,0,0,0,0,0,0,0,-1,1084,1156,0,0
-133,-132,0,0,0,0,0,0,0,0,0,-1,1091,1156,0,0
-126,-132,0,0,0,0,0,0,0,0,0,-1,1098,1156,0,0
-119,-132,0,0,0,0,0,0,0,0,0,-1,1105,1156,0,0
-112,-132,0,0,0,0,0,0,0,0,0,-1,1112,1156,0,0
-105,-132,0,0,0,0,0,0,0,0,0,-1,1119,1156,0,0
-98,-132,0,0,0,0,0,0,0,0,0,-1,1126,1156,0,0
-91,-132,0,0,0,0,0,0,0,0,0,-1,1133,1156,0,0
-84,-132,0,0,0,0,0,0,0,0,0,-1,1140,1156,0,0
-77,-132,0,0,0,0,0,0,0,0,0,-1,1147,1156,0,0
-70,-132,0,0,0,0,0,0,0,0,0,-1,1154,1156,0,0
-63,-132,0,0,0,0,0,0,0,0,0,-1,1161,1156,0,0
-56,-132,0,0,0,0,0,0,0,0,0,-1,1168,1156,0,0
-49,-132,0,0,0,0,0,0,0,0,0,-1,1175,1156,0,0
-42,-132,0,0,0,0,0,0,0,0,0,-1,1182,1156,0,0
-35,-132,0,0,0,0,0,0,0,0,0,-1,1189,1156,0,0
-28,-132,0,0,0,0,0,0,0,0,0,-1,1196,1156,0,0
-21,-132,0,0,0,0,0,0,0,0,0,-1,1203,1156,0,0
-14,-132,0,0,0,0,0,0,0,0,0,-1,1210,1156,0,0
-7,-132,0,0,0,0,0,0,0,0,0,-1,1217,1156,0,0
0,-132,0,0,0,0,0,0,0,0,0,-1,1224,1156,0,0
7,-132,0,0,0,0,0,0,0,0,0,-1,1231,1156,0,0
14,-132,0,0,0,0,0,0,0,0,0,-1,1238,1156,0,0
21,-132,0,0,0,0,0,0,0,0,0,-1,1245,1156,0,0
28,-132,0,0,0,0,0,0,0,0,0,-1,1252,1156,0,0
35,-132,0,0,0,0,0,0,0,0,0,-1,1259,1156,0,0
42,-132,0,0,0,0,0,0,0,0,0,-1,1266,1156,0,0
49,-132,0,0,0,0,0,0,0,0,0,-1,1273,1156,0,0
56,-132,0,0,0,0,0,0,0,0,0,-1,1280,1156,0,0
63,-132,0,0,0,0,0,0,0,0,0,-1,1287,1156,0,0
70,-132,0,0,0,0,0,0,0,0,0,-1,1294,1156,0,0
77,-132,0,0,0,0,0,0,0,0,0,-1,1301,1156,0,0
84,-132,0,0,0,0,0,0,0,0,0,-1,1308,1156,0,0
91,-132,0,0,0,0,0,0,0,0,0,-1,1315,1156,0,0
98,-132,0,0,0,0,0,0,0,0,0,-1,1322,1156,0,0
105,-132,0,0,0,0,0,0,0,0,0,-1,1329,1156,0,0
112,-132,0,0,0,0,0,0,0,0,0,-1,1336,1156,0,0
119,-132,0,0,0,0,0,0,0,0,0,-1,1343,1156,0,0
126,-132,0,0,0,0,0,0,0,0,0,-1,1350,1156,0,0
133,-132,0,0,0,0,0,0,0,0,0,-1,1357,1156,0,0
140,-132,0,0,0,0,0,0,0,0,0,-1,1364,1156,0,0
147,-132,0,0,0,0,0,0,0,0,0,-1,1371,1156,0,0
154,-132,0,0,0,0,0,0,0,0,0,-1,1378,1156,0,0
161,-132,0,0,0,0,0,0,0,0,0,-1,1385,1156,0,0
168,-132,0,0,0,0,0,0,0,0,0,-1,1392,1156,0,0
175,-132,0,0,0,0,0,0,0,0,0,-1,1399,1156,0,0
182,-132,0,0,0,0,0,0,0,0,0,-1,1406,1156,0,0
189,-132,0,0,0,0,0,0,0,0,0,-1,1413,1156,0,0
196,-132,0,0,0,0,0,0,0,0,0,-1,1420,1156,0,0
203,-132,0,0,0,0,0,0,0,0,0,-1,1427,1156,0,0
210,-132,0,0,0,0,0,0,0,0,0,-1,1434,1156,0,0
217,-132,0,0,0,0,0,0,0,0,0,-1,1441,1156,0,0
224,-132,0,0,0,0,0,0,0,0,0,-1,1448,1156,0,0
231,-132,0,0,0,0,0,0,0,0,0,-1,1455,1156,0,0
238,-132,0,0,0,0,0,0,0,0,0,-1,1462,1156,0,0
245,-132,0,0,0,0,0,0,0,0,0,-1,1469,1156,0,0
252,-132,0,0,0,0,0,0,0,0,0,-1,1476,1156,0,0
259,-132,0,0,0,0,0,0,0,0,0,-1,1483,1156,0,0
266,-132,0,0,0,0,0,0,0,0,0,-1,1490,1156,0,0
273,-132,0,0,0,0,0,0,0,0,0,-1,1497,1156,0,0
280,-132,0,0,0,0,0,0,0,0,0,-1,1504,1156,0,0
287,-132,0,0,0,0,0,0,0,0,0,-1,1511,1156,0,0
294,-132,0,0,0,0,0,0,0,0,0,-1,1518,1156,0,0
301,-132,0,0,0,0,0,0,0,0,0,-1,1525,1156,0,0
308,-132,0,0,0,0,0,0,0,0,0,-1,1532,1156,0,0
315,-132,0,0,0,0,0,0,0,0,0,-1,1539,1156,0,0
322,-132,0,0,0,0,0,0,0,0,0,-1,1546,1156,0,0
329,-132,0,0,0,0,0,0,0,0,0,-1,1553,1156,0,0
336,-132,0,0,0,0,0,0,0,0,0,-1,1560,1156,0,0
343,-132,0,0,0,0,0,0,0,0,0,-1,1567,1156,0,0
350,-132,0,0,0,0,0,0,0,0,0,-1,1574,1156,0,0
357,-132,0,0,0,0,0,0,0,0,0,-1,1581,1156,0,0
364,-132,0,0,0,0,0,0,0,0,0,-1,1588,1156,0,0
371,-132,0,0,0,0,0,0,0,0,0,-1,1595,1156,0,0
378,-132,0,0,0,0,0,0,0,0,0,-1,1602,1156,0,0
385,-132,0,0,0,0,0,0,0,0,0,-1,1609,1156,0,0
392,-132,0,0,0,0,0,0,0,0,0,-1,1616,1156,0,0
399,-132,0,0,0,0,0,0,0,0,0,-1,1623,1156,0,0
406,-132,0,0,0,0,0,0,0,0,0,-1,1630,1156,0,0
413,-132,0,0,0,0,0,0,0,0,0,-1,1637,1156,0,0
420,-132,0,0,0,0,0,0,0,0,0,-1,1644,1156,0,0
427,-132,0,0,0,0,0,0,0,0,0,-1,1651,1156,0,0
434,-132,0,0,0,0,0,0,0,0,0,-1,1658,1156,0,0
441,-132,0,0,0,0,0,0,0,0,0,-1,1665,1156,0,0
448,-132,0,0,0,0,0,0,0,0,0,-1,1672,1156,0,0
455,-132,0,0,0,0,0,0,0,0,0,-1,1679,1156,0,0
462,-132,0,0,0,0,0,0,0,0,0,-1,1686,1156,0,0
469,-132,0,0,0,0,0,0,0,0,0,-1,1693,1156,0,0
476,-132,0,0,0,0,0,0,0,0,0,-1,1700,1156,0,0
483,-132,0,0,0,0,0,0,0,0,0,-1,1707,1156,0,0
490,-132,0,0,0,0,0,0,0,0,0,-1,1714,1156,0,0
497,-132,0,0,0,0,0,0,0,0,0,-1,1721,1156,0,0
504,-132,0,0,0,0,0,0,0,0,0,-1,1728,1156,0,0
511,-132,0,0,0,0,0,0,0,0,0,-1,1735,1156,0,0
518,-132,0,0,0,0,0,0,0,0,0,-1,1742,1156,0,0
525,-132,0,0,0,0,0,0,0,0,0,-1,1749,1156,0,0
532,-132,0,0,0,0,0,0,0,0,0,-1,1756,1156,0,0
539,-132,0,0,0,0,0,0,0,0,0,-1,1763,1156,0,0
546,-132,0,0,0,0,0,0,0,0,0,-1,1770,1156,0,0
553,-132,0,0,0,0,0,0,0,0,0,-1,1777,1156,0,0
560,-132,0,0,0,0,0,0,0,0,0,-1,1784,1156,0,0
567,-132,0,0,0,0,0,0,0,0,0,-1,1791,1156,0,0
574,-132,0,0,0,0,0,0,0,0,0,-1,1798,1156,0,0
581,-132,0,0,0,0,0,0,0,0,0,-1,1805,1156,0,0
588,-132,0,0,0,0,0,0,0,0,0,-1,1812,1156,0,0
595,-132,0,0,0,0,0,0,0,0,0,-1,1819,1156,0,0
602,-132,0,0,0,0,0,0,0,0,0,-1,1826,1156,0,0
609,-132,0,0,0,0,0,0,0,0,0,-1,1833,1156,0,0
616,-132,0,0,0,0,0,0,0,0,0,-1,1840,1156,0,0
623,-132,0,0,0,0,0,0,0,0,0,-1,1847,1156,0,0
630,-132,0,0,0,0,0,0,0,0,0,-1,1854,1156,0,0
637,-132,0,0,0,0,0,0,0,0,0,-1,1861,1156,0,0
644,-132,30.9083,3.04883,0.00242125,-0.00258622,-0.00475612,0.0052924,-0.00545737,-0.543117,0.00620662,0.043378,1868,1156,30.9083,-3.04882
651,-132,30.8604,2.96118,0.00185775,-0.00244813,-0.00281557,0.00324918,-0.00383957,-0.45899,0.00409742,0.0395549,1875,1156,30.8604,-2.96113
658,-132,30.9147,2.84985,0.00158484,-0.00224857,-0.00147717,0.00208801,-0.00275174,-0.328303,0.00280298,0.0414769,1882,1156,30.9146,-2.84979
665,-132,30.8241,2.95105,0.00151742,-0.0019408,-0.000539677,0.00159969,-0.00202306,-0.151266,0.00209635,0.0425454,1889,1156,30.8241,-2.95107
672,-132,30.6854,3.00476,0.00157823,-0.00161201,-8.4168e-05,0.00158045,-0.00161423,-0.0263585,0.00184449,0.0399824,1896,1156,30.6854,-3.00475
679,-132,30.6979,2.95605,0.00133329,-0.00133052,0.000179185,0.00134529,-0.00134251,0.0668649,0.0015518,0.0408202,1903,1156,30.6978,-2.95606
686,-132,30.7748,3.01941,0.000938373,-0.0011381,0.000300999,0.000981125,-0.00118085,0.141089,0.00124999,0.0393601,1910,1156,30.7748,-3.01941
693,-132,30.7782,2.98218,0.000655766,-0.000932569,0.000371056,0.000738174,-0.00101498,0.218543,0.00101638,0.0301773,1917,1156,30.7782,-2.98223
700,-132,30.8584,3.03979,0.000279167,-0.000836796,0.000580339,0.000526255,-0.00108388,0.402518,0.000948015,0.0312051,1924,1156,30.8584,-3.03982
707,-132,31.0101,3.20972,0,0,0,0,0,0,0,-1,1931,1156,31.0101,-3.20972
714,-132,28.1322,5.84351,0,0,0,0,0,0,0,-1,1938,1156,28.1322,-5.84348
721,-132,28.236,5.68347,-0.000776914,-0.000144267,0.000573926,0.000194735,-0.00111592,1.03726,0.000816632,0.0262769,1945,1156,28.236,-5.68345
728,-132,28.2708,5.52478,-0.000946639,0.000183317,0.000528961,0.00039229,-0.00115561,1.19455,0.000929197,0.0181544,1952,1156,28.2708,-5.52481
735,-132,28.2406,5.3833,-0.00104504,0.000444354,0.00037314,0.000532608,-0.0011333,1.33855,0.000982431,0.021073,1959,1156,28.2406,-5.3833
742,-132,28.2321,5.1626,-0.000767355,0.000951819,0.000399487,0.00104011,-0.000855649,1.35327,0.00109625,0.0203625,1966,1156,28.2321,-5.16264
749,-132,28.1963,4.96484,4.53377e-05,0.00211936,0.000500472,0.00223381,-6.91133e-05,1.34598,0.00151277,0.0240527,1973,1156,28.1963,-4.96489
756,-132,28.2053,4.76221,0.00145419,0.00463065,0.000684244,0.00477177,0.00131306,1.3674,0.00284631,0.0231659,1980,1156,28.2053,-4.76225
763,-132,28.243,4.58948,0.0034137,0.00742056,0.000664405,0.00752785,0.0033064,1.41069,0.0043569,0.0140715,1987,1156,28.2431,-4.58944
770,-132,28.2424,4.43274,0.00587779,0.0108326,0.000840652,0.0109713,0.00573905,1.40723,0.00633653,0.0145844,1994,1156,28.2424,-4.4327
777,-132,28.173,4.21948,0.00877604,0.0151335,0.00114649,0.015334,0.00857561,1.39772,0.00887377,0.0228848,2001,1156,28.1729,-4.21946
784,-132,28.2673,3.73926,0.0121415,0.0205754,0.00172581,0.0209149,0.011802,1.37657,0.0121084,0.0435682,2008,1156,28.2674,-3.73927
791,-132,28.3805,3.62671,0.0158301,0.0274046,0.00272091,0.0280124,0.0152224,1.35105,0.0161933,0.0489052,2015,1156,28.3805,-3.62675
798,-132,28.0486,3.42236,0.0199647,0.0359209,0.0042231,0.0369697,0.0189159,1.32738,0.0213464,0.0481151,2022,1156,28.0485,-3.42233
805,-132,27.0439,4.17786,0.0244201,0.0465258,0.00648232,0.0482865,0.0226594,1.30559,0.0278958,0.0482537,2029,1156,27.0438,-4.17785
812,-132,26.4944,4.58313,0,0,0,0,0,0,0,-1,2036,1156,26.4944,-4.58318
-700,-139,0,0,0,0,0,0,0,0,0,-1,524,1163,0,0
-693,-139,-23.1021,1.90283,0,0,0,0,0,0,0,-1,531,1163,-23.1022,-1.90279
-686,-139,-20.1985,-0.527466,0,0,0,0,0,0,0,-1,538,1163,-20.1986,0.527405
-679,-139,-19.6768,-0.190552,0.0474338,0.012524,-0.0402185,0.0738219,-0.013864,-0.580663,0.0544277,0.0496427,545,1163,-19.6768,0.190555
-672,-139,-19.2979,0.165405,0.0387199,0.0102497,-0.0305536,0.0581917,-0.00922211,-0.567397,0.0422057,0.0437442,552,1163,-19.2979,-0.165456
-665,-139,-19.019,0.711182,0,0,0,0,0,0,0,-1,559,1163,-19.019,-0.711154
-658,-139,-18.7469,1.06909,0,0,0,0,0,0,0,-1,566,1163,-18.747,-1.0691
-651,-139,-18.6867,1.34387,0.017063,0.00568763,-0.0116671,0.0243549,-0.00160431,-0.5586,0.0167969,0.04223,573,1163,-18.6867,-1.34386
-644,-139,-18.6225,1.62036,0.0117649,0.0045232,-0.00791687,0.0168496,-0.000561558,-0.570921,0.0114249,0.0212781,580,1163,-18.6225,-1.62032
-637,-139,-18.6235,1.82349,0.00779706,0.00341568,-0.00523805,0.0112841,-7.13267e-05,-0.587338,0.0075466,0.0118788,587,1163,-18.6235,-1.82344
-630,-139,-18.6405,2.05371,0.00378213,0.0023512,-0.00223285,0.00541134,0.000721989,-0.630354,0.0033926,0.0103568,594,1163,-18.6405,-2.05369
-623,-139,-18.6443,2.27966,0.00110687,0.0010494,-0.000691283,0.00177001,0.000386252,-0.764626,0.00107465,0.016193,601,1163,-18.6444,-2.27967
-616,-139,-18.6716,2.48669,-0.000135222,0.000634618,-0.000548947,0.000920151,-0.000420754,-1.09116,0.000791867,0.0179526,608,1163,-18.6716,-2.48669
-609,-139,-18.6111,2.7356,-0.000675063,0.000530763,-0.00059862,0.000777468,-0.000921768,-1.17988,0.000982232,0.0274196,615,1163,-18.6111,-2.73563
-602,-139,-18.7054,2.95691,-0.00066708,0.000428141,-0.000924465,0.000955013,-0.00119395,-1.05279,0.00124326,0.0223181,622,1163,-18.7054,-2.95685
-595,-139,-18.7911,3.2301,-0.00053983,0.000396656,-0.0010987,0.00112273,-0.0012659,-0.986834,0.0013799,0.0222115,629,1163,-18.7911,-3.23011
-588,-139,-18.6825,3.51355,-0.000498703,0.000621193,-0.000951241,0.00116506,-0.00104257,-1.05141,0.00127523,0.0216151,636,1163,-18.6825,-3.51359
-581,-139,-18.2919,3.89282,0,0,0,0,0,0,0,-1,643,1163,-18.2919,-3.89279
-574,-139,-20.5872,0.547607,0,0,0,0,0,0,0,-1,650,1163,-20.5872,-0.547586
-567,-139,-21.4409,1.05286,0,0,0,0,0,0,0,-1,657,1163,-21.4409,-1.05284
-560,-139,-21.5699,1.31287,-0.000885942,0.00239481,-0.000217296,0.00240914,-0.000900272,-1.50495,0.00197578,0.036618,664,1163,-21.5699,-1.31284
-553,-139,-21.6418,1.12256,-0.00112064,0.00308097,6.40851e-05,0.00308194,-0.00112162,1.55555,0.00251336,0.0404681,671,1163,-21.6418,-1.12251
-546,-139,-21.6817,0.841675,-0.00143575,0.00385334,0.000515365,0.00390309,-0.0014855,1.47456,0.00321378,0.0441006,678,1163,-21.6817,-0.841724
-539,-139,-21.5266,0.876709,-0.0020316,0.00467369,0.00129647,0.00491563,-0.00227355,1.3863,0.00424308,0.0436323,685,1163,-21.5266,-0.876674
-532,-139,-21.4383,1.13184,-0.00256466,0.00549479,0.00256007,0.00623924,-0.0033091,1.28781,0.00559859,0.0410927,692,1163,-21.4383,-1.13188
-525,-139,-21.4703,1.13,-0.00314917,0.00630978,0.00377326,0.00763055,-0.00446993,1.23409,0.00706521,0.0403615,699,1163,-21.4703,-1.13004
-518,-139,0,0,0,0,0,0,0,0,0,-1,706,1163,0,0
-511,-139,0,0,0,0,0,0,0,0,0,-1,713,1163,0,0
-504,-139,0,0,0,0,0,0,0,0,0,-1,720,1163,0,0
-497,-139,0,0,0,0,0,0,0,0,0,-1,727,1163,0,0
-490,-139,0,0,0,0,0,0,0,0,0,-1,734,1163,0,0
-483,-139,0,0,0,0,0,0,0,0,0,-1,741,1163,0,0
-476,-139,0,0,0,0,0,0,0,0,0,-1,748,1163,0,0
-469,-139,0,0,0,0,0,0,0,0,0,-1,755,1163,0,0
-462,-139,0,0,0,0,0,0,0,0,0,-1,762,1163,0,0
-455,-139,0,0,0,0,0,0,0,0,0,-1,769,1163,0,0
-448,-139,0,0,0,0,0,0,0,0,0,-1,776,1163,0,0
-441,-139,0,0,0,0,0,0,0,0,0,-1,783,1163,0,0
-434,-139,0,0,0,0,0,0,0,0,0,-1,790,1163,0,0
-427,-139,0,0,0,0,0,0,0,0,0,-1,797,1163,0,0
-420,-139,0,0,0,0,0,0,0,0,0,-1,804,1163,0,0
-413,-139,0,0,0,0,0,0,0,0,0,-1,811,1163,0,0
-406,-139,0,0,0,0,0,0,0,0,0,-1,818,1163,0,0
-399,-139,0,0,0,0,0,0,0,0,0,-1,825,1163,0,0
-392,-139,0,0,0,0,0,0,0,0,0,-1,832,1163,0,0
-385,-139,0,0,0,0,0,0,0,0,0,-1,839,1163,0,0
-378,-139,0,0,0,0,0,0,0,0,0,-1,846,1163,0,0
-371,-139,0,0,0,0,0,0,0,0,0,-1,853,1163,0,0
-364,-139,0,0,0,0,0,0,0,0,0,-1,860,1163,0,0
-357,-139,0,0,0,0,0,0,0,0,0,-1,867,1163,0,0
-350,-139,0,0,0,0,0,0,0,0,0,-1,874,1163,0,0
-343,-139,0,0,0,0,0,0,0,0,0,-1,881,1163,0,0
-336,-139,0,0,0,0,0,0,0,0,0,-1,888,1163,0,0
-329,-139,0,0,0,0,0,0,0,0,0,-1,895,1163,0,0
-322,-139,0,0,0,0,0,0,0,0,0,-1,902,1163,0,0
-315,-139,0,0,0,0,0,0,0,0,0,-1,909,1163,0,0
-308,-139,0,0,0,0,0,0,0,0,0,-1,916,1163,0,0
-301,-139,0,0,0,0,0,0,0,0,0,-1,923,1163,0,0
-294,-139,0,0,0,0,0,0,0,0,0,-1,930,1163,0,0
-287,-139,0,0,0,0,0,0,0,0,0,-1,937,1163,0,0
-280,-139,0,0,0,0,0,0,0,0,0,-1,944,1163,0,0
-273,-139,0,0,0,0,0,0,0,0,0,-1,951,1163,0,0
-266,-139,0,0,0,0,0,0,0,0,0,-1,958,1163,0,0
-259,-139,0,0,0,0,0,0,0,0,0,-1,965,1163,0,0
-252,-139,0,0,0,0,0,0,0,0,0,-1,972,1163,0,0
-245,-139,0,0,0,0,0,0,0,0,0,-1,979,1163,0,0
-238,-139,0,0,0,0,0,0,0,0,0,-1,986,1163,0,0
-231,-139,0,0,0,0,0,0,0,0,0,-1,993,1163,0,0
-224,-139,0,0,0,0,0,0,0,0,0,-1,1000,1163,0,0
-217,-139,0,0,0,0,0,0,0,0,0,-1,1007,1163,0,0
-210,-139,0,0,0,0,0,0,0,0,0,-1,1014,1163,0,0
-203,-139,0,0,0,0,0,0,0,0,0,-1,1021,1163,0,0
-196,-139,0,0,0,0,0,0,0,0,0,-1,1028,1163,0,0
-189,-139,0,0,0,0,0,0,0,0,0,-1,1035,1163,0,0
-182,-139,0,0,0,0,0,0,0,0,0,-1,1042,1163,0,0
-175,-139,0,0,0,0,0,0,0,0,0,-1,1049,1163,0,0
-168,-139,0,0,0,0,0,0,0,0,0,-1,1056,1163,0,0
-161,-139,0,0,0,0,0,0,0,0,0,-1,1063,1163,0,0
-154,-139,0,0,0,0,0,0,0,0,0,-1,1070,1163,0,0
-147,-139,0,0,0,0,0,0,0,0,0,-1,1077,1163,0,0
-140,-139,0,0,0,0,0,0,0,0,0,-1,1084,1163,0,0
-133,-139,0,0,0,0,0,0,0,0,0,-1,1091,1163,0,0
-126,-139,0,0,0,0,0,0,0,0,0,-1,1098,1163,0,0
-119,-139,0,0,0,0,0,0,0,0,0,-1,1105,1163,0,0
-112,-139,0,0,0,0,0,0,0,0,0,-1,1112,1163,0,0
-105,-139,0,0,0,0,0,0,0,0,0,-1,1119,1163,0,0
-98,-139,0,0,0,0,0,0,0,0,0,-1,1126,1163,0,0
-91,-139,0,0,0,0,0,0,0,0,0,-1,1133,1163,0,0
-84,-139,0,0,0,0,0,0,0,0,0,-1,1140,1163,0,0
-77,-139,0,0,0,0,0,0,0,0,0,-1,1147,1163,0,0
-70,-139,0,0,0,0,0,0,0,0,0,-1,1154,1163,0,0
-63,-139,0,0,0,0,0,0,0,0,0,-1,1161,1163,0,0
-56,-139,0,0,0,0,0,0,0,0,0,-1,1168,1163,0,0
-49,-139,0,0,0,0,0,0,0,0,0,-1,1175,1163,0,0
-42,-139,0,0,0,0,0,0,0,0,0,-1,1182,1163,0,0
-35,-139,0,0,0,0,0,0,0,0,0,-1,1189,1163,0,0
-28,-139,0,0,0,0,0,0,0,0,0,-1,1196,1163,0,0
-21,-139,0,0,0,0,0,0,0,0,0,-1,1203,1163,0,0
-14,-139,0,0,0,0,0,0,0,0,0,-1,1210,1163,0,0
-7,-139,0,0,0,0,0,0,0,0,0,-1,1217,1163,0,0
0,-139,0,0,0,0,0,0,0,0,0,-1,1224,1163,0,0
7,-139,0,0,0,0,0,0,0,0,0,-1,1231,1163,0,0
14,-139,0,0,0,0,0,0,0,0,0,-1,1238,1163,0,0
21,-139,0,0,0,0,0,0,0,0,0,-1,1245,1163,0,0
28,-139,0,0,0,0,0,0,0,0,0,-1,1252,1163,0,0
35,-139,0,0,0,0,0,0,0,0,0,-1,1259,1163,0,0
42,-139,0,0,0,0,0,0,0,0,0,-1,1266,1163,0,0
49,-139,0,0,0,0,0,0,0,0,0,-1,1273,1163,0,0
56,-139,0,0,0,0,0,0,0,0,0,-1,1280,1163,0,0
63,-139,0,0,0,0,0,0,0,0,0,-1,1287,1163,0,0
70,-139,0,0,0,0,0,0,0,0,0,-1,1294,1163,0,0
77,-139,0,0,0,0,0,0,0,0,0,-1,1301,1163,0,0
84,-139,0,0,0,0,0,0,0,0,0,-1,1308,1163,0,0
91,-139,0,0,0,0,0,0,0,0,0,-1,1315,1163,0,0
98,-139,0,0,0,0,0,0,0,0,0,-1,1322,1163,0,0
105,-139,0,0,0,0,0,0,0,0,0,-1,1329,1163,0,0
112,-139,0,0,0,0,0,0,0,0,0,-1,1336,1163,0,0
119,-139,0,0,0,0,0,0,0,0,0,-1,1343,1163,0,0
126,-139,0,0,0,0,0,0,0,0,0,-1,1350,1163,0,0
133,-139,0,0,0,0,0,0,0,0,0,-1,1357,1163,0,0
140,-139,0,0,0,0,0,0,0,0,0,-1,1364,1163,0,0
147,-139,0,0,0,0,0,0,0,0,0,-1,1371,1163,0,0
154,-139,0,0,0,0,0,0,0,0,0,-1,1378,1163,0,0
161,-139,0,0,0,0,0,0,0,0,0,-1,1385,1163,0,0
168,-139,0,0,0,0,0,0,0,0,0,-1,1392,1163,0,0
175,-139,0,0,0,0,0,0,0,0,0,-1,1399,1163,0,0
182,-139,0,0,0,0,0,0,0,0,0,-1,1406,1163,0,0
189,-139,0,0,0,0,0,0,0,0,0,-1,1413,1163,0,0
196,-139,0,0,0,0,0,0,0,0,0,-1,1420,1163,0,0
203,-139,0,0,0,0,0,0,0,0,0,-1,1427,1163,0,0
210,-139,0,0,0,0,0,0,0,0,0,-1,1434,1163,0,0
217,-139,0,0,0,0,0,0,0,0,0,-1,1441,1163,0,0
224,-139,0,0,0,0,0,0,0,0,0,-1,1448,1163,0,0
231,-139,0,0,0,0,0,0,0,0,0,-1,1455,1163,0,0
238,-139,0,0,0,0,0,0,0,0,0,-1,1462,1163,0,0
245,-139,0,0,0,0,0,0,0,0,0,-1,1469,1163,0,0
252,-139,0,0,0,0,0,0,0,0,0,-1,1476,1163,0,0
259,-139,0,0,0,0,0,0,0,0,0,-1,1483,1163,0,0
266,-139,0,0,0,0,0,0,0,0,0,-1,1490,1163,0,0
273,-139,0,0,0,0,0,0,0,0,0,-1,1497,1163,0,0
280,-139,0,0,0,0,0,0,0,0,0,-1,1504,1163,0,0
287,-139,0,0,0,0,0,0,0,0,0,-1,1511,1163,0,0
294,-139,0,0,0,0,0,0,0,0,0,-1,1518,1163,0,0
301,-139,0,0,0,0,0,0,0,0,0,-1,1525,1163,0,0
308,-139,0,0,0,0,0,0,0,0,0,-1,1532,1163,0,0
315,-139,0,0,0,0,0,0,0,0,0,-1,1539,1163,0,0
322,-139,0,0,0,0,0,0,0,0,0,-1,1546,1163,0,0
329,-139,0,0,0,0,0,0,0,0,0,-1,1553,1163,0,0
336,-139,0,0,0,0,0,0,0,0,0,-1,1560,1163,0,0
343,-139,0,0,0,0,0,0,0,0,0,-1,1567,1163,0,0
350,-139,0,0,0,0,0,0,0,0,0,-1,1574,1163,0,0
357,-139,0,0,0,0,0,0,0,0,0,-1,1581,1163,0,0
364,-139,0,0,0,0,0,0,0,0,0,-1,1588,1163,0,0
371,-139,0,0,0,0,0,0,0,0,0,-1,1595,1163,0,0
378,-139,0,0,0,0,0,0,0,0,0,-1,1602,1163,0,0
385,-139,0,0,0,0,0,0,0,0,0,-1,1609,1163,0,0
392,-139,0,0,0,0,0,0,0,0,0,-1,1616,1163,0,0
399,-139,0,0,0,0,0,0,0,0,0,-1,1623,1163,0,0
406,-139,0,0,0,0,0,0,0,0,0,-1,1630,1163,0,0
413,-139,0,0,0,0,0,0,0,0,0,-1,1637,1163,0,0
420,-139,0,0,0,0,0,0,0,0,0,-1,1644,1163,0,0
427,-139,0,0,0,0,0,0,0,0,0,-1,1651,1163,0,0
434,-139,0,0,0,0,0,0,0,0,0,-1,1658,1163,0,0
441,-139,0,0,0,0,0,0,0,0,0,-1,1665,1163,0,0
448,-139,0,0,0,0,0,0,0,0,0,-1,1672,1163,0,0
455,-139,0,0,0,0,0,0,0,0,0,-1,1679,1163,0,0
462,-139,0,0,0,0,0,0,0,0,0,-1,1686,1163,0,0
469,-139,0,0,0,0,0,0,0,0,0,-1,1693,1163,0,0
476,-139,0,0,0,0,0,0,0,0,0,-1,1700,1163,0,0
483,-139,0,0,0,0,0,0,0,0,0,-1,1707,1163,0,0
490,-139,0,0,0,0,0,0,0,0,0,-1,1714,1163,0,0
497,-139,0,0,0,0,0,0,0,0,0,-1,1721,1163,0,0
504,-139,0,0,0,0,0,0,0,0,0,-1,1728,1163,0,0
511,-139,0,0,0,0,0,0,0,0,0,-1,1735,1163,0,0
518,-139,0,0,0,0,0,0,0,0,0,-1,1742,1163,0,0
525,-139,0,0,0,0,0,0,0,0,0,-1,1749,1163,0,0
532,-139,0,0,0,0,0,0,0,0,0,-1,1756,1163,0,0
539,-139,0,0,0,0,0,0,0,0,0,-1,1763,1163,0,0
546,-139,0,0,0,0,0,0,0,0,0,-1,1770,1163,0,0
553,-139,0,0,0,0,0,0,0,0,0,-1,1777,1163,0,0
560,-139,0,0,0,0,0,0,0,0,0,-1,1784,1163,0,0
567,-139,0,0,0,0,0,0,0,0,0,-1,1791,1163,0,0
574,-139,0,0,0,0,0,0,0,0,0,-1,1798,1163,0,0
581,-139,0,0,0,0,0,0,0,0,0,-1,1805,1163,0,0
588,-139,0,0,0,0,0,0,0,0,0,-1,1812,1163,0,0
595,-139,0,0,0,0,0,0,0,0,0,-1,1819,1163,0,0
602,-139,0,0,0,0,0,0,0,0,0,-1,1826,1163,0,0
609,-139,0,0,0,0,0,0,0,0,0,-1,1833,1163,0,0
616,-139,0,0,0,0,0,0,0,0,0,-1,1840,1163,0,0
623,-139,0,0,0,0,0,0,0,0,0,-1,1847,1163,0,0
630,-139,0,0,0,0,0,0,0,0,0,-1,1854,1163,0,0
637,-139,0,0,0,0,0,0,0,0,0,-1,1861,1163,0,0
644,-139,30.958,3.05725,0.000939843,-0.0022995,-0.00426784,0.00388501,-0.00524467,-0.60404,0.00529047,0.0423239,1868,1163,30.958,-3.05721
651,-139,30.7058,2.93665,0.000910141,-0.00218969,-0.00259721,0.00238474,-0.0036643,-0.51638,0.00351836,0.0387942,1875,1163,30.7059,-2.93669
658,-139,30.771,2.94885,0.00105558,-0.0019643,-0.00145763,0.00164435,-0.00255307,-0.383886,0.00244224,0.0395134,1882,1163,30.771,-2.94884
665,-139,30.8423,2.88953,0.00131044,-0.00161488,-0.000743805,0.0014887,-0.00179314,-0.235224,0.00189749,0.0406211,1889,1163,30.8423,-2.88957
672,-139,30.8853,3,0.00151422,-0.00127605,-0.000442756,0.00158279,-0.00134462,-0.153652,0.00169201,0.0378691,1896,1163,30.8852,-2.99994
679,-139,30.8643,3.00232,0.00127235,-0.00100169,-0.000231214,0.00129562,-0.00102496,-0.100308,0.00134282,0.0363054,1903,1163,30.8643,-3.0023
686,-139,30.7947,2.99719,0.000850457,-0.000838041,-0.000100404,0.000856406,-0.00084399,-0.0591855,0.000981733,0.0335628,1910,1163,30.7947,-2.99717
693,-139,30.7931,2.96558,0.00053541,-0.00065504,1.50223e-05,0.0005356,-0.000655229,0.0126163,0.000688681,0.0211745,1917,1163,30.793,-2.9656
700,-139,30.9026,2.95837,0,0,0,0,0,0,0,-1,1924,1163,30.9026,-2.95838
707,-139,28.259,6.55579,0,0,0,0,0,0,0,-1,1931,1163,28.259,-6.55574
714,-139,28.0393,6.06677,-0.000759838,-0.000213632,0.000212863,-0.000140475,-0.000832994,1.23976,0.000514932,0.0433193,1938,1163,28.0393,-6.06673
721,-139,28.0713,5.6897,-0.00103479,7.96013e-05,0.000252936,0.000134323,-0.00108952,1.35773,0.000775008,0.0263193,1945,1163,28.0713,-5.68973
728,-139,28.0237,5.55066,-0.00121411,0.000368773,0.00028637,0.00041899,-0.00126432,1.39721,0.00101189,0.0268991,1952,1163,28.0237,-5.5506
735,-139,27.981,5.42029,-0.00130995,0.000591575,0.00017825,0.00060814,-0.00132651,1.47813,0.00114235,0.0214135,1959,1163,27.981,-5.42028
742,-139,28.0236,5.13757,-0.000883713,0.00102838,0.000129827,0.00103716,-0.000892488,1.50331,0.00111513,0.0226672,1966,1163,28.0236,-5.13757
749,-139,28.0187,4.93921,0.000287213,0.00217778,0.000115127,0.00218476,0.000280228,1.5102,0.00137267,0.0196064,1973,1163,28.0187,-4.93924
756,-139,27.9938,4.7699,0.00236171,0.00477174,0.00017877,0.00478492,0.00234852,1.49716,0.00276273,0.0114227,1980,1163,27.9937,-4.76987
763,-139,27.9891,4.57422,0.00514827,0.00747264,3.19359e-05,0.00747308,0.00514783,1.55706,0.00441598,0.0111343,1987,1163,27.9891,-4.5742
770,-139,28.0048,4.39624,0.00857911,0.0108695,4.65901e-05,0.0108704,0.00857816,1.55047,0.00661656,0.0120225,1994,1163,28.0048,-4.39623
777,-139,27.9777,4.26904,0,0,0,0,0,0,0,-1,2001,1163,27.9776,-4.26899
784,-139,28.0238,3.64514,0,0,0,0,0,0,0,-1,2008,1163,28.0238,-3.64511
791,-139,28.3286,2.79272,0,0,0,0,0,0,0,-1,2015,1163,28.3286,-2.79271
798,-139,28.1323,2.69763,0,0,0,0,0,0,0,-1,2022,1163,28.1322,-2.69762
805,-139,25.8936,3.43701,0,0,0,0,0,0,0,-1,2029,1163,25.8935,-3.43697
812,-139,0,0,0,0,0,0,0,0,0,-1,2036,1163,0,0
-700,-146,0,0,0,0,0,0,0,0,0,-1,524,1170,0,0
-693,-146,-21.6519,1.57263,0,0,0,0,0,0,0,-1,531,1170,-21.6519,-1.57263
-686,-146,-21.2775,0.873047,0,0,0,0,0,0,0,-1,538,1170,-21.2775,-0.873083
-679,-146,-19.1674,-0.149658,0,0,0,0,0,0,0,-1,545,1170,-19.1674,0.149697
-672,-146,-18.876,0.305176,0.0396815,0.0138726,-0.0371637,0.0661174,-0.0125633,-0.618295,0.048808,0.0434344,552,1170,-18.876,-0.305134
-665,-146,-18.5618,0.822876,0.0307781,0.0115642,-0.0274151,0.0502207,-0.00787846,-0.616871,0.036392,0.0426708,559,1170,-18.5617,-0.822843
-658,-146,-18.4255,1.30798,0.0231438,0.0095423,-0.0197508,0.0372319,-0.00454576,-0.619591,0.026467,0.0436996,566,1170,-18.4255,-1.30799
-651,-146,-18.3982,1.40784,0.0166946,0.00773247,-0.0138052,0.0267278,-0.00230066,-0.628466,0.0186328,0.036043,573,1170,-18.3982,-1.40787
-644,-146,-18.3515,1.5769,0.0113812,0.00610754,-0.00932873,0.0184386,-0.000949868,-0.647663,0.0126209,0.0183767,580,1170,-18.3515,-1.57687
-637,-146,-18.3681,1.8009,0.00736614,0.0046386,-0.00612142,0.0122739,-0.00026913,-0.675795,0.00827375,0.010232,587,1170,-18.3681,-1.80095
-630,-146,-18.3974,2.04395,0.0033603,0.00324424,-0.00256738,0.00587031,0.000734231,-0.774099,0.0036932,0.0101061,594,1170,-18.3974,-2.044
-623,-146,-18.4002,2.26831,0.000738189,0.00156988,-0.000831835,0.00208402,0.000224046,-1.01719,0.00132101,0.0128543,601,1170,-18.4002,-2.26828
-616,-146,-18.4499,2.4967,-0.000555605,0.00103078,-0.000699082,0.00129488,-0.000819706,-1.20959,0.00123109,0.0197787,608,1170,-18.4499,-2.49665
-609,-146,-18.335,2.7478,-0.00120409,0.000893225,-0.000795056,0.00116055,-0.00147141,-1.24644,0.00152309,0.0192018,615,1170,-18.335,-2.74775
-602,-146,-18.4662,3.15369,-0.00127534,0.000784743,-0.00111544,0.00127299,-0.00176358,-1.15821,0.00176077,0.0368493,622,1170,-18.4663,-3.15363
-595,-146,-18.6136,3.25256,-0.00120481,0.0006812,-0.00128083,0.00132873,-0.00185234,-1.10272,0.00184486,0.0227271,629,1170,-18.6136,-3.25251
-588,-146,-18.4951,3.51001,-0.00117933,0.00087749,-0.00111096,0.00136297,-0.00166481,-1.15881,0.00175098,0.025121,636,1170,-18.4951,-3.51002
-581,-146,-18.1049,3.94092,0,0,0,0,0,0,0,-1,643,1170,-18.1049,-3.9409
-574,-146,-17.9915,3.79114,0,0,0,0,0,0,0,-1,650,1170,-17.9915,-3.79118
-567,-146,-21.4858,1.02209,0,0,0,0,0,0,0,-1,657,1170,-21.4858,-1.02212
-560,-146,-21.5143,1.19104,-0.00127434,0.00248745,-0.000441905,0.00253866,-0.00132555,-1.45542,0.00226736,0.0392368,664,1170,-21.5143,-1.19099
-553,-146,-21.5479,1.16968,-0.00132102,0.00306573,-0.000189339,0.00307389,-0.00132918,-1.52774,0.00260779,0.039555,671,1170,-21.5479,-1.16971
-546,-146,-21.5034,0.982422,-0.00130859,0.00369223,0.000216518,0.00370159,-0.00131794,1.52761,0.00300498,0.0425232,678,1170,-21.5033,-0.982412
-539,-146,-21.4531,0.877563,-0.00144681,0.00434634,0.000898164,0.00448239,-0.00158287,1.42046,0.00363271,0.0418316,685,1170,-21.453,-0.877614
-532,-146,-21.5893,1.17468,-0.00145566,0.00502441,0.0019584,0.00557029,-0.00200154,1.29896,0.00453056,0.0403124,692,1170,-21.5893,-1.17469
-525,-146,-21.7163,1.37402,0,0,0,0,0,0,0,-1,699,1170,-21.7163,-1.37396
-518,-146,0,0,0,0,0,0,0,0,0,-1,706,1170,0,0
-511,-146,0,0,0,0,0,0,0,0,0,-1,713,1170,0,0
-504,-146,0,0,0,0,0,0,0,0,0,-1,720,1170,0,0
-497,-146,0,0,0,0,0,0,0,0,0,-1,727,1170,0,0
-490,-146,0,0,0,0,0,0,0,0,0,-1,734,1170,0,0
-483,-146,0,0,0,0,0,0,0,0,0,-1,741,1170,0,0
-476,-146,0,0,0,0,0,0,0,0,0,-1,748,1170,0,0
-469,-146,0,0,0,0,0,0,0,0,0,-1,755,1170,0,0
-462,-146,0,0,0,0,0,0,0,0,0,-1,762,1170,0,0
-455,-146,0,0,0,0,0,0,0,0,0,-1,769,1170,0,0
-448,-146,0,0,0,0,0,0,0,0,0,-1,776,1170,0,0
-441,-146,0,0,0,0,0,0,0,0,0,-1,783,1170,0,0
-434,-146,0,0,0,0,0,0,0,0,0,-1,790,1170,0,0
-427,-146,0,0,0,0,0,0,0,0,0,-1,797,1170,0,0
-420,-146,0,0,0,0,0,0,0,0,0,-1,804,1170,0,0
-413,-146,0,0,0,0,0,0,0,0,0,-1,811,1170,0,0
-406,-146,0,0,0,0,0,0,0,0,0,-1,818,1170,0,0
-399,-146,0,0,0,0,0,0,0,0,0,-1,825,1170,0,0
-392,-146,0,0,0,0,0,0,0,0,0,-1,832,1170,0,0
-385,-146,0,0,0,0,0,0,0,0,0,-1,839,1170,0,0
-378,-146,0,0,0,0,0,0,0,0,0,-1,846,1170,0,0
-371,-146,0,0,0,0,0,0,0,0,0,-1,853,1170,0,0
-364,-146,0,0,0,0,0,0,0,0,0,-1,860,1170,0,0
-357,-146,0,0,0,0,0,0,0,0,0,-1,867,1170,0,0
-350,-146,0,0,0,0,0,0,0,0,0,-1,874,1170,0,0
-343,-146,0,0,0,0,0,0,0,0,0,-1,881,1170,0,0
-336,-146,0,0,0,0,0,0,0,0,0,-1,888,1170,0,0
-329,-146,0,0,0,0,0,0,0,0,0,-1,895,1170,0,0
-322,-146,0,0,0,0,0,0,0,0,0,-1,902,1170,0,0
-315,-146,0,0,0,0,0,0,0,0,0,-1,909,1170,0,0
-308,-146,0,0,0,0,0,0,0,0,0,-1,916,1170,0,0
-301,-146,0,0,0,0,0,0,0,0,0,-1,923,1170,0,0
-294,-146,0,0,0,0,0,0,0,0,0,-1,930,1170,0,0
-287,-146,0,0,0,0,0,0,0,0,0,-1,937,1170,0,0
-280,-146,0,0,0,0,0,0,0,0,0,-1,944,1170,0,0
-273,-146,0,0,0,0,0,0,0,0,0,-1,951,1170,0,0
-266,-146,0,0,0,0,0,0,0,0,0,-1,958,1170,0,0
-259,-146,0,0,0,0,0,0,0,0,0,-1,965,1170,0,0
-252,-146,0,0,0,0,0,0,0,0,0,-1,972,1170,0,0
-245,-146,0,0,0,0,0,0,0,0,0,-1,979,1170,0,0
-238,-146,0,0,0,0,0,0,0,0,0,-1,986,1170,0,0
-231,-146,0,0,0,0,0,0,0,0,0,-1,993,1170,0,0
-224,-146,0,0,0,0,0,0,0,0,0,-1,1000,1170,0,0
-217,-146,0,0,0,0,0,0,0,0,0,-1,1007,1170,0,0
-210,-146,0,0,0,0,0,0,0,0,0,-1,1014,1170,0,0
-203,-146,0,0,0,0,0,0,0,0,0,-1,1021,1170,0,0
-196,-146,0,0,0,0,0,0,0,0,0,-1,1028,1170,0,0
-189,-146,0,0,0,0,0,0,0,0,0,-1,1035,1170,0,0
-182,-146,0,0,0,0,0,0,0,0,0,-1,1042,1170,0,0
-175,-146,0,0,0,0,0,0,0,0,0,-1,1049,1170,0,0
-168,-146,0,0,0,0,0,0,0,0,0,-1,1056,1170,0,0
-161,-146,0,0,0,0,0,0,0,0,0,-1,1063,1170,0,0
-154,-146,0,0,0,0,0,0,0,0,0,-1,1070,1170,0,0
-147,-146,0,0,0,0,0,0,0,0,0,-1,1077,1170,0,0
-140,-146,0,0,0,0,0,0,0,0,0,-1,1084,1170,0,0
-133,-146,0,0,0,0,0,0,0,0,0,-1,1091,1170,0,0
-126,-146,0,0,0,0,0,0,0,0,0,-1,1098,1170,0,0
-119,-146,0,0,0,0,0,0,0,0,0,-1,1105,1170,0,0
-112,-146,0,0,0,0,0,0,0,0,0,-1,1112,1170,0,0
-105,-146,0,0,0,0,0,0,0,0,0,-1,1119,1170,0,0
-98,-146,0,0,0,0,0,0,0,0,0,-1,1126,1170,0,0
-91,-146,0,0,0,0,0,0,0,0,0,-1,1133,1170,0,0
-84,-146,0,0,0,0,0,0,0,0,0,-1,1140,1170,0,0
-77,-146,0,0,0,0,0,0,0,0,0,-1,1147,1170,0,0
-70,-146,0,0,0,0,0,0,0,0,0,-1,1154,1170,0,0
-63,-146,0,0,0,0,0,0,0,0,0,-1,1161,1170,0,0
-56,-146,0,0,0,0,0,0,0,0,0,-1,1168,1170,0,0
-49,-146,0,0,0,0,0,0,0,0,0,-1,1175,1170,0,0
-42,-146,0,0,0,0,0,0,0,0,0,-1,1182,1170,0,0
-35,-146,0,0,0,0,0,0,0,0,0,-1,1189,1170,0,0
-28,-146,0,0,0,0,0,0,0,0,0,-1,1196,1170,0,0
-21,-146,0,0,0,0,0,0,0,0,0,-1,1203,1170,0,0
-14,-146,0,0,0,0,0,0,0,0,0,-1,1210,1170,0,0
-7,-146,0,0,0,0,0,0,0,0,0,-1,1217,1170,0,0
0,-146,0,0,0,0,0,0,0,0,0,-1,1224,1170,0,0
7,-146,0,0,0,0,0,0,0,0,0,-1,1231,1170,0,0
14,-146,0,0,0,0,0,0,0,0,0,-1,1238,1170,0,0
21,-146,0,0,0,0,0,0,0,0,0,-1,1245,1170,0,0
28,-146,0,0,0,0,0,0,0,0,0,-1,1252,1170,0,0
35,-146,0,0,0,0,0,0,0,0,0,-1,1259,1170,0,0
42,-146,0,0,0,0,0,0,0,0,0,-1,1266,1170,0,0
49,-146,0,0,0,0,0,0,0,0,0,-1,1273,1170,0,0
56,-146,0,0,0,0,0,0,0,0,0,-1,1280,1170,0,0
63,-146,0,0,0,0,0,0,0,0,0,-1,1287,1170,0,0
70,-146,0,0,0,0,0,0,0,0,0,-1,1294,1170,0,0
77,-146,0,0,0,0,0,0,0,0,0,-1,1301,1170,0,0
84,-146,0,0,0,0,0,0,0,0,0,-1,1308,1170,0,0
91,-146,0,0,0,0,0,0,0,0,0,-1,1315,1170,0,0
98,-146,0,0,0,0,0,0,0,0,0,-1,1322,1170,0,0
105,-146,0,0,0,0,0,0,0,0,0,-1,1329,1170,0,0
112,-146,0,0,0,0,0,0,0,0,0,-1,1336,1170,0,0
119,-146,0,0,0,0,0,0,0,0,0,-1,1343,1170,0,0
126,-146,0,0,0,0,0,0,0,0,0,-1,1350,1170,0,0
133,-146,0,0,0,0,0,0,0,0,0,-1,1357,1170,0,0
140,-146,0,0,0,0,0,0,0,0,0,-1,1364,1170,0,0
147,-146,0,0,0,0,0,0,0,0,0,-1,1371,1170,0,0
154,-146,0,0,0,0,0,0,0,0,0,-1,1378,1170,0,0
161,-146,0,0,0,0,0,0,0,0,0,-1,1385,1170,0,0
168,-146,0,0,0,0,0,0,0,0,0,-1,1392,1170,0,0
175,-146,0,0,0,0,0,0,0,0,0,-1,1399,1170,0,0
182,-146,0,0,0,0,0,0,0,0,0,-1,1406,1170,0,0
189,-146,0,0,0,0,0,0,0,0,0,-1,1413,1170,0,0
196,-146,0,0,0,0,0,0,0,0,0,-1,1420,1170,0,0
203,-146,0,0,0,0,0,0,0,0,0,-1,1427,1170,0,0
210,-146,0,0,0,0,0,0,0,0,0,-1,1434,1170,0,0
217,-146,0,0,0,0,0,0,0,0,0,-1,1441,1170,0,0
224,-146,0,0,0,0,0,0,0,0,0,-1,1448,1170,0,0
231,-146,0,0,0,0,0,0,0,0,0,-1,1455,1170,0,0
238,-146,0,0,0,0,0,0,0,0,0,-1,1462,1170,0,0
245,-146,0,0,0,0,0,0,0,0,0,-1,1469,1170,0,0
252,-146,0,0,0,0,0,0,0,0,0,-1,1476,1170,0,0
259,-146,0,0,0,0,0,0,0,0,0,-1,1483,1170,0,0
266,-146,0,0,0,0,0,0,0,0,0,-1,1490,1170,0,0
273,-146,0,0,0,0,0,0,0,0,0,-1,1497,1170,0,0
280,-146,0,0,0,0,0,0,0,0,0,-1,1504,1170,0,0
287,-146,0,0,0,0,0,0,0,0,0,-1,1511,1170,0,0
294,-146,0,0,0,0,0,0,0,0,0,-1,1518,1170,0,0
301,-146,0,0,0,0,0,0,0,0,0,-1,1525,1170,0,0
308,-146,0,0,0,0,0,0,0,0,0,-1,1532,1170,0,0
315,-146,0,0,0,0,0,0,0,0,0,-1,1539,1170,0,0
322,-146,0,0,0,0,0,0,0,0,0,-1,1546,1170,0,0
329,-146,0,0,0,0,0,0,0,0,0,-1,1553,1170,0,0
336,-146,0,0,0,0,0,0,0,0,0,-1,1560,1170,0,0
343,-146,0,0,0,0,0,0,0,0,0,-1,1567,1170,0,0
350,-146,0,0,0,0,0,0,0,0,0,-1,1574,1170,0,0
357,-146,0,0,0,0,0,0,0,0,0,-1,1581,1170,0,0
364,-146,0,0,0,0,0,0,0,0,0,-1,1588,1170,0,0
371,-146,0,0,0,0,0,0,0,0,0,-1,1595,1170,0,0
378,-146,0,0,0,0,0,0,0,0,0,-1,1602,1170,0,0
385,-146,0,0,0,0,0,0,0,0,0,-1,1609,1170,0,0
392,-146,0,0,0,0,0,0,0,0,0,-1,1616,1170,0,0
399,-146,0,0,0,0,0,0,0,0,0,-1,1623,1170,0,0
406,-146,0,0,0,0,0,0,0,0,0,-1,1630,1170,0,0
413,-146,0,0,0,0,0,0,0,0,0,-1,1637,1170,0,0
420,-146,0,0,0,0,0,0,0,0,0,-1,1644,1170,0,0
427,-146,0,0,0,0,0,0,0,0,0,-1,1651,1170,0,0
434,-146,0,0,0,0,0,0,0,0,0,-1,1658,1170,0,0
441,-146,0,0,0,0,0,0,0,0,0,-1,1665,1170,0,0
448,-146,0,0,0,0,0,0,0,0,0,-1,1672,1170,0,0
455,-146,0,0,0,0,0,0,0,0,0,-1,1679,1170,0,0
462,-146,0,0,0,0,0,0,0,0,0,-1,1686,1170,0,0
469,-146,0,0,0,0,0,0,0,0,0,-1,1693,1170,0,0
476,-146,0,0,0,0,0,0,0,0,0,-1,1700,1170,0,0
483,-146,0,0,0,0,0,0,0,0,0,-1,1707,1170,0,0
490,-146,0,0,0,0,0,0,0,0,0,-1,1714,1170,0,0
497,-146,0,0,0,0,0,0,0,0,0,-1,1721,1170,0,0
504,-146,0,0,0,0,0,0,0,0,0,-1,1728,1170,0,0
511,-146,0,0,0,0,0,0,0,0,0,-1,1735,1170,0,0
518,-146,0,0,0,0,0,0,0,0,0,-1,1742,1170,0,0
525,-146,0,0,0,0,0,0,0,0,0,-1,1749,1170,0,0
532,-146,0,0,0,0,0,0,0,0,0,-1,1756,1170,0,0
539,-146,0,0,0,0,0,0,0,0,0,-1,1763,1170,0,0
546,-146,0,0,0,0,0,0,0,0,0,-1,1770,1170,0,0
553,-146,0,0,0,0,0,0,0,0,0,-1,1777,1170,0,0
560,-146,0,0,0,0,0,0,0,0,0,-1,1784,1170,0,0
567,-146,0,0,0,0,0,0,0,0,0,-1,1791,1170,0,0
574,-146,0,0,0,0,0,0,0,0,0,-1,1798,1170,0,0
581,-146,0,0,0,0,0,0,0,0,0,-1,1805,1170,0,0
588,-146,0,0,0,0,0,0,0,0,0,-1,1812,1170,0,0
595,-146,0,0,0,0,0,0,0,0,0,-1,1819,1170,0,0
602,-146,0,0,0,0,0,0,0,0,0,-1,1826,1170,0,0
609,-146,0,0,0,0,0,0,0,0,0,-1,1833,1170,0,0
616,-146,0,0,0,0,0,0,0,0,0,-1,1840,1170,0,0
623,-146,0,0,0,0,0,0,0,0,0,-1,1847,1170,0,0
630,-146,0,0,0,0,0,0,0,0,0,-1,1854,1170,0,0
637,-146,30.8304,2.97986,-0.00080104,-0.000472328,-0.00614754,0.00551305,-0.00678642,-0.798763,0.00711378,0.0404987,1861,1170,30.8305,-2.9799
644,-146,30.7994,2.90295,-0.00037035,-0.000956721,-0.00382538,0.00317306,-0.00450013,-0.747152,0.00445215,0.0394302,1868,1170,30.7995,-2.90292
651,-146,30.7134,2.89697,0.000194517,-0.00102961,-0.00241135,0.00207027,-0.00290536,-0.66111,0.00288613,0.0361257,1875,1170,30.7134,-2.89697
658,-146,30.7419,3.06177,0.000843977,-0.00101009,-0.0014518,0.00163948,-0.00180559,-0.501259,0.00198978,0.038827,1882,1170,30.7419,-3.06174
665,-146,30.7706,3.17114,0.00146193,-0.000836494,-0.000939436,0.00179704,-0.00117161,-0.342649,0.00172658,0.0418762,1889,1170,30.7706,-3.17118
672,-146,30.7974,3.18774,0.0017924,-0.000664029,-0.000744871,0.00200062,-0.000872249,-0.27258,0.00170076,0.0385498,1896,1170,30.7973,-3.18776
679,-146,30.8262,3.06982,0.00151799,-0.000523315,-0.000543021,0.00165345,-0.000658778,-0.244472,0.00137553,0.0311976,1903,1170,30.8261,-3.06988
686,-146,30.7716,2.97412,0.00104192,-0.000463333,-0.000390105,0.00113701,-0.000558427,-0.2391,0.000997679,0.0224743,1910,1170,30.7716,-2.97415
693,-146,30.8442,2.96484,0.000672466,-0.000344722,-0.000219493,0.000717808,-0.000390064,-0.20371,0.000648893,0.0136669,1917,1170,30.8442,-2.96483
700,-146,30.9556,2.9187,0,0,0,0,0,0,0,-1,1924,1170,30.9556,-2.91866
707,-146,27.6251,6.6532,0,0,0,0,0,0,0,-1,1931,1170,27.6252,-6.65325
714,-146,27.9207,6.05054,-0.00080791,-1.5042e-06,-2.22218e-05,-8.92294e-07,-0.000808522,-1.54327,0.000538718,0.039946,1938,1170,27.9207,-6.05055
721,-146,27.9878,5.72156,-0.00115852,0.000215669,4.52946e-05,0.00021716,-0.00116001,1.53788,0.000854969,0.0495393,1945,1170,27.9878,-5.72157
728,-146,28.0334,5.45789,-0.00141061,0.000472905,0.000149212,0.000484652,-0.00142235,1.49223,0.00114452,0.0349253,1952,1170,28.0335,-5.45787
735,-146,27.8093,5.40845,-0.00155143,0.000675883,7.92917e-05,0.000678702,-0.00155425,1.53526,0.00132182,0.0193988,1959,1170,27.8093,-5.4084
742,-146,27.8364,5.13611,-0.000944841,0.00103712,-4.44403e-05,0.00103812,-0.000945837,-1.54839,0.00114585,0.0176422,1966,1170,27.8364,-5.13616
749,-146,27.8107,4.96375,0.000653462,0.00216368,-0.000195896,0.00218868,0.000628465,-1.44388,0.00130124,0.0166733,1973,1170,27.8106,-4.9638
756,-146,27.775,4.76245,0.00346157,0.00488895,-0.000363236,0.00497606,0.00337445,-1.3354,0.00293308,0.0126466,1980,1170,27.775,-4.76244
763,-146,27.7565,4.56494,0.00709253,0.00776754,-0.000791632,0.00829062,0.00656946,-0.986901,0.00505205,0.0110194,1987,1170,27.7565,-4.565
770,-146,27.7545,4.37,0.0115491,0.0113886,-0.00111682,0.0125885,0.0103492,-0.749541,0.00775444,0.0117497,1994,1170,27.7545,-4.36997
777,-146,27.7396,4.23071,0,0,0,0,0,0,0,-1,2001,1170,27.7397,-4.23072
784,-146,27.6444,3.68665,0.0236943,0.0224729,-0.00146027,0.0246664,0.0215008,-0.587352,0.0154972,0.0400376,2008,1170,27.6444,-3.68669
791,-146,27.5288,3.04773,0.0314917,0.0305425,-0.00106437,0.0321825,0.0298517,-0.575681,0.0207218,0.0474826,2015,1170,27.5288,-3.04774
798,-146,27.5034,2.41248,0,0,0,0,0,0,0,-1,2022,1170,27.5035,-2.41243
805,-146,28.5732,4.80322,0,0,0,0,0,0,0,-1,2029,1170,28.5732,-4.80319
812,-146,0,0,0,0,0,0,0,0,0,-1,2036,1170,0,0
-700,-153,0,0,0,0,0,0,0,0,0,-1,524,1177,0,0
-693,-153,0,0,0,0,0,0,0,0,0,-1,531,1177,0,0
-686,-153,-19.6748,0.918823,0.0596387,0.0248159,-0.0768574,0.121032,-0.0365776,-0.674007,0.0952512,0.0424136,538,1177,-19.6748,-0.91886
-679,-153,-19.1176,0.569702,0.0480961,0.0211555,-0.0563789,0.0925915,-0.02334,-0.668134,0.0708018,0.0469084,545,1177,-19.1176,-0.569687
-672,-153,-18.3784,0.417236,0.0382135,0.0179598,-0.0411679,0.0704818,-0.0143085,-0.664798,0.0524125,0.044014,552,1177,-18.3784,-0.417295
-665,-153,-18.0367,0.746826,0.0297915,0.015134,-0.0296003,0.0529569,-0.00803135,-0.664043,0.0382637,0.0432504,559,1177,-18.0367,-0.746771
-658,-153,-18.0527,1.38135,0.0226873,0.0125967,-0.0207871,0.0390326,-0.00374859,-0.666345,0.027357,0.0474921,566,1177,-18.0527,-1.38131
-651,-153,-18.0048,1.31982,0.0166973,0.0102955,-0.0141515,0.0280054,-0.00101263,-0.674176,0.0190168,0.0434045,573,1177,-18.0048,-1.31987
-644,-153,-18.0955,1.57153,0.0117182,0.00820912,-0.00930438,0.019432,0.000495295,-0.692207,0.0127928,0.0253073,580,1177,-18.0955,-1.57159
-637,-153,-18.0994,1.79663,0.00782882,0.00632817,-0.00590206,0.0130281,0.00112893,-0.722173,0.00833459,0.0109388,587,1177,-18.0994,-1.79662
-630,-153,-18.1231,2.04041,0.00389858,0.00455607,-0.00213206,0.00638459,0.00207007,-0.861892,0.0037613,0.00968831,594,1177,-18.1231,-2.0404
-623,-153,-18.1429,2.28345,0.00124644,0.00241555,-0.000468517,0.00258014,0.00108186,-1.23297,0.0014961,0.0100239,601,1177,-18.1429,-2.2835
-616,-153,-18.1605,2.50574,-0.000315392,0.00159991,-0.000590171,0.00176715,-0.00048264,-1.29465,0.00136767,0.0134112,608,1177,-18.1605,-2.50577
-609,-153,-18.134,2.73584,-0.00127357,0.00124286,-0.000874305,0.0015168,-0.00154751,-1.26716,0.00176921,0.0180123,615,1177,-18.1341,-2.73584
-602,-153,-18.1432,3.00037,-0.00159239,0.000961083,-0.00128617,0.0014966,-0.00212791,-1.17626,0.00210317,0.0403071,622,1177,-18.1433,-3.00033
-595,-153,-18.3696,3.2489,-0.00172503,0.000672519,-0.00147868,0.00137731,-0.00242982,-1.12602,0.00222587,0.0361225,629,1177,-18.3695,-3.24886
-588,-153,-18.3627,3.50452,-0.00182484,0.000781869,-0.00132235,0.00133522,-0.00237819,-1.17448,0.00217194,0.0221198,636,1177,-18.3627,-3.50454
-581,-153,-18.1096,3.70825,0,0,0,0,0,0,0,-1,643,1177,-18.1096,-3.70822
-574,-153,-18.13,3.81946,0,0,0,0,0,0,0,-1,650,1177,-18.13,-3.81949
-567,-153,-21.436,0.869019,0,0,0,0,0,0,0,-1,657,1177,-21.436,-0.86905
-560,-153,-21.399,0.955444,-0.00160848,0.00213083,-0.00070541,0.00225948,-0.00173712,-1.39041,0.002314,0.0404431,664,1177,-21.399,-0.955437
-553,-153,-21.4113,1.05676,-0.00148849,0.00262398,-0.000465434,0.002676,-0.00154051,-1.4595,0.00246365,0.0374136,671,1177,-21.4113,-1.05681
-546,-153,-21.3864,1.14343,-0.00118935,0.00316376,-8.80364e-05,0.00316554,-0.00119113,-1.55058,0.0026,0.0399786,678,1177,-21.3864,-1.14346
-539,-153,-21.4662,1.07581,-0.000911533,0.00376174,0.000520475,0.003819,-0.000968798,1.46121,0.00292295,0.0417756,685,1177,-21.4662,-1.07583
-532,-153,-21.6222,1.13892,-0.00043377,0.00446882,0.00139683,0.00483887,-0.00080382,1.31182,0.00352454,0.0417646,692,1177,-21.6222,-1.13894
-525,-153,-21.7036,1.45996,0,0,0,0,0,0,0,-1,699,1177,-21.7036,-1.45995
-518,-153,0,0,0,0,0,0,0,0,0,-1,706,1177,0,0
-511,-153,0,0,0,0,0,0,0,0,0,-1,713,1177,0,0
-504,-153,0,0,0,0,0,0,0,0,0,-1,720,1177,0,0
-497,-153,0,0,0,0,0,0,0,0,0,-1,727,1177,0,0
-490,-153,0,0,0,0,0,0,0,0,0,-1,734,1177,0,0
-483,-153,0,0,0,0,0,0,0,0,0,-1,741,1177,0,0
-476,-153,0,0,0,0,0,0,0,0,0,-1,748,1177,0,0
-469,-153,0,0,0,0,0,0,0,0,0,-1,755,1177,0,0
-462,-153,0,0,0,0,0,0,0,0,0,-1,762,1177,0,0
-455,-153,0,0,0,0,0,0,0,0,0,-1,769,1177,0,0
-448,-153,0,0,0,0,0,0,0,0,0,-1,776,1177,0,0
-441,-153,0,0,0,0,0,0,0,0,0,-1,783,1177,0,0
-434,-153,0,0,0,0,0,0,0,0,0,-1,790,1177,0,0
-427,-153,0,0,0,0,0,0,0,0,0,-1,797,1177,0,0
-420,-153,0,0,0,0,0,0,0,0,0,-1,804,1177,0,0
-413,-153,0,0,0,0,0,0,0,0,0,-1,811,1177,0,0
-406,-153,0,0,0,0,0,0,0,0,0,-1,818,1177,0,0
-399,-153,0,0,0,0,0,0,0,0,0,-1,825,1177,0,0
-392,-153,0,0,0,0,0,0,0,0,0,-1,832,1177,0,0
-385,-153,0,0,0,0,0,0,0,0,0,-1,839,1177,0,0
-378,-153,0,0,0,0,0,0,0,0,0,-1,846,1177,0,0
-371,-153,0,0,0,0,0,0,0,0,0,-1,853,1177,0,0
-364,-153,0,0,0,0,0,0,0,0,0,-1,860,1177,0,0
-357,-153,0,0,0,0,0,0,0,0,0,-1,867,1177,0,0
-350,-153,0,0,0,0,0,0,0,0,0,-1,874,1177,0,0
-343,-153,0,0,0,0,0,0,0,0,0,-1,881,1177,0,0
-336,-153,0,0,0,0,0,0,0,0,0,-1,888,1177,0,0
-329,-153,0,0,0,0,0,0,0,0,0,-1,895,1177,0,0
-322,-153,0,0,0,0,0,0,0,0,0,-1,902,1177,0,0
-315,-153,0,0,0,0,0,0,0,0,0,-1,909,1177,0,0
-308,-153,0,0,0,0,0,0,0,0,0,-1,916,1177,0,0
-301,-153,0,0,0,0,0,0,0,0,0,-1,923,1177,0,0
-294,-153,0,0,0,0,0,0,0,0,0,-1,930,1177,0,0
-287,-153,0,0,0,0,0,0,0,0,0,-1,937,1177,0,0
-280,-153,0,0,0,0,0,0,0,0,0,-1,944,1177,0,0
-273,-153,0,0,0,0,0,0,0,0,0,-1,951,1177,0,0
-266,-153,0,0,0,0,0,0,0,0,0,-1,958,1177,0,0
-259,-153,0,0,0,0,0,0,0,0,0,-1,965,1177,0,0
-252,-153,0,0,0,0,0,0,0,0,0,-1,972,1177,0,0
-245,-153,0,0,0,0,0,0,0,0,0,-1,979,1177,0,0
-238,-153,0,0,0,0,0,0,0,0,0,-1,986,1177,0,0
-231,-153,0,0,0,0,0,0,0,0,0,-1,993,1177,0,0
-224,-153,0,0,0,0,0,0,0,0,0,-1,1000,1177,0,0
-217,-153,0,0,0,0,0,0,0,0,0,-1,1007,1177,0,0
-210,-153,0,0,0,0,0,0,0,0,0,-1,1014,1177,0,0
-203,-153,0,0,0,0,0,0,0,0,0,-1,1021,1177,0,0
-196,-153,0,0,0,0,0,0,0,0,0,-1,1028,1177,0,0
-189,-153,0,0,0,0,0,0,0,0,0,-1,1035,1177,0,0
-182,-153,0,0,0,0,0,0,0,0,0,-1,1042,1177,0,0
-175,-153,0,0,0,0,0,0,0,0,0,-1,1049,1177,0,0
-168,-153,0,0,0,0,0,0,0,0,0,-1,1056,1177,0,0
-161,-153,0,0,0,0,0,0,0,0,0,-1,1063,1177,0,0
-154,-153,0,0,0,0,0,0,0,0,0,-1,1070,1177,0,0
-147,-153,0,0,0,0,0,0,0,0,0,-1,1077,1177,0,0
-140,-153,0,0,0,0,0,0,0,0,0,-1,1084,1177,0,0
-133,-153,0,0,0,0,0,0,0,0,0,-1,1091,1177,0,0
-126,-153,0,0,0,0,0,0,0,0,0,-1,1098,1177,0,0
-119,-153,0,0,0,0,0,0,0,0,0,-1,1105,1177,0,0
-112,-153,0,0,0,0,0,0,0,0,0,-1,1112,1177,0,0
-105,-153,0,0,0,0,0,0,0,0,0,-1,1119,1177,0,0
-98,-153,0,0,0,0,0,0,0,0,0,-1,1126,1177,0,0
-91,-153,0,0,0,0,0,0,0,0,0,-1,1133,1177,0,0
-84,-153,0,0,0,0,0,0,0,0,0,-1,1140,1177,0,0
-77,-153,0,0,0,0,0,0,0,0,0,-1,1147,1177,0,0
-70,-153,0,0,0,0,0,0,0,0,0,-1,1154,1177,0,0
-63,-153,0,0,0,0,0,0,0,0,0,-1,1161,1177,0,0
-56,-153,0,0,0,0,0,0,0,0,0,-1,1168,1177,0,0
-49,-153,0,0,0,0,0,0,0,0,0,-1,1175,1177,0,0
-42,-153,0,0,0,0,0,0,0,0,0,-1,1182,1177,0,0
-35,-153,0,0,0,0,0,0,0,0,0,-1,1189,1177,0,0
-28,-153,0,0,0,0,0,0,0,0,0,-1,1196,1177,0,0
-21,-153,0,0,0,0,0,0,0,0,0,-1,1203,1177,0,0
-14,-153,0,0,0,0,0,0,0,0,0,-1,1210,1177,0,0
-7,-153,0,0,0,0,0,0,0,0,0,-1,1217,1177,0,0
0,-153,0,0,0,0,0,0,0,0,0,-1,1224,1177,0,0
7,-153,0,0,0,0,0,0,0,0,0,-1,1231,1177,0,0
14,-153,0,0,0,0,0,0,0,0,0,-1,1238,1177,0,0
21,-153,0,0,0,0,0,0,0,0,0,-1,1245,1177,0,0
28,-153,0,0,0,0,0,0,0,0,0,-1,1252,1177,0,0
35,-153,0,0,0,0,0,0,0,0,0,-1,1259,1177,0,0
42,-153,0,0,0,0,0,0,0,0,0,-1,1266,1177,0,0
49,-153,0,0,0,0,0,0,0,0,0,-1,1273,1177,0,0
56,-153,0,0,0,0,0,0,0,0,0,-1,1280,1177,0,0
63,-153,0,0,0,0,0,0,0,0,0,-1,1287,1177,0,0
70,-153,0,0,0,0,0,0,0,0,0,-1,1294,1177,0,0
77,-153,0,0,0,0,0,0,0,0,0,-1,1301,1177,0,0
84,-153,0,0,0,0,0,0,0,0,0,-1,1308,1177,0,0
91,-153,0,0,0,0,0,0,0,0,0,-1,1315,1177,0,0
98,-153,0,0,0,0,0,0,0,0,0,-1,1322,1177,0,0
105,-153,0,0,0,0,0,0,0,0,0,-1,1329,1177,0,0
112,-153,0,0,0,0,0,0,0,0,0,-1,1336,1177,0,0
119,-153,0,0,0,0,0,0,0,0,0,-1,1343,1177,0,0
126,-153,0,0,0,0,0,0,0,0,0,-1,1350,1177,0,0
133,-153,0,0,0,0,0,0,0,0,0,-1,1357,1177,0,0
140,-153,0,0,0,0,0,0,0,0,0,-1,1364,1177,0,0
147,-153,0,0,0,0,0,0,0,0,0,-1,1371,1177,0,0
154,-153,0,0,0,0,0,0,0,0,0,-1,1378,1177,0,0
161,-153,0,0,0,0,0,0,0,0,0,-1,1385,1177,0,0
168,-153,0,0,0,0,0,0,0,0,0,-1,1392,1177,0,0
175,-153,0,0,0,0,0,0,0,0,0,-1,1399,1177,0,0
182,-153,0,0,0,0,0,0,0,0,0,-1,1406,1177,0,0
189,-153,0,0,0,0,0,0,0,0,0,-1,1413,1177,0,0
196,-153,0,0,0,0,0,0,0,0,0,-1,1420,1177,0,0
203,-153,0,0,0,0,0,0,0,0,0,-1,1427,1177,0,0
210,-153,0,0,0,0,0,0,0,0,0,-1,1434,1177,0,0
217,-153,0,0,0,0,0,0,0,0,0,-1,1441,1177,0,0
224,-153,0,0,0,0,0,0,0,0,0,-1,1448,1177,0,0
231,-153,0,0,0,0,0,0,0,0,0,-1,1455,1177,0,0
238,-153,0,0,0,0,0,0,0,0,0,-1,1462,1177,0,0
245,-153,0,0,0,0,0,0,0,0,0,-1,1469,1177,0,0
252,-153,0,0,0,0,0,0,0,0,0,-1,1476,1177,0,0
259,-153,0,0,0,0,0,0,0,0,0,-1,1483,1177,0,0
266,-153,0,0,0,0,0,0,0,0,0,-1,1490,1177,0,0
273,-153,0,0,0,0,0,0,0,0,0,-1,1497,1177,0,0
280,-153,0,0,0,0,0,0,0,0,0,-1,1504,1177,0,0
287,-153,0,0,0,0,0,0,0,0,0,-1,1511,1177,0,0
294,-153,0,0,0,0,0,0,0,0,0,-1,1518,1177,0,0
301,-153,0,0,0,0,0,0,0,0,0,-1,1525,1177,0,0
308,-153,0,0,0,0,0,0,0,0,0,-1,1532,1177,0,0
315,-153,0,0,0,0,0,0,0,0,0,-1,1539,1177,0,0
322,-153,0,0,0,0,0,0,0,0,0,-1,1546,1177,0,0
329,-153,0,0,0,0,0,0,0,0,0,-1,1553,1177,0,0
336,-153,0,0,0,0,0,0,0,0,0,-1,1560,1177,0,0
343,-153,0,0,0,0,0,0,0,0,0,-1,1567,1177,0,0
350,-153,0,0,0,0,0,0,0,0,0,-1,1574,1177,0,0
357,-153,0,0,0,0,0,0,0,0,0,-1,1581,1177,0,0
364,-153,0,0,0,0,0,0,0,0,0,-1,1588,1177,0,0
371,-153,0,0,0,0,0,0,0,0,0,-1,1595,1177,0,0
378,-153,0,0,0,0,0,0,0,0,0,-1,1602,1177,0,0
385,-153,0,0,0,0,0,0,0,0,0,-1,1609,1177,0,0
392,-153,0,0,0,0,0,0,0,0,0,-1,1616,1177,0,0
399,-153,0,0,0,0,0,0,0,0,0,-1,1623,1177,0,0
406,-153,0,0,0,0,0,0,0,0,0,-1,1630,1177,0,0
413,-153,0,0,0,0,0,0,0,0,0,-1,1637,1177,0,0
420,-153,0,0,0,0,0,0,0,0,0,-1,1644,1177,0,0
427,-153,0,0,0,0,0,0,0,0,0,-1,1651,1177,0,0
434,-153,0,0,0,0,0,0,0,0,0,-1,1658,1177,0,0
441,-153,0,0,0,0,0,0,0,0,0,-1,1665,1177,0,0
448,-153,0,0,0,0,0,0,0,0,0,-1,1672,1177,0,0
455,-153,0,0,0,0,0,0,0,0,0,-1,1679,1177,0,0
462,-153,0,0,0,0,0,0,0,0,0,-1,1686,1177,0,0
469,-153,0,0,0,0,0,0,0,0,0,-1,1693,1177,0,0
476,-153,0,0,0,0,0,0,0,0,0,-1,1700,1177,0,0
483,-153,0,0,0,0,0,0,0,0,0,-1,1707,1177,0,0
490,-153,0,0,0,0,0,0,0,0,0,-1,1714,1177,0,0
497,-153,0,0,0,0,0,0,0,0,0,-1,1721,1177,0,0
504,-153,0,0,0,0,0,0,0,0,0,-1,1728,1177,0,0
511,-153,0,0,0,0,0,0,0,0,0,-1,1735,1177,0,0
518,-153,0,0,0,0,0,0,0,0,0,-1,1742,1177,0,0
525,-153,0,0,0,0,0,0,0,0,0,-1,1749,1177,0,0
532,-153,0,0,0,0,0,0,0,0,0,-1,1756,1177,0,0
539,-153,0,0,0,0,0,0,0,0,0,-1,1763,1177,0,0
546,-153,0,0,0,0,0,0,0,0,0,-1,1770,1177,0,0
553,-153,0,0,0,0,0,0,0,0,0,-1,1777,1177,0,0
560,-153,0,0,0,0,0,0,0,0,0,-1,1784,1177,0,0
567,-153,0,0,0,0,0,0,0,0,0,-1,1791,1177,0,0
574,-153,0,0,0,0,0,0,0,0,0,-1,1798,1177,0,0
581,-153,0,0,0,0,0,0,0,0,0,-1,1805,1177,0,0
588,-153,0,0,0,0,0,0,0,0,0,-1,1812,1177,0,0
595,-153,0,0,0,0,0,0,0,0,0,-1,1819,1177,0,0
602,-153,0,0,0,0,0,0,0,0,0,-1,1826,1177,0,0
609,-153,0,0,0,0,0,0,0,0,0,-1,1833,1177,0,0
616,-153,0,0,0,0,0,0,0,0,0,-1,1840,1177,0,0
623,-153,0,0,0,0,0,0,0,0,0,-1,1847,1177,0,0
630,-153,0,0,0,0,0,0,0,0,0,-1,1854,1177,0,0
637,-153,30.7516,3.06006,-0.00201308,0.00078575,-0.00567314,0.00522952,-0.00645685,-0.906321,0.00675952,0.0406596,1861,1177,30.7516,-3.06009
644,-153,30.7784,2.95618,-0.000952736,3.90261e-05,-0.00364034,0.00321711,-0.00413082,-0.853091,0.00425325,0.0389242,1868,1177,30.7784,-2.95619
651,-153,30.7495,2.8208,9.88961e-05,-0.000296352,-0.00234772,0.00225729,-0.00245475,-0.743409,0.00272129,0.0319202,1875,1177,30.7495,-2.82079
658,-153,30.778,3.06323,0.00115747,-0.000545007,-0.00147241,0.002007,-0.00139453,-0.523308,0.00197446,0.0366828,1882,1177,30.778,-3.06326
665,-153,30.7366,3.28784,0.00201035,-0.000586379,-0.00103683,0.00237354,-0.000949572,-0.336934,0.00197644,0.0393682,1889,1177,30.7365,-3.2878
672,-153,30.745,3.15503,0.00235548,-0.000593945,-0.000837926,0.00257691,-0.000815374,-0.258353,0.00204466,0.0371445,1896,1177,30.7449,-3.15505
679,-153,30.7164,2.94934,0.00198219,-0.000580128,-0.000580266,0.00210747,-0.00070541,-0.212641,0.00168992,0.0303065,1903,1177,30.7165,-2.94931
686,-153,30.7727,2.95288,0.00142134,-0.000607287,-0.000374975,0.00148843,-0.000674379,-0.177051,0.00127784,0.0176776,1910,1177,30.7727,-2.95282
693,-153,30.8699,2.90564,0.000982962,-0.000531368,-0.000138544,0.000995532,-0.000543938,-0.0904874,0.000901471,0.0252079,1917,1177,30.8698,-2.90562
700,-153,30.9524,2.79346,0,0,0,0,0,0,0,-1,1924,1177,30.9523,-2.79343
707,-153,27.4587,6.46802,0,0,0,0,0,0,0,-1,1931,1177,27.4587,-6.46801
714,-153,27.8135,5.86755,-0.000743727,-0.000219489,9.50651e-05,-0.000202783,-0.000760433,1.39683,0.000454693,0.0447588,1938,1177,27.8135,-5.86759
721,-153,27.8195,5.66541,-0.0012022,-3.61478e-05,0.000177507,-9.72487e-06,-0.00122862,1.42303,0.000815859,0.0325397,1945,1177,27.8194,-5.66541
728,-153,27.9187,5.47668,-0.00155883,0.000243051,0.000323449,0.000299353,-0.00161513,1.39846,0.00118917,0.039971,1952,1177,27.9187,-5.4767
735,-153,27.6083,5.37158,-0.00172412,0.000436994,0.000270683,0.000470381,-0.0017575,1.44807,0.00135594,0.0197841,1959,1177,27.6083,-5.37163
742,-153,27.6283,5.18469,-0.0008868,0.000714577,4.59332e-05,0.000715893,-0.000888117,1.54214,0.000927853,0.0142134,1966,1177,27.6283,-5.18469
749,-153,27.6064,4.97241,0.00117579,0.00171504,-0.000275659,0.00183101,0.00105982,-1.17256,0.0010615,0.0157291,1973,1177,27.6065,-4.97235
756,-153,27.5828,4.75867,0.00468586,0.00441368,-0.000692272,0.00525529,0.00384425,-0.688345,0.00314068,0.0114549,1980,1177,27.5827,-4.75863
763,-153,27.5546,4.57739,0.00906063,0.00711804,-0.00140779,0.00979968,0.00637899,-0.483427,0.00574314,0.011078,1987,1177,27.5546,-4.57744
770,-153,27.5557,4.35999,0.0144166,0.0105771,-0.00205647,0.0153102,0.00968357,-0.409882,0.00894217,0.0109434,1994,1177,27.5557,-4.36001
777,-153,27.5487,4.15784,0.0210843,0.0153032,-0.00275941,0.02219,0.0141975,-0.381094,0.0129773,0.0220274,2001,1177,27.5487,-4.15783
784,-153,27.3553,3.72876,0.0291938,0.0215829,-0.00330144,0.0304263,0.0203504,-0.3573,0.0178974,0.0423969,2008,1177,27.3553,-3.72875
791,-153,27.1904,3.34753,0.0387643,0.0298538,-0.00352955,0.039993,0.0286251,-0.33499,0.0237957,0.0456733,2015,1177,27.1905,-3.34748
798,-153,28.0698,4.02295,0.0501661,0.0407238,-0.00336173,0.0512407,0.0396493,-0.309386,0.031027,0.0455957,2022,1177,28.0699,-4.02293
805,-153,28.9241,4.83313,0.0632726,0.0550977,-0.00241967,0.0639351,0.0544352,-0.267248,0.0398362,0.0441884,2029,1177,28.9241,-4.83313
812,-153,0,0,0,0,0,0,0,0,0,-1,2036,1177,0,0
-700,-160,0,0,0,0,0,0,0,0,0,-1,524,1184,0,0
-693,-160,0,0,0,0,0,0,0,0,0,-1,531,1184,0,0
-686,-160,-18.4258,0.880493,0.0488657,0.0296707,-0.0821888,0.122016,-0.0434791,-0.727274,0.0990698,0.0435828,538,1184,-18.4258,-0.880495
-679,-160,-17.7257,0.38855,0.039556,0.0251424,-0.0593103,0.0920957,-0.0273973,-0.72494,0.0722816,0.0450461,545,1184,-17.7257,-0.388518
-672,-160,-17.4756,0.0600586,0.0315364,0.0212621,-0.0426255,0.0693331,-0.0165347,-0.725428,0.052607,0.0420243,552,1184,-17.4756,-0.0600783
-665,-160,-17.3862,0.496338,0.0247076,0.0178697,-0.0301594,0.0516413,-0.00906396,-0.728958,0.0378127,0.0447929,559,1184,-17.3862,-0.496332
-658,-160,-17.6804,1.39441,0,0,0,0,0,0,0,-1,566,1184,-17.6804,-1.39446
-651,-160,-17.7336,1.66846,0,0,0,0,0,0,0,-1,573,1184,-17.7337,-1.66841
-644,-160,-17.7818,1.73315,0.00995924,0.0097066,-0.0089536,0.0187874,0.000878427,-0.778345,0.0122426,0.035049,580,1184,-17.7818,-1.73318
-637,-160,-17.8358,1.78882,0.00672428,0.00752761,-0.0055464,0.0126869,0.00156502,-0.821544,0.00798752,0.0137567,587,1184,-17.8358,-1.78876
-630,-160,-17.8724,1.99585,0.00330766,0.00548705,-0.00169215,0.00641001,0.00238469,-1.07146,0.00374101,0.00866957,594,1184,-17.8724,-1.99581
-623,-160,-17.9114,2.23254,0.00103618,0.00298606,-0.000115951,0.00299293,0.00102931,-1.51161,0.00175581,0.0117888,601,1184,-17.9114,-2.23257
-616,-160,-17.9238,2.49585,-0.000451566,0.00200684,-0.000452908,0.00208762,-0.00053235,-1.39429,0.00159902,0.0106385,608,1184,-17.9238,-2.49582
-609,-160,-17.9095,2.77112,-0.00152888,0.00145881,-0.000917628,0.00171813,-0.0017882,-1.29537,0.00202452,0.0129309,615,1184,-17.9095,-2.77117
-602,-160,-17.8826,3.09692,-0.00198785,0.00100145,-0.00139623,0.00155215,-0.00253855,-1.19511,0.00238454,0.0259328,622,1184,-17.8827,-3.09696
-595,-160,-17.8981,3.39832,-0.0021874,0.000491593,-0.00160939,0.00124599,-0.0029418,-1.13246,0.00248302,0.0364591,629,1184,-17.8981,-3.39836
-588,-160,-18.1296,3.53406,-0.00231098,0.000539758,-0.00148855,0.00117533,-0.00294655,-1.16726,0.00245191,0.0333103,636,1184,-18.1296,-3.53405
-581,-160,-17.8248,3.69739,0,0,0,0,0,0,0,-1,643,1184,-17.8249,-3.69742
-574,-160,-17.754,3.82483,0,0,0,0,0,0,0,-1,650,1184,-17.754,-3.82488
-567,-160,-21.339,0.631348,0,0,0,0,0,0,0,-1,657,1184,-21.339,-0.631403
-560,-160,-21.3433,0.819702,-0.00175866,0.00164667,-0.0010127,0.00192507,-0.00203707,-1.30251,0.00228785,0.0390973,664,1184,-21.3433,-0.819659
-553,-160,-21.3709,0.969116,-0.0014914,0.00208063,-0.000814219,0.00225747,-0.00166825,-1.35693,0.00227501,0.0376553,671,1184,-21.3709,-0.96909
-546,-160,-21.4124,1.07458,-0.000982754,0.00257453,-0.000499399,0.00264331,-0.00105153,-1.43393,0.00219822,0.0382349,678,1184,-21.4124,-1.07462
-539,-160,-21.4575,1.12744,-0.000429447,0.00317342,-1.44422e-05,0.00317348,-0.000429504,-1.56679,0.00227239,0.0440144,685,1184,-21.4575,-1.12739
-532,-160,-21.3743,1.15149,0.000315277,0.00397822,0.000618862,0.00407996,0.000213544,1.40787,0.00265166,0.0458763,692,1184,-21.3743,-1.15153
-525,-160,-21.3232,1.31909,0.00106737,0.00499898,0.00115566,0.00531352,0.000752838,1.30506,0.00331997,0.0418403,699,1184,-21.3232,-1.31906
-518,-160,-21.3265,1.30835,0.000583002,0.00677872,0.00113164,0.00697894,0.00038278,1.39568,0.00453043,0.0397023,706,1184,-21.3265,-1.30837
-511,-160,0,0,0,0,0,0,0,0,0,-1,713,1184,0,0
-504,-160,0,0,0,0,0,0,0,0,0,-1,720,1184,0,0
-497,-160,0,0,0,0,0,0,0,0,0,-1,727,1184,0,0
-490,-160,0,0,0,0,0,0,0,0,0,-1,734,1184,0,0
-483,-160,0,0,0,0,0,0,0,0,0,-1,741,1184,0,0
-476,-160,0,0,0,0,0,0,0,0,0,-1,748,1184,0,0
-469,-160,0,0,0,0,0,0,0,0,0,-1,755,1184,0,0
-462,-160,0,0,0,0,0,0,0,0,0,-1,762,1184,0,0
-455,-160,0,0,0,0,0,0,0,0,0,-1,769,1184,0,0
-448,-160,0,0,0,0,0,0,0,0,0,-1,776,1184,0,0
-441,-160,0,0,0,0,0,0,0,0,0,-1,783,1184,0,0
-434,-160,0,0,0,0,0,0,0,0,0,-1,790,1184,0,0
-427,-160,0,0,0,0,0,0,0,0,0,-1,797,1184,0,0
-420,-160,0,0,0,0,0,0,0,0,0,-1,804,1184,0,0
-413,-160,0,0,0,0,0,0,0,0,0,-1,811,1184,0,0
-406,-160,0,0,0,0,0,0,0,0,0,-1,818,1184,0,0
-399,-160,0,0,0,0,0,0,0,0,0,-1,825,1184,0,0
-392,-160,0,0,0,0,0,0,0,0,0,-1,832,1184,0,0
-385,-160,0,0,0,0,0,0,0,0,0,-1,839,1184,0,0
-378,-160,0,0,0,0,0,0,0,0,0,-1,846,1184,0,0
-371,-160,0,0,0,0,0,0,0,0,0,-1,853,1184,0,0
-364,-160,0,0,0,0,0,0,0,0,0,-1,860,1184,0,0
-357,-160,0,0,0,0,0,0,0,0,0,-1,867,1184,0,0
-350,-160,0,0,0,0,0,0,0,0,0,-1,874,1184,0,0
-343,-160,0,0,0,0,0,0,0,0,0,-1,881,1184,0,0
-336,-160,0,0,0,0,0,0,0,0,0,-1,888,1184,0,0
-329,-160,0,0,0,0,0,0,0,0,0,-1,895,1184,0,0
-322,-160,0,0,0,0,0,0,0,0,0,-1,902,1184,0,0
-315,-160,0,0,0,0,0,0,0,0,0,-1,909,1184,0,0
-308,-160,0,0,0,0,0,0,0,0,0,-1,916,1184,0,0
-301,-160,0,0,0,0,0,0,0,0,0,-1,923,1184,0,0
-294,-160,0,0,0,0,0,0,0,0,0,-1,930,1184,0,0
-287,-160,0,0,0,0,0,0,0,0,0,-1,937,1184,0,0
-280,-160,0,0,0,0,0,0,0,0,0,-1,944,1184,0,0
-273,-160,0,0,0,0,0,0,0,0,0,-1,951,1184,0,0
-266,-160,0,0,0,0,0,0,0,0,0,-1,958,1184,0,0
-259,-160,0,0,0,0,0,0,0,0,0,-1,965,1184,0,0
-252,-160,0,0,0,0,0,0,0,0,0,-1,972,1184,0,0
-245,-160,0,0,0,0,0,0,0,0,0,-1,979,1184,0,0
-238,-160,0,0,0,0,0,0,0,0,0,-1,986,1184,0,0
-231,-160,0,0,0,0,0,0,0,0,0,-1,993,1184,0,0
-224,-160,0,0,0,0,0,0,0,0,0,-1,1000,1184,0,0
-217,-160,0,0,0,0,0,0,0,0,0,-1,1007,1184,0,0
-210,-160,0,0,0,0,0,0,0,0,0,-1,1014,1184,0,0
-203,-160,0,0,0,0,0,0,0,0,0,-1,1021,1184,0,0
-196,-160,0,0,0,0,0,0,0,0,0,-1,1028,1184,0,0
-189,-160,0,0,0,0,0,0,0,0,0,-1,1035,1184,0,0
-182,-160,0,0,0,0,0,0,0,0,0,-1,1042,1184,0,0
-175,-160,0,0,0,0,0,0,0,0,0,-1,1049,1184,0,0
-168,-160,0,0,0,0,0,0,0,0,0,-1,1056,1184,0,0
-161,-160,0,0,0,0,0,0,0,0,0,-1,1063,1184,0,0
-154,-160,0,0,0,0,0,0,0,0,0,-1,1070,1184,0,0
-147,-160,0,0,0,0,0,0,0,0,0,-1,1077,1184,0,0
-140,-160,0,0,0,0,0,0,0,0,0,-1,1084,1184,0,0
-133,-160,0,0,0,0,0,0,0,0,0,-1,1091,1184,0,0
-126,-160,0,0,0,0,0,0,0,0,0,-1,1098,1184,0,0
-119,-160,0,0,0,0,0,0,0,0,0,-1,1105,1184,0,0
-112,-160,0,0,0,0,0,0,0,0,0,-1,1112,1184,0,0
-105,-160,0,0,0,0,0,0,0,0,0,-1,1119,1184,0,0
-98,-160,0,0,0,0,0,0,0,0,0,-1,1126,1184,0,0
-91,-160,0,0,0,0,0,0,0,0,0,-1,1133,1184,0,0
-84,-160,0,0,0,0,0,0,0,0,0,-1,1140,1184,0,0
-77,-160,0,0,0,0,0,0,0,0,0,-1,1147,1184,0,0
-70,-160,0,0,0,0,0,0,0,0,0,-1,1154,1184,0,0
-63,-160,0,0,0,0,0,0,0,0,0,-1,1161,1184,0,0
-56,-160,0,0,0,0,0,0,0,0,0,-1,1168,1184,0,0
-49,-160,0,0,0,0,0,0,0,0,0,-1,1175,1184,0,0
-42,-160,0,0,0,0,0,0,0,0,0,-1,1182,1184,0,0
-35,-160,0,0,0,0,0,0,0,0,0,-1,1189,1184,0,0
-28,-160,0,0,0,0,0,0,0,0,0,-1,1196,1184,0,0
-21,-160,0,0,0,0,0,0,0,0,0,-1,1203,1184,0,0
-14,-160,0,0,0,0,0,0,0,0,0,-1,1210,1184,0,0
-7,-160,0,0,0,0,0,0,0,0,0,-1,1217,1184,0,0
0,-160,0,0,0,0,0,0,0,0,0,-1,1224,1184,0,0
7,-160,0,0,0,0,0,0,0,0,0,-1,1231,1184,0,0
14,-160,0,0,0,0,0,0,0,0,0,-1,1238,1184,0,0
21,-160,0,0,0,0,0,0,0,0,0,-1,1245,1184,0,0
28,-160,0,0,0,0,0,0,0,0,0,-1,1252,1184,0,0
35,-160,0,0,0,0,0,0,0,0,0,-1,1259,1184,0,0
42,-160,0,0,0,0,0,0,0,0,0,-1,1266,1184,0,0
49,-160,0,0,0,0,0,0,0,0,0,-1,1273,1184,0,0
56,-160,0,0,0,0,0,0,0,0,0,-1,1280,1184,0,0
63,-160,0,0,0,0,0,0,0,0,0,-1,1287,1184,0,0
70,-160,0,0,0,0,0,0,0,0,0,-1,1294,1184,0,0
77,-160,0,0,0,0,0,0,0,0,0,-1,1301,1184,0,0
84,-160,0,0,0,0,0,0,0,0,0,-1,1308,1184,0,0
91,-160,0,0,0,0,0,0,0,0,0,-1,1315,1184,0,0
98,-160,0,0,0,0,0,0,0,0,0,-1,1322,1184,0,0
105,-160,0,0,0,0,0,0,0,0,0,-1,1329,1184,0,0
112,-160,0,0,0,0,0,0,0,0,0,-1,1336,1184,0,0
119,-160,0,0,0,0,0,0,0,0,0,-1,1343,1184,0,0
126,-160,0,0,0,0,0,0,0,0,0,-1,1350,1184,0,0
133,-160,0,0,0,0,0,0,0,0,0,-1,1357,1184,0,0
140,-160,0,0,0,0,0,0,0,0,0,-1,1364,1184,0,0
147,-160,0,0,0,0,0,0,0,0,0,-1,1371,1184,0,0
154,-160,0,0,0,0,0,0,0,0,0,-1,1378,1184,0,0
161,-160,0,0,0,0,0,0,0,0,0,-1,1385,1184,0,0
168,-160,0,0,0,0,0,0,0,0,0,-1,1392,1184,0,0
175,-160,0,0,0,0,0,0,0,0,0,-1,1399,1184,0,0
182,-160,0,0,0,0,0,0,0,0,0,-1,1406,1184,0,0
189,-160,0,0,0,0,0,0,0,0,0,-1,1413,1184,0,0
196,-160,0,0,0,0,0,0,0,0,0,-1,1420,1184,0,0
203,-160,0,0,0,0,0,0,0,0,0,-1,1427,1184,0,0
210,-160,0,0,0,0,0,0,0,0,0,-1,1434,1184,0,0
217,-160,0,0,0,0,0,0,0,0,0,-1,1441,1184,0,0
224,-160,0,0,0,0,0,0,0,0,0,-1,1448,1184,0,0
231,-160,0,0,0,0,0,0,0,0,0,-1,1455,1184,0,0
238,-160,0,0,0,0,0,0,0,0,0,-1,1462,1184,0,0
245,-160,0,0,0,0,0,0,0,0,0,-1,1469,1184,0,0
252,-160,0,0,0,0,0,0,0,0,0,-1,1476,1184,0,0
259,-160,0,0,0,0,0,0,0,0,0,-1,1483,1184,0,0
266,-160,0,0,0,0,0,0,0,0,0,-1,1490,1184,0,0
273,-160,0,0,0,0,0,0,0,0,0,-1,1497,1184,0,0
280,-160,0,0,0,0,0,0,0,0,0,-1,1504,1184,0,0
287,-160,0,0,0,0,0,0,0,0,0,-1,1511,1184,0,0
294,-160,0,0,0,0,0,0,0,0,0,-1,1518,1184,0,0
301,-160,0,0,0,0,0,0,0,0,0,-1,1525,1184,0,0
308,-160,0,0,0,0,0,0,0,0,0,-1,1532,1184,0,0
315,-160,0,0,0,0,0,0,0,0,0,-1,1539,1184,0,0
322,-160,0,0,0,0,0,0,0,0,0,-1,1546,1184,0,0
329,-160,0,0,0,0,0,0,0,0,0,-1,1553,1184,0,0
336,-160,0,0,0,0,0,0,0,0,0,-1,1560,1184,0,0
343,-160,0,0,0,0,0,0,0,0,0,-1,1567,1184,0,0
350,-160,0,0,0,0,0,0,0,0,0,-1,1574,1184,0,0
357,-160,0,0,0,0,0,0,0,0,0,-1,1581,1184,0,0
364,-160,0,0,0,0,0,0,0,0,0,-1,1588,1184,0,0
371,-160,0,0,0,0,0,0,0,0,0,-1,1595,1184,0,0
378,-160,0,0,0,0,0,0,0,0,0,-1,1602,1184,0,0
385,-160,0,0,0,0,0,0,0,0,0,-1,1609,1184,0,0
392,-160,0,0,0,0,0,0,0,0,0,-1,1616,1184,0,0
399,-160,0,0,0,0,0,0,0,0,0,-1,1623,1184,0,0
406,-160,0,0,0,0,0,0,0,0,0,-1,1630,1184,0,0
413,-160,0,0,0,0,0,0,0,0,0,-1,1637,1184,0,0
420,-160,0,0,0,0,0,0,0,0,0,-1,1644,1184,0,0
427,-160,0,0,0,0,0,0,0,0,0,-1,1651,1184,0,0
434,-160,0,0,0,0,0,0,0,0,0,-1,1658,1184,0,0
441,-160,0,0,0,0,0,0,0,0,0,-1,1665,1184,0,0
448,-160,0,0,0,0,0,0,0,0,0,-1,1672,1184,0,0
455,-160,0,0,0,0,0,0,0,0,0,-1,1679,1184,0,0
462,-160,0,0,0,0,0,0,0,0,0,-1,1686,1184,0,0
469,-160,0,0,0,0,0,0,0,0,0,-1,1693,1184,0,0
476,-160,0,0,0,0,0,0,0,0,0,-1,1700,1184,0,0
483,-160,0,0,0,0,0,0,0,0,0,-1,1707,1184,0,0
490,-160,0,0,0,0,0,0,0,0,0,-1,1714,1184,0,0
497,-160,0,0,0,0,0,0,0,0,0,-1,1721,1184,0,0
504,-160,0,0,0,0,0,0,0,0,0,-1,1728,1184,0,0
511,-160,0,0,0,0,0,0,0,0,0,-1,1735,1184,0,0
518,-160,0,0,0,0,0,0,0,0,0,-1,1742,1184,0,0
525,-160,0,0,0,0,0,0,0,0,0,-1,1749,1184,0,0
532,-160,0,0,0,0,0,0,0,0,0,-1,1756,1184,0,0
539,-160,0,0,0,0,0,0,0,0,0,-1,1763,1184,0,0
546,-160,0,0,0,0,0,0,0,0,0,-1,1770,1184,0,0
553,-160,0,0,0,0,0,0,0,0,0,-1,1777,1184,0,0
560,-160,0,0,0,0,0,0,0,0,0,-1,1784,1184,0,0
567,-160,0,0,0,0,0,0,0,0,0,-1,1791,1184,0,0
574,-160,0,0,0,0,0,0,0,0,0,-1,1798,1184,0,0
581,-160,0,0,0,0,0,0,0,0,0,-1,1805,1184,0,0
588,-160,0,0,0,0,0,0,0,0,0,-1,1812,1184,0,0
595,-160,0,0,0,0,0,0,0,0,0,-1,1819,1184,0,0
602,-160,0,0,0,0,0,0,0,0,0,-1,1826,1184,0,0
609,-160,0,0,0,0,0,0,0,0,0,-1,1833,1184,0,0
616,-160,0,0,0,0,0,0,0,0,0,-1,1840,1184,0,0
623,-160,0,0,0,0,0,0,0,0,0,-1,1847,1184,0,0
630,-160,0,0,0,0,0,0,0,0,0,-1,1854,1184,0,0
637,-160,30.7439,3.11816,-0.00338195,0.00132973,-0.00543287,0.00489555,-0.00694777,-0.989976,0.00687188,0.0420652,1861,1184,30.7439,-3.11821
644,-160,30.7421,2.93274,-0.00155866,0.000416174,-0.00354867,0.00311224,-0.00425473,-0.921091,0.00427034,0.0427864,1868,1184,30.7421,-2.93274
651,-160,30.6852,2.80396,0.000154422,-9.62826e-05,-0.00228289,0.0023154,-0.00225726,-0.757971,0.0026401,0.0397727,1875,1184,30.6851,-2.80401
658,-160,30.7073,2.89734,0.00175586,-0.000527963,-0.00142608,0.00244088,-0.00121298,-0.447803,0.00214889,0.0409259,1882,1184,30.7072,-2.89737
665,-160,30.8545,3.09729,0.00287605,-0.000714837,-0.00102654,0.00314879,-0.000987581,-0.259693,0.00249443,0.0388981,1889,1184,30.8545,-3.09731
672,-160,30.8198,2.99475,0.0032278,-0.00085024,-0.000805785,0.00338124,-0.00100368,-0.188173,0.00265279,0.0346816,1896,1184,30.8198,-2.99475
679,-160,30.7688,2.90735,0.00274976,-0.000920495,-0.000503406,0.00281755,-0.000988289,-0.133865,0.00228034,0.0262438,1903,1184,30.7688,-2.90735
686,-160,30.8196,2.92859,0.00210072,-0.00100682,-0.00027307,0.00212453,-0.00103064,-0.0869851,0.00185777,0.0157219,1910,1184,30.8195,-2.92859
693,-160,30.8669,2.88928,0.00158124,-0.000960085,-1.28477e-06,0.00158124,-0.000960086,-0.000505548,0.00148178,0.0416749,1917,1184,30.867,-2.88928
700,-160,30.9354,2.85596,0,0,0,0,0,0,0,-1,1924,1184,30.9354,-2.85594
707,-160,24.5115,6.27405,0,0,0,0,0,0,0,-1,1931,1184,24.5115,-6.27401
714,-160,27.4532,5.7793,0,0,0,0,0,0,0,-1,1938,1184,27.4533,-5.7793
721,-160,27.6661,5.55042,-0.00105566,-0.000420182,0.000309392,-0.000294433,-0.00118141,1.18475,0.000710109,0.0269102,1945,1184,27.6661,-5.55045
728,-160,27.6576,5.47131,-0.0015954,-0.000101341,0.000485056,4.23217e-05,-0.00173906,1.28285,0.00117373,0.0243607,1952,1184,27.6576,-5.47128
735,-160,27.4175,5.39221,-0.00175334,0.000121154,0.00046453,0.000229957,-0.00186214,1.34072,0.00132475,0.0154478,1959,1184,27.4174,-5.39227
742,-160,27.4092,5.17322,-0.000661897,0.000315015,0.000176323,0.000345865,-0.000692748,1.39758,0.00061069,0.0146558,1966,1184,27.4091,-5.17323
749,-160,27.4012,4.96155,0.00188472,0.00109972,-0.000268475,0.00196776,0.00101669,-0.299958,0.0011363,0.0158282,1973,1184,27.4013,-4.96156
756,-160,27.3711,4.75598,0.00607234,0.0035707,-0.000864344,0.00634193,0.00330111,-0.302337,0.00366254,0.0111066,1980,1184,27.3711,-4.75598
763,-160,27.326,4.5498,0.0112011,0.00580347,-0.00175152,0.0117196,0.00528492,-0.287836,0.00677718,0.0120447,1987,1184,27.3261,-4.54986
770,-160,27.2802,4.28943,0.0174829,0.00876794,-0.00263913,0.0182198,0.00803105,-0.272284,0.0105438,0.0204076,1994,1184,27.2801,-4.28937
777,-160,27.3531,4.06604,0.0253644,0.0129363,-0.0036586,0.0263615,0.0119392,-0.266057,0.0152423,0.0332483,2001,1184,27.3531,-4.06607
784,-160,27.3068,3.72778,0.0349565,0.0186004,-0.00460713,0.0361649,0.017392,-0.256519,0.0208849,0.0419592,2008,1184,27.3067,-3.72784
791,-160,27.9714,3.54871,0.0463667,0.0262725,-0.00537829,0.0477157,0.0249235,-0.245746,0.0275578,0.0454425,2015,1184,27.9715,-3.54869
798,-160,28.6157,4.02979,0.0600551,0.0366694,-0.00591841,0.0614676,0.0352569,-0.234281,0.0356162,0.0430228,2022,1184,28.6158,-4.02976
805,-160,29.3389,4.74133,0.0759194,0.0509126,-0.00586652,0.0772273,0.0496048,-0.21935,0.0451853,0.0439229,2029,1184,29.3389,-4.74134
812,-160,0,0,0,0,0,0,0,0,0,-1,2036,1184,0,0
-700,-167,0,0,0,0,0,0,0,0,0,-1,524,1191,0,0
-693,-167,0,0,0,0,0,0,0,0,0,-1,531,1191,0,0
-686,-167,-17.7004,0.699707,0.0346713,0.033625,-0.0811733,0.115323,-0.0470269,-0.782176,0.0964578,0.0446217,538,1191,-17.7004,-0.699722
-679,-167,-16.3412,0.0396729,0.0284477,0.0285122,-0.0572335,0.0857134,-0.0287535,-0.78568,0.0687608,0.0452379,545,1191,-16.3412,-0.0397248
-672,-167,-17.2168,-0.427368,0,0,0,0,0,0,0,-1,552,1191,-17.2168,0.427405
-665,-167,-16.7284,0.221924,0,0,0,0,0,0,0,-1,559,1191,-16.7284,-0.221983
-658,-167,-16.24,0.871338,0,0,0,0,0,0,0,-1,566,1191,-16.24,-0.87137
-651,-167,-17.7415,1.21924,0,0,0,0,0,0,0,-1,573,1191,-17.7414,-1.21925
-644,-167,-17.511,1.69263,0.00804724,0.0110329,-0.00754462,0.017231,0.00184918,-0.88307,0.0109232,0.0369425,580,1191,-17.5111,-1.69264
-637,-167,-17.5785,1.7533,0.00558264,0.00858309,-0.00447575,0.0118034,0.00236238,-0.947108,0.00721159,0.0164069,587,1191,-17.5785,-1.75336
-630,-167,-17.6236,1.97791,0.00277023,0.00632391,-0.000803763,0.00649725,0.00259689,-1.35839,0.00377627,0.00900219,594,1191,-17.6236,-1.97796
-623,-167,-17.6376,2.21252,0.000940753,0.00349863,0.000493966,0.0035907,0.000848676,1.38651,0.00216703,0.0114336,601,1191,-17.6376,-2.21257
-616,-167,-17.6663,2.49426,-0.000498645,0.00242223,-0.000201296,0.00243604,-0.000512452,-1.50231,0.00181906,0.0151936,608,1191,-17.6662,-2.49421
-609,-167,-17.6591,2.77307,-0.00177627,0.00172074,-0.000864948,0.00192298,-0.00197851,-1.34111,0.0022526,0.014121,615,1191,-17.6591,-2.77305
-602,-167,-17.6649,3.00146,-0.00246306,0.00115259,-0.00140396,0.00163373,-0.0029442,-1.24064,0.00267892,0.0147049,622,1191,-17.6649,-3.00143
-595,-167,-17.6423,3.27747,-0.00281701,0.000536395,-0.00161892,0.00119041,-0.00347102,-1.18686,0.00279658,0.0257647,629,1191,-17.6423,-3.27746
-588,-167,-17.7153,3.5293,-0.00296876,0.000575775,-0.00152504,0.0011416,-0.00353459,-1.21552,0.00281517,0.026421,636,1191,-17.7153,-3.5293
-581,-167,-17.7246,3.67981,0,0,0,0,0,0,0,-1,643,1191,-17.7246,-3.6798
-574,-167,-17.9075,2.69775,0,0,0,0,0,0,0,-1,650,1191,-17.9075,-2.69772
-567,-167,-19.6861,1.83508,0,0,0,0,0,0,0,-1,657,1191,-19.6861,-1.83511
-560,-167,-21.3174,0.846069,-0.002064,0.0014812,-0.00116026,0.00182717,-0.00240997,-1.28101,0.00245401,0.042223,664,1191,-21.3174,-0.846063
-553,-167,-21.3555,1.02332,-0.00165882,0.00180035,-0.000952855,0.00204546,-0.00190393,-1.31902,0.00228067,0.0366001,671,1191,-21.3555,-1.02335
-546,-167,-21.405,1.04504,-0.000950392,0.00215102,-0.000649722,0.00228163,-0.001081,-1.37241,0.00198224,0.0351878,678,1191,-21.405,-1.04501
-539,-167,-21.4276,1.18848,0,0,0,0,0,0,0,-1,685,1191,-21.4275,-1.18851
-532,-167,-21.063,1.28577,0,0,0,0,0,0,0,-1,692,1191,-21.063,-1.28572
-525,-167,-21.3008,1.32703,0.00186412,0.00372626,0.00103577,0.00418792,0.00140245,1.15151,0.00246145,0.0445506,699,1191,-21.3009,-1.32705
-518,-167,-21.3463,1.10925,0.00134061,0.00511511,0.00118277,0.00545511,0.00100061,1.29088,0.00335334,0.0428895,706,1191,-21.3462,-1.10922
-511,-167,0,0,0,0,0,0,0,0,0,-1,713,1191,0,0
-504,-167,0,0,0,0,0,0,0,0,0,-1,720,1191,0,0
-497,-167,0,0,0,0,0,0,0,0,0,-1,727,1191,0,0
-490,-167,0,0,0,0,0,0,0,0,0,-1,734,1191,0,0
-483,-167,0,0,0,0,0,0,0,0,0,-1,741,1191,0,0
-476,-167,0,0,0,0,0,0,0,0,0,-1,748,1191,0,0
-469,-167,0,0,0,0,0,0,0,0,0,-1,755,1191,0,0
-462,-167,0,0,0,0,0,0,0,0,0,-1,762,1191,0,0
-455,-167,0,0,0,0,0,0,0,0,0,-1,769,1191,0,0
-448,-167,0,0,0,0,0,0,0,0,0,-1,776,1191,0,0
-441,-167,0,0,0,0,0,0,0,0,0,-1,783,1191,0,0
-434,-167,0,0,0,0,0,0,0,0,0,-1,790,1191,0,0
-427,-167,0,0,0,0,0,0,0,0,0,-1,797,1191,0,0
-420,-167,0,0,0,0,0,0,0,0,0,-1,804,1191,0,0
-413,-167,0,0,0,0,0,0,0,0,0,-1,811,1191,0,0
-406,-167,0,0,0,0,0,0,0,0,0,-1,818,1191,0,0
-399,-167,0,0,0,0,0,0,0,0,0,-1,825,1191,0,0
-392,-167,0,0,0,0,0,0,0,0,0,-1,832,1191,0,0
-385,-167,0,0,0,0,0,0,0,0,0,-1,839,1191,0,0
-378,-167,0,0,0,0,0,0,0,0,0,-1,846,1191,0,0
-371,-167,0,0,0,0,0,0,0,0,0,-1,853,1191,0,0
-364,-167,0,0,0,0,0,0,0,0,0,-1,860,1191,0,0
-357,-167,0,0,0,0,0,0,0,0,0,-1,867,1191,0,0
-350,-167,0,0,0,0,0,0,0,0,0,-1,874,1191,0,0
-343,-167,0,0,0,0,0,0,0,0,0,-1,881,1191,0,0
-336,-167,0,0,0,0,0,0,0,0,0,-1,888,1191,0,0
-329,-167,0,0,0,0,0,0,0,0,0,-1,895,1191,0,0
-322,-167,0,0,0,0,0,0,0,0,0,-1,902,1191,0,0
-315,-167,0,0,0,0,0,0,0,0,0,-1,909,1191,0,0
-308,-167,0,0,0,0,0,0,0,0,0,-1,916,1191,0,0
-301,-167,0,0,0,0,0,0,0,0,0,-1,923,1191,0,0
-294,-167,0,0,0,0,0,0,0,0,0,-1,930,1191,0,0
-287,-167,0,0,0,0,0,0,0,0,0,-1,937,1191,0,0
-280,-167,0,0,0,0,0,0,0,0,0,-1,944,1191,0,0
-273,-167,0,0,0,0,0,0,0,0,0,-1,951,1191,0,0
-266,-167,0,0,0,0,0,0,0,0,0,-1,958,1191,0,0
-259,-167,0,0,0,0,0,0,0,0,0,-1,965,1191,0,0
-252,-167,0,0,0,0,0,0,0,0,0,-1,972,1191,0,0
-245,-167,0,0,0,0,0,0,0,0,0,-1,979,1191,0,0
-238,-167,0,0,0,0,0,0,0,0,0,-1,986,1191,0,0
-231,-167,0,0,0,0,0,0,0,0,0,-1,993,1191,0,0
-224,-167,0,0,0,0,0,0,0,0,0,-1,1000,1191,0,0
-217,-167,0,0,0,0,0,0,0,0,0,-1,1007,1191,0,0
-210,-167,0,0,0,0,0,0,0,0,0,-1,1014,1191,0,0
-203,-167,0,0,0,0,0,0,0,0,0,-1,1021,1191,0,0
-196,-167,0,0,0,0,0,0,0,0,0,-1,1028,1191,0,0
-189,-167,0,0,0,0,0,0,0,0,0,-1,1035,1191,0,0
-182,-167,0,0,0,0,0,0,0,0,0,-1,1042,1191,0,0
-175,-167,0,0,0,0,0,0,0,0,0,-1,1049,1191,0,0
-168,-167,0,0,0,0,0,0,0,0,0,-1,1056,1191,0,0
-161,-167,0,0,0,0,0,0,0,0,0,-1,1063,1191,0,0
-154,-167,0,0,0,0,0,0,0,0,0,-1,1070,1191,0,0
-147,-167,0,0,0,0,0,0,0,0,0,-1,1077,1191,0,0
-140,-167,0,0,0,0,0,0,0,0,0,-1,1084,1191,0,0
-133,-167,0,0,0,0,0,0,0,0,0,-1,1091,1191,0,0
-126,-167,0,0,0,0,0,0,0,0,0,-1,1098,1191,0,0
-119,-167,0,0,0,0,0,0,0,0,0,-1,1105,1191,0,0
-112,-167,0,0,0,0,0,0,0,0,0,-1,1112,1191,0,0
-105,-167,0,0,0,0,0,0,0,0,0,-1,1119,1191,0,0
-98,-167,0,0,0,0,0,0,0,0,0,-1,1126,1191,0,0
-91,-167,0,0,0,0,0,0,0,0,0,-1,1133,1191,0,0
-84,-167,0,0,0,0,0,0,0,0,0,-1,1140,1191,0,0
-77,-167,0,0,0,0,0,0,0,0,0,-1,1147,1191,0,0
-70,-167,0,0,0,0,0,0,0,0,0,-1,1154,1191,0,0
-63,-167,0,0,0,0,0,0,0,0,0,-1,1161,1191,0,0
-56,-167,0,0,0,0,0,0,0,0,0,-1,1168,1191,0,0
-49,-167,0,0,0,0,0,0,0,0,0,-1,1175,1191,0,0
-42,-167,0,0,0,0,0,0,0,0,0,-1,1182,1191,0,0
-35,-167,0,0,0,0,0,0,0,0,0,-1,1189,1191,0,0
-28,-167,0,0,0,0,0,0,0,0,0,-1,1196,1191,0,0
-21,-167,0,0,0,0,0,0,0,0,0,-1,1203,1191,0,0
-14,-167,0,0,0,0,0,0,0,0,0,-1,1210,1191,0,0
-7,-167,0,0,0,0,0,0,0,0,0,-1,1217,1191,0,0
0,-167,0,0,0,0,0,0,0,0,0,-1,1224,1191,0,0
7,-167,0,0,0,0,0,0,0,0,0,-1,1231,1191,0,0
14,-167,0,0,0,0,0,0,0,0,0,-1,1238,1191,0,0
21,-167,0,0,0,0,0,0,0,0,0,-1,1245,1191,0,0
28,-167,0,0,0,0,0,0,0,0,0,-1,1252,1191,0,0
35,-167,0,0,0,0,0,0,0,0,0,-1,1259,1191,0,0
42,-167,0,0,0,0,0,0,0,0,0,-1,1266,1191,0,0
49,-167,0,0,0,0,0,0,0,0,0,-1,1273,1191,0,0
56,-167,0,0,0,0,0,0,0,0,0,-1,1280,1191,0,0
63,-167,0,0,0,0,0,0,0,0,0,-1,1287,1191,0,0
70,-167,0,0,0,0,0,0,0,0,0,-1,1294,1191,0,0
77,-167,0,0,0,0,0,0,0,0,0,-1,1301,1191,0,0
84,-167,0,0,0,0,0,0,0,0,0,-1,1308,1191,0,0
91,-167,0,0,0,0,0,0,0,0,0,-1,1315,1191,0,0
98,-167,0,0,0,0,0,0,0,0,0,-1,1322,1191,0,0
105,-167,0,0,0,0,0,0,0,0,0,-1,1329,1191,0,0
112,-167,0,0,0,0,0,0,0,0,0,-1,1336,1191,0,0
119,-167,0,0,0,0,0,0,0,0,0,-1,1343,1191,0,0
126,-167,0,0,0,0,0,0,0,0,0,-1,1350,1191,0,0
133,-167,0,0,0,0,0,0,0,0,0,-1,1357,1191,0,0
140,-167,0,0,0,0,0,0,0,0,0,-1,1364,1191,0,0
147,-167,0,0,0,0,0,0,0,0,0,-1,1371,1191,0,0
154,-167,0,0,0,0,0,0,0,0,0,-1,1378,1191,0,0
161,-167,0,0,0,0,0,0,0,0,0,-1,1385,1191,0,0
168,-167,0,0,0,0,0,0,0,0,0,-1,1392,1191,0,0
175,-167,0,0,0,0,0,0,0,0,0,-1,1399,1191,0,0
182,-167,0,0,0,0,0,0,0,0,0,-1,1406,1191,0,0
189,-167,0,0,0,0,0,0,0,0,0,-1,1413,1191,0,0
196,-167,0,0,0,0,0,0,0,0,0,-1,1420,1191,0,0
203,-167,0,0,0,0,0,0,0,0,0,-1,1427,1191,0,0
210,-167,0,0,0,0,0,0,0,0,0,-1,1434,1191,0,0
217,-167,0,0,0,0,0,0,0,0,0,-1,1441,1191,0,0
224,-167,0,0,0,0,0,0,0,0,0,-1,1448,1191,0,0
231,-167,0,0,0,0,0,0,0,0,0,-1,1455,1191,0,0
238,-167,0,0,0,0,0,0,0,0,0,-1,1462,1191,0,0
245,-167,0,0,0,0,0,0,0,0,0,-1,1469,1191,0,0
252,-167,0,0,0,0,0,0,0,0,0,-1,1476,1191,0,0
259,-167,0,0,0,0,0,0,0,0,0,-1,1483,1191,0,0
266,-167,0,0,0,0,0,0,0,0,0,-1,1490,1191,0,0
273,-167,0,0,0,0,0,0,0,0,0,-1,1497,1191,0,0
280,-167,0,0,0,0,0,0,0,0,0,-1,1504,1191,0,0
287,-167,0,0,0,0,0,0,0,0,0,-1,1511,1191,0,0
294,-167,0,0,0,0,0,0,0,0,0,-1,1518,1191,0,0
301,-167,0,0,0,0,0,0,0,0,0,-1,1525,1191,0,0
308,-167,0,0,0,0,0,0,0,0,0,-1,1532,1191,0,0
315,-167,0,0,0,0,0,0,0,0,0,-1,1539,1191,0,0
322,-167,0,0,0,0,0,0,0,0,0,-1,1546,1191,0,0
329,-167,0,0,0,0,0,0,0,0,0,-1,1553,1191,0,0
336,-167,0,0,0,0,0,0,0,0,0,-1,1560,1191,0,0
343,-167,0,0,0,0,0,0,0,0,0,-1,1567,1191,0,0
350,-167,0,0,0,0,0,0,0,0,0,-1,1574,1191,0,0
357,-167,0,0,0,0,0,0,0,0,0,-1,1581,1191,0,0
364,-167,0,0,0,0,0,0,0,0,0,-1,1588,1191,0,0
371,-167,0,0,0,0,0,0,0,0,0,-1,1595,1191,0,0
378,-167,0,0,0,0,0,0,0,0,0,-1,1602,1191,0,0
385,-167,0,0,0,0,0,0,0,0,0,-1,1609,1191,0,0
392,-167,0,0,0,0,0,0,0,0,0,-1,1616,1191,0,0
399,-167,0,0,0,0,0,0,0,0,0,-1,1623,1191,0,0
406,-167,0,0,0,0,0,0,0,0,0,-1,1630,1191,0,0
413,-167,0,0,0,0,0,0,0,0,0,-1,1637,1191,0,0
420,-167,0,0,0,0,0,0,0,0,0,-1,1644,1191,0,0
427,-167,0,0,0,0,0,0,0,0,0,-1,1651,1191,0,0
434,-167,0,0,0,0,0,0,0,0,0,-1,1658,1191,0,0
441,-167,0,0,0,0,0,0,0,0,0,-1,1665,1191,0,0
448,-167,0,0,0,0,0,0,0,0,0,-1,1672,1191,0,0
455,-167,0,0,0,0,0,0,0,0,0,-1,1679,1191,0,0
462,-167,0,0,0,0,0,0,0,0,0,-1,1686,1191,0,0
469,-167,0,0,0,0,0,0,0,0,0,-1,1693,1191,0,0
476,-167,0,0,0,0,0,0,0,0,0,-1,1700,1191,0,0
483,-167,0,0,0,0,0,0,0,0,0,-1,1707,1191,0,0
490,-167,0,0,0,0,0,0,0,0,0,-1,1714,1191,0,0
497,-167,0,0,0,0,0,0,0,0,0,-1,1721,1191,0,0
504,-167,0,0,0,0,0,0,0,0,0,-1,1728,1191,0,0
511,-167,0,0,0,0,0,0,0,0,0,-1,1735,1191,0,0
518,-167,0,0,0,0,0,0,0,0,0,-1,1742,1191,0,0
525,-167,0,0,0,0,0,0,0,0,0,-1,1749,1191,0,0
532,-167,0,0,0,0,0,0,0,0,0,-1,1756,1191,0,0
539,-167,0,0,0,0,0,0,0,0,0,-1,1763,1191,0,0
546,-167,0,0,0,0,0,0,0,0,0,-1,1770,1191,0,0
553,-167,0,0,0,0,0,0,0,0,0,-1,1777,1191,0,0
560,-167,0,0,0,0,0,0,0,0,0,-1,1784,1191,0,0
567,-167,0,0,0,0,0,0,0,0,0,-1,1791,1191,0,0
574,-167,0,0,0,0,0,0,0,0,0,-1,1798,1191,0,0
581,-167,0,0,0,0,0,0,0,0,0,-1,1805,1191,0,0
588,-167,0,0,0,0,0,0,0,0,0,-1,1812,1191,0,0
595,-167,0,0,0,0,0,0,0,0,0,-1,1819,1191,0,0
602,-167,0,0,0,0,0,0,0,0,0,-1,1826,1191,0,0
609,-167,0,0,0,0,0,0,0,0,0,-1,1833,1191,0,0
616,-167,0,0,0,0,0,0,0,0,0,-1,1840,1191,0,0
623,-167,0,0,0,0,0,0,0,0,0,-1,1847,1191,0,0
630,-167,0,0,0,0,0,0,0,0,0,-1,1854,1191,0,0
637,-167,30.6907,3.16577,-0.0049121,0.00198222,-0.00534926,0.00489882,-0.00782871,-1.07162,0.00741286,0.042924,1861,1191,30.6907,-3.1658
644,-167,30.6543,2.92603,-0.00227401,0.00108499,-0.00355293,0.00333538,-0.0045244,-1.00619,0.00455512,0.0444702,1868,1191,30.6542,-2.92604
651,-167,30.6239,2.83118,0.00022653,0.000492547,-0.00226873,0.00263216,-0.00191308,-0.814678,0.00263512,0.0422049,1875,1191,30.6239,-2.83122
658,-167,30.6869,2.95313,0.00241178,-5.38341e-05,-0.00139423,0.00304007,-0.000682125,-0.423384,0.00228823,0.0442605,1882,1191,30.6869,-2.95313
665,-167,30.8561,3.04626,0.00377621,-0.00034706,-0.000997459,0.00400483,-0.000575679,-0.22531,0.00288102,0.0398768,1889,1191,30.8561,-3.04627
672,-167,30.7908,2.9679,0.004124,-0.000613369,-0.000733461,0.00423496,-0.000724327,-0.150143,0.00309315,0.028831,1896,1191,30.7908,-2.96791
679,-167,30.7875,2.95105,0.00357534,-0.000786667,-0.000388017,0.00360958,-0.000820914,-0.0880328,0.00272161,0.0206969,1903,1191,30.7874,-2.95106
686,-167,30.8376,2.95154,0.00287095,-0.000968486,-0.000137856,0.00287589,-0.000973429,-0.0358437,0.00231111,0.0260142,1910,1191,30.8377,-2.95156
693,-167,30.8438,2.93628,0,0,0,0,0,0,0,-1,1917,1191,30.8437,-2.93625
700,-167,28.0459,2.70508,0,0,0,0,0,0,0,-1,1924,1191,28.0459,-2.70513
707,-167,27.2773,6.79517,0,0,0,0,0,0,0,-1,1931,1191,27.2774,-6.79517
714,-167,27.4551,6.07361,-3.02907e-05,-0.000724895,0.000381217,0.000138106,-0.000893291,0.415959,0.000646499,0.0429336,1938,1191,27.4551,-6.07357
721,-167,27.5724,5.61255,-0.000825931,-0.000621063,0.000494946,-0.000218063,-0.00122893,0.887438,0.000757141,0.0362646,1945,1191,27.5724,-5.61255
728,-167,27.3683,5.56189,-0.0015818,-0.00031764,0.000678247,-2.26048e-05,-0.00187684,1.16049,0.00124376,0.0261834,1952,1191,27.3683,-5.56193
735,-167,27.1666,5.42896,-0.00170369,-7.30321e-05,0.000699883,0.00018616,-0.00196289,1.21612,0.00137485,0.0140974,1959,1191,27.1667,-5.42894
742,-167,27.1663,5.20386,-0.000310912,-1.69537e-06,0.000389838,0.000263074,-0.000575681,0.974182,0.000495339,0.0152495,1966,1191,27.1662,-5.20386
749,-167,27.1669,4.97412,0.00266881,0.000516262,-0.000114209,0.00267485,0.000510219,-0.0528599,0.00163984,0.0143094,1973,1191,27.1668,-4.97417
756,-167,27.1547,4.76343,0.00737139,0.00264203,-0.000802366,0.00750381,0.00250962,-0.163561,0.00441078,0.0111467,1980,1191,27.1546,-4.76344
763,-167,27.1062,4.53247,0.0130127,0.00435468,-0.00176142,0.0133574,0.00401005,-0.193214,0.00791442,0.0129634,1987,1191,27.1063,-4.53243
770,-167,27.037,4.33679,0.0199948,0.00670987,-0.00279189,0.0205577,0.00614699,-0.198945,0.0121844,0.0255711,1994,1191,27.037,-4.33684
777,-167,27.2695,4.16284,0.0287769,0.0101337,-0.00402444,0.0296086,0.00930209,-0.20378,0.0174836,0.0409877,2001,1191,27.2695,-4.16279
784,-167,27.697,3.79224,0.0394346,0.0149286,-0.00528817,0.040527,0.0138361,-0.203716,0.0237874,0.0479574,2008,1191,27.697,-3.79222
791,-167,28.3389,3.56567,0.0521467,0.0216634,-0.00655649,0.053497,0.0203131,-0.203121,0.0311831,0.0447394,2015,1191,28.3388,-3.56572
798,-167,29.145,3.62793,0.0674165,0.0311291,-0.00783781,0.0690371,0.0295086,-0.203886,0.0399983,0.0442259,2022,1191,29.1451,-3.62794
805,-167,29.575,3.67102,0.0851479,0.0446107,-0.00887588,0.0870061,0.0427525,-0.206379,0.0502355,0.0480654,2029,1191,29.5749,-3.67107
812,-167,0,0,0,0,0,0,0,0,0,-1,2036,1191,0,0
-700,-174,0,0,0,0,0,0,0,0,0,-1,524,1198,0,0
-693,-174,0,0,0,0,0,0,0,0,0,-1,531,1198,0,0
-686,-174,-15.2937,-0.0463867,0.0175674,0.0356838,-0.0769507,0.104108,-0.0508564,-0.843986,0.0912123,0.0466548,538,1198,-15.2937,0.0464198
-679,-174,-15.0402,-0.224487,0.014755,0.0308451,-0.0524953,0.0759082,-0.0303082,-0.861433,0.0631798,0.0477531,545,1198,-15.0402,0.224449
-672,-174,-14.558,-0.614868,0,0,0,0,0,0,0,-1,552,1198,-14.5581,0.614873
-665,-174,-18.3806,-1.00427,0,0,0,0,0,0,0,-1,559,1198,-18.3806,1.00423
-658,-174,-17.6055,0.892212,0,0,0,0,0,0,0,-1,566,1198,-17.6055,-0.892269
-651,-174,-17.5154,1.12622,0.00656638,0.0156747,-0.00926602,0.0214452,0.000795824,-1.01381,0.0140391,0.0474478,573,1198,-17.5155,-1.12625
-644,-174,-17.4045,1.3916,0.00497745,0.0126641,-0.00528756,0.0153576,0.00228401,-1.09966,0.00956834,0.0422207,580,1198,-17.4045,-1.39155
-637,-174,-17.2921,1.7085,0.00358408,0.00994242,-0.00277955,0.0109862,0.00254033,-1.21158,0.00664131,0.0229631,587,1198,-17.2921,-1.70849
-630,-174,-17.3355,1.98083,0.00166066,0.00745479,0.000451489,0.00748975,0.00162569,1.4935,0.00454915,0.0124847,594,1198,-17.3355,-1.98078
-623,-174,-17.348,2.22876,0.000551012,0.0043544,0.00134208,0.00478028,0.000125125,1.26352,0.00314598,0.0133184,601,1198,-17.348,-2.22877
-616,-174,-17.3907,2.50293,-0.000437014,0.00305653,0.000221093,0.00307047,-0.000450951,1.50784,0.00221267,0.0191318,608,1198,-17.3908,-2.50292
-609,-174,-17.3902,2.77588,-0.00166461,0.00206466,-0.000751538,0.00221041,-0.00181036,-1.37923,0.00232522,0.0205137,615,1198,-17.3902,-2.77582
-602,-174,-17.4147,3.01697,-0.00248276,0.00132343,-0.00145153,0.00181381,-0.00297314,-1.245,0.00279063,0.0138508,622,1198,-17.4147,-3.01696
-595,-174,-17.4221,3.28809,-0.00296003,0.000538242,-0.00172901,0.00124857,-0.00367036,-1.18099,0.00295245,0.0167747,629,1198,-17.4221,-3.28811
-588,-174,-17.5964,3.48889,-0.00316666,0.000501337,-0.00176081,0.00120978,-0.0038751,-1.18828,0.00306725,0.0216158,636,1198,-17.5965,-3.4889
-581,-174,-17.5146,3.77161,-0.00308459,0.000513856,-0.00175682,0.00122932,-0.00380004,-1.18406,0.0030275,0.0259837,643,1198,-17.5147,-3.77162
-574,-174,-17.5835,4.16675,0,0,0,0,0,0,0,-1,650,1198,-17.5835,-4.16669
-567,-174,-19.3434,2.71362,0,0,0,0,0,0,0,-1,657,1198,-19.3434,-2.7136
-560,-174,-21.2897,0.885376,0,0,0,0,0,0,0,-1,664,1198,-21.2897,-0.88542
-553,-174,-21.37,1.11243,-0.00171259,0.00109087,-0.00138464,0.00165944,-0.00228116,-1.18116,0.00228452,0.0363983,671,1198,-21.37,-1.11237
-546,-174,-21.3945,1.18262,-0.00101877,0.00122824,-0.00107325,0.00165848,-0.00144901,-1.18953,0.00179547,0.0294915,678,1198,-21.3945,-1.18257
-539,-174,-21.4321,1.30432,-0.000211293,0.00135237,-0.000572857,0.00153977,-0.000398702,-1.25462,0.00118205,0.0354178,685,1198,-21.4321,-1.30433
-532,-174,-21.4629,1.12378,0.000659552,0.00146652,0.000136453,0.00148896,0.000637103,1.40774,0.000862629,0.0457128,692,1198,-21.4629,-1.12378
-525,-174,-21.4774,1.26318,0.00158609,0.00158339,0.00107397,0.00265871,0.000510772,0.78477,0.00162913,0.0436705,699,1198,-21.4774,-1.2632
-518,-174,-21.3716,1.03381,0.00109273,0.00234149,0.00172234,0.00354913,-0.000114912,0.959289,0.00240531,0.043351,706,1198,-21.3716,-1.03385
-511,-174,0,0,0,0,0,0,0,0,0,-1,713,1198,0,0
-504,-174,0,0,0,0,0,0,0,0,0,-1,720,1198,0,0
-497,-174,0,0,0,0,0,0,0,0,0,-1,727,1198,0,0
-490,-174,0,0,0,0,0,0,0,0,0,-1,734,1198,0,0
-483,-174,0,0,0,0,0,0,0,0,0,-1,741,1198,0,0
-476,-174,0,0,0,0,0,0,0,0,0,-1,748,1198,0,0
-469,-174,0,0,0,0,0,0,0,0,0,-1,755,1198,0,0
-462,-174,0,0,0,0,0,0,0,0,0,-1,762,1198,0,0
-455,-174,0,0,0,0,0,0,0,0,0,-1,769,1198,0,0
-448,-174,0,0,0,0,0,0,0,0,0,-1,776,1198,0,0
-441,-174,0,0,0,0,0,0,0,0,0,-1,783,1198,0,0
-434,-174,0,0,0,0,0,0,0,0,0,-1,790,1198,0,0
-427,-174,0,0,0,0,0,0,0,0,0,-1,797,1198,0,0
-420,-174,0,0,0,0,0,0,0,0,0,-1,804,1198,0,0
-413,-174,0,0,0,0,0,0,0,0,0,-1,811,1198,0,0
-406,-174,0,0,0,0,0,0,0,0,0,-1,818,1198,0,0
-399,-174,0,0,0,0,0,0,0,0,0,-1,825,1198,0,0
-392,-174,0,0,0,0,0,0,0,0,0,-1,832,1198,0,0
-385,-174,0,0,0,0,0,0,0,0,0,-1,839,1198,0,0
-378,-174,0,0,0,0,0,0,0,0,0,-1,846,1198,0,0
-371,-174,0,0,0,0,0,0,0,0,0,-1,853,1198,0,0
-364,-174,0,0,0,0,0,0,0,0,0,-1,860,1198,0,0
-357,-174,0,0,0,0,0,0,0,0,0,-1,867,1198,0,0
-350,-174,0,0,0,0,0,0,0,0,0,-1,874,1198,0,0
-343,-174,0,0,0,0,0,0,0,0,0,-1,881,1198,0,0
-336,-174,0,0,0,0,0,0,0,0,0,-1,888,1198,0,0
-329,-174,0,0,0,0,0,0,0,0,0,-1,895,1198,0,0
-322,-174,0,0,0,0,0,0,0,0,0,-1,902,1198,0,0
-315,-174,0,0,0,0,0,0,0,0,0,-1,909,1198,0,0
-308,-174,0,0,0,0,0,0,0,0,0,-1,916,1198,0,0
-301,-174,0,0,0,0,0,0,0,0,0,-1,923,1198,0,0
-294,-174,0,0,0,0,0,0,0,0,0,-1,930,1198,0,0
-287,-174,0,0,0,0,0,0,0,0,0,-1,937,1198,0,0
-280,-174,0,0,0,0,0,0,0,0,0,-1,944,1198,0,0
-273,-174,0,0,0,0,0,0,0,0,0,-1,951,1198,0,0
-266,-174,0,0,0,0,0,0,0,0,0,-1,958,1198,0,0
-259,-174,0,0,0,0,0,0,0,0,0,-1,965,1198,0,0
-252,-174,0,0,0,0,0,0,0,0,0,-1,972,1198,0,0
-245,-174,0,0,0,0,0,0,0,0,0,-1,979,1198,0,0
-238,-174,0,0,0,0,0,0,0,0,0,-1,986,1198,0,0
-231,-174,0,0,0,0,0,0,0,0,0,-1,993,1198,0,0
-224,-174,0,0,0,0,0,0,0,0,0,-1,1000,1198,0,0
-217,-174,0,0,0,0,0,0,0,0,0,-1,1007,1198,0,0
-210,-174,0,0,0,0,0,0,0,0,0,-1,1014,1198,0,0
-203,-174,0,0,0,0,0,0,0,0,0,-1,1021,1198,0,0
-196,-174,0,0,0,0,0,0,0,0,0,-1,1028,1198,0,0
-189,-174,0,0,0,0,0,0,0,0,0,-1,1035,1198,0,0
-182,-174,0,0,0,0,0,0,0,0,0,-1,1042,1198,0,0
-175,-174,0,0,0,0,0,0,0,0,0,-1,1049,1198,0,0
-168,-174,0,0,0,0,0,0,0,0,0,-1,1056,1198,0,0
-161,-174,0,0,0,0,0,0,0,0,0,-1,1063,1198,0,0
-154,-174,0,0,0,0,0,0,0,0,0,-1,1070,1198,0,0
-147,-174,0,0,0,0,0,0,0,0,0,-1,1077,1198,0,0
-140,-174,0,0,0,0,0,0,0,0,0,-1,1084,1198,0,0
-133,-174,0,0,0,0,0,0,0,0,0,-1,1091,1198,0,0
-126,-174,0,0,0,0,0,0,0,0,0,-1,1098,1198,0,0
-119,-174,0,0,0,0,0,0,0,0,0,-1,1105,1198,0,0
-112,-174,0,0,0,0,0,0,0,0,0,-1,1112,1198,0,0
-105,-174,0,0,0,0,0,0,0,0,0,-1,1119,1198,0,0
-98,-174,0,0,0,0,0,0,0,0,0,-1,1126,1198,0,0
-91,-174,0,0,0,0,0,0,0,0,0,-1,1133,1198,0,0
-84,-174,0,0,0,0,0,0,0,0,0,-1,1140,1198,0,0
-77,-174,0,0,0,0,0,0,0,0,0,-1,1147,1198,0,0
-70,-174,0,0,0,0,0,0,0,0,0,-1,1154,1198,0,0
-63,-174,0,0,0,0,0,0,0,0,0,-1,1161,1198,0,0
-56,-174,0,0,0,0,0,0,0,0,0,-1,1168,1198,0,0
-49,-174,0,0,0,0,0,0,0,0,0,-1,1175,1198,0,0
-42,-174,0,0,0,0,0,0,0,0,0,-1,1182,1198,0,0
-35,-174,0,0,0,0,0,0,0,0,0,-1,1189,1198,0,0
-28,-174,0,0,0,0,0,0,0,0,0,-1,1196,1198,0,0
-21,-174,0,0,0,0,0,0,0,0,0,-1,1203,1198,0,0
-14,-174,0,0,0,0,0,0,0,0,0,-1,1210,1198,0,0
-7,-174,0,0,0,0,0,0,0,0,0,-1,1217,1198,0,0
0,-174,0,0,0,0,0,0,0,0,0,-1,1224,1198,0,0
7,-174,0,0,0,0,0,0,0,0,0,-1,1231,1198,0,0
14,-174,0,0,0,0,0,0,0,0,0,-1,1238,1198,0,0
21,-174,0,0,0,0,0,0,0,0,0,-1,1245,1198,0,0
28,-174,0,0,0,0,0,0,0,0,0,-1,1252,1198,0,0
35,-174,0,0,0,0,0,0,0,0,0,-1,1259,1198,0,0
42,-174,0,0,0,0,0,0,0,0,0,-1,1266,1198,0,0
49,-174,0,0,0,0,0,0,0,0,0,-1,1273,1198,0,0
56,-174,0,0,0,0,0,0,0,0,0,-1,1280,1198,0,0
63,-174,0,0,0,0,0,0,0,0,0,-1,1287,1198,0,0
70,-174,0,0,0,0,0,0,0,0,0,-1,1294,1198,0,0
77,-174,0,0,0,0,0,0,0,0,0,-1,1301,1198,0,0
84,-174,0,0,0,0,0,0,0,0,0,-1,1308,1198,0,0
91,-174,0,0,0,0,0,0,0,0,0,-1,1315,1198,0,0
98,-174,0,0,0,0,0,0,0,0,0,-1,1322,1198,0,0
105,-174,0,0,0,0,0,0,0,0,0,-1,1329,1198,0,0
112,-174,0,0,0,0,0,0,0,0,0,-1,1336,1198,0,0
119,-174,0,0,0,0,0,0,0,0,0,-1,1343,1198,0,0
126,-174,0,0,0,0,0,0,0,0,0,-1,1350,1198,0,0
133,-174,0,0,0,0,0,0,0,0,0,-1,1357,1198,0,0
140,-174,0,0,0,0,0,0,0,0,0,-1,1364,1198,0,0
147,-174,0,0,0,0,0,0,0,0,0,-1,1371,1198,0,0
154,-174,0,0,0,0,0,0,0,0,0,-1,1378,1198,0,0
161,-174,0,0,0,0,0,0,0,0,0,-1,1385,1198,0,0
168,-174,0,0,0,0,0,0,0,0,0,-1,1392,1198,0,0
175,-174,0,0,0,0,0,0,0,0,0,-1,1399,1198,0,0
182,-174,0,0,0,0,0,0,0,0,0,-1,1406,1198,0,0
189,-174,0,0,0,0,0,0,0,0,0,-1,1413,1198,0,0
196,-174,0,0,0,0,0,0,0,0,0,-1,1420,1198,0,0
203,-174,0,0,0,0,0,0,0,0,0,-1,1427,1198,0,0
210,-174,0,0,0,0,0,0,0,0,0,-1,1434,1198,0,0
217,-174,0,0,0,0,0,0,0,0,0,-1,1441,1198,0,0
224,-174,0,0,0,0,0,0,0,0,0,-1,1448,1198,0,0
231,-174,0,0,0,0,0,0,0,0,0,-1,1455,1198,0,0
238,-174,0,0,0,0,0,0,0,0,0,-1,1462,1198,0,0
245,-174,0,0,0,0,0,0,0,0,0,-1,1469,1198,0,0
252,-174,0,0,0,0,0,0,0,0,0,-1,1476,1198,0,0
259,-174,0,0,0,0,0,0,0,0,0,-1,1483,1198,0,0
266,-174,0,0,0,0,0,0,0,0,0,-1,1490,1198,0,0
273,-174,0,0,0,0,0,0,0,0,0,-1,1497,1198,0,0
280,-174,0,0,0,0,0,0,0,0,0,-1,1504,1198,0,0
287,-174,0,0,0,0,0,0,0,0,0,-1,1511,1198,0,0
294,-174,0,0,0,0,0,0,0,0,0,-1,1518,1198,0,0
301,-174,0,0,0,0,0,0,0,0,0,-1,1525,1198,0,0
308,-174,0,0,0,0,0,0,0,0,0,-1,1532,1198,0,0
315,-174,0,0,0,0,0,0,0,0,0,-1,1539,1198,0,0
322,-174,0,0,0,0,0,0,0,0,0,-1,1546,1198,0,0
329,-174,0,0,0,0,0,0,0,0,0,-1,1553,1198,0,0
336,-174,0,0,0,0,0,0,0,0,0,-1,1560,1198,0,0
343,-174,0,0,0,0,0,0,0,0,0,-1,1567,1198,0,0
350,-174,0,0,0,0,0,0,0,0,0,-1,1574,1198,0,0
357,-174,0,0,0,0,0,0,0,0,0,-1,1581,1198,0,0
364,-174,0,0,0,0,0,0,0,0,0,-1,1588,1198,0,0
371,-174,0,0,0,0,0,0,0,0,0,-1,1595,1198,0,0
378,-174,0,0,0,0,0,0,0,0,0,-1,1602,1198,0,0
385,-174,0,0,0,0,0,0,0,0,0,-1,1609,1198,0,0
392,-174,0,0,0,0,0,0,0,0,0,-1,1616,1198,0,0
399,-174,0,0,0,0,0,0,0,0,0,-1,1623,1198,0,0
406,-174,0,0,0,0,0,0,0,0,0,-1,1630,1198,0,0
413,-174,0,0,0,0,0,0,0,0,0,-1,1637,1198,0,0
420,-174,0,0,0,0,0,0,0,0,0,-1,1644,1198,0,0
427,-174,0,0,0,0,0,0,0,0,0,-1,1651,1198,0,0
434,-174,0,0,0,0,0,0,0,0,0,-1,1658,1198,0,0
441,-174,0,0,0,0,0,0,0,0,0,-1,1665,1198,0,0
448,-174,0,0,0,0,0,0,0,0,0,-1,1672,1198,0,0
455,-174,0,0,0,0,0,0,0,0,0,-1,1679,1198,0,0
462,-174,0,0,0,0,0,0,0,0,0,-1,1686,1198,0,0
469,-174,0,0,0,0,0,0,0,0,0,-1,1693,1198,0,0
476,-174,0,0,0,0,0,0,0,0,0,-1,1700,1198,0,0
483,-174,0,0,0,0,0,0,0,0,0,-1,1707,1198,0,0
490,-174,0,0,0,0,0,0,0,0,0,-1,1714,1198,0,0
497,-174,0,0,0,0,0,0,0,0,0,-1,1721,1198,0,0
504,-174,0,0,0,0,0,0,0,0,0,-1,1728,1198,0,0
511,-174,0,0,0,0,0,0,0,0,0,-1,1735,1198,0,0
518,-174,0,0,0,0,0,0,0,0,0,-1,1742,1198,0,0
525,-174,0,0,0,0,0,0,0,0,0,-1,1749,1198,0,0
532,-174,0,0,0,0,0,0,0,0,0,-1,1756,1198,0,0
539,-174,0,0,0,0,0,0,0,0,0,-1,1763,1198,0,0
546,-174,0,0,0,0,0,0,0,0,0,-1,1770,1198,0,0
553,-174,0,0,0,0,0,0,0,0,0,-1,1777,1198,0,0
560,-174,0,0,0,0,0,0,0,0,0,-1,1784,1198,0,0
567,-174,0,0,0,0,0,0,0,0,0,-1,1791,1198,0,0
574,-174,0,0,0,0,0,0,0,0,0,-1,1798,1198,0,0
581,-174,0,0,0,0,0,0,0,0,0,-1,1805,1198,0,0
588,-174,0,0,0,0,0,0,0,0,0,-1,1812,1198,0,0
595,-174,0,0,0,0,0,0,0,0,0,-1,1819,1198,0,0
602,-174,0,0,0,0,0,0,0,0,0,-1,1826,1198,0,0
609,-174,0,0,0,0,0,0,0,0,0,-1,1833,1198,0,0
616,-174,0,0,0,0,0,0,0,0,0,-1,1840,1198,0,0
623,-174,0,0,0,0,0,0,0,0,0,-1,1847,1198,0,0
630,-174,0,0,0,0,0,0,0,0,0,-1,1854,1198,0,0
637,-174,30.6003,3.31897,-0.00546214,0.00252752,-0.0051134,0.00502157,-0.00795619,-1.117,0.0075563,0.0407798,1861,1198,30.6003,-3.31903
644,-174,30.5984,2.95129,-0.0022838,0.00174898,-0.00338385,0.00367166,-0.00420648,-1.05409,0.00455194,0.0393594,1868,1198,30.5983,-2.95127
651,-174,30.693,2.93433,0.00073094,0.00117544,-0.00208494,0.00304994,-0.00114356,-0.838497,0.00250312,0.0414813,1875,1198,30.693,-2.93432
658,-174,30.7085,3.23071,0.0031992,0.00060297,-0.00120043,0.00366917,0.000132997,-0.373161,0.00240301,0.0416006,1882,1198,30.7085,-3.23072
665,-174,30.7407,3.11353,0.00460274,0.000251621,-0.000800608,0.00474537,0.000108985,-0.17631,0.00312789,0.0350257,1889,1198,30.7408,-3.11352
672,-174,30.7446,3.01465,0.00487147,-0.000119684,-0.000505406,0.00492214,-0.000170347,-0.099909,0.00333966,0.0261442,1896,1198,30.7446,-3.01459
679,-174,30.7625,2.97803,0.00426431,-0.000385735,-0.000141604,0.00426862,-0.000390043,-0.0304145,0.00298427,0.0219348,1903,1198,30.7625,-2.97804
686,-174,30.8823,3.01721,0.00354112,-0.000666084,0.000108914,0.00354394,-0.000668902,0.0258643,0.00261428,0.0452337,1910,1198,30.8823,-3.01716
693,-174,30.9933,3.09021,0,0,0,0,0,0,0,-1,1917,1198,30.9933,-3.0902
700,-174,25.4004,6.11792,0,0,0,0,0,0,0,-1,1924,1198,25.4004,-6.11797
707,-174,27.3021,6.45007,0,0,0,0,0,0,0,-1,1931,1198,27.3021,-6.45007
714,-174,27.3433,6.05518,0.000370032,-0.000702331,0.000605079,0.000642312,-0.000974611,0.422847,0.00094008,0.035469,1938,1198,27.3433,-6.05514
721,-174,27.2972,5.73083,-0.000583999,-0.000695757,0.000721703,8.39859e-05,-0.00136374,0.746762,0.00093841,0.0295679,1945,1198,27.2972,-5.73085
728,-174,27.0035,5.65417,-0.00151259,-0.000449247,0.000864041,3.35979e-05,-0.00199543,1.06121,0.00134163,0.0199766,1952,1198,27.0035,-5.65411
735,-174,26.9402,5.44653,-0.00158733,-0.000195604,0.000903504,0.000248947,-0.00203188,1.11354,0.00144474,0.0114624,1959,1198,26.9401,-5.44653
742,-174,26.9202,5.20813,7.22563e-05,-0.000250231,0.000561532,0.000495237,-0.000673212,0.645585,0.000677207,0.0183108,1966,1198,26.9202,-5.20812
749,-174,26.9292,4.98169,0.00339772,-1.81581e-05,-2.55386e-05,0.00339791,-1.83489e-05,-0.00747588,0.00227141,0.0167499,1973,1198,26.9292,-4.98164
756,-174,26.9221,4.75098,0.00846496,0.00176657,-0.000851907,0.00857161,0.00165993,-0.12454,0.00524932,0.0103354,1980,1198,26.9221,-4.75095
763,-174,26.892,4.51624,0.0144652,0.00297468,-0.00192573,0.0147793,0.00266053,-0.161709,0.00909667,0.0132815,1987,1198,26.8919,-4.51627
770,-174,26.9098,4.31372,0.0220056,0.00469719,-0.00316666,0.0225668,0.00413602,-0.175389,0.0138729,0.026094,1994,1198,26.9097,-4.31369
777,-174,26.986,4.11377,0.0315169,0.00727972,-0.0046892,0.0323925,0.00640413,-0.1846,0.0198084,0.0465221,2001,1198,26.986,-4.11374
784,-174,27.0684,3.8988,0,0,0,0,0,0,0,-1,2008,1198,27.0683,-3.89886
791,-174,28.4449,3.50867,0.0567995,0.0164992,-0.00826036,0.0584269,0.0148717,-0.194523,0.0350616,0.0444484,2015,1198,28.4449,-3.50865
798,-174,29.2769,3.38843,0.0733254,0.0244914,-0.010455,0.0754696,0.0223472,-0.202283,0.0447637,0.0430765,2022,1198,29.2768,-3.38848
805,-174,30.2275,2.61926,0.0924995,0.0363222,-0.0128312,0.0952914,0.0335303,-0.214253,0.0558155,0.0423771,2029,1198,30.2276,-2.61923
812,-174,0,0,0,0,0,0,0,0,0,-1,2036,1198,0,0
-700,-181,0,0,0,0,0,0,0,0,0,-1,524,1205,0,0
-693,-181,0,0,0,0,0,0,0,0,0,-1,531,1205,0,0
-686,-181,-14.5093,0.515625,-0.000490992,0.0377785,-0.0717362,0.0928881,-0.0556006,-0.915732,0.0866263,0.0481603,538,1205,-14.5093,-0.515605
-679,-181,-16.9015,-3.15576,2.16128e-05,0.0337262,-0.0471268,0.0669233,-0.0331755,-0.95711,0.0588767,0.0431941,545,1205,-16.9015,3.15571
-672,-181,-18.3488,-1.62415,0,0,0,0,0,0,0,-1,552,1205,-18.3488,1.62412
-665,-181,-18.0753,-1.00049,0.000566106,0.0257804,-0.0192917,0.036219,-0.00987256,-1.07481,0.0280227,0.0472849,559,1205,-18.0753,1.00046
-658,-181,-17.7905,-0.360352,0.000815948,0.0220273,-0.0114637,0.0270388,-0.00419556,-1.15867,0.0195749,0.0452951,566,1205,-17.7905,0.3604
-651,-181,-17.5484,0.280396,0.000949356,0.0184479,-0.00620221,0.0204233,-0.00102598,-1.26247,0.0139701,0.0446474,573,1205,-17.5484,-0.280454
-644,-181,-17.3229,0.959351,0.000890503,0.0150741,-0.00286607,0.0156314,0.000333251,-1.37876,0.0103116,0.0422403,580,1205,-17.3229,-0.959295
-637,-181,-17.037,1.68701,0.000724607,0.0119476,-0.000942046,0.0120261,0.000646082,-1.48763,0.00781094,0.0249969,587,1205,-17.037,-1.687
-630,-181,-17.0609,1.97461,-0.00012396,0.00907617,0.00175537,0.00939971,-0.000447502,1.38853,0.00642084,0.0123428,594,1205,-17.0609,-1.97466
-623,-181,-17.1055,2.22913,-0.000367265,0.00561093,0.00219773,0.00633192,-0.00108825,1.2538,0.00462689,0.0139712,601,1205,-17.1055,-2.22908
-616,-181,-17.1103,2.4978,-0.000735191,0.00394369,0.000684739,0.00404184,-0.000833341,1.42843,0.00301103,0.0137745,608,1205,-17.1103,-2.49781
-609,-181,-17.1318,2.77734,-0.0016927,0.00253114,-0.000573823,0.00260771,-0.00176926,-1.43815,0.00254246,0.0131397,615,1205,-17.1317,-2.77735
-602,-181,-17.1199,3.07056,-0.00251929,0.00149773,-0.00143759,0.00195919,-0.00298076,-1.26019,0.00287234,0.0117018,622,1205,-17.1199,-3.07056
-595,-181,-17.17,3.29541,-0.00306162,0.000539202,-0.00176399,0.00125934,-0.00378176,-1.18321,0.00302949,0.0152335,629,1205,-17.17,-3.29536
-588,-181,-17.2798,3.57617,-0.00331725,0.000445833,-0.00189966,0.00123804,-0.00410946,-1.1757,0.00323234,0.0185346,636,1205,-17.2798,-3.57622
-581,-181,-17.2062,3.927,-0.00320886,0.000381548,-0.00200423,0.00127701,-0.00410433,-1.15062,0.00324671,0.019966,643,1205,-17.2062,-3.92701
-574,-181,-17.3028,4.20825,0,0,0,0,0,0,0,-1,650,1205,-17.3028,-4.2083
-567,-181,-18.3641,2.61108,0,0,0,0,0,0,0,-1,657,1205,-18.3641,-2.61106
-560,-181,-21.4601,1.24463,0,0,0,0,0,0,0,-1,664,1205,-21.4602,-1.24457
-553,-181,-21.3877,1.17578,-0.00173395,0.000393478,-0.00166624,0.00130659,-0.00264706,-1.06948,0.00232596,0.0415283,671,1205,-21.3877,-1.17581
-546,-181,-21.3281,1.10303,-0.00107664,0.000338336,-0.00135028,0.00115524,-0.00189355,-1.02671,0.00177734,0.0362412,678,1205,-21.328,-1.10309
-539,-181,-21.4144,1.23901,-0.000328741,0.000207073,-0.000840011,0.000820865,-0.000942533,-0.939765,0.00101891,0.0409466,685,1205,-21.4143,-1.239
-532,-181,-21.4753,1.16479,0.000377578,-3.69895e-05,-9.55677e-05,0.000398548,-5.79594e-05,-0.216002,0.000286976,0.0459352,692,1205,-21.4754,-1.16485
-525,-181,-21.4003,1.0968,0.00102936,-0.000448391,0.000959509,0.00150152,-0.000920544,0.457291,0.00141172,0.0413396,699,1205,-21.4003,-1.09685
-518,-181,-21.2358,0.978271,0.000338518,-0.000535294,0.00187613,0.00182795,-0.00202472,0.670999,0.0022253,0.0411901,706,1205,-21.2358,-0.978256
-511,-181,0,0,0,0,0,0,0,0,0,-1,713,1205,0,0
-504,-181,0,0,0,0,0,0,0,0,0,-1,720,1205,0,0
-497,-181,0,0,0,0,0,0,0,0,0,-1,727,1205,0,0
-490,-181,0,0,0,0,0,0,0,0,0,-1,734,1205,0,0
-483,-181,0,0,0,0,0,0,0,0,0,-1,741,1205,0,0
-476,-181,0,0,0,0,0,0,0,0,0,-1,748,1205,0,0
-469,-181,0,0,0,0,0,0,0,0,0,-1,755,1205,0,0
-462,-181,0,0,0,0,0,0,0,0,0,-1,762,1205,0,0
-455,-181,0,0,0,0,0,0,0,0,0,-1,769,1205,0,0
-448,-181,0,0,0,0,0,0,0,0,0,-1,776,1205,0,0
-441,-181,0,0,0,0,0,0,0,0,0,-1,783,1205,0,0
-434,-181,0,0,0,0,0,0,0,0,0,-1,790,1205,0,0
-427,-181,0,0,0,0,0,0,0,0,0,-1,797,1205,0,0
-420,-181,0,0,0,0,0,0,0,0,0,-1,804,1205,0,0
-413,-181,0,0,0,0,0,0,0,0,0,-1,811,1205,0,0
-406,-181,0,0,0,0,0,0,0,0,0,-1,818,1205,0,0
-399,-181,0,0,0,0,0,0,0,0,0,-1,825,1205,0,0
-392,-181,0,0,0,0,0,0,0,0,0,-1,832,1205,0,0
-385,-181,0,0,0,0,0,0,0,0,0,-1,839,1205,0,0
-378,-181,0,0,0,0,0,0,0,0,0,-1,846,1205,0,0
-371,-181,0,0,0,0,0,0,0,0,0,-1,853,1205,0,0
-364,-181,0,0,0,0,0,0,0,0,0,-1,860,1205,0,0
-357,-181,0,0,0,0,0,0,0,0,0,-1,867,1205,0,0
-350,-181,0,0,0,0,0,0,0,0,0,-1,874,1205,0,0
-343,-181,0,0,0,0,0,0,0,0,0,-1,881,1205,0,0
-336,-181,0,0,0,0,0,0,0,0,0,-1,888,1205,0,0
-329,-181,0,0,0,0,0,0,0,0,0,-1,895,1205,0,0
-322,-181,0,0,0,0,0,0,0,0,0,-1,902,1205,0,0
-315,-181,0,0,0,0,0,0,0,0,0,-1,909,1205,0,0
-308,-181,0,0,0,0,0,0,0,0,0,-1,916,1205,0,0
-301,-181,0,0,0,0,0,0,0,0,0,-1,923,1205,0,0
-294,-181,0,0,0,0,0,0,0,0,0,-1,930,1205,0,0
-287,-181,0,0,0,0,0,0,0,0,0,-1,937,1205,0,0
-280,-181,0,0,0,0,0,0,0,0,0,-1,944,1205,0,0
-273,-181,0,0,0,0,0,0,0,0,0,-1,951,1205,0,0
-266,-181,0,0,0,0,0,0,0,0,0,-1,958,1205,0,0
-259,-181,0,0,0,0,0,0,0,0,0,-1,965,1205,0,0
-252,-181,0,0,0,0,0,0,0,0,0,-1,972,1205,0,0
-245,-181,0,0,0,0,0,0,0,0,0,-1,979,1205,0,0
-238,-181,0,0,0,0,0,0,0,0,0,-1,986,1205,0,0
-231,-181,0,0,0,0,0,0,0,0,0,-1,993,1205,0,0
-224,-181,0,0,0,0,0,0,0,0,0,-1,1000,1205,0,0
-217,-181,0,0,0,0,0,0,0,0,0,-1,1007,1205,0,0
-210,-181,0,0,0,0,0,0,0,0,0,-1,1014,1205,0,0
-203,-181,0,0,0,0,0,0,0,0,0,-1,1021,1205,0,0
-196,-181,0,0,0,0,0,0,0,0,0,-1,1028,1205,0,0
-189,-181,0,0,0,0,0,0,0,0,0,-1,1035,1205,0,0
-182,-181,0,0,0,0,0,0,0,0,0,-1,1042,1205,0,0
-175,-181,0,0,0,0,0,0,0,0,0,-1,1049,1205,0,0
-168,-181,0,0,0,0,0,0,0,0,0,-1,1056,1205,0,0
-161,-181,0,0,0,0,0,0,0,0,0,-1,1063,1205,0,0
-154,-181,0,0,0,0,0,0,0,0,0,-1,1070,1205,0,0
-147,-181,0,0,0,0,0,0,0,0,0,-1,1077,1205,0,0
-140,-181,0,0,0,0,0,0,0,0,0,-1,1084,1205,0,0
-133,-181,0,0,0,0,0,0,0,0,0,-1,1091,1205,0,0
-126,-181,0,0,0,0,0,0,0,0,0,-1,1098,1205,0,0
-119,-181,0,0,0,0,0,0,0,0,0,-1,1105,1205,0,0
-112,-181,0,0,0,0,0,0,0,0,0,-1,1112,1205,0,0
-105,-181,0,0,0,0,0,0,0,0,0,-1,1119,1205,0,0
-98,-181,0,0,0,0,0,0,0,0,0,-1,1126,1205,0,0
-91,-181,0,0,0,0,0,0,0,0,0,-1,1133,1205,0,0
-84,-181,0,0,0,0,0,0,0,0,0,-1,1140,1205,0,0
-77,-181,0,0,0,0,0,0,0,0,0,-1,1147,1205,0,0
-70,-181,0,0,0,0,0,0,0,0,0,-1,1154,1205,0,0
-63,-181,0,0,0,0,0,0,0,0,0,-1,1161,1205,0,0
-56,-181,0,0,0,0,0,0,0,0,0,-1,1168,1205,0,0
-49,-181,0,0,0,0,0,0,0,0,0,-1,1175,1205,0,0
-42,-181,0,0,0,0,0,0,0,0,0,-1,1182,1205,0,0
-35,-181,0,0,0,0,0,0,0,0,0,-1,1189,1205,0,0
-28,-181,0,0,0,0,0,0,0,0,0,-1,1196,1205,0,0
-21,-181,0,0,0,0,0,0,0,0,0,-1,1203,1205,0,0
-14,-181,0,0,0,0,0,0,0,0,0,-1,1210,1205,0,0
-7,-181,0,0,0,0,0,0,0,0,0,-1,1217,1205,0,0
0,-181,0,0,0,0,0,0,0,0,0,-1,1224,1205,0,0
7,-181,0,0,0,0,0,0,0,0,0,-1,1231,1205,0,0
14,-181,0,0,0,0,0,0,0,0,0,-1,1238,1205,0,0
21,-181,0,0,0,0,0,0,0,0,0,-1,1245,1205,0,0
28,-181,0,0,0,0,0,0,0,0,0,-1,1252,1205,0,0
35,-181,0,0,0,0,0,0,0,0,0,-1,1259,1205,0,0
42,-181,0,0,0,0,0,0,0,0,0,-1,1266,1205,0,0
49,-181,0,0,0,0,0,0,0,0,0,-1,1273,1205,0,0
56,-181,0,0,0,0,0,0,0,0,0,-1,1280,1205,0,0
63,-181,0,0,0,0,0,0,0,0,0,-1,1287,1205,0,0
70,-181,0,0,0,0,0,0,0,0,0,-1,1294,1205,0,0
77,-181,0,0,0,0,0,0,0,0,0,-1,1301,1205,0,0
84,-181,0,0,0,0,0,0,0,0,0,-1,1308,1205,0,0
91,-181,0,0,0,0,0,0,0,0,0,-1,1315,1205,0,0
98,-181,0,0,0,0,0,0,0,0,0,-1,1322,1205,0,0
105,-181,0,0,0,0,0,0,0,0,0,-1,1329,1205,0,0
112,-181,0,0,0,0,0,0,0,0,0,-1,1336,1205,0,0
119,-181,0,0,0,0,0,0,0,0,0,-1,1343,1205,0,0
126,-181,0,0,0,0,0,0,0,0,0,-1,1350,1205,0,0
133,-181,0,0,0,0,0,0,0,0,0,-1,1357,1205,0,0
140,-181,0,0,0,0,0,0,0,0,0,-1,1364,1205,0,0
147,-181,0,0,0,0,0,0,0,0,0,-1,1371,1205,0,0
154,-181,0,0,0,0,0,0,0,0,0,-1,1378,1205,0,0
161,-181,0,0,0,0,0,0,0,0,0,-1,1385,1205,0,0
168,-181,0,0,0,0,0,0,0,0,0,-1,1392,1205,0,0
175,-181,0,0,0,0,0,0,0,0,0,-1,1399,1205,0,0
182,-181,0,0,0,0,0,0,0,0,0,-1,1406,1205,0,0
189,-181,0,0,0,0,0,0,0,0,0,-1,1413,1205,0,0
196,-181,0,0,0,0,0,0,0,0,0,-1,1420,1205,0,0
203,-181,0,0,0,0,0,0,0,0,0,-1,1427,1205,0,0
210,-181,0,0,0,0,0,0,0,0,0,-1,1434,1205,0,0
217,-181,0,0,0,0,0,0,0,0,0,-1,1441,1205,0,0
224,-181,0,0,0,0,0,0,0,0,0,-1,1448,1205,0,0
231,-181,0,0,0,0,0,0,0,0,0,-1,1455,1205,0,0
238,-181,0,0,0,0,0,0,0,0,0,-1,1462,1205,0,0
245,-181,0,0,0,0,0,0,0,0,0,-1,1469,1205,0,0
252,-181,0,0,0,0,0,0,0,0,0,-1,1476,1205,0,0
259,-181,0,0,0,0,0,0,0,0,0,-1,1483,1205,0,0
266,-181,0,0,0,0,0,0,0,0,0,-1,1490,1205,0,0
273,-181,0,0,0,0,0,0,0,0,0,-1,1497,1205,0,0
280,-181,0,0,0,0,0,0,0,0,0,-1,1504,1205,0,0
287,-181,0,0,0,0,0,0,0,0,0,-1,1511,1205,0,0
294,-181,0,0,0,0,0,0,0,0,0,-1,1518,1205,0,0
301,-181,0,0,0,0,0,0,0,0,0,-1,1525,1205,0,0
308,-181,0,0,0,0,0,0,0,0,0,-1,1532,1205,0,0
315,-181,0,0,0,0,0,0,0,0,0,-1,1539,1205,0,0
322,-181,0,0,0,0,0,0,0,0,0,-1,1546,1205,0,0
329,-181,0,0,0,0,0,0,0,0,0,-1,1553,1205,0,0
336,-181,0,0,0,0,0,0,0,0,0,-1,1560,1205,0,0
343,-181,0,0,0,0,0,0,0,0,0,-1,1567,1205,0,0
350,-181,0,0,0,0,0,0,0,0,0,-1,1574,1205,0,0
357,-181,0,0,0,0,0,0,0,0,0,-1,1581,1205,0,0
364,-181,0,0,0,0,0,0,0,0,0,-1,1588,1205,0,0
371,-181,0,0,0,0,0,0,0,0,0,-1,1595,1205,0,0
378,-181,0,0,0,0,0,0,0,0,0,-1,1602,1205,0,0
385,-181,0,0,0,0,0,0,0,0,0,-1,1609,1205,0,0
392,-181,0,0,0,0,0,0,0,0,0,-1,1616,1205,0,0
399,-181,0,0,0,0,0,0,0,0,0,-1,1623,1205,0,0
406,-181,0,0,0,0,0,0,0,0,0,-1,1630,1205,0,0
413,-181,0,0,0,0,0,0,0,0,0,-1,1637,1205,0,0
420,-181,0,0,0,0,0,0,0,0,0,-1,1644,1205,0,0
427,-181,0,0,0,0,0,0,0,0,0,-1,1651,1205,0,0
434,-181,0,0,0,0,0,0,0,0,0,-1,1658,1205,0,0
441,-181,0,0,0,0,0,0,0,0,0,-1,1665,1205,0,0
448,-181,0,0,0,0,0,0,0,0,0,-1,1672,1205,0,0
455,-181,0,0,0,0,0,0,0,0,0,-1,1679,1205,0,0
462,-181,0,0,0,0,0,0,0,0,0,-1,1686,1205,0,0
469,-181,0,0,0,0,0,0,0,0,0,-1,1693,1205,0,0
476,-181,0,0,0,0,0,0,0,0,0,-1,1700,1205,0,0
483,-181,0,0,0,0,0,0,0,0,0,-1,1707,1205,0,0
490,-181,0,0,0,0,0,0,0,0,0,-1,1714,1205,0,0
497,-181,0,0,0,0,0,0,0,0,0,-1,1721,1205,0,0
504,-181,0,0,0,0,0,0,0,0,0,-1,1728,1205,0,0
511,-181,0,0,0,0,0,0,0,0,0,-1,1735,1205,0,0
518,-181,0,0,0,0,0,0,0,0,0,-1,1742,1205,0,0
525,-181,0,0,0,0,0,0,0,0,0,-1,1749,1205,0,0
532,-181,0,0,0,0,0,0,0,0,0,-1,1756,1205,0,0
539,-181,0,0,0,0,0,0,0,0,0,-1,1763,1205,0,0
546,-181,0,0,0,0,0,0,0,0,0,-1,1770,1205,0,0
553,-181,0,0,0,0,0,0,0,0,0,-1,1777,1205,0,0
560,-181,0,0,0,0,0,0,0,0,0,-1,1784,1205,0,0
567,-181,0,0,0,0,0,0,0,0,0,-1,1791,1205,0,0
574,-181,0,0,0,0,0,0,0,0,0,-1,1798,1205,0,0
581,-181,0,0,0,0,0,0,0,0,0,-1,1805,1205,0,0
588,-181,0,0,0,0,0,0,0,0,0,-1,1812,1205,0,0
595,-181,0,0,0,0,0,0,0,0,0,-1,1819,1205,0,0
602,-181,0,0,0,0,0,0,0,0,0,-1,1826,1205,0,0
609,-181,0,0,0,0,0,0,0,0,0,-1,1833,1205,0,0
616,-181,0,0,0,0,0,0,0,0,0,-1,1840,1205,0,0
623,-181,0,0,0,0,0,0,0,0,0,-1,1847,1205,0,0
630,-181,30.8376,3.26929,-0.00874521,0.00393663,-0.00700029,0.00704088,-0.0118495,-1.15341,0.0110235,0.0399657,1854,1205,30.8376,-3.26924
637,-181,30.7205,3.14478,-0.00515607,0.00305754,-0.00483076,0.00529125,-0.00738977,-1.13769,0.00735473,0.0387633,1861,1205,30.7204,-3.14478
644,-181,30.7006,2.84583,-0.00163571,0.00225039,-0.00310978,0.00397424,-0.00335957,-1.06463,0.00423913,0.0391284,1868,1205,30.7006,-2.84581
651,-181,30.7653,2.81592,0.00171103,0.00160114,-0.00179127,0.0034482,-0.000136029,-0.770065,0.00234546,0.0410751,1875,1205,30.7652,-2.81591
658,-181,30.7238,3.07288,0.0042598,0.000937966,-0.000903987,0.00448987,0.000707894,-0.249217,0.00278741,0.0379482,1882,1205,30.7238,-3.07294
665,-181,30.704,3.0946,0.00557383,0.000495224,-0.000498102,0.00562222,0.000446832,-0.0968489,0.00360844,0.0317449,1889,1205,30.704,-3.09457
672,-181,30.7401,3.0116,0.00571821,1.04336e-05,-0.000174318,0.00572353,5.11482e-06,-0.0305025,0.00381398,0.0236868,1896,1205,30.7401,-3.01154
679,-181,30.7921,2.97021,0.00506397,-0.000320562,0.00018885,0.00507058,-0.000327178,0.0350153,0.00349456,0.0301175,1903,1205,30.7921,-2.97021
686,-181,30.9009,2.98474,0,0,0,0,0,0,0,-1,1910,1205,30.9009,-2.98471
693,-181,29.1697,2.45032,0,0,0,0,0,0,0,-1,1917,1205,29.1697,-2.4503
700,-181,27.1837,6.36816,0,0,0,0,0,0,0,-1,1924,1205,27.1838,-6.36819
707,-181,27.1274,6.1908,0.00194113,-0.000894013,0.000881818,0.00219302,-0.00114591,0.278242,0.00195908,0.0451874,1931,1205,27.1274,-6.19086
714,-181,27.1156,5.97217,0.000889228,-0.000873303,0.000860282,0.00123951,-0.00122359,0.386675,0.00142208,0.0318954,1938,1205,27.1156,-5.97211
721,-181,26.9497,5.78564,-0.000229887,-0.000889282,0.000954249,0.000450015,-0.00156918,0.619066,0.00122402,0.0221885,1945,1205,26.9496,-5.78562
728,-181,26.7035,5.6593,-0.00130739,-0.000635228,0.00104073,0.00012234,-0.00206495,0.941576,0.00141917,0.0129029,1952,1205,26.7035,-5.65931
735,-181,26.7076,5.43933,-0.00128625,-0.000365547,0.00108425,0.00035203,-0.00200383,0.986156,0.00146737,0.0108402,1959,1205,26.7077,-5.43936
742,-181,26.6935,5.21777,0.000639417,-0.000563379,0.000744683,0.000995219,-0.000919181,0.445723,0.00110557,0.0153749,1966,1205,26.6935,-5.21779
749,-181,26.7025,4.96497,0.00421511,-0.00067299,0.000128637,0.00421849,-0.000676373,0.026292,0.00306278,0.0147503,1973,1205,26.7025,-4.96491
756,-181,26.6844,4.72998,0.00955666,0.000618438,-0.000819109,0.0096311,0.000543994,-0.0906352,0.0062473,0.0109993,1980,1205,26.6845,-4.72999
763,-181,26.6909,4.50623,0.0158433,0.00117268,-0.00196038,0.0161008,0.000915241,-0.130574,0.0104422,0.0125927,1987,1205,26.6909,-4.50628
770,-181,26.7344,4.22253,0.0238622,0.00203311,-0.0033638,0.0243688,0.00152652,-0.149479,0.0157617,0.0282717,1994,1205,26.7344,-4.2225
777,-181,26.7271,3.79895,0.0339774,0.00345837,-0.00512137,0.0348139,0.00262188,-0.161903,0.0223865,0.0481603,2001,1205,26.727,-3.79898
784,-181,26.7983,3.37207,0,0,0,0,0,0,0,-1,2008,1205,26.7984,-3.37204
791,-181,28.4941,3.44592,0,0,0,0,0,0,0,-1,2015,1205,28.4941,-3.44593
798,-181,29.0635,3.1543,0,0,0,0,0,0,0,-1,2022,1205,29.0634,-3.15425
805,-181,0,0,0,0,0,0,0,0,0,-1,2029,1205,0,0
812,-181,0,0,0,0,0,0,0,0,0,-1,2036,1205,0,0
-700,-188,0,0,0,0,0,0,0,0,0,-1,524,1212,0,0
-693,-188,0,0,0,0,0,0,0,0,0,-1,531,1212,0,0
-686,-188,0,0,0,0,0,0,0,0,0,-1,538,1212,0,0
-679,-188,-16.9462,-2.3667,-0.0171081,0.0363884,-0.0390454,0.0569689,-0.0376886,-1.08571,0.0550271,0.0439254,545,1212,-16.9462,2.36674
-672,-188,-17.6116,-1.56714,-0.0135573,0.0330708,-0.0239149,0.0431554,-0.0236419,-1.17174,0.0391101,0.0430869,552,1212,-17.6116,1.56714
-665,-188,-18.0793,-0.884888,-0.0105184,0.0294187,-0.0138544,0.0337542,-0.014854,-1.26752,0.0287624,0.044588,559,1212,-18.0793,0.884865
-658,-188,-18.0221,-0.0960693,-0.00787996,0.0256114,-0.00719716,0.0270925,-0.0093611,-1.36784,0.0218607,0.0418284,566,1212,-18.0221,0.0960823
-651,-188,-16.5823,1.11987,0,0,0,0,0,0,0,-1,573,1212,-16.5823,-1.11988
-644,-188,-16.6603,1.41736,-0.00400474,0.0179899,-0.000457407,0.0179994,-0.00401425,-1.55001,0.0135376,0.0448714,580,1212,-16.6604,-1.41734
-637,-188,-16.7513,1.69543,-0.0027484,0.0143794,0.000780647,0.0144149,-0.00278391,1.52534,0.0106598,0.0222013,587,1212,-16.7514,-1.69548
-630,-188,-16.7993,1.98242,-0.00236052,0.0110397,0.00284351,0.0116181,-0.00293894,1.37012,0.00888853,0.00978886,594,1212,-16.7993,-1.98238
-623,-188,-16.8125,2.25537,-0.00158758,0.00718715,0.00283185,0.00802169,-0.00242213,1.28421,0.00631203,0.0102323,601,1212,-16.8125,-2.25536
-616,-188,-16.8067,2.50854,-0.00117116,0.00505041,0.00104402,0.00522093,-0.00134168,1.4089,0.0040035,0.00980538,608,1212,-16.8067,-2.50852
-609,-188,-16.8109,2.81042,-0.00166608,0.00316834,-0.000390874,0.00319973,-0.00169748,-1.49064,0.00287141,0.0123857,615,1212,-16.8109,-2.81041
-602,-188,-16.805,3.13098,-0.00228424,0.00174439,-0.00137033,0.00216632,-0.00270617,-1.27211,0.00281888,0.0152533,622,1212,-16.805,-3.13104
-595,-188,-16.8499,3.35876,-0.00277732,0.000613496,-0.00170636,0.00132351,-0.00348734,-1.17649,0.00286967,0.0122657,629,1212,-16.8499,-3.3588
-588,-188,-16.8815,3.60083,-0.00302814,0.000554094,-0.00191755,0.00138693,-0.00386097,-1.16106,0.0031401,0.0140536,636,1212,-16.8815,-3.60077
-581,-188,-16.9049,3.87646,-0.00287251,0.000478685,-0.00210475,0.00149336,-0.00388719,-1.12158,0.00320731,0.0147709,643,1212,-16.9049,-3.87644
-574,-188,-17.1507,4.06604,-0.00239883,0.000561346,-0.00219449,0.00172823,-0.00356572,-1.08209,0.00311723,0.0438543,650,1212,-17.1507,-4.06609
-567,-188,-17.445,4.20923,0,0,0,0,0,0,0,-1,657,1212,-17.445,-4.20918
-560,-188,-21.4706,1.26636,0,0,0,0,0,0,0,-1,664,1212,-21.4706,-1.26632
-553,-188,-21.3661,1.13855,-0.00152348,0.000123969,-0.00163414,0.00113025,-0.00252976,-1.01885,0.00216399,0.0494725,671,1212,-21.3661,-1.13854
-546,-188,-21.3548,1.0802,-0.00107114,-6.14608e-05,-0.00126633,0.000796949,-0.00192955,-0.975076,0.00161879,0.0447651,678,1212,-21.3548,-1.0802
-539,-188,-21.3588,1.2074,-0.000613987,-0.000367649,-0.000711172,0.000230942,-0.00121258,-0.871143,0.000895349,0.0385417,685,1212,-21.3589,-1.20745
-532,-188,-21.4022,1.11816,-0.000352372,-0.000843051,7.99513e-05,-0.000339673,-0.000855749,0.157514,0.000497554,0.0396229,692,1212,-21.4022,-1.11817
-525,-188,-21.2955,0.992432,-0.000313183,-0.00158157,0.00121448,0.000422723,-0.00231747,0.544777,0.00170346,0.0389047,699,1212,-21.2955,-0.992399
-518,-188,-21.1707,1.02698,-0.00147817,-0.00230993,0.00234961,0.000492084,-0.00428018,0.697806,0.00303083,0.0405109,706,1212,-21.1707,-1.02694
-511,-188,-21.3149,1.24573,-0.0019998,-0.00205887,0.00372268,0.00169347,-0.00575214,0.781431,0.00450659,0.0383872,713,1212,-21.3149,-1.24576
-504,-188,0,0,0,0,0,0,0,0,0,-1,720,1212,0,0
-497,-188,0,0,0,0,0,0,0,0,0,-1,727,1212,0,0
-490,-188,0,0,0,0,0,0,0,0,0,-1,734,1212,0,0
-483,-188,0,0,0,0,0,0,0,0,0,-1,741,1212,0,0
-476,-188,0,0,0,0,0,0,0,0,0,-1,748,1212,0,0
-469,-188,0,0,0,0,0,0,0,0,0,-1,755,1212,0,0
-462,-188,0,0,0,0,0,0,0,0,0,-1,762,1212,0,0
-455,-188,0,0,0,0,0,0,0,0,0,-1,769,1212,0,0
-448,-188,0,0,0,0,0,0,0,0,0,-1,776,1212,0,0
-441,-188,0,0,0,0,0,0,0,0,0,-1,783,1212,0,0
-434,-188,0,0,0,0,0,0,0,0,0,-1,790,1212,0,0
-427,-188,0,0,0,0,0,0,0,0,0,-1,797,1212,0,0
-420,-188,0,0,0,0,0,0,0,0,0,-1,804,1212,0,0
-413,-188,0,0,0,0,0,0,0,0,0,-1,811,1212,0,0
-406,-188,0,0,0,0,0,0,0,0,0,-1,818,1212,0,0
-399,-188,0,0,0,0,0,0,0,0,0,-1,825,1212,0,0
-392,-188,0,0,0,0,0,0,0,0,0,-1,832,1212,0,0
-385,-188,0,0,0,0,0,0,0,0,0,-1,839,1212,0,0
-378,-188,0,0,0,0,0,0,0,0,0,-1,846,1212,0,0
-371,-188,0,0,0,0,0,0,0,0,0,-1,853,1212,0,0
-364,-188,0,0,0,0,0,0,0,0,0,-1,860,1212,0,0
-357,-188,0,0,0,0,0,0,0,0,0,-1,867,1212,0,0
-350,-188,0,0,0,0,0,0,0,0,0,-1,874,1212,0,0
-343,-188,0,0,0,0,0,0,0,0,0,-1,881,1212,0,0
-336,-188,0,0,0,0,0,0,0,0,0,-1,888,1212,0,0
-329,-188,0,0,0,0,0,0,0,0,0,-1,895,1212,0,0
-322,-188,0,0,0,0,0,0,0,0,0,-1,902,1212,0,0
-315,-188,0,0,0,0,0,0,0,0,0,-1,909,1212,0,0
-308,-188,0,0,0,0,0,0,0,0,0,-1,916,1212,0,0
-301,-188,0,0,0,0,0,0,0,0,0,-1,923,1212,0,0
-294,-188,0,0,0,0,0,0,0,0,0,-1,930,1212,0,0
-287,-188,0,0,0,0,0,0,0,0,0,-1,937,1212,0,0
-280,-188,0,0,0,0,0,0,0,0,0,-1,944,1212,0,0
-273,-188,0,0,0,0,0,0,0,0,0,-1,951,1212,0,0
-266,-188,0,0,0,0,0,0,0,0,0,-1,958,1212,0,0
-259,-188,0,0,0,0,0,0,0,0,0,-1,965,1212,0,0
-252,-188,0,0,0,0,0,0,0,0,0,-1,972,1212,0,0
-245,-188,0,0,0,0,0,0,0,0,0,-1,979,1212,0,0
-238,-188,0,0,0,0,0,0,0,0,0,-1,986,1212,0,0
-231,-188,0,0,0,0,0,0,0,0,0,-1,993,1212,0,0
-224,-188,0,0,0,0,0,0,0,0,0,-1,1000,1212,0,0
-217,-188,0,0,0,0,0,0,0,0,0,-1,1007,1212,0,0
-210,-188,0,0,0,0,0,0,0,0,0,-1,1014,1212,0,0
-203,-188,0,0,0,0,0,0,0,0,0,-1,1021,1212,0,0
-196,-188,0,0,0,0,0,0,0,0,0,-1,1028,1212,0,0
-189,-188,0,0,0,0,0,0,0,0,0,-1,1035,1212,0,0
-182,-188,0,0,0,0,0,0,0,0,0,-1,1042,1212,0,0
-175,-188,0,0,0,0,0,0,0,0,0,-1,1049,1212,0,0
-168,-188,0,0,0,0,0,0,0,0,0,-1,1056,1212,0,0
-161,-188,0,0,0,0,0,0,0,0,0,-1,1063,1212,0,0
-154,-188,0,0,0,0,0,0,0,0,0,-1,1070,1212,0,0
-147,-188,0,0,0,0,0,0,0,0,0,-1,1077,1212,0,0
-140,-188,0,0,0,0,0,0,0,0,0,-1,1084,1212,0,0
-133,-188,0,0,0,0,0,0,0,0,0,-1,1091,1212,0,0
-126,-188,0,0,0,0,0,0,0,0,0,-1,1098,1212,0,0
-119,-188,0,0,0,0,0,0,0,0,0,-1,1105,1212,0,0
-112,-188,0,0,0,0,0,0,0,0,0,-1,1112,1212,0,0
-105,-188,0,0,0,0,0,0,0,0,0,-1,1119,1212,0,0
-98,-188,0,0,0,0,0,0,0,0,0,-1,1126,1212,0,0
-91,-188,0,0,0,0,0,0,0,0,0,-1,1133,1212,0,0
-84,-188,0,0,0,0,0,0,0,0,0,-1,1140,1212,0,0
-77,-188,0,0,0,0,0,0,0,0,0,-1,1147,1212,0,0
-70,-188,0,0,0,0,0,0,0,0,0,-1,1154,1212,0,0
-63,-188,0,0,0,0,0,0,0,0,0,-1,1161,1212,0,0
-56,-188,0,0,0,0,0,0,0,0,0,-1,1168,1212,0,0
-49,-188,0,0,0,0,0,0,0,0,0,-1,1175,1212,0,0
-42,-188,0,0,0,0,0,0,0,0,0,-1,1182,1212,0,0
-35,-188,0,0,0,0,0,0,0,0,0,-1,1189,1212,0,0
-28,-188,0,0,0,0,0,0,0,0,0,-1,1196,1212,0,0
-21,-188,0,0,0,0,0,0,0,0,0,-1,1203,1212,0,0
-14,-188,0,0,0,0,0,0,0,0,0,-1,1210,1212,0,0
-7,-188,0,0,0,0,0,0,0,0,0,-1,1217,1212,0,0
0,-188,0,0,0,0,0,0,0,0,0,-1,1224,1212,0,0
7,-188,0,0,0,0,0,0,0,0,0,-1,1231,1212,0,0
14,-188,0,0,0,0,0,0,0,0,0,-1,1238,1212,0,0
21,-188,0,0,0,0,0,0,0,0,0,-1,1245,1212,0,0
28,-188,0,0,0,0,0,0,0,0,0,-1,1252,1212,0,0
35,-188,0,0,0,0,0,0,0,0,0,-1,1259,1212,0,0
42,-188,0,0,0,0,0,0,0,0,0,-1,1266,1212,0,0
49,-188,0,0,0,0,0,0,0,0,0,-1,1273,1212,0,0
56,-188,0,0,0,0,0,0,0,0,0,-1,1280,1212,0,0
63,-188,0,0,0,0,0,0,0,0,0,-1,1287,1212,0,0
70,-188,0,0,0,0,0,0,0,0,0,-1,1294,1212,0,0
77,-188,0,0,0,0,0,0,0,0,0,-1,1301,1212,0,0
84,-188,0,0,0,0,0,0,0,0,0,-1,1308,1212,0,0
91,-188,0,0,0,0,0,0,0,0,0,-1,1315,1212,0,0
98,-188,0,0,0,0,0,0,0,0,0,-1,1322,1212,0,0
105,-188,0,0,0,0,0,0,0,0,0,-1,1329,1212,0,0
112,-188,0,0,0,0,0,0,0,0,0,-1,1336,1212,0,0
119,-188,0,0,0,0,0,0,0,0,0,-1,1343,1212,0,0
126,-188,0,0,0,0,0,0,0,0,0,-1,1350,1212,0,0
133,-188,0,0,0,0,0,0,0,0,0,-1,1357,1212,0,0
140,-188,0,0,0,0,0,0,0,0,0,-1,1364,1212,0,0
147,-188,0,0,0,0,0,0,0,0,0,-1,1371,1212,0,0
154,-188,0,0,0,0,0,0,0,0,0,-1,1378,1212,0,0
161,-188,0,0,0,0,0,0,0,0,0,-1,1385,1212,0,0
168,-188,0,0,0,0,0,0,0,0,0,-1,1392,1212,0,0
175,-188,0,0,0,0,0,0,0,0,0,-1,1399,1212,0,0
182,-188,0,0,0,0,0,0,0,0,0,-1,1406,1212,0,0
189,-188,0,0,0,0,0,0,0,0,0,-1,1413,1212,0,0
196,-188,0,0,0,0,0,0,0,0,0,-1,1420,1212,0,0
203,-188,0,0,0,0,0,0,0,0,0,-1,1427,1212,0,0
210,-188,0,0,0,0,0,0,0,0,0,-1,1434,1212,0,0
217,-188,0,0,0,0,0,0,0,0,0,-1,1441,1212,0,0
224,-188,0,0,0,0,0,0,0,0,0,-1,1448,1212,0,0
231,-188,0,0,0,0,0,0,0,0,0,-1,1455,1212,0,0
238,-188,0,0,0,0,0,0,0,0,0,-1,1462,1212,0,0
245,-188,0,0,0,0,0,0,0,0,0,-1,1469,1212,0,0
252,-188,0,0,0,0,0,0,0,0,0,-1,1476,1212,0,0
259,-188,0,0,0,0,0,0,0,0,0,-1,1483,1212,0,0
266,-188,0,0,0,0,0,0,0,0,0,-1,1490,1212,0,0
273,-188,0,0,0,0,0,0,0,0,0,-1,1497,1212,0,0
280,-188,0,0,0,0,0,0,0,0,0,-1,1504,1212,0,0
287,-188,0,0,0,0,0,0,0,0,0,-1,1511,1212,0,0
294,-188,0,0,0,0,0,0,0,0,0,-1,1518,1212,0,0
301,-188,0,0,0,0,0,0,0,0,0,-1,1525,1212,0,0
308,-188,0,0,0,0,0,0,0,0,0,-1,1532,1212,0,0
315,-188,0,0,0,0,0,0,0,0,0,-1,1539,1212,0,0
322,-188,0,0,0,0,0,0,0,0,0,-1,1546,1212,0,0
329,-188,0,0,0,0,0,0,0,0,0,-1,1553,1212,0,0
336,-188,0,0,0,0,0,0,0,0,0,-1,1560,1212,0,0
343,-188,0,0,0,0,0,0,0,0,0,-1,1567,1212,0,0
350,-188,0,0,0,0,0,0,0,0,0,-1,1574,1212,0,0
357,-188,0,0,0,0,0,0,0,0,0,-1,1581,1212,0,0
364,-188,0,0,0,0,0,0,0,0,0,-1,1588,1212,0,0
371,-188,0,0,0,0,0,0,0,0,0,-1,1595,1212,0,0
378,-188,0,0,0,0,0,0,0,0,0,-1,1602,1212,0,0
385,-188,0,0,0,0,0,0,0,0,0,-1,1609,1212,0,0
392,-188,0,0,0,0,0,0,0,0,0,-1,1616,1212,0,0
399,-188,0,0,0,0,0,0,0,0,0,-1,1623,1212,0,0
406,-188,0,0,0,0,0,0,0,0,0,-1,1630,1212,0,0
413,-188,0,0,0,0,0,0,0,0,0,-1,1637,1212,0,0
420,-188,0,0,0,0,0,0,0,0,0,-1,1644,1212,0,0
427,-188,0,0,0,0,0,0,0,0,0,-1,1651,1212,0,0
434,-188,0,0,0,0,0,0,0,0,0,-1,1658,1212,0,0
441,-188,0,0,0,0,0,0,0,0,0,-1,1665,1212,0,0
448,-188,0,0,0,0,0,0,0,0,0,-1,1672,1212,0,0
455,-188,0,0,0,0,0,0,0,0,0,-1,1679,1212,0,0
462,-188,0,0,0,0,0,0,0,0,0,-1,1686,1212,0,0
469,-188,0,0,0,0,0,0,0,0,0,-1,1693,1212,0,0
476,-188,0,0,0,0,0,0,0,0,0,-1,1700,1212,0,0
483,-188,0,0,0,0,0,0,0,0,0,-1,1707,1212,0,0
490,-188,0,0,0,0,0,0,0,0,0,-1,1714,1212,0,0
497,-188,0,0,0,0,0,0,0,0,0,-1,1721,1212,0,0
504,-188,0,0,0,0,0,0,0,0,0,-1,1728,1212,0,0
511,-188,0,0,0,0,0,0,0,0,0,-1,1735,1212,0,0
518,-188,0,0,0,0,0,0,0,0,0,-1,1742,1212,0,0
525,-188,0,0,0,0,0,0,0,0,0,-1,1749,1212,0,0
532,-188,0,0,0,0,0,0,0,0,0,-1,1756,1212,0,0
539,-188,0,0,0,0,0,0,0,0,0,-1,1763,1212,0,0
546,-188,0,0,0,0,0,0,0,0,0,-1,1770,1212,0,0
553,-188,0,0,0,0,0,0,0,0,0,-1,1777,1212,0,0
560,-188,0,0,0,0,0,0,0,0,0,-1,1784,1212,0,0
567,-188,0,0,0,0,0,0,0,0,0,-1,1791,1212,0,0
574,-188,0,0,0,0,0,0,0,0,0,-1,1798,1212,0,0
581,-188,0,0,0,0,0,0,0,0,0,-1,1805,1212,0,0
588,-188,0,0,0,0,0,0,0,0,0,-1,1812,1212,0,0
595,-188,0,0,0,0,0,0,0,0,0,-1,1819,1212,0,0
602,-188,0,0,0,0,0,0,0,0,0,-1,1826,1212,0,0
609,-188,0,0,0,0,0,0,0,0,0,-1,1833,1212,0,0
616,-188,0,0,0,0,0,0,0,0,0,-1,1840,1212,0,0
623,-188,0,0,0,0,0,0,0,0,0,-1,1847,1212,0,0
630,-188,30.9222,3.09851,-0.00812553,0.00412421,-0.0065767,0.00698638,-0.0109877,-1.16032,0.0104627,0.0404206,1854,1212,30.9222,-3.09849
637,-188,30.7616,2.97913,-0.004432,0.0032294,-0.00450768,0.00531423,-0.00651683,-1.13759,0.00684242,0.0402258,1861,1212,30.7616,-2.97909
644,-188,30.6903,2.93042,-0.000632795,0.00242466,-0.00275542,0.00404701,-0.00225515,-1.03866,0.00368726,0.0359358,1868,1212,30.6903,-2.93046
651,-188,30.7023,2.93201,0.00290405,0.00174443,-0.00142224,0.00386013,0.000788356,-0.591846,0.00235504,0.0320753,1875,1212,30.7023,-2.93196
658,-188,30.7594,2.86499,0.00538374,0.00104867,-0.000542873,0.00545069,0.000981718,-0.122704,0.00335478,0.0340511,1882,1212,30.7594,-2.86502
665,-188,30.7264,2.93994,0.00653954,0.000559185,-0.000132462,0.00654247,0.000556252,-0.022135,0.00418856,0.0301043,1889,1212,30.7264,-2.93992
672,-188,30.7278,2.93408,0.00656657,7.4176e-06,0.000199646,0.00657265,1.34623e-06,0.0304003,0.00438132,0.0243398,1896,1212,30.7278,-2.93412
679,-188,30.7661,2.84814,0.00590924,-0.000348388,0.000539376,0.00595539,-0.000394539,0.085356,0.00410809,0.0478004,1903,1212,30.7661,-2.84813
686,-188,30.8572,2.78735,0,0,0,0,0,0,0,-1,1910,1212,30.8571,-2.78741
693,-188,30.9702,2.70203,0,0,0,0,0,0,0,-1,1917,1212,30.9702,-2.70208
700,-188,27.0299,6.40637,0,0,0,0,0,0,0,-1,1924,1212,27.0299,-6.40633
707,-188,26.7242,6.24207,0.00265102,-0.0010642,0.00112692,0.00296612,-0.00137931,0.272648,0.00256398,0.0246988,1931,1212,26.7242,-6.24207
714,-188,26.67,6.09375,0.00150586,-0.00107962,0.00111445,0.00191992,-0.00149368,0.355733,0.00197596,0.0203102,1938,1212,26.6701,-6.09378
721,-188,26.5402,5.90198,0.000241661,-0.00108688,0.00115927,0.000913491,-0.00175871,0.525231,0.00156831,0.0165498,1945,1212,26.5401,-5.90196
728,-188,26.4628,5.66345,-0.000963963,-0.00080551,0.00116626,0.000284207,-0.00205368,0.819312,0.00147302,0.00987425,1952,1212,26.4627,-5.66342
735,-188,26.4451,5.4458,-0.000804602,-0.000514184,0.00122551,0.00057469,-0.00189348,0.844368,0.00149126,0.0124106,1959,1212,26.4451,-5.44578
742,-188,26.4418,5.20435,0.00136465,-0.000859357,0.000949193,0.00171467,-0.00120938,0.353286,0.00169658,0.0140642,1966,1212,26.4417,-5.20438
749,-188,26.4657,4.97278,0.00510169,-0.00131768,0.000370758,0.00512304,-0.00133902,0.0575013,0.00393832,0.0136456,1973,1212,26.4656,-4.97274
756,-188,26.4584,4.72949,0.0106194,-0.000598354,-0.000619895,0.0106535,-0.000632506,-0.0550369,0.0073223,0.0119436,1980,1212,26.4584,-4.72954
763,-188,26.4752,4.48059,0.0171251,-0.000775932,-0.00174433,0.0172935,-0.00094432,-0.0962366,0.0118563,0.0142366,1987,1212,26.4752,-4.48053
770,-188,26.4779,4.21069,0.0255267,-0.000932939,-0.00320087,0.0259084,-0.00131465,-0.118691,0.0177267,0.0253286,1994,1212,26.478,-4.21075
777,-188,26.5411,3.76196,0.0360981,-0.000905843,-0.00506068,0.0367777,-0.00158546,-0.133495,0.0250637,0.0482014,2001,1212,26.5411,-3.76197
784,-188,26.6797,3.33008,0,0,0,0,0,0,0,-1,2008,1212,26.6797,-3.33009
791,-188,28.3774,2.85901,0,0,0,0,0,0,0,-1,2015,1212,28.3775,-2.85903
798,-188,28.9763,2.79138,0,0,0,0,0,0,0,-1,2022,1212,28.9763,-2.79142
805,-188,0,0,0,0,0,0,0,0,0,-1,2029,1212,0,0
812,-188,0,0,0,0,0,0,0,0,0,-1,2036,1212,0,0
-700,-195,0,0,0,0,0,0,0,0,0,-1,524,1219,0,0
-693,-195,0,0,0,0,0,0,0,0,0,-1,531,1219,0,0
-686,-195,0,0,0,0,0,0,0,0,0,-1,538,1219,0,0
-679,-195,-17.1024,-1.70898,-0.0355747,0.0384907,-0.0270295,0.0473057,-0.0443897,-1.25555,0.0529493,0.0459993,545,1219,-17.1023,1.70895
-672,-195,-17.8001,-1.05872,-0.0281963,0.035919,-0.0144979,0.0390448,-0.0313222,-1.35844,0.0407079,0.0441975,552,1219,-17.8001,1.05871
-665,-195,-18.0596,-0.596436,-0.0219061,0.0325128,-0.00664527,0.0333125,-0.0227059,-1.45103,0.0325349,0.0428675,559,1219,-18.0596,0.596424
-658,-195,-18.1532,0.085083,0,0,0,0,0,0,0,-1,566,1219,-18.1532,-0.0850544
-651,-195,-15.8388,1.75415,0,0,0,0,0,0,0,-1,573,1219,-15.8388,-1.75409
-644,-195,-16.1007,1.76477,-0.00852831,0.0203881,0.00237359,0.0205816,-0.00872185,1.48944,0.0173741,0.0422173,580,1219,-16.1007,-1.76472
-637,-195,-16.3882,1.71924,-0.00580786,0.0163531,0.0027648,0.0166928,-0.00614759,1.44853,0.0136474,0.023053,587,1219,-16.3882,-1.71921
-630,-195,-16.5059,1.96594,-0.00424489,0.012648,0.00403614,0.0135628,-0.00515969,1.34791,0.0111664,0.00839491,594,1219,-16.5059,-1.966
-623,-195,-16.5169,2.24585,-0.00251748,0.00853538,0.00352635,0.0095646,-0.00354671,1.28682,0.00783109,0.00816889,601,1219,-16.5169,-2.2459
-616,-195,-16.5136,2.52661,-0.00138742,0.00605902,0.0015097,0.00635346,-0.00168186,1.37818,0.00489356,0.0100022,608,1219,-16.5136,-2.52656
-609,-195,-16.52,2.85376,-0.00146004,0.00382594,-7.52369e-05,0.00382701,-0.00146111,-1.55657,0.00315331,0.0186602,615,1219,-16.52,-2.85374
-602,-195,-16.5469,3.10938,-0.00187634,0.00204826,-0.00117292,0.00237209,-0.00220017,-1.30142,0.00264042,0.0209123,622,1219,-16.5469,-3.10932
-595,-195,-16.5707,3.38196,-0.00234328,0.000762043,-0.00153993,0.00139619,-0.00297743,-1.18016,0.00257954,0.0157781,629,1219,-16.5707,-3.38199
-588,-195,-16.5725,3.6322,-0.00259,0.000747196,-0.00180929,0.00153985,-0.00338265,-1.15788,0.00290763,0.0109944,636,1219,-16.5725,-3.6322
-581,-195,-16.6277,3.8175,-0.00240223,0.000684583,-0.00205192,0.00170876,-0.00342641,-1.10784,0.00301957,0.0168747,643,1219,-16.6277,-3.81752
-574,-195,-16.894,3.73352,-0.00188309,0.000738694,-0.00215623,0.00195125,-0.00309565,-1.05852,0.00293869,0.0377987,650,1219,-16.8941,-3.73351
-567,-195,-17.1385,3.61646,0,0,0,0,0,0,0,-1,657,1219,-17.1385,-3.61648
-560,-195,-17.2854,0.244507,0,0,0,0,0,0,0,-1,664,1219,-17.2854,-0.244526
-553,-195,-21.3456,1.08765,0,0,0,0,0,0,0,-1,671,1219,-21.3456,-1.08767
-546,-195,-21.3151,1.12781,-0.000923159,-0.000300615,-0.000888894,0.000329932,-0.00155371,-0.953815,0.00116151,0.0462038,678,1219,-21.3151,-1.12782
-539,-195,-21.3703,1.22412,-0.000735685,-0.000745187,-0.000249106,-0.000491285,-0.000989587,-0.775864,0.000571343,0.0358646,685,1219,-21.3703,-1.22412
-532,-195,-21.3625,1.06226,-0.000830083,-0.0013688,0.000637845,-0.000407053,-0.00179183,0.585611,0.00108463,0.0325046,692,1219,-21.3625,-1.0622
-525,-195,-21.2668,1.09387,-0.00122426,-0.00226447,0.00190007,0.000225605,-0.00371434,0.651805,0.00255475,0.0377859,699,1219,-21.2668,-1.09392
-518,-195,-21.209,1.27148,-0.0026594,-0.00334176,0.003347,0.000363769,-0.00636492,0.734606,0.00436959,0.0394886,706,1219,-21.209,-1.27144
-511,-195,-21.2093,1.38159,-0.00351738,-0.00345613,0.00506355,0.00157689,-0.0085504,0.788422,0.00629211,0.0400744,713,1219,-21.2093,-1.38161
-504,-195,0,0,0,0,0,0,0,0,0,-1,720,1219,0,0
-497,-195,0,0,0,0,0,0,0,0,0,-1,727,1219,0,0
-490,-195,0,0,0,0,0,0,0,0,0,-1,734,1219,0,0
-483,-195,0,0,0,0,0,0,0,0,0,-1,741,1219,0,0
-476,-195,0,0,0,0,0,0,0,0,0,-1,748,1219,0,0
-469,-195,0,0,0,0,0,0,0,0,0,-1,755,1219,0,0
-462,-195,0,0,0,0,0,0,0,0,0,-1,762,1219,0,0
-455,-195,0,0,0,0,0,0,0,0,0,-1,769,1219,0,0
-448,-195,0,0,0,0,0,0,0,0,0,-1,776,1219,0,0
-441,-195,0,0,0,0,0,0,0,0,0,-1,783,1219,0,0
-434,-195,0,0,0,0,0,0,0,0,0,-1,790,1219,0,0
-427,-195,0,0,0,0,0,0,0,0,0,-1,797,1219,0,0
-420,-195,0,0,0,0,0,0,0,0,0,-1,804,1219,0,0
-413,-195,0,0,0,0,0,0,0,0,0,-1,811,1219,0,0
-406,-195,0,0,0,0,0,0,0,0,0,-1,818,1219,0,0
-399,-195,0,0,0,0,0,0,0,0,0,-1,825,1219,0,0
-392,-195,0,0,0,0,0,0,0,0,0,-1,832,1219,0,0
-385,-195,0,0,0,0,0,0,0,0,0,-1,839,1219,0,0
-378,-195,0,0,0,0,0,0,0,0,0,-1,846,1219,0,0
-371,-195,0,0,0,0,0,0,0,0,0,-1,853,1219,0,0
-364,-195,0,0,0,0,0,0,0,0,0,-1,860,1219,0,0
-357,-195,0,0,0,0,0,0,0,0,0,-1,867,1219,0,0
-350,-195,0,0,0,0,0,0,0,0,0,-1,874,1219,0,0
-343,-195,0,0,0,0,0,0,0,0,0,-1,881,1219,0,0
-336,-195,0,0,0,0,0,0,0,0,0,-1,888,1219,0,0
-329,-195,0,0,0,0,0,0,0,0,0,-1,895,1219,0,0
-322,-195,0,0,0,0,0,0,0,0,0,-1,902,1219,0,0
-315,-195,0,0,0,0,0,0,0,0,0,-1,909,1219,0,0
-308,-195,0,0,0,0,0,0,0,0,0,-1,916,1219,0,0
-301,-195,0,0,0,0,0,0,0,0,0,-1,923,1219,0,0
-294,-195,0,0,0,0,0,0,0,0,0,-1,930,1219,0,0
-287,-195,0,0,0,0,0,0,0,0,0,-1,937,1219,0,0
-280,-195,0,0,0,0,0,0,0,0,0,-1,944,1219,0,0
-273,-195,0,0,0,0,0,0,0,0,0,-1,951,1219,0,0
-266,-195,0,0,0,0,0,0,0,0,0,-1,958,1219,0,0
-259,-195,0,0,0,0,0,0,0,0,0,-1,965,1219,0,0
-252,-195,0,0,0,0,0,0,0,0,0,-1,972,1219,0,0
-245,-195,0,0,0,0,0,0,0,0,0,-1,979,1219,0,0
-238,-195,0,0,0,0,0,0,0,0,0,-1,986,1219,0,0
-231,-195,0,0,0,0,0,0,0,0,0,-1,993,1219,0,0
-224,-195,0,0,0,0,0,0,0,0,0,-1,1000,1219,0,0
-217,-195,0,0,0,0,0,0,0,0,0,-1,1007,1219,0,0
-210,-195,0,0,0,0,0,0,0,0,0,-1,1014,1219,0,0
-203,-195,0,0,0,0,0,0,0,0,0,-1,1021,1219,0,0
-196,-195,0,0,0,0,0,0,0,0,0,-1,1028,1219,0,0
-189,-195,0,0,0,0,0,0,0,0,0,-1,1035,1219,0,0
-182,-195,0,0,0,0,0,0,0,0,0,-1,1042,1219,0,0
-175,-195,0,0,0,0,0,0,0,0,0,-1,1049,1219,0,0
-168,-195,0,0,0,0,0,0,0,0,0,-1,1056,1219,0,0
-161,-195,0,0,0,0,0,0,0,0,0,-1,1063,1219,0,0
-154,-195,0,0,0,0,0,0,0,0,0,-1,1070,1219,0,0
-147,-195,0,0,0,0,0,0,0,0,0,-1,1077,1219,0,0
-140,-195,0,0,0,0,0,0,0,0,0,-1,1084,1219,0,0
-133,-195,0,0,0,0,0,0,0,0,0,-1,1091,1219,0,0
-126,-195,0,0,0,0,0,0,0,0,0,-1,1098,1219,0,0
-119,-195,0,0,0,0,0,0,0,0,0,-1,1105,1219,0,0
-112,-195,0,0,0,0,0,0,0,0,0,-1,1112,1219,0,0
-105,-195,0,0,0,0,0,0,0,0,0,-1,1119,1219,0,0
-98,-195,0,0,0,0,0,0,0,0,0,-1,1126,1219,0,0
-91,-195,0,0,0,0,0,0,0,0,0,-1,1133,1219,0,0
-84,-195,0,0,0,0,0,0,0,0,0,-1,1140,1219,0,0
-77,-195,0,0,0,0,0,0,0,0,0,-1,1147,1219,0,0
-70,-195,0,0,0,0,0,0,0,0,0,-1,1154,1219,0,0
-63,-195,0,0,0,0,0,0,0,0,0,-1,1161,1219,0,0
-56,-195,0,0,0,0,0,0,0,0,0,-1,1168,1219,0,0
-49,-195,0,0,0,0,0,0,0,0,0,-1,1175,1219,0,0
-42,-195,0,0,0,0,0,0,0,0,0,-1,1182,1219,0,0
-35,-195,0,0,0,0,0,0,0,0,0,-1,1189,1219,0,0
-28,-195,0,0,0,0,0,0,0,0,0,-1,1196,1219,0,0
-21,-195,0,0,0,0,0,0,0,0,0,-1,1203,1219,0,0
-14,-195,0,0,0,0,0,0,0,0,0,-1,1210,1219,0,0
-7,-195,0,0,0,0,0,0,0,0,0,-1,1217,1219,0,0
0,-195,0,0,0,0,0,0,0,0,0,-1,1224,1219,0,0
7,-195,0,0,0,0,0,0,0,0,0,-1,1231,1219,0,0
14,-195,0,0,0,0,0,0,0,0,0,-1,1238,1219,0,0
21,-195,0,0,0,0,0,0,0,0,0,-1,1245,1219,0,0
28,-195,0,0,0,0,0,0,0,0,0,-1,1252,1219,0,0
35,-195,0,0,0,0,0,0,0,0,0,-1,1259,1219,0,0
42,-195,0,0,0,0,0,0,0,0,0,-1,1266,1219,0,0
49,-195,0,0,0,0,0,0,0,0,0,-1,1273,1219,0,0
56,-195,0,0,0,0,0,0,0,0,0,-1,1280,1219,0,0
63,-195,0,0,0,0,0,0,0,0,0,-1,1287,1219,0,0
70,-195,0,0,0,0,0,0,0,0,0,-1,1294,1219,0,0
77,-195,0,0,0,0,0,0,0,0,0,-1,1301,1219,0,0
84,-195,0,0,0,0,0,0,0,0,0,-1,1308,1219,0,0
91,-195,0,0,0,0,0,0,0,0,0,-1,1315,1219,0,0
98,-195,0,0,0,0,0,0,0,0,0,-1,1322,1219,0,0
105,-195,0,0,0,0,0,0,0,0,0,-1,1329,1219,0,0
112,-195,0,0,0,0,0,0,0,0,0,-1,1336,1219,0,0
119,-195,0,0,0,0,0,0,0,0,0,-1,1343,1219,0,0
126,-195,0,0,0,0,0,0,0,0,0,-1,1350,1219,0,0
133,-195,0,0,0,0,0,0,0,0,0,-1,1357,1219,0,0
140,-195,0,0,0,0,0,0,0,0,0,-1,1364,1219,0,0
147,-195,0,0,0,0,0,0,0,0,0,-1,1371,1219,0,0
154,-195,0,0,0,0,0,0,0,0,0,-1,1378,1219,0,0
161,-195,0,0,0,0,0,0,0,0,0,-1,1385,1219,0,0
168,-195,0,0,0,0,0,0,0,0,0,-1,1392,1219,0,0
175,-195,0,0,0,0,0,0,0,0,0,-1,1399,1219,0,0
182,-195,0,0,0,0,0,0,0,0,0,-1,1406,1219,0,0
189,-195,0,0,0,0,0,0,0,0,0,-1,1413,1219,0,0
196,-195,0,0,0,0,0,0,0,0,0,-1,1420,1219,0,0
203,-195,0,0,0,0,0,0,0,0,0,-1,1427,1219,0,0
210,-195,0,0,0,0,0,0,0,0,0,-1,1434,1219,0,0
217,-195,0,0,0,0,0,0,0,0,0,-1,1441,1219,0,0
224,-195,0,0,0,0,0,0,0,0,0,-1,1448,1219,0,0
231,-195,0,0,0,0,0,0,0,0,0,-1,1455,1219,0,0
238,-195,0,0,0,0,0,0,0,0,0,-1,1462,1219,0,0
245,-195,0,0,0,0,0,0,0,0,0,-1,1469,1219,0,0
252,-195,0,0,0,0,0,0,0,0,0,-1,1476,1219,0,0
259,-195,0,0,0,0,0,0,0,0,0,-1,1483,1219,0,0
266,-195,0,0,0,0,0,0,0,0,0,-1,1490,1219,0,0
273,-195,0,0,0,0,0,0,0,0,0,-1,1497,1219,0,0
280,-195,0,0,0,0,0,0,0,0,0,-1,1504,1219,0,0
287,-195,0,0,0,0,0,0,0,0,0,-1,1511,1219,0,0
294,-195,0,0,0,0,0,0,0,0,0,-1,1518,1219,0,0
301,-195,0,0,0,0,0,0,0,0,0,-1,1525,1219,0,0
308,-195,0,0,0,0,0,0,0,0,0,-1,1532,1219,0,0
315,-195,0,0,0,0,0,0,0,0,0,-1,1539,1219,0,0
322,-195,0,0,0,0,0,0,0,0,0,-1,1546,1219,0,0
329,-195,0,0,0,0,0,0,0,0,0,-1,1553,1219,0,0
336,-195,0,0,0,0,0,0,0,0,0,-1,1560,1219,0,0
343,-195,0,0,0,0,0,0,0,0,0,-1,1567,1219,0,0
350,-195,0,0,0,0,0,0,0,0,0,-1,1574,1219,0,0
357,-195,0,0,0,0,0,0,0,0,0,-1,1581,1219,0,0
364,-195,0,0,0,0,0,0,0,0,0,-1,1588,1219,0,0
371,-195,0,0,0,0,0,0,0,0,0,-1,1595,1219,0,0
378,-195,0,0,0,0,0,0,0,0,0,-1,1602,1219,0,0
385,-195,0,0,0,0,0,0,0,0,0,-1,1609,1219,0,0
392,-195,0,0,0,0,0,0,0,0,0,-1,1616,1219,0,0
399,-195,0,0,0,0,0,0,0,0,0,-1,1623,1219,0,0
406,-195,0,0,0,0,0,0,0,0,0,-1,1630,1219,0,0
413,-195,0,0,0,0,0,0,0,0,0,-1,1637,1219,0,0
420,-195,0,0,0,0,0,0,0,0,0,-1,1644,1219,0,0
427,-195,0,0,0,0,0,0,0,0,0,-1,1651,1219,0,0
434,-195,0,0,0,0,0,0,0,0,0,-1,1658,1219,0,0
441,-195,0,0,0,0,0,0,0,0,0,-1,1665,1219,0,0
448,-195,0,0,0,0,0,0,0,0,0,-1,1672,1219,0,0
455,-195,0,0,0,0,0,0,0,0,0,-1,1679,1219,0,0
462,-195,0,0,0,0,0,0,0,0,0,-1,1686,1219,0,0
469,-195,0,0,0,0,0,0,0,0,0,-1,1693,1219,0,0
476,-195,0,0,0,0,0,0,0,0,0,-1,1700,1219,0,0
483,-195,0,0,0,0,0,0,0,0,0,-1,1707,1219,0,0
490,-195,0,0,0,0,0,0,0,0,0,-1,1714,1219,0,0
497,-195,0,0,0,0,0,0,0,0,0,-1,1721,1219,0,0
504,-195,0,0,0,0,0,0,0,0,0,-1,1728,1219,0,0
511,-195,0,0,0,0,0,0,0,0,0,-1,1735,1219,0,0
518,-195,0,0,0,0,0,0,0,0,0,-1,1742,1219,0,0
525,-195,0,0,0,0,0,0,0,0,0,-1,1749,1219,0,0
532,-195,0,0,0,0,0,0,0,0,0,-1,1756,1219,0,0
539,-195,0,0,0,0,0,0,0,0,0,-1,1763,1219,0,0
546,-195,0,0,0,0,0,0,0,0,0,-1,1770,1219,0,0
553,-195,0,0,0,0,0,0,0,0,0,-1,1777,1219,0,0
560,-195,0,0,0,0,0,0,0,0,0,-1,1784,1219,0,0
567,-195,0,0,0,0,0,0,0,0,0,-1,1791,1219,0,0
574,-195,0,0,0,0,0,0,0,0,0,-1,1798,1219,0,0
581,-195,0,0,0,0,0,0,0,0,0,-1,1805,1219,0,0
588,-195,0,0,0,0,0,0,0,0,0,-1,1812,1219,0,0
595,-195,0,0,0,0,0,0,0,0,0,-1,1819,1219,0,0
602,-195,0,0,0,0,0,0,0,0,0,-1,1826,1219,0,0
609,-195,0,0,0,0,0,0,0,0,0,-1,1833,1219,0,0
616,-195,0,0,0,0,0,0,0,0,0,-1,1840,1219,0,0
623,-195,0,0,0,0,0,0,0,0,0,-1,1847,1219,0,0
630,-195,30.7773,2.94043,-0.00697457,0.00383276,-0.00604325,0.00653591,-0.00967772,-1.15019,0.00941934,0.0384874,1854,1219,30.7774,-2.9404
637,-195,30.7454,2.92578,-0.00331657,0.00294887,-0.0040422,0.00493019,-0.00529788,-1.11505,0.00590645,0.0383341,1861,1219,30.7453,-2.92582
644,-195,30.7479,2.97449,0.000479424,0.00222883,-0.00226171,0.00377909,-0.00107083,-0.969912,0.00294203,0.0344967,1868,1219,30.7479,-2.97453
651,-195,30.781,2.99878,0.00387984,0.00164771,-0.00096653,0.00424018,0.00128737,-0.35686,0.00251023,0.0271474,1875,1219,30.781,-2.99882
658,-195,30.7745,2.9325,0.00609956,0.00105383,-0.00014067,0.00610348,0.00104991,-0.0278502,0.00376809,0.0255106,1882,1219,30.7745,-2.93247
665,-195,30.7732,2.96057,0.00706612,0.000611219,0.000263096,0.00707683,0.000600513,0.0406692,0.004531,0.0231457,1889,1219,30.7732,-2.96057
672,-195,30.8369,2.98926,0.00702914,8.11896e-05,0.000585228,0.00707809,3.22405e-05,0.0834468,0.00470802,0.0343183,1896,1219,30.8369,-2.98929
679,-195,31.1785,3.33142,0.00644793,-0.000247987,0.00089202,0.00656472,-0.000364784,0.130194,0.004503,0.0491837,1903,1219,31.1784,-3.33139
686,-195,31.5349,3.64551,0,0,0,0,0,0,0,-1,1910,1219,31.535,-3.64554
693,-195,24.4368,5.68298,0,0,0,0,0,0,0,-1,1917,1219,24.4368,-5.68293
700,-195,26.2771,6.75415,0,0,0,0,0,0,0,-1,1924,1219,26.2771,-6.75417
707,-195,26.2794,6.42603,0.00325826,-0.00104266,0.00141733,0.00368332,-0.00146773,0.291367,0.00306429,0.0263789,1931,1219,26.2794,-6.42605
714,-195,26.2347,6.12146,0.00204503,-0.00113542,0.00144,0.00260013,-0.00169052,0.367932,0.00249569,0.0245705,1938,1219,26.2347,-6.12142
721,-195,26.2194,5.91089,0.000676164,-0.00118683,0.00146035,0.00147681,-0.00198747,0.501502,0.00200733,0.0128768,1945,1219,26.2193,-5.91095
728,-195,26.2106,5.68225,-0.000569362,-0.000952927,0.00143346,0.000685093,-0.00220738,0.718898,0.00174536,0.0101907,1952,1219,26.2106,-5.6823
735,-195,26.2101,5.4281,-0.000179833,-0.000769954,0.0016,0.00115209,-0.00210188,0.694216,0.00190517,0.0117921,1959,1219,26.2101,-5.42815
742,-195,26.2169,5.19055,0.00222159,-0.00132774,0.00151828,0.00278243,-0.00188858,0.353848,0.00271322,0.0136529,1966,1219,26.2169,-5.19057
749,-195,26.2129,4.97498,0.00598966,-0.00212592,0.00119292,0.00616138,-0.00229764,0.142964,0.00505078,0.0131832,1973,1219,26.2129,-4.97501
756,-195,26.2196,4.74084,0.0114159,-0.00204355,0.000563595,0.0114394,-0.0020671,0.0417762,0.00840052,0.0125827,1980,1219,26.2197,-4.74088
763,-195,26.2301,4.47192,0.0179402,-0.00299755,-0.000128004,0.017941,-0.00299833,-0.00611325,0.0130752,0.0149688,1987,1219,26.2301,-4.47194
770,-195,26.2396,4.22827,0.0263734,-0.00423285,-0.00108529,0.0264118,-0.00427128,-0.0354006,0.0191907,0.0293393,1994,1219,26.2396,-4.22829
777,-195,26.2609,4.00012,0,0,0,0,0,0,0,-1,2001,1219,26.2608,-4.00009
784,-195,29.0968,1.34729,0,0,0,0,0,0,0,-1,2008,1219,29.0968,-1.34723
791,-195,28.7548,2.29248,0,0,0,0,0,0,0,-1,2015,1219,28.7547,-2.2925
798,-195,29.2734,2.77209,0,0,0,0,0,0,0,-1,2022,1219,29.2733,-2.77206
805,-195,0,0,0,0,0,0,0,0,0,-1,2029,1219,0,0
812,-195,0,0,0,0,0,0,0,0,0,-1,2036,1219,0,0
-700,-202,0,0,0,0,0,0,0,0,0,-1,524,1226,0,0
-693,-202,0,0,0,0,0,0,0,0,0,-1,531,1226,0,0
-686,-202,0,0,0,0,0,0,0,0,0,-1,538,1226,0,0
-679,-202,-17.1778,-1.43176,-0.0487531,0.0407614,-0.013632,0.0427914,-0.0507831,-1.42297,0.0540909,0.0477764,545,1226,-17.1778,1.4318
-672,-202,-17.7021,-1.14368,-0.0381708,0.0388082,-0.00423152,0.0390401,-0.0384027,-1.51605,0.0447121,0.0456725,552,1226,-17.7022,1.14371
-665,-202,-17.926,-0.713135,-0.0294446,0.0355561,0.00115185,0.0355765,-0.029465,1.55308,0.037607,0.0436688,559,1226,-17.926,0.713089
-658,-202,-18.1429,-0.297241,-0.0221671,0.0315655,0.00404037,0.0318676,-0.0224692,1.49616,0.0315274,0.0415221,566,1226,-18.1429,0.297192
-651,-202,-18.3914,0.171753,-0.0161817,0.027183,0.00531057,0.0278239,-0.0168226,1.4507,0.0260362,0.0450418,573,1226,-18.3914,-0.171805
-644,-202,-15.8965,1.38611,-0.0114006,0.0226683,0.00550139,0.0235346,-0.0122669,1.4146,0.0210085,0.0464253,580,1226,-15.8965,-1.38611
-637,-202,-16.0422,1.6676,-0.00770957,0.0182307,0.00499122,0.019158,-0.0086368,1.38712,0.0164261,0.0352,587,1226,-16.0422,-1.66754
-630,-202,-16.1861,1.93994,-0.00534026,0.014167,0.00538198,0.0155533,-0.00672661,1.31869,0.0131955,0.0152627,594,1226,-16.1861,-1.93989
-623,-202,-16.2177,2.23303,-0.00297818,0.0098494,0.00434942,0.0111851,-0.00431385,1.27285,0.00923678,0.00867511,601,1226,-16.2177,-2.23299
-616,-202,-16.2288,2.52332,-0.00133663,0.00703998,0.00211674,0.00754448,-0.00184113,1.33682,0.00574261,0.00860601,608,1226,-16.2288,-2.52326
-609,-202,-16.2346,2.81079,-0.00109937,0.00447152,0.000346343,0.00449297,-0.00112082,1.50894,0.0034305,0.0220238,615,1226,-16.2345,-2.81077
-602,-202,-16.2705,3.06128,-0.00130913,0.00228548,-0.000889386,0.00249349,-0.00151715,-1.34104,0.0023383,0.0224212,622,1226,-16.2705,-3.0613
-595,-202,-16.3041,3.36584,-0.00171256,0.000811958,-0.00129845,0.00136057,-0.00226118,-1.17103,0.00211246,0.017528,629,1226,-16.3041,-3.36583
-588,-202,-16.2549,3.65991,-0.00192707,0.000797912,-0.00162368,0.00155502,-0.00268419,-1.13448,0.00247628,0.00903924,636,1226,-16.2549,-3.65985
-581,-202,-16.234,3.83667,-0.00169304,0.000744266,-0.00192013,0.00179982,-0.0027486,-1.06816,0.002645,0.0229953,643,1226,-16.234,-3.83663
-574,-202,-16.4744,3.8573,-0.00113269,0.000791501,-0.00202913,0.00207506,-0.00241626,-1.00677,0.00259556,0.0323777,650,1226,-16.4744,-3.85726
-567,-202,-16.6823,3.87109,0,0,0,0,0,0,0,-1,657,1226,-16.6823,-3.87112
-560,-202,-10.929,2.73096,0,0,0,0,0,0,0,-1,664,1226,-10.929,-2.73092
-553,-202,-21.4526,1.13843,0,0,0,0,0,0,0,-1,671,1226,-21.4526,-1.13846
-546,-202,-21.3918,1.11182,-0.000634358,-0.00065387,-0.000359962,-0.00028402,-0.00100421,-0.77185,0.000597731,0.0475415,678,1226,-21.3918,-1.1118
-539,-202,-21.3156,1.13025,-0.000782843,-0.00122562,0.000389591,-0.000556132,-0.00145233,0.527021,0.000846132,0.039044,685,1226,-21.3155,-1.13024
-532,-202,-21.3163,1.13928,-0.00129064,-0.00196728,0.00140125,-0.000187445,-0.00307047,0.666944,0.00198745,0.0282364,692,1226,-21.3163,-1.13928
-525,-202,-21.3118,1.1333,-0.00214383,-0.00293739,0.0028023,0.000289639,-0.00537086,0.715071,0.00368092,0.0341669,699,1226,-21.3118,-1.13331
-518,-202,-21.2675,1.30432,-0.00387538,-0.00413294,0.00455413,0.000551792,-0.00856011,0.771263,0.00589928,0.0399709,706,1226,-21.2675,-1.30433
-511,-202,-21.218,1.22998,-0.00514449,-0.00454392,0.00668131,0.00184385,-0.0115323,0.807855,0.00837075,0.0404885,713,1226,-21.218,-1.22997
-504,-202,0,0,0,0,0,0,0,0,0,-1,720,1226,0,0
-497,-202,0,0,0,0,0,0,0,0,0,-1,727,1226,0,0
-490,-202,0,0,0,0,0,0,0,0,0,-1,734,1226,0,0
-483,-202,0,0,0,0,0,0,0,0,0,-1,741,1226,0,0
-476,-202,0,0,0,0,0,0,0,0,0,-1,748,1226,0,0
-469,-202,0,0,0,0,0,0,0,0,0,-1,755,1226,0,0
-462,-202,0,0,0,0,0,0,0,0,0,-1,762,1226,0,0
-455,-202,0,0,0,0,0,0,0,0,0,-1,769,1226,0,0
-448,-202,0,0,0,0,0,0,0,0,0,-1,776,1226,0,0
-441,-202,0,0,0,0,0,0,0,0,0,-1,783,1226,0,0
-434,-202,0,0,0,0,0,0,0,0,0,-1,790,1226,0,0
-427,-202,0,0,0,0,0,0,0,0,0,-1,797,1226,0,0
-420,-202,0,0,0,0,0,0,0,0,0,-1,804,1226,0,0
-413,-202,0,0,0,0,0,0,0,0,0,-1,811,1226,0,0
-406,-202,0,0,0,0,0,0,0,0,0,-1,818,1226,0,0
-399,-202,0,0,0,0,0,0,0,0,0,-1,825,1226,0,0
-392,-202,0,0,0,0,0,0,0,0,0,-1,832,1226,0,0
-385,-202,0,0,0,0,0,0,0,0,0,-1,839,1226,0,0
-378,-202,0,0,0,0,0,0,0,0,0,-1,846,1226,0,0
-371,-202,0,0,0,0,0,0,0,0,0,-1,853,1226,0,0
-364,-202,0,0,0,0,0,0,0,0,0,-1,860,1226,0,0
-357,-202,0,0,0,0,0,0,0,0,0,-1,867,1226,0,0
-350,-202,0,0,0,0,0,0,0,0,0,-1,874,1226,0,0
-343,-202,0,0,0,0,0,0,0,0,0,-1,881,1226,0,0
-336,-202,0,0,0,0,0,0,0,0,0,-1,888,1226,0,0
-329,-202,0,0,0,0,0,0,0,0,0,-1,895,1226,0,0
-322,-202,0,0,0,0,0,0,0,0,0,-1,902,1226,0,0
-315,-202,0,0,0,0,0,0,0,0,0,-1,909,1226,0,0
-308,-202,0,0,0,0,0,0,0,0,0,-1,916,1226,0,0
-301,-202,0,0,0,0,0,0,0,0,0,-1,923,1226,0,0
-294,-202,0,0,0,0,0,0,0,0,0,-1,930,1226,0,0
-287,-202,0,0,0,0,0,0,0,0,0,-1,937,1226,0,0
-280,-202,0,0,0,0,0,0,0,0,0,-1,944,1226,0,0
-273,-202,0,0,0,0,0,0,0,0,0,-1,951,1226,0,0
-266,-202,0,0,0,0,0,0,0,0,0,-1,958,1226,0,0
-259,-202,0,0,0,0,0,0,0,0,0,-1,965,1226,0,0
-252,-202,0,0,0,0,0,0,0,0,0,-1,972,1226,0,0
-245,-202,0,0,0,0,0,0,0,0,0,-1,979,1226,0,0
-238,-202,0,0,0,0,0,0,0,0,0,-1,986,1226,0,0
-231,-202,0,0,0,0,0,0,0,0,0,-1,993,1226,0,0
-224,-202,0,0,0,0,0,0,0,0,0,-1,1000,1226,0,0
-217,-202,0,0,0,0,0,0,0,0,0,-1,1007,1226,0,0
-210,-202,0,0,0,0,0,0,0,0,0,-1,1014,1226,0,0
-203,-202,0,0,0,0,0,0,0,0,0,-1,1021,1226,0,0
-196,-202,0,0,0,0,0,0,0,0,0,-1,1028,1226,0,0
-189,-202,0,0,0,0,0,0,0,0,0,-1,1035,1226,0,0
-182,-202,0,0,0,0,0,0,0,0,0,-1,1042,1226,0,0
-175,-202,0,0,0,0,0,0,0,0,0,-1,1049,1226,0,0
-168,-202,0,0,0,0,0,0,0,0,0,-1,1056,1226,0,0
-161,-202,0,0,0,0,0,0,0,0,0,-1,1063,1226,0,0
-154,-202,0,0,0,0,0,0,0,0,0,-1,1070,1226,0,0
-147,-202,0,0,0,0,0,0,0,0,0,-1,1077,1226,0,0
-140,-202,0,0,0,0,0,0,0,0,0,-1,1084,1226,0,0
-133,-202,0,0,0,0,0,0,0,0,0,-1,1091,1226,0,0
-126,-202,0,0,0,0,0,0,0,0,0,-1,1098,1226,0,0
-119,-202,0,0,0,0,0,0,0,0,0,-1,1105,1226,0,0
-112,-202,0,0,0,0,0,0,0,0,0,-1,1112,1226,0,0
-105,-202,0,0,0,0,0,0,0,0,0,-1,1119,1226,0,0
-98,-202,0,0,0,0,0,0,0,0,0,-1,1126,1226,0,0
-91,-202,0,0,0,0,0,0,0,0,0,-1,1133,1226,0,0
-84,-202,0,0,0,0,0,0,0,0,0,-1,1140,1226,0,0
-77,-202,0,0,0,0,0,0,0,0,0,-1,1147,1226,0,0
-70,-202,0,0,0,0,0,0,0,0,0,-1,1154,1226,0,0
-63,-202,0,0,0,0,0,0,0,0,0,-1,1161,1226,0,0
-56,-202,0,0,0,0,0,0,0,0,0,-1,1168,1226,0,0
-49,-202,0,0,0,0,0,0,0,0,0,-1,1175,1226,0,0
-42,-202,0,0,0,0,0,0,0,0,0,-1,1182,1226,0,0
-35,-202,0,0,0,0,0,0,0,0,0,-1,1189,1226,0,0
-28,-202,0,0,0,0,0,0,0,0,0,-1,1196,1226,0,0
-21,-202,0,0,0,0,0,0,0,0,0,-1,1203,1226,0,0
-14,-202,0,0,0,0,0,0,0,0,0,-1,1210,1226,0,0
-7,-202,0,0,0,0,0,0,0,0,0,-1,1217,1226,0,0
0,-202,0,0,0,0,0,0,0,0,0,-1,1224,1226,0,0
7,-202,0,0,0,0,0,0,0,0,0,-1,1231,1226,0,0
14,-202,0,0,0,0,0,0,0,0,0,-1,1238,1226,0,0
21,-202,0,0,0,0,0,0,0,0,0,-1,1245,1226,0,0
28,-202,0,0,0,0,0,0,0,0,0,-1,1252,1226,0,0
35,-202,0,0,0,0,0,0,0,0,0,-1,1259,1226,0,0
42,-202,0,0,0,0,0,0,0,0,0,-1,1266,1226,0,0
49,-202,0,0,0,0,0,0,0,0,0,-1,1273,1226,0,0
56,-202,0,0,0,0,0,0,0,0,0,-1,1280,1226,0,0
63,-202,0,0,0,0,0,0,0,0,0,-1,1287,1226,0,0
70,-202,0,0,0,0,0,0,0,0,0,-1,1294,1226,0,0
77,-202,0,0,0,0,0,0,0,0,0,-1,1301,1226,0,0
84,-202,0,0,0,0,0,0,0,0,0,-1,1308,1226,0,0
91,-202,0,0,0,0,0,0,0,0,0,-1,1315,1226,0,0
98,-202,0,0,0,0,0,0,0,0,0,-1,1322,1226,0,0
105,-202,0,0,0,0,0,0,0,0,0,-1,1329,1226,0,0
112,-202,0,0,0,0,0,0,0,0,0,-1,1336,1226,0,0
119,-202,0,0,0,0,0,0,0,0,0,-1,1343,1226,0,0
126,-202,0,0,0,0,0,0,0,0,0,-1,1350,1226,0,0
133,-202,0,0,0,0,0,0,0,0,0,-1,1357,1226,0,0
140,-202,0,0,0,0,0,0,0,0,0,-1,1364,1226,0,0
147,-202,0,0,0,0,0,0,0,0,0,-1,1371,1226,0,0
154,-202,0,0,0,0,0,0,0,0,0,-1,1378,1226,0,0
161,-202,0,0,0,0,0,0,0,0,0,-1,1385,1226,0,0
168,-202,0,0,0,0,0,0,0,0,0,-1,1392,1226,0,0
175,-202,0,0,0,0,0,0,0,0,0,-1,1399,1226,0,0
182,-202,0,0,0,0,0,0,0,0,0,-1,1406,1226,0,0
189,-202,0,0,0,0,0,0,0,0,0,-1,1413,1226,0,0
196,-202,0,0,0,0,0,0,0,0,0,-1,1420,1226,0,0
203,-202,0,0,0,0,0,0,0,0,0,-1,1427,1226,0,0
210,-202,0,0,0,0,0,0,0,0,0,-1,1434,1226,0,0
217,-202,0,0,0,0,0,0,0,0,0,-1,1441,1226,0,0
224,-202,0,0,0,0,0,0,0,0,0,-1,1448,1226,0,0
231,-202,0,0,0,0,0,0,0,0,0,-1,1455,1226,0,0
238,-202,0,0,0,0,0,0,0,0,0,-1,1462,1226,0,0
245,-202,0,0,0,0,0,0,0,0,0,-1,1469,1226,0,0
252,-202,0,0,0,0,0,0,0,0,0,-1,1476,1226,0,0
259,-202,0,0,0,0,0,0,0,0,0,-1,1483,1226,0,0
266,-202,0,0,0,0,0,0,0,0,0,-1,1490,1226,0,0
273,-202,0,0,0,0,0,0,0,0,0,-1,1497,1226,0,0
280,-202,0,0,0,0,0,0,0,0,0,-1,1504,1226,0,0
287,-202,0,0,0,0,0,0,0,0,0,-1,1511,1226,0,0
294,-202,0,0,0,0,0,0,0,0,0,-1,1518,1226,0,0
301,-202,0,0,0,0,0,0,0,0,0,-1,1525,1226,0,0
308,-202,0,0,0,0,0,0,0,0,0,-1,1532,1226,0,0
315,-202,0,0,0,0,0,0,0,0,0,-1,1539,1226,0,0
322,-202,0,0,0,0,0,0,0,0,0,-1,1546,1226,0,0
329,-202,0,0,0,0,0,0,0,0,0,-1,1553,1226,0,0
336,-202,0,0,0,0,0,0,0,0,0,-1,1560,1226,0,0
343,-202,0,0,0,0,0,0,0,0,0,-1,1567,1226,0,0
350,-202,0,0,0,0,0,0,0,0,0,-1,1574,1226,0,0
357,-202,0,0,0,0,0,0,0,0,0,-1,1581,1226,0,0
364,-202,0,0,0,0,0,0,0,0,0,-1,1588,1226,0,0
371,-202,0,0,0,0,0,0,0,0,0,-1,1595,1226,0,0
378,-202,0,0,0,0,0,0,0,0,0,-1,1602,1226,0,0
385,-202,0,0,0,0,0,0,0,0,0,-1,1609,1226,0,0
392,-202,0,0,0,0,0,0,0,0,0,-1,1616,1226,0,0
399,-202,0,0,0,0,0,0,0,0,0,-1,1623,1226,0,0
406,-202,0,0,0,0,0,0,0,0,0,-1,1630,1226,0,0
413,-202,0,0,0,0,0,0,0,0,0,-1,1637,1226,0,0
420,-202,0,0,0,0,0,0,0,0,0,-1,1644,1226,0,0
427,-202,0,0,0,0,0,0,0,0,0,-1,1651,1226,0,0
434,-202,0,0,0,0,0,0,0,0,0,-1,1658,1226,0,0
441,-202,0,0,0,0,0,0,0,0,0,-1,1665,1226,0,0
448,-202,0,0,0,0,0,0,0,0,0,-1,1672,1226,0,0
455,-202,0,0,0,0,0,0,0,0,0,-1,1679,1226,0,0
462,-202,0,0,0,0,0,0,0,0,0,-1,1686,1226,0,0
469,-202,0,0,0,0,0,0,0,0,0,-1,1693,1226,0,0
476,-202,0,0,0,0,0,0,0,0,0,-1,1700,1226,0,0
483,-202,0,0,0,0,0,0,0,0,0,-1,1707,1226,0,0
490,-202,0,0,0,0,0,0,0,0,0,-1,1714,1226,0,0
497,-202,0,0,0,0,0,0,0,0,0,-1,1721,1226,0,0
504,-202,0,0,0,0,0,0,0,0,0,-1,1728,1226,0,0
511,-202,0,0,0,0,0,0,0,0,0,-1,1735,1226,0,0
518,-202,0,0,0,0,0,0,0,0,0,-1,1742,1226,0,0
525,-202,0,0,0,0,0,0,0,0,0,-1,1749,1226,0,0
532,-202,0,0,0,0,0,0,0,0,0,-1,1756,1226,0,0
539,-202,0,0,0,0,0,0,0,0,0,-1,1763,1226,0,0
546,-202,0,0,0,0,0,0,0,0,0,-1,1770,1226,0,0
553,-202,0,0,0,0,0,0,0,0,0,-1,1777,1226,0,0
560,-202,0,0,0,0,0,0,0,0,0,-1,1784,1226,0,0
567,-202,0,0,0,0,0,0,0,0,0,-1,1791,1226,0,0
574,-202,0,0,0,0,0,0,0,0,0,-1,1798,1226,0,0
581,-202,0,0,0,0,0,0,0,0,0,-1,1805,1226,0,0
588,-202,0,0,0,0,0,0,0,0,0,-1,1812,1226,0,0
595,-202,0,0,0,0,0,0,0,0,0,-1,1819,1226,0,0
602,-202,0,0,0,0,0,0,0,0,0,-1,1826,1226,0,0
609,-202,0,0,0,0,0,0,0,0,0,-1,1833,1226,0,0
616,-202,0,0,0,0,0,0,0,0,0,-1,1840,1226,0,0
623,-202,0,0,0,0,0,0,0,0,0,-1,1847,1226,0,0
630,-202,30.6776,2.95911,-0.00538731,0.00324041,-0.00616452,0.00645056,-0.00859746,-1.09069,0.00871741,0.0367768,1854,1226,30.6776,-2.95913
637,-202,30.729,2.98914,-0.00233919,0.00254555,-0.00352258,0.00438963,-0.00418328,-1.08852,0.00495005,0.0352705,1861,1226,30.729,-2.98915
644,-202,30.7631,2.9325,0.000942019,0.00206875,-0.00114141,0.00277826,0.000232513,-1.01464,0.00177974,0.0323428,1868,1226,30.763,-2.93254
651,-202,30.8036,2.97791,0.00387723,0.00170822,0.000411881,0.00395281,0.00163264,0.18148,0.00229363,0.0265485,1875,1226,30.8036,-2.97786
658,-202,30.796,2.93726,0.00577068,0.001267,0.00123837,0.00608874,0.000948943,0.251397,0.00378273,0.0228902,1882,1226,30.796,-2.93729
665,-202,30.8114,2.9458,0.00662775,0.000881344,0.0015509,0.0070196,0.000489491,0.247482,0.0045254,0.0201128,1889,1226,30.8115,-2.94582
672,-202,31.0797,3.19702,0.0066511,0.000372309,0.00172515,0.00709387,-7.04667e-05,0.251236,0.00475291,0.0393071,1896,1226,31.0798,-3.19705
679,-202,31.3087,3.41943,0.0062725,5.81681e-05,0.00186465,0.00678906,-0.000458391,0.270251,0.00468632,0.0452628,1903,1226,31.3088,-3.41942
686,-202,31.6731,3.69519,0,0,0,0,0,0,0,-1,1910,1226,31.6731,-3.69522
693,-202,25.8723,7.06812,0,0,0,0,0,0,0,-1,1917,1226,25.8724,-7.06809
700,-202,25.8809,6.7229,0.00463561,-0.000820721,0.00199905,0.00528962,-0.00147473,0.316183,0.00410721,0.0385455,1924,1226,25.8809,-6.72294
707,-202,25.9307,6.34302,0.00361363,-0.000887421,0.00180826,0.00425009,-0.00152388,0.338431,0.00345524,0.0315769,1931,1226,25.9306,-6.34297
714,-202,25.9684,6.11328,0.00245085,-0.00115495,0.00166094,0.00309931,-0.00180341,0.372218,0.00286336,0.0164802,1938,1226,25.9684,-6.11331
721,-202,25.9844,5.90015,0.00098735,-0.00124327,0.00165898,0.00187107,-0.002127,0.489457,0.00230986,0.0120861,1945,1226,25.9844,-5.90017
728,-202,25.9738,5.67053,-0.000264135,-0.00106433,0.00163008,0.00101423,-0.0023427,0.665054,0.00198807,0.0105492,1952,1226,25.9737,-5.67058
735,-202,25.9617,5.42981,0.000367892,-0.0010402,0.00197762,0.00176305,-0.00243536,0.614391,0.00243429,0.0107109,1959,1226,25.9616,-5.42982
742,-202,25.9646,5.18726,0.00292403,-0.00182339,0.00217682,0.00377105,-0.0026704,0.371079,0.00373702,0.0105601,1966,1226,25.9646,-5.18721
749,-202,25.9437,4.94666,0.00667266,-0.00297767,0.00219293,0.00714761,-0.00345262,0.213286,0.00624275,0.0100813,1973,1226,25.9438,-4.94666
756,-202,25.9636,4.72083,0.0120291,-0.00356717,0.00202592,0.012288,-0.00382604,0.127089,0.0097216,0.0107397,1980,1226,25.9636,-4.72081
763,-202,26.006,4.51367,0.0186628,-0.00532709,0.00188172,0.0188095,-0.00547379,0.0778043,0.0147078,0.016363,1987,1226,26.0059,-4.51366
770,-202,26.0271,4.41675,0.0272627,-0.0076912,0.00156863,0.027333,-0.00776146,0.0447572,0.0212862,0.0419184,1994,1226,26.0272,-4.4167
777,-202,26.0552,4.3175,0,0,0,0,0,0,0,-1,2001,1226,26.0551,-4.31752
784,-202,29.6031,1.69531,0.0506548,-0.0140458,0.00022614,0.0506556,-0.0140466,0.00349512,0.0392985,0.0456359,2008,1226,29.6031,-1.69527
791,-202,29.9012,2.56543,0.0655059,-0.0173734,-0.00123994,0.0655245,-0.0173919,-0.0149564,0.0504889,0.0465047,2015,1226,29.9013,-2.56549
798,-202,29.8438,3.12891,0.0824352,-0.0200846,-0.00361558,0.0825626,-0.0202119,-0.0352088,0.0628715,0.0436367,2022,1226,29.8438,-3.12887
805,-202,0,0,0,0,0,0,0,0,0,-1,2029,1226,0,0
812,-202,0,0,0,0,0,0,0,0,0,-1,2036,1226,0,0
-700,-209,0,0,0,0,0,0,0,0,0,-1,524,1233,0,0
-693,-209,0,0,0,0,0,0,0,0,0,-1,531,1233,0,0
-686,-209,0,0,0,0,0,0,0,0,0,-1,538,1233,0,0
-679,-209,-16.6862,-1.48315,-0.0572491,0.0428698,0.000607633,0.0428734,-0.0572528,1.56473,0.0580063,0.0460505,545,1233,-16.6862,1.48315
-672,-209,-17.3845,-1.23804,-0.0448401,0.0416215,0.00703662,0.0421904,-0.045409,1.49012,0.0505869,0.0472406,552,1233,-17.3844,1.23798
-665,-209,-17.6487,-0.579712,-0.0346829,0.038507,0.00989841,0.039822,-0.0359979,1.43871,0.0437932,0.0431096,559,1233,-17.6487,0.579661
-658,-209,-17.8605,-0.549316,-0.0262405,0.0343643,0.010703,0.036199,-0.0280752,1.40103,0.0372074,0.0478593,566,1233,-17.8606,0.549375
-651,-209,-18.0895,-0.249878,-0.0192835,0.0296716,0.0102772,0.0317416,-0.0213535,1.37204,0.0308494,0.0483147,573,1233,-18.0895,0.249863
-644,-209,-18.3799,0.0942383,0,0,0,0,0,0,0,-1,580,1233,-18.3799,-0.094208
-637,-209,-15.7244,1.51758,-0.00927307,0.0198918,0.00756066,0.0217353,-0.0111166,1.33164,0.0192945,0.0432288,587,1233,-15.7244,-1.51763
-630,-209,-15.8488,1.86609,-0.00622573,0.0154346,0.00688875,0.0174398,-0.00823096,1.28754,0.0151356,0.0238509,594,1233,-15.8488,-1.86609
-623,-209,-15.9235,2.21924,-0.00333063,0.0109177,0.00523262,0.0126329,-0.00504581,1.25405,0.0105155,0.0121945,601,1233,-15.9235,-2.21929
-616,-209,-15.9351,2.52173,-0.00127276,0.00780768,0.00278595,0.00859429,-0.00205937,1.29561,0.00652522,0.0121328,608,1233,-15.9351,-2.5217
-609,-209,-15.951,2.80042,-0.000795227,0.0049846,0.000838867,0.00510389,-0.000914516,1.42954,0.00374484,0.0140656,615,1233,-15.9511,-2.80041
-602,-209,-15.9689,3.07581,-0.000739842,0.00243086,-0.000523432,0.00251504,-0.000824017,-1.41135,0.00200852,0.0163675,622,1233,-15.9688,-3.07581
-595,-209,-15.9716,3.36511,-0.000980021,0.000777822,-0.000987849,0.00122115,-0.00142335,-1.14895,0.00152829,0.013271,629,1233,-15.9716,-3.36512
-588,-209,-15.939,3.65356,-0.00112339,0.000765482,-0.0013689,0.00148413,-0.00184204,-1.08736,0.00192406,0.0144706,636,1233,-15.9389,-3.65353
-581,-209,-15.8099,3.97705,-0.000829729,0.000723389,-0.00168573,0.00180283,-0.00190917,-1.00124,0.00214341,0.0233423,643,1233,-15.8099,-3.97703
-574,-209,-16.0263,4.18481,-0.000224383,0.000767628,-0.00179664,0.00213547,-0.00159223,-0.92008,0.00215979,0.0304829,650,1233,-16.0263,-4.18481
-567,-209,-16.2166,4.24695,0,0,0,0,0,0,0,-1,657,1233,-16.2166,-4.24693
-560,-209,-13.9294,4.16626,0,0,0,0,0,0,0,-1,664,1233,-13.9294,-4.16621
-553,-209,-21.8033,1.32385,0,0,0,0,0,0,0,-1,671,1233,-21.8033,-1.32382
-546,-209,-21.5807,1.13513,-0.00038604,-0.00102493,0.00036354,-0.000221537,-0.00118944,0.424934,0.000730398,0.0483826,678,1233,-21.5807,-1.13508
-539,-209,-21.3531,0.980591,-0.000953257,-0.0017017,0.00125297,-1.98147e-05,-0.00263514,0.640282,0.00175019,0.0381629,685,1233,-21.3531,-0.980647
-532,-209,-21.1976,1.10315,-0.00195386,-0.00252424,0.00240674,0.000184524,-0.00466263,0.726425,0.00317172,0.030358,692,1233,-21.1976,-1.10314
-525,-209,-21.3497,1.19067,-0.00333129,-0.00351516,0.00393248,0.000510332,-0.00735678,0.773711,0.00508318,0.0345462,699,1233,-21.3497,-1.19073
-518,-209,-21.3098,1.15161,0,0,0,0,0,0,0,-1,706,1233,-21.3098,-1.15159
-511,-209,-21.285,1.01196,0,0,0,0,0,0,0,-1,713,1233,-21.285,-1.01193
-504,-209,0,0,0,0,0,0,0,0,0,-1,720,1233,0,0
-497,-209,0,0,0,0,0,0,0,0,0,-1,727,1233,0,0
-490,-209,0,0,0,0,0,0,0,0,0,-1,734,1233,0,0
-483,-209,0,0,0,0,0,0,0,0,0,-1,741,1233,0,0
-476,-209,0,0,0,0,0,0,0,0,0,-1,748,1233,0,0
-469,-209,0,0,0,0,0,0,0,0,0,-1,755,1233,0,0
-462,-209,0,0,0,0,0,0,0,0,0,-1,762,1233,0,0
-455,-209,0,0,0,0,0,0,0,0,0,-1,769,1233,0,0
-448,-209,0,0,0,0,0,0,0,0,0,-1,776,1233,0,0
-441,-209,0,0,0,0,0,0,0,0,0,-1,783,1233,0,0
-434,-209,0,0,0,0,0,0,0,0,0,-1,790,1233,0,0
-427,-209,0,0,0,0,0,0,0,0,0,-1,797,1233,0,0
-420,-209,0,0,0,0,0,0,0,0,0,-1,804,1233,0,0
-413,-209,0,0,0,0,0,0,0,0,0,-1,811,1233,0,0
-406,-209,0,0,0,0,0,0,0,0,0,-1,818,1233,0,0
-399,-209,0,0,0,0,0,0,0,0,0,-1,825,1233,0,0
-392,-209,0,0,0,0,0,0,0,0,0,-1,832,1233,0,0
-385,-209,0,0,0,0,0,0,0,0,0,-1,839,1233,0,0
-378,-209,0,0,0,0,0,0,0,0,0,-1,846,1233,0,0
-371,-209,0,0,0,0,0,0,0,0,0,-1,853,1233,0,0
-364,-209,0,0,0,0,0,0,0,0,0,-1,860,1233,0,0
-357,-209,0,0,0,0,0,0,0,0,0,-1,867,1233,0,0
-350,-209,0,0,0,0,0,0,0,0,0,-1,874,1233,0,0
-343,-209,0,0,0,0,0,0,0,0,0,-1,881,1233,0,0
-336,-209,0,0,0,0,0,0,0,0,0,-1,888,1233,0,0
-329,-209,0,0,0,0,0,0,0,0,0,-1,895,1233,0,0
-322,-209,0,0,0,0,0,0,0,0,0,-1,902,1233,0,0
-315,-209,0,0,0,0,0,0,0,0,0,-1,909,1233,0,0
-308,-209,0,0,0,0,0,0,0,0,0,-1,916,1233,0,0
-301,-209,0,0,0,0,0,0,0,0,0,-1,923,1233,0,0
-294,-209,0,0,0,0,0,0,0,0,0,-1,930,1233,0,0
-287,-209,0,0,0,0,0,0,0,0,0,-1,937,1233,0,0
-280,-209,0,0,0,0,0,0,0,0,0,-1,944,1233,0,0
-273,-209,0,0,0,0,0,0,0,0,0,-1,951,1233,0,0
-266,-209,0,0,0,0,0,0,0,0,0,-1,958,1233,0,0
-259,-209,0,0,0,0,0,0,0,0,0,-1,965,1233,0,0
-252,-209,0,0,0,0,0,0,0,0,0,-1,972,1233,0,0
-245,-209,0,0,0,0,0,0,0,0,0,-1,979,1233,0,0
-238,-209,0,0,0,0,0,0,0,0,0,-1,986,1233,0,0
-231,-209,0,0,0,0,0,0,0,0,0,-1,993,1233,0,0
-224,-209,0,0,0,0,0,0,0,0,0,-1,1000,1233,0,0
-217,-209,0,0,0,0,0,0,0,0,0,-1,1007,1233,0,0
-210,-209,0,0,0,0,0,0,0,0,0,-1,1014,1233,0,0
-203,-209,0,0,0,0,0,0,0,0,0,-1,1021,1233,0,0
-196,-209,0,0,0,0,0,0,0,0,0,-1,1028,1233,0,0
-189,-209,0,0,0,0,0,0,0,0,0,-1,1035,1233,0,0
-182,-209,0,0,0,0,0,0,0,0,0,-1,1042,1233,0,0
-175,-209,0,0,0,0,0,0,0,0,0,-1,1049,1233,0,0
-168,-209,0,0,0,0,0,0,0,0,0,-1,1056,1233,0,0
-161,-209,0,0,0,0,0,0,0,0,0,-1,1063,1233,0,0
-154,-209,0,0,0,0,0,0,0,0,0,-1,1070,1233,0,0
-147,-209,0,0,0,0,0,0,0,0,0,-1,1077,1233,0,0
-140,-209,0,0,0,0,0,0,0,0,0,-1,1084,1233,0,0
-133,-209,0,0,0,0,0,0,0,0,0,-1,1091,1233,0,0
-126,-209,0,0,0,0,0,0,0,0,0,-1,1098,1233,0,0
-119,-209,0,0,0,0,0,0,0,0,0,-1,1105,1233,0,0
-112,-209,0,0,0,0,0,0,0,0,0,-1,1112,1233,0,0
-105,-209,0,0,0,0,0,0,0,0,0,-1,1119,1233,0,0
-98,-209,0,0,0,0,0,0,0,0,0,-1,1126,1233,0,0
-91,-209,0,0,0,0,0,0,0,0,0,-1,1133,1233,0,0
-84,-209,0,0,0,0,0,0,0,0,0,-1,1140,1233,0,0
-77,-209,0,0,0,0,0,0,0,0,0,-1,1147,1233,0,0
-70,-209,0,0,0,0,0,0,0,0,0,-1,1154,1233,0,0
-63,-209,0,0,0,0,0,0,0,0,0,-1,1161,1233,0,0
-56,-209,0,0,0,0,0,0,0,0,0,-1,1168,1233,0,0
-49,-209,0,0,0,0,0,0,0,0,0,-1,1175,1233,0,0
-42,-209,0,0,0,0,0,0,0,0,0,-1,1182,1233,0,0
-35,-209,0,0,0,0,0,0,0,0,0,-1,1189,1233,0,0
-28,-209,0,0,0,0,0,0,0,0,0,-1,1196,1233,0,0
-21,-209,0,0,0,0,0,0,0,0,0,-1,1203,1233,0,0
-14,-209,0,0,0,0,0,0,0,0,0,-1,1210,1233,0,0
-7,-209,0,0,0,0,0,0,0,0,0,-1,1217,1233,0,0
0,-209,0,0,0,0,0,0,0,0,0,-1,1224,1233,0,0
7,-209,0,0,0,0,0,0,0,0,0,-1,1231,1233,0,0
14,-209,0,0,0,0,0,0,0,0,0,-1,1238,1233,0,0
21,-209,0,0,0,0,0,0,0,0,0,-1,1245,1233,0,0
28,-209,0,0,0,0,0,0,0,0,0,-1,1252,1233,0,0
35,-209,0,0,0,0,0,0,0,0,0,-1,1259,1233,0,0
42,-209,0,0,0,0,0,0,0,0,0,-1,1266,1233,0,0
49,-209,0,0,0,0,0,0,0,0,0,-1,1273,1233,0,0
56,-209,0,0,0,0,0,0,0,0,0,-1,1280,1233,0,0
63,-209,0,0,0,0,0,0,0,0,0,-1,1287,1233,0,0
70,-209,0,0,0,0,0,0,0,0,0,-1,1294,1233,0,0
77,-209,0,0,0,0,0,0,0,0,0,-1,1301,1233,0,0
84,-209,0,0,0,0,0,0,0,0,0,-1,1308,1233,0,0
91,-209,0,0,0,0,0,0,0,0,0,-1,1315,1233,0,0
98,-209,0,0,0,0,0,0,0,0,0,-1,1322,1233,0,0
105,-209,0,0,0,0,0,0,0,0,0,-1,1329,1233,0,0
112,-209,0,0,0,0,0,0,0,0,0,-1,1336,1233,0,0
119,-209,0,0,0,0,0,0,0,0,0,-1,1343,1233,0,0
126,-209,0,0,0,0,0,0,0,0,0,-1,1350,1233,0,0
133,-209,0,0,0,0,0,0,0,0,0,-1,1357,1233,0,0
140,-209,0,0,0,0,0,0,0,0,0,-1,1364,1233,0,0
147,-209,0,0,0,0,0,0,0,0,0,-1,1371,1233,0,0
154,-209,0,0,0,0,0,0,0,0,0,-1,1378,1233,0,0
161,-209,0,0,0,0,0,0,0,0,0,-1,1385,1233,0,0
168,-209,0,0,0,0,0,0,0,0,0,-1,1392,1233,0,0
175,-209,0,0,0,0,0,0,0,0,0,-1,1399,1233,0,0
182,-209,0,0,0,0,0,0,0,0,0,-1,1406,1233,0,0
189,-209,0,0,0,0,0,0,0,0,0,-1,1413,1233,0,0
196,-209,0,0,0,0,0,0,0,0,0,-1,1420,1233,0,0
203,-209,0,0,0,0,0,0,0,0,0,-1,1427,1233,0,0
210,-209,0,0,0,0,0,0,0,0,0,-1,1434,1233,0,0
217,-209,0,0,0,0,0,0,0,0,0,-1,1441,1233,0,0
224,-209,0,0,0,0,0,0,0,0,0,-1,1448,1233,0,0
231,-209,0,0,0,0,0,0,0,0,0,-1,1455,1233,0,0
238,-209,0,0,0,0,0,0,0,0,0,-1,1462,1233,0,0
245,-209,0,0,0,0,0,0,0,0,0,-1,1469,1233,0,0
252,-209,0,0,0,0,0,0,0,0,0,-1,1476,1233,0,0
259,-209,0,0,0,0,0,0,0,0,0,-1,1483,1233,0,0
266,-209,0,0,0,0,0,0,0,0,0,-1,1490,1233,0,0
273,-209,0,0,0,0,0,0,0,0,0,-1,1497,1233,0,0
280,-209,0,0,0,0,0,0,0,0,0,-1,1504,1233,0,0
287,-209,0,0,0,0,0,0,0,0,0,-1,1511,1233,0,0
294,-209,0,0,0,0,0,0,0,0,0,-1,1518,1233,0,0
301,-209,0,0,0,0,0,0,0,0,0,-1,1525,1233,0,0
308,-209,0,0,0,0,0,0,0,0,0,-1,1532,1233,0,0
315,-209,0,0,0,0,0,0,0,0,0,-1,1539,1233,0,0
322,-209,0,0,0,0,0,0,0,0,0,-1,1546,1233,0,0
329,-209,0,0,0,0,0,0,0,0,0,-1,1553,1233,0,0
336,-209,0,0,0,0,0,0,0,0,0,-1,1560,1233,0,0
343,-209,0,0,0,0,0,0,0,0,0,-1,1567,1233,0,0
350,-209,0,0,0,0,0,0,0,0,0,-1,1574,1233,0,0
357,-209,0,0,0,0,0,0,0,0,0,-1,1581,1233,0,0
364,-209,0,0,0,0,0,0,0,0,0,-1,1588,1233,0,0
371,-209,0,0,0,0,0,0,0,0,0,-1,1595,1233,0,0
378,-209,0,0,0,0,0,0,0,0,0,-1,1602,1233,0,0
385,-209,0,0,0,0,0,0,0,0,0,-1,1609,1233,0,0
392,-209,0,0,0,0,0,0,0,0,0,-1,1616,1233,0,0
399,-209,0,0,0,0,0,0,0,0,0,-1,1623,1233,0,0
406,-209,0,0,0,0,0,0,0,0,0,-1,1630,1233,0,0
413,-209,0,0,0,0,0,0,0,0,0,-1,1637,1233,0,0
420,-209,0,0,0,0,0,0,0,0,0,-1,1644,1233,0,0
427,-209,0,0,0,0,0,0,0,0,0,-1,1651,1233,0,0
434,-209,0,0,0,0,0,0,0,0,0,-1,1658,1233,0,0
441,-209,0,0,0,0,0,0,0,0,0,-1,1665,1233,0,0
448,-209,0,0,0,0,0,0,0,0,0,-1,1672,1233,0,0
455,-209,0,0,0,0,0,0,0,0,0,-1,1679,1233,0,0
462,-209,0,0,0,0,0,0,0,0,0,-1,1686,1233,0,0
469,-209,0,0,0,0,0,0,0,0,0,-1,1693,1233,0,0
476,-209,0,0,0,0,0,0,0,0,0,-1,1700,1233,0,0
483,-209,0,0,0,0,0,0,0,0,0,-1,1707,1233,0,0
490,-209,0,0,0,0,0,0,0,0,0,-1,1714,1233,0,0
497,-209,0,0,0,0,0,0,0,0,0,-1,1721,1233,0,0
504,-209,0,0,0,0,0,0,0,0,0,-1,1728,1233,0,0
511,-209,0,0,0,0,0,0,0,0,0,-1,1735,1233,0,0
518,-209,0,0,0,0,0,0,0,0,0,-1,1742,1233,0,0
525,-209,0,0,0,0,0,0,0,0,0,-1,1749,1233,0,0
532,-209,0,0,0,0,0,0,0,0,0,-1,1756,1233,0,0
539,-209,0,0,0,0,0,0,0,0,0,-1,1763,1233,0,0
546,-209,0,0,0,0,0,0,0,0,0,-1,1770,1233,0,0
553,-209,0,0,0,0,0,0,0,0,0,-1,1777,1233,0,0
560,-209,0,0,0,0,0,0,0,0,0,-1,1784,1233,0,0
567,-209,0,0,0,0,0,0,0,0,0,-1,1791,1233,0,0
574,-209,0,0,0,0,0,0,0,0,0,-1,1798,1233,0,0
581,-209,0,0,0,0,0,0,0,0,0,-1,1805,1233,0,0
588,-209,0,0,0,0,0,0,0,0,0,-1,1812,1233,0,0
595,-209,0,0,0,0,0,0,0,0,0,-1,1819,1233,0,0
602,-209,0,0,0,0,0,0,0,0,0,-1,1826,1233,0,0
609,-209,0,0,0,0,0,0,0,0,0,-1,1833,1233,0,0
616,-209,0,0,0,0,0,0,0,0,0,-1,1840,1233,0,0
623,-209,30.7266,2.89185,-0.00439347,0.00246068,-0.00928306,0.00892906,-0.0108619,-0.962225,0.0114444,0.0338108,1847,1233,30.7266,-2.89187
630,-209,30.6736,2.87231,-0.00351725,0.00242443,-0.00571462,0.0058943,-0.00698713,-1.02511,0.00744601,0.0348603,1854,1233,30.6736,-2.87231
637,-209,30.7229,2.92004,-0.00155505,0.00211737,-0.00241823,0.00331752,-0.0027552,-1.11012,0.0035111,0.0346455,1861,1233,30.7229,-2.9201
644,-209,30.7368,2.89429,0.000779987,0.00203334,0.000395749,0.00214784,0.000665488,1.28917,0.0012696,0.0295456,1868,1233,30.7368,-2.89434
651,-209,30.7844,2.95349,0.00302275,0.00193561,0.0019996,0.00455135,0.000407012,0.652686,0.00290807,0.024279,1875,1233,30.7844,-2.95352
658,-209,30.7694,2.9408,0.00456029,0.0016281,0.00270658,0.00617235,1.60397e-05,0.537183,0.00410956,0.0212856,1882,1233,30.7694,-2.94074
665,-209,30.9117,2.99756,0.00537161,0.00126897,0.00286729,0.00684581,-0.000205226,0.474898,0.0046338,0.0341459,1889,1233,30.9117,-2.99752
672,-209,31.4319,3.31018,0.00554402,0.000756,0.00286277,0.00688186,-0.000581843,0.437167,0.00479364,0.0451368,1896,1233,31.4319,-3.31024
679,-209,31.9607,3.66541,0,0,0,0,0,0,0,-1,1903,1233,31.9607,-3.66545
686,-209,28.9886,2.96887,0,0,0,0,0,0,0,-1,1910,1233,28.9886,-2.96884
693,-209,25.5726,7.19751,0,0,0,0,0,0,0,-1,1917,1233,25.5727,-7.19746
700,-209,25.6072,6.78198,0.00453165,-0.00060614,0.00246268,0.00552141,-0.0015959,0.382146,0.00431249,0.0323325,1924,1233,25.6072,-6.78198
707,-209,25.6768,6.41699,0.00375478,-0.00073084,0.0020632,0.00455943,-0.00153549,0.371856,0.00366042,0.0254992,1931,1233,25.6767,-6.41693
714,-209,25.6967,6.18481,0.00275339,-0.0011839,0.00169964,0.00338558,-0.00181609,0.356098,0.00304841,0.0137415,1938,1233,25.6967,-6.18481
721,-209,25.7123,5.93005,0.00121634,-0.00124853,0.00165522,0.00204755,-0.00207974,0.465388,0.00238292,0.0125226,1945,1233,25.7122,-5.93001
728,-209,25.7502,5.68713,3.3687e-05,-0.00112745,0.00165945,0.0012112,-0.00230496,0.617125,0.00206253,0.0124331,1952,1233,25.7502,-5.68716
735,-209,25.7351,5.4447,0.000980043,-0.00133751,0.00224292,0.00234584,-0.0027033,0.546964,0.00291756,0.0133594,1959,1233,25.7351,-5.44471
742,-209,25.7302,5.19971,0.00365792,-0.00238982,0.00277075,0.00473537,-0.00346728,0.370872,0.00475463,0.0120141,1966,1233,25.7303,-5.1997
749,-209,25.7035,4.95215,0.00737614,-0.00393717,0.00317688,0.00820719,-0.00476822,0.25586,0.00757855,0.00997392,1973,1233,25.7035,-4.95213
756,-209,25.6982,4.72046,0.0127016,-0.00527409,0.00351243,0.0133635,-0.00593604,0.186274,0.0114144,0.0101895,1980,1233,25.6983,-4.72049
763,-209,25.7152,4.55725,0.0195571,-0.00792626,0.00397213,0.0201197,-0.00848883,0.140694,0.0169661,0.017588,1987,1233,25.7152,-4.5573
770,-209,25.8055,4.60242,0.0284649,-0.0115298,0.00436781,0.0289364,-0.0120013,0.107521,0.0243001,0.0448929,1994,1233,25.8055,-4.6024
777,-209,25.9109,4.625,0,0,0,0,0,0,0,-1,2001,1233,25.9109,-4.62502
784,-209,29.8416,2.2533,0.0525967,-0.0215769,0.00462316,0.0528838,-0.021864,0.0620089,0.0443771,0.0429237,2008,1233,29.8415,-2.25327
791,-209,30.3716,3.05835,0.0677618,-0.0274511,0.00395134,0.0679255,-0.0276148,0.0414051,0.0567732,0.0438546,2015,1233,30.3716,-3.05839
798,-209,30.5925,3.56348,0.084633,-0.0332681,0.00228691,0.0846773,-0.0333124,0.0193871,0.0702401,0.0435789,2022,1233,30.5926,-3.5635
805,-209,0,0,0,0,0,0,0,0,0,-1,2029,1233,0,0
812,-209,0,0,0,0,0,0,0,0,0,-1,2036,1233,0,0
-700,-216,0,0,0,0,0,0,0,0,0,-1,524,1240,0,0
-693,-216,0,0,0,0,0,0,0,0,0,-1,531,1240,0,0
-686,-216,0,0,0,0,0,0,0,0,0,-1,538,1240,0,0
-679,-216,-16.6547,-2.2627,-0.0560328,0.043309,0.0139894,0.0452415,-0.0579652,1.43353,0.0597372,0.0467971,545,1240,-16.6547,2.26267
-672,-216,-17.1333,-1.43311,-0.0434481,0.0430236,0.0176844,0.0465004,-0.046925,1.37667,0.0539394,0.0488434,552,1240,-17.1333,1.43314
-665,-216,-17.2693,-0.225098,0,0,0,0,0,0,0,-1,559,1240,-17.2693,0.225071
-658,-216,-17.6199,-0.443237,0,0,0,0,0,0,0,-1,566,1240,-17.6199,0.443256
-651,-216,-17.8473,-0.104004,0,0,0,0,0,0,0,-1,573,1240,-17.8473,0.103995
-644,-216,-15.5622,1.15332,0,0,0,0,0,0,0,-1,580,1240,-15.5622,-1.1533
-637,-216,-15.5748,1.48401,-0.00865472,0.0209333,0.00973787,0.0238506,-0.011572,1.27973,0.0208567,0.0448024,587,1240,-15.5748,-1.48399
-630,-216,-15.5546,1.7887,-0.00560599,0.0162021,0.00802043,0.0188341,-0.00823802,1.2537,0.0160242,0.0280124,594,1240,-15.5545,-1.78874
-623,-216,-15.6193,2.19592,-0.00274672,0.0115853,0.00578723,0.0136304,-0.00479177,1.23112,0.0110365,0.0127237,601,1240,-15.6193,-2.19592
-616,-216,-15.6468,2.51611,-0.000714315,0.00827525,0.00318985,0.00929211,-0.00173117,1.2622,0.00684516,0.0141323,608,1240,-15.6468,-2.51613
-609,-216,-15.6443,2.81042,-0.000311131,0.00534151,0.00111456,0.00555333,-0.000522956,1.38298,0.00388828,0.0138312,615,1240,-15.6443,-2.81041
-602,-216,-15.6465,3.08826,-8.60369e-05,0.00254293,-0.000281188,0.00257267,-0.000115776,-1.46543,0.00175498,0.013171,622,1240,-15.6465,-3.0883
-595,-216,-15.6456,3.32178,-9.70608e-05,0.000755908,-0.000693087,0.00114322,-0.000484369,-1.06121,0.000965009,0.0187181,629,1240,-15.6456,-3.3218
-588,-216,-15.6503,3.61462,-0.000195571,0.00075728,-0.00105741,0.00144064,-0.000878928,-0.997058,0.00135223,0.0221597,636,1240,-15.6503,-3.61465
-581,-216,-15.6477,3.97314,0.000111109,0.000755663,-0.00134261,0.00181413,-0.000947362,-0.903189,0.00162032,0.0213384,643,1240,-15.6477,-3.97311
-574,-216,-15.6317,4.45972,0.000705045,0.000825513,-0.00143893,0.00220547,-0.000674908,-0.806316,0.00173948,0.0307348,650,1240,-15.6317,-4.45972
-567,-216,-15.9077,4.87292,0.00102073,0.000175966,-0.00111089,0.00178682,-0.00059013,-0.603729,0.00142913,0.0472297,657,1240,-15.9077,-4.87291
-560,-216,-16.27,5.43787,0,0,0,0,0,0,0,-1,664,1240,-16.27,-5.43787
-553,-216,-16.2355,1.22351,0,0,0,0,0,0,0,-1,671,1240,-16.2356,-1.22356
-546,-216,-21.6239,1.06177,0,0,0,0,0,0,0,-1,678,1240,-21.6239,-1.0618
-539,-216,-21.2753,0.777466,-0.00123387,-0.00186099,0.00230051,0.000774349,-0.00386921,0.717665,0.0028726,0.0419163,685,1240,-21.2753,-0.77745
-532,-216,-21.1705,1.19202,-0.00271096,-0.00271019,0.00359984,0.000889261,-0.00631042,0.785451,0.00453254,0.0421359,692,1240,-21.1705,-1.19201
-525,-216,-21.2935,1.22327,-0.00464251,-0.00370706,0.00522596,0.00107206,-0.00942163,0.830029,0.00666723,0.0449476,699,1240,-21.2935,-1.22329
-518,-216,-21.0826,0.736206,-0.0072723,-0.00485156,0.00725037,0.00128878,-0.0134126,0.868105,0.00940085,0.0434861,706,1240,-21.0826,-0.736185
-511,-216,-21.2088,1.02124,-0.00970087,-0.00580539,0.00980475,0.00224321,-0.0177495,0.883448,0.0126472,0.0420699,713,1240,-21.2088,-1.0212
-504,-216,-21.2974,1.33081,-0.0104913,-0.00606384,0.0137732,0.00567237,-0.0222276,0.865081,0.0170271,0.0435249,720,1240,-21.2974,-1.33078
-497,-216,0,0,0,0,0,0,0,0,0,-1,727,1240,0,0
-490,-216,0,0,0,0,0,0,0,0,0,-1,734,1240,0,0
-483,-216,0,0,0,0,0,0,0,0,0,-1,741,1240,0,0
-476,-216,0,0,0,0,0,0,0,0,0,-1,748,1240,0,0
-469,-216,0,0,0,0,0,0,0,0,0,-1,755,1240,0,0
-462,-216,0,0,0,0,0,0,0,0,0,-1,762,1240,0,0
-455,-216,0,0,0,0,0,0,0,0,0,-1,769,1240,0,0
-448,-216,0,0,0,0,0,0,0,0,0,-1,776,1240,0,0
-441,-216,0,0,0,0,0,0,0,0,0,-1,783,1240,0,0
-434,-216,0,0,0,0,0,0,0,0,0,-1,790,1240,0,0
-427,-216,0,0,0,0,0,0,0,0,0,-1,797,1240,0,0
-420,-216,0,0,0,0,0,0,0,0,0,-1,804,1240,0,0
-413,-216,0,0,0,0,0,0,0,0,0,-1,811,1240,0,0
-406,-216,0,0,0,0,0,0,0,0,0,-1,818,1240,0,0
-399,-216,0,0,0,0,0,0,0,0,0,-1,825,1240,0,0
-392,-216,0,0,0,0,0,0,0,0,0,-1,832,1240,0,0
-385,-216,0,0,0,0,0,0,0,0,0,-1,839,1240,0,0
-378,-216,0,0,0,0,0,0,0,0,0,-1,846,1240,0,0
-371,-216,0,0,0,0,0,0,0,0,0,-1,853,1240,0,0
-364,-216,0,0,0,0,0,0,0,0,0,-1,860,1240,0,0
-357,-216,0,0,0,0,0,0,0,0,0,-1,867,1240,0,0
-350,-216,0,0,0,0,0,0,0,0,0,-1,874,1240,0,0
-343,-216,0,0,0,0,0,0,0,0,0,-1,881,1240,0,0
-336,-216,0,0,0,0,0,0,0,0,0,-1,888,1240,0,0
-329,-216,0,0,0,0,0,0,0,0,0,-1,895,1240,0,0
-322,-216,0,0,0,0,0,0,0,0,0,-1,902,1240,0,0
-315,-216,0,0,0,0,0,0,0,0,0,-1,909,1240,0,0
-308,-216,0,0,0,0,0,0,0,0,0,-1,916,1240,0,0
-301,-216,0,0,0,0,0,0,0,0,0,-1,923,1240,0,0
-294,-216,0,0,0,0,0,0,0,0,0,-1,930,1240,0,0
-287,-216,0,0,0,0,0,0,0,0,0,-1,937,1240,0,0
-280,-216,0,0,0,0,0,0,0,0,0,-1,944,1240,0,0
-273,-216,0,0,0,0,0,0,0,0,0,-1,951,1240,0,0
-266,-216,0,0,0,0,0,0,0,0,0,-1,958,1240,0,0
-259,-216,0,0,0,0,0,0,0,0,0,-1,965,1240,0,0
-252,-216,0,0,0,0,0,0,0,0,0,-1,972,1240,0,0
-245,-216,0,0,0,0,0,0,0,0,0,-1,979,1240,0,0
-238,-216,0,0,0,0,0,0,0,0,0,-1,986,1240,0,0
-231,-216,0,0,0,0,0,0,0,0,0,-1,993,1240,0,0
-224,-216,0,0,0,0,0,0,0,0,0,-1,1000,1240,0,0
-217,-216,0,0,0,0,0,0,0,0,0,-1,1007,1240,0,0
-210,-216,0,0,0,0,0,0,0,0,0,-1,1014,1240,0,0
-203,-216,0,0,0,0,0,0,0,0,0,-1,1021,1240,0,0
-196,-216,0,0,0,0,0,0,0,0,0,-1,1028,1240,0,0
-189,-216,0,0,0,0,0,0,0,0,0,-1,1035,1240,0,0
-182,-216,0,0,0,0,0,0,0,0,0,-1,1042,1240,0,0
-175,-216,0,0,0,0,0,0,0,0,0,-1,1049,1240,0,0
-168,-216,0,0,0,0,0,0,0,0,0,-1,1056,1240,0,0
-161,-216,0,0,0,0,0,0,0,0,0,-1,1063,1240,0,0
-154,-216,0,0,0,0,0,0,0,0,0,-1,1070,1240,0,0
-147,-216,0,0,0,0,0,0,0,0,0,-1,1077,1240,0,0
-140,-216,0,0,0,0,0,0,0,0,0,-1,1084,1240,0,0
-133,-216,0,0,0,0,0,0,0,0,0,-1,1091,1240,0,0
-126,-216,0,0,0,0,0,0,0,0,0,-1,1098,1240,0,0
-119,-216,0,0,0,0,0,0,0,0,0,-1,1105,1240,0,0
-112,-216,0,0,0,0,0,0,0,0,0,-1,1112,1240,0,0
-105,-216,0,0,0,0,0,0,0,0,0,-1,1119,1240,0,0
-98,-216,0,0,0,0,0,0,0,0,0,-1,1126,1240,0,0
-91,-216,0,0,0,0,0,0,0,0,0,-1,1133,1240,0,0
-84,-216,0,0,0,0,0,0,0,0,0,-1,1140,1240,0,0
-77,-216,0,0,0,0,0,0,0,0,0,-1,1147,1240,0,0
-70,-216,0,0,0,0,0,0,0,0,0,-1,1154,1240,0,0
-63,-216,0,0,0,0,0,0,0,0,0,-1,1161,1240,0,0
-56,-216,0,0,0,0,0,0,0,0,0,-1,1168,1240,0,0
-49,-216,0,0,0,0,0,0,0,0,0,-1,1175,1240,0,0
-42,-216,0,0,0,0,0,0,0,0,0,-1,1182,1240,0,0
-35,-216,0,0,0,0,0,0,0,0,0,-1,1189,1240,0,0
-28,-216,0,0,0,0,0,0,0,0,0,-1,1196,1240,0,0
-21,-216,0,0,0,0,0,0,0,0,0,-1,1203,1240,0,0
-14,-216,0,0,0,0,0,0,0,0,0,-1,1210,1240,0,0
-7,-216,0,0,0,0,0,0,0,0,0,-1,1217,1240,0,0
0,-216,0,0,0,0,0,0,0,0,0,-1,1224,1240,0,0
7,-216,0,0,0,0,0,0,0,0,0,-1,1231,1240,0,0
14,-216,0,0,0,0,0,0,0,0,0,-1,1238,1240,0,0
21,-216,0,0,0,0,0,0,0,0,0,-1,1245,1240,0,0
28,-216,0,0,0,0,0,0,0,0,0,-1,1252,1240,0,0
35,-216,0,0,0,0,0,0,0,0,0,-1,1259,1240,0,0
42,-216,0,0,0,0,0,0,0,0,0,-1,1266,1240,0,0
49,-216,0,0,0,0,0,0,0,0,0,-1,1273,1240,0,0
56,-216,0,0,0,0,0,0,0,0,0,-1,1280,1240,0,0
63,-216,0,0,0,0,0,0,0,0,0,-1,1287,1240,0,0
70,-216,0,0,0,0,0,0,0,0,0,-1,1294,1240,0,0
77,-216,0,0,0,0,0,0,0,0,0,-1,1301,1240,0,0
84,-216,0,0,0,0,0,0,0,0,0,-1,1308,1240,0,0
91,-216,0,0,0,0,0,0,0,0,0,-1,1315,1240,0,0
98,-216,0,0,0,0,0,0,0,0,0,-1,1322,1240,0,0
105,-216,0,0,0,0,0,0,0,0,0,-1,1329,1240,0,0
112,-216,0,0,0,0,0,0,0,0,0,-1,1336,1240,0,0
119,-216,0,0,0,0,0,0,0,0,0,-1,1343,1240,0,0
126,-216,0,0,0,0,0,0,0,0,0,-1,1350,1240,0,0
133,-216,0,0,0,0,0,0,0,0,0,-1,1357,1240,0,0
140,-216,0,0,0,0,0,0,0,0,0,-1,1364,1240,0,0
147,-216,0,0,0,0,0,0,0,0,0,-1,1371,1240,0,0
154,-216,0,0,0,0,0,0,0,0,0,-1,1378,1240,0,0
161,-216,0,0,0,0,0,0,0,0,0,-1,1385,1240,0,0
168,-216,0,0,0,0,0,0,0,0,0,-1,1392,1240,0,0
175,-216,0,0,0,0,0,0,0,0,0,-1,1399,1240,0,0
182,-216,0,0,0,0,0,0,0,0,0,-1,1406,1240,0,0
189,-216,0,0,0,0,0,0,0,0,0,-1,1413,1240,0,0
196,-216,0,0,0,0,0,0,0,0,0,-1,1420,1240,0,0
203,-216,0,0,0,0,0,0,0,0,0,-1,1427,1240,0,0
210,-216,0,0,0,0,0,0,0,0,0,-1,1434,1240,0,0
217,-216,0,0,0,0,0,0,0,0,0,-1,1441,1240,0,0
224,-216,0,0,0,0,0,0,0,0,0,-1,1448,1240,0,0
231,-216,0,0,0,0,0,0,0,0,0,-1,1455,1240,0,0
238,-216,0,0,0,0,0,0,0,0,0,-1,1462,1240,0,0
245,-216,0,0,0,0,0,0,0,0,0,-1,1469,1240,0,0
252,-216,0,0,0,0,0,0,0,0,0,-1,1476,1240,0,0
259,-216,0,0,0,0,0,0,0,0,0,-1,1483,1240,0,0
266,-216,0,0,0,0,0,0,0,0,0,-1,1490,1240,0,0
273,-216,0,0,0,0,0,0,0,0,0,-1,1497,1240,0,0
280,-216,0,0,0,0,0,0,0,0,0,-1,1504,1240,0,0
287,-216,0,0,0,0,0,0,0,0,0,-1,1511,1240,0,0
294,-216,0,0,0,0,0,0,0,0,0,-1,1518,1240,0,0
301,-216,0,0,0,0,0,0,0,0,0,-1,1525,1240,0,0
308,-216,0,0,0,0,0,0,0,0,0,-1,1532,1240,0,0
315,-216,0,0,0,0,0,0,0,0,0,-1,1539,1240,0,0
322,-216,0,0,0,0,0,0,0,0,0,-1,1546,1240,0,0
329,-216,0,0,0,0,0,0,0,0,0,-1,1553,1240,0,0
336,-216,0,0,0,0,0,0,0,0,0,-1,1560,1240,0,0
343,-216,0,0,0,0,0,0,0,0,0,-1,1567,1240,0,0
350,-216,0,0,0,0,0,0,0,0,0,-1,1574,1240,0,0
357,-216,0,0,0,0,0,0,0,0,0,-1,1581,1240,0,0
364,-216,0,0,0,0,0,0,0,0,0,-1,1588,1240,0,0
371,-216,0,0,0,0,0,0,0,0,0,-1,1595,1240,0,0
378,-216,0,0,0,0,0,0,0,0,0,-1,1602,1240,0,0
385,-216,0,0,0,0,0,0,0,0,0,-1,1609,1240,0,0
392,-216,0,0,0,0,0,0,0,0,0,-1,1616,1240,0,0
399,-216,0,0,0,0,0,0,0,0,0,-1,1623,1240,0,0
406,-216,0,0,0,0,0,0,0,0,0,-1,1630,1240,0,0
413,-216,0,0,0,0,0,0,0,0,0,-1,1637,1240,0,0
420,-216,0,0,0,0,0,0,0,0,0,-1,1644,1240,0,0
427,-216,0,0,0,0,0,0,0,0,0,-1,1651,1240,0,0
434,-216,0,0,0,0,0,0,0,0,0,-1,1658,1240,0,0
441,-216,0,0,0,0,0,0,0,0,0,-1,1665,1240,0,0
448,-216,0,0,0,0,0,0,0,0,0,-1,1672,1240,0,0
455,-216,0,0,0,0,0,0,0,0,0,-1,1679,1240,0,0
462,-216,0,0,0,0,0,0,0,0,0,-1,1686,1240,0,0
469,-216,0,0,0,0,0,0,0,0,0,-1,1693,1240,0,0
476,-216,0,0,0,0,0,0,0,0,0,-1,1700,1240,0,0
483,-216,0,0,0,0,0,0,0,0,0,-1,1707,1240,0,0
490,-216,0,0,0,0,0,0,0,0,0,-1,1714,1240,0,0
497,-216,0,0,0,0,0,0,0,0,0,-1,1721,1240,0,0
504,-216,0,0,0,0,0,0,0,0,0,-1,1728,1240,0,0
511,-216,0,0,0,0,0,0,0,0,0,-1,1735,1240,0,0
518,-216,0,0,0,0,0,0,0,0,0,-1,1742,1240,0,0
525,-216,0,0,0,0,0,0,0,0,0,-1,1749,1240,0,0
532,-216,0,0,0,0,0,0,0,0,0,-1,1756,1240,0,0
539,-216,0,0,0,0,0,0,0,0,0,-1,1763,1240,0,0
546,-216,0,0,0,0,0,0,0,0,0,-1,1770,1240,0,0
553,-216,0,0,0,0,0,0,0,0,0,-1,1777,1240,0,0
560,-216,0,0,0,0,0,0,0,0,0,-1,1784,1240,0,0
567,-216,0,0,0,0,0,0,0,0,0,-1,1791,1240,0,0
574,-216,0,0,0,0,0,0,0,0,0,-1,1798,1240,0,0
581,-216,0,0,0,0,0,0,0,0,0,-1,1805,1240,0,0
588,-216,0,0,0,0,0,0,0,0,0,-1,1812,1240,0,0
595,-216,0,0,0,0,0,0,0,0,0,-1,1819,1240,0,0
602,-216,0,0,0,0,0,0,0,0,0,-1,1826,1240,0,0
609,-216,0,0,0,0,0,0,0,0,0,-1,1833,1240,0,0
616,-216,0,0,0,0,0,0,0,0,0,-1,1840,1240,0,0
623,-216,30.8634,2.94104,-0.000906304,0.00190141,-0.00846422,0.0090774,-0.0080823,-0.867579,0.00991271,0.0383821,1847,1240,30.8634,-2.94104
630,-216,30.7909,2.84802,-0.00199258,0.00190375,-0.00462028,0.0049698,-0.00505863,-0.984915,0.00578999,0.0356394,1854,1240,30.7909,-2.84801
637,-216,30.7196,2.86096,-0.00191761,0.00187771,-0.000808899,0.00204292,-0.00208282,-1.36933,0.00238203,0.0330642,1861,1240,30.7197,-2.86094
644,-216,30.7578,2.93848,-0.000917998,0.00206309,0.00216954,0.00320478,-0.00205968,1.08638,0.00306331,0.0261129,1868,1240,30.7578,-2.9385
651,-216,30.7775,3.02051,0.000645329,0.0021273,0.00362511,0.00508638,-0.00231375,0.886212,0.00437128,0.0215192,1875,1240,30.7775,-3.02053
658,-216,30.7843,2.96497,0.00198482,0.00191432,0.00412758,0.00607731,-0.00217816,0.781128,0.00494033,0.029387,1882,1240,30.7843,-2.96491
665,-216,30.8423,2.89111,0.00290443,0.00161779,0.00411132,0.00642246,-0.00190024,0.70779,0.00503601,0.0429236,1889,1240,30.8423,-2.89114
672,-216,31.2845,3.05261,0.00336787,0.00114106,0.00393572,0.00634464,-0.00183572,0.647552,0.00495631,0.0482158,1896,1240,31.2846,-3.05259
679,-216,31.5353,3.32715,0,0,0,0,0,0,0,-1,1903,1240,31.5353,-3.32719
686,-216,21.5172,6.19458,0,0,0,0,0,0,0,-1,1910,1240,21.5172,-6.19453
693,-216,25.4556,7.06079,0,0,0,0,0,0,0,-1,1917,1240,25.4556,-7.06077
700,-216,25.412,6.7998,0.00412336,-0.000195183,0.00284311,0.0055342,-0.00160603,0.460629,0.00432537,0.0279177,1924,1240,25.412,-6.79979
707,-216,25.4403,6.4845,0.00378383,-0.000374348,0.00220207,0.00473323,-0.00132374,0.407058,0.00367704,0.0207247,1931,1240,25.4403,-6.4845
714,-216,25.4648,6.20447,0.00291538,-0.000976471,0.00163284,0.00350969,-0.00157078,0.349067,0.00300357,0.0139304,1938,1240,25.4649,-6.20441
721,-216,25.4559,5.94934,0.00137481,-0.00101315,0.0015639,0.00214841,-0.00178675,0.459366,0.00227516,0.0134666,1945,1240,25.456,-5.9493
728,-216,25.5149,5.69019,0.000341993,-0.000993263,0.00165934,0.00146298,-0.00211425,0.594135,0.00207669,0.0122207,1952,1240,25.5148,-5.69017
735,-216,25.5248,5.44373,0.00156903,-0.00150451,0.00250992,0.00297528,-0.00291076,0.510699,0.00339838,0.0120872,1959,1240,25.5247,-5.44367
742,-216,25.4836,5.22339,0.00427062,-0.00283858,0.00337839,0.00561997,-0.00418793,0.379993,0.00568268,0.0127438,1966,1240,25.4836,-5.22334
749,-216,25.4634,4.95642,0.00793205,-0.00477488,0.00419049,0.00918955,-0.00603238,0.291533,0.00885117,0.0100492,1973,1240,25.4634,-4.9564
756,-216,25.4329,4.6936,0.0132221,-0.00692024,0.00506549,0.0144243,-0.00812239,0.23301,0.0131857,0.0103189,1980,1240,25.4329,-4.69366
763,-216,25.4236,4.50732,0.0202512,-0.0105338,0.00619597,0.0214514,-0.0117341,0.191343,0.0194315,0.0158709,1987,1240,25.4235,-4.50727
770,-216,25.5494,4.5968,0.0294378,-0.0155242,0.00740837,0.030627,-0.0167134,0.159166,0.0277227,0.0386626,1994,1240,25.5495,-4.59678
777,-216,25.7086,4.65894,0,0,0,0,0,0,0,-1,2001,1240,25.7086,-4.65894
784,-216,30.2413,3.00293,0.0543661,-0.0299705,0.00955876,0.0554359,-0.0310403,0.111457,0.050585,0.0445864,2008,1240,30.2413,-3.00293
791,-216,30.8015,3.58923,0.0699817,-0.039063,0.00986192,0.0708665,-0.0399477,0.0894719,0.0648034,0.0448875,2015,1240,30.8015,-3.58922
798,-216,0,0,0,0,0,0,0,0,0,-1,2022,1240,0,0
805,-216,0,0,0,0,0,0,0,0,0,-1,2029,1240,0,0
812,-216,0,0,0,0,0,0,0,0,0,-1,2036,1240,0,0
-700,-223,0,0,0,0,0,0,0,0,0,-1,524,1247,0,0
-693,-223,0,0,0,0,0,0,0,0,0,-1,531,1247,0,0
-686,-223,0,0,0,0,0,0,0,0,0,-1,538,1247,0,0
-679,-223,0,0,0,0,0,0,0,0,0,-1,545,1247,0,0
-672,-223,-17.0023,-1.724,-0.0400274,0.0434897,0.0275543,0.0517613,-0.048299,1.27916,0.0577814,0.0479636,552,1247,-17.0023,1.724
-665,-223,-17.8654,-1.224,-0.0299264,0.0411627,0.025511,0.04937,-0.0381338,1.25954,0.050659,0.0465813,559,1247,-17.8654,1.22402
-658,-223,-18.4852,-0.728638,-0.022075,0.0371202,0.022348,0.0446097,-0.0295645,1.24743,0.0431171,0.0464337,566,1247,-18.4852,0.728633
-651,-223,-19.1201,-0.118774,0,0,0,0,0,0,0,-1,573,1247,-19.12,0.118799
-644,-223,-15.3102,1.11926,0,0,0,0,0,0,0,-1,580,1247,-15.3102,-1.11922
-637,-223,-15.322,1.45117,-0.00735529,0.0216424,0.0116252,0.0257274,-0.0114404,1.23288,0.0219809,0.0472497,587,1247,-15.322,-1.45114
-630,-223,-15.3243,1.79028,-0.00458027,0.0167642,0.00898305,0.0200416,-0.00785765,1.22096,0.0166118,0.0362832,594,1247,-15.3243,-1.79028
-623,-223,-15.3519,2.14844,-0.00199816,0.012088,0.00628185,0.0144825,-0.00439258,1.20663,0.0114047,0.0206763,601,1247,-15.3518,-2.14847
-616,-223,-15.3586,2.50427,-0.000246109,0.0086038,0.00363472,0.00990523,-0.00154753,1.22697,0.00717517,0.0159783,608,1247,-15.3586,-2.50428
-609,-223,-15.3386,2.79968,-4.36506e-05,0.00560116,0.00145674,0.00595493,-0.000397418,1.33256,0.00410884,0.0120847,615,1247,-15.3386,-2.79969
-602,-223,-15.3542,3.07007,0.000251491,0.00264831,-1.07048e-05,0.00264836,0.000251443,-1.56633,0.00168801,0.0142657,622,1247,-15.3542,-3.07003
-595,-223,-15.343,3.33801,0.00049335,0.000761316,-0.000374608,0.00102518,0.000229486,-0.95714,0.000621251,0.020494,629,1247,-15.3429,-3.33803
-588,-223,-15.3587,3.62146,0.000485754,0.000782441,-0.000699503,0.00134916,-8.09613e-05,-0.889885,0.000927604,0.0234561,636,1247,-15.3587,-3.62142
-581,-223,-15.4063,3.95642,0.000876131,0.000831076,-0.000942733,0.00179661,-8.93985e-05,-0.773452,0.00122862,0.0213801,643,1247,-15.4063,-3.95645
-574,-223,-15.3466,4.29053,0.00152453,0.000943221,-0.00100039,0.00227564,0.000192119,-0.644019,0.00145728,0.0182577,650,1247,-15.3466,-4.29049
-567,-223,-15.0429,4.71985,0.00178196,0.000243345,-0.000576268,0.00197386,5.14459e-05,-0.321453,0.0012991,0.0283936,657,1247,-15.0429,-4.7198
-560,-223,-14.7993,5.17847,0,0,0,0,0,0,0,-1,664,1247,-14.7993,-5.17849
-553,-223,-11.4025,4.14722,0,0,0,0,0,0,0,-1,671,1247,-11.4025,-4.14719
-546,-223,-20.4778,0.643677,0,0,0,0,0,0,0,-1,678,1247,-20.4778,-0.643721
-539,-223,-20.4198,1.02856,-0.00145193,-0.00177902,0.00339149,0.00177996,-0.00501091,0.761306,0.00406594,0.0470209,685,1247,-20.4198,-1.02862
-532,-223,-20.61,1.20435,-0.00335903,-0.00258869,0.00484911,0.00189052,-0.00783824,0.825031,0.00595653,0.0481663,692,1247,-20.61,-1.20435
-525,-223,-21.0928,0.800903,0,0,0,0,0,0,0,-1,699,1247,-21.0928,-0.800891
-518,-223,-21.2183,1.0199,-0.00900869,-0.00447438,0.0086626,0.00221283,-0.0156959,0.913386,0.0112742,0.048496,706,1247,-21.2183,-1.01989
-511,-223,-21.329,1.27344,-0.0120655,-0.00537761,0.0112048,0.00297161,-0.0204148,0.930411,0.0147008,0.0408875,713,1247,-21.329,-1.2734
-504,-223,-21.4431,1.50867,-0.0136625,-0.00589828,0.0150067,0.00572033,-0.0252811,0.911969,0.0190493,0.0421765,720,1247,-21.4431,-1.50863
-497,-223,0,0,0,0,0,0,0,0,0,-1,727,1247,0,0
-490,-223,0,0,0,0,0,0,0,0,0,-1,734,1247,0,0
-483,-223,0,0,0,0,0,0,0,0,0,-1,741,1247,0,0
-476,-223,0,0,0,0,0,0,0,0,0,-1,748,1247,0,0
-469,-223,0,0,0,0,0,0,0,0,0,-1,755,1247,0,0
-462,-223,0,0,0,0,0,0,0,0,0,-1,762,1247,0,0
-455,-223,0,0,0,0,0,0,0,0,0,-1,769,1247,0,0
-448,-223,0,0,0,0,0,0,0,0,0,-1,776,1247,0,0
-441,-223,0,0,0,0,0,0,0,0,0,-1,783,1247,0,0
-434,-223,0,0,0,0,0,0,0,0,0,-1,790,1247,0,0
-427,-223,0,0,0,0,0,0,0,0,0,-1,797,1247,0,0
-420,-223,0,0,0,0,0,0,0,0,0,-1,804,1247,0,0
-413,-223,0,0,0,0,0,0,0,0,0,-1,811,1247,0,0
-406,-223,0,0,0,0,0,0,0,0,0,-1,818,1247,0,0
-399,-223,0,0,0,0,0,0,0,0,0,-1,825,1247,0,0
-392,-223,0,0,0,0,0,0,0,0,0,-1,832,1247,0,0
-385,-223,0,0,0,0,0,0,0,0,0,-1,839,1247,0,0
-378,-223,0,0,0,0,0,0,0,0,0,-1,846,1247,0,0
-371,-223,0,0,0,0,0,0,0,0,0,-1,853,1247,0,0
-364,-223,0,0,0,0,0,0,0,0,0,-1,860,1247,0,0
-357,-223,0,0,0,0,0,0,0,0,0,-1,867,1247,0,0
-350,-223,0,0,0,0,0,0,0,0,0,-1,874,1247,0,0
-343,-223,0,0,0,0,0,0,0,0,0,-1,881,1247,0,0
-336,-223,0,0,0,0,0,0,0,0,0,-1,888,1247,0,0
-329,-223,0,0,0,0,0,0,0,0,0,-1,895,1247,0,0
-322,-223,0,0,0,0,0,0,0,0,0,-1,902,1247,0,0
-315,-223,0,0,0,0,0,0,0,0,0,-1,909,1247,0,0
-308,-223,0,0,0,0,0,0,0,0,0,-1,916,1247,0,0
-301,-223,0,0,0,0,0,0,0,0,0,-1,923,1247,0,0
-294,-223,0,0,0,0,0,0,0,0,0,-1,930,1247,0,0
-287,-223,0,0,0,0,0,0,0,0,0,-1,937,1247,0,0
-280,-223,0,0,0,0,0,0,0,0,0,-1,944,1247,0,0
-273,-223,0,0,0,0,0,0,0,0,0,-1,951,1247,0,0
-266,-223,0,0,0,0,0,0,0,0,0,-1,958,1247,0,0
-259,-223,0,0,0,0,0,0,0,0,0,-1,965,1247,0,0
-252,-223,0,0,0,0,0,0,0,0,0,-1,972,1247,0,0
-245,-223,0,0,0,0,0,0,0,0,0,-1,979,1247,0,0
-238,-223,0,0,0,0,0,0,0,0,0,-1,986,1247,0,0
-231,-223,0,0,0,0,0,0,0,0,0,-1,993,1247,0,0
-224,-223,0,0,0,0,0,0,0,0,0,-1,1000,1247,0,0
-217,-223,0,0,0,0,0,0,0,0,0,-1,1007,1247,0,0
-210,-223,0,0,0,0,0,0,0,0,0,-1,1014,1247,0,0
-203,-223,0,0,0,0,0,0,0,0,0,-1,1021,1247,0,0
-196,-223,0,0,0,0,0,0,0,0,0,-1,1028,1247,0,0
-189,-223,0,0,0,0,0,0,0,0,0,-1,1035,1247,0,0
-182,-223,0,0,0,0,0,0,0,0,0,-1,1042,1247,0,0
-175,-223,0,0,0,0,0,0,0,0,0,-1,1049,1247,0,0
-168,-223,0,0,0,0,0,0,0,0,0,-1,1056,1247,0,0
-161,-223,0,0,0,0,0,0,0,0,0,-1,1063,1247,0,0
-154,-223,0,0,0,0,0,0,0,0,0,-1,1070,1247,0,0
-147,-223,0,0,0,0,0,0,0,0,0,-1,1077,1247,0,0
-140,-223,0,0,0,0,0,0,0,0,0,-1,1084,1247,0,0
-133,-223,0,0,0,0,0,0,0,0,0,-1,1091,1247,0,0
-126,-223,0,0,0,0,0,0,0,0,0,-1,1098,1247,0,0
-119,-223,0,0,0,0,0,0,0,0,0,-1,1105,1247,0,0
-112,-223,0,0,0,0,0,0,0,0,0,-1,1112,1247,0,0
-105,-223,0,0,0,0,0,0,0,0,0,-1,1119,1247,0,0
-98,-223,0,0,0,0,0,0,0,0,0,-1,1126,1247,0,0
-91,-223,0,0,0,0,0,0,0,0,0,-1,1133,1247,0,0
-84,-223,0,0,0,0,0,0,0,0,0,-1,1140,1247,0,0
-77,-223,0,0,0,0,0,0,0,0,0,-1,1147,1247,0,0
-70,-223,0,0,0,0,0,0,0,0,0,-1,1154,1247,0,0
-63,-223,0,0,0,0,0,0,0,0,0,-1,1161,1247,0,0
-56,-223,0,0,0,0,0,0,0,0,0,-1,1168,1247,0,0
-49,-223,0,0,0,0,0,0,0,0,0,-1,1175,1247,0,0
-42,-223,0,0,0,0,0,0,0,0,0,-1,1182,1247,0,0
-35,-223,0,0,0,0,0,0,0,0,0,-1,1189,1247,0,0
-28,-223,0,0,0,0,0,0,0,0,0,-1,1196,1247,0,0
-21,-223,0,0,0,0,0,0,0,0,0,-1,1203,1247,0,0
-14,-223,0,0,0,0,0,0,0,0,0,-1,1210,1247,0,0
-7,-223,0,0,0,0,0,0,0,0,0,-1,1217,1247,0,0
0,-223,0,0,0,0,0,0,0,0,0,-1,1224,1247,0,0
7,-223,0,0,0,0,0,0,0,0,0,-1,1231,1247,0,0
14,-223,0,0,0,0,0,0,0,0,0,-1,1238,1247,0,0
21,-223,0,0,0,0,0,0,0,0,0,-1,1245,1247,0,0
28,-223,0,0,0,0,0,0,0,0,0,-1,1252,1247,0,0
35,-223,0,0,0,0,0,0,0,0,0,-1,1259,1247,0,0
42,-223,0,0,0,0,0,0,0,0,0,-1,1266,1247,0,0
49,-223,0,0,0,0,0,0,0,0,0,-1,1273,1247,0,0
56,-223,0,0,0,0,0,0,0,0,0,-1,1280,1247,0,0
63,-223,0,0,0,0,0,0,0,0,0,-1,1287,1247,0,0
70,-223,0,0,0,0,0,0,0,0,0,-1,1294,1247,0,0
77,-223,0,0,0,0,0,0,0,0,0,-1,1301,1247,0,0
84,-223,0,0,0,0,0,0,0,0,0,-1,1308,1247,0,0
91,-223,0,0,0,0,0,0,0,0,0,-1,1315,1247,0,0
98,-223,0,0,0,0,0,0,0,0,0,-1,1322,1247,0,0
105,-223,0,0,0,0,0,0,0,0,0,-1,1329,1247,0,0
112,-223,0,0,0,0,0,0,0,0,0,-1,1336,1247,0,0
119,-223,0,0,0,0,0,0,0,0,0,-1,1343,1247,0,0
126,-223,0,0,0,0,0,0,0,0,0,-1,1350,1247,0,0
133,-223,0,0,0,0,0,0,0,0,0,-1,1357,1247,0,0
140,-223,0,0,0,0,0,0,0,0,0,-1,1364,1247,0,0
147,-223,0,0,0,0,0,0,0,0,0,-1,1371,1247,0,0
154,-223,0,0,0,0,0,0,0,0,0,-1,1378,1247,0,0
161,-223,0,0,0,0,0,0,0,0,0,-1,1385,1247,0,0
168,-223,0,0,0,0,0,0,0,0,0,-1,1392,1247,0,0
175,-223,0,0,0,0,0,0,0,0,0,-1,1399,1247,0,0
182,-223,0,0,0,0,0,0,0,0,0,-1,1406,1247,0,0
189,-223,0,0,0,0,0,0,0,0,0,-1,1413,1247,0,0
196,-223,0,0,0,0,0,0,0,0,0,-1,1420,1247,0,0
203,-223,0,0,0,0,0,0,0,0,0,-1,1427,1247,0,0
210,-223,0,0,0,0,0,0,0,0,0,-1,1434,1247,0,0
217,-223,0,0,0,0,0,0,0,0,0,-1,1441,1247,0,0
224,-223,0,0,0,0,0,0,0,0,0,-1,1448,1247,0,0
231,-223,0,0,0,0,0,0,0,0,0,-1,1455,1247,0,0
238,-223,0,0,0,0,0,0,0,0,0,-1,1462,1247,0,0
245,-223,0,0,0,0,0,0,0,0,0,-1,1469,1247,0,0
252,-223,0,0,0,0,0,0,0,0,0,-1,1476,1247,0,0
259,-223,0,0,0,0,0,0,0,0,0,-1,1483,1247,0,0
266,-223,0,0,0,0,0,0,0,0,0,-1,1490,1247,0,0
273,-223,0,0,0,0,0,0,0,0,0,-1,1497,1247,0,0
280,-223,0,0,0,0,0,0,0,0,0,-1,1504,1247,0,0
287,-223,0,0,0,0,0,0,0,0,0,-1,1511,1247,0,0
294,-223,0,0,0,0,0,0,0,0,0,-1,1518,1247,0,0
301,-223,0,0,0,0,0,0,0,0,0,-1,1525,1247,0,0
308,-223,0,0,0,0,0,0,0,0,0,-1,1532,1247,0,0
315,-223,0,0,0,0,0,0,0,0,0,-1,1539,1247,0,0
322,-223,0,0,0,0,0,0,0,0,0,-1,1546,1247,0,0
329,-223,0,0,0,0,0,0,0,0,0,-1,1553,1247,0,0
336,-223,0,0,0,0,0,0,0,0,0,-1,1560,1247,0,0
343,-223,0,0,0,0,0,0,0,0,0,-1,1567,1247,0,0
350,-223,0,0,0,0,0,0,0,0,0,-1,1574,1247,0,0
357,-223,0,0,0,0,0,0,0,0,0,-1,1581,1247,0,0
364,-223,0,0,0,0,0,0,0,0,0,-1,1588,1247,0,0
371,-223,0,0,0,0,0,0,0,0,0,-1,1595,1247,0,0
378,-223,0,0,0,0,0,0,0,0,0,-1,1602,1247,0,0
385,-223,0,0,0,0,0,0,0,0,0,-1,1609,1247,0,0
392,-223,0,0,0,0,0,0,0,0,0,-1,1616,1247,0,0
399,-223,0,0,0,0,0,0,0,0,0,-1,1623,1247,0,0
406,-223,0,0,0,0,0,0,0,0,0,-1,1630,1247,0,0
413,-223,0,0,0,0,0,0,0,0,0,-1,1637,1247,0,0
420,-223,0,0,0,0,0,0,0,0,0,-1,1644,1247,0,0
427,-223,0,0,0,0,0,0,0,0,0,-1,1651,1247,0,0
434,-223,0,0,0,0,0,0,0,0,0,-1,1658,1247,0,0
441,-223,0,0,0,0,0,0,0,0,0,-1,1665,1247,0,0
448,-223,0,0,0,0,0,0,0,0,0,-1,1672,1247,0,0
455,-223,0,0,0,0,0,0,0,0,0,-1,1679,1247,0,0
462,-223,0,0,0,0,0,0,0,0,0,-1,1686,1247,0,0
469,-223,0,0,0,0,0,0,0,0,0,-1,1693,1247,0,0
476,-223,0,0,0,0,0,0,0,0,0,-1,1700,1247,0,0
483,-223,0,0,0,0,0,0,0,0,0,-1,1707,1247,0,0
490,-223,0,0,0,0,0,0,0,0,0,-1,1714,1247,0,0
497,-223,0,0,0,0,0,0,0,0,0,-1,1721,1247,0,0
504,-223,0,0,0,0,0,0,0,0,0,-1,1728,1247,0,0
511,-223,0,0,0,0,0,0,0,0,0,-1,1735,1247,0,0
518,-223,0,0,0,0,0,0,0,0,0,-1,1742,1247,0,0
525,-223,0,0,0,0,0,0,0,0,0,-1,1749,1247,0,0
532,-223,0,0,0,0,0,0,0,0,0,-1,1756,1247,0,0
539,-223,0,0,0,0,0,0,0,0,0,-1,1763,1247,0,0
546,-223,0,0,0,0,0,0,0,0,0,-1,1770,1247,0,0
553,-223,0,0,0,0,0,0,0,0,0,-1,1777,1247,0,0
560,-223,0,0,0,0,0,0,0,0,0,-1,1784,1247,0,0
567,-223,0,0,0,0,0,0,0,0,0,-1,1791,1247,0,0
574,-223,0,0,0,0,0,0,0,0,0,-1,1798,1247,0,0
581,-223,0,0,0,0,0,0,0,0,0,-1,1805,1247,0,0
588,-223,0,0,0,0,0,0,0,0,0,-1,1812,1247,0,0
595,-223,0,0,0,0,0,0,0,0,0,-1,1819,1247,0,0
602,-223,0,0,0,0,0,0,0,0,0,-1,1826,1247,0,0
609,-223,0,0,0,0,0,0,0,0,0,-1,1833,1247,0,0
616,-223,0,0,0,0,0,0,0,0,0,-1,1840,1247,0,0
623,-223,30.9297,3.00525,0.00219799,0.00186913,-0.00732431,0.00935971,-0.00529259,-0.774175,0.00856746,0.0397614,1847,1247,30.9297,-3.00521
630,-223,30.922,2.83032,-0.00130288,0.00177874,-0.00316819,0.00376093,-0.00328507,-1.01173,0.0040711,0.0351938,1854,1247,30.922,-2.83028
637,-223,30.7197,2.88989,-0.00363638,0.00188737,0.00108094,0.00209137,-0.00384037,1.38427,0.00347396,0.030039,1861,1247,30.7198,-2.88985
644,-223,30.7139,2.91541,-0.00406648,0.00219107,0.00405229,0.0041819,-0.00605731,1.11415,0.00594457,0.0228841,1868,1247,30.7139,-2.91542
651,-223,30.761,2.97937,-0.00306503,0.00233276,0.00528257,0.00556595,-0.00629822,1.02156,0.00685413,0.0269016,1875,1247,30.761,-2.97939
658,-223,30.7335,2.93591,-0.00179906,0.00218874,0.00556606,0.00610726,-0.00571758,0.95739,0.00682831,0.0461534,1882,1247,30.7335,-2.93593
665,-223,30.702,2.74402,-0.000665522,0.0019493,0.00539173,0.00618987,-0.00490609,0.904345,0.00642053,0.0446608,1889,1247,30.702,-2.74405
672,-223,30.8322,2.79822,0.00013978,0.00151913,0.00506824,0.00594441,-0.0042855,0.853022,0.00593207,0.0485451,1896,1247,30.8322,-2.79816
679,-223,30.979,2.83752,0,0,0,0,0,0,0,-1,1903,1247,30.9791,-2.83748
686,-223,25.08,7.18896,0,0,0,0,0,0,0,-1,1910,1247,25.0799,-7.18902
693,-223,25.1729,6.98914,0.00270987,0.000780505,0.00390948,0.00577193,-0.00228155,0.664437,0.00479303,0.0349835,1917,1247,25.1728,-6.98912
700,-223,25.2343,6.73572,0.00315646,0.000345936,0.00333612,0.00537121,-0.00186881,0.586063,0.00434,0.0161692,1924,1247,25.2343,-6.73569
707,-223,25.2173,6.47095,0.00345725,0.00012926,0.00242206,0.00473183,-0.00114533,0.484419,0.00359762,0.0141389,1931,1247,25.2173,-6.47093
714,-223,25.2196,6.20264,0.00276899,-0.000694367,0.0016411,0.00342309,-0.00134846,0.379274,0.00284033,0.0113141,1938,1247,25.2196,-6.20267
721,-223,25.226,5.93787,0.00125607,-0.000748434,0.00160693,0.00214768,-0.00164005,0.506564,0.00219338,0.0148146,1945,1247,25.226,-5.93782
728,-223,25.2352,5.69031,0.000420526,-0.000899279,0.00187558,0.0017489,-0.00222766,0.616242,0.00230141,0.0175387,1952,1247,25.2353,-5.69025
735,-223,25.2122,5.45129,0.00190004,-0.00176864,0.00303242,0.00360977,-0.00347836,0.513387,0.00409257,0.0157278,1959,1247,25.2121,-5.45124
742,-223,25.176,5.23999,0.00459171,-0.00340137,0.00423604,0.00641895,-0.00522861,0.407241,0.00673642,0.0131707,1966,1247,25.176,-5.24004
749,-223,25.1871,4.94128,0.00825871,-0.00574068,0.00549592,0.0101585,-0.00764047,0.332815,0.0103105,0.0117463,1973,1247,25.1871,-4.94126
756,-223,25.1654,4.6615,0.0136903,-0.0087735,0.00704077,0.0157147,-0.0107978,0.279966,0.0153945,0.0145112,1980,1247,25.1654,-4.66149
763,-223,25.1293,4.47595,0.0211049,-0.0134382,0.00899872,0.0233086,-0.0156418,0.240159,0.0226328,0.0178261,1987,1247,25.1293,-4.47591
770,-223,25.2069,4.26208,0.0308609,-0.0199382,0.0112815,0.0332536,-0.0223309,0.208994,0.0322976,0.0400529,1994,1247,25.2069,-4.26209
777,-223,25.2878,4.04211,0,0,0,0,0,0,0,-1,2001,1247,25.2879,-4.04211
784,-223,30.6112,3.42847,0,0,0,0,0,0,0,-1,2008,1247,30.6112,-3.42847
791,-223,31.2383,4.08838,0,0,0,0,0,0,0,-1,2015,1247,31.2383,-4.08834
798,-223,0,0,0,0,0,0,0,0,0,-1,2022,1247,0,0
805,-223,0,0,0,0,0,0,0,0,0,-1,2029,1247,0,0
812,-223,0,0,0,0,0,0,0,0,0,-1,2036,1247,0,0
-700,-230,0,0,0,0,0,0,0,0,0,-1,524,1254,0,0
-693,-230,0,0,0,0,0,0,0,0,0,-1,531,1254,0,0
-686,-230,0,0,0,0,0,0,0,0,0,-1,538,1254,0,0
-679,-230,0,0,0,0,0,0,0,0,0,-1,545,1254,0,0
-672,-230,-16.8882,-1.99475,0,0,0,0,0,0,0,-1,552,1254,-16.8882,1.99469
-665,-230,-18.0444,-1.80334,-0.0192836,0.039045,0.0306276,0.0521726,-0.0324112,1.16586,0.0492767,0.0434733,559,1254,-18.0444,1.80329
-658,-230,-18.7482,-1.49414,-0.0130977,0.0353582,0.0260393,0.0466977,-0.0244372,1.16009,0.0417346,0.0448996,566,1254,-18.7482,1.49415
-651,-230,-20.1403,-0.895996,-0.00852731,0.0307295,0.0214042,0.0401427,-0.0179405,1.15647,0.0343413,0.0442544,573,1254,-20.1403,0.896036
-644,-230,-15.4803,0.908447,0,0,0,0,0,0,0,-1,580,1254,-15.4803,-0.908447
-637,-230,-15.2142,1.38721,-0.00281609,0.0206768,0.0129779,0.0264347,-0.00857407,1.15321,0.0210709,0.0486758,587,1254,-15.2142,-1.38719
-630,-230,-15.0617,1.78821,-0.00113879,0.0160157,0.00972831,0.020408,-0.0055311,1.1467,0.0157756,0.0420261,594,1254,-15.0617,-1.78817
-623,-230,-15.0378,2.10205,0.000505437,0.0117259,0.00678701,0.0149213,-0.00268991,1.13078,0.0109548,0.0271096,601,1254,-15.0379,-2.10204
-616,-230,-15.0519,2.47876,0.00154105,0.0083479,0.00411155,0.0102819,-0.000392953,1.13112,0.00698927,0.0166371,608,1254,-15.0519,-2.47875
-609,-230,-15.0366,2.7981,0.00114273,0.0055465,0.00184529,0.00621748,0.000471747,1.22204,0.00399703,0.0118908,615,1254,-15.0365,-2.79814
-602,-230,-15.0552,3.08398,0.00110676,0.00268024,0.000318337,0.0027422,0.00104479,1.37855,0.00159809,0.0108291,622,1254,-15.0552,-3.08396
-595,-230,-15.0726,3.37341,0.00134002,0.000860944,9.04565e-06,0.00134019,0.000860773,0.0188725,0.000784132,0.0184384,629,1254,-15.0726,-3.37347
-588,-230,-15.0789,3.66394,0.00123544,0.000930447,-0.000261577,0.00138573,0.000780161,-0.521487,0.000802166,0.0263556,636,1254,-15.0789,-3.66396
-581,-230,-15.0969,3.96277,0.0016,0.00102776,-0.000461749,0.00185709,0.00077067,-0.508031,0.00107734,0.0240711,643,1254,-15.0969,-3.96272
-574,-230,-15.0742,4.27686,0.00223741,0.00113355,-0.000502742,0.00243206,0.000938901,-0.369396,0.00141625,0.0166338,650,1254,-15.0742,-4.27682
-567,-230,-14.8736,4.6604,0.00235807,0.000399209,-3.64078e-05,0.00235874,0.000398533,-0.0185777,0.00145792,0.0280021,657,1254,-14.8736,-4.6604
-560,-230,-14.5685,5.0896,0,0,0,0,0,0,0,-1,664,1254,-14.5685,-5.08966
-553,-230,-13.1939,4.9718,0,0,0,0,0,0,0,-1,671,1254,-13.1939,-4.97175
-546,-230,-15.23,0.453979,0,0,0,0,0,0,0,-1,678,1254,-15.23,-0.453996
-539,-230,-19.7303,1.01721,0,0,0,0,0,0,0,-1,685,1254,-19.7303,-1.01717
-532,-230,-20.374,1.18799,0,0,0,0,0,0,0,-1,692,1254,-20.374,-1.18793
-525,-230,-20.3726,0.369873,0,0,0,0,0,0,0,-1,699,1254,-20.3726,-0.369893
-518,-230,-21.3066,1.19531,0,0,0,0,0,0,0,-1,706,1254,-21.3066,-1.19526
-511,-230,-21.3832,1.29749,-0.0141865,-0.00419076,0.0123642,0.00414749,-0.0225247,0.977468,0.0165729,0.0402609,713,1254,-21.3832,-1.2975
-504,-230,-21.4749,1.45825,-0.0167115,-0.00450654,0.0157921,0.00632113,-0.0275391,0.969773,0.0207893,0.0373911,720,1254,-21.4748,-1.45829
-497,-230,0,0,0,0,0,0,0,0,0,-1,727,1254,0,0
-490,-230,0,0,0,0,0,0,0,0,0,-1,734,1254,0,0
-483,-230,0,0,0,0,0,0,0,0,0,-1,741,1254,0,0
-476,-230,0,0,0,0,0,0,0,0,0,-1,748,1254,0,0
-469,-230,0,0,0,0,0,0,0,0,0,-1,755,1254,0,0
-462,-230,0,0,0,0,0,0,0,0,0,-1,762,1254,0,0
-455,-230,0,0,0,0,0,0,0,0,0,-1,769,1254,0,0
-448,-230,0,0,0,0,0,0,0,0,0,-1,776,1254,0,0
-441,-230,0,0,0,0,0,0,0,0,0,-1,783,1254,0,0
-434,-230,0,0,0,0,0,0,0,0,0,-1,790,1254,0,0
-427,-230,0,0,0,0,0,0,0,0,0,-1,797,1254,0,0
-420,-230,0,0,0,0,0,0,0,0,0,-1,804,1254,0,0
-413,-230,0,0,0,0,0,0,0,0,0,-1,811,1254,0,0
-406,-230,0,0,0,0,0,0,0,0,0,-1,818,1254,0,0
-399,-230,0,0,0,0,0,0,0,0,0,-1,825,1254,0,0
-392,-230,0,0,0,0,0,0,0,0,0,-1,832,1254,0,0
-385,-230,0,0,0,0,0,0,0,0,0,-1,839,1254,0,0
-378,-230,0,0,0,0,0,0,0,0,0,-1,846,1254,0,0
-371,-230,0,0,0,0,0,0,0,0,0,-1,853,1254,0,0
-364,-230,0,0,0,0,0,0,0,0,0,-1,860,1254,0,0
-357,-230,0,0,0,0,0,0,0,0,0,-1,867,1254,0,0
-350,-230,0,0,0,0,0,0,0,0,0,-1,874,1254,0,0
-343,-230,0,0,0,0,0,0,0,0,0,-1,881,1254,0,0
-336,-230,0,0,0,0,0,0,0,0,0,-1,888,1254,0,0
-329,-230,0,0,0,0,0,0,0,0,0,-1,895,1254,0,0
-322,-230,0,0,0,0,0,0,0,0,0,-1,902,1254,0,0
-315,-230,0,0,0,0,0,0,0,0,0,-1,909,1254,0,0
-308,-230,0,0,0,0,0,0,0,0,0,-1,916,1254,0,0
-301,-230,0,0,0,0,0,0,0,0,0,-1,923,1254,0,0
-294,-230,0,0,0,0,0,0,0,0,0,-1,930,1254,0,0
-287,-230,0,0,0,0,0,0,0,0,0,-1,937,1254,0,0
-280,-230,0,0,0,0,0,0,0,0,0,-1,944,1254,0,0
-273,-230,0,0,0,0,0,0,0,0,0,-1,951,1254,0,0
-266,-230,0,0,0,0,0,0,0,0,0,-1,958,1254,0,0
-259,-230,0,0,0,0,0,0,0,0,0,-1,965,1254,0,0
-252,-230,0,0,0,0,0,0,0,0,0,-1,972,1254,0,0
-245,-230,0,0,0,0,0,0,0,0,0,-1,979,1254,0,0
-238,-230,0,0,0,0,0,0,0,0,0,-1,986,1254,0,0
-231,-230,0,0,0,0,0,0,0,0,0,-1,993,1254,0,0
-224,-230,0,0,0,0,0,0,0,0,0,-1,1000,1254,0,0
-217,-230,0,0,0,0,0,0,0,0,0,-1,1007,1254,0,0
-210,-230,0,0,0,0,0,0,0,0,0,-1,1014,1254,0,0
-203,-230,0,0,0,0,0,0,0,0,0,-1,1021,1254,0,0
-196,-230,0,0,0,0,0,0,0,0,0,-1,1028,1254,0,0
-189,-230,0,0,0,0,0,0,0,0,0,-1,1035,1254,0,0
-182,-230,0,0,0,0,0,0,0,0,0,-1,1042,1254,0,0
-175,-230,0,0,0,0,0,0,0,0,0,-1,1049,1254,0,0
-168,-230,0,0,0,0,0,0,0,0,0,-1,1056,1254,0,0
-161,-230,0,0,0,0,0,0,0,0,0,-1,1063,1254,0,0
-154,-230,0,0,0,0,0,0,0,0,0,-1,1070,1254,0,0
-147,-230,0,0,0,0,0,0,0,0,0,-1,1077,1254,0,0
-140,-230,0,0,0,0,0,0,0,0,0,-1,1084,1254,0,0
-133,-230,0,0,0,0,0,0,0,0,0,-1,1091,1254,0,0
-126,-230,0,0,0,0,0,0,0,0,0,-1,1098,1254,0,0
-119,-230,0,0,0,0,0,0,0,0,0,-1,1105,1254,0,0
-112,-230,0,0,0,0,0,0,0,0,0,-1,1112,1254,0,0
-105,-230,0,0,0,0,0,0,0,0,0,-1,1119,1254,0,0
-98,-230,0,0,0,0,0,0,0,0,0,-1,1126,1254,0,0
-91,-230,0,0,0,0,0,0,0,0,0,-1,1133,1254,0,0
-84,-230,0,0,0,0,0,0,0,0,0,-1,1140,1254,0,0
-77,-230,0,0,0,0,0,0,0,0,0,-1,1147,1254,0,0
-70,-230,0,0,0,0,0,0,0,0,0,-1,1154,1254,0,0
-63,-230,0,0,0,0,0,0,0,0,0,-1,1161,1254,0,0
-56,-230,0,0,0,0,0,0,0,0,0,-1,1168,1254,0,0
-49,-230,0,0,0,0,0,0,0,0,0,-1,1175,1254,0,0
-42,-230,0,0,0,0,0,0,0,0,0,-1,1182,1254,0,0
-35,-230,0,0,0,0,0,0,0,0,0,-1,1189,1254,0,0
-28,-230,0,0,0,0,0,0,0,0,0,-1,1196,1254,0,0
-21,-230,0,0,0,0,0,0,0,0,0,-1,1203,1254,0,0
-14,-230,0,0,0,0,0,0,0,0,0,-1,1210,1254,0,0
-7,-230,0,0,0,0,0,0,0,0,0,-1,1217,1254,0,0
0,-230,0,0,0,0,0,0,0,0,0,-1,1224,1254,0,0
7,-230,0,0,0,0,0,0,0,0,0,-1,1231,1254,0,0
14,-230,0,0,0,0,0,0,0,0,0,-1,1238,1254,0,0
21,-230,0,0,0,0,0,0,0,0,0,-1,1245,1254,0,0
28,-230,0,0,0,0,0,0,0,0,0,-1,1252,1254,0,0
35,-230,0,0,0,0,0,0,0,0,0,-1,1259,1254,0,0
42,-230,0,0,0,0,0,0,0,0,0,-1,1266,1254,0,0
49,-230,0,0,0,0,0,0,0,0,0,-1,1273,1254,0,0
56,-230,0,0,0,0,0,0,0,0,0,-1,1280,1254,0,0
63,-230,0,0,0,0,0,0,0,0,0,-1,1287,1254,0,0
70,-230,0,0,0,0,0,0,0,0,0,-1,1294,1254,0,0
77,-230,0,0,0,0,0,0,0,0,0,-1,1301,1254,0,0
84,-230,0,0,0,0,0,0,0,0,0,-1,1308,1254,0,0
91,-230,0,0,0,0,0,0,0,0,0,-1,1315,1254,0,0
98,-230,0,0,0,0,0,0,0,0,0,-1,1322,1254,0,0
105,-230,0,0,0,0,0,0,0,0,0,-1,1329,1254,0,0
112,-230,0,0,0,0,0,0,0,0,0,-1,1336,1254,0,0
119,-230,0,0,0,0,0,0,0,0,0,-1,1343,1254,0,0
126,-230,0,0,0,0,0,0,0,0,0,-1,1350,1254,0,0
133,-230,0,0,0,0,0,0,0,0,0,-1,1357,1254,0,0
140,-230,0,0,0,0,0,0,0,0,0,-1,1364,1254,0,0
147,-230,0,0,0,0,0,0,0,0,0,-1,1371,1254,0,0
154,-230,0,0,0,0,0,0,0,0,0,-1,1378,1254,0,0
161,-230,0,0,0,0,0,0,0,0,0,-1,1385,1254,0,0
168,-230,0,0,0,0,0,0,0,0,0,-1,1392,1254,0,0
175,-230,0,0,0,0,0,0,0,0,0,-1,1399,1254,0,0
182,-230,0,0,0,0,0,0,0,0,0,-1,1406,1254,0,0
189,-230,0,0,0,0,0,0,0,0,0,-1,1413,1254,0,0
196,-230,0,0,0,0,0,0,0,0,0,-1,1420,1254,0,0
203,-230,0,0,0,0,0,0,0,0,0,-1,1427,1254,0,0
210,-230,0,0,0,0,0,0,0,0,0,-1,1434,1254,0,0
217,-230,0,0,0,0,0,0,0,0,0,-1,1441,1254,0,0
224,-230,0,0,0,0,0,0,0,0,0,-1,1448,1254,0,0
231,-230,0,0,0,0,0,0,0,0,0,-1,1455,1254,0,0
238,-230,0,0,0,0,0,0,0,0,0,-1,1462,1254,0,0
245,-230,0,0,0,0,0,0,0,0,0,-1,1469,1254,0,0
252,-230,0,0,0,0,0,0,0,0,0,-1,1476,1254,0,0
259,-230,0,0,0,0,0,0,0,0,0,-1,1483,1254,0,0
266,-230,0,0,0,0,0,0,0,0,0,-1,1490,1254,0,0
273,-230,0,0,0,0,0,0,0,0,0,-1,1497,1254,0,0
280,-230,0,0,0,0,0,0,0,0,0,-1,1504,1254,0,0
287,-230,0,0,0,0,0,0,0,0,0,-1,1511,1254,0,0
294,-230,0,0,0,0,0,0,0,0,0,-1,1518,1254,0,0
301,-230,0,0,0,0,0,0,0,0,0,-1,1525,1254,0,0
308,-230,0,0,0,0,0,0,0,0,0,-1,1532,1254,0,0
315,-230,0,0,0,0,0,0,0,0,0,-1,1539,1254,0,0
322,-230,0,0,0,0,0,0,0,0,0,-1,1546,1254,0,0
329,-230,0,0,0,0,0,0,0,0,0,-1,1553,1254,0,0
336,-230,0,0,0,0,0,0,0,0,0,-1,1560,1254,0,0
343,-230,0,0,0,0,0,0,0,0,0,-1,1567,1254,0,0
350,-230,0,0,0,0,0,0,0,0,0,-1,1574,1254,0,0
357,-230,0,0,0,0,0,0,0,0,0,-1,1581,1254,0,0
364,-230,0,0,0,0,0,0,0,0,0,-1,1588,1254,0,0
371,-230,0,0,0,0,0,0,0,0,0,-1,1595,1254,0,0
378,-230,0,0,0,0,0,0,0,0,0,-1,1602,1254,0,0
385,-230,0,0,0,0,0,0,0,0,0,-1,1609,1254,0,0
392,-230,0,0,0,0,0,0,0,0,0,-1,1616,1254,0,0
399,-230,0,0,0,0,0,0,0,0,0,-1,1623,1254,0,0
406,-230,0,0,0,0,0,0,0,0,0,-1,1630,1254,0,0
413,-230,0,0,0,0,0,0,0,0,0,-1,1637,1254,0,0
420,-230,0,0,0,0,0,0,0,0,0,-1,1644,1254,0,0
427,-230,0,0,0,0,0,0,0,0,0,-1,1651,1254,0,0
434,-230,0,0,0,0,0,0,0,0,0,-1,1658,1254,0,0
441,-230,0,0,0,0,0,0,0,0,0,-1,1665,1254,0,0
448,-230,0,0,0,0,0,0,0,0,0,-1,1672,1254,0,0
455,-230,0,0,0,0,0,0,0,0,0,-1,1679,1254,0,0
462,-230,0,0,0,0,0,0,0,0,0,-1,1686,1254,0,0
469,-230,0,0,0,0,0,0,0,0,0,-1,1693,1254,0,0
476,-230,0,0,0,0,0,0,0,0,0,-1,1700,1254,0,0
483,-230,0,0,0,0,0,0,0,0,0,-1,1707,1254,0,0
490,-230,0,0,0,0,0,0,0,0,0,-1,1714,1254,0,0
497,-230,0,0,0,0,0,0,0,0,0,-1,1721,1254,0,0
504,-230,0,0,0,0,0,0,0,0,0,-1,1728,1254,0,0
511,-230,0,0,0,0,0,0,0,0,0,-1,1735,1254,0,0
518,-230,0,0,0,0,0,0,0,0,0,-1,1742,1254,0,0
525,-230,0,0,0,0,0,0,0,0,0,-1,1749,1254,0,0
532,-230,0,0,0,0,0,0,0,0,0,-1,1756,1254,0,0
539,-230,0,0,0,0,0,0,0,0,0,-1,1763,1254,0,0
546,-230,0,0,0,0,0,0,0,0,0,-1,1770,1254,0,0
553,-230,0,0,0,0,0,0,0,0,0,-1,1777,1254,0,0
560,-230,0,0,0,0,0,0,0,0,0,-1,1784,1254,0,0
567,-230,0,0,0,0,0,0,0,0,0,-1,1791,1254,0,0
574,-230,0,0,0,0,0,0,0,0,0,-1,1798,1254,0,0
581,-230,0,0,0,0,0,0,0,0,0,-1,1805,1254,0,0
588,-230,0,0,0,0,0,0,0,0,0,-1,1812,1254,0,0
595,-230,0,0,0,0,0,0,0,0,0,-1,1819,1254,0,0
602,-230,0,0,0,0,0,0,0,0,0,-1,1826,1254,0,0
609,-230,0,0,0,0,0,0,0,0,0,-1,1833,1254,0,0
616,-230,30.7157,3.18018,0.0116686,0.00284956,-0.00957702,0.0178025,-0.00328431,-0.569652,0.0131011,0.0368228,1840,1254,30.7157,-3.18012
623,-230,30.7958,3.01904,0.003512,0.00161145,-0.0055433,0.00818589,-0.00306244,-0.70051,0.00671503,0.0377754,1847,1254,30.7958,-3.01899
630,-230,30.8335,2.8999,-0.00187681,0.00155307,-0.00101821,0.00183257,-0.00215631,-1.3029,0.0023055,0.0329089,1854,1254,30.8335,-2.89992
637,-230,30.6964,2.93713,-0.0060209,0.00186847,0.00351448,0.00320697,-0.0073594,1.2069,0.00625555,0.0285332,1861,1254,30.6964,-2.93717
644,-230,30.6476,2.87073,-0.00730837,0.00227762,0.00623397,0.00534816,-0.0103789,1.11313,0.00923358,0.0221631,1868,1254,30.6476,-2.87067
651,-230,30.6677,2.86707,-0.00660955,0.00246646,0.00711071,0.00636384,-0.0105069,1.06941,0.00983776,0.042091,1875,1254,30.6677,-2.86706
658,-230,30.651,2.85742,0,0,0,0,0,0,0,-1,1882,1254,30.6511,-2.85737
665,-230,30.5315,2.59058,0,0,0,0,0,0,0,-1,1889,1254,30.5315,-2.59052
672,-230,30.7875,2.62805,0,0,0,0,0,0,0,-1,1896,1254,30.7875,-2.62809
679,-230,27.9967,2.37708,0,0,0,0,0,0,0,-1,1903,1254,27.9967,-2.3771
686,-230,24.8313,7.12939,0,0,0,0,0,0,0,-1,1910,1254,24.8313,-7.12941
693,-230,24.9119,6.94836,0.000893441,0.00127079,0.00459476,0.00568074,-0.00351651,0.805918,0.00535882,0.0310084,1917,1254,24.9118,-6.94831
700,-230,24.9908,6.74365,0.00198304,0.000781617,0.00376102,0.00519102,-0.00242637,0.706207,0.00449342,0.0120169,1924,1254,24.9908,-6.74367
707,-230,24.9585,6.48633,0.00291218,0.000529409,0.00253772,0.00452426,-0.00108267,0.565935,0.00343443,0.0094825,1931,1254,24.9585,-6.48635
714,-230,24.9427,6.21216,0.00242832,-0.000504684,0.00152039,0.00307422,-0.00115058,0.401719,0.00252206,0.0117041,1938,1254,24.9427,-6.21212
721,-230,24.9587,5.93799,0.000959918,-0.000579438,0.00152927,0.00190228,-0.0015218,0.552257,0.00198095,0.0128817,1945,1254,24.9587,-5.938
728,-230,24.9542,5.70691,0.000389444,-0.000930346,0.00200471,0.00184007,-0.00238098,0.626397,0.00244368,0.0140842,1952,1254,24.9542,-5.70686
735,-230,24.9305,5.48328,0.00217388,-0.00217592,0.00343378,0.00406359,-0.00406563,0.503096,0.00469341,0.0138871,1959,1254,24.9305,-5.48329
742,-230,24.9113,5.22156,0.00489227,-0.00408678,0.00493136,0.00707164,-0.00626615,0.416132,0.00770526,0.0106888,1966,1254,24.9113,-5.2216
749,-230,24.9294,4.92554,0.0086628,-0.00680486,0.00663043,0.011116,-0.00925802,0.354366,0.0117792,0.0108319,1973,1254,24.9294,-4.9255
756,-230,24.9188,4.66223,0.0143117,-0.0106641,0.008938,0.0171807,-0.0135332,0.310603,0.0177743,0.0157091,1980,1254,24.9188,-4.66226
763,-230,24.937,4.38074,0.022253,-0.016328,0.0118452,0.0255995,-0.0196744,0.275341,0.0262134,0.0303823,1987,1254,24.937,-4.38078
770,-230,25.0906,4.05493,0.0327366,-0.0242358,0.015416,0.0366405,-0.0281397,0.248021,0.037508,0.0457808,1994,1254,25.0906,-4.05492
777,-230,25.1989,3.82275,0,0,0,0,0,0,0,-1,2001,1254,25.1989,-3.82277
784,-230,30.9982,4.07373,0,0,0,0,0,0,0,-1,2008,1254,30.9981,-4.07375
791,-230,31.9327,5.41675,0,0,0,0,0,0,0,-1,2015,1254,31.9328,-5.41679
798,-230,0,0,0,0,0,0,0,0,0,-1,2022,1254,0,0
805,-230,0,0,0,0,0,0,0,0,0,-1,2029,1254,0,0
812,-230,0,0,0,0,0,0,0,0,0,-1,2036,1254,0,0
-700,-237,0,0,0,0,0,0,0,0,0,-1,524,1261,0,0
-693,-237,0,0,0,0,0,0,0,0,0,-1,531,1261,0,0
-686,-237,0,0,0,0,0,0,0,0,0,-1,538,1261,0,0
-679,-237,0,0,0,0,0,0,0,0,0,-1,545,1261,0,0
-672,-237,-18.884,1.96082,0,0,0,0,0,0,0,-1,552,1261,-18.884,-1.96079
-665,-237,-18.1927,-2.3623,0,0,0,0,0,0,0,-1,559,1261,-18.1928,2.36232
-658,-237,-18.6097,-2.45398,-0.000490522,0.0339119,0.0316256,0.0527115,-0.0192901,1.03447,0.0430371,0.0481805,566,1261,-18.6098,2.45403
-651,-237,-19.6693,-2.28418,0.00170941,0.0293142,0.025363,0.0443872,-0.0133636,1.03459,0.0349093,0.0473798,573,1261,-19.6693,2.28424
-644,-237,-14.92,1.56494,0,0,0,0,0,0,0,-1,580,1261,-14.92,-1.56496
-637,-237,-15.0471,1.39465,0,0,0,0,0,0,0,-1,587,1261,-15.047,-1.39467
-630,-237,-14.7592,1.87219,0.00352697,0.0149859,0.0108803,0.0215532,-0.00304024,1.02774,0.015482,0.0451222,594,1261,-14.7592,-1.8722
-623,-237,-14.7162,2.10461,0.0037393,0.0110455,0.00745171,0.0156914,-0.000906588,1.0133,0.0107758,0.0286386,601,1261,-14.7163,-2.10458
-616,-237,-14.7435,2.48914,0.00376368,0.00784738,0.00468603,0.0109171,0.000693969,0.99086,0.00705812,0.0140593,608,1261,-14.7435,-2.4891
-609,-237,-14.7411,2.78552,0.00252952,0.00528781,0.00228505,0.00657765,0.00123968,1.05691,0.00403584,0.0154644,615,1261,-14.7411,-2.78557
-602,-237,-14.7479,3.09924,0.00190741,0.00253925,0.000650452,0.00294644,0.00150021,1.01147,0.00170122,0.0109495,622,1261,-14.7479,-3.09922
-595,-237,-14.7884,3.38403,0.00199222,0.000813577,0.000357026,0.00209194,0.000713865,0.272346,0.0012279,0.0147549,629,1261,-14.7884,-3.38398
-588,-237,-14.7959,3.67114,0.00171003,0.000945467,0.000133012,0.00173251,0.000922988,0.16742,0.00100098,0.0266606,636,1261,-14.7959,-3.67113
-581,-237,-14.7917,3.97595,0.00202726,0.00108258,5.20863e-06,0.00202729,0.00108255,0.0055134,0.00117136,0.0249057,643,1261,-14.7917,-3.97589
-574,-237,-14.7793,4.29004,0.00265167,0.00117351,2.65419e-05,0.00265215,0.00117304,0.0179483,0.00153461,0.0152833,650,1261,-14.7793,-4.29006
-567,-237,-14.7195,4.66162,0.00265298,0.000461741,0.0005008,0.00276201,0.00035271,0.214369,0.00173576,0.0190095,657,1261,-14.7195,-4.66164
-560,-237,-14.4208,5.14124,0.00197435,7.05896e-05,0.00131706,0.0026475,-0.000602557,0.472487,0.0019964,0.0405156,664,1261,-14.4208,-5.14127
-553,-237,-14.1022,5.51416,0,0,0,0,0,0,0,-1,671,1261,-14.1022,-5.51413
-546,-237,-11.192,1.14014,0,0,0,0,0,0,0,-1,678,1261,-11.192,-1.14011
-539,-237,-16.512,1.53455,0,0,0,0,0,0,0,-1,685,1261,-16.512,-1.53457
-532,-237,-20.2287,0.438477,0,0,0,0,0,0,0,-1,692,1261,-20.2287,-0.438438
-525,-237,-20.4646,0.568726,0,0,0,0,0,0,0,-1,699,1261,-20.4646,-0.568667
-518,-237,-20.8206,0.737305,-0.0120151,-0.0027051,0.010621,0.00423626,-0.0189565,0.991931,0.014261,0.0462527,706,1261,-20.8206,-0.737327
-511,-237,-21.2693,1.14563,-0.0156067,-0.00252735,0.0130791,0.0055559,-0.02369,1.01723,0.0179345,0.0409826,713,1261,-21.2693,-1.14562
-504,-237,-21.3934,1.36646,-0.0186455,-0.00219046,0.0162534,0.00779915,-0.0286351,1.0197,0.0221523,0.0397418,720,1261,-21.3934,-1.36648
-497,-237,-21.4848,1.56775,-0.0208553,-0.00175649,0.0198826,0.010751,-0.0333628,1.00928,0.026561,0.0456851,727,1261,-21.4848,-1.56773
-490,-237,0,0,0,0,0,0,0,0,0,-1,734,1261,0,0
-483,-237,0,0,0,0,0,0,0,0,0,-1,741,1261,0,0
-476,-237,0,0,0,0,0,0,0,0,0,-1,748,1261,0,0
-469,-237,0,0,0,0,0,0,0,0,0,-1,755,1261,0,0
-462,-237,0,0,0,0,0,0,0,0,0,-1,762,1261,0,0
-455,-237,0,0,0,0,0,0,0,0,0,-1,769,1261,0,0
-448,-237,0,0,0,0,0,0,0,0,0,-1,776,1261,0,0
-441,-237,0,0,0,0,0,0,0,0,0,-1,783,1261,0,0
-434,-237,0,0,0,0,0,0,0,0,0,-1,790,1261,0,0
-427,-237,0,0,0,0,0,0,0,0,0,-1,797,1261,0,0
-420,-237,0,0,0,0,0,0,0,0,0,-1,804,1261,0,0
-413,-237,0,0,0,0,0,0,0,0,0,-1,811,1261,0,0
-406,-237,0,0,0,0,0,0,0,0,0,-1,818,1261,0,0
-399,-237,0,0,0,0,0,0,0,0,0,-1,825,1261,0,0
-392,-237,0,0,0,0,0,0,0,0,0,-1,832,1261,0,0
-385,-237,0,0,0,0,0,0,0,0,0,-1,839,1261,0,0
-378,-237,0,0,0,0,0,0,0,0,0,-1,846,1261,0,0
-371,-237,0,0,0,0,0,0,0,0,0,-1,853,1261,0,0
-364,-237,0,0,0,0,0,0,0,0,0,-1,860,1261,0,0
-357,-237,0,0,0,0,0,0,0,0,0,-1,867,1261,0,0
-350,-237,0,0,0,0,0,0,0,0,0,-1,874,1261,0,0
-343,-237,0,0,0,0,0,0,0,0,0,-1,881,1261,0,0
-336,-237,0,0,0,0,0,0,0,0,0,-1,888,1261,0,0
-329,-237,0,0,0,0,0,0,0,0,0,-1,895,1261,0,0
-322,-237,0,0,0,0,0,0,0,0,0,-1,902,1261,0,0
-315,-237,0,0,0,0,0,0,0,0,0,-1,909,1261,0,0
-308,-237,0,0,0,0,0,0,0,0,0,-1,916,1261,0,0
-301,-237,0,0,0,0,0,0,0,0,0,-1,923,1261,0,0
-294,-237,0,0,0,0,0,0,0,0,0,-1,930,1261,0,0
-287,-237,0,0,0,0,0,0,0,0,0,-1,937,1261,0,0
-280,-237,0,0,0,0,0,0,0,0,0,-1,944,1261,0,0
-273,-237,0,0,0,0,0,0,0,0,0,-1,951,1261,0,0
-266,-237,0,0,0,0,0,0,0,0,0,-1,958,1261,0,0
-259,-237,0,0,0,0,0,0,0,0,0,-1,965,1261,0,0
-252,-237,0,0,0,0,0,0,0,0,0,-1,972,1261,0,0
-245,-237,0,0,0,0,0,0,0,0,0,-1,979,1261,0,0
-238,-237,0,0,0,0,0,0,0,0,0,-1,986,1261,0,0
-231,-237,0,0,0,0,0,0,0,0,0,-1,993,1261,0,0
-224,-237,0,0,0,0,0,0,0,0,0,-1,1000,1261,0,0
-217,-237,0,0,0,0,0,0,0,0,0,-1,1007,1261,0,0
-210,-237,0,0,0,0,0,0,0,0,0,-1,1014,1261,0,0
-203,-237,0,0,0,0,0,0,0,0,0,-1,1021,1261,0,0
-196,-237,0,0,0,0,0,0,0,0,0,-1,1028,1261,0,0
-189,-237,0,0,0,0,0,0,0,0,0,-1,1035,1261,0,0
-182,-237,0,0,0,0,0,0,0,0,0,-1,1042,1261,0,0
-175,-237,0,0,0,0,0,0,0,0,0,-1,1049,1261,0,0
-168,-237,0,0,0,0,0,0,0,0,0,-1,1056,1261,0,0
-161,-237,0,0,0,0,0,0,0,0,0,-1,1063,1261,0,0
-154,-237,0,0,0,0,0,0,0,0,0,-1,1070,1261,0,0
-147,-237,0,0,0,0,0,0,0,0,0,-1,1077,1261,0,0
-140,-237,0,0,0,0,0,0,0,0,0,-1,1084,1261,0,0
-133,-237,0,0,0,0,0,0,0,0,0,-1,1091,1261,0,0
-126,-237,0,0,0,0,0,0,0,0,0,-1,1098,1261,0,0
-119,-237,0,0,0,0,0,0,0,0,0,-1,1105,1261,0,0
-112,-237,0,0,0,0,0,0,0,0,0,-1,1112,1261,0,0
-105,-237,0,0,0,0,0,0,0,0,0,-1,1119,1261,0,0
-98,-237,0,0,0,0,0,0,0,0,0,-1,1126,1261,0,0
-91,-237,0,0,0,0,0,0,0,0,0,-1,1133,1261,0,0
-84,-237,0,0,0,0,0,0,0,0,0,-1,1140,1261,0,0
-77,-237,0,0,0,0,0,0,0,0,0,-1,1147,1261,0,0
-70,-237,0,0,0,0,0,0,0,0,0,-1,1154,1261,0,0
-63,-237,0,0,0,0,0,0,0,0,0,-1,1161,1261,0,0
-56,-237,0,0,0,0,0,0,0,0,0,-1,1168,1261,0,0
-49,-237,0,0,0,0,0,0,0,0,0,-1,1175,1261,0,0
-42,-237,0,0,0,0,0,0,0,0,0,-1,1182,1261,0,0
-35,-237,0,0,0,0,0,0,0,0,0,-1,1189,1261,0,0
-28,-237,0,0,0,0,0,0,0,0,0,-1,1196,1261,0,0
-21,-237,0,0,0,0,0,0,0,0,0,-1,1203,1261,0,0
-14,-237,0,0,0,0,0,0,0,0,0,-1,1210,1261,0,0
-7,-237,0,0,0,0,0,0,0,0,0,-1,1217,1261,0,0
0,-237,0,0,0,0,0,0,0,0,0,-1,1224,1261,0,0
7,-237,0,0,0,0,0,0,0,0,0,-1,1231,1261,0,0
14,-237,0,0,0,0,0,0,0,0,0,-1,1238,1261,0,0
21,-237,0,0,0,0,0,0,0,0,0,-1,1245,1261,0,0
28,-237,0,0,0,0,0,0,0,0,0,-1,1252,1261,0,0
35,-237,0,0,0,0,0,0,0,0,0,-1,1259,1261,0,0
42,-237,0,0,0,0,0,0,0,0,0,-1,1266,1261,0,0
49,-237,0,0,0,0,0,0,0,0,0,-1,1273,1261,0,0
56,-237,0,0,0,0,0,0,0,0,0,-1,1280,1261,0,0
63,-237,0,0,0,0,0,0,0,0,0,-1,1287,1261,0,0
70,-237,0,0,0,0,0,0,0,0,0,-1,1294,1261,0,0
77,-237,0,0,0,0,0,0,0,0,0,-1,1301,1261,0,0
84,-237,0,0,0,0,0,0,0,0,0,-1,1308,1261,0,0
91,-237,0,0,0,0,0,0,0,0,0,-1,1315,1261,0,0
98,-237,0,0,0,0,0,0,0,0,0,-1,1322,1261,0,0
105,-237,0,0,0,0,0,0,0,0,0,-1,1329,1261,0,0
112,-237,0,0,0,0,0,0,0,0,0,-1,1336,1261,0,0
119,-237,0,0,0,0,0,0,0,0,0,-1,1343,1261,0,0
126,-237,0,0,0,0,0,0,0,0,0,-1,1350,1261,0,0
133,-237,0,0,0,0,0,0,0,0,0,-1,1357,1261,0,0
140,-237,0,0,0,0,0,0,0,0,0,-1,1364,1261,0,0
147,-237,0,0,0,0,0,0,0,0,0,-1,1371,1261,0,0
154,-237,0,0,0,0,0,0,0,0,0,-1,1378,1261,0,0
161,-237,0,0,0,0,0,0,0,0,0,-1,1385,1261,0,0
168,-237,0,0,0,0,0,0,0,0,0,-1,1392,1261,0,0
175,-237,0,0,0,0,0,0,0,0,0,-1,1399,1261,0,0
182,-237,0,0,0,0,0,0,0,0,0,-1,1406,1261,0,0
189,-237,0,0,0,0,0,0,0,0,0,-1,1413,1261,0,0
196,-237,0,0,0,0,0,0,0,0,0,-1,1420,1261,0,0
203,-237,0,0,0,0,0,0,0,0,0,-1,1427,1261,0,0
210,-237,0,0,0,0,0,0,0,0,0,-1,1434,1261,0,0
217,-237,0,0,0,0,0,0,0,0,0,-1,1441,1261,0,0
224,-237,0,0,0,0,0,0,0,0,0,-1,1448,1261,0,0
231,-237,0,0,0,0,0,0,0,0,0,-1,1455,1261,0,0
238,-237,0,0,0,0,0,0,0,0,0,-1,1462,1261,0,0
245,-237,0,0,0,0,0,0,0,0,0,-1,1469,1261,0,0
252,-237,0,0,0,0,0,0,0,0,0,-1,1476,1261,0,0
259,-237,0,0,0,0,0,0,0,0,0,-1,1483,1261,0,0
266,-237,0,0,0,0,0,0,0,0,0,-1,1490,1261,0,0
273,-237,0,0,0,0,0,0,0,0,0,-1,1497,1261,0,0
280,-237,0,0,0,0,0,0,0,0,0,-1,1504,1261,0,0
287,-237,0,0,0,0,0,0,0,0,0,-1,1511,1261,0,0
294,-237,0,0,0,0,0,0,0,0,0,-1,1518,1261,0,0
301,-237,0,0,0,0,0,0,0,0,0,-1,1525,1261,0,0
308,-237,0,0,0,0,0,0,0,0,0,-1,1532,1261,0,0
315,-237,0,0,0,0,0,0,0,0,0,-1,1539,1261,0,0
322,-237,0,0,0,0,0,0,0,0,0,-1,1546,1261,0,0
329,-237,0,0,0,0,0,0,0,0,0,-1,1553,1261,0,0
336,-237,0,0,0,0,0,0,0,0,0,-1,1560,1261,0,0
343,-237,0,0,0,0,0,0,0,0,0,-1,1567,1261,0,0
350,-237,0,0,0,0,0,0,0,0,0,-1,1574,1261,0,0
357,-237,0,0,0,0,0,0,0,0,0,-1,1581,1261,0,0
364,-237,0,0,0,0,0,0,0,0,0,-1,1588,1261,0,0
371,-237,0,0,0,0,0,0,0,0,0,-1,1595,1261,0,0
378,-237,0,0,0,0,0,0,0,0,0,-1,1602,1261,0,0
385,-237,0,0,0,0,0,0,0,0,0,-1,1609,1261,0,0
392,-237,0,0,0,0,0,0,0,0,0,-1,1616,1261,0,0
399,-237,0,0,0,0,0,0,0,0,0,-1,1623,1261,0,0
406,-237,0,0,0,0,0,0,0,0,0,-1,1630,1261,0,0
413,-237,0,0,0,0,0,0,0,0,0,-1,1637,1261,0,0
420,-237,0,0,0,0,0,0,0,0,0,-1,1644,1261,0,0
427,-237,0,0,0,0,0,0,0,0,0,-1,1651,1261,0,0
434,-237,0,0,0,0,0,0,0,0,0,-1,1658,1261,0,0
441,-237,0,0,0,0,0,0,0,0,0,-1,1665,1261,0,0
448,-237,0,0,0,0,0,0,0,0,0,-1,1672,1261,0,0
455,-237,0,0,0,0,0,0,0,0,0,-1,1679,1261,0,0
462,-237,0,0,0,0,0,0,0,0,0,-1,1686,1261,0,0
469,-237,0,0,0,0,0,0,0,0,0,-1,1693,1261,0,0
476,-237,0,0,0,0,0,0,0,0,0,-1,1700,1261,0,0
483,-237,0,0,0,0,0,0,0,0,0,-1,1707,1261,0,0
490,-237,0,0,0,0,0,0,0,0,0,-1,1714,1261,0,0
497,-237,0,0,0,0,0,0,0,0,0,-1,1721,1261,0,0
504,-237,0,0,0,0,0,0,0,0,0,-1,1728,1261,0,0
511,-237,0,0,0,0,0,0,0,0,0,-1,1735,1261,0,0
518,-237,0,0,0,0,0,0,0,0,0,-1,1742,1261,0,0
525,-237,0,0,0,0,0,0,0,0,0,-1,1749,1261,0,0
532,-237,0,0,0,0,0,0,0,0,0,-1,1756,1261,0,0
539,-237,0,0,0,0,0,0,0,0,0,-1,1763,1261,0,0
546,-237,0,0,0,0,0,0,0,0,0,-1,1770,1261,0,0
553,-237,0,0,0,0,0,0,0,0,0,-1,1777,1261,0,0
560,-237,0,0,0,0,0,0,0,0,0,-1,1784,1261,0,0
567,-237,0,0,0,0,0,0,0,0,0,-1,1791,1261,0,0
574,-237,0,0,0,0,0,0,0,0,0,-1,1798,1261,0,0
581,-237,0,0,0,0,0,0,0,0,0,-1,1805,1261,0,0
588,-237,0,0,0,0,0,0,0,0,0,-1,1812,1261,0,0
595,-237,0,0,0,0,0,0,0,0,0,-1,1819,1261,0,0
602,-237,0,0,0,0,0,0,0,0,0,-1,1826,1261,0,0
609,-237,0,0,0,0,0,0,0,0,0,-1,1833,1261,0,0
616,-237,30.7499,2.94788,0.0132381,0.00325783,-0.00930546,0.018807,-0.00231107,-0.539283,0.0133751,0.0368503,1840,1261,30.7498,-2.94786
623,-237,30.7855,2.96619,0.00359258,0.00186853,-0.00438237,0.00719691,-0.00173579,-0.688286,0.00546914,0.0338102,1847,1261,30.7855,-2.96616
630,-237,30.7813,2.98193,-0.00401883,0.00170369,0.000867267,0.00183223,-0.00414738,1.42364,0.00353753,0.0273319,1854,1261,30.7812,-2.98196
637,-237,30.7041,2.96204,-0.00966869,0.00205833,0.00549422,0.00423019,-0.0118406,1.19435,0.00961899,0.0231142,1861,1261,30.7041,-2.96199
644,-237,30.5833,2.84717,-0.0114137,0.00240966,0.00785138,0.00595816,-0.0149622,1.14631,0.0124457,0.044355,1868,1261,30.5833,-2.84719
651,-237,30.6548,2.77795,-0.0108178,0.00254338,0.00844692,0.00663224,-0.0149066,1.11998,0.0127377,0.0494072,1875,1261,30.6547,-2.77797
658,-237,30.9188,2.78735,0,0,0,0,0,0,0,-1,1882,1261,30.9189,-2.7873
665,-237,31.0405,2.74939,0,0,0,0,0,0,0,-1,1889,1261,31.0405,-2.74938
672,-237,30.1901,2.21899,0,0,0,0,0,0,0,-1,1896,1261,30.1901,-2.21894
679,-237,23.1501,7.37488,0,0,0,0,0,0,0,-1,1903,1261,23.1502,-7.37493
686,-237,24.6804,7.31335,0,0,0,0,0,0,0,-1,1910,1261,24.6805,-7.31339
693,-237,24.6649,7.02002,-0.00127325,0.00160447,0.00507372,0.00543941,-0.00510819,0.923566,0.00609066,0.031001,1917,1261,24.6649,-7.01998
700,-237,24.7069,6.75635,0.000539801,0.00107823,0.00395882,0.00477697,-0.00315895,0.819348,0.00461344,0.0113681,1924,1261,24.7069,-6.75634
707,-237,24.6965,6.49963,0.0021552,0.00080707,0.0024495,0.00402169,-0.00105942,0.651129,0.0030953,0.00961728,1931,1261,24.6965,-6.49961
714,-237,24.6727,6.23779,0.00193499,-0.000357465,0.00125016,0.00248486,-0.000907332,0.414371,0.00202785,0.0128984,1938,1261,24.6727,-6.23779
721,-237,24.6595,5.9729,0.000602907,-0.000436292,0.00131378,0.00149611,-0.00132949,0.597088,0.00163231,0.0152333,1945,1261,24.6596,-5.97288
728,-237,24.6975,5.71057,0.000394048,-0.000997028,0.00200381,0.0018196,-0.00242258,0.61835,0.00245746,0.0147554,1952,1261,24.6976,-5.71059
735,-237,24.6854,5.44971,0.00247356,-0.00258407,0.00367935,0.00440933,-0.00451984,0.484323,0.00515539,0.0186675,1959,1261,24.6854,-5.44974
742,-237,24.6813,5.20313,0.00531692,-0.00470873,0.00541405,0.00768247,-0.00707428,0.41193,0.00852223,0.0144638,1966,1261,24.6813,-5.20313
749,-237,24.649,4.95032,0.00942855,-0.00772087,0.00749275,0.012241,-0.0105333,0.359081,0.0131611,0.00999984,1973,1261,24.649,-4.9503
756,-237,24.6469,4.67542,0.015698,-0.0120322,0.0103362,0.0191268,-0.015461,0.320301,0.0200066,0.0154515,1980,1261,24.6468,-4.6754
763,-237,24.7069,4.25708,0.0245992,-0.0182728,0.0139945,0.0287629,-0.0224365,0.289188,0.0296351,0.0302867,1987,1261,24.7069,-4.25703
770,-237,24.9753,3.6731,0.0364627,-0.0268588,0.0185552,0.0414994,-0.0318954,0.265055,0.0424953,0.0447333,1994,1261,24.9754,-3.67313
777,-237,25.1508,3.18933,0,0,0,0,0,0,0,-1,2001,1261,25.1507,-3.18929
784,-237,31.3258,4.6687,0,0,0,0,0,0,0,-1,2008,1261,31.3258,-4.66869
791,-237,32.3025,6.03235,0,0,0,0,0,0,0,-1,2015,1261,32.3025,-6.03229
798,-237,0,0,0,0,0,0,0,0,0,-1,2022,1261,0,0
805,-237,0,0,0,0,0,0,0,0,0,-1,2029,1261,0,0
812,-237,0,0,0,0,0,0,0,0,0,-1,2036,1261,0,0
-700,-244,0,0,0,0,0,0,0,0,0,-1,524,1268,0,0
-693,-244,0,0,0,0,0,0,0,0,0,-1,531,1268,0,0
-686,-244,0,0,0,0,0,0,0,0,0,-1,538,1268,0,0
-679,-244,0,0,0,0,0,0,0,0,0,-1,545,1268,0,0
-672,-244,-19.9556,2.48828,0,0,0,0,0,0,0,-1,552,1268,-19.9556,-2.48829
-665,-244,-13.947,-0.376465,0,0,0,0,0,0,0,-1,559,1268,-13.947,0.376477
-658,-244,-18.4211,-3.38977,0,0,0,0,0,0,0,-1,566,1268,-18.4211,3.38978
-651,-244,-14.8475,1.12,0,0,0,0,0,0,0,-1,573,1268,-14.8475,-1.12004
-644,-244,-14.7719,1.39807,0,0,0,0,0,0,0,-1,580,1268,-14.7719,-1.39804
-637,-244,-14.6786,1.65149,0.0119794,0.018017,0.0164695,0.0317421,-0.0017457,0.876039,0.0217666,0.0480435,587,1268,-14.6786,-1.65145
-630,-244,-14.5941,1.87952,0.0100912,0.0136777,0.012144,0.0241602,-0.000391241,0.858703,0.0162388,0.0425648,594,1268,-14.594,-1.8795
-623,-244,-14.4767,2.11804,0.00852883,0.00989561,0.00853446,0.017774,0.000650438,0.82535,0.0116386,0.0319495,601,1268,-14.4768,-2.11803
-616,-244,-14.4557,2.51794,0.00708321,0.00693329,0.00562444,0.0126332,0.00138331,0.778735,0.00800099,0.0164004,608,1268,-14.4557,-2.51798
-609,-244,-14.4295,2.79333,0.00463776,0.00471454,0.00300207,0.00767847,0.00167384,0.791792,0.00466229,0.0141191,615,1268,-14.4295,-2.79329
-602,-244,-14.4418,3.09534,0.00311603,0.00219163,0.00116657,0.00390862,0.00139903,0.596783,0.00228681,0.0143397,622,1268,-14.4418,-3.09536
-595,-244,-14.4786,3.40723,0.00281067,0.00054683,0.000770826,0.00304821,0.000309292,0.298926,0.00193729,0.0152566,629,1268,-14.4786,-3.40724
-588,-244,-14.4766,3.71167,0.00217713,0.000727793,0.00050448,0.00233544,0.000569487,0.304069,0.00140611,0.0193361,636,1268,-14.4766,-3.71172
-581,-244,-14.4745,4.00513,0.00241291,0.000879403,0.000436484,0.00252844,0.000763871,0.258755,0.00149742,0.0169342,643,1268,-14.4745,-4.0051
-574,-244,-14.4758,4.33142,0.00306978,0.000967114,0.000533377,0.00319734,0.000839553,0.234749,0.0019141,0.0128552,650,1268,-14.4758,-4.33142
-567,-244,-14.4673,4.65186,0.00304198,0.000379232,0.000965124,0.003355,6.62156e-05,0.313624,0.00221492,0.0104526,657,1268,-14.4674,-4.65187
-560,-244,-14.4233,4.98511,0.00225938,0.000117191,0.00172424,0.00321812,-0.000841549,0.507467,0.00247411,0.0234641,664,1268,-14.4233,-4.98512
-553,-244,-14.3291,5.35132,0,0,0,0,0,0,0,-1,671,1268,-14.3291,-5.35137
-546,-244,-11.2686,4.41772,0,0,0,0,0,0,0,-1,678,1268,-11.2686,-4.41767
-539,-244,-12.8706,0.3302,0,0,0,0,0,0,0,-1,685,1268,-12.8706,-0.330156
-532,-244,-18.1502,0.816528,0,0,0,0,0,0,0,-1,692,1268,-18.1502,-0.816514
-525,-244,-20.5566,0.767456,0,0,0,0,0,0,0,-1,699,1268,-20.5566,-0.76744
-518,-244,-20.612,0.881836,0,0,0,0,0,0,0,-1,706,1268,-20.612,-0.881841
-511,-244,-21.2242,1.01343,0,0,0,0,0,0,0,-1,713,1268,-21.2242,-1.01341
-504,-244,-21.3256,1.29834,-0.019466,0.00029899,0.0166117,0.00974553,-0.0289125,1.05373,0.0232157,0.0479702,720,1268,-21.3256,-1.29833
-497,-244,-21.4253,1.5647,-0.0221986,0.00140934,0.0196351,0.0125154,-0.0333047,1.05604,0.0273468,0.0465894,727,1268,-21.4253,-1.56464
-490,-244,0,0,0,0,0,0,0,0,0,-1,734,1268,0,0
-483,-244,0,0,0,0,0,0,0,0,0,-1,741,1268,0,0
-476,-244,0,0,0,0,0,0,0,0,0,-1,748,1268,0,0
-469,-244,0,0,0,0,0,0,0,0,0,-1,755,1268,0,0
-462,-244,0,0,0,0,0,0,0,0,0,-1,762,1268,0,0
-455,-244,0,0,0,0,0,0,0,0,0,-1,769,1268,0,0
-448,-244,0,0,0,0,0,0,0,0,0,-1,776,1268,0,0
-441,-244,0,0,0,0,0,0,0,0,0,-1,783,1268,0,0
-434,-244,0,0,0,0,0,0,0,0,0,-1,790,1268,0,0
-427,-244,0,0,0,0,0,0,0,0,0,-1,797,1268,0,0
-420,-244,0,0,0,0,0,0,0,0,0,-1,804,1268,0,0
-413,-244,0,0,0,0,0,0,0,0,0,-1,811,1268,0,0
-406,-244,0,0,0,0,0,0,0,0,0,-1,818,1268,0,0
-399,-244,0,0,0,0,0,0,0,0,0,-1,825,1268,0,0
-392,-244,0,0,0,0,0,0,0,0,0,-1,832,1268,0,0
-385,-244,0,0,0,0,0,0,0,0,0,-1,839,1268,0,0
-378,-244,0,0,0,0,0,0,0,0,0,-1,846,1268,0,0
-371,-244,0,0,0,0,0,0,0,0,0,-1,853,1268,0,0
-364,-244,0,0,0,0,0,0,0,0,0,-1,860,1268,0,0
-357,-244,0,0,0,0,0,0,0,0,0,-1,867,1268,0,0
-350,-244,0,0,0,0,0,0,0,0,0,-1,874,1268,0,0
-343,-244,0,0,0,0,0,0,0,0,0,-1,881,1268,0,0
-336,-244,0,0,0,0,0,0,0,0,0,-1,888,1268,0,0
-329,-244,0,0,0,0,0,0,0,0,0,-1,895,1268,0,0
-322,-244,0,0,0,0,0,0,0,0,0,-1,902,1268,0,0
-315,-244,0,0,0,0,0,0,0,0,0,-1,909,1268,0,0
-308,-244,0,0,0,0,0,0,0,0,0,-1,916,1268,0,0
-301,-244,0,0,0,0,0,0,0,0,0,-1,923,1268,0,0
-294,-244,0,0,0,0,0,0,0,0,0,-1,930,1268,0,0
-287,-244,0,0,0,0,0,0,0,0,0,-1,937,1268,0,0
-280,-244,0,0,0,0,0,0,0,0,0,-1,944,1268,0,0
-273,-244,0,0,0,0,0,0,0,0,0,-1,951,1268,0,0
-266,-244,0,0,0,0,0,0,0,0,0,-1,958,1268,0,0
-259,-244,0,0,0,0,0,0,0,0,0,-1,965,1268,0,0
-252,-244,0,0,0,0,0,0,0,0,0,-1,972,1268,0,0
-245,-244,0,0,0,0,0,0,0,0,0,-1,979,1268,0,0
-238,-244,0,0,0,0,0,0,0,0,0,-1,986,1268,0,0
-231,-244,0,0,0,0,0,0,0,0,0,-1,993,1268,0,0
-224,-244,0,0,0,0,0,0,0,0,0,-1,1000,1268,0,0
-217,-244,0,0,0,0,0,0,0,0,0,-1,1007,1268,0,0
-210,-244,0,0,0,0,0,0,0,0,0,-1,1014,1268,0,0
-203,-244,0,0,0,0,0,0,0,0,0,-1,1021,1268,0,0
-196,-244,0,0,0,0,0,0,0,0,0,-1,1028,1268,0,0
-189,-244,0,0,0,0,0,0,0,0,0,-1,1035,1268,0,0
-182,-244,0,0,0,0,0,0,0,0,0,-1,1042,1268,0,0
-175,-244,0,0,0,0,0,0,0,0,0,-1,1049,1268,0,0
-168,-244,0,0,0,0,0,0,0,0,0,-1,1056,1268,0,0
-161,-244,0,0,0,0,0,0,0,0,0,-1,1063,1268,0,0
-154,-244,0,0,0,0,0,0,0,0,0,-1,1070,1268,0,0
-147,-244,0,0,0,0,0,0,0,0,0,-1,1077,1268,0,0
-140,-244,0,0,0,0,0,0,0,0,0,-1,1084,1268,0,0
-133,-244,0,0,0,0,0,0,0,0,0,-1,1091,1268,0,0
-126,-244,0,0,0,0,0,0,0,0,0,-1,1098,1268,0,0
-119,-244,0,0,0,0,0,0,0,0,0,-1,1105,1268,0,0
-112,-244,0,0,0,0,0,0,0,0,0,-1,1112,1268,0,0
-105,-244,0,0,0,0,0,0,0,0,0,-1,1119,1268,0,0
-98,-244,0,0,0,0,0,0,0,0,0,-1,1126,1268,0,0
-91,-244,0,0,0,0,0,0,0,0,0,-1,1133,1268,0,0
-84,-244,0,0,0,0,0,0,0,0,0,-1,1140,1268,0,0
-77,-244,0,0,0,0,0,0,0,0,0,-1,1147,1268,0,0
-70,-244,0,0,0,0,0,0,0,0,0,-1,1154,1268,0,0
-63,-244,0,0,0,0,0,0,0,0,0,-1,1161,1268,0,0
-56,-244,0,0,0,0,0,0,0,0,0,-1,1168,1268,0,0
-49,-244,0,0,0,0,0,0,0,0,0,-1,1175,1268,0,0
-42,-244,0,0,0,0,0,0,0,0,0,-1,1182,1268,0,0
-35,-244,0,0,0,0,0,0,0,0,0,-1,1189,1268,0,0
-28,-244,0,0,0,0,0,0,0,0,0,-1,1196,1268,0,0
-21,-244,0,0,0,0,0,0,0,0,0,-1,1203,1268,0,0
-14,-244,0,0,0,0,0,0,0,0,0,-1,1210,1268,0,0
-7,-244,0,0,0,0,0,0,0,0,0,-1,1217,1268,0,0
0,-244,0,0,0,0,0,0,0,0,0,-1,1224,1268,0,0
7,-244,0,0,0,0,0,0,0,0,0,-1,1231,1268,0,0
14,-244,0,0,0,0,0,0,0,0,0,-1,1238,1268,0,0
21,-244,0,0,0,0,0,0,0,0,0,-1,1245,1268,0,0
28,-244,0,0,0,0,0,0,0,0,0,-1,1252,1268,0,0
35,-244,0,0,0,0,0,0,0,0,0,-1,1259,1268,0,0
42,-244,0,0,0,0,0,0,0,0,0,-1,1266,1268,0,0
49,-244,0,0,0,0,0,0,0,0,0,-1,1273,1268,0,0
56,-244,0,0,0,0,0,0,0,0,0,-1,1280,1268,0,0
63,-244,0,0,0,0,0,0,0,0,0,-1,1287,1268,0,0
70,-244,0,0,0,0,0,0,0,0,0,-1,1294,1268,0,0
77,-244,0,0,0,0,0,0,0,0,0,-1,1301,1268,0,0
84,-244,0,0,0,0,0,0,0,0,0,-1,1308,1268,0,0
91,-244,0,0,0,0,0,0,0,0,0,-1,1315,1268,0,0
98,-244,0,0,0,0,0,0,0,0,0,-1,1322,1268,0,0
105,-244,0,0,0,0,0,0,0,0,0,-1,1329,1268,0,0
112,-244,0,0,0,0,0,0,0,0,0,-1,1336,1268,0,0
119,-244,0,0,0,0,0,0,0,0,0,-1,1343,1268,0,0
126,-244,0,0,0,0,0,0,0,0,0,-1,1350,1268,0,0
133,-244,0,0,0,0,0,0,0,0,0,-1,1357,1268,0,0
140,-244,0,0,0,0,0,0,0,0,0,-1,1364,1268,0,0
147,-244,0,0,0,0,0,0,0,0,0,-1,1371,1268,0,0
154,-244,0,0,0,0,0,0,0,0,0,-1,1378,1268,0,0
161,-244,0,0,0,0,0,0,0,0,0,-1,1385,1268,0,0
168,-244,0,0,0,0,0,0,0,0,0,-1,1392,1268,0,0
175,-244,0,0,0,0,0,0,0,0,0,-1,1399,1268,0,0
182,-244,0,0,0,0,0,0,0,0,0,-1,1406,1268,0,0
189,-244,0,0,0,0,0,0,0,0,0,-1,1413,1268,0,0
196,-244,0,0,0,0,0,0,0,0,0,-1,1420,1268,0,0
203,-244,0,0,0,0,0,0,0,0,0,-1,1427,1268,0,0
210,-244,0,0,0,0,0,0,0,0,0,-1,1434,1268,0,0
217,-244,0,0,0,0,0,0,0,0,0,-1,1441,1268,0,0
224,-244,0,0,0,0,0,0,0,0,0,-1,1448,1268,0,0
231,-244,0,0,0,0,0,0,0,0,0,-1,1455,1268,0,0
238,-244,0,0,0,0,0,0,0,0,0,-1,1462,1268,0,0
245,-244,0,0,0,0,0,0,0,0,0,-1,1469,1268,0,0
252,-244,0,0,0,0,0,0,0,0,0,-1,1476,1268,0,0
259,-244,0,0,0,0,0,0,0,0,0,-1,1483,1268,0,0
266,-244,0,0,0,0,0,0,0,0,0,-1,1490,1268,0,0
273,-244,0,0,0,0,0,0,0,0,0,-1,1497,1268,0,0
280,-244,0,0,0,0,0,0,0,0,0,-1,1504,1268,0,0
287,-244,0,0,0,0,0,0,0,0,0,-1,1511,1268,0,0
294,-244,0,0,0,0,0,0,0,0,0,-1,1518,1268,0,0
301,-244,0,0,0,0,0,0,0,0,0,-1,1525,1268,0,0
308,-244,0,0,0,0,0,0,0,0,0,-1,1532,1268,0,0
315,-244,0,0,0,0,0,0,0,0,0,-1,1539,1268,0,0
322,-244,0,0,0,0,0,0,0,0,0,-1,1546,1268,0,0
329,-244,0,0,0,0,0,0,0,0,0,-1,1553,1268,0,0
336,-244,0,0,0,0,0,0,0,0,0,-1,1560,1268,0,0
343,-244,0,0,0,0,0,0,0,0,0,-1,1567,1268,0,0
350,-244,0,0,0,0,0,0,0,0,0,-1,1574,1268,0,0
357,-244,0,0,0,0,0,0,0,0,0,-1,1581,1268,0,0
364,-244,0,0,0,0,0,0,0,0,0,-1,1588,1268,0,0
371,-244,0,0,0,0,0,0,0,0,0,-1,1595,1268,0,0
378,-244,0,0,0,0,0,0,0,0,0,-1,1602,1268,0,0
385,-244,0,0,0,0,0,0,0,0,0,-1,1609,1268,0,0
392,-244,0,0,0,0,0,0,0,0,0,-1,1616,1268,0,0
399,-244,0,0,0,0,0,0,0,0,0,-1,1623,1268,0,0
406,-244,0,0,0,0,0,0,0,0,0,-1,1630,1268,0,0
413,-244,0,0,0,0,0,0,0,0,0,-1,1637,1268,0,0
420,-244,0,0,0,0,0,0,0,0,0,-1,1644,1268,0,0
427,-244,0,0,0,0,0,0,0,0,0,-1,1651,1268,0,0
434,-244,0,0,0,0,0,0,0,0,0,-1,1658,1268,0,0
441,-244,0,0,0,0,0,0,0,0,0,-1,1665,1268,0,0
448,-244,0,0,0,0,0,0,0,0,0,-1,1672,1268,0,0
455,-244,0,0,0,0,0,0,0,0,0,-1,1679,1268,0,0
462,-244,0,0,0,0,0,0,0,0,0,-1,1686,1268,0,0
469,-244,0,0,0,0,0,0,0,0,0,-1,1693,1268,0,0
476,-244,0,0,0,0,0,0,0,0,0,-1,1700,1268,0,0
483,-244,0,0,0,0,0,0,0,0,0,-1,1707,1268,0,0
490,-244,0,0,0,0,0,0,0,0,0,-1,1714,1268,0,0
497,-244,0,0,0,0,0,0,0,0,0,-1,1721,1268,0,0
504,-244,0,0,0,0,0,0,0,0,0,-1,1728,1268,0,0
511,-244,0,0,0,0,0,0,0,0,0,-1,1735,1268,0,0
518,-244,0,0,0,0,0,0,0,0,0,-1,1742,1268,0,0
525,-244,0,0,0,0,0,0,0,0,0,-1,1749,1268,0,0
532,-244,0,0,0,0,0,0,0,0,0,-1,1756,1268,0,0
539,-244,0,0,0,0,0,0,0,0,0,-1,1763,1268,0,0
546,-244,0,0,0,0,0,0,0,0,0,-1,1770,1268,0,0
553,-244,0,0,0,0,0,0,0,0,0,-1,1777,1268,0,0
560,-244,0,0,0,0,0,0,0,0,0,-1,1784,1268,0,0
567,-244,0,0,0,0,0,0,0,0,0,-1,1791,1268,0,0
574,-244,0,0,0,0,0,0,0,0,0,-1,1798,1268,0,0
581,-244,0,0,0,0,0,0,0,0,0,-1,1805,1268,0,0
588,-244,0,0,0,0,0,0,0,0,0,-1,1812,1268,0,0
595,-244,0,0,0,0,0,0,0,0,0,-1,1819,1268,0,0
602,-244,0,0,0,0,0,0,0,0,0,-1,1826,1268,0,0
609,-244,0,0,0,0,0,0,0,0,0,-1,1833,1268,0,0
616,-244,30.7264,2.90588,0.0133513,0.00438529,-0.00922007,0.0191205,-0.00138388,-0.559116,0.0132324,0.0337126,1840,1268,30.7264,-2.90591
623,-244,30.7504,2.96509,0.00196647,0.00232046,-0.00375882,0.00590645,-0.00161952,-0.808925,0.00457406,0.0267783,1847,1268,30.7504,-2.96512
630,-244,30.7931,3.01611,-0.00771348,0.00160079,0.00196438,0.00199813,-0.00811082,1.37122,0.00618185,0.0244894,1854,1268,30.7931,-3.01614
637,-244,30.7518,2.99463,-0.0140619,0.001654,0.00646299,0.00397042,-0.0163783,1.22665,0.0124551,0.0394895,1861,1268,30.7518,-2.99468
644,-244,30.6625,2.96558,-0.0158114,0.0018839,0.00858862,0.00536691,-0.0192945,1.18553,0.014976,0.0466701,1868,1268,30.6624,-2.96557
651,-244,30.5664,2.98828,-0.0151745,0.00200776,0.00913934,0.00595995,-0.0191267,1.16264,0.0151342,0.0478429,1875,1268,30.5664,-2.98823
658,-244,30.9084,2.57434,0,0,0,0,0,0,0,-1,1882,1268,30.9085,-2.57429
665,-244,29.0326,1.53735,0,0,0,0,0,0,0,-1,1889,1268,29.0325,-1.53733
672,-244,26.2083,4.599,0,0,0,0,0,0,0,-1,1896,1268,26.2082,-4.599
679,-244,24.5315,7.48303,0,0,0,0,0,0,0,-1,1903,1268,24.5315,-7.48302
686,-244,24.5259,7.41675,-0.00643521,0.00198655,0.0068935,0.00585354,-0.0103022,1.05958,0.00944465,0.0410768,1910,1268,24.5259,-7.41681
693,-244,24.408,7.11096,-0.00372542,0.00190179,0.00569544,0.00544069,-0.00726433,1.01482,0.00736039,0.0167376,1917,1268,24.4079,-7.11101
700,-244,24.4192,6.78943,-0.00113311,0.00135383,0.00427091,0.00455861,-0.00433788,0.927057,0.00513691,0.0088262,1924,1268,24.4192,-6.78941
707,-244,24.4279,6.51733,0.001199,0.00105214,0.00247035,0.00359701,-0.00134587,0.77054,0.00295078,0.0103384,1931,1268,24.4278,-6.51731
714,-244,24.4314,6.25464,0.00133116,-0.000220694,0.00109055,0.00189366,-0.000783186,0.476197,0.00158919,0.0117322,1938,1268,24.4314,-6.25464
721,-244,24.3811,6.00671,0.0003216,-0.000302314,0.00111675,0.00116915,-0.00114986,0.649199,0.0013389,0.0137657,1945,1268,24.3811,-6.00672
728,-244,24.382,5.69666,0.000563438,-0.00107947,0.00195388,0.00186152,-0.00237756,0.586405,0.00245347,0.0184605,1952,1268,24.382,-5.69661
735,-244,24.3787,5.38806,0.00299669,-0.00298157,0.00378374,0.00482954,-0.00481443,0.451093,0.00556795,0.0237391,1959,1268,24.3787,-5.38802
742,-244,24.3628,5.20227,0.00607682,-0.00529412,0.00567674,0.00842565,-0.00764295,0.392315,0.00928088,0.0166646,1966,1268,24.3628,-5.20231
749,-244,24.2676,5.03577,0.0106571,-0.00860082,0.008068,0.0135904,-0.0115341,0.34871,0.0145218,0.0226033,1973,1268,24.2676,-5.03578
756,-244,24.1637,4.78235,0.0176731,-0.0133777,0.0113914,0.0214039,-0.0171085,0.316503,0.0222812,0.0296323,1980,1268,24.1637,-4.78233
763,-244,24.1871,4.43616,0.0276575,-0.0202107,0.0157526,0.0323762,-0.0249294,0.291047,0.0331784,0.0406525,1987,1268,24.1871,-4.43614
770,-244,24.2737,4.03784,0,0,0,0,0,0,0,-1,1994,1268,24.2737,-4.0379
777,-244,31.1472,3.78552,0.0580674,-0.0416532,0.0280486,0.0654153,-0.0490011,0.256212,0.0662845,0.0459064,2001,1268,31.1472,-3.78555
784,-244,31.7908,5.20081,0.0789451,-0.0569419,0.0359181,0.0878549,-0.0658518,0.243151,0.0890452,0.0468009,2008,1268,31.7907,-5.20083
791,-244,0,0,0,0,0,0,0,0,0,-1,2015,1268,0,0
798,-244,0,0,0,0,0,0,0,0,0,-1,2022,1268,0,0
805,-244,0,0,0,0,0,0,0,0,0,-1,2029,1268,0,0
812,-244,0,0,0,0,0,0,0,0,0,-1,2036,1268,0,0
-700,-251,0,0,0,0,0,0,0,0,0,-1,524,1275,0,0
-693,-251,0,0,0,0,0,0,0,0,0,-1,531,1275,0,0
-686,-251,0,0,0,0,0,0,0,0,0,-1,538,1275,0,0
-679,-251,0,0,0,0,0,0,0,0,0,-1,545,1275,0,0
-672,-251,0,0,0,0,0,0,0,0,0,-1,552,1275,0,0
-665,-251,-14.3265,-0.378296,0.0319877,0.0339067,0.0447899,0.0777474,-0.011853,0.796108,0.0562008,0.0453313,559,1275,-14.3266,0.3783
-658,-251,-13.4864,0.0413818,0.0304344,0.0291371,0.0368613,0.0666528,-0.00708129,0.776601,0.0469739,0.0470117,566,1275,-13.4864,-0.041405
-651,-251,-12.6965,0.686157,0,0,0,0,0,0,0,-1,573,1275,-12.6965,-0.686137
-644,-251,-14.6237,1.23108,0,0,0,0,0,0,0,-1,580,1275,-14.6237,-1.23112
-637,-251,-14.5704,1.5426,0.0210315,0.0147324,0.0183753,0.0365252,-0.000761323,0.700522,0.0246079,0.0450405,587,1275,-14.5704,-1.54264
-630,-251,-14.2968,1.86731,0.0171183,0.0110028,0.013769,0.028165,-4.38755e-05,0.676135,0.0187913,0.0450626,594,1275,-14.2968,-1.86731
-623,-251,-14.2393,2.01135,0,0,0,0,0,0,0,-1,601,1275,-14.2393,-2.01134
-616,-251,-14.0962,2.48706,0.010587,0.00541123,0.00678411,0.01526,0.000738162,0.603186,0.00993645,0.0203802,608,1275,-14.0962,-2.48712
-609,-251,-14.1364,2.7865,0.00683781,0.00375074,0.00388988,0.00947921,0.00110934,0.596522,0.00598406,0.0193975,615,1275,-14.1364,-2.7865
-602,-251,-14.1539,3.0968,0.00427995,0.00166984,0.0017739,0.00517714,0.000772655,0.468255,0.00322488,0.0146338,622,1275,-14.1539,-3.09675
-595,-251,-14.138,3.39758,0.00342909,0.000261005,0.00119249,0.00382778,-0.000137685,0.32265,0.00259896,0.012695,629,1275,-14.138,-3.39757
-588,-251,-14.1485,3.69739,0.00234586,0.000594839,0.000829618,0.00267649,0.000264205,0.379245,0.00170311,0.0136886,636,1275,-14.1485,-3.69739
-581,-251,-14.1548,4.03186,0.00242936,0.000787551,0.000758036,0.00272582,0.000491092,0.372801,0.00167765,0.012807,643,1275,-14.1548,-4.03189
-574,-251,-14.1459,4.36914,0.00313054,0.000868885,0.000882115,0.0034339,0.000565524,0.331232,0.00212598,0.0122488,650,1275,-14.1459,-4.36917
-567,-251,-14.1544,4.66699,0.0031332,0.000418001,0.001192,0.00358224,-3.10389e-05,0.360269,0.00239857,0.0108219,657,1275,-14.1544,-4.66693
-560,-251,-14.1219,5.00244,0.00226891,0.00022401,0.00176972,0.00329031,-0.000797384,0.52345,0.00250205,0.0206463,664,1275,-14.1219,-5.00246
-553,-251,-14.0047,5.34497,0,0,0,0,0,0,0,-1,671,1275,-14.0047,-5.34494
-546,-251,-12.995,4.5675,0,0,0,0,0,0,0,-1,678,1275,-12.995,-4.56745
-539,-251,-10.7916,0.366333,0,0,0,0,0,0,0,-1,685,1275,-10.7916,-0.366282
-532,-251,-10.7391,-0.00769043,0,0,0,0,0,0,0,-1,692,1275,-10.7391,0.00773227
-525,-251,-20.4247,1.44751,0,0,0,0,0,0,0,-1,699,1275,-20.4247,-1.44751
-518,-251,-20.4313,1.1864,0,0,0,0,0,0,0,-1,706,1275,-20.4313,-1.18636
-511,-251,-20.4379,0.925171,0,0,0,0,0,0,0,-1,713,1275,-20.4379,-0.925206
-504,-251,-21.2472,1.05859,0,0,0,0,0,0,0,-1,720,1275,-21.2472,-1.05854
-497,-251,-21.3268,1.30432,0,0,0,0,0,0,0,-1,727,1275,-21.3268,-1.30436
-490,-251,0,0,0,0,0,0,0,0,0,-1,734,1275,0,0
-483,-251,0,0,0,0,0,0,0,0,0,-1,741,1275,0,0
-476,-251,0,0,0,0,0,0,0,0,0,-1,748,1275,0,0
-469,-251,0,0,0,0,0,0,0,0,0,-1,755,1275,0,0
-462,-251,0,0,0,0,0,0,0,0,0,-1,762,1275,0,0
-455,-251,0,0,0,0,0,0,0,0,0,-1,769,1275,0,0
-448,-251,0,0,0,0,0,0,0,0,0,-1,776,1275,0,0
-441,-251,0,0,0,0,0,0,0,0,0,-1,783,1275,0,0
-434,-251,0,0,0,0,0,0,0,0,0,-1,790,1275,0,0
-427,-251,0,0,0,0,0,0,0,0,0,-1,797,1275,0,0
-420,-251,0,0,0,0,0,0,0,0,0,-1,804,1275,0,0
-413,-251,0,0,0,0,0,0,0,0,0,-1,811,1275,0,0
-406,-251,0,0,0,0,0,0,0,0,0,-1,818,1275,0,0
-399,-251,0,0,0,0,0,0,0,0,0,-1,825,1275,0,0
-392,-251,0,0,0,0,0,0,0,0,0,-1,832,1275,0,0
-385,-251,0,0,0,0,0,0,0,0,0,-1,839,1275,0,0
-378,-251,0,0,0,0,0,0,0,0,0,-1,846,1275,0,0
-371,-251,0,0,0,0,0,0,0,0,0,-1,853,1275,0,0
-364,-251,0,0,0,0,0,0,0,0,0,-1,860,1275,0,0
-357,-251,0,0,0,0,0,0,0,0,0,-1,867,1275,0,0
-350,-251,0,0,0,0,0,0,0,0,0,-1,874,1275,0,0
-343,-251,0,0,0,0,0,0,0,0,0,-1,881,1275,0,0
-336,-251,0,0,0,0,0,0,0,0,0,-1,888,1275,0,0
-329,-251,0,0,0,0,0,0,0,0,0,-1,895,1275,0,0
-322,-251,0,0,0,0,0,0,0,0,0,-1,902,1275,0,0
-315,-251,0,0,0,0,0,0,0,0,0,-1,909,1275,0,0
-308,-251,0,0,0,0,0,0,0,0,0,-1,916,1275,0,0
-301,-251,0,0,0,0,0,0,0,0,0,-1,923,1275,0,0
-294,-251,0,0,0,0,0,0,0,0,0,-1,930,1275,0,0
-287,-251,0,0,0,0,0,0,0,0,0,-1,937,1275,0,0
-280,-251,0,0,0,0,0,0,0,0,0,-1,944,1275,0,0
-273,-251,0,0,0,0,0,0,0,0,0,-1,951,1275,0,0
-266,-251,0,0,0,0,0,0,0,0,0,-1,958,1275,0,0
-259,-251,0,0,0,0,0,0,0,0,0,-1,965,1275,0,0
-252,-251,0,0,0,0,0,0,0,0,0,-1,972,1275,0,0
-245,-251,0,0,0,0,0,0,0,0,0,-1,979,1275,0,0
-238,-251,0,0,0,0,0,0,0,0,0,-1,986,1275,0,0
-231,-251,0,0,0,0,0,0,0,0,0,-1,993,1275,0,0
-224,-251,0,0,0,0,0,0,0,0,0,-1,1000,1275,0,0
-217,-251,0,0,0,0,0,0,0,0,0,-1,1007,1275,0,0
-210,-251,0,0,0,0,0,0,0,0,0,-1,1014,1275,0,0
-203,-251,0,0,0,0,0,0,0,0,0,-1,1021,1275,0,0
-196,-251,0,0,0,0,0,0,0,0,0,-1,1028,1275,0,0
-189,-251,0,0,0,0,0,0,0,0,0,-1,1035,1275,0,0
-182,-251,0,0,0,0,0,0,0,0,0,-1,1042,1275,0,0
-175,-251,0,0,0,0,0,0,0,0,0,-1,1049,1275,0,0
-168,-251,0,0,0,0,0,0,0,0,0,-1,1056,1275,0,0
-161,-251,0,0,0,0,0,0,0,0,0,-1,1063,1275,0,0
-154,-251,0,0,0,0,0,0,0,0,0,-1,1070,1275,0,0
-147,-251,0,0,0,0,0,0,0,0,0,-1,1077,1275,0,0
-140,-251,0,0,0,0,0,0,0,0,0,-1,1084,1275,0,0
-133,-251,0,0,0,0,0,0,0,0,0,-1,1091,1275,0,0
-126,-251,0,0,0,0,0,0,0,0,0,-1,1098,1275,0,0
-119,-251,0,0,0,0,0,0,0,0,0,-1,1105,1275,0,0
-112,-251,0,0,0,0,0,0,0,0,0,-1,1112,1275,0,0
-105,-251,0,0,0,0,0,0,0,0,0,-1,1119,1275,0,0
-98,-251,0,0,0,0,0,0,0,0,0,-1,1126,1275,0,0
-91,-251,0,0,0,0,0,0,0,0,0,-1,1133,1275,0,0
-84,-251,0,0,0,0,0,0,0,0,0,-1,1140,1275,0,0
-77,-251,0,0,0,0,0,0,0,0,0,-1,1147,1275,0,0
-70,-251,0,0,0,0,0,0,0,0,0,-1,1154,1275,0,0
-63,-251,0,0,0,0,0,0,0,0,0,-1,1161,1275,0,0
-56,-251,0,0,0,0,0,0,0,0,0,-1,1168,1275,0,0
-49,-251,0,0,0,0,0,0,0,0,0,-1,1175,1275,0,0
-42,-251,0,0,0,0,0,0,0,0,0,-1,1182,1275,0,0
-35,-251,0,0,0,0,0,0,0,0,0,-1,1189,1275,0,0
-28,-251,0,0,0,0,0,0,0,0,0,-1,1196,1275,0,0
-21,-251,0,0,0,0,0,0,0,0,0,-1,1203,1275,0,0
-14,-251,0,0,0,0,0,0,0,0,0,-1,1210,1275,0,0
-7,-251,0,0,0,0,0,0,0,0,0,-1,1217,1275,0,0
0,-251,0,0,0,0,0,0,0,0,0,-1,1224,1275,0,0
7,-251,0,0,0,0,0,0,0,0,0,-1,1231,1275,0,0
14,-251,0,0,0,0,0,0,0,0,0,-1,1238,1275,0,0
21,-251,0,0,0,0,0,0,0,0,0,-1,1245,1275,0,0
28,-251,0,0,0,0,0,0,0,0,0,-1,1252,1275,0,0
35,-251,0,0,0,0,0,0,0,0,0,-1,1259,1275,0,0
42,-251,0,0,0,0,0,0,0,0,0,-1,1266,1275,0,0
49,-251,0,0,0,0,0,0,0,0,0,-1,1273,1275,0,0
56,-251,0,0,0,0,0,0,0,0,0,-1,1280,1275,0,0
63,-251,0,0,0,0,0,0,0,0,0,-1,1287,1275,0,0
70,-251,0,0,0,0,0,0,0,0,0,-1,1294,1275,0,0
77,-251,0,0,0,0,0,0,0,0,0,-1,1301,1275,0,0
84,-251,0,0,0,0,0,0,0,0,0,-1,1308,1275,0,0
91,-251,0,0,0,0,0,0,0,0,0,-1,1315,1275,0,0
98,-251,0,0,0,0,0,0,0,0,0,-1,1322,1275,0,0
105,-251,0,0,0,0,0,0,0,0,0,-1,1329,1275,0,0
112,-251,0,0,0,0,0,0,0,0,0,-1,1336,1275,0,0
119,-251,0,0,0,0,0,0,0,0,0,-1,1343,1275,0,0
126,-251,0,0,0,0,0,0,0,0,0,-1,1350,1275,0,0
133,-251,0,0,0,0,0,0,0,0,0,-1,1357,1275,0,0
140,-251,0,0,0,0,0,0,0,0,0,-1,1364,1275,0,0
147,-251,0,0,0,0,0,0,0,0,0,-1,1371,1275,0,0
154,-251,0,0,0,0,0,0,0,0,0,-1,1378,1275,0,0
161,-251,0,0,0,0,0,0,0,0,0,-1,1385,1275,0,0
168,-251,0,0,0,0,0,0,0,0,0,-1,1392,1275,0,0
175,-251,0,0,0,0,0,0,0,0,0,-1,1399,1275,0,0
182,-251,0,0,0,0,0,0,0,0,0,-1,1406,1275,0,0
189,-251,0,0,0,0,0,0,0,0,0,-1,1413,1275,0,0
196,-251,0,0,0,0,0,0,0,0,0,-1,1420,1275,0,0
203,-251,0,0,0,0,0,0,0,0,0,-1,1427,1275,0,0
210,-251,0,0,0,0,0,0,0,0,0,-1,1434,1275,0,0
217,-251,0,0,0,0,0,0,0,0,0,-1,1441,1275,0,0
224,-251,0,0,0,0,0,0,0,0,0,-1,1448,1275,0,0
231,-251,0,0,0,0,0,0,0,0,0,-1,1455,1275,0,0
238,-251,0,0,0,0,0,0,0,0,0,-1,1462,1275,0,0
245,-251,0,0,0,0,0,0,0,0,0,-1,1469,1275,0,0
252,-251,0,0,0,0,0,0,0,0,0,-1,1476,1275,0,0
259,-251,0,0,0,0,0,0,0,0,0,-1,1483,1275,0,0
266,-251,0,0,0,0,0,0,0,0,0,-1,1490,1275,0,0
273,-251,0,0,0,0,0,0,0,0,0,-1,1497,1275,0,0
280,-251,0,0,0,0,0,0,0,0,0,-1,1504,1275,0,0
287,-251,0,0,0,0,0,0,0,0,0,-1,1511,1275,0,0
294,-251,0,0,0,0,0,0,0,0,0,-1,1518,1275,0,0
301,-251,0,0,0,0,0,0,0,0,0,-1,1525,1275,0,0
308,-251,0,0,0,0,0,0,0,0,0,-1,1532,1275,0,0
315,-251,0,0,0,0,0,0,0,0,0,-1,1539,1275,0,0
322,-251,0,0,0,0,0,0,0,0,0,-1,1546,1275,0,0
329,-251,0,0,0,0,0,0,0,0,0,-1,1553,1275,0,0
336,-251,0,0,0,0,0,0,0,0,0,-1,1560,1275,0,0
343,-251,0,0,0,0,0,0,0,0,0,-1,1567,1275,0,0
350,-251,0,0,0,0,0,0,0,0,0,-1,1574,1275,0,0
357,-251,0,0,0,0,0,0,0,0,0,-1,1581,1275,0,0
364,-251,0,0,0,0,0,0,0,0,0,-1,1588,1275,0,0
371,-251,0,0,0,0,0,0,0,0,0,-1,1595,1275,0,0
378,-251,0,0,0,0,0,0,0,0,0,-1,1602,1275,0,0
385,-251,0,0,0,0,0,0,0,0,0,-1,1609,1275,0,0
392,-251,0,0,0,0,0,0,0,0,0,-1,1616,1275,0,0
399,-251,0,0,0,0,0,0,0,0,0,-1,1623,1275,0,0
406,-251,0,0,0,0,0,0,0,0,0,-1,1630,1275,0,0
413,-251,0,0,0,0,0,0,0,0,0,-1,1637,1275,0,0
420,-251,0,0,0,0,0,0,0,0,0,-1,1644,1275,0,0
427,-251,0,0,0,0,0,0,0,0,0,-1,1651,1275,0,0
434,-251,0,0,0,0,0,0,0,0,0,-1,1658,1275,0,0
441,-251,0,0,0,0,0,0,0,0,0,-1,1665,1275,0,0
448,-251,0,0,0,0,0,0,0,0,0,-1,1672,1275,0,0
455,-251,0,0,0,0,0,0,0,0,0,-1,1679,1275,0,0
462,-251,0,0,0,0,0,0,0,0,0,-1,1686,1275,0,0
469,-251,0,0,0,0,0,0,0,0,0,-1,1693,1275,0,0
476,-251,0,0,0,0,0,0,0,0,0,-1,1700,1275,0,0
483,-251,0,0,0,0,0,0,0,0,0,-1,1707,1275,0,0
490,-251,0,0,0,0,0,0,0,0,0,-1,1714,1275,0,0
497,-251,0,0,0,0,0,0,0,0,0,-1,1721,1275,0,0
504,-251,0,0,0,0,0,0,0,0,0,-1,1728,1275,0,0
511,-251,0,0,0,0,0,0,0,0,0,-1,1735,1275,0,0
518,-251,0,0,0,0,0,0,0,0,0,-1,1742,1275,0,0
525,-251,0,0,0,0,0,0,0,0,0,-1,1749,1275,0,0
532,-251,0,0,0,0,0,0,0,0,0,-1,1756,1275,0,0
539,-251,0,0,0,0,0,0,0,0,0,-1,1763,1275,0,0
546,-251,0,0,0,0,0,0,0,0,0,-1,1770,1275,0,0
553,-251,0,0,0,0,0,0,0,0,0,-1,1777,1275,0,0
560,-251,0,0,0,0,0,0,0,0,0,-1,1784,1275,0,0
567,-251,0,0,0,0,0,0,0,0,0,-1,1791,1275,0,0
574,-251,0,0,0,0,0,0,0,0,0,-1,1798,1275,0,0
581,-251,0,0,0,0,0,0,0,0,0,-1,1805,1275,0,0
588,-251,0,0,0,0,0,0,0,0,0,-1,1812,1275,0,0
595,-251,0,0,0,0,0,0,0,0,0,-1,1819,1275,0,0
602,-251,0,0,0,0,0,0,0,0,0,-1,1826,1275,0,0
609,-251,30.755,2.97339,0.0238785,0.00875847,-0.0136082,0.0318856,0.000751303,-0.531852,0.0210111,0.030489,1833,1275,30.755,-2.97336
616,-251,30.7396,2.96008,0.0108669,0.00490659,-0.0087008,0.0170837,-0.0013103,-0.620403,0.0118501,0.0260039,1840,1275,30.7397,-2.9601
623,-251,30.7386,3.00085,-0.00195538,0.00205202,-0.00298955,0.00364724,-0.0035506,-1.08063,0.0041558,0.0224883,1847,1275,30.7386,-3.00083
630,-251,30.8286,3.05444,-0.0127711,0.000808482,0.00280356,0.00136452,-0.0133272,1.375,0.00937278,0.0339269,1854,1275,30.8287,-3.05447
637,-251,30.943,3.1073,-0.0187886,0.00070145,0.00687185,0.00288068,-0.0209678,1.2637,0.0150311,0.0401211,1861,1275,30.943,-3.10729
644,-251,30.7439,2.94824,-0.0201422,0.000961516,0.00873008,0.00410477,-0.0232854,1.2252,0.0170573,0.0465302,1868,1275,30.7438,-2.94827
651,-251,30.4664,3.35095,-0.0192942,0.00118194,0.00925826,0.00474726,-0.0228595,1.2032,0.0170439,0.0473201,1875,1275,30.4665,-3.351
658,-251,29.7524,4.00208,-0.0176083,0.00124322,0.00924303,0.00501893,-0.021384,1.18299,0.0161904,0.0494165,1882,1275,29.7525,-4.00202
665,-251,29.187,4.62878,0,0,0,0,0,0,0,-1,1889,1275,29.1871,-4.62875
672,-251,26.0721,4.53064,0,0,0,0,0,0,0,-1,1896,1275,26.0721,-4.53063
679,-251,24.0206,7.5238,0,0,0,0,0,0,0,-1,1903,1275,24.0206,-7.52378
686,-251,24.1046,7.35632,-0.00950733,0.002167,0.007496,0.00583049,-0.0131708,1.11621,0.01124,0.0380142,1910,1275,24.1046,-7.35631
693,-251,24.1672,7.10083,-0.00619752,0.00211764,0.00607253,0.00531948,-0.00939937,1.08557,0.00860606,0.0103895,1917,1275,24.1672,-7.1008
700,-251,24.1627,6.81616,-0.00288622,0.00152422,0.00441311,0.00425241,-0.00561441,1.0171,0.00571467,0.00860035,1924,1275,24.1627,-6.81613
707,-251,24.1703,6.52124,6.45858e-05,0.00115391,0.00245198,0.003121,-0.0019025,0.894689,0.00292862,0.0112493,1931,1275,24.1703,-6.5212
714,-251,24.1724,6.25964,0.000501509,-0.000217607,0.00105149,0.00125321,-0.000969312,0.620655,0.00128666,0.0119897,1938,1275,24.1724,-6.25967
721,-251,24.1089,6.00183,-0.000198687,-0.000331162,0.00109803,0.0008351,-0.00136495,0.755273,0.00128242,0.0138271,1945,1275,24.1089,-6.00187
728,-251,24.0693,5.70349,0.000438996,-0.00130091,0.00209053,0.00183336,-0.00269528,0.588226,0.00263034,0.0162562,1952,1275,24.0693,-5.70349
735,-251,24.1008,5.4115,0.00313512,-0.00344386,0.00404918,0.00506259,-0.00537132,0.444275,0.0060249,0.0158218,1959,1275,24.1008,-5.41147
742,-251,24.063,5.25256,0.00639202,-0.00590828,0.00608116,0.00889085,-0.0084071,0.389879,0.00998828,0.0189473,1966,1275,24.063,-5.25255
749,-251,23.8243,5.19238,0.011417,-0.00949918,0.00876002,0.0146011,-0.0126833,0.348634,0.0157656,0.0351708,1973,1275,23.8243,-5.19237
756,-251,23.5717,4.88611,0.0191942,-0.0147463,0.01253,0.0233188,-0.0188709,0.318002,0.0244033,0.0466985,1980,1275,23.5717,-4.88612
763,-251,23.3641,4.68103,0.0303187,-0.0222047,0.0175627,0.0356501,-0.0275361,0.294724,0.0365807,0.0459226,1987,1275,23.3642,-4.68108
770,-251,23.4398,4.5769,0,0,0,0,0,0,0,-1,1994,1275,23.4399,-4.57688
777,-251,31.5731,4.33252,0.0644972,-0.0454295,0.0321973,0.0732334,-0.0541657,0.264955,0.073828,0.0445345,2001,1275,31.5731,-4.33251
784,-251,32.0776,5.78247,0.0882318,-0.0618537,0.0419054,0.0991395,-0.0727614,0.254642,0.0996358,0.0464691,2008,1275,32.0776,-5.78247
791,-251,0,0,0,0,0,0,0,0,0,-1,2015,1275,0,0
798,-251,0,0,0,0,0,0,0,0,0,-1,2022,1275,0,0
805,-251,0,0,0,0,0,0,0,0,0,-1,2029,1275,0,0
812,-251,0,0,0,0,0,0,0,0,0,-1,2036,1275,0,0
-700,-258,0,0,0,0,0,0,0,0,0,-1,524,1282,0,0
-693,-258,0,0,0,0,0,0,0,0,0,-1,531,1282,0,0
-686,-258,0,0,0,0,0,0,0,0,0,-1,538,1282,0,0
-679,-258,0,0,0,0,0,0,0,0,0,-1,545,1282,0,0
-672,-258,0,0,0,0,0,0,0,0,0,-1,552,1282,0,0
-665,-258,-14.7766,-0.294189,0.0487501,0.0295557,0.0492358,0.0893153,-0.0110096,0.689144,0.0635322,0.0441864,559,1282,-14.7765,0.294137
-658,-258,-13.8593,0.102905,0.044174,0.0241428,0.0402309,0.0756173,-0.00730053,0.663402,0.0530129,0.0483765,566,1282,-13.8593,-0.102863
-651,-258,-12.9459,0.46521,0,0,0,0,0,0,0,-1,573,1282,-12.9459,-0.46517
-644,-258,-14.7538,1.28247,0,0,0,0,0,0,0,-1,580,1282,-14.7539,-1.28247
-637,-258,-14.2369,1.77332,0,0,0,0,0,0,0,-1,587,1282,-14.2369,-1.77333
-630,-258,-13.8433,1.96826,0,0,0,0,0,0,0,-1,594,1282,-13.8433,-1.96823
-623,-258,-13.7368,2.11804,0.018135,0.00521371,0.0113972,0.0247754,-0.00142668,0.527551,0.0170124,0.0486673,601,1282,-13.7367,-2.11809
-616,-258,-13.7872,2.45764,0.0136667,0.00359615,0.00803549,0.0181142,-0.000851347,0.505512,0.0123697,0.0331442,608,1282,-13.7872,-2.45768
-609,-258,-13.8034,2.77783,0.00875741,0.00260604,0.00488004,0.0114501,-8.66889e-05,0.504212,0.00766249,0.0172333,615,1282,-13.8034,-2.77782
-602,-258,-13.8201,3.09265,0.00519678,0.00108154,0.00248884,0.00636842,-9.00936e-05,0.439981,0.00427596,0.0144941,622,1282,-13.8201,-3.0926
-595,-258,-13.8143,3.39722,0.00380748,7.01154e-05,0.00164299,0.00442705,-0.000549453,0.360609,0.00315053,0.0114765,629,1282,-13.8143,-3.39719
-588,-258,-13.8226,3.71045,0.00227337,0.000640615,0.00109432,0.00282228,9.17049e-05,0.464926,0.00185171,0.0118218,636,1282,-13.8226,-3.71042
-581,-258,-13.8448,4.02454,0.00216598,0.000907518,0.000947798,0.0026744,0.000399098,0.492359,0.00166592,0.014559,643,1282,-13.8448,-4.02456
-574,-258,-13.8212,4.35779,0.00294714,0.000941859,0.00106735,0.00340892,0.000480077,0.408326,0.00213069,0.0151914,650,1282,-13.8212,-4.35781
-567,-258,-13.83,4.66614,0.00311592,0.000565334,0.00127525,0.00364413,3.71221e-05,0.392691,0.00241714,0.0137792,657,1282,-13.83,-4.6661
-560,-258,-13.8169,4.98511,0.00238477,0.000329604,0.00169514,0.00333946,-0.00062509,0.512917,0.00246127,0.025521,664,1282,-13.8169,-4.98509
-553,-258,-13.7476,5.28308,0,0,0,0,0,0,0,-1,671,1282,-13.7476,-5.28308
-546,-258,-14.0159,5.95093,0,0,0,0,0,0,0,-1,678,1282,-14.0159,-5.95098
-539,-258,-10.2228,4.05823,0,0,0,0,0,0,0,-1,685,1282,-10.2228,-4.05823
-532,-258,-10.2173,-0.353882,0,0,0,0,0,0,0,-1,692,1282,-10.2173,0.353836
-525,-258,-18.6293,0.796143,0,0,0,0,0,0,0,-1,699,1282,-18.6293,-0.796176
-518,-258,-20.5437,1.45215,0,0,0,0,0,0,0,-1,706,1282,-20.5437,-1.4521
-511,-258,-19.0884,-0.198608,0,0,0,0,0,0,0,-1,713,1282,-19.0884,0.198604
-504,-258,-18.572,-0.443237,0,0,0,0,0,0,0,-1,720,1282,-18.572,0.443228
-497,-258,-17.8047,0.730469,0,0,0,0,0,0,0,-1,727,1282,-17.8048,-0.730489
-490,-258,-15.4346,0.632935,0,0,0,0,0,0,0,-1,734,1282,-15.4346,-0.632917
-483,-258,0,0,0,0,0,0,0,0,0,-1,741,1282,0,0
-476,-258,0,0,0,0,0,0,0,0,0,-1,748,1282,0,0
-469,-258,0,0,0,0,0,0,0,0,0,-1,755,1282,0,0
-462,-258,0,0,0,0,0,0,0,0,0,-1,762,1282,0,0
-455,-258,0,0,0,0,0,0,0,0,0,-1,769,1282,0,0
-448,-258,0,0,0,0,0,0,0,0,0,-1,776,1282,0,0
-441,-258,0,0,0,0,0,0,0,0,0,-1,783,1282,0,0
-434,-258,0,0,0,0,0,0,0,0,0,-1,790,1282,0,0
-427,-258,0,0,0,0,0,0,0,0,0,-1,797,1282,0,0
-420,-258,0,0,0,0,0,0,0,0,0,-1,804,1282,0,0
-413,-258,0,0,0,0,0,0,0,0,0,-1,811,1282,0,0
-406,-258,0,0,0,0,0,0,0,0,0,-1,818,1282,0,0
-399,-258,0,0,0,0,0,0,0,0,0,-1,825,1282,0,0
-392,-258,0,0,0,0,0,0,0,0,0,-1,832,1282,0,0
-385,-258,0,0,0,0,0,0,0,0,0,-1,839,1282,0,0
-378,-258,0,0,0,0,0,0,0,0,0,-1,846,1282,0,0
-371,-258,0,0,0,0,0,0,0,0,0,-1,853,1282,0,0
-364,-258,0,0,0,0,0,0,0,0,0,-1,860,1282,0,0
-357,-258,0,0,0,0,0,0,0,0,0,-1,867,1282,0,0
-350,-258,0,0,0,0,0,0,0,0,0,-1,874,1282,0,0
-343,-258,0,0,0,0,0,0,0,0,0,-1,881,1282,0,0
-336,-258,0,0,0,0,0,0,0,0,0,-1,888,1282,0,0
-329,-258,0,0,0,0,0,0,0,0,0,-1,895,1282,0,0
-322,-258,0,0,0,0,0,0,0,0,0,-1,902,1282,0,0
-315,-258,0,0,0,0,0,0,0,0,0,-1,909,1282,0,0
-308,-258,0,0,0,0,0,0,0,0,0,-1,916,1282,0,0
-301,-258,0,0,0,0,0,0,0,0,0,-1,923,1282,0,0
-294,-258,0,0,0,0,0,0,0,0,0,-1,930,1282,0,0
-287,-258,0,0,0,0,0,0,0,0,0,-1,937,1282,0,0
-280,-258,0,0,0,0,0,0,0,0,0,-1,944,1282,0,0
-273,-258,0,0,0,0,0,0,0,0,0,-1,951,1282,0,0
-266,-258,0,0,0,0,0,0,0,0,0,-1,958,1282,0,0
-259,-258,0,0,0,0,0,0,0,0,0,-1,965,1282,0,0
-252,-258,0,0,0,0,0,0,0,0,0,-1,972,1282,0,0
-245,-258,0,0,0,0,0,0,0,0,0,-1,979,1282,0,0
-238,-258,0,0,0,0,0,0,0,0,0,-1,986,1282,0,0
-231,-258,0,0,0,0,0,0,0,0,0,-1,993,1282,0,0
-224,-258,0,0,0,0,0,0,0,0,0,-1,1000,1282,0,0
-217,-258,0,0,0,0,0,0,0,0,0,-1,1007,1282,0,0
-210,-258,0,0,0,0,0,0,0,0,0,-1,1014,1282,0,0
-203,-258,0,0,0,0,0,0,0,0,0,-1,1021,1282,0,0
-196,-258,0,0,0,0,0,0,0,0,0,-1,1028,1282,0,0
-189,-258,0,0,0,0,0,0,0,0,0,-1,1035,1282,0,0
-182,-258,0,0,0,0,0,0,0,0,0,-1,1042,1282,0,0
-175,-258,0,0,0,0,0,0,0,0,0,-1,1049,1282,0,0
-168,-258,0,0,0,0,0,0,0,0,0,-1,1056,1282,0,0
-161,-258,0,0,0,0,0,0,0,0,0,-1,1063,1282,0,0
-154,-258,0,0,0,0,0,0,0,0,0,-1,1070,1282,0,0
-147,-258,0,0,0,0,0,0,0,0,0,-1,1077,1282,0,0
-140,-258,0,0,0,0,0,0,0,0,0,-1,1084,1282,0,0
-133,-258,0,0,0,0,0,0,0,0,0,-1,1091,1282,0,0
-126,-258,0,0,0,0,0,0,0,0,0,-1,1098,1282,0,0
-119,-258,0,0,0,0,0,0,0,0,0,-1,1105,1282,0,0
-112,-258,0,0,0,0,0,0,0,0,0,-1,1112,1282,0,0
-105,-258,0,0,0,0,0,0,0,0,0,-1,1119,1282,0,0
-98,-258,0,0,0,0,0,0,0,0,0,-1,1126,1282,0,0
-91,-258,0,0,0,0,0,0,0,0,0,-1,1133,1282,0,0
-84,-258,0,0,0,0,0,0,0,0,0,-1,1140,1282,0,0
-77,-258,0,0,0,0,0,0,0,0,0,-1,1147,1282,0,0
-70,-258,0,0,0,0,0,0,0,0,0,-1,1154,1282,0,0
-63,-258,0,0,0,0,0,0,0,0,0,-1,1161,1282,0,0
-56,-258,0,0,0,0,0,0,0,0,0,-1,1168,1282,0,0
-49,-258,0,0,0,0,0,0,0,0,0,-1,1175,1282,0,0
-42,-258,0,0,0,0,0,0,0,0,0,-1,1182,1282,0,0
-35,-258,0,0,0,0,0,0,0,0,0,-1,1189,1282,0,0
-28,-258,0,0,0,0,0,0,0,0,0,-1,1196,1282,0,0
-21,-258,0,0,0,0,0,0,0,0,0,-1,1203,1282,0,0
-14,-258,0,0,0,0,0,0,0,0,0,-1,1210,1282,0,0
-7,-258,0,0,0,0,0,0,0,0,0,-1,1217,1282,0,0
0,-258,0,0,0,0,0,0,0,0,0,-1,1224,1282,0,0
7,-258,0,0,0,0,0,0,0,0,0,-1,1231,1282,0,0
14,-258,0,0,0,0,0,0,0,0,0,-1,1238,1282,0,0
21,-258,0,0,0,0,0,0,0,0,0,-1,1245,1282,0,0
28,-258,0,0,0,0,0,0,0,0,0,-1,1252,1282,0,0
35,-258,0,0,0,0,0,0,0,0,0,-1,1259,1282,0,0
42,-258,0,0,0,0,0,0,0,0,0,-1,1266,1282,0,0
49,-258,0,0,0,0,0,0,0,0,0,-1,1273,1282,0,0
56,-258,0,0,0,0,0,0,0,0,0,-1,1280,1282,0,0
63,-258,0,0,0,0,0,0,0,0,0,-1,1287,1282,0,0
70,-258,0,0,0,0,0,0,0,0,0,-1,1294,1282,0,0
77,-258,0,0,0,0,0,0,0,0,0,-1,1301,1282,0,0
84,-258,0,0,0,0,0,0,0,0,0,-1,1308,1282,0,0
91,-258,0,0,0,0,0,0,0,0,0,-1,1315,1282,0,0
98,-258,0,0,0,0,0,0,0,0,0,-1,1322,1282,0,0
105,-258,0,0,0,0,0,0,0,0,0,-1,1329,1282,0,0
112,-258,0,0,0,0,0,0,0,0,0,-1,1336,1282,0,0
119,-258,0,0,0,0,0,0,0,0,0,-1,1343,1282,0,0
126,-258,0,0,0,0,0,0,0,0,0,-1,1350,1282,0,0
133,-258,0,0,0,0,0,0,0,0,0,-1,1357,1282,0,0
140,-258,0,0,0,0,0,0,0,0,0,-1,1364,1282,0,0
147,-258,0,0,0,0,0,0,0,0,0,-1,1371,1282,0,0
154,-258,0,0,0,0,0,0,0,0,0,-1,1378,1282,0,0
161,-258,0,0,0,0,0,0,0,0,0,-1,1385,1282,0,0
168,-258,0,0,0,0,0,0,0,0,0,-1,1392,1282,0,0
175,-258,0,0,0,0,0,0,0,0,0,-1,1399,1282,0,0
182,-258,0,0,0,0,0,0,0,0,0,-1,1406,1282,0,0
189,-258,0,0,0,0,0,0,0,0,0,-1,1413,1282,0,0
196,-258,0,0,0,0,0,0,0,0,0,-1,1420,1282,0,0
203,-258,0,0,0,0,0,0,0,0,0,-1,1427,1282,0,0
210,-258,0,0,0,0,0,0,0,0,0,-1,1434,1282,0,0
217,-258,0,0,0,0,0,0,0,0,0,-1,1441,1282,0,0
224,-258,0,0,0,0,0,0,0,0,0,-1,1448,1282,0,0
231,-258,0,0,0,0,0,0,0,0,0,-1,1455,1282,0,0
238,-258,0,0,0,0,0,0,0,0,0,-1,1462,1282,0,0
245,-258,0,0,0,0,0,0,0,0,0,-1,1469,1282,0,0
252,-258,0,0,0,0,0,0,0,0,0,-1,1476,1282,0,0
259,-258,0,0,0,0,0,0,0,0,0,-1,1483,1282,0,0
266,-258,0,0,0,0,0,0,0,0,0,-1,1490,1282,0,0
273,-258,0,0,0,0,0,0,0,0,0,-1,1497,1282,0,0
280,-258,0,0,0,0,0,0,0,0,0,-1,1504,1282,0,0
287,-258,0,0,0,0,0,0,0,0,0,-1,1511,1282,0,0
294,-258,0,0,0,0,0,0,0,0,0,-1,1518,1282,0,0
301,-258,0,0,0,0,0,0,0,0,0,-1,1525,1282,0,0
308,-258,0,0,0,0,0,0,0,0,0,-1,1532,1282,0,0
315,-258,0,0,0,0,0,0,0,0,0,-1,1539,1282,0,0
322,-258,0,0,0,0,0,0,0,0,0,-1,1546,1282,0,0
329,-258,0,0,0,0,0,0,0,0,0,-1,1553,1282,0,0
336,-258,0,0,0,0,0,0,0,0,0,-1,1560,1282,0,0
343,-258,0,0,0,0,0,0,0,0,0,-1,1567,1282,0,0
350,-258,0,0,0,0,0,0,0,0,0,-1,1574,1282,0,0
357,-258,0,0,0,0,0,0,0,0,0,-1,1581,1282,0,0
364,-258,0,0,0,0,0,0,0,0,0,-1,1588,1282,0,0
371,-258,0,0,0,0,0,0,0,0,0,-1,1595,1282,0,0
378,-258,0,0,0,0,0,0,0,0,0,-1,1602,1282,0,0
385,-258,0,0,0,0,0,0,0,0,0,-1,1609,1282,0,0
392,-258,0,0,0,0,0,0,0,0,0,-1,1616,1282,0,0
399,-258,0,0,0,0,0,0,0,0,0,-1,1623,1282,0,0
406,-258,0,0,0,0,0,0,0,0,0,-1,1630,1282,0,0
413,-258,0,0,0,0,0,0,0,0,0,-1,1637,1282,0,0
420,-258,0,0,0,0,0,0,0,0,0,-1,1644,1282,0,0
427,-258,0,0,0,0,0,0,0,0,0,-1,1651,1282,0,0
434,-258,0,0,0,0,0,0,0,0,0,-1,1658,1282,0,0
441,-258,0,0,0,0,0,0,0,0,0,-1,1665,1282,0,0
448,-258,0,0,0,0,0,0,0,0,0,-1,1672,1282,0,0
455,-258,0,0,0,0,0,0,0,0,0,-1,1679,1282,0,0
462,-258,0,0,0,0,0,0,0,0,0,-1,1686,1282,0,0
469,-258,0,0,0,0,0,0,0,0,0,-1,1693,1282,0,0
476,-258,0,0,0,0,0,0,0,0,0,-1,1700,1282,0,0
483,-258,0,0,0,0,0,0,0,0,0,-1,1707,1282,0,0
490,-258,0,0,0,0,0,0,0,0,0,-1,1714,1282,0,0
497,-258,0,0,0,0,0,0,0,0,0,-1,1721,1282,0,0
504,-258,0,0,0,0,0,0,0,0,0,-1,1728,1282,0,0
511,-258,0,0,0,0,0,0,0,0,0,-1,1735,1282,0,0
518,-258,0,0,0,0,0,0,0,0,0,-1,1742,1282,0,0
525,-258,0,0,0,0,0,0,0,0,0,-1,1749,1282,0,0
532,-258,0,0,0,0,0,0,0,0,0,-1,1756,1282,0,0
539,-258,0,0,0,0,0,0,0,0,0,-1,1763,1282,0,0
546,-258,0,0,0,0,0,0,0,0,0,-1,1770,1282,0,0
553,-258,0,0,0,0,0,0,0,0,0,-1,1777,1282,0,0
560,-258,0,0,0,0,0,0,0,0,0,-1,1784,1282,0,0
567,-258,0,0,0,0,0,0,0,0,0,-1,1791,1282,0,0
574,-258,0,0,0,0,0,0,0,0,0,-1,1798,1282,0,0
581,-258,0,0,0,0,0,0,0,0,0,-1,1805,1282,0,0
588,-258,0,0,0,0,0,0,0,0,0,-1,1812,1282,0,0
595,-258,0,0,0,0,0,0,0,0,0,-1,1819,1282,0,0
602,-258,0,0,0,0,0,0,0,0,0,-1,1826,1282,0,0
609,-258,30.7479,3.00757,0.0211182,0.0121493,-0.0164436,0.0336779,-0.000410378,-0.652277,0.02259,0.024174,1833,1282,30.7479,-3.0076
616,-258,30.7261,3.00684,0.00692235,0.00689648,-0.0110096,0.017919,-0.0041002,-0.784811,0.0135216,0.0230892,1840,1282,30.7261,-3.00689
623,-258,30.743,3.01257,-0.00650922,0.00300299,-0.00466339,0.0049078,-0.00841402,-1.18302,0.00777965,0.0325769,1847,1282,30.7431,-3.01254
630,-258,30.837,3.02795,-0.0173366,0.00100862,0.00154116,0.00113719,-0.0174651,1.48756,0.0120404,0.0413427,1854,1282,30.837,-3.02799
637,-258,30.9019,3.05615,-0.0223939,0.000498676,0.00560035,0.00179529,-0.0236905,1.34328,0.0164248,0.0447678,1861,1282,30.9019,-3.05615
644,-258,30.9983,3.0885,0,0,0,0,0,0,0,-1,1868,1282,30.9983,-3.08853
651,-258,28.8997,3.90125,-0.0223972,0.000575385,0.00852147,0.0033912,-0.025213,1.25165,0.0180456,0.0453012,1875,1282,28.8997,-3.9013
658,-258,27.9818,3.65454,-0.0207633,0.00056083,0.00896576,0.00382946,-0.0240319,1.2212,0.0174385,0.0468231,1882,1282,27.9819,-3.65453
665,-258,27.0885,3.52319,0,0,0,0,0,0,0,-1,1889,1282,27.0885,-3.52314
672,-258,22.703,2.80957,0,0,0,0,0,0,0,-1,1896,1282,22.703,-2.80962
679,-258,23.6688,7.77209,0,0,0,0,0,0,0,-1,1903,1282,23.6688,-7.77212
686,-258,23.8088,7.43799,-0.0121864,0.00217452,0.00789587,0.00566663,-0.0156785,1.15439,0.0127675,0.0407681,1910,1282,23.8089,-7.43801
693,-258,23.9116,7.10132,-0.0082944,0.00215096,0.00625786,0.00507918,-0.0112226,1.13313,0.00963206,0.0108852,1917,1282,23.9116,-7.1013
700,-258,23.8937,6.80896,-0.00434345,0.00152668,0.00442565,0.00390207,-0.00671884,1.0782,0.00620346,0.00919301,1924,1282,23.8937,-6.80897
707,-258,23.8962,6.5199,-0.000917097,0.00110526,0.00241681,0.0027139,-0.00252573,0.98353,0.00302575,0.0103163,1931,1282,23.8963,-6.51994
714,-258,23.9,6.26147,-0.000221883,-0.000266334,0.00107286,0.000828977,-0.00131719,0.775042,0.00124973,0.0101428,1938,1282,23.9001,-6.26147
721,-258,23.8817,5.98938,-0.000605792,-0.000393227,0.00110584,0.000611427,-0.00161045,0.833306,0.00132532,0.0129322,1945,1282,23.8817,-5.98936
728,-258,23.8406,5.71899,0.000364566,-0.00148643,0.00216571,0.00179424,-0.0029161,0.583472,0.00274511,0.0126775,1952,1282,23.8406,-5.719
735,-258,23.8612,5.43799,0.00323364,-0.00372177,0.00413593,0.00515967,-0.00564779,0.435818,0.00624181,0.0141883,1959,1282,23.8612,-5.43797
742,-258,23.8616,5.23401,0.00668056,-0.00622992,0.00622656,0.00919416,-0.00874352,0.383684,0.0103574,0.0185957,1966,1282,23.8616,-5.23402
749,-258,23.678,5.12854,0.01225,-0.00999314,0.00915559,0.0155338,-0.0132769,0.344373,0.0166509,0.0375826,1973,1282,23.678,-5.12856
756,-258,23.298,4.94043,0.020922,-0.0155902,0.0133351,0.0252737,-0.0199418,0.315434,0.0261656,0.0472003,1980,1282,23.298,-4.94041
763,-258,23.1351,4.79724,0.0334617,-0.0236099,0.019059,0.0392412,-0.0293894,0.294427,0.0397597,0.0451843,1987,1282,23.1352,-4.79726
770,-258,23.0454,4.60754,0,0,0,0,0,0,0,-1,1994,1282,23.0454,-4.60756
777,-258,31.912,4.83093,0.0725391,-0.0487601,0.0363399,0.0825929,-0.0588138,0.269908,0.0820251,0.0438275,2001,1282,31.912,-4.8309
784,-258,32.6525,6.43091,0.100091,-0.0665952,0.0482272,0.113039,-0.0795431,0.26229,0.111746,0.0420395,2008,1282,32.6525,-6.43091
791,-258,0,0,0,0,0,0,0,0,0,-1,2015,1282,0,0
798,-258,0,0,0,0,0,0,0,0,0,-1,2022,1282,0,0
805,-258,0,0,0,0,0,0,0,0,0,-1,2029,1282,0,0
812,-258,0,0,0,0,0,0,0,0,0,-1,2036,1282,0,0
-700,-265,0,0,0,0,0,0,0,0,0,-1,524,1289,0,0
-693,-265,0,0,0,0,0,0,0,0,0,-1,531,1289,0,0
-686,-265,0,0,0,0,0,0,0,0,0,-1,538,1289,0,0
-679,-265,0,0,0,0,0,0,0,0,0,-1,545,1289,0,0
-672,-265,0,0,0,0,0,0,0,0,0,-1,552,1289,0,0
-665,-265,-15.4148,-0.0216064,0.0692686,0.0233377,0.0541663,0.105137,-0.0125305,0.584895,0.0746196,0.044451,559,1289,-15.4148,0.021555
-658,-265,-14.326,0.320801,0.0617178,0.0175566,0.0439509,0.0888229,-0.0095485,0.552619,0.0626412,0.0454582,566,1289,-14.326,-0.320764
-651,-265,-15.0637,0.973755,0,0,0,0,0,0,0,-1,573,1289,-15.0637,-0.973787
-644,-265,-14.5985,1.37439,0.0468913,0.00827677,0.0285634,0.0620607,-0.00689258,0.488199,0.0438522,0.0493588,580,1289,-14.5985,-1.37435
-637,-265,-14.1224,1.71753,0,0,0,0,0,0,0,-1,587,1289,-14.1224,-1.71754
-630,-265,-13.7057,2.05701,0,0,0,0,0,0,0,-1,594,1289,-13.7057,-2.05697
-623,-265,-13.363,2.58508,0.0241339,0.00255323,0.0131349,0.0303423,-0.00365519,0.441541,0.0215502,0.0478464,601,1289,-13.363,-2.58505
-616,-265,-13.396,2.43237,0.0179092,0.001798,0.00949364,0.0223044,-0.00259718,0.433579,0.0158066,0.0397112,608,1289,-13.396,-2.43234
-609,-265,-13.4778,2.76489,0.0116108,0.00148548,0.00602109,0.0144148,-0.00131851,0.435828,0.0100781,0.0182542,615,1289,-13.4778,-2.76494
-602,-265,-13.5093,3.07874,0.00681715,0.000501533,0.00329216,0.00822115,-0.000902467,0.403113,0.00580502,0.0156232,622,1289,-13.5093,-3.07871
-595,-265,-13.5202,3.41882,0.00444363,-0.000110354,0.0020777,0.0052491,-0.00091582,0.369833,0.00384124,0.0125391,629,1289,-13.5202,-3.4188
-588,-265,-13.5158,3.73682,0.00214292,0.000692323,0.00122527,0.00284147,-6.22519e-06,0.518158,0.00189639,0.0110817,636,1289,-13.5158,-3.73685
-581,-265,-13.5259,4.03333,0.00170884,0.00106643,0.000958747,0.00239876,0.000376514,0.623761,0.00148962,0.0133228,643,1289,-13.526,-4.03333
-574,-265,-13.5181,4.36487,0.00252829,0.00102513,0.00107971,0.00309225,0.000461173,0.481348,0.00192627,0.01502,650,1289,-13.5181,-4.36481
-567,-265,-13.5221,4.67993,0.00288153,0.000704926,0.00125291,0.00345281,0.000133652,0.427796,0.00225864,0.0199423,657,1289,-13.5221,-4.67988
-560,-265,-13.5622,5.02136,0.00243978,0.000503564,0.00156084,0.00330836,-0.000365023,0.507811,0.00233677,0.0204512,664,1289,-13.5622,-5.02134
-553,-265,-13.4621,5.41663,0.00113773,0.000281943,0.00211651,0.00286916,-0.00144949,0.685658,0.00253789,0.0342208,671,1289,-13.4621,-5.41663
-546,-265,-13.424,5.8833,-0.000790636,-9.89782e-05,0.00267202,0.0022495,-0.00313911,0.849753,0.00312522,0.049924,678,1289,-13.4239,-5.88329
-539,-265,-13.499,6.36169,0,0,0,0,0,0,0,-1,685,1289,-13.499,-6.36169
-532,-265,-8.53998,3.41467,0,0,0,0,0,0,0,-1,692,1289,-8.53996,-3.41473
-525,-265,-12.1317,0.514648,0,0,0,0,0,0,0,-1,699,1289,-12.1317,-0.514634
-518,-265,-18.7877,-0.940796,0,0,0,0,0,0,0,-1,706,1289,-18.7877,0.940747
-511,-265,-18.6215,-0.697632,0,0,0,0,0,0,0,-1,713,1289,-18.6215,0.697635
-504,-265,-18.6469,-0.4823,0,0,0,0,0,0,0,-1,720,1289,-18.6468,0.48227
-497,-265,-18.689,-0.278442,0,0,0,0,0,0,0,-1,727,1289,-18.689,0.278423
-490,-265,-15.1696,0.492676,0,0,0,0,0,0,0,-1,734,1289,-15.1696,-0.492688
-483,-265,0,0,0,0,0,0,0,0,0,-1,741,1289,0,0
-476,-265,0,0,0,0,0,0,0,0,0,-1,748,1289,0,0
-469,-265,0,0,0,0,0,0,0,0,0,-1,755,1289,0,0
-462,-265,0,0,0,0,0,0,0,0,0,-1,762,1289,0,0
-455,-265,0,0,0,0,0,0,0,0,0,-1,769,1289,0,0
-448,-265,0,0,0,0,0,0,0,0,0,-1,776,1289,0,0
-441,-265,0,0,0,0,0,0,0,0,0,-1,783,1289,0,0
-434,-265,0,0,0,0,0,0,0,0,0,-1,790,1289,0,0
-427,-265,0,0,0,0,0,0,0,0,0,-1,797,1289,0,0
-420,-265,0,0,0,0,0,0,0,0,0,-1,804,1289,0,0
-413,-265,0,0,0,0,0,0,0,0,0,-1,811,1289,0,0
-406,-265,0,0,0,0,0,0,0,0,0,-1,818,1289,0,0
-399,-265,0,0,0,0,0,0,0,0,0,-1,825,1289,0,0
-392,-265,0,0,0,0,0,0,0,0,0,-1,832,1289,0,0
-385,-265,0,0,0,0,0,0,0,0,0,-1,839,1289,0,0
-378,-265,0,0,0,0,0,0,0,0,0,-1,846,1289,0,0
-371,-265,0,0,0,0,0,0,0,0,0,-1,853,1289,0,0
-364,-265,0,0,0,0,0,0,0,0,0,-1,860,1289,0,0
-357,-265,0,0,0,0,0,0,0,0,0,-1,867,1289,0,0
-350,-265,0,0,0,0,0,0,0,0,0,-1,874,1289,0,0
-343,-265,0,0,0,0,0,0,0,0,0,-1,881,1289,0,0
-336,-265,0,0,0,0,0,0,0,0,0,-1,888,1289,0,0
-329,-265,0,0,0,0,0,0,0,0,0,-1,895,1289,0,0
-322,-265,0,0,0,0,0,0,0,0,0,-1,902,1289,0,0
-315,-265,0,0,0,0,0,0,0,0,0,-1,909,1289,0,0
-308,-265,0,0,0,0,0,0,0,0,0,-1,916,1289,0,0
-301,-265,0,0,0,0,0,0,0,0,0,-1,923,1289,0,0
-294,-265,0,0,0,0,0,0,0,0,0,-1,930,1289,0,0
-287,-265,0,0,0,0,0,0,0,0,0,-1,937,1289,0,0
-280,-265,0,0,0,0,0,0,0,0,0,-1,944,1289,0,0
-273,-265,0,0,0,0,0,0,0,0,0,-1,951,1289,0,0
-266,-265,0,0,0,0,0,0,0,0,0,-1,958,1289,0,0
-259,-265,0,0,0,0,0,0,0,0,0,-1,965,1289,0,0
-252,-265,0,0,0,0,0,0,0,0,0,-1,972,1289,0,0
-245,-265,0,0,0,0,0,0,0,0,0,-1,979,1289,0,0
-238,-265,0,0,0,0,0,0,0,0,0,-1,986,1289,0,0
-231,-265,0,0,0,0,0,0,0,0,0,-1,993,1289,0,0
-224,-265,0,0,0,0,0,0,0,0,0,-1,1000,1289,0,0
-217,-265,0,0,0,0,0,0,0,0,0,-1,1007,1289,0,0
-210,-265,0,0,0,0,0,0,0,0,0,-1,1014,1289,0,0
-203,-265,0,0,0,0,0,0,0,0,0,-1,1021,1289,0,0
-196,-265,0,0,0,0,0,0,0,0,0,-1,1028,1289,0,0
-189,-265,0,0,0,0,0,0,0,0,0,-1,1035,1289,0,0
-182,-265,0,0,0,0,0,0,0,0,0,-1,1042,1289,0,0
-175,-265,0,0,0,0,0,0,0,0,0,-1,1049,1289,0,0
-168,-265,0,0,0,0,0,0,0,0,0,-1,1056,1289,0,0
-161,-265,0,0,0,0,0,0,0,0,0,-1,1063,1289,0,0
-154,-265,0,0,0,0,0,0,0,0,0,-1,1070,1289,0,0
-147,-265,0,0,0,0,0,0,0,0,0,-1,1077,1289,0,0
-140,-265,0,0,0,0,0,0,0,0,0,-1,1084,1289,0,0
-133,-265,0,0,0,0,0,0,0,0,0,-1,1091,1289,0,0
-126,-265,0,0,0,0,0,0,0,0,0,-1,1098,1289,0,0
-119,-265,0,0,0,0,0,0,0,0,0,-1,1105,1289,0,0
-112,-265,0,0,0,0,0,0,0,0,0,-1,1112,1289,0,0
-105,-265,0,0,0,0,0,0,0,0,0,-1,1119,1289,0,0
-98,-265,0,0,0,0,0,0,0,0,0,-1,1126,1289,0,0
-91,-265,0,0,0,0,0,0,0,0,0,-1,1133,1289,0,0
-84,-265,0,0,0,0,0,0,0,0,0,-1,1140,1289,0,0
-77,-265,0,0,0,0,0,0,0,0,0,-1,1147,1289,0,0
-70,-265,0,0,0,0,0,0,0,0,0,-1,1154,1289,0,0
-63,-265,0,0,0,0,0,0,0,0,0,-1,1161,1289,0,0
-56,-265,0,0,0,0,0,0,0,0,0,-1,1168,1289,0,0
-49,-265,0,0,0,0,0,0,0,0,0,-1,1175,1289,0,0
-42,-265,0,0,0,0,0,0,0,0,0,-1,1182,1289,0,0
-35,-265,0,0,0,0,0,0,0,0,0,-1,1189,1289,0,0
-28,-265,0,0,0,0,0,0,0,0,0,-1,1196,1289,0,0
-21,-265,0,0,0,0,0,0,0,0,0,-1,1203,1289,0,0
-14,-265,0,0,0,0,0,0,0,0,0,-1,1210,1289,0,0
-7,-265,0,0,0,0,0,0,0,0,0,-1,1217,1289,0,0
0,-265,0,0,0,0,0,0,0,0,0,-1,1224,1289,0,0
7,-265,0,0,0,0,0,0,0,0,0,-1,1231,1289,0,0
14,-265,0,0,0,0,0,0,0,0,0,-1,1238,1289,0,0
21,-265,0,0,0,0,0,0,0,0,0,-1,1245,1289,0,0
28,-265,0,0,0,0,0,0,0,0,0,-1,1252,1289,0,0
35,-265,0,0,0,0,0,0,0,0,0,-1,1259,1289,0,0
42,-265,0,0,0,0,0,0,0,0,0,-1,1266,1289,0,0
49,-265,0,0,0,0,0,0,0,0,0,-1,1273,1289,0,0
56,-265,0,0,0,0,0,0,0,0,0,-1,1280,1289,0,0
63,-265,0,0,0,0,0,0,0,0,0,-1,1287,1289,0,0
70,-265,0,0,0,0,0,0,0,0,0,-1,1294,1289,0,0
77,-265,0,0,0,0,0,0,0,0,0,-1,1301,1289,0,0
84,-265,0,0,0,0,0,0,0,0,0,-1,1308,1289,0,0
91,-265,0,0,0,0,0,0,0,0,0,-1,1315,1289,0,0
98,-265,0,0,0,0,0,0,0,0,0,-1,1322,1289,0,0
105,-265,0,0,0,0,0,0,0,0,0,-1,1329,1289,0,0
112,-265,0,0,0,0,0,0,0,0,0,-1,1336,1289,0,0
119,-265,0,0,0,0,0,0,0,0,0,-1,1343,1289,0,0
126,-265,0,0,0,0,0,0,0,0,0,-1,1350,1289,0,0
133,-265,0,0,0,0,0,0,0,0,0,-1,1357,1289,0,0
140,-265,0,0,0,0,0,0,0,0,0,-1,1364,1289,0,0
147,-265,0,0,0,0,0,0,0,0,0,-1,1371,1289,0,0
154,-265,0,0,0,0,0,0,0,0,0,-1,1378,1289,0,0
161,-265,0,0,0,0,0,0,0,0,0,-1,1385,1289,0,0
168,-265,0,0,0,0,0,0,0,0,0,-1,1392,1289,0,0
175,-265,0,0,0,0,0,0,0,0,0,-1,1399,1289,0,0
182,-265,0,0,0,0,0,0,0,0,0,-1,1406,1289,0,0
189,-265,0,0,0,0,0,0,0,0,0,-1,1413,1289,0,0
196,-265,0,0,0,0,0,0,0,0,0,-1,1420,1289,0,0
203,-265,0,0,0,0,0,0,0,0,0,-1,1427,1289,0,0
210,-265,0,0,0,0,0,0,0,0,0,-1,1434,1289,0,0
217,-265,0,0,0,0,0,0,0,0,0,-1,1441,1289,0,0
224,-265,0,0,0,0,0,0,0,0,0,-1,1448,1289,0,0
231,-265,0,0,0,0,0,0,0,0,0,-1,1455,1289,0,0
238,-265,0,0,0,0,0,0,0,0,0,-1,1462,1289,0,0
245,-265,0,0,0,0,0,0,0,0,0,-1,1469,1289,0,0
252,-265,0,0,0,0,0,0,0,0,0,-1,1476,1289,0,0
259,-265,0,0,0,0,0,0,0,0,0,-1,1483,1289,0,0
266,-265,0,0,0,0,0,0,0,0,0,-1,1490,1289,0,0
273,-265,0,0,0,0,0,0,0,0,0,-1,1497,1289,0,0
280,-265,0,0,0,0,0,0,0,0,0,-1,1504,1289,0,0
287,-265,0,0,0,0,0,0,0,0,0,-1,1511,1289,0,0
294,-265,0,0,0,0,0,0,0,0,0,-1,1518,1289,0,0
301,-265,0,0,0,0,0,0,0,0,0,-1,1525,1289,0,0
308,-265,0,0,0,0,0,0,0,0,0,-1,1532,1289,0,0
315,-265,0,0,0,0,0,0,0,0,0,-1,1539,1289,0,0
322,-265,0,0,0,0,0,0,0,0,0,-1,1546,1289,0,0
329,-265,0,0,0,0,0,0,0,0,0,-1,1553,1289,0,0
336,-265,0,0,0,0,0,0,0,0,0,-1,1560,1289,0,0
343,-265,0,0,0,0,0,0,0,0,0,-1,1567,1289,0,0
350,-265,0,0,0,0,0,0,0,0,0,-1,1574,1289,0,0
357,-265,0,0,0,0,0,0,0,0,0,-1,1581,1289,0,0
364,-265,0,0,0,0,0,0,0,0,0,-1,1588,1289,0,0
371,-265,0,0,0,0,0,0,0,0,0,-1,1595,1289,0,0
378,-265,0,0,0,0,0,0,0,0,0,-1,1602,1289,0,0
385,-265,0,0,0,0,0,0,0,0,0,-1,1609,1289,0,0
392,-265,0,0,0,0,0,0,0,0,0,-1,1616,1289,0,0
399,-265,0,0,0,0,0,0,0,0,0,-1,1623,1289,0,0
406,-265,0,0,0,0,0,0,0,0,0,-1,1630,1289,0,0
413,-265,0,0,0,0,0,0,0,0,0,-1,1637,1289,0,0
420,-265,0,0,0,0,0,0,0,0,0,-1,1644,1289,0,0
427,-265,0,0,0,0,0,0,0,0,0,-1,1651,1289,0,0
434,-265,0,0,0,0,0,0,0,0,0,-1,1658,1289,0,0
441,-265,0,0,0,0,0,0,0,0,0,-1,1665,1289,0,0
448,-265,0,0,0,0,0,0,0,0,0,-1,1672,1289,0,0
455,-265,0,0,0,0,0,0,0,0,0,-1,1679,1289,0,0
462,-265,0,0,0,0,0,0,0,0,0,-1,1686,1289,0,0
469,-265,0,0,0,0,0,0,0,0,0,-1,1693,1289,0,0
476,-265,0,0,0,0,0,0,0,0,0,-1,1700,1289,0,0
483,-265,0,0,0,0,0,0,0,0,0,-1,1707,1289,0,0
490,-265,0,0,0,0,0,0,0,0,0,-1,1714,1289,0,0
497,-265,0,0,0,0,0,0,0,0,0,-1,1721,1289,0,0
504,-265,0,0,0,0,0,0,0,0,0,-1,1728,1289,0,0
511,-265,0,0,0,0,0,0,0,0,0,-1,1735,1289,0,0
518,-265,0,0,0,0,0,0,0,0,0,-1,1742,1289,0,0
525,-265,0,0,0,0,0,0,0,0,0,-1,1749,1289,0,0
532,-265,0,0,0,0,0,0,0,0,0,-1,1756,1289,0,0
539,-265,0,0,0,0,0,0,0,0,0,-1,1763,1289,0,0
546,-265,0,0,0,0,0,0,0,0,0,-1,1770,1289,0,0
553,-265,0,0,0,0,0,0,0,0,0,-1,1777,1289,0,0
560,-265,0,0,0,0,0,0,0,0,0,-1,1784,1289,0,0
567,-265,0,0,0,0,0,0,0,0,0,-1,1791,1289,0,0
574,-265,0,0,0,0,0,0,0,0,0,-1,1798,1289,0,0
581,-265,0,0,0,0,0,0,0,0,0,-1,1805,1289,0,0
588,-265,0,0,0,0,0,0,0,0,0,-1,1812,1289,0,0
595,-265,0,0,0,0,0,0,0,0,0,-1,1819,1289,0,0
602,-265,30.7039,2.98376,0.0313097,0.0258677,-0.0220907,0.0508464,0.00633104,-0.72412,0.0319967,0.0260179,1826,1289,30.7038,-2.98379
609,-265,30.7341,2.98621,0.0188961,0.0154234,-0.020274,0.037508,-0.00318849,-0.74268,0.0261331,0.0275472,1833,1289,30.7341,-2.98625
616,-265,30.7384,3.02551,0.0037981,0.00870501,-0.0145349,0.020992,-0.00848892,-0.869009,0.0175237,0.0338253,1840,1289,30.7384,-3.02555
623,-265,30.9546,3.04211,-0.00956272,0.00379025,-0.00769173,0.00729896,-0.0130714,-1.14283,0.0119172,0.0440409,1847,1289,30.9547,-3.04205
630,-265,30.8751,3.03564,-0.0196975,0.00100688,-0.00112256,0.00106756,-0.0197581,-1.51679,0.013542,0.042873,1854,1289,30.8751,-3.03568
637,-265,30.4072,2.91357,-0.0239541,3.639e-05,0.00315487,0.000444333,-0.0243621,1.4422,0.0163915,0.0454324,1861,1289,30.4072,-2.91359
644,-265,29.7517,3.45642,-0.0248827,-0.000229598,0.00566123,0.00100827,-0.0261206,1.35553,0.0177593,0.0446192,1868,1289,29.7517,-3.4564
651,-265,28.4589,3.48474,-0.0243215,-0.000494456,0.00718434,0.00150413,-0.0263201,1.29947,0.018069,0.0450787,1875,1289,28.4589,-3.48474
658,-265,27.1117,3.39673,0,0,0,0,0,0,0,-1,1882,1289,27.1117,-3.3967
665,-265,25.0533,3.27246,0,0,0,0,0,0,0,-1,1889,1289,25.0534,-3.27242
672,-265,20.0045,6.62671,0,0,0,0,0,0,0,-1,1896,1289,20.0045,-6.62668
679,-265,23.6124,7.69421,0,0,0,0,0,0,0,-1,1903,1289,23.6124,-7.69418
686,-265,23.6062,7.38989,-0.0144335,0.00179186,0.008004,0.00507565,-0.0177173,1.18147,0.0138177,0.0236156,1910,1289,23.6062,-7.3899
693,-265,23.6027,7.09888,-0.00996009,0.0018216,0.00615682,0.00445182,-0.0125903,1.16706,0.0102064,0.010155,1917,1289,23.6027,-7.09889
700,-265,23.5966,6.82544,-0.00546458,0.0012385,0.00422537,0.00328016,-0.00750623,1.12069,0.00638487,0.0108197,1924,1289,23.5965,-6.82538
707,-265,23.6204,6.52429,-0.001733,0.000837354,0.00229705,0.00218431,-0.00307995,1.04045,0.00305395,0.0098978,1931,1289,23.6204,-6.52426
714,-265,23.6166,6.25964,-0.000759368,-0.000349517,0.00107852,0.000543377,-0.00165226,0.879282,0.00132044,0.00971759,1938,1289,23.6165,-6.2596
721,-265,23.5916,6.00183,-0.000779905,-0.000455323,0.00106136,0.000456084,-0.00169131,0.861265,0.00130638,0.00973194,1945,1289,23.5915,-6.00187
728,-265,23.5746,5.72937,0.00050612,-0.00162462,0.00212443,0.00181735,-0.00293584,0.552981,0.00276947,0.0122151,1952,1289,23.5746,-5.72931
735,-265,23.5878,5.45923,0.00351298,-0.00391794,0.00403212,0.00528046,-0.00568542,0.413124,0.00633259,0.0148604,1959,1289,23.5878,-5.45922
742,-265,23.6202,5.19739,0.00713661,-0.00647896,0.00610955,0.00947609,-0.00881845,0.365698,0.0105646,0.0191348,1966,1289,23.6202,-5.1974
749,-265,23.5997,5.04163,0.0131802,-0.0104293,0.00920921,0.0163475,-0.0135966,0.331253,0.0173125,0.0434668,1973,1289,23.5997,-5.04165
756,-265,23.1945,4.95776,0,0,0,0,0,0,0,-1,1980,1289,23.1945,-4.95772
763,-265,23.3247,4.91797,0,0,0,0,0,0,0,-1,1987,1289,23.3247,-4.91798
770,-265,23.2266,4.72278,0,0,0,0,0,0,0,-1,1994,1289,23.2265,-4.72274
777,-265,32.1664,5.3457,0,0,0,0,0,0,0,-1,2001,1289,32.1664,-5.34568
784,-265,0,0,0,0,0,0,0,0,0,-1,2008,1289,0,0
791,-265,0,0,0,0,0,0,0,0,0,-1,2015,1289,0,0
798,-265,0,0,0,0,0,0,0,0,0,-1,2022,1289,0,0
805,-265,0,0,0,0,0,0,0,0,0,-1,2029,1289,0,0
812,-265,0,0,0,0,0,0,0,0,0,-1,2036,1289,0,0
-700,-272,0,0,0,0,0,0,0,0,0,-1,524,1296,0,0
-693,-272,0,0,0,0,0,0,0,0,0,-1,531,1296,0,0
-686,-272,0,0,0,0,0,0,0,0,0,-1,538,1296,0,0
-679,-272,0,0,0,0,0,0,0,0,0,-1,545,1296,0,0
-672,-272,0,0,0,0,0,0,0,0,0,-1,552,1296,0,0
-665,-272,0,0,0,0,0,0,0,0,0,-1,559,1296,0,0
-658,-272,-15.0755,0.408081,0.0778454,0.0085707,0.0457489,0.10059,-0.0141741,0.461377,0.0722497,0.0486161,566,1296,-15.0755,-0.408064
-651,-272,-14.7194,0.884644,0.0679734,0.00414591,0.0373897,0.0852174,-0.013098,0.432124,0.0616432,0.0482091,573,1296,-14.7194,-0.884639
-644,-272,-14.315,1.37561,0.0577558,0.00162328,0.0305234,0.071155,-0.011776,0.413656,0.0518101,0.0482269,580,1296,-14.315,-1.37556
-637,-272,-14.0118,1.55688,0,0,0,0,0,0,0,-1,587,1296,-14.0118,-1.55685
-630,-272,-13.6729,1.68152,0,0,0,0,0,0,0,-1,594,1296,-13.6728,-1.68147
-623,-272,-12.619,2.2157,0.029483,-4.79979e-06,0.0150671,0.0358199,-0.00634167,0.398119,0.0262504,0.0477725,601,1296,-12.619,-2.21573
-616,-272,-12.8364,2.58813,0.0217679,0.000132448,0.0111798,0.0265069,-0.00460651,0.400928,0.01939,0.039406,608,1296,-12.8363,-2.58811
-609,-272,-13.1436,2.90308,0.0143275,0.000469912,0.00739868,0.0175352,-0.00273779,0.409091,0.0127015,0.0231968,615,1296,-13.1436,-2.90303
-602,-272,-13.1872,3.12317,0.00847355,-6.62551e-05,0.00433487,0.0102883,-0.00188102,0.396474,0.00756425,0.0150795,622,1296,-13.1872,-3.12318
-595,-272,-13.1941,3.44727,0.00514146,-0.000359377,0.00266807,0.00622294,-0.00144085,0.385101,0.00470306,0.0122442,629,1296,-13.1941,-3.44728
-588,-272,-13.1859,3.76721,0.00205719,0.000663013,0.00140936,0.00293244,-0.000212235,0.555734,0.00202941,0.0111026,636,1296,-13.1859,-3.76719
-581,-272,-13.1959,4.06885,0.0012909,0.0010997,0.000968339,0.00216835,0.000222256,0.736196,0.00137747,0.00975243,643,1296,-13.1959,-4.06881
-574,-272,-13.1996,4.37952,0.0021586,0.00089578,0.00108309,0.00278089,0.00027349,0.521496,0.00176982,0.0145704,650,1296,-13.1996,-4.37948
-567,-272,-13.2103,4.68726,0.00272994,0.000632292,0.00125455,0.00331633,4.59052e-05,0.437237,0.00219574,0.0204049,657,1296,-13.2103,-4.68731
-560,-272,-13.2349,5.03479,0.00267094,0.000589452,0.00145212,0.00341676,-0.000156369,0.474474,0.00233171,0.0190352,664,1296,-13.2349,-5.03483
-553,-272,-13.1865,5.36316,0.00175261,0.00064437,0.00184185,0.00312189,-0.000724904,0.639279,0.0023603,0.0158815,671,1296,-13.1865,-5.36313
-546,-272,-13.0815,5.75989,-6.16883e-05,0.000611159,0.00230685,0.00260599,-0.00205651,0.857806,0.00269812,0.0268334,678,1296,-13.0815,-5.75995
-539,-272,-13.143,6.2052,0,0,0,0,0,0,0,-1,685,1296,-13.143,-6.2052
-532,-272,-10.5572,4.53943,0,0,0,0,0,0,0,-1,692,1296,-10.5572,-4.53943
-525,-272,-11.9599,0.0393066,0,0,0,0,0,0,0,-1,699,1296,-11.9599,-0.0393577
-518,-272,-18.5744,-1.3175,0,0,0,0,0,0,0,-1,706,1296,-18.5744,1.31755
-511,-272,-18.354,-0.904297,0,0,0,0,0,0,0,-1,713,1296,-18.354,0.904332
-504,-272,-18.1337,-0.491089,0,0,0,0,0,0,0,-1,720,1296,-18.1337,0.491118
-497,-272,-19.2225,1.71301,0,0,0,0,0,0,0,-1,727,1296,-19.2225,-1.71302
-490,-272,-20.1948,2.4032,0,0,0,0,0,0,0,-1,734,1296,-20.1948,-2.40322
-483,-272,-15.3736,0.792603,0,0,0,0,0,0,0,-1,741,1296,-15.3736,-0.79263
-476,-272,0,0,0,0,0,0,0,0,0,-1,748,1296,0,0
-469,-272,0,0,0,0,0,0,0,0,0,-1,755,1296,0,0
-462,-272,0,0,0,0,0,0,0,0,0,-1,762,1296,0,0
-455,-272,0,0,0,0,0,0,0,0,0,-1,769,1296,0,0
-448,-272,0,0,0,0,0,0,0,0,0,-1,776,1296,0,0
-441,-272,0,0,0,0,0,0,0,0,0,-1,783,1296,0,0
-434,-272,0,0,0,0,0,0,0,0,0,-1,790,1296,0,0
-427,-272,0,0,0,0,0,0,0,0,0,-1,797,1296,0,0
-420,-272,0,0,0,0,0,0,0,0,0,-1,804,1296,0,0
-413,-272,0,0,0,0,0,0,0,0,0,-1,811,1296,0,0
-406,-272,0,0,0,0,0,0,0,0,0,-1,818,1296,0,0
-399,-272,0,0,0,0,0,0,0,0,0,-1,825,1296,0,0
-392,-272,0,0,0,0,0,0,0,0,0,-1,832,1296,0,0
-385,-272,0,0,0,0,0,0,0,0,0,-1,839,1296,0,0
-378,-272,0,0,0,0,0,0,0,0,0,-1,846,1296,0,0
-371,-272,0,0,0,0,0,0,0,0,0,-1,853,1296,0,0
-364,-272,0,0,0,0,0,0,0,0,0,-1,860,1296,0,0
-357,-272,0,0,0,0,0,0,0,0,0,-1,867,1296,0,0
-350,-272,0,0,0,0,0,0,0,0,0,-1,874,1296,0,0
-343,-272,0,0,0,0,0,0,0,0,0,-1,881,1296,0,0
-336,-272,0,0,0,0,0,0,0,0,0,-1,888,1296,0,0
-329,-272,0,0,0,0,0,0,0,0,0,-1,895,1296,0,0
-322,-272,0,0,0,0,0,0,0,0,0,-1,902,1296,0,0
-315,-272,0,0,0,0,0,0,0,0,0,-1,909,1296,0,0
-308,-272,0,0,0,0,0,0,0,0,0,-1,916,1296,0,0
-301,-272,0,0,0,0,0,0,0,0,0,-1,923,1296,0,0
-294,-272,0,0,0,0,0,0,0,0,0,-1,930,1296,0,0
-287,-272,0,0,0,0,0,0,0,0,0,-1,937,1296,0,0
-280,-272,0,0,0,0,0,0,0,0,0,-1,944,1296,0,0
-273,-272,0,0,0,0,0,0,0,0,0,-1,951,1296,0,0
-266,-272,0,0,0,0,0,0,0,0,0,-1,958,1296,0,0
-259,-272,0,0,0,0,0,0,0,0,0,-1,965,1296,0,0
-252,-272,0,0,0,0,0,0,0,0,0,-1,972,1296,0,0
-245,-272,0,0,0,0,0,0,0,0,0,-1,979,1296,0,0
-238,-272,0,0,0,0,0,0,0,0,0,-1,986,1296,0,0
-231,-272,0,0,0,0,0,0,0,0,0,-1,993,1296,0,0
-224,-272,0,0,0,0,0,0,0,0,0,-1,1000,1296,0,0
-217,-272,0,0,0,0,0,0,0,0,0,-1,1007,1296,0,0
-210,-272,0,0,0,0,0,0,0,0,0,-1,1014,1296,0,0
-203,-272,0,0,0,0,0,0,0,0,0,-1,1021,1296,0,0
-196,-272,0,0,0,0,0,0,0,0,0,-1,1028,1296,0,0
-189,-272,0,0,0,0,0,0,0,0,0,-1,1035,1296,0,0
-182,-272,0,0,0,0,0,0,0,0,0,-1,1042,1296,0,0
-175,-272,0,0,0,0,0,0,0,0,0,-1,1049,1296,0,0
-168,-272,0,0,0,0,0,0,0,0,0,-1,1056,1296,0,0
-161,-272,0,0,0,0,0,0,0,0,0,-1,1063,1296,0,0
-154,-272,0,0,0,0,0,0,0,0,0,-1,1070,1296,0,0
-147,-272,0,0,0,0,0,0,0,0,0,-1,1077,1296,0,0
-140,-272,0,0,0,0,0,0,0,0,0,-1,1084,1296,0,0
-133,-272,0,0,0,0,0,0,0,0,0,-1,1091,1296,0,0
-126,-272,0,0,0,0,0,0,0,0,0,-1,1098,1296,0,0
-119,-272,0,0,0,0,0,0,0,0,0,-1,1105,1296,0,0
-112,-272,0,0,0,0,0,0,0,0,0,-1,1112,1296,0,0
-105,-272,0,0,0,0,0,0,0,0,0,-1,1119,1296,0,0
-98,-272,0,0,0,0,0,0,0,0,0,-1,1126,1296,0,0
-91,-272,0,0,0,0,0,0,0,0,0,-1,1133,1296,0,0
-84,-272,0,0,0,0,0,0,0,0,0,-1,1140,1296,0,0
-77,-272,0,0,0,0,0,0,0,0,0,-1,1147,1296,0,0
-70,-272,0,0,0,0,0,0,0,0,0,-1,1154,1296,0,0
-63,-272,0,0,0,0,0,0,0,0,0,-1,1161,1296,0,0
-56,-272,0,0,0,0,0,0,0,0,0,-1,1168,1296,0,0
-49,-272,0,0,0,0,0,0,0,0,0,-1,1175,1296,0,0
-42,-272,0,0,0,0,0,0,0,0,0,-1,1182,1296,0,0
-35,-272,0,0,0,0,0,0,0,0,0,-1,1189,1296,0,0
-28,-272,0,0,0,0,0,0,0,0,0,-1,1196,1296,0,0
-21,-272,0,0,0,0,0,0,0,0,0,-1,1203,1296,0,0
-14,-272,0,0,0,0,0,0,0,0,0,-1,1210,1296,0,0
-7,-272,0,0,0,0,0,0,0,0,0,-1,1217,1296,0,0
0,-272,0,0,0,0,0,0,0,0,0,-1,1224,1296,0,0
7,-272,0,0,0,0,0,0,0,0,0,-1,1231,1296,0,0
14,-272,0,0,0,0,0,0,0,0,0,-1,1238,1296,0,0
21,-272,0,0,0,0,0,0,0,0,0,-1,1245,1296,0,0
28,-272,0,0,0,0,0,0,0,0,0,-1,1252,1296,0,0
35,-272,0,0,0,0,0,0,0,0,0,-1,1259,1296,0,0
42,-272,0,0,0,0,0,0,0,0,0,-1,1266,1296,0,0
49,-272,0,0,0,0,0,0,0,0,0,-1,1273,1296,0,0
56,-272,0,0,0,0,0,0,0,0,0,-1,1280,1296,0,0
63,-272,0,0,0,0,0,0,0,0,0,-1,1287,1296,0,0
70,-272,0,0,0,0,0,0,0,0,0,-1,1294,1296,0,0
77,-272,0,0,0,0,0,0,0,0,0,-1,1301,1296,0,0
84,-272,0,0,0,0,0,0,0,0,0,-1,1308,1296,0,0
91,-272,0,0,0,0,0,0,0,0,0,-1,1315,1296,0,0
98,-272,0,0,0,0,0,0,0,0,0,-1,1322,1296,0,0
105,-272,0,0,0,0,0,0,0,0,0,-1,1329,1296,0,0
112,-272,0,0,0,0,0,0,0,0,0,-1,1336,1296,0,0
119,-272,0,0,0,0,0,0,0,0,0,-1,1343,1296,0,0
126,-272,0,0,0,0,0,0,0,0,0,-1,1350,1296,0,0
133,-272,0,0,0,0,0,0,0,0,0,-1,1357,1296,0,0
140,-272,0,0,0,0,0,0,0,0,0,-1,1364,1296,0,0
147,-272,0,0,0,0,0,0,0,0,0,-1,1371,1296,0,0
154,-272,0,0,0,0,0,0,0,0,0,-1,1378,1296,0,0
161,-272,0,0,0,0,0,0,0,0,0,-1,1385,1296,0,0
168,-272,0,0,0,0,0,0,0,0,0,-1,1392,1296,0,0
175,-272,0,0,0,0,0,0,0,0,0,-1,1399,1296,0,0
182,-272,0,0,0,0,0,0,0,0,0,-1,1406,1296,0,0
189,-272,0,0,0,0,0,0,0,0,0,-1,1413,1296,0,0
196,-272,0,0,0,0,0,0,0,0,0,-1,1420,1296,0,0
203,-272,0,0,0,0,0,0,0,0,0,-1,1427,1296,0,0
210,-272,0,0,0,0,0,0,0,0,0,-1,1434,1296,0,0
217,-272,0,0,0,0,0,0,0,0,0,-1,1441,1296,0,0
224,-272,0,0,0,0,0,0,0,0,0,-1,1448,1296,0,0
231,-272,0,0,0,0,0,0,0,0,0,-1,1455,1296,0,0
238,-272,0,0,0,0,0,0,0,0,0,-1,1462,1296,0,0
245,-272,0,0,0,0,0,0,0,0,0,-1,1469,1296,0,0
252,-272,0,0,0,0,0,0,0,0,0,-1,1476,1296,0,0
259,-272,0,0,0,0,0,0,0,0,0,-1,1483,1296,0,0
266,-272,0,0,0,0,0,0,0,0,0,-1,1490,1296,0,0
273,-272,0,0,0,0,0,0,0,0,0,-1,1497,1296,0,0
280,-272,0,0,0,0,0,0,0,0,0,-1,1504,1296,0,0
287,-272,0,0,0,0,0,0,0,0,0,-1,1511,1296,0,0
294,-272,0,0,0,0,0,0,0,0,0,-1,1518,1296,0,0
301,-272,0,0,0,0,0,0,0,0,0,-1,1525,1296,0,0
308,-272,0,0,0,0,0,0,0,0,0,-1,1532,1296,0,0
315,-272,0,0,0,0,0,0,0,0,0,-1,1539,1296,0,0
322,-272,0,0,0,0,0,0,0,0,0,-1,1546,1296,0,0
329,-272,0,0,0,0,0,0,0,0,0,-1,1553,1296,0,0
336,-272,0,0,0,0,0,0,0,0,0,-1,1560,1296,0,0
343,-272,0,0,0,0,0,0,0,0,0,-1,1567,1296,0,0
350,-272,0,0,0,0,0,0,0,0,0,-1,1574,1296,0,0
357,-272,0,0,0,0,0,0,0,0,0,-1,1581,1296,0,0
364,-272,0,0,0,0,0,0,0,0,0,-1,1588,1296,0,0
371,-272,0,0,0,0,0,0,0,0,0,-1,1595,1296,0,0
378,-272,0,0,0,0,0,0,0,0,0,-1,1602,1296,0,0
385,-272,0,0,0,0,0,0,0,0,0,-1,1609,1296,0,0
392,-272,0,0,0,0,0,0,0,0,0,-1,1616,1296,0,0
399,-272,0,0,0,0,0,0,0,0,0,-1,1623,1296,0,0
406,-272,0,0,0,0,0,0,0,0,0,-1,1630,1296,0,0
413,-272,0,0,0,0,0,0,0,0,0,-1,1637,1296,0,0
420,-272,0,0,0,0,0,0,0,0,0,-1,1644,1296,0,0
427,-272,0,0,0,0,0,0,0,0,0,-1,1651,1296,0,0
434,-272,0,0,0,0,0,0,0,0,0,-1,1658,1296,0,0
441,-272,0,0,0,0,0,0,0,0,0,-1,1665,1296,0,0
448,-272,0,0,0,0,0,0,0,0,0,-1,1672,1296,0,0
455,-272,0,0,0,0,0,0,0,0,0,-1,1679,1296,0,0
462,-272,0,0,0,0,0,0,0,0,0,-1,1686,1296,0,0
469,-272,0,0,0,0,0,0,0,0,0,-1,1693,1296,0,0
476,-272,0,0,0,0,0,0,0,0,0,-1,1700,1296,0,0
483,-272,0,0,0,0,0,0,0,0,0,-1,1707,1296,0,0
490,-272,0,0,0,0,0,0,0,0,0,-1,1714,1296,0,0
497,-272,0,0,0,0,0,0,0,0,0,-1,1721,1296,0,0
504,-272,0,0,0,0,0,0,0,0,0,-1,1728,1296,0,0
511,-272,0,0,0,0,0,0,0,0,0,-1,1735,1296,0,0
518,-272,0,0,0,0,0,0,0,0,0,-1,1742,1296,0,0
525,-272,0,0,0,0,0,0,0,0,0,-1,1749,1296,0,0
532,-272,0,0,0,0,0,0,0,0,0,-1,1756,1296,0,0
539,-272,0,0,0,0,0,0,0,0,0,-1,1763,1296,0,0
546,-272,0,0,0,0,0,0,0,0,0,-1,1770,1296,0,0
553,-272,0,0,0,0,0,0,0,0,0,-1,1777,1296,0,0
560,-272,0,0,0,0,0,0,0,0,0,-1,1784,1296,0,0
567,-272,0,0,0,0,0,0,0,0,0,-1,1791,1296,0,0
574,-272,0,0,0,0,0,0,0,0,0,-1,1798,1296,0,0
581,-272,0,0,0,0,0,0,0,0,0,-1,1805,1296,0,0
588,-272,0,0,0,0,0,0,0,0,0,-1,1812,1296,0,0
595,-272,0,0,0,0,0,0,0,0,0,-1,1819,1296,0,0
602,-272,30.6514,2.93555,0.0306736,0.0296068,-0.0277198,0.0578651,0.0024153,-0.775778,0.0377974,0.030778,1826,1296,30.6514,-2.9356
609,-272,30.6901,2.92847,0.0165058,0.0182103,-0.0255157,0.042888,-0.00817192,-0.802093,0.0316694,0.0393962,1833,1296,30.6901,-2.92844
616,-272,30.7188,2.83618,0.00115236,0.0100859,-0.0194273,0.0255533,-0.0143151,-0.898395,0.0233209,0.0441328,1840,1296,30.7187,-2.83615
623,-272,31.0991,2.98962,-0.0112276,0.0044118,-0.0121029,0.0110014,-0.0178172,-1.07221,0.0167928,0.0424881,1847,1296,31.0991,-2.98962
630,-272,30.9698,3.06677,-0.0200643,0.00102469,-0.00512676,0.00220496,-0.0212446,-1.34452,0.0149523,0.0434847,1854,1296,30.9698,-3.06681
637,-272,30.2834,3.21375,-0.0236873,-0.000443531,-0.000411387,-0.000436252,-0.0236946,-1.5531,0.015653,0.0443625,1861,1296,30.2835,-3.21372
644,-272,29.553,3.42236,-0.0248752,-0.0010974,0.0028171,-0.000768197,-0.0252044,1.45447,0.0165528,0.0478535,1868,1296,29.5529,-3.42241
651,-272,28.2357,3.56152,-0.0249109,-0.00173331,0.00519494,-0.000622198,-0.0260221,1.36009,0.0171444,0.0479673,1875,1296,28.2357,-3.56152
658,-272,26.7163,3.58569,0,0,0,0,0,0,0,-1,1882,1296,26.7163,-3.58566
665,-272,22.0238,4.14417,0,0,0,0,0,0,0,-1,1889,1296,22.0238,-4.14421
672,-272,22.661,7.21765,0,0,0,0,0,0,0,-1,1896,1296,22.661,-7.21761
679,-272,23.3499,7.69604,0,0,0,0,0,0,0,-1,1903,1296,23.3499,-7.69609
686,-272,23.3219,7.39819,-0.0157043,0.00115423,0.00774822,0.0041743,-0.0187244,1.19913,0.0140821,0.0161545,1910,1296,23.3219,-7.39816
693,-272,23.2977,7.10986,-0.0107398,0.00122845,0.00575182,0.00354452,-0.0130558,1.18799,0.010095,0.0114927,1917,1296,23.2977,-7.10985
700,-272,23.2937,6.84985,-0.00591653,0.000736845,0.00382117,0.00247654,-0.00765622,1.14356,0.00609961,0.0116937,1924,1296,23.2937,-6.84979
707,-272,23.3313,6.54651,-0.00213093,0.000405681,0.00207199,0.00156673,-0.00329198,1.06004,0.00286352,0.0108079,1931,1296,23.3313,-6.54656
714,-272,23.3394,6.25476,-0.00100447,-0.000509747,0.00103851,0.00031045,-0.00182467,0.902315,0.00133205,0.0107929,1938,1296,23.3394,-6.2548
721,-272,23.316,5.99768,-0.000736327,-0.000594245,0.000964744,0.00030207,-0.00163264,0.82215,0.00120184,0.0123834,1945,1296,23.3161,-5.9977
728,-272,23.3093,5.71643,0.00075909,-0.00177765,0.00196308,0.00182791,-0.00284647,0.498579,0.00272002,0.0152455,1952,1296,23.3093,-5.71638
735,-272,23.2914,5.45874,0.00385052,-0.00405436,0.00374338,0.00534185,-0.0055457,0.37912,0.0062863,0.0140118,1959,1296,23.2914,-5.45876
742,-272,23.23,5.20435,0.00762208,-0.00661998,0.00573263,0.00964283,-0.00864072,0.3389,0.0105613,0.0250336,1966,1296,23.2299,-5.20441
749,-272,23.2021,5.32556,0.0141045,-0.0107359,0.00880696,0.01691,-0.0135415,0.308398,0.017617,0.0469011,1973,1296,23.2022,-5.32556
756,-272,23.3549,5.54077,0,0,0,0,0,0,0,-1,1980,1296,23.3549,-5.54076
763,-272,23.5227,5.00439,0,0,0,0,0,0,0,-1,1987,1296,23.5227,-5.00439
770,-272,32.6487,4.39661,0,0,0,0,0,0,0,-1,1994,1296,32.6487,-4.39655
777,-272,32.3619,6.13257,0,0,0,0,0,0,0,-1,2001,1296,32.362,-6.1326
784,-272,0,0,0,0,0,0,0,0,0,-1,2008,1296,0,0
791,-272,0,0,0,0,0,0,0,0,0,-1,2015,1296,0,0
798,-272,0,0,0,0,0,0,0,0,0,-1,2022,1296,0,0
805,-272,0,0,0,0,0,0,0,0,0,-1,2029,1296,0,0
812,-272,0,0,0,0,0,0,0,0,0,-1,2036,1296,0,0
-700,-279,0,0,0,0,0,0,0,0,0,-1,524,1303,0,0
-693,-279,0,0,0,0,0,0,0,0,0,-1,531,1303,0,0
-686,-279,0,0,0,0,0,0,0,0,0,-1,538,1303,0,0
-679,-279,0,0,0,0,0,0,0,0,0,-1,545,1303,0,0
-672,-279,0,0,0,0,0,0,0,0,0,-1,552,1303,0,0
-665,-279,0,0,0,0,0,0,0,0,0,-1,559,1303,0,0
-658,-279,-14.9115,0.425903,0.0922988,-5.76908e-05,0.0477892,0.112575,-0.0203342,0.40127,0.0826662,0.0446772,566,1303,-14.9115,-0.425874
-651,-279,-14.4741,0.847534,0.0794487,-0.00352252,0.0395975,0.095313,-0.0193869,0.381058,0.0708935,0.0426039,573,1303,-14.4741,-0.847477
-644,-279,-14.06,1.35669,0.0670126,-0.00472996,0.0329557,0.0798529,-0.0175703,0.371531,0.0599565,0.0443301,580,1303,-14.06,-1.35665
-637,-279,-13.4015,1.89185,0.0554349,-0.00449392,0.0272202,0.0659527,-0.0150117,0.368723,0.0497334,0.0477064,587,1303,-13.4015,-1.89187
-630,-279,-12.7786,2.17627,0,0,0,0,0,0,0,-1,594,1303,-12.7786,-2.17632
-623,-279,-13.4805,2.41614,0,0,0,0,0,0,0,-1,601,1303,-13.4806,-2.4162
-616,-279,-13.3544,2.57861,0.0256623,-0.00161738,0.0131524,0.0309706,-0.00692565,0.383603,0.0233012,0.0468998,608,1303,-13.3544,-2.57857
-609,-279,-13.0737,2.81042,0.0171121,-0.000613139,0.00903105,0.0209028,-0.00440382,0.397406,0.0156115,0.0363711,615,1303,-13.0737,-2.81045
-602,-279,-12.8325,3.14258,0.0102128,-0.000663722,0.00562532,0.0125988,-0.00304972,0.401153,0.00957897,0.0139941,622,1303,-12.8325,-3.14261
-595,-279,-12.8548,3.44995,0.00585073,-0.000628175,0.00341333,0.00731711,-0.00209456,0.405764,0.00570588,0.010409,629,1303,-12.8548,-3.44997
-588,-279,-12.8373,3.77466,0.00184988,0.000664379,0.00164298,0.00300376,-0.000489501,0.612275,0.00218404,0.0107611,636,1303,-12.8373,-3.77461
-581,-279,-12.8654,4.08606,0.000604728,0.00120055,0.000981056,0.00192793,-0.000122651,0.932806,0.00132806,0.0118225,643,1303,-12.8654,-4.08601
-574,-279,-12.8917,4.39197,0.00144597,0.000835771,0.00103295,0.00221794,6.38032e-05,0.641798,0.00145782,0.0113113,650,1303,-12.8917,-4.39192
-567,-279,-12.8777,4.69946,0.00221512,0.000562324,0.00114737,0.00280272,-2.52764e-05,0.473303,0.00187696,0.0147965,657,1303,-12.8777,-4.69945
-560,-279,-12.887,5.03821,0.00261041,0.000547877,0.00121411,0.00317212,-1.38369e-05,0.433326,0.00211938,0.0152464,664,1303,-12.887,-5.03819
-553,-279,-12.8835,5.37939,0.00241595,0.000738076,0.00143638,0.00324045,-8.6417e-05,0.521088,0.00218967,0.0116682,671,1303,-12.8836,-5.3794
-546,-279,-12.8697,5.71118,0.00127855,0.000996658,0.00177734,0.00292052,-0.000645316,0.74583,0.00219399,0.016704,678,1303,-12.8697,-5.7112
-539,-279,-12.9254,6.07031,0,0,0,0,0,0,0,-1,685,1303,-12.9253,-6.07036
-532,-279,-12.4101,5.90576,0,0,0,0,0,0,0,-1,692,1303,-12.4101,-5.90578
-525,-279,-11.7063,-0.539185,0,0,0,0,0,0,0,-1,699,1303,-11.7063,0.539166
-518,-279,-16.8138,1.11963,0,0,0,0,0,0,0,-1,706,1303,-16.8138,-1.11968
-511,-279,-18.0964,-1.23474,0,0,0,0,0,0,0,-1,713,1303,-18.0964,1.23471
-504,-279,-18.3766,1.04578,0,0,0,0,0,0,0,-1,720,1303,-18.3767,-1.04577
-497,-279,-19.0046,2.08911,0,0,0,0,0,0,0,-1,727,1303,-19.0046,-2.08905
-490,-279,-20.0176,2.55188,0,0,0,0,0,0,0,-1,734,1303,-20.0176,-2.55183
-483,-279,-20.8064,2.99792,0,0,0,0,0,0,0,-1,741,1303,-20.8064,-2.99797
-476,-279,0,0,0,0,0,0,0,0,0,-1,748,1303,0,0
-469,-279,0,0,0,0,0,0,0,0,0,-1,755,1303,0,0
-462,-279,0,0,0,0,0,0,0,0,0,-1,762,1303,0,0
-455,-279,0,0,0,0,0,0,0,0,0,-1,769,1303,0,0
-448,-279,0,0,0,0,0,0,0,0,0,-1,776,1303,0,0
-441,-279,0,0,0,0,0,0,0,0,0,-1,783,1303,0,0
-434,-279,0,0,0,0,0,0,0,0,0,-1,790,1303,0,0
-427,-279,0,0,0,0,0,0,0,0,0,-1,797,1303,0,0
-420,-279,0,0,0,0,0,0,0,0,0,-1,804,1303,0,0
-413,-279,0,0,0,0,0,0,0,0,0,-1,811,1303,0,0
-406,-279,0,0,0,0,0,0,0,0,0,-1,818,1303,0,0
-399,-279,0,0,0,0,0,0,0,0,0,-1,825,1303,0,0
-392,-279,0,0,0,0,0,0,0,0,0,-1,832,1303,0,0
-385,-279,0,0,0,0,0,0,0,0,0,-1,839,1303,0,0
-378,-279,0,0,0,0,0,0,0,0,0,-1,846,1303,0,0
-371,-279,0,0,0,0,0,0,0,0,0,-1,853,1303,0,0
-364,-279,0,0,0,0,0,0,0,0,0,-1,860,1303,0,0
-357,-279,0,0,0,0,0,0,0,0,0,-1,867,1303,0,0
-350,-279,0,0,0,0,0,0,0,0,0,-1,874,1303,0,0
-343,-279,0,0,0,0,0,0,0,0,0,-1,881,1303,0,0
-336,-279,0,0,0,0,0,0,0,0,0,-1,888,1303,0,0
-329,-279,0,0,0,0,0,0,0,0,0,-1,895,1303,0,0
-322,-279,0,0,0,0,0,0,0,0,0,-1,902,1303,0,0
-315,-279,0,0,0,0,0,0,0,0,0,-1,909,1303,0,0
-308,-279,0,0,0,0,0,0,0,0,0,-1,916,1303,0,0
-301,-279,0,0,0,0,0,0,0,0,0,-1,923,1303,0,0
-294,-279,0,0,0,0,0,0,0,0,0,-1,930,1303,0,0
-287,-279,0,0,0,0,0,0,0,0,0,-1,937,1303,0,0
-280,-279,0,0,0,0,0,0,0,0,0,-1,944,1303,0,0
-273,-279,0,0,0,0,0,0,0,0,0,-1,951,1303,0,0
-266,-279,0,0,0,0,0,0,0,0,0,-1,958,1303,0,0
-259,-279,0,0,0,0,0,0,0,0,0,-1,965,1303,0,0
-252,-279,0,0,0,0,0,0,0,0,0,-1,972,1303,0,0
-245,-279,0,0,0,0,0,0,0,0,0,-1,979,1303,0,0
-238,-279,0,0,0,0,0,0,0,0,0,-1,986,1303,0,0
-231,-279,0,0,0,0,0,0,0,0,0,-1,993,1303,0,0
-224,-279,0,0,0,0,0,0,0,0,0,-1,1000,1303,0,0
-217,-279,0,0,0,0,0,0,0,0,0,-1,1007,1303,0,0
-210,-279,0,0,0,0,0,0,0,0,0,-1,1014,1303,0,0
-203,-279,0,0,0,0,0,0,0,0,0,-1,1021,1303,0,0
-196,-279,0,0,0,0,0,0,0,0,0,-1,1028,1303,0,0
-189,-279,0,0,0,0,0,0,0,0,0,-1,1035,1303,0,0
-182,-279,0,0,0,0,0,0,0,0,0,-1,1042,1303,0,0
-175,-279,0,0,0,0,0,0,0,0,0,-1,1049,1303,0,0
-168,-279,0,0,0,0,0,0,0,0,0,-1,1056,1303,0,0
-161,-279,0,0,0,0,0,0,0,0,0,-1,1063,1303,0,0
-154,-279,0,0,0,0,0,0,0,0,0,-1,1070,1303,0,0
-147,-279,0,0,0,0,0,0,0,0,0,-1,1077,1303,0,0
-140,-279,0,0,0,0,0,0,0,0,0,-1,1084,1303,0,0
-133,-279,0,0,0,0,0,0,0,0,0,-1,1091,1303,0,0
-126,-279,0,0,0,0,0,0,0,0,0,-1,1098,1303,0,0
-119,-279,0,0,0,0,0,0,0,0,0,-1,1105,1303,0,0
-112,-279,0,0,0,0,0,0,0,0,0,-1,1112,1303,0,0
-105,-279,0,0,0,0,0,0,0,0,0,-1,1119,1303,0,0
-98,-279,0,0,0,0,0,0,0,0,0,-1,1126,1303,0,0
-91,-279,0,0,0,0,0,0,0,0,0,-1,1133,1303,0,0
-84,-279,0,0,0,0,0,0,0,0,0,-1,1140,1303,0,0
-77,-279,0,0,0,0,0,0,0,0,0,-1,1147,1303,0,0
-70,-279,0,0,0,0,0,0,0,0,0,-1,1154,1303,0,0
-63,-279,0,0,0,0,0,0,0,0,0,-1,1161,1303,0,0
-56,-279,0,0,0,0,0,0,0,0,0,-1,1168,1303,0,0
-49,-279,0,0,0,0,0,0,0,0,0,-1,1175,1303,0,0
-42,-279,0,0,0,0,0,0,0,0,0,-1,1182,1303,0,0
-35,-279,0,0,0,0,0,0,0,0,0,-1,1189,1303,0,0
-28,-279,0,0,0,0,0,0,0,0,0,-1,1196,1303,0,0
-21,-279,0,0,0,0,0,0,0,0,0,-1,1203,1303,0,0
-14,-279,0,0,0,0,0,0,0,0,0,-1,1210,1303,0,0
-7,-279,0,0,0,0,0,0,0,0,0,-1,1217,1303,0,0
0,-279,0,0,0,0,0,0,0,0,0,-1,1224,1303,0,0
7,-279,0,0,0,0,0,0,0,0,0,-1,1231,1303,0,0
14,-279,0,0,0,0,0,0,0,0,0,-1,1238,1303,0,0
21,-279,0,0,0,0,0,0,0,0,0,-1,1245,1303,0,0
28,-279,0,0,0,0,0,0,0,0,0,-1,1252,1303,0,0
35,-279,0,0,0,0,0,0,0,0,0,-1,1259,1303,0,0
42,-279,0,0,0,0,0,0,0,0,0,-1,1266,1303,0,0
49,-279,0,0,0,0,0,0,0,0,0,-1,1273,1303,0,0
56,-279,0,0,0,0,0,0,0,0,0,-1,1280,1303,0,0
63,-279,0,0,0,0,0,0,0,0,0,-1,1287,1303,0,0
70,-279,0,0,0,0,0,0,0,0,0,-1,1294,1303,0,0
77,-279,0,0,0,0,0,0,0,0,0,-1,1301,1303,0,0
84,-279,0,0,0,0,0,0,0,0,0,-1,1308,1303,0,0
91,-279,0,0,0,0,0,0,0,0,0,-1,1315,1303,0,0
98,-279,0,0,0,0,0,0,0,0,0,-1,1322,1303,0,0
105,-279,0,0,0,0,0,0,0,0,0,-1,1329,1303,0,0
112,-279,0,0,0,0,0,0,0,0,0,-1,1336,1303,0,0
119,-279,0,0,0,0,0,0,0,0,0,-1,1343,1303,0,0
126,-279,0,0,0,0,0,0,0,0,0,-1,1350,1303,0,0
133,-279,0,0,0,0,0,0,0,0,0,-1,1357,1303,0,0
140,-279,0,0,0,0,0,0,0,0,0,-1,1364,1303,0,0
147,-279,0,0,0,0,0,0,0,0,0,-1,1371,1303,0,0
154,-279,0,0,0,0,0,0,0,0,0,-1,1378,1303,0,0
161,-279,0,0,0,0,0,0,0,0,0,-1,1385,1303,0,0
168,-279,0,0,0,0,0,0,0,0,0,-1,1392,1303,0,0
175,-279,0,0,0,0,0,0,0,0,0,-1,1399,1303,0,0
182,-279,0,0,0,0,0,0,0,0,0,-1,1406,1303,0,0
189,-279,0,0,0,0,0,0,0,0,0,-1,1413,1303,0,0
196,-279,0,0,0,0,0,0,0,0,0,-1,1420,1303,0,0
203,-279,0,0,0,0,0,0,0,0,0,-1,1427,1303,0,0
210,-279,0,0,0,0,0,0,0,0,0,-1,1434,1303,0,0
217,-279,0,0,0,0,0,0,0,0,0,-1,1441,1303,0,0
224,-279,0,0,0,0,0,0,0,0,0,-1,1448,1303,0,0
231,-279,0,0,0,0,0,0,0,0,0,-1,1455,1303,0,0
238,-279,0,0,0,0,0,0,0,0,0,-1,1462,1303,0,0
245,-279,0,0,0,0,0,0,0,0,0,-1,1469,1303,0,0
252,-279,0,0,0,0,0,0,0,0,0,-1,1476,1303,0,0
259,-279,0,0,0,0,0,0,0,0,0,-1,1483,1303,0,0
266,-279,0,0,0,0,0,0,0,0,0,-1,1490,1303,0,0
273,-279,0,0,0,0,0,0,0,0,0,-1,1497,1303,0,0
280,-279,0,0,0,0,0,0,0,0,0,-1,1504,1303,0,0
287,-279,0,0,0,0,0,0,0,0,0,-1,1511,1303,0,0
294,-279,0,0,0,0,0,0,0,0,0,-1,1518,1303,0,0
301,-279,0,0,0,0,0,0,0,0,0,-1,1525,1303,0,0
308,-279,0,0,0,0,0,0,0,0,0,-1,1532,1303,0,0
315,-279,0,0,0,0,0,0,0,0,0,-1,1539,1303,0,0
322,-279,0,0,0,0,0,0,0,0,0,-1,1546,1303,0,0
329,-279,0,0,0,0,0,0,0,0,0,-1,1553,1303,0,0
336,-279,0,0,0,0,0,0,0,0,0,-1,1560,1303,0,0
343,-279,0,0,0,0,0,0,0,0,0,-1,1567,1303,0,0
350,-279,0,0,0,0,0,0,0,0,0,-1,1574,1303,0,0
357,-279,0,0,0,0,0,0,0,0,0,-1,1581,1303,0,0
364,-279,0,0,0,0,0,0,0,0,0,-1,1588,1303,0,0
371,-279,0,0,0,0,0,0,0,0,0,-1,1595,1303,0,0
378,-279,0,0,0,0,0,0,0,0,0,-1,1602,1303,0,0
385,-279,0,0,0,0,0,0,0,0,0,-1,1609,1303,0,0
392,-279,0,0,0,0,0,0,0,0,0,-1,1616,1303,0,0
399,-279,0,0,0,0,0,0,0,0,0,-1,1623,1303,0,0
406,-279,0,0,0,0,0,0,0,0,0,-1,1630,1303,0,0
413,-279,0,0,0,0,0,0,0,0,0,-1,1637,1303,0,0
420,-279,0,0,0,0,0,0,0,0,0,-1,1644,1303,0,0
427,-279,0,0,0,0,0,0,0,0,0,-1,1651,1303,0,0
434,-279,0,0,0,0,0,0,0,0,0,-1,1658,1303,0,0
441,-279,0,0,0,0,0,0,0,0,0,-1,1665,1303,0,0
448,-279,0,0,0,0,0,0,0,0,0,-1,1672,1303,0,0
455,-279,0,0,0,0,0,0,0,0,0,-1,1679,1303,0,0
462,-279,0,0,0,0,0,0,0,0,0,-1,1686,1303,0,0
469,-279,0,0,0,0,0,0,0,0,0,-1,1693,1303,0,0
476,-279,0,0,0,0,0,0,0,0,0,-1,1700,1303,0,0
483,-279,0,0,0,0,0,0,0,0,0,-1,1707,1303,0,0
490,-279,0,0,0,0,0,0,0,0,0,-1,1714,1303,0,0
497,-279,0,0,0,0,0,0,0,0,0,-1,1721,1303,0,0
504,-279,0,0,0,0,0,0,0,0,0,-1,1728,1303,0,0
511,-279,0,0,0,0,0,0,0,0,0,-1,1735,1303,0,0
518,-279,0,0,0,0,0,0,0,0,0,-1,1742,1303,0,0
525,-279,0,0,0,0,0,0,0,0,0,-1,1749,1303,0,0
532,-279,0,0,0,0,0,0,0,0,0,-1,1756,1303,0,0
539,-279,0,0,0,0,0,0,0,0,0,-1,1763,1303,0,0
546,-279,0,0,0,0,0,0,0,0,0,-1,1770,1303,0,0
553,-279,0,0,0,0,0,0,0,0,0,-1,1777,1303,0,0
560,-279,0,0,0,0,0,0,0,0,0,-1,1784,1303,0,0
567,-279,0,0,0,0,0,0,0,0,0,-1,1791,1303,0,0
574,-279,0,0,0,0,0,0,0,0,0,-1,1798,1303,0,0
581,-279,0,0,0,0,0,0,0,0,0,-1,1805,1303,0,0
588,-279,0,0,0,0,0,0,0,0,0,-1,1812,1303,0,0
595,-279,0,0,0,0,0,0,0,0,0,-1,1819,1303,0,0
602,-279,30.7202,2.97021,0,0,0,0,0,0,0,-1,1826,1303,30.7202,-2.9702
609,-279,30.6396,2.88123,0,0,0,0,0,0,0,-1,1833,1303,30.6397,-2.88122
616,-279,30.7098,2.5769,0.000167581,0.0111683,-0.0249717,0.0312383,-0.0199024,-0.893799,0.0297669,0.0493967,1840,1303,30.7099,-2.57696
623,-279,31.4858,2.86853,-0.0106087,0.00513004,-0.0172602,0.0162302,-0.0217089,-0.999284,0.0219801,0.0440478,1847,1303,31.4859,-2.86852
630,-279,31.1608,3.2832,-0.0180548,0.00134843,-0.00996206,0.00555236,-0.0222587,-1.17147,0.016995,0.0459293,1854,1303,31.1608,-3.28324
637,-279,30.6396,2.98657,0,0,0,0,0,0,0,-1,1861,1303,30.6397,-2.98661
644,-279,29.4789,3.51196,0,0,0,0,0,0,0,-1,1868,1303,29.4788,-3.51198
651,-279,27.979,3.85693,0,0,0,0,0,0,0,-1,1875,1303,27.979,-3.85695
658,-279,21.5076,7.65649,0,0,0,0,0,0,0,-1,1882,1303,21.5076,-7.65648
665,-279,18.9794,6.09607,0,0,0,0,0,0,0,-1,1889,1303,18.9793,-6.09601
672,-279,23.5206,8.32507,0,0,0,0,0,0,0,-1,1896,1303,23.5206,-8.32512
679,-279,23.0387,7.72119,0,0,0,0,0,0,0,-1,1903,1303,23.0387,-7.72114
686,-279,23.0447,7.41541,-0.0158139,0.000481132,0.00724952,0.00323946,-0.0185723,1.20723,0.0135906,0.0207354,1910,1303,23.0446,-7.41546
693,-279,23.0062,7.11633,-0.0105829,0.00062053,0.00518073,0.00264896,-0.0126114,1.19761,0.00941561,0.0157188,1917,1303,23.0062,-7.1163
700,-279,22.9996,6.8645,-0.00574558,0.00028048,0.00332849,0.00175713,-0.00722223,1.15325,0.00549499,0.0116618,1924,1303,22.9997,-6.86447
707,-279,23.0293,6.57275,-0.00218288,6.76669e-05,0.00181292,0.00107615,-0.00319137,1.06315,0.00256275,0.00900662,1931,1303,23.0293,-6.5728
714,-279,23.0354,6.26453,-0.00105975,-0.000552919,0.000990464,0.000216033,-0.00182871,0.91064,0.00129716,0.00991791,1938,1303,23.0353,-6.26453
721,-279,23.0447,5.98132,-0.000611375,-0.000627206,0.000896587,0.000277331,-0.00151591,0.780984,0.00111461,0.0129892,1945,1303,23.0447,-5.98137
728,-279,23.0479,5.71887,0.000982127,-0.00176786,0.00180297,0.00187458,-0.00266031,0.459632,0.00263129,0.0146881,1952,1303,23.0478,-5.71884
735,-279,23.0214,5.47021,0.00417966,-0.00400658,0.00341208,0.00541532,-0.00524225,0.347452,0.00615342,0.0147874,1959,1303,23.0213,-5.47019
742,-279,22.9067,5.13379,0.00825736,-0.00663068,0.00522875,0.00991022,-0.00828354,0.306171,0.0105182,0.0305034,1966,1303,22.9067,-5.13375
749,-279,22.7666,5.68896,0,0,0,0,0,0,0,-1,1973,1303,22.7666,-5.68896
756,-279,23.2091,4.43433,0,0,0,0,0,0,0,-1,1980,1303,23.2092,-4.43432
763,-279,20.7946,4.18896,0,0,0,0,0,0,0,-1,1987,1303,20.7945,-4.18899
770,-279,21.5828,3.54199,0,0,0,0,0,0,0,-1,1994,1303,21.5827,-3.54198
777,-279,32.5369,6.99609,0,0,0,0,0,0,0,-1,2001,1303,32.5369,-6.99608
784,-279,0,0,0,0,0,0,0,0,0,-1,2008,1303,0,0
791,-279,0,0,0,0,0,0,0,0,0,-1,2015,1303,0,0
798,-279,0,0,0,0,0,0,0,0,0,-1,2022,1303,0,0
805,-279,0,0,0,0,0,0,0,0,0,-1,2029,1303,0,0
812,-279,0,0,0,0,0,0,0,0,0,-1,2036,1303,0,0
-700,-286,0,0,0,0,0,0,0,0,0,-1,524,1310,0,0
-693,-286,0,0,0,0,0,0,0,0,0,-1,531,1310,0,0
-686,-286,0,0,0,0,0,0,0,0,0,-1,538,1310,0,0
-679,-286,0,0,0,0,0,0,0,0,0,-1,545,1310,0,0
-672,-286,0,0,0,0,0,0,0,0,0,-1,552,1310,0,0
-665,-286,0,0,0,0,0,0,0,0,0,-1,559,1310,0,0
-658,-286,-14.6061,0.0140381,0.100578,-0.00782983,0.0502866,0.120312,-0.0275638,0.373964,0.0908011,0.0476732,566,1310,-14.6062,-0.0139978
-651,-286,-14.2201,0.634644,0.0858568,-0.0100252,0.0424826,0.101971,-0.0261397,0.362553,0.0781649,0.0480144,573,1310,-14.2201,-0.634644
-644,-286,-13.7264,1.57373,0.0723125,-0.00994912,0.036149,0.0859402,-0.0235768,0.360511,0.0665592,0.0450963,580,1310,-13.7264,-1.57378
-637,-286,-13.1108,2.53906,0.0603917,-0.00854522,0.0304831,0.0719373,-0.0200908,0.362058,0.0558725,0.046332,587,1310,-13.1108,-2.53906
-630,-286,-12.4666,3.40308,0,0,0,0,0,0,0,-1,594,1310,-12.4666,-3.40302
-623,-286,-13.883,1.74646,0,0,0,0,0,0,0,-1,601,1310,-13.883,-1.74643
-616,-286,-13.4026,1.93982,0,0,0,0,0,0,0,-1,608,1310,-13.4027,-1.93977
-609,-286,-12.8235,2.57935,0,0,0,0,0,0,0,-1,615,1310,-12.8235,-2.5794
-602,-286,-12.5027,3.04858,0.0121277,-0.00134399,0.00706273,0.0151517,-0.00436795,0.404542,0.011829,0.0158821,622,1310,-12.5027,-3.04855
-595,-286,-12.5482,3.42603,0.00663066,-0.000780832,0.00425698,0.0085689,-0.00271906,0.427257,0.00680257,0.0110948,629,1310,-12.5482,-3.42599
-588,-286,-12.5248,3.75427,0.00174911,0.000842568,0.00191547,0.00326421,-0.000672531,0.669217,0.00243152,0.0121661,636,1310,-12.5248,-3.75423
-581,-286,-12.5059,4.06763,5.49391e-05,0.00149978,0.000978166,0.00199338,-0.000438659,1.10346,0.00149672,0.0142041,643,1310,-12.5059,-4.06764
-574,-286,-12.5448,4.39148,0.000842661,0.00096565,0.000846869,0.00175325,5.5057e-05,0.821642,0.00115092,0.0139032,650,1310,-12.5448,-4.39152
-567,-286,-12.5482,4.71362,0.00161386,0.000531671,0.000794956,0.0020344,0.000111133,0.486584,0.00132078,0.0127127,657,1310,-12.5482,-4.71367
-560,-286,-12.555,5.04211,0.002143,0.000273056,0.000611377,0.00232515,9.09087e-05,0.289555,0.0015207,0.0129673,664,1310,-12.555,-5.04208
-553,-286,-12.5507,5.38098,0.00234374,0.000183772,0.000561611,0.00248104,4.6476e-05,0.239767,0.00163875,0.0102462,671,1310,-12.5507,-5.38097
-546,-286,-12.5491,5.73059,0.00178459,0.000203868,0.000644099,0.00201381,-2.53463e-05,0.341892,0.00135107,0.0146135,678,1310,-12.5491,-5.7306
-539,-286,-12.5448,6.04138,0.000753138,0.000100103,0.000722404,0.00121939,-0.000366148,0.573146,0.000958575,0.0373127,685,1310,-12.5448,-6.04144
-532,-286,-12.4787,6.33557,0,0,0,0,0,0,0,-1,692,1310,-12.4787,-6.33553
-525,-286,-11.4528,-1.11768,0,0,0,0,0,0,0,-1,699,1310,-11.4528,1.11769
-518,-286,-11.0701,1.37329,0,0,0,0,0,0,0,-1,706,1310,-11.0701,-1.37332
-511,-286,-17.7545,-0.0791016,0,0,0,0,0,0,0,-1,713,1310,-17.7544,0.0791606
-504,-286,-18.0455,1.29602,0,0,0,0,0,0,0,-1,720,1310,-18.0455,-1.29601
-497,-286,-18.3367,2.67114,0,0,0,0,0,0,0,-1,727,1310,-18.3366,-2.67118
-490,-286,-19.5795,2.47266,0,0,0,0,0,0,0,-1,734,1310,-19.5795,-2.4727
-483,-286,-19.7277,2.74744,0,0,0,0,0,0,0,-1,741,1310,-19.7277,-2.74747
-476,-286,-20.0391,3.06177,0,0,0,0,0,0,0,-1,748,1310,-20.0391,-3.06178
-469,-286,0,0,0,0,0,0,0,0,0,-1,755,1310,0,0
-462,-286,0,0,0,0,0,0,0,0,0,-1,762,1310,0,0
-455,-286,0,0,0,0,0,0,0,0,0,-1,769,1310,0,0
-448,-286,0,0,0,0,0,0,0,0,0,-1,776,1310,0,0
-441,-286,0,0,0,0,0,0,0,0,0,-1,783,1310,0,0
-434,-286,0,0,0,0,0,0,0,0,0,-1,790,1310,0,0
-427,-286,0,0,0,0,0,0,0,0,0,-1,797,1310,0,0
-420,-286,0,0,0,0,0,0,0,0,0,-1,804,1310,0,0
-413,-286,0,0,0,0,0,0,0,0,0,-1,811,1310,0,0
-406,-286,0,0,0,0,0,0,0,0,0,-1,818,1310,0,0
-399,-286,0,0,0,0,0,0,0,0,0,-1,825,1310,0,0
-392,-286,0,0,0,0,0,0,0,0,0,-1,832,1310,0,0
-385,-286,0,0,0,0,0,0,0,0,0,-1,839,1310,0,0
-378,-286,0,0,0,0,0,0,0,0,0,-1,846,1310,0,0
-371,-286,0,0,0,0,0,0,0,0,0,-1,853,1310,0,0
-364,-286,0,0,0,0,0,0,0,0,0,-1,860,1310,0,0
-357,-286,0,0,0,0,0,0,0,0,0,-1,867,1310,0,0
-350,-286,0,0,0,0,0,0,0,0,0,-1,874,1310,0,0
-343,-286,0,0,0,0,0,0,0,0,0,-1,881,1310,0,0
-336,-286,0,0,0,0,0,0,0,0,0,-1,888,1310,0,0
-329,-286,0,0,0,0,0,0,0,0,0,-1,895,1310,0,0
-322,-286,0,0,0,0,0,0,0,0,0,-1,902,1310,0,0
-315,-286,0,0,0,0,0,0,0,0,0,-1,909,1310,0,0
-308,-286,0,0,0,0,0,0,0,0,0,-1,916,1310,0,0
-301,-286,0,0,0,0,0,0,0,0,0,-1,923,1310,0,0
-294,-286,0,0,0,0,0,0,0,0,0,-1,930,1310,0,0
-287,-286,0,0,0,0,0,0,0,0,0,-1,937,1310,0,0
-280,-286,0,0,0,0,0,0,0,0,0,-1,944,1310,0,0
-273,-286,0,0,0,0,0,0,0,0,0,-1,951,1310,0,0
-266,-286,0,0,0,0,0,0,0,0,0,-1,958,1310,0,0
-259,-286,0,0,0,0,0,0,0,0,0,-1,965,1310,0,0
-252,-286,0,0,0,0,0,0,0,0,0,-1,972,1310,0,0
-245,-286,0,0,0,0,0,0,0,0,0,-1,979,1310,0,0
-238,-286,0,0,0,0,0,0,0,0,0,-1,986,1310,0,0
-231,-286,0,0,0,0,0,0,0,0,0,-1,993,1310,0,0
-224,-286,0,0,0,0,0,0,0,0,0,-1,1000,1310,0,0
-217,-286,0,0,0,0,0,0,0,0,0,-1,1007,1310,0,0
-210,-286,0,0,0,0,0,0,0,0,0,-1,1014,1310,0,0
-203,-286,0,0,0,0,0,0,0,0,0,-1,1021,1310,0,0
-196,-286,0,0,0,0,0,0,0,0,0,-1,1028,1310,0,0
-189,-286,0,0,0,0,0,0,0,0,0,-1,1035,1310,0,0
-182,-286,0,0,0,0,0,0,0,0,0,-1,1042,1310,0,0
-175,-286,0,0,0,0,0,0,0,0,0,-1,1049,1310,0,0
-168,-286,0,0,0,0,0,0,0,0,0,-1,1056,1310,0,0
-161,-286,0,0,0,0,0,0,0,0,0,-1,1063,1310,0,0
-154,-286,0,0,0,0,0,0,0,0,0,-1,1070,1310,0,0
-147,-286,0,0,0,0,0,0,0,0,0,-1,1077,1310,0,0
-140,-286,0,0,0,0,0,0,0,0,0,-1,1084,1310,0,0
-133,-286,0,0,0,0,0,0,0,0,0,-1,1091,1310,0,0
-126,-286,0,0,0,0,0,0,0,0,0,-1,1098,1310,0,0
-119,-286,0,0,0,0,0,0,0,0,0,-1,1105,1310,0,0
-112,-286,0,0,0,0,0,0,0,0,0,-1,1112,1310,0,0
-105,-286,0,0,0,0,0,0,0,0,0,-1,1119,1310,0,0
-98,-286,0,0,0,0,0,0,0,0,0,-1,1126,1310,0,0
-91,-286,0,0,0,0,0,0,0,0,0,-1,1133,1310,0,0
-84,-286,0,0,0,0,0,0,0,0,0,-1,1140,1310,0,0
-77,-286,0,0,0,0,0,0,0,0,0,-1,1147,1310,0,0
-70,-286,0,0,0,0,0,0,0,0,0,-1,1154,1310,0,0
-63,-286,0,0,0,0,0,0,0,0,0,-1,1161,1310,0,0
-56,-286,0,0,0,0,0,0,0,0,0,-1,1168,1310,0,0
-49,-286,0,0,0,0,0,0,0,0,0,-1,1175,1310,0,0
-42,-286,0,0,0,0,0,0,0,0,0,-1,1182,1310,0,0
-35,-286,0,0,0,0,0,0,0,0,0,-1,1189,1310,0,0
-28,-286,0,0,0,0,0,0,0,0,0,-1,1196,1310,0,0
-21,-286,0,0,0,0,0,0,0,0,0,-1,1203,1310,0,0
-14,-286,0,0,0,0,0,0,0,0,0,-1,1210,1310,0,0
-7,-286,0,0,0,0,0,0,0,0,0,-1,1217,1310,0,0
0,-286,0,0,0,0,0,0,0,0,0,-1,1224,1310,0,0
7,-286,0,0,0,0,0,0,0,0,0,-1,1231,1310,0,0
14,-286,0,0,0,0,0,0,0,0,0,-1,1238,1310,0,0
21,-286,0,0,0,0,0,0,0,0,0,-1,1245,1310,0,0
28,-286,0,0,0,0,0,0,0,0,0,-1,1252,1310,0,0
35,-286,0,0,0,0,0,0,0,0,0,-1,1259,1310,0,0
42,-286,0,0,0,0,0,0,0,0,0,-1,1266,1310,0,0
49,-286,0,0,0,0,0,0,0,0,0,-1,1273,1310,0,0
56,-286,0,0,0,0,0,0,0,0,0,-1,1280,1310,0,0
63,-286,0,0,0,0,0,0,0,0,0,-1,1287,1310,0,0
70,-286,0,0,0,0,0,0,0,0,0,-1,1294,1310,0,0
77,-286,0,0,0,0,0,0,0,0,0,-1,1301,1310,0,0
84,-286,0,0,0,0,0,0,0,0,0,-1,1308,1310,0,0
91,-286,0,0,0,0,0,0,0,0,0,-1,1315,1310,0,0
98,-286,0,0,0,0,0,0,0,0,0,-1,1322,1310,0,0
105,-286,0,0,0,0,0,0,0,0,0,-1,1329,1310,0,0
112,-286,0,0,0,0,0,0,0,0,0,-1,1336,1310,0,0
119,-286,0,0,0,0,0,0,0,0,0,-1,1343,1310,0,0
126,-286,0,0,0,0,0,0,0,0,0,-1,1350,1310,0,0
133,-286,0,0,0,0,0,0,0,0,0,-1,1357,1310,0,0
140,-286,0,0,0,0,0,0,0,0,0,-1,1364,1310,0,0
147,-286,0,0,0,0,0,0,0,0,0,-1,1371,1310,0,0
154,-286,0,0,0,0,0,0,0,0,0,-1,1378,1310,0,0
161,-286,0,0,0,0,0,0,0,0,0,-1,1385,1310,0,0
168,-286,0,0,0,0,0,0,0,0,0,-1,1392,1310,0,0
175,-286,0,0,0,0,0,0,0,0,0,-1,1399,1310,0,0
182,-286,0,0,0,0,0,0,0,0,0,-1,1406,1310,0,0
189,-286,0,0,0,0,0,0,0,0,0,-1,1413,1310,0,0
196,-286,0,0,0,0,0,0,0,0,0,-1,1420,1310,0,0
203,-286,0,0,0,0,0,0,0,0,0,-1,1427,1310,0,0
210,-286,0,0,0,0,0,0,0,0,0,-1,1434,1310,0,0
217,-286,0,0,0,0,0,0,0,0,0,-1,1441,1310,0,0
224,-286,0,0,0,0,0,0,0,0,0,-1,1448,1310,0,0
231,-286,0,0,0,0,0,0,0,0,0,-1,1455,1310,0,0
238,-286,0,0,0,0,0,0,0,0,0,-1,1462,1310,0,0
245,-286,0,0,0,0,0,0,0,0,0,-1,1469,1310,0,0
252,-286,0,0,0,0,0,0,0,0,0,-1,1476,1310,0,0
259,-286,0,0,0,0,0,0,0,0,0,-1,1483,1310,0,0
266,-286,0,0,0,0,0,0,0,0,0,-1,1490,1310,0,0
273,-286,0,0,0,0,0,0,0,0,0,-1,1497,1310,0,0
280,-286,0,0,0,0,0,0,0,0,0,-1,1504,1310,0,0
287,-286,0,0,0,0,0,0,0,0,0,-1,1511,1310,0,0
294,-286,0,0,0,0,0,0,0,0,0,-1,1518,1310,0,0
301,-286,0,0,0,0,0,0,0,0,0,-1,1525,1310,0,0
308,-286,0,0,0,0,0,0,0,0,0,-1,1532,1310,0,0
315,-286,0,0,0,0,0,0,0,0,0,-1,1539,1310,0,0
322,-286,0,0,0,0,0,0,0,0,0,-1,1546,1310,0,0
329,-286,0,0,0,0,0,0,0,0,0,-1,1553,1310,0,0
336,-286,0,0,0,0,0,0,0,0,0,-1,1560,1310,0,0
343,-286,0,0,0,0,0,0,0,0,0,-1,1567,1310,0,0
350,-286,0,0,0,0,0,0,0,0,0,-1,1574,1310,0,0
357,-286,0,0,0,0,0,0,0,0,0,-1,1581,1310,0,0
364,-286,0,0,0,0,0,0,0,0,0,-1,1588,1310,0,0
371,-286,0,0,0,0,0,0,0,0,0,-1,1595,1310,0,0
378,-286,0,0,0,0,0,0,0,0,0,-1,1602,1310,0,0
385,-286,0,0,0,0,0,0,0,0,0,-1,1609,1310,0,0
392,-286,0,0,0,0,0,0,0,0,0,-1,1616,1310,0,0
399,-286,0,0,0,0,0,0,0,0,0,-1,1623,1310,0,0
406,-286,0,0,0,0,0,0,0,0,0,-1,1630,1310,0,0
413,-286,0,0,0,0,0,0,0,0,0,-1,1637,1310,0,0
420,-286,0,0,0,0,0,0,0,0,0,-1,1644,1310,0,0
427,-286,0,0,0,0,0,0,0,0,0,-1,1651,1310,0,0
434,-286,0,0,0,0,0,0,0,0,0,-1,1658,1310,0,0
441,-286,0,0,0,0,0,0,0,0,0,-1,1665,1310,0,0
448,-286,0,0,0,0,0,0,0,0,0,-1,1672,1310,0,0
455,-286,0,0,0,0,0,0,0,0,0,-1,1679,1310,0,0
462,-286,0,0,0,0,0,0,0,0,0,-1,1686,1310,0,0
469,-286,0,0,0,0,0,0,0,0,0,-1,1693,1310,0,0
476,-286,0,0,0,0,0,0,0,0,0,-1,1700,1310,0,0
483,-286,0,0,0,0,0,0,0,0,0,-1,1707,1310,0,0
490,-286,0,0,0,0,0,0,0,0,0,-1,1714,1310,0,0
497,-286,0,0,0,0,0,0,0,0,0,-1,1721,1310,0,0
504,-286,0,0,0,0,0,0,0,0,0,-1,1728,1310,0,0
511,-286,0,0,0,0,0,0,0,0,0,-1,1735,1310,0,0
518,-286,0,0,0,0,0,0,0,0,0,-1,1742,1310,0,0
525,-286,0,0,0,0,0,0,0,0,0,-1,1749,1310,0,0
532,-286,0,0,0,0,0,0,0,0,0,-1,1756,1310,0,0
539,-286,0,0,0,0,0,0,0,0,0,-1,1763,1310,0,0
546,-286,0,0,0,0,0,0,0,0,0,-1,1770,1310,0,0
553,-286,0,0,0,0,0,0,0,0,0,-1,1777,1310,0,0
560,-286,0,0,0,0,0,0,0,0,0,-1,1784,1310,0,0
567,-286,0,0,0,0,0,0,0,0,0,-1,1791,1310,0,0
574,-286,0,0,0,0,0,0,0,0,0,-1,1798,1310,0,0
581,-286,0,0,0,0,0,0,0,0,0,-1,1805,1310,0,0
588,-286,0,0,0,0,0,0,0,0,0,-1,1812,1310,0,0
595,-286,30.7596,3.0144,0.0392308,0.0511295,-0.0414317,0.0870368,0.00332353,-0.856708,0.056949,0.0388382,1819,1310,30.7596,-3.01445
602,-286,30.8572,2.88501,0.0281205,0.0348446,-0.0419064,0.0735236,-0.0105585,-0.825426,0.0528878,0.045428,1826,1310,30.8572,-2.88498
609,-286,30.9037,2.16675,0.0127499,0.0214498,-0.0388044,0.0561473,-0.0219477,-0.841215,0.046507,0.0476312,1833,1310,30.9037,-2.16675
616,-286,30.6566,2.4187,0,0,0,0,0,0,0,-1,1840,1310,30.6567,-2.4187
623,-286,31.7804,2.4696,0,0,0,0,0,0,0,-1,1847,1310,31.7804,-2.46958
630,-286,31.1815,3.64136,0,0,0,0,0,0,0,-1,1854,1310,31.1815,-3.64139
637,-286,30.7352,3.1217,0,0,0,0,0,0,0,-1,1861,1310,30.7353,-3.12174
644,-286,25.6433,1.33862,0,0,0,0,0,0,0,-1,1868,1310,25.6433,-1.33858
651,-286,25.2507,1.88245,0,0,0,0,0,0,0,-1,1875,1310,25.2508,-1.88245
658,-286,23.816,7.88025,0,0,0,0,0,0,0,-1,1882,1310,23.8161,-7.88021
665,-286,23.6018,7.91199,0,0,0,0,0,0,0,-1,1889,1310,23.6018,-7.91194
672,-286,23.0365,8.16602,-0.0224404,-0.00352812,0.00710541,-0.00115609,-0.0248124,1.2486,0.01617,0.0471776,1896,1310,23.0365,-8.16596
679,-286,22.7283,7.78625,-0.019496,-0.00192584,0.00727687,0.000696549,-0.0221184,1.22491,0.0149832,0.0285798,1903,1310,22.7283,-7.78626
686,-286,22.7498,7.4375,-0.0146254,6.19753e-05,0.00646602,0.00250293,-0.0170664,1.20983,0.0122971,0.0191601,1910,1310,22.7498,-7.43745
693,-286,22.7156,7.13489,-0.0095526,0.000273257,0.00446282,0.00199762,-0.011277,1.20208,0.00826471,0.0152746,1917,1310,22.7156,-7.13484
700,-286,22.7253,6.85388,-0.00515407,9.04512e-05,0.00277653,0.00128727,-0.00635088,1.16381,0.00472187,0.0113227,1924,1310,22.7254,-6.85393
707,-286,22.7499,6.5907,-0.00214088,-9.63202e-06,0.00153702,0.000795031,-0.00294554,1.08851,0.00227548,0.00859872,1931,1310,22.7498,-6.59065
714,-286,22.7393,6.29822,-0.00116131,-0.000387647,0.000918706,0.000222346,-0.0017713,0.984663,0.00126153,0.00851836,1938,1310,22.7393,-6.29817
721,-286,22.745,6.00647,-0.000670769,-0.000493081,0.000817796,0.000240683,-0.00140453,0.839505,0.00102604,0.0107677,1945,1310,22.745,-6.0065
728,-286,22.7404,5.73352,0.000879798,-0.00154058,0.00161041,0.00168405,-0.00234484,0.463175,0.00233648,0.0139554,1952,1310,22.7404,-5.73356
735,-286,22.7776,5.44666,0.00405608,-0.00365036,0.00300668,0.00509033,-0.00468462,0.331308,0.00564519,0.0190219,1959,1310,22.7776,-5.44664
742,-286,22.8101,5.12,0.00834741,-0.00623469,0.00459036,0.00967209,-0.00755937,0.280946,0.00997348,0.0401303,1966,1310,22.8101,-5.11997
749,-286,22.9591,4.52588,0.0157083,-0.0104976,0.00716286,0.0175383,-0.0123276,0.250138,0.0173304,0.0481514,1973,1310,22.9591,-4.52589
756,-286,23.3523,3.92102,0,0,0,0,0,0,0,-1,1980,1310,23.3523,-3.92102
763,-286,20.6671,3.99683,0,0,0,0,0,0,0,-1,1987,1310,20.6671,-3.99683
770,-286,23.9147,4.45679,0,0,0,0,0,0,0,-1,1994,1310,23.9146,-4.45675
777,-286,0,0,0,0,0,0,0,0,0,-1,2001,1310,0,0
784,-286,0,0,0,0,0,0,0,0,0,-1,2008,1310,0,0
791,-286,0,0,0,0,0,0,0,0,0,-1,2015,1310,0,0
798,-286,0,0,0,0,0,0,0,0,0,-1,2022,1310,0,0
805,-286,0,0,0,0,0,0,0,0,0,-1,2029,1310,0,0
812,-286,0,0,0,0,0,0,0,0,0,-1,2036,1310,0,0
-700,-293,0,0,0,0,0,0,0,0,0,-1,524,1317,0,0
-693,-293,0,0,0,0,0,0,0,0,0,-1,531,1317,0,0
-686,-293,0,0,0,0,0,0,0,0,0,-1,538,1317,0,0
-679,-293,0,0,0,0,0,0,0,0,0,-1,545,1317,0,0
-672,-293,0,0,0,0,0,0,0,0,0,-1,552,1317,0,0
-665,-293,0,0,0,0,0,0,0,0,0,-1,559,1317,0,0
-658,-293,0,0,0,0,0,0,0,0,0,-1,566,1317,0,0
-651,-293,-14.082,0.717896,0,0,0,0,0,0,0,-1,573,1317,-14.0819,-0.717919
-644,-293,-13.7255,1.89844,0.0721083,-0.0123565,0.0398059,0.0879111,-0.0281593,0.377915,0.0699105,0.0455159,580,1317,-13.7255,-1.89846
-637,-293,-12.9655,2.78796,0.0615564,-0.0105649,0.0342358,0.0752196,-0.0242281,0.379723,0.0598792,0.0477867,587,1317,-12.9655,-2.78798
-630,-293,-11.7449,3.79395,0,0,0,0,0,0,0,-1,594,1317,-11.745,-3.79398
-623,-293,-12.6348,1.5188,0,0,0,0,0,0,0,-1,601,1317,-12.6347,-1.51877
-616,-293,-12.2252,2.05457,0,0,0,0,0,0,0,-1,608,1317,-12.2252,-2.05454
-609,-293,-11.9874,2.55701,0,0,0,0,0,0,0,-1,615,1317,-11.9874,-2.55707
-602,-293,-12.1127,2.97498,0.0139047,-0.00180275,0.00877475,0.0178271,-0.00572516,0.420365,0.0141837,0.0344732,622,1317,-12.1127,-2.97493
-595,-293,-12.2386,3.40588,0.00739595,-0.000756898,0.0053107,0.0100144,-0.0033753,0.458067,0.00804105,0.0163931,629,1317,-12.2386,-3.40591
-588,-293,-12.226,3.72571,0.00167597,0.00121409,0.0023918,0.00384795,-0.000957892,0.737269,0.00293713,0.0159491,636,1317,-12.2259,-3.72565
-581,-293,-12.196,4.06323,-0.000421729,0.00194082,0.00116959,0.00242188,-0.000902785,1.18058,0.00198516,0.0180514,643,1317,-12.196,-4.06319
-574,-293,-12.1914,4.40332,0.000327639,0.00120934,0.000827764,0.00170633,-0.000169349,1.03008,0.001198,0.0163721,650,1317,-12.1914,-4.40336
-567,-293,-12.2327,4.74231,0.00113624,0.000595776,0.000575959,0.00150221,0.000229806,0.566051,0.000934341,0.0155707,657,1317,-12.2327,-4.74233
-560,-293,-12.2579,5.08081,0.00183206,9.82265e-05,0.000132862,0.00184218,8.81046e-05,0.0760371,0.00119983,0.0160333,664,1317,-12.258,-5.08077
-553,-293,-12.2271,5.39636,0.00244988,-0.000257683,-0.000217181,0.00246719,-0.000274993,-0.0795349,0.0017437,0.0116084,671,1317,-12.2271,-5.39636
-546,-293,-12.2219,5.73315,0.00270059,-0.000505104,-0.000506422,0.00277869,-0.000583204,-0.153013,0.00207437,0.0112146,678,1317,-12.2219,-5.73317
-539,-293,-12.2169,6.03967,0.00281775,-0.000901059,-0.000846523,0.00300138,-0.00108469,-0.213612,0.00244408,0.0298327,685,1317,-12.2169,-6.03968
-532,-293,-12.7128,6.05994,0,0,0,0,0,0,0,-1,692,1317,-12.7128,-6.05994
-525,-293,-8.20642,3.62256,0,0,0,0,0,0,0,-1,699,1317,-8.20639,-3.6226
-518,-293,-10.1053,0.314209,0,0,0,0,0,0,0,-1,706,1317,-10.1053,-0.314234
-511,-293,-11.6276,0.235352,0,0,0,0,0,0,0,-1,713,1317,-11.6276,-0.235372
-504,-293,-17.9086,1.25427,0,0,0,0,0,0,0,-1,720,1317,-17.9086,-1.25423
-497,-293,-18.8006,1.62122,0,0,0,0,0,0,0,-1,727,1317,-18.8006,-1.62119
-490,-293,-18.8961,1.99255,0,0,0,0,0,0,0,-1,734,1317,-18.8961,-1.99251
-483,-293,-19.0831,2.35498,0,0,0,0,0,0,0,-1,741,1317,-19.0831,-2.35497
-476,-293,-19.5228,2.61243,0,0,0,0,0,0,0,-1,748,1317,-19.5228,-2.61237
-469,-293,0,0,0,0,0,0,0,0,0,-1,755,1317,0,0
-462,-293,0,0,0,0,0,0,0,0,0,-1,762,1317,0,0
-455,-293,0,0,0,0,0,0,0,0,0,-1,769,1317,0,0
-448,-293,0,0,0,0,0,0,0,0,0,-1,776,1317,0,0
-441,-293,0,0,0,0,0,0,0,0,0,-1,783,1317,0,0
-434,-293,0,0,0,0,0,0,0,0,0,-1,790,1317,0,0
-427,-293,0,0,0,0,0,0,0,0,0,-1,797,1317,0,0
-420,-293,0,0,0,0,0,0,0,0,0,-1,804,1317,0,0
-413,-293,0,0,0,0,0,0,0,0,0,-1,811,1317,0,0
-406,-293,0,0,0,0,0,0,0,0,0,-1,818,1317,0,0
-399,-293,0,0,0,0,0,0,0,0,0,-1,825,1317,0,0
-392,-293,0,0,0,0,0,0,0,0,0,-1,832,1317,0,0
-385,-293,0,0,0,0,0,0,0,0,0,-1,839,1317,0,0
-378,-293,0,0,0,0,0,0,0,0,0,-1,846,1317,0,0
-371,-293,0,0,0,0,0,0,0,0,0,-1,853,1317,0,0
-364,-293,0,0,0,0,0,0,0,0,0,-1,860,1317,0,0
-357,-293,0,0,0,0,0,0,0,0,0,-1,867,1317,0,0
-350,-293,0,0,0,0,0,0,0,0,0,-1,874,1317,0,0
-343,-293,0,0,0,0,0,0,0,0,0,-1,881,1317,0,0
-336,-293,0,0,0,0,0,0,0,0,0,-1,888,1317,0,0
-329,-293,0,0,0,0,0,0,0,0,0,-1,895,1317,0,0
-322,-293,0,0,0,0,0,0,0,0,0,-1,902,1317,0,0
-315,-293,0,0,0,0,0,0,0,0,0,-1,909,1317,0,0
-308,-293,0,0,0,0,0,0,0,0,0,-1,916,1317,0,0
-301,-293,0,0,0,0,0,0,0,0,0,-1,923,1317,0,0
-294,-293,0,0,0,0,0,0,0,0,0,-1,930,1317,0,0
-287,-293,0,0,0,0,0,0,0,0,0,-1,937,1317,0,0
-280,-293,0,0,0,0,0,0,0,0,0,-1,944,1317,0,0
-273,-293,0,0,0,0,0,0,0,0,0,-1,951,1317,0,0
-266,-293,0,0,0,0,0,0,0,0,0,-1,958,1317,0,0
-259,-293,0,0,0,0,0,0,0,0,0,-1,965,1317,0,0
-252,-293,0,0,0,0,0,0,0,0,0,-1,972,1317,0,0
-245,-293,0,0,0,0,0,0,0,0,0,-1,979,1317,0,0
-238,-293,0,0,0,0,0,0,0,0,0,-1,986,1317,0,0
-231,-293,0,0,0,0,0,0,0,0,0,-1,993,1317,0,0
-224,-293,0,0,0,0,0,0,0,0,0,-1,1000,1317,0,0
-217,-293,0,0,0,0,0,0,0,0,0,-1,1007,1317,0,0
-210,-293,0,0,0,0,0,0,0,0,0,-1,1014,1317,0,0
-203,-293,0,0,0,0,0,0,0,0,0,-1,1021,1317,0,0
-196,-293,0,0,0,0,0,0,0,0,0,-1,1028,1317,0,0
-189,-293,0,0,0,0,0,0,0,0,0,-1,1035,1317,0,0
-182,-293,0,0,0,0,0,0,0,0,0,-1,1042,1317,0,0
-175,-293,0,0,0,0,0,0,0,0,0,-1,1049,1317,0,0
-168,-293,0,0,0,0,0,0,0,0,0,-1,1056,1317,0,0
-161,-293,0,0,0,0,0,0,0,0,0,-1,1063,1317,0,0
-154,-293,0,0,0,0,0,0,0,0,0,-1,1070,1317,0,0
-147,-293,0,0,0,0,0,0,0,0,0,-1,1077,1317,0,0
-140,-293,0,0,0,0,0,0,0,0,0,-1,1084,1317,0,0
-133,-293,0,0,0,0,0,0,0,0,0,-1,1091,1317,0,0
-126,-293,0,0,0,0,0,0,0,0,0,-1,1098,1317,0,0
-119,-293,0,0,0,0,0,0,0,0,0,-1,1105,1317,0,0
-112,-293,0,0,0,0,0,0,0,0,0,-1,1112,1317,0,0
-105,-293,0,0,0,0,0,0,0,0,0,-1,1119,1317,0,0
-98,-293,0,0,0,0,0,0,0,0,0,-1,1126,1317,0,0
-91,-293,0,0,0,0,0,0,0,0,0,-1,1133,1317,0,0
-84,-293,0,0,0,0,0,0,0,0,0,-1,1140,1317,0,0
-77,-293,0,0,0,0,0,0,0,0,0,-1,1147,1317,0,0
-70,-293,0,0,0,0,0,0,0,0,0,-1,1154,1317,0,0
-63,-293,0,0,0,0,0,0,0,0,0,-1,1161,1317,0,0
-56,-293,0,0,0,0,0,0,0,0,0,-1,1168,1317,0,0
-49,-293,0,0,0,0,0,0,0,0,0,-1,1175,1317,0,0
-42,-293,0,0,0,0,0,0,0,0,0,-1,1182,1317,0,0
-35,-293,0,0,0,0,0,0,0,0,0,-1,1189,1317,0,0
-28,-293,0,0,0,0,0,0,0,0,0,-1,1196,1317,0,0
-21,-293,0,0,0,0,0,0,0,0,0,-1,1203,1317,0,0
-14,-293,0,0,0,0,0,0,0,0,0,-1,1210,1317,0,0
-7,-293,0,0,0,0,0,0,0,0,0,-1,1217,1317,0,0
0,-293,0,0,0,0,0,0,0,0,0,-1,1224,1317,0,0
7,-293,0,0,0,0,0,0,0,0,0,-1,1231,1317,0,0
14,-293,0,0,0,0,0,0,0,0,0,-1,1238,1317,0,0
21,-293,0,0,0,0,0,0,0,0,0,-1,1245,1317,0,0
28,-293,0,0,0,0,0,0,0,0,0,-1,1252,1317,0,0
35,-293,0,0,0,0,0,0,0,0,0,-1,1259,1317,0,0
42,-293,0,0,0,0,0,0,0,0,0,-1,1266,1317,0,0
49,-293,0,0,0,0,0,0,0,0,0,-1,1273,1317,0,0
56,-293,0,0,0,0,0,0,0,0,0,-1,1280,1317,0,0
63,-293,0,0,0,0,0,0,0,0,0,-1,1287,1317,0,0
70,-293,0,0,0,0,0,0,0,0,0,-1,1294,1317,0,0
77,-293,0,0,0,0,0,0,0,0,0,-1,1301,1317,0,0
84,-293,0,0,0,0,0,0,0,0,0,-1,1308,1317,0,0
91,-293,0,0,0,0,0,0,0,0,0,-1,1315,1317,0,0
98,-293,0,0,0,0,0,0,0,0,0,-1,1322,1317,0,0
105,-293,0,0,0,0,0,0,0,0,0,-1,1329,1317,0,0
112,-293,0,0,0,0,0,0,0,0,0,-1,1336,1317,0,0
119,-293,0,0,0,0,0,0,0,0,0,-1,1343,1317,0,0
126,-293,0,0,0,0,0,0,0,0,0,-1,1350,1317,0,0
133,-293,0,0,0,0,0,0,0,0,0,-1,1357,1317,0,0
140,-293,0,0,0,0,0,0,0,0,0,-1,1364,1317,0,0
147,-293,0,0,0,0,0,0,0,0,0,-1,1371,1317,0,0
154,-293,0,0,0,0,0,0,0,0,0,-1,1378,1317,0,0
161,-293,0,0,0,0,0,0,0,0,0,-1,1385,1317,0,0
168,-293,0,0,0,0,0,0,0,0,0,-1,1392,1317,0,0
175,-293,0,0,0,0,0,0,0,0,0,-1,1399,1317,0,0
182,-293,0,0,0,0,0,0,0,0,0,-1,1406,1317,0,0
189,-293,0,0,0,0,0,0,0,0,0,-1,1413,1317,0,0
196,-293,0,0,0,0,0,0,0,0,0,-1,1420,1317,0,0
203,-293,0,0,0,0,0,0,0,0,0,-1,1427,1317,0,0
210,-293,0,0,0,0,0,0,0,0,0,-1,1434,1317,0,0
217,-293,0,0,0,0,0,0,0,0,0,-1,1441,1317,0,0
224,-293,0,0,0,0,0,0,0,0,0,-1,1448,1317,0,0
231,-293,0,0,0,0,0,0,0,0,0,-1,1455,1317,0,0
238,-293,0,0,0,0,0,0,0,0,0,-1,1462,1317,0,0
245,-293,0,0,0,0,0,0,0,0,0,-1,1469,1317,0,0
252,-293,0,0,0,0,0,0,0,0,0,-1,1476,1317,0,0
259,-293,0,0,0,0,0,0,0,0,0,-1,1483,1317,0,0
266,-293,0,0,0,0,0,0,0,0,0,-1,1490,1317,0,0
273,-293,0,0,0,0,0,0,0,0,0,-1,1497,1317,0,0
280,-293,0,0,0,0,0,0,0,0,0,-1,1504,1317,0,0
287,-293,0,0,0,0,0,0,0,0,0,-1,1511,1317,0,0
294,-293,0,0,0,0,0,0,0,0,0,-1,1518,1317,0,0
301,-293,0,0,0,0,0,0,0,0,0,-1,1525,1317,0,0
308,-293,0,0,0,0,0,0,0,0,0,-1,1532,1317,0,0
315,-293,0,0,0,0,0,0,0,0,0,-1,1539,1317,0,0
322,-293,0,0,0,0,0,0,0,0,0,-1,1546,1317,0,0
329,-293,0,0,0,0,0,0,0,0,0,-1,1553,1317,0,0
336,-293,0,0,0,0,0,0,0,0,0,-1,1560,1317,0,0
343,-293,0,0,0,0,0,0,0,0,0,-1,1567,1317,0,0
350,-293,0,0,0,0,0,0,0,0,0,-1,1574,1317,0,0
357,-293,0,0,0,0,0,0,0,0,0,-1,1581,1317,0,0
364,-293,0,0,0,0,0,0,0,0,0,-1,1588,1317,0,0
371,-293,0,0,0,0,0,0,0,0,0,-1,1595,1317,0,0
378,-293,0,0,0,0,0,0,0,0,0,-1,1602,1317,0,0
385,-293,0,0,0,0,0,0,0,0,0,-1,1609,1317,0,0
392,-293,0,0,0,0,0,0,0,0,0,-1,1616,1317,0,0
399,-293,0,0,0,0,0,0,0,0,0,-1,1623,1317,0,0
406,-293,0,0,0,0,0,0,0,0,0,-1,1630,1317,0,0
413,-293,0,0,0,0,0,0,0,0,0,-1,1637,1317,0,0
420,-293,0,0,0,0,0,0,0,0,0,-1,1644,1317,0,0
427,-293,0,0,0,0,0,0,0,0,0,-1,1651,1317,0,0
434,-293,0,0,0,0,0,0,0,0,0,-1,1658,1317,0,0
441,-293,0,0,0,0,0,0,0,0,0,-1,1665,1317,0,0
448,-293,0,0,0,0,0,0,0,0,0,-1,1672,1317,0,0
455,-293,0,0,0,0,0,0,0,0,0,-1,1679,1317,0,0
462,-293,0,0,0,0,0,0,0,0,0,-1,1686,1317,0,0
469,-293,0,0,0,0,0,0,0,0,0,-1,1693,1317,0,0
476,-293,0,0,0,0,0,0,0,0,0,-1,1700,1317,0,0
483,-293,0,0,0,0,0,0,0,0,0,-1,1707,1317,0,0
490,-293,0,0,0,0,0,0,0,0,0,-1,1714,1317,0,0
497,-293,0,0,0,0,0,0,0,0,0,-1,1721,1317,0,0
504,-293,0,0,0,0,0,0,0,0,0,-1,1728,1317,0,0
511,-293,0,0,0,0,0,0,0,0,0,-1,1735,1317,0,0
518,-293,0,0,0,0,0,0,0,0,0,-1,1742,1317,0,0
525,-293,0,0,0,0,0,0,0,0,0,-1,1749,1317,0,0
532,-293,0,0,0,0,0,0,0,0,0,-1,1756,1317,0,0
539,-293,0,0,0,0,0,0,0,0,0,-1,1763,1317,0,0
546,-293,0,0,0,0,0,0,0,0,0,-1,1770,1317,0,0
553,-293,0,0,0,0,0,0,0,0,0,-1,1777,1317,0,0
560,-293,0,0,0,0,0,0,0,0,0,-1,1784,1317,0,0
567,-293,0,0,0,0,0,0,0,0,0,-1,1791,1317,0,0
574,-293,0,0,0,0,0,0,0,0,0,-1,1798,1317,0,0
581,-293,0,0,0,0,0,0,0,0,0,-1,1805,1317,0,0
588,-293,0,0,0,0,0,0,0,0,0,-1,1812,1317,0,0
595,-293,30.8484,2.83972,0.0394162,0.0535665,-0.0505696,0.0975535,-0.00457073,-0.854902,0.0666115,0.0474667,1819,1317,30.8484,-2.83975
602,-293,31.1793,2.53186,0.0267406,0.0359781,-0.0513696,0.0829362,-0.0202175,-0.830234,0.0631186,0.0484175,1826,1317,31.1794,-2.53189
609,-293,31.0851,1.91064,0.0126569,0.0224273,-0.0466563,0.0644535,-0.0293692,-0.837561,0.0554166,0.0495087,1833,1317,31.0851,-1.91064
616,-293,31.9612,5.24207,0,0,0,0,0,0,0,-1,1840,1317,31.9612,-5.24203
623,-293,31.5902,4.7146,-0.00473782,0.00761632,-0.0292811,0.0313648,-0.0284864,-0.889353,0.0345684,0.048317,1847,1317,31.5902,-4.71461
630,-293,31.2172,4.15613,-0.0101703,0.00332658,-0.02115,0.0187787,-0.0256225,-0.93983,0.0257363,0.0461075,1854,1317,31.2172,-4.15617
637,-293,30.8379,3.60046,0,0,0,0,0,0,0,-1,1861,1317,30.8379,-3.60043
644,-293,24.4565,0.520752,0,0,0,0,0,0,0,-1,1868,1317,24.4566,-0.520709
651,-293,23.7169,8.03564,0,0,0,0,0,0,0,-1,1875,1317,23.7169,-8.03569
658,-293,23.1316,8.69202,0,0,0,0,0,0,0,-1,1882,1317,23.1316,-8.69198
665,-293,23.0325,8.04529,-0.0225718,-0.00561901,0.00624993,-0.00356398,-0.0246269,1.25312,0.0153683,0.045414,1889,1317,23.0325,-8.04532
672,-293,22.5203,8.0481,-0.0212164,-0.00429197,0.00621614,-0.00225421,-0.0232542,1.25402,0.0148087,0.021681,1896,1317,22.5203,-8.04808
679,-293,22.4922,7.73621,-0.0178627,-0.00236791,0.00639587,-6.89477e-05,-0.0201616,1.22573,0.0134182,0.0130136,1903,1317,22.4922,-7.73615
686,-293,22.4896,7.44104,-0.0128923,-0.000244338,0.00557672,0.00186332,-0.015,1.20945,0.0106754,0.0154536,1910,1317,22.4896,-7.44105
693,-293,22.4646,7.15027,-0.00821649,4.73983e-06,0.00374286,0.00145346,-0.00966521,1.20149,0.00697859,0.012048,1917,1317,22.4646,-7.1503
700,-293,22.4565,6.84119,-0.00437914,-6.32703e-05,0.00226174,0.000904836,-0.00534725,1.16636,0.00390158,0.0108789,1924,1317,22.4566,-6.84124
707,-293,22.4655,6.57556,-0.00194184,-9.30333e-05,0.00129763,0.000575788,-0.00261066,1.09489,0.00196076,0.0114851,1931,1317,22.4654,-6.57557
714,-293,22.4465,6.30139,-0.00110381,-0.000273935,0.000861428,0.000267284,-0.00164502,1.00984,0.00119578,0.00787261,1938,1317,22.4465,-6.30134
721,-293,22.4481,6.00146,-0.000630827,-0.000432217,0.000795215,0.00026987,-0.00133291,0.847516,0.000990892,0.00913092,1945,1317,22.4481,-6.00149
728,-293,22.448,5.70386,0.000798027,-0.00134771,0.00146817,0.00154355,-0.00209323,0.469864,0.00210768,0.0119276,1952,1317,22.448,-5.70385
735,-293,22.4767,5.39514,0.00386396,-0.0032616,0.00261928,0.00472317,-0.00412081,0.316974,0.00511002,0.0209944,1959,1317,22.4767,-5.39515
742,-293,22.3197,5.30823,0.00826485,-0.00571565,0.00392064,0.00928927,-0.00674008,0.255576,0.00929348,0.0422401,1966,1317,22.3198,-5.30821
749,-293,22.9377,4.39404,0.0158671,-0.00981851,0.0061134,0.0172479,-0.0111993,0.222139,0.0165473,0.045131,1973,1317,22.9378,-4.39402
756,-293,23.6713,3.30518,0,0,0,0,0,0,0,-1,1980,1317,23.6713,-3.3052
763,-293,26.6713,4.74097,0,0,0,0,0,0,0,-1,1987,1317,26.6713,-4.74098
770,-293,24.1349,4.69153,0,0,0,0,0,0,0,-1,1994,1317,24.1348,-4.69159
777,-293,0,0,0,0,0,0,0,0,0,-1,2001,1317,0,0
784,-293,0,0,0,0,0,0,0,0,0,-1,2008,1317,0,0
791,-293,0,0,0,0,0,0,0,0,0,-1,2015,1317,0,0
798,-293,0,0,0,0,0,0,0,0,0,-1,2022,1317,0,0
805,-293,0,0,0,0,0,0,0,0,0,-1,2029,1317,0,0
812,-293,0,0,0,0,0,0,0,0,0,-1,2036,1317,0,0
-700,-300,0,0,0,0,0,0,0,0,0,-1,524,1324,0,0
-693,-300,0,0,0,0,0,0,0,0,0,-1,531,1324,0,0
-686,-300,0,0,0,0,0,0,0,0,0,-1,538,1324,0,0
-679,-300,0,0,0,0,0,0,0,0,0,-1,545,1324,0,0
-672,-300,0,0,0,0,0,0,0,0,0,-1,552,1324,0,0
-665,-300,0,0,0,0,0,0,0,0,0,-1,559,1324,0,0
-658,-300,0,0,0,0,0,0,0,0,0,-1,566,1324,0,0
-651,-300,-14.1354,1.61694,0.08147,-0.0153585,0.0495667,0.102343,-0.036232,0.39858,0.0829861,0.0461991,573,1324,-14.1355,-1.61691
-644,-300,-13.7836,2.36243,0.0697078,-0.0146244,0.0440443,0.0885161,-0.0334327,0.40359,0.072762,0.0474551,580,1324,-13.7836,-2.36241
-637,-300,-13.444,3.11475,0,0,0,0,0,0,0,-1,587,1324,-13.4441,-3.1148
-630,-300,-14.191,4.50073,0,0,0,0,0,0,0,-1,594,1324,-14.191,-4.50079
-623,-300,-12.9661,3.01807,0,0,0,0,0,0,0,-1,601,1324,-12.9661,-3.01811
-616,-300,-11.8775,2.09387,0,0,0,0,0,0,0,-1,608,1324,-11.8775,-2.09381
-609,-300,-11.702,2.61133,0,0,0,0,0,0,0,-1,615,1324,-11.7019,-2.61128
-602,-300,-11.6774,3.01038,0.0153802,-0.00216206,0.0104032,0.0202164,-0.00699822,0.435154,0.0163184,0.0455495,622,1324,-11.6774,-3.01043
-595,-300,-11.937,3.40125,0.00810247,-0.000914695,0.00630762,0.0113472,-0.00415939,0.475109,0.00926777,0.0241463,629,1324,-11.937,-3.40127
-588,-300,-11.9042,3.75073,0.0015894,0.00145381,0.00283371,0.00435613,-0.00131292,0.773439,0.00342662,0.020514,636,1324,-11.9042,-3.75074
-581,-300,-11.8848,4.10645,-0.000752455,0.00228845,0.00142589,0.00285245,-0.00131645,1.19414,0.00246077,0.0196303,643,1324,-11.8849,-4.10648
-574,-300,-11.8578,4.45105,6.67008e-05,0.00143645,0.000960938,0.0019316,-0.000428449,1.095,0.00145178,0.0149355,650,1324,-11.8578,-4.451
-567,-300,-11.9134,4.77869,0.00090602,0.00070328,0.000622867,0.00143571,0.000173589,0.704732,0.000904846,0.0157923,657,1324,-11.9134,-4.77865
-560,-300,-11.9496,5.11353,0.00163215,9.0288e-05,0.000107808,0.00163966,8.27865e-05,0.0694699,0.00106658,0.0148445,664,1324,-11.9497,-5.11357
-553,-300,-11.9214,5.41931,0.00235907,-0.000417285,-0.000343869,0.00240102,-0.000459241,-0.121412,0.00177369,0.0104209,671,1324,-11.9214,-5.41932
-546,-300,-11.9035,5.72852,0.0029382,-0.000864633,-0.000795676,0.00309797,-0.0010244,-0.198161,0.00247839,0.00941814,678,1324,-11.9035,-5.72852
-539,-300,-11.8867,6.06885,0.00348997,-0.00145465,-0.00131465,0.00381777,-0.00178245,-0.244361,0.0033037,0.0181695,685,1324,-11.8866,-6.0689
-532,-300,-12.1498,6.17371,0.00452827,-0.00210423,-0.00201516,0.00509253,-0.00266849,-0.273017,0.0045531,0.0479021,692,1324,-12.1498,-6.17375
-525,-300,-12.4406,6.11841,0,0,0,0,0,0,0,-1,699,1324,-12.4406,-6.11846
-518,-300,-9.8349,-0.537109,0,0,0,0,0,0,0,-1,706,1324,-9.83487,0.537068
-511,-300,-12.8644,0.081665,0,0,0,0,0,0,0,-1,713,1324,-12.8644,-0.0817016
-504,-300,-13.4829,-0.165527,0,0,0,0,0,0,0,-1,720,1324,-13.4829,0.165544
-497,-300,-18.1063,0.956543,0,0,0,0,0,0,0,-1,727,1324,-18.1063,-0.9565
-490,-300,-18.2293,1.53625,0,0,0,0,0,0,0,-1,734,1324,-18.2293,-1.53626
-483,-300,-18.3522,1.61084,0,0,0,0,0,0,0,-1,741,1324,-18.3522,-1.6108
-476,-300,-18.7489,1.96387,0,0,0,0,0,0,0,-1,748,1324,-18.7489,-1.96387
-469,-300,0,0,0,0,0,0,0,0,0,-1,755,1324,0,0
-462,-300,0,0,0,0,0,0,0,0,0,-1,762,1324,0,0
-455,-300,0,0,0,0,0,0,0,0,0,-1,769,1324,0,0
-448,-300,0,0,0,0,0,0,0,0,0,-1,776,1324,0,0
-441,-300,0,0,0,0,0,0,0,0,0,-1,783,1324,0,0
-434,-300,0,0,0,0,0,0,0,0,0,-1,790,1324,0,0
-427,-300,0,0,0,0,0,0,0,0,0,-1,797,1324,0,0
-420,-300,0,0,0,0,0,0,0,0,0,-1,804,1324,0,0
-413,-300,0,0,0,0,0,0,0,0,0,-1,811,1324,0,0
-406,-300,0,0,0,0,0,0,0,0,0,-1,818,1324,0,0
-399,-300,0,0,0,0,0,0,0,0,0,-1,825,1324,0,0
-392,-300,0,0,0,0,0,0,0,0,0,-1,832,1324,0,0
-385,-300,0,0,0,0,0,0,0,0,0,-1,839,1324,0,0
-378,-300,0,0,0,0,0,0,0,0,0,-1,846,1324,0,0
-371,-300,0,0,0,0,0,0,0,0,0,-1,853,1324,0,0
-364,-300,0,0,0,0,0,0,0,0,0,-1,860,1324,0,0
-357,-300,0,0,0,0,0,0,0,0,0,-1,867,1324,0,0
-350,-300,0,0,0,0,0,0,0,0,0,-1,874,1324,0,0
-343,-300,0,0,0,0,0,0,0,0,0,-1,881,1324,0,0
-336,-300,0,0,0,0,0,0,0,0,0,-1,888,1324,0,0
-329,-300,0,0,0,0,0,0,0,0,0,-1,895,1324,0,0
-322,-300,0,0,0,0,0,0,0,0,0,-1,902,1324,0,0
-315,-300,0,0,0,0,0,0,0,0,0,-1,909,1324,0,0
-308,-300,0,0,0,0,0,0,0,0,0,-1,916,1324,0,0
-301,-300,0,0,0,0,0,0,0,0,0,-1,923,1324,0,0
-294,-300,0,0,0,0,0,0,0,0,0,-1,930,1324,0,0
-287,-300,0,0,0,0,0,0,0,0,0,-1,937,1324,0,0
-280,-300,0,0,0,0,0,0,0,0,0,-1,944,1324,0,0
-273,-300,0,0,0,0,0,0,0,0,0,-1,951,1324,0,0
-266,-300,0,0,0,0,0,0,0,0,0,-1,958,1324,0,0
-259,-300,0,0,0,0,0,0,0,0,0,-1,965,1324,0,0
-252,-300,0,0,0,0,0,0,0,0,0,-1,972,1324,0,0
-245,-300,0,0,0,0,0,0,0,0,0,-1,979,1324,0,0
-238,-300,0,0,0,0,0,0,0,0,0,-1,986,1324,0,0
-231,-300,0,0,0,0,0,0,0,0,0,-1,993,1324,0,0
-224,-300,0,0,0,0,0,0,0,0,0,-1,1000,1324,0,0
-217,-300,0,0,0,0,0,0,0,0,0,-1,1007,1324,0,0
-210,-300,0,0,0,0,0,0,0,0,0,-1,1014,1324,0,0
-203,-300,0,0,0,0,0,0,0,0,0,-1,1021,1324,0,0
-196,-300,0,0,0,0,0,0,0,0,0,-1,1028,1324,0,0
-189,-300,0,0,0,0,0,0,0,0,0,-1,1035,1324,0,0
-182,-300,0,0,0,0,0,0,0,0,0,-1,1042,1324,0,0
-175,-300,0,0,0,0,0,0,0,0,0,-1,1049,1324,0,0
-168,-300,0,0,0,0,0,0,0,0,0,-1,1056,1324,0,0
-161,-300,0,0,0,0,0,0,0,0,0,-1,1063,1324,0,0
-154,-300,0,0,0,0,0,0,0,0,0,-1,1070,1324,0,0
-147,-300,0,0,0,0,0,0,0,0,0,-1,1077,1324,0,0
-140,-300,0,0,0,0,0,0,0,0,0,-1,1084,1324,0,0
-133,-300,0,0,0,0,0,0,0,0,0,-1,1091,1324,0,0
-126,-300,0,0,0,0,0,0,0,0,0,-1,1098,1324,0,0
-119,-300,0,0,0,0,0,0,0,0,0,-1,1105,1324,0,0
-112,-300,0,0,0,0,0,0,0,0,0,-1,1112,1324,0,0
-105,-300,0,0,0,0,0,0,0,0,0,-1,1119,1324,0,0
-98,-300,0,0,0,0,0,0,0,0,0,-1,1126,1324,0,0
-91,-300,0,0,0,0,0,0,0,0,0,-1,1133,1324,0,0
-84,-300,0,0,0,0,0,0,0,0,0,-1,1140,1324,0,0
-77,-300,0,0,0,0,0,0,0,0,0,-1,1147,1324,0,0
-70,-300,0,0,0,0,0,0,0,0,0,-1,1154,1324,0,0
-63,-300,0,0,0,0,0,0,0,0,0,-1,1161,1324,0,0
-56,-300,0,0,0,0,0,0,0,0,0,-1,1168,1324,0,0
-49,-300,0,0,0,0,0,0,0,0,0,-1,1175,1324,0,0
-42,-300,0,0,0,0,0,0,0,0,0,-1,1182,1324,0,0
-35,-300,0,0,0,0,0,0,0,0,0,-1,1189,1324,0,0
-28,-300,0,0,0,0,0,0,0,0,0,-1,1196,1324,0,0
-21,-300,0,0,0,0,0,0,0,0,0,-1,1203,1324,0,0
-14,-300,0,0,0,0,0,0,0,0,0,-1,1210,1324,0,0
-7,-300,0,0,0,0,0,0,0,0,0,-1,1217,1324,0,0
0,-300,0,0,0,0,0,0,0,0,0,-1,1224,1324,0,0
7,-300,0,0,0,0,0,0,0,0,0,-1,1231,1324,0,0
14,-300,0,0,0,0,0,0,0,0,0,-1,1238,1324,0,0
21,-300,0,0,0,0,0,0,0,0,0,-1,1245,1324,0,0
28,-300,0,0,0,0,0,0,0,0,0,-1,1252,1324,0,0
35,-300,0,0,0,0,0,0,0,0,0,-1,1259,1324,0,0
42,-300,0,0,0,0,0,0,0,0,0,-1,1266,1324,0,0
49,-300,0,0,0,0,0,0,0,0,0,-1,1273,1324,0,0
56,-300,0,0,0,0,0,0,0,0,0,-1,1280,1324,0,0
63,-300,0,0,0,0,0,0,0,0,0,-1,1287,1324,0,0
70,-300,0,0,0,0,0,0,0,0,0,-1,1294,1324,0,0
77,-300,0,0,0,0,0,0,0,0,0,-1,1301,1324,0,0
84,-300,0,0,0,0,0,0,0,0,0,-1,1308,1324,0,0
91,-300,0,0,0,0,0,0,0,0,0,-1,1315,1324,0,0
98,-300,0,0,0,0,0,0,0,0,0,-1,1322,1324,0,0
105,-300,0,0,0,0,0,0,0,0,0,-1,1329,1324,0,0
112,-300,0,0,0,0,0,0,0,0,0,-1,1336,1324,0,0
119,-300,0,0,0,0,0,0,0,0,0,-1,1343,1324,0,0
126,-300,0,0,0,0,0,0,0,0,0,-1,1350,1324,0,0
133,-300,0,0,0,0,0,0,0,0,0,-1,1357,1324,0,0
140,-300,0,0,0,0,0,0,0,0,0,-1,1364,1324,0,0
147,-300,0,0,0,0,0,0,0,0,0,-1,1371,1324,0,0
154,-300,0,0,0,0,0,0,0,0,0,-1,1378,1324,0,0
161,-300,0,0,0,0,0,0,0,0,0,-1,1385,1324,0,0
168,-300,0,0,0,0,0,0,0,0,0,-1,1392,1324,0,0
175,-300,0,0,0,0,0,0,0,0,0,-1,1399,1324,0,0
182,-300,0,0,0,0,0,0,0,0,0,-1,1406,1324,0,0
189,-300,0,0,0,0,0,0,0,0,0,-1,1413,1324,0,0
196,-300,0,0,0,0,0,0,0,0,0,-1,1420,1324,0,0
203,-300,0,0,0,0,0,0,0,0,0,-1,1427,1324,0,0
210,-300,0,0,0,0,0,0,0,0,0,-1,1434,1324,0,0
217,-300,0,0,0,0,0,0,0,0,0,-1,1441,1324,0,0
224,-300,0,0,0,0,0,0,0,0,0,-1,1448,1324,0,0
231,-300,0,0,0,0,0,0,0,0,0,-1,1455,1324,0,0
238,-300,0,0,0,0,0,0,0,0,0,-1,1462,1324,0,0
245,-300,0,0,0,0,0,0,0,0,0,-1,1469,1324,0,0
252,-300,0,0,0,0,0,0,0,0,0,-1,1476,1324,0,0
259,-300,0,0,0,0,0,0,0,0,0,-1,1483,1324,0,0
266,-300,0,0,0,0,0,0,0,0,0,-1,1490,1324,0,0
273,-300,0,0,0,0,0,0,0,0,0,-1,1497,1324,0,0
280,-300,0,0,0,0,0,0,0,0,0,-1,1504,1324,0,0
287,-300,0,0,0,0,0,0,0,0,0,-1,1511,1324,0,0
294,-300,0,0,0,0,0,0,0,0,0,-1,1518,1324,0,0
301,-300,0,0,0,0,0,0,0,0,0,-1,1525,1324,0,0
308,-300,0,0,0,0,0,0,0,0,0,-1,1532,1324,0,0
315,-300,0,0,0,0,0,0,0,0,0,-1,1539,1324,0,0
322,-300,0,0,0,0,0,0,0,0,0,-1,1546,1324,0,0
329,-300,0,0,0,0,0,0,0,0,0,-1,1553,1324,0,0
336,-300,0,0,0,0,0,0,0,0,0,-1,1560,1324,0,0
343,-300,0,0,0,0,0,0,0,0,0,-1,1567,1324,0,0
350,-300,0,0,0,0,0,0,0,0,0,-1,1574,1324,0,0
357,-300,0,0,0,0,0,0,0,0,0,-1,1581,1324,0,0
364,-300,0,0,0,0,0,0,0,0,0,-1,1588,1324,0,0
371,-300,0,0,0,0,0,0,0,0,0,-1,1595,1324,0,0
378,-300,0,0,0,0,0,0,0,0,0,-1,1602,1324,0,0
385,-300,0,0,0,0,0,0,0,0,0,-1,1609,1324,0,0
392,-300,0,0,0,0,0,0,0,0,0,-1,1616,1324,0,0
399,-300,0,0,0,0,0,0,0,0,0,-1,1623,1324,0,0
406,-300,0,0,0,0,0,0,0,0,0,-1,1630,1324,0,0
413,-300,0,0,0,0,0,0,0,0,0,-1,1637,1324,0,0
420,-300,0,0,0,0,0,0,0,0,0,-1,1644,1324,0,0
427,-300,0,0,0,0,0,0,0,0,0,-1,1651,1324,0,0
434,-300,0,0,0,0,0,0,0,0,0,-1,1658,1324,0,0
441,-300,0,0,0,0,0,0,0,0,0,-1,1665,1324,0,0
448,-300,0,0,0,0,0,0,0,0,0,-1,1672,1324,0,0
455,-300,0,0,0,0,0,0,0,0,0,-1,1679,1324,0,0
462,-300,0,0,0,0,0,0,0,0,0,-1,1686,1324,0,0
469,-300,0,0,0,0,0,0,0,0,0,-1,1693,1324,0,0
476,-300,0,0,0,0,0,0,0,0,0,-1,1700,1324,0,0
483,-300,0,0,0,0,0,0,0,0,0,-1,1707,1324,0,0
490,-300,0,0,0,0,0,0,0,0,0,-1,1714,1324,0,0
497,-300,0,0,0,0,0,0,0,0,0,-1,1721,1324,0,0
504,-300,0,0,0,0,0,0,0,0,0,-1,1728,1324,0,0
511,-300,0,0,0,0,0,0,0,0,0,-1,1735,1324,0,0
518,-300,0,0,0,0,0,0,0,0,0,-1,1742,1324,0,0
525,-300,0,0,0,0,0,0,0,0,0,-1,1749,1324,0,0
532,-300,0,0,0,0,0,0,0,0,0,-1,1756,1324,0,0
539,-300,0,0,0,0,0,0,0,0,0,-1,1763,1324,0,0
546,-300,0,0,0,0,0,0,0,0,0,-1,1770,1324,0,0
553,-300,0,0,0,0,0,0,0,0,0,-1,1777,1324,0,0
560,-300,0,0,0,0,0,0,0,0,0,-1,1784,1324,0,0
567,-300,0,0,0,0,0,0,0,0,0,-1,1791,1324,0,0
574,-300,0,0,0,0,0,0,0,0,0,-1,1798,1324,0,0
581,-300,0,0,0,0,0,0,0,0,0,-1,1805,1324,0,0
588,-300,30.4436,2.76355,0,0,0,0,0,0,0,-1,1812,1324,30.4436,-2.76355
595,-300,30.8915,2.73938,0,0,0,0,0,0,0,-1,1819,1324,30.8915,-2.73933
602,-300,31.4039,2.29492,0,0,0,0,0,0,0,-1,1826,1324,31.4039,-2.29494
609,-300,31.535,1.79382,0,0,0,0,0,0,0,-1,1833,1324,31.5351,-1.79381
616,-300,32.3252,5.65759,0,0,0,0,0,0,0,-1,1840,1324,32.3252,-5.65762
623,-300,31.8424,5.25415,1.55104e-05,0.00994754,-0.0351523,0.0404829,-0.0305199,-0.855569,0.0411278,0.0491554,1847,1324,31.8424,-5.25415
630,-300,31.4249,4.92212,-0.00522814,0.0053094,-0.0265706,0.0271286,-0.0270474,-0.883275,0.0312785,0.0493774,1854,1324,31.4249,-4.92208
637,-300,31.1719,4.6366,0,0,0,0,0,0,0,-1,1861,1324,31.1718,-4.63665
644,-300,22.9836,3.44934,0,0,0,0,0,0,0,-1,1868,1324,22.9836,-3.4493
651,-300,23.2638,8.4325,0,0,0,0,0,0,0,-1,1875,1324,23.2638,-8.43251
658,-300,22.7577,8.4502,0,0,0,0,0,0,0,-1,1882,1324,22.7577,-8.45022
665,-300,22.3621,8.31946,-0.0211098,-0.00638355,0.00534644,-0.00464722,-0.0228461,1.25678,0.0139423,0.0379845,1889,1324,22.3621,-8.31949
672,-300,22.1653,8.07507,-0.0192766,-0.00478113,0.00531631,-0.00304038,-0.0210173,1.25436,0.0131161,0.0130888,1896,1324,22.1652,-8.07511
679,-300,22.186,7.75366,-0.0155881,-0.00263825,0.00547613,-0.00063304,-0.0175933,1.21979,0.0115236,0.0126728,1903,1324,22.186,-7.75362
686,-300,22.2025,7.46667,-0.0107906,-0.000503545,0.00468583,0.00131086,-0.012605,1.20136,0.00887265,0.013203,1910,1324,22.2025,-7.46668
693,-300,22.1716,7.17346,-0.00674516,-0.000237274,0.00308996,0.000996095,-0.00797853,1.19102,0.00568024,0.0111129,1917,1324,22.1716,-7.17346
700,-300,22.156,6.85425,-0.00358499,-0.000185742,0.0018251,0.00060857,-0.0043793,1.16031,0.0031421,0.0122093,1924,1324,22.156,-6.85424
707,-300,22.1622,6.54871,-0.00175476,-0.000128517,0.00108535,0.000414519,-0.00229779,1.10688,0.0016871,0.00909905,1931,1324,22.1622,-6.54868
714,-300,22.1642,6.29126,-0.00108962,-0.000110847,0.000758866,0.00030275,-0.00150321,1.07179,0.00111682,0.0105136,1938,1324,22.1642,-6.2913
721,-300,22.1675,5.99707,-0.000691001,-0.000205214,0.000687863,0.00028138,-0.0011776,0.955121,0.000893746,0.0118063,1945,1324,22.1675,-5.99708
728,-300,22.177,5.67871,0.000378188,-0.000743704,0.00108162,0.00103567,-0.00140118,0.546183,0.00141218,0.011703,1952,1324,22.177,-5.67877
735,-300,22.0183,5.55896,0.00292174,-0.00204142,0.00164896,0.00341964,-0.00253932,0.293243,0.0034529,0.0227222,1959,1324,22.0183,-5.55894
742,-300,21.9738,5.42517,0.0069496,-0.00383528,0.00219031,0.00737745,-0.00426314,0.192912,0.0068004,0.0389671,1966,1324,21.9737,-5.42514
749,-300,22.1595,5.09021,0,0,0,0,0,0,0,-1,1973,1324,22.1595,-5.09016
756,-300,22.1423,3.45642,0,0,0,0,0,0,0,-1,1980,1324,22.1423,-3.45638
763,-300,22.6136,5.1571,0,0,0,0,0,0,0,-1,1987,1324,22.6136,-5.15706
770,-300,24.859,4.77979,0,0,0,0,0,0,0,-1,1994,1324,24.859,-4.77972
777,-300,0,0,0,0,0,0,0,0,0,-1,2001,1324,0,0
784,-300,0,0,0,0,0,0,0,0,0,-1,2008,1324,0,0
791,-300,0,0,0,0,0,0,0,0,0,-1,2015,1324,0,0
798,-300,0,0,0,0,0,0,0,0,0,-1,2022,1324,0,0
805,-300,0,0,0,0,0,0,0,0,0,-1,2029,1324,0,0
812,-300,0,0,0,0,0,0,0,0,0,-1,2036,1324,0,0
-700,-307,0,0,0,0,0,0,0,0,0,-1,524,1331,0,0
-693,-307,0,0,0,0,0,0,0,0,0,-1,531,1331,0,0
-686,-307,0,0,0,0,0,0,0,0,0,-1,538,1331,0,0
-679,-307,0,0,0,0,0,0,0,0,0,-1,545,1331,0,0
-672,-307,0,0,0,0,0,0,0,0,0,-1,552,1331,0,0
-665,-307,0,0,0,0,0,0,0,0,0,-1,559,1331,0,0
-658,-307,0,0,0,0,0,0,0,0,0,-1,566,1331,0,0
-651,-307,-14.0535,1.69824,0.0774131,-0.018646,0.0547663,0.102227,-0.04346,0.42542,0.0863635,0.0479015,573,1331,-14.0535,-1.69818
-644,-307,-13.7261,2.51343,0.0668227,-0.0175374,0.0495764,0.0897347,-0.0404494,0.432916,0.0769363,0.0469106,580,1331,-13.7261,-2.51338
-637,-307,-13.3755,3.13599,0,0,0,0,0,0,0,-1,587,1331,-13.3756,-3.136
-630,-307,-13.2687,3.71606,0,0,0,0,0,0,0,-1,594,1331,-13.2687,-3.71607
-623,-307,-12.2128,2.93811,0,0,0,0,0,0,0,-1,601,1331,-12.2128,-2.93813
-616,-307,-10.8306,1.20618,0,0,0,0,0,0,0,-1,608,1331,-10.8306,-1.20614
-609,-307,-11.5472,1.97327,0,0,0,0,0,0,0,-1,615,1331,-11.5472,-1.97332
-602,-307,-11.3997,2.86816,0.0159894,-0.00251277,0.0115483,0.0215351,-0.00805847,0.447699,0.0176665,0.0493253,622,1331,-11.3997,-2.8681
-595,-307,-11.6263,3.42822,0.00802587,-0.00104691,0.00690098,0.011748,-0.00476899,0.494634,0.00981571,0.0270808,629,1331,-11.6264,-3.42818
-588,-307,-11.5843,3.776,0.00092491,0.00166251,0.00298143,0.00429786,-0.00171044,0.846935,0.00357451,0.0194235,636,1331,-11.5843,-3.77603
-581,-307,-11.5582,4.11865,-0.00139753,0.0025254,0.00149606,0.00303082,-0.00190296,1.245,0.00287322,0.0158396,643,1331,-11.5582,-4.1187
-574,-307,-11.5491,4.44812,-0.000419057,0.00161233,0.000984679,0.00201128,-0.000818011,1.18585,0.00168122,0.0123921,650,1331,-11.5491,-4.44812
-567,-307,-11.5776,4.77637,0.000517067,0.000829077,0.000632452,0.00132448,2.16635e-05,0.906318,0.000875855,0.0129201,657,1331,-11.5776,-4.77641
-560,-307,-11.5684,5.10498,0.00136995,0.000170175,0.000148213,0.00138799,0.000152137,0.121108,0.000879014,0.0131428,664,1331,-11.5684,-5.10503
-553,-307,-11.5566,5.43079,0.00223321,-0.000381615,-0.000246973,0.00225633,-0.000404737,-0.0933513,0.0016557,0.0102063,671,1331,-11.5566,-5.43076
-546,-307,-11.561,5.7489,0.00306153,-0.000895425,-0.000606755,0.00315248,-0.000986374,-0.148786,0.00249627,0.010393,678,1331,-11.561,-5.74886
-539,-307,-11.5515,6.09204,0.0038979,-0.00148361,-0.000971102,0.00406777,-0.00165348,-0.173178,0.00339979,0.0144135,685,1331,-11.5514,-6.09202
-532,-307,-11.5103,6.32361,0.00519463,-0.0021064,-0.00139524,0.00545217,-0.00236395,-0.182536,0.00462857,0.0442063,692,1331,-11.5103,-6.32361
-525,-307,-11.6967,6.53625,0,0,0,0,0,0,0,-1,699,1331,-11.6967,-6.5362
-518,-307,-9.77777,-1.56653,0,0,0,0,0,0,0,-1,706,1331,-9.77777,1.56651
-511,-307,-12.5226,0.26709,0,0,0,0,0,0,0,-1,713,1331,-12.5226,-0.267038
-504,-307,-12.5913,-0.308105,0,0,0,0,0,0,0,-1,720,1331,-12.5913,0.308124
-497,-307,-13.8586,-0.115845,0,0,0,0,0,0,0,-1,727,1331,-13.8587,0.115861
-490,-307,-17.9429,0.982178,0,0,0,0,0,0,0,-1,734,1331,-17.9429,-0.982198
-483,-307,-18.1066,0.927612,0,0,0,0,0,0,0,-1,741,1331,-18.1066,-0.927609
-476,-307,-18.1288,1.1228,0,0,0,0,0,0,0,-1,748,1331,-18.1289,-1.12286
-469,-307,-18.2028,0.798584,0,0,0,0,0,0,0,-1,755,1331,-18.2027,-0.798546
-462,-307,0,0,0,0,0,0,0,0,0,-1,762,1331,0,0
-455,-307,0,0,0,0,0,0,0,0,0,-1,769,1331,0,0
-448,-307,0,0,0,0,0,0,0,0,0,-1,776,1331,0,0
-441,-307,0,0,0,0,0,0,0,0,0,-1,783,1331,0,0
-434,-307,0,0,0,0,0,0,0,0,0,-1,790,1331,0,0
-427,-307,0,0,0,0,0,0,0,0,0,-1,797,1331,0,0
-420,-307,0,0,0,0,0,0,0,0,0,-1,804,1331,0,0
-413,-307,0,0,0,0,0,0,0,0,0,-1,811,1331,0,0
-406,-307,0,0,0,0,0,0,0,0,0,-1,818,1331,0,0
-399,-307,0,0,0,0,0,0,0,0,0,-1,825,1331,0,0
-392,-307,0,0,0,0,0,0,0,0,0,-1,832,1331,0,0
-385,-307,0,0,0,0,0,0,0,0,0,-1,839,1331,0,0
-378,-307,0,0,0,0,0,0,0,0,0,-1,846,1331,0,0
-371,-307,0,0,0,0,0,0,0,0,0,-1,853,1331,0,0
-364,-307,0,0,0,0,0,0,0,0,0,-1,860,1331,0,0
-357,-307,0,0,0,0,0,0,0,0,0,-1,867,1331,0,0
-350,-307,0,0,0,0,0,0,0,0,0,-1,874,1331,0,0
-343,-307,0,0,0,0,0,0,0,0,0,-1,881,1331,0,0
-336,-307,0,0,0,0,0,0,0,0,0,-1,888,1331,0,0
-329,-307,0,0,0,0,0,0,0,0,0,-1,895,1331,0,0
-322,-307,0,0,0,0,0,0,0,0,0,-1,902,1331,0,0
-315,-307,0,0,0,0,0,0,0,0,0,-1,909,1331,0,0
-308,-307,0,0,0,0,0,0,0,0,0,-1,916,1331,0,0
-301,-307,0,0,0,0,0,0,0,0,0,-1,923,1331,0,0
-294,-307,0,0,0,0,0,0,0,0,0,-1,930,1331,0,0
-287,-307,0,0,0,0,0,0,0,0,0,-1,937,1331,0,0
-280,-307,0,0,0,0,0,0,0,0,0,-1,944,1331,0,0
-273,-307,0,0,0,0,0,0,0,0,0,-1,951,1331,0,0
-266,-307,0,0,0,0,0,0,0,0,0,-1,958,1331,0,0
-259,-307,0,0,0,0,0,0,0,0,0,-1,965,1331,0,0
-252,-307,0,0,0,0,0,0,0,0,0,-1,972,1331,0,0
-245,-307,0,0,0,0,0,0,0,0,0,-1,979,1331,0,0
-238,-307,0,0,0,0,0,0,0,0,0,-1,986,1331,0,0
-231,-307,0,0,0,0,0,0,0,0,0,-1,993,1331,0,0
-224,-307,0,0,0,0,0,0,0,0,0,-1,1000,1331,0,0
-217,-307,0,0,0,0,0,0,0,0,0,-1,1007,1331,0,0
-210,-307,0,0,0,0,0,0,0,0,0,-1,1014,1331,0,0
-203,-307,0,0,0,0,0,0,0,0,0,-1,1021,1331,0,0
-196,-307,0,0,0,0,0,0,0,0,0,-1,1028,1331,0,0
-189,-307,0,0,0,0,0,0,0,0,0,-1,1035,1331,0,0
-182,-307,0,0,0,0,0,0,0,0,0,-1,1042,1331,0,0
-175,-307,0,0,0,0,0,0,0,0,0,-1,1049,1331,0,0
-168,-307,0,0,0,0,0,0,0,0,0,-1,1056,1331,0,0
-161,-307,0,0,0,0,0,0,0,0,0,-1,1063,1331,0,0
-154,-307,0,0,0,0,0,0,0,0,0,-1,1070,1331,0,0
-147,-307,0,0,0,0,0,0,0,0,0,-1,1077,1331,0,0
-140,-307,0,0,0,0,0,0,0,0,0,-1,1084,1331,0,0
-133,-307,0,0,0,0,0,0,0,0,0,-1,1091,1331,0,0
-126,-307,0,0,0,0,0,0,0,0,0,-1,1098,1331,0,0
-119,-307,0,0,0,0,0,0,0,0,0,-1,1105,1331,0,0
-112,-307,0,0,0,0,0,0,0,0,0,-1,1112,1331,0,0
-105,-307,0,0,0,0,0,0,0,0,0,-1,1119,1331,0,0
-98,-307,0,0,0,0,0,0,0,0,0,-1,1126,1331,0,0
-91,-307,0,0,0,0,0,0,0,0,0,-1,1133,1331,0,0
-84,-307,0,0,0,0,0,0,0,0,0,-1,1140,1331,0,0
-77,-307,0,0,0,0,0,0,0,0,0,-1,1147,1331,0,0
-70,-307,0,0,0,0,0,0,0,0,0,-1,1154,1331,0,0
-63,-307,0,0,0,0,0,0,0,0,0,-1,1161,1331,0,0
-56,-307,0,0,0,0,0,0,0,0,0,-1,1168,1331,0,0
-49,-307,0,0,0,0,0,0,0,0,0,-1,1175,1331,0,0
-42,-307,0,0,0,0,0,0,0,0,0,-1,1182,1331,0,0
-35,-307,0,0,0,0,0,0,0,0,0,-1,1189,1331,0,0
-28,-307,0,0,0,0,0,0,0,0,0,-1,1196,1331,0,0
-21,-307,0,0,0,0,0,0,0,0,0,-1,1203,1331,0,0
-14,-307,0,0,0,0,0,0,0,0,0,-1,1210,1331,0,0
-7,-307,0,0,0,0,0,0,0,0,0,-1,1217,1331,0,0
0,-307,0,0,0,0,0,0,0,0,0,-1,1224,1331,0,0
7,-307,0,0,0,0,0,0,0,0,0,-1,1231,1331,0,0
14,-307,0,0,0,0,0,0,0,0,0,-1,1238,1331,0,0
21,-307,0,0,0,0,0,0,0,0,0,-1,1245,1331,0,0
28,-307,0,0,0,0,0,0,0,0,0,-1,1252,1331,0,0
35,-307,0,0,0,0,0,0,0,0,0,-1,1259,1331,0,0
42,-307,0,0,0,0,0,0,0,0,0,-1,1266,1331,0,0
49,-307,0,0,0,0,0,0,0,0,0,-1,1273,1331,0,0
56,-307,0,0,0,0,0,0,0,0,0,-1,1280,1331,0,0
63,-307,0,0,0,0,0,0,0,0,0,-1,1287,1331,0,0
70,-307,0,0,0,0,0,0,0,0,0,-1,1294,1331,0,0
77,-307,0,0,0,0,0,0,0,0,0,-1,1301,1331,0,0
84,-307,0,0,0,0,0,0,0,0,0,-1,1308,1331,0,0
91,-307,0,0,0,0,0,0,0,0,0,-1,1315,1331,0,0
98,-307,0,0,0,0,0,0,0,0,0,-1,1322,1331,0,0
105,-307,0,0,0,0,0,0,0,0,0,-1,1329,1331,0,0
112,-307,0,0,0,0,0,0,0,0,0,-1,1336,1331,0,0
119,-307,0,0,0,0,0,0,0,0,0,-1,1343,1331,0,0
126,-307,0,0,0,0,0,0,0,0,0,-1,1350,1331,0,0
133,-307,0,0,0,0,0,0,0,0,0,-1,1357,1331,0,0
140,-307,0,0,0,0,0,0,0,0,0,-1,1364,1331,0,0
147,-307,0,0,0,0,0,0,0,0,0,-1,1371,1331,0,0
154,-307,0,0,0,0,0,0,0,0,0,-1,1378,1331,0,0
161,-307,0,0,0,0,0,0,0,0,0,-1,1385,1331,0,0
168,-307,0,0,0,0,0,0,0,0,0,-1,1392,1331,0,0
175,-307,0,0,0,0,0,0,0,0,0,-1,1399,1331,0,0
182,-307,0,0,0,0,0,0,0,0,0,-1,1406,1331,0,0
189,-307,0,0,0,0,0,0,0,0,0,-1,1413,1331,0,0
196,-307,0,0,0,0,0,0,0,0,0,-1,1420,1331,0,0
203,-307,0,0,0,0,0,0,0,0,0,-1,1427,1331,0,0
210,-307,0,0,0,0,0,0,0,0,0,-1,1434,1331,0,0
217,-307,0,0,0,0,0,0,0,0,0,-1,1441,1331,0,0
224,-307,0,0,0,0,0,0,0,0,0,-1,1448,1331,0,0
231,-307,0,0,0,0,0,0,0,0,0,-1,1455,1331,0,0
238,-307,0,0,0,0,0,0,0,0,0,-1,1462,1331,0,0
245,-307,0,0,0,0,0,0,0,0,0,-1,1469,1331,0,0
252,-307,0,0,0,0,0,0,0,0,0,-1,1476,1331,0,0
259,-307,0,0,0,0,0,0,0,0,0,-1,1483,1331,0,0
266,-307,0,0,0,0,0,0,0,0,0,-1,1490,1331,0,0
273,-307,0,0,0,0,0,0,0,0,0,-1,1497,1331,0,0
280,-307,0,0,0,0,0,0,0,0,0,-1,1504,1331,0,0
287,-307,0,0,0,0,0,0,0,0,0,-1,1511,1331,0,0
294,-307,0,0,0,0,0,0,0,0,0,-1,1518,1331,0,0
301,-307,0,0,0,0,0,0,0,0,0,-1,1525,1331,0,0
308,-307,0,0,0,0,0,0,0,0,0,-1,1532,1331,0,0
315,-307,0,0,0,0,0,0,0,0,0,-1,1539,1331,0,0
322,-307,0,0,0,0,0,0,0,0,0,-1,1546,1331,0,0
329,-307,0,0,0,0,0,0,0,0,0,-1,1553,1331,0,0
336,-307,0,0,0,0,0,0,0,0,0,-1,1560,1331,0,0
343,-307,0,0,0,0,0,0,0,0,0,-1,1567,1331,0,0
350,-307,0,0,0,0,0,0,0,0,0,-1,1574,1331,0,0
357,-307,0,0,0,0,0,0,0,0,0,-1,1581,1331,0,0
364,-307,0,0,0,0,0,0,0,0,0,-1,1588,1331,0,0
371,-307,0,0,0,0,0,0,0,0,0,-1,1595,1331,0,0
378,-307,0,0,0,0,0,0,0,0,0,-1,1602,1331,0,0
385,-307,0,0,0,0,0,0,0,0,0,-1,1609,1331,0,0
392,-307,0,0,0,0,0,0,0,0,0,-1,1616,1331,0,0
399,-307,0,0,0,0,0,0,0,0,0,-1,1623,1331,0,0
406,-307,0,0,0,0,0,0,0,0,0,-1,1630,1331,0,0
413,-307,0,0,0,0,0,0,0,0,0,-1,1637,1331,0,0
420,-307,0,0,0,0,0,0,0,0,0,-1,1644,1331,0,0
427,-307,0,0,0,0,0,0,0,0,0,-1,1651,1331,0,0
434,-307,0,0,0,0,0,0,0,0,0,-1,1658,1331,0,0
441,-307,0,0,0,0,0,0,0,0,0,-1,1665,1331,0,0
448,-307,0,0,0,0,0,0,0,0,0,-1,1672,1331,0,0
455,-307,0,0,0,0,0,0,0,0,0,-1,1679,1331,0,0
462,-307,0,0,0,0,0,0,0,0,0,-1,1686,1331,0,0
469,-307,0,0,0,0,0,0,0,0,0,-1,1693,1331,0,0
476,-307,0,0,0,0,0,0,0,0,0,-1,1700,1331,0,0
483,-307,0,0,0,0,0,0,0,0,0,-1,1707,1331,0,0
490,-307,0,0,0,0,0,0,0,0,0,-1,1714,1331,0,0
497,-307,0,0,0,0,0,0,0,0,0,-1,1721,1331,0,0
504,-307,0,0,0,0,0,0,0,0,0,-1,1728,1331,0,0
511,-307,0,0,0,0,0,0,0,0,0,-1,1735,1331,0,0
518,-307,0,0,0,0,0,0,0,0,0,-1,1742,1331,0,0
525,-307,0,0,0,0,0,0,0,0,0,-1,1749,1331,0,0
532,-307,0,0,0,0,0,0,0,0,0,-1,1756,1331,0,0
539,-307,0,0,0,0,0,0,0,0,0,-1,1763,1331,0,0
546,-307,0,0,0,0,0,0,0,0,0,-1,1770,1331,0,0
553,-307,0,0,0,0,0,0,0,0,0,-1,1777,1331,0,0
560,-307,0,0,0,0,0,0,0,0,0,-1,1784,1331,0,0
567,-307,0,0,0,0,0,0,0,0,0,-1,1791,1331,0,0
574,-307,0,0,0,0,0,0,0,0,0,-1,1798,1331,0,0
581,-307,0,0,0,0,0,0,0,0,0,-1,1805,1331,0,0
588,-307,31.4441,4.97791,0,0,0,0,0,0,0,-1,1812,1331,31.4441,-4.97789
595,-307,32.2644,4.6228,0.0418923,0.0544421,-0.0723314,0.12077,-0.0244359,-0.828666,0.0897742,0.0476116,1819,1331,32.2644,-4.62281
602,-307,31.8676,3.28528,0.0294085,0.0372933,-0.0695619,0.103024,-0.0363226,-0.813705,0.0834679,0.0444892,1826,1331,31.8675,-3.28533
609,-307,31.7949,1.71216,0.0192475,0.0262882,-0.0599786,0.0828497,-0.0373139,-0.814711,0.0710175,0.0463853,1833,1331,31.7949,-1.71212
616,-307,32.5098,5.57617,0,0,0,0,0,0,0,-1,1840,1331,32.5097,-5.57622
623,-307,31.8571,5.59424,0,0,0,0,0,0,0,-1,1847,1331,31.8571,-5.59422
630,-307,31.5577,5.69971,0,0,0,0,0,0,0,-1,1854,1331,31.5578,-5.69969
637,-307,24.6407,4.09106,0,0,0,0,0,0,0,-1,1861,1331,24.6407,-4.09103
644,-307,22.6885,5.80408,0,0,0,0,0,0,0,-1,1868,1331,22.6884,-5.80408
651,-307,17.5013,5.80078,0,0,0,0,0,0,0,-1,1875,1331,17.5014,-5.80072
658,-307,22.2112,8.01733,0,0,0,0,0,0,0,-1,1882,1331,22.2111,-8.01739
665,-307,21.9449,8.3125,-0.0186685,-0.00715307,0.00337056,-0.00623906,-0.0195825,1.30599,0.0115513,0.0246621,1889,1331,21.9449,-8.31247
672,-307,21.8898,8.04578,-0.0163669,-0.00533205,0.00339611,-0.00437062,-0.0173284,1.29492,0.0104059,0.0105156,1896,1331,21.8898,-8.04582
679,-307,21.8905,7.75647,-0.0126167,-0.00302267,0.00367883,-0.00177443,-0.013865,1.24368,0.00871227,0.0109251,1903,1331,21.8905,-7.75647
686,-307,21.8934,7.47864,-0.00836815,-0.00089354,0.00319195,0.000284031,-0.00954572,1.21737,0.00646057,0.0100648,1910,1331,21.8934,-7.47865
693,-307,21.886,7.18665,-0.00519768,-0.000498139,0.00213385,0.000326163,-0.00602198,1.20216,0.00412767,0.0112132,1917,1331,21.886,-7.18664
700,-307,21.8817,6.854,-0.00282394,-0.000259729,0.00129419,0.000279902,-0.00336357,1.17575,0.00234127,0.0123533,1924,1331,21.8817,-6.85399
707,-307,21.873,6.54016,-0.00158899,-4.22682e-05,0.000877584,0.000354089,-0.00198535,1.14657,0.00145602,0.0137362,1931,1331,21.873,-6.54012
714,-307,21.875,6.30542,-0.00105408,0.000136797,0.00066694,0.000435425,-0.00135271,1.14981,0.00107671,0.012923,1938,1331,21.875,-6.30545
721,-307,21.892,6.02637,-0.000744226,0.000107889,0.000650468,0.000459413,-0.00109575,1.07534,0.000922589,0.0154656,1945,1331,21.8919,-6.02642
728,-307,21.8524,5.82996,2.11433e-05,-2.67952e-05,0.00079191,0.000789447,-0.000795098,0.770269,0.000914839,0.0281814,1952,1331,21.8524,-5.83
735,-307,21.6511,5.57605,0.00212448,-0.000594245,0.000749479,0.0023174,-0.000787166,0.251938,0.00186359,0.0383705,1959,1331,21.6511,-5.57603
742,-307,21.6456,5.36194,0.0057525,-0.00148869,0.000382352,0.00577264,-0.00150883,0.0526074,0.00443771,0.0420903,1966,1331,21.6456,-5.36194
749,-307,21.759,5.13,0,0,0,0,0,0,0,-1,1973,1331,21.759,-5.12997
756,-307,22.4415,2.98438,0,0,0,0,0,0,0,-1,1980,1331,22.4415,-2.98441
763,-307,18.7522,3.55298,0,0,0,0,0,0,0,-1,1987,1331,18.7522,-3.55301
770,-307,0,0,0,0,0,0,0,0,0,-1,1994,1331,0,0
777,-307,0,0,0,0,0,0,0,0,0,-1,2001,1331,0,0
784,-307,0,0,0,0,0,0,0,0,0,-1,2008,1331,0,0
791,-307,0,0,0,0,0,0,0,0,0,-1,2015,1331,0,0
798,-307,0,0,0,0,0,0,0,0,0,-1,2022,1331,0,0
805,-307,0,0,0,0,0,0,0,0,0,-1,2029,1331,0,0
812,-307,0,0,0,0,0,0,0,0,0,-1,2036,1331,0,0
-700,-314,0,0,0,0,0,0,0,0,0,-1,524,1338,0,0
-693,-314,0,0,0,0,0,0,0,0,0,-1,531,1338,0,0
-686,-314,0,0,0,0,0,0,0,0,0,-1,538,1338,0,0
-679,-314,0,0,0,0,0,0,0,0,0,-1,545,1338,0,0
-672,-314,0,0,0,0,0,0,0,0,0,-1,552,1338,0,0
-665,-314,0,0,0,0,0,0,0,0,0,-1,559,1338,0,0
-658,-314,0,0,0,0,0,0,0,0,0,-1,566,1338,0,0
-651,-314,0,0,0,0,0,0,0,0,0,-1,573,1338,0,0
-644,-314,-13.6871,2.6449,0,0,0,0,0,0,0,-1,580,1338,-13.6871,-2.64494
-637,-314,-13.3666,3.17651,0,0,0,0,0,0,0,-1,587,1338,-13.3666,-3.17653
-630,-314,-13.1379,5.15625,0,0,0,0,0,0,0,-1,594,1338,-13.1379,-5.1562
-623,-314,-11.4634,2.87512,0,0,0,0,0,0,0,-1,601,1338,-11.4635,-2.87506
-616,-314,-9.93311,1.15088,0,0,0,0,0,0,0,-1,608,1338,-9.93308,-1.15093
-609,-314,-9.4361,2.86292,0,0,0,0,0,0,0,-1,615,1338,-9.43612,-2.86286
-602,-314,-11.1129,2.53125,0,0,0,0,0,0,0,-1,622,1338,-11.1129,-2.53127
-595,-314,-11.2501,3.26025,0,0,0,0,0,0,0,-1,629,1338,-11.25,-3.26026
-588,-314,-11.261,3.75195,-6.14797e-06,0.00208251,0.00295408,0.00417143,-0.00209507,0.955302,0.00368357,0.0219529,636,1338,-11.261,-3.75199
-581,-314,-11.2161,4.10693,-0.00223434,0.00285441,0.00144229,0.00323477,-0.00261469,1.31295,0.00338351,0.0128975,643,1338,-11.216,-4.10689
-574,-314,-11.2413,4.40344,-0.00111389,0.00183741,0.00090587,0.00209327,-0.00136975,1.29552,0.00201387,0.0124,650,1338,-11.2414,-4.40344
-567,-314,-11.2339,4.75623,-3.83107e-05,0.00095991,0.000554687,0.00120698,-0.000285383,1.15175,0.000914744,0.0154738,657,1338,-11.2339,-4.75617
-560,-314,-11.2,5.08911,0.00097678,0.000286215,0.000139991,0.00100408,0.000258915,0.192593,0.000601938,0.0157901,664,1338,-11.2,-5.08917
-553,-314,-11.2049,5.42419,0.00200744,-0.000279504,-0.000164342,0.00201919,-0.000291253,-0.071372,0.00145298,0.0168651,671,1338,-11.2049,-5.42419
-546,-314,-11.2407,5.76392,0.00307415,-0.000813395,-0.000409887,0.0031169,-0.000856142,-0.103913,0.00241445,0.0171953,678,1338,-11.2407,-5.76391
-539,-314,-11.2349,6.10522,0.0041553,-0.00135465,-0.000610595,0.00422216,-0.0014215,-0.109054,0.00338947,0.0170339,685,1338,-11.2349,-6.10523
-532,-314,-11.024,6.47449,0.00562185,-0.00189698,-0.000790977,0.00570416,-0.00197929,-0.103687,0.00460653,0.0399457,692,1338,-11.0241,-6.47446
-525,-314,-10.937,6.74133,0,0,0,0,0,0,0,-1,699,1338,-10.9369,-6.74131
-518,-314,-8.52753,4.70032,0,0,0,0,0,0,0,-1,706,1338,-8.52755,-4.70034
-511,-314,-11.8597,0.384888,0,0,0,0,0,0,0,-1,713,1338,-11.8597,-0.384927
-504,-314,-11.4322,-0.187378,0,0,0,0,0,0,0,-1,720,1338,-11.4322,0.187381
-497,-314,-11.0047,-0.759644,0,0,0,0,0,0,0,-1,727,1338,-11.0047,0.759689
-490,-314,-18.5143,0.471069,0,0,0,0,0,0,0,-1,734,1338,-18.5143,-0.47103
-483,-314,-17.8528,0.577271,0,0,0,0,0,0,0,-1,741,1338,-17.8528,-0.577327
-476,-314,-17.714,0.665405,0,0,0,0,0,0,0,-1,748,1338,-17.714,-0.665388
-469,-314,-17.7246,0.794678,0,0,0,0,0,0,0,-1,755,1338,-17.7246,-0.794645
-462,-314,0,0,0,0,0,0,0,0,0,-1,762,1338,0,0
-455,-314,0,0,0,0,0,0,0,0,0,-1,769,1338,0,0
-448,-314,0,0,0,0,0,0,0,0,0,-1,776,1338,0,0
-441,-314,0,0,0,0,0,0,0,0,0,-1,783,1338,0,0
-434,-314,0,0,0,0,0,0,0,0,0,-1,790,1338,0,0
-427,-314,0,0,0,0,0,0,0,0,0,-1,797,1338,0,0
-420,-314,0,0,0,0,0,0,0,0,0,-1,804,1338,0,0
-413,-314,0,0,0,0,0,0,0,0,0,-1,811,1338,0,0
-406,-314,0,0,0,0,0,0,0,0,0,-1,818,1338,0,0
-399,-314,0,0,0,0,0,0,0,0,0,-1,825,1338,0,0
-392,-314,0,0,0,0,0,0,0,0,0,-1,832,1338,0,0
-385,-314,0,0,0,0,0,0,0,0,0,-1,839,1338,0,0
-378,-314,0,0,0,0,0,0,0,0,0,-1,846,1338,0,0
-371,-314,0,0,0,0,0,0,0,0,0,-1,853,1338,0,0
-364,-314,0,0,0,0,0,0,0,0,0,-1,860,1338,0,0
-357,-314,0,0,0,0,0,0,0,0,0,-1,867,1338,0,0
-350,-314,0,0,0,0,0,0,0,0,0,-1,874,1338,0,0
-343,-314,0,0,0,0,0,0,0,0,0,-1,881,1338,0,0
-336,-314,0,0,0,0,0,0,0,0,0,-1,888,1338,0,0
-329,-314,0,0,0,0,0,0,0,0,0,-1,895,1338,0,0
-322,-314,0,0,0,0,0,0,0,0,0,-1,902,1338,0,0
-315,-314,0,0,0,0,0,0,0,0,0,-1,909,1338,0,0
-308,-314,0,0,0,0,0,0,0,0,0,-1,916,1338,0,0
-301,-314,0,0,0,0,0,0,0,0,0,-1,923,1338,0,0
-294,-314,0,0,0,0,0,0,0,0,0,-1,930,1338,0,0
-287,-314,0,0,0,0,0,0,0,0,0,-1,937,1338,0,0
-280,-314,0,0,0,0,0,0,0,0,0,-1,944,1338,0,0
-273,-314,0,0,0,0,0,0,0,0,0,-1,951,1338,0,0
-266,-314,0,0,0,0,0,0,0,0,0,-1,958,1338,0,0
-259,-314,0,0,0,0,0,0,0,0,0,-1,965,1338,0,0
-252,-314,0,0,0,0,0,0,0,0,0,-1,972,1338,0,0
-245,-314,0,0,0,0,0,0,0,0,0,-1,979,1338,0,0
-238,-314,0,0,0,0,0,0,0,0,0,-1,986,1338,0,0
-231,-314,0,0,0,0,0,0,0,0,0,-1,993,1338,0,0
-224,-314,0,0,0,0,0,0,0,0,0,-1,1000,1338,0,0
-217,-314,0,0,0,0,0,0,0,0,0,-1,1007,1338,0,0
-210,-314,0,0,0,0,0,0,0,0,0,-1,1014,1338,0,0
-203,-314,0,0,0,0,0,0,0,0,0,-1,1021,1338,0,0
-196,-314,0,0,0,0,0,0,0,0,0,-1,1028,1338,0,0
-189,-314,0,0,0,0,0,0,0,0,0,-1,1035,1338,0,0
-182,-314,0,0,0,0,0,0,0,0,0,-1,1042,1338,0,0
-175,-314,0,0,0,0,0,0,0,0,0,-1,1049,1338,0,0
-168,-314,0,0,0,0,0,0,0,0,0,-1,1056,1338,0,0
-161,-314,0,0,0,0,0,0,0,0,0,-1,1063,1338,0,0
-154,-314,0,0,0,0,0,0,0,0,0,-1,1070,1338,0,0
-147,-314,0,0,0,0,0,0,0,0,0,-1,1077,1338,0,0
-140,-314,0,0,0,0,0,0,0,0,0,-1,1084,1338,0,0
-133,-314,0,0,0,0,0,0,0,0,0,-1,1091,1338,0,0
-126,-314,0,0,0,0,0,0,0,0,0,-1,1098,1338,0,0
-119,-314,0,0,0,0,0,0,0,0,0,-1,1105,1338,0,0
-112,-314,0,0,0,0,0,0,0,0,0,-1,1112,1338,0,0
-105,-314,0,0,0,0,0,0,0,0,0,-1,1119,1338,0,0
-98,-314,0,0,0,0,0,0,0,0,0,-1,1126,1338,0,0
-91,-314,0,0,0,0,0,0,0,0,0,-1,1133,1338,0,0
-84,-314,0,0,0,0,0,0,0,0,0,-1,1140,1338,0,0
-77,-314,0,0,0,0,0,0,0,0,0,-1,1147,1338,0,0
-70,-314,0,0,0,0,0,0,0,0,0,-1,1154,1338,0,0
-63,-314,0,0,0,0,0,0,0,0,0,-1,1161,1338,0,0
-56,-314,0,0,0,0,0,0,0,0,0,-1,1168,1338,0,0
-49,-314,0,0,0,0,0,0,0,0,0,-1,1175,1338,0,0
-42,-314,0,0,0,0,0,0,0,0,0,-1,1182,1338,0,0
-35,-314,0,0,0,0,0,0,0,0,0,-1,1189,1338,0,0
-28,-314,0,0,0,0,0,0,0,0,0,-1,1196,1338,0,0
-21,-314,0,0,0,0,0,0,0,0,0,-1,1203,1338,0,0
-14,-314,0,0,0,0,0,0,0,0,0,-1,1210,1338,0,0
-7,-314,0,0,0,0,0,0,0,0,0,-1,1217,1338,0,0
0,-314,0,0,0,0,0,0,0,0,0,-1,1224,1338,0,0
7,-314,0,0,0,0,0,0,0,0,0,-1,1231,1338,0,0
14,-314,0,0,0,0,0,0,0,0,0,-1,1238,1338,0,0
21,-314,0,0,0,0,0,0,0,0,0,-1,1245,1338,0,0
28,-314,0,0,0,0,0,0,0,0,0,-1,1252,1338,0,0
35,-314,0,0,0,0,0,0,0,0,0,-1,1259,1338,0,0
42,-314,0,0,0,0,0,0,0,0,0,-1,1266,1338,0,0
49,-314,0,0,0,0,0,0,0,0,0,-1,1273,1338,0,0
56,-314,0,0,0,0,0,0,0,0,0,-1,1280,1338,0,0
63,-314,0,0,0,0,0,0,0,0,0,-1,1287,1338,0,0
70,-314,0,0,0,0,0,0,0,0,0,-1,1294,1338,0,0
77,-314,0,0,0,0,0,0,0,0,0,-1,1301,1338,0,0
84,-314,0,0,0,0,0,0,0,0,0,-1,1308,1338,0,0
91,-314,0,0,0,0,0,0,0,0,0,-1,1315,1338,0,0
98,-314,0,0,0,0,0,0,0,0,0,-1,1322,1338,0,0
105,-314,0,0,0,0,0,0,0,0,0,-1,1329,1338,0,0
112,-314,0,0,0,0,0,0,0,0,0,-1,1336,1338,0,0
119,-314,0,0,0,0,0,0,0,0,0,-1,1343,1338,0,0
126,-314,0,0,0,0,0,0,0,0,0,-1,1350,1338,0,0
133,-314,0,0,0,0,0,0,0,0,0,-1,1357,1338,0,0
140,-314,0,0,0,0,0,0,0,0,0,-1,1364,1338,0,0
147,-314,0,0,0,0,0,0,0,0,0,-1,1371,1338,0,0
154,-314,0,0,0,0,0,0,0,0,0,-1,1378,1338,0,0
161,-314,0,0,0,0,0,0,0,0,0,-1,1385,1338,0,0
168,-314,0,0,0,0,0,0,0,0,0,-1,1392,1338,0,0
175,-314,0,0,0,0,0,0,0,0,0,-1,1399,1338,0,0
182,-314,0,0,0,0,0,0,0,0,0,-1,1406,1338,0,0
189,-314,0,0,0,0,0,0,0,0,0,-1,1413,1338,0,0
196,-314,0,0,0,0,0,0,0,0,0,-1,1420,1338,0,0
203,-314,0,0,0,0,0,0,0,0,0,-1,1427,1338,0,0
210,-314,0,0,0,0,0,0,0,0,0,-1,1434,1338,0,0
217,-314,0,0,0,0,0,0,0,0,0,-1,1441,1338,0,0
224,-314,0,0,0,0,0,0,0,0,0,-1,1448,1338,0,0
231,-314,0,0,0,0,0,0,0,0,0,-1,1455,1338,0,0
238,-314,0,0,0,0,0,0,0,0,0,-1,1462,1338,0,0
245,-314,0,0,0,0,0,0,0,0,0,-1,1469,1338,0,0
252,-314,0,0,0,0,0,0,0,0,0,-1,1476,1338,0,0
259,-314,0,0,0,0,0,0,0,0,0,-1,1483,1338,0,0
266,-314,0,0,0,0,0,0,0,0,0,-1,1490,1338,0,0
273,-314,0,0,0,0,0,0,0,0,0,-1,1497,1338,0,0
280,-314,0,0,0,0,0,0,0,0,0,-1,1504,1338,0,0
287,-314,0,0,0,0,0,0,0,0,0,-1,1511,1338,0,0
294,-314,0,0,0,0,0,0,0,0,0,-1,1518,1338,0,0
301,-314,0,0,0,0,0,0,0,0,0,-1,1525,1338,0,0
308,-314,0,0,0,0,0,0,0,0,0,-1,1532,1338,0,0
315,-314,0,0,0,0,0,0,0,0,0,-1,1539,1338,0,0
322,-314,0,0,0,0,0,0,0,0,0,-1,1546,1338,0,0
329,-314,0,0,0,0,0,0,0,0,0,-1,1553,1338,0,0
336,-314,0,0,0,0,0,0,0,0,0,-1,1560,1338,0,0
343,-314,0,0,0,0,0,0,0,0,0,-1,1567,1338,0,0
350,-314,0,0,0,0,0,0,0,0,0,-1,1574,1338,0,0
357,-314,0,0,0,0,0,0,0,0,0,-1,1581,1338,0,0
364,-314,0,0,0,0,0,0,0,0,0,-1,1588,1338,0,0
371,-314,0,0,0,0,0,0,0,0,0,-1,1595,1338,0,0
378,-314,0,0,0,0,0,0,0,0,0,-1,1602,1338,0,0
385,-314,0,0,0,0,0,0,0,0,0,-1,1609,1338,0,0
392,-314,0,0,0,0,0,0,0,0,0,-1,1616,1338,0,0
399,-314,0,0,0,0,0,0,0,0,0,-1,1623,1338,0,0
406,-314,0,0,0,0,0,0,0,0,0,-1,1630,1338,0,0
413,-314,0,0,0,0,0,0,0,0,0,-1,1637,1338,0,0
420,-314,0,0,0,0,0,0,0,0,0,-1,1644,1338,0,0
427,-314,0,0,0,0,0,0,0,0,0,-1,1651,1338,0,0
434,-314,0,0,0,0,0,0,0,0,0,-1,1658,1338,0,0
441,-314,0,0,0,0,0,0,0,0,0,-1,1665,1338,0,0
448,-314,0,0,0,0,0,0,0,0,0,-1,1672,1338,0,0
455,-314,0,0,0,0,0,0,0,0,0,-1,1679,1338,0,0
462,-314,0,0,0,0,0,0,0,0,0,-1,1686,1338,0,0
469,-314,0,0,0,0,0,0,0,0,0,-1,1693,1338,0,0
476,-314,0,0,0,0,0,0,0,0,0,-1,1700,1338,0,0
483,-314,0,0,0,0,0,0,0,0,0,-1,1707,1338,0,0
490,-314,0,0,0,0,0,0,0,0,0,-1,1714,1338,0,0
497,-314,0,0,0,0,0,0,0,0,0,-1,1721,1338,0,0
504,-314,0,0,0,0,0,0,0,0,0,-1,1728,1338,0,0
511,-314,0,0,0,0,0,0,0,0,0,-1,1735,1338,0,0
518,-314,0,0,0,0,0,0,0,0,0,-1,1742,1338,0,0
525,-314,0,0,0,0,0,0,0,0,0,-1,1749,1338,0,0
532,-314,0,0,0,0,0,0,0,0,0,-1,1756,1338,0,0
539,-314,0,0,0,0,0,0,0,0,0,-1,1763,1338,0,0
546,-314,0,0,0,0,0,0,0,0,0,-1,1770,1338,0,0
553,-314,0,0,0,0,0,0,0,0,0,-1,1777,1338,0,0
560,-314,0,0,0,0,0,0,0,0,0,-1,1784,1338,0,0
567,-314,0,0,0,0,0,0,0,0,0,-1,1791,1338,0,0
574,-314,0,0,0,0,0,0,0,0,0,-1,1798,1338,0,0
581,-314,31.6179,5.76685,0,0,0,0,0,0,0,-1,1805,1338,31.618,-5.76685
588,-314,31.684,4.71973,0.0571765,0.0741622,-0.0793747,0.145497,-0.0141584,-0.838694,0.102045,0.0475323,1812,1338,31.684,-4.71969
595,-314,31.8755,3.70117,0.0458995,0.0533436,-0.08246,0.132165,-0.0329224,-0.807952,0.100891,0.0437987,1819,1338,31.8754,-3.70112
602,-314,32.0511,2.64307,0.0345364,0.039301,-0.0752815,0.112238,-0.0384005,-0.801216,0.0903867,0.0417894,1826,1338,32.0511,-2.64302
609,-314,32.2737,1.71704,0.0252334,0.0298283,-0.0642263,0.0917982,-0.0367365,-0.803276,0.0764455,0.0475274,1833,1338,32.2737,-1.71699
616,-314,32.1542,0.214966,0,0,0,0,0,0,0,-1,1840,1338,32.1541,-0.214972
623,-314,31.8328,6.18787,0,0,0,0,0,0,0,-1,1847,1338,31.8328,-6.18785
630,-314,24.6292,4.76587,0,0,0,0,0,0,0,-1,1854,1338,24.6292,-4.76588
637,-314,22.1349,5.16418,0,0,0,0,0,0,0,-1,1861,1338,22.1349,-5.16414
644,-314,18.7517,6.2605,0,0,0,0,0,0,0,-1,1868,1338,18.7517,-6.26053
651,-314,22.0918,8.23987,0,0,0,0,0,0,0,-1,1875,1338,22.0917,-8.23988
658,-314,21.8811,8.34949,-0.0154099,-0.00865682,-0.00300504,-0.00751326,-0.0165534,-1.20717,0.00957067,0.0494779,1882,1338,21.8812,-8.34951
665,-314,21.6033,8.36902,-0.0155046,-0.00781242,0.00213179,-0.00726113,-0.0160559,1.31774,0.00928393,0.0198013,1889,1338,21.6033,-8.36898
672,-314,21.6056,8.07373,-0.0128756,-0.00568711,0.00226181,-0.00503467,-0.013528,1.28996,0.00789505,0.0118808,1896,1338,21.6056,-8.0737
679,-314,21.6016,7.76221,-0.00939962,-0.00324553,0.00258702,-0.00230251,-0.0103426,1.22125,0.00627013,0.0103691,1903,1338,21.6016,-7.76219
686,-314,21.5848,7.46484,-0.0060245,-0.00116674,0.00228752,-0.000259122,-0.00693212,1.19308,0.00453751,0.0123088,1910,1338,21.5849,-7.4649
693,-314,21.5709,7.16272,-0.0038009,-0.00058932,0.00159564,6.86557e-05,-0.00445887,1.17968,0.00299573,0.0118656,1917,1338,21.5709,-7.16271
700,-314,21.5742,6.84973,-0.00217281,-0.000175398,0.000989168,0.000231552,-0.00257976,1.1805,0.00180199,0.0130355,1924,1338,21.5742,-6.84975
707,-314,21.577,6.55493,-0.00143867,0.000191942,0.000720281,0.000464537,-0.00171126,1.209,0.00132316,0.0127479,1931,1338,21.577,-6.55496
714,-314,21.5663,6.30042,-0.00103451,0.000426591,0.000591632,0.000636111,-0.00124403,1.23044,0.00110425,0.0114982,1938,1338,21.5662,-6.30038
721,-314,21.5465,6.05078,-0.000912949,0.000445239,0.000701052,0.000742179,-0.00120989,1.17014,0.00113776,0.0216521,1945,1338,21.5465,-6.05082
728,-314,21.5763,5.80981,0,0,0,0,0,0,0,-1,1952,1338,21.5762,-5.80978
735,-314,21.3407,5.53943,0,0,0,0,0,0,0,-1,1959,1338,21.3406,-5.53942
742,-314,21.3292,5.26624,0,0,0,0,0,0,0,-1,1966,1338,21.3293,-5.26619
749,-314,21.979,4.41003,0,0,0,0,0,0,0,-1,1973,1338,21.979,-4.41008
756,-314,22.6415,3.70679,0,0,0,0,0,0,0,-1,1980,1338,22.6415,-3.70679
763,-314,19.2207,4.07239,0,0,0,0,0,0,0,-1,1987,1338,19.2206,-4.07239
770,-314,0,0,0,0,0,0,0,0,0,-1,1994,1338,0,0
777,-314,0,0,0,0,0,0,0,0,0,-1,2001,1338,0,0
784,-314,0,0,0,0,0,0,0,0,0,-1,2008,1338,0,0
791,-314,0,0,0,0,0,0,0,0,0,-1,2015,1338,0,0
798,-314,0,0,0,0,0,0,0,0,0,-1,2022,1338,0,0
805,-314,0,0,0,0,0,0,0,0,0,-1,2029,1338,0,0
812,-314,0,0,0,0,0,0,0,0,0,-1,2036,1338,0,0
-700,-321,0,0,0,0,0,0,0,0,0,-1,524,1345,0,0
-693,-321,0,0,0,0,0,0,0,0,0,-1,531,1345,0,0
-686,-321,0,0,0,0,0,0,0,0,0,-1,538,1345,0,0
-679,-321,0,0,0,0,0,0,0,0,0,-1,545,1345,0,0
-672,-321,0,0,0,0,0,0,0,0,0,-1,552,1345,0,0
-665,-321,0,0,0,0,0,0,0,0,0,-1,559,1345,0,0
-658,-321,0,0,0,0,0,0,0,0,0,-1,566,1345,0,0
-651,-321,0,0,0,0,0,0,0,0,0,-1,573,1345,0,0
-644,-321,-10.9585,-1.48376,0,0,0,0,0,0,0,-1,580,1345,-10.9585,1.48374
-637,-321,-13.6483,6.04089,0,0,0,0,0,0,0,-1,587,1345,-13.6483,-6.04084
-630,-321,-12.2283,5.59167,0,0,0,0,0,0,0,-1,594,1345,-12.2283,-5.59163
-623,-321,-11.801,4.42224,0,0,0,0,0,0,0,-1,601,1345,-11.8009,-4.42226
-616,-321,-11.6754,3.13794,0,0,0,0,0,0,0,-1,608,1345,-11.6754,-3.13789
-609,-321,-7.95209,1.14758,0,0,0,0,0,0,0,-1,615,1345,-7.95208,-1.14757
-602,-321,-8.85791,2.50049,0,0,0,0,0,0,0,-1,622,1345,-8.85791,-2.50048
-595,-321,-11.197,3.32239,0,0,0,0,0,0,0,-1,629,1345,-11.1971,-3.32233
-588,-321,-10.9566,3.69067,-0.00107258,0.0024166,0.00313078,0.00425606,-0.00291204,1.03959,0.00416268,0.0300821,636,1345,-10.9566,-3.69073
-581,-321,-10.9043,4.09424,-0.00312194,0.00307935,0.00147721,0.00341326,-0.00345585,1.34849,0.00396591,0.0125673,643,1345,-10.9043,-4.09425
-574,-321,-10.9072,4.40906,-0.00187686,0.00197828,0.000822605,0.00214647,-0.00204505,1.36912,0.00242021,0.0146315,650,1345,-10.9072,-4.40908
-567,-321,-10.9069,4.72827,-0.000682845,0.00106614,0.000393605,0.00115064,-0.000767342,1.35933,0.0011147,0.022263,657,1345,-10.9069,-4.72826
-560,-321,-10.8972,5.08984,0.000471815,0.000361743,2.91864e-05,0.000479075,0.000354483,0.243804,0.000287013,0.0262001,664,1345,-10.8972,-5.08981
-553,-321,-10.9847,5.38403,0.00165851,-0.00021361,-0.000171251,0.00167404,-0.000229147,-0.0904739,0.00119973,0.0268327,671,1345,-10.9847,-5.38408
-546,-321,-10.9871,5.7146,0.00292602,-0.000750476,-0.00030523,0.00295119,-0.000775645,-0.0822713,0.00227061,0.026051,678,1345,-10.987,-5.71457
-539,-321,-10.9323,6.078,0.00421292,-0.00123603,-0.000356312,0.00423612,-0.00125923,-0.0650219,0.0033243,0.0241787,685,1345,-10.9323,-6.07795
-532,-321,-10.8141,6.45801,0.00580542,-0.00169326,-0.000333751,0.00582024,-0.00170809,-0.044391,0.0045575,0.0234658,692,1345,-10.8141,-6.45803
-525,-321,-10.86,6.96179,0,0,0,0,0,0,0,-1,699,1345,-10.8601,-6.96177
-518,-321,-10.3564,6.75696,0,0,0,0,0,0,0,-1,706,1345,-10.3564,-6.75694
-511,-321,-9.3302,5.29297,0,0,0,0,0,0,0,-1,713,1345,-9.33023,-5.29294
-504,-321,-10.4713,0.0145264,0,0,0,0,0,0,0,-1,720,1345,-10.4713,-0.0145296
-497,-321,-9.96771,0.313599,0,0,0,0,0,0,0,-1,727,1345,-9.96769,-0.313618
-490,-321,-10.7631,0.973511,0,0,0,0,0,0,0,-1,734,1345,-10.7631,-0.97353
-483,-321,-17.5908,0.2323,0,0,0,0,0,0,0,-1,741,1345,-17.5908,-0.232355
-476,-321,-17.2915,0.297363,0,0,0,0,0,0,0,-1,748,1345,-17.2915,-0.297342
-469,-321,-17.2441,0.478027,0,0,0,0,0,0,0,-1,755,1345,-17.2441,-0.477994
-462,-321,-17.1672,0.526489,0,0,0,0,0,0,0,-1,762,1345,-17.1672,-0.526533
-455,-321,0,0,0,0,0,0,0,0,0,-1,769,1345,0,0
-448,-321,0,0,0,0,0,0,0,0,0,-1,776,1345,0,0
-441,-321,0,0,0,0,0,0,0,0,0,-1,783,1345,0,0
-434,-321,0,0,0,0,0,0,0,0,0,-1,790,1345,0,0
-427,-321,0,0,0,0,0,0,0,0,0,-1,797,1345,0,0
-420,-321,0,0,0,0,0,0,0,0,0,-1,804,1345,0,0
-413,-321,0,0,0,0,0,0,0,0,0,-1,811,1345,0,0
-406,-321,0,0,0,0,0,0,0,0,0,-1,818,1345,0,0
-399,-321,0,0,0,0,0,0,0,0,0,-1,825,1345,0,0
-392,-321,0,0,0,0,0,0,0,0,0,-1,832,1345,0,0
-385,-321,0,0,0,0,0,0,0,0,0,-1,839,1345,0,0
-378,-321,0,0,0,0,0,0,0,0,0,-1,846,1345,0,0
-371,-321,0,0,0,0,0,0,0,0,0,-1,853,1345,0,0
-364,-321,0,0,0,0,0,0,0,0,0,-1,860,1345,0,0
-357,-321,0,0,0,0,0,0,0,0,0,-1,867,1345,0,0
-350,-321,0,0,0,0,0,0,0,0,0,-1,874,1345,0,0
-343,-321,0,0,0,0,0,0,0,0,0,-1,881,1345,0,0
-336,-321,0,0,0,0,0,0,0,0,0,-1,888,1345,0,0
-329,-321,0,0,0,0,0,0,0,0,0,-1,895,1345,0,0
-322,-321,0,0,0,0,0,0,0,0,0,-1,902,1345,0,0
-315,-321,0,0,0,0,0,0,0,0,0,-1,909,1345,0,0
-308,-321,0,0,0,0,0,0,0,0,0,-1,916,1345,0,0
-301,-321,0,0,0,0,0,0,0,0,0,-1,923,1345,0,0
-294,-321,0,0,0,0,0,0,0,0,0,-1,930,1345,0,0
-287,-321,0,0,0,0,0,0,0,0,0,-1,937,1345,0,0
-280,-321,0,0,0,0,0,0,0,0,0,-1,944,1345,0,0
-273,-321,0,0,0,0,0,0,0,0,0,-1,951,1345,0,0
-266,-321,0,0,0,0,0,0,0,0,0,-1,958,1345,0,0
-259,-321,0,0,0,0,0,0,0,0,0,-1,965,1345,0,0
-252,-321,0,0,0,0,0,0,0,0,0,-1,972,1345,0,0
-245,-321,0,0,0,0,0,0,0,0,0,-1,979,1345,0,0
-238,-321,0,0,0,0,0,0,0,0,0,-1,986,1345,0,0
-231,-321,0,0,0,0,0,0,0,0,0,-1,993,1345,0,0
-224,-321,0,0,0,0,0,0,0,0,0,-1,1000,1345,0,0
-217,-321,0,0,0,0,0,0,0,0,0,-1,1007,1345,0,0
-210,-321,0,0,0,0,0,0,0,0,0,-1,1014,1345,0,0
-203,-321,0,0,0,0,0,0,0,0,0,-1,1021,1345,0,0
-196,-321,0,0,0,0,0,0,0,0,0,-1,1028,1345,0,0
-189,-321,0,0,0,0,0,0,0,0,0,-1,1035,1345,0,0
-182,-321,0,0,0,0,0,0,0,0,0,-1,1042,1345,0,0
-175,-321,0,0,0,0,0,0,0,0,0,-1,1049,1345,0,0
-168,-321,0,0,0,0,0,0,0,0,0,-1,1056,1345,0,0
-161,-321,0,0,0,0,0,0,0,0,0,-1,1063,1345,0,0
-154,-321,0,0,0,0,0,0,0,0,0,-1,1070,1345,0,0
-147,-321,0,0,0,0,0,0,0,0,0,-1,1077,1345,0,0
-140,-321,0,0,0,0,0,0,0,0,0,-1,1084,1345,0,0
-133,-321,0,0,0,0,0,0,0,0,0,-1,1091,1345,0,0
-126,-321,0,0,0,0,0,0,0,0,0,-1,1098,1345,0,0
-119,-321,0,0,0,0,0,0,0,0,0,-1,1105,1345,0,0
-112,-321,0,0,0,0,0,0,0,0,0,-1,1112,1345,0,0
-105,-321,0,0,0,0,0,0,0,0,0,-1,1119,1345,0,0
-98,-321,0,0,0,0,0,0,0,0,0,-1,1126,1345,0,0
-91,-321,0,0,0,0,0,0,0,0,0,-1,1133,1345,0,0
-84,-321,0,0,0,0,0,0,0,0,0,-1,1140,1345,0,0
-77,-321,0,0,0,0,0,0,0,0,0,-1,1147,1345,0,0
-70,-321,0,0,0,0,0,0,0,0,0,-1,1154,1345,0,0
-63,-321,0,0,0,0,0,0,0,0,0,-1,1161,1345,0,0
-56,-321,0,0,0,0,0,0,0,0,0,-1,1168,1345,0,0
-49,-321,0,0,0,0,0,0,0,0,0,-1,1175,1345,0,0
-42,-321,0,0,0,0,0,0,0,0,0,-1,1182,1345,0,0
-35,-321,0,0,0,0,0,0,0,0,0,-1,1189,1345,0,0
-28,-321,0,0,0,0,0,0,0,0,0,-1,1196,1345,0,0
-21,-321,0,0,0,0,0,0,0,0,0,-1,1203,1345,0,0
-14,-321,0,0,0,0,0,0,0,0,0,-1,1210,1345,0,0
-7,-321,0,0,0,0,0,0,0,0,0,-1,1217,1345,0,0
0,-321,0,0,0,0,0,0,0,0,0,-1,1224,1345,0,0
7,-321,0,0,0,0,0,0,0,0,0,-1,1231,1345,0,0
14,-321,0,0,0,0,0,0,0,0,0,-1,1238,1345,0,0
21,-321,0,0,0,0,0,0,0,0,0,-1,1245,1345,0,0
28,-321,0,0,0,0,0,0,0,0,0,-1,1252,1345,0,0
35,-321,0,0,0,0,0,0,0,0,0,-1,1259,1345,0,0
42,-321,0,0,0,0,0,0,0,0,0,-1,1266,1345,0,0
49,-321,0,0,0,0,0,0,0,0,0,-1,1273,1345,0,0
56,-321,0,0,0,0,0,0,0,0,0,-1,1280,1345,0,0
63,-321,0,0,0,0,0,0,0,0,0,-1,1287,1345,0,0
70,-321,0,0,0,0,0,0,0,0,0,-1,1294,1345,0,0
77,-321,0,0,0,0,0,0,0,0,0,-1,1301,1345,0,0
84,-321,0,0,0,0,0,0,0,0,0,-1,1308,1345,0,0
91,-321,0,0,0,0,0,0,0,0,0,-1,1315,1345,0,0
98,-321,0,0,0,0,0,0,0,0,0,-1,1322,1345,0,0
105,-321,0,0,0,0,0,0,0,0,0,-1,1329,1345,0,0
112,-321,0,0,0,0,0,0,0,0,0,-1,1336,1345,0,0
119,-321,0,0,0,0,0,0,0,0,0,-1,1343,1345,0,0
126,-321,0,0,0,0,0,0,0,0,0,-1,1350,1345,0,0
133,-321,0,0,0,0,0,0,0,0,0,-1,1357,1345,0,0
140,-321,0,0,0,0,0,0,0,0,0,-1,1364,1345,0,0
147,-321,0,0,0,0,0,0,0,0,0,-1,1371,1345,0,0
154,-321,0,0,0,0,0,0,0,0,0,-1,1378,1345,0,0
161,-321,0,0,0,0,0,0,0,0,0,-1,1385,1345,0,0
168,-321,0,0,0,0,0,0,0,0,0,-1,1392,1345,0,0
175,-321,0,0,0,0,0,0,0,0,0,-1,1399,1345,0,0
182,-321,0,0,0,0,0,0,0,0,0,-1,1406,1345,0,0
189,-321,0,0,0,0,0,0,0,0,0,-1,1413,1345,0,0
196,-321,0,0,0,0,0,0,0,0,0,-1,1420,1345,0,0
203,-321,0,0,0,0,0,0,0,0,0,-1,1427,1345,0,0
210,-321,0,0,0,0,0,0,0,0,0,-1,1434,1345,0,0
217,-321,0,0,0,0,0,0,0,0,0,-1,1441,1345,0,0
224,-321,0,0,0,0,0,0,0,0,0,-1,1448,1345,0,0
231,-321,0,0,0,0,0,0,0,0,0,-1,1455,1345,0,0
238,-321,0,0,0,0,0,0,0,0,0,-1,1462,1345,0,0
245,-321,0,0,0,0,0,0,0,0,0,-1,1469,1345,0,0
252,-321,0,0,0,0,0,0,0,0,0,-1,1476,1345,0,0
259,-321,0,0,0,0,0,0,0,0,0,-1,1483,1345,0,0
266,-321,0,0,0,0,0,0,0,0,0,-1,1490,1345,0,0
273,-321,0,0,0,0,0,0,0,0,0,-1,1497,1345,0,0
280,-321,0,0,0,0,0,0,0,0,0,-1,1504,1345,0,0
287,-321,0,0,0,0,0,0,0,0,0,-1,1511,1345,0,0
294,-321,0,0,0,0,0,0,0,0,0,-1,1518,1345,0,0
301,-321,0,0,0,0,0,0,0,0,0,-1,1525,1345,0,0
308,-321,0,0,0,0,0,0,0,0,0,-1,1532,1345,0,0
315,-321,0,0,0,0,0,0,0,0,0,-1,1539,1345,0,0
322,-321,0,0,0,0,0,0,0,0,0,-1,1546,1345,0,0
329,-321,0,0,0,0,0,0,0,0,0,-1,1553,1345,0,0
336,-321,0,0,0,0,0,0,0,0,0,-1,1560,1345,0,0
343,-321,0,0,0,0,0,0,0,0,0,-1,1567,1345,0,0
350,-321,0,0,0,0,0,0,0,0,0,-1,1574,1345,0,0
357,-321,0,0,0,0,0,0,0,0,0,-1,1581,1345,0,0
364,-321,0,0,0,0,0,0,0,0,0,-1,1588,1345,0,0
371,-321,0,0,0,0,0,0,0,0,0,-1,1595,1345,0,0
378,-321,0,0,0,0,0,0,0,0,0,-1,1602,1345,0,0
385,-321,0,0,0,0,0,0,0,0,0,-1,1609,1345,0,0
392,-321,0,0,0,0,0,0,0,0,0,-1,1616,1345,0,0
399,-321,0,0,0,0,0,0,0,0,0,-1,1623,1345,0,0
406,-321,0,0,0,0,0,0,0,0,0,-1,1630,1345,0,0
413,-321,0,0,0,0,0,0,0,0,0,-1,1637,1345,0,0
420,-321,0,0,0,0,0,0,0,0,0,-1,1644,1345,0,0
427,-321,0,0,0,0,0,0,0,0,0,-1,1651,1345,0,0
434,-321,0,0,0,0,0,0,0,0,0,-1,1658,1345,0,0
441,-321,0,0,0,0,0,0,0,0,0,-1,1665,1345,0,0
448,-321,0,0,0,0,0,0,0,0,0,-1,1672,1345,0,0
455,-321,0,0,0,0,0,0,0,0,0,-1,1679,1345,0,0
462,-321,0,0,0,0,0,0,0,0,0,-1,1686,1345,0,0
469,-321,0,0,0,0,0,0,0,0,0,-1,1693,1345,0,0
476,-321,0,0,0,0,0,0,0,0,0,-1,1700,1345,0,0
483,-321,0,0,0,0,0,0,0,0,0,-1,1707,1345,0,0
490,-321,0,0,0,0,0,0,0,0,0,-1,1714,1345,0,0
497,-321,0,0,0,0,0,0,0,0,0,-1,1721,1345,0,0
504,-321,0,0,0,0,0,0,0,0,0,-1,1728,1345,0,0
511,-321,0,0,0,0,0,0,0,0,0,-1,1735,1345,0,0
518,-321,0,0,0,0,0,0,0,0,0,-1,1742,1345,0,0
525,-321,0,0,0,0,0,0,0,0,0,-1,1749,1345,0,0
532,-321,0,0,0,0,0,0,0,0,0,-1,1756,1345,0,0
539,-321,0,0,0,0,0,0,0,0,0,-1,1763,1345,0,0
546,-321,0,0,0,0,0,0,0,0,0,-1,1770,1345,0,0
553,-321,0,0,0,0,0,0,0,0,0,-1,1777,1345,0,0
560,-321,0,0,0,0,0,0,0,0,0,-1,1784,1345,0,0
567,-321,0,0,0,0,0,0,0,0,0,-1,1791,1345,0,0
574,-321,0,0,0,0,0,0,0,0,0,-1,1798,1345,0,0
581,-321,31.3762,5.31677,0.0727033,0.0920489,-0.0837417,0.166675,-0.00192238,-0.842897,0.111763,0.0442278,1805,1345,31.3763,-5.31674
588,-321,31.7307,4.37842,0.0636369,0.071208,-0.0902096,0.157712,-0.0228665,-0.806368,0.113533,0.0464539,1812,1345,31.7307,-4.37838
595,-321,32.2585,3.47681,0.0526206,0.0542667,-0.0872524,0.1407,-0.0338126,-0.790114,0.106869,0.0450403,1819,1345,32.2585,-3.47678
602,-321,32.4249,2.42712,0.0416132,0.0431848,-0.0771248,0.119528,-0.0347298,-0.790492,0.0934385,0.0439364,1826,1345,32.4249,-2.42717
609,-321,32.7938,1.7345,0,0,0,0,0,0,0,-1,1833,1345,32.7938,-1.73454
616,-321,30.2117,5.40967,0,0,0,0,0,0,0,-1,1840,1345,30.2117,-5.40962
623,-321,24.8608,2.73926,0,0,0,0,0,0,0,-1,1847,1345,24.8608,-2.73922
630,-321,23.6674,4.34106,0,0,0,0,0,0,0,-1,1854,1345,23.6674,-4.34112
637,-321,21.7925,6.79224,0,0,0,0,0,0,0,-1,1861,1345,21.7925,-6.7922
644,-321,16.8844,6.71973,0,0,0,0,0,0,0,-1,1868,1345,16.8844,-6.71971
651,-321,21.8597,8.5343,0,0,0,0,0,0,0,-1,1875,1345,21.8598,-8.53425
658,-321,21.4556,8.59692,-0.0113252,-0.00863665,-0.00388764,-0.00586742,-0.0140944,-0.951853,0.00817533,0.0386305,1882,1345,21.4556,-8.5969
665,-321,21.3011,8.40112,-0.0111342,-0.00748183,0.00139359,-0.00701083,-0.0116052,1.24487,0.00674851,0.0179918,1889,1345,21.3011,-8.4011
672,-321,21.3096,8.07898,-0.00881734,-0.00515461,0.00161908,-0.00454152,-0.00943042,1.20882,0.00544589,0.0123778,1896,1345,21.3096,-8.07896
679,-321,21.3038,7.77771,-0.00615163,-0.00281288,0.00190259,-0.00195112,-0.00701339,1.1455,0.00417988,0.0105483,1903,1345,21.3038,-7.77775
686,-321,21.2751,7.48938,-0.00394498,-0.00101019,0.00167662,-0.000249514,-0.00470565,1.14487,0.00305733,0.0114361,1910,1345,21.2751,-7.48932
693,-321,21.2587,7.19641,-0.00268485,-0.000423866,0.00121165,0.000102784,-0.0032115,1.16078,0.00217607,0.0120765,1917,1345,21.2586,-7.19639
700,-321,21.2725,6.86707,-0.00170319,7.11104e-05,0.000722207,0.000327909,-0.00195999,1.22916,0.00142856,0.0119333,1924,1345,21.2725,-6.86706
707,-321,21.2841,6.57458,-0.00134092,0.000493648,0.00051403,0.000627857,-0.00147513,1.31541,0.00124657,0.0129504,1931,1345,21.2841,-6.57453
714,-321,21.2762,6.27734,-0.00124422,0.000748844,0.000477347,0.000857272,-0.00135265,1.34744,0.00128654,0.0121631,1938,1345,21.2763,-6.2773
721,-321,21.2155,5.98169,-0.00154004,0.000830771,0.000725043,0.00103492,-0.00174419,1.29633,0.00162185,0.0313642,1945,1345,21.2154,-5.98169
728,-321,21.1793,5.7677,0,0,0,0,0,0,0,-1,1952,1345,21.1793,-5.7677
735,-321,21.1051,6.10046,0,0,0,0,0,0,0,-1,1959,1345,21.1051,-6.10049
742,-321,21.9097,5.70642,0,0,0,0,0,0,0,-1,1966,1345,21.9097,-5.70645
749,-321,21.9312,5.54041,0,0,0,0,0,0,0,-1,1973,1345,21.9312,-5.54043
756,-321,19.6251,4.98315,0,0,0,0,0,0,0,-1,1980,1345,19.6251,-4.98311
763,-321,19.6747,4.61438,0,0,0,0,0,0,0,-1,1987,1345,19.6747,-4.61436
770,-321,0,0,0,0,0,0,0,0,0,-1,1994,1345,0,0
777,-321,0,0,0,0,0,0,0,0,0,-1,2001,1345,0,0
784,-321,0,0,0,0,0,0,0,0,0,-1,2008,1345,0,0
791,-321,0,0,0,0,0,0,0,0,0,-1,2015,1345,0,0
798,-321,0,0,0,0,0,0,0,0,0,-1,2022,1345,0,0
805,-321,0,0,0,0,0,0,0,0,0,-1,2029,1345,0,0
812,-321,0,0,0,0,0,0,0,0,0,-1,2036,1345,0,0
-700,-328,0,0,0,0,0,0,0,0,0,-1,524,1352,0,0
-693,-328,0,0,0,0,0,0,0,0,0,-1,531,1352,0,0
-686,-328,0,0,0,0,0,0,0,0,0,-1,538,1352,0,0
-679,-328,0,0,0,0,0,0,0,0,0,-1,545,1352,0,0
-672,-328,0,0,0,0,0,0,0,0,0,-1,552,1352,0,0
-665,-328,0,0,0,0,0,0,0,0,0,-1,559,1352,0,0
-658,-328,0,0,0,0,0,0,0,0,0,-1,566,1352,0,0
-651,-328,0,0,0,0,0,0,0,0,0,-1,573,1352,0,0
-644,-328,0,0,0,0,0,0,0,0,0,-1,580,1352,0,0
-637,-328,-12.0695,1.02014,0,0,0,0,0,0,0,-1,587,1352,-12.0694,-1.02017
-630,-328,-11.5336,5.995,0,0,0,0,0,0,0,-1,594,1352,-11.5336,-5.99499
-623,-328,-10.7739,4.55042,0,0,0,0,0,0,0,-1,601,1352,-10.7739,-4.55041
-616,-328,-8.22198,-0.25708,0,0,0,0,0,0,0,-1,608,1352,-8.22201,0.257067
-609,-328,-7.87439,0.192871,0,0,0,0,0,0,0,-1,615,1352,-7.87441,-0.192822
-602,-328,-7.63062,1.31665,0,0,0,0,0,0,0,-1,622,1352,-7.63064,-1.3166
-595,-328,-9.42639,2.93494,0,0,0,0,0,0,0,-1,629,1352,-9.42638,-2.93499
-588,-328,-10.7002,3.43555,0,0,0,0,0,0,0,-1,636,1352,-10.7002,-3.43555
-581,-328,-10.5859,4.07495,-0.00375639,0.00299255,0.00110159,0.00316781,-0.00393164,1.41303,0.00410677,0.017749,643,1352,-10.5859,-4.07496
-574,-328,-10.5566,4.43567,-0.00251946,0.00194108,0.000488415,0.00199393,-0.00257232,1.463,0.00264337,0.0140054,650,1352,-10.5566,-4.43564
-567,-328,-10.577,4.77014,-0.00131524,0.00114612,0.000120501,0.00115201,-0.00132112,1.52199,0.00142898,0.0193398,657,1352,-10.577,-4.77013
-560,-328,-10.6224,5.14087,-9.48903e-05,0.000468046,-9.48652e-05,0.000483603,-0.000110447,-1.40826,0.000364834,0.0269906,664,1352,-10.6224,-5.14082
-553,-328,-10.6584,5.45349,0.00121331,-6.22527e-05,-0.000153169,0.00123144,-8.03873e-05,-0.117848,0.000849025,0.0292076,671,1352,-10.6584,-5.45352
-546,-328,-10.6534,5.76062,0.00268779,-0.000558419,-0.000117499,0.00269204,-0.000562667,-0.0361327,0.00200869,0.0277167,678,1352,-10.6535,-5.76059
-539,-328,-10.6133,6.09961,0.00418081,-0.000971862,2.02126e-05,0.00418089,-0.000971941,0.00392266,0.00316144,0.0231113,685,1352,-10.6133,-6.09957
-532,-328,-10.5892,6.45654,0.00593749,-0.00136069,0.000267979,0.00594731,-0.00137052,0.0366529,0.00449196,0.0172314,692,1352,-10.5891,-6.4565
-525,-328,-10.5295,6.86414,0.00797477,-0.00161808,0.000606524,0.00801297,-0.00165628,0.0628928,0.00597114,0.0182891,699,1352,-10.5295,-6.86413
-518,-328,-10.5589,7.2948,0,0,0,0,0,0,0,-1,706,1352,-10.5589,-7.29476
-511,-328,-9.39868,7.16113,0,0,0,0,0,0,0,-1,713,1352,-9.39869,-7.16113
-504,-328,-8.60626,-0.905762,0,0,0,0,0,0,0,-1,720,1352,-8.60623,0.905787
-497,-328,-9.29102,-0.0517578,0,0,0,0,0,0,0,-1,727,1352,-9.29104,0.0518175
-490,-328,-10.0663,0.882813,0,0,0,0,0,0,0,-1,734,1352,-10.0663,-0.882795
-483,-328,-10.8181,1.72375,0,0,0,0,0,0,0,-1,741,1352,-10.8181,-1.72374
-476,-328,-16.8951,-0.150757,0,0,0,0,0,0,0,-1,748,1352,-16.8951,0.150795
-469,-328,-16.8412,0.00158691,0,0,0,0,0,0,0,-1,755,1352,-16.8412,-0.00161515
-462,-328,-16.3546,-0.203491,0,0,0,0,0,0,0,-1,762,1352,-16.3545,0.203532
-455,-328,0,0,0,0,0,0,0,0,0,-1,769,1352,0,0
-448,-328,0,0,0,0,0,0,0,0,0,-1,776,1352,0,0
-441,-328,0,0,0,0,0,0,0,0,0,-1,783,1352,0,0
-434,-328,0,0,0,0,0,0,0,0,0,-1,790,1352,0,0
-427,-328,0,0,0,0,0,0,0,0,0,-1,797,1352,0,0
-420,-328,0,0,0,0,0,0,0,0,0,-1,804,1352,0,0
-413,-328,0,0,0,0,0,0,0,0,0,-1,811,1352,0,0
-406,-328,0,0,0,0,0,0,0,0,0,-1,818,1352,0,0
-399,-328,0,0,0,0,0,0,0,0,0,-1,825,1352,0,0
-392,-328,0,0,0,0,0,0,0,0,0,-1,832,1352,0,0
-385,-328,0,0,0,0,0,0,0,0,0,-1,839,1352,0,0
-378,-328,0,0,0,0,0,0,0,0,0,-1,846,1352,0,0
-371,-328,0,0,0,0,0,0,0,0,0,-1,853,1352,0,0
-364,-328,0,0,0,0,0,0,0,0,0,-1,860,1352,0,0
-357,-328,0,0,0,0,0,0,0,0,0,-1,867,1352,0,0
-350,-328,0,0,0,0,0,0,0,0,0,-1,874,1352,0,0
-343,-328,0,0,0,0,0,0,0,0,0,-1,881,1352,0,0
-336,-328,0,0,0,0,0,0,0,0,0,-1,888,1352,0,0
-329,-328,0,0,0,0,0,0,0,0,0,-1,895,1352,0,0
-322,-328,0,0,0,0,0,0,0,0,0,-1,902,1352,0,0
-315,-328,0,0,0,0,0,0,0,0,0,-1,909,1352,0,0
-308,-328,0,0,0,0,0,0,0,0,0,-1,916,1352,0,0
-301,-328,0,0,0,0,0,0,0,0,0,-1,923,1352,0,0
-294,-328,0,0,0,0,0,0,0,0,0,-1,930,1352,0,0
-287,-328,0,0,0,0,0,0,0,0,0,-1,937,1352,0,0
-280,-328,0,0,0,0,0,0,0,0,0,-1,944,1352,0,0
-273,-328,0,0,0,0,0,0,0,0,0,-1,951,1352,0,0
-266,-328,0,0,0,0,0,0,0,0,0,-1,958,1352,0,0
-259,-328,0,0,0,0,0,0,0,0,0,-1,965,1352,0,0
-252,-328,0,0,0,0,0,0,0,0,0,-1,972,1352,0,0
-245,-328,0,0,0,0,0,0,0,0,0,-1,979,1352,0,0
-238,-328,0,0,0,0,0,0,0,0,0,-1,986,1352,0,0
-231,-328,0,0,0,0,0,0,0,0,0,-1,993,1352,0,0
-224,-328,0,0,0,0,0,0,0,0,0,-1,1000,1352,0,0
-217,-328,0,0,0,0,0,0,0,0,0,-1,1007,1352,0,0
-210,-328,0,0,0,0,0,0,0,0,0,-1,1014,1352,0,0
-203,-328,0,0,0,0,0,0,0,0,0,-1,1021,1352,0,0
-196,-328,0,0,0,0,0,0,0,0,0,-1,1028,1352,0,0
-189,-328,0,0,0,0,0,0,0,0,0,-1,1035,1352,0,0
-182,-328,0,0,0,0,0,0,0,0,0,-1,1042,1352,0,0
-175,-328,0,0,0,0,0,0,0,0,0,-1,1049,1352,0,0
-168,-328,0,0,0,0,0,0,0,0,0,-1,1056,1352,0,0
-161,-328,0,0,0,0,0,0,0,0,0,-1,1063,1352,0,0
-154,-328,0,0,0,0,0,0,0,0,0,-1,1070,1352,0,0
-147,-328,0,0,0,0,0,0,0,0,0,-1,1077,1352,0,0
-140,-328,0,0,0,0,0,0,0,0,0,-1,1084,1352,0,0
-133,-328,0,0,0,0,0,0,0,0,0,-1,1091,1352,0,0
-126,-328,0,0,0,0,0,0,0,0,0,-1,1098,1352,0,0
-119,-328,0,0,0,0,0,0,0,0,0,-1,1105,1352,0,0
-112,-328,0,0,0,0,0,0,0,0,0,-1,1112,1352,0,0
-105,-328,0,0,0,0,0,0,0,0,0,-1,1119,1352,0,0
-98,-328,0,0,0,0,0,0,0,0,0,-1,1126,1352,0,0
-91,-328,0,0,0,0,0,0,0,0,0,-1,1133,1352,0,0
-84,-328,0,0,0,0,0,0,0,0,0,-1,1140,1352,0,0
-77,-328,0,0,0,0,0,0,0,0,0,-1,1147,1352,0,0
-70,-328,0,0,0,0,0,0,0,0,0,-1,1154,1352,0,0
-63,-328,0,0,0,0,0,0,0,0,0,-1,1161,1352,0,0
-56,-328,0,0,0,0,0,0,0,0,0,-1,1168,1352,0,0
-49,-328,0,0,0,0,0,0,0,0,0,-1,1175,1352,0,0
-42,-328,0,0,0,0,0,0,0,0,0,-1,1182,1352,0,0
-35,-328,0,0,0,0,0,0,0,0,0,-1,1189,1352,0,0
-28,-328,0,0,0,0,0,0,0,0,0,-1,1196,1352,0,0
-21,-328,0,0,0,0,0,0,0,0,0,-1,1203,1352,0,0
-14,-328,0,0,0,0,0,0,0,0,0,-1,1210,1352,0,0
-7,-328,0,0,0,0,0,0,0,0,0,-1,1217,1352,0,0
0,-328,0,0,0,0,0,0,0,0,0,-1,1224,1352,0,0
7,-328,0,0,0,0,0,0,0,0,0,-1,1231,1352,0,0
14,-328,0,0,0,0,0,0,0,0,0,-1,1238,1352,0,0
21,-328,0,0,0,0,0,0,0,0,0,-1,1245,1352,0,0
28,-328,0,0,0,0,0,0,0,0,0,-1,1252,1352,0,0
35,-328,0,0,0,0,0,0,0,0,0,-1,1259,1352,0,0
42,-328,0,0,0,0,0,0,0,0,0,-1,1266,1352,0,0
49,-328,0,0,0,0,0,0,0,0,0,-1,1273,1352,0,0
56,-328,0,0,0,0,0,0,0,0,0,-1,1280,1352,0,0
63,-328,0,0,0,0,0,0,0,0,0,-1,1287,1352,0,0
70,-328,0,0,0,0,0,0,0,0,0,-1,1294,1352,0,0
77,-328,0,0,0,0,0,0,0,0,0,-1,1301,1352,0,0
84,-328,0,0,0,0,0,0,0,0,0,-1,1308,1352,0,0
91,-328,0,0,0,0,0,0,0,0,0,-1,1315,1352,0,0
98,-328,0,0,0,0,0,0,0,0,0,-1,1322,1352,0,0
105,-328,0,0,0,0,0,0,0,0,0,-1,1329,1352,0,0
112,-328,0,0,0,0,0,0,0,0,0,-1,1336,1352,0,0
119,-328,0,0,0,0,0,0,0,0,0,-1,1343,1352,0,0
126,-328,0,0,0,0,0,0,0,0,0,-1,1350,1352,0,0
133,-328,0,0,0,0,0,0,0,0,0,-1,1357,1352,0,0
140,-328,0,0,0,0,0,0,0,0,0,-1,1364,1352,0,0
147,-328,0,0,0,0,0,0,0,0,0,-1,1371,1352,0,0
154,-328,0,0,0,0,0,0,0,0,0,-1,1378,1352,0,0
161,-328,0,0,0,0,0,0,0,0,0,-1,1385,1352,0,0
168,-328,0,0,0,0,0,0,0,0,0,-1,1392,1352,0,0
175,-328,0,0,0,0,0,0,0,0,0,-1,1399,1352,0,0
182,-328,0,0,0,0,0,0,0,0,0,-1,1406,1352,0,0
189,-328,0,0,0,0,0,0,0,0,0,-1,1413,1352,0,0
196,-328,0,0,0,0,0,0,0,0,0,-1,1420,1352,0,0
203,-328,0,0,0,0,0,0,0,0,0,-1,1427,1352,0,0
210,-328,0,0,0,0,0,0,0,0,0,-1,1434,1352,0,0
217,-328,0,0,0,0,0,0,0,0,0,-1,1441,1352,0,0
224,-328,0,0,0,0,0,0,0,0,0,-1,1448,1352,0,0
231,-328,0,0,0,0,0,0,0,0,0,-1,1455,1352,0,0
238,-328,0,0,0,0,0,0,0,0,0,-1,1462,1352,0,0
245,-328,0,0,0,0,0,0,0,0,0,-1,1469,1352,0,0
252,-328,0,0,0,0,0,0,0,0,0,-1,1476,1352,0,0
259,-328,0,0,0,0,0,0,0,0,0,-1,1483,1352,0,0
266,-328,0,0,0,0,0,0,0,0,0,-1,1490,1352,0,0
273,-328,0,0,0,0,0,0,0,0,0,-1,1497,1352,0,0
280,-328,0,0,0,0,0,0,0,0,0,-1,1504,1352,0,0
287,-328,0,0,0,0,0,0,0,0,0,-1,1511,1352,0,0
294,-328,0,0,0,0,0,0,0,0,0,-1,1518,1352,0,0
301,-328,0,0,0,0,0,0,0,0,0,-1,1525,1352,0,0
308,-328,0,0,0,0,0,0,0,0,0,-1,1532,1352,0,0
315,-328,0,0,0,0,0,0,0,0,0,-1,1539,1352,0,0
322,-328,0,0,0,0,0,0,0,0,0,-1,1546,1352,0,0
329,-328,0,0,0,0,0,0,0,0,0,-1,1553,1352,0,0
336,-328,0,0,0,0,0,0,0,0,0,-1,1560,1352,0,0
343,-328,0,0,0,0,0,0,0,0,0,-1,1567,1352,0,0
350,-328,0,0,0,0,0,0,0,0,0,-1,1574,1352,0,0
357,-328,0,0,0,0,0,0,0,0,0,-1,1581,1352,0,0
364,-328,0,0,0,0,0,0,0,0,0,-1,1588,1352,0,0
371,-328,0,0,0,0,0,0,0,0,0,-1,1595,1352,0,0
378,-328,0,0,0,0,0,0,0,0,0,-1,1602,1352,0,0
385,-328,0,0,0,0,0,0,0,0,0,-1,1609,1352,0,0
392,-328,0,0,0,0,0,0,0,0,0,-1,1616,1352,0,0
399,-328,0,0,0,0,0,0,0,0,0,-1,1623,1352,0,0
406,-328,0,0,0,0,0,0,0,0,0,-1,1630,1352,0,0
413,-328,0,0,0,0,0,0,0,0,0,-1,1637,1352,0,0
420,-328,0,0,0,0,0,0,0,0,0,-1,1644,1352,0,0
427,-328,0,0,0,0,0,0,0,0,0,-1,1651,1352,0,0
434,-328,0,0,0,0,0,0,0,0,0,-1,1658,1352,0,0
441,-328,0,0,0,0,0,0,0,0,0,-1,1665,1352,0,0
448,-328,0,0,0,0,0,0,0,0,0,-1,1672,1352,0,0
455,-328,0,0,0,0,0,0,0,0,0,-1,1679,1352,0,0
462,-328,0,0,0,0,0,0,0,0,0,-1,1686,1352,0,0
469,-328,0,0,0,0,0,0,0,0,0,-1,1693,1352,0,0
476,-328,0,0,0,0,0,0,0,0,0,-1,1700,1352,0,0
483,-328,0,0,0,0,0,0,0,0,0,-1,1707,1352,0,0
490,-328,0,0,0,0,0,0,0,0,0,-1,1714,1352,0,0
497,-328,0,0,0,0,0,0,0,0,0,-1,1721,1352,0,0
504,-328,0,0,0,0,0,0,0,0,0,-1,1728,1352,0,0
511,-328,0,0,0,0,0,0,0,0,0,-1,1735,1352,0,0
518,-328,0,0,0,0,0,0,0,0,0,-1,1742,1352,0,0
525,-328,0,0,0,0,0,0,0,0,0,-1,1749,1352,0,0
532,-328,0,0,0,0,0,0,0,0,0,-1,1756,1352,0,0
539,-328,0,0,0,0,0,0,0,0,0,-1,1763,1352,0,0
546,-328,0,0,0,0,0,0,0,0,0,-1,1770,1352,0,0
553,-328,0,0,0,0,0,0,0,0,0,-1,1777,1352,0,0
560,-328,0,0,0,0,0,0,0,0,0,-1,1784,1352,0,0
567,-328,0,0,0,0,0,0,0,0,0,-1,1791,1352,0,0
574,-328,31.3146,5.90698,0,0,0,0,0,0,0,-1,1798,1352,31.3146,-5.90701
581,-328,31.5364,4.81274,0.0840126,0.0869166,-0.0923066,0.177783,-0.00685345,-0.793263,0.120871,0.0445949,1805,1352,31.5363,-4.81269
588,-328,31.9658,3.89026,0.0738268,0.0691974,-0.0930618,0.164603,-0.0215785,-0.772965,0.11759,0.0465944,1812,1352,31.9658,-3.8903
595,-328,32.788,3.38745,0.0610829,0.057793,-0.0850802,0.144534,-0.0256581,-0.775732,0.105949,0.0483125,1819,1352,32.788,-3.38751
602,-328,32.8904,2.18738,0,0,0,0,0,0,0,-1,1826,1352,32.8903,-2.18738
609,-328,31.068,4.38977,0,0,0,0,0,0,0,-1,1833,1352,31.068,-4.38972
616,-328,28.8717,5.45459,0,0,0,0,0,0,0,-1,1840,1352,28.8717,-5.45465
623,-328,26.8594,6.41528,0,0,0,0,0,0,0,-1,1847,1352,26.8593,-6.41528
630,-328,22.0211,5.026,0,0,0,0,0,0,0,-1,1854,1352,22.0212,-5.02603
637,-328,21.15,5.53699,0,0,0,0,0,0,0,-1,1861,1352,21.15,-5.53704
644,-328,16.9579,6.3396,0,0,0,0,0,0,0,-1,1868,1352,16.9579,-6.33959
651,-328,21.2032,8.55615,0,0,0,0,0,0,0,-1,1875,1352,21.2033,-8.55614
658,-328,21.0184,8.68811,-0.00709228,-0.00779925,-0.00429483,-0.00313641,-0.0117551,-0.744338,0.00702855,0.0293629,1882,1352,21.0184,-8.68811
665,-328,21.0139,8.39087,-0.00688673,-0.00632286,0.000826554,-0.00573148,-0.00747811,0.94976,0.0045172,0.0144773,1889,1352,21.0139,-8.3909
672,-328,21.0039,8.10632,-0.00526695,-0.00406119,0.00111258,-0.00339865,-0.00592949,1.03369,0.00343559,0.0116656,1896,1352,21.004,-8.10633
679,-328,21.0139,7.79529,-0.00358641,-0.00206778,0.00134545,-0.00128217,-0.00437203,1.0423,0.00259511,0.0125727,1903,1352,21.0139,-7.79531
686,-328,20.9867,7.48792,-0.00245207,-0.000692284,0.00119312,-8.96989e-05,-0.00305466,1.10312,0.00200721,0.0117564,1910,1352,20.9867,-7.48786
693,-328,20.9783,7.20117,-0.00192274,-0.0001906,0.000896096,0.00018955,-0.00230289,1.16958,0.00160219,0.00891747,1917,1352,20.9782,-7.20118
700,-328,20.9851,6.91125,-0.00141167,0.000332662,0.000487879,0.000459845,-0.00153886,1.31579,0.0012087,0.0129649,1924,1352,20.9852,-6.91125
707,-328,20.9816,6.60352,-0.00130011,0.00078648,0.000312417,0.000832253,-0.00134588,1.42532,0.00126915,0.0144443,1931,1352,20.9815,-6.60358
714,-328,20.9799,6.27368,-0.00153697,0.00105662,0.000344512,0.0011016,-0.00158195,1.44096,0.0015576,0.014039,1938,1352,20.9799,-6.27366
721,-328,20.8145,5.98413,-0.00226078,0.0012415,0.000666304,0.00136398,-0.00238326,1.38901,0.00218999,0.0358225,1945,1352,20.8145,-5.98408
728,-328,20.8562,5.57129,0,0,0,0,0,0,0,-1,1952,1352,20.8562,-5.57125
735,-328,20.8927,5.23523,0,0,0,0,0,0,0,-1,1959,1352,20.8927,-5.23528
742,-328,20.3547,4.11316,0,0,0,0,0,0,0,-1,1966,1352,20.3547,-4.11321
749,-328,20.0669,5.66321,0,0,0,0,0,0,0,-1,1973,1352,20.0669,-5.66319
756,-328,19.9543,5.50464,0,0,0,0,0,0,0,-1,1980,1352,19.9543,-5.50463
763,-328,0,0,0,0,0,0,0,0,0,-1,1987,1352,0,0
770,-328,0,0,0,0,0,0,0,0,0,-1,1994,1352,0,0
777,-328,0,0,0,0,0,0,0,0,0,-1,2001,1352,0,0
784,-328,0,0,0,0,0,0,0,0,0,-1,2008,1352,0,0
791,-328,0,0,0,0,0,0,0,0,0,-1,2015,1352,0,0
798,-328,0,0,0,0,0,0,0,0,0,-1,2022,1352,0,0
805,-328,0,0,0,0,0,0,0,0,0,-1,2029,1352,0,0
812,-328,0,0,0,0,0,0,0,0,0,-1,2036,1352,0,0
-700,-335,0,0,0,0,0,0,0,0,0,-1,524,1359,0,0
-693,-335,0,0,0,0,0,0,0,0,0,-1,531,1359,0,0
-686,-335,0,0,0,0,0,0,0,0,0,-1,538,1359,0,0
-679,-335,0,0,0,0,0,0,0,0,0,-1,545,1359,0,0
-672,-335,0,0,0,0,0,0,0,0,0,-1,552,1359,0,0
-665,-335,0,0,0,0,0,0,0,0,0,-1,559,1359,0,0
-658,-335,0,0,0,0,0,0,0,0,0,-1,566,1359,0,0
-651,-335,0,0,0,0,0,0,0,0,0,-1,573,1359,0,0
-644,-335,0,0,0,0,0,0,0,0,0,-1,580,1359,0,0
-637,-335,-9.64746,3.53809,0,0,0,0,0,0,0,-1,587,1359,-9.64744,-3.53803
-630,-335,-6.07397,-2.99902,0,0,0,0,0,0,0,-1,594,1359,-6.07397,2.99902
-623,-335,-8.43304,1.09509,0,0,0,0,0,0,0,-1,601,1359,-8.43301,-1.09507
-616,-335,-7.80927,-0.485352,0,0,0,0,0,0,0,-1,608,1359,-7.80926,0.485291
-609,-335,-7.12256,-2.03601,0,0,0,0,0,0,0,-1,615,1359,-7.12253,2.03601
-602,-335,-9.39935,2.25146,0,0,0,0,0,0,0,-1,622,1359,-9.39935,-2.25145
-595,-335,-9.54767,3.01917,0,0,0,0,0,0,0,-1,629,1359,-9.54768,-3.01911
-588,-335,-10.2803,3.60938,0,0,0,0,0,0,0,-1,636,1359,-10.2803,-3.60934
-581,-335,-10.2134,4.13721,-0.00569903,0.00216307,0.000238683,0.00217031,-0.00570627,1.54047,0.00469781,0.0285649,643,1359,-10.2134,-4.13722
-574,-335,-10.217,4.4436,-0.00398697,0.00132009,-0.000162847,0.00132508,-0.00399196,-1.54015,0.00319592,0.0126073,650,1359,-10.217,-4.44365
-567,-335,-10.2111,4.80249,-0.002444,0.000734641,-0.000336542,0.000769882,-0.00247924,-1.46646,0.00196051,0.0169082,657,1359,-10.2111,-4.80243
-560,-335,-10.1987,5.11548,-0.000930631,0.000276261,-0.000343542,0.000367199,-0.00102157,-1.31203,0.000830944,0.0253029,664,1359,-10.1987,-5.11547
-553,-335,-10.2109,5.45972,0.000610298,-8.66072e-05,-0.00022566,0.000676986,-0.000153295,-0.287346,0.000510158,0.0285396,671,1359,-10.2109,-5.45966
-546,-335,-10.2258,5.82983,0.00228701,-0.000424031,-6.99629e-06,0.00228703,-0.000424049,-0.00258064,0.00168393,0.025455,678,1359,-10.2258,-5.82989
-539,-335,-10.2296,6.1521,0.00396183,-0.000671682,0.000318222,0.00398358,-0.000693435,0.0682513,0.0029145,0.0193506,685,1359,-10.2296,-6.15212
-532,-335,-10.2516,6.49597,0.0058319,-0.000904119,0.000762028,0.00591703,-0.000989249,0.111254,0.00431243,0.0151204,692,1359,-10.2516,-6.49596
-525,-335,-10.2056,6.84424,0.00795783,-0.00101025,0.00134567,0.0081554,-0.00120782,0.145775,0.00588103,0.0111546,699,1359,-10.2055,-6.8442
-518,-335,-10.1777,7.13293,0.0104737,-0.00138819,0.00203333,0.0108125,-0.00172705,0.165139,0.00784765,0.0280082,706,1359,-10.1777,-7.13297
-511,-335,-10.1458,7.38623,0,0,0,0,0,0,0,-1,713,1359,-10.1458,-7.38617
-504,-335,-9.35767,5.99695,0,0,0,0,0,0,0,-1,720,1359,-9.35767,-5.99694
-497,-335,-8.75024,-0.650513,0,0,0,0,0,0,0,-1,727,1359,-8.75024,0.650521
-490,-335,-9.51971,0.417603,0,0,0,0,0,0,0,-1,734,1359,-9.51974,-0.41765
-483,-335,-10.2883,1.29224,0,0,0,0,0,0,0,-1,741,1359,-10.2883,-1.2922
-476,-335,-11.9938,-0.173462,0,0,0,0,0,0,0,-1,748,1359,-11.9938,0.173429
-469,-335,-12.8704,-0.204102,0,0,0,0,0,0,0,-1,755,1359,-12.8704,0.204117
-462,-335,-13.486,0.0218506,0,0,0,0,0,0,0,-1,762,1359,-13.4859,-0.0217908
-455,-335,-14.1504,0.549561,0,0,0,0,0,0,0,-1,769,1359,-14.1504,-0.549583
-448,-335,0,0,0,0,0,0,0,0,0,-1,776,1359,0,0
-441,-335,0,0,0,0,0,0,0,0,0,-1,783,1359,0,0
-434,-335,0,0,0,0,0,0,0,0,0,-1,790,1359,0,0
-427,-335,0,0,0,0,0,0,0,0,0,-1,797,1359,0,0
-420,-335,0,0,0,0,0,0,0,0,0,-1,804,1359,0,0
-413,-335,0,0,0,0,0,0,0,0,0,-1,811,1359,0,0
-406,-335,0,0,0,0,0,0,0,0,0,-1,818,1359,0,0
-399,-335,0,0,0,0,0,0,0,0,0,-1,825,1359,0,0
-392,-335,0,0,0,0,0,0,0,0,0,-1,832,1359,0,0
-385,-335,0,0,0,0,0,0,0,0,0,-1,839,1359,0,0
-378,-335,0,0,0,0,0,0,0,0,0,-1,846,1359,0,0
-371,-335,0,0,0,0,0,0,0,0,0,-1,853,1359,0,0
-364,-335,0,0,0,0,0,0,0,0,0,-1,860,1359,0,0
-357,-335,0,0,0,0,0,0,0,0,0,-1,867,1359,0,0
-350,-335,0,0,0,0,0,0,0,0,0,-1,874,1359,0,0
-343,-335,0,0,0,0,0,0,0,0,0,-1,881,1359,0,0
-336,-335,0,0,0,0,0,0,0,0,0,-1,888,1359,0,0
-329,-335,0,0,0,0,0,0,0,0,0,-1,895,1359,0,0
-322,-335,0,0,0,0,0,0,0,0,0,-1,902,1359,0,0
-315,-335,0,0,0,0,0,0,0,0,0,-1,909,1359,0,0
-308,-335,0,0,0,0,0,0,0,0,0,-1,916,1359,0,0
-301,-335,0,0,0,0,0,0,0,0,0,-1,923,1359,0,0
-294,-335,0,0,0,0,0,0,0,0,0,-1,930,1359,0,0
-287,-335,0,0,0,0,0,0,0,0,0,-1,937,1359,0,0
-280,-335,0,0,0,0,0,0,0,0,0,-1,944,1359,0,0
-273,-335,0,0,0,0,0,0,0,0,0,-1,951,1359,0,0
-266,-335,0,0,0,0,0,0,0,0,0,-1,958,1359,0,0
-259,-335,0,0,0,0,0,0,0,0,0,-1,965,1359,0,0
-252,-335,0,0,0,0,0,0,0,0,0,-1,972,1359,0,0
-245,-335,0,0,0,0,0,0,0,0,0,-1,979,1359,0,0
-238,-335,0,0,0,0,0,0,0,0,0,-1,986,1359,0,0
-231,-335,0,0,0,0,0,0,0,0,0,-1,993,1359,0,0
-224,-335,0,0,0,0,0,0,0,0,0,-1,1000,1359,0,0
-217,-335,0,0,0,0,0,0,0,0,0,-1,1007,1359,0,0
-210,-335,0,0,0,0,0,0,0,0,0,-1,1014,1359,0,0
-203,-335,0,0,0,0,0,0,0,0,0,-1,1021,1359,0,0
-196,-335,0,0,0,0,0,0,0,0,0,-1,1028,1359,0,0
-189,-335,0,0,0,0,0,0,0,0,0,-1,1035,1359,0,0
-182,-335,0,0,0,0,0,0,0,0,0,-1,1042,1359,0,0
-175,-335,0,0,0,0,0,0,0,0,0,-1,1049,1359,0,0
-168,-335,0,0,0,0,0,0,0,0,0,-1,1056,1359,0,0
-161,-335,0,0,0,0,0,0,0,0,0,-1,1063,1359,0,0
-154,-335,0,0,0,0,0,0,0,0,0,-1,1070,1359,0,0
-147,-335,0,0,0,0,0,0,0,0,0,-1,1077,1359,0,0
-140,-335,0,0,0,0,0,0,0,0,0,-1,1084,1359,0,0
-133,-335,0,0,0,0,0,0,0,0,0,-1,1091,1359,0,0
-126,-335,0,0,0,0,0,0,0,0,0,-1,1098,1359,0,0
-119,-335,0,0,0,0,0,0,0,0,0,-1,1105,1359,0,0
-112,-335,0,0,0,0,0,0,0,0,0,-1,1112,1359,0,0
-105,-335,0,0,0,0,0,0,0,0,0,-1,1119,1359,0,0
-98,-335,0,0,0,0,0,0,0,0,0,-1,1126,1359,0,0
-91,-335,0,0,0,0,0,0,0,0,0,-1,1133,1359,0,0
-84,-335,0,0,0,0,0,0,0,0,0,-1,1140,1359,0,0
-77,-335,0,0,0,0,0,0,0,0,0,-1,1147,1359,0,0
-70,-335,0,0,0,0,0,0,0,0,0,-1,1154,1359,0,0
-63,-335,0,0,0,0,0,0,0,0,0,-1,1161,1359,0,0
-56,-335,0,0,0,0,0,0,0,0,0,-1,1168,1359,0,0
-49,-335,0,0,0,0,0,0,0,0,0,-1,1175,1359,0,0
-42,-335,0,0,0,0,0,0,0,0,0,-1,1182,1359,0,0
-35,-335,0,0,0,0,0,0,0,0,0,-1,1189,1359,0,0
-28,-335,0,0,0,0,0,0,0,0,0,-1,1196,1359,0,0
-21,-335,0,0,0,0,0,0,0,0,0,-1,1203,1359,0,0
-14,-335,0,0,0,0,0,0,0,0,0,-1,1210,1359,0,0
-7,-335,0,0,0,0,0,0,0,0,0,-1,1217,1359,0,0
0,-335,0,0,0,0,0,0,0,0,0,-1,1224,1359,0,0
7,-335,0,0,0,0,0,0,0,0,0,-1,1231,1359,0,0
14,-335,0,0,0,0,0,0,0,0,0,-1,1238,1359,0,0
21,-335,0,0,0,0,0,0,0,0,0,-1,1245,1359,0,0
28,-335,0,0,0,0,0,0,0,0,0,-1,1252,1359,0,0
35,-335,0,0,0,0,0,0,0,0,0,-1,1259,1359,0,0
42,-335,0,0,0,0,0,0,0,0,0,-1,1266,1359,0,0
49,-335,0,0,0,0,0,0,0,0,0,-1,1273,1359,0,0
56,-335,0,0,0,0,0,0,0,0,0,-1,1280,1359,0,0
63,-335,0,0,0,0,0,0,0,0,0,-1,1287,1359,0,0
70,-335,0,0,0,0,0,0,0,0,0,-1,1294,1359,0,0
77,-335,0,0,0,0,0,0,0,0,0,-1,1301,1359,0,0
84,-335,0,0,0,0,0,0,0,0,0,-1,1308,1359,0,0
91,-335,0,0,0,0,0,0,0,0,0,-1,1315,1359,0,0
98,-335,0,0,0,0,0,0,0,0,0,-1,1322,1359,0,0
105,-335,0,0,0,0,0,0,0,0,0,-1,1329,1359,0,0
112,-335,0,0,0,0,0,0,0,0,0,-1,1336,1359,0,0
119,-335,0,0,0,0,0,0,0,0,0,-1,1343,1359,0,0
126,-335,0,0,0,0,0,0,0,0,0,-1,1350,1359,0,0
133,-335,0,0,0,0,0,0,0,0,0,-1,1357,1359,0,0
140,-335,0,0,0,0,0,0,0,0,0,-1,1364,1359,0,0
147,-335,0,0,0,0,0,0,0,0,0,-1,1371,1359,0,0
154,-335,0,0,0,0,0,0,0,0,0,-1,1378,1359,0,0
161,-335,0,0,0,0,0,0,0,0,0,-1,1385,1359,0,0
168,-335,0,0,0,0,0,0,0,0,0,-1,1392,1359,0,0
175,-335,0,0,0,0,0,0,0,0,0,-1,1399,1359,0,0
182,-335,0,0,0,0,0,0,0,0,0,-1,1406,1359,0,0
189,-335,0,0,0,0,0,0,0,0,0,-1,1413,1359,0,0
196,-335,0,0,0,0,0,0,0,0,0,-1,1420,1359,0,0
203,-335,0,0,0,0,0,0,0,0,0,-1,1427,1359,0,0
210,-335,0,0,0,0,0,0,0,0,0,-1,1434,1359,0,0
217,-335,0,0,0,0,0,0,0,0,0,-1,1441,1359,0,0
224,-335,0,0,0,0,0,0,0,0,0,-1,1448,1359,0,0
231,-335,0,0,0,0,0,0,0,0,0,-1,1455,1359,0,0
238,-335,0,0,0,0,0,0,0,0,0,-1,1462,1359,0,0
245,-335,0,0,0,0,0,0,0,0,0,-1,1469,1359,0,0
252,-335,0,0,0,0,0,0,0,0,0,-1,1476,1359,0,0
259,-335,0,0,0,0,0,0,0,0,0,-1,1483,1359,0,0
266,-335,0,0,0,0,0,0,0,0,0,-1,1490,1359,0,0
273,-335,0,0,0,0,0,0,0,0,0,-1,1497,1359,0,0
280,-335,0,0,0,0,0,0,0,0,0,-1,1504,1359,0,0
287,-335,0,0,0,0,0,0,0,0,0,-1,1511,1359,0,0
294,-335,0,0,0,0,0,0,0,0,0,-1,1518,1359,0,0
301,-335,0,0,0,0,0,0,0,0,0,-1,1525,1359,0,0
308,-335,0,0,0,0,0,0,0,0,0,-1,1532,1359,0,0
315,-335,0,0,0,0,0,0,0,0,0,-1,1539,1359,0,0
322,-335,0,0,0,0,0,0,0,0,0,-1,1546,1359,0,0
329,-335,0,0,0,0,0,0,0,0,0,-1,1553,1359,0,0
336,-335,0,0,0,0,0,0,0,0,0,-1,1560,1359,0,0
343,-335,0,0,0,0,0,0,0,0,0,-1,1567,1359,0,0
350,-335,0,0,0,0,0,0,0,0,0,-1,1574,1359,0,0
357,-335,0,0,0,0,0,0,0,0,0,-1,1581,1359,0,0
364,-335,0,0,0,0,0,0,0,0,0,-1,1588,1359,0,0
371,-335,0,0,0,0,0,0,0,0,0,-1,1595,1359,0,0
378,-335,0,0,0,0,0,0,0,0,0,-1,1602,1359,0,0
385,-335,0,0,0,0,0,0,0,0,0,-1,1609,1359,0,0
392,-335,0,0,0,0,0,0,0,0,0,-1,1616,1359,0,0
399,-335,0,0,0,0,0,0,0,0,0,-1,1623,1359,0,0
406,-335,0,0,0,0,0,0,0,0,0,-1,1630,1359,0,0
413,-335,0,0,0,0,0,0,0,0,0,-1,1637,1359,0,0
420,-335,0,0,0,0,0,0,0,0,0,-1,1644,1359,0,0
427,-335,0,0,0,0,0,0,0,0,0,-1,1651,1359,0,0
434,-335,0,0,0,0,0,0,0,0,0,-1,1658,1359,0,0
441,-335,0,0,0,0,0,0,0,0,0,-1,1665,1359,0,0
448,-335,0,0,0,0,0,0,0,0,0,-1,1672,1359,0,0
455,-335,0,0,0,0,0,0,0,0,0,-1,1679,1359,0,0
462,-335,0,0,0,0,0,0,0,0,0,-1,1686,1359,0,0
469,-335,0,0,0,0,0,0,0,0,0,-1,1693,1359,0,0
476,-335,0,0,0,0,0,0,0,0,0,-1,1700,1359,0,0
483,-335,0,0,0,0,0,0,0,0,0,-1,1707,1359,0,0
490,-335,0,0,0,0,0,0,0,0,0,-1,1714,1359,0,0
497,-335,0,0,0,0,0,0,0,0,0,-1,1721,1359,0,0
504,-335,0,0,0,0,0,0,0,0,0,-1,1728,1359,0,0
511,-335,0,0,0,0,0,0,0,0,0,-1,1735,1359,0,0
518,-335,0,0,0,0,0,0,0,0,0,-1,1742,1359,0,0
525,-335,0,0,0,0,0,0,0,0,0,-1,1749,1359,0,0
532,-335,0,0,0,0,0,0,0,0,0,-1,1756,1359,0,0
539,-335,0,0,0,0,0,0,0,0,0,-1,1763,1359,0,0
546,-335,0,0,0,0,0,0,0,0,0,-1,1770,1359,0,0
553,-335,0,0,0,0,0,0,0,0,0,-1,1777,1359,0,0
560,-335,0,0,0,0,0,0,0,0,0,-1,1784,1359,0,0
567,-335,0,0,0,0,0,0,0,0,0,-1,1791,1359,0,0
574,-335,31.4459,5.40637,0,0,0,0,0,0,0,-1,1798,1359,31.4459,-5.40641
581,-335,31.7351,4.23462,0,0,0,0,0,0,0,-1,1805,1359,31.7351,-4.23461
588,-335,32.349,3.34009,0,0,0,0,0,0,0,-1,1812,1359,32.349,-3.34011
595,-335,33.3251,3.5072,0,0,0,0,0,0,0,-1,1819,1359,33.3251,-3.50721
602,-335,32.7783,3.3717,0,0,0,0,0,0,0,-1,1826,1359,32.7783,-3.37167
609,-335,30.826,4.40063,0,0,0,0,0,0,0,-1,1833,1359,30.826,-4.40063
616,-335,28.298,5.98853,0,0,0,0,0,0,0,-1,1840,1359,28.298,-5.98849
623,-335,26.6051,6.54333,0,0,0,0,0,0,0,-1,1847,1359,26.6051,-6.54339
630,-335,19.1707,1.00952,0,0,0,0,0,0,0,-1,1854,1359,19.1707,-1.00953
637,-335,18.2009,6.65454,0,0,0,0,0,0,0,-1,1861,1359,18.2009,-6.6546
644,-335,20.8884,9.21375,0,0,0,0,0,0,0,-1,1868,1359,20.8885,-9.21368
651,-335,20.7538,8.97864,-0.00449681,-0.00382018,-0.012057,0.00790327,-0.0162203,-0.799424,0.014201,0.0343903,1875,1359,20.7538,-8.97864
658,-335,20.6606,8.75867,-0.00596464,-0.00627849,-0.00384721,-0.00227116,-0.00997197,-0.765015,0.0060351,0.0189541,1882,1359,20.6607,-8.75869
665,-335,20.6957,8.41174,-0.00535179,-0.00481515,0.000494153,-0.00452117,-0.00564577,1.03412,0.00345062,0.0148255,1889,1359,20.6957,-8.41176
672,-335,20.7065,8.0835,-0.00365451,-0.00291544,0.000793753,-0.00240942,-0.00416053,1.00325,0.00241208,0.0171541,1896,1359,20.7065,-8.08347
679,-335,20.7061,7.80359,-0.00235609,-0.00140246,0.00093561,-0.000829176,-0.00292938,1.02106,0.00174354,0.0138392,1903,1359,20.7061,-7.80357
686,-335,20.71,7.5,-0.00163049,-0.000442583,0.000818195,-2.54851e-05,-0.00204758,1.09936,0.00135664,0.010585,1910,1359,20.7099,-7.50005
693,-335,20.6975,7.18677,-0.00130736,9.29954e-07,0.000634115,0.000257833,-0.00156426,1.18587,0.00113856,0.00974834,1917,1359,20.6975,-7.18683
700,-335,20.6814,6.90784,-0.00101153,0.000497527,0.000330575,0.000566766,-0.00108077,1.36433,0.00096651,0.011148,1924,1359,20.6814,-6.90783
707,-335,20.6637,6.61755,-0.00112661,0.000941024,0.000233392,0.000967041,-0.00115263,1.45978,0.00122536,0.0144718,1931,1359,20.6637,-6.61759
714,-335,20.6796,6.19006,-0.00169301,0.00117009,0.000414291,0.00122883,-0.00175176,1.42994,0.00172965,0.0260588,1938,1359,20.6796,-6.19002
721,-335,20.3654,5.79749,-0.00282925,0.00138749,0.000918231,0.00157876,-0.00302053,1.36542,0.00269854,0.0465857,1945,1359,20.3653,-5.79744
728,-335,20.3097,5.39355,0,0,0,0,0,0,0,-1,1952,1359,20.3097,-5.39353
735,-335,20.2725,5.34729,0,0,0,0,0,0,0,-1,1959,1359,20.2724,-5.34734
742,-335,19.8624,4.72229,0,0,0,0,0,0,0,-1,1966,1359,19.8624,-4.72225
749,-335,20.5887,6.05322,0,0,0,0,0,0,0,-1,1973,1359,20.5887,-6.05322
756,-335,20.7832,6.00452,0,0,0,0,0,0,0,-1,1980,1359,20.7832,-6.00447
763,-335,0,0,0,0,0,0,0,0,0,-1,1987,1359,0,0
770,-335,0,0,0,0,0,0,0,0,0,-1,1994,1359,0,0
777,-335,0,0,0,0,0,0,0,0,0,-1,2001,1359,0,0
784,-335,0,0,0,0,0,0,0,0,0,-1,2008,1359,0,0
791,-335,0,0,0,0,0,0,0,0,0,-1,2015,1359,0,0
798,-335,0,0,0,0,0,0,0,0,0,-1,2022,1359,0,0
805,-335,0,0,0,0,0,0,0,0,0,-1,2029,1359,0,0
812,-335,0,0,0,0,0,0,0,0,0,-1,2036,1359,0,0
-700,-342,0,0,0,0,0,0,0,0,0,-1,524,1366,0,0
-693,-342,0,0,0,0,0,0,0,0,0,-1,531,1366,0,0
-686,-342,0,0,0,0,0,0,0,0,0,-1,538,1366,0,0
-679,-342,0,0,0,0,0,0,0,0,0,-1,545,1366,0,0
-672,-342,0,0,0,0,0,0,0,0,0,-1,552,1366,0,0
-665,-342,0,0,0,0,0,0,0,0,0,-1,559,1366,0,0
-658,-342,0,0,0,0,0,0,0,0,0,-1,566,1366,0,0
-651,-342,0,0,0,0,0,0,0,0,0,-1,573,1366,0,0
-644,-342,0,0,0,0,0,0,0,0,0,-1,580,1366,0,0
-637,-342,-8.67786,-4.58557,0,0,0,0,0,0,0,-1,587,1366,-8.67788,4.5856
-630,-342,-8.60132,2.71777,0,0,0,0,0,0,0,-1,594,1366,-8.60135,-2.71779
-623,-342,-8.41168,0.662476,0,0,0,0,0,0,0,-1,601,1366,-8.41168,-0.662442
-616,-342,-6.625,-1.28015,0,0,0,0,0,0,0,-1,608,1366,-6.62499,1.28011
-609,-342,-7.83154,0.674561,0,0,0,0,0,0,0,-1,615,1366,-7.83155,-0.674598
-602,-342,-9.65765,2.25195,0,0,0,0,0,0,0,-1,622,1366,-9.65767,-2.25192
-595,-342,-9.47687,3.00671,0,0,0,0,0,0,0,-1,629,1366,-9.47686,-3.00668
-588,-342,-9.78467,3.57727,0,0,0,0,0,0,0,-1,636,1366,-9.78468,-3.57723
-581,-342,-9.80536,3.98645,-0.00692948,0.0012065,-0.000642254,0.00125689,-0.00697986,-1.4925,0.00512385,0.0492574,643,1366,-9.80534,-3.98651
-574,-342,-9.91754,4.44507,-0.00503922,0.00050659,-0.000910751,0.000652327,-0.00518495,-1.41212,0.00369333,0.012816,650,1366,-9.91756,-4.44502
-567,-342,-9.85638,4.77759,-0.00335226,0.000106942,-0.000933952,0.000342992,-0.00358832,-1.32324,0.00251435,0.0155074,657,1366,-9.85639,-4.77755
-560,-342,-9.86841,5.09155,-0.00172114,-0.000165905,-0.00078525,0.000161606,-0.00204865,-1.17565,0.0014227,0.0244315,664,1366,-9.86839,-5.09161
-553,-342,-9.88971,5.43335,-5.47219e-05,-0.000327933,-0.000494631,0.00032182,-0.000704475,-0.650668,0.000606105,0.0287017,671,1366,-9.88968,-5.43332
-546,-342,-9.87695,5.78577,0.00174431,-0.000456902,-8.85049e-05,0.00174787,-0.000460455,-0.040121,0.00134526,0.0278753,678,1366,-9.87697,-5.78573
-539,-342,-9.87097,6.17981,0.00353474,-0.0004935,0.000426685,0.00357944,-0.0005382,0.10438,0.00258444,0.0214881,685,1366,-9.87096,-6.17987
-532,-342,-9.9046,6.52722,0.00546262,-0.000525433,0.00105097,0.00564172,-0.000704533,0.168793,0.00401664,0.0168765,692,1366,-9.90458,-6.52719
-525,-342,-9.86572,6.86047,0.00760049,-0.00044446,0.00182826,0.00799648,-0.000840449,0.213299,0.00563208,0.0119946,699,1366,-9.86575,-6.8605
-518,-342,-9.83875,7.20984,0.0100759,-0.000499924,0.00276115,0.0107534,-0.00117741,0.24061,0.00759188,0.0191429,706,1366,-9.83877,-7.20987
-511,-342,-9.88257,7.55298,0,0,0,0,0,0,0,-1,713,1366,-9.88259,-7.55292
-504,-342,-8.95709,6.5719,0,0,0,0,0,0,0,-1,720,1366,-8.95707,-6.57192
-497,-342,-8.26587,-0.943604,0,0,0,0,0,0,0,-1,727,1366,-8.26586,0.943543
-490,-342,-9.07153,-0.0227051,0,0,0,0,0,0,0,-1,734,1366,-9.07155,0.0227087
-483,-342,-9.87726,0.898071,0,0,0,0,0,0,0,-1,741,1366,-9.87724,-0.898125
-476,-342,-11.6371,-0.736328,0,0,0,0,0,0,0,-1,748,1366,-11.6371,0.736281
-469,-342,-12.6245,-0.987549,0,0,0,0,0,0,0,-1,755,1366,-12.6245,0.987553
-462,-342,-13.0912,-0.533203,0,0,0,0,0,0,0,-1,762,1366,-13.0912,0.533224
-455,-342,-13.7612,0.122925,0,0,0,0,0,0,0,-1,769,1366,-13.7612,-0.122896
-448,-342,-14.5278,0.826904,0,0,0,0,0,0,0,-1,776,1366,-14.5277,-0.826861
-441,-342,0,0,0,0,0,0,0,0,0,-1,783,1366,0,0
-434,-342,0,0,0,0,0,0,0,0,0,-1,790,1366,0,0
-427,-342,0,0,0,0,0,0,0,0,0,-1,797,1366,0,0
-420,-342,0,0,0,0,0,0,0,0,0,-1,804,1366,0,0
-413,-342,0,0,0,0,0,0,0,0,0,-1,811,1366,0,0
-406,-342,0,0,0,0,0,0,0,0,0,-1,818,1366,0,0
-399,-342,0,0,0,0,0,0,0,0,0,-1,825,1366,0,0
-392,-342,0,0,0,0,0,0,0,0,0,-1,832,1366,0,0
-385,-342,0,0,0,0,0,0,0,0,0,-1,839,1366,0,0
-378,-342,0,0,0,0,0,0,0,0,0,-1,846,1366,0,0
-371,-342,0,0,0,0,0,0,0,0,0,-1,853,1366,0,0
-364,-342,0,0,0,0,0,0,0,0,0,-1,860,1366,0,0
-357,-342,0,0,0,0,0,0,0,0,0,-1,867,1366,0,0
-350,-342,0,0,0,0,0,0,0,0,0,-1,874,1366,0,0
-343,-342,0,0,0,0,0,0,0,0,0,-1,881,1366,0,0
-336,-342,0,0,0,0,0,0,0,0,0,-1,888,1366,0,0
-329,-342,0,0,0,0,0,0,0,0,0,-1,895,1366,0,0
-322,-342,0,0,0,0,0,0,0,0,0,-1,902,1366,0,0
-315,-342,0,0,0,0,0,0,0,0,0,-1,909,1366,0,0
-308,-342,0,0,0,0,0,0,0,0,0,-1,916,1366,0,0
-301,-342,0,0,0,0,0,0,0,0,0,-1,923,1366,0,0
-294,-342,0,0,0,0,0,0,0,0,0,-1,930,1366,0,0
-287,-342,0,0,0,0,0,0,0,0,0,-1,937,1366,0,0
-280,-342,0,0,0,0,0,0,0,0,0,-1,944,1366,0,0
-273,-342,0,0,0,0,0,0,0,0,0,-1,951,1366,0,0
-266,-342,0,0,0,0,0,0,0,0,0,-1,958,1366,0,0
-259,-342,0,0,0,0,0,0,0,0,0,-1,965,1366,0,0
-252,-342,0,0,0,0,0,0,0,0,0,-1,972,1366,0,0
-245,-342,0,0,0,0,0,0,0,0,0,-1,979,1366,0,0
-238,-342,0,0,0,0,0,0,0,0,0,-1,986,1366,0,0
-231,-342,0,0,0,0,0,0,0,0,0,-1,993,1366,0,0
-224,-342,0,0,0,0,0,0,0,0,0,-1,1000,1366,0,0
-217,-342,0,0,0,0,0,0,0,0,0,-1,1007,1366,0,0
-210,-342,0,0,0,0,0,0,0,0,0,-1,1014,1366,0,0
-203,-342,0,0,0,0,0,0,0,0,0,-1,1021,1366,0,0
-196,-342,0,0,0,0,0,0,0,0,0,-1,1028,1366,0,0
-189,-342,0,0,0,0,0,0,0,0,0,-1,1035,1366,0,0
-182,-342,0,0,0,0,0,0,0,0,0,-1,1042,1366,0,0
-175,-342,0,0,0,0,0,0,0,0,0,-1,1049,1366,0,0
-168,-342,0,0,0,0,0,0,0,0,0,-1,1056,1366,0,0
-161,-342,0,0,0,0,0,0,0,0,0,-1,1063,1366,0,0
-154,-342,0,0,0,0,0,0,0,0,0,-1,1070,1366,0,0
-147,-342,0,0,0,0,0,0,0,0,0,-1,1077,1366,0,0
-140,-342,0,0,0,0,0,0,0,0,0,-1,1084,1366,0,0
-133,-342,0,0,0,0,0,0,0,0,0,-1,1091,1366,0,0
-126,-342,0,0,0,0,0,0,0,0,0,-1,1098,1366,0,0
-119,-342,0,0,0,0,0,0,0,0,0,-1,1105,1366,0,0
-112,-342,0,0,0,0,0,0,0,0,0,-1,1112,1366,0,0
-105,-342,0,0,0,0,0,0,0,0,0,-1,1119,1366,0,0
-98,-342,0,0,0,0,0,0,0,0,0,-1,1126,1366,0,0
-91,-342,0,0,0,0,0,0,0,0,0,-1,1133,1366,0,0
-84,-342,0,0,0,0,0,0,0,0,0,-1,1140,1366,0,0
-77,-342,0,0,0,0,0,0,0,0,0,-1,1147,1366,0,0
-70,-342,0,0,0,0,0,0,0,0,0,-1,1154,1366,0,0
-63,-342,0,0,0,0,0,0,0,0,0,-1,1161,1366,0,0
-56,-342,0,0,0,0,0,0,0,0,0,-1,1168,1366,0,0
-49,-342,0,0,0,0,0,0,0,0,0,-1,1175,1366,0,0
-42,-342,0,0,0,0,0,0,0,0,0,-1,1182,1366,0,0
-35,-342,0,0,0,0,0,0,0,0,0,-1,1189,1366,0,0
-28,-342,0,0,0,0,0,0,0,0,0,-1,1196,1366,0,0
-21,-342,0,0,0,0,0,0,0,0,0,-1,1203,1366,0,0
-14,-342,0,0,0,0,0,0,0,0,0,-1,1210,1366,0,0
-7,-342,0,0,0,0,0,0,0,0,0,-1,1217,1366,0,0
0,-342,0,0,0,0,0,0,0,0,0,-1,1224,1366,0,0
7,-342,0,0,0,0,0,0,0,0,0,-1,1231,1366,0,0
14,-342,0,0,0,0,0,0,0,0,0,-1,1238,1366,0,0
21,-342,0,0,0,0,0,0,0,0,0,-1,1245,1366,0,0
28,-342,0,0,0,0,0,0,0,0,0,-1,1252,1366,0,0
35,-342,0,0,0,0,0,0,0,0,0,-1,1259,1366,0,0
42,-342,0,0,0,0,0,0,0,0,0,-1,1266,1366,0,0
49,-342,0,0,0,0,0,0,0,0,0,-1,1273,1366,0,0
56,-342,0,0,0,0,0,0,0,0,0,-1,1280,1366,0,0
63,-342,0,0,0,0,0,0,0,0,0,-1,1287,1366,0,0
70,-342,0,0,0,0,0,0,0,0,0,-1,1294,1366,0,0
77,-342,0,0,0,0,0,0,0,0,0,-1,1301,1366,0,0
84,-342,0,0,0,0,0,0,0,0,0,-1,1308,1366,0,0
91,-342,0,0,0,0,0,0,0,0,0,-1,1315,1366,0,0
98,-342,0,0,0,0,0,0,0,0,0,-1,1322,1366,0,0
105,-342,0,0,0,0,0,0,0,0,0,-1,1329,1366,0,0
112,-342,0,0,0,0,0,0,0,0,0,-1,1336,1366,0,0
119,-342,0,0,0,0,0,0,0,0,0,-1,1343,1366,0,0
126,-342,0,0,0,0,0,0,0,0,0,-1,1350,1366,0,0
133,-342,0,0,0,0,0,0,0,0,0,-1,1357,1366,0,0
140,-342,0,0,0,0,0,0,0,0,0,-1,1364,1366,0,0
147,-342,0,0,0,0,0,0,0,0,0,-1,1371,1366,0,0
154,-342,0,0,0,0,0,0,0,0,0,-1,1378,1366,0,0
161,-342,0,0,0,0,0,0,0,0,0,-1,1385,1366,0,0
168,-342,0,0,0,0,0,0,0,0,0,-1,1392,1366,0,0
175,-342,0,0,0,0,0,0,0,0,0,-1,1399,1366,0,0
182,-342,0,0,0,0,0,0,0,0,0,-1,1406,1366,0,0
189,-342,0,0,0,0,0,0,0,0,0,-1,1413,1366,0,0
196,-342,0,0,0,0,0,0,0,0,0,-1,1420,1366,0,0
203,-342,0,0,0,0,0,0,0,0,0,-1,1427,1366,0,0
210,-342,0,0,0,0,0,0,0,0,0,-1,1434,1366,0,0
217,-342,0,0,0,0,0,0,0,0,0,-1,1441,1366,0,0
224,-342,0,0,0,0,0,0,0,0,0,-1,1448,1366,0,0
231,-342,0,0,0,0,0,0,0,0,0,-1,1455,1366,0,0
238,-342,0,0,0,0,0,0,0,0,0,-1,1462,1366,0,0
245,-342,0,0,0,0,0,0,0,0,0,-1,1469,1366,0,0
252,-342,0,0,0,0,0,0,0,0,0,-1,1476,1366,0,0
259,-342,0,0,0,0,0,0,0,0,0,-1,1483,1366,0,0
266,-342,0,0,0,0,0,0,0,0,0,-1,1490,1366,0,0
273,-342,0,0,0,0,0,0,0,0,0,-1,1497,1366,0,0
280,-342,0,0,0,0,0,0,0,0,0,-1,1504,1366,0,0
287,-342,0,0,0,0,0,0,0,0,0,-1,1511,1366,0,0
294,-342,0,0,0,0,0,0,0,0,0,-1,1518,1366,0,0
301,-342,0,0,0,0,0,0,0,0,0,-1,1525,1366,0,0
308,-342,0,0,0,0,0,0,0,0,0,-1,1532,1366,0,0
315,-342,0,0,0,0,0,0,0,0,0,-1,1539,1366,0,0
322,-342,0,0,0,0,0,0,0,0,0,-1,1546,1366,0,0
329,-342,0,0,0,0,0,0,0,0,0,-1,1553,1366,0,0
336,-342,0,0,0,0,0,0,0,0,0,-1,1560,1366,0,0
343,-342,0,0,0,0,0,0,0,0,0,-1,1567,1366,0,0
350,-342,0,0,0,0,0,0,0,0,0,-1,1574,1366,0,0
357,-342,0,0,0,0,0,0,0,0,0,-1,1581,1366,0,0
364,-342,0,0,0,0,0,0,0,0,0,-1,1588,1366,0,0
371,-342,0,0,0,0,0,0,0,0,0,-1,1595,1366,0,0
378,-342,0,0,0,0,0,0,0,0,0,-1,1602,1366,0,0
385,-342,0,0,0,0,0,0,0,0,0,-1,1609,1366,0,0
392,-342,0,0,0,0,0,0,0,0,0,-1,1616,1366,0,0
399,-342,0,0,0,0,0,0,0,0,0,-1,1623,1366,0,0
406,-342,0,0,0,0,0,0,0,0,0,-1,1630,1366,0,0
413,-342,0,0,0,0,0,0,0,0,0,-1,1637,1366,0,0
420,-342,0,0,0,0,0,0,0,0,0,-1,1644,1366,0,0
427,-342,0,0,0,0,0,0,0,0,0,-1,1651,1366,0,0
434,-342,0,0,0,0,0,0,0,0,0,-1,1658,1366,0,0
441,-342,0,0,0,0,0,0,0,0,0,-1,1665,1366,0,0
448,-342,0,0,0,0,0,0,0,0,0,-1,1672,1366,0,0
455,-342,0,0,0,0,0,0,0,0,0,-1,1679,1366,0,0
462,-342,0,0,0,0,0,0,0,0,0,-1,1686,1366,0,0
469,-342,0,0,0,0,0,0,0,0,0,-1,1693,1366,0,0
476,-342,0,0,0,0,0,0,0,0,0,-1,1700,1366,0,0
483,-342,0,0,0,0,0,0,0,0,0,-1,1707,1366,0,0
490,-342,0,0,0,0,0,0,0,0,0,-1,1714,1366,0,0
497,-342,0,0,0,0,0,0,0,0,0,-1,1721,1366,0,0
504,-342,0,0,0,0,0,0,0,0,0,-1,1728,1366,0,0
511,-342,0,0,0,0,0,0,0,0,0,-1,1735,1366,0,0
518,-342,0,0,0,0,0,0,0,0,0,-1,1742,1366,0,0
525,-342,0,0,0,0,0,0,0,0,0,-1,1749,1366,0,0
532,-342,0,0,0,0,0,0,0,0,0,-1,1756,1366,0,0
539,-342,0,0,0,0,0,0,0,0,0,-1,1763,1366,0,0
546,-342,0,0,0,0,0,0,0,0,0,-1,1770,1366,0,0
553,-342,0,0,0,0,0,0,0,0,0,-1,1777,1366,0,0
560,-342,0,0,0,0,0,0,0,0,0,-1,1784,1366,0,0
567,-342,28.3505,2.30115,0,0,0,0,0,0,0,-1,1791,1366,28.3504,-2.30121
574,-342,27.6493,2.21936,0,0,0,0,0,0,0,-1,1798,1366,27.6493,-2.2194
581,-342,31.954,3.70862,0,0,0,0,0,0,0,-1,1805,1366,31.954,-3.70858
588,-342,34.7487,3.59204,0,0,0,0,0,0,0,-1,1812,1366,34.7486,-3.59208
595,-342,32.9098,4.32629,0,0,0,0,0,0,0,-1,1819,1366,32.9098,-4.32627
602,-342,31.0818,5.28552,0,0,0,0,0,0,0,-1,1826,1366,31.0818,-5.28547
609,-342,29.3829,5.81714,0,0,0,0,0,0,0,-1,1833,1366,29.3829,-5.81711
616,-342,27.7058,6.33801,0,0,0,0,0,0,0,-1,1840,1366,27.7058,-6.33796
623,-342,26.0299,6.86865,0,0,0,0,0,0,0,-1,1847,1366,26.0299,-6.86863
630,-342,17.3431,0.773071,0,0,0,0,0,0,0,-1,1854,1366,17.3432,-0.773095
637,-342,16.196,6.76172,0,0,0,0,0,0,0,-1,1861,1366,16.1961,-6.76174
644,-342,20.3245,9.3667,0,0,0,0,0,0,0,-1,1868,1366,20.3245,-9.36673
651,-342,20.4161,9.1261,-0.00300171,-0.00319576,-0.00940258,0.00630435,-0.0125018,-0.780239,0.0110525,0.0281385,1875,1366,20.4161,-9.12607
658,-342,20.3759,8.7489,-0.003907,-0.00473926,-0.00269613,-0.00159508,-0.00705118,-0.708831,0.0042696,0.0187309,1882,1366,20.3758,-8.74893
665,-342,20.3925,8.3949,-0.00327868,-0.00346333,0.000342775,-0.00301601,-0.003726,0.653842,0.00228441,0.0150787,1889,1366,20.3924,-8.39496
672,-342,20.4037,8.08667,-0.00213087,-0.00213977,0.000588565,-0.00154673,-0.0027239,0.781619,0.00157746,0.0129348,1896,1366,20.4037,-8.08665
679,-342,20.3905,7.79871,-0.00127658,-0.00108029,0.000691882,-0.000479628,-0.00187724,0.855853,0.0011262,0.0130594,1903,1366,20.3905,-7.79876
686,-342,20.4056,7.53796,-0.000873187,-0.000404439,0.000618011,2.21472e-05,-0.00129977,0.96664,0.000873992,0.0107693,1910,1366,20.4057,-7.53799
693,-342,20.3854,7.20813,-0.000788065,-1.51181e-06,0.000538477,0.000272013,-0.00106159,1.1008,0.000813696,0.0110643,1917,1366,20.3853,-7.20816
700,-342,20.3728,6.90942,-0.000787024,0.000464868,0.000391275,0.000577099,-0.000899255,1.29146,0.000859111,0.0141175,1924,1366,20.3727,-6.90937
707,-342,20.377,6.59106,-0.00125222,0.000901502,0.000419113,0.000980187,-0.00133091,1.38522,0.00133942,0.0145528,1931,1366,20.3769,-6.59102
714,-342,20.3871,6.31116,-0.00235807,0.0010973,0.000841542,0.00129135,-0.00255212,1.34416,0.00225848,0.0436662,1938,1366,20.387,-6.31118
721,-342,20.0464,5.56592,0,0,0,0,0,0,0,-1,1945,1366,20.0464,-5.56589
728,-342,19.8912,5.26636,0,0,0,0,0,0,0,-1,1952,1366,19.8913,-5.26636
735,-342,19.481,4.41968,0,0,0,0,0,0,0,-1,1959,1366,19.4809,-4.41962
742,-342,19.309,2.66943,0,0,0,0,0,0,0,-1,1966,1366,19.3089,-2.66948
749,-342,21.0934,6.47729,0,0,0,0,0,0,0,-1,1973,1366,21.0934,-6.4773
756,-342,0,0,0,0,0,0,0,0,0,-1,1980,1366,0,0
763,-342,0,0,0,0,0,0,0,0,0,-1,1987,1366,0,0
770,-342,0,0,0,0,0,0,0,0,0,-1,1994,1366,0,0
777,-342,0,0,0,0,0,0,0,0,0,-1,2001,1366,0,0
784,-342,0,0,0,0,0,0,0,0,0,-1,2008,1366,0,0
791,-342,0,0,0,0,0,0,0,0,0,-1,2015,1366,0,0
798,-342,0,0,0,0,0,0,0,0,0,-1,2022,1366,0,0
805,-342,0,0,0,0,0,0,0,0,0,-1,2029,1366,0,0
812,-342,0,0,0,0,0,0,0,0,0,-1,2036,1366,0,0
-700,-349,0,0,0,0,0,0,0,0,0,-1,524,1373,0,0
-693,-349,0,0,0,0,0,0,0,0,0,-1,531,1373,0,0
-686,-349,0,0,0,0,0,0,0,0,0,-1,538,1373,0,0
-679,-349,0,0,0,0,0,0,0,0,0,-1,545,1373,0,0
-672,-349,0,0,0,0,0,0,0,0,0,-1,552,1373,0,0
-665,-349,0,0,0,0,0,0,0,0,0,-1,559,1373,0,0
-658,-349,0,0,0,0,0,0,0,0,0,-1,566,1373,0,0
-651,-349,0,0,0,0,0,0,0,0,0,-1,573,1373,0,0
-644,-349,0,0,0,0,0,0,0,0,0,-1,580,1373,0,0
-637,-349,0,0,0,0,0,0,0,0,0,-1,587,1373,0,0
-630,-349,-7.64117,-5.06177,0,0,0,0,0,0,0,-1,594,1373,-7.64118,5.0618
-623,-349,-8.63507,0.51123,0,0,0,0,0,0,0,-1,601,1373,-8.63505,-0.511275
-616,-349,-5.2066,-0.188232,0,0,0,0,0,0,0,-1,608,1373,-5.20659,0.188211
-609,-349,-7.12073,1.37048,0,0,0,0,0,0,0,-1,615,1373,-7.12072,-1.37044
-602,-349,-9.00623,3.39587,0,0,0,0,0,0,0,-1,622,1373,-9.0062,-3.39591
-595,-349,-9.50568,2.96912,0,0,0,0,0,0,0,-1,629,1373,-9.50569,-2.96906
-588,-349,-8.60046,3.56042,0,0,0,0,0,0,0,-1,636,1373,-8.60046,-3.56047
-581,-349,-9.50421,4.13062,0,0,0,0,0,0,0,-1,643,1373,-9.50422,-4.13065
-574,-349,-9.54852,4.43176,-0.00565114,-1.86526e-05,-0.00162179,0.000414941,-0.00608473,-1.30955,0.00420164,0.0253285,650,1373,-9.54849,-4.43176
-567,-349,-9.55237,4.79932,-0.00391341,-0.000303046,-0.00151337,0.000247398,-0.00446385,-1.22195,0.0030617,0.0153461,657,1373,-9.55238,-4.79933
-560,-349,-9.54932,5.14612,-0.00227036,-0.000463426,-0.0012434,0.000170086,-0.00290387,-1.09958,0.00199503,0.0194616,664,1373,-9.54931,-5.14609
-553,-349,-9.55988,5.45227,-0.000594623,-0.000496626,-0.000824276,0.000280107,-0.00137136,-0.815085,0.0010205,0.0269332,671,1373,-9.55986,-5.45226
-546,-349,-9.55475,5.77966,0.00119132,-0.000490106,-0.000280983,0.00123703,-0.000535818,-0.161274,0.00104991,0.0307537,678,1373,-9.55475,-5.77969
-539,-349,-9.56866,6.16846,0.00297575,-0.000393071,0.000367958,0.00301547,-0.000432792,0.107535,0.00216902,0.0240012,685,1373,-9.56868,-6.16844
-532,-349,-9.57635,6.51855,0.00488074,-0.000286619,0.00112986,0.00511699,-0.000522865,0.206124,0.0035983,0.0172383,692,1373,-9.57636,-6.5186
-525,-349,-9.55304,6.86963,0.00695515,-0.00010746,0.00203033,0.00749721,-0.000649524,0.260899,0.00522812,0.0132294,699,1373,-9.55307,-6.86965
-518,-349,-9.54395,7.25085,0.00931212,2.68285e-05,0.00310908,0.010257,-0.000918062,0.295043,0.00716367,0.0154521,706,1373,-9.54395,-7.25084
-511,-349,-9.38513,7.64063,0.012196,-0.000109722,0.00437101,0.0135905,-0.00150428,0.308837,0.00960114,0.0479554,713,1373,-9.38516,-7.64059
-504,-349,-9.23431,7.93176,0,0,0,0,0,0,0,-1,720,1373,-9.23434,-7.93174
-497,-349,-7.9339,5.58789,0,0,0,0,0,0,0,-1,727,1373,-7.93388,-5.58785
-490,-349,-8.73969,-0.503784,0,0,0,0,0,0,0,-1,734,1373,-8.73966,0.503752
-483,-349,-5.66974,3.7395,0,0,0,0,0,0,0,-1,741,1373,-5.66975,-3.73949
-476,-349,-10.8496,1.15759,0,0,0,0,0,0,0,-1,748,1373,-10.8496,-1.15756
-469,-349,-12.3314,-1.74878,0,0,0,0,0,0,0,-1,755,1373,-12.3314,1.74882
-462,-349,-12.6559,-0.995361,0,0,0,0,0,0,0,-1,762,1373,-12.656,0.995351
-455,-349,-13.2897,-0.234253,0,0,0,0,0,0,0,-1,769,1373,-13.2897,0.234261
-448,-349,-14.045,0.712891,0,0,0,0,0,0,0,-1,776,1373,-14.045,-0.712838
-441,-349,0,0,0,0,0,0,0,0,0,-1,783,1373,0,0
-434,-349,0,0,0,0,0,0,0,0,0,-1,790,1373,0,0
-427,-349,0,0,0,0,0,0,0,0,0,-1,797,1373,0,0
-420,-349,0,0,0,0,0,0,0,0,0,-1,804,1373,0,0
-413,-349,0,0,0,0,0,0,0,0,0,-1,811,1373,0,0
-406,-349,0,0,0,0,0,0,0,0,0,-1,818,1373,0,0
-399,-349,0,0,0,0,0,0,0,0,0,-1,825,1373,0,0
-392,-349,0,0,0,0,0,0,0,0,0,-1,832,1373,0,0
-385,-349,0,0,0,0,0,0,0,0,0,-1,839,1373,0,0
-378,-349,0,0,0,0,0,0,0,0,0,-1,846,1373,0,0
-371,-349,0,0,0,0,0,0,0,0,0,-1,853,1373,0,0
-364,-349,0,0,0,0,0,0,0,0,0,-1,860,1373,0,0
-357,-349,0,0,0,0,0,0,0,0,0,-1,867,1373,0,0
-350,-349,0,0,0,0,0,0,0,0,0,-1,874,1373,0,0
-343,-349,0,0,0,0,0,0,0,0,0,-1,881,1373,0,0
-336,-349,0,0,0,0,0,0,0,0,0,-1,888,1373,0,0
-329,-349,0,0,0,0,0,0,0,0,0,-1,895,1373,0,0
-322,-349,0,0,0,0,0,0,0,0,0,-1,902,1373,0,0
-315,-349,0,0,0,0,0,0,0,0,0,-1,909,1373,0,0
-308,-349,0,0,0,0,0,0,0,0,0,-1,916,1373,0,0
-301,-349,0,0,0,0,0,0,0,0,0,-1,923,1373,0,0
-294,-349,0,0,0,0,0,0,0,0,0,-1,930,1373,0,0
-287,-349,0,0,0,0,0,0,0,0,0,-1,937,1373,0,0
-280,-349,0,0,0,0,0,0,0,0,0,-1,944,1373,0,0
-273,-349,0,0,0,0,0,0,0,0,0,-1,951,1373,0,0
-266,-349,0,0,0,0,0,0,0,0,0,-1,958,1373,0,0
-259,-349,0,0,0,0,0,0,0,0,0,-1,965,1373,0,0
-252,-349,0,0,0,0,0,0,0,0,0,-1,972,1373,0,0
-245,-349,0,0,0,0,0,0,0,0,0,-1,979,1373,0,0
-238,-349,0,0,0,0,0,0,0,0,0,-1,986,1373,0,0
-231,-349,0,0,0,0,0,0,0,0,0,-1,993,1373,0,0
-224,-349,0,0,0,0,0,0,0,0,0,-1,1000,1373,0,0
-217,-349,0,0,0,0,0,0,0,0,0,-1,1007,1373,0,0
-210,-349,0,0,0,0,0,0,0,0,0,-1,1014,1373,0,0
-203,-349,0,0,0,0,0,0,0,0,0,-1,1021,1373,0,0
-196,-349,0,0,0,0,0,0,0,0,0,-1,1028,1373,0,0
-189,-349,0,0,0,0,0,0,0,0,0,-1,1035,1373,0,0
-182,-349,0,0,0,0,0,0,0,0,0,-1,1042,1373,0,0
-175,-349,0,0,0,0,0,0,0,0,0,-1,1049,1373,0,0
-168,-349,0,0,0,0,0,0,0,0,0,-1,1056,1373,0,0
-161,-349,0,0,0,0,0,0,0,0,0,-1,1063,1373,0,0
-154,-349,0,0,0,0,0,0,0,0,0,-1,1070,1373,0,0
-147,-349,0,0,0,0,0,0,0,0,0,-1,1077,1373,0,0
-140,-349,0,0,0,0,0,0,0,0,0,-1,1084,1373,0,0
-133,-349,0,0,0,0,0,0,0,0,0,-1,1091,1373,0,0
-126,-349,0,0,0,0,0,0,0,0,0,-1,1098,1373,0,0
-119,-349,0,0,0,0,0,0,0,0,0,-1,1105,1373,0,0
-112,-349,0,0,0,0,0,0,0,0,0,-1,1112,1373,0,0
-105,-349,0,0,0,0,0,0,0,0,0,-1,1119,1373,0,0
-98,-349,0,0,0,0,0,0,0,0,0,-1,1126,1373,0,0
-91,-349,0,0,0,0,0,0,0,0,0,-1,1133,1373,0,0
-84,-349,0,0,0,0,0,0,0,0,0,-1,1140,1373,0,0
-77,-349,0,0,0,0,0,0,0,0,0,-1,1147,1373,0,0
-70,-349,0,0,0,0,0,0,0,0,0,-1,1154,1373,0,0
-63,-349,0,0,0,0,0,0,0,0,0,-1,1161,1373,0,0
-56,-349,0,0,0,0,0,0,0,0,0,-1,1168,1373,0,0
-49,-349,0,0,0,0,0,0,0,0,0,-1,1175,1373,0,0
-42,-349,0,0,0,0,0,0,0,0,0,-1,1182,1373,0,0
-35,-349,0,0,0,0,0,0,0,0,0,-1,1189,1373,0,0
-28,-349,0,0,0,0,0,0,0,0,0,-1,1196,1373,0,0
-21,-349,0,0,0,0,0,0,0,0,0,-1,1203,1373,0,0
-14,-349,0,0,0,0,0,0,0,0,0,-1,1210,1373,0,0
-7,-349,0,0,0,0,0,0,0,0,0,-1,1217,1373,0,0
0,-349,0,0,0,0,0,0,0,0,0,-1,1224,1373,0,0
7,-349,0,0,0,0,0,0,0,0,0,-1,1231,1373,0,0
14,-349,0,0,0,0,0,0,0,0,0,-1,1238,1373,0,0
21,-349,0,0,0,0,0,0,0,0,0,-1,1245,1373,0,0
28,-349,0,0,0,0,0,0,0,0,0,-1,1252,1373,0,0
35,-349,0,0,0,0,0,0,0,0,0,-1,1259,1373,0,0
42,-349,0,0,0,0,0,0,0,0,0,-1,1266,1373,0,0
49,-349,0,0,0,0,0,0,0,0,0,-1,1273,1373,0,0
56,-349,0,0,0,0,0,0,0,0,0,-1,1280,1373,0,0
63,-349,0,0,0,0,0,0,0,0,0,-1,1287,1373,0,0
70,-349,0,0,0,0,0,0,0,0,0,-1,1294,1373,0,0
77,-349,0,0,0,0,0,0,0,0,0,-1,1301,1373,0,0
84,-349,0,0,0,0,0,0,0,0,0,-1,1308,1373,0,0
91,-349,0,0,0,0,0,0,0,0,0,-1,1315,1373,0,0
98,-349,0,0,0,0,0,0,0,0,0,-1,1322,1373,0,0
105,-349,0,0,0,0,0,0,0,0,0,-1,1329,1373,0,0
112,-349,0,0,0,0,0,0,0,0,0,-1,1336,1373,0,0
119,-349,0,0,0,0,0,0,0,0,0,-1,1343,1373,0,0
126,-349,0,0,0,0,0,0,0,0,0,-1,1350,1373,0,0
133,-349,0,0,0,0,0,0,0,0,0,-1,1357,1373,0,0
140,-349,0,0,0,0,0,0,0,0,0,-1,1364,1373,0,0
147,-349,0,0,0,0,0,0,0,0,0,-1,1371,1373,0,0
154,-349,0,0,0,0,0,0,0,0,0,-1,1378,1373,0,0
161,-349,0,0,0,0,0,0,0,0,0,-1,1385,1373,0,0
168,-349,0,0,0,0,0,0,0,0,0,-1,1392,1373,0,0
175,-349,0,0,0,0,0,0,0,0,0,-1,1399,1373,0,0
182,-349,0,0,0,0,0,0,0,0,0,-1,1406,1373,0,0
189,-349,0,0,0,0,0,0,0,0,0,-1,1413,1373,0,0
196,-349,0,0,0,0,0,0,0,0,0,-1,1420,1373,0,0
203,-349,0,0,0,0,0,0,0,0,0,-1,1427,1373,0,0
210,-349,0,0,0,0,0,0,0,0,0,-1,1434,1373,0,0
217,-349,0,0,0,0,0,0,0,0,0,-1,1441,1373,0,0
224,-349,0,0,0,0,0,0,0,0,0,-1,1448,1373,0,0
231,-349,0,0,0,0,0,0,0,0,0,-1,1455,1373,0,0
238,-349,0,0,0,0,0,0,0,0,0,-1,1462,1373,0,0
245,-349,0,0,0,0,0,0,0,0,0,-1,1469,1373,0,0
252,-349,0,0,0,0,0,0,0,0,0,-1,1476,1373,0,0
259,-349,0,0,0,0,0,0,0,0,0,-1,1483,1373,0,0
266,-349,0,0,0,0,0,0,0,0,0,-1,1490,1373,0,0
273,-349,0,0,0,0,0,0,0,0,0,-1,1497,1373,0,0
280,-349,0,0,0,0,0,0,0,0,0,-1,1504,1373,0,0
287,-349,0,0,0,0,0,0,0,0,0,-1,1511,1373,0,0
294,-349,0,0,0,0,0,0,0,0,0,-1,1518,1373,0,0
301,-349,0,0,0,0,0,0,0,0,0,-1,1525,1373,0,0
308,-349,0,0,0,0,0,0,0,0,0,-1,1532,1373,0,0
315,-349,0,0,0,0,0,0,0,0,0,-1,1539,1373,0,0
322,-349,0,0,0,0,0,0,0,0,0,-1,1546,1373,0,0
329,-349,0,0,0,0,0,0,0,0,0,-1,1553,1373,0,0
336,-349,0,0,0,0,0,0,0,0,0,-1,1560,1373,0,0
343,-349,0,0,0,0,0,0,0,0,0,-1,1567,1373,0,0
350,-349,0,0,0,0,0,0,0,0,0,-1,1574,1373,0,0
357,-349,0,0,0,0,0,0,0,0,0,-1,1581,1373,0,0
364,-349,0,0,0,0,0,0,0,0,0,-1,1588,1373,0,0
371,-349,0,0,0,0,0,0,0,0,0,-1,1595,1373,0,0
378,-349,0,0,0,0,0,0,0,0,0,-1,1602,1373,0,0
385,-349,0,0,0,0,0,0,0,0,0,-1,1609,1373,0,0
392,-349,0,0,0,0,0,0,0,0,0,-1,1616,1373,0,0
399,-349,0,0,0,0,0,0,0,0,0,-1,1623,1373,0,0
406,-349,0,0,0,0,0,0,0,0,0,-1,1630,1373,0,0
413,-349,0,0,0,0,0,0,0,0,0,-1,1637,1373,0,0
420,-349,0,0,0,0,0,0,0,0,0,-1,1644,1373,0,0
427,-349,0,0,0,0,0,0,0,0,0,-1,1651,1373,0,0
434,-349,0,0,0,0,0,0,0,0,0,-1,1658,1373,0,0
441,-349,0,0,0,0,0,0,0,0,0,-1,1665,1373,0,0
448,-349,0,0,0,0,0,0,0,0,0,-1,1672,1373,0,0
455,-349,0,0,0,0,0,0,0,0,0,-1,1679,1373,0,0
462,-349,0,0,0,0,0,0,0,0,0,-1,1686,1373,0,0
469,-349,0,0,0,0,0,0,0,0,0,-1,1693,1373,0,0
476,-349,0,0,0,0,0,0,0,0,0,-1,1700,1373,0,0
483,-349,0,0,0,0,0,0,0,0,0,-1,1707,1373,0,0
490,-349,0,0,0,0,0,0,0,0,0,-1,1714,1373,0,0
497,-349,0,0,0,0,0,0,0,0,0,-1,1721,1373,0,0
504,-349,0,0,0,0,0,0,0,0,0,-1,1728,1373,0,0
511,-349,0,0,0,0,0,0,0,0,0,-1,1735,1373,0,0
518,-349,0,0,0,0,0,0,0,0,0,-1,1742,1373,0,0
525,-349,0,0,0,0,0,0,0,0,0,-1,1749,1373,0,0
532,-349,0,0,0,0,0,0,0,0,0,-1,1756,1373,0,0
539,-349,0,0,0,0,0,0,0,0,0,-1,1763,1373,0,0
546,-349,0,0,0,0,0,0,0,0,0,-1,1770,1373,0,0
553,-349,0,0,0,0,0,0,0,0,0,-1,1777,1373,0,0
560,-349,27.923,2.35205,0,0,0,0,0,0,0,-1,1784,1373,27.9229,-2.35201
567,-349,27.6387,1.99731,0,0,0,0,0,0,0,-1,1791,1373,27.6387,-1.99736
574,-349,26.5557,1.61719,0,0,0,0,0,0,0,-1,1798,1373,26.5557,-1.61715
581,-349,35.3979,4.24744,0,0,0,0,0,0,0,-1,1805,1373,35.3979,-4.24738
588,-349,33.9027,4.60022,0,0,0,0,0,0,0,-1,1812,1373,33.9027,-4.60022
595,-349,32.3793,4.93115,0,0,0,0,0,0,0,-1,1819,1373,32.3793,-4.9312
602,-349,30.6421,5.56592,0,0,0,0,0,0,0,-1,1826,1373,30.6421,-5.56589
609,-349,28.8674,6.13806,0,0,0,0,0,0,0,-1,1833,1373,28.8674,-6.13809
616,-349,27.1451,6.68274,0,0,0,0,0,0,0,-1,1840,1373,27.1451,-6.6828
623,-349,18.8478,2.75769,0,0,0,0,0,0,0,-1,1847,1373,18.8478,-2.75774
630,-349,15.4948,6.47644,0,0,0,0,0,0,0,-1,1854,1373,15.4947,-6.4765
637,-349,16.5161,6.92639,0,0,0,0,0,0,0,-1,1861,1373,16.5161,-6.92636
644,-349,20.1232,9.60364,0,0,0,0,0,0,0,-1,1868,1373,20.1231,-9.60366
651,-349,20.1949,9.03687,-0.000867331,-0.0012821,-0.00648425,0.00541285,-0.00756228,-0.769412,0.00752538,0.0269659,1875,1373,20.1949,-9.03684
658,-349,20.0894,8.73499,-0.00155646,-0.00248896,-0.00157949,-0.000375839,-0.00366957,-0.641879,0.00233122,0.0242614,1882,1373,20.0893,-8.73499
665,-349,20.0869,8.41187,-0.00126131,-0.0018174,0.000258787,-0.00115951,-0.0019192,0.37477,0.00111604,0.018103,1889,1373,20.087,-8.41186
672,-349,20.0795,8.09058,-0.000678844,-0.00116275,0.00036727,-0.000480991,-0.0013606,0.494135,0.000796702,0.0138839,1896,1373,20.0795,-8.09058
679,-349,20.0674,7.81702,-0.000281808,-0.000638229,0.0004183,-5.3386e-06,-0.000914698,0.584024,0.000608027,0.0135054,1903,1373,20.0674,-7.81701
686,-349,20.1178,7.55469,-0.000167588,-0.00025619,0.000426244,0.000216652,-0.000640429,0.733617,0.000514603,0.0129211,1910,1373,20.1178,-7.55464
693,-349,20.0778,7.22302,-0.000308365,8.04162e-05,0.000479808,0.000403716,-0.000631665,0.977864,0.000602587,0.0150808,1917,1373,20.0777,-7.22298
700,-349,20.0706,6.93579,-0.000712868,0.000494016,0.000558734,0.000712964,-0.000931816,1.19732,0.000952412,0.0170021,1924,1373,20.0705,-6.93576
707,-349,20.1367,6.61731,-0.00169574,0.000895338,0.000791315,0.00111789,-0.00191829,1.29663,0.00177313,0.0288187,1931,1373,20.1367,-6.61736
714,-349,20.0419,6.36194,-0.00371589,0.00105024,0.00159131,0.0015327,-0.00419835,1.27642,0.00342606,0.0495852,1938,1373,20.0419,-6.36199
721,-349,19.6688,5.93604,0,0,0,0,0,0,0,-1,1945,1373,19.6688,-5.93606
728,-349,18.6333,3.73218,0,0,0,0,0,0,0,-1,1952,1373,18.6333,-3.73214
735,-349,18.1918,3.39954,0,0,0,0,0,0,0,-1,1959,1373,18.1918,-3.3995
742,-349,20.7345,2.07483,0,0,0,0,0,0,0,-1,1966,1373,20.7345,-2.07485
749,-349,21.9037,1.45789,0,0,0,0,0,0,0,-1,1973,1373,21.9037,-1.45788
756,-349,0,0,0,0,0,0,0,0,0,-1,1980,1373,0,0
763,-349,0,0,0,0,0,0,0,0,0,-1,1987,1373,0,0
770,-349,0,0,0,0,0,0,0,0,0,-1,1994,1373,0,0
777,-349,0,0,0,0,0,0,0,0,0,-1,2001,1373,0,0
784,-349,0,0,0,0,0,0,0,0,0,-1,2008,1373,0,0
791,-349,0,0,0,0,0,0,0,0,0,-1,2015,1373,0,0
798,-349,0,0,0,0,0,0,0,0,0,-1,2022,1373,0,0
805,-349,0,0,0,0,0,0,0,0,0,-1,2029,1373,0,0
812,-349,0,0,0,0,0,0,0,0,0,-1,2036,1373,0,0
-700,-356,0,0,0,0,0,0,0,0,0,-1,524,1380,0,0
-693,-356,0,0,0,0,0,0,0,0,0,-1,531,1380,0,0
-686,-356,0,0,0,0,0,0,0,0,0,-1,538,1380,0,0
-679,-356,0,0,0,0,0,0,0,0,0,-1,545,1380,0,0
-672,-356,0,0,0,0,0,0,0,0,0,-1,552,1380,0,0
-665,-356,0,0,0,0,0,0,0,0,0,-1,559,1380,0,0
-658,-356,0,0,0,0,0,0,0,0,0,-1,566,1380,0,0
-651,-356,0,0,0,0,0,0,0,0,0,-1,573,1380,0,0
-644,-356,0,0,0,0,0,0,0,0,0,-1,580,1380,0,0
-637,-356,0,0,0,0,0,0,0,0,0,-1,587,1380,0,0
-630,-356,-8.23126,-5.01917,0,0,0,0,0,0,0,-1,594,1380,-8.23124,5.0192
-623,-356,-0.263855,-0.675781,0,0,0,0,0,0,0,-1,601,1380,-0.263835,0.675841
-616,-356,-8.26532,-3.43945,0,0,0,0,0,0,0,-1,608,1380,-8.2653,3.43948
-609,-356,-4.88483,0.734497,0,0,0,0,0,0,0,-1,615,1380,-4.88485,-0.734532
-602,-356,-9.06635,2.4021,0,0,0,0,0,0,0,-1,622,1380,-9.06634,-2.40206
-595,-356,-8.45703,3.61853,0,0,0,0,0,0,0,-1,629,1380,-8.45706,-3.61848
-588,-356,-8.80328,3.61902,0,0,0,0,0,0,0,-1,636,1380,-8.8033,-3.61898
-581,-356,-8.88629,4.27197,-0.00865346,-0.000443381,-0.00267165,0.000349443,-0.00944629,-1.28232,0.00641718,0.0458953,643,1380,-8.88627,-4.27196
-574,-356,-9.04199,4.57971,-0.00652679,-0.000895686,-0.00256204,9.55141e-05,-0.00751799,-1.20165,0.00504414,0.0343647,650,1380,-9.04201,-4.57968
-567,-356,-9.23364,4.76318,-0.00466383,-0.000977786,-0.00223578,7.66851e-05,-0.0057183,-1.1301,0.00383801,0.0164284,657,1380,-9.23367,-4.76316
-560,-356,-9.1969,5.14368,-0.00293484,-0.000954475,-0.00178589,9.73681e-05,-0.00398668,-1.03852,0.00269083,0.016612,664,1380,-9.19688,-5.14365
-553,-356,-9.21912,5.47339,-0.00117759,-0.000803294,-0.00119747,0.000221567,-0.00220245,-0.862914,0.00154745,0.0199803,671,1380,-9.21913,-5.47338
-546,-356,-9.2359,5.79053,0.000654165,-0.000616192,-0.000485259,0.000818316,-0.000780343,-0.326192,0.000923073,0.0230621,678,1380,-9.23588,-5.79048
-539,-356,-9.21771,6.15503,0.00249259,-0.000365585,0.000316553,0.00252723,-0.000400225,0.108994,0.00183285,0.0167881,685,1380,-9.21769,-6.15506
-532,-356,-9.2417,6.5177,0.00442411,-0.000112294,0.00121921,0.00473102,-0.000419209,0.246608,0.00330263,0.0157116,692,1380,-9.24167,-6.51767
-525,-356,-9.25519,6.86011,0.00642488,0.000132046,0.00220124,0.00711843,-0.000561509,0.305229,0.00494343,0.0128935,699,1380,-9.25521,-6.86017
-518,-356,-9.23706,7.23645,0.00835967,0.00028536,0.00321424,0.00948294,-0.000837904,0.336199,0.00661896,0.0127976,706,1380,-9.23709,-7.23651
-511,-356,-9.06171,7.65894,0.0100257,-4.39183e-05,0.00397841,0.0114079,-0.00142604,0.334362,0.00812243,0.0333072,713,1380,-9.06169,-7.65897
-504,-356,-8.88947,8.16235,0,0,0,0,0,0,0,-1,720,1380,-8.88949,-8.16231
-497,-356,-5.68604,4.96387,0,0,0,0,0,0,0,-1,727,1380,-5.68605,-4.96385
-490,-356,-7.95288,5.5625,0,0,0,0,0,0,0,-1,734,1380,-7.95285,-5.56246
-483,-356,-7.2627,4.07446,0,0,0,0,0,0,0,-1,741,1380,-7.2627,-4.07441
-476,-356,-5.1936,4.16016,0,0,0,0,0,0,0,-1,748,1380,-5.1936,-4.16012
-469,-356,-10.0883,0.536011,0,0,0,0,0,0,0,-1,755,1380,-10.0883,-0.535989
-462,-356,-12.3481,-0.215698,0,0,0,0,0,0,0,-1,762,1380,-12.3481,0.215641
-455,-356,-13.1367,-0.264648,0,0,0,0,0,0,0,-1,769,1380,-13.1367,0.264647
-448,-356,-13.9116,-0.310181,0,0,0,0,0,0,0,-1,776,1380,-13.9115,0.310207
-441,-356,-13.1602,3.05603,0,0,0,0,0,0,0,-1,783,1380,-13.1602,-3.05609
-434,-356,0,0,0,0,0,0,0,0,0,-1,790,1380,0,0
-427,-356,0,0,0,0,0,0,0,0,0,-1,797,1380,0,0
-420,-356,0,0,0,0,0,0,0,0,0,-1,804,1380,0,0
-413,-356,0,0,0,0,0,0,0,0,0,-1,811,1380,0,0
-406,-356,0,0,0,0,0,0,0,0,0,-1,818,1380,0,0
-399,-356,0,0,0,0,0,0,0,0,0,-1,825,1380,0,0
-392,-356,0,0,0,0,0,0,0,0,0,-1,832,1380,0,0
-385,-356,0,0,0,0,0,0,0,0,0,-1,839,1380,0,0
-378,-356,0,0,0,0,0,0,0,0,0,-1,846,1380,0,0
-371,-356,0,0,0,0,0,0,0,0,0,-1,853,1380,0,0
-364,-356,0,0,0,0,0,0,0,0,0,-1,860,1380,0,0
-357,-356,0,0,0,0,0,0,0,0,0,-1,867,1380,0,0
-350,-356,0,0,0,0,0,0,0,0,0,-1,874,1380,0,0
-343,-356,0,0,0,0,0,0,0,0,0,-1,881,1380,0,0
-336,-356,0,0,0,0,0,0,0,0,0,-1,888,1380,0,0
-329,-356,0,0,0,0,0,0,0,0,0,-1,895,1380,0,0
-322,-356,0,0,0,0,0,0,0,0,0,-1,902,1380,0,0
-315,-356,0,0,0,0,0,0,0,0,0,-1,909,1380,0,0
-308,-356,0,0,0,0,0,0,0,0,0,-1,916,1380,0,0
-301,-356,0,0,0,0,0,0,0,0,0,-1,923,1380,0,0
-294,-356,0,0,0,0,0,0,0,0,0,-1,930,1380,0,0
-287,-356,0,0,0,0,0,0,0,0,0,-1,937,1380,0,0
-280,-356,0,0,0,0,0,0,0,0,0,-1,944,1380,0,0
-273,-356,0,0,0,0,0,0,0,0,0,-1,951,1380,0,0
-266,-356,0,0,0,0,0,0,0,0,0,-1,958,1380,0,0
-259,-356,0,0,0,0,0,0,0,0,0,-1,965,1380,0,0
-252,-356,0,0,0,0,0,0,0,0,0,-1,972,1380,0,0
-245,-356,0,0,0,0,0,0,0,0,0,-1,979,1380,0,0
-238,-356,0,0,0,0,0,0,0,0,0,-1,986,1380,0,0
-231,-356,0,0,0,0,0,0,0,0,0,-1,993,1380,0,0
-224,-356,0,0,0,0,0,0,0,0,0,-1,1000,1380,0,0
-217,-356,0,0,0,0,0,0,0,0,0,-1,1007,1380,0,0
-210,-356,0,0,0,0,0,0,0,0,0,-1,1014,1380,0,0
-203,-356,0,0,0,0,0,0,0,0,0,-1,1021,1380,0,0
-196,-356,0,0,0,0,0,0,0,0,0,-1,1028,1380,0,0
-189,-356,0,0,0,0,0,0,0,0,0,-1,1035,1380,0,0
-182,-356,0,0,0,0,0,0,0,0,0,-1,1042,1380,0,0
-175,-356,0,0,0,0,0,0,0,0,0,-1,1049,1380,0,0
-168,-356,0,0,0,0,0,0,0,0,0,-1,1056,1380,0,0
-161,-356,0,0,0,0,0,0,0,0,0,-1,1063,1380,0,0
-154,-356,0,0,0,0,0,0,0,0,0,-1,1070,1380,0,0
-147,-356,0,0,0,0,0,0,0,0,0,-1,1077,1380,0,0
-140,-356,0,0,0,0,0,0,0,0,0,-1,1084,1380,0,0
-133,-356,0,0,0,0,0,0,0,0,0,-1,1091,1380,0,0
-126,-356,0,0,0,0,0,0,0,0,0,-1,1098,1380,0,0
-119,-356,0,0,0,0,0,0,0,0,0,-1,1105,1380,0,0
-112,-356,0,0,0,0,0,0,0,0,0,-1,1112,1380,0,0
-105,-356,0,0,0,0,0,0,0,0,0,-1,1119,1380,0,0
-98,-356,0,0,0,0,0,0,0,0,0,-1,1126,1380,0,0
-91,-356,0,0,0,0,0,0,0,0,0,-1,1133,1380,0,0
-84,-356,0,0,0,0,0,0,0,0,0,-1,1140,1380,0,0
-77,-356,0,0,0,0,0,0,0,0,0,-1,1147,1380,0,0
-70,-356,0,0,0,0,0,0,0,0,0,-1,1154,1380,0,0
-63,-356,0,0,0,0,0,0,0,0,0,-1,1161,1380,0,0
-56,-356,0,0,0,0,0,0,0,0,0,-1,1168,1380,0,0
-49,-356,0,0,0,0,0,0,0,0,0,-1,1175,1380,0,0
-42,-356,0,0,0,0,0,0,0,0,0,-1,1182,1380,0,0
-35,-356,0,0,0,0,0,0,0,0,0,-1,1189,1380,0,0
-28,-356,0,0,0,0,0,0,0,0,0,-1,1196,1380,0,0
-21,-356,0,0,0,0,0,0,0,0,0,-1,1203,1380,0,0
-14,-356,0,0,0,0,0,0,0,0,0,-1,1210,1380,0,0
-7,-356,0,0,0,0,0,0,0,0,0,-1,1217,1380,0,0
0,-356,0,0,0,0,0,0,0,0,0,-1,1224,1380,0,0
7,-356,0,0,0,0,0,0,0,0,0,-1,1231,1380,0,0
14,-356,0,0,0,0,0,0,0,0,0,-1,1238,1380,0,0
21,-356,0,0,0,0,0,0,0,0,0,-1,1245,1380,0,0
28,-356,0,0,0,0,0,0,0,0,0,-1,1252,1380,0,0
35,-356,0,0,0,0,0,0,0,0,0,-1,1259,1380,0,0
42,-356,0,0,0,0,0,0,0,0,0,-1,1266,1380,0,0
49,-356,0,0,0,0,0,0,0,0,0,-1,1273,1380,0,0
56,-356,0,0,0,0,0,0,0,0,0,-1,1280,1380,0,0
63,-356,0,0,0,0,0,0,0,0,0,-1,1287,1380,0,0
70,-356,0,0,0,0,0,0,0,0,0,-1,1294,1380,0,0
77,-356,0,0,0,0,0,0,0,0,0,-1,1301,1380,0,0
84,-356,0,0,0,0,0,0,0,0,0,-1,1308,1380,0,0
91,-356,0,0,0,0,0,0,0,0,0,-1,1315,1380,0,0
98,-356,0,0,0,0,0,0,0,0,0,-1,1322,1380,0,0
105,-356,0,0,0,0,0,0,0,0,0,-1,1329,1380,0,0
112,-356,0,0,0,0,0,0,0,0,0,-1,1336,1380,0,0
119,-356,0,0,0,0,0,0,0,0,0,-1,1343,1380,0,0
126,-356,0,0,0,0,0,0,0,0,0,-1,1350,1380,0,0
133,-356,0,0,0,0,0,0,0,0,0,-1,1357,1380,0,0
140,-356,0,0,0,0,0,0,0,0,0,-1,1364,1380,0,0
147,-356,0,0,0,0,0,0,0,0,0,-1,1371,1380,0,0
154,-356,0,0,0,0,0,0,0,0,0,-1,1378,1380,0,0
161,-356,0,0,0,0,0,0,0,0,0,-1,1385,1380,0,0
168,-356,0,0,0,0,0,0,0,0,0,-1,1392,1380,0,0
175,-356,0,0,0,0,0,0,0,0,0,-1,1399,1380,0,0
182,-356,0,0,0,0,0,0,0,0,0,-1,1406,1380,0,0
189,-356,0,0,0,0,0,0,0,0,0,-1,1413,1380,0,0
196,-356,0,0,0,0,0,0,0,0,0,-1,1420,1380,0,0
203,-356,0,0,0,0,0,0,0,0,0,-1,1427,1380,0,0
210,-356,0,0,0,0,0,0,0,0,0,-1,1434,1380,0,0
217,-356,0,0,0,0,0,0,0,0,0,-1,1441,1380,0,0
224,-356,0,0,0,0,0,0,0,0,0,-1,1448,1380,0,0
231,-356,0,0,0,0,0,0,0,0,0,-1,1455,1380,0,0
238,-356,0,0,0,0,0,0,0,0,0,-1,1462,1380,0,0
245,-356,0,0,0,0,0,0,0,0,0,-1,1469,1380,0,0
252,-356,0,0,0,0,0,0,0,0,0,-1,1476,1380,0,0
259,-356,0,0,0,0,0,0,0,0,0,-1,1483,1380,0,0
266,-356,0,0,0,0,0,0,0,0,0,-1,1490,1380,0,0
273,-356,0,0,0,0,0,0,0,0,0,-1,1497,1380,0,0
280,-356,0,0,0,0,0,0,0,0,0,-1,1504,1380,0,0
287,-356,0,0,0,0,0,0,0,0,0,-1,1511,1380,0,0
294,-356,0,0,0,0,0,0,0,0,0,-1,1518,1380,0,0
301,-356,0,0,0,0,0,0,0,0,0,-1,1525,1380,0,0
308,-356,0,0,0,0,0,0,0,0,0,-1,1532,1380,0,0
315,-356,0,0,0,0,0,0,0,0,0,-1,1539,1380,0,0
322,-356,0,0,0,0,0,0,0,0,0,-1,1546,1380,0,0
329,-356,0,0,0,0,0,0,0,0,0,-1,1553,1380,0,0
336,-356,0,0,0,0,0,0,0,0,0,-1,1560,1380,0,0
343,-356,0,0,0,0,0,0,0,0,0,-1,1567,1380,0,0
350,-356,0,0,0,0,0,0,0,0,0,-1,1574,1380,0,0
357,-356,0,0,0,0,0,0,0,0,0,-1,1581,1380,0,0
364,-356,0,0,0,0,0,0,0,0,0,-1,1588,1380,0,0
371,-356,0,0,0,0,0,0,0,0,0,-1,1595,1380,0,0
378,-356,0,0,0,0,0,0,0,0,0,-1,1602,1380,0,0
385,-356,0,0,0,0,0,0,0,0,0,-1,1609,1380,0,0
392,-356,0,0,0,0,0,0,0,0,0,-1,1616,1380,0,0
399,-356,0,0,0,0,0,0,0,0,0,-1,1623,1380,0,0
406,-356,0,0,0,0,0,0,0,0,0,-1,1630,1380,0,0
413,-356,0,0,0,0,0,0,0,0,0,-1,1637,1380,0,0
420,-356,0,0,0,0,0,0,0,0,0,-1,1644,1380,0,0
427,-356,0,0,0,0,0,0,0,0,0,-1,1651,1380,0,0
434,-356,0,0,0,0,0,0,0,0,0,-1,1658,1380,0,0
441,-356,0,0,0,0,0,0,0,0,0,-1,1665,1380,0,0
448,-356,0,0,0,0,0,0,0,0,0,-1,1672,1380,0,0
455,-356,0,0,0,0,0,0,0,0,0,-1,1679,1380,0,0
462,-356,0,0,0,0,0,0,0,0,0,-1,1686,1380,0,0
469,-356,0,0,0,0,0,0,0,0,0,-1,1693,1380,0,0
476,-356,0,0,0,0,0,0,0,0,0,-1,1700,1380,0,0
483,-356,0,0,0,0,0,0,0,0,0,-1,1707,1380,0,0
490,-356,0,0,0,0,0,0,0,0,0,-1,1714,1380,0,0
497,-356,0,0,0,0,0,0,0,0,0,-1,1721,1380,0,0
504,-356,0,0,0,0,0,0,0,0,0,-1,1728,1380,0,0
511,-356,0,0,0,0,0,0,0,0,0,-1,1735,1380,0,0
518,-356,0,0,0,0,0,0,0,0,0,-1,1742,1380,0,0
525,-356,0,0,0,0,0,0,0,0,0,-1,1749,1380,0,0
532,-356,0,0,0,0,0,0,0,0,0,-1,1756,1380,0,0
539,-356,0,0,0,0,0,0,0,0,0,-1,1763,1380,0,0
546,-356,0,0,0,0,0,0,0,0,0,-1,1770,1380,0,0
553,-356,0,0,0,0,0,0,0,0,0,-1,1777,1380,0,0
560,-356,27.4741,2.35632,0,0,0,0,0,0,0,-1,1784,1380,27.4741,-2.35628
567,-356,27.629,2.0238,0,0,0,0,0,0,0,-1,1791,1380,27.629,-2.02379
574,-356,27.6868,1.91602,0,0,0,0,0,0,0,-1,1798,1380,27.6868,-1.91596
581,-356,34.6188,4.91785,0,0,0,0,0,0,0,-1,1805,1380,34.6188,-4.91788
588,-356,33.3516,5.48169,0,0,0,0,0,0,0,-1,1812,1380,33.3516,-5.48166
595,-356,32.0834,5.86084,0,0,0,0,0,0,0,-1,1819,1380,32.0834,-5.86079
602,-356,30.1604,6.07104,0,0,0,0,0,0,0,-1,1826,1380,30.1604,-6.07104
609,-356,28.3435,6.48901,0,0,0,0,0,0,0,-1,1833,1380,28.3435,-6.48899
616,-356,26.9358,6.80872,0,0,0,0,0,0,0,-1,1840,1380,26.9358,-6.80877
623,-356,16.1803,1.07532,0,0,0,0,0,0,0,-1,1847,1380,16.1803,-1.07529
630,-356,16.4138,6.91553,0,0,0,0,0,0,0,-1,1854,1380,16.4138,-6.9155
637,-356,19.7811,10.0214,0,0,0,0,0,0,0,-1,1861,1380,19.7811,-10.0213
644,-356,19.7852,9.47888,0.00439743,0.00356354,-0.0107416,0.0147302,-0.00676924,-0.766,0.0126932,0.0379403,1868,1380,19.7852,-9.47884
651,-356,19.8385,9.03674,0.000766196,0.00043303,-0.004358,0.00496079,-0.00376157,-0.766295,0.0050517,0.0167825,1875,1380,19.8385,-9.0367
658,-356,19.7924,8.72412,9.61412e-06,-0.00080338,-0.000980138,0.000664207,-0.00145797,-0.588826,0.00125348,0.0139192,1882,1380,19.7924,-8.72418
665,-356,19.7814,8.44934,-4.41019e-05,-0.000710323,0.000154877,-9.85761e-06,-0.000744567,0.217605,0.000493125,0.0133705,1889,1380,19.7813,-8.44929
672,-356,19.7701,8.14038,0.000107676,-0.00048478,0.000231748,0.000187557,-0.000564661,0.331936,0.000452119,0.0144036,1896,1380,19.7701,-8.14033
679,-356,19.7684,7.83472,0.000203082,-0.000284777,0.000297897,0.000344177,-0.000425873,0.442337,0.000445422,0.0160719,1903,1380,19.7684,-7.83477
686,-356,19.7726,7.5376,0.000180469,-5.60607e-05,0.000364387,0.000445303,-0.000320895,0.628482,0.000444304,0.0158183,1910,1380,19.7726,-7.53754
693,-356,19.7834,7.23438,4.075e-06,0.000223574,0.000448932,0.000575977,-0.000348328,0.905281,0.000539015,0.0139417,1917,1380,19.7834,-7.23433
700,-356,19.7946,6.92468,-0.000389021,0.000626489,0.000526387,0.000850102,-0.000612633,1.16909,0.000848212,0.0194066,1924,1380,19.7945,-6.92472
707,-356,19.8356,6.62671,0,0,0,0,0,0,0,-1,1931,1380,19.8356,-6.62667
714,-356,19.6907,5.82129,0,0,0,0,0,0,0,-1,1938,1380,19.6907,-5.82132
721,-356,17.2948,4.1958,0,0,0,0,0,0,0,-1,1945,1380,17.2948,-4.19584
728,-356,19.1846,2.31519,0,0,0,0,0,0,0,-1,1952,1380,19.1846,-2.31514
735,-356,20.0731,2.50842,0,0,0,0,0,0,0,-1,1959,1380,20.0731,-2.50844
742,-356,21.0111,2.43762,0,0,0,0,0,0,0,-1,1966,1380,21.0112,-2.43762
749,-356,22.1411,1.83276,0,0,0,0,0,0,0,-1,1973,1380,22.1411,-1.83275
756,-356,0,0,0,0,0,0,0,0,0,-1,1980,1380,0,0
763,-356,0,0,0,0,0,0,0,0,0,-1,1987,1380,0,0
770,-356,0,0,0,0,0,0,0,0,0,-1,1994,1380,0,0
777,-356,0,0,0,0,0,0,0,0,0,-1,2001,1380,0,0
784,-356,0,0,0,0,0,0,0,0,0,-1,2008,1380,0,0
791,-356,0,0,0,0,0,0,0,0,0,-1,2015,1380,0,0
798,-356,0,0,0,0,0,0,0,0,0,-1,2022,1380,0,0
805,-356,0,0,0,0,0,0,0,0,0,-1,2029,1380,0,0
812,-356,0,0,0,0,0,0,0,0,0,-1,2036,1380,0,0
-700,-363,0,0,0,0,0,0,0,0,0,-1,524,1387,0,0
-693,-363,0,0,0,0,0,0,0,0,0,-1,531,1387,0,0
-686,-363,0,0,0,0,0,0,0,0,0,-1,538,1387,0,0
-679,-363,0,0,0,0,0,0,0,0,0,-1,545,1387,0,0
-672,-363,0,0,0,0,0,0,0,0,0,-1,552,1387,0,0
-665,-363,0,0,0,0,0,0,0,0,0,-1,559,1387,0,0
-658,-363,0,0,0,0,0,0,0,0,0,-1,566,1387,0,0
-651,-363,0,0,0,0,0,0,0,0,0,-1,573,1387,0,0
-644,-363,0,0,0,0,0,0,0,0,0,-1,580,1387,0,0
-637,-363,0,0,0,0,0,0,0,0,0,-1,587,1387,0,0
-630,-363,0,0,0,0,0,0,0,0,0,-1,594,1387,0,0
-623,-363,-9.67566,-5.91846,0,0,0,0,0,0,0,-1,601,1387,-9.67563,5.91847
-616,-363,-9.02985,-2.98083,0,0,0,0,0,0,0,-1,608,1387,-9.02987,2.98079
-609,-363,-4.90265,0.195679,0,0,0,0,0,0,0,-1,615,1387,-4.90263,-0.195721
-602,-363,-9.65009,3.5321,0,0,0,0,0,0,0,-1,622,1387,-9.65007,-3.53211
-595,-363,-8.77417,2.44104,0,0,0,0,0,0,0,-1,629,1387,-8.77415,-2.44107
-588,-363,-8.41168,3.76746,0,0,0,0,0,0,0,-1,636,1387,-8.41166,-3.76751
-581,-363,-8.48102,4.26941,-0.00990504,-0.00224745,-0.00432861,-0.000297275,-0.0118552,-1.1475,0.00780628,0.0428186,643,1387,-8.48103,-4.26935
-574,-363,-8.64075,4.65442,-0.007757,-0.00241042,-0.00390316,-0.000352839,-0.00981459,-1.08566,0.00642867,0.0383487,650,1387,-8.64075,-4.65448
-567,-363,-8.86237,4.78992,-0.00585572,-0.00220048,-0.00333717,-0.000223242,-0.00783295,-1.03592,0.00514917,0.0257558,657,1387,-8.86238,-4.78986
-560,-363,-8.85724,5.11865,-0.00410294,-0.00192024,-0.00270589,-9.39034e-05,-0.00592927,-0.977083,0.00392192,0.0124978,664,1387,-8.85725,-5.11866
-553,-363,-8.88007,5.48108,-0.00230953,-0.00152448,-0.00195396,7.5993e-05,-0.00391,-0.884521,0.00263237,0.0124404,671,1387,-8.88009,-5.48112
-546,-363,-8.8761,5.80505,-0.000453569,-0.00109384,-0.00107126,0.000344371,-0.00189178,-0.640202,0.00139027,0.0131449,678,1387,-8.87611,-5.80501
-539,-363,-8.8576,6.15552,0.0014329,-0.00063728,-0.000118903,0.0014397,-0.000644087,-0.0571856,0.00123196,0.0162013,685,1387,-8.85759,-6.15554
-532,-363,-8.88824,6.52734,0.00341185,-0.000184987,0.000926776,0.0036366,-0.00040974,0.237918,0.00257189,0.0142084,692,1387,-8.88827,-6.52729
-525,-363,-8.89752,6.86841,0.00542072,0.000200813,0.00201634,0.00610887,-0.00048734,0.328892,0.00424436,0.0115463,699,1387,-8.89749,-6.8684
-518,-363,-8.88416,7.22998,0.00719018,0.000461898,0.00303824,0.00835906,-0.000706987,0.367269,0.0058227,0.0101051,706,1387,-8.88415,-7.22999
-511,-363,-8.8255,7.60791,0.00838233,0.000167079,0.00356458,0.00971334,-0.00116393,0.357367,0.00689636,0.018836,713,1387,-8.82552,-7.60796
-504,-363,-8.58746,7.99451,0,0,0,0,0,0,0,-1,720,1387,-8.58744,-7.99449
-497,-363,-7.18842,7.29944,0,0,0,0,0,0,0,-1,727,1387,-7.18839,-7.29945
-490,-363,-5.42413,4.6958,0,0,0,0,0,0,0,-1,734,1387,-5.42412,-4.69583
-483,-363,-6.28375,4.1394,0,0,0,0,0,0,0,-1,741,1387,-6.28374,-4.13944
-476,-363,-5.83807,4.31018,0,0,0,0,0,0,0,-1,748,1387,-5.8381,-4.31013
-469,-363,-10.7125,0.697754,0,0,0,0,0,0,0,-1,755,1387,-10.7125,-0.697811
-462,-363,-9.55951,-0.0830078,0,0,0,0,0,0,0,-1,762,1387,-9.55949,0.0830163
-455,-363,-13.1008,-0.290894,0,0,0,0,0,0,0,-1,769,1387,-13.1008,0.290921
-448,-363,-11.7324,2.46606,0,0,0,0,0,0,0,-1,776,1387,-11.7324,-2.46605
-441,-363,-12.4464,2.5354,0,0,0,0,0,0,0,-1,783,1387,-12.4463,-2.53537
-434,-363,-13.6918,2.14661,0,0,0,0,0,0,0,-1,790,1387,-13.6918,-2.14662
-427,-363,0,0,0,0,0,0,0,0,0,-1,797,1387,0,0
-420,-363,0,0,0,0,0,0,0,0,0,-1,804,1387,0,0
-413,-363,0,0,0,0,0,0,0,0,0,-1,811,1387,0,0
-406,-363,0,0,0,0,0,0,0,0,0,-1,818,1387,0,0
-399,-363,0,0,0,0,0,0,0,0,0,-1,825,1387,0,0
-392,-363,0,0,0,0,0,0,0,0,0,-1,832,1387,0,0
-385,-363,0,0,0,0,0,0,0,0,0,-1,839,1387,0,0
-378,-363,0,0,0,0,0,0,0,0,0,-1,846,1387,0,0
-371,-363,0,0,0,0,0,0,0,0,0,-1,853,1387,0,0
-364,-363,0,0,0,0,0,0,0,0,0,-1,860,1387,0,0
-357,-363,0,0,0,0,0,0,0,0,0,-1,867,1387,0,0
-350,-363,0,0,0,0,0,0,0,0,0,-1,874,1387,0,0
-343,-363,0,0,0,0,0,0,0,0,0,-1,881,1387,0,0
-336,-363,0,0,0,0,0,0,0,0,0,-1,888,1387,0,0
-329,-363,0,0,0,0,0,0,0,0,0,-1,895,1387,0,0
-322,-363,0,0,0,0,0,0,0,0,0,-1,902,1387,0,0
-315,-363,0,0,0,0,0,0,0,0,0,-1,909,1387,0,0
-308,-363,0,0,0,0,0,0,0,0,0,-1,916,1387,0,0
-301,-363,0,0,0,0,0,0,0,0,0,-1,923,1387,0,0
-294,-363,0,0,0,0,0,0,0,0,0,-1,930,1387,0,0
-287,-363,0,0,0,0,0,0,0,0,0,-1,937,1387,0,0
-280,-363,0,0,0,0,0,0,0,0,0,-1,944,1387,0,0
-273,-363,0,0,0,0,0,0,0,0,0,-1,951,1387,0,0
-266,-363,0,0,0,0,0,0,0,0,0,-1,958,1387,0,0
-259,-363,0,0,0,0,0,0,0,0,0,-1,965,1387,0,0
-252,-363,0,0,0,0,0,0,0,0,0,-1,972,1387,0,0
-245,-363,0,0,0,0,0,0,0,0,0,-1,979,1387,0,0
-238,-363,0,0,0,0,0,0,0,0,0,-1,986,1387,0,0
-231,-363,0,0,0,0,0,0,0,0,0,-1,993,1387,0,0
-224,-363,0,0,0,0,0,0,0,0,0,-1,1000,1387,0,0
-217,-363,0,0,0,0,0,0,0,0,0,-1,1007,1387,0,0
-210,-363,0,0,0,0,0,0,0,0,0,-1,1014,1387,0,0
-203,-363,0,0,0,0,0,0,0,0,0,-1,1021,1387,0,0
-196,-363,0,0,0,0,0,0,0,0,0,-1,1028,1387,0,0
-189,-363,0,0,0,0,0,0,0,0,0,-1,1035,1387,0,0
-182,-363,0,0,0,0,0,0,0,0,0,-1,1042,1387,0,0
-175,-363,0,0,0,0,0,0,0,0,0,-1,1049,1387,0,0
-168,-363,0,0,0,0,0,0,0,0,0,-1,1056,1387,0,0
-161,-363,0,0,0,0,0,0,0,0,0,-1,1063,1387,0,0
-154,-363,0,0,0,0,0,0,0,0,0,-1,1070,1387,0,0
-147,-363,0,0,0,0,0,0,0,0,0,-1,1077,1387,0,0
-140,-363,0,0,0,0,0,0,0,0,0,-1,1084,1387,0,0
-133,-363,0,0,0,0,0,0,0,0,0,-1,1091,1387,0,0
-126,-363,0,0,0,0,0,0,0,0,0,-1,1098,1387,0,0
-119,-363,0,0,0,0,0,0,0,0,0,-1,1105,1387,0,0
-112,-363,0,0,0,0,0,0,0,0,0,-1,1112,1387,0,0
-105,-363,0,0,0,0,0,0,0,0,0,-1,1119,1387,0,0
-98,-363,0,0,0,0,0,0,0,0,0,-1,1126,1387,0,0
-91,-363,0,0,0,0,0,0,0,0,0,-1,1133,1387,0,0
-84,-363,0,0,0,0,0,0,0,0,0,-1,1140,1387,0,0
-77,-363,0,0,0,0,0,0,0,0,0,-1,1147,1387,0,0
-70,-363,0,0,0,0,0,0,0,0,0,-1,1154,1387,0,0
-63,-363,0,0,0,0,0,0,0,0,0,-1,1161,1387,0,0
-56,-363,0,0,0,0,0,0,0,0,0,-1,1168,1387,0,0
-49,-363,0,0,0,0,0,0,0,0,0,-1,1175,1387,0,0
-42,-363,0,0,0,0,0,0,0,0,0,-1,1182,1387,0,0
-35,-363,0,0,0,0,0,0,0,0,0,-1,1189,1387,0,0
-28,-363,0,0,0,0,0,0,0,0,0,-1,1196,1387,0,0
-21,-363,0,0,0,0,0,0,0,0,0,-1,1203,1387,0,0
-14,-363,0,0,0,0,0,0,0,0,0,-1,1210,1387,0,0
-7,-363,0,0,0,0,0,0,0,0,0,-1,1217,1387,0,0
0,-363,0,0,0,0,0,0,0,0,0,-1,1224,1387,0,0
7,-363,0,0,0,0,0,0,0,0,0,-1,1231,1387,0,0
14,-363,0,0,0,0,0,0,0,0,0,-1,1238,1387,0,0
21,-363,0,0,0,0,0,0,0,0,0,-1,1245,1387,0,0
28,-363,0,0,0,0,0,0,0,0,0,-1,1252,1387,0,0
35,-363,0,0,0,0,0,0,0,0,0,-1,1259,1387,0,0
42,-363,0,0,0,0,0,0,0,0,0,-1,1266,1387,0,0
49,-363,0,0,0,0,0,0,0,0,0,-1,1273,1387,0,0
56,-363,0,0,0,0,0,0,0,0,0,-1,1280,1387,0,0
63,-363,0,0,0,0,0,0,0,0,0,-1,1287,1387,0,0
70,-363,0,0,0,0,0,0,0,0,0,-1,1294,1387,0,0
77,-363,0,0,0,0,0,0,0,0,0,-1,1301,1387,0,0
84,-363,0,0,0,0,0,0,0,0,0,-1,1308,1387,0,0
91,-363,0,0,0,0,0,0,0,0,0,-1,1315,1387,0,0
98,-363,0,0,0,0,0,0,0,0,0,-1,1322,1387,0,0
105,-363,0,0,0,0,0,0,0,0,0,-1,1329,1387,0,0
112,-363,0,0,0,0,0,0,0,0,0,-1,1336,1387,0,0
119,-363,0,0,0,0,0,0,0,0,0,-1,1343,1387,0,0
126,-363,0,0,0,0,0,0,0,0,0,-1,1350,1387,0,0
133,-363,0,0,0,0,0,0,0,0,0,-1,1357,1387,0,0
140,-363,0,0,0,0,0,0,0,0,0,-1,1364,1387,0,0
147,-363,0,0,0,0,0,0,0,0,0,-1,1371,1387,0,0
154,-363,0,0,0,0,0,0,0,0,0,-1,1378,1387,0,0
161,-363,0,0,0,0,0,0,0,0,0,-1,1385,1387,0,0
168,-363,0,0,0,0,0,0,0,0,0,-1,1392,1387,0,0
175,-363,0,0,0,0,0,0,0,0,0,-1,1399,1387,0,0
182,-363,0,0,0,0,0,0,0,0,0,-1,1406,1387,0,0
189,-363,0,0,0,0,0,0,0,0,0,-1,1413,1387,0,0
196,-363,0,0,0,0,0,0,0,0,0,-1,1420,1387,0,0
203,-363,0,0,0,0,0,0,0,0,0,-1,1427,1387,0,0
210,-363,0,0,0,0,0,0,0,0,0,-1,1434,1387,0,0
217,-363,0,0,0,0,0,0,0,0,0,-1,1441,1387,0,0
224,-363,0,0,0,0,0,0,0,0,0,-1,1448,1387,0,0
231,-363,0,0,0,0,0,0,0,0,0,-1,1455,1387,0,0
238,-363,0,0,0,0,0,0,0,0,0,-1,1462,1387,0,0
245,-363,0,0,0,0,0,0,0,0,0,-1,1469,1387,0,0
252,-363,0,0,0,0,0,0,0,0,0,-1,1476,1387,0,0
259,-363,0,0,0,0,0,0,0,0,0,-1,1483,1387,0,0
266,-363,0,0,0,0,0,0,0,0,0,-1,1490,1387,0,0
273,-363,0,0,0,0,0,0,0,0,0,-1,1497,1387,0,0
280,-363,0,0,0,0,0,0,0,0,0,-1,1504,1387,0,0
287,-363,0,0,0,0,0,0,0,0,0,-1,1511,1387,0,0
294,-363,0,0,0,0,0,0,0,0,0,-1,1518,1387,0,0
301,-363,0,0,0,0,0,0,0,0,0,-1,1525,1387,0,0
308,-363,0,0,0,0,0,0,0,0,0,-1,1532,1387,0,0
315,-363,0,0,0,0,0,0,0,0,0,-1,1539,1387,0,0
322,-363,0,0,0,0,0,0,0,0,0,-1,1546,1387,0,0
329,-363,0,0,0,0,0,0,0,0,0,-1,1553,1387,0,0
336,-363,0,0,0,0,0,0,0,0,0,-1,1560,1387,0,0
343,-363,0,0,0,0,0,0,0,0,0,-1,1567,1387,0,0
350,-363,0,0,0,0,0,0,0,0,0,-1,1574,1387,0,0
357,-363,0,0,0,0,0,0,0,0,0,-1,1581,1387,0,0
364,-363,0,0,0,0,0,0,0,0,0,-1,1588,1387,0,0
371,-363,0,0,0,0,0,0,0,0,0,-1,1595,1387,0,0
378,-363,0,0,0,0,0,0,0,0,0,-1,1602,1387,0,0
385,-363,0,0,0,0,0,0,0,0,0,-1,1609,1387,0,0
392,-363,0,0,0,0,0,0,0,0,0,-1,1616,1387,0,0
399,-363,0,0,0,0,0,0,0,0,0,-1,1623,1387,0,0
406,-363,0,0,0,0,0,0,0,0,0,-1,1630,1387,0,0
413,-363,0,0,0,0,0,0,0,0,0,-1,1637,1387,0,0
420,-363,0,0,0,0,0,0,0,0,0,-1,1644,1387,0,0
427,-363,0,0,0,0,0,0,0,0,0,-1,1651,1387,0,0
434,-363,0,0,0,0,0,0,0,0,0,-1,1658,1387,0,0
441,-363,0,0,0,0,0,0,0,0,0,-1,1665,1387,0,0
448,-363,0,0,0,0,0,0,0,0,0,-1,1672,1387,0,0
455,-363,0,0,0,0,0,0,0,0,0,-1,1679,1387,0,0
462,-363,0,0,0,0,0,0,0,0,0,-1,1686,1387,0,0
469,-363,0,0,0,0,0,0,0,0,0,-1,1693,1387,0,0
476,-363,0,0,0,0,0,0,0,0,0,-1,1700,1387,0,0
483,-363,0,0,0,0,0,0,0,0,0,-1,1707,1387,0,0
490,-363,0,0,0,0,0,0,0,0,0,-1,1714,1387,0,0
497,-363,0,0,0,0,0,0,0,0,0,-1,1721,1387,0,0
504,-363,0,0,0,0,0,0,0,0,0,-1,1728,1387,0,0
511,-363,0,0,0,0,0,0,0,0,0,-1,1735,1387,0,0
518,-363,0,0,0,0,0,0,0,0,0,-1,1742,1387,0,0
525,-363,0,0,0,0,0,0,0,0,0,-1,1749,1387,0,0
532,-363,0,0,0,0,0,0,0,0,0,-1,1756,1387,0,0
539,-363,0,0,0,0,0,0,0,0,0,-1,1763,1387,0,0
546,-363,0,0,0,0,0,0,0,0,0,-1,1770,1387,0,0
553,-363,26.4719,2.09753,0,0,0,0,0,0,0,-1,1777,1387,26.472,-2.09757
560,-363,27.1924,2.3584,0,0,0,0,0,0,0,-1,1784,1387,27.1924,-2.35836
567,-363,27.807,2.3446,0,0,0,0,0,0,0,-1,1791,1387,27.807,-2.34464
574,-363,27.5302,2.14966,0,0,0,0,0,0,0,-1,1798,1387,27.5301,-2.1497
581,-363,33.5271,5.7323,0,0,0,0,0,0,0,-1,1805,1387,33.5272,-5.73232
588,-363,32.5608,6.72131,0,0,0,0,0,0,0,-1,1812,1387,32.5608,-6.72131
595,-363,31.4688,6.95435,0,0,0,0,0,0,0,-1,1819,1387,31.4688,-6.95431
602,-363,25.7437,5.33667,0,0,0,0,0,0,0,-1,1826,1387,25.7437,-5.33667
609,-363,27.7048,7.06885,0,0,0,0,0,0,0,-1,1833,1387,27.7048,-7.06882
616,-363,16.229,1.08704,0,0,0,0,0,0,0,-1,1840,1387,16.229,-1.08706
623,-363,15.7283,7.16663,0,0,0,0,0,0,0,-1,1847,1387,15.7282,-7.16665
630,-363,18.3192,9.27844,0,0,0,0,0,0,0,-1,1854,1387,18.3192,-9.27843
637,-363,19.1199,9.77124,0,0,0,0,0,0,0,-1,1861,1387,19.1199,-9.77129
644,-363,19.4886,9.38123,0.00349042,0.00129325,-0.00568744,0.0081844,-0.00340073,-0.689993,0.00687612,0.0130568,1868,1387,19.4887,-9.38124
651,-363,19.4993,9.04089,0.000784043,-5.05344e-05,-0.00200135,0.00241115,-0.00167764,-0.682619,0.00237329,0.0113489,1875,1387,19.4993,-9.04092
658,-363,19.4917,8.72681,0.000449491,-0.000496992,-0.000491474,0.000658528,-0.000706029,-0.402147,0.000787987,0.0115449,1882,1387,19.4917,-8.72686
665,-363,19.4714,8.4574,0.000496288,-0.00045231,-4.51795e-05,0.000498435,-0.000454457,-0.0474843,0.000550348,0.0116307,1889,1387,19.4714,-8.45736
672,-363,19.4581,8.16833,0.000565213,-0.000295066,0.000101793,0.000577093,-0.000306947,0.116188,0.000518284,0.0129324,1896,1387,19.4581,-8.16839
679,-363,19.4497,7.85718,0.00062854,-0.000165184,0.000241624,0.000696309,-0.000232953,0.273446,0.000558299,0.0146355,1903,1387,19.4497,-7.85721
686,-363,19.4564,7.55298,0.00061383,-1.21032e-05,0.000372534,0.000787412,-0.000185685,0.436039,0.000596548,0.0148809,1910,1387,19.4564,-7.553
693,-363,19.4685,7.21277,0.000506543,0.000197424,0.000475996,0.000852445,-0.000148477,0.628415,0.000623708,0.0136969,1917,1387,19.4685,-7.21277
700,-363,19.5767,6.87329,0.000236876,0.000573123,0.000556914,0.000986738,-0.000176738,0.93199,0.000723965,0.0210906,1924,1387,19.5767,-6.8733
707,-363,19.7495,6.57434,0,0,0,0,0,0,0,-1,1931,1387,19.7496,-6.57434
714,-363,16.5782,5.3147,0,0,0,0,0,0,0,-1,1938,1387,16.5783,-5.31472
721,-363,14.4045,4.51685,0,0,0,0,0,0,0,-1,1945,1387,14.4045,-4.51685
728,-363,19.9756,0.853027,0,0,0,0,0,0,0,-1,1952,1387,19.9756,-0.853059
735,-363,21.4297,1.2981,0,0,0,0,0,0,0,-1,1959,1387,21.4297,-1.29811
742,-363,21.3621,2.79663,0,0,0,0,0,0,0,-1,1966,1387,21.362,-2.7966
749,-363,0,0,0,0,0,0,0,0,0,-1,1973,1387,0,0
756,-363,0,0,0,0,0,0,0,0,0,-1,1980,1387,0,0
763,-363,0,0,0,0,0,0,0,0,0,-1,1987,1387,0,0
770,-363,0,0,0,0,0,0,0,0,0,-1,1994,1387,0,0
777,-363,0,0,0,0,0,0,0,0,0,-1,2001,1387,0,0
784,-363,0,0,0,0,0,0,0,0,0,-1,2008,1387,0,0
791,-363,0,0,0,0,0,0,0,0,0,-1,2015,1387,0,0
798,-363,0,0,0,0,0,0,0,0,0,-1,2022,1387,0,0
805,-363,0,0,0,0,0,0,0,0,0,-1,2029,1387,0,0
812,-363,0,0,0,0,0,0,0,0,0,-1,2036,1387,0,0
-700,-370,0,0,0,0,0,0,0,0,0,-1,524,1394,0,0
-693,-370,0,0,0,0,0,0,0,0,0,-1,531,1394,0,0
-686,-370,0,0,0,0,0,0,0,0,0,-1,538,1394,0,0
-679,-370,0,0,0,0,0,0,0,0,0,-1,545,1394,0,0
-672,-370,0,0,0,0,0,0,0,0,0,-1,552,1394,0,0
-665,-370,0,0,0,0,0,0,0,0,0,-1,559,1394,0,0
-658,-370,0,0,0,0,0,0,0,0,0,-1,566,1394,0,0
-651,-370,0,0,0,0,0,0,0,0,0,-1,573,1394,0,0
-644,-370,0,0,0,0,0,0,0,0,0,-1,580,1394,0,0
-637,-370,0,0,0,0,0,0,0,0,0,-1,587,1394,0,0
-630,-370,0,0,0,0,0,0,0,0,0,-1,594,1394,0,0
-623,-370,-10.1758,-7.10486,0,0,0,0,0,0,0,-1,601,1394,-10.1758,7.10483
-616,-370,-8.85925,-1.61475,0,0,0,0,0,0,0,-1,608,1394,-8.85925,1.61476
-609,-370,-5.39325,0.0421143,0,0,0,0,0,0,0,-1,615,1394,-5.39328,-0.0421372
-602,-370,-10.5386,4.50964,0,0,0,0,0,0,0,-1,622,1394,-10.5386,-4.50963
-595,-370,-7.53284,5.44214,0,0,0,0,0,0,0,-1,629,1394,-7.53284,-5.44216
-588,-370,-7.4903,2.0061,0,0,0,0,0,0,0,-1,636,1394,-7.49031,-2.00607
-581,-370,-8.28363,4.14172,0,0,0,0,0,0,0,-1,643,1394,-8.28366,-4.14168
-574,-370,-8.29828,4.58899,-0.00873581,-0.00392124,-0.00477442,-0.000981558,-0.0116755,-1.0189,0.00747798,0.0445993,650,1394,-8.29828,-4.58894
-567,-370,-8.40375,4.87415,-0.00681687,-0.00342293,-0.00416197,-0.000625269,-0.00961453,-0.978975,0.00621177,0.033015,657,1394,-8.40377,-4.8741
-560,-370,-8.53986,5.11047,-0.00509236,-0.00290049,-0.0034828,-0.000345261,-0.00764759,-0.937829,0.00498729,0.0174012,664,1394,-8.53984,-5.11051
-553,-370,-8.53485,5.47839,-0.00334155,-0.00229227,-0.0026773,-8.8698e-05,-0.00554513,-0.882152,0.00366754,0.0107692,671,1394,-8.53486,-5.47839
-546,-370,-8.48651,5.83618,-0.00154321,-0.00167359,-0.00174459,0.000137407,-0.0033542,-0.766724,0.00228332,0.0145361,678,1394,-8.48653,-5.83618
-539,-370,-8.46967,6.20923,0.000293419,-0.00105535,-0.000736304,0.000617503,-0.00137943,-0.414632,0.00118057,0.0191702,685,1394,-8.46966,-6.20921
-532,-370,-8.52893,6.5741,0.00222151,-0.000458093,0.000361243,0.00226936,-0.000505938,0.131681,0.00170673,0.0209093,692,1394,-8.52893,-6.57407
-525,-370,-8.52484,6.86023,0.00415435,2.82131e-05,0.00147211,0.00462572,-0.000443151,0.309882,0.00324164,0.0151904,699,1394,-8.52485,-6.86017
-518,-370,-8.51727,7.19922,0.00576275,0.000367212,0.00244866,0.00670831,-0.000578352,0.368516,0.00467693,0.0110625,706,1394,-8.51725,-7.19917
-511,-370,-8.49725,7.55188,0.00661499,0.000125857,0.00275931,0.00762966,-0.000888803,0.352375,0.00540711,0.0144712,713,1394,-8.49724,-7.55188
-504,-370,-8.40021,7.93958,0.00714388,-0.000492146,0.00268857,0.00799552,-0.00134378,0.306763,0.00583012,0.0337413,720,1394,-8.40019,-7.93957
-497,-370,-7.76898,8.35168,0,0,0,0,0,0,0,-1,727,1394,-7.769,-8.35165
-490,-370,-5.30695,4.5271,0,0,0,0,0,0,0,-1,734,1394,-5.30698,-4.52704
-483,-370,-6.02997,4.59253,0,0,0,0,0,0,0,-1,741,1394,-6.02994,-4.5925
-476,-370,-6.75293,4.65796,0,0,0,0,0,0,0,-1,748,1394,-6.7529,-4.65795
-469,-370,-10.584,1.14294,0,0,0,0,0,0,0,-1,755,1394,-10.584,-1.14293
-462,-370,-9.54462,0.387207,0,0,0,0,0,0,0,-1,762,1394,-9.5446,-0.387176
-455,-370,-8.50525,-0.36853,0,0,0,0,0,0,0,-1,769,1394,-8.50523,0.368582
-448,-370,-10.9543,2.28833,0,0,0,0,0,0,0,-1,776,1394,-10.9543,-2.28835
-441,-370,-11.8699,1.8313,0,0,0,0,0,0,0,-1,783,1394,-11.8699,-1.83127
-434,-370,-12.7855,1.37415,0,0,0,0,0,0,0,-1,790,1394,-12.7855,-1.37419
-427,-370,0,0,0,0,0,0,0,0,0,-1,797,1394,0,0
-420,-370,0,0,0,0,0,0,0,0,0,-1,804,1394,0,0
-413,-370,0,0,0,0,0,0,0,0,0,-1,811,1394,0,0
-406,-370,0,0,0,0,0,0,0,0,0,-1,818,1394,0,0
-399,-370,0,0,0,0,0,0,0,0,0,-1,825,1394,0,0
-392,-370,0,0,0,0,0,0,0,0,0,-1,832,1394,0,0
-385,-370,0,0,0,0,0,0,0,0,0,-1,839,1394,0,0
-378,-370,0,0,0,0,0,0,0,0,0,-1,846,1394,0,0
-371,-370,0,0,0,0,0,0,0,0,0,-1,853,1394,0,0
-364,-370,0,0,0,0,0,0,0,0,0,-1,860,1394,0,0
-357,-370,0,0,0,0,0,0,0,0,0,-1,867,1394,0,0
-350,-370,0,0,0,0,0,0,0,0,0,-1,874,1394,0,0
-343,-370,0,0,0,0,0,0,0,0,0,-1,881,1394,0,0
-336,-370,0,0,0,0,0,0,0,0,0,-1,888,1394,0,0
-329,-370,0,0,0,0,0,0,0,0,0,-1,895,1394,0,0
-322,-370,0,0,0,0,0,0,0,0,0,-1,902,1394,0,0
-315,-370,0,0,0,0,0,0,0,0,0,-1,909,1394,0,0
-308,-370,0,0,0,0,0,0,0,0,0,-1,916,1394,0,0
-301,-370,0,0,0,0,0,0,0,0,0,-1,923,1394,0,0
-294,-370,0,0,0,0,0,0,0,0,0,-1,930,1394,0,0
-287,-370,0,0,0,0,0,0,0,0,0,-1,937,1394,0,0
-280,-370,0,0,0,0,0,0,0,0,0,-1,944,1394,0,0
-273,-370,0,0,0,0,0,0,0,0,0,-1,951,1394,0,0
-266,-370,0,0,0,0,0,0,0,0,0,-1,958,1394,0,0
-259,-370,0,0,0,0,0,0,0,0,0,-1,965,1394,0,0
-252,-370,0,0,0,0,0,0,0,0,0,-1,972,1394,0,0
-245,-370,0,0,0,0,0,0,0,0,0,-1,979,1394,0,0
-238,-370,0,0,0,0,0,0,0,0,0,-1,986,1394,0,0
-231,-370,0,0,0,0,0,0,0,0,0,-1,993,1394,0,0
-224,-370,0,0,0,0,0,0,0,0,0,-1,1000,1394,0,0
-217,-370,0,0,0,0,0,0,0,0,0,-1,1007,1394,0,0
-210,-370,0,0,0,0,0,0,0,0,0,-1,1014,1394,0,0
-203,-370,0,0,0,0,0,0,0,0,0,-1,1021,1394,0,0
-196,-370,0,0,0,0,0,0,0,0,0,-1,1028,1394,0,0
-189,-370,0,0,0,0,0,0,0,0,0,-1,1035,1394,0,0
-182,-370,0,0,0,0,0,0,0,0,0,-1,1042,1394,0,0
-175,-370,0,0,0,0,0,0,0,0,0,-1,1049,1394,0,0
-168,-370,0,0,0,0,0,0,0,0,0,-1,1056,1394,0,0
-161,-370,0,0,0,0,0,0,0,0,0,-1,1063,1394,0,0
-154,-370,0,0,0,0,0,0,0,0,0,-1,1070,1394,0,0
-147,-370,0,0,0,0,0,0,0,0,0,-1,1077,1394,0,0
-140,-370,0,0,0,0,0,0,0,0,0,-1,1084,1394,0,0
-133,-370,0,0,0,0,0,0,0,0,0,-1,1091,1394,0,0
-126,-370,0,0,0,0,0,0,0,0,0,-1,1098,1394,0,0
-119,-370,0,0,0,0,0,0,0,0,0,-1,1105,1394,0,0
-112,-370,0,0,0,0,0,0,0,0,0,-1,1112,1394,0,0
-105,-370,0,0,0,0,0,0,0,0,0,-1,1119,1394,0,0
-98,-370,0,0,0,0,0,0,0,0,0,-1,1126,1394,0,0
-91,-370,0,0,0,0,0,0,0,0,0,-1,1133,1394,0,0
-84,-370,0,0,0,0,0,0,0,0,0,-1,1140,1394,0,0
-77,-370,0,0,0,0,0,0,0,0,0,-1,1147,1394,0,0
-70,-370,0,0,0,0,0,0,0,0,0,-1,1154,1394,0,0
-63,-370,0,0,0,0,0,0,0,0,0,-1,1161,1394,0,0
-56,-370,0,0,0,0,0,0,0,0,0,-1,1168,1394,0,0
-49,-370,0,0,0,0,0,0,0,0,0,-1,1175,1394,0,0
-42,-370,0,0,0,0,0,0,0,0,0,-1,1182,1394,0,0
-35,-370,0,0,0,0,0,0,0,0,0,-1,1189,1394,0,0
-28,-370,0,0,0,0,0,0,0,0,0,-1,1196,1394,0,0
-21,-370,0,0,0,0,0,0,0,0,0,-1,1203,1394,0,0
-14,-370,0,0,0,0,0,0,0,0,0,-1,1210,1394,0,0
-7,-370,0,0,0,0,0,0,0,0,0,-1,1217,1394,0,0
0,-370,0,0,0,0,0,0,0,0,0,-1,1224,1394,0,0
7,-370,0,0,0,0,0,0,0,0,0,-1,1231,1394,0,0
14,-370,0,0,0,0,0,0,0,0,0,-1,1238,1394,0,0
21,-370,0,0,0,0,0,0,0,0,0,-1,1245,1394,0,0
28,-370,0,0,0,0,0,0,0,0,0,-1,1252,1394,0,0
35,-370,0,0,0,0,0,0,0,0,0,-1,1259,1394,0,0
42,-370,0,0,0,0,0,0,0,0,0,-1,1266,1394,0,0
49,-370,0,0,0,0,0,0,0,0,0,-1,1273,1394,0,0
56,-370,0,0,0,0,0,0,0,0,0,-1,1280,1394,0,0
63,-370,0,0,0,0,0,0,0,0,0,-1,1287,1394,0,0
70,-370,0,0,0,0,0,0,0,0,0,-1,1294,1394,0,0
77,-370,0,0,0,0,0,0,0,0,0,-1,1301,1394,0,0
84,-370,0,0,0,0,0,0,0,0,0,-1,1308,1394,0,0
91,-370,0,0,0,0,0,0,0,0,0,-1,1315,1394,0,0
98,-370,0,0,0,0,0,0,0,0,0,-1,1322,1394,0,0
105,-370,0,0,0,0,0,0,0,0,0,-1,1329,1394,0,0
112,-370,0,0,0,0,0,0,0,0,0,-1,1336,1394,0,0
119,-370,0,0,0,0,0,0,0,0,0,-1,1343,1394,0,0
126,-370,0,0,0,0,0,0,0,0,0,-1,1350,1394,0,0
133,-370,0,0,0,0,0,0,0,0,0,-1,1357,1394,0,0
140,-370,0,0,0,0,0,0,0,0,0,-1,1364,1394,0,0
147,-370,0,0,0,0,0,0,0,0,0,-1,1371,1394,0,0
154,-370,0,0,0,0,0,0,0,0,0,-1,1378,1394,0,0
161,-370,0,0,0,0,0,0,0,0,0,-1,1385,1394,0,0
168,-370,0,0,0,0,0,0,0,0,0,-1,1392,1394,0,0
175,-370,0,0,0,0,0,0,0,0,0,-1,1399,1394,0,0
182,-370,0,0,0,0,0,0,0,0,0,-1,1406,1394,0,0
189,-370,0,0,0,0,0,0,0,0,0,-1,1413,1394,0,0
196,-370,0,0,0,0,0,0,0,0,0,-1,1420,1394,0,0
203,-370,0,0,0,0,0,0,0,0,0,-1,1427,1394,0,0
210,-370,0,0,0,0,0,0,0,0,0,-1,1434,1394,0,0
217,-370,0,0,0,0,0,0,0,0,0,-1,1441,1394,0,0
224,-370,0,0,0,0,0,0,0,0,0,-1,1448,1394,0,0
231,-370,0,0,0,0,0,0,0,0,0,-1,1455,1394,0,0
238,-370,0,0,0,0,0,0,0,0,0,-1,1462,1394,0,0
245,-370,0,0,0,0,0,0,0,0,0,-1,1469,1394,0,0
252,-370,0,0,0,0,0,0,0,0,0,-1,1476,1394,0,0
259,-370,0,0,0,0,0,0,0,0,0,-1,1483,1394,0,0
266,-370,0,0,0,0,0,0,0,0,0,-1,1490,1394,0,0
273,-370,0,0,0,0,0,0,0,0,0,-1,1497,1394,0,0
280,-370,0,0,0,0,0,0,0,0,0,-1,1504,1394,0,0
287,-370,0,0,0,0,0,0,0,0,0,-1,1511,1394,0,0
294,-370,0,0,0,0,0,0,0,0,0,-1,1518,1394,0,0
301,-370,0,0,0,0,0,0,0,0,0,-1,1525,1394,0,0
308,-370,0,0,0,0,0,0,0,0,0,-1,1532,1394,0,0
315,-370,0,0,0,0,0,0,0,0,0,-1,1539,1394,0,0
322,-370,0,0,0,0,0,0,0,0,0,-1,1546,1394,0,0
329,-370,0,0,0,0,0,0,0,0,0,-1,1553,1394,0,0
336,-370,0,0,0,0,0,0,0,0,0,-1,1560,1394,0,0
343,-370,0,0,0,0,0,0,0,0,0,-1,1567,1394,0,0
350,-370,0,0,0,0,0,0,0,0,0,-1,1574,1394,0,0
357,-370,0,0,0,0,0,0,0,0,0,-1,1581,1394,0,0
364,-370,0,0,0,0,0,0,0,0,0,-1,1588,1394,0,0
371,-370,0,0,0,0,0,0,0,0,0,-1,1595,1394,0,0
378,-370,0,0,0,0,0,0,0,0,0,-1,1602,1394,0,0
385,-370,0,0,0,0,0,0,0,0,0,-1,1609,1394,0,0
392,-370,0,0,0,0,0,0,0,0,0,-1,1616,1394,0,0
399,-370,0,0,0,0,0,0,0,0,0,-1,1623,1394,0,0
406,-370,0,0,0,0,0,0,0,0,0,-1,1630,1394,0,0
413,-370,0,0,0,0,0,0,0,0,0,-1,1637,1394,0,0
420,-370,0,0,0,0,0,0,0,0,0,-1,1644,1394,0,0
427,-370,0,0,0,0,0,0,0,0,0,-1,1651,1394,0,0
434,-370,0,0,0,0,0,0,0,0,0,-1,1658,1394,0,0
441,-370,0,0,0,0,0,0,0,0,0,-1,1665,1394,0,0
448,-370,0,0,0,0,0,0,0,0,0,-1,1672,1394,0,0
455,-370,0,0,0,0,0,0,0,0,0,-1,1679,1394,0,0
462,-370,0,0,0,0,0,0,0,0,0,-1,1686,1394,0,0
469,-370,0,0,0,0,0,0,0,0,0,-1,1693,1394,0,0
476,-370,0,0,0,0,0,0,0,0,0,-1,1700,1394,0,0
483,-370,0,0,0,0,0,0,0,0,0,-1,1707,1394,0,0
490,-370,0,0,0,0,0,0,0,0,0,-1,1714,1394,0,0
497,-370,0,0,0,0,0,0,0,0,0,-1,1721,1394,0,0
504,-370,0,0,0,0,0,0,0,0,0,-1,1728,1394,0,0
511,-370,0,0,0,0,0,0,0,0,0,-1,1735,1394,0,0
518,-370,0,0,0,0,0,0,0,0,0,-1,1742,1394,0,0
525,-370,0,0,0,0,0,0,0,0,0,-1,1749,1394,0,0
532,-370,0,0,0,0,0,0,0,0,0,-1,1756,1394,0,0
539,-370,0,0,0,0,0,0,0,0,0,-1,1763,1394,0,0
546,-370,27.4949,2.81201,0,0,0,0,0,0,0,-1,1770,1394,27.4948,-2.81198
553,-370,26.5985,1.99329,0,0,0,0,0,0,0,-1,1777,1394,26.5985,-1.99327
560,-370,27.1606,2.1084,0,0,0,0,0,0,0,-1,1784,1394,27.1606,-2.10838
567,-370,27.619,2.3833,0,0,0,0,0,0,0,-1,1791,1394,27.619,-2.38327
574,-370,28.0094,2.6936,0,0,0,0,0,0,0,-1,1798,1394,28.0094,-2.69357
581,-370,26.7473,2.29626,0,0,0,0,0,0,0,-1,1805,1394,26.7473,-2.29625
588,-370,32.1333,7.8728,0,0,0,0,0,0,0,-1,1812,1394,32.1333,-7.87275
595,-370,25.793,4.5271,0,0,0,0,0,0,0,-1,1819,1394,25.793,-4.52711
602,-370,25.1077,5.34937,0,0,0,0,0,0,0,-1,1826,1394,25.1077,-5.34932
609,-370,16.712,0.993286,0,0,0,0,0,0,0,-1,1833,1394,16.7121,-0.99323
616,-370,16.7764,7.23315,0,0,0,0,0,0,0,-1,1840,1394,16.7764,-7.23313
623,-370,17.6625,8.94263,0,0,0,0,0,0,0,-1,1847,1394,17.6624,-8.94258
630,-370,18.7219,10.2739,0,0,0,0,0,0,0,-1,1854,1394,18.7219,-10.2739
637,-370,18.9838,9.79211,0.00431227,0.00191572,-0.00551761,0.00876023,-0.00253223,-0.678473,0.00684224,0.0417666,1861,1394,18.9838,-9.79211
644,-370,19.1865,9.37207,0.00180059,0.000332091,-0.00257143,0.00374055,-0.00160787,-0.646328,0.00316868,0.0114125,1868,1394,19.1866,-9.37206
651,-370,19.2013,9.05518,0.000805367,-8.22004e-05,-0.000972221,0.0014303,-0.000707134,-0.57129,0.00125737,0.011696,1875,1394,19.2013,-9.05517
658,-370,19.1965,8.76587,0.000951337,-0.000178102,-0.00042552,0.00109371,-0.000320471,-0.322871,0.000856192,0.0119558,1882,1394,19.1966,-8.76589
665,-370,19.1738,8.4563,0.00102806,-0.00019967,-0.000218834,0.0010659,-0.000237509,-0.17122,0.000801587,0.0127064,1889,1394,19.1738,-8.45635
672,-370,19.1584,8.13599,0.000996773,-0.000130057,9.08267e-06,0.000996846,-0.00013013,0.00805968,0.000711916,0.0139772,1896,1394,19.1584,-8.13601
679,-370,19.163,7.83484,0.000977997,-0.000109888,0.000248833,0.00103221,-0.000164102,0.214521,0.000748859,0.0140862,1903,1394,19.163,-7.8349
686,-370,19.1681,7.54236,0.000901619,-8.92991e-05,0.000492689,0.00110489,-0.000292569,0.391298,0.000851047,0.0145356,1910,1394,19.1681,-7.5424
693,-370,19.1611,7.19971,0.000804929,-1.417e-05,0.000688513,0.00119649,-0.000405733,0.517093,0.000961866,0.0128356,1917,1394,19.1612,-7.19974
700,-370,19.2721,6.85059,0.000592212,0.000207035,0.000886089,0.0013064,-0.000507153,0.678389,0.00108042,0.0249667,1924,1394,19.2721,-6.85054
707,-370,19.4976,6.45605,0,0,0,0,0,0,0,-1,1931,1394,19.4975,-6.45606
714,-370,16.9116,5.93018,0,0,0,0,0,0,0,-1,1938,1394,16.9116,-5.93014
721,-370,17.2007,4.69153,0,0,0,0,0,0,0,-1,1945,1394,17.2007,-4.69158
728,-370,20.5315,-0.313354,0,0,0,0,0,0,0,-1,1952,1394,20.5315,0.313332
735,-370,22.3652,0.233398,0,0,0,0,0,0,0,-1,1959,1394,22.3652,-0.233355
742,-370,24.1989,0.780029,0,0,0,0,0,0,0,-1,1966,1394,24.1989,-0.780041
749,-370,0,0,0,0,0,0,0,0,0,-1,1973,1394,0,0
756,-370,0,0,0,0,0,0,0,0,0,-1,1980,1394,0,0
763,-370,0,0,0,0,0,0,0,0,0,-1,1987,1394,0,0
770,-370,0,0,0,0,0,0,0,0,0,-1,1994,1394,0,0
777,-370,0,0,0,0,0,0,0,0,0,-1,2001,1394,0,0
784,-370,0,0,0,0,0,0,0,0,0,-1,2008,1394,0,0
791,-370,0,0,0,0,0,0,0,0,0,-1,2015,1394,0,0
798,-370,0,0,0,0,0,0,0,0,0,-1,2022,1394,0,0
805,-370,0,0,0,0,0,0,0,0,0,-1,2029,1394,0,0
812,-370,0,0,0,0,0,0,0,0,0,-1,2036,1394,0,0
-700,-377,0,0,0,0,0,0,0,0,0,-1,524,1401,0,0
-693,-377,0,0,0,0,0,0,0,0,0,-1,531,1401,0,0
-686,-377,0,0,0,0,0,0,0,0,0,-1,538,1401,0,0
-679,-377,0,0,0,0,0,0,0,0,0,-1,545,1401,0,0
-672,-377,0,0,0,0,0,0,0,0,0,-1,552,1401,0,0
-665,-377,0,0,0,0,0,0,0,0,0,-1,559,1401,0,0
-658,-377,0,0,0,0,0,0,0,0,0,-1,566,1401,0,0
-651,-377,0,0,0,0,0,0,0,0,0,-1,573,1401,0,0
-644,-377,0,0,0,0,0,0,0,0,0,-1,580,1401,0,0
-637,-377,0,0,0,0,0,0,0,0,0,-1,587,1401,0,0
-630,-377,0,0,0,0,0,0,0,0,0,-1,594,1401,0,0
-623,-377,0,0,0,0,0,0,0,0,0,-1,601,1401,0,0
-616,-377,-9.43915,-2.4906,0,0,0,0,0,0,0,-1,608,1401,-9.43915,2.49062
-609,-377,-7.2821,-1.35278,0,0,0,0,0,0,0,-1,615,1401,-7.28208,1.35279
-602,-377,-14.9736,3.98279,0,0,0,0,0,0,0,-1,622,1401,-14.9737,-3.98276
-595,-377,-6.9082,1.18201,0,0,0,0,0,0,0,-1,629,1401,-6.90822,-1.18204
-588,-377,-7.26331,3.08801,0,0,0,0,0,0,0,-1,636,1401,-7.26329,-3.08807
-581,-377,-8.01886,4.18201,0,0,0,0,0,0,0,-1,643,1401,-8.01885,-4.18202
-574,-377,-8.02533,4.61426,-0.00968781,-0.00555614,-0.00566076,-0.00159605,-0.0136479,-0.960359,0.00861601,0.0499742,650,1401,-8.02536,-4.6143
-567,-377,-7.9715,4.95251,-0.00784161,-0.00469058,-0.00501045,-0.00101377,-0.0115184,-0.937726,0.00736432,0.035257,657,1401,-7.97147,-4.95257
-560,-377,-8.23053,5.16162,-0.00619022,-0.00388365,-0.00428413,-0.000600291,-0.00947358,-0.916881,0.00612543,0.0291703,664,1401,-8.23055,-5.16166
-553,-377,-8.1673,5.45825,-0.00450116,-0.003049,-0.00342832,-0.000270711,-0.00727944,-0.889751,0.00476529,0.0137968,671,1401,-8.1673,-5.45824
-546,-377,-8.17859,5.88184,-0.00275913,-0.00224617,-0.00245928,-3.00272e-05,-0.00497527,-0.837356,0.00330688,0.0176497,678,1401,-8.17859,-5.88187
-539,-377,-8.1322,6.20007,-0.000945141,-0.00148839,-0.00140793,0.000217129,-0.00265066,-0.690107,0.00184375,0.0218642,685,1401,-8.13221,-6.20005
-532,-377,-8.18036,6.52393,0.00097193,-0.000778702,-0.000276042,0.00101443,-0.000821197,-0.152745,0.00106175,0.0194653,692,1401,-8.18033,-6.52391
-525,-377,-8.13745,6.86646,0.00287717,-0.000227427,0.000834218,0.00308713,-0.000437386,0.246562,0.0022183,0.0183123,699,1401,-8.13746,-6.86641
-518,-377,-8.16357,7.20837,0.00440027,0.000142291,0.00175216,0.00502857,-0.000486014,0.344305,0.00352557,0.0120327,706,1401,-8.16359,-7.20834
-511,-377,-8.17383,7.5647,0.00507121,-5.52377e-05,0.00192099,0.00571116,-0.00069519,0.321573,0.00405906,0.0122169,713,1401,-8.17384,-7.5647
-504,-377,-8.18384,7.91821,0.00534365,-0.000746199,0.00163039,0.00575267,-0.00115522,0.2458,0.00427257,0.0141345,720,1401,-8.18382,-7.91824
-497,-377,-7.85779,8.3053,0.00453234,-0.00208016,0.000512504,0.00457182,-0.00211965,0.0768935,0.00394884,0.0383152,727,1401,-7.85776,-8.30525
-490,-377,-7.39679,8.83069,0,0,0,0,0,0,0,-1,734,1401,-7.39678,-8.83075
-483,-377,-5.6524,5.07324,0,0,0,0,0,0,0,-1,741,1401,-5.6524,-5.07325
-476,-377,-6.11682,5.10535,0,0,0,0,0,0,0,-1,748,1401,-6.11681,-5.10537
-469,-377,-10.3211,1.9281,0,0,0,0,0,0,0,-1,755,1401,-10.3211,-1.92808
-462,-377,-9.2204,1.0022,0,0,0,0,0,0,0,-1,762,1401,-9.22039,-1.00218
-455,-377,-8.11969,0.0762939,0,0,0,0,0,0,0,-1,769,1401,-8.11968,-0.0762759
-448,-377,-9.05334,0.877319,0,0,0,0,0,0,0,-1,776,1401,-9.05332,-0.877324
-441,-377,-11.212,0.763428,0,0,0,0,0,0,0,-1,783,1401,-11.212,-0.763415
-434,-377,-11.0984,0.996216,0,0,0,0,0,0,0,-1,790,1401,-11.0984,-0.996265
-427,-377,-11.1733,1.25732,0,0,0,0,0,0,0,-1,797,1401,-11.1733,-1.25732
-420,-377,0,0,0,0,0,0,0,0,0,-1,804,1401,0,0
-413,-377,0,0,0,0,0,0,0,0,0,-1,811,1401,0,0
-406,-377,0,0,0,0,0,0,0,0,0,-1,818,1401,0,0
-399,-377,0,0,0,0,0,0,0,0,0,-1,825,1401,0,0
-392,-377,0,0,0,0,0,0,0,0,0,-1,832,1401,0,0
-385,-377,0,0,0,0,0,0,0,0,0,-1,839,1401,0,0
-378,-377,0,0,0,0,0,0,0,0,0,-1,846,1401,0,0
-371,-377,0,0,0,0,0,0,0,0,0,-1,853,1401,0,0
-364,-377,0,0,0,0,0,0,0,0,0,-1,860,1401,0,0
-357,-377,0,0,0,0,0,0,0,0,0,-1,867,1401,0,0
-350,-377,0,0,0,0,0,0,0,0,0,-1,874,1401,0,0
-343,-377,0,0,0,0,0,0,0,0,0,-1,881,1401,0,0
-336,-377,0,0,0,0,0,0,0,0,0,-1,888,1401,0,0
-329,-377,0,0,0,0,0,0,0,0,0,-1,895,1401,0,0
-322,-377,0,0,0,0,0,0,0,0,0,-1,902,1401,0,0
-315,-377,0,0,0,0,0,0,0,0,0,-1,909,1401,0,0
-308,-377,0,0,0,0,0,0,0,0,0,-1,916,1401,0,0
-301,-377,0,0,0,0,0,0,0,0,0,-1,923,1401,0,0
-294,-377,0,0,0,0,0,0,0,0,0,-1,930,1401,0,0
-287,-377,0,0,0,0,0,0,0,0,0,-1,937,1401,0,0
-280,-377,0,0,0,0,0,0,0,0,0,-1,944,1401,0,0
-273,-377,0,0,0,0,0,0,0,0,0,-1,951,1401,0,0
-266,-377,0,0,0,0,0,0,0,0,0,-1,958,1401,0,0
-259,-377,0,0,0,0,0,0,0,0,0,-1,965,1401,0,0
-252,-377,0,0,0,0,0,0,0,0,0,-1,972,1401,0,0
-245,-377,0,0,0,0,0,0,0,0,0,-1,979,1401,0,0
-238,-377,0,0,0,0,0,0,0,0,0,-1,986,1401,0,0
-231,-377,0,0,0,0,0,0,0,0,0,-1,993,1401,0,0
-224,-377,0,0,0,0,0,0,0,0,0,-1,1000,1401,0,0
-217,-377,0,0,0,0,0,0,0,0,0,-1,1007,1401,0,0
-210,-377,0,0,0,0,0,0,0,0,0,-1,1014,1401,0,0
-203,-377,0,0,0,0,0,0,0,0,0,-1,1021,1401,0,0
-196,-377,0,0,0,0,0,0,0,0,0,-1,1028,1401,0,0
-189,-377,0,0,0,0,0,0,0,0,0,-1,1035,1401,0,0
-182,-377,0,0,0,0,0,0,0,0,0,-1,1042,1401,0,0
-175,-377,0,0,0,0,0,0,0,0,0,-1,1049,1401,0,0
-168,-377,0,0,0,0,0,0,0,0,0,-1,1056,1401,0,0
-161,-377,0,0,0,0,0,0,0,0,0,-1,1063,1401,0,0
-154,-377,0,0,0,0,0,0,0,0,0,-1,1070,1401,0,0
-147,-377,0,0,0,0,0,0,0,0,0,-1,1077,1401,0,0
-140,-377,0,0,0,0,0,0,0,0,0,-1,1084,1401,0,0
-133,-377,0,0,0,0,0,0,0,0,0,-1,1091,1401,0,0
-126,-377,0,0,0,0,0,0,0,0,0,-1,1098,1401,0,0
-119,-377,0,0,0,0,0,0,0,0,0,-1,1105,1401,0,0
-112,-377,0,0,0,0,0,0,0,0,0,-1,1112,1401,0,0
-105,-377,0,0,0,0,0,0,0,0,0,-1,1119,1401,0,0
-98,-377,0,0,0,0,0,0,0,0,0,-1,1126,1401,0,0
-91,-377,0,0,0,0,0,0,0,0,0,-1,1133,1401,0,0
-84,-377,0,0,0,0,0,0,0,0,0,-1,1140,1401,0,0
-77,-377,0,0,0,0,0,0,0,0,0,-1,1147,1401,0,0
-70,-377,0,0,0,0,0,0,0,0,0,-1,1154,1401,0,0
-63,-377,0,0,0,0,0,0,0,0,0,-1,1161,1401,0,0
-56,-377,0,0,0,0,0,0,0,0,0,-1,1168,1401,0,0
-49,-377,0,0,0,0,0,0,0,0,0,-1,1175,1401,0,0
-42,-377,0,0,0,0,0,0,0,0,0,-1,1182,1401,0,0
-35,-377,0,0,0,0,0,0,0,0,0,-1,1189,1401,0,0
-28,-377,0,0,0,0,0,0,0,0,0,-1,1196,1401,0,0
-21,-377,0,0,0,0,0,0,0,0,0,-1,1203,1401,0,0
-14,-377,0,0,0,0,0,0,0,0,0,-1,1210,1401,0,0
-7,-377,0,0,0,0,0,0,0,0,0,-1,1217,1401,0,0
0,-377,0,0,0,0,0,0,0,0,0,-1,1224,1401,0,0
7,-377,0,0,0,0,0,0,0,0,0,-1,1231,1401,0,0
14,-377,0,0,0,0,0,0,0,0,0,-1,1238,1401,0,0
21,-377,0,0,0,0,0,0,0,0,0,-1,1245,1401,0,0
28,-377,0,0,0,0,0,0,0,0,0,-1,1252,1401,0,0
35,-377,0,0,0,0,0,0,0,0,0,-1,1259,1401,0,0
42,-377,0,0,0,0,0,0,0,0,0,-1,1266,1401,0,0
49,-377,0,0,0,0,0,0,0,0,0,-1,1273,1401,0,0
56,-377,0,0,0,0,0,0,0,0,0,-1,1280,1401,0,0
63,-377,0,0,0,0,0,0,0,0,0,-1,1287,1401,0,0
70,-377,0,0,0,0,0,0,0,0,0,-1,1294,1401,0,0
77,-377,0,0,0,0,0,0,0,0,0,-1,1301,1401,0,0
84,-377,0,0,0,0,0,0,0,0,0,-1,1308,1401,0,0
91,-377,0,0,0,0,0,0,0,0,0,-1,1315,1401,0,0
98,-377,0,0,0,0,0,0,0,0,0,-1,1322,1401,0,0
105,-377,0,0,0,0,0,0,0,0,0,-1,1329,1401,0,0
112,-377,0,0,0,0,0,0,0,0,0,-1,1336,1401,0,0
119,-377,0,0,0,0,0,0,0,0,0,-1,1343,1401,0,0
126,-377,0,0,0,0,0,0,0,0,0,-1,1350,1401,0,0
133,-377,0,0,0,0,0,0,0,0,0,-1,1357,1401,0,0
140,-377,0,0,0,0,0,0,0,0,0,-1,1364,1401,0,0
147,-377,0,0,0,0,0,0,0,0,0,-1,1371,1401,0,0
154,-377,0,0,0,0,0,0,0,0,0,-1,1378,1401,0,0
161,-377,0,0,0,0,0,0,0,0,0,-1,1385,1401,0,0
168,-377,0,0,0,0,0,0,0,0,0,-1,1392,1401,0,0
175,-377,0,0,0,0,0,0,0,0,0,-1,1399,1401,0,0
182,-377,0,0,0,0,0,0,0,0,0,-1,1406,1401,0,0
189,-377,0,0,0,0,0,0,0,0,0,-1,1413,1401,0,0
196,-377,0,0,0,0,0,0,0,0,0,-1,1420,1401,0,0
203,-377,0,0,0,0,0,0,0,0,0,-1,1427,1401,0,0
210,-377,0,0,0,0,0,0,0,0,0,-1,1434,1401,0,0
217,-377,0,0,0,0,0,0,0,0,0,-1,1441,1401,0,0
224,-377,0,0,0,0,0,0,0,0,0,-1,1448,1401,0,0
231,-377,0,0,0,0,0,0,0,0,0,-1,1455,1401,0,0
238,-377,0,0,0,0,0,0,0,0,0,-1,1462,1401,0,0
245,-377,0,0,0,0,0,0,0,0,0,-1,1469,1401,0,0
252,-377,0,0,0,0,0,0,0,0,0,-1,1476,1401,0,0
259,-377,0,0,0,0,0,0,0,0,0,-1,1483,1401,0,0
266,-377,0,0,0,0,0,0,0,0,0,-1,1490,1401,0,0
273,-377,0,0,0,0,0,0,0,0,0,-1,1497,1401,0,0
280,-377,0,0,0,0,0,0,0,0,0,-1,1504,1401,0,0
287,-377,0,0,0,0,0,0,0,0,0,-1,1511,1401,0,0
294,-377,0,0,0,0,0,0,0,0,0,-1,1518,1401,0,0
301,-377,0,0,0,0,0,0,0,0,0,-1,1525,1401,0,0
308,-377,0,0,0,0,0,0,0,0,0,-1,1532,1401,0,0
315,-377,0,0,0,0,0,0,0,0,0,-1,1539,1401,0,0
322,-377,0,0,0,0,0,0,0,0,0,-1,1546,1401,0,0
329,-377,0,0,0,0,0,0,0,0,0,-1,1553,1401,0,0
336,-377,0,0,0,0,0,0,0,0,0,-1,1560,1401,0,0
343,-377,0,0,0,0,0,0,0,0,0,-1,1567,1401,0,0
350,-377,0,0,0,0,0,0,0,0,0,-1,1574,1401,0,0
357,-377,0,0,0,0,0,0,0,0,0,-1,1581,1401,0,0
364,-377,0,0,0,0,0,0,0,0,0,-1,1588,1401,0,0
371,-377,0,0,0,0,0,0,0,0,0,-1,1595,1401,0,0
378,-377,0,0,0,0,0,0,0,0,0,-1,1602,1401,0,0
385,-377,0,0,0,0,0,0,0,0,0,-1,1609,1401,0,0
392,-377,0,0,0,0,0,0,0,0,0,-1,1616,1401,0,0
399,-377,0,0,0,0,0,0,0,0,0,-1,1623,1401,0,0
406,-377,0,0,0,0,0,0,0,0,0,-1,1630,1401,0,0
413,-377,0,0,0,0,0,0,0,0,0,-1,1637,1401,0,0
420,-377,0,0,0,0,0,0,0,0,0,-1,1644,1401,0,0
427,-377,0,0,0,0,0,0,0,0,0,-1,1651,1401,0,0
434,-377,0,0,0,0,0,0,0,0,0,-1,1658,1401,0,0
441,-377,0,0,0,0,0,0,0,0,0,-1,1665,1401,0,0
448,-377,0,0,0,0,0,0,0,0,0,-1,1672,1401,0,0
455,-377,0,0,0,0,0,0,0,0,0,-1,1679,1401,0,0
462,-377,0,0,0,0,0,0,0,0,0,-1,1686,1401,0,0
469,-377,0,0,0,0,0,0,0,0,0,-1,1693,1401,0,0
476,-377,0,0,0,0,0,0,0,0,0,-1,1700,1401,0,0
483,-377,0,0,0,0,0,0,0,0,0,-1,1707,1401,0,0
490,-377,0,0,0,0,0,0,0,0,0,-1,1714,1401,0,0
497,-377,0,0,0,0,0,0,0,0,0,-1,1721,1401,0,0
504,-377,0,0,0,0,0,0,0,0,0,-1,1728,1401,0,0
511,-377,0,0,0,0,0,0,0,0,0,-1,1735,1401,0,0
518,-377,0,0,0,0,0,0,0,0,0,-1,1742,1401,0,0
525,-377,0,0,0,0,0,0,0,0,0,-1,1749,1401,0,0
532,-377,0,0,0,0,0,0,0,0,0,-1,1756,1401,0,0
539,-377,0,0,0,0,0,0,0,0,0,-1,1763,1401,0,0
546,-377,27.8485,2.34094,0,0,0,0,0,0,0,-1,1770,1401,27.8486,-2.34091
553,-377,27.2189,2.42493,0,0,0,0,0,0,0,-1,1777,1401,27.2188,-2.42498
560,-377,26.9808,1.78674,0,0,0,0,0,0,0,-1,1784,1401,26.9808,-1.78676
567,-377,27.4503,2.03894,0,0,0,0,0,0,0,-1,1791,1401,27.4503,-2.03893
574,-377,27.812,2.3855,0,0,0,0,0,0,0,-1,1798,1401,27.812,-2.38552
581,-377,26.3328,2.77588,0,0,0,0,0,0,0,-1,1805,1401,26.3328,-2.77582
588,-377,25.882,4.35217,0,0,0,0,0,0,0,-1,1812,1401,25.8819,-4.3522
595,-377,25.5392,5.11804,0,0,0,0,0,0,0,-1,1819,1401,25.5392,-5.11808
602,-377,24.816,5.79126,0,0,0,0,0,0,0,-1,1826,1401,24.816,-5.79124
609,-377,15.0223,4.76135,0,0,0,0,0,0,0,-1,1833,1401,15.0224,-4.76129
616,-377,14.1842,5.78992,0,0,0,0,0,0,0,-1,1840,1401,14.1842,-5.78987
623,-377,15.8248,8.76721,0,0,0,0,0,0,0,-1,1847,1401,15.8248,-8.76725
630,-377,18.6271,10.194,0,0,0,0,0,0,0,-1,1854,1401,18.6271,-10.194
637,-377,18.7964,9.74231,0.00133221,0.000503329,-0.00151008,0.00248368,-0.000648147,-0.651471,0.00190887,0.0199479,1861,1401,18.7964,-9.7423
644,-377,18.866,9.39563,0.000786756,2.15758e-05,-0.000800594,0.00129148,-0.000483148,-0.562499,0.00105942,0.0107182,1868,1401,18.8659,-9.39569
651,-377,18.8783,9.06921,0.000883128,-8.41123e-05,-0.000515603,0.00110643,-0.000307412,-0.408698,0.000858632,0.0127333,1875,1401,18.8783,-9.06925
658,-377,18.875,8.77258,0.00122832,-3.2455e-05,-0.000406106,0.00134781,-0.000151941,-0.286149,0.000953229,0.0142888,1882,1401,18.875,-8.77261
665,-377,18.877,8.43835,0.00128829,-5.75978e-05,-0.000202776,0.00131818,-8.7485e-05,-0.146337,0.00090935,0.0159206,1889,1401,18.8769,-8.43832
672,-377,18.8757,8.10974,0.00124408,-1.88341e-05,4.5077e-05,0.00124568,-2.0441e-05,0.0356324,0.000837353,0.0165273,1896,1401,18.8757,-8.1097
679,-377,18.8351,7.82764,0.00120847,-5.40088e-05,0.000333052,0.00129094,-0.000136483,0.242748,0.000909543,0.0173753,1903,1401,18.835,-7.8276
686,-377,18.8381,7.54175,0.00112109,-0.000126901,0.000655484,0.0014021,-0.000407908,0.405002,0.0010963,0.01563,1910,1401,18.8382,-7.54178
693,-377,18.871,7.2113,0.00108179,-0.000159941,0.000923407,0.00157364,-0.0006518,0.489431,0.00132109,0.0132349,1917,1401,18.871,-7.2113
700,-377,18.8376,6.93066,0.000970821,-0.000102666,0.00125081,0.00179518,-0.000927028,0.582721,0.00159809,0.0325723,1924,1401,18.8376,-6.93064
707,-377,18.9279,6.56165,0,0,0,0,0,0,0,-1,1931,1401,18.9279,-6.56169
714,-377,16.5369,5.45959,0,0,0,0,0,0,0,-1,1938,1401,16.5369,-5.4596
721,-377,17.0913,5.42529,0,0,0,0,0,0,0,-1,1945,1401,17.0914,-5.42529
728,-377,14.5396,2.79724,0,0,0,0,0,0,0,-1,1952,1401,14.5396,-2.7972
735,-377,23.2977,-0.991089,0,0,0,0,0,0,0,-1,1959,1401,23.2978,0.991076
742,-377,0,0,0,0,0,0,0,0,0,-1,1966,1401,0,0
749,-377,0,0,0,0,0,0,0,0,0,-1,1973,1401,0,0
756,-377,0,0,0,0,0,0,0,0,0,-1,1980,1401,0,0
763,-377,0,0,0,0,0,0,0,0,0,-1,1987,1401,0,0
770,-377,0,0,0,0,0,0,0,0,0,-1,1994,1401,0,0
777,-377,0,0,0,0,0,0,0,0,0,-1,2001,1401,0,0
784,-377,0,0,0,0,0,0,0,0,0,-1,2008,1401,0,0
791,-377,0,0,0,0,0,0,0,0,0,-1,2015,1401,0,0
798,-377,0,0,0,0,0,0,0,0,0,-1,2022,1401,0,0
805,-377,0,0,0,0,0,0,0,0,0,-1,2029,1401,0,0
812,-377,0,0,0,0,0,0,0,0,0,-1,2036,1401,0,0
-700,-384,0,0,0,0,0,0,0,0,0,-1,524,1408,0,0
-693,-384,0,0,0,0,0,0,0,0,0,-1,531,1408,0,0
-686,-384,0,0,0,0,0,0,0,0,0,-1,538,1408,0,0
-679,-384,0,0,0,0,0,0,0,0,0,-1,545,1408,0,0
-672,-384,0,0,0,0,0,0,0,0,0,-1,552,1408,0,0
-665,-384,0,0,0,0,0,0,0,0,0,-1,559,1408,0,0
-658,-384,0,0,0,0,0,0,0,0,0,-1,566,1408,0,0
-651,-384,0,0,0,0,0,0,0,0,0,-1,573,1408,0,0
-644,-384,0,0,0,0,0,0,0,0,0,-1,580,1408,0,0
-637,-384,0,0,0,0,0,0,0,0,0,-1,587,1408,0,0
-630,-384,0,0,0,0,0,0,0,0,0,-1,594,1408,0,0
-623,-384,0,0,0,0,0,0,0,0,0,-1,601,1408,0,0
-616,-384,-10.019,-3.36646,0,0,0,0,0,0,0,-1,608,1408,-10.019,3.36648
-609,-384,-7.72357,-2.3418,0,0,0,0,0,0,0,-1,615,1408,-7.72358,2.34182
-602,-384,-11.7632,-2.85156,0,0,0,0,0,0,0,-1,622,1408,-11.7632,2.85157
-595,-384,-8.71198,0.210815,0,0,0,0,0,0,0,-1,629,1408,-8.71196,-0.210818
-588,-384,-5.66071,3.27319,0,0,0,0,0,0,0,-1,636,1408,-5.6607,-3.27321
-581,-384,-6.53815,3.24292,0,0,0,0,0,0,0,-1,643,1408,-6.53814,-3.24289
-574,-384,-7.73431,4.59338,0,0,0,0,0,0,0,-1,650,1408,-7.7343,-4.59339
-567,-384,-7.60596,4.89771,-0.00854251,-0.00576968,-0.0055663,-0.00141973,-0.0128925,-0.907451,0.00816299,0.0433132,657,1408,-7.60594,-4.8977
-560,-384,-7.71027,5.15833,-0.00700633,-0.0046265,-0.00475911,-0.000910809,-0.010722,-0.907901,0.00686459,0.0377094,664,1408,-7.71029,-5.15828
-553,-384,-7.83521,5.48035,-0.00540655,-0.0035501,-0.00384473,-0.000523129,-0.00843352,-0.903846,0.00545634,0.0241946,671,1408,-7.83522,-5.48033
-546,-384,-7.83771,5.86731,-0.00375047,-0.00257602,-0.00286029,-0.00024329,-0.00608319,-0.886642,0.00397685,0.0156937,678,1408,-7.83771,-5.86731
-539,-384,-7.86163,6.17737,-0.00199194,-0.00171591,-0.00180456,-4.40953e-05,-0.00366376,-0.823564,0.00242794,0.0162424,685,1408,-7.86164,-6.17736
-532,-384,-7.85907,6.46765,-0.00013877,-0.0009516,-0.00070137,0.000265428,-0.0013558,-0.522809,0.0010041,0.0221766,692,1408,-7.85906,-6.46767
-525,-384,-7.85626,6.82617,0.0016894,-0.000384371,0.000344985,0.00174528,-0.000440256,0.160596,0.0013347,0.0208235,699,1408,-7.85627,-6.82612
-518,-384,-7.82001,7.22937,0.00307855,-4.25844e-05,0.00114017,0.00345069,-0.000414723,0.315488,0.00245042,0.0120063,706,1408,-7.81999,-7.22933
-511,-384,-7.8476,7.60205,0.00356188,-0.000234544,0.00114572,0.00388085,-0.00055351,0.271523,0.0027901,0.01035,713,1408,-7.84762,-7.60206
-504,-384,-7.85315,7.96411,0.00362911,-0.000964152,0.000666197,0.00372378,-0.00105882,0.141164,0.00290061,0.0122234,720,1408,-7.85318,-7.96414
-497,-384,-7.80231,8.34778,0.00272767,-0.00223047,-0.000522127,0.00278206,-0.00228485,-0.10379,0.00293007,0.0224576,727,1408,-7.80232,-8.34778
-490,-384,-7.5061,8.85352,0,0,0,0,0,0,0,-1,734,1408,-7.50613,-8.85352
-483,-384,-6.26471,7.61194,0,0,0,0,0,0,0,-1,741,1408,-6.26469,-7.61191
-476,-384,-6.02734,5.67761,0,0,0,0,0,0,0,-1,748,1408,-6.02736,-5.6776
-469,-384,-10.206,2.63721,0,0,0,0,0,0,0,-1,755,1408,-10.206,-2.6372
-462,-384,-9.04291,1.43542,0,0,0,0,0,0,0,-1,762,1408,-9.04293,-1.43545
-455,-384,-7.87988,0.233765,0,0,0,0,0,0,0,-1,769,1408,-7.87986,-0.233709
-448,-384,-9.35529,7.19226,0,0,0,0,0,0,0,-1,776,1408,-9.35531,-7.19226
-441,-384,-10.4697,1.79004,0,0,0,0,0,0,0,-1,783,1408,-10.4697,-1.79003
-434,-384,-10.6449,0.552246,0,0,0,0,0,0,0,-1,790,1408,-10.6449,-0.552216
-427,-384,-10.968,1.10583,0,0,0,0,0,0,0,-1,797,1408,-10.968,-1.10588
-420,-384,-12.5607,4.54858,0,0,0,0,0,0,0,-1,804,1408,-12.5607,-4.54859
-413,-384,0,0,0,0,0,0,0,0,0,-1,811,1408,0,0
-406,-384,0,0,0,0,0,0,0,0,0,-1,818,1408,0,0
-399,-384,0,0,0,0,0,0,0,0,0,-1,825,1408,0,0
-392,-384,0,0,0,0,0,0,0,0,0,-1,832,1408,0,0
-385,-384,0,0,0,0,0,0,0,0,0,-1,839,1408,0,0
-378,-384,0,0,0,0,0,0,0,0,0,-1,846,1408,0,0
-371,-384,0,0,0,0,0,0,0,0,0,-1,853,1408,0,0
-364,-384,0,0,0,0,0,0,0,0,0,-1,860,1408,0,0
-357,-384,0,0,0,0,0,0,0,0,0,-1,867,1408,0,0
-350,-384,0,0,0,0,0,0,0,0,0,-1,874,1408,0,0
-343,-384,0,0,0,0,0,0,0,0,0,-1,881,1408,0,0
-336,-384,0,0,0,0,0,0,0,0,0,-1,888,1408,0,0
-329,-384,0,0,0,0,0,0,0,0,0,-1,895,1408,0,0
-322,-384,0,0,0,0,0,0,0,0,0,-1,902,1408,0,0
-315,-384,0,0,0,0,0,0,0,0,0,-1,909,1408,0,0
-308,-384,0,0,0,0,0,0,0,0,0,-1,916,1408,0,0
-301,-384,0,0,0,0,0,0,0,0,0,-1,923,1408,0,0
-294,-384,0,0,0,0,0,0,0,0,0,-1,930,1408,0,0
-287,-384,0,0,0,0,0,0,0,0,0,-1,937,1408,0,0
-280,-384,0,0,0,0,0,0,0,0,0,-1,944,1408,0,0
-273,-384,0,0,0,0,0,0,0,0,0,-1,951,1408,0,0
-266,-384,0,0,0,0,0,0,0,0,0,-1,958,1408,0,0
-259,-384,0,0,0,0,0,0,0,0,0,-1,965,1408,0,0
-252,-384,0,0,0,0,0,0,0,0,0,-1,972,1408,0,0
-245,-384,0,0,0,0,0,0,0,0,0,-1,979,1408,0,0
-238,-384,0,0,0,0,0,0,0,0,0,-1,986,1408,0,0
-231,-384,0,0,0,0,0,0,0,0,0,-1,993,1408,0,0
-224,-384,0,0,0,0,0,0,0,0,0,-1,1000,1408,0,0
-217,-384,0,0,0,0,0,0,0,0,0,-1,1007,1408,0,0
-210,-384,0,0,0,0,0,0,0,0,0,-1,1014,1408,0,0
-203,-384,0,0,0,0,0,0,0,0,0,-1,1021,1408,0,0
-196,-384,0,0,0,0,0,0,0,0,0,-1,1028,1408,0,0
-189,-384,0,0,0,0,0,0,0,0,0,-1,1035,1408,0,0
-182,-384,0,0,0,0,0,0,0,0,0,-1,1042,1408,0,0
-175,-384,0,0,0,0,0,0,0,0,0,-1,1049,1408,0,0
-168,-384,0,0,0,0,0,0,0,0,0,-1,1056,1408,0,0
-161,-384,0,0,0,0,0,0,0,0,0,-1,1063,1408,0,0
-154,-384,0,0,0,0,0,0,0,0,0,-1,1070,1408,0,0
-147,-384,0,0,0,0,0,0,0,0,0,-1,1077,1408,0,0
-140,-384,0,0,0,0,0,0,0,0,0,-1,1084,1408,0,0
-133,-384,0,0,0,0,0,0,0,0,0,-1,1091,1408,0,0
-126,-384,0,0,0,0,0,0,0,0,0,-1,1098,1408,0,0
-119,-384,0,0,0,0,0,0,0,0,0,-1,1105,1408,0,0
-112,-384,0,0,0,0,0,0,0,0,0,-1,1112,1408,0,0
-105,-384,0,0,0,0,0,0,0,0,0,-1,1119,1408,0,0
-98,-384,0,0,0,0,0,0,0,0,0,-1,1126,1408,0,0
-91,-384,0,0,0,0,0,0,0,0,0,-1,1133,1408,0,0
-84,-384,0,0,0,0,0,0,0,0,0,-1,1140,1408,0,0
-77,-384,0,0,0,0,0,0,0,0,0,-1,1147,1408,0,0
-70,-384,0,0,0,0,0,0,0,0,0,-1,1154,1408,0,0
-63,-384,0,0,0,0,0,0,0,0,0,-1,1161,1408,0,0
-56,-384,0,0,0,0,0,0,0,0,0,-1,1168,1408,0,0
-49,-384,0,0,0,0,0,0,0,0,0,-1,1175,1408,0,0
-42,-384,0,0,0,0,0,0,0,0,0,-1,1182,1408,0,0
-35,-384,0,0,0,0,0,0,0,0,0,-1,1189,1408,0,0
-28,-384,0,0,0,0,0,0,0,0,0,-1,1196,1408,0,0
-21,-384,0,0,0,0,0,0,0,0,0,-1,1203,1408,0,0
-14,-384,0,0,0,0,0,0,0,0,0,-1,1210,1408,0,0
-7,-384,0,0,0,0,0,0,0,0,0,-1,1217,1408,0,0
0,-384,0,0,0,0,0,0,0,0,0,-1,1224,1408,0,0
7,-384,0,0,0,0,0,0,0,0,0,-1,1231,1408,0,0
14,-384,0,0,0,0,0,0,0,0,0,-1,1238,1408,0,0
21,-384,0,0,0,0,0,0,0,0,0,-1,1245,1408,0,0
28,-384,0,0,0,0,0,0,0,0,0,-1,1252,1408,0,0
35,-384,0,0,0,0,0,0,0,0,0,-1,1259,1408,0,0
42,-384,0,0,0,0,0,0,0,0,0,-1,1266,1408,0,0
49,-384,0,0,0,0,0,0,0,0,0,-1,1273,1408,0,0
56,-384,0,0,0,0,0,0,0,0,0,-1,1280,1408,0,0
63,-384,0,0,0,0,0,0,0,0,0,-1,1287,1408,0,0
70,-384,0,0,0,0,0,0,0,0,0,-1,1294,1408,0,0
77,-384,0,0,0,0,0,0,0,0,0,-1,1301,1408,0,0
84,-384,0,0,0,0,0,0,0,0,0,-1,1308,1408,0,0
91,-384,0,0,0,0,0,0,0,0,0,-1,1315,1408,0,0
98,-384,0,0,0,0,0,0,0,0,0,-1,1322,1408,0,0
105,-384,0,0,0,0,0,0,0,0,0,-1,1329,1408,0,0
112,-384,0,0,0,0,0,0,0,0,0,-1,1336,1408,0,0
119,-384,0,0,0,0,0,0,0,0,0,-1,1343,1408,0,0
126,-384,0,0,0,0,0,0,0,0,0,-1,1350,1408,0,0
133,-384,0,0,0,0,0,0,0,0,0,-1,1357,1408,0,0
140,-384,0,0,0,0,0,0,0,0,0,-1,1364,1408,0,0
147,-384,0,0,0,0,0,0,0,0,0,-1,1371,1408,0,0
154,-384,0,0,0,0,0,0,0,0,0,-1,1378,1408,0,0
161,-384,0,0,0,0,0,0,0,0,0,-1,1385,1408,0,0
168,-384,0,0,0,0,0,0,0,0,0,-1,1392,1408,0,0
175,-384,0,0,0,0,0,0,0,0,0,-1,1399,1408,0,0
182,-384,0,0,0,0,0,0,0,0,0,-1,1406,1408,0,0
189,-384,0,0,0,0,0,0,0,0,0,-1,1413,1408,0,0
196,-384,0,0,0,0,0,0,0,0,0,-1,1420,1408,0,0
203,-384,0,0,0,0,0,0,0,0,0,-1,1427,1408,0,0
210,-384,0,0,0,0,0,0,0,0,0,-1,1434,1408,0,0
217,-384,0,0,0,0,0,0,0,0,0,-1,1441,1408,0,0
224,-384,0,0,0,0,0,0,0,0,0,-1,1448,1408,0,0
231,-384,0,0,0,0,0,0,0,0,0,-1,1455,1408,0,0
238,-384,0,0,0,0,0,0,0,0,0,-1,1462,1408,0,0
245,-384,0,0,0,0,0,0,0,0,0,-1,1469,1408,0,0
252,-384,0,0,0,0,0,0,0,0,0,-1,1476,1408,0,0
259,-384,0,0,0,0,0,0,0,0,0,-1,1483,1408,0,0
266,-384,0,0,0,0,0,0,0,0,0,-1,1490,1408,0,0
273,-384,0,0,0,0,0,0,0,0,0,-1,1497,1408,0,0
280,-384,0,0,0,0,0,0,0,0,0,-1,1504,1408,0,0
287,-384,0,0,0,0,0,0,0,0,0,-1,1511,1408,0,0
294,-384,0,0,0,0,0,0,0,0,0,-1,1518,1408,0,0
301,-384,0,0,0,0,0,0,0,0,0,-1,1525,1408,0,0
308,-384,0,0,0,0,0,0,0,0,0,-1,1532,1408,0,0
315,-384,0,0,0,0,0,0,0,0,0,-1,1539,1408,0,0
322,-384,0,0,0,0,0,0,0,0,0,-1,1546,1408,0,0
329,-384,0,0,0,0,0,0,0,0,0,-1,1553,1408,0,0
336,-384,0,0,0,0,0,0,0,0,0,-1,1560,1408,0,0
343,-384,0,0,0,0,0,0,0,0,0,-1,1567,1408,0,0
350,-384,0,0,0,0,0,0,0,0,0,-1,1574,1408,0,0
357,-384,0,0,0,0,0,0,0,0,0,-1,1581,1408,0,0
364,-384,0,0,0,0,0,0,0,0,0,-1,1588,1408,0,0
371,-384,0,0,0,0,0,0,0,0,0,-1,1595,1408,0,0
378,-384,0,0,0,0,0,0,0,0,0,-1,1602,1408,0,0
385,-384,0,0,0,0,0,0,0,0,0,-1,1609,1408,0,0
392,-384,0,0,0,0,0,0,0,0,0,-1,1616,1408,0,0
399,-384,0,0,0,0,0,0,0,0,0,-1,1623,1408,0,0
406,-384,0,0,0,0,0,0,0,0,0,-1,1630,1408,0,0
413,-384,0,0,0,0,0,0,0,0,0,-1,1637,1408,0,0
420,-384,0,0,0,0,0,0,0,0,0,-1,1644,1408,0,0
427,-384,0,0,0,0,0,0,0,0,0,-1,1651,1408,0,0
434,-384,0,0,0,0,0,0,0,0,0,-1,1658,1408,0,0
441,-384,0,0,0,0,0,0,0,0,0,-1,1665,1408,0,0
448,-384,0,0,0,0,0,0,0,0,0,-1,1672,1408,0,0
455,-384,0,0,0,0,0,0,0,0,0,-1,1679,1408,0,0
462,-384,0,0,0,0,0,0,0,0,0,-1,1686,1408,0,0
469,-384,0,0,0,0,0,0,0,0,0,-1,1693,1408,0,0
476,-384,0,0,0,0,0,0,0,0,0,-1,1700,1408,0,0
483,-384,0,0,0,0,0,0,0,0,0,-1,1707,1408,0,0
490,-384,0,0,0,0,0,0,0,0,0,-1,1714,1408,0,0
497,-384,0,0,0,0,0,0,0,0,0,-1,1721,1408,0,0
504,-384,0,0,0,0,0,0,0,0,0,-1,1728,1408,0,0
511,-384,0,0,0,0,0,0,0,0,0,-1,1735,1408,0,0
518,-384,0,0,0,0,0,0,0,0,0,-1,1742,1408,0,0
525,-384,0,0,0,0,0,0,0,0,0,-1,1749,1408,0,0
532,-384,0,0,0,0,0,0,0,0,0,-1,1756,1408,0,0
539,-384,27.6886,2.85803,0,0,0,0,0,0,0,-1,1763,1408,27.6886,-2.85807
546,-384,27.5044,2.9425,0,0,0,0,0,0,0,-1,1770,1408,27.5044,-2.94255
553,-384,27.3052,2.78394,0,0,0,0,0,0,0,-1,1777,1408,27.3051,-2.78394
560,-384,26.833,3.19812,0,0,0,0,0,0,0,-1,1784,1408,26.833,-3.19816
567,-384,32.4751,6.03601,0,0,0,0,0,0,0,-1,1791,1408,32.4751,-6.03605
574,-384,25.8635,3.7915,0,0,0,0,0,0,0,-1,1798,1408,25.8636,-3.79148
581,-384,25.819,3.91846,0,0,0,0,0,0,0,-1,1805,1408,25.8189,-3.91848
588,-384,23.3721,4.25439,0,0,0,0,0,0,0,-1,1812,1408,23.3721,-4.25442
595,-384,24.981,5.59595,0,0,0,0,0,0,0,-1,1819,1408,24.981,-5.59598
602,-384,20.6605,4.17261,0,0,0,0,0,0,0,-1,1826,1408,20.6606,-4.17265
609,-384,14.158,5.49475,0,0,0,0,0,0,0,-1,1833,1408,14.158,-5.49474
616,-384,14.7997,7.6908,0,0,0,0,0,0,0,-1,1840,1408,14.7996,-7.69079
623,-384,16.4293,9.58899,0,0,0,0,0,0,0,-1,1847,1408,16.4294,-9.58901
630,-384,18.5128,10.0621,0,0,0,0,0,0,0,-1,1854,1408,18.5128,-10.0621
637,-384,18.5308,9.73474,-0.000935279,-0.000192988,7.02715e-05,-0.000186394,-0.000941873,1.47724,0.000575927,0.0166274,1861,1408,18.5308,-9.73478
644,-384,18.516,9.43542,-3.52248e-06,-8.47124e-05,-0.000191213,0.000151357,-0.000239592,-0.6808,0.000227623,0.0153642,1868,1408,18.516,-9.43537
651,-384,18.532,9.07922,0.000829326,-9.50954e-05,-0.000364134,0.000955531,-0.0002213,-0.333631,0.000722179,0.0161354,1875,1408,18.532,-9.07926
658,-384,18.5466,8.771,0.00123301,-6.54396e-06,-0.000312229,0.00130721,-8.07486e-05,-0.233333,0.000899599,0.0162826,1882,1408,18.5467,-8.77101
665,-384,18.5686,8.47168,0.00132228,-7.01215e-06,-0.000137737,0.0013364,-2.11339e-05,-0.10217,0.000898063,0.0169304,1889,1408,18.5686,-8.47164
672,-384,18.577,8.12646,0.00132882,1.74065e-05,0.000101996,0.00133671,9.52114e-06,0.0771572,0.000887982,0.0149878,1896,1408,18.5771,-8.12645
679,-384,18.5349,7.79626,0.00133551,-4.78308e-05,0.000412189,0.00144902,-0.000161336,0.268711,0.00102404,0.0152572,1903,1408,18.535,-7.79623
686,-384,18.5114,7.5188,0.00129962,-0.000197106,0.000794636,0.00164281,-0.000540299,0.40769,0.0013129,0.0127299,1910,1408,18.5113,-7.5188
693,-384,18.5695,7.22534,0.0013983,-0.000327339,0.00112265,0.00195139,-0.000880432,0.457764,0.00167347,0.0186656,1917,1408,18.5695,-7.22539
700,-384,18.6427,6.94287,0,0,0,0,0,0,0,-1,1924,1408,18.6427,-6.94283
707,-384,17.0566,6.62842,0,0,0,0,0,0,0,-1,1931,1408,17.0567,-6.62848
714,-384,16.038,5.0282,0,0,0,0,0,0,0,-1,1938,1408,16.038,-5.02819
721,-384,13.8843,2.8717,0,0,0,0,0,0,0,-1,1945,1408,13.8843,-2.87171
728,-384,15.4409,6.25745,0,0,0,0,0,0,0,-1,1952,1408,15.4409,-6.2574
735,-384,16.7598,6.71289,0,0,0,0,0,0,0,-1,1959,1408,16.7598,-6.71287
742,-384,0,0,0,0,0,0,0,0,0,-1,1966,1408,0,0
749,-384,0,0,0,0,0,0,0,0,0,-1,1973,1408,0,0
756,-384,0,0,0,0,0,0,0,0,0,-1,1980,1408,0,0
763,-384,0,0,0,0,0,0,0,0,0,-1,1987,1408,0,0
770,-384,0,0,0,0,0,0,0,0,0,-1,1994,1408,0,0
777,-384,0,0,0,0,0,0,0,0,0,-1,2001,1408,0,0
784,-384,0,0,0,0,0,0,0,0,0,-1,2008,1408,0,0
791,-384,0,0,0,0,0,0,0,0,0,-1,2015,1408,0,0
798,-384,0,0,0,0,0,0,0,0,0,-1,2022,1408,0,0
805,-384,0,0,0,0,0,0,0,0,0,-1,2029,1408,0,0
812,-384,0,0,0,0,0,0,0,0,0,-1,2036,1408,0,0
-700,-391,0,0,0,0,0,0,0,0,0,-1,524,1415,0,0
-693,-391,0,0,0,0,0,0,0,0,0,-1,531,1415,0,0
-686,-391,0,0,0,0,0,0,0,0,0,-1,538,1415,0,0
-679,-391,0,0,0,0,0,0,0,0,0,-1,545,1415,0,0
-672,-391,0,0,0,0,0,0,0,0,0,-1,552,1415,0,0
-665,-391,0,0,0,0,0,0,0,0,0,-1,559,1415,0,0
-658,-391,0,0,0,0,0,0,0,0,0,-1,566,1415,0,0
-651,-391,0,0,0,0,0,0,0,0,0,-1,573,1415,0,0
-644,-391,0,0,0,0,0,0,0,0,0,-1,580,1415,0,0
-637,-391,0,0,0,0,0,0,0,0,0,-1,587,1415,0,0
-630,-391,0,0,0,0,0,0,0,0,0,-1,594,1415,0,0
-623,-391,0,0,0,0,0,0,0,0,0,-1,601,1415,0,0
-616,-391,0,0,0,0,0,0,0,0,0,-1,608,1415,0,0
-609,-391,-7.71753,-3.69763,0,0,0,0,0,0,0,-1,615,1415,-7.71751,3.69759
-602,-391,-13.9493,-4.12805,0,0,0,0,0,0,0,-1,622,1415,-13.9493,4.12803
-595,-391,-10.5076,-0.861816,0,0,0,0,0,0,0,-1,629,1415,-10.5076,0.861847
-588,-391,-7.06592,2.4043,0,0,0,0,0,0,0,-1,636,1415,-7.06589,-2.40433
-581,-391,-8.34491,2.92615,0,0,0,0,0,0,0,-1,643,1415,-8.3449,-2.92618
-574,-391,-7.2395,5.1759,0,0,0,0,0,0,0,-1,650,1415,-7.2395,-5.17595
-567,-391,-7.35114,5.38367,-0.00953468,-0.00695641,-0.00618227,-0.0019303,-0.0145608,-0.888186,0.00913202,0.0480151,657,1415,-7.35116,-5.38367
-560,-391,-7.30615,5.56897,-0.0081069,-0.00542844,-0.005269,-0.00133113,-0.0122042,-0.909849,0.00773072,0.0428104,664,1415,-7.30613,-5.56894
-553,-391,-7.43555,5.48901,-0.00656603,-0.00407426,-0.00426936,-0.00087271,-0.00976758,-0.927366,0.00624119,0.0369638,671,1415,-7.43555,-5.48903
-546,-391,-7.48743,5.85291,-0.00494729,-0.00290228,-0.00324873,-0.000518944,-0.00733063,-0.937861,0.00472362,0.0136896,678,1415,-7.48745,-5.85287
-539,-391,-7.46649,6.18274,-0.00318344,-0.00192424,-0.00216539,-0.000298775,-0.0048089,-0.926875,0.00311113,0.0145032,685,1415,-7.46652,-6.1828
-532,-391,-7.48773,6.521,-0.00133566,-0.00109055,-0.00107067,-0.000135444,-0.00229077,-0.842383,0.00148409,0.0258393,692,1415,-7.48774,-6.52094
-525,-391,-7.4787,6.90527,0.000476628,-0.000478373,-6.14757e-05,0.000480569,-0.000482314,-0.0640202,0.000555921,0.0236238,699,1415,-7.4787,-6.90526
-518,-391,-7.48718,7.25659,0.00181666,-0.000134142,0.000660578,0.0020193,-0.000336778,0.297642,0.00147136,0.0137522,706,1415,-7.4872,-7.25655
-511,-391,-7.49512,7.62317,0.00221991,-0.000292077,0.000575149,0.00234534,-0.000417501,0.214712,0.0017197,0.0125449,713,1415,-7.49511,-7.62318
-504,-391,-7.49634,7.98303,0.00219872,-0.000989766,3.25284e-05,0.00219905,-0.000990098,0.0102004,0.00188484,0.0118849,720,1415,-7.49634,-7.98308
-497,-391,-7.49774,8.31421,0.00132072,-0.00212652,-0.0011141,0.00164944,-0.00245523,-0.286911,0.00238501,0.0111537,727,1415,-7.49772,-8.31425
-490,-391,-7.44263,8.71436,-0.00089705,-0.00387215,-0.00329754,0.00123293,-0.00600213,-0.57351,0.00446945,0.0280078,734,1415,-7.44261,-8.71431
-483,-391,-7.31549,9.20984,0,0,0,0,0,0,0,-1,741,1415,-7.31547,-9.20982
-476,-391,-6.05731,6.85303,0,0,0,0,0,0,0,-1,748,1415,-6.05728,-6.85304
-469,-391,-3.88953,5.0979,0,0,0,0,0,0,0,-1,755,1415,-3.88955,-5.09794
-462,-391,-8.67688,2.03125,0,0,0,0,0,0,0,-1,762,1415,-8.67685,-2.03121
-455,-391,-8.65576,6.46997,0,0,0,0,0,0,0,-1,769,1415,-8.65579,-6.46999
-448,-391,-8.39618,4.38403,0,0,0,0,0,0,0,-1,776,1415,-8.39617,-4.38405
-441,-391,-9.77704,2.5946,0,0,0,0,0,0,0,-1,783,1415,-9.77702,-2.5946
-434,-391,-11.5403,2.12878,0,0,0,0,0,0,0,-1,790,1415,-11.5403,-2.12881
-427,-391,-10.5311,2.50403,0,0,0,0,0,0,0,-1,797,1415,-10.5311,-2.504
-420,-391,-14.7087,1.24365,0,0,0,0,0,0,0,-1,804,1415,-14.7088,-1.24365
-413,-391,0,0,0,0,0,0,0,0,0,-1,811,1415,0,0
-406,-391,0,0,0,0,0,0,0,0,0,-1,818,1415,0,0
-399,-391,0,0,0,0,0,0,0,0,0,-1,825,1415,0,0
-392,-391,0,0,0,0,0,0,0,0,0,-1,832,1415,0,0
-385,-391,0,0,0,0,0,0,0,0,0,-1,839,1415,0,0
-378,-391,0,0,0,0,0,0,0,0,0,-1,846,1415,0,0
-371,-391,0,0,0,0,0,0,0,0,0,-1,853,1415,0,0
-364,-391,0,0,0,0,0,0,0,0,0,-1,860,1415,0,0
-357,-391,0,0,0,0,0,0,0,0,0,-1,867,1415,0,0
-350,-391,0,0,0,0,0,0,0,0,0,-1,874,1415,0,0
-343,-391,0,0,0,0,0,0,0,0,0,-1,881,1415,0,0
-336,-391,0,0,0,0,0,0,0,0,0,-1,888,1415,0,0
-329,-391,0,0,0,0,0,0,0,0,0,-1,895,1415,0,0
-322,-391,0,0,0,0,0,0,0,0,0,-1,902,1415,0,0
-315,-391,0,0,0,0,0,0,0,0,0,-1,909,1415,0,0
-308,-391,0,0,0,0,0,0,0,0,0,-1,916,1415,0,0
-301,-391,0,0,0,0,0,0,0,0,0,-1,923,1415,0,0
-294,-391,0,0,0,0,0,0,0,0,0,-1,930,1415,0,0
-287,-391,0,0,0,0,0,0,0,0,0,-1,937,1415,0,0
-280,-391,0,0,0,0,0,0,0,0,0,-1,944,1415,0,0
-273,-391,0,0,0,0,0,0,0,0,0,-1,951,1415,0,0
-266,-391,0,0,0,0,0,0,0,0,0,-1,958,1415,0,0
-259,-391,0,0,0,0,0,0,0,0,0,-1,965,1415,0,0
-252,-391,0,0,0,0,0,0,0,0,0,-1,972,1415,0,0
-245,-391,0,0,0,0,0,0,0,0,0,-1,979,1415,0,0
-238,-391,0,0,0,0,0,0,0,0,0,-1,986,1415,0,0
-231,-391,0,0,0,0,0,0,0,0,0,-1,993,1415,0,0
-224,-391,0,0,0,0,0,0,0,0,0,-1,1000,1415,0,0
-217,-391,0,0,0,0,0,0,0,0,0,-1,1007,1415,0,0
-210,-391,0,0,0,0,0,0,0,0,0,-1,1014,1415,0,0
-203,-391,0,0,0,0,0,0,0,0,0,-1,1021,1415,0,0
-196,-391,0,0,0,0,0,0,0,0,0,-1,1028,1415,0,0
-189,-391,0,0,0,0,0,0,0,0,0,-1,1035,1415,0,0
-182,-391,0,0,0,0,0,0,0,0,0,-1,1042,1415,0,0
-175,-391,0,0,0,0,0,0,0,0,0,-1,1049,1415,0,0
-168,-391,0,0,0,0,0,0,0,0,0,-1,1056,1415,0,0
-161,-391,0,0,0,0,0,0,0,0,0,-1,1063,1415,0,0
-154,-391,0,0,0,0,0,0,0,0,0,-1,1070,1415,0,0
-147,-391,0,0,0,0,0,0,0,0,0,-1,1077,1415,0,0
-140,-391,0,0,0,0,0,0,0,0,0,-1,1084,1415,0,0
-133,-391,0,0,0,0,0,0,0,0,0,-1,1091,1415,0,0
-126,-391,0,0,0,0,0,0,0,0,0,-1,1098,1415,0,0
-119,-391,0,0,0,0,0,0,0,0,0,-1,1105,1415,0,0
-112,-391,0,0,0,0,0,0,0,0,0,-1,1112,1415,0,0
-105,-391,0,0,0,0,0,0,0,0,0,-1,1119,1415,0,0
-98,-391,0,0,0,0,0,0,0,0,0,-1,1126,1415,0,0
-91,-391,0,0,0,0,0,0,0,0,0,-1,1133,1415,0,0
-84,-391,0,0,0,0,0,0,0,0,0,-1,1140,1415,0,0
-77,-391,0,0,0,0,0,0,0,0,0,-1,1147,1415,0,0
-70,-391,0,0,0,0,0,0,0,0,0,-1,1154,1415,0,0
-63,-391,0,0,0,0,0,0,0,0,0,-1,1161,1415,0,0
-56,-391,0,0,0,0,0,0,0,0,0,-1,1168,1415,0,0
-49,-391,0,0,0,0,0,0,0,0,0,-1,1175,1415,0,0
-42,-391,0,0,0,0,0,0,0,0,0,-1,1182,1415,0,0
-35,-391,0,0,0,0,0,0,0,0,0,-1,1189,1415,0,0
-28,-391,0,0,0,0,0,0,0,0,0,-1,1196,1415,0,0
-21,-391,0,0,0,0,0,0,0,0,0,-1,1203,1415,0,0
-14,-391,0,0,0,0,0,0,0,0,0,-1,1210,1415,0,0
-7,-391,0,0,0,0,0,0,0,0,0,-1,1217,1415,0,0
0,-391,0,0,0,0,0,0,0,0,0,-1,1224,1415,0,0
7,-391,0,0,0,0,0,0,0,0,0,-1,1231,1415,0,0
14,-391,0,0,0,0,0,0,0,0,0,-1,1238,1415,0,0
21,-391,0,0,0,0,0,0,0,0,0,-1,1245,1415,0,0
28,-391,0,0,0,0,0,0,0,0,0,-1,1252,1415,0,0
35,-391,0,0,0,0,0,0,0,0,0,-1,1259,1415,0,0
42,-391,0,0,0,0,0,0,0,0,0,-1,1266,1415,0,0
49,-391,0,0,0,0,0,0,0,0,0,-1,1273,1415,0,0
56,-391,0,0,0,0,0,0,0,0,0,-1,1280,1415,0,0
63,-391,0,0,0,0,0,0,0,0,0,-1,1287,1415,0,0
70,-391,0,0,0,0,0,0,0,0,0,-1,1294,1415,0,0
77,-391,0,0,0,0,0,0,0,0,0,-1,1301,1415,0,0
84,-391,0,0,0,0,0,0,0,0,0,-1,1308,1415,0,0
91,-391,0,0,0,0,0,0,0,0,0,-1,1315,1415,0,0
98,-391,0,0,0,0,0,0,0,0,0,-1,1322,1415,0,0
105,-391,0,0,0,0,0,0,0,0,0,-1,1329,1415,0,0
112,-391,0,0,0,0,0,0,0,0,0,-1,1336,1415,0,0
119,-391,0,0,0,0,0,0,0,0,0,-1,1343,1415,0,0
126,-391,0,0,0,0,0,0,0,0,0,-1,1350,1415,0,0
133,-391,0,0,0,0,0,0,0,0,0,-1,1357,1415,0,0
140,-391,0,0,0,0,0,0,0,0,0,-1,1364,1415,0,0
147,-391,0,0,0,0,0,0,0,0,0,-1,1371,1415,0,0
154,-391,0,0,0,0,0,0,0,0,0,-1,1378,1415,0,0
161,-391,0,0,0,0,0,0,0,0,0,-1,1385,1415,0,0
168,-391,0,0,0,0,0,0,0,0,0,-1,1392,1415,0,0
175,-391,0,0,0,0,0,0,0,0,0,-1,1399,1415,0,0
182,-391,0,0,0,0,0,0,0,0,0,-1,1406,1415,0,0
189,-391,0,0,0,0,0,0,0,0,0,-1,1413,1415,0,0
196,-391,0,0,0,0,0,0,0,0,0,-1,1420,1415,0,0
203,-391,0,0,0,0,0,0,0,0,0,-1,1427,1415,0,0
210,-391,0,0,0,0,0,0,0,0,0,-1,1434,1415,0,0
217,-391,0,0,0,0,0,0,0,0,0,-1,1441,1415,0,0
224,-391,0,0,0,0,0,0,0,0,0,-1,1448,1415,0,0
231,-391,0,0,0,0,0,0,0,0,0,-1,1455,1415,0,0
238,-391,0,0,0,0,0,0,0,0,0,-1,1462,1415,0,0
245,-391,0,0,0,0,0,0,0,0,0,-1,1469,1415,0,0
252,-391,0,0,0,0,0,0,0,0,0,-1,1476,1415,0,0
259,-391,0,0,0,0,0,0,0,0,0,-1,1483,1415,0,0
266,-391,0,0,0,0,0,0,0,0,0,-1,1490,1415,0,0
273,-391,0,0,0,0,0,0,0,0,0,-1,1497,1415,0,0
280,-391,0,0,0,0,0,0,0,0,0,-1,1504,1415,0,0
287,-391,0,0,0,0,0,0,0,0,0,-1,1511,1415,0,0
294,-391,0,0,0,0,0,0,0,0,0,-1,1518,1415,0,0
301,-391,0,0,0,0,0,0,0,0,0,-1,1525,1415,0,0
308,-391,0,0,0,0,0,0,0,0,0,-1,1532,1415,0,0
315,-391,0,0,0,0,0,0,0,0,0,-1,1539,1415,0,0
322,-391,0,0,0,0,0,0,0,0,0,-1,1546,1415,0,0
329,-391,0,0,0,0,0,0,0,0,0,-1,1553,1415,0,0
336,-391,0,0,0,0,0,0,0,0,0,-1,1560,1415,0,0
343,-391,0,0,0,0,0,0,0,0,0,-1,1567,1415,0,0
350,-391,0,0,0,0,0,0,0,0,0,-1,1574,1415,0,0
357,-391,0,0,0,0,0,0,0,0,0,-1,1581,1415,0,0
364,-391,0,0,0,0,0,0,0,0,0,-1,1588,1415,0,0
371,-391,0,0,0,0,0,0,0,0,0,-1,1595,1415,0,0
378,-391,0,0,0,0,0,0,0,0,0,-1,1602,1415,0,0
385,-391,0,0,0,0,0,0,0,0,0,-1,1609,1415,0,0
392,-391,0,0,0,0,0,0,0,0,0,-1,1616,1415,0,0
399,-391,0,0,0,0,0,0,0,0,0,-1,1623,1415,0,0
406,-391,0,0,0,0,0,0,0,0,0,-1,1630,1415,0,0
413,-391,0,0,0,0,0,0,0,0,0,-1,1637,1415,0,0
420,-391,0,0,0,0,0,0,0,0,0,-1,1644,1415,0,0
427,-391,0,0,0,0,0,0,0,0,0,-1,1651,1415,0,0
434,-391,0,0,0,0,0,0,0,0,0,-1,1658,1415,0,0
441,-391,0,0,0,0,0,0,0,0,0,-1,1665,1415,0,0
448,-391,0,0,0,0,0,0,0,0,0,-1,1672,1415,0,0
455,-391,0,0,0,0,0,0,0,0,0,-1,1679,1415,0,0
462,-391,0,0,0,0,0,0,0,0,0,-1,1686,1415,0,0
469,-391,0,0,0,0,0,0,0,0,0,-1,1693,1415,0,0
476,-391,0,0,0,0,0,0,0,0,0,-1,1700,1415,0,0
483,-391,0,0,0,0,0,0,0,0,0,-1,1707,1415,0,0
490,-391,0,0,0,0,0,0,0,0,0,-1,1714,1415,0,0
497,-391,0,0,0,0,0,0,0,0,0,-1,1721,1415,0,0
504,-391,0,0,0,0,0,0,0,0,0,-1,1728,1415,0,0
511,-391,0,0,0,0,0,0,0,0,0,-1,1735,1415,0,0
518,-391,0,0,0,0,0,0,0,0,0,-1,1742,1415,0,0
525,-391,0,0,0,0,0,0,0,0,0,-1,1749,1415,0,0
532,-391,28.5959,3.02356,0,0,0,0,0,0,0,-1,1756,1415,28.596,-3.02358
539,-391,27.5881,3.25012,0,0,0,0,0,0,0,-1,1763,1415,27.5882,-3.25016
546,-391,27.2837,3.28064,0,0,0,0,0,0,0,-1,1770,1415,27.2837,-3.28064
553,-391,32.5952,5.04553,0,0,0,0,0,0,0,-1,1777,1415,32.5952,-5.04551
560,-391,31.2947,5.67017,0,0,0,0,0,0,0,-1,1784,1415,31.2947,-5.67011
567,-391,30.1473,6.17603,0,0,0,0,0,0,0,-1,1791,1415,30.1473,-6.17602
574,-391,27.5656,5.6842,0,0,0,0,0,0,0,-1,1798,1415,27.5655,-5.68422
581,-391,25.8883,5.76123,0,0,0,0,0,0,0,-1,1805,1415,25.8883,-5.76124
588,-391,24.2717,5.47986,0,0,0,0,0,0,0,-1,1812,1415,24.2717,-5.47982
595,-391,22.8827,6.1991,0,0,0,0,0,0,0,-1,1819,1415,22.8827,-6.19909
602,-391,15.1635,5.69849,0,0,0,0,0,0,0,-1,1826,1415,15.1635,-5.69847
609,-391,14.8285,7.50476,0,0,0,0,0,0,0,-1,1833,1415,14.8285,-7.50479
616,-391,18.1266,10.5972,0,0,0,0,0,0,0,-1,1840,1415,18.1266,-10.5972
623,-391,18.1973,10.3468,0,0,0,0,0,0,0,-1,1847,1415,18.1972,-10.3468
630,-391,18.2748,9.99158,-0.00268308,-7.80502e-05,0.000871,0.000186339,-0.00294746,1.27609,0.00202994,0.022349,1854,1415,18.2748,-9.99163
637,-391,18.2159,9.72168,-0.00109173,-8.84957e-05,0.000285909,-1.27367e-05,-0.00116749,1.31177,0.000774119,0.0156388,1861,1415,18.2159,-9.72162
644,-391,18.1949,9.43225,-0.000106908,-3.56098e-05,-2.08725e-05,-2.99489e-05,-0.000112569,-1.30595,6.73215e-05,0.0163197,1868,1415,18.195,-9.43221
651,-391,18.2163,9.12842,0.000782641,-5.99998e-05,-0.000255219,0.000853913,-0.000131272,-0.272322,0.0006177,0.0172466,1875,1415,18.2163,-9.12846
658,-391,18.2423,8.80627,0.00119871,3.08839e-05,-0.0002483,0.00124931,-1.97163e-05,-0.201034,0.000839523,0.017387,1882,1415,18.2423,-8.80622
665,-391,18.2542,8.49219,0.00129579,4.23693e-05,-9.69227e-05,0.00130324,3.4919e-05,-0.0767189,0.000857423,0.0142123,1889,1415,18.2542,-8.49224
672,-391,18.2446,8.15088,0.00134837,2.58964e-05,0.000146747,0.00136446,9.80851e-06,0.109194,0.00090639,0.0123744,1896,1415,18.2446,-8.15083
679,-391,18.2264,7.83093,0.00139336,-7.85871e-05,0.000490995,0.00154211,-0.000227335,0.294164,0.00111163,0.0113649,1903,1415,18.2264,-7.83092
686,-391,18.2329,7.54272,0.0014206,-0.000318548,0.000962705,0.00184832,-0.000746264,0.418091,0.00154237,0.0138229,1910,1415,18.2329,-7.54267
693,-391,18.2229,7.37939,0.00169892,-0.000570594,0.00141197,0.0023756,-0.00124728,0.446911,0.00212522,0.0318833,1917,1415,18.2229,-7.37934
700,-391,18.267,7.24011,0,0,0,0,0,0,0,-1,1924,1415,18.2669,-7.24017
707,-391,12.9524,5.96851,0,0,0,0,0,0,0,-1,1931,1415,12.9524,-5.96849
714,-391,15.6875,7.67896,0,0,0,0,0,0,0,-1,1938,1415,15.6875,-7.67893
721,-391,14.1808,8.08435,0,0,0,0,0,0,0,-1,1945,1415,14.1808,-8.08439
728,-391,13.8102,7.28174,0,0,0,0,0,0,0,-1,1952,1415,13.8102,-7.28174
735,-391,0,0,0,0,0,0,0,0,0,-1,1959,1415,0,0
742,-391,0,0,0,0,0,0,0,0,0,-1,1966,1415,0,0
749,-391,0,0,0,0,0,0,0,0,0,-1,1973,1415,0,0
756,-391,0,0,0,0,0,0,0,0,0,-1,1980,1415,0,0
763,-391,0,0,0,0,0,0,0,0,0,-1,1987,1415,0,0
770,-391,0,0,0,0,0,0,0,0,0,-1,1994,1415,0,0
777,-391,0,0,0,0,0,0,0,0,0,-1,2001,1415,0,0
784,-391,0,0,0,0,0,0,0,0,0,-1,2008,1415,0,0
791,-391,0,0,0,0,0,0,0,0,0,-1,2015,1415,0,0
798,-391,0,0,0,0,0,0,0,0,0,-1,2022,1415,0,0
805,-391,0,0,0,0,0,0,0,0,0,-1,2029,1415,0,0
812,-391,0,0,0,0,0,0,0,0,0,-1,2036,1415,0,0
-700,-398,0,0,0,0,0,0,0,0,0,-1,524,1422,0,0
-693,-398,0,0,0,0,0,0,0,0,0,-1,531,1422,0,0
-686,-398,0,0,0,0,0,0,0,0,0,-1,538,1422,0,0
-679,-398,0,0,0,0,0,0,0,0,0,-1,545,1422,0,0
-672,-398,0,0,0,0,0,0,0,0,0,-1,552,1422,0,0
-665,-398,0,0,0,0,0,0,0,0,0,-1,559,1422,0,0
-658,-398,0,0,0,0,0,0,0,0,0,-1,566,1422,0,0
-651,-398,0,0,0,0,0,0,0,0,0,-1,573,1422,0,0
-644,-398,0,0,0,0,0,0,0,0,0,-1,580,1422,0,0
-637,-398,0,0,0,0,0,0,0,0,0,-1,587,1422,0,0
-630,-398,0,0,0,0,0,0,0,0,0,-1,594,1422,0,0
-623,-398,0,0,0,0,0,0,0,0,0,-1,601,1422,0,0
-616,-398,0,0,0,0,0,0,0,0,0,-1,608,1422,0,0
-609,-398,-7.47125,-4.05322,0,0,0,0,0,0,0,-1,615,1422,-7.47128,4.05317
-602,-398,-4.58868,-2.77026,0,0,0,0,0,0,0,-1,622,1422,-4.58869,2.77023
-595,-398,-12.2224,-1.82007,0,0,0,0,0,0,0,-1,629,1422,-12.2224,1.82006
-588,-398,-8.56049,1.85718,0,0,0,0,0,0,0,-1,636,1422,-8.5605,-1.85718
-581,-398,-8.62354,4.84009,0,0,0,0,0,0,0,-1,643,1422,-8.62351,-4.84014
-574,-398,-7.3407,4.8418,0,0,0,0,0,0,0,-1,650,1422,-7.3407,-4.84184
-567,-398,-7.30164,5.30005,-0.0107345,-0.00793518,-0.00675889,-0.00243254,-0.0162371,-0.887496,0.0101119,0.0481258,657,1422,-7.30164,-5.30001
-560,-398,-7.1463,5.48865,-0.00943324,-0.0060045,-0.00577823,-0.00169169,-0.0137461,-0.929609,0.00865543,0.0422711,664,1422,-7.1463,-5.48868
-553,-398,-7.0141,5.63452,-0.0079518,-0.00437299,-0.0047137,-0.00112047,-0.0112043,-0.966805,0.00712548,0.0428509,671,1422,-7.01409,-5.63454
-546,-398,-7.14423,5.86609,-0.00635518,-0.00301908,-0.00367782,-0.000648719,-0.00872553,-0.998297,0.00561329,0.0210605,678,1422,-7.14424,-5.86608
-539,-398,-7.09558,6.2384,-0.00456484,-0.00195763,-0.00257919,-0.000371321,-0.00615114,-1.01939,0.00398276,0.012671,685,1422,-7.09558,-6.23846
-532,-398,-7.11456,6.57361,-0.00270104,-0.00109762,-0.00150392,-0.00019507,-0.0036036,-1.03028,0.00234009,0.0207337,692,1422,-7.11455,-6.57359
-525,-398,-7.10095,6.92603,-0.000872682,-0.00047152,-0.000520663,-0.000114138,-0.00123006,-0.969258,0.000784768,0.0197563,699,1422,-7.10098,-6.92602
-518,-398,-7.13171,7.27686,0.000491644,-0.000150886,0.000162346,0.000530333,-0.000189576,0.233952,0.000430881,0.0168542,706,1422,-7.13172,-7.27689
-511,-398,-7.14166,7.61169,0.000923264,-0.000291185,5.94019e-05,0.000926163,-0.000294083,0.0487575,0.00073534,0.0130479,713,1422,-7.14167,-7.61174
-504,-398,-7.14587,7.97229,0.000910784,-0.000977319,-0.000489744,0.00103026,-0.00109679,-0.239274,0.00122825,0.0134429,720,1422,-7.1459,-7.97223
-497,-398,-7.1521,8.31812,0.000188526,-0.00197278,-0.00151605,0.000969653,-0.00275391,-0.475763,0.00223055,0.00952595,727,1422,-7.15211,-8.31807
-490,-398,-7.14526,8.66736,-0.00171246,-0.00353526,-0.00352982,0.00102172,-0.00626944,-0.659057,0.00455853,0.0122562,734,1422,-7.14526,-8.66733
-483,-398,-6.98602,9.1095,-0.00516682,-0.00584024,-0.00668621,0.00119115,-0.0121982,-0.76024,0.00855688,0.0323349,741,1422,-6.98604,-9.10953
-476,-398,-6.59589,9.51501,0,0,0,0,0,0,0,-1,748,1422,-6.59587,-9.51496
-469,-398,-7.21539,9.30029,0,0,0,0,0,0,0,-1,755,1422,-7.21539,-9.30029
-462,-398,-8.87201,9.23022,0,0,0,0,0,0,0,-1,762,1422,-8.87199,-9.23026
-455,-398,-8.08331,6.75024,0,0,0,0,0,0,0,-1,769,1422,-8.08333,-6.75022
-448,-398,-7.4505,5.25293,0,0,0,0,0,0,0,-1,776,1422,-7.4505,-5.25291
-441,-398,-7.61639,3.32141,0,0,0,0,0,0,0,-1,783,1422,-7.61637,-3.32145
-434,-398,-10.7618,3.297,0,0,0,0,0,0,0,-1,790,1422,-10.7618,-3.29704
-427,-398,-11.9061,2.24939,0,0,0,0,0,0,0,-1,797,1422,-11.9061,-2.24941
-420,-398,-13.467,2.32788,0,0,0,0,0,0,0,-1,804,1422,-13.467,-2.32787
-413,-398,-14.7983,2.15515,0,0,0,0,0,0,0,-1,811,1422,-14.7983,-2.15516
-406,-398,0,0,0,0,0,0,0,0,0,-1,818,1422,0,0
-399,-398,0,0,0,0,0,0,0,0,0,-1,825,1422,0,0
-392,-398,0,0,0,0,0,0,0,0,0,-1,832,1422,0,0
-385,-398,0,0,0,0,0,0,0,0,0,-1,839,1422,0,0
-378,-398,0,0,0,0,0,0,0,0,0,-1,846,1422,0,0
-371,-398,0,0,0,0,0,0,0,0,0,-1,853,1422,0,0
-364,-398,0,0,0,0,0,0,0,0,0,-1,860,1422,0,0
-357,-398,0,0,0,0,0,0,0,0,0,-1,867,1422,0,0
-350,-398,0,0,0,0,0,0,0,0,0,-1,874,1422,0,0
-343,-398,0,0,0,0,0,0,0,0,0,-1,881,1422,0,0
-336,-398,0,0,0,0,0,0,0,0,0,-1,888,1422,0,0
-329,-398,0,0,0,0,0,0,0,0,0,-1,895,1422,0,0
-322,-398,0,0,0,0,0,0,0,0,0,-1,902,1422,0,0
-315,-398,0,0,0,0,0,0,0,0,0,-1,909,1422,0,0
-308,-398,0,0,0,0,0,0,0,0,0,-1,916,1422,0,0
-301,-398,0,0,0,0,0,0,0,0,0,-1,923,1422,0,0
-294,-398,0,0,0,0,0,0,0,0,0,-1,930,1422,0,0
-287,-398,0,0,0,0,0,0,0,0,0,-1,937,1422,0,0
-280,-398,0,0,0,0,0,0,0,0,0,-1,944,1422,0,0
-273,-398,0,0,0,0,0,0,0,0,0,-1,951,1422,0,0
-266,-398,0,0,0,0,0,0,0,0,0,-1,958,1422,0,0
-259,-398,0,0,0,0,0,0,0,0,0,-1,965,1422,0,0
-252,-398,0,0,0,0,0,0,0,0,0,-1,972,1422,0,0
-245,-398,0,0,0,0,0,0,0,0,0,-1,979,1422,0,0
-238,-398,0,0,0,0,0,0,0,0,0,-1,986,1422,0,0
-231,-398,0,0,0,0,0,0,0,0,0,-1,993,1422,0,0
-224,-398,0,0,0,0,0,0,0,0,0,-1,1000,1422,0,0
-217,-398,0,0,0,0,0,0,0,0,0,-1,1007,1422,0,0
-210,-398,0,0,0,0,0,0,0,0,0,-1,1014,1422,0,0
-203,-398,0,0,0,0,0,0,0,0,0,-1,1021,1422,0,0
-196,-398,0,0,0,0,0,0,0,0,0,-1,1028,1422,0,0
-189,-398,0,0,0,0,0,0,0,0,0,-1,1035,1422,0,0
-182,-398,0,0,0,0,0,0,0,0,0,-1,1042,1422,0,0
-175,-398,0,0,0,0,0,0,0,0,0,-1,1049,1422,0,0
-168,-398,0,0,0,0,0,0,0,0,0,-1,1056,1422,0,0
-161,-398,0,0,0,0,0,0,0,0,0,-1,1063,1422,0,0
-154,-398,0,0,0,0,0,0,0,0,0,-1,1070,1422,0,0
-147,-398,0,0,0,0,0,0,0,0,0,-1,1077,1422,0,0
-140,-398,0,0,0,0,0,0,0,0,0,-1,1084,1422,0,0
-133,-398,0,0,0,0,0,0,0,0,0,-1,1091,1422,0,0
-126,-398,0,0,0,0,0,0,0,0,0,-1,1098,1422,0,0
-119,-398,0,0,0,0,0,0,0,0,0,-1,1105,1422,0,0
-112,-398,0,0,0,0,0,0,0,0,0,-1,1112,1422,0,0
-105,-398,0,0,0,0,0,0,0,0,0,-1,1119,1422,0,0
-98,-398,0,0,0,0,0,0,0,0,0,-1,1126,1422,0,0
-91,-398,0,0,0,0,0,0,0,0,0,-1,1133,1422,0,0
-84,-398,0,0,0,0,0,0,0,0,0,-1,1140,1422,0,0
-77,-398,0,0,0,0,0,0,0,0,0,-1,1147,1422,0,0
-70,-398,0,0,0,0,0,0,0,0,0,-1,1154,1422,0,0
-63,-398,0,0,0,0,0,0,0,0,0,-1,1161,1422,0,0
-56,-398,0,0,0,0,0,0,0,0,0,-1,1168,1422,0,0
-49,-398,0,0,0,0,0,0,0,0,0,-1,1175,1422,0,0
-42,-398,0,0,0,0,0,0,0,0,0,-1,1182,1422,0,0
-35,-398,0,0,0,0,0,0,0,0,0,-1,1189,1422,0,0
-28,-398,0,0,0,0,0,0,0,0,0,-1,1196,1422,0,0
-21,-398,0,0,0,0,0,0,0,0,0,-1,1203,1422,0,0
-14,-398,0,0,0,0,0,0,0,0,0,-1,1210,1422,0,0
-7,-398,0,0,0,0,0,0,0,0,0,-1,1217,1422,0,0
0,-398,0,0,0,0,0,0,0,0,0,-1,1224,1422,0,0
7,-398,0,0,0,0,0,0,0,0,0,-1,1231,1422,0,0
14,-398,0,0,0,0,0,0,0,0,0,-1,1238,1422,0,0
21,-398,0,0,0,0,0,0,0,0,0,-1,1245,1422,0,0
28,-398,0,0,0,0,0,0,0,0,0,-1,1252,1422,0,0
35,-398,0,0,0,0,0,0,0,0,0,-1,1259,1422,0,0
42,-398,0,0,0,0,0,0,0,0,0,-1,1266,1422,0,0
49,-398,0,0,0,0,0,0,0,0,0,-1,1273,1422,0,0
56,-398,0,0,0,0,0,0,0,0,0,-1,1280,1422,0,0
63,-398,0,0,0,0,0,0,0,0,0,-1,1287,1422,0,0
70,-398,0,0,0,0,0,0,0,0,0,-1,1294,1422,0,0
77,-398,0,0,0,0,0,0,0,0,0,-1,1301,1422,0,0
84,-398,0,0,0,0,0,0,0,0,0,-1,1308,1422,0,0
91,-398,0,0,0,0,0,0,0,0,0,-1,1315,1422,0,0
98,-398,0,0,0,0,0,0,0,0,0,-1,1322,1422,0,0
105,-398,0,0,0,0,0,0,0,0,0,-1,1329,1422,0,0
112,-398,0,0,0,0,0,0,0,0,0,-1,1336,1422,0,0
119,-398,0,0,0,0,0,0,0,0,0,-1,1343,1422,0,0
126,-398,0,0,0,0,0,0,0,0,0,-1,1350,1422,0,0
133,-398,0,0,0,0,0,0,0,0,0,-1,1357,1422,0,0
140,-398,0,0,0,0,0,0,0,0,0,-1,1364,1422,0,0
147,-398,0,0,0,0,0,0,0,0,0,-1,1371,1422,0,0
154,-398,0,0,0,0,0,0,0,0,0,-1,1378,1422,0,0
161,-398,0,0,0,0,0,0,0,0,0,-1,1385,1422,0,0
168,-398,0,0,0,0,0,0,0,0,0,-1,1392,1422,0,0
175,-398,0,0,0,0,0,0,0,0,0,-1,1399,1422,0,0
182,-398,0,0,0,0,0,0,0,0,0,-1,1406,1422,0,0
189,-398,0,0,0,0,0,0,0,0,0,-1,1413,1422,0,0
196,-398,0,0,0,0,0,0,0,0,0,-1,1420,1422,0,0
203,-398,0,0,0,0,0,0,0,0,0,-1,1427,1422,0,0
210,-398,0,0,0,0,0,0,0,0,0,-1,1434,1422,0,0
217,-398,0,0,0,0,0,0,0,0,0,-1,1441,1422,0,0
224,-398,0,0,0,0,0,0,0,0,0,-1,1448,1422,0,0
231,-398,0,0,0,0,0,0,0,0,0,-1,1455,1422,0,0
238,-398,0,0,0,0,0,0,0,0,0,-1,1462,1422,0,0
245,-398,0,0,0,0,0,0,0,0,0,-1,1469,1422,0,0
252,-398,0,0,0,0,0,0,0,0,0,-1,1476,1422,0,0
259,-398,0,0,0,0,0,0,0,0,0,-1,1483,1422,0,0
266,-398,0,0,0,0,0,0,0,0,0,-1,1490,1422,0,0
273,-398,0,0,0,0,0,0,0,0,0,-1,1497,1422,0,0
280,-398,0,0,0,0,0,0,0,0,0,-1,1504,1422,0,0
287,-398,0,0,0,0,0,0,0,0,0,-1,1511,1422,0,0
294,-398,0,0,0,0,0,0,0,0,0,-1,1518,1422,0,0
301,-398,0,0,0,0,0,0,0,0,0,-1,1525,1422,0,0
308,-398,0,0,0,0,0,0,0,0,0,-1,1532,1422,0,0
315,-398,0,0,0,0,0,0,0,0,0,-1,1539,1422,0,0
322,-398,0,0,0,0,0,0,0,0,0,-1,1546,1422,0,0
329,-398,0,0,0,0,0,0,0,0,0,-1,1553,1422,0,0
336,-398,0,0,0,0,0,0,0,0,0,-1,1560,1422,0,0
343,-398,0,0,0,0,0,0,0,0,0,-1,1567,1422,0,0
350,-398,0,0,0,0,0,0,0,0,0,-1,1574,1422,0,0
357,-398,0,0,0,0,0,0,0,0,0,-1,1581,1422,0,0
364,-398,0,0,0,0,0,0,0,0,0,-1,1588,1422,0,0
371,-398,0,0,0,0,0,0,0,0,0,-1,1595,1422,0,0
378,-398,0,0,0,0,0,0,0,0,0,-1,1602,1422,0,0
385,-398,0,0,0,0,0,0,0,0,0,-1,1609,1422,0,0
392,-398,0,0,0,0,0,0,0,0,0,-1,1616,1422,0,0
399,-398,0,0,0,0,0,0,0,0,0,-1,1623,1422,0,0
406,-398,0,0,0,0,0,0,0,0,0,-1,1630,1422,0,0
413,-398,0,0,0,0,0,0,0,0,0,-1,1637,1422,0,0
420,-398,0,0,0,0,0,0,0,0,0,-1,1644,1422,0,0
427,-398,0,0,0,0,0,0,0,0,0,-1,1651,1422,0,0
434,-398,0,0,0,0,0,0,0,0,0,-1,1658,1422,0,0
441,-398,0,0,0,0,0,0,0,0,0,-1,1665,1422,0,0
448,-398,0,0,0,0,0,0,0,0,0,-1,1672,1422,0,0
455,-398,0,0,0,0,0,0,0,0,0,-1,1679,1422,0,0
462,-398,0,0,0,0,0,0,0,0,0,-1,1686,1422,0,0
469,-398,0,0,0,0,0,0,0,0,0,-1,1693,1422,0,0
476,-398,0,0,0,0,0,0,0,0,0,-1,1700,1422,0,0
483,-398,0,0,0,0,0,0,0,0,0,-1,1707,1422,0,0
490,-398,0,0,0,0,0,0,0,0,0,-1,1714,1422,0,0
497,-398,0,0,0,0,0,0,0,0,0,-1,1721,1422,0,0
504,-398,0,0,0,0,0,0,0,0,0,-1,1728,1422,0,0
511,-398,0,0,0,0,0,0,0,0,0,-1,1735,1422,0,0
518,-398,0,0,0,0,0,0,0,0,0,-1,1742,1422,0,0
525,-398,0,0,0,0,0,0,0,0,0,-1,1749,1422,0,0
532,-398,28.4558,3.84094,0,0,0,0,0,0,0,-1,1756,1422,28.4558,-3.8409
539,-398,27.0594,3.33887,0,0,0,0,0,0,0,-1,1763,1422,27.0595,-3.3389
546,-398,31.6873,5.58582,0,0,0,0,0,0,0,-1,1770,1422,31.6872,-5.58585
553,-398,30.4392,5.92383,0,0,0,0,0,0,0,-1,1777,1422,30.4392,-5.92386
560,-398,29.1621,6.30469,0,0,0,0,0,0,0,-1,1784,1422,29.1621,-6.30469
567,-398,27.8411,6.55029,0,0,0,0,0,0,0,-1,1791,1422,27.8411,-6.55033
574,-398,26.411,6.8916,0,0,0,0,0,0,0,-1,1798,1422,26.411,-6.8916
581,-398,24.75,7.11145,0,0,0,0,0,0,0,-1,1805,1422,24.7499,-7.11142
588,-398,23.1649,7.67969,0,0,0,0,0,0,0,-1,1812,1422,23.1649,-7.67975
595,-398,21.4253,7.86023,0,0,0,0,0,0,0,-1,1819,1422,21.4253,-7.86029
602,-398,19.6857,8.04077,0,0,0,0,0,0,0,-1,1826,1422,19.6856,-8.04083
609,-398,18.0251,11.1027,0,0,0,0,0,0,0,-1,1833,1422,18.0251,-11.1026
616,-398,17.9995,10.6594,-0.00770563,-8.27741e-05,0.00294775,0.000924121,-0.00871253,1.24164,0.00613962,0.0347931,1840,1422,17.9995,-10.6594
623,-398,17.9396,10.3575,-0.00483397,-0.000152725,0.00185396,0.000492566,-0.00547926,1.23585,0.00382761,0.0158769,1847,1422,17.9395,-10.3576
630,-398,17.9438,10.035,-0.00269485,-0.00016983,0.00105747,0.000214529,-0.00307921,1.22217,0.00212792,0.0118684,1854,1422,17.9439,-10.0351
637,-398,17.9266,9.72949,-0.00123034,-0.000118537,0.000488705,6.57367e-05,-0.00141461,1.21022,0.000965733,0.0134968,1861,1422,17.9267,-9.72953
644,-398,17.8566,9.44458,-0.000280265,-0.000107548,0.000169998,-3.2313e-06,-0.000384582,1.02041,0.000255318,0.0195356,1868,1422,17.8565,-9.44457
651,-398,17.8887,9.19165,0.000574335,-0.00012701,-0.000104078,0.000589454,-0.000142129,-0.144257,0.000447926,0.0267799,1875,1422,17.8886,-9.19171
658,-398,17.9338,8.88916,0.000932773,-1.91366e-05,-0.000139179,0.000952705,-3.90687e-05,-0.142245,0.000648552,0.0230302,1882,1422,17.9339,-8.88922
665,-398,17.9188,8.50098,0.000974185,3.89051e-05,-3.59821e-05,0.000975567,3.75228e-05,-0.0383964,0.000638238,0.0157635,1889,1422,17.9189,-8.50098
672,-398,17.9247,8.18396,0.000961945,6.0003e-05,0.000176506,0.000995256,2.6692e-05,0.186531,0.000654788,0.0135407,1896,1422,17.9247,-8.18392
679,-398,17.9104,7.86682,0.000937135,9.79832e-06,0.000498823,0.0011545,-0.000207571,0.410953,0.000847377,0.0121127,1903,1422,17.9104,-7.86687
686,-398,17.9229,7.54883,0.000862124,-0.000181979,0.000993746,0.0014626,-0.000782455,0.543543,0.00131586,0.0201024,1910,1422,17.9228,-7.54885
693,-398,17.8292,7.55127,0,0,0,0,0,0,0,-1,1917,1422,17.8292,-7.55126
700,-398,14.0787,6.53918,0,0,0,0,0,0,0,-1,1924,1422,14.0787,-6.53921
707,-398,10.9731,5.479,0,0,0,0,0,0,0,-1,1931,1422,10.9732,-5.47896
714,-398,11.7313,6.17346,0,0,0,0,0,0,0,-1,1938,1422,11.7313,-6.17348
721,-398,13.9371,8.05103,0,0,0,0,0,0,0,-1,1945,1422,13.9372,-8.05102
728,-398,14.786,7.0282,0,0,0,0,0,0,0,-1,1952,1422,14.786,-7.0282
735,-398,0,0,0,0,0,0,0,0,0,-1,1959,1422,0,0
742,-398,0,0,0,0,0,0,0,0,0,-1,1966,1422,0,0
749,-398,0,0,0,0,0,0,0,0,0,-1,1973,1422,0,0
756,-398,0,0,0,0,0,0,0,0,0,-1,1980,1422,0,0
763,-398,0,0,0,0,0,0,0,0,0,-1,1987,1422,0,0
770,-398,0,0,0,0,0,0,0,0,0,-1,1994,1422,0,0
777,-398,0,0,0,0,0,0,0,0,0,-1,2001,1422,0,0
784,-398,0,0,0,0,0,0,0,0,0,-1,2008,1422,0,0
791,-398,0,0,0,0,0,0,0,0,0,-1,2015,1422,0,0
798,-398,0,0,0,0,0,0,0,0,0,-1,2022,1422,0,0
805,-398,0,0,0,0,0,0,0,0,0,-1,2029,1422,0,0
812,-398,0,0,0,0,0,0,0,0,0,-1,2036,1422,0,0
-700,-405,0,0,0,0,0,0,0,0,0,-1,524,1429,0,0
-693,-405,0,0,0,0,0,0,0,0,0,-1,531,1429,0,0
-686,-405,0,0,0,0,0,0,0,0,0,-1,538,1429,0,0
-679,-405,0,0,0,0,0,0,0,0,0,-1,545,1429,0,0
-672,-405,0,0,0,0,0,0,0,0,0,-1,552,1429,0,0
-665,-405,0,0,0,0,0,0,0,0,0,-1,559,1429,0,0
-658,-405,0,0,0,0,0,0,0,0,0,-1,566,1429,0,0
-651,-405,0,0,0,0,0,0,0,0,0,-1,573,1429,0,0
-644,-405,0,0,0,0,0,0,0,0,0,-1,580,1429,0,0
-637,-405,0,0,0,0,0,0,0,0,0,-1,587,1429,0,0
-630,-405,0,0,0,0,0,0,0,0,0,-1,594,1429,0,0
-623,-405,0,0,0,0,0,0,0,0,0,-1,601,1429,0,0
-616,-405,0,0,0,0,0,0,0,0,0,-1,608,1429,0,0
-609,-405,0,0,0,0,0,0,0,0,0,-1,615,1429,0,0
-602,-405,-5.80988,-3.46594,0,0,0,0,0,0,0,-1,622,1429,-5.80987,3.46592
-595,-405,-9.35413,2.01477,0,0,0,0,0,0,0,-1,629,1429,-9.35411,-2.01476
-588,-405,-7.35693,0.507202,0,0,0,0,0,0,0,-1,636,1429,-7.35696,-0.507187
-581,-405,-9.62579,4.36987,0,0,0,0,0,0,0,-1,643,1429,-9.62577,-4.36986
-574,-405,-8.04688,5.31116,0,0,0,0,0,0,0,-1,650,1429,-8.04688,-5.31112
-567,-405,-7.06586,5.39636,0,0,0,0,0,0,0,-1,657,1429,-7.06583,-5.39641
-560,-405,-6.78864,5.35486,0,0,0,0,0,0,0,-1,664,1429,-6.78861,-5.35491
-553,-405,-6.77228,5.56384,0,0,0,0,0,0,0,-1,671,1429,-6.77225,-5.56379
-546,-405,-6.7724,5.84583,-0.00733254,-0.00229893,-0.00297795,-0.000916705,-0.00871477,-1.13623,0.00552967,0.0313923,678,1429,-6.77242,-5.84583
-539,-405,-6.77924,6.21289,-0.0055115,-0.00129475,-0.00198332,-0.000508508,-0.00629774,-1.19337,0.00403968,0.0119392,685,1429,-6.77924,-6.21292
-532,-405,-6.77673,6.58191,-0.00367023,-0.000551631,-0.00107926,-0.000214563,-0.0040073,-1.26808,0.00260296,0.0146131,692,1429,-6.77674,-6.58197
-525,-405,-6.76062,6.93933,-0.00187988,-5.85914e-05,-0.000291,-1.32262e-05,-0.00192525,-1.41615,0.00127911,0.0142061,699,1429,-6.76063,-6.93928
-518,-405,-6.76331,7.2804,-0.000545987,0.000132186,0.000195827,0.00018467,-0.000598471,1.30894,0.000472718,0.0145828,706,1429,-6.76332,-7.28037
-511,-405,-6.78516,7.60962,-0.000122068,-7.37434e-05,-4.29093e-05,-4.86612e-05,-0.00014715,-1.04182,8.65656e-05,0.0150265,713,1429,-6.78513,-7.60957
-504,-405,-6.78552,7.94666,-0.000178709,-0.00081998,-0.000738121,0.00030541,-0.0013041,-0.580498,0.00098708,0.0170334,720,1429,-6.78549,-7.94667
-497,-405,-6.79486,8.32397,-0.000783187,-0.00175308,-0.00178685,0.000583357,-0.00311962,-0.652892,0.002299,0.0136952,727,1429,-6.79485,-8.32401
-490,-405,-6.80481,8.69739,-0.00237126,-0.0031854,-0.00370163,0.000945618,-0.00650228,-0.730633,0.004682,0.0116382,734,1429,-6.80478,-8.69738
-483,-405,-6.76166,9.06494,-0.00513393,-0.00532838,-0.00664396,0.00141352,-0.0118758,-0.778082,0.008428,0.0136623,741,1429,-6.76168,-9.06492
-476,-405,-6.73193,9.3905,-0.00934959,-0.00834164,-0.0108124,0.00197856,-0.0196698,-0.808687,0.01382,0.0339929,748,1429,-6.73194,-9.39045
-469,-405,-7.03149,9.54932,-0.0152627,-0.0121915,-0.0164398,0.0027843,-0.0302384,-0.831967,0.0211482,0.0463796,755,1429,-7.03152,-9.54932
-462,-405,-7.86151,9.50171,-0.0231785,-0.0181616,-0.0246008,0.00405832,-0.0453984,-0.836206,0.0317051,0.0489402,762,1429,-7.86148,-9.5017
-455,-405,-8.48688,9.46692,0,0,0,0,0,0,0,-1,769,1429,-8.48689,-9.46689
-448,-405,-8.4649,6.82813,0,0,0,0,0,0,0,-1,776,1429,-8.46492,-6.82817
-441,-405,-6.6712,4.23767,0,0,0,0,0,0,0,-1,783,1429,-6.67121,-4.23764
-434,-405,-9.62549,3.94189,0,0,0,0,0,0,0,-1,790,1429,-9.62546,-3.94191
-427,-405,-10.9764,3.73926,0,0,0,0,0,0,0,-1,797,1429,-10.9764,-3.73923
-420,-405,-12.1187,3.68506,0,0,0,0,0,0,0,-1,804,1429,-12.1187,-3.68512
-413,-405,-13.5353,3.75659,0,0,0,0,0,0,0,-1,811,1429,-13.5353,-3.75655
-406,-405,-14.7374,3.99817,0,0,0,0,0,0,0,-1,818,1429,-14.7374,-3.99814
-399,-405,0,0,0,0,0,0,0,0,0,-1,825,1429,0,0
-392,-405,0,0,0,0,0,0,0,0,0,-1,832,1429,0,0
-385,-405,0,0,0,0,0,0,0,0,0,-1,839,1429,0,0
-378,-405,0,0,0,0,0,0,0,0,0,-1,846,1429,0,0
-371,-405,0,0,0,0,0,0,0,0,0,-1,853,1429,0,0
-364,-405,0,0,0,0,0,0,0,0,0,-1,860,1429,0,0
-357,-405,0,0,0,0,0,0,0,0,0,-1,867,1429,0,0
-350,-405,0,0,0,0,0,0,0,0,0,-1,874,1429,0,0
-343,-405,0,0,0,0,0,0,0,0,0,-1,881,1429,0,0
-336,-405,0,0,0,0,0,0,0,0,0,-1,888,1429,0,0
-329,-405,0,0,0,0,0,0,0,0,0,-1,895,1429,0,0
-322,-405,0,0,0,0,0,0,0,0,0,-1,902,1429,0,0
-315,-405,0,0,0,0,0,0,0,0,0,-1,909,1429,0,0
-308,-405,0,0,0,0,0,0,0,0,0,-1,916,1429,0,0
-301,-405,0,0,0,0,0,0,0,0,0,-1,923,1429,0,0
-294,-405,0,0,0,0,0,0,0,0,0,-1,930,1429,0,0
-287,-405,0,0,0,0,0,0,0,0,0,-1,937,1429,0,0
-280,-405,0,0,0,0,0,0,0,0,0,-1,944,1429,0,0
-273,-405,0,0,0,0,0,0,0,0,0,-1,951,1429,0,0
-266,-405,0,0,0,0,0,0,0,0,0,-1,958,1429,0,0
-259,-405,0,0,0,0,0,0,0,0,0,-1,965,1429,0,0
-252,-405,0,0,0,0,0,0,0,0,0,-1,972,1429,0,0
-245,-405,0,0,0,0,0,0,0,0,0,-1,979,1429,0,0
-238,-405,0,0,0,0,0,0,0,0,0,-1,986,1429,0,0
-231,-405,0,0,0,0,0,0,0,0,0,-1,993,1429,0,0
-224,-405,0,0,0,0,0,0,0,0,0,-1,1000,1429,0,0
-217,-405,0,0,0,0,0,0,0,0,0,-1,1007,1429,0,0
-210,-405,0,0,0,0,0,0,0,0,0,-1,1014,1429,0,0
-203,-405,0,0,0,0,0,0,0,0,0,-1,1021,1429,0,0
-196,-405,0,0,0,0,0,0,0,0,0,-1,1028,1429,0,0
-189,-405,0,0,0,0,0,0,0,0,0,-1,1035,1429,0,0
-182,-405,0,0,0,0,0,0,0,0,0,-1,1042,1429,0,0
-175,-405,0,0,0,0,0,0,0,0,0,-1,1049,1429,0,0
-168,-405,0,0,0,0,0,0,0,0,0,-1,1056,1429,0,0
-161,-405,0,0,0,0,0,0,0,0,0,-1,1063,1429,0,0
-154,-405,0,0,0,0,0,0,0,0,0,-1,1070,1429,0,0
-147,-405,0,0,0,0,0,0,0,0,0,-1,1077,1429,0,0
-140,-405,0,0,0,0,0,0,0,0,0,-1,1084,1429,0,0
-133,-405,0,0,0,0,0,0,0,0,0,-1,1091,1429,0,0
-126,-405,0,0,0,0,0,0,0,0,0,-1,1098,1429,0,0
-119,-405,0,0,0,0,0,0,0,0,0,-1,1105,1429,0,0
-112,-405,0,0,0,0,0,0,0,0,0,-1,1112,1429,0,0
-105,-405,0,0,0,0,0,0,0,0,0,-1,1119,1429,0,0
-98,-405,0,0,0,0,0,0,0,0,0,-1,1126,1429,0,0
-91,-405,0,0,0,0,0,0,0,0,0,-1,1133,1429,0,0
-84,-405,0,0,0,0,0,0,0,0,0,-1,1140,1429,0,0
-77,-405,0,0,0,0,0,0,0,0,0,-1,1147,1429,0,0
-70,-405,0,0,0,0,0,0,0,0,0,-1,1154,1429,0,0
-63,-405,0,0,0,0,0,0,0,0,0,-1,1161,1429,0,0
-56,-405,0,0,0,0,0,0,0,0,0,-1,1168,1429,0,0
-49,-405,0,0,0,0,0,0,0,0,0,-1,1175,1429,0,0
-42,-405,0,0,0,0,0,0,0,0,0,-1,1182,1429,0,0
-35,-405,0,0,0,0,0,0,0,0,0,-1,1189,1429,0,0
-28,-405,0,0,0,0,0,0,0,0,0,-1,1196,1429,0,0
-21,-405,0,0,0,0,0,0,0,0,0,-1,1203,1429,0,0
-14,-405,0,0,0,0,0,0,0,0,0,-1,1210,1429,0,0
-7,-405,0,0,0,0,0,0,0,0,0,-1,1217,1429,0,0
0,-405,0,0,0,0,0,0,0,0,0,-1,1224,1429,0,0
7,-405,0,0,0,0,0,0,0,0,0,-1,1231,1429,0,0
14,-405,0,0,0,0,0,0,0,0,0,-1,1238,1429,0,0
21,-405,0,0,0,0,0,0,0,0,0,-1,1245,1429,0,0
28,-405,0,0,0,0,0,0,0,0,0,-1,1252,1429,0,0
35,-405,0,0,0,0,0,0,0,0,0,-1,1259,1429,0,0
42,-405,0,0,0,0,0,0,0,0,0,-1,1266,1429,0,0
49,-405,0,0,0,0,0,0,0,0,0,-1,1273,1429,0,0
56,-405,0,0,0,0,0,0,0,0,0,-1,1280,1429,0,0
63,-405,0,0,0,0,0,0,0,0,0,-1,1287,1429,0,0
70,-405,0,0,0,0,0,0,0,0,0,-1,1294,1429,0,0
77,-405,0,0,0,0,0,0,0,0,0,-1,1301,1429,0,0
84,-405,0,0,0,0,0,0,0,0,0,-1,1308,1429,0,0
91,-405,0,0,0,0,0,0,0,0,0,-1,1315,1429,0,0
98,-405,0,0,0,0,0,0,0,0,0,-1,1322,1429,0,0
105,-405,0,0,0,0,0,0,0,0,0,-1,1329,1429,0,0
112,-405,0,0,0,0,0,0,0,0,0,-1,1336,1429,0,0
119,-405,0,0,0,0,0,0,0,0,0,-1,1343,1429,0,0
126,-405,0,0,0,0,0,0,0,0,0,-1,1350,1429,0,0
133,-405,0,0,0,0,0,0,0,0,0,-1,1357,1429,0,0
140,-405,0,0,0,0,0,0,0,0,0,-1,1364,1429,0,0
147,-405,0,0,0,0,0,0,0,0,0,-1,1371,1429,0,0
154,-405,0,0,0,0,0,0,0,0,0,-1,1378,1429,0,0
161,-405,0,0,0,0,0,0,0,0,0,-1,1385,1429,0,0
168,-405,0,0,0,0,0,0,0,0,0,-1,1392,1429,0,0
175,-405,0,0,0,0,0,0,0,0,0,-1,1399,1429,0,0
182,-405,0,0,0,0,0,0,0,0,0,-1,1406,1429,0,0
189,-405,0,0,0,0,0,0,0,0,0,-1,1413,1429,0,0
196,-405,0,0,0,0,0,0,0,0,0,-1,1420,1429,0,0
203,-405,0,0,0,0,0,0,0,0,0,-1,1427,1429,0,0
210,-405,0,0,0,0,0,0,0,0,0,-1,1434,1429,0,0
217,-405,0,0,0,0,0,0,0,0,0,-1,1441,1429,0,0
224,-405,0,0,0,0,0,0,0,0,0,-1,1448,1429,0,0
231,-405,0,0,0,0,0,0,0,0,0,-1,1455,1429,0,0
238,-405,0,0,0,0,0,0,0,0,0,-1,1462,1429,0,0
245,-405,0,0,0,0,0,0,0,0,0,-1,1469,1429,0,0
252,-405,0,0,0,0,0,0,0,0,0,-1,1476,1429,0,0
259,-405,0,0,0,0,0,0,0,0,0,-1,1483,1429,0,0
266,-405,0,0,0,0,0,0,0,0,0,-1,1490,1429,0,0
273,-405,0,0,0,0,0,0,0,0,0,-1,1497,1429,0,0
280,-405,0,0,0,0,0,0,0,0,0,-1,1504,1429,0,0
287,-405,0,0,0,0,0,0,0,0,0,-1,1511,1429,0,0
294,-405,0,0,0,0,0,0,0,0,0,-1,1518,1429,0,0
301,-405,0,0,0,0,0,0,0,0,0,-1,1525,1429,0,0
308,-405,0,0,0,0,0,0,0,0,0,-1,1532,1429,0,0
315,-405,0,0,0,0,0,0,0,0,0,-1,1539,1429,0,0
322,-405,0,0,0,0,0,0,0,0,0,-1,1546,1429,0,0
329,-405,0,0,0,0,0,0,0,0,0,-1,1553,1429,0,0
336,-405,0,0,0,0,0,0,0,0,0,-1,1560,1429,0,0
343,-405,0,0,0,0,0,0,0,0,0,-1,1567,1429,0,0
350,-405,0,0,0,0,0,0,0,0,0,-1,1574,1429,0,0
357,-405,0,0,0,0,0,0,0,0,0,-1,1581,1429,0,0
364,-405,0,0,0,0,0,0,0,0,0,-1,1588,1429,0,0
371,-405,0,0,0,0,0,0,0,0,0,-1,1595,1429,0,0
378,-405,0,0,0,0,0,0,0,0,0,-1,1602,1429,0,0
385,-405,0,0,0,0,0,0,0,0,0,-1,1609,1429,0,0
392,-405,0,0,0,0,0,0,0,0,0,-1,1616,1429,0,0
399,-405,0,0,0,0,0,0,0,0,0,-1,1623,1429,0,0
406,-405,0,0,0,0,0,0,0,0,0,-1,1630,1429,0,0
413,-405,0,0,0,0,0,0,0,0,0,-1,1637,1429,0,0
420,-405,0,0,0,0,0,0,0,0,0,-1,1644,1429,0,0
427,-405,0,0,0,0,0,0,0,0,0,-1,1651,1429,0,0
434,-405,0,0,0,0,0,0,0,0,0,-1,1658,1429,0,0
441,-405,0,0,0,0,0,0,0,0,0,-1,1665,1429,0,0
448,-405,0,0,0,0,0,0,0,0,0,-1,1672,1429,0,0
455,-405,0,0,0,0,0,0,0,0,0,-1,1679,1429,0,0
462,-405,0,0,0,0,0,0,0,0,0,-1,1686,1429,0,0
469,-405,0,0,0,0,0,0,0,0,0,-1,1693,1429,0,0
476,-405,0,0,0,0,0,0,0,0,0,-1,1700,1429,0,0
483,-405,0,0,0,0,0,0,0,0,0,-1,1707,1429,0,0
490,-405,0,0,0,0,0,0,0,0,0,-1,1714,1429,0,0
497,-405,0,0,0,0,0,0,0,0,0,-1,1721,1429,0,0
504,-405,0,0,0,0,0,0,0,0,0,-1,1728,1429,0,0
511,-405,0,0,0,0,0,0,0,0,0,-1,1735,1429,0,0
518,-405,0,0,0,0,0,0,0,0,0,-1,1742,1429,0,0
525,-405,31.1563,-1.40942,0,0,0,0,0,0,0,-1,1749,1429,31.1563,1.40937
532,-405,28.156,4.8783,0,0,0,0,0,0,0,-1,1756,1429,28.1561,-4.87833
539,-405,26.5133,3.02454,0,0,0,0,0,0,0,-1,1763,1429,26.5133,-3.0246
546,-405,29.5735,6.53052,0,0,0,0,0,0,0,-1,1770,1429,29.5735,-6.53049
553,-405,28.2911,6.70654,0,0,0,0,0,0,0,-1,1777,1429,28.2912,-6.70656
560,-405,26.9299,7.08472,0,0,0,0,0,0,0,-1,1784,1429,26.9299,-7.08469
567,-405,25.804,7.14661,0,0,0,0,0,0,0,-1,1791,1429,25.8039,-7.14665
574,-405,25.1151,8.07971,0,0,0,0,0,0,0,-1,1798,1429,25.1151,-8.07965
581,-405,23.5055,8.505,0,0,0,0,0,0,0,-1,1805,1429,23.5054,-8.50501
588,-405,21.7491,8.98254,0,0,0,0,0,0,0,-1,1812,1429,21.7491,-8.98254
595,-405,20.0408,9.31152,0,0,0,0,0,0,0,-1,1819,1429,20.0407,-9.31153
602,-405,17.653,11.1935,0,0,0,0,0,0,0,-1,1826,1429,17.653,-11.1934
609,-405,17.6635,11.0165,-0.0106222,0.000185176,0.00403828,0.00152741,-0.0119645,1.24991,0.00853114,0.0308189,1833,1429,17.6634,-11.0164
616,-405,17.623,10.7395,-0.00722506,-5.81645e-05,0.00276106,0.000882161,-0.00816539,1.24255,0.00576021,0.0133312,1840,1429,17.6231,-10.7395
623,-405,17.6162,10.3925,-0.00461019,-0.000213026,0.00179281,0.000425281,-0.0052485,1.22875,0.00364903,0.00991016,1847,1429,17.6162,-10.3925
630,-405,17.6245,10.058,-0.00263053,-0.000242555,0.0010493,0.000153001,-0.00302608,1.2103,0.00207027,0.00984552,1854,1429,17.6245,-10.0579
637,-405,17.6147,9.745,-0.00125491,-0.000165684,0.000542119,5.81414e-05,-0.00147873,1.17924,0.00100576,0.010651,1861,1429,17.6147,-9.74501
644,-405,17.5258,9.48828,-0.000290886,-0.000176338,0.000250503,2.33551e-05,-0.00049058,0.897784,0.000335109,0.0279211,1868,1429,17.5257,-9.48826
651,-405,17.4991,9.22278,0.000551469,-0.000171795,-5.92627e-06,0.000551518,-0.000171844,-0.00819304,0.000436388,0.0323677,1875,1429,17.4991,-9.22281
658,-405,17.5742,8.87488,0.000890135,-3.47042e-05,-3.43895e-05,0.000891412,-3.59812e-05,-0.037116,0.000606624,0.0241498,1882,1429,17.5742,-8.87486
665,-405,17.5956,8.49243,0.000941857,8.25285e-05,5.45757e-05,0.000945309,7.90762e-05,0.0631714,0.000605571,0.0183512,1889,1429,17.5955,-8.49244
672,-405,17.6063,8.17676,0.000912355,0.000156854,0.000263407,0.000995124,7.40841e-05,0.304457,0.000640152,0.0226065,1896,1429,17.6063,-8.17672
679,-405,17.6229,7.82874,0.000848788,0.000178925,0.000576561,0.00118064,-0.000152928,0.522265,0.000842708,0.0211166,1903,1429,17.623,-7.82868
686,-405,17.4437,7.43616,0.000685208,5.34623e-05,0.00110145,0.00151518,-0.000776512,0.645756,0.00134583,0.0386759,1910,1429,17.4437,-7.43612
693,-405,17.1946,7.20593,0,0,0,0,0,0,0,-1,1917,1429,17.1946,-7.20589
700,-405,9.1958,4.02026,0,0,0,0,0,0,0,-1,1924,1429,9.19579,-4.02025
707,-405,7.40308,3.83191,0,0,0,0,0,0,0,-1,1931,1429,7.40311,-3.83194
714,-405,7.33252,3.47388,0,0,0,0,0,0,0,-1,1938,1429,7.33255,-3.47383
721,-405,9.23523,0.993896,0,0,0,0,0,0,0,-1,1945,1429,9.23523,-0.993884
728,-405,0,0,0,0,0,0,0,0,0,-1,1952,1429,0,0
735,-405,0,0,0,0,0,0,0,0,0,-1,1959,1429,0,0
742,-405,0,0,0,0,0,0,0,0,0,-1,1966,1429,0,0
749,-405,0,0,0,0,0,0,0,0,0,-1,1973,1429,0,0
756,-405,0,0,0,0,0,0,0,0,0,-1,1980,1429,0,0
763,-405,0,0,0,0,0,0,0,0,0,-1,1987,1429,0,0
770,-405,0,0,0,0,0,0,0,0,0,-1,1994,1429,0,0
777,-405,0,0,0,0,0,0,0,0,0,-1,2001,1429,0,0
784,-405,0,0,0,0,0,0,0,0,0,-1,2008,1429,0,0
791,-405,0,0,0,0,0,0,0,0,0,-1,2015,1429,0,0
798,-405,0,0,0,0,0,0,0,0,0,-1,2022,1429,0,0
805,-405,0,0,0,0,0,0,0,0,0,-1,2029,1429,0,0
812,-405,0,0,0,0,0,0,0,0,0,-1,2036,1429,0,0
-700,-412,0,0,0,0,0,0,0,0,0,-1,524,1436,0,0
-693,-412,0,0,0,0,0,0,0,0,0,-1,531,1436,0,0
-686,-412,0,0,0,0,0,0,0,0,0,-1,538,1436,0,0
-679,-412,0,0,0,0,0,0,0,0,0,-1,545,1436,0,0
-672,-412,0,0,0,0,0,0,0,0,0,-1,552,1436,0,0
-665,-412,0,0,0,0,0,0,0,0,0,-1,559,1436,0,0
-658,-412,0,0,0,0,0,0,0,0,0,-1,566,1436,0,0
-651,-412,0,0,0,0,0,0,0,0,0,-1,573,1436,0,0
-644,-412,0,0,0,0,0,0,0,0,0,-1,580,1436,0,0
-637,-412,0,0,0,0,0,0,0,0,0,-1,587,1436,0,0
-630,-412,0,0,0,0,0,0,0,0,0,-1,594,1436,0,0
-623,-412,0,0,0,0,0,0,0,0,0,-1,601,1436,0,0
-616,-412,0,0,0,0,0,0,0,0,0,-1,608,1436,0,0
-609,-412,0,0,0,0,0,0,0,0,0,-1,615,1436,0,0
-602,-412,-3.72766,-3.50012,0,0,0,0,0,0,0,-1,622,1436,-3.72764,3.50017
-595,-412,-10.3706,0.65564,0,0,0,0,0,0,0,-1,629,1436,-10.3706,-0.655672
-588,-412,-8.17957,1.94934,0,0,0,0,0,0,0,-1,636,1436,-8.17956,-1.94939
-581,-412,-6.60065,-0.0554199,0,0,0,0,0,0,0,-1,643,1436,-6.60063,0.0554733
-574,-412,-8.34131,5.25012,0,0,0,0,0,0,0,-1,650,1436,-8.34129,-5.25012
-567,-412,-7.50354,3.65454,0,0,0,0,0,0,0,-1,657,1436,-7.50356,-3.65452
-560,-412,-5.49805,5.2561,0,0,0,0,0,0,0,-1,664,1436,-5.49802,-5.25609
-553,-412,-5.75623,5.78308,-0.00727854,-0.00184749,-0.00111132,-0.00162888,-0.00749714,-1.37657,0.00455331,0.048169,671,1436,-5.75624,-5.78308
-546,-412,-6.1651,5.98315,-0.00581016,-0.000555898,-0.000465932,-0.000514901,-0.00585115,-1.48303,0.00374097,0.0454894,678,1436,-6.16513,-5.98314
-539,-412,-6.40631,6.14771,-0.00419432,0.000250161,0.000198597,0.000259018,-0.00420317,1.52623,0.00289232,0.0200927,685,1436,-6.40632,-6.1477
-532,-412,-6.42542,6.57556,-0.00266034,0.000735751,0.000692621,0.000871576,-0.00279617,1.37715,0.00221262,0.0135915,692,1436,-6.42541,-6.57552
-525,-412,-6.41412,6.95203,-0.00122486,0.00096997,0.00105324,0.00139362,-0.00164851,1.18837,0.00175843,0.0148903,699,1436,-6.41414,-6.95198
-518,-412,-6.39893,7.28809,-0.000232006,0.000916252,0.00113352,0.00161275,-0.0009285,1.01982,0.00148481,0.0154466,706,1436,-6.39892,-7.28806
-511,-412,-6.422,7.62659,-7.1299e-05,0.000549126,0.000606995,0.000920584,-0.000442757,1.02163,0.000803079,0.018983,713,1436,-6.42198,-7.62663
-504,-412,-6.43317,7.98254,-0.000415876,-0.000324725,-0.000362661,-4.78738e-06,-0.000735814,-0.847906,0.000488955,0.0193455,720,1436,-6.43318,-7.9825
-497,-412,-6.45288,8.34851,-0.001153,-0.0012803,-0.00156341,0.00034806,-0.00278136,-0.765054,0.00198048,0.0147506,727,1436,-6.45286,-8.34852
-490,-412,-6.45203,8.70984,-0.00264279,-0.00264826,-0.00346707,0.00082154,-0.00611259,-0.785003,0.0043747,0.0125773,734,1436,-6.45205,-8.70979
-483,-412,-6.44543,9.03894,-0.00491335,-0.00465317,-0.00620561,0.00142372,-0.0109902,-0.795878,0.00784458,0.00910635,741,1436,-6.44545,-9.03895
-476,-412,-6.35541,9.48816,-0.00817876,-0.00743009,-0.00982892,0.00203162,-0.0176405,-0.804432,0.0124927,0.0178596,748,1436,-6.35544,-9.4881
-469,-412,-6.40472,9.7782,-0.0121835,-0.0105937,-0.0141385,0.00277225,-0.0255495,-0.81348,0.0180283,0.0308392,755,1436,-6.40474,-9.7782
-462,-412,-6.74573,9.89453,-0.0173055,-0.0155691,-0.0204773,0.00405836,-0.036933,-0.806585,0.0260802,0.0448391,762,1436,-6.74574,-9.89459
-455,-412,-7.05402,10.0365,0,0,0,0,0,0,0,-1,769,1436,-7.05402,-10.0365
-448,-412,-7.39368,8.76355,0,0,0,0,0,0,0,-1,776,1436,-7.39367,-8.76352
-441,-412,-8.2616,8.87683,0,0,0,0,0,0,0,-1,783,1436,-8.26158,-8.87682
-434,-412,-10.6305,8.03577,0,0,0,0,0,0,0,-1,790,1436,-10.6305,-8.0358
-427,-412,-10.0004,5.15271,0,0,0,0,0,0,0,-1,797,1436,-10.0004,-5.15266
-420,-412,-10.4468,4.9043,0,0,0,0,0,0,0,-1,804,1436,-10.4468,-4.90429
-413,-412,-11.5704,4.97766,0,0,0,0,0,0,0,-1,811,1436,-11.5704,-4.97771
-406,-412,-13.1968,5.70093,0,0,0,0,0,0,0,-1,818,1436,-13.1968,-5.70096
-399,-412,-10.5506,0.771973,0,0,0,0,0,0,0,-1,825,1436,-10.5506,-0.771954
-392,-412,0,0,0,0,0,0,0,0,0,-1,832,1436,0,0
-385,-412,0,0,0,0,0,0,0,0,0,-1,839,1436,0,0
-378,-412,0,0,0,0,0,0,0,0,0,-1,846,1436,0,0
-371,-412,0,0,0,0,0,0,0,0,0,-1,853,1436,0,0
-364,-412,0,0,0,0,0,0,0,0,0,-1,860,1436,0,0
-357,-412,0,0,0,0,0,0,0,0,0,-1,867,1436,0,0
-350,-412,0,0,0,0,0,0,0,0,0,-1,874,1436,0,0
-343,-412,0,0,0,0,0,0,0,0,0,-1,881,1436,0,0
-336,-412,0,0,0,0,0,0,0,0,0,-1,888,1436,0,0
-329,-412,0,0,0,0,0,0,0,0,0,-1,895,1436,0,0
-322,-412,0,0,0,0,0,0,0,0,0,-1,902,1436,0,0
-315,-412,0,0,0,0,0,0,0,0,0,-1,909,1436,0,0
-308,-412,0,0,0,0,0,0,0,0,0,-1,916,1436,0,0
-301,-412,0,0,0,0,0,0,0,0,0,-1,923,1436,0,0
-294,-412,0,0,0,0,0,0,0,0,0,-1,930,1436,0,0
-287,-412,0,0,0,0,0,0,0,0,0,-1,937,1436,0,0
-280,-412,0,0,0,0,0,0,0,0,0,-1,944,1436,0,0
-273,-412,0,0,0,0,0,0,0,0,0,-1,951,1436,0,0
-266,-412,0,0,0,0,0,0,0,0,0,-1,958,1436,0,0
-259,-412,0,0,0,0,0,0,0,0,0,-1,965,1436,0,0
-252,-412,0,0,0,0,0,0,0,0,0,-1,972,1436,0,0
-245,-412,0,0,0,0,0,0,0,0,0,-1,979,1436,0,0
-238,-412,0,0,0,0,0,0,0,0,0,-1,986,1436,0,0
-231,-412,0,0,0,0,0,0,0,0,0,-1,993,1436,0,0
-224,-412,0,0,0,0,0,0,0,0,0,-1,1000,1436,0,0
-217,-412,0,0,0,0,0,0,0,0,0,-1,1007,1436,0,0
-210,-412,0,0,0,0,0,0,0,0,0,-1,1014,1436,0,0
-203,-412,0,0,0,0,0,0,0,0,0,-1,1021,1436,0,0
-196,-412,0,0,0,0,0,0,0,0,0,-1,1028,1436,0,0
-189,-412,0,0,0,0,0,0,0,0,0,-1,1035,1436,0,0
-182,-412,0,0,0,0,0,0,0,0,0,-1,1042,1436,0,0
-175,-412,0,0,0,0,0,0,0,0,0,-1,1049,1436,0,0
-168,-412,0,0,0,0,0,0,0,0,0,-1,1056,1436,0,0
-161,-412,0,0,0,0,0,0,0,0,0,-1,1063,1436,0,0
-154,-412,0,0,0,0,0,0,0,0,0,-1,1070,1436,0,0
-147,-412,0,0,0,0,0,0,0,0,0,-1,1077,1436,0,0
-140,-412,0,0,0,0,0,0,0,0,0,-1,1084,1436,0,0
-133,-412,0,0,0,0,0,0,0,0,0,-1,1091,1436,0,0
-126,-412,0,0,0,0,0,0,0,0,0,-1,1098,1436,0,0
-119,-412,0,0,0,0,0,0,0,0,0,-1,1105,1436,0,0
-112,-412,0,0,0,0,0,0,0,0,0,-1,1112,1436,0,0
-105,-412,0,0,0,0,0,0,0,0,0,-1,1119,1436,0,0
-98,-412,0,0,0,0,0,0,0,0,0,-1,1126,1436,0,0
-91,-412,0,0,0,0,0,0,0,0,0,-1,1133,1436,0,0
-84,-412,0,0,0,0,0,0,0,0,0,-1,1140,1436,0,0
-77,-412,0,0,0,0,0,0,0,0,0,-1,1147,1436,0,0
-70,-412,0,0,0,0,0,0,0,0,0,-1,1154,1436,0,0
-63,-412,0,0,0,0,0,0,0,0,0,-1,1161,1436,0,0
-56,-412,0,0,0,0,0,0,0,0,0,-1,1168,1436,0,0
-49,-412,0,0,0,0,0,0,0,0,0,-1,1175,1436,0,0
-42,-412,0,0,0,0,0,0,0,0,0,-1,1182,1436,0,0
-35,-412,0,0,0,0,0,0,0,0,0,-1,1189,1436,0,0
-28,-412,0,0,0,0,0,0,0,0,0,-1,1196,1436,0,0
-21,-412,0,0,0,0,0,0,0,0,0,-1,1203,1436,0,0
-14,-412,0,0,0,0,0,0,0,0,0,-1,1210,1436,0,0
-7,-412,0,0,0,0,0,0,0,0,0,-1,1217,1436,0,0
0,-412,0,0,0,0,0,0,0,0,0,-1,1224,1436,0,0
7,-412,0,0,0,0,0,0,0,0,0,-1,1231,1436,0,0
14,-412,0,0,0,0,0,0,0,0,0,-1,1238,1436,0,0
21,-412,0,0,0,0,0,0,0,0,0,-1,1245,1436,0,0
28,-412,0,0,0,0,0,0,0,0,0,-1,1252,1436,0,0
35,-412,0,0,0,0,0,0,0,0,0,-1,1259,1436,0,0
42,-412,0,0,0,0,0,0,0,0,0,-1,1266,1436,0,0
49,-412,0,0,0,0,0,0,0,0,0,-1,1273,1436,0,0
56,-412,0,0,0,0,0,0,0,0,0,-1,1280,1436,0,0
63,-412,0,0,0,0,0,0,0,0,0,-1,1287,1436,0,0
70,-412,0,0,0,0,0,0,0,0,0,-1,1294,1436,0,0
77,-412,0,0,0,0,0,0,0,0,0,-1,1301,1436,0,0
84,-412,0,0,0,0,0,0,0,0,0,-1,1308,1436,0,0
91,-412,0,0,0,0,0,0,0,0,0,-1,1315,1436,0,0
98,-412,0,0,0,0,0,0,0,0,0,-1,1322,1436,0,0
105,-412,0,0,0,0,0,0,0,0,0,-1,1329,1436,0,0
112,-412,0,0,0,0,0,0,0,0,0,-1,1336,1436,0,0
119,-412,0,0,0,0,0,0,0,0,0,-1,1343,1436,0,0
126,-412,0,0,0,0,0,0,0,0,0,-1,1350,1436,0,0
133,-412,0,0,0,0,0,0,0,0,0,-1,1357,1436,0,0
140,-412,0,0,0,0,0,0,0,0,0,-1,1364,1436,0,0
147,-412,0,0,0,0,0,0,0,0,0,-1,1371,1436,0,0
154,-412,0,0,0,0,0,0,0,0,0,-1,1378,1436,0,0
161,-412,0,0,0,0,0,0,0,0,0,-1,1385,1436,0,0
168,-412,0,0,0,0,0,0,0,0,0,-1,1392,1436,0,0
175,-412,0,0,0,0,0,0,0,0,0,-1,1399,1436,0,0
182,-412,0,0,0,0,0,0,0,0,0,-1,1406,1436,0,0
189,-412,0,0,0,0,0,0,0,0,0,-1,1413,1436,0,0
196,-412,0,0,0,0,0,0,0,0,0,-1,1420,1436,0,0
203,-412,0,0,0,0,0,0,0,0,0,-1,1427,1436,0,0
210,-412,0,0,0,0,0,0,0,0,0,-1,1434,1436,0,0
217,-412,0,0,0,0,0,0,0,0,0,-1,1441,1436,0,0
224,-412,0,0,0,0,0,0,0,0,0,-1,1448,1436,0,0
231,-412,0,0,0,0,0,0,0,0,0,-1,1455,1436,0,0
238,-412,0,0,0,0,0,0,0,0,0,-1,1462,1436,0,0
245,-412,0,0,0,0,0,0,0,0,0,-1,1469,1436,0,0
252,-412,0,0,0,0,0,0,0,0,0,-1,1476,1436,0,0
259,-412,0,0,0,0,0,0,0,0,0,-1,1483,1436,0,0
266,-412,0,0,0,0,0,0,0,0,0,-1,1490,1436,0,0
273,-412,0,0,0,0,0,0,0,0,0,-1,1497,1436,0,0
280,-412,0,0,0,0,0,0,0,0,0,-1,1504,1436,0,0
287,-412,0,0,0,0,0,0,0,0,0,-1,1511,1436,0,0
294,-412,0,0,0,0,0,0,0,0,0,-1,1518,1436,0,0
301,-412,0,0,0,0,0,0,0,0,0,-1,1525,1436,0,0
308,-412,0,0,0,0,0,0,0,0,0,-1,1532,1436,0,0
315,-412,0,0,0,0,0,0,0,0,0,-1,1539,1436,0,0
322,-412,0,0,0,0,0,0,0,0,0,-1,1546,1436,0,0
329,-412,0,0,0,0,0,0,0,0,0,-1,1553,1436,0,0
336,-412,0,0,0,0,0,0,0,0,0,-1,1560,1436,0,0
343,-412,0,0,0,0,0,0,0,0,0,-1,1567,1436,0,0
350,-412,0,0,0,0,0,0,0,0,0,-1,1574,1436,0,0
357,-412,0,0,0,0,0,0,0,0,0,-1,1581,1436,0,0
364,-412,0,0,0,0,0,0,0,0,0,-1,1588,1436,0,0
371,-412,0,0,0,0,0,0,0,0,0,-1,1595,1436,0,0
378,-412,0,0,0,0,0,0,0,0,0,-1,1602,1436,0,0
385,-412,0,0,0,0,0,0,0,0,0,-1,1609,1436,0,0
392,-412,0,0,0,0,0,0,0,0,0,-1,1616,1436,0,0
399,-412,0,0,0,0,0,0,0,0,0,-1,1623,1436,0,0
406,-412,0,0,0,0,0,0,0,0,0,-1,1630,1436,0,0
413,-412,0,0,0,0,0,0,0,0,0,-1,1637,1436,0,0
420,-412,0,0,0,0,0,0,0,0,0,-1,1644,1436,0,0
427,-412,0,0,0,0,0,0,0,0,0,-1,1651,1436,0,0
434,-412,0,0,0,0,0,0,0,0,0,-1,1658,1436,0,0
441,-412,0,0,0,0,0,0,0,0,0,-1,1665,1436,0,0
448,-412,0,0,0,0,0,0,0,0,0,-1,1672,1436,0,0
455,-412,0,0,0,0,0,0,0,0,0,-1,1679,1436,0,0
462,-412,0,0,0,0,0,0,0,0,0,-1,1686,1436,0,0
469,-412,0,0,0,0,0,0,0,0,0,-1,1693,1436,0,0
476,-412,0,0,0,0,0,0,0,0,0,-1,1700,1436,0,0
483,-412,0,0,0,0,0,0,0,0,0,-1,1707,1436,0,0
490,-412,0,0,0,0,0,0,0,0,0,-1,1714,1436,0,0
497,-412,0,0,0,0,0,0,0,0,0,-1,1721,1436,0,0
504,-412,0,0,0,0,0,0,0,0,0,-1,1728,1436,0,0
511,-412,0,0,0,0,0,0,0,0,0,-1,1735,1436,0,0
518,-412,30.1038,-2.43384,0,0,0,0,0,0,0,-1,1742,1436,30.1038,2.43383
525,-412,29.5283,-1.42493,0,0,0,0,0,0,0,-1,1749,1436,29.5283,1.42495
532,-412,28.8533,-0.386597,0,0,0,0,0,0,0,-1,1756,1436,28.8533,0.386632
539,-412,25.8654,2.74683,0,0,0,0,0,0,0,-1,1763,1436,25.8654,-2.74685
546,-412,25.4265,2.4342,0,0,0,0,0,0,0,-1,1770,1436,25.4265,-2.4342
553,-412,26.3595,7.49255,0,0,0,0,0,0,0,-1,1777,1436,26.3595,-7.4925
560,-412,24.9116,7.94324,0,0,0,0,0,0,0,-1,1784,1436,24.9116,-7.94327
567,-412,23.668,7.94531,0,0,0,0,0,0,0,-1,1791,1436,23.6679,-7.94534
574,-412,23.0142,9.17236,0,0,0,0,0,0,0,-1,1798,1436,23.0141,-9.17235
581,-412,22.2615,10.0349,0,0,0,0,0,0,0,-1,1805,1436,22.2615,-10.0349
588,-412,19.9309,10.0831,0,0,0,0,0,0,0,-1,1812,1436,19.931,-10.0832
595,-412,17.8949,11.5173,0,0,0,0,0,0,0,-1,1819,1436,17.8948,-11.5173
602,-412,17.5581,11.2751,-0.0130659,0.000199658,0.00527005,0.00203843,-0.0149047,1.23509,0.010681,0.0318214,1826,1436,17.5582,-11.2751
609,-412,17.329,11.0135,-0.00924953,-1.26344e-06,0.00365359,0.00126793,-0.0105187,1.23645,0.00747108,0.00989654,1833,1436,17.329,-11.0135
616,-412,17.3235,10.6947,-0.00651677,-0.000148985,0.00257367,0.000761138,-0.00742689,1.23089,0.00522349,0.00852492,1840,1436,17.3235,-10.6947
623,-412,17.2997,10.3854,-0.00426796,-0.000300385,0.0017132,0.000336988,-0.00490534,1.21463,0.00338814,0.009319,1847,1436,17.2996,-10.3854
630,-412,17.2927,10.0577,-0.0024942,-0.000308439,0.00103361,0.000102917,-0.00290556,1.19203,0.00197224,0.0105216,1854,1436,17.2927,-10.0578
637,-412,17.3057,9.72302,-0.00123122,-0.00018067,0.000582872,7.86909e-05,-0.00149058,1.15213,0.00102096,0.0130229,1861,1436,17.3057,-9.72307
644,-412,17.2932,9.44312,-0.000276839,-0.000170237,0.000315968,9.68942e-05,-0.00054397,0.868957,0.000398887,0.0151415,1868,1436,17.2932,-9.44317
651,-412,17.2516,9.15833,0.000535524,-0.000105332,9.0291e-05,0.000548002,-0.000117811,0.13733,0.000410282,0.0262147,1875,1436,17.2516,-9.15835
658,-412,17.2765,8.79321,0.000865593,8.45082e-05,6.7715e-05,0.00087142,7.86812e-05,0.0858402,0.000556576,0.0171704,1882,1436,17.2765,-8.79318
665,-412,17.2748,8.48328,0.000962186,0.000281363,0.000145159,0.000991844,0.000251706,0.201537,0.000595336,0.0210871,1889,1436,17.2747,-8.48322
672,-412,17.3031,8.17322,0.000973101,0.000431344,0.000346915,0.00114236,0.00026208,0.45393,0.000690987,0.0262225,1896,1436,17.3032,-8.17319
679,-412,17.3594,7.84326,0.000916968,0.000540473,0.000643365,0.00139906,5.83804e-05,0.643072,0.000913869,0.0368115,1903,1436,17.3594,-7.84329
686,-412,17.2753,7.45911,0,0,0,0,0,0,0,-1,1910,1436,17.2752,-7.45907
693,-412,11.9346,6.02344,0,0,0,0,0,0,0,-1,1917,1436,11.9346,-6.02343
700,-412,8.82764,5.8844,0,0,0,0,0,0,0,-1,1924,1436,8.82761,-5.88444
707,-412,6.59998,1.68994,0,0,0,0,0,0,0,-1,1931,1436,6.60002,-1.68995
714,-412,4.77283,-2.39832,0,0,0,0,0,0,0,-1,1938,1436,4.77288,2.39835
721,-412,0,0,0,0,0,0,0,0,0,-1,1945,1436,0,0
728,-412,0,0,0,0,0,0,0,0,0,-1,1952,1436,0,0
735,-412,0,0,0,0,0,0,0,0,0,-1,1959,1436,0,0
742,-412,0,0,0,0,0,0,0,0,0,-1,1966,1436,0,0
749,-412,0,0,0,0,0,0,0,0,0,-1,1973,1436,0,0
756,-412,0,0,0,0,0,0,0,0,0,-1,1980,1436,0,0
763,-412,0,0,0,0,0,0,0,0,0,-1,1987,1436,0,0
770,-412,0,0,0,0,0,0,0,0,0,-1,1994,1436,0,0
777,-412,0,0,0,0,0,0,0,0,0,-1,2001,1436,0,0
784,-412,0,0,0,0,0,0,0,0,0,-1,2008,1436,0,0
791,-412,0,0,0,0,0,0,0,0,0,-1,2015,1436,0,0
798,-412,0,0,0,0,0,0,0,0,0,-1,2022,1436,0,0
805,-412,0,0,0,0,0,0,0,0,0,-1,2029,1436,0,0
812,-412,0,0,0,0,0,0,0,0,0,-1,2036,1436,0,0
-700,-419,0,0,0,0,0,0,0,0,0,-1,524,1443,0,0
-693,-419,0,0,0,0,0,0,0,0,0,-1,531,1443,0,0
-686,-419,0,0,0,0,0,0,0,0,0,-1,538,1443,0,0
-679,-419,0,0,0,0,0,0,0,0,0,-1,545,1443,0,0
-672,-419,0,0,0,0,0,0,0,0,0,-1,552,1443,0,0
-665,-419,0,0,0,0,0,0,0,0,0,-1,559,1443,0,0
-658,-419,0,0,0,0,0,0,0,0,0,-1,566,1443,0,0
-651,-419,0,0,0,0,0,0,0,0,0,-1,573,1443,0,0
-644,-419,0,0,0,0,0,0,0,0,0,-1,580,1443,0,0
-637,-419,0,0,0,0,0,0,0,0,0,-1,587,1443,0,0
-630,-419,0,0,0,0,0,0,0,0,0,-1,594,1443,0,0
-623,-419,0,0,0,0,0,0,0,0,0,-1,601,1443,0,0
-616,-419,0,0,0,0,0,0,0,0,0,-1,608,1443,0,0
-609,-419,0,0,0,0,0,0,0,0,0,-1,615,1443,0,0
-602,-419,0,0,0,0,0,0,0,0,0,-1,622,1443,0,0
-595,-419,-11.4904,-0.622681,0,0,0,0,0,0,0,-1,629,1443,-11.4903,0.622714
-588,-419,-9.09369,0.742432,0,0,0,0,0,0,0,-1,636,1443,-9.09366,-0.742482
-581,-419,-6.39172,2.14673,0,0,0,0,0,0,0,-1,643,1443,-6.39175,-2.14668
-574,-419,-4.09772,3.54773,0,0,0,0,0,0,0,-1,650,1443,-4.09772,-3.54767
-567,-419,-6.14038,3.22498,0,0,0,0,0,0,0,-1,657,1443,-6.14037,-3.22497
-560,-419,-4.52814,5.22253,0,0,0,0,0,0,0,-1,664,1443,-4.52816,-5.22251
-553,-419,-5.08331,6.11829,0,0,0,0,0,0,0,-1,671,1443,-5.08331,-6.1183
-546,-419,-5.617,6.02527,0,0,0,0,0,0,0,-1,678,1443,-5.61701,-6.02521
-539,-419,-5.84833,6.18555,-0.00301601,0.00209597,0.00252594,0.00313351,-0.00405355,1.18105,0.00416077,0.040486,685,1443,-5.84836,-6.18559
-532,-419,-6.0777,6.56226,-0.00171392,0.00225352,0.00259755,0.0035382,-0.0029986,1.1115,0.00377831,0.0181632,692,1443,-6.07769,-6.56221
-525,-419,-6.06219,6.96204,-0.000508725,0.00218652,0.00256319,0.00373476,-0.00205697,1.02742,0.0033903,0.0128697,699,1443,-6.0622,-6.96201
-518,-419,-6.03229,7.30151,0.000304542,0.00188096,0.00230528,0.00352906,-0.00134355,0.950126,0.002906,0.0165375,706,1443,-6.03229,-7.30154
-511,-419,-6.03259,7.65198,0.000386484,0.0013458,0.00157985,0.0025172,-0.000784922,0.93278,0.00199201,0.0194767,713,1443,-6.03262,-7.65199
-504,-419,-6.07452,8.00171,-4.7812e-05,0.000375647,0.000445902,0.000657535,-0.0003297,1.00705,0.000580361,0.0193897,720,1443,-6.07454,-8.00175
-497,-419,-6.09991,8.34204,-0.000762131,-0.000591223,-0.000825189,0.000152925,-0.00150628,-0.836993,0.00105885,0.0139689,727,1443,-6.09989,-8.34204
-490,-419,-6.09808,8.68652,-0.00204467,-0.00187959,-0.00265401,0.000693162,-0.00461741,-0.800943,0.00333344,0.0114522,734,1443,-6.0981,-8.68657
-483,-419,-6.08453,9.03784,-0.00379877,-0.00373347,-0.00514796,0.00138194,-0.00891418,-0.788569,0.00645295,0.00964881,741,1443,-6.08452,-9.03782
-476,-419,-6.08069,9.40137,-0.00620482,-0.00624087,-0.00824694,0.00202411,-0.0144698,-0.784305,0.0103872,0.0107374,748,1443,-6.08067,-9.40131
-469,-419,-6.04626,9.82068,-0.00893833,-0.00893306,-0.0117109,0.00277521,-0.0206466,-0.785511,0.0147766,0.0172285,755,1443,-6.04624,-9.82073
-462,-419,-5.97687,10.0685,-0.0121397,-0.0129996,-0.0165895,0.0040254,-0.0291647,-0.772442,0.0209145,0.0367937,762,1443,-5.97685,-10.0685
-455,-419,-6.37268,9.85938,-0.0162478,-0.0186559,-0.0231883,0.00576773,-0.0406714,-0.759459,0.0292272,0.0457315,769,1443,-6.37267,-9.85936
-448,-419,-7.07666,9.24561,0,0,0,0,0,0,0,-1,776,1443,-7.07666,-9.24562
-441,-419,-7.14221,8.61853,0,0,0,0,0,0,0,-1,783,1443,-7.14224,-8.61851
-434,-419,-7.78229,8.85327,0,0,0,0,0,0,0,-1,790,1443,-7.78229,-8.85325
-427,-419,-8.23193,7.89404,0,0,0,0,0,0,0,-1,797,1443,-8.23193,-7.89404
-420,-419,-8.74091,6.36597,0,0,0,0,0,0,0,-1,804,1443,-8.74089,-6.366
-413,-419,-9.88391,6.53955,0,0,0,0,0,0,0,-1,811,1443,-9.8839,-6.53955
-406,-419,-10.3372,2.75195,0,0,0,0,0,0,0,-1,818,1443,-10.3372,-2.75201
-399,-419,-11.5999,1.40002,0,0,0,0,0,0,0,-1,825,1443,-11.5999,-1.39998
-392,-419,0,0,0,0,0,0,0,0,0,-1,832,1443,0,0
-385,-419,0,0,0,0,0,0,0,0,0,-1,839,1443,0,0
-378,-419,0,0,0,0,0,0,0,0,0,-1,846,1443,0,0
-371,-419,0,0,0,0,0,0,0,0,0,-1,853,1443,0,0
-364,-419,0,0,0,0,0,0,0,0,0,-1,860,1443,0,0
-357,-419,0,0,0,0,0,0,0,0,0,-1,867,1443,0,0
-350,-419,0,0,0,0,0,0,0,0,0,-1,874,1443,0,0
-343,-419,0,0,0,0,0,0,0,0,0,-1,881,1443,0,0
-336,-419,0,0,0,0,0,0,0,0,0,-1,888,1443,0,0
-329,-419,0,0,0,0,0,0,0,0,0,-1,895,1443,0,0
-322,-419,0,0,0,0,0,0,0,0,0,-1,902,1443,0,0
-315,-419,0,0,0,0,0,0,0,0,0,-1,909,1443,0,0
-308,-419,0,0,0,0,0,0,0,0,0,-1,916,1443,0,0
-301,-419,0,0,0,0,0,0,0,0,0,-1,923,1443,0,0
-294,-419,0,0,0,0,0,0,0,0,0,-1,930,1443,0,0
-287,-419,0,0,0,0,0,0,0,0,0,-1,937,1443,0,0
-280,-419,0,0,0,0,0,0,0,0,0,-1,944,1443,0,0
-273,-419,0,0,0,0,0,0,0,0,0,-1,951,1443,0,0
-266,-419,0,0,0,0,0,0,0,0,0,-1,958,1443,0,0
-259,-419,0,0,0,0,0,0,0,0,0,-1,965,1443,0,0
-252,-419,0,0,0,0,0,0,0,0,0,-1,972,1443,0,0
-245,-419,0,0,0,0,0,0,0,0,0,-1,979,1443,0,0
-238,-419,0,0,0,0,0,0,0,0,0,-1,986,1443,0,0
-231,-419,0,0,0,0,0,0,0,0,0,-1,993,1443,0,0
-224,-419,0,0,0,0,0,0,0,0,0,-1,1000,1443,0,0
-217,-419,0,0,0,0,0,0,0,0,0,-1,1007,1443,0,0
-210,-419,0,0,0,0,0,0,0,0,0,-1,1014,1443,0,0
-203,-419,0,0,0,0,0,0,0,0,0,-1,1021,1443,0,0
-196,-419,0,0,0,0,0,0,0,0,0,-1,1028,1443,0,0
-189,-419,0,0,0,0,0,0,0,0,0,-1,1035,1443,0,0
-182,-419,0,0,0,0,0,0,0,0,0,-1,1042,1443,0,0
-175,-419,0,0,0,0,0,0,0,0,0,-1,1049,1443,0,0
-168,-419,0,0,0,0,0,0,0,0,0,-1,1056,1443,0,0
-161,-419,0,0,0,0,0,0,0,0,0,-1,1063,1443,0,0
-154,-419,0,0,0,0,0,0,0,0,0,-1,1070,1443,0,0
-147,-419,0,0,0,0,0,0,0,0,0,-1,1077,1443,0,0
-140,-419,0,0,0,0,0,0,0,0,0,-1,1084,1443,0,0
-133,-419,0,0,0,0,0,0,0,0,0,-1,1091,1443,0,0
-126,-419,0,0,0,0,0,0,0,0,0,-1,1098,1443,0,0
-119,-419,0,0,0,0,0,0,0,0,0,-1,1105,1443,0,0
-112,-419,0,0,0,0,0,0,0,0,0,-1,1112,1443,0,0
-105,-419,0,0,0,0,0,0,0,0,0,-1,1119,1443,0,0
-98,-419,0,0,0,0,0,0,0,0,0,-1,1126,1443,0,0
-91,-419,0,0,0,0,0,0,0,0,0,-1,1133,1443,0,0
-84,-419,0,0,0,0,0,0,0,0,0,-1,1140,1443,0,0
-77,-419,0,0,0,0,0,0,0,0,0,-1,1147,1443,0,0
-70,-419,0,0,0,0,0,0,0,0,0,-1,1154,1443,0,0
-63,-419,0,0,0,0,0,0,0,0,0,-1,1161,1443,0,0
-56,-419,0,0,0,0,0,0,0,0,0,-1,1168,1443,0,0
-49,-419,0,0,0,0,0,0,0,0,0,-1,1175,1443,0,0
-42,-419,0,0,0,0,0,0,0,0,0,-1,1182,1443,0,0
-35,-419,0,0,0,0,0,0,0,0,0,-1,1189,1443,0,0
-28,-419,0,0,0,0,0,0,0,0,0,-1,1196,1443,0,0
-21,-419,0,0,0,0,0,0,0,0,0,-1,1203,1443,0,0
-14,-419,0,0,0,0,0,0,0,0,0,-1,1210,1443,0,0
-7,-419,0,0,0,0,0,0,0,0,0,-1,1217,1443,0,0
0,-419,0,0,0,0,0,0,0,0,0,-1,1224,1443,0,0
7,-419,0,0,0,0,0,0,0,0,0,-1,1231,1443,0,0
14,-419,0,0,0,0,0,0,0,0,0,-1,1238,1443,0,0
21,-419,0,0,0,0,0,0,0,0,0,-1,1245,1443,0,0
28,-419,0,0,0,0,0,0,0,0,0,-1,1252,1443,0,0
35,-419,0,0,0,0,0,0,0,0,0,-1,1259,1443,0,0
42,-419,0,0,0,0,0,0,0,0,0,-1,1266,1443,0,0
49,-419,0,0,0,0,0,0,0,0,0,-1,1273,1443,0,0
56,-419,0,0,0,0,0,0,0,0,0,-1,1280,1443,0,0
63,-419,0,0,0,0,0,0,0,0,0,-1,1287,1443,0,0
70,-419,0,0,0,0,0,0,0,0,0,-1,1294,1443,0,0
77,-419,0,0,0,0,0,0,0,0,0,-1,1301,1443,0,0
84,-419,0,0,0,0,0,0,0,0,0,-1,1308,1443,0,0
91,-419,0,0,0,0,0,0,0,0,0,-1,1315,1443,0,0
98,-419,0,0,0,0,0,0,0,0,0,-1,1322,1443,0,0
105,-419,0,0,0,0,0,0,0,0,0,-1,1329,1443,0,0
112,-419,0,0,0,0,0,0,0,0,0,-1,1336,1443,0,0
119,-419,0,0,0,0,0,0,0,0,0,-1,1343,1443,0,0
126,-419,0,0,0,0,0,0,0,0,0,-1,1350,1443,0,0
133,-419,0,0,0,0,0,0,0,0,0,-1,1357,1443,0,0
140,-419,0,0,0,0,0,0,0,0,0,-1,1364,1443,0,0
147,-419,0,0,0,0,0,0,0,0,0,-1,1371,1443,0,0
154,-419,0,0,0,0,0,0,0,0,0,-1,1378,1443,0,0
161,-419,0,0,0,0,0,0,0,0,0,-1,1385,1443,0,0
168,-419,0,0,0,0,0,0,0,0,0,-1,1392,1443,0,0
175,-419,0,0,0,0,0,0,0,0,0,-1,1399,1443,0,0
182,-419,0,0,0,0,0,0,0,0,0,-1,1406,1443,0,0
189,-419,0,0,0,0,0,0,0,0,0,-1,1413,1443,0,0
196,-419,0,0,0,0,0,0,0,0,0,-1,1420,1443,0,0
203,-419,0,0,0,0,0,0,0,0,0,-1,1427,1443,0,0
210,-419,0,0,0,0,0,0,0,0,0,-1,1434,1443,0,0
217,-419,0,0,0,0,0,0,0,0,0,-1,1441,1443,0,0
224,-419,0,0,0,0,0,0,0,0,0,-1,1448,1443,0,0
231,-419,0,0,0,0,0,0,0,0,0,-1,1455,1443,0,0
238,-419,0,0,0,0,0,0,0,0,0,-1,1462,1443,0,0
245,-419,0,0,0,0,0,0,0,0,0,-1,1469,1443,0,0
252,-419,0,0,0,0,0,0,0,0,0,-1,1476,1443,0,0
259,-419,0,0,0,0,0,0,0,0,0,-1,1483,1443,0,0
266,-419,0,0,0,0,0,0,0,0,0,-1,1490,1443,0,0
273,-419,0,0,0,0,0,0,0,0,0,-1,1497,1443,0,0
280,-419,0,0,0,0,0,0,0,0,0,-1,1504,1443,0,0
287,-419,0,0,0,0,0,0,0,0,0,-1,1511,1443,0,0
294,-419,0,0,0,0,0,0,0,0,0,-1,1518,1443,0,0
301,-419,0,0,0,0,0,0,0,0,0,-1,1525,1443,0,0
308,-419,0,0,0,0,0,0,0,0,0,-1,1532,1443,0,0
315,-419,0,0,0,0,0,0,0,0,0,-1,1539,1443,0,0
322,-419,0,0,0,0,0,0,0,0,0,-1,1546,1443,0,0
329,-419,0,0,0,0,0,0,0,0,0,-1,1553,1443,0,0
336,-419,0,0,0,0,0,0,0,0,0,-1,1560,1443,0,0
343,-419,0,0,0,0,0,0,0,0,0,-1,1567,1443,0,0
350,-419,0,0,0,0,0,0,0,0,0,-1,1574,1443,0,0
357,-419,0,0,0,0,0,0,0,0,0,-1,1581,1443,0,0
364,-419,0,0,0,0,0,0,0,0,0,-1,1588,1443,0,0
371,-419,0,0,0,0,0,0,0,0,0,-1,1595,1443,0,0
378,-419,0,0,0,0,0,0,0,0,0,-1,1602,1443,0,0
385,-419,0,0,0,0,0,0,0,0,0,-1,1609,1443,0,0
392,-419,0,0,0,0,0,0,0,0,0,-1,1616,1443,0,0
399,-419,0,0,0,0,0,0,0,0,0,-1,1623,1443,0,0
406,-419,0,0,0,0,0,0,0,0,0,-1,1630,1443,0,0
413,-419,0,0,0,0,0,0,0,0,0,-1,1637,1443,0,0
420,-419,0,0,0,0,0,0,0,0,0,-1,1644,1443,0,0
427,-419,0,0,0,0,0,0,0,0,0,-1,1651,1443,0,0
434,-419,0,0,0,0,0,0,0,0,0,-1,1658,1443,0,0
441,-419,0,0,0,0,0,0,0,0,0,-1,1665,1443,0,0
448,-419,0,0,0,0,0,0,0,0,0,-1,1672,1443,0,0
455,-419,0,0,0,0,0,0,0,0,0,-1,1679,1443,0,0
462,-419,0,0,0,0,0,0,0,0,0,-1,1686,1443,0,0
469,-419,0,0,0,0,0,0,0,0,0,-1,1693,1443,0,0
476,-419,0,0,0,0,0,0,0,0,0,-1,1700,1443,0,0
483,-419,0,0,0,0,0,0,0,0,0,-1,1707,1443,0,0
490,-419,0,0,0,0,0,0,0,0,0,-1,1714,1443,0,0
497,-419,0,0,0,0,0,0,0,0,0,-1,1721,1443,0,0
504,-419,0,0,0,0,0,0,0,0,0,-1,1728,1443,0,0
511,-419,20.3005,3.7959,0,0,0,0,0,0,0,-1,1735,1443,20.3005,-3.79584
518,-419,21.3154,2.03027,0,0,0,0,0,0,0,-1,1742,1443,21.3155,-2.03029
525,-419,28.3439,-1.24475,0,0,0,0,0,0,0,-1,1749,1443,28.3438,1.24471
532,-419,27.5902,-0.272583,0,0,0,0,0,0,0,-1,1756,1443,27.5902,0.272526
539,-419,26.5278,1.60583,0,0,0,0,0,0,0,-1,1763,1443,26.5279,-1.60579
546,-419,24.9509,2.77539,0,0,0,0,0,0,0,-1,1770,1443,24.9509,-2.77537
553,-419,24.118,3.75525,0,0,0,0,0,0,0,-1,1777,1443,24.1181,-3.75526
560,-419,11.8199,8.26343,0,0,0,0,0,0,0,-1,1784,1443,11.82,-8.26341
567,-419,21.5143,8.74719,0,0,0,0,0,0,0,-1,1791,1443,21.5143,-8.74722
574,-419,19.5886,6.46155,0,0,0,0,0,0,0,-1,1798,1443,19.5886,-6.46157
581,-419,20.7926,11.4265,0,0,0,0,0,0,0,-1,1805,1443,20.7926,-11.4265
588,-419,18.4677,12.2391,0,0,0,0,0,0,0,-1,1812,1443,18.4676,-12.2391
595,-419,17.7719,11.7633,-0.0146639,-7.21083e-06,0.00633615,0.00235214,-0.0170232,1.21434,0.0122086,0.0469598,1819,1443,17.7719,-11.7633
602,-419,17.0355,11.3525,-0.0108224,-1.06976e-05,0.0045163,0.00162761,-0.0124607,1.22281,0.00889944,0.0168669,1826,1443,17.0356,-11.3525
609,-419,17.0002,11.0222,-0.00785666,-4.22682e-05,0.00317994,0.00108821,-0.00898714,1.22923,0.00638515,0.0111978,1833,1443,17.0003,-11.0222
616,-419,16.9939,10.708,-0.00561056,-0.000116387,0.00226351,0.000696016,-0.00642296,1.2262,0.00453183,0.0124725,1840,1443,16.9938,-10.7081
623,-419,17.0029,10.3984,-0.00367885,-0.00027095,0.00152504,0.000311842,-0.00426165,1.20577,0.00295054,0.0101382,1847,1443,17.0029,-10.3984
630,-419,16.9937,10.077,-0.00210859,-0.000285817,0.000925955,0.000102034,-0.00249644,1.17413,0.00169933,0.0118157,1854,1443,16.9937,-10.0771
637,-419,16.9762,9.76111,-0.000972711,-0.000157589,0.000545049,0.000115427,-0.00124573,1.10643,0.000871511,0.0131412,1861,1443,16.9762,-9.76109
644,-419,16.9761,9.4707,-7.28228e-05,-0.000158167,0.000322939,0.000210251,-0.000441241,0.71971,0.000383939,0.0118293,1868,1443,16.9761,-9.47073
651,-419,16.9785,9.18103,0.000629832,-7.01989e-05,0.000165544,0.000667006,-0.000107373,0.220893,0.000484445,0.0117529,1875,1443,16.9785,-9.18107
658,-419,16.9487,8.81775,0.000885598,0.000120389,0.000179223,0.000925495,8.04921e-05,0.219037,0.000591993,0.0133673,1882,1443,16.9487,-8.8178
665,-419,16.9624,8.51294,0.000978751,0.000352653,0.000276941,0.00108367,0.000247736,0.362137,0.000655658,0.0198328,1889,1443,16.9625,-8.51291
672,-419,17.022,8.17212,0.000977462,0.000543904,0.000505643,0.00131084,0.00021053,0.582889,0.000812853,0.0263562,1896,1443,17.022,-8.17217
679,-419,17.1633,7.87683,0,0,0,0,0,0,0,-1,1903,1443,17.1633,-7.87681
686,-419,15.7267,7.26367,0,0,0,0,0,0,0,-1,1910,1443,15.7266,-7.26371
693,-419,8.76086,5.60535,0,0,0,0,0,0,0,-1,1917,1443,8.76091,-5.6054
700,-419,11.0498,4.85156,0,0,0,0,0,0,0,-1,1924,1443,11.0498,-4.85153
707,-419,9.5752,1.80042,0,0,0,0,0,0,0,-1,1931,1443,9.57523,-1.80037
714,-419,5.77576,-1.25061,0,0,0,0,0,0,0,-1,1938,1443,5.7757,1.25056
721,-419,0,0,0,0,0,0,0,0,0,-1,1945,1443,0,0
728,-419,0,0,0,0,0,0,0,0,0,-1,1952,1443,0,0
735,-419,0,0,0,0,0,0,0,0,0,-1,1959,1443,0,0
742,-419,0,0,0,0,0,0,0,0,0,-1,1966,1443,0,0
749,-419,0,0,0,0,0,0,0,0,0,-1,1973,1443,0,0
756,-419,0,0,0,0,0,0,0,0,0,-1,1980,1443,0,0
763,-419,0,0,0,0,0,0,0,0,0,-1,1987,1443,0,0
770,-419,0,0,0,0,0,0,0,0,0,-1,1994,1443,0,0
777,-419,0,0,0,0,0,0,0,0,0,-1,2001,1443,0,0
784,-419,0,0,0,0,0,0,0,0,0,-1,2008,1443,0,0
791,-419,0,0,0,0,0,0,0,0,0,-1,2015,1443,0,0
798,-419,0,0,0,0,0,0,0,0,0,-1,2022,1443,0,0
805,-419,0,0,0,0,0,0,0,0,0,-1,2029,1443,0,0
812,-419,0,0,0,0,0,0,0,0,0,-1,2036,1443,0,0
-700,-426,0,0,0,0,0,0,0,0,0,-1,524,1450,0,0
-693,-426,0,0,0,0,0,0,0,0,0,-1,531,1450,0,0
-686,-426,0,0,0,0,0,0,0,0,0,-1,538,1450,0,0
-679,-426,0,0,0,0,0,0,0,0,0,-1,545,1450,0,0
-672,-426,0,0,0,0,0,0,0,0,0,-1,552,1450,0,0
-665,-426,0,0,0,0,0,0,0,0,0,-1,559,1450,0,0
-658,-426,0,0,0,0,0,0,0,0,0,-1,566,1450,0,0
-651,-426,0,0,0,0,0,0,0,0,0,-1,573,1450,0,0
-644,-426,0,0,0,0,0,0,0,0,0,-1,580,1450,0,0
-637,-426,0,0,0,0,0,0,0,0,0,-1,587,1450,0,0
-630,-426,0,0,0,0,0,0,0,0,0,-1,594,1450,0,0
-623,-426,0,0,0,0,0,0,0,0,0,-1,601,1450,0,0
-616,-426,0,0,0,0,0,0,0,0,0,-1,608,1450,0,0
-609,-426,0,0,0,0,0,0,0,0,0,-1,615,1450,0,0
-602,-426,0,0,0,0,0,0,0,0,0,-1,622,1450,0,0
-595,-426,0,0,0,0,0,0,0,0,0,-1,629,1450,0,0
-588,-426,-10.184,-0.554321,0,0,0,0,0,0,0,-1,636,1450,-10.184,0.554321
-581,-426,-7.3349,1.48157,0,0,0,0,0,0,0,-1,643,1450,-7.33491,-1.48152
-574,-426,-5.02856,2.89319,0,0,0,0,0,0,0,-1,650,1450,-5.02858,-2.89319
-567,-426,-3.04797,1.72644,0,0,0,0,0,0,0,-1,657,1450,-3.04797,-1.72639
-560,-426,-5.55682,3.44397,0,0,0,0,0,0,0,-1,664,1450,-5.55684,-3.44399
-553,-426,-4.67017,6.66614,0,0,0,0,0,0,0,-1,671,1450,-4.67015,-6.66619
-546,-426,-5.18811,5.90222,0,0,0,0,0,0,0,-1,678,1450,-5.18814,-5.90228
-539,-426,-5.35663,6.30261,-0.000264102,0.00551397,0.00674665,0.00996413,-0.00471426,0.987695,0.00865337,0.044562,685,1450,-5.35661,-6.30259
-532,-426,-5.64307,6.59949,0.000596028,0.00499205,0.00605912,0.00923952,-0.00365144,0.959397,0.00767215,0.0335071,692,1450,-5.64305,-6.59946
-525,-426,-5.72827,6.93982,0.00137506,0.00431877,0.00532631,0.00837285,-0.00267902,0.920202,0.00665709,0.015959,699,1450,-5.72825,-6.9398
-518,-426,-5.69904,7.3053,0.00181587,0.00351498,0.00447119,0.00721661,-0.00188575,0.879282,0.00554754,0.0159789,706,1450,-5.69906,-7.30526
-511,-426,-5.70477,7.6554,0.00163913,0.00260802,0.00332167,0.00548039,-0.00123324,0.85781,0.00412656,0.0157498,713,1450,-5.70477,-7.65538
-504,-426,-5.73676,8.00635,0.00097901,0.00139561,0.00185078,0.00304978,-0.00067516,0.841435,0.00229163,0.0156146,720,1450,-5.73675,-8.00629
-497,-426,-5.74133,8.34216,0.000145795,0.000281518,0.000346356,0.000566598,-0.000139285,0.882138,0.000431716,0.0125582,727,1450,-5.74135,-8.3422
-490,-426,-5.75189,8.69727,-0.00106854,-0.00102665,-0.00154242,0.00049497,-0.00259016,-0.792186,0.00191323,0.0121419,734,1450,-5.75186,-8.69732
-483,-426,-5.73651,9.05188,-0.00248762,-0.00279903,-0.00391753,0.0012773,-0.00656395,-0.765536,0.00485803,0.0113838,741,1450,-5.73649,-9.05192
-476,-426,-5.74072,9.39734,-0.00426979,-0.00510704,-0.00664596,0.00197072,-0.0113475,-0.753945,0.00830029,0.00970365,748,1450,-5.74072,-9.39738
-469,-426,-5.76758,9.7356,-0.00609662,-0.00740597,-0.00950156,0.00277279,-0.0162754,-0.751002,0.0118828,0.00895477,755,1450,-5.76756,-9.73561
-462,-426,-5.63751,10.1864,-0.00790489,-0.0107431,-0.0132613,0.00401301,-0.022661,-0.732095,0.0166074,0.0207944,762,1450,-5.63751,-10.1864
-455,-426,-5.77814,10.2166,-0.0100417,-0.0153949,-0.0181991,0.00567654,-0.0311131,-0.712384,0.0228703,0.0442019,769,1450,-5.77811,-10.2165
-448,-426,-5.70386,9.47522,0,0,0,0,0,0,0,-1,776,1450,-5.70383,-9.47516
-441,-426,-6.29132,9.3999,0,0,0,0,0,0,0,-1,783,1450,-6.29132,-9.39984
-434,-426,-6.38507,9.59192,0,0,0,0,0,0,0,-1,790,1450,-6.38509,-9.59193
-427,-426,-4.58551,8.85742,0,0,0,0,0,0,0,-1,797,1450,-4.58551,-8.85737
-420,-426,-5.33765,7.95044,0,0,0,0,0,0,0,-1,804,1450,-5.33766,-7.95041
-413,-426,-10.1148,5.0415,0,0,0,0,0,0,0,-1,811,1450,-10.1148,-5.04152
-406,-426,-11.4199,3.6438,0,0,0,0,0,0,0,-1,818,1450,-11.4198,-3.64382
-399,-426,-12.7595,2.29004,0,0,0,0,0,0,0,-1,825,1450,-12.7595,-2.29003
-392,-426,-12.4147,0.537354,0,0,0,0,0,0,0,-1,832,1450,-12.4147,-0.53731
-385,-426,0,0,0,0,0,0,0,0,0,-1,839,1450,0,0
-378,-426,0,0,0,0,0,0,0,0,0,-1,846,1450,0,0
-371,-426,0,0,0,0,0,0,0,0,0,-1,853,1450,0,0
-364,-426,0,0,0,0,0,0,0,0,0,-1,860,1450,0,0
-357,-426,0,0,0,0,0,0,0,0,0,-1,867,1450,0,0
-350,-426,0,0,0,0,0,0,0,0,0,-1,874,1450,0,0
-343,-426,0,0,0,0,0,0,0,0,0,-1,881,1450,0,0
-336,-426,0,0,0,0,0,0,0,0,0,-1,888,1450,0,0
-329,-426,0,0,0,0,0,0,0,0,0,-1,895,1450,0,0
-322,-426,0,0,0,0,0,0,0,0,0,-1,902,1450,0,0
-315,-426,0,0,0,0,0,0,0,0,0,-1,909,1450,0,0
-308,-426,0,0,0,0,0,0,0,0,0,-1,916,1450,0,0
-301,-426,0,0,0,0,0,0,0,0,0,-1,923,1450,0,0
-294,-426,0,0,0,0,0,0,0,0,0,-1,930,1450,0,0
-287,-426,0,0,0,0,0,0,0,0,0,-1,937,1450,0,0
-280,-426,0,0,0,0,0,0,0,0,0,-1,944,1450,0,0
-273,-426,0,0,0,0,0,0,0,0,0,-1,951,1450,0,0
-266,-426,0,0,0,0,0,0,0,0,0,-1,958,1450,0,0
-259,-426,0,0,0,0,0,0,0,0,0,-1,965,1450,0,0
-252,-426,0,0,0,0,0,0,0,0,0,-1,972,1450,0,0
-245,-426,0,0,0,0,0,0,0,0,0,-1,979,1450,0,0
-238,-426,0,0,0,0,0,0,0,0,0,-1,986,1450,0,0
-231,-426,0,0,0,0,0,0,0,0,0,-1,993,1450,0,0
-224,-426,0,0,0,0,0,0,0,0,0,-1,1000,1450,0,0
-217,-426,0,0,0,0,0,0,0,0,0,-1,1007,1450,0,0
-210,-426,0,0,0,0,0,0,0,0,0,-1,1014,1450,0,0
-203,-426,0,0,0,0,0,0,0,0,0,-1,1021,1450,0,0
-196,-426,0,0,0,0,0,0,0,0,0,-1,1028,1450,0,0
-189,-426,0,0,0,0,0,0,0,0,0,-1,1035,1450,0,0
-182,-426,0,0,0,0,0,0,0,0,0,-1,1042,1450,0,0
-175,-426,0,0,0,0,0,0,0,0,0,-1,1049,1450,0,0
-168,-426,0,0,0,0,0,0,0,0,0,-1,1056,1450,0,0
-161,-426,0,0,0,0,0,0,0,0,0,-1,1063,1450,0,0
-154,-426,0,0,0,0,0,0,0,0,0,-1,1070,1450,0,0
-147,-426,0,0,0,0,0,0,0,0,0,-1,1077,1450,0,0
-140,-426,0,0,0,0,0,0,0,0,0,-1,1084,1450,0,0
-133,-426,0,0,0,0,0,0,0,0,0,-1,1091,1450,0,0
-126,-426,0,0,0,0,0,0,0,0,0,-1,1098,1450,0,0
-119,-426,0,0,0,0,0,0,0,0,0,-1,1105,1450,0,0
-112,-426,0,0,0,0,0,0,0,0,0,-1,1112,1450,0,0
-105,-426,0,0,0,0,0,0,0,0,0,-1,1119,1450,0,0
-98,-426,0,0,0,0,0,0,0,0,0,-1,1126,1450,0,0
-91,-426,0,0,0,0,0,0,0,0,0,-1,1133,1450,0,0
-84,-426,0,0,0,0,0,0,0,0,0,-1,1140,1450,0,0
-77,-426,0,0,0,0,0,0,0,0,0,-1,1147,1450,0,0
-70,-426,0,0,0,0,0,0,0,0,0,-1,1154,1450,0,0
-63,-426,0,0,0,0,0,0,0,0,0,-1,1161,1450,0,0
-56,-426,0,0,0,0,0,0,0,0,0,-1,1168,1450,0,0
-49,-426,0,0,0,0,0,0,0,0,0,-1,1175,1450,0,0
-42,-426,0,0,0,0,0,0,0,0,0,-1,1182,1450,0,0
-35,-426,0,0,0,0,0,0,0,0,0,-1,1189,1450,0,0
-28,-426,0,0,0,0,0,0,0,0,0,-1,1196,1450,0,0
-21,-426,0,0,0,0,0,0,0,0,0,-1,1203,1450,0,0
-14,-426,0,0,0,0,0,0,0,0,0,-1,1210,1450,0,0
-7,-426,0,0,0,0,0,0,0,0,0,-1,1217,1450,0,0
0,-426,0,0,0,0,0,0,0,0,0,-1,1224,1450,0,0
7,-426,0,0,0,0,0,0,0,0,0,-1,1231,1450,0,0
14,-426,0,0,0,0,0,0,0,0,0,-1,1238,1450,0,0
21,-426,0,0,0,0,0,0,0,0,0,-1,1245,1450,0,0
28,-426,0,0,0,0,0,0,0,0,0,-1,1252,1450,0,0
35,-426,0,0,0,0,0,0,0,0,0,-1,1259,1450,0,0
42,-426,0,0,0,0,0,0,0,0,0,-1,1266,1450,0,0
49,-426,0,0,0,0,0,0,0,0,0,-1,1273,1450,0,0
56,-426,0,0,0,0,0,0,0,0,0,-1,1280,1450,0,0
63,-426,0,0,0,0,0,0,0,0,0,-1,1287,1450,0,0
70,-426,0,0,0,0,0,0,0,0,0,-1,1294,1450,0,0
77,-426,0,0,0,0,0,0,0,0,0,-1,1301,1450,0,0
84,-426,0,0,0,0,0,0,0,0,0,-1,1308,1450,0,0
91,-426,0,0,0,0,0,0,0,0,0,-1,1315,1450,0,0
98,-426,0,0,0,0,0,0,0,0,0,-1,1322,1450,0,0
105,-426,0,0,0,0,0,0,0,0,0,-1,1329,1450,0,0
112,-426,0,0,0,0,0,0,0,0,0,-1,1336,1450,0,0
119,-426,0,0,0,0,0,0,0,0,0,-1,1343,1450,0,0
126,-426,0,0,0,0,0,0,0,0,0,-1,1350,1450,0,0
133,-426,0,0,0,0,0,0,0,0,0,-1,1357,1450,0,0
140,-426,0,0,0,0,0,0,0,0,0,-1,1364,1450,0,0
147,-426,0,0,0,0,0,0,0,0,0,-1,1371,1450,0,0
154,-426,0,0,0,0,0,0,0,0,0,-1,1378,1450,0,0
161,-426,0,0,0,0,0,0,0,0,0,-1,1385,1450,0,0
168,-426,0,0,0,0,0,0,0,0,0,-1,1392,1450,0,0
175,-426,0,0,0,0,0,0,0,0,0,-1,1399,1450,0,0
182,-426,0,0,0,0,0,0,0,0,0,-1,1406,1450,0,0
189,-426,0,0,0,0,0,0,0,0,0,-1,1413,1450,0,0
196,-426,0,0,0,0,0,0,0,0,0,-1,1420,1450,0,0
203,-426,0,0,0,0,0,0,0,0,0,-1,1427,1450,0,0
210,-426,0,0,0,0,0,0,0,0,0,-1,1434,1450,0,0
217,-426,0,0,0,0,0,0,0,0,0,-1,1441,1450,0,0
224,-426,0,0,0,0,0,0,0,0,0,-1,1448,1450,0,0
231,-426,0,0,0,0,0,0,0,0,0,-1,1455,1450,0,0
238,-426,0,0,0,0,0,0,0,0,0,-1,1462,1450,0,0
245,-426,0,0,0,0,0,0,0,0,0,-1,1469,1450,0,0
252,-426,0,0,0,0,0,0,0,0,0,-1,1476,1450,0,0
259,-426,0,0,0,0,0,0,0,0,0,-1,1483,1450,0,0
266,-426,0,0,0,0,0,0,0,0,0,-1,1490,1450,0,0
273,-426,0,0,0,0,0,0,0,0,0,-1,1497,1450,0,0
280,-426,0,0,0,0,0,0,0,0,0,-1,1504,1450,0,0
287,-426,0,0,0,0,0,0,0,0,0,-1,1511,1450,0,0
294,-426,0,0,0,0,0,0,0,0,0,-1,1518,1450,0,0
301,-426,0,0,0,0,0,0,0,0,0,-1,1525,1450,0,0
308,-426,0,0,0,0,0,0,0,0,0,-1,1532,1450,0,0
315,-426,0,0,0,0,0,0,0,0,0,-1,1539,1450,0,0
322,-426,0,0,0,0,0,0,0,0,0,-1,1546,1450,0,0
329,-426,0,0,0,0,0,0,0,0,0,-1,1553,1450,0,0
336,-426,0,0,0,0,0,0,0,0,0,-1,1560,1450,0,0
343,-426,0,0,0,0,0,0,0,0,0,-1,1567,1450,0,0
350,-426,0,0,0,0,0,0,0,0,0,-1,1574,1450,0,0
357,-426,0,0,0,0,0,0,0,0,0,-1,1581,1450,0,0
364,-426,0,0,0,0,0,0,0,0,0,-1,1588,1450,0,0
371,-426,0,0,0,0,0,0,0,0,0,-1,1595,1450,0,0
378,-426,0,0,0,0,0,0,0,0,0,-1,1602,1450,0,0
385,-426,0,0,0,0,0,0,0,0,0,-1,1609,1450,0,0
392,-426,0,0,0,0,0,0,0,0,0,-1,1616,1450,0,0
399,-426,0,0,0,0,0,0,0,0,0,-1,1623,1450,0,0
406,-426,0,0,0,0,0,0,0,0,0,-1,1630,1450,0,0
413,-426,0,0,0,0,0,0,0,0,0,-1,1637,1450,0,0
420,-426,0,0,0,0,0,0,0,0,0,-1,1644,1450,0,0
427,-426,0,0,0,0,0,0,0,0,0,-1,1651,1450,0,0
434,-426,0,0,0,0,0,0,0,0,0,-1,1658,1450,0,0
441,-426,0,0,0,0,0,0,0,0,0,-1,1665,1450,0,0
448,-426,0,0,0,0,0,0,0,0,0,-1,1672,1450,0,0
455,-426,0,0,0,0,0,0,0,0,0,-1,1679,1450,0,0
462,-426,0,0,0,0,0,0,0,0,0,-1,1686,1450,0,0
469,-426,0,0,0,0,0,0,0,0,0,-1,1693,1450,0,0
476,-426,0,0,0,0,0,0,0,0,0,-1,1700,1450,0,0
483,-426,0,0,0,0,0,0,0,0,0,-1,1707,1450,0,0
490,-426,0,0,0,0,0,0,0,0,0,-1,1714,1450,0,0
497,-426,0,0,0,0,0,0,0,0,0,-1,1721,1450,0,0
504,-426,20.6873,3.38367,0,0,0,0,0,0,0,-1,1728,1450,20.6873,-3.38361
511,-426,19.6676,3.53748,0,0,0,0,0,0,0,-1,1735,1450,19.6676,-3.53749
518,-426,18.6853,3.32288,0,0,0,0,0,0,0,-1,1742,1450,18.6853,-3.3229
525,-426,18.9552,2.71033,0,0,0,0,0,0,0,-1,1749,1450,18.9552,-2.71034
532,-426,19.4333,2.70764,0,0,0,0,0,0,0,-1,1756,1450,19.4334,-2.70764
539,-426,25.1482,2.56287,0,0,0,0,0,0,0,-1,1763,1450,25.1482,-2.56286
546,-426,24.1136,3.75659,0,0,0,0,0,0,0,-1,1770,1450,24.1136,-3.7566
553,-426,23.0791,4.95032,0,0,0,0,0,0,0,-1,1777,1450,23.0791,-4.95034
560,-426,12.9688,11.8289,0,0,0,0,0,0,0,-1,1784,1450,12.9688,-11.8288
567,-426,13.6388,11.5623,0,0,0,0,0,0,0,-1,1791,1450,13.6388,-11.5623
574,-426,14.3943,11.0286,0,0,0,0,0,0,0,-1,1798,1450,14.3942,-11.0285
581,-426,16.3879,11.4653,0,0,0,0,0,0,0,-1,1805,1450,16.3879,-11.4653
588,-426,17.103,12.3577,0,0,0,0,0,0,0,-1,1812,1450,17.103,-12.3577
595,-426,16.843,11.6921,-0.0115824,-0.00017899,0.00528759,0.00189543,-0.0136568,1.19693,0.00979765,0.0304798,1819,1450,16.843,-11.6922
602,-426,16.6704,11.3441,-0.00879311,-4.2164e-05,0.00384216,0.00140533,-0.0102406,1.2105,0.0073405,0.0161355,1826,1450,16.6704,-11.3441
609,-426,16.6824,11.0118,-0.00652799,-1.60599e-05,0.00274939,0.000989486,-0.00753354,1.22017,0.00538259,0.0127872,1833,1450,16.6824,-11.0119
616,-426,16.6918,10.7192,-0.00471283,-7.17839e-05,0.00198577,0.000661888,-0.00544651,1.21689,0.00387054,0.0150635,1840,1450,16.6918,-10.7193
623,-426,16.7013,10.4218,-0.0030829,-0.000257816,0.00136369,0.00029304,-0.00363375,1.18689,0.00252585,0.0117034,1847,1450,16.7013,-10.4218
630,-426,16.6903,10.1116,-0.0017041,-0.00030495,0.000845208,9.26445e-05,-0.0021017,1.1311,0.00143301,0.0119922,1854,1450,16.6904,-10.1116
637,-426,16.6682,9.78613,-0.000676649,-0.000215409,0.000527323,0.000129519,-0.00102158,0.991536,0.000728074,0.0128545,1861,1450,16.6682,-9.78613
644,-426,16.6472,9.47156,0.000187891,-0.000239766,0.000344901,0.00037987,-0.000431744,0.507911,0.000468904,0.0118279,1868,1450,16.6472,-9.47161
651,-426,16.6274,9.16797,0.000802211,-0.000131918,0.000254359,0.000866981,-0.000196688,0.249341,0.000653492,0.0112439,1875,1450,16.6274,-9.16799
658,-426,16.6327,8.82434,0.00103684,5.24378e-05,0.000293838,0.00111788,-2.85999e-05,0.269101,0.000754966,0.0118527,1882,1450,16.6327,-8.82437
665,-426,16.7058,8.46655,0.00122451,0.000329361,0.000395252,0.00137405,0.00017982,0.361698,0.000862368,0.0196678,1889,1450,16.7059,-8.46653
672,-426,16.8502,8.20825,0,0,0,0,0,0,0,-1,1896,1450,16.8503,-8.2082
679,-426,16.2158,7.70984,0,0,0,0,0,0,0,-1,1903,1450,16.2159,-7.70986
686,-426,13.5326,8.03711,0,0,0,0,0,0,0,-1,1910,1450,13.5326,-8.03717
693,-426,11.8607,6.45215,0,0,0,0,0,0,0,-1,1917,1450,11.8607,-6.45215
700,-426,9.24304,2.95447,0,0,0,0,0,0,0,-1,1924,1450,9.24305,-2.95442
707,-426,8.44519,-1.21448,0,0,0,0,0,0,0,-1,1931,1450,8.44514,1.21454
714,-426,0,0,0,0,0,0,0,0,0,-1,1938,1450,0,0
721,-426,0,0,0,0,0,0,0,0,0,-1,1945,1450,0,0
728,-426,0,0,0,0,0,0,0,0,0,-1,1952,1450,0,0
735,-426,0,0,0,0,0,0,0,0,0,-1,1959,1450,0,0
742,-426,0,0,0,0,0,0,0,0,0,-1,1966,1450,0,0
749,-426,0,0,0,0,0,0,0,0,0,-1,1973,1450,0,0
756,-426,0,0,0,0,0,0,0,0,0,-1,1980,1450,0,0
763,-426,0,0,0,0,0,0,0,0,0,-1,1987,1450,0,0
770,-426,0,0,0,0,0,0,0,0,0,-1,1994,1450,0,0
777,-426,0,0,0,0,0,0,0,0,0,-1,2001,1450,0,0
784,-426,0,0,0,0,0,0,0,0,0,-1,2008,1450,0,0
791,-426,0,0,0,0,0,0,0,0,0,-1,2015,1450,0,0
798,-426,0,0,0,0,0,0,0,0,0,-1,2022,1450,0,0
805,-426,0,0,0,0,0,0,0,0,0,-1,2029,1450,0,0
812,-426,0,0,0,0,0,0,0,0,0,-1,2036,1450,0,0
-700,-433,0,0,0,0,0,0,0,0,0,-1,524,1457,0,0
-693,-433,0,0,0,0,0,0,0,0,0,-1,531,1457,0,0
-686,-433,0,0,0,0,0,0,0,0,0,-1,538,1457,0,0
-679,-433,0,0,0,0,0,0,0,0,0,-1,545,1457,0,0
-672,-433,0,0,0,0,0,0,0,0,0,-1,552,1457,0,0
-665,-433,0,0,0,0,0,0,0,0,0,-1,559,1457,0,0
-658,-433,0,0,0,0,0,0,0,0,0,-1,566,1457,0,0
-651,-433,0,0,0,0,0,0,0,0,0,-1,573,1457,0,0
-644,-433,0,0,0,0,0,0,0,0,0,-1,580,1457,0,0
-637,-433,0,0,0,0,0,0,0,0,0,-1,587,1457,0,0
-630,-433,0,0,0,0,0,0,0,0,0,-1,594,1457,0,0
-623,-433,0,0,0,0,0,0,0,0,0,-1,601,1457,0,0
-616,-433,0,0,0,0,0,0,0,0,0,-1,608,1457,0,0
-609,-433,0,0,0,0,0,0,0,0,0,-1,615,1457,0,0
-602,-433,0,0,0,0,0,0,0,0,0,-1,622,1457,0,0
-595,-433,0,0,0,0,0,0,0,0,0,-1,629,1457,0,0
-588,-433,-10.3756,-0.467041,0,0,0,0,0,0,0,-1,636,1457,-10.3756,0.467081
-581,-433,-8.12201,0.884033,0,0,0,0,0,0,0,-1,643,1457,-8.12204,-0.884056
-574,-433,-5.86847,2.23523,0,0,0,0,0,0,0,-1,650,1457,-5.86844,-2.23519
-567,-433,-5.42255,1.16833,0,0,0,0,0,0,0,-1,657,1457,-5.42254,-1.1683
-560,-433,-6.84027,1.86414,0,0,0,0,0,0,0,-1,664,1457,-6.84026,-1.86412
-553,-433,-5.74017,1.79163,0,0,0,0,0,0,0,-1,671,1457,-5.74015,-1.79166
-546,-433,-5.38348,5.43896,0,0,0,0,0,0,0,-1,678,1457,-5.38347,-5.43902
-539,-433,-5.31708,6.08118,0.00544975,0.0101905,0.0130792,0.0211124,-0.00547209,0.875042,0.0162098,0.0483987,685,1457,-5.31709,-6.08121
-532,-433,-5.21228,6.64148,0.00538386,0.0086814,0.0111252,0.0182794,-0.00421409,0.858963,0.013807,0.0384256,692,1457,-5.21229,-6.64143
-525,-433,-5.34808,6.98523,0.00527288,0.0071602,0.00927556,0.01554,-0.00310689,0.836092,0.0115359,0.0266445,699,1457,-5.34807,-6.98518
-518,-433,-5.37769,7.31775,0.00492299,0.00566289,0.00748566,0.0127877,-0.00220186,0.810089,0.00934597,0.0164505,706,1457,-5.3777,-7.31771
-511,-433,-5.40521,7.66187,0.00410399,0.00424732,0.00565065,0.00982676,-0.00147546,0.791739,0.00709432,0.0161452,713,1457,-5.40523,-7.66189
-504,-433,-5.38855,7.99548,0.0029186,0.00270086,0.00366905,0.00648039,-0.000860927,0.770566,0.00463397,0.0130297,720,1457,-5.38853,-7.99548
-497,-433,-5.36804,8.34375,0.00168907,0.00135358,0.00180308,0.0033322,-0.000289542,0.739016,0.002324,0.0130974,727,1457,-5.36804,-8.34377
-490,-433,-5.3974,8.69226,0.000287304,-3.95793e-05,-0.000237232,0.000411946,-0.000164222,-0.483762,0.000342746,0.0146077,734,1457,-5.39741,-8.69229
-483,-433,-5.39587,9.08362,-0.00106527,-0.00178239,-0.00256504,0.00116615,-0.00401381,-0.715955,0.00313768,0.0152282,741,1457,-5.3959,-9.08368
-476,-433,-5.39661,9.44434,-0.0025204,-0.00395889,-0.00501566,0.00182732,-0.00830661,-0.714183,0.00623673,0.0107813,748,1457,-5.39663,-9.44435
-469,-433,-5.39178,9.76782,-0.00380856,-0.00603089,-0.00743743,0.00260025,-0.0124397,-0.711245,0.00928209,0.0109817,755,1457,-5.3918,-9.76788
-462,-433,-5.41302,10.1055,-0.00468611,-0.00878568,-0.0103062,0.00377222,-0.017244,-0.687235,0.012938,0.010795,762,1457,-5.41304,-10.1055
-455,-433,-5.22772,10.5964,-0.00556843,-0.0126008,-0.0139806,0.0053314,-0.0235006,-0.662201,0.0177137,0.0338541,769,1457,-5.2277,-10.5964
-448,-433,-5.3941,10.2789,0,0,0,0,0,0,0,-1,776,1457,-5.39409,-10.2789
-441,-433,-5.40424,9.99512,0,0,0,0,0,0,0,-1,783,1457,-5.40427,-9.99506
-434,-433,-5.29529,9.89868,0,0,0,0,0,0,0,-1,790,1457,-5.29526,-9.8987
-427,-433,-4.82233,9.90393,0,0,0,0,0,0,0,-1,797,1457,-4.82235,-9.90394
-420,-433,-3.83643,9.38379,0,0,0,0,0,0,0,-1,804,1457,-3.83645,-9.38383
-413,-433,-3.63074,5.5813,0,0,0,0,0,0,0,-1,811,1457,-3.63072,-5.58129
-406,-433,-12.3472,4.69373,0,0,0,0,0,0,0,-1,818,1457,-12.3472,-4.69374
-399,-433,-12.055,2.83594,0,0,0,0,0,0,0,-1,825,1457,-12.055,-2.83594
-392,-433,-12.9772,1.6228,0,0,0,0,0,0,0,-1,832,1457,-12.9772,-1.62282
-385,-433,-13.7999,0.514771,0,0,0,0,0,0,0,-1,839,1457,-13.7999,-0.514788
-378,-433,0,0,0,0,0,0,0,0,0,-1,846,1457,0,0
-371,-433,0,0,0,0,0,0,0,0,0,-1,853,1457,0,0
-364,-433,0,0,0,0,0,0,0,0,0,-1,860,1457,0,0
-357,-433,0,0,0,0,0,0,0,0,0,-1,867,1457,0,0
-350,-433,0,0,0,0,0,0,0,0,0,-1,874,1457,0,0
-343,-433,0,0,0,0,0,0,0,0,0,-1,881,1457,0,0
-336,-433,0,0,0,0,0,0,0,0,0,-1,888,1457,0,0
-329,-433,0,0,0,0,0,0,0,0,0,-1,895,1457,0,0
-322,-433,0,0,0,0,0,0,0,0,0,-1,902,1457,0,0
-315,-433,0,0,0,0,0,0,0,0,0,-1,909,1457,0,0
-308,-433,0,0,0,0,0,0,0,0,0,-1,916,1457,0,0
-301,-433,0,0,0,0,0,0,0,0,0,-1,923,1457,0,0
-294,-433,0,0,0,0,0,0,0,0,0,-1,930,1457,0,0
-287,-433,0,0,0,0,0,0,0,0,0,-1,937,1457,0,0
-280,-433,0,0,0,0,0,0,0,0,0,-1,944,1457,0,0
-273,-433,0,0,0,0,0,0,0,0,0,-1,951,1457,0,0
-266,-433,0,0,0,0,0,0,0,0,0,-1,958,1457,0,0
-259,-433,0,0,0,0,0,0,0,0,0,-1,965,1457,0,0
-252,-433,0,0,0,0,0,0,0,0,0,-1,972,1457,0,0
-245,-433,0,0,0,0,0,0,0,0,0,-1,979,1457,0,0
-238,-433,0,0,0,0,0,0,0,0,0,-1,986,1457,0,0
-231,-433,0,0,0,0,0,0,0,0,0,-1,993,1457,0,0
-224,-433,0,0,0,0,0,0,0,0,0,-1,1000,1457,0,0
-217,-433,0,0,0,0,0,0,0,0,0,-1,1007,1457,0,0
-210,-433,0,0,0,0,0,0,0,0,0,-1,1014,1457,0,0
-203,-433,0,0,0,0,0,0,0,0,0,-1,1021,1457,0,0
-196,-433,0,0,0,0,0,0,0,0,0,-1,1028,1457,0,0
-189,-433,0,0,0,0,0,0,0,0,0,-1,1035,1457,0,0
-182,-433,0,0,0,0,0,0,0,0,0,-1,1042,1457,0,0
-175,-433,0,0,0,0,0,0,0,0,0,-1,1049,1457,0,0
-168,-433,0,0,0,0,0,0,0,0,0,-1,1056,1457,0,0
-161,-433,0,0,0,0,0,0,0,0,0,-1,1063,1457,0,0
-154,-433,0,0,0,0,0,0,0,0,0,-1,1070,1457,0,0
-147,-433,0,0,0,0,0,0,0,0,0,-1,1077,1457,0,0
-140,-433,0,0,0,0,0,0,0,0,0,-1,1084,1457,0,0
-133,-433,0,0,0,0,0,0,0,0,0,-1,1091,1457,0,0
-126,-433,0,0,0,0,0,0,0,0,0,-1,1098,1457,0,0
-119,-433,0,0,0,0,0,0,0,0,0,-1,1105,1457,0,0
-112,-433,0,0,0,0,0,0,0,0,0,-1,1112,1457,0,0
-105,-433,0,0,0,0,0,0,0,0,0,-1,1119,1457,0,0
-98,-433,0,0,0,0,0,0,0,0,0,-1,1126,1457,0,0
-91,-433,0,0,0,0,0,0,0,0,0,-1,1133,1457,0,0
-84,-433,0,0,0,0,0,0,0,0,0,-1,1140,1457,0,0
-77,-433,0,0,0,0,0,0,0,0,0,-1,1147,1457,0,0
-70,-433,0,0,0,0,0,0,0,0,0,-1,1154,1457,0,0
-63,-433,0,0,0,0,0,0,0,0,0,-1,1161,1457,0,0
-56,-433,0,0,0,0,0,0,0,0,0,-1,1168,1457,0,0
-49,-433,0,0,0,0,0,0,0,0,0,-1,1175,1457,0,0
-42,-433,0,0,0,0,0,0,0,0,0,-1,1182,1457,0,0
-35,-433,0,0,0,0,0,0,0,0,0,-1,1189,1457,0,0
-28,-433,0,0,0,0,0,0,0,0,0,-1,1196,1457,0,0
-21,-433,0,0,0,0,0,0,0,0,0,-1,1203,1457,0,0
-14,-433,0,0,0,0,0,0,0,0,0,-1,1210,1457,0,0
-7,-433,0,0,0,0,0,0,0,0,0,-1,1217,1457,0,0
0,-433,0,0,0,0,0,0,0,0,0,-1,1224,1457,0,0
7,-433,0,0,0,0,0,0,0,0,0,-1,1231,1457,0,0
14,-433,0,0,0,0,0,0,0,0,0,-1,1238,1457,0,0
21,-433,0,0,0,0,0,0,0,0,0,-1,1245,1457,0,0
28,-433,0,0,0,0,0,0,0,0,0,-1,1252,1457,0,0
35,-433,0,0,0,0,0,0,0,0,0,-1,1259,1457,0,0
42,-433,0,0,0,0,0,0,0,0,0,-1,1266,1457,0,0
49,-433,0,0,0,0,0,0,0,0,0,-1,1273,1457,0,0
56,-433,0,0,0,0,0,0,0,0,0,-1,1280,1457,0,0
63,-433,0,0,0,0,0,0,0,0,0,-1,1287,1457,0,0
70,-433,0,0,0,0,0,0,0,0,0,-1,1294,1457,0,0
77,-433,0,0,0,0,0,0,0,0,0,-1,1301,1457,0,0
84,-433,0,0,0,0,0,0,0,0,0,-1,1308,1457,0,0
91,-433,0,0,0,0,0,0,0,0,0,-1,1315,1457,0,0
98,-433,0,0,0,0,0,0,0,0,0,-1,1322,1457,0,0
105,-433,0,0,0,0,0,0,0,0,0,-1,1329,1457,0,0
112,-433,0,0,0,0,0,0,0,0,0,-1,1336,1457,0,0
119,-433,0,0,0,0,0,0,0,0,0,-1,1343,1457,0,0
126,-433,0,0,0,0,0,0,0,0,0,-1,1350,1457,0,0
133,-433,0,0,0,0,0,0,0,0,0,-1,1357,1457,0,0
140,-433,0,0,0,0,0,0,0,0,0,-1,1364,1457,0,0
147,-433,0,0,0,0,0,0,0,0,0,-1,1371,1457,0,0
154,-433,0,0,0,0,0,0,0,0,0,-1,1378,1457,0,0
161,-433,0,0,0,0,0,0,0,0,0,-1,1385,1457,0,0
168,-433,0,0,0,0,0,0,0,0,0,-1,1392,1457,0,0
175,-433,0,0,0,0,0,0,0,0,0,-1,1399,1457,0,0
182,-433,0,0,0,0,0,0,0,0,0,-1,1406,1457,0,0
189,-433,0,0,0,0,0,0,0,0,0,-1,1413,1457,0,0
196,-433,0,0,0,0,0,0,0,0,0,-1,1420,1457,0,0
203,-433,0,0,0,0,0,0,0,0,0,-1,1427,1457,0,0
210,-433,0,0,0,0,0,0,0,0,0,-1,1434,1457,0,0
217,-433,0,0,0,0,0,0,0,0,0,-1,1441,1457,0,0
224,-433,0,0,0,0,0,0,0,0,0,-1,1448,1457,0,0
231,-433,0,0,0,0,0,0,0,0,0,-1,1455,1457,0,0
238,-433,0,0,0,0,0,0,0,0,0,-1,1462,1457,0,0
245,-433,0,0,0,0,0,0,0,0,0,-1,1469,1457,0,0
252,-433,0,0,0,0,0,0,0,0,0,-1,1476,1457,0,0
259,-433,0,0,0,0,0,0,0,0,0,-1,1483,1457,0,0
266,-433,0,0,0,0,0,0,0,0,0,-1,1490,1457,0,0
273,-433,0,0,0,0,0,0,0,0,0,-1,1497,1457,0,0
280,-433,0,0,0,0,0,0,0,0,0,-1,1504,1457,0,0
287,-433,0,0,0,0,0,0,0,0,0,-1,1511,1457,0,0
294,-433,0,0,0,0,0,0,0,0,0,-1,1518,1457,0,0
301,-433,0,0,0,0,0,0,0,0,0,-1,1525,1457,0,0
308,-433,0,0,0,0,0,0,0,0,0,-1,1532,1457,0,0
315,-433,0,0,0,0,0,0,0,0,0,-1,1539,1457,0,0
322,-433,0,0,0,0,0,0,0,0,0,-1,1546,1457,0,0
329,-433,0,0,0,0,0,0,0,0,0,-1,1553,1457,0,0
336,-433,0,0,0,0,0,0,0,0,0,-1,1560,1457,0,0
343,-433,0,0,0,0,0,0,0,0,0,-1,1567,1457,0,0
350,-433,0,0,0,0,0,0,0,0,0,-1,1574,1457,0,0
357,-433,0,0,0,0,0,0,0,0,0,-1,1581,1457,0,0
364,-433,0,0,0,0,0,0,0,0,0,-1,1588,1457,0,0
371,-433,0,0,0,0,0,0,0,0,0,-1,1595,1457,0,0
378,-433,0,0,0,0,0,0,0,0,0,-1,1602,1457,0,0
385,-433,0,0,0,0,0,0,0,0,0,-1,1609,1457,0,0
392,-433,0,0,0,0,0,0,0,0,0,-1,1616,1457,0,0
399,-433,0,0,0,0,0,0,0,0,0,-1,1623,1457,0,0
406,-433,0,0,0,0,0,0,0,0,0,-1,1630,1457,0,0
413,-433,0,0,0,0,0,0,0,0,0,-1,1637,1457,0,0
420,-433,0,0,0,0,0,0,0,0,0,-1,1644,1457,0,0
427,-433,0,0,0,0,0,0,0,0,0,-1,1651,1457,0,0
434,-433,0,0,0,0,0,0,0,0,0,-1,1658,1457,0,0
441,-433,0,0,0,0,0,0,0,0,0,-1,1665,1457,0,0
448,-433,0,0,0,0,0,0,0,0,0,-1,1672,1457,0,0
455,-433,0,0,0,0,0,0,0,0,0,-1,1679,1457,0,0
462,-433,0,0,0,0,0,0,0,0,0,-1,1686,1457,0,0
469,-433,0,0,0,0,0,0,0,0,0,-1,1693,1457,0,0
476,-433,0,0,0,0,0,0,0,0,0,-1,1700,1457,0,0
483,-433,0,0,0,0,0,0,0,0,0,-1,1707,1457,0,0
490,-433,0,0,0,0,0,0,0,0,0,-1,1714,1457,0,0
497,-433,0,0,0,0,0,0,0,0,0,-1,1721,1457,0,0
504,-433,19.9058,3.03662,0,0,0,0,0,0,0,-1,1728,1457,19.9058,-3.03656
511,-433,19.0145,3.07837,0,0,0,0,0,0,0,-1,1735,1457,19.0146,-3.07834
518,-433,18.071,3.06433,0,0,0,0,0,0,0,-1,1742,1457,18.071,-3.06432
525,-433,17.2048,3.37085,0,0,0,0,0,0,0,-1,1749,1457,17.2049,-3.37083
532,-433,16.5637,3.36646,0,0,0,0,0,0,0,-1,1756,1457,16.5637,-3.36643
539,-433,15.9193,3.30396,0,0,0,0,0,0,0,-1,1763,1457,15.9193,-3.30394
546,-433,23.1903,4.81775,0,0,0,0,0,0,0,-1,1770,1457,23.1903,-4.81775
553,-433,13.9674,11.5781,0,0,0,0,0,0,0,-1,1777,1457,13.9674,-11.5781
560,-433,13.9855,11.7341,0,0,0,0,0,0,0,-1,1784,1457,13.9855,-11.7341
567,-433,13.9264,11.3364,0,0,0,0,0,0,0,-1,1791,1457,13.9263,-11.3364
574,-433,15.5305,12.3673,0,0,0,0,0,0,0,-1,1798,1457,15.5305,-12.3673
581,-433,16.2469,12.0247,0,0,0,0,0,0,0,-1,1805,1457,16.247,-12.0247
588,-433,16.3669,12.11,0,0,0,0,0,0,0,-1,1812,1457,16.3669,-12.11
595,-433,16.3542,11.7035,-0.00871207,-0.00022912,0.00416495,0.00147389,-0.0104151,1.18265,0.00748323,0.0263799,1819,1457,16.3543,-11.7035
602,-433,16.3588,11.3635,-0.00670148,-4.33192e-05,0.00306482,0.00115263,-0.00789743,1.19875,0.00568822,0.0204625,1826,1457,16.3588,-11.3635
609,-433,16.3872,11.0262,-0.00500247,-6.89716e-06,0.00222305,0.0008391,-0.00584847,1.20716,0.00420667,0.0161636,1833,1457,16.3872,-11.0263
616,-433,16.4043,10.7574,-0.00357512,-7.34767e-05,0.00163622,0.000572073,-0.00422067,1.19501,0.00302257,0.0142023,1840,1457,16.4043,-10.7575
623,-433,16.3724,10.4293,-0.00223219,-0.000301764,0.00116233,0.000243865,-0.00277782,1.1319,0.00193829,0.0109322,1847,1457,16.3724,-10.4293
630,-433,16.3574,10.1168,-0.00105431,-0.000401425,0.000771114,0.0001095,-0.00156523,0.985628,0.00108184,0.0132457,1854,1457,16.3574,-10.1168
637,-433,16.3582,9.78479,-0.000157406,-0.000387718,0.000559272,0.000298442,-0.000843566,0.683866,0.000683919,0.0143022,1861,1457,16.3581,-9.78478
644,-433,16.3386,9.48206,0.000640005,-0.000456561,0.000458176,0.000806243,-0.000622799,0.348054,0.00082732,0.0143689,1868,1457,16.3386,-9.48201
651,-433,16.3281,9.16174,0.00115314,-0.000344964,0.000472602,0.00128977,-0.000481592,0.281426,0.00105758,0.0108217,1875,1457,16.3281,-9.16169
658,-433,16.3097,8.80444,0.0013651,-0.000182378,0.000568117,0.00155128,-0.000368549,0.316671,0.00117644,0.0159873,1882,1457,16.3097,-8.8044
665,-433,16.4987,8.40027,0,0,0,0,0,0,0,-1,1889,1457,16.4987,-8.40028
672,-433,16.1285,8.59509,0,0,0,0,0,0,0,-1,1896,1457,16.1285,-8.5951
679,-433,15.7363,8.4093,0,0,0,0,0,0,0,-1,1903,1457,15.7363,-8.40932
686,-433,13.6356,8.61694,0,0,0,0,0,0,0,-1,1910,1457,13.6356,-8.61694
693,-433,13.4081,8.39624,0,0,0,0,0,0,0,-1,1917,1457,13.4081,-8.39624
700,-433,7.16809,-1.5166,0,0,0,0,0,0,0,-1,1924,1457,7.16806,1.51656
707,-433,8.68359,-2.82202,0,0,0,0,0,0,0,-1,1931,1457,8.68359,2.82197
714,-433,0,0,0,0,0,0,0,0,0,-1,1938,1457,0,0
721,-433,0,0,0,0,0,0,0,0,0,-1,1945,1457,0,0
728,-433,0,0,0,0,0,0,0,0,0,-1,1952,1457,0,0
735,-433,0,0,0,0,0,0,0,0,0,-1,1959,1457,0,0
742,-433,0,0,0,0,0,0,0,0,0,-1,1966,1457,0,0
749,-433,0,0,0,0,0,0,0,0,0,-1,1973,1457,0,0
756,-433,0,0,0,0,0,0,0,0,0,-1,1980,1457,0,0
763,-433,0,0,0,0,0,0,0,0,0,-1,1987,1457,0,0
770,-433,0,0,0,0,0,0,0,0,0,-1,1994,1457,0,0
777,-433,0,0,0,0,0,0,0,0,0,-1,2001,1457,0,0
784,-433,0,0,0,0,0,0,0,0,0,-1,2008,1457,0,0
791,-433,0,0,0,0,0,0,0,0,0,-1,2015,1457,0,0
798,-433,0,0,0,0,0,0,0,0,0,-1,2022,1457,0,0
805,-433,0,0,0,0,0,0,0,0,0,-1,2029,1457,0,0
812,-433,0,0,0,0,0,0,0,0,0,-1,2036,1457,0,0
-700,-440,0,0,0,0,0,0,0,0,0,-1,524,1464,0,0
-693,-440,0,0,0,0,0,0,0,0,0,-1,531,1464,0,0
-686,-440,0,0,0,0,0,0,0,0,0,-1,538,1464,0,0
-679,-440,0,0,0,0,0,0,0,0,0,-1,545,1464,0,0
-672,-440,0,0,0,0,0,0,0,0,0,-1,552,1464,0,0
-665,-440,0,0,0,0,0,0,0,0,0,-1,559,1464,0,0
-658,-440,0,0,0,0,0,0,0,0,0,-1,566,1464,0,0
-651,-440,0,0,0,0,0,0,0,0,0,-1,573,1464,0,0
-644,-440,0,0,0,0,0,0,0,0,0,-1,580,1464,0,0
-637,-440,0,0,0,0,0,0,0,0,0,-1,587,1464,0,0
-630,-440,0,0,0,0,0,0,0,0,0,-1,594,1464,0,0
-623,-440,0,0,0,0,0,0,0,0,0,-1,601,1464,0,0
-616,-440,0,0,0,0,0,0,0,0,0,-1,608,1464,0,0
-609,-440,0,0,0,0,0,0,0,0,0,-1,615,1464,0,0
-602,-440,0,0,0,0,0,0,0,0,0,-1,622,1464,0,0
-595,-440,0,0,0,0,0,0,0,0,0,-1,629,1464,0,0
-588,-440,0,0,0,0,0,0,0,0,0,-1,636,1464,0,0
-581,-440,-8.97278,0.254517,0,0,0,0,0,0,0,-1,643,1464,-8.97276,-0.254526
-574,-440,-7.00818,-0.918579,0,0,0,0,0,0,0,-1,650,1464,-7.00817,0.918538
-567,-440,-6.12152,-0.0766602,0,0,0,0,0,0,0,-1,657,1464,-6.12151,0.0767097
-560,-440,-5.46747,0.82251,0,0,0,0,0,0,0,-1,664,1464,-5.46748,-0.822551
-553,-440,-6.84729,0.0831299,0,0,0,0,0,0,0,-1,671,1464,-6.84732,-0.083136
-546,-440,-5.63446,-0.153198,0,0,0,0,0,0,0,-1,678,1464,-5.63447,0.153147
-539,-440,-5.12646,5.89905,0,0,0,0,0,0,0,-1,685,1464,-5.12645,-5.89902
-532,-440,-4.94714,6.45581,0.0107663,0.0132171,0.0170039,0.0290397,-0.00505622,0.821369,0.0212467,0.0449768,692,1464,-4.94714,-6.45583
-525,-440,-5.03845,6.9978,0.00957982,0.0105137,0.0137633,0.023818,-0.00372447,0.802355,0.0172547,0.0285307,699,1464,-5.03842,-6.99777
-518,-440,-5.06073,7.29211,0.00830653,0.00810371,0.0108528,0.0190584,-0.00264813,0.780726,0.013674,0.0166269,706,1464,-5.06072,-7.29215
-511,-440,-5.02765,7.65149,0.00679597,0.00601218,0.00821945,0.0146329,-0.00182471,0.761577,0.0104169,0.0155771,713,1464,-5.02765,-7.6515
-504,-440,-5.02832,8.01416,0.00508802,0.00405013,0.0056775,0.0102703,-0.00113209,0.739823,0.00725371,0.0191028,720,1464,-5.02832,-8.01413
-497,-440,-5.03473,8.39478,0.00347397,0.00242277,0.00342214,0.00641064,-0.000513903,0.7092,0.00445495,0.0215825,727,1464,-5.03475,-8.39481
-490,-440,-5.01727,8.68762,0.0018923,0.000913521,0.00121196,0.00270995,9.58778e-05,0.593508,0.00177554,0.0212884,734,1464,-5.01725,-8.68768
-483,-440,-5.05139,9.05566,0.000566173,-0.000810943,-0.00109139,0.00116806,-0.00141283,-0.503983,0.00149231,0.0194517,741,1464,-5.0514,-9.05568
-476,-440,-5.04425,9.40369,-0.000651048,-0.00287697,-0.00332881,0.00174593,-0.00527395,-0.624069,0.00422009,0.0139854,748,1464,-5.04426,-9.40372
-469,-440,-5.05481,9.75208,-0.00161497,-0.00481926,-0.00550899,0.00252012,-0.00895435,-0.64389,0.00696332,0.0127399,755,1464,-5.05483,-9.75206
-462,-440,-5.06757,10.09,-0.00189721,-0.00710809,-0.00774426,0.00366815,-0.0126734,-0.623128,0.00990084,0.0142995,762,1464,-5.06758,-10.0899
-455,-440,-4.98511,10.525,-0.00192343,-0.0102115,-0.0104728,0.00519538,-0.0173304,-0.597002,0.0136198,0.0223297,769,1464,-4.98509,-10.525
-448,-440,-5.08435,11.0826,0,0,0,0,0,0,0,-1,776,1464,-5.08436,-11.0827
-441,-440,-5.15521,10.4662,0,0,0,0,0,0,0,-1,783,1464,-5.15521,-10.4661
-434,-440,-5.41724,10.4181,0,0,0,0,0,0,0,-1,790,1464,-5.41721,-10.4181
-427,-440,-3.7644,10.0846,0,0,0,0,0,0,0,-1,797,1464,-3.76441,-10.0846
-420,-440,-3.84052,9.66321,0,0,0,0,0,0,0,-1,804,1464,-3.84054,-9.66322
-413,-440,-3.46796,5.72278,0,0,0,0,0,0,0,-1,811,1464,-3.46797,-5.72276
-406,-440,-5.2887,5.20264,0,0,0,0,0,0,0,-1,818,1464,-5.2887,-5.20261
-399,-440,-12.7318,3.94421,0,0,0,0,0,0,0,-1,825,1464,-12.7318,-3.94419
-392,-440,-13.5565,2.51855,0,0,0,0,0,0,0,-1,832,1464,-13.5565,-2.51861
-385,-440,-14.6741,1.39795,0,0,0,0,0,0,0,-1,839,1464,-14.6741,-1.39801
-378,-440,-15.8063,0.293457,0,0,0,0,0,0,0,-1,846,1464,-15.8063,-0.293412
-371,-440,0,0,0,0,0,0,0,0,0,-1,853,1464,0,0
-364,-440,0,0,0,0,0,0,0,0,0,-1,860,1464,0,0
-357,-440,0,0,0,0,0,0,0,0,0,-1,867,1464,0,0
-350,-440,0,0,0,0,0,0,0,0,0,-1,874,1464,0,0
-343,-440,0,0,0,0,0,0,0,0,0,-1,881,1464,0,0
-336,-440,0,0,0,0,0,0,0,0,0,-1,888,1464,0,0
-329,-440,0,0,0,0,0,0,0,0,0,-1,895,1464,0,0
-322,-440,0,0,0,0,0,0,0,0,0,-1,902,1464,0,0
-315,-440,0,0,0,0,0,0,0,0,0,-1,909,1464,0,0
-308,-440,0,0,0,0,0,0,0,0,0,-1,916,1464,0,0
-301,-440,0,0,0,0,0,0,0,0,0,-1,923,1464,0,0
-294,-440,0,0,0,0,0,0,0,0,0,-1,930,1464,0,0
-287,-440,0,0,0,0,0,0,0,0,0,-1,937,1464,0,0
-280,-440,0,0,0,0,0,0,0,0,0,-1,944,1464,0,0
-273,-440,0,0,0,0,0,0,0,0,0,-1,951,1464,0,0
-266,-440,0,0,0,0,0,0,0,0,0,-1,958,1464,0,0
-259,-440,0,0,0,0,0,0,0,0,0,-1,965,1464,0,0
-252,-440,0,0,0,0,0,0,0,0,0,-1,972,1464,0,0
-245,-440,0,0,0,0,0,0,0,0,0,-1,979,1464,0,0
-238,-440,0,0,0,0,0,0,0,0,0,-1,986,1464,0,0
-231,-440,0,0,0,0,0,0,0,0,0,-1,993,1464,0,0
-224,-440,0,0,0,0,0,0,0,0,0,-1,1000,1464,0,0
-217,-440,0,0,0,0,0,0,0,0,0,-1,1007,1464,0,0
-210,-440,0,0,0,0,0,0,0,0,0,-1,1014,1464,0,0
-203,-440,0,0,0,0,0,0,0,0,0,-1,1021,1464,0,0
-196,-440,0,0,0,0,0,0,0,0,0,-1,1028,1464,0,0
-189,-440,0,0,0,0,0,0,0,0,0,-1,1035,1464,0,0
-182,-440,0,0,0,0,0,0,0,0,0,-1,1042,1464,0,0
-175,-440,0,0,0,0,0,0,0,0,0,-1,1049,1464,0,0
-168,-440,0,0,0,0,0,0,0,0,0,-1,1056,1464,0,0
-161,-440,0,0,0,0,0,0,0,0,0,-1,1063,1464,0,0
-154,-440,0,0,0,0,0,0,0,0,0,-1,1070,1464,0,0
-147,-440,0,0,0,0,0,0,0,0,0,-1,1077,1464,0,0
-140,-440,0,0,0,0,0,0,0,0,0,-1,1084,1464,0,0
-133,-440,0,0,0,0,0,0,0,0,0,-1,1091,1464,0,0
-126,-440,0,0,0,0,0,0,0,0,0,-1,1098,1464,0,0
-119,-440,0,0,0,0,0,0,0,0,0,-1,1105,1464,0,0
-112,-440,0,0,0,0,0,0,0,0,0,-1,1112,1464,0,0
-105,-440,0,0,0,0,0,0,0,0,0,-1,1119,1464,0,0
-98,-440,0,0,0,0,0,0,0,0,0,-1,1126,1464,0,0
-91,-440,0,0,0,0,0,0,0,0,0,-1,1133,1464,0,0
-84,-440,0,0,0,0,0,0,0,0,0,-1,1140,1464,0,0
-77,-440,0,0,0,0,0,0,0,0,0,-1,1147,1464,0,0
-70,-440,0,0,0,0,0,0,0,0,0,-1,1154,1464,0,0
-63,-440,0,0,0,0,0,0,0,0,0,-1,1161,1464,0,0
-56,-440,0,0,0,0,0,0,0,0,0,-1,1168,1464,0,0
-49,-440,0,0,0,0,0,0,0,0,0,-1,1175,1464,0,0
-42,-440,0,0,0,0,0,0,0,0,0,-1,1182,1464,0,0
-35,-440,0,0,0,0,0,0,0,0,0,-1,1189,1464,0,0
-28,-440,0,0,0,0,0,0,0,0,0,-1,1196,1464,0,0
-21,-440,0,0,0,0,0,0,0,0,0,-1,1203,1464,0,0
-14,-440,0,0,0,0,0,0,0,0,0,-1,1210,1464,0,0
-7,-440,0,0,0,0,0,0,0,0,0,-1,1217,1464,0,0
0,-440,0,0,0,0,0,0,0,0,0,-1,1224,1464,0,0
7,-440,0,0,0,0,0,0,0,0,0,-1,1231,1464,0,0
14,-440,0,0,0,0,0,0,0,0,0,-1,1238,1464,0,0
21,-440,0,0,0,0,0,0,0,0,0,-1,1245,1464,0,0
28,-440,0,0,0,0,0,0,0,0,0,-1,1252,1464,0,0
35,-440,0,0,0,0,0,0,0,0,0,-1,1259,1464,0,0
42,-440,0,0,0,0,0,0,0,0,0,-1,1266,1464,0,0
49,-440,0,0,0,0,0,0,0,0,0,-1,1273,1464,0,0
56,-440,0,0,0,0,0,0,0,0,0,-1,1280,1464,0,0
63,-440,0,0,0,0,0,0,0,0,0,-1,1287,1464,0,0
70,-440,0,0,0,0,0,0,0,0,0,-1,1294,1464,0,0
77,-440,0,0,0,0,0,0,0,0,0,-1,1301,1464,0,0
84,-440,0,0,0,0,0,0,0,0,0,-1,1308,1464,0,0
91,-440,0,0,0,0,0,0,0,0,0,-1,1315,1464,0,0
98,-440,0,0,0,0,0,0,0,0,0,-1,1322,1464,0,0
105,-440,0,0,0,0,0,0,0,0,0,-1,1329,1464,0,0
112,-440,0,0,0,0,0,0,0,0,0,-1,1336,1464,0,0
119,-440,0,0,0,0,0,0,0,0,0,-1,1343,1464,0,0
126,-440,0,0,0,0,0,0,0,0,0,-1,1350,1464,0,0
133,-440,0,0,0,0,0,0,0,0,0,-1,1357,1464,0,0
140,-440,0,0,0,0,0,0,0,0,0,-1,1364,1464,0,0
147,-440,0,0,0,0,0,0,0,0,0,-1,1371,1464,0,0
154,-440,0,0,0,0,0,0,0,0,0,-1,1378,1464,0,0
161,-440,0,0,0,0,0,0,0,0,0,-1,1385,1464,0,0
168,-440,0,0,0,0,0,0,0,0,0,-1,1392,1464,0,0
175,-440,0,0,0,0,0,0,0,0,0,-1,1399,1464,0,0
182,-440,0,0,0,0,0,0,0,0,0,-1,1406,1464,0,0
189,-440,0,0,0,0,0,0,0,0,0,-1,1413,1464,0,0
196,-440,0,0,0,0,0,0,0,0,0,-1,1420,1464,0,0
203,-440,0,0,0,0,0,0,0,0,0,-1,1427,1464,0,0
210,-440,0,0,0,0,0,0,0,0,0,-1,1434,1464,0,0
217,-440,0,0,0,0,0,0,0,0,0,-1,1441,1464,0,0
224,-440,0,0,0,0,0,0,0,0,0,-1,1448,1464,0,0
231,-440,0,0,0,0,0,0,0,0,0,-1,1455,1464,0,0
238,-440,0,0,0,0,0,0,0,0,0,-1,1462,1464,0,0
245,-440,0,0,0,0,0,0,0,0,0,-1,1469,1464,0,0
252,-440,0,0,0,0,0,0,0,0,0,-1,1476,1464,0,0
259,-440,0,0,0,0,0,0,0,0,0,-1,1483,1464,0,0
266,-440,0,0,0,0,0,0,0,0,0,-1,1490,1464,0,0
273,-440,0,0,0,0,0,0,0,0,0,-1,1497,1464,0,0
280,-440,0,0,0,0,0,0,0,0,0,-1,1504,1464,0,0
287,-440,0,0,0,0,0,0,0,0,0,-1,1511,1464,0,0
294,-440,0,0,0,0,0,0,0,0,0,-1,1518,1464,0,0
301,-440,0,0,0,0,0,0,0,0,0,-1,1525,1464,0,0
308,-440,0,0,0,0,0,0,0,0,0,-1,1532,1464,0,0
315,-440,0,0,0,0,0,0,0,0,0,-1,1539,1464,0,0
322,-440,0,0,0,0,0,0,0,0,0,-1,1546,1464,0,0
329,-440,0,0,0,0,0,0,0,0,0,-1,1553,1464,0,0
336,-440,0,0,0,0,0,0,0,0,0,-1,1560,1464,0,0
343,-440,0,0,0,0,0,0,0,0,0,-1,1567,1464,0,0
350,-440,0,0,0,0,0,0,0,0,0,-1,1574,1464,0,0
357,-440,0,0,0,0,0,0,0,0,0,-1,1581,1464,0,0
364,-440,0,0,0,0,0,0,0,0,0,-1,1588,1464,0,0
371,-440,0,0,0,0,0,0,0,0,0,-1,1595,1464,0,0
378,-440,0,0,0,0,0,0,0,0,0,-1,1602,1464,0,0
385,-440,0,0,0,0,0,0,0,0,0,-1,1609,1464,0,0
392,-440,0,0,0,0,0,0,0,0,0,-1,1616,1464,0,0
399,-440,0,0,0,0,0,0,0,0,0,-1,1623,1464,0,0
406,-440,0,0,0,0,0,0,0,0,0,-1,1630,1464,0,0
413,-440,0,0,0,0,0,0,0,0,0,-1,1637,1464,0,0
420,-440,0,0,0,0,0,0,0,0,0,-1,1644,1464,0,0
427,-440,0,0,0,0,0,0,0,0,0,-1,1651,1464,0,0
434,-440,0,0,0,0,0,0,0,0,0,-1,1658,1464,0,0
441,-440,0,0,0,0,0,0,0,0,0,-1,1665,1464,0,0
448,-440,0,0,0,0,0,0,0,0,0,-1,1672,1464,0,0
455,-440,0,0,0,0,0,0,0,0,0,-1,1679,1464,0,0
462,-440,0,0,0,0,0,0,0,0,0,-1,1686,1464,0,0
469,-440,0,0,0,0,0,0,0,0,0,-1,1693,1464,0,0
476,-440,0,0,0,0,0,0,0,0,0,-1,1700,1464,0,0
483,-440,0,0,0,0,0,0,0,0,0,-1,1707,1464,0,0
490,-440,0,0,0,0,0,0,0,0,0,-1,1714,1464,0,0
497,-440,16.965,-0.528442,0,0,0,0,0,0,0,-1,1721,1464,16.965,0.528492
504,-440,15.8052,0.670166,0,0,0,0,0,0,0,-1,1728,1464,15.8052,-0.670145
511,-440,17.5754,2.77832,0,0,0,0,0,0,0,-1,1735,1464,17.5754,-2.77826
518,-440,16.9017,3.07861,0,0,0,0,0,0,0,-1,1742,1464,16.9018,-3.07859
525,-440,18.4495,12.0867,0,0,0,0,0,0,0,-1,1749,1464,18.4495,-12.0867
532,-440,15.4319,3.64392,0,0,0,0,0,0,0,-1,1756,1464,15.4318,-3.64391
539,-440,14.8214,3.41321,0,0,0,0,0,0,0,-1,1763,1464,14.8214,-3.4132
546,-440,14.8651,10.7683,0,0,0,0,0,0,0,-1,1770,1464,14.8651,-10.7683
553,-440,15.1213,11.4121,0,0,0,0,0,0,0,-1,1777,1464,15.1213,-11.4121
560,-440,14.9557,11.5443,0,0,0,0,0,0,0,-1,1784,1464,14.9556,-11.5443
567,-440,15.6853,11.2018,0,0,0,0,0,0,0,-1,1791,1464,15.6853,-11.2018
574,-440,16.3047,12.6915,0,0,0,0,0,0,0,-1,1798,1464,16.3047,-12.6915
581,-440,16.0807,12.24,-0.0104333,-0.00169516,0.00547014,0.000936573,-0.013065,1.12238,0.00903841,0.0481147,1805,1464,16.0807,-12.24
588,-440,16.0248,12.0593,-0.0080796,-0.000865737,0.00425156,0.00110279,-0.0100481,1.13717,0.00709497,0.0399213,1812,1464,16.0248,-12.0593
595,-440,16.019,11.6968,-0.00626124,-0.000358019,0.00321793,0.00105696,-0.00767622,1.15653,0.00550373,0.0200091,1819,1464,16.019,-11.6968
602,-440,16.0563,11.3588,-0.0048095,-0.000130811,0.00238454,0.00087029,-0.0058106,1.17331,0.00419404,0.0187226,1826,1464,16.0563,-11.3588
609,-440,16.0552,11.05,-0.00353166,-5.25985e-05,0.00174639,0.000672791,-0.00425705,1.17711,0.00308683,0.0163206,1833,1464,16.0552,-11.0501
616,-440,16.0667,10.7676,-0.00241859,-0.000103508,0.00131023,0.000487264,-0.00300936,1.1472,0.00218683,0.0175045,1840,1464,16.0667,-10.7676
623,-440,16.0508,10.4269,-0.00132241,-0.000336502,0.000971615,0.000260057,-0.00191897,1.02016,0.00137423,0.0138824,1847,1464,16.0508,-10.4269
630,-440,16.0342,10.0807,-0.000329397,-0.000458903,0.000713591,0.000322372,-0.00111067,0.740151,0.000868093,0.0113575,1854,1464,16.0341,-10.0807
637,-440,16.0319,9.81799,0.000443157,-0.000502107,0.000619755,0.000749933,-0.000808883,0.459637,0.000900198,0.0154315,1861,1464,16.0318,-9.81804
644,-440,16.0361,9.52222,0.00115779,-0.000582287,0.000614868,0.00135313,-0.000777626,0.307609,0.00124506,0.0140977,1868,1464,16.0362,-9.52217
651,-440,16.0671,9.14954,0.00154702,-0.000463906,0.000779767,0.00181395,-0.000730839,0.329821,0.00151295,0.0134026,1875,1464,16.0672,-9.14952
658,-440,15.9705,8.84888,0.00172069,-0.000316397,0.000979573,0.0021153,-0.000711003,0.382948,0.00169758,0.0260668,1882,1464,15.9704,-8.84888
665,-440,15.9341,8.46729,0,0,0,0,0,0,0,-1,1889,1464,15.9341,-8.46727
672,-440,15.6787,8.47388,0,0,0,0,0,0,0,-1,1896,1464,15.6787,-8.47392
679,-440,15.5066,8.37622,0,0,0,0,0,0,0,-1,1903,1464,15.5066,-8.37624
686,-440,13.8065,8.06152,0,0,0,0,0,0,0,-1,1910,1464,13.8065,-8.0615
693,-440,9.88635,2.89795,0,0,0,0,0,0,0,-1,1917,1464,9.88638,-2.89798
700,-440,7.07825,-2.62061,0,0,0,0,0,0,0,-1,1924,1464,7.07829,2.62057
707,-440,0,0,0,0,0,0,0,0,0,-1,1931,1464,0,0
714,-440,0,0,0,0,0,0,0,0,0,-1,1938,1464,0,0
721,-440,0,0,0,0,0,0,0,0,0,-1,1945,1464,0,0
728,-440,0,0,0,0,0,0,0,0,0,-1,1952,1464,0,0
735,-440,0,0,0,0,0,0,0,0,0,-1,1959,1464,0,0
742,-440,0,0,0,0,0,0,0,0,0,-1,1966,1464,0,0
749,-440,0,0,0,0,0,0,0,0,0,-1,1973,1464,0,0
756,-440,0,0,0,0,0,0,0,0,0,-1,1980,1464,0,0
763,-440,0,0,0,0,0,0,0,0,0,-1,1987,1464,0,0
770,-440,0,0,0,0,0,0,0,0,0,-1,1994,1464,0,0
777,-440,0,0,0,0,0,0,0,0,0,-1,2001,1464,0,0
784,-440,0,0,0,0,0,0,0,0,0,-1,2008,1464,0,0
791,-440,0,0,0,0,0,0,0,0,0,-1,2015,1464,0,0
798,-440,0,0,0,0,0,0,0,0,0,-1,2022,1464,0,0
805,-440,0,0,0,0,0,0,0,0,0,-1,2029,1464,0,0
812,-440,0,0,0,0,0,0,0,0,0,-1,2036,1464,0,0
-700,-447,0,0,0,0,0,0,0,0,0,-1,524,1471,0,0
-693,-447,0,0,0,0,0,0,0,0,0,-1,531,1471,0,0
-686,-447,0,0,0,0,0,0,0,0,0,-1,538,1471,0,0
-679,-447,0,0,0,0,0,0,0,0,0,-1,545,1471,0,0
-672,-447,0,0,0,0,0,0,0,0,0,-1,552,1471,0,0
-665,-447,0,0,0,0,0,0,0,0,0,-1,559,1471,0,0
-658,-447,0,0,0,0,0,0,0,0,0,-1,566,1471,0,0
-651,-447,0,0,0,0,0,0,0,0,0,-1,573,1471,0,0
-644,-447,0,0,0,0,0,0,0,0,0,-1,580,1471,0,0
-637,-447,0,0,0,0,0,0,0,0,0,-1,587,1471,0,0
-630,-447,0,0,0,0,0,0,0,0,0,-1,594,1471,0,0
-623,-447,0,0,0,0,0,0,0,0,0,-1,601,1471,0,0
-616,-447,0,0,0,0,0,0,0,0,0,-1,608,1471,0,0
-609,-447,0,0,0,0,0,0,0,0,0,-1,615,1471,0,0
-602,-447,0,0,0,0,0,0,0,0,0,-1,622,1471,0,0
-595,-447,0,0,0,0,0,0,0,0,0,-1,629,1471,0,0
-588,-447,0,0,0,0,0,0,0,0,0,-1,636,1471,0,0
-581,-447,-7.06482,-1.50476,0,0,0,0,0,0,0,-1,643,1471,-7.0648,1.50474
-574,-447,-6.88092,-0.00585938,0,0,0,0,0,0,0,-1,650,1471,-6.88095,0.00589852
-567,-447,-6.8205,-1.32178,0,0,0,0,0,0,0,-1,657,1471,-6.82047,1.32172
-560,-447,-8.85748,2.80774,0,0,0,0,0,0,0,-1,664,1471,-8.85748,-2.80775
-553,-447,-7.60486,3.26794,0,0,0,0,0,0,0,-1,671,1471,-7.60487,-3.26799
-546,-447,-3.94501,1.8656,0,0,0,0,0,0,0,-1,678,1471,-3.945,-1.86554
-539,-447,-5.5058,4.34924,0,0,0,0,0,0,0,-1,685,1471,-5.50582,-4.3492
-532,-447,-4.75214,6.39111,0,0,0,0,0,0,0,-1,692,1471,-4.75212,-6.39111
-525,-447,-4.5213,7.06885,0.0152132,0.0146399,0.0194065,0.0343352,-0.00448211,0.778014,0.0245211,0.037505,699,1471,-4.52132,-7.06889
-518,-447,-4.67737,7.26855,0.0125966,0.0109487,0.0149488,0.0267441,-0.00319881,0.757867,0.0189857,0.0313439,706,1471,-4.67737,-7.26858
-511,-447,-4.66626,7.63318,0.010053,0.00792012,0.0111933,0.0202305,-0.00225738,0.737903,0.014299,0.0173353,713,1471,-4.66625,-7.63315
-504,-447,-4.67322,8.03601,0.00756138,0.00538072,0.00787372,0.0144199,-0.00147781,0.716597,0.0101418,0.0209125,720,1471,-4.67324,-8.03604
-497,-447,-4.70612,8.41309,0.00536288,0.00335972,0.00507835,0.00953748,-0.000814876,0.688035,0.00664661,0.0255594,727,1471,-4.70613,-8.41313
-490,-447,-4.67456,8.69458,0.00343786,0.00166469,0.00260007,0.00529834,-0.000195794,0.621088,0.00359927,0.0233619,734,1471,-4.67458,-8.69455
-483,-447,-4.71716,9.0188,0.00198225,-6.42576e-05,0.000251901,0.0020128,-9.48075e-05,0.120688,0.00137456,0.0203029,741,1471,-4.71719,-9.01876
-476,-447,-4.70056,9.36816,0.000845,-0.0020193,-0.00184946,0.00175198,-0.00292628,-0.455943,0.00272921,0.0147563,748,1471,-4.70056,-9.36817
-469,-447,-4.71039,9.74951,-8.57911e-06,-0.00386917,-0.00391653,0.0024275,-0.00630525,-0.556439,0.00520491,0.0126445,755,1471,-4.7104,-9.74947
-462,-447,-4.71362,10.1207,7.64891e-06,-0.00574632,-0.00567775,0.00349571,-0.00923438,-0.550897,0.00759458,0.0126761,762,1471,-4.71365,-10.1207
-455,-447,-4.74353,10.4899,0.000495197,-0.00821374,-0.00766919,0.0049599,-0.0126784,-0.5272,0.0105035,0.0151743,769,1471,-4.74353,-10.4899
-448,-447,-4.62891,10.8922,0.00154601,-0.0117106,-0.0101236,0.00701819,-0.0171828,-0.495549,0.0143774,0.0258564,776,1471,-4.62888,-10.8922
-441,-447,-4.7077,11.2079,0.00307002,-0.0162706,-0.0133304,0.00986827,-0.0230689,-0.471601,0.0195187,0.0343992,783,1471,-4.70769,-11.2078
-434,-447,-4.63354,10.9514,0.00497849,-0.0225602,-0.0174519,0.013439,-0.0310207,-0.451403,0.0263293,0.0431769,790,1471,-4.63357,-10.9514
-427,-447,-4.22992,10.6158,0,0,0,0,0,0,0,-1,797,1471,-4.2299,-10.6158
-420,-447,-5.35791,10.4331,0,0,0,0,0,0,0,-1,804,1471,-5.35791,-10.4331
-413,-447,-4.27393,6.59705,0,0,0,0,0,0,0,-1,811,1471,-4.27392,-6.59707
-406,-447,-1.04279,6.18591,0,0,0,0,0,0,0,-1,818,1471,-1.04276,-6.18586
-399,-447,0.0134888,0.687622,0,0,0,0,0,0,0,-1,825,1471,0.0134841,-0.68767
-392,-447,-14.0646,3.76147,0,0,0,0,0,0,0,-1,832,1471,-14.0646,-3.7615
-385,-447,-15.1695,2.61865,0,0,0,0,0,0,0,-1,839,1471,-15.1695,-2.61871
-378,-447,-15.9424,1.49316,0,0,0,0,0,0,0,-1,846,1471,-15.9424,-1.49313
-371,-447,-17.3655,0.73291,0,0,0,0,0,0,0,-1,853,1471,-17.3655,-0.732946
-364,-447,0,0,0,0,0,0,0,0,0,-1,860,1471,0,0
-357,-447,0,0,0,0,0,0,0,0,0,-1,867,1471,0,0
-350,-447,0,0,0,0,0,0,0,0,0,-1,874,1471,0,0
-343,-447,0,0,0,0,0,0,0,0,0,-1,881,1471,0,0
-336,-447,0,0,0,0,0,0,0,0,0,-1,888,1471,0,0
-329,-447,0,0,0,0,0,0,0,0,0,-1,895,1471,0,0
-322,-447,0,0,0,0,0,0,0,0,0,-1,902,1471,0,0
-315,-447,0,0,0,0,0,0,0,0,0,-1,909,1471,0,0
-308,-447,0,0,0,0,0,0,0,0,0,-1,916,1471,0,0
-301,-447,0,0,0,0,0,0,0,0,0,-1,923,1471,0,0
-294,-447,0,0,0,0,0,0,0,0,0,-1,930,1471,0,0
-287,-447,0,0,0,0,0,0,0,0,0,-1,937,1471,0,0
-280,-447,0,0,0,0,0,0,0,0,0,-1,944,1471,0,0
-273,-447,0,0,0,0,0,0,0,0,0,-1,951,1471,0,0
-266,-447,0,0,0,0,0,0,0,0,0,-1,958,1471,0,0
-259,-447,0,0,0,0,0,0,0,0,0,-1,965,1471,0,0
-252,-447,0,0,0,0,0,0,0,0,0,-1,972,1471,0,0
-245,-447,0,0,0,0,0,0,0,0,0,-1,979,1471,0,0
-238,-447,0,0,0,0,0,0,0,0,0,-1,986,1471,0,0
-231,-447,0,0,0,0,0,0,0,0,0,-1,993,1471,0,0
-224,-447,0,0,0,0,0,0,0,0,0,-1,1000,1471,0,0
-217,-447,0,0,0,0,0,0,0,0,0,-1,1007,1471,0,0
-210,-447,0,0,0,0,0,0,0,0,0,-1,1014,1471,0,0
-203,-447,0,0,0,0,0,0,0,0,0,-1,1021,1471,0,0
-196,-447,0,0,0,0,0,0,0,0,0,-1,1028,1471,0,0
-189,-447,0,0,0,0,0,0,0,0,0,-1,1035,1471,0,0
-182,-447,0,0,0,0,0,0,0,0,0,-1,1042,1471,0,0
-175,-447,0,0,0,0,0,0,0,0,0,-1,1049,1471,0,0
-168,-447,0,0,0,0,0,0,0,0,0,-1,1056,1471,0,0
-161,-447,0,0,0,0,0,0,0,0,0,-1,1063,1471,0,0
-154,-447,0,0,0,0,0,0,0,0,0,-1,1070,1471,0,0
-147,-447,0,0,0,0,0,0,0,0,0,-1,1077,1471,0,0
-140,-447,0,0,0,0,0,0,0,0,0,-1,1084,1471,0,0
-133,-447,0,0,0,0,0,0,0,0,0,-1,1091,1471,0,0
-126,-447,0,0,0,0,0,0,0,0,0,-1,1098,1471,0,0
-119,-447,0,0,0,0,0,0,0,0,0,-1,1105,1471,0,0
-112,-447,0,0,0,0,0,0,0,0,0,-1,1112,1471,0,0
-105,-447,0,0,0,0,0,0,0,0,0,-1,1119,1471,0,0
-98,-447,0,0,0,0,0,0,0,0,0,-1,1126,1471,0,0
-91,-447,0,0,0,0,0,0,0,0,0,-1,1133,1471,0,0
-84,-447,0,0,0,0,0,0,0,0,0,-1,1140,1471,0,0
-77,-447,0,0,0,0,0,0,0,0,0,-1,1147,1471,0,0
-70,-447,0,0,0,0,0,0,0,0,0,-1,1154,1471,0,0
-63,-447,0,0,0,0,0,0,0,0,0,-1,1161,1471,0,0
-56,-447,0,0,0,0,0,0,0,0,0,-1,1168,1471,0,0
-49,-447,0,0,0,0,0,0,0,0,0,-1,1175,1471,0,0
-42,-447,0,0,0,0,0,0,0,0,0,-1,1182,1471,0,0
-35,-447,0,0,0,0,0,0,0,0,0,-1,1189,1471,0,0
-28,-447,0,0,0,0,0,0,0,0,0,-1,1196,1471,0,0
-21,-447,0,0,0,0,0,0,0,0,0,-1,1203,1471,0,0
-14,-447,0,0,0,0,0,0,0,0,0,-1,1210,1471,0,0
-7,-447,0,0,0,0,0,0,0,0,0,-1,1217,1471,0,0
0,-447,0,0,0,0,0,0,0,0,0,-1,1224,1471,0,0
7,-447,0,0,0,0,0,0,0,0,0,-1,1231,1471,0,0
14,-447,0,0,0,0,0,0,0,0,0,-1,1238,1471,0,0
21,-447,0,0,0,0,0,0,0,0,0,-1,1245,1471,0,0
28,-447,0,0,0,0,0,0,0,0,0,-1,1252,1471,0,0
35,-447,0,0,0,0,0,0,0,0,0,-1,1259,1471,0,0
42,-447,0,0,0,0,0,0,0,0,0,-1,1266,1471,0,0
49,-447,0,0,0,0,0,0,0,0,0,-1,1273,1471,0,0
56,-447,0,0,0,0,0,0,0,0,0,-1,1280,1471,0,0
63,-447,0,0,0,0,0,0,0,0,0,-1,1287,1471,0,0
70,-447,0,0,0,0,0,0,0,0,0,-1,1294,1471,0,0
77,-447,0,0,0,0,0,0,0,0,0,-1,1301,1471,0,0
84,-447,0,0,0,0,0,0,0,0,0,-1,1308,1471,0,0
91,-447,0,0,0,0,0,0,0,0,0,-1,1315,1471,0,0
98,-447,0,0,0,0,0,0,0,0,0,-1,1322,1471,0,0
105,-447,0,0,0,0,0,0,0,0,0,-1,1329,1471,0,0
112,-447,0,0,0,0,0,0,0,0,0,-1,1336,1471,0,0
119,-447,0,0,0,0,0,0,0,0,0,-1,1343,1471,0,0
126,-447,0,0,0,0,0,0,0,0,0,-1,1350,1471,0,0
133,-447,0,0,0,0,0,0,0,0,0,-1,1357,1471,0,0
140,-447,0,0,0,0,0,0,0,0,0,-1,1364,1471,0,0
147,-447,0,0,0,0,0,0,0,0,0,-1,1371,1471,0,0
154,-447,0,0,0,0,0,0,0,0,0,-1,1378,1471,0,0
161,-447,0,0,0,0,0,0,0,0,0,-1,1385,1471,0,0
168,-447,0,0,0,0,0,0,0,0,0,-1,1392,1471,0,0
175,-447,0,0,0,0,0,0,0,0,0,-1,1399,1471,0,0
182,-447,0,0,0,0,0,0,0,0,0,-1,1406,1471,0,0
189,-447,0,0,0,0,0,0,0,0,0,-1,1413,1471,0,0
196,-447,0,0,0,0,0,0,0,0,0,-1,1420,1471,0,0
203,-447,0,0,0,0,0,0,0,0,0,-1,1427,1471,0,0
210,-447,0,0,0,0,0,0,0,0,0,-1,1434,1471,0,0
217,-447,0,0,0,0,0,0,0,0,0,-1,1441,1471,0,0
224,-447,0,0,0,0,0,0,0,0,0,-1,1448,1471,0,0
231,-447,0,0,0,0,0,0,0,0,0,-1,1455,1471,0,0
238,-447,0,0,0,0,0,0,0,0,0,-1,1462,1471,0,0
245,-447,0,0,0,0,0,0,0,0,0,-1,1469,1471,0,0
252,-447,0,0,0,0,0,0,0,0,0,-1,1476,1471,0,0
259,-447,0,0,0,0,0,0,0,0,0,-1,1483,1471,0,0
266,-447,0,0,0,0,0,0,0,0,0,-1,1490,1471,0,0
273,-447,0,0,0,0,0,0,0,0,0,-1,1497,1471,0,0
280,-447,0,0,0,0,0,0,0,0,0,-1,1504,1471,0,0
287,-447,0,0,0,0,0,0,0,0,0,-1,1511,1471,0,0
294,-447,0,0,0,0,0,0,0,0,0,-1,1518,1471,0,0
301,-447,0,0,0,0,0,0,0,0,0,-1,1525,1471,0,0
308,-447,0,0,0,0,0,0,0,0,0,-1,1532,1471,0,0
315,-447,0,0,0,0,0,0,0,0,0,-1,1539,1471,0,0
322,-447,0,0,0,0,0,0,0,0,0,-1,1546,1471,0,0
329,-447,0,0,0,0,0,0,0,0,0,-1,1553,1471,0,0
336,-447,0,0,0,0,0,0,0,0,0,-1,1560,1471,0,0
343,-447,0,0,0,0,0,0,0,0,0,-1,1567,1471,0,0
350,-447,0,0,0,0,0,0,0,0,0,-1,1574,1471,0,0
357,-447,0,0,0,0,0,0,0,0,0,-1,1581,1471,0,0
364,-447,0,0,0,0,0,0,0,0,0,-1,1588,1471,0,0
371,-447,0,0,0,0,0,0,0,0,0,-1,1595,1471,0,0
378,-447,0,0,0,0,0,0,0,0,0,-1,1602,1471,0,0
385,-447,0,0,0,0,0,0,0,0,0,-1,1609,1471,0,0
392,-447,0,0,0,0,0,0,0,0,0,-1,1616,1471,0,0
399,-447,0,0,0,0,0,0,0,0,0,-1,1623,1471,0,0
406,-447,0,0,0,0,0,0,0,0,0,-1,1630,1471,0,0
413,-447,0,0,0,0,0,0,0,0,0,-1,1637,1471,0,0
420,-447,0,0,0,0,0,0,0,0,0,-1,1644,1471,0,0
427,-447,0,0,0,0,0,0,0,0,0,-1,1651,1471,0,0
434,-447,0,0,0,0,0,0,0,0,0,-1,1658,1471,0,0
441,-447,0,0,0,0,0,0,0,0,0,-1,1665,1471,0,0
448,-447,0,0,0,0,0,0,0,0,0,-1,1672,1471,0,0
455,-447,0,0,0,0,0,0,0,0,0,-1,1679,1471,0,0
462,-447,0,0,0,0,0,0,0,0,0,-1,1686,1471,0,0
469,-447,0,0,0,0,0,0,0,0,0,-1,1693,1471,0,0
476,-447,0,0,0,0,0,0,0,0,0,-1,1700,1471,0,0
483,-447,0,0,0,0,0,0,0,0,0,-1,1707,1471,0,0
490,-447,18.2214,-0.810303,0,0,0,0,0,0,0,-1,1714,1471,18.2215,0.810307
497,-447,17.0237,0.352417,0,0,0,0,0,0,0,-1,1721,1471,17.0237,-0.352442
504,-447,15.8998,1.53479,0,0,0,0,0,0,0,-1,1728,1471,15.8997,-1.53478
511,-447,14.7201,2.76111,0,0,0,0,0,0,0,-1,1735,1471,14.7201,-2.76107
518,-447,17.7618,13.2864,0,0,0,0,0,0,0,-1,1742,1471,17.7619,-13.2863
525,-447,17.1191,11.9014,0,0,0,0,0,0,0,-1,1749,1471,17.1191,-11.9013
532,-447,16.3959,10.0455,0,0,0,0,0,0,0,-1,1756,1471,16.3959,-10.0456
539,-447,14.1699,10.0204,0,0,0,0,0,0,0,-1,1763,1471,14.1699,-10.0204
546,-447,16.3715,11.8046,0,0,0,0,0,0,0,-1,1770,1471,16.3714,-11.8046
553,-447,15.9614,11.6818,0,0,0,0,0,0,0,-1,1777,1471,15.9614,-11.6818
560,-447,15.6787,12.0798,0,0,0,0,0,0,0,-1,1784,1471,15.6787,-12.0799
567,-447,16.0209,12.851,0,0,0,0,0,0,0,-1,1791,1471,16.0209,-12.851
574,-447,15.8958,12.5774,-0.00950539,-0.00295086,0.0055471,0.000214759,-0.012671,1.05221,0.00851983,0.0406569,1798,1471,15.8957,-12.5774
581,-447,15.7142,12.4576,-0.00753325,-0.0018383,0.00431414,0.000483353,-0.00985491,1.0771,0.00673684,0.0240063,1805,1471,15.7143,-12.4576
588,-447,15.7625,12.0422,-0.00563863,-0.000994421,0.00329661,0.000715816,-0.00734887,1.09223,0.00515445,0.0161007,1812,1471,15.7624,-12.0422
595,-447,15.7476,11.6882,-0.00425449,-0.00044668,0.0024459,0.00074898,-0.00545015,1.11612,0.00390709,0.0125158,1819,1471,15.7476,-11.6883
602,-447,15.7301,11.3589,-0.00321351,-0.000177716,0.00180414,0.000662123,-0.00405335,1.13512,0.00294783,0.0119327,1826,1471,15.7301,-11.3588
609,-447,15.7313,11.053,-0.0022415,-4.64134e-05,0.00131301,0.00056736,-0.00285527,1.13352,0.00211812,0.0127789,1833,1471,15.7313,-11.053
616,-447,15.7405,10.7423,-0.00137252,-7.57727e-05,0.000992435,0.000461315,-0.0019096,1.07475,0.00145149,0.0134257,1840,1471,15.7405,-10.7423
623,-447,15.7349,10.4387,-0.000479464,-0.000298231,0.000768467,0.000384944,-0.00116264,0.844086,0.000930344,0.0157659,1847,1471,15.7349,-10.4388
630,-447,15.7205,10.1141,0.000351543,-0.000439482,0.000639167,0.000707672,-0.000795611,0.508336,0.000868416,0.00944877,1854,1471,15.7204,-10.1141
637,-447,15.7274,9.80298,0.00102338,-0.000545601,0.00066731,0.0012688,-0.000791027,0.35243,0.00119986,0.00964337,1861,1471,15.7275,-9.80303
644,-447,15.7393,9.4939,0.00168507,-0.000633751,0.000761877,0.00191299,-0.000861672,0.290683,0.00163984,0.0103852,1868,1471,15.7393,-9.49386
651,-447,15.7939,9.14709,0.00199128,-0.000517354,0.00109155,0.00239973,-0.000925803,0.358062,0.00198186,0.0306565,1875,1471,15.7939,-9.14706
658,-447,15.5337,8.99585,0.00218317,-0.00037857,0.00141289,0.00280936,-0.00100476,0.417184,0.00228276,0.0406452,1882,1471,15.5337,-8.99587
665,-447,15.3623,8.60559,0,0,0,0,0,0,0,-1,1889,1471,15.3623,-8.60555
672,-447,15.2289,8.35278,0,0,0,0,0,0,0,-1,1896,1471,15.2289,-8.35274
679,-447,14.1313,8.05774,0,0,0,0,0,0,0,-1,1903,1471,14.1313,-8.05776
686,-447,9.81079,4.30859,0,0,0,0,0,0,0,-1,1910,1471,9.8108,-4.30864
693,-447,10.48,2.08643,0,0,0,0,0,0,0,-1,1917,1471,10.48,-2.08642
700,-447,0,0,0,0,0,0,0,0,0,-1,1924,1471,0,0
707,-447,0,0,0,0,0,0,0,0,0,-1,1931,1471,0,0
714,-447,0,0,0,0,0,0,0,0,0,-1,1938,1471,0,0
721,-447,0,0,0,0,0,0,0,0,0,-1,1945,1471,0,0
728,-447,0,0,0,0,0,0,0,0,0,-1,1952,1471,0,0
735,-447,0,0,0,0,0,0,0,0,0,-1,1959,1471,0,0
742,-447,0,0,0,0,0,0,0,0,0,-1,1966,1471,0,0
749,-447,0,0,0,0,0,0,0,0,0,-1,1973,1471,0,0
756,-447,0,0,0,0,0,0,0,0,0,-1,1980,1471,0,0
763,-447,0,0,0,0,0,0,0,0,0,-1,1987,1471,0,0
770,-447,0,0,0,0,0,0,0,0,0,-1,1994,1471,0,0
777,-447,0,0,0,0,0,0,0,0,0,-1,2001,1471,0,0
784,-447,0,0,0,0,0,0,0,0,0,-1,2008,1471,0,0
791,-447,0,0,0,0,0,0,0,0,0,-1,2015,1471,0,0
798,-447,0,0,0,0,0,0,0,0,0,-1,2022,1471,0,0
805,-447,0,0,0,0,0,0,0,0,0,-1,2029,1471,0,0
812,-447,0,0,0,0,0,0,0,0,0,-1,2036,1471,0,0
-700,-454,0,0,0,0,0,0,0,0,0,-1,524,1478,0,0
-693,-454,0,0,0,0,0,0,0,0,0,-1,531,1478,0,0
-686,-454,0,0,0,0,0,0,0,0,0,-1,538,1478,0,0
-679,-454,0,0,0,0,0,0,0,0,0,-1,545,1478,0,0
-672,-454,0,0,0,0,0,0,0,0,0,-1,552,1478,0,0
-665,-454,0,0,0,0,0,0,0,0,0,-1,559,1478,0,0
-658,-454,0,0,0,0,0,0,0,0,0,-1,566,1478,0,0
-651,-454,0,0,0,0,0,0,0,0,0,-1,573,1478,0,0
-644,-454,0,0,0,0,0,0,0,0,0,-1,580,1478,0,0
-637,-454,0,0,0,0,0,0,0,0,0,-1,587,1478,0,0
-630,-454,0,0,0,0,0,0,0,0,0,-1,594,1478,0,0
-623,-454,0,0,0,0,0,0,0,0,0,-1,601,1478,0,0
-616,-454,0,0,0,0,0,0,0,0,0,-1,608,1478,0,0
-609,-454,0,0,0,0,0,0,0,0,0,-1,615,1478,0,0
-602,-454,0,0,0,0,0,0,0,0,0,-1,622,1478,0,0
-595,-454,0,0,0,0,0,0,0,0,0,-1,629,1478,0,0
-588,-454,0,0,0,0,0,0,0,0,0,-1,636,1478,0,0
-581,-454,0,0,0,0,0,0,0,0,0,-1,643,1478,0,0
-574,-454,-8.4881,-0.465942,0,0,0,0,0,0,0,-1,650,1478,-8.4881,0.465885
-567,-454,-8.10046,0.922974,0,0,0,0,0,0,0,-1,657,1478,-8.10047,-0.923034
-560,-454,-10.656,3.51172,0,0,0,0,0,0,0,-1,664,1478,-10.656,-3.51176
-553,-454,-9.01129,3.95251,0,0,0,0,0,0,0,-1,671,1478,-9.0113,-3.95256
-546,-454,-9.61896,6.05237,0,0,0,0,0,0,0,-1,678,1478,-9.61897,-6.05239
-539,-454,-7.72589,4.96533,0,0,0,0,0,0,0,-1,685,1478,-7.72592,-4.96532
-532,-454,-4.77856,5.59802,0,0,0,0,0,0,0,-1,692,1478,-4.77859,-5.598
-525,-454,-4.49408,6.50659,0.0222933,0.0193488,0.0261785,0.0470409,-0.00539884,0.757308,0.0333064,0.04505,699,1478,-4.4941,-6.50662
-518,-454,-4.27911,7.52417,0.0178702,0.0141212,0.0197259,0.0358105,-0.0038191,0.738027,0.0252432,0.0371349,706,1478,-4.2791,-7.52412
-511,-454,-4.37006,7.6156,0.0139098,0.0100105,0.0145222,0.0266126,-0.00269235,0.71867,0.0187039,0.0245516,713,1478,-4.37005,-7.61565
-504,-454,-4.3291,8.01794,0.0103581,0.00678754,0.0102223,0.0189499,-0.00180423,0.698947,0.0132756,0.0162584,720,1478,-4.32911,-8.01791
-497,-454,-4.3396,8.39648,0.00736669,0.00428466,0.00674731,0.0127467,-0.00109538,0.673129,0.00888548,0.0197345,727,1478,-4.33962,-8.39652
-490,-454,-4.34863,8.74023,0.00491487,0.00234338,0.00389439,0.00773027,-0.000472029,0.625955,0.00531785,0.0169947,734,1478,-4.3486,-8.74023
-483,-454,-4.37775,9.07275,0.00316097,0.000578428,0.00142761,0.00379465,-5.52529e-05,0.41775,0.00254839,0.0147551,741,1478,-4.37772,-9.0727
-476,-454,-4.3938,9.40417,0.00194044,-0.00127898,-0.000619142,0.00205541,-0.00139395,-0.183593,0.00200365,0.013054,748,1478,-4.39381,-9.40421
-469,-454,-4.37573,9.78613,0.00101516,-0.00309494,-0.00268131,0.00233837,-0.00441815,-0.458429,0.003962,0.009123,755,1478,-4.37572,-9.78607
-462,-454,-4.3811,10.1345,0.00110807,-0.00465954,-0.00412766,0.00325953,-0.006811,-0.480488,0.00593352,0.00973057,762,1478,-4.38108,-10.1345
-455,-454,-4.39496,10.4725,0.00186162,-0.00659884,-0.00556094,0.00461844,-0.00935566,-0.46024,0.00822103,0.0112775,769,1478,-4.39497,-10.4726
-448,-454,-4.39185,10.8202,0.00321909,-0.00925973,-0.00723917,0.00653666,-0.0125773,-0.429718,0.0112176,0.0137201,776,1478,-4.39186,-10.8202
-441,-454,-4.18311,11.2301,0.00508913,-0.012767,-0.00941558,0.00913656,-0.0168144,-0.405985,0.0151998,0.0254759,783,1478,-4.18314,-11.2301
-434,-454,-4.0531,11.4604,0.00738971,-0.0175287,-0.0121803,0.0123544,-0.0224934,-0.38704,0.0204013,0.0337724,790,1478,-4.05308,-11.4605
-427,-454,-4.04852,10.9364,0.0103253,-0.0237103,-0.0156073,0.0163985,-0.0297835,-0.371096,0.0270339,0.0436157,797,1478,-4.04852,-10.9364
-420,-454,-4.12323,10.7695,0,0,0,0,0,0,0,-1,804,1478,-4.12321,-10.7695
-413,-454,-5.1051,9.7323,0,0,0,0,0,0,0,-1,811,1478,-5.10512,-9.73226
-406,-454,-2.38208,10.0308,0,0,0,0,0,0,0,-1,818,1478,-2.38209,-10.0308
-399,-454,-1.21033,6.95447,0,0,0,0,0,0,0,-1,825,1478,-1.21035,-6.95452
-392,-454,0.0967407,0.985474,0,0,0,0,0,0,0,-1,832,1478,0.0967364,-0.985529
-385,-454,2.38629,3.297,0,0,0,0,0,0,0,-1,839,1478,2.38629,-3.29702
-378,-454,-15.9756,2.83997,0,0,0,0,0,0,0,-1,846,1478,-15.9756,-2.83994
-371,-454,-17.2753,2.01453,0,0,0,0,0,0,0,-1,853,1478,-17.2753,-2.01455
-364,-454,1.08124,0.819458,0,0,0,0,0,0,0,-1,860,1478,1.08124,-0.819513
-357,-454,0,0,0,0,0,0,0,0,0,-1,867,1478,0,0
-350,-454,0,0,0,0,0,0,0,0,0,-1,874,1478,0,0
-343,-454,0,0,0,0,0,0,0,0,0,-1,881,1478,0,0
-336,-454,0,0,0,0,0,0,0,0,0,-1,888,1478,0,0
-329,-454,0,0,0,0,0,0,0,0,0,-1,895,1478,0,0
-322,-454,0,0,0,0,0,0,0,0,0,-1,902,1478,0,0
-315,-454,0,0,0,0,0,0,0,0,0,-1,909,1478,0,0
-308,-454,0,0,0,0,0,0,0,0,0,-1,916,1478,0,0
-301,-454,0,0,0,0,0,0,0,0,0,-1,923,1478,0,0
-294,-454,0,0,0,0,0,0,0,0,0,-1,930,1478,0,0
-287,-454,0,0,0,0,0,0,0,0,0,-1,937,1478,0,0
-280,-454,0,0,0,0,0,0,0,0,0,-1,944,1478,0,0
-273,-454,0,0,0,0,0,0,0,0,0,-1,951,1478,0,0
-266,-454,0,0,0,0,0,0,0,0,0,-1,958,1478,0,0
-259,-454,0,0,0,0,0,0,0,0,0,-1,965,1478,0,0
-252,-454,0,0,0,0,0,0,0,0,0,-1,972,1478,0,0
-245,-454,0,0,0,0,0,0,0,0,0,-1,979,1478,0,0
-238,-454,0,0,0,0,0,0,0,0,0,-1,986,1478,0,0
-231,-454,0,0,0,0,0,0,0,0,0,-1,993,1478,0,0
-224,-454,0,0,0,0,0,0,0,0,0,-1,1000,1478,0,0
-217,-454,0,0,0,0,0,0,0,0,0,-1,1007,1478,0,0
-210,-454,0,0,0,0,0,0,0,0,0,-1,1014,1478,0,0
-203,-454,0,0,0,0,0,0,0,0,0,-1,1021,1478,0,0
-196,-454,0,0,0,0,0,0,0,0,0,-1,1028,1478,0,0
-189,-454,0,0,0,0,0,0,0,0,0,-1,1035,1478,0,0
-182,-454,0,0,0,0,0,0,0,0,0,-1,1042,1478,0,0
-175,-454,0,0,0,0,0,0,0,0,0,-1,1049,1478,0,0
-168,-454,0,0,0,0,0,0,0,0,0,-1,1056,1478,0,0
-161,-454,0,0,0,0,0,0,0,0,0,-1,1063,1478,0,0
-154,-454,0,0,0,0,0,0,0,0,0,-1,1070,1478,0,0
-147,-454,0,0,0,0,0,0,0,0,0,-1,1077,1478,0,0
-140,-454,0,0,0,0,0,0,0,0,0,-1,1084,1478,0,0
-133,-454,0,0,0,0,0,0,0,0,0,-1,1091,1478,0,0
-126,-454,0,0,0,0,0,0,0,0,0,-1,1098,1478,0,0
-119,-454,0,0,0,0,0,0,0,0,0,-1,1105,1478,0,0
-112,-454,0,0,0,0,0,0,0,0,0,-1,1112,1478,0,0
-105,-454,0,0,0,0,0,0,0,0,0,-1,1119,1478,0,0
-98,-454,0,0,0,0,0,0,0,0,0,-1,1126,1478,0,0
-91,-454,0,0,0,0,0,0,0,0,0,-1,1133,1478,0,0
-84,-454,0,0,0,0,0,0,0,0,0,-1,1140,1478,0,0
-77,-454,0,0,0,0,0,0,0,0,0,-1,1147,1478,0,0
-70,-454,0,0,0,0,0,0,0,0,0,-1,1154,1478,0,0
-63,-454,0,0,0,0,0,0,0,0,0,-1,1161,1478,0,0
-56,-454,0,0,0,0,0,0,0,0,0,-1,1168,1478,0,0
-49,-454,0,0,0,0,0,0,0,0,0,-1,1175,1478,0,0
-42,-454,0,0,0,0,0,0,0,0,0,-1,1182,1478,0,0
-35,-454,0,0,0,0,0,0,0,0,0,-1,1189,1478,0,0
-28,-454,0,0,0,0,0,0,0,0,0,-1,1196,1478,0,0
-21,-454,0,0,0,0,0,0,0,0,0,-1,1203,1478,0,0
-14,-454,0,0,0,0,0,0,0,0,0,-1,1210,1478,0,0
-7,-454,0,0,0,0,0,0,0,0,0,-1,1217,1478,0,0
0,-454,0,0,0,0,0,0,0,0,0,-1,1224,1478,0,0
7,-454,0,0,0,0,0,0,0,0,0,-1,1231,1478,0,0
14,-454,0,0,0,0,0,0,0,0,0,-1,1238,1478,0,0
21,-454,0,0,0,0,0,0,0,0,0,-1,1245,1478,0,0
28,-454,0,0,0,0,0,0,0,0,0,-1,1252,1478,0,0
35,-454,0,0,0,0,0,0,0,0,0,-1,1259,1478,0,0
42,-454,0,0,0,0,0,0,0,0,0,-1,1266,1478,0,0
49,-454,0,0,0,0,0,0,0,0,0,-1,1273,1478,0,0
56,-454,0,0,0,0,0,0,0,0,0,-1,1280,1478,0,0
63,-454,0,0,0,0,0,0,0,0,0,-1,1287,1478,0,0
70,-454,0,0,0,0,0,0,0,0,0,-1,1294,1478,0,0
77,-454,0,0,0,0,0,0,0,0,0,-1,1301,1478,0,0
84,-454,0,0,0,0,0,0,0,0,0,-1,1308,1478,0,0
91,-454,0,0,0,0,0,0,0,0,0,-1,1315,1478,0,0
98,-454,0,0,0,0,0,0,0,0,0,-1,1322,1478,0,0
105,-454,0,0,0,0,0,0,0,0,0,-1,1329,1478,0,0
112,-454,0,0,0,0,0,0,0,0,0,-1,1336,1478,0,0
119,-454,0,0,0,0,0,0,0,0,0,-1,1343,1478,0,0
126,-454,0,0,0,0,0,0,0,0,0,-1,1350,1478,0,0
133,-454,0,0,0,0,0,0,0,0,0,-1,1357,1478,0,0
140,-454,0,0,0,0,0,0,0,0,0,-1,1364,1478,0,0
147,-454,0,0,0,0,0,0,0,0,0,-1,1371,1478,0,0
154,-454,0,0,0,0,0,0,0,0,0,-1,1378,1478,0,0
161,-454,0,0,0,0,0,0,0,0,0,-1,1385,1478,0,0
168,-454,0,0,0,0,0,0,0,0,0,-1,1392,1478,0,0
175,-454,0,0,0,0,0,0,0,0,0,-1,1399,1478,0,0
182,-454,0,0,0,0,0,0,0,0,0,-1,1406,1478,0,0
189,-454,0,0,0,0,0,0,0,0,0,-1,1413,1478,0,0
196,-454,0,0,0,0,0,0,0,0,0,-1,1420,1478,0,0
203,-454,0,0,0,0,0,0,0,0,0,-1,1427,1478,0,0
210,-454,0,0,0,0,0,0,0,0,0,-1,1434,1478,0,0
217,-454,0,0,0,0,0,0,0,0,0,-1,1441,1478,0,0
224,-454,0,0,0,0,0,0,0,0,0,-1,1448,1478,0,0
231,-454,0,0,0,0,0,0,0,0,0,-1,1455,1478,0,0
238,-454,0,0,0,0,0,0,0,0,0,-1,1462,1478,0,0
245,-454,0,0,0,0,0,0,0,0,0,-1,1469,1478,0,0
252,-454,0,0,0,0,0,0,0,0,0,-1,1476,1478,0,0
259,-454,0,0,0,0,0,0,0,0,0,-1,1483,1478,0,0
266,-454,0,0,0,0,0,0,0,0,0,-1,1490,1478,0,0
273,-454,0,0,0,0,0,0,0,0,0,-1,1497,1478,0,0
280,-454,0,0,0,0,0,0,0,0,0,-1,1504,1478,0,0
287,-454,0,0,0,0,0,0,0,0,0,-1,1511,1478,0,0
294,-454,0,0,0,0,0,0,0,0,0,-1,1518,1478,0,0
301,-454,0,0,0,0,0,0,0,0,0,-1,1525,1478,0,0
308,-454,0,0,0,0,0,0,0,0,0,-1,1532,1478,0,0
315,-454,0,0,0,0,0,0,0,0,0,-1,1539,1478,0,0
322,-454,0,0,0,0,0,0,0,0,0,-1,1546,1478,0,0
329,-454,0,0,0,0,0,0,0,0,0,-1,1553,1478,0,0
336,-454,0,0,0,0,0,0,0,0,0,-1,1560,1478,0,0
343,-454,0,0,0,0,0,0,0,0,0,-1,1567,1478,0,0
350,-454,0,0,0,0,0,0,0,0,0,-1,1574,1478,0,0
357,-454,0,0,0,0,0,0,0,0,0,-1,1581,1478,0,0
364,-454,0,0,0,0,0,0,0,0,0,-1,1588,1478,0,0
371,-454,0,0,0,0,0,0,0,0,0,-1,1595,1478,0,0
378,-454,0,0,0,0,0,0,0,0,0,-1,1602,1478,0,0
385,-454,0,0,0,0,0,0,0,0,0,-1,1609,1478,0,0
392,-454,0,0,0,0,0,0,0,0,0,-1,1616,1478,0,0
399,-454,0,0,0,0,0,0,0,0,0,-1,1623,1478,0,0
406,-454,0,0,0,0,0,0,0,0,0,-1,1630,1478,0,0
413,-454,0,0,0,0,0,0,0,0,0,-1,1637,1478,0,0
420,-454,0,0,0,0,0,0,0,0,0,-1,1644,1478,0,0
427,-454,0,0,0,0,0,0,0,0,0,-1,1651,1478,0,0
434,-454,0,0,0,0,0,0,0,0,0,-1,1658,1478,0,0
441,-454,0,0,0,0,0,0,0,0,0,-1,1665,1478,0,0
448,-454,0,0,0,0,0,0,0,0,0,-1,1672,1478,0,0
455,-454,0,0,0,0,0,0,0,0,0,-1,1679,1478,0,0
462,-454,0,0,0,0,0,0,0,0,0,-1,1686,1478,0,0
469,-454,0,0,0,0,0,0,0,0,0,-1,1693,1478,0,0
476,-454,0,0,0,0,0,0,0,0,0,-1,1700,1478,0,0
483,-454,14.2399,3.97498,0,0,0,0,0,0,0,-1,1707,1478,14.2399,-3.97502
490,-454,18.1821,-0.175781,0,0,0,0,0,0,0,-1,1714,1478,18.1821,0.175822
497,-454,16.8854,1.01208,0,0,0,0,0,0,0,-1,1721,1478,16.8854,-1.01209
504,-454,15.587,2.05994,0,0,0,0,0,0,0,-1,1728,1478,15.5871,-2.05998
511,-454,17.0273,14.5258,0,0,0,0,0,0,0,-1,1735,1478,17.0273,-14.5258
518,-454,16.4158,13.1039,0,0,0,0,0,0,0,-1,1742,1478,16.4157,-13.1038
525,-454,15.7842,11.6628,0,0,0,0,0,0,0,-1,1749,1478,15.7841,-11.6629
532,-454,15.1094,10.2476,0,0,0,0,0,0,0,-1,1756,1478,15.1094,-10.2475
539,-454,13.7905,10.9373,0,0,0,0,0,0,0,-1,1763,1478,13.7906,-10.9372
546,-454,16.2002,13.2458,0,0,0,0,0,0,0,-1,1770,1478,16.2002,-13.2459
553,-454,15.6747,12.1868,0,0,0,0,0,0,0,-1,1777,1478,15.6747,-12.1868
560,-454,15.6146,13.5557,0,0,0,0,0,0,0,-1,1784,1478,15.6146,-13.5556
567,-454,15.6034,13.0366,-0.00917053,-0.00419762,0.00561593,-0.000542315,-0.0128258,0.993802,0.00837563,0.0418763,1791,1478,15.6034,-13.0366
574,-454,15.4302,12.625,-0.00706713,-0.00286303,0.0044204,-7.03284e-05,-0.00985983,1.00734,0.0065499,0.0200898,1798,1478,15.4302,-12.625
581,-454,15.4355,12.3053,-0.00544517,-0.00176208,0.00337701,0.000242867,-0.00745012,1.03502,0.00504965,0.0139058,1805,1478,15.4356,-12.3053
588,-454,15.4523,12.0033,-0.00381506,-0.000972004,0.00251494,0.000495358,-0.00528242,1.04263,0.00369781,0.0126296,1812,1478,15.4523,-12.0033
595,-454,15.4163,11.6965,-0.00269581,-0.000439078,0.001804,0.000560374,-0.00369526,1.06487,0.00266998,0.0118992,1819,1478,15.4163,-11.6965
602,-454,15.4084,11.3798,-0.00191298,-0.000175239,0.00130918,0.000527158,-0.00261537,1.07836,0.00194328,0.00936512,1826,1478,15.4085,-11.3798
609,-454,15.4303,11.0809,-0.00112523,-3.66364e-05,0.000938277,0.00050379,-0.00166565,1.04823,0.00131104,0.0106219,1833,1478,15.4303,-11.0809
616,-454,15.4365,10.7626,-0.000413075,-8.76717e-05,0.000722094,0.000489823,-0.000990571,0.896207,0.000870852,0.0131337,1840,1478,15.4365,-10.7626
623,-454,15.4359,10.4479,0.000339696,-0.000326959,0.000609856,0.000701373,-0.000688636,0.535296,0.000802533,0.0119423,1847,1478,15.4359,-10.4479
630,-454,15.4341,10.1344,0.00105427,-0.000524122,0.000617104,0.0012669,-0.000736748,0.331815,0.00117023,0.010685,1854,1478,15.434,-10.1344
637,-454,15.4021,9.81555,0.00166271,-0.000744869,0.00078424,0.00189563,-0.000977792,0.288706,0.00168695,0.00968787,1861,1478,15.4021,-9.81551
644,-454,15.4574,9.47241,0.00229745,-0.000927756,0.00102732,0.00259688,-0.00122719,0.283612,0.00225454,0.0198287,1868,1478,15.4574,-9.47239
651,-454,15.2578,9.2771,0.00255734,-0.000923287,0.00158376,0.00317011,-0.00153605,0.369167,0.00277116,0.0400841,1875,1478,15.2578,-9.27713
658,-454,15.4624,9.08826,0.00280864,-0.000947113,0.00213057,0.00377079,-0.00190927,0.424178,0.00333757,0.0410971,1882,1478,15.4624,-9.08825
665,-454,15.9391,8.90723,0,0,0,0,0,0,0,-1,1889,1478,15.9391,-8.90722
672,-454,15.8972,6.52246,0,0,0,0,0,0,0,-1,1896,1478,15.8973,-6.52247
679,-454,14.2161,5.45007,0,0,0,0,0,0,0,-1,1903,1478,14.2161,-5.45013
686,-454,10.3767,2.12842,0,0,0,0,0,0,0,-1,1910,1478,10.3767,-2.12839
693,-454,11.1857,1.48486,0,0,0,0,0,0,0,-1,1917,1478,11.1857,-1.48487
700,-454,0,0,0,0,0,0,0,0,0,-1,1924,1478,0,0
707,-454,0,0,0,0,0,0,0,0,0,-1,1931,1478,0,0
714,-454,0,0,0,0,0,0,0,0,0,-1,1938,1478,0,0
721,-454,0,0,0,0,0,0,0,0,0,-1,1945,1478,0,0
728,-454,0,0,0,0,0,0,0,0,0,-1,1952,1478,0,0
735,-454,0,0,0,0,0,0,0,0,0,-1,1959,1478,0,0
742,-454,0,0,0,0,0,0,0,0,0,-1,1966,1478,0,0
749,-454,0,0,0,0,0,0,0,0,0,-1,1973,1478,0,0
756,-454,0,0,0,0,0,0,0,0,0,-1,1980,1478,0,0
763,-454,0,0,0,0,0,0,0,0,0,-1,1987,1478,0,0
770,-454,0,0,0,0,0,0,0,0,0,-1,1994,1478,0,0
777,-454,0,0,0,0,0,0,0,0,0,-1,2001,1478,0,0
784,-454,0,0,0,0,0,0,0,0,0,-1,2008,1478,0,0
791,-454,0,0,0,0,0,0,0,0,0,-1,2015,1478,0,0
798,-454,0,0,0,0,0,0,0,0,0,-1,2022,1478,0,0
805,-454,0,0,0,0,0,0,0,0,0,-1,2029,1478,0,0
812,-454,0,0,0,0,0,0,0,0,0,-1,2036,1478,0,0
-700,-461,0,0,0,0,0,0,0,0,0,-1,524,1485,0,0
-693,-461,0,0,0,0,0,0,0,0,0,-1,531,1485,0,0
-686,-461,0,0,0,0,0,0,0,0,0,-1,538,1485,0,0
-679,-461,0,0,0,0,0,0,0,0,0,-1,545,1485,0,0
-672,-461,0,0,0,0,0,0,0,0,0,-1,552,1485,0,0
-665,-461,0,0,0,0,0,0,0,0,0,-1,559,1485,0,0
-658,-461,0,0,0,0,0,0,0,0,0,-1,566,1485,0,0
-651,-461,0,0,0,0,0,0,0,0,0,-1,573,1485,0,0
-644,-461,0,0,0,0,0,0,0,0,0,-1,580,1485,0,0
-637,-461,0,0,0,0,0,0,0,0,0,-1,587,1485,0,0
-630,-461,0,0,0,0,0,0,0,0,0,-1,594,1485,0,0
-623,-461,0,0,0,0,0,0,0,0,0,-1,601,1485,0,0
-616,-461,0,0,0,0,0,0,0,0,0,-1,608,1485,0,0
-609,-461,0,0,0,0,0,0,0,0,0,-1,615,1485,0,0
-602,-461,0,0,0,0,0,0,0,0,0,-1,622,1485,0,0
-595,-461,0,0,0,0,0,0,0,0,0,-1,629,1485,0,0
-588,-461,0,0,0,0,0,0,0,0,0,-1,636,1485,0,0
-581,-461,0,0,0,0,0,0,0,0,0,-1,643,1485,0,0
-574,-461,0,0,0,0,0,0,0,0,0,-1,650,1485,0,0
-567,-461,-9.69031,0.513306,0,0,0,0,0,0,0,-1,657,1485,-9.69032,-0.513305
-560,-461,-7.28815,1.54004,0,0,0,0,0,0,0,-1,664,1485,-7.28817,-1.54005
-553,-461,-11.9607,5.27783,0,0,0,0,0,0,0,-1,671,1485,-11.9607,-5.27778
-546,-461,-11.4215,4.44666,0,0,0,0,0,0,0,-1,678,1485,-11.4215,-4.4467
-539,-461,-9.36493,5.23438,0,0,0,0,0,0,0,-1,685,1485,-9.3649,-5.23432
-532,-461,-6.08832,4.90466,0,0,0,0,0,0,0,-1,692,1485,-6.08829,-4.90461
-525,-461,-5.19165,6.01038,0.0306951,0.024308,0.0334151,0.0610689,-0.00606581,0.737757,0.0428778,0.0466775,699,1485,-5.19166,-6.01033
-518,-461,-4.13959,7.3783,0.0237411,0.0173484,0.0246728,0.0454237,-0.00433429,0.720982,0.0318258,0.0419489,706,1485,-4.1396,-7.37835
-511,-461,-3.9259,7.72925,0.0178672,0.0120186,0.0177804,0.0329622,-0.00307634,0.703895,0.0230687,0.0267829,713,1485,-3.92592,-7.72925
-504,-461,-4.01324,8.01672,0.0130541,0.00805,0.0123965,0.0231985,-0.00209441,0.685818,0.016209,0.0151995,720,1485,-4.01327,-8.01676
-497,-461,-3.99072,8.41309,0.00922068,0.00507624,0.00822193,0.0156275,-0.00133059,0.661951,0.010889,0.0111161,727,1485,-3.99074,-8.41305
-490,-461,-4.00562,8.74976,0.0062472,0.00289468,0.00499691,0.00984151,-0.000699636,0.623567,0.00680622,0.0116862,734,1485,-4.00564,-8.7497
-483,-461,-4.02539,9.10474,0.00423269,0.00113774,0.00245037,0.00558332,-0.000212882,0.503758,0.00379516,0.0115076,741,1485,-4.0254,-9.10478
-476,-461,-4.05023,9.45691,0.00298178,-0.000567844,0.000495082,0.00304954,-0.000635602,0.136017,0.00227469,0.0103203,748,1485,-4.05021,-9.45692
-469,-461,-4.03857,9.79358,0.00203865,-0.00232169,-0.00152677,0.00252009,-0.00280313,-0.305464,0.00307481,0.0115783,755,1485,-4.03857,-9.7936
-462,-461,-4.01471,10.1102,0.00222306,-0.00360167,-0.00268599,0.00327256,-0.00465117,-0.372492,0.00459779,0.0163368,762,1485,-4.01473,-10.1103
-455,-461,-4.01642,10.4832,0.00319698,-0.00507896,-0.00364849,0.00457573,-0.00645772,-0.361309,0.00640098,0.0212539,769,1485,-4.01642,-10.4832
-448,-461,-4.03925,10.8597,0.00474164,-0.00704994,-0.00471954,0.00639796,-0.00870626,-0.337521,0.00875431,0.0175222,776,1485,-4.03926,-10.8597
-441,-461,-3.99072,11.1809,0.00674771,-0.00967082,-0.00609567,0.00876338,-0.0116865,-0.319353,0.0118469,0.0154563,783,1485,-3.99073,-11.181
-434,-461,-3.77338,11.49,0.00903263,-0.0131793,-0.00792896,0.0115726,-0.0157192,-0.310009,0.0158175,0.0200376,790,1485,-3.77336,-11.49
-427,-461,-3.69293,11.6901,0.0117669,-0.0177682,-0.0102888,0.0149977,-0.020999,-0.304259,0.0208787,0.0323467,797,1485,-3.69296,-11.6901
-420,-461,-3.42712,11.8961,0,0,0,0,0,0,0,-1,804,1485,-3.4271,-11.8961
-413,-461,-3.76422,10.543,0,0,0,0,0,0,0,-1,811,1485,-3.76423,-10.543
-406,-461,-3.74152,9.38831,0,0,0,0,0,0,0,-1,818,1485,-3.74152,-9.38832
-399,-461,-1.93439,9.82849,0,0,0,0,0,0,0,-1,825,1485,-1.9344,-9.82846
-392,-461,-0.357544,5.55225,0,0,0,0,0,0,0,-1,832,1485,-0.357536,-5.55228
-385,-461,1.71509,3.35254,0,0,0,0,0,0,0,-1,839,1485,1.71511,-3.35255
-378,-461,1.95996,3.01111,0,0,0,0,0,0,0,-1,846,1485,1.95993,-3.01111
-371,-461,0.702881,2.33459,0,0,0,0,0,0,0,-1,853,1485,0.702859,-2.33459
-364,-461,-1.93097,2.56458,0,0,0,0,0,0,0,-1,860,1485,-1.93095,-2.56456
-357,-461,-2.41516,3.49487,0,0,0,0,0,0,0,-1,867,1485,-2.41517,-3.49487
-350,-461,0,0,0,0,0,0,0,0,0,-1,874,1485,0,0
-343,-461,0,0,0,0,0,0,0,0,0,-1,881,1485,0,0
-336,-461,0,0,0,0,0,0,0,0,0,-1,888,1485,0,0
-329,-461,0,0,0,0,0,0,0,0,0,-1,895,1485,0,0
-322,-461,0,0,0,0,0,0,0,0,0,-1,902,1485,0,0
-315,-461,0,0,0,0,0,0,0,0,0,-1,909,1485,0,0
-308,-461,0,0,0,0,0,0,0,0,0,-1,916,1485,0,0
-301,-461,0,0,0,0,0,0,0,0,0,-1,923,1485,0,0
-294,-461,0,0,0,0,0,0,0,0,0,-1,930,1485,0,0
-287,-461,0,0,0,0,0,0,0,0,0,-1,937,1485,0,0
-280,-461,0,0,0,0,0,0,0,0,0,-1,944,1485,0,0
-273,-461,0,0,0,0,0,0,0,0,0,-1,951,1485,0,0
-266,-461,0,0,0,0,0,0,0,0,0,-1,958,1485,0,0
-259,-461,0,0,0,0,0,0,0,0,0,-1,965,1485,0,0
-252,-461,0,0,0,0,0,0,0,0,0,-1,972,1485,0,0
-245,-461,0,0,0,0,0,0,0,0,0,-1,979,1485,0,0
-238,-461,0,0,0,0,0,0,0,0,0,-1,986,1485,0,0
-231,-461,0,0,0,0,0,0,0,0,0,-1,993,1485,0,0
-224,-461,0,0,0,0,0,0,0,0,0,-1,1000,1485,0,0
-217,-461,0,0,0,0,0,0,0,0,0,-1,1007,1485,0,0
-210,-461,0,0,0,0,0,0,0,0,0,-1,1014,1485,0,0
-203,-461,0,0,0,0,0,0,0,0,0,-1,1021,1485,0,0
-196,-461,0,0,0,0,0,0,0,0,0,-1,1028,1485,0,0
-189,-461,0,0,0,0,0,0,0,0,0,-1,1035,1485,0,0
-182,-461,0,0,0,0,0,0,0,0,0,-1,1042,1485,0,0
-175,-461,0,0,0,0,0,0,0,0,0,-1,1049,1485,0,0
-168,-461,0,0,0,0,0,0,0,0,0,-1,1056,1485,0,0
-161,-461,0,0,0,0,0,0,0,0,0,-1,1063,1485,0,0
-154,-461,0,0,0,0,0,0,0,0,0,-1,1070,1485,0,0
-147,-461,0,0,0,0,0,0,0,0,0,-1,1077,1485,0,0
-140,-461,0,0,0,0,0,0,0,0,0,-1,1084,1485,0,0
-133,-461,0,0,0,0,0,0,0,0,0,-1,1091,1485,0,0
-126,-461,0,0,0,0,0,0,0,0,0,-1,1098,1485,0,0
-119,-461,0,0,0,0,0,0,0,0,0,-1,1105,1485,0,0
-112,-461,0,0,0,0,0,0,0,0,0,-1,1112,1485,0,0
-105,-461,0,0,0,0,0,0,0,0,0,-1,1119,1485,0,0
-98,-461,0,0,0,0,0,0,0,0,0,-1,1126,1485,0,0
-91,-461,0,0,0,0,0,0,0,0,0,-1,1133,1485,0,0
-84,-461,0,0,0,0,0,0,0,0,0,-1,1140,1485,0,0
-77,-461,0,0,0,0,0,0,0,0,0,-1,1147,1485,0,0
-70,-461,0,0,0,0,0,0,0,0,0,-1,1154,1485,0,0
-63,-461,0,0,0,0,0,0,0,0,0,-1,1161,1485,0,0
-56,-461,0,0,0,0,0,0,0,0,0,-1,1168,1485,0,0
-49,-461,0,0,0,0,0,0,0,0,0,-1,1175,1485,0,0
-42,-461,0,0,0,0,0,0,0,0,0,-1,1182,1485,0,0
-35,-461,0,0,0,0,0,0,0,0,0,-1,1189,1485,0,0
-28,-461,0,0,0,0,0,0,0,0,0,-1,1196,1485,0,0
-21,-461,0,0,0,0,0,0,0,0,0,-1,1203,1485,0,0
-14,-461,0,0,0,0,0,0,0,0,0,-1,1210,1485,0,0
-7,-461,0,0,0,0,0,0,0,0,0,-1,1217,1485,0,0
0,-461,0,0,0,0,0,0,0,0,0,-1,1224,1485,0,0
7,-461,0,0,0,0,0,0,0,0,0,-1,1231,1485,0,0
14,-461,0,0,0,0,0,0,0,0,0,-1,1238,1485,0,0
21,-461,0,0,0,0,0,0,0,0,0,-1,1245,1485,0,0
28,-461,0,0,0,0,0,0,0,0,0,-1,1252,1485,0,0
35,-461,0,0,0,0,0,0,0,0,0,-1,1259,1485,0,0
42,-461,0,0,0,0,0,0,0,0,0,-1,1266,1485,0,0
49,-461,0,0,0,0,0,0,0,0,0,-1,1273,1485,0,0
56,-461,0,0,0,0,0,0,0,0,0,-1,1280,1485,0,0
63,-461,0,0,0,0,0,0,0,0,0,-1,1287,1485,0,0
70,-461,0,0,0,0,0,0,0,0,0,-1,1294,1485,0,0
77,-461,0,0,0,0,0,0,0,0,0,-1,1301,1485,0,0
84,-461,0,0,0,0,0,0,0,0,0,-1,1308,1485,0,0
91,-461,0,0,0,0,0,0,0,0,0,-1,1315,1485,0,0
98,-461,0,0,0,0,0,0,0,0,0,-1,1322,1485,0,0
105,-461,0,0,0,0,0,0,0,0,0,-1,1329,1485,0,0
112,-461,0,0,0,0,0,0,0,0,0,-1,1336,1485,0,0
119,-461,0,0,0,0,0,0,0,0,0,-1,1343,1485,0,0
126,-461,0,0,0,0,0,0,0,0,0,-1,1350,1485,0,0
133,-461,0,0,0,0,0,0,0,0,0,-1,1357,1485,0,0
140,-461,0,0,0,0,0,0,0,0,0,-1,1364,1485,0,0
147,-461,0,0,0,0,0,0,0,0,0,-1,1371,1485,0,0
154,-461,0,0,0,0,0,0,0,0,0,-1,1378,1485,0,0
161,-461,0,0,0,0,0,0,0,0,0,-1,1385,1485,0,0
168,-461,0,0,0,0,0,0,0,0,0,-1,1392,1485,0,0
175,-461,0,0,0,0,0,0,0,0,0,-1,1399,1485,0,0
182,-461,0,0,0,0,0,0,0,0,0,-1,1406,1485,0,0
189,-461,0,0,0,0,0,0,0,0,0,-1,1413,1485,0,0
196,-461,0,0,0,0,0,0,0,0,0,-1,1420,1485,0,0
203,-461,0,0,0,0,0,0,0,0,0,-1,1427,1485,0,0
210,-461,0,0,0,0,0,0,0,0,0,-1,1434,1485,0,0
217,-461,0,0,0,0,0,0,0,0,0,-1,1441,1485,0,0
224,-461,0,0,0,0,0,0,0,0,0,-1,1448,1485,0,0
231,-461,0,0,0,0,0,0,0,0,0,-1,1455,1485,0,0
238,-461,0,0,0,0,0,0,0,0,0,-1,1462,1485,0,0
245,-461,0,0,0,0,0,0,0,0,0,-1,1469,1485,0,0
252,-461,0,0,0,0,0,0,0,0,0,-1,1476,1485,0,0
259,-461,0,0,0,0,0,0,0,0,0,-1,1483,1485,0,0
266,-461,0,0,0,0,0,0,0,0,0,-1,1490,1485,0,0
273,-461,0,0,0,0,0,0,0,0,0,-1,1497,1485,0,0
280,-461,0,0,0,0,0,0,0,0,0,-1,1504,1485,0,0
287,-461,0,0,0,0,0,0,0,0,0,-1,1511,1485,0,0
294,-461,0,0,0,0,0,0,0,0,0,-1,1518,1485,0,0
301,-461,0,0,0,0,0,0,0,0,0,-1,1525,1485,0,0
308,-461,0,0,0,0,0,0,0,0,0,-1,1532,1485,0,0
315,-461,0,0,0,0,0,0,0,0,0,-1,1539,1485,0,0
322,-461,0,0,0,0,0,0,0,0,0,-1,1546,1485,0,0
329,-461,0,0,0,0,0,0,0,0,0,-1,1553,1485,0,0
336,-461,0,0,0,0,0,0,0,0,0,-1,1560,1485,0,0
343,-461,0,0,0,0,0,0,0,0,0,-1,1567,1485,0,0
350,-461,0,0,0,0,0,0,0,0,0,-1,1574,1485,0,0
357,-461,0,0,0,0,0,0,0,0,0,-1,1581,1485,0,0
364,-461,0,0,0,0,0,0,0,0,0,-1,1588,1485,0,0
371,-461,0,0,0,0,0,0,0,0,0,-1,1595,1485,0,0
378,-461,0,0,0,0,0,0,0,0,0,-1,1602,1485,0,0
385,-461,0,0,0,0,0,0,0,0,0,-1,1609,1485,0,0
392,-461,0,0,0,0,0,0,0,0,0,-1,1616,1485,0,0
399,-461,0,0,0,0,0,0,0,0,0,-1,1623,1485,0,0
406,-461,0,0,0,0,0,0,0,0,0,-1,1630,1485,0,0
413,-461,0,0,0,0,0,0,0,0,0,-1,1637,1485,0,0
420,-461,0,0,0,0,0,0,0,0,0,-1,1644,1485,0,0
427,-461,0,0,0,0,0,0,0,0,0,-1,1651,1485,0,0
434,-461,0,0,0,0,0,0,0,0,0,-1,1658,1485,0,0
441,-461,0,0,0,0,0,0,0,0,0,-1,1665,1485,0,0
448,-461,0,0,0,0,0,0,0,0,0,-1,1672,1485,0,0
455,-461,0,0,0,0,0,0,0,0,0,-1,1679,1485,0,0
462,-461,0,0,0,0,0,0,0,0,0,-1,1686,1485,0,0
469,-461,0,0,0,0,0,0,0,0,0,-1,1693,1485,0,0
476,-461,14.1906,0.690552,0,0,0,0,0,0,0,-1,1700,1485,14.1906,-0.690525
483,-461,10.6361,3.09106,0,0,0,0,0,0,0,-1,1707,1485,10.6361,-3.091
490,-461,17.9972,0.665894,0,0,0,0,0,0,0,-1,1714,1485,17.9972,-0.665876
497,-461,16.6829,1.87732,0,0,0,0,0,0,0,-1,1721,1485,16.6828,-1.87736
504,-461,15.3884,3.09216,0,0,0,0,0,0,0,-1,1728,1485,15.3885,-3.09212
511,-461,15.4292,14.3512,0,0,0,0,0,0,0,-1,1735,1485,15.4292,-14.3512
518,-461,14.8081,10.0085,0,0,0,0,0,0,0,-1,1742,1485,14.8081,-10.0086
525,-461,14.0022,10.8033,0,0,0,0,0,0,0,-1,1749,1485,14.0022,-10.8033
532,-461,15.3116,15.4535,0,0,0,0,0,0,0,-1,1756,1485,15.3117,-15.4534
539,-461,15.3541,15.2061,0,0,0,0,0,0,0,-1,1763,1485,15.3542,-15.206
546,-461,16.2106,14.1372,0,0,0,0,0,0,0,-1,1770,1485,16.2106,-14.1372
553,-461,14.5626,13.2527,0,0,0,0,0,0,0,-1,1777,1485,14.5626,-13.2527
560,-461,14.9708,13.0662,-0.00933938,-0.00545759,0.00549179,-0.00157381,-0.0132232,0.955256,0.00834048,0.0441767,1784,1485,14.9709,-13.0662
567,-461,15.1252,12.8815,-0.00695116,-0.00387884,0.00438962,-0.000764348,-0.0100656,0.953715,0.00647071,0.0193119,1791,1485,15.1253,-12.8814
574,-461,15.1249,12.5863,-0.00518198,-0.00265029,0.0034144,-0.000274641,-0.00755763,0.962912,0.00494941,0.0168862,1798,1485,15.1248,-12.5863
581,-461,15.1357,12.2854,-0.00383265,-0.0016439,0.00257057,5.55506e-05,-0.0055321,0.986644,0.00370672,0.0140345,1805,1485,15.1357,-12.2854
588,-461,15.1223,12.0157,-0.0024176,-0.000957739,0.0018688,0.000318622,-0.00369396,0.971581,0.00257542,0.0106514,1812,1485,15.1224,-12.0158
595,-461,15.1072,11.7125,-0.00150227,-0.000484377,0.00130865,0.000410812,-0.00239746,0.970852,0.00175138,0.00854724,1819,1485,15.1072,-11.7125
602,-461,15.1078,11.3983,-0.000913873,-0.000267421,0.000968882,0.000430728,-0.00161202,0.946397,0.00124338,0.00905193,1826,1485,15.1078,-11.3984
609,-461,15.1194,11.0681,-0.000264505,-0.000160321,0.000730348,0.00051979,-0.000944616,0.821001,0.000857252,0.0109252,1833,1485,15.1194,-11.0681
616,-461,15.1261,10.7471,0.00033343,-0.000257131,0.000629724,0.000733666,-0.000657367,0.566166,0.000803516,0.0134693,1840,1485,15.1262,-10.747
623,-461,15.1149,10.4513,0.000988944,-0.000514543,0.000636049,0.00122192,-0.000747521,0.351112,0.001148,0.0138821,1847,1485,15.1149,-10.4513
630,-461,15.1033,10.1536,0.00164122,-0.000770889,0.000787056,0.00187531,-0.00100498,0.289096,0.00168805,0.0128042,1854,1485,15.1033,-10.1535
637,-461,15.098,9.83691,0.00228407,-0.00111349,0.00110129,0.00260981,-0.00143923,0.287584,0.00237005,0.0129638,1861,1485,15.098,-9.83693
644,-461,15.1366,9.55334,0.0029994,-0.00138944,0.00150107,0.00346368,-0.00185373,0.299968,0.00311656,0.0269203,1868,1485,15.1366,-9.55337
651,-461,14.8629,9.30078,0.00339276,-0.00149714,0.00229492,0.00430108,-0.00240546,0.376878,0.00392324,0.0369787,1875,1485,14.8629,-9.3008
658,-461,15.0668,8.94678,0.00398399,-0.00167696,0.00308615,0.00534111,-0.00303408,0.414292,0.00489619,0.0440536,1882,1485,15.0667,-8.94673
665,-461,15.4163,8.64624,0,0,0,0,0,0,0,-1,1889,1485,15.4163,-8.64627
672,-461,14.4877,6.89429,0,0,0,0,0,0,0,-1,1896,1485,14.4876,-6.89431
679,-461,10.0535,2.16321,0,0,0,0,0,0,0,-1,1903,1485,10.0535,-2.16317
686,-461,10.8195,1.84192,0,0,0,0,0,0,0,-1,1910,1485,10.8194,-1.84195
693,-461,0,0,0,0,0,0,0,0,0,-1,1917,1485,0,0
700,-461,0,0,0,0,0,0,0,0,0,-1,1924,1485,0,0
707,-461,0,0,0,0,0,0,0,0,0,-1,1931,1485,0,0
714,-461,0,0,0,0,0,0,0,0,0,-1,1938,1485,0,0
721,-461,0,0,0,0,0,0,0,0,0,-1,1945,1485,0,0
728,-461,0,0,0,0,0,0,0,0,0,-1,1952,1485,0,0
735,-461,0,0,0,0,0,0,0,0,0,-1,1959,1485,0,0
742,-461,0,0,0,0,0,0,0,0,0,-1,1966,1485,0,0
749,-461,0,0,0,0,0,0,0,0,0,-1,1973,1485,0,0
756,-461,0,0,0,0,0,0,0,0,0,-1,1980,1485,0,0
763,-461,0,0,0,0,0,0,0,0,0,-1,1987,1485,0,0
770,-461,0,0,0,0,0,0,0,0,0,-1,1994,1485,0,0
777,-461,0,0,0,0,0,0,0,0,0,-1,2001,1485,0,0
784,-461,0,0,0,0,0,0,0,0,0,-1,2008,1485,0,0
791,-461,0,0,0,0,0,0,0,0,0,-1,2015,1485,0,0
798,-461,0,0,0,0,0,0,0,0,0,-1,2022,1485,0,0
805,-461,0,0,0,0,0,0,0,0,0,-1,2029,1485,0,0
812,-461,0,0,0,0,0,0,0,0,0,-1,2036,1485,0,0
-700,-468,0,0,0,0,0,0,0,0,0,-1,524,1492,0,0
-693,-468,0,0,0,0,0,0,0,0,0,-1,531,1492,0,0
-686,-468,0,0,0,0,0,0,0,0,0,-1,538,1492,0,0
-679,-468,0,0,0,0,0,0,0,0,0,-1,545,1492,0,0
-672,-468,0,0,0,0,0,0,0,0,0,-1,552,1492,0,0
-665,-468,0,0,0,0,0,0,0,0,0,-1,559,1492,0,0
-658,-468,0,0,0,0,0,0,0,0,0,-1,566,1492,0,0
-651,-468,0,0,0,0,0,0,0,0,0,-1,573,1492,0,0
-644,-468,0,0,0,0,0,0,0,0,0,-1,580,1492,0,0
-637,-468,0,0,0,0,0,0,0,0,0,-1,587,1492,0,0
-630,-468,0,0,0,0,0,0,0,0,0,-1,594,1492,0,0
-623,-468,0,0,0,0,0,0,0,0,0,-1,601,1492,0,0
-616,-468,0,0,0,0,0,0,0,0,0,-1,608,1492,0,0
-609,-468,0,0,0,0,0,0,0,0,0,-1,615,1492,0,0
-602,-468,0,0,0,0,0,0,0,0,0,-1,622,1492,0,0
-595,-468,0,0,0,0,0,0,0,0,0,-1,629,1492,0,0
-588,-468,0,0,0,0,0,0,0,0,0,-1,636,1492,0,0
-581,-468,0,0,0,0,0,0,0,0,0,-1,643,1492,0,0
-574,-468,0,0,0,0,0,0,0,0,0,-1,650,1492,0,0
-567,-468,-11.2603,1.8042,0,0,0,0,0,0,0,-1,657,1492,-11.2603,-1.80424
-560,-468,-8.77441,2.23694,0,0,0,0,0,0,0,-1,664,1492,-8.77443,-2.23692
-553,-468,-5.94061,9.26318,0,0,0,0,0,0,0,-1,671,1492,-5.94062,-9.26322
-546,-468,-10.47,5.43237,0,0,0,0,0,0,0,-1,678,1492,-10.47,-5.4324
-539,-468,-10.2468,5.45203,0,0,0,0,0,0,0,-1,685,1492,-10.2468,-5.45197
-532,-468,-4.46454,3.45532,0,0,0,0,0,0,0,-1,692,1492,-4.46452,-3.4553
-525,-468,-4.03363,6.54431,0,0,0,0,0,0,0,-1,699,1492,-4.03362,-6.54436
-518,-468,-3.90167,7.11743,0.0305529,0.0209469,0.030047,0.0561784,-0.00467858,0.706144,0.0391052,0.0456782,706,1492,-3.90168,-7.11747
-511,-468,-3.61328,7.64355,0.0221788,0.0140547,0.0210475,0.0395526,-0.00331917,0.690072,0.0275416,0.0374396,713,1492,-3.61331,-7.6436
-504,-468,-3.59991,8.04565,0.0156637,0.00912076,0.0143178,0.027079,-0.00229457,0.673082,0.0188641,0.0204612,720,1492,-3.5999,-8.04563
-497,-468,-3.65466,8.39343,0.0106548,0.0055176,0.00926484,0.0177005,-0.00152811,0.650174,0.0123413,0.0112182,727,1492,-3.65466,-8.39338
-490,-468,-3.6499,8.76587,0.00694446,0.00303392,0.0055934,0.0109145,-0.000936107,0.617254,0.00760759,0.00776512,734,1492,-3.6499,-8.7659
-483,-468,-3.67059,9.11792,0.00450454,0.00126204,0.00292419,0.00622685,-0.000460266,0.53228,0.00431285,0.00789599,741,1492,-3.67057,-9.11794
-476,-468,-3.68036,9.45911,0.00306974,-0.000283873,0.00102392,0.00335764,-0.000571775,0.274101,0.00245135,0.00858203,748,1492,-3.68038,-9.45914
-469,-468,-3.67584,9.7915,0.0019698,-0.00197273,-0.000985469,0.0022024,-0.00220534,-0.231791,0.00254481,0.0123984,755,1492,-3.67584,-9.79146
-462,-468,-3.63165,10.1401,0.00208927,-0.00299638,-0.00192968,0.00273856,-0.00364567,-0.324577,0.00369832,0.0222357,762,1492,-3.63168,-10.1401
-455,-468,-3.64178,10.4458,0.0031196,-0.00404988,-0.00252301,0.00391846,-0.00484874,-0.306642,0.00507123,0.0230369,769,1492,-3.64176,-10.4458
-448,-468,-3.67792,10.8165,0.00467412,-0.00540707,-0.00312983,0.00556677,-0.00629973,-0.277832,0.00685548,0.0132501,776,1492,-3.6779,-10.8165
-441,-468,-3.68835,11.1714,0.00666298,-0.00726817,-0.00389913,0.00768003,-0.00828522,-0.255157,0.00921975,0.0117583,783,1492,-3.68838,-11.1714
-434,-468,-3.65515,11.5269,0.00887497,-0.00971086,-0.00499157,0.0101307,-0.0109666,-0.246457,0.0121837,0.0135662,790,1492,-3.65515,-11.5269
-427,-468,-3.58032,11.8503,0.0114158,-0.012981,-0.00652126,0.0130496,-0.0146147,-0.245471,0.0159805,0.0225989,797,1492,-3.58032,-11.8504
-420,-468,-3.5072,12.1013,0.0143823,-0.0166891,-0.00826792,0.0164454,-0.0187521,-0.244533,0.0203358,0.0369423,804,1492,-3.50723,-12.1014
-413,-468,-3.30518,12.3942,0,0,0,0,0,0,0,-1,811,1492,-3.30517,-12.3942
-406,-468,-2.2356,9.396,0,0,0,0,0,0,0,-1,818,1492,-2.2356,-9.396
-399,-468,-0.940369,8.1936,0,0,0,0,0,0,0,-1,825,1492,-0.940365,-8.19357
-392,-468,-0.35144,8.14673,0,0,0,0,0,0,0,-1,832,1492,-0.351449,-8.14674
-385,-468,0.465759,5.35864,0,0,0,0,0,0,0,-1,839,1492,0.465732,-5.35864
-378,-468,1.99835,3.25391,0,0,0,0,0,0,0,-1,846,1492,1.99837,-3.2539
-371,-468,-0.31842,3.1532,0,0,0,0,0,0,0,-1,853,1492,-0.318441,-3.15324
-364,-468,-0.966736,2.14563,0,0,0,0,0,0,0,-1,860,1492,-0.966735,-2.14557
-357,-468,-3.06787,3.22742,0,0,0,0,0,0,0,-1,867,1492,-3.06784,-3.2274
-350,-468,-3.18658,4.12659,0,0,0,0,0,0,0,-1,874,1492,-3.18659,-4.12658
-343,-468,0,0,0,0,0,0,0,0,0,-1,881,1492,0,0
-336,-468,0,0,0,0,0,0,0,0,0,-1,888,1492,0,0
-329,-468,0,0,0,0,0,0,0,0,0,-1,895,1492,0,0
-322,-468,0,0,0,0,0,0,0,0,0,-1,902,1492,0,0
-315,-468,0,0,0,0,0,0,0,0,0,-1,909,1492,0,0
-308,-468,0,0,0,0,0,0,0,0,0,-1,916,1492,0,0
-301,-468,0,0,0,0,0,0,0,0,0,-1,923,1492,0,0
-294,-468,0,0,0,0,0,0,0,0,0,-1,930,1492,0,0
-287,-468,0,0,0,0,0,0,0,0,0,-1,937,1492,0,0
-280,-468,0,0,0,0,0,0,0,0,0,-1,944,1492,0,0
-273,-468,0,0,0,0,0,0,0,0,0,-1,951,1492,0,0
-266,-468,0,0,0,0,0,0,0,0,0,-1,958,1492,0,0
-259,-468,0,0,0,0,0,0,0,0,0,-1,965,1492,0,0
-252,-468,0,0,0,0,0,0,0,0,0,-1,972,1492,0,0
-245,-468,0,0,0,0,0,0,0,0,0,-1,979,1492,0,0
-238,-468,0,0,0,0,0,0,0,0,0,-1,986,1492,0,0
-231,-468,0,0,0,0,0,0,0,0,0,-1,993,1492,0,0
-224,-468,0,0,0,0,0,0,0,0,0,-1,1000,1492,0,0
-217,-468,0,0,0,0,0,0,0,0,0,-1,1007,1492,0,0
-210,-468,0,0,0,0,0,0,0,0,0,-1,1014,1492,0,0
-203,-468,0,0,0,0,0,0,0,0,0,-1,1021,1492,0,0
-196,-468,0,0,0,0,0,0,0,0,0,-1,1028,1492,0,0
-189,-468,0,0,0,0,0,0,0,0,0,-1,1035,1492,0,0
-182,-468,0,0,0,0,0,0,0,0,0,-1,1042,1492,0,0
-175,-468,0,0,0,0,0,0,0,0,0,-1,1049,1492,0,0
-168,-468,0,0,0,0,0,0,0,0,0,-1,1056,1492,0,0
-161,-468,0,0,0,0,0,0,0,0,0,-1,1063,1492,0,0
-154,-468,0,0,0,0,0,0,0,0,0,-1,1070,1492,0,0
-147,-468,0,0,0,0,0,0,0,0,0,-1,1077,1492,0,0
-140,-468,0,0,0,0,0,0,0,0,0,-1,1084,1492,0,0
-133,-468,0,0,0,0,0,0,0,0,0,-1,1091,1492,0,0
-126,-468,0,0,0,0,0,0,0,0,0,-1,1098,1492,0,0
-119,-468,0,0,0,0,0,0,0,0,0,-1,1105,1492,0,0
-112,-468,0,0,0,0,0,0,0,0,0,-1,1112,1492,0,0
-105,-468,0,0,0,0,0,0,0,0,0,-1,1119,1492,0,0
-98,-468,0,0,0,0,0,0,0,0,0,-1,1126,1492,0,0
-91,-468,0,0,0,0,0,0,0,0,0,-1,1133,1492,0,0
-84,-468,0,0,0,0,0,0,0,0,0,-1,1140,1492,0,0
-77,-468,0,0,0,0,0,0,0,0,0,-1,1147,1492,0,0
-70,-468,0,0,0,0,0,0,0,0,0,-1,1154,1492,0,0
-63,-468,0,0,0,0,0,0,0,0,0,-1,1161,1492,0,0
-56,-468,0,0,0,0,0,0,0,0,0,-1,1168,1492,0,0
-49,-468,0,0,0,0,0,0,0,0,0,-1,1175,1492,0,0
-42,-468,0,0,0,0,0,0,0,0,0,-1,1182,1492,0,0
-35,-468,0,0,0,0,0,0,0,0,0,-1,1189,1492,0,0
-28,-468,0,0,0,0,0,0,0,0,0,-1,1196,1492,0,0
-21,-468,0,0,0,0,0,0,0,0,0,-1,1203,1492,0,0
-14,-468,0,0,0,0,0,0,0,0,0,-1,1210,1492,0,0
-7,-468,0,0,0,0,0,0,0,0,0,-1,1217,1492,0,0
0,-468,0,0,0,0,0,0,0,0,0,-1,1224,1492,0,0
7,-468,0,0,0,0,0,0,0,0,0,-1,1231,1492,0,0
14,-468,0,0,0,0,0,0,0,0,0,-1,1238,1492,0,0
21,-468,0,0,0,0,0,0,0,0,0,-1,1245,1492,0,0
28,-468,0,0,0,0,0,0,0,0,0,-1,1252,1492,0,0
35,-468,0,0,0,0,0,0,0,0,0,-1,1259,1492,0,0
42,-468,0,0,0,0,0,0,0,0,0,-1,1266,1492,0,0
49,-468,0,0,0,0,0,0,0,0,0,-1,1273,1492,0,0
56,-468,0,0,0,0,0,0,0,0,0,-1,1280,1492,0,0
63,-468,0,0,0,0,0,0,0,0,0,-1,1287,1492,0,0
70,-468,0,0,0,0,0,0,0,0,0,-1,1294,1492,0,0
77,-468,0,0,0,0,0,0,0,0,0,-1,1301,1492,0,0
84,-468,0,0,0,0,0,0,0,0,0,-1,1308,1492,0,0
91,-468,0,0,0,0,0,0,0,0,0,-1,1315,1492,0,0
98,-468,0,0,0,0,0,0,0,0,0,-1,1322,1492,0,0
105,-468,0,0,0,0,0,0,0,0,0,-1,1329,1492,0,0
112,-468,0,0,0,0,0,0,0,0,0,-1,1336,1492,0,0
119,-468,0,0,0,0,0,0,0,0,0,-1,1343,1492,0,0
126,-468,0,0,0,0,0,0,0,0,0,-1,1350,1492,0,0
133,-468,0,0,0,0,0,0,0,0,0,-1,1357,1492,0,0
140,-468,0,0,0,0,0,0,0,0,0,-1,1364,1492,0,0
147,-468,0,0,0,0,0,0,0,0,0,-1,1371,1492,0,0
154,-468,0,0,0,0,0,0,0,0,0,-1,1378,1492,0,0
161,-468,0,0,0,0,0,0,0,0,0,-1,1385,1492,0,0
168,-468,0,0,0,0,0,0,0,0,0,-1,1392,1492,0,0
175,-468,0,0,0,0,0,0,0,0,0,-1,1399,1492,0,0
182,-468,0,0,0,0,0,0,0,0,0,-1,1406,1492,0,0
189,-468,0,0,0,0,0,0,0,0,0,-1,1413,1492,0,0
196,-468,0,0,0,0,0,0,0,0,0,-1,1420,1492,0,0
203,-468,0,0,0,0,0,0,0,0,0,-1,1427,1492,0,0
210,-468,0,0,0,0,0,0,0,0,0,-1,1434,1492,0,0
217,-468,0,0,0,0,0,0,0,0,0,-1,1441,1492,0,0
224,-468,0,0,0,0,0,0,0,0,0,-1,1448,1492,0,0
231,-468,0,0,0,0,0,0,0,0,0,-1,1455,1492,0,0
238,-468,0,0,0,0,0,0,0,0,0,-1,1462,1492,0,0
245,-468,0,0,0,0,0,0,0,0,0,-1,1469,1492,0,0
252,-468,0,0,0,0,0,0,0,0,0,-1,1476,1492,0,0
259,-468,0,0,0,0,0,0,0,0,0,-1,1483,1492,0,0
266,-468,0,0,0,0,0,0,0,0,0,-1,1490,1492,0,0
273,-468,0,0,0,0,0,0,0,0,0,-1,1497,1492,0,0
280,-468,0,0,0,0,0,0,0,0,0,-1,1504,1492,0,0
287,-468,0,0,0,0,0,0,0,0,0,-1,1511,1492,0,0
294,-468,0,0,0,0,0,0,0,0,0,-1,1518,1492,0,0
301,-468,0,0,0,0,0,0,0,0,0,-1,1525,1492,0,0
308,-468,0,0,0,0,0,0,0,0,0,-1,1532,1492,0,0
315,-468,0,0,0,0,0,0,0,0,0,-1,1539,1492,0,0
322,-468,0,0,0,0,0,0,0,0,0,-1,1546,1492,0,0
329,-468,0,0,0,0,0,0,0,0,0,-1,1553,1492,0,0
336,-468,0,0,0,0,0,0,0,0,0,-1,1560,1492,0,0
343,-468,0,0,0,0,0,0,0,0,0,-1,1567,1492,0,0
350,-468,0,0,0,0,0,0,0,0,0,-1,1574,1492,0,0
357,-468,0,0,0,0,0,0,0,0,0,-1,1581,1492,0,0
364,-468,0,0,0,0,0,0,0,0,0,-1,1588,1492,0,0
371,-468,0,0,0,0,0,0,0,0,0,-1,1595,1492,0,0
378,-468,0,0,0,0,0,0,0,0,0,-1,1602,1492,0,0
385,-468,0,0,0,0,0,0,0,0,0,-1,1609,1492,0,0
392,-468,0,0,0,0,0,0,0,0,0,-1,1616,1492,0,0
399,-468,0,0,0,0,0,0,0,0,0,-1,1623,1492,0,0
406,-468,0,0,0,0,0,0,0,0,0,-1,1630,1492,0,0
413,-468,0,0,0,0,0,0,0,0,0,-1,1637,1492,0,0
420,-468,0,0,0,0,0,0,0,0,0,-1,1644,1492,0,0
427,-468,0,0,0,0,0,0,0,0,0,-1,1651,1492,0,0
434,-468,0,0,0,0,0,0,0,0,0,-1,1658,1492,0,0
441,-468,0,0,0,0,0,0,0,0,0,-1,1665,1492,0,0
448,-468,0,0,0,0,0,0,0,0,0,-1,1672,1492,0,0
455,-468,0,0,0,0,0,0,0,0,0,-1,1679,1492,0,0
462,-468,0,0,0,0,0,0,0,0,0,-1,1686,1492,0,0
469,-468,15.6879,1.2677,0,0,0,0,0,0,0,-1,1693,1492,15.6879,-1.26772
476,-468,14.9318,1.61865,0,0,0,0,0,0,0,-1,1700,1492,14.9318,-1.61869
483,-468,11.265,4.64795,0,0,0,0,0,0,0,-1,1707,1492,11.265,-4.64798
490,-468,12.1316,3.51624,0,0,0,0,0,0,0,-1,1714,1492,12.1316,-3.51628
497,-468,16.5355,3.14587,0,0,0,0,0,0,0,-1,1721,1492,16.5356,-3.14583
504,-468,15.0642,4.10437,0,0,0,0,0,0,0,-1,1728,1492,15.0643,-4.10431
511,-468,15.6877,9.4801,0,0,0,0,0,0,0,-1,1735,1492,15.6878,-9.48007
518,-468,13.759,11.0887,0,0,0,0,0,0,0,-1,1742,1492,13.759,-11.0887
525,-468,15.0266,15.5306,0,0,0,0,0,0,0,-1,1749,1492,15.0266,-15.5306
532,-468,15.0028,14.7734,0,0,0,0,0,0,0,-1,1756,1492,15.0029,-14.7734
539,-468,14.9008,13.9148,0,0,0,0,0,0,0,-1,1763,1492,14.9008,-13.9148
546,-468,14.7844,13.7137,0,0,0,0,0,0,0,-1,1770,1492,14.7845,-13.7138
553,-468,14.8956,13.285,-0.00996409,-0.00674576,0.005885,-0.00225389,-0.014456,0.918854,0.00898079,0.0417796,1777,1492,14.8956,-13.2851
560,-468,14.8262,13.1979,-0.00724018,-0.00485074,0.00446411,-0.00142425,-0.0106667,0.916148,0.00668712,0.0261307,1784,1492,14.8262,-13.1979
567,-468,14.818,12.9557,-0.0051879,-0.00346383,0.00348967,-0.000731302,-0.00792043,0.906486,0.00505419,0.0161165,1791,1492,14.818,-12.9557
574,-468,14.833,12.6066,-0.00368568,-0.00237746,0.00265298,-0.000299144,-0.00576399,0.906266,0.00374693,0.014636,1798,1492,14.833,-12.6066
581,-468,14.8306,12.3038,-0.00254535,-0.00146636,0.00191914,-1.23219e-05,-0.00399939,0.922419,0.00266216,0.0148096,1805,1492,14.8306,-12.3038
588,-468,14.8141,12.0233,-0.00132079,-0.000870395,0.0012973,0.000221106,-0.00241229,0.871336,0.00168673,0.0124827,1812,1492,14.8141,-12.0234
595,-468,14.8164,11.7102,-0.000579943,-0.000452447,0.000824222,0.000310489,-0.00134288,0.823993,0.00101471,0.00993474,1819,1492,14.8164,-11.7103
602,-468,14.812,11.3956,-0.000148937,-0.000281954,0.00058451,0.000372836,-0.000803727,0.728749,0.000694307,0.00838885,1826,1492,14.812,-11.3956
609,-468,14.7944,11.0654,0.000382073,-0.000210829,0.000444355,0.000619789,-0.000448546,0.49123,0.000619439,0.00955963,1833,1492,14.7944,-11.0654
616,-468,14.7946,10.7466,0.000884869,-0.000356602,0.000438418,0.00102408,-0.000495815,0.307467,0.000895007,0.0100757,1840,1492,14.7945,-10.7465
623,-468,14.7916,10.4553,0.00145795,-0.000623778,0.000561403,0.00159969,-0.000765526,0.24732,0.00139358,0.0113196,1847,1492,14.7916,-10.4553
630,-468,14.8092,10.135,0.00203857,-0.000941138,0.000865489,0.00227172,-0.00117429,0.263137,0.0020229,0.0121861,1854,1492,14.8092,-10.135
637,-468,14.8032,9.81299,0.00267775,-0.00137687,0.00135856,0.00309086,-0.00178999,0.295198,0.00285113,0.015575,1861,1492,14.8032,-9.81297
644,-468,14.8689,9.57739,0.00344337,-0.00172256,0.00195509,0.00409987,-0.00237905,0.323957,0.00378433,0.0409128,1868,1492,14.8689,-9.57743
651,-468,14.7062,9.47925,0,0,0,0,0,0,0,-1,1875,1492,14.7062,-9.47926
658,-468,14.8066,8.95947,0,0,0,0,0,0,0,-1,1882,1492,14.8066,-8.95952
665,-468,15.4673,8.59546,0,0,0,0,0,0,0,-1,1889,1492,15.4672,-8.59548
672,-468,9.96814,3.61133,0,0,0,0,0,0,0,-1,1896,1492,9.96817,-3.61139
679,-468,11.2191,1.91968,0,0,0,0,0,0,0,-1,1903,1492,11.2191,-1.91965
686,-468,11.9252,1.42285,0,0,0,0,0,0,0,-1,1910,1492,11.9252,-1.42291
693,-468,0,0,0,0,0,0,0,0,0,-1,1917,1492,0,0
700,-468,0,0,0,0,0,0,0,0,0,-1,1924,1492,0,0
707,-468,0,0,0,0,0,0,0,0,0,-1,1931,1492,0,0
714,-468,0,0,0,0,0,0,0,0,0,-1,1938,1492,0,0
721,-468,0,0,0,0,0,0,0,0,0,-1,1945,1492,0,0
728,-468,0,0,0,0,0,0,0,0,0,-1,1952,1492,0,0
735,-468,0,0,0,0,0,0,0,0,0,-1,1959,1492,0,0
742,-468,0,0,0,0,0,0,0,0,0,-1,1966,1492,0,0
749,-468,0,0,0,0,0,0,0,0,0,-1,1973,1492,0,0
756,-468,0,0,0,0,0,0,0,0,0,-1,1980,1492,0,0
763,-468,0,0,0,0,0,0,0,0,0,-1,1987,1492,0,0
770,-468,0,0,0,0,0,0,0,0,0,-1,1994,1492,0,0
777,-468,0,0,0,0,0,0,0,0,0,-1,2001,1492,0,0
784,-468,0,0,0,0,0,0,0,0,0,-1,2008,1492,0,0
791,-468,0,0,0,0,0,0,0,0,0,-1,2015,1492,0,0
798,-468,0,0,0,0,0,0,0,0,0,-1,2022,1492,0,0
805,-468,0,0,0,0,0,0,0,0,0,-1,2029,1492,0,0
812,-468,0,0,0,0,0,0,0,0,0,-1,2036,1492,0,0
-700,-475,0,0,0,0,0,0,0,0,0,-1,524,1499,0,0
-693,-475,0,0,0,0,0,0,0,0,0,-1,531,1499,0,0
-686,-475,0,0,0,0,0,0,0,0,0,-1,538,1499,0,0
-679,-475,0,0,0,0,0,0,0,0,0,-1,545,1499,0,0
-672,-475,0,0,0,0,0,0,0,0,0,-1,552,1499,0,0
-665,-475,0,0,0,0,0,0,0,0,0,-1,559,1499,0,0
-658,-475,0,0,0,0,0,0,0,0,0,-1,566,1499,0,0
-651,-475,0,0,0,0,0,0,0,0,0,-1,573,1499,0,0
-644,-475,0,0,0,0,0,0,0,0,0,-1,580,1499,0,0
-637,-475,0,0,0,0,0,0,0,0,0,-1,587,1499,0,0
-630,-475,0,0,0,0,0,0,0,0,0,-1,594,1499,0,0
-623,-475,0,0,0,0,0,0,0,0,0,-1,601,1499,0,0
-616,-475,0,0,0,0,0,0,0,0,0,-1,608,1499,0,0
-609,-475,0,0,0,0,0,0,0,0,0,-1,615,1499,0,0
-602,-475,0,0,0,0,0,0,0,0,0,-1,622,1499,0,0
-595,-475,0,0,0,0,0,0,0,0,0,-1,629,1499,0,0
-588,-475,0,0,0,0,0,0,0,0,0,-1,636,1499,0,0
-581,-475,0,0,0,0,0,0,0,0,0,-1,643,1499,0,0
-574,-475,0,0,0,0,0,0,0,0,0,-1,650,1499,0,0
-567,-475,0,0,0,0,0,0,0,0,0,-1,657,1499,0,0
-560,-475,-9.42731,9.29517,0,0,0,0,0,0,0,-1,664,1499,-9.42731,-9.29519
-553,-475,-8.15131,8.78369,0,0,0,0,0,0,0,-1,671,1499,-8.15131,-8.78367
-546,-475,-8.41254,8.20654,0,0,0,0,0,0,0,-1,678,1499,-8.41251,-8.20655
-539,-475,-5.11926,1.58594,0,0,0,0,0,0,0,-1,685,1499,-5.11925,-1.58598
-532,-475,-4.43079,5.67883,0,0,0,0,0,0,0,-1,692,1499,-4.43079,-5.67886
-525,-475,-3.95026,6.4137,0.0501381,0.0352387,0.0489,0.0921526,-0.00677578,0.709807,0.0638137,0.0440748,699,1499,-3.95025,-6.41364
-518,-475,-3.74982,7.04224,0.0368247,0.0240724,0.0348,0.0658279,-0.0049307,0.694792,0.0456177,0.0487983,706,1499,-3.74979,-7.04226
-511,-475,-3.56818,7.58752,0.0261432,0.0157756,0.0239418,0.0454559,-0.00353714,0.678785,0.0315491,0.0462042,713,1499,-3.56815,-7.58756
-504,-475,-3.28369,8.17822,0.0179269,0.00986581,0.0159138,0.0303126,-0.00251992,0.661369,0.0210986,0.0286463,720,1499,-3.28368,-8.17827
-497,-475,-3.29639,8.46008,0.0118435,0.00569156,0.0100807,0.0193071,-0.00177202,0.637318,0.0135009,0.0175088,727,1499,-3.29641,-8.46013
-490,-475,-3.30933,8.77026,0.00742613,0.00290418,0.00600217,0.0115791,-0.00124874,0.605271,0.0081675,0.00886791,734,1499,-3.30932,-8.77031
-483,-475,-3.30615,9.14563,0.00452885,0.0011008,0.00320059,0.00644548,-0.000815836,0.539564,0.00459315,0.00873339,741,1499,-3.30617,-9.14558
-476,-475,-3.31116,9.47729,0.00287837,-0.000270637,0.00133354,0.00336721,-0.000759477,0.351363,0.00253616,0.0102036,748,1499,-3.31117,-9.47728
-469,-475,-3.31281,9.80518,0.00161758,-0.00186844,-0.000657695,0.00173754,-0.00198839,-0.180407,0.00215279,0.0116402,755,1499,-3.31278,-9.80523
-462,-475,-3.27893,10.145,0.00165365,-0.00264563,-0.00142805,0.00208476,-0.00307675,-0.293189,0.00299829,0.0165106,762,1499,-3.27893,-10.145
-455,-475,-3.29852,10.4698,0.00269841,-0.00331085,-0.00173422,0.00316298,-0.00377542,-0.261737,0.00401108,0.0154705,769,1499,-3.29852,-10.4698
-448,-475,-3.33612,10.8138,0.00420497,-0.00413178,-0.00199518,0.00465786,-0.00458467,-0.22321,0.00533624,0.012853,776,1499,-3.33614,-10.8138
-441,-475,-3.3501,11.1979,0.00610371,-0.00535901,-0.00233261,0.00656021,-0.00581551,-0.193259,0.00714943,0.0153194,783,1499,-3.3501,-11.1979
-434,-475,-3.34937,11.5153,0.008165,-0.00693414,-0.00290801,0.0087057,-0.00747485,-0.183836,0.00935085,0.0102277,790,1499,-3.34935,-11.5152
-427,-475,-3.31152,11.8983,0.0104443,-0.0089671,-0.00374576,0.011142,-0.00966483,-0.184162,0.0120229,0.0176623,797,1499,-3.31153,-11.8983
-420,-475,-3.21185,12.2444,0.0130207,-0.0112569,-0.00468776,0.0138944,-0.0121306,-0.184268,0.0150371,0.0287453,804,1499,-3.21184,-12.2444
-413,-475,-3.01831,12.2781,0.0160184,-0.013745,-0.00559431,0.0170352,-0.0147618,-0.179788,0.0183736,0.049546,811,1499,-3.0183,-12.278
-406,-475,-2.56116,12.4956,0,0,0,0,0,0,0,-1,818,1499,-2.56116,-12.4956
-399,-475,-1.39667,6.1615,0,0,0,0,0,0,0,-1,825,1499,-1.39664,-6.16155
-392,-475,0.217163,8.61389,0,0,0,0,0,0,0,-1,832,1499,0.217167,-8.6139
-385,-475,1.18372,2.73999,0,0,0,0,0,0,0,-1,839,1499,1.18372,-2.73995
-378,-475,1.31409,2.90149,0,0,0,0,0,0,0,-1,846,1499,1.31411,-2.90151
-371,-475,2.3476,3.31116,0,0,0,0,0,0,0,-1,853,1499,2.34761,-3.31121
-364,-475,1.04462,9.05823,0,0,0,0,0,0,0,-1,860,1499,1.04461,-9.05825
-357,-475,-0.262756,7.97205,0,0,0,0,0,0,0,-1,867,1499,-0.262784,-7.97205
-350,-475,-2.77173,4.35486,0,0,0,0,0,0,0,-1,874,1499,-2.77175,-4.35491
-343,-475,-6.81641,-1.95203,0,0,0,0,0,0,0,-1,881,1499,-6.81643,1.95198
-336,-475,0,0,0,0,0,0,0,0,0,-1,888,1499,0,0
-329,-475,0,0,0,0,0,0,0,0,0,-1,895,1499,0,0
-322,-475,0,0,0,0,0,0,0,0,0,-1,902,1499,0,0
-315,-475,0,0,0,0,0,0,0,0,0,-1,909,1499,0,0
-308,-475,0,0,0,0,0,0,0,0,0,-1,916,1499,0,0
-301,-475,0,0,0,0,0,0,0,0,0,-1,923,1499,0,0
-294,-475,0,0,0,0,0,0,0,0,0,-1,930,1499,0,0
-287,-475,0,0,0,0,0,0,0,0,0,-1,937,1499,0,0
-280,-475,0,0,0,0,0,0,0,0,0,-1,944,1499,0,0
-273,-475,0,0,0,0,0,0,0,0,0,-1,951,1499,0,0
-266,-475,0,0,0,0,0,0,0,0,0,-1,958,1499,0,0
-259,-475,0,0,0,0,0,0,0,0,0,-1,965,1499,0,0
-252,-475,0,0,0,0,0,0,0,0,0,-1,972,1499,0,0
-245,-475,0,0,0,0,0,0,0,0,0,-1,979,1499,0,0
-238,-475,0,0,0,0,0,0,0,0,0,-1,986,1499,0,0
-231,-475,0,0,0,0,0,0,0,0,0,-1,993,1499,0,0
-224,-475,0,0,0,0,0,0,0,0,0,-1,1000,1499,0,0
-217,-475,0,0,0,0,0,0,0,0,0,-1,1007,1499,0,0
-210,-475,0,0,0,0,0,0,0,0,0,-1,1014,1499,0,0
-203,-475,0,0,0,0,0,0,0,0,0,-1,1021,1499,0,0
-196,-475,0,0,0,0,0,0,0,0,0,-1,1028,1499,0,0
-189,-475,0,0,0,0,0,0,0,0,0,-1,1035,1499,0,0
-182,-475,0,0,0,0,0,0,0,0,0,-1,1042,1499,0,0
-175,-475,0,0,0,0,0,0,0,0,0,-1,1049,1499,0,0
-168,-475,0,0,0,0,0,0,0,0,0,-1,1056,1499,0,0
-161,-475,0,0,0,0,0,0,0,0,0,-1,1063,1499,0,0
-154,-475,0,0,0,0,0,0,0,0,0,-1,1070,1499,0,0
-147,-475,0,0,0,0,0,0,0,0,0,-1,1077,1499,0,0
-140,-475,0,0,0,0,0,0,0,0,0,-1,1084,1499,0,0
-133,-475,0,0,0,0,0,0,0,0,0,-1,1091,1499,0,0
-126,-475,0,0,0,0,0,0,0,0,0,-1,1098,1499,0,0
-119,-475,0,0,0,0,0,0,0,0,0,-1,1105,1499,0,0
-112,-475,0,0,0,0,0,0,0,0,0,-1,1112,1499,0,0
-105,-475,0,0,0,0,0,0,0,0,0,-1,1119,1499,0,0
-98,-475,0,0,0,0,0,0,0,0,0,-1,1126,1499,0,0
-91,-475,0,0,0,0,0,0,0,0,0,-1,1133,1499,0,0
-84,-475,0,0,0,0,0,0,0,0,0,-1,1140,1499,0,0
-77,-475,0,0,0,0,0,0,0,0,0,-1,1147,1499,0,0
-70,-475,0,0,0,0,0,0,0,0,0,-1,1154,1499,0,0
-63,-475,0,0,0,0,0,0,0,0,0,-1,1161,1499,0,0
-56,-475,0,0,0,0,0,0,0,0,0,-1,1168,1499,0,0
-49,-475,0,0,0,0,0,0,0,0,0,-1,1175,1499,0,0
-42,-475,0,0,0,0,0,0,0,0,0,-1,1182,1499,0,0
-35,-475,0,0,0,0,0,0,0,0,0,-1,1189,1499,0,0
-28,-475,0,0,0,0,0,0,0,0,0,-1,1196,1499,0,0
-21,-475,0,0,0,0,0,0,0,0,0,-1,1203,1499,0,0
-14,-475,0,0,0,0,0,0,0,0,0,-1,1210,1499,0,0
-7,-475,0,0,0,0,0,0,0,0,0,-1,1217,1499,0,0
0,-475,0,0,0,0,0,0,0,0,0,-1,1224,1499,0,0
7,-475,0,0,0,0,0,0,0,0,0,-1,1231,1499,0,0
14,-475,0,0,0,0,0,0,0,0,0,-1,1238,1499,0,0
21,-475,0,0,0,0,0,0,0,0,0,-1,1245,1499,0,0
28,-475,0,0,0,0,0,0,0,0,0,-1,1252,1499,0,0
35,-475,0,0,0,0,0,0,0,0,0,-1,1259,1499,0,0
42,-475,0,0,0,0,0,0,0,0,0,-1,1266,1499,0,0
49,-475,0,0,0,0,0,0,0,0,0,-1,1273,1499,0,0
56,-475,0,0,0,0,0,0,0,0,0,-1,1280,1499,0,0
63,-475,0,0,0,0,0,0,0,0,0,-1,1287,1499,0,0
70,-475,0,0,0,0,0,0,0,0,0,-1,1294,1499,0,0
77,-475,0,0,0,0,0,0,0,0,0,-1,1301,1499,0,0
84,-475,0,0,0,0,0,0,0,0,0,-1,1308,1499,0,0
91,-475,0,0,0,0,0,0,0,0,0,-1,1315,1499,0,0
98,-475,0,0,0,0,0,0,0,0,0,-1,1322,1499,0,0
105,-475,0,0,0,0,0,0,0,0,0,-1,1329,1499,0,0
112,-475,0,0,0,0,0,0,0,0,0,-1,1336,1499,0,0
119,-475,0,0,0,0,0,0,0,0,0,-1,1343,1499,0,0
126,-475,0,0,0,0,0,0,0,0,0,-1,1350,1499,0,0
133,-475,0,0,0,0,0,0,0,0,0,-1,1357,1499,0,0
140,-475,0,0,0,0,0,0,0,0,0,-1,1364,1499,0,0
147,-475,0,0,0,0,0,0,0,0,0,-1,1371,1499,0,0
154,-475,0,0,0,0,0,0,0,0,0,-1,1378,1499,0,0
161,-475,0,0,0,0,0,0,0,0,0,-1,1385,1499,0,0
168,-475,0,0,0,0,0,0,0,0,0,-1,1392,1499,0,0
175,-475,0,0,0,0,0,0,0,0,0,-1,1399,1499,0,0
182,-475,0,0,0,0,0,0,0,0,0,-1,1406,1499,0,0
189,-475,0,0,0,0,0,0,0,0,0,-1,1413,1499,0,0
196,-475,0,0,0,0,0,0,0,0,0,-1,1420,1499,0,0
203,-475,0,0,0,0,0,0,0,0,0,-1,1427,1499,0,0
210,-475,0,0,0,0,0,0,0,0,0,-1,1434,1499,0,0
217,-475,0,0,0,0,0,0,0,0,0,-1,1441,1499,0,0
224,-475,0,0,0,0,0,0,0,0,0,-1,1448,1499,0,0
231,-475,0,0,0,0,0,0,0,0,0,-1,1455,1499,0,0
238,-475,0,0,0,0,0,0,0,0,0,-1,1462,1499,0,0
245,-475,0,0,0,0,0,0,0,0,0,-1,1469,1499,0,0
252,-475,0,0,0,0,0,0,0,0,0,-1,1476,1499,0,0
259,-475,0,0,0,0,0,0,0,0,0,-1,1483,1499,0,0
266,-475,0,0,0,0,0,0,0,0,0,-1,1490,1499,0,0
273,-475,0,0,0,0,0,0,0,0,0,-1,1497,1499,0,0
280,-475,0,0,0,0,0,0,0,0,0,-1,1504,1499,0,0
287,-475,0,0,0,0,0,0,0,0,0,-1,1511,1499,0,0
294,-475,0,0,0,0,0,0,0,0,0,-1,1518,1499,0,0
301,-475,0,0,0,0,0,0,0,0,0,-1,1525,1499,0,0
308,-475,0,0,0,0,0,0,0,0,0,-1,1532,1499,0,0
315,-475,0,0,0,0,0,0,0,0,0,-1,1539,1499,0,0
322,-475,0,0,0,0,0,0,0,0,0,-1,1546,1499,0,0
329,-475,0,0,0,0,0,0,0,0,0,-1,1553,1499,0,0
336,-475,0,0,0,0,0,0,0,0,0,-1,1560,1499,0,0
343,-475,0,0,0,0,0,0,0,0,0,-1,1567,1499,0,0
350,-475,0,0,0,0,0,0,0,0,0,-1,1574,1499,0,0
357,-475,0,0,0,0,0,0,0,0,0,-1,1581,1499,0,0
364,-475,0,0,0,0,0,0,0,0,0,-1,1588,1499,0,0
371,-475,0,0,0,0,0,0,0,0,0,-1,1595,1499,0,0
378,-475,0,0,0,0,0,0,0,0,0,-1,1602,1499,0,0
385,-475,0,0,0,0,0,0,0,0,0,-1,1609,1499,0,0
392,-475,0,0,0,0,0,0,0,0,0,-1,1616,1499,0,0
399,-475,0,0,0,0,0,0,0,0,0,-1,1623,1499,0,0
406,-475,0,0,0,0,0,0,0,0,0,-1,1630,1499,0,0
413,-475,0,0,0,0,0,0,0,0,0,-1,1637,1499,0,0
420,-475,0,0,0,0,0,0,0,0,0,-1,1644,1499,0,0
427,-475,0,0,0,0,0,0,0,0,0,-1,1651,1499,0,0
434,-475,0,0,0,0,0,0,0,0,0,-1,1658,1499,0,0
441,-475,0,0,0,0,0,0,0,0,0,-1,1665,1499,0,0
448,-475,0,0,0,0,0,0,0,0,0,-1,1672,1499,0,0
455,-475,0,0,0,0,0,0,0,0,0,-1,1679,1499,0,0
462,-475,12.6372,0.275391,0,0,0,0,0,0,0,-1,1686,1499,12.6372,-0.27536
469,-475,15.6437,2.28296,0,0,0,0,0,0,0,-1,1693,1499,15.6437,-2.28293
476,-475,15.3302,2.71436,0,0,0,0,0,0,0,-1,1700,1499,15.3303,-2.7143
483,-475,10.7461,5.91479,0,0,0,0,0,0,0,-1,1707,1499,10.7461,-5.91476
490,-475,11.9305,4.4364,0,0,0,0,0,0,0,-1,1714,1499,11.9305,-4.43644
497,-475,15.3451,4.3479,0,0,0,0,0,0,0,-1,1721,1499,15.3451,-4.34789
504,-475,16.9646,7.71265,0,0,0,0,0,0,0,-1,1728,1499,16.9646,-7.71265
511,-475,19.6172,13.4172,0,0,0,0,0,0,0,-1,1735,1499,19.6172,-13.4173
518,-475,17.1322,14.2107,0,0,0,0,0,0,0,-1,1742,1499,17.1322,-14.2107
525,-475,15.307,14.4703,0,0,0,0,0,0,0,-1,1749,1499,15.307,-14.4703
532,-475,14.7762,14.1641,-0.0192498,-0.0148451,0.0118786,-0.0049664,-0.0291284,0.87706,0.0179934,0.0480474,1756,1499,14.7763,-14.164
539,-475,14.601,13.9558,-0.0146669,-0.0111317,0.00881837,-0.00390556,-0.0218931,0.88431,0.0134834,0.0474433,1763,1499,14.6009,-13.9558
546,-475,14.5356,13.7335,-0.0108334,-0.00805214,0.0066185,-0.00267975,-0.0162058,0.888947,0.0100306,0.0420309,1770,1499,14.5357,-13.7335
553,-475,14.6106,13.5367,-0.00791756,-0.00588337,0.00499966,-0.0017984,-0.0120025,0.885745,0.00747469,0.0241205,1777,1499,14.6106,-13.5368
560,-475,14.443,13.3115,-0.00557807,-0.0042865,0.00363469,-0.00124067,-0.00862389,0.873317,0.00538357,0.0177737,1784,1499,14.443,-13.3116
567,-475,14.531,12.9497,-0.00373703,-0.00309231,0.00274496,-0.000650846,-0.00617849,0.843849,0.00392009,0.0144751,1791,1499,14.531,-12.9498
574,-475,14.5192,12.6158,-0.00236312,-0.00211266,0.00198219,-0.000251744,-0.00422403,0.816946,0.00273597,0.0149937,1798,1499,14.5192,-12.6158
581,-475,14.5186,12.327,-0.00130162,-0.00125945,0.00129966,1.92963e-05,-0.00258036,0.793509,0.00172671,0.0121247,1805,1499,14.5185,-12.3271
588,-475,14.5039,12.0499,-0.000181857,-0.000712395,0.000707203,0.000308191,-0.00120244,0.605971,0.000921697,0.0102837,1812,1499,14.5039,-12.0499
595,-475,14.516,11.7301,0.000454003,-0.0003092,0.000267398,0.000538365,-0.000393561,0.305606,0.000540208,0.0112403,1819,1499,14.516,-11.7301
602,-475,14.5134,11.381,0.000778209,-0.00014122,6.54581e-05,0.000782846,-0.000145856,0.070719,0.000576698,0.0127317,1826,1499,14.5135,-11.381
609,-475,14.4954,11.077,0.00119635,-7.46881e-05,-1.95718e-05,0.00119666,-7.49894e-05,-0.0153934,0.000823905,0.0119531,1833,1499,14.4954,-11.0771
616,-475,14.4851,10.7805,0.00158638,-0.000243883,3.59076e-05,0.00158709,-0.000244588,0.0196088,0.0011483,0.0113547,1840,1499,14.485,-10.7805
623,-475,14.4746,10.4633,0.00202992,-0.000495209,0.000259333,0.00205628,-0.000521568,0.101292,0.00157379,0.0111206,1847,1499,14.4746,-10.4632
630,-475,14.5208,10.1476,0.00247241,-0.000868386,0.000710282,0.00261715,-0.00101313,0.201028,0.00216306,0.0146229,1854,1499,14.5208,-10.1476
637,-475,14.5583,9.81152,0.00302805,-0.00141336,0.00140278,0.003434,-0.00181931,0.281695,0.00308039,0.028707,1861,1499,14.5583,-9.81151
644,-475,14.6494,9.45361,0,0,0,0,0,0,0,-1,1868,1499,14.6494,-9.45361
651,-475,11.7965,7.57593,0,0,0,0,0,0,0,-1,1875,1499,11.7965,-7.5759
658,-475,14.6708,8.80322,0,0,0,0,0,0,0,-1,1882,1499,14.6708,-8.8032
665,-475,9.33435,5.43335,0,0,0,0,0,0,0,-1,1889,1499,9.33439,-5.43332
672,-475,9.38635,1.10474,0,0,0,0,0,0,0,-1,1896,1499,9.38629,-1.10475
679,-475,12.2594,1.31079,0,0,0,0,0,0,0,-1,1903,1499,12.2594,-1.31077
686,-475,0,0,0,0,0,0,0,0,0,-1,1910,1499,0,0
693,-475,0,0,0,0,0,0,0,0,0,-1,1917,1499,0,0
700,-475,0,0,0,0,0,0,0,0,0,-1,1924,1499,0,0
707,-475,0,0,0,0,0,0,0,0,0,-1,1931,1499,0,0
714,-475,0,0,0,0,0,0,0,0,0,-1,1938,1499,0,0
721,-475,0,0,0,0,0,0,0,0,0,-1,1945,1499,0,0
728,-475,0,0,0,0,0,0,0,0,0,-1,1952,1499,0,0
735,-475,0,0,0,0,0,0,0,0,0,-1,1959,1499,0,0
742,-475,0,0,0,0,0,0,0,0,0,-1,1966,1499,0,0
749,-475,0,0,0,0,0,0,0,0,0,-1,1973,1499,0,0
756,-475,0,0,0,0,0,0,0,0,0,-1,1980,1499,0,0
763,-475,0,0,0,0,0,0,0,0,0,-1,1987,1499,0,0
770,-475,0,0,0,0,0,0,0,0,0,-1,1994,1499,0,0
777,-475,0,0,0,0,0,0,0,0,0,-1,2001,1499,0,0
784,-475,0,0,0,0,0,0,0,0,0,-1,2008,1499,0,0
791,-475,0,0,0,0,0,0,0,0,0,-1,2015,1499,0,0
798,-475,0,0,0,0,0,0,0,0,0,-1,2022,1499,0,0
805,-475,0,0,0,0,0,0,0,0,0,-1,2029,1499,0,0
812,-475,0,0,0,0,0,0,0,0,0,-1,2036,1499,0,0
-700,-482,0,0,0,0,0,0,0,0,0,-1,524,1506,0,0
-693,-482,0,0,0,0,0,0,0,0,0,-1,531,1506,0,0
-686,-482,0,0,0,0,0,0,0,0,0,-1,538,1506,0,0
-679,-482,0,0,0,0,0,0,0,0,0,-1,545,1506,0,0
-672,-482,0,0,0,0,0,0,0,0,0,-1,552,1506,0,0
-665,-482,0,0,0,0,0,0,0,0,0,-1,559,1506,0,0
-658,-482,0,0,0,0,0,0,0,0,0,-1,566,1506,0,0
-651,-482,0,0,0,0,0,0,0,0,0,-1,573,1506,0,0
-644,-482,0,0,0,0,0,0,0,0,0,-1,580,1506,0,0
-637,-482,0,0,0,0,0,0,0,0,0,-1,587,1506,0,0
-630,-482,0,0,0,0,0,0,0,0,0,-1,594,1506,0,0
-623,-482,0,0,0,0,0,0,0,0,0,-1,601,1506,0,0
-616,-482,0,0,0,0,0,0,0,0,0,-1,608,1506,0,0
-609,-482,0,0,0,0,0,0,0,0,0,-1,615,1506,0,0
-602,-482,0,0,0,0,0,0,0,0,0,-1,622,1506,0,0
-595,-482,0,0,0,0,0,0,0,0,0,-1,629,1506,0,0
-588,-482,0,0,0,0,0,0,0,0,0,-1,636,1506,0,0
-581,-482,0,0,0,0,0,0,0,0,0,-1,643,1506,0,0
-574,-482,0,0,0,0,0,0,0,0,0,-1,650,1506,0,0
-567,-482,0,0,0,0,0,0,0,0,0,-1,657,1506,0,0
-560,-482,0,0,0,0,0,0,0,0,0,-1,664,1506,0,0
-553,-482,-9.06055,9.34314,0,0,0,0,0,0,0,-1,671,1506,-9.06056,-9.34312
-546,-482,-4.08624,8.34241,0,0,0,0,0,0,0,-1,678,1506,-4.08624,-8.3424
-539,-482,-5.49774,4.30115,0,0,0,0,0,0,0,-1,685,1506,-5.49776,-4.30114
-532,-482,-4.72272,5.16125,0,0,0,0,0,0,0,-1,692,1506,-4.72271,-5.16127
-525,-482,-4.17419,5.85559,0.05895,0.0398375,0.0554675,0.105678,-0.00689087,0.700093,0.0728579,0.0426822,699,1506,-4.17419,-5.85556
-518,-482,-3.65289,6.76025,0.042612,0.0267996,0.0390029,0.0745019,-0.00509036,0.685399,0.0514487,0.0499382,706,1506,-3.65291,-6.76022
-511,-482,-3.52478,7.53894,0,0,0,0,0,0,0,-1,713,1506,-3.5248,-7.53893
-504,-482,-3.24048,8.3512,0.0197898,0.0104649,0.0171215,0.0328724,-0.00261768,0.652463,0.0228375,0.0409063,720,1506,-3.24048,-8.35119
-497,-482,-2.87921,8.45813,0.0126025,0.00577016,0.0104888,0.0202174,-0.00184471,0.627965,0.0141334,0.0271035,727,1506,-2.87922,-8.45815
-490,-482,-2.9729,8.73975,0.00745956,0.00272517,0.00599924,0.0115417,-0.00135702,0.597484,0.00818442,0.0171982,734,1506,-2.9729,-8.73972
-483,-482,-2.966,9.13135,0.0040921,0.000934299,0.00306616,0.00596201,-0.00093561,0.547633,0.00432044,0.00897046,741,1506,-2.96601,-9.13135
-476,-482,-2.96509,9.479,0.00220359,-0.000243631,0.00121124,0.00270169,-0.000741739,0.390158,0.00209266,0.00974946,748,1506,-2.9651,-9.479
-469,-482,-2.97595,9.82178,0.0007694,-0.00174131,-0.000755823,0.000979372,-0.00195128,-0.270974,0.00172275,0.0105131,755,1506,-2.97597,-9.8218
-462,-482,-2.97308,10.1639,0.0007013,-0.0023078,-0.00137899,0.00123765,-0.00284415,-0.370941,0.00241671,0.0113721,762,1506,-2.97308,-10.1639
-455,-482,-2.98285,10.4871,0.00172814,-0.00267254,-0.00145949,0.00216817,-0.00311258,-0.292835,0.00306505,0.0121971,769,1506,-2.98286,-10.4871
-448,-482,-2.99109,10.8417,0.00315788,-0.00310314,-0.00145975,0.00348149,-0.00342675,-0.218162,0.00398852,0.0124273,776,1506,-2.9911,-10.8417
-441,-482,-2.99731,11.2063,0.00494115,-0.00388513,-0.00147991,0.00518268,-0.00412666,-0.161778,0.00538626,0.0123401,783,1506,-2.9973,-11.2063
-434,-482,-3.02136,11.5537,0.00683538,-0.00486721,-0.001692,0.0070751,-0.00510693,-0.140744,0.00706383,0.014772,790,1506,-3.02134,-11.5537
-427,-482,-3.02386,11.9037,0.00887078,-0.00607777,-0.00205761,0.00914883,-0.00635582,-0.134319,0.0089999,0.0169661,797,1506,-3.02386,-11.9037
-420,-482,-2.92877,12.3691,0.01106,-0.00739432,-0.00246671,0.0113841,-0.00771835,-0.130611,0.0110963,0.0311971,804,1506,-2.92879,-12.3691
-413,-482,-2.72992,12.4945,0.0133545,-0.00866963,-0.00281763,0.0137092,-0.00902439,-0.125247,0.0132178,0.0478442,811,1506,-2.7299,-12.4945
-406,-482,-2.51373,12.7556,0,0,0,0,0,0,0,-1,818,1506,-2.51376,-12.7556
-399,-482,-1.3822,9.22595,0,0,0,0,0,0,0,-1,825,1506,-1.38221,-9.22598
-392,-482,-1.06836,9.22729,0,0,0,0,0,0,0,-1,832,1506,-1.06835,-9.2273
-385,-482,0.0647583,8.90649,0,0,0,0,0,0,0,-1,839,1506,0.0647778,-8.90644
-378,-482,0.215698,5.96948,0,0,0,0,0,0,0,-1,846,1506,0.215681,-5.9695
-371,-482,-0.10907,8.10437,0,0,0,0,0,0,0,-1,853,1506,-0.109063,-8.10433
-364,-482,-0.154968,10.5032,0,0,0,0,0,0,0,-1,860,1506,-0.154976,-10.5032
-357,-482,2.14807,4.60144,0,0,0,0,0,0,0,-1,867,1506,2.14807,-4.60144
-350,-482,-7.5813,-1.45935,0,0,0,0,0,0,0,-1,874,1506,-7.58133,1.45937
-343,-482,-7.19983,-1.26416,0,0,0,0,0,0,0,-1,881,1506,-7.19981,1.26414
-336,-482,-6.78491,-1.18127,0,0,0,0,0,0,0,-1,888,1506,-6.78488,1.18125
-329,-482,0,0,0,0,0,0,0,0,0,-1,895,1506,0,0
-322,-482,0,0,0,0,0,0,0,0,0,-1,902,1506,0,0
-315,-482,0,0,0,0,0,0,0,0,0,-1,909,1506,0,0
-308,-482,0,0,0,0,0,0,0,0,0,-1,916,1506,0,0
-301,-482,0,0,0,0,0,0,0,0,0,-1,923,1506,0,0
-294,-482,0,0,0,0,0,0,0,0,0,-1,930,1506,0,0
-287,-482,0,0,0,0,0,0,0,0,0,-1,937,1506,0,0
-280,-482,0,0,0,0,0,0,0,0,0,-1,944,1506,0,0
-273,-482,0,0,0,0,0,0,0,0,0,-1,951,1506,0,0
-266,-482,0,0,0,0,0,0,0,0,0,-1,958,1506,0,0
-259,-482,0,0,0,0,0,0,0,0,0,-1,965,1506,0,0
-252,-482,0,0,0,0,0,0,0,0,0,-1,972,1506,0,0
-245,-482,0,0,0,0,0,0,0,0,0,-1,979,1506,0,0
-238,-482,0,0,0,0,0,0,0,0,0,-1,986,1506,0,0
-231,-482,0,0,0,0,0,0,0,0,0,-1,993,1506,0,0
-224,-482,0,0,0,0,0,0,0,0,0,-1,1000,1506,0,0
-217,-482,0,0,0,0,0,0,0,0,0,-1,1007,1506,0,0
-210,-482,0,0,0,0,0,0,0,0,0,-1,1014,1506,0,0
-203,-482,0,0,0,0,0,0,0,0,0,-1,1021,1506,0,0
-196,-482,0,0,0,0,0,0,0,0,0,-1,1028,1506,0,0
-189,-482,0,0,0,0,0,0,0,0,0,-1,1035,1506,0,0
-182,-482,0,0,0,0,0,0,0,0,0,-1,1042,1506,0,0
-175,-482,0,0,0,0,0,0,0,0,0,-1,1049,1506,0,0
-168,-482,0,0,0,0,0,0,0,0,0,-1,1056,1506,0,0
-161,-482,0,0,0,0,0,0,0,0,0,-1,1063,1506,0,0
-154,-482,0,0,0,0,0,0,0,0,0,-1,1070,1506,0,0
-147,-482,0,0,0,0,0,0,0,0,0,-1,1077,1506,0,0
-140,-482,0,0,0,0,0,0,0,0,0,-1,1084,1506,0,0
-133,-482,0,0,0,0,0,0,0,0,0,-1,1091,1506,0,0
-126,-482,0,0,0,0,0,0,0,0,0,-1,1098,1506,0,0
-119,-482,0,0,0,0,0,0,0,0,0,-1,1105,1506,0,0
-112,-482,0,0,0,0,0,0,0,0,0,-1,1112,1506,0,0
-105,-482,0,0,0,0,0,0,0,0,0,-1,1119,1506,0,0
-98,-482,0,0,0,0,0,0,0,0,0,-1,1126,1506,0,0
-91,-482,0,0,0,0,0,0,0,0,0,-1,1133,1506,0,0
-84,-482,0,0,0,0,0,0,0,0,0,-1,1140,1506,0,0
-77,-482,0,0,0,0,0,0,0,0,0,-1,1147,1506,0,0
-70,-482,0,0,0,0,0,0,0,0,0,-1,1154,1506,0,0
-63,-482,0,0,0,0,0,0,0,0,0,-1,1161,1506,0,0
-56,-482,0,0,0,0,0,0,0,0,0,-1,1168,1506,0,0
-49,-482,0,0,0,0,0,0,0,0,0,-1,1175,1506,0,0
-42,-482,0,0,0,0,0,0,0,0,0,-1,1182,1506,0,0
-35,-482,0,0,0,0,0,0,0,0,0,-1,1189,1506,0,0
-28,-482,0,0,0,0,0,0,0,0,0,-1,1196,1506,0,0
-21,-482,0,0,0,0,0,0,0,0,0,-1,1203,1506,0,0
-14,-482,0,0,0,0,0,0,0,0,0,-1,1210,1506,0,0
-7,-482,0,0,0,0,0,0,0,0,0,-1,1217,1506,0,0
0,-482,0,0,0,0,0,0,0,0,0,-1,1224,1506,0,0
7,-482,0,0,0,0,0,0,0,0,0,-1,1231,1506,0,0
14,-482,0,0,0,0,0,0,0,0,0,-1,1238,1506,0,0
21,-482,0,0,0,0,0,0,0,0,0,-1,1245,1506,0,0
28,-482,0,0,0,0,0,0,0,0,0,-1,1252,1506,0,0
35,-482,0,0,0,0,0,0,0,0,0,-1,1259,1506,0,0
42,-482,0,0,0,0,0,0,0,0,0,-1,1266,1506,0,0
49,-482,0,0,0,0,0,0,0,0,0,-1,1273,1506,0,0
56,-482,0,0,0,0,0,0,0,0,0,-1,1280,1506,0,0
63,-482,0,0,0,0,0,0,0,0,0,-1,1287,1506,0,0
70,-482,0,0,0,0,0,0,0,0,0,-1,1294,1506,0,0
77,-482,0,0,0,0,0,0,0,0,0,-1,1301,1506,0,0
84,-482,0,0,0,0,0,0,0,0,0,-1,1308,1506,0,0
91,-482,0,0,0,0,0,0,0,0,0,-1,1315,1506,0,0
98,-482,0,0,0,0,0,0,0,0,0,-1,1322,1506,0,0
105,-482,0,0,0,0,0,0,0,0,0,-1,1329,1506,0,0
112,-482,0,0,0,0,0,0,0,0,0,-1,1336,1506,0,0
119,-482,0,0,0,0,0,0,0,0,0,-1,1343,1506,0,0
126,-482,0,0,0,0,0,0,0,0,0,-1,1350,1506,0,0
133,-482,0,0,0,0,0,0,0,0,0,-1,1357,1506,0,0
140,-482,0,0,0,0,0,0,0,0,0,-1,1364,1506,0,0
147,-482,0,0,0,0,0,0,0,0,0,-1,1371,1506,0,0
154,-482,0,0,0,0,0,0,0,0,0,-1,1378,1506,0,0
161,-482,0,0,0,0,0,0,0,0,0,-1,1385,1506,0,0
168,-482,0,0,0,0,0,0,0,0,0,-1,1392,1506,0,0
175,-482,0,0,0,0,0,0,0,0,0,-1,1399,1506,0,0
182,-482,0,0,0,0,0,0,0,0,0,-1,1406,1506,0,0
189,-482,0,0,0,0,0,0,0,0,0,-1,1413,1506,0,0
196,-482,0,0,0,0,0,0,0,0,0,-1,1420,1506,0,0
203,-482,0,0,0,0,0,0,0,0,0,-1,1427,1506,0,0
210,-482,0,0,0,0,0,0,0,0,0,-1,1434,1506,0,0
217,-482,0,0,0,0,0,0,0,0,0,-1,1441,1506,0,0
224,-482,0,0,0,0,0,0,0,0,0,-1,1448,1506,0,0
231,-482,0,0,0,0,0,0,0,0,0,-1,1455,1506,0,0
238,-482,0,0,0,0,0,0,0,0,0,-1,1462,1506,0,0
245,-482,0,0,0,0,0,0,0,0,0,-1,1469,1506,0,0
252,-482,0,0,0,0,0,0,0,0,0,-1,1476,1506,0,0
259,-482,0,0,0,0,0,0,0,0,0,-1,1483,1506,0,0
266,-482,0,0,0,0,0,0,0,0,0,-1,1490,1506,0,0
273,-482,0,0,0,0,0,0,0,0,0,-1,1497,1506,0,0
280,-482,0,0,0,0,0,0,0,0,0,-1,1504,1506,0,0
287,-482,0,0,0,0,0,0,0,0,0,-1,1511,1506,0,0
294,-482,0,0,0,0,0,0,0,0,0,-1,1518,1506,0,0
301,-482,0,0,0,0,0,0,0,0,0,-1,1525,1506,0,0
308,-482,0,0,0,0,0,0,0,0,0,-1,1532,1506,0,0
315,-482,0,0,0,0,0,0,0,0,0,-1,1539,1506,0,0
322,-482,0,0,0,0,0,0,0,0,0,-1,1546,1506,0,0
329,-482,0,0,0,0,0,0,0,0,0,-1,1553,1506,0,0
336,-482,0,0,0,0,0,0,0,0,0,-1,1560,1506,0,0
343,-482,0,0,0,0,0,0,0,0,0,-1,1567,1506,0,0
350,-482,0,0,0,0,0,0,0,0,0,-1,1574,1506,0,0
357,-482,0,0,0,0,0,0,0,0,0,-1,1581,1506,0,0
364,-482,0,0,0,0,0,0,0,0,0,-1,1588,1506,0,0
371,-482,0,0,0,0,0,0,0,0,0,-1,1595,1506,0,0
378,-482,0,0,0,0,0,0,0,0,0,-1,1602,1506,0,0
385,-482,0,0,0,0,0,0,0,0,0,-1,1609,1506,0,0
392,-482,0,0,0,0,0,0,0,0,0,-1,1616,1506,0,0
399,-482,0,0,0,0,0,0,0,0,0,-1,1623,1506,0,0
406,-482,0,0,0,0,0,0,0,0,0,-1,1630,1506,0,0
413,-482,0,0,0,0,0,0,0,0,0,-1,1637,1506,0,0
420,-482,0,0,0,0,0,0,0,0,0,-1,1644,1506,0,0
427,-482,0,0,0,0,0,0,0,0,0,-1,1651,1506,0,0
434,-482,0,0,0,0,0,0,0,0,0,-1,1658,1506,0,0
441,-482,0,0,0,0,0,0,0,0,0,-1,1665,1506,0,0
448,-482,4.24146,1.55383,0,0,0,0,0,0,0,-1,1672,1506,4.24149,-1.55381
455,-482,12.4122,1.09729,0,0,0,0,0,0,0,-1,1679,1506,12.4122,-1.09734
462,-482,15.0673,3.13135,0,0,0,0,0,0,0,-1,1686,1506,15.0672,-3.13134
469,-482,15.3793,3.46301,0,0,0,0,0,0,0,-1,1693,1506,15.3793,-3.46307
476,-482,8.69751,9.18738,0,0,0,0,0,0,0,-1,1700,1506,8.69753,-9.18739
483,-482,10.0902,7.17432,0,0,0,0,0,0,0,-1,1707,1506,10.0902,-7.1743
490,-482,11.6289,5.4928,0,0,0,0,0,0,0,-1,1714,1506,11.6289,-5.49283
497,-482,15.9539,7.40222,0,0,0,0,0,0,0,-1,1721,1506,15.9538,-7.40219
504,-482,20.8204,12.5548,0,0,0,0,0,0,0,-1,1728,1506,20.8204,-12.5548
511,-482,16.1261,14.4762,0,0,0,0,0,0,0,-1,1735,1506,16.1261,-14.4762
518,-482,16.3425,13.9844,0,0,0,0,0,0,0,-1,1742,1506,16.3426,-13.9844
525,-482,15.0958,14.2407,0,0,0,0,0,0,0,-1,1749,1506,15.0958,-14.2407
532,-482,14.7227,14.0942,-0.0152728,-0.012841,0.0108523,-0.00313667,-0.0249771,0.841186,0.0157106,0.0478102,1756,1506,14.7227,-14.0943
539,-482,14.3219,14.0745,-0.011782,-0.00947392,0.00790877,-0.00263546,-0.0186205,0.857848,0.0116351,0.0337921,1763,1506,14.3219,-14.0745
546,-482,14.2407,13.8947,-0.00869167,-0.00677791,0.00571272,-0.00194249,-0.0135271,0.868378,0.00844537,0.0184325,1770,1506,14.2408,-13.8947
553,-482,14.1843,13.551,-0.00636877,-0.00487232,0.00414929,-0.00140434,-0.00983675,0.874602,0.00614346,0.0156238,1777,1506,14.1843,-13.551
560,-482,14.1838,13.2853,-0.00446742,-0.00355752,0.00288593,-0.0010909,-0.00693404,0.863577,0.00430538,0.0130741,1784,1506,14.1839,-13.2853
567,-482,14.2297,12.9683,-0.00287569,-0.00254248,0.00207807,-0.000624347,-0.00479382,0.8254,0.00300943,0.0156843,1791,1506,14.2297,-12.9682
574,-482,14.2225,12.6448,-0.00165157,-0.0016635,0.0013781,-0.000279421,-0.00303566,0.783234,0.00193736,0.0146024,1798,1506,14.2226,-12.6448
581,-482,14.1996,12.3424,-0.000670476,-0.000869376,0.000740813,-2.24682e-05,-0.00151738,0.718675,0.00100418,0.0099831,1805,1506,14.1996,-12.3424
588,-482,14.1846,12.0582,0.0003508,-0.000370288,0.000180504,0.00039346,-0.000412948,0.232081,0.000465626,0.010305,1812,1506,14.1845,-12.0582
595,-482,14.1932,11.7222,0.000936277,1.45396e-05,-0.000226935,0.00098912,-3.83033e-05,-0.228778,0.000672545,0.0166073,1819,1506,14.1933,-11.7222
602,-482,14.2169,11.3531,0.0012504,0.000176675,-0.000405177,0.00138614,4.09381e-05,-0.323255,0.000910752,0.0203666,1826,1506,14.2169,-11.3531
609,-482,14.1842,11.0831,0.00166497,0.000221247,-0.000445484,0.00179137,9.48515e-05,-0.276461,0.00116392,0.0157799,1833,1506,14.1842,-11.0832
616,-482,14.1718,10.7902,0.00207666,1.72677e-05,-0.000340087,0.00213137,-3.74409e-05,-0.1595,0.00143355,0.0118116,1840,1506,14.1718,-10.7901
623,-482,14.1724,10.4711,0.00254771,-0.000223298,-3.97765e-05,0.00254828,-0.000223869,-0.0143506,0.00177818,0.0118591,1847,1506,14.1723,-10.4711
630,-482,14.2396,10.1813,0.0030089,-0.000670448,0.000536725,0.0030856,-0.000747144,0.141935,0.00234611,0.0240166,1854,1506,14.2397,-10.1812
637,-482,14.2758,10.0177,0.00365524,-0.00135176,0.00141616,0.00402802,-0.00172455,0.257397,0.00340885,0.0494351,1861,1506,14.2758,-10.0177
644,-482,14.2948,9.82605,0,0,0,0,0,0,0,-1,1868,1506,14.2948,-9.82599
651,-482,4.03845,7.05273,0,0,0,0,0,0,0,-1,1875,1506,4.03843,-7.05279
658,-482,10.0278,5.87903,0,0,0,0,0,0,0,-1,1882,1506,10.0279,-5.87902
665,-482,8.15198,3.22229,0,0,0,0,0,0,0,-1,1889,1506,8.15199,-3.22232
672,-482,9.87415,1.3147,0,0,0,0,0,0,0,-1,1896,1506,9.87416,-1.31473
679,-482,0,0,0,0,0,0,0,0,0,-1,1903,1506,0,0
686,-482,0,0,0,0,0,0,0,0,0,-1,1910,1506,0,0
693,-482,0,0,0,0,0,0,0,0,0,-1,1917,1506,0,0
700,-482,0,0,0,0,0,0,0,0,0,-1,1924,1506,0,0
707,-482,0,0,0,0,0,0,0,0,0,-1,1931,1506,0,0
714,-482,0,0,0,0,0,0,0,0,0,-1,1938,1506,0,0
721,-482,0,0,0,0,0,0,0,0,0,-1,1945,1506,0,0
728,-482,0,0,0,0,0,0,0,0,0,-1,1952,1506,0,0
735,-482,0,0,0,0,0,0,0,0,0,-1,1959,1506,0,0
742,-482,0,0,0,0,0,0,0,0,0,-1,1966,1506,0,0
749,-482,0,0,0,0,0,0,0,0,0,-1,1973,1506,0,0
756,-482,0,0,0,0,0,0,0,0,0,-1,1980,1506,0,0
763,-482,0,0,0,0,0,0,0,0,0,-1,1987,1506,0,0
770,-482,0,0,0,0,0,0,0,0,0,-1,1994,1506,0,0
777,-482,0,0,0,0,0,0,0,0,0,-1,2001,1506,0,0
784,-482,0,0,0,0,0,0,0,0,0,-1,2008,1506,0,0
791,-482,0,0,0,0,0,0,0,0,0,-1,2015,1506,0,0
798,-482,0,0,0,0,0,0,0,0,0,-1,2022,1506,0,0
805,-482,0,0,0,0,0,0,0,0,0,-1,2029,1506,0,0
812,-482,0,0,0,0,0,0,0,0,0,-1,2036,1506,0,0
-700,-489,0,0,0,0,0,0,0,0,0,-1,524,1513,0,0
-693,-489,0,0,0,0,0,0,0,0,0,-1,531,1513,0,0
-686,-489,0,0,0,0,0,0,0,0,0,-1,538,1513,0,0
-679,-489,0,0,0,0,0,0,0,0,0,-1,545,1513,0,0
-672,-489,0,0,0,0,0,0,0,0,0,-1,552,1513,0,0
-665,-489,0,0,0,0,0,0,0,0,0,-1,559,1513,0,0
-658,-489,0,0,0,0,0,0,0,0,0,-1,566,1513,0,0
-651,-489,0,0,0,0,0,0,0,0,0,-1,573,1513,0,0
-644,-489,0,0,0,0,0,0,0,0,0,-1,580,1513,0,0
-637,-489,0,0,0,0,0,0,0,0,0,-1,587,1513,0,0
-630,-489,0,0,0,0,0,0,0,0,0,-1,594,1513,0,0
-623,-489,0,0,0,0,0,0,0,0,0,-1,601,1513,0,0
-616,-489,0,0,0,0,0,0,0,0,0,-1,608,1513,0,0
-609,-489,0,0,0,0,0,0,0,0,0,-1,615,1513,0,0
-602,-489,0,0,0,0,0,0,0,0,0,-1,622,1513,0,0
-595,-489,0,0,0,0,0,0,0,0,0,-1,629,1513,0,0
-588,-489,0,0,0,0,0,0,0,0,0,-1,636,1513,0,0
-581,-489,0,0,0,0,0,0,0,0,0,-1,643,1513,0,0
-574,-489,0,0,0,0,0,0,0,0,0,-1,650,1513,0,0
-567,-489,0,0,0,0,0,0,0,0,0,-1,657,1513,0,0
-560,-489,0,0,0,0,0,0,0,0,0,-1,664,1513,0,0
-553,-489,-9.42206,8.5116,0,0,0,0,0,0,0,-1,671,1513,-9.42205,-8.51158
-546,-489,-7.80951,8.18506,0,0,0,0,0,0,0,-1,678,1513,-7.8095,-8.18503
-539,-489,-4.03766,5.96765,0,0,0,0,0,0,0,-1,685,1513,-4.03766,-5.96763
-532,-489,-4.98071,4.3833,0,0,0,0,0,0,0,-1,692,1513,-4.98069,-4.38326
-525,-489,-4.43365,5.48572,0,0,0,0,0,0,0,-1,699,1513,-4.43368,-5.48576
-518,-489,-3.60992,6.3999,0,0,0,0,0,0,0,-1,706,1513,-3.60992,-6.39992
-511,-489,0.459778,3.77661,0,0,0,0,0,0,0,-1,713,1513,0.459801,-3.77667
-504,-489,-2.50018,8.03955,0,0,0,0,0,0,0,-1,720,1513,-2.50016,-8.0396
-497,-489,-2.48334,8.40735,0.0132207,0.00906737,0.0119185,0.0232421,-0.000954046,0.699144,0.0158224,0.0406194,727,1513,-2.48334,-8.40733
-490,-489,-2.52789,8.77344,0.00743611,0.00547274,0.00697711,0.0135003,-0.000591408,0.715507,0.00920364,0.0250256,734,1513,-2.52789,-8.77338
-483,-489,-2.63947,9.10046,0.00368708,0.00332207,0.0038336,0.00734252,-0.000333365,0.761613,0.00500983,0.0117544,741,1513,-2.63948,-9.10052
-476,-489,-2.64105,9.46265,0.00156641,0.00190852,0.00185197,0.00359732,-0.000122389,0.831449,0.00244003,0.00920149,748,1513,-2.64104,-9.46262
-469,-489,-2.64423,9.80273,-4.76021e-05,0.000125354,-0.000203349,0.00025985,-0.000182098,-0.986447,0.000256472,0.0100177,755,1513,-2.6442,-9.80275
-462,-489,-2.65216,10.1796,-0.000242866,-0.000652884,-0.000850496,0.000426981,-0.00132273,-0.667131,0.0010534,0.0150244,762,1513,-2.65219,-10.1795
-455,-489,-2.68219,10.5264,0.000712916,-0.00118819,-0.000930954,0.00109286,-0.00156813,-0.387491,0.00154447,0.0187047,769,1513,-2.68219,-10.5263
-448,-489,-2.6886,10.8309,0.00201844,-0.00169808,-0.000906466,0.00222774,-0.00190738,-0.226921,0.0023898,0.0163577,776,1513,-2.68863,-10.831
-441,-489,-2.66522,11.2068,0.00363919,-0.00247212,-0.000853499,0.00375615,-0.00258908,-0.136188,0.00368402,0.0145703,783,1513,-2.66523,-11.2067
-434,-489,-2.73651,11.5592,0.00533824,-0.00329113,-0.000941684,0.00543981,-0.0033927,-0.107441,0.0051449,0.0180961,790,1513,-2.73649,-11.5592
-427,-489,-2.74225,11.8965,0.00713105,-0.00414922,-0.00108771,0.00723498,-0.00425314,-0.0952562,0.00670673,0.0196506,797,1513,-2.74223,-11.8965
-420,-489,-2.71558,12.3016,0.00905015,-0.00473273,-0.00113275,0.00914262,-0.00482521,-0.0814566,0.00819174,0.0200414,804,1513,-2.71557,-12.3016
-413,-489,-2.39752,12.5645,0.0108756,-0.00536086,-0.00117712,0.0109605,-0.00544575,-0.071997,0.00964889,0.0392101,811,1513,-2.39755,-12.5644
-406,-489,-2.27045,13.1306,0,0,0,0,0,0,0,-1,818,1513,-2.27047,-13.1306
-399,-489,-1.41241,9.10718,0,0,0,0,0,0,0,-1,825,1513,-1.41244,-9.10722
-392,-489,-1.0368,9.30469,0,0,0,0,0,0,0,-1,832,1513,-1.03682,-9.30466
-385,-489,-1.75165,10.6559,0,0,0,0,0,0,0,-1,839,1513,-1.75165,-10.6559
-378,-489,-0.401428,9.87048,0,0,0,0,0,0,0,-1,846,1513,-0.401415,-9.87047
-371,-489,-1.11633,10.6606,0,0,0,0,0,0,0,-1,853,1513,-1.11633,-10.6606
-364,-489,-0.503113,8.98486,0,0,0,0,0,0,0,-1,860,1513,-0.503097,-8.98482
-357,-489,-0.609924,10.9606,0,0,0,0,0,0,0,-1,867,1513,-0.609947,-10.9605
-350,-489,-7.94659,-0.358887,0,0,0,0,0,0,0,-1,874,1513,-7.94657,0.358912
-343,-489,-7.49323,-0.437866,0,0,0,0,0,0,0,-1,881,1513,-7.49322,0.437823
-336,-489,-7.02332,-0.53125,0,0,0,0,0,0,0,-1,888,1513,-7.0233,0.531295
-329,-489,-6.70221,-0.242432,0,0,0,0,0,0,0,-1,895,1513,-6.70221,0.2424
-322,-489,0,0,0,0,0,0,0,0,0,-1,902,1513,0,0
-315,-489,0,0,0,0,0,0,0,0,0,-1,909,1513,0,0
-308,-489,0,0,0,0,0,0,0,0,0,-1,916,1513,0,0
-301,-489,0,0,0,0,0,0,0,0,0,-1,923,1513,0,0
-294,-489,0,0,0,0,0,0,0,0,0,-1,930,1513,0,0
-287,-489,0,0,0,0,0,0,0,0,0,-1,937,1513,0,0
-280,-489,0,0,0,0,0,0,0,0,0,-1,944,1513,0,0
-273,-489,0,0,0,0,0,0,0,0,0,-1,951,1513,0,0
-266,-489,0,0,0,0,0,0,0,0,0,-1,958,1513,0,0
-259,-489,0,0,0,0,0,0,0,0,0,-1,965,1513,0,0
-252,-489,0,0,0,0,0,0,0,0,0,-1,972,1513,0,0
-245,-489,0,0,0,0,0,0,0,0,0,-1,979,1513,0,0
-238,-489,0,0,0,0,0,0,0,0,0,-1,986,1513,0,0
-231,-489,0,0,0,0,0,0,0,0,0,-1,993,1513,0,0
-224,-489,0,0,0,0,0,0,0,0,0,-1,1000,1513,0,0
-217,-489,0,0,0,0,0,0,0,0,0,-1,1007,1513,0,0
-210,-489,0,0,0,0,0,0,0,0,0,-1,1014,1513,0,0
-203,-489,0,0,0,0,0,0,0,0,0,-1,1021,1513,0,0
-196,-489,0,0,0,0,0,0,0,0,0,-1,1028,1513,0,0
-189,-489,0,0,0,0,0,0,0,0,0,-1,1035,1513,0,0
-182,-489,0,0,0,0,0,0,0,0,0,-1,1042,1513,0,0
-175,-489,0,0,0,0,0,0,0,0,0,-1,1049,1513,0,0
-168,-489,0,0,0,0,0,0,0,0,0,-1,1056,1513,0,0
-161,-489,0,0,0,0,0,0,0,0,0,-1,1063,1513,0,0
-154,-489,0,0,0,0,0,0,0,0,0,-1,1070,1513,0,0
-147,-489,0,0,0,0,0,0,0,0,0,-1,1077,1513,0,0
-140,-489,0,0,0,0,0,0,0,0,0,-1,1084,1513,0,0
-133,-489,0,0,0,0,0,0,0,0,0,-1,1091,1513,0,0
-126,-489,0,0,0,0,0,0,0,0,0,-1,1098,1513,0,0
-119,-489,0,0,0,0,0,0,0,0,0,-1,1105,1513,0,0
-112,-489,0,0,0,0,0,0,0,0,0,-1,1112,1513,0,0
-105,-489,0,0,0,0,0,0,0,0,0,-1,1119,1513,0,0
-98,-489,0,0,0,0,0,0,0,0,0,-1,1126,1513,0,0
-91,-489,0,0,0,0,0,0,0,0,0,-1,1133,1513,0,0
-84,-489,0,0,0,0,0,0,0,0,0,-1,1140,1513,0,0
-77,-489,0,0,0,0,0,0,0,0,0,-1,1147,1513,0,0
-70,-489,0,0,0,0,0,0,0,0,0,-1,1154,1513,0,0
-63,-489,0,0,0,0,0,0,0,0,0,-1,1161,1513,0,0
-56,-489,0,0,0,0,0,0,0,0,0,-1,1168,1513,0,0
-49,-489,0,0,0,0,0,0,0,0,0,-1,1175,1513,0,0
-42,-489,0,0,0,0,0,0,0,0,0,-1,1182,1513,0,0
-35,-489,0,0,0,0,0,0,0,0,0,-1,1189,1513,0,0
-28,-489,0,0,0,0,0,0,0,0,0,-1,1196,1513,0,0
-21,-489,0,0,0,0,0,0,0,0,0,-1,1203,1513,0,0
-14,-489,0,0,0,0,0,0,0,0,0,-1,1210,1513,0,0
-7,-489,0,0,0,0,0,0,0,0,0,-1,1217,1513,0,0
0,-489,0,0,0,0,0,0,0,0,0,-1,1224,1513,0,0
7,-489,0,0,0,0,0,0,0,0,0,-1,1231,1513,0,0
14,-489,0,0,0,0,0,0,0,0,0,-1,1238,1513,0,0
21,-489,0,0,0,0,0,0,0,0,0,-1,1245,1513,0,0
28,-489,0,0,0,0,0,0,0,0,0,-1,1252,1513,0,0
35,-489,0,0,0,0,0,0,0,0,0,-1,1259,1513,0,0
42,-489,0,0,0,0,0,0,0,0,0,-1,1266,1513,0,0
49,-489,0,0,0,0,0,0,0,0,0,-1,1273,1513,0,0
56,-489,0,0,0,0,0,0,0,0,0,-1,1280,1513,0,0
63,-489,0,0,0,0,0,0,0,0,0,-1,1287,1513,0,0
70,-489,0,0,0,0,0,0,0,0,0,-1,1294,1513,0,0
77,-489,0,0,0,0,0,0,0,0,0,-1,1301,1513,0,0
84,-489,0,0,0,0,0,0,0,0,0,-1,1308,1513,0,0
91,-489,0,0,0,0,0,0,0,0,0,-1,1315,1513,0,0
98,-489,0,0,0,0,0,0,0,0,0,-1,1322,1513,0,0
105,-489,0,0,0,0,0,0,0,0,0,-1,1329,1513,0,0
112,-489,0,0,0,0,0,0,0,0,0,-1,1336,1513,0,0
119,-489,0,0,0,0,0,0,0,0,0,-1,1343,1513,0,0
126,-489,0,0,0,0,0,0,0,0,0,-1,1350,1513,0,0
133,-489,0,0,0,0,0,0,0,0,0,-1,1357,1513,0,0
140,-489,0,0,0,0,0,0,0,0,0,-1,1364,1513,0,0
147,-489,0,0,0,0,0,0,0,0,0,-1,1371,1513,0,0
154,-489,0,0,0,0,0,0,0,0,0,-1,1378,1513,0,0
161,-489,0,0,0,0,0,0,0,0,0,-1,1385,1513,0,0
168,-489,0,0,0,0,0,0,0,0,0,-1,1392,1513,0,0
175,-489,0,0,0,0,0,0,0,0,0,-1,1399,1513,0,0
182,-489,0,0,0,0,0,0,0,0,0,-1,1406,1513,0,0
189,-489,0,0,0,0,0,0,0,0,0,-1,1413,1513,0,0
196,-489,0,0,0,0,0,0,0,0,0,-1,1420,1513,0,0
203,-489,0,0,0,0,0,0,0,0,0,-1,1427,1513,0,0
210,-489,0,0,0,0,0,0,0,0,0,-1,1434,1513,0,0
217,-489,0,0,0,0,0,0,0,0,0,-1,1441,1513,0,0
224,-489,0,0,0,0,0,0,0,0,0,-1,1448,1513,0,0
231,-489,0,0,0,0,0,0,0,0,0,-1,1455,1513,0,0
238,-489,0,0,0,0,0,0,0,0,0,-1,1462,1513,0,0
245,-489,0,0,0,0,0,0,0,0,0,-1,1469,1513,0,0
252,-489,0,0,0,0,0,0,0,0,0,-1,1476,1513,0,0
259,-489,0,0,0,0,0,0,0,0,0,-1,1483,1513,0,0
266,-489,0,0,0,0,0,0,0,0,0,-1,1490,1513,0,0
273,-489,0,0,0,0,0,0,0,0,0,-1,1497,1513,0,0
280,-489,0,0,0,0,0,0,0,0,0,-1,1504,1513,0,0
287,-489,0,0,0,0,0,0,0,0,0,-1,1511,1513,0,0
294,-489,0,0,0,0,0,0,0,0,0,-1,1518,1513,0,0
301,-489,0,0,0,0,0,0,0,0,0,-1,1525,1513,0,0
308,-489,0,0,0,0,0,0,0,0,0,-1,1532,1513,0,0
315,-489,0,0,0,0,0,0,0,0,0,-1,1539,1513,0,0
322,-489,0,0,0,0,0,0,0,0,0,-1,1546,1513,0,0
329,-489,0,0,0,0,0,0,0,0,0,-1,1553,1513,0,0
336,-489,0,0,0,0,0,0,0,0,0,-1,1560,1513,0,0
343,-489,0,0,0,0,0,0,0,0,0,-1,1567,1513,0,0
350,-489,0,0,0,0,0,0,0,0,0,-1,1574,1513,0,0
357,-489,0,0,0,0,0,0,0,0,0,-1,1581,1513,0,0
364,-489,0,0,0,0,0,0,0,0,0,-1,1588,1513,0,0
371,-489,0,0,0,0,0,0,0,0,0,-1,1595,1513,0,0
378,-489,0,0,0,0,0,0,0,0,0,-1,1602,1513,0,0
385,-489,0,0,0,0,0,0,0,0,0,-1,1609,1513,0,0
392,-489,0,0,0,0,0,0,0,0,0,-1,1616,1513,0,0
399,-489,0,0,0,0,0,0,0,0,0,-1,1623,1513,0,0
406,-489,0,0,0,0,0,0,0,0,0,-1,1630,1513,0,0
413,-489,0,0,0,0,0,0,0,0,0,-1,1637,1513,0,0
420,-489,0,0,0,0,0,0,0,0,0,-1,1644,1513,0,0
427,-489,0,0,0,0,0,0,0,0,0,-1,1651,1513,0,0
434,-489,0,0,0,0,0,0,0,0,0,-1,1658,1513,0,0
441,-489,11.4602,2.56787,0,0,0,0,0,0,0,-1,1665,1513,11.4602,-2.56786
448,-489,12.4425,1.72351,0,0,0,0,0,0,0,-1,1672,1513,12.4425,-1.72349
455,-489,12.5575,1.37463,0,0,0,0,0,0,0,-1,1679,1513,12.5575,-1.37469
462,-489,14.9784,3.84888,0,0,0,0,0,0,0,-1,1686,1513,14.9784,-3.84892
469,-489,15.1367,4.53101,0,0,0,0,0,0,0,-1,1693,1513,15.1368,-4.531
476,-489,15.5536,5.09338,0,0,0,0,0,0,0,-1,1700,1513,15.5536,-5.09339
483,-489,8.96912,8.37805,0,0,0,0,0,0,0,-1,1707,1513,8.96909,-8.37809
490,-489,10.5366,7.49561,0,0,0,0,0,0,0,-1,1714,1513,10.5367,-7.49558
497,-489,14.6051,11.8397,0,0,0,0,0,0,0,-1,1721,1513,14.6051,-11.8397
504,-489,16.7527,14.1735,0,0,0,0,0,0,0,-1,1728,1513,16.7527,-14.1735
511,-489,15.4724,14.4093,0,0,0,0,0,0,0,-1,1735,1513,15.4724,-14.4093
518,-489,14.192,14.6451,0,0,0,0,0,0,0,-1,1742,1513,14.192,-14.6452
525,-489,14.6871,14.6237,0,0,0,0,0,0,0,-1,1749,1513,14.6871,-14.6236
532,-489,14.4147,14.298,-0.0118037,-0.010945,0.009759,-0.0016059,-0.0211428,0.807382,0.0135915,0.0410835,1756,1513,14.4147,-14.2979
539,-489,14.0277,14.1637,-0.00915499,-0.00786334,0.00697702,-0.00150232,-0.015516,0.831549,0.00988138,0.0195456,1763,1513,14.0277,-14.1637
546,-489,13.8945,13.9478,-0.00673702,-0.00544558,0.00486377,-0.00118485,-0.0109977,0.851393,0.00697053,0.0124701,1770,1513,13.8946,-13.9478
553,-489,13.8795,13.605,-0.00495588,-0.0037798,0.00336988,-0.000947038,-0.00778865,0.871778,0.00490731,0.0139196,1777,1513,13.8795,-13.605
560,-489,13.9011,13.2874,-0.00345176,-0.00272174,0.00220813,-0.000848655,-0.00532484,0.867309,0.00330355,0.0133052,1784,1513,13.9011,-13.2874
567,-489,13.924,12.9801,-0.00209637,-0.00188134,0.00147651,-0.00050844,-0.00346927,0.821744,0.00216338,0.0146933,1791,1513,13.924,-12.9801
574,-489,13.8857,12.6886,-0.00101718,-0.00111615,0.000830362,-0.000234828,-0.0018985,0.755635,0.00119511,0.0145277,1798,1513,13.8857,-12.6886
581,-489,13.886,12.3665,-0.00011454,-0.000401406,0.000225247,9.06503e-06,-0.000525011,0.501885,0.000353068,0.0101502,1805,1513,13.886,-12.3664
588,-489,13.8813,12.0605,0.000799454,3.82641e-05,-0.000315364,0.000913133,-7.5415e-05,-0.345971,0.000635387,0.0120655,1812,1513,13.8814,-12.0605
595,-489,13.8767,11.7373,0.00134731,0.000388551,-0.000711572,0.00172592,9.94565e-06,-0.488972,0.00114731,0.018707,1819,1513,13.8767,-11.7373
602,-489,13.9003,11.4095,0.00168874,0.000531406,-0.000896457,0.00217708,4.30727e-05,-0.498793,0.00143724,0.0236034,1826,1513,13.9003,-11.4095
609,-489,13.8765,11.1113,0.00214785,0.000538102,-0.000927349,0.0025709,0.000115051,-0.427992,0.0016769,0.0165384,1833,1513,13.8764,-11.1113
616,-489,13.8644,10.7837,0.00265589,0.000302727,-0.000823607,0.00291551,4.3108e-05,-0.305363,0.00192946,0.0125693,1840,1513,13.8644,-10.7837
623,-489,13.8684,10.439,0.00323929,8.88791e-05,-0.0005014,0.00331717,1.10044e-05,-0.154083,0.00220779,0.0198225,1847,1513,13.8684,-10.4389
630,-489,13.9254,10.1954,0.00380382,-0.000410887,0.000139212,0.00380842,-0.000415481,0.0329822,0.00268816,0.0452507,1854,1513,13.9254,-10.1955
637,-489,13.9121,10.0376,0,0,0,0,0,0,0,-1,1861,1513,13.9122,-10.0376
644,-489,9.67578,8.45874,0,0,0,0,0,0,0,-1,1868,1513,9.67576,-8.45879
651,-489,6.13818,6.85095,0,0,0,0,0,0,0,-1,1875,1513,6.13823,-6.85097
658,-489,5.43848,7.75513,0,0,0,0,0,0,0,-1,1882,1513,5.43844,-7.75509
665,-489,5.48438,8.59912,0,0,0,0,0,0,0,-1,1889,1513,5.48434,-8.59907
672,-489,0,0,0,0,0,0,0,0,0,-1,1896,1513,0,0
679,-489,0,0,0,0,0,0,0,0,0,-1,1903,1513,0,0
686,-489,0,0,0,0,0,0,0,0,0,-1,1910,1513,0,0
693,-489,0,0,0,0,0,0,0,0,0,-1,1917,1513,0,0
700,-489,0,0,0,0,0,0,0,0,0,-1,1924,1513,0,0
707,-489,0,0,0,0,0,0,0,0,0,-1,1931,1513,0,0
714,-489,0,0,0,0,0,0,0,0,0,-1,1938,1513,0,0
721,-489,0,0,0,0,0,0,0,0,0,-1,1945,1513,0,0
728,-489,0,0,0,0,0,0,0,0,0,-1,1952,1513,0,0
735,-489,0,0,0,0,0,0,0,0,0,-1,1959,1513,0,0
742,-489,0,0,0,0,0,0,0,0,0,-1,1966,1513,0,0
749,-489,0,0,0,0,0,0,0,0,0,-1,1973,1513,0,0
756,-489,0,0,0,0,0,0,0,0,0,-1,1980,1513,0,0
763,-489,0,0,0,0,0,0,0,0,0,-1,1987,1513,0,0
770,-489,0,0,0,0,0,0,0,0,0,-1,1994,1513,0,0
777,-489,0,0,0,0,0,0,0,0,0,-1,2001,1513,0,0
784,-489,0,0,0,0,0,0,0,0,0,-1,2008,1513,0,0
791,-489,0,0,0,0,0,0,0,0,0,-1,2015,1513,0,0
798,-489,0,0,0,0,0,0,0,0,0,-1,2022,1513,0,0
805,-489,0,0,0,0,0,0,0,0,0,-1,2029,1513,0,0
812,-489,0,0,0,0,0,0,0,0,0,-1,2036,1513,0,0
-700,-496,0,0,0,0,0,0,0,0,0,-1,524,1520,0,0
-693,-496,0,0,0,0,0,0,0,0,0,-1,531,1520,0,0
-686,-496,0,0,0,0,0,0,0,0,0,-1,538,1520,0,0
-679,-496,0,0,0,0,0,0,0,0,0,-1,545,1520,0,0
-672,-496,0,0,0,0,0,0,0,0,0,-1,552,1520,0,0
-665,-496,0,0,0,0,0,0,0,0,0,-1,559,1520,0,0
-658,-496,0,0,0,0,0,0,0,0,0,-1,566,1520,0,0
-651,-496,0,0,0,0,0,0,0,0,0,-1,573,1520,0,0
-644,-496,0,0,0,0,0,0,0,0,0,-1,580,1520,0,0
-637,-496,0,0,0,0,0,0,0,0,0,-1,587,1520,0,0
-630,-496,0,0,0,0,0,0,0,0,0,-1,594,1520,0,0
-623,-496,0,0,0,0,0,0,0,0,0,-1,601,1520,0,0
-616,-496,0,0,0,0,0,0,0,0,0,-1,608,1520,0,0
-609,-496,0,0,0,0,0,0,0,0,0,-1,615,1520,0,0
-602,-496,0,0,0,0,0,0,0,0,0,-1,622,1520,0,0
-595,-496,0,0,0,0,0,0,0,0,0,-1,629,1520,0,0
-588,-496,0,0,0,0,0,0,0,0,0,-1,636,1520,0,0
-581,-496,0,0,0,0,0,0,0,0,0,-1,643,1520,0,0
-574,-496,0,0,0,0,0,0,0,0,0,-1,650,1520,0,0
-567,-496,0,0,0,0,0,0,0,0,0,-1,657,1520,0,0
-560,-496,0,0,0,0,0,0,0,0,0,-1,664,1520,0,0
-553,-496,0,0,0,0,0,0,0,0,0,-1,671,1520,0,0
-546,-496,-8.09711,7.94836,0,0,0,0,0,0,0,-1,678,1520,-8.09712,-7.94842
-539,-496,-4.26093,4.82874,0,0,0,0,0,0,0,-1,685,1520,-4.26095,-4.82876
-532,-496,-3.79547,5.23181,0,0,0,0,0,0,0,-1,692,1520,-3.79546,-5.23176
-525,-496,-4.95349,5.2511,0,0,0,0,0,0,0,-1,699,1520,-4.95349,-5.25105
-518,-496,0.177307,2.38354,0,0,0,0,0,0,0,-1,706,1520,0.17731,-2.38352
-511,-496,-2.39545,6.6283,0,0,0,0,0,0,0,-1,713,1520,-2.39546,-6.62834
-504,-496,-2.3501,8.04761,0,0,0,0,0,0,0,-1,720,1520,-2.35009,-8.0476
-497,-496,-2.08984,8.38025,0,0,0,0,0,0,0,-1,727,1520,-2.08986,-8.38023
-490,-496,-2.0188,8.98328,0.00676283,0.0075262,0.00741484,0.0145692,-0.000280148,0.811113,0.0098075,0.0416696,734,1520,-2.0188,-8.98324
-483,-496,-2.22284,9.17786,0.00275748,0.00501877,0.00409298,0.0081344,-0.000358149,0.920158,0.00554617,0.0218098,741,1520,-2.22285,-9.17781
-476,-496,-2.31409,9.47327,0.000500733,0.00346891,0.00205992,0.00452367,-0.000554034,1.09756,0.00321641,0.0114019,748,1520,-2.31406,-9.47332
-469,-496,-2.32312,9.82983,-0.00118859,0.00153416,9.79867e-06,0.00153419,-0.00118862,1.5672,0.00157623,0.0103357,755,1520,-2.32309,-9.82985
-462,-496,-2.31964,10.197,-0.00142461,0.000688332,-0.000594379,0.000844056,-0.00158033,-1.31456,0.00142107,0.016167,762,1520,-2.31966,-10.197
-455,-496,-2.34363,10.5291,-0.000474115,0.000115834,-0.000627859,0.000514558,-0.000872839,-1.005,0.000809868,0.0214307,769,1520,-2.34364,-10.5291
-448,-496,-2.34338,10.8694,0.000765815,-0.000386328,-0.000553385,0.000988551,-0.000609064,-0.382658,0.000931017,0.0195545,776,1520,-2.34339,-10.8694
-441,-496,-2.32001,11.2238,0.00228494,-0.0010947,-0.000426814,0.00233801,-0.00114777,-0.123702,0.00205125,0.0152001,783,1520,-2.31999,-11.2238
-434,-496,-2.37878,11.5531,0.00385962,-0.00175738,-0.000408195,0.00388913,-0.00178689,-0.0721659,0.00335114,0.0145867,790,1520,-2.37876,-11.5532
-427,-496,-2.39594,11.8972,0.00550082,-0.00233168,-0.000373602,0.0055186,-0.00234946,-0.047555,0.00466384,0.0178242,797,1520,-2.39595,-11.8973
-420,-496,-2.37268,12.2214,0.00717674,-0.00269329,-0.000276723,0.0071845,-0.00270104,-0.0280074,0.00589984,0.017559,804,1520,-2.37269,-12.2215
-413,-496,-2.29877,12.5756,0.00869043,-0.00296338,-0.000145376,0.00869224,-0.0029652,-0.0124719,0.00699593,0.0215077,811,1520,-2.29878,-12.5756
-406,-496,-2.18738,13.0688,0,0,0,0,0,0,0,-1,818,1520,-2.1874,-13.0689
-399,-496,-1.91339,13.5759,0,0,0,0,0,0,0,-1,825,1520,-1.91341,-13.576
-392,-496,-1.49786,12.387,0,0,0,0,0,0,0,-1,832,1520,-1.49788,-12.387
-385,-496,-1.72437,11.4985,0,0,0,0,0,0,0,-1,839,1520,-1.72436,-11.4985
-378,-496,-1.45532,14.0719,0,0,0,0,0,0,0,-1,846,1520,-1.45533,-14.0719
-371,-496,0.0877075,12.5299,0,0,0,0,0,0,0,-1,853,1520,0.0876896,-12.5299
-364,-496,0.0881348,10.6422,0,0,0,0,0,0,0,-1,860,1520,0.0881368,-10.6423
-357,-496,0.323792,7.56812,0,0,0,0,0,0,0,-1,867,1520,0.323782,-7.56806
-350,-496,2.1535,7.18945,0,0,0,0,0,0,0,-1,874,1520,2.15348,-7.1894
-343,-496,-7.56244,0.335327,0,0,0,0,0,0,0,-1,881,1520,-7.56242,-0.335322
-336,-496,-3.99249,6.02222,0,0,0,0,0,0,0,-1,888,1520,-3.99246,-6.0222
-329,-496,-6.93689,-0.100342,0,0,0,0,0,0,0,-1,895,1520,-6.93686,0.1003
-322,-496,-6.17505,0.494385,0,0,0,0,0,0,0,-1,902,1520,-6.17507,-0.49437
-315,-496,-5.46338,1.0459,0,0,0,0,0,0,0,-1,909,1520,-5.46338,-1.04587
-308,-496,0,0,0,0,0,0,0,0,0,-1,916,1520,0,0
-301,-496,0,0,0,0,0,0,0,0,0,-1,923,1520,0,0
-294,-496,0,0,0,0,0,0,0,0,0,-1,930,1520,0,0
-287,-496,0,0,0,0,0,0,0,0,0,-1,937,1520,0,0
-280,-496,0,0,0,0,0,0,0,0,0,-1,944,1520,0,0
-273,-496,0,0,0,0,0,0,0,0,0,-1,951,1520,0,0
-266,-496,0,0,0,0,0,0,0,0,0,-1,958,1520,0,0
-259,-496,0,0,0,0,0,0,0,0,0,-1,965,1520,0,0
-252,-496,0,0,0,0,0,0,0,0,0,-1,972,1520,0,0
-245,-496,0,0,0,0,0,0,0,0,0,-1,979,1520,0,0
-238,-496,0,0,0,0,0,0,0,0,0,-1,986,1520,0,0
-231,-496,0,0,0,0,0,0,0,0,0,-1,993,1520,0,0
-224,-496,0,0,0,0,0,0,0,0,0,-1,1000,1520,0,0
-217,-496,0,0,0,0,0,0,0,0,0,-1,1007,1520,0,0
-210,-496,0,0,0,0,0,0,0,0,0,-1,1014,1520,0,0
-203,-496,0,0,0,0,0,0,0,0,0,-1,1021,1520,0,0
-196,-496,0,0,0,0,0,0,0,0,0,-1,1028,1520,0,0
-189,-496,0,0,0,0,0,0,0,0,0,-1,1035,1520,0,0
-182,-496,0,0,0,0,0,0,0,0,0,-1,1042,1520,0,0
-175,-496,0,0,0,0,0,0,0,0,0,-1,1049,1520,0,0
-168,-496,0,0,0,0,0,0,0,0,0,-1,1056,1520,0,0
-161,-496,0,0,0,0,0,0,0,0,0,-1,1063,1520,0,0
-154,-496,0,0,0,0,0,0,0,0,0,-1,1070,1520,0,0
-147,-496,0,0,0,0,0,0,0,0,0,-1,1077,1520,0,0
-140,-496,0,0,0,0,0,0,0,0,0,-1,1084,1520,0,0
-133,-496,0,0,0,0,0,0,0,0,0,-1,1091,1520,0,0
-126,-496,0,0,0,0,0,0,0,0,0,-1,1098,1520,0,0
-119,-496,0,0,0,0,0,0,0,0,0,-1,1105,1520,0,0
-112,-496,0,0,0,0,0,0,0,0,0,-1,1112,1520,0,0
-105,-496,0,0,0,0,0,0,0,0,0,-1,1119,1520,0,0
-98,-496,0,0,0,0,0,0,0,0,0,-1,1126,1520,0,0
-91,-496,0,0,0,0,0,0,0,0,0,-1,1133,1520,0,0
-84,-496,0,0,0,0,0,0,0,0,0,-1,1140,1520,0,0
-77,-496,0,0,0,0,0,0,0,0,0,-1,1147,1520,0,0
-70,-496,0,0,0,0,0,0,0,0,0,-1,1154,1520,0,0
-63,-496,0,0,0,0,0,0,0,0,0,-1,1161,1520,0,0
-56,-496,0,0,0,0,0,0,0,0,0,-1,1168,1520,0,0
-49,-496,0,0,0,0,0,0,0,0,0,-1,1175,1520,0,0
-42,-496,0,0,0,0,0,0,0,0,0,-1,1182,1520,0,0
-35,-496,0,0,0,0,0,0,0,0,0,-1,1189,1520,0,0
-28,-496,0,0,0,0,0,0,0,0,0,-1,1196,1520,0,0
-21,-496,0,0,0,0,0,0,0,0,0,-1,1203,1520,0,0
-14,-496,0,0,0,0,0,0,0,0,0,-1,1210,1520,0,0
-7,-496,0,0,0,0,0,0,0,0,0,-1,1217,1520,0,0
0,-496,0,0,0,0,0,0,0,0,0,-1,1224,1520,0,0
7,-496,0,0,0,0,0,0,0,0,0,-1,1231,1520,0,0
14,-496,0,0,0,0,0,0,0,0,0,-1,1238,1520,0,0
21,-496,0,0,0,0,0,0,0,0,0,-1,1245,1520,0,0
28,-496,0,0,0,0,0,0,0,0,0,-1,1252,1520,0,0
35,-496,0,0,0,0,0,0,0,0,0,-1,1259,1520,0,0
42,-496,0,0,0,0,0,0,0,0,0,-1,1266,1520,0,0
49,-496,0,0,0,0,0,0,0,0,0,-1,1273,1520,0,0
56,-496,0,0,0,0,0,0,0,0,0,-1,1280,1520,0,0
63,-496,0,0,0,0,0,0,0,0,0,-1,1287,1520,0,0
70,-496,0,0,0,0,0,0,0,0,0,-1,1294,1520,0,0
77,-496,0,0,0,0,0,0,0,0,0,-1,1301,1520,0,0
84,-496,0,0,0,0,0,0,0,0,0,-1,1308,1520,0,0
91,-496,0,0,0,0,0,0,0,0,0,-1,1315,1520,0,0
98,-496,0,0,0,0,0,0,0,0,0,-1,1322,1520,0,0
105,-496,0,0,0,0,0,0,0,0,0,-1,1329,1520,0,0
112,-496,0,0,0,0,0,0,0,0,0,-1,1336,1520,0,0
119,-496,0,0,0,0,0,0,0,0,0,-1,1343,1520,0,0
126,-496,0,0,0,0,0,0,0,0,0,-1,1350,1520,0,0
133,-496,0,0,0,0,0,0,0,0,0,-1,1357,1520,0,0
140,-496,0,0,0,0,0,0,0,0,0,-1,1364,1520,0,0
147,-496,0,0,0,0,0,0,0,0,0,-1,1371,1520,0,0
154,-496,0,0,0,0,0,0,0,0,0,-1,1378,1520,0,0
161,-496,0,0,0,0,0,0,0,0,0,-1,1385,1520,0,0
168,-496,0,0,0,0,0,0,0,0,0,-1,1392,1520,0,0
175,-496,0,0,0,0,0,0,0,0,0,-1,1399,1520,0,0
182,-496,0,0,0,0,0,0,0,0,0,-1,1406,1520,0,0
189,-496,0,0,0,0,0,0,0,0,0,-1,1413,1520,0,0
196,-496,0,0,0,0,0,0,0,0,0,-1,1420,1520,0,0
203,-496,0,0,0,0,0,0,0,0,0,-1,1427,1520,0,0
210,-496,0,0,0,0,0,0,0,0,0,-1,1434,1520,0,0
217,-496,0,0,0,0,0,0,0,0,0,-1,1441,1520,0,0
224,-496,0,0,0,0,0,0,0,0,0,-1,1448,1520,0,0
231,-496,0,0,0,0,0,0,0,0,0,-1,1455,1520,0,0
238,-496,0,0,0,0,0,0,0,0,0,-1,1462,1520,0,0
245,-496,0,0,0,0,0,0,0,0,0,-1,1469,1520,0,0
252,-496,0,0,0,0,0,0,0,0,0,-1,1476,1520,0,0
259,-496,0,0,0,0,0,0,0,0,0,-1,1483,1520,0,0
266,-496,0,0,0,0,0,0,0,0,0,-1,1490,1520,0,0
273,-496,0,0,0,0,0,0,0,0,0,-1,1497,1520,0,0
280,-496,0,0,0,0,0,0,0,0,0,-1,1504,1520,0,0
287,-496,0,0,0,0,0,0,0,0,0,-1,1511,1520,0,0
294,-496,0,0,0,0,0,0,0,0,0,-1,1518,1520,0,0
301,-496,0,0,0,0,0,0,0,0,0,-1,1525,1520,0,0
308,-496,0,0,0,0,0,0,0,0,0,-1,1532,1520,0,0
315,-496,0,0,0,0,0,0,0,0,0,-1,1539,1520,0,0
322,-496,0,0,0,0,0,0,0,0,0,-1,1546,1520,0,0
329,-496,0,0,0,0,0,0,0,0,0,-1,1553,1520,0,0
336,-496,0,0,0,0,0,0,0,0,0,-1,1560,1520,0,0
343,-496,0,0,0,0,0,0,0,0,0,-1,1567,1520,0,0
350,-496,0,0,0,0,0,0,0,0,0,-1,1574,1520,0,0
357,-496,0,0,0,0,0,0,0,0,0,-1,1581,1520,0,0
364,-496,0,0,0,0,0,0,0,0,0,-1,1588,1520,0,0
371,-496,0,0,0,0,0,0,0,0,0,-1,1595,1520,0,0
378,-496,0,0,0,0,0,0,0,0,0,-1,1602,1520,0,0
385,-496,0,0,0,0,0,0,0,0,0,-1,1609,1520,0,0
392,-496,0,0,0,0,0,0,0,0,0,-1,1616,1520,0,0
399,-496,0,0,0,0,0,0,0,0,0,-1,1623,1520,0,0
406,-496,0,0,0,0,0,0,0,0,0,-1,1630,1520,0,0
413,-496,0,0,0,0,0,0,0,0,0,-1,1637,1520,0,0
420,-496,0,0,0,0,0,0,0,0,0,-1,1644,1520,0,0
427,-496,0,0,0,0,0,0,0,0,0,-1,1651,1520,0,0
434,-496,11.0457,3.37732,0,0,0,0,0,0,0,-1,1658,1520,11.0456,-3.37736
441,-496,11.788,2.75488,0,0,0,0,0,0,0,-1,1665,1520,11.7879,-2.75485
448,-496,12.2146,2.18494,0,0,0,0,0,0,0,-1,1672,1520,12.2146,-2.18489
455,-496,12.3489,1.65173,0,0,0,0,0,0,0,-1,1679,1520,12.3489,-1.65178
462,-496,12.1912,1.32361,0,0,0,0,0,0,0,-1,1686,1520,12.1911,-1.32357
469,-496,14.8138,5.77954,0,0,0,0,0,0,0,-1,1693,1520,14.8138,-5.77958
476,-496,15.2449,6.27942,0,0,0,0,0,0,0,-1,1700,1520,15.2449,-6.27936
483,-496,9.19812,6.88367,0,0,0,0,0,0,0,-1,1707,1520,9.19812,-6.88361
490,-496,10.2123,7.97144,0,0,0,0,0,0,0,-1,1714,1520,10.2122,-7.97145
497,-496,13.9297,12.2981,0,0,0,0,0,0,0,-1,1721,1520,13.9297,-12.2982
504,-496,15.6504,14.9395,0,0,0,0,0,0,0,-1,1728,1520,15.6504,-14.9394
511,-496,14.6938,14.4333,0,0,0,0,0,0,0,-1,1735,1520,14.6938,-14.4333
518,-496,14.9423,14.5265,0,0,0,0,0,0,0,-1,1742,1520,14.9423,-14.5265
525,-496,13.5134,14.7582,0,0,0,0,0,0,0,-1,1749,1520,13.5134,-14.7582
532,-496,13.6702,14.4941,-0.00880085,-0.00918177,0.00852738,-0.000461802,-0.0175208,0.774233,0.0115297,0.0320661,1756,1520,13.6702,-14.4941
539,-496,13.6121,14.2299,-0.00685384,-0.00641536,0.00600418,-0.000626411,-0.0126428,0.803647,0.00822767,0.0142358,1763,1520,13.612,-14.2299
546,-496,13.5701,13.907,-0.00497407,-0.004209,0.00402515,-0.00054825,-0.00863482,0.832774,0.00558278,0.0103087,1770,1520,13.5701,-13.907
553,-496,13.5918,13.5863,-0.00363725,-0.00272095,0.00260944,-0.000529751,-0.00582845,0.872299,0.00372164,0.01469,1777,1520,13.5918,-13.5863
560,-496,13.6079,13.2877,-0.00247933,-0.00185693,0.00154936,-0.000587827,-0.00374843,0.884507,0.00232788,0.013632,1784,1520,13.6079,-13.2878
567,-496,13.5948,12.9735,-0.00134359,-0.00115557,0.000885442,-0.000359161,-0.00214,0.838286,0.00132329,0.0112195,1791,1520,13.5949,-12.9735
574,-496,13.5836,12.6646,-0.000401418,-0.000482901,0.000280538,-0.000158679,-0.00072564,0.71329,0.000440499,0.0116816,1798,1520,13.5836,-12.6645
581,-496,13.5745,12.3712,0.000426905,0.000162085,-0.000308395,0.000630113,-4.11235e-05,-0.582622,0.000434433,0.0124616,1805,1520,13.5745,-12.3712
588,-496,13.5796,12.0599,0.00122867,0.000551384,-0.000847193,0.0018024,-2.23404e-05,-0.595263,0.00120911,0.0148505,1812,1520,13.5796,-12.0599
595,-496,13.5686,11.7411,0.00173899,0.000869379,-0.00125955,0.00263667,-2.83032e-05,-0.619199,0.00176729,0.016658,1819,1520,13.5686,-11.741
602,-496,13.5726,11.4087,0.00212154,0.000998339,-0.00148715,0.0031496,-2.9714e-05,-0.604858,0.00210971,0.0174918,1826,1520,13.5727,-11.4087
609,-496,13.5671,11.0941,0.00264354,0.000977847,-0.0015487,0.00356913,5.22577e-05,-0.538695,0.00236219,0.0146501,1833,1520,13.5672,-11.0941
616,-496,13.572,10.7267,0.00328605,0.000714578,-0.00149406,0.00397144,2.91865e-05,-0.430101,0.00263795,0.0183411,1840,1520,13.572,-10.7267
623,-496,13.554,10.3936,0.00405435,0.000555921,-0.00121718,0.00443616,0.000174109,-0.303965,0.00290114,0.0334678,1847,1520,13.554,-10.3935
630,-496,13.6593,9.98413,0,0,0,0,0,0,0,-1,1854,1520,13.6593,-9.98411
637,-496,12.0918,9.79541,0,0,0,0,0,0,0,-1,1861,1520,12.0917,-9.79537
644,-496,12.4537,10.087,0,0,0,0,0,0,0,-1,1868,1520,12.4537,-10.0871
651,-496,8.18506,5.47803,0,0,0,0,0,0,0,-1,1875,1520,8.18505,-5.47806
658,-496,7.79993,4.02563,0,0,0,0,0,0,0,-1,1882,1520,7.79997,-4.02568
665,-496,5.47583,7.90625,0,0,0,0,0,0,0,-1,1889,1520,5.47581,-7.90628
672,-496,0,0,0,0,0,0,0,0,0,-1,1896,1520,0,0
679,-496,0,0,0,0,0,0,0,0,0,-1,1903,1520,0,0
686,-496,0,0,0,0,0,0,0,0,0,-1,1910,1520,0,0
693,-496,0,0,0,0,0,0,0,0,0,-1,1917,1520,0,0
700,-496,0,0,0,0,0,0,0,0,0,-1,1924,1520,0,0
707,-496,0,0,0,0,0,0,0,0,0,-1,1931,1520,0,0
714,-496,0,0,0,0,0,0,0,0,0,-1,1938,1520,0,0
721,-496,0,0,0,0,0,0,0,0,0,-1,1945,1520,0,0
728,-496,0,0,0,0,0,0,0,0,0,-1,1952,1520,0,0
735,-496,0,0,0,0,0,0,0,0,0,-1,1959,1520,0,0
742,-496,0,0,0,0,0,0,0,0,0,-1,1966,1520,0,0
749,-496,0,0,0,0,0,0,0,0,0,-1,1973,1520,0,0
756,-496,0,0,0,0,0,0,0,0,0,-1,1980,1520,0,0
763,-496,0,0,0,0,0,0,0,0,0,-1,1987,1520,0,0
770,-496,0,0,0,0,0,0,0,0,0,-1,1994,1520,0,0
777,-496,0,0,0,0,0,0,0,0,0,-1,2001,1520,0,0
784,-496,0,0,0,0,0,0,0,0,0,-1,2008,1520,0,0
791,-496,0,0,0,0,0,0,0,0,0,-1,2015,1520,0,0
798,-496,0,0,0,0,0,0,0,0,0,-1,2022,1520,0,0
805,-496,0,0,0,0,0,0,0,0,0,-1,2029,1520,0,0
812,-496,0,0,0,0,0,0,0,0,0,-1,2036,1520,0,0
-700,-503,0,0,0,0,0,0,0,0,0,-1,524,1527,0,0
-693,-503,0,0,0,0,0,0,0,0,0,-1,531,1527,0,0
-686,-503,0,0,0,0,0,0,0,0,0,-1,538,1527,0,0
-679,-503,0,0,0,0,0,0,0,0,0,-1,545,1527,0,0
-672,-503,0,0,0,0,0,0,0,0,0,-1,552,1527,0,0
-665,-503,0,0,0,0,0,0,0,0,0,-1,559,1527,0,0
-658,-503,0,0,0,0,0,0,0,0,0,-1,566,1527,0,0
-651,-503,0,0,0,0,0,0,0,0,0,-1,573,1527,0,0
-644,-503,0,0,0,0,0,0,0,0,0,-1,580,1527,0,0
-637,-503,0,0,0,0,0,0,0,0,0,-1,587,1527,0,0
-630,-503,0,0,0,0,0,0,0,0,0,-1,594,1527,0,0
-623,-503,0,0,0,0,0,0,0,0,0,-1,601,1527,0,0
-616,-503,0,0,0,0,0,0,0,0,0,-1,608,1527,0,0
-609,-503,0,0,0,0,0,0,0,0,0,-1,615,1527,0,0
-602,-503,0,0,0,0,0,0,0,0,0,-1,622,1527,0,0
-595,-503,0,0,0,0,0,0,0,0,0,-1,629,1527,0,0
-588,-503,0,0,0,0,0,0,0,0,0,-1,636,1527,0,0
-581,-503,0,0,0,0,0,0,0,0,0,-1,643,1527,0,0
-574,-503,0,0,0,0,0,0,0,0,0,-1,650,1527,0,0
-567,-503,0,0,0,0,0,0,0,0,0,-1,657,1527,0,0
-560,-503,0,0,0,0,0,0,0,0,0,-1,664,1527,0,0
-553,-503,0,0,0,0,0,0,0,0,0,-1,671,1527,0,0
-546,-503,0,0,0,0,0,0,0,0,0,-1,678,1527,0,0
-539,-503,3.50177,4.26428,0,0,0,0,0,0,0,-1,685,1527,3.50177,-4.26424
-532,-503,-3.82953,4.00415,0,0,0,0,0,0,0,-1,692,1527,-3.8295,-4.00421
-525,-503,-3.59369,5.18848,0,0,0,0,0,0,0,-1,699,1527,-3.59372,-5.18853
-518,-503,-2.90955,5.35535,0,0,0,0,0,0,0,-1,706,1527,-2.90955,-5.35529
-511,-503,-2.3197,6.2074,0,0,0,0,0,0,0,-1,713,1527,-2.31969,-6.2074
-504,-503,-1.9826,8.06006,0,0,0,0,0,0,0,-1,720,1527,-1.98262,-8.06012
-497,-503,-1.77692,8.60449,0,0,0,0,0,0,0,-1,727,1527,-1.77694,-8.6045
-490,-503,-1.54517,9.17834,0,0,0,0,0,0,0,-1,734,1527,-1.54518,-9.1783
-483,-503,-1.73212,9.30652,0.00168898,0.00819799,0.00480461,0.0107466,-0.000859628,1.08309,0.00746745,0.0407772,741,1527,-1.73212,-9.30653
-476,-503,-1.88489,9.55176,-0.000641555,0.00625423,0.00268478,0.00717624,-0.00156356,1.24,0.0053816,0.0200941,748,1527,-1.88488,-9.55172
-469,-503,-1.97021,9.85144,-0.00236749,0.00404159,0.000665786,0.00411003,-0.00243592,1.46837,0.00382028,0.0103313,755,1527,-1.97023,-9.8515
-462,-503,-1.96088,10.2083,-0.00260402,0.00295239,0.000107907,0.00295448,-0.00260611,1.55139,0.00321251,0.0120084,762,1527,-1.96085,-10.2082
-455,-503,-1.94348,10.5626,-0.00163748,0.00216743,0.000102694,0.0021702,-0.00164025,1.54383,0.00220705,0.0180688,769,1527,-1.94346,-10.5626
-448,-503,-1.95105,10.9197,-0.000440584,0.00147897,0.000180537,0.0014958,-0.000457417,1.47783,0.00117961,0.017638,776,1527,-1.95104,-10.9196
-441,-503,-1.953,11.2345,0.00099853,0.000645545,0.000309926,0.00117869,0.000465381,0.526565,0.000685519,0.0143012,783,1527,-1.95301,-11.2345
-434,-503,-1.99011,11.5392,0.00247676,-7.01116e-05,0.000351297,0.00252433,-0.000117678,0.134585,0.00172345,0.0114314,790,1527,-1.9901,-11.5392
-427,-503,-2.05475,11.8789,0.00400671,-0.000589671,0.00045597,0.00405151,-0.000634468,0.0979301,0.00293544,0.0166525,797,1527,-2.05475,-11.8789
-420,-503,-2.01263,12.2,0.00549175,-0.00100611,0.00054721,0.00553751,-0.00105187,0.0834308,0.00408766,0.0178372,804,1527,-2.01266,-12.2
-413,-503,-1.9931,12.5486,0.00678518,-0.00115924,0.000703701,0.00684703,-0.00122109,0.0876685,0.00502145,0.015888,811,1527,-1.9931,-12.5485
-406,-503,-1.98352,12.8855,0.00759876,-0.0011341,0.000722316,0.0076581,-0.00119344,0.0819701,0.00554618,0.0184779,818,1527,-1.98353,-12.8855
-399,-503,-1.86572,13.3335,0.00846619,-0.00100949,0.000813421,0.00853551,-0.00107881,0.0850142,0.00608192,0.0283952,825,1527,-1.8657,-13.3335
-392,-503,-1.6629,13.9211,0,0,0,0,0,0,0,-1,832,1527,-1.66289,-13.9212
-385,-503,-2.00403,14.1218,0,0,0,0,0,0,0,-1,839,1527,-2.00403,-14.1218
-378,-503,-2.07043,13.8632,0,0,0,0,0,0,0,-1,846,1527,-2.07043,-13.8631
-371,-503,-1.67285,13.8081,0,0,0,0,0,0,0,-1,853,1527,-1.67285,-13.8081
-364,-503,0.181396,12.3768,0,0,0,0,0,0,0,-1,860,1527,0.18138,-12.3768
-357,-503,0.558533,9.25452,0,0,0,0,0,0,0,-1,867,1527,0.558542,-9.25446
-350,-503,0.219971,6.84827,0,0,0,0,0,0,0,-1,874,1527,0.21996,-6.84831
-343,-503,-3.5802,4.43274,0,0,0,0,0,0,0,-1,881,1527,-3.58018,-4.43276
-336,-503,-3.2384,6.40637,0,0,0,0,0,0,0,-1,888,1527,-3.2384,-6.40643
-329,-503,-1.70691,11.886,0,0,0,0,0,0,0,-1,895,1527,-1.70689,-11.886
-322,-503,-3.31317,8.81519,0,0,0,0,0,0,0,-1,902,1527,-3.31315,-8.81524
-315,-503,-3.90265,7.73853,0,0,0,0,0,0,0,-1,909,1527,-3.90264,-7.73854
-308,-503,-2.34601,7.84143,0,0,0,0,0,0,0,-1,916,1527,-2.346,-7.8414
-301,-503,0,0,0,0,0,0,0,0,0,-1,923,1527,0,0
-294,-503,0,0,0,0,0,0,0,0,0,-1,930,1527,0,0
-287,-503,0,0,0,0,0,0,0,0,0,-1,937,1527,0,0
-280,-503,0,0,0,0,0,0,0,0,0,-1,944,1527,0,0
-273,-503,0,0,0,0,0,0,0,0,0,-1,951,1527,0,0
-266,-503,0,0,0,0,0,0,0,0,0,-1,958,1527,0,0
-259,-503,0,0,0,0,0,0,0,0,0,-1,965,1527,0,0
-252,-503,0,0,0,0,0,0,0,0,0,-1,972,1527,0,0
-245,-503,0,0,0,0,0,0,0,0,0,-1,979,1527,0,0
-238,-503,0,0,0,0,0,0,0,0,0,-1,986,1527,0,0
-231,-503,0,0,0,0,0,0,0,0,0,-1,993,1527,0,0
-224,-503,0,0,0,0,0,0,0,0,0,-1,1000,1527,0,0
-217,-503,0,0,0,0,0,0,0,0,0,-1,1007,1527,0,0
-210,-503,0,0,0,0,0,0,0,0,0,-1,1014,1527,0,0
-203,-503,0,0,0,0,0,0,0,0,0,-1,1021,1527,0,0
-196,-503,0,0,0,0,0,0,0,0,0,-1,1028,1527,0,0
-189,-503,0,0,0,0,0,0,0,0,0,-1,1035,1527,0,0
-182,-503,0,0,0,0,0,0,0,0,0,-1,1042,1527,0,0
-175,-503,0,0,0,0,0,0,0,0,0,-1,1049,1527,0,0
-168,-503,0,0,0,0,0,0,0,0,0,-1,1056,1527,0,0
-161,-503,0,0,0,0,0,0,0,0,0,-1,1063,1527,0,0
-154,-503,0,0,0,0,0,0,0,0,0,-1,1070,1527,0,0
-147,-503,0,0,0,0,0,0,0,0,0,-1,1077,1527,0,0
-140,-503,0,0,0,0,0,0,0,0,0,-1,1084,1527,0,0
-133,-503,0,0,0,0,0,0,0,0,0,-1,1091,1527,0,0
-126,-503,0,0,0,0,0,0,0,0,0,-1,1098,1527,0,0
-119,-503,0,0,0,0,0,0,0,0,0,-1,1105,1527,0,0
-112,-503,0,0,0,0,0,0,0,0,0,-1,1112,1527,0,0
-105,-503,0,0,0,0,0,0,0,0,0,-1,1119,1527,0,0
-98,-503,0,0,0,0,0,0,0,0,0,-1,1126,1527,0,0
-91,-503,0,0,0,0,0,0,0,0,0,-1,1133,1527,0,0
-84,-503,0,0,0,0,0,0,0,0,0,-1,1140,1527,0,0
-77,-503,0,0,0,0,0,0,0,0,0,-1,1147,1527,0,0
-70,-503,0,0,0,0,0,0,0,0,0,-1,1154,1527,0,0
-63,-503,0,0,0,0,0,0,0,0,0,-1,1161,1527,0,0
-56,-503,0,0,0,0,0,0,0,0,0,-1,1168,1527,0,0
-49,-503,0,0,0,0,0,0,0,0,0,-1,1175,1527,0,0
-42,-503,0,0,0,0,0,0,0,0,0,-1,1182,1527,0,0
-35,-503,0,0,0,0,0,0,0,0,0,-1,1189,1527,0,0
-28,-503,0,0,0,0,0,0,0,0,0,-1,1196,1527,0,0
-21,-503,0,0,0,0,0,0,0,0,0,-1,1203,1527,0,0
-14,-503,0,0,0,0,0,0,0,0,0,-1,1210,1527,0,0
-7,-503,0,0,0,0,0,0,0,0,0,-1,1217,1527,0,0
0,-503,0,0,0,0,0,0,0,0,0,-1,1224,1527,0,0
7,-503,0,0,0,0,0,0,0,0,0,-1,1231,1527,0,0
14,-503,0,0,0,0,0,0,0,0,0,-1,1238,1527,0,0
21,-503,0,0,0,0,0,0,0,0,0,-1,1245,1527,0,0
28,-503,0,0,0,0,0,0,0,0,0,-1,1252,1527,0,0
35,-503,0,0,0,0,0,0,0,0,0,-1,1259,1527,0,0
42,-503,0,0,0,0,0,0,0,0,0,-1,1266,1527,0,0
49,-503,0,0,0,0,0,0,0,0,0,-1,1273,1527,0,0
56,-503,0,0,0,0,0,0,0,0,0,-1,1280,1527,0,0
63,-503,0,0,0,0,0,0,0,0,0,-1,1287,1527,0,0
70,-503,0,0,0,0,0,0,0,0,0,-1,1294,1527,0,0
77,-503,0,0,0,0,0,0,0,0,0,-1,1301,1527,0,0
84,-503,0,0,0,0,0,0,0,0,0,-1,1308,1527,0,0
91,-503,0,0,0,0,0,0,0,0,0,-1,1315,1527,0,0
98,-503,0,0,0,0,0,0,0,0,0,-1,1322,1527,0,0
105,-503,0,0,0,0,0,0,0,0,0,-1,1329,1527,0,0
112,-503,0,0,0,0,0,0,0,0,0,-1,1336,1527,0,0
119,-503,0,0,0,0,0,0,0,0,0,-1,1343,1527,0,0
126,-503,0,0,0,0,0,0,0,0,0,-1,1350,1527,0,0
133,-503,0,0,0,0,0,0,0,0,0,-1,1357,1527,0,0
140,-503,0,0,0,0,0,0,0,0,0,-1,1364,1527,0,0
147,-503,0,0,0,0,0,0,0,0,0,-1,1371,1527,0,0
154,-503,0,0,0,0,0,0,0,0,0,-1,1378,1527,0,0
161,-503,0,0,0,0,0,0,0,0,0,-1,1385,1527,0,0
168,-503,0,0,0,0,0,0,0,0,0,-1,1392,1527,0,0
175,-503,0,0,0,0,0,0,0,0,0,-1,1399,1527,0,0
182,-503,0,0,0,0,0,0,0,0,0,-1,1406,1527,0,0
189,-503,0,0,0,0,0,0,0,0,0,-1,1413,1527,0,0
196,-503,0,0,0,0,0,0,0,0,0,-1,1420,1527,0,0
203,-503,0,0,0,0,0,0,0,0,0,-1,1427,1527,0,0
210,-503,0,0,0,0,0,0,0,0,0,-1,1434,1527,0,0
217,-503,0,0,0,0,0,0,0,0,0,-1,1441,1527,0,0
224,-503,0,0,0,0,0,0,0,0,0,-1,1448,1527,0,0
231,-503,0,0,0,0,0,0,0,0,0,-1,1455,1527,0,0
238,-503,0,0,0,0,0,0,0,0,0,-1,1462,1527,0,0
245,-503,0,0,0,0,0,0,0,0,0,-1,1469,1527,0,0
252,-503,0,0,0,0,0,0,0,0,0,-1,1476,1527,0,0
259,-503,0,0,0,0,0,0,0,0,0,-1,1483,1527,0,0
266,-503,0,0,0,0,0,0,0,0,0,-1,1490,1527,0,0
273,-503,0,0,0,0,0,0,0,0,0,-1,1497,1527,0,0
280,-503,0,0,0,0,0,0,0,0,0,-1,1504,1527,0,0
287,-503,0,0,0,0,0,0,0,0,0,-1,1511,1527,0,0
294,-503,0,0,0,0,0,0,0,0,0,-1,1518,1527,0,0
301,-503,0,0,0,0,0,0,0,0,0,-1,1525,1527,0,0
308,-503,0,0,0,0,0,0,0,0,0,-1,1532,1527,0,0
315,-503,0,0,0,0,0,0,0,0,0,-1,1539,1527,0,0
322,-503,0,0,0,0,0,0,0,0,0,-1,1546,1527,0,0
329,-503,0,0,0,0,0,0,0,0,0,-1,1553,1527,0,0
336,-503,0,0,0,0,0,0,0,0,0,-1,1560,1527,0,0
343,-503,0,0,0,0,0,0,0,0,0,-1,1567,1527,0,0
350,-503,0,0,0,0,0,0,0,0,0,-1,1574,1527,0,0
357,-503,0,0,0,0,0,0,0,0,0,-1,1581,1527,0,0
364,-503,0,0,0,0,0,0,0,0,0,-1,1588,1527,0,0
371,-503,0,0,0,0,0,0,0,0,0,-1,1595,1527,0,0
378,-503,0,0,0,0,0,0,0,0,0,-1,1602,1527,0,0
385,-503,0,0,0,0,0,0,0,0,0,-1,1609,1527,0,0
392,-503,0,0,0,0,0,0,0,0,0,-1,1616,1527,0,0
399,-503,0,0,0,0,0,0,0,0,0,-1,1623,1527,0,0
406,-503,0,0,0,0,0,0,0,0,0,-1,1630,1527,0,0
413,-503,0,0,0,0,0,0,0,0,0,-1,1637,1527,0,0
420,-503,0,0,0,0,0,0,0,0,0,-1,1644,1527,0,0
427,-503,10.5968,4.9856,0,0,0,0,0,0,0,-1,1651,1527,10.5969,-4.98563
434,-503,11.4329,3.97217,0,0,0,0,0,0,0,-1,1658,1527,11.4328,-3.97222
441,-503,12.0957,2.96509,0,0,0,0,0,0,0,-1,1665,1527,12.0957,-2.96512
448,-503,12.3259,2.53894,0,0,0,0,0,0,0,-1,1672,1527,12.326,-2.53895
455,-503,12.1669,2.18762,0,0,0,0,0,0,0,-1,1679,1527,12.1668,-2.18767
462,-503,11.59,2.60791,0,0,0,0,0,0,0,-1,1686,1527,11.5899,-2.60794
469,-503,11.1625,1.61853,0,0,0,0,0,0,0,-1,1693,1527,11.1625,-1.61856
476,-503,9.07703,5.81042,0,0,0,0,0,0,0,-1,1700,1527,9.07699,-5.81047
483,-503,9.74414,6.92432,0,0,0,0,0,0,0,-1,1707,1527,9.74417,-6.9243
490,-503,10.5033,10.1071,0,0,0,0,0,0,0,-1,1714,1527,10.5032,-10.107
497,-503,14.3892,15.7316,0,0,0,0,0,0,0,-1,1721,1527,14.3891,-15.7316
504,-503,14.7081,15.0194,0,0,0,0,0,0,0,-1,1728,1527,14.7081,-15.0194
511,-503,15.0271,14.3073,0,0,0,0,0,0,0,-1,1735,1527,15.0271,-14.3072
518,-503,13.557,14.964,0,0,0,0,0,0,0,-1,1742,1527,13.557,-14.964
525,-503,13.3416,14.6984,-0.0080809,-0.0109353,0.0104911,0.00107959,-0.0200958,0.717792,0.0137712,0.0460605,1749,1527,13.3416,-14.6984
532,-503,13.2449,14.5415,-0.00640513,-0.00756868,0.00731811,0.000354295,-0.0143281,0.745732,0.00967233,0.016232,1756,1527,13.2449,-14.5415
539,-503,13.2701,14.2094,-0.00492046,-0.00513224,0.00504337,1.81319e-05,-0.0100708,0.774902,0.00671994,0.011869,1763,1527,13.2702,-14.2093
546,-503,13.2643,13.8895,-0.00339668,-0.00313166,0.00319623,-6.51928e-05,-0.00646314,0.806116,0.00428719,0.0112112,1770,1527,13.2643,-13.8895
553,-503,13.2881,13.6017,-0.00235821,-0.00179921,0.00184494,-0.000212719,-0.00394471,0.860574,0.00256185,0.0136531,1777,1527,13.2881,-13.6017
560,-503,13.2802,13.2976,-0.00145417,-0.00108996,0.000872428,-0.000380836,-0.0021633,0.888287,0.0013335,0.0131208,1784,1527,13.2801,-13.2976
567,-503,13.2794,12.9686,-0.000491713,-0.000491548,0.000250647,-0.000240984,-0.000742277,0.785562,0.00043725,0.0121324,1791,1527,13.2794,-12.9686
574,-503,13.2781,12.6644,0.000340056,0.00012338,-0.000339035,0.000587642,-0.000124206,-0.630752,0.000439059,0.0126264,1798,1527,13.2781,-12.6645
581,-503,13.249,12.3811,0.00110536,0.000734827,-0.000933597,0.0018719,-3.17067e-05,-0.687448,0.00125863,0.0137295,1805,1527,13.249,-12.381
588,-503,13.2385,12.0781,0.0017908,0.00112188,-0.00149087,0.00298426,-7.15851e-05,-0.675056,0.00201379,0.0165972,1812,1527,13.2385,-12.0781
595,-503,13.2426,11.7493,0.00225313,0.0014605,-0.00195226,0.00384889,-0.000135264,-0.685258,0.00261218,0.0125788,1819,1527,13.2426,-11.7492
602,-503,13.2965,11.4142,0.00267376,0.00164706,-0.00227972,0.00449721,-0.000176392,-0.674654,0.00305863,0.0155377,1826,1527,13.2965,-11.4142
609,-503,13.3242,11.0497,0.00328859,0.00166961,-0.00243237,0.00504263,-8.44342e-05,-0.624763,0.00339025,0.0259506,1833,1527,13.3243,-11.0497
616,-503,13.038,10.8582,0,0,0,0,0,0,0,-1,1840,1527,13.038,-10.8582
623,-503,13.3141,10.2307,0,0,0,0,0,0,0,-1,1847,1527,13.3141,-10.2308
630,-503,13.5902,9.60339,0,0,0,0,0,0,0,-1,1854,1527,13.5902,-9.60335
637,-503,14.5564,9.20496,0,0,0,0,0,0,0,-1,1861,1527,14.5564,-9.2049
644,-503,11.4802,7.57214,0,0,0,0,0,0,0,-1,1868,1527,11.4802,-7.57215
651,-503,11.5718,6.5448,0,0,0,0,0,0,0,-1,1875,1527,11.5718,-6.54476
658,-503,8.25635,3.10498,0,0,0,0,0,0,0,-1,1882,1527,8.2563,-3.10493
665,-503,0,0,0,0,0,0,0,0,0,-1,1889,1527,0,0
672,-503,0,0,0,0,0,0,0,0,0,-1,1896,1527,0,0
679,-503,0,0,0,0,0,0,0,0,0,-1,1903,1527,0,0
686,-503,0,0,0,0,0,0,0,0,0,-1,1910,1527,0,0
693,-503,0,0,0,0,0,0,0,0,0,-1,1917,1527,0,0
700,-503,0,0,0,0,0,0,0,0,0,-1,1924,1527,0,0
707,-503,0,0,0,0,0,0,0,0,0,-1,1931,1527,0,0
714,-503,0,0,0,0,0,0,0,0,0,-1,1938,1527,0,0
721,-503,0,0,0,0,0,0,0,0,0,-1,1945,1527,0,0
728,-503,0,0,0,0,0,0,0,0,0,-1,1952,1527,0,0
735,-503,0,0,0,0,0,0,0,0,0,-1,1959,1527,0,0
742,-503,0,0,0,0,0,0,0,0,0,-1,1966,1527,0,0
749,-503,0,0,0,0,0,0,0,0,0,-1,1973,1527,0,0
756,-503,0,0,0,0,0,0,0,0,0,-1,1980,1527,0,0
763,-503,0,0,0,0,0,0,0,0,0,-1,1987,1527,0,0
770,-503,0,0,0,0,0,0,0,0,0,-1,1994,1527,0,0
777,-503,0,0,0,0,0,0,0,0,0,-1,2001,1527,0,0
784,-503,0,0,0,0,0,0,0,0,0,-1,2008,1527,0,0
791,-503,0,0,0,0,0,0,0,0,0,-1,2015,1527,0,0
798,-503,0,0,0,0,0,0,0,0,0,-1,2022,1527,0,0
805,-503,0,0,0,0,0,0,0,0,0,-1,2029,1527,0,0
812,-503,0,0,0,0,0,0,0,0,0,-1,2036,1527,0,0
-700,-510,0,0,0,0,0,0,0,0,0,-1,524,1534,0,0
-693,-510,0,0,0,0,0,0,0,0,0,-1,531,1534,0,0
-686,-510,0,0,0,0,0,0,0,0,0,-1,538,1534,0,0
-679,-510,0,0,0,0,0,0,0,0,0,-1,545,1534,0,0
-672,-510,0,0,0,0,0,0,0,0,0,-1,552,1534,0,0
-665,-510,0,0,0,0,0,0,0,0,0,-1,559,1534,0,0
-658,-510,0,0,0,0,0,0,0,0,0,-1,566,1534,0,0
-651,-510,0,0,0,0,0,0,0,0,0,-1,573,1534,0,0
-644,-510,0,0,0,0,0,0,0,0,0,-1,580,1534,0,0
-637,-510,0,0,0,0,0,0,0,0,0,-1,587,1534,0,0
-630,-510,0,0,0,0,0,0,0,0,0,-1,594,1534,0,0
-623,-510,0,0,0,0,0,0,0,0,0,-1,601,1534,0,0
-616,-510,0,0,0,0,0,0,0,0,0,-1,608,1534,0,0
-609,-510,0,0,0,0,0,0,0,0,0,-1,615,1534,0,0
-602,-510,0,0,0,0,0,0,0,0,0,-1,622,1534,0,0
-595,-510,0,0,0,0,0,0,0,0,0,-1,629,1534,0,0
-588,-510,0,0,0,0,0,0,0,0,0,-1,636,1534,0,0
-581,-510,0,0,0,0,0,0,0,0,0,-1,643,1534,0,0
-574,-510,0,0,0,0,0,0,0,0,0,-1,650,1534,0,0
-567,-510,0,0,0,0,0,0,0,0,0,-1,657,1534,0,0
-560,-510,0,0,0,0,0,0,0,0,0,-1,664,1534,0,0
-553,-510,0,0,0,0,0,0,0,0,0,-1,671,1534,0,0
-546,-510,0,0,0,0,0,0,0,0,0,-1,678,1534,0,0
-539,-510,0,0,0,0,0,0,0,0,0,-1,685,1534,0,0
-532,-510,-4.01874,4.18665,0,0,0,0,0,0,0,-1,692,1534,-4.01874,-4.18659
-525,-510,-3.59058,4.5896,0,0,0,0,0,0,0,-1,699,1534,-3.59056,-4.58955
-518,-510,-2.80609,4.6427,0,0,0,0,0,0,0,-1,706,1534,-2.80608,-4.64264
-511,-510,-2.29102,5.66711,0,0,0,0,0,0,0,-1,713,1534,-2.29099,-5.66706
-504,-510,-1.89673,7.70667,0,0,0,0,0,0,0,-1,720,1534,-1.89674,-7.7067
-497,-510,-1.16693,9.02844,0,0,0,0,0,0,0,-1,727,1534,-1.16691,-9.02849
-490,-510,-1.23187,9.27722,0,0,0,0,0,0,0,-1,734,1534,-1.23189,-9.27728
-483,-510,-1.27393,9.46436,0.00108286,0.01342,0.00635046,0.0161047,-0.00160179,1.17083,0.0113083,0.0419603,741,1534,-1.27393,-9.46435
-476,-510,-1.43616,9.54089,-0.00119594,0.0105553,0.0041216,0.0118568,-0.0024974,1.26494,0.00885516,0.0319021,748,1534,-1.43616,-9.54083
-469,-510,-1.61572,9.86548,-0.00283516,0.00781316,0.00224045,0.00826536,-0.00328736,1.37164,0.00687327,0.0125675,755,1534,-1.61572,-9.86552
-462,-510,-1.62036,10.1932,-0.00304809,0.00621857,0.00167204,0.00651104,-0.00334056,1.39763,0.00578517,0.0113628,762,1534,-1.62038,-10.1933
-455,-510,-1.62378,10.5576,-0.00210641,0.00498706,0.00158083,0.00532341,-0.00244277,1.36115,0.00458547,0.0137709,769,1534,-1.6238,-10.5576
-448,-510,-1.60498,10.9159,-0.00101627,0.00390649,0.00153315,0.00434492,-0.00145471,1.29226,0.00348426,0.0129611,776,1534,-1.605,-10.9159
-441,-510,-1.62634,11.2394,0.000247415,0.00277851,0.00151545,0.00348735,-0.000461424,1.13329,0.00249298,0.0135884,783,1534,-1.62636,-11.2394
-434,-510,-1.67657,11.5603,0.00151374,0.00185956,0.00141765,0.00311481,0.000258495,0.846082,0.00199596,0.0142439,790,1534,-1.67656,-11.5603
-427,-510,-1.69458,11.853,0.00280233,0.00125255,0.0014117,0.00363783,0.000417055,0.534396,0.00229885,0.021749,797,1534,-1.69457,-11.853
-420,-510,-1.6864,12.194,0.00395046,0.000614979,0.00128371,0.0043873,0.000178135,0.328005,0.00286733,0.0216359,804,1534,-1.68642,-12.194
-413,-510,-1.66608,12.5557,0.00490659,0.000466154,0.00126769,0.00524301,0.000129734,0.259402,0.00345291,0.0117439,811,1534,-1.66607,-12.5557
-406,-510,-1.68774,12.8821,0.0053862,0.00041523,0.00108635,0.00561324,0.000188189,0.206028,0.00368103,0.0107734,818,1534,-1.68774,-12.882
-399,-510,-1.69354,13.1929,0.00592393,0.000620025,0.00101058,0.00610996,0.000433997,0.182042,0.00393662,0.0124504,825,1534,-1.69352,-13.1929
-392,-510,-1.55261,13.6669,0.00658156,0.00127318,0.000769154,0.00669075,0.00116398,0.141031,0.00412758,0.0297917,832,1534,-1.55259,-13.6669
-385,-510,-1.62164,13.988,0.008022,0.00186568,0.00100038,0.00818048,0.0017072,0.157113,0.00498304,0.0493351,839,1534,-1.62162,-13.9881
-378,-510,-1.78308,13.8044,0,0,0,0,0,0,0,-1,846,1534,-1.78309,-13.8044
-371,-510,-1.74982,13.8027,0,0,0,0,0,0,0,-1,853,1534,-1.74981,-13.8028
-364,-510,-1.3479,13.7771,0,0,0,0,0,0,0,-1,860,1534,-1.34791,-13.7771
-357,-510,-0.254395,8.89575,0,0,0,0,0,0,0,-1,867,1534,-0.254397,-8.89569
-350,-510,0.471191,6.06458,0,0,0,0,0,0,0,-1,874,1534,0.47118,-6.06453
-343,-510,-2.94617,5.00989,0,0,0,0,0,0,0,-1,881,1534,-2.94615,-5.00992
-336,-510,-1.92963,11.3776,0,0,0,0,0,0,0,-1,888,1534,-1.92962,-11.3775
-329,-510,-2.26794,17.0409,0,0,0,0,0,0,0,-1,895,1534,-2.26797,-17.0409
-322,-510,-0.251526,11.973,0,0,0,0,0,0,0,-1,902,1534,-0.251497,-11.9731
-315,-510,-1.73047,10.9796,0,0,0,0,0,0,0,-1,909,1534,-1.73049,-10.9796
-308,-510,-2.05328,9.72034,0,0,0,0,0,0,0,-1,916,1534,-2.05327,-9.72036
-301,-510,-1.85437,11.5869,0,0,0,0,0,0,0,-1,923,1534,-1.85437,-11.5869
-294,-510,0,0,0,0,0,0,0,0,0,-1,930,1534,0,0
-287,-510,0,0,0,0,0,0,0,0,0,-1,937,1534,0,0
-280,-510,0,0,0,0,0,0,0,0,0,-1,944,1534,0,0
-273,-510,0,0,0,0,0,0,0,0,0,-1,951,1534,0,0
-266,-510,0,0,0,0,0,0,0,0,0,-1,958,1534,0,0
-259,-510,0,0,0,0,0,0,0,0,0,-1,965,1534,0,0
-252,-510,0,0,0,0,0,0,0,0,0,-1,972,1534,0,0
-245,-510,0,0,0,0,0,0,0,0,0,-1,979,1534,0,0
-238,-510,0,0,0,0,0,0,0,0,0,-1,986,1534,0,0
-231,-510,0,0,0,0,0,0,0,0,0,-1,993,1534,0,0
-224,-510,0,0,0,0,0,0,0,0,0,-1,1000,1534,0,0
-217,-510,0,0,0,0,0,0,0,0,0,-1,1007,1534,0,0
-210,-510,0,0,0,0,0,0,0,0,0,-1,1014,1534,0,0
-203,-510,0,0,0,0,0,0,0,0,0,-1,1021,1534,0,0
-196,-510,0,0,0,0,0,0,0,0,0,-1,1028,1534,0,0
-189,-510,0,0,0,0,0,0,0,0,0,-1,1035,1534,0,0
-182,-510,0,0,0,0,0,0,0,0,0,-1,1042,1534,0,0
-175,-510,0,0,0,0,0,0,0,0,0,-1,1049,1534,0,0
-168,-510,0,0,0,0,0,0,0,0,0,-1,1056,1534,0,0
-161,-510,0,0,0,0,0,0,0,0,0,-1,1063,1534,0,0
-154,-510,0,0,0,0,0,0,0,0,0,-1,1070,1534,0,0
-147,-510,0,0,0,0,0,0,0,0,0,-1,1077,1534,0,0
-140,-510,0,0,0,0,0,0,0,0,0,-1,1084,1534,0,0
-133,-510,0,0,0,0,0,0,0,0,0,-1,1091,1534,0,0
-126,-510,0,0,0,0,0,0,0,0,0,-1,1098,1534,0,0
-119,-510,0,0,0,0,0,0,0,0,0,-1,1105,1534,0,0
-112,-510,0,0,0,0,0,0,0,0,0,-1,1112,1534,0,0
-105,-510,0,0,0,0,0,0,0,0,0,-1,1119,1534,0,0
-98,-510,0,0,0,0,0,0,0,0,0,-1,1126,1534,0,0
-91,-510,0,0,0,0,0,0,0,0,0,-1,1133,1534,0,0
-84,-510,0,0,0,0,0,0,0,0,0,-1,1140,1534,0,0
-77,-510,0,0,0,0,0,0,0,0,0,-1,1147,1534,0,0
-70,-510,0,0,0,0,0,0,0,0,0,-1,1154,1534,0,0
-63,-510,0,0,0,0,0,0,0,0,0,-1,1161,1534,0,0
-56,-510,0,0,0,0,0,0,0,0,0,-1,1168,1534,0,0
-49,-510,0,0,0,0,0,0,0,0,0,-1,1175,1534,0,0
-42,-510,0,0,0,0,0,0,0,0,0,-1,1182,1534,0,0
-35,-510,0,0,0,0,0,0,0,0,0,-1,1189,1534,0,0
-28,-510,0,0,0,0,0,0,0,0,0,-1,1196,1534,0,0
-21,-510,0,0,0,0,0,0,0,0,0,-1,1203,1534,0,0
-14,-510,0,0,0,0,0,0,0,0,0,-1,1210,1534,0,0
-7,-510,0,0,0,0,0,0,0,0,0,-1,1217,1534,0,0
0,-510,0,0,0,0,0,0,0,0,0,-1,1224,1534,0,0
7,-510,0,0,0,0,0,0,0,0,0,-1,1231,1534,0,0
14,-510,0,0,0,0,0,0,0,0,0,-1,1238,1534,0,0
21,-510,0,0,0,0,0,0,0,0,0,-1,1245,1534,0,0
28,-510,0,0,0,0,0,0,0,0,0,-1,1252,1534,0,0
35,-510,0,0,0,0,0,0,0,0,0,-1,1259,1534,0,0
42,-510,0,0,0,0,0,0,0,0,0,-1,1266,1534,0,0
49,-510,0,0,0,0,0,0,0,0,0,-1,1273,1534,0,0
56,-510,0,0,0,0,0,0,0,0,0,-1,1280,1534,0,0
63,-510,0,0,0,0,0,0,0,0,0,-1,1287,1534,0,0
70,-510,0,0,0,0,0,0,0,0,0,-1,1294,1534,0,0
77,-510,0,0,0,0,0,0,0,0,0,-1,1301,1534,0,0
84,-510,0,0,0,0,0,0,0,0,0,-1,1308,1534,0,0
91,-510,0,0,0,0,0,0,0,0,0,-1,1315,1534,0,0
98,-510,0,0,0,0,0,0,0,0,0,-1,1322,1534,0,0
105,-510,0,0,0,0,0,0,0,0,0,-1,1329,1534,0,0
112,-510,0,0,0,0,0,0,0,0,0,-1,1336,1534,0,0
119,-510,0,0,0,0,0,0,0,0,0,-1,1343,1534,0,0
126,-510,0,0,0,0,0,0,0,0,0,-1,1350,1534,0,0
133,-510,0,0,0,0,0,0,0,0,0,-1,1357,1534,0,0
140,-510,0,0,0,0,0,0,0,0,0,-1,1364,1534,0,0
147,-510,0,0,0,0,0,0,0,0,0,-1,1371,1534,0,0
154,-510,0,0,0,0,0,0,0,0,0,-1,1378,1534,0,0
161,-510,0,0,0,0,0,0,0,0,0,-1,1385,1534,0,0
168,-510,0,0,0,0,0,0,0,0,0,-1,1392,1534,0,0
175,-510,0,0,0,0,0,0,0,0,0,-1,1399,1534,0,0
182,-510,0,0,0,0,0,0,0,0,0,-1,1406,1534,0,0
189,-510,0,0,0,0,0,0,0,0,0,-1,1413,1534,0,0
196,-510,0,0,0,0,0,0,0,0,0,-1,1420,1534,0,0
203,-510,0,0,0,0,0,0,0,0,0,-1,1427,1534,0,0
210,-510,0,0,0,0,0,0,0,0,0,-1,1434,1534,0,0
217,-510,0,0,0,0,0,0,0,0,0,-1,1441,1534,0,0
224,-510,0,0,0,0,0,0,0,0,0,-1,1448,1534,0,0
231,-510,0,0,0,0,0,0,0,0,0,-1,1455,1534,0,0
238,-510,0,0,0,0,0,0,0,0,0,-1,1462,1534,0,0
245,-510,0,0,0,0,0,0,0,0,0,-1,1469,1534,0,0
252,-510,0,0,0,0,0,0,0,0,0,-1,1476,1534,0,0
259,-510,0,0,0,0,0,0,0,0,0,-1,1483,1534,0,0
266,-510,0,0,0,0,0,0,0,0,0,-1,1490,1534,0,0
273,-510,0,0,0,0,0,0,0,0,0,-1,1497,1534,0,0
280,-510,0,0,0,0,0,0,0,0,0,-1,1504,1534,0,0
287,-510,0,0,0,0,0,0,0,0,0,-1,1511,1534,0,0
294,-510,0,0,0,0,0,0,0,0,0,-1,1518,1534,0,0
301,-510,0,0,0,0,0,0,0,0,0,-1,1525,1534,0,0
308,-510,0,0,0,0,0,0,0,0,0,-1,1532,1534,0,0
315,-510,0,0,0,0,0,0,0,0,0,-1,1539,1534,0,0
322,-510,0,0,0,0,0,0,0,0,0,-1,1546,1534,0,0
329,-510,0,0,0,0,0,0,0,0,0,-1,1553,1534,0,0
336,-510,0,0,0,0,0,0,0,0,0,-1,1560,1534,0,0
343,-510,0,0,0,0,0,0,0,0,0,-1,1567,1534,0,0
350,-510,0,0,0,0,0,0,0,0,0,-1,1574,1534,0,0
357,-510,0,0,0,0,0,0,0,0,0,-1,1581,1534,0,0
364,-510,0,0,0,0,0,0,0,0,0,-1,1588,1534,0,0
371,-510,0,0,0,0,0,0,0,0,0,-1,1595,1534,0,0
378,-510,0,0,0,0,0,0,0,0,0,-1,1602,1534,0,0
385,-510,0,0,0,0,0,0,0,0,0,-1,1609,1534,0,0
392,-510,0,0,0,0,0,0,0,0,0,-1,1616,1534,0,0
399,-510,0,0,0,0,0,0,0,0,0,-1,1623,1534,0,0
406,-510,0,0,0,0,0,0,0,0,0,-1,1630,1534,0,0
413,-510,0,0,0,0,0,0,0,0,0,-1,1637,1534,0,0
420,-510,13.1918,5.99402,0,0,0,0,0,0,0,-1,1644,1534,13.1917,-5.994
427,-510,10.9799,5.12341,0,0,0,0,0,0,0,-1,1651,1534,10.9798,-5.12337
434,-510,11.8219,4.07898,0,0,0,0,0,0,0,-1,1658,1534,11.8219,-4.07895
441,-510,12.6812,3.02991,0,0,0,0,0,0,0,-1,1665,1534,12.6811,-3.0299
448,-510,13.2379,2.2804,0,0,0,0,0,0,0,-1,1672,1534,13.2379,-2.28037
455,-510,9.76892,2.20642,0,0,0,0,0,0,0,-1,1679,1534,9.76894,-2.20647
462,-510,9.84692,2.49182,0,0,0,0,0,0,0,-1,1686,1534,9.84695,-2.49185
469,-510,16.6072,7.26941,0,0,0,0,0,0,0,-1,1693,1534,16.6072,-7.26945
476,-510,15.9199,7.8645,0,0,0,0,0,0,0,-1,1700,1534,15.9199,-7.86455
483,-510,13.0833,8.10938,0,0,0,0,0,0,0,-1,1707,1534,13.0833,-8.10932
490,-510,14.2103,14.8948,0,0,0,0,0,0,0,-1,1714,1534,14.2103,-14.8948
497,-510,13.6102,15.7084,0,0,0,0,0,0,0,-1,1721,1534,13.6102,-15.7083
504,-510,13.6956,15.222,0,0,0,0,0,0,0,-1,1728,1534,13.6955,-15.222
511,-510,13.7808,14.7357,0,0,0,0,0,0,0,-1,1735,1534,13.7808,-14.7357
518,-510,12.7585,15.4575,0,0,0,0,0,0,0,-1,1742,1534,12.7586,-15.4575
525,-510,12.9408,14.9088,-0.00574079,-0.00898085,0.00884453,0.00163085,-0.0163525,0.694819,0.0114839,0.0270471,1749,1534,12.9408,-14.9088
532,-510,12.9678,14.5341,-0.0044579,-0.00614229,0.00612031,0.000877886,-0.0114781,0.717024,0.00796083,0.0141923,1756,1534,12.9678,-14.5341
539,-510,12.9902,14.1803,-0.00328585,-0.00402687,0.0041006,0.000460945,-0.00777366,0.740343,0.00534272,0.012473,1763,1534,12.9902,-14.1803
546,-510,12.9563,13.9188,-0.00201588,-0.00223531,0.00240468,0.000281581,-0.00453277,0.762601,0.00311995,0.0117753,1770,1534,12.9563,-13.9188
553,-510,12.9442,13.619,-0.00117696,-0.00104553,0.00112404,1.47097e-05,-0.00223721,0.814597,0.0014964,0.0129689,1777,1534,12.9442,-13.619
560,-510,12.9449,13.2837,-0.000449837,-0.000446007,0.00023547,-0.000212445,-0.0006834,0.789464,0.000403861,0.0133097,1784,1534,12.9449,-13.2837
567,-510,12.9536,12.97,0.000381504,0.000101148,-0.000372079,0.000638935,-0.000156283,-0.605249,0.000486492,0.0127227,1791,1534,12.9536,-12.97
574,-510,12.9758,12.6934,0.00113257,0.000713433,-0.000985433,0.00193047,-8.44683e-05,-0.680625,0.00131604,0.0134348,1798,1534,12.9758,-12.6934
581,-510,12.9456,12.417,0.00186107,0.00134363,-0.00162867,0.00325144,-4.6738e-05,-0.706628,0.00218337,0.0119898,1805,1534,12.9456,-12.417
588,-510,12.9369,12.1068,0.0024543,0.00180593,-0.0022537,0.00440701,-0.00014678,-0.713964,0.00298814,0.0125908,1812,1534,12.9369,-12.1068
595,-510,13.0035,11.707,0.00290811,0.00226142,-0.00283816,0.00544129,-0.000271754,-0.728678,0.00372142,0.0155142,1819,1534,13.0035,-11.707
602,-510,12.9624,11.3035,0.00338256,0.00261095,-0.00335907,0.00637791,-0.000384394,-0.728221,0.00438569,0.0379323,1826,1534,12.9624,-11.3034
609,-510,12.8889,11.2313,0.00399396,0.00278686,-0.00370783,0.00714704,-0.000366226,-0.704717,0.00489134,0.0487269,1833,1534,12.8889,-11.2313
616,-510,12.8934,11.08,0,0,0,0,0,0,0,-1,1840,1534,12.8934,-11.08
623,-510,12.9535,10.0243,0,0,0,0,0,0,0,-1,1847,1534,12.9535,-10.0243
630,-510,13.7461,9.30334,0,0,0,0,0,0,0,-1,1854,1534,13.7461,-9.30335
637,-510,11.0155,7.38464,0,0,0,0,0,0,0,-1,1861,1534,11.0155,-7.38463
644,-510,11.5809,7.17126,0,0,0,0,0,0,0,-1,1868,1534,11.5809,-7.17123
651,-510,8.70471,3.5061,0,0,0,0,0,0,0,-1,1875,1534,8.70475,-3.50611
658,-510,0,0,0,0,0,0,0,0,0,-1,1882,1534,0,0
665,-510,0,0,0,0,0,0,0,0,0,-1,1889,1534,0,0
672,-510,0,0,0,0,0,0,0,0,0,-1,1896,1534,0,0
679,-510,0,0,0,0,0,0,0,0,0,-1,1903,1534,0,0
686,-510,0,0,0,0,0,0,0,0,0,-1,1910,1534,0,0
693,-510,0,0,0,0,0,0,0,0,0,-1,1917,1534,0,0
700,-510,0,0,0,0,0,0,0,0,0,-1,1924,1534,0,0
707,-510,0,0,0,0,0,0,0,0,0,-1,1931,1534,0,0
714,-510,0,0,0,0,0,0,0,0,0,-1,1938,1534,0,0
721,-510,0,0,0,0,0,0,0,0,0,-1,1945,1534,0,0
728,-510,0,0,0,0,0,0,0,0,0,-1,1952,1534,0,0
735,-510,0,0,0,0,0,0,0,0,0,-1,1959,1534,0,0
742,-510,0,0,0,0,0,0,0,0,0,-1,1966,1534,0,0
749,-510,0,0,0,0,0,0,0,0,0,-1,1973,1534,0,0
756,-510,0,0,0,0,0,0,0,0,0,-1,1980,1534,0,0
763,-510,0,0,0,0,0,0,0,0,0,-1,1987,1534,0,0
770,-510,0,0,0,0,0,0,0,0,0,-1,1994,1534,0,0
777,-510,0,0,0,0,0,0,0,0,0,-1,2001,1534,0,0
784,-510,0,0,0,0,0,0,0,0,0,-1,2008,1534,0,0
791,-510,0,0,0,0,0,0,0,0,0,-1,2015,1534,0,0
798,-510,0,0,0,0,0,0,0,0,0,-1,2022,1534,0,0
805,-510,0,0,0,0,0,0,0,0,0,-1,2029,1534,0,0
812,-510,0,0,0,0,0,0,0,0,0,-1,2036,1534,0,0
-700,-517,0,0,0,0,0,0,0,0,0,-1,524,1541,0,0
-693,-517,0,0,0,0,0,0,0,0,0,-1,531,1541,0,0
-686,-517,0,0,0,0,0,0,0,0,0,-1,538,1541,0,0
-679,-517,0,0,0,0,0,0,0,0,0,-1,545,1541,0,0
-672,-517,0,0,0,0,0,0,0,0,0,-1,552,1541,0,0
-665,-517,0,0,0,0,0,0,0,0,0,-1,559,1541,0,0
-658,-517,0,0,0,0,0,0,0,0,0,-1,566,1541,0,0
-651,-517,0,0,0,0,0,0,0,0,0,-1,573,1541,0,0
-644,-517,0,0,0,0,0,0,0,0,0,-1,580,1541,0,0
-637,-517,0,0,0,0,0,0,0,0,0,-1,587,1541,0,0
-630,-517,0,0,0,0,0,0,0,0,0,-1,594,1541,0,0
-623,-517,0,0,0,0,0,0,0,0,0,-1,601,1541,0,0
-616,-517,0,0,0,0,0,0,0,0,0,-1,608,1541,0,0
-609,-517,0,0,0,0,0,0,0,0,0,-1,615,1541,0,0
-602,-517,0,0,0,0,0,0,0,0,0,-1,622,1541,0,0
-595,-517,0,0,0,0,0,0,0,0,0,-1,629,1541,0,0
-588,-517,0,0,0,0,0,0,0,0,0,-1,636,1541,0,0
-581,-517,0,0,0,0,0,0,0,0,0,-1,643,1541,0,0
-574,-517,0,0,0,0,0,0,0,0,0,-1,650,1541,0,0
-567,-517,0,0,0,0,0,0,0,0,0,-1,657,1541,0,0
-560,-517,0,0,0,0,0,0,0,0,0,-1,664,1541,0,0
-553,-517,0,0,0,0,0,0,0,0,0,-1,671,1541,0,0
-546,-517,0,0,0,0,0,0,0,0,0,-1,678,1541,0,0
-539,-517,0,0,0,0,0,0,0,0,0,-1,685,1541,0,0
-532,-517,0,0,0,0,0,0,0,0,0,-1,692,1541,0,0
-525,-517,-3.62708,3.76343,0,0,0,0,0,0,0,-1,699,1541,-3.62707,-3.76339
-518,-517,-2.71826,4.89087,0,0,0,0,0,0,0,-1,706,1541,-2.71826,-4.89084
-511,-517,-2.72321,2.45251,0,0,0,0,0,0,0,-1,713,1541,-2.72323,-2.45249
-504,-517,-0.883362,4.79858,0,0,0,0,0,0,0,-1,720,1541,-0.88337,-4.79854
-497,-517,-1.16815,7.60693,0,0,0,0,0,0,0,-1,727,1541,-1.16815,-7.60688
-490,-517,-0.889648,9.27649,0,0,0,0,0,0,0,-1,734,1541,-0.889627,-9.27654
-483,-517,-0.90448,9.70422,-0.000389693,0.021355,0.0086011,0.0243458,-0.00338049,1.23615,0.0174668,0.0437588,741,1541,-0.904499,-9.70427
-476,-517,-1.08331,9.5592,-0.00209118,0.0169054,0.00633764,0.0188257,-0.00401144,1.2766,0.0140794,0.0386063,748,1541,-1.08332,-9.55923
-469,-517,-1.20905,9.86401,-0.00321685,0.0130408,0.00451982,0.0142129,-0.00438891,1.31707,0.0112279,0.0167821,755,1541,-1.20907,-9.86397
-462,-517,-1.29138,10.1812,-0.00326372,0.0104623,0.00370872,0.0114003,-0.0042017,1.32308,0.00932193,0.0168128,762,1541,-1.29136,-10.1811
-455,-517,-1.29041,10.5476,-0.00233115,0.00837421,0.00329641,0.00930783,-0.00326477,1.2948,0.0075331,0.013643,769,1541,-1.2904,-10.5476
-448,-517,-1.28662,10.9047,-0.00133666,0.00655396,0.0029086,0.00751022,-0.00229292,1.25316,0.00592101,0.0126061,776,1541,-1.28659,-10.9047
-441,-517,-1.30286,11.2396,-0.000216911,0.00486833,0.00257345,0.00594338,-0.00129196,1.17508,0.00445579,0.0105751,783,1541,-1.30286,-11.2397
-434,-517,-1.31677,11.5707,0.000879522,0.0035445,0.00221699,0.00479863,-0.000374605,1.05599,0.00333098,0.0136071,790,1541,-1.3168,-11.5707
-427,-517,-1.33929,11.8906,0.00196892,0.00269147,0.00202045,0.00438269,0.000277701,0.873869,0.00283376,0.0139669,797,1541,-1.3393,-11.8906
-420,-517,-1.35815,12.2284,0.00282455,0.00168361,0.00162507,0.00397637,0.000531793,0.616595,0.00249263,0.0189455,804,1541,-1.35818,-12.2284
-413,-517,-1.34381,12.5542,0.00350951,0.00146541,0.00145492,0.00426548,0.00070943,0.479204,0.00263916,0.0103268,811,1541,-1.34379,-12.5542
-406,-517,-1.3606,12.8879,0.00373891,0.00125757,0.00112572,0.0041735,0.000822977,0.36843,0.00255262,0.0107055,818,1541,-1.3606,-12.8879
-399,-517,-1.35986,13.2211,0.0039953,0.00144515,0.000936515,0.00430227,0.00113817,0.316746,0.00257408,0.0102836,825,1541,-1.35986,-13.2211
-392,-517,-1.33112,13.5582,0.00438161,0.00198039,0.000653058,0.00454773,0.00181428,0.249089,0.00264345,0.0123554,832,1541,-1.33111,-13.5582
-385,-517,-1.25598,14.0551,0.00553795,0.0024636,0.000803946,0.00573549,0.00226606,0.24094,0.00333559,0.0244835,839,1541,-1.25598,-14.0551
-378,-517,-1.1745,14.7708,0,0,0,0,0,0,0,-1,846,1541,-1.17453,-14.7708
-371,-517,-1.37585,13.2646,0,0,0,0,0,0,0,-1,853,1541,-1.37586,-13.2647
-364,-517,-1.26245,12.6289,0,0,0,0,0,0,0,-1,860,1541,-1.26243,-12.6289
-357,-517,-1.23889,12.979,0,0,0,0,0,0,0,-1,867,1541,-1.23891,-12.979
-350,-517,0.722412,10.0829,0,0,0,0,0,0,0,-1,874,1541,0.722399,-10.0828
-343,-517,-2.56708,6.12415,0,0,0,0,0,0,0,-1,881,1541,-2.56708,-6.12418
-336,-517,-1.61218,14.712,0,0,0,0,0,0,0,-1,888,1541,-1.61221,-14.712
-329,-517,-1.89948,16.45,0,0,0,0,0,0,0,-1,895,1541,-1.89945,-16.4499
-322,-517,-1.99158,16.9701,0,0,0,0,0,0,0,-1,902,1541,-1.99159,-16.9701
-315,-517,-0.987976,7.29749,0,0,0,0,0,0,0,-1,909,1541,-0.987993,-7.29743
-308,-517,3.27911,17.621,0,0,0,0,0,0,0,-1,916,1541,3.27913,-17.621
-301,-517,-1.69141,8.87488,0,0,0,0,0,0,0,-1,923,1541,-1.69141,-8.87485
-294,-517,-1.72583,9.92566,0,0,0,0,0,0,0,-1,930,1541,-1.72584,-9.92571
-287,-517,-3.09045,12.1472,0,0,0,0,0,0,0,-1,937,1541,-3.09043,-12.1472
-280,-517,0,0,0,0,0,0,0,0,0,-1,944,1541,0,0
-273,-517,0,0,0,0,0,0,0,0,0,-1,951,1541,0,0
-266,-517,0,0,0,0,0,0,0,0,0,-1,958,1541,0,0
-259,-517,0,0,0,0,0,0,0,0,0,-1,965,1541,0,0
-252,-517,0,0,0,0,0,0,0,0,0,-1,972,1541,0,0
-245,-517,0,0,0,0,0,0,0,0,0,-1,979,1541,0,0
-238,-517,0,0,0,0,0,0,0,0,0,-1,986,1541,0,0
-231,-517,0,0,0,0,0,0,0,0,0,-1,993,1541,0,0
-224,-517,0,0,0,0,0,0,0,0,0,-1,1000,1541,0,0
-217,-517,0,0,0,0,0,0,0,0,0,-1,1007,1541,0,0
-210,-517,0,0,0,0,0,0,0,0,0,-1,1014,1541,0,0
-203,-517,0,0,0,0,0,0,0,0,0,-1,1021,1541,0,0
-196,-517,0,0,0,0,0,0,0,0,0,-1,1028,1541,0,0
-189,-517,0,0,0,0,0,0,0,0,0,-1,1035,1541,0,0
-182,-517,0,0,0,0,0,0,0,0,0,-1,1042,1541,0,0
-175,-517,0,0,0,0,0,0,0,0,0,-1,1049,1541,0,0
-168,-517,0,0,0,0,0,0,0,0,0,-1,1056,1541,0,0
-161,-517,0,0,0,0,0,0,0,0,0,-1,1063,1541,0,0
-154,-517,0,0,0,0,0,0,0,0,0,-1,1070,1541,0,0
-147,-517,0,0,0,0,0,0,0,0,0,-1,1077,1541,0,0
-140,-517,0,0,0,0,0,0,0,0,0,-1,1084,1541,0,0
-133,-517,0,0,0,0,0,0,0,0,0,-1,1091,1541,0,0
-126,-517,0,0,0,0,0,0,0,0,0,-1,1098,1541,0,0
-119,-517,0,0,0,0,0,0,0,0,0,-1,1105,1541,0,0
-112,-517,0,0,0,0,0,0,0,0,0,-1,1112,1541,0,0
-105,-517,0,0,0,0,0,0,0,0,0,-1,1119,1541,0,0
-98,-517,0,0,0,0,0,0,0,0,0,-1,1126,1541,0,0
-91,-517,0,0,0,0,0,0,0,0,0,-1,1133,1541,0,0
-84,-517,0,0,0,0,0,0,0,0,0,-1,1140,1541,0,0
-77,-517,0,0,0,0,0,0,0,0,0,-1,1147,1541,0,0
-70,-517,0,0,0,0,0,0,0,0,0,-1,1154,1541,0,0
-63,-517,0,0,0,0,0,0,0,0,0,-1,1161,1541,0,0
-56,-517,0,0,0,0,0,0,0,0,0,-1,1168,1541,0,0
-49,-517,0,0,0,0,0,0,0,0,0,-1,1175,1541,0,0
-42,-517,0,0,0,0,0,0,0,0,0,-1,1182,1541,0,0
-35,-517,0,0,0,0,0,0,0,0,0,-1,1189,1541,0,0
-28,-517,0,0,0,0,0,0,0,0,0,-1,1196,1541,0,0
-21,-517,0,0,0,0,0,0,0,0,0,-1,1203,1541,0,0
-14,-517,0,0,0,0,0,0,0,0,0,-1,1210,1541,0,0
-7,-517,0,0,0,0,0,0,0,0,0,-1,1217,1541,0,0
0,-517,0,0,0,0,0,0,0,0,0,-1,1224,1541,0,0
7,-517,0,0,0,0,0,0,0,0,0,-1,1231,1541,0,0
14,-517,0,0,0,0,0,0,0,0,0,-1,1238,1541,0,0
21,-517,0,0,0,0,0,0,0,0,0,-1,1245,1541,0,0
28,-517,0,0,0,0,0,0,0,0,0,-1,1252,1541,0,0
35,-517,0,0,0,0,0,0,0,0,0,-1,1259,1541,0,0
42,-517,0,0,0,0,0,0,0,0,0,-1,1266,1541,0,0
49,-517,0,0,0,0,0,0,0,0,0,-1,1273,1541,0,0
56,-517,0,0,0,0,0,0,0,0,0,-1,1280,1541,0,0
63,-517,0,0,0,0,0,0,0,0,0,-1,1287,1541,0,0
70,-517,0,0,0,0,0,0,0,0,0,-1,1294,1541,0,0
77,-517,0,0,0,0,0,0,0,0,0,-1,1301,1541,0,0
84,-517,0,0,0,0,0,0,0,0,0,-1,1308,1541,0,0
91,-517,0,0,0,0,0,0,0,0,0,-1,1315,1541,0,0
98,-517,0,0,0,0,0,0,0,0,0,-1,1322,1541,0,0
105,-517,0,0,0,0,0,0,0,0,0,-1,1329,1541,0,0
112,-517,0,0,0,0,0,0,0,0,0,-1,1336,1541,0,0
119,-517,0,0,0,0,0,0,0,0,0,-1,1343,1541,0,0
126,-517,0,0,0,0,0,0,0,0,0,-1,1350,1541,0,0
133,-517,0,0,0,0,0,0,0,0,0,-1,1357,1541,0,0
140,-517,0,0,0,0,0,0,0,0,0,-1,1364,1541,0,0
147,-517,0,0,0,0,0,0,0,0,0,-1,1371,1541,0,0
154,-517,0,0,0,0,0,0,0,0,0,-1,1378,1541,0,0
161,-517,0,0,0,0,0,0,0,0,0,-1,1385,1541,0,0
168,-517,0,0,0,0,0,0,0,0,0,-1,1392,1541,0,0
175,-517,0,0,0,0,0,0,0,0,0,-1,1399,1541,0,0
182,-517,0,0,0,0,0,0,0,0,0,-1,1406,1541,0,0
189,-517,0,0,0,0,0,0,0,0,0,-1,1413,1541,0,0
196,-517,0,0,0,0,0,0,0,0,0,-1,1420,1541,0,0
203,-517,0,0,0,0,0,0,0,0,0,-1,1427,1541,0,0
210,-517,0,0,0,0,0,0,0,0,0,-1,1434,1541,0,0
217,-517,0,0,0,0,0,0,0,0,0,-1,1441,1541,0,0
224,-517,0,0,0,0,0,0,0,0,0,-1,1448,1541,0,0
231,-517,0,0,0,0,0,0,0,0,0,-1,1455,1541,0,0
238,-517,0,0,0,0,0,0,0,0,0,-1,1462,1541,0,0
245,-517,0,0,0,0,0,0,0,0,0,-1,1469,1541,0,0
252,-517,0,0,0,0,0,0,0,0,0,-1,1476,1541,0,0
259,-517,0,0,0,0,0,0,0,0,0,-1,1483,1541,0,0
266,-517,0,0,0,0,0,0,0,0,0,-1,1490,1541,0,0
273,-517,0,0,0,0,0,0,0,0,0,-1,1497,1541,0,0
280,-517,0,0,0,0,0,0,0,0,0,-1,1504,1541,0,0
287,-517,0,0,0,0,0,0,0,0,0,-1,1511,1541,0,0
294,-517,0,0,0,0,0,0,0,0,0,-1,1518,1541,0,0
301,-517,0,0,0,0,0,0,0,0,0,-1,1525,1541,0,0
308,-517,0,0,0,0,0,0,0,0,0,-1,1532,1541,0,0
315,-517,0,0,0,0,0,0,0,0,0,-1,1539,1541,0,0
322,-517,0,0,0,0,0,0,0,0,0,-1,1546,1541,0,0
329,-517,0,0,0,0,0,0,0,0,0,-1,1553,1541,0,0
336,-517,0,0,0,0,0,0,0,0,0,-1,1560,1541,0,0
343,-517,0,0,0,0,0,0,0,0,0,-1,1567,1541,0,0
350,-517,0,0,0,0,0,0,0,0,0,-1,1574,1541,0,0
357,-517,0,0,0,0,0,0,0,0,0,-1,1581,1541,0,0
364,-517,0,0,0,0,0,0,0,0,0,-1,1588,1541,0,0
371,-517,0,0,0,0,0,0,0,0,0,-1,1595,1541,0,0
378,-517,0,0,0,0,0,0,0,0,0,-1,1602,1541,0,0
385,-517,0,0,0,0,0,0,0,0,0,-1,1609,1541,0,0
392,-517,0,0,0,0,0,0,0,0,0,-1,1616,1541,0,0
399,-517,0,0,0,0,0,0,0,0,0,-1,1623,1541,0,0
406,-517,13.1395,7.01978,0,0,0,0,0,0,0,-1,1630,1541,13.1396,-7.01981
413,-517,12.2695,6.3324,0,0,0,0,0,0,0,-1,1637,1541,12.2696,-6.33243
420,-517,12.4789,6.20337,0,0,0,0,0,0,0,-1,1644,1541,12.4789,-6.20333
427,-517,11.647,4.66516,0,0,0,0,0,0,0,-1,1651,1541,11.647,-4.66519
434,-517,12.3719,3.92773,0,0,0,0,0,0,0,-1,1658,1541,12.3719,-3.92776
441,-517,13.146,3.14124,0,0,0,0,0,0,0,-1,1665,1541,13.146,-3.14121
448,-517,13.8861,2.36682,0,0,0,0,0,0,0,-1,1672,1541,13.8861,-2.36684
455,-517,13.6012,4.06335,0,0,0,0,0,0,0,-1,1679,1541,13.6012,-4.06335
462,-517,14.8956,7.0752,0,0,0,0,0,0,0,-1,1686,1541,14.8956,-7.07525
469,-517,13.6292,6.87744,0,0,0,0,0,0,0,-1,1693,1541,13.6292,-6.87739
476,-517,13.1489,8.24768,0,0,0,0,0,0,0,-1,1700,1541,13.1489,-8.2477
483,-517,12.7778,10.7142,0,0,0,0,0,0,0,-1,1707,1541,12.7779,-10.7143
490,-517,12.8262,15.0084,0,0,0,0,0,0,0,-1,1714,1541,12.8261,-15.0084
497,-517,12.8286,15.0795,-0.0108539,-0.0191848,0.0252424,0.0105645,-0.0406032,0.703626,0.0311924,0.0454654,1721,1541,12.8286,-15.0794
504,-517,13.0366,15.4139,-0.00870708,-0.0176324,0.0190463,0.0063924,-0.0327318,0.670322,0.0242347,0.043407,1728,1541,13.0366,-15.414
511,-517,12.4489,15.6486,0,0,0,0,0,0,0,-1,1735,1541,12.4488,-15.6486
518,-517,12.5872,15.2262,-0.00522806,-0.0102288,0.0101731,0.00274741,-0.0182043,0.664895,0.013148,0.0387863,1742,1541,12.5871,-15.2262
525,-517,12.6254,14.8252,-0.00397117,-0.0070382,0.00711987,0.00177846,-0.0127878,0.679326,0.00917567,0.0143489,1749,1541,12.6253,-14.8252
532,-517,12.7007,14.4883,-0.00300489,-0.004709,0.00487241,0.00108941,-0.00880329,0.698837,0.00626365,0.0112905,1756,1541,12.7007,-14.4883
539,-517,12.7042,14.1765,-0.00208868,-0.00292805,0.00315974,0.00067913,-0.00569585,0.719373,0.00404267,0.0118984,1763,1541,12.7042,-14.1765
546,-517,12.6693,13.8965,-0.00103845,-0.00137671,0.00167828,0.000479199,-0.00289435,0.73518,0.00210754,0.0120491,1770,1541,12.6693,-13.8964
553,-517,12.6399,13.5905,-0.000334448,-0.000353667,0.000513219,0.000169252,-0.000857367,0.776037,0.000635552,0.0159437,1777,1541,12.6399,-13.5905
560,-517,12.6469,13.3051,0.00029731,0.000142112,-0.000263673,0.000494565,-5.51436e-05,-0.642288,0.000349544,0.016276,1784,1541,12.6468,-13.3051
567,-517,12.6664,13.0046,0.00107676,0.000648332,-0.000862701,0.00175144,-2.63532e-05,-0.663707,0.00117651,0.0130406,1791,1541,12.6664,-13.0046
574,-517,12.6722,12.6895,0.0018382,0.00126931,-0.00152406,0.00310413,3.375e-06,-0.693142,0.0020683,0.0136936,1798,1541,12.6723,-12.6895
581,-517,12.6647,12.3884,0.00262828,0.00191908,-0.0022508,0.00455224,-4.88292e-06,-0.707269,0.00303645,0.0143393,1805,1541,12.6646,-12.3884
588,-517,12.6525,12.0723,0.003251,0.0024691,-0.00299543,0.00588088,-0.000160783,-0.720507,0.00397527,0.0151992,1812,1541,12.6524,-12.0722
595,-517,12.6676,11.7744,0.00383133,0.00306939,-0.00378197,0.00725146,-0.000350749,-0.735201,0.00495537,0.0290408,1819,1541,12.6677,-11.7745
602,-517,12.5173,11.4149,0.00451473,0.00362377,-0.00459215,0.00868295,-0.00054446,-0.737045,0.00597839,0.0330917,1826,1541,12.5173,-11.4149
609,-517,12.6417,10.8751,0,0,0,0,0,0,0,-1,1833,1541,12.6417,-10.8751
616,-517,14.205,10.3193,0,0,0,0,0,0,0,-1,1840,1541,14.205,-10.3194
623,-517,12.578,10.0779,0,0,0,0,0,0,0,-1,1847,1541,12.578,-10.0779
630,-517,11.7035,7.47815,0,0,0,0,0,0,0,-1,1854,1541,11.7035,-7.47812
637,-517,11.5172,5.79822,0,0,0,0,0,0,0,-1,1861,1541,11.5173,-5.79825
644,-517,11.4232,3.30579,0,0,0,0,0,0,0,-1,1868,1541,11.4232,-3.30574
651,-517,0,0,0,0,0,0,0,0,0,-1,1875,1541,0,0
658,-517,0,0,0,0,0,0,0,0,0,-1,1882,1541,0,0
665,-517,0,0,0,0,0,0,0,0,0,-1,1889,1541,0,0
672,-517,0,0,0,0,0,0,0,0,0,-1,1896,1541,0,0
679,-517,0,0,0,0,0,0,0,0,0,-1,1903,1541,0,0
686,-517,0,0,0,0,0,0,0,0,0,-1,1910,1541,0,0
693,-517,0,0,0,0,0,0,0,0,0,-1,1917,1541,0,0
700,-517,0,0,0,0,0,0,0,0,0,-1,1924,1541,0,0
707,-517,0,0,0,0,0,0,0,0,0,-1,1931,1541,0,0
714,-517,0,0,0,0,0,0,0,0,0,-1,1938,1541,0,0
721,-517,0,0,0,0,0,0,0,0,0,-1,1945,1541,0,0
728,-517,0,0,0,0,0,0,0,0,0,-1,1952,1541,0,0
735,-517,0,0,0,0,0,0,0,0,0,-1,1959,1541,0,0
742,-517,0,0,0,0,0,0,0,0,0,-1,1966,1541,0,0
749,-517,0,0,0,0,0,0,0,0,0,-1,1973,1541,0,0
756,-517,0,0,0,0,0,0,0,0,0,-1,1980,1541,0,0
763,-517,0,0,0,0,0,0,0,0,0,-1,1987,1541,0,0
770,-517,0,0,0,0,0,0,0,0,0,-1,1994,1541,0,0
777,-517,0,0,0,0,0,0,0,0,0,-1,2001,1541,0,0
784,-517,0,0,0,0,0,0,0,0,0,-1,2008,1541,0,0
791,-517,0,0,0,0,0,0,0,0,0,-1,2015,1541,0,0
798,-517,0,0,0,0,0,0,0,0,0,-1,2022,1541,0,0
805,-517,0,0,0,0,0,0,0,0,0,-1,2029,1541,0,0
812,-517,0,0,0,0,0,0,0,0,0,-1,2036,1541,0,0
-700,-524,0,0,0,0,0,0,0,0,0,-1,524,1548,0,0
-693,-524,0,0,0,0,0,0,0,0,0,-1,531,1548,0,0
-686,-524,0,0,0,0,0,0,0,0,0,-1,538,1548,0,0
-679,-524,0,0,0,0,0,0,0,0,0,-1,545,1548,0,0
-672,-524,0,0,0,0,0,0,0,0,0,-1,552,1548,0,0
-665,-524,0,0,0,0,0,0,0,0,0,-1,559,1548,0,0
-658,-524,0,0,0,0,0,0,0,0,0,-1,566,1548,0,0
-651,-524,0,0,0,0,0,0,0,0,0,-1,573,1548,0,0
-644,-524,0,0,0,0,0,0,0,0,0,-1,580,1548,0,0
-637,-524,0,0,0,0,0,0,0,0,0,-1,587,1548,0,0
-630,-524,0,0,0,0,0,0,0,0,0,-1,594,1548,0,0
-623,-524,0,0,0,0,0,0,0,0,0,-1,601,1548,0,0
-616,-524,0,0,0,0,0,0,0,0,0,-1,608,1548,0,0
-609,-524,0,0,0,0,0,0,0,0,0,-1,615,1548,0,0
-602,-524,0,0,0,0,0,0,0,0,0,-1,622,1548,0,0
-595,-524,0,0,0,0,0,0,0,0,0,-1,629,1548,0,0
-588,-524,0,0,0,0,0,0,0,0,0,-1,636,1548,0,0
-581,-524,0,0,0,0,0,0,0,0,0,-1,643,1548,0,0
-574,-524,0,0,0,0,0,0,0,0,0,-1,650,1548,0,0
-567,-524,0,0,0,0,0,0,0,0,0,-1,657,1548,0,0
-560,-524,0,0,0,0,0,0,0,0,0,-1,664,1548,0,0
-553,-524,0,0,0,0,0,0,0,0,0,-1,671,1548,0,0
-546,-524,0,0,0,0,0,0,0,0,0,-1,678,1548,0,0
-539,-524,0,0,0,0,0,0,0,0,0,-1,685,1548,0,0
-532,-524,0,0,0,0,0,0,0,0,0,-1,692,1548,0,0
-525,-524,-0.215515,3.97131,0,0,0,0,0,0,0,-1,699,1548,-0.215501,-3.97136
-518,-524,-0.806274,4.35632,0,0,0,0,0,0,0,-1,706,1548,-0.806259,-4.35633
-511,-524,-1.08301,4.29004,0,0,0,0,0,0,0,-1,713,1548,-1.08301,-4.29006
-504,-524,-1.28821,3.98145,0,0,0,0,0,0,0,-1,720,1548,-1.28822,-3.98151
-497,-524,-1.87958,8.23486,0,0,0,0,0,0,0,-1,727,1548,-1.8796,-8.23486
-490,-524,-1.3031,8.99243,0,0,0,0,0,0,0,-1,734,1548,-1.3031,-8.99237
-483,-524,-0.613831,9.75171,0,0,0,0,0,0,0,-1,741,1548,-0.613843,-9.75166
-476,-524,-0.927551,9.62219,-0.00204174,0.0268247,0.0105653,0.0302784,-0.00549549,1.25485,0.0222449,0.0464167,748,1548,-0.927535,-9.62218
-469,-524,-0.895874,9.96558,-0.00313346,0.0208807,0.0081839,0.0234045,-0.00565725,1.27167,0.0177911,0.0330498,755,1548,-0.895856,-9.96562
-462,-524,-0.885742,10.2885,-0.0031875,0.0165935,0.00679563,0.0187031,-0.00529711,1.26979,0.0145593,0.025874,762,1548,-0.885721,-10.2884
-455,-524,-0.987122,10.5825,-0.00232763,0.0131291,0.00585007,0.0150935,-0.0042921,1.24682,0.0117572,0.0196562,769,1548,-0.987125,-10.5826
-448,-524,-0.973816,10.9154,-0.00148139,0.0101333,0.00491587,0.0119346,-0.00328265,1.21957,0.00924691,0.0128121,776,1548,-0.97382,-10.9154
-441,-524,-0.962891,11.249,-0.000536293,0.00755696,0.00409211,0.00926538,-0.00224471,1.1753,0.00704538,0.0102771,783,1548,-0.962862,-11.249
-434,-524,-0.967468,11.5686,0.000386583,0.00555855,0.00334282,0.00719888,-0.00125375,1.11461,0.00526715,0.0121962,790,1548,-0.967477,-11.5686
-427,-524,-0.992126,11.8965,0.00129979,0.00423094,0.00284681,0.00596728,-0.000436546,1.02311,0.0041314,0.0132232,797,1548,-0.992142,-11.8964
-420,-524,-1.01031,12.2292,0.00192751,0.00264937,0.00210444,0.0044236,0.000153277,0.870326,0.00289933,0.0104689,804,1548,-1.01028,-12.2292
-413,-524,-1.00159,12.5695,0.00247033,0.0022205,0.00174564,0.00409552,0.000595318,0.749681,0.00255513,0.00989598,811,1548,-1.00157,-12.5694
-406,-524,-1.00757,12.9058,0.00263737,0.00174367,0.00125983,0.00352725,0.000853786,0.614974,0.00212487,0.0106268,818,1548,-1.00759,-12.9057
-399,-524,-1.01111,13.2288,0.00281299,0.00180533,0.000954685,0.00338864,0.00122969,0.5426,0.0019808,0.00887541,825,1548,-1.01114,-13.2288
-392,-524,-1.00714,13.5488,0.00314592,0.0021133,0.000619332,0.00343593,0.00182329,0.437932,0.00198498,0.00957849,832,1548,-1.00712,-13.5488
-385,-524,-1.02325,13.9033,0.00415663,0.00235622,0.000629069,0.00435465,0.00215821,0.304963,0.00251419,0.012322,839,1548,-1.02324,-13.9034
-378,-524,-0.967896,14.3943,0.00510783,0.00137078,0.000365313,0.00514321,0.00133541,0.0965369,0.00308167,0.0316123,846,1548,-0.967881,-14.3943
-371,-524,-0.890808,14.8625,0,0,0,0,0,0,0,-1,853,1548,-0.890816,-14.8625
-364,-524,-0.712097,14.9871,0,0,0,0,0,0,0,-1,860,1548,-0.712116,-14.9871
-357,-524,-1.34052,14.7448,0,0,0,0,0,0,0,-1,867,1548,-1.34054,-14.7447
-350,-524,-1.18591,11.6433,0,0,0,0,0,0,0,-1,874,1548,-1.18592,-11.6433
-343,-524,-1.98212,13.6454,0,0,0,0,0,0,0,-1,881,1548,-1.98211,-13.6454
-336,-524,-1.07672,14.9619,0,0,0,0,0,0,0,-1,888,1548,-1.07674,-14.9619
-329,-524,-0.171387,16.2783,0,0,0,0,0,0,0,-1,895,1548,-0.171367,-16.2783
-322,-524,-1.78308,16.5065,0,0,0,0,0,0,0,-1,902,1548,-1.78311,-16.5064
-315,-524,2.60687,16.2994,0,0,0,0,0,0,0,-1,909,1548,2.60687,-16.2994
-308,-524,3.4917,15.3413,0,0,0,0,0,0,0,-1,916,1548,3.4917,-15.3413
-301,-524,2.72394,17.7618,0,0,0,0,0,0,0,-1,923,1548,2.72396,-17.7619
-294,-524,-1.52515,9.05408,0,0,0,0,0,0,0,-1,930,1548,-1.52512,-9.05411
-287,-524,-0.962219,10.3199,0,0,0,0,0,0,0,-1,937,1548,-0.962241,-10.32
-280,-524,-1.36255,10.3859,0,0,0,0,0,0,0,-1,944,1548,-1.36253,-10.3859
-273,-524,0,0,0,0,0,0,0,0,0,-1,951,1548,0,0
-266,-524,0,0,0,0,0,0,0,0,0,-1,958,1548,0,0
-259,-524,0,0,0,0,0,0,0,0,0,-1,965,1548,0,0
-252,-524,0,0,0,0,0,0,0,0,0,-1,972,1548,0,0
-245,-524,0,0,0,0,0,0,0,0,0,-1,979,1548,0,0
-238,-524,0,0,0,0,0,0,0,0,0,-1,986,1548,0,0
-231,-524,0,0,0,0,0,0,0,0,0,-1,993,1548,0,0
-224,-524,0,0,0,0,0,0,0,0,0,-1,1000,1548,0,0
-217,-524,0,0,0,0,0,0,0,0,0,-1,1007,1548,0,0
-210,-524,0,0,0,0,0,0,0,0,0,-1,1014,1548,0,0
-203,-524,0,0,0,0,0,0,0,0,0,-1,1021,1548,0,0
-196,-524,0,0,0,0,0,0,0,0,0,-1,1028,1548,0,0
-189,-524,0,0,0,0,0,0,0,0,0,-1,1035,1548,0,0
-182,-524,0,0,0,0,0,0,0,0,0,-1,1042,1548,0,0
-175,-524,0,0,0,0,0,0,0,0,0,-1,1049,1548,0,0
-168,-524,0,0,0,0,0,0,0,0,0,-1,1056,1548,0,0
-161,-524,0,0,0,0,0,0,0,0,0,-1,1063,1548,0,0
-154,-524,0,0,0,0,0,0,0,0,0,-1,1070,1548,0,0
-147,-524,0,0,0,0,0,0,0,0,0,-1,1077,1548,0,0
-140,-524,0,0,0,0,0,0,0,0,0,-1,1084,1548,0,0
-133,-524,0,0,0,0,0,0,0,0,0,-1,1091,1548,0,0
-126,-524,0,0,0,0,0,0,0,0,0,-1,1098,1548,0,0
-119,-524,0,0,0,0,0,0,0,0,0,-1,1105,1548,0,0
-112,-524,0,0,0,0,0,0,0,0,0,-1,1112,1548,0,0
-105,-524,0,0,0,0,0,0,0,0,0,-1,1119,1548,0,0
-98,-524,0,0,0,0,0,0,0,0,0,-1,1126,1548,0,0
-91,-524,0,0,0,0,0,0,0,0,0,-1,1133,1548,0,0
-84,-524,0,0,0,0,0,0,0,0,0,-1,1140,1548,0,0
-77,-524,0,0,0,0,0,0,0,0,0,-1,1147,1548,0,0
-70,-524,0,0,0,0,0,0,0,0,0,-1,1154,1548,0,0
-63,-524,0,0,0,0,0,0,0,0,0,-1,1161,1548,0,0
-56,-524,0,0,0,0,0,0,0,0,0,-1,1168,1548,0,0
-49,-524,0,0,0,0,0,0,0,0,0,-1,1175,1548,0,0
-42,-524,0,0,0,0,0,0,0,0,0,-1,1182,1548,0,0
-35,-524,0,0,0,0,0,0,0,0,0,-1,1189,1548,0,0
-28,-524,0,0,0,0,0,0,0,0,0,-1,1196,1548,0,0
-21,-524,0,0,0,0,0,0,0,0,0,-1,1203,1548,0,0
-14,-524,0,0,0,0,0,0,0,0,0,-1,1210,1548,0,0
-7,-524,0,0,0,0,0,0,0,0,0,-1,1217,1548,0,0
0,-524,0,0,0,0,0,0,0,0,0,-1,1224,1548,0,0
7,-524,0,0,0,0,0,0,0,0,0,-1,1231,1548,0,0
14,-524,0,0,0,0,0,0,0,0,0,-1,1238,1548,0,0
21,-524,0,0,0,0,0,0,0,0,0,-1,1245,1548,0,0
28,-524,0,0,0,0,0,0,0,0,0,-1,1252,1548,0,0
35,-524,0,0,0,0,0,0,0,0,0,-1,1259,1548,0,0
42,-524,0,0,0,0,0,0,0,0,0,-1,1266,1548,0,0
49,-524,0,0,0,0,0,0,0,0,0,-1,1273,1548,0,0
56,-524,0,0,0,0,0,0,0,0,0,-1,1280,1548,0,0
63,-524,0,0,0,0,0,0,0,0,0,-1,1287,1548,0,0
70,-524,0,0,0,0,0,0,0,0,0,-1,1294,1548,0,0
77,-524,0,0,0,0,0,0,0,0,0,-1,1301,1548,0,0
84,-524,0,0,0,0,0,0,0,0,0,-1,1308,1548,0,0
91,-524,0,0,0,0,0,0,0,0,0,-1,1315,1548,0,0
98,-524,0,0,0,0,0,0,0,0,0,-1,1322,1548,0,0
105,-524,0,0,0,0,0,0,0,0,0,-1,1329,1548,0,0
112,-524,0,0,0,0,0,0,0,0,0,-1,1336,1548,0,0
119,-524,0,0,0,0,0,0,0,0,0,-1,1343,1548,0,0
126,-524,0,0,0,0,0,0,0,0,0,-1,1350,1548,0,0
133,-524,0,0,0,0,0,0,0,0,0,-1,1357,1548,0,0
140,-524,0,0,0,0,0,0,0,0,0,-1,1364,1548,0,0
147,-524,0,0,0,0,0,0,0,0,0,-1,1371,1548,0,0
154,-524,0,0,0,0,0,0,0,0,0,-1,1378,1548,0,0
161,-524,0,0,0,0,0,0,0,0,0,-1,1385,1548,0,0
168,-524,0,0,0,0,0,0,0,0,0,-1,1392,1548,0,0
175,-524,0,0,0,0,0,0,0,0,0,-1,1399,1548,0,0
182,-524,0,0,0,0,0,0,0,0,0,-1,1406,1548,0,0
189,-524,0,0,0,0,0,0,0,0,0,-1,1413,1548,0,0
196,-524,0,0,0,0,0,0,0,0,0,-1,1420,1548,0,0
203,-524,0,0,0,0,0,0,0,0,0,-1,1427,1548,0,0
210,-524,0,0,0,0,0,0,0,0,0,-1,1434,1548,0,0
217,-524,0,0,0,0,0,0,0,0,0,-1,1441,1548,0,0
224,-524,0,0,0,0,0,0,0,0,0,-1,1448,1548,0,0
231,-524,0,0,0,0,0,0,0,0,0,-1,1455,1548,0,0
238,-524,0,0,0,0,0,0,0,0,0,-1,1462,1548,0,0
245,-524,0,0,0,0,0,0,0,0,0,-1,1469,1548,0,0
252,-524,0,0,0,0,0,0,0,0,0,-1,1476,1548,0,0
259,-524,0,0,0,0,0,0,0,0,0,-1,1483,1548,0,0
266,-524,0,0,0,0,0,0,0,0,0,-1,1490,1548,0,0
273,-524,0,0,0,0,0,0,0,0,0,-1,1497,1548,0,0
280,-524,0,0,0,0,0,0,0,0,0,-1,1504,1548,0,0
287,-524,0,0,0,0,0,0,0,0,0,-1,1511,1548,0,0
294,-524,0,0,0,0,0,0,0,0,0,-1,1518,1548,0,0
301,-524,0,0,0,0,0,0,0,0,0,-1,1525,1548,0,0
308,-524,0,0,0,0,0,0,0,0,0,-1,1532,1548,0,0
315,-524,0,0,0,0,0,0,0,0,0,-1,1539,1548,0,0
322,-524,0,0,0,0,0,0,0,0,0,-1,1546,1548,0,0
329,-524,0,0,0,0,0,0,0,0,0,-1,1553,1548,0,0
336,-524,0,0,0,0,0,0,0,0,0,-1,1560,1548,0,0
343,-524,0,0,0,0,0,0,0,0,0,-1,1567,1548,0,0
350,-524,0,0,0,0,0,0,0,0,0,-1,1574,1548,0,0
357,-524,0,0,0,0,0,0,0,0,0,-1,1581,1548,0,0
364,-524,0,0,0,0,0,0,0,0,0,-1,1588,1548,0,0
371,-524,0,0,0,0,0,0,0,0,0,-1,1595,1548,0,0
378,-524,0,0,0,0,0,0,0,0,0,-1,1602,1548,0,0
385,-524,0,0,0,0,0,0,0,0,0,-1,1609,1548,0,0
392,-524,0,0,0,0,0,0,0,0,0,-1,1616,1548,0,0
399,-524,8.81848,5.05774,0,0,0,0,0,0,0,-1,1623,1548,8.81843,-5.05769
406,-524,8.64294,6.06799,0,0,0,0,0,0,0,-1,1630,1548,8.6429,-6.06805
413,-524,11.677,6.41858,0,0,0,0,0,0,0,-1,1637,1548,11.677,-6.41864
420,-524,11.4913,6.36401,0,0,0,0,0,0,0,-1,1644,1548,11.4913,-6.36402
427,-524,7.68335,6.17249,0,0,0,0,0,0,0,-1,1651,1548,7.68341,-6.17245
434,-524,10.432,11.6801,0,0,0,0,0,0,0,-1,1658,1548,10.432,-11.68
441,-524,8.78552,4.12305,0,0,0,0,0,0,0,-1,1665,1548,8.78553,-4.12301
448,-524,14.1854,4.78674,0,0,0,0,0,0,0,-1,1672,1548,14.1854,-4.78674
455,-524,12.4784,3.65576,0,0,0,0,0,0,0,-1,1679,1548,12.4784,-3.65572
462,-524,14.7551,9.29395,0,0,0,0,0,0,0,-1,1686,1548,14.7552,-9.29397
469,-524,13.0463,8.39771,0,0,0,0,0,0,0,-1,1693,1548,13.0462,-8.39775
476,-524,13.632,12.3571,0,0,0,0,0,0,0,-1,1700,1548,13.632,-12.357
483,-524,13.7819,14.1544,0,0,0,0,0,0,0,-1,1707,1548,13.7819,-14.1545
490,-524,13.0491,14.8096,-0.0101454,-0.0146629,0.0254233,0.0131193,-0.0379275,0.741092,0.0306101,0.0462514,1714,1548,13.0491,-14.8095
497,-524,12.4634,15.5564,-0.00791921,-0.0134226,0.0196986,0.00921893,-0.0305608,0.716002,0.0240434,0.0389964,1721,1548,12.4633,-15.5564
504,-524,12.3666,15.5845,-0.00610061,-0.012969,0.014747,0.00560676,-0.0246764,0.671,0.0186036,0.0258622,1728,1548,12.3665,-15.5845
511,-524,12.3268,15.4561,-0.00467971,-0.010708,0.0110299,0.00374043,-0.0191281,0.652019,0.0141645,0.0237574,1735,1548,12.3268,-15.4561
518,-524,12.3992,15.0836,-0.00344966,-0.00773032,0.00789089,0.00258602,-0.013766,0.652964,0.0101497,0.0182572,1742,1548,12.3992,-15.0837
525,-524,12.3967,14.8019,-0.00249866,-0.00525866,0.00549152,0.0017836,-0.00954092,0.662299,0.00703097,0.0140321,1749,1548,12.3967,-14.8019
532,-524,12.4005,14.4938,-0.00182148,-0.00343705,0.00372384,0.00118118,-0.00643971,0.678592,0.00473622,0.0100522,1756,1548,12.4005,-14.4938
539,-524,12.3944,14.1768,-0.00115646,-0.00201974,0.00234791,0.000799155,-0.00397536,0.694494,0.00295289,0.0106509,1763,1548,12.3944,-14.1767
546,-524,12.3718,13.8711,-0.000345365,-0.000760678,0.00113179,0.000597661,-0.0017037,0.694669,0.0013789,0.0132292,1770,1548,12.3719,-13.8711
553,-524,12.3739,13.5933,0.000220514,4.63046e-05,0.000129246,0.000289267,-2.24486e-05,0.488885,0.000200746,0.0217057,1777,1548,12.3739,-13.5933
560,-524,12.3745,13.2738,0.000760226,0.000418355,-0.000501211,0.00111885,5.97328e-05,-0.621061,0.000726807,0.0314803,1784,1548,12.3745,-13.2739
567,-524,12.3868,13.0082,0.00148114,0.000877529,-0.00108667,0.00230713,5.15336e-05,-0.649945,0.0015212,0.0184569,1791,1548,12.3868,-13.0082
574,-524,12.3806,12.6895,0.00225439,0.00151147,-0.0018105,0.00373115,3.47147e-05,-0.684218,0.00247594,0.0133371,1798,1548,12.3806,-12.6895
581,-524,12.3785,12.3789,0.00311866,0.00218585,-0.00264862,0.00534163,-3.71144e-05,-0.698245,0.00357352,0.0141932,1805,1548,12.3785,-12.3789
588,-524,12.4039,12.0614,0.00381108,0.00284461,-0.00356945,0.00692986,-0.000274171,-0.718117,0.00471396,0.0182103,1812,1548,12.4039,-12.0614
595,-524,12.4128,11.7991,0.00452615,0.00364915,-0.00466629,0.00877451,-0.000599198,-0.73855,0.00605929,0.0253368,1819,1548,12.4128,-11.7991
602,-524,12.6965,11.2931,0.00548738,0.00451429,-0.00592902,0.0109498,-0.000948118,-0.744459,0.00763554,0.0437983,1826,1548,12.6966,-11.2931
609,-524,13.0056,10.5138,0,0,0,0,0,0,0,-1,1833,1548,13.0056,-10.5138
616,-524,11.6941,8.65515,0,0,0,0,0,0,0,-1,1840,1548,11.6941,-8.65514
623,-524,9.38452,5.15356,0,0,0,0,0,0,0,-1,1847,1548,9.38456,-5.15359
630,-524,11.0541,3.57434,0,0,0,0,0,0,0,-1,1854,1548,11.0541,-3.57438
637,-524,11.6067,3.20728,0,0,0,0,0,0,0,-1,1861,1548,11.6067,-3.20724
644,-524,12.2134,0.727173,0,0,0,0,0,0,0,-1,1868,1548,12.2134,-0.727222
651,-524,0,0,0,0,0,0,0,0,0,-1,1875,1548,0,0
658,-524,0,0,0,0,0,0,0,0,0,-1,1882,1548,0,0
665,-524,0,0,0,0,0,0,0,0,0,-1,1889,1548,0,0
672,-524,0,0,0,0,0,0,0,0,0,-1,1896,1548,0,0
679,-524,0,0,0,0,0,0,0,0,0,-1,1903,1548,0,0
686,-524,0,0,0,0,0,0,0,0,0,-1,1910,1548,0,0
693,-524,0,0,0,0,0,0,0,0,0,-1,1917,1548,0,0
700,-524,0,0,0,0,0,0,0,0,0,-1,1924,1548,0,0
707,-524,0,0,0,0,0,0,0,0,0,-1,1931,1548,0,0
714,-524,0,0,0,0,0,0,0,0,0,-1,1938,1548,0,0
721,-524,0,0,0,0,0,0,0,0,0,-1,1945,1548,0,0
728,-524,0,0,0,0,0,0,0,0,0,-1,1952,1548,0,0
735,-524,0,0,0,0,0,0,0,0,0,-1,1959,1548,0,0
742,-524,0,0,0,0,0,0,0,0,0,-1,1966,1548,0,0
749,-524,0,0,0,0,0,0,0,0,0,-1,1973,1548,0,0
756,-524,0,0,0,0,0,0,0,0,0,-1,1980,1548,0,0
763,-524,0,0,0,0,0,0,0,0,0,-1,1987,1548,0,0
770,-524,0,0,0,0,0,0,0,0,0,-1,1994,1548,0,0
777,-524,0,0,0,0,0,0,0,0,0,-1,2001,1548,0,0
784,-524,0,0,0,0,0,0,0,0,0,-1,2008,1548,0,0
791,-524,0,0,0,0,0,0,0,0,0,-1,2015,1548,0,0
798,-524,0,0,0,0,0,0,0,0,0,-1,2022,1548,0,0
805,-524,0,0,0,0,0,0,0,0,0,-1,2029,1548,0,0
812,-524,0,0,0,0,0,0,0,0,0,-1,2036,1548,0,0
-700,-531,0,0,0,0,0,0,0,0,0,-1,524,1555,0,0
-693,-531,0,0,0,0,0,0,0,0,0,-1,531,1555,0,0
-686,-531,0,0,0,0,0,0,0,0,0,-1,538,1555,0,0
-679,-531,0,0,0,0,0,0,0,0,0,-1,545,1555,0,0
-672,-531,0,0,0,0,0,0,0,0,0,-1,552,1555,0,0
-665,-531,0,0,0,0,0,0,0,0,0,-1,559,1555,0,0
-658,-531,0,0,0,0,0,0,0,0,0,-1,566,1555,0,0
-651,-531,0,0,0,0,0,0,0,0,0,-1,573,1555,0,0
-644,-531,0,0,0,0,0,0,0,0,0,-1,580,1555,0,0
-637,-531,0,0,0,0,0,0,0,0,0,-1,587,1555,0,0
-630,-531,0,0,0,0,0,0,0,0,0,-1,594,1555,0,0
-623,-531,0,0,0,0,0,0,0,0,0,-1,601,1555,0,0
-616,-531,0,0,0,0,0,0,0,0,0,-1,608,1555,0,0
-609,-531,0,0,0,0,0,0,0,0,0,-1,615,1555,0,0
-602,-531,0,0,0,0,0,0,0,0,0,-1,622,1555,0,0
-595,-531,0,0,0,0,0,0,0,0,0,-1,629,1555,0,0
-588,-531,0,0,0,0,0,0,0,0,0,-1,636,1555,0,0
-581,-531,0,0,0,0,0,0,0,0,0,-1,643,1555,0,0
-574,-531,0,0,0,0,0,0,0,0,0,-1,650,1555,0,0
-567,-531,0,0,0,0,0,0,0,0,0,-1,657,1555,0,0
-560,-531,0,0,0,0,0,0,0,0,0,-1,664,1555,0,0
-553,-531,0,0,0,0,0,0,0,0,0,-1,671,1555,0,0
-546,-531,0,0,0,0,0,0,0,0,0,-1,678,1555,0,0
-539,-531,0,0,0,0,0,0,0,0,0,-1,685,1555,0,0
-532,-531,0,0,0,0,0,0,0,0,0,-1,692,1555,0,0
-525,-531,0,0,0,0,0,0,0,0,0,-1,699,1555,0,0
-518,-531,-1.63983,4.03821,0,0,0,0,0,0,0,-1,706,1555,-1.63982,-4.03821
-511,-531,-2.9682,8.07483,0,0,0,0,0,0,0,-1,713,1555,-2.9682,-8.07479
-504,-531,-2.95978,0.557861,0,0,0,0,0,0,0,-1,720,1555,-2.95978,-0.557917
-497,-531,-2.46039,8.07422,0,0,0,0,0,0,0,-1,727,1555,-2.46039,-8.07423
-490,-531,-2.10461,8.25159,0,0,0,0,0,0,0,-1,734,1555,-2.10463,-8.25158
-483,-531,-0.881531,8.54211,0,0,0,0,0,0,0,-1,741,1555,-0.881505,-8.54217
-476,-531,-0.720398,9.69775,0,0,0,0,0,0,0,-1,748,1555,-0.720375,-9.69778
-469,-531,-0.605591,10.0187,0,0,0,0,0,0,0,-1,755,1555,-0.605588,-10.0187
-462,-531,-0.595032,10.2764,-0.00240299,0.0249631,0.0112602,0.0290006,-0.00644052,1.22651,0.0218,0.038479,762,1555,-0.595016,-10.2764
-455,-531,-0.671875,10.7028,-0.00171201,0.0194054,0.00947811,0.0230354,-0.00534206,1.20504,0.017413,0.0299571,769,1555,-0.671868,-10.7027
-448,-531,-0.60437,10.916,-0.00110218,0.0147068,0.00774531,0.017869,-0.00426434,1.18318,0.0135595,0.0144642,776,1555,-0.604365,-10.9161
-441,-531,-0.644104,11.2482,-0.000410737,0.0108803,0.00622483,0.0136384,-0.00316881,1.15372,0.0103121,0.0120775,783,1555,-0.644119,-11.2482
-434,-531,-0.652466,11.6007,0.00026881,0.007945,0.00492872,0.0103538,-0.00213995,1.11621,0.00771539,0.0120727,790,1555,-0.652484,-11.6007
-427,-531,-0.667786,11.9313,0.000939528,0.00594737,0.00401375,0.00817418,-0.00128729,1.06428,0.00592534,0.0134827,797,1555,-0.667809,-11.9313
-420,-531,-0.67926,12.2643,0.00128903,0.00366269,0.00284521,0.00555868,-0.000606955,0.982993,0.00392379,0.0116717,804,1555,-0.679258,-12.2643
-413,-531,-0.681641,12.5944,0.00166643,0.00295096,0.0022487,0.00464731,-2.99257e-05,0.924503,0.00310823,0.0100569,811,1555,-0.681663,-12.5944
-406,-531,-0.688538,12.9181,0.00177058,0.00218506,0.00158766,0.00357894,0.000376688,0.850297,0.00227084,0.0112811,818,1555,-0.688557,-12.9181
-399,-531,-0.675232,13.2283,0.00186162,0.00209216,0.00115337,0.00313601,0.000817775,0.835203,0.00187839,0.0130539,825,1555,-0.67521,-13.2282
-392,-531,-0.668152,13.5394,0.00214377,0.00215199,0.000742214,0.0028901,0.00140565,0.788165,0.00166881,0.0162975,832,1555,-0.668155,-13.5394
-385,-531,-0.711548,13.8668,0.00298562,0.00213114,0.000566702,0.00326809,0.00184867,0.462399,0.00189225,0.014129,839,1555,-0.711545,-13.8668
-378,-531,-0.721008,14.1538,0.00383423,0.00123884,0.000326787,0.00387475,0.00119833,0.123346,0.0022907,0.0135211,846,1555,-0.72102,-14.1539
-371,-531,-0.64502,14.5637,0.00487389,0.00050298,1.68373e-05,0.00487395,0.000502915,0.00385205,0.00309531,0.0226069,853,1555,-0.645009,-14.5637
-364,-531,-0.572205,14.9165,0.00607069,-0.000933728,-0.000657502,0.00613188,-0.000994914,-0.0927895,0.00445673,0.046657,860,1555,-0.572196,-14.9165
-357,-531,-0.934753,14.9141,0.00753896,-0.00264741,-0.00168184,0.00780946,-0.00291791,-0.15947,0.00640449,0.0494847,867,1555,-0.934744,-14.9141
-350,-531,-0.893921,15.7302,0,0,0,0,0,0,0,-1,874,1555,-0.893902,-15.7303
-343,-531,-0.559875,15.9066,0,0,0,0,0,0,0,-1,881,1555,-0.559858,-15.9067
-336,-531,0.143188,15.5444,0,0,0,0,0,0,0,-1,888,1555,0.143207,-15.5444
-329,-531,0.0812378,15.7607,0,0,0,0,0,0,0,-1,895,1555,0.0812313,-15.7607
-322,-531,-1.23248,15.6156,0,0,0,0,0,0,0,-1,902,1555,-1.2325,-15.6156
-315,-531,2.90259,16.536,0,0,0,0,0,0,0,-1,909,1555,2.90262,-16.536
-308,-531,2.6795,15.7117,0,0,0,0,0,0,0,-1,916,1555,2.67952,-15.7116
-301,-531,2.01031,15.2048,0,0,0,0,0,0,0,-1,923,1555,2.01033,-15.2049
-294,-531,-1.3244,8.1825,0,0,0,0,0,0,0,-1,930,1555,-1.3244,-8.18251
-287,-531,-1.78192,10.1661,0,0,0,0,0,0,0,-1,937,1555,-1.78192,-10.1661
-280,-531,-2.14508,10.3945,0,0,0,0,0,0,0,-1,944,1555,-2.14506,-10.3945
-273,-531,-2.50818,10.6229,0,0,0,0,0,0,0,-1,951,1555,-2.5082,-10.6229
-266,-531,-4.97742,17.9215,0,0,0,0,0,0,0,-1,958,1555,-4.97744,-17.9215
-259,-531,0,0,0,0,0,0,0,0,0,-1,965,1555,0,0
-252,-531,0,0,0,0,0,0,0,0,0,-1,972,1555,0,0
-245,-531,0,0,0,0,0,0,0,0,0,-1,979,1555,0,0
-238,-531,0,0,0,0,0,0,0,0,0,-1,986,1555,0,0
-231,-531,0,0,0,0,0,0,0,0,0,-1,993,1555,0,0
-224,-531,0,0,0,0,0,0,0,0,0,-1,1000,1555,0,0
-217,-531,0,0,0,0,0,0,0,0,0,-1,1007,1555,0,0
-210,-531,0,0,0,0,0,0,0,0,0,-1,1014,1555,0,0
-203,-531,0,0,0,0,0,0,0,0,0,-1,1021,1555,0,0
-196,-531,0,0,0,0,0,0,0,0,0,-1,1028,1555,0,0
-189,-531,0,0,0,0,0,0,0,0,0,-1,1035,1555,0,0
-182,-531,0,0,0,0,0,0,0,0,0,-1,1042,1555,0,0
-175,-531,0,0,0,0,0,0,0,0,0,-1,1049,1555,0,0
-168,-531,0,0,0,0,0,0,0,0,0,-1,1056,1555,0,0
-161,-531,0,0,0,0,0,0,0,0,0,-1,1063,1555,0,0
-154,-531,0,0,0,0,0,0,0,0,0,-1,1070,1555,0,0
-147,-531,0,0,0,0,0,0,0,0,0,-1,1077,1555,0,0
-140,-531,0,0,0,0,0,0,0,0,0,-1,1084,1555,0,0
-133,-531,0,0,0,0,0,0,0,0,0,-1,1091,1555,0,0
-126,-531,0,0,0,0,0,0,0,0,0,-1,1098,1555,0,0
-119,-531,0,0,0,0,0,0,0,0,0,-1,1105,1555,0,0
-112,-531,0,0,0,0,0,0,0,0,0,-1,1112,1555,0,0
-105,-531,0,0,0,0,0,0,0,0,0,-1,1119,1555,0,0
-98,-531,0,0,0,0,0,0,0,0,0,-1,1126,1555,0,0
-91,-531,0,0,0,0,0,0,0,0,0,-1,1133,1555,0,0
-84,-531,0,0,0,0,0,0,0,0,0,-1,1140,1555,0,0
-77,-531,0,0,0,0,0,0,0,0,0,-1,1147,1555,0,0
-70,-531,0,0,0,0,0,0,0,0,0,-1,1154,1555,0,0
-63,-531,0,0,0,0,0,0,0,0,0,-1,1161,1555,0,0
-56,-531,0,0,0,0,0,0,0,0,0,-1,1168,1555,0,0
-49,-531,0,0,0,0,0,0,0,0,0,-1,1175,1555,0,0
-42,-531,0,0,0,0,0,0,0,0,0,-1,1182,1555,0,0
-35,-531,0,0,0,0,0,0,0,0,0,-1,1189,1555,0,0
-28,-531,0,0,0,0,0,0,0,0,0,-1,1196,1555,0,0
-21,-531,0,0,0,0,0,0,0,0,0,-1,1203,1555,0,0
-14,-531,0,0,0,0,0,0,0,0,0,-1,1210,1555,0,0
-7,-531,0,0,0,0,0,0,0,0,0,-1,1217,1555,0,0
0,-531,0,0,0,0,0,0,0,0,0,-1,1224,1555,0,0
7,-531,0,0,0,0,0,0,0,0,0,-1,1231,1555,0,0
14,-531,0,0,0,0,0,0,0,0,0,-1,1238,1555,0,0
21,-531,0,0,0,0,0,0,0,0,0,-1,1245,1555,0,0
28,-531,0,0,0,0,0,0,0,0,0,-1,1252,1555,0,0
35,-531,0,0,0,0,0,0,0,0,0,-1,1259,1555,0,0
42,-531,0,0,0,0,0,0,0,0,0,-1,1266,1555,0,0
49,-531,0,0,0,0,0,0,0,0,0,-1,1273,1555,0,0
56,-531,0,0,0,0,0,0,0,0,0,-1,1280,1555,0,0
63,-531,0,0,0,0,0,0,0,0,0,-1,1287,1555,0,0
70,-531,0,0,0,0,0,0,0,0,0,-1,1294,1555,0,0
77,-531,0,0,0,0,0,0,0,0,0,-1,1301,1555,0,0
84,-531,0,0,0,0,0,0,0,0,0,-1,1308,1555,0,0
91,-531,0,0,0,0,0,0,0,0,0,-1,1315,1555,0,0
98,-531,0,0,0,0,0,0,0,0,0,-1,1322,1555,0,0
105,-531,0,0,0,0,0,0,0,0,0,-1,1329,1555,0,0
112,-531,0,0,0,0,0,0,0,0,0,-1,1336,1555,0,0
119,-531,0,0,0,0,0,0,0,0,0,-1,1343,1555,0,0
126,-531,0,0,0,0,0,0,0,0,0,-1,1350,1555,0,0
133,-531,0,0,0,0,0,0,0,0,0,-1,1357,1555,0,0
140,-531,0,0,0,0,0,0,0,0,0,-1,1364,1555,0,0
147,-531,0,0,0,0,0,0,0,0,0,-1,1371,1555,0,0
154,-531,0,0,0,0,0,0,0,0,0,-1,1378,1555,0,0
161,-531,0,0,0,0,0,0,0,0,0,-1,1385,1555,0,0
168,-531,0,0,0,0,0,0,0,0,0,-1,1392,1555,0,0
175,-531,0,0,0,0,0,0,0,0,0,-1,1399,1555,0,0
182,-531,0,0,0,0,0,0,0,0,0,-1,1406,1555,0,0
189,-531,0,0,0,0,0,0,0,0,0,-1,1413,1555,0,0
196,-531,0,0,0,0,0,0,0,0,0,-1,1420,1555,0,0
203,-531,0,0,0,0,0,0,0,0,0,-1,1427,1555,0,0
210,-531,0,0,0,0,0,0,0,0,0,-1,1434,1555,0,0
217,-531,0,0,0,0,0,0,0,0,0,-1,1441,1555,0,0
224,-531,0,0,0,0,0,0,0,0,0,-1,1448,1555,0,0
231,-531,0,0,0,0,0,0,0,0,0,-1,1455,1555,0,0
238,-531,0,0,0,0,0,0,0,0,0,-1,1462,1555,0,0
245,-531,0,0,0,0,0,0,0,0,0,-1,1469,1555,0,0
252,-531,0,0,0,0,0,0,0,0,0,-1,1476,1555,0,0
259,-531,0,0,0,0,0,0,0,0,0,-1,1483,1555,0,0
266,-531,0,0,0,0,0,0,0,0,0,-1,1490,1555,0,0
273,-531,0,0,0,0,0,0,0,0,0,-1,1497,1555,0,0
280,-531,0,0,0,0,0,0,0,0,0,-1,1504,1555,0,0
287,-531,0,0,0,0,0,0,0,0,0,-1,1511,1555,0,0
294,-531,0,0,0,0,0,0,0,0,0,-1,1518,1555,0,0
301,-531,0,0,0,0,0,0,0,0,0,-1,1525,1555,0,0
308,-531,0,0,0,0,0,0,0,0,0,-1,1532,1555,0,0
315,-531,0,0,0,0,0,0,0,0,0,-1,1539,1555,0,0
322,-531,0,0,0,0,0,0,0,0,0,-1,1546,1555,0,0
329,-531,0,0,0,0,0,0,0,0,0,-1,1553,1555,0,0
336,-531,0,0,0,0,0,0,0,0,0,-1,1560,1555,0,0
343,-531,0,0,0,0,0,0,0,0,0,-1,1567,1555,0,0
350,-531,0,0,0,0,0,0,0,0,0,-1,1574,1555,0,0
357,-531,0,0,0,0,0,0,0,0,0,-1,1581,1555,0,0
364,-531,0,0,0,0,0,0,0,0,0,-1,1588,1555,0,0
371,-531,0,0,0,0,0,0,0,0,0,-1,1595,1555,0,0
378,-531,0,0,0,0,0,0,0,0,0,-1,1602,1555,0,0
385,-531,3.48169,1.78625,0,0,0,0,0,0,0,-1,1609,1555,3.48165,-1.78624
392,-531,10.8781,9.09204,0,0,0,0,0,0,0,-1,1616,1555,10.8781,-9.09205
399,-531,8.26306,5.29602,0,0,0,0,0,0,0,-1,1623,1555,8.26302,-5.29607
406,-531,8.26147,5.42712,0,0,0,0,0,0,0,-1,1630,1555,8.26145,-5.42716
413,-531,8.20618,5.75012,0,0,0,0,0,0,0,-1,1637,1555,8.20619,-5.75017
420,-531,7.64868,7.09558,0,0,0,0,0,0,0,-1,1644,1555,7.64867,-7.09564
427,-531,9.93054,11.8412,0,0,0,0,0,0,0,-1,1651,1555,9.93059,-11.8412
434,-531,10.244,11.7072,0,0,0,0,0,0,0,-1,1658,1555,10.244,-11.7071
441,-531,11.4528,12.9397,0,0,0,0,0,0,0,-1,1665,1555,11.4528,-12.9397
448,-531,8.70752,11.1261,0,0,0,0,0,0,0,-1,1672,1555,8.70751,-11.126
455,-531,14.4877,9.67065,0,0,0,0,0,0,0,-1,1679,1555,14.4876,-9.67066
462,-531,16.1761,14.4786,0,0,0,0,0,0,0,-1,1686,1555,16.1762,-14.4786
469,-531,14.9055,15.0193,0,0,0,0,0,0,0,-1,1693,1555,14.9055,-15.0193
476,-531,12.8657,13.4321,0,0,0,0,0,0,0,-1,1700,1555,12.8658,-13.4322
483,-531,12.2219,15.8564,0,0,0,0,0,0,0,-1,1707,1555,12.2219,-15.8565
490,-531,12.4413,15.8669,0,0,0,0,0,0,0,-1,1714,1555,12.4413,-15.8669
497,-531,12.3729,15.7501,0,0,0,0,0,0,0,-1,1721,1555,12.3729,-15.7501
504,-531,12.0507,15.7067,-0.00430964,-0.00947937,0.0114984,0.00489084,-0.0186798,0.674835,0.0143638,0.0158115,1728,1555,12.0507,-15.7066
511,-531,12.0735,15.4097,-0.00318041,-0.00805414,0.00860318,0.00332437,-0.0145589,0.647387,0.0109831,0.0132825,1735,1555,12.0735,-15.4097
518,-531,12.0792,15.118,-0.00220061,-0.00585207,0.00615129,0.00239018,-0.0104429,0.641137,0.0078804,0.0141377,1742,1555,12.0793,-15.1181
525,-531,12.0884,14.8265,-0.00143181,-0.00394906,0.00424527,0.00173748,-0.00711835,0.641287,0.00541839,0.0138558,1749,1555,12.0884,-14.8265
532,-531,12.116,14.5083,-0.000923388,-0.00253654,0.00283475,0.0012173,-0.00467724,0.646795,0.00359333,0.0104165,1756,1555,12.1159,-14.5082
539,-531,12.0925,14.1986,-0.00041131,-0.00142783,0.00171083,0.000865161,-0.00270431,0.641008,0.00215008,0.0113028,1763,1555,12.0925,-14.1986
546,-531,12.0663,13.8875,0.000224277,-0.000444902,0.00071412,0.000678305,-0.00089893,0.566319,0.000913582,0.0152358,1770,1555,12.0662,-13.8874
553,-531,12.0664,13.5941,0.000708106,0.000149198,-0.000150162,0.000745895,0.000111409,-0.246536,0.000464601,0.0299431,1777,1555,12.0664,-13.5942
560,-531,11.9962,13.2999,0.00121069,0.000418434,-0.000655181,0.00158019,4.89395e-05,-0.513497,0.00103753,0.0339345,1784,1555,11.9962,-13.2999
567,-531,12.0159,13.0146,0.00190874,0.000868143,-0.00126319,0.00275459,2.2294e-05,-0.59004,0.00182901,0.0199439,1791,1555,12.0158,-13.0147
574,-531,12.0566,12.7109,0.00273059,0.00156308,-0.00209189,0.00431865,-2.49757e-05,-0.649332,0.00288746,0.0133572,1798,1555,12.0567,-12.7109
581,-531,12.0825,12.3856,0.00371229,0.00231058,-0.00308792,0.0061779,-0.000155026,-0.673805,0.00417123,0.0123007,1805,1555,12.0825,-12.3856
588,-531,12.0907,12.0247,0.00456612,0.00315494,-0.00421734,0.00813648,-0.000415423,-0.702512,0.00556796,0.0193364,1812,1555,12.0907,-12.0247
595,-531,12.1725,11.5654,0.00552363,0.00436861,-0.00571608,0.0106913,-0.000799053,-0.735053,0.00740826,0.0417122,1819,1555,12.1725,-11.5654
602,-531,12.5493,10.9264,0,0,0,0,0,0,0,-1,1826,1555,12.5493,-10.9264
609,-531,10.9072,8.50903,0,0,0,0,0,0,0,-1,1833,1555,10.9073,-8.50902
616,-531,10.5723,7.17859,0,0,0,0,0,0,0,-1,1840,1555,10.5723,-7.17855
623,-531,10.0674,5.08984,0,0,0,0,0,0,0,-1,1847,1555,10.0674,-5.08981
630,-531,11.672,3.18909,0,0,0,0,0,0,0,-1,1854,1555,11.672,-3.18904
637,-531,13.2546,1.38965,0,0,0,0,0,0,0,-1,1861,1555,13.2547,-1.3896
644,-531,0,0,0,0,0,0,0,0,0,-1,1868,1555,0,0
651,-531,0,0,0,0,0,0,0,0,0,-1,1875,1555,0,0
658,-531,0,0,0,0,0,0,0,0,0,-1,1882,1555,0,0
665,-531,0,0,0,0,0,0,0,0,0,-1,1889,1555,0,0
672,-531,0,0,0,0,0,0,0,0,0,-1,1896,1555,0,0
679,-531,0,0,0,0,0,0,0,0,0,-1,1903,1555,0,0
686,-531,0,0,0,0,0,0,0,0,0,-1,1910,1555,0,0
693,-531,0,0,0,0,0,0,0,0,0,-1,1917,1555,0,0
700,-531,0,0,0,0,0,0,0,0,0,-1,1924,1555,0,0
707,-531,0,0,0,0,0,0,0,0,0,-1,1931,1555,0,0
714,-531,0,0,0,0,0,0,0,0,0,-1,1938,1555,0,0
721,-531,0,0,0,0,0,0,0,0,0,-1,1945,1555,0,0
728,-531,0,0,0,0,0,0,0,0,0,-1,1952,1555,0,0
735,-531,0,0,0,0,0,0,0,0,0,-1,1959,1555,0,0
742,-531,0,0,0,0,0,0,0,0,0,-1,1966,1555,0,0
749,-531,0,0,0,0,0,0,0,0,0,-1,1973,1555,0,0
756,-531,0,0,0,0,0,0,0,0,0,-1,1980,1555,0,0
763,-531,0,0,0,0,0,0,0,0,0,-1,1987,1555,0,0
770,-531,0,0,0,0,0,0,0,0,0,-1,1994,1555,0,0
777,-531,0,0,0,0,0,0,0,0,0,-1,2001,1555,0,0
784,-531,0,0,0,0,0,0,0,0,0,-1,2008,1555,0,0
791,-531,0,0,0,0,0,0,0,0,0,-1,2015,1555,0,0
798,-531,0,0,0,0,0,0,0,0,0,-1,2022,1555,0,0
805,-531,0,0,0,0,0,0,0,0,0,-1,2029,1555,0,0
812,-531,0,0,0,0,0,0,0,0,0,-1,2036,1555,0,0
-700,-538,0,0,0,0,0,0,0,0,0,-1,524,1562,0,0
-693,-538,0,0,0,0,0,0,0,0,0,-1,531,1562,0,0
-686,-538,0,0,0,0,0,0,0,0,0,-1,538,1562,0,0
-679,-538,0,0,0,0,0,0,0,0,0,-1,545,1562,0,0
-672,-538,0,0,0,0,0,0,0,0,0,-1,552,1562,0,0
-665,-538,0,0,0,0,0,0,0,0,0,-1,559,1562,0,0
-658,-538,0,0,0,0,0,0,0,0,0,-1,566,1562,0,0
-651,-538,0,0,0,0,0,0,0,0,0,-1,573,1562,0,0
-644,-538,0,0,0,0,0,0,0,0,0,-1,580,1562,0,0
-637,-538,0,0,0,0,0,0,0,0,0,-1,587,1562,0,0
-630,-538,0,0,0,0,0,0,0,0,0,-1,594,1562,0,0
-623,-538,0,0,0,0,0,0,0,0,0,-1,601,1562,0,0
-616,-538,0,0,0,0,0,0,0,0,0,-1,608,1562,0,0
-609,-538,0,0,0,0,0,0,0,0,0,-1,615,1562,0,0
-602,-538,0,0,0,0,0,0,0,0,0,-1,622,1562,0,0
-595,-538,0,0,0,0,0,0,0,0,0,-1,629,1562,0,0
-588,-538,0,0,0,0,0,0,0,0,0,-1,636,1562,0,0
-581,-538,0,0,0,0,0,0,0,0,0,-1,643,1562,0,0
-574,-538,0,0,0,0,0,0,0,0,0,-1,650,1562,0,0
-567,-538,0,0,0,0,0,0,0,0,0,-1,657,1562,0,0
-560,-538,0,0,0,0,0,0,0,0,0,-1,664,1562,0,0
-553,-538,0,0,0,0,0,0,0,0,0,-1,671,1562,0,0
-546,-538,0,0,0,0,0,0,0,0,0,-1,678,1562,0,0
-539,-538,0,0,0,0,0,0,0,0,0,-1,685,1562,0,0
-532,-538,0,0,0,0,0,0,0,0,0,-1,692,1562,0,0
-525,-538,0,0,0,0,0,0,0,0,0,-1,699,1562,0,0
-518,-538,0,0,0,0,0,0,0,0,0,-1,706,1562,0,0
-511,-538,-2.6582,-1.54321,0,0,0,0,0,0,0,-1,713,1562,-2.65821,1.54327
-504,-538,-2.66455,-0.71167,0,0,0,0,0,0,0,-1,720,1562,-2.66456,0.711667
-497,-538,-0.763855,6.77747,0,0,0,0,0,0,0,-1,727,1562,-0.76385,-6.77743
-490,-538,-2.70453,8.01465,0,0,0,0,0,0,0,-1,734,1562,-2.70451,-8.0147
-483,-538,-0.933533,7.84644,0,0,0,0,0,0,0,-1,741,1562,-0.933548,-7.84638
-476,-538,-0.43866,8.38074,-0.000650551,0.0599664,0.025553,0.0693008,-0.00998501,1.22056,0.0498633,0.0464316,748,1562,-0.438631,-8.38068
-469,-538,-0.0881348,9.1344,0,0,0,0,0,0,0,-1,755,1562,-0.0881449,-9.13445
-462,-538,-0.113464,9.65601,-0.000643653,0.0360499,0.0177764,0.0432492,-0.00784299,1.18599,0.0317715,0.0427389,762,1562,-0.113461,-9.65606
-455,-538,-0.327087,10.6198,-0.000330635,0.027525,0.0145782,0.0337592,-0.00656484,1.16669,0.0249836,0.0383766,769,1562,-0.327092,-10.6198
-448,-538,-0.242859,10.9579,-4.54562e-05,0.0204489,0.011588,0.0256706,-0.00526716,1.14743,0.019113,0.016968,776,1562,-0.242879,-10.9578
-441,-538,-0.29895,11.3263,0.00030492,0.0149381,0.00903287,0.0192458,-0.00400283,1.1258,0.0143521,0.0173354,783,1562,-0.298936,-11.3262
-434,-538,-0.333252,11.6157,0.000650608,0.010742,0.00694067,0.0142772,-0.0028846,1.0997,0.0106112,0.0120326,790,1562,-0.333261,-11.6158
-427,-538,-0.353333,11.9519,0.00101158,0.00783776,0.0054188,0.0108288,-0.00197944,1.06644,0.00796145,0.0134924,797,1562,-0.353329,-11.9519
-420,-538,-0.366516,12.2644,0.00104278,0.00470008,0.00369606,0.00699513,-0.00125226,1.01512,0.00513202,0.0173175,804,1562,-0.366496,-12.2644
-413,-538,-0.375,12.5958,0.00123339,0.00359221,0.00276718,0.00542084,-0.000595236,0.986847,0.00382776,0.0173108,811,1562,-0.375017,-12.5958
-406,-538,-0.360474,12.9026,0.00126859,0.00248128,0.00188213,0.00385232,-0.000102456,0.941229,0.00260304,0.0139233,818,1562,-0.360456,-12.9026
-399,-538,-0.351501,13.226,0.0012685,0.00217068,0.00128995,0.00308613,0.000353044,0.9536,0.00195042,0.0133545,825,1562,-0.351517,-13.226
-392,-538,-0.343872,13.5469,0.00148832,0.0019492,0.000784807,0.0025367,0.000900819,0.9282,0.00148492,0.0144716,832,1562,-0.343875,-13.5469
-385,-538,-0.382446,13.8828,0.00212963,0.00164893,0.000413297,0.00236738,0.00141117,0.522028,0.0013752,0.0128626,839,1562,-0.382464,-13.8828
-378,-538,-0.379211,14.1938,0.00287187,0.000862294,0.000202773,0.00289213,0.000842037,0.0995658,0.00171764,0.0103078,846,1562,-0.379185,-14.1939
-371,-538,-0.39801,14.4967,0.00378529,0.00028234,-3.07978e-05,0.00378556,0.00028207,-0.00879105,0.00243514,0.0113828,853,1562,-0.398029,-14.4967
-364,-538,-0.348877,14.8552,0.00485641,-0.000875661,-0.000535643,0.00490603,-0.000925285,-0.0923811,0.00361876,0.0125637,860,1562,-0.348887,-14.8553
-357,-538,-0.338745,15.1958,0.00622251,-0.00230213,-0.0013439,0.00642935,-0.00250898,-0.152716,0.00532344,0.0242227,867,1562,-0.338725,-15.1959
-350,-538,-0.43634,15.486,0.00816708,-0.00440921,-0.00209199,0.00850594,-0.00474807,-0.160585,0.00775405,0.0354842,874,1562,-0.436316,-15.486
-343,-538,-0.258911,15.762,0.0105707,-0.00710759,-0.00288688,0.0110302,-0.00756708,-0.15784,0.010799,0.0463921,881,1562,-0.258916,-15.7619
-336,-538,0.243103,15.7034,0.0135691,-0.00975457,-0.0033767,0.0140481,-0.0102336,-0.140922,0.0140766,0.0437147,888,1562,0.243098,-15.7033
-329,-538,0.633667,15.8331,0,0,0,0,0,0,0,-1,895,1562,0.633677,-15.8332
-322,-538,-0.591919,15.2153,0,0,0,0,0,0,0,-1,902,1562,-0.591889,-15.2153
-315,-538,2.45172,16.6761,0,0,0,0,0,0,0,-1,909,1562,2.45172,-16.6762
-308,-538,1.88416,16.1573,0,0,0,0,0,0,0,-1,916,1562,1.88413,-16.1573
-301,-538,1.31744,15.8439,0,0,0,0,0,0,0,-1,923,1562,1.31742,-15.8439
-294,-538,1.23138,14.0757,0,0,0,0,0,0,0,-1,930,1562,1.23137,-14.0757
-287,-538,-2.60419,10.2361,0,0,0,0,0,0,0,-1,937,1562,-2.6042,-10.2361
-280,-538,-2.93475,10.5106,0,0,0,0,0,0,0,-1,944,1562,-2.93475,-10.5106
-273,-538,-3.26532,10.785,0,0,0,0,0,0,0,-1,951,1562,-3.26531,-10.785
-266,-538,-5.03412,15.9951,0,0,0,0,0,0,0,-1,958,1562,-5.03409,-15.9951
-259,-538,-5.89642,16.5184,0,0,0,0,0,0,0,-1,965,1562,-5.89644,-16.5184
-252,-538,0,0,0,0,0,0,0,0,0,-1,972,1562,0,0
-245,-538,0,0,0,0,0,0,0,0,0,-1,979,1562,0,0
-238,-538,0,0,0,0,0,0,0,0,0,-1,986,1562,0,0
-231,-538,0,0,0,0,0,0,0,0,0,-1,993,1562,0,0
-224,-538,0,0,0,0,0,0,0,0,0,-1,1000,1562,0,0
-217,-538,0,0,0,0,0,0,0,0,0,-1,1007,1562,0,0
-210,-538,0,0,0,0,0,0,0,0,0,-1,1014,1562,0,0
-203,-538,0,0,0,0,0,0,0,0,0,-1,1021,1562,0,0
-196,-538,0,0,0,0,0,0,0,0,0,-1,1028,1562,0,0
-189,-538,0,0,0,0,0,0,0,0,0,-1,1035,1562,0,0
-182,-538,0,0,0,0,0,0,0,0,0,-1,1042,1562,0,0
-175,-538,0,0,0,0,0,0,0,0,0,-1,1049,1562,0,0
-168,-538,0,0,0,0,0,0,0,0,0,-1,1056,1562,0,0
-161,-538,0,0,0,0,0,0,0,0,0,-1,1063,1562,0,0
-154,-538,0,0,0,0,0,0,0,0,0,-1,1070,1562,0,0
-147,-538,0,0,0,0,0,0,0,0,0,-1,1077,1562,0,0
-140,-538,0,0,0,0,0,0,0,0,0,-1,1084,1562,0,0
-133,-538,0,0,0,0,0,0,0,0,0,-1,1091,1562,0,0
-126,-538,0,0,0,0,0,0,0,0,0,-1,1098,1562,0,0
-119,-538,0,0,0,0,0,0,0,0,0,-1,1105,1562,0,0
-112,-538,0,0,0,0,0,0,0,0,0,-1,1112,1562,0,0
-105,-538,0,0,0,0,0,0,0,0,0,-1,1119,1562,0,0
-98,-538,0,0,0,0,0,0,0,0,0,-1,1126,1562,0,0
-91,-538,0,0,0,0,0,0,0,0,0,-1,1133,1562,0,0
-84,-538,0,0,0,0,0,0,0,0,0,-1,1140,1562,0,0
-77,-538,0,0,0,0,0,0,0,0,0,-1,1147,1562,0,0
-70,-538,0,0,0,0,0,0,0,0,0,-1,1154,1562,0,0
-63,-538,0,0,0,0,0,0,0,0,0,-1,1161,1562,0,0
-56,-538,0,0,0,0,0,0,0,0,0,-1,1168,1562,0,0
-49,-538,0,0,0,0,0,0,0,0,0,-1,1175,1562,0,0
-42,-538,0,0,0,0,0,0,0,0,0,-1,1182,1562,0,0
-35,-538,0,0,0,0,0,0,0,0,0,-1,1189,1562,0,0
-28,-538,0,0,0,0,0,0,0,0,0,-1,1196,1562,0,0
-21,-538,0,0,0,0,0,0,0,0,0,-1,1203,1562,0,0
-14,-538,0,0,0,0,0,0,0,0,0,-1,1210,1562,0,0
-7,-538,0,0,0,0,0,0,0,0,0,-1,1217,1562,0,0
0,-538,0,0,0,0,0,0,0,0,0,-1,1224,1562,0,0
7,-538,0,0,0,0,0,0,0,0,0,-1,1231,1562,0,0
14,-538,0,0,0,0,0,0,0,0,0,-1,1238,1562,0,0
21,-538,0,0,0,0,0,0,0,0,0,-1,1245,1562,0,0
28,-538,0,0,0,0,0,0,0,0,0,-1,1252,1562,0,0
35,-538,0,0,0,0,0,0,0,0,0,-1,1259,1562,0,0
42,-538,0,0,0,0,0,0,0,0,0,-1,1266,1562,0,0
49,-538,0,0,0,0,0,0,0,0,0,-1,1273,1562,0,0
56,-538,0,0,0,0,0,0,0,0,0,-1,1280,1562,0,0
63,-538,0,0,0,0,0,0,0,0,0,-1,1287,1562,0,0
70,-538,0,0,0,0,0,0,0,0,0,-1,1294,1562,0,0
77,-538,0,0,0,0,0,0,0,0,0,-1,1301,1562,0,0
84,-538,0,0,0,0,0,0,0,0,0,-1,1308,1562,0,0
91,-538,0,0,0,0,0,0,0,0,0,-1,1315,1562,0,0
98,-538,0,0,0,0,0,0,0,0,0,-1,1322,1562,0,0
105,-538,0,0,0,0,0,0,0,0,0,-1,1329,1562,0,0
112,-538,0,0,0,0,0,0,0,0,0,-1,1336,1562,0,0
119,-538,0,0,0,0,0,0,0,0,0,-1,1343,1562,0,0
126,-538,0,0,0,0,0,0,0,0,0,-1,1350,1562,0,0
133,-538,0,0,0,0,0,0,0,0,0,-1,1357,1562,0,0
140,-538,0,0,0,0,0,0,0,0,0,-1,1364,1562,0,0
147,-538,0,0,0,0,0,0,0,0,0,-1,1371,1562,0,0
154,-538,0,0,0,0,0,0,0,0,0,-1,1378,1562,0,0
161,-538,0,0,0,0,0,0,0,0,0,-1,1385,1562,0,0
168,-538,0,0,0,0,0,0,0,0,0,-1,1392,1562,0,0
175,-538,0,0,0,0,0,0,0,0,0,-1,1399,1562,0,0
182,-538,0,0,0,0,0,0,0,0,0,-1,1406,1562,0,0
189,-538,0,0,0,0,0,0,0,0,0,-1,1413,1562,0,0
196,-538,0,0,0,0,0,0,0,0,0,-1,1420,1562,0,0
203,-538,0,0,0,0,0,0,0,0,0,-1,1427,1562,0,0
210,-538,0,0,0,0,0,0,0,0,0,-1,1434,1562,0,0
217,-538,0,0,0,0,0,0,0,0,0,-1,1441,1562,0,0
224,-538,0,0,0,0,0,0,0,0,0,-1,1448,1562,0,0
231,-538,0,0,0,0,0,0,0,0,0,-1,1455,1562,0,0
238,-538,0,0,0,0,0,0,0,0,0,-1,1462,1562,0,0
245,-538,0,0,0,0,0,0,0,0,0,-1,1469,1562,0,0
252,-538,0,0,0,0,0,0,0,0,0,-1,1476,1562,0,0
259,-538,0,0,0,0,0,0,0,0,0,-1,1483,1562,0,0
266,-538,0,0,0,0,0,0,0,0,0,-1,1490,1562,0,0
273,-538,0,0,0,0,0,0,0,0,0,-1,1497,1562,0,0
280,-538,0,0,0,0,0,0,0,0,0,-1,1504,1562,0,0
287,-538,0,0,0,0,0,0,0,0,0,-1,1511,1562,0,0
294,-538,0,0,0,0,0,0,0,0,0,-1,1518,1562,0,0
301,-538,0,0,0,0,0,0,0,0,0,-1,1525,1562,0,0
308,-538,0,0,0,0,0,0,0,0,0,-1,1532,1562,0,0
315,-538,0,0,0,0,0,0,0,0,0,-1,1539,1562,0,0
322,-538,0,0,0,0,0,0,0,0,0,-1,1546,1562,0,0
329,-538,0,0,0,0,0,0,0,0,0,-1,1553,1562,0,0
336,-538,0,0,0,0,0,0,0,0,0,-1,1560,1562,0,0
343,-538,0,0,0,0,0,0,0,0,0,-1,1567,1562,0,0
350,-538,0,0,0,0,0,0,0,0,0,-1,1574,1562,0,0
357,-538,0,0,0,0,0,0,0,0,0,-1,1581,1562,0,0
364,-538,0,0,0,0,0,0,0,0,0,-1,1588,1562,0,0
371,-538,0,0,0,0,0,0,0,0,0,-1,1595,1562,0,0
378,-538,9.65479,5.82434,0,0,0,0,0,0,0,-1,1602,1562,9.6548,-5.82439
385,-538,10.5449,7.9502,0,0,0,0,0,0,0,-1,1609,1562,10.5449,-7.95014
392,-538,8.20361,7.07214,0,0,0,0,0,0,0,-1,1616,1562,8.20362,-7.07211
399,-538,7.85425,4.70508,0,0,0,0,0,0,0,-1,1623,1562,7.85425,-4.70512
406,-538,7.77734,4.96094,0,0,0,0,0,0,0,-1,1630,1562,7.77729,-4.96097
413,-538,13.0446,13.1765,0,0,0,0,0,0,0,-1,1637,1562,13.0446,-13.1765
420,-538,9.96216,12.7653,0,0,0,0,0,0,0,-1,1644,1562,9.96221,-12.7653
427,-538,10.1732,14.5863,0,0,0,0,0,0,0,-1,1651,1562,10.1732,-14.5863
434,-538,9.64331,14.7745,0,0,0,0,0,0,0,-1,1658,1562,9.64326,-14.7746
441,-538,11.2271,20.7618,0,0,0,0,0,0,0,-1,1665,1562,11.2271,-20.7618
448,-538,11.9348,13.1129,0,0,0,0,0,0,0,-1,1672,1562,11.9348,-13.1129
455,-538,15.2338,15.5929,0,0,0,0,0,0,0,-1,1679,1562,15.2338,-15.5929
462,-538,14.3962,15.5834,0,0,0,0,0,0,0,-1,1686,1562,14.3963,-15.5834
469,-538,13.5968,15.5762,0,0,0,0,0,0,0,-1,1693,1562,13.5968,-15.5761
476,-538,12.1132,16.4858,0,0,0,0,0,0,0,-1,1700,1562,12.1132,-16.4858
483,-538,11.9581,16.2224,-0.00697468,-0.00285494,0.0182021,0.0134034,-0.0232331,0.841742,0.0214044,0.0410819,1707,1562,11.9581,-16.2224
490,-538,11.7913,16.2002,-0.0053519,-0.00494081,0.0146165,0.00947158,-0.0197643,0.792429,0.0172245,0.0208709,1714,1562,11.7912,-16.2002
497,-538,11.7736,15.9823,-0.00397018,-0.00555751,0.0114817,0.00674526,-0.0162729,0.750891,0.0136638,0.0141254,1721,1562,11.7735,-15.9823
504,-538,11.8062,15.6842,-0.00282497,-0.00660201,0.00857233,0.0040644,-0.0134914,0.676978,0.0106118,0.00987156,1728,1562,11.8062,-15.6842
511,-538,11.7899,15.3937,-0.00193201,-0.00582345,0.00634874,0.00276247,-0.0105179,0.636706,0.00809152,0.00939896,1735,1562,11.7899,-15.3937
518,-538,11.7726,15.1075,-0.00115815,-0.00427365,0.00448292,0.00202995,-0.00746176,0.618182,0.00577141,0.0102496,1742,1562,11.7725,-15.1076
525,-538,11.7668,14.8136,-0.000553481,-0.00288109,0.00302869,0.00152731,-0.00496188,0.601966,0.00391756,0.0120596,1749,1562,11.7669,-14.8136
532,-538,11.7997,14.5116,-0.000205288,-0.00185465,0.00196854,0.00110434,-0.00316427,0.587039,0.00255835,0.0133149,1756,1562,11.7997,-14.5117
539,-538,11.7944,14.2258,0.000137405,-0.00106515,0.00112213,0.000809194,-0.00173694,0.539445,0.00150219,0.0151853,1763,1562,11.7945,-14.2258
546,-538,11.7672,13.9135,0.000548447,-0.000395063,0.00040061,0.000695595,-0.000542211,0.352012,0.000716475,0.0168291,1770,1562,11.7672,-13.9134
553,-538,11.7573,13.5839,0.000906734,-4.59334e-05,-0.000259494,0.000972831,-0.00011203,-0.249411,0.00068894,0.0262972,1777,1562,11.7573,-13.5838
560,-538,11.725,13.3333,0.00134103,0.000108247,-0.00058142,0.00157198,-0.000122702,-0.378105,0.00109119,0.0282442,1784,1562,11.725,-13.3332
567,-538,11.6912,13.0676,0.00198066,0.00055701,-0.00118053,0.00264737,-0.000109698,-0.514098,0.00180259,0.020885,1791,1562,11.6912,-13.0676
574,-538,11.7335,12.7208,0.00283216,0.00133278,-0.00210171,0.00431388,-0.000148943,-0.614081,0.00292683,0.0150871,1798,1562,11.7335,-12.7208
581,-538,11.7802,12.3574,0.00393788,0.00217645,-0.00326567,0.00643952,-0.000325183,-0.653688,0.00440541,0.0171291,1805,1562,11.7802,-12.3574
588,-538,11.8212,12.0201,0.00513012,0.00335397,-0.0047328,0.00905745,-0.000573358,-0.692655,0.00623821,0.0337862,1812,1562,11.8211,-12.0202
595,-538,11.9385,11.3828,0,0,0,0,0,0,0,-1,1819,1562,11.9385,-11.3829
602,-538,10.314,8.94238,0,0,0,0,0,0,0,-1,1826,1562,10.314,-8.94238
609,-538,10.1046,7.05713,0,0,0,0,0,0,0,-1,1833,1562,10.1046,-7.05719
616,-538,9.92249,5.43506,0,0,0,0,0,0,0,-1,1840,1562,9.92254,-5.43507
623,-538,11.1711,4.31604,0,0,0,0,0,0,0,-1,1847,1562,11.1711,-4.316
630,-538,12.6112,2.61633,0,0,0,0,0,0,0,-1,1854,1562,12.6112,-2.61637
637,-538,0,0,0,0,0,0,0,0,0,-1,1861,1562,0,0
644,-538,0,0,0,0,0,0,0,0,0,-1,1868,1562,0,0
651,-538,0,0,0,0,0,0,0,0,0,-1,1875,1562,0,0
658,-538,0,0,0,0,0,0,0,0,0,-1,1882,1562,0,0
665,-538,0,0,0,0,0,0,0,0,0,-1,1889,1562,0,0
672,-538,0,0,0,0,0,0,0,0,0,-1,1896,1562,0,0
679,-538,0,0,0,0,0,0,0,0,0,-1,1903,1562,0,0
686,-538,0,0,0,0,0,0,0,0,0,-1,1910,1562,0,0
693,-538,0,0,0,0,0,0,0,0,0,-1,1917,1562,0,0
700,-538,0,0,0,0,0,0,0,0,0,-1,1924,1562,0,0
707,-538,0,0,0,0,0,0,0,0,0,-1,1931,1562,0,0
714,-538,0,0,0,0,0,0,0,0,0,-1,1938,1562,0,0
721,-538,0,0,0,0,0,0,0,0,0,-1,1945,1562,0,0
728,-538,0,0,0,0,0,0,0,0,0,-1,1952,1562,0,0
735,-538,0,0,0,0,0,0,0,0,0,-1,1959,1562,0,0
742,-538,0,0,0,0,0,0,0,0,0,-1,1966,1562,0,0
749,-538,0,0,0,0,0,0,0,0,0,-1,1973,1562,0,0
756,-538,0,0,0,0,0,0,0,0,0,-1,1980,1562,0,0
763,-538,0,0,0,0,0,0,0,0,0,-1,1987,1562,0,0
770,-538,0,0,0,0,0,0,0,0,0,-1,1994,1562,0,0
777,-538,0,0,0,0,0,0,0,0,0,-1,2001,1562,0,0
784,-538,0,0,0,0,0,0,0,0,0,-1,2008,1562,0,0
791,-538,0,0,0,0,0,0,0,0,0,-1,2015,1562,0,0
798,-538,0,0,0,0,0,0,0,0,0,-1,2022,1562,0,0
805,-538,0,0,0,0,0,0,0,0,0,-1,2029,1562,0,0
812,-538,0,0,0,0,0,0,0,0,0,-1,2036,1562,0,0
-700,-545,0,0,0,0,0,0,0,0,0,-1,524,1569,0,0
-693,-545,0,0,0,0,0,0,0,0,0,-1,531,1569,0,0
-686,-545,0,0,0,0,0,0,0,0,0,-1,538,1569,0,0
-679,-545,0,0,0,0,0,0,0,0,0,-1,545,1569,0,0
-672,-545,0,0,0,0,0,0,0,0,0,-1,552,1569,0,0
-665,-545,0,0,0,0,0,0,0,0,0,-1,559,1569,0,0
-658,-545,0,0,0,0,0,0,0,0,0,-1,566,1569,0,0
-651,-545,0,0,0,0,0,0,0,0,0,-1,573,1569,0,0
-644,-545,0,0,0,0,0,0,0,0,0,-1,580,1569,0,0
-637,-545,0,0,0,0,0,0,0,0,0,-1,587,1569,0,0
-630,-545,0,0,0,0,0,0,0,0,0,-1,594,1569,0,0
-623,-545,0,0,0,0,0,0,0,0,0,-1,601,1569,0,0
-616,-545,0,0,0,0,0,0,0,0,0,-1,608,1569,0,0
-609,-545,0,0,0,0,0,0,0,0,0,-1,615,1569,0,0
-602,-545,0,0,0,0,0,0,0,0,0,-1,622,1569,0,0
-595,-545,0,0,0,0,0,0,0,0,0,-1,629,1569,0,0
-588,-545,0,0,0,0,0,0,0,0,0,-1,636,1569,0,0
-581,-545,0,0,0,0,0,0,0,0,0,-1,643,1569,0,0
-574,-545,0,0,0,0,0,0,0,0,0,-1,650,1569,0,0
-567,-545,0,0,0,0,0,0,0,0,0,-1,657,1569,0,0
-560,-545,0,0,0,0,0,0,0,0,0,-1,664,1569,0,0
-553,-545,0,0,0,0,0,0,0,0,0,-1,671,1569,0,0
-546,-545,0,0,0,0,0,0,0,0,0,-1,678,1569,0,0
-539,-545,0,0,0,0,0,0,0,0,0,-1,685,1569,0,0
-532,-545,0,0,0,0,0,0,0,0,0,-1,692,1569,0,0
-525,-545,0,0,0,0,0,0,0,0,0,-1,699,1569,0,0
-518,-545,0,0,0,0,0,0,0,0,0,-1,706,1569,0,0
-511,-545,0,0,0,0,0,0,0,0,0,-1,713,1569,0,0
-504,-545,-3.55237,-2.5354,0,0,0,0,0,0,0,-1,720,1569,-3.55236,2.53545
-497,-545,2.26575,5.69214,0,0,0,0,0,0,0,-1,727,1569,2.26573,-5.6922
-490,-545,-2.17334,7.81396,0,0,0,0,0,0,0,-1,734,1569,-2.17334,-7.81399
-483,-545,-1.88336,5.8446,0,0,0,0,0,0,0,-1,741,1569,-1.88334,-5.84466
-476,-545,-1.13147,6.5741,0,0,0,0,0,0,0,-1,748,1569,-1.13149,-6.57405
-469,-545,0.500305,8.22754,0,0,0,0,0,0,0,-1,755,1569,0.500333,-8.22759
-462,-545,0.550354,8.89697,0,0,0,0,0,0,0,-1,762,1569,0.550374,-8.89698
-455,-545,-0.000427246,10.4928,0,0,0,0,0,0,0,-1,769,1569,-0.000401572,-10.4928
-448,-545,0.267639,10.7014,0.00194456,0.0275303,0.0166425,0.0357286,-0.00625374,1.11308,0.0261541,0.0265304,776,1569,0.267641,-10.7014
-441,-545,0.102356,11.3518,0.00166457,0.0198028,0.012698,0.0263378,-0.00487038,1.0955,0.019387,0.0196986,783,1569,0.102336,-11.3519
-434,-545,-0.0441284,11.6467,0.00146551,0.0139693,0.0095346,0.0191189,-0.00368412,1.07559,0.014135,0.0158553,790,1569,-0.0441359,-11.6468
-427,-545,-0.0375977,11.9457,0.00136306,0.00990922,0.00720799,0.0140155,-0.00274326,1.05296,0.0103797,0.0178869,797,1569,-0.0375959,-11.9457
-420,-545,-0.0215454,12.2473,0.000981681,0.00579613,0.0048131,0.00877042,-0.00199261,1.01728,0.006612,0.0241996,804,1569,-0.0215517,-12.2473
-413,-545,-0.027771,12.5575,0.000918472,0.00419239,0.00345637,0.00637985,-0.00126898,1.00655,0.00473327,0.0225518,811,1569,-0.0277685,-12.5575
-406,-545,-0.0109863,12.8756,0.000847056,0.0027112,0.00229081,0.0042523,-0.000694038,0.978608,0.00309228,0.0165266,818,1569,-0.0109787,-12.8756
-399,-545,-0.0145264,13.2135,0.000741777,0.00215192,0.00149185,0.00309692,-0.000203226,1.00615,0.00213558,0.0114842,825,1569,-0.0145265,-13.2135
-392,-545,-0.0376587,13.5529,0.000899321,0.00166169,0.000850538,0.00221256,0.000348457,0.996064,0.0013737,0.0115011,832,1569,-0.0376409,-13.5529
-385,-545,-0.0374146,13.8945,0.00135186,0.00112355,0.000257275,0.00151917,0.000956244,0.576599,0.000886837,0.0096929,839,1569,-0.0374275,-13.8946
-378,-545,-0.0461426,14.217,0.00202902,0.00048676,4.76595e-05,0.00203049,0.000485288,0.0308631,0.00122439,0.0114689,846,1569,-0.0461713,-14.2171
-371,-545,-0.0585938,14.5441,0.00286515,7.89322e-05,-0.000146442,0.00287283,7.12564e-05,-0.0523669,0.00189191,0.0142826,853,1569,-0.0585929,-14.544
-364,-545,-0.0584717,14.8276,0.00384993,-0.000782865,-0.000511407,0.00390571,-0.000838647,-0.108646,0.00292373,0.00938119,860,1569,-0.0584651,-14.8276
-357,-545,-0.0132446,15.1912,0.00511917,-0.00186479,-0.00110392,0.00528951,-0.00203513,-0.153094,0.0043658,0.012058,867,1569,-0.0132495,-15.1912
-350,-545,0.0111694,15.5159,0.00669352,-0.00335842,-0.00162646,0.00695014,-0.00361504,-0.156487,0.00620028,0.0164915,874,1569,0.0111696,-15.5159
-343,-545,0.0447998,15.7618,0.00853294,-0.00513328,-0.00209711,0.0088475,-0.00544785,-0.14889,0.00833086,0.0246499,881,1569,0.0448258,-15.7619
-336,-545,0.137634,15.8467,0.0106156,-0.00665882,-0.00225645,0.0109055,-0.0069487,-0.127768,0.0103922,0.0335491,888,1569,0.137634,-15.8467
-329,-545,0.36554,15.6971,0.0129557,-0.00836898,-0.00225539,0.0131916,-0.00860491,-0.104228,0.0126768,0.0442461,895,1569,0.365519,-15.6971
-322,-545,0.496521,15.7346,0,0,0,0,0,0,0,-1,902,1569,0.496543,-15.7347
-315,-545,1.84412,16.5216,0,0,0,0,0,0,0,-1,909,1569,1.8441,-16.5216
-308,-545,-0.546082,18.2208,0,0,0,0,0,0,0,-1,916,1569,-0.546082,-18.2208
-301,-545,1.52191,17.5009,0,0,0,0,0,0,0,-1,923,1569,1.52192,-17.5008
-294,-545,-2.69287,8.42102,0,0,0,0,0,0,0,-1,930,1569,-2.69287,-8.42097
-287,-545,-3.47784,9.96021,0,0,0,0,0,0,0,-1,937,1569,-3.47785,-9.96021
-280,-545,-3.7879,10.5448,0,0,0,0,0,0,0,-1,944,1569,-3.78793,-10.5448
-273,-545,-5.10333,12.864,0,0,0,0,0,0,0,-1,951,1569,-5.10331,-12.864
-266,-545,-5.78955,13.3704,0,0,0,0,0,0,0,-1,958,1569,-5.78952,-13.3703
-259,-545,-6.32184,13.8101,0,0,0,0,0,0,0,-1,965,1569,-6.32182,-13.81
-252,-545,0.369263,7.54053,0,0,0,0,0,0,0,-1,972,1569,0.369276,-7.54056
-245,-545,-0.236633,6.65564,0,0,0,0,0,0,0,-1,979,1569,-0.236605,-6.65566
-238,-545,0,0,0,0,0,0,0,0,0,-1,986,1569,0,0
-231,-545,0,0,0,0,0,0,0,0,0,-1,993,1569,0,0
-224,-545,0,0,0,0,0,0,0,0,0,-1,1000,1569,0,0
-217,-545,0,0,0,0,0,0,0,0,0,-1,1007,1569,0,0
-210,-545,0,0,0,0,0,0,0,0,0,-1,1014,1569,0,0
-203,-545,0,0,0,0,0,0,0,0,0,-1,1021,1569,0,0
-196,-545,0,0,0,0,0,0,0,0,0,-1,1028,1569,0,0
-189,-545,0,0,0,0,0,0,0,0,0,-1,1035,1569,0,0
-182,-545,0,0,0,0,0,0,0,0,0,-1,1042,1569,0,0
-175,-545,0,0,0,0,0,0,0,0,0,-1,1049,1569,0,0
-168,-545,0,0,0,0,0,0,0,0,0,-1,1056,1569,0,0
-161,-545,0,0,0,0,0,0,0,0,0,-1,1063,1569,0,0
-154,-545,0,0,0,0,0,0,0,0,0,-1,1070,1569,0,0
-147,-545,0,0,0,0,0,0,0,0,0,-1,1077,1569,0,0
-140,-545,0,0,0,0,0,0,0,0,0,-1,1084,1569,0,0
-133,-545,0,0,0,0,0,0,0,0,0,-1,1091,1569,0,0
-126,-545,0,0,0,0,0,0,0,0,0,-1,1098,1569,0,0
-119,-545,0,0,0,0,0,0,0,0,0,-1,1105,1569,0,0
-112,-545,0,0,0,0,0,0,0,0,0,-1,1112,1569,0,0
-105,-545,0,0,0,0,0,0,0,0,0,-1,1119,1569,0,0
-98,-545,0,0,0,0,0,0,0,0,0,-1,1126,1569,0,0
-91,-545,0,0,0,0,0,0,0,0,0,-1,1133,1569,0,0
-84,-545,0,0,0,0,0,0,0,0,0,-1,1140,1569,0,0
-77,-545,0,0,0,0,0,0,0,0,0,-1,1147,1569,0,0
-70,-545,0,0,0,0,0,0,0,0,0,-1,1154,1569,0,0
-63,-545,0,0,0,0,0,0,0,0,0,-1,1161,1569,0,0
-56,-545,0,0,0,0,0,0,0,0,0,-1,1168,1569,0,0
-49,-545,0,0,0,0,0,0,0,0,0,-1,1175,1569,0,0
-42,-545,0,0,0,0,0,0,0,0,0,-1,1182,1569,0,0
-35,-545,0,0,0,0,0,0,0,0,0,-1,1189,1569,0,0
-28,-545,0,0,0,0,0,0,0,0,0,-1,1196,1569,0,0
-21,-545,0,0,0,0,0,0,0,0,0,-1,1203,1569,0,0
-14,-545,0,0,0,0,0,0,0,0,0,-1,1210,1569,0,0
-7,-545,0,0,0,0,0,0,0,0,0,-1,1217,1569,0,0
0,-545,0,0,0,0,0,0,0,0,0,-1,1224,1569,0,0
7,-545,0,0,0,0,0,0,0,0,0,-1,1231,1569,0,0
14,-545,0,0,0,0,0,0,0,0,0,-1,1238,1569,0,0
21,-545,0,0,0,0,0,0,0,0,0,-1,1245,1569,0,0
28,-545,0,0,0,0,0,0,0,0,0,-1,1252,1569,0,0
35,-545,0,0,0,0,0,0,0,0,0,-1,1259,1569,0,0
42,-545,0,0,0,0,0,0,0,0,0,-1,1266,1569,0,0
49,-545,0,0,0,0,0,0,0,0,0,-1,1273,1569,0,0
56,-545,0,0,0,0,0,0,0,0,0,-1,1280,1569,0,0
63,-545,0,0,0,0,0,0,0,0,0,-1,1287,1569,0,0
70,-545,0,0,0,0,0,0,0,0,0,-1,1294,1569,0,0
77,-545,0,0,0,0,0,0,0,0,0,-1,1301,1569,0,0
84,-545,0,0,0,0,0,0,0,0,0,-1,1308,1569,0,0
91,-545,0,0,0,0,0,0,0,0,0,-1,1315,1569,0,0
98,-545,0,0,0,0,0,0,0,0,0,-1,1322,1569,0,0
105,-545,0,0,0,0,0,0,0,0,0,-1,1329,1569,0,0
112,-545,0,0,0,0,0,0,0,0,0,-1,1336,1569,0,0
119,-545,0,0,0,0,0,0,0,0,0,-1,1343,1569,0,0
126,-545,0,0,0,0,0,0,0,0,0,-1,1350,1569,0,0
133,-545,0,0,0,0,0,0,0,0,0,-1,1357,1569,0,0
140,-545,0,0,0,0,0,0,0,0,0,-1,1364,1569,0,0
147,-545,0,0,0,0,0,0,0,0,0,-1,1371,1569,0,0
154,-545,0,0,0,0,0,0,0,0,0,-1,1378,1569,0,0
161,-545,0,0,0,0,0,0,0,0,0,-1,1385,1569,0,0
168,-545,0,0,0,0,0,0,0,0,0,-1,1392,1569,0,0
175,-545,0,0,0,0,0,0,0,0,0,-1,1399,1569,0,0
182,-545,0,0,0,0,0,0,0,0,0,-1,1406,1569,0,0
189,-545,0,0,0,0,0,0,0,0,0,-1,1413,1569,0,0
196,-545,0,0,0,0,0,0,0,0,0,-1,1420,1569,0,0
203,-545,0,0,0,0,0,0,0,0,0,-1,1427,1569,0,0
210,-545,0,0,0,0,0,0,0,0,0,-1,1434,1569,0,0
217,-545,0,0,0,0,0,0,0,0,0,-1,1441,1569,0,0
224,-545,0,0,0,0,0,0,0,0,0,-1,1448,1569,0,0
231,-545,0,0,0,0,0,0,0,0,0,-1,1455,1569,0,0
238,-545,0,0,0,0,0,0,0,0,0,-1,1462,1569,0,0
245,-545,0,0,0,0,0,0,0,0,0,-1,1469,1569,0,0
252,-545,0,0,0,0,0,0,0,0,0,-1,1476,1569,0,0
259,-545,0,0,0,0,0,0,0,0,0,-1,1483,1569,0,0
266,-545,0,0,0,0,0,0,0,0,0,-1,1490,1569,0,0
273,-545,0,0,0,0,0,0,0,0,0,-1,1497,1569,0,0
280,-545,0,0,0,0,0,0,0,0,0,-1,1504,1569,0,0
287,-545,0,0,0,0,0,0,0,0,0,-1,1511,1569,0,0
294,-545,0,0,0,0,0,0,0,0,0,-1,1518,1569,0,0
301,-545,0,0,0,0,0,0,0,0,0,-1,1525,1569,0,0
308,-545,0,0,0,0,0,0,0,0,0,-1,1532,1569,0,0
315,-545,0,0,0,0,0,0,0,0,0,-1,1539,1569,0,0
322,-545,0,0,0,0,0,0,0,0,0,-1,1546,1569,0,0
329,-545,0,0,0,0,0,0,0,0,0,-1,1553,1569,0,0
336,-545,0,0,0,0,0,0,0,0,0,-1,1560,1569,0,0
343,-545,0,0,0,0,0,0,0,0,0,-1,1567,1569,0,0
350,-545,0,0,0,0,0,0,0,0,0,-1,1574,1569,0,0
357,-545,0,0,0,0,0,0,0,0,0,-1,1581,1569,0,0
364,-545,7.19495,4.88098,0,0,0,0,0,0,0,-1,1588,1569,7.19497,-4.88095
371,-545,7.82324,3.84302,0,0,0,0,0,0,0,-1,1595,1569,7.82324,-3.84307
378,-545,7.65674,5.52673,0,0,0,0,0,0,0,-1,1602,1569,7.6567,-5.52667
385,-545,8.58447,1.16125,0,0,0,0,0,0,0,-1,1609,1569,8.5845,-1.1612
392,-545,12.5654,3.89526,0,0,0,0,0,0,0,-1,1616,1569,12.5655,-3.89532
399,-545,11.5869,5.6333,0,0,0,0,0,0,0,-1,1623,1569,11.5869,-5.63326
406,-545,11.234,6.36414,0,0,0,0,0,0,0,-1,1630,1569,11.234,-6.3641
413,-545,12.1521,13.4817,0,0,0,0,0,0,0,-1,1637,1569,12.1521,-13.4817
420,-545,11.1954,13.6047,0,0,0,0,0,0,0,-1,1644,1569,11.1954,-13.6047
427,-545,9.61072,14.9135,0,0,0,0,0,0,0,-1,1651,1569,9.61076,-14.9134
434,-545,11.1537,21.291,0,0,0,0,0,0,0,-1,1658,1569,11.1537,-21.291
441,-545,11.7065,19.9786,0,0,0,0,0,0,0,-1,1665,1569,11.7066,-19.9786
448,-545,12.0669,19.014,0,0,0,0,0,0,0,-1,1672,1569,12.0668,-19.014
455,-545,11.9119,18.3721,0,0,0,0,0,0,0,-1,1679,1569,11.9118,-18.372
462,-545,11.9828,17.5654,0,0,0,0,0,0,0,-1,1686,1569,11.9828,-17.5654
469,-545,12.2275,16.3784,0,0,0,0,0,0,0,-1,1693,1569,12.2276,-16.3785
476,-545,11.4933,16.9094,0,0,0,0,0,0,0,-1,1700,1569,11.4933,-16.9094
483,-545,11.556,16.5383,-0.00505542,0.000189019,0.0132775,0.0111007,-0.0159671,0.882891,0.0157116,0.0216699,1707,1569,11.556,-16.5383
490,-545,11.4927,16.2723,-0.00375579,-0.00200205,0.0106501,0.00780726,-0.0135651,0.826473,0.0124877,0.0121673,1714,1569,11.4926,-16.2723
497,-545,11.4662,15.9841,-0.00267065,-0.0029942,0.00831021,0.00547936,-0.0111442,0.775666,0.00978162,0.0153525,1721,1569,11.4662,-15.9841
504,-545,11.5209,15.6952,-0.00179212,-0.00435528,0.00613344,0.0031922,-0.0093396,0.682405,0.00751981,0.0142568,1728,1569,11.5209,-15.6951
511,-545,11.5334,15.3851,-0.00111311,-0.00404926,0.00446024,0.00211445,-0.00727682,0.626409,0.00568856,0.0109932,1735,1569,11.5335,-15.3851
518,-545,11.5084,15.0868,-0.000533079,-0.00303946,0.00309164,0.0015497,-0.00512224,0.592844,0.00403192,0.0123206,1742,1569,11.5084,-15.0868
525,-545,11.4916,14.7928,-8.99357e-05,-0.00210325,0.00204506,0.0011828,-0.00337599,0.556688,0.00273166,0.0131441,1749,1569,11.4915,-14.7929
532,-545,11.4904,14.522,0.000106861,-0.00143642,0.00131567,0.00086048,-0.00219004,0.520181,0.00181612,0.0137335,1756,1569,11.4903,-14.5219
539,-545,11.4762,14.2574,0.00027789,-0.000971837,0.00075596,0.000633807,-0.00132775,0.440027,0.00115589,0.0157195,1763,1569,11.4762,-14.2574
546,-545,11.4613,13.9543,0.000444984,-0.000639441,0.000342141,0.000543908,-0.000738364,0.281454,0.000743152,0.0166899,1770,1569,11.4614,-13.9543
553,-545,11.4769,13.6022,0.000650625,-0.000566045,-6.04774e-05,0.000653624,-0.000569044,-0.0495445,0.000706471,0.0236936,1777,1569,11.477,-13.6022
560,-545,11.4895,13.2411,0.000992653,-0.00056334,-0.000141506,0.00100542,-0.000576105,-0.0899594,0.000924238,0.026437,1784,1569,11.4895,-13.2411
567,-545,11.3693,13.1038,0.00154911,-0.00013943,-0.000681617,0.00178992,-0.000380237,-0.339602,0.00133815,0.047111,1791,1569,11.3693,-13.1038
574,-545,11.5083,12.613,0,0,0,0,0,0,0,-1,1798,1569,11.5082,-12.613
581,-545,11.5327,12.2477,0,0,0,0,0,0,0,-1,1805,1569,11.5327,-12.2477
588,-545,11.5852,11.9299,0,0,0,0,0,0,0,-1,1812,1569,11.5853,-11.9299
595,-545,10.2859,9.11218,0,0,0,0,0,0,0,-1,1819,1569,10.2858,-9.11215
602,-545,8.82117,6.32214,0,0,0,0,0,0,0,-1,1826,1569,8.82121,-6.32217
609,-545,10.2406,5.22351,0,0,0,0,0,0,0,-1,1833,1569,10.2406,-5.22353
616,-545,11.701,3.93188,0,0,0,0,0,0,0,-1,1840,1569,11.701,-3.93191
623,-545,13.2139,2.32043,0,0,0,0,0,0,0,-1,1847,1569,13.2139,-2.32042
630,-545,0,0,0,0,0,0,0,0,0,-1,1854,1569,0,0
637,-545,0,0,0,0,0,0,0,0,0,-1,1861,1569,0,0
644,-545,0,0,0,0,0,0,0,0,0,-1,1868,1569,0,0
651,-545,0,0,0,0,0,0,0,0,0,-1,1875,1569,0,0
658,-545,0,0,0,0,0,0,0,0,0,-1,1882,1569,0,0
665,-545,0,0,0,0,0,0,0,0,0,-1,1889,1569,0,0
672,-545,0,0,0,0,0,0,0,0,0,-1,1896,1569,0,0
679,-545,0,0,0,0,0,0,0,0,0,-1,1903,1569,0,0
686,-545,0,0,0,0,0,0,0,0,0,-1,1910,1569,0,0
693,-545,0,0,0,0,0,0,0,0,0,-1,1917,1569,0,0
700,-545,0,0,0,0,0,0,0,0,0,-1,1924,1569,0,0
707,-545,0,0,0,0,0,0,0,0,0,-1,1931,1569,0,0
714,-545,0,0,0,0,0,0,0,0,0,-1,1938,1569,0,0
721,-545,0,0,0,0,0,0,0,0,0,-1,1945,1569,0,0
728,-545,0,0,0,0,0,0,0,0,0,-1,1952,1569,0,0
735,-545,0,0,0,0,0,0,0,0,0,-1,1959,1569,0,0
742,-545,0,0,0,0,0,0,0,0,0,-1,1966,1569,0,0
749,-545,0,0,0,0,0,0,0,0,0,-1,1973,1569,0,0
756,-545,0,0,0,0,0,0,0,0,0,-1,1980,1569,0,0
763,-545,0,0,0,0,0,0,0,0,0,-1,1987,1569,0,0
770,-545,0,0,0,0,0,0,0,0,0,-1,1994,1569,0,0
777,-545,0,0,0,0,0,0,0,0,0,-1,2001,1569,0,0
784,-545,0,0,0,0,0,0,0,0,0,-1,2008,1569,0,0
791,-545,0,0,0,0,0,0,0,0,0,-1,2015,1569,0,0
798,-545,0,0,0,0,0,0,0,0,0,-1,2022,1569,0,0
805,-545,0,0,0,0,0,0,0,0,0,-1,2029,1569,0,0
812,-545,0,0,0,0,0,0,0,0,0,-1,2036,1569,0,0
-700,-552,0,0,0,0,0,0,0,0,0,-1,524,1576,0,0
-693,-552,0,0,0,0,0,0,0,0,0,-1,531,1576,0,0
-686,-552,0,0,0,0,0,0,0,0,0,-1,538,1576,0,0
-679,-552,0,0,0,0,0,0,0,0,0,-1,545,1576,0,0
-672,-552,0,0,0,0,0,0,0,0,0,-1,552,1576,0,0
-665,-552,0,0,0,0,0,0,0,0,0,-1,559,1576,0,0
-658,-552,0,0,0,0,0,0,0,0,0,-1,566,1576,0,0
-651,-552,0,0,0,0,0,0,0,0,0,-1,573,1576,0,0
-644,-552,0,0,0,0,0,0,0,0,0,-1,580,1576,0,0
-637,-552,0,0,0,0,0,0,0,0,0,-1,587,1576,0,0
-630,-552,0,0,0,0,0,0,0,0,0,-1,594,1576,0,0
-623,-552,0,0,0,0,0,0,0,0,0,-1,601,1576,0,0
-616,-552,0,0,0,0,0,0,0,0,0,-1,608,1576,0,0
-609,-552,0,0,0,0,0,0,0,0,0,-1,615,1576,0,0
-602,-552,0,0,0,0,0,0,0,0,0,-1,622,1576,0,0
-595,-552,0,0,0,0,0,0,0,0,0,-1,629,1576,0,0
-588,-552,0,0,0,0,0,0,0,0,0,-1,636,1576,0,0
-581,-552,0,0,0,0,0,0,0,0,0,-1,643,1576,0,0
-574,-552,0,0,0,0,0,0,0,0,0,-1,650,1576,0,0
-567,-552,0,0,0,0,0,0,0,0,0,-1,657,1576,0,0
-560,-552,0,0,0,0,0,0,0,0,0,-1,664,1576,0,0
-553,-552,0,0,0,0,0,0,0,0,0,-1,671,1576,0,0
-546,-552,0,0,0,0,0,0,0,0,0,-1,678,1576,0,0
-539,-552,0,0,0,0,0,0,0,0,0,-1,685,1576,0,0
-532,-552,0,0,0,0,0,0,0,0,0,-1,692,1576,0,0
-525,-552,0,0,0,0,0,0,0,0,0,-1,699,1576,0,0
-518,-552,0,0,0,0,0,0,0,0,0,-1,706,1576,0,0
-511,-552,0,0,0,0,0,0,0,0,0,-1,713,1576,0,0
-504,-552,0,0,0,0,0,0,0,0,0,-1,720,1576,0,0
-497,-552,1.51282,3.96924,0,0,0,0,0,0,0,-1,727,1576,1.5128,-3.96924
-490,-552,-3.82312,6.32104,0,0,0,0,0,0,0,-1,734,1576,-3.82314,-6.3211
-483,-552,-3.50586,6.47986,0,0,0,0,0,0,0,-1,741,1576,-3.50587,-6.47983
-476,-552,-1.95129,4.43054,0,0,0,0,0,0,0,-1,748,1576,-1.95128,-4.43054
-469,-552,-1.40491,7.9895,0,0,0,0,0,0,0,-1,755,1576,-1.40491,-7.98947
-462,-552,0.258972,6.98975,0,0,0,0,0,0,0,-1,762,1576,0.258987,-6.98975
-455,-552,0.86084,9.54858,0,0,0,0,0,0,0,-1,769,1576,0.860859,-9.54854
-448,-552,0.682495,10.3149,0.0047246,0.0357911,0.022896,0.0479257,-0.00740999,1.08345,0.0346853,0.0415985,776,1576,0.682493,-10.315
-441,-552,0.495178,11.0721,0.00354744,0.0253177,0.017175,0.0347665,-0.00590135,1.06784,0.0253746,0.0339723,783,1576,0.495206,-11.0721
-434,-552,0.391052,11.6816,0.00262176,0.0174958,0.0126622,0.0247434,-0.0046259,1.05093,0.0182343,0.0213326,790,1576,0.391028,-11.6816
-427,-552,0.273865,11.9143,0.00196092,0.0120628,0.00936042,0.0176481,-0.00362438,1.03281,0.0131412,0.0199915,797,1576,0.273852,-11.9143
-420,-552,0.323975,12.2738,0.00114092,0.0069094,0.00621621,0.0108779,-0.00282758,1.00261,0.00835549,0.0204762,804,1576,0.323988,-12.2738
-413,-552,0.325928,12.5787,0.000808833,0.00475438,0.00436771,0.00757417,-0.00201096,0.99752,0.00583642,0.0168387,811,1576,0.325901,-12.5788
-406,-552,0.301392,12.9043,0.00061622,0.00291306,0.00289136,0.00487572,-0.00134644,0.974439,0.00378009,0.0132791,818,1576,0.301373,-12.9043
-399,-552,0.292542,13.2378,0.000388323,0.00210377,0.00186378,0.00329772,-0.000805628,1.00105,0.00251049,0.0136785,825,1576,0.292541,-13.2377
-392,-552,0.277771,13.5529,0.00044571,0.00138231,0.00106692,0.00207919,-0.000251163,0.992202,0.00147698,0.0147263,832,1576,0.277765,-13.5529
-385,-552,0.283142,13.8944,0.00067715,0.000662641,0.000251478,0.000921478,0.000418313,0.770979,0.000532767,0.0133111,839,1576,0.283136,-13.8944
-378,-552,0.274414,14.208,0.00125779,0.000195488,1.62017e-05,0.00125804,0.000195241,0.0152468,0.000781779,0.0152083,846,1576,0.274386,-14.208
-371,-552,0.267029,14.5288,0.0019862,-5.49044e-05,-0.000174799,0.00200107,-6.97658e-05,-0.0848161,0.0013579,0.0190309,853,1576,0.267047,-14.5288
-364,-552,0.255249,14.832,0.00284264,-0.000665698,-0.000449716,0.00289937,-0.000722427,-0.125482,0.00221338,0.0143397,860,1576,0.255261,-14.8321
-357,-552,0.276245,15.1361,0.00395059,-0.00145247,-0.000887694,0.0040927,-0.00159457,-0.158737,0.00338749,0.0096598,867,1576,0.276255,-15.1361
-350,-552,0.285034,15.4608,0.00524423,-0.00247918,-0.0012665,0.00544661,-0.00268156,-0.158455,0.00478246,0.00950067,874,1576,0.285041,-15.4608
-343,-552,0.275085,15.75,0.00666166,-0.00361795,-0.00154319,0.00688833,-0.00384462,-0.14584,0.00627918,0.010383,881,1576,0.275087,-15.7499
-336,-552,0.328796,15.993,0.00816496,-0.00442985,-0.00148492,0.00833766,-0.00460255,-0.115784,0.00757406,0.0172847,888,1576,0.328796,-15.993
-329,-552,0.264282,16.2588,0.00972809,-0.00533798,-0.0013818,0.00985378,-0.00546367,-0.0907079,0.00896379,0.0352052,895,1576,0.264287,-16.2588
-322,-552,0.346558,17.1378,0,0,0,0,0,0,0,-1,902,1576,0.346583,-17.1378
-315,-552,0.128418,17.2451,0,0,0,0,0,0,0,-1,909,1576,0.12842,-17.2451
-308,-552,-0.178711,17.7281,0,0,0,0,0,0,0,-1,916,1576,-0.17872,-17.7281
-301,-552,0.0563965,18.2156,0,0,0,0,0,0,0,-1,923,1576,0.0563894,-18.2156
-294,-552,0.842163,13.7863,0,0,0,0,0,0,0,-1,930,1576,0.842149,-13.7863
-287,-552,-0.663757,13.3474,0,0,0,0,0,0,0,-1,937,1576,-0.663744,-13.3474
-280,-552,-5.47241,8.96765,0,0,0,0,0,0,0,-1,944,1576,-5.47239,-8.96766
-273,-552,1.64587,10.6685,0,0,0,0,0,0,0,-1,951,1576,1.6459,-10.6685
-266,-552,-1.32678,8.05688,0,0,0,0,0,0,0,-1,958,1576,-1.32677,-8.05683
-259,-552,-5.54321,8.31213,0,0,0,0,0,0,0,-1,965,1576,-5.54324,-8.31214
-252,-552,-1.93445,7.81543,0,0,0,0,0,0,0,-1,972,1576,-1.93445,-7.81546
-245,-552,-2.53613,6.92212,0,0,0,0,0,0,0,-1,979,1576,-2.53614,-6.92216
-238,-552,-6.5365,2.81885,0,0,0,0,0,0,0,-1,986,1576,-6.53649,-2.8188
-231,-552,-4.32239,4.34583,0,0,0,0,0,0,0,-1,993,1576,-4.32239,-4.34587
-224,-552,0,0,0,0,0,0,0,0,0,-1,1000,1576,0,0
-217,-552,0,0,0,0,0,0,0,0,0,-1,1007,1576,0,0
-210,-552,0,0,0,0,0,0,0,0,0,-1,1014,1576,0,0
-203,-552,0,0,0,0,0,0,0,0,0,-1,1021,1576,0,0
-196,-552,0,0,0,0,0,0,0,0,0,-1,1028,1576,0,0
-189,-552,0,0,0,0,0,0,0,0,0,-1,1035,1576,0,0
-182,-552,0,0,0,0,0,0,0,0,0,-1,1042,1576,0,0
-175,-552,0,0,0,0,0,0,0,0,0,-1,1049,1576,0,0
-168,-552,0,0,0,0,0,0,0,0,0,-1,1056,1576,0,0
-161,-552,0,0,0,0,0,0,0,0,0,-1,1063,1576,0,0
-154,-552,0,0,0,0,0,0,0,0,0,-1,1070,1576,0,0
-147,-552,0,0,0,0,0,0,0,0,0,-1,1077,1576,0,0
-140,-552,0,0,0,0,0,0,0,0,0,-1,1084,1576,0,0
-133,-552,0,0,0,0,0,0,0,0,0,-1,1091,1576,0,0
-126,-552,0,0,0,0,0,0,0,0,0,-1,1098,1576,0,0
-119,-552,0,0,0,0,0,0,0,0,0,-1,1105,1576,0,0
-112,-552,0,0,0,0,0,0,0,0,0,-1,1112,1576,0,0
-105,-552,0,0,0,0,0,0,0,0,0,-1,1119,1576,0,0
-98,-552,0,0,0,0,0,0,0,0,0,-1,1126,1576,0,0
-91,-552,0,0,0,0,0,0,0,0,0,-1,1133,1576,0,0
-84,-552,0,0,0,0,0,0,0,0,0,-1,1140,1576,0,0
-77,-552,0,0,0,0,0,0,0,0,0,-1,1147,1576,0,0
-70,-552,0,0,0,0,0,0,0,0,0,-1,1154,1576,0,0
-63,-552,0,0,0,0,0,0,0,0,0,-1,1161,1576,0,0
-56,-552,0,0,0,0,0,0,0,0,0,-1,1168,1576,0,0
-49,-552,0,0,0,0,0,0,0,0,0,-1,1175,1576,0,0
-42,-552,0,0,0,0,0,0,0,0,0,-1,1182,1576,0,0
-35,-552,0,0,0,0,0,0,0,0,0,-1,1189,1576,0,0
-28,-552,0,0,0,0,0,0,0,0,0,-1,1196,1576,0,0
-21,-552,0,0,0,0,0,0,0,0,0,-1,1203,1576,0,0
-14,-552,0,0,0,0,0,0,0,0,0,-1,1210,1576,0,0
-7,-552,0,0,0,0,0,0,0,0,0,-1,1217,1576,0,0
0,-552,0,0,0,0,0,0,0,0,0,-1,1224,1576,0,0
7,-552,0,0,0,0,0,0,0,0,0,-1,1231,1576,0,0
14,-552,0,0,0,0,0,0,0,0,0,-1,1238,1576,0,0
21,-552,0,0,0,0,0,0,0,0,0,-1,1245,1576,0,0
28,-552,0,0,0,0,0,0,0,0,0,-1,1252,1576,0,0
35,-552,0,0,0,0,0,0,0,0,0,-1,1259,1576,0,0
42,-552,0,0,0,0,0,0,0,0,0,-1,1266,1576,0,0
49,-552,0,0,0,0,0,0,0,0,0,-1,1273,1576,0,0
56,-552,0,0,0,0,0,0,0,0,0,-1,1280,1576,0,0
63,-552,0,0,0,0,0,0,0,0,0,-1,1287,1576,0,0
70,-552,0,0,0,0,0,0,0,0,0,-1,1294,1576,0,0
77,-552,0,0,0,0,0,0,0,0,0,-1,1301,1576,0,0
84,-552,0,0,0,0,0,0,0,0,0,-1,1308,1576,0,0
91,-552,0,0,0,0,0,0,0,0,0,-1,1315,1576,0,0
98,-552,0,0,0,0,0,0,0,0,0,-1,1322,1576,0,0
105,-552,0,0,0,0,0,0,0,0,0,-1,1329,1576,0,0
112,-552,0,0,0,0,0,0,0,0,0,-1,1336,1576,0,0
119,-552,0,0,0,0,0,0,0,0,0,-1,1343,1576,0,0
126,-552,0,0,0,0,0,0,0,0,0,-1,1350,1576,0,0
133,-552,0,0,0,0,0,0,0,0,0,-1,1357,1576,0,0
140,-552,0,0,0,0,0,0,0,0,0,-1,1364,1576,0,0
147,-552,0,0,0,0,0,0,0,0,0,-1,1371,1576,0,0
154,-552,0,0,0,0,0,0,0,0,0,-1,1378,1576,0,0
161,-552,0,0,0,0,0,0,0,0,0,-1,1385,1576,0,0
168,-552,0,0,0,0,0,0,0,0,0,-1,1392,1576,0,0
175,-552,0,0,0,0,0,0,0,0,0,-1,1399,1576,0,0
182,-552,0,0,0,0,0,0,0,0,0,-1,1406,1576,0,0
189,-552,0,0,0,0,0,0,0,0,0,-1,1413,1576,0,0
196,-552,0,0,0,0,0,0,0,0,0,-1,1420,1576,0,0
203,-552,0,0,0,0,0,0,0,0,0,-1,1427,1576,0,0
210,-552,0,0,0,0,0,0,0,0,0,-1,1434,1576,0,0
217,-552,0,0,0,0,0,0,0,0,0,-1,1441,1576,0,0
224,-552,0,0,0,0,0,0,0,0,0,-1,1448,1576,0,0
231,-552,0,0,0,0,0,0,0,0,0,-1,1455,1576,0,0
238,-552,0,0,0,0,0,0,0,0,0,-1,1462,1576,0,0
245,-552,0,0,0,0,0,0,0,0,0,-1,1469,1576,0,0
252,-552,0,0,0,0,0,0,0,0,0,-1,1476,1576,0,0
259,-552,0,0,0,0,0,0,0,0,0,-1,1483,1576,0,0
266,-552,0,0,0,0,0,0,0,0,0,-1,1490,1576,0,0
273,-552,0,0,0,0,0,0,0,0,0,-1,1497,1576,0,0
280,-552,0,0,0,0,0,0,0,0,0,-1,1504,1576,0,0
287,-552,0,0,0,0,0,0,0,0,0,-1,1511,1576,0,0
294,-552,0,0,0,0,0,0,0,0,0,-1,1518,1576,0,0
301,-552,0,0,0,0,0,0,0,0,0,-1,1525,1576,0,0
308,-552,0,0,0,0,0,0,0,0,0,-1,1532,1576,0,0
315,-552,0,0,0,0,0,0,0,0,0,-1,1539,1576,0,0
322,-552,0,0,0,0,0,0,0,0,0,-1,1546,1576,0,0
329,-552,0,0,0,0,0,0,0,0,0,-1,1553,1576,0,0
336,-552,0,0,0,0,0,0,0,0,0,-1,1560,1576,0,0
343,-552,0,0,0,0,0,0,0,0,0,-1,1567,1576,0,0
350,-552,4.97876,4.09888,0,0,0,0,0,0,0,-1,1574,1576,4.97875,-4.09883
357,-552,5.18469,4.10706,0,0,0,0,0,0,0,-1,1581,1576,5.1847,-4.10702
364,-552,5.80872,5.07031,0,0,0,0,0,0,0,-1,1588,1576,5.80874,-5.07037
371,-552,7.10657,5.64783,0,0,0,0,0,0,0,-1,1595,1576,7.10651,-5.64786
378,-552,6.44446,4.91492,0,0,0,0,0,0,0,-1,1602,1576,6.44448,-4.91496
385,-552,12.8276,3.16504,0,0,0,0,0,0,0,-1,1609,1576,12.8276,-3.16503
392,-552,12.1301,4.3363,0,0,0,0,0,0,0,-1,1616,1576,12.1302,-4.33631
399,-552,11.3486,5.6012,0,0,0,0,0,0,0,-1,1623,1576,11.3486,-5.60115
406,-552,10.7863,6.42542,0,0,0,0,0,0,0,-1,1630,1576,10.7863,-6.42536
413,-552,8.39307,10.365,0,0,0,0,0,0,0,-1,1637,1576,8.3931,-10.365
420,-552,10.2306,12.7225,0,0,0,0,0,0,0,-1,1644,1576,10.2305,-12.7226
427,-552,9.73267,14.783,0,0,0,0,0,0,0,-1,1651,1576,9.73269,-14.783
434,-552,12.0377,20.1364,0,0,0,0,0,0,0,-1,1658,1576,12.0377,-20.1364
441,-552,12.1482,19.3171,0,0,0,0,0,0,0,-1,1665,1576,12.1482,-19.3171
448,-552,11.9768,18.7365,-0.0118393,0.0309432,0.0260268,0.0432414,-0.0241375,1.12937,0.039419,0.0459773,1672,1576,11.9768,-18.7364
455,-552,11.766,18.0836,-0.00956418,0.022119,0.0222237,0.0335693,-0.0210145,1.09504,0.0317906,0.0419429,1679,1576,11.766,-18.0837
462,-552,11.7015,17.4163,-0.00777576,0.0151918,0.0184662,0.0254538,-0.0180377,1.06358,0.0252312,0.0399585,1686,1576,11.7015,-17.4162
469,-552,11.4452,17.0908,-0.0063217,0.00929207,0.0151117,0.0184943,-0.015524,1.02382,0.0196654,0.0428397,1693,1576,11.4452,-17.0909
476,-552,11.2036,16.8489,-0.00499615,0.00503896,0.0120474,0.0130719,-0.0130291,0.982716,0.0150694,0.0245063,1700,1576,11.2036,-16.8489
483,-552,11.2526,16.522,-0.00373355,0.00183993,0.00960603,0.00905528,-0.0109489,0.926574,0.0115667,0.0165677,1707,1576,11.2526,-16.522
490,-552,11.2177,16.2621,-0.00272532,-0.000212492,0.00764244,0.00627612,-0.00921394,0.866869,0.00899664,0.0130941,1714,1576,11.2177,-16.262
497,-552,11.1893,15.9648,-0.0018772,-0.00134226,0.00586526,0.00426162,-0.00748108,0.808183,0.00686406,0.0202662,1721,1576,11.1893,-15.9649
504,-552,11.2179,15.6852,-0.00120486,-0.00279985,0.00424259,0.00231454,-0.00631925,0.692495,0.00516037,0.0214777,1728,1576,11.2179,-15.6852
511,-552,11.2341,15.3784,-0.00066794,-0.00280886,0.00298788,0.00143545,-0.00491225,0.613388,0.00384372,0.0159141,1735,1576,11.2341,-15.3785
518,-552,11.2327,15.0929,-0.000212007,-0.00221856,0.00200644,0.00102801,-0.00345857,0.553563,0.00271408,0.0137967,1742,1576,11.2327,-15.0929
525,-552,11.2086,14.8107,0.000137175,-0.00166084,0.00129157,0.000811816,-0.00233548,0.481361,0.00188674,0.0132152,1749,1576,11.2086,-14.8107
532,-552,11.1953,14.5288,0.000269407,-0.00129857,0.000838518,0.000633351,-0.00166252,0.409496,0.00136919,0.0140631,1756,1576,11.1953,-14.5288
539,-552,11.1699,14.2686,0.000351877,-0.00113156,0.000544895,0.000530516,-0.00131019,0.316799,0.00109405,0.0171057,1763,1576,11.17,-14.2685
546,-552,11.1777,13.9786,0.000358315,-0.00111784,0.000440343,0.000479691,-0.00123922,0.26896,0.0010242,0.0201473,1770,1576,11.1777,-13.9786
553,-552,11.2365,13.6045,0.000483405,-0.00131172,0.000327964,0.000541447,-0.00136976,0.175162,0.00113745,0.0239101,1777,1576,11.2365,-13.6044
560,-552,11.2883,13.1653,0,0,0,0,0,0,0,-1,1784,1576,11.2883,-13.1653
567,-552,11.2919,12.8756,0,0,0,0,0,0,0,-1,1791,1576,11.2919,-12.8756
574,-552,10.767,11.6785,0,0,0,0,0,0,0,-1,1798,1576,10.7669,-11.6785
581,-552,9.74841,9.98645,0,0,0,0,0,0,0,-1,1805,1576,9.74847,-9.9864
588,-552,10.5619,9.34924,0,0,0,0,0,0,0,-1,1812,1576,10.5619,-9.34921
595,-552,5.36194,6.62744,0,0,0,0,0,0,0,-1,1819,1576,5.36193,-6.62742
602,-552,10.6863,4.31616,0,0,0,0,0,0,0,-1,1826,1576,10.6862,-4.31619
609,-552,12.146,3.18286,0,0,0,0,0,0,0,-1,1833,1576,12.1459,-3.18281
616,-552,13.8762,2.08167,0,0,0,0,0,0,0,-1,1840,1576,13.8763,-2.08167
623,-552,0,0,0,0,0,0,0,0,0,-1,1847,1576,0,0
630,-552,0,0,0,0,0,0,0,0,0,-1,1854,1576,0,0
637,-552,0,0,0,0,0,0,0,0,0,-1,1861,1576,0,0
644,-552,0,0,0,0,0,0,0,0,0,-1,1868,1576,0,0
651,-552,0,0,0,0,0,0,0,0,0,-1,1875,1576,0,0
658,-552,0,0,0,0,0,0,0,0,0,-1,1882,1576,0,0
665,-552,0,0,0,0,0,0,0,0,0,-1,1889,1576,0,0
672,-552,0,0,0,0,0,0,0,0,0,-1,1896,1576,0,0
679,-552,0,0,0,0,0,0,0,0,0,-1,1903,1576,0,0
686,-552,0,0,0,0,0,0,0,0,0,-1,1910,1576,0,0
693,-552,0,0,0,0,0,0,0,0,0,-1,1917,1576,0,0
700,-552,0,0,0,0,0,0,0,0,0,-1,1924,1576,0,0
707,-552,0,0,0,0,0,0,0,0,0,-1,1931,1576,0,0
714,-552,0,0,0,0,0,0,0,0,0,-1,1938,1576,0,0
721,-552,0,0,0,0,0,0,0,0,0,-1,1945,1576,0,0
728,-552,0,0,0,0,0,0,0,0,0,-1,1952,1576,0,0
735,-552,0,0,0,0,0,0,0,0,0,-1,1959,1576,0,0
742,-552,0,0,0,0,0,0,0,0,0,-1,1966,1576,0,0
749,-552,0,0,0,0,0,0,0,0,0,-1,1973,1576,0,0
756,-552,0,0,0,0,0,0,0,0,0,-1,1980,1576,0,0
763,-552,0,0,0,0,0,0,0,0,0,-1,1987,1576,0,0
770,-552,0,0,0,0,0,0,0,0,0,-1,1994,1576,0,0
777,-552,0,0,0,0,0,0,0,0,0,-1,2001,1576,0,0
784,-552,0,0,0,0,0,0,0,0,0,-1,2008,1576,0,0
791,-552,0,0,0,0,0,0,0,0,0,-1,2015,1576,0,0
798,-552,0,0,0,0,0,0,0,0,0,-1,2022,1576,0,0
805,-552,0,0,0,0,0,0,0,0,0,-1,2029,1576,0,0
812,-552,0,0,0,0,0,0,0,0,0,-1,2036,1576,0,0
-700,-559,0,0,0,0,0,0,0,0,0,-1,524,1583,0,0
-693,-559,0,0,0,0,0,0,0,0,0,-1,531,1583,0,0
-686,-559,0,0,0,0,0,0,0,0,0,-1,538,1583,0,0
-679,-559,0,0,0,0,0,0,0,0,0,-1,545,1583,0,0
-672,-559,0,0,0,0,0,0,0,0,0,-1,552,1583,0,0
-665,-559,0,0,0,0,0,0,0,0,0,-1,559,1583,0,0
-658,-559,0,0,0,0,0,0,0,0,0,-1,566,1583,0,0
-651,-559,0,0,0,0,0,0,0,0,0,-1,573,1583,0,0
-644,-559,0,0,0,0,0,0,0,0,0,-1,580,1583,0,0
-637,-559,0,0,0,0,0,0,0,0,0,-1,587,1583,0,0
-630,-559,0,0,0,0,0,0,0,0,0,-1,594,1583,0,0
-623,-559,0,0,0,0,0,0,0,0,0,-1,601,1583,0,0
-616,-559,0,0,0,0,0,0,0,0,0,-1,608,1583,0,0
-609,-559,0,0,0,0,0,0,0,0,0,-1,615,1583,0,0
-602,-559,0,0,0,0,0,0,0,0,0,-1,622,1583,0,0
-595,-559,0,0,0,0,0,0,0,0,0,-1,629,1583,0,0
-588,-559,0,0,0,0,0,0,0,0,0,-1,636,1583,0,0
-581,-559,0,0,0,0,0,0,0,0,0,-1,643,1583,0,0
-574,-559,0,0,0,0,0,0,0,0,0,-1,650,1583,0,0
-567,-559,0,0,0,0,0,0,0,0,0,-1,657,1583,0,0
-560,-559,0,0,0,0,0,0,0,0,0,-1,664,1583,0,0
-553,-559,0,0,0,0,0,0,0,0,0,-1,671,1583,0,0
-546,-559,0,0,0,0,0,0,0,0,0,-1,678,1583,0,0
-539,-559,0,0,0,0,0,0,0,0,0,-1,685,1583,0,0
-532,-559,0,0,0,0,0,0,0,0,0,-1,692,1583,0,0
-525,-559,0,0,0,0,0,0,0,0,0,-1,699,1583,0,0
-518,-559,0,0,0,0,0,0,0,0,0,-1,706,1583,0,0
-511,-559,0,0,0,0,0,0,0,0,0,-1,713,1583,0,0
-504,-559,0,0,0,0,0,0,0,0,0,-1,720,1583,0,0
-497,-559,0,0,0,0,0,0,0,0,0,-1,727,1583,0,0
-490,-559,-5.49835,4.47424,0,0,0,0,0,0,0,-1,734,1583,-5.49833,-4.4743
-483,-559,-5.24078,4.74561,0,0,0,0,0,0,0,-1,741,1583,-5.24079,-4.74563
-476,-559,-4.98022,4.99316,0,0,0,0,0,0,0,-1,748,1583,-4.98024,-4.99321
-469,-559,-4.6424,5.38062,0,0,0,0,0,0,0,-1,755,1583,-4.64237,-5.38058
-462,-559,-0.161865,6.49438,0,0,0,0,0,0,0,-1,762,1583,-0.161835,-6.49444
-455,-559,1.08826,7.02527,0,0,0,0,0,0,0,-1,769,1583,1.08823,-7.02529
-448,-559,1.07892,9.98511,0,0,0,0,0,0,0,-1,776,1583,1.0789,-9.98513
-441,-559,0.283997,10.2286,0.0062361,0.0317586,0.0226815,0.0450223,-0.00702764,1.04164,0.0326108,0.0444206,783,1583,0.284022,-10.2286
-434,-559,0.81604,11.6603,0.00430432,0.0215476,0.0164217,0.0314733,-0.00562142,1.02713,0.0230853,0.0364467,790,1583,0.816011,-11.6603
-427,-559,0.661438,12.0544,0.00287595,0.0143831,0.0118244,0.0217795,-0.00452041,1.01183,0.0162376,0.0255195,797,1583,0.661418,-12.0544
-420,-559,0.613525,12.304,0.00150572,0.00807234,0.0077508,0.0132066,-0.00362852,0.985744,0.0102307,0.028315,804,1583,0.613505,-12.304
-413,-559,0.612915,12.6029,0.000821721,0.00527683,0.00529528,0.00879402,-0.00269546,0.984496,0.00693795,0.0134519,811,1583,0.612905,-12.6029
-406,-559,0.61908,12.9379,0.000446039,0.00304378,0.00345102,0.00543226,-0.00194244,0.965385,0.00441384,0.00953143,818,1583,0.619072,-12.9378
-399,-559,0.623535,13.2655,5.96776e-05,0.00195767,0.00217675,0.00338329,-0.00136595,0.990961,0.00282323,0.0125169,825,1583,0.623539,-13.2655
-392,-559,0.601868,13.567,-1.16291e-05,0.0010244,0.00122903,0.00184012,-0.000827357,0.98484,0.00157664,0.0155378,832,1583,0.601888,-13.5671
-385,-559,0.59375,13.8965,-6.01015e-06,0.000160198,0.000227832,0.000319609,-0.000165422,0.96028,0.00028471,0.015365,839,1583,0.593762,-13.8965
-378,-559,0.600159,14.2222,0.000474036,-0.0001321,-1.26674e-05,0.0004743,-0.000132364,-0.0208864,0.000368337,0.0147368,846,1583,0.600145,-14.2222
-371,-559,0.554321,14.5679,0.00109962,-0.000242741,-0.000185216,0.0011247,-0.000267828,-0.134627,0.000853207,0.0213602,853,1583,0.554343,-14.5679
-364,-559,0.561279,14.8252,0.00184784,-0.000633637,-0.000365495,0.00190056,-0.00068635,-0.143238,0.00154742,0.0187716,860,1583,0.561264,-14.8252
-357,-559,0.571106,15.1063,0.0028202,-0.00116689,-0.000672293,0.00293051,-0.0012772,-0.162629,0.00249105,0.0115045,867,1583,0.571132,-15.1064
-350,-559,0.577148,15.4146,0.00390782,-0.00181497,-0.00092759,0.00405442,-0.00196156,-0.156742,0.00354269,0.0100009,874,1583,0.577167,-15.4145
-343,-559,0.574524,15.7256,0.00502275,-0.00247102,-0.00105945,0.00516965,-0.00261793,-0.13778,0.00457591,0.0109978,881,1583,0.574542,-15.7256
-336,-559,0.568542,16.0106,0.00612688,-0.00280496,-0.00091888,0.00622043,-0.00289851,-0.101461,0.00538001,0.0136662,888,1583,0.56857,-16.0106
-329,-559,0.615845,16.3977,0.00720183,-0.00315638,-0.000789177,0.00726161,-0.00321617,-0.0756069,0.00619782,0.0201418,895,1583,0.615825,-16.3977
-322,-559,0.712219,16.8245,0.00811771,-0.00354911,-0.000559683,0.00814449,-0.0035759,-0.0478258,0.00693602,0.0496381,902,1583,0.712244,-16.8244
-315,-559,0.868835,17.1085,0,0,0,0,0,0,0,-1,909,1583,0.868851,-17.1085
-308,-559,-0.151428,15.9811,0,0,0,0,0,0,0,-1,916,1583,-0.151426,-15.9811
-301,-559,0.525757,17.6586,0,0,0,0,0,0,0,-1,923,1583,0.525732,-17.6585
-294,-559,0.941772,18.1493,0,0,0,0,0,0,0,-1,930,1583,0.941761,-18.1493
-287,-559,-0.11792,15.4912,0,0,0,0,0,0,0,-1,937,1583,-0.117939,-15.4912
-280,-559,0.191467,13.5093,0,0,0,0,0,0,0,-1,944,1583,0.191441,-13.5093
-273,-559,2.12836,10.3059,0,0,0,0,0,0,0,-1,951,1583,2.12839,-10.3059
-266,-559,-0.597046,6.68933,0,0,0,0,0,0,0,-1,958,1583,-0.597031,-6.68937
-259,-559,-7.00311,8.62756,0,0,0,0,0,0,0,-1,965,1583,-7.00312,-8.6275
-252,-559,-9.4483,2.87805,0,0,0,0,0,0,0,-1,972,1583,-9.44829,-2.87805
-245,-559,-4.80804,7.1803,0,0,0,0,0,0,0,-1,979,1583,-4.80804,-7.18027
-238,-559,-8.45764,2.54858,0,0,0,0,0,0,0,-1,986,1583,-8.45763,-2.54862
-231,-559,-5.86914,4.34021,0,0,0,0,0,0,0,-1,993,1583,-5.86914,-4.34019
-224,-559,-3.30505,6.22864,0,0,0,0,0,0,0,-1,1000,1583,-3.30505,-6.22859
-217,-559,0,0,0,0,0,0,0,0,0,-1,1007,1583,0,0
-210,-559,0,0,0,0,0,0,0,0,0,-1,1014,1583,0,0
-203,-559,0,0,0,0,0,0,0,0,0,-1,1021,1583,0,0
-196,-559,0,0,0,0,0,0,0,0,0,-1,1028,1583,0,0
-189,-559,0,0,0,0,0,0,0,0,0,-1,1035,1583,0,0
-182,-559,0,0,0,0,0,0,0,0,0,-1,1042,1583,0,0
-175,-559,0,0,0,0,0,0,0,0,0,-1,1049,1583,0,0
-168,-559,0,0,0,0,0,0,0,0,0,-1,1056,1583,0,0
-161,-559,0,0,0,0,0,0,0,0,0,-1,1063,1583,0,0
-154,-559,0,0,0,0,0,0,0,0,0,-1,1070,1583,0,0
-147,-559,0,0,0,0,0,0,0,0,0,-1,1077,1583,0,0
-140,-559,0,0,0,0,0,0,0,0,0,-1,1084,1583,0,0
-133,-559,0,0,0,0,0,0,0,0,0,-1,1091,1583,0,0
-126,-559,0,0,0,0,0,0,0,0,0,-1,1098,1583,0,0
-119,-559,0,0,0,0,0,0,0,0,0,-1,1105,1583,0,0
-112,-559,0,0,0,0,0,0,0,0,0,-1,1112,1583,0,0
-105,-559,0,0,0,0,0,0,0,0,0,-1,1119,1583,0,0
-98,-559,0,0,0,0,0,0,0,0,0,-1,1126,1583,0,0
-91,-559,0,0,0,0,0,0,0,0,0,-1,1133,1583,0,0
-84,-559,0,0,0,0,0,0,0,0,0,-1,1140,1583,0,0
-77,-559,0,0,0,0,0,0,0,0,0,-1,1147,1583,0,0
-70,-559,0,0,0,0,0,0,0,0,0,-1,1154,1583,0,0
-63,-559,0,0,0,0,0,0,0,0,0,-1,1161,1583,0,0
-56,-559,0,0,0,0,0,0,0,0,0,-1,1168,1583,0,0
-49,-559,0,0,0,0,0,0,0,0,0,-1,1175,1583,0,0
-42,-559,0,0,0,0,0,0,0,0,0,-1,1182,1583,0,0
-35,-559,0,0,0,0,0,0,0,0,0,-1,1189,1583,0,0
-28,-559,0,0,0,0,0,0,0,0,0,-1,1196,1583,0,0
-21,-559,0,0,0,0,0,0,0,0,0,-1,1203,1583,0,0
-14,-559,0,0,0,0,0,0,0,0,0,-1,1210,1583,0,0
-7,-559,0,0,0,0,0,0,0,0,0,-1,1217,1583,0,0
0,-559,0,0,0,0,0,0,0,0,0,-1,1224,1583,0,0
7,-559,0,0,0,0,0,0,0,0,0,-1,1231,1583,0,0
14,-559,0,0,0,0,0,0,0,0,0,-1,1238,1583,0,0
21,-559,0,0,0,0,0,0,0,0,0,-1,1245,1583,0,0
28,-559,0,0,0,0,0,0,0,0,0,-1,1252,1583,0,0
35,-559,0,0,0,0,0,0,0,0,0,-1,1259,1583,0,0
42,-559,0,0,0,0,0,0,0,0,0,-1,1266,1583,0,0
49,-559,0,0,0,0,0,0,0,0,0,-1,1273,1583,0,0
56,-559,0,0,0,0,0,0,0,0,0,-1,1280,1583,0,0
63,-559,0,0,0,0,0,0,0,0,0,-1,1287,1583,0,0
70,-559,0,0,0,0,0,0,0,0,0,-1,1294,1583,0,0
77,-559,0,0,0,0,0,0,0,0,0,-1,1301,1583,0,0
84,-559,0,0,0,0,0,0,0,0,0,-1,1308,1583,0,0
91,-559,0,0,0,0,0,0,0,0,0,-1,1315,1583,0,0
98,-559,0,0,0,0,0,0,0,0,0,-1,1322,1583,0,0
105,-559,0,0,0,0,0,0,0,0,0,-1,1329,1583,0,0
112,-559,0,0,0,0,0,0,0,0,0,-1,1336,1583,0,0
119,-559,0,0,0,0,0,0,0,0,0,-1,1343,1583,0,0
126,-559,0,0,0,0,0,0,0,0,0,-1,1350,1583,0,0
133,-559,0,0,0,0,0,0,0,0,0,-1,1357,1583,0,0
140,-559,0,0,0,0,0,0,0,0,0,-1,1364,1583,0,0
147,-559,0,0,0,0,0,0,0,0,0,-1,1371,1583,0,0
154,-559,0,0,0,0,0,0,0,0,0,-1,1378,1583,0,0
161,-559,0,0,0,0,0,0,0,0,0,-1,1385,1583,0,0
168,-559,0,0,0,0,0,0,0,0,0,-1,1392,1583,0,0
175,-559,0,0,0,0,0,0,0,0,0,-1,1399,1583,0,0
182,-559,0,0,0,0,0,0,0,0,0,-1,1406,1583,0,0
189,-559,0,0,0,0,0,0,0,0,0,-1,1413,1583,0,0
196,-559,0,0,0,0,0,0,0,0,0,-1,1420,1583,0,0
203,-559,0,0,0,0,0,0,0,0,0,-1,1427,1583,0,0
210,-559,0,0,0,0,0,0,0,0,0,-1,1434,1583,0,0
217,-559,0,0,0,0,0,0,0,0,0,-1,1441,1583,0,0
224,-559,0,0,0,0,0,0,0,0,0,-1,1448,1583,0,0
231,-559,0,0,0,0,0,0,0,0,0,-1,1455,1583,0,0
238,-559,0,0,0,0,0,0,0,0,0,-1,1462,1583,0,0
245,-559,0,0,0,0,0,0,0,0,0,-1,1469,1583,0,0
252,-559,0,0,0,0,0,0,0,0,0,-1,1476,1583,0,0
259,-559,0,0,0,0,0,0,0,0,0,-1,1483,1583,0,0
266,-559,0,0,0,0,0,0,0,0,0,-1,1490,1583,0,0
273,-559,0,0,0,0,0,0,0,0,0,-1,1497,1583,0,0
280,-559,0,0,0,0,0,0,0,0,0,-1,1504,1583,0,0
287,-559,0,0,0,0,0,0,0,0,0,-1,1511,1583,0,0
294,-559,0,0,0,0,0,0,0,0,0,-1,1518,1583,0,0
301,-559,0,0,0,0,0,0,0,0,0,-1,1525,1583,0,0
308,-559,0,0,0,0,0,0,0,0,0,-1,1532,1583,0,0
315,-559,0,0,0,0,0,0,0,0,0,-1,1539,1583,0,0
322,-559,0,0,0,0,0,0,0,0,0,-1,1546,1583,0,0
329,-559,0,0,0,0,0,0,0,0,0,-1,1553,1583,0,0
336,-559,5.97668,3.09827,0,0,0,0,0,0,0,-1,1560,1583,5.97667,-3.09824
343,-559,5.44824,2.88696,0,0,0,0,0,0,0,-1,1567,1583,5.44819,-2.88693
350,-559,4.69775,3.27051,0,0,0,0,0,0,0,-1,1574,1583,4.69771,-3.27048
357,-559,3.88025,3.60999,0,0,0,0,0,0,0,-1,1581,1583,3.88027,-3.60998
364,-559,5.00928,5.32605,0,0,0,0,0,0,0,-1,1588,1583,5.00928,-5.32607
371,-559,1.84436,2.52441,0,0,0,0,0,0,0,-1,1595,1583,1.84441,-2.52447
378,-559,6.34753,1.53137,0,0,0,0,0,0,0,-1,1602,1583,6.34752,-1.53139
385,-559,6.95911,1.48181,0,0,0,0,0,0,0,-1,1609,1583,6.95916,-1.48175
392,-559,11.6949,4.77734,0,0,0,0,0,0,0,-1,1616,1583,11.6949,-4.77731
399,-559,11.1104,5.56909,0,0,0,0,0,0,0,-1,1623,1583,11.1103,-5.56905
406,-559,10.3385,6.48657,0,0,0,0,0,0,0,-1,1630,1583,10.3385,-6.48661
413,-559,9.76147,6.97571,0,0,0,0,0,0,0,-1,1637,1583,9.76143,-6.97574
420,-559,7.77124,10.5851,0,0,0,0,0,0,0,-1,1644,1583,7.77128,-10.585
427,-559,10.1022,12.5565,0,0,0,0,0,0,0,-1,1651,1583,10.1021,-12.5565
434,-559,9.62769,14.6309,0,0,0,0,0,0,0,-1,1658,1583,9.62771,-14.6309
441,-559,12.3944,18.8057,0,0,0,0,0,0,0,-1,1665,1583,12.3944,-18.8057
448,-559,10.5475,17.4174,-0.00916362,0.0215991,0.0199843,0.0314359,-0.0190005,1.11338,0.029413,0.0492434,1672,1583,10.5475,-17.4174
455,-559,10.905,17.2203,-0.00735217,0.016399,0.0167792,0.0250799,-0.0160331,1.09335,0.0239274,0.0492631,1679,1583,10.9051,-17.2204
462,-559,11.0023,17.2758,-0.0058802,0.0120715,0.0137536,0.019519,-0.0133277,1.0745,0.0190761,0.0473659,1686,1583,11.0024,-17.2758
469,-559,10.8865,17.1912,-0.00469876,0.00806505,0.0111349,0.0145173,-0.011151,1.04562,0.014862,0.0244939,1693,1583,10.8865,-17.1912
476,-559,10.8961,16.8577,-0.00362719,0.00507084,0.00870065,0.0104489,-0.00900521,1.01716,0.0112421,0.0116251,1700,1583,10.8962,-16.8577
483,-559,10.9438,16.5217,-0.00261595,0.00253005,0.00682339,0.00724944,-0.00733534,0.965697,0.00842058,0.0118729,1707,1583,10.9438,-16.5218
490,-559,10.9425,16.2335,-0.00179693,0.000732133,0.00533453,0.00494997,-0.00601476,0.901773,0.00634043,0.0145651,1714,1583,10.9426,-16.2335
497,-559,10.9358,15.972,-0.00111412,-0.00038401,0.00396556,0.00323326,-0.0047314,0.831297,0.00462543,0.0184192,1721,1583,10.9358,-15.972
504,-559,10.9343,15.6904,-0.000600116,-0.0017827,0.00277665,0.0016475,-0.00403032,0.680489,0.00337295,0.0221697,1728,1583,10.9343,-15.6905
511,-559,10.9042,15.3854,-0.000176785,-0.0019905,0.00185678,0.000982757,-0.00315004,0.558234,0.00249304,0.0192486,1735,1583,10.9042,-15.3854
518,-559,10.9266,15.1045,0.000158464,-0.00173936,0.00119587,0.000736163,-0.00231706,0.450019,0.00183986,0.0126476,1742,1583,10.9266,-15.1045
525,-559,10.9224,14.8291,0.000388613,-0.00152009,0.000771107,0.000661206,-0.00179268,0.339797,0.0014661,0.0117924,1749,1583,10.9224,-14.8291
532,-559,10.9005,14.5393,0.000423874,-0.00145359,0.000571925,0.000584376,-0.00161409,0.273598,0.00131488,0.0141801,1756,1583,10.9005,-14.5393
539,-559,10.8828,14.2687,0.000371467,-0.00161054,0.000553031,0.000515334,-0.00175441,0.254502,0.00137398,0.0183814,1763,1583,10.8828,-14.2686
546,-559,10.8699,13.9694,0.000160235,-0.00195883,0.0007882,0.000421259,-0.00221985,0.319797,0.00163847,0.0157085,1770,1583,10.8698,-13.9694
553,-559,11.0201,13.5536,0.000125811,-0.00248856,0.0010267,0.000480806,-0.00284356,0.332895,0.00207463,0.0246225,1777,1583,11.0201,-13.5536
560,-559,11.0339,13.1517,0,0,0,0,0,0,0,-1,1784,1583,11.034,-13.1517
567,-559,9.41101,10.62,0,0,0,0,0,0,0,-1,1791,1583,9.41101,-10.62
574,-559,10.5109,10.7317,0,0,0,0,0,0,0,-1,1798,1583,10.5108,-10.7317
581,-559,5.97095,5.96179,0,0,0,0,0,0,0,-1,1805,1583,5.97093,-5.96181
588,-559,5.79102,5.89954,0,0,0,0,0,0,0,-1,1812,1583,5.79098,-5.89949
595,-559,5.79089,6.24231,0,0,0,0,0,0,0,-1,1819,1583,5.7909,-6.24227
602,-559,12.478,2.35669,0,0,0,0,0,0,0,-1,1826,1583,12.4781,-2.35675
609,-559,14.0479,1.22681,0,0,0,0,0,0,0,-1,1833,1583,14.0479,-1.22681
616,-559,0,0,0,0,0,0,0,0,0,-1,1840,1583,0,0
623,-559,0,0,0,0,0,0,0,0,0,-1,1847,1583,0,0
630,-559,0,0,0,0,0,0,0,0,0,-1,1854,1583,0,0
637,-559,0,0,0,0,0,0,0,0,0,-1,1861,1583,0,0
644,-559,0,0,0,0,0,0,0,0,0,-1,1868,1583,0,0
651,-559,0,0,0,0,0,0,0,0,0,-1,1875,1583,0,0
658,-559,0,0,0,0,0,0,0,0,0,-1,1882,1583,0,0
665,-559,0,0,0,0,0,0,0,0,0,-1,1889,1583,0,0
672,-559,0,0,0,0,0,0,0,0,0,-1,1896,1583,0,0
679,-559,0,0,0,0,0,0,0,0,0,-1,1903,1583,0,0
686,-559,0,0,0,0,0,0,0,0,0,-1,1910,1583,0,0
693,-559,0,0,0,0,0,0,0,0,0,-1,1917,1583,0,0
700,-559,0,0,0,0,0,0,0,0,0,-1,1924,1583,0,0
707,-559,0,0,0,0,0,0,0,0,0,-1,1931,1583,0,0
714,-559,0,0,0,0,0,0,0,0,0,-1,1938,1583,0,0
721,-559,0,0,0,0,0,0,0,0,0,-1,1945,1583,0,0
728,-559,0,0,0,0,0,0,0,0,0,-1,1952,1583,0,0
735,-559,0,0,0,0,0,0,0,0,0,-1,1959,1583,0,0
742,-559,0,0,0,0,0,0,0,0,0,-1,1966,1583,0,0
749,-559,0,0,0,0,0,0,0,0,0,-1,1973,1583,0,0
756,-559,0,0,0,0,0,0,0,0,0,-1,1980,1583,0,0
763,-559,0,0,0,0,0,0,0,0,0,-1,1987,1583,0,0
770,-559,0,0,0,0,0,0,0,0,0,-1,1994,1583,0,0
777,-559,0,0,0,0,0,0,0,0,0,-1,2001,1583,0,0
784,-559,0,0,0,0,0,0,0,0,0,-1,2008,1583,0,0
791,-559,0,0,0,0,0,0,0,0,0,-1,2015,1583,0,0
798,-559,0,0,0,0,0,0,0,0,0,-1,2022,1583,0,0
805,-559,0,0,0,0,0,0,0,0,0,-1,2029,1583,0,0
812,-559,0,0,0,0,0,0,0,0,0,-1,2036,1583,0,0
-700,-566,0,0,0,0,0,0,0,0,0,-1,524,1590,0,0
-693,-566,0,0,0,0,0,0,0,0,0,-1,531,1590,0,0
-686,-566,0,0,0,0,0,0,0,0,0,-1,538,1590,0,0
-679,-566,0,0,0,0,0,0,0,0,0,-1,545,1590,0,0
-672,-566,0,0,0,0,0,0,0,0,0,-1,552,1590,0,0
-665,-566,0,0,0,0,0,0,0,0,0,-1,559,1590,0,0
-658,-566,0,0,0,0,0,0,0,0,0,-1,566,1590,0,0
-651,-566,0,0,0,0,0,0,0,0,0,-1,573,1590,0,0
-644,-566,0,0,0,0,0,0,0,0,0,-1,580,1590,0,0
-637,-566,0,0,0,0,0,0,0,0,0,-1,587,1590,0,0
-630,-566,0,0,0,0,0,0,0,0,0,-1,594,1590,0,0
-623,-566,0,0,0,0,0,0,0,0,0,-1,601,1590,0,0
-616,-566,0,0,0,0,0,0,0,0,0,-1,608,1590,0,0
-609,-566,0,0,0,0,0,0,0,0,0,-1,615,1590,0,0
-602,-566,0,0,0,0,0,0,0,0,0,-1,622,1590,0,0
-595,-566,0,0,0,0,0,0,0,0,0,-1,629,1590,0,0
-588,-566,0,0,0,0,0,0,0,0,0,-1,636,1590,0,0
-581,-566,0,0,0,0,0,0,0,0,0,-1,643,1590,0,0
-574,-566,0,0,0,0,0,0,0,0,0,-1,650,1590,0,0
-567,-566,0,0,0,0,0,0,0,0,0,-1,657,1590,0,0
-560,-566,0,0,0,0,0,0,0,0,0,-1,664,1590,0,0
-553,-566,0,0,0,0,0,0,0,0,0,-1,671,1590,0,0
-546,-566,0,0,0,0,0,0,0,0,0,-1,678,1590,0,0
-539,-566,0,0,0,0,0,0,0,0,0,-1,685,1590,0,0
-532,-566,0,0,0,0,0,0,0,0,0,-1,692,1590,0,0
-525,-566,0,0,0,0,0,0,0,0,0,-1,699,1590,0,0
-518,-566,0,0,0,0,0,0,0,0,0,-1,706,1590,0,0
-511,-566,0,0,0,0,0,0,0,0,0,-1,713,1590,0,0
-504,-566,0,0,0,0,0,0,0,0,0,-1,720,1590,0,0
-497,-566,0,0,0,0,0,0,0,0,0,-1,727,1590,0,0
-490,-566,0,0,0,0,0,0,0,0,0,-1,734,1590,0,0
-483,-566,-7.17084,2.78613,0,0,0,0,0,0,0,-1,741,1590,-7.17083,-2.78618
-476,-566,-7.13971,2.87183,0,0,0,0,0,0,0,-1,748,1590,-7.13971,-2.87184
-469,-566,-6.43829,3.2998,0,0,0,0,0,0,0,-1,755,1590,-6.43829,-3.2998
-462,-566,-0.459106,3.89343,0,0,0,0,0,0,0,-1,762,1590,-0.459095,-3.89341
-455,-566,0.280212,4.74023,0,0,0,0,0,0,0,-1,769,1590,0.280207,-4.74023
-448,-566,0.436951,5.51306,0,0,0,0,0,0,0,-1,776,1590,0.436971,-5.51301
-441,-566,0.145203,9.74512,0,0,0,0,0,0,0,-1,783,1590,0.145187,-9.74509
-434,-566,1.13623,11.6942,0,0,0,0,0,0,0,-1,790,1590,1.1362,-11.6942
-427,-566,0.483398,12.1058,0.00383314,0.0168727,0.014606,0.026348,-0.00564216,0.995317,0.019717,0.0430203,797,1590,0.483407,-12.1058
-420,-566,0.850037,12.3909,0.00180199,0.00930476,0.00943946,0.0157109,-0.00460419,0.974536,0.0122994,0.0450592,804,1590,0.850035,-12.3909
-413,-566,0.933655,12.619,0.00076186,0.00580335,0.00636367,0.0101273,-0.00356213,0.973975,0.008201,0.0207617,811,1590,0.933651,-12.6191
-406,-566,0.942932,12.9349,0.000203457,0.00317258,0.00413633,0.00608269,-0.00270665,0.957693,0.00519781,0.00981857,818,1590,0.942948,-12.935
-399,-566,0.935486,13.2612,-0.000322446,0.00179712,0.00262362,0.00356692,-0.00209224,0.977347,0.00330409,0.00963894,825,1590,0.935486,-13.2613
-392,-566,0.912537,13.5751,-0.000483388,0.000672137,0.00154814,0.00174681,-0.00155807,0.963993,0.00190911,0.0118088,832,1590,0.912534,-13.5751
-385,-566,0.923157,13.9086,-0.000644479,-0.000309534,0.000397903,-4.52958e-05,-0.000908717,0.984589,0.000591291,0.0138654,839,1590,0.923176,-13.9086
-378,-566,0.920715,14.2344,-0.00022048,-0.000451631,0.000144141,-0.000151301,-0.000520811,0.447473,0.000309363,0.0149658,846,1590,0.920721,-14.2344
-371,-566,0.853699,14.5789,0.00034233,-0.000472149,-3.60615e-05,0.000343923,-0.000473743,-0.0441604,0.000474059,0.0200898,853,1590,0.85369,-14.5789
-364,-566,0.840759,14.8699,0.0010207,-0.000698548,-0.000164344,0.00103627,-0.000714117,-0.094451,0.00101627,0.0200748,860,1590,0.840744,-14.8699
-357,-566,0.860657,15.1089,0.00189431,-0.00104098,-0.000397236,0.00194712,-0.00109379,-0.132165,0.00177856,0.0172503,867,1590,0.860648,-15.1089
-350,-566,0.901672,15.4468,0.00282321,-0.00140075,-0.000604026,0.00290788,-0.00148543,-0.139282,0.00258042,0.0208283,874,1590,0.90169,-15.4468
-343,-566,0.912903,15.7069,0.00370826,-0.00172438,-0.000688075,0.00379405,-0.00181017,-0.124047,0.00330248,0.0256986,881,1590,0.912907,-15.7069
-336,-566,0.828369,15.9851,0.00454723,-0.00173581,-0.000533301,0.00459217,-0.00178075,-0.084078,0.00379688,0.0246385,888,1590,0.828378,-15.9852
-329,-566,0.900269,16.2706,0.00529822,-0.00172384,-0.000437555,0.00532538,-0.001751,-0.0619919,0.00425573,0.0161765,895,1590,0.900275,-16.2707
-322,-566,0.963257,16.6598,0.00592051,-0.00174805,-0.000266252,0.00592974,-0.00175728,-0.0346643,0.00465093,0.0200926,902,1590,0.963242,-16.6598
-315,-566,0.802917,16.946,0.00647462,-0.00161776,-0.000115609,0.00647627,-0.00161941,-0.0142822,0.00494648,0.0338039,909,1590,0.802943,-16.946
-308,-566,0.71344,17.2308,0.00719691,-0.00170163,-3.71194e-05,0.00719706,-0.00170179,-0.00417131,0.00545453,0.0363656,916,1590,0.713447,-17.2308
-301,-566,0.876648,17.3871,0,0,0,0,0,0,0,-1,923,1590,0.876674,-17.3871
-294,-566,1.14752,17.9785,0,0,0,0,0,0,0,-1,930,1590,1.14751,-17.9785
-287,-566,1.46661,18.4353,0,0,0,0,0,0,0,-1,937,1590,1.46661,-18.4353
-280,-566,1.59406,17.8762,0,0,0,0,0,0,0,-1,944,1590,1.59405,-17.8762
-273,-566,0.49762,11.2427,0,0,0,0,0,0,0,-1,951,1590,0.497591,-11.2426
-266,-566,0.392151,6.90295,0,0,0,0,0,0,0,-1,958,1590,0.392151,-6.90294
-259,-566,0.343628,6.47437,0,0,0,0,0,0,0,-1,965,1590,0.34363,-6.47438
-252,-566,-7.68311,1.01343,0,0,0,0,0,0,0,-1,972,1590,-7.68308,-1.01348
-245,-566,-11.1835,1.97522,0,0,0,0,0,0,0,-1,979,1590,-11.1835,-1.97527
-238,-566,-10.4883,2.40491,0,0,0,0,0,0,0,-1,986,1590,-10.4883,-2.40487
-231,-566,-7.41827,4.22803,0,0,0,0,0,0,0,-1,993,1590,-7.41827,-4.22803
-224,-566,-4.67188,6.30859,0,0,0,0,0,0,0,-1,1000,1590,-4.67185,-6.30853
-217,-566,-2.82867,7.52527,0,0,0,0,0,0,0,-1,1007,1590,-2.82869,-7.52531
-210,-566,-1.03436,8.67737,0,0,0,0,0,0,0,-1,1014,1590,-1.03439,-8.67733
-203,-566,0,0,0,0,0,0,0,0,0,-1,1021,1590,0,0
-196,-566,0,0,0,0,0,0,0,0,0,-1,1028,1590,0,0
-189,-566,0,0,0,0,0,0,0,0,0,-1,1035,1590,0,0
-182,-566,0,0,0,0,0,0,0,0,0,-1,1042,1590,0,0
-175,-566,0,0,0,0,0,0,0,0,0,-1,1049,1590,0,0
-168,-566,0,0,0,0,0,0,0,0,0,-1,1056,1590,0,0
-161,-566,0,0,0,0,0,0,0,0,0,-1,1063,1590,0,0
-154,-566,0,0,0,0,0,0,0,0,0,-1,1070,1590,0,0
-147,-566,0,0,0,0,0,0,0,0,0,-1,1077,1590,0,0
-140,-566,0,0,0,0,0,0,0,0,0,-1,1084,1590,0,0
-133,-566,0,0,0,0,0,0,0,0,0,-1,1091,1590,0,0
-126,-566,0,0,0,0,0,0,0,0,0,-1,1098,1590,0,0
-119,-566,0,0,0,0,0,0,0,0,0,-1,1105,1590,0,0
-112,-566,0,0,0,0,0,0,0,0,0,-1,1112,1590,0,0
-105,-566,0,0,0,0,0,0,0,0,0,-1,1119,1590,0,0
-98,-566,0,0,0,0,0,0,0,0,0,-1,1126,1590,0,0
-91,-566,0,0,0,0,0,0,0,0,0,-1,1133,1590,0,0
-84,-566,0,0,0,0,0,0,0,0,0,-1,1140,1590,0,0
-77,-566,0,0,0,0,0,0,0,0,0,-1,1147,1590,0,0
-70,-566,0,0,0,0,0,0,0,0,0,-1,1154,1590,0,0
-63,-566,0,0,0,0,0,0,0,0,0,-1,1161,1590,0,0
-56,-566,0,0,0,0,0,0,0,0,0,-1,1168,1590,0,0
-49,-566,0,0,0,0,0,0,0,0,0,-1,1175,1590,0,0
-42,-566,0,0,0,0,0,0,0,0,0,-1,1182,1590,0,0
-35,-566,0,0,0,0,0,0,0,0,0,-1,1189,1590,0,0
-28,-566,0,0,0,0,0,0,0,0,0,-1,1196,1590,0,0
-21,-566,0,0,0,0,0,0,0,0,0,-1,1203,1590,0,0
-14,-566,0,0,0,0,0,0,0,0,0,-1,1210,1590,0,0
-7,-566,0,0,0,0,0,0,0,0,0,-1,1217,1590,0,0
0,-566,0,0,0,0,0,0,0,0,0,-1,1224,1590,0,0
7,-566,0,0,0,0,0,0,0,0,0,-1,1231,1590,0,0
14,-566,0,0,0,0,0,0,0,0,0,-1,1238,1590,0,0
21,-566,0,0,0,0,0,0,0,0,0,-1,1245,1590,0,0
28,-566,0,0,0,0,0,0,0,0,0,-1,1252,1590,0,0
35,-566,0,0,0,0,0,0,0,0,0,-1,1259,1590,0,0
42,-566,0,0,0,0,0,0,0,0,0,-1,1266,1590,0,0
49,-566,0,0,0,0,0,0,0,0,0,-1,1273,1590,0,0
56,-566,0,0,0,0,0,0,0,0,0,-1,1280,1590,0,0
63,-566,0,0,0,0,0,0,0,0,0,-1,1287,1590,0,0
70,-566,0,0,0,0,0,0,0,0,0,-1,1294,1590,0,0
77,-566,0,0,0,0,0,0,0,0,0,-1,1301,1590,0,0
84,-566,0,0,0,0,0,0,0,0,0,-1,1308,1590,0,0
91,-566,0,0,0,0,0,0,0,0,0,-1,1315,1590,0,0
98,-566,0,0,0,0,0,0,0,0,0,-1,1322,1590,0,0
105,-566,0,0,0,0,0,0,0,0,0,-1,1329,1590,0,0
112,-566,0,0,0,0,0,0,0,0,0,-1,1336,1590,0,0
119,-566,0,0,0,0,0,0,0,0,0,-1,1343,1590,0,0
126,-566,0,0,0,0,0,0,0,0,0,-1,1350,1590,0,0
133,-566,0,0,0,0,0,0,0,0,0,-1,1357,1590,0,0
140,-566,0,0,0,0,0,0,0,0,0,-1,1364,1590,0,0
147,-566,0,0,0,0,0,0,0,0,0,-1,1371,1590,0,0
154,-566,0,0,0,0,0,0,0,0,0,-1,1378,1590,0,0
161,-566,0,0,0,0,0,0,0,0,0,-1,1385,1590,0,0
168,-566,0,0,0,0,0,0,0,0,0,-1,1392,1590,0,0
175,-566,0,0,0,0,0,0,0,0,0,-1,1399,1590,0,0
182,-566,0,0,0,0,0,0,0,0,0,-1,1406,1590,0,0
189,-566,0,0,0,0,0,0,0,0,0,-1,1413,1590,0,0
196,-566,0,0,0,0,0,0,0,0,0,-1,1420,1590,0,0
203,-566,0,0,0,0,0,0,0,0,0,-1,1427,1590,0,0
210,-566,0,0,0,0,0,0,0,0,0,-1,1434,1590,0,0
217,-566,0,0,0,0,0,0,0,0,0,-1,1441,1590,0,0
224,-566,0,0,0,0,0,0,0,0,0,-1,1448,1590,0,0
231,-566,0,0,0,0,0,0,0,0,0,-1,1455,1590,0,0
238,-566,0,0,0,0,0,0,0,0,0,-1,1462,1590,0,0
245,-566,0,0,0,0,0,0,0,0,0,-1,1469,1590,0,0
252,-566,0,0,0,0,0,0,0,0,0,-1,1476,1590,0,0
259,-566,0,0,0,0,0,0,0,0,0,-1,1483,1590,0,0
266,-566,0,0,0,0,0,0,0,0,0,-1,1490,1590,0,0
273,-566,0,0,0,0,0,0,0,0,0,-1,1497,1590,0,0
280,-566,0,0,0,0,0,0,0,0,0,-1,1504,1590,0,0
287,-566,0,0,0,0,0,0,0,0,0,-1,1511,1590,0,0
294,-566,0,0,0,0,0,0,0,0,0,-1,1518,1590,0,0
301,-566,0,0,0,0,0,0,0,0,0,-1,1525,1590,0,0
308,-566,0,0,0,0,0,0,0,0,0,-1,1532,1590,0,0
315,-566,0,0,0,0,0,0,0,0,0,-1,1539,1590,0,0
322,-566,6.07983,4.44873,0,0,0,0,0,0,0,-1,1546,1590,6.07983,-4.44873
329,-566,5.77026,3.47534,0,0,0,0,0,0,0,-1,1553,1590,5.77026,-3.47535
336,-566,5.41138,2.62915,0,0,0,0,0,0,0,-1,1560,1590,5.41138,-2.62909
343,-566,4.81873,1.79089,0,0,0,0,0,0,0,-1,1567,1590,4.81878,-1.79095
350,-566,4.41663,2.44214,0,0,0,0,0,0,0,-1,1574,1590,4.41666,-2.44214
357,-566,6.34058,5.18579,0,0,0,0,0,0,0,-1,1581,1590,6.34059,-5.1858
364,-566,6.06262,4.20251,0,0,0,0,0,0,0,-1,1588,1590,6.06259,-4.20246
371,-566,5.78455,3.21912,0,0,0,0,0,0,0,-1,1595,1590,5.7846,-3.21912
378,-566,5.7439,0.695557,0,0,0,0,0,0,0,-1,1602,1590,5.74392,-0.695531
385,-566,5.67615,-0.573975,0,0,0,0,0,0,0,-1,1609,1590,5.67612,0.573956
392,-566,5.78638,1.82434,0,0,0,0,0,0,0,-1,1616,1590,5.78637,-1.82439
399,-566,5.36621,1.7373,0,0,0,0,0,0,0,-1,1623,1590,5.36627,-1.7373
406,-566,4.30359,5.26868,0,0,0,0,0,0,0,-1,1630,1590,4.30364,-5.26867
413,-566,4.27124,5.79492,0,0,0,0,0,0,0,-1,1637,1590,4.27123,-5.7949
420,-566,7.19812,8.25146,0,0,0,0,0,0,0,-1,1644,1590,7.19817,-8.25149
427,-566,10.455,10.6842,0,0,0,0,0,0,0,-1,1651,1590,10.455,-10.6842
434,-566,9.18567,14.3304,0,0,0,0,0,0,0,-1,1658,1590,9.18571,-14.3305
441,-566,10.812,18.2177,0,0,0,0,0,0,0,-1,1665,1590,10.8121,-18.2176
448,-566,10.8129,17.6626,-0.00704088,0.014337,0.0152185,0.0222453,-0.0149492,1.09155,0.0216115,0.0421312,1672,1590,10.8129,-17.6626
455,-566,10.5656,17.6372,-0.0055861,0.0115417,0.012616,0.0182259,-0.0122703,1.08358,0.0177186,0.0349652,1679,1590,10.5655,-17.6372
462,-566,10.5779,17.4623,-0.00435293,0.00901873,0.0101876,0.0145185,-0.00985265,1.07578,0.0141564,0.0212844,1686,1590,10.5779,-17.4623
469,-566,10.6135,17.1041,-0.00337386,0.00642031,0.00811718,0.0110032,-0.00795676,1.05682,0.0109935,0.0136318,1693,1590,10.6135,-17.1041
476,-566,10.6342,16.816,-0.00250653,0.00441369,0.0061623,0.00802085,-0.0061137,1.04121,0.00818531,0.00983057,1700,1590,10.6342,-16.816
483,-566,10.6368,16.526,-0.00170137,0.00248772,0.00471213,0.00554986,-0.0047635,0.994534,0.00596019,0.00954993,1707,1590,10.6368,-16.526
490,-566,10.6335,16.2319,-0.00103259,0.00100653,0.00357737,0.0037068,-0.00373285,0.924219,0.00429529,0.0109411,1714,1590,10.6335,-16.2319
497,-566,10.6801,15.9756,-0.000489241,5.07253e-06,0.00252425,0.00229423,-0.0027784,0.834199,0.00293313,0.0145732,1721,1590,10.6801,-15.9756
504,-566,10.6763,15.7094,-0.000114813,-0.00121851,0.00169647,0.0011173,-0.00245063,0.628149,0.00210735,0.019606,1728,1590,10.6762,-15.7094
511,-566,10.6421,15.4087,0.000210999,-0.00151884,0.00105945,0.000713749,-0.00202159,0.443072,0.00163832,0.018643,1735,1590,10.6421,-15.4087
518,-566,10.6354,15.1261,0.000441694,-0.00152185,0.000671286,0.000649249,-0.00172941,0.299868,0.00141973,0.0116174,1742,1590,10.6353,-15.1261
525,-566,10.6357,14.8303,0.000563201,-0.00158568,0.00049691,0.000672544,-0.00169502,0.216593,0.00140876,0.0116957,1749,1590,10.6358,-14.8303
532,-566,10.6384,14.5403,0.000516528,-0.00178312,0.00051824,0.000627921,-0.00189451,0.211723,0.00151629,0.0147981,1756,1590,10.6384,-14.5403
539,-566,10.6274,14.2244,0.000330886,-0.00225902,0.000758247,0.000536546,-0.00246468,0.26486,0.00184811,0.018136,1763,1590,10.6274,-14.2243
546,-566,10.6573,13.8481,-9.03218e-05,-0.00295673,0.00132124,0.000425769,-0.00347282,0.372386,0.0024694,0.0212383,1770,1590,10.6573,-13.8482
553,-566,10.7278,13.7053,-0.000272259,-0.00382726,0.0018875,0.000542952,-0.00464247,0.407701,0.00329093,0.0367941,1777,1590,10.7278,-13.7053
560,-566,10.5367,13.7283,0,0,0,0,0,0,0,-1,1784,1590,10.5367,-13.7282
567,-566,10.4869,13.5989,0,0,0,0,0,0,0,-1,1791,1590,10.487,-13.5989
574,-566,7.99548,3.14514,0,0,0,0,0,0,0,-1,1798,1590,7.99543,-3.14511
581,-566,2.54102,5.1311,0,0,0,0,0,0,0,-1,1805,1590,2.54099,-5.13111
588,-566,-1.91321,8.39197,0,0,0,0,0,0,0,-1,1812,1590,-1.91316,-8.39199
595,-566,9.0271,4.66467,0,0,0,0,0,0,0,-1,1819,1590,9.02705,-4.66468
602,-566,9.953,3.54895,0,0,0,0,0,0,0,-1,1826,1590,9.953,-3.54898
609,-566,0,0,0,0,0,0,0,0,0,-1,1833,1590,0,0
616,-566,0,0,0,0,0,0,0,0,0,-1,1840,1590,0,0
623,-566,0,0,0,0,0,0,0,0,0,-1,1847,1590,0,0
630,-566,0,0,0,0,0,0,0,0,0,-1,1854,1590,0,0
637,-566,0,0,0,0,0,0,0,0,0,-1,1861,1590,0,0
644,-566,0,0,0,0,0,0,0,0,0,-1,1868,1590,0,0
651,-566,0,0,0,0,0,0,0,0,0,-1,1875,1590,0,0
658,-566,0,0,0,0,0,0,0,0,0,-1,1882,1590,0,0
665,-566,0,0,0,0,0,0,0,0,0,-1,1889,1590,0,0
672,-566,0,0,0,0,0,0,0,0,0,-1,1896,1590,0,0
679,-566,0,0,0,0,0,0,0,0,0,-1,1903,1590,0,0
686,-566,0,0,0,0,0,0,0,0,0,-1,1910,1590,0,0
693,-566,0,0,0,0,0,0,0,0,0,-1,1917,1590,0,0
700,-566,0,0,0,0,0,0,0,0,0,-1,1924,1590,0,0
707,-566,0,0,0,0,0,0,0,0,0,-1,1931,1590,0,0
714,-566,0,0,0,0,0,0,0,0,0,-1,1938,1590,0,0
721,-566,0,0,0,0,0,0,0,0,0,-1,1945,1590,0,0
728,-566,0,0,0,0,0,0,0,0,0,-1,1952,1590,0,0
735,-566,0,0,0,0,0,0,0,0,0,-1,1959,1590,0,0
742,-566,0,0,0,0,0,0,0,0,0,-1,1966,1590,0,0
749,-566,0,0,0,0,0,0,0,0,0,-1,1973,1590,0,0
756,-566,0,0,0,0,0,0,0,0,0,-1,1980,1590,0,0
763,-566,0,0,0,0,0,0,0,0,0,-1,1987,1590,0,0
770,-566,0,0,0,0,0,0,0,0,0,-1,1994,1590,0,0
777,-566,0,0,0,0,0,0,0,0,0,-1,2001,1590,0,0
784,-566,0,0,0,0,0,0,0,0,0,-1,2008,1590,0,0
791,-566,0,0,0,0,0,0,0,0,0,-1,2015,1590,0,0
798,-566,0,0,0,0,0,0,0,0,0,-1,2022,1590,0,0
805,-566,0,0,0,0,0,0,0,0,0,-1,2029,1590,0,0
812,-566,0,0,0,0,0,0,0,0,0,-1,2036,1590,0,0
-700,-573,0,0,0,0,0,0,0,0,0,-1,524,1597,0,0
-693,-573,0,0,0,0,0,0,0,0,0,-1,531,1597,0,0
-686,-573,0,0,0,0,0,0,0,0,0,-1,538,1597,0,0
-679,-573,0,0,0,0,0,0,0,0,0,-1,545,1597,0,0
-672,-573,0,0,0,0,0,0,0,0,0,-1,552,1597,0,0
-665,-573,0,0,0,0,0,0,0,0,0,-1,559,1597,0,0
-658,-573,0,0,0,0,0,0,0,0,0,-1,566,1597,0,0
-651,-573,0,0,0,0,0,0,0,0,0,-1,573,1597,0,0
-644,-573,0,0,0,0,0,0,0,0,0,-1,580,1597,0,0
-637,-573,0,0,0,0,0,0,0,0,0,-1,587,1597,0,0
-630,-573,0,0,0,0,0,0,0,0,0,-1,594,1597,0,0
-623,-573,0,0,0,0,0,0,0,0,0,-1,601,1597,0,0
-616,-573,0,0,0,0,0,0,0,0,0,-1,608,1597,0,0
-609,-573,0,0,0,0,0,0,0,0,0,-1,615,1597,0,0
-602,-573,0,0,0,0,0,0,0,0,0,-1,622,1597,0,0
-595,-573,0,0,0,0,0,0,0,0,0,-1,629,1597,0,0
-588,-573,0,0,0,0,0,0,0,0,0,-1,636,1597,0,0
-581,-573,0,0,0,0,0,0,0,0,0,-1,643,1597,0,0
-574,-573,0,0,0,0,0,0,0,0,0,-1,650,1597,0,0
-567,-573,0,0,0,0,0,0,0,0,0,-1,657,1597,0,0
-560,-573,0,0,0,0,0,0,0,0,0,-1,664,1597,0,0
-553,-573,0,0,0,0,0,0,0,0,0,-1,671,1597,0,0
-546,-573,0,0,0,0,0,0,0,0,0,-1,678,1597,0,0
-539,-573,0,0,0,0,0,0,0,0,0,-1,685,1597,0,0
-532,-573,0,0,0,0,0,0,0,0,0,-1,692,1597,0,0
-525,-573,0,0,0,0,0,0,0,0,0,-1,699,1597,0,0
-518,-573,0,0,0,0,0,0,0,0,0,-1,706,1597,0,0
-511,-573,0,0,0,0,0,0,0,0,0,-1,713,1597,0,0
-504,-573,0,0,0,0,0,0,0,0,0,-1,720,1597,0,0
-497,-573,0,0,0,0,0,0,0,0,0,-1,727,1597,0,0
-490,-573,0,0,0,0,0,0,0,0,0,-1,734,1597,0,0
-483,-573,0,0,0,0,0,0,0,0,0,-1,741,1597,0,0
-476,-573,-9.3327,0.972778,0,0,0,0,0,0,0,-1,748,1597,-9.33268,-0.972776
-469,-573,-1.41681,1.13379,0,0,0,0,0,0,0,-1,755,1597,-1.41681,-1.13382
-462,-573,-0.748535,2.02588,0,0,0,0,0,0,0,-1,762,1597,-0.748533,-2.02584
-455,-573,-0.112976,2.70703,0,0,0,0,0,0,0,-1,769,1597,-0.112988,-2.70697
-448,-573,-1.26172,3.33252,0,0,0,0,0,0,0,-1,776,1597,-1.26173,-3.33248
-441,-573,0.108582,5.06726,0,0,0,0,0,0,0,-1,783,1597,0.108584,-5.06721
-434,-573,1.61768,7.05444,0,0,0,0,0,0,0,-1,790,1597,1.61767,-7.05446
-427,-573,0.200806,12.1625,0,0,0,0,0,0,0,-1,797,1597,0.200779,-12.1625
-420,-573,1.43365,12.1681,0,0,0,0,0,0,0,-1,804,1597,1.43368,-12.168
-413,-573,1.42572,12.5233,0.00104059,0.00632699,0.00774154,0.0118641,-0.00449655,0.949908,0.00975988,0.0453537,811,1597,1.42574,-12.5233
-406,-573,1.25525,12.9045,0.000436997,0.00333314,0.00509748,0.00718423,-0.0034141,0.92379,0.00624667,0.0217889,818,1597,1.25525,-12.9045
-399,-573,1.21753,13.277,-0.000200682,0.0016814,0.00332444,0.00419543,-0.0027147,0.923324,0.00401998,0.0112616,825,1597,1.21751,-13.277
-392,-573,1.23376,13.6018,-0.000411308,0.00039637,0.00210639,0.00213729,-0.00215223,0.880109,0.00247656,0.0107368,832,1597,1.23374,-13.6018
-385,-573,1.24152,13.9117,-0.000677923,-0.000663542,0.000812843,0.000142142,-0.00148361,0.789821,0.0010397,0.0131591,839,1597,1.24152,-13.9118
-378,-573,1.22443,14.2167,-0.0002922,-0.000679163,0.000511812,6.14806e-05,-0.00103284,0.604685,0.000709943,0.0151687,846,1597,1.2244,-14.2167
-371,-573,1.21338,14.5623,0.000200193,-0.000658242,0.000284655,0.000286006,-0.000744055,0.292798,0.000613993,0.0156132,853,1597,1.21337,-14.5623
-364,-573,1.18109,14.8811,0.000777047,-0.000777519,0.000157024,0.000792749,-0.000793221,0.099667,0.000915661,0.0177996,860,1597,1.18109,-14.8811
-357,-573,1.18768,15.1459,0.00149309,-0.000996979,-5.60485e-05,0.00149436,-0.00099824,-0.0224936,0.00144857,0.0216832,867,1597,1.1877,-15.1458
-350,-573,1.23584,15.464,0.00219301,-0.00116906,-0.000269782,0.00221452,-0.00119057,-0.0795644,0.00199534,0.0179974,874,1597,1.23585,-15.464
-343,-573,1.22223,15.757,0.00278184,-0.0012937,-0.000368693,0.00281492,-0.00132678,-0.0894967,0.00244212,0.0212962,881,1597,1.22223,-15.757
-336,-573,1.18884,16.0591,0.00333117,-0.0011479,-0.000262669,0.00334652,-0.00116326,-0.058377,0.00270351,0.0163798,888,1597,1.18884,-16.0591
-329,-573,1.20404,16.327,0.00379754,-0.000926488,-0.000199091,0.00380591,-0.000934864,-0.0420451,0.00289958,0.0178091,895,1597,1.20405,-16.3271
-322,-573,1.21069,16.6467,0.00414239,-0.000750662,-0.000100935,0.00414447,-0.000752743,-0.0206166,0.00304507,0.0138173,902,1597,1.21069,-16.6468
-315,-573,1.30707,17.0372,0.00445568,-0.000558611,-4.71929e-05,0.00445613,-0.000559056,-0.00941056,0.00317356,0.023225,909,1597,1.30708,-17.0372
-308,-573,1.27594,17.1907,0.00512726,-0.000573457,3.63537e-05,0.00512749,-0.000573689,0.0063767,0.00362472,0.0345072,916,1597,1.27594,-17.1906
-301,-573,1.39978,17.6091,0,0,0,0,0,0,0,-1,923,1597,1.3998,-17.6091
-294,-573,1.40759,17.7371,0.0058896,-0.000725687,0.00107908,0.00606116,-0.000897255,0.157676,0.00437067,0.0352755,930,1597,1.4076,-17.7371
-287,-573,1.5188,18.2313,0.00572027,-0.00089564,0.00160522,0.00608917,-0.00126454,0.225893,0.00454005,0.0430889,937,1597,1.51879,-18.2313
-280,-573,1.54626,18.7816,0,0,0,0,0,0,0,-1,944,1597,1.54627,-18.7816
-273,-573,0.99762,18.5568,0,0,0,0,0,0,0,-1,951,1597,0.997625,-18.5567
-266,-573,1.31116,7.1814,0,0,0,0,0,0,0,-1,958,1597,1.31118,-7.18142
-259,-573,1.2514,6.70959,0,0,0,0,0,0,0,-1,965,1597,1.25137,-6.70965
-252,-573,2.07874,5.27161,0,0,0,0,0,0,0,-1,972,1597,2.07875,-5.27157
-245,-573,-10.2592,1.09827,0,0,0,0,0,0,0,-1,979,1597,-10.2592,-1.09823
-238,-573,-11.5463,4.44141,0,0,0,0,0,0,0,-1,986,1597,-11.5463,-4.44146
-231,-573,-9.23431,4.14539,0,0,0,0,0,0,0,-1,993,1597,-9.23431,-4.14534
-224,-573,-6.70044,7.40857,0,0,0,0,0,0,0,-1,1000,1597,-6.70045,-7.40851
-217,-573,-4.25824,8.59119,0,0,0,0,0,0,0,-1,1007,1597,-4.25824,-8.59122
-210,-573,-2.39661,9.73914,0,0,0,0,0,0,0,-1,1014,1597,-2.39658,-9.73915
-203,-573,-0.557373,10.9005,0,0,0,0,0,0,0,-1,1021,1597,-0.557387,-10.9006
-196,-573,-1.65344,9.02246,0,0,0,0,0,0,0,-1,1028,1597,-1.65349,-9.02241
-189,-573,-6.12915,6.66882,0,0,0,0,0,0,0,-1,1035,1597,-6.12913,-6.66884
-182,-573,0,0,0,0,0,0,0,0,0,-1,1042,1597,0,0
-175,-573,0,0,0,0,0,0,0,0,0,-1,1049,1597,0,0
-168,-573,0,0,0,0,0,0,0,0,0,-1,1056,1597,0,0
-161,-573,0,0,0,0,0,0,0,0,0,-1,1063,1597,0,0
-154,-573,0,0,0,0,0,0,0,0,0,-1,1070,1597,0,0
-147,-573,0,0,0,0,0,0,0,0,0,-1,1077,1597,0,0
-140,-573,0,0,0,0,0,0,0,0,0,-1,1084,1597,0,0
-133,-573,0,0,0,0,0,0,0,0,0,-1,1091,1597,0,0
-126,-573,0,0,0,0,0,0,0,0,0,-1,1098,1597,0,0
-119,-573,0,0,0,0,0,0,0,0,0,-1,1105,1597,0,0
-112,-573,0,0,0,0,0,0,0,0,0,-1,1112,1597,0,0
-105,-573,0,0,0,0,0,0,0,0,0,-1,1119,1597,0,0
-98,-573,0,0,0,0,0,0,0,0,0,-1,1126,1597,0,0
-91,-573,0,0,0,0,0,0,0,0,0,-1,1133,1597,0,0
-84,-573,0,0,0,0,0,0,0,0,0,-1,1140,1597,0,0
-77,-573,0,0,0,0,0,0,0,0,0,-1,1147,1597,0,0
-70,-573,0,0,0,0,0,0,0,0,0,-1,1154,1597,0,0
-63,-573,0,0,0,0,0,0,0,0,0,-1,1161,1597,0,0
-56,-573,0,0,0,0,0,0,0,0,0,-1,1168,1597,0,0
-49,-573,0,0,0,0,0,0,0,0,0,-1,1175,1597,0,0
-42,-573,0,0,0,0,0,0,0,0,0,-1,1182,1597,0,0
-35,-573,0,0,0,0,0,0,0,0,0,-1,1189,1597,0,0
-28,-573,0,0,0,0,0,0,0,0,0,-1,1196,1597,0,0
-21,-573,0,0,0,0,0,0,0,0,0,-1,1203,1597,0,0
-14,-573,0,0,0,0,0,0,0,0,0,-1,1210,1597,0,0
-7,-573,0,0,0,0,0,0,0,0,0,-1,1217,1597,0,0
0,-573,0,0,0,0,0,0,0,0,0,-1,1224,1597,0,0
7,-573,0,0,0,0,0,0,0,0,0,-1,1231,1597,0,0
14,-573,0,0,0,0,0,0,0,0,0,-1,1238,1597,0,0
21,-573,0,0,0,0,0,0,0,0,0,-1,1245,1597,0,0
28,-573,0,0,0,0,0,0,0,0,0,-1,1252,1597,0,0
35,-573,0,0,0,0,0,0,0,0,0,-1,1259,1597,0,0
42,-573,0,0,0,0,0,0,0,0,0,-1,1266,1597,0,0
49,-573,0,0,0,0,0,0,0,0,0,-1,1273,1597,0,0
56,-573,0,0,0,0,0,0,0,0,0,-1,1280,1597,0,0
63,-573,0,0,0,0,0,0,0,0,0,-1,1287,1597,0,0
70,-573,0,0,0,0,0,0,0,0,0,-1,1294,1597,0,0
77,-573,0,0,0,0,0,0,0,0,0,-1,1301,1597,0,0
84,-573,0,0,0,0,0,0,0,0,0,-1,1308,1597,0,0
91,-573,0,0,0,0,0,0,0,0,0,-1,1315,1597,0,0
98,-573,0,0,0,0,0,0,0,0,0,-1,1322,1597,0,0
105,-573,0,0,0,0,0,0,0,0,0,-1,1329,1597,0,0
112,-573,0,0,0,0,0,0,0,0,0,-1,1336,1597,0,0
119,-573,0,0,0,0,0,0,0,0,0,-1,1343,1597,0,0
126,-573,0,0,0,0,0,0,0,0,0,-1,1350,1597,0,0
133,-573,0,0,0,0,0,0,0,0,0,-1,1357,1597,0,0
140,-573,0,0,0,0,0,0,0,0,0,-1,1364,1597,0,0
147,-573,0,0,0,0,0,0,0,0,0,-1,1371,1597,0,0
154,-573,0,0,0,0,0,0,0,0,0,-1,1378,1597,0,0
161,-573,0,0,0,0,0,0,0,0,0,-1,1385,1597,0,0
168,-573,0,0,0,0,0,0,0,0,0,-1,1392,1597,0,0
175,-573,0,0,0,0,0,0,0,0,0,-1,1399,1597,0,0
182,-573,0,0,0,0,0,0,0,0,0,-1,1406,1597,0,0
189,-573,0,0,0,0,0,0,0,0,0,-1,1413,1597,0,0
196,-573,0,0,0,0,0,0,0,0,0,-1,1420,1597,0,0
203,-573,0,0,0,0,0,0,0,0,0,-1,1427,1597,0,0
210,-573,0,0,0,0,0,0,0,0,0,-1,1434,1597,0,0
217,-573,0,0,0,0,0,0,0,0,0,-1,1441,1597,0,0
224,-573,0,0,0,0,0,0,0,0,0,-1,1448,1597,0,0
231,-573,0,0,0,0,0,0,0,0,0,-1,1455,1597,0,0
238,-573,0,0,0,0,0,0,0,0,0,-1,1462,1597,0,0
245,-573,0,0,0,0,0,0,0,0,0,-1,1469,1597,0,0
252,-573,0,0,0,0,0,0,0,0,0,-1,1476,1597,0,0
259,-573,0,0,0,0,0,0,0,0,0,-1,1483,1597,0,0
266,-573,0,0,0,0,0,0,0,0,0,-1,1490,1597,0,0
273,-573,0,0,0,0,0,0,0,0,0,-1,1497,1597,0,0
280,-573,0,0,0,0,0,0,0,0,0,-1,1504,1597,0,0
287,-573,0,0,0,0,0,0,0,0,0,-1,1511,1597,0,0
294,-573,0,0,0,0,0,0,0,0,0,-1,1518,1597,0,0
301,-573,0,0,0,0,0,0,0,0,0,-1,1525,1597,0,0
308,-573,5.93042,9.71143,0,0,0,0,0,0,0,-1,1532,1597,5.93046,-9.71144
315,-573,4.34204,11.719,0,0,0,0,0,0,0,-1,1539,1597,4.34205,-11.719
322,-573,10.3269,7.77563,0,0,0,0,0,0,0,-1,1546,1597,10.327,-7.77565
329,-573,4.99573,3.80273,0,0,0,0,0,0,0,-1,1553,1597,4.9957,-3.80273
336,-573,4.85693,2.53455,0,0,0,0,0,0,0,-1,1560,1597,4.8569,-2.53459
343,-573,5.5946,2.15894,0,0,0,0,0,0,0,-1,1567,1597,5.59456,-2.1589
350,-573,2.53748,1.56433,0,0,0,0,0,0,0,-1,1574,1597,2.53753,-1.5643
357,-573,7.40247,4.03613,0,0,0,0,0,0,0,-1,1581,1597,7.40244,-4.03614
364,-573,7.14551,3.02087,0,0,0,0,0,0,0,-1,1588,1597,7.14556,-3.02084
371,-573,6.88867,2.00549,0,0,0,0,0,0,0,-1,1595,1597,6.88868,-2.00553
378,-573,8.62012,6.09106,0,0,0,0,0,0,0,-1,1602,1597,8.62012,-6.09103
385,-573,6.54346,-0.951904,0,0,0,0,0,0,0,-1,1609,1597,6.54349,0.951901
392,-573,6.41833,-2.18225,0,0,0,0,0,0,0,-1,1616,1597,6.41831,2.18228
399,-573,4.26282,4.73657,0,0,0,0,0,0,0,-1,1623,1597,4.26285,-4.73652
406,-573,6.82715,10.823,0,0,0,0,0,0,0,-1,1630,1597,6.82719,-10.823
413,-573,8.90552,13.1737,0,0,0,0,0,0,0,-1,1637,1597,8.90553,-13.1737
420,-573,11.6449,18.0874,0,0,0,0,0,0,0,-1,1644,1597,11.645,-18.0874
427,-573,11.4321,18.2836,0,0,0,0,0,0,0,-1,1651,1597,11.4321,-18.2835
434,-573,10.5648,18.162,0,0,0,0,0,0,0,-1,1658,1597,10.5649,-18.162
441,-573,10.4703,18.106,-0.00690436,0.00999708,0.0139978,0.0178973,-0.0148046,1.05697,0.0189086,0.0363005,1665,1597,10.4703,-18.106
448,-573,10.3479,17.9802,-0.00541577,0.00918646,0.011472,0.0154836,-0.0117129,1.06879,0.0157522,0.024967,1672,1597,10.3479,-17.9803
455,-573,10.2997,17.6676,-0.00431119,0.00790348,0.00927937,0.012905,-0.00931269,1.07644,0.0128831,0.0188458,1679,1597,10.2997,-17.6676
462,-573,10.3441,17.3367,-0.00330926,0.00655801,0.00728049,0.0104191,-0.0071703,1.08318,0.0102128,0.018185,1686,1597,10.3442,-17.3366
469,-573,10.3577,17.078,-0.00252035,0.00495344,0.00561663,0.00796272,-0.00552964,1.07894,0.00783192,0.0152895,1693,1597,10.3577,-17.078
476,-573,10.3865,16.8088,-0.00181806,0.00366753,0.00400594,0.00577968,-0.00393021,1.08558,0.0056398,0.0136081,1700,1597,10.3865,-16.8089
483,-573,10.3835,16.5358,-0.00117755,0.00223832,0.00285822,0.00386002,-0.00279925,1.05471,0.00386095,0.0109939,1707,1597,10.3836,-16.5358
490,-573,10.3689,16.2496,-0.000612745,0.00103223,0.0019833,0.00235683,-0.00193734,0.981958,0.00248318,0.0110369,1714,1597,10.3689,-16.2496
497,-573,10.3907,15.9673,-0.000150222,0.000138384,0.00118743,0.00119025,-0.00120208,0.845864,0.00138122,0.016673,1721,1597,10.3908,-15.9673
504,-573,10.3921,15.6941,0.000156272,-0.000912545,0.000679974,0.000486709,-0.00124298,0.452349,0.00102996,0.0166217,1728,1597,10.3921,-15.6941
511,-573,10.3717,15.3889,0.000467047,-0.00128997,0.000326224,0.000525661,-0.00134858,0.177778,0.00111632,0.0177538,1735,1597,10.3717,-15.3889
518,-573,10.3562,15.1206,0.000688986,-0.00152818,0.000239466,0.000714555,-0.00155375,0.106371,0.00133915,0.0141145,1742,1597,10.3562,-15.1206
525,-573,10.3575,14.8469,0.000791969,-0.00187473,0.000373547,0.000843306,-0.00192607,0.136577,0.00163913,0.0168393,1749,1597,10.3576,-14.847
532,-573,10.3818,14.5273,0.000744486,-0.00235225,0.000698339,0.000894682,-0.00250245,0.211849,0.00203324,0.0159249,1756,1597,10.3818,-14.5273
539,-573,10.3372,14.2362,0.00048786,-0.00319326,0.00130787,0.000905217,-0.00361062,0.308897,0.00275877,0.0242208,1763,1597,10.3372,-14.2362
546,-573,10.3912,13.9688,-8.24245e-05,-0.004293,0.00233306,0.000954801,-0.00533023,0.418336,0.0039108,0.0406277,1770,1597,10.3913,-13.9687
553,-573,10.0852,13.9039,-0.000423528,-0.00535251,0.00328931,0.00122212,-0.00699817,0.46389,0.00512165,0.0490713,1777,1597,10.0853,-13.904
560,-573,9.93213,13.8336,0,0,0,0,0,0,0,-1,1784,1597,9.93209,-13.8336
567,-573,4.99597,2.77759,0,0,0,0,0,0,0,-1,1791,1597,4.99596,-2.7776
574,-573,0.83374,5.7041,0,0,0,0,0,0,0,-1,1798,1597,0.833718,-5.70405
581,-573,-0.224854,7.41602,0,0,0,0,0,0,0,-1,1805,1597,-0.224904,-7.41596
588,-573,-0.134033,7.67065,0,0,0,0,0,0,0,-1,1812,1597,-0.134037,-7.67063
595,-573,-0.0825195,8.35083,0,0,0,0,0,0,0,-1,1819,1597,-0.0824684,-8.35088
602,-573,0,0,0,0,0,0,0,0,0,-1,1826,1597,0,0
609,-573,0,0,0,0,0,0,0,0,0,-1,1833,1597,0,0
616,-573,0,0,0,0,0,0,0,0,0,-1,1840,1597,0,0
623,-573,0,0,0,0,0,0,0,0,0,-1,1847,1597,0,0
630,-573,0,0,0,0,0,0,0,0,0,-1,1854,1597,0,0
637,-573,0,0,0,0,0,0,0,0,0,-1,1861,1597,0,0
644,-573,0,0,0,0,0,0,0,0,0,-1,1868,1597,0,0
651,-573,0,0,0,0,0,0,0,0,0,-1,1875,1597,0,0
658,-573,0,0,0,0,0,0,0,0,0,-1,1882,1597,0,0
665,-573,0,0,0,0,0,0,0,0,0,-1,1889,1597,0,0
672,-573,0,0,0,0,0,0,0,0,0,-1,1896,1597,0,0
679,-573,0,0,0,0,0,0,0,0,0,-1,1903,1597,0,0
686,-573,0,0,0,0,0,0,0,0,0,-1,1910,1597,0,0
693,-573,0,0,0,0,0,0,0,0,0,-1,1917,1597,0,0
700,-573,0,0,0,0,0,0,0,0,0,-1,1924,1597,0,0
707,-573,0,0,0,0,0,0,0,0,0,-1,1931,1597,0,0
714,-573,0,0,0,0,0,0,0,0,0,-1,1938,1597,0,0
721,-573,0,0,0,0,0,0,0,0,0,-1,1945,1597,0,0
728,-573,0,0,0,0,0,0,0,0,0,-1,1952,1597,0,0
735,-573,0,0,0,0,0,0,0,0,0,-1,1959,1597,0,0
742,-573,0,0,0,0,0,0,0,0,0,-1,1966,1597,0,0
749,-573,0,0,0,0,0,0,0,0,0,-1,1973,1597,0,0
756,-573,0,0,0,0,0,0,0,0,0,-1,1980,1597,0,0
763,-573,0,0,0,0,0,0,0,0,0,-1,1987,1597,0,0
770,-573,0,0,0,0,0,0,0,0,0,-1,1994,1597,0,0
777,-573,0,0,0,0,0,0,0,0,0,-1,2001,1597,0,0
784,-573,0,0,0,0,0,0,0,0,0,-1,2008,1597,0,0
791,-573,0,0,0,0,0,0,0,0,0,-1,2015,1597,0,0
798,-573,0,0,0,0,0,0,0,0,0,-1,2022,1597,0,0
805,-573,0,0,0,0,0,0,0,0,0,-1,2029,1597,0,0
812,-573,0,0,0,0,0,0,0,0,0,-1,2036,1597,0,0
-700,-580,0,0,0,0,0,0,0,0,0,-1,524,1604,0,0
-693,-580,0,0,0,0,0,0,0,0,0,-1,531,1604,0,0
-686,-580,0,0,0,0,0,0,0,0,0,-1,538,1604,0,0
-679,-580,0,0,0,0,0,0,0,0,0,-1,545,1604,0,0
-672,-580,0,0,0,0,0,0,0,0,0,-1,552,1604,0,0
-665,-580,0,0,0,0,0,0,0,0,0,-1,559,1604,0,0
-658,-580,0,0,0,0,0,0,0,0,0,-1,566,1604,0,0
-651,-580,0,0,0,0,0,0,0,0,0,-1,573,1604,0,0
-644,-580,0,0,0,0,0,0,0,0,0,-1,580,1604,0,0
-637,-580,0,0,0,0,0,0,0,0,0,-1,587,1604,0,0
-630,-580,0,0,0,0,0,0,0,0,0,-1,594,1604,0,0
-623,-580,0,0,0,0,0,0,0,0,0,-1,601,1604,0,0
-616,-580,0,0,0,0,0,0,0,0,0,-1,608,1604,0,0
-609,-580,0,0,0,0,0,0,0,0,0,-1,615,1604,0,0
-602,-580,0,0,0,0,0,0,0,0,0,-1,622,1604,0,0
-595,-580,0,0,0,0,0,0,0,0,0,-1,629,1604,0,0
-588,-580,0,0,0,0,0,0,0,0,0,-1,636,1604,0,0
-581,-580,0,0,0,0,0,0,0,0,0,-1,643,1604,0,0
-574,-580,0,0,0,0,0,0,0,0,0,-1,650,1604,0,0
-567,-580,0,0,0,0,0,0,0,0,0,-1,657,1604,0,0
-560,-580,0,0,0,0,0,0,0,0,0,-1,664,1604,0,0
-553,-580,0,0,0,0,0,0,0,0,0,-1,671,1604,0,0
-546,-580,0,0,0,0,0,0,0,0,0,-1,678,1604,0,0
-539,-580,0,0,0,0,0,0,0,0,0,-1,685,1604,0,0
-532,-580,0,0,0,0,0,0,0,0,0,-1,692,1604,0,0
-525,-580,0,0,0,0,0,0,0,0,0,-1,699,1604,0,0
-518,-580,0,0,0,0,0,0,0,0,0,-1,706,1604,0,0
-511,-580,0,0,0,0,0,0,0,0,0,-1,713,1604,0,0
-504,-580,0,0,0,0,0,0,0,0,0,-1,720,1604,0,0
-497,-580,0,0,0,0,0,0,0,0,0,-1,727,1604,0,0
-490,-580,0,0,0,0,0,0,0,0,0,-1,734,1604,0,0
-483,-580,0,0,0,0,0,0,0,0,0,-1,741,1604,0,0
-476,-580,0,0,0,0,0,0,0,0,0,-1,748,1604,0,0
-469,-580,-1.69189,-0.38916,0,0,0,0,0,0,0,-1,755,1604,-1.69192,0.389188
-462,-580,-0.859863,0.675293,0,0,0,0,0,0,0,-1,762,1604,-0.859834,-0.675245
-455,-580,-0.730164,0.651978,0,0,0,0,0,0,0,-1,769,1604,-0.730153,-0.651957
-448,-580,-3.31891,2.07544,0,0,0,0,0,0,0,-1,776,1604,-3.3189,-2.07539
-441,-580,-1.63843,3.9469,0,0,0,0,0,0,0,-1,783,1604,-1.63842,-3.94695
-434,-580,0.23291,5.97876,0,0,0,0,0,0,0,-1,790,1604,0.232901,-5.97878
-427,-580,1.62756,8.05493,0,0,0,0,0,0,0,-1,797,1604,1.62758,-8.05488
-420,-580,0.986572,11.2383,0,0,0,0,0,0,0,-1,804,1604,0.986544,-11.2382
-413,-580,1.8642,12.4706,0,0,0,0,0,0,0,-1,811,1604,1.86417,-12.4706
-406,-580,1.65656,12.9628,0.000298355,0.00346743,0.00612724,0.0082117,-0.00444592,0.911929,0.0074149,0.0466319,818,1604,1.65653,-12.9628
-399,-580,1.53027,13.296,-0.000437202,0.00148469,0.0040581,0.00469407,-0.00364658,0.901655,0.00482811,0.0195197,825,1604,1.53025,-13.296
-392,-580,1.53973,13.6116,-0.000641187,2.32989e-05,0.00267343,0.00238505,-0.00300294,0.847219,0.00311757,0.01134,832,1604,1.53973,-13.6116
-385,-580,1.56006,13.9144,-0.000931201,-0.00110504,0.00124976,0.000234665,-0.0022709,0.75068,0.00159791,0.0113967,839,1604,1.56005,-13.9144
-378,-580,1.53613,14.2358,-0.000521432,-0.00103327,0.000880419,0.00013951,-0.00169421,0.643957,0.00117873,0.0147653,846,1604,1.53613,-14.2359
-371,-580,1.51447,14.5768,-2.98666e-05,-0.000998472,0.000589638,0.000248866,-0.0012772,0.441584,0.000945407,0.0140708,853,1604,1.51446,-14.5767
-364,-580,1.48962,14.8749,0.00053089,-0.00102751,0.000449246,0.00065112,-0.00114774,0.261498,0.00105168,0.019429,860,1604,1.48962,-14.8749
-357,-580,1.53174,15.1323,0.00118397,-0.00113993,0.000252252,0.00121103,-0.001167,0.106888,0.00137303,0.0139273,867,1604,1.53176,-15.1324
-350,-580,1.5423,15.4735,0.00177233,-0.00115851,3.41723e-05,0.00177273,-0.00115891,0.0116575,0.0017049,0.0111199,874,1604,1.54232,-15.4735
-343,-580,1.52148,15.7765,0.00220207,-0.00113261,-7.73501e-05,0.00220387,-0.0011344,-0.023179,0.00196004,0.0111937,881,1604,1.52147,-15.7765
-336,-580,1.50232,16.0167,0.00260775,-0.000904696,-3.00577e-05,0.002608,-0.000904953,-0.00855666,0.00210616,0.0191706,888,1604,1.50232,-16.0168
-329,-580,1.50812,16.3438,0.00293245,-0.000556718,3.52309e-06,0.00293245,-0.000556722,0.00100972,0.00216454,0.0180355,895,1604,1.50812,-16.3437
-322,-580,1.50262,16.6572,0.00313373,-0.000244067,6.44031e-05,0.00313496,-0.000245294,0.0190573,0.00217635,0.019215,902,1604,1.50263,-16.6572
-315,-580,1.50983,16.95,0.00330165,-4.53341e-05,5.17695e-05,0.00330245,-4.61348e-05,0.0154626,0.00221717,0.016905,909,1604,1.50983,-16.9499
-308,-580,1.55823,17.2957,0.00371305,-9.31179e-05,1.29066e-05,0.0037131,-9.31616e-05,0.0033909,0.00250703,0.0209909,916,1604,1.55821,-17.2957
-301,-580,1.62878,17.4961,0.00412488,-0.000257506,0.000241992,0.00413821,-0.000270828,0.0549963,0.00285337,0.0196696,923,1604,1.6288,-17.4961
-294,-580,1.61456,17.6614,0.00419902,-0.000420004,0.00067853,0.00429663,-0.000517617,0.142879,0.00305163,0.0225492,930,1604,1.61457,-17.6613
-287,-580,1.58862,17.9965,0.00420934,-0.000711585,0.000921571,0.00437627,-0.000878511,0.179189,0.00325017,0.0399552,937,1604,1.58863,-17.9964
-280,-580,1.58655,18.401,0,0,0,0,0,0,0,-1,944,1604,1.58658,-18.401
-273,-580,1.09747,17.2249,0,0,0,0,0,0,0,-1,951,1604,1.09747,-17.2248
-266,-580,0.494202,8.78955,0,0,0,0,0,0,0,-1,958,1604,0.494174,-8.78958
-259,-580,1.31091,9.11536,0,0,0,0,0,0,0,-1,965,1604,1.31092,-9.11539
-252,-580,1.07629,7.74097,0,0,0,0,0,0,0,-1,972,1604,1.07627,-7.74101
-245,-580,3.80304,9.16028,0,0,0,0,0,0,0,-1,979,1604,3.80306,-9.16034
-238,-580,-10.3588,1.57556,0,0,0,0,0,0,0,-1,986,1604,-10.3588,-1.5755
-231,-580,-10.576,6.43787,0,0,0,0,0,0,0,-1,993,1604,-10.576,-6.43783
-224,-580,-8.27435,7.58972,0,0,0,0,0,0,0,-1,1000,1604,-8.27435,-7.5897
-217,-580,-5.85632,9.51221,0,0,0,0,0,0,0,-1,1007,1604,-5.85632,-9.5122
-210,-580,-3.6684,11.1569,0,0,0,0,0,0,0,-1,1014,1604,-3.66839,-11.1569
-203,-580,-1.92474,12.7845,0,0,0,0,0,0,0,-1,1021,1604,-1.92477,-12.7845
-196,-580,-2.28552,10.3289,0,0,0,0,0,0,0,-1,1028,1604,-2.28552,-10.3288
-189,-580,-4.58252,7.59058,0,0,0,0,0,0,0,-1,1035,1604,-4.58256,-7.59057
-182,-580,-5.45874,7.65942,0,0,0,0,0,0,0,-1,1042,1604,-5.45876,-7.65939
-175,-580,-6.38977,7.55005,0,0,0,0,0,0,0,-1,1049,1604,-6.38981,-7.5501
-168,-580,0,0,0,0,0,0,0,0,0,-1,1056,1604,0,0
-161,-580,0,0,0,0,0,0,0,0,0,-1,1063,1604,0,0
-154,-580,0,0,0,0,0,0,0,0,0,-1,1070,1604,0,0
-147,-580,0,0,0,0,0,0,0,0,0,-1,1077,1604,0,0
-140,-580,0,0,0,0,0,0,0,0,0,-1,1084,1604,0,0
-133,-580,0,0,0,0,0,0,0,0,0,-1,1091,1604,0,0
-126,-580,0,0,0,0,0,0,0,0,0,-1,1098,1604,0,0
-119,-580,0,0,0,0,0,0,0,0,0,-1,1105,1604,0,0
-112,-580,0,0,0,0,0,0,0,0,0,-1,1112,1604,0,0
-105,-580,0,0,0,0,0,0,0,0,0,-1,1119,1604,0,0
-98,-580,0,0,0,0,0,0,0,0,0,-1,1126,1604,0,0
-91,-580,0,0,0,0,0,0,0,0,0,-1,1133,1604,0,0
-84,-580,0,0,0,0,0,0,0,0,0,-1,1140,1604,0,0
-77,-580,0,0,0,0,0,0,0,0,0,-1,1147,1604,0,0
-70,-580,0,0,0,0,0,0,0,0,0,-1,1154,1604,0,0
-63,-580,0,0,0,0,0,0,0,0,0,-1,1161,1604,0,0
-56,-580,0,0,0,0,0,0,0,0,0,-1,1168,1604,0,0
-49,-580,0,0,0,0,0,0,0,0,0,-1,1175,1604,0,0
-42,-580,0,0,0,0,0,0,0,0,0,-1,1182,1604,0,0
-35,-580,0,0,0,0,0,0,0,0,0,-1,1189,1604,0,0
-28,-580,0,0,0,0,0,0,0,0,0,-1,1196,1604,0,0
-21,-580,0,0,0,0,0,0,0,0,0,-1,1203,1604,0,0
-14,-580,0,0,0,0,0,0,0,0,0,-1,1210,1604,0,0
-7,-580,0,0,0,0,0,0,0,0,0,-1,1217,1604,0,0
0,-580,0,0,0,0,0,0,0,0,0,-1,1224,1604,0,0
7,-580,0,0,0,0,0,0,0,0,0,-1,1231,1604,0,0
14,-580,0,0,0,0,0,0,0,0,0,-1,1238,1604,0,0
21,-580,0,0,0,0,0,0,0,0,0,-1,1245,1604,0,0
28,-580,0,0,0,0,0,0,0,0,0,-1,1252,1604,0,0
35,-580,0,0,0,0,0,0,0,0,0,-1,1259,1604,0,0
42,-580,0,0,0,0,0,0,0,0,0,-1,1266,1604,0,0
49,-580,0,0,0,0,0,0,0,0,0,-1,1273,1604,0,0
56,-580,0,0,0,0,0,0,0,0,0,-1,1280,1604,0,0
63,-580,0,0,0,0,0,0,0,0,0,-1,1287,1604,0,0
70,-580,0,0,0,0,0,0,0,0,0,-1,1294,1604,0,0
77,-580,0,0,0,0,0,0,0,0,0,-1,1301,1604,0,0
84,-580,0,0,0,0,0,0,0,0,0,-1,1308,1604,0,0
91,-580,0,0,0,0,0,0,0,0,0,-1,1315,1604,0,0
98,-580,0,0,0,0,0,0,0,0,0,-1,1322,1604,0,0
105,-580,0,0,0,0,0,0,0,0,0,-1,1329,1604,0,0
112,-580,0,0,0,0,0,0,0,0,0,-1,1336,1604,0,0
119,-580,0,0,0,0,0,0,0,0,0,-1,1343,1604,0,0
126,-580,0,0,0,0,0,0,0,0,0,-1,1350,1604,0,0
133,-580,0,0,0,0,0,0,0,0,0,-1,1357,1604,0,0
140,-580,0,0,0,0,0,0,0,0,0,-1,1364,1604,0,0
147,-580,0,0,0,0,0,0,0,0,0,-1,1371,1604,0,0
154,-580,0,0,0,0,0,0,0,0,0,-1,1378,1604,0,0
161,-580,0,0,0,0,0,0,0,0,0,-1,1385,1604,0,0
168,-580,0,0,0,0,0,0,0,0,0,-1,1392,1604,0,0
175,-580,0,0,0,0,0,0,0,0,0,-1,1399,1604,0,0
182,-580,0,0,0,0,0,0,0,0,0,-1,1406,1604,0,0
189,-580,0,0,0,0,0,0,0,0,0,-1,1413,1604,0,0
196,-580,0,0,0,0,0,0,0,0,0,-1,1420,1604,0,0
203,-580,0,0,0,0,0,0,0,0,0,-1,1427,1604,0,0
210,-580,0,0,0,0,0,0,0,0,0,-1,1434,1604,0,0
217,-580,0,0,0,0,0,0,0,0,0,-1,1441,1604,0,0
224,-580,0,0,0,0,0,0,0,0,0,-1,1448,1604,0,0
231,-580,0,0,0,0,0,0,0,0,0,-1,1455,1604,0,0
238,-580,0,0,0,0,0,0,0,0,0,-1,1462,1604,0,0
245,-580,0,0,0,0,0,0,0,0,0,-1,1469,1604,0,0
252,-580,0,0,0,0,0,0,0,0,0,-1,1476,1604,0,0
259,-580,0,0,0,0,0,0,0,0,0,-1,1483,1604,0,0
266,-580,0,0,0,0,0,0,0,0,0,-1,1490,1604,0,0
273,-580,0,0,0,0,0,0,0,0,0,-1,1497,1604,0,0
280,-580,0,0,0,0,0,0,0,0,0,-1,1504,1604,0,0
287,-580,0,0,0,0,0,0,0,0,0,-1,1511,1604,0,0
294,-580,4.0437,0.177368,0,0,0,0,0,0,0,-1,1518,1604,4.04369,-0.177371
301,-580,7.55164,8.05798,0,0,0,0,0,0,0,-1,1525,1604,7.55158,-8.05802
308,-580,5.9126,9.99341,0,0,0,0,0,0,0,-1,1532,1604,5.91255,-9.99337
315,-580,4.27356,11.9287,0,0,0,0,0,0,0,-1,1539,1604,4.27352,-11.9287
322,-580,10.2366,7.50281,0,0,0,0,0,0,0,-1,1546,1604,10.2366,-7.50282
329,-580,10.5962,8.69641,0,0,0,0,0,0,0,-1,1553,1604,10.5962,-8.69642
336,-580,3.66431,1.58862,0,0,0,0,0,0,0,-1,1560,1604,3.6643,-1.58864
343,-580,3.32227,1.39636,0,0,0,0,0,0,0,-1,1567,1604,3.32222,-1.39633
350,-580,8.71277,4.0564,0,0,0,0,0,0,0,-1,1574,1604,8.71271,-4.05638
357,-580,8.52332,3.08154,0,0,0,0,0,0,0,-1,1581,1604,8.52332,-3.08157
364,-580,8.25818,2.07605,0,0,0,0,0,0,0,-1,1588,1604,8.25812,-2.07608
371,-580,7.42114,7.14282,0,0,0,0,0,0,0,-1,1595,1604,7.42119,-7.14281
378,-580,7.9718,6.6731,0,0,0,0,0,0,0,-1,1602,1604,7.9718,-6.67307
385,-580,8.52246,6.20337,0,0,0,0,0,0,0,-1,1609,1604,8.52241,-6.20334
392,-580,6.5498,-2.15625,0,0,0,0,0,0,0,-1,1616,1604,6.54984,2.15626
399,-580,6.52625,10.7247,0,0,0,0,0,0,0,-1,1623,1604,6.52628,-10.7248
406,-580,10.504,18.9392,0,0,0,0,0,0,0,-1,1630,1604,10.504,-18.9392
413,-580,10.3206,18.7839,0,0,0,0,0,0,0,-1,1637,1604,10.3206,-18.784
420,-580,10.739,18.4122,-0.0100581,0.00237254,0.0172066,0.014452,-0.0221375,0.958714,0.0212797,0.0464945,1644,1604,10.739,-18.4122
427,-580,10.5316,18.5155,-0.00829618,0.00405226,0.0149761,0.014077,-0.0183209,0.980918,0.0187584,0.0404132,1651,1604,10.5316,-18.5155
434,-580,10.1427,18.3134,-0.00675317,0.00498357,0.0126995,0.013105,-0.0148746,1.00183,0.0161648,0.0297007,1658,1604,10.1428,-18.3134
441,-580,10.0623,18.1113,-0.00521466,0.00572821,0.0104945,0.0120919,-0.0115784,1.02569,0.0136671,0.0124115,1665,1604,10.0622,-18.1114
448,-580,10.0907,17.8544,-0.00386618,0.00583618,0.00841962,0.0107022,-0.0087322,1.04676,0.0112397,0.011814,1672,1604,10.0907,-17.8544
455,-580,10.088,17.5983,-0.00294526,0.00539984,0.00660935,0.00904354,-0.00658895,1.06696,0.00906243,0.0179601,1679,1604,10.088,-17.5983
462,-580,10.0647,17.3342,-0.00210922,0.00477313,0.00493835,0.00735101,-0.0046871,1.08969,0.0070067,0.022187,1686,1604,10.0646,-17.3342
469,-580,10.0769,17.0654,-0.00144973,0.00383431,0.00355838,0.00562425,-0.00323968,1.10473,0.00517895,0.0196538,1693,1604,10.0769,-17.0655
476,-580,10.1125,16.8013,-0.000869372,0.0030337,0.00220751,0.00402862,-0.00186429,1.14736,0.00347792,0.0143604,1700,1604,10.1125,-16.8013
483,-580,10.1095,16.5408,-0.000388695,0.00195347,0.00129219,0.00252629,-0.000961516,1.15353,0.00208014,0.0120196,1707,1604,10.1095,-16.5408
490,-580,10.0725,16.2687,2.98028e-05,0.000929763,0.000622894,0.00124821,-0.000288644,1.0982,0.000943193,0.0145459,1714,1604,10.0725,-16.2687
497,-580,10.068,15.9769,0.000337324,7.74258e-05,4.98511e-05,0.000346558,6.81919e-05,0.183153,0.000211996,0.0117034,1721,1604,10.068,-15.9769
504,-580,10.0665,15.7042,0.000484138,-0.000872847,-0.000164024,0.000503683,-0.000892391,-0.118599,0.000816372,0.0154889,1728,1604,10.0666,-15.7042
511,-580,10.0735,15.3964,0.000657461,-0.00137816,-0.000240535,0.000685497,-0.00140619,-0.116034,0.0012313,0.0163759,1735,1604,10.0735,-15.3963
518,-580,10.0748,15.1228,0.000731444,-0.00190433,-2.07737e-05,0.000731608,-0.00190449,-0.00788079,0.00157137,0.0156843,1742,1604,10.0748,-15.1228
525,-580,10.0588,14.855,0.000662754,-0.0025962,0.000444187,0.000722211,-0.00265565,0.133065,0.00205394,0.0164946,1749,1604,10.0588,-14.855
532,-580,10.0554,14.5659,0.000461028,-0.00343938,0.00111767,0.000758598,-0.00373695,0.260205,0.0027789,0.0192958,1756,1604,10.0554,-14.566
539,-580,10.0939,14.3818,-5.06167e-05,-0.00476457,0.00221173,0.000824603,-0.00563979,0.376809,0.00406272,0.0315346,1763,1604,10.0938,-14.3818
546,-580,10.1973,14.0767,0,0,0,0,0,0,0,-1,1770,1604,10.1973,-14.0766
553,-580,9.34399,13.991,0,0,0,0,0,0,0,-1,1777,1604,9.34402,-13.991
560,-580,7.09021,6.49438,0,0,0,0,0,0,0,-1,1784,1604,7.09016,-6.4944
567,-580,3.87708,4.0647,0,0,0,0,0,0,0,-1,1791,1604,3.87711,-4.06471
574,-580,2.31653,5.62952,0,0,0,0,0,0,0,-1,1798,1604,2.31654,-5.62947
581,-580,1.60876,6.67664,0,0,0,0,0,0,0,-1,1805,1604,1.60873,-6.67667
588,-580,1.38684,7.14441,0,0,0,0,0,0,0,-1,1812,1604,1.38689,-7.14443
595,-580,0,0,0,0,0,0,0,0,0,-1,1819,1604,0,0
602,-580,0,0,0,0,0,0,0,0,0,-1,1826,1604,0,0
609,-580,0,0,0,0,0,0,0,0,0,-1,1833,1604,0,0
616,-580,0,0,0,0,0,0,0,0,0,-1,1840,1604,0,0
623,-580,0,0,0,0,0,0,0,0,0,-1,1847,1604,0,0
630,-580,0,0,0,0,0,0,0,0,0,-1,1854,1604,0,0
637,-580,0,0,0,0,0,0,0,0,0,-1,1861,1604,0,0
644,-580,0,0,0,0,0,0,0,0,0,-1,1868,1604,0,0
651,-580,0,0,0,0,0,0,0,0,0,-1,1875,1604,0,0
658,-580,0,0,0,0,0,0,0,0,0,-1,1882,1604,0,0
665,-580,0,0,0,0,0,0,0,0,0,-1,1889,1604,0,0
672,-580,0,0,0,0,0,0,0,0,0,-1,1896,1604,0,0
679,-580,0,0,0,0,0,0,0,0,0,-1,1903,1604,0,0
686,-580,0,0,0,0,0,0,0,0,0,-1,1910,1604,0,0
693,-580,0,0,0,0,0,0,0,0,0,-1,1917,1604,0,0
700,-580,0,0,0,0,0,0,0,0,0,-1,1924,1604,0,0
707,-580,0,0,0,0,0,0,0,0,0,-1,1931,1604,0,0
714,-580,0,0,0,0,0,0,0,0,0,-1,1938,1604,0,0
721,-580,0,0,0,0,0,0,0,0,0,-1,1945,1604,0,0
728,-580,0,0,0,0,0,0,0,0,0,-1,1952,1604,0,0
735,-580,0,0,0,0,0,0,0,0,0,-1,1959,1604,0,0
742,-580,0,0,0,0,0,0,0,0,0,-1,1966,1604,0,0
749,-580,0,0,0,0,0,0,0,0,0,-1,1973,1604,0,0
756,-580,0,0,0,0,0,0,0,0,0,-1,1980,1604,0,0
763,-580,0,0,0,0,0,0,0,0,0,-1,1987,1604,0,0
770,-580,0,0,0,0,0,0,0,0,0,-1,1994,1604,0,0
777,-580,0,0,0,0,0,0,0,0,0,-1,2001,1604,0,0
784,-580,0,0,0,0,0,0,0,0,0,-1,2008,1604,0,0
791,-580,0,0,0,0,0,0,0,0,0,-1,2015,1604,0,0
798,-580,0,0,0,0,0,0,0,0,0,-1,2022,1604,0,0
805,-580,0,0,0,0,0,0,0,0,0,-1,2029,1604,0,0
812,-580,0,0,0,0,0,0,0,0,0,-1,2036,1604,0,0
-700,-587,0,0,0,0,0,0,0,0,0,-1,524,1611,0,0
-693,-587,0,0,0,0,0,0,0,0,0,-1,531,1611,0,0
-686,-587,0,0,0,0,0,0,0,0,0,-1,538,1611,0,0
-679,-587,0,0,0,0,0,0,0,0,0,-1,545,1611,0,0
-672,-587,0,0,0,0,0,0,0,0,0,-1,552,1611,0,0
-665,-587,0,0,0,0,0,0,0,0,0,-1,559,1611,0,0
-658,-587,0,0,0,0,0,0,0,0,0,-1,566,1611,0,0
-651,-587,0,0,0,0,0,0,0,0,0,-1,573,1611,0,0
-644,-587,0,0,0,0,0,0,0,0,0,-1,580,1611,0,0
-637,-587,0,0,0,0,0,0,0,0,0,-1,587,1611,0,0
-630,-587,0,0,0,0,0,0,0,0,0,-1,594,1611,0,0
-623,-587,0,0,0,0,0,0,0,0,0,-1,601,1611,0,0
-616,-587,0,0,0,0,0,0,0,0,0,-1,608,1611,0,0
-609,-587,0,0,0,0,0,0,0,0,0,-1,615,1611,0,0
-602,-587,0,0,0,0,0,0,0,0,0,-1,622,1611,0,0
-595,-587,0,0,0,0,0,0,0,0,0,-1,629,1611,0,0
-588,-587,0,0,0,0,0,0,0,0,0,-1,636,1611,0,0
-581,-587,0,0,0,0,0,0,0,0,0,-1,643,1611,0,0
-574,-587,0,0,0,0,0,0,0,0,0,-1,650,1611,0,0
-567,-587,0,0,0,0,0,0,0,0,0,-1,657,1611,0,0
-560,-587,0,0,0,0,0,0,0,0,0,-1,664,1611,0,0
-553,-587,0,0,0,0,0,0,0,0,0,-1,671,1611,0,0
-546,-587,0,0,0,0,0,0,0,0,0,-1,678,1611,0,0
-539,-587,0,0,0,0,0,0,0,0,0,-1,685,1611,0,0
-532,-587,0,0,0,0,0,0,0,0,0,-1,692,1611,0,0
-525,-587,0,0,0,0,0,0,0,0,0,-1,699,1611,0,0
-518,-587,0,0,0,0,0,0,0,0,0,-1,706,1611,0,0
-511,-587,0,0,0,0,0,0,0,0,0,-1,713,1611,0,0
-504,-587,0,0,0,0,0,0,0,0,0,-1,720,1611,0,0
-497,-587,0,0,0,0,0,0,0,0,0,-1,727,1611,0,0
-490,-587,0,0,0,0,0,0,0,0,0,-1,734,1611,0,0
-483,-587,0,0,0,0,0,0,0,0,0,-1,741,1611,0,0
-476,-587,0,0,0,0,0,0,0,0,0,-1,748,1611,0,0
-469,-587,0,0,0,0,0,0,0,0,0,-1,755,1611,0,0
-462,-587,-0.714355,-0.418457,0,0,0,0,0,0,0,-1,762,1611,-0.714359,0.418483
-455,-587,-0.619812,-0.522461,0,0,0,0,0,0,0,-1,769,1611,-0.619802,0.522515
-448,-587,-0.461731,-0.686523,0,0,0,0,0,0,0,-1,776,1611,-0.461739,0.686559
-441,-587,-3.56555,2.72253,0,0,0,0,0,0,0,-1,783,1611,-3.56555,-2.72259
-434,-587,-1.77319,4.76318,0,0,0,0,0,0,0,-1,790,1611,-1.77318,-4.76323
-427,-587,0.0346069,6.92944,0,0,0,0,0,0,0,-1,797,1611,0.034587,-6.92941
-420,-587,-0.647156,10.1157,0,0,0,0,0,0,0,-1,804,1611,-0.647128,-10.1158
-413,-587,1.71667,9.65393,0,0,0,0,0,0,0,-1,811,1611,1.71667,-9.65397
-406,-587,2.05469,12.9403,0,0,0,0,0,0,0,-1,818,1611,2.0547,-12.9403
-399,-587,1.93896,13.3241,-0.000774555,0.00105688,0.00485382,0.00508061,-0.00479829,0.878632,0.00570436,0.0366732,825,1611,1.93896,-13.324
-392,-587,1.94824,13.5499,-0.000839719,-0.000518203,0.00332938,0.0026543,-0.00401222,0.809522,0.00387544,0.0253699,832,1611,1.94826,-13.55
-385,-587,1.84607,13.8892,-0.000992513,-0.00161793,0.00184132,0.00056246,-0.00317291,0.701286,0.00232554,0.0154659,839,1611,1.84609,-13.8891
-378,-587,1.79797,14.2368,-0.000455082,-0.00142708,0.0014149,0.000554963,-0.00243713,0.619968,0.00183788,0.0130328,846,1611,1.79796,-14.2368
-371,-587,1.77008,14.5737,0.00010455,-0.00136287,0.00106345,0.000662836,-0.00192116,0.483428,0.00154971,0.0138721,853,1611,1.7701,-14.5737
-364,-587,1.79346,14.8789,0.000691723,-0.00129913,0.000901126,0.00103902,-0.00164643,0.367858,0.00156361,0.0172988,860,1611,1.79344,-14.8789
-357,-587,1.80743,15.1262,0.00129802,-0.00131227,0.000702807,0.00147522,-0.00148947,0.246981,0.00171167,0.017002,867,1611,1.80744,-15.1262
-350,-587,1.80981,15.4688,0.00178407,-0.00120931,0.000458928,0.00185285,-0.00127809,0.148763,0.00181777,0.00995745,874,1611,1.8098,-15.4687
-343,-587,1.78833,15.7804,0.00206459,-0.00107685,0.000305647,0.00209405,-0.00110631,0.0960941,0.00187684,0.0120145,881,1611,1.78833,-15.7804
-336,-587,1.76483,16.0371,0.00233651,-0.000820398,0.000258972,0.00235762,-0.000841502,0.0813089,0.0019149,0.0118743,888,1611,1.76485,-16.0372
-329,-587,1.77106,16.3274,0.00252108,-0.000415936,0.000227642,0.00253862,-0.000433476,0.0768959,0.00185388,0.0139519,895,1611,1.77103,-16.3274
-322,-587,1.80499,16.6458,0.00258128,-4.42611e-05,0.000221291,0.0025998,-6.27817e-05,0.0834989,0.0017545,0.0175096,902,1611,1.80499,-16.6458
-315,-587,1.7746,16.9097,0.0026127,0.000149849,0.000149032,0.00262168,0.000140863,0.0602192,0.00170278,0.0148411,909,1611,1.77463,-16.9096
-308,-587,1.77856,17.2057,0.00276252,7.01866e-05,-1.44249e-05,0.0027626,7.01093e-05,-0.00535756,0.00181881,0.0148143,916,1611,1.77858,-17.2057
-301,-587,1.83673,17.4928,0.00294858,-0.000192787,6.61589e-05,0.00294998,-0.000194179,0.0210481,0.00203447,0.0132212,923,1611,1.83672,-17.4927
-294,-587,1.89789,17.7701,0.00303772,-0.000382106,0.000357702,0.00307473,-0.00041912,0.10311,0.00220286,0.0159621,930,1611,1.89787,-17.7702
-287,-587,1.87634,18.0576,0.00315228,-0.000705634,0.000437113,0.00320119,-0.00075454,0.111421,0.00242509,0.0276753,937,1611,1.87636,-18.0576
-280,-587,1.88104,18.3693,0.00334075,-0.00136672,0.000544043,0.0034028,-0.00142878,0.113576,0.00286607,0.0422066,944,1611,1.88105,-18.3693
-273,-587,1.98273,18.5844,0,0,0,0,0,0,0,-1,951,1611,1.98271,-18.5843
-266,-587,1.54022,18.3993,0,0,0,0,0,0,0,-1,958,1611,1.54024,-18.3992
-259,-587,1.46027,18.3893,0,0,0,0,0,0,0,-1,965,1611,1.46028,-18.3893
-252,-587,1.30188,10.3103,0,0,0,0,0,0,0,-1,972,1611,1.30188,-10.3104
-245,-587,2.97797,12.0387,0,0,0,0,0,0,0,-1,979,1611,2.97798,-12.0387
-238,-587,2.87799,9.53821,0,0,0,0,0,0,0,-1,986,1611,2.87797,-9.53823
-231,-587,2.49548,9.14465,0,0,0,0,0,0,0,-1,993,1611,2.49551,-9.14468
-224,-587,-9.72528,9.21069,0,0,0,0,0,0,0,-1,1000,1611,-9.72529,-9.21072
-217,-587,-7.07495,10.7847,0,0,0,0,0,0,0,-1,1007,1611,-7.07495,-10.7847
-210,-587,-4.72308,12.5889,0,0,0,0,0,0,0,-1,1014,1611,-4.72307,-12.5888
-203,-587,-3.2583,13.7289,0,0,0,0,0,0,0,-1,1021,1611,-3.25828,-13.7289
-196,-587,-1.953,14.8145,0,0,0,0,0,0,0,-1,1028,1611,-1.95302,-14.8144
-189,-587,-3.04138,8.66638,0,0,0,0,0,0,0,-1,1035,1611,-3.04136,-8.66635
-182,-587,-3.97095,9.7146,0,0,0,0,0,0,0,-1,1042,1611,-3.97093,-9.71461
-175,-587,-4.80969,8.37878,0,0,0,0,0,0,0,-1,1049,1611,-4.80964,-8.37883
-168,-587,-5.91394,8.72546,0,0,0,0,0,0,0,-1,1056,1611,-5.91398,-8.72542
-161,-587,-7.06946,8.88501,0,0,0,0,0,0,0,-1,1063,1611,-7.06947,-8.885
-154,-587,-2.24731,6.56519,0,0,0,0,0,0,0,-1,1070,1611,-2.24728,-6.56517
-147,-587,0,0,0,0,0,0,0,0,0,-1,1077,1611,0,0
-140,-587,0,0,0,0,0,0,0,0,0,-1,1084,1611,0,0
-133,-587,0,0,0,0,0,0,0,0,0,-1,1091,1611,0,0
-126,-587,0,0,0,0,0,0,0,0,0,-1,1098,1611,0,0
-119,-587,0,0,0,0,0,0,0,0,0,-1,1105,1611,0,0
-112,-587,0,0,0,0,0,0,0,0,0,-1,1112,1611,0,0
-105,-587,0,0,0,0,0,0,0,0,0,-1,1119,1611,0,0
-98,-587,0,0,0,0,0,0,0,0,0,-1,1126,1611,0,0
-91,-587,0,0,0,0,0,0,0,0,0,-1,1133,1611,0,0
-84,-587,0,0,0,0,0,0,0,0,0,-1,1140,1611,0,0
-77,-587,0,0,0,0,0,0,0,0,0,-1,1147,1611,0,0
-70,-587,0,0,0,0,0,0,0,0,0,-1,1154,1611,0,0
-63,-587,0,0,0,0,0,0,0,0,0,-1,1161,1611,0,0
-56,-587,0,0,0,0,0,0,0,0,0,-1,1168,1611,0,0
-49,-587,0,0,0,0,0,0,0,0,0,-1,1175,1611,0,0
-42,-587,0,0,0,0,0,0,0,0,0,-1,1182,1611,0,0
-35,-587,0,0,0,0,0,0,0,0,0,-1,1189,1611,0,0
-28,-587,0,0,0,0,0,0,0,0,0,-1,1196,1611,0,0
-21,-587,0,0,0,0,0,0,0,0,0,-1,1203,1611,0,0
-14,-587,0,0,0,0,0,0,0,0,0,-1,1210,1611,0,0
-7,-587,0,0,0,0,0,0,0,0,0,-1,1217,1611,0,0
0,-587,0,0,0,0,0,0,0,0,0,-1,1224,1611,0,0
7,-587,0,0,0,0,0,0,0,0,0,-1,1231,1611,0,0
14,-587,0,0,0,0,0,0,0,0,0,-1,1238,1611,0,0
21,-587,0,0,0,0,0,0,0,0,0,-1,1245,1611,0,0
28,-587,0,0,0,0,0,0,0,0,0,-1,1252,1611,0,0
35,-587,0,0,0,0,0,0,0,0,0,-1,1259,1611,0,0
42,-587,0,0,0,0,0,0,0,0,0,-1,1266,1611,0,0
49,-587,0,0,0,0,0,0,0,0,0,-1,1273,1611,0,0
56,-587,0,0,0,0,0,0,0,0,0,-1,1280,1611,0,0
63,-587,0,0,0,0,0,0,0,0,0,-1,1287,1611,0,0
70,-587,0,0,0,0,0,0,0,0,0,-1,1294,1611,0,0
77,-587,0,0,0,0,0,0,0,0,0,-1,1301,1611,0,0
84,-587,0,0,0,0,0,0,0,0,0,-1,1308,1611,0,0
91,-587,0,0,0,0,0,0,0,0,0,-1,1315,1611,0,0
98,-587,0,0,0,0,0,0,0,0,0,-1,1322,1611,0,0
105,-587,0,0,0,0,0,0,0,0,0,-1,1329,1611,0,0
112,-587,0,0,0,0,0,0,0,0,0,-1,1336,1611,0,0
119,-587,0,0,0,0,0,0,0,0,0,-1,1343,1611,0,0
126,-587,0,0,0,0,0,0,0,0,0,-1,1350,1611,0,0
133,-587,0,0,0,0,0,0,0,0,0,-1,1357,1611,0,0
140,-587,0,0,0,0,0,0,0,0,0,-1,1364,1611,0,0
147,-587,0,0,0,0,0,0,0,0,0,-1,1371,1611,0,0
154,-587,0,0,0,0,0,0,0,0,0,-1,1378,1611,0,0
161,-587,0,0,0,0,0,0,0,0,0,-1,1385,1611,0,0
168,-587,0,0,0,0,0,0,0,0,0,-1,1392,1611,0,0
175,-587,0,0,0,0,0,0,0,0,0,-1,1399,1611,0,0
182,-587,0,0,0,0,0,0,0,0,0,-1,1406,1611,0,0
189,-587,0,0,0,0,0,0,0,0,0,-1,1413,1611,0,0
196,-587,0,0,0,0,0,0,0,0,0,-1,1420,1611,0,0
203,-587,0,0,0,0,0,0,0,0,0,-1,1427,1611,0,0
210,-587,0,0,0,0,0,0,0,0,0,-1,1434,1611,0,0
217,-587,0,0,0,0,0,0,0,0,0,-1,1441,1611,0,0
224,-587,0,0,0,0,0,0,0,0,0,-1,1448,1611,0,0
231,-587,0,0,0,0,0,0,0,0,0,-1,1455,1611,0,0
238,-587,0,0,0,0,0,0,0,0,0,-1,1462,1611,0,0
245,-587,0,0,0,0,0,0,0,0,0,-1,1469,1611,0,0
252,-587,0,0,0,0,0,0,0,0,0,-1,1476,1611,0,0
259,-587,0,0,0,0,0,0,0,0,0,-1,1483,1611,0,0
266,-587,0,0,0,0,0,0,0,0,0,-1,1490,1611,0,0
273,-587,10.2936,6.35083,0,0,0,0,0,0,0,-1,1497,1611,10.2936,-6.35087
280,-587,2.09204,1.1217,0,0,0,0,0,0,0,-1,1504,1611,2.092,-1.12176
287,-587,3.2865,0.671509,0,0,0,0,0,0,0,-1,1511,1611,3.28656,-0.671538
294,-587,4.24646,1.58765,0,0,0,0,0,0,0,-1,1518,1611,4.24648,-1.58761
301,-587,7.60474,8.37085,0,0,0,0,0,0,0,-1,1525,1611,7.60478,-8.37084
308,-587,5.99316,10.2291,0,0,0,0,0,0,0,-1,1532,1611,5.99315,-10.2291
315,-587,4.34558,12.3289,0,0,0,0,0,0,0,-1,1539,1611,4.34556,-12.3288
322,-587,10.4526,6.38245,0,0,0,0,0,0,0,-1,1546,1611,10.4526,-6.38245
329,-587,10.7738,8.42444,0,0,0,0,0,0,0,-1,1553,1611,10.7738,-8.42438
336,-587,7.5531,5.96619,0,0,0,0,0,0,0,-1,1560,1611,7.55311,-5.96617
343,-587,9.57495,4.38391,0,0,0,0,0,0,0,-1,1567,1611,9.57494,-4.38397
350,-587,9.50378,3.45093,0,0,0,0,0,0,0,-1,1574,1611,9.50376,-3.4509
357,-587,9.40027,2.50806,0,0,0,0,0,0,0,-1,1581,1611,9.40022,-2.50803
364,-587,9.26477,1.34131,0,0,0,0,0,0,0,-1,1588,1611,9.26479,-1.34126
371,-587,6.98926,7.87561,0,0,0,0,0,0,0,-1,1595,1611,6.98928,-7.87564
378,-587,9.25146,13.8358,0,0,0,0,0,0,0,-1,1602,1611,9.2515,-13.8359
385,-587,7.17224,7.03772,0,0,0,0,0,0,0,-1,1609,1611,7.1722,-7.03778
392,-587,5.3916,8.21436,0,0,0,0,0,0,0,-1,1616,1611,5.39157,-8.21437
399,-587,10.0892,19.2482,0,0,0,0,0,0,0,-1,1623,1611,10.0893,-19.2482
406,-587,10.1603,19.1042,-0.0100699,-0.00367708,0.015293,0.00874998,-0.022497,0.888421,0.0186133,0.0492604,1630,1611,10.1603,-19.1042
413,-587,9.93469,18.9916,-0.00883763,-0.00205531,0.0142737,0.00922454,-0.0201175,0.902026,0.0173254,0.0393512,1637,1611,9.93468,-18.9915
420,-587,9.89465,18.978,-0.0076311,-0.000273941,0.0127532,0.00932065,-0.0172257,0.925808,0.0155514,0.0357393,1644,1611,9.89465,-18.9781
427,-587,9.93323,18.6807,-0.0063639,0.000997062,0.0111781,0.00908502,-0.0144519,0.944437,0.0137063,0.0280333,1651,1611,9.93322,-18.6806
434,-587,9.81714,18.3947,-0.00519677,0.00194201,0.00946683,0.00849,-0.0117448,0.965678,0.0117328,0.0150196,1658,1611,9.81709,-18.3947
441,-587,9.76624,18.1451,-0.00396909,0.0027948,0.00775629,0.00787439,-0.00904868,0.990985,0.00977838,0.015721,1665,1611,9.76626,-18.1451
448,-587,9.82715,17.8958,-0.00290526,0.00313114,0.00614722,0.00696114,-0.00673526,1.0136,0.00790798,0.0147126,1672,1611,9.82709,-17.8958
455,-587,9.84705,17.6189,-0.00217754,0.0030031,0.00471258,0.00579034,-0.00496479,1.03669,0.00621557,0.0141118,1679,1611,9.84702,-17.6189
462,-587,9.8208,17.3397,-0.00150197,0.00267046,0.00334891,0.00452981,-0.00336132,1.06396,0.00457256,0.0182764,1686,1611,9.82076,-17.3397
469,-587,9.82092,17.0769,-0.000954247,0.00207975,0.00223038,0.00326013,-0.00213463,1.08404,0.00313718,0.0162355,1693,1611,9.82088,-17.0769
476,-587,9.83716,16.8203,-0.000462717,0.00155736,0.00112394,0.00205842,-0.000963775,1.15144,0.00178261,0.0101477,1700,1611,9.83712,-16.8203
483,-587,9.81152,16.553,-8.87604e-05,0.000753139,0.000399225,0.000912344,-0.000247965,1.19134,0.000705561,0.0124499,1707,1611,9.81151,-16.553
490,-587,9.77856,16.2672,0.00026155,-4.50612e-05,-0.000138479,0.000314833,-9.83445e-05,-0.367314,0.000249224,0.015029,1714,1611,9.77857,-16.2673
497,-587,9.77515,15.9794,0.000522299,-0.000729792,-0.000588867,0.000755728,-0.000963222,-0.377403,0.000994843,0.0116969,1721,1611,9.77513,-15.9794
504,-587,9.7677,15.7147,0.000640569,-0.00141736,-0.000647897,0.000827556,-0.00160435,-0.280971,0.00142774,0.0113949,1728,1611,9.76769,-15.7147
511,-587,9.77844,15.4375,0.00083075,-0.001831,-0.000610545,0.000964114,-0.00196436,-0.215055,0.00172332,0.0133578,1735,1611,9.77848,-15.4375
518,-587,9.80542,15.1353,0.000918147,-0.00238109,-0.000273302,0.000940634,-0.00240358,-0.0820923,0.00199141,0.0133195,1742,1611,9.80543,-15.1353
525,-587,9.78894,14.8533,0.00083553,-0.00313811,0.000321243,0.000861333,-0.00316391,0.0801499,0.00244744,0.0160164,1749,1611,9.789,-14.8533
532,-587,9.80969,14.6077,0.000623534,-0.00417103,0.00118084,0.000898582,-0.00444608,0.228845,0.00330456,0.0309076,1756,1611,9.80968,-14.6076
539,-587,9.93481,14.3961,0,0,0,0,0,0,0,-1,1763,1611,9.93477,-14.3962
546,-587,9.57629,12.9152,0,0,0,0,0,0,0,-1,1770,1611,9.57624,-12.9152
553,-587,7.5813,8.45068,0,0,0,0,0,0,0,-1,1777,1611,7.58125,-8.45068
560,-587,4.21179,5.23547,0,0,0,0,0,0,0,-1,1784,1611,4.21185,-5.23553
567,-587,4.03711,5.46387,0,0,0,0,0,0,0,-1,1791,1611,4.03715,-5.46382
574,-587,3.83142,5.68884,0,0,0,0,0,0,0,-1,1798,1611,3.83141,-5.68881
581,-587,3.47168,6.00977,0,0,0,0,0,0,0,-1,1805,1611,3.47167,-6.00983
588,-587,0,0,0,0,0,0,0,0,0,-1,1812,1611,0,0
595,-587,0,0,0,0,0,0,0,0,0,-1,1819,1611,0,0
602,-587,0,0,0,0,0,0,0,0,0,-1,1826,1611,0,0
609,-587,0,0,0,0,0,0,0,0,0,-1,1833,1611,0,0
616,-587,0,0,0,0,0,0,0,0,0,-1,1840,1611,0,0
623,-587,0,0,0,0,0,0,0,0,0,-1,1847,1611,0,0
630,-587,0,0,0,0,0,0,0,0,0,-1,1854,1611,0,0
637,-587,0,0,0,0,0,0,0,0,0,-1,1861,1611,0,0
644,-587,0,0,0,0,0,0,0,0,0,-1,1868,1611,0,0
651,-587,0,0,0,0,0,0,0,0,0,-1,1875,1611,0,0
658,-587,0,0,0,0,0,0,0,0,0,-1,1882,1611,0,0
665,-587,0,0,0,0,0,0,0,0,0,-1,1889,1611,0,0
672,-587,0,0,0,0,0,0,0,0,0,-1,1896,1611,0,0
679,-587,0,0,0,0,0,0,0,0,0,-1,1903,1611,0,0
686,-587,0,0,0,0,0,0,0,0,0,-1,1910,1611,0,0
693,-587,0,0,0,0,0,0,0,0,0,-1,1917,1611,0,0
700,-587,0,0,0,0,0,0,0,0,0,-1,1924,1611,0,0
707,-587,0,0,0,0,0,0,0,0,0,-1,1931,1611,0,0
714,-587,0,0,0,0,0,0,0,0,0,-1,1938,1611,0,0
721,-587,0,0,0,0,0,0,0,0,0,-1,1945,1611,0,0
728,-587,0,0,0,0,0,0,0,0,0,-1,1952,1611,0,0
735,-587,0,0,0,0,0,0,0,0,0,-1,1959,1611,0,0
742,-587,0,0,0,0,0,0,0,0,0,-1,1966,1611,0,0
749,-587,0,0,0,0,0,0,0,0,0,-1,1973,1611,0,0
756,-587,0,0,0,0,0,0,0,0,0,-1,1980,1611,0,0
763,-587,0,0,0,0,0,0,0,0,0,-1,1987,1611,0,0
770,-587,0,0,0,0,0,0,0,0,0,-1,1994,1611,0,0
777,-587,0,0,0,0,0,0,0,0,0,-1,2001,1611,0,0
784,-587,0,0,0,0,0,0,0,0,0,-1,2008,1611,0,0
791,-587,0,0,0,0,0,0,0,0,0,-1,2015,1611,0,0
798,-587,0,0,0,0,0,0,0,0,0,-1,2022,1611,0,0
805,-587,0,0,0,0,0,0,0,0,0,-1,2029,1611,0,0
812,-587,0,0,0,0,0,0,0,0,0,-1,2036,1611,0,0
-700,-594,0,0,0,0,0,0,0,0,0,-1,524,1618,0,0
-693,-594,0,0,0,0,0,0,0,0,0,-1,531,1618,0,0
-686,-594,0,0,0,0,0,0,0,0,0,-1,538,1618,0,0
-679,-594,0,0,0,0,0,0,0,0,0,-1,545,1618,0,0
-672,-594,0,0,0,0,0,0,0,0,0,-1,552,1618,0,0
-665,-594,0,0,0,0,0,0,0,0,0,-1,559,1618,0,0
-658,-594,0,0,0,0,0,0,0,0,0,-1,566,1618,0,0
-651,-594,0,0,0,0,0,0,0,0,0,-1,573,1618,0,0
-644,-594,0,0,0,0,0,0,0,0,0,-1,580,1618,0,0
-637,-594,0,0,0,0,0,0,0,0,0,-1,587,1618,0,0
-630,-594,0,0,0,0,0,0,0,0,0,-1,594,1618,0,0
-623,-594,0,0,0,0,0,0,0,0,0,-1,601,1618,0,0
-616,-594,0,0,0,0,0,0,0,0,0,-1,608,1618,0,0
-609,-594,0,0,0,0,0,0,0,0,0,-1,615,1618,0,0
-602,-594,0,0,0,0,0,0,0,0,0,-1,622,1618,0,0
-595,-594,0,0,0,0,0,0,0,0,0,-1,629,1618,0,0
-588,-594,0,0,0,0,0,0,0,0,0,-1,636,1618,0,0
-581,-594,0,0,0,0,0,0,0,0,0,-1,643,1618,0,0
-574,-594,0,0,0,0,0,0,0,0,0,-1,650,1618,0,0
-567,-594,0,0,0,0,0,0,0,0,0,-1,657,1618,0,0
-560,-594,0,0,0,0,0,0,0,0,0,-1,664,1618,0,0
-553,-594,0,0,0,0,0,0,0,0,0,-1,671,1618,0,0
-546,-594,0,0,0,0,0,0,0,0,0,-1,678,1618,0,0
-539,-594,0,0,0,0,0,0,0,0,0,-1,685,1618,0,0
-532,-594,0,0,0,0,0,0,0,0,0,-1,692,1618,0,0
-525,-594,0,0,0,0,0,0,0,0,0,-1,699,1618,0,0
-518,-594,0,0,0,0,0,0,0,0,0,-1,706,1618,0,0
-511,-594,0,0,0,0,0,0,0,0,0,-1,713,1618,0,0
-504,-594,0,0,0,0,0,0,0,0,0,-1,720,1618,0,0
-497,-594,0,0,0,0,0,0,0,0,0,-1,727,1618,0,0
-490,-594,0,0,0,0,0,0,0,0,0,-1,734,1618,0,0
-483,-594,0,0,0,0,0,0,0,0,0,-1,741,1618,0,0
-476,-594,0,0,0,0,0,0,0,0,0,-1,748,1618,0,0
-469,-594,0,0,0,0,0,0,0,0,0,-1,755,1618,0,0
-462,-594,0,0,0,0,0,0,0,0,0,-1,762,1618,0,0
-455,-594,-0.509216,-1.58411,0,0,0,0,0,0,0,-1,769,1618,-0.509245,1.58415
-448,-594,-7.71887,-0.0559082,0,0,0,0,0,0,0,-1,776,1618,-7.71885,0.055939
-441,-594,-5.78473,1.18298,0,0,0,0,0,0,0,-1,783,1618,-5.78474,-1.18295
-434,-594,-3.93628,3.06213,0,0,0,0,0,0,0,-1,790,1618,-3.93631,-3.06208
-427,-594,-3.97693,6.77759,0,0,0,0,0,0,0,-1,797,1618,-3.97695,-6.77764
-420,-594,-2.53046,7.71606,0,0,0,0,0,0,0,-1,804,1618,-2.53047,-7.71609
-413,-594,-0.860413,8.00391,0,0,0,0,0,0,0,-1,811,1618,-0.860423,-8.00389
-406,-594,2.37439,11.5702,0,0,0,0,0,0,0,-1,818,1618,2.37439,-11.5701
-399,-594,2.33398,13.3704,0,0,0,0,0,0,0,-1,825,1618,2.33397,-13.3703
-392,-594,2.4928,13.4895,-0.000291867,-0.00132777,0.00426997,0.00349145,-0.00511109,0.725042,0.00499593,0.039387,832,1618,2.49282,-13.4895
-385,-594,2.24939,13.92,-0.000199437,-0.00236172,0.00269867,0.0016266,-0.00418775,0.594877,0.00346377,0.0273156,839,1618,2.24939,-13.92
-378,-594,2.0921,14.2429,0.000303386,-0.00201121,0.0021245,0.00156535,-0.00327317,0.536,0.00285094,0.0126526,846,1618,2.09213,-14.2429
-371,-594,2.08624,14.5719,0.000745858,-0.0019075,0.00164456,0.00153216,-0.00269379,0.44599,0.00247039,0.0116809,853,1618,2.08622,-14.5718
-364,-594,2.08868,14.8671,0.00116609,-0.0017431,0.00139589,0.00172752,-0.00230453,0.382404,0.00233584,0.0103998,860,1618,2.08867,-14.8671
-357,-594,2.10388,15.1737,0.00153774,-0.00164734,0.00114306,0.00190549,-0.00201509,0.311273,0.00226385,0.0107114,867,1618,2.10385,-15.1737
-350,-594,2.08801,15.4893,0.0017602,-0.00143155,0.000834363,0.00196515,-0.0016365,0.24087,0.0020823,0.0149816,874,1618,2.08798,-15.4893
-343,-594,2.06879,15.8069,0.00178197,-0.00120345,0.000611944,0.00190253,-0.00132401,0.19453,0.0018728,0.0161558,881,1618,2.0688,-15.8069
-336,-594,2.05701,16.0511,0.00186294,-0.000926717,0.000459293,0.00193662,-0.00100039,0.15905,0.00172416,0.0131417,888,1618,2.05702,-16.0511
-329,-594,2.07025,16.3458,0.00189233,-0.000479159,0.000365308,0.00194733,-0.000534156,0.149428,0.00150814,0.0131621,895,1618,2.07027,-16.3458
-322,-594,2.09491,16.6566,0.00183788,-6.21516e-05,0.000303326,0.00188512,-0.000109401,0.154528,0.00129476,0.0160253,902,1618,2.09493,-16.6566
-315,-594,2.09943,16.905,0.00178913,0.00013898,0.000191161,0.00181098,0.000117125,0.113837,0.00117023,0.0167173,909,1618,2.09945,-16.905
-308,-594,2.09961,17.1837,0.001787,5.71268e-05,-5.8338e-05,0.00178897,5.51616e-05,-0.0336728,0.00117469,0.0146765,916,1618,2.09963,-17.1837
-301,-594,2.10413,17.454,0.00192766,-0.000200622,-2.63183e-05,0.00192799,-0.000200947,-0.0123634,0.00135728,0.0103093,923,1618,2.10414,-17.4539
-294,-594,2.11932,17.7113,0.00209962,-0.000376074,0.000158869,0.00210977,-0.000386227,0.0638225,0.00155137,0.0107809,930,1618,2.11933,-17.7113
-287,-594,2.08765,17.9855,0.00236549,-0.000681484,0.000132084,0.0023712,-0.000687199,0.0432411,0.00185285,0.0148556,937,1618,2.08763,-17.9855
-280,-594,2.13666,18.2733,0.00276263,-0.00138852,0.000168108,0.00276943,-0.00139532,0.0404085,0.00244776,0.0186079,944,1618,2.13668,-18.2733
-273,-594,2.08313,18.4468,0.00305542,-0.00208273,0.000115123,0.003058,-0.00208531,0.0223905,0.00298714,0.0281861,951,1618,2.08313,-18.4468
-266,-594,1.94049,18.5582,0.0035012,-0.00365351,0.000128986,0.00350352,-0.00365583,0.0180203,0.00413376,0.0403893,958,1618,1.9405,-18.5582
-259,-594,1.94202,18.6359,0.00419451,-0.00505556,0.00048708,0.00422009,-0.00508114,0.0524635,0.00537773,0.0494569,965,1618,1.942,-18.6359
-252,-594,2.44617,18.8093,0,0,0,0,0,0,0,-1,972,1618,2.44618,-18.8094
-245,-594,2.68488,19.5552,0,0,0,0,0,0,0,-1,979,1618,2.6849,-19.5552
-238,-594,2.48499,13.0104,0,0,0,0,0,0,0,-1,986,1618,2.48501,-13.0104
-231,-594,1.93774,9.35388,0,0,0,0,0,0,0,-1,993,1618,1.93776,-9.35393
-224,-594,1.81824,8.62744,0,0,0,0,0,0,0,-1,1000,1618,1.81822,-8.62745
-217,-594,-8.24066,12.0752,0,0,0,0,0,0,0,-1,1007,1618,-8.24068,-12.0751
-210,-594,-5.61438,14.2119,0,0,0,0,0,0,0,-1,1014,1618,-5.6144,-14.212
-203,-594,-3.94507,15.5768,0,0,0,0,0,0,0,-1,1021,1618,-3.94506,-15.5768
-196,-594,2.78613,10.5815,0,0,0,0,0,0,0,-1,1028,1618,2.78612,-10.5815
-189,-594,2.60913,9.48865,0,0,0,0,0,0,0,-1,1035,1618,2.6091,-9.48871
-182,-594,1.2395,9.38806,0,0,0,0,0,0,0,-1,1042,1618,1.23951,-9.38804
-175,-594,0.234863,8.73792,0,0,0,0,0,0,0,-1,1049,1618,0.234812,-8.73786
-168,-594,-0.495483,8.46289,0,0,0,0,0,0,0,-1,1056,1618,-0.495513,-8.46285
-161,-594,-1.39734,8.28699,0,0,0,0,0,0,0,-1,1063,1618,-1.39729,-8.28699
-154,-594,-0.000854492,7.68445,0,0,0,0,0,0,0,-1,1070,1618,-0.000805755,-7.6845
-147,-594,0.348267,9.3385,0,0,0,0,0,0,0,-1,1077,1618,0.348237,-9.33849
-140,-594,0.675171,11.5884,0,0,0,0,0,0,0,-1,1084,1618,0.675204,-11.5884
-133,-594,0,0,0,0,0,0,0,0,0,-1,1091,1618,0,0
-126,-594,0,0,0,0,0,0,0,0,0,-1,1098,1618,0,0
-119,-594,0,0,0,0,0,0,0,0,0,-1,1105,1618,0,0
-112,-594,0,0,0,0,0,0,0,0,0,-1,1112,1618,0,0
-105,-594,0,0,0,0,0,0,0,0,0,-1,1119,1618,0,0
-98,-594,0,0,0,0,0,0,0,0,0,-1,1126,1618,0,0
-91,-594,0,0,0,0,0,0,0,0,0,-1,1133,1618,0,0
-84,-594,0,0,0,0,0,0,0,0,0,-1,1140,1618,0,0
-77,-594,0,0,0,0,0,0,0,0,0,-1,1147,1618,0,0
-70,-594,0,0,0,0,0,0,0,0,0,-1,1154,1618,0,0
-63,-594,0,0,0,0,0,0,0,0,0,-1,1161,1618,0,0
-56,-594,0,0,0,0,0,0,0,0,0,-1,1168,1618,0,0
-49,-594,0,0,0,0,0,0,0,0,0,-1,1175,1618,0,0
-42,-594,0,0,0,0,0,0,0,0,0,-1,1182,1618,0,0
-35,-594,0,0,0,0,0,0,0,0,0,-1,1189,1618,0,0
-28,-594,0,0,0,0,0,0,0,0,0,-1,1196,1618,0,0
-21,-594,0,0,0,0,0,0,0,0,0,-1,1203,1618,0,0
-14,-594,0,0,0,0,0,0,0,0,0,-1,1210,1618,0,0
-7,-594,0,0,0,0,0,0,0,0,0,-1,1217,1618,0,0
0,-594,0,0,0,0,0,0,0,0,0,-1,1224,1618,0,0
7,-594,0,0,0,0,0,0,0,0,0,-1,1231,1618,0,0
14,-594,0,0,0,0,0,0,0,0,0,-1,1238,1618,0,0
21,-594,0,0,0,0,0,0,0,0,0,-1,1245,1618,0,0
28,-594,0,0,0,0,0,0,0,0,0,-1,1252,1618,0,0
35,-594,0,0,0,0,0,0,0,0,0,-1,1259,1618,0,0
42,-594,0,0,0,0,0,0,0,0,0,-1,1266,1618,0,0
49,-594,0,0,0,0,0,0,0,0,0,-1,1273,1618,0,0
56,-594,0,0,0,0,0,0,0,0,0,-1,1280,1618,0,0
63,-594,0,0,0,0,0,0,0,0,0,-1,1287,1618,0,0
70,-594,0,0,0,0,0,0,0,0,0,-1,1294,1618,0,0
77,-594,0,0,0,0,0,0,0,0,0,-1,1301,1618,0,0
84,-594,0,0,0,0,0,0,0,0,0,-1,1308,1618,0,0
91,-594,0,0,0,0,0,0,0,0,0,-1,1315,1618,0,0
98,-594,0,0,0,0,0,0,0,0,0,-1,1322,1618,0,0
105,-594,0,0,0,0,0,0,0,0,0,-1,1329,1618,0,0
112,-594,0,0,0,0,0,0,0,0,0,-1,1336,1618,0,0
119,-594,0,0,0,0,0,0,0,0,0,-1,1343,1618,0,0
126,-594,0,0,0,0,0,0,0,0,0,-1,1350,1618,0,0
133,-594,0,0,0,0,0,0,0,0,0,-1,1357,1618,0,0
140,-594,0,0,0,0,0,0,0,0,0,-1,1364,1618,0,0
147,-594,0,0,0,0,0,0,0,0,0,-1,1371,1618,0,0
154,-594,0,0,0,0,0,0,0,0,0,-1,1378,1618,0,0
161,-594,0,0,0,0,0,0,0,0,0,-1,1385,1618,0,0
168,-594,0,0,0,0,0,0,0,0,0,-1,1392,1618,0,0
175,-594,0,0,0,0,0,0,0,0,0,-1,1399,1618,0,0
182,-594,0,0,0,0,0,0,0,0,0,-1,1406,1618,0,0
189,-594,0,0,0,0,0,0,0,0,0,-1,1413,1618,0,0
196,-594,0,0,0,0,0,0,0,0,0,-1,1420,1618,0,0
203,-594,0,0,0,0,0,0,0,0,0,-1,1427,1618,0,0
210,-594,0,0,0,0,0,0,0,0,0,-1,1434,1618,0,0
217,-594,0,0,0,0,0,0,0,0,0,-1,1441,1618,0,0
224,-594,0,0,0,0,0,0,0,0,0,-1,1448,1618,0,0
231,-594,0,0,0,0,0,0,0,0,0,-1,1455,1618,0,0
238,-594,0,0,0,0,0,0,0,0,0,-1,1462,1618,0,0
245,-594,0,0,0,0,0,0,0,0,0,-1,1469,1618,0,0
252,-594,3.03674,1.20996,0,0,0,0,0,0,0,-1,1476,1618,3.0368,-1.20999
259,-594,4.79834,1.53113,0,0,0,0,0,0,0,-1,1483,1618,4.79837,-1.53118
266,-594,3.71606,2.68152,0,0,0,0,0,0,0,-1,1490,1618,3.71609,-2.68149
273,-594,9.7655,6.33557,0,0,0,0,0,0,0,-1,1497,1618,9.76555,-6.33554
280,-594,3.13281,0.911255,0,0,0,0,0,0,0,-1,1504,1618,3.13277,-0.911207
287,-594,4.42749,1.51563,0,0,0,0,0,0,0,-1,1511,1618,4.42747,-1.51564
294,-594,5.36475,3.34937,0,0,0,0,0,0,0,-1,1518,1618,5.36475,-3.3494
301,-594,7.97144,9.04333,0,0,0,0,0,0,0,-1,1525,1618,7.9714,-9.04328
308,-594,6.30347,10.4633,0,0,0,0,0,0,0,-1,1532,1618,6.30351,-10.4633
315,-594,4.62012,11.934,0,0,0,0,0,0,0,-1,1539,1618,4.62006,-11.934
322,-594,2.91528,13.3134,0,0,0,0,0,0,0,-1,1546,1618,2.91523,-13.3133
329,-594,4.19861,9.77258,0,0,0,0,0,0,0,-1,1553,1618,4.19865,-9.77264
336,-594,10.1353,4.66528,0,0,0,0,0,0,0,-1,1560,1618,10.1353,-4.66533
343,-594,10.5729,3.71228,0,0,0,0,0,0,0,-1,1567,1618,10.5729,-3.71232
350,-594,10.219,2.98792,0,0,0,0,0,0,0,-1,1574,1618,10.219,-2.98797
357,-594,9.83154,1.96326,0,0,0,0,0,0,0,-1,1581,1618,9.8315,-1.96321
364,-594,9.74939,0.700562,0,0,0,0,0,0,0,-1,1588,1618,9.74939,-0.700615
371,-594,8.54297,14.3988,0,0,0,0,0,0,0,-1,1595,1618,8.54296,-14.3989
378,-594,8.9137,16.3073,0,0,0,0,0,0,0,-1,1602,1618,8.91369,-16.3072
385,-594,9.76172,19.5828,0,0,0,0,0,0,0,-1,1609,1618,9.76169,-19.5828
392,-594,9.55737,20.0027,0,0,0,0,0,0,0,-1,1616,1618,9.55736,-20.0026
399,-594,9.67078,19.5258,-0.00776949,-0.00442802,0.0113052,0.00532919,-0.0175267,0.85876,0.013808,0.0462344,1623,1618,9.67081,-19.5258
406,-594,9.64807,19.2688,-0.00708638,-0.00326452,0.0108386,0.00583035,-0.0161812,0.872655,0.0131684,0.0289357,1630,1618,9.64813,-19.2688
413,-594,9.58936,19.1067,-0.00638155,-0.00240785,0.0102383,0.00603459,-0.014824,0.881237,0.012394,0.0217013,1637,1618,9.58936,-19.1066
420,-594,9.60657,18.8116,-0.00554353,-0.00119122,0.0091876,0.00607443,-0.0128092,0.901684,0.0111312,0.0194735,1644,1618,9.60661,-18.8117
427,-594,9.60132,18.6329,-0.00463373,-0.000370397,0.00808901,0.00586311,-0.0108672,0.914232,0.00980224,0.0133876,1651,1618,9.60126,-18.6329
434,-594,9.5625,18.3966,-0.0037714,0.000339172,0.00682063,0.00540745,-0.00883968,0.931738,0.00830477,0.01645,1658,1618,9.56245,-18.3966
441,-594,9.53857,18.1492,-0.0028313,0.00102234,0.00552185,0.00494389,-0.00675285,0.953265,0.00677998,0.0151213,1665,1618,9.53862,-18.1492
448,-594,9.55505,17.8923,-0.00205977,0.00129449,0.00431905,0.00425061,-0.00501589,0.970592,0.00535609,0.0158461,1672,1618,9.55508,-17.8923
455,-594,9.56604,17.616,-0.00152857,0.00116451,0.00321061,0.00329952,-0.00366359,0.983958,0.00402198,0.0118579,1679,1618,9.56604,-17.616
462,-594,9.58105,17.3368,-0.00103024,0.000847293,0.00211547,0.00222294,-0.00240589,0.994226,0.00267315,0.0127614,1686,1618,9.58109,-17.3367
469,-594,9.57629,17.0852,-0.000621577,0.00034614,0.0012203,0.00117501,-0.00145044,0.974145,0.00151858,0.0115107,1693,1618,9.57631,-17.0852
476,-594,9.56555,16.8214,-0.000243082,-0.00011426,0.000325085,0.000152734,-0.000510076,0.8832,0.000400783,0.0115008,1700,1618,9.5656,-16.8214
483,-594,9.547,16.5465,-2.74225e-06,-0.000810471,-0.000246913,6.67564e-05,-0.00087997,-0.274371,0.000610117,0.0143728,1707,1618,9.547,-16.5465
490,-594,9.52234,16.2655,0.000243889,-0.00150304,-0.000689541,0.000483262,-0.00174241,-0.334133,0.0013518,0.0125776,1714,1618,9.52232,-16.2656
497,-594,9.52722,15.9753,0.000437748,-0.00209355,-0.00104694,0.000814644,-0.00247044,-0.345553,0.00197532,0.00955078,1721,1618,9.52722,-15.9754
504,-594,9.52637,15.7035,0.000511523,-0.00259134,-0.000997022,0.00080427,-0.00288408,-0.285594,0.00223948,0.00976297,1728,1618,9.52643,-15.7035
511,-594,9.52417,15.4221,0.000690747,-0.00292304,-0.000875719,0.000891775,-0.00312406,-0.225648,0.00243502,0.0122894,1735,1618,9.52414,-15.4221
518,-594,9.5249,15.1285,0.000794009,-0.00341534,-0.000437478,0.000838995,-0.00346033,-0.102471,0.00263152,0.0154163,1742,1618,9.52488,-15.1286
525,-594,9.59253,14.8679,0.000747729,-0.00409428,0.000286206,0.000764587,-0.00411114,0.0588358,0.00302797,0.0266725,1749,1618,9.59248,-14.8679
532,-594,9.48853,14.6794,0.000593307,-0.00514562,0.00137684,0.000906533,-0.00545885,0.223689,0.00397601,0.0427957,1756,1618,9.48858,-14.6795
539,-594,9.3396,14.3796,0,0,0,0,0,0,0,-1,1763,1618,9.33963,-14.3796
546,-594,7.48645,8.54785,0,0,0,0,0,0,0,-1,1770,1618,7.48639,-8.54789
553,-594,3.69714,5.68762,0,0,0,0,0,0,0,-1,1777,1618,3.69715,-5.68764
560,-594,6.06616,4.44482,0,0,0,0,0,0,0,-1,1784,1618,6.06621,-4.44477
567,-594,5.97266,4.73303,0,0,0,0,0,0,0,-1,1791,1618,5.97271,-4.73309
574,-594,5.9906,4.96326,0,0,0,0,0,0,0,-1,1798,1618,5.99065,-4.96326
581,-594,0,0,0,0,0,0,0,0,0,-1,1805,1618,0,0
588,-594,0,0,0,0,0,0,0,0,0,-1,1812,1618,0,0
595,-594,0,0,0,0,0,0,0,0,0,-1,1819,1618,0,0
602,-594,0,0,0,0,0,0,0,0,0,-1,1826,1618,0,0
609,-594,0,0,0,0,0,0,0,0,0,-1,1833,1618,0,0
616,-594,0,0,0,0,0,0,0,0,0,-1,1840,1618,0,0
623,-594,0,0,0,0,0,0,0,0,0,-1,1847,1618,0,0
630,-594,0,0,0,0,0,0,0,0,0,-1,1854,1618,0,0
637,-594,0,0,0,0,0,0,0,0,0,-1,1861,1618,0,0
644,-594,0,0,0,0,0,0,0,0,0,-1,1868,1618,0,0
651,-594,0,0,0,0,0,0,0,0,0,-1,1875,1618,0,0
658,-594,0,0,0,0,0,0,0,0,0,-1,1882,1618,0,0
665,-594,0,0,0,0,0,0,0,0,0,-1,1889,1618,0,0
672,-594,0,0,0,0,0,0,0,0,0,-1,1896,1618,0,0
679,-594,0,0,0,0,0,0,0,0,0,-1,1903,1618,0,0
686,-594,0,0,0,0,0,0,0,0,0,-1,1910,1618,0,0
693,-594,0,0,0,0,0,0,0,0,0,-1,1917,1618,0,0
700,-594,0,0,0,0,0,0,0,0,0,-1,1924,1618,0,0
707,-594,0,0,0,0,0,0,0,0,0,-1,1931,1618,0,0
714,-594,0,0,0,0,0,0,0,0,0,-1,1938,1618,0,0
721,-594,0,0,0,0,0,0,0,0,0,-1,1945,1618,0,0
728,-594,0,0,0,0,0,0,0,0,0,-1,1952,1618,0,0
735,-594,0,0,0,0,0,0,0,0,0,-1,1959,1618,0,0
742,-594,0,0,0,0,0,0,0,0,0,-1,1966,1618,0,0
749,-594,0,0,0,0,0,0,0,0,0,-1,1973,1618,0,0
756,-594,0,0,0,0,0,0,0,0,0,-1,1980,1618,0,0
763,-594,0,0,0,0,0,0,0,0,0,-1,1987,1618,0,0
770,-594,0,0,0,0,0,0,0,0,0,-1,1994,1618,0,0
777,-594,0,0,0,0,0,0,0,0,0,-1,2001,1618,0,0
784,-594,0,0,0,0,0,0,0,0,0,-1,2008,1618,0,0
791,-594,0,0,0,0,0,0,0,0,0,-1,2015,1618,0,0
798,-594,0,0,0,0,0,0,0,0,0,-1,2022,1618,0,0
805,-594,0,0,0,0,0,0,0,0,0,-1,2029,1618,0,0
812,-594,0,0,0,0,0,0,0,0,0,-1,2036,1618,0,0
-700,-601,0,0,0,0,0,0,0,0,0,-1,524,1625,0,0
-693,-601,0,0,0,0,0,0,0,0,0,-1,531,1625,0,0
-686,-601,0,0,0,0,0,0,0,0,0,-1,538,1625,0,0
-679,-601,0,0,0,0,0,0,0,0,0,-1,545,1625,0,0
-672,-601,0,0,0,0,0,0,0,0,0,-1,552,1625,0,0
-665,-601,0,0,0,0,0,0,0,0,0,-1,559,1625,0,0
-658,-601,0,0,0,0,0,0,0,0,0,-1,566,1625,0,0
-651,-601,0,0,0,0,0,0,0,0,0,-1,573,1625,0,0
-644,-601,0,0,0,0,0,0,0,0,0,-1,580,1625,0,0
-637,-601,0,0,0,0,0,0,0,0,0,-1,587,1625,0,0
-630,-601,0,0,0,0,0,0,0,0,0,-1,594,1625,0,0
-623,-601,0,0,0,0,0,0,0,0,0,-1,601,1625,0,0
-616,-601,0,0,0,0,0,0,0,0,0,-1,608,1625,0,0
-609,-601,0,0,0,0,0,0,0,0,0,-1,615,1625,0,0
-602,-601,0,0,0,0,0,0,0,0,0,-1,622,1625,0,0
-595,-601,0,0,0,0,0,0,0,0,0,-1,629,1625,0,0
-588,-601,0,0,0,0,0,0,0,0,0,-1,636,1625,0,0
-581,-601,0,0,0,0,0,0,0,0,0,-1,643,1625,0,0
-574,-601,0,0,0,0,0,0,0,0,0,-1,650,1625,0,0
-567,-601,0,0,0,0,0,0,0,0,0,-1,657,1625,0,0
-560,-601,0,0,0,0,0,0,0,0,0,-1,664,1625,0,0
-553,-601,0,0,0,0,0,0,0,0,0,-1,671,1625,0,0
-546,-601,0,0,0,0,0,0,0,0,0,-1,678,1625,0,0
-539,-601,0,0,0,0,0,0,0,0,0,-1,685,1625,0,0
-532,-601,0,0,0,0,0,0,0,0,0,-1,692,1625,0,0
-525,-601,0,0,0,0,0,0,0,0,0,-1,699,1625,0,0
-518,-601,0,0,0,0,0,0,0,0,0,-1,706,1625,0,0
-511,-601,0,0,0,0,0,0,0,0,0,-1,713,1625,0,0
-504,-601,0,0,0,0,0,0,0,0,0,-1,720,1625,0,0
-497,-601,0,0,0,0,0,0,0,0,0,-1,727,1625,0,0
-490,-601,0,0,0,0,0,0,0,0,0,-1,734,1625,0,0
-483,-601,0,0,0,0,0,0,0,0,0,-1,741,1625,0,0
-476,-601,0,0,0,0,0,0,0,0,0,-1,748,1625,0,0
-469,-601,0,0,0,0,0,0,0,0,0,-1,755,1625,0,0
-462,-601,0,0,0,0,0,0,0,0,0,-1,762,1625,0,0
-455,-601,0,0,0,0,0,0,0,0,0,-1,769,1625,0,0
-448,-601,-7.07623,2.7616,0,0,0,0,0,0,0,-1,776,1625,-7.07626,-2.76161
-441,-601,-6.06689,3.33447,0,0,0,0,0,0,0,-1,783,1625,-6.06691,-3.33448
-434,-601,-5.02655,3.8468,0,0,0,0,0,0,0,-1,790,1625,-5.02657,-3.84674
-427,-601,-5.78601,4.2406,0,0,0,0,0,0,0,-1,797,1625,-5.786,-4.24058
-420,-601,-5.5191,5.60364,0,0,0,0,0,0,0,-1,804,1625,-5.51907,-5.60368
-413,-601,-4.30756,5.86047,0,0,0,0,0,0,0,-1,811,1625,-4.30757,-5.86046
-406,-601,-1.67493,7.20422,0,0,0,0,0,0,0,-1,818,1625,-1.67493,-7.20428
-399,-601,3.0318,12.7921,0,0,0,0,0,0,0,-1,825,1625,3.03182,-12.7921
-392,-601,2.68988,13.4636,0.00112588,-0.00228393,0.00572606,0.00539546,-0.00655351,0.640704,0.00690953,0.0483978,832,1625,2.68988,-13.4636
-385,-601,2.59064,14.0004,0.00143643,-0.00320291,0.00399707,0.00373817,-0.00550465,0.522478,0.00536874,0.0423557,839,1625,2.59063,-14.0004
-378,-601,2.44263,14.3063,0.00193722,-0.00287866,0.00316037,0.00350246,-0.0044439,0.459856,0.00459855,0.0312537,846,1625,2.44262,-14.3063
-371,-601,2.39288,14.5972,0.00218524,-0.0027224,0.00243302,0.00318697,-0.00372413,0.390571,0.00399414,0.0155167,853,1625,2.39289,-14.5972
-364,-601,2.38843,14.891,0.00236872,-0.00246252,0.00200135,0.00309007,-0.00318388,0.345941,0.0036224,0.010769,860,1625,2.38844,-14.8911
-357,-601,2.38147,15.1729,0.0024354,-0.00224006,0.00162881,0.00294688,-0.00275154,0.30427,0.00329063,0.0104352,867,1625,2.38144,-15.1729
-350,-601,2.41772,15.5255,0.00234338,-0.00188528,0.00120807,0.00266418,-0.00220608,0.259553,0.00281599,0.020717,874,1625,2.41773,-15.5255
-343,-601,2.36859,15.8427,0.00206761,-0.00152962,0.000880472,0.00227156,-0.00173356,0.227618,0.0023193,0.022457,881,1625,2.36858,-15.8426
-336,-601,2.35242,16.0927,0.0019235,-0.00119672,0.000601889,0.00203557,-0.0013088,0.184102,0.00194601,0.0184735,888,1625,2.35241,-16.0926
-329,-601,2.36371,16.3895,0.00176601,-0.000676573,0.000441532,0.00184337,-0.000753936,0.173454,0.0015429,0.0149481,895,1625,2.3637,-16.3895
-322,-601,2.36816,16.6722,0.00156634,-0.000181425,0.000335116,0.00162839,-0.000243477,0.183092,0.00117519,0.0125792,902,1625,2.36818,-16.6723
-315,-601,2.3714,16.9229,0.00140014,6.23045e-05,0.000199759,0.00142933,3.31145e-05,0.145099,0.000942044,0.0131192,909,1625,2.37141,-16.9229
-308,-601,2.37067,17.1899,0.00120426,1.53752e-05,-0.000116613,0.00121559,4.04502e-06,-0.0968563,0.000809047,0.0118763,916,1625,2.37065,-17.1899
-301,-601,2.39545,17.4742,0.00127991,-0.000167888,-9.07327e-05,0.00128558,-0.000173552,-0.0623442,0.000920373,0.00934506,923,1625,2.39546,-17.4743
-294,-601,2.37836,17.7329,0.00148992,-0.000285148,3.73664e-05,0.00149071,-0.000285934,0.0210382,0.00110156,0.00958668,930,1625,2.37838,-17.7329
-287,-601,2.3429,18.0171,0.00177572,-0.000525406,-2.78804e-05,0.00177606,-0.000525743,-0.0121136,0.00139277,0.010278,937,1625,2.34288,-18.0171
-280,-601,2.36682,18.2946,0.00218636,-0.00115908,-3.47092e-05,0.00218672,-0.00115944,-0.0103736,0.00196202,0.010676,944,1625,2.36682,-18.2945
-273,-601,2.37823,18.5699,0.00255055,-0.00186252,-0.000102242,0.00255292,-0.00186489,-0.0231515,0.00256091,0.0116362,951,1625,2.37823,-18.5699
-266,-601,2.39386,18.8138,0.00299453,-0.00301458,-9.96755e-05,0.00299619,-0.00301624,-0.0165813,0.00347128,0.0156623,958,1625,2.39386,-18.8138
-259,-601,2.45764,18.9374,0.00361634,-0.00404121,0.000127177,0.00361845,-0.00404333,0.016602,0.00442579,0.0262114,965,1625,2.45767,-18.9374
-252,-601,2.56213,19.0316,0.00442652,-0.00510955,0.000616579,0.00446622,-0.00514925,0.0643008,0.00555616,0.043214,972,1625,2.56216,-19.0317
-245,-601,2.55371,19.6993,0.00536903,-0.00606028,0.00103885,0.00546268,-0.00615394,0.0899114,0.00671082,0.0462382,979,1625,2.55371,-19.6993
-238,-601,2.34515,19.9996,0,0,0,0,0,0,0,-1,986,1625,2.34517,-19.9996
-231,-601,2.66772,13.7051,0,0,0,0,0,0,0,-1,993,1625,2.6677,-13.7051
-224,-601,-0.0305176,9.13684,0,0,0,0,0,0,0,-1,1000,1625,-0.030498,-9.13681
-217,-601,3.39429,10.3898,0,0,0,0,0,0,0,-1,1007,1625,3.39431,-10.3898
-210,-601,-6.53699,15.7931,0,0,0,0,0,0,0,-1,1014,1625,-6.53697,-15.7931
-203,-601,2.69348,15.9099,0,0,0,0,0,0,0,-1,1021,1625,2.69351,-15.91
-196,-601,2.66992,16.1815,0,0,0,0,0,0,0,-1,1028,1625,2.66995,-16.1815
-189,-601,2.849,16.6105,0,0,0,0,0,0,0,-1,1035,1625,2.84902,-16.6104
-182,-601,1.82153,13.9752,0,0,0,0,0,0,0,-1,1042,1625,1.82155,-13.9752
-175,-601,0.544922,9.28687,0,0,0,0,0,0,0,-1,1049,1625,0.544879,-9.28685
-168,-601,-0.247559,8.97461,0,0,0,0,0,0,0,-1,1056,1625,-0.247598,-8.97466
-161,-601,-1.16833,8.80078,0,0,0,0,0,0,0,-1,1063,1625,-1.16837,-8.80081
-154,-601,1.12756,7.94861,0,0,0,0,0,0,0,-1,1070,1625,1.12762,-7.94855
-147,-601,1.35352,9.55432,0,0,0,0,0,0,0,-1,1077,1625,1.35351,-9.55429
-140,-601,1.72437,11.1498,0,0,0,0,0,0,0,-1,1084,1625,1.72432,-11.1498
-133,-601,2.13281,12.8347,0,0,0,0,0,0,0,-1,1091,1625,2.13287,-12.8348
-126,-601,3.09534,15.427,0,0,0,0,0,0,0,-1,1098,1625,3.0953,-15.4271
-119,-601,1.22485,9.43457,0,0,0,0,0,0,0,-1,1105,1625,1.22489,-9.43456
-112,-601,0,0,0,0,0,0,0,0,0,-1,1112,1625,0,0
-105,-601,0,0,0,0,0,0,0,0,0,-1,1119,1625,0,0
-98,-601,0,0,0,0,0,0,0,0,0,-1,1126,1625,0,0
-91,-601,0,0,0,0,0,0,0,0,0,-1,1133,1625,0,0
-84,-601,0,0,0,0,0,0,0,0,0,-1,1140,1625,0,0
-77,-601,0,0,0,0,0,0,0,0,0,-1,1147,1625,0,0
-70,-601,0,0,0,0,0,0,0,0,0,-1,1154,1625,0,0
-63,-601,0,0,0,0,0,0,0,0,0,-1,1161,1625,0,0
-56,-601,0,0,0,0,0,0,0,0,0,-1,1168,1625,0,0
-49,-601,0,0,0,0,0,0,0,0,0,-1,1175,1625,0,0
-42,-601,0,0,0,0,0,0,0,0,0,-1,1182,1625,0,0
-35,-601,0,0,0,0,0,0,0,0,0,-1,1189,1625,0,0
-28,-601,0,0,0,0,0,0,0,0,0,-1,1196,1625,0,0
-21,-601,0,0,0,0,0,0,0,0,0,-1,1203,1625,0,0
-14,-601,0,0,0,0,0,0,0,0,0,-1,1210,1625,0,0
-7,-601,0,0,0,0,0,0,0,0,0,-1,1217,1625,0,0
0,-601,0,0,0,0,0,0,0,0,0,-1,1224,1625,0,0
7,-601,0,0,0,0,0,0,0,0,0,-1,1231,1625,0,0
14,-601,0,0,0,0,0,0,0,0,0,-1,1238,1625,0,0
21,-601,0,0,0,0,0,0,0,0,0,-1,1245,1625,0,0
28,-601,0,0,0,0,0,0,0,0,0,-1,1252,1625,0,0
35,-601,0,0,0,0,0,0,0,0,0,-1,1259,1625,0,0
42,-601,0,0,0,0,0,0,0,0,0,-1,1266,1625,0,0
49,-601,0,0,0,0,0,0,0,0,0,-1,1273,1625,0,0
56,-601,0,0,0,0,0,0,0,0,0,-1,1280,1625,0,0
63,-601,0,0,0,0,0,0,0,0,0,-1,1287,1625,0,0
70,-601,0,0,0,0,0,0,0,0,0,-1,1294,1625,0,0
77,-601,0,0,0,0,0,0,0,0,0,-1,1301,1625,0,0
84,-601,0,0,0,0,0,0,0,0,0,-1,1308,1625,0,0
91,-601,0,0,0,0,0,0,0,0,0,-1,1315,1625,0,0
98,-601,0,0,0,0,0,0,0,0,0,-1,1322,1625,0,0
105,-601,0,0,0,0,0,0,0,0,0,-1,1329,1625,0,0
112,-601,0,0,0,0,0,0,0,0,0,-1,1336,1625,0,0
119,-601,0,0,0,0,0,0,0,0,0,-1,1343,1625,0,0
126,-601,0,0,0,0,0,0,0,0,0,-1,1350,1625,0,0
133,-601,0,0,0,0,0,0,0,0,0,-1,1357,1625,0,0
140,-601,0,0,0,0,0,0,0,0,0,-1,1364,1625,0,0
147,-601,0,0,0,0,0,0,0,0,0,-1,1371,1625,0,0
154,-601,0,0,0,0,0,0,0,0,0,-1,1378,1625,0,0
161,-601,0,0,0,0,0,0,0,0,0,-1,1385,1625,0,0
168,-601,0,0,0,0,0,0,0,0,0,-1,1392,1625,0,0
175,-601,0,0,0,0,0,0,0,0,0,-1,1399,1625,0,0
182,-601,0,0,0,0,0,0,0,0,0,-1,1406,1625,0,0
189,-601,0,0,0,0,0,0,0,0,0,-1,1413,1625,0,0
196,-601,0,0,0,0,0,0,0,0,0,-1,1420,1625,0,0
203,-601,0,0,0,0,0,0,0,0,0,-1,1427,1625,0,0
210,-601,0,0,0,0,0,0,0,0,0,-1,1434,1625,0,0
217,-601,0,0,0,0,0,0,0,0,0,-1,1441,1625,0,0
224,-601,0,0,0,0,0,0,0,0,0,-1,1448,1625,0,0
231,-601,-0.0371094,0.525879,0,0,0,0,0,0,0,-1,1455,1625,-0.0371518,-0.525824
238,-601,2.03369,-1.32861,0,0,0,0,0,0,0,-1,1462,1625,2.03364,1.32858
245,-601,2.71375,2.44983,0,0,0,0,0,0,0,-1,1469,1625,2.71371,-2.44979
252,-601,4.66943,2.28381,0,0,0,0,0,0,0,-1,1476,1625,4.66947,-2.28376
259,-601,6.42712,2.61987,0,0,0,0,0,0,0,-1,1483,1625,6.42711,-2.61985
266,-601,6.75317,1.68701,0,0,0,0,0,0,0,-1,1490,1625,6.75323,-1.687
273,-601,5.4314,2.92053,0,0,0,0,0,0,0,-1,1497,1625,5.43144,-2.92051
280,-601,4.64722,1.17786,0,0,0,0,0,0,0,-1,1504,1625,4.64722,-1.1779
287,-601,5.32532,2.6217,0,0,0,0,0,0,0,-1,1511,1625,5.32535,-2.62171
294,-601,5.97693,4.22693,0,0,0,0,0,0,0,-1,1518,1625,5.97697,-4.22694
301,-601,7.28162,9.50024,0,0,0,0,0,0,0,-1,1525,1625,7.28162,-9.50025
308,-601,6.53528,10.3927,0,0,0,0,0,0,0,-1,1532,1625,6.53529,-10.3927
315,-601,4.88013,11.7184,0,0,0,0,0,0,0,-1,1539,1625,4.88015,-11.7184
322,-601,3.38098,12.7864,0,0,0,0,0,0,0,-1,1546,1625,3.38104,-12.7864
329,-601,1.8772,13.8768,0,0,0,0,0,0,0,-1,1553,1625,1.87716,-13.8768
336,-601,4.67847,9.53308,0,0,0,0,0,0,0,-1,1560,1625,4.67848,-9.53309
343,-601,11.1404,3.14575,0,0,0,0,0,0,0,-1,1567,1625,11.1404,-3.1458
350,-601,10.9462,2.37769,0,0,0,0,0,0,0,-1,1574,1625,10.9461,-2.37764
357,-601,10.7518,1.6095,0,0,0,0,0,0,0,-1,1581,1625,10.7518,-1.60948
364,-601,5.33643,9.74426,0,0,0,0,0,0,0,-1,1588,1625,5.33637,-9.74429
371,-601,8.46387,16.2725,0,0,0,0,0,0,0,-1,1595,1625,8.46385,-16.2725
378,-601,9.46619,20.0829,0,0,0,0,0,0,0,-1,1602,1625,9.46619,-20.0828
385,-601,9.56482,19.8522,-0.00489113,-0.00185189,0.00649433,0.00329824,-0.0100413,0.900326,0.00802285,0.047862,1609,1625,9.56478,-19.8521
392,-601,9.38098,19.67,-0.00505044,-0.00313826,0.00738174,0.00334905,-0.0115378,0.8498,0.00901792,0.0423976,1616,1625,9.38103,-19.6701
399,-601,9.24048,19.5483,-0.00494184,-0.00269459,0.00770133,0.00396465,-0.0116011,0.857837,0.00934042,0.0210067,1623,1625,9.24045,-19.5483
406,-601,9.3186,19.3069,-0.0046897,-0.00238878,0.00753903,0.00408707,-0.0111656,0.861115,0.00911673,0.0142411,1630,1625,9.31859,-19.3069
413,-601,9.33203,19.0815,-0.00435827,-0.00214498,0.0072526,0.00408492,-0.0105882,0.861107,0.00874447,0.0122186,1637,1625,9.33205,-19.0815
420,-601,9.30457,18.8728,-0.00385526,-0.00149571,0.00656181,0.00399154,-0.0093425,0.874345,0.00790234,0.00990033,1644,1625,9.30459,-18.8728
427,-601,9.31726,18.6283,-0.00327722,-0.00113747,0.00580277,0.00369323,-0.00810792,0.876561,0.0069705,0.0144131,1651,1625,9.31726,-18.6283
434,-601,9.31665,18.3805,-0.00268227,-0.000737871,0.00484055,0.00322715,-0.00664729,0.884502,0.00581388,0.0146705,1658,1625,9.31665,-18.3804
441,-601,9.30383,18.1268,-0.00200403,-0.000293317,0.00381951,0.00276545,-0.00506279,0.895552,0.00458405,0.0158655,1665,1625,9.30387,-18.1268
448,-601,9.31885,17.8633,-0.00150477,-0.000161793,0.00289647,0.00214001,-0.00380657,0.899301,0.00347791,0.0146895,1672,1625,9.31884,-17.8633
455,-601,9.32141,17.5977,-0.00115305,-0.000373752,0.00201495,0.00128888,-0.00281567,0.880908,0.0024238,0.0124142,1679,1625,9.32141,-17.5977
462,-601,9.31958,17.3397,-0.000819826,-0.000752816,0.00111316,0.000327342,-0.00189998,0.800443,0.00138869,0.0106718,1686,1625,9.31953,-17.3397
469,-601,9.32214,17.088,-0.000542975,-0.00123209,0.000376367,-0.000377266,-0.0013978,0.414745,0.000835022,0.0107537,1693,1625,9.32209,-17.088
476,-601,9.30017,16.8312,-0.000267321,-0.0016869,-0.000353839,-0.000184014,-0.00177021,-0.231229,0.00112383,0.0125077,1700,1625,9.30013,-16.8311
483,-601,9.27502,16.5574,-0.000148574,-0.00231138,-0.000819488,0.000126855,-0.00258681,-0.324237,0.00176834,0.0152533,1707,1625,9.27498,-16.5574
490,-601,9.26672,16.2716,2.92713e-06,-0.00291381,-0.00121382,0.000441979,-0.00335286,-0.347069,0.00239619,0.0118659,1714,1625,9.26675,-16.2716
497,-601,9.28308,15.9875,0.000153242,-0.00340167,-0.00152088,0.000715105,-0.00396354,-0.353882,0.00291016,0.00933881,1721,1625,9.28308,-15.9875
504,-601,9.31531,15.7051,0.000222608,-0.00373076,-0.00143003,0.000685652,-0.00419381,-0.313146,0.00305022,0.013778,1728,1625,9.31526,-15.7051
511,-601,9.25378,15.4498,0.000408809,-0.00398986,-0.0012749,0.000751609,-0.00433266,-0.262671,0.00316883,0.0240869,1735,1625,9.25376,-15.4498
518,-601,9.22449,15.0901,0.000579793,-0.00441532,-0.000803085,0.000705732,-0.00454126,-0.155553,0.0032881,0.0378922,1742,1625,9.22445,-15.0901
525,-601,9.44336,14.8379,0.000640715,-0.00498264,-2.63579e-05,0.000640838,-0.00498276,-0.00468709,0.00355476,0.0472507,1749,1625,9.44339,-14.8379
532,-601,9.33215,14.8413,0,0,0,0,0,0,0,-1,1756,1625,9.33215,-14.8413
539,-601,7.77112,11.4299,0,0,0,0,0,0,0,-1,1763,1625,7.77116,-11.4299
546,-601,6.56873,3.62354,0,0,0,0,0,0,0,-1,1770,1625,6.56867,-3.62352
553,-601,7.03015,4.25049,0,0,0,0,0,0,0,-1,1777,1625,7.03011,-4.25048
560,-601,7.50745,4.83374,0,0,0,0,0,0,0,-1,1784,1625,7.50744,-4.83376
567,-601,7.82043,3.83301,0,0,0,0,0,0,0,-1,1791,1625,7.82041,-3.83303
574,-601,0,0,0,0,0,0,0,0,0,-1,1798,1625,0,0
581,-601,0,0,0,0,0,0,0,0,0,-1,1805,1625,0,0
588,-601,0,0,0,0,0,0,0,0,0,-1,1812,1625,0,0
595,-601,0,0,0,0,0,0,0,0,0,-1,1819,1625,0,0
602,-601,0,0,0,0,0,0,0,0,0,-1,1826,1625,0,0
609,-601,0,0,0,0,0,0,0,0,0,-1,1833,1625,0,0
616,-601,0,0,0,0,0,0,0,0,0,-1,1840,1625,0,0
623,-601,0,0,0,0,0,0,0,0,0,-1,1847,1625,0,0
630,-601,0,0,0,0,0,0,0,0,0,-1,1854,1625,0,0
637,-601,0,0,0,0,0,0,0,0,0,-1,1861,1625,0,0
644,-601,0,0,0,0,0,0,0,0,0,-1,1868,1625,0,0
651,-601,0,0,0,0,0,0,0,0,0,-1,1875,1625,0,0
658,-601,0,0,0,0,0,0,0,0,0,-1,1882,1625,0,0
665,-601,0,0,0,0,0,0,0,0,0,-1,1889,1625,0,0
672,-601,0,0,0,0,0,0,0,0,0,-1,1896,1625,0,0
679,-601,0,0,0,0,0,0,0,0,0,-1,1903,1625,0,0
686,-601,0,0,0,0,0,0,0,0,0,-1,1910,1625,0,0
693,-601,0,0,0,0,0,0,0,0,0,-1,1917,1625,0,0
700,-601,0,0,0,0,0,0,0,0,0,-1,1924,1625,0,0
707,-601,0,0,0,0,0,0,0,0,0,-1,1931,1625,0,0
714,-601,0,0,0,0,0,0,0,0,0,-1,1938,1625,0,0
721,-601,0,0,0,0,0,0,0,0,0,-1,1945,1625,0,0
728,-601,0,0,0,0,0,0,0,0,0,-1,1952,1625,0,0
735,-601,0,0,0,0,0,0,0,0,0,-1,1959,1625,0,0
742,-601,0,0,0,0,0,0,0,0,0,-1,1966,1625,0,0
749,-601,0,0,0,0,0,0,0,0,0,-1,1973,1625,0,0
756,-601,0,0,0,0,0,0,0,0,0,-1,1980,1625,0,0
763,-601,0,0,0,0,0,0,0,0,0,-1,1987,1625,0,0
770,-601,0,0,0,0,0,0,0,0,0,-1,1994,1625,0,0
777,-601,0,0,0,0,0,0,0,0,0,-1,2001,1625,0,0
784,-601,0,0,0,0,0,0,0,0,0,-1,2008,1625,0,0
791,-601,0,0,0,0,0,0,0,0,0,-1,2015,1625,0,0
798,-601,0,0,0,0,0,0,0,0,0,-1,2022,1625,0,0
805,-601,0,0,0,0,0,0,0,0,0,-1,2029,1625,0,0
812,-601,0,0,0,0,0,0,0,0,0,-1,2036,1625,0,0
-700,-608,0,0,0,0,0,0,0,0,0,-1,524,1632,0,0
-693,-608,0,0,0,0,0,0,0,0,0,-1,531,1632,0,0
-686,-608,0,0,0,0,0,0,0,0,0,-1,538,1632,0,0
-679,-608,0,0,0,0,0,0,0,0,0,-1,545,1632,0,0
-672,-608,0,0,0,0,0,0,0,0,0,-1,552,1632,0,0
-665,-608,0,0,0,0,0,0,0,0,0,-1,559,1632,0,0
-658,-608,0,0,0,0,0,0,0,0,0,-1,566,1632,0,0
-651,-608,0,0,0,0,0,0,0,0,0,-1,573,1632,0,0
-644,-608,0,0,0,0,0,0,0,0,0,-1,580,1632,0,0
-637,-608,0,0,0,0,0,0,0,0,0,-1,587,1632,0,0
-630,-608,0,0,0,0,0,0,0,0,0,-1,594,1632,0,0
-623,-608,0,0,0,0,0,0,0,0,0,-1,601,1632,0,0
-616,-608,0,0,0,0,0,0,0,0,0,-1,608,1632,0,0
-609,-608,0,0,0,0,0,0,0,0,0,-1,615,1632,0,0
-602,-608,0,0,0,0,0,0,0,0,0,-1,622,1632,0,0
-595,-608,0,0,0,0,0,0,0,0,0,-1,629,1632,0,0
-588,-608,0,0,0,0,0,0,0,0,0,-1,636,1632,0,0
-581,-608,0,0,0,0,0,0,0,0,0,-1,643,1632,0,0
-574,-608,0,0,0,0,0,0,0,0,0,-1,650,1632,0,0
-567,-608,0,0,0,0,0,0,0,0,0,-1,657,1632,0,0
-560,-608,0,0,0,0,0,0,0,0,0,-1,664,1632,0,0
-553,-608,0,0,0,0,0,0,0,0,0,-1,671,1632,0,0
-546,-608,0,0,0,0,0,0,0,0,0,-1,678,1632,0,0
-539,-608,0,0,0,0,0,0,0,0,0,-1,685,1632,0,0
-532,-608,0,0,0,0,0,0,0,0,0,-1,692,1632,0,0
-525,-608,0,0,0,0,0,0,0,0,0,-1,699,1632,0,0
-518,-608,0,0,0,0,0,0,0,0,0,-1,706,1632,0,0
-511,-608,0,0,0,0,0,0,0,0,0,-1,713,1632,0,0
-504,-608,0,0,0,0,0,0,0,0,0,-1,720,1632,0,0
-497,-608,0,0,0,0,0,0,0,0,0,-1,727,1632,0,0
-490,-608,0,0,0,0,0,0,0,0,0,-1,734,1632,0,0
-483,-608,0,0,0,0,0,0,0,0,0,-1,741,1632,0,0
-476,-608,0,0,0,0,0,0,0,0,0,-1,748,1632,0,0
-469,-608,0,0,0,0,0,0,0,0,0,-1,755,1632,0,0
-462,-608,0,0,0,0,0,0,0,0,0,-1,762,1632,0,0
-455,-608,0,0,0,0,0,0,0,0,0,-1,769,1632,0,0
-448,-608,0,0,0,0,0,0,0,0,0,-1,776,1632,0,0
-441,-608,-7.34601,2.78052,0,0,0,0,0,0,0,-1,783,1632,-7.346,-2.78056
-434,-608,-6.34558,3.27405,0,0,0,0,0,0,0,-1,790,1632,-6.34555,-3.27406
-427,-608,-7.74335,4.17688,0,0,0,0,0,0,0,-1,797,1632,-7.74334,-4.17693
-420,-608,-6.82794,4.34839,0,0,0,0,0,0,0,-1,804,1632,-6.82794,-4.34838
-413,-608,-5.41919,5.66138,0,0,0,0,0,0,0,-1,811,1632,-5.41917,-5.66133
-406,-608,-4.79681,4.98999,0,0,0,0,0,0,0,-1,818,1632,-4.79684,-4.98997
-399,-608,-2.60645,6.34167,0,0,0,0,0,0,0,-1,825,1632,-2.60643,-6.34169
-392,-608,2.79041,13.6705,0,0,0,0,0,0,0,-1,832,1632,2.79038,-13.6706
-385,-608,2.71112,14.2675,0,0,0,0,0,0,0,-1,839,1632,2.7111,-14.2674
-378,-608,2.65094,14.5022,0.00460926,-0.00380738,0.00475594,0.00675144,-0.00594956,0.423205,0.0073378,0.049921,846,1632,2.65093,-14.5022
-371,-608,2.64069,14.6494,0.00437211,-0.0035829,0.00363826,0.0057851,-0.0049959,0.370441,0.00622997,0.0454453,853,1632,2.64068,-14.6494
-364,-608,2.70398,14.8347,0.00410402,-0.003352,0.00291211,0.00510659,-0.00435458,0.331568,0.00546816,0.021401,860,1632,2.70397,-14.8348
-357,-608,2.68347,15.1207,0.00373112,-0.00308231,0.002322,0.00444719,-0.00379839,0.299133,0.0047655,0.0172177,867,1632,2.68346,-15.1207
-350,-608,2.70477,15.4657,0.00325018,-0.00264538,0.00171952,0.00371504,-0.00311025,0.264035,0.00394574,0.0192061,874,1632,2.70476,-15.4657
-343,-608,2.68616,15.7837,0.00263463,-0.0021983,0.0012248,0.0029273,-0.00249098,0.234559,0.00313163,0.0250075,881,1632,2.68616,-15.7837
-336,-608,2.65985,16.1052,0.00224247,-0.00183612,0.000778757,0.00238611,-0.00197976,0.182392,0.00252427,0.0167609,888,1632,2.65985,-16.1052
-329,-608,2.64453,16.4149,0.00188801,-0.00127122,0.000525654,0.00197318,-0.00135639,0.160623,0.00193329,0.0145127,895,1632,2.64453,-16.415
-322,-608,2.64063,16.6835,0.00154478,-0.000703716,0.000359821,0.00160096,-0.000759894,0.154876,0.00139157,0.0143172,902,1632,2.64064,-16.6835
-315,-608,2.65912,16.9325,0.00126121,-0.000391838,0.000196927,0.00128435,-0.000414974,0.116949,0.00102301,0.0133035,909,1632,2.65914,-16.9325
-308,-608,2.65155,17.2083,0.000871999,-0.000358271,-0.0001814,0.000898188,-0.00038446,-0.143383,0.000760079,0.0142799,916,1632,2.65158,-17.2083
-301,-608,2.64917,17.5,0.000882503,-0.000411445,-0.000159661,0.000901912,-0.000430854,-0.120973,0.00078533,0.0110614,923,1632,2.64917,-17.5
-294,-608,2.65607,17.7573,0.00111152,-0.000417152,-6.62033e-05,0.00111439,-0.000420014,-0.0431998,0.000915623,0.0101446,930,1632,2.65606,-17.7573
-287,-608,2.62842,18.0061,0.00138466,-0.000536504,-0.000135611,0.00139418,-0.000546029,-0.0701244,0.00115531,0.00983964,937,1632,2.62841,-18.0061
-280,-608,2.63892,18.2667,0.00175136,-0.00100983,-0.000148669,0.00175934,-0.00101781,-0.0536356,0.00162233,0.00829596,944,1632,2.6389,-18.2668
-273,-608,2.63477,18.5448,0.00209931,-0.00154102,-0.000190767,0.00210928,-0.00155099,-0.0522132,0.00212144,0.00905565,951,1632,2.63478,-18.5449
-266,-608,2.65735,18.8254,0.00252407,-0.00232817,-0.000166616,0.00252979,-0.00233388,-0.0342842,0.0028088,0.00964881,958,1632,2.65735,-18.8255
-259,-608,2.69806,19.0503,0.00306321,-0.00305216,3.57591e-06,0.00306321,-0.00305216,0.000584742,0.00353071,0.0114861,965,1632,2.69805,-19.0503
-252,-608,2.6748,19.2931,0.00379533,-0.00375636,0.000341974,0.00381078,-0.00377181,0.0451613,0.00437783,0.0234521,972,1632,2.67478,-19.2931
-245,-608,2.64618,19.6545,0.00463395,-0.00433539,0.000677197,0.00468479,-0.00438623,0.0749352,0.00523811,0.0361611,979,1632,2.6462,-19.6545
-238,-608,2.66772,19.9169,0.0054899,-0.00498387,0.000898817,0.00556647,-0.00506044,0.084988,0.00613777,0.0493382,986,1632,2.6677,-19.9168
-231,-608,2.78253,20.2299,0,0,0,0,0,0,0,-1,993,1632,2.78255,-20.2299
-224,-608,2.51642,15.3452,0,0,0,0,0,0,0,-1,1000,1632,2.5164,-15.3452
-217,-608,1.04419,12.8451,0,0,0,0,0,0,0,-1,1007,1632,1.04418,-12.8451
-210,-608,2.75903,15.9414,0,0,0,0,0,0,0,-1,1014,1632,2.75903,-15.9414
-203,-608,2.76776,16.217,0,0,0,0,0,0,0,-1,1021,1632,2.76773,-16.217
-196,-608,1.53955,18.6058,0,0,0,0,0,0,0,-1,1028,1632,1.53959,-18.6058
-189,-608,1.37634,19.119,0,0,0,0,0,0,0,-1,1035,1632,1.37634,-19.1191
-182,-608,2.89221,16.7092,0,0,0,0,0,0,0,-1,1042,1632,2.89224,-16.7093
-175,-608,0.219116,15.1643,0,0,0,0,0,0,0,-1,1049,1632,0.219173,-15.1644
-168,-608,0.000366211,9.48645,0,0,0,0,0,0,0,-1,1056,1632,0.000317105,-9.48648
-161,-608,2.27832,15.4423,0,0,0,0,0,0,0,-1,1063,1632,2.27826,-15.4423
-154,-608,1.3999,16.4037,0,0,0,0,0,0,0,-1,1070,1632,1.39987,-16.4037
-147,-608,2.4386,9.50317,0,0,0,0,0,0,0,-1,1077,1632,2.43858,-9.50313
-140,-608,2.60132,10.8401,0,0,0,0,0,0,0,-1,1084,1632,2.60134,-10.8401
-133,-608,3.2312,12.4738,0,0,0,0,0,0,0,-1,1091,1632,3.23116,-12.4738
-126,-608,3.76465,13.9644,0,0,0,0,0,0,0,-1,1098,1632,3.76466,-13.9644
-119,-608,4.28906,15.4196,0,0,0,0,0,0,0,-1,1105,1632,4.28911,-15.4195
-112,-608,0.745117,10.5587,0,0,0,0,0,0,0,-1,1112,1632,0.745145,-10.5587
-105,-608,-0.252319,1.42419,0,0,0,0,0,0,0,-1,1119,1632,-0.252331,-1.42418
-98,-608,-2.8595,3.0863,0,0,0,0,0,0,0,-1,1126,1632,-2.85948,-3.08625
-91,-608,-3.71948,1.73608,0,0,0,0,0,0,0,-1,1133,1632,-3.7195,-1.73607
-84,-608,0,0,0,0,0,0,0,0,0,-1,1140,1632,0,0
-77,-608,0,0,0,0,0,0,0,0,0,-1,1147,1632,0,0
-70,-608,0,0,0,0,0,0,0,0,0,-1,1154,1632,0,0
-63,-608,0,0,0,0,0,0,0,0,0,-1,1161,1632,0,0
-56,-608,0,0,0,0,0,0,0,0,0,-1,1168,1632,0,0
-49,-608,0,0,0,0,0,0,0,0,0,-1,1175,1632,0,0
-42,-608,0,0,0,0,0,0,0,0,0,-1,1182,1632,0,0
-35,-608,0,0,0,0,0,0,0,0,0,-1,1189,1632,0,0
-28,-608,0,0,0,0,0,0,0,0,0,-1,1196,1632,0,0
-21,-608,0,0,0,0,0,0,0,0,0,-1,1203,1632,0,0
-14,-608,0,0,0,0,0,0,0,0,0,-1,1210,1632,0,0
-7,-608,0,0,0,0,0,0,0,0,0,-1,1217,1632,0,0
0,-608,0,0,0,0,0,0,0,0,0,-1,1224,1632,0,0
7,-608,0,0,0,0,0,0,0,0,0,-1,1231,1632,0,0
14,-608,0,0,0,0,0,0,0,0,0,-1,1238,1632,0,0
21,-608,0,0,0,0,0,0,0,0,0,-1,1245,1632,0,0
28,-608,0,0,0,0,0,0,0,0,0,-1,1252,1632,0,0
35,-608,0,0,0,0,0,0,0,0,0,-1,1259,1632,0,0
42,-608,0,0,0,0,0,0,0,0,0,-1,1266,1632,0,0
49,-608,0,0,0,0,0,0,0,0,0,-1,1273,1632,0,0
56,-608,0,0,0,0,0,0,0,0,0,-1,1280,1632,0,0
63,-608,0,0,0,0,0,0,0,0,0,-1,1287,1632,0,0
70,-608,0,0,0,0,0,0,0,0,0,-1,1294,1632,0,0
77,-608,0,0,0,0,0,0,0,0,0,-1,1301,1632,0,0
84,-608,0,0,0,0,0,0,0,0,0,-1,1308,1632,0,0
91,-608,0,0,0,0,0,0,0,0,0,-1,1315,1632,0,0
98,-608,0,0,0,0,0,0,0,0,0,-1,1322,1632,0,0
105,-608,0,0,0,0,0,0,0,0,0,-1,1329,1632,0,0
112,-608,0,0,0,0,0,0,0,0,0,-1,1336,1632,0,0
119,-608,0,0,0,0,0,0,0,0,0,-1,1343,1632,0,0
126,-608,0,0,0,0,0,0,0,0,0,-1,1350,1632,0,0
133,-608,0,0,0,0,0,0,0,0,0,-1,1357,1632,0,0
140,-608,0,0,0,0,0,0,0,0,0,-1,1364,1632,0,0
147,-608,0,0,0,0,0,0,0,0,0,-1,1371,1632,0,0
154,-608,0,0,0,0,0,0,0,0,0,-1,1378,1632,0,0
161,-608,0,0,0,0,0,0,0,0,0,-1,1385,1632,0,0
168,-608,0,0,0,0,0,0,0,0,0,-1,1392,1632,0,0
175,-608,0,0,0,0,0,0,0,0,0,-1,1399,1632,0,0
182,-608,0,0,0,0,0,0,0,0,0,-1,1406,1632,0,0
189,-608,0,0,0,0,0,0,0,0,0,-1,1413,1632,0,0
196,-608,0,0,0,0,0,0,0,0,0,-1,1420,1632,0,0
203,-608,0,0,0,0,0,0,0,0,0,-1,1427,1632,0,0
210,-608,5.7157,-0.333008,0,0,0,0,0,0,0,-1,1434,1632,5.71566,0.333004
217,-608,4.49402,-0.831787,0,0,0,0,0,0,0,-1,1441,1632,4.49396,0.831738
224,-608,4.18018,-1.11792,0,0,0,0,0,0,0,-1,1448,1632,4.1802,1.11796
231,-608,0.361816,0.825195,0,0,0,0,0,0,0,-1,1455,1632,0.36185,-0.825226
238,-608,2.85388,-0.28833,0,0,0,0,0,0,0,-1,1462,1632,2.85391,0.288282
245,-608,3.87537,4.02173,0,0,0,0,0,0,0,-1,1469,1632,3.87538,-4.02168
252,-608,5.66956,3.5282,0,0,0,0,0,0,0,-1,1476,1632,5.6696,-3.52815
259,-608,7.47437,3.07178,0,0,0,0,0,0,0,-1,1483,1632,7.4744,-3.07172
266,-608,9.46936,2.34766,0,0,0,0,0,0,0,-1,1490,1632,9.46932,-2.34764
273,-608,6.03003,3.34241,0,0,0,0,0,0,0,-1,1497,1632,6.02997,-3.34245
280,-608,5.72461,2.0769,0,0,0,0,0,0,0,-1,1504,1632,5.72457,-2.07688
287,-608,6.20581,3.59338,0,0,0,0,0,0,0,-1,1511,1632,6.20585,-3.59341
294,-608,6.94922,5.17151,0,0,0,0,0,0,0,-1,1518,1632,6.94925,-5.17151
301,-608,7.60083,6.68018,0,0,0,0,0,0,0,-1,1525,1632,7.60086,-6.68013
308,-608,7.64746,9.93848,0,0,0,0,0,0,0,-1,1532,1632,7.64745,-9.93842
315,-608,5.30688,11.2054,0,0,0,0,0,0,0,-1,1539,1632,5.30694,-11.2054
322,-608,5.32617,13.7581,0,0,0,0,0,0,0,-1,1546,1632,5.32613,-13.758
329,-608,7.12231,13.9607,0,0,0,0,0,0,0,-1,1553,1632,7.12231,-13.9607
336,-608,5.48633,7.82446,0,0,0,0,0,0,0,-1,1560,1632,5.48634,-7.82446
343,-608,5.47192,5.61047,0,0,0,0,0,0,0,-1,1567,1632,5.47192,-5.61045
350,-608,11.6957,1.71387,0,0,0,0,0,0,0,-1,1574,1632,11.6957,-1.71388
357,-608,3.77002,5.10046,0,0,0,0,0,0,0,-1,1581,1632,3.77002,-5.10043
364,-608,5.6925,11.2163,0,0,0,0,0,0,0,-1,1588,1632,5.69255,-11.2163
371,-608,8.81409,21.3518,0,0,0,0,0,0,0,-1,1595,1632,8.81408,-21.3519
378,-608,9.20679,20.4265,-0.00246264,0.00176924,0.00333856,0.00360591,-0.00429931,1.06785,0.00456993,0.0424074,1602,1632,9.20674,-20.4266
385,-608,9.23376,20.0823,-0.00268205,-4.37434e-05,0.00401319,0.00286154,-0.00558733,0.944188,0.00496186,0.0338587,1609,1632,9.23376,-20.0823
392,-608,9.04114,19.855,-0.00294308,-0.00123227,0.00474237,0.00273123,-0.00690657,0.874626,0.0057358,0.0222436,1616,1632,9.04119,-19.855
399,-608,9.03345,19.588,-0.00305307,-0.00176518,0.00506725,0.00269888,-0.00751713,0.848599,0.00611298,0.010511,1623,1632,9.03343,-19.588
406,-608,9.05969,19.3397,-0.00300375,-0.0021303,0.005054,0.00250581,-0.00763986,0.828497,0.00610248,0.00962468,1630,1632,9.05964,-19.3398
413,-608,9.05261,19.1064,-0.00285347,-0.00238531,0.00494619,0.00233234,-0.00757111,0.809043,0.00597848,0.00985006,1637,1632,9.05265,-19.1064
420,-608,9.03418,18.8767,-0.00251572,-0.00223332,0.00449319,0.00212088,-0.00686993,0.801106,0.00542686,0.0161095,1644,1632,9.03417,-18.8767
427,-608,9.03943,18.619,-0.00212411,-0.0022868,0.00397501,0.00177038,-0.0061813,0.775167,0.0048206,0.0178299,1651,1632,9.03947,-18.6191
434,-608,9.03809,18.3745,-0.00168209,-0.0022031,0.00324099,0.00130885,-0.00519404,0.745295,0.00397152,0.0134063,1658,1632,9.03806,-18.3745
441,-608,9.0481,18.1219,-0.00118327,-0.0019947,0.00243631,0.000880878,-0.00405885,0.702892,0.00304234,0.0128631,1665,1632,9.04805,-18.122
448,-608,9.07275,17.8788,-0.000906067,-0.00198185,0.00174179,0.000378991,-0.00326691,0.635636,0.00231463,0.0161705,1672,1632,9.07275,-17.8787
455,-608,9.08667,17.6022,-0.000715314,-0.00223613,0.00105639,-0.000174112,-0.00277733,0.473448,0.00179633,0.0118668,1679,1632,9.08673,-17.6021
462,-608,9.06482,17.3467,-0.000563371,-0.00262065,0.000329455,-0.000511899,-0.00267213,0.154979,0.00163767,0.0105113,1686,1632,9.06477,-17.3467
469,-608,9.03491,17.1006,-0.000475466,-0.003013,-0.000262457,-0.000448604,-0.00303986,-0.101991,0.00189482,0.00829285,1693,1632,9.03496,-17.1006
476,-608,9.02747,16.8351,-0.000385944,-0.00339046,-0.000834614,-0.000169668,-0.00360673,-0.253556,0.00234998,0.00847086,1700,1632,9.02742,-16.8351
483,-608,9.03674,16.5587,-0.000492748,-0.00386436,-0.00120297,-0.000107547,-0.00424956,-0.309893,0.00279788,0.00818615,1707,1632,9.03678,-16.5588
490,-608,9.04504,16.2773,-0.000567572,-0.00430947,-0.00157033,4.09968e-06,-0.00488114,-0.349132,0.00325546,0.00885189,1714,1632,9.04498,-16.2773
497,-608,9.05298,15.9993,-0.000589163,-0.00459724,-0.00185885,0.000140202,-0.0053266,-0.373915,0.00359871,0.0159177,1721,1632,9.05292,-15.9993
504,-608,9.07349,15.783,-0.000598454,-0.00497383,-0.00179315,4.25293e-05,-0.00561481,-0.343306,0.00375746,0.0333979,1728,1632,9.07353,-15.7829
511,-608,9.20959,15.5806,-0.000479,-0.00534233,-0.00163748,2.09436e-05,-0.00584227,-0.296324,0.00390185,0.0415048,1735,1632,9.20954,-15.5806
518,-608,9.2345,15.3455,0,0,0,0,0,0,0,-1,1742,1632,9.23451,-15.3455
525,-608,9.14099,14.7728,0,0,0,0,0,0,0,-1,1749,1632,9.141,-14.7728
532,-608,8.27917,11.6693,0,0,0,0,0,0,0,-1,1756,1632,8.27919,-11.6694
539,-608,9.40796,1.43457,0,0,0,0,0,0,0,-1,1763,1632,9.40801,-1.43463
546,-608,9.94031,2.1134,0,0,0,0,0,0,0,-1,1770,1632,9.94031,-2.11346
553,-608,10.363,2.81335,0,0,0,0,0,0,0,-1,1777,1632,10.3631,-2.81333
560,-608,9.23999,4.5636,0,0,0,0,0,0,0,-1,1784,1632,9.24,-4.56354
567,-608,0,0,0,0,0,0,0,0,0,-1,1791,1632,0,0
574,-608,0,0,0,0,0,0,0,0,0,-1,1798,1632,0,0
581,-608,0,0,0,0,0,0,0,0,0,-1,1805,1632,0,0
588,-608,0,0,0,0,0,0,0,0,0,-1,1812,1632,0,0
595,-608,0,0,0,0,0,0,0,0,0,-1,1819,1632,0,0
602,-608,0,0,0,0,0,0,0,0,0,-1,1826,1632,0,0
609,-608,0,0,0,0,0,0,0,0,0,-1,1833,1632,0,0
616,-608,0,0,0,0,0,0,0,0,0,-1,1840,1632,0,0
623,-608,0,0,0,0,0,0,0,0,0,-1,1847,1632,0,0
630,-608,0,0,0,0,0,0,0,0,0,-1,1854,1632,0,0
637,-608,0,0,0,0,0,0,0,0,0,-1,1861,1632,0,0
644,-608,0,0,0,0,0,0,0,0,0,-1,1868,1632,0,0
651,-608,0,0,0,0,0,0,0,0,0,-1,1875,1632,0,0
658,-608,0,0,0,0,0,0,0,0,0,-1,1882,1632,0,0
665,-608,0,0,0,0,0,0,0,0,0,-1,1889,1632,0,0
672,-608,0,0,0,0,0,0,0,0,0,-1,1896,1632,0,0
679,-608,0,0,0,0,0,0,0,0,0,-1,1903,1632,0,0
686,-608,0,0,0,0,0,0,0,0,0,-1,1910,1632,0,0
693,-608,0,0,0,0,0,0,0,0,0,-1,1917,1632,0,0
700,-608,0,0,0,0,0,0,0,0,0,-1,1924,1632,0,0
707,-608,0,0,0,0,0,0,0,0,0,-1,1931,1632,0,0
714,-608,0,0,0,0,0,0,0,0,0,-1,1938,1632,0,0
721,-608,0,0,0,0,0,0,0,0,0,-1,1945,1632,0,0
728,-608,0,0,0,0,0,0,0,0,0,-1,1952,1632,0,0
735,-608,0,0,0,0,0,0,0,0,0,-1,1959,1632,0,0
742,-608,0,0,0,0,0,0,0,0,0,-1,1966,1632,0,0
749,-608,0,0,0,0,0,0,0,0,0,-1,1973,1632,0,0
756,-608,0,0,0,0,0,0,0,0,0,-1,1980,1632,0,0
763,-608,0,0,0,0,0,0,0,0,0,-1,1987,1632,0,0
770,-608,0,0,0,0,0,0,0,0,0,-1,1994,1632,0,0
777,-608,0,0,0,0,0,0,0,0,0,-1,2001,1632,0,0
784,-608,0,0,0,0,0,0,0,0,0,-1,2008,1632,0,0
791,-608,0,0,0,0,0,0,0,0,0,-1,2015,1632,0,0
798,-608,0,0,0,0,0,0,0,0,0,-1,2022,1632,0,0
805,-608,0,0,0,0,0,0,0,0,0,-1,2029,1632,0,0
812,-608,0,0,0,0,0,0,0,0,0,-1,2036,1632,0,0
-700,-615,0,0,0,0,0,0,0,0,0,-1,524,1639,0,0
-693,-615,0,0,0,0,0,0,0,0,0,-1,531,1639,0,0
-686,-615,0,0,0,0,0,0,0,0,0,-1,538,1639,0,0
-679,-615,0,0,0,0,0,0,0,0,0,-1,545,1639,0,0
-672,-615,0,0,0,0,0,0,0,0,0,-1,552,1639,0,0
-665,-615,0,0,0,0,0,0,0,0,0,-1,559,1639,0,0
-658,-615,0,0,0,0,0,0,0,0,0,-1,566,1639,0,0
-651,-615,0,0,0,0,0,0,0,0,0,-1,573,1639,0,0
-644,-615,0,0,0,0,0,0,0,0,0,-1,580,1639,0,0
-637,-615,0,0,0,0,0,0,0,0,0,-1,587,1639,0,0
-630,-615,0,0,0,0,0,0,0,0,0,-1,594,1639,0,0
-623,-615,0,0,0,0,0,0,0,0,0,-1,601,1639,0,0
-616,-615,0,0,0,0,0,0,0,0,0,-1,608,1639,0,0
-609,-615,0,0,0,0,0,0,0,0,0,-1,615,1639,0,0
-602,-615,0,0,0,0,0,0,0,0,0,-1,622,1639,0,0
-595,-615,0,0,0,0,0,0,0,0,0,-1,629,1639,0,0
-588,-615,0,0,0,0,0,0,0,0,0,-1,636,1639,0,0
-581,-615,0,0,0,0,0,0,0,0,0,-1,643,1639,0,0
-574,-615,0,0,0,0,0,0,0,0,0,-1,650,1639,0,0
-567,-615,0,0,0,0,0,0,0,0,0,-1,657,1639,0,0
-560,-615,0,0,0,0,0,0,0,0,0,-1,664,1639,0,0
-553,-615,0,0,0,0,0,0,0,0,0,-1,671,1639,0,0
-546,-615,0,0,0,0,0,0,0,0,0,-1,678,1639,0,0
-539,-615,0,0,0,0,0,0,0,0,0,-1,685,1639,0,0
-532,-615,0,0,0,0,0,0,0,0,0,-1,692,1639,0,0
-525,-615,0,0,0,0,0,0,0,0,0,-1,699,1639,0,0
-518,-615,0,0,0,0,0,0,0,0,0,-1,706,1639,0,0
-511,-615,0,0,0,0,0,0,0,0,0,-1,713,1639,0,0
-504,-615,0,0,0,0,0,0,0,0,0,-1,720,1639,0,0
-497,-615,0,0,0,0,0,0,0,0,0,-1,727,1639,0,0
-490,-615,0,0,0,0,0,0,0,0,0,-1,734,1639,0,0
-483,-615,0,0,0,0,0,0,0,0,0,-1,741,1639,0,0
-476,-615,0,0,0,0,0,0,0,0,0,-1,748,1639,0,0
-469,-615,0,0,0,0,0,0,0,0,0,-1,755,1639,0,0
-462,-615,0,0,0,0,0,0,0,0,0,-1,762,1639,0,0
-455,-615,0,0,0,0,0,0,0,0,0,-1,769,1639,0,0
-448,-615,0,0,0,0,0,0,0,0,0,-1,776,1639,0,0
-441,-615,0,0,0,0,0,0,0,0,0,-1,783,1639,0,0
-434,-615,-7.64508,2.98596,0,0,0,0,0,0,0,-1,790,1639,-7.64505,-2.98594
-427,-615,-9.0011,2.89404,0,0,0,0,0,0,0,-1,797,1639,-9.00107,-2.89399
-420,-615,-8.07568,3.0752,0,0,0,0,0,0,0,-1,804,1639,-8.07569,-3.07514
-413,-615,-7.09149,3.396,0,0,0,0,0,0,0,-1,811,1639,-7.09147,-3.39599
-406,-615,-6.21368,3.7312,0,0,0,0,0,0,0,-1,818,1639,-6.21366,-3.73114
-399,-615,-4.84875,3.91907,0,0,0,0,0,0,0,-1,825,1639,-4.84877,-3.91901
-392,-615,1.7395,13.3127,0,0,0,0,0,0,0,-1,832,1639,1.73953,-13.3128
-385,-615,3.74487,12.644,0,0,0,0,0,0,0,-1,839,1639,3.74485,-12.6441
-378,-615,2.89655,14.6508,0,0,0,0,0,0,0,-1,846,1639,2.89655,-14.6507
-371,-615,2.96893,14.6102,0,0,0,0,0,0,0,-1,853,1639,2.96895,-14.6103
-364,-615,2.90759,14.9614,0.00682379,-0.0041348,0.0041327,0.00820758,-0.00551859,0.323105,0.00797533,0.0397167,860,1639,2.90757,-14.9615
-357,-615,3.0639,15.3174,0.00570763,-0.003848,0.00320828,0.00668486,-0.00482523,0.295669,0.0066742,0.0347084,867,1639,3.06388,-15.3173
-350,-615,2.96606,15.566,0.00466324,-0.00335991,0.00234518,0.00529845,-0.00399512,0.264511,0.00538321,0.0337113,874,1639,2.96605,-15.566
-343,-615,2.9389,15.7562,0.00356227,-0.00283137,0.00160879,0.00394426,-0.00321336,0.23312,0.00413963,0.021734,881,1639,2.93891,-15.7562
-336,-615,2.94092,16.0876,0.00278956,-0.00241941,0.000966338,0.00296306,-0.00259291,0.177642,0.00321011,0.0111947,888,1639,2.94094,-16.0876
-329,-615,2.91589,16.3844,0.0021504,-0.00182302,0.000596191,0.00223793,-0.00191055,0.145769,0.00239761,0.0107068,895,1639,2.9159,-16.3844
-322,-615,2.91626,16.6797,0.00161655,-0.00118768,0.000360528,0.00166216,-0.00123329,0.12584,0.00167779,0.0115487,902,1639,2.91629,-16.6796
-315,-615,2.93604,16.9639,0.00118729,-0.000800252,0.000168823,0.00120152,-0.00081449,0.0841375,0.00117107,0.0135667,909,1639,2.93603,-16.9639
-308,-615,2.88934,17.2469,0.000595957,-0.000669189,-0.000258816,0.000646856,-0.000720088,-0.194184,0.000789583,0.0203627,916,1639,2.88936,-17.247
-301,-615,2.90295,17.4983,0.000539414,-0.000585261,-0.000229876,0.000584585,-0.000630432,-0.194029,0.000701657,0.0132119,923,1639,2.90294,-17.4983
-294,-615,2.91455,17.7535,0.000775797,-0.00049463,-0.000154798,0.000794387,-0.000513219,-0.119517,0.000760742,0.00994648,930,1639,2.91457,-17.7535
-287,-615,2.89502,18.0186,0.00102116,-0.000520437,-0.000209405,0.0010491,-0.000548375,-0.132635,0.000937285,0.00745726,937,1639,2.89505,-18.0186
-280,-615,2.90002,18.2767,0.00133434,-0.000864728,-0.00021127,0.00135446,-0.000884841,-0.0949156,0.0013023,0.00882213,944,1639,2.90003,-18.2767
-273,-615,2.89771,18.542,0.00166869,-0.00123755,-0.000220819,0.00168537,-0.00125423,-0.075404,0.00170325,0.0103216,951,1639,2.89772,-18.542
-266,-615,2.90265,18.795,0.00206993,-0.00178379,-0.00017154,0.00207755,-0.00179141,-0.0443958,0.00223578,0.0107969,958,1639,2.90267,-18.7951
-259,-615,2.93036,19.0397,0.0025329,-0.00226622,-3.64647e-05,0.00253318,-0.00226649,-0.00759762,0.00277252,0.0113828,965,1639,2.93035,-19.0397
-252,-615,2.93591,19.2751,0.00315648,-0.0027175,0.000206667,0.00316375,-0.00272476,0.0351255,0.00340288,0.0120443,972,1639,2.93591,-19.2751
-245,-615,2.92285,19.5204,0.00391776,-0.00308522,0.00047445,0.00394976,-0.00311722,0.0673395,0.00408955,0.018859,979,1639,2.92288,-19.5204
-238,-615,2.96515,19.786,0.00469968,-0.00343621,0.000634431,0.00474885,-0.00348539,0.0773561,0.00477266,0.0304743,986,1639,2.96513,-19.7861
-231,-615,3.18066,19.8774,0.00551061,-0.00427455,0.000690555,0.00555911,-0.00432305,0.0701085,0.00572032,0.0428145,993,1639,3.18064,-19.8774
-224,-615,3.13818,20.1915,0,0,0,0,0,0,0,-1,1000,1639,3.13816,-20.1915
-217,-615,3.37299,20.2592,0,0,0,0,0,0,0,-1,1007,1639,3.373,-20.2591
-210,-615,2.48901,18.9324,0,0,0,0,0,0,0,-1,1014,1639,2.48902,-18.9323
-203,-615,2.13684,18.6173,0,0,0,0,0,0,0,-1,1021,1639,2.13683,-18.6173
-196,-615,4.39478,19.7665,0,0,0,0,0,0,0,-1,1028,1639,4.39476,-19.7664
-189,-615,1.8269,19.6761,0,0,0,0,0,0,0,-1,1035,1639,1.82691,-19.6761
-182,-615,1.63489,20.2278,0,0,0,0,0,0,0,-1,1042,1639,1.63492,-20.2277
-175,-615,-0.609985,13.8434,0,0,0,0,0,0,0,-1,1049,1639,-0.610016,-13.8434
-168,-615,3.85754,15.472,0,0,0,0,0,0,0,-1,1056,1639,3.85757,-15.472
-161,-615,2.15601,20.8517,0,0,0,0,0,0,0,-1,1063,1639,2.15602,-20.8516
-154,-615,0.585327,18.823,0,0,0,0,0,0,0,-1,1070,1639,0.585319,-18.823
-147,-615,1.52502,17.3442,0,0,0,0,0,0,0,-1,1077,1639,1.52501,-17.3442
-140,-615,3.73401,10.2349,0,0,0,0,0,0,0,-1,1084,1639,3.73402,-10.2348
-133,-615,2.6178,17.45,0,0,0,0,0,0,0,-1,1091,1639,2.61776,-17.4499
-126,-615,4.43408,12.5017,0,0,0,0,0,0,0,-1,1098,1639,4.43403,-12.5018
-119,-615,4.82983,13.9279,0,0,0,0,0,0,0,-1,1105,1639,4.82986,-13.9278
-112,-615,3.65698,14.4874,0,0,0,0,0,0,0,-1,1112,1639,3.65695,-14.4875
-105,-615,0.958496,2.45398,0,0,0,0,0,0,0,-1,1119,1639,0.958452,-2.45398
-98,-615,-0.647705,2.12109,0,0,0,0,0,0,0,-1,1126,1639,-0.647756,-2.12105
-91,-615,-3.07983,2.97375,0,0,0,0,0,0,0,-1,1133,1639,-3.07989,-2.97376
-84,-615,-2.46509,0.703247,0,0,0,0,0,0,0,-1,1140,1639,-2.46505,-0.703273
-77,-615,-3.17859,1.23755,0,0,0,0,0,0,0,-1,1147,1639,-3.17865,-1.23752
-70,-615,-4.03943,1.43335,0,0,0,0,0,0,0,-1,1154,1639,-4.03942,-1.43339
-63,-615,-4.8877,1.45544,0,0,0,0,0,0,0,-1,1161,1639,-4.88766,-1.45549
-56,-615,0,0,0,0,0,0,0,0,0,-1,1168,1639,0,0
-49,-615,0,0,0,0,0,0,0,0,0,-1,1175,1639,0,0
-42,-615,0,0,0,0,0,0,0,0,0,-1,1182,1639,0,0
-35,-615,0,0,0,0,0,0,0,0,0,-1,1189,1639,0,0
-28,-615,0,0,0,0,0,0,0,0,0,-1,1196,1639,0,0
-21,-615,0,0,0,0,0,0,0,0,0,-1,1203,1639,0,0
-14,-615,0,0,0,0,0,0,0,0,0,-1,1210,1639,0,0
-7,-615,0,0,0,0,0,0,0,0,0,-1,1217,1639,0,0
0,-615,0,0,0,0,0,0,0,0,0,-1,1224,1639,0,0
7,-615,0,0,0,0,0,0,0,0,0,-1,1231,1639,0,0
14,-615,0,0,0,0,0,0,0,0,0,-1,1238,1639,0,0
21,-615,0,0,0,0,0,0,0,0,0,-1,1245,1639,0,0
28,-615,0,0,0,0,0,0,0,0,0,-1,1252,1639,0,0
35,-615,0,0,0,0,0,0,0,0,0,-1,1259,1639,0,0
42,-615,0,0,0,0,0,0,0,0,0,-1,1266,1639,0,0
49,-615,0,0,0,0,0,0,0,0,0,-1,1273,1639,0,0
56,-615,0,0,0,0,0,0,0,0,0,-1,1280,1639,0,0
63,-615,0,0,0,0,0,0,0,0,0,-1,1287,1639,0,0
70,-615,0,0,0,0,0,0,0,0,0,-1,1294,1639,0,0
77,-615,0,0,0,0,0,0,0,0,0,-1,1301,1639,0,0
84,-615,0,0,0,0,0,0,0,0,0,-1,1308,1639,0,0
91,-615,0,0,0,0,0,0,0,0,0,-1,1315,1639,0,0
98,-615,0,0,0,0,0,0,0,0,0,-1,1322,1639,0,0
105,-615,0,0,0,0,0,0,0,0,0,-1,1329,1639,0,0
112,-615,0,0,0,0,0,0,0,0,0,-1,1336,1639,0,0
119,-615,0,0,0,0,0,0,0,0,0,-1,1343,1639,0,0
126,-615,0,0,0,0,0,0,0,0,0,-1,1350,1639,0,0
133,-615,0,0,0,0,0,0,0,0,0,-1,1357,1639,0,0
140,-615,0,0,0,0,0,0,0,0,0,-1,1364,1639,0,0
147,-615,0,0,0,0,0,0,0,0,0,-1,1371,1639,0,0
154,-615,0,0,0,0,0,0,0,0,0,-1,1378,1639,0,0
161,-615,0,0,0,0,0,0,0,0,0,-1,1385,1639,0,0
168,-615,0,0,0,0,0,0,0,0,0,-1,1392,1639,0,0
175,-615,5.39648,-2.00879,0,0,0,0,0,0,0,-1,1399,1639,5.3965,2.00881
182,-615,5.65393,-1.51025,0,0,0,0,0,0,0,-1,1406,1639,5.65388,1.51028
189,-615,5.58972,-1.35608,0,0,0,0,0,0,0,-1,1413,1639,5.58967,1.35607
196,-615,5.49915,-0.693604,0,0,0,0,0,0,0,-1,1420,1639,5.4991,0.693602
203,-615,5.33411,-0.226685,0,0,0,0,0,0,0,-1,1427,1639,5.33414,0.226689
210,-615,5.60278,0.108276,0,0,0,0,0,0,0,-1,1434,1639,5.60284,-0.10831
217,-615,6.26331,-0.307373,0,0,0,0,0,0,0,-1,1441,1639,6.26331,0.307372
224,-615,5.45422,-0.333984,0,0,0,0,0,0,0,-1,1448,1639,5.45422,0.333992
231,-615,4.92542,1.80298,0,0,0,0,0,0,0,-1,1455,1639,4.92537,-1.80297
238,-615,4.76355,1.96729,0,0,0,0,0,0,0,-1,1462,1639,4.76357,-1.96734
245,-615,4.08643,3.15906,0,0,0,0,0,0,0,-1,1469,1639,4.08638,-3.159
252,-615,6.37805,3.73889,0,0,0,0,0,0,0,-1,1476,1639,6.37806,-3.73891
259,-615,8.35974,3.16443,0,0,0,0,0,0,0,-1,1483,1639,8.35975,-3.16444
266,-615,10.3414,2.58997,0,0,0,0,0,0,0,-1,1490,1639,10.3414,-2.58996
273,-615,6.57043,1.84766,0,0,0,0,0,0,0,-1,1497,1639,6.5704,-1.84771
280,-615,7.10449,3.23438,0,0,0,0,0,0,0,-1,1504,1639,7.10447,-3.23435
287,-615,7.35779,4.68542,0,0,0,0,0,0,0,-1,1511,1639,7.35776,-4.68546
294,-615,7.63733,6.29114,0,0,0,0,0,0,0,-1,1518,1639,7.63735,-6.29109
301,-615,8.47925,11.452,0,0,0,0,0,0,0,-1,1525,1639,8.47922,-11.452
308,-615,6.8114,10.9059,0,0,0,0,0,0,0,-1,1532,1639,6.81137,-10.9058
315,-615,5.1427,14.7251,0,0,0,0,0,0,0,-1,1539,1639,5.14269,-14.7251
322,-615,7.17981,17.6864,0,0,0,0,0,0,0,-1,1546,1639,7.17985,-17.6864
329,-615,7.62134,20.4354,0,0,0,0,0,0,0,-1,1553,1639,7.62139,-20.4354
336,-615,6.45007,14.1138,0,0,0,0,0,0,0,-1,1560,1639,6.45011,-14.1138
343,-615,2.40491,6.50134,0,0,0,0,0,0,0,-1,1567,1639,2.40489,-6.50137
350,-615,6.4458,15.4594,0,0,0,0,0,0,0,-1,1574,1639,6.44578,-15.4593
357,-615,8.29041,21.4116,0,0,0,0,0,0,0,-1,1581,1639,8.29044,-21.4116
364,-615,8.56335,21.1295,0,0,0,0,0,0,0,-1,1588,1639,8.56339,-21.1295
371,-615,8.69202,20.843,-0.0006659,0.00387871,0.00101064,0.00409332,-0.000880512,1.36155,0.00306484,0.0468265,1595,1639,8.69201,-20.843
378,-615,8.76697,20.2869,-0.00106028,0.00249142,0.00188336,0.00330414,-0.001873,1.16341,0.00302685,0.0195729,1602,1639,8.76696,-20.2868
385,-615,8.77234,20.0674,-0.00124436,0.000983797,0.00236296,0.00248214,-0.00274271,1.00568,0.00301782,0.0121412,1609,1639,8.77234,-20.0674
392,-615,8.79114,19.8104,-0.00152579,-6.22448e-05,0.002913,0.00220949,-0.00379753,0.908456,0.00350832,0.0106303,1616,1639,8.79113,-19.8105
399,-615,8.79749,19.592,-0.00182525,-0.000734118,0.00321866,0.00198489,-0.00454425,0.86935,0.00386493,0.0121402,1623,1639,8.79749,-19.592
406,-615,8.80737,19.3601,-0.00194594,-0.00122611,0.00324964,0.00168348,-0.00485554,0.840551,0.00392058,0.0122133,1630,1639,8.80733,-19.3602
413,-615,8.81042,19.1323,-0.00195844,-0.00167498,0.00322892,0.00141532,-0.00504874,0.807331,0.00392363,0.0122249,1637,1639,8.81045,-19.1324
420,-615,8.81421,18.8898,-0.00180831,-0.00183622,0.00295121,0.00112898,-0.00477351,0.783033,0.00361787,0.0130352,1644,1639,8.81427,-18.8898
427,-615,8.80835,18.6195,-0.00161579,-0.00218163,0.00261476,0.000731314,-0.00452873,0.731508,0.00329013,0.0141345,1651,1639,8.8084,-18.6196
434,-615,8.79883,18.3724,-0.00132204,-0.00237524,0.00206913,0.00028645,-0.00398373,0.660792,0.00275627,0.0124763,1658,1639,8.79877,-18.3725
441,-615,8.8092,18.1198,-0.000989014,-0.00244782,0.00145229,-9.32456e-05,-0.00334358,0.552678,0.00219863,0.0139027,1665,1639,8.80915,-18.1198
448,-615,8.79932,17.8756,-0.000901118,-0.00266989,0.000959757,-0.00048041,-0.0030906,0.413123,0.0019204,0.015896,1672,1639,8.79926,-17.8757
455,-615,8.79968,17.6322,-0.000815597,-0.00315582,0.000461583,-0.000727845,-0.00324357,0.187868,0.00196522,0.0145794,1679,1639,8.79964,-17.6322
462,-615,8.79553,17.3654,-0.000771084,-0.00378911,-8.50471e-05,-0.00076869,-0.0037915,-0.02815,0.00231439,0.0142734,1686,1639,8.79549,-17.3653
469,-615,8.77515,17.0917,-0.000788487,-0.0043777,-0.000527302,-0.000712623,-0.00445357,-0.142891,0.00276232,0.0118244,1693,1639,8.77511,-17.0917
476,-615,8.76672,16.8203,-0.000794838,-0.00497699,-0.000930199,-0.000597275,-0.00517456,-0.209278,0.00326885,0.0106072,1700,1639,8.76675,-16.8203
483,-615,8.7771,16.5239,-0.00104067,-0.0055733,-0.00118855,-0.000747919,-0.00586605,-0.241504,0.00368677,0.014598,1707,1639,8.77713,-16.5239
490,-615,8.80579,16.2664,-0.00128231,-0.00614741,-0.00154678,-0.000832187,-0.00659754,-0.283188,0.00414888,0.0186304,1714,1639,8.80584,-16.2664
497,-615,8.75623,16.0823,-0.00143565,-0.0064291,-0.00188734,-0.00080257,-0.00706218,-0.323642,0.00446471,0.0298085,1721,1639,8.75626,-16.0823
504,-615,8.66736,15.8335,0,0,0,0,0,0,0,-1,1728,1639,8.6674,-15.8336
511,-615,9.1947,15.6604,0,0,0,0,0,0,0,-1,1735,1639,9.19467,-15.6605
518,-615,11.4469,10.1028,0,0,0,0,0,0,0,-1,1742,1639,11.4469,-10.1028
525,-615,4.37524,3.90491,0,0,0,0,0,0,0,-1,1749,1639,4.37518,-3.90495
532,-615,7.3645,0.848145,0,0,0,0,0,0,0,-1,1756,1639,7.36451,-0.848093
539,-615,12.8112,-0.0476074,0,0,0,0,0,0,0,-1,1763,1639,12.8111,0.0475553
546,-615,8.33813,2.94556,0,0,0,0,0,0,0,-1,1770,1639,8.33813,-2.9455
553,-615,5.82532,-2.04199,0,0,0,0,0,0,0,-1,1777,1639,5.82534,2.04195
560,-615,0,0,0,0,0,0,0,0,0,-1,1784,1639,0,0
567,-615,0,0,0,0,0,0,0,0,0,-1,1791,1639,0,0
574,-615,0,0,0,0,0,0,0,0,0,-1,1798,1639,0,0
581,-615,0,0,0,0,0,0,0,0,0,-1,1805,1639,0,0
588,-615,0,0,0,0,0,0,0,0,0,-1,1812,1639,0,0
595,-615,0,0,0,0,0,0,0,0,0,-1,1819,1639,0,0
602,-615,0,0,0,0,0,0,0,0,0,-1,1826,1639,0,0
609,-615,0,0,0,0,0,0,0,0,0,-1,1833,1639,0,0
616,-615,0,0,0,0,0,0,0,0,0,-1,1840,1639,0,0
623,-615,0,0,0,0,0,0,0,0,0,-1,1847,1639,0,0
630,-615,0,0,0,0,0,0,0,0,0,-1,1854,1639,0,0
637,-615,0,0,0,0,0,0,0,0,0,-1,1861,1639,0,0
644,-615,0,0,0,0,0,0,0,0,0,-1,1868,1639,0,0
651,-615,0,0,0,0,0,0,0,0,0,-1,1875,1639,0,0
658,-615,0,0,0,0,0,0,0,0,0,-1,1882,1639,0,0
665,-615,0,0,0,0,0,0,0,0,0,-1,1889,1639,0,0
672,-615,0,0,0,0,0,0,0,0,0,-1,1896,1639,0,0
679,-615,0,0,0,0,0,0,0,0,0,-1,1903,1639,0,0
686,-615,0,0,0,0,0,0,0,0,0,-1,1910,1639,0,0
693,-615,0,0,0,0,0,0,0,0,0,-1,1917,1639,0,0
700,-615,0,0,0,0,0,0,0,0,0,-1,1924,1639,0,0
707,-615,0,0,0,0,0,0,0,0,0,-1,1931,1639,0,0
714,-615,0,0,0,0,0,0,0,0,0,-1,1938,1639,0,0
721,-615,0,0,0,0,0,0,0,0,0,-1,1945,1639,0,0
728,-615,0,0,0,0,0,0,0,0,0,-1,1952,1639,0,0
735,-615,0,0,0,0,0,0,0,0,0,-1,1959,1639,0,0
742,-615,0,0,0,0,0,0,0,0,0,-1,1966,1639,0,0
749,-615,0,0,0,0,0,0,0,0,0,-1,1973,1639,0,0
756,-615,0,0,0,0,0,0,0,0,0,-1,1980,1639,0,0
763,-615,0,0,0,0,0,0,0,0,0,-1,1987,1639,0,0
770,-615,0,0,0,0,0,0,0,0,0,-1,1994,1639,0,0
777,-615,0,0,0,0,0,0,0,0,0,-1,2001,1639,0,0
784,-615,0,0,0,0,0,0,0,0,0,-1,2008,1639,0,0
791,-615,0,0,0,0,0,0,0,0,0,-1,2015,1639,0,0
798,-615,0,0,0,0,0,0,0,0,0,-1,2022,1639,0,0
805,-615,0,0,0,0,0,0,0,0,0,-1,2029,1639,0,0
812,-615,0,0,0,0,0,0,0,0,0,-1,2036,1639,0,0
-700,-622,0,0,0,0,0,0,0,0,0,-1,524,1646,0,0
-693,-622,0,0,0,0,0,0,0,0,0,-1,531,1646,0,0
-686,-622,0,0,0,0,0,0,0,0,0,-1,538,1646,0,0
-679,-622,0,0,0,0,0,0,0,0,0,-1,545,1646,0,0
-672,-622,0,0,0,0,0,0,0,0,0,-1,552,1646,0,0
-665,-622,0,0,0,0,0,0,0,0,0,-1,559,1646,0,0
-658,-622,0,0,0,0,0,0,0,0,0,-1,566,1646,0,0
-651,-622,0,0,0,0,0,0,0,0,0,-1,573,1646,0,0
-644,-622,0,0,0,0,0,0,0,0,0,-1,580,1646,0,0
-637,-622,0,0,0,0,0,0,0,0,0,-1,587,1646,0,0
-630,-622,0,0,0,0,0,0,0,0,0,-1,594,1646,0,0
-623,-622,0,0,0,0,0,0,0,0,0,-1,601,1646,0,0
-616,-622,0,0,0,0,0,0,0,0,0,-1,608,1646,0,0
-609,-622,0,0,0,0,0,0,0,0,0,-1,615,1646,0,0
-602,-622,0,0,0,0,0,0,0,0,0,-1,622,1646,0,0
-595,-622,0,0,0,0,0,0,0,0,0,-1,629,1646,0,0
-588,-622,0,0,0,0,0,0,0,0,0,-1,636,1646,0,0
-581,-622,0,0,0,0,0,0,0,0,0,-1,643,1646,0,0
-574,-622,0,0,0,0,0,0,0,0,0,-1,650,1646,0,0
-567,-622,0,0,0,0,0,0,0,0,0,-1,657,1646,0,0
-560,-622,0,0,0,0,0,0,0,0,0,-1,664,1646,0,0
-553,-622,0,0,0,0,0,0,0,0,0,-1,671,1646,0,0
-546,-622,0,0,0,0,0,0,0,0,0,-1,678,1646,0,0
-539,-622,0,0,0,0,0,0,0,0,0,-1,685,1646,0,0
-532,-622,0,0,0,0,0,0,0,0,0,-1,692,1646,0,0
-525,-622,0,0,0,0,0,0,0,0,0,-1,699,1646,0,0
-518,-622,0,0,0,0,0,0,0,0,0,-1,706,1646,0,0
-511,-622,0,0,0,0,0,0,0,0,0,-1,713,1646,0,0
-504,-622,0,0,0,0,0,0,0,0,0,-1,720,1646,0,0
-497,-622,0,0,0,0,0,0,0,0,0,-1,727,1646,0,0
-490,-622,0,0,0,0,0,0,0,0,0,-1,734,1646,0,0
-483,-622,0,0,0,0,0,0,0,0,0,-1,741,1646,0,0
-476,-622,0,0,0,0,0,0,0,0,0,-1,748,1646,0,0
-469,-622,0,0,0,0,0,0,0,0,0,-1,755,1646,0,0
-462,-622,0,0,0,0,0,0,0,0,0,-1,762,1646,0,0
-455,-622,0,0,0,0,0,0,0,0,0,-1,769,1646,0,0
-448,-622,0,0,0,0,0,0,0,0,0,-1,776,1646,0,0
-441,-622,0,0,0,0,0,0,0,0,0,-1,783,1646,0,0
-434,-622,0,0,0,0,0,0,0,0,0,-1,790,1646,0,0
-427,-622,-7.62891,3.48096,0,0,0,0,0,0,0,-1,797,1646,-7.62892,-3.48092
-420,-622,-9.35791,1.77185,0,0,0,0,0,0,0,-1,804,1646,-9.35789,-1.77183
-413,-622,-8.46075,1.96777,0,0,0,0,0,0,0,-1,811,1646,-8.46074,-1.96774
-406,-622,-4.44318,2.16858,0,0,0,0,0,0,0,-1,818,1646,-4.44315,-2.16859
-399,-622,-7.06976,1.51001,0,0,0,0,0,0,0,-1,825,1646,-7.06976,-1.51005
-392,-622,3.89551,5.85376,0,0,0,0,0,0,0,-1,832,1646,3.8955,-5.85379
-385,-622,2.00543,14.0448,0,0,0,0,0,0,0,-1,839,1646,2.00544,-14.0448
-378,-622,1.49036,15.3436,0,0,0,0,0,0,0,-1,846,1646,1.49033,-15.3436
-371,-622,2.45288,14.38,0,0,0,0,0,0,0,-1,853,1646,2.45289,-14.3801
-364,-622,2.52478,15.0104,0.0103761,-0.00512543,0.0055133,0.0121369,-0.00688628,0.309143,0.0111216,0.0470331,860,1646,2.52481,-15.0104
-357,-622,3.46033,15.3511,0.00821371,-0.00479345,0.00409711,0.00939666,-0.00597641,0.281085,0.00894857,0.047751,867,1646,3.46035,-15.351
-350,-622,3.34125,15.6992,0.0063617,-0.00421904,0.00293581,0.0071217,-0.00497904,0.253312,0.00702278,0.0483364,874,1646,3.34126,-15.6992
-343,-622,3.16461,15.8488,0.00463081,-0.00357713,0.00195966,0.00507467,-0.004021,0.222744,0.00526312,0.0285648,881,1646,3.16459,-15.8488
-336,-622,3.20129,16.0984,0.0034133,-0.00295946,0.00120702,0.00363425,-0.00318041,0.181052,0.00393735,0.00986144,888,1646,3.20127,-16.0983
-329,-622,3.1864,16.3784,0.00246278,-0.00225983,0.000781089,0.00258861,-0.00238566,0.159729,0.00287269,0.00881325,895,1646,3.18641,-16.3784
-322,-622,3.1842,16.6788,0.00174164,-0.00152469,0.000540819,0.00182886,-0.00161191,0.159891,0.00198784,0.0103225,902,1646,3.18418,-16.6789
-315,-622,3.18494,16.9766,0.00117713,-0.00101917,0.0003704,0.00123791,-0.00107996,0.162656,0.00133926,0.0142978,909,1646,3.18491,-16.9766
-308,-622,3.18091,17.2255,0.000403276,-0.00076453,-6.6012e-05,0.000406995,-0.00076825,-0.0562875,0.000689131,0.0149518,916,1646,3.1809,-17.2255
-301,-622,3.18591,17.469,0.000296237,-0.000529156,-1.58631e-05,0.000296542,-0.000529461,-0.0192094,0.000483172,0.0139898,923,1646,3.18589,-17.469
-294,-622,3.16925,17.749,0.000537781,-0.000341771,3.75644e-05,0.000539383,-0.000343373,0.0426051,0.00051383,0.0101073,930,1646,3.16927,-17.749
-287,-622,3.15192,18.0231,0.000747714,-0.000288953,-2.05723e-05,0.000748123,-0.000289361,-0.0198343,0.000618203,0.00770179,937,1646,3.15194,-18.0231
-280,-622,3.15363,18.2814,0.000994467,-0.000531217,-5.30154e-05,0.000996307,-0.000533057,-0.0346929,0.000896379,0.00873571,944,1646,3.15364,-18.2814
-273,-622,3.18335,18.5187,0.00129692,-0.000791672,-8.44269e-05,0.00130033,-0.000795079,-0.0403351,0.00122145,0.0129903,951,1646,3.18335,-18.5186
-266,-622,3.16962,18.7711,0.00165211,-0.00118948,-8.1662e-05,0.00165446,-0.00119182,-0.0287066,0.00165052,0.0129378,958,1646,3.1696,-18.7711
-259,-622,3.16638,19.0266,0.00203842,-0.00151486,-3.4226e-05,0.00203875,-0.00151519,-0.00963101,0.00205928,0.01203,965,1646,3.16637,-19.0266
-252,-622,3.17072,19.2668,0.00256704,-0.00180784,7.71502e-05,0.0025684,-0.0018092,0.0176276,0.00254004,0.0122508,972,1646,3.17071,-19.2669
-245,-622,3.20691,19.5135,0.00320387,-0.00205919,0.000242731,0.00321504,-0.00207036,0.0459896,0.00307529,0.0095742,979,1646,3.20689,-19.5135
-238,-622,3.21259,19.7723,0.00388816,-0.00228132,0.000336305,0.00390644,-0.0022996,0.0542965,0.00362287,0.011041,986,1646,3.21259,-19.7724
-231,-622,3.25354,20.0363,0.0045949,-0.00274621,0.000423215,0.00461921,-0.00277053,0.0573966,0.00431074,0.0148806,993,1646,3.25352,-20.0363
-224,-622,3.3136,20.2272,0.00516833,-0.00312257,0.000578868,0.00520855,-0.00316279,0.0693711,0.00488107,0.0249872,1000,1646,3.31363,-20.2272
-217,-622,3.38354,20.3221,0.00563122,-0.00320036,0.000651479,0.00567902,-0.00324816,0.0732387,0.00521741,0.0392004,1007,1646,3.38356,-20.3222
-210,-622,3.37262,20.7137,0,0,0,0,0,0,0,-1,1014,1646,3.37261,-20.7137
-203,-622,4.09705,19.6595,0,0,0,0,0,0,0,-1,1021,1646,4.09708,-19.6595
-196,-622,4.12891,19.8666,0,0,0,0,0,0,0,-1,1028,1646,4.1289,-19.8666
-189,-622,3.82849,20.9792,0,0,0,0,0,0,0,-1,1035,1646,3.8285,-20.9793
-182,-622,2.21411,20.6752,0,0,0,0,0,0,0,-1,1042,1646,2.21416,-20.6751
-175,-622,2.56091,11.0195,0,0,0,0,0,0,0,-1,1049,1646,2.56095,-11.0195
-168,-622,4.42639,22.1844,0,0,0,0,0,0,0,-1,1056,1646,4.42636,-22.1845
-161,-622,3.07007,21.1432,0,0,0,0,0,0,0,-1,1063,1646,3.07004,-21.1432
-154,-622,1.71375,20.1019,0,0,0,0,0,0,0,-1,1070,1646,1.71373,-20.1019
-147,-622,1.18347,18.4009,0,0,0,0,0,0,0,-1,1077,1646,1.18343,-18.4009
-140,-622,3.27515,16.0353,0,0,0,0,0,0,0,-1,1084,1646,3.27519,-16.0353
-133,-622,3.09644,17.677,0,0,0,0,0,0,0,-1,1091,1646,3.09638,-17.677
-126,-622,3.5061,19.5251,0,0,0,0,0,0,0,-1,1098,1646,3.50616,-19.5252
-119,-622,4.06384,13.1715,0,0,0,0,0,0,0,-1,1105,1646,4.06379,-13.1716
-112,-622,4.33276,14.6605,0,0,0,0,0,0,0,-1,1112,1646,4.33281,-14.6605
-105,-622,0.306519,4.38159,0,0,0,0,0,0,0,-1,1119,1646,0.306536,-4.38159
-98,-622,-0.510376,3.5033,0,0,0,0,0,0,0,-1,1126,1646,-0.510393,-3.50324
-91,-622,-1.146,0.975952,0,0,0,0,0,0,0,-1,1133,1646,-1.14599,-0.97597
-84,-622,-2.04895,1.31787,0,0,0,0,0,0,0,-1,1140,1646,-2.0489,-1.31781
-77,-622,-1.80627,0.332275,0,0,0,0,0,0,0,-1,1147,1646,-1.80622,-0.33223
-70,-622,-3.65588,2.28149,0,0,0,0,0,0,0,-1,1154,1646,-3.65589,-2.28155
-63,-622,-2.49683,1.27087,0,0,0,0,0,0,0,-1,1161,1646,-2.49679,-1.27093
-56,-622,-2.44238,-0.575562,0,0,0,0,0,0,0,-1,1168,1646,-2.44242,0.575508
-49,-622,-2.41089,1.38818,0,0,0,0,0,0,0,-1,1175,1646,-2.41088,-1.38815
-42,-622,-2.71497,2.85242,0,0,0,0,0,0,0,-1,1182,1646,-2.71491,-2.85247
-35,-622,-3.0177,4.25842,0,0,0,0,0,0,0,-1,1189,1646,-3.01773,-4.25838
-28,-622,-0.896606,0.678833,0,0,0,0,0,0,0,-1,1196,1646,-0.89661,-0.678835
-21,-622,-4.38635,19.0129,0,0,0,0,0,0,0,-1,1203,1646,-4.38639,-19.0129
-14,-622,8.01355,28.1177,0,0,0,0,0,0,0,-1,1210,1646,8.01355,-28.1177
-7,-622,8.3562,28.8949,0,0,0,0,0,0,0,-1,1217,1646,8.35621,-28.8949
0,-622,0,0,0,0,0,0,0,0,0,-1,1224,1646,0,0
7,-622,0,0,0,0,0,0,0,0,0,-1,1231,1646,0,0
14,-622,0,0,0,0,0,0,0,0,0,-1,1238,1646,0,0
21,-622,0,0,0,0,0,0,0,0,0,-1,1245,1646,0,0
28,-622,0,0,0,0,0,0,0,0,0,-1,1252,1646,0,0
35,-622,0,0,0,0,0,0,0,0,0,-1,1259,1646,0,0
42,-622,0,0,0,0,0,0,0,0,0,-1,1266,1646,0,0
49,-622,0,0,0,0,0,0,0,0,0,-1,1273,1646,0,0
56,-622,0,0,0,0,0,0,0,0,0,-1,1280,1646,0,0
63,-622,0,0,0,0,0,0,0,0,0,-1,1287,1646,0,0
70,-622,0,0,0,0,0,0,0,0,0,-1,1294,1646,0,0
77,-622,0,0,0,0,0,0,0,0,0,-1,1301,1646,0,0
84,-622,0,0,0,0,0,0,0,0,0,-1,1308,1646,0,0
91,-622,0,0,0,0,0,0,0,0,0,-1,1315,1646,0,0
98,-622,0,0,0,0,0,0,0,0,0,-1,1322,1646,0,0
105,-622,0,0,0,0,0,0,0,0,0,-1,1329,1646,0,0
112,-622,0,0,0,0,0,0,0,0,0,-1,1336,1646,0,0
119,-622,0,0,0,0,0,0,0,0,0,-1,1343,1646,0,0
126,-622,7.61072,21.9877,0,0,0,0,0,0,0,-1,1350,1646,7.61067,-21.9877
133,-622,8.42871,22.1216,0,0,0,0,0,0,0,-1,1357,1646,8.42876,-22.1215
140,-622,9.5918,22.3988,0,0,0,0,0,0,0,-1,1364,1646,9.59175,-22.3988
147,-622,10.5957,22.5732,0,0,0,0,0,0,0,-1,1371,1646,10.5957,-22.5733
154,-622,8.34656,19.6705,0,0,0,0,0,0,0,-1,1378,1646,8.34657,-19.6706
161,-622,10.6884,6.46448,0,0,0,0,0,0,0,-1,1385,1646,10.6883,-6.46442
168,-622,12.2402,5.18091,0,0,0,0,0,0,0,-1,1392,1646,12.2403,-5.1809
175,-622,5.64355,-1.77075,0,0,0,0,0,0,0,-1,1399,1646,5.64351,1.77077
182,-622,5.88586,-1.32251,0,0,0,0,0,0,0,-1,1406,1646,5.88587,1.32256
189,-622,5.97986,-1.18005,0,0,0,0,0,0,0,-1,1413,1646,5.97986,1.18003
196,-622,5.85022,-0.244507,0,0,0,0,0,0,0,-1,1420,1646,5.85026,0.244478
203,-622,5.25159,0.138794,0,0,0,0,0,0,0,-1,1427,1646,5.25162,-0.138822
210,-622,6.66833,0.0397949,0,0,0,0,0,0,0,-1,1434,1646,6.6684,-0.0398278
217,-622,6.12061,0.0506592,0,0,0,0,0,0,0,-1,1441,1646,6.12058,-0.0507181
224,-622,5.57275,0.0616455,0,0,0,0,0,0,0,-1,1448,1646,5.57276,-0.0616084
231,-622,5.31348,1.3949,0,0,0,0,0,0,0,-1,1455,1646,5.31342,-1.39495
238,-622,3.76477,2.90686,0,0,0,0,0,0,0,-1,1462,1646,3.7648,-2.90686
245,-622,5.13794,2.67993,0,0,0,0,0,0,0,-1,1469,1646,5.13796,-2.67992
252,-622,6.66528,2.53992,0,0,0,0,0,0,0,-1,1476,1646,6.66522,-2.53991
259,-622,8.93787,3.31458,0,0,0,0,0,0,0,-1,1483,1646,8.93791,-3.31454
266,-622,5.72644,3.11926,0,0,0,0,0,0,0,-1,1490,1646,5.72647,-3.1192
273,-622,7.28076,3.61218,0,0,0,0,0,0,0,-1,1497,1646,7.28071,-3.61212
280,-622,8.43127,4.4447,0,0,0,0,0,0,0,-1,1504,1646,8.43123,-4.44467
287,-622,8.60315,5.94617,0,0,0,0,0,0,0,-1,1511,1646,8.60319,-5.94622
294,-622,7.62756,11.5143,0,0,0,0,0,0,0,-1,1518,1646,7.62762,-11.5143
301,-622,7.36548,11.6569,0,0,0,0,0,0,0,-1,1525,1646,7.36549,-11.6569
308,-622,7.10339,11.7994,0,0,0,0,0,0,0,-1,1532,1646,7.10335,-11.7995
315,-622,8.28687,16.5842,0,0,0,0,0,0,0,-1,1539,1646,8.28689,-16.5843
322,-622,7.43689,20.5786,0,0,0,0,0,0,0,-1,1546,1646,7.43685,-20.5786
329,-622,8.729,21.8396,0,0,0,0,0,0,0,-1,1553,1646,8.72902,-21.8396
336,-622,8.18872,21.6665,0,0,0,0,0,0,0,-1,1560,1646,8.18873,-21.6665
343,-622,8.31921,21.0576,0,0,0,0,0,0,0,-1,1567,1646,8.31926,-21.0576
350,-622,8.54919,21.0245,0,0,0,0,0,0,0,-1,1574,1646,8.54921,-21.0246
357,-622,8.32104,21.1565,0.000565996,0.00611377,-0.000912813,0.00626011,0.000419665,-1.41184,0.00404079,0.0475233,1581,1646,8.32099,-21.1565
364,-622,8.46606,20.7268,0.000309762,0.00507434,-0.000492511,0.00512472,0.000259384,-1.46886,0.00333338,0.0357593,1588,1646,8.46605,-20.7268
371,-622,8.57617,20.4445,9.244e-05,0.00372118,0.000309417,0.00374737,6.62456e-05,1.48634,0.00247646,0.019396,1595,1646,8.57621,-20.4444
378,-622,8.53906,20.2537,-0.000233682,0.00269303,0.000888384,0.00294158,-0.000482237,1.29799,0.00213999,0.0105034,1602,1646,8.53902,-20.2537
385,-622,8.526,20.0221,-0.000385335,0.00150395,0.00122966,0.00210992,-0.000991308,1.11293,0.00182891,0.00931671,1609,1646,8.52599,-20.0221
392,-622,8.53455,19.7968,-0.000664768,0.00059429,0.0016865,0.00176492,-0.0018354,0.964028,0.00207878,0.0111607,1616,1646,8.5346,-19.7968
399,-622,8.53589,19.5718,-0.000954456,2.97079e-05,0.00197906,0.00157694,-0.00250169,0.90725,0.00237489,0.0119954,1623,1646,8.53594,-19.5717
406,-622,8.55933,19.3621,-0.0010725,-0.000405818,0.00205684,0.00134451,-0.00282283,0.865733,0.00245596,0.0148547,1630,1646,8.55933,-19.362
413,-622,8.56445,19.137,-0.00111843,-0.000901432,0.00211743,0.00111028,-0.00313014,0.810997,0.0025391,0.0154085,1637,1646,8.56439,-19.137
420,-622,8.56934,18.8984,-0.00104847,-0.00126016,0.00198914,0.000837637,-0.00314627,0.758817,0.00242543,0.0153522,1644,1646,8.56939,-18.8984
427,-622,8.5658,18.6262,-0.000966258,-0.00182,0.00179779,0.000454646,-0.00324091,0.668835,0.00232701,0.0125203,1651,1646,8.56578,-18.6263
434,-622,8.5658,18.3619,-0.00076634,-0.00227451,0.00141545,8.33628e-05,-0.00312422,0.540645,0.00211115,0.0128764,1658,1646,8.56583,-18.3619
441,-622,8.56274,18.1221,-0.000585307,-0.00267205,0.000962109,-0.000209426,-0.00304793,0.37245,0.00196587,0.0148262,1665,1646,8.5628,-18.1221
448,-622,8.53809,17.8925,-0.000715044,-0.00322763,0.000636068,-0.000563198,-0.00337948,0.23434,0.00209069,0.0134812,1672,1646,8.53813,-17.8925
455,-622,8.5332,17.6339,-0.000805894,-0.00409946,0.000286339,-0.000781185,-0.00412417,0.0860784,0.00252958,0.0149549,1679,1646,8.5332,-17.6339
462,-622,8.54028,17.3667,-0.000973625,-0.0052047,-0.000129965,-0.000969636,-0.00520868,-0.0306782,0.00319862,0.0165306,1686,1646,8.54025,-17.3667
469,-622,8.526,17.0953,-0.0012334,-0.00623171,-0.000500645,-0.00118375,-0.00628136,-0.0988544,0.00385407,0.0173049,1693,1646,8.52601,-17.0954
476,-622,8.54749,16.8303,-0.00149129,-0.00731204,-0.000812299,-0.00138005,-0.00742327,-0.136089,0.004559,0.0172543,1700,1646,8.5475,-16.8303
483,-622,8.51489,16.5516,-0.0020398,-0.00827734,-0.00105155,-0.0018673,-0.00844984,-0.162599,0.00512546,0.0246351,1707,1646,8.51484,-16.5516
490,-622,8.57324,16.308,-0.00263265,-0.00918942,-0.00149328,-0.00230858,-0.00951349,-0.213706,0.00572998,0.0322329,1714,1646,8.57324,-16.308
497,-622,8.44238,15.9886,-0.00309897,-0.00959883,-0.00199292,-0.00253658,-0.0101612,-0.275042,0.00610682,0.0476268,1721,1646,8.44234,-15.9887
504,-622,8.28284,15.5454,0,0,0,0,0,0,0,-1,1728,1646,8.2829,-15.5454
511,-622,5.29004,4.14587,0,0,0,0,0,0,0,-1,1735,1646,5.29008,-4.14589
518,-622,5.6001,1.55359,0,0,0,0,0,0,0,-1,1742,1646,5.60015,-1.5536
525,-622,5.83093,2.01807,0,0,0,0,0,0,0,-1,1749,1646,5.83097,-2.01802
532,-622,5.44202,0.57373,0,0,0,0,0,0,0,-1,1756,1646,5.44196,-0.573705
539,-622,9.32129,1.06116,0,0,0,0,0,0,0,-1,1763,1646,9.32131,-1.0612
546,-622,6.50977,-3.45618,0,0,0,0,0,0,0,-1,1770,1646,6.50981,3.4562
553,-622,0,0,0,0,0,0,0,0,0,-1,1777,1646,0,0
560,-622,0,0,0,0,0,0,0,0,0,-1,1784,1646,0,0
567,-622,0,0,0,0,0,0,0,0,0,-1,1791,1646,0,0
574,-622,0,0,0,0,0,0,0,0,0,-1,1798,1646,0,0
581,-622,0,0,0,0,0,0,0,0,0,-1,1805,1646,0,0
588,-622,0,0,0,0,0,0,0,0,0,-1,1812,1646,0,0
595,-622,0,0,0,0,0,0,0,0,0,-1,1819,1646,0,0
602,-622,0,0,0,0,0,0,0,0,0,-1,1826,1646,0,0
609,-622,0,0,0,0,0,0,0,0,0,-1,1833,1646,0,0
616,-622,0,0,0,0,0,0,0,0,0,-1,1840,1646,0,0
623,-622,0,0,0,0,0,0,0,0,0,-1,1847,1646,0,0
630,-622,0,0,0,0,0,0,0,0,0,-1,1854,1646,0,0
637,-622,0,0,0,0,0,0,0,0,0,-1,1861,1646,0,0
644,-622,0,0,0,0,0,0,0,0,0,-1,1868,1646,0,0
651,-622,0,0,0,0,0,0,0,0,0,-1,1875,1646,0,0
658,-622,0,0,0,0,0,0,0,0,0,-1,1882,1646,0,0
665,-622,0,0,0,0,0,0,0,0,0,-1,1889,1646,0,0
672,-622,0,0,0,0,0,0,0,0,0,-1,1896,1646,0,0
679,-622,0,0,0,0,0,0,0,0,0,-1,1903,1646,0,0
686,-622,0,0,0,0,0,0,0,0,0,-1,1910,1646,0,0
693,-622,0,0,0,0,0,0,0,0,0,-1,1917,1646,0,0
700,-622,0,0,0,0,0,0,0,0,0,-1,1924,1646,0,0
707,-622,0,0,0,0,0,0,0,0,0,-1,1931,1646,0,0
714,-622,0,0,0,0,0,0,0,0,0,-1,1938,1646,0,0
721,-622,0,0,0,0,0,0,0,0,0,-1,1945,1646,0,0
728,-622,0,0,0,0,0,0,0,0,0,-1,1952,1646,0,0
735,-622,0,0,0,0,0,0,0,0,0,-1,1959,1646,0,0
742,-622,0,0,0,0,0,0,0,0,0,-1,1966,1646,0,0
749,-622,0,0,0,0,0,0,0,0,0,-1,1973,1646,0,0
756,-622,0,0,0,0,0,0,0,0,0,-1,1980,1646,0,0
763,-622,0,0,0,0,0,0,0,0,0,-1,1987,1646,0,0
770,-622,0,0,0,0,0,0,0,0,0,-1,1994,1646,0,0
777,-622,0,0,0,0,0,0,0,0,0,-1,2001,1646,0,0
784,-622,0,0,0,0,0,0,0,0,0,-1,2008,1646,0,0
791,-622,0,0,0,0,0,0,0,0,0,-1,2015,1646,0,0
798,-622,0,0,0,0,0,0,0,0,0,-1,2022,1646,0,0
805,-622,0,0,0,0,0,0,0,0,0,-1,2029,1646,0,0
812,-622,0,0,0,0,0,0,0,0,0,-1,2036,1646,0,0
-700,-629,0,0,0,0,0,0,0,0,0,-1,524,1653,0,0
-693,-629,0,0,0,0,0,0,0,0,0,-1,531,1653,0,0
-686,-629,0,0,0,0,0,0,0,0,0,-1,538,1653,0,0
-679,-629,0,0,0,0,0,0,0,0,0,-1,545,1653,0,0
-672,-629,0,0,0,0,0,0,0,0,0,-1,552,1653,0,0
-665,-629,0,0,0,0,0,0,0,0,0,-1,559,1653,0,0
-658,-629,0,0,0,0,0,0,0,0,0,-1,566,1653,0,0
-651,-629,0,0,0,0,0,0,0,0,0,-1,573,1653,0,0
-644,-629,0,0,0,0,0,0,0,0,0,-1,580,1653,0,0
-637,-629,0,0,0,0,0,0,0,0,0,-1,587,1653,0,0
-630,-629,0,0,0,0,0,0,0,0,0,-1,594,1653,0,0
-623,-629,0,0,0,0,0,0,0,0,0,-1,601,1653,0,0
-616,-629,0,0,0,0,0,0,0,0,0,-1,608,1653,0,0
-609,-629,0,0,0,0,0,0,0,0,0,-1,615,1653,0,0
-602,-629,0,0,0,0,0,0,0,0,0,-1,622,1653,0,0
-595,-629,0,0,0,0,0,0,0,0,0,-1,629,1653,0,0
-588,-629,0,0,0,0,0,0,0,0,0,-1,636,1653,0,0
-581,-629,0,0,0,0,0,0,0,0,0,-1,643,1653,0,0
-574,-629,0,0,0,0,0,0,0,0,0,-1,650,1653,0,0
-567,-629,0,0,0,0,0,0,0,0,0,-1,657,1653,0,0
-560,-629,0,0,0,0,0,0,0,0,0,-1,664,1653,0,0
-553,-629,0,0,0,0,0,0,0,0,0,-1,671,1653,0,0
-546,-629,0,0,0,0,0,0,0,0,0,-1,678,1653,0,0
-539,-629,0,0,0,0,0,0,0,0,0,-1,685,1653,0,0
-532,-629,0,0,0,0,0,0,0,0,0,-1,692,1653,0,0
-525,-629,0,0,0,0,0,0,0,0,0,-1,699,1653,0,0
-518,-629,0,0,0,0,0,0,0,0,0,-1,706,1653,0,0
-511,-629,0,0,0,0,0,0,0,0,0,-1,713,1653,0,0
-504,-629,0,0,0,0,0,0,0,0,0,-1,720,1653,0,0
-497,-629,0,0,0,0,0,0,0,0,0,-1,727,1653,0,0
-490,-629,0,0,0,0,0,0,0,0,0,-1,734,1653,0,0
-483,-629,0,0,0,0,0,0,0,0,0,-1,741,1653,0,0
-476,-629,0,0,0,0,0,0,0,0,0,-1,748,1653,0,0
-469,-629,0,0,0,0,0,0,0,0,0,-1,755,1653,0,0
-462,-629,0,0,0,0,0,0,0,0,0,-1,762,1653,0,0
-455,-629,0,0,0,0,0,0,0,0,0,-1,769,1653,0,0
-448,-629,0,0,0,0,0,0,0,0,0,-1,776,1653,0,0
-441,-629,0,0,0,0,0,0,0,0,0,-1,783,1653,0,0
-434,-629,0,0,0,0,0,0,0,0,0,-1,790,1653,0,0
-427,-629,0,0,0,0,0,0,0,0,0,-1,797,1653,0,0
-420,-629,-3.87103,3.37634,0,0,0,0,0,0,0,-1,804,1653,-3.87101,-3.37633
-413,-629,-5.69751,1.33582,0,0,0,0,0,0,0,-1,811,1653,-5.69754,-1.3358
-406,-629,2.85406,6.01501,0,0,0,0,0,0,0,-1,818,1653,2.85405,-6.01507
-399,-629,-0.455627,10.8687,0,0,0,0,0,0,0,-1,825,1653,-0.455625,-10.8687
-392,-629,1.15369,11.1295,0,0,0,0,0,0,0,-1,832,1653,1.1537,-11.1295
-385,-629,1.81976,11.6935,0,0,0,0,0,0,0,-1,839,1653,1.81975,-11.6935
-378,-629,2.19452,14.7941,0,0,0,0,0,0,0,-1,846,1653,2.19451,-14.7941
-371,-629,1.52246,13.0057,0,0,0,0,0,0,0,-1,853,1653,1.52247,-13.0057
-364,-629,1.75153,14.5958,0,0,0,0,0,0,0,-1,860,1653,1.75151,-14.5959
-357,-629,3.76831,15.4323,0,0,0,0,0,0,0,-1,867,1653,3.76832,-15.4322
-350,-629,3.7572,15.9188,0,0,0,0,0,0,0,-1,874,1653,3.75717,-15.9189
-343,-629,3.44556,15.9309,0.00599792,-0.00450537,0.00235087,0.00650009,-0.00500754,0.210447,0.00666254,0.0449109,881,1653,3.44555,-15.9309
-336,-629,3.4538,16.1124,0.00422597,-0.00359757,0.00149897,0.00450333,-0.00387494,0.182968,0.00484173,0.0185529,888,1653,3.4538,-16.1125
-329,-629,3.47833,16.3875,0.00285727,-0.00276963,0.000974419,0.00302124,-0.00293359,0.166707,0.00343815,0.0115122,895,1653,3.47834,-16.3875
-322,-629,3.47443,16.6647,0.00191863,-0.00196759,0.000689392,0.0020373,-0.00208626,0.170467,0.00238079,0.0114653,902,1653,3.47443,-16.6647
-315,-629,3.44928,16.9487,0.00119477,-0.00135158,0.000499498,0.00128925,-0.00144606,0.186936,0.0015801,0.0152579,909,1653,3.44925,-16.9487
-308,-629,3.45074,17.2213,0.000234943,-0.000994276,2.97922e-05,0.000235665,-0.000994997,0.0242178,0.00075426,0.0130153,916,1653,3.45072,-17.2213
-301,-629,3.47113,17.512,7.42067e-05,-0.000636402,6.10233e-05,7.9409e-05,-0.000641604,0.085045,0.000456514,0.0113057,923,1653,3.47112,-17.5119
-294,-629,3.44556,17.7927,0.000304188,-0.00037857,6.98145e-05,0.000311254,-0.000385636,0.100863,0.000403113,0.0117341,930,1653,3.44554,-17.7928
-287,-629,3.4278,18.041,0.000470161,-0.000266248,1.38742e-06,0.000470163,-0.000266251,0.00188402,0.000430568,0.00918667,937,1653,3.42778,-18.041
-280,-629,3.43628,18.2917,0.00064312,-0.00041216,-5.54062e-05,0.000646021,-0.000415061,-0.0523121,0.000617434,0.00956738,944,1653,3.43625,-18.2918
-273,-629,3.43665,18.5129,0.000899732,-0.000568772,-9.11672e-05,0.00090537,-0.00057441,-0.0617655,0.000861445,0.0129998,951,1653,3.43665,-18.5129
-266,-629,3.41675,18.7687,0.0012133,-0.000827795,-0.00010405,0.00121859,-0.000833086,-0.050802,0.00119148,0.0132136,958,1653,3.41672,-18.7686
-259,-629,3.40491,19.0431,0.00153566,-0.000986575,-8.04376e-05,0.00153822,-0.000989138,-0.0318483,0.00147061,0.0143206,965,1653,3.40489,-19.043
-252,-629,3.4201,19.2773,0.00195081,-0.0011463,-1.70396e-05,0.0019509,-0.00114639,-0.00550156,0.00180822,0.0112494,972,1653,3.42008,-19.2773
-245,-629,3.45819,19.5277,0.00245855,-0.00128886,0.000109797,0.00246177,-0.00129207,0.0292659,0.00220207,0.00840904,979,1653,3.45822,-19.5277
-238,-629,3.45471,19.7627,0.003051,-0.00140105,0.000211095,0.00306099,-0.00141103,0.0472738,0.00263985,0.0102291,986,1653,3.45473,-19.7627
-231,-629,3.43396,19.9994,0.00364736,-0.00169651,0.000313346,0.00366567,-0.00171482,0.05837,0.00317376,0.0110579,993,1653,3.43398,-19.9993
-224,-629,3.50525,20.2727,0.00409017,-0.00193061,0.000415798,0.00411875,-0.00195919,0.0686263,0.00358217,0.0118684,1000,1653,3.50524,-20.2727
-217,-629,3.48749,20.4512,0.00446543,-0.0020055,0.000437362,0.00449486,-0.00203493,0.0671815,0.00385812,0.0190428,1007,1653,3.48747,-20.4511
-210,-629,3.43097,20.7147,0.0046876,-0.00190816,0.000203309,0.00469386,-0.00191442,0.0307853,0.00392617,0.0398487,1014,1653,3.43096,-20.7147
-203,-629,3.40259,20.9557,0,0,0,0,0,0,0,-1,1021,1653,3.40254,-20.9556
-196,-629,3.88342,21.1379,0,0,0,0,0,0,0,-1,1028,1653,3.88346,-21.138
-189,-629,3.72461,21.0652,0,0,0,0,0,0,0,-1,1035,1653,3.72464,-21.0652
-182,-629,3.83826,21.2911,0,0,0,0,0,0,0,-1,1042,1653,3.8382,-21.2911
-175,-629,3.29102,19.1411,0,0,0,0,0,0,0,-1,1049,1653,3.29096,-19.1411
-168,-629,4.07544,21.9481,0,0,0,0,0,0,0,-1,1056,1653,4.07538,-21.9481
-161,-629,3.7301,21.3842,0,0,0,0,0,0,0,-1,1063,1653,3.73005,-21.3842
-154,-629,3.38477,20.8203,0,0,0,0,0,0,0,-1,1070,1653,3.38471,-20.8203
-147,-629,3.99756,20.8602,0,0,0,0,0,0,0,-1,1077,1653,3.99754,-20.8602
-140,-629,2.34851,19.2911,0,0,0,0,0,0,0,-1,1084,1653,2.34853,-19.2911
-133,-629,3.41248,17.6686,0,0,0,0,0,0,0,-1,1091,1653,3.41243,-17.6686
-126,-629,4.01025,19.5328,0,0,0,0,0,0,0,-1,1098,1653,4.01022,-19.5328
-119,-629,4.94177,13.5525,0,0,0,0,0,0,0,-1,1105,1653,4.94172,-13.5525
-112,-629,5.63123,15.9187,0,0,0,0,0,0,0,-1,1112,1653,5.63118,-15.9187
-105,-629,2.15881,4.38342,0,0,0,0,0,0,0,-1,1119,1653,2.15878,-4.38347
-98,-629,0.825806,4.19385,0,0,0,0,0,0,0,-1,1126,1653,0.825779,-4.1939
-91,-629,-0.452271,3.64465,0,0,0,0,0,0,0,-1,1133,1653,-0.452278,-3.6446
-84,-629,-2.6084,0.466797,0,0,0,0,0,0,0,-1,1140,1653,-2.6084,-0.466786
-77,-629,-3.50903,2.10706,0,0,0,0,0,0,0,-1,1147,1653,-3.509,-2.10707
-70,-629,-1.20886,2.52502,0,0,0,0,0,0,0,-1,1154,1653,-1.20886,-2.525
-63,-629,-0.960693,4.30212,0,0,0,0,0,0,0,-1,1161,1653,-0.960691,-4.30215
-56,-629,-1.31934,5.64343,0,0,0,0,0,0,0,-1,1168,1653,-1.31928,-5.6434
-49,-629,-2.15662,2.57458,0,0,0,0,0,0,0,-1,1175,1653,-2.15656,-2.57459
-42,-629,-2.46326,3.91467,0,0,0,0,0,0,0,-1,1182,1653,-2.4633,-3.91466
-35,-629,-2.67261,5.24292,0,0,0,0,0,0,0,-1,1189,1653,-2.67257,-5.24298
-28,-629,-0.402954,-0.866577,0,0,0,0,0,0,0,-1,1196,1653,-0.402943,0.866612
-21,-629,10.063,9.59705,0,0,0,0,0,0,0,-1,1203,1653,10.063,-9.59708
-14,-629,7.52625,28.0013,0,0,0,0,0,0,0,-1,1210,1653,7.52621,-28.0013
-7,-629,9.27026,27.3374,0,0,0,0,0,0,0,-1,1217,1653,9.27022,-27.3374
0,-629,8.42493,27.382,0,0,0,0,0,0,0,-1,1224,1653,8.42498,-27.382
7,-629,12.8927,35.2804,0,0,0,0,0,0,0,-1,1231,1653,12.8927,-35.2804
14,-629,11.5638,35.347,0,0,0,0,0,0,0,-1,1238,1653,11.5638,-35.347
21,-629,10.4253,35.3688,0,0,0,0,0,0,0,-1,1245,1653,10.4253,-35.3688
28,-629,9.66296,35.1249,-0.134992,0.122179,0.0240602,0.124411,-0.137224,1.47831,0.151115,0.0490538,1252,1653,9.66292,-35.1249
35,-629,8.75586,35.3229,-0.131343,0.132045,0.0265402,0.134693,-0.133991,1.47136,0.155125,0.0438651,1259,1653,8.75588,-35.3228
42,-629,8.34192,35.6823,0,0,0,0,0,0,0,-1,1266,1653,8.34186,-35.6822
49,-629,7.19617,36.1337,-0.128282,0.137293,0.0267641,0.139964,-0.130952,1.47135,0.156442,0.0465202,1273,1653,7.19617,-36.1336
56,-629,5.85376,36.3304,0,0,0,0,0,0,0,-1,1280,1653,5.85379,-36.3304
63,-629,4.35437,36.8029,0,0,0,0,0,0,0,-1,1287,1653,4.35433,-36.8029
70,-629,3.71313,36.1202,0,0,0,0,0,0,0,-1,1294,1653,3.71311,-36.1203
77,-629,2.49658,36.8608,-0.119074,0.12321,0.00215202,0.123229,-0.119093,1.56192,0.139912,0.0479287,1301,1653,2.49663,-36.8608
84,-629,1.37354,37.4534,-0.115257,0.114011,-0.00699711,0.114224,-0.115471,-1.54031,0.132615,0.0448123,1308,1653,1.37353,-37.4533
91,-629,0.576172,37.8601,-0.0995855,0.101403,-0.00926901,0.10183,-0.100012,-1.52481,0.116535,0.0421581,1315,1653,0.576174,-37.8601
98,-629,-0.93811,38.3705,-0.0775242,0.0885855,-0.00740998,0.0889154,-0.0778541,-1.52631,0.096355,0.0458036,1322,1653,-0.938111,-38.3705
105,-629,4.82764,22.0831,0,0,0,0,0,0,0,-1,1329,1653,4.82763,-22.0831
112,-629,5.61804,22.1858,0,0,0,0,0,0,0,-1,1336,1653,5.61799,-22.1858
119,-629,6.46228,22.2472,0,0,0,0,0,0,0,-1,1343,1653,6.46227,-22.2472
126,-629,7.2998,22.299,0.0370982,0.0215048,0.0174017,0.04837,0.010233,0.574786,0.0294347,0.0421473,1350,1653,7.29985,-22.299
133,-629,8.12317,22.3982,0,0,0,0,0,0,0,-1,1357,1653,8.12319,-22.3982
140,-629,9.10461,22.66,0.107776,-0.0236559,0.0425983,0.120375,-0.0362547,0.28756,0.0946778,0.0477858,1364,1653,9.10465,-22.66
147,-629,10.0421,22.839,0.143015,-0.0458742,0.0583961,0.15961,-0.0624696,0.276887,0.132243,0.0496786,1371,1653,10.0422,-22.8389
154,-629,10.8354,22.9854,0,0,0,0,0,0,0,-1,1378,1653,10.8355,-22.9854
161,-629,10.5461,6.83752,0,0,0,0,0,0,0,-1,1385,1653,10.5461,-6.83758
168,-629,12.0059,5.56348,0,0,0,0,0,0,0,-1,1392,1653,12.0059,-5.56352
175,-629,5.84485,-1.78845,0,0,0,0,0,0,0,-1,1399,1653,5.84479,1.7884
182,-629,5.99036,-1.27783,0,0,0,0,0,0,0,-1,1406,1653,5.99041,1.27778
189,-629,5.97668,-0.748535,0,0,0,0,0,0,0,-1,1413,1653,5.97671,0.748544
196,-629,4.52869,9.24695,0,0,0,0,0,0,0,-1,1420,1653,4.52869,-9.2469
203,-629,3.75085,6.88037,0,0,0,0,0,0,0,-1,1427,1653,3.75087,-6.88032
210,-629,3.5907,6.52637,0,0,0,0,0,0,0,-1,1434,1653,3.59067,-6.52642
217,-629,2.4585,4.84448,0,0,0,0,0,0,0,-1,1441,1653,2.45855,-4.84448
224,-629,1.31982,3.68481,0,0,0,0,0,0,0,-1,1448,1653,1.31986,-3.68487
231,-629,3.63025,1.73499,0,0,0,0,0,0,0,-1,1455,1653,3.6303,-1.735
238,-629,4.26428,2.11255,0,0,0,0,0,0,0,-1,1462,1653,4.26429,-2.11253
245,-629,5.61816,1.95361,0,0,0,0,0,0,0,-1,1469,1653,5.61815,-1.95359
252,-629,7.27136,2.18982,0,0,0,0,0,0,0,-1,1476,1653,7.27131,-2.18985
259,-629,8.67334,2.18628,0,0,0,0,0,0,0,-1,1483,1653,8.6733,-2.18633
266,-629,6.86475,3.72058,0,0,0,0,0,0,0,-1,1490,1653,6.86479,-3.72063
273,-629,7.9021,3.8717,0,0,0,0,0,0,0,-1,1497,1653,7.90205,-3.87171
280,-629,9.70837,4.39087,0,0,0,0,0,0,0,-1,1504,1653,9.7084,-4.39082
287,-629,9.82947,7.19348,0,0,0,0,0,0,0,-1,1511,1653,9.8295,-7.19347
294,-629,6.56555,11.6359,0,0,0,0,0,0,0,-1,1518,1653,6.5656,-11.6358
301,-629,6.93835,15.6102,0,0,0,0,0,0,0,-1,1525,1653,6.93835,-15.6103
308,-629,6.08264,12.1423,0,0,0,0,0,0,0,-1,1532,1653,6.08263,-12.1423
315,-629,6.82043,18.2764,0,0,0,0,0,0,0,-1,1539,1653,6.82049,-18.2764
322,-629,8.49756,21.8729,0,0,0,0,0,0,0,-1,1546,1653,8.49757,-21.8729
329,-629,8.43738,21.7104,0.00166503,0.00571341,-0.000381354,0.00574902,0.00162942,-1.47769,0.00342141,0.0427116,1553,1653,8.4374,-21.7105
336,-629,8.15308,21.5566,0.00139973,0.00567263,-0.000676784,0.00577726,0.0012951,-1.41741,0.0035006,0.045792,1560,1653,8.1531,-21.5567
343,-629,8.20752,21.1927,0.00124152,0.00554647,-0.000938601,0.00574221,0.00104578,-1.3652,0.00353155,0.046536,1567,1653,8.20752,-21.1927
350,-629,8.2937,21.0602,0.00124326,0.00549924,-0.00098129,0.0057146,0.0010279,-1.35476,0.00351752,0.0273092,1574,1653,8.29364,-21.0602
357,-629,8.32397,20.8282,0.000930563,0.00483197,-0.000736827,0.00496649,0.000796043,-1.39022,0.00308013,0.017131,1581,1653,8.32398,-20.8282
364,-629,8.30823,20.6266,0.000705026,0.00415176,-0.00053594,0.00423317,0.000623615,-1.42004,0.00263892,0.0152764,1588,1653,8.30819,-20.6266
371,-629,8.31042,20.4344,0.00050631,0.00323063,-5.70588e-05,0.00323182,0.000505116,-1.54986,0.00200747,0.0112182,1595,1653,8.31048,-20.4345
378,-629,8.30615,20.233,0.000229041,0.00245907,0.000305879,0.00250026,0.000187847,1.43693,0.00160789,0.00968154,1602,1653,8.30619,-20.233
385,-629,8.30811,20.019,9.1538e-05,0.00153811,0.000538489,0.00171655,-8.69042e-05,1.25081,0.00117441,0.011705,1609,1653,8.30815,-20.019
392,-629,8.30444,19.8074,-0.000179774,0.000759299,0.000904513,0.00130888,-0.000729359,1.02481,0.00119253,0.010644,1616,1653,8.3045,-19.8074
399,-629,8.30457,19.5751,-0.000482425,0.000279811,0.00115334,0.00111337,-0.00131599,0.944974,0.00140422,0.011248,1623,1653,8.30454,-19.575
406,-629,8.33105,19.3468,-0.000604386,-9.91632e-05,0.00125489,0.000928285,-0.00163183,0.884722,0.00149657,0.0146647,1630,1653,8.33105,-19.3468
413,-629,8.31689,19.1458,-0.000664956,-0.000599355,0.00136008,0.000728318,-0.00199263,0.797454,0.00162649,0.022905,1637,1653,8.3169,-19.1458
420,-629,8.30017,18.9235,-0.000652988,-0.00111183,0.00134383,0.000480863,-0.00224568,0.700852,0.0016805,0.020667,1644,1653,8.30016,-18.9235
427,-629,8.3092,18.6481,-0.000661807,-0.00185094,0.00127264,0.000148306,-0.00266105,0.56687,0.00182548,0.0128938,1651,1653,8.30923,-18.648
434,-629,8.31531,18.3809,-0.000539886,-0.00254551,0.00104285,-9.59204e-05,-0.00298948,0.402483,0.00196179,0.0106651,1658,1653,8.31535,-18.3808
441,-629,8.31604,18.1484,-0.000489962,-0.00326363,0.000752375,-0.00029902,-0.00345458,0.248538,0.00221013,0.0153328,1665,1653,8.31603,-18.1484
448,-629,8.30286,17.8998,-0.000809542,-0.00416389,0.000597771,-0.000706198,-0.00426723,0.17119,0.00264108,0.0145817,1672,1653,8.30291,-17.8997
455,-629,8.29346,17.6178,-0.00105466,-0.00542708,0.000396074,-0.00101907,-0.00546267,0.0896127,0.0033541,0.0137075,1679,1653,8.29351,-17.6178
462,-629,8.31213,17.3827,-0.001434,-0.007064,0.000128236,-0.00143108,-0.00706692,0.0227616,0.00431411,0.0169651,1686,1653,8.31215,-17.3827
469,-629,8.30688,17.1112,-0.0019585,-0.00862044,-0.000156165,-0.00195484,-0.0086241,-0.0234242,0.00522123,0.019385,1693,1653,8.30686,-17.1112
476,-629,8.39282,16.9299,-0.00251937,-0.0102962,-0.000373255,-0.0025015,-0.0103141,-0.0478492,0.00621242,0.0259245,1700,1653,8.39284,-16.9299
483,-629,8.3092,16.5959,-0.00345019,-0.0117579,-0.000599142,-0.0034072,-0.0118009,-0.0716245,0.00701308,0.0392464,1707,1653,8.30915,-16.5959
490,-629,8.4502,16.2371,-0.00453436,-0.0131747,-0.00116325,-0.00438049,-0.0133285,-0.131511,0.0078444,0.0443642,1714,1653,8.45025,-16.2371
497,-629,8.10437,15.9596,-0.00537284,-0.0137348,-0.00200629,-0.00491639,-0.0141913,-0.223703,0.00832113,0.0489664,1721,1653,8.10438,-15.9596
504,-629,7.89453,15.5316,0,0,0,0,0,0,0,-1,1728,1653,7.89447,-15.5316
511,-629,6.29138,3.40295,0,0,0,0,0,0,0,-1,1735,1653,6.29137,-3.403
518,-629,5.84387,1.41858,0,0,0,0,0,0,0,-1,1742,1653,5.84391,-1.4186
525,-629,6.4729,1.02319,0,0,0,0,0,0,0,-1,1749,1653,6.47284,-1.02316
532,-629,6.86511,0.903687,0,0,0,0,0,0,0,-1,1756,1653,6.86514,-0.903691
539,-629,6.60803,0.746704,0,0,0,0,0,0,0,-1,1763,1653,6.60809,-0.746691
546,-629,0,0,0,0,0,0,0,0,0,-1,1770,1653,0,0
553,-629,0,0,0,0,0,0,0,0,0,-1,1777,1653,0,0
560,-629,0,0,0,0,0,0,0,0,0,-1,1784,1653,0,0
567,-629,0,0,0,0,0,0,0,0,0,-1,1791,1653,0,0
574,-629,0,0,0,0,0,0,0,0,0,-1,1798,1653,0,0
581,-629,0,0,0,0,0,0,0,0,0,-1,1805,1653,0,0
588,-629,0,0,0,0,0,0,0,0,0,-1,1812,1653,0,0
595,-629,0,0,0,0,0,0,0,0,0,-1,1819,1653,0,0
602,-629,0,0,0,0,0,0,0,0,0,-1,1826,1653,0,0
609,-629,0,0,0,0,0,0,0,0,0,-1,1833,1653,0,0
616,-629,0,0,0,0,0,0,0,0,0,-1,1840,1653,0,0
623,-629,0,0,0,0,0,0,0,0,0,-1,1847,1653,0,0
630,-629,0,0,0,0,0,0,0,0,0,-1,1854,1653,0,0
637,-629,0,0,0,0,0,0,0,0,0,-1,1861,1653,0,0
644,-629,0,0,0,0,0,0,0,0,0,-1,1868,1653,0,0
651,-629,0,0,0,0,0,0,0,0,0,-1,1875,1653,0,0
658,-629,0,0,0,0,0,0,0,0,0,-1,1882,1653,0,0
665,-629,0,0,0,0,0,0,0,0,0,-1,1889,1653,0,0
672,-629,0,0,0,0,0,0,0,0,0,-1,1896,1653,0,0
679,-629,0,0,0,0,0,0,0,0,0,-1,1903,1653,0,0
686,-629,0,0,0,0,0,0,0,0,0,-1,1910,1653,0,0
693,-629,0,0,0,0,0,0,0,0,0,-1,1917,1653,0,0
700,-629,0,0,0,0,0,0,0,0,0,-1,1924,1653,0,0
707,-629,0,0,0,0,0,0,0,0,0,-1,1931,1653,0,0
714,-629,0,0,0,0,0,0,0,0,0,-1,1938,1653,0,0
721,-629,0,0,0,0,0,0,0,0,0,-1,1945,1653,0,0
728,-629,0,0,0,0,0,0,0,0,0,-1,1952,1653,0,0
735,-629,0,0,0,0,0,0,0,0,0,-1,1959,1653,0,0
742,-629,0,0,0,0,0,0,0,0,0,-1,1966,1653,0,0
749,-629,0,0,0,0,0,0,0,0,0,-1,1973,1653,0,0
756,-629,0,0,0,0,0,0,0,0,0,-1,1980,1653,0,0
763,-629,0,0,0,0,0,0,0,0,0,-1,1987,1653,0,0
770,-629,0,0,0,0,0,0,0,0,0,-1,1994,1653,0,0
777,-629,0,0,0,0,0,0,0,0,0,-1,2001,1653,0,0
784,-629,0,0,0,0,0,0,0,0,0,-1,2008,1653,0,0
791,-629,0,0,0,0,0,0,0,0,0,-1,2015,1653,0,0
798,-629,0,0,0,0,0,0,0,0,0,-1,2022,1653,0,0
805,-629,0,0,0,0,0,0,0,0,0,-1,2029,1653,0,0
812,-629,0,0,0,0,0,0,0,0,0,-1,2036,1653,0,0
-700,-636,0,0,0,0,0,0,0,0,0,-1,524,1660,0,0
-693,-636,0,0,0,0,0,0,0,0,0,-1,531,1660,0,0
-686,-636,0,0,0,0,0,0,0,0,0,-1,538,1660,0,0
-679,-636,0,0,0,0,0,0,0,0,0,-1,545,1660,0,0
-672,-636,0,0,0,0,0,0,0,0,0,-1,552,1660,0,0
-665,-636,0,0,0,0,0,0,0,0,0,-1,559,1660,0,0
-658,-636,0,0,0,0,0,0,0,0,0,-1,566,1660,0,0
-651,-636,0,0,0,0,0,0,0,0,0,-1,573,1660,0,0
-644,-636,0,0,0,0,0,0,0,0,0,-1,580,1660,0,0
-637,-636,0,0,0,0,0,0,0,0,0,-1,587,1660,0,0
-630,-636,0,0,0,0,0,0,0,0,0,-1,594,1660,0,0
-623,-636,0,0,0,0,0,0,0,0,0,-1,601,1660,0,0
-616,-636,0,0,0,0,0,0,0,0,0,-1,608,1660,0,0
-609,-636,0,0,0,0,0,0,0,0,0,-1,615,1660,0,0
-602,-636,0,0,0,0,0,0,0,0,0,-1,622,1660,0,0
-595,-636,0,0,0,0,0,0,0,0,0,-1,629,1660,0,0
-588,-636,0,0,0,0,0,0,0,0,0,-1,636,1660,0,0
-581,-636,0,0,0,0,0,0,0,0,0,-1,643,1660,0,0
-574,-636,0,0,0,0,0,0,0,0,0,-1,650,1660,0,0
-567,-636,0,0,0,0,0,0,0,0,0,-1,657,1660,0,0
-560,-636,0,0,0,0,0,0,0,0,0,-1,664,1660,0,0
-553,-636,0,0,0,0,0,0,0,0,0,-1,671,1660,0,0
-546,-636,0,0,0,0,0,0,0,0,0,-1,678,1660,0,0
-539,-636,0,0,0,0,0,0,0,0,0,-1,685,1660,0,0
-532,-636,0,0,0,0,0,0,0,0,0,-1,692,1660,0,0
-525,-636,0,0,0,0,0,0,0,0,0,-1,699,1660,0,0
-518,-636,0,0,0,0,0,0,0,0,0,-1,706,1660,0,0
-511,-636,0,0,0,0,0,0,0,0,0,-1,713,1660,0,0
-504,-636,0,0,0,0,0,0,0,0,0,-1,720,1660,0,0
-497,-636,0,0,0,0,0,0,0,0,0,-1,727,1660,0,0
-490,-636,0,0,0,0,0,0,0,0,0,-1,734,1660,0,0
-483,-636,0,0,0,0,0,0,0,0,0,-1,741,1660,0,0
-476,-636,0,0,0,0,0,0,0,0,0,-1,748,1660,0,0
-469,-636,0,0,0,0,0,0,0,0,0,-1,755,1660,0,0
-462,-636,0,0,0,0,0,0,0,0,0,-1,762,1660,0,0
-455,-636,0,0,0,0,0,0,0,0,0,-1,769,1660,0,0
-448,-636,0,0,0,0,0,0,0,0,0,-1,776,1660,0,0
-441,-636,0,0,0,0,0,0,0,0,0,-1,783,1660,0,0
-434,-636,0,0,0,0,0,0,0,0,0,-1,790,1660,0,0
-427,-636,0,0,0,0,0,0,0,0,0,-1,797,1660,0,0
-420,-636,0,0,0,0,0,0,0,0,0,-1,804,1660,0,0
-413,-636,0,0,0,0,0,0,0,0,0,-1,811,1660,0,0
-406,-636,-0.591125,10.6943,0,0,0,0,0,0,0,-1,818,1660,-0.59115,-10.6943
-399,-636,0.0766602,11.2408,0,0,0,0,0,0,0,-1,825,1660,0.076685,-11.2409
-392,-636,0.75946,11.9233,0,0,0,0,0,0,0,-1,832,1660,0.759481,-11.9233
-385,-636,1.68878,12.517,0,0,0,0,0,0,0,-1,839,1660,1.6888,-12.5169
-378,-636,2.22107,13.0013,0,0,0,0,0,0,0,-1,846,1660,2.22107,-13.0014
-371,-636,2.52185,11.9684,0,0,0,0,0,0,0,-1,853,1660,2.52184,-11.9684
-364,-636,1.16071,14.4933,0,0,0,0,0,0,0,-1,860,1660,1.16069,-14.4932
-357,-636,4.55682,15.8809,0,0,0,0,0,0,0,-1,867,1660,4.55681,-15.8808
-350,-636,2.63104,14.4946,0,0,0,0,0,0,0,-1,874,1660,2.63102,-14.4946
-343,-636,3.63586,15.8165,0,0,0,0,0,0,0,-1,881,1660,3.63588,-15.8165
-336,-636,3.7027,16.1068,0.00513741,-0.00428471,0.00189893,0.00550572,-0.00465302,0.191579,0.00587204,0.0343556,888,1660,3.7027,-16.1069
-329,-636,3.77484,16.402,0.00329725,-0.00328893,0.00124138,0.00352346,-0.00351514,0.180246,0.00406374,0.0184373,895,1660,3.77485,-16.402
-322,-636,3.75317,16.6727,0.00213381,-0.00237301,0.000902375,0.00230777,-0.00254697,0.190447,0.00280402,0.0117935,902,1660,3.75319,-16.6727
-315,-636,3.71045,16.9388,0.00126685,-0.00158796,0.000697526,0.00142817,-0.00174927,0.22727,0.00183761,0.0120406,909,1660,3.71043,-16.9388
-308,-636,3.70892,17.2273,0.000167647,-0.00106841,0.000220472,0.000205794,-0.00110656,0.171331,0.000815013,0.0110058,916,1660,3.70895,-17.2273
-301,-636,3.72662,17.5304,-1.12153e-05,-0.000552243,0.000236178,7.73779e-05,-0.000640836,0.358869,0.000455214,0.0115323,923,1660,3.72665,-17.5304
-294,-636,3.70392,17.8043,0.000211174,-0.000194526,0.000197919,0.000291732,-0.000275084,0.386548,0.000327298,0.0141044,930,1660,3.7039,-17.8044
-287,-636,3.69427,18.0457,0.000329647,-7.67761e-06,0.000112632,0.000363797,-4.18279e-05,0.294392,0.000257609,0.0125588,937,1660,3.69428,-18.0456
-280,-636,3.70667,18.2991,0.000420363,-6.91772e-05,2.1514e-05,0.000421307,-7.01209e-05,0.0438347,0.000306927,0.0122556,944,1660,3.70664,-18.2991
-273,-636,3.68066,18.5231,0.000620393,-0.000160587,-3.40756e-05,0.000621877,-0.00016207,-0.0435215,0.000477859,0.0124072,951,1660,3.68067,-18.523
-266,-636,3.67554,18.7781,0.00087893,-0.000345997,-8.49214e-05,0.00088479,-0.000351857,-0.0688885,0.000735746,0.0129576,958,1660,3.67556,-18.7781
-259,-636,3.69196,19.0632,0.00112948,-0.000420465,-9.18617e-05,0.00113491,-0.000425891,-0.0589923,0.000931606,0.0142126,965,1660,3.69193,-19.0633
-252,-636,3.68317,19.2975,0.0014352,-0.000551448,-6.74277e-05,0.00143749,-0.000553734,-0.0338884,0.00118678,0.011285,972,1660,3.68319,-19.2975
-245,-636,3.69727,19.5533,0.00181392,-0.000693685,2.07006e-05,0.00181409,-0.000693856,0.00825436,0.00149534,0.0103183,979,1660,3.69728,-19.5534
-238,-636,3.70276,19.7717,0.00230454,-0.000822039,0.000120229,0.00230916,-0.000826655,0.0383784,0.00187669,0.0115789,986,1660,3.70273,-19.7717
-231,-636,3.68805,19.9956,0.0027975,-0.00111253,0.000217277,0.00280953,-0.00112457,0.0553419,0.00233977,0.0111513,993,1660,3.68805,-19.9956
-224,-636,3.71198,20.2228,0.00316077,-0.0012899,0.000320983,0.0031838,-0.00131293,0.0716263,0.00267003,0.00905269,1000,1660,3.71197,-20.2228
-217,-636,3.70776,20.4821,0.00345515,-0.00131949,0.000345098,0.00347996,-0.0013443,0.0717801,0.00287483,0.0119436,1007,1660,3.70776,-20.482
-210,-636,3.71472,20.6925,0.00365491,-0.00124989,0.000131732,0.00365844,-0.00125343,0.026832,0.002947,0.0178641,1014,1660,3.71475,-20.6925
-203,-636,3.75903,20.9517,0.00372188,-0.00140041,-0.000362342,0.00374739,-0.00142592,-0.0702718,0.00308542,0.0250199,1021,1660,3.75907,-20.9517
-196,-636,3.88965,21.073,0.00368443,-0.00131475,-0.00114202,0.00393296,-0.00156328,-0.214282,0.00327009,0.0294752,1028,1660,3.88959,-21.073
-189,-636,3.87671,21.2201,0.00344498,-0.00170283,-0.00237877,0.00437586,-0.00263372,-0.373009,0.00408843,0.0302812,1035,1660,3.87674,-21.2201
-182,-636,3.95618,21.2592,0.00313212,-0.00205468,-0.00343429,0.00484222,-0.00376477,-0.462004,0.00498221,0.0454903,1042,1660,3.95615,-21.2591
-175,-636,4.03772,21.2294,0,0,0,0,0,0,0,-1,1049,1660,4.03766,-21.2294
-168,-636,3.65137,22.1736,0,0,0,0,0,0,0,-1,1056,1660,3.65131,-22.1736
-161,-636,3.51453,22.205,0,0,0,0,0,0,0,-1,1063,1660,3.51448,-22.205
-154,-636,3.51123,22.1018,0,0,0,0,0,0,0,-1,1070,1660,3.51118,-22.1018
-147,-636,4.56433,21.2014,0,0,0,0,0,0,0,-1,1077,1660,4.56435,-21.2014
-140,-636,4.92529,20.288,0,0,0,0,0,0,0,-1,1084,1660,4.92534,-20.2879
-133,-636,4.68311,18.0922,0,0,0,0,0,0,0,-1,1091,1660,4.68316,-18.0921
-126,-636,3.79028,18.2225,0,0,0,0,0,0,0,-1,1098,1660,3.79025,-18.2226
-119,-636,1.8667,13.8916,0,0,0,0,0,0,0,-1,1105,1660,1.86668,-13.8916
-112,-636,-1.24963,9.7998,0,0,0,0,0,0,0,-1,1112,1660,-1.24968,-9.79978
-105,-636,3.51624,4.72791,0,0,0,0,0,0,0,-1,1119,1660,3.51618,-4.7279
-98,-636,1.54504,5.11914,0,0,0,0,0,0,0,-1,1126,1660,1.54503,-5.11912
-91,-636,-1.87964,-2.25012,0,0,0,0,0,0,0,-1,1133,1660,-1.87966,2.25016
-84,-636,-2.84143,0.133667,0,0,0,0,0,0,0,-1,1140,1660,-2.84144,-0.133701
-77,-636,-3.57349,2.45935,0,0,0,0,0,0,0,-1,1147,1660,-3.57345,-2.45939
-70,-636,-4.23682,4.82312,0,0,0,0,0,0,0,-1,1154,1660,-4.23681,-4.82307
-63,-636,-2.21033,6.97168,0,0,0,0,0,0,0,-1,1161,1660,-2.21034,-6.97165
-56,-636,-2.51917,8.80359,0,0,0,0,0,0,0,-1,1168,1660,-2.51916,-8.80361
-49,-636,-3.13,10.4113,0,0,0,0,0,0,0,-1,1175,1660,-3.12996,-10.4112
-42,-636,-2.27771,4.90173,0,0,0,0,0,0,0,-1,1182,1660,-2.27775,-4.90173
-35,-636,-2.27698,5.89685,0,0,0,0,0,0,0,-1,1189,1660,-2.27695,-5.89686
-28,-636,-1.70654,4.83936,0,0,0,0,0,0,0,-1,1196,1660,-1.70656,-4.8393
-21,-636,-5.18445,24.8309,0,0,0,0,0,0,0,-1,1203,1660,-5.18442,-24.831
-14,-636,10.3735,27.233,0,0,0,0,0,0,0,-1,1210,1660,10.3736,-27.233
-7,-636,9.49646,27.2736,0,0,0,0,0,0,0,-1,1217,1660,9.49641,-27.2736
0,-636,8.59387,27.3088,0,0,0,0,0,0,0,-1,1224,1660,8.59384,-27.3089
7,-636,7.7052,27.3456,0,0,0,0,0,0,0,-1,1231,1660,7.70519,-27.3455
14,-636,7.52222,28.0793,0,0,0,0,0,0,0,-1,1238,1660,7.52219,-28.0793
21,-636,10.2687,33.3016,0,0,0,0,0,0,0,-1,1245,1660,10.2687,-33.3016
28,-636,9.38818,33.9655,-0.120886,0.112826,0.0271739,0.115944,-0.124004,1.45656,0.13856,0.0464827,1252,1660,9.38821,-33.9655
35,-636,8.47852,34.3625,-0.116227,0.12525,0.0304896,0.12904,-0.120017,1.44712,0.143825,0.0426368,1259,1660,8.47847,-34.3626
42,-636,7.66467,34.4128,-0.112957,0.132154,0.0319923,0.136261,-0.117064,1.44312,0.146397,0.0454296,1266,1660,7.66471,-34.4128
49,-636,6.77429,34.5002,-0.11037,0.135236,0.0319189,0.139316,-0.114451,1.44365,0.146747,0.0457686,1273,1660,6.7743,-34.5003
56,-636,5.65015,34.5962,0,0,0,0,0,0,0,-1,1280,1660,5.65015,-34.5962
63,-636,4.07654,33.4529,0,0,0,0,0,0,0,-1,1287,1660,4.07656,-33.4528
70,-636,3.61084,34.2534,0,0,0,0,0,0,0,-1,1294,1660,3.61086,-34.2535
77,-636,3.63232,36.308,-0.0912006,0.120352,0.0101675,0.12084,-0.0916882,1.52288,0.123087,0.0473818,1301,1660,3.63229,-36.308
84,-636,2.41882,36.7844,-0.0848288,0.109548,0.00208184,0.109571,-0.084851,1.56009,0.112551,0.0448189,1308,1660,2.41878,-36.7844
91,-636,1.20801,37.3136,-0.0687262,0.0956749,-0.000179857,0.095675,-0.0687264,-1.5697,0.0953414,0.0403252,1315,1660,1.20797,-37.3136
98,-636,-0.0758057,37.7407,-0.048578,0.0817066,0.000709675,0.0817104,-0.0485818,1.56535,0.0760305,0.0453962,1322,1660,-0.0757561,-37.7407
105,-636,-1.31042,38.2738,-0.0284337,0.0659744,0.0008622,0.0659823,-0.0284416,1.56166,0.0559334,0.0487221,1329,1660,-1.31046,-38.2738
112,-636,5.3009,22.5029,0,0,0,0,0,0,0,-1,1336,1660,5.30092,-22.5029
119,-636,6.14026,22.5607,0,0,0,0,0,0,0,-1,1343,1660,6.14027,-22.5607
126,-636,6.88989,22.6858,0,0,0,0,0,0,0,-1,1350,1660,6.88994,-22.6857
133,-636,7.45349,22.9857,0,0,0,0,0,0,0,-1,1357,1660,7.45352,-22.9857
140,-636,8.34497,23.1691,0.108646,-0.0223002,0.0398341,0.119812,-0.0334657,0.273288,0.0930575,0.0479935,1364,1660,8.34501,-23.169
147,-636,9.15601,23.0732,0.137985,-0.0413985,0.0536394,0.152801,-0.0562141,0.269489,0.124896,0.0440128,1371,1660,9.156,-23.0732
154,-636,9.82837,22.8347,0,0,0,0,0,0,0,-1,1378,1660,9.82841,-22.8347
161,-636,10.2961,7.13025,0,0,0,0,0,0,0,-1,1385,1660,10.2961,-7.13021
168,-636,11.7659,5.83899,0,0,0,0,0,0,0,-1,1392,1660,11.7658,-5.83899
175,-636,5.94592,-1.72888,0,0,0,0,0,0,0,-1,1399,1660,5.94598,1.72886
182,-636,5.93994,-1.11938,0,0,0,0,0,0,0,-1,1406,1660,5.93998,1.11936
189,-636,5.32544,11.9595,0,0,0,0,0,0,0,-1,1413,1660,5.32542,-11.9595
196,-636,5.3623,9.38025,0,0,0,0,0,0,0,-1,1420,1660,5.36225,-9.38027
203,-636,5.18542,9.02429,0,0,0,0,0,0,0,-1,1427,1660,5.18547,-9.0243
210,-636,4.09167,7.17041,0,0,0,0,0,0,0,-1,1434,1660,4.09173,-7.17041
217,-636,2.94897,5.28992,0,0,0,0,0,0,0,-1,1441,1660,2.94899,-5.28991
224,-636,1.49194,3.63916,0,0,0,0,0,0,0,-1,1448,1660,1.49197,-3.63918
231,-636,0.17749,2.24854,0,0,0,0,0,0,0,-1,1455,1660,0.177501,-2.24855
238,-636,-0.764648,1.00598,0,0,0,0,0,0,0,-1,1462,1660,-0.764704,-1.00595
245,-636,6.21204,1.18005,0,0,0,0,0,0,0,-1,1469,1660,6.21206,-1.18001
252,-636,7.70251,0.865723,0,0,0,0,0,0,0,-1,1476,1660,7.7025,-0.865692
259,-636,9.03601,0.787231,0,0,0,0,0,0,0,-1,1483,1660,9.03598,-0.787243
266,-636,10.1071,3.24109,0,0,0,0,0,0,0,-1,1490,1660,10.1071,-3.24103
273,-636,8.48535,5.02466,0,0,0,0,0,0,0,-1,1497,1660,8.48533,-5.02472
280,-636,8.81384,5.66992,0,0,0,0,0,0,0,-1,1504,1660,8.81381,-5.66998
287,-636,6.08606,11.49,0,0,0,0,0,0,0,-1,1511,1660,6.08606,-11.49
294,-636,6.69592,15.9669,0,0,0,0,0,0,0,-1,1518,1660,6.69595,-15.9669
301,-636,7.67786,22.4958,0,0,0,0,0,0,0,-1,1525,1660,7.67785,-22.4959
308,-636,8.04346,22.5183,0,0,0,0,0,0,0,-1,1532,1660,8.04346,-22.5183
315,-636,8.02588,22.1561,0,0,0,0,0,0,0,-1,1539,1660,8.02592,-22.1561
322,-636,8.09814,21.7166,0.00186444,0.00255838,0.00090756,0.00318304,0.00123979,0.967981,0.00185263,0.0486983,1546,1660,8.09818,-21.7166
329,-636,8.08813,21.5725,0.00177478,0.00350011,0.000297494,0.00354997,0.00172492,1.40475,0.00204985,0.0276691,1553,1660,8.08809,-21.5725
336,-636,8.10449,21.4277,0.00144959,0.00376199,-6.14598e-05,0.00376362,0.00144796,-1.54424,0.00219209,0.0231456,1560,1660,8.10446,-21.4277
343,-636,8.0918,21.3104,0.00119098,0.00384898,-0.000350045,0.00389431,0.00114565,-1.44203,0.002311,0.0222626,1567,1660,8.09177,-21.3105
350,-636,8.05957,21.0839,0.00113635,0.00394426,-0.000512634,0.00403492,0.00104568,-1.39575,0.00241797,0.011898,1574,1660,8.05955,-21.0838
357,-636,8.07617,20.8698,0.000896231,0.00358237,-0.000473767,0.00366348,0.00081512,-1.40124,0.00222105,0.0108931,1581,1660,8.07623,-20.8697
364,-636,8.0835,20.662,0.000737588,0.00312089,-0.000432237,0.00319686,0.000661619,-1.39681,0.00194851,0.0115209,1588,1660,8.08345,-20.662
371,-636,8.08704,20.4587,0.000638305,0.00255603,-0.000252248,0.00258866,0.000605681,-1.44218,0.00156348,0.00928174,1595,1660,8.08703,-20.4587
378,-636,8.11121,20.2379,0.00050051,0.00200829,-0.00011316,0.00201674,0.000492065,-1.4963,0.00121417,0.00879412,1602,1660,8.11118,-20.2379
385,-636,8.11169,20.0229,0.000466542,0.00135789,-7.881e-06,0.00135796,0.000466472,-1.56196,0.000796717,0.013331,1609,1660,8.11168,-20.023
392,-636,8.09436,19.8145,0.000269197,0.000740347,0.000260614,0.000856077,0.000153467,1.15289,0.000527063,0.0149357,1616,1660,8.09439,-19.8145
399,-636,8.09607,19.5908,6.1982e-06,0.00036461,0.000450729,0.000670452,-0.000299644,0.974612,0.000573562,0.0117739,1623,1660,8.09611,-19.5908
406,-636,8.10498,19.3518,-8.89626e-05,7.63661e-05,0.000561051,0.00056081,-0.000573407,0.858541,0.000654854,0.0143675,1630,1660,8.10503,-19.3518
413,-636,8.09534,19.1006,-0.000157455,-0.000384875,0.000710607,0.000448483,-0.000990813,0.706062,0.000850414,0.0228184,1637,1660,8.09532,-19.1006
420,-636,8.05835,18.8695,-0.000226085,-0.00102719,0.000829337,0.000294363,-0.00154764,0.560429,0.00114259,0.021973,1644,1660,8.05833,-18.8695
427,-636,8.0553,18.6384,-0.000369026,-0.00194332,0.000922772,5.67192e-05,-0.00236907,0.432274,0.00159862,0.0127843,1651,1660,8.05529,-18.6384
434,-636,8.05347,18.382,-0.000390256,-0.0028989,0.000915496,-9.16916e-05,-0.00319747,0.315247,0.00210175,0.0113575,1658,1660,8.05343,-18.382
441,-636,8.06934,18.1154,-0.000568746,-0.00400949,0.0008666,-0.000362807,-0.00421543,0.233313,0.00269749,0.0121414,1665,1660,8.06939,-18.1153
448,-636,8.08899,17.897,-0.0012002,-0.005369,0.000986676,-0.000978471,-0.00559074,0.221056,0.0034476,0.0137483,1672,1660,8.08894,-17.897
455,-636,8.07458,17.6237,-0.00167863,-0.00718082,0.00101871,-0.00149608,-0.00736337,0.177318,0.00449401,0.0140793,1679,1660,8.07463,-17.6237
462,-636,8.11157,17.3787,-0.00235843,-0.00955668,0.000980234,-0.00222733,-0.00968777,0.132952,0.00585894,0.0182236,1686,1660,8.11153,-17.3786
469,-636,8.17627,17.217,-0.00326141,-0.0118801,0.000847366,-0.00317889,-0.0119626,0.0970788,0.00715485,0.0276063,1693,1660,8.17627,-17.217
476,-636,7.85095,16.9685,0,0,0,0,0,0,0,-1,1700,1660,7.85099,-16.9685
483,-636,8.47998,16.9993,0,0,0,0,0,0,0,-1,1707,1660,8.47994,-16.9993
490,-636,8.30029,16.13,0,0,0,0,0,0,0,-1,1714,1660,8.30024,-16.13
497,-636,7.7749,15.8633,0,0,0,0,0,0,0,-1,1721,1660,7.7749,-15.8633
504,-636,9.88867,13.1873,0,0,0,0,0,0,0,-1,1728,1660,9.88867,-13.1872
511,-636,5.65466,9.23218,0,0,0,0,0,0,0,-1,1735,1660,5.65461,-9.23216
518,-636,6.72791,1.07605,0,0,0,0,0,0,0,-1,1742,1660,6.7279,-1.0761
525,-636,7.04309,0.93335,0,0,0,0,0,0,0,-1,1749,1660,7.04308,-0.933298
532,-636,0,0,0,0,0,0,0,0,0,-1,1756,1660,0,0
539,-636,0,0,0,0,0,0,0,0,0,-1,1763,1660,0,0
546,-636,0,0,0,0,0,0,0,0,0,-1,1770,1660,0,0
553,-636,0,0,0,0,0,0,0,0,0,-1,1777,1660,0,0
560,-636,0,0,0,0,0,0,0,0,0,-1,1784,1660,0,0
567,-636,0,0,0,0,0,0,0,0,0,-1,1791,1660,0,0
574,-636,0,0,0,0,0,0,0,0,0,-1,1798,1660,0,0
581,-636,0,0,0,0,0,0,0,0,0,-1,1805,1660,0,0
588,-636,0,0,0,0,0,0,0,0,0,-1,1812,1660,0,0
595,-636,0,0,0,0,0,0,0,0,0,-1,1819,1660,0,0
602,-636,0,0,0,0,0,0,0,0,0,-1,1826,1660,0,0
609,-636,0,0,0,0,0,0,0,0,0,-1,1833,1660,0,0
616,-636,0,0,0,0,0,0,0,0,0,-1,1840,1660,0,0
623,-636,0,0,0,0,0,0,0,0,0,-1,1847,1660,0,0
630,-636,0,0,0,0,0,0,0,0,0,-1,1854,1660,0,0
637,-636,0,0,0,0,0,0,0,0,0,-1,1861,1660,0,0
644,-636,0,0,0,0,0,0,0,0,0,-1,1868,1660,0,0
651,-636,0,0,0,0,0,0,0,0,0,-1,1875,1660,0,0
658,-636,0,0,0,0,0,0,0,0,0,-1,1882,1660,0,0
665,-636,0,0,0,0,0,0,0,0,0,-1,1889,1660,0,0
672,-636,0,0,0,0,0,0,0,0,0,-1,1896,1660,0,0
679,-636,0,0,0,0,0,0,0,0,0,-1,1903,1660,0,0
686,-636,0,0,0,0,0,0,0,0,0,-1,1910,1660,0,0
693,-636,0,0,0,0,0,0,0,0,0,-1,1917,1660,0,0
700,-636,0,0,0,0,0,0,0,0,0,-1,1924,1660,0,0
707,-636,0,0,0,0,0,0,0,0,0,-1,1931,1660,0,0
714,-636,0,0,0,0,0,0,0,0,0,-1,1938,1660,0,0
721,-636,0,0,0,0,0,0,0,0,0,-1,1945,1660,0,0
728,-636,0,0,0,0,0,0,0,0,0,-1,1952,1660,0,0
735,-636,0,0,0,0,0,0,0,0,0,-1,1959,1660,0,0
742,-636,0,0,0,0,0,0,0,0,0,-1,1966,1660,0,0
749,-636,0,0,0,0,0,0,0,0,0,-1,1973,1660,0,0
756,-636,0,0,0,0,0,0,0,0,0,-1,1980,1660,0,0
763,-636,0,0,0,0,0,0,0,0,0,-1,1987,1660,0,0
770,-636,0,0,0,0,0,0,0,0,0,-1,1994,1660,0,0
777,-636,0,0,0,0,0,0,0,0,0,-1,2001,1660,0,0
784,-636,0,0,0,0,0,0,0,0,0,-1,2008,1660,0,0
791,-636,0,0,0,0,0,0,0,0,0,-1,2015,1660,0,0
798,-636,0,0,0,0,0,0,0,0,0,-1,2022,1660,0,0
805,-636,0,0,0,0,0,0,0,0,0,-1,2029,1660,0,0
812,-636,0,0,0,0,0,0,0,0,0,-1,2036,1660,0,0
-700,-643,0,0,0,0,0,0,0,0,0,-1,524,1667,0,0
-693,-643,0,0,0,0,0,0,0,0,0,-1,531,1667,0,0
-686,-643,0,0,0,0,0,0,0,0,0,-1,538,1667,0,0
-679,-643,0,0,0,0,0,0,0,0,0,-1,545,1667,0,0
-672,-643,0,0,0,0,0,0,0,0,0,-1,552,1667,0,0
-665,-643,0,0,0,0,0,0,0,0,0,-1,559,1667,0,0
-658,-643,0,0,0,0,0,0,0,0,0,-1,566,1667,0,0
-651,-643,0,0,0,0,0,0,0,0,0,-1,573,1667,0,0
-644,-643,0,0,0,0,0,0,0,0,0,-1,580,1667,0,0
-637,-643,0,0,0,0,0,0,0,0,0,-1,587,1667,0,0
-630,-643,0,0,0,0,0,0,0,0,0,-1,594,1667,0,0
-623,-643,0,0,0,0,0,0,0,0,0,-1,601,1667,0,0
-616,-643,0,0,0,0,0,0,0,0,0,-1,608,1667,0,0
-609,-643,0,0,0,0,0,0,0,0,0,-1,615,1667,0,0
-602,-643,0,0,0,0,0,0,0,0,0,-1,622,1667,0,0
-595,-643,0,0,0,0,0,0,0,0,0,-1,629,1667,0,0
-588,-643,0,0,0,0,0,0,0,0,0,-1,636,1667,0,0
-581,-643,0,0,0,0,0,0,0,0,0,-1,643,1667,0,0
-574,-643,0,0,0,0,0,0,0,0,0,-1,650,1667,0,0
-567,-643,0,0,0,0,0,0,0,0,0,-1,657,1667,0,0
-560,-643,0,0,0,0,0,0,0,0,0,-1,664,1667,0,0
-553,-643,0,0,0,0,0,0,0,0,0,-1,671,1667,0,0
-546,-643,0,0,0,0,0,0,0,0,0,-1,678,1667,0,0
-539,-643,0,0,0,0,0,0,0,0,0,-1,685,1667,0,0
-532,-643,0,0,0,0,0,0,0,0,0,-1,692,1667,0,0
-525,-643,0,0,0,0,0,0,0,0,0,-1,699,1667,0,0
-518,-643,0,0,0,0,0,0,0,0,0,-1,706,1667,0,0
-511,-643,0,0,0,0,0,0,0,0,0,-1,713,1667,0,0
-504,-643,0,0,0,0,0,0,0,0,0,-1,720,1667,0,0
-497,-643,0,0,0,0,0,0,0,0,0,-1,727,1667,0,0
-490,-643,0,0,0,0,0,0,0,0,0,-1,734,1667,0,0
-483,-643,0,0,0,0,0,0,0,0,0,-1,741,1667,0,0
-476,-643,0,0,0,0,0,0,0,0,0,-1,748,1667,0,0
-469,-643,0,0,0,0,0,0,0,0,0,-1,755,1667,0,0
-462,-643,0,0,0,0,0,0,0,0,0,-1,762,1667,0,0
-455,-643,0,0,0,0,0,0,0,0,0,-1,769,1667,0,0
-448,-643,0,0,0,0,0,0,0,0,0,-1,776,1667,0,0
-441,-643,0,0,0,0,0,0,0,0,0,-1,783,1667,0,0
-434,-643,0,0,0,0,0,0,0,0,0,-1,790,1667,0,0
-427,-643,0,0,0,0,0,0,0,0,0,-1,797,1667,0,0
-420,-643,0,0,0,0,0,0,0,0,0,-1,804,1667,0,0
-413,-643,0,0,0,0,0,0,0,0,0,-1,811,1667,0,0
-406,-643,0,0,0,0,0,0,0,0,0,-1,818,1667,0,0
-399,-643,0.589417,11.6465,0,0,0,0,0,0,0,-1,825,1667,0.58939,-11.6465
-392,-643,0.865295,12.6523,0,0,0,0,0,0,0,-1,832,1667,0.865315,-12.6523
-385,-643,1.72968,13.2692,0,0,0,0,0,0,0,-1,839,1667,1.72967,-13.2692
-378,-643,2.66522,13.8193,0,0,0,0,0,0,0,-1,846,1667,2.66524,-13.8193
-371,-643,0.466125,3.35095,0,0,0,0,0,0,0,-1,853,1667,0.466148,-3.351
-364,-643,1.69513,9.922,0,0,0,0,0,0,0,-1,860,1667,1.69511,-9.92205
-357,-643,1.14227,10.8429,0,0,0,0,0,0,0,-1,867,1667,1.14228,-10.8429
-350,-643,2.50061,9.96948,0,0,0,0,0,0,0,-1,874,1667,2.50059,-9.96954
-343,-643,2.61505,6.17407,0,0,0,0,0,0,0,-1,881,1667,2.61504,-6.17412
-336,-643,4.19196,16.1797,0,0,0,0,0,0,0,-1,888,1667,4.19197,-16.1797
-329,-643,4.16235,16.4459,0.00383811,-0.00374737,0.00163797,0.0041767,-0.00408595,0.203838,0.00477054,0.0406036,895,1667,4.16236,-16.4459
-322,-643,4.06702,16.7344,0.00245194,-0.00269324,0.00124484,0.00273729,-0.0029786,0.225337,0.00330105,0.0267061,902,1667,4.06705,-16.7344
-315,-643,3.96375,16.9742,0.00144373,-0.00170284,0.00101911,0.00174496,-0.00200407,0.2874,0.00216623,0.0160201,909,1667,3.96372,-16.9742
-308,-643,3.98145,17.2319,0.000222433,-0.00100837,0.000542591,0.000427473,-0.00121341,0.361302,0.000982921,0.011725,916,1667,3.98144,-17.232
-301,-643,3.99347,17.524,1.17304e-05,-0.00034517,0.000526978,0.000389653,-0.000723092,0.622144,0.000651987,0.0141209,923,1667,3.99345,-17.524
-294,-643,3.95953,17.7762,0.000175378,0.000102328,0.000398027,0.000538553,-0.000260846,0.739644,0.000470725,0.0124948,930,1667,3.95955,-17.7763
-287,-643,3.95642,18.0261,0.000195059,0.000352881,0.000259511,0.000545213,2.72712e-06,0.932994,0.000362569,0.0108961,937,1667,3.95641,-18.0261
-280,-643,3.94684,18.2998,0.000148057,0.00030867,9.59009e-05,0.000353448,0.000103279,1.13396,0.000209855,0.0147907,944,1667,3.94682,-18.2998
-273,-643,3.94012,18.5564,0.000242793,0.000220794,-2.37649e-06,0.000243046,0.00022054,-0.106394,0.000155074,0.0127633,951,1667,3.94012,-18.5564
-266,-643,3.93622,18.7913,0.000415348,5.5671e-05,-0.000112169,0.000447461,2.35573e-05,-0.278839,0.000290773,0.0118194,958,1667,3.93624,-18.7912
-259,-643,3.9519,19.0485,0.000575906,1.34422e-05,-0.000168123,0.000622328,-3.29792e-05,-0.269403,0.000426304,0.0114496,965,1667,3.95189,-19.0484
-252,-643,3.93396,19.3008,0.000769003,-0.000128704,-0.000187945,0.000806763,-0.000166464,-0.19827,0.000601063,0.0128956,972,1667,3.93398,-19.3008
-245,-643,3.92517,19.5586,0.00103713,-0.00030122,-0.000136606,0.00105094,-0.000315021,-0.100687,0.000825906,0.0118363,979,1667,3.9252,-19.5587
-238,-643,3.95758,19.7693,0.00147064,-0.000463178,-3.49333e-05,0.00147127,-0.000463809,-0.0180566,0.0011666,0.0151196,986,1667,3.95757,-19.7693
-231,-643,3.92969,19.9993,0.00192425,-0.000769672,4.5648e-05,0.00192502,-0.000770445,0.0169383,0.00160311,0.0116203,993,1667,3.9297,-19.9993
-224,-643,3.93018,20.2089,0.00227939,-0.000872091,0.0001604,0.00228753,-0.000880234,0.0507219,0.00188811,0.00974704,1000,1667,3.93019,-20.2089
-217,-643,3.93036,20.3931,0.00257328,-0.000828489,0.000196881,0.00258463,-0.000839846,0.0576198,0.00206089,0.00895155,1007,1667,3.93038,-20.393
-210,-643,3.93219,20.6469,0.00281908,-0.000744425,2.79384e-05,0.0028193,-0.000744644,0.00783951,0.00217075,0.0112499,1014,1667,3.93219,-20.6469
-203,-643,3.9585,20.9139,0.00295866,-0.000852136,-0.000387516,0.00299767,-0.000891143,-0.100321,0.00235245,0.0135392,1021,1667,3.95851,-20.9139
-196,-643,3.99365,21.1221,0.00297158,-0.000759287,-0.000943174,0.00319646,-0.000984169,-0.234061,0.00252383,0.0144919,1028,1667,3.99364,-21.1221
-189,-643,4.04797,21.3143,0.00279418,-0.000902714,-0.00183127,0.00354771,-0.00165625,-0.390365,0.00306994,0.0146255,1035,1667,4.04801,-21.3144
-182,-643,4.0874,21.4729,0.00264161,-0.000974971,-0.00265495,0.00404559,-0.00237895,-0.486434,0.00375058,0.0218507,1042,1667,4.08739,-21.4729
-175,-643,4.05115,21.6917,0.00264546,-0.00112396,-0.00359301,0.00481807,-0.00329657,-0.543851,0.00471236,0.0348334,1049,1667,4.05119,-21.6917
-168,-643,3.94446,22.0089,0.00281473,-0.00118332,-0.00445104,0.00569503,-0.00406362,-0.57434,0.00566034,0.0402645,1056,1667,3.94446,-22.0089
-161,-643,3.85791,22.1541,0.00328996,-0.00109261,-0.00538517,0.0069126,-0.00471526,-0.592173,0.00675319,0.047522,1063,1667,3.85786,-22.154
-154,-643,3.87659,22.1282,0.00411319,-0.0014088,-0.00622119,0.00815853,-0.00545415,-0.576553,0.00791082,0.0477593,1070,1667,3.87656,-22.1282
-147,-643,4.04114,22.4845,0,0,0,0,0,0,0,-1,1077,1667,4.04117,-22.4844
-140,-643,3.92969,22.5272,0,0,0,0,0,0,0,-1,1084,1667,3.92965,-22.5272
-133,-643,3.66748,21.6034,0,0,0,0,0,0,0,-1,1091,1667,3.66743,-21.6034
-126,-643,3.13904,17.689,0,0,0,0,0,0,0,-1,1098,1667,3.13909,-17.689
-119,-643,3.76282,14.1458,0,0,0,0,0,0,0,-1,1105,1667,3.76283,-14.1458
-112,-643,3.81458,16.2069,0,0,0,0,0,0,0,-1,1112,1667,3.81463,-16.2069
-105,-643,-2.23413,10.0996,0,0,0,0,0,0,0,-1,1119,1667,-2.23415,-10.0996
-98,-643,3.11035,4.68066,0,0,0,0,0,0,0,-1,1126,1667,3.11041,-4.68071
-91,-643,-1.74146,-2.5885,0,0,0,0,0,0,0,-1,1133,1667,-1.74146,2.58856
-84,-643,-3.07446,-0.199341,0,0,0,0,0,0,0,-1,1140,1667,-3.07449,0.199383
-77,-643,-3.63794,2.81165,0,0,0,0,0,0,0,-1,1147,1667,-3.63791,-2.8117
-70,-643,-3.36938,4.45203,0,0,0,0,0,0,0,-1,1154,1667,-3.36941,-4.452
-63,-643,-3.67822,6.26855,0,0,0,0,0,0,0,-1,1161,1667,-3.67823,-6.26856
-56,-643,-3.95142,8.1073,0,0,0,0,0,0,0,-1,1168,1667,-3.95139,-8.10732
-49,-643,-4.23535,9.90552,0,0,0,0,0,0,0,-1,1175,1667,-4.23537,-9.90557
-42,-643,-4.25195,10.7059,0,0,0,0,0,0,0,-1,1182,1667,-4.25192,-10.706
-35,-643,-4.10986,11.6588,0,0,0,0,0,0,0,-1,1189,1667,-4.10982,-11.6589
-28,-643,-1.38513,5.604,0,0,0,0,0,0,0,-1,1196,1667,-1.3851,-5.60403
-21,-643,3.06104,8.47974,0,0,0,0,0,0,0,-1,1203,1667,3.06103,-8.47978
-14,-643,5.01135,20.7449,0,0,0,0,0,0,0,-1,1210,1667,5.01131,-20.7449
-7,-643,9.68237,27.224,0,0,0,0,0,0,0,-1,1217,1667,9.68241,-27.224
0,-643,8.76917,27.2698,-0.114193,0.0150583,-0.00460025,0.0152218,-0.114356,-1.53526,0.081785,0.0446953,1224,1667,8.76921,-27.2698
7,-643,7.96655,27.4866,-0.112668,0.0419833,0.00678676,0.0422806,-0.112965,1.52702,0.0926764,0.041054,1231,1667,7.96655,-27.4865
14,-643,7.26013,27.6237,-0.110964,0.0683442,0.0173332,0.0700044,-0.112624,1.47531,0.106394,0.0420818,1238,1667,7.26016,-27.6237
21,-643,6.46082,27.7693,0,0,0,0,0,0,0,-1,1245,1667,6.46076,-27.7692
28,-643,9.35596,32.8977,0,0,0,0,0,0,0,-1,1252,1667,9.35596,-32.8977
35,-643,7.67566,32.8259,0,0,0,0,0,0,0,-1,1259,1667,7.6757,-32.826
42,-643,6.94592,33.1096,-0.0980849,0.1307,0.0365066,0.136384,-0.103769,1.41634,0.139078,0.0427829,1266,1667,6.94587,-33.1096
49,-643,6.03882,33.1023,-0.0944974,0.134268,0.0364609,0.139938,-0.100168,1.41651,0.139258,0.044678,1273,1667,6.03881,-33.1023
56,-643,5.12256,32.8225,0,0,0,0,0,0,0,-1,1280,1667,5.12252,-32.8225
63,-643,4.17468,33.1107,-0.0843583,0.131836,0.028127,0.135435,-0.0879577,1.44352,0.129943,0.0458668,1287,1667,4.17471,-33.1107
70,-643,3.66614,33.9133,-0.0786766,0.125138,0.0225212,0.127597,-0.0811355,1.46205,0.121503,0.0466701,1294,1667,3.66616,-33.9134
77,-643,2.7959,34.3704,-0.070772,0.11386,0.0162562,0.11528,-0.0721923,1.48364,0.109186,0.0470056,1301,1667,2.79591,-34.3703
84,-643,3.17969,36.1282,-0.0637551,0.101589,0.00905341,0.102084,-0.0642493,1.51626,0.096857,0.0485435,1308,1667,3.17973,-36.1282
91,-643,2.05444,37.4657,0,0,0,0,0,0,0,-1,1315,1667,2.05442,-37.4658
98,-643,3.72791,36.7815,0,0,0,0,0,0,0,-1,1322,1667,3.7279,-36.7814
105,-643,4.02637,37.8881,-0.0150235,0.0563823,0.00493564,0.0567218,-0.0153631,1.50211,0.0438422,0.0453498,1329,1667,4.02637,-37.8881
112,-643,3.67493,38.8763,0.00477507,0.0422304,0.00750808,0.0436794,0.0033261,1.38015,0.0280767,0.0445039,1336,1667,3.67493,-38.8764
119,-643,5.38843,23.7828,0,0,0,0,0,0,0,-1,1343,1667,5.38842,-23.7828
126,-643,6.31873,23.2881,0,0,0,0,0,0,0,-1,1350,1667,6.31872,-23.2881
133,-643,6.67444,23.5142,0,0,0,0,0,0,0,-1,1357,1667,6.67441,-23.5142
140,-643,7.55969,23.6719,0.0989068,-0.0193013,0.0353843,0.108689,-0.0290836,0.269723,0.0838524,0.0468289,1364,1667,7.55973,-23.6719
147,-643,8.46667,23.786,0.119802,-0.0325444,0.0454354,0.132324,-0.0450657,0.268911,0.106466,0.0447343,1371,1667,8.46665,-23.786
154,-643,9.37659,23.8236,0,0,0,0,0,0,0,-1,1378,1667,9.37655,-23.8236
161,-643,18.7611,11.0951,0,0,0,0,0,0,0,-1,1385,1667,18.7611,-11.0951
168,-643,10.5563,10.9818,0,0,0,0,0,0,0,-1,1392,1667,10.5562,-10.9819
175,-643,5.88525,-1.1698,0,0,0,0,0,0,0,-1,1399,1667,5.88526,1.16977
182,-643,5.80945,-0.418701,0,0,0,0,0,0,0,-1,1406,1667,5.80949,0.418712
189,-643,5.42297,12.9208,0,0,0,0,0,0,0,-1,1413,1667,5.42298,-12.9208
196,-643,5.51953,11.2415,0,0,0,0,0,0,0,-1,1420,1667,5.51948,-11.2414
203,-643,5.60828,9.82153,0,0,0,0,0,0,0,-1,1427,1667,5.60833,-9.82148
210,-643,4.73218,7.58728,0,0,0,0,0,0,0,-1,1434,1667,4.73222,-7.58728
217,-643,3.8031,5.28955,0,0,0,0,0,0,0,-1,1441,1667,3.80305,-5.28955
224,-643,2.96436,2.97095,0,0,0,0,0,0,0,-1,1448,1667,2.96432,-2.97095
231,-643,2.13403,1.08472,0,0,0,0,0,0,0,-1,1455,1667,2.13403,-1.08467
238,-643,1.18152,-0.261963,0,0,0,0,0,0,0,-1,1462,1667,1.18152,0.26192
245,-643,-0.157471,-1.79016,0,0,0,0,0,0,0,-1,1469,1667,-0.157517,1.7901
252,-643,8.08789,0.0202637,0,0,0,0,0,0,0,-1,1476,1667,8.08791,-0.0203056
259,-643,9.02979,-0.46936,0,0,0,0,0,0,0,-1,1483,1667,9.02974,0.46933
266,-643,4.55066,5.17554,0,0,0,0,0,0,0,-1,1490,1667,4.55063,-5.17556
273,-643,4.34363,6.56836,0,0,0,0,0,0,0,-1,1497,1667,4.34363,-6.5684
280,-643,5.75854,14.5217,0,0,0,0,0,0,0,-1,1504,1667,5.75854,-14.5218
287,-643,6.81299,21.0212,0,0,0,0,0,0,0,-1,1511,1667,6.81297,-21.0212
294,-643,7.50549,22.3602,0,0,0,0,0,0,0,-1,1518,1667,7.5055,-22.3602
301,-643,7.62842,22.2911,0.00360394,-0.00162672,0.00278676,0.00481038,-0.00283317,0.408561,0.00446195,0.0498586,1525,1667,7.62838,-22.2911
308,-643,7.80725,22.186,0.00285433,-0.000457516,0.00222842,0.00397472,-0.00157791,0.465866,0.00330387,0.0415317,1532,1667,7.80719,-22.186
315,-643,7.79895,22.0035,0.00223452,0.000304493,0.00175346,0.00327097,-0.000731958,0.533842,0.00246119,0.0372776,1539,1667,7.7989,-22.0035
322,-643,7.81042,21.7922,0.0018646,0.00138788,0.00110157,0.0027533,0.000499174,0.67885,0.00169384,0.0195615,1546,1667,7.8104,-21.7922
329,-643,7.82922,21.6145,0.00165739,0.00213393,0.000610108,0.00255064,0.00124068,0.971559,0.0014728,0.0120122,1553,1667,7.82921,-21.6145
336,-643,7.8103,21.4874,0.00135206,0.00245662,0.000277695,0.00252251,0.00128618,1.33785,0.00145647,0.0116178,1560,1667,7.81029,-21.4875
343,-643,7.83594,21.3203,0.00111803,0.00259967,-2.32287e-05,0.00260003,0.00111766,-1.55512,0.00150604,0.0131564,1567,1667,7.83588,-21.3203
350,-643,7.86133,21.0859,0.00104519,0.00269824,-0.000233507,0.00273059,0.00101284,-1.43313,0.00159392,0.0121233,1574,1667,7.86136,-21.086
357,-643,7.85608,20.8767,0.000902014,0.00250723,-0.000336708,0.002575,0.000834247,-1.37219,0.00151707,0.0105908,1581,1667,7.85613,-20.8767
364,-643,7.87048,20.6674,0.000820581,0.00216527,-0.000408555,0.00227967,0.000706183,-1.29778,0.00134755,0.00948597,1588,1667,7.87046,-20.6674
371,-643,7.87463,20.4716,0.000764645,0.00174901,-0.000378773,0.00187789,0.00063577,-1.24284,0.00110288,0.00774588,1595,1667,7.87458,-20.4716
378,-643,7.88855,20.2621,0.000681501,0.00131174,-0.000362957,0.00147729,0.000515957,-1.14288,0.000865737,0.00915557,1602,1667,7.88853,-20.2621
385,-643,7.91357,20.0338,0.000669406,0.00085444,-0.000322878,0.00109779,0.000426051,-0.924929,0.000639081,0.0150128,1609,1667,7.91352,-20.0339
392,-643,7.88623,19.804,0.000485278,0.000350574,-8.87583e-05,0.000529345,0.000306507,-0.460837,0.000306888,0.0161966,1616,1667,7.88622,-19.804
399,-643,7.86658,19.6083,0.000213376,5.03214e-05,8.59455e-05,0.000250311,1.33864e-05,0.405887,0.000162596,0.0134241,1623,1667,7.86653,-19.6083
406,-643,7.86292,19.3491,0.000102225,-0.000158077,0.000239879,0.000244987,-0.000300839,0.536839,0.000315682,0.0127995,1630,1667,7.86288,-19.3492
413,-643,7.87793,19.087,-3.7359e-06,-0.000558987,0.000460512,0.000256363,-0.000819086,0.514138,0.000648625,0.0190204,1637,1667,7.87796,-19.087
420,-643,7.84961,18.8699,-0.00016553,-0.00128919,0.000737429,0.000199707,-0.00165443,0.459868,0.00117519,0.0169305,1644,1667,7.8496,-18.8699
427,-643,7.83777,18.6476,-0.000439787,-0.00234232,0.0010161,8.39704e-07,-0.00278295,0.40917,0.00185558,0.0136917,1651,1667,7.8378,-18.6476
434,-643,7.84094,18.4073,-0.000593009,-0.00350601,0.00125801,-0.000124933,-0.00397409,0.356204,0.00260875,0.015017,1658,1667,7.841,-18.4074
441,-643,7.84998,18.1473,-0.000968763,-0.00502002,0.00147611,-0.000487985,-0.0055008,0.314871,0.00351584,0.0153705,1665,1667,7.85003,-18.1473
448,-643,7.77905,17.8668,-0.00187809,-0.00689154,0.00189338,-0.00124339,-0.00752624,0.323449,0.00465867,0.0194997,1672,1667,7.77906,-17.8668
455,-643,7.82275,17.6222,-0.00257862,-0.00934415,0.00218556,-0.00193401,-0.00998876,0.28681,0.00611727,0.029187,1679,1667,7.82278,-17.6222
462,-643,7.98584,17.6609,-0.00351186,-0.0125971,0.00235785,-0.00293639,-0.0131726,0.239386,0.00798497,0.0414664,1686,1667,7.9859,-17.6609
469,-643,7.91357,17.7516,-0.00480315,-0.0158608,0.00235631,-0.00432198,-0.0163419,0.201438,0.00977773,0.0421462,1693,1667,7.91353,-17.7515
476,-643,7.7218,17.6101,-0.00624713,-0.0192943,0.00219446,-0.00588792,-0.0196535,0.162249,0.0116469,0.0471835,1700,1667,7.72182,-17.6101
483,-643,7.58057,17.4351,0,0,0,0,0,0,0,-1,1707,1667,7.58061,-17.4351
490,-643,8.14941,13.4279,0,0,0,0,0,0,0,-1,1714,1667,8.14939,-13.4279
497,-643,9.11865,12.3346,0,0,0,0,0,0,0,-1,1721,1667,9.11869,-12.3345
504,-643,7.73755,12.0018,0,0,0,0,0,0,0,-1,1728,1667,7.73755,-12.0018
511,-643,4.22314,10.5032,0,0,0,0,0,0,0,-1,1735,1667,4.22314,-10.5032
518,-643,7.40564,0.922607,0,0,0,0,0,0,0,-1,1742,1667,7.4057,-0.922598
525,-643,0,0,0,0,0,0,0,0,0,-1,1749,1667,0,0
532,-643,0,0,0,0,0,0,0,0,0,-1,1756,1667,0,0
539,-643,0,0,0,0,0,0,0,0,0,-1,1763,1667,0,0
546,-643,0,0,0,0,0,0,0,0,0,-1,1770,1667,0,0
553,-643,0,0,0,0,0,0,0,0,0,-1,1777,1667,0,0
560,-643,0,0,0,0,0,0,0,0,0,-1,1784,1667,0,0
567,-643,0,0,0,0,0,0,0,0,0,-1,1791,1667,0,0
574,-643,0,0,0,0,0,0,0,0,0,-1,1798,1667,0,0
581,-643,0,0,0,0,0,0,0,0,0,-1,1805,1667,0,0
588,-643,0,0,0,0,0,0,0,0,0,-1,1812,1667,0,0
595,-643,0,0,0,0,0,0,0,0,0,-1,1819,1667,0,0
602,-643,0,0,0,0,0,0,0,0,0,-1,1826,1667,0,0
609,-643,0,0,0,0,0,0,0,0,0,-1,1833,1667,0,0
616,-643,0,0,0,0,0,0,0,0,0,-1,1840,1667,0,0
623,-643,0,0,0,0,0,0,0,0,0,-1,1847,1667,0,0
630,-643,0,0,0,0,0,0,0,0,0,-1,1854,1667,0,0
637,-643,0,0,0,0,0,0,0,0,0,-1,1861,1667,0,0
644,-643,0,0,0,0,0,0,0,0,0,-1,1868,1667,0,0
651,-643,0,0,0,0,0,0,0,0,0,-1,1875,1667,0,0
658,-643,0,0,0,0,0,0,0,0,0,-1,1882,1667,0,0
665,-643,0,0,0,0,0,0,0,0,0,-1,1889,1667,0,0
672,-643,0,0,0,0,0,0,0,0,0,-1,1896,1667,0,0
679,-643,0,0,0,0,0,0,0,0,0,-1,1903,1667,0,0
686,-643,0,0,0,0,0,0,0,0,0,-1,1910,1667,0,0
693,-643,0,0,0,0,0,0,0,0,0,-1,1917,1667,0,0
700,-643,0,0,0,0,0,0,0,0,0,-1,1924,1667,0,0
707,-643,0,0,0,0,0,0,0,0,0,-1,1931,1667,0,0
714,-643,0,0,0,0,0,0,0,0,0,-1,1938,1667,0,0
721,-643,0,0,0,0,0,0,0,0,0,-1,1945,1667,0,0
728,-643,0,0,0,0,0,0,0,0,0,-1,1952,1667,0,0
735,-643,0,0,0,0,0,0,0,0,0,-1,1959,1667,0,0
742,-643,0,0,0,0,0,0,0,0,0,-1,1966,1667,0,0
749,-643,0,0,0,0,0,0,0,0,0,-1,1973,1667,0,0
756,-643,0,0,0,0,0,0,0,0,0,-1,1980,1667,0,0
763,-643,0,0,0,0,0,0,0,0,0,-1,1987,1667,0,0
770,-643,0,0,0,0,0,0,0,0,0,-1,1994,1667,0,0
777,-643,0,0,0,0,0,0,0,0,0,-1,2001,1667,0,0
784,-643,0,0,0,0,0,0,0,0,0,-1,2008,1667,0,0
791,-643,0,0,0,0,0,0,0,0,0,-1,2015,1667,0,0
798,-643,0,0,0,0,0,0,0,0,0,-1,2022,1667,0,0
805,-643,0,0,0,0,0,0,0,0,0,-1,2029,1667,0,0
812,-643,0,0,0,0,0,0,0,0,0,-1,2036,1667,0,0
-700,-650,0,0,0,0,0,0,0,0,0,-1,524,1674,0,0
-693,-650,0,0,0,0,0,0,0,0,0,-1,531,1674,0,0
-686,-650,0,0,0,0,0,0,0,0,0,-1,538,1674,0,0
-679,-650,0,0,0,0,0,0,0,0,0,-1,545,1674,0,0
-672,-650,0,0,0,0,0,0,0,0,0,-1,552,1674,0,0
-665,-650,0,0,0,0,0,0,0,0,0,-1,559,1674,0,0
-658,-650,0,0,0,0,0,0,0,0,0,-1,566,1674,0,0
-651,-650,0,0,0,0,0,0,0,0,0,-1,573,1674,0,0
-644,-650,0,0,0,0,0,0,0,0,0,-1,580,1674,0,0
-637,-650,0,0,0,0,0,0,0,0,0,-1,587,1674,0,0
-630,-650,0,0,0,0,0,0,0,0,0,-1,594,1674,0,0
-623,-650,0,0,0,0,0,0,0,0,0,-1,601,1674,0,0
-616,-650,0,0,0,0,0,0,0,0,0,-1,608,1674,0,0
-609,-650,0,0,0,0,0,0,0,0,0,-1,615,1674,0,0
-602,-650,0,0,0,0,0,0,0,0,0,-1,622,1674,0,0
-595,-650,0,0,0,0,0,0,0,0,0,-1,629,1674,0,0
-588,-650,0,0,0,0,0,0,0,0,0,-1,636,1674,0,0
-581,-650,0,0,0,0,0,0,0,0,0,-1,643,1674,0,0
-574,-650,0,0,0,0,0,0,0,0,0,-1,650,1674,0,0
-567,-650,0,0,0,0,0,0,0,0,0,-1,657,1674,0,0
-560,-650,0,0,0,0,0,0,0,0,0,-1,664,1674,0,0
-553,-650,0,0,0,0,0,0,0,0,0,-1,671,1674,0,0
-546,-650,0,0,0,0,0,0,0,0,0,-1,678,1674,0,0
-539,-650,0,0,0,0,0,0,0,0,0,-1,685,1674,0,0
-532,-650,0,0,0,0,0,0,0,0,0,-1,692,1674,0,0
-525,-650,0,0,0,0,0,0,0,0,0,-1,699,1674,0,0
-518,-650,0,0,0,0,0,0,0,0,0,-1,706,1674,0,0
-511,-650,0,0,0,0,0,0,0,0,0,-1,713,1674,0,0
-504,-650,0,0,0,0,0,0,0,0,0,-1,720,1674,0,0
-497,-650,0,0,0,0,0,0,0,0,0,-1,727,1674,0,0
-490,-650,0,0,0,0,0,0,0,0,0,-1,734,1674,0,0
-483,-650,0,0,0,0,0,0,0,0,0,-1,741,1674,0,0
-476,-650,0,0,0,0,0,0,0,0,0,-1,748,1674,0,0
-469,-650,0,0,0,0,0,0,0,0,0,-1,755,1674,0,0
-462,-650,0,0,0,0,0,0,0,0,0,-1,762,1674,0,0
-455,-650,0,0,0,0,0,0,0,0,0,-1,769,1674,0,0
-448,-650,0,0,0,0,0,0,0,0,0,-1,776,1674,0,0
-441,-650,0,0,0,0,0,0,0,0,0,-1,783,1674,0,0
-434,-650,0,0,0,0,0,0,0,0,0,-1,790,1674,0,0
-427,-650,0,0,0,0,0,0,0,0,0,-1,797,1674,0,0
-420,-650,0,0,0,0,0,0,0,0,0,-1,804,1674,0,0
-413,-650,0,0,0,0,0,0,0,0,0,-1,811,1674,0,0
-406,-650,0,0,0,0,0,0,0,0,0,-1,818,1674,0,0
-399,-650,0,0,0,0,0,0,0,0,0,-1,825,1674,0,0
-392,-650,5.44415,6.85669,0,0,0,0,0,0,0,-1,832,1674,5.44414,-6.85674
-385,-650,1.74451,14.0183,0,0,0,0,0,0,0,-1,839,1674,1.74453,-14.0183
-378,-650,0.997986,4.11108,0,0,0,0,0,0,0,-1,846,1674,0.998006,-4.11113
-371,-650,-1.80096,3.78625,0,0,0,0,0,0,0,-1,853,1674,-1.80094,-3.78625
-364,-650,-2.95679,2.57507,0,0,0,0,0,0,0,-1,860,1674,-2.95681,-2.57506
-357,-650,1.97833,10.8362,0,0,0,0,0,0,0,-1,867,1674,1.97835,-10.8362
-350,-650,-5.30243,0.159912,0,0,0,0,0,0,0,-1,874,1674,-5.30244,-0.159866
-343,-650,-6.21338,-1.4425,0,0,0,0,0,0,0,-1,881,1674,-6.21341,1.44248
-336,-650,4.12695,15.7001,0,0,0,0,0,0,0,-1,888,1674,4.12697,-15.7
-329,-650,4.23883,16.7013,0,0,0,0,0,0,0,-1,895,1674,4.23881,-16.7013
-322,-650,4.23969,16.8608,0.00281831,-0.00303595,0.00166428,0.00325836,-0.003476,0.258494,0.00388876,0.043518,902,1674,4.23966,-16.8609
-315,-650,4.23401,16.9991,0.00167939,-0.00183491,0.00137599,0.00215404,-0.00230956,0.33217,0.00257758,0.0373106,909,1674,4.23398,-16.9992
-308,-650,4.25378,17.1869,0.000371719,-0.00097256,0.000880702,0.000807464,-0.0014083,0.459455,0.00129486,0.0212454,916,1674,4.2538,-17.1869
-301,-650,4.25793,17.5073,0.000143416,-0.000132604,0.000831051,0.000847839,-0.000837027,0.703116,0.000972765,0.0116744,923,1674,4.25795,-17.5073
-294,-650,4.22137,17.7721,0.000235983,0.000417238,0.000614625,0.000947881,-0.00029466,0.858596,0.000749698,0.00989668,930,1674,4.22139,-17.7721
-287,-650,4.18921,18.0264,0.000151708,0.000732363,0.000433421,0.00096371,-7.96387e-05,1.0805,0.000670598,0.0126102,937,1674,4.18921,-18.0263
-280,-650,4.17999,18.2877,-0.000175873,0.000610372,0.00015805,0.000640954,-0.000206454,1.37967,0.000510239,0.014248,944,1674,4.18001,-18.2877
-273,-650,4.1778,18.5632,-0.000272056,0.000459066,1.85596e-05,0.000459537,-0.000272527,1.54543,0.000427229,0.0135217,951,1674,4.17779,-18.5633
-266,-650,4.17596,18.8109,-0.000214232,0.000267597,-0.000148334,0.000309601,-0.000256236,-1.29485,0.00032717,0.0113925,958,1674,4.17594,-18.8109
-259,-650,4.1842,19.031,-0.000176429,0.000218677,-0.000254687,0.000343447,-0.0003012,-1.11526,0.000372454,0.0138599,965,1674,4.18419,-19.031
-252,-650,4.17188,19.2728,-0.000124088,2.1665e-05,-0.00031941,0.000276407,-0.00037883,-0.897558,0.000379839,0.0126704,972,1674,4.17189,-19.2728
-245,-650,4.17279,19.5045,1.42816e-05,-0.00020462,-0.000312045,0.000235514,-0.000425853,-0.616725,0.000387076,0.0115906,979,1674,4.1728,-19.5045
-238,-650,4.17993,19.733,0.000394156,-0.000402501,-0.000214623,0.000448297,-0.000456642,-0.247105,0.000522474,0.0132607,986,1674,4.17991,-19.733
-231,-650,4.14221,20.0007,0.000837192,-0.000721281,-0.000158957,0.00085324,-0.000737328,-0.100615,0.000919128,0.0184473,993,1674,4.14222,-20.0007
-224,-650,4.14594,20.2316,0.00123287,-0.000738907,-3.12257e-05,0.00123336,-0.000739401,-0.0158311,0.00115081,0.0155028,1000,1674,4.14596,-20.2316
-217,-650,4.17682,20.4078,0.00157188,-0.000589907,2.92723e-05,0.00157228,-0.000590303,0.0135375,0.00129076,0.0103498,1007,1674,4.17682,-20.4078
-210,-650,4.17255,20.6322,0.00190623,-0.000459238,-7.89667e-05,0.00190886,-0.000461871,-0.0333337,0.00145124,0.00943496,1014,1674,4.17257,-20.6322
-203,-650,4.20325,20.8657,0.00215315,-0.000493194,-0.000399691,0.0022122,-0.000552244,-0.146677,0.00168925,0.0135092,1021,1674,4.20323,-20.8657
-196,-650,4.21716,21.0659,0.00225329,-0.000343542,-0.000759414,0.00245907,-0.000549318,-0.264613,0.00184987,0.0133191,1028,1674,4.21712,-21.0659
-189,-650,4.19946,21.283,0.00218495,-0.000343481,-0.00135088,0.00277091,-0.000929433,-0.409263,0.00222282,0.0108794,1035,1674,4.19951,-21.283
-182,-650,4.24341,21.5164,0.00219571,-0.000291254,-0.00195123,0.003266,-0.00136154,-0.501707,0.0027461,0.00934199,1042,1674,4.24338,-21.5164
-175,-650,4.26733,21.6974,0.00230433,-0.000448977,-0.00262708,0.0038936,-0.00203825,-0.544057,0.00348015,0.0130931,1049,1674,4.26735,-21.6974
-168,-650,4.25903,21.8818,0.00253708,-0.000475899,-0.0031867,0.00455544,-0.00249426,-0.564596,0.00412773,0.0178915,1056,1674,4.25906,-21.8818
-161,-650,4.26929,22.0889,0.00307565,-0.000387374,-0.00375792,0.00548179,-0.00279351,-0.569514,0.00486105,0.0279824,1063,1674,4.26924,-22.0889
-154,-650,4.33813,22.2775,0.00387111,-0.000519827,-0.00425716,0.00646558,-0.00311429,-0.547329,0.00564262,0.0315813,1070,1674,4.3381,-22.2775
-147,-650,4.29163,22.4753,0.00484927,-0.0008587,-0.0046181,0.00742411,-0.00343353,-0.508623,0.00640824,0.042423,1077,1674,4.29162,-22.4753
-140,-650,4.23584,22.585,0.00627353,-0.00123455,-0.00479609,0.00861008,-0.0035711,-0.453338,0.00723061,0.0499311,1084,1674,4.23584,-22.585
-133,-650,4.36743,22.8296,0,0,0,0,0,0,0,-1,1091,1674,4.36747,-22.8296
-126,-650,4.76111,22.2833,0,0,0,0,0,0,0,-1,1098,1674,4.76109,-22.2833
-119,-650,5.16663,20.6232,0,0,0,0,0,0,0,-1,1105,1674,5.16665,-20.6232
-112,-650,3.86292,14.4513,0,0,0,0,0,0,0,-1,1112,1674,3.8629,-14.4513
-105,-650,4.9259,12.0626,0,0,0,0,0,0,0,-1,1119,1674,4.92591,-12.0626
-98,-650,3.3761,6.78003,0,0,0,0,0,0,0,-1,1126,1674,3.37611,-6.78009
-91,-650,3.66809,7.04443,0,0,0,0,0,0,0,-1,1133,1674,3.66806,-7.04439
-84,-650,-3.82666,-1.59521,0,0,0,0,0,0,0,-1,1140,1674,-3.82661,1.59517
-77,-650,-4.70557,1.90198,0,0,0,0,0,0,0,-1,1147,1674,-4.7056,-1.90194
-70,-650,-4.88171,3.81653,0,0,0,0,0,0,0,-1,1154,1674,-4.88176,-3.81651
-63,-650,-5.14612,5.56543,0,0,0,0,0,0,0,-1,1161,1674,-5.14612,-5.56547
-56,-650,-5.38367,7.41101,0,0,0,0,0,0,0,-1,1168,1674,-5.38361,-7.41102
-49,-650,-5.11316,8.23706,0,0,0,0,0,0,0,-1,1175,1674,-5.11317,-8.23708
-42,-650,-4.99487,9.6792,0,0,0,0,0,0,0,-1,1182,1674,-4.99484,-9.67921
-35,-650,-4.77771,11.3369,0,0,0,0,0,0,0,-1,1189,1674,-4.77769,-11.3369
-28,-650,-4.1936,13.1501,0,0,0,0,0,0,0,-1,1196,1674,-4.19358,-13.1501
-21,-650,4.74414,20.7709,0,0,0,0,0,0,0,-1,1203,1674,4.74415,-20.7709
-14,-650,10.215,26.5505,0,0,0,0,0,0,0,-1,1210,1674,10.215,-26.5506
-7,-650,9.73975,26.9768,-0.0953655,0.000564658,-0.00831581,0.00128018,-0.0960811,-1.48496,0.064485,0.0484416,1217,1674,9.73979,-26.9769
0,-650,8.9613,27.25,-0.0956579,0.0197166,0.00141362,0.0197339,-0.0956752,1.55855,0.0712779,0.0420222,1224,1674,8.96136,-27.2501
7,-650,7.96692,27.09,-0.0951757,0.0424344,0.0113126,0.0433582,-0.0960995,1.48932,0.0824129,0.0392805,1231,1674,7.96689,-27.09
14,-650,7.01538,27.2023,-0.0943644,0.0652236,0.0204711,0.0678077,-0.0969485,1.44523,0.0956167,0.0400001,1238,1674,7.01538,-27.2022
21,-650,6.21838,27.3422,-0.0932332,0.0863858,0.0280386,0.0906609,-0.0975083,1.41949,0.108664,0.0475641,1245,1674,6.21837,-27.3422
28,-650,5.44592,27.4725,0,0,0,0,0,0,0,-1,1252,1674,5.44594,-27.4726
35,-650,7.0072,31.7841,0,0,0,0,0,0,0,-1,1259,1674,7.00716,-31.7841
42,-650,6.20398,31.9846,-0.0839061,0.123529,0.0373592,0.130052,-0.0904294,1.39793,0.127978,0.0451921,1266,1674,6.20399,-31.9846
49,-650,5.44275,32.1277,-0.080184,0.127068,0.037252,0.133561,-0.0866764,1.39825,0.128111,0.0478453,1273,1674,5.4428,-32.1277
56,-650,4.77966,32.2544,0,0,0,0,0,0,0,-1,1280,1674,4.77969,-32.2544
63,-650,4.35413,32.9054,-0.069477,0.122458,0.029556,0.126907,-0.0739252,1.42142,0.117287,0.0440919,1287,1674,4.35416,-32.9053
70,-650,3.71509,33.7374,-0.0632533,0.114877,0.0246075,0.118214,-0.0665901,1.43602,0.108075,0.0459374,1294,1674,3.71503,-33.7374
77,-650,3.11841,34.3083,-0.0556329,0.103443,0.0190324,0.105689,-0.0578784,1.45336,0.0957708,0.045438,1301,1674,3.11843,-34.3083
84,-650,3.81946,35.6324,-0.04867,0.0908602,0.0128364,0.0920312,-0.0498411,1.47982,0.0831085,0.049496,1308,1674,3.81947,-35.6324
91,-650,3.54285,36.757,0,0,0,0,0,0,0,-1,1315,1674,3.54281,-36.757
98,-650,4.31116,36.9171,-0.0217594,0.0615471,0.00831225,0.0623684,-0.0225806,1.47231,0.0508069,0.0468449,1322,1674,4.3111,-36.9171
105,-650,4.49939,37.8472,-0.0072039,0.0467569,0.00718168,0.0476963,-0.00814336,1.44072,0.0348308,0.0459085,1329,1674,4.49939,-37.8471
112,-650,4.45862,38.8849,0.00898316,0.0342517,0.00876983,0.0369972,0.00623775,1.26741,0.0228708,0.0434791,1336,1674,4.45859,-38.8849
119,-650,4.17078,39.6411,0,0,0,0,0,0,0,-1,1343,1674,4.17073,-39.6411
126,-650,5.86401,23.7928,0,0,0,0,0,0,0,-1,1350,1674,5.86401,-23.7928
133,-650,6.73096,24.1582,0,0,0,0,0,0,0,-1,1357,1674,6.731,-24.1582
140,-650,7.27832,23.9337,0.0822985,-0.0135229,0.0288754,0.0903273,-0.0215517,0.271198,0.068541,0.0468579,1364,1674,7.27834,-23.9337
147,-650,8.08887,23.6411,0.0964124,-0.0217258,0.0352598,0.106136,-0.0314492,0.269078,0.0832447,0.0442155,1371,1674,8.08887,-23.6412
154,-650,8.9447,23.1365,0,0,0,0,0,0,0,-1,1378,1674,8.94467,-23.1365
161,-650,1.92163,18.5155,0,0,0,0,0,0,0,-1,1385,1674,1.92164,-18.5155
168,-650,11.2113,7.87231,0,0,0,0,0,0,0,-1,1392,1674,11.2113,-7.87236
175,-650,5.62537,-0.230713,0,0,0,0,0,0,0,-1,1399,1674,5.62538,0.230745
182,-650,5.56006,0.421631,0,0,0,0,0,0,0,-1,1406,1674,5.56,-0.421652
189,-650,4.81543,11.0654,0,0,0,0,0,0,0,-1,1413,1674,4.81542,-11.0654
196,-650,5.39575,11.9077,0,0,0,0,0,0,0,-1,1420,1674,5.39575,-11.9078
203,-650,3.93628,11.8215,0,0,0,0,0,0,0,-1,1427,1674,3.93624,-11.8216
210,-650,5.40955,8.08594,0,0,0,0,0,0,0,-1,1434,1674,5.40958,-8.086
217,-650,5.12451,4.69739,0,0,0,0,0,0,0,-1,1441,1674,5.12451,-4.69738
224,-650,4.79041,1.45813,0,0,0,0,0,0,0,-1,1448,1674,4.79046,-1.45816
231,-650,4.04102,-0.642212,0,0,0,0,0,0,0,-1,1455,1674,4.04101,0.642209
238,-650,3.23022,-1.43396,0,0,0,0,0,0,0,-1,1462,1674,3.23023,1.43394
245,-650,1.65894,-2.55042,0,0,0,0,0,0,0,-1,1469,1674,1.65889,2.55036
252,-650,8.75342,0.355103,0,0,0,0,0,0,0,-1,1476,1674,8.75337,-0.355147
259,-650,5.61255,3.17566,0,0,0,0,0,0,0,-1,1483,1674,5.61257,-3.17572
266,-650,4.00403,6.10229,0,0,0,0,0,0,0,-1,1490,1674,4.00401,-6.10225
273,-650,5.4093,14.3718,0,0,0,0,0,0,0,-1,1497,1674,5.40929,-14.3718
280,-650,7.31152,22.712,0,0,0,0,0,0,0,-1,1504,1674,7.31156,-22.712
287,-650,7.59595,22.4646,0,0,0,0,0,0,0,-1,1511,1674,7.5959,-22.4646
294,-650,7.53931,22.3954,0.00397954,-0.00194849,0.00234554,0.00479533,-0.00276428,0.334718,0.00441674,0.0411518,1518,1674,7.53933,-22.3954
301,-650,7.56128,22.2172,0.00325406,-0.00161592,0.00228175,0.00415606,-0.00251793,0.37646,0.00389173,0.0338113,1525,1674,7.56131,-22.2172
308,-650,7.60083,22.1542,0.00262204,-0.000706202,0.001864,0.00345668,-0.00154084,0.420995,0.00295515,0.0234986,1532,1674,7.60081,-22.1541
315,-650,7.60071,22.0317,0.00207174,-8.27888e-05,0.0015207,0.00285808,-0.000869127,0.477227,0.00225172,0.0146933,1539,1674,7.60069,-22.0318
322,-650,7.60303,21.8434,0.00169058,0.000703464,0.00107407,0.00237906,1.49793e-05,0.570026,0.00158107,0.0109663,1546,1674,7.60308,-21.8434
329,-650,7.62646,21.644,0.00145857,0.00123884,0.000676757,0.00203432,0.000663088,0.704929,0.001198,0.015083,1553,1674,7.62646,-21.6441
336,-650,7.62817,21.4869,0.0011983,0.00152564,0.000391517,0.00178632,0.000937623,0.98338,0.00103176,0.0145664,1560,1674,7.62819,-21.487
343,-650,7.66211,21.2894,0.00101787,0.00164746,9.87165e-05,0.00166258,0.00100276,1.41886,0.000966673,0.013985,1567,1674,7.66208,-21.2894
350,-650,7.66772,21.0618,0.000963475,0.00169043,-0.000136256,0.00171513,0.000938775,-1.39147,0.000991712,0.0154943,1574,1674,7.66768,-21.0618
357,-650,7.646,20.8539,0.000885604,0.00155379,-0.000302471,0.00167037,0.000769023,-1.20291,0.000965395,0.0129653,1581,1674,7.64604,-20.8538
364,-650,7.64722,20.6642,0.000863266,0.00123774,-0.000423185,0.00151326,0.000587746,-0.993674,0.000880904,0.00955224,1588,1674,7.6472,-20.6642
371,-650,7.64966,20.4719,0.000850637,0.000869296,-0.000470028,0.00133009,0.000389845,-0.795321,0.000789538,0.0117643,1595,1674,7.64971,-20.4719
378,-650,7.65442,20.2573,0.000813521,0.00046943,-0.000524007,0.001193,8.99473e-05,-0.626779,0.000767113,0.0125804,1602,1674,7.65448,-20.2573
385,-650,7.67126,20.0369,0.000806086,0.000143102,-0.000504595,0.00107834,-0.000129147,-0.494776,0.000765579,0.0143554,1609,1674,7.67128,-20.0368
392,-650,7.66064,19.816,0.000624967,-0.000291229,-0.000258676,0.000692955,-0.000359217,-0.25702,0.000617574,0.0179982,1616,1674,7.66066,-19.8161
399,-650,7.6521,19.5925,0.000348477,-0.000546516,-6.6421e-05,0.000353379,-0.000551419,-0.0736761,0.00052654,0.0154919,1623,1674,7.65207,-19.5926
406,-650,7.62329,19.345,0.000222906,-0.000685695,0.000149461,0.000246861,-0.000709649,0.158919,0.000573383,0.0142163,1630,1674,7.62328,-19.345
413,-650,7.62415,19.1041,7.39542e-05,-0.000995146,0.000451785,0.0002393,-0.00116049,0.350841,0.000864538,0.0147515,1637,1674,7.62413,-19.1042
420,-650,7.62585,18.8969,-0.00018918,-0.00175203,0.000908805,0.000227957,-0.00216917,0.430309,0.00152778,0.0143501,1644,1674,7.62584,-18.8968
427,-650,7.62476,18.6704,-0.000603052,-0.00288152,0.00141506,7.43708e-05,-0.00355894,0.446483,0.0023978,0.0136828,1651,1674,7.62477,-18.6704
434,-650,7.61365,18.4592,-0.000884241,-0.00417548,0.00193304,8.78144e-06,-0.00506851,0.43277,0.00338194,0.0166524,1658,1674,7.61361,-18.4593
441,-650,7.57678,18.2202,-0.00148178,-0.00604024,0.00245863,-0.000408442,-0.00711358,0.411623,0.00461227,0.0281586,1665,1674,7.57678,-18.2202
448,-650,7.40186,17.932,-0.00272813,-0.00842579,0.00325574,-0.0012508,-0.00990312,0.425978,0.00622716,0.0451848,1672,1674,7.40189,-17.932
455,-650,7.32825,17.6948,0,0,0,0,0,0,0,-1,1679,1674,7.32825,-17.6948
462,-650,7.81201,18.0013,0,0,0,0,0,0,0,-1,1686,1674,7.812,-18.0013
469,-650,7.79871,18.3348,0,0,0,0,0,0,0,-1,1693,1674,7.79867,-18.3348
476,-650,7.48145,18.1874,0,0,0,0,0,0,0,-1,1700,1674,7.48143,-18.1874
483,-650,7.28662,18.0883,0,0,0,0,0,0,0,-1,1707,1674,7.28662,-18.0883
490,-650,8.48901,11.9618,0,0,0,0,0,0,0,-1,1714,1674,8.48906,-11.9618
497,-650,7.81238,11.5549,0,0,0,0,0,0,0,-1,1721,1674,7.81239,-11.5549
504,-650,4.06628,11.7836,0,0,0,0,0,0,0,-1,1728,1674,4.06624,-11.7836
511,-650,4.07861,10.9446,0,0,0,0,0,0,0,-1,1735,1674,4.07861,-10.9446
518,-650,0,0,0,0,0,0,0,0,0,-1,1742,1674,0,0
525,-650,0,0,0,0,0,0,0,0,0,-1,1749,1674,0,0
532,-650,0,0,0,0,0,0,0,0,0,-1,1756,1674,0,0
539,-650,0,0,0,0,0,0,0,0,0,-1,1763,1674,0,0
546,-650,0,0,0,0,0,0,0,0,0,-1,1770,1674,0,0
553,-650,0,0,0,0,0,0,0,0,0,-1,1777,1674,0,0
560,-650,0,0,0,0,0,0,0,0,0,-1,1784,1674,0,0
567,-650,0,0,0,0,0,0,0,0,0,-1,1791,1674,0,0
574,-650,0,0,0,0,0,0,0,0,0,-1,1798,1674,0,0
581,-650,0,0,0,0,0,0,0,0,0,-1,1805,1674,0,0
588,-650,0,0,0,0,0,0,0,0,0,-1,1812,1674,0,0
595,-650,0,0,0,0,0,0,0,0,0,-1,1819,1674,0,0
602,-650,0,0,0,0,0,0,0,0,0,-1,1826,1674,0,0
609,-650,0,0,0,0,0,0,0,0,0,-1,1833,1674,0,0
616,-650,0,0,0,0,0,0,0,0,0,-1,1840,1674,0,0
623,-650,0,0,0,0,0,0,0,0,0,-1,1847,1674,0,0
630,-650,0,0,0,0,0,0,0,0,0,-1,1854,1674,0,0
637,-650,0,0,0,0,0,0,0,0,0,-1,1861,1674,0,0
644,-650,0,0,0,0,0,0,0,0,0,-1,1868,1674,0,0
651,-650,0,0,0,0,0,0,0,0,0,-1,1875,1674,0,0
658,-650,0,0,0,0,0,0,0,0,0,-1,1882,1674,0,0
665,-650,0,0,0,0,0,0,0,0,0,-1,1889,1674,0,0
672,-650,0,0,0,0,0,0,0,0,0,-1,1896,1674,0,0
679,-650,0,0,0,0,0,0,0,0,0,-1,1903,1674,0,0
686,-650,0,0,0,0,0,0,0,0,0,-1,1910,1674,0,0
693,-650,0,0,0,0,0,0,0,0,0,-1,1917,1674,0,0
700,-650,0,0,0,0,0,0,0,0,0,-1,1924,1674,0,0
707,-650,0,0,0,0,0,0,0,0,0,-1,1931,1674,0,0
714,-650,0,0,0,0,0,0,0,0,0,-1,1938,1674,0,0
721,-650,0,0,0,0,0,0,0,0,0,-1,1945,1674,0,0
728,-650,0,0,0,0,0,0,0,0,0,-1,1952,1674,0,0
735,-650,0,0,0,0,0,0,0,0,0,-1,1959,1674,0,0
742,-650,0,0,0,0,0,0,0,0,0,-1,1966,1674,0,0
749,-650,0,0,0,0,0,0,0,0,0,-1,1973,1674,0,0
756,-650,0,0,0,0,0,0,0,0,0,-1,1980,1674,0,0
763,-650,0,0,0,0,0,0,0,0,0,-1,1987,1674,0,0
770,-650,0,0,0,0,0,0,0,0,0,-1,1994,1674,0,0
777,-650,0,0,0,0,0,0,0,0,0,-1,2001,1674,0,0
784,-650,0,0,0,0,0,0,0,0,0,-1,2008,1674,0,0
791,-650,0,0,0,0,0,0,0,0,0,-1,2015,1674,0,0
798,-650,0,0,0,0,0,0,0,0,0,-1,2022,1674,0,0
805,-650,0,0,0,0,0,0,0,0,0,-1,2029,1674,0,0
812,-650,0,0,0,0,0,0,0,0,0,-1,2036,1674,0,0
-700,-657,0,0,0,0,0,0,0,0,0,-1,524,1681,0,0
-693,-657,0,0,0,0,0,0,0,0,0,-1,531,1681,0,0
-686,-657,0,0,0,0,0,0,0,0,0,-1,538,1681,0,0
-679,-657,0,0,0,0,0,0,0,0,0,-1,545,1681,0,0
-672,-657,0,0,0,0,0,0,0,0,0,-1,552,1681,0,0
-665,-657,0,0,0,0,0,0,0,0,0,-1,559,1681,0,0
-658,-657,0,0,0,0,0,0,0,0,0,-1,566,1681,0,0
-651,-657,0,0,0,0,0,0,0,0,0,-1,573,1681,0,0
-644,-657,0,0,0,0,0,0,0,0,0,-1,580,1681,0,0
-637,-657,0,0,0,0,0,0,0,0,0,-1,587,1681,0,0
-630,-657,0,0,0,0,0,0,0,0,0,-1,594,1681,0,0
-623,-657,0,0,0,0,0,0,0,0,0,-1,601,1681,0,0
-616,-657,0,0,0,0,0,0,0,0,0,-1,608,1681,0,0
-609,-657,0,0,0,0,0,0,0,0,0,-1,615,1681,0,0
-602,-657,0,0,0,0,0,0,0,0,0,-1,622,1681,0,0
-595,-657,0,0,0,0,0,0,0,0,0,-1,629,1681,0,0
-588,-657,0,0,0,0,0,0,0,0,0,-1,636,1681,0,0
-581,-657,0,0,0,0,0,0,0,0,0,-1,643,1681,0,0
-574,-657,0,0,0,0,0,0,0,0,0,-1,650,1681,0,0
-567,-657,0,0,0,0,0,0,0,0,0,-1,657,1681,0,0
-560,-657,0,0,0,0,0,0,0,0,0,-1,664,1681,0,0
-553,-657,0,0,0,0,0,0,0,0,0,-1,671,1681,0,0
-546,-657,0,0,0,0,0,0,0,0,0,-1,678,1681,0,0
-539,-657,0,0,0,0,0,0,0,0,0,-1,685,1681,0,0
-532,-657,0,0,0,0,0,0,0,0,0,-1,692,1681,0,0
-525,-657,0,0,0,0,0,0,0,0,0,-1,699,1681,0,0
-518,-657,0,0,0,0,0,0,0,0,0,-1,706,1681,0,0
-511,-657,0,0,0,0,0,0,0,0,0,-1,713,1681,0,0
-504,-657,0,0,0,0,0,0,0,0,0,-1,720,1681,0,0
-497,-657,0,0,0,0,0,0,0,0,0,-1,727,1681,0,0
-490,-657,0,0,0,0,0,0,0,0,0,-1,734,1681,0,0
-483,-657,0,0,0,0,0,0,0,0,0,-1,741,1681,0,0
-476,-657,0,0,0,0,0,0,0,0,0,-1,748,1681,0,0
-469,-657,0,0,0,0,0,0,0,0,0,-1,755,1681,0,0
-462,-657,0,0,0,0,0,0,0,0,0,-1,762,1681,0,0
-455,-657,0,0,0,0,0,0,0,0,0,-1,769,1681,0,0
-448,-657,0,0,0,0,0,0,0,0,0,-1,776,1681,0,0
-441,-657,0,0,0,0,0,0,0,0,0,-1,783,1681,0,0
-434,-657,0,0,0,0,0,0,0,0,0,-1,790,1681,0,0
-427,-657,0,0,0,0,0,0,0,0,0,-1,797,1681,0,0
-420,-657,0,0,0,0,0,0,0,0,0,-1,804,1681,0,0
-413,-657,0,0,0,0,0,0,0,0,0,-1,811,1681,0,0
-406,-657,0,0,0,0,0,0,0,0,0,-1,818,1681,0,0
-399,-657,0,0,0,0,0,0,0,0,0,-1,825,1681,0,0
-392,-657,0,0,0,0,0,0,0,0,0,-1,832,1681,0,0
-385,-657,1.09814,6.18896,0,0,0,0,0,0,0,-1,839,1681,1.09814,-6.18894
-378,-657,0.31488,4.46753,0,0,0,0,0,0,0,-1,846,1681,0.31487,-4.46755
-371,-657,-0.519043,2.69421,0,0,0,0,0,0,0,-1,853,1681,-0.519064,-2.69422
-364,-657,-3.42017,4.18323,0,0,0,0,0,0,0,-1,860,1681,-3.42019,-4.18319
-357,-657,-4.41913,2.97168,0,0,0,0,0,0,0,-1,867,1681,-4.41913,-2.97165
-350,-657,-5.42291,1.70276,0,0,0,0,0,0,0,-1,874,1681,-5.42291,-1.70277
-343,-657,-6.51294,0.397339,0,0,0,0,0,0,0,-1,881,1681,-6.51295,-0.397335
-336,-657,2.4696,15.2997,0,0,0,0,0,0,0,-1,888,1681,2.46961,-15.2996
-329,-657,4.52063,16.6405,0,0,0,0,0,0,0,-1,895,1681,4.52061,-16.6405
-322,-657,4.50238,16.8077,0.00339377,-0.00344406,0.00231959,0.00410638,-0.00415667,0.298061,0.0047707,0.0449542,902,1681,4.50241,-16.8077
-315,-657,4.44159,17.2272,0.00219387,-0.0019379,0.00194962,0.00296856,-0.0027126,0.378226,0.00328113,0.0416309,909,1681,4.44157,-17.2272
-308,-657,4.36786,17.3511,0.000847995,-0.000891328,0.00140392,0.00162979,-0.00167312,0.508099,0.00190699,0.0376,916,1681,4.36783,-17.3511
-301,-657,4.53046,17.4996,0.00058887,3.73247e-05,0.00128937,0.00163163,-0.00100543,0.680044,0.00153675,0.0296241,923,1681,4.53047,-17.4997
-294,-657,4.47394,17.8057,0.000527807,0.000686382,0.000949069,0.00155947,-0.000345281,0.827072,0.00117182,0.017448,930,1681,4.47394,-17.8056
-287,-657,4.4422,18.0652,0.000249215,0.00104751,0.000639251,0.001402,-0.000105268,1.06448,0.000971657,0.0122546,937,1681,4.4422,-18.0652
-280,-657,4.42023,18.2926,-0.000424119,0.000808012,0.000177678,0.000833122,-0.000449229,1.4304,0.000751343,0.0133945,944,1681,4.42022,-18.2927
-273,-657,4.42999,18.5651,-0.000763948,0.000565859,-6.76678e-05,0.000569294,-0.000767383,-1.52009,0.00077455,0.00987596,951,1681,4.43002,-18.5651
-266,-657,4.40857,18.8108,-0.000798041,0.000326681,-0.000332187,0.000417465,-0.000888825,-1.30402,0.00077038,0.0152227,958,1681,4.40857,-18.8108
-259,-657,4.39386,19.0461,-0.000873409,0.000264144,-0.000526521,0.000470436,-0.0010797,-1.19738,0.000917726,0.0193588,965,1681,4.39386,-19.0462
-252,-657,4.37531,19.266,-0.000951134,1.2549e-05,-0.000666471,0.000353115,-0.0012917,-1.09839,0.000999844,0.0125489,972,1681,4.37533,-19.266
-245,-657,4.41528,19.4967,-0.000925397,-0.000267333,-0.000727961,0.000202502,-0.00139523,-0.997653,0.00100448,0.0149824,979,1681,4.41529,-19.4967
-238,-657,4.41754,19.7482,-0.000602087,-0.000507161,-0.000653268,0.000100366,-0.00120961,-0.821662,0.000841861,0.0208215,986,1681,4.41752,-19.7482
-231,-657,4.3869,20.0023,-0.000188997,-0.000864428,-0.000628059,0.000186386,-0.00123981,-0.538717,0.000895161,0.0218413,993,1681,4.38691,-20.0023
-224,-657,4.37622,20.2524,0.000214311,-0.000837495,-0.00047958,0.000400146,-0.00102333,-0.36968,0.00084769,0.0171952,1000,1681,4.37625,-20.2524
-217,-657,4.40112,20.459,0.000562528,-0.000616658,-0.000376027,0.000672232,-0.000726362,-0.283866,0.00080768,0.0101104,1007,1681,4.4011,-20.459
-210,-657,4.41327,20.6639,0.000941563,-0.000466519,-0.000385895,0.00104038,-0.000565341,-0.250697,0.000940492,0.010013,1014,1681,4.41324,-20.664
-203,-657,4.40466,20.8718,0.00125314,-0.000440954,-0.000566857,0.00142532,-0.00061313,-0.294882,0.00120764,0.0123994,1021,1681,4.40468,-20.8719
-196,-657,4.40173,21.067,0.00140611,-0.000296851,-0.000741988,0.00168404,-0.000574779,-0.358396,0.00135554,0.0135125,1028,1681,4.40175,-21.067
-189,-657,4.41797,21.2787,0.00143206,-0.000223631,-0.0010624,0.00195107,-0.000742638,-0.454425,0.00160653,0.00976408,1035,1681,4.41802,-21.2786
-182,-657,4.4342,21.5037,0.00157207,-0.000113411,-0.001467,0.00242117,-0.000962507,-0.524682,0.00201316,0.00808629,1042,1681,4.43421,-21.5037
-175,-657,4.44421,21.6886,0.00187274,-0.000164804,-0.00188144,0.00299352,-0.00128559,-0.537257,0.0025353,0.0101883,1049,1681,4.44421,-21.6885
-168,-657,4.44019,21.8739,0.00218917,-0.000125247,-0.00222286,0.003538,-0.00147407,-0.545404,0.00297438,0.0112117,1056,1681,4.44018,-21.8739
-161,-657,4.44763,22.066,0.00273016,-3.79514e-05,-0.00254137,0.00423991,-0.00154771,-0.53605,0.00345989,0.0110151,1063,1681,4.44761,-22.066
-154,-657,4.47278,22.2513,0.00346541,-6.25885e-05,-0.00281513,0.00502356,-0.00162074,-0.505519,0.00400027,0.0117248,1070,1681,4.47282,-22.2514
-147,-657,4.49402,22.4307,0.00433945,-0.000270059,-0.00299887,0.00581691,-0.00174752,-0.457768,0.00457313,0.0165855,1077,1681,4.49405,-22.4307
-140,-657,4.48499,22.6306,0.00552026,-0.000503259,-0.00305846,0.00680092,-0.00178392,-0.396545,0.00523098,0.0273846,1084,1681,4.48495,-22.6306
-133,-657,4.46326,22.7383,0.00701726,-0.000818823,-0.00276766,0.00789619,-0.00169776,-0.3075,0.00591187,0.0381996,1091,1681,4.46321,-22.7383
-126,-657,4.77014,22.729,0.00878728,-0.000847327,-0.00217664,0.0092562,-0.00131625,-0.212191,0.00665309,0.0438139,1098,1681,4.77016,-22.729
-119,-657,4.92517,23.2455,0,0,0,0,0,0,0,-1,1105,1681,4.92521,-23.2455
-112,-657,4.6051,21.3439,0,0,0,0,0,0,0,-1,1112,1681,4.60512,-21.3438
-105,-657,3.82434,14.4906,0,0,0,0,0,0,0,-1,1119,1681,3.8244,-14.4906
-98,-657,3.78662,8.16785,0,0,0,0,0,0,0,-1,1126,1681,3.78663,-8.16786
-91,-657,3.6521,16.6017,0,0,0,0,0,0,0,-1,1133,1681,3.65215,-16.6017
-84,-657,4.08008,10.4579,0,0,0,0,0,0,0,-1,1140,1681,4.08006,-10.4579
-77,-657,-5.29846,0.396606,0,0,0,0,0,0,0,-1,1147,1681,-5.29842,-0.396573
-70,-657,-4.14893,2.14575,0,0,0,0,0,0,0,-1,1154,1681,-4.14893,-2.1458
-63,-657,-4.1239,3.177,0,0,0,0,0,0,0,-1,1161,1681,-4.12391,-3.17698
-56,-657,-6.40576,5.73987,0,0,0,0,0,0,0,-1,1168,1681,-6.40577,-5.7399
-49,-657,-5.98462,7.54053,0,0,0,0,0,0,0,-1,1175,1681,-5.98466,-7.5405
-42,-657,-5.71948,9.28955,0,0,0,0,0,0,0,-1,1182,1681,-5.71951,-9.2895
-35,-657,-5.44556,11.015,0,0,0,0,0,0,0,-1,1189,1681,-5.44555,-11.015
-28,-657,-1.3446,8.92847,0,0,0,0,0,0,0,-1,1196,1681,-1.34459,-8.92848
-21,-657,4.54944,23.3319,0,0,0,0,0,0,0,-1,1203,1681,4.54948,-23.3319
-14,-657,5.1665,24.2507,0,0,0,0,0,0,0,-1,1210,1681,5.16647,-24.2507
-7,-657,10.0532,27.5836,-0.0774281,0.00698956,-0.00217748,0.00704568,-0.0774842,-1.54502,0.0541577,0.0458747,1217,1681,10.0533,-27.5836
0,-657,9.24524,27.4136,-0.0780823,0.0225354,0.00560647,0.0228469,-0.0783937,1.5153,0.0613138,0.0439895,1224,1681,9.2452,-27.4136
7,-657,8.04602,26.7966,0,0,0,0,0,0,0,-1,1231,1681,8.04601,-26.7966
14,-657,6.95251,26.9014,-0.0783408,0.0607282,0.021614,0.06401,-0.0816225,1.42011,0.0842857,0.0411331,1238,1681,6.95251,-26.9014
21,-657,5.97827,26.8933,-0.0780418,0.0794302,0.0279332,0.0842383,-0.0828499,1.40034,0.0964695,0.0451531,1245,1681,5.97832,-26.8934
28,-657,5.55835,27.0573,-0.0766094,0.0950902,0.0322721,0.100956,-0.0824748,1.39101,0.106083,0.0451976,1252,1681,5.55833,-27.0572
35,-657,5.11804,27.3134,0,0,0,0,0,0,0,-1,1259,1681,5.11798,-27.3133
42,-657,5.40747,30.9047,-0.0708399,0.113327,0.0359841,0.120108,-0.0776211,1.38453,0.115034,0.0465166,1266,1681,5.40752,-30.9047
49,-657,4.75342,31.1514,-0.0674296,0.116666,0.0358289,0.123393,-0.0741568,1.3852,0.11523,0.04914,1273,1681,4.75341,-31.1514
56,-657,4.97302,31.6785,0,0,0,0,0,0,0,-1,1280,1681,4.97297,-31.6784
63,-657,4.79163,32.1986,-0.0572177,0.110711,0.028936,0.115558,-0.0620639,1.40486,0.104088,0.0491091,1287,1681,4.79159,-32.1987
70,-657,4.64648,33.0857,-0.051008,0.102859,0.0246783,0.10672,-0.0548692,1.41559,0.0948812,0.0483161,1294,1681,4.64648,-33.0857
77,-657,4.59448,34.1235,-0.0439241,0.0918379,0.0198743,0.0946875,-0.0467737,1.42839,0.0832196,0.0437091,1301,1681,4.59454,-34.1235
84,-657,4.51196,35.1162,-0.0373277,0.0796439,0.0146739,0.0814566,-0.0391404,1.44789,0.0710411,0.0440292,1308,1681,4.51197,-35.1163
91,-657,4.51013,36.3729,-0.0268071,0.065831,0.011534,0.0672454,-0.0282216,1.44877,0.0566321,0.0458103,1315,1681,4.51007,-36.373
98,-657,4.81848,37.0975,-0.0145299,0.051641,0.00972933,0.0530419,-0.0159308,1.42779,0.0416985,0.0457951,1322,1681,4.81853,-37.0976
105,-657,4.93481,37.7698,-0.00230191,0.0379368,0.008379,0.0396118,-0.00397697,1.37349,0.0278284,0.0465818,1329,1681,4.93481,-37.7697
112,-657,5.18188,38.71,0.0107724,0.0270957,0.00928093,0.0312932,0.0065749,1.14606,0.0190525,0.0454457,1336,1681,5.18191,-38.71
119,-657,5.35657,39.5811,0,0,0,0,0,0,0,-1,1343,1681,5.3566,-39.5811
126,-657,6.06348,24.7643,0,0,0,0,0,0,0,-1,1350,1681,6.06349,-24.7643
133,-657,6.53748,24.4578,0,0,0,0,0,0,0,-1,1357,1681,6.53742,-24.4578
140,-657,7.01843,24.1248,0,0,0,0,0,0,0,-1,1364,1681,7.01847,-24.1247
147,-657,7.5061,23.8805,0,0,0,0,0,0,0,-1,1371,1681,7.50613,-23.8804
154,-657,9.65649,21.6421,0,0,0,0,0,0,0,-1,1378,1681,9.65643,-21.6421
161,-657,12.8524,6.43372,0,0,0,0,0,0,0,-1,1385,1681,12.8524,-6.43366
168,-657,5.21643,0.70105,0,0,0,0,0,0,0,-1,1392,1681,5.21648,-0.7011
175,-657,5.52771,0.649048,0,0,0,0,0,0,0,-1,1399,1681,5.52774,-0.649019
182,-657,5.73999,1.02612,0,0,0,0,0,0,0,-1,1406,1681,5.73995,-1.02611
189,-657,5.92126,1.44116,0,0,0,0,0,0,0,-1,1413,1681,5.92126,-1.44115
196,-657,4.92834,9.59021,0,0,0,0,0,0,0,-1,1420,1681,4.9284,-9.59018
203,-657,6.26343,5.16492,0,0,0,0,0,0,0,-1,1427,1681,6.26345,-5.16488
210,-657,3.9856,5.28088,0,0,0,0,0,0,0,-1,1434,1681,3.98555,-5.28084
217,-657,3.95178,5.2843,0,0,0,0,0,0,0,-1,1441,1681,3.95174,-5.28431
224,-657,6.66736,-0.250244,0,0,0,0,0,0,0,-1,1448,1681,6.66737,0.250229
231,-657,6.85498,-1.70752,0,0,0,0,0,0,0,-1,1455,1681,6.855,1.70758
238,-657,5.34143,-2.89819,0,0,0,0,0,0,0,-1,1462,1681,5.34143,2.89813
245,-657,8.66003,-0.102783,0,0,0,0,0,0,0,-1,1469,1681,8.66,0.102824
252,-657,4.78955,0.623779,0,0,0,0,0,0,0,-1,1476,1681,4.7895,-0.623826
259,-657,2.61523,4.31909,0,0,0,0,0,0,0,-1,1483,1681,2.61523,-4.31908
266,-657,5.35437,11.4742,0,0,0,0,0,0,0,-1,1490,1681,5.35441,-11.4742
273,-657,7.36877,22.7002,0,0,0,0,0,0,0,-1,1497,1681,7.36878,-22.7002
280,-657,7.26099,22.7577,0.00446629,-0.00237373,0.00186427,0.0049414,-0.00284884,0.249539,0.00455147,0.0469649,1504,1681,7.26093,-22.7577
287,-657,7.36084,22.6248,0.00377523,-0.00180572,0.00191182,0.00436733,-0.00239782,0.300335,0.00396065,0.0314115,1511,1681,7.36079,-22.6248
294,-657,7.38184,22.5032,0.00326566,-0.00155829,0.00186412,0.00390206,-0.00219468,0.328986,0.00356566,0.0235364,1518,1681,7.38187,-22.5032
301,-657,7.35828,22.382,0.00277955,-0.00132189,0.00177445,0.00344068,-0.00198302,0.356649,0.00316884,0.0162045,1525,1681,7.35834,-22.382
308,-657,7.38892,22.2073,0.00228415,-0.000675887,0.00146284,0.00288509,-0.00127682,0.389781,0.00246195,0.0120193,1532,1681,7.38898,-22.2073
315,-657,7.40564,22.0299,0.00184424,-0.00023046,0.00119647,0.00239043,-0.000776659,0.428255,0.00190601,0.0107047,1539,1681,7.40559,-22.0299
322,-657,7.42346,21.8301,0.00150183,0.000315341,0.000862461,0.00195538,-0.00013821,0.484136,0.00135201,0.0128922,1546,1681,7.42348,-21.8301
329,-657,7.42371,21.6742,0.00126204,0.000650853,0.000539072,0.00157611,0.000336781,0.527539,0.000958413,0.0185798,1553,1681,7.42368,-21.6742
336,-657,7.4281,21.4812,0.00105495,0.000872877,0.000298821,0.00127629,0.000651531,0.63754,0.000736922,0.0165801,1560,1681,7.42805,-21.4812
343,-657,7.47583,21.2561,0.000934588,0.000953492,1.79119e-05,0.000964293,0.000923787,1.02818,0.000629794,0.0134371,1567,1681,7.47587,-21.2562
350,-657,7.46606,21.0566,0.00089326,0.000901389,-0.000203824,0.00110119,0.00069346,-0.795367,0.000642867,0.0149285,1574,1681,7.46607,-21.0566
357,-657,7.43372,20.8685,0.000864315,0.000755367,-0.000381063,0.00119478,0.000424904,-0.714403,0.000699324,0.0137929,1581,1681,7.43367,-20.8686
364,-657,7.43384,20.67,0.000889369,0.000406507,-0.000505641,0.00120826,8.76153e-05,-0.562665,0.000777949,0.0105698,1588,1681,7.43386,-20.67
371,-657,7.44434,20.4979,0.000913103,3.45669e-05,-0.000587406,0.00120732,-0.000259651,-0.464349,0.000903948,0.0147746,1595,1681,7.44437,-20.4979
378,-657,7.42627,20.2823,0.000911084,-0.000391281,-0.000667777,0.00119262,-0.000672818,-0.39899,0.00109086,0.0149203,1602,1681,7.4263,-20.2823
385,-657,7.41492,20.0458,0.000900389,-0.000642718,-0.000627219,0.00112317,-0.000865498,-0.341288,0.00115137,0.013775,1609,1681,7.41487,-20.0458
392,-657,7.41016,19.8358,0.000717026,-0.00104863,-0.000329777,0.000776609,-0.00110822,-0.178747,0.0010938,0.0134617,1616,1681,7.41011,-19.8358
399,-657,7.42957,19.5978,0.000447049,-0.00132577,-8.77449e-05,0.000451381,-0.0013301,-0.0493339,0.00106943,0.0123924,1623,1681,7.42952,-19.5977
406,-657,7.42554,19.3411,0.000325461,-0.00144994,0.000215108,0.000351152,-0.00147563,0.118869,0.00111932,0.013696,1630,1681,7.42552,-19.341
413,-657,7.40881,19.0981,0.000112427,-0.00168831,0.000634315,0.000313429,-0.00188932,0.306871,0.00137597,0.0138443,1637,1681,7.40882,-19.0981
420,-657,7.42651,18.8452,-0.000268988,-0.0024619,0.00131549,0.000347081,-0.00307797,0.437982,0.00217692,0.0150752,1644,1681,7.42657,-18.8452
427,-657,7.38,18.571,-0.000842438,-0.00364859,0.00211412,0.000291832,-0.00478286,0.492436,0.00329017,0.019905,1651,1681,7.38004,-18.5711
434,-657,7.4104,18.3959,-0.0012885,-0.00502318,0.00300411,0.000381339,-0.00669301,0.507324,0.0045944,0.0290155,1658,1681,7.41035,-18.3959
441,-657,7.43066,18.3987,-0.00211675,-0.00714631,0.0039136,2.03955e-05,-0.00928346,0.499829,0.00619578,0.0496538,1665,1681,7.43061,-18.3986
448,-657,7.02356,17.9927,0,0,0,0,0,0,0,-1,1672,1681,7.02362,-17.9927
455,-657,5.12244,16.671,0,0,0,0,0,0,0,-1,1679,1681,5.12248,-16.6711
462,-657,6.51733,15.4801,0,0,0,0,0,0,0,-1,1686,1681,6.51737,-15.4801
469,-657,7.38184,17.5225,0,0,0,0,0,0,0,-1,1693,1681,7.38188,-17.5224
476,-657,7.34668,19.126,0,0,0,0,0,0,0,-1,1700,1681,7.34674,-19.1259
483,-657,9.39307,11.0643,0,0,0,0,0,0,0,-1,1707,1681,9.39309,-11.0644
490,-657,8.80066,10.4442,0,0,0,0,0,0,0,-1,1714,1681,8.80062,-10.4442
497,-657,3.43188,12.5037,0,0,0,0,0,0,0,-1,1721,1681,3.43183,-12.5037
504,-657,0,0,0,0,0,0,0,0,0,-1,1728,1681,0,0
511,-657,0,0,0,0,0,0,0,0,0,-1,1735,1681,0,0
518,-657,0,0,0,0,0,0,0,0,0,-1,1742,1681,0,0
525,-657,0,0,0,0,0,0,0,0,0,-1,1749,1681,0,0
532,-657,0,0,0,0,0,0,0,0,0,-1,1756,1681,0,0
539,-657,0,0,0,0,0,0,0,0,0,-1,1763,1681,0,0
546,-657,0,0,0,0,0,0,0,0,0,-1,1770,1681,0,0
553,-657,0,0,0,0,0,0,0,0,0,-1,1777,1681,0,0
560,-657,0,0,0,0,0,0,0,0,0,-1,1784,1681,0,0
567,-657,0,0,0,0,0,0,0,0,0,-1,1791,1681,0,0
574,-657,0,0,0,0,0,0,0,0,0,-1,1798,1681,0,0
581,-657,0,0,0,0,0,0,0,0,0,-1,1805,1681,0,0
588,-657,0,0,0,0,0,0,0,0,0,-1,1812,1681,0,0
595,-657,0,0,0,0,0,0,0,0,0,-1,1819,1681,0,0
602,-657,0,0,0,0,0,0,0,0,0,-1,1826,1681,0,0
609,-657,0,0,0,0,0,0,0,0,0,-1,1833,1681,0,0
616,-657,0,0,0,0,0,0,0,0,0,-1,1840,1681,0,0
623,-657,0,0,0,0,0,0,0,0,0,-1,1847,1681,0,0
630,-657,0,0,0,0,0,0,0,0,0,-1,1854,1681,0,0
637,-657,0,0,0,0,0,0,0,0,0,-1,1861,1681,0,0
644,-657,0,0,0,0,0,0,0,0,0,-1,1868,1681,0,0
651,-657,0,0,0,0,0,0,0,0,0,-1,1875,1681,0,0
658,-657,0,0,0,0,0,0,0,0,0,-1,1882,1681,0,0
665,-657,0,0,0,0,0,0,0,0,0,-1,1889,1681,0,0
672,-657,0,0,0,0,0,0,0,0,0,-1,1896,1681,0,0
679,-657,0,0,0,0,0,0,0,0,0,-1,1903,1681,0,0
686,-657,0,0,0,0,0,0,0,0,0,-1,1910,1681,0,0
693,-657,0,0,0,0,0,0,0,0,0,-1,1917,1681,0,0
700,-657,0,0,0,0,0,0,0,0,0,-1,1924,1681,0,0
707,-657,0,0,0,0,0,0,0,0,0,-1,1931,1681,0,0
714,-657,0,0,0,0,0,0,0,0,0,-1,1938,1681,0,0
721,-657,0,0,0,0,0,0,0,0,0,-1,1945,1681,0,0
728,-657,0,0,0,0,0,0,0,0,0,-1,1952,1681,0,0
735,-657,0,0,0,0,0,0,0,0,0,-1,1959,1681,0,0
742,-657,0,0,0,0,0,0,0,0,0,-1,1966,1681,0,0
749,-657,0,0,0,0,0,0,0,0,0,-1,1973,1681,0,0
756,-657,0,0,0,0,0,0,0,0,0,-1,1980,1681,0,0
763,-657,0,0,0,0,0,0,0,0,0,-1,1987,1681,0,0
770,-657,0,0,0,0,0,0,0,0,0,-1,1994,1681,0,0
777,-657,0,0,0,0,0,0,0,0,0,-1,2001,1681,0,0
784,-657,0,0,0,0,0,0,0,0,0,-1,2008,1681,0,0
791,-657,0,0,0,0,0,0,0,0,0,-1,2015,1681,0,0
798,-657,0,0,0,0,0,0,0,0,0,-1,2022,1681,0,0
805,-657,0,0,0,0,0,0,0,0,0,-1,2029,1681,0,0
812,-657,0,0,0,0,0,0,0,0,0,-1,2036,1681,0,0
-700,-664,0,0,0,0,0,0,0,0,0,-1,524,1688,0,0
-693,-664,0,0,0,0,0,0,0,0,0,-1,531,1688,0,0
-686,-664,0,0,0,0,0,0,0,0,0,-1,538,1688,0,0
-679,-664,0,0,0,0,0,0,0,0,0,-1,545,1688,0,0
-672,-664,0,0,0,0,0,0,0,0,0,-1,552,1688,0,0
-665,-664,0,0,0,0,0,0,0,0,0,-1,559,1688,0,0
-658,-664,0,0,0,0,0,0,0,0,0,-1,566,1688,0,0
-651,-664,0,0,0,0,0,0,0,0,0,-1,573,1688,0,0
-644,-664,0,0,0,0,0,0,0,0,0,-1,580,1688,0,0
-637,-664,0,0,0,0,0,0,0,0,0,-1,587,1688,0,0
-630,-664,0,0,0,0,0,0,0,0,0,-1,594,1688,0,0
-623,-664,0,0,0,0,0,0,0,0,0,-1,601,1688,0,0
-616,-664,0,0,0,0,0,0,0,0,0,-1,608,1688,0,0
-609,-664,0,0,0,0,0,0,0,0,0,-1,615,1688,0,0
-602,-664,0,0,0,0,0,0,0,0,0,-1,622,1688,0,0
-595,-664,0,0,0,0,0,0,0,0,0,-1,629,1688,0,0
-588,-664,0,0,0,0,0,0,0,0,0,-1,636,1688,0,0
-581,-664,0,0,0,0,0,0,0,0,0,-1,643,1688,0,0
-574,-664,0,0,0,0,0,0,0,0,0,-1,650,1688,0,0
-567,-664,0,0,0,0,0,0,0,0,0,-1,657,1688,0,0
-560,-664,0,0,0,0,0,0,0,0,0,-1,664,1688,0,0
-553,-664,0,0,0,0,0,0,0,0,0,-1,671,1688,0,0
-546,-664,0,0,0,0,0,0,0,0,0,-1,678,1688,0,0
-539,-664,0,0,0,0,0,0,0,0,0,-1,685,1688,0,0
-532,-664,0,0,0,0,0,0,0,0,0,-1,692,1688,0,0
-525,-664,0,0,0,0,0,0,0,0,0,-1,699,1688,0,0
-518,-664,0,0,0,0,0,0,0,0,0,-1,706,1688,0,0
-511,-664,0,0,0,0,0,0,0,0,0,-1,713,1688,0,0
-504,-664,0,0,0,0,0,0,0,0,0,-1,720,1688,0,0
-497,-664,0,0,0,0,0,0,0,0,0,-1,727,1688,0,0
-490,-664,0,0,0,0,0,0,0,0,0,-1,734,1688,0,0
-483,-664,0,0,0,0,0,0,0,0,0,-1,741,1688,0,0
-476,-664,0,0,0,0,0,0,0,0,0,-1,748,1688,0,0
-469,-664,0,0,0,0,0,0,0,0,0,-1,755,1688,0,0
-462,-664,0,0,0,0,0,0,0,0,0,-1,762,1688,0,0
-455,-664,0,0,0,0,0,0,0,0,0,-1,769,1688,0,0
-448,-664,0,0,0,0,0,0,0,0,0,-1,776,1688,0,0
-441,-664,0,0,0,0,0,0,0,0,0,-1,783,1688,0,0
-434,-664,0,0,0,0,0,0,0,0,0,-1,790,1688,0,0
-427,-664,0,0,0,0,0,0,0,0,0,-1,797,1688,0,0
-420,-664,0,0,0,0,0,0,0,0,0,-1,804,1688,0,0
-413,-664,0,0,0,0,0,0,0,0,0,-1,811,1688,0,0
-406,-664,0,0,0,0,0,0,0,0,0,-1,818,1688,0,0
-399,-664,0,0,0,0,0,0,0,0,0,-1,825,1688,0,0
-392,-664,0,0,0,0,0,0,0,0,0,-1,832,1688,0,0
-385,-664,0,0,0,0,0,0,0,0,0,-1,839,1688,0,0
-378,-664,0,0,0,0,0,0,0,0,0,-1,846,1688,0,0
-371,-664,-1.61676,5.92737,0,0,0,0,0,0,0,-1,853,1688,-1.61675,-5.92735
-364,-664,-3.901,5.87024,0,0,0,0,0,0,0,-1,860,1688,-3.90097,-5.87027
-357,-664,-4.81012,4.53479,0,0,0,0,0,0,0,-1,867,1688,-4.81012,-4.5348
-350,-664,-5.7193,3.19934,0,0,0,0,0,0,0,-1,874,1688,-5.71927,-3.19932
-343,-664,2.42603,15.0261,0,0,0,0,0,0,0,-1,881,1688,2.42605,-15.0261
-336,-664,2.86487,15.2523,0,0,0,0,0,0,0,-1,888,1688,2.86489,-15.2524
-329,-664,3.44025,15.37,0,0,0,0,0,0,0,-1,895,1688,3.44027,-15.37
-322,-664,4.76733,16.7462,0,0,0,0,0,0,0,-1,902,1688,4.76733,-16.7462
-315,-664,4.58234,17.6807,0,0,0,0,0,0,0,-1,909,1688,4.58232,-17.6807
-308,-664,4.49054,17.3966,0,0,0,0,0,0,0,-1,916,1688,4.49056,-17.3966
-301,-664,4.65466,17.4873,0.00132094,0.000519403,0.00203704,0.00299626,-0.00115592,0.688269,0.00247451,0.0491632,923,1688,4.65469,-17.4872
-294,-664,4.90466,17.6626,0.00102385,0.00121171,0.00143084,0.0025517,-0.000316143,0.818176,0.00181571,0.0443764,930,1688,4.90467,-17.6626
-287,-664,4.7901,18.0634,0.000484465,0.0015828,0.000905473,0.00209262,-2.53608e-05,1.05799,0.00140361,0.0305243,937,1688,4.79012,-18.0634
-280,-664,4.66284,18.3314,-0.000697215,0.00103572,0.000152459,0.00104903,-0.000710525,1.48371,0.00102213,0.0216801,944,1688,4.66282,-18.3315
-273,-664,4.69196,18.5394,-0.00137059,0.000568298,-0.00023865,0.000597241,-0.00139953,-1.45011,0.00118345,0.0166147,951,1688,4.69198,-18.5395
-266,-664,4.67078,18.7736,-0.00153329,0.000190073,-0.00062102,0.00039054,-0.00173376,-1.25855,0.00130563,0.0233877,958,1688,4.6708,-18.7736
-259,-664,4.63702,19.0225,-0.00174554,3.8716e-05,-0.000905922,0.000418038,-0.00212486,-1.17426,0.00157453,0.020029,965,1688,4.63705,-19.0225
-252,-664,4.64252,19.2787,-0.00195038,-0.000292913,-0.00112671,0.00027702,-0.00252032,-1.10249,0.00177975,0.0166143,972,1688,4.64249,-19.2787
-245,-664,4.64044,19.5656,-0.00202425,-0.000634016,-0.00124806,9.94467e-05,-0.00275771,-1.03948,0.0018725,0.0203026,979,1688,4.64046,-19.5656
-238,-664,4.66272,19.7963,-0.00175457,-0.000900526,-0.00119049,-6.2794e-05,-0.0025923,-0.957598,0.00170765,0.0230305,986,1688,4.6627,-19.7963
-231,-664,4.6355,19.9985,-0.00136331,-0.00127171,-0.00117985,-0.000136776,-0.00249824,-0.804796,0.00162183,0.0201373,993,1688,4.63548,-19.9985
-224,-664,4.60803,20.2604,-0.00091216,-0.00117633,-0.000996616,-3.89148e-05,-0.00204958,-0.719515,0.0013536,0.0142611,1000,1688,4.60804,-20.2604
-217,-664,4.61835,20.4662,-0.000511667,-0.000839194,-0.000841464,0.000181821,-0.00153268,-0.689291,0.00108747,0.0101772,1007,1688,4.61835,-20.4662
-210,-664,4.63068,20.6747,-5.07275e-05,-0.000631958,-0.00073647,0.000450393,-0.00113308,-0.597474,0.000942114,0.0107674,1014,1688,4.63069,-20.6747
-203,-664,4.60583,20.8853,0.000355349,-0.000513487,-0.000772216,0.000806954,-0.000965092,-0.52918,0.00102445,0.0131527,1021,1688,4.6059,-20.8853
-196,-664,4.59949,21.0707,0.000593286,-0.000340896,-0.000806951,0.00105858,-0.000806191,-0.523042,0.00107991,0.0142708,1028,1688,4.5995,-21.0707
-189,-664,4.62476,21.267,0.00074105,-0.000229139,-0.000946163,0.00131922,-0.000807314,-0.548522,0.00123956,0.00989839,1035,1688,4.62474,-21.2669
-182,-664,4.63416,21.4968,0.00100055,-8.30431e-05,-0.00118368,0.00176054,-0.000843033,-0.57077,0.00153397,0.00971213,1042,1688,4.63421,-21.4968
-175,-664,4.63599,21.6621,0.00144967,-2.80904e-05,-0.00139369,0.00228823,-0.000866652,-0.541657,0.0018821,0.0131462,1049,1688,4.63599,-21.6621
-168,-664,4.64807,21.8247,0.0018204,6.31923e-05,-0.00157958,0.00274929,-0.000865693,-0.531593,0.0021795,0.0134992,1056,1688,4.64811,-21.8247
-161,-664,4.64929,22.0325,0.00229844,0.000163856,-0.00172804,0.00326221,-0.00079992,-0.508757,0.00248475,0.0100731,1063,1688,4.64926,-22.0324
-154,-664,4.67188,22.2225,0.00296047,0.000220424,-0.00184598,0.00388928,-0.000708382,-0.466164,0.00285839,0.00940929,1070,1688,4.67182,-22.2225
-147,-664,4.672,22.3938,0.00374183,0.000146812,-0.00192763,0.00458,-0.000691354,-0.410157,0.00330795,0.00997657,1077,1688,4.67203,-22.3938
-140,-664,4.69116,22.5751,0.00470389,5.83638e-05,-0.00192217,0.00539608,-0.000633827,-0.345653,0.0038262,0.0109526,1084,1688,4.69112,-22.5751
-133,-664,4.6908,22.7451,0.00586353,-7.41625e-05,-0.00166824,0.00630013,-0.000510762,-0.255972,0.00438028,0.0124954,1091,1688,4.69079,-22.7451
-126,-664,4.79663,22.9951,0.00721629,4.21974e-05,-0.00114436,0.0073944,-0.00013592,-0.154409,0.00497553,0.022495,1098,1688,4.79667,-22.9952
-119,-664,4.93677,23.1337,0.00878436,-0.000136084,-0.000608121,0.00882562,-0.000177351,-0.0677539,0.00594375,0.0395806,1105,1688,4.93674,-23.1337
-112,-664,4.96057,23.3407,0,0,0,0,0,0,0,-1,1112,1688,4.96062,-23.3407
-105,-664,4.48108,21.4276,0,0,0,0,0,0,0,-1,1119,1688,4.48104,-21.4276
-98,-664,4.98584,19.8645,0,0,0,0,0,0,0,-1,1126,1688,4.98586,-19.8645
-91,-664,4.61377,19.9204,0,0,0,0,0,0,0,-1,1133,1688,4.61377,-19.9204
-84,-664,3.48389,16.6913,0,0,0,0,0,0,0,-1,1140,1688,3.4839,-16.6913
-77,-664,4.52014,11.2122,0,0,0,0,0,0,0,-1,1147,1688,4.5202,-11.2122
-70,-664,4.20374,8.24524,0,0,0,0,0,0,0,-1,1154,1688,4.20379,-8.24519
-63,-664,-4.677,2.40503,0,0,0,0,0,0,0,-1,1161,1688,-4.67702,-2.40498
-56,-664,-4.66504,3.32727,0,0,0,0,0,0,0,-1,1168,1688,-4.6651,-3.32724
-49,-664,-2.54297,3.31848,0,0,0,0,0,0,0,-1,1175,1688,-2.54297,-3.31852
-42,-664,-0.359253,4.38684,0,0,0,0,0,0,0,-1,1182,1688,-0.359261,-4.38685
-35,-664,-0.705566,3.55017,0,0,0,0,0,0,0,-1,1189,1688,-0.705567,-3.55023
-28,-664,-1.54236,10.2538,0,0,0,0,0,0,0,-1,1196,1688,-1.54236,-10.2538
-21,-664,5.03235,24.3628,0,0,0,0,0,0,0,-1,1203,1688,5.0324,-24.3628
-14,-664,5.21484,24.3341,0,0,0,0,0,0,0,-1,1210,1688,5.21479,-24.3341
-7,-664,5.39722,24.3053,0,0,0,0,0,0,0,-1,1217,1688,5.39718,-24.3053
0,-664,9.56628,27.7026,0,0,0,0,0,0,0,-1,1224,1688,9.56623,-27.7027
7,-664,6.51477,25.979,0,0,0,0,0,0,0,-1,1231,1688,6.51473,-25.979
14,-664,6.30212,25.9352,0,0,0,0,0,0,0,-1,1238,1688,6.30218,-25.9351
21,-664,5.58667,26.4805,-0.0638966,0.0713349,0.0264337,0.0763183,-0.0688799,1.38446,0.0838669,0.0465938,1245,1688,5.58669,-26.4804
28,-664,5.14478,26.6672,-0.063123,0.0849839,0.0300656,0.0908545,-0.0689936,1.37796,0.0925756,0.044609,1252,1688,5.1448,-26.6673
35,-664,4.7019,26.9561,-0.0607046,0.0946064,0.0322741,0.101046,-0.0671443,1.37385,0.0977601,0.044249,1259,1688,4.70185,-26.956
42,-664,4.94312,29.4473,-0.058928,0.101211,0.0331781,0.107813,-0.0655298,1.37438,0.101067,0.0474425,1266,1688,4.94306,-29.4472
49,-664,4.5708,29.9076,-0.0560404,0.10428,0.0330189,0.110814,-0.0625746,1.37543,0.101389,0.0457468,1273,1688,4.57079,-29.9076
56,-664,4.14368,29.7389,0,0,0,0,0,0,0,-1,1280,1688,4.14373,-29.7389
63,-664,3.38977,30.0732,0,0,0,0,0,0,0,-1,1287,1688,3.3898,-30.0732
70,-664,1.96167,29.728,0,0,0,0,0,0,0,-1,1294,1688,1.9617,-29.7281
77,-664,5.52368,33.5295,0,0,0,0,0,0,0,-1,1301,1688,5.52372,-33.5295
84,-664,6.49365,23.1227,0,0,0,0,0,0,0,-1,1308,1688,6.49368,-23.1226
91,-664,5.3269,36.1049,0,0,0,0,0,0,0,-1,1315,1688,5.32686,-36.1049
98,-664,5.52637,37.2396,0,0,0,0,0,0,0,-1,1322,1688,5.52634,-37.2397
105,-664,4.99048,37.8619,0,0,0,0,0,0,0,-1,1329,1688,4.99042,-37.8619
112,-664,5.01917,23.5629,0,0,0,0,0,0,0,-1,1336,1688,5.01916,-23.5629
119,-664,5.60718,24.2668,0,0,0,0,0,0,0,-1,1343,1688,5.60722,-24.2669
126,-664,4.40698,21.801,0,0,0,0,0,0,0,-1,1350,1688,4.407,-21.801
133,-664,6.89539,24.0583,0,0,0,0,0,0,0,-1,1357,1688,6.89539,-24.0583
140,-664,6.80334,24.1648,0,0,0,0,0,0,0,-1,1364,1688,6.80329,-24.1647
147,-664,6.71118,24.2711,0,0,0,0,0,0,0,-1,1371,1688,6.71119,-24.2712
154,-664,3.51733,19.4696,0,0,0,0,0,0,0,-1,1378,1688,3.51739,-19.4697
161,-664,4.60132,1.56238,0,0,0,0,0,0,0,-1,1385,1688,4.60134,-1.56233
168,-664,5.172,1.25488,0,0,0,0,0,0,0,-1,1392,1688,5.17203,-1.25484
175,-664,5.58313,1.16467,0,0,0,0,0,0,0,-1,1399,1688,5.58317,-1.16466
182,-664,5.74268,1.41113,0,0,0,0,0,0,0,-1,1406,1688,5.74263,-1.41115
189,-664,5.87744,1.87061,0,0,0,0,0,0,0,-1,1413,1688,5.87745,-1.87065
196,-664,6.7594,5.97473,0,0,0,0,0,0,0,-1,1420,1688,6.75943,-5.97478
203,-664,5.38452,5.22034,0,0,0,0,0,0,0,-1,1427,1688,5.38453,-5.2203
210,-664,5.25549,6.45715,0,0,0,0,0,0,0,-1,1434,1688,5.25549,-6.45721
217,-664,5.72009,6.73975,0,0,0,0,0,0,0,-1,1441,1688,5.72014,-6.73972
224,-664,5.05725,7.42908,0,0,0,0,0,0,0,-1,1448,1688,5.05723,-7.42912
231,-664,5.13318,7.60864,0,0,0,0,0,0,0,-1,1455,1688,5.13313,-7.60862
238,-664,4.23193,6.45471,0,0,0,0,0,0,0,-1,1462,1688,4.23197,-6.45476
245,-664,4.42004,6.80896,0,0,0,0,0,0,0,-1,1469,1688,4.4201,-6.80901
252,-664,3.67346,6.85461,0,0,0,0,0,0,0,-1,1476,1688,3.6734,-6.85462
259,-664,4.55823,11.7435,0,0,0,0,0,0,0,-1,1483,1688,4.55826,-11.7435
266,-664,6.9762,22.5894,0,0,0,0,0,0,0,-1,1490,1688,6.97621,-22.5893
273,-664,7.1355,22.806,0,0,0,0,0,0,0,-1,1497,1688,7.13551,-22.8061
280,-664,7.16406,22.7813,0.00335596,-0.00206239,0.00137973,0.00368707,-0.00239349,0.235523,0.00353699,0.0258651,1504,1688,7.16409,-22.7813
287,-664,7.1438,22.626,0.00291529,-0.00147382,0.00137612,0.00331106,-0.00186959,0.28004,0.0030294,0.0197646,1511,1688,7.14375,-22.626
294,-664,7.17944,22.4888,0.00255701,-0.00123876,0.0013249,0.00297371,-0.00165547,0.304722,0.00270854,0.014213,1518,1688,7.1794,-22.4888
301,-664,7.21313,22.3385,0.00218551,-0.00106115,0.0012501,0.00261107,-0.00148672,0.328116,0.00239536,0.00997452,1525,1688,7.21314,-22.3385
308,-664,7.23035,22.1743,0.00180135,-0.000604314,0.00103202,0.00218341,-0.000986367,0.354556,0.00187306,0.0101052,1532,1688,7.23038,-22.1743
315,-664,7.22656,22.0178,0.00146779,-0.000317636,0.000838871,0.00180009,-0.000649929,0.377157,0.00146555,0.0114902,1539,1688,7.22652,-22.0178
322,-664,7.25049,21.8708,0.00119176,2.74281e-05,0.00059467,0.00144179,-0.000222602,0.398012,0.00104334,0.0150764,1546,1688,7.25049,-21.8709
329,-664,7.2428,21.7272,0.000980773,0.000156399,0.00034073,0.00110337,3.38004e-05,0.345387,0.000724577,0.0168069,1553,1688,7.24274,-21.7272
336,-664,7.23376,21.4896,0.000828649,0.000238792,0.000159159,0.000868854,0.000198587,0.247432,0.000525696,0.0136466,1560,1688,7.23373,-21.4896
343,-664,7.24854,21.2484,0.000777327,0.000203556,-9.17474e-05,0.000791641,0.000189243,-0.154763,0.000477352,0.0111951,1567,1688,7.24855,-21.2484
350,-664,7.24048,21.0712,0.000766672,-1.11914e-06,-0.000276318,0.000855775,-9.02221e-05,-0.311937,0.000602845,0.012701,1574,1688,7.24053,-21.0711
357,-664,7.22021,20.8766,0.000812066,-0.000212814,-0.000444895,0.000978247,-0.000378995,-0.35748,0.000808663,0.0121394,1581,1688,7.22018,-20.8766
364,-664,7.23584,20.6538,0.000906398,-0.00063455,-0.00055882,0.00108772,-0.000815869,-0.31375,0.00110277,0.0101119,1588,1688,7.23587,-20.6538
371,-664,7.25732,20.4736,0.00098784,-0.00105156,-0.00066052,0.00118308,-0.0012468,-0.287399,0.00140305,0.0128817,1595,1688,7.25727,-20.4736
378,-664,7.24231,20.2828,0.00103572,-0.00153565,-0.000764767,0.00124598,-0.00174592,-0.268305,0.00173539,0.0133257,1602,1688,7.24233,-20.2828
385,-664,7.22791,20.0543,0.00104304,-0.00170838,-0.000707588,0.00121435,-0.00187969,-0.237528,0.00180006,0.0140971,1609,1688,7.22793,-20.0543
392,-664,7.18762,19.8646,0.000894487,-0.00203297,-0.000361032,0.000938355,-0.00207684,-0.120913,0.00178171,0.0157077,1616,1688,7.18768,-19.8646
399,-664,7.19995,19.6249,0.000659519,-0.00233584,-6.06005e-05,0.000660745,-0.00233707,-0.0202204,0.00181875,0.0139345,1623,1688,7.1999,-19.6248
406,-664,7.23108,19.3462,0.00055732,-0.00244349,0.000339334,0.000595214,-0.00248138,0.11121,0.00188426,0.0150606,1630,1688,7.2311,-19.3462
413,-664,7.25854,19.0818,0.000286013,-0.00257989,0.000892446,0.0005412,-0.00283507,0.278509,0.00209389,0.0168216,1637,1688,7.25858,-19.0817
420,-664,7.27393,18.8301,-0.000226473,-0.00331755,0.00184947,0.000638222,-0.00418225,0.437342,0.00302344,0.0328207,1644,1688,7.27393,-18.8301
427,-664,7.19995,18.6184,-0.000990888,-0.00452464,0.00304199,0.000760128,-0.00627565,0.522296,0.00445879,0.0481899,1651,1688,7.19998,-18.6184
434,-664,7.1615,18.1794,-0.00164613,-0.00590711,0.00439054,0.00110352,-0.00865677,0.559511,0.00617199,0.0475615,1658,1688,7.16146,-18.1794
441,-664,7.10718,18.3868,-0.00279981,-0.00821209,0.00580828,0.000901801,-0.0119137,0.567395,0.00825949,0.0489043,1665,1688,7.10713,-18.3869
448,-664,7.30334,18.5631,0,0,0,0,0,0,0,-1,1672,1688,7.3034,-18.5631
455,-664,7.53198,11.3838,0,0,0,0,0,0,0,-1,1679,1688,7.53195,-11.3838
462,-664,4.3147,4.25439,0,0,0,0,0,0,0,-1,1686,1688,4.31467,-4.25435
469,-664,6.05469,7.49341,0,0,0,0,0,0,0,-1,1693,1688,6.05474,-7.49339
476,-664,9.76514,11.5648,0,0,0,0,0,0,0,-1,1700,1688,9.76511,-11.5648
483,-664,8.41895,10.9768,0,0,0,0,0,0,0,-1,1707,1688,8.41897,-10.9769
490,-664,3.90771,13.2842,0,0,0,0,0,0,0,-1,1714,1688,3.90776,-13.2841
497,-664,0,0,0,0,0,0,0,0,0,-1,1721,1688,0,0
504,-664,0,0,0,0,0,0,0,0,0,-1,1728,1688,0,0
511,-664,0,0,0,0,0,0,0,0,0,-1,1735,1688,0,0
518,-664,0,0,0,0,0,0,0,0,0,-1,1742,1688,0,0
525,-664,0,0,0,0,0,0,0,0,0,-1,1749,1688,0,0
532,-664,0,0,0,0,0,0,0,0,0,-1,1756,1688,0,0
539,-664,0,0,0,0,0,0,0,0,0,-1,1763,1688,0,0
546,-664,0,0,0,0,0,0,0,0,0,-1,1770,1688,0,0
553,-664,0,0,0,0,0,0,0,0,0,-1,1777,1688,0,0
560,-664,0,0,0,0,0,0,0,0,0,-1,1784,1688,0,0
567,-664,0,0,0,0,0,0,0,0,0,-1,1791,1688,0,0
574,-664,0,0,0,0,0,0,0,0,0,-1,1798,1688,0,0
581,-664,0,0,0,0,0,0,0,0,0,-1,1805,1688,0,0
588,-664,0,0,0,0,0,0,0,0,0,-1,1812,1688,0,0
595,-664,0,0,0,0,0,0,0,0,0,-1,1819,1688,0,0
602,-664,0,0,0,0,0,0,0,0,0,-1,1826,1688,0,0
609,-664,0,0,0,0,0,0,0,0,0,-1,1833,1688,0,0
616,-664,0,0,0,0,0,0,0,0,0,-1,1840,1688,0,0
623,-664,0,0,0,0,0,0,0,0,0,-1,1847,1688,0,0
630,-664,0,0,0,0,0,0,0,0,0,-1,1854,1688,0,0
637,-664,0,0,0,0,0,0,0,0,0,-1,1861,1688,0,0
644,-664,0,0,0,0,0,0,0,0,0,-1,1868,1688,0,0
651,-664,0,0,0,0,0,0,0,0,0,-1,1875,1688,0,0
658,-664,0,0,0,0,0,0,0,0,0,-1,1882,1688,0,0
665,-664,0,0,0,0,0,0,0,0,0,-1,1889,1688,0,0
672,-664,0,0,0,0,0,0,0,0,0,-1,1896,1688,0,0
679,-664,0,0,0,0,0,0,0,0,0,-1,1903,1688,0,0
686,-664,0,0,0,0,0,0,0,0,0,-1,1910,1688,0,0
693,-664,0,0,0,0,0,0,0,0,0,-1,1917,1688,0,0
700,-664,0,0,0,0,0,0,0,0,0,-1,1924,1688,0,0
707,-664,0,0,0,0,0,0,0,0,0,-1,1931,1688,0,0
714,-664,0,0,0,0,0,0,0,0,0,-1,1938,1688,0,0
721,-664,0,0,0,0,0,0,0,0,0,-1,1945,1688,0,0
728,-664,0,0,0,0,0,0,0,0,0,-1,1952,1688,0,0
735,-664,0,0,0,0,0,0,0,0,0,-1,1959,1688,0,0
742,-664,0,0,0,0,0,0,0,0,0,-1,1966,1688,0,0
749,-664,0,0,0,0,0,0,0,0,0,-1,1973,1688,0,0
756,-664,0,0,0,0,0,0,0,0,0,-1,1980,1688,0,0
763,-664,0,0,0,0,0,0,0,0,0,-1,1987,1688,0,0
770,-664,0,0,0,0,0,0,0,0,0,-1,1994,1688,0,0
777,-664,0,0,0,0,0,0,0,0,0,-1,2001,1688,0,0
784,-664,0,0,0,0,0,0,0,0,0,-1,2008,1688,0,0
791,-664,0,0,0,0,0,0,0,0,0,-1,2015,1688,0,0
798,-664,0,0,0,0,0,0,0,0,0,-1,2022,1688,0,0
805,-664,0,0,0,0,0,0,0,0,0,-1,2029,1688,0,0
812,-664,0,0,0,0,0,0,0,0,0,-1,2036,1688,0,0
-700,-671,0,0,0,0,0,0,0,0,0,-1,524,1695,0,0
-693,-671,0,0,0,0,0,0,0,0,0,-1,531,1695,0,0
-686,-671,0,0,0,0,0,0,0,0,0,-1,538,1695,0,0
-679,-671,0,0,0,0,0,0,0,0,0,-1,545,1695,0,0
-672,-671,0,0,0,0,0,0,0,0,0,-1,552,1695,0,0
-665,-671,0,0,0,0,0,0,0,0,0,-1,559,1695,0,0
-658,-671,0,0,0,0,0,0,0,0,0,-1,566,1695,0,0
-651,-671,0,0,0,0,0,0,0,0,0,-1,573,1695,0,0
-644,-671,0,0,0,0,0,0,0,0,0,-1,580,1695,0,0
-637,-671,0,0,0,0,0,0,0,0,0,-1,587,1695,0,0
-630,-671,0,0,0,0,0,0,0,0,0,-1,594,1695,0,0
-623,-671,0,0,0,0,0,0,0,0,0,-1,601,1695,0,0
-616,-671,0,0,0,0,0,0,0,0,0,-1,608,1695,0,0
-609,-671,0,0,0,0,0,0,0,0,0,-1,615,1695,0,0
-602,-671,0,0,0,0,0,0,0,0,0,-1,622,1695,0,0
-595,-671,0,0,0,0,0,0,0,0,0,-1,629,1695,0,0
-588,-671,0,0,0,0,0,0,0,0,0,-1,636,1695,0,0
-581,-671,0,0,0,0,0,0,0,0,0,-1,643,1695,0,0
-574,-671,0,0,0,0,0,0,0,0,0,-1,650,1695,0,0
-567,-671,0,0,0,0,0,0,0,0,0,-1,657,1695,0,0
-560,-671,0,0,0,0,0,0,0,0,0,-1,664,1695,0,0
-553,-671,0,0,0,0,0,0,0,0,0,-1,671,1695,0,0
-546,-671,0,0,0,0,0,0,0,0,0,-1,678,1695,0,0
-539,-671,0,0,0,0,0,0,0,0,0,-1,685,1695,0,0
-532,-671,0,0,0,0,0,0,0,0,0,-1,692,1695,0,0
-525,-671,0,0,0,0,0,0,0,0,0,-1,699,1695,0,0
-518,-671,0,0,0,0,0,0,0,0,0,-1,706,1695,0,0
-511,-671,0,0,0,0,0,0,0,0,0,-1,713,1695,0,0
-504,-671,0,0,0,0,0,0,0,0,0,-1,720,1695,0,0
-497,-671,0,0,0,0,0,0,0,0,0,-1,727,1695,0,0
-490,-671,0,0,0,0,0,0,0,0,0,-1,734,1695,0,0
-483,-671,0,0,0,0,0,0,0,0,0,-1,741,1695,0,0
-476,-671,0,0,0,0,0,0,0,0,0,-1,748,1695,0,0
-469,-671,0,0,0,0,0,0,0,0,0,-1,755,1695,0,0
-462,-671,0,0,0,0,0,0,0,0,0,-1,762,1695,0,0
-455,-671,0,0,0,0,0,0,0,0,0,-1,769,1695,0,0
-448,-671,0,0,0,0,0,0,0,0,0,-1,776,1695,0,0
-441,-671,0,0,0,0,0,0,0,0,0,-1,783,1695,0,0
-434,-671,0,0,0,0,0,0,0,0,0,-1,790,1695,0,0
-427,-671,0,0,0,0,0,0,0,0,0,-1,797,1695,0,0
-420,-671,0,0,0,0,0,0,0,0,0,-1,804,1695,0,0
-413,-671,0,0,0,0,0,0,0,0,0,-1,811,1695,0,0
-406,-671,0,0,0,0,0,0,0,0,0,-1,818,1695,0,0
-399,-671,0,0,0,0,0,0,0,0,0,-1,825,1695,0,0
-392,-671,0,0,0,0,0,0,0,0,0,-1,832,1695,0,0
-385,-671,0,0,0,0,0,0,0,0,0,-1,839,1695,0,0
-378,-671,0,0,0,0,0,0,0,0,0,-1,846,1695,0,0
-371,-671,0,0,0,0,0,0,0,0,0,-1,853,1695,0,0
-364,-671,-4.18738,7.51416,0,0,0,0,0,0,0,-1,860,1695,-4.18739,-7.51419
-357,-671,-5.02393,6.07129,0,0,0,0,0,0,0,-1,867,1695,-5.0239,-6.07135
-350,-671,-5.72333,4.58386,0,0,0,0,0,0,0,-1,874,1695,-5.72333,-4.58386
-343,-671,-6.4884,3.11353,0,0,0,0,0,0,0,-1,881,1695,-6.48839,-3.11349
-336,-671,3.0163,15.2433,0,0,0,0,0,0,0,-1,888,1695,3.01632,-15.2433
-329,-671,3.9389,15.3644,0,0,0,0,0,0,0,-1,895,1695,3.93891,-15.3643
-322,-671,5.02826,13.2017,0,0,0,0,0,0,0,-1,902,1695,5.02824,-13.2016
-315,-671,4.73199,18.0476,0,0,0,0,0,0,0,-1,909,1695,4.732,-18.0476
-308,-671,3.51465,17.1259,0,0,0,0,0,0,0,-1,916,1695,3.51463,-17.1259
-301,-671,4.95538,17.3987,0,0,0,0,0,0,0,-1,923,1695,4.95537,-17.3986
-294,-671,5.30396,17.4772,0,0,0,0,0,0,0,-1,930,1695,5.30396,-17.4771
-287,-671,5.04706,17.5496,0.000997984,0.00250307,0.00112153,0.00310114,0.000399918,1.0809,0.00194785,0.0440051,937,1695,5.04705,-17.5496
-280,-671,5.06915,18.2368,-0.000897159,0.00134166,-6.50008e-05,0.00134354,-0.000899044,-1.5418,0.00130321,0.038888,944,1695,5.06917,-18.2368
-273,-671,5.04059,18.5211,-0.00206169,0.000504907,-0.000641358,0.000656249,-0.00221304,-1.33906,0.00173596,0.0349644,951,1695,5.04057,-18.5211
-266,-671,5.04688,18.8621,-0.0023812,-8.91624e-05,-0.00114516,0.000384928,-0.00285529,-1.17828,0.00204395,0.0254601,958,1695,5.0469,-18.8621
-259,-671,4.87115,19.0615,-0.00277686,-0.000372843,-0.00151377,0.000358105,-0.00350781,-1.12095,0.00246659,0.0235963,965,1695,4.87115,-19.0615
-252,-671,4.85852,19.2896,-0.0031439,-0.000811006,-0.00178671,0.000156308,-0.00411121,-1.07458,0.00279437,0.017422,972,1695,4.85854,-19.2895
-245,-671,4.84845,19.5596,-0.00333579,-0.00121335,-0.00193543,-6.72892e-05,-0.00448185,-1.03617,0.00296572,0.0193673,979,1695,4.84844,-19.5595
-238,-671,4.87903,19.7961,-0.00312298,-0.00149065,-0.00185892,-0.000276616,-0.00433702,-0.992256,0.00280369,0.0193523,986,1695,4.87904,-19.7962
-231,-671,4.85095,20.0233,-0.00271627,-0.00184965,-0.00180424,-0.000427418,-0.00413851,-0.903247,0.00262814,0.0155278,993,1695,4.85092,-20.0233
-224,-671,4.82159,20.236,-0.00217108,-0.00168318,-0.00153436,-0.000373502,-0.00348076,-0.864235,0.00220657,0.0121887,1000,1695,4.82158,-20.236
-217,-671,4.82263,20.4431,-0.00167763,-0.0012172,-0.00130049,-0.000126702,-0.00276813,-0.873001,0.00180467,0.0111222,1007,1695,4.82266,-20.4432
-210,-671,4.84454,20.678,-0.0010708,-0.000941608,-0.00105317,4.89475e-05,-0.00206136,-0.816028,0.00139084,0.0107675,1014,1695,4.84456,-20.6779
-203,-671,4.79614,20.8838,-0.000515915,-0.000706883,-0.000934906,0.000328371,-0.00155117,-0.734509,0.00115918,0.0178269,1021,1695,4.79616,-20.8838
-196,-671,4.81738,21.0908,-0.000153031,-0.000479204,-0.000843849,0.000543346,-0.00117558,-0.689943,0.00101455,0.0158118,1028,1695,4.81743,-21.0909
-189,-671,4.85278,21.3026,0.00013677,-0.000331186,-0.000830049,0.000765188,-0.000959604,-0.648021,0.000997916,0.0128808,1035,1695,4.85274,-21.3026
-182,-671,4.82422,21.4984,0.000507571,-0.000157817,-0.000937866,0.00117,-0.00082025,-0.614955,0.00115497,0.0104658,1042,1695,4.8242,-21.4984
-175,-671,4.82568,21.672,0.0010729,1.63633e-05,-0.00100129,0.00167673,-0.000587466,-0.542661,0.00135672,0.0129157,1049,1695,4.82568,-21.672
-168,-671,4.84167,21.84,0.00144203,0.000160466,-0.0011037,0.00207748,-0.00047498,-0.522391,0.00156749,0.0140977,1056,1695,4.84168,-21.84
-161,-671,4.84644,22.038,0.00180435,0.000276071,-0.00116962,0.00243732,-0.0003569,-0.496044,0.00175598,0.0100141,1063,1695,4.84646,-22.0379
-154,-671,4.84753,22.209,0.00234966,0.000376526,-0.00121715,0.00292986,-0.000203675,-0.444826,0.00202455,0.00870701,1070,1695,4.84749,-22.209
-147,-671,4.84814,22.3806,0.00299041,0.000363096,-0.00124723,0.00348818,-0.000134676,-0.379733,0.00237162,0.00982029,1077,1695,4.84816,-22.3806
-140,-671,4.87146,22.5455,0.00371829,0.000339278,-0.00121821,0.00411168,-5.41147e-05,-0.312356,0.00275934,0.0110847,1084,1695,4.87151,-22.5456
-133,-671,4.88599,22.7095,0.0046062,0.000277223,-0.00100372,0.0048276,5.58228e-05,-0.217103,0.00319996,0.0135268,1091,1695,4.88604,-22.7094
-126,-671,4.9209,22.9067,0.0056615,0.000422203,-0.000565184,0.00572178,0.000361928,-0.106245,0.00369978,0.01743,1098,1695,4.92085,-22.9067
-119,-671,4.98413,23.1344,0.00682335,0.000353293,-0.000126798,0.00682584,0.000350809,-0.0195877,0.00443825,0.0312079,1105,1695,4.98416,-23.1344
-112,-671,5.09167,23.3158,0.00794779,0.000283402,0.000345294,0.00796332,0.000267878,0.0449304,0.00522188,0.0469029,1112,1695,5.09166,-23.3158
-105,-671,5.08484,23.3171,0,0,0,0,0,0,0,-1,1119,1695,5.08483,-23.3171
-98,-671,4.93164,23.326,0,0,0,0,0,0,0,-1,1126,1695,4.93169,-23.326
-91,-671,5.01904,23.2899,0,0,0,0,0,0,0,-1,1133,1695,5.01899,-23.2899
-84,-671,5.35461,23.559,0,0,0,0,0,0,0,-1,1140,1695,5.35456,-23.559
-77,-671,4.31763,16.489,0,0,0,0,0,0,0,-1,1147,1695,4.31757,-16.489
-70,-671,3.06067,10.7737,0,0,0,0,0,0,0,-1,1154,1695,3.0607,-10.7737
-63,-671,2.94592,6.90198,0,0,0,0,0,0,0,-1,1161,1695,2.94594,-6.90198
-56,-671,-3.07678,2.87976,0,0,0,0,0,0,0,-1,1168,1695,-3.07675,-2.87979
-49,-671,-1.05957,4.76917,0,0,0,0,0,0,0,-1,1175,1695,-1.05958,-4.76921
-42,-671,0.539307,3.7865,0,0,0,0,0,0,0,-1,1182,1695,0.539266,-3.78648
-35,-671,-0.272461,0.347534,0,0,0,0,0,0,0,-1,1189,1695,-0.272434,-0.347569
-28,-671,-10.4878,17.2009,0,0,0,0,0,0,0,-1,1196,1695,-10.4878,-17.2009
-21,-671,5.19678,24.3796,0,0,0,0,0,0,0,-1,1203,1695,5.19676,-24.3797
-14,-671,5.29321,24.359,-0.0450001,0.00479226,0.000431021,0.004796,-0.0450039,1.56214,0.0317223,0.0453911,1210,1695,5.29317,-24.359
-7,-671,5.3512,24.3041,-0.0464128,0.0119046,0.00439249,0.0122336,-0.0467418,1.49604,0.03594,0.0456601,1217,1695,5.35121,-24.304
0,-671,6.76416,25.2953,0,0,0,0,0,0,0,-1,1224,1695,6.76412,-25.2953
7,-671,6.25671,25.5746,-0.0491433,0.0351508,0.0147912,0.0376709,-0.0516634,1.40204,0.0517876,0.048092,1231,1695,6.25673,-25.5746
14,-671,5.9115,25.5836,-0.0501797,0.048659,0.0198693,0.0525037,-0.0540244,1.37966,0.0615061,0.0461686,1238,1695,5.91145,-25.5836
21,-671,5.24072,26.1146,-0.0510624,0.0623815,0.0239518,0.0672312,-0.0559121,1.37102,0.0711969,0.0464228,1245,1695,5.24076,-26.1147
28,-671,4.84607,26.448,-0.0508613,0.0739256,0.0269073,0.0794802,-0.0564159,1.36722,0.0788355,0.0460049,1252,1695,4.84603,-26.448
35,-671,4.5835,27.054,-0.0492895,0.0821484,0.0287195,0.0881497,-0.0552908,1.3648,0.0835366,0.0437985,1259,1695,4.58348,-27.0539
42,-671,4.4259,28.0223,-0.0481144,0.0879221,0.0294617,0.0940286,-0.0542209,1.36642,0.0866143,0.0444653,1266,1695,4.42588,-28.0223
49,-671,3.96753,28.3274,-0.0458198,0.0906879,0.0293333,0.0967242,-0.0518561,1.36785,0.0870769,0.0463207,1273,1695,3.96753,-28.3274
56,-671,3.41577,28.3383,-0.0425257,0.0899476,0.0269262,0.0952114,-0.0477895,1.37774,0.0840612,0.0471105,1280,1695,3.41578,-28.3383
63,-671,2.66052,28.425,-0.037982,0.0840956,0.0243338,0.0887673,-0.0426537,1.38112,0.0774173,0.0490767,1287,1695,2.66053,-28.425
70,-671,1.69165,28.1394,-0.0326477,0.0768703,0.02139,0.0808997,-0.0366772,1.3846,0.0694651,0.0475572,1294,1695,1.69161,-28.1394
77,-671,1.2085,28.1282,0,0,0,0,0,0,0,-1,1301,1695,1.20847,-28.1282
84,-671,6.36377,23.6165,0,0,0,0,0,0,0,-1,1308,1695,6.36383,-23.6165
91,-671,6.00012,24.2661,0,0,0,0,0,0,0,-1,1315,1695,6.00015,-24.2661
98,-671,6.54065,26.4849,0,0,0,0,0,0,0,-1,1322,1695,6.54066,-26.4849
105,-671,4.52295,23.0709,0,0,0,0,0,0,0,-1,1329,1695,4.52298,-23.0709
112,-671,5.11169,23.7184,0.0110909,0.0142881,0.00892131,0.0217529,0.00362608,0.874053,0.0134571,0.0451716,1336,1695,5.11167,-23.7184
119,-671,5.70911,24.426,0.0197235,0.00749243,0.00957643,0.0249706,0.00224541,0.501237,0.0159513,0.0481985,1343,1695,5.70906,-24.426
126,-671,6.26587,25.0442,0,0,0,0,0,0,0,-1,1350,1695,6.26589,-25.0442
133,-671,6.80212,24.1516,0,0,0,0,0,0,0,-1,1357,1695,6.80215,-24.1516
140,-671,6.74768,24.2722,0,0,0,0,0,0,0,-1,1364,1695,6.74767,-24.2722
147,-671,6.69324,24.3928,0,0,0,0,0,0,0,-1,1371,1695,6.6932,-24.3928
154,-671,8.28455,22.7356,0,0,0,0,0,0,0,-1,1378,1695,8.2845,-22.7356
161,-671,4.49292,4.91272,0,0,0,0,0,0,0,-1,1385,1695,4.49297,-4.91273
168,-671,5.17639,6.1416,0,0,0,0,0,0,0,-1,1392,1695,5.1764,-6.14164
175,-671,5.6731,1.64685,0,0,0,0,0,0,0,-1,1399,1695,5.67313,-1.64691
182,-671,5.56812,1.71692,0,0,0,0,0,0,0,-1,1406,1695,5.56809,-1.71686
189,-671,6.98315,6.36169,0,0,0,0,0,0,0,-1,1413,1695,6.98312,-6.36175
196,-671,5.38123,5.69775,0,0,0,0,0,0,0,-1,1420,1695,5.38125,-5.69769
203,-671,5.95117,8.11658,0,0,0,0,0,0,0,-1,1427,1695,5.9512,-8.11662
210,-671,4.73596,8.39624,0,0,0,0,0,0,0,-1,1434,1695,4.736,-8.39618
217,-671,5.37097,11.863,0,0,0,0,0,0,0,-1,1441,1695,5.37094,-11.863
224,-671,5.08167,13.6694,0,0,0,0,0,0,0,-1,1448,1695,5.08165,-13.6695
231,-671,5.66663,15.3348,0,0,0,0,0,0,0,-1,1455,1695,5.66667,-15.3349
238,-671,6.32959,16.2036,0,0,0,0,0,0,0,-1,1462,1695,6.32961,-16.2037
245,-671,7.27966,22.6952,0,0,0,0,0,0,0,-1,1469,1695,7.27964,-22.6952
252,-671,6.95593,23.0203,0,0,0,0,0,0,0,-1,1476,1695,6.9559,-23.0203
259,-671,6.89661,22.8508,0,0,0,0,0,0,0,-1,1483,1695,6.89659,-22.8508
266,-671,6.95581,23.0323,0.00294843,-0.00206625,0.000925051,0.00311363,-0.00223145,0.176722,0.00309996,0.0353145,1490,1695,6.95583,-23.0324
273,-671,6.99756,22.967,0.00279352,-0.00208555,0.000962258,0.00297644,-0.00226847,0.187853,0.00303733,0.012502,1497,1695,6.9976,-22.967
280,-671,6.99609,22.8414,0.00247811,-0.00177296,0.00103267,0.00271569,-0.00201054,0.226127,0.0027388,0.00947703,1504,1695,6.99604,-22.8414
287,-671,6.99463,22.632,0.00217671,-0.0012671,0.000997881,0.00244496,-0.00153535,0.262613,0.00231795,0.0107653,1511,1695,6.99458,-22.632
294,-671,7.00879,22.4526,0.00190267,-0.00100163,0.000920656,0.00216992,-0.00126888,0.282521,0.00200798,0.0105245,1518,1695,7.00882,-22.4526
301,-671,7.04395,22.3068,0.00159155,-0.000823754,0.000834557,0.00185186,-0.00108406,0.30235,0.00171427,0.00969942,1525,1695,7.04398,-22.3067
308,-671,7.04541,22.1769,0.00128198,-0.000471792,0.00065805,0.00150143,-0.000691245,0.321892,0.00129443,0.0112427,1532,1695,7.04539,-22.1769
315,-671,7.06042,22.0237,0.00103099,-0.000289299,0.000492928,0.00119472,-0.000453028,0.320691,0.00098293,0.0133203,1539,1695,7.06042,-22.0237
322,-671,7.06531,21.8748,0.000812831,-0.000117664,0.00030679,0.000904876,-0.000209709,0.291482,0.000683956,0.0152267,1546,1695,7.06525,-21.8747
329,-671,7.04041,21.7065,0.000636291,-0.000158178,0.00010581,0.000650142,-0.000172029,0.130161,0.00050072,0.0135887,1553,1695,7.0404,-21.7065
336,-671,7.03918,21.478,0.000540428,-0.000235659,-3.11835e-05,0.000541679,-0.00023691,-0.0400942,0.000460855,0.0105083,1560,1695,7.03917,-21.478
343,-671,7.06274,21.2379,0.000556399,-0.000416294,-0.000261465,0.000622227,-0.000482122,-0.246641,0.000639304,0.0103773,1567,1695,7.06279,-21.2379
350,-671,7.06201,21.0585,0.000587995,-0.000808911,-0.000413458,0.000701197,-0.000922114,-0.267245,0.000940108,0.0103494,1574,1695,7.06198,-21.0584
357,-671,7.04028,20.8418,0.000737953,-0.00112207,-0.000575321,0.000901521,-0.00128563,-0.276998,0.00126923,0.00987445,1581,1695,7.04033,-20.8417
364,-671,7.03809,20.6382,0.000939241,-0.0016431,-0.000683804,0.00110913,-0.001813,-0.243523,0.00170333,0.0119505,1588,1695,7.03809,-20.6382
371,-671,7.04346,20.465,0.00112406,-0.00213465,-0.000813613,0.00131591,-0.0023265,-0.231562,0.00212975,0.0141169,1595,1695,7.04341,-20.465
378,-671,7.03918,20.2667,0.00127602,-0.00267193,-0.000958573,0.00149645,-0.00289237,-0.226033,0.00257626,0.0123344,1602,1695,7.03917,-20.2667
385,-671,7.02832,20.0435,0.00136542,-0.00276525,-0.000906261,0.0015555,-0.00295534,-0.206749,0.0026458,0.0145474,1609,1695,7.02835,-20.0435
392,-671,6.9657,19.9066,0.00132165,-0.00298759,-0.000526502,0.00138504,-0.00305099,-0.119831,0.00262066,0.0214657,1616,1695,6.96565,-19.9066
399,-671,6.94385,19.6274,0.00121015,-0.00329375,-0.000176306,0.00121704,-0.00330064,-0.0390656,0.00269917,0.0219069,1623,1695,6.94379,-19.6274
406,-671,7.00708,19.2943,0.0012102,-0.00336733,0.000322637,0.00123283,-0.00338996,0.0700214,0.00276413,0.0332577,1630,1695,7.00705,-19.2943
413,-671,7.02869,19.2253,0.0009055,-0.00336369,0.00104458,0.00114738,-0.00360557,0.227548,0.00286384,0.0432729,1637,1695,7.02867,-19.2253
420,-671,7.14209,18.95,0,0,0,0,0,0,0,-1,1644,1695,7.14206,-18.9499
427,-671,7.11499,18.7622,0,0,0,0,0,0,0,-1,1651,1695,7.115,-18.7623
434,-671,6.98621,18.1678,0,0,0,0,0,0,0,-1,1658,1695,6.9862,-18.1678
441,-671,6.54456,18.2684,0,0,0,0,0,0,0,-1,1665,1695,6.54457,-18.2684
448,-671,5.854,17.8229,0,0,0,0,0,0,0,-1,1672,1695,5.85397,-17.8228
455,-671,3.40137,9.28076,0,0,0,0,0,0,0,-1,1679,1695,3.40135,-9.28082
462,-671,5.86255,4.47961,0,0,0,0,0,0,0,-1,1686,1695,5.8625,-4.4796
469,-671,3.71301,3.76978,0,0,0,0,0,0,0,-1,1693,1695,3.71297,-3.76974
476,-671,3.75574,3.18848,0,0,0,0,0,0,0,-1,1700,1695,3.7558,-3.18847
483,-671,7.81824,12.1041,0,0,0,0,0,0,0,-1,1707,1695,7.81826,-12.1041
490,-671,0,0,0,0,0,0,0,0,0,-1,1714,1695,0,0
497,-671,0,0,0,0,0,0,0,0,0,-1,1721,1695,0,0
504,-671,0,0,0,0,0,0,0,0,0,-1,1728,1695,0,0
511,-671,0,0,0,0,0,0,0,0,0,-1,1735,1695,0,0
518,-671,0,0,0,0,0,0,0,0,0,-1,1742,1695,0,0
525,-671,0,0,0,0,0,0,0,0,0,-1,1749,1695,0,0
532,-671,0,0,0,0,0,0,0,0,0,-1,1756,1695,0,0
539,-671,0,0,0,0,0,0,0,0,0,-1,1763,1695,0,0
546,-671,0,0,0,0,0,0,0,0,0,-1,1770,1695,0,0
553,-671,0,0,0,0,0,0,0,0,0,-1,1777,1695,0,0
560,-671,0,0,0,0,0,0,0,0,0,-1,1784,1695,0,0
567,-671,0,0,0,0,0,0,0,0,0,-1,1791,1695,0,0
574,-671,0,0,0,0,0,0,0,0,0,-1,1798,1695,0,0
581,-671,0,0,0,0,0,0,0,0,0,-1,1805,1695,0,0
588,-671,0,0,0,0,0,0,0,0,0,-1,1812,1695,0,0
595,-671,0,0,0,0,0,0,0,0,0,-1,1819,1695,0,0
602,-671,0,0,0,0,0,0,0,0,0,-1,1826,1695,0,0
609,-671,0,0,0,0,0,0,0,0,0,-1,1833,1695,0,0
616,-671,0,0,0,0,0,0,0,0,0,-1,1840,1695,0,0
623,-671,0,0,0,0,0,0,0,0,0,-1,1847,1695,0,0
630,-671,0,0,0,0,0,0,0,0,0,-1,1854,1695,0,0
637,-671,0,0,0,0,0,0,0,0,0,-1,1861,1695,0,0
644,-671,0,0,0,0,0,0,0,0,0,-1,1868,1695,0,0
651,-671,0,0,0,0,0,0,0,0,0,-1,1875,1695,0,0
658,-671,0,0,0,0,0,0,0,0,0,-1,1882,1695,0,0
665,-671,0,0,0,0,0,0,0,0,0,-1,1889,1695,0,0
672,-671,0,0,0,0,0,0,0,0,0,-1,1896,1695,0,0
679,-671,0,0,0,0,0,0,0,0,0,-1,1903,1695,0,0
686,-671,0,0,0,0,0,0,0,0,0,-1,1910,1695,0,0
693,-671,0,0,0,0,0,0,0,0,0,-1,1917,1695,0,0
700,-671,0,0,0,0,0,0,0,0,0,-1,1924,1695,0,0
707,-671,0,0,0,0,0,0,0,0,0,-1,1931,1695,0,0
714,-671,0,0,0,0,0,0,0,0,0,-1,1938,1695,0,0
721,-671,0,0,0,0,0,0,0,0,0,-1,1945,1695,0,0
728,-671,0,0,0,0,0,0,0,0,0,-1,1952,1695,0,0
735,-671,0,0,0,0,0,0,0,0,0,-1,1959,1695,0,0
742,-671,0,0,0,0,0,0,0,0,0,-1,1966,1695,0,0
749,-671,0,0,0,0,0,0,0,0,0,-1,1973,1695,0,0
756,-671,0,0,0,0,0,0,0,0,0,-1,1980,1695,0,0
763,-671,0,0,0,0,0,0,0,0,0,-1,1987,1695,0,0
770,-671,0,0,0,0,0,0,0,0,0,-1,1994,1695,0,0
777,-671,0,0,0,0,0,0,0,0,0,-1,2001,1695,0,0
784,-671,0,0,0,0,0,0,0,0,0,-1,2008,1695,0,0
791,-671,0,0,0,0,0,0,0,0,0,-1,2015,1695,0,0
798,-671,0,0,0,0,0,0,0,0,0,-1,2022,1695,0,0
805,-671,0,0,0,0,0,0,0,0,0,-1,2029,1695,0,0
812,-671,0,0,0,0,0,0,0,0,0,-1,2036,1695,0,0
-700,-678,0,0,0,0,0,0,0,0,0,-1,524,1702,0,0
-693,-678,0,0,0,0,0,0,0,0,0,-1,531,1702,0,0
-686,-678,0,0,0,0,0,0,0,0,0,-1,538,1702,0,0
-679,-678,0,0,0,0,0,0,0,0,0,-1,545,1702,0,0
-672,-678,0,0,0,0,0,0,0,0,0,-1,552,1702,0,0
-665,-678,0,0,0,0,0,0,0,0,0,-1,559,1702,0,0
-658,-678,0,0,0,0,0,0,0,0,0,-1,566,1702,0,0
-651,-678,0,0,0,0,0,0,0,0,0,-1,573,1702,0,0
-644,-678,0,0,0,0,0,0,0,0,0,-1,580,1702,0,0
-637,-678,0,0,0,0,0,0,0,0,0,-1,587,1702,0,0
-630,-678,0,0,0,0,0,0,0,0,0,-1,594,1702,0,0
-623,-678,0,0,0,0,0,0,0,0,0,-1,601,1702,0,0
-616,-678,0,0,0,0,0,0,0,0,0,-1,608,1702,0,0
-609,-678,0,0,0,0,0,0,0,0,0,-1,615,1702,0,0
-602,-678,0,0,0,0,0,0,0,0,0,-1,622,1702,0,0
-595,-678,0,0,0,0,0,0,0,0,0,-1,629,1702,0,0
-588,-678,0,0,0,0,0,0,0,0,0,-1,636,1702,0,0
-581,-678,0,0,0,0,0,0,0,0,0,-1,643,1702,0,0
-574,-678,0,0,0,0,0,0,0,0,0,-1,650,1702,0,0
-567,-678,0,0,0,0,0,0,0,0,0,-1,657,1702,0,0
-560,-678,0,0,0,0,0,0,0,0,0,-1,664,1702,0,0
-553,-678,0,0,0,0,0,0,0,0,0,-1,671,1702,0,0
-546,-678,0,0,0,0,0,0,0,0,0,-1,678,1702,0,0
-539,-678,0,0,0,0,0,0,0,0,0,-1,685,1702,0,0
-532,-678,0,0,0,0,0,0,0,0,0,-1,692,1702,0,0
-525,-678,0,0,0,0,0,0,0,0,0,-1,699,1702,0,0
-518,-678,0,0,0,0,0,0,0,0,0,-1,706,1702,0,0
-511,-678,0,0,0,0,0,0,0,0,0,-1,713,1702,0,0
-504,-678,0,0,0,0,0,0,0,0,0,-1,720,1702,0,0
-497,-678,0,0,0,0,0,0,0,0,0,-1,727,1702,0,0
-490,-678,0,0,0,0,0,0,0,0,0,-1,734,1702,0,0
-483,-678,0,0,0,0,0,0,0,0,0,-1,741,1702,0,0
-476,-678,0,0,0,0,0,0,0,0,0,-1,748,1702,0,0
-469,-678,0,0,0,0,0,0,0,0,0,-1,755,1702,0,0
-462,-678,0,0,0,0,0,0,0,0,0,-1,762,1702,0,0
-455,-678,0,0,0,0,0,0,0,0,0,-1,769,1702,0,0
-448,-678,0,0,0,0,0,0,0,0,0,-1,776,1702,0,0
-441,-678,0,0,0,0,0,0,0,0,0,-1,783,1702,0,0
-434,-678,0,0,0,0,0,0,0,0,0,-1,790,1702,0,0
-427,-678,0,0,0,0,0,0,0,0,0,-1,797,1702,0,0
-420,-678,0,0,0,0,0,0,0,0,0,-1,804,1702,0,0
-413,-678,0,0,0,0,0,0,0,0,0,-1,811,1702,0,0
-406,-678,0,0,0,0,0,0,0,0,0,-1,818,1702,0,0
-399,-678,0,0,0,0,0,0,0,0,0,-1,825,1702,0,0
-392,-678,0,0,0,0,0,0,0,0,0,-1,832,1702,0,0
-385,-678,0,0,0,0,0,0,0,0,0,-1,839,1702,0,0
-378,-678,0,0,0,0,0,0,0,0,0,-1,846,1702,0,0
-371,-678,0,0,0,0,0,0,0,0,0,-1,853,1702,0,0
-364,-678,0,0,0,0,0,0,0,0,0,-1,860,1702,0,0
-357,-678,0,0,0,0,0,0,0,0,0,-1,867,1702,0,0
-350,-678,-5.79944,6.11865,0,0,0,0,0,0,0,-1,874,1702,-5.79942,-6.11864
-343,-678,-6.44891,4.52759,0,0,0,0,0,0,0,-1,881,1702,-6.4489,-4.52758
-336,-678,-6.91888,2.99438,0,0,0,0,0,0,0,-1,888,1702,-6.9189,-2.99435
-329,-678,-7.14575,1.29761,0,0,0,0,0,0,0,-1,895,1702,-7.14577,-1.29755
-322,-678,4.74548,15.4724,0,0,0,0,0,0,0,-1,902,1702,4.7455,-15.4724
-315,-678,6.36914,15.9497,0,0,0,0,0,0,0,-1,909,1702,6.36912,-15.9497
-308,-678,3.55981,17.3597,0,0,0,0,0,0,0,-1,916,1702,3.55984,-17.3598
-301,-678,4.00079,17.5145,0,0,0,0,0,0,0,-1,923,1702,4.00082,-17.5145
-294,-678,4.71283,17.4558,0,0,0,0,0,0,0,-1,930,1702,4.71284,-17.4558
-287,-678,5.35083,17.0643,0,0,0,0,0,0,0,-1,937,1702,5.35084,-17.0643
-280,-678,5.43738,18.1123,0,0,0,0,0,0,0,-1,944,1702,5.43736,-18.1124
-273,-678,5.08264,18.8138,-0.00312626,0.000170525,-0.00133535,0.000643537,-0.00359928,-1.23036,0.0026403,0.0447939,951,1702,5.08265,-18.8139
-266,-678,5.21674,18.8737,-0.0035602,-0.000731876,-0.00197086,0.000279688,-0.00457176,-1.0966,0.00314522,0.0370592,958,1702,5.21672,-18.8737
-259,-678,5.07538,19.1678,-0.00414251,-0.00116032,-0.00243218,0.000201456,-0.00550428,-1.06039,0.00373848,0.0237784,965,1702,5.07541,-19.1679
-252,-678,5.07111,19.2997,-0.00463798,-0.00167643,-0.00275504,-2.94407e-05,-0.00628497,-1.03199,0.0041802,0.0189774,972,1702,5.0711,-19.2997
-245,-678,5.08875,19.5388,-0.00489073,-0.002101,-0.002917,-0.00026252,-0.00672921,-1.00842,0.00440125,0.0180754,979,1702,5.08874,-19.5388
-238,-678,5.07086,19.7813,-0.00468003,-0.00233489,-0.00280352,-0.000468603,-0.00654631,-0.983468,0.0042167,0.0147109,986,1702,5.07087,-19.7812
-231,-678,5.03979,20.0287,-0.00420062,-0.00262443,-0.00267118,-0.000627514,-0.00619754,-0.928847,0.00393922,0.0125849,993,1702,5.03978,-20.0287
-224,-678,5.01721,20.2395,-0.00350033,-0.00233641,-0.0022842,-0.000561204,-0.00527553,-0.910133,0.00334568,0.0126658,1000,1702,5.01722,-20.2394
-217,-678,5.03064,20.4644,-0.00286636,-0.00170067,-0.00194436,-0.000253669,-0.00431335,-0.931017,0.00279485,0.012851,1007,1702,5.03062,-20.4643
-210,-678,5.04742,20.7191,-0.00209424,-0.00132409,-0.00153638,-0.000125269,-0.00329307,-0.908188,0.00215484,0.0133767,1014,1702,5.04743,-20.7191
-203,-678,5.02454,20.9003,-0.00135652,-0.000923617,-0.00122778,0.000106652,-0.00238678,-0.872648,0.0016279,0.0174314,1021,1702,5.02459,-20.9002
-196,-678,5.01855,21.095,-0.000852386,-0.00062429,-0.000982302,0.000250562,-0.00172724,-0.843191,0.00124346,0.0190178,1028,1702,5.01857,-21.095
-189,-678,5.03223,21.3062,-0.000416222,-0.000439101,-0.000800891,0.000373311,-0.00122863,-0.778257,0.000967831,0.0114864,1035,1702,5.03222,-21.3062
-182,-678,5.03406,21.505,5.75423e-05,-0.000238351,-0.000759344,0.000683218,-0.000864027,-0.689186,0.000895333,0.0101114,1042,1702,5.03409,-21.505
-175,-678,5.02405,21.6901,0.000721878,8.62211e-05,-0.000664857,0.00114097,-0.00033287,-0.562435,0.000892539,0.0107519,1049,1702,5.02409,-21.6901
-168,-678,5.02881,21.884,0.00109873,0.000267998,-0.00068055,0.00148066,-0.000113929,-0.511404,0.00102719,0.0107041,1056,1702,5.02885,-21.884
-161,-678,5.02161,22.0446,0.00135707,0.000374355,-0.00067435,0.00170009,3.13389e-05,-0.470553,0.00112309,0.00917903,1063,1702,5.02159,-22.0446
-154,-678,5.01392,22.2042,0.00180533,0.000481154,-0.00066494,0.00208159,0.000204889,-0.393774,0.00132472,0.00823932,1070,1702,5.01388,-22.2042
-147,-678,5.01514,22.3633,0.00233321,0.000488053,-0.000658081,0.00254387,0.000277397,-0.3098,0.00161143,0.0102382,1077,1702,5.01519,-22.3633
-140,-678,5.03809,22.5325,0.00288069,0.00048756,-0.000627839,0.0030354,0.000332848,-0.241606,0.00192228,0.0120382,1084,1702,5.03811,-22.5325
-133,-678,5.06384,22.7041,0.00356477,0.000448054,-0.000474436,0.00363539,0.000377434,-0.147766,0.00230809,0.0117698,1091,1702,5.06381,-22.7041
-126,-678,5.06311,22.9011,0.00436736,0.00057485,-0.000171009,0.00437505,0.000567154,-0.0449696,0.00274723,0.00944344,1098,1702,5.06307,-22.9011
-119,-678,5.09949,23.1648,0.00519061,0.000576814,0.000119784,0.00519372,0.000573706,0.0259389,0.00328797,0.0210832,1105,1702,5.09952,-23.1648
-112,-678,5.11963,23.3298,0.00599453,0.00055663,0.000426736,0.00602782,0.000523346,0.0778394,0.00385595,0.0333964,1112,1702,5.11966,-23.3298
-105,-678,5.17566,23.4285,0.00674188,0.000484046,0.000909215,0.00687131,0.000354621,0.141398,0.00446736,0.0364381,1119,1702,5.17562,-23.4285
-98,-678,5.13,23.4052,0.00748481,0.000681169,0.00151833,0.00780827,0.000357709,0.209899,0.00509047,0.0241625,1126,1702,5.13001,-23.4051
-91,-678,5.16809,23.533,0.00819125,0.000622453,0.00189131,0.00863754,0.000176163,0.23173,0.00570055,0.0236546,1133,1702,5.16814,-23.5329
-84,-678,5.28479,23.6396,0.00895004,0.00083116,0.00231427,0.00956338,0.000217814,0.259071,0.00630424,0.0438291,1140,1702,5.28475,-23.6397
-77,-678,5.39575,23.9957,0,0,0,0,0,0,0,-1,1147,1702,5.39574,-23.9957
-70,-678,4.75891,19.6552,0,0,0,0,0,0,0,-1,1154,1702,4.75895,-19.6551
-63,-678,3.41687,11.0365,0,0,0,0,0,0,0,-1,1161,1702,3.41682,-11.0365
-56,-678,1.72388,6.13159,0,0,0,0,0,0,0,-1,1168,1702,1.72388,-6.13157
-49,-678,-0.241699,5.29895,0,0,0,0,0,0,0,-1,1175,1702,-0.241682,-5.29897
-42,-678,0.297119,3.90649,0,0,0,0,0,0,0,-1,1182,1702,0.297139,-3.90655
-35,-678,0.498413,3.64038,0,0,0,0,0,0,0,-1,1189,1702,0.498471,-3.64038
-28,-678,0.132446,3.55994,0,0,0,0,0,0,0,-1,1196,1702,0.132432,-3.55993
-21,-678,5.46509,24.562,0,0,0,0,0,0,0,-1,1203,1702,5.46514,-24.5621
-14,-678,5.52625,24.4965,-0.0322084,0.0051093,0.00197519,0.00521356,-0.0323127,1.51806,0.0234734,0.0389265,1210,1702,5.52626,-24.4965
-7,-678,5.57922,24.4877,-0.0338819,0.0115923,0.00548968,0.0122457,-0.0345352,1.45234,0.0280123,0.0413755,1217,1702,5.57928,-24.4877
0,-678,5.9541,24.4728,0,0,0,0,0,0,0,-1,1224,1702,5.95414,-24.4728
7,-678,5.9707,25.1112,-0.0371166,0.0304766,0.0136689,0.0331361,-0.0397761,1.37863,0.0421541,0.044186,1231,1702,5.97071,-25.1112
14,-678,5.48425,25.4417,-0.0384618,0.0415018,0.0176462,0.0452228,-0.0421827,1.36298,0.0504738,0.0442858,1238,1702,5.48425,-25.4417
21,-678,5.01501,25.7073,-0.0396694,0.0528778,0.0208164,0.0573444,-0.044136,1.35943,0.0587549,0.0437392,1245,1702,5.01502,-25.7073
28,-678,4.66504,25.9304,-0.0399063,0.0623561,0.0231683,0.0673602,-0.0449104,1.35808,0.06525,0.045536,1252,1702,4.66504,-25.9304
35,-678,4.42566,26.2694,-0.0390414,0.069179,0.0246275,0.0745199,-0.0443822,1.35724,0.0693793,0.044836,1259,1702,4.42565,-26.2694
42,-678,3.82727,26.5282,-0.0383611,0.0740679,0.0252372,0.0794731,-0.0437662,1.35981,0.0721409,0.043974,1266,1702,3.82723,-26.5283
49,-678,3.38,26.7201,-0.0366397,0.0764893,0.0251589,0.0818321,-0.0419825,1.36154,0.0727081,0.045416,1273,1702,3.37995,-26.7201
56,-678,2.73669,26.7412,-0.0340453,0.0755927,0.0232776,0.0803302,-0.0387827,1.37002,0.0701505,0.0441545,1280,1702,2.73667,-26.7412
63,-678,2.01843,26.6538,-0.0302155,0.0702825,0.0211146,0.0745385,-0.0344715,1.3719,0.0643384,0.0440539,1287,1702,2.01847,-26.6538
70,-678,1.40906,26.5409,-0.0255451,0.0637136,0.0187386,0.0674879,-0.0293194,1.37204,0.0573215,0.0450686,1294,1702,1.40905,-26.5409
77,-678,0.834106,26.4999,0,0,0,0,0,0,0,-1,1301,1702,0.834049,-26.4999
84,-678,6.23779,24.1625,-0.015911,0.0463079,0.0133314,0.0490441,-0.0186471,1.36837,0.0403736,0.0460386,1308,1702,6.2378,-24.1624
91,-678,6.09387,24.4647,-0.00987693,0.0361897,0.0111009,0.0387252,-0.0124124,1.34624,0.0307996,0.0460534,1315,1702,6.09381,-24.4647
98,-678,6.05005,24.5828,0,0,0,0,0,0,0,-1,1322,1702,6.05002,-24.5828
105,-678,5.09143,22.8678,0,0,0,0,0,0,0,-1,1329,1702,5.09137,-22.8678
112,-678,5.38586,23.7795,0.0103809,0.00871521,0.00817672,0.0177671,0.00132904,0.734645,0.0114275,0.0428119,1336,1702,5.38589,-23.7795
119,-678,5.88623,24.5439,0.0169677,0.00313002,0.00850609,0.0210135,-0.000915808,0.44397,0.014324,0.0426641,1343,1702,5.88617,-24.5439
126,-678,6.37366,25.1051,0.0232965,-0.000948703,0.00954463,0.026603,-0.00425521,0.333487,0.0193107,0.0442254,1350,1702,6.37363,-25.1051
133,-678,6.67688,24.6582,0.0288347,-0.00357443,0.0107901,0.0320984,-0.00683813,0.293724,0.0240052,0.0483719,1357,1702,6.67682,-24.6581
140,-678,6.57043,24.5381,0.0334569,-0.00563825,0.0120612,0.0368784,-0.00905977,0.276419,0.0280967,0.0497843,1364,1702,6.57045,-24.5381
147,-678,6.91357,24.6964,0.0374,-0.00683513,0.0134127,0.0411492,-0.0105843,0.272566,0.0315582,0.0459406,1371,1702,6.91359,-24.6964
154,-678,7.31445,25.1292,0,0,0,0,0,0,0,-1,1378,1702,7.31441,-25.1291
161,-678,3.44202,4.53992,0,0,0,0,0,0,0,-1,1385,1702,3.442,-4.53996
168,-678,4.21863,5.25781,0,0,0,0,0,0,0,-1,1392,1702,4.21865,-5.25781
175,-678,5.21899,5.9635,0,0,0,0,0,0,0,-1,1399,1702,5.21894,-5.96346
182,-678,7.31262,6.75122,0,0,0,0,0,0,0,-1,1406,1702,7.3126,-6.75123
189,-678,5.96021,6.36853,0,0,0,0,0,0,0,-1,1413,1702,5.96018,-6.36851
196,-678,5.01599,8.15771,0,0,0,0,0,0,0,-1,1420,1702,5.01596,-8.15767
203,-678,4.64771,13.0559,0,0,0,0,0,0,0,-1,1427,1702,4.64766,-13.0559
210,-678,5.6532,18.5957,0,0,0,0,0,0,0,-1,1434,1702,5.65318,-18.5958
217,-678,6.88049,23.4835,0,0,0,0,0,0,0,-1,1441,1702,6.88047,-23.4835
224,-678,6.83337,23.9363,0,0,0,0,0,0,0,-1,1448,1702,6.83343,-23.9363
231,-678,6.75378,23.6886,0,0,0,0,0,0,0,-1,1455,1702,6.75373,-23.6886
238,-678,6.78394,23.6313,0,0,0,0,0,0,0,-1,1462,1702,6.784,-23.6313
245,-678,6.82202,23.6082,0.0018849,-0.000964066,0.000628786,0.0020175,-0.00109667,0.207845,0.00182398,0.0457042,1469,1702,6.82203,-23.6082
252,-678,6.83533,23.3561,0.00202195,-0.00118569,0.000626203,0.00213987,-0.00130361,0.186121,0.00200754,0.0312549,1476,1702,6.83528,-23.3561
259,-678,6.8335,23.2698,0.00205679,-0.00132348,0.000695979,0.00219448,-0.00146117,0.195314,0.0021247,0.0167627,1483,1702,6.83352,-23.2697
266,-678,6.84473,23.1251,0.00200501,-0.0014307,0.000679868,0.00213465,-0.00156034,0.188426,0.00214188,0.0104855,1490,1702,6.84467,-23.1251
273,-678,6.84705,22.9954,0.00191276,-0.00141073,0.00067654,0.0020452,-0.00154318,0.193317,0.0020785,0.0101839,1497,1702,6.84704,-22.9954
280,-678,6.83044,22.8606,0.00172593,-0.00118581,0.000679968,0.00187689,-0.00133677,0.218472,0.00186413,0.0108988,1504,1702,6.83046,-22.8606
287,-678,6.83618,22.6683,0.00152439,-0.000831233,0.000625561,0.00168021,-0.000987051,0.244117,0.00155718,0.0115971,1511,1702,6.83618,-22.6684
294,-678,6.8606,22.4794,0.00130565,-0.000623001,0.00052805,0.00144077,-0.000758112,0.250493,0.00128975,0.0119412,1518,1702,6.86058,-22.4793
301,-678,6.86768,22.3313,0.00102466,-0.000516351,0.000437377,0.00114015,-0.000631835,0.258146,0.00103699,0.0111775,1525,1702,6.86766,-22.3313
308,-678,6.85828,22.1816,0.000757468,-0.000343264,0.000315209,0.000841341,-0.000427137,0.260062,0.000745257,0.0135059,1532,1702,6.8583,-22.1816
315,-678,6.8623,22.0284,0.000560637,-0.000321767,0.000185029,0.000597865,-0.000358995,0.198548,0.000558152,0.0150068,1539,1702,6.86231,-22.0284
322,-678,6.84619,21.8654,0.000396014,-0.000303587,1.98837e-05,0.000396579,-0.000304152,0.028391,0.000405738,0.0172827,1546,1702,6.8462,-21.8654
329,-678,6.82654,21.6754,0.000251554,-0.000505066,-0.000142139,0.000277375,-0.000530887,-0.179701,0.00047424,0.0143712,1553,1702,6.82649,-21.6754
336,-678,6.83496,21.4803,0.000224802,-0.000736347,-0.000250819,0.000286318,-0.000797863,-0.240513,0.000648762,0.0127156,1560,1702,6.83497,-21.4803
343,-678,6.85559,21.2719,0.000336127,-0.00103757,-0.000487344,0.000491457,-0.0011929,-0.308548,0.00100018,0.0119017,1567,1702,6.85561,-21.2718
350,-678,6.86853,21.0701,0.000445535,-0.00158125,-0.00063668,0.000628941,-0.00176465,-0.280473,0.00143286,0.011028,1574,1702,6.86851,-21.0701
357,-678,6.87061,20.8618,0.000740038,-0.00196906,-0.00082176,0.000969816,-0.00219884,-0.272653,0.00187473,0.00896746,1581,1702,6.87059,-20.8619
364,-678,6.86499,20.6584,0.00110289,-0.00255848,-0.000958656,0.0013387,-0.0027943,-0.241198,0.00243502,0.0115669,1588,1702,6.86505,-20.6585
371,-678,6.84729,20.4591,0.00145907,-0.00310837,-0.00114887,0.00173177,-0.00338107,-0.233051,0.00300266,0.0122297,1595,1702,6.8473,-20.4591
378,-678,6.83093,20.2451,0.00178552,-0.00370377,-0.00136435,0.00210593,-0.00402418,-0.230661,0.00359651,0.0140289,1602,1702,6.83098,-20.2451
385,-678,6.82739,20.0763,0.00203473,-0.00372249,-0.0013424,0.00233235,-0.00402011,-0.218178,0.00371049,0.0196543,1609,1702,6.82739,-20.0763
392,-678,6.79395,19.963,0.00218249,-0.00381809,-0.000941843,0.00232685,-0.00396244,-0.152088,0.00367183,0.0367891,1616,1702,6.79393,-19.963
399,-678,6.70837,19.8926,0.00228391,-0.00418121,-0.00051647,0.00232491,-0.00422221,-0.0792161,0.00383252,0.0470021,1623,1702,6.70843,-19.8926
406,-678,6.64844,19.6597,0,0,0,0,0,0,0,-1,1630,1702,6.64848,-19.6597
413,-678,6.83728,19.2943,0,0,0,0,0,0,0,-1,1637,1702,6.83732,-19.2943
420,-678,6.60071,17.4585,0,0,0,0,0,0,0,-1,1644,1702,6.60066,-17.4585
427,-678,4.57483,10.1555,0,0,0,0,0,0,0,-1,1651,1702,4.57485,-10.1555
434,-678,6.75635,16.0447,0,0,0,0,0,0,0,-1,1658,1702,6.75629,-16.0446
441,-678,5.05188,17.5768,0,0,0,0,0,0,0,-1,1665,1702,5.05189,-17.5768
448,-678,3.25525,9.74719,0,0,0,0,0,0,0,-1,1672,1702,3.25522,-9.7472
455,-678,5.44678,5.54297,0,0,0,0,0,0,0,-1,1679,1702,5.44676,-5.54294
462,-678,3.86792,2.87402,0,0,0,0,0,0,0,-1,1686,1702,3.86796,-2.87406
469,-678,2.26587,1.98755,0,0,0,0,0,0,0,-1,1693,1702,2.26592,-1.98755
476,-678,0,0,0,0,0,0,0,0,0,-1,1700,1702,0,0
483,-678,0,0,0,0,0,0,0,0,0,-1,1707,1702,0,0
490,-678,0,0,0,0,0,0,0,0,0,-1,1714,1702,0,0
497,-678,0,0,0,0,0,0,0,0,0,-1,1721,1702,0,0
504,-678,0,0,0,0,0,0,0,0,0,-1,1728,1702,0,0
511,-678,0,0,0,0,0,0,0,0,0,-1,1735,1702,0,0
518,-678,0,0,0,0,0,0,0,0,0,-1,1742,1702,0,0
525,-678,0,0,0,0,0,0,0,0,0,-1,1749,1702,0,0
532,-678,0,0,0,0,0,0,0,0,0,-1,1756,1702,0,0
539,-678,0,0,0,0,0,0,0,0,0,-1,1763,1702,0,0
546,-678,0,0,0,0,0,0,0,0,0,-1,1770,1702,0,0
553,-678,0,0,0,0,0,0,0,0,0,-1,1777,1702,0,0
560,-678,0,0,0,0,0,0,0,0,0,-1,1784,1702,0,0
567,-678,0,0,0,0,0,0,0,0,0,-1,1791,1702,0,0
574,-678,0,0,0,0,0,0,0,0,0,-1,1798,1702,0,0
581,-678,0,0,0,0,0,0,0,0,0,-1,1805,1702,0,0
588,-678,0,0,0,0,0,0,0,0,0,-1,1812,1702,0,0
595,-678,0,0,0,0,0,0,0,0,0,-1,1819,1702,0,0
602,-678,0,0,0,0,0,0,0,0,0,-1,1826,1702,0,0
609,-678,0,0,0,0,0,0,0,0,0,-1,1833,1702,0,0
616,-678,0,0,0,0,0,0,0,0,0,-1,1840,1702,0,0
623,-678,0,0,0,0,0,0,0,0,0,-1,1847,1702,0,0
630,-678,0,0,0,0,0,0,0,0,0,-1,1854,1702,0,0
637,-678,0,0,0,0,0,0,0,0,0,-1,1861,1702,0,0
644,-678,0,0,0,0,0,0,0,0,0,-1,1868,1702,0,0
651,-678,0,0,0,0,0,0,0,0,0,-1,1875,1702,0,0
658,-678,0,0,0,0,0,0,0,0,0,-1,1882,1702,0,0
665,-678,0,0,0,0,0,0,0,0,0,-1,1889,1702,0,0
672,-678,0,0,0,0,0,0,0,0,0,-1,1896,1702,0,0
679,-678,0,0,0,0,0,0,0,0,0,-1,1903,1702,0,0
686,-678,0,0,0,0,0,0,0,0,0,-1,1910,1702,0,0
693,-678,0,0,0,0,0,0,0,0,0,-1,1917,1702,0,0
700,-678,0,0,0,0,0,0,0,0,0,-1,1924,1702,0,0
707,-678,0,0,0,0,0,0,0,0,0,-1,1931,1702,0,0
714,-678,0,0,0,0,0,0,0,0,0,-1,1938,1702,0,0
721,-678,0,0,0,0,0,0,0,0,0,-1,1945,1702,0,0
728,-678,0,0,0,0,0,0,0,0,0,-1,1952,1702,0,0
735,-678,0,0,0,0,0,0,0,0,0,-1,1959,1702,0,0
742,-678,0,0,0,0,0,0,0,0,0,-1,1966,1702,0,0
749,-678,0,0,0,0,0,0,0,0,0,-1,1973,1702,0,0
756,-678,0,0,0,0,0,0,0,0,0,-1,1980,1702,0,0
763,-678,0,0,0,0,0,0,0,0,0,-1,1987,1702,0,0
770,-678,0,0,0,0,0,0,0,0,0,-1,1994,1702,0,0
777,-678,0,0,0,0,0,0,0,0,0,-1,2001,1702,0,0
784,-678,0,0,0,0,0,0,0,0,0,-1,2008,1702,0,0
791,-678,0,0,0,0,0,0,0,0,0,-1,2015,1702,0,0
798,-678,0,0,0,0,0,0,0,0,0,-1,2022,1702,0,0
805,-678,0,0,0,0,0,0,0,0,0,-1,2029,1702,0,0
812,-678,0,0,0,0,0,0,0,0,0,-1,2036,1702,0,0
-700,-685,0,0,0,0,0,0,0,0,0,-1,524,1709,0,0
-693,-685,0,0,0,0,0,0,0,0,0,-1,531,1709,0,0
-686,-685,0,0,0,0,0,0,0,0,0,-1,538,1709,0,0
-679,-685,0,0,0,0,0,0,0,0,0,-1,545,1709,0,0
-672,-685,0,0,0,0,0,0,0,0,0,-1,552,1709,0,0
-665,-685,0,0,0,0,0,0,0,0,0,-1,559,1709,0,0
-658,-685,0,0,0,0,0,0,0,0,0,-1,566,1709,0,0
-651,-685,0,0,0,0,0,0,0,0,0,-1,573,1709,0,0
-644,-685,0,0,0,0,0,0,0,0,0,-1,580,1709,0,0
-637,-685,0,0,0,0,0,0,0,0,0,-1,587,1709,0,0
-630,-685,0,0,0,0,0,0,0,0,0,-1,594,1709,0,0
-623,-685,0,0,0,0,0,0,0,0,0,-1,601,1709,0,0
-616,-685,0,0,0,0,0,0,0,0,0,-1,608,1709,0,0
-609,-685,0,0,0,0,0,0,0,0,0,-1,615,1709,0,0
-602,-685,0,0,0,0,0,0,0,0,0,-1,622,1709,0,0
-595,-685,0,0,0,0,0,0,0,0,0,-1,629,1709,0,0
-588,-685,0,0,0,0,0,0,0,0,0,-1,636,1709,0,0
-581,-685,0,0,0,0,0,0,0,0,0,-1,643,1709,0,0
-574,-685,0,0,0,0,0,0,0,0,0,-1,650,1709,0,0
-567,-685,0,0,0,0,0,0,0,0,0,-1,657,1709,0,0
-560,-685,0,0,0,0,0,0,0,0,0,-1,664,1709,0,0
-553,-685,0,0,0,0,0,0,0,0,0,-1,671,1709,0,0
-546,-685,0,0,0,0,0,0,0,0,0,-1,678,1709,0,0
-539,-685,0,0,0,0,0,0,0,0,0,-1,685,1709,0,0
-532,-685,0,0,0,0,0,0,0,0,0,-1,692,1709,0,0
-525,-685,0,0,0,0,0,0,0,0,0,-1,699,1709,0,0
-518,-685,0,0,0,0,0,0,0,0,0,-1,706,1709,0,0
-511,-685,0,0,0,0,0,0,0,0,0,-1,713,1709,0,0
-504,-685,0,0,0,0,0,0,0,0,0,-1,720,1709,0,0
-497,-685,0,0,0,0,0,0,0,0,0,-1,727,1709,0,0
-490,-685,0,0,0,0,0,0,0,0,0,-1,734,1709,0,0
-483,-685,0,0,0,0,0,0,0,0,0,-1,741,1709,0,0
-476,-685,0,0,0,0,0,0,0,0,0,-1,748,1709,0,0
-469,-685,0,0,0,0,0,0,0,0,0,-1,755,1709,0,0
-462,-685,0,0,0,0,0,0,0,0,0,-1,762,1709,0,0
-455,-685,0,0,0,0,0,0,0,0,0,-1,769,1709,0,0
-448,-685,0,0,0,0,0,0,0,0,0,-1,776,1709,0,0
-441,-685,0,0,0,0,0,0,0,0,0,-1,783,1709,0,0
-434,-685,0,0,0,0,0,0,0,0,0,-1,790,1709,0,0
-427,-685,0,0,0,0,0,0,0,0,0,-1,797,1709,0,0
-420,-685,0,0,0,0,0,0,0,0,0,-1,804,1709,0,0
-413,-685,0,0,0,0,0,0,0,0,0,-1,811,1709,0,0
-406,-685,0,0,0,0,0,0,0,0,0,-1,818,1709,0,0
-399,-685,0,0,0,0,0,0,0,0,0,-1,825,1709,0,0
-392,-685,0,0,0,0,0,0,0,0,0,-1,832,1709,0,0
-385,-685,0,0,0,0,0,0,0,0,0,-1,839,1709,0,0
-378,-685,0,0,0,0,0,0,0,0,0,-1,846,1709,0,0
-371,-685,0,0,0,0,0,0,0,0,0,-1,853,1709,0,0
-364,-685,0,0,0,0,0,0,0,0,0,-1,860,1709,0,0
-357,-685,0,0,0,0,0,0,0,0,0,-1,867,1709,0,0
-350,-685,0,0,0,0,0,0,0,0,0,-1,874,1709,0,0
-343,-685,-5.98505,6.56335,0,0,0,0,0,0,0,-1,881,1709,-5.98505,-6.56329
-336,-685,-6.51312,5.10571,0,0,0,0,0,0,0,-1,888,1709,-6.51311,-5.10575
-329,-685,-6.81384,3.34106,0,0,0,0,0,0,0,-1,895,1709,-6.81385,-3.341
-322,-685,3.83191,16.7219,0,0,0,0,0,0,0,-1,902,1709,3.8319,-16.7219
-315,-685,4.36914,16.3297,0,0,0,0,0,0,0,-1,909,1709,4.36913,-16.3297
-308,-685,6.30707,16.3785,0,0,0,0,0,0,0,-1,916,1709,6.30706,-16.3785
-301,-685,4.04156,17.8213,0,0,0,0,0,0,0,-1,923,1709,4.04154,-17.8213
-294,-685,7.37286,15.8286,0,0,0,0,0,0,0,-1,930,1709,7.37286,-15.8287
-287,-685,5.97791,18.1201,0,0,0,0,0,0,0,-1,937,1709,5.97788,-18.1202
-280,-685,5.70929,18.0549,0,0,0,0,0,0,0,-1,944,1709,5.7093,-18.0549
-273,-685,5.49768,18.755,0,0,0,0,0,0,0,-1,951,1709,5.49771,-18.755
-266,-685,5.41638,18.9673,0,0,0,0,0,0,0,-1,958,1709,5.41636,-18.9673
-259,-685,5.33502,19.1797,0,0,0,0,0,0,0,-1,965,1709,5.33502,-19.1797
-252,-685,5.37329,19.349,-0.00672122,-0.00294072,-0.00414309,-0.000277043,-0.00938489,-0.999414,0.00616632,0.0386212,972,1709,5.37332,-19.349
-245,-685,5.45569,19.5201,-0.00693638,-0.00333693,-0.00427158,-0.000501416,-0.00977189,-0.984776,0.00635405,0.0335217,979,1709,5.4557,-19.5201
-238,-685,5.40717,19.7616,-0.00663591,-0.0034737,-0.00408084,-0.000678373,-0.00943124,-0.970217,0.00607401,0.0245866,986,1709,5.40718,-19.7616
-231,-685,5.29358,20.0356,-0.00596915,-0.00363782,-0.00379771,-0.000830901,-0.00877607,-0.934304,0.00559435,0.0163998,993,1709,5.29355,-20.0356
-224,-685,5.24701,20.2317,-0.00499533,-0.00320277,-0.00323441,-0.000742761,-0.00745534,-0.920561,0.00474207,0.0148966,1000,1709,5.24699,-20.2317
-217,-685,5.24725,20.4656,-0.00412908,-0.00236599,-0.0027473,-0.000362268,-0.00613281,-0.940647,0.00397329,0.0111747,1007,1709,5.24724,-20.4655
-210,-685,5.24609,20.7283,-0.00312038,-0.00186197,-0.00213955,-0.000261026,-0.00472132,-0.928407,0.00306425,0.0142469,1014,1709,5.24611,-20.7283
-203,-685,5.24023,20.9296,-0.00216088,-0.00127909,-0.00162108,-4.00157e-05,-0.00339995,-0.918174,0.00225341,0.0150269,1021,1709,5.24027,-20.9296
-196,-685,5.22852,21.0995,-0.00145086,-0.000921971,-0.0012001,4.2473e-05,-0.00241531,-0.893842,0.00162455,0.0149113,1028,1709,5.22849,-21.0995
-189,-685,5.23376,21.2852,-0.000841069,-0.000726907,-0.000869748,8.76312e-05,-0.00165561,-0.818166,0.00113408,0.0100895,1035,1709,5.23372,-21.2852
-182,-685,5.22217,21.4929,-0.000282965,-0.000487362,-0.00072087,0.000342915,-0.00111324,-0.714982,0.000879051,0.013168,1042,1709,5.22219,-21.4929
-175,-685,5.21191,21.686,0.000449944,-4.37197e-06,-0.000486759,0.000759941,-0.000314369,-0.567081,0.000637788,0.0134412,1049,1709,5.21188,-21.686
-168,-685,5.20862,21.873,0.000816766,0.000254269,-0.000424922,0.00104508,2.595e-05,-0.493056,0.000688236,0.0103508,1056,1709,5.20866,-21.873
-161,-685,5.203,22.0449,0.000966158,0.000376077,-0.000365456,0.00114081,0.000201429,-0.445804,0.000703079,0.0108749,1063,1709,5.20296,-22.0449
-154,-685,5.20483,22.226,0.00131834,0.0005141,-0.000308811,0.00142323,0.000409204,-0.327449,0.000846075,0.00970328,1070,1709,5.20486,-22.2259
-147,-685,5.19275,22.3877,0.00174451,0.000577311,-0.000259892,0.00179976,0.000522058,-0.209481,0.00106918,0.00870626,1077,1709,5.19276,-22.3877
-140,-685,5.22229,22.5265,0.00214185,0.000647503,-0.000205015,0.00216947,0.000619887,-0.133898,0.00129031,0.011493,1084,1709,5.22223,-22.5265
-133,-685,5.22864,22.7108,0.00266632,0.000669799,-6.67609e-05,0.00266855,0.000667569,-0.0333889,0.00160352,0.0107422,1091,1709,5.22861,-22.7108
-126,-685,5.23315,22.8982,0.00326976,0.000804999,0.000159148,0.00327999,0.000794765,0.0642142,0.00197576,0.00853006,1098,1709,5.23319,-22.8982
-119,-685,5.25012,23.0562,0.00383616,0.000860968,0.000374861,0.00388266,0.000814464,0.123426,0.00236419,0.0116213,1105,1709,5.25011,-23.0562
-112,-685,5.24316,23.1827,0.0044092,0.000833225,0.000598395,0.00450667,0.000735748,0.161479,0.00279171,0.0125073,1112,1709,5.24316,-23.1827
-105,-685,5.22351,23.3079,0.00494042,0.000733269,0.000897151,0.00512374,0.000549945,0.201565,0.00324807,0.0123884,1119,1709,5.22352,-23.3078
-98,-685,5.3053,23.4282,0.00543556,0.00073722,0.00126723,0.00575556,0.000417217,0.24735,0.00370581,0.01539,1126,1709,5.30529,-23.4283
-91,-685,5.29883,23.5519,0.00594872,0.000532525,0.00150213,0.00633742,0.000143821,0.253215,0.00417783,0.017473,1133,1709,5.29878,-23.5519
-84,-685,5.2677,23.6548,0.00643541,0.000460541,0.00166591,0.0068685,2.7444e-05,0.254345,0.00456988,0.0194293,1140,1709,5.26766,-23.6548
-77,-685,5.4303,23.9412,0.0065737,0.000754272,0.00144423,0.0069124,0.000415567,0.23036,0.00447618,0.0291898,1147,1709,5.43025,-23.9412
-70,-685,5.44482,24.1696,0,0,0,0,0,0,0,-1,1154,1709,5.44488,-24.1696
-63,-685,5.51355,24.3768,0,0,0,0,0,0,0,-1,1161,1709,5.51354,-24.3768
-56,-685,3.93909,15.8704,0,0,0,0,0,0,0,-1,1168,1709,3.93905,-15.8704
-49,-685,3.07471,9.86011,0,0,0,0,0,0,0,-1,1175,1709,3.07467,-9.86009
-42,-685,2.70618,7.54504,0,0,0,0,0,0,0,-1,1182,1709,2.7062,-7.54504
-35,-685,2.95264,7.91516,0,0,0,0,0,0,0,-1,1189,1709,2.95262,-7.91517
-28,-685,5.48694,24.6294,0,0,0,0,0,0,0,-1,1196,1709,5.48696,-24.6293
-21,-685,5.56409,24.5704,-0.0199888,0.00200197,0.000576941,0.0020171,-0.0200039,1.54458,0.0140566,0.0480872,1203,1709,5.56415,-24.5704
-14,-685,5.68799,24.5645,-0.0216276,0.00411467,0.00252899,0.00436077,-0.0218737,1.47379,0.0162325,0.0286632,1210,1709,5.68802,-24.5645
-7,-685,5.6991,24.6404,-0.0234218,0.00969431,0.00553898,0.0105962,-0.0243237,1.40939,0.0206738,0.0394879,1217,1709,5.69911,-24.6404
0,-685,5.8501,24.6267,-0.0251092,0.0168801,0.00871618,0.0186176,-0.0268466,1.37404,0.0263917,0.042576,1224,1709,5.85008,-24.6267
7,-685,5.93433,24.7704,-0.0267646,0.0246795,0.0119491,0.0273194,-0.0294046,1.35335,0.032757,0.039425,1231,1709,5.93435,-24.7704
14,-685,5.99158,24.9041,0,0,0,0,0,0,0,-1,1238,1709,5.99154,-24.9041
21,-685,5.55396,25.3597,0,0,0,0,0,0,0,-1,1245,1709,5.5539,-25.3598
28,-685,4.46338,25.2135,0,0,0,0,0,0,0,-1,1252,1709,4.46337,-25.2135
35,-685,4.20801,25.3904,0,0,0,0,0,0,0,-1,1259,1709,4.20803,-25.3904
42,-685,3.31042,25.0884,0,0,0,0,0,0,0,-1,1266,1709,3.31043,-25.0884
49,-685,2.89734,25.2931,0,0,0,0,0,0,0,-1,1273,1709,2.89729,-25.2931
56,-685,2.28918,25.3093,0,0,0,0,0,0,0,-1,1280,1709,2.2892,-25.3093
63,-685,1.70752,25.0767,0,0,0,0,0,0,0,-1,1287,1709,1.70758,-25.0766
70,-685,1.13586,25.0945,0,0,0,0,0,0,0,-1,1294,1709,1.13581,-25.0945
77,-685,6.23096,24.6534,-0.01389,0.0442417,0.0143369,0.0475852,-0.0172335,1.34168,0.0387666,0.0418629,1301,1709,6.23101,-24.6535
84,-685,6.25635,24.549,-0.00978486,0.0361591,0.0121178,0.0391592,-0.012785,1.32809,0.031252,0.0446245,1308,1709,6.25641,-24.549
91,-685,6.14502,24.6301,-0.00503114,0.0274525,0.0101525,0.0303645,-0.00794319,1.29147,0.0233456,0.0433287,1315,1709,6.14507,-24.6302
98,-685,6.44568,24.6354,0.000459855,0.0178383,0.00844932,0.0212691,-0.00297089,1.1851,0.0152663,0.036257,1322,1709,6.44569,-24.6354
105,-685,6.46753,24.4404,0.00568671,0.00951675,0.0073448,0.0151921,1.13845e-05,0.912925,0.0101243,0.038025,1329,1709,6.46751,-24.4405
112,-685,5.84741,24.3494,0.0102937,0.00406745,0.00708151,0.0149161,-0.000555011,0.578307,0.0101342,0.0425418,1336,1709,5.84741,-24.3494
119,-685,6.04663,24.6797,0.0148767,-0.000399454,0.00700556,0.0176029,-0.00312564,0.371115,0.012904,0.0404904,1343,1709,6.04665,-24.6797
126,-685,6.3606,24.8773,0.0190441,-0.00338379,0.00746888,0.0213037,-0.0056434,0.293783,0.0164103,0.0418924,1350,1709,6.36064,-24.8773
133,-685,6.47791,24.6771,0.0220441,-0.0044917,0.00799762,0.0242681,-0.0067157,0.27123,0.018821,0.0457753,1357,1709,6.47794,-24.6771
140,-685,6.42139,24.6879,0.0243731,-0.00518742,0.00846202,0.0266241,-0.00743836,0.259984,0.0206797,0.0468097,1364,1709,6.42138,-24.6879
147,-685,6.53394,24.8689,0.0262431,-0.00537296,0.00910095,0.0286757,-0.00780558,0.261187,0.0221816,0.0466493,1371,1709,6.53399,-24.8689
154,-685,6.59375,24.749,0,0,0,0,0,0,0,-1,1378,1709,6.59374,-24.749
161,-685,6.67053,24.7985,0,0,0,0,0,0,0,-1,1385,1709,6.67057,-24.7985
168,-685,4.37524,10.8778,0,0,0,0,0,0,0,-1,1392,1709,4.37525,-10.8778
175,-685,3.97522,8.94324,0,0,0,0,0,0,0,-1,1399,1709,3.97519,-8.94328
182,-685,3.98218,9.19739,0,0,0,0,0,0,0,-1,1406,1709,3.98221,-9.1974
189,-685,4.53479,15.2343,0,0,0,0,0,0,0,-1,1413,1709,4.53474,-15.2343
196,-685,6.58618,24.5339,0,0,0,0,0,0,0,-1,1420,1709,6.5862,-24.534
203,-685,6.55969,24.2963,0,0,0,0,0,0,0,-1,1427,1709,6.55963,-24.2963
210,-685,6.66418,24.1368,0,0,0,0,0,0,0,-1,1434,1709,6.66415,-24.1369
217,-685,6.6001,23.9541,0,0,0,0,0,0,0,-1,1441,1709,6.60014,-23.9542
224,-685,6.67432,23.9167,0.00162749,-3.21685e-05,0.000726792,0.00190077,-0.000305445,0.359651,0.0013803,0.0213934,1448,1709,6.67433,-23.9168
231,-685,6.64355,23.7396,0.00156413,-0.00027742,0.000550471,0.00171613,-0.00042942,0.269413,0.00131088,0.0159231,1455,1709,6.64356,-23.7397
238,-685,6.67151,23.6102,0.00150209,-0.000446304,0.000455405,0.00160327,-0.000547492,0.218642,0.00129065,0.0184365,1462,1709,6.6715,-23.6102
245,-685,6.66931,23.4923,0.00138655,-0.000739696,0.000430412,0.00147037,-0.000823519,0.192343,0.00134182,0.0198538,1469,1709,6.66925,-23.4923
252,-685,6.68176,23.3912,0.00140097,-0.00084735,0.000411695,0.00147398,-0.000920365,0.175528,0.00139464,0.0149985,1476,1709,6.68177,-23.3912
259,-685,6.69531,23.2975,0.00138232,-0.00088492,0.000443073,0.00146584,-0.00096843,0.186296,0.00141517,0.0108948,1483,1709,6.69528,-23.2975
266,-685,6.69946,23.1418,0.00132038,-0.000878535,0.000411563,0.00139489,-0.000953041,0.179093,0.00136355,0.0111316,1490,1709,6.69942,-23.1418
273,-685,6.69788,22.9786,0.00123201,-0.000757008,0.000385139,0.00130398,-0.000828979,0.18474,0.0012416,0.0121908,1497,1709,6.69787,-22.9787
280,-685,6.68445,22.8287,0.00113565,-0.000578595,0.000336958,0.00119951,-0.000642449,0.187283,0.00107954,0.0134498,1504,1709,6.6844,-22.8288
287,-685,6.70667,22.6707,0.00100216,-0.00036845,0.000283476,0.00105848,-0.000424766,0.196109,0.000882019,0.01187,1511,1709,6.70664,-22.6707
294,-685,6.71118,22.5132,0.000808955,-0.000208096,0.000175291,0.000838319,-0.00023746,0.165975,0.000652596,0.0106527,1518,1709,6.71113,-22.5131
301,-685,6.68054,22.3501,0.000530098,-0.000176488,8.55021e-05,0.000540297,-0.000186687,0.118725,0.000435961,0.0127459,1525,1709,6.68058,-22.3501
308,-685,6.68738,22.1848,0.000303692,-0.000167008,-1.27187e-05,0.000304036,-0.000167351,-0.0269945,0.000275943,0.0139156,1532,1709,6.68741,-22.1848
315,-685,6.70374,22.0251,0.000159354,-0.000297741,-0.000135943,0.000196728,-0.000335116,-0.268299,0.000310506,0.0125683,1539,1709,6.70374,-22.0252
322,-685,6.68628,21.834,4.66035e-05,-0.000406126,-0.000304077,0.000199321,-0.000558844,-0.465434,0.000453836,0.0203685,1546,1709,6.6863,-21.834
329,-685,6.67371,21.6498,-7.50249e-05,-0.000757651,-0.000448687,0.000147413,-0.000980089,-0.460244,0.000707667,0.0191129,1553,1709,6.67374,-21.6497
336,-685,6.66833,21.4581,-4.33257e-05,-0.00113879,-0.000554723,0.00018851,-0.00137063,-0.395869,0.000982636,0.0136971,1560,1709,6.66833,-21.4581
343,-685,6.65369,21.2745,0.000152383,-0.00156748,-0.000819461,0.000480305,-0.00189541,-0.380652,0.00145046,0.0120305,1567,1709,6.65374,-21.2745
350,-685,6.64319,21.0712,0.000331683,-0.00227936,-0.00098124,0.000659324,-0.002607,-0.322264,0.00199444,0.0120379,1574,1709,6.64316,-21.0712
357,-685,6.65857,20.8689,0.000775004,-0.00278459,-0.00119739,0.0011403,-0.00314989,-0.296107,0.00256592,0.0100433,1581,1709,6.65857,-20.8689
364,-685,6.64954,20.6678,0.00132147,-0.00350026,-0.00136666,0.00168189,-0.00386068,-0.257853,0.00328139,0.00976089,1588,1709,6.64956,-20.6679
371,-685,6.66724,20.467,0.00188349,-0.00420286,-0.00161342,0.00228474,-0.00460411,-0.243748,0.00405172,0.0155929,1595,1709,6.66718,-20.4671
378,-685,6.58569,20.2903,0.00242411,-0.00496127,-0.00189892,0.00288375,-0.00542092,-0.237486,0.00486872,0.0246224,1602,1709,6.5857,-20.2903
385,-685,6.58655,20.1145,0.0029565,-0.00501508,-0.00192413,0.00339663,-0.00545521,-0.224875,0.00515647,0.0439537,1609,1709,6.58654,-20.1145
392,-685,6.87891,19.9432,0.0034169,-0.00502663,-0.0014633,0.00366331,-0.00527304,-0.166825,0.00518723,0.0469323,1616,1709,6.87888,-19.9433
399,-685,6.53992,20.1732,0,0,0,0,0,0,0,-1,1623,1709,6.53997,-20.1732
406,-685,6.36389,19.1948,0,0,0,0,0,0,0,-1,1630,1709,6.36389,-19.1948
413,-685,6.13098,16.2029,0,0,0,0,0,0,0,-1,1637,1709,6.13099,-16.2029
420,-685,4.84631,10.3781,0,0,0,0,0,0,0,-1,1644,1709,4.84634,-10.378
427,-685,6.05151,9.21155,0,0,0,0,0,0,0,-1,1651,1709,6.05156,-9.21156
434,-685,4.87769,8.91418,0,0,0,0,0,0,0,-1,1658,1709,4.87768,-8.91413
441,-685,5.62,8.75549,0,0,0,0,0,0,0,-1,1665,1709,5.61996,-8.75545
448,-685,6.4043,8.58972,0,0,0,0,0,0,0,-1,1672,1709,6.40435,-8.58971
455,-685,2.31958,4.09802,0,0,0,0,0,0,0,-1,1679,1709,2.31957,-4.09803
462,-685,0,0,0,0,0,0,0,0,0,-1,1686,1709,0,0
469,-685,0,0,0,0,0,0,0,0,0,-1,1693,1709,0,0
476,-685,0,0,0,0,0,0,0,0,0,-1,1700,1709,0,0
483,-685,0,0,0,0,0,0,0,0,0,-1,1707,1709,0,0
490,-685,0,0,0,0,0,0,0,0,0,-1,1714,1709,0,0
497,-685,0,0,0,0,0,0,0,0,0,-1,1721,1709,0,0
504,-685,0,0,0,0,0,0,0,0,0,-1,1728,1709,0,0
511,-685,0,0,0,0,0,0,0,0,0,-1,1735,1709,0,0
518,-685,0,0,0,0,0,0,0,0,0,-1,1742,1709,0,0
525,-685,0,0,0,0,0,0,0,0,0,-1,1749,1709,0,0
532,-685,0,0,0,0,0,0,0,0,0,-1,1756,1709,0,0
539,-685,0,0,0,0,0,0,0,0,0,-1,1763,1709,0,0
546,-685,0,0,0,0,0,0,0,0,0,-1,1770,1709,0,0
553,-685,0,0,0,0,0,0,0,0,0,-1,1777,1709,0,0
560,-685,0,0,0,0,0,0,0,0,0,-1,1784,1709,0,0
567,-685,0,0,0,0,0,0,0,0,0,-1,1791,1709,0,0
574,-685,0,0,0,0,0,0,0,0,0,-1,1798,1709,0,0
581,-685,0,0,0,0,0,0,0,0,0,-1,1805,1709,0,0
588,-685,0,0,0,0,0,0,0,0,0,-1,1812,1709,0,0
595,-685,0,0,0,0,0,0,0,0,0,-1,1819,1709,0,0
602,-685,0,0,0,0,0,0,0,0,0,-1,1826,1709,0,0
609,-685,0,0,0,0,0,0,0,0,0,-1,1833,1709,0,0
616,-685,0,0,0,0,0,0,0,0,0,-1,1840,1709,0,0
623,-685,0,0,0,0,0,0,0,0,0,-1,1847,1709,0,0
630,-685,0,0,0,0,0,0,0,0,0,-1,1854,1709,0,0
637,-685,0,0,0,0,0,0,0,0,0,-1,1861,1709,0,0
644,-685,0,0,0,0,0,0,0,0,0,-1,1868,1709,0,0
651,-685,0,0,0,0,0,0,0,0,0,-1,1875,1709,0,0
658,-685,0,0,0,0,0,0,0,0,0,-1,1882,1709,0,0
665,-685,0,0,0,0,0,0,0,0,0,-1,1889,1709,0,0
672,-685,0,0,0,0,0,0,0,0,0,-1,1896,1709,0,0
679,-685,0,0,0,0,0,0,0,0,0,-1,1903,1709,0,0
686,-685,0,0,0,0,0,0,0,0,0,-1,1910,1709,0,0
693,-685,0,0,0,0,0,0,0,0,0,-1,1917,1709,0,0
700,-685,0,0,0,0,0,0,0,0,0,-1,1924,1709,0,0
707,-685,0,0,0,0,0,0,0,0,0,-1,1931,1709,0,0
714,-685,0,0,0,0,0,0,0,0,0,-1,1938,1709,0,0
721,-685,0,0,0,0,0,0,0,0,0,-1,1945,1709,0,0
728,-685,0,0,0,0,0,0,0,0,0,-1,1952,1709,0,0
735,-685,0,0,0,0,0,0,0,0,0,-1,1959,1709,0,0
742,-685,0,0,0,0,0,0,0,0,0,-1,1966,1709,0,0
749,-685,0,0,0,0,0,0,0,0,0,-1,1973,1709,0,0
756,-685,0,0,0,0,0,0,0,0,0,-1,1980,1709,0,0
763,-685,0,0,0,0,0,0,0,0,0,-1,1987,1709,0,0
770,-685,0,0,0,0,0,0,0,0,0,-1,1994,1709,0,0
777,-685,0,0,0,0,0,0,0,0,0,-1,2001,1709,0,0
784,-685,0,0,0,0,0,0,0,0,0,-1,2008,1709,0,0
791,-685,0,0,0,0,0,0,0,0,0,-1,2015,1709,0,0
798,-685,0,0,0,0,0,0,0,0,0,-1,2022,1709,0,0
805,-685,0,0,0,0,0,0,0,0,0,-1,2029,1709,0,0
812,-685,0,0,0,0,0,0,0,0,0,-1,2036,1709,0,0
-700,-692,0,0,0,0,0,0,0,0,0,-1,524,1716,0,0
-693,-692,0,0,0,0,0,0,0,0,0,-1,531,1716,0,0
-686,-692,0,0,0,0,0,0,0,0,0,-1,538,1716,0,0
-679,-692,0,0,0,0,0,0,0,0,0,-1,545,1716,0,0
-672,-692,0,0,0,0,0,0,0,0,0,-1,552,1716,0,0
-665,-692,0,0,0,0,0,0,0,0,0,-1,559,1716,0,0
-658,-692,0,0,0,0,0,0,0,0,0,-1,566,1716,0,0
-651,-692,0,0,0,0,0,0,0,0,0,-1,573,1716,0,0
-644,-692,0,0,0,0,0,0,0,0,0,-1,580,1716,0,0
-637,-692,0,0,0,0,0,0,0,0,0,-1,587,1716,0,0
-630,-692,0,0,0,0,0,0,0,0,0,-1,594,1716,0,0
-623,-692,0,0,0,0,0,0,0,0,0,-1,601,1716,0,0
-616,-692,0,0,0,0,0,0,0,0,0,-1,608,1716,0,0
-609,-692,0,0,0,0,0,0,0,0,0,-1,615,1716,0,0
-602,-692,0,0,0,0,0,0,0,0,0,-1,622,1716,0,0
-595,-692,0,0,0,0,0,0,0,0,0,-1,629,1716,0,0
-588,-692,0,0,0,0,0,0,0,0,0,-1,636,1716,0,0
-581,-692,0,0,0,0,0,0,0,0,0,-1,643,1716,0,0
-574,-692,0,0,0,0,0,0,0,0,0,-1,650,1716,0,0
-567,-692,0,0,0,0,0,0,0,0,0,-1,657,1716,0,0
-560,-692,0,0,0,0,0,0,0,0,0,-1,664,1716,0,0
-553,-692,0,0,0,0,0,0,0,0,0,-1,671,1716,0,0
-546,-692,0,0,0,0,0,0,0,0,0,-1,678,1716,0,0
-539,-692,0,0,0,0,0,0,0,0,0,-1,685,1716,0,0
-532,-692,0,0,0,0,0,0,0,0,0,-1,692,1716,0,0
-525,-692,0,0,0,0,0,0,0,0,0,-1,699,1716,0,0
-518,-692,0,0,0,0,0,0,0,0,0,-1,706,1716,0,0
-511,-692,0,0,0,0,0,0,0,0,0,-1,713,1716,0,0
-504,-692,0,0,0,0,0,0,0,0,0,-1,720,1716,0,0
-497,-692,0,0,0,0,0,0,0,0,0,-1,727,1716,0,0
-490,-692,0,0,0,0,0,0,0,0,0,-1,734,1716,0,0
-483,-692,0,0,0,0,0,0,0,0,0,-1,741,1716,0,0
-476,-692,0,0,0,0,0,0,0,0,0,-1,748,1716,0,0
-469,-692,0,0,0,0,0,0,0,0,0,-1,755,1716,0,0
-462,-692,0,0,0,0,0,0,0,0,0,-1,762,1716,0,0
-455,-692,0,0,0,0,0,0,0,0,0,-1,769,1716,0,0
-448,-692,0,0,0,0,0,0,0,0,0,-1,776,1716,0,0
-441,-692,0,0,0,0,0,0,0,0,0,-1,783,1716,0,0
-434,-692,0,0,0,0,0,0,0,0,0,-1,790,1716,0,0
-427,-692,0,0,0,0,0,0,0,0,0,-1,797,1716,0,0
-420,-692,0,0,0,0,0,0,0,0,0,-1,804,1716,0,0
-413,-692,0,0,0,0,0,0,0,0,0,-1,811,1716,0,0
-406,-692,0,0,0,0,0,0,0,0,0,-1,818,1716,0,0
-399,-692,0,0,0,0,0,0,0,0,0,-1,825,1716,0,0
-392,-692,0,0,0,0,0,0,0,0,0,-1,832,1716,0,0
-385,-692,0,0,0,0,0,0,0,0,0,-1,839,1716,0,0
-378,-692,0,0,0,0,0,0,0,0,0,-1,846,1716,0,0
-371,-692,0,0,0,0,0,0,0,0,0,-1,853,1716,0,0
-364,-692,0,0,0,0,0,0,0,0,0,-1,860,1716,0,0
-357,-692,0,0,0,0,0,0,0,0,0,-1,867,1716,0,0
-350,-692,0,0,0,0,0,0,0,0,0,-1,874,1716,0,0
-343,-692,0,0,0,0,0,0,0,0,0,-1,881,1716,0,0
-336,-692,0,0,0,0,0,0,0,0,0,-1,888,1716,0,0
-329,-692,3.03107,4.10266,0,0,0,0,0,0,0,-1,895,1716,3.03105,-4.10267
-322,-692,4.43713,18.5242,0,0,0,0,0,0,0,-1,902,1716,4.43711,-18.5241
-315,-692,5.38965,17.975,0,0,0,0,0,0,0,-1,909,1716,5.38963,-17.975
-308,-692,5.86938,17.4392,0,0,0,0,0,0,0,-1,916,1716,5.86937,-17.4392
-301,-692,7.6759,18.0828,0,0,0,0,0,0,0,-1,923,1716,7.67593,-18.0827
-294,-692,6.66138,19.0796,0,0,0,0,0,0,0,-1,930,1716,6.66141,-19.0796
-287,-692,5.98553,17.4274,0,0,0,0,0,0,0,-1,937,1716,5.98555,-17.4274
-280,-692,6.14087,18.0726,0,0,0,0,0,0,0,-1,944,1716,6.14089,-18.0726
-273,-692,7.06763,17.1136,0,0,0,0,0,0,0,-1,951,1716,7.06762,-17.1137
-266,-692,5.71204,18.9045,0,0,0,0,0,0,0,-1,958,1716,5.71202,-18.9045
-259,-692,6.79712,18.1807,0,0,0,0,0,0,0,-1,965,1716,6.79711,-18.1807
-252,-692,5.69403,19.4243,0,0,0,0,0,0,0,-1,972,1716,5.69402,-19.4243
-245,-692,5.97876,19.4176,-0.00947487,-0.00495037,-0.00621152,-0.000601969,-0.0138233,-0.960034,0.00902156,0.0477845,979,1716,5.97878,-19.4176
-238,-692,5.89819,19.6188,-0.0090001,-0.00495325,-0.00589409,-0.000744937,-0.0132084,-0.950744,0.0085681,0.0443597,986,1716,5.8982,-19.6187
-231,-692,5.68982,20.033,-0.00802411,-0.00497711,-0.00535908,-0.000929178,-0.012072,-0.923886,0.00775687,0.0360168,993,1716,5.68979,-20.0329
-224,-692,5.49933,20.2473,-0.00665495,-0.00434308,-0.00450742,-0.000845736,-0.0101523,-0.910919,0.00650464,0.0184721,1000,1716,5.49931,-20.2474
-217,-692,5.44342,20.4667,-0.00546943,-0.00323955,-0.00378944,-0.000404434,-0.00830455,-0.928472,0.0054066,0.0123529,1007,1716,5.44345,-20.4666
-210,-692,5.43994,20.6901,-0.00416014,-0.00255128,-0.00290212,-0.00034416,-0.00636726,-0.920598,0.0041349,0.0128097,1014,1716,5.43996,-20.69
-203,-692,5.43579,20.8993,-0.00293717,-0.00171762,-0.00210697,-0.00013396,-0.00452083,-0.926254,0.00297024,0.0154333,1021,1716,5.4358,-20.8992
-196,-692,5.40393,21.1028,-0.00201641,-0.00125753,-0.00146975,-0.000119031,-0.00315491,-0.911723,0.00206474,0.0195181,1028,1716,5.40389,-21.1027
-189,-692,5.39441,21.2836,-0.00124285,-0.00100819,-0.000966299,-0.000152123,-0.00209892,-0.845814,0.00135143,0.0100518,1035,1716,5.39446,-21.2836
-182,-692,5.3905,21.4976,-0.000796462,-0.000636069,-0.000724039,1.22012e-05,-0.00144473,-0.840555,0.000967248,0.013975,1042,1716,5.39049,-21.4976
-175,-692,5.37891,21.7076,-0.000140881,3.85866e-05,-0.000350101,0.000310271,-0.000412566,-0.910852,0.000418721,0.0153524,1049,1716,5.37886,-21.7076
-168,-692,5.38696,21.8767,0.00014541,0.000484272,-0.000211161,0.000585573,4.41091e-05,-1.12349,0.000376541,0.0117831,1056,1716,5.387,-21.8767
-161,-692,5.39648,22.0538,0.000141659,0.000666433,-9.4638e-05,0.000682979,0.000125113,-1.39772,0.000419875,0.0136661,1063,1716,5.39647,-22.0538
-154,-692,5.38562,22.246,0.000381685,0.000867613,-8.33284e-06,0.000867756,0.000381542,-1.55365,0.000502213,0.0140759,1070,1716,5.38567,-22.2459
-147,-692,5.38184,22.4116,0.000716389,0.000992515,7.78814e-05,0.00101297,0.000695937,1.31399,0.000598319,0.0128934,1077,1716,5.38189,-22.4116
-140,-692,5.37793,22.5616,0.00103052,0.00111712,0.000149041,0.00122902,0.000918612,0.926772,0.000737969,0.0100062,1084,1716,5.37797,-22.5616
-133,-692,5.39075,22.7167,0.00151052,0.00116733,0.000261332,0.00165156,0.00102629,0.494886,0.000962853,0.00940685,1091,1716,5.39069,-22.7167
-126,-692,5.39343,22.8783,0.0020694,0.00126287,0.000400052,0.00223417,0.0010981,0.390698,0.00128996,0.00751291,1098,1716,5.39349,-22.8783
-119,-692,5.3833,23.0416,0.00257198,0.0013163,0.000542273,0.00277374,0.00111454,0.356202,0.00161168,0.0104147,1105,1716,5.38329,-23.0416
-112,-692,5.38416,23.1819,0.00310891,0.00122813,0.000694367,0.00333749,0.000999558,0.318012,0.00197787,0.0105262,1112,1716,5.38412,-23.1818
-105,-692,5.42786,23.3168,0.00359953,0.00107307,0.00085292,0.00386051,0.000812091,0.29694,0.00235022,0.0162889,1119,1716,5.42792,-23.3167
-98,-692,5.47485,23.4337,0.00400471,0.000929614,0.00106004,0.00433471,0.000599611,0.301801,0.00271212,0.0181026,1126,1716,5.47481,-23.4338
-91,-692,5.45593,23.5615,0.00438032,0.000699115,0.00120066,0.00473731,0.000342129,0.289002,0.00305056,0.0198681,1133,1716,5.45595,-23.5615
-84,-692,5.44067,23.6727,0.0047123,0.000552028,0.00128277,0.00507603,0.000188301,0.276296,0.00332303,0.021945,1140,1716,5.44064,-23.6728
-77,-692,5.45654,23.8566,0.00462399,0.000755133,0.00105273,0.00489189,0.000487234,0.249192,0.00311159,0.0158917,1147,1716,5.45648,-23.8566
-70,-692,5.5083,24.0266,0.00453882,0.0010616,0.000746312,0.00469223,0.000908187,0.202736,0.00287367,0.026312,1154,1716,5.5083,-24.0266
-63,-692,5.53674,24.0829,0.00483117,0.000644008,4.23607e-05,0.0048316,0.00064358,0.0101154,0.00302941,0.0425866,1161,1716,5.53676,-24.0829
-56,-692,5.4884,24.1067,0,0,0,0,0,0,0,-1,1168,1716,5.48841,-24.1067
-49,-692,5.53638,24.2406,0,0,0,0,0,0,0,-1,1175,1716,5.53632,-24.2405
-42,-692,5.58752,24.4874,0,0,0,0,0,0,0,-1,1182,1716,5.58748,-24.4874
-35,-692,5.65149,24.6216,0,0,0,0,0,0,0,-1,1189,1716,5.65146,-24.6216
-28,-692,5.57751,24.62,-0.00967962,0.000578108,8.82535e-05,0.000578867,-0.00968038,1.56219,0.00665494,0.0457725,1196,1716,5.57748,-24.62
-21,-692,5.66089,24.5452,-0.0118856,0.00166294,0.000879783,0.00171983,-0.0119425,1.50622,0.00859249,0.0315847,1203,1716,5.6609,-24.5452
-14,-692,5.69702,24.5885,-0.0133524,0.0030383,0.00242772,0.00339032,-0.0137044,1.4268,0.0104513,0.0164901,1210,1716,5.69698,-24.5885
-7,-692,5.72314,24.7085,-0.015033,0.00728071,0.00481758,0.00827641,-0.0160287,1.36699,0.0142685,0.015563,1217,1716,5.72316,-24.7085
0,-692,5.75793,24.7843,-0.0166689,0.0127638,0.00727296,0.0144629,-0.018368,1.34129,0.0189996,0.0175852,1224,1716,5.75793,-24.7843
7,-692,5.75,24.827,-0.018252,0.0187313,0.00972602,0.0211331,-0.0206538,1.32869,0.0241262,0.0214564,1231,1716,5.75002,-24.827
14,-692,5.80896,24.9437,-0.0197086,0.025698,0.0120971,0.0287198,-0.0227304,1.32601,0.0297718,0.0241681,1238,1716,5.80893,-24.9437
21,-692,5.89331,24.9854,-0.0210292,0.0330211,0.0139541,0.036411,-0.0244191,1.33248,0.035347,0.0250916,1245,1716,5.89335,-24.9854
28,-692,5.88452,24.9559,-0.0215519,0.0389361,0.0154612,0.0426589,-0.0252748,1.33451,0.0396473,0.0258083,1252,1716,5.88448,-24.9559
35,-692,5.89795,25.0231,-0.0213943,0.0433784,0.0165021,0.0473402,-0.0253562,1.33517,0.0426062,0.0241516,1259,1716,5.89796,-25.0231
42,-692,5.94751,25.0719,-0.0210942,0.046741,0.0170397,0.0507807,-0.0251339,1.33802,0.0446553,0.0210418,1266,1716,5.94748,-25.0718
49,-692,5.97327,25.0486,-0.0199103,0.0485473,0.0172124,0.0526314,-0.0239943,1.33783,0.045258,0.0239721,1273,1716,5.97323,-25.0486
56,-692,5.91809,25.0377,-0.0181197,0.0475517,0.016489,0.0514593,-0.0220273,1.33811,0.043547,0.0293224,1280,1716,5.91809,-25.0377
63,-692,5.97754,25.075,-0.0153107,0.0434516,0.0152347,0.0471665,-0.0190256,1.33162,0.0393504,0.0287873,1287,1716,5.97759,-25.075
70,-692,6.07935,25.1033,-0.0116493,0.0382621,0.0139288,0.0418861,-0.0152732,1.31626,0.0341725,0.0257067,1294,1716,6.07935,-25.1033
77,-692,6.1217,25.1061,-0.00792663,0.0320785,0.012479,0.035652,-0.0115001,1.2919,0.0283887,0.0293898,1301,1716,6.12172,-25.1061
84,-692,6.18091,25.0001,-0.00438729,0.0249943,0.0109285,0.0286133,-0.00800635,1.251,0.0222302,0.0358927,1308,1716,6.18093,-25.0002
91,-692,6.09509,25.0098,-0.000639496,0.01759,0.00947989,0.0216262,-0.00467568,1.16828,0.0162025,0.0336753,1315,1716,6.09511,-25.0098
98,-692,6.15198,24.9911,0.00359293,0.0094568,0.00818976,0.0152236,-0.00217389,0.95729,0.0109459,0.0262796,1322,1716,6.15199,-24.9911
105,-692,6.21106,24.9568,0.00754223,0.00259194,0.00738373,0.0128546,-0.00272046,0.623676,0.00960585,0.0330418,1329,1716,6.21107,-24.9568
112,-692,6.16577,24.9001,0.0107821,-0.00170738,0.00710868,0.0139994,-0.00492468,0.425004,0.0113368,0.0387482,1336,1716,6.16573,-24.9001
119,-692,6.14575,24.9297,0.0138225,-0.00510059,0.00690691,0.0160753,-0.00735341,0.315288,0.0138355,0.0313999,1343,1716,6.14571,-24.9296
126,-692,6.23438,24.9199,0.0163106,-0.00702956,0.00703597,0.0182676,-0.0089865,0.271277,0.0160364,0.0307667,1350,1716,6.23442,-24.9199
133,-692,6.29675,24.8284,0.0173935,-0.00669008,0.00713319,0.0193476,-0.00864426,0.267395,0.0165503,0.0243953,1357,1716,6.2967,-24.8284
140,-692,6.3031,24.8099,0.0179865,-0.00613668,0.00705731,0.0198994,-0.00804963,0.264698,0.0166128,0.0286657,1364,1716,6.3031,-24.81
147,-692,6.37317,24.8718,0.0182218,-0.00531707,0.00710536,0.0202003,-0.00729558,0.271573,0.0164472,0.0315703,1371,1716,6.37315,-24.8719
154,-692,6.31335,24.7965,0.0179082,-0.00436863,0.00694349,0.0198952,-0.00635563,0.278718,0.0158136,0.0280299,1378,1716,6.3133,-24.7965
161,-692,6.46753,24.7433,0.0177079,-0.0040215,0.00692101,0.019725,-0.00603865,0.283598,0.0155586,0.0389447,1385,1716,6.46758,-24.7432
168,-692,6.6261,24.6885,0,0,0,0,0,0,0,-1,1392,1716,6.62604,-24.6885
175,-692,6.44263,24.5652,0,0,0,0,0,0,0,-1,1399,1716,6.44261,-24.5652
182,-692,6.43665,24.4633,0,0,0,0,0,0,0,-1,1406,1716,6.43665,-24.4632
189,-692,6.43213,24.4304,0,0,0,0,0,0,0,-1,1413,1716,6.4321,-24.4304
196,-692,6.44849,24.3281,0.00600173,0.000418136,0.00276,0.00713571,-0.000715847,0.389836,0.00501282,0.0341297,1420,1716,6.44852,-24.3281
203,-692,6.45398,24.2246,0.00231371,0.000616489,0.000921453,0.00271779,0.000212416,0.413263,0.00174537,0.020858,1427,1716,6.45397,-24.2247
210,-692,6.49841,24.124,0.00189081,0.000356512,0.000780169,0.00221782,2.95024e-05,0.396907,0.00146881,0.0172398,1434,1716,6.49847,-24.124
217,-692,6.48755,23.9977,0.00141806,-2.21901e-05,0.00055193,0.00160525,-0.000209372,0.326968,0.00114635,0.0169171,1441,1716,6.48758,-23.9977
224,-692,6.4845,23.9056,0.00122921,-8.28501e-05,0.000527378,0.00141491,-0.000268546,0.338555,0.00104436,0.0134924,1448,1716,6.48452,-23.9056
231,-692,6.50464,23.7885,0.00110702,-0.000205557,0.000412036,0.00122564,-0.00032418,0.280315,0.000943899,0.0115087,1455,1716,6.50461,-23.7884
238,-692,6.54749,23.5862,0.00102533,-0.000268971,0.000336365,0.00110752,-0.000351166,0.239666,0.000879104,0.0180268,1462,1716,6.5475,-23.5861
245,-692,6.56702,23.4681,0.000925306,-0.000386774,0.000289073,0.00098617,-0.000447638,0.207519,0.00084705,0.020989,1469,1716,6.56705,-23.4682
252,-692,6.55762,23.4059,0.000872368,-0.000393699,0.000232179,0.000913603,-0.000434935,0.175769,0.00079476,0.0195011,1476,1716,6.55762,-23.4059
259,-692,6.54285,23.3079,0.000818114,-0.00033913,0.000203916,0.000852994,-0.00037401,0.169413,0.000726181,0.0103063,1483,1716,6.54288,-23.3079
266,-692,6.52722,23.1467,0.000748167,-0.000222927,0.000127312,0.00076458,-0.000239341,0.128215,0.000605479,0.00931471,1490,1716,6.5272,-23.1468
273,-692,6.53357,22.9777,0.000669611,-1.7097e-06,5.71619e-05,0.000674443,-6.54213e-06,0.0843393,0.000451825,0.0121499,1497,1716,6.53362,-22.9776
280,-692,6.54724,22.8221,0.000584915,0.000154723,-3.85375e-05,0.00058834,0.000151298,-0.0886418,0.000352779,0.0116071,1504,1716,6.54724,-22.8222
287,-692,6.55762,22.6809,0.000474199,0.000237639,-0.000102527,0.00051245,0.000199387,-0.357089,0.00029828,0.0105779,1511,1716,6.55758,-22.6809
294,-692,6.55164,22.5367,0.000290701,0.000342621,-0.000236691,0.000554771,7.85499e-05,-0.840019,0.000346644,0.0105862,1518,1716,6.55163,-22.5367
301,-692,6.52014,22.3705,-2.11525e-05,0.000301523,-0.000306635,0.000486674,-0.000206304,-1.02757,0.000410861,0.0131669,1525,1716,6.52012,-22.3705
308,-692,6.51624,22.2129,-0.000247309,0.000116938,-0.000353618,0.000332576,-0.000462948,-1.0232,0.000461347,0.016079,1532,1716,6.51628,-22.2129
315,-692,6.54041,22.0403,-0.000362213,-0.000175978,-0.000468172,0.000208247,-0.000746438,-0.883565,0.000579647,0.0153133,1539,1716,6.54045,-22.0403
322,-692,6.5022,21.8217,-0.000434165,-0.000441947,-0.000634825,0.000196781,-0.00107289,-0.782333,0.000789077,0.0196958,1546,1716,6.50216,-21.8217
329,-692,6.48694,21.6345,-0.000534155,-0.00098406,-0.000750386,2.42713e-05,-0.00154249,-0.63977,0.00103651,0.0170839,1553,1716,6.48695,-21.6345
336,-692,6.49011,21.4327,-0.0004303,-0.00158115,-0.00084964,2.04339e-05,-0.00203188,-0.487748,0.00136145,0.0121833,1560,1716,6.49006,-21.4328
343,-692,6.48584,21.257,-0.000127748,-0.0022159,-0.0011344,0.000369914,-0.00271356,-0.413418,0.00194411,0.0121458,1567,1716,6.48587,-21.2569
350,-692,6.45728,21.0751,0.000158008,-0.0031814,-0.00129853,0.000603507,-0.0036269,-0.330497,0.00264218,0.0122891,1574,1716,6.45725,-21.0751
357,-692,6.45581,20.8799,0.00081053,-0.00390001,-0.00153678,0.00126755,-0.00435703,-0.28906,0.00340673,0.0159112,1581,1716,6.45579,-20.8798
364,-692,6.49756,20.7122,0.00162398,-0.00482962,-0.00174152,0.00206394,-0.00526958,-0.247452,0.00436676,0.0233581,1588,1716,6.49754,-20.7122
371,-692,6.55493,20.5023,0.00249195,-0.00579116,-0.00205938,0.00297571,-0.00627492,-0.230722,0.0054529,0.0341495,1595,1716,6.55489,-20.5023
378,-692,6.58044,20.4485,0.00334165,-0.00675959,-0.00247433,0.00391518,-0.00733312,-0.22777,0.00659339,0.0455377,1602,1716,6.58044,-20.4485
385,-692,6.64429,20.2058,0,0,0,0,0,0,0,-1,1609,1716,6.64424,-20.2058
392,-692,6.6825,19.701,0,0,0,0,0,0,0,-1,1616,1716,6.68251,-19.7011
399,-692,5.2627,10.4279,0,0,0,0,0,0,0,-1,1623,1716,5.26267,-10.4278
406,-692,4.73633,10.6808,0,0,0,0,0,0,0,-1,1630,1716,4.73637,-10.6808
413,-692,4.25085,10.5685,0,0,0,0,0,0,0,-1,1637,1716,4.2508,-10.5685
420,-692,5.48901,10.4845,0,0,0,0,0,0,0,-1,1644,1716,5.48906,-10.4845
427,-692,3.79578,8.60339,0,0,0,0,0,0,0,-1,1651,1716,3.79577,-8.6034
434,-692,4.78516,8.64636,0,0,0,0,0,0,0,-1,1658,1716,4.78512,-8.64634
441,-692,5.8208,8.74036,0,0,0,0,0,0,0,-1,1665,1716,5.82084,-8.7404
448,-692,6.73792,8.51013,0,0,0,0,0,0,0,-1,1672,1716,6.73793,-8.5101
455,-692,0,0,0,0,0,0,0,0,0,-1,1679,1716,0,0
462,-692,0,0,0,0,0,0,0,0,0,-1,1686,1716,0,0
469,-692,0,0,0,0,0,0,0,0,0,-1,1693,1716,0,0
476,-692,0,0,0,0,0,0,0,0,0,-1,1700,1716,0,0
483,-692,0,0,0,0,0,0,0,0,0,-1,1707,1716,0,0
490,-692,0,0,0,0,0,0,0,0,0,-1,1714,1716,0,0
497,-692,0,0,0,0,0,0,0,0,0,-1,1721,1716,0,0
504,-692,0,0,0,0,0,0,0,0,0,-1,1728,1716,0,0
511,-692,0,0,0,0,0,0,0,0,0,-1,1735,1716,0,0
518,-692,0,0,0,0,0,0,0,0,0,-1,1742,1716,0,0
525,-692,0,0,0,0,0,0,0,0,0,-1,1749,1716,0,0
532,-692,0,0,0,0,0,0,0,0,0,-1,1756,1716,0,0
539,-692,0,0,0,0,0,0,0,0,0,-1,1763,1716,0,0
546,-692,0,0,0,0,0,0,0,0,0,-1,1770,1716,0,0
553,-692,0,0,0,0,0,0,0,0,0,-1,1777,1716,0,0
560,-692,0,0,0,0,0,0,0,0,0,-1,1784,1716,0,0
567,-692,0,0,0,0,0,0,0,0,0,-1,1791,1716,0,0
574,-692,0,0,0,0,0,0,0,0,0,-1,1798,1716,0,0
581,-692,0,0,0,0,0,0,0,0,0,-1,1805,1716,0,0
588,-692,0,0,0,0,0,0,0,0,0,-1,1812,1716,0,0
595,-692,0,0,0,0,0,0,0,0,0,-1,1819,1716,0,0
602,-692,0,0,0,0,0,0,0,0,0,-1,1826,1716,0,0
609,-692,0,0,0,0,0,0,0,0,0,-1,1833,1716,0,0
616,-692,0,0,0,0,0,0,0,0,0,-1,1840,1716,0,0
623,-692,0,0,0,0,0,0,0,0,0,-1,1847,1716,0,0
630,-692,0,0,0,0,0,0,0,0,0,-1,1854,1716,0,0
637,-692,0,0,0,0,0,0,0,0,0,-1,1861,1716,0,0
644,-692,0,0,0,0,0,0,0,0,0,-1,1868,1716,0,0
651,-692,0,0,0,0,0,0,0,0,0,-1,1875,1716,0,0
658,-692,0,0,0,0,0,0,0,0,0,-1,1882,1716,0,0
665,-692,0,0,0,0,0,0,0,0,0,-1,1889,1716,0,0
672,-692,0,0,0,0,0,0,0,0,0,-1,1896,1716,0,0
679,-692,0,0,0,0,0,0,0,0,0,-1,1903,1716,0,0
686,-692,0,0,0,0,0,0,0,0,0,-1,1910,1716,0,0
693,-692,0,0,0,0,0,0,0,0,0,-1,1917,1716,0,0
700,-692,0,0,0,0,0,0,0,0,0,-1,1924,1716,0,0
707,-692,0,0,0,0,0,0,0,0,0,-1,1931,1716,0,0
714,-692,0,0,0,0,0,0,0,0,0,-1,1938,1716,0,0
721,-692,0,0,0,0,0,0,0,0,0,-1,1945,1716,0,0
728,-692,0,0,0,0,0,0,0,0,0,-1,1952,1716,0,0
735,-692,0,0,0,0,0,0,0,0,0,-1,1959,1716,0,0
742,-692,0,0,0,0,0,0,0,0,0,-1,1966,1716,0,0
749,-692,0,0,0,0,0,0,0,0,0,-1,1973,1716,0,0
756,-692,0,0,0,0,0,0,0,0,0,-1,1980,1716,0,0
763,-692,0,0,0,0,0,0,0,0,0,-1,1987,1716,0,0
770,-692,0,0,0,0,0,0,0,0,0,-1,1994,1716,0,0
777,-692,0,0,0,0,0,0,0,0,0,-1,2001,1716,0,0
784,-692,0,0,0,0,0,0,0,0,0,-1,2008,1716,0,0
791,-692,0,0,0,0,0,0,0,0,0,-1,2015,1716,0,0
798,-692,0,0,0,0,0,0,0,0,0,-1,2022,1716,0,0
805,-692,0,0,0,0,0,0,0,0,0,-1,2029,1716,0,0
812,-692,0,0,0,0,0,0,0,0,0,-1,2036,1716,0,0
-700,-699,0,0,0,0,0,0,0,0,0,-1,524,1723,0,0
-693,-699,0,0,0,0,0,0,0,0,0,-1,531,1723,0,0
-686,-699,0,0,0,0,0,0,0,0,0,-1,538,1723,0,0
-679,-699,0,0,0,0,0,0,0,0,0,-1,545,1723,0,0
-672,-699,0,0,0,0,0,0,0,0,0,-1,552,1723,0,0
-665,-699,0,0,0,0,0,0,0,0,0,-1,559,1723,0,0
-658,-699,0,0,0,0,0,0,0,0,0,-1,566,1723,0,0
-651,-699,0,0,0,0,0,0,0,0,0,-1,573,1723,0,0
-644,-699,0,0,0,0,0,0,0,0,0,-1,580,1723,0,0
-637,-699,0,0,0,0,0,0,0,0,0,-1,587,1723,0,0
-630,-699,0,0,0,0,0,0,0,0,0,-1,594,1723,0,0
-623,-699,0,0,0,0,0,0,0,0,0,-1,601,1723,0,0
-616,-699,0,0,0,0,0,0,0,0,0,-1,608,1723,0,0
-609,-699,0,0,0,0,0,0,0,0,0,-1,615,1723,0,0
-602,-699,0,0,0,0,0,0,0,0,0,-1,622,1723,0,0
-595,-699,0,0,0,0,0,0,0,0,0,-1,629,1723,0,0
-588,-699,0,0,0,0,0,0,0,0,0,-1,636,1723,0,0
-581,-699,0,0,0,0,0,0,0,0,0,-1,643,1723,0,0
-574,-699,0,0,0,0,0,0,0,0,0,-1,650,1723,0,0
-567,-699,0,0,0,0,0,0,0,0,0,-1,657,1723,0,0
-560,-699,0,0,0,0,0,0,0,0,0,-1,664,1723,0,0
-553,-699,0,0,0,0,0,0,0,0,0,-1,671,1723,0,0
-546,-699,0,0,0,0,0,0,0,0,0,-1,678,1723,0,0
-539,-699,0,0,0,0,0,0,0,0,0,-1,685,1723,0,0
-532,-699,0,0,0,0,0,0,0,0,0,-1,692,1723,0,0
-525,-699,0,0,0,0,0,0,0,0,0,-1,699,1723,0,0
-518,-699,0,0,0,0,0,0,0,0,0,-1,706,1723,0,0
-511,-699,0,0,0,0,0,0,0,0,0,-1,713,1723,0,0
-504,-699,0,0,0,0,0,0,0,0,0,-1,720,1723,0,0
-497,-699,0,0,0,0,0,0,0,0,0,-1,727,1723,0,0
-490,-699,0,0,0,0,0,0,0,0,0,-1,734,1723,0,0
-483,-699,0,0,0,0,0,0,0,0,0,-1,741,1723,0,0
-476,-699,0,0,0,0,0,0,0,0,0,-1,748,1723,0,0
-469,-699,0,0,0,0,0,0,0,0,0,-1,755,1723,0,0
-462,-699,0,0,0,0,0,0,0,0,0,-1,762,1723,0,0
-455,-699,0,0,0,0,0,0,0,0,0,-1,769,1723,0,0
-448,-699,0,0,0,0,0,0,0,0,0,-1,776,1723,0,0
-441,-699,0,0,0,0,0,0,0,0,0,-1,783,1723,0,0
-434,-699,0,0,0,0,0,0,0,0,0,-1,790,1723,0,0
-427,-699,0,0,0,0,0,0,0,0,0,-1,797,1723,0,0
-420,-699,0,0,0,0,0,0,0,0,0,-1,804,1723,0,0
-413,-699,0,0,0,0,0,0,0,0,0,-1,811,1723,0,0
-406,-699,0,0,0,0,0,0,0,0,0,-1,818,1723,0,0
-399,-699,0,0,0,0,0,0,0,0,0,-1,825,1723,0,0
-392,-699,0,0,0,0,0,0,0,0,0,-1,832,1723,0,0
-385,-699,0,0,0,0,0,0,0,0,0,-1,839,1723,0,0
-378,-699,0,0,0,0,0,0,0,0,0,-1,846,1723,0,0
-371,-699,0,0,0,0,0,0,0,0,0,-1,853,1723,0,0
-364,-699,0,0,0,0,0,0,0,0,0,-1,860,1723,0,0
-357,-699,0,0,0,0,0,0,0,0,0,-1,867,1723,0,0
-350,-699,0,0,0,0,0,0,0,0,0,-1,874,1723,0,0
-343,-699,0,0,0,0,0,0,0,0,0,-1,881,1723,0,0
-336,-699,0,0,0,0,0,0,0,0,0,-1,888,1723,0,0
-329,-699,0,0,0,0,0,0,0,0,0,-1,895,1723,0,0
-322,-699,0,0,0,0,0,0,0,0,0,-1,902,1723,0,0
-315,-699,6.20001,19.5193,0,0,0,0,0,0,0,-1,909,1723,6.20001,-19.5193
-308,-699,6.98151,18.9218,0,0,0,0,0,0,0,-1,916,1723,6.98151,-18.9217
-301,-699,4.72729,12.8752,0,0,0,0,0,0,0,-1,923,1723,4.72732,-12.8752
-294,-699,6.90332,19.8601,0,0,0,0,0,0,0,-1,930,1723,6.90332,-19.8601
-287,-699,6.16406,19.6458,0,0,0,0,0,0,0,-1,937,1723,6.16407,-19.6457
-280,-699,5.85413,17.4639,0,0,0,0,0,0,0,-1,944,1723,5.85414,-17.4639
-273,-699,9.08301,16.9208,0,0,0,0,0,0,0,-1,951,1723,9.08302,-16.9207
-266,-699,9.6546,17.3992,0,0,0,0,0,0,0,-1,958,1723,9.65459,-17.3991
-259,-699,5.67737,10.8545,0,0,0,0,0,0,0,-1,965,1723,5.67736,-10.8545
-252,-699,5.60577,17.754,0,0,0,0,0,0,0,-1,972,1723,5.60576,-17.754
-245,-699,6.50586,19.3481,0,0,0,0,0,0,0,-1,979,1723,6.50585,-19.3481
-238,-699,6.34583,19.5231,0,0,0,0,0,0,0,-1,986,1723,6.34584,-19.5231
-231,-699,6.24164,20.5701,-0.0104983,-0.00652158,-0.00736809,-0.000878292,-0.0161416,-0.917191,0.0104806,0.0439584,993,1723,6.24161,-20.5701
-224,-699,5.44336,20.4802,-0.00859111,-0.00566316,-0.00610883,-0.000845332,-0.0134089,-0.903005,0.00867126,0.0373983,1000,1723,5.44339,-20.4802
-217,-699,5.60162,20.4984,-0.00698786,-0.00420951,-0.00509405,-0.000318612,-0.0108788,-0.918514,0.00714867,0.0251545,1007,1723,5.60164,-20.4984
-210,-699,5.65112,20.6797,-0.00527618,-0.00329405,-0.00388341,-0.000277243,-0.00829299,-0.910334,0.0054386,0.0177061,1014,1723,5.65113,-20.6797
-203,-699,5.61865,20.8766,-0.00369266,-0.00218368,-0.00276895,-6.82629e-05,-0.00580807,-0.91841,0.00384949,0.021585,1021,1723,5.61866,-20.8766
-196,-699,5.60876,21.0601,-0.00247655,-0.0016392,-0.00185424,-0.000156954,-0.0039588,-0.896432,0.00258847,0.0185248,1028,1723,5.60874,-21.0601
-189,-699,5.57813,21.3026,-0.00149821,-0.00135828,-0.001159,-0.000267138,-0.00258935,-0.815543,0.00164444,0.00965796,1035,1723,5.57816,-21.3026
-182,-699,5.57336,21.4958,-0.00113453,-0.000860976,-0.000812189,-0.000174126,-0.00182138,-0.868817,0.00116057,0.0124275,1042,1723,5.57331,-21.4959
-175,-699,5.58667,21.6925,-0.000534799,-1.27289e-05,-0.000275556,0.000105802,-0.00065333,-1.16457,0.000474767,0.0147602,1049,1723,5.58669,-21.6925
-168,-699,5.61267,21.8824,-0.000310197,0.000591313,-3.74413e-05,0.000592866,-0.00031175,-1.52936,0.000530619,0.0162531,1056,1723,5.61273,-21.8825
-161,-699,5.58667,22.0665,-0.000448471,0.000819658,0.000147505,0.00083659,-0.000465403,1.45651,0.00076182,0.0141625,1063,1723,5.58673,-22.0665
-154,-699,5.54846,22.2413,-0.000318616,0.00107798,0.000281118,0.00113244,-0.000373077,1.37943,0.00090532,0.0134914,1070,1723,5.54849,-22.2414
-147,-699,5.55249,22.4072,-9.80112e-05,0.00127675,0.000416534,0.0013931,-0.000214367,1.2984,0.00100782,0.0147761,1077,1723,5.55253,-22.4072
-140,-699,5.54858,22.5543,9.2548e-05,0.00149867,0.000509116,0.00166365,-7.24307e-05,1.25742,0.00113402,0.00998824,1084,1723,5.5486,-22.5543
-133,-699,5.54419,22.7219,0.000470246,0.00164357,0.000604544,0.00189931,0.000214503,1.17059,0.00120111,0.00886148,1091,1723,5.5442,-22.7219
-126,-699,5.53772,22.8698,0.000905199,0.00179592,0.000663141,0.00214937,0.000551746,1.0811,0.00128898,0.0109451,1098,1723,5.53775,-22.8698
-119,-699,5.55493,23.0333,0.00127605,0.00193924,0.000743608,0.00242184,0.000793455,0.995127,0.00142568,0.01546,1105,1723,5.55493,-23.0333
-112,-699,5.53247,23.1963,0.0017332,0.00189357,0.000842599,0.00265979,0.000966982,0.832837,0.00155457,0.0110453,1112,1723,5.53248,-23.1963
-105,-699,5.55249,23.3379,0.00216324,0.00178652,0.000891661,0.00288622,0.00106354,0.681303,0.00168546,0.0118429,1119,1723,5.55252,-23.3379
-98,-699,5.60205,23.4618,0.00250022,0.00159079,0.00097516,0.00312147,0.000969542,0.567237,0.00184478,0.013623,1126,1723,5.60205,-23.4618
-91,-699,5.61401,23.588,0.00280849,0.00140193,0.00106265,0.0033795,0.00083092,0.493079,0.00203343,0.0198466,1133,1723,5.61399,-23.588
-84,-699,5.59058,23.7163,0.00309669,0.00122605,0.00111133,0.00361391,0.00070883,0.435592,0.0022112,0.0245135,1140,1723,5.59063,-23.7164
-77,-699,5.60217,23.8347,0.00314437,0.00125019,0.000929027,0.00352396,0.000870601,0.387884,0.00211957,0.0166304,1147,1723,5.60223,-23.8347
-70,-699,5.60071,23.9586,0.00317155,0.00131792,0.000669593,0.00338812,0.00110134,0.312823,0.00199565,0.0160836,1154,1723,5.60066,-23.9586
-63,-699,5.61304,24.0598,0.00342136,0.000989871,0.000194261,0.00343678,0.000974449,0.0792242,0.00204527,0.0135175,1161,1723,5.61302,-24.0598
-56,-699,5.62061,24.1416,0.00262377,-0.000427321,-0.000472922,0.00269539,-0.000498943,-0.150304,0.00198426,0.0106145,1168,1723,5.62055,-24.1416
-49,-699,5.64844,24.2568,0.00147633,-0.00138642,-0.000851431,0.00171042,-0.00162051,-0.268306,0.00192335,0.0229915,1175,1723,5.6484,-24.2568
-42,-699,5.66101,24.4133,-5.52529e-05,-0.000796368,-0.000590579,0.000271396,-0.00112302,-0.505219,0.000853647,0.0261586,1182,1723,5.66096,-24.4133
-35,-699,5.6803,24.5073,-0.00200621,-0.00049012,-0.000186906,-0.000467418,-0.00202891,-1.44993,0.00122685,0.0242078,1189,1723,5.68036,-24.5073
-28,-699,5.71851,24.5509,-0.00405759,0.000414932,0.000213214,0.000425074,-0.00406773,1.52327,0.00286404,0.019845,1196,1723,5.71856,-24.5509
-21,-699,5.70349,24.5496,-0.00571429,0.00115288,0.000838355,0.00125375,-0.00581516,1.45106,0.00435526,0.0134759,1203,1723,5.70348,-24.5496
-14,-699,5.71484,24.6377,-0.00695278,0.00214006,0.00203148,0.00257328,-0.007386,1.36069,0.00596959,0.0114719,1210,1723,5.71481,-24.6377
-7,-699,5.75024,24.7299,-0.00839696,0.00523878,0.00384859,0.00625002,-0.0094082,1.31385,0.00910137,0.00856263,1217,1723,5.75028,-24.7298
0,-699,5.77783,24.8032,-0.00987819,0.00931867,0.00570508,0.0108862,-0.0114457,1.30266,0.0128946,0.00952274,1224,1723,5.77778,-24.8032
7,-699,5.78015,24.8721,-0.0113333,0.0138008,0.00753417,0.0158862,-0.0134187,1.30076,0.0169392,0.0145863,1231,1723,5.78014,-24.8721
14,-699,5.80518,24.925,-0.0127223,0.0191586,0.00930626,0.0216763,-0.01524,1.30658,0.0214214,0.0168175,1238,1723,5.80518,-24.9251
21,-699,5.84241,24.9421,-0.0139717,0.0248596,0.0106903,0.0276081,-0.0167202,1.31914,0.025849,0.0158967,1245,1723,5.84245,-24.9421
28,-699,5.84106,24.9377,-0.0146151,0.0293123,0.0117674,0.032266,-0.0175688,1.32487,0.0291862,0.0159129,1252,1723,5.84101,-24.9377
35,-699,5.85974,25.0013,-0.0148384,0.0326948,0.012473,0.035769,-0.0179126,1.32915,0.0315594,0.0141654,1259,1723,5.85969,-25.0014
42,-699,5.91418,25.0448,-0.0148126,0.0352224,0.0127944,0.0383043,-0.0178944,1.33443,0.0331519,0.0124647,1266,1723,5.91423,-25.0448
49,-699,5.96863,25.0654,-0.0141051,0.0365287,0.0128239,0.0395913,-0.0171678,1.33637,0.0336115,0.0147359,1273,1723,5.96858,-25.0655
56,-699,5.98987,25.0905,-0.0129918,0.0354753,0.0122681,0.0384036,-0.0159202,1.33648,0.0322469,0.014864,1280,1723,5.98982,-25.0904
63,-699,5.98193,25.0909,-0.0109871,0.0320653,0.0112345,0.0348206,-0.0137423,1.33029,0.0289047,0.0125457,1287,1723,5.98199,-25.0909
70,-699,6.00854,25.0731,-0.00824326,0.0276589,0.0101868,0.0303479,-0.0109322,1.31272,0.0246962,0.0109613,1294,1723,6.00858,-25.0731
77,-699,6.01306,25.0898,-0.00540197,0.0225312,0.00907783,0.0252221,-0.00809288,1.28262,0.020064,0.0107165,1301,1723,6.01304,-25.0898
84,-699,6.01648,25.0781,-0.00270796,0.0167085,0.00792667,0.0195335,-0.00553296,1.22844,0.015206,0.0127789,1308,1723,6.01653,-25.0781
91,-699,6.06274,25.053,8.80564e-07,0.0107615,0.00686666,0.0141047,-0.00334227,1.11771,0.0106928,0.0124347,1315,1723,6.06279,-25.053
98,-699,6.11365,25.0461,0.00296557,0.00433112,0.00594103,0.00962848,-0.00233178,0.84261,0.00732109,0.0111528,1322,1723,6.11368,-25.0461
105,-699,6.13757,25.0574,0.00572668,-0.000925955,0.0053914,0.00873531,-0.00393459,0.508997,0.00748796,0.0151215,1329,1723,6.13757,-25.0573
112,-699,6.11658,25.0338,0.00799149,-0.00411778,0.00523271,0.00993934,-0.00606564,0.356354,0.00933026,0.0212423,1336,1723,6.11656,-25.0338
119,-699,6.13599,25.0016,0.00991853,-0.00650139,0.00510391,0.0113757,-0.00795856,0.278102,0.0112206,0.0162472,1343,1723,6.13597,-25.0016
126,-699,6.18774,24.9554,0.0113151,-0.00761641,0.00516551,0.0126328,-0.00893411,0.24977,0.0125126,0.017965,1350,1723,6.18771,-24.9555
133,-699,6.23181,24.9025,0.0116118,-0.00664307,0.005202,0.0129901,-0.00802139,0.259008,0.0122436,0.017032,1357,1723,6.23178,-24.9024
140,-699,6.24048,24.8459,0.0116234,-0.00558314,0.00504306,0.0129925,-0.00695227,0.265098,0.0116898,0.0181103,1364,1723,6.24047,-24.846
147,-699,6.23157,24.8285,0.0113199,-0.00453073,0.00488486,0.0127044,-0.00591522,0.276181,0.0109857,0.0137579,1371,1723,6.23155,-24.8284
154,-699,6.22925,24.7773,0.0106297,-0.00341436,0.00456623,0.0119838,-0.00476844,0.288283,0.00996647,0.0133811,1378,1723,6.22924,-24.7773
161,-699,6.28003,24.6805,0.0100303,-0.00240839,0.00416106,0.0112939,-0.003672,0.294825,0.00900637,0.0102028,1385,1723,6.28006,-24.6805
168,-699,6.2981,24.6262,0.00879791,-0.00139789,0.00382108,0.010071,-0.00267095,0.321603,0.00775909,0.01163,1392,1723,6.29805,-24.6262
175,-699,6.3064,24.5763,0.00684975,-0.000589363,0.00316794,0.00801598,-0.0017556,0.35274,0.0060152,0.0139443,1399,1723,6.30643,-24.5763
182,-699,6.32581,24.4928,0.00545515,-0.000653556,0.00271003,0.00648409,-0.0016825,0.362868,0.00497923,0.0149457,1406,1723,6.32579,-24.4928
189,-699,6.31152,24.4222,0.00472645,-0.000200457,0.00221512,0.00557591,-0.00104991,0.366185,0.00411216,0.0170608,1413,1723,6.31154,-24.4223
196,-699,6.31384,24.3201,0.00357799,0.000657363,0.00150356,0.00421368,2.16798e-05,0.399994,0.00280192,0.0164026,1420,1723,6.31384,-24.32
203,-699,6.32288,24.2069,0.00227517,0.000601557,0.000547772,0.00243852,0.000438214,0.2898,0.00150108,0.013445,1427,1723,6.3229,-24.2069
210,-699,6.35181,24.1084,0.00194866,0.000447726,0.000445212,0.00207078,0.000325602,0.26772,0.0012858,0.0129851,1434,1723,6.35178,-24.1084
217,-699,6.37817,24.0126,0.0014964,0.000221916,0.000276822,0.00155393,0.000164386,0.204906,0.000985735,0.0141899,1441,1723,6.37822,-24.0126
224,-699,6.38269,23.9036,0.0011757,0.000198902,0.0002352,0.00122938,0.000145219,0.224399,0.000775726,0.0152649,1448,1723,6.38266,-23.9035
231,-699,6.38611,23.7883,0.00083625,0.00014842,0.000147203,0.000866429,0.000118241,0.202214,0.000542518,0.011189,1455,1723,6.38605,-23.7883
238,-699,6.38257,23.632,0.000568757,0.000144871,9.05896e-05,0.000587305,0.000126322,0.201961,0.000356959,0.0105334,1462,1723,6.38256,-23.632
245,-699,6.40063,23.5068,0.000334795,0.000135735,3.8946e-05,0.000342143,0.000128386,0.186492,0.000199576,0.0124437,1469,1723,6.40059,-23.5068
252,-699,6.3916,23.4196,0.000117645,0.000178715,-2.7334e-05,0.000189162,0.000107198,-1.20572,0.000109536,0.011264,1476,1723,6.39157,-23.4195
259,-699,6.37854,23.2712,-2.98288e-05,0.000285514,-8.10525e-05,0.000305127,-4.94418e-05,-1.33338,0.000221744,0.011599,1483,1723,6.3785,-23.2713
266,-699,6.37,23.1082,-0.000116182,0.000488889,-0.000174902,0.000535808,-0.000163101,-1.30871,0.000422208,0.0127918,1490,1723,6.37002,-23.1082
273,-699,6.37695,22.9778,-0.000158408,0.00079171,-0.000255468,0.000856044,-0.000222742,-1.3241,0.00065764,0.0113784,1497,1723,6.37699,-22.9778
280,-699,6.40234,22.8221,-0.000180246,0.000934745,-0.00036962,0.00104614,-0.000291646,-1.27807,0.000812289,0.0117023,1504,1723,6.4024,-22.8221
287,-699,6.38525,22.6494,-0.0001308,0.000895885,-0.000419205,0.0010453,-0.000280219,-1.2284,0.000806666,0.0104005,1511,1723,6.38524,-22.6494
294,-699,6.38513,22.5137,-0.000182942,0.000941453,-0.000593332,0.00119664,-0.000438124,-1.16463,0.000977108,0.0109911,1518,1723,6.38509,-22.5137
301,-699,6.38953,22.3693,-0.000533221,0.000832847,-0.000638547,0.00108484,-0.000785215,-1.19492,0.00108429,0.0123828,1525,1723,6.38957,-22.3692
308,-699,6.37463,22.1963,-0.000766007,0.000442514,-0.000630821,0.00071179,-0.00103528,-1.16735,0.00101442,0.016549,1532,1723,6.37463,-22.1962
315,-699,6.38525,22.0244,-0.000864957,-3.64841e-05,-0.000731251,0.000389708,-0.00129115,-1.0431,0.0010159,0.0189005,1539,1723,6.38525,-22.0244
322,-699,6.36353,21.8403,-0.000903786,-0.000503311,-0.000889444,0.000208156,-0.00161525,-0.896116,0.0011525,0.0186406,1546,1723,6.36358,-21.8403
329,-699,6.32178,21.6467,-0.000986899,-0.00129037,-0.00096548,-0.000161303,-0.00211596,-0.707455,0.00136007,0.0147386,1553,1723,6.32178,-21.6467
336,-699,6.33252,21.4659,-0.000803884,-0.00219071,-0.00106423,-0.000227096,-0.00276749,-0.496662,0.00177415,0.0141741,1560,1723,6.33253,-21.4659
343,-699,6.32898,21.2687,-0.00038267,-0.00312556,-0.00137708,0.000189393,-0.00369762,-0.393725,0.00253058,0.017634,1567,1723,6.32896,-21.2686
350,-699,6.27124,21.0535,3.76896e-05,-0.00443929,-0.00155506,0.000524829,-0.00492643,-0.303577,0.00347248,0.0278606,1574,1723,6.27118,-21.0535
357,-699,6.24792,20.9227,0.000915151,-0.005459,-0.00182711,0.00140174,-0.00594559,-0.260274,0.00450427,0.0389467,1581,1723,6.24789,-20.9227
364,-699,6.39734,20.7611,0.00206011,-0.00664488,-0.00210804,0.00254373,-0.0071285,-0.225516,0.00578961,0.0434813,1588,1723,6.39734,-20.7612
371,-699,6.51038,20.4597,0.00334545,-0.00788583,-0.00253554,0.00389133,-0.00843171,-0.212056,0.0072739,0.0496496,1595,1723,6.51038,-20.4597
378,-699,6.64319,20.094,0,0,0,0,0,0,0,-1,1602,1723,6.64319,-20.094
385,-699,6.3103,19.6388,0,0,0,0,0,0,0,-1,1609,1723,6.31034,-19.6387
392,-699,5.21069,16.861,0,0,0,0,0,0,0,-1,1616,1723,5.21066,-16.8609
399,-699,3.91516,9.81726,0,0,0,0,0,0,0,-1,1623,1723,3.9152,-9.81721
406,-699,5.50757,21.6672,0,0,0,0,0,0,0,-1,1630,1723,5.50755,-21.6672
413,-699,9.31396,23.2781,0,0,0,0,0,0,0,-1,1637,1723,9.31396,-23.278
420,-699,2.15076,7.65527,0,0,0,0,0,0,0,-1,1644,1723,2.15079,-7.65522
427,-699,3.36328,8.2428,0,0,0,0,0,0,0,-1,1651,1723,3.36332,-8.24283
434,-699,4.66455,8.90222,0,0,0,0,0,0,0,-1,1658,1723,4.66456,-8.90223
441,-699,0,0,0,0,0,0,0,0,0,-1,1665,1723,0,0
448,-699,0,0,0,0,0,0,0,0,0,-1,1672,1723,0,0
455,-699,0,0,0,0,0,0,0,0,0,-1,1679,1723,0,0
462,-699,0,0,0,0,0,0,0,0,0,-1,1686,1723,0,0
469,-699,0,0,0,0,0,0,0,0,0,-1,1693,1723,0,0
476,-699,0,0,0,0,0,0,0,0,0,-1,1700,1723,0,0
483,-699,0,0,0,0,0,0,0,0,0,-1,1707,1723,0,0
490,-699,0,0,0,0,0,0,0,0,0,-1,1714,1723,0,0
497,-699,0,0,0,0,0,0,0,0,0,-1,1721,1723,0,0
504,-699,0,0,0,0,0,0,0,0,0,-1,1728,1723,0,0
511,-699,0,0,0,0,0,0,0,0,0,-1,1735,1723,0,0
518,-699,0,0,0,0,0,0,0,0,0,-1,1742,1723,0,0
525,-699,0,0,0,0,0,0,0,0,0,-1,1749,1723,0,0
532,-699,0,0,0,0,0,0,0,0,0,-1,1756,1723,0,0
539,-699,0,0,0,0,0,0,0,0,0,-1,1763,1723,0,0
546,-699,0,0,0,0,0,0,0,0,0,-1,1770,1723,0,0
553,-699,0,0,0,0,0,0,0,0,0,-1,1777,1723,0,0
560,-699,0,0,0,0,0,0,0,0,0,-1,1784,1723,0,0
567,-699,0,0,0,0,0,0,0,0,0,-1,1791,1723,0,0
574,-699,0,0,0,0,0,0,0,0,0,-1,1798,1723,0,0
581,-699,0,0,0,0,0,0,0,0,0,-1,1805,1723,0,0
588,-699,0,0,0,0,0,0,0,0,0,-1,1812,1723,0,0
595,-699,0,0,0,0,0,0,0,0,0,-1,1819,1723,0,0
602,-699,0,0,0,0,0,0,0,0,0,-1,1826,1723,0,0
609,-699,0,0,0,0,0,0,0,0,0,-1,1833,1723,0,0
616,-699,0,0,0,0,0,0,0,0,0,-1,1840,1723,0,0
623,-699,0,0,0,0,0,0,0,0,0,-1,1847,1723,0,0
630,-699,0,0,0,0,0,0,0,0,0,-1,1854,1723,0,0
637,-699,0,0,0,0,0,0,0,0,0,-1,1861,1723,0,0
644,-699,0,0,0,0,0,0,0,0,0,-1,1868,1723,0,0
651,-699,0,0,0,0,0,0,0,0,0,-1,1875,1723,0,0
658,-699,0,0,0,0,0,0,0,0,0,-1,1882,1723,0,0
665,-699,0,0,0,0,0,0,0,0,0,-1,1889,1723,0,0
672,-699,0,0,0,0,0,0,0,0,0,-1,1896,1723,0,0
679,-699,0,0,0,0,0,0,0,0,0,-1,1903,1723,0,0
686,-699,0,0,0,0,0,0,0,0,0,-1,1910,1723,0,0
693,-699,0,0,0,0,0,0,0,0,0,-1,1917,1723,0,0
700,-699,0,0,0,0,0,0,0,0,0,-1,1924,1723,0,0
707,-699,0,0,0,0,0,0,0,0,0,-1,1931,1723,0,0
714,-699,0,0,0,0,0,0,0,0,0,-1,1938,1723,0,0
721,-699,0,0,0,0,0,0,0,0,0,-1,1945,1723,0,0
728,-699,0,0,0,0,0,0,0,0,0,-1,1952,1723,0,0
735,-699,0,0,0,0,0,0,0,0,0,-1,1959,1723,0,0
742,-699,0,0,0,0,0,0,0,0,0,-1,1966,1723,0,0
749,-699,0,0,0,0,0,0,0,0,0,-1,1973,1723,0,0
756,-699,0,0,0,0,0,0,0,0,0,-1,1980,1723,0,0
763,-699,0,0,0,0,0,0,0,0,0,-1,1987,1723,0,0
770,-699,0,0,0,0,0,0,0,0,0,-1,1994,1723,0,0
777,-699,0,0,0,0,0,0,0,0,0,-1,2001,1723,0,0
784,-699,0,0,0,0,0,0,0,0,0,-1,2008,1723,0,0
791,-699,0,0,0,0,0,0,0,0,0,-1,2015,1723,0,0
798,-699,0,0,0,0,0,0,0,0,0,-1,2022,1723,0,0
805,-699,0,0,0,0,0,0,0,0,0,-1,2029,1723,0,0
812,-699,0,0,0,0,0,0,0,0,0,-1,2036,1723,0,0
-700,-706,0,0,0,0,0,0,0,0,0,-1,524,1730,0,0
-693,-706,0,0,0,0,0,0,0,0,0,-1,531,1730,0,0
-686,-706,0,0,0,0,0,0,0,0,0,-1,538,1730,0,0
-679,-706,0,0,0,0,0,0,0,0,0,-1,545,1730,0,0
-672,-706,0,0,0,0,0,0,0,0,0,-1,552,1730,0,0
-665,-706,0,0,0,0,0,0,0,0,0,-1,559,1730,0,0
-658,-706,0,0,0,0,0,0,0,0,0,-1,566,1730,0,0
-651,-706,0,0,0,0,0,0,0,0,0,-1,573,1730,0,0
-644,-706,0,0,0,0,0,0,0,0,0,-1,580,1730,0,0
-637,-706,0,0,0,0,0,0,0,0,0,-1,587,1730,0,0
-630,-706,0,0,0,0,0,0,0,0,0,-1,594,1730,0,0
-623,-706,0,0,0,0,0,0,0,0,0,-1,601,1730,0,0
-616,-706,0,0,0,0,0,0,0,0,0,-1,608,1730,0,0
-609,-706,0,0,0,0,0,0,0,0,0,-1,615,1730,0,0
-602,-706,0,0,0,0,0,0,0,0,0,-1,622,1730,0,0
-595,-706,0,0,0,0,0,0,0,0,0,-1,629,1730,0,0
-588,-706,0,0,0,0,0,0,0,0,0,-1,636,1730,0,0
-581,-706,0,0,0,0,0,0,0,0,0,-1,643,1730,0,0
-574,-706,0,0,0,0,0,0,0,0,0,-1,650,1730,0,0
-567,-706,0,0,0,0,0,0,0,0,0,-1,657,1730,0,0
-560,-706,0,0,0,0,0,0,0,0,0,-1,664,1730,0,0
-553,-706,0,0,0,0,0,0,0,0,0,-1,671,1730,0,0
-546,-706,0,0,0,0,0,0,0,0,0,-1,678,1730,0,0
-539,-706,0,0,0,0,0,0,0,0,0,-1,685,1730,0,0
-532,-706,0,0,0,0,0,0,0,0,0,-1,692,1730,0,0
-525,-706,0,0,0,0,0,0,0,0,0,-1,699,1730,0,0
-518,-706,0,0,0,0,0,0,0,0,0,-1,706,1730,0,0
-511,-706,0,0,0,0,0,0,0,0,0,-1,713,1730,0,0
-504,-706,0,0,0,0,0,0,0,0,0,-1,720,1730,0,0
-497,-706,0,0,0,0,0,0,0,0,0,-1,727,1730,0,0
-490,-706,0,0,0,0,0,0,0,0,0,-1,734,1730,0,0
-483,-706,0,0,0,0,0,0,0,0,0,-1,741,1730,0,0
-476,-706,0,0,0,0,0,0,0,0,0,-1,748,1730,0,0
-469,-706,0,0,0,0,0,0,0,0,0,-1,755,1730,0,0
-462,-706,0,0,0,0,0,0,0,0,0,-1,762,1730,0,0
-455,-706,0,0,0,0,0,0,0,0,0,-1,769,1730,0,0
-448,-706,0,0,0,0,0,0,0,0,0,-1,776,1730,0,0
-441,-706,0,0,0,0,0,0,0,0,0,-1,783,1730,0,0
-434,-706,0,0,0,0,0,0,0,0,0,-1,790,1730,0,0
-427,-706,0,0,0,0,0,0,0,0,0,-1,797,1730,0,0
-420,-706,0,0,0,0,0,0,0,0,0,-1,804,1730,0,0
-413,-706,0,0,0,0,0,0,0,0,0,-1,811,1730,0,0
-406,-706,0,0,0,0,0,0,0,0,0,-1,818,1730,0,0
-399,-706,0,0,0,0,0,0,0,0,0,-1,825,1730,0,0
-392,-706,0,0,0,0,0,0,0,0,0,-1,832,1730,0,0
-385,-706,0,0,0,0,0,0,0,0,0,-1,839,1730,0,0
-378,-706,0,0,0,0,0,0,0,0,0,-1,846,1730,0,0
-371,-706,0,0,0,0,0,0,0,0,0,-1,853,1730,0,0
-364,-706,0,0,0,0,0,0,0,0,0,-1,860,1730,0,0
-357,-706,0,0,0,0,0,0,0,0,0,-1,867,1730,0,0
-350,-706,0,0,0,0,0,0,0,0,0,-1,874,1730,0,0
-343,-706,0,0,0,0,0,0,0,0,0,-1,881,1730,0,0
-336,-706,0,0,0,0,0,0,0,0,0,-1,888,1730,0,0
-329,-706,0,0,0,0,0,0,0,0,0,-1,895,1730,0,0
-322,-706,0,0,0,0,0,0,0,0,0,-1,902,1730,0,0
-315,-706,0,0,0,0,0,0,0,0,0,-1,909,1730,0,0
-308,-706,5.08191,14.6245,0,0,0,0,0,0,0,-1,916,1730,5.08188,-14.6245
-301,-706,7.45007,21.1975,0,0,0,0,0,0,0,-1,923,1730,7.45005,-21.1976
-294,-706,7.04108,20.9526,0,0,0,0,0,0,0,-1,930,1730,7.04107,-20.9527
-287,-706,6.48712,20.8536,0,0,0,0,0,0,0,-1,937,1730,6.48709,-20.8537
-280,-706,5.87341,20.8206,0,0,0,0,0,0,0,-1,944,1730,5.87338,-20.8206
-273,-706,5.28461,20.999,0,0,0,0,0,0,0,-1,951,1730,5.2846,-20.999
-266,-706,6.81213,14.6445,0,0,0,0,0,0,0,-1,958,1730,6.81216,-14.6445
-259,-706,3.47852,20.7363,0,0,0,0,0,0,0,-1,965,1730,3.47851,-20.7364
-252,-706,3.84259,20.1979,0,0,0,0,0,0,0,-1,972,1730,3.84256,-20.1979
-245,-706,4.698,19.2992,0,0,0,0,0,0,0,-1,979,1730,4.69799,-19.2991
-238,-706,5.3548,19.2769,0,0,0,0,0,0,0,-1,986,1730,5.35479,-19.2769
-231,-706,6.78101,20.8838,0,0,0,0,0,0,0,-1,993,1730,6.78102,-20.8837
-224,-706,5.44714,20.5929,0,0,0,0,0,0,0,-1,1000,1730,5.44717,-20.5929
-217,-706,5.70172,20.5472,-0.00852997,-0.00529027,-0.00676475,4.58602e-05,-0.0138661,-0.902913,0.00925939,0.0432242,1007,1730,5.70169,-20.5472
-210,-706,5.9585,20.7081,-0.00629047,-0.00406337,-0.00510426,4.73894e-05,-0.0104012,-0.892796,0.00695001,0.040031,1014,1730,5.95851,-20.7081
-203,-706,5.7511,21.0531,-0.0042678,-0.00258288,-0.00354616,0.000219519,-0.0070702,-0.902021,0.00478832,0.0300436,1021,1730,5.75115,-21.0531
-196,-706,5.84619,21.1361,-0.00271352,-0.00196795,-0.0022843,-2.6226e-05,-0.00465525,-0.866282,0.0030948,0.0233387,1028,1730,5.84616,-21.1361
-189,-706,5.81836,21.3153,-0.00154039,-0.00169419,-0.0014028,-0.000212389,-0.0030222,-0.758016,0.00194787,0.0178793,1035,1730,5.8183,-21.3153
-182,-706,5.75867,21.5159,-0.00143115,-0.00102065,-0.000988875,-0.000215948,-0.00223585,-0.887727,0.00142405,0.0125434,1042,1730,5.75861,-21.5159
-175,-706,5.76709,21.6984,-0.0010141,-6.57519e-07,-0.000290119,7.6518e-05,-0.00109127,-1.3108,0.000754317,0.0139403,1049,1730,5.76712,-21.6984
-168,-706,5.80176,21.8633,-0.000904836,0.000814632,4.33439e-05,0.000815724,-0.000905928,1.54561,0.000994451,0.0160292,1056,1730,5.80175,-21.8633
-161,-706,5.76758,22.0442,-0.00120349,0.0010885,0.000284917,0.00112339,-0.00123838,1.44896,0.00136411,0.0129053,1063,1730,5.76757,-22.0442
-154,-706,5.70837,22.2587,-0.00120233,0.00142021,0.000444868,0.00149362,-0.00127574,1.40726,0.00160054,0.0125614,1070,1730,5.70841,-22.2587
-147,-706,5.70789,22.4021,-0.00110211,0.00170904,0.000622487,0.00184071,-0.00123379,1.36234,0.00178655,0.0120929,1077,1730,5.70783,-22.4021
-140,-706,5.71997,22.5558,-0.00101901,0.00205316,0.000736894,0.00222076,-0.00118662,1.34715,0.00199723,0.0111179,1084,1730,5.71996,-22.5558
-133,-706,5.6969,22.7034,-0.000713131,0.00231727,0.000830224,0.00252982,-0.000925675,1.32017,0.00206545,0.00863139,1091,1730,5.69687,-22.7034
-126,-706,5.68738,22.8527,-0.000358755,0.00255134,0.00083107,0.00277195,-0.000579369,1.31132,0.00206832,0.0133983,1098,1730,5.68736,-22.8527
-119,-706,5.69141,23.0173,-5.69528e-05,0.00279185,0.000878013,0.00304071,-0.00030582,1.2946,0.00213639,0.0178527,1105,1730,5.69145,-23.0173
-112,-706,5.69934,23.1969,0.000385634,0.00277915,0.00096002,0.00311662,4.81594e-05,1.23276,0.00206188,0.0121773,1112,1730,5.69939,-23.1969
-105,-706,5.69434,23.3419,0.000805906,0.00271052,0.000957663,0.00310877,0.000407655,1.1767,0.00195088,0.00873005,1119,1730,5.69435,-23.3419
-98,-706,5.73047,23.4762,0.00111561,0.00247893,0.000980489,0.00299143,0.000603111,1.08915,0.00182674,0.0105042,1126,1730,5.73048,-23.4762
-91,-706,5.73486,23.6095,0.00138446,0.00233097,0.00102506,0.00298675,0.00072868,1.00166,0.00179818,0.0141078,1133,1730,5.73487,-23.6095
-84,-706,5.70129,23.7169,0.00166429,0.00211988,0.00106105,0.00297732,0.000806856,0.891137,0.00177803,0.0173751,1140,1730,5.70131,-23.7169
-77,-706,5.70264,23.8373,0.0019106,0.00193708,0.00094504,0.00286897,0.000978707,0.792401,0.00168404,0.0165963,1147,1730,5.70265,-23.8373
-70,-706,5.69446,23.9769,0.00205103,0.00178383,0.000692972,0.00262316,0.0012117,0.690169,0.00151595,0.0176068,1154,1730,5.69441,-23.977
-63,-706,5.69812,24.0641,0.00220024,0.0013834,0.000329518,0.0023166,0.00126704,0.339439,0.00133945,0.0134104,1161,1730,5.69812,-24.064
-56,-706,5.73547,24.1587,0.00210272,0.00071302,-8.91324e-05,0.00210841,0.000707326,-0.0637895,0.00123906,0.0136799,1168,1730,5.7355,-24.1587
-49,-706,5.72498,24.2721,0.00190434,8.8843e-05,-0.000295879,0.00195135,4.18393e-05,-0.157545,0.00128718,0.0135963,1175,1730,5.72501,-24.2721
-42,-706,5.72827,24.3877,0.00143667,0.00026485,-0.000148847,0.00145528,0.000246238,-0.124391,0.000899414,0.0173978,1182,1730,5.72833,-24.3877
-35,-706,5.74866,24.4532,0.000677589,0.00026489,7.08772e-05,0.000689422,0.000253057,0.165428,0.000402701,0.0171123,1189,1730,5.74868,-24.4532
-28,-706,5.77271,24.5122,-0.000341208,0.000661472,0.000294247,0.000741444,-0.00042118,1.30542,0.000679677,0.0113546,1196,1730,5.7727,-24.5122
-21,-706,5.77222,24.5823,-0.0013813,0.00105281,0.000724646,0.0012522,-0.0015807,1.30228,0.00163924,0.0112245,1203,1730,5.77218,-24.5823
-14,-706,5.79065,24.6516,-0.00225902,0.00164528,0.00157512,0.0022015,-0.00281523,1.23134,0.00290363,0.0104673,1210,1730,5.79067,-24.6516
-7,-706,5.81714,24.7212,-0.00334222,0.00366831,0.00285782,0.00468565,-0.00435957,1.2288,0.00522339,0.00837044,1217,1730,5.81711,-24.7212
0,-706,5.83508,24.7845,-0.00454548,0.00647041,0.00418547,0.00788024,-0.00595531,1.24589,0.00801369,0.0119327,1224,1730,5.83505,-24.7845
7,-706,5.8468,24.849,-0.00578683,0.00964291,0.00550131,0.0114035,-0.00754739,1.26107,0.0110165,0.014103,1231,1730,5.84685,-24.849
14,-706,5.84277,24.9144,-0.00700821,0.0135059,0.00676975,0.0155386,-0.00904085,1.27911,0.0143553,0.0143433,1238,1730,5.84282,-24.9144
21,-706,5.86853,24.9401,-0.0081311,0.0176632,0.00776189,0.0198188,-0.0102866,1.29991,0.0176694,0.0113926,1245,1730,5.86856,-24.9401
28,-706,5.88586,24.9951,-0.00883478,0.0208779,0.00854384,0.0231594,-0.0111163,1.30984,0.0201922,0.0119716,1252,1730,5.88584,-24.9951
35,-706,5.88647,25.0244,-0.00932746,0.0233089,0.00901856,0.0256352,-0.0116538,1.31835,0.0220275,0.0144193,1259,1730,5.88644,-25.0244
42,-706,5.91541,25.0461,-0.0095108,0.0250721,0.00919984,0.0273671,-0.0118059,1.32632,0.0232037,0.0121429,1266,1730,5.91535,-25.0462
49,-706,5.96118,25.0729,-0.00927154,0.0259128,0.00915057,0.0281503,-0.0115091,1.33098,0.0235597,0.013966,1273,1730,5.96115,-25.0728
56,-706,5.97571,25.094,-0.00877361,0.0250379,0.00866182,0.0271278,-0.0108634,1.33405,0.0225943,0.0126426,1280,1730,5.97572,-25.094
63,-706,5.97656,25.0905,-0.00754494,0.0224025,0.00783808,0.0243299,-0.00947234,1.32968,0.0201343,0.0108933,1287,1730,5.97653,-25.0905
70,-706,5.9834,25.0795,-0.00570193,0.0189601,0.00702159,0.0208191,-0.00756094,1.31198,0.0169708,0.0120661,1294,1730,5.98346,-25.0794
77,-706,6.0022,25.0887,-0.0037578,0.0149985,0.00617088,0.0168466,-0.00560594,1.2798,0.0134936,0.0109412,1301,1730,6.00219,-25.0887
84,-706,6.01208,25.0913,-0.00187098,0.0105755,0.00530858,0.0125321,-0.00382757,1.21767,0.00988089,0.00946606,1308,1730,6.0121,-25.0913
91,-706,6.03931,25.0791,-4.9866e-05,0.00614158,0.00455621,0.00855427,-0.00246255,1.0838,0.00667682,0.0105448,1315,1730,6.03926,-25.0791
98,-706,6.06934,25.0732,0.00188504,0.00142287,0.00394354,0.00560426,-0.00229635,0.756132,0.00469279,0.0145135,1322,1730,6.06934,-25.0732
105,-706,6.10095,25.0874,0.00370666,-0.00232208,0.00357797,0.00537078,-0.0039862,0.435342,0.00542193,0.0163071,1329,1730,6.10093,-25.0874
112,-706,6.09424,25.0631,0.00523924,-0.00457143,0.00348827,0.00635307,-0.00568526,0.309074,0.0069539,0.0145467,1336,1730,6.09426,-25.0631
119,-706,6.11682,25.0388,0.00640027,-0.00612848,0.00343678,0.0072811,-0.0070093,0.250893,0.00825106,0.0123143,1343,1730,6.11681,-25.0388
126,-706,6.13306,24.9875,0.0071503,-0.00670585,0.00349788,0.00798325,-0.0075388,0.233774,0.00896288,0.0145255,1350,1730,6.13304,-24.9875
133,-706,6.15247,24.9113,0.00714362,-0.00570859,0.00352357,0.00804625,-0.00661122,0.250776,0.008476,0.0133981,1357,1730,6.1525,-24.9112
140,-706,6.17261,24.8557,0.00698142,-0.0046181,0.00343594,0.0079228,-0.00555947,0.267417,0.00782375,0.0125029,1364,1730,6.17259,-24.8558
147,-706,6.20093,24.8099,0.00652727,-0.00366423,0.00329927,0.00750209,-0.00463905,0.287292,0.00707436,0.019792,1371,1730,6.2009,-24.8099
154,-706,6.21301,24.7743,0.00584022,-0.00269384,0.00303451,0.0068092,-0.00366282,0.309086,0.00613631,0.0196249,1378,1730,6.21301,-24.7743
161,-706,6.21252,24.6986,0.00529553,-0.00177137,0.00273032,0.00622749,-0.00270333,0.328938,0.00528834,0.0107275,1385,1730,6.21254,-24.6986
168,-706,6.21863,24.6184,0.00433954,-0.000873614,0.00245863,0.00531613,-0.00185021,0.378099,0.00429576,0.010524,1392,1730,6.21861,-24.6184
175,-706,6.23071,24.5581,0.00312961,-0.000233459,0.00200114,0.00406191,-0.00116576,0.435984,0.00316883,0.0107029,1399,1730,6.23077,-24.5581
182,-706,6.22754,24.4884,0.00230431,-0.000213572,0.00164119,0.0031138,-0.00102307,0.458223,0.00248802,0.011153,1406,1730,6.22758,-24.4884
189,-706,6.21704,24.405,0.00193812,0.000128261,0.00128397,0.00260401,-0.000537627,0.478431,0.0019402,0.0137255,1413,1730,6.21707,-24.405
196,-706,6.23364,24.3064,0.00159347,0.000608606,0.000793949,0.0020353,0.000166778,0.507816,0.00130483,0.0120739,1420,1730,6.2337,-24.3064
203,-706,6.24426,24.2064,0.00109125,0.000710394,0.000210004,0.00118431,0.000617335,0.417124,0.000683966,0.0130926,1427,1730,6.24431,-24.2064
210,-706,6.25354,24.104,0.000753603,0.000680323,0.000142716,0.000864308,0.000569619,0.659745,0.000507354,0.0121092,1434,1730,6.25356,-24.104
217,-706,6.2666,24.0078,0.000314099,0.00059349,1.93681e-05,0.000594826,0.000312762,1.50191,0.000343575,0.013005,1441,1730,6.26657,-24.0078
224,-706,6.26038,23.9023,-2.05786e-05,0.000608882,-3.68362e-05,0.00061103,-2.27269e-05,-1.51254,0.000415137,0.0169405,1448,1730,6.26033,-23.9024
231,-706,6.25317,23.775,-0.000369939,0.000617556,-0.000111643,0.000630021,-0.000382403,-1.45961,0.000590322,0.0126227,1455,1730,6.25317,-23.775
238,-706,6.24011,23.6412,-0.000594421,0.000664828,-0.000157429,0.000684211,-0.000613804,-1.44829,0.000749777,0.00910287,1462,1730,6.24007,-23.6412
245,-706,6.25171,23.5223,-0.000725754,0.000753144,-0.000219653,0.000785078,-0.000757688,-1.42642,0.000890764,0.0116751,1469,1730,6.25177,-23.5224
252,-706,6.25269,23.401,-0.000854508,0.000868567,-0.000310654,0.000922864,-0.000908805,-1.39776,0.00105753,0.0115477,1476,1730,6.25269,-23.401
259,-706,6.255,23.2517,-0.000913816,0.00104335,-0.000395377,0.0011202,-0.00099067,-1.37881,0.00121948,0.0124955,1483,1730,6.25499,-23.2517
266,-706,6.24426,23.1198,-0.000905586,0.00134412,-0.000515289,0.00145653,-0.001018,-1.35601,0.00143613,0.0124666,1490,1730,6.24428,-23.1198
273,-706,6.24426,22.9897,-0.000846574,0.00173279,-0.000605135,0.00186771,-0.000981485,-1.35144,0.0016713,0.0122728,1497,1730,6.24425,-22.9898
280,-706,6.24915,22.8273,-0.000783853,0.00185873,-0.000731173,0.00204755,-0.000972669,-1.31808,0.00178015,0.0108934,1504,1730,6.24915,-22.8273
287,-706,6.22595,22.6569,-0.000585231,0.00168393,-0.000750461,0.00190967,-0.000810968,-1.27861,0.00161289,0.0111991,1511,1730,6.22595,-22.6568
294,-706,6.23669,22.5245,-0.000516979,0.00166503,-0.000957587,0.00202567,-0.000877617,-1.21061,0.00171934,0.0107515,1518,1730,6.23667,-22.5245
301,-706,6.2395,22.3607,-0.000929429,0.00147913,-0.000960986,0.00181556,-0.00126586,-1.23404,0.00178847,0.0100282,1525,1730,6.23952,-22.3607
308,-706,6.21277,22.1697,-0.00121078,0.000810709,-0.000867349,0.00113184,-0.00153192,-1.2162,0.00154369,0.0111148,1532,1730,6.21278,-22.1696
315,-706,6.20129,22.015,-0.00133745,0.000103118,-0.000943546,0.000569885,-0.00180421,-1.1114,0.00143111,0.0175098,1539,1730,6.20128,-22.015
322,-706,6.19775,21.8702,-0.00138055,-0.000625655,-0.00107779,0.000138872,-0.00214508,-0.953827,0.00147852,0.0212904,1546,1730,6.1977,-21.8703
329,-706,6.21277,21.6439,-0.00148211,-0.0017266,-0.00109261,-0.000504924,-0.00270378,-0.729687,0.00166001,0.0191532,1553,1730,6.21274,-21.644
336,-706,6.21216,21.4091,-0.00124009,-0.00304205,-0.00119154,-0.000647233,-0.0036349,-0.461687,0.00223893,0.0256386,1560,1730,6.21218,-21.4091
343,-706,6.23682,21.2692,-0.00071784,-0.00439592,-0.00153541,-0.000161146,-0.00495261,-0.34783,0.00324936,0.0338148,1567,1730,6.23682,-21.2691
350,-706,6.03027,21.0916,-0.000173351,-0.00611881,-0.00173043,0.000293614,-0.00658577,-0.263577,0.00449159,0.0432138,1574,1730,6.03023,-21.0915
357,-706,6.02502,20.9882,0,0,0,0,0,0,0,-1,1581,1730,6.02508,-20.9881
364,-706,6.26819,20.8021,0,0,0,0,0,0,0,-1,1588,1730,6.26815,-20.8021
371,-706,6.40771,20.4159,0,0,0,0,0,0,0,-1,1595,1730,6.40768,-20.4159
378,-706,6.01331,20.1378,0,0,0,0,0,0,0,-1,1602,1730,6.01329,-20.1379
385,-706,7.9209,18.6349,0,0,0,0,0,0,0,-1,1609,1730,7.92092,-18.6349
392,-706,5.05701,18.6085,0,0,0,0,0,0,0,-1,1616,1730,5.05699,-18.6085
399,-706,6.0332,16.6144,0,0,0,0,0,0,0,-1,1623,1730,6.03321,-16.6143
406,-706,6.04211,18.8085,0,0,0,0,0,0,0,-1,1630,1730,6.04216,-18.8085
413,-706,6.23413,20.7725,0,0,0,0,0,0,0,-1,1637,1730,6.23413,-20.7725
420,-706,6.51294,21.9171,0,0,0,0,0,0,0,-1,1644,1730,6.51292,-21.9171
427,-706,0,0,0,0,0,0,0,0,0,-1,1651,1730,0,0
434,-706,0,0,0,0,0,0,0,0,0,-1,1658,1730,0,0
441,-706,0,0,0,0,0,0,0,0,0,-1,1665,1730,0,0
448,-706,0,0,0,0,0,0,0,0,0,-1,1672,1730,0,0
455,-706,0,0,0,0,0,0,0,0,0,-1,1679,1730,0,0
462,-706,0,0,0,0,0,0,0,0,0,-1,1686,1730,0,0
469,-706,0,0,0,0,0,0,0,0,0,-1,1693,1730,0,0
476,-706,0,0,0,0,0,0,0,0,0,-1,1700,1730,0,0
483,-706,0,0,0,0,0,0,0,0,0,-1,1707,1730,0,0
490,-706,0,0,0,0,0,0,0,0,0,-1,1714,1730,0,0
497,-706,0,0,0,0,0,0,0,0,0,-1,1721,1730,0,0
504,-706,0,0,0,0,0,0,0,0,0,-1,1728,1730,0,0
511,-706,0,0,0,0,0,0,0,0,0,-1,1735,1730,0,0
518,-706,0,0,0,0,0,0,0,0,0,-1,1742,1730,0,0
525,-706,0,0,0,0,0,0,0,0,0,-1,1749,1730,0,0
532,-706,0,0,0,0,0,0,0,0,0,-1,1756,1730,0,0
539,-706,0,0,0,0,0,0,0,0,0,-1,1763,1730,0,0
546,-706,0,0,0,0,0,0,0,0,0,-1,1770,1730,0,0
553,-706,0,0,0,0,0,0,0,0,0,-1,1777,1730,0,0
560,-706,0,0,0,0,0,0,0,0,0,-1,1784,1730,0,0
567,-706,0,0,0,0,0,0,0,0,0,-1,1791,1730,0,0
574,-706,0,0,0,0,0,0,0,0,0,-1,1798,1730,0,0
581,-706,0,0,0,0,0,0,0,0,0,-1,1805,1730,0,0
588,-706,0,0,0,0,0,0,0,0,0,-1,1812,1730,0,0
595,-706,0,0,0,0,0,0,0,0,0,-1,1819,1730,0,0
602,-706,0,0,0,0,0,0,0,0,0,-1,1826,1730,0,0
609,-706,0,0,0,0,0,0,0,0,0,-1,1833,1730,0,0
616,-706,0,0,0,0,0,0,0,0,0,-1,1840,1730,0,0
623,-706,0,0,0,0,0,0,0,0,0,-1,1847,1730,0,0
630,-706,0,0,0,0,0,0,0,0,0,-1,1854,1730,0,0
637,-706,0,0,0,0,0,0,0,0,0,-1,1861,1730,0,0
644,-706,0,0,0,0,0,0,0,0,0,-1,1868,1730,0,0
651,-706,0,0,0,0,0,0,0,0,0,-1,1875,1730,0,0
658,-706,0,0,0,0,0,0,0,0,0,-1,1882,1730,0,0
665,-706,0,0,0,0,0,0,0,0,0,-1,1889,1730,0,0
672,-706,0,0,0,0,0,0,0,0,0,-1,1896,1730,0,0
679,-706,0,0,0,0,0,0,0,0,0,-1,1903,1730,0,0
686,-706,0,0,0,0,0,0,0,0,0,-1,1910,1730,0,0
693,-706,0,0,0,0,0,0,0,0,0,-1,1917,1730,0,0
700,-706,0,0,0,0,0,0,0,0,0,-1,1924,1730,0,0
707,-706,0,0,0,0,0,0,0,0,0,-1,1931,1730,0,0
714,-706,0,0,0,0,0,0,0,0,0,-1,1938,1730,0,0
721,-706,0,0,0,0,0,0,0,0,0,-1,1945,1730,0,0
728,-706,0,0,0,0,0,0,0,0,0,-1,1952,1730,0,0
735,-706,0,0,0,0,0,0,0,0,0,-1,1959,1730,0,0
742,-706,0,0,0,0,0,0,0,0,0,-1,1966,1730,0,0
749,-706,0,0,0,0,0,0,0,0,0,-1,1973,1730,0,0
756,-706,0,0,0,0,0,0,0,0,0,-1,1980,1730,0,0
763,-706,0,0,0,0,0,0,0,0,0,-1,1987,1730,0,0
770,-706,0,0,0,0,0,0,0,0,0,-1,1994,1730,0,0
777,-706,0,0,0,0,0,0,0,0,0,-1,2001,1730,0,0
784,-706,0,0,0,0,0,0,0,0,0,-1,2008,1730,0,0
791,-706,0,0,0,0,0,0,0,0,0,-1,2015,1730,0,0
798,-706,0,0,0,0,0,0,0,0,0,-1,2022,1730,0,0
805,-706,0,0,0,0,0,0,0,0,0,-1,2029,1730,0,0
812,-706,0,0,0,0,0,0,0,0,0,-1,2036,1730,0,0
-700,-713,0,0,0,0,0,0,0,0,0,-1,524,1737,0,0
-693,-713,0,0,0,0,0,0,0,0,0,-1,531,1737,0,0
-686,-713,0,0,0,0,0,0,0,0,0,-1,538,1737,0,0
-679,-713,0,0,0,0,0,0,0,0,0,-1,545,1737,0,0
-672,-713,0,0,0,0,0,0,0,0,0,-1,552,1737,0,0
-665,-713,0,0,0,0,0,0,0,0,0,-1,559,1737,0,0
-658,-713,0,0,0,0,0,0,0,0,0,-1,566,1737,0,0
-651,-713,0,0,0,0,0,0,0,0,0,-1,573,1737,0,0
-644,-713,0,0,0,0,0,0,0,0,0,-1,580,1737,0,0
-637,-713,0,0,0,0,0,0,0,0,0,-1,587,1737,0,0
-630,-713,0,0,0,0,0,0,0,0,0,-1,594,1737,0,0
-623,-713,0,0,0,0,0,0,0,0,0,-1,601,1737,0,0
-616,-713,0,0,0,0,0,0,0,0,0,-1,608,1737,0,0
-609,-713,0,0,0,0,0,0,0,0,0,-1,615,1737,0,0
-602,-713,0,0,0,0,0,0,0,0,0,-1,622,1737,0,0
-595,-713,0,0,0,0,0,0,0,0,0,-1,629,1737,0,0
-588,-713,0,0,0,0,0,0,0,0,0,-1,636,1737,0,0
-581,-713,0,0,0,0,0,0,0,0,0,-1,643,1737,0,0
-574,-713,0,0,0,0,0,0,0,0,0,-1,650,1737,0,0
-567,-713,0,0,0,0,0,0,0,0,0,-1,657,1737,0,0
-560,-713,0,0,0,0,0,0,0,0,0,-1,664,1737,0,0
-553,-713,0,0,0,0,0,0,0,0,0,-1,671,1737,0,0
-546,-713,0,0,0,0,0,0,0,0,0,-1,678,1737,0,0
-539,-713,0,0,0,0,0,0,0,0,0,-1,685,1737,0,0
-532,-713,0,0,0,0,0,0,0,0,0,-1,692,1737,0,0
-525,-713,0,0,0,0,0,0,0,0,0,-1,699,1737,0,0
-518,-713,0,0,0,0,0,0,0,0,0,-1,706,1737,0,0
-511,-713,0,0,0,0,0,0,0,0,0,-1,713,1737,0,0
-504,-713,0,0,0,0,0,0,0,0,0,-1,720,1737,0,0
-497,-713,0,0,0,0,0,0,0,0,0,-1,727,1737,0,0
-490,-713,0,0,0,0,0,0,0,0,0,-1,734,1737,0,0
-483,-713,0,0,0,0,0,0,0,0,0,-1,741,1737,0,0
-476,-713,0,0,0,0,0,0,0,0,0,-1,748,1737,0,0
-469,-713,0,0,0,0,0,0,0,0,0,-1,755,1737,0,0
-462,-713,0,0,0,0,0,0,0,0,0,-1,762,1737,0,0
-455,-713,0,0,0,0,0,0,0,0,0,-1,769,1737,0,0
-448,-713,0,0,0,0,0,0,0,0,0,-1,776,1737,0,0
-441,-713,0,0,0,0,0,0,0,0,0,-1,783,1737,0,0
-434,-713,0,0,0,0,0,0,0,0,0,-1,790,1737,0,0
-427,-713,0,0,0,0,0,0,0,0,0,-1,797,1737,0,0
-420,-713,0,0,0,0,0,0,0,0,0,-1,804,1737,0,0
-413,-713,0,0,0,0,0,0,0,0,0,-1,811,1737,0,0
-406,-713,0,0,0,0,0,0,0,0,0,-1,818,1737,0,0
-399,-713,0,0,0,0,0,0,0,0,0,-1,825,1737,0,0
-392,-713,0,0,0,0,0,0,0,0,0,-1,832,1737,0,0
-385,-713,0,0,0,0,0,0,0,0,0,-1,839,1737,0,0
-378,-713,0,0,0,0,0,0,0,0,0,-1,846,1737,0,0
-371,-713,0,0,0,0,0,0,0,0,0,-1,853,1737,0,0
-364,-713,0,0,0,0,0,0,0,0,0,-1,860,1737,0,0
-357,-713,0,0,0,0,0,0,0,0,0,-1,867,1737,0,0
-350,-713,0,0,0,0,0,0,0,0,0,-1,874,1737,0,0
-343,-713,0,0,0,0,0,0,0,0,0,-1,881,1737,0,0
-336,-713,0,0,0,0,0,0,0,0,0,-1,888,1737,0,0
-329,-713,0,0,0,0,0,0,0,0,0,-1,895,1737,0,0
-322,-713,0,0,0,0,0,0,0,0,0,-1,902,1737,0,0
-315,-713,0,0,0,0,0,0,0,0,0,-1,909,1737,0,0
-308,-713,0,0,0,0,0,0,0,0,0,-1,916,1737,0,0
-301,-713,0,0,0,0,0,0,0,0,0,-1,923,1737,0,0
-294,-713,7.17883,22.0453,0,0,0,0,0,0,0,-1,930,1737,7.17881,-22.0453
-287,-713,6.85907,21.8297,0,0,0,0,0,0,0,-1,937,1737,6.85906,-21.8298
-280,-713,6.17188,21.8059,0,0,0,0,0,0,0,-1,944,1737,6.17188,-21.8059
-273,-713,5.64795,22.0507,0,0,0,0,0,0,0,-1,951,1737,5.64795,-22.0506
-266,-713,3.17981,19.8851,0,0,0,0,0,0,0,-1,958,1737,3.17983,-19.8851
-259,-713,3.5921,19.6868,0,0,0,0,0,0,0,-1,965,1737,3.59207,-19.6868
-252,-713,4.55469,20.5758,0,0,0,0,0,0,0,-1,972,1737,4.55466,-20.5758
-245,-713,4.66559,19.8096,0,0,0,0,0,0,0,-1,979,1737,4.6656,-19.8095
-238,-713,5.11237,18.7231,0,0,0,0,0,0,0,-1,986,1737,5.11238,-18.7231
-231,-713,4.5401,19.8499,0,0,0,0,0,0,0,-1,993,1737,4.54011,-19.8499
-224,-713,4.81128,19.0717,0,0,0,0,0,0,0,-1,1000,1737,4.81127,-19.0717
-217,-713,5.93018,20.4664,0,0,0,0,0,0,0,-1,1007,1737,5.93016,-20.4664
-210,-713,6.23383,20.6895,0,0,0,0,0,0,0,-1,1014,1737,6.23384,-20.6894
-203,-713,6.22144,20.9321,-0.00457383,-0.00293989,-0.00437833,0.000697036,-0.00821076,-0.877635,0.00572036,0.0438422,1021,1737,6.2214,-20.9321
-196,-713,6.2218,21.1127,-0.00259067,-0.00226734,-0.00266214,0.00023804,-0.00509605,-0.815724,0.00347943,0.0424737,1028,1737,6.2218,-21.1127
-189,-713,6.25305,21.2864,-0.00121575,-0.00201987,-0.0016009,3.28044e-05,-0.00326843,-0.66237,0.00218997,0.0418963,1035,1737,6.25308,-21.2864
-182,-713,5.90784,21.4746,-0.00160939,-0.00106725,-0.00120912,-9.91926e-05,-0.00257746,-0.895669,0.00168621,0.0275962,1042,1737,5.90779,-21.4746
-175,-713,5.93152,21.6259,-0.00149077,8.13105e-05,-0.000344405,0.000153451,-0.00156292,-1.36432,0.00109668,0.0233197,1049,1737,5.93147,-21.6259
-168,-713,6.06091,21.7538,-0.00156036,0.00120328,9.2004e-05,0.00120634,-0.00156342,1.53755,0.00160355,0.0279437,1056,1737,6.06096,-21.7537
-161,-713,5.95203,22.0409,-0.00206388,0.00153489,0.000389234,0.00157651,-0.00210549,1.46428,0.0021331,0.0151197,1063,1737,5.95208,-22.0408
-154,-713,5.87134,22.2445,-0.00224637,0.00197266,0.000560582,0.00204588,-0.00231959,1.44093,0.00252205,0.0119346,1070,1737,5.87136,-22.2445
-147,-713,5.85669,22.4288,-0.00231838,0.00238302,0.000777804,0.00250836,-0.00244372,1.41103,0.00285917,0.0187316,1077,1737,5.8567,-22.4288
-140,-713,5.88098,22.6018,-0.00236822,0.00288811,0.000915171,0.00304289,-0.002523,1.40325,0.00321814,0.0178354,1084,1737,5.881,-22.6018
-133,-713,5.854,22.7207,-0.00213964,0.00330712,0.00101595,0.00349045,-0.00232297,1.39227,0.00337886,0.0114008,1091,1737,5.85402,-22.7207
-126,-713,5.83667,22.8324,-0.00184872,0.00364806,0.000978025,0.00381689,-0.00201755,1.39986,0.00342149,0.0180449,1098,1737,5.83671,-22.8324
-119,-713,5.83337,22.9706,-0.00156631,0.00399695,0.00101549,0.00417652,-0.00174587,1.39578,0.00351397,0.0266697,1105,1737,5.83339,-22.9706
-112,-713,5.84229,23.1814,-0.00107748,0.00401739,0.00110287,0.00424587,-0.00130596,1.36651,0.00335181,0.0133017,1112,1737,5.84225,-23.1814
-105,-713,5.85254,23.3333,-0.000610459,0.00397169,0.0010784,0.0042128,-0.000851572,1.35083,0.00313123,0.0102081,1119,1737,5.85254,-23.3332
-98,-713,5.85791,23.469,-0.000268569,0.00369145,0.00106262,0.00395858,-0.000535692,1.32452,0.00283454,0.0100414,1126,1737,5.85785,-23.469
-91,-713,5.83582,23.5912,2.21057e-05,0.00355939,0.00107813,0.00386209,-0.000280592,1.29708,0.00267317,0.0102006,1133,1737,5.8358,-23.5911
-84,-713,5.81543,23.7062,0.000356057,0.00329797,0.00113042,0.00368216,-2.81311e-05,1.24318,0.0024642,0.0095316,1140,1737,5.81548,-23.7062
-77,-713,5.82556,23.8378,0.000883434,0.00286775,0.00109234,0.00335126,0.000399929,1.15409,0.00211351,0.0129571,1147,1737,5.8256,-23.8377
-70,-713,5.80981,23.9641,0.00116736,0.00248018,0.000808637,0.0028653,0.000782252,1.12633,0.00171016,0.0143886,1154,1737,5.80976,-23.9641
-63,-713,5.81677,24.0549,0.00115936,0.00185639,0.000459939,0.00208494,0.00093081,1.10962,0.00120604,0.0126923,1161,1737,5.81677,-24.0549
-56,-713,5.84607,24.1714,0.00118308,0.00149534,0.00020308,0.00159537,0.00108305,1.11312,0.000940531,0.012969,1168,1737,5.84605,-24.1714
-49,-713,5.82751,24.2859,0.0012956,0.00104486,0.000132245,0.00135246,0.000988006,0.406041,0.000808032,0.0148459,1175,1737,5.82747,-24.2859
-42,-713,5.82666,24.3508,0.00124451,0.00099038,0.000185529,0.00134232,0.000892575,0.485144,0.000788919,0.0169933,1182,1737,5.8266,-24.3508
-35,-713,5.84363,24.417,0.00116194,0.000827218,0.000277941,0.00131902,0.00067014,0.5144,0.000761569,0.0140713,1189,1737,5.84359,-24.4169
-28,-713,5.84998,24.5259,0.000843814,0.000876699,0.000364846,0.00122547,0.00049504,0.807917,0.000711864,0.0134077,1196,1737,5.85001,-24.5259
-21,-713,5.83972,24.6124,0.000386718,0.000954133,0.000596382,0.00133085,9.9999e-06,1.00741,0.00088392,0.00980221,1203,1737,5.83975,-24.6124
-14,-713,5.85498,24.662,-8.32761e-05,0.00119819,0.00113924,0.00186451,-0.0007496,1.04156,0.00155434,0.0106725,1210,1737,5.85501,-24.662
-7,-713,5.88477,24.7179,-0.000724809,0.00227595,0.00195358,0.00323882,-0.00168768,1.11286,0.00289093,0.00943338,1217,1737,5.88481,-24.7179
0,-713,5.89978,24.7676,-0.00154466,0.00394632,0.00283172,0.00514498,-0.00274332,1.17037,0.00462414,0.0149096,1224,1737,5.89979,-24.7676
7,-713,5.90466,24.8198,-0.00244702,0.00598703,0.00372666,0.00739773,-0.00385772,1.20892,0.00660461,0.0186613,1231,1737,5.90464,-24.8198
14,-713,5.90967,24.8912,-0.00340506,0.00853347,0.00457859,0.0100872,-0.0049588,1.24364,0.00885342,0.0130732,1238,1737,5.90963,-24.8913
21,-713,5.91418,24.9493,-0.00434072,0.0113185,0.0052488,0.0129151,-0.00593728,1.27551,0.0111301,0.0101364,1245,1737,5.91421,-24.9493
28,-713,5.92371,25.0059,-0.00499746,0.0134404,0.00577891,0.0151019,-0.00665899,1.29083,0.012875,0.0104508,1252,1737,5.92371,-25.0058
35,-713,5.91882,25.0378,-0.00552696,0.0150303,0.00606401,0.0166857,-0.00718242,1.30429,0.0141397,0.0108647,1259,1737,5.91883,-25.0378
42,-713,5.92651,25.059,-0.00583322,0.0161616,0.00614523,0.0177621,-0.00743371,1.31601,0.0149486,0.0105179,1266,1737,5.92656,-25.059
49,-713,5.94641,25.0726,-0.0058735,0.0165664,0.00603659,0.0180872,-0.00739434,1.324,0.0151374,0.0103721,1273,1737,5.94638,-25.0727
56,-713,5.96423,25.0945,-0.00575081,0.0158029,0.00563233,0.0171859,-0.00713388,1.33,0.0144353,0.0104413,1280,1737,5.96422,-25.0945
63,-713,5.96997,25.1006,-0.00505354,0.0138341,0.00502853,0.0150895,-0.00630887,1.32616,0.0126963,0.0112002,1287,1737,5.96992,-25.1006
70,-713,5.97729,25.1105,-0.00391197,0.0113006,0.00443511,0.0124992,-0.00511056,1.30685,0.010461,0.0110965,1294,1737,5.97724,-25.1104
77,-713,6,25.1156,-0.00265865,0.00845371,0.00384361,0.00965359,-0.00385854,1.26821,0.00803683,0.0108757,1301,1737,5.99996,-25.1156
84,-713,6.00146,25.1205,-0.00142856,0.00534554,0.00326196,0.00666088,-0.0027439,1.1875,0.00558463,0.0121495,1308,1737,6.00142,-25.1205
91,-713,5.99377,25.1003,-0.000212172,0.0023217,0.00277334,0.00410379,-0.00199426,0.999656,0.00359024,0.0128428,1315,1737,5.99374,-25.1003
98,-713,6.01379,25.0842,0.00104609,-0.000736667,0.00242546,0.00273878,-0.00242936,0.609304,0.00298561,0.0126548,1322,1737,6.0138,-25.0843
105,-713,6.04773,25.0778,0.00225889,-0.00308503,0.00221071,0.00305488,-0.00388101,0.345606,0.00401389,0.014309,1329,1737,6.04775,-25.0778
112,-713,6.0636,25.067,0.00329174,-0.00444171,0.00216066,0.00385446,-0.00500443,0.254781,0.00512903,0.0133863,1336,1737,6.06355,-25.067
119,-713,6.08765,25.0405,0.00403346,-0.00521875,0.00214675,0.00450729,-0.00569258,0.217238,0.00590214,0.0132617,1343,1737,6.08762,-25.0406
126,-713,6.08057,24.9971,0.00449262,-0.00528694,0.00218115,0.00495704,-0.00575135,0.209788,0.00618815,0.0138657,1350,1737,6.08054,-24.9971
133,-713,6.07788,24.9266,0.00444144,-0.00430707,0.00217843,0.00495387,-0.0048195,0.231027,0.00564283,0.0132742,1357,1737,6.07785,-24.9267
140,-713,6.1123,24.8845,0.00427261,-0.00330736,0.00211647,0.00482352,-0.00385828,0.254649,0.00502276,0.0131772,1364,1737,6.11226,-24.8845
147,-713,6.11646,24.8326,0.00391633,-0.00247674,0.00199285,0.00448666,-0.00304707,0.278739,0.00437599,0.0138657,1371,1737,6.11646,-24.8327
154,-713,6.10229,24.8015,0.00341447,-0.00172311,0.00176016,0.00395965,-0.0022683,0.300365,0.00363964,0.0141462,1378,1737,6.10227,-24.8015
161,-713,6.13281,24.708,0.00300178,-0.00101307,0.0015157,0.00350972,-0.00152102,0.323361,0.00297919,0.0105498,1385,1737,6.13275,-24.708
168,-713,6.13806,24.6221,0.00239689,-0.00036627,0.00129255,0.00290725,-0.000876632,0.376059,0.00228708,0.0101156,1392,1737,6.1381,-24.622
175,-713,6.1637,24.5375,0.00168401,9.32661e-05,0.00099396,0.00216165,-0.00038438,0.447965,0.00158484,0.013256,1399,1737,6.1637,-24.5375
182,-713,6.1449,24.4728,0.00101773,0.000169726,0.000706756,0.00141791,-0.000230458,0.515216,0.00103072,0.0117968,1406,1737,6.14486,-24.4728
189,-713,6.13074,24.4003,0.000519558,0.000417177,0.000512764,0.00098368,-4.69452e-05,0.735646,0.000671982,0.0106984,1413,1737,6.13069,-24.4002
196,-713,6.15271,24.3245,0.00012076,0.000697969,0.00022989,0.000778339,4.03906e-05,1.23448,0.000505967,0.0114985,1420,1737,6.15269,-24.3244
203,-713,6.17834,24.2355,-0.000330905,0.000903332,-0.000116167,0.00091417,-0.000341744,-1.47776,0.000749787,0.014895,1427,1737,6.17835,-24.2354
210,-713,6.17371,24.1039,-0.00075737,0.00102472,-0.000146118,0.00103662,-0.000769271,-1.48953,0.00104643,0.0124394,1434,1737,6.17374,-24.1039
217,-713,6.16345,24.0076,-0.00123346,0.0010721,-0.000236832,0.00109618,-0.00125754,-1.46948,0.00135998,0.010203,1441,1737,6.1634,-24.0075
224,-713,6.16394,23.9128,-0.00160453,0.00113393,-0.000307258,0.00116798,-0.00163858,-1.46042,0.00162795,0.0108505,1448,1737,6.164,-23.9128
231,-713,6.1488,23.7872,-0.00196483,0.0012009,-0.000377721,0.00124535,-0.00200927,-1.45367,0.00189623,0.010822,1455,1737,6.14879,-23.7872
238,-713,6.12683,23.6475,-0.00213267,0.00129716,-0.000420849,0.00134804,-0.00218356,-1.45047,0.0020579,0.00863755,1462,1737,6.1268,-23.6475
245,-713,6.12964,23.5283,-0.00213683,0.00146285,-0.000501845,0.00153151,-0.00220549,-1.43484,0.00216922,0.0109419,1469,1737,6.12963,-23.5283
252,-713,6.14331,23.399,-0.00213283,0.00164411,-0.000621664,0.0017438,-0.00223252,-1.41179,0.0023015,0.0115451,1476,1737,6.14329,-23.3991
259,-713,6.14661,23.244,-0.00205479,0.00188583,-0.000734513,0.00201829,-0.00218725,-1.39238,0.00242872,0.0116968,1483,1737,6.14665,-23.244
266,-713,6.13074,23.1382,-0.00189906,0.00229002,-0.000881108,0.0024678,-0.00207684,-1.3717,0.00262709,0.010451,1490,1737,6.13075,-23.1382
273,-713,6.11243,23.0072,-0.00167948,0.0027772,-0.000979424,0.00298294,-0.00188522,-1.36374,0.00283436,0.00912895,1497,1737,6.11237,-23.0072
280,-713,6.09998,22.849,-0.001479,0.00289751,-0.0011142,0.00316484,-0.00174633,-1.33532,0.00287462,0.010655,1504,1737,6.09995,-22.8491
287,-713,6.08252,22.7019,-0.00101828,0.002604,-0.00108468,0.00290396,-0.00131824,-1.30099,0.00249434,0.0117633,1511,1737,6.08255,-22.7019
294,-713,6.10339,22.5734,-0.000705714,0.0025353,-0.00134663,0.00302179,-0.00119221,-1.22412,0.00250823,0.0186549,1518,1737,6.10337,-22.5734
301,-713,6.1062,22.3905,-0.00118406,0.00229006,-0.00128714,0.00271498,-0.00160897,-1.25194,0.00252351,0.0200346,1525,1737,6.10626,-22.3905
308,-713,6.05347,22.1833,-0.00154633,0.00125522,-0.00106078,0.00161155,-0.00190266,-1.24672,0.00203125,0.018779,1532,1737,6.05348,-22.1833
315,-713,6.00305,21.9977,-0.0017387,0.000279745,-0.00110288,0.000765474,-0.00222443,-1.15594,0.00179342,0.0257271,1539,1737,6.00308,-21.9977
322,-713,6.00012,21.7568,-0.00182333,-0.000787717,-0.00118953,-8.1762e-06,-0.00260287,-0.99068,0.00173253,0.036832,1546,1737,6.0001,-21.7568
329,-713,6.12695,21.828,-0.00198551,-0.00230371,-0.00110567,-0.00102755,-0.00326167,-0.713942,0.00192559,0.0391017,1553,1737,6.12698,-21.8279
336,-713,6.06592,21.8506,-0.00174204,-0.00418172,-0.0011836,-0.0012622,-0.00466156,-0.385161,0.00278404,0.0397533,1560,1737,6.06591,-21.8506
343,-713,5.96582,21.7333,0,0,0,0,0,0,0,-1,1567,1737,5.96585,-21.7333
350,-713,5.77271,21.1691,0,0,0,0,0,0,0,-1,1574,1737,5.77272,-21.169
357,-713,6.69861,20.9648,0,0,0,0,0,0,0,-1,1581,1737,6.69863,-20.9649
364,-713,7.66113,20.1982,0,0,0,0,0,0,0,-1,1588,1737,7.6611,-20.1983
371,-713,8.31555,17.5513,0,0,0,0,0,0,0,-1,1595,1737,8.31561,-17.5513
378,-713,7.02185,18.535,0,0,0,0,0,0,0,-1,1602,1737,7.02188,-18.5351
385,-713,7.81396,18.6816,0,0,0,0,0,0,0,-1,1609,1737,7.81397,-18.6817
392,-713,3.28784,13.7118,0,0,0,0,0,0,0,-1,1616,1737,3.28781,-13.7118
399,-713,2.84045,14.7314,0,0,0,0,0,0,0,-1,1623,1737,2.84046,-14.7315
406,-713,2.97656,16.4902,0,0,0,0,0,0,0,-1,1630,1737,2.97656,-16.4902
413,-713,3.24731,18.2787,0,0,0,0,0,0,0,-1,1637,1737,3.24726,-18.2787
420,-713,0,0,0,0,0,0,0,0,0,-1,1644,1737,0,0
427,-713,0,0,0,0,0,0,0,0,0,-1,1651,1737,0,0
434,-713,0,0,0,0,0,0,0,0,0,-1,1658,1737,0,0
441,-713,0,0,0,0,0,0,0,0,0,-1,1665,1737,0,0
448,-713,0,0,0,0,0,0,0,0,0,-1,1672,1737,0,0
455,-713,0,0,0,0,0,0,0,0,0,-1,1679,1737,0,0
462,-713,0,0,0,0,0,0,0,0,0,-1,1686,1737,0,0
469,-713,0,0,0,0,0,0,0,0,0,-1,1693,1737,0,0
476,-713,0,0,0,0,0,0,0,0,0,-1,1700,1737,0,0
483,-713,0,0,0,0,0,0,0,0,0,-1,1707,1737,0,0
490,-713,0,0,0,0,0,0,0,0,0,-1,1714,1737,0,0
497,-713,0,0,0,0,0,0,0,0,0,-1,1721,1737,0,0
504,-713,0,0,0,0,0,0,0,0,0,-1,1728,1737,0,0
511,-713,0,0,0,0,0,0,0,0,0,-1,1735,1737,0,0
518,-713,0,0,0,0,0,0,0,0,0,-1,1742,1737,0,0
525,-713,0,0,0,0,0,0,0,0,0,-1,1749,1737,0,0
532,-713,0,0,0,0,0,0,0,0,0,-1,1756,1737,0,0
539,-713,0,0,0,0,0,0,0,0,0,-1,1763,1737,0,0
546,-713,0,0,0,0,0,0,0,0,0,-1,1770,1737,0,0
553,-713,0,0,0,0,0,0,0,0,0,-1,1777,1737,0,0
560,-713,0,0,0,0,0,0,0,0,0,-1,1784,1737,0,0
567,-713,0,0,0,0,0,0,0,0,0,-1,1791,1737,0,0
574,-713,0,0,0,0,0,0,0,0,0,-1,1798,1737,0,0
581,-713,0,0,0,0,0,0,0,0,0,-1,1805,1737,0,0
588,-713,0,0,0,0,0,0,0,0,0,-1,1812,1737,0,0
595,-713,0,0,0,0,0,0,0,0,0,-1,1819,1737,0,0
602,-713,0,0,0,0,0,0,0,0,0,-1,1826,1737,0,0
609,-713,0,0,0,0,0,0,0,0,0,-1,1833,1737,0,0
616,-713,0,0,0,0,0,0,0,0,0,-1,1840,1737,0,0
623,-713,0,0,0,0,0,0,0,0,0,-1,1847,1737,0,0
630,-713,0,0,0,0,0,0,0,0,0,-1,1854,1737,0,0
637,-713,0,0,0,0,0,0,0,0,0,-1,1861,1737,0,0
644,-713,0,0,0,0,0,0,0,0,0,-1,1868,1737,0,0
651,-713,0,0,0,0,0,0,0,0,0,-1,1875,1737,0,0
658,-713,0,0,0,0,0,0,0,0,0,-1,1882,1737,0,0
665,-713,0,0,0,0,0,0,0,0,0,-1,1889,1737,0,0
672,-713,0,0,0,0,0,0,0,0,0,-1,1896,1737,0,0
679,-713,0,0,0,0,0,0,0,0,0,-1,1903,1737,0,0
686,-713,0,0,0,0,0,0,0,0,0,-1,1910,1737,0,0
693,-713,0,0,0,0,0,0,0,0,0,-1,1917,1737,0,0
700,-713,0,0,0,0,0,0,0,0,0,-1,1924,1737,0,0
707,-713,0,0,0,0,0,0,0,0,0,-1,1931,1737,0,0
714,-713,0,0,0,0,0,0,0,0,0,-1,1938,1737,0,0
721,-713,0,0,0,0,0,0,0,0,0,-1,1945,1737,0,0
728,-713,0,0,0,0,0,0,0,0,0,-1,1952,1737,0,0
735,-713,0,0,0,0,0,0,0,0,0,-1,1959,1737,0,0
742,-713,0,0,0,0,0,0,0,0,0,-1,1966,1737,0,0
749,-713,0,0,0,0,0,0,0,0,0,-1,1973,1737,0,0
756,-713,0,0,0,0,0,0,0,0,0,-1,1980,1737,0,0
763,-713,0,0,0,0,0,0,0,0,0,-1,1987,1737,0,0
770,-713,0,0,0,0,0,0,0,0,0,-1,1994,1737,0,0
777,-713,0,0,0,0,0,0,0,0,0,-1,2001,1737,0,0
784,-713,0,0,0,0,0,0,0,0,0,-1,2008,1737,0,0
791,-713,0,0,0,0,0,0,0,0,0,-1,2015,1737,0,0
798,-713,0,0,0,0,0,0,0,0,0,-1,2022,1737,0,0
805,-713,0,0,0,0,0,0,0,0,0,-1,2029,1737,0,0
812,-713,0,0,0,0,0,0,0,0,0,-1,2036,1737,0,0
-700,-720,0,0,0,0,0,0,0,0,0,-1,524,1744,0,0
-693,-720,0,0,0,0,0,0,0,0,0,-1,531,1744,0,0
-686,-720,0,0,0,0,0,0,0,0,0,-1,538,1744,0,0
-679,-720,0,0,0,0,0,0,0,0,0,-1,545,1744,0,0
-672,-720,0,0,0,0,0,0,0,0,0,-1,552,1744,0,0
-665,-720,0,0,0,0,0,0,0,0,0,-1,559,1744,0,0
-658,-720,0,0,0,0,0,0,0,0,0,-1,566,1744,0,0
-651,-720,0,0,0,0,0,0,0,0,0,-1,573,1744,0,0
-644,-720,0,0,0,0,0,0,0,0,0,-1,580,1744,0,0
-637,-720,0,0,0,0,0,0,0,0,0,-1,587,1744,0,0
-630,-720,0,0,0,0,0,0,0,0,0,-1,594,1744,0,0
-623,-720,0,0,0,0,0,0,0,0,0,-1,601,1744,0,0
-616,-720,0,0,0,0,0,0,0,0,0,-1,608,1744,0,0
-609,-720,0,0,0,0,0,0,0,0,0,-1,615,1744,0,0
-602,-720,0,0,0,0,0,0,0,0,0,-1,622,1744,0,0
-595,-720,0,0,0,0,0,0,0,0,0,-1,629,1744,0,0
-588,-720,0,0,0,0,0,0,0,0,0,-1,636,1744,0,0
-581,-720,0,0,0,0,0,0,0,0,0,-1,643,1744,0,0
-574,-720,0,0,0,0,0,0,0,0,0,-1,650,1744,0,0
-567,-720,0,0,0,0,0,0,0,0,0,-1,657,1744,0,0
-560,-720,0,0,0,0,0,0,0,0,0,-1,664,1744,0,0
-553,-720,0,0,0,0,0,0,0,0,0,-1,671,1744,0,0
-546,-720,0,0,0,0,0,0,0,0,0,-1,678,1744,0,0
-539,-720,0,0,0,0,0,0,0,0,0,-1,685,1744,0,0
-532,-720,0,0,0,0,0,0,0,0,0,-1,692,1744,0,0
-525,-720,0,0,0,0,0,0,0,0,0,-1,699,1744,0,0
-518,-720,0,0,0,0,0,0,0,0,0,-1,706,1744,0,0
-511,-720,0,0,0,0,0,0,0,0,0,-1,713,1744,0,0
-504,-720,0,0,0,0,0,0,0,0,0,-1,720,1744,0,0
-497,-720,0,0,0,0,0,0,0,0,0,-1,727,1744,0,0
-490,-720,0,0,0,0,0,0,0,0,0,-1,734,1744,0,0
-483,-720,0,0,0,0,0,0,0,0,0,-1,741,1744,0,0
-476,-720,0,0,0,0,0,0,0,0,0,-1,748,1744,0,0
-469,-720,0,0,0,0,0,0,0,0,0,-1,755,1744,0,0
-462,-720,0,0,0,0,0,0,0,0,0,-1,762,1744,0,0
-455,-720,0,0,0,0,0,0,0,0,0,-1,769,1744,0,0
-448,-720,0,0,0,0,0,0,0,0,0,-1,776,1744,0,0
-441,-720,0,0,0,0,0,0,0,0,0,-1,783,1744,0,0
-434,-720,0,0,0,0,0,0,0,0,0,-1,790,1744,0,0
-427,-720,0,0,0,0,0,0,0,0,0,-1,797,1744,0,0
-420,-720,0,0,0,0,0,0,0,0,0,-1,804,1744,0,0
-413,-720,0,0,0,0,0,0,0,0,0,-1,811,1744,0,0
-406,-720,0,0,0,0,0,0,0,0,0,-1,818,1744,0,0
-399,-720,0,0,0,0,0,0,0,0,0,-1,825,1744,0,0
-392,-720,0,0,0,0,0,0,0,0,0,-1,832,1744,0,0
-385,-720,0,0,0,0,0,0,0,0,0,-1,839,1744,0,0
-378,-720,0,0,0,0,0,0,0,0,0,-1,846,1744,0,0
-371,-720,0,0,0,0,0,0,0,0,0,-1,853,1744,0,0
-364,-720,0,0,0,0,0,0,0,0,0,-1,860,1744,0,0
-357,-720,0,0,0,0,0,0,0,0,0,-1,867,1744,0,0
-350,-720,0,0,0,0,0,0,0,0,0,-1,874,1744,0,0
-343,-720,0,0,0,0,0,0,0,0,0,-1,881,1744,0,0
-336,-720,0,0,0,0,0,0,0,0,0,-1,888,1744,0,0
-329,-720,0,0,0,0,0,0,0,0,0,-1,895,1744,0,0
-322,-720,0,0,0,0,0,0,0,0,0,-1,902,1744,0,0
-315,-720,0,0,0,0,0,0,0,0,0,-1,909,1744,0,0
-308,-720,0,0,0,0,0,0,0,0,0,-1,916,1744,0,0
-301,-720,0,0,0,0,0,0,0,0,0,-1,923,1744,0,0
-294,-720,0,0,0,0,0,0,0,0,0,-1,930,1744,0,0
-287,-720,0,0,0,0,0,0,0,0,0,-1,937,1744,0,0
-280,-720,6.46796,22.6417,0,0,0,0,0,0,0,-1,944,1744,6.46793,-22.6417
-273,-720,8.54633,13.262,0,0,0,0,0,0,0,-1,951,1744,8.54636,-13.2619
-266,-720,7.28027,13.3165,0,0,0,0,0,0,0,-1,958,1744,7.28026,-13.3166
-259,-720,3.70563,18.6372,0,0,0,0,0,0,0,-1,965,1744,3.70564,-18.6372
-252,-720,4.00989,18.5059,0,0,0,0,0,0,0,-1,972,1744,4.00988,-18.5058
-245,-720,4.63318,20.3199,0,0,0,0,0,0,0,-1,979,1744,4.6332,-20.32
-238,-720,4.70691,19.5372,0,0,0,0,0,0,0,-1,986,1744,4.70693,-19.5372
-231,-720,5.83551,18.546,0,0,0,0,0,0,0,-1,993,1744,5.83552,-18.546
-224,-720,4.4646,19.0179,0,0,0,0,0,0,0,-1,1000,1744,4.46463,-19.0179
-217,-720,7.33716,20.2433,0,0,0,0,0,0,0,-1,1007,1744,7.33715,-20.2432
-210,-720,5.4718,20.311,0,0,0,0,0,0,0,-1,1014,1744,5.47177,-20.311
-203,-720,6.67664,20.7992,0,0,0,0,0,0,0,-1,1021,1744,6.67659,-20.7991
-196,-720,6.60034,21.0868,0,0,0,0,0,0,0,-1,1028,1744,6.60034,-21.0868
-189,-720,6.70325,21.25,0,0,0,0,0,0,0,-1,1035,1744,6.70321,-21.25
-182,-720,6.01819,21.4751,-0.00171115,-0.000992306,-0.00149699,0.00018781,-0.00289127,-0.903216,0.00199307,0.0477605,1042,1744,6.01815,-21.4751
-175,-720,6.08093,21.8096,-0.00216779,0.00029958,-0.000413035,0.000366886,-0.00223509,-1.40926,0.00162621,0.0459643,1049,1744,6.08091,-21.8095
-168,-720,6.28931,22.0541,0,0,0,0,0,0,0,-1,1056,1744,6.28927,-22.054
-161,-720,5.927,22.0931,-0.00318941,0.00229665,0.00053828,0.00234897,-0.00324172,1.47391,0.00324148,0.0342701,1063,1744,5.92699,-22.0932
-154,-720,6.07043,22.3297,-0.00358538,0.00288249,0.000708201,0.00295913,-0.00366202,1.463,0.00382989,0.0286312,1070,1744,6.07039,-22.3297
-147,-720,6.02234,22.5385,-0.00384609,0.00344433,0.000957266,0.00356792,-0.00396969,1.44239,0.0043539,0.0271839,1077,1744,6.02239,-22.5385
-140,-720,6.03625,22.6774,-0.00400732,0.0041368,0.00110527,0.00428413,-0.00415465,1.43828,0.00487233,0.0217282,1084,1744,6.03626,-22.6773
-133,-720,6.01746,22.7618,-0.00381331,0.00472737,0.00120834,0.00489504,-0.00398097,1.43292,0.00513362,0.0140694,1091,1744,6.01752,-22.7619
-126,-720,6,22.8859,-0.00352525,0.00517812,0.00114007,0.00532498,-0.00367211,1.44268,0.00522361,0.0132544,1098,1744,5.99996,-22.8859
-119,-720,5.98804,23.0148,-0.00317764,0.00562489,0.00118252,0.00578098,-0.00333373,1.43956,0.00532523,0.0149644,1105,1744,5.98804,-23.0147
-112,-720,5.97925,23.1759,-0.00256428,0.00567075,0.00128913,0.00586784,-0.00276136,1.41909,0.00508854,0.0135934,1112,1744,5.97928,-23.1759
-105,-720,5.97412,23.3352,-0.00198756,0.00562057,0.00126581,0.00582564,-0.00219263,1.41018,0.00478512,0.0129032,1119,1744,5.97406,-23.3352
-98,-720,5.96924,23.4519,-0.00156164,0.00526112,0.00122572,0.00547464,-0.00177516,1.39833,0.00436355,0.0100929,1126,1744,5.96923,-23.4518
-91,-720,5.95007,23.5745,-0.00121215,0.00511086,0.00121945,0.00533788,-0.00143918,1.38673,0.00412291,0.00938102,1133,1744,5.95011,-23.5745
-84,-720,5.94226,23.7178,-0.000789385,0.00476325,0.0013009,0.00505292,-0.00107905,1.3517,0.00377999,0.00984992,1140,1744,5.9423,-23.7178
-77,-720,5.94604,23.8429,9.49318e-05,0.00403328,0.00136111,0.0044579,-0.000329692,1.2684,0.00308771,0.0122163,1147,1744,5.9461,-23.8429
-70,-720,5.93311,23.9435,0.00051745,0.00341882,0.00100971,0.00373562,0.000200648,1.26677,0.0024263,0.0105729,1154,1744,5.93316,-23.9435
-63,-720,5.91589,24.0443,0.000295004,0.00242123,0.00059206,0.00257497,0.000141259,1.31673,0.00167155,0.00984739,1161,1744,5.91589,-24.0443
-56,-720,5.94739,24.1699,0.000102969,0.00210582,0.000360233,0.00216864,4.01475e-05,1.39814,0.00143256,0.0120003,1168,1744,5.94735,-24.17
-49,-720,5.9281,24.2715,0.000141289,0.00163758,0.000332794,0.00170826,7.06103e-05,1.36152,0.00111605,0.018073,1175,1744,5.92816,-24.2715
-42,-720,5.91003,24.3241,0.000245316,0.00134198,0.000264698,0.00140253,0.00018477,1.34593,0.000879919,0.0209318,1182,1744,5.91002,-24.3241
-35,-720,5.93127,24.4213,0.000353275,0.0010427,0.000231359,0.00111314,0.000282832,1.27524,0.000668083,0.0186344,1189,1744,5.9313,-24.4212
-28,-720,5.93591,24.5264,0.000319602,0.000774273,0.000178955,0.000836258,0.000257617,1.23736,0.00049453,0.0108059,1196,1744,5.93594,-24.5264
-21,-720,5.91736,24.6218,0.000155779,0.000599673,0.000247015,0.000709805,4.56465e-05,1.1514,0.000458746,0.00900425,1203,1744,5.91736,-24.6218
-14,-720,5.91943,24.6625,-7.77438e-05,0.000522877,0.000492525,0.000799426,-0.000354293,1.05917,0.000682426,0.0106697,1210,1744,5.9194,-24.6625
-7,-720,5.94153,24.7214,-0.000471811,0.000871145,0.000867956,0.00129704,-0.000897707,1.11463,0.00127411,0.0114648,1217,1744,5.94154,-24.7215
0,-720,5.95068,24.7961,-0.000972348,0.00164635,0.00133362,0.00220594,-0.00153194,1.17351,0.00216973,0.0123642,1224,1744,5.95066,-24.7961
7,-720,5.94116,24.845,-0.00154935,0.00278159,0.00184213,0.00345913,-0.00222689,1.21835,0.00330842,0.0150887,1231,1744,5.94116,-24.8449
14,-720,5.95313,24.8855,-0.00218269,0.00435305,0.00233696,0.00510269,-0.00293232,1.26039,0.00469509,0.0137692,1238,1744,5.95317,-24.8854
21,-720,5.96301,24.9434,-0.00280762,0.00610874,0.0027199,0.00687294,-0.00357181,1.29689,0.00612985,0.0105661,1245,1744,5.96306,-24.9434
28,-720,5.96533,25.0017,-0.00325507,0.00745807,0.00301245,0.00824705,-0.00404405,1.31465,0.00723324,0.0103737,1252,1744,5.96527,-25.0017
35,-720,5.95874,25.0446,-0.00360818,0.00849435,0.00315922,0.00926939,-0.00438322,1.33022,0.00804885,0.0109187,1259,1744,5.95872,-25.0446
42,-720,5.94995,25.0663,-0.00378385,0.00921843,0.00319104,0.00995936,-0.00452477,1.34265,0.00855638,0.0110797,1266,1744,5.95,-25.0662
49,-720,5.96143,25.0652,-0.00378868,0.00943925,0.00313806,0.0101459,-0.00449536,1.34929,0.00866046,0.0108798,1273,1744,5.96137,-25.0651
56,-720,5.97034,25.0934,-0.00370622,0.00894955,0.00292762,0.00959398,-0.00435065,1.35413,0.00823846,0.00962822,1280,1744,5.97028,-25.0933
63,-720,5.97961,25.1088,-0.00322949,0.00764913,0.00259176,0.00823505,-0.0038154,1.34847,0.00711159,0.011544,1287,1744,5.97964,-25.1087
70,-720,5.99194,25.1248,-0.00248488,0.0060504,0.00228791,0.006625,-0.00305948,1.32474,0.00571626,0.0119087,1294,1744,5.99192,-25.1248
77,-720,6.00256,25.1218,-0.00170354,0.0043027,0.00201133,0.00491402,-0.00231486,1.27573,0.00426257,0.0128932,1301,1744,6.00254,-25.1218
84,-720,6.00195,25.0991,-0.000960417,0.00238,0.00173128,0.00311539,-0.00169581,1.16912,0.00281777,0.0132434,1308,1744,6.00194,-25.0991
91,-720,6.01025,25.0876,-0.000201186,0.000537929,0.00155647,0.00176811,-0.00143137,0.901956,0.00185063,0.0127139,1315,1744,6.01024,-25.0876
98,-720,6.0022,25.0853,0.00055921,-0.00114499,0.0014826,0.00141713,-0.00200291,0.52458,0.00198419,0.0117973,1322,1744,6.00223,-25.0853
105,-720,5.99207,25.079,0.00124089,-0.00240112,0.0013804,0.00170496,-0.00286519,0.324314,0.00266677,0.0118794,1329,1744,5.99212,-25.079
112,-720,6.01416,25.0615,0.00182736,-0.00313493,0.00134111,0.00216662,-0.00347418,0.247768,0.00328576,0.0108462,1336,1744,6.01411,-25.0615
119,-720,6.03259,25.0343,0.00221841,-0.00350887,0.00130029,0.00249979,-0.00379025,0.213116,0.00365694,0.0107,1343,1744,6.03264,-25.0343
126,-720,6.03442,24.9895,0.00243839,-0.00337486,0.00128744,0.00271076,-0.00364722,0.208481,0.00368403,0.0116386,1350,1744,6.03442,-24.9896
133,-720,6.0376,24.9602,0.0023602,-0.00263568,0.00124892,0.00265502,-0.00293049,0.231815,0.0032261,0.0133957,1357,1744,6.03758,-24.9602
140,-720,6.06653,24.9358,0.00218011,-0.0018989,0.00117006,0.0024919,-0.0022107,0.260427,0.00271667,0.0190901,1364,1744,6.06658,-24.9358
147,-720,6.04712,24.8586,0.00187879,-0.00128364,0.00104386,0.00219227,-0.00159713,0.291743,0.00219678,0.0196388,1371,1744,6.04709,-24.8587
154,-720,6.03711,24.7844,0.00151203,-0.000732591,0.000823344,0.00178165,-0.00100221,0.316466,0.00162813,0.0132608,1378,1744,6.03707,-24.7844
161,-720,6.06665,24.7084,0.00118811,-0.000275001,0.000604156,0.00140533,-0.000492223,0.345153,0.00113705,0.00972137,1385,1744,6.06665,-24.7083
168,-720,6.07019,24.6287,0.000807542,9.54344e-05,0.000406397,0.000991796,-8.88199e-05,0.425665,0.000692705,0.00943902,1392,1744,6.0702,-24.6287
175,-720,6.08203,24.5354,0.000459577,0.000410227,0.00021423,0.000650548,0.000219255,0.728061,0.000382187,0.0151282,1399,1744,6.08199,-24.5354
182,-720,6.08301,24.4633,-0.000193643,0.000502808,-4.2621e-05,0.000505406,-0.000196241,-1.5099,0.000417999,0.015542,1406,1744,6.08304,-24.4633
189,-720,6.06555,24.3931,-0.000953534,0.000683705,-7.55131e-05,0.000687181,-0.000957009,-1.5248,0.000953525,0.0130922,1413,1744,6.06552,-24.393
196,-720,6.07568,24.3259,-0.00151724,0.000824489,-0.00021346,0.000843787,-0.00153654,-1.48063,0.00139355,0.0130847,1420,1744,6.07568,-24.3259
203,-720,6.07532,24.2327,-0.00207057,0.00117402,-0.000423761,0.00122845,-0.002125,-1.44305,0.00195904,0.0141748,1427,1744,6.0753,-24.2327
210,-720,6.05139,24.129,-0.0026732,0.00147082,-0.000415504,0.00151207,-0.00271445,-1.47184,0.00247288,0.0122273,1434,1744,6.05138,-24.129
217,-720,6.05298,24.0168,-0.00325064,0.00165619,-0.000484942,0.00170366,-0.0032981,-1.47322,0.00293627,0.0116875,1441,1744,6.05297,-24.0169
224,-720,6.04773,23.8934,-0.00369346,0.00177852,-0.000568179,0.0018369,-0.00375183,-1.46842,0.00328919,0.00915077,1448,1744,6.04772,-23.8934
231,-720,6.04773,23.7764,-0.00406892,0.00190998,-0.000647367,0.00197927,-0.00413821,-1.46417,0.0036045,0.00953847,1455,1744,6.04776,-23.7764
238,-720,6.03381,23.6417,-0.00417127,0.0020633,-0.000694187,0.00213966,-0.00424763,-1.46124,0.00375405,0.00822361,1462,1744,6.03381,-23.6418
245,-720,6.02039,23.5234,-0.00402668,0.00230652,-0.000797048,0.00240529,-0.00412545,-1.44751,0.00381387,0.0103782,1469,1744,6.02036,-23.5235
252,-720,6.02917,23.3992,-0.00384658,0.00255518,-0.000949105,0.00269293,-0.00398432,-1.42667,0.00387907,0.0107004,1476,1744,6.02923,-23.3992
259,-720,6.03406,23.2606,-0.00357987,0.00287107,-0.00109691,0.00305249,-0.00376128,-1.40689,0.00394102,0.00990271,1483,1744,6.03403,-23.2606
266,-720,5.99329,23.1294,-0.00322431,0.0033961,-0.00127864,0.00363447,-0.00346268,-1.38649,0.00409794,0.00891406,1490,1744,5.9933,-23.1294
273,-720,5.97192,22.9811,-0.00279247,0.00400889,-0.00139193,0.00428273,-0.00306631,-1.37654,0.0042623,0.0158597,1497,1744,5.97196,-22.9811
280,-720,5.90369,22.8365,-0.00241503,0.00415863,-0.00154148,0.00450215,-0.00275854,-1.35153,0.00423206,0.0232472,1504,1744,5.90366,-22.8365
287,-720,5.83447,22.6227,-0.00155002,0.00380813,-0.00144782,0.00417432,-0.00191621,-1.32307,0.00359603,0.0377291,1511,1744,5.83446,-22.6226
294,-720,6.005,22.4033,-0.000809778,0.00374711,-0.00180961,0.00437831,-0.00144097,-1.23519,0.00349952,0.0406274,1518,1744,6.00504,-22.4033
301,-720,6.00098,22.2954,-0.00136235,0.00351762,-0.0016585,0.00402791,-0.00187264,-1.2723,0.00348161,0.0446857,1525,1744,6.00099,-22.2954
308,-720,5.87927,22.1003,-0.00185302,0.00203211,-0.00122505,0.00238613,-0.00220704,-1.28948,0.00265254,0.0429344,1532,1744,5.87931,-22.1004
315,-720,5.84436,21.8621,-0.00216311,0.000788552,-0.00122043,0.0012278,-0.00260236,-1.22532,0.00225831,0.0488151,1539,1744,5.84434,-21.862
322,-720,5.79272,21.6736,0,0,0,0,0,0,0,-1,1546,1744,5.79275,-21.6735
329,-720,6.03845,22.0958,0,0,0,0,0,0,0,-1,1553,1744,6.03839,-22.0959
336,-720,5.99097,22.3,0,0,0,0,0,0,0,-1,1560,1744,5.99097,-22.3
343,-720,6.78552,21.3625,0,0,0,0,0,0,0,-1,1567,1744,6.78551,-21.3625
350,-720,4.0741,11.1836,0,0,0,0,0,0,0,-1,1574,1744,4.07412,-11.1836
357,-720,5.53247,19.7031,0,0,0,0,0,0,0,-1,1581,1744,5.53253,-19.7032
364,-720,6.45642,18.7834,0,0,0,0,0,0,0,-1,1588,1744,6.45637,-18.7834
371,-720,5.90027,18.6631,0,0,0,0,0,0,0,-1,1595,1744,5.90025,-18.663
378,-720,6.90405,18.7253,0,0,0,0,0,0,0,-1,1602,1744,6.90402,-18.7254
385,-720,7.54175,18.5774,0,0,0,0,0,0,0,-1,1609,1744,7.54171,-18.5774
392,-720,0.141968,12.1694,0,0,0,0,0,0,0,-1,1616,1744,0.141952,-12.1694
399,-720,-0.334595,13.7629,0,0,0,0,0,0,0,-1,1623,1744,-0.334621,-13.763
406,-720,0,0,0,0,0,0,0,0,0,-1,1630,1744,0,0
413,-720,0,0,0,0,0,0,0,0,0,-1,1637,1744,0,0
420,-720,0,0,0,0,0,0,0,0,0,-1,1644,1744,0,0
427,-720,0,0,0,0,0,0,0,0,0,-1,1651,1744,0,0
434,-720,0,0,0,0,0,0,0,0,0,-1,1658,1744,0,0
441,-720,0,0,0,0,0,0,0,0,0,-1,1665,1744,0,0
448,-720,0,0,0,0,0,0,0,0,0,-1,1672,1744,0,0
455,-720,0,0,0,0,0,0,0,0,0,-1,1679,1744,0,0
462,-720,0,0,0,0,0,0,0,0,0,-1,1686,1744,0,0
469,-720,0,0,0,0,0,0,0,0,0,-1,1693,1744,0,0
476,-720,0,0,0,0,0,0,0,0,0,-1,1700,1744,0,0
483,-720,0,0,0,0,0,0,0,0,0,-1,1707,1744,0,0
490,-720,0,0,0,0,0,0,0,0,0,-1,1714,1744,0,0
497,-720,0,0,0,0,0,0,0,0,0,-1,1721,1744,0,0
504,-720,0,0,0,0,0,0,0,0,0,-1,1728,1744,0,0
511,-720,0,0,0,0,0,0,0,0,0,-1,1735,1744,0,0
518,-720,0,0,0,0,0,0,0,0,0,-1,1742,1744,0,0
525,-720,0,0,0,0,0,0,0,0,0,-1,1749,1744,0,0
532,-720,0,0,0,0,0,0,0,0,0,-1,1756,1744,0,0
539,-720,0,0,0,0,0,0,0,0,0,-1,1763,1744,0,0
546,-720,0,0,0,0,0,0,0,0,0,-1,1770,1744,0,0
553,-720,0,0,0,0,0,0,0,0,0,-1,1777,1744,0,0
560,-720,0,0,0,0,0,0,0,0,0,-1,1784,1744,0,0
567,-720,0,0,0,0,0,0,0,0,0,-1,1791,1744,0,0
574,-720,0,0,0,0,0,0,0,0,0,-1,1798,1744,0,0
581,-720,0,0,0,0,0,0,0,0,0,-1,1805,1744,0,0
588,-720,0,0,0,0,0,0,0,0,0,-1,1812,1744,0,0
595,-720,0,0,0,0,0,0,0,0,0,-1,1819,1744,0,0
602,-720,0,0,0,0,0,0,0,0,0,-1,1826,1744,0,0
609,-720,0,0,0,0,0,0,0,0,0,-1,1833,1744,0,0
616,-720,0,0,0,0,0,0,0,0,0,-1,1840,1744,0,0
623,-720,0,0,0,0,0,0,0,0,0,-1,1847,1744,0,0
630,-720,0,0,0,0,0,0,0,0,0,-1,1854,1744,0,0
637,-720,0,0,0,0,0,0,0,0,0,-1,1861,1744,0,0
644,-720,0,0,0,0,0,0,0,0,0,-1,1868,1744,0,0
651,-720,0,0,0,0,0,0,0,0,0,-1,1875,1744,0,0
658,-720,0,0,0,0,0,0,0,0,0,-1,1882,1744,0,0
665,-720,0,0,0,0,0,0,0,0,0,-1,1889,1744,0,0
672,-720,0,0,0,0,0,0,0,0,0,-1,1896,1744,0,0
679,-720,0,0,0,0,0,0,0,0,0,-1,1903,1744,0,0
686,-720,0,0,0,0,0,0,0,0,0,-1,1910,1744,0,0
693,-720,0,0,0,0,0,0,0,0,0,-1,1917,1744,0,0
700,-720,0,0,0,0,0,0,0,0,0,-1,1924,1744,0,0
707,-720,0,0,0,0,0,0,0,0,0,-1,1931,1744,0,0
714,-720,0,0,0,0,0,0,0,0,0,-1,1938,1744,0,0
721,-720,0,0,0,0,0,0,0,0,0,-1,1945,1744,0,0
728,-720,0,0,0,0,0,0,0,0,0,-1,1952,1744,0,0
735,-720,0,0,0,0,0,0,0,0,0,-1,1959,1744,0,0
742,-720,0,0,0,0,0,0,0,0,0,-1,1966,1744,0,0
749,-720,0,0,0,0,0,0,0,0,0,-1,1973,1744,0,0
756,-720,0,0,0,0,0,0,0,0,0,-1,1980,1744,0,0
763,-720,0,0,0,0,0,0,0,0,0,-1,1987,1744,0,0
770,-720,0,0,0,0,0,0,0,0,0,-1,1994,1744,0,0
777,-720,0,0,0,0,0,0,0,0,0,-1,2001,1744,0,0
784,-720,0,0,0,0,0,0,0,0,0,-1,2008,1744,0,0
791,-720,0,0,0,0,0,0,0,0,0,-1,2015,1744,0,0
798,-720,0,0,0,0,0,0,0,0,0,-1,2022,1744,0,0
805,-720,0,0,0,0,0,0,0,0,0,-1,2029,1744,0,0
812,-720,0,0,0,0,0,0,0,0,0,-1,2036,1744,0,0
-700,-727,0,0,0,0,0,0,0,0,0,-1,524,1751,0,0
-693,-727,0,0,0,0,0,0,0,0,0,-1,531,1751,0,0
-686,-727,0,0,0,0,0,0,0,0,0,-1,538,1751,0,0
-679,-727,0,0,0,0,0,0,0,0,0,-1,545,1751,0,0
-672,-727,0,0,0,0,0,0,0,0,0,-1,552,1751,0,0
-665,-727,0,0,0,0,0,0,0,0,0,-1,559,1751,0,0
-658,-727,0,0,0,0,0,0,0,0,0,-1,566,1751,0,0
-651,-727,0,0,0,0,0,0,0,0,0,-1,573,1751,0,0
-644,-727,0,0,0,0,0,0,0,0,0,-1,580,1751,0,0
-637,-727,0,0,0,0,0,0,0,0,0,-1,587,1751,0,0
-630,-727,0,0,0,0,0,0,0,0,0,-1,594,1751,0,0
-623,-727,0,0,0,0,0,0,0,0,0,-1,601,1751,0,0
-616,-727,0,0,0,0,0,0,0,0,0,-1,608,1751,0,0
-609,-727,0,0,0,0,0,0,0,0,0,-1,615,1751,0,0
-602,-727,0,0,0,0,0,0,0,0,0,-1,622,1751,0,0
-595,-727,0,0,0,0,0,0,0,0,0,-1,629,1751,0,0
-588,-727,0,0,0,0,0,0,0,0,0,-1,636,1751,0,0
-581,-727,0,0,0,0,0,0,0,0,0,-1,643,1751,0,0
-574,-727,0,0,0,0,0,0,0,0,0,-1,650,1751,0,0
-567,-727,0,0,0,0,0,0,0,0,0,-1,657,1751,0,0
-560,-727,0,0,0,0,0,0,0,0,0,-1,664,1751,0,0
-553,-727,0,0,0,0,0,0,0,0,0,-1,671,1751,0,0
-546,-727,0,0,0,0,0,0,0,0,0,-1,678,1751,0,0
-539,-727,0,0,0,0,0,0,0,0,0,-1,685,1751,0,0
-532,-727,0,0,0,0,0,0,0,0,0,-1,692,1751,0,0
-525,-727,0,0,0,0,0,0,0,0,0,-1,699,1751,0,0
-518,-727,0,0,0,0,0,0,0,0,0,-1,706,1751,0,0
-511,-727,0,0,0,0,0,0,0,0,0,-1,713,1751,0,0
-504,-727,0,0,0,0,0,0,0,0,0,-1,720,1751,0,0
-497,-727,0,0,0,0,0,0,0,0,0,-1,727,1751,0,0
-490,-727,0,0,0,0,0,0,0,0,0,-1,734,1751,0,0
-483,-727,0,0,0,0,0,0,0,0,0,-1,741,1751,0,0
-476,-727,0,0,0,0,0,0,0,0,0,-1,748,1751,0,0
-469,-727,0,0,0,0,0,0,0,0,0,-1,755,1751,0,0
-462,-727,0,0,0,0,0,0,0,0,0,-1,762,1751,0,0
-455,-727,0,0,0,0,0,0,0,0,0,-1,769,1751,0,0
-448,-727,0,0,0,0,0,0,0,0,0,-1,776,1751,0,0
-441,-727,0,0,0,0,0,0,0,0,0,-1,783,1751,0,0
-434,-727,0,0,0,0,0,0,0,0,0,-1,790,1751,0,0
-427,-727,0,0,0,0,0,0,0,0,0,-1,797,1751,0,0
-420,-727,0,0,0,0,0,0,0,0,0,-1,804,1751,0,0
-413,-727,0,0,0,0,0,0,0,0,0,-1,811,1751,0,0
-406,-727,0,0,0,0,0,0,0,0,0,-1,818,1751,0,0
-399,-727,0,0,0,0,0,0,0,0,0,-1,825,1751,0,0
-392,-727,0,0,0,0,0,0,0,0,0,-1,832,1751,0,0
-385,-727,0,0,0,0,0,0,0,0,0,-1,839,1751,0,0
-378,-727,0,0,0,0,0,0,0,0,0,-1,846,1751,0,0
-371,-727,0,0,0,0,0,0,0,0,0,-1,853,1751,0,0
-364,-727,0,0,0,0,0,0,0,0,0,-1,860,1751,0,0
-357,-727,0,0,0,0,0,0,0,0,0,-1,867,1751,0,0
-350,-727,0,0,0,0,0,0,0,0,0,-1,874,1751,0,0
-343,-727,0,0,0,0,0,0,0,0,0,-1,881,1751,0,0
-336,-727,0,0,0,0,0,0,0,0,0,-1,888,1751,0,0
-329,-727,0,0,0,0,0,0,0,0,0,-1,895,1751,0,0
-322,-727,0,0,0,0,0,0,0,0,0,-1,902,1751,0,0
-315,-727,0,0,0,0,0,0,0,0,0,-1,909,1751,0,0
-308,-727,0,0,0,0,0,0,0,0,0,-1,916,1751,0,0
-301,-727,0,0,0,0,0,0,0,0,0,-1,923,1751,0,0
-294,-727,0,0,0,0,0,0,0,0,0,-1,930,1751,0,0
-287,-727,0,0,0,0,0,0,0,0,0,-1,937,1751,0,0
-280,-727,0,0,0,0,0,0,0,0,0,-1,944,1751,0,0
-273,-727,0,0,0,0,0,0,0,0,0,-1,951,1751,0,0
-266,-727,4.24805,7.61145,0,0,0,0,0,0,0,-1,958,1751,4.24802,-7.6115
-259,-727,3.65228,5.4082,0,0,0,0,0,0,0,-1,965,1751,3.65229,-5.40818
-252,-727,6.35193,19.5046,0,0,0,0,0,0,0,-1,972,1751,6.35193,-19.5046
-245,-727,6.6543,20.9005,0,0,0,0,0,0,0,-1,979,1751,6.65433,-20.9005
-238,-727,4.31769,18.0181,0,0,0,0,0,0,0,-1,986,1751,4.31766,-18.018
-231,-727,4.72626,18.8145,0,0,0,0,0,0,0,-1,993,1751,4.72627,-18.8145
-224,-727,5.36774,18.8488,0,0,0,0,0,0,0,-1,1000,1751,5.36772,-18.8487
-217,-727,5.94122,16.1447,0,0,0,0,0,0,0,-1,1007,1751,5.9412,-16.1446
-210,-727,6.63403,19.8335,0,0,0,0,0,0,0,-1,1014,1751,6.63405,-19.8335
-203,-727,5.12427,21.7227,0,0,0,0,0,0,0,-1,1021,1751,5.1243,-21.7227
-196,-727,5.40576,21.8256,0,0,0,0,0,0,0,-1,1028,1751,5.40577,-21.8255
-189,-727,5.46777,18.9607,0,0,0,0,0,0,0,-1,1035,1751,5.46774,-18.9607
-182,-727,6.16541,21.6368,0,0,0,0,0,0,0,-1,1042,1751,6.16544,-21.6369
-175,-727,6.2312,22.0781,0,0,0,0,0,0,0,-1,1049,1751,6.23117,-22.0781
-168,-727,6.33472,21.6256,0,0,0,0,0,0,0,-1,1056,1751,6.33475,-21.6256
-161,-727,5.81677,22.3765,0,0,0,0,0,0,0,-1,1063,1751,5.81676,-22.3765
-154,-727,6.1217,22.1018,-0.00549903,0.0042763,0.000881887,0.00435523,-0.00557795,1.48154,0.00574939,0.0497832,1070,1751,6.12172,-22.1017
-147,-727,6.26489,22.4513,-0.00596876,0.00506299,0.00117465,0.00518667,-0.00609245,1.46588,0.006519,0.046159,1077,1751,6.26489,-22.4514
-140,-727,6.0835,22.4902,-0.00620714,0.00600313,0.00134342,0.00614919,-0.0063532,1.4625,0.00721858,0.032759,1084,1751,6.08348,-22.4903
-133,-727,6.19214,22.647,-0.00598126,0.00680562,0.0014646,0.00697123,-0.00614687,1.4582,0.00757872,0.02367,1091,1751,6.19211,-22.6469
-126,-727,6.10046,22.8503,-0.00560211,0.00737928,0.00139475,0.00752744,-0.00575028,1.46496,0.00768875,0.0151075,1098,1751,6.10051,-22.8504
-119,-727,6.10413,23.0586,-0.00506595,0.00791005,0.00146992,0.00807448,-0.00523038,1.4594,0.00773984,0.0117643,1105,1751,6.10413,-23.0586
-112,-727,6.1123,23.1824,-0.00421538,0.00796794,0.0016128,0.00817783,-0.00442526,1.44139,0.00738313,0.012563,1112,1751,6.11226,-23.1824
-105,-727,6.08606,23.3271,-0.00343308,0.0078649,0.00161344,0.00809079,-0.00365897,1.43169,0.00694272,0.0129584,1119,1751,6.0861,-23.3272
-98,-727,6.07056,23.4647,-0.00284247,0.00737094,0.00155651,0.00760288,-0.00307441,1.42287,0.00634666,0.0105972,1126,1751,6.07051,-23.4647
-91,-727,6.0752,23.5795,-0.00238028,0.00713235,0.00152182,0.00736988,-0.00261781,1.41596,0.00598001,0.00993144,1133,1751,6.07516,-23.5794
-84,-727,6.06226,23.6985,-0.00182767,0.00662531,0.001623,0.00692622,-0.00212858,1.38747,0.00546693,0.00975974,1140,1751,6.06222,-23.6985
-77,-727,6.05029,23.826,-0.000477573,0.00550956,0.00177806,0.0059978,-0.00096581,1.30281,0.0043563,0.0108449,1147,1751,6.05027,-23.8261
-70,-727,6.04492,23.9501,0.00012144,0.00460605,0.00130804,0.00495968,-0.000232196,1.30675,0.00338651,0.0117567,1154,1751,6.04492,-23.95
-63,-727,6.02881,24.0598,-0.000390632,0.00306559,0.000713765,0.00320719,-0.000532234,1.37495,0.00233584,0.00993502,1161,1751,6.02882,-24.0598
-56,-727,6.00159,24.1625,-0.000877503,0.00270453,0.000408842,0.0027506,-0.000923574,1.45858,0.00220697,0.0105319,1168,1751,6.00164,-24.1625
-49,-727,5.98474,24.2534,-0.000866494,0.00229773,0.000491404,0.00237229,-0.000941052,1.42022,0.00197155,0.0131221,1175,1751,5.98475,-24.2534
-42,-727,5.98022,24.3491,-0.00064768,0.0019586,0.000426394,0.00202659,-0.000715665,1.41268,0.00164244,0.0166214,1182,1751,5.98019,-24.3492
-35,-727,6.00171,24.438,-0.000442341,0.00159556,0.000369472,0.00166047,-0.000507259,1.39687,0.00130925,0.015284,1189,1751,6.00167,-24.438
-28,-727,6.00269,24.5131,-0.000326526,0.00114416,0.000276819,0.00119454,-0.000376905,1.39078,0.000947324,0.00886415,1196,1751,6.00272,-24.5131
-21,-727,5.99231,24.6052,-0.00029544,0.000841062,0.000289439,0.000910529,-0.000364907,1.33525,0.000758501,0.00955147,1203,1751,5.99228,-24.6052
-14,-727,5.9928,24.6609,-0.000304574,0.000517078,0.000400859,0.000680243,-0.000467739,1.18424,0.000666562,0.0108454,1210,1751,5.99285,-24.6609
-7,-727,6.00684,24.7308,-0.000438011,0.000402736,0.000544002,0.000669859,-0.000705134,1.11435,0.00079394,0.014433,1217,1751,6.00687,-24.7309
0,-727,6.01294,24.8167,-0.000697675,0.000677174,0.000676604,0.000954294,-0.000974795,1.18206,0.00111378,0.014041,1224,1751,6.01292,-24.8166
7,-727,6.00134,24.8589,-0.000955157,0.00106817,0.000850143,0.00137795,-0.00126493,1.22137,0.00152634,0.0135765,1231,1751,6.00133,-24.8589
14,-727,5.99841,24.8846,-0.00118872,0.0017706,0.0010457,0.00210281,-0.00152093,1.26319,0.00210114,0.0138061,1238,1751,5.99846,-24.8847
21,-727,5.99658,24.9514,-0.00143872,0.0025219,0.00116191,0.0028376,-0.00175442,1.30549,0.00267568,0.0117143,1245,1751,5.99655,-24.9514
28,-727,6.0061,25.0052,-0.00161876,0.00309837,0.00122603,0.003398,-0.00191838,1.33111,0.00310879,0.00981763,1252,1751,6.00608,-25.0052
35,-727,6.03003,25.0317,-0.00173963,0.00353506,0.00122204,0.00380442,-0.00200899,1.35384,0.00340932,0.0108732,1259,1751,6.03009,-25.0318
42,-727,6.00659,25.0422,-0.00173321,0.00378549,0.00117075,0.00402359,-0.00197131,1.37016,0.00352811,0.01144,1266,1751,6.00662,-25.0422
49,-727,5.99219,25.0524,-0.00169093,0.00372031,0.0010936,0.00393296,-0.00190358,1.37874,0.00343696,0.0106302,1273,1751,5.99216,-25.0524
56,-727,5.98755,25.0852,-0.00167675,0.00332202,0.000981678,0.00350789,-0.00186262,1.38367,0.00314879,0.00937997,1280,1751,5.98758,-25.0852
63,-727,5.99329,25.1051,-0.00148145,0.00253929,0.000799566,0.00269245,-0.00163462,1.38153,0.002523,0.0109817,1287,1751,5.99326,-25.1051
70,-727,6.00952,25.1228,-0.00118675,0.00169168,0.00067952,0.00184403,-0.0013391,1.35024,0.00184547,0.0124896,1294,1751,6.00953,-25.1228
77,-727,6.01794,25.1466,-0.000861496,0.000853919,0.00059502,0.0010401,-0.00104768,1.26754,0.00120538,0.0147616,1301,1751,6.01789,-25.1466
84,-727,5.99585,25.0978,-0.00061471,-0.000105705,0.000492794,0.000194425,-0.000914841,1.02376,0.000683976,0.0153568,1308,1751,5.99584,-25.0978
91,-727,6.01062,25.0562,-0.00035692,-0.000974236,0.000480548,-9.44415e-05,-0.00123671,0.499925,0.000794868,0.0151501,1315,1751,6.01059,-25.0562
98,-727,6.0094,25.0748,-8.71822e-05,-0.00165963,0.000538143,7.93507e-05,-0.00182617,0.300111,0.00124474,0.0131482,1322,1751,6.00943,-25.0749
105,-727,5.99561,25.0775,0.000198643,-0.00221163,0.000548462,0.000317578,-0.00233057,0.213545,0.00166967,0.0123722,1329,1751,5.99565,-25.0775
112,-727,5.99536,25.0612,0.000396115,-0.00235427,0.000542495,0.00049925,-0.00245741,0.187872,0.00182756,0.00995369,1336,1751,5.99539,-25.0612
119,-727,6.00146,25.0309,0.000479277,-0.00235576,0.000477869,0.000557658,-0.00243414,0.162576,0.00183708,0.00809752,1343,1751,6.00149,-25.0309
126,-727,6.01074,24.9712,0.000577901,-0.00199975,0.00046273,0.000658451,-0.0020803,0.172349,0.00165072,0.0106564,1350,1751,6.01071,-24.9712
133,-727,6.01855,24.9482,0.000571077,-0.00141054,0.000436381,0.000662918,-0.00150238,0.207433,0.00128107,0.0157228,1357,1751,6.01862,-24.9482
140,-727,6.05603,24.9471,0.000467557,-0.000844967,0.000383448,0.000571368,-0.000948779,0.264394,0.000886628,0.0222718,1364,1751,6.05603,-24.9471
147,-727,6.02991,24.8641,0.00027914,-0.000372602,0.000288392,0.000388426,-0.000481888,0.362229,0.000503441,0.0185714,1371,1751,6.02991,-24.8641
154,-727,6.0144,24.7654,9.49412e-05,7.77975e-05,0.000122989,0.000209657,-3.69178e-05,0.750606,0.000153563,0.0112879,1378,1751,6.0144,-24.7653
161,-727,6.00073,24.7043,-0.000102513,0.000355393,-8.38998e-05,0.000370281,-0.000117402,-1.39517,0.000293911,0.00899249,1385,1751,6.00077,-24.7043
168,-727,5.98633,24.6343,-0.000348732,0.000499383,-0.000266114,0.000575967,-0.000425316,-1.29058,0.000580268,0.0115935,1392,1751,5.98637,-24.6342
175,-727,6.00879,24.5531,-0.000478104,0.000714505,-0.000394474,0.000833176,-0.000596774,-1.27858,0.000829334,0.0173935,1399,1751,6.00875,-24.5531
182,-727,6.0415,24.4717,-0.00137382,0.00079342,-0.000640429,0.000968522,-0.00154892,-1.30391,0.00146627,0.0198455,1406,1751,6.04147,-24.4717
189,-727,5.98755,24.381,-0.00254923,0.000940836,-0.000507771,0.00101321,-0.00262161,-1.42922,0.00216597,0.0122035,1413,1751,5.98754,-24.3809
196,-727,5.98767,24.3201,-0.00339687,0.000987515,-0.000552684,0.00105611,-0.00346546,-1.44731,0.00273128,0.0130554,1420,1751,5.98764,-24.3201
203,-727,5.96753,24.2235,-0.00420843,0.00150518,-0.000711212,0.00159238,-0.00429563,-1.4488,0.00351684,0.0153247,1427,1751,5.96752,-24.2235
210,-727,5.94751,24.1205,-0.00510289,0.00200799,-0.000660487,0.00206882,-0.00516372,-1.47896,0.00430126,0.014382,1434,1751,5.94755,-24.1205
217,-727,5.94775,24.0112,-0.00586917,0.00233451,-0.000717254,0.00239675,-0.00593141,-1.48424,0.00495052,0.0115319,1441,1751,5.94772,-24.0113
224,-727,5.93921,23.8668,-0.00644183,0.00253483,-0.000807841,0.00260695,-0.00651395,-1.48176,0.00542461,0.0124734,1448,1751,5.93926,-23.8668
231,-727,5.93652,23.7633,-0.00686306,0.00274012,-0.000904432,0.00282456,-0.0069475,-1.47771,0.00580687,0.00995445,1455,1751,5.93652,-23.7633
238,-727,5.93335,23.63,-0.00691076,0.0029589,-0.000967909,0.00305292,-0.00700479,-1.47396,0.00595436,0.00961017,1462,1751,5.93333,-23.63
245,-727,5.90552,23.5112,-0.00660378,0.00328527,-0.00109919,0.00340597,-0.00672449,-1.46142,0.00595251,0.0090467,1469,1751,5.90554,-23.5112
252,-727,5.8877,23.3925,-0.00620608,0.00360927,-0.00128872,0.00377566,-0.00637247,-1.4424,0.00592262,0.0103642,1476,1751,5.88774,-23.3925
259,-727,5.89478,23.2659,-0.00569491,0.00400245,-0.00147917,0.00422305,-0.00591552,-1.42275,0.00588063,0.0152567,1483,1751,5.89477,-23.2659
266,-727,5.90271,23.1753,-0.00507174,0.00465121,-0.00170472,0.00494144,-0.00536197,-1.40217,0.00595032,0.0237614,1490,1751,5.90276,-23.1752
273,-727,5.98511,23.0725,-0.00434786,0.0053974,-0.00183922,0.00573296,-0.00468342,-1.39033,0.00602407,0.0431152,1497,1751,5.98509,-23.0725
280,-727,5.65076,22.8555,0,0,0,0,0,0,0,-1,1504,1751,5.65078,-22.8555
287,-727,5.56165,22.5309,0,0,0,0,0,0,0,-1,1511,1751,5.5617,-22.5309
294,-727,5.74878,22.2472,0,0,0,0,0,0,0,-1,1518,1751,5.74879,-22.2472
301,-727,5.80786,22.3243,0,0,0,0,0,0,0,-1,1525,1751,5.80788,-22.3244
308,-727,5.69666,22.0601,0,0,0,0,0,0,0,-1,1532,1751,5.69663,-22.06
315,-727,5.67175,21.653,0,0,0,0,0,0,0,-1,1539,1751,5.67173,-21.653
322,-727,5.75818,18.2477,0,0,0,0,0,0,0,-1,1546,1751,5.75815,-18.2477
329,-727,6.61853,11.6267,0,0,0,0,0,0,0,-1,1553,1751,6.61859,-11.6267
336,-727,5.55823,20.2439,0,0,0,0,0,0,0,-1,1560,1751,5.55829,-20.2438
343,-727,2.41699,8.72095,0,0,0,0,0,0,0,-1,1567,1751,2.41702,-8.72098
350,-727,3.89783,7.50195,0,0,0,0,0,0,0,-1,1574,1751,3.89782,-7.50193
357,-727,4.48462,10.2948,0,0,0,0,0,0,0,-1,1581,1751,4.48464,-10.2948
364,-727,6.96729,17.2365,0,0,0,0,0,0,0,-1,1588,1751,6.96732,-17.2365
371,-727,6.06628,16.4799,0,0,0,0,0,0,0,-1,1595,1751,6.06631,-16.4798
378,-727,6.43652,17.5544,0,0,0,0,0,0,0,-1,1602,1751,6.43657,-17.5545
385,-727,3.19275,14.7679,0,0,0,0,0,0,0,-1,1609,1751,3.19274,-14.768
392,-727,0,0,0,0,0,0,0,0,0,-1,1616,1751,0,0
399,-727,0,0,0,0,0,0,0,0,0,-1,1623,1751,0,0
406,-727,0,0,0,0,0,0,0,0,0,-1,1630,1751,0,0
413,-727,0,0,0,0,0,0,0,0,0,-1,1637,1751,0,0
420,-727,0,0,0,0,0,0,0,0,0,-1,1644,1751,0,0
427,-727,0,0,0,0,0,0,0,0,0,-1,1651,1751,0,0
434,-727,0,0,0,0,0,0,0,0,0,-1,1658,1751,0,0
441,-727,0,0,0,0,0,0,0,0,0,-1,1665,1751,0,0
448,-727,0,0,0,0,0,0,0,0,0,-1,1672,1751,0,0
455,-727,0,0,0,0,0,0,0,0,0,-1,1679,1751,0,0
462,-727,0,0,0,0,0,0,0,0,0,-1,1686,1751,0,0
469,-727,0,0,0,0,0,0,0,0,0,-1,1693,1751,0,0
476,-727,0,0,0,0,0,0,0,0,0,-1,1700,1751,0,0
483,-727,0,0,0,0,0,0,0,0,0,-1,1707,1751,0,0
490,-727,0,0,0,0,0,0,0,0,0,-1,1714,1751,0,0
497,-727,0,0,0,0,0,0,0,0,0,-1,1721,1751,0,0
504,-727,0,0,0,0,0,0,0,0,0,-1,1728,1751,0,0
511,-727,0,0,0,0,0,0,0,0,0,-1,1735,1751,0,0
518,-727,0,0,0,0,0,0,0,0,0,-1,1742,1751,0,0
525,-727,0,0,0,0,0,0,0,0,0,-1,1749,1751,0,0
532,-727,0,0,0,0,0,0,0,0,0,-1,1756,1751,0,0
539,-727,0,0,0,0,0,0,0,0,0,-1,1763,1751,0,0
546,-727,0,0,0,0,0,0,0,0,0,-1,1770,1751,0,0
553,-727,0,0,0,0,0,0,0,0,0,-1,1777,1751,0,0
560,-727,0,0,0,0,0,0,0,0,0,-1,1784,1751,0,0
567,-727,0,0,0,0,0,0,0,0,0,-1,1791,1751,0,0
574,-727,0,0,0,0,0,0,0,0,0,-1,1798,1751,0,0
581,-727,0,0,0,0,0,0,0,0,0,-1,1805,1751,0,0
588,-727,0,0,0,0,0,0,0,0,0,-1,1812,1751,0,0
595,-727,0,0,0,0,0,0,0,0,0,-1,1819,1751,0,0
602,-727,0,0,0,0,0,0,0,0,0,-1,1826,1751,0,0
609,-727,0,0,0,0,0,0,0,0,0,-1,1833,1751,0,0
616,-727,0,0,0,0,0,0,0,0,0,-1,1840,1751,0,0
623,-727,0,0,0,0,0,0,0,0,0,-1,1847,1751,0,0
630,-727,0,0,0,0,0,0,0,0,0,-1,1854,1751,0,0
637,-727,0,0,0,0,0,0,0,0,0,-1,1861,1751,0,0
644,-727,0,0,0,0,0,0,0,0,0,-1,1868,1751,0,0
651,-727,0,0,0,0,0,0,0,0,0,-1,1875,1751,0,0
658,-727,0,0,0,0,0,0,0,0,0,-1,1882,1751,0,0
665,-727,0,0,0,0,0,0,0,0,0,-1,1889,1751,0,0
672,-727,0,0,0,0,0,0,0,0,0,-1,1896,1751,0,0
679,-727,0,0,0,0,0,0,0,0,0,-1,1903,1751,0,0
686,-727,0,0,0,0,0,0,0,0,0,-1,1910,1751,0,0
693,-727,0,0,0,0,0,0,0,0,0,-1,1917,1751,0,0
700,-727,0,0,0,0,0,0,0,0,0,-1,1924,1751,0,0
707,-727,0,0,0,0,0,0,0,0,0,-1,1931,1751,0,0
714,-727,0,0,0,0,0,0,0,0,0,-1,1938,1751,0,0
721,-727,0,0,0,0,0,0,0,0,0,-1,1945,1751,0,0
728,-727,0,0,0,0,0,0,0,0,0,-1,1952,1751,0,0
735,-727,0,0,0,0,0,0,0,0,0,-1,1959,1751,0,0
742,-727,0,0,0,0,0,0,0,0,0,-1,1966,1751,0,0
749,-727,0,0,0,0,0,0,0,0,0,-1,1973,1751,0,0
756,-727,0,0,0,0,0,0,0,0,0,-1,1980,1751,0,0
763,-727,0,0,0,0,0,0,0,0,0,-1,1987,1751,0,0
770,-727,0,0,0,0,0,0,0,0,0,-1,1994,1751,0,0
777,-727,0,0,0,0,0,0,0,0,0,-1,2001,1751,0,0
784,-727,0,0,0,0,0,0,0,0,0,-1,2008,1751,0,0
791,-727,0,0,0,0,0,0,0,0,0,-1,2015,1751,0,0
798,-727,0,0,0,0,0,0,0,0,0,-1,2022,1751,0,0
805,-727,0,0,0,0,0,0,0,0,0,-1,2029,1751,0,0
812,-727,0,0,0,0,0,0,0,0,0,-1,2036,1751,0,0
-700,-734,0,0,0,0,0,0,0,0,0,-1,524,1758,0,0
-693,-734,0,0,0,0,0,0,0,0,0,-1,531,1758,0,0
-686,-734,0,0,0,0,0,0,0,0,0,-1,538,1758,0,0
-679,-734,0,0,0,0,0,0,0,0,0,-1,545,1758,0,0
-672,-734,0,0,0,0,0,0,0,0,0,-1,552,1758,0,0
-665,-734,0,0,0,0,0,0,0,0,0,-1,559,1758,0,0
-658,-734,0,0,0,0,0,0,0,0,0,-1,566,1758,0,0
-651,-734,0,0,0,0,0,0,0,0,0,-1,573,1758,0,0
-644,-734,0,0,0,0,0,0,0,0,0,-1,580,1758,0,0
-637,-734,0,0,0,0,0,0,0,0,0,-1,587,1758,0,0
-630,-734,0,0,0,0,0,0,0,0,0,-1,594,1758,0,0
-623,-734,0,0,0,0,0,0,0,0,0,-1,601,1758,0,0
-616,-734,0,0,0,0,0,0,0,0,0,-1,608,1758,0,0
-609,-734,0,0,0,0,0,0,0,0,0,-1,615,1758,0,0
-602,-734,0,0,0,0,0,0,0,0,0,-1,622,1758,0,0
-595,-734,0,0,0,0,0,0,0,0,0,-1,629,1758,0,0
-588,-734,0,0,0,0,0,0,0,0,0,-1,636,1758,0,0
-581,-734,0,0,0,0,0,0,0,0,0,-1,643,1758,0,0
-574,-734,0,0,0,0,0,0,0,0,0,-1,650,1758,0,0
-567,-734,0,0,0,0,0,0,0,0,0,-1,657,1758,0,0
-560,-734,0,0,0,0,0,0,0,0,0,-1,664,1758,0,0
-553,-734,0,0,0,0,0,0,0,0,0,-1,671,1758,0,0
-546,-734,0,0,0,0,0,0,0,0,0,-1,678,1758,0,0
-539,-734,0,0,0,0,0,0,0,0,0,-1,685,1758,0,0
-532,-734,0,0,0,0,0,0,0,0,0,-1,692,1758,0,0
-525,-734,0,0,0,0,0,0,0,0,0,-1,699,1758,0,0
-518,-734,0,0,0,0,0,0,0,0,0,-1,706,1758,0,0
-511,-734,0,0,0,0,0,0,0,0,0,-1,713,1758,0,0
-504,-734,0,0,0,0,0,0,0,0,0,-1,720,1758,0,0
-497,-734,0,0,0,0,0,0,0,0,0,-1,727,1758,0,0
-490,-734,0,0,0,0,0,0,0,0,0,-1,734,1758,0,0
-483,-734,0,0,0,0,0,0,0,0,0,-1,741,1758,0,0
-476,-734,0,0,0,0,0,0,0,0,0,-1,748,1758,0,0
-469,-734,0,0,0,0,0,0,0,0,0,-1,755,1758,0,0
-462,-734,0,0,0,0,0,0,0,0,0,-1,762,1758,0,0
-455,-734,0,0,0,0,0,0,0,0,0,-1,769,1758,0,0
-448,-734,0,0,0,0,0,0,0,0,0,-1,776,1758,0,0
-441,-734,0,0,0,0,0,0,0,0,0,-1,783,1758,0,0
-434,-734,0,0,0,0,0,0,0,0,0,-1,790,1758,0,0
-427,-734,0,0,0,0,0,0,0,0,0,-1,797,1758,0,0
-420,-734,0,0,0,0,0,0,0,0,0,-1,804,1758,0,0
-413,-734,0,0,0,0,0,0,0,0,0,-1,811,1758,0,0
-406,-734,0,0,0,0,0,0,0,0,0,-1,818,1758,0,0
-399,-734,0,0,0,0,0,0,0,0,0,-1,825,1758,0,0
-392,-734,0,0,0,0,0,0,0,0,0,-1,832,1758,0,0
-385,-734,0,0,0,0,0,0,0,0,0,-1,839,1758,0,0
-378,-734,0,0,0,0,0,0,0,0,0,-1,846,1758,0,0
-371,-734,0,0,0,0,0,0,0,0,0,-1,853,1758,0,0
-364,-734,0,0,0,0,0,0,0,0,0,-1,860,1758,0,0
-357,-734,0,0,0,0,0,0,0,0,0,-1,867,1758,0,0
-350,-734,0,0,0,0,0,0,0,0,0,-1,874,1758,0,0
-343,-734,0,0,0,0,0,0,0,0,0,-1,881,1758,0,0
-336,-734,0,0,0,0,0,0,0,0,0,-1,888,1758,0,0
-329,-734,0,0,0,0,0,0,0,0,0,-1,895,1758,0,0
-322,-734,0,0,0,0,0,0,0,0,0,-1,902,1758,0,0
-315,-734,0,0,0,0,0,0,0,0,0,-1,909,1758,0,0
-308,-734,0,0,0,0,0,0,0,0,0,-1,916,1758,0,0
-301,-734,0,0,0,0,0,0,0,0,0,-1,923,1758,0,0
-294,-734,0,0,0,0,0,0,0,0,0,-1,930,1758,0,0
-287,-734,0,0,0,0,0,0,0,0,0,-1,937,1758,0,0
-280,-734,0,0,0,0,0,0,0,0,0,-1,944,1758,0,0
-273,-734,0,0,0,0,0,0,0,0,0,-1,951,1758,0,0
-266,-734,0,0,0,0,0,0,0,0,0,-1,958,1758,0,0
-259,-734,0,0,0,0,0,0,0,0,0,-1,965,1758,0,0
-252,-734,6.93439,18.351,0,0,0,0,0,0,0,-1,972,1758,6.93438,-18.3509
-245,-734,6.95746,19.5341,0,0,0,0,0,0,0,-1,979,1758,6.95746,-19.5341
-238,-734,4.33466,18.0819,0,0,0,0,0,0,0,-1,986,1758,4.33464,-18.0819
-231,-734,5.00385,17.5045,0,0,0,0,0,0,0,-1,993,1758,5.00388,-17.5045
-224,-734,5.60974,16.9055,0,0,0,0,0,0,0,-1,1000,1758,5.60974,-16.9056
-217,-734,6.61804,16.4808,0,0,0,0,0,0,0,-1,1007,1758,6.61804,-16.4808
-210,-734,7.62262,16.1628,0,0,0,0,0,0,0,-1,1014,1758,7.6226,-16.1628
-203,-734,5.16125,20.7495,0,0,0,0,0,0,0,-1,1021,1758,5.16126,-20.7495
-196,-734,5.51831,20.7374,0,0,0,0,0,0,0,-1,1028,1758,5.51833,-20.7374
-189,-734,5.11902,18.9406,0,0,0,0,0,0,0,-1,1035,1758,5.11908,-18.9406
-182,-734,5.75598,20.6118,0,0,0,0,0,0,0,-1,1042,1758,5.75592,-20.6118
-175,-734,6.39282,22.283,0,0,0,0,0,0,0,-1,1049,1758,6.39277,-22.283
-168,-734,4.50208,15.4194,0,0,0,0,0,0,0,-1,1056,1758,4.50212,-15.4194
-161,-734,6.17456,21.793,0,0,0,0,0,0,0,-1,1063,1758,6.1746,-21.7929
-154,-734,6.16711,22.0702,0,0,0,0,0,0,0,-1,1070,1758,6.16707,-22.0702
-147,-734,6.27039,22.6628,-0.00925568,0.00754629,0.00128184,0.00764352,-0.00935291,1.49509,0.00982942,0.044903,1077,1758,6.27041,-22.6628
-140,-734,6.50061,22.728,-0.00949346,0.00882572,0.00149728,0.00894729,-0.00961504,1.48978,0.0107193,0.0415779,1084,1758,6.50066,-22.728
-133,-734,6.37622,22.7072,-0.00909863,0.00991411,0.0016945,0.0100639,-0.00924847,1.4826,0.0111533,0.0417853,1091,1758,6.37616,-22.7072
-126,-734,6.11682,22.6952,-0.00846676,0.0106444,0.00167397,0.0107899,-0.00861227,1.48408,0.0112253,0.0378775,1098,1758,6.11682,-22.6952
-119,-734,5.89221,23.028,-0.00754021,0.0112531,0.00183036,0.0114297,-0.00771682,1.47461,0.0111233,0.0345825,1105,1758,5.89227,-23.028
-112,-734,6.18579,23.1663,-0.00626638,0.011313,0.00204035,0.0115467,-0.00650009,1.45675,0.0105543,0.0280508,1112,1758,6.1858,-23.1663
-105,-734,6.2074,23.2943,-0.00511458,0.0111013,0.00209971,0.0113688,-0.00538205,1.4441,0.00987484,0.021714,1119,1758,6.20744,-23.2943
-98,-734,6.22119,23.3757,-0.00421555,0.0104025,0.00203836,0.0106814,-0.00449446,1.43481,0.00900125,0.0242,1126,1758,6.22125,-23.3757
-91,-734,6.21802,23.4773,-0.00353637,0.00996467,0.00196568,0.010245,-0.00381673,1.42912,0.00839658,0.0286076,1133,1758,6.21796,-23.4774
-84,-734,6.16968,23.6392,-0.00277114,0.0091558,0.00207261,0.0095057,-0.00312105,1.40355,0.00759436,0.0209077,1140,1758,6.16972,-23.6391
-77,-734,6.14819,23.8083,-0.00077714,0.00748216,0.0023256,0.00809196,-0.00138694,1.31436,0.00591144,0.0165892,1147,1758,6.1482,-23.8083
-70,-734,6.11633,23.8678,5.46655e-05,0.00613974,0.0016908,0.00657799,-0.000383579,1.31718,0.00451862,0.0151553,1154,1758,6.11634,-23.8679
-63,-734,6.09949,23.9655,-0.00032113,0.0048288,0.000683964,0.00491809,-0.00041042,1.44098,0.00342374,0.0154805,1161,1758,6.09946,-23.9654
-56,-734,6.0918,24.1255,-0.000576431,0.00547583,-0.000123477,0.00547835,-0.000578949,-1.55041,0.00385972,0.0138683,1168,1758,6.09181,-24.1255
-49,-734,6.06836,24.2506,-0.00018539,0.00571853,-3.81825e-06,0.00571854,-0.000185393,-1.57015,0.00387563,0.0120727,1175,1758,6.06832,-24.2507
-42,-734,6.0719,24.3534,0.000144214,0.00568548,5.31691e-05,0.00568599,0.000143704,1.5612,0.00374368,0.0132888,1182,1758,6.07191,-24.3533
-35,-734,6.09656,24.4373,0.000340165,0.00530994,0.000142598,0.00531403,0.000336077,1.54213,0.00343615,0.0133231,1189,1758,6.09652,-24.4372
-28,-734,6.08826,24.5094,0.000424474,0.00466824,0.000112542,0.00467123,0.000421491,1.5443,0.00298359,0.00935206,1196,1758,6.08825,-24.5095
-21,-734,6.12488,24.5874,0.00045359,0.00417155,0.000181272,0.00418037,0.000444773,1.52219,0.00265112,0.0143075,1203,1758,6.12485,-24.5874
-14,-734,6.08386,24.6826,0.000443252,0.00348148,0.000319198,0.00351465,0.000410079,1.46724,0.00221907,0.0155073,1210,1758,6.08389,-24.6826
-7,-734,6.07312,24.7469,0.000307002,0.00279614,0.000443723,0.00287287,0.000230268,1.39956,0.00184329,0.0183031,1217,1758,6.07312,-24.7469
0,-734,6.06909,24.8167,8.5604e-05,0.00267368,0.000611234,0.00281077,-5.14908e-05,1.35016,0.00189125,0.0173355,1224,1758,6.06904,-24.8166
7,-734,6.05676,24.8608,-3.9549e-05,0.00229964,0.000759583,0.00252465,-0.000264557,1.28281,0.00177786,0.013254,1231,1758,6.05676,-24.8609
14,-734,6.03345,24.8981,-3.51514e-05,0.00219322,0.000928361,0.0025293,-0.000371229,1.22346,0.00182259,0.0142125,1238,1758,6.0335,-24.8981
21,-734,6.01208,24.9495,-3.65369e-06,0.00201169,0.00109986,0.00249569,-0.000487655,1.15624,0.00184792,0.0119569,1245,1758,6.01211,-24.9495
28,-734,6.03149,24.998,1.2331e-05,0.00190746,0.0011555,0.00245424,-0.00053445,1.12882,0.00184036,0.010133,1252,1758,6.03147,-24.9981
35,-734,6.04688,25.0344,0.000119274,0.00183012,0.00116616,0.00242096,-0.000471564,1.10184,0.00179197,0.0123077,1259,1758,6.04689,-25.0345
42,-734,6.03406,25.0381,0.000286681,0.00164609,0.00117395,0.00232291,-0.00039014,1.04781,0.0016937,0.0109159,1266,1758,6.03403,-25.0381
49,-734,6.00964,25.0596,0.000403567,0.00132184,0.00116538,0.00211526,-0.00038986,0.973051,0.00155649,0.00979884,1273,1758,6.00968,-25.0596
56,-734,5.99707,25.0886,0.000414556,0.000957267,0.00110302,0.00182182,-0.000449997,0.906009,0.00138906,0.00922466,1280,1758,5.99706,-25.0887
63,-734,5.99524,25.0941,0.000488631,0.000516435,0.000983614,0.00148625,-0.000481179,0.792464,0.00118427,0.0113663,1287,1758,5.99527,-25.0941
70,-734,5.98486,25.1128,0.000522753,0.00015215,0.000904327,0.00126057,-0.000585665,0.684344,0.00108941,0.0122359,1294,1758,5.98488,-25.1128
77,-734,6.0022,25.189,0.00049756,-0.000185284,0.000837528,0.00106058,-0.000748308,0.591854,0.00104954,0.0167113,1301,1758,6.00221,-25.189
84,-734,5.98108,25.1373,0.000324625,-0.000648236,0.000743144,0.000726383,-0.00104999,0.495612,0.00103125,0.0160563,1308,1758,5.98105,-25.1373
91,-734,5.97717,25.0906,0.000109782,-0.00100437,0.000704394,0.000450762,-0.00134535,0.450827,0.00107901,0.0170582,1315,1758,5.97715,-25.0905
98,-734,5.99976,25.0908,-9.72296e-05,-0.00118967,0.000712703,0.000254494,-0.00154139,0.458439,0.00112209,0.0134992,1322,1758,5.99977,-25.0909
105,-734,6.00464,25.0587,-0.000244952,-0.0015939,0.000608032,-1.13416e-05,-0.00182751,0.366818,0.00121458,0.0141768,1329,1758,6.00461,-25.0588
112,-734,5.99463,25.0358,-0.000477343,-0.00140394,0.000528192,-0.000238051,-0.00164323,0.425379,0.00102539,0.0111467,1336,1758,5.99463,-25.0358
119,-734,5.98181,25,-0.000743709,-0.00122922,0.000378535,-0.000536778,-0.00143615,0.500279,0.000837926,0.0115402,1343,1758,5.98178,-25
126,-734,5.99048,24.9532,-0.000841766,-0.000701276,0.000240466,-0.000521005,-0.00102204,0.927504,0.000590111,0.0152256,1350,1758,5.99044,-24.9532
133,-734,5.97278,24.9017,-0.000833088,-0.000211057,0.000213017,-0.000145102,-0.000899043,1.27053,0.000557327,0.0150622,1357,1758,5.97279,-24.9017
140,-734,5.98181,24.8674,-0.000907403,0.000251656,0.000150173,0.000270797,-0.000926544,1.44402,0.00072502,0.0206143,1364,1758,5.9818,-24.8675
147,-734,5.98376,24.8176,-0.000993228,0.000605521,4.32566e-05,0.000606691,-0.000994397,1.54377,0.000933379,0.0142727,1371,1758,5.98372,-24.8176
154,-734,5.96069,24.7715,-0.000995388,0.000953237,-9.18945e-05,0.000957561,-0.000999712,-1.52378,0.00113012,0.00947871,1378,1758,5.96064,-24.7715
161,-734,5.94531,24.7051,-0.00100829,0.00105485,-0.000292475,0.00109551,-0.00104895,-1.43266,0.0012382,0.00876474,1385,1758,5.94532,-24.705
168,-734,5.92041,24.6178,-0.00116728,0.00100364,-0.000491717,0.00110982,-0.00127346,-1.35812,0.00137707,0.013651,1392,1758,5.92038,-24.6178
175,-734,5.9137,24.5527,-0.00112738,0.00103714,-0.000674934,0.00123035,-0.00132059,-1.29199,0.00147309,0.0169355,1399,1758,5.91364,-24.5527
182,-734,5.94604,24.4652,-0.0024574,0.00099541,-0.00103283,0.00128077,-0.00274276,-1.30123,0.00237355,0.0153415,1406,1758,5.946,-24.4652
189,-734,5.91577,24.3805,-0.00426824,0.00115193,-0.00072232,0.00124654,-0.00436285,-1.44056,0.0034011,0.0108922,1413,1758,5.9158,-24.3805
196,-734,5.89001,24.3131,-0.00555428,0.00118124,-0.000756669,0.0012652,-0.00563823,-1.46029,0.00424389,0.0120231,1420,1758,5.89001,-24.3131
203,-734,5.89441,24.2001,-0.00685483,0.00190141,-0.000997216,0.00201355,-0.00696697,-1.45882,0.00544146,0.0136686,1427,1758,5.89436,-24.2001
210,-734,5.88086,24.0913,-0.00822554,0.00265929,-0.00090136,0.00273342,-0.00829967,-1.48873,0.00663468,0.0148519,1434,1758,5.8809,-24.0913
217,-734,5.8584,23.9865,-0.00933279,0.00315402,-0.000962928,0.00322784,-0.00940661,-1.49428,0.00757969,0.0116871,1441,1758,5.85836,-23.9864
224,-734,5.85669,23.877,-0.0101536,0.00347031,-0.00105773,0.00355194,-0.0102352,-1.49377,0.0082659,0.0126266,1448,1758,5.85671,-23.8769
231,-734,5.82788,23.7688,-0.0106807,0.00377848,-0.00118294,0.00387462,-0.0107768,-1.4897,0.00876633,0.0137669,1455,1758,5.82793,-23.7687
238,-734,5.79163,23.6353,-0.0107098,0.00408666,-0.0012853,0.00419748,-0.0108206,-1.48479,0.00894733,0.0171019,1462,1758,5.79165,-23.6353
245,-734,5.77087,23.4637,-0.0102518,0.00452044,-0.00146592,0.0046645,-0.0103959,-1.47283,0.00890252,0.0221738,1469,1758,5.77083,-23.4638
252,-734,5.724,23.3114,-0.00961628,0.00496213,-0.00171861,0.005162,-0.00981614,-1.45502,0.00878569,0.0272558,1476,1758,5.72399,-23.3114
259,-734,5.73755,23.2047,-0.00882099,0.00548581,-0.00199043,0.00575757,-0.00909274,-1.4351,0.00864561,0.0386881,1483,1758,5.73755,-23.2047
266,-734,5.68115,23.1837,0,0,0,0,0,0,0,-1,1490,1758,5.68112,-23.1838
273,-734,5.98474,23.2898,0,0,0,0,0,0,0,-1,1497,1758,5.98472,-23.2897
280,-734,16.6191,7.38013,0,0,0,0,0,0,0,-1,1504,1758,16.6192,-7.38011
287,-734,14.848,9.10046,0,0,0,0,0,0,0,-1,1511,1758,14.848,-9.1005
294,-734,12.0439,5.7876,0,0,0,0,0,0,0,-1,1518,1758,12.044,-5.78759
301,-734,10.5892,5.92322,0,0,0,0,0,0,0,-1,1525,1758,10.5893,-5.92319
308,-734,9.00854,5.43774,0,0,0,0,0,0,0,-1,1532,1758,9.00857,-5.4377
315,-734,5.3158,17.4298,0,0,0,0,0,0,0,-1,1539,1758,5.31581,-17.4299
322,-734,9.85913,7.48096,0,0,0,0,0,0,0,-1,1546,1758,9.85916,-7.48098
329,-734,5.45972,12.4125,0,0,0,0,0,0,0,-1,1553,1758,5.45969,-12.4125
336,-734,5.92188,13.8751,0,0,0,0,0,0,0,-1,1560,1758,5.92183,-13.8751
343,-734,5.54968,5.14221,0,0,0,0,0,0,0,-1,1567,1758,5.54973,-5.14225
350,-734,5.07397,6.73242,0,0,0,0,0,0,0,-1,1574,1758,5.07402,-6.73243
357,-734,5.05542,7.19189,0,0,0,0,0,0,0,-1,1581,1758,5.05541,-7.19184
364,-734,4.43896,10.4904,0,0,0,0,0,0,0,-1,1588,1758,4.43893,-10.4904
371,-734,7.36975,17.4751,0,0,0,0,0,0,0,-1,1595,1758,7.36972,-17.4752
378,-734,0,0,0,0,0,0,0,0,0,-1,1602,1758,0,0
385,-734,0,0,0,0,0,0,0,0,0,-1,1609,1758,0,0
392,-734,0,0,0,0,0,0,0,0,0,-1,1616,1758,0,0
399,-734,0,0,0,0,0,0,0,0,0,-1,1623,1758,0,0
406,-734,0,0,0,0,0,0,0,0,0,-1,1630,1758,0,0
413,-734,0,0,0,0,0,0,0,0,0,-1,1637,1758,0,0
420,-734,0,0,0,0,0,0,0,0,0,-1,1644,1758,0,0
427,-734,0,0,0,0,0,0,0,0,0,-1,1651,1758,0,0
434,-734,0,0,0,0,0,0,0,0,0,-1,1658,1758,0,0
441,-734,0,0,0,0,0,0,0,0,0,-1,1665,1758,0,0
448,-734,0,0,0,0,0,0,0,0,0,-1,1672,1758,0,0
455,-734,0,0,0,0,0,0,0,0,0,-1,1679,1758,0,0
462,-734,0,0,0,0,0,0,0,0,0,-1,1686,1758,0,0
469,-734,0,0,0,0,0,0,0,0,0,-1,1693,1758,0,0
476,-734,0,0,0,0,0,0,0,0,0,-1,1700,1758,0,0
483,-734,0,0,0,0,0,0,0,0,0,-1,1707,1758,0,0
490,-734,0,0,0,0,0,0,0,0,0,-1,1714,1758,0,0
497,-734,0,0,0,0,0,0,0,0,0,-1,1721,1758,0,0
504,-734,0,0,0,0,0,0,0,0,0,-1,1728,1758,0,0
511,-734,0,0,0,0,0,0,0,0,0,-1,1735,1758,0,0
518,-734,0,0,0,0,0,0,0,0,0,-1,1742,1758,0,0
525,-734,0,0,0,0,0,0,0,0,0,-1,1749,1758,0,0
532,-734,0,0,0,0,0,0,0,0,0,-1,1756,1758,0,0
539,-734,0,0,0,0,0,0,0,0,0,-1,1763,1758,0,0
546,-734,0,0,0,0,0,0,0,0,0,-1,1770,1758,0,0
553,-734,0,0,0,0,0,0,0,0,0,-1,1777,1758,0,0
560,-734,0,0,0,0,0,0,0,0,0,-1,1784,1758,0,0
567,-734,0,0,0,0,0,0,0,0,0,-1,1791,1758,0,0
574,-734,0,0,0,0,0,0,0,0,0,-1,1798,1758,0,0
581,-734,0,0,0,0,0,0,0,0,0,-1,1805,1758,0,0
588,-734,0,0,0,0,0,0,0,0,0,-1,1812,1758,0,0
595,-734,0,0,0,0,0,0,0,0,0,-1,1819,1758,0,0
602,-734,0,0,0,0,0,0,0,0,0,-1,1826,1758,0,0
609,-734,0,0,0,0,0,0,0,0,0,-1,1833,1758,0,0
616,-734,0,0,0,0,0,0,0,0,0,-1,1840,1758,0,0
623,-734,0,0,0,0,0,0,0,0,0,-1,1847,1758,0,0
630,-734,0,0,0,0,0,0,0,0,0,-1,1854,1758,0,0
637,-734,0,0,0,0,0,0,0,0,0,-1,1861,1758,0,0
644,-734,0,0,0,0,0,0,0,0,0,-1,1868,1758,0,0
651,-734,0,0,0,0,0,0,0,0,0,-1,1875,1758,0,0
658,-734,0,0,0,0,0,0,0,0,0,-1,1882,1758,0,0
665,-734,0,0,0,0,0,0,0,0,0,-1,1889,1758,0,0
672,-734,0,0,0,0,0,0,0,0,0,-1,1896,1758,0,0
679,-734,0,0,0,0,0,0,0,0,0,-1,1903,1758,0,0
686,-734,0,0,0,0,0,0,0,0,0,-1,1910,1758,0,0
693,-734,0,0,0,0,0,0,0,0,0,-1,1917,1758,0,0
700,-734,0,0,0,0,0,0,0,0,0,-1,1924,1758,0,0
707,-734,0,0,0,0,0,0,0,0,0,-1,1931,1758,0,0
714,-734,0,0,0,0,0,0,0,0,0,-1,1938,1758,0,0
721,-734,0,0,0,0,0,0,0,0,0,-1,1945,1758,0,0
728,-734,0,0,0,0,0,0,0,0,0,-1,1952,1758,0,0
735,-734,0,0,0,0,0,0,0,0,0,-1,1959,1758,0,0
742,-734,0,0,0,0,0,0,0,0,0,-1,1966,1758,0,0
749,-734,0,0,0,0,0,0,0,0,0,-1,1973,1758,0,0
756,-734,0,0,0,0,0,0,0,0,0,-1,1980,1758,0,0
763,-734,0,0,0,0,0,0,0,0,0,-1,1987,1758,0,0
770,-734,0,0,0,0,0,0,0,0,0,-1,1994,1758,0,0
777,-734,0,0,0,0,0,0,0,0,0,-1,2001,1758,0,0
784,-734,0,0,0,0,0,0,0,0,0,-1,2008,1758,0,0
791,-734,0,0,0,0,0,0,0,0,0,-1,2015,1758,0,0
798,-734,0,0,0,0,0,0,0,0,0,-1,2022,1758,0,0
805,-734,0,0,0,0,0,0,0,0,0,-1,2029,1758,0,0
812,-734,0,0,0,0,0,0,0,0,0,-1,2036,1758,0,0
-700,-741,0,0,0,0,0,0,0,0,0,-1,524,1765,0,0
-693,-741,0,0,0,0,0,0,0,0,0,-1,531,1765,0,0
-686,-741,0,0,0,0,0,0,0,0,0,-1,538,1765,0,0
-679,-741,0,0,0,0,0,0,0,0,0,-1,545,1765,0,0
-672,-741,0,0,0,0,0,0,0,0,0,-1,552,1765,0,0
-665,-741,0,0,0,0,0,0,0,0,0,-1,559,1765,0,0
-658,-741,0,0,0,0,0,0,0,0,0,-1,566,1765,0,0
-651,-741,0,0,0,0,0,0,0,0,0,-1,573,1765,0,0
-644,-741,0,0,0,0,0,0,0,0,0,-1,580,1765,0,0
-637,-741,0,0,0,0,0,0,0,0,0,-1,587,1765,0,0
-630,-741,0,0,0,0,0,0,0,0,0,-1,594,1765,0,0
-623,-741,0,0,0,0,0,0,0,0,0,-1,601,1765,0,0
-616,-741,0,0,0,0,0,0,0,0,0,-1,608,1765,0,0
-609,-741,0,0,0,0,0,0,0,0,0,-1,615,1765,0,0
-602,-741,0,0,0,0,0,0,0,0,0,-1,622,1765,0,0
-595,-741,0,0,0,0,0,0,0,0,0,-1,629,1765,0,0
-588,-741,0,0,0,0,0,0,0,0,0,-1,636,1765,0,0
-581,-741,0,0,0,0,0,0,0,0,0,-1,643,1765,0,0
-574,-741,0,0,0,0,0,0,0,0,0,-1,650,1765,0,0
-567,-741,0,0,0,0,0,0,0,0,0,-1,657,1765,0,0
-560,-741,0,0,0,0,0,0,0,0,0,-1,664,1765,0,0
-553,-741,0,0,0,0,0,0,0,0,0,-1,671,1765,0,0
-546,-741,0,0,0,0,0,0,0,0,0,-1,678,1765,0,0
-539,-741,0,0,0,0,0,0,0,0,0,-1,685,1765,0,0
-532,-741,0,0,0,0,0,0,0,0,0,-1,692,1765,0,0
-525,-741,0,0,0,0,0,0,0,0,0,-1,699,1765,0,0
-518,-741,0,0,0,0,0,0,0,0,0,-1,706,1765,0,0
-511,-741,0,0,0,0,0,0,0,0,0,-1,713,1765,0,0
-504,-741,0,0,0,0,0,0,0,0,0,-1,720,1765,0,0
-497,-741,0,0,0,0,0,0,0,0,0,-1,727,1765,0,0
-490,-741,0,0,0,0,0,0,0,0,0,-1,734,1765,0,0
-483,-741,0,0,0,0,0,0,0,0,0,-1,741,1765,0,0
-476,-741,0,0,0,0,0,0,0,0,0,-1,748,1765,0,0
-469,-741,0,0,0,0,0,0,0,0,0,-1,755,1765,0,0
-462,-741,0,0,0,0,0,0,0,0,0,-1,762,1765,0,0
-455,-741,0,0,0,0,0,0,0,0,0,-1,769,1765,0,0
-448,-741,0,0,0,0,0,0,0,0,0,-1,776,1765,0,0
-441,-741,0,0,0,0,0,0,0,0,0,-1,783,1765,0,0
-434,-741,0,0,0,0,0,0,0,0,0,-1,790,1765,0,0
-427,-741,0,0,0,0,0,0,0,0,0,-1,797,1765,0,0
-420,-741,0,0,0,0,0,0,0,0,0,-1,804,1765,0,0
-413,-741,0,0,0,0,0,0,0,0,0,-1,811,1765,0,0
-406,-741,0,0,0,0,0,0,0,0,0,-1,818,1765,0,0
-399,-741,0,0,0,0,0,0,0,0,0,-1,825,1765,0,0
-392,-741,0,0,0,0,0,0,0,0,0,-1,832,1765,0,0
-385,-741,0,0,0,0,0,0,0,0,0,-1,839,1765,0,0
-378,-741,0,0,0,0,0,0,0,0,0,-1,846,1765,0,0
-371,-741,0,0,0,0,0,0,0,0,0,-1,853,1765,0,0
-364,-741,0,0,0,0,0,0,0,0,0,-1,860,1765,0,0
-357,-741,0,0,0,0,0,0,0,0,0,-1,867,1765,0,0
-350,-741,0,0,0,0,0,0,0,0,0,-1,874,1765,0,0
-343,-741,0,0,0,0,0,0,0,0,0,-1,881,1765,0,0
-336,-741,0,0,0,0,0,0,0,0,0,-1,888,1765,0,0
-329,-741,0,0,0,0,0,0,0,0,0,-1,895,1765,0,0
-322,-741,0,0,0,0,0,0,0,0,0,-1,902,1765,0,0
-315,-741,0,0,0,0,0,0,0,0,0,-1,909,1765,0,0
-308,-741,0,0,0,0,0,0,0,0,0,-1,916,1765,0,0
-301,-741,0,0,0,0,0,0,0,0,0,-1,923,1765,0,0
-294,-741,0,0,0,0,0,0,0,0,0,-1,930,1765,0,0
-287,-741,0,0,0,0,0,0,0,0,0,-1,937,1765,0,0
-280,-741,0,0,0,0,0,0,0,0,0,-1,944,1765,0,0
-273,-741,0,0,0,0,0,0,0,0,0,-1,951,1765,0,0
-266,-741,0,0,0,0,0,0,0,0,0,-1,958,1765,0,0
-259,-741,0,0,0,0,0,0,0,0,0,-1,965,1765,0,0
-252,-741,0,0,0,0,0,0,0,0,0,-1,972,1765,0,0
-245,-741,0,0,0,0,0,0,0,0,0,-1,979,1765,0,0
-238,-741,4.22437,17.0699,0,0,0,0,0,0,0,-1,986,1765,4.22434,-17.07
-231,-741,5.12506,16.7758,0,0,0,0,0,0,0,-1,993,1765,5.12506,-16.7757
-224,-741,5.91974,16.7001,0,0,0,0,0,0,0,-1,1000,1765,5.91972,-16.7001
-217,-741,6.90027,16.573,0,0,0,0,0,0,0,-1,1007,1765,6.90029,-16.573
-210,-741,3.48083,24.1105,0,0,0,0,0,0,0,-1,1014,1765,3.48082,-24.1105
-203,-741,4.40173,22.8218,0,0,0,0,0,0,0,-1,1021,1765,4.40174,-22.8218
-196,-741,5.35474,21.4691,0,0,0,0,0,0,0,-1,1028,1765,5.35471,-21.4691
-189,-741,6.27173,20.1274,0,0,0,0,0,0,0,-1,1035,1765,6.27176,-20.1274
-182,-741,5.80322,20.2147,0,0,0,0,0,0,0,-1,1042,1765,5.80324,-20.2147
-175,-741,4.89868,17.0417,0,0,0,0,0,0,0,-1,1049,1765,4.89864,-17.0417
-168,-741,5.4801,16.3933,0,0,0,0,0,0,0,-1,1056,1765,5.4801,-16.3933
-161,-741,3.73047,14.4974,0,0,0,0,0,0,0,-1,1063,1765,3.73043,-14.4974
-154,-741,2.46143,9.75415,0,0,0,0,0,0,0,-1,1070,1765,2.46145,-9.75416
-147,-741,6.31946,23.0624,0,0,0,0,0,0,0,-1,1077,1765,6.31947,-23.0623
-140,-741,6.81531,23.0225,0,0,0,0,0,0,0,-1,1084,1765,6.81534,-23.0224
-133,-741,7.11145,22.4103,-0.0137627,0.0143586,0.00173425,0.0144651,-0.0138692,1.50944,0.01636,0.0471141,1091,1765,7.11145,-22.4103
-126,-741,6.0011,22.688,-0.0125741,0.0153535,0.00191613,0.0154843,-0.0127049,1.50261,0.0163014,0.0497298,1098,1765,6.00111,-22.688
-119,-741,5.93848,22.407,-0.0109345,0.0160406,0.00224478,0.0162261,-0.01112,1.48834,0.0158798,0.0489152,1105,1765,5.93851,-22.4069
-112,-741,6.21069,23.1798,-0.00894589,0.0160973,0.002589,0.0163622,-0.00921074,1.46885,0.0149557,0.0489165,1112,1765,6.21073,-23.1798
-105,-741,6.30737,23.1451,-0.00716154,0.015713,0.00278924,0.0160482,-0.00749674,1.45119,0.0138893,0.0431973,1119,1765,6.30743,-23.1452
-98,-741,6.32983,23.2158,0,0,0,0,0,0,0,-1,1126,1765,6.32979,-23.2158
-91,-741,6.26599,23.3496,0,0,0,0,0,0,0,-1,1133,1765,6.26604,-23.3497
-84,-741,6.19202,23.4066,0,0,0,0,0,0,0,-1,1140,1765,6.19207,-23.4066
-77,-741,6.23254,23.4962,0,0,0,0,0,0,0,-1,1147,1765,6.2325,-23.4962
-70,-741,6.1416,23.5651,0,0,0,0,0,0,0,-1,1154,1765,6.14163,-23.5651
-63,-741,6.09619,23.8021,0,0,0,0,0,0,0,-1,1161,1765,6.09616,-23.8021
-56,-741,6.22046,24.0414,0,0,0,0,0,0,0,-1,1168,1765,6.2205,-24.0414
-49,-741,6.17725,24.2617,0,0,0,0,0,0,0,-1,1175,1765,6.17722,-24.2618
-42,-741,6.14966,24.3342,0,0,0,0,0,0,0,-1,1182,1765,6.14961,-24.3342
-35,-741,6.172,24.4265,0.00433462,0.0125889,-0.000875356,0.0126807,0.00424281,-1.4663,0.00745354,0.0230494,1189,1765,6.17199,-24.4266
-28,-741,6.1908,24.5145,0.00411306,0.0113919,-0.000761555,0.0114707,0.00403424,-1.46766,0.00671902,0.0135932,1196,1765,6.19074,-24.5145
-21,-741,6.21765,24.5928,0.00376517,0.0103886,-0.000539874,0.0104323,0.00372145,-1.49,0.00610497,0.0173018,1203,1765,6.21763,-24.5928
-14,-741,6.16638,24.6866,0.00327511,0.00903031,-0.00023199,0.00903965,0.00326577,-1.53057,0.00528558,0.0182642,1210,1765,6.16635,-24.6866
-7,-741,6.14819,24.7277,0.00259792,0.00755648,6.53541e-05,0.00755734,0.00259706,1.55762,0.00443377,0.0159241,1217,1765,6.14822,-24.7277
0,-741,6.12854,24.7877,0.00181079,0.00683557,0.000418251,0.00687015,0.00177621,1.48832,0.00411777,0.0153277,1224,1765,6.12854,-24.7878
7,-741,6.08887,24.8405,0.00133845,0.00580792,0.000768009,0.00593621,0.00121016,1.40528,0.00362211,0.016647,1231,1765,6.08886,-24.8405
14,-741,6.08032,24.9125,0.00106798,0.00526819,0.00119159,0.00558269,0.00075348,1.31275,0.00349779,0.0163788,1238,1765,6.08034,-24.9124
21,-741,6.05786,24.936,0.000894868,0.00479836,0.0016395,0.00539559,0.000297637,1.22146,0.00350206,0.0123121,1245,1765,6.05788,-24.936
28,-741,6.04565,25.0092,0.000822006,0.00451537,0.00188462,0.00530726,3.01197e-05,1.17301,0.00352817,0.0120595,1252,1765,6.04567,-25.0091
35,-741,6.04663,25.0288,0.000959404,0.00435183,0.00206354,0.00532683,-1.55906e-05,1.1294,0.00355642,0.0134782,1259,1765,6.04666,-25.0288
42,-741,6.0448,25.0402,0.00108976,0.00401323,0.0022797,0.00525958,-0.00015659,1.07048,0.00355973,0.0138008,1266,1765,6.04474,-25.0401
49,-741,6.03125,25.0662,0.00121595,0.00363091,0.00240719,0.00511649,-0.00026963,1.01787,0.00350433,0.00986892,1273,1765,6.03131,-25.0662
56,-741,6.00781,25.0946,0.0012831,0.0032981,0.00239223,0.00488633,-0.00030513,0.984703,0.00336388,0.010213,1280,1765,6.00784,-25.0946
63,-741,5.99548,25.0956,0.00146765,0.00299876,0.00229219,0.00464986,-0.000183447,0.946566,0.00316283,0.013873,1287,1765,5.99549,-25.0955
70,-741,5.99365,25.1039,0.00144898,0.00274698,0.00217735,0.00437,-0.00017404,0.930241,0.00297305,0.0160615,1294,1765,5.99362,-25.1039
77,-741,6.00037,25.1414,0.00128674,0.00239846,0.00207393,0.00398973,-0.000304535,0.916332,0.00276692,0.013765,1301,1765,6.00037,-25.1414
84,-741,5.95374,25.1484,0.0009143,0.00180966,0.00189584,0.00330996,-0.000586002,0.901343,0.00242568,0.0163714,1308,1765,5.95369,-25.1484
91,-741,5.96045,25.1371,0.000446621,0.00131089,0.00175457,0.00268575,-0.000928243,0.90614,0.00216722,0.0130841,1315,1765,5.9605,-25.1371
98,-741,5.97437,25.099,-2.07068e-05,0.000975125,0.00165887,0.0022092,-0.00125478,0.931197,0.00202507,0.0103188,1322,1765,5.9744,-25.099
105,-741,5.97729,25.0344,-0.000414985,0.000247183,0.0014556,0.00140888,-0.00157668,0.897223,0.00172462,0.0111383,1329,1765,5.97727,-25.0344
112,-741,5.98816,25.004,-0.00103384,0.00026991,0.00125922,0.00103598,-0.00179991,1.02425,0.00165699,0.0109738,1336,1765,5.98819,-25.0041
119,-741,5.97485,24.979,-0.00158352,0.000197981,0.000965754,0.000621049,-0.00200659,1.15791,0.00158581,0.0132924,1343,1765,5.97485,-24.979
126,-741,5.95178,24.947,-0.00185803,0.000532545,0.00070813,0.000726559,-0.00205205,1.30338,0.00166396,0.0185667,1350,1765,5.95184,-24.947
133,-741,5.92664,24.8947,-0.00198791,0.000904377,0.000679316,0.00105598,-0.00213952,1.35122,0.00187994,0.0143464,1357,1765,5.92658,-24.8947
140,-741,5.91809,24.8468,-0.00216508,0.00125777,0.000608248,0.00136264,-0.00226996,1.40006,0.00211898,0.0116639,1364,1765,5.91803,-24.8468
147,-741,5.91357,24.813,-0.00227663,0.0014637,0.000473929,0.00152282,-0.00233574,1.4467,0.00224416,0.0104992,1371,1765,5.91353,-24.813
154,-741,5.90308,24.7769,-0.00221032,0.00166791,0.000337303,0.00169702,-0.00223944,1.48468,0.0022799,0.00875202,1378,1765,5.90312,-24.7769
161,-741,5.88721,24.7023,-0.00202504,0.00169046,0.000111225,0.00169378,-0.00202837,1.5409,0.00215188,0.0108719,1385,1765,5.8872,-24.7022
168,-741,5.89331,24.6293,-0.00206389,0.00155844,-0.000104526,0.00156145,-0.0020669,-1.54197,0.0021016,0.0243467,1392,1765,5.89329,-24.6293
175,-741,5.89966,24.5916,0,0,0,0,0,0,0,-1,1399,1765,5.89969,-24.5915
182,-741,5.85254,24.4542,0,0,0,0,0,0,0,-1,1406,1765,5.85258,-24.4542
189,-741,5.82581,24.3983,0,0,0,0,0,0,0,-1,1413,1765,5.82576,-24.3983
196,-741,5.80237,24.3207,0,0,0,0,0,0,0,-1,1420,1765,5.80236,-24.3207
203,-741,5.82788,24.1747,0,0,0,0,0,0,0,-1,1427,1765,5.82788,-24.1747
210,-741,5.80017,24.0398,0,0,0,0,0,0,0,-1,1434,1765,5.80017,-24.0397
217,-741,5.82849,23.9633,0,0,0,0,0,0,0,-1,1441,1765,5.82843,-23.9633
224,-741,5.78687,23.7599,-0.0154694,0.00462335,-0.00123915,0.00469948,-0.0155456,-1.50943,0.0122349,0.0358649,1448,1765,5.78691,-23.7598
231,-741,5.80664,23.7845,-0.0161952,0.00508952,-0.0014039,0.00518172,-0.0162874,-1.50522,0.0129362,0.0356861,1455,1765,5.80666,-23.7846
238,-741,5.6228,23.6661,-0.0162631,0.00553338,-0.00156392,0.00564502,-0.0163747,-1.49953,0.0132066,0.0374859,1462,1765,5.6228,-23.6662
245,-741,5.56958,23.5244,-0.0156773,0.00611749,-0.00180621,0.00626616,-0.015826,-1.48867,0.013147,0.0412073,1469,1765,5.56957,-23.5244
252,-741,5.60706,23.0303,-0.0147786,0.00674658,-0.00213481,0.00695626,-0.0149883,-1.47289,0.0129495,0.0446586,1476,1765,5.60707,-23.0303
259,-741,5.526,23.1783,0,0,0,0,0,0,0,-1,1483,1765,5.526,-23.1784
266,-741,4.40173,15.2345,0,0,0,0,0,0,0,-1,1490,1765,4.40175,-15.2345
273,-741,17.0328,7.54468,0,0,0,0,0,0,0,-1,1497,1765,17.0328,-7.54474
280,-741,16.2363,9.84546,0,0,0,0,0,0,0,-1,1504,1765,16.2363,-9.84547
287,-741,14.5045,8.71423,0,0,0,0,0,0,0,-1,1511,1765,14.5045,-8.71429
294,-741,11.9165,6.87305,0,0,0,0,0,0,0,-1,1518,1765,11.9165,-6.87305
301,-741,10.8608,6.83752,0,0,0,0,0,0,0,-1,1525,1765,10.8608,-6.83747
308,-741,9.80518,6.80188,0,0,0,0,0,0,0,-1,1532,1765,9.80519,-6.80189
315,-741,9.70715,6.86963,0,0,0,0,0,0,0,-1,1539,1765,9.70712,-6.86963
322,-741,9.21252,8.54858,0,0,0,0,0,0,0,-1,1546,1765,9.21251,-8.54858
329,-741,8.5603,10.1146,0,0,0,0,0,0,0,-1,1553,1765,8.56033,-10.1146
336,-741,4.74475,14.6453,0,0,0,0,0,0,0,-1,1560,1765,4.7447,-14.6452
343,-741,5.42297,5.93701,0,0,0,0,0,0,0,-1,1567,1765,5.42296,-5.937
350,-741,4.90369,5.44666,0,0,0,0,0,0,0,-1,1574,1765,4.90368,-5.44664
357,-741,4.02063,5.16626,0,0,0,0,0,0,0,-1,1581,1765,4.02058,-5.1662
364,-741,0,0,0,0,0,0,0,0,0,-1,1588,1765,0,0
371,-741,0,0,0,0,0,0,0,0,0,-1,1595,1765,0,0
378,-741,0,0,0,0,0,0,0,0,0,-1,1602,1765,0,0
385,-741,0,0,0,0,0,0,0,0,0,-1,1609,1765,0,0
392,-741,0,0,0,0,0,0,0,0,0,-1,1616,1765,0,0
399,-741,0,0,0,0,0,0,0,0,0,-1,1623,1765,0,0
406,-741,0,0,0,0,0,0,0,0,0,-1,1630,1765,0,0
413,-741,0,0,0,0,0,0,0,0,0,-1,1637,1765,0,0
420,-741,0,0,0,0,0,0,0,0,0,-1,1644,1765,0,0
427,-741,0,0,0,0,0,0,0,0,0,-1,1651,1765,0,0
434,-741,0,0,0,0,0,0,0,0,0,-1,1658,1765,0,0
441,-741,0,0,0,0,0,0,0,0,0,-1,1665,1765,0,0
448,-741,0,0,0,0,0,0,0,0,0,-1,1672,1765,0,0
455,-741,0,0,0,0,0,0,0,0,0,-1,1679,1765,0,0
462,-741,0,0,0,0,0,0,0,0,0,-1,1686,1765,0,0
469,-741,0,0,0,0,0,0,0,0,0,-1,1693,1765,0,0
476,-741,0,0,0,0,0,0,0,0,0,-1,1700,1765,0,0
483,-741,0,0,0,0,0,0,0,0,0,-1,1707,1765,0,0
490,-741,0,0,0,0,0,0,0,0,0,-1,1714,1765,0,0
497,-741,0,0,0,0,0,0,0,0,0,-1,1721,1765,0,0
504,-741,0,0,0,0,0,0,0,0,0,-1,1728,1765,0,0
511,-741,0,0,0,0,0,0,0,0,0,-1,1735,1765,0,0
518,-741,0,0,0,0,0,0,0,0,0,-1,1742,1765,0,0
525,-741,0,0,0,0,0,0,0,0,0,-1,1749,1765,0,0
532,-741,0,0,0,0,0,0,0,0,0,-1,1756,1765,0,0
539,-741,0,0,0,0,0,0,0,0,0,-1,1763,1765,0,0
546,-741,0,0,0,0,0,0,0,0,0,-1,1770,1765,0,0
553,-741,0,0,0,0,0,0,0,0,0,-1,1777,1765,0,0
560,-741,0,0,0,0,0,0,0,0,0,-1,1784,1765,0,0
567,-741,0,0,0,0,0,0,0,0,0,-1,1791,1765,0,0
574,-741,0,0,0,0,0,0,0,0,0,-1,1798,1765,0,0
581,-741,0,0,0,0,0,0,0,0,0,-1,1805,1765,0,0
588,-741,0,0,0,0,0,0,0,0,0,-1,1812,1765,0,0
595,-741,0,0,0,0,0,0,0,0,0,-1,1819,1765,0,0
602,-741,0,0,0,0,0,0,0,0,0,-1,1826,1765,0,0
609,-741,0,0,0,0,0,0,0,0,0,-1,1833,1765,0,0
616,-741,0,0,0,0,0,0,0,0,0,-1,1840,1765,0,0
623,-741,0,0,0,0,0,0,0,0,0,-1,1847,1765,0,0
630,-741,0,0,0,0,0,0,0,0,0,-1,1854,1765,0,0
637,-741,0,0,0,0,0,0,0,0,0,-1,1861,1765,0,0
644,-741,0,0,0,0,0,0,0,0,0,-1,1868,1765,0,0
651,-741,0,0,0,0,0,0,0,0,0,-1,1875,1765,0,0
658,-741,0,0,0,0,0,0,0,0,0,-1,1882,1765,0,0
665,-741,0,0,0,0,0,0,0,0,0,-1,1889,1765,0,0
672,-741,0,0,0,0,0,0,0,0,0,-1,1896,1765,0,0
679,-741,0,0,0,0,0,0,0,0,0,-1,1903,1765,0,0
686,-741,0,0,0,0,0,0,0,0,0,-1,1910,1765,0,0
693,-741,0,0,0,0,0,0,0,0,0,-1,1917,1765,0,0
700,-741,0,0,0,0,0,0,0,0,0,-1,1924,1765,0,0
707,-741,0,0,0,0,0,0,0,0,0,-1,1931,1765,0,0
714,-741,0,0,0,0,0,0,0,0,0,-1,1938,1765,0,0
721,-741,0,0,0,0,0,0,0,0,0,-1,1945,1765,0,0
728,-741,0,0,0,0,0,0,0,0,0,-1,1952,1765,0,0
735,-741,0,0,0,0,0,0,0,0,0,-1,1959,1765,0,0
742,-741,0,0,0,0,0,0,0,0,0,-1,1966,1765,0,0
749,-741,0,0,0,0,0,0,0,0,0,-1,1973,1765,0,0
756,-741,0,0,0,0,0,0,0,0,0,-1,1980,1765,0,0
763,-741,0,0,0,0,0,0,0,0,0,-1,1987,1765,0,0
770,-741,0,0,0,0,0,0,0,0,0,-1,1994,1765,0,0
777,-741,0,0,0,0,0,0,0,0,0,-1,2001,1765,0,0
784,-741,0,0,0,0,0,0,0,0,0,-1,2008,1765,0,0
791,-741,0,0,0,0,0,0,0,0,0,-1,2015,1765,0,0
798,-741,0,0,0,0,0,0,0,0,0,-1,2022,1765,0,0
805,-741,0,0,0,0,0,0,0,0,0,-1,2029,1765,0,0
812,-741,0,0,0,0,0,0,0,0,0,-1,2036,1765,0,0
-700,-748,0,0,0,0,0,0,0,0,0,-1,524,1772,0,0
-693,-748,0,0,0,0,0,0,0,0,0,-1,531,1772,0,0
-686,-748,0,0,0,0,0,0,0,0,0,-1,538,1772,0,0
-679,-748,0,0,0,0,0,0,0,0,0,-1,545,1772,0,0
-672,-748,0,0,0,0,0,0,0,0,0,-1,552,1772,0,0
-665,-748,0,0,0,0,0,0,0,0,0,-1,559,1772,0,0
-658,-748,0,0,0,0,0,0,0,0,0,-1,566,1772,0,0
-651,-748,0,0,0,0,0,0,0,0,0,-1,573,1772,0,0
-644,-748,0,0,0,0,0,0,0,0,0,-1,580,1772,0,0
-637,-748,0,0,0,0,0,0,0,0,0,-1,587,1772,0,0
-630,-748,0,0,0,0,0,0,0,0,0,-1,594,1772,0,0
-623,-748,0,0,0,0,0,0,0,0,0,-1,601,1772,0,0
-616,-748,0,0,0,0,0,0,0,0,0,-1,608,1772,0,0
-609,-748,0,0,0,0,0,0,0,0,0,-1,615,1772,0,0
-602,-748,0,0,0,0,0,0,0,0,0,-1,622,1772,0,0
-595,-748,0,0,0,0,0,0,0,0,0,-1,629,1772,0,0
-588,-748,0,0,0,0,0,0,0,0,0,-1,636,1772,0,0
-581,-748,0,0,0,0,0,0,0,0,0,-1,643,1772,0,0
-574,-748,0,0,0,0,0,0,0,0,0,-1,650,1772,0,0
-567,-748,0,0,0,0,0,0,0,0,0,-1,657,1772,0,0
-560,-748,0,0,0,0,0,0,0,0,0,-1,664,1772,0,0
-553,-748,0,0,0,0,0,0,0,0,0,-1,671,1772,0,0
-546,-748,0,0,0,0,0,0,0,0,0,-1,678,1772,0,0
-539,-748,0,0,0,0,0,0,0,0,0,-1,685,1772,0,0
-532,-748,0,0,0,0,0,0,0,0,0,-1,692,1772,0,0
-525,-748,0,0,0,0,0,0,0,0,0,-1,699,1772,0,0
-518,-748,0,0,0,0,0,0,0,0,0,-1,706,1772,0,0
-511,-748,0,0,0,0,0,0,0,0,0,-1,713,1772,0,0
-504,-748,0,0,0,0,0,0,0,0,0,-1,720,1772,0,0
-497,-748,0,0,0,0,0,0,0,0,0,-1,727,1772,0,0
-490,-748,0,0,0,0,0,0,0,0,0,-1,734,1772,0,0
-483,-748,0,0,0,0,0,0,0,0,0,-1,741,1772,0,0
-476,-748,0,0,0,0,0,0,0,0,0,-1,748,1772,0,0
-469,-748,0,0,0,0,0,0,0,0,0,-1,755,1772,0,0
-462,-748,0,0,0,0,0,0,0,0,0,-1,762,1772,0,0
-455,-748,0,0,0,0,0,0,0,0,0,-1,769,1772,0,0
-448,-748,0,0,0,0,0,0,0,0,0,-1,776,1772,0,0
-441,-748,0,0,0,0,0,0,0,0,0,-1,783,1772,0,0
-434,-748,0,0,0,0,0,0,0,0,0,-1,790,1772,0,0
-427,-748,0,0,0,0,0,0,0,0,0,-1,797,1772,0,0
-420,-748,0,0,0,0,0,0,0,0,0,-1,804,1772,0,0
-413,-748,0,0,0,0,0,0,0,0,0,-1,811,1772,0,0
-406,-748,0,0,0,0,0,0,0,0,0,-1,818,1772,0,0
-399,-748,0,0,0,0,0,0,0,0,0,-1,825,1772,0,0
-392,-748,0,0,0,0,0,0,0,0,0,-1,832,1772,0,0
-385,-748,0,0,0,0,0,0,0,0,0,-1,839,1772,0,0
-378,-748,0,0,0,0,0,0,0,0,0,-1,846,1772,0,0
-371,-748,0,0,0,0,0,0,0,0,0,-1,853,1772,0,0
-364,-748,0,0,0,0,0,0,0,0,0,-1,860,1772,0,0
-357,-748,0,0,0,0,0,0,0,0,0,-1,867,1772,0,0
-350,-748,0,0,0,0,0,0,0,0,0,-1,874,1772,0,0
-343,-748,0,0,0,0,0,0,0,0,0,-1,881,1772,0,0
-336,-748,0,0,0,0,0,0,0,0,0,-1,888,1772,0,0
-329,-748,0,0,0,0,0,0,0,0,0,-1,895,1772,0,0
-322,-748,0,0,0,0,0,0,0,0,0,-1,902,1772,0,0
-315,-748,0,0,0,0,0,0,0,0,0,-1,909,1772,0,0
-308,-748,0,0,0,0,0,0,0,0,0,-1,916,1772,0,0
-301,-748,0,0,0,0,0,0,0,0,0,-1,923,1772,0,0
-294,-748,0,0,0,0,0,0,0,0,0,-1,930,1772,0,0
-287,-748,0,0,0,0,0,0,0,0,0,-1,937,1772,0,0
-280,-748,0,0,0,0,0,0,0,0,0,-1,944,1772,0,0
-273,-748,0,0,0,0,0,0,0,0,0,-1,951,1772,0,0
-266,-748,0,0,0,0,0,0,0,0,0,-1,958,1772,0,0
-259,-748,0,0,0,0,0,0,0,0,0,-1,965,1772,0,0
-252,-748,0,0,0,0,0,0,0,0,0,-1,972,1772,0,0
-245,-748,0,0,0,0,0,0,0,0,0,-1,979,1772,0,0
-238,-748,0,0,0,0,0,0,0,0,0,-1,986,1772,0,0
-231,-748,0,0,0,0,0,0,0,0,0,-1,993,1772,0,0
-224,-748,0,0,0,0,0,0,0,0,0,-1,1000,1772,0,0
-217,-748,6.99335,16.3577,0,0,0,0,0,0,0,-1,1007,1772,6.99334,-16.3576
-210,-748,6.75439,17.6121,0,0,0,0,0,0,0,-1,1014,1772,6.75438,-17.6121
-203,-748,4.17139,23.6105,0,0,0,0,0,0,0,-1,1021,1772,4.17138,-23.6105
-196,-748,5.10657,22.2775,0,0,0,0,0,0,0,-1,1028,1772,5.10651,-22.2775
-189,-748,3.88757,19.2534,0,0,0,0,0,0,0,-1,1035,1772,3.88761,-19.2534
-182,-748,4.16626,18.2874,0,0,0,0,0,0,0,-1,1042,1772,4.16629,-18.2873
-175,-748,4.62305,16.7603,0,0,0,0,0,0,0,-1,1049,1772,4.62301,-16.7603
-168,-748,4.96484,14.9984,0,0,0,0,0,0,0,-1,1056,1772,4.96479,-14.9984
-161,-748,3.50562,13.2729,0,0,0,0,0,0,0,-1,1063,1772,3.5056,-13.2729
-154,-748,-3.38562,10.6989,0,0,0,0,0,0,0,-1,1070,1772,-3.38564,-10.6989
-147,-748,-6.38733,11.0702,0,0,0,0,0,0,0,-1,1077,1772,-6.38731,-11.0702
-140,-748,7.78027,21.7025,0,0,0,0,0,0,0,-1,1084,1772,7.78023,-21.7025
-133,-748,7.70288,22.0297,0,0,0,0,0,0,0,-1,1091,1772,7.70291,-22.0297
-126,-748,5.98035,22.6067,0,0,0,0,0,0,0,-1,1098,1772,5.9803,-22.6067
-119,-748,5.60779,21.9426,0,0,0,0,0,0,0,-1,1105,1772,5.60775,-21.9426
-112,-748,6.2373,23.1675,0,0,0,0,0,0,0,-1,1112,1772,6.23734,-23.1674
-105,-748,6.38562,22.9031,0,0,0,0,0,0,0,-1,1119,1772,6.38558,-22.9031
-98,-748,5.71484,19.6533,0,0,0,0,0,0,0,-1,1126,1772,5.71486,-19.6533
-91,-748,4.85352,15.3033,0,0,0,0,0,0,0,-1,1133,1772,4.85351,-15.3033
-84,-748,-0.192017,7.26196,0,0,0,0,0,0,0,-1,1140,1772,-0.192047,-7.26201
-77,-748,4.42615,13.5537,0,0,0,0,0,0,0,-1,1147,1772,4.4261,-13.5538
-70,-748,4.46191,13.7446,0,0,0,0,0,0,0,-1,1154,1772,4.4619,-13.7446
-63,-748,4.49768,13.9355,0,0,0,0,0,0,0,-1,1161,1772,4.49769,-13.9355
-56,-748,3.05762,7.87817,0,0,0,0,0,0,0,-1,1168,1772,3.05768,-7.87822
-49,-748,3.04102,7.82471,0,0,0,0,0,0,0,-1,1175,1772,3.04096,-7.82468
-42,-748,0.793457,14.9474,0,0,0,0,0,0,0,-1,1182,1772,0.793413,-14.9474
-35,-748,6.29639,24.376,0,0,0,0,0,0,0,-1,1189,1772,6.29634,-24.3759
-28,-748,6.24072,24.6147,0,0,0,0,0,0,0,-1,1196,1772,6.24069,-24.6148
-21,-748,6.26782,24.6427,0.00748225,0.0175925,-0.00117582,0.0177275,0.0073473,-1.45653,0.0102848,0.0229837,1203,1772,6.26778,-24.6426
-14,-748,6.2301,24.6636,0.00640144,0.0153465,-0.000638032,0.0153918,0.00635616,-1.49995,0.00893124,0.0164787,1210,1772,6.23005,-24.6635
-7,-748,6.21985,24.7109,0.00509688,0.0128688,-0.000123384,0.0128708,0.00509492,-1.55493,0.00748451,0.0156876,1217,1772,6.2199,-24.7109
0,-748,6.17957,24.7694,0.00373167,0.011457,0.000461381,0.0114844,0.00370422,1.51135,0.00676832,0.0149587,1224,1772,6.17952,-24.7695
7,-748,6.14868,24.8193,0.00294151,0.00968869,0.00101377,0.00983772,0.00279248,1.42484,0.00585404,0.0138405,1231,1772,6.14867,-24.8193
14,-748,6.12732,24.891,0.00257501,0.00870808,0.00167648,0.00913643,0.00214666,1.32064,0.00551642,0.0145592,1238,1772,6.12726,-24.891
21,-748,6.11816,24.9302,0.00234193,0.00806187,0.00242568,0.00895201,0.00145179,1.21909,0.00554776,0.010683,1245,1772,6.11819,-24.9302
28,-748,6.08118,25.0028,0.00226785,0.00761938,0.00293625,0.00891619,0.000971049,1.15491,0.00564833,0.010897,1252,1772,6.0812,-25.0028
35,-748,6.07166,25.0331,0.00252056,0.00736808,0.00330375,0.0090418,0.000846835,1.10187,0.00576635,0.011687,1259,1772,6.07171,-25.0331
42,-748,6.06628,25.0411,0.00270509,0.00688819,0.00375488,0.00909474,0.00049854,1.03951,0.005904,0.0125376,1266,1772,6.06633,-25.0411
49,-748,6.06067,25.0471,0.00287097,0.00642063,0.0039599,0.00898525,0.000306355,0.996076,0.0058907,0.0100577,1273,1772,6.06064,-25.0471
56,-748,6.0332,25.08,0.00297413,0.00606899,0.00399326,0.00880416,0.000238955,0.970245,0.00579143,0.0103016,1280,1772,6.03325,-25.0799
63,-748,6.03088,25.078,0.00321658,0.0057988,0.00390002,0.00861587,0.000399511,0.945246,0.00561548,0.0118033,1287,1772,6.0309,-25.078
70,-748,6.03015,25.0818,0.00305493,0.00553876,0.00377063,0.00826673,0.000326965,0.944486,0.00540547,0.0132406,1294,1772,6.03015,-25.0818
77,-748,6.01147,25.0782,0.00262596,0.00505836,0.00363245,0.0076728,1.15191e-05,0.94694,0.00511137,0.0132173,1301,1772,6.01148,-25.0782
84,-748,5.96387,25.1055,0.00191606,0.00423809,0.00336628,0.00663795,-0.000483786,0.951458,0.00459506,0.0154755,1308,1772,5.96387,-25.1055
91,-748,5.9646,25.1234,0.00104819,0.00349119,0.00312438,0.00562436,-0.00108498,0.971741,0.00415868,0.0121676,1315,1772,5.96464,-25.1234
98,-748,5.94922,25.0874,0.000188549,0.00292638,0.00294366,0.00480386,-0.00168893,1.00304,0.00388975,0.0108306,1322,1772,5.94923,-25.0874
105,-748,5.9447,25.0203,-0.000612114,0.0018222,0.00266213,0.00353223,-0.00232214,0.999816,0.003404,0.0123041,1329,1772,5.94467,-25.0202
112,-748,5.97607,24.9951,-0.00173857,0.00165791,0.00240294,0.00290214,-0.0029828,1.09301,0.00339777,0.015429,1336,1772,5.97611,-24.9951
119,-748,5.96069,24.9829,-0.00275358,0.00134845,0.00204263,0.00219209,-0.00359722,1.17912,0.00337511,0.0135488,1343,1772,5.96067,-24.9829
126,-748,5.9353,24.9664,-0.00330531,0.00141913,0.00169929,0.00196683,-0.00385301,1.259,0.0034184,0.015584,1350,1772,5.93533,-24.9664
133,-748,5.87939,24.9139,-0.00359479,0.00174704,0.0016526,0.00221696,-0.00406472,1.29375,0.00367866,0.00903537,1357,1772,5.87943,-24.9139
140,-748,5.86963,24.8649,-0.00395143,0.00204821,0.00164475,0.00246952,-0.00437273,1.32003,0.00400099,0.0114799,1364,1772,5.86961,-24.8649
147,-748,5.88879,24.8146,-0.00413431,0.00216309,0.0015105,0.00250666,-0.00447788,1.34715,0.0040857,0.0132568,1371,1772,5.88885,-24.8146
154,-748,5.85986,24.765,-0.00402651,0.00228159,0.00156646,0.00264916,-0.00439408,1.34031,0.0041078,0.0120463,1378,1772,5.85987,-24.765
161,-748,5.82092,24.7261,-0.00361182,0.00235486,0.00127389,0.00261545,-0.00387241,1.36901,0.00376913,0.0195174,1385,1772,5.82092,-24.7261
168,-748,5.79053,24.7102,0,0,0,0,0,0,0,-1,1392,1772,5.79048,-24.7103
175,-748,11.6235,16.8242,0,0,0,0,0,0,0,-1,1399,1772,11.6236,-16.8242
182,-748,7.62476,10.3058,0,0,0,0,0,0,0,-1,1406,1772,7.62476,-10.3058
189,-748,6.15857,6.95898,0,0,0,0,0,0,0,-1,1413,1772,6.15862,-6.95896
196,-748,3.9425,8.46021,0,0,0,0,0,0,0,-1,1420,1772,3.9425,-8.46026
203,-748,3.9668,12.9835,0,0,0,0,0,0,0,-1,1427,1772,3.96678,-12.9836
210,-748,4.71472,16.8318,0,0,0,0,0,0,0,-1,1434,1772,4.71471,-16.8317
217,-748,5.38452,21.5551,0,0,0,0,0,0,0,-1,1441,1772,5.38455,-21.555
224,-748,5.89258,23.4951,0,0,0,0,0,0,0,-1,1448,1772,5.89253,-23.4951
231,-748,5.86218,23.8035,-0.0244659,0.00675274,-0.00145183,0.00682011,-0.0245332,-1.52442,0.0190405,0.0455421,1455,1772,5.86213,-23.8035
238,-748,5.1167,23.6461,-0.0246077,0.00739494,-0.00169459,0.00748442,-0.0246972,-1.51804,0.0194458,0.0436486,1462,1772,5.11669,-23.6461
245,-748,5.3468,23.5699,0,0,0,0,0,0,0,-1,1469,1772,5.34678,-23.57
252,-748,5.5105,22.735,0,0,0,0,0,0,0,-1,1476,1772,5.51045,-22.735
259,-748,3.5614,20.4832,0,0,0,0,0,0,0,-1,1483,1772,3.56142,-20.4832
266,-748,17.9011,7.59448,0,0,0,0,0,0,0,-1,1490,1772,17.9011,-7.59452
273,-748,16.4131,7.57129,0,0,0,0,0,0,0,-1,1497,1772,16.413,-7.57125
280,-748,15.2177,7.24829,0,0,0,0,0,0,0,-1,1504,1772,15.2176,-7.24833
287,-748,14.161,8.32813,0,0,0,0,0,0,0,-1,1511,1772,14.161,-8.32808
294,-748,12.2117,7.453,0,0,0,0,0,0,0,-1,1518,1772,12.2116,-7.45297
301,-748,11.0652,7.65405,0,0,0,0,0,0,0,-1,1525,1772,11.0651,-7.654
308,-748,9.92456,7.80225,0,0,0,0,0,0,0,-1,1532,1772,9.92453,-7.80224
315,-748,8.91541,8.29773,0,0,0,0,0,0,0,-1,1539,1772,8.91544,-8.29773
322,-748,7.83618,8.87122,0,0,0,0,0,0,0,-1,1546,1772,7.83613,-8.87124
329,-748,3.48315,14.6533,0,0,0,0,0,0,0,-1,1553,1772,3.48316,-14.6534
336,-748,3.76001,15.8163,0,0,0,0,0,0,0,-1,1560,1772,3.75995,-15.8163
343,-748,0,0,0,0,0,0,0,0,0,-1,1567,1772,0,0
350,-748,0,0,0,0,0,0,0,0,0,-1,1574,1772,0,0
357,-748,0,0,0,0,0,0,0,0,0,-1,1581,1772,0,0
364,-748,0,0,0,0,0,0,0,0,0,-1,1588,1772,0,0
371,-748,0,0,0,0,0,0,0,0,0,-1,1595,1772,0,0
378,-748,0,0,0,0,0,0,0,0,0,-1,1602,1772,0,0
385,-748,0,0,0,0,0,0,0,0,0,-1,1609,1772,0,0
392,-748,0,0,0,0,0,0,0,0,0,-1,1616,1772,0,0
399,-748,0,0,0,0,0,0,0,0,0,-1,1623,1772,0,0
406,-748,0,0,0,0,0,0,0,0,0,-1,1630,1772,0,0
413,-748,0,0,0,0,0,0,0,0,0,-1,1637,1772,0,0
420,-748,0,0,0,0,0,0,0,0,0,-1,1644,1772,0,0
427,-748,0,0,0,0,0,0,0,0,0,-1,1651,1772,0,0
434,-748,0,0,0,0,0,0,0,0,0,-1,1658,1772,0,0
441,-748,0,0,0,0,0,0,0,0,0,-1,1665,1772,0,0
448,-748,0,0,0,0,0,0,0,0,0,-1,1672,1772,0,0
455,-748,0,0,0,0,0,0,0,0,0,-1,1679,1772,0,0
462,-748,0,0,0,0,0,0,0,0,0,-1,1686,1772,0,0
469,-748,0,0,0,0,0,0,0,0,0,-1,1693,1772,0,0
476,-748,0,0,0,0,0,0,0,0,0,-1,1700,1772,0,0
483,-748,0,0,0,0,0,0,0,0,0,-1,1707,1772,0,0
490,-748,0,0,0,0,0,0,0,0,0,-1,1714,1772,0,0
497,-748,0,0,0,0,0,0,0,0,0,-1,1721,1772,0,0
504,-748,0,0,0,0,0,0,0,0,0,-1,1728,1772,0,0
511,-748,0,0,0,0,0,0,0,0,0,-1,1735,1772,0,0
518,-748,0,0,0,0,0,0,0,0,0,-1,1742,1772,0,0
525,-748,0,0,0,0,0,0,0,0,0,-1,1749,1772,0,0
532,-748,0,0,0,0,0,0,0,0,0,-1,1756,1772,0,0
539,-748,0,0,0,0,0,0,0,0,0,-1,1763,1772,0,0
546,-748,0,0,0,0,0,0,0,0,0,-1,1770,1772,0,0
553,-748,0,0,0,0,0,0,0,0,0,-1,1777,1772,0,0
560,-748,0,0,0,0,0,0,0,0,0,-1,1784,1772,0,0
567,-748,0,0,0,0,0,0,0,0,0,-1,1791,1772,0,0
574,-748,0,0,0,0,0,0,0,0,0,-1,1798,1772,0,0
581,-748,0,0,0,0,0,0,0,0,0,-1,1805,1772,0,0
588,-748,0,0,0,0,0,0,0,0,0,-1,1812,1772,0,0
595,-748,0,0,0,0,0,0,0,0,0,-1,1819,1772,0,0
602,-748,0,0,0,0,0,0,0,0,0,-1,1826,1772,0,0
609,-748,0,0,0,0,0,0,0,0,0,-1,1833,1772,0,0
616,-748,0,0,0,0,0,0,0,0,0,-1,1840,1772,0,0
623,-748,0,0,0,0,0,0,0,0,0,-1,1847,1772,0,0
630,-748,0,0,0,0,0,0,0,0,0,-1,1854,1772,0,0
637,-748,0,0,0,0,0,0,0,0,0,-1,1861,1772,0,0
644,-748,0,0,0,0,0,0,0,0,0,-1,1868,1772,0,0
651,-748,0,0,0,0,0,0,0,0,0,-1,1875,1772,0,0
658,-748,0,0,0,0,0,0,0,0,0,-1,1882,1772,0,0
665,-748,0,0,0,0,0,0,0,0,0,-1,1889,1772,0,0
672,-748,0,0,0,0,0,0,0,0,0,-1,1896,1772,0,0
679,-748,0,0,0,0,0,0,0,0,0,-1,1903,1772,0,0
686,-748,0,0,0,0,0,0,0,0,0,-1,1910,1772,0,0
693,-748,0,0,0,0,0,0,0,0,0,-1,1917,1772,0,0
700,-748,0,0,0,0,0,0,0,0,0,-1,1924,1772,0,0
707,-748,0,0,0,0,0,0,0,0,0,-1,1931,1772,0,0
714,-748,0,0,0,0,0,0,0,0,0,-1,1938,1772,0,0
721,-748,0,0,0,0,0,0,0,0,0,-1,1945,1772,0,0
728,-748,0,0,0,0,0,0,0,0,0,-1,1952,1772,0,0
735,-748,0,0,0,0,0,0,0,0,0,-1,1959,1772,0,0
742,-748,0,0,0,0,0,0,0,0,0,-1,1966,1772,0,0
749,-748,0,0,0,0,0,0,0,0,0,-1,1973,1772,0,0
756,-748,0,0,0,0,0,0,0,0,0,-1,1980,1772,0,0
763,-748,0,0,0,0,0,0,0,0,0,-1,1987,1772,0,0
770,-748,0,0,0,0,0,0,0,0,0,-1,1994,1772,0,0
777,-748,0,0,0,0,0,0,0,0,0,-1,2001,1772,0,0
784,-748,0,0,0,0,0,0,0,0,0,-1,2008,1772,0,0
791,-748,0,0,0,0,0,0,0,0,0,-1,2015,1772,0,0
798,-748,0,0,0,0,0,0,0,0,0,-1,2022,1772,0,0
805,-748,0,0,0,0,0,0,0,0,0,-1,2029,1772,0,0
812,-748,0,0,0,0,0,0,0,0,0,-1,2036,1772,0,0
-700,-755,0,0,0,0,0,0,0,0,0,-1,524,1779,0,0
-693,-755,0,0,0,0,0,0,0,0,0,-1,531,1779,0,0
-686,-755,0,0,0,0,0,0,0,0,0,-1,538,1779,0,0
-679,-755,0,0,0,0,0,0,0,0,0,-1,545,1779,0,0
-672,-755,0,0,0,0,0,0,0,0,0,-1,552,1779,0,0
-665,-755,0,0,0,0,0,0,0,0,0,-1,559,1779,0,0
-658,-755,0,0,0,0,0,0,0,0,0,-1,566,1779,0,0
-651,-755,0,0,0,0,0,0,0,0,0,-1,573,1779,0,0
-644,-755,0,0,0,0,0,0,0,0,0,-1,580,1779,0,0
-637,-755,0,0,0,0,0,0,0,0,0,-1,587,1779,0,0
-630,-755,0,0,0,0,0,0,0,0,0,-1,594,1779,0,0
-623,-755,0,0,0,0,0,0,0,0,0,-1,601,1779,0,0
-616,-755,0,0,0,0,0,0,0,0,0,-1,608,1779,0,0
-609,-755,0,0,0,0,0,0,0,0,0,-1,615,1779,0,0
-602,-755,0,0,0,0,0,0,0,0,0,-1,622,1779,0,0
-595,-755,0,0,0,0,0,0,0,0,0,-1,629,1779,0,0
-588,-755,0,0,0,0,0,0,0,0,0,-1,636,1779,0,0
-581,-755,0,0,0,0,0,0,0,0,0,-1,643,1779,0,0
-574,-755,0,0,0,0,0,0,0,0,0,-1,650,1779,0,0
-567,-755,0,0,0,0,0,0,0,0,0,-1,657,1779,0,0
-560,-755,0,0,0,0,0,0,0,0,0,-1,664,1779,0,0
-553,-755,0,0,0,0,0,0,0,0,0,-1,671,1779,0,0
-546,-755,0,0,0,0,0,0,0,0,0,-1,678,1779,0,0
-539,-755,0,0,0,0,0,0,0,0,0,-1,685,1779,0,0
-532,-755,0,0,0,0,0,0,0,0,0,-1,692,1779,0,0
-525,-755,0,0,0,0,0,0,0,0,0,-1,699,1779,0,0
-518,-755,0,0,0,0,0,0,0,0,0,-1,706,1779,0,0
-511,-755,0,0,0,0,0,0,0,0,0,-1,713,1779,0,0
-504,-755,0,0,0,0,0,0,0,0,0,-1,720,1779,0,0
-497,-755,0,0,0,0,0,0,0,0,0,-1,727,1779,0,0
-490,-755,0,0,0,0,0,0,0,0,0,-1,734,1779,0,0
-483,-755,0,0,0,0,0,0,0,0,0,-1,741,1779,0,0
-476,-755,0,0,0,0,0,0,0,0,0,-1,748,1779,0,0
-469,-755,0,0,0,0,0,0,0,0,0,-1,755,1779,0,0
-462,-755,0,0,0,0,0,0,0,0,0,-1,762,1779,0,0
-455,-755,0,0,0,0,0,0,0,0,0,-1,769,1779,0,0
-448,-755,0,0,0,0,0,0,0,0,0,-1,776,1779,0,0
-441,-755,0,0,0,0,0,0,0,0,0,-1,783,1779,0,0
-434,-755,0,0,0,0,0,0,0,0,0,-1,790,1779,0,0
-427,-755,0,0,0,0,0,0,0,0,0,-1,797,1779,0,0
-420,-755,0,0,0,0,0,0,0,0,0,-1,804,1779,0,0
-413,-755,0,0,0,0,0,0,0,0,0,-1,811,1779,0,0
-406,-755,0,0,0,0,0,0,0,0,0,-1,818,1779,0,0
-399,-755,0,0,0,0,0,0,0,0,0,-1,825,1779,0,0
-392,-755,0,0,0,0,0,0,0,0,0,-1,832,1779,0,0
-385,-755,0,0,0,0,0,0,0,0,0,-1,839,1779,0,0
-378,-755,0,0,0,0,0,0,0,0,0,-1,846,1779,0,0
-371,-755,0,0,0,0,0,0,0,0,0,-1,853,1779,0,0
-364,-755,0,0,0,0,0,0,0,0,0,-1,860,1779,0,0
-357,-755,0,0,0,0,0,0,0,0,0,-1,867,1779,0,0
-350,-755,0,0,0,0,0,0,0,0,0,-1,874,1779,0,0
-343,-755,0,0,0,0,0,0,0,0,0,-1,881,1779,0,0
-336,-755,0,0,0,0,0,0,0,0,0,-1,888,1779,0,0
-329,-755,0,0,0,0,0,0,0,0,0,-1,895,1779,0,0
-322,-755,0,0,0,0,0,0,0,0,0,-1,902,1779,0,0
-315,-755,0,0,0,0,0,0,0,0,0,-1,909,1779,0,0
-308,-755,0,0,0,0,0,0,0,0,0,-1,916,1779,0,0
-301,-755,0,0,0,0,0,0,0,0,0,-1,923,1779,0,0
-294,-755,0,0,0,0,0,0,0,0,0,-1,930,1779,0,0
-287,-755,0,0,0,0,0,0,0,0,0,-1,937,1779,0,0
-280,-755,0,0,0,0,0,0,0,0,0,-1,944,1779,0,0
-273,-755,0,0,0,0,0,0,0,0,0,-1,951,1779,0,0
-266,-755,0,0,0,0,0,0,0,0,0,-1,958,1779,0,0
-259,-755,0,0,0,0,0,0,0,0,0,-1,965,1779,0,0
-252,-755,0,0,0,0,0,0,0,0,0,-1,972,1779,0,0
-245,-755,0,0,0,0,0,0,0,0,0,-1,979,1779,0,0
-238,-755,0,0,0,0,0,0,0,0,0,-1,986,1779,0,0
-231,-755,0,0,0,0,0,0,0,0,0,-1,993,1779,0,0
-224,-755,0,0,0,0,0,0,0,0,0,-1,1000,1779,0,0
-217,-755,0,0,0,0,0,0,0,0,0,-1,1007,1779,0,0
-210,-755,0,0,0,0,0,0,0,0,0,-1,1014,1779,0,0
-203,-755,-3.07153,13.8969,0,0,0,0,0,0,0,-1,1021,1779,-3.07152,-13.8969
-196,-755,4.91333,14.9064,0,0,0,0,0,0,0,-1,1028,1779,4.91327,-14.9063
-189,-755,4.85864,12.9271,0,0,0,0,0,0,0,-1,1035,1779,4.85866,-12.9272
-182,-755,3.9259,18.85,0,0,0,0,0,0,0,-1,1042,1779,3.92588,-18.85
-175,-755,4.10266,16.8729,0,0,0,0,0,0,0,-1,1049,1779,4.10269,-16.8729
-168,-755,4.5177,13.7404,0,0,0,0,0,0,0,-1,1056,1779,4.5177,-13.7403
-161,-755,-2.85889,11.5868,0,0,0,0,0,0,0,-1,1063,1779,-2.85887,-11.5868
-154,-755,-5.39026,8.51416,0,0,0,0,0,0,0,-1,1070,1779,-5.3903,-8.51417
-147,-755,-6.45593,10.2422,0,0,0,0,0,0,0,-1,1077,1779,-6.45594,-10.2422
-140,-755,2.32935,21.4536,0,0,0,0,0,0,0,-1,1084,1779,2.32932,-21.4536
-133,-755,2.89417,21.0964,0,0,0,0,0,0,0,-1,1091,1779,2.89422,-21.0964
-126,-755,3.26404,20.9304,0,0,0,0,0,0,0,-1,1098,1779,3.26399,-20.9305
-119,-755,5.17761,21.9325,0,0,0,0,0,0,0,-1,1105,1779,5.17761,-21.9325
-112,-755,4.05396,20.1554,0,0,0,0,0,0,0,-1,1112,1779,4.05394,-20.1554
-105,-755,4.59497,19.6527,0,0,0,0,0,0,0,-1,1119,1779,4.59491,-19.6527
-98,-755,6.98657,15.802,0,0,0,0,0,0,0,-1,1126,1779,6.98654,-15.8021
-91,-755,3.91394,13.0228,0,0,0,0,0,0,0,-1,1133,1779,3.91399,-13.0228
-84,-755,0.169312,8.66443,0,0,0,0,0,0,0,-1,1140,1779,0.16932,-8.66446
-77,-755,-0.0491943,6.87439,0,0,0,0,0,0,0,-1,1147,1779,-0.0491385,-6.87443
-70,-755,4.5686,13.2169,0,0,0,0,0,0,0,-1,1154,1779,4.56865,-13.2169
-63,-755,-1.36316,7.3147,0,0,0,0,0,0,0,-1,1161,1779,-1.36312,-7.31473
-56,-755,0.0483398,5.06079,0,0,0,0,0,0,0,-1,1168,1779,0.0483138,-5.06084
-49,-755,-1.32263,5.33716,0,0,0,0,0,0,0,-1,1175,1779,-1.32264,-5.33718
-42,-755,-2.03613,4.01672,0,0,0,0,0,0,0,-1,1182,1779,-2.0361,-4.01671
-35,-755,-2.72498,2.37476,0,0,0,0,0,0,0,-1,1189,1779,-2.72502,-2.37473
-28,-755,6.19983,24.047,0,0,0,0,0,0,0,-1,1196,1779,6.19989,-24.047
-21,-755,6.36279,24.645,0,0,0,0,0,0,0,-1,1203,1779,6.36285,-24.645
-14,-755,6.3595,24.6627,0.0114538,0.0245738,-0.00147417,0.0247374,0.0112902,-1.46027,0.0143002,0.0336789,1210,1779,6.35954,-24.6628
-7,-755,6.26782,24.704,0.00921581,0.0205924,-0.00055926,0.0206198,0.00918839,-1.52179,0.0119283,0.0240284,1217,1779,6.26788,-24.704
0,-755,6.21997,24.7473,0.00705394,0.0180216,0.000453014,0.0180403,0.00703526,1.52959,0.0104993,0.0142859,1224,1779,6.21997,-24.7473
7,-755,6.19495,24.8132,0.00584649,0.0151354,0.00137546,0.0153348,0.0056471,1.42683,0.00895539,0.0121249,1231,1779,6.19492,-24.8133
14,-755,6.1814,24.8845,0.00542636,0.0133518,0.00240668,0.0140254,0.00475278,1.2979,0.00823652,0.0104919,1238,1779,6.18145,-24.8845
21,-755,6.15466,24.9575,0.00511838,0.0121438,0.00362803,0.013681,0.00358117,1.17002,0.00819218,0.0144338,1245,1779,6.15468,-24.9575
28,-755,6.11877,24.9904,0.00498105,0.011224,0.00453712,0.0136097,0.00259535,1.08671,0.0083437,0.0176949,1252,1779,6.11883,-24.9904
35,-755,6.1394,25.0438,0.00531889,0.0106043,0.0051329,0.0137348,0.00218832,1.02313,0.00852129,0.0175582,1259,1779,6.13946,-25.0438
42,-755,6.08752,25.0405,0.00549295,0.00969997,0.00586063,0.0138232,0.00136976,0.957698,0.00879448,0.0133031,1266,1779,6.0875,-25.0405
49,-755,6.08716,25.0364,0.00564621,0.00892168,0.00620509,0.0137015,0.000866368,0.914423,0.00885969,0.00920214,1273,1779,6.08712,-25.0363
56,-755,6.05505,25.0698,0.00575067,0.0083797,0.00630467,0.0135054,0.00062494,0.888175,0.0088027,0.0084587,1280,1779,6.0551,-25.0698
63,-755,6.05518,25.0802,0.00598674,0.00798667,0.00621301,0.0132797,0.000693743,0.865187,0.00863117,0.00897274,1287,1779,6.05524,-25.0802
70,-755,6.05774,25.0723,0.00559781,0.00760869,0.00604396,0.0127303,0.000476239,0.867821,0.00833264,0.0115192,1294,1779,6.05778,-25.0723
77,-755,6.03235,25.0665,0.00480306,0.00693596,0.00584122,0.0118073,-6.82636e-05,0.87569,0.00789438,0.0113028,1301,1779,6.03239,-25.0665
84,-755,6.00745,25.0562,0.0036262,0.0058455,0.00546039,0.0103079,-0.00083615,0.885642,0.0071669,0.0119259,1308,1779,6.00739,-25.0562
91,-755,5.98193,25.0724,0.00223305,0.00486759,0.00508504,0.00880321,-0.00170257,0.912136,0.00651096,0.0117354,1315,1779,5.98194,-25.0724
98,-755,5.94128,25.061,0.00086507,0.00415162,0.00478386,0.00756657,-0.00254988,0.950836,0.0060754,0.0132022,1322,1779,5.94123,-25.061
105,-755,5.95081,25.0383,-0.000458682,0.00279071,0.00439029,0.00584729,-0.00351525,0.962617,0.00546107,0.0168973,1329,1779,5.95077,-25.0383
112,-755,5.95532,25.0166,-0.00223358,0.00261066,0.00404252,0.00490114,-0.00452406,1.0553,0.0054431,0.0217547,1336,1779,5.95534,-25.0166
119,-755,5.95081,24.9899,-0.00388234,0.00228935,0.00359115,0.00393835,-0.00553135,1.14033,0.00549306,0.0216899,1343,1779,5.95079,-24.9899
126,-755,5.91846,25.0415,-0.00475952,0.00236264,0.00308302,0.0035118,-0.00590867,1.21401,0.00549728,0.0252003,1350,1779,5.91848,-25.0415
133,-755,5.8092,24.9685,-0.00519651,0.00279677,0.00297714,0.00378375,-0.00618349,1.25068,0.00580992,0.024673,1357,1779,5.80917,-24.9685
140,-755,5.75122,24.9561,-0.00584337,0.0031495,0.003076,0.00410098,-0.00679485,1.27081,0.00635447,0.028867,1364,1779,5.75117,-24.9561
147,-755,5.81604,24.9158,-0.00616197,0.0032889,0.00295662,0.00413764,-0.0070107,1.29125,0.00650735,0.0319611,1371,1779,5.81608,-24.9158
154,-755,5.8894,24.8474,-0.00611661,0.00338909,0.00321998,0.00437713,-0.00710465,1.27307,0.00669107,0.0351511,1378,1779,5.88943,-24.8475
161,-755,5.7887,24.7858,0,0,0,0,0,0,0,-1,1385,1779,5.78866,-24.7857
168,-755,3.98181,7.35901,0,0,0,0,0,0,0,-1,1392,1779,3.98184,-7.35904
175,-755,8.17065,1.34363,0,0,0,0,0,0,0,-1,1399,1779,8.1706,-1.34368
182,-755,8.09216,2.96924,0,0,0,0,0,0,0,-1,1406,1779,8.09213,-2.9693
189,-755,8.04419,4.68042,0,0,0,0,0,0,0,-1,1413,1779,8.04419,-4.68046
196,-755,7.74841,7.4541,0,0,0,0,0,0,0,-1,1420,1779,7.74842,-7.45405
203,-755,4.80554,6.88696,0,0,0,0,0,0,0,-1,1427,1779,4.80554,-6.88697
210,-755,25.1694,7.35693,0,0,0,0,0,0,0,-1,1434,1779,25.1694,-7.35688
217,-755,5.01648,16.411,0,0,0,0,0,0,0,-1,1441,1779,5.01646,-16.411
224,-755,5.18103,22.6283,0,0,0,0,0,0,0,-1,1448,1779,5.18101,-22.6283
231,-755,5.25635,24.5298,0,0,0,0,0,0,0,-1,1455,1779,5.25641,-24.5298
238,-755,4.71948,23.5142,0,0,0,0,0,0,0,-1,1462,1779,4.71943,-23.5141
245,-755,4.1825,22.4984,0,0,0,0,0,0,0,-1,1469,1779,4.18246,-22.4984
252,-755,6.69482,19.1108,0,0,0,0,0,0,0,-1,1476,1779,6.69477,-19.1108
259,-755,3.17322,18.702,0,0,0,0,0,0,0,-1,1483,1779,3.17322,-18.7021
266,-755,17.255,7.86096,0,0,0,0,0,0,0,-1,1490,1779,17.255,-7.86092
273,-755,15.7932,7.59778,0,0,0,0,0,0,0,-1,1497,1779,15.7932,-7.59777
280,-755,14.6255,7.34802,0,0,0,0,0,0,0,-1,1504,1779,14.6254,-7.34806
287,-755,13.8279,7.83105,0,0,0,0,0,0,0,-1,1511,1779,13.8279,-7.83104
294,-755,12.5695,7.96814,0,0,0,0,0,0,0,-1,1518,1779,12.5694,-7.9682
301,-755,11.2659,8.27087,0,0,0,0,0,0,0,-1,1525,1779,11.2658,-8.27087
308,-755,9.94434,8.55811,0,0,0,0,0,0,0,-1,1532,1779,9.94428,-8.55806
315,-755,8.64502,9.04492,0,0,0,0,0,0,0,-1,1539,1779,8.64497,-9.04488
322,-755,0,0,0,0,0,0,0,0,0,-1,1546,1779,0,0
329,-755,0,0,0,0,0,0,0,0,0,-1,1553,1779,0,0
336,-755,0,0,0,0,0,0,0,0,0,-1,1560,1779,0,0
343,-755,0,0,0,0,0,0,0,0,0,-1,1567,1779,0,0
350,-755,0,0,0,0,0,0,0,0,0,-1,1574,1779,0,0
357,-755,0,0,0,0,0,0,0,0,0,-1,1581,1779,0,0
364,-755,0,0,0,0,0,0,0,0,0,-1,1588,1779,0,0
371,-755,0,0,0,0,0,0,0,0,0,-1,1595,1779,0,0
378,-755,0,0,0,0,0,0,0,0,0,-1,1602,1779,0,0
385,-755,0,0,0,0,0,0,0,0,0,-1,1609,1779,0,0
392,-755,0,0,0,0,0,0,0,0,0,-1,1616,1779,0,0
399,-755,0,0,0,0,0,0,0,0,0,-1,1623,1779,0,0
406,-755,0,0,0,0,0,0,0,0,0,-1,1630,1779,0,0
413,-755,0,0,0,0,0,0,0,0,0,-1,1637,1779,0,0
420,-755,0,0,0,0,0,0,0,0,0,-1,1644,1779,0,0
427,-755,0,0,0,0,0,0,0,0,0,-1,1651,1779,0,0
434,-755,0,0,0,0,0,0,0,0,0,-1,1658,1779,0,0
441,-755,0,0,0,0,0,0,0,0,0,-1,1665,1779,0,0
448,-755,0,0,0,0,0,0,0,0,0,-1,1672,1779,0,0
455,-755,0,0,0,0,0,0,0,0,0,-1,1679,1779,0,0
462,-755,0,0,0,0,0,0,0,0,0,-1,1686,1779,0,0
469,-755,0,0,0,0,0,0,0,0,0,-1,1693,1779,0,0
476,-755,0,0,0,0,0,0,0,0,0,-1,1700,1779,0,0
483,-755,0,0,0,0,0,0,0,0,0,-1,1707,1779,0,0
490,-755,0,0,0,0,0,0,0,0,0,-1,1714,1779,0,0
497,-755,0,0,0,0,0,0,0,0,0,-1,1721,1779,0,0
504,-755,0,0,0,0,0,0,0,0,0,-1,1728,1779,0,0
511,-755,0,0,0,0,0,0,0,0,0,-1,1735,1779,0,0
518,-755,0,0,0,0,0,0,0,0,0,-1,1742,1779,0,0
525,-755,0,0,0,0,0,0,0,0,0,-1,1749,1779,0,0
532,-755,0,0,0,0,0,0,0,0,0,-1,1756,1779,0,0
539,-755,0,0,0,0,0,0,0,0,0,-1,1763,1779,0,0
546,-755,0,0,0,0,0,0,0,0,0,-1,1770,1779,0,0
553,-755,0,0,0,0,0,0,0,0,0,-1,1777,1779,0,0
560,-755,0,0,0,0,0,0,0,0,0,-1,1784,1779,0,0
567,-755,0,0,0,0,0,0,0,0,0,-1,1791,1779,0,0
574,-755,0,0,0,0,0,0,0,0,0,-1,1798,1779,0,0
581,-755,0,0,0,0,0,0,0,0,0,-1,1805,1779,0,0
588,-755,0,0,0,0,0,0,0,0,0,-1,1812,1779,0,0
595,-755,0,0,0,0,0,0,0,0,0,-1,1819,1779,0,0
602,-755,0,0,0,0,0,0,0,0,0,-1,1826,1779,0,0
609,-755,0,0,0,0,0,0,0,0,0,-1,1833,1779,0,0
616,-755,0,0,0,0,0,0,0,0,0,-1,1840,1779,0,0
623,-755,0,0,0,0,0,0,0,0,0,-1,1847,1779,0,0
630,-755,0,0,0,0,0,0,0,0,0,-1,1854,1779,0,0
637,-755,0,0,0,0,0,0,0,0,0,-1,1861,1779,0,0
644,-755,0,0,0,0,0,0,0,0,0,-1,1868,1779,0,0
651,-755,0,0,0,0,0,0,0,0,0,-1,1875,1779,0,0
658,-755,0,0,0,0,0,0,0,0,0,-1,1882,1779,0,0
665,-755,0,0,0,0,0,0,0,0,0,-1,1889,1779,0,0
672,-755,0,0,0,0,0,0,0,0,0,-1,1896,1779,0,0
679,-755,0,0,0,0,0,0,0,0,0,-1,1903,1779,0,0
686,-755,0,0,0,0,0,0,0,0,0,-1,1910,1779,0,0
693,-755,0,0,0,0,0,0,0,0,0,-1,1917,1779,0,0
700,-755,0,0,0,0,0,0,0,0,0,-1,1924,1779,0,0
707,-755,0,0,0,0,0,0,0,0,0,-1,1931,1779,0,0
714,-755,0,0,0,0,0,0,0,0,0,-1,1938,1779,0,0
721,-755,0,0,0,0,0,0,0,0,0,-1,1945,1779,0,0
728,-755,0,0,0,0,0,0,0,0,0,-1,1952,1779,0,0
735,-755,0,0,0,0,0,0,0,0,0,-1,1959,1779,0,0
742,-755,0,0,0,0,0,0,0,0,0,-1,1966,1779,0,0
749,-755,0,0,0,0,0,0,0,0,0,-1,1973,1779,0,0
756,-755,0,0,0,0,0,0,0,0,0,-1,1980,1779,0,0
763,-755,0,0,0,0,0,0,0,0,0,-1,1987,1779,0,0
770,-755,0,0,0,0,0,0,0,0,0,-1,1994,1779,0,0
777,-755,0,0,0,0,0,0,0,0,0,-1,2001,1779,0,0
784,-755,0,0,0,0,0,0,0,0,0,-1,2008,1779,0,0
791,-755,0,0,0,0,0,0,0,0,0,-1,2015,1779,0,0
798,-755,0,0,0,0,0,0,0,0,0,-1,2022,1779,0,0
805,-755,0,0,0,0,0,0,0,0,0,-1,2029,1779,0,0
812,-755,0,0,0,0,0,0,0,0,0,-1,2036,1779,0,0
-700,-762,0,0,0,0,0,0,0,0,0,-1,524,1786,0,0
-693,-762,0,0,0,0,0,0,0,0,0,-1,531,1786,0,0
-686,-762,0,0,0,0,0,0,0,0,0,-1,538,1786,0,0
-679,-762,0,0,0,0,0,0,0,0,0,-1,545,1786,0,0
-672,-762,0,0,0,0,0,0,0,0,0,-1,552,1786,0,0
-665,-762,0,0,0,0,0,0,0,0,0,-1,559,1786,0,0
-658,-762,0,0,0,0,0,0,0,0,0,-1,566,1786,0,0
-651,-762,0,0,0,0,0,0,0,0,0,-1,573,1786,0,0
-644,-762,0,0,0,0,0,0,0,0,0,-1,580,1786,0,0
-637,-762,0,0,0,0,0,0,0,0,0,-1,587,1786,0,0
-630,-762,0,0,0,0,0,0,0,0,0,-1,594,1786,0,0
-623,-762,0,0,0,0,0,0,0,0,0,-1,601,1786,0,0
-616,-762,0,0,0,0,0,0,0,0,0,-1,608,1786,0,0
-609,-762,0,0,0,0,0,0,0,0,0,-1,615,1786,0,0
-602,-762,0,0,0,0,0,0,0,0,0,-1,622,1786,0,0
-595,-762,0,0,0,0,0,0,0,0,0,-1,629,1786,0,0
-588,-762,0,0,0,0,0,0,0,0,0,-1,636,1786,0,0
-581,-762,0,0,0,0,0,0,0,0,0,-1,643,1786,0,0
-574,-762,0,0,0,0,0,0,0,0,0,-1,650,1786,0,0
-567,-762,0,0,0,0,0,0,0,0,0,-1,657,1786,0,0
-560,-762,0,0,0,0,0,0,0,0,0,-1,664,1786,0,0
-553,-762,0,0,0,0,0,0,0,0,0,-1,671,1786,0,0
-546,-762,0,0,0,0,0,0,0,0,0,-1,678,1786,0,0
-539,-762,0,0,0,0,0,0,0,0,0,-1,685,1786,0,0
-532,-762,0,0,0,0,0,0,0,0,0,-1,692,1786,0,0
-525,-762,0,0,0,0,0,0,0,0,0,-1,699,1786,0,0
-518,-762,0,0,0,0,0,0,0,0,0,-1,706,1786,0,0
-511,-762,0,0,0,0,0,0,0,0,0,-1,713,1786,0,0
-504,-762,0,0,0,0,0,0,0,0,0,-1,720,1786,0,0
-497,-762,0,0,0,0,0,0,0,0,0,-1,727,1786,0,0
-490,-762,0,0,0,0,0,0,0,0,0,-1,734,1786,0,0
-483,-762,0,0,0,0,0,0,0,0,0,-1,741,1786,0,0
-476,-762,0,0,0,0,0,0,0,0,0,-1,748,1786,0,0
-469,-762,0,0,0,0,0,0,0,0,0,-1,755,1786,0,0
-462,-762,0,0,0,0,0,0,0,0,0,-1,762,1786,0,0
-455,-762,0,0,0,0,0,0,0,0,0,-1,769,1786,0,0
-448,-762,0,0,0,0,0,0,0,0,0,-1,776,1786,0,0
-441,-762,0,0,0,0,0,0,0,0,0,-1,783,1786,0,0
-434,-762,0,0,0,0,0,0,0,0,0,-1,790,1786,0,0
-427,-762,0,0,0,0,0,0,0,0,0,-1,797,1786,0,0
-420,-762,0,0,0,0,0,0,0,0,0,-1,804,1786,0,0
-413,-762,0,0,0,0,0,0,0,0,0,-1,811,1786,0,0
-406,-762,0,0,0,0,0,0,0,0,0,-1,818,1786,0,0
-399,-762,0,0,0,0,0,0,0,0,0,-1,825,1786,0,0
-392,-762,0,0,0,0,0,0,0,0,0,-1,832,1786,0,0
-385,-762,0,0,0,0,0,0,0,0,0,-1,839,1786,0,0
-378,-762,0,0,0,0,0,0,0,0,0,-1,846,1786,0,0
-371,-762,0,0,0,0,0,0,0,0,0,-1,853,1786,0,0
-364,-762,0,0,0,0,0,0,0,0,0,-1,860,1786,0,0
-357,-762,0,0,0,0,0,0,0,0,0,-1,867,1786,0,0
-350,-762,0,0,0,0,0,0,0,0,0,-1,874,1786,0,0
-343,-762,0,0,0,0,0,0,0,0,0,-1,881,1786,0,0
-336,-762,0,0,0,0,0,0,0,0,0,-1,888,1786,0,0
-329,-762,0,0,0,0,0,0,0,0,0,-1,895,1786,0,0
-322,-762,0,0,0,0,0,0,0,0,0,-1,902,1786,0,0
-315,-762,0,0,0,0,0,0,0,0,0,-1,909,1786,0,0
-308,-762,0,0,0,0,0,0,0,0,0,-1,916,1786,0,0
-301,-762,0,0,0,0,0,0,0,0,0,-1,923,1786,0,0
-294,-762,0,0,0,0,0,0,0,0,0,-1,930,1786,0,0
-287,-762,0,0,0,0,0,0,0,0,0,-1,937,1786,0,0
-280,-762,0,0,0,0,0,0,0,0,0,-1,944,1786,0,0
-273,-762,0,0,0,0,0,0,0,0,0,-1,951,1786,0,0
-266,-762,0,0,0,0,0,0,0,0,0,-1,958,1786,0,0
-259,-762,0,0,0,0,0,0,0,0,0,-1,965,1786,0,0
-252,-762,0,0,0,0,0,0,0,0,0,-1,972,1786,0,0
-245,-762,0,0,0,0,0,0,0,0,0,-1,979,1786,0,0
-238,-762,0,0,0,0,0,0,0,0,0,-1,986,1786,0,0
-231,-762,0,0,0,0,0,0,0,0,0,-1,993,1786,0,0
-224,-762,0,0,0,0,0,0,0,0,0,-1,1000,1786,0,0
-217,-762,0,0,0,0,0,0,0,0,0,-1,1007,1786,0,0
-210,-762,0,0,0,0,0,0,0,0,0,-1,1014,1786,0,0
-203,-762,0,0,0,0,0,0,0,0,0,-1,1021,1786,0,0
-196,-762,0,0,0,0,0,0,0,0,0,-1,1028,1786,0,0
-189,-762,0,0,0,0,0,0,0,0,0,-1,1035,1786,0,0
-182,-762,4.44226,13.2462,0,0,0,0,0,0,0,-1,1042,1786,4.44227,-13.2462
-175,-762,-1.29956,14.1766,0,0,0,0,0,0,0,-1,1049,1786,-1.29956,-14.1767
-168,-762,-2.08618,13.0768,0,0,0,0,0,0,0,-1,1056,1786,-2.08623,-13.0768
-161,-762,-3.29077,11.9508,0,0,0,0,0,0,0,-1,1063,1786,-3.29076,-11.9508
-154,-762,-4.55823,11.1176,0,0,0,0,0,0,0,-1,1070,1786,-4.55828,-11.1175
-147,-762,-6.52454,9.41418,0,0,0,0,0,0,0,-1,1077,1786,-6.52458,-9.41419
-140,-762,4.99792,5.28589,0,0,0,0,0,0,0,-1,1084,1786,4.99793,-5.28587
-133,-762,0.689819,19.2172,0,0,0,0,0,0,0,-1,1091,1786,0.689867,-19.2171
-126,-762,1.48743,19.9288,0,0,0,0,0,0,0,-1,1098,1786,1.48738,-19.9289
-119,-762,2.65637,20.208,0,0,0,0,0,0,0,-1,1105,1786,2.65632,-20.208
-112,-762,3.09082,20.488,0,0,0,0,0,0,0,-1,1112,1786,3.09077,-20.488
-105,-762,5.50476,20.6483,0,0,0,0,0,0,0,-1,1119,1786,5.5048,-20.6483
-98,-762,5.74402,17.4143,0,0,0,0,0,0,0,-1,1126,1786,5.74407,-17.4143
-91,-762,5.9834,14.1803,0,0,0,0,0,0,0,-1,1133,1786,5.98335,-14.1803
-84,-762,3.00232,10.7883,0,0,0,0,0,0,0,-1,1140,1786,3.0023,-10.7883
-77,-762,0.305054,8.49365,0,0,0,0,0,0,0,-1,1147,1786,0.305008,-8.49362
-70,-762,0.183716,6.74622,0,0,0,0,0,0,0,-1,1154,1786,0.183696,-6.74621
-63,-762,-0.883057,9.08813,0,0,0,0,0,0,0,-1,1161,1786,-0.88311,-9.08808
-56,-762,-0.578979,5.10254,0,0,0,0,0,0,0,-1,1168,1786,-0.578951,-5.10249
-49,-762,-2.04541,3.66321,0,0,0,0,0,0,0,-1,1175,1786,-2.0454,-3.66319
-42,-762,-2.23462,3.474,0,0,0,0,0,0,0,-1,1182,1786,-2.23459,-3.47399
-35,-762,-3.28992,1.68164,0,0,0,0,0,0,0,-1,1189,1786,-3.28998,-1.68164
-28,-762,-3.75378,1.37769,0,0,0,0,0,0,0,-1,1196,1786,-3.75373,-1.37767
-21,-762,6.69958,24.1185,0,0,0,0,0,0,0,-1,1203,1786,6.69962,-24.1186
-14,-762,6.49915,24.6522,0,0,0,0,0,0,0,-1,1210,1786,6.49911,-24.6522
-7,-762,6.26514,24.6711,0,0,0,0,0,0,0,-1,1217,1786,6.26514,-24.6712
0,-762,6.25671,24.7197,0.0119361,0.0269015,0.000277848,0.0269066,0.011931,1.55224,0.0155677,0.0363251,1224,1786,6.25669,-24.7198
7,-762,6.26355,24.7727,0.0100546,0.0225353,0.00174002,0.0227733,0.00981651,1.43483,0.0131898,0.0201929,1231,1786,6.26352,-24.7728
14,-762,6.21985,24.9589,0.0093984,0.0197048,0.00330083,0.0206713,0.00843188,1.28595,0.0120019,0.0332276,1238,1786,6.2198,-24.9588
21,-762,6.16296,25.1138,0.00888003,0.0178242,0.0051572,0.0201782,0.00652596,1.14258,0.0118896,0.04193,1245,1786,6.16301,-25.1138
28,-762,6.07532,25.0493,0.00858676,0.0162954,0.00658885,0.0200745,0.00480769,1.05005,0.012103,0.0410981,1252,1786,6.07532,-25.0494
35,-762,6.10596,25.2256,0.00892805,0.0151822,0.0074996,0.0201806,0.00392971,0.982922,0.0123539,0.0400138,1259,1786,6.10595,-25.2256
42,-762,6.16492,25.1276,0.00898129,0.013703,0.00859767,0.0202581,0.00242622,0.919391,0.0127737,0.0390115,1266,1786,6.16489,-25.1276
49,-762,6.11243,25.0963,0.00905692,0.0125082,0.00911901,0.0200634,0.00150173,0.878911,0.0129042,0.0320149,1273,1786,6.11239,-25.0963
56,-762,6.1106,25.0619,0.00915696,0.0117212,0.00929544,0.0198225,0.00105562,0.85393,0.0128776,0.0224941,1280,1786,6.11061,-25.0619
63,-762,6.11084,25.0775,0.00938771,0.0111589,0.00917666,0.0194926,0.00105402,0.833503,0.0126584,0.0209578,1287,1786,6.1109,-25.0775
70,-762,6.10547,25.0938,0.00872007,0.0105872,0.00893065,0.018633,0.000674336,0.837477,0.0122034,0.0213383,1294,1786,6.10548,-25.0938
77,-762,6.06958,25.1021,0.00747747,0.00959279,0.00862939,0.0172291,-0.000158837,0.846376,0.0115394,0.0281081,1301,1786,6.06962,-25.1021
84,-762,6.03882,25.0697,0.00572093,0.0080663,0.00808891,0.0150671,-0.00127985,0.857384,0.0104974,0.0345194,1308,1786,6.03876,-25.0696
91,-762,6.11694,25.0428,0.00367451,0.00671359,0.00754274,0.0128883,-0.00250022,0.884797,0.00953552,0.0421825,1315,1786,6.11699,-25.0428
98,-762,6.38062,24.8604,0,0,0,0,0,0,0,-1,1322,1786,6.38057,-24.8604
105,-762,6.0365,25.1301,-0.000310238,0.00409049,0.00658271,0.00883085,-0.00505061,0.946692,0.00811292,0.0439129,1329,1786,6.0365,-25.1302
112,-762,5.94592,25.0298,-0.00285622,0.00389798,0.00616966,0.00755434,-0.00651258,1.03581,0.00812896,0.0449092,1336,1786,5.94594,-25.0298
119,-762,5.88538,24.9136,-0.00522727,0.00359672,0.00566993,0.006369,-0.00799955,1.11603,0.00831347,0.0460191,1343,1786,5.88536,-24.9136
126,-762,5.86487,24.9738,-0.00655603,0.00366899,0.00507571,0.00576069,-0.00864773,1.1799,0.00837418,0.0486007,1350,1786,5.86489,-24.9737
133,-762,5.81848,24.9247,-0.00729201,0.00429596,0.00500025,0.00615526,-0.00915131,1.2148,0.0088935,0.0480041,1357,1786,5.81852,-24.9247
140,-762,5.703,24.8751,-0.00833434,0.00478101,0.00529003,0.00664875,-0.0102021,1.23139,0.00980066,0.0451283,1364,1786,5.70303,-24.8751
147,-762,5.64258,24.7355,-0.00887784,0.00497365,0.00525138,0.00673945,-0.0106436,1.24642,0.0101202,0.0429218,1371,1786,5.64263,-24.7355
154,-762,5.67163,24.6068,0,0,0,0,0,0,0,-1,1378,1786,5.67164,-24.6069
161,-762,7.93408,-0.126221,0,0,0,0,0,0,0,-1,1385,1786,7.93402,0.126232
168,-762,8.19287,0.880615,0,0,0,0,0,0,0,-1,1392,1786,8.19291,-0.880603
175,-762,8.33997,1.95947,0,0,0,0,0,0,0,-1,1399,1786,8.33997,-1.95942
182,-762,8.28418,3.56482,0,0,0,0,0,0,0,-1,1406,1786,8.28415,-3.56485
189,-762,8.21179,5.23389,0,0,0,0,0,0,0,-1,1413,1786,8.21183,-5.23383
196,-762,8.05969,6.95483,0,0,0,0,0,0,0,-1,1420,1786,8.05972,-6.9548
203,-762,24.0077,7.10425,0,0,0,0,0,0,0,-1,1427,1786,24.0077,-7.10426
210,-762,23.8073,7.6499,0,0,0,0,0,0,0,-1,1434,1786,23.8073,-7.64987
217,-762,23.3193,8.24426,0,0,0,0,0,0,0,-1,1441,1786,23.3194,-8.2442
224,-762,2.65149,20.6106,0,0,0,0,0,0,0,-1,1448,1786,2.65153,-20.6106
231,-762,5.46655,23.521,0,0,0,0,0,0,0,-1,1455,1786,5.46653,-23.521
238,-762,4.57458,23.4314,0,0,0,0,0,0,0,-1,1462,1786,4.57457,-23.4314
245,-762,7.45911,19.8107,0,0,0,0,0,0,0,-1,1469,1786,7.45905,-19.8107
252,-762,3.10474,18.8385,0,0,0,0,0,0,0,-1,1476,1786,3.10476,-18.8385
259,-762,17.4619,7.89832,0,0,0,0,0,0,0,-1,1483,1786,17.462,-7.89836
266,-762,16.451,7.67773,0,0,0,0,0,0,0,-1,1490,1786,16.4511,-7.67773
273,-762,15.287,7.5304,0,0,0,0,0,0,0,-1,1497,1786,15.2869,-7.53044
280,-762,14.1501,7.38379,0,0,0,0,0,0,0,-1,1504,1786,14.1502,-7.38376
287,-762,12.6891,7.99133,0,0,0,0,0,0,0,-1,1511,1786,12.6891,-7.99135
294,-762,12.6959,8.30371,0,0,0,0,0,0,0,-1,1518,1786,12.6959,-8.30368
301,-762,11.4222,8.84143,0,0,0,0,0,0,0,-1,1525,1786,11.4223,-8.84149
308,-762,0,0,0,0,0,0,0,0,0,-1,1532,1786,0,0
315,-762,0,0,0,0,0,0,0,0,0,-1,1539,1786,0,0
322,-762,0,0,0,0,0,0,0,0,0,-1,1546,1786,0,0
329,-762,0,0,0,0,0,0,0,0,0,-1,1553,1786,0,0
336,-762,0,0,0,0,0,0,0,0,0,-1,1560,1786,0,0
343,-762,0,0,0,0,0,0,0,0,0,-1,1567,1786,0,0
350,-762,0,0,0,0,0,0,0,0,0,-1,1574,1786,0,0
357,-762,0,0,0,0,0,0,0,0,0,-1,1581,1786,0,0
364,-762,0,0,0,0,0,0,0,0,0,-1,1588,1786,0,0
371,-762,0,0,0,0,0,0,0,0,0,-1,1595,1786,0,0
378,-762,0,0,0,0,0,0,0,0,0,-1,1602,1786,0,0
385,-762,0,0,0,0,0,0,0,0,0,-1,1609,1786,0,0
392,-762,0,0,0,0,0,0,0,0,0,-1,1616,1786,0,0
399,-762,0,0,0,0,0,0,0,0,0,-1,1623,1786,0,0
406,-762,0,0,0,0,0,0,0,0,0,-1,1630,1786,0,0
413,-762,0,0,0,0,0,0,0,0,0,-1,1637,1786,0,0
420,-762,0,0,0,0,0,0,0,0,0,-1,1644,1786,0,0
427,-762,0,0,0,0,0,0,0,0,0,-1,1651,1786,0,0
434,-762,0,0,0,0,0,0,0,0,0,-1,1658,1786,0,0
441,-762,0,0,0,0,0,0,0,0,0,-1,1665,1786,0,0
448,-762,0,0,0,0,0,0,0,0,0,-1,1672,1786,0,0
455,-762,0,0,0,0,0,0,0,0,0,-1,1679,1786,0,0
462,-762,0,0,0,0,0,0,0,0,0,-1,1686,1786,0,0
469,-762,0,0,0,0,0,0,0,0,0,-1,1693,1786,0,0
476,-762,0,0,0,0,0,0,0,0,0,-1,1700,1786,0,0
483,-762,0,0,0,0,0,0,0,0,0,-1,1707,1786,0,0
490,-762,0,0,0,0,0,0,0,0,0,-1,1714,1786,0,0
497,-762,0,0,0,0,0,0,0,0,0,-1,1721,1786,0,0
504,-762,0,0,0,0,0,0,0,0,0,-1,1728,1786,0,0
511,-762,0,0,0,0,0,0,0,0,0,-1,1735,1786,0,0
518,-762,0,0,0,0,0,0,0,0,0,-1,1742,1786,0,0
525,-762,0,0,0,0,0,0,0,0,0,-1,1749,1786,0,0
532,-762,0,0,0,0,0,0,0,0,0,-1,1756,1786,0,0
539,-762,0,0,0,0,0,0,0,0,0,-1,1763,1786,0,0
546,-762,0,0,0,0,0,0,0,0,0,-1,1770,1786,0,0
553,-762,0,0,0,0,0,0,0,0,0,-1,1777,1786,0,0
560,-762,0,0,0,0,0,0,0,0,0,-1,1784,1786,0,0
567,-762,0,0,0,0,0,0,0,0,0,-1,1791,1786,0,0
574,-762,0,0,0,0,0,0,0,0,0,-1,1798,1786,0,0
581,-762,0,0,0,0,0,0,0,0,0,-1,1805,1786,0,0
588,-762,0,0,0,0,0,0,0,0,0,-1,1812,1786,0,0
595,-762,0,0,0,0,0,0,0,0,0,-1,1819,1786,0,0
602,-762,0,0,0,0,0,0,0,0,0,-1,1826,1786,0,0
609,-762,0,0,0,0,0,0,0,0,0,-1,1833,1786,0,0
616,-762,0,0,0,0,0,0,0,0,0,-1,1840,1786,0,0
623,-762,0,0,0,0,0,0,0,0,0,-1,1847,1786,0,0
630,-762,0,0,0,0,0,0,0,0,0,-1,1854,1786,0,0
637,-762,0,0,0,0,0,0,0,0,0,-1,1861,1786,0,0
644,-762,0,0,0,0,0,0,0,0,0,-1,1868,1786,0,0
651,-762,0,0,0,0,0,0,0,0,0,-1,1875,1786,0,0
658,-762,0,0,0,0,0,0,0,0,0,-1,1882,1786,0,0
665,-762,0,0,0,0,0,0,0,0,0,-1,1889,1786,0,0
672,-762,0,0,0,0,0,0,0,0,0,-1,1896,1786,0,0
679,-762,0,0,0,0,0,0,0,0,0,-1,1903,1786,0,0
686,-762,0,0,0,0,0,0,0,0,0,-1,1910,1786,0,0
693,-762,0,0,0,0,0,0,0,0,0,-1,1917,1786,0,0
700,-762,0,0,0,0,0,0,0,0,0,-1,1924,1786,0,0
707,-762,0,0,0,0,0,0,0,0,0,-1,1931,1786,0,0
714,-762,0,0,0,0,0,0,0,0,0,-1,1938,1786,0,0
721,-762,0,0,0,0,0,0,0,0,0,-1,1945,1786,0,0
728,-762,0,0,0,0,0,0,0,0,0,-1,1952,1786,0,0
735,-762,0,0,0,0,0,0,0,0,0,-1,1959,1786,0,0
742,-762,0,0,0,0,0,0,0,0,0,-1,1966,1786,0,0
749,-762,0,0,0,0,0,0,0,0,0,-1,1973,1786,0,0
756,-762,0,0,0,0,0,0,0,0,0,-1,1980,1786,0,0
763,-762,0,0,0,0,0,0,0,0,0,-1,1987,1786,0,0
770,-762,0,0,0,0,0,0,0,0,0,-1,1994,1786,0,0
777,-762,0,0,0,0,0,0,0,0,0,-1,2001,1786,0,0
784,-762,0,0,0,0,0,0,0,0,0,-1,2008,1786,0,0
791,-762,0,0,0,0,0,0,0,0,0,-1,2015,1786,0,0
798,-762,0,0,0,0,0,0,0,0,0,-1,2022,1786,0,0
805,-762,0,0,0,0,0,0,0,0,0,-1,2029,1786,0,0
812,-762,0,0,0,0,0,0,0,0,0,-1,2036,1786,0,0
-700,-769,0,0,0,0,0,0,0,0,0,-1,524,1793,0,0
-693,-769,0,0,0,0,0,0,0,0,0,-1,531,1793,0,0
-686,-769,0,0,0,0,0,0,0,0,0,-1,538,1793,0,0
-679,-769,0,0,0,0,0,0,0,0,0,-1,545,1793,0,0
-672,-769,0,0,0,0,0,0,0,0,0,-1,552,1793,0,0
-665,-769,0,0,0,0,0,0,0,0,0,-1,559,1793,0,0
-658,-769,0,0,0,0,0,0,0,0,0,-1,566,1793,0,0
-651,-769,0,0,0,0,0,0,0,0,0,-1,573,1793,0,0
-644,-769,0,0,0,0,0,0,0,0,0,-1,580,1793,0,0
-637,-769,0,0,0,0,0,0,0,0,0,-1,587,1793,0,0
-630,-769,0,0,0,0,0,0,0,0,0,-1,594,1793,0,0
-623,-769,0,0,0,0,0,0,0,0,0,-1,601,1793,0,0
-616,-769,0,0,0,0,0,0,0,0,0,-1,608,1793,0,0
-609,-769,0,0,0,0,0,0,0,0,0,-1,615,1793,0,0
-602,-769,0,0,0,0,0,0,0,0,0,-1,622,1793,0,0
-595,-769,0,0,0,0,0,0,0,0,0,-1,629,1793,0,0
-588,-769,0,0,0,0,0,0,0,0,0,-1,636,1793,0,0
-581,-769,0,0,0,0,0,0,0,0,0,-1,643,1793,0,0
-574,-769,0,0,0,0,0,0,0,0,0,-1,650,1793,0,0
-567,-769,0,0,0,0,0,0,0,0,0,-1,657,1793,0,0
-560,-769,0,0,0,0,0,0,0,0,0,-1,664,1793,0,0
-553,-769,0,0,0,0,0,0,0,0,0,-1,671,1793,0,0
-546,-769,0,0,0,0,0,0,0,0,0,-1,678,1793,0,0
-539,-769,0,0,0,0,0,0,0,0,0,-1,685,1793,0,0
-532,-769,0,0,0,0,0,0,0,0,0,-1,692,1793,0,0
-525,-769,0,0,0,0,0,0,0,0,0,-1,699,1793,0,0
-518,-769,0,0,0,0,0,0,0,0,0,-1,706,1793,0,0
-511,-769,0,0,0,0,0,0,0,0,0,-1,713,1793,0,0
-504,-769,0,0,0,0,0,0,0,0,0,-1,720,1793,0,0
-497,-769,0,0,0,0,0,0,0,0,0,-1,727,1793,0,0
-490,-769,0,0,0,0,0,0,0,0,0,-1,734,1793,0,0
-483,-769,0,0,0,0,0,0,0,0,0,-1,741,1793,0,0
-476,-769,0,0,0,0,0,0,0,0,0,-1,748,1793,0,0
-469,-769,0,0,0,0,0,0,0,0,0,-1,755,1793,0,0
-462,-769,0,0,0,0,0,0,0,0,0,-1,762,1793,0,0
-455,-769,0,0,0,0,0,0,0,0,0,-1,769,1793,0,0
-448,-769,0,0,0,0,0,0,0,0,0,-1,776,1793,0,0
-441,-769,0,0,0,0,0,0,0,0,0,-1,783,1793,0,0
-434,-769,0,0,0,0,0,0,0,0,0,-1,790,1793,0,0
-427,-769,0,0,0,0,0,0,0,0,0,-1,797,1793,0,0
-420,-769,0,0,0,0,0,0,0,0,0,-1,804,1793,0,0
-413,-769,0,0,0,0,0,0,0,0,0,-1,811,1793,0,0
-406,-769,0,0,0,0,0,0,0,0,0,-1,818,1793,0,0
-399,-769,0,0,0,0,0,0,0,0,0,-1,825,1793,0,0
-392,-769,0,0,0,0,0,0,0,0,0,-1,832,1793,0,0
-385,-769,0,0,0,0,0,0,0,0,0,-1,839,1793,0,0
-378,-769,0,0,0,0,0,0,0,0,0,-1,846,1793,0,0
-371,-769,0,0,0,0,0,0,0,0,0,-1,853,1793,0,0
-364,-769,0,0,0,0,0,0,0,0,0,-1,860,1793,0,0
-357,-769,0,0,0,0,0,0,0,0,0,-1,867,1793,0,0
-350,-769,0,0,0,0,0,0,0,0,0,-1,874,1793,0,0
-343,-769,0,0,0,0,0,0,0,0,0,-1,881,1793,0,0
-336,-769,0,0,0,0,0,0,0,0,0,-1,888,1793,0,0
-329,-769,0,0,0,0,0,0,0,0,0,-1,895,1793,0,0
-322,-769,0,0,0,0,0,0,0,0,0,-1,902,1793,0,0
-315,-769,0,0,0,0,0,0,0,0,0,-1,909,1793,0,0
-308,-769,0,0,0,0,0,0,0,0,0,-1,916,1793,0,0
-301,-769,0,0,0,0,0,0,0,0,0,-1,923,1793,0,0
-294,-769,0,0,0,0,0,0,0,0,0,-1,930,1793,0,0
-287,-769,0,0,0,0,0,0,0,0,0,-1,937,1793,0,0
-280,-769,0,0,0,0,0,0,0,0,0,-1,944,1793,0,0
-273,-769,0,0,0,0,0,0,0,0,0,-1,951,1793,0,0
-266,-769,0,0,0,0,0,0,0,0,0,-1,958,1793,0,0
-259,-769,0,0,0,0,0,0,0,0,0,-1,965,1793,0,0
-252,-769,0,0,0,0,0,0,0,0,0,-1,972,1793,0,0
-245,-769,0,0,0,0,0,0,0,0,0,-1,979,1793,0,0
-238,-769,0,0,0,0,0,0,0,0,0,-1,986,1793,0,0
-231,-769,0,0,0,0,0,0,0,0,0,-1,993,1793,0,0
-224,-769,0,0,0,0,0,0,0,0,0,-1,1000,1793,0,0
-217,-769,0,0,0,0,0,0,0,0,0,-1,1007,1793,0,0
-210,-769,0,0,0,0,0,0,0,0,0,-1,1014,1793,0,0
-203,-769,0,0,0,0,0,0,0,0,0,-1,1021,1793,0,0
-196,-769,0,0,0,0,0,0,0,0,0,-1,1028,1793,0,0
-189,-769,0,0,0,0,0,0,0,0,0,-1,1035,1793,0,0
-182,-769,0,0,0,0,0,0,0,0,0,-1,1042,1793,0,0
-175,-769,0,0,0,0,0,0,0,0,0,-1,1049,1793,0,0
-168,-769,0,0,0,0,0,0,0,0,0,-1,1056,1793,0,0
-161,-769,-3.61145,12.4761,0,0,0,0,0,0,0,-1,1063,1793,-3.6114,-12.476
-154,-769,-0.813232,5.32874,0,0,0,0,0,0,0,-1,1070,1793,-0.813269,-5.32872
-147,-769,4.26587,4.7002,0,0,0,0,0,0,0,-1,1077,1793,4.26593,-4.70022
-140,-769,4.10376,5.28589,0,0,0,0,0,0,0,-1,1084,1793,4.10371,-5.28584
-133,-769,6.422,8.21777,0,0,0,0,0,0,0,-1,1091,1793,6.42198,-8.21773
-126,-769,-0.352295,19.326,0,0,0,0,0,0,0,-1,1098,1793,-0.352235,-19.326
-119,-769,6.01685,16.2577,0,0,0,0,0,0,0,-1,1105,1793,6.01689,-16.2576
-112,-769,2.77722,20.0741,0,0,0,0,0,0,0,-1,1112,1793,2.77727,-20.0741
-105,-769,4.55212,21.8363,0,0,0,0,0,0,0,-1,1119,1793,4.55214,-21.8363
-98,-769,4.55505,18.981,0,0,0,0,0,0,0,-1,1126,1793,4.55509,-18.981
-91,-769,4.28101,16.0465,0,0,0,0,0,0,0,-1,1133,1793,4.28101,-16.0465
-84,-769,3.7594,13.0021,0,0,0,0,0,0,0,-1,1140,1793,3.75942,-13.0021
-77,-769,2.48816,8.98486,0,0,0,0,0,0,0,-1,1147,1793,2.48815,-8.98489
-70,-769,1.04944,11.9852,0,0,0,0,0,0,0,-1,1154,1793,1.04947,-11.9852
-63,-769,-2.39709,9.60339,0,0,0,0,0,0,0,-1,1161,1793,-2.39706,-9.6034
-56,-769,-5.84363,7.22156,0,0,0,0,0,0,0,-1,1168,1793,-5.84359,-7.22157
-49,-769,-2.41443,3.95471,0,0,0,0,0,0,0,-1,1175,1793,-2.41446,-3.95471
-42,-769,-3.1991,2.64941,0,0,0,0,0,0,0,-1,1182,1793,-3.19914,-2.64944
-35,-769,-3.50183,1.73389,0,0,0,0,0,0,0,-1,1189,1793,-3.50189,-1.7339
-28,-769,-3.96985,1.14075,0,0,0,0,0,0,0,-1,1196,1793,-3.96985,-1.14078
-21,-769,6.90796,24.4229,0,0,0,0,0,0,0,-1,1203,1793,6.90798,-24.4228
-14,-769,5.11694,22.8927,0,0,0,0,0,0,0,-1,1210,1793,5.1169,-22.8927
-7,-769,5.87634,24.4258,0,0,0,0,0,0,0,-1,1217,1793,5.8764,-24.4258
0,-769,6.29993,24.6879,0,0,0,0,0,0,0,-1,1224,1793,6.2999,-24.6878
7,-769,6.33325,24.7462,0.0159126,0.0319782,0.00207403,0.0322416,0.0156491,1.44446,0.0186174,0.0449549,1231,1793,6.33322,-24.7462
14,-769,6.19373,24.8805,0.0150342,0.0277612,0.00433655,0.0290983,0.013697,1.2717,0.0168095,0.0456745,1238,1793,6.19376,-24.8805
21,-769,6.07666,24.9746,0.0142486,0.0249724,0.00702829,0.0284506,0.0107705,1.11125,0.0165867,0.0474775,1245,1793,6.07667,-24.9746
28,-769,6.01038,25.0995,0.0137062,0.0225611,0.00915743,0.0283052,0.00796211,1.01057,0.0168551,0.0449672,1252,1793,6.01034,-25.0995
35,-769,6.30054,25.1871,0,0,0,0,0,0,0,-1,1259,1793,6.30058,-25.1871
42,-769,6.27356,25.1262,0.013789,0.0184553,0.0120386,0.0283847,0.00385958,0.881116,0.0177768,0.0474374,1266,1793,6.27361,-25.1262
49,-769,6.2301,25.1041,0.0137164,0.0167219,0.0127998,0.0281068,0.00233148,0.843835,0.0180111,0.0452328,1273,1793,6.23008,-25.1041
56,-769,6.19434,25.0493,0,0,0,0,0,0,0,-1,1280,1793,6.19437,-25.0493
63,-769,6.26294,24.7267,0.0139649,0.0148772,0.0129159,0.027345,0.00149706,0.803051,0.0177521,0.0454953,1287,1793,6.26294,-24.7267
70,-769,6.19885,25.048,0.0129005,0.014071,0.0125634,0.0260628,0.00090875,0.808673,0.0170804,0.0462777,1294,1793,6.19888,-25.048
77,-769,6.10803,25.1212,0.0110424,0.0126842,0.012129,0.02402,-0.000293399,0.819188,0.0161121,0.0495007,1301,1793,6.10805,-25.1212
84,-769,6.05737,25.1321,0.00850177,0.0106439,0.0113815,0.0210047,-0.00185899,0.832313,0.0146621,0.0482374,1308,1793,6.05742,-25.1321
91,-769,6.05835,25.1322,0.00559899,0.0088674,0.0106214,0.0179796,-0.0035132,0.861729,0.0133129,0.0477819,1315,1793,6.0584,-25.1322
98,-769,6.04871,25.1025,0.00273287,0.00763885,0.00998952,0.0154721,-0.00510042,0.905794,0.0123705,0.0469247,1322,1793,6.04871,-25.1025
105,-769,5.85632,24.8979,-0.000113297,0.00577653,0.00933975,0.0126246,-0.00696141,0.93812,0.0114645,0.0481201,1329,1793,5.8563,-24.8979
112,-769,5.95435,24.988,0,0,0,0,0,0,0,-1,1336,1793,5.9543,-24.9881
119,-769,5.86218,24.7832,0,0,0,0,0,0,0,-1,1343,1793,5.86219,-24.7832
126,-769,5.79065,24.9058,0,0,0,0,0,0,0,-1,1350,1793,5.79068,-24.9058
133,-769,5.77539,24.8811,0,0,0,0,0,0,0,-1,1357,1793,5.77541,-24.8811
140,-769,5.677,24.7966,0,0,0,0,0,0,0,-1,1364,1793,5.67696,-24.7966
147,-769,5.54688,24.578,0,0,0,0,0,0,0,-1,1371,1793,5.54692,-24.578
154,-769,6.37561,1.00024,0,0,0,0,0,0,0,-1,1378,1793,6.37566,-1.00028
161,-769,6.57019,1.53223,0,0,0,0,0,0,0,-1,1385,1793,6.57019,-1.53226
168,-769,8.27637,0.756958,0,0,0,0,0,0,0,-1,1392,1793,8.27639,-0.756944
175,-769,8.47144,2.41174,0,0,0,0,0,0,0,-1,1399,1793,8.47147,-2.4118
182,-769,8.41479,4.05994,0,0,0,0,0,0,0,-1,1406,1793,8.41479,-4.05997
189,-769,8.25049,5.68433,0,0,0,0,0,0,0,-1,1413,1793,8.25054,-5.68428
196,-769,7.97729,7.42847,0,0,0,0,0,0,0,-1,1420,1793,7.9773,-7.42848
203,-769,22.0977,6.73889,0,0,0,0,0,0,0,-1,1427,1793,22.0977,-6.7389
210,-769,22.1115,7.77246,0,0,0,0,0,0,0,-1,1434,1793,22.1115,-7.77248
217,-769,22.4723,8.79102,0,0,0,0,0,0,0,-1,1441,1793,22.4723,-8.79099
224,-769,22.1348,9.35278,0,0,0,0,0,0,0,-1,1448,1793,22.1348,-9.35283
231,-769,3.13318,19.7184,0,0,0,0,0,0,0,-1,1455,1793,3.13323,-19.7184
238,-769,5.74512,18.6597,0,0,0,0,0,0,0,-1,1462,1793,5.74512,-18.6596
245,-769,5.71143,16.2483,0,0,0,0,0,0,0,-1,1469,1793,5.71137,-16.2483
252,-769,4.34961,12.5251,0,0,0,0,0,0,0,-1,1476,1793,4.34959,-12.5252
259,-769,16.4871,7.42102,0,0,0,0,0,0,0,-1,1483,1793,16.4871,-7.42104
266,-769,15.8488,7.3905,0,0,0,0,0,0,0,-1,1490,1793,15.8488,-7.39046
273,-769,14.8075,7.56152,0,0,0,0,0,0,0,-1,1497,1793,14.8075,-7.56152
280,-769,13.6519,7.43054,0,0,0,0,0,0,0,-1,1504,1793,13.6518,-7.43058
287,-769,0,0,0,0,0,0,0,0,0,-1,1511,1793,0,0
294,-769,0,0,0,0,0,0,0,0,0,-1,1518,1793,0,0
301,-769,0,0,0,0,0,0,0,0,0,-1,1525,1793,0,0
308,-769,0,0,0,0,0,0,0,0,0,-1,1532,1793,0,0
315,-769,0,0,0,0,0,0,0,0,0,-1,1539,1793,0,0
322,-769,0,0,0,0,0,0,0,0,0,-1,1546,1793,0,0
329,-769,0,0,0,0,0,0,0,0,0,-1,1553,1793,0,0
336,-769,0,0,0,0,0,0,0,0,0,-1,1560,1793,0,0
343,-769,0,0,0,0,0,0,0,0,0,-1,1567,1793,0,0
350,-769,0,0,0,0,0,0,0,0,0,-1,1574,1793,0,0
357,-769,0,0,0,0,0,0,0,0,0,-1,1581,1793,0,0
364,-769,0,0,0,0,0,0,0,0,0,-1,1588,1793,0,0
371,-769,0,0,0,0,0,0,0,0,0,-1,1595,1793,0,0
378,-769,0,0,0,0,0,0,0,0,0,-1,1602,1793,0,0
385,-769,0,0,0,0,0,0,0,0,0,-1,1609,1793,0,0
392,-769,0,0,0,0,0,0,0,0,0,-1,1616,1793,0,0
399,-769,0,0,0,0,0,0,0,0,0,-1,1623,1793,0,0
406,-769,0,0,0,0,0,0,0,0,0,-1,1630,1793,0,0
413,-769,0,0,0,0,0,0,0,0,0,-1,1637,1793,0,0
420,-769,0,0,0,0,0,0,0,0,0,-1,1644,1793,0,0
427,-769,0,0,0,0,0,0,0,0,0,-1,1651,1793,0,0
434,-769,0,0,0,0,0,0,0,0,0,-1,1658,1793,0,0
441,-769,0,0,0,0,0,0,0,0,0,-1,1665,1793,0,0
448,-769,0,0,0,0,0,0,0,0,0,-1,1672,1793,0,0
455,-769,0,0,0,0,0,0,0,0,0,-1,1679,1793,0,0
462,-769,0,0,0,0,0,0,0,0,0,-1,1686,1793,0,0
469,-769,0,0,0,0,0,0,0,0,0,-1,1693,1793,0,0
476,-769,0,0,0,0,0,0,0,0,0,-1,1700,1793,0,0
483,-769,0,0,0,0,0,0,0,0,0,-1,1707,1793,0,0
490,-769,0,0,0,0,0,0,0,0,0,-1,1714,1793,0,0
497,-769,0,0,0,0,0,0,0,0,0,-1,1721,1793,0,0
504,-769,0,0,0,0,0,0,0,0,0,-1,1728,1793,0,0
511,-769,0,0,0,0,0,0,0,0,0,-1,1735,1793,0,0
518,-769,0,0,0,0,0,0,0,0,0,-1,1742,1793,0,0
525,-769,0,0,0,0,0,0,0,0,0,-1,1749,1793,0,0
532,-769,0,0,0,0,0,0,0,0,0,-1,1756,1793,0,0
539,-769,0,0,0,0,0,0,0,0,0,-1,1763,1793,0,0
546,-769,0,0,0,0,0,0,0,0,0,-1,1770,1793,0,0
553,-769,0,0,0,0,0,0,0,0,0,-1,1777,1793,0,0
560,-769,0,0,0,0,0,0,0,0,0,-1,1784,1793,0,0
567,-769,0,0,0,0,0,0,0,0,0,-1,1791,1793,0,0
574,-769,0,0,0,0,0,0,0,0,0,-1,1798,1793,0,0
581,-769,0,0,0,0,0,0,0,0,0,-1,1805,1793,0,0
588,-769,0,0,0,0,0,0,0,0,0,-1,1812,1793,0,0
595,-769,0,0,0,0,0,0,0,0,0,-1,1819,1793,0,0
602,-769,0,0,0,0,0,0,0,0,0,-1,1826,1793,0,0
609,-769,0,0,0,0,0,0,0,0,0,-1,1833,1793,0,0
616,-769,0,0,0,0,0,0,0,0,0,-1,1840,1793,0,0
623,-769,0,0,0,0,0,0,0,0,0,-1,1847,1793,0,0
630,-769,0,0,0,0,0,0,0,0,0,-1,1854,1793,0,0
637,-769,0,0,0,0,0,0,0,0,0,-1,1861,1793,0,0
644,-769,0,0,0,0,0,0,0,0,0,-1,1868,1793,0,0
651,-769,0,0,0,0,0,0,0,0,0,-1,1875,1793,0,0
658,-769,0,0,0,0,0,0,0,0,0,-1,1882,1793,0,0
665,-769,0,0,0,0,0,0,0,0,0,-1,1889,1793,0,0
672,-769,0,0,0,0,0,0,0,0,0,-1,1896,1793,0,0
679,-769,0,0,0,0,0,0,0,0,0,-1,1903,1793,0,0
686,-769,0,0,0,0,0,0,0,0,0,-1,1910,1793,0,0
693,-769,0,0,0,0,0,0,0,0,0,-1,1917,1793,0,0
700,-769,0,0,0,0,0,0,0,0,0,-1,1924,1793,0,0
707,-769,0,0,0,0,0,0,0,0,0,-1,1931,1793,0,0
714,-769,0,0,0,0,0,0,0,0,0,-1,1938,1793,0,0
721,-769,0,0,0,0,0,0,0,0,0,-1,1945,1793,0,0
728,-769,0,0,0,0,0,0,0,0,0,-1,1952,1793,0,0
735,-769,0,0,0,0,0,0,0,0,0,-1,1959,1793,0,0
742,-769,0,0,0,0,0,0,0,0,0,-1,1966,1793,0,0
749,-769,0,0,0,0,0,0,0,0,0,-1,1973,1793,0,0
756,-769,0,0,0,0,0,0,0,0,0,-1,1980,1793,0,0
763,-769,0,0,0,0,0,0,0,0,0,-1,1987,1793,0,0
770,-769,0,0,0,0,0,0,0,0,0,-1,1994,1793,0,0
777,-769,0,0,0,0,0,0,0,0,0,-1,2001,1793,0,0
784,-769,0,0,0,0,0,0,0,0,0,-1,2008,1793,0,0
791,-769,0,0,0,0,0,0,0,0,0,-1,2015,1793,0,0
798,-769,0,0,0,0,0,0,0,0,0,-1,2022,1793,0,0
805,-769,0,0,0,0,0,0,0,0,0,-1,2029,1793,0,0
812,-769,0,0,0,0,0,0,0,0,0,-1,2036,1793,0,0
-700,-776,0,0,0,0,0,0,0,0,0,-1,524,1800,0,0
-693,-776,0,0,0,0,0,0,0,0,0,-1,531,1800,0,0
-686,-776,0,0,0,0,0,0,0,0,0,-1,538,1800,0,0
-679,-776,0,0,0,0,0,0,0,0,0,-1,545,1800,0,0
-672,-776,0,0,0,0,0,0,0,0,0,-1,552,1800,0,0
-665,-776,0,0,0,0,0,0,0,0,0,-1,559,1800,0,0
-658,-776,0,0,0,0,0,0,0,0,0,-1,566,1800,0,0
-651,-776,0,0,0,0,0,0,0,0,0,-1,573,1800,0,0
-644,-776,0,0,0,0,0,0,0,0,0,-1,580,1800,0,0
-637,-776,0,0,0,0,0,0,0,0,0,-1,587,1800,0,0
-630,-776,0,0,0,0,0,0,0,0,0,-1,594,1800,0,0
-623,-776,0,0,0,0,0,0,0,0,0,-1,601,1800,0,0
-616,-776,0,0,0,0,0,0,0,0,0,-1,608,1800,0,0
-609,-776,0,0,0,0,0,0,0,0,0,-1,615,1800,0,0
-602,-776,0,0,0,0,0,0,0,0,0,-1,622,1800,0,0
-595,-776,0,0,0,0,0,0,0,0,0,-1,629,1800,0,0
-588,-776,0,0,0,0,0,0,0,0,0,-1,636,1800,0,0
-581,-776,0,0,0,0,0,0,0,0,0,-1,643,1800,0,0
-574,-776,0,0,0,0,0,0,0,0,0,-1,650,1800,0,0
-567,-776,0,0,0,0,0,0,0,0,0,-1,657,1800,0,0
-560,-776,0,0,0,0,0,0,0,0,0,-1,664,1800,0,0
-553,-776,0,0,0,0,0,0,0,0,0,-1,671,1800,0,0
-546,-776,0,0,0,0,0,0,0,0,0,-1,678,1800,0,0
-539,-776,0,0,0,0,0,0,0,0,0,-1,685,1800,0,0
-532,-776,0,0,0,0,0,0,0,0,0,-1,692,1800,0,0
-525,-776,0,0,0,0,0,0,0,0,0,-1,699,1800,0,0
-518,-776,0,0,0,0,0,0,0,0,0,-1,706,1800,0,0
-511,-776,0,0,0,0,0,0,0,0,0,-1,713,1800,0,0
-504,-776,0,0,0,0,0,0,0,0,0,-1,720,1800,0,0
-497,-776,0,0,0,0,0,0,0,0,0,-1,727,1800,0,0
-490,-776,0,0,0,0,0,0,0,0,0,-1,734,1800,0,0
-483,-776,0,0,0,0,0,0,0,0,0,-1,741,1800,0,0
-476,-776,0,0,0,0,0,0,0,0,0,-1,748,1800,0,0
-469,-776,0,0,0,0,0,0,0,0,0,-1,755,1800,0,0
-462,-776,0,0,0,0,0,0,0,0,0,-1,762,1800,0,0
-455,-776,0,0,0,0,0,0,0,0,0,-1,769,1800,0,0
-448,-776,0,0,0,0,0,0,0,0,0,-1,776,1800,0,0
-441,-776,0,0,0,0,0,0,0,0,0,-1,783,1800,0,0
-434,-776,0,0,0,0,0,0,0,0,0,-1,790,1800,0,0
-427,-776,0,0,0,0,0,0,0,0,0,-1,797,1800,0,0
-420,-776,0,0,0,0,0,0,0,0,0,-1,804,1800,0,0
-413,-776,0,0,0,0,0,0,0,0,0,-1,811,1800,0,0
-406,-776,0,0,0,0,0,0,0,0,0,-1,818,1800,0,0
-399,-776,0,0,0,0,0,0,0,0,0,-1,825,1800,0,0
-392,-776,0,0,0,0,0,0,0,0,0,-1,832,1800,0,0
-385,-776,0,0,0,0,0,0,0,0,0,-1,839,1800,0,0
-378,-776,0,0,0,0,0,0,0,0,0,-1,846,1800,0,0
-371,-776,0,0,0,0,0,0,0,0,0,-1,853,1800,0,0
-364,-776,0,0,0,0,0,0,0,0,0,-1,860,1800,0,0
-357,-776,0,0,0,0,0,0,0,0,0,-1,867,1800,0,0
-350,-776,0,0,0,0,0,0,0,0,0,-1,874,1800,0,0
-343,-776,0,0,0,0,0,0,0,0,0,-1,881,1800,0,0
-336,-776,0,0,0,0,0,0,0,0,0,-1,888,1800,0,0
-329,-776,0,0,0,0,0,0,0,0,0,-1,895,1800,0,0
-322,-776,0,0,0,0,0,0,0,0,0,-1,902,1800,0,0
-315,-776,0,0,0,0,0,0,0,0,0,-1,909,1800,0,0
-308,-776,0,0,0,0,0,0,0,0,0,-1,916,1800,0,0
-301,-776,0,0,0,0,0,0,0,0,0,-1,923,1800,0,0
-294,-776,0,0,0,0,0,0,0,0,0,-1,930,1800,0,0
-287,-776,0,0,0,0,0,0,0,0,0,-1,937,1800,0,0
-280,-776,0,0,0,0,0,0,0,0,0,-1,944,1800,0,0
-273,-776,0,0,0,0,0,0,0,0,0,-1,951,1800,0,0
-266,-776,0,0,0,0,0,0,0,0,0,-1,958,1800,0,0
-259,-776,0,0,0,0,0,0,0,0,0,-1,965,1800,0,0
-252,-776,0,0,0,0,0,0,0,0,0,-1,972,1800,0,0
-245,-776,0,0,0,0,0,0,0,0,0,-1,979,1800,0,0
-238,-776,0,0,0,0,0,0,0,0,0,-1,986,1800,0,0
-231,-776,0,0,0,0,0,0,0,0,0,-1,993,1800,0,0
-224,-776,0,0,0,0,0,0,0,0,0,-1,1000,1800,0,0
-217,-776,0,0,0,0,0,0,0,0,0,-1,1007,1800,0,0
-210,-776,0,0,0,0,0,0,0,0,0,-1,1014,1800,0,0
-203,-776,0,0,0,0,0,0,0,0,0,-1,1021,1800,0,0
-196,-776,0,0,0,0,0,0,0,0,0,-1,1028,1800,0,0
-189,-776,0,0,0,0,0,0,0,0,0,-1,1035,1800,0,0
-182,-776,0,0,0,0,0,0,0,0,0,-1,1042,1800,0,0
-175,-776,0,0,0,0,0,0,0,0,0,-1,1049,1800,0,0
-168,-776,0,0,0,0,0,0,0,0,0,-1,1056,1800,0,0
-161,-776,0,0,0,0,0,0,0,0,0,-1,1063,1800,0,0
-154,-776,0,0,0,0,0,0,0,0,0,-1,1070,1800,0,0
-147,-776,0,0,0,0,0,0,0,0,0,-1,1077,1800,0,0
-140,-776,2.98499,5.20911,0,0,0,0,0,0,0,-1,1084,1800,2.98493,-5.2091
-133,-776,6.72363,9.35828,0,0,0,0,0,0,0,-1,1091,1800,6.72358,-9.35824
-126,-776,6.55029,13.7832,0,0,0,0,0,0,0,-1,1098,1800,6.55029,-13.7832
-119,-776,5.72107,13.7787,0,0,0,0,0,0,0,-1,1105,1800,5.72106,-13.7787
-112,-776,6.84998,20.4421,0,0,0,0,0,0,0,-1,1112,1800,6.84993,-20.4421
-105,-776,2.15039,19.7095,0,0,0,0,0,0,0,-1,1119,1800,2.1504,-19.7095
-98,-776,3.73413,20.6542,0,0,0,0,0,0,0,-1,1126,1800,3.73418,-20.6541
-91,-776,3.61462,18.3563,0,0,0,0,0,0,0,-1,1133,1800,3.6146,-18.3564
-84,-776,3.16504,15.3834,0,0,0,0,0,0,0,-1,1140,1800,3.16509,-15.3835
-77,-776,0.580078,11.1272,0,0,0,0,0,0,0,-1,1147,1800,0.58002,-11.1272
-70,-776,-0.562866,12.3163,0,0,0,0,0,0,0,-1,1154,1800,-0.562897,-12.3163
-63,-776,-3.96106,9.97656,0,0,0,0,0,0,0,-1,1161,1800,-3.961,-9.97654
-56,-776,-7.35913,7.63672,0,0,0,0,0,0,0,-1,1168,1800,-7.3591,-7.63676
-49,-776,-7.62952,3.1908,0,0,0,0,0,0,0,-1,1175,1800,-7.62955,-3.19076
-42,-776,-3.41272,3.0249,0,0,0,0,0,0,0,-1,1182,1800,-3.41269,-3.02488
-35,-776,-3.71753,1.63635,0,0,0,0,0,0,0,-1,1189,1800,-3.71755,-1.63631
-28,-776,-4.03979,0.716064,0,0,0,0,0,0,0,-1,1196,1800,-4.03977,-0.716055
-21,-776,5.11829,22.4838,0,0,0,0,0,0,0,-1,1203,1800,5.11828,-22.4838
-14,-776,5.71814,22.9331,0,0,0,0,0,0,0,-1,1210,1800,5.71811,-22.9332
-7,-776,6.4585,23.113,0,0,0,0,0,0,0,-1,1217,1800,6.45853,-23.113
0,-776,6.66858,23.7529,0.0271282,0.0519104,-0.000849444,0.0519395,0.0270991,-1.53657,0.0299967,0.0467572,1224,1800,6.66861,-23.7529
7,-776,6.73804,24.6024,0.0236114,0.0434512,0.00233229,0.0437217,0.0233409,1.45534,0.025262,0.0470074,1231,1800,6.73806,-24.6024
14,-776,6.25977,24.8785,0,0,0,0,0,0,0,-1,1238,1800,6.25976,-24.8785
21,-776,6.6322,26.2224,0,0,0,0,0,0,0,-1,1245,1800,6.63218,-26.2224
28,-776,6.48083,27.1132,0,0,0,0,0,0,0,-1,1252,1800,6.48086,-27.1132
35,-776,4.70972,22.5909,0,0,0,0,0,0,0,-1,1259,1800,4.70977,-22.591
42,-776,4.98462,22.875,0,0,0,0,0,0,0,-1,1266,1800,4.98462,-22.875
49,-776,6.51123,25.0375,0.0197149,0.0214051,0.017188,0.0377687,0.00335121,0.809962,0.0241397,0.0437965,1273,1800,6.51128,-25.0375
56,-776,5.72827,23.7156,0.0197592,0.0200025,0.017601,0.0374823,0.00227941,0.788855,0.0242641,0.0459507,1280,1800,5.72827,-23.7156
63,-776,6.18042,24.2039,0.0197693,0.0190244,0.0173724,0.0367733,0.00202047,0.77468,0.0238705,0.0467004,1287,1800,6.18039,-24.2038
70,-776,6.30103,24.9229,0,0,0,0,0,0,0,-1,1294,1800,6.30102,-24.9228
77,-776,6.19263,25.1279,0,0,0,0,0,0,0,-1,1301,1800,6.19263,-25.1279
84,-776,6.13049,25.0886,0,0,0,0,0,0,0,-1,1308,1800,6.13045,-25.0886
91,-776,6.15466,25.0604,0,0,0,0,0,0,0,-1,1315,1800,6.15468,-25.0605
98,-776,5.63257,25.455,0.00397588,0.00982178,0.0134111,0.0206248,-0.00682713,0.892695,0.0165032,0.0417555,1322,1800,5.63253,-25.4549
105,-776,5.30005,25.1304,-1.93713e-05,0.0079223,0.0126163,0.0171779,-0.00927501,0.937859,0.0154981,0.0455751,1329,1800,5.30008,-25.1304
112,-776,4.98474,24.8068,0,0,0,0,0,0,0,-1,1336,1800,4.98476,-24.8067
119,-776,5.70374,24.9587,0,0,0,0,0,0,0,-1,1343,1800,5.7037,-24.9588
126,-776,5.7627,24.916,-0.0118086,0.00807706,0.011299,0.013185,-0.0169166,1.14622,0.0174236,0.0466085,1350,1800,5.76271,-24.916
133,-776,6.06213,24.6741,0,0,0,0,0,0,0,-1,1357,1800,6.06209,-24.6741
140,-776,6.09375,24.6232,0,0,0,0,0,0,0,-1,1364,1800,6.09369,-24.6232
147,-776,0.692017,19.6906,0,0,0,0,0,0,0,-1,1371,1800,0.69197,-19.6906
154,-776,6.43774,0.344116,0,0,0,0,0,0,0,-1,1378,1800,6.43776,-0.344162
161,-776,6.50293,1.1731,0,0,0,0,0,0,0,-1,1385,1800,6.5029,-1.17313
168,-776,8.44971,1.22913,0,0,0,0,0,0,0,-1,1392,1800,8.44974,-1.22915
175,-776,8.61523,2.87061,0,0,0,0,0,0,0,-1,1399,1800,8.6152,-2.87063
182,-776,8.54065,4.60645,0,0,0,0,0,0,0,-1,1406,1800,8.5407,-4.60643
189,-776,8.35303,6.28223,0,0,0,0,0,0,0,-1,1413,1800,8.35297,-6.28225
196,-776,8.0387,8.21704,0,0,0,0,0,0,0,-1,1420,1800,8.03865,-8.217
203,-776,7.91736,9.79919,0,0,0,0,0,0,0,-1,1427,1800,7.91735,-9.79922
210,-776,20.2479,7.85718,0,0,0,0,0,0,0,-1,1434,1800,20.248,-7.85719
217,-776,21.5171,9.3418,0,0,0,0,0,0,0,-1,1441,1800,21.5171,-9.34182
224,-776,3.09253,14.9313,0,0,0,0,0,0,0,-1,1448,1800,3.09254,-14.9313
231,-776,20.8671,9.21057,0,0,0,0,0,0,0,-1,1455,1800,20.867,-9.21054
238,-776,20.7511,9.05847,0,0,0,0,0,0,0,-1,1462,1800,20.7511,-9.05848
245,-776,3.80823,15.4108,0,0,0,0,0,0,0,-1,1469,1800,3.80826,-15.4108
252,-776,16.6313,6.47168,0,0,0,0,0,0,0,-1,1476,1800,16.6313,-6.47165
259,-776,14.1882,7.69055,0,0,0,0,0,0,0,-1,1483,1800,14.1882,-7.69061
266,-776,0,0,0,0,0,0,0,0,0,-1,1490,1800,0,0
273,-776,0,0,0,0,0,0,0,0,0,-1,1497,1800,0,0
280,-776,0,0,0,0,0,0,0,0,0,-1,1504,1800,0,0
287,-776,0,0,0,0,0,0,0,0,0,-1,1511,1800,0,0
294,-776,0,0,0,0,0,0,0,0,0,-1,1518,1800,0,0
301,-776,0,0,0,0,0,0,0,0,0,-1,1525,1800,0,0
308,-776,0,0,0,0,0,0,0,0,0,-1,1532,1800,0,0
315,-776,0,0,0,0,0,0,0,0,0,-1,1539,1800,0,0
322,-776,0,0,0,0,0,0,0,0,0,-1,1546,1800,0,0
329,-776,0,0,0,0,0,0,0,0,0,-1,1553,1800,0,0
336,-776,0,0,0,0,0,0,0,0,0,-1,1560,1800,0,0
343,-776,0,0,0,0,0,0,0,0,0,-1,1567,1800,0,0
350,-776,0,0,0,0,0,0,0,0,0,-1,1574,1800,0,0
357,-776,0,0,0,0,0,0,0,0,0,-1,1581,1800,0,0
364,-776,0,0,0,0,0,0,0,0,0,-1,1588,1800,0,0
371,-776,0,0,0,0,0,0,0,0,0,-1,1595,1800,0,0
378,-776,0,0,0,0,0,0,0,0,0,-1,1602,1800,0,0
385,-776,0,0,0,0,0,0,0,0,0,-1,1609,1800,0,0
392,-776,0,0,0,0,0,0,0,0,0,-1,1616,1800,0,0
399,-776,0,0,0,0,0,0,0,0,0,-1,1623,1800,0,0
406,-776,0,0,0,0,0,0,0,0,0,-1,1630,1800,0,0
413,-776,0,0,0,0,0,0,0,0,0,-1,1637,1800,0,0
420,-776,0,0,0,0,0,0,0,0,0,-1,1644,1800,0,0
427,-776,0,0,0,0,0,0,0,0,0,-1,1651,1800,0,0
434,-776,0,0,0,0,0,0,0,0,0,-1,1658,1800,0,0
441,-776,0,0,0,0,0,0,0,0,0,-1,1665,1800,0,0
448,-776,0,0,0,0,0,0,0,0,0,-1,1672,1800,0,0
455,-776,0,0,0,0,0,0,0,0,0,-1,1679,1800,0,0
462,-776,0,0,0,0,0,0,0,0,0,-1,1686,1800,0,0
469,-776,0,0,0,0,0,0,0,0,0,-1,1693,1800,0,0
476,-776,0,0,0,0,0,0,0,0,0,-1,1700,1800,0,0
483,-776,0,0,0,0,0,0,0,0,0,-1,1707,1800,0,0
490,-776,0,0,0,0,0,0,0,0,0,-1,1714,1800,0,0
497,-776,0,0,0,0,0,0,0,0,0,-1,1721,1800,0,0
504,-776,0,0,0,0,0,0,0,0,0,-1,1728,1800,0,0
511,-776,0,0,0,0,0,0,0,0,0,-1,1735,1800,0,0
518,-776,0,0,0,0,0,0,0,0,0,-1,1742,1800,0,0
525,-776,0,0,0,0,0,0,0,0,0,-1,1749,1800,0,0
532,-776,0,0,0,0,0,0,0,0,0,-1,1756,1800,0,0
539,-776,0,0,0,0,0,0,0,0,0,-1,1763,1800,0,0
546,-776,0,0,0,0,0,0,0,0,0,-1,1770,1800,0,0
553,-776,0,0,0,0,0,0,0,0,0,-1,1777,1800,0,0
560,-776,0,0,0,0,0,0,0,0,0,-1,1784,1800,0,0
567,-776,0,0,0,0,0,0,0,0,0,-1,1791,1800,0,0
574,-776,0,0,0,0,0,0,0,0,0,-1,1798,1800,0,0
581,-776,0,0,0,0,0,0,0,0,0,-1,1805,1800,0,0
588,-776,0,0,0,0,0,0,0,0,0,-1,1812,1800,0,0
595,-776,0,0,0,0,0,0,0,0,0,-1,1819,1800,0,0
602,-776,0,0,0,0,0,0,0,0,0,-1,1826,1800,0,0
609,-776,0,0,0,0,0,0,0,0,0,-1,1833,1800,0,0
616,-776,0,0,0,0,0,0,0,0,0,-1,1840,1800,0,0
623,-776,0,0,0,0,0,0,0,0,0,-1,1847,1800,0,0
630,-776,0,0,0,0,0,0,0,0,0,-1,1854,1800,0,0
637,-776,0,0,0,0,0,0,0,0,0,-1,1861,1800,0,0
644,-776,0,0,0,0,0,0,0,0,0,-1,1868,1800,0,0
651,-776,0,0,0,0,0,0,0,0,0,-1,1875,1800,0,0
658,-776,0,0,0,0,0,0,0,0,0,-1,1882,1800,0,0
665,-776,0,0,0,0,0,0,0,0,0,-1,1889,1800,0,0
672,-776,0,0,0,0,0,0,0,0,0,-1,1896,1800,0,0
679,-776,0,0,0,0,0,0,0,0,0,-1,1903,1800,0,0
686,-776,0,0,0,0,0,0,0,0,0,-1,1910,1800,0,0
693,-776,0,0,0,0,0,0,0,0,0,-1,1917,1800,0,0
700,-776,0,0,0,0,0,0,0,0,0,-1,1924,1800,0,0
707,-776,0,0,0,0,0,0,0,0,0,-1,1931,1800,0,0
714,-776,0,0,0,0,0,0,0,0,0,-1,1938,1800,0,0
721,-776,0,0,0,0,0,0,0,0,0,-1,1945,1800,0,0
728,-776,0,0,0,0,0,0,0,0,0,-1,1952,1800,0,0
735,-776,0,0,0,0,0,0,0,0,0,-1,1959,1800,0,0
742,-776,0,0,0,0,0,0,0,0,0,-1,1966,1800,0,0
749,-776,0,0,0,0,0,0,0,0,0,-1,1973,1800,0,0
756,-776,0,0,0,0,0,0,0,0,0,-1,1980,1800,0,0
763,-776,0,0,0,0,0,0,0,0,0,-1,1987,1800,0,0
770,-776,0,0,0,0,0,0,0,0,0,-1,1994,1800,0,0
777,-776,0,0,0,0,0,0,0,0,0,-1,2001,1800,0,0
784,-776,0,0,0,0,0,0,0,0,0,-1,2008,1800,0,0
791,-776,0,0,0,0,0,0,0,0,0,-1,2015,1800,0,0
798,-776,0,0,0,0,0,0,0,0,0,-1,2022,1800,0,0
805,-776,0,0,0,0,0,0,0,0,0,-1,2029,1800,0,0
812,-776,0,0,0,0,0,0,0,0,0,-1,2036,1800,0,0
-700,-783,0,0,0,0,0,0,0,0,0,-1,524,1807,0,0
-693,-783,0,0,0,0,0,0,0,0,0,-1,531,1807,0,0
-686,-783,0,0,0,0,0,0,0,0,0,-1,538,1807,0,0
-679,-783,0,0,0,0,0,0,0,0,0,-1,545,1807,0,0
-672,-783,0,0,0,0,0,0,0,0,0,-1,552,1807,0,0
-665,-783,0,0,0,0,0,0,0,0,0,-1,559,1807,0,0
-658,-783,0,0,0,0,0,0,0,0,0,-1,566,1807,0,0
-651,-783,0,0,0,0,0,0,0,0,0,-1,573,1807,0,0
-644,-783,0,0,0,0,0,0,0,0,0,-1,580,1807,0,0
-637,-783,0,0,0,0,0,0,0,0,0,-1,587,1807,0,0
-630,-783,0,0,0,0,0,0,0,0,0,-1,594,1807,0,0
-623,-783,0,0,0,0,0,0,0,0,0,-1,601,1807,0,0
-616,-783,0,0,0,0,0,0,0,0,0,-1,608,1807,0,0
-609,-783,0,0,0,0,0,0,0,0,0,-1,615,1807,0,0
-602,-783,0,0,0,0,0,0,0,0,0,-1,622,1807,0,0
-595,-783,0,0,0,0,0,0,0,0,0,-1,629,1807,0,0
-588,-783,0,0,0,0,0,0,0,0,0,-1,636,1807,0,0
-581,-783,0,0,0,0,0,0,0,0,0,-1,643,1807,0,0
-574,-783,0,0,0,0,0,0,0,0,0,-1,650,1807,0,0
-567,-783,0,0,0,0,0,0,0,0,0,-1,657,1807,0,0
-560,-783,0,0,0,0,0,0,0,0,0,-1,664,1807,0,0
-553,-783,0,0,0,0,0,0,0,0,0,-1,671,1807,0,0
-546,-783,0,0,0,0,0,0,0,0,0,-1,678,1807,0,0
-539,-783,0,0,0,0,0,0,0,0,0,-1,685,1807,0,0
-532,-783,0,0,0,0,0,0,0,0,0,-1,692,1807,0,0
-525,-783,0,0,0,0,0,0,0,0,0,-1,699,1807,0,0
-518,-783,0,0,0,0,0,0,0,0,0,-1,706,1807,0,0
-511,-783,0,0,0,0,0,0,0,0,0,-1,713,1807,0,0
-504,-783,0,0,0,0,0,0,0,0,0,-1,720,1807,0,0
-497,-783,0,0,0,0,0,0,0,0,0,-1,727,1807,0,0
-490,-783,0,0,0,0,0,0,0,0,0,-1,734,1807,0,0
-483,-783,0,0,0,0,0,0,0,0,0,-1,741,1807,0,0
-476,-783,0,0,0,0,0,0,0,0,0,-1,748,1807,0,0
-469,-783,0,0,0,0,0,0,0,0,0,-1,755,1807,0,0
-462,-783,0,0,0,0,0,0,0,0,0,-1,762,1807,0,0
-455,-783,0,0,0,0,0,0,0,0,0,-1,769,1807,0,0
-448,-783,0,0,0,0,0,0,0,0,0,-1,776,1807,0,0
-441,-783,0,0,0,0,0,0,0,0,0,-1,783,1807,0,0
-434,-783,0,0,0,0,0,0,0,0,0,-1,790,1807,0,0
-427,-783,0,0,0,0,0,0,0,0,0,-1,797,1807,0,0
-420,-783,0,0,0,0,0,0,0,0,0,-1,804,1807,0,0
-413,-783,0,0,0,0,0,0,0,0,0,-1,811,1807,0,0
-406,-783,0,0,0,0,0,0,0,0,0,-1,818,1807,0,0
-399,-783,0,0,0,0,0,0,0,0,0,-1,825,1807,0,0
-392,-783,0,0,0,0,0,0,0,0,0,-1,832,1807,0,0
-385,-783,0,0,0,0,0,0,0,0,0,-1,839,1807,0,0
-378,-783,0,0,0,0,0,0,0,0,0,-1,846,1807,0,0
-371,-783,0,0,0,0,0,0,0,0,0,-1,853,1807,0,0
-364,-783,0,0,0,0,0,0,0,0,0,-1,860,1807,0,0
-357,-783,0,0,0,0,0,0,0,0,0,-1,867,1807,0,0
-350,-783,0,0,0,0,0,0,0,0,0,-1,874,1807,0,0
-343,-783,0,0,0,0,0,0,0,0,0,-1,881,1807,0,0
-336,-783,0,0,0,0,0,0,0,0,0,-1,888,1807,0,0
-329,-783,0,0,0,0,0,0,0,0,0,-1,895,1807,0,0
-322,-783,0,0,0,0,0,0,0,0,0,-1,902,1807,0,0
-315,-783,0,0,0,0,0,0,0,0,0,-1,909,1807,0,0
-308,-783,0,0,0,0,0,0,0,0,0,-1,916,1807,0,0
-301,-783,0,0,0,0,0,0,0,0,0,-1,923,1807,0,0
-294,-783,0,0,0,0,0,0,0,0,0,-1,930,1807,0,0
-287,-783,0,0,0,0,0,0,0,0,0,-1,937,1807,0,0
-280,-783,0,0,0,0,0,0,0,0,0,-1,944,1807,0,0
-273,-783,0,0,0,0,0,0,0,0,0,-1,951,1807,0,0
-266,-783,0,0,0,0,0,0,0,0,0,-1,958,1807,0,0
-259,-783,0,0,0,0,0,0,0,0,0,-1,965,1807,0,0
-252,-783,0,0,0,0,0,0,0,0,0,-1,972,1807,0,0
-245,-783,0,0,0,0,0,0,0,0,0,-1,979,1807,0,0
-238,-783,0,0,0,0,0,0,0,0,0,-1,986,1807,0,0
-231,-783,0,0,0,0,0,0,0,0,0,-1,993,1807,0,0
-224,-783,0,0,0,0,0,0,0,0,0,-1,1000,1807,0,0
-217,-783,0,0,0,0,0,0,0,0,0,-1,1007,1807,0,0
-210,-783,0,0,0,0,0,0,0,0,0,-1,1014,1807,0,0
-203,-783,0,0,0,0,0,0,0,0,0,-1,1021,1807,0,0
-196,-783,0,0,0,0,0,0,0,0,0,-1,1028,1807,0,0
-189,-783,0,0,0,0,0,0,0,0,0,-1,1035,1807,0,0
-182,-783,0,0,0,0,0,0,0,0,0,-1,1042,1807,0,0
-175,-783,0,0,0,0,0,0,0,0,0,-1,1049,1807,0,0
-168,-783,0,0,0,0,0,0,0,0,0,-1,1056,1807,0,0
-161,-783,0,0,0,0,0,0,0,0,0,-1,1063,1807,0,0
-154,-783,0,0,0,0,0,0,0,0,0,-1,1070,1807,0,0
-147,-783,0,0,0,0,0,0,0,0,0,-1,1077,1807,0,0
-140,-783,0,0,0,0,0,0,0,0,0,-1,1084,1807,0,0
-133,-783,0,0,0,0,0,0,0,0,0,-1,1091,1807,0,0
-126,-783,0,0,0,0,0,0,0,0,0,-1,1098,1807,0,0
-119,-783,0,0,0,0,0,0,0,0,0,-1,1105,1807,0,0
-112,-783,5.33936,14.7699,0,0,0,0,0,0,0,-1,1112,1807,5.33931,-14.7699
-105,-783,6.44263,21.2224,0,0,0,0,0,0,0,-1,1119,1807,6.44263,-21.2224
-98,-783,5.54773,20.5695,0,0,0,0,0,0,0,-1,1126,1807,5.54772,-20.5695
-91,-783,2.94019,20.911,0,0,0,0,0,0,0,-1,1133,1807,2.94022,-20.911
-84,-783,-0.0491943,14.5743,0,0,0,0,0,0,0,-1,1140,1807,-0.0491562,-14.5743
-77,-783,0.332764,12.7788,0,0,0,0,0,0,0,-1,1147,1807,0.332743,-12.7788
-70,-783,-1.93176,5.12817,0,0,0,0,0,0,0,-1,1154,1807,-1.93171,-5.12813
-63,-783,-5.31702,10.54,0,0,0,0,0,0,0,-1,1161,1807,-5.31703,-10.54
-56,-783,-6.26135,6.9679,0,0,0,0,0,0,0,-1,1168,1807,-6.26136,-6.96785
-49,-783,-3.17688,4.59705,0,0,0,0,0,0,0,-1,1175,1807,-3.17685,-4.5971
-42,-783,-3.72876,3.1405,0,0,0,0,0,0,0,-1,1182,1807,-3.72874,-3.14055
-35,-783,-3.97046,1.59399,0,0,0,0,0,0,0,-1,1189,1807,-3.97041,-1.59401
-28,-783,-4.12195,0.270386,0,0,0,0,0,0,0,-1,1196,1807,-4.12197,-0.270408
-21,-783,5.5,22.366,0,0,0,0,0,0,0,-1,1203,1807,5.5,-22.366
-14,-783,6.17456,22.6038,0.0569223,0.0986701,-0.0129161,0.102343,0.0532494,-1.29374,0.059104,0.0468724,1210,1807,6.17451,-22.6038
-7,-783,6.66077,23.0067,0.046141,0.0812997,-0.00715678,0.0827007,0.04474,-1.37749,0.0478007,0.0463457,1217,1807,6.66076,-23.0067
0,-783,7.19604,23.3927,0.0376172,0.0679093,-0.00186115,0.0680232,0.0375033,-1.50966,0.0393422,0.0451589,1224,1807,7.19607,-23.3927
7,-783,7.32214,24.391,0.0333898,0.0568536,0.00251019,0.0571192,0.0331243,1.4654,0.0331179,0.0477214,1231,1807,7.32208,-24.3909
14,-783,7.276,25.282,0.0323995,0.0487074,0.00664024,0.0510691,0.0300377,1.22908,0.0296372,0.0478367,1238,1807,7.27599,-25.282
21,-783,7.09375,26.1693,0.0308013,0.0432596,0.0115298,0.0501354,0.0239255,1.03307,0.0289557,0.0481514,1245,1807,7.09374,-26.1693
28,-783,4.18628,21.8719,0,0,0,0,0,0,0,-1,1252,1807,4.18629,-21.872
35,-783,4.57751,22.2861,0,0,0,0,0,0,0,-1,1259,1807,4.57749,-22.2861
42,-783,4.90857,22.639,0,0,0,0,0,0,0,-1,1266,1807,4.90853,-22.6391
49,-783,5.18872,23.1292,0.0271253,0.026274,0.0221634,0.0488672,0.00453216,0.775796,0.0311774,0.0477973,1273,1807,5.18867,-23.1291
56,-783,5.57031,23.6106,0.0270958,0.0245585,0.0227401,0.0486026,0.00305168,0.757533,0.0314339,0.0462998,1280,1807,5.57029,-23.6106
63,-783,6.17175,24.0582,0.0268197,0.0233952,0.0224265,0.0475992,0.00261566,0.747298,0.0308979,0.0480305,1287,1807,6.17179,-24.0582
70,-783,6.84644,24.5256,0.0245285,0.022086,0.0217833,0.0451248,0.00148974,0.757395,0.0295991,0.0474746,1294,1807,6.84643,-24.5256
77,-783,6.16833,25.1451,0,0,0,0,0,0,0,-1,1301,1807,6.16835,-25.1452
84,-783,6.23718,25.0956,0.0159394,0.0166159,0.0196948,0.0359754,-0.0034201,0.793986,0.0252011,0.0481964,1308,1807,6.23714,-25.0955
91,-783,6.44507,25.3171,0.0106029,0.0139799,0.0183907,0.0307594,-0.0061767,0.831176,0.0228452,0.0449425,1315,1807,6.44507,-25.3171
98,-783,6.60535,25.9113,0.00525435,0.0122512,0.0172765,0.0263799,-0.00887435,0.885295,0.0211739,0.0467442,1322,1807,6.60536,-25.9112
105,-783,6.72717,26.3489,0,0,0,0,0,0,0,-1,1329,1807,6.72713,-26.3489
112,-783,6.31848,24.5077,0,0,0,0,0,0,0,-1,1336,1807,6.31851,-24.5077
119,-783,5.91003,24.7303,-0.0119741,0.011064,0.0156769,0.0189989,-0.019909,1.10224,0.0224655,0.0447493,1343,1807,5.90999,-24.7303
126,-783,5.71021,24.892,-0.015676,0.0113593,0.0155851,0.0184722,-0.022789,1.14264,0.0238656,0.0473351,1350,1807,5.71018,-24.892
133,-783,5.82129,24.8496,0,0,0,0,0,0,0,-1,1357,1807,5.82129,-24.8496
140,-783,7.32922,23.1105,0,0,0,0,0,0,0,-1,1364,1807,7.32919,-23.1104
147,-783,-0.104248,19.9227,0,0,0,0,0,0,0,-1,1371,1807,-0.104237,-19.9227
154,-783,22.8251,14.2119,0,0,0,0,0,0,0,-1,1378,1807,22.8251,-14.2119
161,-783,6.57568,1.16174,0,0,0,0,0,0,0,-1,1385,1807,6.57562,-1.1617
168,-783,8.62561,1.79944,0,0,0,0,0,0,0,-1,1392,1807,8.62561,-1.79946
175,-783,8.78699,3.40857,0,0,0,0,0,0,0,-1,1399,1807,8.78697,-3.40854
182,-783,8.70984,5.14661,0,0,0,0,0,0,0,-1,1406,1807,8.70989,-5.14666
189,-783,8.55762,6.79871,0,0,0,0,0,0,0,-1,1413,1807,8.55766,-6.79872
196,-783,8.25488,8.66626,0,0,0,0,0,0,0,-1,1420,1807,8.25492,-8.66628
203,-783,7.86755,10.5735,0,0,0,0,0,0,0,-1,1427,1807,7.8676,-10.5734
210,-783,5.6969,8.99231,0,0,0,0,0,0,0,-1,1434,1807,5.69693,-8.99234
217,-783,5.28503,3.80872,0,0,0,0,0,0,0,-1,1441,1807,5.285,-3.80868
224,-783,3.22571,6.62903,0,0,0,0,0,0,0,-1,1448,1807,3.2257,-6.62907
231,-783,4.27942,4.56262,0,0,0,0,0,0,0,-1,1455,1807,4.27948,-4.56267
238,-783,0,0,0,0,0,0,0,0,0,-1,1462,1807,0,0
245,-783,0,0,0,0,0,0,0,0,0,-1,1469,1807,0,0
252,-783,0,0,0,0,0,0,0,0,0,-1,1476,1807,0,0
259,-783,0,0,0,0,0,0,0,0,0,-1,1483,1807,0,0
266,-783,0,0,0,0,0,0,0,0,0,-1,1490,1807,0,0
273,-783,0,0,0,0,0,0,0,0,0,-1,1497,1807,0,0
280,-783,0,0,0,0,0,0,0,0,0,-1,1504,1807,0,0
287,-783,0,0,0,0,0,0,0,0,0,-1,1511,1807,0,0
294,-783,0,0,0,0,0,0,0,0,0,-1,1518,1807,0,0
301,-783,0,0,0,0,0,0,0,0,0,-1,1525,1807,0,0
308,-783,0,0,0,0,0,0,0,0,0,-1,1532,1807,0,0
315,-783,0,0,0,0,0,0,0,0,0,-1,1539,1807,0,0
322,-783,0,0,0,0,0,0,0,0,0,-1,1546,1807,0,0
329,-783,0,0,0,0,0,0,0,0,0,-1,1553,1807,0,0
336,-783,0,0,0,0,0,0,0,0,0,-1,1560,1807,0,0
343,-783,0,0,0,0,0,0,0,0,0,-1,1567,1807,0,0
350,-783,0,0,0,0,0,0,0,0,0,-1,1574,1807,0,0
357,-783,0,0,0,0,0,0,0,0,0,-1,1581,1807,0,0
364,-783,0,0,0,0,0,0,0,0,0,-1,1588,1807,0,0
371,-783,0,0,0,0,0,0,0,0,0,-1,1595,1807,0,0
378,-783,0,0,0,0,0,0,0,0,0,-1,1602,1807,0,0
385,-783,0,0,0,0,0,0,0,0,0,-1,1609,1807,0,0
392,-783,0,0,0,0,0,0,0,0,0,-1,1616,1807,0,0
399,-783,0,0,0,0,0,0,0,0,0,-1,1623,1807,0,0
406,-783,0,0,0,0,0,0,0,0,0,-1,1630,1807,0,0
413,-783,0,0,0,0,0,0,0,0,0,-1,1637,1807,0,0
420,-783,0,0,0,0,0,0,0,0,0,-1,1644,1807,0,0
427,-783,0,0,0,0,0,0,0,0,0,-1,1651,1807,0,0
434,-783,0,0,0,0,0,0,0,0,0,-1,1658,1807,0,0
441,-783,0,0,0,0,0,0,0,0,0,-1,1665,1807,0,0
448,-783,0,0,0,0,0,0,0,0,0,-1,1672,1807,0,0
455,-783,0,0,0,0,0,0,0,0,0,-1,1679,1807,0,0
462,-783,0,0,0,0,0,0,0,0,0,-1,1686,1807,0,0
469,-783,0,0,0,0,0,0,0,0,0,-1,1693,1807,0,0
476,-783,0,0,0,0,0,0,0,0,0,-1,1700,1807,0,0
483,-783,0,0,0,0,0,0,0,0,0,-1,1707,1807,0,0
490,-783,0,0,0,0,0,0,0,0,0,-1,1714,1807,0,0
497,-783,0,0,0,0,0,0,0,0,0,-1,1721,1807,0,0
504,-783,0,0,0,0,0,0,0,0,0,-1,1728,1807,0,0
511,-783,0,0,0,0,0,0,0,0,0,-1,1735,1807,0,0
518,-783,0,0,0,0,0,0,0,0,0,-1,1742,1807,0,0
525,-783,0,0,0,0,0,0,0,0,0,-1,1749,1807,0,0
532,-783,0,0,0,0,0,0,0,0,0,-1,1756,1807,0,0
539,-783,0,0,0,0,0,0,0,0,0,-1,1763,1807,0,0
546,-783,0,0,0,0,0,0,0,0,0,-1,1770,1807,0,0
553,-783,0,0,0,0,0,0,0,0,0,-1,1777,1807,0,0
560,-783,0,0,0,0,0,0,0,0,0,-1,1784,1807,0,0
567,-783,0,0,0,0,0,0,0,0,0,-1,1791,1807,0,0
574,-783,0,0,0,0,0,0,0,0,0,-1,1798,1807,0,0
581,-783,0,0,0,0,0,0,0,0,0,-1,1805,1807,0,0
588,-783,0,0,0,0,0,0,0,0,0,-1,1812,1807,0,0
595,-783,0,0,0,0,0,0,0,0,0,-1,1819,1807,0,0
602,-783,0,0,0,0,0,0,0,0,0,-1,1826,1807,0,0
609,-783,0,0,0,0,0,0,0,0,0,-1,1833,1807,0,0
616,-783,0,0,0,0,0,0,0,0,0,-1,1840,1807,0,0
623,-783,0,0,0,0,0,0,0,0,0,-1,1847,1807,0,0
630,-783,0,0,0,0,0,0,0,0,0,-1,1854,1807,0,0
637,-783,0,0,0,0,0,0,0,0,0,-1,1861,1807,0,0
644,-783,0,0,0,0,0,0,0,0,0,-1,1868,1807,0,0
651,-783,0,0,0,0,0,0,0,0,0,-1,1875,1807,0,0
658,-783,0,0,0,0,0,0,0,0,0,-1,1882,1807,0,0
665,-783,0,0,0,0,0,0,0,0,0,-1,1889,1807,0,0
672,-783,0,0,0,0,0,0,0,0,0,-1,1896,1807,0,0
679,-783,0,0,0,0,0,0,0,0,0,-1,1903,1807,0,0
686,-783,0,0,0,0,0,0,0,0,0,-1,1910,1807,0,0
693,-783,0,0,0,0,0,0,0,0,0,-1,1917,1807,0,0
700,-783,0,0,0,0,0,0,0,0,0,-1,1924,1807,0,0
707,-783,0,0,0,0,0,0,0,0,0,-1,1931,1807,0,0
714,-783,0,0,0,0,0,0,0,0,0,-1,1938,1807,0,0
721,-783,0,0,0,0,0,0,0,0,0,-1,1945,1807,0,0
728,-783,0,0,0,0,0,0,0,0,0,-1,1952,1807,0,0
735,-783,0,0,0,0,0,0,0,0,0,-1,1959,1807,0,0
742,-783,0,0,0,0,0,0,0,0,0,-1,1966,1807,0,0
749,-783,0,0,0,0,0,0,0,0,0,-1,1973,1807,0,0
756,-783,0,0,0,0,0,0,0,0,0,-1,1980,1807,0,0
763,-783,0,0,0,0,0,0,0,0,0,-1,1987,1807,0,0
770,-783,0,0,0,0,0,0,0,0,0,-1,1994,1807,0,0
777,-783,0,0,0,0,0,0,0,0,0,-1,2001,1807,0,0
784,-783,0,0,0,0,0,0,0,0,0,-1,2008,1807,0,0
791,-783,0,0,0,0,0,0,0,0,0,-1,2015,1807,0,0
798,-783,0,0,0,0,0,0,0,0,0,-1,2022,1807,0,0
805,-783,0,0,0,0,0,0,0,0,0,-1,2029,1807,0,0
812,-783,0,0,0,0,0,0,0,0,0,-1,2036,1807,0,0
-700,-790,0,0,0,0,0,0,0,0,0,-1,524,1814,0,0
-693,-790,0,0,0,0,0,0,0,0,0,-1,531,1814,0,0
-686,-790,0,0,0,0,0,0,0,0,0,-1,538,1814,0,0
-679,-790,0,0,0,0,0,0,0,0,0,-1,545,1814,0,0
-672,-790,0,0,0,0,0,0,0,0,0,-1,552,1814,0,0
-665,-790,0,0,0,0,0,0,0,0,0,-1,559,1814,0,0
-658,-790,0,0,0,0,0,0,0,0,0,-1,566,1814,0,0
-651,-790,0,0,0,0,0,0,0,0,0,-1,573,1814,0,0
-644,-790,0,0,0,0,0,0,0,0,0,-1,580,1814,0,0
-637,-790,0,0,0,0,0,0,0,0,0,-1,587,1814,0,0
-630,-790,0,0,0,0,0,0,0,0,0,-1,594,1814,0,0
-623,-790,0,0,0,0,0,0,0,0,0,-1,601,1814,0,0
-616,-790,0,0,0,0,0,0,0,0,0,-1,608,1814,0,0
-609,-790,0,0,0,0,0,0,0,0,0,-1,615,1814,0,0
-602,-790,0,0,0,0,0,0,0,0,0,-1,622,1814,0,0
-595,-790,0,0,0,0,0,0,0,0,0,-1,629,1814,0,0
-588,-790,0,0,0,0,0,0,0,0,0,-1,636,1814,0,0
-581,-790,0,0,0,0,0,0,0,0,0,-1,643,1814,0,0
-574,-790,0,0,0,0,0,0,0,0,0,-1,650,1814,0,0
-567,-790,0,0,0,0,0,0,0,0,0,-1,657,1814,0,0
-560,-790,0,0,0,0,0,0,0,0,0,-1,664,1814,0,0
-553,-790,0,0,0,0,0,0,0,0,0,-1,671,1814,0,0
-546,-790,0,0,0,0,0,0,0,0,0,-1,678,1814,0,0
-539,-790,0,0,0,0,0,0,0,0,0,-1,685,1814,0,0
-532,-790,0,0,0,0,0,0,0,0,0,-1,692,1814,0,0
-525,-790,0,0,0,0,0,0,0,0,0,-1,699,1814,0,0
-518,-790,0,0,0,0,0,0,0,0,0,-1,706,1814,0,0
-511,-790,0,0,0,0,0,0,0,0,0,-1,713,1814,0,0
-504,-790,0,0,0,0,0,0,0,0,0,-1,720,1814,0,0
-497,-790,0,0,0,0,0,0,0,0,0,-1,727,1814,0,0
-490,-790,0,0,0,0,0,0,0,0,0,-1,734,1814,0,0
-483,-790,0,0,0,0,0,0,0,0,0,-1,741,1814,0,0
-476,-790,0,0,0,0,0,0,0,0,0,-1,748,1814,0,0
-469,-790,0,0,0,0,0,0,0,0,0,-1,755,1814,0,0
-462,-790,0,0,0,0,0,0,0,0,0,-1,762,1814,0,0
-455,-790,0,0,0,0,0,0,0,0,0,-1,769,1814,0,0
-448,-790,0,0,0,0,0,0,0,0,0,-1,776,1814,0,0
-441,-790,0,0,0,0,0,0,0,0,0,-1,783,1814,0,0
-434,-790,0,0,0,0,0,0,0,0,0,-1,790,1814,0,0
-427,-790,0,0,0,0,0,0,0,0,0,-1,797,1814,0,0
-420,-790,0,0,0,0,0,0,0,0,0,-1,804,1814,0,0
-413,-790,0,0,0,0,0,0,0,0,0,-1,811,1814,0,0
-406,-790,0,0,0,0,0,0,0,0,0,-1,818,1814,0,0
-399,-790,0,0,0,0,0,0,0,0,0,-1,825,1814,0,0
-392,-790,0,0,0,0,0,0,0,0,0,-1,832,1814,0,0
-385,-790,0,0,0,0,0,0,0,0,0,-1,839,1814,0,0
-378,-790,0,0,0,0,0,0,0,0,0,-1,846,1814,0,0
-371,-790,0,0,0,0,0,0,0,0,0,-1,853,1814,0,0
-364,-790,0,0,0,0,0,0,0,0,0,-1,860,1814,0,0
-357,-790,0,0,0,0,0,0,0,0,0,-1,867,1814,0,0
-350,-790,0,0,0,0,0,0,0,0,0,-1,874,1814,0,0
-343,-790,0,0,0,0,0,0,0,0,0,-1,881,1814,0,0
-336,-790,0,0,0,0,0,0,0,0,0,-1,888,1814,0,0
-329,-790,0,0,0,0,0,0,0,0,0,-1,895,1814,0,0
-322,-790,0,0,0,0,0,0,0,0,0,-1,902,1814,0,0
-315,-790,0,0,0,0,0,0,0,0,0,-1,909,1814,0,0
-308,-790,0,0,0,0,0,0,0,0,0,-1,916,1814,0,0
-301,-790,0,0,0,0,0,0,0,0,0,-1,923,1814,0,0
-294,-790,0,0,0,0,0,0,0,0,0,-1,930,1814,0,0
-287,-790,0,0,0,0,0,0,0,0,0,-1,937,1814,0,0
-280,-790,0,0,0,0,0,0,0,0,0,-1,944,1814,0,0
-273,-790,0,0,0,0,0,0,0,0,0,-1,951,1814,0,0
-266,-790,0,0,0,0,0,0,0,0,0,-1,958,1814,0,0
-259,-790,0,0,0,0,0,0,0,0,0,-1,965,1814,0,0
-252,-790,0,0,0,0,0,0,0,0,0,-1,972,1814,0,0
-245,-790,0,0,0,0,0,0,0,0,0,-1,979,1814,0,0
-238,-790,0,0,0,0,0,0,0,0,0,-1,986,1814,0,0
-231,-790,0,0,0,0,0,0,0,0,0,-1,993,1814,0,0
-224,-790,0,0,0,0,0,0,0,0,0,-1,1000,1814,0,0
-217,-790,0,0,0,0,0,0,0,0,0,-1,1007,1814,0,0
-210,-790,0,0,0,0,0,0,0,0,0,-1,1014,1814,0,0
-203,-790,0,0,0,0,0,0,0,0,0,-1,1021,1814,0,0
-196,-790,0,0,0,0,0,0,0,0,0,-1,1028,1814,0,0
-189,-790,0,0,0,0,0,0,0,0,0,-1,1035,1814,0,0
-182,-790,0,0,0,0,0,0,0,0,0,-1,1042,1814,0,0
-175,-790,0,0,0,0,0,0,0,0,0,-1,1049,1814,0,0
-168,-790,0,0,0,0,0,0,0,0,0,-1,1056,1814,0,0
-161,-790,0,0,0,0,0,0,0,0,0,-1,1063,1814,0,0
-154,-790,0,0,0,0,0,0,0,0,0,-1,1070,1814,0,0
-147,-790,0,0,0,0,0,0,0,0,0,-1,1077,1814,0,0
-140,-790,0,0,0,0,0,0,0,0,0,-1,1084,1814,0,0
-133,-790,0,0,0,0,0,0,0,0,0,-1,1091,1814,0,0
-126,-790,0,0,0,0,0,0,0,0,0,-1,1098,1814,0,0
-119,-790,0,0,0,0,0,0,0,0,0,-1,1105,1814,0,0
-112,-790,0,0,0,0,0,0,0,0,0,-1,1112,1814,0,0
-105,-790,0,0,0,0,0,0,0,0,0,-1,1119,1814,0,0
-98,-790,0,0,0,0,0,0,0,0,0,-1,1126,1814,0,0
-91,-790,0,0,0,0,0,0,0,0,0,-1,1133,1814,0,0
-84,-790,0,0,0,0,0,0,0,0,0,-1,1140,1814,0,0
-77,-790,-0.969238,5.30847,0,0,0,0,0,0,0,-1,1147,1814,-0.969277,-5.3085
-70,-790,-1.23169,4.98914,0,0,0,0,0,0,0,-1,1154,1814,-1.23163,-4.98916
-63,-790,-1.69128,4.32263,0,0,0,0,0,0,0,-1,1161,1814,-1.69128,-4.32258
-56,-790,-2.24756,3.75305,0,0,0,0,0,0,0,-1,1168,1814,-2.24758,-3.75302
-49,-790,-3.11011,3.35779,0,0,0,0,0,0,0,-1,1175,1814,-3.11006,-3.35781
-42,-790,0.593262,1.19165,0,0,0,0,0,0,0,-1,1182,1814,0.593225,-1.19165
-35,-790,0.307129,-0.20105,0,0,0,0,0,0,0,-1,1189,1814,0.307178,0.201006
-28,-790,-2.78467,0.785156,0,0,0,0,0,0,0,-1,1196,1814,-2.78471,-0.785183
-21,-790,5.77344,21.1311,0,0,0,0,0,0,0,-1,1203,1814,5.77342,-21.1311
-14,-790,6.87085,21.5966,0.0762574,0.128906,-0.0193508,0.135253,0.0699102,-1.25385,0.0781031,0.0454575,1210,1814,6.87084,-21.5965
-7,-790,7.79968,22.0531,0.060901,0.103885,-0.0103506,0.106248,0.0585384,-1.34639,0.0614482,0.0488118,1217,1814,7.79972,-22.053
0,-790,8.06323,22.7384,0.0501405,0.0860124,-0.00302305,0.0862654,0.0498875,-1.48731,0.0500085,0.046993,1224,1814,8.0632,-22.7384
7,-790,7.89209,24.2032,0,0,0,0,0,0,0,-1,1231,1814,7.89208,-24.2033
14,-790,7.63135,25.4087,0.0448744,0.0611572,0.00779766,0.0642891,0.0417425,1.18888,0.0376648,0.043263,1238,1814,7.6314,-25.4086
21,-790,7.62207,26.2543,0.0425488,0.0538245,0.0139393,0.0632229,0.0331504,0.97757,0.0365162,0.0475827,1245,1814,7.62206,-26.2542
28,-790,7.59729,26.9464,0,0,0,0,0,0,0,-1,1252,1814,7.59734,-26.9464
35,-790,4.44519,21.9812,0,0,0,0,0,0,0,-1,1259,1814,4.44521,-21.9812
42,-790,4.8324,22.4031,0,0,0,0,0,0,0,-1,1266,1814,4.83244,-22.4031
49,-790,5.1217,22.9509,0,0,0,0,0,0,0,-1,1273,1814,5.12172,-22.951
56,-790,5.45752,23.408,0.0358588,0.0289175,0.0283393,0.0609392,0.00383719,0.724468,0.0394094,0.0472355,1280,1814,5.45747,-23.408
63,-790,6.30408,23.8223,0.0351179,0.0276474,0.027932,0.0595633,0.003202,0.718929,0.0386857,0.0466128,1287,1814,6.30406,-23.8223
70,-790,5.50745,25.3092,0.0319402,0.0261334,0.0271195,0.0563113,0.00176235,0.732072,0.0369674,0.041605,1294,1814,5.50749,-25.3093
77,-790,5.85437,25.4161,0.0268914,0.0233793,0.0261169,0.0513112,-0.0010405,0.75183,0.0345595,0.0398169,1301,1814,5.85441,-25.4162
84,-790,6.20874,25.3263,0.020406,0.019707,0.0245003,0.0445593,-0.00444625,0.778267,0.0312937,0.0430539,1308,1814,6.20872,-25.3263
91,-790,6.47107,25.3633,0.0134577,0.0167542,0.0228893,0.0380545,-0.00784264,0.821341,0.0283478,0.0444514,1315,1814,6.47104,-25.3633
98,-790,6.57178,25.3898,0.00642519,0.0148725,0.0214894,0.0325494,-0.0112517,0.882434,0.0262662,0.0451218,1322,1814,6.57183,-25.3898
105,-790,6.60205,25.3191,0,0,0,0,0,0,0,-1,1329,1814,6.60199,-25.3191
112,-790,6.03015,23.8666,0,0,0,0,0,0,0,-1,1336,1814,6.03019,-23.8666
119,-790,5.73828,24.4006,-0.0157753,0.0149625,0.0201579,0.024942,-0.0257548,1.1111,0.0292711,0.0438792,1343,1814,5.73824,-24.4006
126,-790,5.44202,24.7072,-0.020707,0.0154538,0.0207006,0.0248582,-0.0301114,1.14437,0.031785,0.0448481,1350,1814,5.44207,-24.7071
133,-790,5.23474,24.7389,0,0,0,0,0,0,0,-1,1357,1814,5.23479,-24.7389
140,-790,7.29907,23.2035,0,0,0,0,0,0,0,-1,1364,1814,7.29912,-23.2035
147,-790,8.01086,22.9637,0,0,0,0,0,0,0,-1,1371,1814,8.01085,-22.9638
154,-790,23.2634,12.1936,0,0,0,0,0,0,0,-1,1378,1814,23.2634,-12.1935
161,-790,26.6003,11.7516,0,0,0,0,0,0,0,-1,1385,1814,26.6004,-11.7516
168,-790,7.04077,2.23279,0,0,0,0,0,0,0,-1,1392,1814,7.04082,-2.23275
175,-790,9.03918,3.98535,0,0,0,0,0,0,0,-1,1399,1814,9.0392,-3.98535
182,-790,8.96997,5.67896,0,0,0,0,0,0,0,-1,1406,1814,8.97001,-5.6789
189,-790,8.59729,6.86975,0,0,0,0,0,0,0,-1,1413,1814,8.59728,-6.86972
196,-790,8.21924,9.29053,0,0,0,0,0,0,0,-1,1420,1814,8.21924,-9.29048
203,-790,0,0,0,0,0,0,0,0,0,-1,1427,1814,0,0
210,-790,0,0,0,0,0,0,0,0,0,-1,1434,1814,0,0
217,-790,0,0,0,0,0,0,0,0,0,-1,1441,1814,0,0
224,-790,0,0,0,0,0,0,0,0,0,-1,1448,1814,0,0
231,-790,0,0,0,0,0,0,0,0,0,-1,1455,1814,0,0
238,-790,0,0,0,0,0,0,0,0,0,-1,1462,1814,0,0
245,-790,0,0,0,0,0,0,0,0,0,-1,1469,1814,0,0
252,-790,0,0,0,0,0,0,0,0,0,-1,1476,1814,0,0
259,-790,0,0,0,0,0,0,0,0,0,-1,1483,1814,0,0
266,-790,0,0,0,0,0,0,0,0,0,-1,1490,1814,0,0
273,-790,0,0,0,0,0,0,0,0,0,-1,1497,1814,0,0
280,-790,0,0,0,0,0,0,0,0,0,-1,1504,1814,0,0
287,-790,0,0,0,0,0,0,0,0,0,-1,1511,1814,0,0
294,-790,0,0,0,0,0,0,0,0,0,-1,1518,1814,0,0
301,-790,0,0,0,0,0,0,0,0,0,-1,1525,1814,0,0
308,-790,0,0,0,0,0,0,0,0,0,-1,1532,1814,0,0
315,-790,0,0,0,0,0,0,0,0,0,-1,1539,1814,0,0
322,-790,0,0,0,0,0,0,0,0,0,-1,1546,1814,0,0
329,-790,0,0,0,0,0,0,0,0,0,-1,1553,1814,0,0
336,-790,0,0,0,0,0,0,0,0,0,-1,1560,1814,0,0
343,-790,0,0,0,0,0,0,0,0,0,-1,1567,1814,0,0
350,-790,0,0,0,0,0,0,0,0,0,-1,1574,1814,0,0
357,-790,0,0,0,0,0,0,0,0,0,-1,1581,1814,0,0
364,-790,0,0,0,0,0,0,0,0,0,-1,1588,1814,0,0
371,-790,0,0,0,0,0,0,0,0,0,-1,1595,1814,0,0
378,-790,0,0,0,0,0,0,0,0,0,-1,1602,1814,0,0
385,-790,0,0,0,0,0,0,0,0,0,-1,1609,1814,0,0
392,-790,0,0,0,0,0,0,0,0,0,-1,1616,1814,0,0
399,-790,0,0,0,0,0,0,0,0,0,-1,1623,1814,0,0
406,-790,0,0,0,0,0,0,0,0,0,-1,1630,1814,0,0
413,-790,0,0,0,0,0,0,0,0,0,-1,1637,1814,0,0
420,-790,0,0,0,0,0,0,0,0,0,-1,1644,1814,0,0
427,-790,0,0,0,0,0,0,0,0,0,-1,1651,1814,0,0
434,-790,0,0,0,0,0,0,0,0,0,-1,1658,1814,0,0
441,-790,0,0,0,0,0,0,0,0,0,-1,1665,1814,0,0
448,-790,0,0,0,0,0,0,0,0,0,-1,1672,1814,0,0
455,-790,0,0,0,0,0,0,0,0,0,-1,1679,1814,0,0
462,-790,0,0,0,0,0,0,0,0,0,-1,1686,1814,0,0
469,-790,0,0,0,0,0,0,0,0,0,-1,1693,1814,0,0
476,-790,0,0,0,0,0,0,0,0,0,-1,1700,1814,0,0
483,-790,0,0,0,0,0,0,0,0,0,-1,1707,1814,0,0
490,-790,0,0,0,0,0,0,0,0,0,-1,1714,1814,0,0
497,-790,0,0,0,0,0,0,0,0,0,-1,1721,1814,0,0
504,-790,0,0,0,0,0,0,0,0,0,-1,1728,1814,0,0
511,-790,0,0,0,0,0,0,0,0,0,-1,1735,1814,0,0
518,-790,0,0,0,0,0,0,0,0,0,-1,1742,1814,0,0
525,-790,0,0,0,0,0,0,0,0,0,-1,1749,1814,0,0
532,-790,0,0,0,0,0,0,0,0,0,-1,1756,1814,0,0
539,-790,0,0,0,0,0,0,0,0,0,-1,1763,1814,0,0
546,-790,0,0,0,0,0,0,0,0,0,-1,1770,1814,0,0
553,-790,0,0,0,0,0,0,0,0,0,-1,1777,1814,0,0
560,-790,0,0,0,0,0,0,0,0,0,-1,1784,1814,0,0
567,-790,0,0,0,0,0,0,0,0,0,-1,1791,1814,0,0
574,-790,0,0,0,0,0,0,0,0,0,-1,1798,1814,0,0
581,-790,0,0,0,0,0,0,0,0,0,-1,1805,1814,0,0
588,-790,0,0,0,0,0,0,0,0,0,-1,1812,1814,0,0
595,-790,0,0,0,0,0,0,0,0,0,-1,1819,1814,0,0
602,-790,0,0,0,0,0,0,0,0,0,-1,1826,1814,0,0
609,-790,0,0,0,0,0,0,0,0,0,-1,1833,1814,0,0
616,-790,0,0,0,0,0,0,0,0,0,-1,1840,1814,0,0
623,-790,0,0,0,0,0,0,0,0,0,-1,1847,1814,0,0
630,-790,0,0,0,0,0,0,0,0,0,-1,1854,1814,0,0
637,-790,0,0,0,0,0,0,0,0,0,-1,1861,1814,0,0
644,-790,0,0,0,0,0,0,0,0,0,-1,1868,1814,0,0
651,-790,0,0,0,0,0,0,0,0,0,-1,1875,1814,0,0
658,-790,0,0,0,0,0,0,0,0,0,-1,1882,1814,0,0
665,-790,0,0,0,0,0,0,0,0,0,-1,1889,1814,0,0
672,-790,0,0,0,0,0,0,0,0,0,-1,1896,1814,0,0
679,-790,0,0,0,0,0,0,0,0,0,-1,1903,1814,0,0
686,-790,0,0,0,0,0,0,0,0,0,-1,1910,1814,0,0
693,-790,0,0,0,0,0,0,0,0,0,-1,1917,1814,0,0
700,-790,0,0,0,0,0,0,0,0,0,-1,1924,1814,0,0
707,-790,0,0,0,0,0,0,0,0,0,-1,1931,1814,0,0
714,-790,0,0,0,0,0,0,0,0,0,-1,1938,1814,0,0
721,-790,0,0,0,0,0,0,0,0,0,-1,1945,1814,0,0
728,-790,0,0,0,0,0,0,0,0,0,-1,1952,1814,0,0
735,-790,0,0,0,0,0,0,0,0,0,-1,1959,1814,0,0
742,-790,0,0,0,0,0,0,0,0,0,-1,1966,1814,0,0
749,-790,0,0,0,0,0,0,0,0,0,-1,1973,1814,0,0
756,-790,0,0,0,0,0,0,0,0,0,-1,1980,1814,0,0
763,-790,0,0,0,0,0,0,0,0,0,-1,1987,1814,0,0
770,-790,0,0,0,0,0,0,0,0,0,-1,1994,1814,0,0
777,-790,0,0,0,0,0,0,0,0,0,-1,2001,1814,0,0
784,-790,0,0,0,0,0,0,0,0,0,-1,2008,1814,0,0
791,-790,0,0,0,0,0,0,0,0,0,-1,2015,1814,0,0
798,-790,0,0,0,0,0,0,0,0,0,-1,2022,1814,0,0
805,-790,0,0,0,0,0,0,0,0,0,-1,2029,1814,0,0
812,-790,0,0,0,0,0,0,0,0,0,-1,2036,1814,0,0
-700,-797,0,0,0,0,0,0,0,0,0,-1,524,1821,0,0
-693,-797,0,0,0,0,0,0,0,0,0,-1,531,1821,0,0
-686,-797,0,0,0,0,0,0,0,0,0,-1,538,1821,0,0
-679,-797,0,0,0,0,0,0,0,0,0,-1,545,1821,0,0
-672,-797,0,0,0,0,0,0,0,0,0,-1,552,1821,0,0
-665,-797,0,0,0,0,0,0,0,0,0,-1,559,1821,0,0
-658,-797,0,0,0,0,0,0,0,0,0,-1,566,1821,0,0
-651,-797,0,0,0,0,0,0,0,0,0,-1,573,1821,0,0
-644,-797,0,0,0,0,0,0,0,0,0,-1,580,1821,0,0
-637,-797,0,0,0,0,0,0,0,0,0,-1,587,1821,0,0
-630,-797,0,0,0,0,0,0,0,0,0,-1,594,1821,0,0
-623,-797,0,0,0,0,0,0,0,0,0,-1,601,1821,0,0
-616,-797,0,0,0,0,0,0,0,0,0,-1,608,1821,0,0
-609,-797,0,0,0,0,0,0,0,0,0,-1,615,1821,0,0
-602,-797,0,0,0,0,0,0,0,0,0,-1,622,1821,0,0
-595,-797,0,0,0,0,0,0,0,0,0,-1,629,1821,0,0
-588,-797,0,0,0,0,0,0,0,0,0,-1,636,1821,0,0
-581,-797,0,0,0,0,0,0,0,0,0,-1,643,1821,0,0
-574,-797,0,0,0,0,0,0,0,0,0,-1,650,1821,0,0
-567,-797,0,0,0,0,0,0,0,0,0,-1,657,1821,0,0
-560,-797,0,0,0,0,0,0,0,0,0,-1,664,1821,0,0
-553,-797,0,0,0,0,0,0,0,0,0,-1,671,1821,0,0
-546,-797,0,0,0,0,0,0,0,0,0,-1,678,1821,0,0
-539,-797,0,0,0,0,0,0,0,0,0,-1,685,1821,0,0
-532,-797,0,0,0,0,0,0,0,0,0,-1,692,1821,0,0
-525,-797,0,0,0,0,0,0,0,0,0,-1,699,1821,0,0
-518,-797,0,0,0,0,0,0,0,0,0,-1,706,1821,0,0
-511,-797,0,0,0,0,0,0,0,0,0,-1,713,1821,0,0
-504,-797,0,0,0,0,0,0,0,0,0,-1,720,1821,0,0
-497,-797,0,0,0,0,0,0,0,0,0,-1,727,1821,0,0
-490,-797,0,0,0,0,0,0,0,0,0,-1,734,1821,0,0
-483,-797,0,0,0,0,0,0,0,0,0,-1,741,1821,0,0
-476,-797,0,0,0,0,0,0,0,0,0,-1,748,1821,0,0
-469,-797,0,0,0,0,0,0,0,0,0,-1,755,1821,0,0
-462,-797,0,0,0,0,0,0,0,0,0,-1,762,1821,0,0
-455,-797,0,0,0,0,0,0,0,0,0,-1,769,1821,0,0
-448,-797,0,0,0,0,0,0,0,0,0,-1,776,1821,0,0
-441,-797,0,0,0,0,0,0,0,0,0,-1,783,1821,0,0
-434,-797,0,0,0,0,0,0,0,0,0,-1,790,1821,0,0
-427,-797,0,0,0,0,0,0,0,0,0,-1,797,1821,0,0
-420,-797,0,0,0,0,0,0,0,0,0,-1,804,1821,0,0
-413,-797,0,0,0,0,0,0,0,0,0,-1,811,1821,0,0
-406,-797,0,0,0,0,0,0,0,0,0,-1,818,1821,0,0
-399,-797,0,0,0,0,0,0,0,0,0,-1,825,1821,0,0
-392,-797,0,0,0,0,0,0,0,0,0,-1,832,1821,0,0
-385,-797,0,0,0,0,0,0,0,0,0,-1,839,1821,0,0
-378,-797,0,0,0,0,0,0,0,0,0,-1,846,1821,0,0
-371,-797,0,0,0,0,0,0,0,0,0,-1,853,1821,0,0
-364,-797,0,0,0,0,0,0,0,0,0,-1,860,1821,0,0
-357,-797,0,0,0,0,0,0,0,0,0,-1,867,1821,0,0
-350,-797,0,0,0,0,0,0,0,0,0,-1,874,1821,0,0
-343,-797,0,0,0,0,0,0,0,0,0,-1,881,1821,0,0
-336,-797,0,0,0,0,0,0,0,0,0,-1,888,1821,0,0
-329,-797,0,0,0,0,0,0,0,0,0,-1,895,1821,0,0
-322,-797,0,0,0,0,0,0,0,0,0,-1,902,1821,0,0
-315,-797,0,0,0,0,0,0,0,0,0,-1,909,1821,0,0
-308,-797,0,0,0,0,0,0,0,0,0,-1,916,1821,0,0
-301,-797,0,0,0,0,0,0,0,0,0,-1,923,1821,0,0
-294,-797,0,0,0,0,0,0,0,0,0,-1,930,1821,0,0
-287,-797,0,0,0,0,0,0,0,0,0,-1,937,1821,0,0
-280,-797,0,0,0,0,0,0,0,0,0,-1,944,1821,0,0
-273,-797,0,0,0,0,0,0,0,0,0,-1,951,1821,0,0
-266,-797,0,0,0,0,0,0,0,0,0,-1,958,1821,0,0
-259,-797,0,0,0,0,0,0,0,0,0,-1,965,1821,0,0
-252,-797,0,0,0,0,0,0,0,0,0,-1,972,1821,0,0
-245,-797,0,0,0,0,0,0,0,0,0,-1,979,1821,0,0
-238,-797,0,0,0,0,0,0,0,0,0,-1,986,1821,0,0
-231,-797,0,0,0,0,0,0,0,0,0,-1,993,1821,0,0
-224,-797,0,0,0,0,0,0,0,0,0,-1,1000,1821,0,0
-217,-797,0,0,0,0,0,0,0,0,0,-1,1007,1821,0,0
-210,-797,0,0,0,0,0,0,0,0,0,-1,1014,1821,0,0
-203,-797,0,0,0,0,0,0,0,0,0,-1,1021,1821,0,0
-196,-797,0,0,0,0,0,0,0,0,0,-1,1028,1821,0,0
-189,-797,0,0,0,0,0,0,0,0,0,-1,1035,1821,0,0
-182,-797,0,0,0,0,0,0,0,0,0,-1,1042,1821,0,0
-175,-797,0,0,0,0,0,0,0,0,0,-1,1049,1821,0,0
-168,-797,0,0,0,0,0,0,0,0,0,-1,1056,1821,0,0
-161,-797,0,0,0,0,0,0,0,0,0,-1,1063,1821,0,0
-154,-797,0,0,0,0,0,0,0,0,0,-1,1070,1821,0,0
-147,-797,0,0,0,0,0,0,0,0,0,-1,1077,1821,0,0
-140,-797,0,0,0,0,0,0,0,0,0,-1,1084,1821,0,0
-133,-797,0,0,0,0,0,0,0,0,0,-1,1091,1821,0,0
-126,-797,0,0,0,0,0,0,0,0,0,-1,1098,1821,0,0
-119,-797,0,0,0,0,0,0,0,0,0,-1,1105,1821,0,0
-112,-797,0,0,0,0,0,0,0,0,0,-1,1112,1821,0,0
-105,-797,0,0,0,0,0,0,0,0,0,-1,1119,1821,0,0
-98,-797,0,0,0,0,0,0,0,0,0,-1,1126,1821,0,0
-91,-797,0,0,0,0,0,0,0,0,0,-1,1133,1821,0,0
-84,-797,0,0,0,0,0,0,0,0,0,-1,1140,1821,0,0
-77,-797,0,0,0,0,0,0,0,0,0,-1,1147,1821,0,0
-70,-797,0,0,0,0,0,0,0,0,0,-1,1154,1821,0,0
-63,-797,0,0,0,0,0,0,0,0,0,-1,1161,1821,0,0
-56,-797,0,0,0,0,0,0,0,0,0,-1,1168,1821,0,0
-49,-797,0,0,0,0,0,0,0,0,0,-1,1175,1821,0,0
-42,-797,0.579834,0.692871,0,0,0,0,0,0,0,-1,1182,1821,0.579856,-0.692816
-35,-797,-0.185425,5.55396,0,0,0,0,0,0,0,-1,1189,1821,-0.18542,-5.55396
-28,-797,-0.310181,4.71509,0,0,0,0,0,0,0,-1,1196,1821,-0.310228,-4.71503
-21,-797,6.995,20.1411,0,0,0,0,0,0,0,-1,1203,1821,6.99501,-20.1411
-14,-797,8.13586,20.5984,0,0,0,0,0,0,0,-1,1210,1821,8.13592,-20.5984
-7,-797,8.74475,21.3567,0,0,0,0,0,0,0,-1,1217,1821,8.74479,-21.3567
0,-797,8.87097,22.0944,0,0,0,0,0,0,0,-1,1224,1821,8.87093,-22.0944
7,-797,8.12634,23.8367,0,0,0,0,0,0,0,-1,1231,1821,8.12629,-23.8367
14,-797,8.05579,25.5897,0,0,0,0,0,0,0,-1,1238,1821,8.05577,-25.5897
21,-797,8.18433,26.4713,0,0,0,0,0,0,0,-1,1245,1821,8.18439,-26.4713
28,-797,8.18872,27.1769,0,0,0,0,0,0,0,-1,1252,1821,8.18868,-27.1768
35,-797,4.60657,23.1412,0,0,0,0,0,0,0,-1,1259,1821,4.60658,-23.1413
42,-797,4.71021,23.2771,0,0,0,0,0,0,0,-1,1266,1821,4.71022,-23.277
49,-797,4.86523,23.2732,0.0464598,0.034697,0.033044,0.0741418,0.00701508,0.697327,0.0472633,0.0473178,1273,1821,4.86524,-23.2732
56,-797,5.1947,23.1887,0.046083,0.0325907,0.0340842,0.0740823,0.00459145,0.687698,0.0479311,0.0436194,1280,1821,5.19465,-23.1887
63,-797,5.86243,23.0475,0.0446404,0.0313479,0.0336083,0.0722533,0.00373495,0.687779,0.0469734,0.0419622,1287,1821,5.86247,-23.0475
70,-797,6.70862,23.1322,0.0403265,0.0297028,0.0326358,0.0680799,0.00194941,0.704725,0.044751,0.0421613,1294,1821,6.70868,-23.1322
77,-797,5.67993,25.4656,0.0335812,0.0265466,0.0314146,0.0616748,-0.00154701,0.729649,0.0416418,0.0396823,1301,1821,5.67994,-25.4656
84,-797,5.94751,25.3356,0.0251567,0.0225662,0.0294725,0.0533624,-0.0056395,0.763438,0.037596,0.0424479,1308,1821,5.94753,-25.3356
91,-797,6.02161,25.2257,0.0163392,0.0195276,0.0275598,0.0455393,-0.00967251,0.814289,0.0340448,0.0448478,1315,1821,6.02165,-25.2257
98,-797,6.14197,25.1765,0.00730796,0.0176813,0.0258672,0.0388767,-0.0138875,0.884341,0.0315817,0.0456741,1322,1821,6.14201,-25.1765
105,-797,5.52734,22.572,0,0,0,0,0,0,0,-1,1329,1821,5.52734,-22.572
112,-797,5.6355,23.4042,0,0,0,0,0,0,0,-1,1336,1821,5.63547,-23.4041
119,-797,5.63293,24.2743,-0.0207899,0.0197837,0.0251346,0.0317971,-0.0328032,1.12493,0.0372985,0.0413434,1343,1821,5.63298,-24.2743
126,-797,5.25024,24.7698,-0.0272163,0.0204871,0.0267211,0.0324533,-0.0391825,1.14976,0.0414197,0.0433836,1350,1821,5.25025,-24.7698
133,-797,4.89441,24.9127,0,0,0,0,0,0,0,-1,1357,1821,4.89442,-24.9127
140,-797,4.65625,25.0356,0,0,0,0,0,0,0,-1,1364,1821,4.65625,-25.0357
147,-797,4.12708,18.7543,0,0,0,0,0,0,0,-1,1371,1821,4.12706,-18.7543
154,-797,23.5768,10.127,0,0,0,0,0,0,0,-1,1378,1821,23.5768,-10.127
161,-797,26.8167,9.64282,0,0,0,0,0,0,0,-1,1385,1821,26.8166,-9.64281
168,-797,0,0,0,0,0,0,0,0,0,-1,1392,1821,0,0
175,-797,0,0,0,0,0,0,0,0,0,-1,1399,1821,0,0
182,-797,0,0,0,0,0,0,0,0,0,-1,1406,1821,0,0
189,-797,0,0,0,0,0,0,0,0,0,-1,1413,1821,0,0
196,-797,0,0,0,0,0,0,0,0,0,-1,1420,1821,0,0
203,-797,0,0,0,0,0,0,0,0,0,-1,1427,1821,0,0
210,-797,0,0,0,0,0,0,0,0,0,-1,1434,1821,0,0
217,-797,0,0,0,0,0,0,0,0,0,-1,1441,1821,0,0
224,-797,0,0,0,0,0,0,0,0,0,-1,1448,1821,0,0
231,-797,0,0,0,0,0,0,0,0,0,-1,1455,1821,0,0
238,-797,0,0,0,0,0,0,0,0,0,-1,1462,1821,0,0
245,-797,0,0,0,0,0,0,0,0,0,-1,1469,1821,0,0
252,-797,0,0,0,0,0,0,0,0,0,-1,1476,1821,0,0
259,-797,0,0,0,0,0,0,0,0,0,-1,1483,1821,0,0
266,-797,0,0,0,0,0,0,0,0,0,-1,1490,1821,0,0
273,-797,0,0,0,0,0,0,0,0,0,-1,1497,1821,0,0
280,-797,0,0,0,0,0,0,0,0,0,-1,1504,1821,0,0
287,-797,0,0,0,0,0,0,0,0,0,-1,1511,1821,0,0
294,-797,0,0,0,0,0,0,0,0,0,-1,1518,1821,0,0
301,-797,0,0,0,0,0,0,0,0,0,-1,1525,1821,0,0
308,-797,0,0,0,0,0,0,0,0,0,-1,1532,1821,0,0
315,-797,0,0,0,0,0,0,0,0,0,-1,1539,1821,0,0
322,-797,0,0,0,0,0,0,0,0,0,-1,1546,1821,0,0
329,-797,0,0,0,0,0,0,0,0,0,-1,1553,1821,0,0
336,-797,0,0,0,0,0,0,0,0,0,-1,1560,1821,0,0
343,-797,0,0,0,0,0,0,0,0,0,-1,1567,1821,0,0
350,-797,0,0,0,0,0,0,0,0,0,-1,1574,1821,0,0
357,-797,0,0,0,0,0,0,0,0,0,-1,1581,1821,0,0
364,-797,0,0,0,0,0,0,0,0,0,-1,1588,1821,0,0
371,-797,0,0,0,0,0,0,0,0,0,-1,1595,1821,0,0
378,-797,0,0,0,0,0,0,0,0,0,-1,1602,1821,0,0
385,-797,0,0,0,0,0,0,0,0,0,-1,1609,1821,0,0
392,-797,0,0,0,0,0,0,0,0,0,-1,1616,1821,0,0
399,-797,0,0,0,0,0,0,0,0,0,-1,1623,1821,0,0
406,-797,0,0,0,0,0,0,0,0,0,-1,1630,1821,0,0
413,-797,0,0,0,0,0,0,0,0,0,-1,1637,1821,0,0
420,-797,0,0,0,0,0,0,0,0,0,-1,1644,1821,0,0
427,-797,0,0,0,0,0,0,0,0,0,-1,1651,1821,0,0
434,-797,0,0,0,0,0,0,0,0,0,-1,1658,1821,0,0
441,-797,0,0,0,0,0,0,0,0,0,-1,1665,1821,0,0
448,-797,0,0,0,0,0,0,0,0,0,-1,1672,1821,0,0
455,-797,0,0,0,0,0,0,0,0,0,-1,1679,1821,0,0
462,-797,0,0,0,0,0,0,0,0,0,-1,1686,1821,0,0
469,-797,0,0,0,0,0,0,0,0,0,-1,1693,1821,0,0
476,-797,0,0,0,0,0,0,0,0,0,-1,1700,1821,0,0
483,-797,0,0,0,0,0,0,0,0,0,-1,1707,1821,0,0
490,-797,0,0,0,0,0,0,0,0,0,-1,1714,1821,0,0
497,-797,0,0,0,0,0,0,0,0,0,-1,1721,1821,0,0
504,-797,0,0,0,0,0,0,0,0,0,-1,1728,1821,0,0
511,-797,0,0,0,0,0,0,0,0,0,-1,1735,1821,0,0
518,-797,0,0,0,0,0,0,0,0,0,-1,1742,1821,0,0
525,-797,0,0,0,0,0,0,0,0,0,-1,1749,1821,0,0
532,-797,0,0,0,0,0,0,0,0,0,-1,1756,1821,0,0
539,-797,0,0,0,0,0,0,0,0,0,-1,1763,1821,0,0
546,-797,0,0,0,0,0,0,0,0,0,-1,1770,1821,0,0
553,-797,0,0,0,0,0,0,0,0,0,-1,1777,1821,0,0
560,-797,0,0,0,0,0,0,0,0,0,-1,1784,1821,0,0
567,-797,0,0,0,0,0,0,0,0,0,-1,1791,1821,0,0
574,-797,0,0,0,0,0,0,0,0,0,-1,1798,1821,0,0
581,-797,0,0,0,0,0,0,0,0,0,-1,1805,1821,0,0
588,-797,0,0,0,0,0,0,0,0,0,-1,1812,1821,0,0
595,-797,0,0,0,0,0,0,0,0,0,-1,1819,1821,0,0
602,-797,0,0,0,0,0,0,0,0,0,-1,1826,1821,0,0
609,-797,0,0,0,0,0,0,0,0,0,-1,1833,1821,0,0
616,-797,0,0,0,0,0,0,0,0,0,-1,1840,1821,0,0
623,-797,0,0,0,0,0,0,0,0,0,-1,1847,1821,0,0
630,-797,0,0,0,0,0,0,0,0,0,-1,1854,1821,0,0
637,-797,0,0,0,0,0,0,0,0,0,-1,1861,1821,0,0
644,-797,0,0,0,0,0,0,0,0,0,-1,1868,1821,0,0
651,-797,0,0,0,0,0,0,0,0,0,-1,1875,1821,0,0
658,-797,0,0,0,0,0,0,0,0,0,-1,1882,1821,0,0
665,-797,0,0,0,0,0,0,0,0,0,-1,1889,1821,0,0
672,-797,0,0,0,0,0,0,0,0,0,-1,1896,1821,0,0
679,-797,0,0,0,0,0,0,0,0,0,-1,1903,1821,0,0
686,-797,0,0,0,0,0,0,0,0,0,-1,1910,1821,0,0
693,-797,0,0,0,0,0,0,0,0,0,-1,1917,1821,0,0
700,-797,0,0,0,0,0,0,0,0,0,-1,1924,1821,0,0
707,-797,0,0,0,0,0,0,0,0,0,-1,1931,1821,0,0
714,-797,0,0,0,0,0,0,0,0,0,-1,1938,1821,0,0
721,-797,0,0,0,0,0,0,0,0,0,-1,1945,1821,0,0
728,-797,0,0,0,0,0,0,0,0,0,-1,1952,1821,0,0
735,-797,0,0,0,0,0,0,0,0,0,-1,1959,1821,0,0
742,-797,0,0,0,0,0,0,0,0,0,-1,1966,1821,0,0
749,-797,0,0,0,0,0,0,0,0,0,-1,1973,1821,0,0
756,-797,0,0,0,0,0,0,0,0,0,-1,1980,1821,0,0
763,-797,0,0,0,0,0,0,0,0,0,-1,1987,1821,0,0
770,-797,0,0,0,0,0,0,0,0,0,-1,1994,1821,0,0
777,-797,0,0,0,0,0,0,0,0,0,-1,2001,1821,0,0
784,-797,0,0,0,0,0,0,0,0,0,-1,2008,1821,0,0
791,-797,0,0,0,0,0,0,0,0,0,-1,2015,1821,0,0
798,-797,0,0,0,0,0,0,0,0,0,-1,2022,1821,0,0
805,-797,0,0,0,0,0,0,0,0,0,-1,2029,1821,0,0
812,-797,0,0,0,0,0,0,0,0,0,-1,2036,1821,0,0
-700,-804,0,0,0,0,0,0,0,0,0,-1,524,1828,0,0
-693,-804,0,0,0,0,0,0,0,0,0,-1,531,1828,0,0
-686,-804,0,0,0,0,0,0,0,0,0,-1,538,1828,0,0
-679,-804,0,0,0,0,0,0,0,0,0,-1,545,1828,0,0
-672,-804,0,0,0,0,0,0,0,0,0,-1,552,1828,0,0
-665,-804,0,0,0,0,0,0,0,0,0,-1,559,1828,0,0
-658,-804,0,0,0,0,0,0,0,0,0,-1,566,1828,0,0
-651,-804,0,0,0,0,0,0,0,0,0,-1,573,1828,0,0
-644,-804,0,0,0,0,0,0,0,0,0,-1,580,1828,0,0
-637,-804,0,0,0,0,0,0,0,0,0,-1,587,1828,0,0
-630,-804,0,0,0,0,0,0,0,0,0,-1,594,1828,0,0
-623,-804,0,0,0,0,0,0,0,0,0,-1,601,1828,0,0
-616,-804,0,0,0,0,0,0,0,0,0,-1,608,1828,0,0
-609,-804,0,0,0,0,0,0,0,0,0,-1,615,1828,0,0
-602,-804,0,0,0,0,0,0,0,0,0,-1,622,1828,0,0
-595,-804,0,0,0,0,0,0,0,0,0,-1,629,1828,0,0
-588,-804,0,0,0,0,0,0,0,0,0,-1,636,1828,0,0
-581,-804,0,0,0,0,0,0,0,0,0,-1,643,1828,0,0
-574,-804,0,0,0,0,0,0,0,0,0,-1,650,1828,0,0
-567,-804,0,0,0,0,0,0,0,0,0,-1,657,1828,0,0
-560,-804,0,0,0,0,0,0,0,0,0,-1,664,1828,0,0
-553,-804,0,0,0,0,0,0,0,0,0,-1,671,1828,0,0
-546,-804,0,0,0,0,0,0,0,0,0,-1,678,1828,0,0
-539,-804,0,0,0,0,0,0,0,0,0,-1,685,1828,0,0
-532,-804,0,0,0,0,0,0,0,0,0,-1,692,1828,0,0
-525,-804,0,0,0,0,0,0,0,0,0,-1,699,1828,0,0
-518,-804,0,0,0,0,0,0,0,0,0,-1,706,1828,0,0
-511,-804,0,0,0,0,0,0,0,0,0,-1,713,1828,0,0
-504,-804,0,0,0,0,0,0,0,0,0,-1,720,1828,0,0
-497,-804,0,0,0,0,0,0,0,0,0,-1,727,1828,0,0
-490,-804,0,0,0,0,0,0,0,0,0,-1,734,1828,0,0
-483,-804,0,0,0,0,0,0,0,0,0,-1,741,1828,0,0
-476,-804,0,0,0,0,0,0,0,0,0,-1,748,1828,0,0
-469,-804,0,0,0,0,0,0,0,0,0,-1,755,1828,0,0
-462,-804,0,0,0,0,0,0,0,0,0,-1,762,1828,0,0
-455,-804,0,0,0,0,0,0,0,0,0,-1,769,1828,0,0
-448,-804,0,0,0,0,0,0,0,0,0,-1,776,1828,0,0
-441,-804,0,0,0,0,0,0,0,0,0,-1,783,1828,0,0
-434,-804,0,0,0,0,0,0,0,0,0,-1,790,1828,0,0
-427,-804,0,0,0,0,0,0,0,0,0,-1,797,1828,0,0
-420,-804,0,0,0,0,0,0,0,0,0,-1,804,1828,0,0
-413,-804,0,0,0,0,0,0,0,0,0,-1,811,1828,0,0
-406,-804,0,0,0,0,0,0,0,0,0,-1,818,1828,0,0
-399,-804,0,0,0,0,0,0,0,0,0,-1,825,1828,0,0
-392,-804,0,0,0,0,0,0,0,0,0,-1,832,1828,0,0
-385,-804,0,0,0,0,0,0,0,0,0,-1,839,1828,0,0
-378,-804,0,0,0,0,0,0,0,0,0,-1,846,1828,0,0
-371,-804,0,0,0,0,0,0,0,0,0,-1,853,1828,0,0
-364,-804,0,0,0,0,0,0,0,0,0,-1,860,1828,0,0
-357,-804,0,0,0,0,0,0,0,0,0,-1,867,1828,0,0
-350,-804,0,0,0,0,0,0,0,0,0,-1,874,1828,0,0
-343,-804,0,0,0,0,0,0,0,0,0,-1,881,1828,0,0
-336,-804,0,0,0,0,0,0,0,0,0,-1,888,1828,0,0
-329,-804,0,0,0,0,0,0,0,0,0,-1,895,1828,0,0
-322,-804,0,0,0,0,0,0,0,0,0,-1,902,1828,0,0
-315,-804,0,0,0,0,0,0,0,0,0,-1,909,1828,0,0
-308,-804,0,0,0,0,0,0,0,0,0,-1,916,1828,0,0
-301,-804,0,0,0,0,0,0,0,0,0,-1,923,1828,0,0
-294,-804,0,0,0,0,0,0,0,0,0,-1,930,1828,0,0
-287,-804,0,0,0,0,0,0,0,0,0,-1,937,1828,0,0
-280,-804,0,0,0,0,0,0,0,0,0,-1,944,1828,0,0
-273,-804,0,0,0,0,0,0,0,0,0,-1,951,1828,0,0
-266,-804,0,0,0,0,0,0,0,0,0,-1,958,1828,0,0
-259,-804,0,0,0,0,0,0,0,0,0,-1,965,1828,0,0
-252,-804,0,0,0,0,0,0,0,0,0,-1,972,1828,0,0
-245,-804,0,0,0,0,0,0,0,0,0,-1,979,1828,0,0
-238,-804,0,0,0,0,0,0,0,0,0,-1,986,1828,0,0
-231,-804,0,0,0,0,0,0,0,0,0,-1,993,1828,0,0
-224,-804,0,0,0,0,0,0,0,0,0,-1,1000,1828,0,0
-217,-804,0,0,0,0,0,0,0,0,0,-1,1007,1828,0,0
-210,-804,0,0,0,0,0,0,0,0,0,-1,1014,1828,0,0
-203,-804,0,0,0,0,0,0,0,0,0,-1,1021,1828,0,0
-196,-804,0,0,0,0,0,0,0,0,0,-1,1028,1828,0,0
-189,-804,0,0,0,0,0,0,0,0,0,-1,1035,1828,0,0
-182,-804,0,0,0,0,0,0,0,0,0,-1,1042,1828,0,0
-175,-804,0,0,0,0,0,0,0,0,0,-1,1049,1828,0,0
-168,-804,0,0,0,0,0,0,0,0,0,-1,1056,1828,0,0
-161,-804,0,0,0,0,0,0,0,0,0,-1,1063,1828,0,0
-154,-804,0,0,0,0,0,0,0,0,0,-1,1070,1828,0,0
-147,-804,0,0,0,0,0,0,0,0,0,-1,1077,1828,0,0
-140,-804,0,0,0,0,0,0,0,0,0,-1,1084,1828,0,0
-133,-804,0,0,0,0,0,0,0,0,0,-1,1091,1828,0,0
-126,-804,0,0,0,0,0,0,0,0,0,-1,1098,1828,0,0
-119,-804,0,0,0,0,0,0,0,0,0,-1,1105,1828,0,0
-112,-804,0,0,0,0,0,0,0,0,0,-1,1112,1828,0,0
-105,-804,0,0,0,0,0,0,0,0,0,-1,1119,1828,0,0
-98,-804,0,0,0,0,0,0,0,0,0,-1,1126,1828,0,0
-91,-804,0,0,0,0,0,0,0,0,0,-1,1133,1828,0,0
-84,-804,0,0,0,0,0,0,0,0,0,-1,1140,1828,0,0
-77,-804,0,0,0,0,0,0,0,0,0,-1,1147,1828,0,0
-70,-804,0,0,0,0,0,0,0,0,0,-1,1154,1828,0,0
-63,-804,0,0,0,0,0,0,0,0,0,-1,1161,1828,0,0
-56,-804,0,0,0,0,0,0,0,0,0,-1,1168,1828,0,0
-49,-804,0,0,0,0,0,0,0,0,0,-1,1175,1828,0,0
-42,-804,0,0,0,0,0,0,0,0,0,-1,1182,1828,0,0
-35,-804,0,0,0,0,0,0,0,0,0,-1,1189,1828,0,0
-28,-804,0,0,0,0,0,0,0,0,0,-1,1196,1828,0,0
-21,-804,0,0,0,0,0,0,0,0,0,-1,1203,1828,0,0
-14,-804,0,0,0,0,0,0,0,0,0,-1,1210,1828,0,0
-7,-804,0,0,0,0,0,0,0,0,0,-1,1217,1828,0,0
0,-804,0,0,0,0,0,0,0,0,0,-1,1224,1828,0,0
7,-804,0,0,0,0,0,0,0,0,0,-1,1231,1828,0,0
14,-804,0,0,0,0,0,0,0,0,0,-1,1238,1828,0,0
21,-804,0,0,0,0,0,0,0,0,0,-1,1245,1828,0,0
28,-804,0,0,0,0,0,0,0,0,0,-1,1252,1828,0,0
35,-804,4.23254,23.076,0,0,0,0,0,0,0,-1,1259,1828,4.23253,-23.076
42,-804,4.46802,23.109,0,0,0,0,0,0,0,-1,1266,1828,4.46796,-23.109
49,-804,4.63904,23.1454,0.0584833,0.036569,0.0379498,0.0870261,0.00802619,0.644856,0.0555357,0.0439035,1273,1828,4.63901,-23.1454
56,-804,5.02991,23.1464,0.0577406,0.0346079,0.0393596,0.0871981,0.00515036,0.642489,0.0564936,0.044015,1280,1828,5.02994,-23.1463
63,-804,5.89709,23.2391,0.0552599,0.033632,0.0388903,0.0848117,0.00408013,0.649792,0.0552313,0.0426141,1287,1828,5.89713,-23.2392
70,-804,6.9303,23.4017,0.0494535,0.0319842,0.0377955,0.0795105,0.00192724,0.67184,0.0523764,0.0424534,1294,1828,6.93036,-23.4017
77,-804,5.5592,25.4652,0.0405044,0.0285494,0.0363595,0.0713745,-0.00232067,0.703927,0.0483751,0.0446442,1301,1828,5.55917,-25.4652
84,-804,5.6781,25.1135,0.0298194,0.0246276,0.0341327,0.0614548,-0.00700776,0.747444,0.0434944,0.0425542,1308,1828,5.6781,-25.1135
91,-804,0,0,0,0,0,0,0,0,0,-1,1315,1828,0,0
98,-804,0,0,0,0,0,0,0,0,0,-1,1322,1828,0,0
105,-804,0,0,0,0,0,0,0,0,0,-1,1329,1828,0,0
112,-804,0,0,0,0,0,0,0,0,0,-1,1336,1828,0,0
119,-804,0,0,0,0,0,0,0,0,0,-1,1343,1828,0,0
126,-804,0,0,0,0,0,0,0,0,0,-1,1350,1828,0,0
133,-804,0,0,0,0,0,0,0,0,0,-1,1357,1828,0,0
140,-804,0,0,0,0,0,0,0,0,0,-1,1364,1828,0,0
147,-804,0,0,0,0,0,0,0,0,0,-1,1371,1828,0,0
154,-804,0,0,0,0,0,0,0,0,0,-1,1378,1828,0,0
161,-804,0,0,0,0,0,0,0,0,0,-1,1385,1828,0,0
168,-804,0,0,0,0,0,0,0,0,0,-1,1392,1828,0,0
175,-804,0,0,0,0,0,0,0,0,0,-1,1399,1828,0,0
182,-804,0,0,0,0,0,0,0,0,0,-1,1406,1828,0,0
189,-804,0,0,0,0,0,0,0,0,0,-1,1413,1828,0,0
196,-804,0,0,0,0,0,0,0,0,0,-1,1420,1828,0,0
203,-804,0,0,0,0,0,0,0,0,0,-1,1427,1828,0,0
210,-804,0,0,0,0,0,0,0,0,0,-1,1434,1828,0,0
217,-804,0,0,0,0,0,0,0,0,0,-1,1441,1828,0,0
224,-804,0,0,0,0,0,0,0,0,0,-1,1448,1828,0,0
231,-804,0,0,0,0,0,0,0,0,0,-1,1455,1828,0,0
238,-804,0,0,0,0,0,0,0,0,0,-1,1462,1828,0,0
245,-804,0,0,0,0,0,0,0,0,0,-1,1469,1828,0,0
252,-804,0,0,0,0,0,0,0,0,0,-1,1476,1828,0,0
259,-804,0,0,0,0,0,0,0,0,0,-1,1483,1828,0,0
266,-804,0,0,0,0,0,0,0,0,0,-1,1490,1828,0,0
273,-804,0,0,0,0,0,0,0,0,0,-1,1497,1828,0,0
280,-804,0,0,0,0,0,0,0,0,0,-1,1504,1828,0,0
287,-804,0,0,0,0,0,0,0,0,0,-1,1511,1828,0,0
294,-804,0,0,0,0,0,0,0,0,0,-1,1518,1828,0,0
301,-804,0,0,0,0,0,0,0,0,0,-1,1525,1828,0,0
308,-804,0,0,0,0,0,0,0,0,0,-1,1532,1828,0,0
315,-804,0,0,0,0,0,0,0,0,0,-1,1539,1828,0,0
322,-804,0,0,0,0,0,0,0,0,0,-1,1546,1828,0,0
329,-804,0,0,0,0,0,0,0,0,0,-1,1553,1828,0,0
336,-804,0,0,0,0,0,0,0,0,0,-1,1560,1828,0,0
343,-804,0,0,0,0,0,0,0,0,0,-1,1567,1828,0,0
350,-804,0,0,0,0,0,0,0,0,0,-1,1574,1828,0,0
357,-804,0,0,0,0,0,0,0,0,0,-1,1581,1828,0,0
364,-804,0,0,0,0,0,0,0,0,0,-1,1588,1828,0,0
371,-804,0,0,0,0,0,0,0,0,0,-1,1595,1828,0,0
378,-804,0,0,0,0,0,0,0,0,0,-1,1602,1828,0,0
385,-804,0,0,0,0,0,0,0,0,0,-1,1609,1828,0,0
392,-804,0,0,0,0,0,0,0,0,0,-1,1616,1828,0,0
399,-804,0,0,0,0,0,0,0,0,0,-1,1623,1828,0,0
406,-804,0,0,0,0,0,0,0,0,0,-1,1630,1828,0,0
413,-804,0,0,0,0,0,0,0,0,0,-1,1637,1828,0,0
420,-804,0,0,0,0,0,0,0,0,0,-1,1644,1828,0,0
427,-804,0,0,0,0,0,0,0,0,0,-1,1651,1828,0,0
434,-804,0,0,0,0,0,0,0,0,0,-1,1658,1828,0,0
441,-804,0,0,0,0,0,0,0,0,0,-1,1665,1828,0,0
448,-804,0,0,0,0,0,0,0,0,0,-1,1672,1828,0,0
455,-804,0,0,0,0,0,0,0,0,0,-1,1679,1828,0,0
462,-804,0,0,0,0,0,0,0,0,0,-1,1686,1828,0,0
469,-804,0,0,0,0,0,0,0,0,0,-1,1693,1828,0,0
476,-804,0,0,0,0,0,0,0,0,0,-1,1700,1828,0,0
483,-804,0,0,0,0,0,0,0,0,0,-1,1707,1828,0,0
490,-804,0,0,0,0,0,0,0,0,0,-1,1714,1828,0,0
497,-804,0,0,0,0,0,0,0,0,0,-1,1721,1828,0,0
504,-804,0,0,0,0,0,0,0,0,0,-1,1728,1828,0,0
511,-804,0,0,0,0,0,0,0,0,0,-1,1735,1828,0,0
518,-804,0,0,0,0,0,0,0,0,0,-1,1742,1828,0,0
525,-804,0,0,0,0,0,0,0,0,0,-1,1749,1828,0,0
532,-804,0,0,0,0,0,0,0,0,0,-1,1756,1828,0,0
539,-804,0,0,0,0,0,0,0,0,0,-1,1763,1828,0,0
546,-804,0,0,0,0,0,0,0,0,0,-1,1770,1828,0,0
553,-804,0,0,0,0,0,0,0,0,0,-1,1777,1828,0,0
560,-804,0,0,0,0,0,0,0,0,0,-1,1784,1828,0,0
567,-804,0,0,0,0,0,0,0,0,0,-1,1791,1828,0,0
574,-804,0,0,0,0,0,0,0,0,0,-1,1798,1828,0,0
581,-804,0,0,0,0,0,0,0,0,0,-1,1805,1828,0,0
588,-804,0,0,0,0,0,0,0,0,0,-1,1812,1828,0,0
595,-804,0,0,0,0,0,0,0,0,0,-1,1819,1828,0,0
602,-804,0,0,0,0,0,0,0,0,0,-1,1826,1828,0,0
609,-804,0,0,0,0,0,0,0,0,0,-1,1833,1828,0,0
616,-804,0,0,0,0,0,0,0,0,0,-1,1840,1828,0,0
623,-804,0,0,0,0,0,0,0,0,0,-1,1847,1828,0,0
630,-804,0,0,0,0,0,0,0,0,0,-1,1854,1828,0,0
637,-804,0,0,0,0,0,0,0,0,0,-1,1861,1828,0,0
644,-804,0,0,0,0,0,0,0,0,0,-1,1868,1828,0,0
651,-804,0,0,0,0,0,0,0,0,0,-1,1875,1828,0,0
658,-804,0,0,0,0,0,0,0,0,0,-1,1882,1828,0,0
665,-804,0,0,0,0,0,0,0,0,0,-1,1889,1828,0,0
672,-804,0,0,0,0,0,0,0,0,0,-1,1896,1828,0,0
679,-804,0,0,0,0,0,0,0,0,0,-1,1903,1828,0,0
686,-804,0,0,0,0,0,0,0,0,0,-1,1910,1828,0,0
693,-804,0,0,0,0,0,0,0,0,0,-1,1917,1828,0,0
700,-804,0,0,0,0,0,0,0,0,0,-1,1924,1828,0,0
707,-804,0,0,0,0,0,0,0,0,0,-1,1931,1828,0,0
714,-804,0,0,0,0,0,0,0,0,0,-1,1938,1828,0,0
721,-804,0,0,0,0,0,0,0,0,0,-1,1945,1828,0,0
728,-804,0,0,0,0,0,0,0,0,0,-1,1952,1828,0,0
735,-804,0,0,0,0,0,0,0,0,0,-1,1959,1828,0,0
742,-804,0,0,0,0,0,0,0,0,0,-1,1966,1828,0,0
749,-804,0,0,0,0,0,0,0,0,0,-1,1973,1828,0,0
756,-804,0,0,0,0,0,0,0,0,0,-1,1980,1828,0,0
763,-804,0,0,0,0,0,0,0,0,0,-1,1987,1828,0,0
770,-804,0,0,0,0,0,0,0,0,0,-1,1994,1828,0,0
777,-804,0,0,0,0,0,0,0,0,0,-1,2001,1828,0,0
784,-804,0,0,0,0,0,0,0,0,0,-1,2008,1828,0,0
791,-804,0,0,0,0,0,0,0,0,0,-1,2015,1828,0,0
798,-804,0,0,0,0,0,0,0,0,0,-1,2022,1828,0,0
805,-804,0,0,0,0,0,0,0,0,0,-1,2029,1828,0,0
812,-804,0,0,0,0,0,0,0,0,0,-1,2036,1828,0,0

